 "x_c",  "y_c",  "u_c",  "v_c",  "exx",  "eyy",  "exy",  "e1",  "e2",  "gamma",  "e_vonmises",  "sigma",  "x",  "y",  "u",  "v"
-700,715,0,0,0,0,0,0,0,0,0,-1,524,309,0,0
-693,715,0,0,0,0,0,0,0,0,0,-1,531,309,0,0
-686,715,0,0,0,0,0,0,0,0,0,-1,538,309,0,0
-679,715,0,0,0,0,0,0,0,0,0,-1,545,309,0,0
-672,715,0,0,0,0,0,0,0,0,0,-1,552,309,0,0
-665,715,0,0,0,0,0,0,0,0,0,-1,559,309,0,0
-658,715,0,0,0,0,0,0,0,0,0,-1,566,309,0,0
-651,715,0,0,0,0,0,0,0,0,0,-1,573,309,0,0
-644,715,0,0,0,0,0,0,0,0,0,-1,580,309,0,0
-637,715,0,0,0,0,0,0,0,0,0,-1,587,309,0,0
-630,715,0,0,0,0,0,0,0,0,0,-1,594,309,0,0
-623,715,0,0,0,0,0,0,0,0,0,-1,601,309,0,0
-616,715,0,0,0,0,0,0,0,0,0,-1,608,309,0,0
-609,715,0,0,0,0,0,0,0,0,0,-1,615,309,0,0
-602,715,0,0,0,0,0,0,0,0,0,-1,622,309,0,0
-595,715,0,0,0,0,0,0,0,0,0,-1,629,309,0,0
-588,715,0,0,0,0,0,0,0,0,0,-1,636,309,0,0
-581,715,0,0,0,0,0,0,0,0,0,-1,643,309,0,0
-574,715,0,0,0,0,0,0,0,0,0,-1,650,309,0,0
-567,715,0,0,0,0,0,0,0,0,0,-1,657,309,0,0
-560,715,0,0,0,0,0,0,0,0,0,-1,664,309,0,0
-553,715,0,0,0,0,0,0,0,0,0,-1,671,309,0,0
-546,715,0,0,0,0,0,0,0,0,0,-1,678,309,0,0
-539,715,0,0,0,0,0,0,0,0,0,-1,685,309,0,0
-532,715,0,0,0,0,0,0,0,0,0,-1,692,309,0,0
-525,715,0,0,0,0,0,0,0,0,0,-1,699,309,0,0
-518,715,0,0,0,0,0,0,0,0,0,-1,706,309,0,0
-511,715,0,0,0,0,0,0,0,0,0,-1,713,309,0,0
-504,715,0,0,0,0,0,0,0,0,0,-1,720,309,0,0
-497,715,0,0,0,0,0,0,0,0,0,-1,727,309,0,0
-490,715,0,0,0,0,0,0,0,0,0,-1,734,309,0,0
-483,715,0,0,0,0,0,0,0,0,0,-1,741,309,0,0
-476,715,0,0,0,0,0,0,0,0,0,-1,748,309,0,0
-469,715,0,0,0,0,0,0,0,0,0,-1,755,309,0,0
-462,715,0,0,0,0,0,0,0,0,0,-1,762,309,0,0
-455,715,0,0,0,0,0,0,0,0,0,-1,769,309,0,0
-448,715,0,0,0,0,0,0,0,0,0,-1,776,309,0,0
-441,715,0,0,0,0,0,0,0,0,0,-1,783,309,0,0
-434,715,0,0,0,0,0,0,0,0,0,-1,790,309,0,0
-427,715,0,0,0,0,0,0,0,0,0,-1,797,309,0,0
-420,715,0,0,0,0,0,0,0,0,0,-1,804,309,0,0
-413,715,0,0,0,0,0,0,0,0,0,-1,811,309,0,0
-406,715,0,0,0,0,0,0,0,0,0,-1,818,309,0,0
-399,715,0,0,0,0,0,0,0,0,0,-1,825,309,0,0
-392,715,0,0,0,0,0,0,0,0,0,-1,832,309,0,0
-385,715,0,0,0,0,0,0,0,0,0,-1,839,309,0,0
-378,715,0,0,0,0,0,0,0,0,0,-1,846,309,0,0
-371,715,0,0,0,0,0,0,0,0,0,-1,853,309,0,0
-364,715,0,0,0,0,0,0,0,0,0,-1,860,309,0,0
-357,715,0,0,0,0,0,0,0,0,0,-1,867,309,0,0
-350,715,0,0,0,0,0,0,0,0,0,-1,874,309,0,0
-343,715,0,0,0,0,0,0,0,0,0,-1,881,309,0,0
-336,715,0,0,0,0,0,0,0,0,0,-1,888,309,0,0
-329,715,0,0,0,0,0,0,0,0,0,-1,895,309,0,0
-322,715,0,0,0,0,0,0,0,0,0,-1,902,309,0,0
-315,715,0,0,0,0,0,0,0,0,0,-1,909,309,0,0
-308,715,0,0,0,0,0,0,0,0,0,-1,916,309,0,0
-301,715,0,0,0,0,0,0,0,0,0,-1,923,309,0,0
-294,715,0,0,0,0,0,0,0,0,0,-1,930,309,0,0
-287,715,0,0,0,0,0,0,0,0,0,-1,937,309,0,0
-280,715,0,0,0,0,0,0,0,0,0,-1,944,309,0,0
-273,715,0,0,0,0,0,0,0,0,0,-1,951,309,0,0
-266,715,0,0,0,0,0,0,0,0,0,-1,958,309,0,0
-259,715,0,0,0,0,0,0,0,0,0,-1,965,309,0,0
-252,715,0,0,0,0,0,0,0,0,0,-1,972,309,0,0
-245,715,0,0,0,0,0,0,0,0,0,-1,979,309,0,0
-238,715,0,0,0,0,0,0,0,0,0,-1,986,309,0,0
-231,715,0,0,0,0,0,0,0,0,0,-1,993,309,0,0
-224,715,0,0,0,0,0,0,0,0,0,-1,1000,309,0,0
-217,715,0,0,0,0,0,0,0,0,0,-1,1007,309,0,0
-210,715,0,0,0,0,0,0,0,0,0,-1,1014,309,0,0
-203,715,0,0,0,0,0,0,0,0,0,-1,1021,309,0,0
-196,715,0,0,0,0,0,0,0,0,0,-1,1028,309,0,0
-189,715,0,0,0,0,0,0,0,0,0,-1,1035,309,0,0
-182,715,0,0,0,0,0,0,0,0,0,-1,1042,309,0,0
-175,715,0,0,0,0,0,0,0,0,0,-1,1049,309,0,0
-168,715,0,0,0,0,0,0,0,0,0,-1,1056,309,0,0
-161,715,0,0,0,0,0,0,0,0,0,-1,1063,309,0,0
-154,715,0,0,0,0,0,0,0,0,0,-1,1070,309,0,0
-147,715,0,0,0,0,0,0,0,0,0,-1,1077,309,0,0
-140,715,0,0,0,0,0,0,0,0,0,-1,1084,309,0,0
-133,715,0,0,0,0,0,0,0,0,0,-1,1091,309,0,0
-126,715,0,0,0,0,0,0,0,0,0,-1,1098,309,0,0
-119,715,0,0,0,0,0,0,0,0,0,-1,1105,309,0,0
-112,715,0,0,0,0,0,0,0,0,0,-1,1112,309,0,0
-105,715,0,0,0,0,0,0,0,0,0,-1,1119,309,0,0
-98,715,0,0,0,0,0,0,0,0,0,-1,1126,309,0,0
-91,715,0,0,0,0,0,0,0,0,0,-1,1133,309,0,0
-84,715,0,0,0,0,0,0,0,0,0,-1,1140,309,0,0
-77,715,0,0,0,0,0,0,0,0,0,-1,1147,309,0,0
-70,715,0,0,0,0,0,0,0,0,0,-1,1154,309,0,0
-63,715,0,0,0,0,0,0,0,0,0,-1,1161,309,0,0
-56,715,0,0,0,0,0,0,0,0,0,-1,1168,309,0,0
-49,715,0,0,0,0,0,0,0,0,0,-1,1175,309,0,0
-42,715,0,0,0,0,0,0,0,0,0,-1,1182,309,0,0
-35,715,0,0,0,0,0,0,0,0,0,-1,1189,309,0,0
-28,715,0,0,0,0,0,0,0,0,0,-1,1196,309,0,0
-21,715,0,0,0,0,0,0,0,0,0,-1,1203,309,0,0
-14,715,0,0,0,0,0,0,0,0,0,-1,1210,309,0,0
-7,715,0,0,0,0,0,0,0,0,0,-1,1217,309,0,0
0,715,0,0,0,0,0,0,0,0,0,-1,1224,309,0,0
7,715,0,0,0,0,0,0,0,0,0,-1,1231,309,0,0
14,715,0,0,0,0,0,0,0,0,0,-1,1238,309,0,0
21,715,0,0,0,0,0,0,0,0,0,-1,1245,309,0,0
28,715,0,0,0,0,0,0,0,0,0,-1,1252,309,0,0
35,715,0,0,0,0,0,0,0,0,0,-1,1259,309,0,0
42,715,0,0,0,0,0,0,0,0,0,-1,1266,309,0,0
49,715,0,0,0,0,0,0,0,0,0,-1,1273,309,0,0
56,715,0,0,0,0,0,0,0,0,0,-1,1280,309,0,0
63,715,8.14136,-119.246,0,0,0,0,0,0,0,-1,1287,309,8.14141,119.246
70,715,8.20374,-119.453,0,0,0,0,0,0,0,-1,1294,309,8.20378,119.453
77,715,0,0,0,0,0,0,0,0,0,-1,1301,309,0,0
84,715,0,0,0,0,0,0,0,0,0,-1,1308,309,0,0
91,715,0,0,0,0,0,0,0,0,0,-1,1315,309,0,0
98,715,0,0,0,0,0,0,0,0,0,-1,1322,309,0,0
105,715,0,0,0,0,0,0,0,0,0,-1,1329,309,0,0
112,715,0,0,0,0,0,0,0,0,0,-1,1336,309,0,0
119,715,0,0,0,0,0,0,0,0,0,-1,1343,309,0,0
126,715,0,0,0,0,0,0,0,0,0,-1,1350,309,0,0
133,715,0,0,0,0,0,0,0,0,0,-1,1357,309,0,0
140,715,0,0,0,0,0,0,0,0,0,-1,1364,309,0,0
147,715,0,0,0,0,0,0,0,0,0,-1,1371,309,0,0
154,715,0,0,0,0,0,0,0,0,0,-1,1378,309,0,0
161,715,0,0,0,0,0,0,0,0,0,-1,1385,309,0,0
168,715,0,0,0,0,0,0,0,0,0,-1,1392,309,0,0
175,715,0,0,0,0,0,0,0,0,0,-1,1399,309,0,0
182,715,0,0,0,0,0,0,0,0,0,-1,1406,309,0,0
189,715,0,0,0,0,0,0,0,0,0,-1,1413,309,0,0
196,715,0,0,0,0,0,0,0,0,0,-1,1420,309,0,0
203,715,0,0,0,0,0,0,0,0,0,-1,1427,309,0,0
210,715,0,0,0,0,0,0,0,0,0,-1,1434,309,0,0
217,715,0,0,0,0,0,0,0,0,0,-1,1441,309,0,0
224,715,0,0,0,0,0,0,0,0,0,-1,1448,309,0,0
231,715,0,0,0,0,0,0,0,0,0,-1,1455,309,0,0
238,715,0,0,0,0,0,0,0,0,0,-1,1462,309,0,0
245,715,0,0,0,0,0,0,0,0,0,-1,1469,309,0,0
252,715,0,0,0,0,0,0,0,0,0,-1,1476,309,0,0
259,715,0,0,0,0,0,0,0,0,0,-1,1483,309,0,0
266,715,0,0,0,0,0,0,0,0,0,-1,1490,309,0,0
273,715,0,0,0,0,0,0,0,0,0,-1,1497,309,0,0
280,715,0,0,0,0,0,0,0,0,0,-1,1504,309,0,0
287,715,0,0,0,0,0,0,0,0,0,-1,1511,309,0,0
294,715,0,0,0,0,0,0,0,0,0,-1,1518,309,0,0
301,715,0,0,0,0,0,0,0,0,0,-1,1525,309,0,0
308,715,0,0,0,0,0,0,0,0,0,-1,1532,309,0,0
315,715,0,0,0,0,0,0,0,0,0,-1,1539,309,0,0
322,715,0,0,0,0,0,0,0,0,0,-1,1546,309,0,0
329,715,0,0,0,0,0,0,0,0,0,-1,1553,309,0,0
336,715,0,0,0,0,0,0,0,0,0,-1,1560,309,0,0
343,715,0,0,0,0,0,0,0,0,0,-1,1567,309,0,0
350,715,0,0,0,0,0,0,0,0,0,-1,1574,309,0,0
357,715,0,0,0,0,0,0,0,0,0,-1,1581,309,0,0
364,715,0,0,0,0,0,0,0,0,0,-1,1588,309,0,0
371,715,0,0,0,0,0,0,0,0,0,-1,1595,309,0,0
378,715,0,0,0,0,0,0,0,0,0,-1,1602,309,0,0
385,715,0,0,0,0,0,0,0,0,0,-1,1609,309,0,0
392,715,0,0,0,0,0,0,0,0,0,-1,1616,309,0,0
399,715,0,0,0,0,0,0,0,0,0,-1,1623,309,0,0
406,715,0,0,0,0,0,0,0,0,0,-1,1630,309,0,0
413,715,0,0,0,0,0,0,0,0,0,-1,1637,309,0,0
420,715,0,0,0,0,0,0,0,0,0,-1,1644,309,0,0
427,715,0,0,0,0,0,0,0,0,0,-1,1651,309,0,0
434,715,0,0,0,0,0,0,0,0,0,-1,1658,309,0,0
441,715,0,0,0,0,0,0,0,0,0,-1,1665,309,0,0
448,715,0,0,0,0,0,0,0,0,0,-1,1672,309,0,0
455,715,0,0,0,0,0,0,0,0,0,-1,1679,309,0,0
462,715,0,0,0,0,0,0,0,0,0,-1,1686,309,0,0
469,715,0,0,0,0,0,0,0,0,0,-1,1693,309,0,0
476,715,0,0,0,0,0,0,0,0,0,-1,1700,309,0,0
483,715,0,0,0,0,0,0,0,0,0,-1,1707,309,0,0
490,715,0,0,0,0,0,0,0,0,0,-1,1714,309,0,0
497,715,0,0,0,0,0,0,0,0,0,-1,1721,309,0,0
504,715,0,0,0,0,0,0,0,0,0,-1,1728,309,0,0
511,715,0,0,0,0,0,0,0,0,0,-1,1735,309,0,0
518,715,0,0,0,0,0,0,0,0,0,-1,1742,309,0,0
525,715,0,0,0,0,0,0,0,0,0,-1,1749,309,0,0
532,715,0,0,0,0,0,0,0,0,0,-1,1756,309,0,0
539,715,0,0,0,0,0,0,0,0,0,-1,1763,309,0,0
546,715,0,0,0,0,0,0,0,0,0,-1,1770,309,0,0
553,715,0,0,0,0,0,0,0,0,0,-1,1777,309,0,0
560,715,0,0,0,0,0,0,0,0,0,-1,1784,309,0,0
567,715,0,0,0,0,0,0,0,0,0,-1,1791,309,0,0
574,715,0,0,0,0,0,0,0,0,0,-1,1798,309,0,0
581,715,0,0,0,0,0,0,0,0,0,-1,1805,309,0,0
588,715,0,0,0,0,0,0,0,0,0,-1,1812,309,0,0
595,715,0,0,0,0,0,0,0,0,0,-1,1819,309,0,0
602,715,0,0,0,0,0,0,0,0,0,-1,1826,309,0,0
609,715,0,0,0,0,0,0,0,0,0,-1,1833,309,0,0
616,715,0,0,0,0,0,0,0,0,0,-1,1840,309,0,0
623,715,0,0,0,0,0,0,0,0,0,-1,1847,309,0,0
630,715,0,0,0,0,0,0,0,0,0,-1,1854,309,0,0
637,715,0,0,0,0,0,0,0,0,0,-1,1861,309,0,0
644,715,0,0,0,0,0,0,0,0,0,-1,1868,309,0,0
651,715,0,0,0,0,0,0,0,0,0,-1,1875,309,0,0
658,715,0,0,0,0,0,0,0,0,0,-1,1882,309,0,0
665,715,0,0,0,0,0,0,0,0,0,-1,1889,309,0,0
672,715,0,0,0,0,0,0,0,0,0,-1,1896,309,0,0
679,715,0,0,0,0,0,0,0,0,0,-1,1903,309,0,0
686,715,0,0,0,0,0,0,0,0,0,-1,1910,309,0,0
693,715,0,0,0,0,0,0,0,0,0,-1,1917,309,0,0
700,715,0,0,0,0,0,0,0,0,0,-1,1924,309,0,0
707,715,0,0,0,0,0,0,0,0,0,-1,1931,309,0,0
714,715,0,0,0,0,0,0,0,0,0,-1,1938,309,0,0
721,715,0,0,0,0,0,0,0,0,0,-1,1945,309,0,0
728,715,0,0,0,0,0,0,0,0,0,-1,1952,309,0,0
735,715,0,0,0,0,0,0,0,0,0,-1,1959,309,0,0
742,715,0,0,0,0,0,0,0,0,0,-1,1966,309,0,0
749,715,0,0,0,0,0,0,0,0,0,-1,1973,309,0,0
756,715,0,0,0,0,0,0,0,0,0,-1,1980,309,0,0
763,715,0,0,0,0,0,0,0,0,0,-1,1987,309,0,0
770,715,0,0,0,0,0,0,0,0,0,-1,1994,309,0,0
777,715,0,0,0,0,0,0,0,0,0,-1,2001,309,0,0
784,715,0,0,0,0,0,0,0,0,0,-1,2008,309,0,0
791,715,0,0,0,0,0,0,0,0,0,-1,2015,309,0,0
798,715,0,0,0,0,0,0,0,0,0,-1,2022,309,0,0
805,715,0,0,0,0,0,0,0,0,0,-1,2029,309,0,0
812,715,0,0,0,0,0,0,0,0,0,-1,2036,309,0,0
-700,708,0,0,0,0,0,0,0,0,0,-1,524,316,0,0
-693,708,0,0,0,0,0,0,0,0,0,-1,531,316,0,0
-686,708,0,0,0,0,0,0,0,0,0,-1,538,316,0,0
-679,708,0,0,0,0,0,0,0,0,0,-1,545,316,0,0
-672,708,0,0,0,0,0,0,0,0,0,-1,552,316,0,0
-665,708,0,0,0,0,0,0,0,0,0,-1,559,316,0,0
-658,708,0,0,0,0,0,0,0,0,0,-1,566,316,0,0
-651,708,0,0,0,0,0,0,0,0,0,-1,573,316,0,0
-644,708,0,0,0,0,0,0,0,0,0,-1,580,316,0,0
-637,708,0,0,0,0,0,0,0,0,0,-1,587,316,0,0
-630,708,0,0,0,0,0,0,0,0,0,-1,594,316,0,0
-623,708,0,0,0,0,0,0,0,0,0,-1,601,316,0,0
-616,708,0,0,0,0,0,0,0,0,0,-1,608,316,0,0
-609,708,0,0,0,0,0,0,0,0,0,-1,615,316,0,0
-602,708,0,0,0,0,0,0,0,0,0,-1,622,316,0,0
-595,708,0,0,0,0,0,0,0,0,0,-1,629,316,0,0
-588,708,0,0,0,0,0,0,0,0,0,-1,636,316,0,0
-581,708,0,0,0,0,0,0,0,0,0,-1,643,316,0,0
-574,708,0,0,0,0,0,0,0,0,0,-1,650,316,0,0
-567,708,0,0,0,0,0,0,0,0,0,-1,657,316,0,0
-560,708,0,0,0,0,0,0,0,0,0,-1,664,316,0,0
-553,708,0,0,0,0,0,0,0,0,0,-1,671,316,0,0
-546,708,0,0,0,0,0,0,0,0,0,-1,678,316,0,0
-539,708,0,0,0,0,0,0,0,0,0,-1,685,316,0,0
-532,708,0,0,0,0,0,0,0,0,0,-1,692,316,0,0
-525,708,0,0,0,0,0,0,0,0,0,-1,699,316,0,0
-518,708,0,0,0,0,0,0,0,0,0,-1,706,316,0,0
-511,708,0,0,0,0,0,0,0,0,0,-1,713,316,0,0
-504,708,0,0,0,0,0,0,0,0,0,-1,720,316,0,0
-497,708,0,0,0,0,0,0,0,0,0,-1,727,316,0,0
-490,708,0,0,0,0,0,0,0,0,0,-1,734,316,0,0
-483,708,0,0,0,0,0,0,0,0,0,-1,741,316,0,0
-476,708,0,0,0,0,0,0,0,0,0,-1,748,316,0,0
-469,708,0,0,0,0,0,0,0,0,0,-1,755,316,0,0
-462,708,0,0,0,0,0,0,0,0,0,-1,762,316,0,0
-455,708,0,0,0,0,0,0,0,0,0,-1,769,316,0,0
-448,708,0,0,0,0,0,0,0,0,0,-1,776,316,0,0
-441,708,0,0,0,0,0,0,0,0,0,-1,783,316,0,0
-434,708,0,0,0,0,0,0,0,0,0,-1,790,316,0,0
-427,708,0,0,0,0,0,0,0,0,0,-1,797,316,0,0
-420,708,0,0,0,0,0,0,0,0,0,-1,804,316,0,0
-413,708,0,0,0,0,0,0,0,0,0,-1,811,316,0,0
-406,708,0,0,0,0,0,0,0,0,0,-1,818,316,0,0
-399,708,0,0,0,0,0,0,0,0,0,-1,825,316,0,0
-392,708,0,0,0,0,0,0,0,0,0,-1,832,316,0,0
-385,708,0,0,0,0,0,0,0,0,0,-1,839,316,0,0
-378,708,0,0,0,0,0,0,0,0,0,-1,846,316,0,0
-371,708,0,0,0,0,0,0,0,0,0,-1,853,316,0,0
-364,708,0,0,0,0,0,0,0,0,0,-1,860,316,0,0
-357,708,0,0,0,0,0,0,0,0,0,-1,867,316,0,0
-350,708,0,0,0,0,0,0,0,0,0,-1,874,316,0,0
-343,708,0,0,0,0,0,0,0,0,0,-1,881,316,0,0
-336,708,0,0,0,0,0,0,0,0,0,-1,888,316,0,0
-329,708,0,0,0,0,0,0,0,0,0,-1,895,316,0,0
-322,708,0,0,0,0,0,0,0,0,0,-1,902,316,0,0
-315,708,0,0,0,0,0,0,0,0,0,-1,909,316,0,0
-308,708,0,0,0,0,0,0,0,0,0,-1,916,316,0,0
-301,708,0,0,0,0,0,0,0,0,0,-1,923,316,0,0
-294,708,0,0,0,0,0,0,0,0,0,-1,930,316,0,0
-287,708,0,0,0,0,0,0,0,0,0,-1,937,316,0,0
-280,708,0,0,0,0,0,0,0,0,0,-1,944,316,0,0
-273,708,0,0,0,0,0,0,0,0,0,-1,951,316,0,0
-266,708,0,0,0,0,0,0,0,0,0,-1,958,316,0,0
-259,708,0,0,0,0,0,0,0,0,0,-1,965,316,0,0
-252,708,0,0,0,0,0,0,0,0,0,-1,972,316,0,0
-245,708,0,0,0,0,0,0,0,0,0,-1,979,316,0,0
-238,708,0,0,0,0,0,0,0,0,0,-1,986,316,0,0
-231,708,0,0,0,0,0,0,0,0,0,-1,993,316,0,0
-224,708,0,0,0,0,0,0,0,0,0,-1,1000,316,0,0
-217,708,0,0,0,0,0,0,0,0,0,-1,1007,316,0,0
-210,708,0,0,0,0,0,0,0,0,0,-1,1014,316,0,0
-203,708,0,0,0,0,0,0,0,0,0,-1,1021,316,0,0
-196,708,0,0,0,0,0,0,0,0,0,-1,1028,316,0,0
-189,708,0,0,0,0,0,0,0,0,0,-1,1035,316,0,0
-182,708,0,0,0,0,0,0,0,0,0,-1,1042,316,0,0
-175,708,0,0,0,0,0,0,0,0,0,-1,1049,316,0,0
-168,708,0,0,0,0,0,0,0,0,0,-1,1056,316,0,0
-161,708,0,0,0,0,0,0,0,0,0,-1,1063,316,0,0
-154,708,0,0,0,0,0,0,0,0,0,-1,1070,316,0,0
-147,708,0,0,0,0,0,0,0,0,0,-1,1077,316,0,0
-140,708,0,0,0,0,0,0,0,0,0,-1,1084,316,0,0
-133,708,0,0,0,0,0,0,0,0,0,-1,1091,316,0,0
-126,708,0,0,0,0,0,0,0,0,0,-1,1098,316,0,0
-119,708,0,0,0,0,0,0,0,0,0,-1,1105,316,0,0
-112,708,0,0,0,0,0,0,0,0,0,-1,1112,316,0,0
-105,708,0,0,0,0,0,0,0,0,0,-1,1119,316,0,0
-98,708,0,0,0,0,0,0,0,0,0,-1,1126,316,0,0
-91,708,0,0,0,0,0,0,0,0,0,-1,1133,316,0,0
-84,708,0,0,0,0,0,0,0,0,0,-1,1140,316,0,0
-77,708,0,0,0,0,0,0,0,0,0,-1,1147,316,0,0
-70,708,0,0,0,0,0,0,0,0,0,-1,1154,316,0,0
-63,708,0,0,0,0,0,0,0,0,0,-1,1161,316,0,0
-56,708,0,0,0,0,0,0,0,0,0,-1,1168,316,0,0
-49,708,0,0,0,0,0,0,0,0,0,-1,1175,316,0,0
-42,708,0,0,0,0,0,0,0,0,0,-1,1182,316,0,0
-35,708,-2.71204,-6.31558,0,0,0,0,0,0,0,-1,1189,316,-2.712,6.3156
-28,708,-2.92371,-5.53253,0,0,0,0,0,0,0,-1,1196,316,-2.92375,5.53254
-21,708,-0.417969,-24.5911,0,0,0,0,0,0,0,-1,1203,316,-0.418022,24.5911
-14,708,8.77576,-122.585,0,0,0,0,0,0,0,-1,1210,316,8.77573,122.585
-7,708,8.87292,-123.217,0,0,0,0,0,0,0,-1,1217,316,8.87295,123.217
0,708,8.97021,-123.85,0,0,0,0,0,0,0,-1,1224,316,8.97017,123.85
7,708,6.96973,-121.466,0,0,0,0,0,0,0,-1,1231,316,6.96978,121.466
14,708,7.20691,-119.157,0,0,0,0,0,0,0,-1,1238,316,7.20695,119.157
21,708,6.48389,-119.371,0,0,0,0,0,0,0,-1,1245,316,6.48383,119.371
28,708,6.71021,-119.555,0,0,0,0,0,0,0,-1,1252,316,6.71017,119.555
35,708,7.31689,-119.452,0,0,0,0,0,0,0,-1,1259,316,7.31695,119.452
42,708,8.72363,-120.018,0,0,0,0,0,0,0,-1,1266,316,8.72361,120.018
49,708,8.57825,-119.912,0,0,0,0,0,0,0,-1,1273,316,8.57829,119.912
56,708,8.43506,-119.826,0,0,0,0,0,0,0,-1,1280,316,8.43504,119.826
63,708,8.29907,-119.774,0,0,0,0,0,0,0,-1,1287,316,8.29904,119.774
70,708,8.32617,-119.677,0,0,0,0,0,0,0,-1,1294,316,8.32615,119.677
77,708,8.13086,-119.211,0,0,0,0,0,0,0,-1,1301,316,8.13092,119.211
84,708,7.92749,-118.728,0,0,0,0,0,0,0,-1,1308,316,7.92745,118.728
91,708,8.04431,-118.231,0,0,0,0,0,0,0,-1,1315,316,8.04436,118.231
98,708,7.88989,-117.94,0,0,0,0,0,0,0,-1,1322,316,7.88989,117.94
105,708,7.70032,-117.698,0,0,0,0,0,0,0,-1,1329,316,7.70037,117.698
112,708,8.05212,-116.462,0,0,0,0,0,0,0,-1,1336,316,8.05209,116.462
119,708,4.22241,-117.54,0,0,0,0,0,0,0,-1,1343,316,4.22246,117.54
126,708,3.62878,-116.281,0,0,0,0,0,0,0,-1,1350,316,3.62874,116.281
133,708,7.8053,-117.805,0,0,0,0,0,0,0,-1,1357,316,7.80527,117.805
140,708,7.15955,-118.207,0,0,0,0,0,0,0,-1,1364,316,7.15953,118.207
147,708,-7.81604,-108.593,0,0,0,0,0,0,0,-1,1371,316,-7.81607,108.593
154,708,0,0,0,0,0,0,0,0,0,-1,1378,316,0,0
161,708,0,0,0,0,0,0,0,0,0,-1,1385,316,0,0
168,708,0,0,0,0,0,0,0,0,0,-1,1392,316,0,0
175,708,0,0,0,0,0,0,0,0,0,-1,1399,316,0,0
182,708,0,0,0,0,0,0,0,0,0,-1,1406,316,0,0
189,708,0,0,0,0,0,0,0,0,0,-1,1413,316,0,0
196,708,0,0,0,0,0,0,0,0,0,-1,1420,316,0,0
203,708,0,0,0,0,0,0,0,0,0,-1,1427,316,0,0
210,708,0,0,0,0,0,0,0,0,0,-1,1434,316,0,0
217,708,0,0,0,0,0,0,0,0,0,-1,1441,316,0,0
224,708,0,0,0,0,0,0,0,0,0,-1,1448,316,0,0
231,708,0,0,0,0,0,0,0,0,0,-1,1455,316,0,0
238,708,0,0,0,0,0,0,0,0,0,-1,1462,316,0,0
245,708,0,0,0,0,0,0,0,0,0,-1,1469,316,0,0
252,708,0,0,0,0,0,0,0,0,0,-1,1476,316,0,0
259,708,0,0,0,0,0,0,0,0,0,-1,1483,316,0,0
266,708,0,0,0,0,0,0,0,0,0,-1,1490,316,0,0
273,708,0,0,0,0,0,0,0,0,0,-1,1497,316,0,0
280,708,0,0,0,0,0,0,0,0,0,-1,1504,316,0,0
287,708,0,0,0,0,0,0,0,0,0,-1,1511,316,0,0
294,708,0,0,0,0,0,0,0,0,0,-1,1518,316,0,0
301,708,0,0,0,0,0,0,0,0,0,-1,1525,316,0,0
308,708,0,0,0,0,0,0,0,0,0,-1,1532,316,0,0
315,708,0,0,0,0,0,0,0,0,0,-1,1539,316,0,0
322,708,0,0,0,0,0,0,0,0,0,-1,1546,316,0,0
329,708,0,0,0,0,0,0,0,0,0,-1,1553,316,0,0
336,708,0,0,0,0,0,0,0,0,0,-1,1560,316,0,0
343,708,0,0,0,0,0,0,0,0,0,-1,1567,316,0,0
350,708,0,0,0,0,0,0,0,0,0,-1,1574,316,0,0
357,708,0,0,0,0,0,0,0,0,0,-1,1581,316,0,0
364,708,0,0,0,0,0,0,0,0,0,-1,1588,316,0,0
371,708,0,0,0,0,0,0,0,0,0,-1,1595,316,0,0
378,708,0,0,0,0,0,0,0,0,0,-1,1602,316,0,0
385,708,0,0,0,0,0,0,0,0,0,-1,1609,316,0,0
392,708,0,0,0,0,0,0,0,0,0,-1,1616,316,0,0
399,708,0,0,0,0,0,0,0,0,0,-1,1623,316,0,0
406,708,0,0,0,0,0,0,0,0,0,-1,1630,316,0,0
413,708,0,0,0,0,0,0,0,0,0,-1,1637,316,0,0
420,708,0,0,0,0,0,0,0,0,0,-1,1644,316,0,0
427,708,0,0,0,0,0,0,0,0,0,-1,1651,316,0,0
434,708,0,0,0,0,0,0,0,0,0,-1,1658,316,0,0
441,708,0,0,0,0,0,0,0,0,0,-1,1665,316,0,0
448,708,0,0,0,0,0,0,0,0,0,-1,1672,316,0,0
455,708,0,0,0,0,0,0,0,0,0,-1,1679,316,0,0
462,708,0,0,0,0,0,0,0,0,0,-1,1686,316,0,0
469,708,0,0,0,0,0,0,0,0,0,-1,1693,316,0,0
476,708,0,0,0,0,0,0,0,0,0,-1,1700,316,0,0
483,708,0,0,0,0,0,0,0,0,0,-1,1707,316,0,0
490,708,0,0,0,0,0,0,0,0,0,-1,1714,316,0,0
497,708,0,0,0,0,0,0,0,0,0,-1,1721,316,0,0
504,708,0,0,0,0,0,0,0,0,0,-1,1728,316,0,0
511,708,0,0,0,0,0,0,0,0,0,-1,1735,316,0,0
518,708,0,0,0,0,0,0,0,0,0,-1,1742,316,0,0
525,708,0,0,0,0,0,0,0,0,0,-1,1749,316,0,0
532,708,0,0,0,0,0,0,0,0,0,-1,1756,316,0,0
539,708,0,0,0,0,0,0,0,0,0,-1,1763,316,0,0
546,708,0,0,0,0,0,0,0,0,0,-1,1770,316,0,0
553,708,0,0,0,0,0,0,0,0,0,-1,1777,316,0,0
560,708,0,0,0,0,0,0,0,0,0,-1,1784,316,0,0
567,708,0,0,0,0,0,0,0,0,0,-1,1791,316,0,0
574,708,0,0,0,0,0,0,0,0,0,-1,1798,316,0,0
581,708,0,0,0,0,0,0,0,0,0,-1,1805,316,0,0
588,708,0,0,0,0,0,0,0,0,0,-1,1812,316,0,0
595,708,0,0,0,0,0,0,0,0,0,-1,1819,316,0,0
602,708,0,0,0,0,0,0,0,0,0,-1,1826,316,0,0
609,708,0,0,0,0,0,0,0,0,0,-1,1833,316,0,0
616,708,0,0,0,0,0,0,0,0,0,-1,1840,316,0,0
623,708,0,0,0,0,0,0,0,0,0,-1,1847,316,0,0
630,708,0,0,0,0,0,0,0,0,0,-1,1854,316,0,0
637,708,0,0,0,0,0,0,0,0,0,-1,1861,316,0,0
644,708,0,0,0,0,0,0,0,0,0,-1,1868,316,0,0
651,708,0,0,0,0,0,0,0,0,0,-1,1875,316,0,0
658,708,0,0,0,0,0,0,0,0,0,-1,1882,316,0,0
665,708,0,0,0,0,0,0,0,0,0,-1,1889,316,0,0
672,708,0,0,0,0,0,0,0,0,0,-1,1896,316,0,0
679,708,0,0,0,0,0,0,0,0,0,-1,1903,316,0,0
686,708,0,0,0,0,0,0,0,0,0,-1,1910,316,0,0
693,708,0,0,0,0,0,0,0,0,0,-1,1917,316,0,0
700,708,0,0,0,0,0,0,0,0,0,-1,1924,316,0,0
707,708,0,0,0,0,0,0,0,0,0,-1,1931,316,0,0
714,708,0,0,0,0,0,0,0,0,0,-1,1938,316,0,0
721,708,0,0,0,0,0,0,0,0,0,-1,1945,316,0,0
728,708,0,0,0,0,0,0,0,0,0,-1,1952,316,0,0
735,708,0,0,0,0,0,0,0,0,0,-1,1959,316,0,0
742,708,0,0,0,0,0,0,0,0,0,-1,1966,316,0,0
749,708,0,0,0,0,0,0,0,0,0,-1,1973,316,0,0
756,708,0,0,0,0,0,0,0,0,0,-1,1980,316,0,0
763,708,0,0,0,0,0,0,0,0,0,-1,1987,316,0,0
770,708,0,0,0,0,0,0,0,0,0,-1,1994,316,0,0
777,708,0,0,0,0,0,0,0,0,0,-1,2001,316,0,0
784,708,0,0,0,0,0,0,0,0,0,-1,2008,316,0,0
791,708,0,0,0,0,0,0,0,0,0,-1,2015,316,0,0
798,708,0,0,0,0,0,0,0,0,0,-1,2022,316,0,0
805,708,0,0,0,0,0,0,0,0,0,-1,2029,316,0,0
812,708,0,0,0,0,0,0,0,0,0,-1,2036,316,0,0
-700,701,0,0,0,0,0,0,0,0,0,-1,524,323,0,0
-693,701,0,0,0,0,0,0,0,0,0,-1,531,323,0,0
-686,701,0,0,0,0,0,0,0,0,0,-1,538,323,0,0
-679,701,0,0,0,0,0,0,0,0,0,-1,545,323,0,0
-672,701,0,0,0,0,0,0,0,0,0,-1,552,323,0,0
-665,701,0,0,0,0,0,0,0,0,0,-1,559,323,0,0
-658,701,0,0,0,0,0,0,0,0,0,-1,566,323,0,0
-651,701,0,0,0,0,0,0,0,0,0,-1,573,323,0,0
-644,701,0,0,0,0,0,0,0,0,0,-1,580,323,0,0
-637,701,0,0,0,0,0,0,0,0,0,-1,587,323,0,0
-630,701,0,0,0,0,0,0,0,0,0,-1,594,323,0,0
-623,701,0,0,0,0,0,0,0,0,0,-1,601,323,0,0
-616,701,0,0,0,0,0,0,0,0,0,-1,608,323,0,0
-609,701,0,0,0,0,0,0,0,0,0,-1,615,323,0,0
-602,701,0,0,0,0,0,0,0,0,0,-1,622,323,0,0
-595,701,0,0,0,0,0,0,0,0,0,-1,629,323,0,0
-588,701,0,0,0,0,0,0,0,0,0,-1,636,323,0,0
-581,701,0,0,0,0,0,0,0,0,0,-1,643,323,0,0
-574,701,0,0,0,0,0,0,0,0,0,-1,650,323,0,0
-567,701,0,0,0,0,0,0,0,0,0,-1,657,323,0,0
-560,701,0,0,0,0,0,0,0,0,0,-1,664,323,0,0
-553,701,0,0,0,0,0,0,0,0,0,-1,671,323,0,0
-546,701,0,0,0,0,0,0,0,0,0,-1,678,323,0,0
-539,701,0,0,0,0,0,0,0,0,0,-1,685,323,0,0
-532,701,0,0,0,0,0,0,0,0,0,-1,692,323,0,0
-525,701,0,0,0,0,0,0,0,0,0,-1,699,323,0,0
-518,701,0,0,0,0,0,0,0,0,0,-1,706,323,0,0
-511,701,0,0,0,0,0,0,0,0,0,-1,713,323,0,0
-504,701,0,0,0,0,0,0,0,0,0,-1,720,323,0,0
-497,701,0,0,0,0,0,0,0,0,0,-1,727,323,0,0
-490,701,0,0,0,0,0,0,0,0,0,-1,734,323,0,0
-483,701,0,0,0,0,0,0,0,0,0,-1,741,323,0,0
-476,701,0,0,0,0,0,0,0,0,0,-1,748,323,0,0
-469,701,0,0,0,0,0,0,0,0,0,-1,755,323,0,0
-462,701,0,0,0,0,0,0,0,0,0,-1,762,323,0,0
-455,701,0,0,0,0,0,0,0,0,0,-1,769,323,0,0
-448,701,0,0,0,0,0,0,0,0,0,-1,776,323,0,0
-441,701,0,0,0,0,0,0,0,0,0,-1,783,323,0,0
-434,701,0,0,0,0,0,0,0,0,0,-1,790,323,0,0
-427,701,0,0,0,0,0,0,0,0,0,-1,797,323,0,0
-420,701,0,0,0,0,0,0,0,0,0,-1,804,323,0,0
-413,701,0,0,0,0,0,0,0,0,0,-1,811,323,0,0
-406,701,0,0,0,0,0,0,0,0,0,-1,818,323,0,0
-399,701,0,0,0,0,0,0,0,0,0,-1,825,323,0,0
-392,701,0,0,0,0,0,0,0,0,0,-1,832,323,0,0
-385,701,0,0,0,0,0,0,0,0,0,-1,839,323,0,0
-378,701,0,0,0,0,0,0,0,0,0,-1,846,323,0,0
-371,701,0,0,0,0,0,0,0,0,0,-1,853,323,0,0
-364,701,0,0,0,0,0,0,0,0,0,-1,860,323,0,0
-357,701,0,0,0,0,0,0,0,0,0,-1,867,323,0,0
-350,701,0,0,0,0,0,0,0,0,0,-1,874,323,0,0
-343,701,0,0,0,0,0,0,0,0,0,-1,881,323,0,0
-336,701,0,0,0,0,0,0,0,0,0,-1,888,323,0,0
-329,701,0,0,0,0,0,0,0,0,0,-1,895,323,0,0
-322,701,0,0,0,0,0,0,0,0,0,-1,902,323,0,0
-315,701,0,0,0,0,0,0,0,0,0,-1,909,323,0,0
-308,701,0,0,0,0,0,0,0,0,0,-1,916,323,0,0
-301,701,0,0,0,0,0,0,0,0,0,-1,923,323,0,0
-294,701,0,0,0,0,0,0,0,0,0,-1,930,323,0,0
-287,701,0,0,0,0,0,0,0,0,0,-1,937,323,0,0
-280,701,0,0,0,0,0,0,0,0,0,-1,944,323,0,0
-273,701,0,0,0,0,0,0,0,0,0,-1,951,323,0,0
-266,701,0,0,0,0,0,0,0,0,0,-1,958,323,0,0
-259,701,0,0,0,0,0,0,0,0,0,-1,965,323,0,0
-252,701,0,0,0,0,0,0,0,0,0,-1,972,323,0,0
-245,701,0,0,0,0,0,0,0,0,0,-1,979,323,0,0
-238,701,0,0,0,0,0,0,0,0,0,-1,986,323,0,0
-231,701,0,0,0,0,0,0,0,0,0,-1,993,323,0,0
-224,701,0,0,0,0,0,0,0,0,0,-1,1000,323,0,0
-217,701,0,0,0,0,0,0,0,0,0,-1,1007,323,0,0
-210,701,0,0,0,0,0,0,0,0,0,-1,1014,323,0,0
-203,701,0,0,0,0,0,0,0,0,0,-1,1021,323,0,0
-196,701,0,0,0,0,0,0,0,0,0,-1,1028,323,0,0
-189,701,0,0,0,0,0,0,0,0,0,-1,1035,323,0,0
-182,701,0,0,0,0,0,0,0,0,0,-1,1042,323,0,0
-175,701,0,0,0,0,0,0,0,0,0,-1,1049,323,0,0
-168,701,0,0,0,0,0,0,0,0,0,-1,1056,323,0,0
-161,701,0,0,0,0,0,0,0,0,0,-1,1063,323,0,0
-154,701,0,0,0,0,0,0,0,0,0,-1,1070,323,0,0
-147,701,0,0,0,0,0,0,0,0,0,-1,1077,323,0,0
-140,701,0,0,0,0,0,0,0,0,0,-1,1084,323,0,0
-133,701,0,0,0,0,0,0,0,0,0,-1,1091,323,0,0
-126,701,0,0,0,0,0,0,0,0,0,-1,1098,323,0,0
-119,701,0,0,0,0,0,0,0,0,0,-1,1105,323,0,0
-112,701,0,0,0,0,0,0,0,0,0,-1,1112,323,0,0
-105,701,0,0,0,0,0,0,0,0,0,-1,1119,323,0,0
-98,701,0,0,0,0,0,0,0,0,0,-1,1126,323,0,0
-91,701,0,0,0,0,0,0,0,0,0,-1,1133,323,0,0
-84,701,0,0,0,0,0,0,0,0,0,-1,1140,323,0,0
-77,701,0,0,0,0,0,0,0,0,0,-1,1147,323,0,0
-70,701,-12.7566,-30.413,0,0,0,0,0,0,0,-1,1154,323,-12.7566,30.413
-63,701,-18.3169,-21.2322,0,0,0,0,0,0,0,-1,1161,323,-18.3169,21.2322
-56,701,-0.420166,-0.101776,0,0,0,0,0,0,0,-1,1168,323,-0.420119,0.101777
-49,701,-1.09021,-0.155762,0,0,0,0,0,0,0,-1,1175,323,-1.09024,0.155768
-42,701,-0.210327,-0.299133,0,0,0,0,0,0,0,-1,1182,323,-0.210379,0.29914
-35,701,-2.9635,-7.98676,0,0,0,0,0,0,0,-1,1189,323,-2.9635,7.98676
-28,701,-6.64417,-5.4917,0,0,0,0,0,0,0,-1,1196,323,-6.64411,5.4917
-21,701,11.4597,-104.853,0,0,0,0,0,0,0,-1,1203,323,11.4598,104.853
-14,701,8.23767,-122.245,0,0,0,0,0,0,0,-1,1210,323,8.23766,122.245
-7,701,8.22827,-122.938,0,0,0,0,0,0,0,-1,1217,323,8.22828,122.938
0,701,6.92151,-122.302,0,0,0,0,0,0,0,-1,1224,323,6.92149,122.302
7,701,7.1615,-122.1,0,0,0,0,0,0,0,-1,1231,323,7.16154,122.1
14,701,6.77295,-119.995,0,0,0,0,0,0,0,-1,1238,323,6.7729,119.995
21,701,6.71692,-119.996,0,0,0,0,0,0,0,-1,1245,323,6.71696,119.996
28,701,6.89722,-119.941,0,0,0,0,0,0,0,-1,1252,323,6.89723,119.941
35,701,7.3717,-120.095,0,0,0,0,0,0,0,-1,1259,323,7.37167,120.095
42,701,8.30591,-120.407,0,0,0,0,0,0,0,-1,1266,323,8.30597,120.407
49,701,8.6593,-120.547,0,0,0,0,0,0,0,-1,1273,323,8.65936,120.547
56,701,8.55237,-120.438,0,0,0,0,0,0,0,-1,1280,323,8.55231,120.438
63,701,8.40564,-120.269,0,0,0,0,0,0,0,-1,1287,323,8.40569,120.269
70,701,8.45422,-119.942,0,0,0,0,0,0,0,-1,1294,323,8.45419,119.942
77,701,8.73608,-119.57,0,0,0,0,0,0,0,-1,1301,323,8.73604,119.57
84,701,8.10242,-119.028,0,0,0,0,0,0,0,-1,1308,323,8.10246,119.028
91,701,8.16809,-118.168,0,0,0,0,0,0,0,-1,1315,323,8.16813,118.168
98,701,7.99939,-117.882,0,0,0,0,0,0,0,-1,1322,323,7.99942,117.882
105,701,8.37439,-117.677,0,0,0,0,0,0,0,-1,1329,323,8.37439,117.677
112,701,9.55273,-117.327,0,0,0,0,0,0,0,-1,1336,323,9.55277,117.327
119,701,10.7312,-116.978,0,0,0,0,0,0,0,-1,1343,323,10.7311,116.978
126,701,4.05469,-113.035,0,0,0,0,0,0,0,-1,1350,323,4.05473,113.035
133,701,8.98853,-119.089,0,0,0,0,0,0,0,-1,1357,323,8.98847,119.089
140,701,8.26868,-119.367,0,0,0,0,0,0,0,-1,1364,323,8.26871,119.367
147,701,-6.5968,-110.041,0,0,0,0,0,0,0,-1,1371,323,-6.5968,110.041
154,701,-9.04028,-110.465,0,0,0,0,0,0,0,-1,1378,323,-9.04028,110.465
161,701,-4.83057,-59.3711,0,0,0,0,0,0,0,-1,1385,323,-4.83061,59.3711
168,701,30.7272,1.76184,0,0,0,0,0,0,0,-1,1392,323,30.7272,-1.76184
175,701,31.5035,2.25711,0,0,0,0,0,0,0,-1,1399,323,31.5036,-2.25712
182,701,8.80652,5.42807,0,0,0,0,0,0,0,-1,1406,323,8.8065,-5.42808
189,701,8.58081,4.24493,0,0,0,0,0,0,0,-1,1413,323,8.58082,-4.24494
196,701,0,0,0,0,0,0,0,0,0,-1,1420,323,0,0
203,701,0,0,0,0,0,0,0,0,0,-1,1427,323,0,0
210,701,0,0,0,0,0,0,0,0,0,-1,1434,323,0,0
217,701,0,0,0,0,0,0,0,0,0,-1,1441,323,0,0
224,701,0,0,0,0,0,0,0,0,0,-1,1448,323,0,0
231,701,0,0,0,0,0,0,0,0,0,-1,1455,323,0,0
238,701,0,0,0,0,0,0,0,0,0,-1,1462,323,0,0
245,701,0,0,0,0,0,0,0,0,0,-1,1469,323,0,0
252,701,0,0,0,0,0,0,0,0,0,-1,1476,323,0,0
259,701,0,0,0,0,0,0,0,0,0,-1,1483,323,0,0
266,701,0,0,0,0,0,0,0,0,0,-1,1490,323,0,0
273,701,0,0,0,0,0,0,0,0,0,-1,1497,323,0,0
280,701,0,0,0,0,0,0,0,0,0,-1,1504,323,0,0
287,701,0,0,0,0,0,0,0,0,0,-1,1511,323,0,0
294,701,0,0,0,0,0,0,0,0,0,-1,1518,323,0,0
301,701,0,0,0,0,0,0,0,0,0,-1,1525,323,0,0
308,701,0,0,0,0,0,0,0,0,0,-1,1532,323,0,0
315,701,0,0,0,0,0,0,0,0,0,-1,1539,323,0,0
322,701,0,0,0,0,0,0,0,0,0,-1,1546,323,0,0
329,701,0,0,0,0,0,0,0,0,0,-1,1553,323,0,0
336,701,0,0,0,0,0,0,0,0,0,-1,1560,323,0,0
343,701,0,0,0,0,0,0,0,0,0,-1,1567,323,0,0
350,701,0,0,0,0,0,0,0,0,0,-1,1574,323,0,0
357,701,0,0,0,0,0,0,0,0,0,-1,1581,323,0,0
364,701,0,0,0,0,0,0,0,0,0,-1,1588,323,0,0
371,701,0,0,0,0,0,0,0,0,0,-1,1595,323,0,0
378,701,0,0,0,0,0,0,0,0,0,-1,1602,323,0,0
385,701,0,0,0,0,0,0,0,0,0,-1,1609,323,0,0
392,701,0,0,0,0,0,0,0,0,0,-1,1616,323,0,0
399,701,0,0,0,0,0,0,0,0,0,-1,1623,323,0,0
406,701,0,0,0,0,0,0,0,0,0,-1,1630,323,0,0
413,701,0,0,0,0,0,0,0,0,0,-1,1637,323,0,0
420,701,0,0,0,0,0,0,0,0,0,-1,1644,323,0,0
427,701,0,0,0,0,0,0,0,0,0,-1,1651,323,0,0
434,701,0,0,0,0,0,0,0,0,0,-1,1658,323,0,0
441,701,0,0,0,0,0,0,0,0,0,-1,1665,323,0,0
448,701,0,0,0,0,0,0,0,0,0,-1,1672,323,0,0
455,701,0,0,0,0,0,0,0,0,0,-1,1679,323,0,0
462,701,0,0,0,0,0,0,0,0,0,-1,1686,323,0,0
469,701,0,0,0,0,0,0,0,0,0,-1,1693,323,0,0
476,701,0,0,0,0,0,0,0,0,0,-1,1700,323,0,0
483,701,0,0,0,0,0,0,0,0,0,-1,1707,323,0,0
490,701,0,0,0,0,0,0,0,0,0,-1,1714,323,0,0
497,701,0,0,0,0,0,0,0,0,0,-1,1721,323,0,0
504,701,0,0,0,0,0,0,0,0,0,-1,1728,323,0,0
511,701,0,0,0,0,0,0,0,0,0,-1,1735,323,0,0
518,701,0,0,0,0,0,0,0,0,0,-1,1742,323,0,0
525,701,0,0,0,0,0,0,0,0,0,-1,1749,323,0,0
532,701,0,0,0,0,0,0,0,0,0,-1,1756,323,0,0
539,701,0,0,0,0,0,0,0,0,0,-1,1763,323,0,0
546,701,0,0,0,0,0,0,0,0,0,-1,1770,323,0,0
553,701,0,0,0,0,0,0,0,0,0,-1,1777,323,0,0
560,701,0,0,0,0,0,0,0,0,0,-1,1784,323,0,0
567,701,0,0,0,0,0,0,0,0,0,-1,1791,323,0,0
574,701,0,0,0,0,0,0,0,0,0,-1,1798,323,0,0
581,701,0,0,0,0,0,0,0,0,0,-1,1805,323,0,0
588,701,0,0,0,0,0,0,0,0,0,-1,1812,323,0,0
595,701,0,0,0,0,0,0,0,0,0,-1,1819,323,0,0
602,701,0,0,0,0,0,0,0,0,0,-1,1826,323,0,0
609,701,0,0,0,0,0,0,0,0,0,-1,1833,323,0,0
616,701,0,0,0,0,0,0,0,0,0,-1,1840,323,0,0
623,701,0,0,0,0,0,0,0,0,0,-1,1847,323,0,0
630,701,0,0,0,0,0,0,0,0,0,-1,1854,323,0,0
637,701,0,0,0,0,0,0,0,0,0,-1,1861,323,0,0
644,701,0,0,0,0,0,0,0,0,0,-1,1868,323,0,0
651,701,0,0,0,0,0,0,0,0,0,-1,1875,323,0,0
658,701,0,0,0,0,0,0,0,0,0,-1,1882,323,0,0
665,701,0,0,0,0,0,0,0,0,0,-1,1889,323,0,0
672,701,0,0,0,0,0,0,0,0,0,-1,1896,323,0,0
679,701,0,0,0,0,0,0,0,0,0,-1,1903,323,0,0
686,701,0,0,0,0,0,0,0,0,0,-1,1910,323,0,0
693,701,0,0,0,0,0,0,0,0,0,-1,1917,323,0,0
700,701,0,0,0,0,0,0,0,0,0,-1,1924,323,0,0
707,701,0,0,0,0,0,0,0,0,0,-1,1931,323,0,0
714,701,0,0,0,0,0,0,0,0,0,-1,1938,323,0,0
721,701,0,0,0,0,0,0,0,0,0,-1,1945,323,0,0
728,701,0,0,0,0,0,0,0,0,0,-1,1952,323,0,0
735,701,0,0,0,0,0,0,0,0,0,-1,1959,323,0,0
742,701,0,0,0,0,0,0,0,0,0,-1,1966,323,0,0
749,701,0,0,0,0,0,0,0,0,0,-1,1973,323,0,0
756,701,0,0,0,0,0,0,0,0,0,-1,1980,323,0,0
763,701,0,0,0,0,0,0,0,0,0,-1,1987,323,0,0
770,701,0,0,0,0,0,0,0,0,0,-1,1994,323,0,0
777,701,0,0,0,0,0,0,0,0,0,-1,2001,323,0,0
784,701,0,0,0,0,0,0,0,0,0,-1,2008,323,0,0
791,701,0,0,0,0,0,0,0,0,0,-1,2015,323,0,0
798,701,0,0,0,0,0,0,0,0,0,-1,2022,323,0,0
805,701,0,0,0,0,0,0,0,0,0,-1,2029,323,0,0
812,701,0,0,0,0,0,0,0,0,0,-1,2036,323,0,0
-700,694,0,0,0,0,0,0,0,0,0,-1,524,330,0,0
-693,694,0,0,0,0,0,0,0,0,0,-1,531,330,0,0
-686,694,0,0,0,0,0,0,0,0,0,-1,538,330,0,0
-679,694,0,0,0,0,0,0,0,0,0,-1,545,330,0,0
-672,694,0,0,0,0,0,0,0,0,0,-1,552,330,0,0
-665,694,0,0,0,0,0,0,0,0,0,-1,559,330,0,0
-658,694,0,0,0,0,0,0,0,0,0,-1,566,330,0,0
-651,694,0,0,0,0,0,0,0,0,0,-1,573,330,0,0
-644,694,0,0,0,0,0,0,0,0,0,-1,580,330,0,0
-637,694,0,0,0,0,0,0,0,0,0,-1,587,330,0,0
-630,694,0,0,0,0,0,0,0,0,0,-1,594,330,0,0
-623,694,0,0,0,0,0,0,0,0,0,-1,601,330,0,0
-616,694,0,0,0,0,0,0,0,0,0,-1,608,330,0,0
-609,694,0,0,0,0,0,0,0,0,0,-1,615,330,0,0
-602,694,0,0,0,0,0,0,0,0,0,-1,622,330,0,0
-595,694,0,0,0,0,0,0,0,0,0,-1,629,330,0,0
-588,694,0,0,0,0,0,0,0,0,0,-1,636,330,0,0
-581,694,0,0,0,0,0,0,0,0,0,-1,643,330,0,0
-574,694,0,0,0,0,0,0,0,0,0,-1,650,330,0,0
-567,694,0,0,0,0,0,0,0,0,0,-1,657,330,0,0
-560,694,0,0,0,0,0,0,0,0,0,-1,664,330,0,0
-553,694,0,0,0,0,0,0,0,0,0,-1,671,330,0,0
-546,694,0,0,0,0,0,0,0,0,0,-1,678,330,0,0
-539,694,0,0,0,0,0,0,0,0,0,-1,685,330,0,0
-532,694,0,0,0,0,0,0,0,0,0,-1,692,330,0,0
-525,694,0,0,0,0,0,0,0,0,0,-1,699,330,0,0
-518,694,0,0,0,0,0,0,0,0,0,-1,706,330,0,0
-511,694,0,0,0,0,0,0,0,0,0,-1,713,330,0,0
-504,694,0,0,0,0,0,0,0,0,0,-1,720,330,0,0
-497,694,0,0,0,0,0,0,0,0,0,-1,727,330,0,0
-490,694,0,0,0,0,0,0,0,0,0,-1,734,330,0,0
-483,694,0,0,0,0,0,0,0,0,0,-1,741,330,0,0
-476,694,0,0,0,0,0,0,0,0,0,-1,748,330,0,0
-469,694,0,0,0,0,0,0,0,0,0,-1,755,330,0,0
-462,694,0,0,0,0,0,0,0,0,0,-1,762,330,0,0
-455,694,0,0,0,0,0,0,0,0,0,-1,769,330,0,0
-448,694,0,0,0,0,0,0,0,0,0,-1,776,330,0,0
-441,694,0,0,0,0,0,0,0,0,0,-1,783,330,0,0
-434,694,0,0,0,0,0,0,0,0,0,-1,790,330,0,0
-427,694,0,0,0,0,0,0,0,0,0,-1,797,330,0,0
-420,694,0,0,0,0,0,0,0,0,0,-1,804,330,0,0
-413,694,0,0,0,0,0,0,0,0,0,-1,811,330,0,0
-406,694,0,0,0,0,0,0,0,0,0,-1,818,330,0,0
-399,694,0,0,0,0,0,0,0,0,0,-1,825,330,0,0
-392,694,0,0,0,0,0,0,0,0,0,-1,832,330,0,0
-385,694,0,0,0,0,0,0,0,0,0,-1,839,330,0,0
-378,694,0,0,0,0,0,0,0,0,0,-1,846,330,0,0
-371,694,0,0,0,0,0,0,0,0,0,-1,853,330,0,0
-364,694,0,0,0,0,0,0,0,0,0,-1,860,330,0,0
-357,694,0,0,0,0,0,0,0,0,0,-1,867,330,0,0
-350,694,0,0,0,0,0,0,0,0,0,-1,874,330,0,0
-343,694,0,0,0,0,0,0,0,0,0,-1,881,330,0,0
-336,694,0,0,0,0,0,0,0,0,0,-1,888,330,0,0
-329,694,0,0,0,0,0,0,0,0,0,-1,895,330,0,0
-322,694,0,0,0,0,0,0,0,0,0,-1,902,330,0,0
-315,694,0,0,0,0,0,0,0,0,0,-1,909,330,0,0
-308,694,0,0,0,0,0,0,0,0,0,-1,916,330,0,0
-301,694,0,0,0,0,0,0,0,0,0,-1,923,330,0,0
-294,694,0,0,0,0,0,0,0,0,0,-1,930,330,0,0
-287,694,0,0,0,0,0,0,0,0,0,-1,937,330,0,0
-280,694,0,0,0,0,0,0,0,0,0,-1,944,330,0,0
-273,694,0,0,0,0,0,0,0,0,0,-1,951,330,0,0
-266,694,0,0,0,0,0,0,0,0,0,-1,958,330,0,0
-259,694,0,0,0,0,0,0,0,0,0,-1,965,330,0,0
-252,694,0,0,0,0,0,0,0,0,0,-1,972,330,0,0
-245,694,0,0,0,0,0,0,0,0,0,-1,979,330,0,0
-238,694,0,0,0,0,0,0,0,0,0,-1,986,330,0,0
-231,694,0,0,0,0,0,0,0,0,0,-1,993,330,0,0
-224,694,0,0,0,0,0,0,0,0,0,-1,1000,330,0,0
-217,694,0,0,0,0,0,0,0,0,0,-1,1007,330,0,0
-210,694,0,0,0,0,0,0,0,0,0,-1,1014,330,0,0
-203,694,0,0,0,0,0,0,0,0,0,-1,1021,330,0,0
-196,694,0,0,0,0,0,0,0,0,0,-1,1028,330,0,0
-189,694,0,0,0,0,0,0,0,0,0,-1,1035,330,0,0
-182,694,0,0,0,0,0,0,0,0,0,-1,1042,330,0,0
-175,694,0,0,0,0,0,0,0,0,0,-1,1049,330,0,0
-168,694,0,0,0,0,0,0,0,0,0,-1,1056,330,0,0
-161,694,0,0,0,0,0,0,0,0,0,-1,1063,330,0,0
-154,694,0,0,0,0,0,0,0,0,0,-1,1070,330,0,0
-147,694,0,0,0,0,0,0,0,0,0,-1,1077,330,0,0
-140,694,0,0,0,0,0,0,0,0,0,-1,1084,330,0,0
-133,694,0,0,0,0,0,0,0,0,0,-1,1091,330,0,0
-126,694,0,0,0,0,0,0,0,0,0,-1,1098,330,0,0
-119,694,0,0,0,0,0,0,0,0,0,-1,1105,330,0,0
-112,694,0,0,0,0,0,0,0,0,0,-1,1112,330,0,0
-105,694,2.5188,-19.3963,0,0,0,0,0,0,0,-1,1119,330,2.51882,19.3963
-98,694,1.34875,-10.1051,0,0,0,0,0,0,0,-1,1126,330,1.34874,10.1051
-91,694,6.62366,-46.8039,0,0,0,0,0,0,0,-1,1133,330,6.62363,46.8039
-84,694,0.0577393,-40.8823,0,0,0,0,0,0,0,-1,1140,330,0.0577026,40.8823
-77,694,-5.51379,-31.2714,0,0,0,0,0,0,0,-1,1147,330,-5.51383,31.2714
-70,694,-11.9945,-25.5143,0,0,0,0,0,0,0,-1,1154,330,-11.9945,25.5143
-63,694,-18.4752,-19.7572,0,0,0,0,0,0,0,-1,1161,330,-18.4752,19.7572
-56,694,-6.50623,-0.649139,0,0,0,0,0,0,0,-1,1168,330,-6.5062,0.649126
-49,694,-1.11426,0.0341797,0,0,0,0,0,0,0,-1,1175,330,-1.11424,-0.0341846
-42,694,-0.346313,-0.709595,0,0,0,0,0,0,0,-1,1182,330,-0.346298,0.709581
-35,694,-0.459106,-1.24713,0,0,0,0,0,0,0,-1,1189,330,-0.459142,1.24714
-28,694,-6.48413,-3.95972,0,0,0,0,0,0,0,-1,1196,330,-6.48414,3.9597
-21,694,31.5182,-74.39,0,0,0,0,0,0,0,-1,1203,330,31.5181,74.39
-14,694,7.92517,-122.674,0,0,0,0,0,0,0,-1,1210,330,7.92511,122.674
-7,694,7.75134,-122.815,0,0,0,0,0,0,0,-1,1217,330,7.75129,122.815
0,694,7.14978,-122.909,0,0,0,0,0,0,0,-1,1224,330,7.14975,122.909
7,694,7.41846,-122.763,0,0,0,0,0,0,0,-1,1231,330,7.41849,122.763
14,694,7.78088,-122.135,0,0,0,0,0,0,0,-1,1238,330,7.78094,122.135
21,694,6.76892,-120.556,0,0,0,0,0,0,0,-1,1245,330,6.76892,120.556
28,694,7.16833,-120.65,0,0,0,0,0,0,0,-1,1252,330,7.16829,120.65
35,694,7.62793,-120.881,0,0,0,0,0,0,0,-1,1259,330,7.62788,120.881
42,694,8.2395,-121.018,0,0,0,0,0,0,0,-1,1266,330,8.23955,121.018
49,694,8.58594,-121.055,0,0,0,0,0,0,0,-1,1273,330,8.58592,121.055
56,694,8.64148,-121.065,0,0,0,0,0,0,0,-1,1280,330,8.64148,121.065
63,694,8.6106,-120.929,0,0,0,0,0,0,0,-1,1287,330,8.6106,120.929
70,694,8.56128,-120.253,0,0,0,0,0,0,0,-1,1294,330,8.5613,120.253
77,694,8.91516,-119.88,0,0,0,0,0,0,0,-1,1301,330,8.91519,119.88
84,694,9.26904,-119.493,0,0,0,0,0,0,0,-1,1308,330,9.26907,119.493
91,694,9.6322,-119.327,0,0,0,0,0,0,0,-1,1315,330,9.63225,119.327
98,694,9.97595,-118.849,0,0,0,0,0,0,0,-1,1322,330,9.97595,118.849
105,694,10.3336,-118.418,0,0,0,0,0,0,0,-1,1329,330,10.3337,118.418
112,694,10.949,-118.03,0,0,0,0,0,0,0,-1,1336,330,10.949,118.03
119,694,11.6011,-117.631,0,0,0,0,0,0,0,-1,1343,330,11.601,117.631
126,694,12.0504,-117.05,0,0,0,0,0,0,0,-1,1350,330,12.0504,117.05
133,694,4.19275,-116.184,0,0,0,0,0,0,0,-1,1357,330,4.19273,116.184
140,694,9.5199,-117.237,0,0,0,0,0,0,0,-1,1364,330,9.51991,117.237
147,694,-6.99646,-112.223,0,0,0,0,0,0,0,-1,1371,330,-6.99642,112.223
154,694,-8.39124,-113.068,0,0,0,0,0,0,0,-1,1378,330,-8.39119,113.068
161,694,0.0187988,-38.6779,0,0,0,0,0,0,0,-1,1385,330,0.0187579,38.6779
168,694,30.451,0.196686,0,0,0,0,0,0,0,-1,1392,330,30.4511,-0.196674
175,694,31.0701,0.869873,0,0,0,0,0,0,0,-1,1399,330,31.07,-0.869874
182,694,8.29028,5.75238,0,0,0,0,0,0,0,-1,1406,330,8.29034,-5.75237
189,694,7.9801,4.46118,0,0,0,0,0,0,0,-1,1413,330,7.9801,-4.46118
196,694,7.39331,3.32632,0,0,0,0,0,0,0,-1,1420,330,7.39329,-3.32633
203,694,7.04492,2.20529,0,0,0,0,0,0,0,-1,1427,330,7.04496,-2.20529
210,694,6.44714,0.646912,0,0,0,0,0,0,0,-1,1434,330,6.44717,-0.646903
217,694,7.12061,-0.644958,0,0,0,0,0,0,0,-1,1441,330,7.12059,0.644961
224,694,6.74011,-1.70544,0,0,0,0,0,0,0,-1,1448,330,6.74013,1.70546
231,694,0,0,0,0,0,0,0,0,0,-1,1455,330,0,0
238,694,0,0,0,0,0,0,0,0,0,-1,1462,330,0,0
245,694,0,0,0,0,0,0,0,0,0,-1,1469,330,0,0
252,694,0,0,0,0,0,0,0,0,0,-1,1476,330,0,0
259,694,0,0,0,0,0,0,0,0,0,-1,1483,330,0,0
266,694,0,0,0,0,0,0,0,0,0,-1,1490,330,0,0
273,694,0,0,0,0,0,0,0,0,0,-1,1497,330,0,0
280,694,0,0,0,0,0,0,0,0,0,-1,1504,330,0,0
287,694,0,0,0,0,0,0,0,0,0,-1,1511,330,0,0
294,694,0,0,0,0,0,0,0,0,0,-1,1518,330,0,0
301,694,0,0,0,0,0,0,0,0,0,-1,1525,330,0,0
308,694,0,0,0,0,0,0,0,0,0,-1,1532,330,0,0
315,694,0,0,0,0,0,0,0,0,0,-1,1539,330,0,0
322,694,0,0,0,0,0,0,0,0,0,-1,1546,330,0,0
329,694,0,0,0,0,0,0,0,0,0,-1,1553,330,0,0
336,694,0,0,0,0,0,0,0,0,0,-1,1560,330,0,0
343,694,0,0,0,0,0,0,0,0,0,-1,1567,330,0,0
350,694,0,0,0,0,0,0,0,0,0,-1,1574,330,0,0
357,694,0,0,0,0,0,0,0,0,0,-1,1581,330,0,0
364,694,0,0,0,0,0,0,0,0,0,-1,1588,330,0,0
371,694,0,0,0,0,0,0,0,0,0,-1,1595,330,0,0
378,694,0,0,0,0,0,0,0,0,0,-1,1602,330,0,0
385,694,0,0,0,0,0,0,0,0,0,-1,1609,330,0,0
392,694,0,0,0,0,0,0,0,0,0,-1,1616,330,0,0
399,694,0,0,0,0,0,0,0,0,0,-1,1623,330,0,0
406,694,0,0,0,0,0,0,0,0,0,-1,1630,330,0,0
413,694,0,0,0,0,0,0,0,0,0,-1,1637,330,0,0
420,694,0,0,0,0,0,0,0,0,0,-1,1644,330,0,0
427,694,0,0,0,0,0,0,0,0,0,-1,1651,330,0,0
434,694,0,0,0,0,0,0,0,0,0,-1,1658,330,0,0
441,694,0,0,0,0,0,0,0,0,0,-1,1665,330,0,0
448,694,0,0,0,0,0,0,0,0,0,-1,1672,330,0,0
455,694,0,0,0,0,0,0,0,0,0,-1,1679,330,0,0
462,694,0,0,0,0,0,0,0,0,0,-1,1686,330,0,0
469,694,0,0,0,0,0,0,0,0,0,-1,1693,330,0,0
476,694,0,0,0,0,0,0,0,0,0,-1,1700,330,0,0
483,694,0,0,0,0,0,0,0,0,0,-1,1707,330,0,0
490,694,0,0,0,0,0,0,0,0,0,-1,1714,330,0,0
497,694,0,0,0,0,0,0,0,0,0,-1,1721,330,0,0
504,694,0,0,0,0,0,0,0,0,0,-1,1728,330,0,0
511,694,0,0,0,0,0,0,0,0,0,-1,1735,330,0,0
518,694,0,0,0,0,0,0,0,0,0,-1,1742,330,0,0
525,694,0,0,0,0,0,0,0,0,0,-1,1749,330,0,0
532,694,0,0,0,0,0,0,0,0,0,-1,1756,330,0,0
539,694,0,0,0,0,0,0,0,0,0,-1,1763,330,0,0
546,694,0,0,0,0,0,0,0,0,0,-1,1770,330,0,0
553,694,0,0,0,0,0,0,0,0,0,-1,1777,330,0,0
560,694,0,0,0,0,0,0,0,0,0,-1,1784,330,0,0
567,694,0,0,0,0,0,0,0,0,0,-1,1791,330,0,0
574,694,0,0,0,0,0,0,0,0,0,-1,1798,330,0,0
581,694,0,0,0,0,0,0,0,0,0,-1,1805,330,0,0
588,694,0,0,0,0,0,0,0,0,0,-1,1812,330,0,0
595,694,0,0,0,0,0,0,0,0,0,-1,1819,330,0,0
602,694,0,0,0,0,0,0,0,0,0,-1,1826,330,0,0
609,694,0,0,0,0,0,0,0,0,0,-1,1833,330,0,0
616,694,0,0,0,0,0,0,0,0,0,-1,1840,330,0,0
623,694,0,0,0,0,0,0,0,0,0,-1,1847,330,0,0
630,694,0,0,0,0,0,0,0,0,0,-1,1854,330,0,0
637,694,0,0,0,0,0,0,0,0,0,-1,1861,330,0,0
644,694,0,0,0,0,0,0,0,0,0,-1,1868,330,0,0
651,694,0,0,0,0,0,0,0,0,0,-1,1875,330,0,0
658,694,0,0,0,0,0,0,0,0,0,-1,1882,330,0,0
665,694,0,0,0,0,0,0,0,0,0,-1,1889,330,0,0
672,694,0,0,0,0,0,0,0,0,0,-1,1896,330,0,0
679,694,0,0,0,0,0,0,0,0,0,-1,1903,330,0,0
686,694,0,0,0,0,0,0,0,0,0,-1,1910,330,0,0
693,694,0,0,0,0,0,0,0,0,0,-1,1917,330,0,0
700,694,0,0,0,0,0,0,0,0,0,-1,1924,330,0,0
707,694,0,0,0,0,0,0,0,0,0,-1,1931,330,0,0
714,694,0,0,0,0,0,0,0,0,0,-1,1938,330,0,0
721,694,0,0,0,0,0,0,0,0,0,-1,1945,330,0,0
728,694,0,0,0,0,0,0,0,0,0,-1,1952,330,0,0
735,694,0,0,0,0,0,0,0,0,0,-1,1959,330,0,0
742,694,0,0,0,0,0,0,0,0,0,-1,1966,330,0,0
749,694,0,0,0,0,0,0,0,0,0,-1,1973,330,0,0
756,694,0,0,0,0,0,0,0,0,0,-1,1980,330,0,0
763,694,0,0,0,0,0,0,0,0,0,-1,1987,330,0,0
770,694,0,0,0,0,0,0,0,0,0,-1,1994,330,0,0
777,694,0,0,0,0,0,0,0,0,0,-1,2001,330,0,0
784,694,0,0,0,0,0,0,0,0,0,-1,2008,330,0,0
791,694,0,0,0,0,0,0,0,0,0,-1,2015,330,0,0
798,694,0,0,0,0,0,0,0,0,0,-1,2022,330,0,0
805,694,0,0,0,0,0,0,0,0,0,-1,2029,330,0,0
812,694,0,0,0,0,0,0,0,0,0,-1,2036,330,0,0
-700,687,0,0,0,0,0,0,0,0,0,-1,524,337,0,0
-693,687,0,0,0,0,0,0,0,0,0,-1,531,337,0,0
-686,687,0,0,0,0,0,0,0,0,0,-1,538,337,0,0
-679,687,0,0,0,0,0,0,0,0,0,-1,545,337,0,0
-672,687,0,0,0,0,0,0,0,0,0,-1,552,337,0,0
-665,687,0,0,0,0,0,0,0,0,0,-1,559,337,0,0
-658,687,0,0,0,0,0,0,0,0,0,-1,566,337,0,0
-651,687,0,0,0,0,0,0,0,0,0,-1,573,337,0,0
-644,687,0,0,0,0,0,0,0,0,0,-1,580,337,0,0
-637,687,0,0,0,0,0,0,0,0,0,-1,587,337,0,0
-630,687,0,0,0,0,0,0,0,0,0,-1,594,337,0,0
-623,687,0,0,0,0,0,0,0,0,0,-1,601,337,0,0
-616,687,0,0,0,0,0,0,0,0,0,-1,608,337,0,0
-609,687,0,0,0,0,0,0,0,0,0,-1,615,337,0,0
-602,687,0,0,0,0,0,0,0,0,0,-1,622,337,0,0
-595,687,0,0,0,0,0,0,0,0,0,-1,629,337,0,0
-588,687,0,0,0,0,0,0,0,0,0,-1,636,337,0,0
-581,687,0,0,0,0,0,0,0,0,0,-1,643,337,0,0
-574,687,0,0,0,0,0,0,0,0,0,-1,650,337,0,0
-567,687,0,0,0,0,0,0,0,0,0,-1,657,337,0,0
-560,687,0,0,0,0,0,0,0,0,0,-1,664,337,0,0
-553,687,0,0,0,0,0,0,0,0,0,-1,671,337,0,0
-546,687,0,0,0,0,0,0,0,0,0,-1,678,337,0,0
-539,687,0,0,0,0,0,0,0,0,0,-1,685,337,0,0
-532,687,0,0,0,0,0,0,0,0,0,-1,692,337,0,0
-525,687,0,0,0,0,0,0,0,0,0,-1,699,337,0,0
-518,687,0,0,0,0,0,0,0,0,0,-1,706,337,0,0
-511,687,0,0,0,0,0,0,0,0,0,-1,713,337,0,0
-504,687,0,0,0,0,0,0,0,0,0,-1,720,337,0,0
-497,687,0,0,0,0,0,0,0,0,0,-1,727,337,0,0
-490,687,0,0,0,0,0,0,0,0,0,-1,734,337,0,0
-483,687,0,0,0,0,0,0,0,0,0,-1,741,337,0,0
-476,687,0,0,0,0,0,0,0,0,0,-1,748,337,0,0
-469,687,0,0,0,0,0,0,0,0,0,-1,755,337,0,0
-462,687,0,0,0,0,0,0,0,0,0,-1,762,337,0,0
-455,687,0,0,0,0,0,0,0,0,0,-1,769,337,0,0
-448,687,0,0,0,0,0,0,0,0,0,-1,776,337,0,0
-441,687,0,0,0,0,0,0,0,0,0,-1,783,337,0,0
-434,687,0,0,0,0,0,0,0,0,0,-1,790,337,0,0
-427,687,0,0,0,0,0,0,0,0,0,-1,797,337,0,0
-420,687,0,0,0,0,0,0,0,0,0,-1,804,337,0,0
-413,687,0,0,0,0,0,0,0,0,0,-1,811,337,0,0
-406,687,0,0,0,0,0,0,0,0,0,-1,818,337,0,0
-399,687,0,0,0,0,0,0,0,0,0,-1,825,337,0,0
-392,687,0,0,0,0,0,0,0,0,0,-1,832,337,0,0
-385,687,0,0,0,0,0,0,0,0,0,-1,839,337,0,0
-378,687,0,0,0,0,0,0,0,0,0,-1,846,337,0,0
-371,687,0,0,0,0,0,0,0,0,0,-1,853,337,0,0
-364,687,0,0,0,0,0,0,0,0,0,-1,860,337,0,0
-357,687,0,0,0,0,0,0,0,0,0,-1,867,337,0,0
-350,687,0,0,0,0,0,0,0,0,0,-1,874,337,0,0
-343,687,0,0,0,0,0,0,0,0,0,-1,881,337,0,0
-336,687,0,0,0,0,0,0,0,0,0,-1,888,337,0,0
-329,687,0,0,0,0,0,0,0,0,0,-1,895,337,0,0
-322,687,0,0,0,0,0,0,0,0,0,-1,902,337,0,0
-315,687,0,0,0,0,0,0,0,0,0,-1,909,337,0,0
-308,687,0,0,0,0,0,0,0,0,0,-1,916,337,0,0
-301,687,0,0,0,0,0,0,0,0,0,-1,923,337,0,0
-294,687,0,0,0,0,0,0,0,0,0,-1,930,337,0,0
-287,687,0,0,0,0,0,0,0,0,0,-1,937,337,0,0
-280,687,0,0,0,0,0,0,0,0,0,-1,944,337,0,0
-273,687,0,0,0,0,0,0,0,0,0,-1,951,337,0,0
-266,687,0,0,0,0,0,0,0,0,0,-1,958,337,0,0
-259,687,0,0,0,0,0,0,0,0,0,-1,965,337,0,0
-252,687,0,0,0,0,0,0,0,0,0,-1,972,337,0,0
-245,687,0,0,0,0,0,0,0,0,0,-1,979,337,0,0
-238,687,0,0,0,0,0,0,0,0,0,-1,986,337,0,0
-231,687,0,0,0,0,0,0,0,0,0,-1,993,337,0,0
-224,687,0,0,0,0,0,0,0,0,0,-1,1000,337,0,0
-217,687,0,0,0,0,0,0,0,0,0,-1,1007,337,0,0
-210,687,0,0,0,0,0,0,0,0,0,-1,1014,337,0,0
-203,687,0,0,0,0,0,0,0,0,0,-1,1021,337,0,0
-196,687,0,0,0,0,0,0,0,0,0,-1,1028,337,0,0
-189,687,0,0,0,0,0,0,0,0,0,-1,1035,337,0,0
-182,687,0,0,0,0,0,0,0,0,0,-1,1042,337,0,0
-175,687,0,0,0,0,0,0,0,0,0,-1,1049,337,0,0
-168,687,0,0,0,0,0,0,0,0,0,-1,1056,337,0,0
-161,687,0,0,0,0,0,0,0,0,0,-1,1063,337,0,0
-154,687,0,0,0,0,0,0,0,0,0,-1,1070,337,0,0
-147,687,0,0,0,0,0,0,0,0,0,-1,1077,337,0,0
-140,687,0,0,0,0,0,0,0,0,0,-1,1084,337,0,0
-133,687,7.93958,-37.548,0,0,0,0,0,0,0,-1,1091,337,7.93957,37.548
-126,687,0.688477,-38.7298,0,0,0,0,0,0,0,-1,1098,337,0.688509,38.7298
-119,687,7.70825,-33.9236,0,0,0,0,0,0,0,-1,1105,337,7.70826,33.9236
-112,687,7.99866,-32.2983,0,0,0,0,0,0,0,-1,1112,337,7.99866,32.2983
-105,687,1.3208,-29.8313,0,0,0,0,0,0,0,-1,1119,337,1.3208,29.8313
-98,687,13.7111,-47.5645,0,0,0,0,0,0,0,-1,1126,337,13.711,47.5645
-91,687,7.22083,-41.1667,0,0,0,0,0,0,0,-1,1133,337,7.22079,41.1666
-84,687,0.745117,-35.0345,0,0,0,0,0,0,0,-1,1140,337,0.745155,35.0345
-77,687,-5.74353,-28.9553,0,0,0,0,0,0,0,-1,1147,337,-5.74357,28.9553
-70,687,-11.6842,-19.8473,0,0,0,0,0,0,0,-1,1154,337,-11.6842,19.8473
-63,687,-17.6757,-14.8966,0,0,0,0,0,0,0,-1,1161,337,-17.6756,14.8966
-56,687,-18.104,7.81931,0,0,0,0,0,0,0,-1,1168,337,-18.104,-7.81931
-49,687,-15.6449,-9.94391,0,0,0,0,0,0,0,-1,1175,337,-15.6449,9.94392
-42,687,-4.2019,-0.405609,0,0,0,0,0,0,0,-1,1182,337,-4.20192,0.405614
-35,687,-4.42273,-0.688171,0,0,0,0,0,0,0,-1,1189,337,-4.42276,0.688178
-28,687,-1.14038,-1.39072,0,0,0,0,0,0,0,-1,1196,337,-1.14035,1.3907
-21,687,16.6345,-105.042,0,0,0,0,0,0,0,-1,1203,337,16.6345,105.042
-14,687,7.59106,-123.259,0,0,0,0,0,0,0,-1,1210,337,7.59103,123.259
-7,687,7.42224,-123.35,0,0,0,0,0,0,0,-1,1217,337,7.42229,123.35
0,687,7.39587,-123.522,0,0,0,0,0,0,0,-1,1224,337,7.39589,123.522
7,687,7.6853,-123.321,0,0,0,0,0,0,0,-1,1231,337,7.68532,123.321
14,687,7.70288,-122.894,0,0,0,0,0,0,0,-1,1238,337,7.70289,122.894
21,687,7.54065,-122.255,0,0,0,0,0,0,0,-1,1245,337,7.54062,122.255
28,687,7.47327,-121.694,0,0,0,0,0,0,0,-1,1252,337,7.47321,121.694
35,687,7.8136,-121.703,0,0,0,0,0,0,0,-1,1259,337,7.81359,121.703
42,687,8.28809,-121.786,0,0,0,0,0,0,0,-1,1266,337,8.28803,121.786
49,687,8.6958,-121.88,0,0,0,0,0,0,0,-1,1273,337,8.69581,121.88
56,687,8.67859,-121.752,0,0,0,0,0,0,0,-1,1280,337,8.6786,121.752
63,687,8.66138,-121.624,0,0,0,0,0,0,0,-1,1287,337,8.66139,121.624
70,687,8.69922,-120.527,0,0,0,0,0,0,0,-1,1294,337,8.69924,120.527
77,687,8.96631,-120.172,0,0,0,0,0,0,0,-1,1301,337,8.96626,120.172
84,687,9.16711,-119.717,0,0,0,0,0,0,0,-1,1308,337,9.16708,119.717
91,687,10.5623,-120.067,0,0,0,0,0,0,0,-1,1315,337,10.5623,120.067
98,687,11.1895,-119.641,0,0,0,0,0,0,0,-1,1322,337,11.1895,119.641
105,687,11.7587,-119.117,0,0,0,0,0,0,0,-1,1329,337,11.7587,119.117
112,687,12.2915,-118.735,0,0,0,0,0,0,0,-1,1336,337,12.2914,118.735
119,687,12.8386,-118.392,0,0,0,0,0,0,0,-1,1343,337,12.8386,118.392
126,687,13.3451,-117.901,0,0,0,0,0,0,0,-1,1350,337,13.3451,117.901
133,687,13.8284,-117.484,0,0,0,0,0,0,0,-1,1357,337,13.8283,117.484
140,687,3.97791,-118.856,0,0,0,0,0,0,0,-1,1364,337,3.97789,118.856
147,687,-6.0741,-114.711,0,0,0,0,0,0,0,-1,1371,337,-6.07408,114.711
154,687,3.3324,-99.3925,0,0,0,0,0,0,0,-1,1378,337,3.33246,99.3925
161,687,29.3895,-1.90628,0,0,0,0,0,0,0,-1,1385,337,29.3895,1.90628
168,687,29.8564,-1.19434,0,0,0,0,0,0,0,-1,1392,337,29.8564,1.19434
175,687,30.3419,-0.453583,0,0,0,0,0,0,0,-1,1399,337,30.3419,0.45357
182,687,6.67249,0.289917,0,0,0,0,0,0,0,-1,1406,337,6.67247,-0.289916
189,687,7.76062,4.53635,0,0,0,0,0,0,0,-1,1413,337,7.76064,-4.53636
196,687,6.99048,3.2966,0,0,0,0,0,0,0,-1,1420,337,6.99046,-3.2966
203,687,6.36499,2.1445,0,0,0,0,0,0,0,-1,1427,337,6.36499,-2.14451
210,687,6.68066,0.674652,0,0,0,0,0,0,0,-1,1434,337,6.68062,-0.674655
217,687,5.99683,-0.630493,0,0,0,0,0,0,0,-1,1441,337,5.99684,0.630497
224,687,5.52917,0.524902,0,0,0,0,0,0,0,-1,1448,337,5.5292,-0.524915
231,687,5.85583,-1.73651,0,0,0,0,0,0,0,-1,1455,337,5.85577,1.73651
238,687,5.96582,-2.96774,0,0,0,0,0,0,0,-1,1462,337,5.96577,2.96773
245,687,1.28259,2.32211,0,0,0,0,0,0,0,-1,1469,337,1.28258,-2.32211
252,687,1.97278,3.88422,0,0,0,0,0,0,0,-1,1476,337,1.97281,-3.88421
259,687,0,0,0,0,0,0,0,0,0,-1,1483,337,0,0
266,687,0,0,0,0,0,0,0,0,0,-1,1490,337,0,0
273,687,0,0,0,0,0,0,0,0,0,-1,1497,337,0,0
280,687,0,0,0,0,0,0,0,0,0,-1,1504,337,0,0
287,687,0,0,0,0,0,0,0,0,0,-1,1511,337,0,0
294,687,0,0,0,0,0,0,0,0,0,-1,1518,337,0,0
301,687,0,0,0,0,0,0,0,0,0,-1,1525,337,0,0
308,687,0,0,0,0,0,0,0,0,0,-1,1532,337,0,0
315,687,0,0,0,0,0,0,0,0,0,-1,1539,337,0,0
322,687,0,0,0,0,0,0,0,0,0,-1,1546,337,0,0
329,687,0,0,0,0,0,0,0,0,0,-1,1553,337,0,0
336,687,0,0,0,0,0,0,0,0,0,-1,1560,337,0,0
343,687,0,0,0,0,0,0,0,0,0,-1,1567,337,0,0
350,687,0,0,0,0,0,0,0,0,0,-1,1574,337,0,0
357,687,0,0,0,0,0,0,0,0,0,-1,1581,337,0,0
364,687,0,0,0,0,0,0,0,0,0,-1,1588,337,0,0
371,687,0,0,0,0,0,0,0,0,0,-1,1595,337,0,0
378,687,0,0,0,0,0,0,0,0,0,-1,1602,337,0,0
385,687,0,0,0,0,0,0,0,0,0,-1,1609,337,0,0
392,687,0,0,0,0,0,0,0,0,0,-1,1616,337,0,0
399,687,0,0,0,0,0,0,0,0,0,-1,1623,337,0,0
406,687,0,0,0,0,0,0,0,0,0,-1,1630,337,0,0
413,687,0,0,0,0,0,0,0,0,0,-1,1637,337,0,0
420,687,0,0,0,0,0,0,0,0,0,-1,1644,337,0,0
427,687,0,0,0,0,0,0,0,0,0,-1,1651,337,0,0
434,687,0,0,0,0,0,0,0,0,0,-1,1658,337,0,0
441,687,0,0,0,0,0,0,0,0,0,-1,1665,337,0,0
448,687,0,0,0,0,0,0,0,0,0,-1,1672,337,0,0
455,687,0,0,0,0,0,0,0,0,0,-1,1679,337,0,0
462,687,0,0,0,0,0,0,0,0,0,-1,1686,337,0,0
469,687,0,0,0,0,0,0,0,0,0,-1,1693,337,0,0
476,687,0,0,0,0,0,0,0,0,0,-1,1700,337,0,0
483,687,0,0,0,0,0,0,0,0,0,-1,1707,337,0,0
490,687,0,0,0,0,0,0,0,0,0,-1,1714,337,0,0
497,687,0,0,0,0,0,0,0,0,0,-1,1721,337,0,0
504,687,0,0,0,0,0,0,0,0,0,-1,1728,337,0,0
511,687,0,0,0,0,0,0,0,0,0,-1,1735,337,0,0
518,687,0,0,0,0,0,0,0,0,0,-1,1742,337,0,0
525,687,0,0,0,0,0,0,0,0,0,-1,1749,337,0,0
532,687,0,0,0,0,0,0,0,0,0,-1,1756,337,0,0
539,687,0,0,0,0,0,0,0,0,0,-1,1763,337,0,0
546,687,0,0,0,0,0,0,0,0,0,-1,1770,337,0,0
553,687,0,0,0,0,0,0,0,0,0,-1,1777,337,0,0
560,687,0,0,0,0,0,0,0,0,0,-1,1784,337,0,0
567,687,0,0,0,0,0,0,0,0,0,-1,1791,337,0,0
574,687,0,0,0,0,0,0,0,0,0,-1,1798,337,0,0
581,687,0,0,0,0,0,0,0,0,0,-1,1805,337,0,0
588,687,0,0,0,0,0,0,0,0,0,-1,1812,337,0,0
595,687,0,0,0,0,0,0,0,0,0,-1,1819,337,0,0
602,687,0,0,0,0,0,0,0,0,0,-1,1826,337,0,0
609,687,0,0,0,0,0,0,0,0,0,-1,1833,337,0,0
616,687,0,0,0,0,0,0,0,0,0,-1,1840,337,0,0
623,687,0,0,0,0,0,0,0,0,0,-1,1847,337,0,0
630,687,0,0,0,0,0,0,0,0,0,-1,1854,337,0,0
637,687,0,0,0,0,0,0,0,0,0,-1,1861,337,0,0
644,687,0,0,0,0,0,0,0,0,0,-1,1868,337,0,0
651,687,0,0,0,0,0,0,0,0,0,-1,1875,337,0,0
658,687,0,0,0,0,0,0,0,0,0,-1,1882,337,0,0
665,687,0,0,0,0,0,0,0,0,0,-1,1889,337,0,0
672,687,0,0,0,0,0,0,0,0,0,-1,1896,337,0,0
679,687,0,0,0,0,0,0,0,0,0,-1,1903,337,0,0
686,687,0,0,0,0,0,0,0,0,0,-1,1910,337,0,0
693,687,0,0,0,0,0,0,0,0,0,-1,1917,337,0,0
700,687,0,0,0,0,0,0,0,0,0,-1,1924,337,0,0
707,687,0,0,0,0,0,0,0,0,0,-1,1931,337,0,0
714,687,0,0,0,0,0,0,0,0,0,-1,1938,337,0,0
721,687,0,0,0,0,0,0,0,0,0,-1,1945,337,0,0
728,687,0,0,0,0,0,0,0,0,0,-1,1952,337,0,0
735,687,0,0,0,0,0,0,0,0,0,-1,1959,337,0,0
742,687,0,0,0,0,0,0,0,0,0,-1,1966,337,0,0
749,687,0,0,0,0,0,0,0,0,0,-1,1973,337,0,0
756,687,0,0,0,0,0,0,0,0,0,-1,1980,337,0,0
763,687,0,0,0,0,0,0,0,0,0,-1,1987,337,0,0
770,687,0,0,0,0,0,0,0,0,0,-1,1994,337,0,0
777,687,0,0,0,0,0,0,0,0,0,-1,2001,337,0,0
784,687,0,0,0,0,0,0,0,0,0,-1,2008,337,0,0
791,687,0,0,0,0,0,0,0,0,0,-1,2015,337,0,0
798,687,0,0,0,0,0,0,0,0,0,-1,2022,337,0,0
805,687,0,0,0,0,0,0,0,0,0,-1,2029,337,0,0
812,687,0,0,0,0,0,0,0,0,0,-1,2036,337,0,0
-700,680,0,0,0,0,0,0,0,0,0,-1,524,344,0,0
-693,680,0,0,0,0,0,0,0,0,0,-1,531,344,0,0
-686,680,0,0,0,0,0,0,0,0,0,-1,538,344,0,0
-679,680,0,0,0,0,0,0,0,0,0,-1,545,344,0,0
-672,680,0,0,0,0,0,0,0,0,0,-1,552,344,0,0
-665,680,0,0,0,0,0,0,0,0,0,-1,559,344,0,0
-658,680,0,0,0,0,0,0,0,0,0,-1,566,344,0,0
-651,680,0,0,0,0,0,0,0,0,0,-1,573,344,0,0
-644,680,0,0,0,0,0,0,0,0,0,-1,580,344,0,0
-637,680,0,0,0,0,0,0,0,0,0,-1,587,344,0,0
-630,680,0,0,0,0,0,0,0,0,0,-1,594,344,0,0
-623,680,0,0,0,0,0,0,0,0,0,-1,601,344,0,0
-616,680,0,0,0,0,0,0,0,0,0,-1,608,344,0,0
-609,680,0,0,0,0,0,0,0,0,0,-1,615,344,0,0
-602,680,0,0,0,0,0,0,0,0,0,-1,622,344,0,0
-595,680,0,0,0,0,0,0,0,0,0,-1,629,344,0,0
-588,680,0,0,0,0,0,0,0,0,0,-1,636,344,0,0
-581,680,0,0,0,0,0,0,0,0,0,-1,643,344,0,0
-574,680,0,0,0,0,0,0,0,0,0,-1,650,344,0,0
-567,680,0,0,0,0,0,0,0,0,0,-1,657,344,0,0
-560,680,0,0,0,0,0,0,0,0,0,-1,664,344,0,0
-553,680,0,0,0,0,0,0,0,0,0,-1,671,344,0,0
-546,680,0,0,0,0,0,0,0,0,0,-1,678,344,0,0
-539,680,0,0,0,0,0,0,0,0,0,-1,685,344,0,0
-532,680,0,0,0,0,0,0,0,0,0,-1,692,344,0,0
-525,680,0,0,0,0,0,0,0,0,0,-1,699,344,0,0
-518,680,0,0,0,0,0,0,0,0,0,-1,706,344,0,0
-511,680,0,0,0,0,0,0,0,0,0,-1,713,344,0,0
-504,680,0,0,0,0,0,0,0,0,0,-1,720,344,0,0
-497,680,0,0,0,0,0,0,0,0,0,-1,727,344,0,0
-490,680,0,0,0,0,0,0,0,0,0,-1,734,344,0,0
-483,680,0,0,0,0,0,0,0,0,0,-1,741,344,0,0
-476,680,0,0,0,0,0,0,0,0,0,-1,748,344,0,0
-469,680,0,0,0,0,0,0,0,0,0,-1,755,344,0,0
-462,680,0,0,0,0,0,0,0,0,0,-1,762,344,0,0
-455,680,0,0,0,0,0,0,0,0,0,-1,769,344,0,0
-448,680,0,0,0,0,0,0,0,0,0,-1,776,344,0,0
-441,680,0,0,0,0,0,0,0,0,0,-1,783,344,0,0
-434,680,0,0,0,0,0,0,0,0,0,-1,790,344,0,0
-427,680,0,0,0,0,0,0,0,0,0,-1,797,344,0,0
-420,680,0,0,0,0,0,0,0,0,0,-1,804,344,0,0
-413,680,0,0,0,0,0,0,0,0,0,-1,811,344,0,0
-406,680,0,0,0,0,0,0,0,0,0,-1,818,344,0,0
-399,680,0,0,0,0,0,0,0,0,0,-1,825,344,0,0
-392,680,0,0,0,0,0,0,0,0,0,-1,832,344,0,0
-385,680,0,0,0,0,0,0,0,0,0,-1,839,344,0,0
-378,680,0,0,0,0,0,0,0,0,0,-1,846,344,0,0
-371,680,0,0,0,0,0,0,0,0,0,-1,853,344,0,0
-364,680,0,0,0,0,0,0,0,0,0,-1,860,344,0,0
-357,680,0,0,0,0,0,0,0,0,0,-1,867,344,0,0
-350,680,0,0,0,0,0,0,0,0,0,-1,874,344,0,0
-343,680,0,0,0,0,0,0,0,0,0,-1,881,344,0,0
-336,680,0,0,0,0,0,0,0,0,0,-1,888,344,0,0
-329,680,0,0,0,0,0,0,0,0,0,-1,895,344,0,0
-322,680,0,0,0,0,0,0,0,0,0,-1,902,344,0,0
-315,680,0,0,0,0,0,0,0,0,0,-1,909,344,0,0
-308,680,0,0,0,0,0,0,0,0,0,-1,916,344,0,0
-301,680,0,0,0,0,0,0,0,0,0,-1,923,344,0,0
-294,680,0,0,0,0,0,0,0,0,0,-1,930,344,0,0
-287,680,0,0,0,0,0,0,0,0,0,-1,937,344,0,0
-280,680,0,0,0,0,0,0,0,0,0,-1,944,344,0,0
-273,680,0,0,0,0,0,0,0,0,0,-1,951,344,0,0
-266,680,0,0,0,0,0,0,0,0,0,-1,958,344,0,0
-259,680,0,0,0,0,0,0,0,0,0,-1,965,344,0,0
-252,680,0,0,0,0,0,0,0,0,0,-1,972,344,0,0
-245,680,0,0,0,0,0,0,0,0,0,-1,979,344,0,0
-238,680,0,0,0,0,0,0,0,0,0,-1,986,344,0,0
-231,680,0,0,0,0,0,0,0,0,0,-1,993,344,0,0
-224,680,0,0,0,0,0,0,0,0,0,-1,1000,344,0,0
-217,680,0,0,0,0,0,0,0,0,0,-1,1007,344,0,0
-210,680,0,0,0,0,0,0,0,0,0,-1,1014,344,0,0
-203,680,0,0,0,0,0,0,0,0,0,-1,1021,344,0,0
-196,680,0,0,0,0,0,0,0,0,0,-1,1028,344,0,0
-189,680,0,0,0,0,0,0,0,0,0,-1,1035,344,0,0
-182,680,0,0,0,0,0,0,0,0,0,-1,1042,344,0,0
-175,680,0,0,0,0,0,0,0,0,0,-1,1049,344,0,0
-168,680,0,0,0,0,0,0,0,0,0,-1,1056,344,0,0
-161,680,0,0,0,0,0,0,0,0,0,-1,1063,344,0,0
-154,680,2.25244,-29.1442,0,0,0,0,0,0,0,-1,1070,344,2.25241,29.1442
-147,680,9.29614,-33.0369,0,0,0,0,0,0,0,-1,1077,344,9.29612,33.0369
-140,680,6.98022,-36.6899,0,0,0,0,0,0,0,-1,1084,344,6.98023,36.6899
-133,680,1.85693,-39.7233,0,0,0,0,0,0,0,-1,1091,344,1.85699,39.7233
-126,680,2.30017,-38.3751,0,0,0,0,0,0,0,-1,1098,344,2.30011,38.3751
-119,680,2.74329,-37.0269,0,0,0,0,0,0,0,-1,1105,344,2.74323,37.0269
-112,680,7.7467,-32.4407,0,0,0,0,0,0,0,-1,1112,344,7.74668,32.4407
-105,680,20.6371,-48.461,0,0,0,0,0,0,0,-1,1119,344,20.6371,48.461
-98,680,14.2684,-41.9997,0,0,0,0,0,0,0,-1,1126,344,14.2685,41.9997
-91,680,7.89648,-35.5147,0,0,0,0,0,0,0,-1,1133,344,7.8965,35.5147
-84,680,1.47168,-29.471,0,0,0,0,0,0,0,-1,1140,344,1.47163,29.471
-77,680,-4.95337,-23.3355,0,0,0,0,0,0,0,-1,1147,344,-4.9534,23.3356
-70,680,-11.5099,-17.4337,0,0,0,0,0,0,0,-1,1154,344,-11.5098,17.4338
-63,680,-17.2391,-1.43134,0,0,0,0,0,0,0,-1,1161,344,-17.2392,1.43133
-56,680,-6.96912,-8.83356,0,0,0,0,0,0,0,-1,1168,344,-6.96907,8.83354
-49,680,-6.7677,-2.24063,0,0,0,0,0,0,0,-1,1175,344,-6.76772,2.24063
-42,680,-1.02368,0.618805,0,0,0,0,0,0,0,-1,1182,344,-1.0237,-0.618797
-35,680,-0.947876,-0.942719,0,0,0,0,0,0,0,-1,1189,344,-0.947842,0.942731
-28,680,-1.46118,-1.10574,0,0,0,0,0,0,0,-1,1196,344,-1.4612,1.10575
-21,680,15.6656,-104.844,0,0,0,0,0,0,0,-1,1203,344,15.6656,104.844
-14,680,6.229,-123.017,0,0,0,0,0,0,0,-1,1210,344,6.22897,123.017
-7,680,6.86194,-123.248,0,0,0,0,0,0,0,-1,1217,344,6.86191,123.248
0,680,7.4541,-124.166,0,0,0,0,0,0,0,-1,1224,344,7.45405,124.166
7,680,7.77734,-123.949,0,0,0,0,0,0,0,-1,1231,344,7.77733,123.949
14,680,7.62488,-123.653,0,0,0,0,0,0,0,-1,1238,344,7.62484,123.653
21,680,11.2233,-121.43,0,0,0,0,0,0,0,-1,1245,344,11.2232,121.43
28,680,7.43188,-122.852,0,0,0,0,0,0,0,-1,1252,344,7.43194,122.852
35,680,7.92969,-122.551,0,0,0,0,0,0,0,-1,1259,344,7.92966,122.551
42,680,8.40479,-122.638,0,0,0,0,0,0,0,-1,1266,344,8.40477,122.638
49,680,7.47424,-160.77,0,0,0,0,0,0,0,-1,1273,344,7.47421,160.77
56,680,5.9436,-190.367,0,0,0,0,0,0,0,-1,1280,344,5.94364,190.367
63,680,8.76953,-122.134,0,0,0,0,0,0,0,-1,1287,344,8.76958,122.134
70,680,8.71704,-121.625,0,0,0,0,0,0,0,-1,1294,344,8.71704,121.625
77,680,8.31482,-121.182,0,0,0,0,0,0,0,-1,1301,344,8.31482,121.182
84,680,11.0287,-121.975,0,0,0,0,0,0,0,-1,1308,344,11.0287,121.975
91,680,11.4004,-121.108,0,0,0,0,0,0,0,-1,1315,344,11.4004,121.108
98,680,11.7721,-120.242,0,0,0,0,0,0,0,-1,1322,344,11.7721,120.242
105,680,12.9456,-119.966,0,0,0,0,0,0,0,-1,1329,344,12.9456,119.966
112,680,13.5817,-119.494,0,0,0,0,0,0,0,-1,1336,344,13.5817,119.494
119,680,14.1455,-119.18,0,0,0,0,0,0,0,-1,1343,344,14.1456,119.18
126,680,14.6399,-118.752,0,0,0,0,0,0,0,-1,1350,344,14.6398,118.752
133,680,5.18445,-120.769,0,0,0,0,0,0,0,-1,1357,344,5.18441,120.769
140,680,4.07813,-102.08,0,0,0,0,0,0,0,-1,1364,344,4.0781,102.08
147,680,4.32385,-99.3212,0,0,0,0,0,0,0,-1,1371,344,4.32389,99.3212
154,680,0.195801,-86.2149,0,0,0,0,0,0,0,-1,1378,344,0.19576,86.2149
161,680,-2.63489,-88.0134,0,0,0,0,0,0,0,-1,1385,344,-2.63486,88.0134
168,680,29.4142,-2.51651,0,0,0,0,0,0,0,-1,1392,344,29.4142,2.51652
175,680,6.66541,0.942078,0,0,0,0,0,0,0,-1,1399,344,6.66538,-0.942088
182,680,6.52917,0.532379,0,0,0,0,0,0,0,-1,1406,344,6.52922,-0.532385
189,680,7.55884,4.77695,0,0,0,0,0,0,0,-1,1413,344,7.55886,-4.77694
196,680,6.55627,3.35254,0,0,0,0,0,0,0,-1,1420,344,6.55622,-3.35255
203,680,5.7334,1.90753,0,0,0,0,0,0,0,-1,1427,344,5.73341,-1.90754
210,680,5.27515,0.493622,0,0,0,0,0,0,0,-1,1434,344,5.27514,-0.493632
217,680,6.56384,-0.374176,0,0,0,0,0,0,0,-1,1441,344,6.56379,0.374176
224,680,3.9491,-0.640228,0,0,0,0,0,0,0,-1,1448,344,3.94908,0.64024
231,680,4.24866,-1.96881,0,0,0,0,0,0,0,-1,1455,344,4.2486,1.96882
238,680,4.29333,-3.23984,0,0,0,0,0,0,0,-1,1462,344,4.29332,3.23984
245,680,2.44397,0.985382,0,0,0,0,0,0,0,-1,1469,344,2.44402,-0.985394
252,680,3.07349,2.18951,0,0,0,0,0,0,0,-1,1476,344,3.0735,-2.18952
259,680,2.82971,1.30682,0,0,0,0,0,0,0,-1,1483,344,2.82972,-1.30684
266,680,2.67554,1.44067,0,0,0,0,0,0,0,-1,1490,344,2.67551,-1.44066
273,680,2.46411,1.54666,0,0,0,0,0,0,0,-1,1497,344,2.46407,-1.54666
280,680,0,0,0,0,0,0,0,0,0,-1,1504,344,0,0
287,680,0,0,0,0,0,0,0,0,0,-1,1511,344,0,0
294,680,0,0,0,0,0,0,0,0,0,-1,1518,344,0,0
301,680,0,0,0,0,0,0,0,0,0,-1,1525,344,0,0
308,680,0,0,0,0,0,0,0,0,0,-1,1532,344,0,0
315,680,0,0,0,0,0,0,0,0,0,-1,1539,344,0,0
322,680,0,0,0,0,0,0,0,0,0,-1,1546,344,0,0
329,680,0,0,0,0,0,0,0,0,0,-1,1553,344,0,0
336,680,0,0,0,0,0,0,0,0,0,-1,1560,344,0,0
343,680,0,0,0,0,0,0,0,0,0,-1,1567,344,0,0
350,680,0,0,0,0,0,0,0,0,0,-1,1574,344,0,0
357,680,0,0,0,0,0,0,0,0,0,-1,1581,344,0,0
364,680,0,0,0,0,0,0,0,0,0,-1,1588,344,0,0
371,680,0,0,0,0,0,0,0,0,0,-1,1595,344,0,0
378,680,0,0,0,0,0,0,0,0,0,-1,1602,344,0,0
385,680,0,0,0,0,0,0,0,0,0,-1,1609,344,0,0
392,680,0,0,0,0,0,0,0,0,0,-1,1616,344,0,0
399,680,0,0,0,0,0,0,0,0,0,-1,1623,344,0,0
406,680,0,0,0,0,0,0,0,0,0,-1,1630,344,0,0
413,680,0,0,0,0,0,0,0,0,0,-1,1637,344,0,0
420,680,0,0,0,0,0,0,0,0,0,-1,1644,344,0,0
427,680,0,0,0,0,0,0,0,0,0,-1,1651,344,0,0
434,680,0,0,0,0,0,0,0,0,0,-1,1658,344,0,0
441,680,0,0,0,0,0,0,0,0,0,-1,1665,344,0,0
448,680,0,0,0,0,0,0,0,0,0,-1,1672,344,0,0
455,680,0,0,0,0,0,0,0,0,0,-1,1679,344,0,0
462,680,0,0,0,0,0,0,0,0,0,-1,1686,344,0,0
469,680,0,0,0,0,0,0,0,0,0,-1,1693,344,0,0
476,680,0,0,0,0,0,0,0,0,0,-1,1700,344,0,0
483,680,0,0,0,0,0,0,0,0,0,-1,1707,344,0,0
490,680,0,0,0,0,0,0,0,0,0,-1,1714,344,0,0
497,680,0,0,0,0,0,0,0,0,0,-1,1721,344,0,0
504,680,0,0,0,0,0,0,0,0,0,-1,1728,344,0,0
511,680,0,0,0,0,0,0,0,0,0,-1,1735,344,0,0
518,680,0,0,0,0,0,0,0,0,0,-1,1742,344,0,0
525,680,0,0,0,0,0,0,0,0,0,-1,1749,344,0,0
532,680,0,0,0,0,0,0,0,0,0,-1,1756,344,0,0
539,680,0,0,0,0,0,0,0,0,0,-1,1763,344,0,0
546,680,0,0,0,0,0,0,0,0,0,-1,1770,344,0,0
553,680,0,0,0,0,0,0,0,0,0,-1,1777,344,0,0
560,680,0,0,0,0,0,0,0,0,0,-1,1784,344,0,0
567,680,0,0,0,0,0,0,0,0,0,-1,1791,344,0,0
574,680,0,0,0,0,0,0,0,0,0,-1,1798,344,0,0
581,680,0,0,0,0,0,0,0,0,0,-1,1805,344,0,0
588,680,0,0,0,0,0,0,0,0,0,-1,1812,344,0,0
595,680,0,0,0,0,0,0,0,0,0,-1,1819,344,0,0
602,680,0,0,0,0,0,0,0,0,0,-1,1826,344,0,0
609,680,0,0,0,0,0,0,0,0,0,-1,1833,344,0,0
616,680,0,0,0,0,0,0,0,0,0,-1,1840,344,0,0
623,680,0,0,0,0,0,0,0,0,0,-1,1847,344,0,0
630,680,0,0,0,0,0,0,0,0,0,-1,1854,344,0,0
637,680,0,0,0,0,0,0,0,0,0,-1,1861,344,0,0
644,680,0,0,0,0,0,0,0,0,0,-1,1868,344,0,0
651,680,0,0,0,0,0,0,0,0,0,-1,1875,344,0,0
658,680,0,0,0,0,0,0,0,0,0,-1,1882,344,0,0
665,680,0,0,0,0,0,0,0,0,0,-1,1889,344,0,0
672,680,0,0,0,0,0,0,0,0,0,-1,1896,344,0,0
679,680,0,0,0,0,0,0,0,0,0,-1,1903,344,0,0
686,680,0,0,0,0,0,0,0,0,0,-1,1910,344,0,0
693,680,0,0,0,0,0,0,0,0,0,-1,1917,344,0,0
700,680,0,0,0,0,0,0,0,0,0,-1,1924,344,0,0
707,680,0,0,0,0,0,0,0,0,0,-1,1931,344,0,0
714,680,0,0,0,0,0,0,0,0,0,-1,1938,344,0,0
721,680,0,0,0,0,0,0,0,0,0,-1,1945,344,0,0
728,680,0,0,0,0,0,0,0,0,0,-1,1952,344,0,0
735,680,0,0,0,0,0,0,0,0,0,-1,1959,344,0,0
742,680,0,0,0,0,0,0,0,0,0,-1,1966,344,0,0
749,680,0,0,0,0,0,0,0,0,0,-1,1973,344,0,0
756,680,0,0,0,0,0,0,0,0,0,-1,1980,344,0,0
763,680,0,0,0,0,0,0,0,0,0,-1,1987,344,0,0
770,680,0,0,0,0,0,0,0,0,0,-1,1994,344,0,0
777,680,0,0,0,0,0,0,0,0,0,-1,2001,344,0,0
784,680,0,0,0,0,0,0,0,0,0,-1,2008,344,0,0
791,680,0,0,0,0,0,0,0,0,0,-1,2015,344,0,0
798,680,0,0,0,0,0,0,0,0,0,-1,2022,344,0,0
805,680,0,0,0,0,0,0,0,0,0,-1,2029,344,0,0
812,680,0,0,0,0,0,0,0,0,0,-1,2036,344,0,0
-700,673,0,0,0,0,0,0,0,0,0,-1,524,351,0,0
-693,673,0,0,0,0,0,0,0,0,0,-1,531,351,0,0
-686,673,0,0,0,0,0,0,0,0,0,-1,538,351,0,0
-679,673,0,0,0,0,0,0,0,0,0,-1,545,351,0,0
-672,673,0,0,0,0,0,0,0,0,0,-1,552,351,0,0
-665,673,0,0,0,0,0,0,0,0,0,-1,559,351,0,0
-658,673,0,0,0,0,0,0,0,0,0,-1,566,351,0,0
-651,673,0,0,0,0,0,0,0,0,0,-1,573,351,0,0
-644,673,0,0,0,0,0,0,0,0,0,-1,580,351,0,0
-637,673,0,0,0,0,0,0,0,0,0,-1,587,351,0,0
-630,673,0,0,0,0,0,0,0,0,0,-1,594,351,0,0
-623,673,0,0,0,0,0,0,0,0,0,-1,601,351,0,0
-616,673,0,0,0,0,0,0,0,0,0,-1,608,351,0,0
-609,673,0,0,0,0,0,0,0,0,0,-1,615,351,0,0
-602,673,0,0,0,0,0,0,0,0,0,-1,622,351,0,0
-595,673,0,0,0,0,0,0,0,0,0,-1,629,351,0,0
-588,673,0,0,0,0,0,0,0,0,0,-1,636,351,0,0
-581,673,0,0,0,0,0,0,0,0,0,-1,643,351,0,0
-574,673,0,0,0,0,0,0,0,0,0,-1,650,351,0,0
-567,673,0,0,0,0,0,0,0,0,0,-1,657,351,0,0
-560,673,0,0,0,0,0,0,0,0,0,-1,664,351,0,0
-553,673,0,0,0,0,0,0,0,0,0,-1,671,351,0,0
-546,673,0,0,0,0,0,0,0,0,0,-1,678,351,0,0
-539,673,0,0,0,0,0,0,0,0,0,-1,685,351,0,0
-532,673,0,0,0,0,0,0,0,0,0,-1,692,351,0,0
-525,673,0,0,0,0,0,0,0,0,0,-1,699,351,0,0
-518,673,0,0,0,0,0,0,0,0,0,-1,706,351,0,0
-511,673,0,0,0,0,0,0,0,0,0,-1,713,351,0,0
-504,673,0,0,0,0,0,0,0,0,0,-1,720,351,0,0
-497,673,0,0,0,0,0,0,0,0,0,-1,727,351,0,0
-490,673,0,0,0,0,0,0,0,0,0,-1,734,351,0,0
-483,673,0,0,0,0,0,0,0,0,0,-1,741,351,0,0
-476,673,0,0,0,0,0,0,0,0,0,-1,748,351,0,0
-469,673,0,0,0,0,0,0,0,0,0,-1,755,351,0,0
-462,673,0,0,0,0,0,0,0,0,0,-1,762,351,0,0
-455,673,0,0,0,0,0,0,0,0,0,-1,769,351,0,0
-448,673,0,0,0,0,0,0,0,0,0,-1,776,351,0,0
-441,673,0,0,0,0,0,0,0,0,0,-1,783,351,0,0
-434,673,0,0,0,0,0,0,0,0,0,-1,790,351,0,0
-427,673,0,0,0,0,0,0,0,0,0,-1,797,351,0,0
-420,673,0,0,0,0,0,0,0,0,0,-1,804,351,0,0
-413,673,0,0,0,0,0,0,0,0,0,-1,811,351,0,0
-406,673,0,0,0,0,0,0,0,0,0,-1,818,351,0,0
-399,673,0,0,0,0,0,0,0,0,0,-1,825,351,0,0
-392,673,0,0,0,0,0,0,0,0,0,-1,832,351,0,0
-385,673,0,0,0,0,0,0,0,0,0,-1,839,351,0,0
-378,673,0,0,0,0,0,0,0,0,0,-1,846,351,0,0
-371,673,0,0,0,0,0,0,0,0,0,-1,853,351,0,0
-364,673,0,0,0,0,0,0,0,0,0,-1,860,351,0,0
-357,673,0,0,0,0,0,0,0,0,0,-1,867,351,0,0
-350,673,0,0,0,0,0,0,0,0,0,-1,874,351,0,0
-343,673,0,0,0,0,0,0,0,0,0,-1,881,351,0,0
-336,673,0,0,0,0,0,0,0,0,0,-1,888,351,0,0
-329,673,0,0,0,0,0,0,0,0,0,-1,895,351,0,0
-322,673,0,0,0,0,0,0,0,0,0,-1,902,351,0,0
-315,673,0,0,0,0,0,0,0,0,0,-1,909,351,0,0
-308,673,0,0,0,0,0,0,0,0,0,-1,916,351,0,0
-301,673,0,0,0,0,0,0,0,0,0,-1,923,351,0,0
-294,673,0,0,0,0,0,0,0,0,0,-1,930,351,0,0
-287,673,0,0,0,0,0,0,0,0,0,-1,937,351,0,0
-280,673,0,0,0,0,0,0,0,0,0,-1,944,351,0,0
-273,673,0,0,0,0,0,0,0,0,0,-1,951,351,0,0
-266,673,0,0,0,0,0,0,0,0,0,-1,958,351,0,0
-259,673,0,0,0,0,0,0,0,0,0,-1,965,351,0,0
-252,673,0,0,0,0,0,0,0,0,0,-1,972,351,0,0
-245,673,0,0,0,0,0,0,0,0,0,-1,979,351,0,0
-238,673,0,0,0,0,0,0,0,0,0,-1,986,351,0,0
-231,673,0,0,0,0,0,0,0,0,0,-1,993,351,0,0
-224,673,0,0,0,0,0,0,0,0,0,-1,1000,351,0,0
-217,673,0,0,0,0,0,0,0,0,0,-1,1007,351,0,0
-210,673,0,0,0,0,0,0,0,0,0,-1,1014,351,0,0
-203,673,0,0,0,0,0,0,0,0,0,-1,1021,351,0,0
-196,673,0,0,0,0,0,0,0,0,0,-1,1028,351,0,0
-189,673,0,0,0,0,0,0,0,0,0,-1,1035,351,0,0
-182,673,0,0,0,0,0,0,0,0,0,-1,1042,351,0,0
-175,673,7.10449,-31.8279,0,0,0,0,0,0,0,-1,1049,351,7.10448,31.8279
-168,673,7.33081,-32.7122,0,0,0,0,0,0,0,-1,1056,351,7.33085,32.7122
-161,673,7.8938,-33.5352,0,0,0,0,0,0,0,-1,1063,351,7.89385,33.5352
-154,673,8.80566,-35.3518,0,0,0,0,0,0,0,-1,1070,351,8.80563,35.3518
-147,673,2.89221,-37.7351,0,0,0,0,0,0,0,-1,1077,351,2.89224,37.7351
-140,673,3.35046,-37.7151,0,0,0,0,0,0,0,-1,1084,351,3.35046,37.715
-133,673,3.35339,-39.0288,0,0,0,0,0,0,0,-1,1091,351,3.35342,39.0288
-126,673,3.7533,-38.0453,0,0,0,0,0,0,0,-1,1098,351,3.7533,38.0453
-119,673,4.1532,-37.0618,0,0,0,0,0,0,0,-1,1105,351,4.15318,37.0618
-112,673,7.27234,-32.5801,0,0,0,0,0,0,0,-1,1112,351,7.27231,32.5801
-105,673,21.1144,-43.3143,0,0,0,0,0,0,0,-1,1119,351,21.1143,43.3143
-98,673,14.8014,-36.7519,0,0,0,0,0,0,0,-1,1126,351,14.8014,36.7519
-91,673,8.54944,-29.9639,0,0,0,0,0,0,0,-1,1133,351,8.54949,29.9639
-84,673,2.17102,-24.3204,0,0,0,0,0,0,0,-1,1140,351,2.17107,24.3204
-77,673,-4.25378,-18.8346,0,0,0,0,0,0,0,-1,1147,351,-4.25381,18.8346
-70,673,-10.7933,-13.6681,0,0,0,0,0,0,0,-1,1154,351,-10.7934,13.6681
-63,673,-17.3896,-8.24469,0,0,0,0,0,0,0,-1,1161,351,-17.3896,8.2447
-56,673,-18.0282,2.79053,0,0,0,0,0,0,0,-1,1168,351,-18.0283,-2.79052
-49,673,-0.926758,-0.115448,0,0,0,0,0,0,0,-1,1175,351,-0.926732,0.115444
-42,673,-1.15015,0.289917,0,0,0,0,0,0,0,-1,1182,351,-1.15017,-0.289932
-35,673,-0.919556,-1.00711,0,0,0,0,0,0,0,-1,1189,351,-0.919514,1.00711
-28,673,5.28918,-39.2331,0,0,0,0,0,0,0,-1,1196,351,5.28924,39.2331
-21,673,11.2444,-92.9249,0,0,0,0,0,0,0,-1,1203,351,11.2444,92.9249
-14,673,14.4708,-104.129,0,0,0,0,0,0,0,-1,1210,351,14.4709,104.129
-7,673,11.002,-135.851,0,0,0,0,0,0,0,-1,1217,351,11.0019,135.851
0,673,4.71179,-264.266,0,0,0,0,0,0,0,-1,1224,351,4.71178,264.266
7,673,7.0658,-203.391,0,0,0,0,0,0,0,-1,1231,351,7.06576,203.391
14,673,6.03809,-227.98,0,0,0,0,0,0,0,-1,1238,351,6.03813,227.98
21,673,6.42554,-218.671,0,0,0,0,0,0,0,-1,1245,351,6.42552,218.671
28,673,10.4435,-123.673,0,0,0,0,0,0,0,-1,1252,351,10.4435,123.673
35,673,8.65234,-174.636,0,0,0,0,0,0,0,-1,1259,351,8.65234,174.636
42,673,7.62903,-175.005,0,0,0,0,0,0,0,-1,1266,351,7.62904,175.005
49,673,6.23169,-191.585,0,0,0,0,0,0,0,-1,1273,351,6.23166,191.585
56,673,6.14856,-191.704,0,0,0,0,0,0,0,-1,1280,351,6.1485,191.704
63,673,6.27625,-191.965,0,0,0,0,0,0,0,-1,1287,351,6.27629,191.965
70,673,8.58582,-122.182,0,0,0,0,0,0,0,-1,1294,351,8.5858,122.182
77,673,8.04187,-120.089,0,0,0,0,0,0,0,-1,1301,351,8.04189,120.089
84,673,7.37463,-119.7,0,0,0,0,0,0,0,-1,1308,351,7.37469,119.7
91,673,4.61047,-267.398,0,0,0,0,0,0,0,-1,1315,351,4.6105,267.398
98,673,4.00623,-266.897,0,0,0,0,0,0,0,-1,1322,351,4.00626,266.897
105,673,6.79333,-132.248,0,0,0,0,0,0,0,-1,1329,351,6.79335,132.248
112,673,7.85938,-111.635,0,0,0,0,0,0,0,-1,1336,351,7.85934,111.635
119,673,4.15515,-103.79,0,0,0,0,0,0,0,-1,1343,351,4.15521,103.79
126,673,4.59888,-103.542,0,0,0,0,0,0,0,-1,1350,351,4.59885,103.542
133,673,4.44226,-103.25,0,0,0,0,0,0,0,-1,1357,351,4.4423,103.25
140,673,4.12817,-99.7395,0,0,0,0,0,0,0,-1,1364,351,4.12818,99.7395
147,673,5.25964,-114.259,0,0,0,0,0,0,0,-1,1371,351,5.25959,114.259
154,673,5.15833,-114.149,0,0,0,0,0,0,0,-1,1378,351,5.15829,114.149
161,673,6.22559,-90.9402,0,0,0,0,0,0,0,-1,1385,351,6.22559,90.9402
168,673,6.87061,1.83954,0,0,0,0,0,0,0,-1,1392,351,6.87063,-1.83953
175,673,6.6228,1.1459,0,0,0,0,0,0,0,-1,1399,351,6.62276,-1.14591
182,673,6.37244,0.796112,0,0,0,0,0,0,0,-1,1406,351,6.3724,-0.796102
189,673,6.12097,0.265472,0,0,0,0,0,0,0,-1,1413,351,6.121,-0.265482
196,673,6.02173,3.12717,0,0,0,0,0,0,0,-1,1420,351,6.02176,-3.12717
203,673,5.04456,1.6351,0,0,0,0,0,0,0,-1,1427,351,5.04455,-1.63509
210,673,4.79224,0.447479,0,0,0,0,0,0,0,-1,1434,351,4.79229,-0.447469
217,673,2.01648,0.972687,0,0,0,0,0,0,0,-1,1441,351,2.01644,-0.972691
224,673,2.3689,-1.80539,0,0,0,0,0,0,0,-1,1448,351,2.36896,1.80539
231,673,2.65857,-2.18497,0,0,0,0,0,0,0,-1,1455,351,2.65852,2.18496
238,673,3.77844,-2.06088,0,0,0,0,0,0,0,-1,1462,351,3.77839,2.06088
245,673,3.5376,-0.190399,0,0,0,0,0,0,0,-1,1469,351,3.53759,0.1904
252,673,3.80518,0.55603,0,0,0,0,0,0,0,-1,1476,351,3.80519,-0.556022
259,673,3.88562,1.29617,0,0,0,0,0,0,0,-1,1483,351,3.88562,-1.29618
266,673,4.22424,2.04834,0,0,0,0,0,0,0,-1,1490,351,4.22429,-2.04834
273,673,6.07886,0.385895,0,0,0,0,0,0,0,-1,1497,351,6.0789,-0.385906
280,673,6.97534,-0.0820007,0,0,0,0,0,0,0,-1,1504,351,6.97536,0.0820122
287,673,7.66968,-0.348541,0,0,0,0,0,0,0,-1,1511,351,7.66969,0.348534
294,673,8.20996,0.28537,0,0,0,0,0,0,0,-1,1518,351,8.20993,-0.28536
301,673,0,0,0,0,0,0,0,0,0,-1,1525,351,0,0
308,673,0,0,0,0,0,0,0,0,0,-1,1532,351,0,0
315,673,0,0,0,0,0,0,0,0,0,-1,1539,351,0,0
322,673,0,0,0,0,0,0,0,0,0,-1,1546,351,0,0
329,673,0,0,0,0,0,0,0,0,0,-1,1553,351,0,0
336,673,0,0,0,0,0,0,0,0,0,-1,1560,351,0,0
343,673,0,0,0,0,0,0,0,0,0,-1,1567,351,0,0
350,673,0,0,0,0,0,0,0,0,0,-1,1574,351,0,0
357,673,0,0,0,0,0,0,0,0,0,-1,1581,351,0,0
364,673,0,0,0,0,0,0,0,0,0,-1,1588,351,0,0
371,673,0,0,0,0,0,0,0,0,0,-1,1595,351,0,0
378,673,0,0,0,0,0,0,0,0,0,-1,1602,351,0,0
385,673,0,0,0,0,0,0,0,0,0,-1,1609,351,0,0
392,673,0,0,0,0,0,0,0,0,0,-1,1616,351,0,0
399,673,0,0,0,0,0,0,0,0,0,-1,1623,351,0,0
406,673,0,0,0,0,0,0,0,0,0,-1,1630,351,0,0
413,673,0,0,0,0,0,0,0,0,0,-1,1637,351,0,0
420,673,0,0,0,0,0,0,0,0,0,-1,1644,351,0,0
427,673,0,0,0,0,0,0,0,0,0,-1,1651,351,0,0
434,673,0,0,0,0,0,0,0,0,0,-1,1658,351,0,0
441,673,0,0,0,0,0,0,0,0,0,-1,1665,351,0,0
448,673,0,0,0,0,0,0,0,0,0,-1,1672,351,0,0
455,673,0,0,0,0,0,0,0,0,0,-1,1679,351,0,0
462,673,0,0,0,0,0,0,0,0,0,-1,1686,351,0,0
469,673,0,0,0,0,0,0,0,0,0,-1,1693,351,0,0
476,673,0,0,0,0,0,0,0,0,0,-1,1700,351,0,0
483,673,0,0,0,0,0,0,0,0,0,-1,1707,351,0,0
490,673,0,0,0,0,0,0,0,0,0,-1,1714,351,0,0
497,673,0,0,0,0,0,0,0,0,0,-1,1721,351,0,0
504,673,0,0,0,0,0,0,0,0,0,-1,1728,351,0,0
511,673,0,0,0,0,0,0,0,0,0,-1,1735,351,0,0
518,673,0,0,0,0,0,0,0,0,0,-1,1742,351,0,0
525,673,0,0,0,0,0,0,0,0,0,-1,1749,351,0,0
532,673,0,0,0,0,0,0,0,0,0,-1,1756,351,0,0
539,673,0,0,0,0,0,0,0,0,0,-1,1763,351,0,0
546,673,0,0,0,0,0,0,0,0,0,-1,1770,351,0,0
553,673,0,0,0,0,0,0,0,0,0,-1,1777,351,0,0
560,673,0,0,0,0,0,0,0,0,0,-1,1784,351,0,0
567,673,0,0,0,0,0,0,0,0,0,-1,1791,351,0,0
574,673,0,0,0,0,0,0,0,0,0,-1,1798,351,0,0
581,673,0,0,0,0,0,0,0,0,0,-1,1805,351,0,0
588,673,0,0,0,0,0,0,0,0,0,-1,1812,351,0,0
595,673,0,0,0,0,0,0,0,0,0,-1,1819,351,0,0
602,673,0,0,0,0,0,0,0,0,0,-1,1826,351,0,0
609,673,0,0,0,0,0,0,0,0,0,-1,1833,351,0,0
616,673,0,0,0,0,0,0,0,0,0,-1,1840,351,0,0
623,673,0,0,0,0,0,0,0,0,0,-1,1847,351,0,0
630,673,0,0,0,0,0,0,0,0,0,-1,1854,351,0,0
637,673,0,0,0,0,0,0,0,0,0,-1,1861,351,0,0
644,673,0,0,0,0,0,0,0,0,0,-1,1868,351,0,0
651,673,0,0,0,0,0,0,0,0,0,-1,1875,351,0,0
658,673,0,0,0,0,0,0,0,0,0,-1,1882,351,0,0
665,673,0,0,0,0,0,0,0,0,0,-1,1889,351,0,0
672,673,0,0,0,0,0,0,0,0,0,-1,1896,351,0,0
679,673,0,0,0,0,0,0,0,0,0,-1,1903,351,0,0
686,673,0,0,0,0,0,0,0,0,0,-1,1910,351,0,0
693,673,0,0,0,0,0,0,0,0,0,-1,1917,351,0,0
700,673,0,0,0,0,0,0,0,0,0,-1,1924,351,0,0
707,673,0,0,0,0,0,0,0,0,0,-1,1931,351,0,0
714,673,0,0,0,0,0,0,0,0,0,-1,1938,351,0,0
721,673,0,0,0,0,0,0,0,0,0,-1,1945,351,0,0
728,673,0,0,0,0,0,0,0,0,0,-1,1952,351,0,0
735,673,0,0,0,0,0,0,0,0,0,-1,1959,351,0,0
742,673,0,0,0,0,0,0,0,0,0,-1,1966,351,0,0
749,673,0,0,0,0,0,0,0,0,0,-1,1973,351,0,0
756,673,0,0,0,0,0,0,0,0,0,-1,1980,351,0,0
763,673,0,0,0,0,0,0,0,0,0,-1,1987,351,0,0
770,673,0,0,0,0,0,0,0,0,0,-1,1994,351,0,0
777,673,0,0,0,0,0,0,0,0,0,-1,2001,351,0,0
784,673,0,0,0,0,0,0,0,0,0,-1,2008,351,0,0
791,673,0,0,0,0,0,0,0,0,0,-1,2015,351,0,0
798,673,0,0,0,0,0,0,0,0,0,-1,2022,351,0,0
805,673,0,0,0,0,0,0,0,0,0,-1,2029,351,0,0
812,673,0,0,0,0,0,0,0,0,0,-1,2036,351,0,0
-700,666,0,0,0,0,0,0,0,0,0,-1,524,358,0,0
-693,666,0,0,0,0,0,0,0,0,0,-1,531,358,0,0
-686,666,0,0,0,0,0,0,0,0,0,-1,538,358,0,0
-679,666,0,0,0,0,0,0,0,0,0,-1,545,358,0,0
-672,666,0,0,0,0,0,0,0,0,0,-1,552,358,0,0
-665,666,0,0,0,0,0,0,0,0,0,-1,559,358,0,0
-658,666,0,0,0,0,0,0,0,0,0,-1,566,358,0,0
-651,666,0,0,0,0,0,0,0,0,0,-1,573,358,0,0
-644,666,0,0,0,0,0,0,0,0,0,-1,580,358,0,0
-637,666,0,0,0,0,0,0,0,0,0,-1,587,358,0,0
-630,666,0,0,0,0,0,0,0,0,0,-1,594,358,0,0
-623,666,0,0,0,0,0,0,0,0,0,-1,601,358,0,0
-616,666,0,0,0,0,0,0,0,0,0,-1,608,358,0,0
-609,666,0,0,0,0,0,0,0,0,0,-1,615,358,0,0
-602,666,0,0,0,0,0,0,0,0,0,-1,622,358,0,0
-595,666,0,0,0,0,0,0,0,0,0,-1,629,358,0,0
-588,666,0,0,0,0,0,0,0,0,0,-1,636,358,0,0
-581,666,0,0,0,0,0,0,0,0,0,-1,643,358,0,0
-574,666,0,0,0,0,0,0,0,0,0,-1,650,358,0,0
-567,666,0,0,0,0,0,0,0,0,0,-1,657,358,0,0
-560,666,0,0,0,0,0,0,0,0,0,-1,664,358,0,0
-553,666,0,0,0,0,0,0,0,0,0,-1,671,358,0,0
-546,666,0,0,0,0,0,0,0,0,0,-1,678,358,0,0
-539,666,0,0,0,0,0,0,0,0,0,-1,685,358,0,0
-532,666,0,0,0,0,0,0,0,0,0,-1,692,358,0,0
-525,666,0,0,0,0,0,0,0,0,0,-1,699,358,0,0
-518,666,0,0,0,0,0,0,0,0,0,-1,706,358,0,0
-511,666,0,0,0,0,0,0,0,0,0,-1,713,358,0,0
-504,666,0,0,0,0,0,0,0,0,0,-1,720,358,0,0
-497,666,0,0,0,0,0,0,0,0,0,-1,727,358,0,0
-490,666,0,0,0,0,0,0,0,0,0,-1,734,358,0,0
-483,666,0,0,0,0,0,0,0,0,0,-1,741,358,0,0
-476,666,0,0,0,0,0,0,0,0,0,-1,748,358,0,0
-469,666,0,0,0,0,0,0,0,0,0,-1,755,358,0,0
-462,666,0,0,0,0,0,0,0,0,0,-1,762,358,0,0
-455,666,0,0,0,0,0,0,0,0,0,-1,769,358,0,0
-448,666,0,0,0,0,0,0,0,0,0,-1,776,358,0,0
-441,666,0,0,0,0,0,0,0,0,0,-1,783,358,0,0
-434,666,0,0,0,0,0,0,0,0,0,-1,790,358,0,0
-427,666,0,0,0,0,0,0,0,0,0,-1,797,358,0,0
-420,666,0,0,0,0,0,0,0,0,0,-1,804,358,0,0
-413,666,0,0,0,0,0,0,0,0,0,-1,811,358,0,0
-406,666,0,0,0,0,0,0,0,0,0,-1,818,358,0,0
-399,666,0,0,0,0,0,0,0,0,0,-1,825,358,0,0
-392,666,0,0,0,0,0,0,0,0,0,-1,832,358,0,0
-385,666,0,0,0,0,0,0,0,0,0,-1,839,358,0,0
-378,666,0,0,0,0,0,0,0,0,0,-1,846,358,0,0
-371,666,0,0,0,0,0,0,0,0,0,-1,853,358,0,0
-364,666,0,0,0,0,0,0,0,0,0,-1,860,358,0,0
-357,666,0,0,0,0,0,0,0,0,0,-1,867,358,0,0
-350,666,0,0,0,0,0,0,0,0,0,-1,874,358,0,0
-343,666,0,0,0,0,0,0,0,0,0,-1,881,358,0,0
-336,666,0,0,0,0,0,0,0,0,0,-1,888,358,0,0
-329,666,0,0,0,0,0,0,0,0,0,-1,895,358,0,0
-322,666,0,0,0,0,0,0,0,0,0,-1,902,358,0,0
-315,666,0,0,0,0,0,0,0,0,0,-1,909,358,0,0
-308,666,0,0,0,0,0,0,0,0,0,-1,916,358,0,0
-301,666,0,0,0,0,0,0,0,0,0,-1,923,358,0,0
-294,666,0,0,0,0,0,0,0,0,0,-1,930,358,0,0
-287,666,0,0,0,0,0,0,0,0,0,-1,937,358,0,0
-280,666,0,0,0,0,0,0,0,0,0,-1,944,358,0,0
-273,666,0,0,0,0,0,0,0,0,0,-1,951,358,0,0
-266,666,0,0,0,0,0,0,0,0,0,-1,958,358,0,0
-259,666,0,0,0,0,0,0,0,0,0,-1,965,358,0,0
-252,666,0,0,0,0,0,0,0,0,0,-1,972,358,0,0
-245,666,0,0,0,0,0,0,0,0,0,-1,979,358,0,0
-238,666,0,0,0,0,0,0,0,0,0,-1,986,358,0,0
-231,666,0,0,0,0,0,0,0,0,0,-1,993,358,0,0
-224,666,0,0,0,0,0,0,0,0,0,-1,1000,358,0,0
-217,666,0,0,0,0,0,0,0,0,0,-1,1007,358,0,0
-210,666,0,0,0,0,0,0,0,0,0,-1,1014,358,0,0
-203,666,0,0,0,0,0,0,0,0,0,-1,1021,358,0,0
-196,666,4.03418,-28.8724,0,0,0,0,0,0,0,-1,1028,358,4.03422,28.8724
-189,666,5.00366,-29.597,0,0,0,0,0,0,0,-1,1035,358,5.00363,29.597
-182,666,6.83252,-30.9843,0,0,0,0,0,0,0,-1,1042,358,6.83247,30.9844
-175,666,7.01611,-31.8763,0,0,0,0,0,0,0,-1,1049,358,7.01617,31.8762
-168,666,7.21545,-32.7414,0,0,0,0,0,0,0,-1,1056,358,7.2154,32.7414
-161,666,7.69116,-33.6269,0,0,0,0,0,0,0,-1,1063,358,7.69121,33.6269
-154,666,3.79041,-37.9204,0,0,0,0,0,0,0,-1,1070,358,3.79034,37.9204
-147,666,4.17908,-37.7466,0,0,0,0,0,0,0,-1,1077,358,4.17912,37.7466
-140,666,4.54309,-37.735,0,0,0,0,0,0,0,-1,1084,358,4.54304,37.735
-133,666,4.65723,-39.0643,0,0,0,0,0,0,0,-1,1091,358,4.65727,39.0643
-126,666,5.02368,-38.0699,0,0,0,0,0,0,0,-1,1098,358,5.02363,38.0698
-119,666,5.39001,-37.0754,0,0,0,0,0,0,0,-1,1105,358,5.38999,37.0754
-112,666,6.77014,-32.8165,0,0,0,0,0,0,0,-1,1112,358,6.77013,32.8165
-105,666,6.30908,-29.0855,0,0,0,0,0,0,0,-1,1119,358,6.30905,29.0855
-98,666,15.4427,-31.5168,0,0,0,0,0,0,0,-1,1126,358,15.4428,31.5168
-91,666,9.5127,-25.1347,0,0,0,0,0,0,0,-1,1133,358,9.51269,25.1347
-84,666,2.91589,-19.4071,0,0,0,0,0,0,0,-1,1140,358,2.91592,19.4071
-77,666,-3.48083,-14.0782,0,0,0,0,0,0,0,-1,1147,358,-3.48081,14.0782
-70,666,-9.99438,-8.90146,0,0,0,0,0,0,0,-1,1154,358,-9.99433,8.90146
-63,666,-11.7778,-0.975189,0,0,0,0,0,0,0,-1,1161,358,-11.7778,0.97519
-56,666,0.424683,-2.04132,0,0,0,0,0,0,0,-1,1168,358,0.424665,2.04132
-49,666,0.754395,-2.23169,0,0,0,0,0,0,0,-1,1175,358,0.754383,2.23169
-42,666,1.34473,-3.53897,0,0,0,0,0,0,0,-1,1182,358,1.34476,3.53896
-35,666,4.09216,-262.084,0,0,0,0,0,0,0,-1,1189,358,4.09217,262.084
-28,666,4.30481,-262.728,0,0,0,0,0,0,0,-1,1196,358,4.30477,262.728
-21,666,4.54504,-263.87,0,0,0,0,0,0,0,-1,1203,358,4.54507,263.87
-14,666,4.41772,-264.739,0,0,0,0,0,0,0,-1,1210,358,4.41771,264.739
-7,666,4.18103,-265.149,0,0,0,0,0,0,0,-1,1217,358,4.18107,265.149
0,666,4.06738,-265.435,0,0,0,0,0,0,0,-1,1224,358,4.06732,265.435
7,666,4.0697,-266.347,0,0,0,0,0,0,0,-1,1231,358,4.06973,266.347
14,666,4.00977,-266.671,0,0,0,0,0,0,0,-1,1238,358,4.00978,266.671
21,666,4.12793,-267.079,0,0,0,0,0,0,0,-1,1245,358,4.12794,267.079
28,666,4.04041,-267.512,0,0,0,0,0,0,0,-1,1252,358,4.04041,267.512
35,666,4.07397,-267.903,0,0,0,0,0,0,0,-1,1259,358,4.07393,267.903
42,666,4.26941,-268.179,0,0,0,0,0,0,0,-1,1266,358,4.26944,268.179
49,666,4.36865,-268.437,0,0,0,0,0,0,0,-1,1273,358,4.36863,268.437
56,666,4.40369,-268.56,0,0,0,0,0,0,0,-1,1280,358,4.4037,268.559
63,666,4.3385,-268.675,0,0,0,0,0,0,0,-1,1287,358,4.33845,268.675
70,666,4.42249,-268.778,0,0,0,0,0,0,0,-1,1294,358,4.4225,268.778
77,666,4.39697,-268.65,0,0,0,0,0,0,0,-1,1301,358,4.39691,268.65
84,666,4.51672,-268.521,0,0,0,0,0,0,0,-1,1308,358,4.51669,268.521
91,666,4.57861,-268.278,0,0,0,0,0,0,0,-1,1315,358,4.57862,268.278
98,666,4.50745,-267.892,0,0,0,0,0,0,0,-1,1322,358,4.50748,267.892
105,666,4.57629,-267.379,0,0,0,0,0,0,0,-1,1329,358,4.57628,267.379
112,666,4.68286,-267.006,0,0,0,0,0,0,0,-1,1336,358,4.68288,267.006
119,666,4.73096,-266.471,0,0,0,0,0,0,0,-1,1343,358,4.73094,266.471
126,666,4.77209,-265.465,0,0,0,0,0,0,0,-1,1350,358,4.77211,265.465
133,666,4.81384,-264.682,0,0,0,0,0,0,0,-1,1357,358,4.81387,264.682
140,666,4.73987,-264.477,0,0,0,0,0,0,0,-1,1364,358,4.73989,264.477
147,666,4.74463,-263.846,0,0,0,0,0,0,0,-1,1371,358,4.74462,263.846
154,666,4.73523,-262.822,0,0,0,0,0,0,0,-1,1378,358,4.73522,262.822
161,666,4.50732,-261.844,0,0,0,0,0,0,0,-1,1385,358,4.50735,261.844
168,666,4.24451,-259.887,0,0,0,0,0,0,0,-1,1392,358,4.24451,259.887
175,666,4.89124,-132.772,0,0,0,0,0,0,0,-1,1399,358,4.89125,132.772
182,666,2.60876,-5.17068,0,0,0,0,0,0,0,-1,1406,358,2.6088,5.17068
189,666,2.46973,-5.49979,0,0,0,0,0,0,0,-1,1413,358,2.46975,5.49979
196,666,2.32458,-5.23651,0,0,0,0,0,0,0,-1,1420,358,2.32461,5.23653
203,666,2.28064,-3.88004,0,0,0,0,0,0,0,-1,1427,358,2.28059,3.88003
210,666,3.02576,-5.83548,0,0,0,0,0,0,0,-1,1434,358,3.02581,5.83547
217,666,2.30444,-5.36011,0,0,0,0,0,0,0,-1,1441,358,2.30447,5.3601
224,666,1.82324,-6.03101,0,0,0,0,0,0,0,-1,1448,358,1.82322,6.031
231,666,2.29797,-10.1093,0,0,0,0,0,0,0,-1,1455,358,2.29801,10.1093
238,666,2.52429,-6.10568,0,0,0,0,0,0,0,-1,1462,358,2.52423,6.10567
245,666,4.53345,-1.38205,0,0,0,0,0,0,0,-1,1469,358,4.53349,1.38204
252,666,4.77405,-0.246979,0,0,0,0,0,0,0,-1,1476,358,4.77405,0.246993
259,666,4.83655,1.14087,0,0,0,0,0,0,0,-1,1483,358,4.83652,-1.14087
266,666,6.14148,0.749512,0,0,0,0,0,0,0,-1,1490,358,6.14144,-0.749519
273,666,3.17737,-33.7881,0,0,0,0,0,0,0,-1,1497,358,3.17735,33.7881
280,666,3.37268,-35.2123,0,0,0,0,0,0,0,-1,1504,358,3.37266,35.2123
287,666,-7.06934,-20.3464,0,0,0,0,0,0,0,-1,1511,358,-7.06933,20.3464
294,666,-2.11157,-23.2753,0,0,0,0,0,0,0,-1,1518,358,-2.11162,23.2753
301,666,-3.16162,-22.2271,0,0,0,0,0,0,0,-1,1525,358,-3.16161,22.2271
308,666,-4.24951,-20.9112,0,0,0,0,0,0,0,-1,1532,358,-4.24948,20.9112
315,666,-5.64954,-19.5784,0,0,0,0,0,0,0,-1,1539,358,-5.64959,19.5784
322,666,0,0,0,0,0,0,0,0,0,-1,1546,358,0,0
329,666,0,0,0,0,0,0,0,0,0,-1,1553,358,0,0
336,666,0,0,0,0,0,0,0,0,0,-1,1560,358,0,0
343,666,0,0,0,0,0,0,0,0,0,-1,1567,358,0,0
350,666,0,0,0,0,0,0,0,0,0,-1,1574,358,0,0
357,666,0,0,0,0,0,0,0,0,0,-1,1581,358,0,0
364,666,0,0,0,0,0,0,0,0,0,-1,1588,358,0,0
371,666,0,0,0,0,0,0,0,0,0,-1,1595,358,0,0
378,666,0,0,0,0,0,0,0,0,0,-1,1602,358,0,0
385,666,0,0,0,0,0,0,0,0,0,-1,1609,358,0,0
392,666,0,0,0,0,0,0,0,0,0,-1,1616,358,0,0
399,666,0,0,0,0,0,0,0,0,0,-1,1623,358,0,0
406,666,0,0,0,0,0,0,0,0,0,-1,1630,358,0,0
413,666,0,0,0,0,0,0,0,0,0,-1,1637,358,0,0
420,666,0,0,0,0,0,0,0,0,0,-1,1644,358,0,0
427,666,0,0,0,0,0,0,0,0,0,-1,1651,358,0,0
434,666,0,0,0,0,0,0,0,0,0,-1,1658,358,0,0
441,666,0,0,0,0,0,0,0,0,0,-1,1665,358,0,0
448,666,0,0,0,0,0,0,0,0,0,-1,1672,358,0,0
455,666,0,0,0,0,0,0,0,0,0,-1,1679,358,0,0
462,666,0,0,0,0,0,0,0,0,0,-1,1686,358,0,0
469,666,0,0,0,0,0,0,0,0,0,-1,1693,358,0,0
476,666,0,0,0,0,0,0,0,0,0,-1,1700,358,0,0
483,666,0,0,0,0,0,0,0,0,0,-1,1707,358,0,0
490,666,0,0,0,0,0,0,0,0,0,-1,1714,358,0,0
497,666,0,0,0,0,0,0,0,0,0,-1,1721,358,0,0
504,666,0,0,0,0,0,0,0,0,0,-1,1728,358,0,0
511,666,0,0,0,0,0,0,0,0,0,-1,1735,358,0,0
518,666,0,0,0,0,0,0,0,0,0,-1,1742,358,0,0
525,666,0,0,0,0,0,0,0,0,0,-1,1749,358,0,0
532,666,0,0,0,0,0,0,0,0,0,-1,1756,358,0,0
539,666,0,0,0,0,0,0,0,0,0,-1,1763,358,0,0
546,666,0,0,0,0,0,0,0,0,0,-1,1770,358,0,0
553,666,0,0,0,0,0,0,0,0,0,-1,1777,358,0,0
560,666,0,0,0,0,0,0,0,0,0,-1,1784,358,0,0
567,666,0,0,0,0,0,0,0,0,0,-1,1791,358,0,0
574,666,0,0,0,0,0,0,0,0,0,-1,1798,358,0,0
581,666,0,0,0,0,0,0,0,0,0,-1,1805,358,0,0
588,666,0,0,0,0,0,0,0,0,0,-1,1812,358,0,0
595,666,0,0,0,0,0,0,0,0,0,-1,1819,358,0,0
602,666,0,0,0,0,0,0,0,0,0,-1,1826,358,0,0
609,666,0,0,0,0,0,0,0,0,0,-1,1833,358,0,0
616,666,0,0,0,0,0,0,0,0,0,-1,1840,358,0,0
623,666,0,0,0,0,0,0,0,0,0,-1,1847,358,0,0
630,666,0,0,0,0,0,0,0,0,0,-1,1854,358,0,0
637,666,0,0,0,0,0,0,0,0,0,-1,1861,358,0,0
644,666,0,0,0,0,0,0,0,0,0,-1,1868,358,0,0
651,666,0,0,0,0,0,0,0,0,0,-1,1875,358,0,0
658,666,0,0,0,0,0,0,0,0,0,-1,1882,358,0,0
665,666,0,0,0,0,0,0,0,0,0,-1,1889,358,0,0
672,666,0,0,0,0,0,0,0,0,0,-1,1896,358,0,0
679,666,0,0,0,0,0,0,0,0,0,-1,1903,358,0,0
686,666,0,0,0,0,0,0,0,0,0,-1,1910,358,0,0
693,666,0,0,0,0,0,0,0,0,0,-1,1917,358,0,0
700,666,0,0,0,0,0,0,0,0,0,-1,1924,358,0,0
707,666,0,0,0,0,0,0,0,0,0,-1,1931,358,0,0
714,666,0,0,0,0,0,0,0,0,0,-1,1938,358,0,0
721,666,0,0,0,0,0,0,0,0,0,-1,1945,358,0,0
728,666,0,0,0,0,0,0,0,0,0,-1,1952,358,0,0
735,666,0,0,0,0,0,0,0,0,0,-1,1959,358,0,0
742,666,0,0,0,0,0,0,0,0,0,-1,1966,358,0,0
749,666,0,0,0,0,0,0,0,0,0,-1,1973,358,0,0
756,666,0,0,0,0,0,0,0,0,0,-1,1980,358,0,0
763,666,0,0,0,0,0,0,0,0,0,-1,1987,358,0,0
770,666,0,0,0,0,0,0,0,0,0,-1,1994,358,0,0
777,666,0,0,0,0,0,0,0,0,0,-1,2001,358,0,0
784,666,0,0,0,0,0,0,0,0,0,-1,2008,358,0,0
791,666,0,0,0,0,0,0,0,0,0,-1,2015,358,0,0
798,666,0,0,0,0,0,0,0,0,0,-1,2022,358,0,0
805,666,0,0,0,0,0,0,0,0,0,-1,2029,358,0,0
812,666,0,0,0,0,0,0,0,0,0,-1,2036,358,0,0
-700,659,0,0,0,0,0,0,0,0,0,-1,524,365,0,0
-693,659,0,0,0,0,0,0,0,0,0,-1,531,365,0,0
-686,659,0,0,0,0,0,0,0,0,0,-1,538,365,0,0
-679,659,0,0,0,0,0,0,0,0,0,-1,545,365,0,0
-672,659,0,0,0,0,0,0,0,0,0,-1,552,365,0,0
-665,659,0,0,0,0,0,0,0,0,0,-1,559,365,0,0
-658,659,0,0,0,0,0,0,0,0,0,-1,566,365,0,0
-651,659,0,0,0,0,0,0,0,0,0,-1,573,365,0,0
-644,659,0,0,0,0,0,0,0,0,0,-1,580,365,0,0
-637,659,0,0,0,0,0,0,0,0,0,-1,587,365,0,0
-630,659,0,0,0,0,0,0,0,0,0,-1,594,365,0,0
-623,659,0,0,0,0,0,0,0,0,0,-1,601,365,0,0
-616,659,0,0,0,0,0,0,0,0,0,-1,608,365,0,0
-609,659,0,0,0,0,0,0,0,0,0,-1,615,365,0,0
-602,659,0,0,0,0,0,0,0,0,0,-1,622,365,0,0
-595,659,0,0,0,0,0,0,0,0,0,-1,629,365,0,0
-588,659,0,0,0,0,0,0,0,0,0,-1,636,365,0,0
-581,659,0,0,0,0,0,0,0,0,0,-1,643,365,0,0
-574,659,0,0,0,0,0,0,0,0,0,-1,650,365,0,0
-567,659,0,0,0,0,0,0,0,0,0,-1,657,365,0,0
-560,659,0,0,0,0,0,0,0,0,0,-1,664,365,0,0
-553,659,0,0,0,0,0,0,0,0,0,-1,671,365,0,0
-546,659,0,0,0,0,0,0,0,0,0,-1,678,365,0,0
-539,659,0,0,0,0,0,0,0,0,0,-1,685,365,0,0
-532,659,0,0,0,0,0,0,0,0,0,-1,692,365,0,0
-525,659,0,0,0,0,0,0,0,0,0,-1,699,365,0,0
-518,659,0,0,0,0,0,0,0,0,0,-1,706,365,0,0
-511,659,0,0,0,0,0,0,0,0,0,-1,713,365,0,0
-504,659,0,0,0,0,0,0,0,0,0,-1,720,365,0,0
-497,659,0,0,0,0,0,0,0,0,0,-1,727,365,0,0
-490,659,0,0,0,0,0,0,0,0,0,-1,734,365,0,0
-483,659,0,0,0,0,0,0,0,0,0,-1,741,365,0,0
-476,659,0,0,0,0,0,0,0,0,0,-1,748,365,0,0
-469,659,0,0,0,0,0,0,0,0,0,-1,755,365,0,0
-462,659,0,0,0,0,0,0,0,0,0,-1,762,365,0,0
-455,659,0,0,0,0,0,0,0,0,0,-1,769,365,0,0
-448,659,0,0,0,0,0,0,0,0,0,-1,776,365,0,0
-441,659,0,0,0,0,0,0,0,0,0,-1,783,365,0,0
-434,659,0,0,0,0,0,0,0,0,0,-1,790,365,0,0
-427,659,0,0,0,0,0,0,0,0,0,-1,797,365,0,0
-420,659,0,0,0,0,0,0,0,0,0,-1,804,365,0,0
-413,659,0,0,0,0,0,0,0,0,0,-1,811,365,0,0
-406,659,0,0,0,0,0,0,0,0,0,-1,818,365,0,0
-399,659,0,0,0,0,0,0,0,0,0,-1,825,365,0,0
-392,659,0,0,0,0,0,0,0,0,0,-1,832,365,0,0
-385,659,0,0,0,0,0,0,0,0,0,-1,839,365,0,0
-378,659,0,0,0,0,0,0,0,0,0,-1,846,365,0,0
-371,659,0,0,0,0,0,0,0,0,0,-1,853,365,0,0
-364,659,0,0,0,0,0,0,0,0,0,-1,860,365,0,0
-357,659,0,0,0,0,0,0,0,0,0,-1,867,365,0,0
-350,659,0,0,0,0,0,0,0,0,0,-1,874,365,0,0
-343,659,0,0,0,0,0,0,0,0,0,-1,881,365,0,0
-336,659,0,0,0,0,0,0,0,0,0,-1,888,365,0,0
-329,659,0,0,0,0,0,0,0,0,0,-1,895,365,0,0
-322,659,0,0,0,0,0,0,0,0,0,-1,902,365,0,0
-315,659,0,0,0,0,0,0,0,0,0,-1,909,365,0,0
-308,659,0,0,0,0,0,0,0,0,0,-1,916,365,0,0
-301,659,0,0,0,0,0,0,0,0,0,-1,923,365,0,0
-294,659,0,0,0,0,0,0,0,0,0,-1,930,365,0,0
-287,659,0,0,0,0,0,0,0,0,0,-1,937,365,0,0
-280,659,0,0,0,0,0,0,0,0,0,-1,944,365,0,0
-273,659,0,0,0,0,0,0,0,0,0,-1,951,365,0,0
-266,659,0,0,0,0,0,0,0,0,0,-1,958,365,0,0
-259,659,0,0,0,0,0,0,0,0,0,-1,965,365,0,0
-252,659,0,0,0,0,0,0,0,0,0,-1,972,365,0,0
-245,659,0,0,0,0,0,0,0,0,0,-1,979,365,0,0
-238,659,0,0,0,0,0,0,0,0,0,-1,986,365,0,0
-231,659,0,0,0,0,0,0,0,0,0,-1,993,365,0,0
-224,659,0,0,0,0,0,0,0,0,0,-1,1000,365,0,0
-217,659,10.1305,-25.2622,0,0,0,0,0,0,0,-1,1007,365,10.1305,25.2622
-210,659,9.65643,-25.515,0,0,0,0,0,0,0,-1,1014,365,9.65642,25.515
-203,659,8.58911,-25.7432,0,0,0,0,0,0,0,-1,1021,365,8.58916,25.7432
-196,659,2.68323,-27.8121,0,0,0,0,0,0,0,-1,1028,365,2.6832,27.8121
-189,659,6.88049,-28.9412,0,0,0,0,0,0,0,-1,1035,365,6.88045,28.9412
-182,659,6.94189,-30.6316,0,0,0,0,0,0,0,-1,1042,365,6.94189,30.6316
-175,659,6.948,-32.0092,0,0,0,0,0,0,0,-1,1049,365,6.94798,32.0093
-168,659,7.1416,-32.7405,0,0,0,0,0,0,0,-1,1056,365,7.14157,32.7405
-161,659,7.57361,-33.7099,0,0,0,0,0,0,0,-1,1063,365,7.57355,33.7099
-154,659,7.71448,-34.8995,0,0,0,0,0,0,0,-1,1070,365,7.7145,34.8995
-147,659,5.46606,-37.758,0,0,0,0,0,0,0,-1,1077,365,5.46601,37.758
-140,659,5.7356,-37.755,0,0,0,0,0,0,0,-1,1084,365,5.73562,37.755
-133,659,5.91455,-37.9017,0,0,0,0,0,0,0,-1,1091,365,5.9146,37.9017
-126,659,6.31226,-37.9904,0,0,0,0,0,0,0,-1,1098,365,6.3122,37.9904
-119,659,6.26941,-35.0837,0,0,0,0,0,0,0,-1,1105,365,6.26943,35.0837
-112,659,6.24353,-35.0562,0,0,0,0,0,0,0,-1,1112,365,6.24349,35.0562
-105,659,5.38696,-30.5854,0,0,0,0,0,0,0,-1,1119,365,5.387,30.5854
-98,659,4.68042,-26.2438,0,0,0,0,0,0,0,-1,1126,365,4.68041,26.2438
-91,659,4.20776,-20.8654,0,0,0,0,0,0,0,-1,1133,365,4.20777,20.8654
-84,659,2.8584,-17.8303,0,0,0,0,0,0,0,-1,1140,365,2.85836,17.8303
-77,659,2.80139,-15.3457,0,0,0,0,0,0,0,-1,1147,365,2.80139,15.3457
-70,659,2.9353,-12.7028,0,0,0,0,0,0,0,-1,1154,365,2.93533,12.7028
-63,659,2.11267,-9.7796,0,0,0,0,0,0,0,-1,1161,365,2.11266,9.7796
-56,659,2.11182,-9.91541,0,0,0,0,0,0,0,-1,1168,365,2.11178,9.91541
-49,659,3.32471,-260.613,0,0,0,0,0,0,0,-1,1175,365,3.32466,260.613
-42,659,3.15845,-261.417,0,0,0,0,0,0,0,-1,1182,365,3.15839,261.417
-35,659,3.29773,-262.132,0.00516899,0.0214406,0.00290059,0.0219422,0.00466739,1.39956,0.0133472,0.0378403,1189,365,3.29769,262.132
-28,659,3.38977,-262.967,0.00597598,0.0224468,0.00286868,0.0229321,0.00549064,1.4032,0.0138262,0.0247179,1196,365,3.38971,262.967
-21,659,3.46216,-264.071,0.00665319,0.0231769,0.0028022,0.0236392,0.00619091,1.4073,0.0141545,0.0360838,1203,365,3.46211,264.071
-14,659,3.44312,-264.906,0.00749312,0.0240909,0.00278887,0.024547,0.00703705,1.4087,0.0145958,0.0370299,1210,365,3.44306,264.906
-7,659,3.41235,-265.536,0.00857448,0.0247448,0.00286137,0.0252362,0.00808309,1.40072,0.0148805,0.0367085,1217,365,3.41241,265.536
0,659,3.37988,-266.25,0.00969698,0.0250752,0.00291561,0.0256094,0.00916276,1.38958,0.0149836,0.0237674,1224,365,3.37988,266.25
7,659,3.42566,-266.783,0.0106293,0.0256008,0.00263472,0.026051,0.0101792,1.40158,0.0151598,0.0221414,1231,365,3.42571,266.783
14,659,3.55383,-267.078,0.0116271,0.0258456,0.00232658,0.0262167,0.011256,1.41266,0.0151865,0.0240923,1238,365,3.55383,267.078
21,659,3.63684,-267.444,0.0125124,0.0256647,0.00224591,0.0260377,0.0121394,1.40625,0.0150443,0.0219673,1245,365,3.63685,267.444
28,659,3.62476,-267.89,0.0133515,0.0249437,0.0020473,0.0252947,0.0130006,1.40103,0.0146058,0.0227601,1252,365,3.6247,267.89
35,659,3.76807,-268.246,0.014178,0.0242514,0.00151323,0.0244738,0.0139556,1.42487,0.0141764,0.0260673,1259,365,3.76808,268.246
42,659,3.98401,-268.54,0.0149853,0.0235644,0.000948761,0.023668,0.0148817,1.46196,0.013815,0.028821,1266,365,3.98403,268.54
49,659,4.14355,-268.819,0.015517,0.0224136,0.000485425,0.0224476,0.015483,1.50087,0.0132676,0.0296357,1273,365,4.14359,268.819
56,659,4.16602,-268.901,0.0156646,0.0218841,0.000228895,0.0218926,0.0156562,1.53406,0.0130238,0.0344094,1280,365,4.16599,268.901
63,659,4.25537,-268.943,0.0155236,0.0217332,0.000204921,0.0217399,0.0155169,1.53784,0.0129282,0.0298132,1287,365,4.25537,268.943
70,659,4.47119,-268.922,0.015599,0.0213662,0.000515722,0.021412,0.0155532,1.48231,0.0127776,0.0311955,1294,365,4.47119,268.922
77,659,4.55798,-268.818,0.0158434,0.0215536,0.000902386,0.0216928,0.0157042,1.41773,0.0129363,0.0283064,1301,365,4.55803,268.818
84,659,4.66602,-268.742,0.0156141,0.0227108,0.00122129,0.0229151,0.0154098,1.40505,0.0134899,0.0184036,1308,365,4.66597,268.742
91,659,4.77527,-268.575,0.015154,0.0241761,0.00142104,0.0243946,0.0149355,1.41821,0.0142021,0.0165338,1315,365,4.77525,268.575
98,659,4.8136,-268.2,0.0149316,0.0255833,0.00173356,0.0258583,0.0146566,1.41345,0.0149736,0.0151284,1322,365,4.81361,268.2
105,659,4.96863,-267.709,0.014797,0.0271272,0.00208246,0.0274694,0.0144548,1.40792,0.0158668,0.0187143,1329,365,4.96868,267.709
112,659,5.11255,-267.254,0.0146412,0.0288808,0.00243036,0.0292841,0.0142378,1.40632,0.0169094,0.0219213,1336,365,5.11261,267.254
119,659,5.19202,-266.712,0.0143728,0.0302875,0.00254862,0.0306856,0.0139746,1.41582,0.0177398,0.0288487,1343,365,5.19199,266.712
126,659,5.27393,-265.944,0.0138356,0.0319375,0.00251278,0.0322798,0.0134933,1.43539,0.0187201,0.032655,1350,365,5.27389,265.944
133,659,5.44165,-265.19,0.0132291,0.0334031,0.00264403,0.0337438,0.0128883,1.44262,0.0196622,0.0322291,1357,365,5.44161,265.19
140,659,5.46082,-264.755,0.0124293,0.034405,0.00275919,0.0347461,0.0120882,1.44778,0.0203677,0.0325023,1364,365,5.4608,264.755
147,659,5.52734,-264.116,0.0112915,0.0348129,0.00262499,0.0351023,0.0110021,1.461,0.0207313,0.0336873,1371,365,5.52736,264.116
154,659,5.57117,-263.225,0.0102072,0.0354789,0.00253991,0.0357317,0.0099545,1.47161,0.0212932,0.0373136,1378,365,5.57119,263.225
161,659,5.52234,-262.159,0.00917491,0.036838,0.00261673,0.0370833,0.00892956,1.47731,0.0223485,0.0392479,1385,365,5.52229,262.159
168,659,5.4928,-260.938,0,0,0,0,0,0,0,-1,1392,365,5.49281,260.938
175,659,5.69812,-259.676,0,0,0,0,0,0,0,-1,1399,365,5.69812,259.676
182,659,5.61633,-258.58,0,0,0,0,0,0,0,-1,1406,365,5.61631,258.58
189,659,5.07507,-133.501,0,0,0,0,0,0,0,-1,1413,365,5.07502,133.501
196,659,2.41248,-13.4371,0,0,0,0,0,0,0,-1,1420,365,2.41243,13.4371
203,659,2.38623,-12.2163,0,0,0,0,0,0,0,-1,1427,365,2.38617,12.2163
210,659,2.20789,-13.9792,0,0,0,0,0,0,0,-1,1434,365,2.20794,13.9792
217,659,2.24121,-13.487,0,0,0,0,0,0,0,-1,1441,365,2.24116,13.487
224,659,2.3479,-15.2926,0,0,0,0,0,0,0,-1,1448,365,2.34793,15.2926
231,659,2.47974,-17.8629,0,0,0,0,0,0,0,-1,1455,365,2.47976,17.8628
238,659,3.57886,-21.1258,0,0,0,0,0,0,0,-1,1462,365,3.57889,21.1258
245,659,3.29883,-25.0283,0,0,0,0,0,0,0,-1,1469,365,3.29889,25.0283
252,659,2.81909,-24.1604,0,0,0,0,0,0,0,-1,1476,365,2.81905,24.1604
259,659,2.33069,-3.36703,0,0,0,0,0,0,0,-1,1483,365,2.33073,3.36702
266,659,3.40918,-35.2544,0,0,0,0,0,0,0,-1,1490,365,3.40913,35.2544
273,659,4.45557,-42.3683,0,0,0,0,0,0,0,-1,1497,365,4.45554,42.3683
280,659,4.87903,-41.4995,0,0,0,0,0,0,0,-1,1504,365,4.87898,41.4995
287,659,1.09851,-23.7787,0,0,0,0,0,0,0,-1,1511,365,1.09847,23.7787
294,659,0.115601,-24.0352,0,0,0,0,0,0,0,-1,1518,365,0.115612,24.0352
301,659,-1.21362,-22.6162,0,0,0,0,0,0,0,-1,1525,365,-1.21358,22.6162
308,659,-2.32605,-21.2737,0,0,0,0,0,0,0,-1,1532,365,-2.32606,21.2737
315,659,-3.69629,-19.8803,0,0,0,0,0,0,0,-1,1539,365,-3.69631,19.8803
322,659,-4.9646,-18.5258,0,0,0,0,0,0,0,-1,1546,365,-4.96464,18.5257
329,659,-7.67749,-23.0449,0,0,0,0,0,0,0,-1,1553,365,-7.67745,23.0449
336,659,-7.71436,-22.4188,0,0,0,0,0,0,0,-1,1560,365,-7.71432,22.4188
343,659,0,0,0,0,0,0,0,0,0,-1,1567,365,0,0
350,659,0,0,0,0,0,0,0,0,0,-1,1574,365,0,0
357,659,0,0,0,0,0,0,0,0,0,-1,1581,365,0,0
364,659,0,0,0,0,0,0,0,0,0,-1,1588,365,0,0
371,659,0,0,0,0,0,0,0,0,0,-1,1595,365,0,0
378,659,0,0,0,0,0,0,0,0,0,-1,1602,365,0,0
385,659,0,0,0,0,0,0,0,0,0,-1,1609,365,0,0
392,659,0,0,0,0,0,0,0,0,0,-1,1616,365,0,0
399,659,0,0,0,0,0,0,0,0,0,-1,1623,365,0,0
406,659,0,0,0,0,0,0,0,0,0,-1,1630,365,0,0
413,659,0,0,0,0,0,0,0,0,0,-1,1637,365,0,0
420,659,0,0,0,0,0,0,0,0,0,-1,1644,365,0,0
427,659,0,0,0,0,0,0,0,0,0,-1,1651,365,0,0
434,659,0,0,0,0,0,0,0,0,0,-1,1658,365,0,0
441,659,0,0,0,0,0,0,0,0,0,-1,1665,365,0,0
448,659,0,0,0,0,0,0,0,0,0,-1,1672,365,0,0
455,659,0,0,0,0,0,0,0,0,0,-1,1679,365,0,0
462,659,0,0,0,0,0,0,0,0,0,-1,1686,365,0,0
469,659,0,0,0,0,0,0,0,0,0,-1,1693,365,0,0
476,659,0,0,0,0,0,0,0,0,0,-1,1700,365,0,0
483,659,0,0,0,0,0,0,0,0,0,-1,1707,365,0,0
490,659,0,0,0,0,0,0,0,0,0,-1,1714,365,0,0
497,659,0,0,0,0,0,0,0,0,0,-1,1721,365,0,0
504,659,0,0,0,0,0,0,0,0,0,-1,1728,365,0,0
511,659,0,0,0,0,0,0,0,0,0,-1,1735,365,0,0
518,659,0,0,0,0,0,0,0,0,0,-1,1742,365,0,0
525,659,0,0,0,0,0,0,0,0,0,-1,1749,365,0,0
532,659,0,0,0,0,0,0,0,0,0,-1,1756,365,0,0
539,659,0,0,0,0,0,0,0,0,0,-1,1763,365,0,0
546,659,0,0,0,0,0,0,0,0,0,-1,1770,365,0,0
553,659,0,0,0,0,0,0,0,0,0,-1,1777,365,0,0
560,659,0,0,0,0,0,0,0,0,0,-1,1784,365,0,0
567,659,0,0,0,0,0,0,0,0,0,-1,1791,365,0,0
574,659,0,0,0,0,0,0,0,0,0,-1,1798,365,0,0
581,659,0,0,0,0,0,0,0,0,0,-1,1805,365,0,0
588,659,0,0,0,0,0,0,0,0,0,-1,1812,365,0,0
595,659,0,0,0,0,0,0,0,0,0,-1,1819,365,0,0
602,659,0,0,0,0,0,0,0,0,0,-1,1826,365,0,0
609,659,0,0,0,0,0,0,0,0,0,-1,1833,365,0,0
616,659,0,0,0,0,0,0,0,0,0,-1,1840,365,0,0
623,659,0,0,0,0,0,0,0,0,0,-1,1847,365,0,0
630,659,0,0,0,0,0,0,0,0,0,-1,1854,365,0,0
637,659,0,0,0,0,0,0,0,0,0,-1,1861,365,0,0
644,659,0,0,0,0,0,0,0,0,0,-1,1868,365,0,0
651,659,0,0,0,0,0,0,0,0,0,-1,1875,365,0,0
658,659,0,0,0,0,0,0,0,0,0,-1,1882,365,0,0
665,659,0,0,0,0,0,0,0,0,0,-1,1889,365,0,0
672,659,0,0,0,0,0,0,0,0,0,-1,1896,365,0,0
679,659,0,0,0,0,0,0,0,0,0,-1,1903,365,0,0
686,659,0,0,0,0,0,0,0,0,0,-1,1910,365,0,0
693,659,0,0,0,0,0,0,0,0,0,-1,1917,365,0,0
700,659,0,0,0,0,0,0,0,0,0,-1,1924,365,0,0
707,659,0,0,0,0,0,0,0,0,0,-1,1931,365,0,0
714,659,0,0,0,0,0,0,0,0,0,-1,1938,365,0,0
721,659,0,0,0,0,0,0,0,0,0,-1,1945,365,0,0
728,659,0,0,0,0,0,0,0,0,0,-1,1952,365,0,0
735,659,0,0,0,0,0,0,0,0,0,-1,1959,365,0,0
742,659,0,0,0,0,0,0,0,0,0,-1,1966,365,0,0
749,659,0,0,0,0,0,0,0,0,0,-1,1973,365,0,0
756,659,0,0,0,0,0,0,0,0,0,-1,1980,365,0,0
763,659,0,0,0,0,0,0,0,0,0,-1,1987,365,0,0
770,659,0,0,0,0,0,0,0,0,0,-1,1994,365,0,0
777,659,0,0,0,0,0,0,0,0,0,-1,2001,365,0,0
784,659,0,0,0,0,0,0,0,0,0,-1,2008,365,0,0
791,659,0,0,0,0,0,0,0,0,0,-1,2015,365,0,0
798,659,0,0,0,0,0,0,0,0,0,-1,2022,365,0,0
805,659,0,0,0,0,0,0,0,0,0,-1,2029,365,0,0
812,659,0,0,0,0,0,0,0,0,0,-1,2036,365,0,0
-700,652,0,0,0,0,0,0,0,0,0,-1,524,372,0,0
-693,652,0,0,0,0,0,0,0,0,0,-1,531,372,0,0
-686,652,0,0,0,0,0,0,0,0,0,-1,538,372,0,0
-679,652,0,0,0,0,0,0,0,0,0,-1,545,372,0,0
-672,652,0,0,0,0,0,0,0,0,0,-1,552,372,0,0
-665,652,0,0,0,0,0,0,0,0,0,-1,559,372,0,0
-658,652,0,0,0,0,0,0,0,0,0,-1,566,372,0,0
-651,652,0,0,0,0,0,0,0,0,0,-1,573,372,0,0
-644,652,0,0,0,0,0,0,0,0,0,-1,580,372,0,0
-637,652,0,0,0,0,0,0,0,0,0,-1,587,372,0,0
-630,652,0,0,0,0,0,0,0,0,0,-1,594,372,0,0
-623,652,0,0,0,0,0,0,0,0,0,-1,601,372,0,0
-616,652,0,0,0,0,0,0,0,0,0,-1,608,372,0,0
-609,652,0,0,0,0,0,0,0,0,0,-1,615,372,0,0
-602,652,0,0,0,0,0,0,0,0,0,-1,622,372,0,0
-595,652,0,0,0,0,0,0,0,0,0,-1,629,372,0,0
-588,652,0,0,0,0,0,0,0,0,0,-1,636,372,0,0
-581,652,0,0,0,0,0,0,0,0,0,-1,643,372,0,0
-574,652,0,0,0,0,0,0,0,0,0,-1,650,372,0,0
-567,652,0,0,0,0,0,0,0,0,0,-1,657,372,0,0
-560,652,0,0,0,0,0,0,0,0,0,-1,664,372,0,0
-553,652,0,0,0,0,0,0,0,0,0,-1,671,372,0,0
-546,652,0,0,0,0,0,0,0,0,0,-1,678,372,0,0
-539,652,0,0,0,0,0,0,0,0,0,-1,685,372,0,0
-532,652,0,0,0,0,0,0,0,0,0,-1,692,372,0,0
-525,652,0,0,0,0,0,0,0,0,0,-1,699,372,0,0
-518,652,0,0,0,0,0,0,0,0,0,-1,706,372,0,0
-511,652,0,0,0,0,0,0,0,0,0,-1,713,372,0,0
-504,652,0,0,0,0,0,0,0,0,0,-1,720,372,0,0
-497,652,0,0,0,0,0,0,0,0,0,-1,727,372,0,0
-490,652,0,0,0,0,0,0,0,0,0,-1,734,372,0,0
-483,652,0,0,0,0,0,0,0,0,0,-1,741,372,0,0
-476,652,0,0,0,0,0,0,0,0,0,-1,748,372,0,0
-469,652,0,0,0,0,0,0,0,0,0,-1,755,372,0,0
-462,652,0,0,0,0,0,0,0,0,0,-1,762,372,0,0
-455,652,0,0,0,0,0,0,0,0,0,-1,769,372,0,0
-448,652,0,0,0,0,0,0,0,0,0,-1,776,372,0,0
-441,652,0,0,0,0,0,0,0,0,0,-1,783,372,0,0
-434,652,0,0,0,0,0,0,0,0,0,-1,790,372,0,0
-427,652,0,0,0,0,0,0,0,0,0,-1,797,372,0,0
-420,652,0,0,0,0,0,0,0,0,0,-1,804,372,0,0
-413,652,0,0,0,0,0,0,0,0,0,-1,811,372,0,0
-406,652,0,0,0,0,0,0,0,0,0,-1,818,372,0,0
-399,652,0,0,0,0,0,0,0,0,0,-1,825,372,0,0
-392,652,0,0,0,0,0,0,0,0,0,-1,832,372,0,0
-385,652,0,0,0,0,0,0,0,0,0,-1,839,372,0,0
-378,652,0,0,0,0,0,0,0,0,0,-1,846,372,0,0
-371,652,0,0,0,0,0,0,0,0,0,-1,853,372,0,0
-364,652,0,0,0,0,0,0,0,0,0,-1,860,372,0,0
-357,652,0,0,0,0,0,0,0,0,0,-1,867,372,0,0
-350,652,0,0,0,0,0,0,0,0,0,-1,874,372,0,0
-343,652,0,0,0,0,0,0,0,0,0,-1,881,372,0,0
-336,652,0,0,0,0,0,0,0,0,0,-1,888,372,0,0
-329,652,0,0,0,0,0,0,0,0,0,-1,895,372,0,0
-322,652,0,0,0,0,0,0,0,0,0,-1,902,372,0,0
-315,652,0,0,0,0,0,0,0,0,0,-1,909,372,0,0
-308,652,0,0,0,0,0,0,0,0,0,-1,916,372,0,0
-301,652,0,0,0,0,0,0,0,0,0,-1,923,372,0,0
-294,652,0,0,0,0,0,0,0,0,0,-1,930,372,0,0
-287,652,0,0,0,0,0,0,0,0,0,-1,937,372,0,0
-280,652,0,0,0,0,0,0,0,0,0,-1,944,372,0,0
-273,652,0,0,0,0,0,0,0,0,0,-1,951,372,0,0
-266,652,0,0,0,0,0,0,0,0,0,-1,958,372,0,0
-259,652,0,0,0,0,0,0,0,0,0,-1,965,372,0,0
-252,652,0,0,0,0,0,0,0,0,0,-1,972,372,0,0
-245,652,0,0,0,0,0,0,0,0,0,-1,979,372,0,0
-238,652,0,0,0,0,0,0,0,0,0,-1,986,372,0,0
-231,652,8.79358,-27.1656,0,0,0,0,0,0,0,-1,993,372,8.79357,27.1656
-224,652,8.84552,-27.675,0,0,0,0,0,0,0,-1,1000,372,8.84555,27.675
-217,652,9.03113,-27.7474,0,0,0,0,0,0,0,-1,1007,372,9.0311,27.7474
-210,652,9.72803,-30.4624,0,0,0,0,0,0,0,-1,1014,372,9.72805,30.4624
-203,652,7.2677,-26.0732,0,0,0,0,0,0,0,-1,1021,372,7.26775,26.0732
-196,652,5.90686,-26.957,0,0,0,0,0,0,0,-1,1028,372,5.9068,26.957
-189,652,6.21326,-28.3035,0,0,0,0,0,0,0,-1,1035,372,6.21331,28.3035
-182,652,6.45068,-29.9377,0,0,0,0,0,0,0,-1,1042,372,6.45074,29.9377
-175,652,6.72559,-31.6948,0,0,0,0,0,0,0,-1,1049,372,6.72563,31.6948
-168,652,7.08533,-32.8669,0,0,0,0,0,0,0,-1,1056,372,7.08532,32.8669
-161,652,7.85291,-37.3545,0,0,0,0,0,0,0,-1,1063,372,7.85294,37.3545
-154,652,7.54639,-37.9586,0,0,0,0,0,0,0,-1,1070,372,7.54642,37.9586
-147,652,7.85571,-42.3712,0,0,0,0,0,0,0,-1,1077,372,7.8557,42.3712
-140,652,5.6842,-33.9781,0,0,0,0,0,0,0,-1,1084,372,5.68421,33.9781
-133,652,6.3009,-35.2887,0,0,0,0,0,0,0,-1,1091,372,6.30093,35.2887
-126,652,5.86841,-37.0981,0,0,0,0,0,0,0,-1,1098,372,5.86845,37.0981
-119,652,8.18018,-49.52,0,0,0,0,0,0,0,-1,1105,372,8.18015,49.52
-112,652,7.81982,-48.4793,0,0,0,0,0,0,0,-1,1112,372,7.81981,48.4793
-105,652,6.63855,-39.9965,0,0,0,0,0,0,0,-1,1119,372,6.63852,39.9965
-98,652,5.84302,-35.2455,0,0,0,0,0,0,0,-1,1126,372,5.84307,35.2455
-91,652,5.66296,-32.9003,0,0,0,0,0,0,0,-1,1133,372,5.66297,32.9003
-84,652,5.46057,-34.9186,0,0,0,0,0,0,0,-1,1140,372,5.46057,34.9186
-77,652,2.57556,-254.821,0,0,0,0,0,0,0,-1,1147,372,2.57552,254.821
-70,652,2.51904,-256.399,0,0,0,0,0,0,0,-1,1154,372,2.51907,256.399
-63,652,2.49426,-257.745,0,0,0,0,0,0,0,-1,1161,372,2.49427,257.745
-56,652,2.29651,-259.104,0,0,0,0,0,0,0,-1,1168,372,2.29648,259.104
-49,652,2.28577,-260.362,0.0111577,0.0145434,0.00398371,0.017179,0.0085221,0.986305,0.0099184,0.0404252,1175,372,2.28582,260.362
-42,652,2.33374,-261.275,0.0128716,0.0142996,0.00402889,0.0176773,0.00949396,0.873096,0.0102153,0.0220945,1182,372,2.33375,261.275
-35,652,2.4292,-262.222,0.0144776,0.0146414,0.00402833,0.0185886,0.0105303,0.795564,0.0107637,0.0131531,1189,372,2.42921,262.222
-28,652,2.43689,-263.195,0.0155322,0.0152962,0.00392447,0.0193404,0.0114879,0.770368,0.0112318,0.0113216,1196,372,2.43691,263.195
-21,652,2.43152,-264.179,0.0164551,0.0157262,0.00375838,0.0198666,0.0123146,0.737066,0.0115793,0.016458,1203,372,2.43152,264.179
-14,652,2.57336,-264.885,0.0175257,0.0163408,0.00366239,0.0206433,0.0132233,0.705211,0.0120744,0.0211804,1210,372,2.57335,264.885
-7,652,2.66333,-265.648,0.0187654,0.0168115,0.00367101,0.0215872,0.0139897,0.65535,0.0126442,0.0266824,1217,372,2.66335,265.648
0,652,2.65503,-266.311,0.0200511,0.0169964,0.00368403,0.0225118,0.0145357,0.588891,0.0131798,0.0269911,1224,372,2.65499,266.311
7,652,2.84473,-266.762,0.0211521,0.0173618,0.00340911,0.0231574,0.0153565,0.531719,0.0136051,0.0246408,1231,372,2.84472,266.762
14,652,3.12781,-267.333,0.022223,0.0174893,0.00309242,0.0237504,0.0159619,0.458766,0.0139803,0.0158838,1238,372,3.12786,267.333
21,652,3.1626,-267.792,0.0232277,0.0173084,0.00295674,0.0244516,0.0160846,0.392454,0.0143496,0.0145062,1245,372,3.16259,267.792
28,652,3.24146,-268.181,0.0242345,0.0167265,0.00270395,0.0251069,0.0158541,0.312106,0.0146615,0.0156184,1252,372,3.2414,268.181
35,652,3.47681,-268.467,0.0251783,0.0161675,0.00214846,0.0256644,0.0156815,0.222483,0.0149386,0.0164027,1259,372,3.4768,268.467
42,652,3.7019,-268.695,0.0260392,0.0155627,0.00154514,0.0262624,0.0153395,0.143419,0.0152339,0.0163404,1266,372,3.70196,268.695
49,652,3.95471,-268.898,0.0266472,0.0146376,0.00103024,0.026735,0.0145499,0.084958,0.0154556,0.0195657,1273,372,3.95477,268.898
56,652,4.07715,-269.009,0.0268858,0.0141358,0.000589927,0.026913,0.0141086,0.0461376,0.0155443,0.0226968,1280,372,4.07711,269.009
63,652,4.14172,-269.12,0.0269344,0.0139149,0.000318004,0.0269422,0.0139071,0.0244057,0.0155578,0.0273873,1287,372,4.14174,269.12
70,652,4.46936,-269.001,0.0270667,0.0135696,0.000304533,0.0270736,0.0135627,0.0225475,0.015631,0.0233387,1294,372,4.4694,269.001
77,652,4.68701,-268.928,0.0273101,0.0136976,0.000403518,0.0273221,0.0136856,0.0296084,0.0157744,0.0213479,1301,372,4.68701,268.928
84,652,4.83582,-268.866,0.0271926,0.0145867,0.000415391,0.0272063,0.014573,0.0329045,0.0157208,0.0168562,1308,372,4.83578,268.866
91,652,5.00085,-268.767,0.0267765,0.0157339,0.000351301,0.0267877,0.0157227,0.0317703,0.0155436,0.0205411,1315,372,5.00088,268.767
98,652,5.22351,-268.411,0.0265318,0.0168784,0.000432659,0.0265511,0.0168591,0.0447001,0.0155143,0.0180459,1322,372,5.22346,268.411
105,652,5.3811,-267.953,0.0264382,0.0181923,0.000518481,0.0264707,0.0181599,0.0625494,0.0156315,0.0180477,1329,372,5.38108,267.953
112,652,5.54077,-267.469,0.0263299,0.0196893,0.000602963,0.0263842,0.019635,0.0898207,0.0158269,0.0157546,1336,372,5.54078,267.469
119,652,5.70789,-266.929,0.0260287,0.0209458,0.000545328,0.0260866,0.020888,0.105684,0.0159432,0.0220527,1343,372,5.70788,266.929
126,652,5.8689,-266.239,0.0253745,0.0223937,0.000375532,0.0254211,0.0223471,0.123414,0.0160213,0.0293958,1350,372,5.86894,266.239
133,652,6.05188,-265.542,0.0246012,0.0237179,0.000397764,0.0247539,0.0235651,0.366564,0.016121,0.0243644,1357,372,6.05193,265.542
140,652,6.15564,-264.928,0.0236976,0.0246885,0.000432056,0.0248505,0.0235357,1.21224,0.0161466,0.0145013,1364,372,6.15563,264.928
147,652,6.32837,-264.209,0.022489,0.0252262,0.000224669,0.0252445,0.0224707,1.48944,0.0159855,0.013746,1371,372,6.32831,264.209
154,652,6.44971,-263.356,0.0212629,0.0259307,3.15264e-05,0.0259309,0.0212627,1.56404,0.0159604,0.0141468,1378,372,6.44967,263.356
161,652,6.54395,-262.406,0.0200724,0.0272599,7.44825e-06,0.0272599,0.0200724,1.56976,0.016314,0.02155,1385,372,6.544,262.406
168,652,6.65674,-261.345,0.0184744,0.0281877,-0.000243039,0.0281938,0.0184683,-1.5458,0.0165365,0.025789,1392,372,6.65678,261.345
175,652,6.71094,-260.171,0.0167626,0.0292869,-0.000403822,0.0292999,0.0167496,-1.5386,0.0169741,0.0261007,1399,372,6.71091,260.171
182,652,6.67712,-259.038,0.0157941,0.0304132,-0.000296707,0.0304193,0.0157881,-1.55051,0.0175668,0.0368768,1406,372,6.67709,259.038
189,652,6.63538,-257.982,0,0,0,0,0,0,0,-1,1413,372,6.63535,257.982
196,652,6.54968,-256.758,0,0,0,0,0,0,0,-1,1420,372,6.54972,256.758
203,652,6.46423,-255.25,0,0,0,0,0,0,0,-1,1427,372,6.46418,255.25
210,652,6.6676,-253.379,0,0,0,0,0,0,0,-1,1434,372,6.66761,253.379
217,652,6.06433,-252.151,0,0,0,0,0,0,0,-1,1441,372,6.06429,252.151
224,652,3.63794,-31.2791,0,0,0,0,0,0,0,-1,1448,372,3.63799,31.2791
231,652,3.83936,-30.4812,0,0,0,0,0,0,0,-1,1455,372,3.8393,30.4812
238,652,4.42358,-36.4103,0,0,0,0,0,0,0,-1,1462,372,4.4236,36.4103
245,652,4.53296,-41.8512,0,0,0,0,0,0,0,-1,1469,372,4.5329,41.8512
252,652,5.00793,-47.7065,0,0,0,0,0,0,0,-1,1476,372,5.00791,47.7064
259,652,3.44922,-31.2655,0,0,0,0,0,0,0,-1,1483,372,3.44921,31.2655
266,652,5.5387,-50.3915,0,0,0,0,0,0,0,-1,1490,372,5.53875,50.3915
273,652,5.76855,-57.8665,0,0,0,0,0,0,0,-1,1497,372,5.76858,57.8665
280,652,4.05066,-24.6993,0,0,0,0,0,0,0,-1,1504,372,4.05066,24.6993
287,652,3.0979,-23.6951,0,0,0,0,0,0,0,-1,1511,372,3.09796,23.6951
294,652,2.06946,-24.1711,0,0,0,0,0,0,0,-1,1518,372,2.0694,24.1711
301,652,1.78735,-24.3724,0,0,0,0,0,0,0,-1,1525,372,1.78732,24.3724
308,652,-0.706299,-22.1083,0,0,0,0,0,0,0,-1,1532,372,-0.706291,22.1083
315,652,-1.65198,-21.8662,0,0,0,0,0,0,0,-1,1539,372,-1.65204,21.8662
322,652,-2.66101,-21.728,0,0,0,0,0,0,0,-1,1546,372,-2.66097,21.728
329,652,-7.12329,-21.7065,0,0,0,0,0,0,0,-1,1553,372,-7.12334,21.7065
336,652,-3.56519,-22.3688,0,0,0,0,0,0,0,-1,1560,372,-3.56517,22.3688
343,652,-3.58069,-21.9185,0,0,0,0,0,0,0,-1,1567,372,-3.58069,21.9185
350,652,5.28394,-25.6715,0,0,0,0,0,0,0,-1,1574,372,5.28393,25.6715
357,652,0,0,0,0,0,0,0,0,0,-1,1581,372,0,0
364,652,0,0,0,0,0,0,0,0,0,-1,1588,372,0,0
371,652,0,0,0,0,0,0,0,0,0,-1,1595,372,0,0
378,652,0,0,0,0,0,0,0,0,0,-1,1602,372,0,0
385,652,0,0,0,0,0,0,0,0,0,-1,1609,372,0,0
392,652,0,0,0,0,0,0,0,0,0,-1,1616,372,0,0
399,652,0,0,0,0,0,0,0,0,0,-1,1623,372,0,0
406,652,0,0,0,0,0,0,0,0,0,-1,1630,372,0,0
413,652,0,0,0,0,0,0,0,0,0,-1,1637,372,0,0
420,652,0,0,0,0,0,0,0,0,0,-1,1644,372,0,0
427,652,0,0,0,0,0,0,0,0,0,-1,1651,372,0,0
434,652,0,0,0,0,0,0,0,0,0,-1,1658,372,0,0
441,652,0,0,0,0,0,0,0,0,0,-1,1665,372,0,0
448,652,0,0,0,0,0,0,0,0,0,-1,1672,372,0,0
455,652,0,0,0,0,0,0,0,0,0,-1,1679,372,0,0
462,652,0,0,0,0,0,0,0,0,0,-1,1686,372,0,0
469,652,0,0,0,0,0,0,0,0,0,-1,1693,372,0,0
476,652,0,0,0,0,0,0,0,0,0,-1,1700,372,0,0
483,652,0,0,0,0,0,0,0,0,0,-1,1707,372,0,0
490,652,0,0,0,0,0,0,0,0,0,-1,1714,372,0,0
497,652,0,0,0,0,0,0,0,0,0,-1,1721,372,0,0
504,652,0,0,0,0,0,0,0,0,0,-1,1728,372,0,0
511,652,0,0,0,0,0,0,0,0,0,-1,1735,372,0,0
518,652,0,0,0,0,0,0,0,0,0,-1,1742,372,0,0
525,652,0,0,0,0,0,0,0,0,0,-1,1749,372,0,0
532,652,0,0,0,0,0,0,0,0,0,-1,1756,372,0,0
539,652,0,0,0,0,0,0,0,0,0,-1,1763,372,0,0
546,652,0,0,0,0,0,0,0,0,0,-1,1770,372,0,0
553,652,0,0,0,0,0,0,0,0,0,-1,1777,372,0,0
560,652,0,0,0,0,0,0,0,0,0,-1,1784,372,0,0
567,652,0,0,0,0,0,0,0,0,0,-1,1791,372,0,0
574,652,0,0,0,0,0,0,0,0,0,-1,1798,372,0,0
581,652,0,0,0,0,0,0,0,0,0,-1,1805,372,0,0
588,652,0,0,0,0,0,0,0,0,0,-1,1812,372,0,0
595,652,0,0,0,0,0,0,0,0,0,-1,1819,372,0,0
602,652,0,0,0,0,0,0,0,0,0,-1,1826,372,0,0
609,652,0,0,0,0,0,0,0,0,0,-1,1833,372,0,0
616,652,0,0,0,0,0,0,0,0,0,-1,1840,372,0,0
623,652,0,0,0,0,0,0,0,0,0,-1,1847,372,0,0
630,652,0,0,0,0,0,0,0,0,0,-1,1854,372,0,0
637,652,0,0,0,0,0,0,0,0,0,-1,1861,372,0,0
644,652,0,0,0,0,0,0,0,0,0,-1,1868,372,0,0
651,652,0,0,0,0,0,0,0,0,0,-1,1875,372,0,0
658,652,0,0,0,0,0,0,0,0,0,-1,1882,372,0,0
665,652,0,0,0,0,0,0,0,0,0,-1,1889,372,0,0
672,652,0,0,0,0,0,0,0,0,0,-1,1896,372,0,0
679,652,0,0,0,0,0,0,0,0,0,-1,1903,372,0,0
686,652,0,0,0,0,0,0,0,0,0,-1,1910,372,0,0
693,652,0,0,0,0,0,0,0,0,0,-1,1917,372,0,0
700,652,0,0,0,0,0,0,0,0,0,-1,1924,372,0,0
707,652,0,0,0,0,0,0,0,0,0,-1,1931,372,0,0
714,652,0,0,0,0,0,0,0,0,0,-1,1938,372,0,0
721,652,0,0,0,0,0,0,0,0,0,-1,1945,372,0,0
728,652,0,0,0,0,0,0,0,0,0,-1,1952,372,0,0
735,652,0,0,0,0,0,0,0,0,0,-1,1959,372,0,0
742,652,0,0,0,0,0,0,0,0,0,-1,1966,372,0,0
749,652,0,0,0,0,0,0,0,0,0,-1,1973,372,0,0
756,652,0,0,0,0,0,0,0,0,0,-1,1980,372,0,0
763,652,0,0,0,0,0,0,0,0,0,-1,1987,372,0,0
770,652,0,0,0,0,0,0,0,0,0,-1,1994,372,0,0
777,652,0,0,0,0,0,0,0,0,0,-1,2001,372,0,0
784,652,0,0,0,0,0,0,0,0,0,-1,2008,372,0,0
791,652,0,0,0,0,0,0,0,0,0,-1,2015,372,0,0
798,652,0,0,0,0,0,0,0,0,0,-1,2022,372,0,0
805,652,0,0,0,0,0,0,0,0,0,-1,2029,372,0,0
812,652,0,0,0,0,0,0,0,0,0,-1,2036,372,0,0
-700,645,0,0,0,0,0,0,0,0,0,-1,524,379,0,0
-693,645,0,0,0,0,0,0,0,0,0,-1,531,379,0,0
-686,645,0,0,0,0,0,0,0,0,0,-1,538,379,0,0
-679,645,0,0,0,0,0,0,0,0,0,-1,545,379,0,0
-672,645,0,0,0,0,0,0,0,0,0,-1,552,379,0,0
-665,645,0,0,0,0,0,0,0,0,0,-1,559,379,0,0
-658,645,0,0,0,0,0,0,0,0,0,-1,566,379,0,0
-651,645,0,0,0,0,0,0,0,0,0,-1,573,379,0,0
-644,645,0,0,0,0,0,0,0,0,0,-1,580,379,0,0
-637,645,0,0,0,0,0,0,0,0,0,-1,587,379,0,0
-630,645,0,0,0,0,0,0,0,0,0,-1,594,379,0,0
-623,645,0,0,0,0,0,0,0,0,0,-1,601,379,0,0
-616,645,0,0,0,0,0,0,0,0,0,-1,608,379,0,0
-609,645,0,0,0,0,0,0,0,0,0,-1,615,379,0,0
-602,645,0,0,0,0,0,0,0,0,0,-1,622,379,0,0
-595,645,0,0,0,0,0,0,0,0,0,-1,629,379,0,0
-588,645,0,0,0,0,0,0,0,0,0,-1,636,379,0,0
-581,645,0,0,0,0,0,0,0,0,0,-1,643,379,0,0
-574,645,0,0,0,0,0,0,0,0,0,-1,650,379,0,0
-567,645,0,0,0,0,0,0,0,0,0,-1,657,379,0,0
-560,645,0,0,0,0,0,0,0,0,0,-1,664,379,0,0
-553,645,0,0,0,0,0,0,0,0,0,-1,671,379,0,0
-546,645,0,0,0,0,0,0,0,0,0,-1,678,379,0,0
-539,645,0,0,0,0,0,0,0,0,0,-1,685,379,0,0
-532,645,0,0,0,0,0,0,0,0,0,-1,692,379,0,0
-525,645,0,0,0,0,0,0,0,0,0,-1,699,379,0,0
-518,645,0,0,0,0,0,0,0,0,0,-1,706,379,0,0
-511,645,0,0,0,0,0,0,0,0,0,-1,713,379,0,0
-504,645,0,0,0,0,0,0,0,0,0,-1,720,379,0,0
-497,645,0,0,0,0,0,0,0,0,0,-1,727,379,0,0
-490,645,0,0,0,0,0,0,0,0,0,-1,734,379,0,0
-483,645,0,0,0,0,0,0,0,0,0,-1,741,379,0,0
-476,645,0,0,0,0,0,0,0,0,0,-1,748,379,0,0
-469,645,0,0,0,0,0,0,0,0,0,-1,755,379,0,0
-462,645,0,0,0,0,0,0,0,0,0,-1,762,379,0,0
-455,645,0,0,0,0,0,0,0,0,0,-1,769,379,0,0
-448,645,0,0,0,0,0,0,0,0,0,-1,776,379,0,0
-441,645,0,0,0,0,0,0,0,0,0,-1,783,379,0,0
-434,645,0,0,0,0,0,0,0,0,0,-1,790,379,0,0
-427,645,0,0,0,0,0,0,0,0,0,-1,797,379,0,0
-420,645,0,0,0,0,0,0,0,0,0,-1,804,379,0,0
-413,645,0,0,0,0,0,0,0,0,0,-1,811,379,0,0
-406,645,0,0,0,0,0,0,0,0,0,-1,818,379,0,0
-399,645,0,0,0,0,0,0,0,0,0,-1,825,379,0,0
-392,645,0,0,0,0,0,0,0,0,0,-1,832,379,0,0
-385,645,0,0,0,0,0,0,0,0,0,-1,839,379,0,0
-378,645,0,0,0,0,0,0,0,0,0,-1,846,379,0,0
-371,645,0,0,0,0,0,0,0,0,0,-1,853,379,0,0
-364,645,0,0,0,0,0,0,0,0,0,-1,860,379,0,0
-357,645,0,0,0,0,0,0,0,0,0,-1,867,379,0,0
-350,645,0,0,0,0,0,0,0,0,0,-1,874,379,0,0
-343,645,0,0,0,0,0,0,0,0,0,-1,881,379,0,0
-336,645,0,0,0,0,0,0,0,0,0,-1,888,379,0,0
-329,645,0,0,0,0,0,0,0,0,0,-1,895,379,0,0
-322,645,0,0,0,0,0,0,0,0,0,-1,902,379,0,0
-315,645,0,0,0,0,0,0,0,0,0,-1,909,379,0,0
-308,645,0,0,0,0,0,0,0,0,0,-1,916,379,0,0
-301,645,0,0,0,0,0,0,0,0,0,-1,923,379,0,0
-294,645,0,0,0,0,0,0,0,0,0,-1,930,379,0,0
-287,645,0,0,0,0,0,0,0,0,0,-1,937,379,0,0
-280,645,0,0,0,0,0,0,0,0,0,-1,944,379,0,0
-273,645,0,0,0,0,0,0,0,0,0,-1,951,379,0,0
-266,645,0,0,0,0,0,0,0,0,0,-1,958,379,0,0
-259,645,0,0,0,0,0,0,0,0,0,-1,965,379,0,0
-252,645,2.95691,-26.9133,0,0,0,0,0,0,0,-1,972,379,2.9569,26.9133
-245,645,2.73169,-27.0215,0,0,0,0,0,0,0,-1,979,379,2.73172,27.0215
-238,645,2.6665,-26.9464,0,0,0,0,0,0,0,-1,986,379,2.66649,26.9464
-231,645,7.26807,-29.1054,0,0,0,0,0,0,0,-1,993,379,7.26806,29.1054
-224,645,7.69073,-29.5737,0,0,0,0,0,0,0,-1,1000,379,7.69071,29.5737
-217,645,8.65485,-33.4136,0,0,0,0,0,0,0,-1,1007,379,8.65487,33.4136
-210,645,9.21594,-32.5157,0,0,0,0,0,0,0,-1,1014,379,9.21591,32.5156
-203,645,9.77698,-31.6176,0,0,0,0,0,0,0,-1,1021,379,9.77696,31.6177
-196,645,10.2664,-29.7741,0,0,0,0,0,0,0,-1,1028,379,10.2664,29.7741
-189,645,5.88062,-28.2191,0,0,0,0,0,0,0,-1,1035,379,5.88062,28.2191
-182,645,6.34167,-29.2525,0,0,0,0,0,0,0,-1,1042,379,6.3417,29.2525
-175,645,6.36462,-35.5586,0,0,0,0,0,0,0,-1,1049,379,6.3646,35.5586
-168,645,7.19116,-39.5785,0,0,0,0,0,0,0,-1,1056,379,7.19115,39.5785
-161,645,7.22083,-37.6093,0,0,0,0,0,0,0,-1,1063,379,7.22085,37.6094
-154,645,7.42102,-41.6806,0,0,0,0,0,0,0,-1,1070,379,7.42105,41.6806
-147,645,8.89526,-50.6488,0,0,0,0,0,0,0,-1,1077,379,8.89521,50.6488
-140,645,10.4504,-64.9295,0,0,0,0,0,0,0,-1,1084,379,10.4504,64.9295
-133,645,10.6296,-65.2849,0,0,0,0,0,0,0,-1,1091,379,10.6297,65.2849
-126,645,10.2167,-62.2486,0,0,0,0,0,0,0,-1,1098,379,10.2167,62.2486
-119,645,10.1696,-65.1252,0,0,0,0,0,0,0,-1,1105,379,10.1695,65.1252
-112,645,1.76868,-247.29,0,0,0,0,0,0,0,-1,1112,379,1.76871,247.29
-105,645,1.67517,-249.008,0,0,0,0,0,0,0,-1,1119,379,1.67513,249.008
-98,645,1.47327,-250.635,0,0,0,0,0,0,0,-1,1126,379,1.4733,250.635
-91,645,1.24048,-252.324,0,0,0,0,0,0,0,-1,1133,379,1.2405,252.324
-84,645,1.21753,-253.977,0,0,0,0,0,0,0,-1,1140,379,1.21751,253.977
-77,645,1.20386,-255.188,0.0130562,0.00895325,0.00358332,0.0151337,0.00687572,0.525418,0.00874961,0.0402614,1147,379,1.20382,255.188
-70,645,1.21143,-256.554,0.0151119,0.00871703,0.00445221,0.0173959,0.00643306,0.47399,0.0101564,0.0228136,1154,379,1.21146,256.554
-63,645,1.24622,-257.796,0.0172036,0.00856265,0.00498488,0.0194798,0.00628649,0.428339,0.0114799,0.021469,1161,379,1.24616,257.796
-56,645,1.23767,-258.983,0.0189019,0.00865344,0.00528111,0.0211362,0.00641916,0.400236,0.0125125,0.0249333,1168,379,1.23763,258.983
-49,645,1.1803,-260.164,0.0205563,0.00836814,0.00542231,0.0226194,0.00630507,0.363565,0.0134788,0.0213743,1175,379,1.18026,260.164
-42,645,1.20239,-261.178,0.0223966,0.00793612,0.00537197,0.0241738,0.00615889,0.319499,0.0145055,0.0202223,1182,379,1.20238,261.178
-35,645,1.39221,-262.243,0.0240953,0.00794531,0.00529404,0.025676,0.0063646,0.290154,0.0154394,0.0154337,1189,379,1.39222,262.243
-28,645,1.50305,-263.245,0.0253567,0.00821381,0.00511955,0.0267692,0.0068013,0.269208,0.0160663,0.0118615,1196,379,1.503,263.245
-21,645,1.56885,-264.166,0.0264902,0.00833056,0.00488318,0.02772,0.00710075,0.246716,0.0166265,0.0184146,1203,379,1.56885,264.166
-14,645,1.75183,-265.051,0.0277695,0.0086571,0.00469391,0.02886,0.00756653,0.228288,0.0172792,0.0153458,1210,379,1.75189,265.051
-7,645,1.87793,-265.782,0.0291494,0.00897102,0.00461915,0.0301565,0.00796389,0.214674,0.0180453,0.0220526,1217,379,1.87791,265.782
0,645,1.93408,-266.51,0,0,0,0,0,0,0,-1,1224,379,1.93404,266.51
7,645,2.34875,-266.802,0.0318081,0.00926797,0.00427247,0.0325908,0.0084853,0.18118,0.0195234,0.0314687,1231,379,2.34879,266.802
14,645,2.57922,-267.32,0.0329458,0.0093075,0.00393386,0.0335833,0.00867003,0.160652,0.0201311,0.0218632,1238,379,2.57925,267.32
21,645,2.72815,-267.864,0.0340712,0.00914349,0.00372044,0.0346146,0.00860006,0.145039,0.0208108,0.0152461,1245,379,2.72816,267.864
28,645,2.90808,-268.222,0.0352356,0.00871043,0.00338949,0.0356618,0.00828416,0.125106,0.0215506,0.01409,1252,379,2.90811,268.222
35,645,3.1886,-268.523,0.0362803,0.0083039,0.00280275,0.0365583,0.00802588,0.0988735,0.0221862,0.0137611,1259,379,3.18858,268.523
42,645,3.50391,-268.787,0.0371772,0.00781421,0.00216679,0.0373362,0.00765518,0.0732644,0.0227721,0.0142896,1266,379,3.50393,268.787
49,645,3.79529,-268.906,0.0378943,0.00716684,0.00163093,0.0379806,0.00708051,0.0528792,0.0233213,0.0194854,1273,379,3.79528,268.906
56,645,4.01526,-269.027,0.0382717,0.00672029,0.00102054,0.0383047,0.00668731,0.0323003,0.023625,0.0205394,1280,379,4.01524,269.027
63,645,4.27881,-269.195,0.038523,0.00645059,0.000505673,0.038531,0.00644262,0.0157614,0.0238319,0.0179417,1287,379,4.27882,269.195
70,645,4.55457,-269.139,0.0386989,0.0061425,0.000174286,0.0386998,0.00614157,0.00535316,0.0240159,0.0199274,1294,379,4.5546,269.139
77,645,4.83826,-269.028,0.038955,0.00622262,8.54484e-06,0.038955,0.00622262,0.000261051,0.0241644,0.0244609,1301,379,4.83827,269.028
84,645,5.04541,-268.882,0.0389831,0.00686541,-0.000258601,0.0389852,0.00686332,-0.00805096,0.0240313,0.0189151,1308,379,5.04535,268.882
91,645,5.28381,-268.736,0.0386342,0.00770523,-0.000581591,0.0386451,0.0076943,-0.0187952,0.0236202,0.0225123,1315,379,5.28384,268.736
98,645,5.54956,-268.399,0.0383743,0.00860363,-0.00073948,0.0383927,0.00858528,-0.0248188,0.0232675,0.0195872,1322,379,5.54952,268.399
105,645,5.7793,-267.988,0.0383189,0.00969403,-0.000916083,0.0383482,0.00966475,-0.0319595,0.0230301,0.0159014,1329,379,5.77934,267.988
112,645,5.98804,-267.558,0.0382563,0.0109374,-0.00109806,0.0383004,0.0108934,-0.0401079,0.0227876,0.0132698,1336,379,5.98808,267.558
119,645,6.25024,-267.02,0.0378949,0.0120239,-0.00133078,0.0379632,0.0119556,-0.0512586,0.022413,0.0146996,1343,379,6.25027,267.02
126,645,6.44116,-266.344,0.0371035,0.0132446,-0.0016217,0.0372132,0.0131349,-0.0675565,0.0217925,0.0222101,1350,379,6.44115,266.344
133,645,6.67297,-265.65,0.0361477,0.0143875,-0.00170761,0.0362809,0.0142543,-0.0778391,0.0211064,0.0218118,1357,379,6.67297,265.65
140,645,6.92859,-265.064,0.035116,0.0152906,-0.00177111,0.035273,0.0151336,-0.0884025,0.0204331,0.0174513,1364,379,6.92856,265.064
147,645,7.17285,-264.236,0.033807,0.015925,-0.00207116,0.0340438,0.0156882,-0.113816,0.0196753,0.0192137,1371,379,7.17287,264.236
154,645,7.39502,-263.322,0.0323796,0.0166296,-0.00238145,0.0327318,0.0162774,-0.146831,0.0188978,0.0165136,1378,379,7.39498,263.322
161,645,7.51282,-262.436,0.0309052,0.018006,-0.00245202,0.0313556,0.0175556,-0.181653,0.0181464,0.0214219,1385,379,7.51281,262.436
168,645,7.67798,-261.483,0.0291203,0.0190281,-0.00269642,0.0297955,0.0183528,-0.245377,0.017356,0.0270752,1392,379,7.678,261.483
175,645,7.79187,-260.448,0.027321,0.0201631,-0.00293386,0.0283699,0.0191142,-0.343333,0.0167058,0.0254367,1399,379,7.79192,260.448
182,645,7.79956,-259.239,0.0260677,0.0213292,-0.00301181,0.0275305,0.0198664,-0.452121,0.0164069,0.019126,1406,379,7.79953,259.239
189,645,7.8866,-257.913,0.0253344,0.0227968,-0.00292706,0.0272558,0.0208754,-0.580879,0.0164612,0.0185335,1413,379,7.88661,257.913
196,645,7.88879,-256.761,0.024226,0.0254887,-0.00259551,0.0275286,0.0221862,-0.904707,0.0168562,0.0172283,1420,379,7.88881,256.761
203,645,7.90063,-255.312,0.0229114,0.0278357,-0.00228987,0.028736,0.0220112,-1.19622,0.0173556,0.0256074,1427,379,7.90066,255.312
210,645,8.00732,-253.522,0.0222522,0.030404,-0.00202519,0.0308794,0.0217767,-1.34023,0.0183219,0.0405084,1434,379,8.00733,253.522
217,645,8.10828,-251.789,0,0,0,0,0,0,0,-1,1441,379,8.10824,251.789
224,645,8.04883,-251.051,0,0,0,0,0,0,0,-1,1448,379,8.04886,251.051
231,645,7.85986,-249.383,0,0,0,0,0,0,0,-1,1455,379,7.85984,249.383
238,645,7.79431,-247.381,0,0,0,0,0,0,0,-1,1462,379,7.79433,247.381
245,645,7.71436,-245.314,0,0,0,0,0,0,0,-1,1469,379,7.71437,245.314
252,645,6.27942,-52.6305,0,0,0,0,0,0,0,-1,1476,379,6.27947,52.6305
259,645,6.5321,-54.0518,0,0,0,0,0,0,0,-1,1483,379,6.53211,54.0518
266,645,6.84973,-61.1459,0,0,0,0,0,0,0,-1,1490,379,6.84972,61.146
273,645,6.9054,-70.7075,0,0,0,0,0,0,0,-1,1497,379,6.90542,70.7075
280,645,6.67688,-72.5746,0,0,0,0,0,0,0,-1,1504,379,6.67691,72.5746
287,645,7.4104,-62.5272,0,0,0,0,0,0,0,-1,1511,379,7.41036,62.5271
294,645,3.76428,-22.9539,0,0,0,0,0,0,0,-1,1518,379,3.7643,22.9539
301,645,2.74219,-23.503,0,0,0,0,0,0,0,-1,1525,379,2.74222,23.503
308,645,1.82227,-23.9479,0,0,0,0,0,0,0,-1,1532,379,1.82227,23.9479
315,645,0.990356,-24.8735,0,0,0,0,0,0,0,-1,1539,379,0.990376,24.8735
322,645,-0.256714,-24.7577,0,0,0,0,0,0,0,-1,1546,379,-0.256653,24.7577
329,645,-4.45581,-22.707,0,0,0,0,0,0,0,-1,1553,379,-4.45579,22.707
336,645,-5.83154,-22.8404,0,0,0,0,0,0,0,-1,1560,379,-5.83149,22.8404
343,645,4.03186,-38.0623,0,0,0,0,0,0,0,-1,1567,379,4.03187,38.0623
350,645,4.76404,-22.1987,0,0,0,0,0,0,0,-1,1574,379,4.76399,22.1987
357,645,4.61316,-21.967,0,0,0,0,0,0,0,-1,1581,379,4.61316,21.967
364,645,-0.0794678,-3.22021,0,0,0,0,0,0,0,-1,1588,379,-0.0794987,3.22021
371,645,0,0,0,0,0,0,0,0,0,-1,1595,379,0,0
378,645,0,0,0,0,0,0,0,0,0,-1,1602,379,0,0
385,645,0,0,0,0,0,0,0,0,0,-1,1609,379,0,0
392,645,0,0,0,0,0,0,0,0,0,-1,1616,379,0,0
399,645,0,0,0,0,0,0,0,0,0,-1,1623,379,0,0
406,645,0,0,0,0,0,0,0,0,0,-1,1630,379,0,0
413,645,0,0,0,0,0,0,0,0,0,-1,1637,379,0,0
420,645,0,0,0,0,0,0,0,0,0,-1,1644,379,0,0
427,645,0,0,0,0,0,0,0,0,0,-1,1651,379,0,0
434,645,0,0,0,0,0,0,0,0,0,-1,1658,379,0,0
441,645,0,0,0,0,0,0,0,0,0,-1,1665,379,0,0
448,645,0,0,0,0,0,0,0,0,0,-1,1672,379,0,0
455,645,0,0,0,0,0,0,0,0,0,-1,1679,379,0,0
462,645,0,0,0,0,0,0,0,0,0,-1,1686,379,0,0
469,645,0,0,0,0,0,0,0,0,0,-1,1693,379,0,0
476,645,0,0,0,0,0,0,0,0,0,-1,1700,379,0,0
483,645,0,0,0,0,0,0,0,0,0,-1,1707,379,0,0
490,645,0,0,0,0,0,0,0,0,0,-1,1714,379,0,0
497,645,0,0,0,0,0,0,0,0,0,-1,1721,379,0,0
504,645,0,0,0,0,0,0,0,0,0,-1,1728,379,0,0
511,645,0,0,0,0,0,0,0,0,0,-1,1735,379,0,0
518,645,0,0,0,0,0,0,0,0,0,-1,1742,379,0,0
525,645,0,0,0,0,0,0,0,0,0,-1,1749,379,0,0
532,645,0,0,0,0,0,0,0,0,0,-1,1756,379,0,0
539,645,0,0,0,0,0,0,0,0,0,-1,1763,379,0,0
546,645,0,0,0,0,0,0,0,0,0,-1,1770,379,0,0
553,645,0,0,0,0,0,0,0,0,0,-1,1777,379,0,0
560,645,0,0,0,0,0,0,0,0,0,-1,1784,379,0,0
567,645,0,0,0,0,0,0,0,0,0,-1,1791,379,0,0
574,645,0,0,0,0,0,0,0,0,0,-1,1798,379,0,0
581,645,0,0,0,0,0,0,0,0,0,-1,1805,379,0,0
588,645,0,0,0,0,0,0,0,0,0,-1,1812,379,0,0
595,645,0,0,0,0,0,0,0,0,0,-1,1819,379,0,0
602,645,0,0,0,0,0,0,0,0,0,-1,1826,379,0,0
609,645,0,0,0,0,0,0,0,0,0,-1,1833,379,0,0
616,645,0,0,0,0,0,0,0,0,0,-1,1840,379,0,0
623,645,0,0,0,0,0,0,0,0,0,-1,1847,379,0,0
630,645,0,0,0,0,0,0,0,0,0,-1,1854,379,0,0
637,645,0,0,0,0,0,0,0,0,0,-1,1861,379,0,0
644,645,0,0,0,0,0,0,0,0,0,-1,1868,379,0,0
651,645,0,0,0,0,0,0,0,0,0,-1,1875,379,0,0
658,645,0,0,0,0,0,0,0,0,0,-1,1882,379,0,0
665,645,0,0,0,0,0,0,0,0,0,-1,1889,379,0,0
672,645,0,0,0,0,0,0,0,0,0,-1,1896,379,0,0
679,645,0,0,0,0,0,0,0,0,0,-1,1903,379,0,0
686,645,0,0,0,0,0,0,0,0,0,-1,1910,379,0,0
693,645,0,0,0,0,0,0,0,0,0,-1,1917,379,0,0
700,645,0,0,0,0,0,0,0,0,0,-1,1924,379,0,0
707,645,0,0,0,0,0,0,0,0,0,-1,1931,379,0,0
714,645,0,0,0,0,0,0,0,0,0,-1,1938,379,0,0
721,645,0,0,0,0,0,0,0,0,0,-1,1945,379,0,0
728,645,0,0,0,0,0,0,0,0,0,-1,1952,379,0,0
735,645,0,0,0,0,0,0,0,0,0,-1,1959,379,0,0
742,645,0,0,0,0,0,0,0,0,0,-1,1966,379,0,0
749,645,0,0,0,0,0,0,0,0,0,-1,1973,379,0,0
756,645,0,0,0,0,0,0,0,0,0,-1,1980,379,0,0
763,645,0,0,0,0,0,0,0,0,0,-1,1987,379,0,0
770,645,0,0,0,0,0,0,0,0,0,-1,1994,379,0,0
777,645,0,0,0,0,0,0,0,0,0,-1,2001,379,0,0
784,645,0,0,0,0,0,0,0,0,0,-1,2008,379,0,0
791,645,0,0,0,0,0,0,0,0,0,-1,2015,379,0,0
798,645,0,0,0,0,0,0,0,0,0,-1,2022,379,0,0
805,645,0,0,0,0,0,0,0,0,0,-1,2029,379,0,0
812,645,0,0,0,0,0,0,0,0,0,-1,2036,379,0,0
-700,638,0,0,0,0,0,0,0,0,0,-1,524,386,0,0
-693,638,0,0,0,0,0,0,0,0,0,-1,531,386,0,0
-686,638,0,0,0,0,0,0,0,0,0,-1,538,386,0,0
-679,638,0,0,0,0,0,0,0,0,0,-1,545,386,0,0
-672,638,0,0,0,0,0,0,0,0,0,-1,552,386,0,0
-665,638,0,0,0,0,0,0,0,0,0,-1,559,386,0,0
-658,638,0,0,0,0,0,0,0,0,0,-1,566,386,0,0
-651,638,0,0,0,0,0,0,0,0,0,-1,573,386,0,0
-644,638,0,0,0,0,0,0,0,0,0,-1,580,386,0,0
-637,638,0,0,0,0,0,0,0,0,0,-1,587,386,0,0
-630,638,0,0,0,0,0,0,0,0,0,-1,594,386,0,0
-623,638,0,0,0,0,0,0,0,0,0,-1,601,386,0,0
-616,638,0,0,0,0,0,0,0,0,0,-1,608,386,0,0
-609,638,0,0,0,0,0,0,0,0,0,-1,615,386,0,0
-602,638,0,0,0,0,0,0,0,0,0,-1,622,386,0,0
-595,638,0,0,0,0,0,0,0,0,0,-1,629,386,0,0
-588,638,0,0,0,0,0,0,0,0,0,-1,636,386,0,0
-581,638,0,0,0,0,0,0,0,0,0,-1,643,386,0,0
-574,638,0,0,0,0,0,0,0,0,0,-1,650,386,0,0
-567,638,0,0,0,0,0,0,0,0,0,-1,657,386,0,0
-560,638,0,0,0,0,0,0,0,0,0,-1,664,386,0,0
-553,638,0,0,0,0,0,0,0,0,0,-1,671,386,0,0
-546,638,0,0,0,0,0,0,0,0,0,-1,678,386,0,0
-539,638,0,0,0,0,0,0,0,0,0,-1,685,386,0,0
-532,638,0,0,0,0,0,0,0,0,0,-1,692,386,0,0
-525,638,0,0,0,0,0,0,0,0,0,-1,699,386,0,0
-518,638,0,0,0,0,0,0,0,0,0,-1,706,386,0,0
-511,638,0,0,0,0,0,0,0,0,0,-1,713,386,0,0
-504,638,0,0,0,0,0,0,0,0,0,-1,720,386,0,0
-497,638,0,0,0,0,0,0,0,0,0,-1,727,386,0,0
-490,638,0,0,0,0,0,0,0,0,0,-1,734,386,0,0
-483,638,0,0,0,0,0,0,0,0,0,-1,741,386,0,0
-476,638,0,0,0,0,0,0,0,0,0,-1,748,386,0,0
-469,638,0,0,0,0,0,0,0,0,0,-1,755,386,0,0
-462,638,0,0,0,0,0,0,0,0,0,-1,762,386,0,0
-455,638,0,0,0,0,0,0,0,0,0,-1,769,386,0,0
-448,638,0,0,0,0,0,0,0,0,0,-1,776,386,0,0
-441,638,0,0,0,0,0,0,0,0,0,-1,783,386,0,0
-434,638,0,0,0,0,0,0,0,0,0,-1,790,386,0,0
-427,638,0,0,0,0,0,0,0,0,0,-1,797,386,0,0
-420,638,0,0,0,0,0,0,0,0,0,-1,804,386,0,0
-413,638,0,0,0,0,0,0,0,0,0,-1,811,386,0,0
-406,638,0,0,0,0,0,0,0,0,0,-1,818,386,0,0
-399,638,0,0,0,0,0,0,0,0,0,-1,825,386,0,0
-392,638,0,0,0,0,0,0,0,0,0,-1,832,386,0,0
-385,638,0,0,0,0,0,0,0,0,0,-1,839,386,0,0
-378,638,0,0,0,0,0,0,0,0,0,-1,846,386,0,0
-371,638,0,0,0,0,0,0,0,0,0,-1,853,386,0,0
-364,638,0,0,0,0,0,0,0,0,0,-1,860,386,0,0
-357,638,0,0,0,0,0,0,0,0,0,-1,867,386,0,0
-350,638,0,0,0,0,0,0,0,0,0,-1,874,386,0,0
-343,638,0,0,0,0,0,0,0,0,0,-1,881,386,0,0
-336,638,0,0,0,0,0,0,0,0,0,-1,888,386,0,0
-329,638,0,0,0,0,0,0,0,0,0,-1,895,386,0,0
-322,638,0,0,0,0,0,0,0,0,0,-1,902,386,0,0
-315,638,0,0,0,0,0,0,0,0,0,-1,909,386,0,0
-308,638,0,0,0,0,0,0,0,0,0,-1,916,386,0,0
-301,638,0,0,0,0,0,0,0,0,0,-1,923,386,0,0
-294,638,0,0,0,0,0,0,0,0,0,-1,930,386,0,0
-287,638,0,0,0,0,0,0,0,0,0,-1,937,386,0,0
-280,638,0,0,0,0,0,0,0,0,0,-1,944,386,0,0
-273,638,0,0,0,0,0,0,0,0,0,-1,951,386,0,0
-266,638,10.1613,-36.3326,0,0,0,0,0,0,0,-1,958,386,10.1612,36.3326
-259,638,9.95282,-34.6103,0,0,0,0,0,0,0,-1,965,386,9.9528,34.6103
-252,638,9.95746,-33.6964,0,0,0,0,0,0,0,-1,972,386,9.95744,33.6965
-245,638,9.84143,-32.9009,0,0,0,0,0,0,0,-1,979,386,9.84145,32.9009
-238,638,2.93518,-26.3649,0,0,0,0,0,0,0,-1,986,386,2.93516,26.3649
-231,638,2.36829,-26.0088,0,0,0,0,0,0,0,-1,993,386,2.3683,26.0088
-224,638,6.3465,-30.9124,0,0,0,0,0,0,0,-1,1000,386,6.34648,30.9124
-217,638,7.41205,-32.7263,0,0,0,0,0,0,0,-1,1007,386,7.41204,32.7262
-210,638,8.7038,-34.5688,0,0,0,0,0,0,0,-1,1014,386,8.70378,34.5689
-203,638,4.32593,-27.5803,0,0,0,0,0,0,0,-1,1021,386,4.32594,27.5803
-196,638,6.0614,-28.4651,0,0,0,0,0,0,0,-1,1028,386,6.06143,28.4651
-189,638,11.4561,-30.1556,0,0,0,0,0,0,0,-1,1035,386,11.456,30.1556
-182,638,6.45471,-33.4271,0,0,0,0,0,0,0,-1,1042,386,6.45473,33.427
-175,638,8.39648,-48.7238,0,0,0,0,0,0,0,-1,1049,386,8.39643,48.7238
-168,638,10.3712,-61.8581,0,0,0,0,0,0,0,-1,1056,386,10.3712,61.8581
-161,638,11.0891,-91.2155,0,0,0,0,0,0,0,-1,1063,386,11.0892,91.2155
-154,638,10.7274,-91.6196,0,0,0,0,0,0,0,-1,1070,386,10.7275,91.6196
-147,638,10.2598,-87.4278,0,0,0,0,0,0,0,-1,1077,386,10.2598,87.4278
-140,638,0.788818,-239.414,0,0,0,0,0,0,0,-1,1084,386,0.788863,239.414
-133,638,0.583008,-241.538,0,0,0,0,0,0,0,-1,1091,386,0.583012,241.538
-126,638,0.38501,-243.664,0,0,0,0,0,0,0,-1,1098,386,0.385002,243.664
-119,638,0.141479,-245.62,0,0,0,0,0,0,0,-1,1105,386,0.141495,245.62
-112,638,0.0245361,-247.276,0.0131652,0.0115765,-0.000486186,0.0133022,0.0114395,-0.274619,0.00831706,0.0427265,1112,386,0.0245403,247.276
-105,638,-0.0500488,-248.951,0.0147218,0.00982145,0.000966346,0.0149055,0.00963778,0.187834,0.0087281,0.0273152,1119,386,-0.0501071,248.951
-98,638,-0.0732422,-250.57,0.0162547,0.00773217,0.00252515,0.0169467,0.00704018,0.267473,0.00983072,0.0245434,1126,386,-0.0732372,250.57
-91,638,-0.220581,-252.188,0.0180723,0.00617593,0.00409539,0.0193458,0.0049024,0.301488,0.0116133,0.0178697,1133,386,-0.22061,252.188
-84,638,-0.260742,-253.819,0.020214,0.00492788,0.00534133,0.0218954,0.00324645,0.304976,0.0136442,0.0190896,1140,386,-0.260694,253.819
-77,638,-0.305542,-255.203,0.0222665,0.00434514,0.00617752,0.0241895,0.00242209,0.30179,0.0153827,0.0198715,1147,386,-0.305488,255.203
-70,638,-0.202026,-256.382,0.02438,0.0038876,0.00673531,0.0263955,0.00187211,0.290761,0.0170074,0.0255872,1154,386,-0.202006,256.382
-63,638,-0.017334,-257.716,0.0264773,0.00342827,0.00699774,0.0284355,0.0014701,0.27285,0.0184865,0.0263299,1161,386,-0.0173338,257.716
-56,638,0.0480957,-258.995,0.0283149,0.00304189,0.00708137,0.0301638,0.00119299,0.255392,0.0197236,0.0226575,1168,386,0.0481109,258.995
-49,638,0.0476074,-260.054,0.0302309,0.00238788,0.00705849,0.031918,0.000700714,0.234624,0.021049,0.0172503,1175,386,0.0476363,260.054
-42,638,0.124146,-261.173,0.0321659,0.00168406,0.00688849,0.0336503,0.00019964,0.212247,0.0223673,0.0171248,1182,386,0.124151,261.173
-35,638,0.351807,-262.202,0.0339435,0.0013477,0.00672715,0.0352772,1.39158e-05,0.19573,0.0235135,0.0154607,1189,386,0.351839,262.202
-28,638,0.527466,-263.188,0.0354088,0.00122812,0.00647882,0.0365956,4.1293e-05,0.181177,0.0243833,0.0136737,1196,386,0.527418,263.188
-21,638,0.732422,-264.135,0.0367428,0.00103666,0.00616976,0.0377788,6.29574e-07,0.166368,0.0251857,0.016367,1203,386,0.732362,264.135
-14,638,0.905518,-265.093,0.0382125,0.0010845,0.00587633,0.0391204,0.000176642,0.153283,0.0260216,0.0162526,1210,386,0.905501,265.093
-7,638,1.02917,-265.966,0.0397193,0.00126692,0.00569754,0.0405458,0.000440465,0.144049,0.0268849,0.0282724,1217,386,1.02912,265.966
0,638,1.16907,-266.818,0,0,0,0,0,0,0,-1,1224,386,1.16907,266.818
7,638,1.85364,-266.961,0.0425954,0.00136476,0.005214,0.0432446,0.000715617,0.123862,0.0285942,0.0422598,1231,386,1.8536,266.961
14,638,2.02209,-267.381,0.0437934,0.00134417,0.00483898,0.044338,0.000799535,0.112079,0.0292958,0.0196778,1238,386,2.02205,267.381
21,638,2.30334,-267.918,0.0450418,0.00120992,0.00452454,0.0455039,0.000747746,0.101795,0.0300898,0.0180286,1245,386,2.30329,267.918
28,638,2.51233,-268.221,0.0463547,0.000930466,0.00409076,0.0467202,0.000565007,0.0891013,0.0309602,0.014228,1252,386,2.51228,268.221
35,638,2.85425,-268.472,0.0474823,0.00069204,0.00346275,0.0477372,0.000437165,0.0734725,0.0316801,0.0182708,1259,386,2.85428,268.472
42,638,3.28125,-268.781,0.0483967,0.000344899,0.00279972,0.0485593,0.000182323,0.0580029,0.0323123,0.0204602,1266,386,3.28122,268.781
49,638,3.58997,-268.952,0.049268,2.62175e-05,0.00227883,0.0493732,-7.90171e-05,0.0461469,0.0329418,0.01658,1273,386,3.59002,268.952
56,638,3.96533,-269.046,0.0498387,-0.000338677,0.00151447,0.0498844,-0.000384346,0.0301457,0.0333851,0.0195654,1280,386,3.96538,269.046
63,638,4.33679,-269.212,0.0503054,-0.000638196,0.000764395,0.0503169,-0.000649661,0.0150002,0.0337632,0.0185761,1287,386,4.33684,269.212
70,638,4.62048,-269.186,0.0505115,-0.000892306,0.000123558,0.0505118,-0.000892604,0.00240366,0.033976,0.0244074,1294,386,4.62043,269.186
77,638,4.94092,-268.999,0.050797,-0.000848086,-0.000282631,0.0507986,-0.000849631,-0.00547235,0.0341524,0.0296381,1301,386,4.94094,268.999
84,638,5.2301,-268.858,0.0510071,-0.000429283,-0.000799367,0.0510195,-0.000441704,-0.0155359,0.0341612,0.0250531,1308,386,5.23013,268.858
91,638,5.63135,-268.688,0.0507534,0.000115039,-0.0013773,0.0507908,7.76071e-05,-0.0271719,0.0338347,0.0313356,1315,386,5.63139,268.688
98,638,5.93188,-268.319,0.0504872,0.000784599,-0.00178333,0.0505511,0.000720695,-0.0358187,0.0334631,0.0237943,1322,386,5.93193,268.319
105,638,6.19751,-267.968,0.0504635,0.00165573,-0.00222156,0.0505644,0.00155483,-0.0453914,0.0332035,0.0146339,1329,386,6.19752,267.968
112,638,6.49915,-267.521,0.0504436,0.00264731,-0.00267257,0.0505926,0.00249834,-0.0556845,0.0329272,0.0143849,1336,386,6.49911,267.521
119,638,6.85742,-267.017,0.0499921,0.00354042,-0.00307826,0.0501952,0.00333731,-0.0658841,0.0324084,0.0185793,1343,386,6.85738,267.017
126,638,7.20862,-266.395,0.0490413,0.0045062,-0.00347662,0.0493111,0.00423644,-0.0774394,0.0315569,0.0242372,1350,386,7.20858,266.395
133,638,7.48669,-265.785,0.0478873,0.00542719,-0.00366879,0.048202,0.00511252,-0.0855604,0.0305733,0.0247628,1357,386,7.48666,265.785
140,638,7.79309,-265.196,0.046703,0.00622442,-0.00384666,0.0470653,0.00586212,-0.0939093,0.0296169,0.0213716,1364,386,7.79306,265.196
147,638,8.00073,-264.299,0.0452625,0.00691706,-0.0042611,0.0457303,0.00644926,-0.109347,0.0285807,0.0247231,1371,386,8.00077,264.299
154,638,8.26575,-263.301,0.043572,0.00757848,-0.00470034,0.0441757,0.0069748,-0.127735,0.0274228,0.0238816,1378,386,8.26581,263.301
161,638,8.55664,-262.401,0.0417488,0.00900011,-0.00479784,0.0424372,0.00831167,-0.142516,0.0259681,0.0249016,1385,386,8.55661,262.401
168,638,8.80042,-261.354,0.0397751,0.0101376,-0.00501101,0.0405994,0.00931325,-0.163041,0.0245577,0.0275972,1392,386,8.80045,261.354
175,638,9.00354,-260.301,0.037918,0.0113356,-0.00531917,0.0389429,0.0103107,-0.19034,0.0232984,0.0248563,1399,386,9.00352,260.301
182,638,9.01184,-259.187,0.0362659,0.0126212,-0.00560028,0.0375253,0.0113618,-0.221194,0.0222199,0.0211816,1406,386,9.01183,259.187
189,638,9.16504,-257.813,0.0349306,0.0141158,-0.00568752,0.0363833,0.0126631,-0.250071,0.0213268,0.0203334,1413,386,9.165,257.813
196,638,9.37427,-256.552,0.033416,0.0165,-0.00554931,0.035074,0.014842,-0.290325,0.0203295,0.0261592,1420,386,9.37423,256.551
203,638,9.60461,-255.33,0.0318554,0.0186718,-0.00543775,0.0338088,0.0167184,-0.344877,0.0195199,0.0388172,1427,386,9.60456,255.33
210,638,9.58228,-253.907,0.0307657,0.0209234,-0.00532117,0.0330925,0.0185967,-0.412217,0.0191548,0.0400334,1434,386,9.58232,253.907
217,638,9.60925,-252.468,0.0293121,0.0228676,-0.0050859,0.0321106,0.0200691,-0.503033,0.0187312,0.0278316,1441,386,9.60924,252.468
224,638,9.65747,-250.939,0.0273084,0.0246856,-0.00459524,0.0307757,0.0212183,-0.646404,0.0181885,0.0171431,1448,386,9.65751,250.939
231,638,9.64038,-249.279,0.0253248,0.0262593,-0.00408682,0.0299055,0.0216786,-0.842314,0.0178387,0.0195159,1455,386,9.64039,249.279
238,638,9.60828,-247.479,0.0233851,0.0274241,-0.00370227,0.0296218,0.0211873,-1.03508,0.0176226,0.0269896,1462,386,9.60833,247.479
245,638,9.49182,-245.557,0.0209698,0.0287662,-0.0031964,0.0299091,0.0198269,-1.22739,0.0175709,0.0497601,1469,386,9.49185,245.557
252,638,9.38684,-243.563,0,0,0,0,0,0,0,-1,1476,386,9.38681,243.563
259,638,9.06982,-242.051,0,0,0,0,0,0,0,-1,1483,386,9.06981,242.051
266,638,9.01343,-240.039,0,0,0,0,0,0,0,-1,1490,386,9.01349,240.039
273,638,8.94971,-237.982,0,0,0,0,0,0,0,-1,1497,386,8.9497,237.982
280,638,6.75476,-82.5267,0,0,0,0,0,0,0,-1,1504,386,6.7548,82.5267
287,638,6.52307,-79.9485,0,0,0,0,0,0,0,-1,1511,386,6.5231,79.9485
294,638,6.37231,-79.665,0,0,0,0,0,0,0,-1,1518,386,6.37237,79.665
301,638,5.67981,-80.2637,0,0,0,0,0,0,0,-1,1525,386,5.67976,80.2637
308,638,7.54175,-66.9734,0,0,0,0,0,0,0,-1,1532,386,7.54171,66.9734
315,638,3.3927,-28.2032,0,0,0,0,0,0,0,-1,1539,386,3.39269,28.2032
322,638,6.1698,-44.6835,0,0,0,0,0,0,0,-1,1546,386,6.16984,44.6835
329,638,6.06885,-44.2856,0,0,0,0,0,0,0,-1,1553,386,6.06881,44.2855
336,638,5.15234,-38.1966,0,0,0,0,0,0,0,-1,1560,386,5.15238,38.1966
343,638,4.8208,-37.2159,0,0,0,0,0,0,0,-1,1567,386,4.82078,37.2159
350,638,4.35254,-37.1565,0,0,0,0,0,0,0,-1,1574,386,4.35259,37.1565
357,638,0.387329,-3.01077,0,0,0,0,0,0,0,-1,1581,386,0.387332,3.01077
364,638,3.78149,-6.45215,0,0,0,0,0,0,0,-1,1588,386,3.78155,6.45216
371,638,4.18604,-6.71164,0,0,0,0,0,0,0,-1,1595,386,4.18598,6.71164
378,638,4.59045,-6.97113,0,0,0,0,0,0,0,-1,1602,386,4.5904,6.97112
385,638,0,0,0,0,0,0,0,0,0,-1,1609,386,0,0
392,638,0,0,0,0,0,0,0,0,0,-1,1616,386,0,0
399,638,0,0,0,0,0,0,0,0,0,-1,1623,386,0,0
406,638,0,0,0,0,0,0,0,0,0,-1,1630,386,0,0
413,638,0,0,0,0,0,0,0,0,0,-1,1637,386,0,0
420,638,0,0,0,0,0,0,0,0,0,-1,1644,386,0,0
427,638,0,0,0,0,0,0,0,0,0,-1,1651,386,0,0
434,638,0,0,0,0,0,0,0,0,0,-1,1658,386,0,0
441,638,0,0,0,0,0,0,0,0,0,-1,1665,386,0,0
448,638,0,0,0,0,0,0,0,0,0,-1,1672,386,0,0
455,638,0,0,0,0,0,0,0,0,0,-1,1679,386,0,0
462,638,0,0,0,0,0,0,0,0,0,-1,1686,386,0,0
469,638,0,0,0,0,0,0,0,0,0,-1,1693,386,0,0
476,638,0,0,0,0,0,0,0,0,0,-1,1700,386,0,0
483,638,0,0,0,0,0,0,0,0,0,-1,1707,386,0,0
490,638,0,0,0,0,0,0,0,0,0,-1,1714,386,0,0
497,638,0,0,0,0,0,0,0,0,0,-1,1721,386,0,0
504,638,0,0,0,0,0,0,0,0,0,-1,1728,386,0,0
511,638,0,0,0,0,0,0,0,0,0,-1,1735,386,0,0
518,638,0,0,0,0,0,0,0,0,0,-1,1742,386,0,0
525,638,0,0,0,0,0,0,0,0,0,-1,1749,386,0,0
532,638,0,0,0,0,0,0,0,0,0,-1,1756,386,0,0
539,638,0,0,0,0,0,0,0,0,0,-1,1763,386,0,0
546,638,0,0,0,0,0,0,0,0,0,-1,1770,386,0,0
553,638,0,0,0,0,0,0,0,0,0,-1,1777,386,0,0
560,638,0,0,0,0,0,0,0,0,0,-1,1784,386,0,0
567,638,0,0,0,0,0,0,0,0,0,-1,1791,386,0,0
574,638,0,0,0,0,0,0,0,0,0,-1,1798,386,0,0
581,638,0,0,0,0,0,0,0,0,0,-1,1805,386,0,0
588,638,0,0,0,0,0,0,0,0,0,-1,1812,386,0,0
595,638,0,0,0,0,0,0,0,0,0,-1,1819,386,0,0
602,638,0,0,0,0,0,0,0,0,0,-1,1826,386,0,0
609,638,0,0,0,0,0,0,0,0,0,-1,1833,386,0,0
616,638,0,0,0,0,0,0,0,0,0,-1,1840,386,0,0
623,638,0,0,0,0,0,0,0,0,0,-1,1847,386,0,0
630,638,0,0,0,0,0,0,0,0,0,-1,1854,386,0,0
637,638,0,0,0,0,0,0,0,0,0,-1,1861,386,0,0
644,638,0,0,0,0,0,0,0,0,0,-1,1868,386,0,0
651,638,0,0,0,0,0,0,0,0,0,-1,1875,386,0,0
658,638,0,0,0,0,0,0,0,0,0,-1,1882,386,0,0
665,638,0,0,0,0,0,0,0,0,0,-1,1889,386,0,0
672,638,0,0,0,0,0,0,0,0,0,-1,1896,386,0,0
679,638,0,0,0,0,0,0,0,0,0,-1,1903,386,0,0
686,638,0,0,0,0,0,0,0,0,0,-1,1910,386,0,0
693,638,0,0,0,0,0,0,0,0,0,-1,1917,386,0,0
700,638,0,0,0,0,0,0,0,0,0,-1,1924,386,0,0
707,638,0,0,0,0,0,0,0,0,0,-1,1931,386,0,0
714,638,0,0,0,0,0,0,0,0,0,-1,1938,386,0,0
721,638,0,0,0,0,0,0,0,0,0,-1,1945,386,0,0
728,638,0,0,0,0,0,0,0,0,0,-1,1952,386,0,0
735,638,0,0,0,0,0,0,0,0,0,-1,1959,386,0,0
742,638,0,0,0,0,0,0,0,0,0,-1,1966,386,0,0
749,638,0,0,0,0,0,0,0,0,0,-1,1973,386,0,0
756,638,0,0,0,0,0,0,0,0,0,-1,1980,386,0,0
763,638,0,0,0,0,0,0,0,0,0,-1,1987,386,0,0
770,638,0,0,0,0,0,0,0,0,0,-1,1994,386,0,0
777,638,0,0,0,0,0,0,0,0,0,-1,2001,386,0,0
784,638,0,0,0,0,0,0,0,0,0,-1,2008,386,0,0
791,638,0,0,0,0,0,0,0,0,0,-1,2015,386,0,0
798,638,0,0,0,0,0,0,0,0,0,-1,2022,386,0,0
805,638,0,0,0,0,0,0,0,0,0,-1,2029,386,0,0
812,638,0,0,0,0,0,0,0,0,0,-1,2036,386,0,0
-700,631,0,0,0,0,0,0,0,0,0,-1,524,393,0,0
-693,631,0,0,0,0,0,0,0,0,0,-1,531,393,0,0
-686,631,0,0,0,0,0,0,0,0,0,-1,538,393,0,0
-679,631,0,0,0,0,0,0,0,0,0,-1,545,393,0,0
-672,631,0,0,0,0,0,0,0,0,0,-1,552,393,0,0
-665,631,0,0,0,0,0,0,0,0,0,-1,559,393,0,0
-658,631,0,0,0,0,0,0,0,0,0,-1,566,393,0,0
-651,631,0,0,0,0,0,0,0,0,0,-1,573,393,0,0
-644,631,0,0,0,0,0,0,0,0,0,-1,580,393,0,0
-637,631,0,0,0,0,0,0,0,0,0,-1,587,393,0,0
-630,631,0,0,0,0,0,0,0,0,0,-1,594,393,0,0
-623,631,0,0,0,0,0,0,0,0,0,-1,601,393,0,0
-616,631,0,0,0,0,0,0,0,0,0,-1,608,393,0,0
-609,631,0,0,0,0,0,0,0,0,0,-1,615,393,0,0
-602,631,0,0,0,0,0,0,0,0,0,-1,622,393,0,0
-595,631,0,0,0,0,0,0,0,0,0,-1,629,393,0,0
-588,631,0,0,0,0,0,0,0,0,0,-1,636,393,0,0
-581,631,0,0,0,0,0,0,0,0,0,-1,643,393,0,0
-574,631,0,0,0,0,0,0,0,0,0,-1,650,393,0,0
-567,631,0,0,0,0,0,0,0,0,0,-1,657,393,0,0
-560,631,0,0,0,0,0,0,0,0,0,-1,664,393,0,0
-553,631,0,0,0,0,0,0,0,0,0,-1,671,393,0,0
-546,631,0,0,0,0,0,0,0,0,0,-1,678,393,0,0
-539,631,0,0,0,0,0,0,0,0,0,-1,685,393,0,0
-532,631,0,0,0,0,0,0,0,0,0,-1,692,393,0,0
-525,631,0,0,0,0,0,0,0,0,0,-1,699,393,0,0
-518,631,0,0,0,0,0,0,0,0,0,-1,706,393,0,0
-511,631,0,0,0,0,0,0,0,0,0,-1,713,393,0,0
-504,631,0,0,0,0,0,0,0,0,0,-1,720,393,0,0
-497,631,0,0,0,0,0,0,0,0,0,-1,727,393,0,0
-490,631,0,0,0,0,0,0,0,0,0,-1,734,393,0,0
-483,631,0,0,0,0,0,0,0,0,0,-1,741,393,0,0
-476,631,0,0,0,0,0,0,0,0,0,-1,748,393,0,0
-469,631,0,0,0,0,0,0,0,0,0,-1,755,393,0,0
-462,631,0,0,0,0,0,0,0,0,0,-1,762,393,0,0
-455,631,0,0,0,0,0,0,0,0,0,-1,769,393,0,0
-448,631,0,0,0,0,0,0,0,0,0,-1,776,393,0,0
-441,631,0,0,0,0,0,0,0,0,0,-1,783,393,0,0
-434,631,0,0,0,0,0,0,0,0,0,-1,790,393,0,0
-427,631,0,0,0,0,0,0,0,0,0,-1,797,393,0,0
-420,631,0,0,0,0,0,0,0,0,0,-1,804,393,0,0
-413,631,0,0,0,0,0,0,0,0,0,-1,811,393,0,0
-406,631,0,0,0,0,0,0,0,0,0,-1,818,393,0,0
-399,631,0,0,0,0,0,0,0,0,0,-1,825,393,0,0
-392,631,0,0,0,0,0,0,0,0,0,-1,832,393,0,0
-385,631,0,0,0,0,0,0,0,0,0,-1,839,393,0,0
-378,631,0,0,0,0,0,0,0,0,0,-1,846,393,0,0
-371,631,0,0,0,0,0,0,0,0,0,-1,853,393,0,0
-364,631,0,0,0,0,0,0,0,0,0,-1,860,393,0,0
-357,631,0,0,0,0,0,0,0,0,0,-1,867,393,0,0
-350,631,0,0,0,0,0,0,0,0,0,-1,874,393,0,0
-343,631,0,0,0,0,0,0,0,0,0,-1,881,393,0,0
-336,631,0,0,0,0,0,0,0,0,0,-1,888,393,0,0
-329,631,0,0,0,0,0,0,0,0,0,-1,895,393,0,0
-322,631,0,0,0,0,0,0,0,0,0,-1,902,393,0,0
-315,631,0,0,0,0,0,0,0,0,0,-1,909,393,0,0
-308,631,0,0,0,0,0,0,0,0,0,-1,916,393,0,0
-301,631,0,0,0,0,0,0,0,0,0,-1,923,393,0,0
-294,631,0,0,0,0,0,0,0,0,0,-1,930,393,0,0
-287,631,0,0,0,0,0,0,0,0,0,-1,937,393,0,0
-280,631,7.71283,-34.969,0,0,0,0,0,0,0,-1,944,393,7.71282,34.969
-273,631,8.04437,-34.934,0,0,0,0,0,0,0,-1,951,393,8.04436,34.9339
-266,631,8.40277,-34.7584,0,0,0,0,0,0,0,-1,958,393,8.40275,34.7584
-259,631,8.56659,-34.037,0,0,0,0,0,0,0,-1,965,393,8.56662,34.037
-252,631,8.44446,-33.2643,0,0,0,0,0,0,0,-1,972,393,8.44445,33.2644
-245,631,8.34705,-32.527,0,0,0,0,0,0,0,-1,979,393,8.34704,32.527
-238,631,8.41888,-31.8855,0,0,0,0,0,0,0,-1,986,393,8.41887,31.8855
-231,631,2.14966,-25.2306,0,0,0,0,0,0,0,-1,993,393,2.14968,25.2306
-224,631,6.83575,-19.7909,0,0,0,0,0,0,0,-1,1000,393,6.83575,19.7909
-217,631,5.05188,-18.3867,0,0,0,0,0,0,0,-1,1007,393,5.0519,18.3866
-210,631,3.37842,-26.3769,0,0,0,0,0,0,0,-1,1014,393,3.37839,26.3769
-203,631,8.59509,-47.1953,0,0,0,0,0,0,0,-1,1021,393,8.5951,47.1954
-196,631,8.51001,-47.9163,0,0,0,0,0,0,0,-1,1028,393,8.50997,47.9163
-189,631,6.57983,-42.4494,0,0,0,0,0,0,0,-1,1035,393,6.57983,42.4494
-182,631,8.0531,-47.8031,0,0,0,0,0,0,0,-1,1042,393,8.05311,47.8031
-175,631,9.61975,-74.9516,0,0,0,0,0,0,0,-1,1049,393,9.61973,74.9516
-168,631,10.1567,-101.718,0,0,0,0,0,0,0,-1,1056,393,10.1567,101.718
-161,631,-0.0432129,-232.975,0,0,0,0,0,0,0,-1,1063,393,-0.0431779,232.975
-154,631,-0.680054,-235.542,0,0,0,0,0,0,0,-1,1070,393,-0.680092,235.542
-147,631,-0.994751,-237.652,0,0,0,0,0,0,0,-1,1077,393,-0.994754,237.652
-140,631,-1.16248,-239.533,0.0126116,0.0150612,-0.00154014,0.0158042,0.0118686,-1.12132,0.00949998,0.0452903,1084,393,-1.16243,239.533
-133,631,-1.35925,-241.564,0.0150747,0.0126037,-0.000312368,0.0151136,0.0125648,-0.123818,0.00934277,0.0226692,1091,393,-1.3593,241.564
-126,631,-1.51025,-243.583,0.0172973,0.0107479,0.00130492,0.0175478,0.0104975,0.1896,0.0101962,0.0248163,1098,393,-1.51023,243.583
-119,631,-1.59778,-245.429,0.0195127,0.00856558,0.00284224,0.0202066,0.00787162,0.239472,0.0117608,0.0316452,1105,393,-1.59772,245.429
-112,631,-1.71436,-247.125,0.0216194,0.00657505,0.00419798,0.0227115,0.00548292,0.254514,0.0136845,0.0227618,1112,393,-1.71439,247.125
-105,631,-1.71045,-248.845,0.0234452,0.0050107,0.00534601,0.0248833,0.00357255,0.262792,0.0155356,0.0274872,1119,393,-1.71043,248.845
-98,631,-1.69287,-250.505,0.0252653,0.00327128,0.00648256,0.0270338,0.00150279,0.266326,0.017543,0.0231919,1126,393,-1.69293,250.505
-91,631,-1.70032,-252.064,0.027294,0.00189293,0.00758725,0.0293877,-0.000200789,0.269251,0.0196591,0.0241358,1133,393,-1.70028,252.064
-84,631,-1.8042,-253.668,0.029515,0.000753826,0.00842533,0.0318014,-0.00153254,0.264987,0.0217298,0.0235688,1140,393,-1.80421,253.668
-77,631,-1.82568,-255.121,0.0316842,6.41413e-06,0.00893421,0.0340302,-0.00233959,0.25679,0.0235055,0.022594,1147,393,-1.82573,255.121
-70,631,-1.62817,-256.321,0.0338807,-0.000676589,0.00919382,0.0361744,-0.00297032,0.244495,0.0251649,0.0273416,1154,393,-1.62818,256.321
-63,631,-1.3623,-257.589,0.036001,-0.00147305,0.00920806,0.0381413,-0.00361339,0.228387,0.0267136,0.0260302,1161,393,-1.36235,257.589
-56,631,-1.16162,-258.811,0.0379898,-0.00235681,0.00907435,0.0399368,-0.00430376,0.211352,0.0281689,0.0254109,1168,393,-1.16164,258.811
-49,631,-1.11548,-259.994,0.0401514,-0.00340978,0.00886164,0.0418851,-0.0051435,0.193203,0.0297863,0.0155047,1175,393,-1.11547,259.994
-42,631,-0.875732,-261.104,0.0421634,-0.00441574,0.00856251,0.0436875,-0.00593989,0.176158,0.0312935,0.012859,1182,393,-0.875716,261.104
-35,631,-0.646851,-262.136,0.0440053,-0.00510763,0.00831331,0.0453743,-0.00647666,0.163214,0.0326234,0.0136563,1189,393,-0.6469,262.136
-28,631,-0.403442,-263.135,0.0456708,-0.00561239,0.00799007,0.0468869,-0.00682843,0.151035,0.033765,0.0159737,1196,393,-0.403413,263.135
-21,631,-0.18689,-264.066,0.0471973,-0.00610685,0.00761052,0.0482626,-0.00717215,0.139074,0.034813,0.0152045,1203,393,-0.186864,264.066
-14,631,-0.0360107,-264.959,0.0488427,-0.00633044,0.00720221,0.0497674,-0.00725511,0.127688,0.0358422,0.0197916,1210,393,-0.0359534,264.959
-7,631,0.143555,-265.837,0.0504674,-0.00625503,0.00689755,0.0512941,-0.00708174,0.119286,0.0367846,0.0326624,1217,393,0.143553,265.837
0,631,0.721558,-266.211,0.0520999,-0.00634573,0.00660303,0.0528366,-0.00708244,0.111111,0.037807,0.0414191,1224,393,0.721502,266.211
7,631,1.1499,-266.776,0.0535113,-0.00629868,0.00622255,0.0541518,-0.0069392,0.102575,0.0386226,0.033449,1231,393,1.14987,266.776
14,631,1.51245,-267.392,0.0547626,-0.00635292,0.00579608,0.0553075,-0.00689775,0.0937247,0.0393728,0.0175815,1238,393,1.51247,267.392
21,631,1.76697,-267.831,0.0561371,-0.00644884,0.00535696,0.0565923,-0.00690405,0.0847719,0.0402276,0.0228854,1245,393,1.76697,267.831
28,631,2.04211,-268.146,0.0575909,-0.00657575,0.00479511,0.0579473,-0.00693211,0.0741798,0.0411374,0.0255441,1252,393,2.04207,268.146
35,631,2.48682,-268.394,0.0587817,-0.00663476,0.00411585,0.0590396,-0.0068927,0.0625888,0.041847,0.0243227,1259,393,2.48681,268.394
42,631,3.07092,-268.703,0.0596947,-0.0068181,0.00343071,0.0598712,-0.00699458,0.0513979,0.0424382,0.0397279,1266,393,3.07089,268.703
49,631,3.40405,-268.886,0.0607806,-0.00675805,0.00296707,0.0609107,-0.00688814,0.0438189,0.0430871,0.0367261,1273,393,3.40401,268.886
56,631,3.95251,-269.076,0.0616066,-0.00701684,0.00206715,0.0616688,-0.00707905,0.0300867,0.0436639,0.0318581,1280,393,3.95253,269.076
63,631,4.23962,-269.172,0.0623012,-0.00733056,0.00109229,0.0623184,-0.00734769,0.0156815,0.0441989,0.0210759,1287,393,4.23966,269.172
70,631,4.54187,-269.11,0.062525,-0.0075129,0.00015256,0.0625254,-0.00751323,0.00217824,0.0444004,0.0253985,1294,393,4.54193,269.111
77,631,4.89929,-268.835,0.0628603,-0.00749189,-0.000468706,0.0628634,-0.00749502,-0.00666188,0.0446176,0.0344036,1301,393,4.89928,268.835
84,631,5.52063,-268.682,0.0632919,-0.00727394,-0.00120458,0.0633125,-0.00729449,-0.0170637,0.044838,0.0258503,1308,393,5.52064,268.682
91,631,5.9635,-268.552,0.0631663,-0.00701196,-0.00203498,0.0632253,-0.00707092,-0.0289649,0.044694,0.0356248,1315,393,5.96348,268.552
98,631,6.30164,-268.347,0,0,0,0,0,0,0,-1,1322,393,6.30164,268.347
105,631,6.61853,-267.893,0.0629017,-0.00589835,-0.00339836,0.0630691,-0.0060658,-0.049235,0.044207,0.0166102,1329,393,6.61848,267.893
112,631,7.06519,-267.472,0.0629194,-0.0051582,-0.004121,0.063168,-0.00540675,-0.0602406,0.044025,0.0183386,1336,393,7.06519,267.472
119,631,7.48474,-266.979,0.0623447,-0.00448591,-0.00469674,0.0626731,-0.00481437,-0.0698208,0.0434758,0.0183111,1343,393,7.48479,266.979
126,631,7.90491,-266.377,0.0612098,-0.00380643,-0.00518845,0.0616213,-0.00421788,-0.0791349,0.0425565,0.0235296,1350,393,7.90492,266.377
133,631,8.21423,-265.732,0.059841,-0.00314911,-0.00548431,0.0603149,-0.00362304,-0.0862018,0.0414704,0.0264733,1357,393,8.21423,265.732
140,631,8.61011,-265.063,0.0584782,-0.00249815,-0.00579275,0.0590236,-0.00304358,-0.0938809,0.0404018,0.0245198,1364,393,8.61005,265.063
147,631,8.84094,-264.184,0.0568731,-0.00179223,-0.00634552,0.0575516,-0.00247074,-0.106523,0.0392173,0.0287614,1371,393,8.84088,264.184
154,631,9.14319,-263.261,0.0548551,-0.0012233,-0.00692827,0.0556984,-0.00206658,-0.12112,0.03784,0.0295954,1378,393,9.14314,263.261
161,631,9.69495,-262.362,0.0526162,0.000241483,-0.00703151,0.0535438,-0.000686096,-0.13116,0.0359267,0.0297762,1385,393,9.69492,262.362
168,631,9.98291,-261.271,0.0504606,0.00151162,-0.00718699,0.051494,0.000478199,-0.142812,0.0341711,0.0311635,1392,393,9.98294,261.271
175,631,10.1481,-260.2,0.0485841,0.00279158,-0.00756254,0.0498007,0.00157496,-0.159507,0.0326881,0.0258272,1399,393,10.1481,260.2
182,631,10.2271,-259.075,0.046484,0.00424128,-0.00805978,0.0479695,0.00275574,-0.18227,0.0311018,0.0196652,1406,393,10.2271,259.075
189,631,10.4888,-257.668,0.0445091,0.00578214,-0.00832088,0.0462212,0.00407,-0.202931,0.029551,0.0274238,1413,393,10.4888,257.668
196,631,10.7928,-256.395,0.0426051,0.00787863,-0.00834923,0.0445082,0.00597554,-0.224108,0.0278945,0.0265641,1420,393,10.7929,256.395
203,631,10.9819,-255.173,0.040846,0.00992508,-0.00842098,0.0429906,0.00778046,-0.249374,0.0264511,0.0269848,1427,393,10.9819,255.173
210,631,11.1018,-253.854,0.0394179,0.0120287,-0.00838134,0.0417791,0.00966748,-0.274604,0.0252548,0.0332602,1434,393,11.1017,253.854
217,631,11.2745,-252.413,0.0379592,0.0138919,-0.00825977,0.0405212,0.0113299,-0.300766,0.0241406,0.0285237,1441,393,11.2745,252.413
224,631,11.3152,-250.84,0.0361645,0.0156816,-0.00800901,0.0389243,0.0129219,-0.33184,0.022892,0.0191429,1448,393,11.3152,250.84
231,631,11.3826,-249.185,0.0343165,0.0173307,-0.00769954,0.0372871,0.0143601,-0.368221,0.0217163,0.0154931,1455,393,11.3826,249.185
238,631,11.4418,-247.451,0.0323845,0.0186122,-0.00743823,0.0356347,0.0153619,-0.41196,0.0206387,0.0246776,1462,393,11.4418,247.451
245,631,11.3964,-245.818,0.0300153,0.0199542,-0.00701718,0.0336188,0.0163506,-0.474412,0.0194122,0.0247974,1469,393,11.3964,245.818
252,631,11.1523,-243.943,0.0274945,0.021081,-0.00642384,0.0314675,0.017108,-0.553897,0.0181909,0.0274275,1476,393,11.1523,243.943
259,631,11.1425,-241.923,0.0248973,0.0216152,-0.0056816,0.0291701,0.0173424,-0.644809,0.0169414,0.0221961,1483,393,11.1425,241.923
266,631,11.1304,-239.976,0.02202,0.0208362,-0.00525794,0.0267192,0.0161369,-0.729346,0.0155371,0.0186514,1490,393,11.1304,239.976
273,631,11.0358,-237.976,0.0194801,0.0212146,-0.00423121,0.0246666,0.0160282,-0.886481,0.0144527,0.0350013,1497,393,11.0357,237.976
280,631,10.9304,-235.931,0,0,0,0,0,0,0,-1,1504,393,10.9304,235.931
287,631,10.5406,-233.457,0,0,0,0,0,0,0,-1,1511,393,10.5407,233.457
294,631,8.7467,-231.373,0,0,0,0,0,0,0,-1,1518,393,8.7467,231.373
301,631,6.50122,-101.507,0,0,0,0,0,0,0,-1,1525,393,6.50127,101.507
308,631,6.3407,-98.7534,0,0,0,0,0,0,0,-1,1532,393,6.34066,98.7534
315,631,6.22485,-99.3872,0,0,0,0,0,0,0,-1,1539,393,6.2248,99.3872
322,631,7.49646,-74.1723,0,0,0,0,0,0,0,-1,1546,393,7.4965,74.1723
329,631,5.70972,-38.2651,0,0,0,0,0,0,0,-1,1553,393,5.70967,38.2651
336,631,5.38281,-39.6306,0,0,0,0,0,0,0,-1,1560,393,5.38277,39.6306
343,631,6.21558,-38.7278,0,0,0,0,0,0,0,-1,1567,393,6.21558,38.7278
350,631,5.18359,-35.9677,0,0,0,0,0,0,0,-1,1574,393,5.18355,35.9677
357,631,2.6449,-9.60303,0,0,0,0,0,0,0,-1,1581,393,2.64491,9.60304
364,631,3.39136,-5.7594,0,0,0,0,0,0,0,-1,1588,393,3.39137,5.75939
371,631,3.72839,-6.0574,0,0,0,0,0,0,0,-1,1595,393,3.72845,6.05742
378,631,4.06555,-6.35544,0,0,0,0,0,0,0,-1,1602,393,4.06553,6.35544
385,631,3.90442,-3.58298,0,0,0,0,0,0,0,-1,1609,393,3.90437,3.58299
392,631,0.352295,-2.21301,0,0,0,0,0,0,0,-1,1616,393,0.352345,2.213
399,631,0,0,0,0,0,0,0,0,0,-1,1623,393,0,0
406,631,0,0,0,0,0,0,0,0,0,-1,1630,393,0,0
413,631,0,0,0,0,0,0,0,0,0,-1,1637,393,0,0
420,631,0,0,0,0,0,0,0,0,0,-1,1644,393,0,0
427,631,0,0,0,0,0,0,0,0,0,-1,1651,393,0,0
434,631,0,0,0,0,0,0,0,0,0,-1,1658,393,0,0
441,631,0,0,0,0,0,0,0,0,0,-1,1665,393,0,0
448,631,0,0,0,0,0,0,0,0,0,-1,1672,393,0,0
455,631,0,0,0,0,0,0,0,0,0,-1,1679,393,0,0
462,631,0,0,0,0,0,0,0,0,0,-1,1686,393,0,0
469,631,0,0,0,0,0,0,0,0,0,-1,1693,393,0,0
476,631,0,0,0,0,0,0,0,0,0,-1,1700,393,0,0
483,631,0,0,0,0,0,0,0,0,0,-1,1707,393,0,0
490,631,0,0,0,0,0,0,0,0,0,-1,1714,393,0,0
497,631,0,0,0,0,0,0,0,0,0,-1,1721,393,0,0
504,631,0,0,0,0,0,0,0,0,0,-1,1728,393,0,0
511,631,0,0,0,0,0,0,0,0,0,-1,1735,393,0,0
518,631,0,0,0,0,0,0,0,0,0,-1,1742,393,0,0
525,631,0,0,0,0,0,0,0,0,0,-1,1749,393,0,0
532,631,0,0,0,0,0,0,0,0,0,-1,1756,393,0,0
539,631,0,0,0,0,0,0,0,0,0,-1,1763,393,0,0
546,631,0,0,0,0,0,0,0,0,0,-1,1770,393,0,0
553,631,0,0,0,0,0,0,0,0,0,-1,1777,393,0,0
560,631,0,0,0,0,0,0,0,0,0,-1,1784,393,0,0
567,631,0,0,0,0,0,0,0,0,0,-1,1791,393,0,0
574,631,0,0,0,0,0,0,0,0,0,-1,1798,393,0,0
581,631,0,0,0,0,0,0,0,0,0,-1,1805,393,0,0
588,631,0,0,0,0,0,0,0,0,0,-1,1812,393,0,0
595,631,0,0,0,0,0,0,0,0,0,-1,1819,393,0,0
602,631,0,0,0,0,0,0,0,0,0,-1,1826,393,0,0
609,631,0,0,0,0,0,0,0,0,0,-1,1833,393,0,0
616,631,0,0,0,0,0,0,0,0,0,-1,1840,393,0,0
623,631,0,0,0,0,0,0,0,0,0,-1,1847,393,0,0
630,631,0,0,0,0,0,0,0,0,0,-1,1854,393,0,0
637,631,0,0,0,0,0,0,0,0,0,-1,1861,393,0,0
644,631,0,0,0,0,0,0,0,0,0,-1,1868,393,0,0
651,631,0,0,0,0,0,0,0,0,0,-1,1875,393,0,0
658,631,0,0,0,0,0,0,0,0,0,-1,1882,393,0,0
665,631,0,0,0,0,0,0,0,0,0,-1,1889,393,0,0
672,631,0,0,0,0,0,0,0,0,0,-1,1896,393,0,0
679,631,0,0,0,0,0,0,0,0,0,-1,1903,393,0,0
686,631,0,0,0,0,0,0,0,0,0,-1,1910,393,0,0
693,631,0,0,0,0,0,0,0,0,0,-1,1917,393,0,0
700,631,0,0,0,0,0,0,0,0,0,-1,1924,393,0,0
707,631,0,0,0,0,0,0,0,0,0,-1,1931,393,0,0
714,631,0,0,0,0,0,0,0,0,0,-1,1938,393,0,0
721,631,0,0,0,0,0,0,0,0,0,-1,1945,393,0,0
728,631,0,0,0,0,0,0,0,0,0,-1,1952,393,0,0
735,631,0,0,0,0,0,0,0,0,0,-1,1959,393,0,0
742,631,0,0,0,0,0,0,0,0,0,-1,1966,393,0,0
749,631,0,0,0,0,0,0,0,0,0,-1,1973,393,0,0
756,631,0,0,0,0,0,0,0,0,0,-1,1980,393,0,0
763,631,0,0,0,0,0,0,0,0,0,-1,1987,393,0,0
770,631,0,0,0,0,0,0,0,0,0,-1,1994,393,0,0
777,631,0,0,0,0,0,0,0,0,0,-1,2001,393,0,0
784,631,0,0,0,0,0,0,0,0,0,-1,2008,393,0,0
791,631,0,0,0,0,0,0,0,0,0,-1,2015,393,0,0
798,631,0,0,0,0,0,0,0,0,0,-1,2022,393,0,0
805,631,0,0,0,0,0,0,0,0,0,-1,2029,393,0,0
812,631,0,0,0,0,0,0,0,0,0,-1,2036,393,0,0
-700,624,0,0,0,0,0,0,0,0,0,-1,524,400,0,0
-693,624,0,0,0,0,0,0,0,0,0,-1,531,400,0,0
-686,624,0,0,0,0,0,0,0,0,0,-1,538,400,0,0
-679,624,0,0,0,0,0,0,0,0,0,-1,545,400,0,0
-672,624,0,0,0,0,0,0,0,0,0,-1,552,400,0,0
-665,624,0,0,0,0,0,0,0,0,0,-1,559,400,0,0
-658,624,0,0,0,0,0,0,0,0,0,-1,566,400,0,0
-651,624,0,0,0,0,0,0,0,0,0,-1,573,400,0,0
-644,624,0,0,0,0,0,0,0,0,0,-1,580,400,0,0
-637,624,0,0,0,0,0,0,0,0,0,-1,587,400,0,0
-630,624,0,0,0,0,0,0,0,0,0,-1,594,400,0,0
-623,624,0,0,0,0,0,0,0,0,0,-1,601,400,0,0
-616,624,0,0,0,0,0,0,0,0,0,-1,608,400,0,0
-609,624,0,0,0,0,0,0,0,0,0,-1,615,400,0,0
-602,624,0,0,0,0,0,0,0,0,0,-1,622,400,0,0
-595,624,0,0,0,0,0,0,0,0,0,-1,629,400,0,0
-588,624,0,0,0,0,0,0,0,0,0,-1,636,400,0,0
-581,624,0,0,0,0,0,0,0,0,0,-1,643,400,0,0
-574,624,0,0,0,0,0,0,0,0,0,-1,650,400,0,0
-567,624,0,0,0,0,0,0,0,0,0,-1,657,400,0,0
-560,624,0,0,0,0,0,0,0,0,0,-1,664,400,0,0
-553,624,0,0,0,0,0,0,0,0,0,-1,671,400,0,0
-546,624,0,0,0,0,0,0,0,0,0,-1,678,400,0,0
-539,624,0,0,0,0,0,0,0,0,0,-1,685,400,0,0
-532,624,0,0,0,0,0,0,0,0,0,-1,692,400,0,0
-525,624,0,0,0,0,0,0,0,0,0,-1,699,400,0,0
-518,624,0,0,0,0,0,0,0,0,0,-1,706,400,0,0
-511,624,0,0,0,0,0,0,0,0,0,-1,713,400,0,0
-504,624,0,0,0,0,0,0,0,0,0,-1,720,400,0,0
-497,624,0,0,0,0,0,0,0,0,0,-1,727,400,0,0
-490,624,0,0,0,0,0,0,0,0,0,-1,734,400,0,0
-483,624,0,0,0,0,0,0,0,0,0,-1,741,400,0,0
-476,624,0,0,0,0,0,0,0,0,0,-1,748,400,0,0
-469,624,0,0,0,0,0,0,0,0,0,-1,755,400,0,0
-462,624,0,0,0,0,0,0,0,0,0,-1,762,400,0,0
-455,624,0,0,0,0,0,0,0,0,0,-1,769,400,0,0
-448,624,0,0,0,0,0,0,0,0,0,-1,776,400,0,0
-441,624,0,0,0,0,0,0,0,0,0,-1,783,400,0,0
-434,624,0,0,0,0,0,0,0,0,0,-1,790,400,0,0
-427,624,0,0,0,0,0,0,0,0,0,-1,797,400,0,0
-420,624,0,0,0,0,0,0,0,0,0,-1,804,400,0,0
-413,624,0,0,0,0,0,0,0,0,0,-1,811,400,0,0
-406,624,0,0,0,0,0,0,0,0,0,-1,818,400,0,0
-399,624,0,0,0,0,0,0,0,0,0,-1,825,400,0,0
-392,624,0,0,0,0,0,0,0,0,0,-1,832,400,0,0
-385,624,0,0,0,0,0,0,0,0,0,-1,839,400,0,0
-378,624,0,0,0,0,0,0,0,0,0,-1,846,400,0,0
-371,624,0,0,0,0,0,0,0,0,0,-1,853,400,0,0
-364,624,0,0,0,0,0,0,0,0,0,-1,860,400,0,0
-357,624,0,0,0,0,0,0,0,0,0,-1,867,400,0,0
-350,624,0,0,0,0,0,0,0,0,0,-1,874,400,0,0
-343,624,0,0,0,0,0,0,0,0,0,-1,881,400,0,0
-336,624,0,0,0,0,0,0,0,0,0,-1,888,400,0,0
-329,624,0,0,0,0,0,0,0,0,0,-1,895,400,0,0
-322,624,0,0,0,0,0,0,0,0,0,-1,902,400,0,0
-315,624,0,0,0,0,0,0,0,0,0,-1,909,400,0,0
-308,624,0,0,0,0,0,0,0,0,0,-1,916,400,0,0
-301,624,0,0,0,0,0,0,0,0,0,-1,923,400,0,0
-294,624,5.08527,-28.5311,0,0,0,0,0,0,0,-1,930,400,5.08525,28.5311
-287,624,6.70825,-33.8,0,0,0,0,0,0,0,-1,937,400,6.70827,33.8
-280,624,6.92474,-33.8738,0,0,0,0,0,0,0,-1,944,400,6.92477,33.8739
-273,624,8.617,-37.3463,0,0,0,0,0,0,0,-1,951,400,8.61697,37.3463
-266,624,7.71747,-37.0599,0,0,0,0,0,0,0,-1,958,400,7.7175,37.0599
-259,624,7.33569,-33.1199,0,0,0,0,0,0,0,-1,965,400,7.33567,33.1199
-252,624,7.5528,-32.8158,0,0,0,0,0,0,0,-1,972,400,7.5528,32.8158
-245,624,6.8396,-32.02,0,0,0,0,0,0,0,-1,979,400,6.83963,32.02
-238,624,6.99402,-31.5278,0,0,0,0,0,0,0,-1,986,400,6.99404,31.5278
-231,624,3.86121,-29.6032,0,0,0,0,0,0,0,-1,993,400,3.86122,29.6032
-224,624,4.59351,-27.4048,0,0,0,0,0,0,0,-1,1000,400,4.59353,27.4048
-217,624,9.39142,-50.7224,0,0,0,0,0,0,0,-1,1007,400,9.39142,50.7224
-210,624,9.65839,-57.4372,0,0,0,0,0,0,0,-1,1014,400,9.65841,57.4372
-203,624,9.56946,-68.5125,0,0,0,0,0,0,0,-1,1021,400,9.56951,68.5125
-196,624,9.81567,-88.2332,0,0,0,0,0,0,0,-1,1028,400,9.8157,88.2333
-189,624,9.90796,-108.95,0,0,0,0,0,0,0,-1,1035,400,9.90798,108.95
-182,624,9.73926,-107.138,0,0,0,0,0,0,0,-1,1042,400,9.73923,107.138
-175,624,9.60266,-111.051,0,0,0,0,0,0,0,-1,1049,400,9.60261,111.051
-168,624,-2.24756,-230.602,0,0,0,0,0,0,0,-1,1056,400,-2.2476,230.602
-161,624,-2.49377,-233.176,0,0,0,0,0,0,0,-1,1063,400,-2.49377,233.176
-154,624,-2.81677,-235.279,0.0154773,0.0143787,0.00159028,0.0166105,0.0132455,0.619097,0.0101399,0.0137729,1070,400,-2.81679,235.279
-147,624,-3.06482,-237.377,0.0181653,0.0118518,0.00291646,0.0193063,0.0107108,0.372926,0.0111688,0.0156784,1077,400,-3.06485,237.377
-140,624,-3.20996,-239.416,0.0208091,0.00920631,0.00400679,0.0220583,0.00795714,0.302214,0.012899,0.0130953,1084,400,-3.20995,239.416
-133,624,-3.33386,-241.404,0.0234084,0.00700273,0.00509676,0.0248628,0.00554826,0.277983,0.0150702,0.0142382,1091,400,-3.33386,241.404
-126,624,-3.36182,-243.352,0.0257386,0.00529202,0.00640508,0.0275794,0.00345129,0.279845,0.0173506,0.0203831,1098,400,-3.36178,243.352
-119,624,-3.40527,-245.196,0.027984,0.00353827,0.00769628,0.0302052,0.00131706,0.280973,0.0197125,0.0245729,1105,400,-3.40532,245.196
-112,624,-3.39441,-246.912,0.0302081,0.00179756,0.00885183,0.0327403,-0.000734687,0.278629,0.0220759,0.0261207,1112,400,-3.39435,246.912
-105,624,-3.36218,-248.686,0.0322981,0.000484767,0.00974365,0.0350451,-0.00226227,0.274799,0.0241529,0.0203117,1119,400,-3.3622,248.686
-98,624,-3.33826,-250.355,0.0344073,-0.000896451,0.0105295,0.0373092,-0.0037984,0.268925,0.0262308,0.0206619,1126,400,-3.3382,250.355
-91,624,-3.29199,-251.947,0.0366709,-0.00211277,0.0112216,0.0396837,-0.00512554,0.262295,0.0283194,0.0294152,1133,400,-3.29197,251.947
-84,624,-3.42151,-253.444,0.0389892,-0.00314844,0.0116561,0.0419986,-0.00615782,0.252663,0.0302612,0.0264482,1140,400,-3.42157,253.444
-77,624,-3.21008,-254.829,0.0413042,-0.00404018,0.0118358,0.0442077,-0.00694366,0.240562,0.0320382,0.0241058,1147,400,-3.21004,254.829
-70,624,-3.09314,-255.932,0.0436074,-0.00495365,0.0118089,0.0463267,-0.00767303,0.226336,0.0337343,0.0394845,1154,400,-3.09319,255.932
-63,624,-2.78699,-257.239,0.0457692,-0.00611389,0.0115964,0.0482431,-0.00858784,0.210187,0.0353739,0.0381156,1161,400,-2.78698,257.239
-56,624,-2.46899,-258.612,0.0479216,-0.00750252,0.01124,0.0501143,-0.00969526,0.192663,0.0370664,0.032317,1168,400,-2.469,258.612
-49,624,-2.22351,-259.91,0.0503112,-0.00898265,0.0108108,0.0522207,-0.0108922,0.174834,0.0389555,0.0168842,1175,400,-2.22355,259.91
-42,624,-1.97217,-260.978,0.0523784,-0.0103229,0.0103743,0.0540503,-0.0119948,0.159784,0.0406264,0.0148496,1182,400,-1.97212,260.978
-35,624,-1.65332,-261.991,0.0542676,-0.0113765,0.0100345,0.0557673,-0.0128762,0.14835,0.0421313,0.0220199,1189,400,-1.65327,261.991
-28,624,-1.37646,-263.032,0.0561272,-0.0122586,0.00963825,0.0574596,-0.013591,0.137375,0.0435495,0.0247954,1196,400,-1.37652,263.032
-21,624,-1.1156,-263.907,0.0578392,-0.0130498,0.00919717,0.059013,-0.0142236,0.126941,0.0448416,0.0175363,1203,400,-1.11565,263.907
-14,624,-0.826904,-264.687,0.0596475,-0.0135395,0.00866376,0.0606591,-0.0145511,0.116238,0.0460624,0.0220124,1210,400,-0.826858,264.687
-7,624,-0.474976,-265.503,0.0613851,-0.0135466,0.00821005,0.0622741,-0.0144356,0.107862,0.0470716,0.0301625,1217,400,-0.47492,265.503
0,624,-0.00915527,-266.118,0.0630985,-0.0136741,0.00774819,0.0638727,-0.0144482,0.0995859,0.0481263,0.0352491,1224,400,-0.00909619,266.118
7,624,0.564087,-266.627,0.0645524,-0.0136692,0.00728671,0.0652254,-0.0143422,0.0920987,0.0489695,0.0247829,1231,400,0.564037,266.627
14,624,0.915283,-267.248,0.06585,-0.0137318,0.00679364,0.0664258,-0.0143076,0.0845515,0.0497437,0.0196089,1238,400,0.915233,267.248
21,624,1.30872,-267.717,0.0673544,-0.0137857,0.00620604,0.0678263,-0.0142576,0.0758972,0.0506435,0.0267376,1245,400,1.30876,267.717
28,624,1.71692,-268.091,0.0689421,-0.0137677,0.00549042,0.0693049,-0.0141306,0.0659958,0.051563,0.0263614,1252,400,1.71692,268.091
35,624,2.21204,-268.322,0.0701752,-0.0136411,0.00475025,0.0704436,-0.0139095,0.0564337,0.0522201,0.026484,1259,400,2.21206,268.322
42,624,2.79138,-268.628,0.0710679,-0.0136463,0.00404743,0.0712608,-0.0138392,0.0476329,0.0527291,0.0431151,1266,400,2.79135,268.628
49,624,3.26001,-268.859,0,0,0,0,0,0,0,-1,1273,400,3.26005,268.859
56,624,3.75952,-268.941,0.0735997,-0.0132892,0.00267599,0.073682,-0.0133716,0.030759,0.0541319,0.0391689,1280,400,3.75958,268.941
63,624,4.10181,-268.994,0.0745346,-0.0136057,0.00148927,0.0745598,-0.0136309,0.0168902,0.054818,0.0217596,1287,400,4.10186,268.994
70,624,4.46948,-268.985,0.0747654,-0.0136978,0.000263211,0.0747662,-0.0136986,0.00297534,0.0549821,0.0253161,1294,400,4.4695,268.985
77,624,5.10315,-268.795,0.0751756,-0.0136864,-0.000546908,0.075179,-0.0136898,-0.00615427,0.0552508,0.0347995,1301,400,5.10318,268.795
84,624,5.8446,-268.523,0.0758716,-0.0136451,-0.00147084,0.0758958,-0.0136692,-0.016425,0.0557154,0.0321591,1308,400,5.84455,268.523
91,624,6.30859,-268.302,0.0759126,-0.0136507,-0.00255322,0.0759854,-0.0137235,-0.0284766,0.0557968,0.0325421,1315,400,6.30864,268.302
98,624,6.71875,-268.132,0.0756661,-0.0133811,-0.00348755,0.0758025,-0.0135175,-0.0390853,0.0555914,0.0266878,1322,400,6.71869,268.132
105,624,7.1261,-267.818,0.0756693,-0.0129428,-0.00444683,0.0758919,-0.0131654,-0.0500156,0.055506,0.0213888,1329,400,7.12607,267.818
112,624,7.66125,-267.344,0.0757165,-0.0124552,-0.00544419,0.0760514,-0.0127901,-0.0614342,0.0554581,0.0223623,1336,400,7.66123,267.344
119,624,8.08936,-266.85,0.0749812,-0.0120357,-0.00618667,0.0754189,-0.0124733,-0.0706239,0.0549113,0.0222427,1343,400,8.08936,266.85
126,624,8.29382,-266.338,0.0736342,-0.0116782,-0.00675776,0.0741662,-0.0122102,-0.078559,0.0539765,0.0271807,1350,400,8.2938,266.338
133,624,8.93518,-265.578,0.0720321,-0.0113282,-0.00715439,0.0726417,-0.0119378,-0.0849965,0.0528583,0.0283786,1357,400,8.93518,265.578
140,624,9.37085,-264.842,0.0704627,-0.0108668,-0.0076092,0.0711685,-0.0115726,-0.0924906,0.0517364,0.0243934,1364,400,9.37089,264.842
147,624,9.74146,-263.923,0.0686575,-0.0101997,-0.00832642,0.0695271,-0.0110693,-0.10406,0.0504476,0.0329663,1371,400,9.7414,263.923
154,624,10.3347,-263.109,0.066245,-0.0097796,-0.00906997,0.0673121,-0.0108467,-0.117113,0.048893,0.0347196,1378,400,10.3347,263.109
161,624,10.8406,-262.266,0.063521,-0.00827311,-0.00915521,0.0646701,-0.0094222,-0.124859,0.0465729,0.0291012,1385,400,10.8405,262.266
168,624,11.108,-261.218,0.0611998,-0.00685587,-0.0092238,0.0624278,-0.00808385,-0.132353,0.0445582,0.0286184,1392,400,11.108,261.218
175,624,11.3621,-260.197,0.0593519,-0.00548249,-0.00966479,0.0607619,-0.00689254,-0.144874,0.04299,0.0230493,1399,400,11.362,260.197
182,624,11.4821,-258.993,0.056745,-0.00383079,-0.0103941,0.0584788,-0.00556467,-0.165292,0.040967,0.0169991,1406,400,11.4821,258.993
189,624,11.8066,-257.564,0.0540846,-0.0022353,-0.0108298,0.0560953,-0.004246,-0.183573,0.0388895,0.0252817,1413,400,11.8066,257.564
196,624,11.9814,-256.292,0.0518021,-0.000415121,-0.0109972,0.0540236,-0.00263667,-0.199328,0.036926,0.029102,1420,400,11.9814,256.292
203,624,12.3025,-255.089,0,0,0,0,0,0,0,-1,1427,400,12.3025,255.089
210,624,12.5371,-253.852,0,0,0,0,0,0,0,-1,1434,400,12.5371,253.852
217,624,12.8253,-252.143,0.0467381,0.00541169,-0.0112627,0.0496082,0.00254158,-0.249522,0.0322584,0.0292824,1441,400,12.8253,252.143
224,624,12.8856,-250.67,0.0451629,0.00722425,-0.0112495,0.0482478,0.00413939,-0.267642,0.030878,0.0226731,1448,400,12.8856,250.67
231,624,13.0945,-249.038,0.0434481,0.00896583,-0.01113,0.0467286,0.00568541,-0.28662,0.0294408,0.0184328,1455,400,13.0945,249.038
238,624,13.3186,-247.336,0.0415263,0.0104619,-0.0109943,0.0450236,0.00696455,-0.307983,0.0279846,0.0258687,1462,400,13.3186,247.336
245,624,13.3066,-245.697,0.0392052,0.0119447,-0.0106724,0.0428864,0.00826357,-0.332141,0.0262732,0.0240848,1469,400,13.3067,245.697
252,624,13.0809,-243.79,0.0367254,0.0132793,-0.0101332,0.0404979,0.00950685,-0.356392,0.0244536,0.0217303,1476,400,13.081,243.79
259,624,13.1953,-241.764,0.0341444,0.0142467,-0.00951887,0.0379646,0.0104265,-0.381658,0.0226489,0.0179111,1483,400,13.1953,241.764
266,624,13.2791,-239.788,0.0313482,0.0141618,-0.00916759,0.0353203,0.0101897,-0.408864,0.0209916,0.0200517,1490,400,13.279,239.788
273,624,13.1281,-237.75,0.0286262,0.0150452,-0.00831074,0.0325679,0.0111035,-0.442864,0.0191176,0.0210473,1497,400,13.128,237.75
280,624,12.8713,-235.565,0.0256523,0.0158358,-0.00775911,0.0299253,0.0115629,-0.503382,0.0174254,0.0234669,1504,400,12.8713,235.565
287,624,12.7776,-233.472,0.0221513,0.0164018,-0.0070177,0.0268602,0.0116928,-0.591002,0.0155509,0.0277544,1511,400,12.7776,233.472
294,624,12.6362,-231.404,0,0,0,0,0,0,0,-1,1518,400,12.6362,231.404
301,624,12.3073,-228.769,0,0,0,0,0,0,0,-1,1525,400,12.3073,228.769
308,624,11.9984,-225.987,0,0,0,0,0,0,0,-1,1532,400,11.9984,225.987
315,624,0.643066,-177.551,0,0,0,0,0,0,0,-1,1539,400,0.643077,177.551
322,624,4.60291,-127.623,0,0,0,0,0,0,0,-1,1546,400,4.60288,127.623
329,624,4.22205,-125.324,0,0,0,0,0,0,0,-1,1553,400,4.22199,125.324
336,624,7.32373,-84.7607,0,0,0,0,0,0,0,-1,1560,400,7.32378,84.7607
343,624,6.53369,-39.5615,0,0,0,0,0,0,0,-1,1567,400,6.53364,39.5615
350,624,1.99194,-7.29742,0,0,0,0,0,0,0,-1,1574,400,1.99198,7.29741
357,624,2.64075,-3.13092,0,0,0,0,0,0,0,-1,1581,400,2.64076,3.13091
364,624,3.16565,-4.9458,0,0,0,0,0,0,0,-1,1588,400,3.16564,4.94579
371,624,3.37561,-5.23529,0,0,0,0,0,0,0,-1,1595,400,3.37563,5.23529
378,624,1.50439,-5.22165,0,0,0,0,0,0,0,-1,1602,400,1.50438,5.22164
385,624,1.2301,-10.5866,0,0,0,0,0,0,0,-1,1609,400,1.2301,10.5866
392,624,4.26819,-5.14236,0,0,0,0,0,0,0,-1,1616,400,4.26818,5.14236
399,624,2.22168,-9.19293,0,0,0,0,0,0,0,-1,1623,400,2.22173,9.19294
406,624,2.68213,-9.91171,0,0,0,0,0,0,0,-1,1630,400,2.68213,9.91171
413,624,0,0,0,0,0,0,0,0,0,-1,1637,400,0,0
420,624,0,0,0,0,0,0,0,0,0,-1,1644,400,0,0
427,624,0,0,0,0,0,0,0,0,0,-1,1651,400,0,0
434,624,0,0,0,0,0,0,0,0,0,-1,1658,400,0,0
441,624,0,0,0,0,0,0,0,0,0,-1,1665,400,0,0
448,624,0,0,0,0,0,0,0,0,0,-1,1672,400,0,0
455,624,0,0,0,0,0,0,0,0,0,-1,1679,400,0,0
462,624,0,0,0,0,0,0,0,0,0,-1,1686,400,0,0
469,624,0,0,0,0,0,0,0,0,0,-1,1693,400,0,0
476,624,0,0,0,0,0,0,0,0,0,-1,1700,400,0,0
483,624,0,0,0,0,0,0,0,0,0,-1,1707,400,0,0
490,624,0,0,0,0,0,0,0,0,0,-1,1714,400,0,0
497,624,0,0,0,0,0,0,0,0,0,-1,1721,400,0,0
504,624,0,0,0,0,0,0,0,0,0,-1,1728,400,0,0
511,624,0,0,0,0,0,0,0,0,0,-1,1735,400,0,0
518,624,0,0,0,0,0,0,0,0,0,-1,1742,400,0,0
525,624,0,0,0,0,0,0,0,0,0,-1,1749,400,0,0
532,624,0,0,0,0,0,0,0,0,0,-1,1756,400,0,0
539,624,0,0,0,0,0,0,0,0,0,-1,1763,400,0,0
546,624,0,0,0,0,0,0,0,0,0,-1,1770,400,0,0
553,624,0,0,0,0,0,0,0,0,0,-1,1777,400,0,0
560,624,0,0,0,0,0,0,0,0,0,-1,1784,400,0,0
567,624,0,0,0,0,0,0,0,0,0,-1,1791,400,0,0
574,624,0,0,0,0,0,0,0,0,0,-1,1798,400,0,0
581,624,0,0,0,0,0,0,0,0,0,-1,1805,400,0,0
588,624,0,0,0,0,0,0,0,0,0,-1,1812,400,0,0
595,624,0,0,0,0,0,0,0,0,0,-1,1819,400,0,0
602,624,0,0,0,0,0,0,0,0,0,-1,1826,400,0,0
609,624,0,0,0,0,0,0,0,0,0,-1,1833,400,0,0
616,624,0,0,0,0,0,0,0,0,0,-1,1840,400,0,0
623,624,0,0,0,0,0,0,0,0,0,-1,1847,400,0,0
630,624,0,0,0,0,0,0,0,0,0,-1,1854,400,0,0
637,624,0,0,0,0,0,0,0,0,0,-1,1861,400,0,0
644,624,0,0,0,0,0,0,0,0,0,-1,1868,400,0,0
651,624,0,0,0,0,0,0,0,0,0,-1,1875,400,0,0
658,624,0,0,0,0,0,0,0,0,0,-1,1882,400,0,0
665,624,0,0,0,0,0,0,0,0,0,-1,1889,400,0,0
672,624,0,0,0,0,0,0,0,0,0,-1,1896,400,0,0
679,624,0,0,0,0,0,0,0,0,0,-1,1903,400,0,0
686,624,0,0,0,0,0,0,0,0,0,-1,1910,400,0,0
693,624,0,0,0,0,0,0,0,0,0,-1,1917,400,0,0
700,624,0,0,0,0,0,0,0,0,0,-1,1924,400,0,0
707,624,0,0,0,0,0,0,0,0,0,-1,1931,400,0,0
714,624,0,0,0,0,0,0,0,0,0,-1,1938,400,0,0
721,624,0,0,0,0,0,0,0,0,0,-1,1945,400,0,0
728,624,0,0,0,0,0,0,0,0,0,-1,1952,400,0,0
735,624,0,0,0,0,0,0,0,0,0,-1,1959,400,0,0
742,624,0,0,0,0,0,0,0,0,0,-1,1966,400,0,0
749,624,0,0,0,0,0,0,0,0,0,-1,1973,400,0,0
756,624,0,0,0,0,0,0,0,0,0,-1,1980,400,0,0
763,624,0,0,0,0,0,0,0,0,0,-1,1987,400,0,0
770,624,0,0,0,0,0,0,0,0,0,-1,1994,400,0,0
777,624,0,0,0,0,0,0,0,0,0,-1,2001,400,0,0
784,624,0,0,0,0,0,0,0,0,0,-1,2008,400,0,0
791,624,0,0,0,0,0,0,0,0,0,-1,2015,400,0,0
798,624,0,0,0,0,0,0,0,0,0,-1,2022,400,0,0
805,624,0,0,0,0,0,0,0,0,0,-1,2029,400,0,0
812,624,0,0,0,0,0,0,0,0,0,-1,2036,400,0,0
-700,617,0,0,0,0,0,0,0,0,0,-1,524,407,0,0
-693,617,0,0,0,0,0,0,0,0,0,-1,531,407,0,0
-686,617,0,0,0,0,0,0,0,0,0,-1,538,407,0,0
-679,617,0,0,0,0,0,0,0,0,0,-1,545,407,0,0
-672,617,0,0,0,0,0,0,0,0,0,-1,552,407,0,0
-665,617,0,0,0,0,0,0,0,0,0,-1,559,407,0,0
-658,617,0,0,0,0,0,0,0,0,0,-1,566,407,0,0
-651,617,0,0,0,0,0,0,0,0,0,-1,573,407,0,0
-644,617,0,0,0,0,0,0,0,0,0,-1,580,407,0,0
-637,617,0,0,0,0,0,0,0,0,0,-1,587,407,0,0
-630,617,0,0,0,0,0,0,0,0,0,-1,594,407,0,0
-623,617,0,0,0,0,0,0,0,0,0,-1,601,407,0,0
-616,617,0,0,0,0,0,0,0,0,0,-1,608,407,0,0
-609,617,0,0,0,0,0,0,0,0,0,-1,615,407,0,0
-602,617,0,0,0,0,0,0,0,0,0,-1,622,407,0,0
-595,617,0,0,0,0,0,0,0,0,0,-1,629,407,0,0
-588,617,0,0,0,0,0,0,0,0,0,-1,636,407,0,0
-581,617,0,0,0,0,0,0,0,0,0,-1,643,407,0,0
-574,617,0,0,0,0,0,0,0,0,0,-1,650,407,0,0
-567,617,0,0,0,0,0,0,0,0,0,-1,657,407,0,0
-560,617,0,0,0,0,0,0,0,0,0,-1,664,407,0,0
-553,617,0,0,0,0,0,0,0,0,0,-1,671,407,0,0
-546,617,0,0,0,0,0,0,0,0,0,-1,678,407,0,0
-539,617,0,0,0,0,0,0,0,0,0,-1,685,407,0,0
-532,617,0,0,0,0,0,0,0,0,0,-1,692,407,0,0
-525,617,0,0,0,0,0,0,0,0,0,-1,699,407,0,0
-518,617,0,0,0,0,0,0,0,0,0,-1,706,407,0,0
-511,617,0,0,0,0,0,0,0,0,0,-1,713,407,0,0
-504,617,0,0,0,0,0,0,0,0,0,-1,720,407,0,0
-497,617,0,0,0,0,0,0,0,0,0,-1,727,407,0,0
-490,617,0,0,0,0,0,0,0,0,0,-1,734,407,0,0
-483,617,0,0,0,0,0,0,0,0,0,-1,741,407,0,0
-476,617,0,0,0,0,0,0,0,0,0,-1,748,407,0,0
-469,617,0,0,0,0,0,0,0,0,0,-1,755,407,0,0
-462,617,0,0,0,0,0,0,0,0,0,-1,762,407,0,0
-455,617,0,0,0,0,0,0,0,0,0,-1,769,407,0,0
-448,617,0,0,0,0,0,0,0,0,0,-1,776,407,0,0
-441,617,0,0,0,0,0,0,0,0,0,-1,783,407,0,0
-434,617,0,0,0,0,0,0,0,0,0,-1,790,407,0,0
-427,617,0,0,0,0,0,0,0,0,0,-1,797,407,0,0
-420,617,0,0,0,0,0,0,0,0,0,-1,804,407,0,0
-413,617,0,0,0,0,0,0,0,0,0,-1,811,407,0,0
-406,617,0,0,0,0,0,0,0,0,0,-1,818,407,0,0
-399,617,0,0,0,0,0,0,0,0,0,-1,825,407,0,0
-392,617,0,0,0,0,0,0,0,0,0,-1,832,407,0,0
-385,617,0,0,0,0,0,0,0,0,0,-1,839,407,0,0
-378,617,0,0,0,0,0,0,0,0,0,-1,846,407,0,0
-371,617,0,0,0,0,0,0,0,0,0,-1,853,407,0,0
-364,617,0,0,0,0,0,0,0,0,0,-1,860,407,0,0
-357,617,0,0,0,0,0,0,0,0,0,-1,867,407,0,0
-350,617,0,0,0,0,0,0,0,0,0,-1,874,407,0,0
-343,617,0,0,0,0,0,0,0,0,0,-1,881,407,0,0
-336,617,0,0,0,0,0,0,0,0,0,-1,888,407,0,0
-329,617,0,0,0,0,0,0,0,0,0,-1,895,407,0,0
-322,617,0,0,0,0,0,0,0,0,0,-1,902,407,0,0
-315,617,0,0,0,0,0,0,0,0,0,-1,909,407,0,0
-308,617,0,0,0,0,0,0,0,0,0,-1,916,407,0,0
-301,617,6.81897,-24.525,0,0,0,0,0,0,0,-1,923,407,6.81899,24.525
-294,617,6.19263,-26.917,0,0,0,0,0,0,0,-1,930,407,6.19261,26.917
-287,617,7.00409,-31.9773,0,0,0,0,0,0,0,-1,937,407,7.00406,31.9773
-280,617,9.1106,-36.5021,0,0,0,0,0,0,0,-1,944,407,9.11059,36.5021
-273,617,8.35004,-36.2751,0,0,0,0,0,0,0,-1,951,407,8.35003,36.2751
-266,617,7.61749,-36.1671,0,0,0,0,0,0,0,-1,958,407,7.61746,36.1671
-259,617,6.83643,-36.3605,0,0,0,0,0,0,0,-1,965,407,6.83643,36.3605
-252,617,6.02264,-36.5001,0,0,0,0,0,0,0,-1,972,407,6.02265,36.5001
-245,617,6.72626,-34.4465,0,0,0,0,0,0,0,-1,979,407,6.72627,34.4465
-238,617,5.6474,-34.6842,0,0,0,0,0,0,0,-1,986,407,5.64741,34.6842
-231,617,8.70416,-54.2625,0,0,0,0,0,0,0,-1,993,407,8.70417,54.2624
-224,617,8.59882,-64.002,0,0,0,0,0,0,0,-1,1000,407,8.59879,64.002
-217,617,8.79517,-79.8425,0,0,0,0,0,0,0,-1,1007,407,8.79519,79.8425
-210,617,7.15131,-152.502,0,0,0,0,0,0,0,-1,1014,407,7.15128,152.502
-203,617,7.49023,-144.245,0,0,0,0,0,0,0,-1,1021,407,7.49021,144.245
-196,617,-3.36426,-220.401,0,0,0,0,0,0,0,-1,1028,407,-3.36431,220.401
-189,617,-3.67102,-223.31,0,0,0,0,0,0,0,-1,1035,407,-3.67096,223.31
-182,617,-4.13,-225.834,0,0,0,0,0,0,0,-1,1042,407,-4.12997,225.834
-175,617,-4.32703,-227.947,0,0,0,0,0,0,0,-1,1049,407,-4.32698,227.947
-168,617,-4.56824,-230.476,0.0179915,0.012984,0.00384992,0.0200802,0.0108953,0.497092,0.0116073,0.0318248,1056,407,-4.56825,230.476
-161,617,-4.79419,-232.885,0.020983,0.0105675,0.00559204,0.0234167,0.00813379,0.410481,0.0137281,0.0181895,1063,407,-4.79421,232.885
-154,617,-5.05139,-235.033,0.0237969,0.00797096,0.00711441,0.0265248,0.00524297,0.366155,0.0162205,0.0183827,1070,407,-5.05142,235.033
-147,617,-5.146,-237.149,0.0265606,0.00582611,0.00836016,0.0295114,0.00287524,0.339316,0.0187894,0.0254186,1077,407,-5.14601,237.149
-140,617,-5.24316,-239.236,0.0292893,0.00359017,0.00939936,0.0323602,0.000519332,0.315775,0.0214024,0.017548,1084,407,-5.24313,239.236
-133,617,-5.32727,-241.194,0.0319322,0.00163443,0.0104035,0.0351605,-0.00159389,0.300889,0.0239893,0.0205238,1091,407,-5.3273,241.194
-126,617,-5.30505,-243.069,0.0343166,9.46638e-05,0.0114437,0.0377906,-0.00337939,0.294736,0.0263924,0.0219743,1098,407,-5.30499,243.069
-119,617,-5.3739,-244.882,0.0365906,-0.00125321,0.0125355,0.0403662,-0.00502883,0.292552,0.0287341,0.0219859,1105,407,-5.37395,244.882
-112,617,-5.34045,-246.617,0.0389329,-0.00268791,0.0135382,0.042949,-0.00670403,0.288381,0.0311091,0.0260811,1112,407,-5.34041,246.617
-105,617,-5.17981,-248.384,0.0412806,-0.00370985,0.0141939,0.0453843,-0.00781354,0.281442,0.0331689,0.0254949,1119,407,-5.17981,248.384
-98,617,-5.11133,-250.05,0.0436845,-0.00473526,0.0146709,0.0477828,-0.00883359,0.272406,0.0351715,0.0179,1126,407,-5.11131,250.05
-91,617,-5.01147,-251.697,0.0462017,-0.00580703,0.0149822,0.0502089,-0.00981422,0.261346,0.0371783,0.0252183,1133,407,-5.01147,251.697
-84,617,-4.87891,-253.193,0.0486335,-0.00674874,0.0150167,0.0524432,-0.0105584,0.248453,0.0389614,0.0261154,1140,407,-4.87889,253.193
-77,617,-4.68665,-254.569,0.0511242,-0.00777155,0.0148661,0.0546639,-0.0113112,0.233751,0.0407398,0.0226771,1147,407,-4.68659,254.569
-70,617,-4.67761,-255.728,0.0535575,-0.00892126,0.0145632,0.0567853,-0.012149,0.218114,0.0424895,0.0431076,1154,407,-4.67756,255.728
-63,617,-4.30908,-256.695,0,0,0,0,0,0,0,-1,1161,407,-4.30902,256.695
-56,617,-3.85291,-258.462,0.0581113,-0.0123569,0.0135578,0.0606298,-0.0148753,0.183664,0.0461838,0.0392305,1168,407,-3.85289,258.462
-49,617,-3.42188,-259.795,0.0607105,-0.0142907,0.0128824,0.0628616,-0.0164417,0.165447,0.0483297,0.0219131,1175,407,-3.42193,259.795
-42,617,-3.07654,-260.88,0.0628065,-0.0159994,0.0123003,0.0646817,-0.0178747,0.151291,0.0501526,0.0171782,1182,407,-3.07657,260.88
-35,617,-2.75769,-261.789,0.0647216,-0.0174162,0.0118688,0.0664022,-0.0190969,0.140666,0.0518203,0.0254523,1189,407,-2.75765,261.789
-28,617,-2.47815,-262.732,0.0667648,-0.0186619,0.0114052,0.0682613,-0.0201584,0.130465,0.0535081,0.0261646,1196,407,-2.47811,262.732
-21,617,-2.08069,-263.589,0.0686544,-0.0197413,0.0109206,0.0699835,-0.0210705,0.121116,0.0550404,0.0171602,1203,407,-2.08072,263.589
-14,617,-1.6095,-264.363,0.070614,-0.0204931,0.0102527,0.0717535,-0.0216326,0.11069,0.0564457,0.021371,1210,407,-1.60947,264.363
-7,617,-1.21729,-265.111,0.0724629,-0.0205571,0.00962537,0.0734485,-0.0215426,0.102036,0.0575076,0.0318295,1217,407,-1.21731,265.111
0,617,-0.702271,-265.852,0.0742464,-0.0206904,0.00896192,0.075085,-0.021529,0.0933006,0.0585672,0.0282647,1224,407,-0.70227,265.852
7,617,-0.0881348,-266.494,0.0757151,-0.0206898,0.00839473,0.0764406,-0.0214154,0.0862132,0.0593999,0.0199224,1231,407,-0.0880999,266.494
14,617,0.27832,-267.116,0.0770511,-0.0207363,0.00782037,0.0776725,-0.0213578,0.0793015,0.0601779,0.0224116,1238,407,0.27834,267.116
21,617,0.919922,-267.565,0.0786897,-0.0207498,0.00706063,0.0791886,-0.0212487,0.0705326,0.0611191,0.0233729,1245,407,0.919862,267.565
28,617,1.52576,-268.058,0.0804053,-0.0206022,0.00616521,0.0807802,-0.0209771,0.0607367,0.0620394,0.0228349,1252,407,1.52572,268.058
35,617,1.91895,-268.365,0.0816588,-0.0202897,0.00535501,0.0819393,-0.0205702,0.0523346,0.0626195,0.023781,1259,407,1.9189,268.365
42,617,2.49707,-268.467,0.0825123,-0.0201097,0.00463845,0.0827215,-0.0203189,0.0450769,0.0630221,0.029762,1266,407,2.49706,268.467
49,617,3.04492,-268.645,0,0,0,0,0,0,0,-1,1273,407,3.04488,268.645
56,617,3.51965,-268.781,0.0858481,-0.0191299,0.00334066,0.0859543,-0.0192361,0.0317796,0.0646756,0.0241895,1280,407,3.51967,268.781
63,617,4.01624,-268.816,0.0870355,-0.019443,0.00195725,0.0870714,-0.019479,0.0183733,0.0655131,0.0196294,1287,407,4.01627,268.816
70,617,4.71936,-268.812,0.0872651,-0.0194259,0.000459219,0.0872671,-0.0194279,0.00430409,0.0656198,0.0294322,1294,407,4.71938,268.812
77,617,5.42969,-268.713,0.0877814,-0.0194093,-0.000512938,0.0877838,-0.0194117,-0.00478514,0.0659524,0.0256218,1301,407,5.42967,268.713
84,617,5.99719,-268.558,0.0887888,-0.0195191,-0.00159367,0.0888123,-0.0195425,-0.01471,0.0666838,0.023035,1308,407,5.99724,268.558
91,617,6.44409,-268.248,0.0890407,-0.0197759,-0.00292993,0.0891195,-0.0198547,-0.0268995,0.0670189,0.021635,1315,407,6.44414,268.248
98,617,6.98962,-268.019,0.088822,-0.0196734,-0.004148,0.0889803,-0.0198317,-0.0381578,0.0669176,0.0211824,1322,407,6.98961,268.019
105,617,7.60303,-267.635,0.0888093,-0.0194511,-0.00536723,0.0890747,-0.0197166,-0.0494155,0.0669305,0.0221285,1329,407,7.60309,267.635
112,617,8.30212,-267.104,0.0888737,-0.0192187,-0.00664331,0.0892804,-0.0196255,-0.0611528,0.0670268,0.0256847,1336,407,8.3021,267.104
119,617,8.60754,-266.673,0.0879353,-0.0190887,-0.00754932,0.0884652,-0.0196186,-0.0700762,0.0664882,0.028847,1343,407,8.6075,266.673
126,617,8.8053,-266.164,0.0863438,-0.019094,-0.00818637,0.0869756,-0.0197258,-0.0770265,0.0655558,0.036649,1350,407,8.80533,266.165
133,617,9.64014,-265.404,0.0844873,-0.0190974,-0.0086808,0.0852097,-0.0198198,-0.0830321,0.0644373,0.0291074,1357,407,9.64015,265.404
140,617,10.2405,-264.61,0.0826795,-0.0188726,-0.00929731,0.0835236,-0.0197167,-0.0905491,0.0632869,0.0238406,1364,407,10.2405,264.61
147,617,10.6823,-263.702,0.0806359,-0.0183044,-0.0102072,0.081678,-0.0193464,-0.101737,0.0619166,0.0314099,1371,407,10.6822,263.702
154,617,11.3542,-262.918,0.0777592,-0.0180975,-0.0111316,0.0790349,-0.0193732,-0.114105,0.0601959,0.0351165,1378,407,11.3542,262.918
161,617,12.0431,-262.162,0,0,0,0,0,0,0,-1,1385,407,12.0431,262.162
168,617,12.2773,-261.201,0.0720173,-0.0149716,-0.0111195,0.0734162,-0.0163704,-0.125147,0.0552158,0.0275246,1392,407,12.2774,261.201
175,617,12.5656,-260.083,0.0702566,-0.0134999,-0.0116242,0.0718399,-0.0150832,-0.135377,0.0536327,0.0218899,1399,407,12.5656,260.083
182,617,12.812,-258.819,0.0670703,-0.0116136,-0.012604,0.06904,-0.0135832,-0.155019,0.051159,0.015068,1406,407,12.8121,258.819
189,617,13.0872,-257.476,0.0636663,-0.00996417,-0.013213,0.0659655,-0.0122634,-0.17229,0.0485835,0.017015,1413,407,13.0872,257.476
196,617,13.2644,-256.289,0.0610075,-0.00841477,-0.0134905,0.0635369,-0.0109442,-0.185343,0.0464378,0.0463,1420,407,13.2645,256.289
203,617,13.4841,-255.152,0,0,0,0,0,0,0,-1,1427,407,13.4842,255.152
210,617,14.153,-253.445,0,0,0,0,0,0,0,-1,1434,407,14.1529,253.445
217,617,14.368,-251.851,0.0556212,-0.0025995,-0.0140854,0.0588498,-0.00582815,-0.225327,0.0413132,0.0293538,1441,407,14.368,251.851
224,617,14.5868,-250.417,0.0542746,-0.000717222,-0.0143068,0.057774,-0.00421664,-0.239888,0.0399957,0.025242,1448,407,14.5868,250.417
231,617,14.808,-248.822,0.052694,0.00113221,-0.0143682,0.0564275,-0.00260131,-0.254223,0.0385147,0.021177,1455,407,14.808,248.822
238,617,15.0885,-247.175,0.0507904,0.00287455,-0.0143521,0.0547603,-0.00109537,-0.269862,0.0368774,0.0277133,1462,407,15.0885,247.175
245,617,15.2821,-245.492,0.0485286,0.00453483,-0.0141268,0.0526742,0.000389243,-0.285442,0.0349871,0.0212522,1469,407,15.2821,245.492
252,617,15.1692,-243.575,0.0461031,0.00609635,-0.0136553,0.0503196,0.00187983,-0.299494,0.0329377,0.026401,1476,407,15.1692,243.575
259,617,15.2363,-241.521,0.0435488,0.00747656,-0.013203,0.0478649,0.0031605,-0.31595,0.0309103,0.0293823,1483,407,15.2363,241.521
266,617,15.3782,-239.496,0.0407701,0.00809293,-0.0129523,0.0452813,0.00358178,-0.33515,0.0290672,0.0252262,1490,407,15.3782,239.496
273,617,15.2921,-237.383,0.0377947,0.00948655,-0.0122778,0.0423779,0.00490341,-0.357267,0.0267676,0.0204902,1497,407,15.2921,237.383
280,617,15.0822,-235.263,0.0345446,0.0108186,-0.011733,0.0393667,0.00599647,-0.389943,0.0244916,0.0238112,1504,407,15.0821,235.263
287,617,14.9602,-233.093,0.0309747,0.0118517,-0.0110244,0.0360063,0.00682009,-0.428171,0.0220847,0.0343813,1511,407,14.9602,233.093
294,617,14.9343,-230.868,0.0275124,0.0128873,-0.00979029,0.0324196,0.00798007,-0.464636,0.019505,0.0243471,1518,407,14.9343,230.868
301,617,14.7319,-228.585,0.0244611,0.0133628,-0.00831351,0.0289073,0.00891654,-0.491112,0.017093,0.017837,1525,407,14.7319,228.585
308,617,14.476,-226.093,0.0212784,0.0149644,-0.00658756,0.0254263,0.0108164,-0.56195,0.0147343,0.0383138,1532,407,14.476,226.093
315,617,14.1473,-223.771,0,0,0,0,0,0,0,-1,1539,407,14.1473,223.771
322,617,13.8722,-221.009,0,0,0,0,0,0,0,-1,1546,407,13.8722,221.009
329,617,13.4055,-218.347,0,0,0,0,0,0,0,-1,1553,407,13.4055,218.347
336,617,3.7113,-147.346,0,0,0,0,0,0,0,-1,1560,407,3.7113,147.346
343,617,4.15369,-139.098,0,0,0,0,0,0,0,-1,1567,407,4.15371,139.098
350,617,2.8457,-140.993,0,0,0,0,0,0,0,-1,1574,407,2.84567,140.993
357,617,2.63464,-139.438,0,0,0,0,0,0,0,-1,1581,407,2.63469,139.438
364,617,0.620972,-140.778,0,0,0,0,0,0,0,-1,1588,407,0.62097,140.778
371,617,2.60266,-6.20667,0,0,0,0,0,0,0,-1,1595,407,2.60261,6.20668
378,617,8.75098,-47.4916,0,0,0,0,0,0,0,-1,1602,407,8.75093,47.4916
385,617,1.74146,-10.3561,0,0,0,0,0,0,0,-1,1609,407,1.7414,10.3561
392,617,1.96936,-5.10449,0,0,0,0,0,0,0,-1,1616,407,1.96931,5.10451
399,617,2.48889,-5.81256,0,0,0,0,0,0,0,-1,1623,407,2.48888,5.81255
406,617,3.01465,-6.51642,0,0,0,0,0,0,0,-1,1630,407,3.01461,6.51643
413,617,5.66919,-50.9252,0,0,0,0,0,0,0,-1,1637,407,5.66925,50.9252
420,617,5.401,-51.0232,0,0,0,0,0,0,0,-1,1644,407,5.40098,51.0232
427,617,0,0,0,0,0,0,0,0,0,-1,1651,407,0,0
434,617,0,0,0,0,0,0,0,0,0,-1,1658,407,0,0
441,617,0,0,0,0,0,0,0,0,0,-1,1665,407,0,0
448,617,0,0,0,0,0,0,0,0,0,-1,1672,407,0,0
455,617,0,0,0,0,0,0,0,0,0,-1,1679,407,0,0
462,617,0,0,0,0,0,0,0,0,0,-1,1686,407,0,0
469,617,0,0,0,0,0,0,0,0,0,-1,1693,407,0,0
476,617,0,0,0,0,0,0,0,0,0,-1,1700,407,0,0
483,617,0,0,0,0,0,0,0,0,0,-1,1707,407,0,0
490,617,0,0,0,0,0,0,0,0,0,-1,1714,407,0,0
497,617,0,0,0,0,0,0,0,0,0,-1,1721,407,0,0
504,617,0,0,0,0,0,0,0,0,0,-1,1728,407,0,0
511,617,0,0,0,0,0,0,0,0,0,-1,1735,407,0,0
518,617,0,0,0,0,0,0,0,0,0,-1,1742,407,0,0
525,617,0,0,0,0,0,0,0,0,0,-1,1749,407,0,0
532,617,0,0,0,0,0,0,0,0,0,-1,1756,407,0,0
539,617,0,0,0,0,0,0,0,0,0,-1,1763,407,0,0
546,617,0,0,0,0,0,0,0,0,0,-1,1770,407,0,0
553,617,0,0,0,0,0,0,0,0,0,-1,1777,407,0,0
560,617,0,0,0,0,0,0,0,0,0,-1,1784,407,0,0
567,617,0,0,0,0,0,0,0,0,0,-1,1791,407,0,0
574,617,0,0,0,0,0,0,0,0,0,-1,1798,407,0,0
581,617,0,0,0,0,0,0,0,0,0,-1,1805,407,0,0
588,617,0,0,0,0,0,0,0,0,0,-1,1812,407,0,0
595,617,0,0,0,0,0,0,0,0,0,-1,1819,407,0,0
602,617,0,0,0,0,0,0,0,0,0,-1,1826,407,0,0
609,617,0,0,0,0,0,0,0,0,0,-1,1833,407,0,0
616,617,0,0,0,0,0,0,0,0,0,-1,1840,407,0,0
623,617,0,0,0,0,0,0,0,0,0,-1,1847,407,0,0
630,617,0,0,0,0,0,0,0,0,0,-1,1854,407,0,0
637,617,0,0,0,0,0,0,0,0,0,-1,1861,407,0,0
644,617,0,0,0,0,0,0,0,0,0,-1,1868,407,0,0
651,617,0,0,0,0,0,0,0,0,0,-1,1875,407,0,0
658,617,0,0,0,0,0,0,0,0,0,-1,1882,407,0,0
665,617,0,0,0,0,0,0,0,0,0,-1,1889,407,0,0
672,617,0,0,0,0,0,0,0,0,0,-1,1896,407,0,0
679,617,0,0,0,0,0,0,0,0,0,-1,1903,407,0,0
686,617,0,0,0,0,0,0,0,0,0,-1,1910,407,0,0
693,617,0,0,0,0,0,0,0,0,0,-1,1917,407,0,0
700,617,0,0,0,0,0,0,0,0,0,-1,1924,407,0,0
707,617,0,0,0,0,0,0,0,0,0,-1,1931,407,0,0
714,617,0,0,0,0,0,0,0,0,0,-1,1938,407,0,0
721,617,0,0,0,0,0,0,0,0,0,-1,1945,407,0,0
728,617,0,0,0,0,0,0,0,0,0,-1,1952,407,0,0
735,617,0,0,0,0,0,0,0,0,0,-1,1959,407,0,0
742,617,0,0,0,0,0,0,0,0,0,-1,1966,407,0,0
749,617,0,0,0,0,0,0,0,0,0,-1,1973,407,0,0
756,617,0,0,0,0,0,0,0,0,0,-1,1980,407,0,0
763,617,0,0,0,0,0,0,0,0,0,-1,1987,407,0,0
770,617,0,0,0,0,0,0,0,0,0,-1,1994,407,0,0
777,617,0,0,0,0,0,0,0,0,0,-1,2001,407,0,0
784,617,0,0,0,0,0,0,0,0,0,-1,2008,407,0,0
791,617,0,0,0,0,0,0,0,0,0,-1,2015,407,0,0
798,617,0,0,0,0,0,0,0,0,0,-1,2022,407,0,0
805,617,0,0,0,0,0,0,0,0,0,-1,2029,407,0,0
812,617,0,0,0,0,0,0,0,0,0,-1,2036,407,0,0
-700,610,0,0,0,0,0,0,0,0,0,-1,524,414,0,0
-693,610,0,0,0,0,0,0,0,0,0,-1,531,414,0,0
-686,610,0,0,0,0,0,0,0,0,0,-1,538,414,0,0
-679,610,0,0,0,0,0,0,0,0,0,-1,545,414,0,0
-672,610,0,0,0,0,0,0,0,0,0,-1,552,414,0,0
-665,610,0,0,0,0,0,0,0,0,0,-1,559,414,0,0
-658,610,0,0,0,0,0,0,0,0,0,-1,566,414,0,0
-651,610,0,0,0,0,0,0,0,0,0,-1,573,414,0,0
-644,610,0,0,0,0,0,0,0,0,0,-1,580,414,0,0
-637,610,0,0,0,0,0,0,0,0,0,-1,587,414,0,0
-630,610,0,0,0,0,0,0,0,0,0,-1,594,414,0,0
-623,610,0,0,0,0,0,0,0,0,0,-1,601,414,0,0
-616,610,0,0,0,0,0,0,0,0,0,-1,608,414,0,0
-609,610,0,0,0,0,0,0,0,0,0,-1,615,414,0,0
-602,610,0,0,0,0,0,0,0,0,0,-1,622,414,0,0
-595,610,0,0,0,0,0,0,0,0,0,-1,629,414,0,0
-588,610,0,0,0,0,0,0,0,0,0,-1,636,414,0,0
-581,610,0,0,0,0,0,0,0,0,0,-1,643,414,0,0
-574,610,0,0,0,0,0,0,0,0,0,-1,650,414,0,0
-567,610,0,0,0,0,0,0,0,0,0,-1,657,414,0,0
-560,610,0,0,0,0,0,0,0,0,0,-1,664,414,0,0
-553,610,0,0,0,0,0,0,0,0,0,-1,671,414,0,0
-546,610,0,0,0,0,0,0,0,0,0,-1,678,414,0,0
-539,610,0,0,0,0,0,0,0,0,0,-1,685,414,0,0
-532,610,0,0,0,0,0,0,0,0,0,-1,692,414,0,0
-525,610,0,0,0,0,0,0,0,0,0,-1,699,414,0,0
-518,610,0,0,0,0,0,0,0,0,0,-1,706,414,0,0
-511,610,0,0,0,0,0,0,0,0,0,-1,713,414,0,0
-504,610,0,0,0,0,0,0,0,0,0,-1,720,414,0,0
-497,610,0,0,0,0,0,0,0,0,0,-1,727,414,0,0
-490,610,0,0,0,0,0,0,0,0,0,-1,734,414,0,0
-483,610,0,0,0,0,0,0,0,0,0,-1,741,414,0,0
-476,610,0,0,0,0,0,0,0,0,0,-1,748,414,0,0
-469,610,0,0,0,0,0,0,0,0,0,-1,755,414,0,0
-462,610,0,0,0,0,0,0,0,0,0,-1,762,414,0,0
-455,610,0,0,0,0,0,0,0,0,0,-1,769,414,0,0
-448,610,0,0,0,0,0,0,0,0,0,-1,776,414,0,0
-441,610,0,0,0,0,0,0,0,0,0,-1,783,414,0,0
-434,610,0,0,0,0,0,0,0,0,0,-1,790,414,0,0
-427,610,0,0,0,0,0,0,0,0,0,-1,797,414,0,0
-420,610,0,0,0,0,0,0,0,0,0,-1,804,414,0,0
-413,610,0,0,0,0,0,0,0,0,0,-1,811,414,0,0
-406,610,0,0,0,0,0,0,0,0,0,-1,818,414,0,0
-399,610,0,0,0,0,0,0,0,0,0,-1,825,414,0,0
-392,610,0,0,0,0,0,0,0,0,0,-1,832,414,0,0
-385,610,0,0,0,0,0,0,0,0,0,-1,839,414,0,0
-378,610,0,0,0,0,0,0,0,0,0,-1,846,414,0,0
-371,610,0,0,0,0,0,0,0,0,0,-1,853,414,0,0
-364,610,0,0,0,0,0,0,0,0,0,-1,860,414,0,0
-357,610,0,0,0,0,0,0,0,0,0,-1,867,414,0,0
-350,610,0,0,0,0,0,0,0,0,0,-1,874,414,0,0
-343,610,0,0,0,0,0,0,0,0,0,-1,881,414,0,0
-336,610,0,0,0,0,0,0,0,0,0,-1,888,414,0,0
-329,610,0,0,0,0,0,0,0,0,0,-1,895,414,0,0
-322,610,0,0,0,0,0,0,0,0,0,-1,902,414,0,0
-315,610,7.68475,-21.5402,0,0,0,0,0,0,0,-1,909,414,7.68475,21.5402
-308,610,3.97211,-23.4133,0,0,0,0,0,0,0,-1,916,414,3.9721,23.4133
-301,610,7.38513,-22.4166,0,0,0,0,0,0,0,-1,923,414,7.38516,22.4166
-294,610,6.77832,-24.1945,0,0,0,0,0,0,0,-1,930,414,6.77829,24.1946
-287,610,3.39276,-28.5804,0,0,0,0,0,0,0,-1,937,414,3.39276,28.5803
-280,610,8.8728,-35.4336,0,0,0,0,0,0,0,-1,944,414,8.87283,35.4336
-273,610,8.14722,-35.5264,0,0,0,0,0,0,0,-1,951,414,8.14723,35.5264
-266,610,7.38361,-35.6366,0,0,0,0,0,0,0,-1,958,414,7.38359,35.6366
-259,610,6.47375,-35.762,0,0,0,0,0,0,0,-1,965,414,6.47373,35.762
-252,610,5.65308,-35.8931,0,0,0,0,0,0,0,-1,972,414,5.65305,35.8931
-245,610,8.48608,-60.1828,0,0,0,0,0,0,0,-1,979,414,8.4861,60.1828
-238,610,7.21301,-70.1616,0,0,0,0,0,0,0,-1,986,414,7.21304,70.1615
-231,610,7.96533,-98.6728,0,0,0,0,0,0,0,-1,993,414,7.96532,98.6728
-224,610,6.0943,-157.78,0,0,0,0,0,0,0,-1,1000,414,6.09428,157.78
-217,610,4.86194,-173.344,0,0,0,0,0,0,0,-1,1007,414,4.86196,173.344
-210,610,-4.95154,-215.114,0,0,0,0,0,0,0,-1,1014,414,-4.95153,215.114
-203,610,-5.45459,-217.72,0,0,0,0,0,0,0,-1,1021,414,-5.45458,217.72
-196,610,-5.79742,-220.483,0.0166063,0.013111,0.00197972,0.0174994,0.0122179,0.423786,0.0103645,0.0439327,1028,414,-5.79741,220.483
-189,610,-6.15881,-223.059,0.0186826,0.0120832,0.00400408,0.0205714,0.0101944,0.440769,0.0118771,0.0210628,1035,414,-6.15887,223.059
-182,610,-6.505,-225.435,0.0210425,0.0105393,0.00596155,0.0237357,0.00784614,0.424315,0.0139636,0.0247792,1042,414,-6.50503,225.435
-175,610,-6.70337,-227.872,0.0233479,0.0083363,0.0079002,0.0267394,0.00494485,0.405496,0.0164279,0.0263967,1049,414,-6.70341,227.872
-168,610,-6.91663,-230.226,0.0261273,0.00617925,0.00962027,0.0300107,0.00229575,0.383674,0.0192875,0.0211008,1056,414,-6.91659,230.226
-161,610,-7.11865,-232.572,0.0292546,0.00401233,0.0110949,0.0334379,-0.000171032,0.360567,0.0223492,0.0182748,1063,414,-7.11864,232.572
-154,610,-7.2301,-234.764,0.0321502,0.00179624,0.0125101,0.0366415,-0.00269511,0.344686,0.0253738,0.0267335,1070,414,-7.23015,234.764
-147,610,-7.32056,-236.832,0.0350805,-2.0074e-06,0.0136926,0.039792,-0.00471344,0.331397,0.0282306,0.0306164,1077,414,-7.32061,236.832
-140,610,-7.38928,-238.87,0.0378894,-0.00181762,0.0146827,0.0427288,-0.00665712,0.318391,0.0309446,0.0218401,1084,414,-7.38927,238.87
-133,610,-7.36365,-240.808,0.0405572,-0.00350945,0.0156281,0.0455369,-0.00848921,0.308469,0.0335476,0.0228421,1091,414,-7.36367,240.808
-126,610,-7.32959,-242.697,0.0429886,-0.00485239,0.0164235,0.048084,-0.00994781,0.300834,0.0358352,0.0204599,1098,414,-7.32959,242.697
-119,610,-7.2605,-244.505,0.0453089,-0.00580538,0.0173474,0.0506403,-0.0111367,0.298167,0.0380201,0.0164218,1105,414,-7.26055,244.505
-112,610,-6.99084,-246.504,0.0477829,-0.00687894,0.0182335,0.0533068,-0.0124028,0.294165,0.0403132,0.0303107,1112,414,-6.9908,246.504
-105,610,-6.96509,-248.169,0.0503844,-0.00756986,0.0186772,0.0558821,-0.0130675,0.286267,0.042289,0.0346258,1119,414,-6.96507,248.169
-98,610,-6.85889,-249.72,0.0530903,-0.00822417,0.0188897,0.0584426,-0.0135765,0.276108,0.044188,0.02018,1126,414,-6.85889,249.72
-91,610,-6.56335,-251.25,0.0558844,-0.00915646,0.0188557,0.0609554,-0.0142275,0.262721,0.0461169,0.0223153,1133,414,-6.56336,251.25
-84,610,-6.33545,-252.837,0.0584454,-0.0100178,0.018492,0.0631208,-0.0146932,0.247646,0.047738,0.0261496,1140,414,-6.33551,252.837
-77,610,-6.26501,-254.409,0.0611442,-0.0111641,0.0180103,0.0653818,-0.0154017,0.231084,0.0495266,0.0194685,1147,414,-6.26507,254.409
-70,610,-5.95862,-255.78,0.0637313,-0.0125567,0.0174408,0.0675295,-0.0163549,0.214428,0.051347,0.0237425,1154,414,-5.95867,255.78
-63,610,-5.53149,-257.05,0,0,0,0,0,0,0,-1,1161,414,-5.53145,257.05
-56,610,-5.25635,-258.259,0.068566,-0.0168838,0.016007,0.0714661,-0.0197839,0.179233,0.0554284,0.0328785,1168,414,-5.25632,258.259
-49,610,-4.80688,-259.482,0.071357,-0.0192971,0.0150508,0.0737905,-0.0217306,0.160297,0.0578149,0.027438,1175,414,-4.80689,259.482
-42,610,-4.25439,-260.586,0.0734488,-0.0214111,0.0143135,0.0755615,-0.0235238,0.146546,0.0597789,0.0229217,1182,414,-4.2544,260.586
-35,610,-3.83179,-261.591,0.0753623,-0.0231869,0.0137902,0.0772556,-0.0250802,0.136442,0.0615902,0.0231994,1189,414,-3.83183,261.591
-28,610,-3.47681,-262.525,0.0775732,-0.0247756,0.0132691,0.0792655,-0.0264679,0.126852,0.0635315,0.0229605,1196,414,-3.47677,262.525
-21,610,-2.98828,-263.369,0.0796294,-0.0261305,0.0127704,0.0811495,-0.0276507,0.118481,0.0652981,0.0182063,1203,414,-2.98824,263.369
-14,610,-2.51721,-264.098,0.0817287,-0.0271403,0.0119599,0.0830271,-0.0284387,0.108138,0.0668778,0.018786,1210,414,-2.51718,264.098
-7,610,-2.03455,-264.89,0.0836904,-0.0272334,0.011133,0.0847968,-0.0283398,0.0990501,0.0679763,0.0275789,1217,414,-2.03454,264.89
0,610,-1.44702,-265.719,0.085537,-0.027338,0.0102328,0.0864571,-0.0282582,0.0896818,0.0690136,0.0249402,1224,414,-1.44703,265.719
7,610,-0.862915,-266.403,0.0869947,-0.0272995,0.00953455,0.0877846,-0.0280894,0.0826597,0.0697964,0.0276039,1231,414,-0.862897,266.403
14,610,-0.387085,-266.998,0,0,0,0,0,0,0,-1,1238,414,-0.38707,266.998
21,610,0.572021,-267.501,0,0,0,0,0,0,0,-1,1245,414,0.572079,267.501
28,610,1.03833,-267.801,0,0,0,0,0,0,0,-1,1252,414,1.03828,267.801
35,610,1.46118,-268.281,0,0,0,0,0,0,0,-1,1259,414,1.46118,268.281
42,610,2.15747,-268.343,0,0,0,0,0,0,0,-1,1266,414,2.15752,268.343
49,610,2.77344,-268.611,0,0,0,0,0,0,0,-1,1273,414,2.77349,268.611
56,610,3.57727,-268.864,0,0,0,0,0,0,0,-1,1280,414,3.57725,268.864
63,610,4.07849,-268.83,0,0,0,0,0,0,0,-1,1287,414,4.07843,268.83
70,610,4.91211,-268.686,0,0,0,0,0,0,0,-1,1294,414,4.91213,268.686
77,610,5.65723,-268.44,0,0,0,0,0,0,0,-1,1301,414,5.65725,268.44
84,610,6.11267,-268.305,0,0,0,0,0,0,0,-1,1308,414,6.11271,268.305
91,610,6.49158,-268.483,0,0,0,0,0,0,0,-1,1315,414,6.49159,268.483
98,610,7.14233,-268.015,0.10243,-0.0254012,-0.00468025,0.102601,-0.0255723,-0.0365474,0.078329,0.0449859,1322,414,7.14233,268.015
105,610,8.22778,-267.46,0.102373,-0.0253957,-0.00615968,0.102669,-0.025692,-0.0480612,0.0784255,0.0363104,1329,414,8.22774,267.46
112,610,8.92468,-266.9,0.102436,-0.0254227,-0.00771987,0.102901,-0.0258871,-0.0600871,0.0786624,0.0253058,1336,414,8.92474,266.9
119,610,9.30078,-266.478,0.101246,-0.0256242,-0.0087868,0.101852,-0.0262298,-0.0688203,0.0781261,0.0374705,1343,414,9.30082,266.478
126,610,9.45947,-266.05,0,0,0,0,0,0,0,-1,1350,414,9.4595,266.05
133,610,10.3584,-265.277,0.0972361,-0.0264445,-0.0100669,0.0980501,-0.0272585,-0.0806863,0.076098,0.0432781,1357,414,10.3584,265.277
140,610,11.1873,-264.493,0.0951538,-0.0265075,-0.0108598,0.0961156,-0.0274692,-0.0883319,0.074931,0.0428442,1364,414,11.1872,264.493
147,610,11.6769,-263.699,0,0,0,0,0,0,0,-1,1371,414,11.6769,263.699
154,610,12.276,-262.724,0.089417,-0.0261871,-0.0131207,0.0908875,-0.0276576,-0.111605,0.0716138,0.0434813,1378,414,12.276,262.724
161,610,12.8743,-261.808,0,0,0,0,0,0,0,-1,1385,414,12.8743,261.808
168,610,13.3091,-260.788,0.0829397,-0.0228416,-0.0128705,0.0844831,-0.0243851,-0.119351,0.0659702,0.0335094,1392,414,13.3091,260.788
175,610,13.6532,-259.698,0.0813362,-0.0212724,-0.0134357,0.0830663,-0.0230025,-0.128065,0.0644286,0.0267216,1399,414,13.6532,259.698
182,610,14.0872,-258.515,0.0774789,-0.0191228,-0.0146863,0.0796622,-0.0213062,-0.147588,0.061454,0.0261636,1406,414,14.0872,258.515
189,610,14.5375,-257.211,0.0732561,-0.017428,-0.0154644,0.0758208,-0.0199926,-0.164345,0.0583642,0.0251479,1413,414,14.5375,257.211
196,610,15.0631,-256.007,0.0702126,-0.0161472,-0.0158217,0.07302,-0.0189546,-0.175611,0.0560764,0.0426234,1420,414,15.0631,256.007
203,610,15.8268,-254.791,0,0,0,0,0,0,0,-1,1427,414,15.8268,254.791
210,610,15.7813,-253.197,0.0658389,-0.0119836,-0.0165223,0.0692015,-0.0153462,-0.200773,0.0520099,0.0359886,1434,414,15.7813,253.197
217,610,16.0775,-251.591,0.0645766,-0.0101583,-0.0167114,0.0681432,-0.0137249,-0.210269,0.0506277,0.0230442,1441,414,16.0775,251.591
224,610,16.4155,-250.114,0.0634694,-0.00816393,-0.0171646,0.0673699,-0.0120645,-0.223449,0.049428,0.0254501,1448,414,16.4155,250.114
231,610,16.6604,-248.58,0.0620292,-0.00619412,-0.0173983,0.0662099,-0.0103748,-0.235823,0.0479736,0.0231492,1455,414,16.6604,248.58
238,610,16.8689,-246.849,0.0601544,-0.00417374,-0.0175009,0.0646074,-0.00862675,-0.249157,0.0462163,0.0202809,1462,414,16.8689,246.849
245,610,17.1971,-245.092,0.0579674,-0.00230099,-0.0173748,0.0626176,-0.00695121,-0.261511,0.0442445,0.0214418,1469,414,17.1972,245.092
252,610,17.1614,-243.223,0.0556163,-0.0004947,-0.0169875,0.0603584,-0.00523685,-0.272225,0.0420933,0.0223535,1476,414,17.1614,243.223
259,610,17.3093,-241.2,0.0531053,0.00127812,-0.0167308,0.0580371,-0.00365361,-0.286651,0.0399649,0.0271254,1483,414,17.3094,241.2
266,610,17.4734,-239.198,0.0502988,0.00261141,-0.0165901,0.0555025,-0.00259233,-0.303946,0.0378953,0.0230691,1490,414,17.4733,239.198
273,610,17.4591,-237.136,0.0470182,0.00453156,-0.0160934,0.0524259,-0.000876134,-0.324166,0.0352463,0.0159684,1497,414,17.4591,237.136
280,610,17.3705,-234.971,0.0434456,0.00640071,-0.0155511,0.0491082,0.000738068,-0.349207,0.0324956,0.0246167,1504,414,17.3705,234.971
287,610,17.2172,-232.724,0.0397865,0.00789224,-0.0148531,0.0456322,0.00204656,-0.374947,0.0297627,0.0465015,1511,414,17.2171,232.724
294,610,17.2689,-230.449,0.0360754,0.00937044,-0.0137533,0.0418917,0.00355417,-0.400091,0.0268217,0.0332679,1518,414,17.2689,230.449
301,610,17.1462,-228.279,0.0325931,0.0104342,-0.0124206,0.0381578,0.00486954,-0.421204,0.0239807,0.0182925,1525,414,17.1462,228.279
308,610,16.9431,-225.84,0.0290818,0.012074,-0.010849,0.0343625,0.00679327,-0.452994,0.0210132,0.0204522,1532,414,16.9431,225.84
315,610,16.7386,-223.373,0.0253927,0.0143222,-0.00868741,0.0301585,0.00955646,-0.50175,0.017797,0.0211465,1539,414,16.7387,223.373
322,610,16.4717,-220.603,0.0218267,0.0161683,-0.0062787,0.0258842,0.0121108,-0.573722,0.0149545,0.0241553,1546,414,16.4717,220.603
329,610,16.0725,-218.047,0.018551,0.0184634,-0.00372379,0.0222313,0.0147832,-0.77952,0.013066,0.0471298,1553,414,16.0725,218.047
336,610,15.8146,-215.551,0,0,0,0,0,0,0,-1,1560,414,15.8146,215.551
343,610,15.2776,-212.703,0,0,0,0,0,0,0,-1,1567,414,15.2776,212.703
350,610,2.16211,-169.78,0,0,0,0,0,0,0,-1,1574,414,2.16212,169.78
357,610,2.01099,-161.046,0,0,0,0,0,0,0,-1,1581,414,2.01093,161.046
364,610,1.37036,-160.506,0,0,0,0,0,0,0,-1,1588,414,1.37038,160.506
371,610,2.50562,-141.433,0,0,0,0,0,0,0,-1,1595,414,2.50557,141.433
378,610,10.524,-62.0682,0,0,0,0,0,0,0,-1,1602,414,10.524,62.0682
385,610,9.28003,-47.0623,0,0,0,0,0,0,0,-1,1609,414,9.28002,47.0623
392,610,1.99744,-1.83582,0,0,0,0,0,0,0,-1,1616,414,1.99741,1.8358
399,610,2.77136,-2.60333,0,0,0,0,0,0,0,-1,1623,414,2.77133,2.60332
406,610,7.03125,-48.9078,0,0,0,0,0,0,0,-1,1630,414,7.03126,48.9078
413,610,7.7926,-49.6027,0,0,0,0,0,0,0,-1,1637,414,7.79259,49.6027
420,610,7.58374,-49.1523,0,0,0,0,0,0,0,-1,1644,414,7.58375,49.1523
427,610,7.52539,-48.6574,0,0,0,0,0,0,0,-1,1651,414,7.52544,48.6574
434,610,8.73706,-22.6227,0,0,0,0,0,0,0,-1,1658,414,8.73703,22.6227
441,610,0,0,0,0,0,0,0,0,0,-1,1665,414,0,0
448,610,0,0,0,0,0,0,0,0,0,-1,1672,414,0,0
455,610,0,0,0,0,0,0,0,0,0,-1,1679,414,0,0
462,610,0,0,0,0,0,0,0,0,0,-1,1686,414,0,0
469,610,0,0,0,0,0,0,0,0,0,-1,1693,414,0,0
476,610,0,0,0,0,0,0,0,0,0,-1,1700,414,0,0
483,610,0,0,0,0,0,0,0,0,0,-1,1707,414,0,0
490,610,0,0,0,0,0,0,0,0,0,-1,1714,414,0,0
497,610,0,0,0,0,0,0,0,0,0,-1,1721,414,0,0
504,610,0,0,0,0,0,0,0,0,0,-1,1728,414,0,0
511,610,0,0,0,0,0,0,0,0,0,-1,1735,414,0,0
518,610,0,0,0,0,0,0,0,0,0,-1,1742,414,0,0
525,610,0,0,0,0,0,0,0,0,0,-1,1749,414,0,0
532,610,0,0,0,0,0,0,0,0,0,-1,1756,414,0,0
539,610,0,0,0,0,0,0,0,0,0,-1,1763,414,0,0
546,610,0,0,0,0,0,0,0,0,0,-1,1770,414,0,0
553,610,0,0,0,0,0,0,0,0,0,-1,1777,414,0,0
560,610,0,0,0,0,0,0,0,0,0,-1,1784,414,0,0
567,610,0,0,0,0,0,0,0,0,0,-1,1791,414,0,0
574,610,0,0,0,0,0,0,0,0,0,-1,1798,414,0,0
581,610,0,0,0,0,0,0,0,0,0,-1,1805,414,0,0
588,610,0,0,0,0,0,0,0,0,0,-1,1812,414,0,0
595,610,0,0,0,0,0,0,0,0,0,-1,1819,414,0,0
602,610,0,0,0,0,0,0,0,0,0,-1,1826,414,0,0
609,610,0,0,0,0,0,0,0,0,0,-1,1833,414,0,0
616,610,0,0,0,0,0,0,0,0,0,-1,1840,414,0,0
623,610,0,0,0,0,0,0,0,0,0,-1,1847,414,0,0
630,610,0,0,0,0,0,0,0,0,0,-1,1854,414,0,0
637,610,0,0,0,0,0,0,0,0,0,-1,1861,414,0,0
644,610,0,0,0,0,0,0,0,0,0,-1,1868,414,0,0
651,610,0,0,0,0,0,0,0,0,0,-1,1875,414,0,0
658,610,0,0,0,0,0,0,0,0,0,-1,1882,414,0,0
665,610,0,0,0,0,0,0,0,0,0,-1,1889,414,0,0
672,610,0,0,0,0,0,0,0,0,0,-1,1896,414,0,0
679,610,0,0,0,0,0,0,0,0,0,-1,1903,414,0,0
686,610,0,0,0,0,0,0,0,0,0,-1,1910,414,0,0
693,610,0,0,0,0,0,0,0,0,0,-1,1917,414,0,0
700,610,0,0,0,0,0,0,0,0,0,-1,1924,414,0,0
707,610,0,0,0,0,0,0,0,0,0,-1,1931,414,0,0
714,610,0,0,0,0,0,0,0,0,0,-1,1938,414,0,0
721,610,0,0,0,0,0,0,0,0,0,-1,1945,414,0,0
728,610,0,0,0,0,0,0,0,0,0,-1,1952,414,0,0
735,610,0,0,0,0,0,0,0,0,0,-1,1959,414,0,0
742,610,0,0,0,0,0,0,0,0,0,-1,1966,414,0,0
749,610,0,0,0,0,0,0,0,0,0,-1,1973,414,0,0
756,610,0,0,0,0,0,0,0,0,0,-1,1980,414,0,0
763,610,0,0,0,0,0,0,0,0,0,-1,1987,414,0,0
770,610,0,0,0,0,0,0,0,0,0,-1,1994,414,0,0
777,610,0,0,0,0,0,0,0,0,0,-1,2001,414,0,0
784,610,0,0,0,0,0,0,0,0,0,-1,2008,414,0,0
791,610,0,0,0,0,0,0,0,0,0,-1,2015,414,0,0
798,610,0,0,0,0,0,0,0,0,0,-1,2022,414,0,0
805,610,0,0,0,0,0,0,0,0,0,-1,2029,414,0,0
812,610,0,0,0,0,0,0,0,0,0,-1,2036,414,0,0
-700,603,0,0,0,0,0,0,0,0,0,-1,524,421,0,0
-693,603,0,0,0,0,0,0,0,0,0,-1,531,421,0,0
-686,603,0,0,0,0,0,0,0,0,0,-1,538,421,0,0
-679,603,0,0,0,0,0,0,0,0,0,-1,545,421,0,0
-672,603,0,0,0,0,0,0,0,0,0,-1,552,421,0,0
-665,603,0,0,0,0,0,0,0,0,0,-1,559,421,0,0
-658,603,0,0,0,0,0,0,0,0,0,-1,566,421,0,0
-651,603,0,0,0,0,0,0,0,0,0,-1,573,421,0,0
-644,603,0,0,0,0,0,0,0,0,0,-1,580,421,0,0
-637,603,0,0,0,0,0,0,0,0,0,-1,587,421,0,0
-630,603,0,0,0,0,0,0,0,0,0,-1,594,421,0,0
-623,603,0,0,0,0,0,0,0,0,0,-1,601,421,0,0
-616,603,0,0,0,0,0,0,0,0,0,-1,608,421,0,0
-609,603,0,0,0,0,0,0,0,0,0,-1,615,421,0,0
-602,603,0,0,0,0,0,0,0,0,0,-1,622,421,0,0
-595,603,0,0,0,0,0,0,0,0,0,-1,629,421,0,0
-588,603,0,0,0,0,0,0,0,0,0,-1,636,421,0,0
-581,603,0,0,0,0,0,0,0,0,0,-1,643,421,0,0
-574,603,0,0,0,0,0,0,0,0,0,-1,650,421,0,0
-567,603,0,0,0,0,0,0,0,0,0,-1,657,421,0,0
-560,603,0,0,0,0,0,0,0,0,0,-1,664,421,0,0
-553,603,0,0,0,0,0,0,0,0,0,-1,671,421,0,0
-546,603,0,0,0,0,0,0,0,0,0,-1,678,421,0,0
-539,603,0,0,0,0,0,0,0,0,0,-1,685,421,0,0
-532,603,0,0,0,0,0,0,0,0,0,-1,692,421,0,0
-525,603,0,0,0,0,0,0,0,0,0,-1,699,421,0,0
-518,603,0,0,0,0,0,0,0,0,0,-1,706,421,0,0
-511,603,0,0,0,0,0,0,0,0,0,-1,713,421,0,0
-504,603,0,0,0,0,0,0,0,0,0,-1,720,421,0,0
-497,603,0,0,0,0,0,0,0,0,0,-1,727,421,0,0
-490,603,0,0,0,0,0,0,0,0,0,-1,734,421,0,0
-483,603,0,0,0,0,0,0,0,0,0,-1,741,421,0,0
-476,603,0,0,0,0,0,0,0,0,0,-1,748,421,0,0
-469,603,0,0,0,0,0,0,0,0,0,-1,755,421,0,0
-462,603,0,0,0,0,0,0,0,0,0,-1,762,421,0,0
-455,603,0,0,0,0,0,0,0,0,0,-1,769,421,0,0
-448,603,0,0,0,0,0,0,0,0,0,-1,776,421,0,0
-441,603,0,0,0,0,0,0,0,0,0,-1,783,421,0,0
-434,603,0,0,0,0,0,0,0,0,0,-1,790,421,0,0
-427,603,0,0,0,0,0,0,0,0,0,-1,797,421,0,0
-420,603,0,0,0,0,0,0,0,0,0,-1,804,421,0,0
-413,603,0,0,0,0,0,0,0,0,0,-1,811,421,0,0
-406,603,0,0,0,0,0,0,0,0,0,-1,818,421,0,0
-399,603,0,0,0,0,0,0,0,0,0,-1,825,421,0,0
-392,603,0,0,0,0,0,0,0,0,0,-1,832,421,0,0
-385,603,0,0,0,0,0,0,0,0,0,-1,839,421,0,0
-378,603,0,0,0,0,0,0,0,0,0,-1,846,421,0,0
-371,603,0,0,0,0,0,0,0,0,0,-1,853,421,0,0
-364,603,0,0,0,0,0,0,0,0,0,-1,860,421,0,0
-357,603,0,0,0,0,0,0,0,0,0,-1,867,421,0,0
-350,603,0,0,0,0,0,0,0,0,0,-1,874,421,0,0
-343,603,0,0,0,0,0,0,0,0,0,-1,881,421,0,0
-336,603,0,0,0,0,0,0,0,0,0,-1,888,421,0,0
-329,603,4.09686,-17.9702,0,0,0,0,0,0,0,-1,895,421,4.09687,17.9702
-322,603,8.83179,-28.7376,0,0,0,0,0,0,0,-1,902,421,8.83179,28.7376
-315,603,5.99744,-20.4501,0,0,0,0,0,0,0,-1,909,421,5.99745,20.4501
-308,603,5.92249,-20.778,0,0,0,0,0,0,0,-1,916,421,5.92248,20.778
-301,603,2.72424,-20.9059,0,0,0,0,0,0,0,-1,923,421,2.72424,20.9059
-294,603,2.41553,-20.6767,0,0,0,0,0,0,0,-1,930,421,2.41554,20.6767
-287,603,1.91766,-21.2242,0,0,0,0,0,0,0,-1,937,421,1.91767,21.2242
-280,603,2.36121,-27.3314,0,0,0,0,0,0,0,-1,944,421,2.36119,27.3314
-273,603,7.96613,-34.8225,0,0,0,0,0,0,0,-1,951,421,7.96613,34.8225
-266,603,7.18787,-34.9736,0,0,0,0,0,0,0,-1,958,421,7.18788,34.9736
-259,603,5.44666,-36.8901,0,0,0,0,0,0,0,-1,965,421,5.44664,36.8901
-252,603,7.27246,-79.9079,0,0,0,0,0,0,0,-1,972,421,7.27246,79.9079
-245,603,4.96075,-161.213,0,0,0,0,0,0,0,-1,979,421,4.96073,161.213
-238,603,4.8288,-187.289,0,0,0,0,0,0,0,-1,986,421,4.82878,187.289
-231,603,-6.23639,-206.087,0,0,0,0,0,0,0,-1,993,421,-6.23638,206.087
-224,603,-6.82697,-209.384,0,0,0,0,0,0,0,-1,1000,421,-6.82697,209.384
-217,603,-7.37866,-212.107,0,0,0,0,0,0,0,-1,1007,421,-7.37866,212.107
-210,603,-7.76605,-214.732,0.0185421,0.00845703,0.00455343,0.0202938,0.00670539,0.367235,0.0119391,0.0318798,1014,421,-7.76605,214.732
-203,603,-8.11591,-217.671,0.0206837,0.00757844,0.00676367,0.0235483,0.00471385,0.400622,0.0143873,0.0274976,1021,421,-8.11589,217.671
-196,603,-8.39465,-220.308,0.0231496,0.00665974,0.00861777,0.0268313,0.00297803,0.403752,0.0169821,0.0317211,1028,421,-8.39467,220.308
-189,603,-8.63208,-222.738,0.0258165,0.00561062,0.0103211,0.0301564,0.00127073,0.398041,0.0196943,0.0278964,1035,421,-8.63211,222.738
-182,603,-8.94849,-225.031,0.0285843,0.00410257,0.0120229,0.0335012,-0.000814352,0.388208,0.0226105,0.0209407,1042,421,-8.94847,225.031
-175,603,-9.1261,-227.434,0.0313146,0.00198932,0.0137072,0.0367239,-0.00341994,0.375867,0.0256985,0.0185062,1049,421,-9.12612,227.434
-168,603,-9.34033,-229.785,0.0343846,-8.9772e-05,0.0151361,0.0400869,-0.00579215,0.360295,0.0288498,0.0205845,1056,421,-9.34027,229.785
-161,603,-9.50476,-232.102,0.0376042,-0.00218263,0.0163992,0.0434922,-0.00807062,0.344707,0.0320258,0.0211175,1063,421,-9.5048,232.102
-154,603,-9.52429,-234.244,0.0406029,-0.00411665,0.0177272,0.0467776,-0.0102913,0.335173,0.0351217,0.0235166,1070,421,-9.52434,234.244
-147,603,-9.58862,-236.289,0,0,0,0,0,0,0,-1,1077,421,-9.58865,236.289
-140,603,-9.46057,-238.424,0.046624,-0.00701898,0.0198215,0.0531534,-0.0135484,0.318217,0.0407103,0.0248889,1084,421,-9.46052,238.424
-133,603,-9.46411,-240.446,0.0492896,-0.00842519,0.0207355,0.0559669,-0.0151024,0.311534,0.0432338,0.0211005,1091,421,-9.46413,240.446
-126,603,-9.39343,-242.31,0.0517513,-0.0095461,0.0213079,0.0584305,-0.0162253,0.303759,0.0453404,0.0158055,1098,421,-9.39338,242.31
-119,603,-9.24243,-244.119,0.0541282,-0.0101162,0.0220956,0.0609939,-0.0169818,0.301267,0.0473494,0.0157433,1105,421,-9.24249,244.119
-112,603,-9.09204,-246.026,0.0567459,-0.0107738,0.0229107,0.0637859,-0.0178138,0.298122,0.0495412,0.0248347,1112,421,-9.09204,246.026
-105,603,-8.92297,-247.734,0.0596004,-0.0110924,0.0231707,0.0665181,-0.0180101,0.290127,0.0514112,0.0290036,1119,421,-8.92299,247.734
-98,603,-8.77258,-249.363,0.0626171,-0.0113431,0.0231675,0.0692749,-0.0180008,0.279834,0.0532084,0.0227499,1126,421,-8.77254,249.363
-91,603,-8.42175,-250.98,0.0657168,-0.0121273,0.0228311,0.0719188,-0.0183294,0.265248,0.0550818,0.0193577,1133,421,-8.42179,250.98
-84,603,-8.06067,-252.509,0.0684426,-0.0129008,0.0220832,0.0740511,-0.0185093,0.248711,0.0565559,0.022933,1140,421,-8.06063,252.509
-77,603,-7.63794,-254.104,0.0714272,-0.0140827,0.0212797,0.0764301,-0.0190855,0.230908,0.0583649,0.0278971,1147,421,-7.63788,254.104
-70,603,-7.50793,-255.722,0,0,0,0,0,0,0,-1,1154,421,-7.50793,255.722
-63,603,-6.94397,-256.456,0,0,0,0,0,0,0,-1,1161,421,-6.94396,256.456
-56,603,-6.73926,-257.734,0,0,0,0,0,0,0,-1,1168,421,-6.73926,257.734
-49,603,-6.1571,-259.111,0,0,0,0,0,0,0,-1,1175,421,-6.15711,259.111
-42,603,-5.52271,-260.212,0,0,0,0,0,0,0,-1,1182,421,-5.52271,260.212
-35,603,-4.95105,-261.221,0,0,0,0,0,0,0,-1,1189,421,-4.95107,261.221
-28,603,-4.49561,-262.101,0,0,0,0,0,0,0,-1,1196,421,-4.49561,262.101
-21,603,-3.87366,-263.227,0,0,0,0,0,0,0,-1,1203,421,-3.87368,263.227
-14,603,-3.29932,-263.908,0,0,0,0,0,0,0,-1,1210,421,-3.29936,263.908
-7,603,-2.82581,-264.601,0,0,0,0,0,0,0,-1,1217,421,-2.82585,264.601
0,603,-2.20654,-265.753,0,0,0,0,0,0,0,-1,1224,421,-2.20656,265.753
7,603,-1.69214,-266.22,0,0,0,0,0,0,0,-1,1231,421,-1.69218,266.22
14,603,-0.292603,-266.045,0,0,0,0,0,0,0,-1,1238,421,-0.292631,266.045
21,603,1.14038,-238.37,0,0,0,0,0,0,0,-1,1245,421,1.14033,238.37
28,603,0.735962,-267.396,0,0,0,0,0,0,0,-1,1252,421,0.735927,267.396
35,603,2.04443,-267.521,0,0,0,0,0,0,0,-1,1259,421,2.04444,267.521
42,603,2.6499,-267.49,0,0,0,0,0,0,0,-1,1266,421,2.64986,267.49
49,603,3.17432,-267.139,0,0,0,0,0,0,0,-1,1273,421,3.17432,267.139
56,603,3.43408,-267.808,0,0,0,0,0,0,0,-1,1280,421,3.43411,267.808
63,603,4.25244,-268.481,0,0,0,0,0,0,0,-1,1287,421,4.25243,268.481
70,603,4.71472,-114.113,0,0,0,0,0,0,0,-1,1294,421,4.71472,114.113
77,603,5.66687,-94.825,0,0,0,0,0,0,0,-1,1301,421,5.66683,94.825
84,603,9.05786,-106.929,0,0,0,0,0,0,0,-1,1308,421,9.05781,106.929
91,603,6.18372,-268.614,0,0,0,0,0,0,0,-1,1315,421,6.18373,268.614
98,603,7.20398,-268.295,0,0,0,0,0,0,0,-1,1322,421,7.20397,268.295
105,603,8.93665,-267.405,0,0,0,0,0,0,0,-1,1329,421,8.93661,267.405
112,603,9.57751,-266.604,0,0,0,0,0,0,0,-1,1336,421,9.57749,266.604
119,603,9.98608,-266.015,0,0,0,0,0,0,0,-1,1343,421,9.98613,266.015
126,603,9.06384,-217.198,0,0,0,0,0,0,0,-1,1350,421,9.0639,217.198
133,603,10.9795,-264.992,0,0,0,0,0,0,0,-1,1357,421,10.9795,264.992
140,603,12.3794,-264.208,0,0,0,0,0,0,0,-1,1364,421,12.3794,264.209
147,603,13.0521,-263.024,0,0,0,0,0,0,0,-1,1371,421,13.0521,263.024
154,603,13.1555,-262.35,0,0,0,0,0,0,0,-1,1378,421,13.1555,262.35
161,603,13.8022,-261.43,0,0,0,0,0,0,0,-1,1385,421,13.8023,261.43
168,603,14.3723,-260.369,0,0,0,0,0,0,0,-1,1392,421,14.3723,260.369
175,603,14.7152,-259.248,0,0,0,0,0,0,0,-1,1399,421,14.7152,259.248
182,603,15.3752,-258.105,0,0,0,0,0,0,0,-1,1406,421,15.3752,258.105
189,603,15.9784,-256.774,0,0,0,0,0,0,0,-1,1413,421,15.9784,256.774
196,603,16.531,-255.531,0,0,0,0,0,0,0,-1,1420,421,16.531,255.531
203,603,17.1725,-254.354,0,0,0,0,0,0,0,-1,1427,421,17.1725,254.354
210,603,17.3571,-253.077,0.0747005,-0.0191268,-0.0188409,0.0783425,-0.0227687,-0.190946,0.0612453,0.0246319,1434,421,17.3571,253.077
217,603,17.5309,-251.44,0.0735686,-0.0172716,-0.0191174,0.077428,-0.0211309,-0.199197,0.0599175,0.0254059,1441,421,17.5309,251.44
224,603,18.2323,-249.74,0.0727159,-0.015128,-0.0198002,0.0769727,-0.0193847,-0.211762,0.0588507,0.0332149,1448,421,18.2323,249.74
231,603,18.5956,-248.186,0.07143,-0.013029,-0.0201986,0.0760119,-0.017611,-0.223071,0.0574518,0.023895,1455,421,18.5956,248.186
238,603,18.7808,-246.48,0.0695989,-0.0106985,-0.020425,0.0744957,-0.0155953,-0.235305,0.0555962,0.0215275,1462,421,18.7808,246.48
245,603,19.0802,-244.696,0.0675076,-0.00858024,-0.0204064,0.072635,-0.0137076,-0.246167,0.0535802,0.0221044,1469,421,19.0802,244.696
252,603,19.2988,-242.765,0.0652585,-0.00651307,-0.0201226,0.0705153,-0.0117698,-0.255526,0.0513848,0.0160153,1476,421,19.2988,242.765
259,603,19.506,-240.839,0.0628125,-0.0043691,-0.0200959,0.0683649,-0.00992145,-0.269568,0.0492182,0.0161044,1483,421,19.506,240.839
266,603,19.6416,-238.864,0.0599357,-0.00231712,-0.0200743,0.0658475,-0.00822897,-0.286401,0.0468827,0.017974,1490,421,19.6416,238.864
273,603,19.7489,-236.788,0.0563118,9.95046e-05,-0.0197638,0.062565,-0.00615366,-0.30643,0.0439052,0.0169261,1497,421,19.7489,236.788
280,603,19.7806,-234.616,0.0523971,0.00243848,-0.0192449,0.0589508,-0.00411527,-0.328226,0.0407416,0.0220743,1504,421,19.7807,234.616
287,603,19.7482,-232.358,0.0486674,0.00430842,-0.0185778,0.05542,-0.00244418,-0.348629,0.0377877,0.0302627,1511,421,19.7482,232.358
294,603,19.7671,-230.119,0.0447415,0.00614303,-0.0176394,0.0515882,-0.000703663,-0.370247,0.0346291,0.0244977,1518,421,19.7671,230.119
301,603,19.6711,-227.864,0.0408858,0.00763957,-0.0164902,0.0476775,0.000847841,-0.390692,0.0315062,0.0335491,1525,421,19.6712,227.864
308,603,19.5071,-225.374,0,0,0,0,0,0,0,-1,1532,421,19.5071,225.374
315,603,19.4023,-222.753,0.0331792,0.0113346,-0.0133573,0.0395113,0.00500251,-0.442676,0.0248419,0.0308782,1539,421,19.4023,222.753
322,603,19.1127,-220.253,0.0293905,0.0131211,-0.011262,0.0351484,0.00736313,-0.472625,0.0214043,0.0236384,1546,421,19.1127,220.253
329,603,18.8411,-217.689,0.0258873,0.0152252,-0.00889418,0.0309258,0.0101867,-0.515413,0.0181982,0.0190988,1553,421,18.8411,217.689
336,603,18.5574,-215.199,0.0222639,0.0174106,-0.00619361,0.0264893,0.0131852,-0.598689,0.0152937,0.0167987,1560,421,18.5573,215.199
343,603,18.113,-212.365,0.0181107,0.0206395,-0.00306936,0.0226947,0.0160555,-0.980773,0.0134735,0.0255549,1567,421,18.113,212.365
350,603,17.6432,-209.414,0,0,0,0,0,0,0,-1,1574,421,17.6432,209.414
357,603,17.0547,-206.369,0,0,0,0,0,0,0,-1,1581,421,17.0546,206.369
364,603,16.4348,-202.892,0,0,0,0,0,0,0,-1,1588,421,16.4348,202.892
371,603,3.83484,-189.529,0,0,0,0,0,0,0,-1,1595,421,3.83484,189.529
378,603,1.58484,-170.685,0,0,0,0,0,0,0,-1,1602,421,1.58484,170.685
385,603,10.1917,-79.6275,0,0,0,0,0,0,0,-1,1609,421,10.1917,79.6275
392,603,9.09521,-64.8771,0,0,0,0,0,0,0,-1,1616,421,9.09525,64.8771
399,603,8.90503,-65.8219,0,0,0,0,0,0,0,-1,1623,421,8.905,65.8219
406,603,10.679,-50.994,0,0,0,0,0,0,0,-1,1630,421,10.6789,50.994
413,603,7.74963,-48.7354,0,0,0,0,0,0,0,-1,1637,421,7.74968,48.7354
420,603,10.0659,-47.2677,0,0,0,0,0,0,0,-1,1644,421,10.0659,47.2677
427,603,10.1735,-46.1418,0,0,0,0,0,0,0,-1,1651,421,10.1735,46.1418
434,603,8.01489,-22.5655,0,0,0,0,0,0,0,-1,1658,421,8.01493,22.5655
441,603,8.00122,-22.3072,0,0,0,0,0,0,0,-1,1665,421,8.00116,22.3071
448,603,1.14355,-4.59842,0,0,0,0,0,0,0,-1,1672,421,1.14355,4.59841
455,603,0,0,0,0,0,0,0,0,0,-1,1679,421,0,0
462,603,0,0,0,0,0,0,0,0,0,-1,1686,421,0,0
469,603,0,0,0,0,0,0,0,0,0,-1,1693,421,0,0
476,603,0,0,0,0,0,0,0,0,0,-1,1700,421,0,0
483,603,0,0,0,0,0,0,0,0,0,-1,1707,421,0,0
490,603,0,0,0,0,0,0,0,0,0,-1,1714,421,0,0
497,603,0,0,0,0,0,0,0,0,0,-1,1721,421,0,0
504,603,0,0,0,0,0,0,0,0,0,-1,1728,421,0,0
511,603,0,0,0,0,0,0,0,0,0,-1,1735,421,0,0
518,603,0,0,0,0,0,0,0,0,0,-1,1742,421,0,0
525,603,0,0,0,0,0,0,0,0,0,-1,1749,421,0,0
532,603,0,0,0,0,0,0,0,0,0,-1,1756,421,0,0
539,603,0,0,0,0,0,0,0,0,0,-1,1763,421,0,0
546,603,0,0,0,0,0,0,0,0,0,-1,1770,421,0,0
553,603,0,0,0,0,0,0,0,0,0,-1,1777,421,0,0
560,603,0,0,0,0,0,0,0,0,0,-1,1784,421,0,0
567,603,0,0,0,0,0,0,0,0,0,-1,1791,421,0,0
574,603,0,0,0,0,0,0,0,0,0,-1,1798,421,0,0
581,603,0,0,0,0,0,0,0,0,0,-1,1805,421,0,0
588,603,0,0,0,0,0,0,0,0,0,-1,1812,421,0,0
595,603,0,0,0,0,0,0,0,0,0,-1,1819,421,0,0
602,603,0,0,0,0,0,0,0,0,0,-1,1826,421,0,0
609,603,0,0,0,0,0,0,0,0,0,-1,1833,421,0,0
616,603,0,0,0,0,0,0,0,0,0,-1,1840,421,0,0
623,603,0,0,0,0,0,0,0,0,0,-1,1847,421,0,0
630,603,0,0,0,0,0,0,0,0,0,-1,1854,421,0,0
637,603,0,0,0,0,0,0,0,0,0,-1,1861,421,0,0
644,603,0,0,0,0,0,0,0,0,0,-1,1868,421,0,0
651,603,0,0,0,0,0,0,0,0,0,-1,1875,421,0,0
658,603,0,0,0,0,0,0,0,0,0,-1,1882,421,0,0
665,603,0,0,0,0,0,0,0,0,0,-1,1889,421,0,0
672,603,0,0,0,0,0,0,0,0,0,-1,1896,421,0,0
679,603,0,0,0,0,0,0,0,0,0,-1,1903,421,0,0
686,603,0,0,0,0,0,0,0,0,0,-1,1910,421,0,0
693,603,0,0,0,0,0,0,0,0,0,-1,1917,421,0,0
700,603,0,0,0,0,0,0,0,0,0,-1,1924,421,0,0
707,603,0,0,0,0,0,0,0,0,0,-1,1931,421,0,0
714,603,0,0,0,0,0,0,0,0,0,-1,1938,421,0,0
721,603,0,0,0,0,0,0,0,0,0,-1,1945,421,0,0
728,603,0,0,0,0,0,0,0,0,0,-1,1952,421,0,0
735,603,0,0,0,0,0,0,0,0,0,-1,1959,421,0,0
742,603,0,0,0,0,0,0,0,0,0,-1,1966,421,0,0
749,603,0,0,0,0,0,0,0,0,0,-1,1973,421,0,0
756,603,0,0,0,0,0,0,0,0,0,-1,1980,421,0,0
763,603,0,0,0,0,0,0,0,0,0,-1,1987,421,0,0
770,603,0,0,0,0,0,0,0,0,0,-1,1994,421,0,0
777,603,0,0,0,0,0,0,0,0,0,-1,2001,421,0,0
784,603,0,0,0,0,0,0,0,0,0,-1,2008,421,0,0
791,603,0,0,0,0,0,0,0,0,0,-1,2015,421,0,0
798,603,0,0,0,0,0,0,0,0,0,-1,2022,421,0,0
805,603,0,0,0,0,0,0,0,0,0,-1,2029,421,0,0
812,603,0,0,0,0,0,0,0,0,0,-1,2036,421,0,0
-700,596,0,0,0,0,0,0,0,0,0,-1,524,428,0,0
-693,596,0,0,0,0,0,0,0,0,0,-1,531,428,0,0
-686,596,0,0,0,0,0,0,0,0,0,-1,538,428,0,0
-679,596,0,0,0,0,0,0,0,0,0,-1,545,428,0,0
-672,596,0,0,0,0,0,0,0,0,0,-1,552,428,0,0
-665,596,0,0,0,0,0,0,0,0,0,-1,559,428,0,0
-658,596,0,0,0,0,0,0,0,0,0,-1,566,428,0,0
-651,596,0,0,0,0,0,0,0,0,0,-1,573,428,0,0
-644,596,0,0,0,0,0,0,0,0,0,-1,580,428,0,0
-637,596,0,0,0,0,0,0,0,0,0,-1,587,428,0,0
-630,596,0,0,0,0,0,0,0,0,0,-1,594,428,0,0
-623,596,0,0,0,0,0,0,0,0,0,-1,601,428,0,0
-616,596,0,0,0,0,0,0,0,0,0,-1,608,428,0,0
-609,596,0,0,0,0,0,0,0,0,0,-1,615,428,0,0
-602,596,0,0,0,0,0,0,0,0,0,-1,622,428,0,0
-595,596,0,0,0,0,0,0,0,0,0,-1,629,428,0,0
-588,596,0,0,0,0,0,0,0,0,0,-1,636,428,0,0
-581,596,0,0,0,0,0,0,0,0,0,-1,643,428,0,0
-574,596,0,0,0,0,0,0,0,0,0,-1,650,428,0,0
-567,596,0,0,0,0,0,0,0,0,0,-1,657,428,0,0
-560,596,0,0,0,0,0,0,0,0,0,-1,664,428,0,0
-553,596,0,0,0,0,0,0,0,0,0,-1,671,428,0,0
-546,596,0,0,0,0,0,0,0,0,0,-1,678,428,0,0
-539,596,0,0,0,0,0,0,0,0,0,-1,685,428,0,0
-532,596,0,0,0,0,0,0,0,0,0,-1,692,428,0,0
-525,596,0,0,0,0,0,0,0,0,0,-1,699,428,0,0
-518,596,0,0,0,0,0,0,0,0,0,-1,706,428,0,0
-511,596,0,0,0,0,0,0,0,0,0,-1,713,428,0,0
-504,596,0,0,0,0,0,0,0,0,0,-1,720,428,0,0
-497,596,0,0,0,0,0,0,0,0,0,-1,727,428,0,0
-490,596,0,0,0,0,0,0,0,0,0,-1,734,428,0,0
-483,596,0,0,0,0,0,0,0,0,0,-1,741,428,0,0
-476,596,0,0,0,0,0,0,0,0,0,-1,748,428,0,0
-469,596,0,0,0,0,0,0,0,0,0,-1,755,428,0,0
-462,596,0,0,0,0,0,0,0,0,0,-1,762,428,0,0
-455,596,0,0,0,0,0,0,0,0,0,-1,769,428,0,0
-448,596,0,0,0,0,0,0,0,0,0,-1,776,428,0,0
-441,596,0,0,0,0,0,0,0,0,0,-1,783,428,0,0
-434,596,0,0,0,0,0,0,0,0,0,-1,790,428,0,0
-427,596,0,0,0,0,0,0,0,0,0,-1,797,428,0,0
-420,596,0,0,0,0,0,0,0,0,0,-1,804,428,0,0
-413,596,0,0,0,0,0,0,0,0,0,-1,811,428,0,0
-406,596,0,0,0,0,0,0,0,0,0,-1,818,428,0,0
-399,596,0,0,0,0,0,0,0,0,0,-1,825,428,0,0
-392,596,0,0,0,0,0,0,0,0,0,-1,832,428,0,0
-385,596,0,0,0,0,0,0,0,0,0,-1,839,428,0,0
-378,596,0,0,0,0,0,0,0,0,0,-1,846,428,0,0
-371,596,0,0,0,0,0,0,0,0,0,-1,853,428,0,0
-364,596,0,0,0,0,0,0,0,0,0,-1,860,428,0,0
-357,596,0,0,0,0,0,0,0,0,0,-1,867,428,0,0
-350,596,0,0,0,0,0,0,0,0,0,-1,874,428,0,0
-343,596,0,0,0,0,0,0,0,0,0,-1,881,428,0,0
-336,596,6.81445,-30.5258,0,0,0,0,0,0,0,-1,888,428,6.81446,30.5258
-329,596,6.84772,-28.9253,0,0,0,0,0,0,0,-1,895,428,6.84773,28.9253
-322,596,6.97449,-27.9047,0,0,0,0,0,0,0,-1,902,428,6.97451,27.9047
-315,596,7.10132,-26.8841,0,0,0,0,0,0,0,-1,909,428,7.10129,26.8841
-308,596,0.254761,-20.841,0,0,0,0,0,0,0,-1,916,428,0.254731,20.841
-301,596,3.43213,-26.756,0,0,0,0,0,0,0,-1,923,428,3.43214,26.756
-294,596,4.1767,-27.6454,0,0,0,0,0,0,0,-1,930,428,4.17667,27.6454
-287,596,4.36041,-27.6119,0,0,0,0,0,0,0,-1,937,428,4.3604,27.6119
-280,596,5.96619,-42.5634,0,0,0,0,0,0,0,-1,944,428,5.96616,42.5634
-273,596,6.43732,-79.1028,0,0,0,0,0,0,0,-1,951,428,6.43729,79.1027
-266,596,5.98578,-80.1731,0,0,0,0,0,0,0,-1,958,428,5.98578,80.1731
-259,596,4.25879,-131.114,0,0,0,0,0,0,0,-1,965,428,4.25878,131.114
-252,596,1.48248,-192.981,0,0,0,0,0,0,0,-1,972,428,1.4825,192.981
-245,596,-8.00763,-200.437,0,0,0,0,0,0,0,-1,979,428,-8.00765,200.437
-238,596,-8.60559,-202.678,0,0,0,0,0,0,0,-1,986,428,-8.60557,202.678
-231,596,-9.21069,-205.856,0.0167112,0.00577743,0.00537968,0.0189142,0.00357438,0.38868,0.011603,0.0404058,993,428,-9.21071,205.856
-224,596,-9.61548,-208.848,0.0192745,0.00495768,0.0073058,0.0223444,0.00188782,0.397794,0.0143086,0.0237662,1000,428,-9.6155,208.848
-217,596,-10.1247,-211.623,0.0219416,0.00421059,0.00941347,0.0260071,0.000145094,0.407684,0.0172899,0.0202259,1007,428,-10.1247,211.623
-210,596,-10.524,-214.334,0.0246324,0.00344734,0.0111324,0.0294064,-0.0013267,0.405121,0.0200611,0.018143,1014,428,-10.524,214.334
-203,596,-10.8291,-217.11,0.0271003,0.0023351,0.0130076,0.0326767,-0.00324128,0.405004,0.0229413,0.0235371,1021,428,-10.8291,217.11
-196,596,-11.0319,-219.673,0.0299049,0.00130712,0.0146196,0.0360557,-0.00484367,0.398243,0.0258037,0.0249973,1028,428,-11.0319,219.673
-189,596,-11.3292,-222.211,0.0329849,3.72204e-05,0.0161851,0.0396053,-0.00658323,0.388279,0.0288494,0.0211638,1035,428,-11.3292,222.211
-182,596,-11.5223,-224.508,0.0361458,-0.00164629,0.0177475,0.0431734,-0.0086739,0.377033,0.032067,0.0185494,1042,428,-11.5223,224.508
-175,596,-11.6218,-226.905,0.039364,-0.00384934,0.0192331,0.0466841,-0.0111695,0.363673,0.0354376,0.0189762,1049,428,-11.6219,226.905
-168,596,-11.8262,-229.302,0.0427353,-0.00595294,0.0204241,0.0501682,-0.0133859,0.349029,0.0386872,0.0238211,1056,428,-11.8262,229.302
-161,596,-11.915,-231.602,0.0460386,-0.00807781,0.0215062,0.0535443,-0.0155835,0.335785,0.0418688,0.0237174,1063,428,-11.915,231.602
-154,596,-11.9574,-233.828,0.0491718,-0.00978382,0.0227422,0.0569251,-0.0175371,0.328561,0.0449509,0.0287471,1070,428,-11.9574,233.828
-147,596,-11.8351,-235.693,0.0525855,-0.0110758,0.0238861,0.060551,-0.0190413,0.321883,0.0479906,0.0416251,1077,428,-11.8351,235.693
-140,596,-11.5687,-237.766,0.0555116,-0.0120209,0.0247805,0.0636289,-0.0201382,0.316554,0.0504889,0.0465666,1084,428,-11.5687,237.766
-133,596,-11.4213,-240.013,0,0,0,0,0,0,0,-1,1091,428,-11.4212,240.013
-126,596,-11.3777,-241.903,0.0606054,-0.0139854,0.0260585,0.0688072,-0.0221872,0.304929,0.0547858,0.0172147,1098,428,-11.3777,241.903
-119,596,-11.1976,-243.761,0.0630393,-0.0141846,0.0267403,0.0713947,-0.02254,0.302851,0.0566254,0.019872,1105,428,-11.1976,243.761
-112,596,-11.1824,-245.557,0.065809,-0.0143719,0.0275391,0.0743565,-0.0229193,0.300948,0.0587211,0.0235277,1112,428,-11.1824,245.557
-105,596,-11.109,-247.44,0.0689184,-0.0142754,0.0276473,0.0772682,-0.0226253,0.293302,0.0604814,0.0371173,1119,428,-11.1091,247.44
-98,596,-10.7247,-249.156,0.0722602,-0.0141158,0.0275263,0.0802865,-0.0221421,0.283719,0.0622322,0.0473633,1126,428,-10.7247,249.156
-91,596,-10.4821,-251.003,0,0,0,0,0,0,0,-1,1133,428,-10.482,251.003
-84,596,-9.85229,-252.162,0,0,0,0,0,0,0,-1,1140,428,-9.85226,252.162
-77,596,-8.9458,-253.848,0,0,0,0,0,0,0,-1,1147,428,-8.94578,253.848
-70,596,3.50696,-32.137,0,0,0,0,0,0,0,-1,1154,428,3.50696,32.137
-63,596,1.95569,-12.2758,0,0,0,0,0,0,0,-1,1161,428,1.95563,12.2759
-56,596,1.60107,-10.5827,0,0,0,0,0,0,0,-1,1168,428,1.60108,10.5827
-49,596,1.59473,-10.0393,0,0,0,0,0,0,0,-1,1175,428,1.59472,10.0393
-42,596,1.99585,-6.6246,0,0,0,0,0,0,0,-1,1182,428,1.99586,6.62459
-35,596,-6.0874,-260.64,0,0,0,0,0,0,0,-1,1189,428,-6.08745,260.64
-28,596,-5.1554,-261.64,0,0,0,0,0,0,0,-1,1196,428,-5.15545,261.64
-21,596,-4.59802,-262.635,0,0,0,0,0,0,0,-1,1203,428,-4.59801,262.635
-14,596,-4.047,-263.745,0,0,0,0,0,0,0,-1,1210,428,-4.04703,263.745
-7,596,-1.98584,-263.895,0,0,0,0,0,0,0,-1,1217,428,-1.98584,263.895
0,596,4.94812,-137.228,0,0,0,0,0,0,0,-1,1224,428,4.94809,137.228
7,596,16.2372,-110.811,0,0,0,0,0,0,0,-1,1231,428,16.2371,110.811
14,596,15.9218,-111.105,0,0,0,0,0,0,0,-1,1238,428,15.9218,111.105
21,596,9.53357,-104.719,0,0,0,0,0,0,0,-1,1245,428,9.53354,104.719
28,596,7.12244,-103.211,0,0,0,0,0,0,0,-1,1252,428,7.12247,103.211
35,596,10.887,-113.712,0,0,0,0,0,0,0,-1,1259,428,10.887,113.712
42,596,9.40198,-114.092,0,0,0,0,0,0,0,-1,1266,428,9.40201,114.092
49,596,3.15991,-265.893,0,0,0,0,0,0,0,-1,1273,428,3.15992,265.893
56,596,7.07568,-114.423,0,0,0,0,0,0,0,-1,1280,428,7.07565,114.423
63,596,6.10706,-114.603,0,0,0,0,0,0,0,-1,1287,428,6.10701,114.603
70,596,4.93799,-114.536,0,0,0,0,0,0,0,-1,1294,428,4.93803,114.536
77,596,3.7356,-114.595,0,0,0,0,0,0,0,-1,1301,428,3.73557,114.595
84,596,1.77319,-111.164,0,0,0,0,0,0,0,-1,1308,428,1.77315,111.164
91,596,0.043457,-110.488,0,0,0,0,0,0,0,-1,1315,428,0.043504,110.488
98,596,-1.64661,-109.713,0,0,0,0,0,0,0,-1,1322,428,-1.64663,109.713
105,596,-4.9458,-115.477,0,0,0,0,0,0,0,-1,1329,428,-4.94585,115.477
112,596,3.37952,-99.9267,0,0,0,0,0,0,0,-1,1336,428,3.3795,99.9267
119,596,-1.34705,-127.626,0,0,0,0,0,0,0,-1,1343,428,-1.34705,127.626
126,596,-2.12634,-128.843,0,0,0,0,0,0,0,-1,1350,428,-2.12635,128.843
133,596,-13.7607,-114.368,0,0,0,0,0,0,0,-1,1357,428,-13.7607,114.368
140,596,-2.68896,-133.173,0,0,0,0,0,0,0,-1,1364,428,-2.68897,133.173
147,596,-4.47974,-92.1547,0,0,0,0,0,0,0,-1,1371,428,-4.4797,92.1547
154,596,-4.78699,-135.457,0,0,0,0,0,0,0,-1,1378,428,-4.78705,135.457
161,596,14.6627,-260.422,0,0,0,0,0,0,0,-1,1385,428,14.6627,260.422
168,596,12.5786,-183.263,0,0,0,0,0,0,0,-1,1392,428,12.5786,183.263
175,596,13.1626,-108.734,0,0,0,0,0,0,0,-1,1399,428,13.1625,108.734
182,596,12.1792,-74.929,0,0,0,0,0,0,0,-1,1406,428,12.1791,74.929
189,596,12.5646,-200.22,0,0,0,0,0,0,0,-1,1413,428,12.5645,200.22
196,596,17.9619,-254.81,0,0,0,0,0,0,0,-1,1420,428,17.9619,254.81
203,596,18.2643,-253.974,0,0,0,0,0,0,0,-1,1427,428,18.2643,253.974
210,596,18.7745,-252.969,0,0,0,0,0,0,0,-1,1434,428,18.7746,252.969
217,596,18.8923,-251.39,0,0,0,0,0,0,0,-1,1441,428,18.8923,251.39
224,596,19.9298,-249.377,0,0,0,0,0,0,0,-1,1448,428,19.9299,249.377
231,596,20.605,-247.798,0.0808567,-0.0193534,-0.0227333,0.0857728,-0.0242695,-0.212969,0.0667587,0.0378502,1455,428,20.605,247.798
238,596,20.6744,-246.051,0.0791078,-0.0167074,-0.0231035,0.0843877,-0.0219873,-0.224674,0.0648423,0.0314775,1462,428,20.6744,246.051
245,596,20.9611,-244.207,0.0771393,-0.0143131,-0.0232071,0.0826913,-0.0198651,-0.234824,0.0628053,0.0274078,1469,428,20.9611,244.207
252,596,21.3549,-242.325,0.075028,-0.0119714,-0.02305,0.0807576,-0.017701,-0.243636,0.0606066,0.0191407,1476,428,21.3548,242.325
259,596,21.6622,-240.464,0.072672,-0.00948032,-0.0232889,0.0788148,-0.0156231,-0.257889,0.058451,0.0176276,1483,428,21.6622,240.464
266,596,21.8372,-238.491,0.0696622,-0.00669018,-0.0233801,0.0762526,-0.0132806,-0.274753,0.0557913,0.0167699,1490,428,21.8372,238.491
273,596,22.0333,-236.337,0.065649,-0.00380983,-0.023262,0.0727197,-0.0108806,-0.295087,0.052484,0.0173467,1497,428,22.0333,236.337
280,596,22.1462,-234.202,0.0613718,-0.00107851,-0.0227856,0.0688014,-0.00850815,-0.315197,0.0489508,0.0179377,1504,428,22.1463,234.202
287,596,22.228,-231.939,0.057593,0.0010813,-0.0221711,0.065253,-0.00657872,-0.332657,0.0458525,0.0203782,1511,428,22.228,231.939
294,596,22.2666,-229.696,0.0534799,0.00318913,-0.0214229,0.0613683,-0.00469924,-0.352815,0.0425652,0.0221012,1518,428,22.2666,229.696
301,596,22.2151,-227.397,0.0492821,0.00500088,-0.0204902,0.0573086,-0.00302561,-0.373352,0.0392531,0.0388623,1525,428,22.2151,227.397
308,596,21.9999,-224.902,0,0,0,0,0,0,0,-1,1532,428,21.9999,224.902
315,596,22.1316,-222.16,0,0,0,0,0,0,0,-1,1539,428,22.1316,222.16
322,596,21.8606,-219.908,0.0371031,0.0102341,-0.0161854,0.0447031,0.00263402,-0.439003,0.028964,0.021744,1546,428,21.8606,219.908
329,596,21.6263,-217.294,0.0334138,0.0121589,-0.0140225,0.0403811,0.00519167,-0.461134,0.0253679,0.0170018,1553,428,21.6263,217.294
336,596,21.3385,-214.759,0.0296801,0.0140996,-0.0116007,0.0358635,0.00791615,-0.489718,0.0217558,0.017304,1560,428,21.3385,214.759
343,596,20.9777,-212.012,0.025394,0.0168315,-0.0088563,0.0309496,0.0112759,-0.560253,0.0180867,0.0184169,1567,428,20.9777,212.012
350,596,20.522,-209.059,0.0213803,0.0205933,-0.00541979,0.0264209,0.0155527,-0.749156,0.0153338,0.015908,1574,428,20.522,209.059
357,596,20.0426,-206.117,0.0180738,0.0240117,-0.0019158,0.0245761,0.0175093,-1.28427,0.0146098,0.0174665,1581,428,20.0426,206.117
364,596,19.55,-203.07,0.0146688,0.0278966,0.00174709,0.0281234,0.014442,1.44167,0.016239,0.0436376,1588,428,19.5501,203.071
371,596,18.9271,-200.295,0,0,0,0,0,0,0,-1,1595,428,18.9271,200.295
378,596,18.326,-197.02,0,0,0,0,0,0,0,-1,1602,428,18.326,197.02
385,596,3.64026,-167.129,0,0,0,0,0,0,0,-1,1609,428,3.64024,167.129
392,596,3.25391,-146.365,0,0,0,0,0,0,0,-1,1616,428,3.25394,146.365
399,596,3.38647,-141.819,0,0,0,0,0,0,0,-1,1623,428,3.38653,141.819
406,596,10.4819,-65.187,0,0,0,0,0,0,0,-1,1630,428,10.482,65.187
413,596,12.1365,-50.3984,0,0,0,0,0,0,0,-1,1637,428,12.1364,50.3984
420,596,14.0704,-45.0912,0,0,0,0,0,0,0,-1,1644,428,14.0704,45.0912
427,596,8.40686,-23.8744,0,0,0,0,0,0,0,-1,1651,428,8.40683,23.8744
434,596,5.09753,-22.5213,0,0,0,0,0,0,0,-1,1658,428,5.09755,22.5213
441,596,7.19043,-22.087,0,0,0,0,0,0,0,-1,1665,428,7.19046,22.087
448,596,1.0769,0.0083313,0,0,0,0,0,0,0,-1,1672,428,1.07684,-0.00832231
455,596,2.00769,-1.43329,0,0,0,0,0,0,0,-1,1679,428,2.00765,1.4333
462,596,0,0,0,0,0,0,0,0,0,-1,1686,428,0,0
469,596,0,0,0,0,0,0,0,0,0,-1,1693,428,0,0
476,596,0,0,0,0,0,0,0,0,0,-1,1700,428,0,0
483,596,0,0,0,0,0,0,0,0,0,-1,1707,428,0,0
490,596,0,0,0,0,0,0,0,0,0,-1,1714,428,0,0
497,596,0,0,0,0,0,0,0,0,0,-1,1721,428,0,0
504,596,0,0,0,0,0,0,0,0,0,-1,1728,428,0,0
511,596,0,0,0,0,0,0,0,0,0,-1,1735,428,0,0
518,596,0,0,0,0,0,0,0,0,0,-1,1742,428,0,0
525,596,0,0,0,0,0,0,0,0,0,-1,1749,428,0,0
532,596,0,0,0,0,0,0,0,0,0,-1,1756,428,0,0
539,596,0,0,0,0,0,0,0,0,0,-1,1763,428,0,0
546,596,0,0,0,0,0,0,0,0,0,-1,1770,428,0,0
553,596,0,0,0,0,0,0,0,0,0,-1,1777,428,0,0
560,596,0,0,0,0,0,0,0,0,0,-1,1784,428,0,0
567,596,0,0,0,0,0,0,0,0,0,-1,1791,428,0,0
574,596,0,0,0,0,0,0,0,0,0,-1,1798,428,0,0
581,596,0,0,0,0,0,0,0,0,0,-1,1805,428,0,0
588,596,0,0,0,0,0,0,0,0,0,-1,1812,428,0,0
595,596,0,0,0,0,0,0,0,0,0,-1,1819,428,0,0
602,596,0,0,0,0,0,0,0,0,0,-1,1826,428,0,0
609,596,0,0,0,0,0,0,0,0,0,-1,1833,428,0,0
616,596,0,0,0,0,0,0,0,0,0,-1,1840,428,0,0
623,596,0,0,0,0,0,0,0,0,0,-1,1847,428,0,0
630,596,0,0,0,0,0,0,0,0,0,-1,1854,428,0,0
637,596,0,0,0,0,0,0,0,0,0,-1,1861,428,0,0
644,596,0,0,0,0,0,0,0,0,0,-1,1868,428,0,0
651,596,0,0,0,0,0,0,0,0,0,-1,1875,428,0,0
658,596,0,0,0,0,0,0,0,0,0,-1,1882,428,0,0
665,596,0,0,0,0,0,0,0,0,0,-1,1889,428,0,0
672,596,0,0,0,0,0,0,0,0,0,-1,1896,428,0,0
679,596,0,0,0,0,0,0,0,0,0,-1,1903,428,0,0
686,596,0,0,0,0,0,0,0,0,0,-1,1910,428,0,0
693,596,0,0,0,0,0,0,0,0,0,-1,1917,428,0,0
700,596,0,0,0,0,0,0,0,0,0,-1,1924,428,0,0
707,596,0,0,0,0,0,0,0,0,0,-1,1931,428,0,0
714,596,0,0,0,0,0,0,0,0,0,-1,1938,428,0,0
721,596,0,0,0,0,0,0,0,0,0,-1,1945,428,0,0
728,596,0,0,0,0,0,0,0,0,0,-1,1952,428,0,0
735,596,0,0,0,0,0,0,0,0,0,-1,1959,428,0,0
742,596,0,0,0,0,0,0,0,0,0,-1,1966,428,0,0
749,596,0,0,0,0,0,0,0,0,0,-1,1973,428,0,0
756,596,0,0,0,0,0,0,0,0,0,-1,1980,428,0,0
763,596,0,0,0,0,0,0,0,0,0,-1,1987,428,0,0
770,596,0,0,0,0,0,0,0,0,0,-1,1994,428,0,0
777,596,0,0,0,0,0,0,0,0,0,-1,2001,428,0,0
784,596,0,0,0,0,0,0,0,0,0,-1,2008,428,0,0
791,596,0,0,0,0,0,0,0,0,0,-1,2015,428,0,0
798,596,0,0,0,0,0,0,0,0,0,-1,2022,428,0,0
805,596,0,0,0,0,0,0,0,0,0,-1,2029,428,0,0
812,596,0,0,0,0,0,0,0,0,0,-1,2036,428,0,0
-700,589,0,0,0,0,0,0,0,0,0,-1,524,435,0,0
-693,589,0,0,0,0,0,0,0,0,0,-1,531,435,0,0
-686,589,0,0,0,0,0,0,0,0,0,-1,538,435,0,0
-679,589,0,0,0,0,0,0,0,0,0,-1,545,435,0,0
-672,589,0,0,0,0,0,0,0,0,0,-1,552,435,0,0
-665,589,0,0,0,0,0,0,0,0,0,-1,559,435,0,0
-658,589,0,0,0,0,0,0,0,0,0,-1,566,435,0,0
-651,589,0,0,0,0,0,0,0,0,0,-1,573,435,0,0
-644,589,0,0,0,0,0,0,0,0,0,-1,580,435,0,0
-637,589,0,0,0,0,0,0,0,0,0,-1,587,435,0,0
-630,589,0,0,0,0,0,0,0,0,0,-1,594,435,0,0
-623,589,0,0,0,0,0,0,0,0,0,-1,601,435,0,0
-616,589,0,0,0,0,0,0,0,0,0,-1,608,435,0,0
-609,589,0,0,0,0,0,0,0,0,0,-1,615,435,0,0
-602,589,0,0,0,0,0,0,0,0,0,-1,622,435,0,0
-595,589,0,0,0,0,0,0,0,0,0,-1,629,435,0,0
-588,589,0,0,0,0,0,0,0,0,0,-1,636,435,0,0
-581,589,0,0,0,0,0,0,0,0,0,-1,643,435,0,0
-574,589,0,0,0,0,0,0,0,0,0,-1,650,435,0,0
-567,589,0,0,0,0,0,0,0,0,0,-1,657,435,0,0
-560,589,0,0,0,0,0,0,0,0,0,-1,664,435,0,0
-553,589,0,0,0,0,0,0,0,0,0,-1,671,435,0,0
-546,589,0,0,0,0,0,0,0,0,0,-1,678,435,0,0
-539,589,0,0,0,0,0,0,0,0,0,-1,685,435,0,0
-532,589,0,0,0,0,0,0,0,0,0,-1,692,435,0,0
-525,589,0,0,0,0,0,0,0,0,0,-1,699,435,0,0
-518,589,0,0,0,0,0,0,0,0,0,-1,706,435,0,0
-511,589,0,0,0,0,0,0,0,0,0,-1,713,435,0,0
-504,589,0,0,0,0,0,0,0,0,0,-1,720,435,0,0
-497,589,0,0,0,0,0,0,0,0,0,-1,727,435,0,0
-490,589,0,0,0,0,0,0,0,0,0,-1,734,435,0,0
-483,589,0,0,0,0,0,0,0,0,0,-1,741,435,0,0
-476,589,0,0,0,0,0,0,0,0,0,-1,748,435,0,0
-469,589,0,0,0,0,0,0,0,0,0,-1,755,435,0,0
-462,589,0,0,0,0,0,0,0,0,0,-1,762,435,0,0
-455,589,0,0,0,0,0,0,0,0,0,-1,769,435,0,0
-448,589,0,0,0,0,0,0,0,0,0,-1,776,435,0,0
-441,589,0,0,0,0,0,0,0,0,0,-1,783,435,0,0
-434,589,0,0,0,0,0,0,0,0,0,-1,790,435,0,0
-427,589,0,0,0,0,0,0,0,0,0,-1,797,435,0,0
-420,589,0,0,0,0,0,0,0,0,0,-1,804,435,0,0
-413,589,0,0,0,0,0,0,0,0,0,-1,811,435,0,0
-406,589,0,0,0,0,0,0,0,0,0,-1,818,435,0,0
-399,589,0,0,0,0,0,0,0,0,0,-1,825,435,0,0
-392,589,0,0,0,0,0,0,0,0,0,-1,832,435,0,0
-385,589,0,0,0,0,0,0,0,0,0,-1,839,435,0,0
-378,589,0,0,0,0,0,0,0,0,0,-1,846,435,0,0
-371,589,0,0,0,0,0,0,0,0,0,-1,853,435,0,0
-364,589,0,0,0,0,0,0,0,0,0,-1,860,435,0,0
-357,589,0,0,0,0,0,0,0,0,0,-1,867,435,0,0
-350,589,-0.799927,-20.664,0,0,0,0,0,0,0,-1,874,435,-0.799952,20.664
-343,589,5.15289,-30.4847,0,0,0,0,0,0,0,-1,881,435,5.15291,30.4847
-336,589,5.07684,-29.2368,0,0,0,0,0,0,0,-1,888,435,5.07687,29.2368
-329,589,4.9624,-28.1366,0,0,0,0,0,0,0,-1,895,435,4.96242,28.1366
-322,589,5.10156,-27.065,0,0,0,0,0,0,0,-1,902,435,5.10155,27.065
-315,589,4.22705,-27.9655,0,0,0,0,0,0,0,-1,909,435,4.22705,27.9655
-308,589,4.46698,-29.037,0,0,0,0,0,0,0,-1,916,435,4.46696,29.037
-301,589,4.94867,-33.7458,0,0,0,0,0,0,0,-1,923,435,4.94869,33.7458
-294,589,4.1037,-31.2976,0,0,0,0,0,0,0,-1,930,435,4.10371,31.2976
-287,589,5.97778,-51.672,0,0,0,0,0,0,0,-1,937,435,5.97776,51.672
-280,589,3.64484,-141.037,0,0,0,0,0,0,0,-1,944,435,3.64486,141.037
-273,589,-7.46747,-185.297,0,0,0,0,0,0,0,-1,951,435,-7.46748,185.297
-266,589,-7.28705,-188.428,0,0,0,0,0,0,0,-1,958,435,-7.28705,188.428
-259,589,-9.59802,-192.423,0,0,0,0,0,0,0,-1,965,435,-9.59804,192.423
-252,589,-10.3514,-196.686,0,0,0,0,0,0,0,-1,972,435,-10.3514,196.686
-245,589,-11.0209,-199.656,0.0167663,0.00535609,0.00682163,0.019954,0.00216833,0.437148,0.012642,0.0313673,979,435,-11.021,199.656
-238,589,-11.6495,-202.545,0.0193893,0.00405369,0.00906698,0.0235961,-0.000153063,0.434406,0.015782,0.0256218,986,435,-11.6495,202.545
-231,589,-12.1365,-205.398,0.0219062,0.00252485,0.0112986,0.0271006,-0.00266961,0.430928,0.0190195,0.021894,993,435,-12.1366,205.398
-224,589,-12.4853,-208.194,0.0247637,0.00149882,0.0132184,0.0307392,-0.00447666,0.424565,0.0221364,0.01814,1000,435,-12.4853,208.194
-217,589,-12.9318,-211.051,0.0276897,0.000467221,0.0151816,0.0344683,-0.00631144,0.419943,0.025346,0.0189714,1007,435,-12.9318,211.051
-210,589,-13.328,-213.747,0.0306487,-0.000564903,0.0168589,0.0380157,-0.00793187,0.411973,0.0283599,0.0231277,1014,435,-13.328,213.747
-203,589,-13.5491,-216.462,0.033481,-0.00198243,0.0185943,0.0414428,-0.00994431,0.40457,0.0314715,0.0186822,1021,435,-13.5491,216.462
-196,589,-13.7508,-219.109,0.0365938,-0.0032497,0.0201169,0.0449839,-0.0116399,0.395136,0.0345295,0.0219902,1028,435,-13.7508,219.109
-189,589,-13.976,-221.705,0.0401009,-0.00483953,0.0216797,0.0488544,-0.013593,0.383748,0.0379216,0.0252478,1035,435,-13.9759,221.705
-182,589,-14.1022,-223.987,0.0437373,-0.00682135,0.0231773,0.0527542,-0.0158382,0.371023,0.0414696,0.0206805,1042,435,-14.1021,223.987
-175,589,-14.1233,-226.366,0.0475275,-0.0092168,0.0244814,0.0566296,-0.0183189,0.355959,0.0451166,0.0258194,1049,435,-14.1233,226.366
-168,589,-14.3046,-228.74,0.0512073,-0.0114087,0.0254619,0.060254,-0.0204554,0.341391,0.0484492,0.0209125,1056,435,-14.3046,228.74
-161,589,-14.2999,-231.005,0.0545794,-0.0136605,0.0263813,0.0635888,-0.02267,0.32909,0.0516356,0.0197502,1063,435,-14.3,231.005
-154,589,-14.2568,-233.235,0.0578739,-0.0151997,0.0275156,0.067076,-0.0244018,0.322739,0.0546968,0.0259458,1070,435,-14.2569,233.235
-147,589,-14.2041,-235.339,0.0616235,-0.0163348,0.028679,0.0710372,-0.0257484,0.31716,0.0578825,0.0341897,1077,435,-14.2041,235.339
-140,589,-13.9722,-237.365,0.0645738,-0.0168354,0.0295248,0.0741542,-0.0264158,0.313767,0.0602052,0.0388799,1084,435,-13.9722,237.365
-133,589,-13.7429,-239.534,0,0,0,0,0,0,0,-1,1091,435,-13.7429,239.534
-126,589,-13.3234,-241.393,0,0,0,0,0,0,0,-1,1098,435,-13.3234,241.393
-119,589,-13.1898,-243.228,0,0,0,0,0,0,0,-1,1105,435,-13.1898,243.228
-112,589,-13.2017,-245.085,0,0,0,0,0,0,0,-1,1112,435,-13.2016,245.085
-105,589,-13.1395,-247.049,0,0,0,0,0,0,0,-1,1119,435,-13.1395,247.049
-98,589,-12.9124,-249.204,0,0,0,0,0,0,0,-1,1126,435,-12.9124,249.204
-91,589,3.39563,-37.8231,0,0,0,0,0,0,0,-1,1133,435,3.39565,37.8231
-84,589,2.76538,-22.6013,0,0,0,0,0,0,0,-1,1140,435,2.76539,22.6014
-77,589,2.18152,-14.8023,0,0,0,0,0,0,0,-1,1147,435,2.18155,14.8023
-70,589,1.48267,-9.90961,0,0,0,0,0,0,0,-1,1154,435,1.48264,9.9096
-63,589,0.880127,-5.50586,0,0,0,0,0,0,0,-1,1161,435,0.880186,5.50587
-56,589,-2.78052,-7.28082,0,0,0,0,0,0,0,-1,1168,435,-2.78053,7.28082
-49,589,-0.525757,-2.76703,0,0,0,0,0,0,0,-1,1175,435,-0.525771,2.76702
-42,589,-2.7738,-2.87921,0,0,0,0,0,0,0,-1,1182,435,-2.77383,2.87922
-35,589,-2.55225,-3.27551,0,0,0,0,0,0,0,-1,1189,435,-2.55223,3.27552
-28,589,-0.0632324,-3.42938,0,0,0,0,0,0,0,-1,1196,435,-0.063241,3.42938
-21,589,15.5778,-99.7729,0,0,0,0,0,0,0,-1,1203,435,15.5778,99.7729
-14,589,14.9618,-100.803,0,0,0,0,0,0,0,-1,1210,435,14.9618,100.803
-7,589,14.3303,-101.778,0,0,0,0,0,0,0,-1,1217,435,14.3303,101.778
0,589,17.1877,-111.409,0,0,0,0,0,0,0,-1,1224,435,17.1877,111.409
7,589,16.363,-111.618,0,0,0,0,0,0,0,-1,1231,435,16.363,111.618
14,589,15.6997,-111.695,0,0,0,0,0,0,0,-1,1238,435,15.6997,111.695
21,589,13.1064,-112.612,0,0,0,0,0,0,0,-1,1245,435,13.1065,112.612
28,589,12.0957,-113.304,0,0,0,0,0,0,0,-1,1252,435,12.0957,113.304
35,589,11.0186,-113.676,0,0,0,0,0,0,0,-1,1259,435,11.0186,113.676
42,589,9.72021,-113.985,0,0,0,0,0,0,0,-1,1266,435,9.72016,113.985
49,589,8.46631,-114.221,0,0,0,0,0,0,0,-1,1273,435,8.46635,114.221
56,589,7.44238,-113.94,0,0,0,0,0,0,0,-1,1280,435,7.44242,113.94
63,589,6.17566,-113.036,0,0,0,0,0,0,0,-1,1287,435,6.17565,113.036
70,589,4.76013,-112.026,0,0,0,0,0,0,0,-1,1294,435,4.7601,112.027
77,589,3.39417,-111.1,0,0,0,0,0,0,0,-1,1301,435,3.39422,111.1
84,589,1.68945,-110.425,0,0,0,0,0,0,0,-1,1308,435,1.68949,110.425
91,589,-0.0352783,-109.718,0,0,0,0,0,0,0,-1,1315,435,-0.0352847,109.718
98,589,-1.72131,-108.985,0,0,0,0,0,0,0,-1,1322,435,-1.72126,108.985
105,589,-0.284424,-123.939,0,0,0,0,0,0,0,-1,1329,435,-0.28442,123.939
112,589,-0.942871,-125.034,0,0,0,0,0,0,0,-1,1336,435,-0.942885,125.034
119,589,-1.61108,-127.002,0,0,0,0,0,0,0,-1,1343,435,-1.61105,127.002
126,589,-2.33337,-128.551,0,0,0,0,0,0,0,-1,1350,435,-2.33342,128.551
133,589,-3.10193,-130.161,0,0,0,0,0,0,0,-1,1357,435,-3.1019,130.161
140,589,-3.05334,-132.754,0,0,0,0,0,0,0,-1,1364,435,-3.05333,132.754
147,589,-3.672,-133.969,0,0,0,0,0,0,0,-1,1371,435,-3.67202,133.969
154,589,-4.3866,-135.404,0,0,0,0,0,0,0,-1,1378,435,-4.38657,135.404
161,589,-4.89026,-137.749,0,0,0,0,0,0,0,-1,1385,435,-4.89027,137.749
168,589,13.689,-82.1438,0,0,0,0,0,0,0,-1,1392,435,13.689,82.1438
175,589,8.66992,-7.65527,0,0,0,0,0,0,0,-1,1399,435,8.66994,7.65528
182,589,3.8136,-2.45389,0,0,0,0,0,0,0,-1,1406,435,3.81363,2.4539
189,589,3.69983,-3.68149,0,0,0,0,0,0,0,-1,1413,435,3.69987,3.68147
196,589,3.31055,-5.31677,0,0,0,0,0,0,0,-1,1420,435,3.31059,5.31678
203,589,2.72559,-8.84338,0,0,0,0,0,0,0,-1,1427,435,2.72558,8.84338
210,589,3.62378,-14.4032,0,0,0,0,0,0,0,-1,1434,435,3.62378,14.4032
217,589,4.65601,-22.3745,0,0,0,0,0,0,0,-1,1441,435,4.65607,22.3745
224,589,6.79028,-33.9412,0,0,0,0,0,0,0,-1,1448,435,6.79028,33.9412
231,589,22.59,-247.513,0,0,0,0,0,0,0,-1,1455,435,22.5899,247.513
238,589,22.5905,-245.682,0,0,0,0,0,0,0,-1,1462,435,22.5905,245.683
245,589,22.8269,-243.794,0,0,0,0,0,0,0,-1,1469,435,22.8269,243.794
252,589,23.2903,-241.925,0,0,0,0,0,0,0,-1,1476,435,23.2903,241.925
259,589,23.6984,-240.272,0.0827438,-0.0139189,-0.026252,0.0894133,-0.0205883,-0.248791,0.067526,0.0404425,1483,435,23.6983,240.272
266,589,24.0314,-237.99,0.0794546,-0.0105021,-0.0264779,0.0866695,-0.017717,-0.266028,0.0645016,0.0257188,1490,435,24.0314,237.99
273,589,24.369,-235.825,0.0750004,-0.00719718,-0.0265585,0.0828348,-0.0150316,-0.286853,0.0608558,0.0180342,1497,435,24.369,235.825
280,589,24.5198,-233.744,0.0703443,-0.004162,-0.0261436,0.0786025,-0.0124202,-0.30596,0.0569946,0.0179094,1504,435,24.5197,233.744
287,589,24.6243,-231.541,0.066551,-0.00180216,-0.025612,0.0750829,-0.010334,-0.321559,0.0538316,0.0231095,1511,435,24.6242,231.541
294,589,24.7469,-229.175,0.0622848,0.000514802,-0.025094,0.0711941,-0.00839458,-0.341158,0.0504941,0.0341118,1518,435,24.747,229.175
301,589,24.9406,-226.793,0,0,0,0,0,0,0,-1,1525,435,24.9406,226.793
308,589,25.1542,-224.002,0,0,0,0,0,0,0,-1,1532,435,25.1542,224.002
315,589,24.9413,-221.832,0,0,0,0,0,0,0,-1,1539,435,24.9413,221.832
322,589,24.6598,-219.408,0.0449672,0.00753787,-0.0210425,0.0544133,-0.00190815,-0.421941,0.036928,0.0216327,1546,435,24.6597,219.408
329,589,24.4276,-216.808,0.0411254,0.009324,-0.0190992,0.0500765,0.000372898,-0.438266,0.0332607,0.0189455,1553,435,24.4277,216.808
336,589,24.1794,-214.248,0.0373159,0.0110428,-0.0169742,0.0456431,0.00271559,-0.456083,0.0295652,0.0177098,1560,435,24.1795,214.248
343,589,23.8787,-211.519,0.0329725,0.0132647,-0.0146063,0.040738,0.00549923,-0.488648,0.0255238,0.0178059,1567,435,23.8786,211.519
350,589,23.3738,-208.599,0.0288947,0.0163547,-0.011671,0.0358733,0.00937613,-0.538905,0.0214833,0.0214417,1574,435,23.3738,208.599
357,589,22.9369,-205.612,0.0255648,0.0192647,-0.00863279,0.0316043,0.0132252,-0.610458,0.0183274,0.018703,1581,435,22.9368,205.612
364,589,22.5388,-202.638,0.0221357,0.0224804,-0.00545169,0.0277625,0.0168537,-0.801201,0.0161507,0.0154464,1588,435,22.5388,202.637
371,589,21.974,-199.629,0.0186572,0.0267517,-0.00163223,0.0270684,0.0183404,-1.37913,0.015953,0.0155335,1595,435,21.974,199.629
378,589,21.3564,-196.45,0.0157688,0.0309123,0.00226961,0.0312451,0.0154359,1.42518,0.0180398,0.0300073,1602,435,21.3564,196.45
385,589,20.637,-193.212,0,0,0,0,0,0,0,-1,1609,435,20.637,193.212
392,589,19.8521,-189.539,0,0,0,0,0,0,0,-1,1616,435,19.852,189.539
399,589,19.1973,-186.169,0,0,0,0,0,0,0,-1,1623,435,19.1972,186.169
406,589,4.5813,-144.292,0,0,0,0,0,0,0,-1,1630,435,4.58134,144.292
413,589,5.61377,-19.0606,0,0,0,0,0,0,0,-1,1637,435,5.61372,19.0606
420,589,2.79724,-5.79956,0,0,0,0,0,0,0,-1,1644,435,2.7973,5.79955
427,589,10.9475,-45.1117,0,0,0,0,0,0,0,-1,1651,435,10.9475,45.1117
434,589,9.14709,-34.4435,0,0,0,0,0,0,0,-1,1658,435,9.1471,34.4435
441,589,7.85901,-29.8665,0,0,0,0,0,0,0,-1,1665,435,7.85898,29.8666
448,589,0.453735,-3.2868,0,0,0,0,0,0,0,-1,1672,435,0.453701,3.28681
455,589,0.664307,-3.46848,0,0,0,0,0,0,0,-1,1679,435,0.66425,3.46846
462,589,3.46716,-4.41891,0,0,0,0,0,0,0,-1,1686,435,3.4672,4.41891
469,589,0.0238037,-3.81497,0,0,0,0,0,0,0,-1,1693,435,0.0237965,3.81498
476,589,0,0,0,0,0,0,0,0,0,-1,1700,435,0,0
483,589,0,0,0,0,0,0,0,0,0,-1,1707,435,0,0
490,589,0,0,0,0,0,0,0,0,0,-1,1714,435,0,0
497,589,0,0,0,0,0,0,0,0,0,-1,1721,435,0,0
504,589,0,0,0,0,0,0,0,0,0,-1,1728,435,0,0
511,589,0,0,0,0,0,0,0,0,0,-1,1735,435,0,0
518,589,0,0,0,0,0,0,0,0,0,-1,1742,435,0,0
525,589,0,0,0,0,0,0,0,0,0,-1,1749,435,0,0
532,589,0,0,0,0,0,0,0,0,0,-1,1756,435,0,0
539,589,0,0,0,0,0,0,0,0,0,-1,1763,435,0,0
546,589,0,0,0,0,0,0,0,0,0,-1,1770,435,0,0
553,589,0,0,0,0,0,0,0,0,0,-1,1777,435,0,0
560,589,0,0,0,0,0,0,0,0,0,-1,1784,435,0,0
567,589,0,0,0,0,0,0,0,0,0,-1,1791,435,0,0
574,589,0,0,0,0,0,0,0,0,0,-1,1798,435,0,0
581,589,0,0,0,0,0,0,0,0,0,-1,1805,435,0,0
588,589,0,0,0,0,0,0,0,0,0,-1,1812,435,0,0
595,589,0,0,0,0,0,0,0,0,0,-1,1819,435,0,0
602,589,0,0,0,0,0,0,0,0,0,-1,1826,435,0,0
609,589,0,0,0,0,0,0,0,0,0,-1,1833,435,0,0
616,589,0,0,0,0,0,0,0,0,0,-1,1840,435,0,0
623,589,0,0,0,0,0,0,0,0,0,-1,1847,435,0,0
630,589,0,0,0,0,0,0,0,0,0,-1,1854,435,0,0
637,589,0,0,0,0,0,0,0,0,0,-1,1861,435,0,0
644,589,0,0,0,0,0,0,0,0,0,-1,1868,435,0,0
651,589,0,0,0,0,0,0,0,0,0,-1,1875,435,0,0
658,589,0,0,0,0,0,0,0,0,0,-1,1882,435,0,0
665,589,0,0,0,0,0,0,0,0,0,-1,1889,435,0,0
672,589,0,0,0,0,0,0,0,0,0,-1,1896,435,0,0
679,589,0,0,0,0,0,0,0,0,0,-1,1903,435,0,0
686,589,0,0,0,0,0,0,0,0,0,-1,1910,435,0,0
693,589,0,0,0,0,0,0,0,0,0,-1,1917,435,0,0
700,589,0,0,0,0,0,0,0,0,0,-1,1924,435,0,0
707,589,0,0,0,0,0,0,0,0,0,-1,1931,435,0,0
714,589,0,0,0,0,0,0,0,0,0,-1,1938,435,0,0
721,589,0,0,0,0,0,0,0,0,0,-1,1945,435,0,0
728,589,0,0,0,0,0,0,0,0,0,-1,1952,435,0,0
735,589,0,0,0,0,0,0,0,0,0,-1,1959,435,0,0
742,589,0,0,0,0,0,0,0,0,0,-1,1966,435,0,0
749,589,0,0,0,0,0,0,0,0,0,-1,1973,435,0,0
756,589,0,0,0,0,0,0,0,0,0,-1,1980,435,0,0
763,589,0,0,0,0,0,0,0,0,0,-1,1987,435,0,0
770,589,0,0,0,0,0,0,0,0,0,-1,1994,435,0,0
777,589,0,0,0,0,0,0,0,0,0,-1,2001,435,0,0
784,589,0,0,0,0,0,0,0,0,0,-1,2008,435,0,0
791,589,0,0,0,0,0,0,0,0,0,-1,2015,435,0,0
798,589,0,0,0,0,0,0,0,0,0,-1,2022,435,0,0
805,589,0,0,0,0,0,0,0,0,0,-1,2029,435,0,0
812,589,0,0,0,0,0,0,0,0,0,-1,2036,435,0,0
-700,582,0,0,0,0,0,0,0,0,0,-1,524,442,0,0
-693,582,0,0,0,0,0,0,0,0,0,-1,531,442,0,0
-686,582,0,0,0,0,0,0,0,0,0,-1,538,442,0,0
-679,582,0,0,0,0,0,0,0,0,0,-1,545,442,0,0
-672,582,0,0,0,0,0,0,0,0,0,-1,552,442,0,0
-665,582,0,0,0,0,0,0,0,0,0,-1,559,442,0,0
-658,582,0,0,0,0,0,0,0,0,0,-1,566,442,0,0
-651,582,0,0,0,0,0,0,0,0,0,-1,573,442,0,0
-644,582,0,0,0,0,0,0,0,0,0,-1,580,442,0,0
-637,582,0,0,0,0,0,0,0,0,0,-1,587,442,0,0
-630,582,0,0,0,0,0,0,0,0,0,-1,594,442,0,0
-623,582,0,0,0,0,0,0,0,0,0,-1,601,442,0,0
-616,582,0,0,0,0,0,0,0,0,0,-1,608,442,0,0
-609,582,0,0,0,0,0,0,0,0,0,-1,615,442,0,0
-602,582,0,0,0,0,0,0,0,0,0,-1,622,442,0,0
-595,582,0,0,0,0,0,0,0,0,0,-1,629,442,0,0
-588,582,0,0,0,0,0,0,0,0,0,-1,636,442,0,0
-581,582,0,0,0,0,0,0,0,0,0,-1,643,442,0,0
-574,582,0,0,0,0,0,0,0,0,0,-1,650,442,0,0
-567,582,0,0,0,0,0,0,0,0,0,-1,657,442,0,0
-560,582,0,0,0,0,0,0,0,0,0,-1,664,442,0,0
-553,582,0,0,0,0,0,0,0,0,0,-1,671,442,0,0
-546,582,0,0,0,0,0,0,0,0,0,-1,678,442,0,0
-539,582,0,0,0,0,0,0,0,0,0,-1,685,442,0,0
-532,582,0,0,0,0,0,0,0,0,0,-1,692,442,0,0
-525,582,0,0,0,0,0,0,0,0,0,-1,699,442,0,0
-518,582,0,0,0,0,0,0,0,0,0,-1,706,442,0,0
-511,582,0,0,0,0,0,0,0,0,0,-1,713,442,0,0
-504,582,0,0,0,0,0,0,0,0,0,-1,720,442,0,0
-497,582,0,0,0,0,0,0,0,0,0,-1,727,442,0,0
-490,582,0,0,0,0,0,0,0,0,0,-1,734,442,0,0
-483,582,0,0,0,0,0,0,0,0,0,-1,741,442,0,0
-476,582,0,0,0,0,0,0,0,0,0,-1,748,442,0,0
-469,582,0,0,0,0,0,0,0,0,0,-1,755,442,0,0
-462,582,0,0,0,0,0,0,0,0,0,-1,762,442,0,0
-455,582,0,0,0,0,0,0,0,0,0,-1,769,442,0,0
-448,582,0,0,0,0,0,0,0,0,0,-1,776,442,0,0
-441,582,0,0,0,0,0,0,0,0,0,-1,783,442,0,0
-434,582,0,0,0,0,0,0,0,0,0,-1,790,442,0,0
-427,582,0,0,0,0,0,0,0,0,0,-1,797,442,0,0
-420,582,0,0,0,0,0,0,0,0,0,-1,804,442,0,0
-413,582,0,0,0,0,0,0,0,0,0,-1,811,442,0,0
-406,582,0,0,0,0,0,0,0,0,0,-1,818,442,0,0
-399,582,0,0,0,0,0,0,0,0,0,-1,825,442,0,0
-392,582,0,0,0,0,0,0,0,0,0,-1,832,442,0,0
-385,582,0,0,0,0,0,0,0,0,0,-1,839,442,0,0
-378,582,0,0,0,0,0,0,0,0,0,-1,846,442,0,0
-371,582,0,0,0,0,0,0,0,0,0,-1,853,442,0,0
-364,582,0,0,0,0,0,0,0,0,0,-1,860,442,0,0
-357,582,-1.4903,-21.5295,0,0,0,0,0,0,0,-1,867,442,-1.49031,21.5295
-350,582,-0.880859,-19.7966,0,0,0,0,0,0,0,-1,874,442,-0.880885,19.7966
-343,582,0.939941,-19.1705,0,0,0,0,0,0,0,-1,881,442,0.939935,19.1705
-336,582,3.33929,-27.9479,0,0,0,0,0,0,0,-1,888,442,3.33928,27.9479
-329,582,3.63544,-26.4736,0,0,0,0,0,0,0,-1,895,442,3.63546,26.4736
-322,582,3.67145,-27.1796,0,0,0,0,0,0,0,-1,902,442,3.67143,27.1796
-315,582,3.90686,-27.6446,0,0,0,0,0,0,0,-1,909,442,3.90689,27.6446
-308,582,4.07587,-33.1895,0,0,0,0,0,0,0,-1,916,442,4.07588,33.1895
-301,582,4.28662,-65.2938,0,0,0,0,0,0,0,-1,923,442,4.28664,65.2938
-294,582,3.77667,-81.41,0,0,0,0,0,0,0,-1,930,442,3.77669,81.41
-287,582,0.772339,-142.446,0,0,0,0,0,0,0,-1,937,442,0.772344,142.446
-280,582,-10.5144,-181.561,0,0,0,0,0,0,0,-1,944,442,-10.5144,181.561
-273,582,-11.2707,-185.285,0,0,0,0,0,0,0,-1,951,442,-11.2707,185.285
-266,582,-12.351,-189.264,0,0,0,0,0,0,0,-1,958,442,-12.351,189.264
-259,582,-12.9127,-192.392,0.0170006,0.00658758,0.00674672,0.0203161,0.003272,0.456773,0.0125959,0.0376509,965,442,-12.9127,192.392
-252,582,-13.4659,-195.797,0.0198619,0.00399808,0.00977237,0.0245162,-0.000656293,0.444492,0.0165673,0.0177512,972,442,-13.466,195.797
-245,582,-14.0687,-198.824,0.0226122,0.00233637,0.012269,0.0283899,-0.00344132,0.440111,0.0201718,0.0180504,979,442,-14.0687,198.824
-238,582,-14.6662,-201.761,0.0252113,0.00101897,0.0144889,0.0319896,-0.00575933,0.43758,0.0234828,0.0238967,986,442,-14.6662,201.761
-231,582,-15.1043,-204.63,0.0278562,-0.000503035,0.01674,0.0356149,-0.00826171,0.434008,0.0269231,0.0192209,993,442,-15.1043,204.63
-224,582,-15.4883,-207.558,0.0308247,-0.00158865,0.0186406,0.0393188,-0.0100827,0.427565,0.030141,0.0148933,1000,442,-15.4883,207.558
-217,582,-15.8389,-210.355,0.0338744,-0.00274959,0.0204436,0.0430082,-0.0118834,0.420172,0.0333467,0.0165895,1007,442,-15.8389,210.355
-210,582,-16.2117,-213.104,0.0369955,-0.00396689,0.0220854,0.0466348,-0.0136062,0.411533,0.0364811,0.0215156,1014,442,-16.2117,213.104
-203,582,-16.4557,-215.808,0.0400843,-0.0056128,0.0237124,0.050165,-0.0156935,0.401975,0.0397217,0.0236924,1021,442,-16.4557,215.808
-196,582,-16.6754,-218.191,0.0433887,-0.00712473,0.0251858,0.0538003,-0.0175363,0.391997,0.0429235,0.0463977,1028,442,-16.6754,218.191
-189,582,-16.8808,-220.376,0,0,0,0,0,0,0,-1,1035,442,-16.8808,220.376
-182,582,-16.6951,-223.537,0.0514028,-0.0114126,0.0282827,0.0622604,-0.0222702,0.366546,0.0505914,0.0253752,1042,442,-16.695,223.537
-175,582,-16.6927,-225.848,0.0558395,-0.0140891,0.029416,0.0665676,-0.0248173,0.349715,0.0545657,0.0258368,1049,442,-16.6928,225.848
-168,582,-16.7418,-228.212,0.0598333,-0.0164301,0.0302139,0.0703525,-0.0269493,0.335031,0.0580103,0.0178022,1056,442,-16.7418,228.212
-161,582,-16.7533,-230.43,0.0632508,-0.0189167,0.030997,0.0736325,-0.0292984,0.323182,0.0612371,0.0196749,1063,442,-16.7532,230.43
-154,582,-16.5566,-232.623,0.0667304,-0.0203615,0.032024,0.077238,-0.0308691,0.317048,0.064301,0.0291272,1070,442,-16.5566,232.623
-147,582,-16.4137,-234.799,0.0709116,-0.0214266,0.0332542,0.0816409,-0.0321559,0.3121,0.0677396,0.0492304,1077,442,-16.4136,234.799
-140,582,-16.5204,-237.173,0,0,0,0,0,0,0,-1,1084,442,-16.5204,237.173
-133,582,-15.8955,-238.993,0,0,0,0,0,0,0,-1,1091,442,-15.8956,238.993
-126,582,-15.3867,-240.901,0,0,0,0,0,0,0,-1,1098,442,-15.3868,240.901
-119,582,4.06213,-72.0599,0,0,0,0,0,0,0,-1,1105,442,4.06213,72.0599
-112,582,3.47888,-53.7394,0,0,0,0,0,0,0,-1,1112,442,3.47883,53.7394
-105,582,2.87219,-43.073,0,0,0,0,0,0,0,-1,1119,442,2.87217,43.073
-98,582,2.61938,-32.8673,0,0,0,0,0,0,0,-1,1126,442,2.61944,32.8673
-91,582,2.16492,-24.1119,0,0,0,0,0,0,0,-1,1133,442,2.16496,24.1119
-84,582,2.10278,-16.7533,0,0,0,0,0,0,0,-1,1140,442,2.10279,16.7533
-77,582,2.30212,-11.4907,0,0,0,0,0,0,0,-1,1147,442,2.30207,11.4907
-70,582,1.49255,-6.36548,0,0,0,0,0,0,0,-1,1154,442,1.49251,6.36549
-63,582,-4.62915,-4.0347,0,0,0,0,0,0,0,-1,1161,442,-4.6292,4.03471
-56,582,-5.81714,-5.24149,0,0,0,0,0,0,0,-1,1168,442,-5.81718,5.24149
-49,582,-3.88672,-10.1064,0,0,0,0,0,0,0,-1,1175,442,-3.88678,10.1064
-42,582,-0.948975,1.13968,0,0,0,0,0,0,0,-1,1182,442,-0.949003,-1.13969
-35,582,-2.58435,-3.86911,0,0,0,0,0,0,0,-1,1189,442,-2.58437,3.86912
-28,582,-0.825317,-3.45941,0,0,0,0,0,0,0,-1,1196,442,-0.825377,3.45942
-21,582,13.0271,-98.4075,0,0,0,0,0,0,0,-1,1203,442,13.0271,98.4075
-14,582,12.4244,-99.4351,0,0,0,0,0,0,0,-1,1210,442,12.4244,99.4351
-7,582,12.249,-100.237,0,0,0,0,0,0,0,-1,1217,442,12.2491,100.237
0,582,17.4753,-112.157,0,0,0,0,0,0,0,-1,1224,442,17.4754,112.157
7,582,16.4022,-112.184,0,0,0,0,0,0,0,-1,1231,442,16.4022,112.184
14,582,15.0261,-112.419,0,0,0,0,0,0,0,-1,1238,442,15.0261,112.419
21,582,13.6755,-112.745,0,0,0,0,0,0,0,-1,1245,442,13.6756,112.745
28,582,12.3351,-113.101,0,0,0,0,0,0,0,-1,1252,442,12.3351,113.101
35,582,11.172,-113.629,0,0,0,0,0,0,0,-1,1259,442,11.172,113.629
42,582,9.81628,-113.952,0,0,0,0,0,0,0,-1,1266,442,9.81629,113.952
49,582,8.65308,-114.163,0,0,0,0,0,0,0,-1,1273,442,8.65306,114.163
56,582,7.48987,-114.375,0,0,0,0,0,0,0,-1,1280,442,7.48983,114.375
63,582,6.04761,-112.882,0,0,0,0,0,0,0,-1,1287,442,6.04765,112.882
70,582,4.90051,-111.912,0,0,0,0,0,0,0,-1,1294,442,4.90047,111.912
77,582,0.309692,-116.687,0,0,0,0,0,0,0,-1,1301,442,0.309676,116.687
84,582,-0.994141,-117.92,0,0,0,0,0,0,0,-1,1308,442,-0.994174,117.92
91,582,-0.00683594,-108.74,0,0,0,0,0,0,0,-1,1315,442,-0.00679383,108.74
98,582,0.664063,-122.425,0,0,0,0,0,0,0,-1,1322,442,0.664089,122.425
105,582,-0.212158,-123.521,0,0,0,0,0,0,0,-1,1329,442,-0.212145,123.521
112,582,-0.888672,-124.615,0,0,0,0,0,0,0,-1,1336,442,-0.888725,124.615
119,582,-1.75159,-126.18,0,0,0,0,0,0,0,-1,1343,442,-1.75154,126.18
126,582,-2.3335,-128.074,0,0,0,0,0,0,0,-1,1350,442,-2.33344,128.074
133,582,-2.76953,-130.204,0,0,0,0,0,0,0,-1,1357,442,-2.76951,130.204
140,582,-3.38879,-132.162,0,0,0,0,0,0,0,-1,1364,442,-3.3888,132.162
147,582,-4.03101,-133.844,0,0,0,0,0,0,0,-1,1371,442,-4.03104,133.844
154,582,-3.93127,-135.147,0,0,0,0,0,0,0,-1,1378,442,-3.93131,135.147
161,582,-4.41931,-137.539,0,0,0,0,0,0,0,-1,1385,442,-4.41927,137.539
168,582,0.081665,-40.4535,0,0,0,0,0,0,0,-1,1392,442,0.0816215,40.4535
175,582,6.50549,-2.00424,0,0,0,0,0,0,0,-1,1399,442,6.50546,2.00425
182,582,5.18958,-2.18652,0,0,0,0,0,0,0,-1,1406,442,5.1896,2.18652
189,582,6.19751,-0.880951,0,0,0,0,0,0,0,-1,1413,442,6.19754,0.88096
196,582,4.87354,-2.22327,0,0,0,0,0,0,0,-1,1420,442,4.87348,2.22325
203,582,3.11401,-4.48257,0,0,0,0,0,0,0,-1,1427,442,3.11404,4.48259
210,582,2.93115,-11.0731,0,0,0,0,0,0,0,-1,1434,442,2.93113,11.0731
217,582,4.94092,-16.5476,0,0,0,0,0,0,0,-1,1441,442,4.94087,16.5476
224,582,5.21008,-20.9908,0,0,0,0,0,0,0,-1,1448,442,5.21006,20.9908
231,582,5.70032,-25.622,0,0,0,0,0,0,0,-1,1455,442,5.70026,25.6221
238,582,6.44189,-30.7028,0,0,0,0,0,0,0,-1,1462,442,6.44195,30.7028
245,582,10.0378,-45.1569,0,0,0,0,0,0,0,-1,1469,442,10.0379,45.1568
252,582,13.8408,-67.8125,0,0,0,0,0,0,0,-1,1476,442,13.8408,67.8125
259,582,25.6108,-240.066,0,0,0,0,0,0,0,-1,1483,442,25.6108,240.066
266,582,26.1388,-237.512,0,0,0,0,0,0,0,-1,1490,442,26.1388,237.512
273,582,26.8098,-235.466,0,0,0,0,0,0,0,-1,1497,442,26.8099,235.466
280,582,26.9102,-233.182,0,0,0,0,0,0,0,-1,1504,442,26.9101,233.182
287,582,27.2917,-231.069,0.0755004,-0.00412718,-0.0288378,0.0848472,-0.0134739,-0.31343,0.0615497,0.0293133,1511,442,27.2917,231.069
294,582,27.428,-228.683,0.0711436,-0.00178153,-0.0286326,0.0810421,-0.01168,-0.332845,0.0583126,0.0280081,1518,442,27.428,228.683
301,582,27.2644,-226.138,0,0,0,0,0,0,0,-1,1525,442,27.2644,226.138
308,582,27.6182,-223.763,0,0,0,0,0,0,0,-1,1532,442,27.6182,223.763
315,582,27.7311,-221.062,0,0,0,0,0,0,0,-1,1539,442,27.731,221.062
322,582,27.3765,-218.821,0.0529836,0.00504963,-0.0258288,0.0642522,-0.00621894,-0.411385,0.0450511,0.0201843,1546,442,27.3765,218.821
329,582,27.196,-216.246,0.0490177,0.00671905,-0.0241207,0.059948,-0.00421126,-0.425471,0.0414405,0.0187466,1553,442,27.1961,216.246
336,582,26.9651,-213.579,0.0451357,0.00825255,-0.0223028,0.0556338,-0.00224558,-0.439941,0.0378599,0.0179204,1560,442,26.9651,213.579
343,582,26.7054,-210.748,0.0407283,0.0100016,-0.0202886,0.0508141,-8.41767e-05,-0.461339,0.0339042,0.0212015,1567,442,26.7054,210.748
350,582,26.3374,-207.855,0.0365558,0.0124536,-0.0178134,0.0460116,0.00299778,-0.488003,0.0297256,0.0249624,1574,442,26.3374,207.855
357,582,25.9904,-204.868,0.0330633,0.0149389,-0.015159,0.0416623,0.00633986,-0.515995,0.0259214,0.0196042,1581,442,25.9904,204.868
364,582,25.614,-201.964,0.0294415,0.0176393,-0.0123038,0.0371861,0.00989468,-0.561794,0.0222388,0.013928,1588,442,25.614,201.964
371,582,25.106,-198.945,0.0258201,0.0209046,-0.00903114,0.032722,0.0140028,-0.652546,0.0189573,0.0194897,1595,442,25.106,198.945
378,582,24.5424,-195.89,0.0227599,0.0241256,-0.00561069,0.0290948,0.0177906,-0.845951,0.0169365,0.021924,1602,442,24.5424,195.89
385,582,23.9578,-192.646,0.0202107,0.0276493,-0.00184143,0.0280802,0.0197798,-1.34094,0.0166576,0.0223677,1609,442,23.9578,192.646
392,582,23.2557,-189.318,0.0186234,0.0318405,0.00235237,0.0322467,0.0182172,1.39981,0.0186699,0.0307212,1616,442,23.2557,189.318
399,582,22.55,-186.049,0.0176085,0.0357074,0.00637821,0.0377293,0.0155867,1.26382,0.0218923,0.0475777,1623,442,22.5501,186.049
406,582,21.8716,-182.832,0,0,0,0,0,0,0,-1,1630,442,21.8715,182.832
413,582,6.4043,-151.33,0,0,0,0,0,0,0,-1,1637,442,6.40426,151.33
420,582,5.51392,-147.772,0,0,0,0,0,0,0,-1,1644,442,5.51396,147.772
427,582,5.48132,-130.472,0,0,0,0,0,0,0,-1,1651,442,5.48131,130.472
434,582,12.3431,-48.7588,0,0,0,0,0,0,0,-1,1658,442,12.3432,48.7588
441,582,10.8484,-36.2891,0,0,0,0,0,0,0,-1,1665,442,10.8484,36.2891
448,582,11.2651,-32.8669,0,0,0,0,0,0,0,-1,1672,442,11.2651,32.8668
455,582,6.4585,-19.4734,0,0,0,0,0,0,0,-1,1679,442,6.45854,19.4734
462,582,5.35022,-19.2616,0,0,0,0,0,0,0,-1,1686,442,5.35025,19.2616
469,582,6.28601,-21.5695,0,0,0,0,0,0,0,-1,1693,442,6.28597,21.5695
476,582,1.93579,-8.53891,0,0,0,0,0,0,0,-1,1700,442,1.93579,8.53892
483,582,0,0,0,0,0,0,0,0,0,-1,1707,442,0,0
490,582,0,0,0,0,0,0,0,0,0,-1,1714,442,0,0
497,582,0,0,0,0,0,0,0,0,0,-1,1721,442,0,0
504,582,0,0,0,0,0,0,0,0,0,-1,1728,442,0,0
511,582,0,0,0,0,0,0,0,0,0,-1,1735,442,0,0
518,582,0,0,0,0,0,0,0,0,0,-1,1742,442,0,0
525,582,0,0,0,0,0,0,0,0,0,-1,1749,442,0,0
532,582,0,0,0,0,0,0,0,0,0,-1,1756,442,0,0
539,582,0,0,0,0,0,0,0,0,0,-1,1763,442,0,0
546,582,0,0,0,0,0,0,0,0,0,-1,1770,442,0,0
553,582,0,0,0,0,0,0,0,0,0,-1,1777,442,0,0
560,582,0,0,0,0,0,0,0,0,0,-1,1784,442,0,0
567,582,0,0,0,0,0,0,0,0,0,-1,1791,442,0,0
574,582,0,0,0,0,0,0,0,0,0,-1,1798,442,0,0
581,582,0,0,0,0,0,0,0,0,0,-1,1805,442,0,0
588,582,0,0,0,0,0,0,0,0,0,-1,1812,442,0,0
595,582,0,0,0,0,0,0,0,0,0,-1,1819,442,0,0
602,582,0,0,0,0,0,0,0,0,0,-1,1826,442,0,0
609,582,0,0,0,0,0,0,0,0,0,-1,1833,442,0,0
616,582,0,0,0,0,0,0,0,0,0,-1,1840,442,0,0
623,582,0,0,0,0,0,0,0,0,0,-1,1847,442,0,0
630,582,0,0,0,0,0,0,0,0,0,-1,1854,442,0,0
637,582,0,0,0,0,0,0,0,0,0,-1,1861,442,0,0
644,582,0,0,0,0,0,0,0,0,0,-1,1868,442,0,0
651,582,0,0,0,0,0,0,0,0,0,-1,1875,442,0,0
658,582,0,0,0,0,0,0,0,0,0,-1,1882,442,0,0
665,582,0,0,0,0,0,0,0,0,0,-1,1889,442,0,0
672,582,0,0,0,0,0,0,0,0,0,-1,1896,442,0,0
679,582,0,0,0,0,0,0,0,0,0,-1,1903,442,0,0
686,582,0,0,0,0,0,0,0,0,0,-1,1910,442,0,0
693,582,0,0,0,0,0,0,0,0,0,-1,1917,442,0,0
700,582,0,0,0,0,0,0,0,0,0,-1,1924,442,0,0
707,582,0,0,0,0,0,0,0,0,0,-1,1931,442,0,0
714,582,0,0,0,0,0,0,0,0,0,-1,1938,442,0,0
721,582,0,0,0,0,0,0,0,0,0,-1,1945,442,0,0
728,582,0,0,0,0,0,0,0,0,0,-1,1952,442,0,0
735,582,0,0,0,0,0,0,0,0,0,-1,1959,442,0,0
742,582,0,0,0,0,0,0,0,0,0,-1,1966,442,0,0
749,582,0,0,0,0,0,0,0,0,0,-1,1973,442,0,0
756,582,0,0,0,0,0,0,0,0,0,-1,1980,442,0,0
763,582,0,0,0,0,0,0,0,0,0,-1,1987,442,0,0
770,582,0,0,0,0,0,0,0,0,0,-1,1994,442,0,0
777,582,0,0,0,0,0,0,0,0,0,-1,2001,442,0,0
784,582,0,0,0,0,0,0,0,0,0,-1,2008,442,0,0
791,582,0,0,0,0,0,0,0,0,0,-1,2015,442,0,0
798,582,0,0,0,0,0,0,0,0,0,-1,2022,442,0,0
805,582,0,0,0,0,0,0,0,0,0,-1,2029,442,0,0
812,582,0,0,0,0,0,0,0,0,0,-1,2036,442,0,0
-700,575,0,0,0,0,0,0,0,0,0,-1,524,449,0,0
-693,575,0,0,0,0,0,0,0,0,0,-1,531,449,0,0
-686,575,0,0,0,0,0,0,0,0,0,-1,538,449,0,0
-679,575,0,0,0,0,0,0,0,0,0,-1,545,449,0,0
-672,575,0,0,0,0,0,0,0,0,0,-1,552,449,0,0
-665,575,0,0,0,0,0,0,0,0,0,-1,559,449,0,0
-658,575,0,0,0,0,0,0,0,0,0,-1,566,449,0,0
-651,575,0,0,0,0,0,0,0,0,0,-1,573,449,0,0
-644,575,0,0,0,0,0,0,0,0,0,-1,580,449,0,0
-637,575,0,0,0,0,0,0,0,0,0,-1,587,449,0,0
-630,575,0,0,0,0,0,0,0,0,0,-1,594,449,0,0
-623,575,0,0,0,0,0,0,0,0,0,-1,601,449,0,0
-616,575,0,0,0,0,0,0,0,0,0,-1,608,449,0,0
-609,575,0,0,0,0,0,0,0,0,0,-1,615,449,0,0
-602,575,0,0,0,0,0,0,0,0,0,-1,622,449,0,0
-595,575,0,0,0,0,0,0,0,0,0,-1,629,449,0,0
-588,575,0,0,0,0,0,0,0,0,0,-1,636,449,0,0
-581,575,0,0,0,0,0,0,0,0,0,-1,643,449,0,0
-574,575,0,0,0,0,0,0,0,0,0,-1,650,449,0,0
-567,575,0,0,0,0,0,0,0,0,0,-1,657,449,0,0
-560,575,0,0,0,0,0,0,0,0,0,-1,664,449,0,0
-553,575,0,0,0,0,0,0,0,0,0,-1,671,449,0,0
-546,575,0,0,0,0,0,0,0,0,0,-1,678,449,0,0
-539,575,0,0,0,0,0,0,0,0,0,-1,685,449,0,0
-532,575,0,0,0,0,0,0,0,0,0,-1,692,449,0,0
-525,575,0,0,0,0,0,0,0,0,0,-1,699,449,0,0
-518,575,0,0,0,0,0,0,0,0,0,-1,706,449,0,0
-511,575,0,0,0,0,0,0,0,0,0,-1,713,449,0,0
-504,575,0,0,0,0,0,0,0,0,0,-1,720,449,0,0
-497,575,0,0,0,0,0,0,0,0,0,-1,727,449,0,0
-490,575,0,0,0,0,0,0,0,0,0,-1,734,449,0,0
-483,575,0,0,0,0,0,0,0,0,0,-1,741,449,0,0
-476,575,0,0,0,0,0,0,0,0,0,-1,748,449,0,0
-469,575,0,0,0,0,0,0,0,0,0,-1,755,449,0,0
-462,575,0,0,0,0,0,0,0,0,0,-1,762,449,0,0
-455,575,0,0,0,0,0,0,0,0,0,-1,769,449,0,0
-448,575,0,0,0,0,0,0,0,0,0,-1,776,449,0,0
-441,575,0,0,0,0,0,0,0,0,0,-1,783,449,0,0
-434,575,0,0,0,0,0,0,0,0,0,-1,790,449,0,0
-427,575,0,0,0,0,0,0,0,0,0,-1,797,449,0,0
-420,575,0,0,0,0,0,0,0,0,0,-1,804,449,0,0
-413,575,0,0,0,0,0,0,0,0,0,-1,811,449,0,0
-406,575,0,0,0,0,0,0,0,0,0,-1,818,449,0,0
-399,575,0,0,0,0,0,0,0,0,0,-1,825,449,0,0
-392,575,0,0,0,0,0,0,0,0,0,-1,832,449,0,0
-385,575,0,0,0,0,0,0,0,0,0,-1,839,449,0,0
-378,575,0,0,0,0,0,0,0,0,0,-1,846,449,0,0
-371,575,0.56897,-3.52304,0,0,0,0,0,0,0,-1,853,449,0.568955,3.52306
-364,575,1.49805,-4.67191,0,0,0,0,0,0,0,-1,860,449,1.49803,4.6719
-357,575,3.15521,-8.29892,0,0,0,0,0,0,0,-1,867,449,3.15521,8.29891
-350,575,-0.825928,-18.5347,0,0,0,0,0,0,0,-1,874,449,-0.825948,18.5347
-343,575,0.465393,-16.3569,0,0,0,0,0,0,0,-1,881,449,0.465397,16.3569
-336,575,3.1994,-17.5725,0,0,0,0,0,0,0,-1,888,449,3.19941,17.5725
-329,575,2.81946,-29.1576,0,0,0,0,0,0,0,-1,895,449,2.81945,29.1576
-322,575,4.28943,-27.9487,0,0,0,0,0,0,0,-1,902,449,4.28944,27.9487
-315,575,6.13507,-35.9424,0,0,0,0,0,0,0,-1,909,449,6.13508,35.9424
-308,575,2.17755,-78.9857,0,0,0,0,0,0,0,-1,916,449,2.17756,78.9857
-301,575,0.565491,-156.994,0,0,0,0,0,0,0,-1,923,449,0.565483,156.994
-294,575,-5.13062,-171.608,0,0,0,0,0,0,0,-1,930,449,-5.13063,171.608
-287,575,-13.1316,-177.767,0,0,0,0,0,0,0,-1,937,449,-13.1316,177.767
-280,575,-14.1077,-181.399,0,0,0,0,0,0,0,-1,944,449,-14.1077,181.399
-273,575,-14.8584,-185.128,0.0181595,0.00967383,0.00516657,0.0206021,0.00723123,0.441627,0.0120694,0.0393172,951,449,-14.8584,185.128
-266,575,-15.5934,-188.641,0.0202816,0.00636865,0.00905657,0.024745,0.00190522,0.457902,0.0158997,0.0351172,958,449,-15.5934,188.641
-259,575,-16.1573,-191.818,0.0228719,0.00346225,0.0122933,0.0288295,-0.00249528,0.451264,0.0201031,0.0240117,965,449,-16.1573,191.818
-252,575,-16.7701,-194.929,0.0257817,0.00114325,0.0150982,0.0329489,-0.00602393,0.443206,0.0242248,0.0222505,972,449,-16.7701,194.929
-245,575,-17.2963,-197.943,0.0286173,-0.000523508,0.0175057,0.0368229,-0.00872909,0.438327,0.027917,0.0272531,979,449,-17.2964,197.943
-238,575,-17.7518,-200.952,0.0312819,-0.00179214,0.0196188,0.0404037,-0.0109139,0.435215,0.0312163,0.0252992,986,449,-17.7519,200.952
-231,575,-18.1627,-203.965,0.0340884,-0.00320944,0.0217838,0.0441155,-0.0132366,0.431388,0.0346752,0.0214159,993,449,-18.1627,203.965
-224,575,-18.5679,-206.964,0.0371716,-0.00427455,0.023604,0.0478586,-0.0149616,0.42515,0.0378907,0.0211739,1000,449,-18.568,206.964
-217,575,-18.8205,-209.704,0.0403166,-0.00545217,0.0252153,0.0514837,-0.0166193,0.41691,0.0410008,0.0174795,1007,449,-18.8205,209.704
-210,575,-19.0679,-212.434,0.0435816,-0.00678442,0.0268106,0.0551816,-0.0183844,0.408346,0.044209,0.0140819,1014,449,-19.0679,212.434
-203,575,-19.4705,-215.147,0.0468797,-0.00857762,0.0283445,0.0588031,-0.020501,0.39819,0.047533,0.0324762,1021,449,-19.4705,215.147
-196,575,-19.8726,-217.751,0,0,0,0,0,0,0,-1,1028,449,-19.8726,217.751
-189,575,-19.4553,-220.381,0,0,0,0,0,0,0,-1,1035,449,-19.4552,220.381
-182,575,-19.4545,-222.792,0.0591463,-0.0153532,0.0330221,0.0716761,-0.027883,0.362655,0.0593052,0.0244296,1042,449,-19.4545,222.792
-175,575,-19.3248,-225.232,0.0643236,-0.0183667,0.0339745,0.0764919,-0.030535,0.343926,0.0636626,0.030323,1049,449,-19.3248,225.232
-168,575,-19.1641,-227.619,0.0686312,-0.0208752,0.0345984,0.0804456,-0.0326896,0.329059,0.0672304,0.0320585,1056,449,-19.1641,227.619
-161,575,-19.1443,-229.831,0,0,0,0,0,0,0,-1,1063,449,-19.1443,229.831
-154,575,-18.798,-232.064,0,0,0,0,0,0,0,-1,1070,449,-18.798,232.064
-147,575,-18.808,-234.382,0,0,0,0,0,0,0,-1,1077,449,-18.8079,234.382
-140,575,1.74573,-82.2679,0,0,0,0,0,0,0,-1,1084,449,1.74574,82.268
-133,575,3.1123,-72.4413,0,0,0,0,0,0,0,-1,1091,449,3.11224,72.4413
-126,575,3.56506,-62.5804,0,0,0,0,0,0,0,-1,1098,449,3.56505,62.5804
-119,575,3.00208,-52.3971,0,0,0,0,0,0,0,-1,1105,449,3.00204,52.3971
-112,575,2.70337,-43.3701,0,0,0,0,0,0,0,-1,1112,449,2.70333,43.3701
-105,575,2.18347,-36.5414,0,0,0,0,0,0,0,-1,1119,449,2.18351,36.5414
-98,575,1.521,-25.6961,0,0,0,0,0,0,0,-1,1126,449,1.52105,25.6961
-91,575,1.60803,-16.4247,0,0,0,0,0,0,0,-1,1133,449,1.60802,16.4247
-84,575,1.16553,-11.9056,0,0,0,0,0,0,0,-1,1140,449,1.16558,11.9056
-77,575,0.205078,-11.2584,0,0,0,0,0,0,0,-1,1147,449,0.205117,11.2584
-70,575,-4.2467,-1.78738,0,0,0,0,0,0,0,-1,1154,449,-4.24674,1.78739
-63,575,-4.52209,-3.48798,0,0,0,0,0,0,0,-1,1161,449,-4.5221,3.48796
-56,575,-5.5968,-5.4928,0,0,0,0,0,0,0,-1,1168,449,-5.59683,5.49281
-49,575,-5.96863,-7.17612,0,0,0,0,0,0,0,-1,1175,449,-5.96868,7.1761
-42,575,-0.830322,0.773499,0,0,0,0,0,0,0,-1,1182,449,-0.83038,-0.77351
-35,575,-0.62085,0.205139,0,0,0,0,0,0,0,-1,1189,449,-0.620855,-0.205126
-28,575,0.49292,-3.87988,0,0,0,0,0,0,0,-1,1196,449,0.492941,3.87989
-21,575,10.9773,-107.191,0,0,0,0,0,0,0,-1,1203,449,10.9773,107.191
-14,575,13.3673,-99.3749,0,0,0,0,0,0,0,-1,1210,449,13.3673,99.3749
-7,575,12.8215,-99.8812,0,0,0,0,0,0,0,-1,1217,449,12.8215,99.8812
0,575,17.7313,-112.885,0,0,0,0,0,0,0,-1,1224,449,17.7313,112.885
7,575,16.6273,-112.921,0,0,0,0,0,0,0,-1,1231,449,16.6273,112.921
14,575,15.5314,-112.947,0,0,0,0,0,0,0,-1,1238,449,15.5314,112.947
21,575,14.2655,-112.903,0,0,0,0,0,0,0,-1,1245,449,14.2654,112.903
28,575,12.9507,-113.199,0,0,0,0,0,0,0,-1,1252,449,12.9507,113.199
35,575,11.4309,-113.676,0,0,0,0,0,0,0,-1,1259,449,11.4309,113.676
42,575,10.0674,-114.167,0,0,0,0,0,0,0,-1,1266,449,10.0674,114.167
49,575,8.76477,-114.055,0,0,0,0,0,0,0,-1,1273,449,8.76476,114.055
56,575,6.71106,-115.165,0,0,0,0,0,0,0,-1,1280,449,6.7111,115.165
63,575,6.00159,-113.017,0,0,0,0,0,0,0,-1,1287,449,6.0016,113.017
70,575,3.03333,-116.096,0,0,0,0,0,0,0,-1,1294,449,3.03338,116.096
77,575,1.5437,-117.172,0,0,0,0,0,0,0,-1,1301,449,1.54368,117.172
84,575,0.0450439,-118.207,0,0,0,0,0,0,0,-1,1308,449,0.0451016,118.207
91,575,1.51672,-120.91,0,0,0,0,0,0,0,-1,1315,449,1.51676,120.91
98,575,0.718384,-121.981,0,0,0,0,0,0,0,-1,1322,449,0.718352,121.981
105,575,-0.0986328,-123.075,0,0,0,0,0,0,0,-1,1329,449,-0.0985735,123.075
112,575,-0.727417,-124.457,0,0,0,0,0,0,0,-1,1336,449,-0.72742,124.457
119,575,-1.57654,-125.68,0,0,0,0,0,0,0,-1,1343,449,-1.57648,125.68
126,575,-2.14478,-127.231,0,0,0,0,0,0,0,-1,1350,449,-2.14472,127.231
133,575,-2.78406,-129.103,0,0,0,0,0,0,0,-1,1357,449,-2.78408,129.103
140,575,-3.95972,-130.925,0,0,0,0,0,0,0,-1,1364,449,-3.95976,130.925
147,575,-5.11475,-132.78,0,0,0,0,0,0,0,-1,1371,449,-5.11472,132.78
154,575,-3.46606,-134.702,0,0,0,0,0,0,0,-1,1378,449,-3.46604,134.702
161,575,-3.96082,-137.119,0,0,0,0,0,0,0,-1,1385,449,-3.96078,137.119
168,575,-4.97888,-77.9566,0,0,0,0,0,0,0,-1,1392,449,-4.97891,77.9566
175,575,4.32617,1.93634,0,0,0,0,0,0,0,-1,1399,449,4.32612,-1.93634
182,575,6.3147,-2.88345,0,0,0,0,0,0,0,-1,1406,449,6.31466,2.88346
189,575,6.10449,-1.30817,0,0,0,0,0,0,0,-1,1413,449,6.10455,1.30817
196,575,5.79895,0.818359,0,0,0,0,0,0,0,-1,1420,449,5.79895,-0.81837
203,575,3.29724,-1.46378,0,0,0,0,0,0,0,-1,1427,449,3.29722,1.46377
210,575,2.32739,-7.74503,0,0,0,0,0,0,0,-1,1434,449,2.32741,7.74502
217,575,3.33618,-11.5521,0,0,0,0,0,0,0,-1,1441,449,3.3362,11.5521
224,575,5.51709,-16.3903,0,0,0,0,0,0,0,-1,1448,449,5.51713,16.3903
231,575,5.48572,-20.4595,0,0,0,0,0,0,0,-1,1455,449,5.48571,20.4595
238,575,5.33484,-22.3575,0,0,0,0,0,0,0,-1,1462,449,5.33478,22.3575
245,575,5.59741,-23.513,0,0,0,0,0,0,0,-1,1469,449,5.5974,23.513
252,575,10.5602,-44.9309,0,0,0,0,0,0,0,-1,1476,449,10.5602,44.9309
259,575,12.6493,-57.551,0,0,0,0,0,0,0,-1,1483,449,12.6493,57.551
266,575,14.9243,-69.1833,0,0,0,0,0,0,0,-1,1490,449,14.9243,69.1833
273,575,15.9393,-82.0017,0,0,0,0,0,0,0,-1,1497,449,15.9394,82.0017
280,575,25.8918,-232.553,0,0,0,0,0,0,0,-1,1504,449,25.8918,232.553
287,575,30.1709,-230.672,0,0,0,0,0,0,0,-1,1511,449,30.1709,230.672
294,575,30.3402,-228.198,0,0,0,0,0,0,0,-1,1518,449,30.3402,228.198
301,575,30.3406,-225.768,0,0,0,0,0,0,0,-1,1525,449,30.3406,225.768
308,575,30.3923,-223.324,0,0,0,0,0,0,0,-1,1532,449,30.3923,223.324
315,575,30.2853,-220.875,0.0655131,0.00122199,-0.0315729,0.0784251,-0.01169,-0.388205,0.056584,0.0202092,1539,449,30.2852,220.875
322,575,30.1361,-218.265,0.0611571,0.00277463,-0.0305388,0.0742122,-0.0102804,-0.403978,0.0532335,0.0164378,1546,449,30.1361,218.265
329,575,30.0522,-215.697,0.0570867,0.00434239,-0.029082,0.0699733,-0.00854427,-0.417113,0.0497422,0.0177337,1553,449,30.0523,215.697
336,575,29.9178,-212.965,0.0531389,0.0056987,-0.027579,0.0657952,-0.00695763,-0.43024,0.0463571,0.0206405,1560,449,29.9179,212.965
343,575,29.7338,-210.009,0.0486884,0.00696009,-0.0258937,0.0610777,-0.00542928,-0.446276,0.0426436,0.0233653,1567,449,29.7338,210.009
350,575,29.4536,-207.101,0.0444311,0.00875094,-0.0238484,0.0563738,-0.00319182,-0.464269,0.0386904,0.0206807,1574,449,29.4537,207.101
357,575,29.1886,-204.343,0.0407184,0.0108205,-0.0215345,0.051984,-0.000445135,-0.481991,0.0348053,0.03364,1581,449,29.1886,204.343
364,575,28.937,-201.57,0.0368462,0.0130653,-0.0189298,0.0473102,0.00260135,-0.504973,0.0307098,0.0408399,1588,449,28.937,201.57
371,575,28.6469,-198.738,0,0,0,0,0,0,0,-1,1595,449,28.6468,198.738
378,575,27.833,-195.201,0.0297819,0.0181001,-0.0130014,0.0381942,0.00968783,-0.574281,0.0229263,0.0240928,1602,449,27.833,195.201
385,575,27.2229,-192.05,0.0269123,0.0209579,-0.00957155,0.033959,0.0139112,-0.634619,0.0197126,0.023709,1609,449,27.2229,192.05
392,575,26.5776,-188.987,0.0248024,0.024329,-0.00571793,0.0302885,0.0188429,-0.764713,0.0176601,0.0236736,1616,449,26.5776,188.987
399,575,25.7699,-186.046,0.0232395,0.0273132,-0.00200145,0.028132,0.0224207,-1.18248,0.0171705,0.0244918,1623,449,25.77,186.046
406,575,25.0613,-182.452,0.0220964,0.0301549,0.00156439,0.0304479,0.0218034,1.38562,0.0181181,0.0464953,1630,449,25.0613,182.452
413,575,24.4496,-178.75,0,0,0,0,0,0,0,-1,1637,449,24.4496,178.75
420,575,20.9784,-175.024,0,0,0,0,0,0,0,-1,1644,449,20.9784,175.024
427,575,7.86377,-144.226,0,0,0,0,0,0,0,-1,1651,449,7.86376,144.226
434,575,7.81628,-127.139,0,0,0,0,0,0,0,-1,1658,449,7.8163,127.139
441,575,14.0811,-51.3901,0,0,0,0,0,0,0,-1,1665,449,14.081,51.3901
448,575,13.4385,-39.1208,0,0,0,0,0,0,0,-1,1672,449,13.4385,39.1208
455,575,11.7931,-31.6917,0,0,0,0,0,0,0,-1,1679,449,11.793,31.6917
462,575,7.12781,-21.7179,0,0,0,0,0,0,0,-1,1686,449,7.12778,21.7178
469,575,13.3328,-39.946,0,0,0,0,0,0,0,-1,1693,449,13.3328,39.946
476,575,12.8243,-36.3585,0,0,0,0,0,0,0,-1,1700,449,12.8244,36.3585
483,575,7.80994,-33.4096,0,0,0,0,0,0,0,-1,1707,449,7.80991,33.4096
490,575,7.42871,-25.5027,0,0,0,0,0,0,0,-1,1714,449,7.42869,25.5027
497,575,0,0,0,0,0,0,0,0,0,-1,1721,449,0,0
504,575,0,0,0,0,0,0,0,0,0,-1,1728,449,0,0
511,575,0,0,0,0,0,0,0,0,0,-1,1735,449,0,0
518,575,0,0,0,0,0,0,0,0,0,-1,1742,449,0,0
525,575,0,0,0,0,0,0,0,0,0,-1,1749,449,0,0
532,575,0,0,0,0,0,0,0,0,0,-1,1756,449,0,0
539,575,0,0,0,0,0,0,0,0,0,-1,1763,449,0,0
546,575,0,0,0,0,0,0,0,0,0,-1,1770,449,0,0
553,575,0,0,0,0,0,0,0,0,0,-1,1777,449,0,0
560,575,0,0,0,0,0,0,0,0,0,-1,1784,449,0,0
567,575,0,0,0,0,0,0,0,0,0,-1,1791,449,0,0
574,575,0,0,0,0,0,0,0,0,0,-1,1798,449,0,0
581,575,0,0,0,0,0,0,0,0,0,-1,1805,449,0,0
588,575,0,0,0,0,0,0,0,0,0,-1,1812,449,0,0
595,575,0,0,0,0,0,0,0,0,0,-1,1819,449,0,0
602,575,0,0,0,0,0,0,0,0,0,-1,1826,449,0,0
609,575,0,0,0,0,0,0,0,0,0,-1,1833,449,0,0
616,575,0,0,0,0,0,0,0,0,0,-1,1840,449,0,0
623,575,0,0,0,0,0,0,0,0,0,-1,1847,449,0,0
630,575,0,0,0,0,0,0,0,0,0,-1,1854,449,0,0
637,575,0,0,0,0,0,0,0,0,0,-1,1861,449,0,0
644,575,0,0,0,0,0,0,0,0,0,-1,1868,449,0,0
651,575,0,0,0,0,0,0,0,0,0,-1,1875,449,0,0
658,575,0,0,0,0,0,0,0,0,0,-1,1882,449,0,0
665,575,0,0,0,0,0,0,0,0,0,-1,1889,449,0,0
672,575,0,0,0,0,0,0,0,0,0,-1,1896,449,0,0
679,575,0,0,0,0,0,0,0,0,0,-1,1903,449,0,0
686,575,0,0,0,0,0,0,0,0,0,-1,1910,449,0,0
693,575,0,0,0,0,0,0,0,0,0,-1,1917,449,0,0
700,575,0,0,0,0,0,0,0,0,0,-1,1924,449,0,0
707,575,0,0,0,0,0,0,0,0,0,-1,1931,449,0,0
714,575,0,0,0,0,0,0,0,0,0,-1,1938,449,0,0
721,575,0,0,0,0,0,0,0,0,0,-1,1945,449,0,0
728,575,0,0,0,0,0,0,0,0,0,-1,1952,449,0,0
735,575,0,0,0,0,0,0,0,0,0,-1,1959,449,0,0
742,575,0,0,0,0,0,0,0,0,0,-1,1966,449,0,0
749,575,0,0,0,0,0,0,0,0,0,-1,1973,449,0,0
756,575,0,0,0,0,0,0,0,0,0,-1,1980,449,0,0
763,575,0,0,0,0,0,0,0,0,0,-1,1987,449,0,0
770,575,0,0,0,0,0,0,0,0,0,-1,1994,449,0,0
777,575,0,0,0,0,0,0,0,0,0,-1,2001,449,0,0
784,575,0,0,0,0,0,0,0,0,0,-1,2008,449,0,0
791,575,0,0,0,0,0,0,0,0,0,-1,2015,449,0,0
798,575,0,0,0,0,0,0,0,0,0,-1,2022,449,0,0
805,575,0,0,0,0,0,0,0,0,0,-1,2029,449,0,0
812,575,0,0,0,0,0,0,0,0,0,-1,2036,449,0,0
-700,568,0,0,0,0,0,0,0,0,0,-1,524,456,0,0
-693,568,0,0,0,0,0,0,0,0,0,-1,531,456,0,0
-686,568,0,0,0,0,0,0,0,0,0,-1,538,456,0,0
-679,568,0,0,0,0,0,0,0,0,0,-1,545,456,0,0
-672,568,0,0,0,0,0,0,0,0,0,-1,552,456,0,0
-665,568,0,0,0,0,0,0,0,0,0,-1,559,456,0,0
-658,568,0,0,0,0,0,0,0,0,0,-1,566,456,0,0
-651,568,0,0,0,0,0,0,0,0,0,-1,573,456,0,0
-644,568,0,0,0,0,0,0,0,0,0,-1,580,456,0,0
-637,568,0,0,0,0,0,0,0,0,0,-1,587,456,0,0
-630,568,0,0,0,0,0,0,0,0,0,-1,594,456,0,0
-623,568,0,0,0,0,0,0,0,0,0,-1,601,456,0,0
-616,568,0,0,0,0,0,0,0,0,0,-1,608,456,0,0
-609,568,0,0,0,0,0,0,0,0,0,-1,615,456,0,0
-602,568,0,0,0,0,0,0,0,0,0,-1,622,456,0,0
-595,568,0,0,0,0,0,0,0,0,0,-1,629,456,0,0
-588,568,0,0,0,0,0,0,0,0,0,-1,636,456,0,0
-581,568,0,0,0,0,0,0,0,0,0,-1,643,456,0,0
-574,568,0,0,0,0,0,0,0,0,0,-1,650,456,0,0
-567,568,0,0,0,0,0,0,0,0,0,-1,657,456,0,0
-560,568,0,0,0,0,0,0,0,0,0,-1,664,456,0,0
-553,568,0,0,0,0,0,0,0,0,0,-1,671,456,0,0
-546,568,0,0,0,0,0,0,0,0,0,-1,678,456,0,0
-539,568,0,0,0,0,0,0,0,0,0,-1,685,456,0,0
-532,568,0,0,0,0,0,0,0,0,0,-1,692,456,0,0
-525,568,0,0,0,0,0,0,0,0,0,-1,699,456,0,0
-518,568,0,0,0,0,0,0,0,0,0,-1,706,456,0,0
-511,568,0,0,0,0,0,0,0,0,0,-1,713,456,0,0
-504,568,0,0,0,0,0,0,0,0,0,-1,720,456,0,0
-497,568,0,0,0,0,0,0,0,0,0,-1,727,456,0,0
-490,568,0,0,0,0,0,0,0,0,0,-1,734,456,0,0
-483,568,0,0,0,0,0,0,0,0,0,-1,741,456,0,0
-476,568,0,0,0,0,0,0,0,0,0,-1,748,456,0,0
-469,568,0,0,0,0,0,0,0,0,0,-1,755,456,0,0
-462,568,0,0,0,0,0,0,0,0,0,-1,762,456,0,0
-455,568,0,0,0,0,0,0,0,0,0,-1,769,456,0,0
-448,568,0,0,0,0,0,0,0,0,0,-1,776,456,0,0
-441,568,0,0,0,0,0,0,0,0,0,-1,783,456,0,0
-434,568,0,0,0,0,0,0,0,0,0,-1,790,456,0,0
-427,568,0,0,0,0,0,0,0,0,0,-1,797,456,0,0
-420,568,0,0,0,0,0,0,0,0,0,-1,804,456,0,0
-413,568,0,0,0,0,0,0,0,0,0,-1,811,456,0,0
-406,568,0,0,0,0,0,0,0,0,0,-1,818,456,0,0
-399,568,0,0,0,0,0,0,0,0,0,-1,825,456,0,0
-392,568,0,0,0,0,0,0,0,0,0,-1,832,456,0,0
-385,568,0,0,0,0,0,0,0,0,0,-1,839,456,0,0
-378,568,0.321777,-7.29929,0,0,0,0,0,0,0,-1,846,456,0.321806,7.29927
-371,568,1.09595,-7.46707,0,0,0,0,0,0,0,-1,853,456,1.09597,7.46707
-364,568,2.70746,-23.4782,0,0,0,0,0,0,0,-1,860,456,2.70746,23.4782
-357,568,2.14166,-7.67645,0,0,0,0,0,0,0,-1,867,456,2.14167,7.67646
-350,568,2.7467,-11.2507,0,0,0,0,0,0,0,-1,874,456,2.7467,11.2507
-343,568,2.16516,-11.3762,0,0,0,0,0,0,0,-1,881,456,2.16514,11.3762
-336,568,1.14984,-29.3232,0,0,0,0,0,0,0,-1,888,456,1.14984,29.3231
-329,568,2.80359,-32.459,0,0,0,0,0,0,0,-1,895,456,2.80357,32.4591
-322,568,0.987793,-58.3259,0,0,0,0,0,0,0,-1,902,456,0.98779,58.3259
-315,568,0.755188,-84.5458,0,0,0,0,0,0,0,-1,909,456,0.755164,84.5458
-308,568,-1.79626,-152.83,0,0,0,0,0,0,0,-1,916,456,-1.79629,152.83
-301,568,-7.60577,-167.248,0,0,0,0,0,0,0,-1,923,456,-7.60576,167.248
-294,568,-16.0219,-173.474,0,0,0,0,0,0,0,-1,930,456,-16.0219,173.474
-287,568,-16.7215,-177.364,0.0192218,0.0117427,0.00324454,0.0204331,0.0105313,0.35732,0.0117989,0.0444851,937,456,-16.7215,177.364
-280,568,-17.4282,-181.108,0.0218399,0.0087501,0.00741409,0.0251846,0.00540539,0.423792,0.0153094,0.0314346,944,456,-17.4282,181.108
-273,568,-18.1057,-184.539,0.024255,0.00591826,0.0112484,0.0295982,0.000575029,0.443464,0.0195433,0.0402709,951,456,-18.1057,184.539
-266,568,-18.9431,-187.884,0.0265891,0.00296632,0.014888,0.0337819,-0.00422652,0.450062,0.0240542,0.0359693,958,456,-18.9431,187.884
-259,568,-19.5078,-191.066,0.0292262,0.000298397,0.0179189,0.0377903,-0.00826576,0.445844,0.0283533,0.0246732,965,456,-19.5078,191.066
-252,568,-20.1016,-194.094,0.0320668,-0.00176974,0.0204193,0.041666,-0.0113689,0.439446,0.0322422,0.023759,972,456,-20.1017,194.094
-245,568,-20.5603,-197.128,0.0349469,-0.00333486,0.0225847,0.0454108,-0.0137987,0.433873,0.0357718,0.0261806,979,456,-20.5603,197.128
-238,568,-20.9536,-200.165,0.0376584,-0.00447043,0.024481,0.04889,-0.015702,0.430136,0.0388985,0.0221852,986,456,-20.9535,200.165
-231,568,-21.3578,-203.143,0.0406138,-0.00567024,0.0264391,0.0526084,-0.0176648,0.4259,0.0422112,0.0188305,993,456,-21.3579,203.143
-224,568,-21.7143,-206.069,0.043772,-0.00662321,0.028118,0.0563308,-0.019182,0.42006,0.0453218,0.0207401,1000,456,-21.7143,206.069
-217,568,-21.8987,-208.872,0.0469851,-0.00769538,0.0294997,0.0598658,-0.0205761,0.411686,0.0482544,0.0185066,1007,456,-21.8987,208.872
-210,568,-21.949,-211.628,0.0503782,-0.00906254,0.0310273,0.0636229,-0.0223072,0.403454,0.0514878,0.0172295,1014,456,-21.949,211.628
-203,568,-22.1924,-214.36,0.0538407,-0.0109045,0.0324766,0.0673235,-0.0243873,0.393501,0.0548494,0.0224159,1021,456,-22.1924,214.36
-196,568,-22.5861,-216.69,0,0,0,0,0,0,0,-1,1028,456,-22.5861,216.69
-189,568,-22.8133,-218.815,0,0,0,0,0,0,0,-1,1035,456,-22.8133,218.815
-182,568,-22.1721,-222.043,0,0,0,0,0,0,0,-1,1042,456,-22.1721,222.043
-175,568,-21.8314,-224.561,0,0,0,0,0,0,0,-1,1049,456,-21.8314,224.561
-168,568,-21.5433,-227.123,0,0,0,0,0,0,0,-1,1056,456,-21.5434,227.123
-161,568,-2.68726,-108.88,0,0,0,0,0,0,0,-1,1063,456,-2.68729,108.88
-154,568,-0.830933,-89.7711,0,0,0,0,0,0,0,-1,1070,456,-0.830932,89.771
-147,568,2.48108,-65.0201,0,0,0,0,0,0,0,-1,1077,456,2.48114,65.0201
-140,568,2.39624,-65.523,0,0,0,0,0,0,0,-1,1084,456,2.39621,65.523
-133,568,2.48999,-60.2435,0,0,0,0,0,0,0,-1,1091,456,2.49001,60.2435
-126,568,2.47339,-55.9059,0,0,0,0,0,0,0,-1,1098,456,2.47343,55.9059
-119,568,1.89978,-50.8443,0,0,0,0,0,0,0,-1,1105,456,1.89978,50.8443
-112,568,1.98242,-35.0942,0,0,0,0,0,0,0,-1,1112,456,1.98247,35.0942
-105,568,2.02454,-25.038,0,0,0,0,0,0,0,-1,1119,456,2.02459,25.038
-98,568,1.58618,-14.7874,0,0,0,0,0,0,0,-1,1126,456,1.58617,14.7874
-91,568,1.11621,-11.1853,0,0,0,0,0,0,0,-1,1133,456,1.11626,11.1853
-84,568,0.461792,-9.7959,0,0,0,0,0,0,0,-1,1140,456,0.461793,9.7959
-77,568,-1.13806,-8.57822,0,0,0,0,0,0,0,-1,1147,456,-1.13807,8.57821
-70,568,-4.09766,-1.42911,0,0,0,0,0,0,0,-1,1154,456,-4.09767,1.4291
-63,568,-5.92273,-3.70752,0,0,0,0,0,0,0,-1,1161,456,-5.92272,3.70751
-56,568,-5.24158,-6.01385,0,0,0,0,0,0,0,-1,1168,456,-5.24161,6.01386
-49,568,-5.24365,-8.33557,0,0,0,0,0,0,0,-1,1175,456,-5.24371,8.33557
-42,568,-0.664795,0.521973,0,0,0,0,0,0,0,-1,1182,456,-0.664829,-0.521984
-35,568,-0.153076,-1.67731,0,0,0,0,0,0,0,-1,1189,456,-0.153068,1.67731
-28,568,1.25439,-4.48798,0,0,0,0,0,0,0,-1,1196,456,1.2544,4.48797
-21,568,14.3225,-95.7751,0,0,0,0,0,0,0,-1,1203,456,14.3225,95.7751
-14,568,13.5939,-95.7115,0,0,0,0,0,0,0,-1,1210,456,13.5939,95.7116
-7,568,13.3939,-99.5256,0,0,0,0,0,0,0,-1,1217,456,13.3939,99.5256
0,568,17.8994,-113.639,0,0,0,0,0,0,0,-1,1224,456,17.8994,113.639
7,568,16.8177,-113.667,0,0,0,0,0,0,0,-1,1231,456,16.8177,113.667
14,568,15.7687,-113.705,0,0,0,0,0,0,0,-1,1238,456,15.7686,113.705
21,568,15.0255,-112.98,0,0,0,0,0,0,0,-1,1245,456,15.0256,112.98
28,568,13.5841,-113.334,0,0,0,0,0,0,0,-1,1252,456,13.5841,113.334
35,568,11.7145,-113.957,0,0,0,0,0,0,0,-1,1259,456,11.7144,113.957
42,568,10.209,-114.158,0,0,0,0,0,0,0,-1,1266,456,10.209,114.158
49,568,8.45886,-114.416,0,0,0,0,0,0,0,-1,1273,456,8.45885,114.416
56,568,6.81494,-115.114,0,0,0,0,0,0,0,-1,1280,456,6.81498,115.114
63,568,5.26221,-116.012,0,0,0,0,0,0,0,-1,1287,456,5.2622,116.012
70,568,3.58411,-116.663,0,0,0,0,0,0,0,-1,1294,456,3.58412,116.663
77,568,2.32214,-117.264,0,0,0,0,0,0,0,-1,1301,456,2.32212,117.264
84,568,0.873535,-118.339,0,0,0,0,0,0,0,-1,1308,456,0.873582,118.339
91,568,1.56677,-120.416,0,0,0,0,0,0,0,-1,1315,456,1.56682,120.416
98,568,0.795044,-121.52,0,0,0,0,0,0,0,-1,1322,456,0.795036,121.52
105,568,0.0231934,-122.624,0,0,0,0,0,0,0,-1,1329,456,0.0232517,122.624
112,568,-0.352661,-124.198,0,0,0,0,0,0,0,-1,1336,456,-0.352687,124.198
119,568,-1.5033,-124.309,0,0,0,0,0,0,0,-1,1343,456,-1.50334,124.309
126,568,-1.93481,-126.266,0,0,0,0,0,0,0,-1,1350,456,-1.93478,126.266
133,568,-2.40845,-128.176,0,0,0,0,0,0,0,-1,1357,456,-2.4084,128.176
140,568,-4.05957,-129.439,0,0,0,0,0,0,0,-1,1364,456,-4.05962,129.439
147,568,-2.74841,-131.46,0,0,0,0,0,0,0,-1,1371,456,-2.74844,131.46
154,568,-3.05994,-134.051,0,0,0,0,0,0,0,-1,1378,456,-3.05996,134.051
161,568,-3.37146,-136.641,0,0,0,0,0,0,0,-1,1385,456,-3.37148,136.641
168,568,-11.53,-55.4321,0,0,0,0,0,0,0,-1,1392,456,-11.53,55.4321
175,568,10.5151,0.747498,0,0,0,0,0,0,0,-1,1399,456,10.5152,-0.747501
182,568,6.35095,-3.63361,0,0,0,0,0,0,0,-1,1406,456,6.35093,3.63359
189,568,6.17493,-1.70911,0,0,0,0,0,0,0,-1,1413,456,6.17497,1.70911
196,568,6.04724,0.200836,0,0,0,0,0,0,0,-1,1420,456,6.04724,-0.200835
203,568,5.9281,2.08649,0,0,0,0,0,0,0,-1,1427,456,5.92812,-2.08648
210,568,1.46216,-2.50446,0,0,0,0,0,0,0,-1,1434,456,1.46219,2.50446
217,568,2.62366,-7.86703,0,0,0,0,0,0,0,-1,1441,456,2.62365,7.86704
224,568,3.43494,-12.1555,0,0,0,0,0,0,0,-1,1448,456,3.43492,12.1555
231,568,4.38245,-9.3205,0,0,0,0,0,0,0,-1,1455,456,4.38244,9.32048
238,568,5.88879,-20.7448,0,0,0,0,0,0,0,-1,1462,456,5.88876,20.7449
245,568,3.34387,-10.6774,0,0,0,0,0,0,0,-1,1469,456,3.34389,10.6774
252,568,3.56946,-9.28928,0,0,0,0,0,0,0,-1,1476,456,3.56948,9.28928
259,568,3.38843,-8.73068,0,0,0,0,0,0,0,-1,1483,456,3.38842,8.73068
266,568,14.0127,-59.903,0,0,0,0,0,0,0,-1,1490,456,14.0127,59.9029
273,568,15.7317,-67.1277,0,0,0,0,0,0,0,-1,1497,456,15.7317,67.1278
280,568,16.2292,-72.0379,0,0,0,0,0,0,0,-1,1504,456,16.2293,72.0379
287,568,16.8087,-82.9175,0,0,0,0,0,0,0,-1,1511,456,16.8087,82.9175
294,568,19.5126,-106.497,0,0,0,0,0,0,0,-1,1518,456,19.5125,106.497
301,568,33.1528,-225.425,0,0,0,0,0,0,0,-1,1525,456,33.1528,225.425
308,568,33.1665,-222.886,0,0,0,0,0,0,0,-1,1532,456,33.1665,222.886
315,568,33.1022,-220.385,0.0738953,-0.000808674,-0.0359949,0.0884163,-0.0153297,-0.383449,0.0646627,0.0357331,1539,456,33.1022,220.385
322,568,33.0685,-217.681,0.0694932,0.000649883,-0.0351748,0.0842865,-0.0141435,-0.39811,0.0614505,0.0203338,1546,456,33.0685,217.681
329,568,33.0178,-214.996,0.0653298,0.00216753,-0.0339846,0.0801418,-0.0126445,-0.41102,0.0581031,0.0167231,1553,456,33.0178,214.996
336,568,32.882,-212.23,0.0613088,0.00336752,-0.0327942,0.0760961,-0.0114198,-0.423612,0.0549345,0.0187333,1560,456,32.882,212.23
343,568,32.8433,-209.391,0.056832,0.00412489,-0.031394,0.0714673,-0.0105105,-0.436231,0.0515071,0.0254677,1567,456,32.8432,209.391
350,568,32.6675,-206.486,0.0524915,0.00525008,-0.0297331,0.0668444,-0.00910281,-0.449732,0.0478865,0.0222468,1574,456,32.6675,206.486
357,568,32.4556,-203.621,0.0484819,0.00693429,-0.0277146,0.062344,-0.00692784,-0.463788,0.0440539,0.0409219,1581,456,32.4556,203.621
364,568,32.3767,-201.049,0,0,0,0,0,0,0,-1,1588,456,32.3768,201.049
371,568,31.699,-197.609,0,0,0,0,0,0,0,-1,1595,456,31.6989,197.609
378,568,31.0658,-194.516,0.0368122,0.0126542,-0.020015,0.0481106,0.00135577,-0.513905,0.0316315,0.024168,1602,456,31.0657,194.516
385,568,30.4777,-191.364,0.0335969,0.0150237,-0.0168204,0.043524,0.00509656,-0.533169,0.0274752,0.0238266,1609,456,30.4777,191.364
392,568,29.8304,-188.402,0.0309336,0.0177588,-0.0132119,0.0391092,0.00958319,-0.554137,0.0235379,0.028712,1616,456,29.8305,188.402
399,568,28.9534,-185.586,0.0288062,0.02009,-0.0096697,0.0350545,0.0138417,-0.573683,0.0203873,0.0374321,1623,456,28.9534,185.586
406,568,28.6033,-181.747,0.0271036,0.0222993,-0.00621963,0.0313688,0.018034,-0.601111,0.0181784,0.0298956,1630,456,28.6032,181.747
413,568,28.0315,-177.979,0.0253944,0.0240643,-0.00311432,0.0279139,0.0215448,-0.680205,0.0168913,0.0429737,1637,456,28.0315,177.979
420,568,27.1104,-174.268,0,0,0,0,0,0,0,-1,1644,456,27.1104,174.268
427,568,26.2316,-170.758,0,0,0,0,0,0,0,-1,1651,456,26.2316,170.758
434,568,14.1353,-161.818,0,0,0,0,0,0,0,-1,1658,456,14.1353,161.818
441,568,9.81958,-144.498,0,0,0,0,0,0,0,-1,1665,456,9.8196,144.498
448,568,15.3542,-50.0354,0,0,0,0,0,0,0,-1,1672,456,15.3542,50.0354
455,568,15.1589,-41.3369,0,0,0,0,0,0,0,-1,1679,456,15.1589,41.3369
462,568,14.3977,-40.8195,0,0,0,0,0,0,0,-1,1686,456,14.3977,40.8194
469,568,13.8547,-74.0195,0,0,0,0,0,0,0,-1,1693,456,13.8547,74.0195
476,568,14.7294,-42.0833,0,0,0,0,0,0,0,-1,1700,456,14.7293,42.0833
483,568,13.5175,-35.9629,0,0,0,0,0,0,0,-1,1707,456,13.5174,35.9629
490,568,9.21021,-25.4427,0,0,0,0,0,0,0,-1,1714,456,9.21025,25.4427
497,568,9.19275,-22.8114,0,0,0,0,0,0,0,-1,1721,456,9.19273,22.8114
504,568,0,0,0,0,0,0,0,0,0,-1,1728,456,0,0
511,568,0,0,0,0,0,0,0,0,0,-1,1735,456,0,0
518,568,0,0,0,0,0,0,0,0,0,-1,1742,456,0,0
525,568,0,0,0,0,0,0,0,0,0,-1,1749,456,0,0
532,568,0,0,0,0,0,0,0,0,0,-1,1756,456,0,0
539,568,0,0,0,0,0,0,0,0,0,-1,1763,456,0,0
546,568,0,0,0,0,0,0,0,0,0,-1,1770,456,0,0
553,568,0,0,0,0,0,0,0,0,0,-1,1777,456,0,0
560,568,0,0,0,0,0,0,0,0,0,-1,1784,456,0,0
567,568,0,0,0,0,0,0,0,0,0,-1,1791,456,0,0
574,568,0,0,0,0,0,0,0,0,0,-1,1798,456,0,0
581,568,0,0,0,0,0,0,0,0,0,-1,1805,456,0,0
588,568,0,0,0,0,0,0,0,0,0,-1,1812,456,0,0
595,568,0,0,0,0,0,0,0,0,0,-1,1819,456,0,0
602,568,0,0,0,0,0,0,0,0,0,-1,1826,456,0,0
609,568,0,0,0,0,0,0,0,0,0,-1,1833,456,0,0
616,568,0,0,0,0,0,0,0,0,0,-1,1840,456,0,0
623,568,0,0,0,0,0,0,0,0,0,-1,1847,456,0,0
630,568,0,0,0,0,0,0,0,0,0,-1,1854,456,0,0
637,568,0,0,0,0,0,0,0,0,0,-1,1861,456,0,0
644,568,0,0,0,0,0,0,0,0,0,-1,1868,456,0,0
651,568,0,0,0,0,0,0,0,0,0,-1,1875,456,0,0
658,568,0,0,0,0,0,0,0,0,0,-1,1882,456,0,0
665,568,0,0,0,0,0,0,0,0,0,-1,1889,456,0,0
672,568,0,0,0,0,0,0,0,0,0,-1,1896,456,0,0
679,568,0,0,0,0,0,0,0,0,0,-1,1903,456,0,0
686,568,0,0,0,0,0,0,0,0,0,-1,1910,456,0,0
693,568,0,0,0,0,0,0,0,0,0,-1,1917,456,0,0
700,568,0,0,0,0,0,0,0,0,0,-1,1924,456,0,0
707,568,0,0,0,0,0,0,0,0,0,-1,1931,456,0,0
714,568,0,0,0,0,0,0,0,0,0,-1,1938,456,0,0
721,568,0,0,0,0,0,0,0,0,0,-1,1945,456,0,0
728,568,0,0,0,0,0,0,0,0,0,-1,1952,456,0,0
735,568,0,0,0,0,0,0,0,0,0,-1,1959,456,0,0
742,568,0,0,0,0,0,0,0,0,0,-1,1966,456,0,0
749,568,0,0,0,0,0,0,0,0,0,-1,1973,456,0,0
756,568,0,0,0,0,0,0,0,0,0,-1,1980,456,0,0
763,568,0,0,0,0,0,0,0,0,0,-1,1987,456,0,0
770,568,0,0,0,0,0,0,0,0,0,-1,1994,456,0,0
777,568,0,0,0,0,0,0,0,0,0,-1,2001,456,0,0
784,568,0,0,0,0,0,0,0,0,0,-1,2008,456,0,0
791,568,0,0,0,0,0,0,0,0,0,-1,2015,456,0,0
798,568,0,0,0,0,0,0,0,0,0,-1,2022,456,0,0
805,568,0,0,0,0,0,0,0,0,0,-1,2029,456,0,0
812,568,0,0,0,0,0,0,0,0,0,-1,2036,456,0,0
-700,561,0,0,0,0,0,0,0,0,0,-1,524,463,0,0
-693,561,0,0,0,0,0,0,0,0,0,-1,531,463,0,0
-686,561,0,0,0,0,0,0,0,0,0,-1,538,463,0,0
-679,561,0,0,0,0,0,0,0,0,0,-1,545,463,0,0
-672,561,0,0,0,0,0,0,0,0,0,-1,552,463,0,0
-665,561,0,0,0,0,0,0,0,0,0,-1,559,463,0,0
-658,561,0,0,0,0,0,0,0,0,0,-1,566,463,0,0
-651,561,0,0,0,0,0,0,0,0,0,-1,573,463,0,0
-644,561,0,0,0,0,0,0,0,0,0,-1,580,463,0,0
-637,561,0,0,0,0,0,0,0,0,0,-1,587,463,0,0
-630,561,0,0,0,0,0,0,0,0,0,-1,594,463,0,0
-623,561,0,0,0,0,0,0,0,0,0,-1,601,463,0,0
-616,561,0,0,0,0,0,0,0,0,0,-1,608,463,0,0
-609,561,0,0,0,0,0,0,0,0,0,-1,615,463,0,0
-602,561,0,0,0,0,0,0,0,0,0,-1,622,463,0,0
-595,561,0,0,0,0,0,0,0,0,0,-1,629,463,0,0
-588,561,0,0,0,0,0,0,0,0,0,-1,636,463,0,0
-581,561,0,0,0,0,0,0,0,0,0,-1,643,463,0,0
-574,561,0,0,0,0,0,0,0,0,0,-1,650,463,0,0
-567,561,0,0,0,0,0,0,0,0,0,-1,657,463,0,0
-560,561,0,0,0,0,0,0,0,0,0,-1,664,463,0,0
-553,561,0,0,0,0,0,0,0,0,0,-1,671,463,0,0
-546,561,0,0,0,0,0,0,0,0,0,-1,678,463,0,0
-539,561,0,0,0,0,0,0,0,0,0,-1,685,463,0,0
-532,561,0,0,0,0,0,0,0,0,0,-1,692,463,0,0
-525,561,0,0,0,0,0,0,0,0,0,-1,699,463,0,0
-518,561,0,0,0,0,0,0,0,0,0,-1,706,463,0,0
-511,561,0,0,0,0,0,0,0,0,0,-1,713,463,0,0
-504,561,0,0,0,0,0,0,0,0,0,-1,720,463,0,0
-497,561,0,0,0,0,0,0,0,0,0,-1,727,463,0,0
-490,561,0,0,0,0,0,0,0,0,0,-1,734,463,0,0
-483,561,0,0,0,0,0,0,0,0,0,-1,741,463,0,0
-476,561,0,0,0,0,0,0,0,0,0,-1,748,463,0,0
-469,561,0,0,0,0,0,0,0,0,0,-1,755,463,0,0
-462,561,0,0,0,0,0,0,0,0,0,-1,762,463,0,0
-455,561,0,0,0,0,0,0,0,0,0,-1,769,463,0,0
-448,561,0,0,0,0,0,0,0,0,0,-1,776,463,0,0
-441,561,0,0,0,0,0,0,0,0,0,-1,783,463,0,0
-434,561,0,0,0,0,0,0,0,0,0,-1,790,463,0,0
-427,561,0,0,0,0,0,0,0,0,0,-1,797,463,0,0
-420,561,0,0,0,0,0,0,0,0,0,-1,804,463,0,0
-413,561,0,0,0,0,0,0,0,0,0,-1,811,463,0,0
-406,561,0,0,0,0,0,0,0,0,0,-1,818,463,0,0
-399,561,0,0,0,0,0,0,0,0,0,-1,825,463,0,0
-392,561,4.92407,-2.54578,0,0,0,0,0,0,0,-1,832,463,4.92408,2.54576
-385,561,5.55634,-1.02338,0,0,0,0,0,0,0,-1,839,463,5.55634,1.02338
-378,561,0.160522,-4.51785,0,0,0,0,0,0,0,-1,846,463,0.160542,4.51785
-371,561,2.62524,-27.795,0,0,0,0,0,0,0,-1,853,463,2.62525,27.7949
-364,561,3.72833,-30.5013,0,0,0,0,0,0,0,-1,860,463,3.72835,30.5013
-357,561,2.16742,-23.5582,0,0,0,0,0,0,0,-1,867,463,2.1674,23.5582
-350,561,1.33124,-11.9406,0,0,0,0,0,0,0,-1,874,463,1.33127,11.9406
-343,561,1.13214,-14.1837,0,0,0,0,0,0,0,-1,881,463,1.13217,14.1837
-336,561,2.91016,-36.595,0,0,0,0,0,0,0,-1,888,463,2.91014,36.595
-329,561,-3.06433,-115.89,0,0,0,0,0,0,0,-1,895,463,-3.06431,115.89
-322,561,-13.014,-156.581,0,0,0,0,0,0,0,-1,902,463,-13.014,156.581
-315,561,-16.533,-161.367,0,0,0,0,0,0,0,-1,909,463,-16.533,161.367
-308,561,-17.5419,-165.778,0,0,0,0,0,0,0,-1,916,463,-17.5419,165.778
-301,561,-18.8514,-169.523,0,0,0,0,0,0,0,-1,923,463,-18.8515,169.523
-294,561,-19.6091,-173.181,0.0218683,0.0107685,0.0053065,0.023997,0.00863981,0.381489,0.0140344,0.0356833,930,463,-19.6091,173.181
-287,561,-20.3057,-176.648,0.0244647,0.0076129,0.00991145,0.0290478,0.00302986,0.433117,0.0184384,0.0230924,937,463,-20.3057,176.648
-280,561,-20.9713,-180.082,0.0271824,0.00482732,0.0139296,0.0338646,-0.00185491,0.447288,0.0232194,0.022611,944,463,-20.9713,180.082
-273,561,-21.6883,-183.562,0.0298903,0.00215462,0.0175489,0.0383894,-0.00634447,0.451017,0.0279488,0.0322879,951,463,-21.6883,183.562
-266,561,-22.3379,-186.866,0.0326255,-0.000504937,0.0209044,0.0427324,-0.0106118,0.450345,0.0326063,0.0207448,958,463,-22.3379,186.866
-259,561,-22.8944,-190.137,0.0354964,-0.00289775,0.0236562,0.0467648,-0.0141661,0.44454,0.0368185,0.0166909,965,463,-22.8944,190.137
-252,561,-23.3597,-193.254,0.038437,-0.00471991,0.0257695,0.0504695,-0.0167524,0.436842,0.0404052,0.0224282,972,463,-23.3597,193.254
-245,561,-23.8328,-196.342,0.0414856,-0.00611033,0.0275323,0.0540795,-0.0187042,0.42901,0.0436448,0.025899,979,463,-23.8328,196.342
-238,561,-24.1874,-199.32,0.0442929,-0.007063,0.0290989,0.0574235,-0.0201936,0.423885,0.0464989,0.0215125,986,463,-24.1874,199.32
-231,561,-24.5549,-202.277,0.0473979,-0.0079418,0.0307401,0.0610872,-0.021631,0.418957,0.0495353,0.0188893,993,463,-24.5549,202.277
-224,561,-24.9322,-205.193,0.0505987,-0.00868793,0.0322015,0.0647236,-0.0228129,0.41337,0.0524346,0.0204548,1000,463,-24.9322,205.193
-217,561,-25.057,-208.034,0.0538385,-0.00952196,0.0333014,0.0681215,-0.023805,0.40517,0.0550912,0.023776,1007,463,-25.057,208.034
-210,561,-25.0303,-210.892,0.0573489,-0.0108232,0.0347171,0.0719161,-0.0253903,0.397285,0.0582812,0.0236904,1014,463,-25.0303,210.892
-203,561,-25.1226,-213.721,0.0609342,-0.0125642,0.0360573,0.0756693,-0.0272993,0.387947,0.0615966,0.0411236,1021,463,-25.1225,213.721
-196,561,-25.2869,-216.562,0,0,0,0,0,0,0,-1,1028,463,-25.2869,216.562
-189,561,-22.7559,-219.203,0,0,0,0,0,0,0,-1,1035,463,-22.7559,219.203
-182,561,-7.18176,-128.216,0,0,0,0,0,0,0,-1,1042,463,-7.18178,128.216
-175,561,-4.55042,-111.222,0,0,0,0,0,0,0,-1,1049,463,-4.55046,111.222
-168,561,-2.89514,-98.4026,0,0,0,0,0,0,0,-1,1056,463,-2.89508,98.4026
-161,561,-2.00903,-88.1659,0,0,0,0,0,0,0,-1,1063,463,-2.00904,88.1659
-154,561,1.63977,-64.6129,0,0,0,0,0,0,0,-1,1070,463,1.63981,64.6129
-147,561,1.70703,-65.0358,0,0,0,0,0,0,0,-1,1077,463,1.70703,65.0359
-140,561,2.1239,-59.8181,0,0,0,0,0,0,0,-1,1084,463,2.12391,59.818
-133,561,1.37939,-55.0099,0,0,0,0,0,0,0,-1,1091,463,1.37945,55.01
-126,561,1.77014,-49.4318,0,0,0,0,0,0,0,-1,1098,463,1.7702,49.4318
-119,561,-0.336304,-35.422,0,0,0,0,0,0,0,-1,1105,463,-0.336245,35.422
-112,561,1.24365,-29.1982,0,0,0,0,0,0,0,-1,1112,463,1.2437,29.1981
-105,561,0.530518,-13.5379,0,0,0,0,0,0,0,-1,1119,463,0.530477,13.5379
-98,561,1.5387,-7.54352,0,0,0,0,0,0,0,-1,1126,463,1.53871,7.54351
-91,561,1.29553,-6.57968,0,0,0,0,0,0,0,-1,1133,463,1.29549,6.5797
-84,561,1.23364,-5.84555,0,0,0,0,0,0,0,-1,1140,463,1.23363,5.84556
-77,561,-2.36023,1.00204,0,0,0,0,0,0,0,-1,1147,463,-2.3602,-1.00205
-70,561,-3.90015,-1.41541,0,0,0,0,0,0,0,-1,1154,463,-3.90009,1.4154
-63,561,-6.95691,-4.02756,0,0,0,0,0,0,0,-1,1161,463,-6.95696,4.02756
-56,561,-5.37988,-6.66855,0,0,0,0,0,0,0,-1,1168,463,-5.37988,6.66854
-49,561,-5.7439,-9.11029,0,0,0,0,0,0,0,-1,1175,463,-5.74387,9.1103
-42,561,-1.72644,-5.63065,0,0,0,0,0,0,0,-1,1182,463,-1.72648,5.63064
-35,561,-1.65674,-4.87994,0,0,0,0,0,0,0,-1,1189,463,-1.6567,4.87993
-28,561,-1.91418,-3.86896,0,0,0,0,0,0,0,-1,1196,463,-1.91414,3.86895
-21,561,13.6385,-94.8162,0,0,0,0,0,0,0,-1,1203,463,13.6386,94.8162
-14,561,12.9348,-94.9626,0,0,0,0,0,0,0,-1,1210,463,12.9349,94.9626
-7,561,12.6293,-95.1317,0,0,0,0,0,0,0,-1,1217,463,12.6292,95.1317
0,561,18.3727,-114.232,0,0,0,0,0,0,0,-1,1224,463,18.3727,114.232
7,561,17.2173,-114.349,0,0,0,0,0,0,0,-1,1231,463,17.2173,114.349
14,561,16.04,-114.46,0,0,0,0,0,0,0,-1,1238,463,16.04,114.46
21,561,14.8844,-114.577,0,0,0,0,0,0,0,-1,1245,463,14.8844,114.577
28,561,14.1654,-113.476,0,0,0,0,0,0,0,-1,1252,463,14.1654,113.476
35,561,12.1637,-114.096,0,0,0,0,0,0,0,-1,1259,463,12.1637,114.096
42,561,11.4609,-114.841,0,0,0,0,0,0,0,-1,1266,463,11.4609,114.841
49,561,8.63818,-114.113,0,0,0,0,0,0,0,-1,1273,463,8.63813,114.113
56,561,7.17151,-114.944,0,0,0,0,0,0,0,-1,1280,463,7.1715,114.944
63,561,5.77832,-115.798,0,0,0,0,0,0,0,-1,1287,463,5.7783,115.798
70,561,4.37695,-116.486,0,0,0,0,0,0,0,-1,1294,463,4.37692,116.486
77,561,3.15332,-117.339,0,0,0,0,0,0,0,-1,1301,463,3.15337,117.339
84,561,1.78345,-118.402,0,0,0,0,0,0,0,-1,1308,463,1.78339,118.402
91,561,0.390381,-119.454,0,0,0,0,0,0,0,-1,1315,463,0.390441,119.454
98,561,0.870972,-121.088,0,0,0,0,0,0,0,-1,1322,463,0.870966,121.088
105,561,0.0830078,-122.174,0,0,0,0,0,0,0,-1,1329,463,0.0830072,122.174
112,561,-0.773071,-121.599,0,0,0,0,0,0,0,-1,1336,463,-0.773053,121.599
119,561,-1.01599,-123.678,0,0,0,0,0,0,0,-1,1343,463,-1.01601,123.678
126,561,-1.76428,-125.515,0,0,0,0,0,0,0,-1,1350,463,-1.76432,125.515
133,561,-2.16479,-127.649,0,0,0,0,0,0,0,-1,1357,463,-2.16484,127.649
140,561,-4.05115,-110.527,0,0,0,0,0,0,0,-1,1364,463,-4.05112,110.527
147,561,-2.58398,-131.144,0,0,0,0,0,0,0,-1,1371,463,-2.58397,131.144
154,561,-2.86121,-133.788,0,0,0,0,0,0,0,-1,1378,463,-2.86126,133.788
161,561,-3.13855,-136.432,0,0,0,0,0,0,0,-1,1385,463,-3.13855,136.432
168,561,8.16626,-105.984,0,0,0,0,0,0,0,-1,1392,463,8.16627,105.984
175,561,10.4185,0.276398,0,0,0,0,0,0,0,-1,1399,463,10.4185,-0.276394
182,561,6.45703,-4.02127,0,0,0,0,0,0,0,-1,1406,463,6.45704,4.02127
189,561,6.50854,-2.08685,0,0,0,0,0,0,0,-1,1413,463,6.50851,2.08686
196,561,6.44775,-0.27182,0,0,0,0,0,0,0,-1,1420,463,6.44773,0.271814
203,561,6.18591,1.1301,0,0,0,0,0,0,0,-1,1427,463,6.18592,-1.13009
210,561,5.68713,2.68427,0,0,0,0,0,0,0,-1,1434,463,5.6871,-2.68425
217,561,3.61743,-7.33582,0,0,0,0,0,0,0,-1,1441,463,3.61738,7.33581
224,561,4.27466,-8.59171,0,0,0,0,0,0,0,-1,1448,463,4.27466,8.59171
231,561,4.93188,-9.8476,0,0,0,0,0,0,0,-1,1455,463,4.93193,9.84761
238,561,2.18018,-5.18359,0,0,0,0,0,0,0,-1,1462,463,2.18023,5.18359
245,561,3.07568,-3.50238,0,0,0,0,0,0,0,-1,1469,463,3.0757,3.50238
252,561,3.47412,-3.71109,0,0,0,0,0,0,0,-1,1476,463,3.47413,3.71109
259,561,3.42212,-3.2334,0,0,0,0,0,0,0,-1,1483,463,3.42214,3.2334
266,561,4.44373,-5.90027,0,0,0,0,0,0,0,-1,1490,463,4.44372,5.90026
273,561,16.3015,-62.0638,0,0,0,0,0,0,0,-1,1497,463,16.3016,62.0639
280,561,16.6068,-65.9482,0,0,0,0,0,0,0,-1,1504,463,16.6068,65.9482
287,561,17.3195,-70.585,0,0,0,0,0,0,0,-1,1511,463,17.3194,70.585
294,561,17.6993,-75.0805,0,0,0,0,0,0,0,-1,1518,463,17.6994,75.0805
301,561,20.2274,-97.1867,0,0,0,0,0,0,0,-1,1525,463,20.2275,97.1867
308,561,21.4679,-112.982,0,0,0,0,0,0,0,-1,1532,463,21.4678,112.982
315,561,36.0826,-220.114,0,0,0,0,0,0,0,-1,1539,463,36.0827,220.114
322,561,35.9573,-217.089,0,0,0,0,0,0,0,-1,1546,463,35.9573,217.089
329,561,35.9169,-214.281,0,0,0,0,0,0,0,-1,1553,463,35.9169,214.281
336,561,35.9545,-211.509,0.0696671,0.00130856,-0.0379064,0.0865282,-0.0155525,-0.418528,0.0635076,0.0315707,1560,463,35.9545,211.509
343,561,35.9884,-208.725,0.0651474,0.00151574,-0.0367507,0.0819408,-0.0152777,-0.428623,0.0603676,0.0238535,1567,463,35.9884,208.725
350,561,35.7742,-205.771,0.0607107,0.00199032,-0.0354138,0.0773523,-0.0146512,-0.439292,0.0570821,0.0240591,1574,463,35.7741,205.771
357,561,35.4672,-202.737,0,0,0,0,0,0,0,-1,1581,463,35.4672,202.737
364,561,25.8826,-196.416,0,0,0,0,0,0,0,-1,1588,463,25.8825,196.416
371,561,34.7944,-196.836,0,0,0,0,0,0,0,-1,1595,463,34.7944,196.836
378,561,34.2886,-193.741,0.0438588,0.00790455,-0.0266577,0.0580346,-0.00627126,-0.48874,0.0409406,0.0173065,1602,463,34.2886,193.741
385,561,33.8998,-190.517,0.0402913,0.00995922,-0.0236344,0.0532072,-0.00295668,-0.500142,0.0364969,0.0203365,1609,463,33.8998,190.517
392,561,33.3475,-187.393,0.0370435,0.0122206,-0.0202368,0.0483717,0.000892362,-0.510324,0.0319545,0.0293526,1616,463,33.3475,187.393
399,561,32.7056,-184.222,0.0343663,0.0141199,-0.0168162,0.0438713,0.0046149,-0.514457,0.027837,0.0317608,1623,463,32.7056,184.222
406,561,32.2936,-180.692,0.032154,0.0159309,-0.0134335,0.039735,0.00834989,-0.513782,0.0241919,0.0276091,1630,463,32.2935,180.691
413,561,31.6918,-177.134,0.0300038,0.0172941,-0.0102551,0.0357133,0.0115845,-0.508016,0.0210388,0.0224075,1637,463,31.6918,177.134
420,561,30.7389,-173.598,0.0281596,0.0185189,-0.00702906,0.0318624,0.0148162,-0.484841,0.0184108,0.0196049,1644,463,30.7389,173.598
427,561,29.9401,-169.882,0.0267585,0.0201313,-0.00381681,0.0284994,0.0183904,-0.427928,0.0166841,0.0254514,1651,463,29.94,169.882
434,561,29.1085,-166.175,0,0,0,0,0,0,0,-1,1658,463,29.1085,166.175
441,561,28.4868,-161.882,0,0,0,0,0,0,0,-1,1665,463,28.4868,161.882
448,561,12.2344,-140.326,0,0,0,0,0,0,0,-1,1672,463,12.2343,140.326
455,561,12.9248,-110.453,0,0,0,0,0,0,0,-1,1679,463,12.9249,110.453
462,561,16.1986,-76.7032,0,0,0,0,0,0,0,-1,1686,463,16.1986,76.7032
469,561,15.9751,-73.8943,0,0,0,0,0,0,0,-1,1693,463,15.9751,73.8943
476,561,15.6277,-72.0689,0,0,0,0,0,0,0,-1,1700,463,15.6277,72.0689
483,561,15.0601,-41.4633,0,0,0,0,0,0,0,-1,1707,463,15.0601,41.4632
490,561,13.1162,-34.5897,0,0,0,0,0,0,0,-1,1714,463,13.1162,34.5897
497,561,11.7618,-20.3894,0,0,0,0,0,0,0,-1,1721,463,11.7618,20.3894
504,561,12.9351,-20.1285,0,0,0,0,0,0,0,-1,1728,463,12.935,20.1285
511,561,0,0,0,0,0,0,0,0,0,-1,1735,463,0,0
518,561,0,0,0,0,0,0,0,0,0,-1,1742,463,0,0
525,561,0,0,0,0,0,0,0,0,0,-1,1749,463,0,0
532,561,0,0,0,0,0,0,0,0,0,-1,1756,463,0,0
539,561,0,0,0,0,0,0,0,0,0,-1,1763,463,0,0
546,561,0,0,0,0,0,0,0,0,0,-1,1770,463,0,0
553,561,0,0,0,0,0,0,0,0,0,-1,1777,463,0,0
560,561,0,0,0,0,0,0,0,0,0,-1,1784,463,0,0
567,561,0,0,0,0,0,0,0,0,0,-1,1791,463,0,0
574,561,0,0,0,0,0,0,0,0,0,-1,1798,463,0,0
581,561,0,0,0,0,0,0,0,0,0,-1,1805,463,0,0
588,561,0,0,0,0,0,0,0,0,0,-1,1812,463,0,0
595,561,0,0,0,0,0,0,0,0,0,-1,1819,463,0,0
602,561,0,0,0,0,0,0,0,0,0,-1,1826,463,0,0
609,561,0,0,0,0,0,0,0,0,0,-1,1833,463,0,0
616,561,0,0,0,0,0,0,0,0,0,-1,1840,463,0,0
623,561,0,0,0,0,0,0,0,0,0,-1,1847,463,0,0
630,561,0,0,0,0,0,0,0,0,0,-1,1854,463,0,0
637,561,0,0,0,0,0,0,0,0,0,-1,1861,463,0,0
644,561,0,0,0,0,0,0,0,0,0,-1,1868,463,0,0
651,561,0,0,0,0,0,0,0,0,0,-1,1875,463,0,0
658,561,0,0,0,0,0,0,0,0,0,-1,1882,463,0,0
665,561,0,0,0,0,0,0,0,0,0,-1,1889,463,0,0
672,561,0,0,0,0,0,0,0,0,0,-1,1896,463,0,0
679,561,0,0,0,0,0,0,0,0,0,-1,1903,463,0,0
686,561,0,0,0,0,0,0,0,0,0,-1,1910,463,0,0
693,561,0,0,0,0,0,0,0,0,0,-1,1917,463,0,0
700,561,0,0,0,0,0,0,0,0,0,-1,1924,463,0,0
707,561,0,0,0,0,0,0,0,0,0,-1,1931,463,0,0
714,561,0,0,0,0,0,0,0,0,0,-1,1938,463,0,0
721,561,0,0,0,0,0,0,0,0,0,-1,1945,463,0,0
728,561,0,0,0,0,0,0,0,0,0,-1,1952,463,0,0
735,561,0,0,0,0,0,0,0,0,0,-1,1959,463,0,0
742,561,0,0,0,0,0,0,0,0,0,-1,1966,463,0,0
749,561,0,0,0,0,0,0,0,0,0,-1,1973,463,0,0
756,561,0,0,0,0,0,0,0,0,0,-1,1980,463,0,0
763,561,0,0,0,0,0,0,0,0,0,-1,1987,463,0,0
770,561,0,0,0,0,0,0,0,0,0,-1,1994,463,0,0
777,561,0,0,0,0,0,0,0,0,0,-1,2001,463,0,0
784,561,0,0,0,0,0,0,0,0,0,-1,2008,463,0,0
791,561,0,0,0,0,0,0,0,0,0,-1,2015,463,0,0
798,561,0,0,0,0,0,0,0,0,0,-1,2022,463,0,0
805,561,0,0,0,0,0,0,0,0,0,-1,2029,463,0,0
812,561,0,0,0,0,0,0,0,0,0,-1,2036,463,0,0
-700,554,0,0,0,0,0,0,0,0,0,-1,524,470,0,0
-693,554,0,0,0,0,0,0,0,0,0,-1,531,470,0,0
-686,554,0,0,0,0,0,0,0,0,0,-1,538,470,0,0
-679,554,0,0,0,0,0,0,0,0,0,-1,545,470,0,0
-672,554,0,0,0,0,0,0,0,0,0,-1,552,470,0,0
-665,554,0,0,0,0,0,0,0,0,0,-1,559,470,0,0
-658,554,0,0,0,0,0,0,0,0,0,-1,566,470,0,0
-651,554,0,0,0,0,0,0,0,0,0,-1,573,470,0,0
-644,554,0,0,0,0,0,0,0,0,0,-1,580,470,0,0
-637,554,0,0,0,0,0,0,0,0,0,-1,587,470,0,0
-630,554,0,0,0,0,0,0,0,0,0,-1,594,470,0,0
-623,554,0,0,0,0,0,0,0,0,0,-1,601,470,0,0
-616,554,0,0,0,0,0,0,0,0,0,-1,608,470,0,0
-609,554,0,0,0,0,0,0,0,0,0,-1,615,470,0,0
-602,554,0,0,0,0,0,0,0,0,0,-1,622,470,0,0
-595,554,0,0,0,0,0,0,0,0,0,-1,629,470,0,0
-588,554,0,0,0,0,0,0,0,0,0,-1,636,470,0,0
-581,554,0,0,0,0,0,0,0,0,0,-1,643,470,0,0
-574,554,0,0,0,0,0,0,0,0,0,-1,650,470,0,0
-567,554,0,0,0,0,0,0,0,0,0,-1,657,470,0,0
-560,554,0,0,0,0,0,0,0,0,0,-1,664,470,0,0
-553,554,0,0,0,0,0,0,0,0,0,-1,671,470,0,0
-546,554,0,0,0,0,0,0,0,0,0,-1,678,470,0,0
-539,554,0,0,0,0,0,0,0,0,0,-1,685,470,0,0
-532,554,0,0,0,0,0,0,0,0,0,-1,692,470,0,0
-525,554,0,0,0,0,0,0,0,0,0,-1,699,470,0,0
-518,554,0,0,0,0,0,0,0,0,0,-1,706,470,0,0
-511,554,0,0,0,0,0,0,0,0,0,-1,713,470,0,0
-504,554,0,0,0,0,0,0,0,0,0,-1,720,470,0,0
-497,554,0,0,0,0,0,0,0,0,0,-1,727,470,0,0
-490,554,0,0,0,0,0,0,0,0,0,-1,734,470,0,0
-483,554,0,0,0,0,0,0,0,0,0,-1,741,470,0,0
-476,554,0,0,0,0,0,0,0,0,0,-1,748,470,0,0
-469,554,0,0,0,0,0,0,0,0,0,-1,755,470,0,0
-462,554,0,0,0,0,0,0,0,0,0,-1,762,470,0,0
-455,554,0,0,0,0,0,0,0,0,0,-1,769,470,0,0
-448,554,0,0,0,0,0,0,0,0,0,-1,776,470,0,0
-441,554,0,0,0,0,0,0,0,0,0,-1,783,470,0,0
-434,554,0,0,0,0,0,0,0,0,0,-1,790,470,0,0
-427,554,0,0,0,0,0,0,0,0,0,-1,797,470,0,0
-420,554,0,0,0,0,0,0,0,0,0,-1,804,470,0,0
-413,554,0,0,0,0,0,0,0,0,0,-1,811,470,0,0
-406,554,0,0,0,0,0,0,0,0,0,-1,818,470,0,0
-399,554,-1.32275,-3.95142,0,0,0,0,0,0,0,-1,825,470,-1.32275,3.95141
-392,554,-1.35632,-3.7406,0,0,0,0,0,0,0,-1,832,470,-1.35632,3.7406
-385,554,1.54614,-28.7236,0,0,0,0,0,0,0,-1,839,470,1.54616,28.7236
-378,554,1.92175,-29.1808,0,0,0,0,0,0,0,-1,846,470,1.92174,29.1808
-371,554,2.90704,-29.4795,0,0,0,0,0,0,0,-1,853,470,2.90703,29.4795
-364,554,2.69928,-30.6884,0,0,0,0,0,0,0,-1,860,470,2.69926,30.6884
-357,554,2.43024,-31.9178,0,0,0,0,0,0,0,-1,867,470,2.43024,31.9178
-350,554,1.17157,-18.1341,0,0,0,0,0,0,0,-1,874,470,1.17156,18.1341
-343,554,2.02539,-41.0046,0,0,0,0,0,0,0,-1,881,470,2.02541,41.0046
-336,554,-5.33704,-112.343,0,0,0,0,0,0,0,-1,888,470,-5.33704,112.343
-329,554,-15.7035,-151.576,0,0,0,0,0,0,0,-1,895,470,-15.7035,151.576
-322,554,-19.572,-156.857,0,0,0,0,0,0,0,-1,902,470,-19.572,156.857
-315,554,-20.4073,-160.831,0.0202778,0.0131079,-0.000817765,0.0203699,0.0130158,-0.112136,0.011911,0.0466081,909,470,-20.4073,160.831
-308,554,-21.426,-164.783,0.0225878,0.0115161,0.0036087,0.0236601,0.0104437,0.288848,0.0136914,0.0369175,916,470,-21.426,164.783
-301,554,-22.4014,-168.491,0.0245843,0.00927917,0.00830743,0.0282266,0.00563681,0.413204,0.0172486,0.0262229,923,470,-22.4014,168.491
-294,554,-23.213,-172.024,0.0270637,0.00642013,0.0129193,0.0332782,0.000205699,0.448349,0.0221172,0.0178325,930,470,-23.213,172.024
-287,554,-23.9284,-175.56,0.0298034,0.0034864,0.0171778,0.0382833,-0.00499353,0.458561,0.0273392,0.0177211,937,470,-23.9284,175.56
-280,554,-24.6794,-179.086,0.0325653,0.000888776,0.0209031,0.0429528,-0.00949872,0.461193,0.0322708,0.0171301,944,470,-24.6794,179.086
-273,554,-25.3069,-182.568,0.0355066,-0.00166746,0.0241996,0.0474334,-0.0135943,0.457914,0.0369959,0.0220198,951,470,-25.3069,182.568
-266,554,-25.9188,-185.905,0.0385933,-0.00404989,0.0271537,0.0517961,-0.0172527,0.452567,0.0414949,0.0194501,958,470,-25.9188,185.905
-259,554,-26.3958,-189.044,0.0417586,-0.00613325,0.0295127,0.055818,-0.0201927,0.444578,0.0454631,0.0190623,965,470,-26.3958,189.044
-252,554,-26.7599,-192.179,0.0449154,-0.00770435,0.0311457,0.0593764,-0.0221653,0.434683,0.0486847,0.0213507,972,470,-26.7599,192.179
-245,554,-27.0063,-195.433,0.0481961,-0.00888771,0.032389,0.0628246,-0.0235162,0.424226,0.0515422,0.0218415,979,470,-27.0063,195.433
-238,554,-27.4717,-198.507,0.0511527,-0.00960207,0.0335286,0.0660186,-0.024468,0.417334,0.0540472,0.0191792,986,470,-27.4717,198.507
-231,554,-27.7849,-201.53,0.0544281,-0.0100193,0.0347084,0.0695652,-0.0251564,0.411252,0.0566555,0.0196773,993,470,-27.7848,201.53
-224,554,-28.0059,-204.393,0.057624,-0.010379,0.0358147,0.0730066,-0.0257616,0.405682,0.0591585,0.0254198,1000,470,-28.0059,204.393
-217,554,-28.1446,-207.329,0.0608224,-0.0106803,0.0364886,0.0761551,-0.026013,0.397802,0.061309,0.0412745,1007,470,-28.1446,207.329
-210,554,-28.057,-210.2,0,0,0,0,0,0,0,-1,1014,470,-28.057,210.2
-203,554,-28.0923,-213.167,0,0,0,0,0,0,0,-1,1021,470,-28.0923,213.167
-196,554,-9.70605,-128.487,0,0,0,0,0,0,0,-1,1028,470,-9.70603,128.487
-189,554,-4.25269,-93.2308,0,0,0,0,0,0,0,-1,1035,470,-4.25265,93.2308
-182,554,-3.94775,-89.1434,0,0,0,0,0,0,0,-1,1042,470,-3.94776,89.1434
-175,554,-3.32971,-84.2911,0,0,0,0,0,0,0,-1,1049,470,-3.3297,84.2911
-168,554,-2.08459,-77.5436,0,0,0,0,0,0,0,-1,1056,470,-2.08462,77.5436
-161,554,1.09583,-42.015,0,0,0,0,0,0,0,-1,1063,470,1.09577,42.015
-154,554,1.03186,-42.7216,0,0,0,0,0,0,0,-1,1070,470,1.03187,42.7216
-147,554,1.4552,-41.5187,0,0,0,0,0,0,0,-1,1077,470,1.45525,41.5187
-140,554,0.428101,-38.9893,0,0,0,0,0,0,0,-1,1084,470,0.428152,38.9893
-133,554,2.67163,-32.8187,0,0,0,0,0,0,0,-1,1091,470,2.67161,32.8187
-126,554,0.851929,-33.5393,0,0,0,0,0,0,0,-1,1098,470,0.851942,33.5393
-119,554,-1.03479,-32.1628,0,0,0,0,0,0,0,-1,1105,470,-1.03476,32.1628
-112,554,1.03162,-24.5784,0,0,0,0,0,0,0,-1,1112,470,1.03156,24.5784
-105,554,0.608765,-21.0475,0,0,0,0,0,0,0,-1,1119,470,0.608728,21.0475
-98,554,1.51929,-7.3624,0,0,0,0,0,0,0,-1,1126,470,1.51928,7.36241
-91,554,1.41089,-6.5864,0,0,0,0,0,0,0,-1,1133,470,1.41093,6.58638
-84,554,1.62305,-5.87186,0,0,0,0,0,0,0,-1,1140,470,1.62299,5.87186
-77,554,-2.56958,1.33258,0,0,0,0,0,0,0,-1,1147,470,-2.56959,-1.33257
-70,554,-3.68164,-1.18332,0,0,0,0,0,0,0,-1,1154,470,-3.68158,1.18331
-63,554,-4.86853,-3.88708,0,0,0,0,0,0,0,-1,1161,470,-4.86853,3.88708
-56,554,-5.69958,-6.45422,0,0,0,0,0,0,0,-1,1168,470,-5.69955,6.45422
-49,554,-6.23645,-8.8569,0,0,0,0,0,0,0,-1,1175,470,-6.23643,8.85689
-42,554,-6.62524,-11.5382,0,0,0,0,0,0,0,-1,1182,470,-6.62522,11.5382
-35,554,-2.40173,-4.59482,0,0,0,0,0,0,0,-1,1189,470,-2.40169,4.59481
-28,554,-0.760132,-1.65555,0,0,0,0,0,0,0,-1,1196,470,-0.760095,1.65556
-21,554,7.18884,-69.2834,0,0,0,0,0,0,0,-1,1203,470,7.18885,69.2834
-14,554,12.4838,-94.3013,0,0,0,0,0,0,0,-1,1210,470,12.4837,94.3013
-7,554,12.4888,-94.5919,0,0,0,0,0,0,0,-1,1217,470,12.4888,94.5919
0,554,12.5432,-94.6878,0,0,0,0,0,0,0,-1,1224,470,12.5432,94.6878
7,554,17.5618,-115.07,0,0,0,0,0,0,0,-1,1231,470,17.5618,115.07
14,554,16.3373,-115.225,0,0,0,0,0,0,0,-1,1238,470,16.3372,115.225
21,554,15.1688,-115.41,0,0,0,0,0,0,0,-1,1245,470,15.1689,115.41
28,554,13.5374,-113.555,0,0,0,0,0,0,0,-1,1252,470,13.5374,113.555
35,554,12.8353,-114.118,0,0,0,0,0,0,0,-1,1259,470,12.8353,114.118
42,554,12.0941,-114.706,0,0,0,0,0,0,0,-1,1266,470,12.0941,114.706
49,554,11.1235,-115.352,0,0,0,0,0,0,0,-1,1273,470,11.1235,115.352
56,554,7.80872,-114.623,0,0,0,0,0,0,0,-1,1280,470,7.80868,114.623
63,554,6.70337,-115.645,0,0,0,0,0,0,0,-1,1287,470,6.70332,115.645
70,554,5.177,-116.368,0,0,0,0,0,0,0,-1,1294,470,5.17705,116.368
77,554,3.80872,-117.326,0,0,0,0,0,0,0,-1,1301,470,3.80876,117.326
84,554,2.56433,-118.331,0,0,0,0,0,0,0,-1,1308,470,2.56434,118.331
91,554,1.64038,-119.604,0,0,0,0,0,0,0,-1,1315,470,1.64035,119.604
98,554,0.86853,-120.664,0,0,0,0,0,0,0,-1,1322,470,0.868482,120.664
105,554,0.0633545,-121.716,0,0,0,0,0,0,0,-1,1329,470,0.063325,121.716
112,554,0.323975,-120.867,0,0,0,0,0,0,0,-1,1336,470,0.323954,120.867
119,554,-0.718872,-122.819,0,0,0,0,0,0,0,-1,1343,470,-0.718826,122.819
126,554,-1.7218,-124.761,0,0,0,0,0,0,0,-1,1350,470,-1.72179,124.761
133,554,-2.22705,-126.965,0,0,0,0,0,0,0,-1,1357,470,-2.2271,126.965
140,554,-2.72156,-129.139,0,0,0,0,0,0,0,-1,1364,470,-2.72152,129.139
147,554,-2.91565,-130.956,0,0,0,0,0,0,0,-1,1371,470,-2.91559,130.956
154,554,-2.70081,-133.561,0,0,0,0,0,0,0,-1,1378,470,-2.70081,133.561
161,554,-2.94727,-136.208,0,0,0,0,0,0,0,-1,1385,470,-2.9473,136.208
168,554,-3.10144,-138.907,0,0,0,0,0,0,0,-1,1392,470,-3.10145,138.907
175,554,10.663,0.286957,0,0,0,0,0,0,0,-1,1399,470,10.663,-0.286966
182,554,6.71106,-4.50217,0,0,0,0,0,0,0,-1,1406,470,6.71107,4.50215
189,554,6.90479,-2.50348,0,0,0,0,0,0,0,-1,1413,470,6.90477,2.50348
196,554,6.96216,-0.740906,0,0,0,0,0,0,0,-1,1420,470,6.96214,0.740912
203,554,6.43518,0.414154,0,0,0,0,0,0,0,-1,1427,470,6.43523,-0.414141
210,554,6.21167,1.96707,0,0,0,0,0,0,0,-1,1434,470,6.21165,-1.96706
217,554,5.64551,3.4989,0,0,0,0,0,0,0,-1,1441,470,5.64555,-3.49891
224,554,4.85144,-8.85172,0,0,0,0,0,0,0,-1,1448,470,4.85146,8.85173
231,554,3.25073,-5.29642,0,0,0,0,0,0,0,-1,1455,470,3.25078,5.29642
238,554,4.28625,-3.25253,0,0,0,0,0,0,0,-1,1462,470,4.28622,3.25252
245,554,4.0752,-2.90033,0,0,0,0,0,0,0,-1,1469,470,4.07515,2.90032
252,554,3.52112,-0.934998,0,0,0,0,0,0,0,-1,1476,470,3.52113,0.934996
259,554,3.96448,-2.16425,0,0,0,0,0,0,0,-1,1483,470,3.96446,2.16424
266,554,3.0592,-2.71716,0,0,0,0,0,0,0,-1,1490,470,3.05923,2.71718
273,554,2.58521,-3.06876,0,0,0,0,0,0,0,-1,1497,470,2.58524,3.06874
280,554,17.1266,-60.7137,0,0,0,0,0,0,0,-1,1504,470,17.1266,60.7137
287,554,15.8918,-56.7317,0,0,0,0,0,0,0,-1,1511,470,15.8918,56.7317
294,554,18.4086,-63.1683,0,0,0,0,0,0,0,-1,1518,470,18.4085,63.1683
301,554,18.8044,-71.5027,0,0,0,0,0,0,0,-1,1525,470,18.8045,71.5028
308,554,21.7498,-95.5919,0,0,0,0,0,0,0,-1,1532,470,21.7498,95.5919
315,554,22.215,-100.177,0,0,0,0,0,0,0,-1,1539,470,22.215,100.177
322,554,22.08,-98.105,0,0,0,0,0,0,0,-1,1546,470,22.08,98.105
329,554,23.7661,-126.615,0,0,0,0,0,0,0,-1,1553,470,23.7661,126.615
336,554,39.1079,-210.957,0,0,0,0,0,0,0,-1,1560,470,39.108,210.957
343,554,39.2084,-208.094,0,0,0,0,0,0,0,-1,1567,470,39.2084,208.094
350,554,38.9354,-205.029,0,0,0,0,0,0,0,-1,1574,470,38.9354,205.029
357,554,38.6625,-201.964,0,0,0,0,0,0,0,-1,1581,470,38.6624,201.964
364,554,38.4148,-199.028,0,0,0,0,0,0,0,-1,1588,470,38.4148,199.028
371,554,38.093,-196.041,0.0547978,0.00257856,-0.0352031,0.0725171,-0.0151407,-0.466319,0.0541025,0.0349727,1595,470,38.0931,196.041
378,554,37.7412,-192.836,0.0508477,0.0039527,-0.0329053,0.067805,-0.0130046,-0.47584,0.050104,0.0175068,1602,470,37.7412,192.836
385,554,37.3732,-189.604,0.0468843,0.00587059,-0.0299146,0.0626461,-0.00989123,-0.48493,0.0454216,0.0172003,1609,470,37.3732,189.604
392,554,36.9874,-186.392,0.0430108,0.00779338,-0.0266848,0.0573731,-0.0065689,-0.493754,0.0406158,0.0229042,1616,470,36.9874,186.392
399,554,36.3344,-182.992,0.0397976,0.0094465,-0.023368,0.0524853,-0.00324123,-0.497416,0.0361191,0.0247692,1623,470,36.3343,182.992
406,554,35.8732,-179.546,0.0371436,0.0110537,-0.0200662,0.0480324,0.000164947,-0.497177,0.0319668,0.0252138,1630,470,35.8732,179.546
413,554,35.2317,-176.114,0.0346551,0.012258,-0.0168786,0.0437123,0.00320082,-0.492503,0.0281353,0.0214949,1637,470,35.2317,176.114
420,554,34.3574,-172.67,0.0324546,0.0133373,-0.0137363,0.0396308,0.00616113,-0.481425,0.0246251,0.0216075,1644,470,34.3574,172.67
427,554,33.6169,-168.968,0.0305965,0.0147759,-0.0106463,0.0359496,0.0094228,-0.465892,0.0215243,0.0241741,1651,470,33.6169,168.968
434,554,32.9087,-165.31,0.0288834,0.015951,-0.00781339,0.0325593,0.0122751,-0.43973,0.0189867,0.0306047,1658,470,32.9087,165.31
441,554,32.2012,-161.435,0.0270649,0.0169782,-0.00524828,0.0293003,0.0147429,-0.402655,0.0169166,0.0395598,1665,470,32.2012,161.435
448,554,31.4259,-157.616,0,0,0,0,0,0,0,-1,1672,470,31.4259,157.616
455,554,29.885,-153.558,0,0,0,0,0,0,0,-1,1679,470,29.8851,153.558
462,554,29.1646,-149.681,0,0,0,0,0,0,0,-1,1686,470,29.1646,149.681
469,554,16.9983,-83.4775,0,0,0,0,0,0,0,-1,1693,470,16.9982,83.4776
476,554,17.3702,-71.8294,0,0,0,0,0,0,0,-1,1700,470,17.3703,71.8294
483,554,16.5232,-37.438,0,0,0,0,0,0,0,-1,1707,470,16.5232,37.438
490,554,12.5504,-17.9805,0,0,0,0,0,0,0,-1,1714,470,12.5505,17.9805
497,554,14.3204,-17.9055,0,0,0,0,0,0,0,-1,1721,470,14.3204,17.9055
504,554,2.13257,-3.81628,0,0,0,0,0,0,0,-1,1728,470,2.1326,3.8163
511,554,1.31396,-4.02713,0,0,0,0,0,0,0,-1,1735,470,1.31398,4.02712
518,554,5.04236,-5.9472,0,0,0,0,0,0,0,-1,1742,470,5.04231,5.94721
525,554,0,0,0,0,0,0,0,0,0,-1,1749,470,0,0
532,554,0,0,0,0,0,0,0,0,0,-1,1756,470,0,0
539,554,0,0,0,0,0,0,0,0,0,-1,1763,470,0,0
546,554,0,0,0,0,0,0,0,0,0,-1,1770,470,0,0
553,554,0,0,0,0,0,0,0,0,0,-1,1777,470,0,0
560,554,0,0,0,0,0,0,0,0,0,-1,1784,470,0,0
567,554,0,0,0,0,0,0,0,0,0,-1,1791,470,0,0
574,554,0,0,0,0,0,0,0,0,0,-1,1798,470,0,0
581,554,0,0,0,0,0,0,0,0,0,-1,1805,470,0,0
588,554,0,0,0,0,0,0,0,0,0,-1,1812,470,0,0
595,554,0,0,0,0,0,0,0,0,0,-1,1819,470,0,0
602,554,0,0,0,0,0,0,0,0,0,-1,1826,470,0,0
609,554,0,0,0,0,0,0,0,0,0,-1,1833,470,0,0
616,554,0,0,0,0,0,0,0,0,0,-1,1840,470,0,0
623,554,0,0,0,0,0,0,0,0,0,-1,1847,470,0,0
630,554,0,0,0,0,0,0,0,0,0,-1,1854,470,0,0
637,554,0,0,0,0,0,0,0,0,0,-1,1861,470,0,0
644,554,0,0,0,0,0,0,0,0,0,-1,1868,470,0,0
651,554,0,0,0,0,0,0,0,0,0,-1,1875,470,0,0
658,554,0,0,0,0,0,0,0,0,0,-1,1882,470,0,0
665,554,0,0,0,0,0,0,0,0,0,-1,1889,470,0,0
672,554,0,0,0,0,0,0,0,0,0,-1,1896,470,0,0
679,554,0,0,0,0,0,0,0,0,0,-1,1903,470,0,0
686,554,0,0,0,0,0,0,0,0,0,-1,1910,470,0,0
693,554,0,0,0,0,0,0,0,0,0,-1,1917,470,0,0
700,554,0,0,0,0,0,0,0,0,0,-1,1924,470,0,0
707,554,0,0,0,0,0,0,0,0,0,-1,1931,470,0,0
714,554,0,0,0,0,0,0,0,0,0,-1,1938,470,0,0
721,554,0,0,0,0,0,0,0,0,0,-1,1945,470,0,0
728,554,0,0,0,0,0,0,0,0,0,-1,1952,470,0,0
735,554,0,0,0,0,0,0,0,0,0,-1,1959,470,0,0
742,554,0,0,0,0,0,0,0,0,0,-1,1966,470,0,0
749,554,0,0,0,0,0,0,0,0,0,-1,1973,470,0,0
756,554,0,0,0,0,0,0,0,0,0,-1,1980,470,0,0
763,554,0,0,0,0,0,0,0,0,0,-1,1987,470,0,0
770,554,0,0,0,0,0,0,0,0,0,-1,1994,470,0,0
777,554,0,0,0,0,0,0,0,0,0,-1,2001,470,0,0
784,554,0,0,0,0,0,0,0,0,0,-1,2008,470,0,0
791,554,0,0,0,0,0,0,0,0,0,-1,2015,470,0,0
798,554,0,0,0,0,0,0,0,0,0,-1,2022,470,0,0
805,554,0,0,0,0,0,0,0,0,0,-1,2029,470,0,0
812,554,0,0,0,0,0,0,0,0,0,-1,2036,470,0,0
-700,547,0,0,0,0,0,0,0,0,0,-1,524,477,0,0
-693,547,0,0,0,0,0,0,0,0,0,-1,531,477,0,0
-686,547,0,0,0,0,0,0,0,0,0,-1,538,477,0,0
-679,547,0,0,0,0,0,0,0,0,0,-1,545,477,0,0
-672,547,0,0,0,0,0,0,0,0,0,-1,552,477,0,0
-665,547,0,0,0,0,0,0,0,0,0,-1,559,477,0,0
-658,547,0,0,0,0,0,0,0,0,0,-1,566,477,0,0
-651,547,0,0,0,0,0,0,0,0,0,-1,573,477,0,0
-644,547,0,0,0,0,0,0,0,0,0,-1,580,477,0,0
-637,547,0,0,0,0,0,0,0,0,0,-1,587,477,0,0
-630,547,0,0,0,0,0,0,0,0,0,-1,594,477,0,0
-623,547,0,0,0,0,0,0,0,0,0,-1,601,477,0,0
-616,547,0,0,0,0,0,0,0,0,0,-1,608,477,0,0
-609,547,0,0,0,0,0,0,0,0,0,-1,615,477,0,0
-602,547,0,0,0,0,0,0,0,0,0,-1,622,477,0,0
-595,547,0,0,0,0,0,0,0,0,0,-1,629,477,0,0
-588,547,0,0,0,0,0,0,0,0,0,-1,636,477,0,0
-581,547,0,0,0,0,0,0,0,0,0,-1,643,477,0,0
-574,547,0,0,0,0,0,0,0,0,0,-1,650,477,0,0
-567,547,0,0,0,0,0,0,0,0,0,-1,657,477,0,0
-560,547,0,0,0,0,0,0,0,0,0,-1,664,477,0,0
-553,547,0,0,0,0,0,0,0,0,0,-1,671,477,0,0
-546,547,0,0,0,0,0,0,0,0,0,-1,678,477,0,0
-539,547,0,0,0,0,0,0,0,0,0,-1,685,477,0,0
-532,547,0,0,0,0,0,0,0,0,0,-1,692,477,0,0
-525,547,0,0,0,0,0,0,0,0,0,-1,699,477,0,0
-518,547,0,0,0,0,0,0,0,0,0,-1,706,477,0,0
-511,547,0,0,0,0,0,0,0,0,0,-1,713,477,0,0
-504,547,0,0,0,0,0,0,0,0,0,-1,720,477,0,0
-497,547,0,0,0,0,0,0,0,0,0,-1,727,477,0,0
-490,547,0,0,0,0,0,0,0,0,0,-1,734,477,0,0
-483,547,0,0,0,0,0,0,0,0,0,-1,741,477,0,0
-476,547,0,0,0,0,0,0,0,0,0,-1,748,477,0,0
-469,547,0,0,0,0,0,0,0,0,0,-1,755,477,0,0
-462,547,0,0,0,0,0,0,0,0,0,-1,762,477,0,0
-455,547,0,0,0,0,0,0,0,0,0,-1,769,477,0,0
-448,547,0,0,0,0,0,0,0,0,0,-1,776,477,0,0
-441,547,0,0,0,0,0,0,0,0,0,-1,783,477,0,0
-434,547,0,0,0,0,0,0,0,0,0,-1,790,477,0,0
-427,547,0,0,0,0,0,0,0,0,0,-1,797,477,0,0
-420,547,0,0,0,0,0,0,0,0,0,-1,804,477,0,0
-413,547,0,0,0,0,0,0,0,0,0,-1,811,477,0,0
-406,547,0.144592,-11.0292,0,0,0,0,0,0,0,-1,818,477,0.144583,11.0292
-399,547,0.775513,-10.0294,0,0,0,0,0,0,0,-1,825,477,0.775482,10.0295
-392,547,0.219055,-28.7913,0,0,0,0,0,0,0,-1,832,477,0.219056,28.7913
-385,547,0.564331,-29.2501,0,0,0,0,0,0,0,-1,839,477,0.564342,29.2501
-378,547,0.934631,-29.7303,0,0,0,0,0,0,0,-1,846,477,0.934644,29.7303
-371,547,1.85028,-29.6768,0,0,0,0,0,0,0,-1,853,477,1.85026,29.6768
-364,547,1.65063,-30.9048,0,0,0,0,0,0,0,-1,860,477,1.65062,30.9048
-357,547,1.38422,-32.116,0,0,0,0,0,0,0,-1,867,477,1.3842,32.116
-350,547,-2.25751,-57.7035,0,0,0,0,0,0,0,-1,874,477,-2.25754,57.7035
-343,547,-7.14227,-105.726,0,0,0,0,0,0,0,-1,881,477,-7.14228,105.726
-336,547,-8.40704,-139.106,0,0,0,0,0,0,0,-1,888,477,-8.40706,139.106
-329,547,-22.3162,-152.277,0,0,0,0,0,0,0,-1,895,477,-22.3162,152.277
-322,547,-23.3531,-155.993,0.0215188,0.0107258,0.00290083,0.022249,0.00999554,0.246613,0.0128675,0.0373326,902,477,-23.3531,155.993
-315,547,-24.3985,-160.017,0.0240387,0.00914895,0.00723679,0.0269764,0.00621127,0.385613,0.0163129,0.0175498,909,477,-24.3985,160.017
-308,547,-25.3005,-163.735,0.0265496,0.00744297,0.0116897,0.0320931,0.00189942,0.442816,0.0207912,0.0195306,916,477,-25.3005,163.735
-301,547,-26.1104,-167.389,0.0290259,0.00513283,0.0162852,0.0372766,-0.00311788,0.468943,0.0259529,0.0204549,923,477,-26.1104,167.389
-294,547,-26.8643,-171.025,0.0318934,0.00231186,0.0206666,0.0425167,-0.00831144,0.47481,0.0314828,0.0160904,930,477,-26.8643,171.025
-287,547,-27.5726,-174.657,0.0348953,-0.000504532,0.0246583,0.0475486,-0.0131579,0.47411,0.036876,0.0167875,937,477,-27.5725,174.657
-280,547,-28.2669,-178.228,0.037832,-0.00300671,0.0281348,0.0521764,-0.0173511,0.471492,0.0417865,0.0218586,944,477,-28.2669,178.228
-273,547,-28.8939,-181.552,0.0410596,-0.00552747,0.0311339,0.0566493,-0.0211172,0.464233,0.0464345,0.0189513,951,477,-28.8939,181.552
-266,547,-29.4579,-184.811,0.0445117,-0.00766541,0.0336508,0.0610023,-0.024156,0.455657,0.0506771,0.0183858,958,477,-29.4579,184.811
-259,547,-29.8807,-188.032,0.0480123,-0.0094143,0.0355586,0.0650031,-0.0264051,0.445752,0.0543202,0.0174739,965,477,-29.8808,188.032
-252,547,-30.0356,-191.358,0.0514554,-0.0107237,0.036642,0.0684199,-0.0276882,0.433596,0.057125,0.0221939,972,477,-30.0356,191.358
-245,547,-30.0968,-194.588,0.0550752,-0.011652,0.0372144,0.071692,-0.0282689,0.419953,0.0594999,0.0259047,979,477,-30.0968,194.588
-238,547,-30.626,-197.761,0.0583143,-0.0120829,0.0377742,0.0747474,-0.028516,0.41034,0.0615786,0.0196812,986,477,-30.6261,197.761
-231,547,-31.1566,-200.713,0.0619019,-0.0119158,0.0382783,0.0781672,-0.0281811,0.401805,0.0636209,0.0253079,993,477,-31.1566,200.713
-224,547,-31.2073,-203.486,0,0,0,0,0,0,0,-1,1000,477,-31.2073,203.486
-217,547,-31.1875,-206.61,0,0,0,0,0,0,0,-1,1007,477,-31.1875,206.61
-210,547,-17.7064,-159.297,0,0,0,0,0,0,0,-1,1014,477,-17.7064,159.297
-203,547,-3.7373,-74.9356,0,0,0,0,0,0,0,-1,1021,477,-3.73728,74.9356
-196,547,-3.4635,-72.0665,0,0,0,0,0,0,0,-1,1028,477,-3.46345,72.0665
-189,547,-3.04053,-72.5745,0,0,0,0,0,0,0,-1,1035,477,-3.04049,72.5745
-182,547,-1.53381,-67.4076,0,0,0,0,0,0,0,-1,1042,477,-1.53385,67.4076
-175,547,1.37634,-47.526,0,0,0,0,0,0,0,-1,1049,477,1.3763,47.526
-168,547,0.761719,-32.9387,0,0,0,0,0,0,0,-1,1056,477,0.761738,32.9387
-161,547,0.0430908,-34.6016,0,0,0,0,0,0,0,-1,1063,477,0.0431231,34.6016
-154,547,-0.284424,-31.1176,0,0,0,0,0,0,0,-1,1070,477,-0.284395,31.1176
-147,547,3.69434,-26.413,0,0,0,0,0,0,0,-1,1077,477,3.69437,26.413
-140,547,1.55676,-22.5229,0,0,0,0,0,0,0,-1,1084,477,1.5568,22.5229
-133,547,2.31665,-17.9421,0,0,0,0,0,0,0,-1,1091,477,2.31667,17.9421
-126,547,-1.15271,-30.6984,0,0,0,0,0,0,0,-1,1098,477,-1.15267,30.6984
-119,547,0.967651,-24.9351,0,0,0,0,0,0,0,-1,1105,477,0.967657,24.9351
-112,547,1.15674,-22.2276,0,0,0,0,0,0,0,-1,1112,477,1.15677,22.2276
-105,547,0.966797,-20.5777,0,0,0,0,0,0,0,-1,1119,477,0.966804,20.5777
-98,547,0.70166,-18.9755,0,0,0,0,0,0,0,-1,1126,477,0.701713,18.9755
-91,547,1.37805,-7.12024,0,0,0,0,0,0,0,-1,1133,477,1.37804,7.12025
-84,547,1.94202,-6.66241,0,0,0,0,0,0,0,-1,1140,477,1.94201,6.66241
-77,547,-2.28357,1.8588,0,0,0,0,0,0,0,-1,1147,477,-2.28356,-1.85879
-70,547,-3.70178,-0.874908,0,0,0,0,0,0,0,-1,1154,477,-3.70182,0.874918
-63,547,-5.12012,-3.60861,0,0,0,0,0,0,0,-1,1161,477,-5.12009,3.60862
-56,547,-6.01917,-6.2399,0,0,0,0,0,0,0,-1,1168,477,-6.01921,6.23991
-49,547,-6.729,-8.60349,0,0,0,0,0,0,0,-1,1175,477,-6.72899,8.60348
-42,547,-2.41736,-5.53012,0,0,0,0,0,0,0,-1,1182,477,-2.41734,5.53011
-35,547,-2.96838,-4.45734,0,0,0,0,0,0,0,-1,1189,477,-2.96839,4.45734
-28,547,-0.869141,-1.29901,0,0,0,0,0,0,0,-1,1196,477,-0.869135,1.29901
-21,547,0.401978,-72.9637,0,0,0,0,0,0,0,-1,1203,477,0.401971,72.9637
-14,547,12.2518,-93.9367,0,0,0,0,0,0,0,-1,1210,477,12.2518,93.9367
-7,547,12.3153,-94.0395,0,0,0,0,0,0,0,-1,1217,477,12.3153,94.0395
0,547,12.3788,-94.1422,0,0,0,0,0,0,0,-1,1224,477,12.3788,94.1422
7,547,6.43262,-90.8511,0,0,0,0,0,0,0,-1,1231,477,6.4326,90.8511
14,547,0,0,0,0,0,0,0,0,0,-1,1238,477,0,0
21,547,0,0,0,0,0,0,0,0,0,-1,1245,477,0,0
28,547,0,0,0,0,0,0,0,0,0,-1,1252,477,0,0
35,547,0,0,0,0,0,0,0,0,0,-1,1259,477,0,0
42,547,0,0,0,0,0,0,0,0,0,-1,1266,477,0,0
49,547,0,0,0,0,0,0,0,0,0,-1,1273,477,0,0
56,547,0,0,0,0,0,0,0,0,0,-1,1280,477,0,0
63,547,0,0,0,0,0,0,0,0,0,-1,1287,477,0,0
70,547,0,0,0,0,0,0,0,0,0,-1,1294,477,0,0
77,547,0,0,0,0,0,0,0,0,0,-1,1301,477,0,0
84,547,0,0,0,0,0,0,0,0,0,-1,1308,477,0,0
91,547,0,0,0,0,0,0,0,0,0,-1,1315,477,0,0
98,547,0,0,0,0,0,0,0,0,0,-1,1322,477,0,0
105,547,0.934814,-119.067,0,0,0,0,0,0,0,-1,1329,477,0.934764,119.067
112,547,0.317993,-120.917,0,0,0,0,0,0,0,-1,1336,477,0.317986,120.917
119,547,-0.626221,-122.337,0,0,0,0,0,0,0,-1,1343,477,-0.626257,122.337
126,547,-1.45447,-124.086,0,0,0,0,0,0,0,-1,1350,477,-1.45442,124.086
133,547,-2.01843,-126.185,0,0,0,0,0,0,0,-1,1357,477,-2.01839,126.185
140,547,-2.60132,-128.37,0,0,0,0,0,0,0,-1,1364,477,-2.60127,128.37
147,547,-2.68701,-130.647,0,0,0,0,0,0,0,-1,1371,477,-2.68696,130.647
154,547,-2.62231,-133.242,0,0,0,0,0,0,0,-1,1378,477,-2.62227,133.242
161,547,-2.80945,-135.777,0,0,0,0,0,0,0,-1,1385,477,-2.80944,135.777
168,547,-4.8114,-85.34,0,0,0,0,0,0,0,-1,1392,477,-4.81144,85.3399
175,547,3.35034,-0.26532,0,0,0,0,0,0,0,-1,1399,477,3.3503,0.265306
182,547,4.26038,3.72672,0,0,0,0,0,0,0,-1,1406,477,4.26039,-3.7267
189,547,3.40454,1.28671,0,0,0,0,0,0,0,-1,1413,477,3.40457,-1.28673
196,547,3.53931,1.87793,0,0,0,0,0,0,0,-1,1420,477,3.53928,-1.87794
203,547,6.49414,-0.425842,0,0,0,0,0,0,0,-1,1427,477,6.4941,0.425844
210,547,4.82092,0.53595,0,0,0,0,0,0,0,-1,1434,477,4.82096,-0.535942
217,547,4.68579,0.480072,0,0,0,0,0,0,0,-1,1441,477,4.68577,-0.480069
224,547,4.55615,0.739807,0,0,0,0,0,0,0,-1,1448,477,4.55613,-0.73981
231,547,5.90869,-3.57721,0,0,0,0,0,0,0,-1,1455,477,5.90871,3.57722
238,547,5.50049,-3.15356,0,0,0,0,0,0,0,-1,1462,477,5.50045,3.15356
245,547,5.13708,-2.65213,0,0,0,0,0,0,0,-1,1469,477,5.13708,2.65212
252,547,3.73511,-0.645233,0,0,0,0,0,0,0,-1,1476,477,3.73515,0.645237
259,547,5.86816,-3.20816,0,0,0,0,0,0,0,-1,1483,477,5.86815,3.20816
266,547,5.40222,-2.45731,0,0,0,0,0,0,0,-1,1490,477,5.40221,2.45732
273,547,3.05737,0.495789,0,0,0,0,0,0,0,-1,1497,477,3.05742,-0.49578
280,547,2.0885,1.47797,0,0,0,0,0,0,0,-1,1504,477,2.08848,-1.47795
287,547,16.7034,-52.6257,0,0,0,0,0,0,0,-1,1511,477,16.7033,52.6258
294,547,16.8954,-51.6904,0,0,0,0,0,0,0,-1,1518,477,16.8954,51.6904
301,547,16.5122,-48.5859,0,0,0,0,0,0,0,-1,1525,477,16.5122,48.5859
308,547,14.5352,-46.2472,0,0,0,0,0,0,0,-1,1532,477,14.5351,46.2472
315,547,16.3188,-48.3778,0,0,0,0,0,0,0,-1,1539,477,16.3188,48.3778
322,547,17.0029,-52.4161,0,0,0,0,0,0,0,-1,1546,477,17.0029,52.4161
329,547,21.0952,-81.7401,0,0,0,0,0,0,0,-1,1553,477,21.0952,81.7401
336,547,22.9993,-90.8107,0,0,0,0,0,0,0,-1,1560,477,22.9993,90.8107
343,547,25.0878,-120.782,0,0,0,0,0,0,0,-1,1567,477,25.0877,120.782
350,547,42.0885,-204.322,0,0,0,0,0,0,0,-1,1574,477,42.0885,204.322
357,547,42.0734,-201.911,0,0,0,0,0,0,0,-1,1581,477,42.0734,201.911
364,547,41.7343,-198.455,0,0,0,0,0,0,0,-1,1588,477,41.7342,198.455
371,547,41.5044,-195.137,0.0618999,-0.000244255,-0.0408169,0.082126,-0.0204703,-0.460065,0.062698,0.0155652,1595,477,41.5043,195.137
378,547,41.2266,-191.915,0.057796,0.000893179,-0.0387949,0.0774541,-0.018765,-0.469009,0.0588961,0.0172547,1602,477,41.2266,191.915
385,547,40.8126,-188.571,0.0534532,0.00274034,-0.0358176,0.0719813,-0.0157877,-0.477383,0.0540246,0.0214046,1609,477,40.8126,188.571
392,547,40.5107,-185.323,0.0489461,0.00436044,-0.0327619,0.0662805,-0.0129739,-0.486656,0.0490865,0.0298288,1616,477,40.5107,185.323
399,547,39.9813,-181.969,0.0451722,0.00589732,-0.0295208,0.0609905,-0.00992097,-0.491903,0.0443389,0.0300462,1623,477,39.9813,181.969
406,547,39.4423,-178.602,0.0420702,0.00743067,-0.0262436,0.056194,-0.00669315,-0.493725,0.0398814,0.0210011,1630,477,39.4423,178.602
413,547,38.8279,-175.059,0.0392321,0.00864255,-0.0229696,0.0515332,-0.00365852,-0.491672,0.0356376,0.0209253,1637,477,38.8279,175.059
420,547,37.9805,-171.547,0.0366308,0.00971761,-0.0197931,0.0471084,-0.00076001,-0.486857,0.031662,0.0349964,1644,477,37.9804,171.547
427,547,37.2972,-167.886,0.0342837,0.0111217,-0.0166583,0.042991,0.00241431,-0.481646,0.0278908,0.0472082,1651,477,37.2973,167.886
434,547,36.678,-164.369,0.0321669,0.0122387,-0.0136554,0.039107,0.00529862,-0.470212,0.0244969,0.0394104,1658,477,36.678,164.369
441,547,35.8413,-160.94,0.0300541,0.0133842,-0.0107677,0.0353359,0.00810249,-0.456034,0.0213746,0.0291735,1665,477,35.8413,160.94
448,547,34.7843,-157.04,0.0283048,0.0140708,-0.00781173,0.0317554,0.0106201,-0.41595,0.018666,0.0261082,1672,477,34.7843,157.04
455,547,33.8347,-153.161,0.0264958,0.0146742,-0.00502875,0.0283456,0.0128244,-0.35247,0.01639,0.0307698,1679,477,33.8347,153.161
462,547,32.8549,-149.372,0.0241207,0.0161761,-0.00200935,0.0246,0.0156968,-0.234153,0.0143822,0.0450198,1686,477,32.8549,149.372
469,547,31.7932,-145.364,0,0,0,0,0,0,0,-1,1693,477,31.7932,145.363
476,547,18.7277,-80.9745,0,0,0,0,0,0,0,-1,1700,477,18.7277,80.9745
483,547,17.813,-45.9664,0,0,0,0,0,0,0,-1,1707,477,17.813,45.9664
490,547,3.65271,-3.71707,0,0,0,0,0,0,0,-1,1714,477,3.65277,3.71708
497,547,2.55481,-3.81421,0,0,0,0,0,0,0,-1,1721,477,2.55476,3.8142
504,547,4.01953,-2.22714,0,0,0,0,0,0,0,-1,1728,477,4.0195,2.22713
511,547,5.2146,-6.9552,0,0,0,0,0,0,0,-1,1735,477,5.21464,6.95521
518,547,5.24243,-6.56122,0,0,0,0,0,0,0,-1,1742,477,5.24241,6.56121
525,547,5.89368,-5.49866,0,0,0,0,0,0,0,-1,1749,477,5.89372,5.49866
532,547,0,0,0,0,0,0,0,0,0,-1,1756,477,0,0
539,547,0,0,0,0,0,0,0,0,0,-1,1763,477,0,0
546,547,0,0,0,0,0,0,0,0,0,-1,1770,477,0,0
553,547,0,0,0,0,0,0,0,0,0,-1,1777,477,0,0
560,547,0,0,0,0,0,0,0,0,0,-1,1784,477,0,0
567,547,0,0,0,0,0,0,0,0,0,-1,1791,477,0,0
574,547,0,0,0,0,0,0,0,0,0,-1,1798,477,0,0
581,547,0,0,0,0,0,0,0,0,0,-1,1805,477,0,0
588,547,0,0,0,0,0,0,0,0,0,-1,1812,477,0,0
595,547,0,0,0,0,0,0,0,0,0,-1,1819,477,0,0
602,547,0,0,0,0,0,0,0,0,0,-1,1826,477,0,0
609,547,0,0,0,0,0,0,0,0,0,-1,1833,477,0,0
616,547,0,0,0,0,0,0,0,0,0,-1,1840,477,0,0
623,547,0,0,0,0,0,0,0,0,0,-1,1847,477,0,0
630,547,0,0,0,0,0,0,0,0,0,-1,1854,477,0,0
637,547,0,0,0,0,0,0,0,0,0,-1,1861,477,0,0
644,547,0,0,0,0,0,0,0,0,0,-1,1868,477,0,0
651,547,0,0,0,0,0,0,0,0,0,-1,1875,477,0,0
658,547,0,0,0,0,0,0,0,0,0,-1,1882,477,0,0
665,547,0,0,0,0,0,0,0,0,0,-1,1889,477,0,0
672,547,0,0,0,0,0,0,0,0,0,-1,1896,477,0,0
679,547,0,0,0,0,0,0,0,0,0,-1,1903,477,0,0
686,547,0,0,0,0,0,0,0,0,0,-1,1910,477,0,0
693,547,0,0,0,0,0,0,0,0,0,-1,1917,477,0,0
700,547,0,0,0,0,0,0,0,0,0,-1,1924,477,0,0
707,547,0,0,0,0,0,0,0,0,0,-1,1931,477,0,0
714,547,0,0,0,0,0,0,0,0,0,-1,1938,477,0,0
721,547,0,0,0,0,0,0,0,0,0,-1,1945,477,0,0
728,547,0,0,0,0,0,0,0,0,0,-1,1952,477,0,0
735,547,0,0,0,0,0,0,0,0,0,-1,1959,477,0,0
742,547,0,0,0,0,0,0,0,0,0,-1,1966,477,0,0
749,547,0,0,0,0,0,0,0,0,0,-1,1973,477,0,0
756,547,0,0,0,0,0,0,0,0,0,-1,1980,477,0,0
763,547,0,0,0,0,0,0,0,0,0,-1,1987,477,0,0
770,547,0,0,0,0,0,0,0,0,0,-1,1994,477,0,0
777,547,0,0,0,0,0,0,0,0,0,-1,2001,477,0,0
784,547,0,0,0,0,0,0,0,0,0,-1,2008,477,0,0
791,547,0,0,0,0,0,0,0,0,0,-1,2015,477,0,0
798,547,0,0,0,0,0,0,0,0,0,-1,2022,477,0,0
805,547,0,0,0,0,0,0,0,0,0,-1,2029,477,0,0
812,547,0,0,0,0,0,0,0,0,0,-1,2036,477,0,0
-700,540,0,0,0,0,0,0,0,0,0,-1,524,484,0,0
-693,540,0,0,0,0,0,0,0,0,0,-1,531,484,0,0
-686,540,0,0,0,0,0,0,0,0,0,-1,538,484,0,0
-679,540,0,0,0,0,0,0,0,0,0,-1,545,484,0,0
-672,540,0,0,0,0,0,0,0,0,0,-1,552,484,0,0
-665,540,0,0,0,0,0,0,0,0,0,-1,559,484,0,0
-658,540,0,0,0,0,0,0,0,0,0,-1,566,484,0,0
-651,540,0,0,0,0,0,0,0,0,0,-1,573,484,0,0
-644,540,0,0,0,0,0,0,0,0,0,-1,580,484,0,0
-637,540,0,0,0,0,0,0,0,0,0,-1,587,484,0,0
-630,540,0,0,0,0,0,0,0,0,0,-1,594,484,0,0
-623,540,0,0,0,0,0,0,0,0,0,-1,601,484,0,0
-616,540,0,0,0,0,0,0,0,0,0,-1,608,484,0,0
-609,540,0,0,0,0,0,0,0,0,0,-1,615,484,0,0
-602,540,0,0,0,0,0,0,0,0,0,-1,622,484,0,0
-595,540,0,0,0,0,0,0,0,0,0,-1,629,484,0,0
-588,540,0,0,0,0,0,0,0,0,0,-1,636,484,0,0
-581,540,0,0,0,0,0,0,0,0,0,-1,643,484,0,0
-574,540,0,0,0,0,0,0,0,0,0,-1,650,484,0,0
-567,540,0,0,0,0,0,0,0,0,0,-1,657,484,0,0
-560,540,0,0,0,0,0,0,0,0,0,-1,664,484,0,0
-553,540,0,0,0,0,0,0,0,0,0,-1,671,484,0,0
-546,540,0,0,0,0,0,0,0,0,0,-1,678,484,0,0
-539,540,0,0,0,0,0,0,0,0,0,-1,685,484,0,0
-532,540,0,0,0,0,0,0,0,0,0,-1,692,484,0,0
-525,540,0,0,0,0,0,0,0,0,0,-1,699,484,0,0
-518,540,0,0,0,0,0,0,0,0,0,-1,706,484,0,0
-511,540,0,0,0,0,0,0,0,0,0,-1,713,484,0,0
-504,540,0,0,0,0,0,0,0,0,0,-1,720,484,0,0
-497,540,0,0,0,0,0,0,0,0,0,-1,727,484,0,0
-490,540,0,0,0,0,0,0,0,0,0,-1,734,484,0,0
-483,540,0,0,0,0,0,0,0,0,0,-1,741,484,0,0
-476,540,0,0,0,0,0,0,0,0,0,-1,748,484,0,0
-469,540,0,0,0,0,0,0,0,0,0,-1,755,484,0,0
-462,540,0,0,0,0,0,0,0,0,0,-1,762,484,0,0
-455,540,0,0,0,0,0,0,0,0,0,-1,769,484,0,0
-448,540,0,0,0,0,0,0,0,0,0,-1,776,484,0,0
-441,540,0,0,0,0,0,0,0,0,0,-1,783,484,0,0
-434,540,0,0,0,0,0,0,0,0,0,-1,790,484,0,0
-427,540,0,0,0,0,0,0,0,0,0,-1,797,484,0,0
-420,540,0.227051,-10.0402,0,0,0,0,0,0,0,-1,804,484,0.227063,10.0402
-413,540,-0.0393677,-10.3862,0,0,0,0,0,0,0,-1,811,484,-0.0393683,10.3862
-406,540,-0.518372,-11.5288,0,0,0,0,0,0,0,-1,818,484,-0.518402,11.5288
-399,540,0.0863037,-11.3801,0,0,0,0,0,0,0,-1,825,484,0.0863201,11.3801
-392,540,-0.517395,-10.6735,0,0,0,0,0,0,0,-1,832,484,-0.517377,10.6735
-385,540,-0.41748,-29.7767,0,0,0,0,0,0,0,-1,839,484,-0.417475,29.7767
-378,540,-0.0524292,-30.2798,0,0,0,0,0,0,0,-1,846,484,-0.0524504,30.2798
-371,540,0.825806,-28.765,0,0,0,0,0,0,0,-1,853,484,0.8258,28.765
-364,540,0.631714,-31.1377,0,0,0,0,0,0,0,-1,860,484,0.631715,31.1377
-357,540,-8.12195,-96.1753,0,0,0,0,0,0,0,-1,867,484,-8.12197,96.1753
-350,540,-9.69135,-126.599,0,0,0,0,0,0,0,-1,874,484,-9.69134,126.599
-343,540,-10.6005,-131.501,0,0,0,0,0,0,0,-1,881,484,-10.6005,131.501
-336,540,-25.1436,-147.301,0,0,0,0,0,0,0,-1,888,484,-25.1435,147.301
-329,540,-26.2059,-151.172,0.0231964,0.00865092,0.00643674,0.0256358,0.00621159,0.362246,0.0154422,0.0255332,895,484,-26.2059,151.172
-322,540,-27.2327,-155,0.0253779,0.00729279,0.0106738,0.0303245,0.00234611,0.433974,0.0194815,0.0226791,902,484,-27.2327,155
-315,540,-28.2506,-158.857,0.0278671,0.00553151,0.0151071,0.0354861,-0.00208754,0.467109,0.0243831,0.0188027,909,484,-28.2506,158.857
-308,540,-29.1427,-162.553,0.0305088,0.00362352,0.019647,0.0408718,-0.0067395,0.485374,0.0297499,0.019225,916,484,-29.1427,162.553
-301,540,-29.9399,-166.125,0.0333578,0.00117169,0.0242329,0.0463547,-0.0118251,0.492287,0.0355074,0.0214874,923,484,-29.9399,166.125
-294,540,-30.5901,-169.863,0.036532,-0.00167386,0.0285156,0.0517519,-0.0168938,0.490275,0.0413008,0.0195102,930,484,-30.5901,169.863
-287,540,-31.1863,-173.64,0.039783,-0.00444746,0.0323602,0.0568629,-0.0215274,0.485646,0.0467663,0.0147637,937,484,-31.1863,173.64
-280,540,-31.9122,-177.11,0.0429357,-0.00693507,0.0356734,0.0615246,-0.025524,0.480374,0.0516703,0.0166321,944,484,-31.9122,177.11
-273,540,-32.509,-180.433,0.0464747,-0.0094573,0.0384418,0.0660468,-0.0290293,0.470929,0.056262,0.019516,951,484,-32.509,180.433
-266,540,-32.9075,-183.68,0.0502962,-0.0113719,0.0404944,0.0703594,-0.0314351,0.460007,0.0601863,0.0262188,958,484,-32.9075,183.68
-259,540,-33.2941,-187.019,0.0542115,-0.0127383,0.0418924,0.0743606,-0.0328875,0.448312,0.0634442,0.0359683,965,484,-33.294,187.019
-252,540,-33.3264,-190.238,0.0580768,-0.0137433,0.0423454,0.0776885,-0.033355,0.433724,0.0657921,0.0364385,972,484,-33.3264,190.238
-245,540,-33.1685,-193.67,0,0,0,0,0,0,0,-1,979,484,-33.1685,193.67
-238,540,-33.8707,-196.788,0,0,0,0,0,0,0,-1,986,484,-33.8707,196.788
-231,540,-34.6467,-199.72,0,0,0,0,0,0,0,-1,993,484,-34.6467,199.72
-224,540,-22.3848,-166.932,0,0,0,0,0,0,0,-1,1000,484,-22.3847,166.932
-217,540,-11.2583,-111.761,0,0,0,0,0,0,0,-1,1007,484,-11.2583,111.761
-210,540,-2.77222,-65.5617,0,0,0,0,0,0,0,-1,1014,484,-2.77221,65.5617
-203,540,-2.54187,-61.2912,0,0,0,0,0,0,0,-1,1021,484,-2.54189,61.2912
-196,540,-1.87683,-60.7388,0,0,0,0,0,0,0,-1,1028,484,-1.87686,60.7388
-189,540,-2.04358,-57.9892,0,0,0,0,0,0,0,-1,1035,484,-2.04359,57.9892
-182,540,-0.826782,-43.3494,0,0,0,0,0,0,0,-1,1042,484,-0.826777,43.3494
-175,540,1.73413,-10.728,0,0,0,0,0,0,0,-1,1049,484,1.73414,10.728
-168,540,1.18164,-7.65347,0,0,0,0,0,0,0,-1,1056,484,1.18163,7.65347
-161,540,-0.405884,-9.86481,0,0,0,0,0,0,0,-1,1063,484,-0.405886,9.8648
-154,540,1.96863,-22.0727,0,0,0,0,0,0,0,-1,1070,484,1.96859,22.0727
-147,540,1.32764,-21.9952,0,0,0,0,0,0,0,-1,1077,484,1.32762,21.9952
-140,540,1.40735,-15.6289,0,0,0,0,0,0,0,-1,1084,484,1.4073,15.6289
-133,540,2.28345,-17.6413,0,0,0,0,0,0,0,-1,1091,484,2.2835,17.6413
-126,540,1.25293,-23.9108,0,0,0,0,0,0,0,-1,1098,484,1.25288,23.9108
-119,540,1.55969,-23.0125,0,0,0,0,0,0,0,-1,1105,484,1.55968,23.0125
-112,540,1.4801,-21.6515,0,0,0,0,0,0,0,-1,1112,484,1.4801,21.6515
-105,540,1.30078,-19.8938,0,0,0,0,0,0,0,-1,1119,484,1.30077,19.8938
-98,540,1.08105,-18.1304,0,0,0,0,0,0,0,-1,1126,484,1.08101,18.1304
-91,540,1.56519,-7.48666,0,0,0,0,0,0,0,-1,1133,484,1.56514,7.48667
-84,540,-0.945923,4.43073,0,0,0,0,0,0,0,-1,1140,484,-0.945891,-4.43074
-77,540,-2.28894,2.14368,0,0,0,0,0,0,0,-1,1147,484,-2.28894,-2.14368
-70,540,-3.75244,-0.452576,0,0,0,0,0,0,0,-1,1154,484,-3.75244,0.452576
-63,540,-5.26257,-3.04767,0,0,0,0,0,0,0,-1,1161,484,-5.26262,3.04766
-56,540,-5.19055,-6.12595,0,0,0,0,0,0,0,-1,1168,484,-5.19057,6.12595
-49,540,-5.63867,-8.52298,0,0,0,0,0,0,0,-1,1175,484,-5.63871,8.52298
-42,540,0,0,0,0,0,0,0,0,0,-1,1182,484,0,0
-35,540,0,0,0,0,0,0,0,0,0,-1,1189,484,0,0
-28,540,0,0,0,0,0,0,0,0,0,-1,1196,484,0,0
-21,540,0,0,0,0,0,0,0,0,0,-1,1203,484,0,0
-14,540,0,0,0,0,0,0,0,0,0,-1,1210,484,0,0
-7,540,0,0,0,0,0,0,0,0,0,-1,1217,484,0,0
0,540,0,0,0,0,0,0,0,0,0,-1,1224,484,0,0
7,540,0,0,0,0,0,0,0,0,0,-1,1231,484,0,0
14,540,0,0,0,0,0,0,0,0,0,-1,1238,484,0,0
21,540,0,0,0,0,0,0,0,0,0,-1,1245,484,0,0
28,540,0,0,0,0,0,0,0,0,0,-1,1252,484,0,0
35,540,0,0,0,0,0,0,0,0,0,-1,1259,484,0,0
42,540,0,0,0,0,0,0,0,0,0,-1,1266,484,0,0
49,540,0,0,0,0,0,0,0,0,0,-1,1273,484,0,0
56,540,0,0,0,0,0,0,0,0,0,-1,1280,484,0,0
63,540,0,0,0,0,0,0,0,0,0,-1,1287,484,0,0
70,540,0,0,0,0,0,0,0,0,0,-1,1294,484,0,0
77,540,0,0,0,0,0,0,0,0,0,-1,1301,484,0,0
84,540,0,0,0,0,0,0,0,0,0,-1,1308,484,0,0
91,540,0,0,0,0,0,0,0,0,0,-1,1315,484,0,0
98,540,0,0,0,0,0,0,0,0,0,-1,1322,484,0,0
105,540,0,0,0,0,0,0,0,0,0,-1,1329,484,0,0
112,540,0,0,0,0,0,0,0,0,0,-1,1336,484,0,0
119,540,0,0,0,0,0,0,0,0,0,-1,1343,484,0,0
126,540,0,0,0,0,0,0,0,0,0,-1,1350,484,0,0
133,540,0,0,0,0,0,0,0,0,0,-1,1357,484,0,0
140,540,0,0,0,0,0,0,0,0,0,-1,1364,484,0,0
147,540,0,0,0,0,0,0,0,0,0,-1,1371,484,0,0
154,540,0,0,0,0,0,0,0,0,0,-1,1378,484,0,0
161,540,0,0,0,0,0,0,0,0,0,-1,1385,484,0,0
168,540,3.05078,-0.0010376,0,0,0,0,0,0,0,-1,1392,484,3.05084,0.00102554
175,540,3.37708,0.617035,0,0,0,0,0,0,0,-1,1399,484,3.37707,-0.617046
182,540,3.32678,1.23267,0,0,0,0,0,0,0,-1,1406,484,3.32678,-1.23266
189,540,3.5813,2.15619,0,0,0,0,0,0,0,-1,1413,484,3.58129,-2.1562
196,540,1.84448,-0.801483,0,0,0,0,0,0,0,-1,1420,484,1.84446,0.80148
203,540,4.14648,0.702087,0,0,0,0,0,0,0,-1,1427,484,4.14645,-0.702089
210,540,4.50671,-0.56076,0,0,0,0,0,0,0,-1,1434,484,4.50667,0.560771
217,540,5.00452,-0.278717,0,0,0,0,0,0,0,-1,1441,484,5.00452,0.278709
224,540,6.44458,-2.83527,0,0,0,0,0,0,0,-1,1448,484,6.44457,2.83525
231,540,6.9231,-3.10504,0,0,0,0,0,0,0,-1,1455,484,6.92307,3.10505
238,540,6.4823,-2.58365,0,0,0,0,0,0,0,-1,1462,484,6.48225,2.58363
245,540,6.02087,-1.97916,0,0,0,0,0,0,0,-1,1469,484,6.02088,1.97915
252,540,6.50647,-3.56006,0,0,0,0,0,0,0,-1,1476,484,6.50649,3.56006
259,540,6.01941,-2.798,0,0,0,0,0,0,0,-1,1483,484,6.01941,2.79801
266,540,5.5332,-2.02853,0,0,0,0,0,0,0,-1,1490,484,5.53323,2.02855
273,540,5.06787,-1.28137,0,0,0,0,0,0,0,-1,1497,484,5.06786,1.28136
280,540,1.62903,-2.14609,0,0,0,0,0,0,0,-1,1504,484,1.62906,2.1461
287,540,1.97156,-2.45053,0,0,0,0,0,0,0,-1,1511,484,1.97159,2.45053
294,540,2.44165,-2.6185,0,0,0,0,0,0,0,-1,1518,484,2.44167,2.6185
301,540,4.36169,-2.54272,0,0,0,0,0,0,0,-1,1525,484,4.36165,2.54272
308,540,4.2019,-4.30469,0,0,0,0,0,0,0,-1,1532,484,4.20193,4.3047
315,540,4.45923,-5.32101,0,0,0,0,0,0,0,-1,1539,484,4.45923,5.32103
322,540,4.71655,-6.33737,0,0,0,0,0,0,0,-1,1546,484,4.71653,6.33736
329,540,15.0289,-44.3801,0,0,0,0,0,0,0,-1,1553,484,15.0289,44.3801
336,540,17.1764,-48.0145,0,0,0,0,0,0,0,-1,1560,484,17.1764,48.0145
343,540,17.5421,-50.0817,0,0,0,0,0,0,0,-1,1567,484,17.5421,50.0817
350,540,23.2103,-81.6647,0,0,0,0,0,0,0,-1,1574,484,23.2104,81.6648
357,540,26.0358,-101.872,0,0,0,0,0,0,0,-1,1581,484,26.0358,101.872
364,540,44.8848,-197.71,0,0,0,0,0,0,0,-1,1588,484,44.8847,197.71
371,540,44.8925,-194.151,0,0,0,0,0,0,0,-1,1595,484,44.8925,194.151
378,540,44.9531,-191.031,0.0648464,-0.00119719,-0.0441649,0.0869697,-0.0233204,-0.464386,0.0671176,0.0445742,1602,484,44.9532,191.031
385,540,44.5427,-187.647,0.0600571,0.000628306,-0.0412487,0.0811797,-0.0204943,-0.473265,0.0620891,0.0360274,1609,484,44.5428,187.647
392,540,44.0309,-184.349,0.0548417,0.00193405,-0.0384442,0.0750544,-0.0182787,-0.484048,0.0571126,0.0389427,1616,484,44.0309,184.349
399,540,43.4915,-181.1,0.0505212,0.00336633,-0.0353197,0.0694099,-0.0155224,-0.491093,0.0522222,0.0490635,1623,484,43.4914,181.1
406,540,43.0703,-177.67,0.0470172,0.0048337,-0.032064,0.0643046,-0.0124537,-0.494478,0.0475676,0.0277045,1630,484,43.0703,177.67
413,540,42.4237,-174.026,0.0438203,0.00609988,-0.0287003,0.0593027,-0.00938253,-0.494708,0.0430052,0.027003,1637,484,42.4237,174.026
420,540,41.6146,-170.366,0,0,0,0,0,0,0,-1,1644,484,41.6146,170.366
427,540,41.1217,-166.73,0,0,0,0,0,0,0,-1,1651,484,41.1217,166.73
434,540,40.5861,-163.02,0,0,0,0,0,0,0,-1,1658,484,40.586,163.02
441,540,39.6539,-159.839,0.0331605,0.0107601,-0.0162086,0.0416622,0.00225845,-0.483068,0.0270534,0.0494867,1665,484,39.654,159.839
448,540,38.7539,-155.843,0.0312916,0.0117459,-0.0130392,0.0378138,0.0052236,-0.463809,0.023661,0.0222392,1672,484,38.7539,155.843
455,540,37.8456,-152.01,0.0293851,0.0127191,-0.0099169,0.0340053,0.00809899,-0.435986,0.0205106,0.0168095,1679,484,37.8456,152.01
462,540,36.8147,-148.168,0.0273011,0.0141986,-0.00661321,0.0300586,0.0114411,-0.395052,0.0175184,0.0258264,1686,484,36.8147,148.168
469,540,35.2599,-143.963,0,0,0,0,0,0,0,-1,1693,484,35.2599,143.963
476,540,34.2675,-139.358,0,0,0,0,0,0,0,-1,1700,484,34.2675,139.358
483,540,20.5968,-86.2985,0,0,0,0,0,0,0,-1,1707,484,20.5968,86.2985
490,540,19.4117,-44.4761,0,0,0,0,0,0,0,-1,1714,484,19.4117,44.4761
497,540,10.3452,-16.9359,0,0,0,0,0,0,0,-1,1721,484,10.3453,16.9359
504,540,12.519,-18.0764,0,0,0,0,0,0,0,-1,1728,484,12.519,18.0765
511,540,5.82471,-6.83521,0,0,0,0,0,0,0,-1,1735,484,5.82465,6.83522
518,540,9.98181,-12.4608,0,0,0,0,0,0,0,-1,1742,484,9.98187,12.4608
525,540,12.4843,-16.3481,0,0,0,0,0,0,0,-1,1749,484,12.4842,16.3481
532,540,2.84265,-1.07925,0,0,0,0,0,0,0,-1,1756,484,2.84269,1.07927
539,540,0,0,0,0,0,0,0,0,0,-1,1763,484,0,0
546,540,0,0,0,0,0,0,0,0,0,-1,1770,484,0,0
553,540,0,0,0,0,0,0,0,0,0,-1,1777,484,0,0
560,540,0,0,0,0,0,0,0,0,0,-1,1784,484,0,0
567,540,0,0,0,0,0,0,0,0,0,-1,1791,484,0,0
574,540,0,0,0,0,0,0,0,0,0,-1,1798,484,0,0
581,540,0,0,0,0,0,0,0,0,0,-1,1805,484,0,0
588,540,0,0,0,0,0,0,0,0,0,-1,1812,484,0,0
595,540,0,0,0,0,0,0,0,0,0,-1,1819,484,0,0
602,540,0,0,0,0,0,0,0,0,0,-1,1826,484,0,0
609,540,0,0,0,0,0,0,0,0,0,-1,1833,484,0,0
616,540,0,0,0,0,0,0,0,0,0,-1,1840,484,0,0
623,540,0,0,0,0,0,0,0,0,0,-1,1847,484,0,0
630,540,0,0,0,0,0,0,0,0,0,-1,1854,484,0,0
637,540,0,0,0,0,0,0,0,0,0,-1,1861,484,0,0
644,540,0,0,0,0,0,0,0,0,0,-1,1868,484,0,0
651,540,0,0,0,0,0,0,0,0,0,-1,1875,484,0,0
658,540,0,0,0,0,0,0,0,0,0,-1,1882,484,0,0
665,540,0,0,0,0,0,0,0,0,0,-1,1889,484,0,0
672,540,0,0,0,0,0,0,0,0,0,-1,1896,484,0,0
679,540,0,0,0,0,0,0,0,0,0,-1,1903,484,0,0
686,540,0,0,0,0,0,0,0,0,0,-1,1910,484,0,0
693,540,0,0,0,0,0,0,0,0,0,-1,1917,484,0,0
700,540,0,0,0,0,0,0,0,0,0,-1,1924,484,0,0
707,540,0,0,0,0,0,0,0,0,0,-1,1931,484,0,0
714,540,0,0,0,0,0,0,0,0,0,-1,1938,484,0,0
721,540,0,0,0,0,0,0,0,0,0,-1,1945,484,0,0
728,540,0,0,0,0,0,0,0,0,0,-1,1952,484,0,0
735,540,0,0,0,0,0,0,0,0,0,-1,1959,484,0,0
742,540,0,0,0,0,0,0,0,0,0,-1,1966,484,0,0
749,540,0,0,0,0,0,0,0,0,0,-1,1973,484,0,0
756,540,0,0,0,0,0,0,0,0,0,-1,1980,484,0,0
763,540,0,0,0,0,0,0,0,0,0,-1,1987,484,0,0
770,540,0,0,0,0,0,0,0,0,0,-1,1994,484,0,0
777,540,0,0,0,0,0,0,0,0,0,-1,2001,484,0,0
784,540,0,0,0,0,0,0,0,0,0,-1,2008,484,0,0
791,540,0,0,0,0,0,0,0,0,0,-1,2015,484,0,0
798,540,0,0,0,0,0,0,0,0,0,-1,2022,484,0,0
805,540,0,0,0,0,0,0,0,0,0,-1,2029,484,0,0
812,540,0,0,0,0,0,0,0,0,0,-1,2036,484,0,0
-700,533,0,0,0,0,0,0,0,0,0,-1,524,491,0,0
-693,533,0,0,0,0,0,0,0,0,0,-1,531,491,0,0
-686,533,0,0,0,0,0,0,0,0,0,-1,538,491,0,0
-679,533,0,0,0,0,0,0,0,0,0,-1,545,491,0,0
-672,533,0,0,0,0,0,0,0,0,0,-1,552,491,0,0
-665,533,0,0,0,0,0,0,0,0,0,-1,559,491,0,0
-658,533,0,0,0,0,0,0,0,0,0,-1,566,491,0,0
-651,533,0,0,0,0,0,0,0,0,0,-1,573,491,0,0
-644,533,0,0,0,0,0,0,0,0,0,-1,580,491,0,0
-637,533,0,0,0,0,0,0,0,0,0,-1,587,491,0,0
-630,533,0,0,0,0,0,0,0,0,0,-1,594,491,0,0
-623,533,0,0,0,0,0,0,0,0,0,-1,601,491,0,0
-616,533,0,0,0,0,0,0,0,0,0,-1,608,491,0,0
-609,533,0,0,0,0,0,0,0,0,0,-1,615,491,0,0
-602,533,0,0,0,0,0,0,0,0,0,-1,622,491,0,0
-595,533,0,0,0,0,0,0,0,0,0,-1,629,491,0,0
-588,533,0,0,0,0,0,0,0,0,0,-1,636,491,0,0
-581,533,0,0,0,0,0,0,0,0,0,-1,643,491,0,0
-574,533,0,0,0,0,0,0,0,0,0,-1,650,491,0,0
-567,533,0,0,0,0,0,0,0,0,0,-1,657,491,0,0
-560,533,0,0,0,0,0,0,0,0,0,-1,664,491,0,0
-553,533,0,0,0,0,0,0,0,0,0,-1,671,491,0,0
-546,533,0,0,0,0,0,0,0,0,0,-1,678,491,0,0
-539,533,0,0,0,0,0,0,0,0,0,-1,685,491,0,0
-532,533,0,0,0,0,0,0,0,0,0,-1,692,491,0,0
-525,533,0,0,0,0,0,0,0,0,0,-1,699,491,0,0
-518,533,0,0,0,0,0,0,0,0,0,-1,706,491,0,0
-511,533,0,0,0,0,0,0,0,0,0,-1,713,491,0,0
-504,533,0,0,0,0,0,0,0,0,0,-1,720,491,0,0
-497,533,0,0,0,0,0,0,0,0,0,-1,727,491,0,0
-490,533,0,0,0,0,0,0,0,0,0,-1,734,491,0,0
-483,533,0,0,0,0,0,0,0,0,0,-1,741,491,0,0
-476,533,0,0,0,0,0,0,0,0,0,-1,748,491,0,0
-469,533,0,0,0,0,0,0,0,0,0,-1,755,491,0,0
-462,533,0,0,0,0,0,0,0,0,0,-1,762,491,0,0
-455,533,0,0,0,0,0,0,0,0,0,-1,769,491,0,0
-448,533,0,0,0,0,0,0,0,0,0,-1,776,491,0,0
-441,533,0,0,0,0,0,0,0,0,0,-1,783,491,0,0
-434,533,0,0,0,0,0,0,0,0,0,-1,790,491,0,0
-427,533,0.559814,-4.40222,0,0,0,0,0,0,0,-1,797,491,0.559816,4.40222
-420,533,-1.11127,-10.9054,0,0,0,0,0,0,0,-1,804,491,-1.11124,10.9054
-413,533,-0.704773,-11.0942,0,0,0,0,0,0,0,-1,811,491,-0.704742,11.0942
-406,533,-0.670898,-12.0899,0,0,0,0,0,0,0,-1,818,491,-0.670908,12.0899
-399,533,-0.455017,-12.4423,0,0,0,0,0,0,0,-1,825,491,-0.455032,12.4423
-392,533,-1.89661,-10.3905,0,0,0,0,0,0,0,-1,832,491,-1.89661,10.3905
-385,533,0.797729,-17.0485,0,0,0,0,0,0,0,-1,839,491,0.797746,17.0485
-378,533,-1.89435,-19.6771,0,0,0,0,0,0,0,-1,846,491,-1.89433,19.6771
-371,533,-1.10254,-31.3197,0,0,0,0,0,0,0,-1,853,491,-1.10254,31.3197
-364,533,-10.5637,-92.7236,0,0,0,0,0,0,0,-1,860,491,-10.5636,92.7237
-357,533,-13.6718,-128.381,0,0,0,0,0,0,0,-1,867,491,-13.6718,128.381
-350,533,-26.5331,-137.313,0,0,0,0,0,0,0,-1,874,491,-26.5331,137.313
-343,533,-27.9683,-141.687,0,0,0,0,0,0,0,-1,881,491,-27.9683,141.687
-336,533,-29.236,-145.828,0.0246306,0.00683062,0.00961263,0.0288307,0.00263051,0.411937,0.0184064,0.0423926,888,491,-29.236,145.828
-329,533,-30.2029,-149.827,0.0268845,0.00530113,0.0137105,0.033541,-0.00135537,0.451983,0.0228258,0.0235345,895,491,-30.2029,149.827
-322,533,-31.2228,-153.653,0.0291164,0.00372755,0.0181061,0.0385348,-0.00569088,0.479661,0.0277818,0.0198207,902,491,-31.2229,153.653
-315,533,-32.1866,-157.604,0.0315625,0.00190095,0.0226974,0.0438449,-0.0103815,0.496013,0.0332354,0.0286404,909,491,-32.1866,157.604
-308,533,-32.9781,-161.494,0.034294,-0.000116884,0.0274028,0.049445,-0.0152679,0.505067,0.0390603,0.0250107,916,491,-32.9781,161.494
-301,533,-33.8043,-164.995,0.0374438,-0.00267165,0.0320949,0.055233,-0.0204609,0.506116,0.0452129,0.0186318,923,491,-33.8043,164.995
-294,533,-34.5457,-168.69,0.0408839,-0.00553412,0.0364331,0.0608725,-0.0255227,0.501796,0.0512531,0.0201897,930,491,-34.5457,168.69
-287,533,-35.0654,-172.418,0.0443865,-0.00833128,0.0403083,0.0661893,-0.0301341,0.495831,0.0568962,0.0199607,937,491,-35.0654,172.418
-280,533,-35.6195,-175.979,0.0478072,-0.0109046,0.0436206,0.07103,-0.0341275,0.489217,0.0619463,0.0177259,944,491,-35.6195,175.979
-273,533,-36.1292,-179.271,0.0516013,-0.0135544,0.0462632,0.0756061,-0.0375592,0.478633,0.0665555,0.0218778,951,491,-36.1292,179.271
-266,533,-36.6155,-182.573,0.0557213,-0.0153506,0.047897,0.0798253,-0.0394547,0.466242,0.0701688,0.0289918,958,491,-36.6155,182.573
-259,533,-36.7413,-185.999,0,0,0,0,0,0,0,-1,965,491,-36.7412,185.999
-252,533,-36.6812,-188.926,0,0,0,0,0,0,0,-1,972,491,-36.6812,188.926
-245,533,-36.4008,-191.7,0,0,0,0,0,0,0,-1,979,491,-36.4008,191.7
-238,533,-37.0947,-195.194,0,0,0,0,0,0,0,-1,986,491,-37.0947,195.194
-231,533,-23.6509,-156.913,0,0,0,0,0,0,0,-1,993,491,-23.6509,156.913
-224,533,-5.08032,-67.3872,0,0,0,0,0,0,0,-1,1000,491,-5.08035,67.3872
-217,533,-3.58942,-61.3351,0,0,0,0,0,0,0,-1,1007,491,-3.58944,61.3351
-210,533,-2.8175,-58.3744,0,0,0,0,0,0,0,-1,1014,491,-2.81753,58.3744
-203,533,-2.78027,-57.4929,0,0,0,0,0,0,0,-1,1021,491,-2.78027,57.4928
-196,533,-2.47253,-52.2668,0,0,0,0,0,0,0,-1,1028,491,-2.47251,52.2669
-189,533,-1.75317,-43.4744,0,0,0,0,0,0,0,-1,1035,491,-1.75312,43.4744
-182,533,1.26123,-11.4969,0,0,0,0,0,0,0,-1,1042,491,1.26128,11.4969
-175,533,0.937744,-7.36966,0,0,0,0,0,0,0,-1,1049,491,0.937769,7.36965
-168,533,2.64807,-2.7543,0,0,0,0,0,0,0,-1,1056,491,2.64812,2.7543
-161,533,1.91833,-1.76553,0,0,0,0,0,0,0,-1,1063,491,1.91836,1.76554
-154,533,0.376709,-11.0633,0,0,0,0,0,0,0,-1,1070,491,0.376715,11.0632
-147,533,0.383789,-12.1586,0,0,0,0,0,0,0,-1,1077,491,0.383829,12.1586
-140,533,1.14001,-15.4608,0,0,0,0,0,0,0,-1,1084,491,1.14005,15.4608
-133,533,0.189941,-16.0795,0,0,0,0,0,0,0,-1,1091,491,0.18994,16.0795
-126,533,2.89612,-2.59003,0,0,0,0,0,0,0,-1,1098,491,2.89608,2.59003
-119,533,1.78284,-22.5394,0,0,0,0,0,0,0,-1,1105,491,1.78279,22.5394
-112,533,1.83862,-21.2401,0,0,0,0,0,0,0,-1,1112,491,1.83859,21.24
-105,533,1.67554,-19.4018,0,0,0,0,0,0,0,-1,1119,491,1.6755,19.4018
-98,533,-1.39392,-5.16367,0,0,0,0,0,0,0,-1,1126,491,-1.39394,5.16367
-91,533,0.367432,4.49753,0,0,0,0,0,0,0,-1,1133,491,0.367468,-4.49754
-84,533,-0.88623,3.03604,0,0,0,0,0,0,0,-1,1140,491,-0.886288,-3.03605
-77,533,0,0,0,0,0,0,0,0,0,-1,1147,491,0,0
-70,533,0,0,0,0,0,0,0,0,0,-1,1154,491,0,0
-63,533,0,0,0,0,0,0,0,0,0,-1,1161,491,0,0
-56,533,0,0,0,0,0,0,0,0,0,-1,1168,491,0,0
-49,533,0,0,0,0,0,0,0,0,0,-1,1175,491,0,0
-42,533,0,0,0,0,0,0,0,0,0,-1,1182,491,0,0
-35,533,0,0,0,0,0,0,0,0,0,-1,1189,491,0,0
-28,533,0,0,0,0,0,0,0,0,0,-1,1196,491,0,0
-21,533,0,0,0,0,0,0,0,0,0,-1,1203,491,0,0
-14,533,0,0,0,0,0,0,0,0,0,-1,1210,491,0,0
-7,533,0,0,0,0,0,0,0,0,0,-1,1217,491,0,0
0,533,0,0,0,0,0,0,0,0,0,-1,1224,491,0,0
7,533,0,0,0,0,0,0,0,0,0,-1,1231,491,0,0
14,533,0,0,0,0,0,0,0,0,0,-1,1238,491,0,0
21,533,0,0,0,0,0,0,0,0,0,-1,1245,491,0,0
28,533,0,0,0,0,0,0,0,0,0,-1,1252,491,0,0
35,533,0,0,0,0,0,0,0,0,0,-1,1259,491,0,0
42,533,0,0,0,0,0,0,0,0,0,-1,1266,491,0,0
49,533,0,0,0,0,0,0,0,0,0,-1,1273,491,0,0
56,533,0,0,0,0,0,0,0,0,0,-1,1280,491,0,0
63,533,0,0,0,0,0,0,0,0,0,-1,1287,491,0,0
70,533,0,0,0,0,0,0,0,0,0,-1,1294,491,0,0
77,533,0,0,0,0,0,0,0,0,0,-1,1301,491,0,0
84,533,0,0,0,0,0,0,0,0,0,-1,1308,491,0,0
91,533,0,0,0,0,0,0,0,0,0,-1,1315,491,0,0
98,533,0,0,0,0,0,0,0,0,0,-1,1322,491,0,0
105,533,0,0,0,0,0,0,0,0,0,-1,1329,491,0,0
112,533,0,0,0,0,0,0,0,0,0,-1,1336,491,0,0
119,533,0,0,0,0,0,0,0,0,0,-1,1343,491,0,0
126,533,0,0,0,0,0,0,0,0,0,-1,1350,491,0,0
133,533,0,0,0,0,0,0,0,0,0,-1,1357,491,0,0
140,533,0,0,0,0,0,0,0,0,0,-1,1364,491,0,0
147,533,0,0,0,0,0,0,0,0,0,-1,1371,491,0,0
154,533,0,0,0,0,0,0,0,0,0,-1,1378,491,0,0
161,533,0,0,0,0,0,0,0,0,0,-1,1385,491,0,0
168,533,0,0,0,0,0,0,0,0,0,-1,1392,491,0,0
175,533,0,0,0,0,0,0,0,0,0,-1,1399,491,0,0
182,533,0,0,0,0,0,0,0,0,0,-1,1406,491,0,0
189,533,0,0,0,0,0,0,0,0,0,-1,1413,491,0,0
196,533,0,0,0,0,0,0,0,0,0,-1,1420,491,0,0
203,533,3.7887,1.16193,0,0,0,0,0,0,0,-1,1427,491,3.78872,-1.16193
210,533,5.09558,-0.216034,0,0,0,0,0,0,0,-1,1434,491,5.09559,0.216028
217,533,6.91614,-2.46814,0,0,0,0,0,0,0,-1,1441,491,6.91618,2.46814
224,533,7.23621,-2.1857,0,0,0,0,0,0,0,-1,1448,491,7.23621,2.1857
231,533,7.23474,-1.92282,0,0,0,0,0,0,0,-1,1455,491,7.2347,1.92282
238,533,7.23535,-1.67258,0,0,0,0,0,0,0,-1,1462,491,7.23539,1.67258
245,533,6.86682,-1.2301,0,0,0,0,0,0,0,-1,1469,491,6.86686,1.23011
252,533,6.63354,-3.07825,0,0,0,0,0,0,0,-1,1476,491,6.6335,3.07824
259,533,6.16431,-2.35037,0,0,0,0,0,0,0,-1,1483,491,6.1643,2.35037
266,533,5.68884,-1.6214,0,0,0,0,0,0,0,-1,1490,491,5.68885,1.6214
273,533,5.21399,-0.864227,0,0,0,0,0,0,0,-1,1497,491,5.21403,0.864227
280,533,1.41089,-1.97946,0,0,0,0,0,0,0,-1,1504,491,1.41087,1.97946
287,533,1.6814,-2.44443,0,0,0,0,0,0,0,-1,1511,491,1.6814,2.44444
294,533,2.2384,-2.57626,0,0,0,0,0,0,0,-1,1518,491,2.23839,2.57625
301,533,3.39941,-4.0817,0,0,0,0,0,0,0,-1,1525,491,3.3994,4.08171
308,533,4.13733,-4.14752,0,0,0,0,0,0,0,-1,1532,491,4.13727,4.14752
315,533,4.80762,-5.29349,0,0,0,0,0,0,0,-1,1539,491,4.80762,5.29347
322,533,5.47803,-6.43942,0,0,0,0,0,0,0,-1,1546,491,5.47798,6.43943
329,533,3.88477,-3.86301,0,0,0,0,0,0,0,-1,1553,491,3.88475,3.86299
336,533,14.5214,-40.908,0,0,0,0,0,0,0,-1,1560,491,14.5214,40.908
343,533,16.3387,-44.9998,0,0,0,0,0,0,0,-1,1567,491,16.3387,44.9998
350,533,17.6749,-47.6289,0,0,0,0,0,0,0,-1,1574,491,17.6749,47.6289
357,533,20.983,-56.1171,0,0,0,0,0,0,0,-1,1581,491,20.983,56.1171
364,533,25.2891,-83.5117,0,0,0,0,0,0,0,-1,1588,491,25.289,83.5117
371,533,27.5264,-99.8054,0,0,0,0,0,0,0,-1,1595,491,27.5263,99.8054
378,533,48.6675,-190.04,0,0,0,0,0,0,0,-1,1602,491,48.6675,190.04
385,533,48.2938,-186.743,0,0,0,0,0,0,0,-1,1609,491,48.2938,186.743
392,533,47.6011,-183.696,0,0,0,0,0,0,0,-1,1616,491,47.6011,183.696
399,533,47.1809,-180.138,0.055814,0.00171907,-0.0408273,0.0777404,-0.0202073,-0.492847,0.0597135,0.0291979,1623,491,47.1809,180.138
406,533,46.8004,-176.614,0.0519784,0.00310123,-0.0376042,0.0723875,-0.0173079,-0.497249,0.054944,0.025418,1630,491,46.8004,176.614
413,533,46.1592,-173.176,0.0484919,0.0043952,-0.0341666,0.0671066,-0.0142195,-0.498859,0.0501541,0.0301004,1637,491,46.1592,173.176
420,533,45.214,-169.746,0,0,0,0,0,0,0,-1,1644,491,45.214,169.746
427,533,45.2324,-165.811,0,0,0,0,0,0,0,-1,1651,491,45.2324,165.811
434,533,44.6926,-162.221,0.0387946,0.00756889,-0.0247421,0.0524381,-0.00607457,-0.503938,0.0371495,0.0302967,1658,491,44.6926,162.221
441,533,43.8431,-158.368,0.0362849,0.0087032,-0.0216058,0.048126,-0.0031379,-0.501347,0.0331794,0.0244976,1665,491,43.8431,158.368
448,533,42.8527,-154.453,0.034209,0.0098254,-0.0183105,0.0440153,1.91294e-05,-0.491685,0.0293371,0.0222242,1672,491,42.8526,154.453
455,533,41.8833,-150.615,0.0321004,0.0109351,-0.0149842,0.0398622,0.00317327,-0.477942,0.0255828,0.0205058,1679,491,41.8833,150.615
462,533,40.9458,-146.774,0.0300592,0.0123228,-0.0114789,0.0356965,0.00668546,-0.456505,0.0219118,0.0236627,1686,491,40.9458,146.774
469,533,39.7373,-142.671,0.0286412,0.0139503,-0.00765428,0.0319044,0.0106871,-0.402991,0.0187515,0.0178237,1693,491,39.7373,142.671
476,533,38.5922,-138.274,0.0276267,0.0157492,-0.00359697,0.0286311,0.0147448,-0.272291,0.0165326,0.0367179,1700,491,38.5921,138.274
483,533,37.4283,-133.791,0,0,0,0,0,0,0,-1,1707,491,37.4284,133.791
490,533,22.6746,-83.02,0,0,0,0,0,0,0,-1,1714,491,22.6745,83.02
497,533,20.9993,-43.9825,0,0,0,0,0,0,0,-1,1721,491,20.9992,43.9825
504,533,20.9569,-42.8138,0,0,0,0,0,0,0,-1,1728,491,20.9569,42.8139
511,533,13.6221,-19.2798,0,0,0,0,0,0,0,-1,1735,491,13.6221,19.2798
518,533,14.1954,-19.4995,0,0,0,0,0,0,0,-1,1742,491,14.1955,19.4995
525,533,13.7935,-19.6901,0,0,0,0,0,0,0,-1,1749,491,13.7934,19.6901
532,533,15.4377,-17.9016,0,0,0,0,0,0,0,-1,1756,491,15.4377,17.9015
539,533,12.8733,-18.2556,0,0,0,0,0,0,0,-1,1763,491,12.8733,18.2556
546,533,3.59607,1.65799,0,0,0,0,0,0,0,-1,1770,491,3.59605,-1.658
553,533,0,0,0,0,0,0,0,0,0,-1,1777,491,0,0
560,533,0,0,0,0,0,0,0,0,0,-1,1784,491,0,0
567,533,0,0,0,0,0,0,0,0,0,-1,1791,491,0,0
574,533,0,0,0,0,0,0,0,0,0,-1,1798,491,0,0
581,533,0,0,0,0,0,0,0,0,0,-1,1805,491,0,0
588,533,0,0,0,0,0,0,0,0,0,-1,1812,491,0,0
595,533,0,0,0,0,0,0,0,0,0,-1,1819,491,0,0
602,533,0,0,0,0,0,0,0,0,0,-1,1826,491,0,0
609,533,0,0,0,0,0,0,0,0,0,-1,1833,491,0,0
616,533,0,0,0,0,0,0,0,0,0,-1,1840,491,0,0
623,533,0,0,0,0,0,0,0,0,0,-1,1847,491,0,0
630,533,0,0,0,0,0,0,0,0,0,-1,1854,491,0,0
637,533,0,0,0,0,0,0,0,0,0,-1,1861,491,0,0
644,533,0,0,0,0,0,0,0,0,0,-1,1868,491,0,0
651,533,0,0,0,0,0,0,0,0,0,-1,1875,491,0,0
658,533,0,0,0,0,0,0,0,0,0,-1,1882,491,0,0
665,533,0,0,0,0,0,0,0,0,0,-1,1889,491,0,0
672,533,0,0,0,0,0,0,0,0,0,-1,1896,491,0,0
679,533,0,0,0,0,0,0,0,0,0,-1,1903,491,0,0
686,533,0,0,0,0,0,0,0,0,0,-1,1910,491,0,0
693,533,0,0,0,0,0,0,0,0,0,-1,1917,491,0,0
700,533,0,0,0,0,0,0,0,0,0,-1,1924,491,0,0
707,533,0,0,0,0,0,0,0,0,0,-1,1931,491,0,0
714,533,0,0,0,0,0,0,0,0,0,-1,1938,491,0,0
721,533,0,0,0,0,0,0,0,0,0,-1,1945,491,0,0
728,533,0,0,0,0,0,0,0,0,0,-1,1952,491,0,0
735,533,0,0,0,0,0,0,0,0,0,-1,1959,491,0,0
742,533,0,0,0,0,0,0,0,0,0,-1,1966,491,0,0
749,533,0,0,0,0,0,0,0,0,0,-1,1973,491,0,0
756,533,0,0,0,0,0,0,0,0,0,-1,1980,491,0,0
763,533,0,0,0,0,0,0,0,0,0,-1,1987,491,0,0
770,533,0,0,0,0,0,0,0,0,0,-1,1994,491,0,0
777,533,0,0,0,0,0,0,0,0,0,-1,2001,491,0,0
784,533,0,0,0,0,0,0,0,0,0,-1,2008,491,0,0
791,533,0,0,0,0,0,0,0,0,0,-1,2015,491,0,0
798,533,0,0,0,0,0,0,0,0,0,-1,2022,491,0,0
805,533,0,0,0,0,0,0,0,0,0,-1,2029,491,0,0
812,533,0,0,0,0,0,0,0,0,0,-1,2036,491,0,0
-700,526,0,0,0,0,0,0,0,0,0,-1,524,498,0,0
-693,526,0,0,0,0,0,0,0,0,0,-1,531,498,0,0
-686,526,0,0,0,0,0,0,0,0,0,-1,538,498,0,0
-679,526,0,0,0,0,0,0,0,0,0,-1,545,498,0,0
-672,526,0,0,0,0,0,0,0,0,0,-1,552,498,0,0
-665,526,0,0,0,0,0,0,0,0,0,-1,559,498,0,0
-658,526,0,0,0,0,0,0,0,0,0,-1,566,498,0,0
-651,526,0,0,0,0,0,0,0,0,0,-1,573,498,0,0
-644,526,0,0,0,0,0,0,0,0,0,-1,580,498,0,0
-637,526,0,0,0,0,0,0,0,0,0,-1,587,498,0,0
-630,526,0,0,0,0,0,0,0,0,0,-1,594,498,0,0
-623,526,0,0,0,0,0,0,0,0,0,-1,601,498,0,0
-616,526,0,0,0,0,0,0,0,0,0,-1,608,498,0,0
-609,526,0,0,0,0,0,0,0,0,0,-1,615,498,0,0
-602,526,0,0,0,0,0,0,0,0,0,-1,622,498,0,0
-595,526,0,0,0,0,0,0,0,0,0,-1,629,498,0,0
-588,526,0,0,0,0,0,0,0,0,0,-1,636,498,0,0
-581,526,0,0,0,0,0,0,0,0,0,-1,643,498,0,0
-574,526,0,0,0,0,0,0,0,0,0,-1,650,498,0,0
-567,526,0,0,0,0,0,0,0,0,0,-1,657,498,0,0
-560,526,0,0,0,0,0,0,0,0,0,-1,664,498,0,0
-553,526,0,0,0,0,0,0,0,0,0,-1,671,498,0,0
-546,526,0,0,0,0,0,0,0,0,0,-1,678,498,0,0
-539,526,0,0,0,0,0,0,0,0,0,-1,685,498,0,0
-532,526,0,0,0,0,0,0,0,0,0,-1,692,498,0,0
-525,526,0,0,0,0,0,0,0,0,0,-1,699,498,0,0
-518,526,0,0,0,0,0,0,0,0,0,-1,706,498,0,0
-511,526,0,0,0,0,0,0,0,0,0,-1,713,498,0,0
-504,526,0,0,0,0,0,0,0,0,0,-1,720,498,0,0
-497,526,0,0,0,0,0,0,0,0,0,-1,727,498,0,0
-490,526,0,0,0,0,0,0,0,0,0,-1,734,498,0,0
-483,526,0,0,0,0,0,0,0,0,0,-1,741,498,0,0
-476,526,0,0,0,0,0,0,0,0,0,-1,748,498,0,0
-469,526,0,0,0,0,0,0,0,0,0,-1,755,498,0,0
-462,526,0,0,0,0,0,0,0,0,0,-1,762,498,0,0
-455,526,0,0,0,0,0,0,0,0,0,-1,769,498,0,0
-448,526,0,0,0,0,0,0,0,0,0,-1,776,498,0,0
-441,526,0,0,0,0,0,0,0,0,0,-1,783,498,0,0
-434,526,-0.153564,-5.96649,0,0,0,0,0,0,0,-1,790,498,-0.153589,5.9665
-427,526,1.23206,-4.59808,0,0,0,0,0,0,0,-1,797,498,1.23208,4.59809
-420,526,-1.76373,-11.6241,0,0,0,0,0,0,0,-1,804,498,-1.76373,11.6241
-413,526,-1.38965,-11.7916,0,0,0,0,0,0,0,-1,811,498,-1.38963,11.7916
-406,526,-1.35187,-12.5182,0,0,0,0,0,0,0,-1,818,498,-1.35185,12.5181
-399,526,-1.32715,-13.2116,0,0,0,0,0,0,0,-1,825,498,-1.32713,13.2116
-392,526,0.197571,-15.303,0,0,0,0,0,0,0,-1,832,498,0.197598,15.303
-385,526,-2.69397,-19.6176,0,0,0,0,0,0,0,-1,839,498,-2.69399,19.6176
-378,526,-2.67041,-33.2585,0,0,0,0,0,0,0,-1,846,498,-2.67042,33.2585
-371,526,-12.8555,-82.679,0,0,0,0,0,0,0,-1,853,498,-12.8555,82.6789
-364,526,-16.8508,-122.91,0,0,0,0,0,0,0,-1,860,498,-16.8508,122.91
-357,526,-29.7141,-131.718,0,0,0,0,0,0,0,-1,867,498,-29.7141,131.718
-350,526,-30.9249,-136.103,0.0227961,0.00608093,0.0091741,0.0268487,0.00202831,0.415969,0.0172628,0.0322126,874,498,-30.9249,136.103
-343,526,-32.191,-140.258,0.0251492,0.00467644,0.0126321,0.0311718,-0.00134609,0.444888,0.0212441,0.0279616,881,498,-32.191,140.258
-336,526,-33.2568,-144.348,0.0278073,0.00364688,0.0162305,0.0359597,-0.0045056,0.46548,0.0256075,0.0243455,888,498,-33.2568,144.348
-329,526,-34.2684,-148.419,0.0302721,0.00206174,0.0205083,0.0410576,-0.00872379,0.48416,0.0306957,0.0229557,895,498,-34.2684,148.419
-322,526,-35.3435,-152.357,0.0327452,0.000346642,0.0250779,0.0464008,-0.013309,0.498634,0.0361952,0.0231147,902,498,-35.3435,152.357
-315,526,-36.1888,-156.485,0.0352578,-0.0015579,0.0298835,0.051948,-0.0182481,0.509352,0.0420557,0.0293516,909,498,-36.1888,156.485
-308,526,-36.9266,-160.633,0.0380804,-0.00371995,0.0348553,0.0578214,-0.023461,0.515325,0.0483059,0.0266629,916,498,-36.9266,160.633
-301,526,-37.7161,-164.017,0.0414774,-0.00640517,0.0397823,0.0639668,-0.0288946,0.514525,0.0548734,0.0200363,923,498,-37.7161,164.017
-294,526,-38.4459,-167.463,0.0450464,-0.00934102,0.0443719,0.0698946,-0.0341892,0.510488,0.0612601,0.0162409,930,498,-38.4459,167.463
-287,526,-39.0919,-171.065,0.0486404,-0.0122407,0.0485845,0.075533,-0.0391332,0.505542,0.0673053,0.0193622,937,498,-39.0919,171.065
-280,526,-39.5656,-174.579,0.0523668,-0.0149651,0.0520292,0.0806721,-0.0432704,0.498246,0.0726362,0.0282842,944,498,-39.5656,174.579
-273,526,-39.7792,-178.081,0.0564522,-0.0177903,0.0546806,0.0854214,-0.0467595,0.487195,0.0773952,0.0237507,951,498,-39.7792,178.081
-266,526,-40.5408,-181.5,0,0,0,0,0,0,0,-1,958,498,-40.5408,181.5
-259,526,-35.0405,-183.592,0,0,0,0,0,0,0,-1,965,498,-35.0405,183.592
-252,526,-20.0807,-125.473,0,0,0,0,0,0,0,-1,972,498,-20.0808,125.473
-245,526,-12.1247,-91.3829,0,0,0,0,0,0,0,-1,979,498,-12.1247,91.3829
-238,526,-5.37366,-62.8764,0,0,0,0,0,0,0,-1,986,498,-5.37368,62.8764
-231,526,-3.13611,-55.2932,0,0,0,0,0,0,0,-1,993,498,-3.13609,55.2932
-224,526,-2.755,-53.1861,0,0,0,0,0,0,0,-1,1000,498,-2.75499,53.1861
-217,526,-2.39459,-50.3551,0,0,0,0,0,0,0,-1,1007,498,-2.39458,50.3551
-210,526,-1.77289,-44.7313,0,0,0,0,0,0,0,-1,1014,498,-1.77289,44.7313
-203,526,-0.659302,-18.8818,0,0,0,0,0,0,0,-1,1021,498,-0.659273,18.8818
-196,526,-0.328247,-12.179,0,0,0,0,0,0,0,-1,1028,498,-0.328238,12.179
-189,526,0.401245,-5.96826,0,0,0,0,0,0,0,-1,1035,498,0.401197,5.96826
-182,526,1.7323,-2.99405,0,0,0,0,0,0,0,-1,1042,498,1.73226,2.99404
-175,526,2.27637,-2.07983,0,0,0,0,0,0,0,-1,1049,498,2.27639,2.07984
-168,526,2.12036,-1.66049,0,0,0,0,0,0,0,-1,1056,498,2.12035,1.66048
-161,526,2.09082,-1.20572,0,0,0,0,0,0,0,-1,1063,498,2.09086,1.2057
-154,526,-1.3446,-5.37799,0,0,0,0,0,0,0,-1,1070,498,-1.34457,5.37799
-147,526,-0.472656,-6.64996,0,0,0,0,0,0,0,-1,1077,498,-0.472659,6.64997
-140,526,0.422852,-8.03339,0,0,0,0,0,0,0,-1,1084,498,0.422844,8.0334
-133,526,1.09583,-9.2215,0,0,0,0,0,0,0,-1,1091,498,1.09581,9.2215
-126,526,3.42529,-2.36053,0,0,0,0,0,0,0,-1,1098,498,3.42523,2.36052
-119,526,2.7771,-0.764099,0,0,0,0,0,0,0,-1,1105,498,2.7771,0.764107
-112,526,2.57715,-1.1893,0,0,0,0,0,0,0,-1,1112,498,2.57718,1.1893
-105,526,0,0,0,0,0,0,0,0,0,-1,1119,498,0,0
-98,526,0,0,0,0,0,0,0,0,0,-1,1126,498,0,0
-91,526,0,0,0,0,0,0,0,0,0,-1,1133,498,0,0
-84,526,0,0,0,0,0,0,0,0,0,-1,1140,498,0,0
-77,526,0,0,0,0,0,0,0,0,0,-1,1147,498,0,0
-70,526,0,0,0,0,0,0,0,0,0,-1,1154,498,0,0
-63,526,0,0,0,0,0,0,0,0,0,-1,1161,498,0,0
-56,526,0,0,0,0,0,0,0,0,0,-1,1168,498,0,0
-49,526,0,0,0,0,0,0,0,0,0,-1,1175,498,0,0
-42,526,0,0,0,0,0,0,0,0,0,-1,1182,498,0,0
-35,526,0,0,0,0,0,0,0,0,0,-1,1189,498,0,0
-28,526,0,0,0,0,0,0,0,0,0,-1,1196,498,0,0
-21,526,0,0,0,0,0,0,0,0,0,-1,1203,498,0,0
-14,526,0,0,0,0,0,0,0,0,0,-1,1210,498,0,0
-7,526,0,0,0,0,0,0,0,0,0,-1,1217,498,0,0
0,526,0,0,0,0,0,0,0,0,0,-1,1224,498,0,0
7,526,0,0,0,0,0,0,0,0,0,-1,1231,498,0,0
14,526,0,0,0,0,0,0,0,0,0,-1,1238,498,0,0
21,526,0,0,0,0,0,0,0,0,0,-1,1245,498,0,0
28,526,0,0,0,0,0,0,0,0,0,-1,1252,498,0,0
35,526,0,0,0,0,0,0,0,0,0,-1,1259,498,0,0
42,526,0,0,0,0,0,0,0,0,0,-1,1266,498,0,0
49,526,0,0,0,0,0,0,0,0,0,-1,1273,498,0,0
56,526,0,0,0,0,0,0,0,0,0,-1,1280,498,0,0
63,526,0,0,0,0,0,0,0,0,0,-1,1287,498,0,0
70,526,0,0,0,0,0,0,0,0,0,-1,1294,498,0,0
77,526,0,0,0,0,0,0,0,0,0,-1,1301,498,0,0
84,526,0,0,0,0,0,0,0,0,0,-1,1308,498,0,0
91,526,0,0,0,0,0,0,0,0,0,-1,1315,498,0,0
98,526,0,0,0,0,0,0,0,0,0,-1,1322,498,0,0
105,526,0,0,0,0,0,0,0,0,0,-1,1329,498,0,0
112,526,0,0,0,0,0,0,0,0,0,-1,1336,498,0,0
119,526,0,0,0,0,0,0,0,0,0,-1,1343,498,0,0
126,526,0,0,0,0,0,0,0,0,0,-1,1350,498,0,0
133,526,0,0,0,0,0,0,0,0,0,-1,1357,498,0,0
140,526,0,0,0,0,0,0,0,0,0,-1,1364,498,0,0
147,526,0,0,0,0,0,0,0,0,0,-1,1371,498,0,0
154,526,0,0,0,0,0,0,0,0,0,-1,1378,498,0,0
161,526,0,0,0,0,0,0,0,0,0,-1,1385,498,0,0
168,526,0,0,0,0,0,0,0,0,0,-1,1392,498,0,0
175,526,0,0,0,0,0,0,0,0,0,-1,1399,498,0,0
182,526,0,0,0,0,0,0,0,0,0,-1,1406,498,0,0
189,526,0,0,0,0,0,0,0,0,0,-1,1413,498,0,0
196,526,0,0,0,0,0,0,0,0,0,-1,1420,498,0,0
203,526,0,0,0,0,0,0,0,0,0,-1,1427,498,0,0
210,526,0,0,0,0,0,0,0,0,0,-1,1434,498,0,0
217,526,0,0,0,0,0,0,0,0,0,-1,1441,498,0,0
224,526,0,0,0,0,0,0,0,0,0,-1,1448,498,0,0
231,526,7.93237,-1.30618,0,0,0,0,0,0,0,-1,1455,498,7.93238,1.30618
238,526,7.97717,-1.08197,0,0,0,0,0,0,0,-1,1462,498,7.97723,1.08196
245,526,7.2793,-0.792938,0,0,0,0,0,0,0,-1,1469,498,7.27931,0.792926
252,526,6.73523,-2.23608,0,0,0,0,0,0,0,-1,1476,498,6.73525,2.23608
259,526,6.22949,-1.84967,0,0,0,0,0,0,0,-1,1483,498,6.22953,1.84968
266,526,5.72375,-1.46329,0,0,0,0,0,0,0,-1,1490,498,5.72381,1.46328
273,526,4.33984,0.49173,0,0,0,0,0,0,0,-1,1497,498,4.33979,-0.491727
280,526,1.4585,-1.59897,0,0,0,0,0,0,0,-1,1504,498,1.45846,1.59895
287,526,1.46411,-2.40134,0,0,0,0,0,0,0,-1,1511,498,1.46406,2.40133
294,526,5.57471,-4.59085,0,0,0,0,0,0,0,-1,1518,498,5.57466,4.59084
301,526,4.42786,-3.99677,0,0,0,0,0,0,0,-1,1525,498,4.42788,3.99676
308,526,5.79529,-4.19366,0,0,0,0,0,0,0,-1,1532,498,5.79528,4.19368
315,526,5.09851,-5.20068,0,0,0,0,0,0,0,-1,1539,498,5.09851,5.20068
322,526,5.50708,-4.72348,0,0,0,0,0,0,0,-1,1546,498,5.50713,4.72347
329,526,3.88672,-4.345,0,0,0,0,0,0,0,-1,1553,498,3.88674,4.34501
336,526,4.97876,-2.23828,0,0,0,0,0,0,0,-1,1560,498,4.97877,2.23828
343,526,3.31665,-2.69696,0,0,0,0,0,0,0,-1,1567,498,3.31667,2.69696
350,526,6.06287,-6.12015,0,0,0,0,0,0,0,-1,1574,498,6.06286,6.12014
357,526,18.325,-47.38,0,0,0,0,0,0,0,-1,1581,498,18.325,47.38
364,526,21.9415,-54.9628,0,0,0,0,0,0,0,-1,1588,498,21.9416,54.9628
371,526,21.4055,-54.6006,0,0,0,0,0,0,0,-1,1595,498,21.4055,54.6007
378,526,24.0167,-70.1567,0,0,0,0,0,0,0,-1,1602,498,24.0167,70.1567
385,526,26.2645,-77.2075,0,0,0,0,0,0,0,-1,1609,498,26.2645,77.2074
392,526,49.2749,-182.716,0,0,0,0,0,0,0,-1,1616,498,49.2749,182.716
399,526,51.0601,-179.323,0,0,0,0,0,0,0,-1,1623,498,51.0601,179.323
406,526,50.7957,-175.619,0,0,0,0,0,0,0,-1,1630,498,50.7956,175.619
413,526,49.9524,-172.409,0,0,0,0,0,0,0,-1,1637,498,49.9524,172.409
420,526,48.8214,-168.777,0,0,0,0,0,0,0,-1,1644,498,48.8214,168.777
427,526,49.0531,-165.065,0,0,0,0,0,0,0,-1,1651,498,49.0531,165.065
434,526,48.7142,-161.184,0.0421759,0.00589724,-0.030286,0.0593392,-0.0112661,-0.515581,0.0438005,0.0343032,1658,498,48.7143,161.184
441,526,47.8455,-157.158,0.0394572,0.00688514,-0.0271725,0.0548505,-0.00850815,-0.515425,0.0397081,0.0156943,1665,498,47.8454,157.158
448,526,46.8926,-153.247,0.0371856,0.00806268,-0.0238249,0.0505466,-0.00529829,-0.511096,0.0355955,0.0136334,1672,498,46.8926,153.247
455,526,45.9529,-149.336,0.0349205,0.00923733,-0.0203676,0.0461568,-0.00199899,-0.504129,0.0314587,0.0187442,1679,498,45.9529,149.336
462,526,45.0286,-145.43,0.0329514,0.0104654,-0.0167222,0.0418587,0.00155802,-0.489438,0.0274013,0.0168863,1686,498,45.0285,145.43
469,526,44.0258,-141.409,0.0316204,0.0118376,-0.0127955,0.037902,0.00555603,-0.456358,0.0236347,0.0146865,1693,498,44.0258,141.409
476,526,42.8733,-137.208,0.0306294,0.0133592,-0.00856479,0.0341565,0.00983202,-0.390655,0.0203034,0.0163959,1700,498,42.8733,137.208
483,526,41.691,-132.817,0.0301017,0.0149264,-0.00416606,0.0311702,0.0138579,-0.251059,0.0180329,0.0346544,1707,498,41.691,132.817
490,526,40.3976,-128.305,0,0,0,0,0,0,0,-1,1714,498,40.3975,128.305
497,526,25.0912,-69.6101,0,0,0,0,0,0,0,-1,1721,498,25.0911,69.6101
504,526,22.2432,-43.0208,0,0,0,0,0,0,0,-1,1728,498,22.2432,43.0208
511,526,22.3535,-41.4437,0,0,0,0,0,0,0,-1,1735,498,22.3535,41.4437
518,526,14.7889,-20.4046,0,0,0,0,0,0,0,-1,1742,498,14.7889,20.4046
525,526,14.7009,-19.7487,0,0,0,0,0,0,0,-1,1749,498,14.7009,19.7486
532,526,15.7457,-17.9624,0,0,0,0,0,0,0,-1,1756,498,15.7458,17.9624
539,526,16.1064,-16.42,0,0,0,0,0,0,0,-1,1763,498,16.1065,16.42
546,526,12.4675,-17.1617,0,0,0,0,0,0,0,-1,1770,498,12.4675,17.1617
553,526,3.40796,1.37137,0,0,0,0,0,0,0,-1,1777,498,3.40792,-1.37138
560,526,0,0,0,0,0,0,0,0,0,-1,1784,498,0,0
567,526,0,0,0,0,0,0,0,0,0,-1,1791,498,0,0
574,526,0,0,0,0,0,0,0,0,0,-1,1798,498,0,0
581,526,0,0,0,0,0,0,0,0,0,-1,1805,498,0,0
588,526,0,0,0,0,0,0,0,0,0,-1,1812,498,0,0
595,526,0,0,0,0,0,0,0,0,0,-1,1819,498,0,0
602,526,0,0,0,0,0,0,0,0,0,-1,1826,498,0,0
609,526,0,0,0,0,0,0,0,0,0,-1,1833,498,0,0
616,526,0,0,0,0,0,0,0,0,0,-1,1840,498,0,0
623,526,0,0,0,0,0,0,0,0,0,-1,1847,498,0,0
630,526,0,0,0,0,0,0,0,0,0,-1,1854,498,0,0
637,526,0,0,0,0,0,0,0,0,0,-1,1861,498,0,0
644,526,0,0,0,0,0,0,0,0,0,-1,1868,498,0,0
651,526,0,0,0,0,0,0,0,0,0,-1,1875,498,0,0
658,526,0,0,0,0,0,0,0,0,0,-1,1882,498,0,0
665,526,0,0,0,0,0,0,0,0,0,-1,1889,498,0,0
672,526,0,0,0,0,0,0,0,0,0,-1,1896,498,0,0
679,526,0,0,0,0,0,0,0,0,0,-1,1903,498,0,0
686,526,0,0,0,0,0,0,0,0,0,-1,1910,498,0,0
693,526,0,0,0,0,0,0,0,0,0,-1,1917,498,0,0
700,526,0,0,0,0,0,0,0,0,0,-1,1924,498,0,0
707,526,0,0,0,0,0,0,0,0,0,-1,1931,498,0,0
714,526,0,0,0,0,0,0,0,0,0,-1,1938,498,0,0
721,526,0,0,0,0,0,0,0,0,0,-1,1945,498,0,0
728,526,0,0,0,0,0,0,0,0,0,-1,1952,498,0,0
735,526,0,0,0,0,0,0,0,0,0,-1,1959,498,0,0
742,526,0,0,0,0,0,0,0,0,0,-1,1966,498,0,0
749,526,0,0,0,0,0,0,0,0,0,-1,1973,498,0,0
756,526,0,0,0,0,0,0,0,0,0,-1,1980,498,0,0
763,526,0,0,0,0,0,0,0,0,0,-1,1987,498,0,0
770,526,0,0,0,0,0,0,0,0,0,-1,1994,498,0,0
777,526,0,0,0,0,0,0,0,0,0,-1,2001,498,0,0
784,526,0,0,0,0,0,0,0,0,0,-1,2008,498,0,0
791,526,0,0,0,0,0,0,0,0,0,-1,2015,498,0,0
798,526,0,0,0,0,0,0,0,0,0,-1,2022,498,0,0
805,526,0,0,0,0,0,0,0,0,0,-1,2029,498,0,0
812,526,0,0,0,0,0,0,0,0,0,-1,2036,498,0,0
-700,519,0,0,0,0,0,0,0,0,0,-1,524,505,0,0
-693,519,0,0,0,0,0,0,0,0,0,-1,531,505,0,0
-686,519,0,0,0,0,0,0,0,0,0,-1,538,505,0,0
-679,519,0,0,0,0,0,0,0,0,0,-1,545,505,0,0
-672,519,0,0,0,0,0,0,0,0,0,-1,552,505,0,0
-665,519,0,0,0,0,0,0,0,0,0,-1,559,505,0,0
-658,519,0,0,0,0,0,0,0,0,0,-1,566,505,0,0
-651,519,0,0,0,0,0,0,0,0,0,-1,573,505,0,0
-644,519,0,0,0,0,0,0,0,0,0,-1,580,505,0,0
-637,519,0,0,0,0,0,0,0,0,0,-1,587,505,0,0
-630,519,0,0,0,0,0,0,0,0,0,-1,594,505,0,0
-623,519,0,0,0,0,0,0,0,0,0,-1,601,505,0,0
-616,519,0,0,0,0,0,0,0,0,0,-1,608,505,0,0
-609,519,0,0,0,0,0,0,0,0,0,-1,615,505,0,0
-602,519,0,0,0,0,0,0,0,0,0,-1,622,505,0,0
-595,519,0,0,0,0,0,0,0,0,0,-1,629,505,0,0
-588,519,0,0,0,0,0,0,0,0,0,-1,636,505,0,0
-581,519,0,0,0,0,0,0,0,0,0,-1,643,505,0,0
-574,519,0,0,0,0,0,0,0,0,0,-1,650,505,0,0
-567,519,0,0,0,0,0,0,0,0,0,-1,657,505,0,0
-560,519,0,0,0,0,0,0,0,0,0,-1,664,505,0,0
-553,519,0,0,0,0,0,0,0,0,0,-1,671,505,0,0
-546,519,0,0,0,0,0,0,0,0,0,-1,678,505,0,0
-539,519,0,0,0,0,0,0,0,0,0,-1,685,505,0,0
-532,519,0,0,0,0,0,0,0,0,0,-1,692,505,0,0
-525,519,0,0,0,0,0,0,0,0,0,-1,699,505,0,0
-518,519,0,0,0,0,0,0,0,0,0,-1,706,505,0,0
-511,519,0,0,0,0,0,0,0,0,0,-1,713,505,0,0
-504,519,0,0,0,0,0,0,0,0,0,-1,720,505,0,0
-497,519,0,0,0,0,0,0,0,0,0,-1,727,505,0,0
-490,519,0,0,0,0,0,0,0,0,0,-1,734,505,0,0
-483,519,0,0,0,0,0,0,0,0,0,-1,741,505,0,0
-476,519,0,0,0,0,0,0,0,0,0,-1,748,505,0,0
-469,519,0,0,0,0,0,0,0,0,0,-1,755,505,0,0
-462,519,0,0,0,0,0,0,0,0,0,-1,762,505,0,0
-455,519,0,0,0,0,0,0,0,0,0,-1,769,505,0,0
-448,519,0,0,0,0,0,0,0,0,0,-1,776,505,0,0
-441,519,1.34839,-5.29346,0,0,0,0,0,0,0,-1,783,505,1.3484,5.29347
-434,519,0.949585,-5.77313,0,0,0,0,0,0,0,-1,790,505,0.949598,5.77315
-427,519,-0.0523682,-9.31567,0,0,0,0,0,0,0,-1,797,505,-0.0523854,9.31568
-420,519,-2.38867,-12.1938,0,0,0,0,0,0,0,-1,804,505,-2.38867,12.1938
-413,519,-2.2298,-12.4998,0,0,0,0,0,0,0,-1,811,505,-2.22979,12.4998
-406,519,-1.44373,-12.3475,0,0,0,0,0,0,0,-1,818,505,-1.44376,12.3475
-399,519,-1.60516,-15.0849,0,0,0,0,0,0,0,-1,825,505,-1.60518,15.0849
-392,519,-1.94183,-24.8959,0,0,0,0,0,0,0,-1,832,505,-1.94183,24.8958
-385,519,-15.0157,-79.7313,0,0,0,0,0,0,0,-1,839,505,-15.0157,79.7313
-378,519,-14.6688,-79.4247,0,0,0,0,0,0,0,-1,846,505,-14.6688,79.4248
-371,519,-17.8939,-108.971,0,0,0,0,0,0,0,-1,853,505,-17.8938,108.971
-364,519,-33.151,-126.276,0,0,0,0,0,0,0,-1,860,505,-33.151,126.276
-357,519,-34.1931,-130.569,0.0245167,0.0041698,0.011601,0.0297732,-0.00108665,0.425432,0.0202207,0.0411343,867,505,-34.193,130.569
-350,519,-35.2086,-134.803,0.026603,0.00299445,0.0146948,0.0336475,-0.00405007,0.447024,0.0238964,0.0249729,874,505,-35.2086,134.803
-343,519,-36.405,-138.886,0.0287917,0.00174526,0.018336,0.0380519,-0.00751499,0.467664,0.0282086,0.0261346,881,505,-36.4051,138.886
-336,519,-37.5179,-142.943,0.0312529,0.000682072,0.0221773,0.0429022,-0.0109672,0.483665,0.0328728,0.030104,888,505,-37.5179,142.943
-329,519,-38.4854,-146.959,0.0336944,-0.000948512,0.026725,0.0482204,-0.0154745,0.497867,0.03836,0.0300378,895,505,-38.4854,146.959
-322,519,-39.492,-150.979,0.0362514,-0.0027989,0.0315739,0.0538496,-0.0203971,0.50848,0.044293,0.0269774,902,505,-39.492,150.979
-315,519,-40.3182,-155.195,0.0387538,-0.00482768,0.0366918,0.0596377,-0.0257116,0.517442,0.0505574,0.0312366,909,505,-40.3182,155.195
-308,519,-40.9129,-159.702,0,0,0,0,0,0,0,-1,916,505,-40.9129,159.702
-301,519,-41.6288,-162.867,0.0451834,-0.0100402,0.0472958,0.0723375,-0.0371943,0.521182,0.0643141,0.0331072,923,505,-41.6288,162.867
-294,519,-42.3515,-166.102,0.0488144,-0.0131064,0.0523318,0.0786583,-0.0429503,0.518282,0.0712125,0.023168,930,505,-42.3515,166.102
-287,519,-43.1393,-169.652,0.0524062,-0.0160788,0.0570364,0.0846896,-0.0483622,0.515056,0.0777661,0.0195356,937,505,-43.1393,169.652
-280,519,-43.6947,-173.149,0,0,0,0,0,0,0,-1,944,505,-43.6947,173.149
-273,519,-43.5077,-176.959,0,0,0,0,0,0,0,-1,951,505,-43.5077,176.959
-266,519,-37.4893,-179.309,0,0,0,0,0,0,0,-1,958,505,-37.4893,179.309
-259,519,-14.0467,-90.6321,0,0,0,0,0,0,0,-1,965,505,-14.0467,90.6322
-252,519,-1.84009,-26.8372,0,0,0,0,0,0,0,-1,972,505,-1.8401,26.8372
-245,519,-1.23254,-23.2696,0,0,0,0,0,0,0,-1,979,505,-1.23256,23.2696
-238,519,-3.37726,-48.8871,0,0,0,0,0,0,0,-1,986,505,-3.37723,48.8871
-231,519,-2.22742,-51.4121,0,0,0,0,0,0,0,-1,993,505,-2.22742,51.4121
-224,519,-3.33752,-42.7635,0,0,0,0,0,0,0,-1,1000,505,-3.33753,42.7635
-217,519,-2.87396,-38.149,0,0,0,0,0,0,0,-1,1007,505,-2.87394,38.149
-210,519,-0.883362,-34.799,0,0,0,0,0,0,0,-1,1014,505,-0.883379,34.799
-203,519,-0.513611,-5.39017,0,0,0,0,0,0,0,-1,1021,505,-0.513585,5.39017
-196,519,-0.374023,-5.41635,0,0,0,0,0,0,0,-1,1028,505,-0.374047,5.41635
-189,519,-0.234497,-5.44254,0,0,0,0,0,0,0,-1,1035,505,-0.234508,5.44253
-182,519,2.76697,-1.19659,0,0,0,0,0,0,0,-1,1042,505,2.76696,1.19661
-175,519,2.31323,-0.960938,0,0,0,0,0,0,0,-1,1049,505,2.31319,0.960941
-168,519,2.01074,-0.721405,0,0,0,0,0,0,0,-1,1056,505,2.01072,0.721407
-161,519,2.32056,-0.522339,0,0,0,0,0,0,0,-1,1063,505,2.32057,0.522328
-154,519,2.55566,0.116669,0,0,0,0,0,0,0,-1,1070,505,2.55563,-0.116661
-147,519,-0.55127,-6.14001,0,0,0,0,0,0,0,-1,1077,505,-0.551252,6.14001
-140,519,0.240601,-7.53503,0,0,0,0,0,0,0,-1,1084,505,0.240653,7.53501
-133,519,2.70911,-4.4516,0,0,0,0,0,0,0,-1,1091,505,2.70915,4.45161
-126,519,0,0,0,0,0,0,0,0,0,-1,1098,505,0,0
-119,519,0,0,0,0,0,0,0,0,0,-1,1105,505,0,0
-112,519,0,0,0,0,0,0,0,0,0,-1,1112,505,0,0
-105,519,0,0,0,0,0,0,0,0,0,-1,1119,505,0,0
-98,519,0,0,0,0,0,0,0,0,0,-1,1126,505,0,0
-91,519,0,0,0,0,0,0,0,0,0,-1,1133,505,0,0
-84,519,0,0,0,0,0,0,0,0,0,-1,1140,505,0,0
-77,519,0,0,0,0,0,0,0,0,0,-1,1147,505,0,0
-70,519,0,0,0,0,0,0,0,0,0,-1,1154,505,0,0
-63,519,0,0,0,0,0,0,0,0,0,-1,1161,505,0,0
-56,519,0,0,0,0,0,0,0,0,0,-1,1168,505,0,0
-49,519,0,0,0,0,0,0,0,0,0,-1,1175,505,0,0
-42,519,0,0,0,0,0,0,0,0,0,-1,1182,505,0,0
-35,519,0,0,0,0,0,0,0,0,0,-1,1189,505,0,0
-28,519,0,0,0,0,0,0,0,0,0,-1,1196,505,0,0
-21,519,0,0,0,0,0,0,0,0,0,-1,1203,505,0,0
-14,519,0,0,0,0,0,0,0,0,0,-1,1210,505,0,0
-7,519,0,0,0,0,0,0,0,0,0,-1,1217,505,0,0
0,519,0,0,0,0,0,0,0,0,0,-1,1224,505,0,0
7,519,0,0,0,0,0,0,0,0,0,-1,1231,505,0,0
14,519,0,0,0,0,0,0,0,0,0,-1,1238,505,0,0
21,519,0,0,0,0,0,0,0,0,0,-1,1245,505,0,0
28,519,0,0,0,0,0,0,0,0,0,-1,1252,505,0,0
35,519,0,0,0,0,0,0,0,0,0,-1,1259,505,0,0
42,519,0,0,0,0,0,0,0,0,0,-1,1266,505,0,0
49,519,0,0,0,0,0,0,0,0,0,-1,1273,505,0,0
56,519,0,0,0,0,0,0,0,0,0,-1,1280,505,0,0
63,519,0,0,0,0,0,0,0,0,0,-1,1287,505,0,0
70,519,0,0,0,0,0,0,0,0,0,-1,1294,505,0,0
77,519,0,0,0,0,0,0,0,0,0,-1,1301,505,0,0
84,519,0,0,0,0,0,0,0,0,0,-1,1308,505,0,0
91,519,0,0,0,0,0,0,0,0,0,-1,1315,505,0,0
98,519,0,0,0,0,0,0,0,0,0,-1,1322,505,0,0
105,519,0,0,0,0,0,0,0,0,0,-1,1329,505,0,0
112,519,0,0,0,0,0,0,0,0,0,-1,1336,505,0,0
119,519,0,0,0,0,0,0,0,0,0,-1,1343,505,0,0
126,519,0,0,0,0,0,0,0,0,0,-1,1350,505,0,0
133,519,0,0,0,0,0,0,0,0,0,-1,1357,505,0,0
140,519,0,0,0,0,0,0,0,0,0,-1,1364,505,0,0
147,519,0,0,0,0,0,0,0,0,0,-1,1371,505,0,0
154,519,0,0,0,0,0,0,0,0,0,-1,1378,505,0,0
161,519,0,0,0,0,0,0,0,0,0,-1,1385,505,0,0
168,519,0,0,0,0,0,0,0,0,0,-1,1392,505,0,0
175,519,0,0,0,0,0,0,0,0,0,-1,1399,505,0,0
182,519,0,0,0,0,0,0,0,0,0,-1,1406,505,0,0
189,519,0,0,0,0,0,0,0,0,0,-1,1413,505,0,0
196,519,0,0,0,0,0,0,0,0,0,-1,1420,505,0,0
203,519,0,0,0,0,0,0,0,0,0,-1,1427,505,0,0
210,519,0,0,0,0,0,0,0,0,0,-1,1434,505,0,0
217,519,0,0,0,0,0,0,0,0,0,-1,1441,505,0,0
224,519,0,0,0,0,0,0,0,0,0,-1,1448,505,0,0
231,519,0,0,0,0,0,0,0,0,0,-1,1455,505,0,0
238,519,0,0,0,0,0,0,0,0,0,-1,1462,505,0,0
245,519,0,0,0,0,0,0,0,0,0,-1,1469,505,0,0
252,519,5.26208,0.0938416,0,0,0,0,0,0,0,-1,1476,505,5.26207,-0.0938493
259,519,6.14246,-1.36441,0,0,0,0,0,0,0,-1,1483,505,6.14241,1.36441
266,519,5.31909,-0.400787,0,0,0,0,0,0,0,-1,1490,505,5.31912,0.400773
273,519,4.02393,0.325531,0,0,0,0,0,0,0,-1,1497,505,4.0239,-0.325522
280,519,4.68848,0.53006,0,0,0,0,0,0,0,-1,1504,505,4.68842,-0.530073
287,519,7.9519,-3.80801,0,0,0,0,0,0,0,-1,1511,505,7.95193,3.808
294,519,6.92273,-3.38889,0,0,0,0,0,0,0,-1,1518,505,6.92268,3.38888
301,519,5.35669,-2.92661,0,0,0,0,0,0,0,-1,1525,505,5.35675,2.9266
308,519,7.37549,-5.64529,0,0,0,0,0,0,0,-1,1532,505,7.3755,5.64529
315,519,6.30029,-4.53754,0,0,0,0,0,0,0,-1,1539,505,6.30024,4.53753
322,519,5.84302,-5.45117,0,0,0,0,0,0,0,-1,1546,505,5.84303,5.45116
329,519,4.92407,0.62384,0,0,0,0,0,0,0,-1,1553,505,4.92403,-0.623832
336,519,3.10095,-0.329285,0,0,0,0,0,0,0,-1,1560,505,3.1009,0.329283
343,519,2.49146,-2.31119,0,0,0,0,0,0,0,-1,1567,505,2.49145,2.31119
350,519,3.47729,-2.22516,0,0,0,0,0,0,0,-1,1574,505,3.47726,2.22515
357,519,13.271,-29.6344,0,0,0,0,0,0,0,-1,1581,505,13.271,29.6344
364,519,12.8292,-28.3627,0,0,0,0,0,0,0,-1,1588,505,12.8292,28.3627
371,519,12.3875,-27.0911,0,0,0,0,0,0,0,-1,1595,505,12.3874,27.091
378,519,6.36597,-10.0967,0,0,0,0,0,0,0,-1,1602,505,6.36597,10.0967
385,519,6.24756,-9.72186,0,0,0,0,0,0,0,-1,1609,505,6.24752,9.72183
392,519,16.8391,-37.6736,0,0,0,0,0,0,0,-1,1616,505,16.8391,37.6737
399,519,31.8569,-108.321,0,0,0,0,0,0,0,-1,1623,505,31.8569,108.321
406,519,54.9701,-174.408,0,0,0,0,0,0,0,-1,1630,505,54.9701,174.408
413,519,54.2646,-170.668,0,0,0,0,0,0,0,-1,1637,505,54.2646,170.668
420,519,53.6377,-167.485,0,0,0,0,0,0,0,-1,1644,505,53.6377,167.485
427,519,53.3192,-163.672,0.0491464,0.00425644,-0.0385226,0.0712859,-0.017883,-0.521618,0.0544723,0.0368914,1651,505,53.3192,163.672
434,519,52.8424,-159.862,0.0453709,0.00470114,-0.0359498,0.0663385,-0.0162664,-0.52801,0.0505283,0.0330718,1658,505,52.8424,159.862
441,519,51.9209,-155.956,0.0423415,0.00543278,-0.0330186,0.0617129,-0.0139387,-0.53057,0.04649,0.0177021,1665,505,51.9209,155.956
448,519,51,-152.029,0.0398,0.00650512,-0.0297546,0.0572476,-0.0109425,-0.530347,0.0422872,0.0140041,1672,505,51.0001,152.029
455,519,50.052,-148.075,0.0373839,0.00754426,-0.0263002,0.0527015,-0.00777338,-0.527389,0.0379915,0.0167108,1679,505,50.0519,148.075
462,519,49.1333,-144.054,0.0355072,0.0085921,-0.0225827,0.0483381,-0.00423882,-0.51669,0.0337272,0.0166994,1686,505,49.1333,144.054
469,519,48.1667,-139.991,0.0343573,0.0096832,-0.0185941,0.0443349,-0.000294421,-0.492498,0.0296552,0.0200212,1693,505,48.1668,139.991
476,519,47.0696,-135.819,0.0336443,0.0108927,-0.0142394,0.0404939,0.00404297,-0.448364,0.0257543,0.0211918,1700,505,47.0696,135.819
483,519,45.9276,-131.615,0.0333627,0.0122341,-0.00959737,0.0370713,0.00852555,-0.368737,0.0224193,0.0204833,1707,505,45.9276,131.615
490,519,44.5718,-127.302,0.0332344,0.013799,-0.00452662,0.0342369,0.0127964,-0.217963,0.0199756,0.0189294,1714,505,44.5717,127.302
497,519,43.1844,-122.946,0,0,0,0,0,0,0,-1,1721,505,43.1844,122.946
504,519,42.1858,-118.257,0,0,0,0,0,0,0,-1,1728,505,42.1858,118.257
511,519,26.5901,-66.6717,0,0,0,0,0,0,0,-1,1735,505,26.5901,66.6717
518,519,20.183,-28.4342,0,0,0,0,0,0,0,-1,1742,505,20.183,28.4342
525,519,15.9647,-20.5714,0,0,0,0,0,0,0,-1,1749,505,15.9648,20.5714
532,519,15.825,-19.0025,0,0,0,0,0,0,0,-1,1756,505,15.8249,19.0025
539,519,16.5902,-16.8075,0,0,0,0,0,0,0,-1,1763,505,16.5903,16.8075
546,519,12.4001,-16.5616,0,0,0,0,0,0,0,-1,1770,505,12.4002,16.5616
553,519,4.14136,0.0667419,0,0,0,0,0,0,0,-1,1777,505,4.14141,-0.0667503
560,519,3.77856,0.279724,0,0,0,0,0,0,0,-1,1784,505,3.77861,-0.279731
567,519,0,0,0,0,0,0,0,0,0,-1,1791,505,0,0
574,519,0,0,0,0,0,0,0,0,0,-1,1798,505,0,0
581,519,0,0,0,0,0,0,0,0,0,-1,1805,505,0,0
588,519,0,0,0,0,0,0,0,0,0,-1,1812,505,0,0
595,519,0,0,0,0,0,0,0,0,0,-1,1819,505,0,0
602,519,0,0,0,0,0,0,0,0,0,-1,1826,505,0,0
609,519,0,0,0,0,0,0,0,0,0,-1,1833,505,0,0
616,519,0,0,0,0,0,0,0,0,0,-1,1840,505,0,0
623,519,0,0,0,0,0,0,0,0,0,-1,1847,505,0,0
630,519,0,0,0,0,0,0,0,0,0,-1,1854,505,0,0
637,519,0,0,0,0,0,0,0,0,0,-1,1861,505,0,0
644,519,0,0,0,0,0,0,0,0,0,-1,1868,505,0,0
651,519,0,0,0,0,0,0,0,0,0,-1,1875,505,0,0
658,519,0,0,0,0,0,0,0,0,0,-1,1882,505,0,0
665,519,0,0,0,0,0,0,0,0,0,-1,1889,505,0,0
672,519,0,0,0,0,0,0,0,0,0,-1,1896,505,0,0
679,519,0,0,0,0,0,0,0,0,0,-1,1903,505,0,0
686,519,0,0,0,0,0,0,0,0,0,-1,1910,505,0,0
693,519,0,0,0,0,0,0,0,0,0,-1,1917,505,0,0
700,519,0,0,0,0,0,0,0,0,0,-1,1924,505,0,0
707,519,0,0,0,0,0,0,0,0,0,-1,1931,505,0,0
714,519,0,0,0,0,0,0,0,0,0,-1,1938,505,0,0
721,519,0,0,0,0,0,0,0,0,0,-1,1945,505,0,0
728,519,0,0,0,0,0,0,0,0,0,-1,1952,505,0,0
735,519,0,0,0,0,0,0,0,0,0,-1,1959,505,0,0
742,519,0,0,0,0,0,0,0,0,0,-1,1966,505,0,0
749,519,0,0,0,0,0,0,0,0,0,-1,1973,505,0,0
756,519,0,0,0,0,0,0,0,0,0,-1,1980,505,0,0
763,519,0,0,0,0,0,0,0,0,0,-1,1987,505,0,0
770,519,0,0,0,0,0,0,0,0,0,-1,1994,505,0,0
777,519,0,0,0,0,0,0,0,0,0,-1,2001,505,0,0
784,519,0,0,0,0,0,0,0,0,0,-1,2008,505,0,0
791,519,0,0,0,0,0,0,0,0,0,-1,2015,505,0,0
798,519,0,0,0,0,0,0,0,0,0,-1,2022,505,0,0
805,519,0,0,0,0,0,0,0,0,0,-1,2029,505,0,0
812,519,0,0,0,0,0,0,0,0,0,-1,2036,505,0,0
-700,512,0,0,0,0,0,0,0,0,0,-1,524,512,0,0
-693,512,0,0,0,0,0,0,0,0,0,-1,531,512,0,0
-686,512,0,0,0,0,0,0,0,0,0,-1,538,512,0,0
-679,512,0,0,0,0,0,0,0,0,0,-1,545,512,0,0
-672,512,0,0,0,0,0,0,0,0,0,-1,552,512,0,0
-665,512,0,0,0,0,0,0,0,0,0,-1,559,512,0,0
-658,512,0,0,0,0,0,0,0,0,0,-1,566,512,0,0
-651,512,0,0,0,0,0,0,0,0,0,-1,573,512,0,0
-644,512,0,0,0,0,0,0,0,0,0,-1,580,512,0,0
-637,512,0,0,0,0,0,0,0,0,0,-1,587,512,0,0
-630,512,0,0,0,0,0,0,0,0,0,-1,594,512,0,0
-623,512,0,0,0,0,0,0,0,0,0,-1,601,512,0,0
-616,512,0,0,0,0,0,0,0,0,0,-1,608,512,0,0
-609,512,0,0,0,0,0,0,0,0,0,-1,615,512,0,0
-602,512,0,0,0,0,0,0,0,0,0,-1,622,512,0,0
-595,512,0,0,0,0,0,0,0,0,0,-1,629,512,0,0
-588,512,0,0,0,0,0,0,0,0,0,-1,636,512,0,0
-581,512,0,0,0,0,0,0,0,0,0,-1,643,512,0,0
-574,512,0,0,0,0,0,0,0,0,0,-1,650,512,0,0
-567,512,0,0,0,0,0,0,0,0,0,-1,657,512,0,0
-560,512,0,0,0,0,0,0,0,0,0,-1,664,512,0,0
-553,512,0,0,0,0,0,0,0,0,0,-1,671,512,0,0
-546,512,0,0,0,0,0,0,0,0,0,-1,678,512,0,0
-539,512,0,0,0,0,0,0,0,0,0,-1,685,512,0,0
-532,512,0,0,0,0,0,0,0,0,0,-1,692,512,0,0
-525,512,0,0,0,0,0,0,0,0,0,-1,699,512,0,0
-518,512,0,0,0,0,0,0,0,0,0,-1,706,512,0,0
-511,512,0,0,0,0,0,0,0,0,0,-1,713,512,0,0
-504,512,0,0,0,0,0,0,0,0,0,-1,720,512,0,0
-497,512,0,0,0,0,0,0,0,0,0,-1,727,512,0,0
-490,512,0,0,0,0,0,0,0,0,0,-1,734,512,0,0
-483,512,0,0,0,0,0,0,0,0,0,-1,741,512,0,0
-476,512,0,0,0,0,0,0,0,0,0,-1,748,512,0,0
-469,512,0,0,0,0,0,0,0,0,0,-1,755,512,0,0
-462,512,0,0,0,0,0,0,0,0,0,-1,762,512,0,0
-455,512,0,0,0,0,0,0,0,0,0,-1,769,512,0,0
-448,512,1.96283,-4.15674,0,0,0,0,0,0,0,-1,776,512,1.96285,4.15677
-441,512,1.78198,-4.88824,0,0,0,0,0,0,0,-1,783,512,1.78201,4.88826
-434,512,0.0726929,-9.85822,0,0,0,0,0,0,0,-1,790,512,0.0727008,9.85819
-427,512,-0.384583,-9.94824,0,0,0,0,0,0,0,-1,797,512,-0.384552,9.94823
-420,512,-2.93219,-12.4855,0,0,0,0,0,0,0,-1,804,512,-2.93219,12.4855
-413,512,-2.22711,-11.4485,0,0,0,0,0,0,0,-1,811,512,-2.22712,11.4485
-406,512,-2.38037,-13.5743,0,0,0,0,0,0,0,-1,818,512,-2.38034,13.5743
-399,512,-3.13367,-23.934,0,0,0,0,0,0,0,-1,825,512,-3.13368,23.934
-392,512,-17.0581,-76.7349,0,0,0,0,0,0,0,-1,832,512,-17.0581,76.7349
-385,512,-27.1439,-110.304,0,0,0,0,0,0,0,-1,839,512,-27.1439,110.304
-378,512,-34.2127,-115.549,0,0,0,0,0,0,0,-1,846,512,-34.2127,115.549
-371,512,-35.7191,-120.558,0,0,0,0,0,0,0,-1,853,512,-35.719,120.558
-364,512,-37.1175,-124.908,0.0261025,0.00288936,0.0131635,0.0320456,-0.00305371,0.424085,0.022451,0.0396522,860,512,-37.1175,124.908
-357,512,-38.4207,-129.157,0.0280348,0.0014716,0.0163074,0.0357849,-0.00627852,0.443653,0.0262014,0.0306052,867,512,-38.4206,129.157
-350,512,-39.5743,-133.337,0.0299913,0.000324303,0.0197335,0.0398447,-0.00952908,0.463106,0.0302441,0.0208439,874,512,-39.5743,133.337
-343,512,-40.7092,-137.465,0.0321491,-0.000926092,0.0235763,0.0444096,-0.0131866,0.479549,0.0348439,0.0221124,881,512,-40.7092,137.465
-336,512,-41.804,-141.485,0.0344913,-0.00213485,0.0277086,0.0493917,-0.0170352,0.493392,0.0398393,0.0301169,888,512,-41.804,141.485
-329,512,-42.7877,-145.458,0.0369509,-0.00384022,0.0325396,0.0549586,-0.0218479,0.505455,0.0456971,0.0386019,895,512,-42.7877,145.458
-322,512,-43.597,-149.543,0.0396333,-0.00582662,0.0376401,0.0608741,-0.0270674,0.513766,0.0520086,0.0324861,902,512,-43.5971,149.543
-315,512,-44.4632,-153.552,0.0421848,-0.00802444,0.0430715,0.066934,-0.0327736,0.521538,0.0586815,0.0267836,909,512,-44.4632,153.552
-308,512,-45.2345,-157.508,0.0450866,-0.0105712,0.0487914,0.0734275,-0.0389121,0.526226,0.0658718,0.0332257,916,512,-45.2345,157.508
-301,512,-45.9905,-161.076,0.0487831,-0.013639,0.0544919,0.0803693,-0.0452252,0.525321,0.0734522,0.0478252,923,512,-45.9906,161.076
-294,512,-46.4386,-164.672,0.052376,-0.0168507,0.0601255,0.0871396,-0.0516143,0.524224,0.0809801,0.0366104,930,512,-46.4386,164.672
-287,512,-47.1448,-168.338,0,0,0,0,0,0,0,-1,937,512,-47.1448,168.338
-280,512,-29.0358,-135.184,0,0,0,0,0,0,0,-1,944,512,-29.0358,135.184
-273,512,-15.7443,-87.9698,0,0,0,0,0,0,0,-1,951,512,-15.7443,87.9698
-266,512,-2.33594,-25.9839,0,0,0,0,0,0,0,-1,958,512,-2.33592,25.9839
-259,512,-0.525452,-14.0815,0,0,0,0,0,0,0,-1,965,512,-0.525475,14.0815
-252,512,1.45941,-3.43475,0,0,0,0,0,0,0,-1,972,512,1.45938,3.43475
-245,512,-1.6731,-22.8959,0,0,0,0,0,0,0,-1,979,512,-1.67312,22.8959
-238,512,0.227051,-8.92969,0,0,0,0,0,0,0,-1,986,512,0.227073,8.92968
-231,512,-1.90576,-38.0918,0,0,0,0,0,0,0,-1,993,512,-1.90575,38.0918
-224,512,-1.29974,-33.6304,0,0,0,0,0,0,0,-1,1000,512,-1.29974,33.6304
-217,512,-0.963196,-34.1697,0,0,0,0,0,0,0,-1,1007,512,-0.963226,34.1697
-210,512,-3.76642,-1.94702,0,0,0,0,0,0,0,-1,1014,512,-3.76641,1.94702
-203,512,-2.48328,-5.19061,0,0,0,0,0,0,0,-1,1021,512,-2.48328,5.19059
-196,512,-1.14929,-4.63202,0,0,0,0,0,0,0,-1,1028,512,-1.14934,4.632
-189,512,0.197998,4.55505,0,0,0,0,0,0,0,-1,1035,512,0.197996,-4.55506
-182,512,2.73938,0.0778503,0,0,0,0,0,0,0,-1,1042,512,2.73944,-0.077852
-175,512,2.29565,0.209808,0,0,0,0,0,0,0,-1,1049,512,2.29565,-0.209813
-168,512,2.09399,-0.302856,0,0,0,0,0,0,0,-1,1056,512,2.09403,0.302826
-161,512,2.76636,0.0921021,0,0,0,0,0,0,0,-1,1063,512,2.76633,-0.0921104
-154,512,3.41382,0.466187,0,0,0,0,0,0,0,-1,1070,512,3.41382,-0.466178
-147,512,0,0,0,0,0,0,0,0,0,-1,1077,512,0,0
-140,512,0,0,0,0,0,0,0,0,0,-1,1084,512,0,0
-133,512,0,0,0,0,0,0,0,0,0,-1,1091,512,0,0
-126,512,0,0,0,0,0,0,0,0,0,-1,1098,512,0,0
-119,512,0,0,0,0,0,0,0,0,0,-1,1105,512,0,0
-112,512,0,0,0,0,0,0,0,0,0,-1,1112,512,0,0
-105,512,0,0,0,0,0,0,0,0,0,-1,1119,512,0,0
-98,512,0,0,0,0,0,0,0,0,0,-1,1126,512,0,0
-91,512,0,0,0,0,0,0,0,0,0,-1,1133,512,0,0
-84,512,0,0,0,0,0,0,0,0,0,-1,1140,512,0,0
-77,512,0,0,0,0,0,0,0,0,0,-1,1147,512,0,0
-70,512,0,0,0,0,0,0,0,0,0,-1,1154,512,0,0
-63,512,0,0,0,0,0,0,0,0,0,-1,1161,512,0,0
-56,512,0,0,0,0,0,0,0,0,0,-1,1168,512,0,0
-49,512,0,0,0,0,0,0,0,0,0,-1,1175,512,0,0
-42,512,0,0,0,0,0,0,0,0,0,-1,1182,512,0,0
-35,512,0,0,0,0,0,0,0,0,0,-1,1189,512,0,0
-28,512,0,0,0,0,0,0,0,0,0,-1,1196,512,0,0
-21,512,0,0,0,0,0,0,0,0,0,-1,1203,512,0,0
-14,512,0,0,0,0,0,0,0,0,0,-1,1210,512,0,0
-7,512,0,0,0,0,0,0,0,0,0,-1,1217,512,0,0
0,512,0,0,0,0,0,0,0,0,0,-1,1224,512,0,0
7,512,0,0,0,0,0,0,0,0,0,-1,1231,512,0,0
14,512,0,0,0,0,0,0,0,0,0,-1,1238,512,0,0
21,512,0,0,0,0,0,0,0,0,0,-1,1245,512,0,0
28,512,0,0,0,0,0,0,0,0,0,-1,1252,512,0,0
35,512,0,0,0,0,0,0,0,0,0,-1,1259,512,0,0
42,512,0,0,0,0,0,0,0,0,0,-1,1266,512,0,0
49,512,0,0,0,0,0,0,0,0,0,-1,1273,512,0,0
56,512,0,0,0,0,0,0,0,0,0,-1,1280,512,0,0
63,512,0,0,0,0,0,0,0,0,0,-1,1287,512,0,0
70,512,0,0,0,0,0,0,0,0,0,-1,1294,512,0,0
77,512,0,0,0,0,0,0,0,0,0,-1,1301,512,0,0
84,512,0,0,0,0,0,0,0,0,0,-1,1308,512,0,0
91,512,0,0,0,0,0,0,0,0,0,-1,1315,512,0,0
98,512,0,0,0,0,0,0,0,0,0,-1,1322,512,0,0
105,512,0,0,0,0,0,0,0,0,0,-1,1329,512,0,0
112,512,0,0,0,0,0,0,0,0,0,-1,1336,512,0,0
119,512,0,0,0,0,0,0,0,0,0,-1,1343,512,0,0
126,512,0,0,0,0,0,0,0,0,0,-1,1350,512,0,0
133,512,0,0,0,0,0,0,0,0,0,-1,1357,512,0,0
140,512,0,0,0,0,0,0,0,0,0,-1,1364,512,0,0
147,512,0,0,0,0,0,0,0,0,0,-1,1371,512,0,0
154,512,0,0,0,0,0,0,0,0,0,-1,1378,512,0,0
161,512,0,0,0,0,0,0,0,0,0,-1,1385,512,0,0
168,512,0,0,0,0,0,0,0,0,0,-1,1392,512,0,0
175,512,0,0,0,0,0,0,0,0,0,-1,1399,512,0,0
182,512,0,0,0,0,0,0,0,0,0,-1,1406,512,0,0
189,512,0,0,0,0,0,0,0,0,0,-1,1413,512,0,0
196,512,0,0,0,0,0,0,0,0,0,-1,1420,512,0,0
203,512,0,0,0,0,0,0,0,0,0,-1,1427,512,0,0
210,512,0,0,0,0,0,0,0,0,0,-1,1434,512,0,0
217,512,0,0,0,0,0,0,0,0,0,-1,1441,512,0,0
224,512,0,0,0,0,0,0,0,0,0,-1,1448,512,0,0
231,512,0,0,0,0,0,0,0,0,0,-1,1455,512,0,0
238,512,0,0,0,0,0,0,0,0,0,-1,1462,512,0,0
245,512,0,0,0,0,0,0,0,0,0,-1,1469,512,0,0
252,512,0,0,0,0,0,0,0,0,0,-1,1476,512,0,0
259,512,0,0,0,0,0,0,0,0,0,-1,1483,512,0,0
266,512,0,0,0,0,0,0,0,0,0,-1,1490,512,0,0
273,512,4.00745,0.618622,0,0,0,0,0,0,0,-1,1497,512,4.00747,-0.618611
280,512,4.49609,0.649841,0,0,0,0,0,0,0,-1,1504,512,4.49612,-0.649834
287,512,4.77234,0.458069,0,0,0,0,0,0,0,-1,1511,512,4.77233,-0.458083
294,512,8.54956,-2.36273,0,0,0,0,0,0,0,-1,1518,512,8.54952,2.36274
301,512,6.302,-1.69092,0,0,0,0,0,0,0,-1,1525,512,6.30196,1.69093
308,512,8.2439,-6.22754,0,0,0,0,0,0,0,-1,1532,512,8.24394,6.22757
315,512,7.53687,-6.04211,0,0,0,0,0,0,0,-1,1539,512,7.53691,6.04211
322,512,6.82983,-5.85663,0,0,0,0,0,0,0,-1,1546,512,6.82988,5.85666
329,512,4.38147,-0.329651,0,0,0,0,0,0,0,-1,1553,512,4.38144,0.329662
336,512,4.41467,-0.741455,0,0,0,0,0,0,0,-1,1560,512,4.41467,0.741442
343,512,4.44727,-1.21667,0,0,0,0,0,0,0,-1,1567,512,4.44732,1.21666
350,512,4.55469,-1.65082,0,0,0,0,0,0,0,-1,1574,512,4.5547,1.65083
357,512,5.79993,-2.67456,0,0,0,0,0,0,0,-1,1581,512,5.79991,2.67454
364,512,13.118,-28.5485,0,0,0,0,0,0,0,-1,1588,512,13.1181,28.5485
371,512,5.28467,-7.69269,0,0,0,0,0,0,0,-1,1595,512,5.28464,7.69269
378,512,6.29407,-9.88055,0,0,0,0,0,0,0,-1,1602,512,6.29412,9.88057
385,512,6.45569,-9.32233,0,0,0,0,0,0,0,-1,1609,512,6.45565,9.3223
392,512,6.35522,-8.98425,0,0,0,0,0,0,0,-1,1616,512,6.35526,8.98422
399,512,16.9089,-33.7311,0,0,0,0,0,0,0,-1,1623,512,16.9089,33.7311
406,512,21.3325,-43.5074,0,0,0,0,0,0,0,-1,1630,512,21.3325,43.5074
413,512,58.5775,-169.429,0,0,0,0,0,0,0,-1,1637,512,58.5775,169.429
420,512,57.5907,-165.976,0,0,0,0,0,0,0,-1,1644,512,57.5907,165.976
427,512,57.4451,-162.213,0.0530889,0.00346223,-0.0438486,0.0786581,-0.0221069,-0.527919,0.0611545,0.0404262,1651,512,57.4451,162.213
434,512,57.08,-158.451,0.0485457,0.00372467,-0.0416922,0.0734688,-0.0211985,-0.538792,0.0573661,0.0260043,1658,512,57.08,158.451
441,512,56.1373,-154.641,0.0447979,0.00408429,-0.0390934,0.0685171,-0.0196349,-0.545354,0.0534393,0.0179685,1665,512,56.1374,154.641
448,512,55.1543,-150.819,0.041709,0.0049432,-0.0360355,0.0637797,-0.0171275,-0.549538,0.0492322,0.0191142,1672,512,55.1543,150.819
455,512,54.2052,-146.851,0.0390015,0.00573765,-0.0327059,0.0590614,-0.0143223,-0.550174,0.0449161,0.02245,1679,512,54.2052,146.851
462,512,53.3063,-142.806,0.0371016,0.00657778,-0.0290117,0.0546209,-0.0109415,-0.543259,0.0405561,0.0189398,1686,512,53.3063,142.806
469,512,52.3118,-138.639,0.0360508,0.00743355,-0.0250519,0.0505924,-0.00710799,-0.525926,0.0363301,0.0179244,1693,512,52.3117,138.639
476,512,51.2694,-134.463,0.0355848,0.00840092,-0.0207108,0.0467653,-0.00277963,-0.495011,0.0321435,0.0226599,1700,512,51.2694,134.463
483,512,50.1705,-130.245,0.0355967,0.00957196,-0.0160325,0.0432329,0.00193576,-0.444504,0.0281988,0.0225824,1707,512,50.1705,130.245
490,512,49.0063,-125.977,0.0360776,0.0108198,-0.0112113,0.0403361,0.00656135,-0.363002,0.0249924,0.0177721,1714,512,49.0063,125.977
497,512,47.7333,-121.62,0.036413,0.0121672,-0.00640196,0.0379996,0.0105806,-0.242932,0.0226457,0.0177695,1721,512,47.7333,121.62
504,512,46.4186,-117.221,0.0368287,0.0139601,-0.00155812,0.0369344,0.0138544,-0.0677166,0.0215447,0.039076,1728,512,46.4185,117.221
511,512,45.071,-112.738,0,0,0,0,0,0,0,-1,1735,512,45.0711,112.738
518,512,28.3206,-64.3033,0,0,0,0,0,0,0,-1,1742,512,28.3206,64.3033
525,512,21.4387,-27.6805,0,0,0,0,0,0,0,-1,1749,512,21.4388,27.6805
532,512,16.6807,-19.0635,0,0,0,0,0,0,0,-1,1756,512,16.6807,19.0635
539,512,12.6367,-16.4022,0,0,0,0,0,0,0,-1,1763,512,12.6367,16.4021
546,512,2.77551,-0.66449,0,0,0,0,0,0,0,-1,1770,512,2.77548,0.664503
553,512,3.927,-0.448853,0,0,0,0,0,0,0,-1,1777,512,3.92704,0.448843
560,512,3.55762,-0.201233,0,0,0,0,0,0,0,-1,1784,512,3.55768,0.201259
567,512,3.09045,0.191193,0,0,0,0,0,0,0,-1,1791,512,3.09045,-0.191203
574,512,0,0,0,0,0,0,0,0,0,-1,1798,512,0,0
581,512,0,0,0,0,0,0,0,0,0,-1,1805,512,0,0
588,512,0,0,0,0,0,0,0,0,0,-1,1812,512,0,0
595,512,0,0,0,0,0,0,0,0,0,-1,1819,512,0,0
602,512,0,0,0,0,0,0,0,0,0,-1,1826,512,0,0
609,512,0,0,0,0,0,0,0,0,0,-1,1833,512,0,0
616,512,0,0,0,0,0,0,0,0,0,-1,1840,512,0,0
623,512,0,0,0,0,0,0,0,0,0,-1,1847,512,0,0
630,512,0,0,0,0,0,0,0,0,0,-1,1854,512,0,0
637,512,0,0,0,0,0,0,0,0,0,-1,1861,512,0,0
644,512,0,0,0,0,0,0,0,0,0,-1,1868,512,0,0
651,512,0,0,0,0,0,0,0,0,0,-1,1875,512,0,0
658,512,0,0,0,0,0,0,0,0,0,-1,1882,512,0,0
665,512,0,0,0,0,0,0,0,0,0,-1,1889,512,0,0
672,512,0,0,0,0,0,0,0,0,0,-1,1896,512,0,0
679,512,0,0,0,0,0,0,0,0,0,-1,1903,512,0,0
686,512,0,0,0,0,0,0,0,0,0,-1,1910,512,0,0
693,512,0,0,0,0,0,0,0,0,0,-1,1917,512,0,0
700,512,0,0,0,0,0,0,0,0,0,-1,1924,512,0,0
707,512,0,0,0,0,0,0,0,0,0,-1,1931,512,0,0
714,512,0,0,0,0,0,0,0,0,0,-1,1938,512,0,0
721,512,0,0,0,0,0,0,0,0,0,-1,1945,512,0,0
728,512,0,0,0,0,0,0,0,0,0,-1,1952,512,0,0
735,512,0,0,0,0,0,0,0,0,0,-1,1959,512,0,0
742,512,0,0,0,0,0,0,0,0,0,-1,1966,512,0,0
749,512,0,0,0,0,0,0,0,0,0,-1,1973,512,0,0
756,512,0,0,0,0,0,0,0,0,0,-1,1980,512,0,0
763,512,0,0,0,0,0,0,0,0,0,-1,1987,512,0,0
770,512,0,0,0,0,0,0,0,0,0,-1,1994,512,0,0
777,512,0,0,0,0,0,0,0,0,0,-1,2001,512,0,0
784,512,0,0,0,0,0,0,0,0,0,-1,2008,512,0,0
791,512,0,0,0,0,0,0,0,0,0,-1,2015,512,0,0
798,512,0,0,0,0,0,0,0,0,0,-1,2022,512,0,0
805,512,0,0,0,0,0,0,0,0,0,-1,2029,512,0,0
812,512,0,0,0,0,0,0,0,0,0,-1,2036,512,0,0
-700,505,0,0,0,0,0,0,0,0,0,-1,524,519,0,0
-693,505,0,0,0,0,0,0,0,0,0,-1,531,519,0,0
-686,505,0,0,0,0,0,0,0,0,0,-1,538,519,0,0
-679,505,0,0,0,0,0,0,0,0,0,-1,545,519,0,0
-672,505,0,0,0,0,0,0,0,0,0,-1,552,519,0,0
-665,505,0,0,0,0,0,0,0,0,0,-1,559,519,0,0
-658,505,0,0,0,0,0,0,0,0,0,-1,566,519,0,0
-651,505,0,0,0,0,0,0,0,0,0,-1,573,519,0,0
-644,505,0,0,0,0,0,0,0,0,0,-1,580,519,0,0
-637,505,0,0,0,0,0,0,0,0,0,-1,587,519,0,0
-630,505,0,0,0,0,0,0,0,0,0,-1,594,519,0,0
-623,505,0,0,0,0,0,0,0,0,0,-1,601,519,0,0
-616,505,0,0,0,0,0,0,0,0,0,-1,608,519,0,0
-609,505,0,0,0,0,0,0,0,0,0,-1,615,519,0,0
-602,505,0,0,0,0,0,0,0,0,0,-1,622,519,0,0
-595,505,0,0,0,0,0,0,0,0,0,-1,629,519,0,0
-588,505,0,0,0,0,0,0,0,0,0,-1,636,519,0,0
-581,505,0,0,0,0,0,0,0,0,0,-1,643,519,0,0
-574,505,0,0,0,0,0,0,0,0,0,-1,650,519,0,0
-567,505,0,0,0,0,0,0,0,0,0,-1,657,519,0,0
-560,505,0,0,0,0,0,0,0,0,0,-1,664,519,0,0
-553,505,0,0,0,0,0,0,0,0,0,-1,671,519,0,0
-546,505,0,0,0,0,0,0,0,0,0,-1,678,519,0,0
-539,505,0,0,0,0,0,0,0,0,0,-1,685,519,0,0
-532,505,0,0,0,0,0,0,0,0,0,-1,692,519,0,0
-525,505,0,0,0,0,0,0,0,0,0,-1,699,519,0,0
-518,505,0,0,0,0,0,0,0,0,0,-1,706,519,0,0
-511,505,0,0,0,0,0,0,0,0,0,-1,713,519,0,0
-504,505,0,0,0,0,0,0,0,0,0,-1,720,519,0,0
-497,505,0,0,0,0,0,0,0,0,0,-1,727,519,0,0
-490,505,0,0,0,0,0,0,0,0,0,-1,734,519,0,0
-483,505,0,0,0,0,0,0,0,0,0,-1,741,519,0,0
-476,505,0,0,0,0,0,0,0,0,0,-1,748,519,0,0
-469,505,0,0,0,0,0,0,0,0,0,-1,755,519,0,0
-462,505,0,0,0,0,0,0,0,0,0,-1,762,519,0,0
-455,505,2.72137,-3.26379,0,0,0,0,0,0,0,-1,769,519,2.72135,3.26377
-448,505,2.51111,-3.94989,0,0,0,0,0,0,0,-1,776,519,2.51112,3.94986
-441,505,2.80212,-6.8902,0,0,0,0,0,0,0,-1,783,519,2.80209,6.89019
-434,505,-0.155212,-10.6374,0,0,0,0,0,0,0,-1,790,519,-0.155194,10.6374
-427,505,-0.474426,-10.4702,0,0,0,0,0,0,0,-1,797,519,-0.474433,10.4702
-420,505,-0.922546,-10.1928,0,0,0,0,0,0,0,-1,804,519,-0.92257,10.1928
-413,505,-3.33948,-13.6183,0,0,0,0,0,0,0,-1,811,519,-3.33949,13.6184
-406,505,-3.2439,-18.3408,0,0,0,0,0,0,0,-1,818,519,-3.24389,18.3408
-399,505,-13.6014,-52.9089,0,0,0,0,0,0,0,-1,825,519,-13.6014,52.9089
-392,505,-30.1122,-103.988,0,0,0,0,0,0,0,-1,832,519,-30.1122,103.988
-385,505,-37.2726,-109.647,0,0,0,0,0,0,0,-1,839,519,-37.2727,109.647
-378,505,-38.7885,-114.195,0.0269244,0.00367,0.0116966,0.0317897,-0.0011953,0.394187,0.0216026,0.0266653,846,519,-38.7885,114.195
-371,505,-40.2014,-118.813,0.0278102,0.00171728,0.0146895,0.0344105,-0.00488295,0.422284,0.0247292,0.0193887,853,519,-40.2014,118.813
-364,505,-41.4206,-123.277,0.0293215,0.000189013,0.0176886,0.0376696,-0.00815899,0.44095,0.0282285,0.0223919,860,519,-41.4206,123.277
-357,505,-42.7446,-127.681,0.031202,-0.0011185,0.0208508,0.0414219,-0.0113384,0.45573,0.0320693,0.0186805,867,519,-42.7446,127.681
-350,505,-43.9667,-131.903,0.0331003,-0.00218692,0.0244628,0.0456183,-0.0147049,0.472977,0.0363201,0.0175416,874,519,-43.9667,131.903
-343,505,-45.0954,-136.035,0.0352694,-0.00339044,0.0284353,0.0503228,-0.0184438,0.486883,0.0410999,0.0163574,881,519,-45.0954,136.035
-336,505,-46.1713,-140.067,0.0375686,-0.00470406,0.0327901,0.0554443,-0.0225798,0.499116,0.0463601,0.0257539,888,519,-46.1713,140.067
-329,505,-47.0259,-144.056,0.0400897,-0.00646762,0.03785,0.0612466,-0.0276245,0.509702,0.0525195,0.0433619,895,519,-47.0259,144.056
-322,505,-47.7023,-148.077,0,0,0,0,0,0,0,-1,902,519,-47.7023,148.077
-315,505,-48.6451,-152.033,0.0455859,-0.0111212,0.0489581,0.0738081,-0.0393434,0.522928,0.0663305,0.0354886,909,519,-48.6451,152.033
-308,505,-49.5478,-155.798,0.0484402,-0.0140269,0.0551843,0.0806168,-0.0462035,0.527881,0.0741128,0.0326199,916,519,-49.5478,155.798
-301,505,-50.1869,-159.123,0,0,0,0,0,0,0,-1,923,519,-50.1869,159.123
-294,505,-50.4903,-163.249,0,0,0,0,0,0,0,-1,930,519,-50.4903,163.249
-287,505,-18.8856,-88.2983,0,0,0,0,0,0,0,-1,937,519,-18.8856,88.2983
-280,505,-16.3037,-81.0037,0,0,0,0,0,0,0,-1,944,519,-16.3037,81.0037
-273,505,-0.0680542,-9.44867,0,0,0,0,0,0,0,-1,951,519,-0.0680462,9.44866
-266,505,-0.036377,-9.07922,0,0,0,0,0,0,0,-1,958,519,-0.0364055,9.0792
-259,505,0.10321,-6.69824,0,0,0,0,0,0,0,-1,965,519,0.103235,6.69826
-252,505,6.82312,-15.6972,0,0,0,0,0,0,0,-1,972,519,6.82314,15.6972
-245,505,4.26727,-12.9861,0,0,0,0,0,0,0,-1,979,519,4.2673,12.9861
-238,505,1.67432,-11.2307,0,0,0,0,0,0,0,-1,986,519,1.67429,11.2307
-231,505,-0.958435,-8.3075,0,0,0,0,0,0,0,-1,993,519,-0.958421,8.30751
-224,505,-1.46399,-33.4399,0,0,0,0,0,0,0,-1,1000,519,-1.46397,33.4399
-217,505,-6.34302,-1.65533,0,0,0,0,0,0,0,-1,1007,519,-6.34299,1.65535
-210,505,-3.06128,-0.396301,0,0,0,0,0,0,0,-1,1014,519,-3.06129,0.396294
-203,505,-4.26465,2.03607,0,0,0,0,0,0,0,-1,1021,519,-4.26462,-2.03606
-196,505,-5.47595,4.27295,0,0,0,0,0,0,0,-1,1028,519,-5.47597,-4.27292
-189,505,1.51526,5.56207,0,0,0,0,0,0,0,-1,1035,519,1.51523,-5.56209
-182,505,2.97815,7.5097,0,0,0,0,0,0,0,-1,1042,519,2.97812,-7.5097
-175,505,-2.38416,-2.17548,0,0,0,0,0,0,0,-1,1049,519,-2.38411,2.1755
-168,505,0,0,0,0,0,0,0,0,0,-1,1056,519,0,0
-161,505,0,0,0,0,0,0,0,0,0,-1,1063,519,0,0
-154,505,0,0,0,0,0,0,0,0,0,-1,1070,519,0,0
-147,505,0,0,0,0,0,0,0,0,0,-1,1077,519,0,0
-140,505,0,0,0,0,0,0,0,0,0,-1,1084,519,0,0
-133,505,0,0,0,0,0,0,0,0,0,-1,1091,519,0,0
-126,505,0,0,0,0,0,0,0,0,0,-1,1098,519,0,0
-119,505,0,0,0,0,0,0,0,0,0,-1,1105,519,0,0
-112,505,0,0,0,0,0,0,0,0,0,-1,1112,519,0,0
-105,505,0,0,0,0,0,0,0,0,0,-1,1119,519,0,0
-98,505,0,0,0,0,0,0,0,0,0,-1,1126,519,0,0
-91,505,0,0,0,0,0,0,0,0,0,-1,1133,519,0,0
-84,505,0,0,0,0,0,0,0,0,0,-1,1140,519,0,0
-77,505,0,0,0,0,0,0,0,0,0,-1,1147,519,0,0
-70,505,0,0,0,0,0,0,0,0,0,-1,1154,519,0,0
-63,505,0,0,0,0,0,0,0,0,0,-1,1161,519,0,0
-56,505,0,0,0,0,0,0,0,0,0,-1,1168,519,0,0
-49,505,0,0,0,0,0,0,0,0,0,-1,1175,519,0,0
-42,505,0,0,0,0,0,0,0,0,0,-1,1182,519,0,0
-35,505,0,0,0,0,0,0,0,0,0,-1,1189,519,0,0
-28,505,0,0,0,0,0,0,0,0,0,-1,1196,519,0,0
-21,505,0,0,0,0,0,0,0,0,0,-1,1203,519,0,0
-14,505,0,0,0,0,0,0,0,0,0,-1,1210,519,0,0
-7,505,0,0,0,0,0,0,0,0,0,-1,1217,519,0,0
0,505,0,0,0,0,0,0,0,0,0,-1,1224,519,0,0
7,505,0,0,0,0,0,0,0,0,0,-1,1231,519,0,0
14,505,0,0,0,0,0,0,0,0,0,-1,1238,519,0,0
21,505,0,0,0,0,0,0,0,0,0,-1,1245,519,0,0
28,505,0,0,0,0,0,0,0,0,0,-1,1252,519,0,0
35,505,0,0,0,0,0,0,0,0,0,-1,1259,519,0,0
42,505,0,0,0,0,0,0,0,0,0,-1,1266,519,0,0
49,505,0,0,0,0,0,0,0,0,0,-1,1273,519,0,0
56,505,0,0,0,0,0,0,0,0,0,-1,1280,519,0,0
63,505,0,0,0,0,0,0,0,0,0,-1,1287,519,0,0
70,505,0,0,0,0,0,0,0,0,0,-1,1294,519,0,0
77,505,0,0,0,0,0,0,0,0,0,-1,1301,519,0,0
84,505,0,0,0,0,0,0,0,0,0,-1,1308,519,0,0
91,505,0,0,0,0,0,0,0,0,0,-1,1315,519,0,0
98,505,0,0,0,0,0,0,0,0,0,-1,1322,519,0,0
105,505,0,0,0,0,0,0,0,0,0,-1,1329,519,0,0
112,505,0,0,0,0,0,0,0,0,0,-1,1336,519,0,0
119,505,0,0,0,0,0,0,0,0,0,-1,1343,519,0,0
126,505,0,0,0,0,0,0,0,0,0,-1,1350,519,0,0
133,505,0,0,0,0,0,0,0,0,0,-1,1357,519,0,0
140,505,0,0,0,0,0,0,0,0,0,-1,1364,519,0,0
147,505,0,0,0,0,0,0,0,0,0,-1,1371,519,0,0
154,505,0,0,0,0,0,0,0,0,0,-1,1378,519,0,0
161,505,0,0,0,0,0,0,0,0,0,-1,1385,519,0,0
168,505,0,0,0,0,0,0,0,0,0,-1,1392,519,0,0
175,505,0,0,0,0,0,0,0,0,0,-1,1399,519,0,0
182,505,0,0,0,0,0,0,0,0,0,-1,1406,519,0,0
189,505,0,0,0,0,0,0,0,0,0,-1,1413,519,0,0
196,505,0,0,0,0,0,0,0,0,0,-1,1420,519,0,0
203,505,0,0,0,0,0,0,0,0,0,-1,1427,519,0,0
210,505,0,0,0,0,0,0,0,0,0,-1,1434,519,0,0
217,505,0,0,0,0,0,0,0,0,0,-1,1441,519,0,0
224,505,0,0,0,0,0,0,0,0,0,-1,1448,519,0,0
231,505,0,0,0,0,0,0,0,0,0,-1,1455,519,0,0
238,505,0,0,0,0,0,0,0,0,0,-1,1462,519,0,0
245,505,0,0,0,0,0,0,0,0,0,-1,1469,519,0,0
252,505,0,0,0,0,0,0,0,0,0,-1,1476,519,0,0
259,505,0,0,0,0,0,0,0,0,0,-1,1483,519,0,0
266,505,0,0,0,0,0,0,0,0,0,-1,1490,519,0,0
273,505,0,0,0,0,0,0,0,0,0,-1,1497,519,0,0
280,505,0,0,0,0,0,0,0,0,0,-1,1504,519,0,0
287,505,4.39478,0.499512,0,0,0,0,0,0,0,-1,1511,519,4.39476,-0.499506
294,505,4.88867,0.0822754,0,0,0,0,0,0,0,-1,1518,519,4.88871,-0.0822748
301,505,4.82153,-0.0704346,0,0,0,0,0,0,0,-1,1525,519,4.82156,0.0704312
308,505,4.67761,-0.29187,0,0,0,0,0,0,0,-1,1532,519,4.67762,0.291845
315,505,8.44055,-6.54352,0,0,0,0,0,0,0,-1,1539,519,8.44059,6.54349
322,505,4.78955,-0.594116,0,0,0,0,0,0,0,-1,1546,519,4.78957,0.594096
329,505,5.16321,0.434631,0,0,0,0,0,0,0,-1,1553,519,5.16316,-0.434614
336,505,4.94495,-0.920471,0,0,0,0,0,0,0,-1,1560,519,4.945,0.920495
343,505,5.01855,-1.4823,0,0,0,0,0,0,0,-1,1567,519,5.01851,1.48227
350,505,5.33154,-1.77838,0,0,0,0,0,0,0,-1,1574,519,5.33152,1.77838
357,505,5.56567,-1.9425,0,0,0,0,0,0,0,-1,1581,519,5.56562,1.94248
364,505,5.85205,-2.6579,0,0,0,0,0,0,0,-1,1588,519,5.85211,2.65788
371,505,5.88477,-7.00922,0,0,0,0,0,0,0,-1,1595,519,5.88473,7.00924
378,505,5.44104,-7.10162,0,0,0,0,0,0,0,-1,1602,519,5.44099,7.10162
385,505,6.64661,-8.65015,0,0,0,0,0,0,0,-1,1609,519,6.64662,8.65014
392,505,6.34558,-8.3429,0,0,0,0,0,0,0,-1,1616,519,6.34554,8.34288
399,505,7.45898,-9.70386,0,0,0,0,0,0,0,-1,1623,519,7.45899,9.70388
406,505,7.08679,-9.4928,0,0,0,0,0,0,0,-1,1630,519,7.08678,9.49278
413,505,8.4032,-14.0308,0,0,0,0,0,0,0,-1,1637,519,8.4032,14.0308
420,505,24.9926,-49.3197,0,0,0,0,0,0,0,-1,1644,519,24.9925,49.3197
427,505,61.3105,-160.913,0,0,0,0,0,0,0,-1,1651,519,61.3106,160.913
434,505,61.0914,-157.257,0.0513445,0.00279123,-0.0476769,0.0805697,-0.026434,-0.549912,0.0643601,0.0412236,1658,519,61.0914,157.257
441,505,60.2932,-153.299,0.0469933,0.00278553,-0.0455176,0.0754902,-0.0257113,-0.559363,0.0607391,0.0183908,1665,519,60.2933,153.299
448,505,59.3496,-149.427,0.0433783,0.00340108,-0.0427605,0.0705914,-0.023812,-0.566761,0.0566905,0.0246849,1672,519,59.3497,149.427
455,505,58.5034,-145.476,0.0402962,0.00392784,-0.0395539,0.0656456,-0.0214216,-0.569939,0.0523852,0.0312648,1679,519,58.5035,145.476
462,505,57.5573,-141.463,0.0382106,0.00456176,-0.0358743,0.0610097,-0.0182374,-0.566135,0.0479233,0.0234132,1686,519,57.5572,141.463
469,505,56.5325,-137.275,0.0370464,0.00520158,-0.031926,0.0568002,-0.0145523,-0.554084,0.043536,0.0174844,1693,519,56.5324,137.275
476,505,55.4905,-133.184,0.036567,0.00593576,-0.0275885,0.0528059,-0.0103032,-0.532006,0.0390936,0.0234116,1700,519,55.4905,133.184
483,505,54.4885,-128.869,0,0,0,0,0,0,0,-1,1707,519,54.4886,128.869
490,505,53.3549,-124.58,0,0,0,0,0,0,0,-1,1714,519,53.3549,124.58
497,505,52.1033,-120.216,0.0377782,0.00885848,-0.0137052,0.0432412,0.00339545,-0.379306,0.0277649,0.0191558,1721,519,52.1033,120.216
504,505,50.8279,-115.831,0.0385779,0.0101966,-0.00927456,0.0413399,0.00743463,-0.28944,0.0254463,0.0182062,1728,519,50.8279,115.831
511,505,49.5272,-111.406,0.0394532,0.0117774,-0.00536173,0.0404557,0.010775,-0.184828,0.0241923,0.0299375,1735,519,49.5272,111.406
518,505,48.1554,-106.852,0,0,0,0,0,0,0,-1,1742,519,48.1553,106.852
525,505,22.7377,-30.1271,0,0,0,0,0,0,0,-1,1749,519,22.7376,30.1271
532,505,20.189,-24.8809,0,0,0,0,0,0,0,-1,1756,519,20.189,24.8808
539,505,13.9879,-13.9018,0,0,0,0,0,0,0,-1,1763,519,13.988,13.9018
546,505,7.94946,-6.64539,0,0,0,0,0,0,0,-1,1770,519,7.94947,6.64539
553,505,2.82837,0.162659,0,0,0,0,0,0,0,-1,1777,519,2.82841,-0.162672
560,505,3.66223,-0.479797,0,0,0,0,0,0,0,-1,1784,519,3.66219,0.47982
567,505,4.65271,-0.950256,0,0,0,0,0,0,0,-1,1791,519,4.65274,0.95028
574,505,5.54443,-1.19977,0,0,0,0,0,0,0,-1,1798,519,5.54443,1.19974
581,505,0,0,0,0,0,0,0,0,0,-1,1805,519,0,0
588,505,0,0,0,0,0,0,0,0,0,-1,1812,519,0,0
595,505,0,0,0,0,0,0,0,0,0,-1,1819,519,0,0
602,505,0,0,0,0,0,0,0,0,0,-1,1826,519,0,0
609,505,0,0,0,0,0,0,0,0,0,-1,1833,519,0,0
616,505,0,0,0,0,0,0,0,0,0,-1,1840,519,0,0
623,505,0,0,0,0,0,0,0,0,0,-1,1847,519,0,0
630,505,0,0,0,0,0,0,0,0,0,-1,1854,519,0,0
637,505,0,0,0,0,0,0,0,0,0,-1,1861,519,0,0
644,505,0,0,0,0,0,0,0,0,0,-1,1868,519,0,0
651,505,0,0,0,0,0,0,0,0,0,-1,1875,519,0,0
658,505,0,0,0,0,0,0,0,0,0,-1,1882,519,0,0
665,505,0,0,0,0,0,0,0,0,0,-1,1889,519,0,0
672,505,0,0,0,0,0,0,0,0,0,-1,1896,519,0,0
679,505,0,0,0,0,0,0,0,0,0,-1,1903,519,0,0
686,505,0,0,0,0,0,0,0,0,0,-1,1910,519,0,0
693,505,0,0,0,0,0,0,0,0,0,-1,1917,519,0,0
700,505,0,0,0,0,0,0,0,0,0,-1,1924,519,0,0
707,505,0,0,0,0,0,0,0,0,0,-1,1931,519,0,0
714,505,0,0,0,0,0,0,0,0,0,-1,1938,519,0,0
721,505,0,0,0,0,0,0,0,0,0,-1,1945,519,0,0
728,505,0,0,0,0,0,0,0,0,0,-1,1952,519,0,0
735,505,0,0,0,0,0,0,0,0,0,-1,1959,519,0,0
742,505,0,0,0,0,0,0,0,0,0,-1,1966,519,0,0
749,505,0,0,0,0,0,0,0,0,0,-1,1973,519,0,0
756,505,0,0,0,0,0,0,0,0,0,-1,1980,519,0,0
763,505,0,0,0,0,0,0,0,0,0,-1,1987,519,0,0
770,505,0,0,0,0,0,0,0,0,0,-1,1994,519,0,0
777,505,0,0,0,0,0,0,0,0,0,-1,2001,519,0,0
784,505,0,0,0,0,0,0,0,0,0,-1,2008,519,0,0
791,505,0,0,0,0,0,0,0,0,0,-1,2015,519,0,0
798,505,0,0,0,0,0,0,0,0,0,-1,2022,519,0,0
805,505,0,0,0,0,0,0,0,0,0,-1,2029,519,0,0
812,505,0,0,0,0,0,0,0,0,0,-1,2036,519,0,0
-700,498,0,0,0,0,0,0,0,0,0,-1,524,526,0,0
-693,498,0,0,0,0,0,0,0,0,0,-1,531,526,0,0
-686,498,0,0,0,0,0,0,0,0,0,-1,538,526,0,0
-679,498,0,0,0,0,0,0,0,0,0,-1,545,526,0,0
-672,498,0,0,0,0,0,0,0,0,0,-1,552,526,0,0
-665,498,0,0,0,0,0,0,0,0,0,-1,559,526,0,0
-658,498,0,0,0,0,0,0,0,0,0,-1,566,526,0,0
-651,498,0,0,0,0,0,0,0,0,0,-1,573,526,0,0
-644,498,0,0,0,0,0,0,0,0,0,-1,580,526,0,0
-637,498,0,0,0,0,0,0,0,0,0,-1,587,526,0,0
-630,498,0,0,0,0,0,0,0,0,0,-1,594,526,0,0
-623,498,0,0,0,0,0,0,0,0,0,-1,601,526,0,0
-616,498,0,0,0,0,0,0,0,0,0,-1,608,526,0,0
-609,498,0,0,0,0,0,0,0,0,0,-1,615,526,0,0
-602,498,0,0,0,0,0,0,0,0,0,-1,622,526,0,0
-595,498,0,0,0,0,0,0,0,0,0,-1,629,526,0,0
-588,498,0,0,0,0,0,0,0,0,0,-1,636,526,0,0
-581,498,0,0,0,0,0,0,0,0,0,-1,643,526,0,0
-574,498,0,0,0,0,0,0,0,0,0,-1,650,526,0,0
-567,498,0,0,0,0,0,0,0,0,0,-1,657,526,0,0
-560,498,0,0,0,0,0,0,0,0,0,-1,664,526,0,0
-553,498,0,0,0,0,0,0,0,0,0,-1,671,526,0,0
-546,498,0,0,0,0,0,0,0,0,0,-1,678,526,0,0
-539,498,0,0,0,0,0,0,0,0,0,-1,685,526,0,0
-532,498,0,0,0,0,0,0,0,0,0,-1,692,526,0,0
-525,498,0,0,0,0,0,0,0,0,0,-1,699,526,0,0
-518,498,0,0,0,0,0,0,0,0,0,-1,706,526,0,0
-511,498,0,0,0,0,0,0,0,0,0,-1,713,526,0,0
-504,498,0,0,0,0,0,0,0,0,0,-1,720,526,0,0
-497,498,0,0,0,0,0,0,0,0,0,-1,727,526,0,0
-490,498,0,0,0,0,0,0,0,0,0,-1,734,526,0,0
-483,498,0,0,0,0,0,0,0,0,0,-1,741,526,0,0
-476,498,0,0,0,0,0,0,0,0,0,-1,748,526,0,0
-469,498,0,0,0,0,0,0,0,0,0,-1,755,526,0,0
-462,498,6.81024,1.15515,0,0,0,0,0,0,0,-1,762,526,6.81026,-1.15514
-455,498,3.25757,-3.0592,0,0,0,0,0,0,0,-1,769,526,3.25754,3.05921
-448,498,3.05939,-3.74298,0,0,0,0,0,0,0,-1,776,526,3.05939,3.74296
-441,498,2.77191,-6.08209,0,0,0,0,0,0,0,-1,783,526,2.77189,6.08207
-434,498,2.10681,-6.95929,0,0,0,0,0,0,0,-1,790,526,2.10682,6.9593
-427,498,-0.368042,-10.7726,0,0,0,0,0,0,0,-1,797,526,-0.36807,10.7726
-420,498,-1.05035,-10.5142,0,0,0,0,0,0,0,-1,804,526,-1.05034,10.5142
-413,498,-4.52112,-18.8354,0,0,0,0,0,0,0,-1,811,526,-4.52111,18.8354
-406,498,-11.5986,-39.3751,0,0,0,0,0,0,0,-1,818,526,-11.5986,39.3751
-399,498,-23.0398,-78.6486,0,0,0,0,0,0,0,-1,825,526,-23.0398,78.6486
-392,498,-40.5906,-103.502,0,0,0,0,0,0,0,-1,832,526,-40.5906,103.502
-385,498,-41.91,-108.178,0.028963,0.00334626,0.0140847,0.0351923,-0.00288307,0.416412,0.0244792,0.0355708,839,526,-41.9101,108.178
-378,498,-43.2767,-112.783,0.0294925,0.00108671,0.0167037,0.0372153,-0.00663605,0.433068,0.0272925,0.0152853,846,526,-43.2767,112.783
-371,498,-44.6323,-117.248,0.0304577,-0.000693745,0.0193055,0.0396874,-0.00992341,0.445961,0.0303124,0.0207544,853,526,-44.6323,117.248
-364,498,-45.8959,-121.676,0.0320659,-0.00219869,0.0221042,0.0428998,-0.0130326,0.455721,0.0337925,0.0218495,860,526,-45.8959,121.676
-357,498,-47.0945,-126.062,0.0340024,-0.00342787,0.0252004,0.0466771,-0.0161025,0.466007,0.0376514,0.0168172,867,526,-47.0945,126.062
-350,498,-48.2643,-130.352,0.0359743,-0.0044422,0.028869,0.0510051,-0.019473,0.480036,0.0420261,0.0178288,874,526,-48.2643,130.352
-343,498,-49.455,-134.555,0.0382515,-0.00563,0.0328964,0.0558527,-0.0232312,0.491293,0.0469361,0.0216768,881,526,-49.455,134.555
-336,498,-50.5618,-138.771,0.0405726,-0.00703414,0.0374052,0.061106,-0.0275676,0.502033,0.0524021,0.0280669,888,526,-50.5618,138.771
-329,498,-51.388,-142.835,0.0431719,-0.00876388,0.042586,0.0670829,-0.0326749,0.51161,0.0587261,0.0422635,895,526,-51.388,142.835
-322,498,-52.187,-146.871,0,0,0,0,0,0,0,-1,902,526,-52.187,146.871
-315,498,-52.9882,-150.52,0,0,0,0,0,0,0,-1,909,526,-52.9882,150.52
-308,498,-53.7692,-154.343,0,0,0,0,0,0,0,-1,916,526,-53.7692,154.343
-301,498,-41.2611,-152.612,0,0,0,0,0,0,0,-1,923,526,-41.2611,152.612
-294,498,-17.9421,-77.6995,0,0,0,0,0,0,0,-1,930,526,-17.9421,77.6995
-287,498,-0.91394,-13.4327,0,0,0,0,0,0,0,-1,937,526,-0.913935,13.4327
-280,498,-0.341614,-8.66608,0,0,0,0,0,0,0,-1,944,526,-0.341589,8.66606
-273,498,-0.988892,-8.62921,0,0,0,0,0,0,0,-1,951,526,-0.988906,8.62922
-266,498,0.362488,-6.33545,0,0,0,0,0,0,0,-1,958,526,0.362478,6.33547
-259,498,10.9454,-17.3615,0,0,0,0,0,0,0,-1,965,526,10.9454,17.3614
-252,498,8.56586,-14.6886,0,0,0,0,0,0,0,-1,972,526,8.56584,14.6886
-245,498,5.97382,-11.928,0,0,0,0,0,0,0,-1,979,526,5.97381,11.928
-238,498,2.24841,-13.8145,0,0,0,0,0,0,0,-1,986,526,2.24838,13.8145
-231,498,0.665894,-10.4898,0,0,0,0,0,0,0,-1,993,526,0.665863,10.4898
-224,498,-2.11243,-4.76312,0,0,0,0,0,0,0,-1,1000,526,-2.11245,4.76314
-217,498,-3.82239,-1.42841,0,0,0,0,0,0,0,-1,1007,526,-3.82241,1.42843
-210,498,-1.80591,-0.358215,0,0,0,0,0,0,0,-1,1014,526,-1.8059,0.3582
-203,498,-3.17316,1.06641,0,0,0,0,0,0,0,-1,1021,526,-3.17313,-1.0664
-196,498,-0.103271,5.40527,0,0,0,0,0,0,0,-1,1028,526,-0.103285,-5.40528
-189,498,3.00256,6.47137,0,0,0,0,0,0,0,-1,1035,526,3.00256,-6.47139
-182,498,0,0,0,0,0,0,0,0,0,-1,1042,526,0,0
-175,498,0,0,0,0,0,0,0,0,0,-1,1049,526,0,0
-168,498,0,0,0,0,0,0,0,0,0,-1,1056,526,0,0
-161,498,0,0,0,0,0,0,0,0,0,-1,1063,526,0,0
-154,498,0,0,0,0,0,0,0,0,0,-1,1070,526,0,0
-147,498,0,0,0,0,0,0,0,0,0,-1,1077,526,0,0
-140,498,0,0,0,0,0,0,0,0,0,-1,1084,526,0,0
-133,498,0,0,0,0,0,0,0,0,0,-1,1091,526,0,0
-126,498,0,0,0,0,0,0,0,0,0,-1,1098,526,0,0
-119,498,0,0,0,0,0,0,0,0,0,-1,1105,526,0,0
-112,498,0,0,0,0,0,0,0,0,0,-1,1112,526,0,0
-105,498,0,0,0,0,0,0,0,0,0,-1,1119,526,0,0
-98,498,0,0,0,0,0,0,0,0,0,-1,1126,526,0,0
-91,498,0,0,0,0,0,0,0,0,0,-1,1133,526,0,0
-84,498,0,0,0,0,0,0,0,0,0,-1,1140,526,0,0
-77,498,0,0,0,0,0,0,0,0,0,-1,1147,526,0,0
-70,498,0,0,0,0,0,0,0,0,0,-1,1154,526,0,0
-63,498,0,0,0,0,0,0,0,0,0,-1,1161,526,0,0
-56,498,0,0,0,0,0,0,0,0,0,-1,1168,526,0,0
-49,498,0,0,0,0,0,0,0,0,0,-1,1175,526,0,0
-42,498,0,0,0,0,0,0,0,0,0,-1,1182,526,0,0
-35,498,0,0,0,0,0,0,0,0,0,-1,1189,526,0,0
-28,498,0,0,0,0,0,0,0,0,0,-1,1196,526,0,0
-21,498,0,0,0,0,0,0,0,0,0,-1,1203,526,0,0
-14,498,0,0,0,0,0,0,0,0,0,-1,1210,526,0,0
-7,498,0,0,0,0,0,0,0,0,0,-1,1217,526,0,0
0,498,0,0,0,0,0,0,0,0,0,-1,1224,526,0,0
7,498,0,0,0,0,0,0,0,0,0,-1,1231,526,0,0
14,498,0,0,0,0,0,0,0,0,0,-1,1238,526,0,0
21,498,0,0,0,0,0,0,0,0,0,-1,1245,526,0,0
28,498,0,0,0,0,0,0,0,0,0,-1,1252,526,0,0
35,498,0,0,0,0,0,0,0,0,0,-1,1259,526,0,0
42,498,0,0,0,0,0,0,0,0,0,-1,1266,526,0,0
49,498,0,0,0,0,0,0,0,0,0,-1,1273,526,0,0
56,498,0,0,0,0,0,0,0,0,0,-1,1280,526,0,0
63,498,0,0,0,0,0,0,0,0,0,-1,1287,526,0,0
70,498,0,0,0,0,0,0,0,0,0,-1,1294,526,0,0
77,498,0,0,0,0,0,0,0,0,0,-1,1301,526,0,0
84,498,0,0,0,0,0,0,0,0,0,-1,1308,526,0,0
91,498,0,0,0,0,0,0,0,0,0,-1,1315,526,0,0
98,498,0,0,0,0,0,0,0,0,0,-1,1322,526,0,0
105,498,0,0,0,0,0,0,0,0,0,-1,1329,526,0,0
112,498,0,0,0,0,0,0,0,0,0,-1,1336,526,0,0
119,498,0,0,0,0,0,0,0,0,0,-1,1343,526,0,0
126,498,0,0,0,0,0,0,0,0,0,-1,1350,526,0,0
133,498,0,0,0,0,0,0,0,0,0,-1,1357,526,0,0
140,498,0,0,0,0,0,0,0,0,0,-1,1364,526,0,0
147,498,0,0,0,0,0,0,0,0,0,-1,1371,526,0,0
154,498,0,0,0,0,0,0,0,0,0,-1,1378,526,0,0
161,498,0,0,0,0,0,0,0,0,0,-1,1385,526,0,0
168,498,0,0,0,0,0,0,0,0,0,-1,1392,526,0,0
175,498,0,0,0,0,0,0,0,0,0,-1,1399,526,0,0
182,498,0,0,0,0,0,0,0,0,0,-1,1406,526,0,0
189,498,0,0,0,0,0,0,0,0,0,-1,1413,526,0,0
196,498,0,0,0,0,0,0,0,0,0,-1,1420,526,0,0
203,498,0,0,0,0,0,0,0,0,0,-1,1427,526,0,0
210,498,0,0,0,0,0,0,0,0,0,-1,1434,526,0,0
217,498,0,0,0,0,0,0,0,0,0,-1,1441,526,0,0
224,498,0,0,0,0,0,0,0,0,0,-1,1448,526,0,0
231,498,0,0,0,0,0,0,0,0,0,-1,1455,526,0,0
238,498,0,0,0,0,0,0,0,0,0,-1,1462,526,0,0
245,498,0,0,0,0,0,0,0,0,0,-1,1469,526,0,0
252,498,0,0,0,0,0,0,0,0,0,-1,1476,526,0,0
259,498,0,0,0,0,0,0,0,0,0,-1,1483,526,0,0
266,498,0,0,0,0,0,0,0,0,0,-1,1490,526,0,0
273,498,0,0,0,0,0,0,0,0,0,-1,1497,526,0,0
280,498,0,0,0,0,0,0,0,0,0,-1,1504,526,0,0
287,498,0,0,0,0,0,0,0,0,0,-1,1511,526,0,0
294,498,0,0,0,0,0,0,0,0,0,-1,1518,526,0,0
301,498,0,0,0,0,0,0,0,0,0,-1,1525,526,0,0
308,498,4.77942,-0.293884,0,0,0,0,0,0,0,-1,1532,526,4.77939,0.293899
315,498,4.56091,-0.564148,0,0,0,0,0,0,0,-1,1539,526,4.56097,0.564142
322,498,4.52344,-0.447266,0,0,0,0,0,0,0,-1,1546,526,4.52341,0.447295
329,498,4.63232,-0.156982,0,0,0,0,0,0,0,-1,1553,526,4.63238,0.156991
336,498,5.22644,0.0925903,0,0,0,0,0,0,0,-1,1560,526,5.22648,-0.0926188
343,498,6.22607,-1.67615,0,0,0,0,0,0,0,-1,1567,526,6.22605,1.67617
350,498,6.19373,-1.59906,0,0,0,0,0,0,0,-1,1574,526,6.19367,1.59906
357,498,6.21472,-1.58929,0,0,0,0,0,0,0,-1,1581,526,6.21476,1.58927
364,498,5.73547,-1.2019,0,0,0,0,0,0,0,-1,1588,526,5.73547,1.20192
371,498,3.27087,-4.55334,0,0,0,0,0,0,0,-1,1595,526,3.27089,4.55332
378,498,8.42944,-4.70624,0,0,0,0,0,0,0,-1,1602,526,8.42942,4.70624
385,498,4.7793,-5.15314,0,0,0,0,0,0,0,-1,1609,526,4.77935,5.15311
392,498,9.12439,-8.57953,0,0,0,0,0,0,0,-1,1616,526,9.12443,8.57955
399,498,7.98938,-9.46021,0,0,0,0,0,0,0,-1,1623,526,7.98936,9.4602
406,498,7.58081,-9.26819,0,0,0,0,0,0,0,-1,1630,526,7.58085,9.26817
413,498,7.17236,-9.07611,0,0,0,0,0,0,0,-1,1637,526,7.17234,9.07614
420,498,11.4314,-16.1147,0,0,0,0,0,0,0,-1,1644,526,11.4313,16.1147
427,498,24.2933,-44.8103,0,0,0,0,0,0,0,-1,1651,526,24.2933,44.8103
434,498,65.105,-156.142,0,0,0,0,0,0,0,-1,1658,526,65.105,156.142
441,498,64.3767,-152,0,0,0,0,0,0,0,-1,1665,526,64.3767,152
448,498,63.6781,-147.934,0.0444095,0.0020196,-0.0500571,0.0775739,-0.0311448,-0.585134,0.0646486,0.0309788,1672,526,63.6781,147.934
455,498,62.8611,-143.986,0.0407667,0.00215695,-0.047012,0.0722831,-0.0293595,-0.590577,0.0604025,0.0247181,1679,526,62.861,143.986
462,498,61.9653,-139.955,0.0383929,0.00258232,-0.0432409,0.067289,-0.0263138,-0.589105,0.0557409,0.0239698,1686,526,61.9653,139.955
469,498,61.0217,-135.782,0.0370589,0.00303425,-0.0392086,0.0627869,-0.0226938,-0.580709,0.0511298,0.0196701,1693,526,61.0218,135.782
476,498,59.8119,-131.86,0.0365307,0.00356698,-0.0347715,0.0585288,-0.0184312,-0.56408,0.0463996,0.0226958,1700,526,59.8119,131.86
483,498,58.542,-128.085,0,0,0,0,0,0,0,-1,1707,526,58.542,128.085
490,498,57.3651,-123.46,0,0,0,0,0,0,0,-1,1714,526,57.3651,123.46
497,498,56.454,-118.748,0.0380227,0.00580293,-0.0208602,0.0482695,-0.00444386,-0.456594,0.0337586,0.028913,1721,526,56.4539,118.748
504,498,55.3127,-114.262,0.0390592,0.00681029,-0.0166039,0.0460797,-0.000210159,-0.400023,0.0307901,0.0219005,1728,526,55.3128,114.262
511,498,54.0201,-109.825,0.040137,0.00803067,-0.0129969,0.0447387,0.00342899,-0.340288,0.028751,0.0243058,1735,526,54.0202,109.825
518,498,52.76,-105.387,0,0,0,0,0,0,0,-1,1742,526,52.76,105.387
525,498,51.3452,-100.963,0,0,0,0,0,0,0,-1,1749,526,51.3452,100.963
532,498,26.9988,-39.1529,0,0,0,0,0,0,0,-1,1756,526,26.9987,39.1529
539,498,21.764,-25.5663,0,0,0,0,0,0,0,-1,1763,526,21.764,25.5663
546,498,10.2014,-8.47589,0,0,0,0,0,0,0,-1,1770,526,10.2014,8.47589
553,498,5.93958,-1.71448,0,0,0,0,0,0,0,-1,1777,526,5.93956,1.71447
560,498,3.69385,-0.615112,0,0,0,0,0,0,0,-1,1784,526,3.69381,0.615118
567,498,5.12695,-0.581604,0,0,0,0,0,0,0,-1,1791,526,5.12699,0.58159
574,498,3.88,0.0286255,0,0,0,0,0,0,0,-1,1798,526,3.87999,-0.0286535
581,498,10.8722,2.58551,0,0,0,0,0,0,0,-1,1805,526,10.8723,-2.58551
588,498,0,0,0,0,0,0,0,0,0,-1,1812,526,0,0
595,498,0,0,0,0,0,0,0,0,0,-1,1819,526,0,0
602,498,0,0,0,0,0,0,0,0,0,-1,1826,526,0,0
609,498,0,0,0,0,0,0,0,0,0,-1,1833,526,0,0
616,498,0,0,0,0,0,0,0,0,0,-1,1840,526,0,0
623,498,0,0,0,0,0,0,0,0,0,-1,1847,526,0,0
630,498,0,0,0,0,0,0,0,0,0,-1,1854,526,0,0
637,498,0,0,0,0,0,0,0,0,0,-1,1861,526,0,0
644,498,0,0,0,0,0,0,0,0,0,-1,1868,526,0,0
651,498,0,0,0,0,0,0,0,0,0,-1,1875,526,0,0
658,498,0,0,0,0,0,0,0,0,0,-1,1882,526,0,0
665,498,0,0,0,0,0,0,0,0,0,-1,1889,526,0,0
672,498,0,0,0,0,0,0,0,0,0,-1,1896,526,0,0
679,498,0,0,0,0,0,0,0,0,0,-1,1903,526,0,0
686,498,0,0,0,0,0,0,0,0,0,-1,1910,526,0,0
693,498,0,0,0,0,0,0,0,0,0,-1,1917,526,0,0
700,498,0,0,0,0,0,0,0,0,0,-1,1924,526,0,0
707,498,0,0,0,0,0,0,0,0,0,-1,1931,526,0,0
714,498,0,0,0,0,0,0,0,0,0,-1,1938,526,0,0
721,498,0,0,0,0,0,0,0,0,0,-1,1945,526,0,0
728,498,0,0,0,0,0,0,0,0,0,-1,1952,526,0,0
735,498,0,0,0,0,0,0,0,0,0,-1,1959,526,0,0
742,498,0,0,0,0,0,0,0,0,0,-1,1966,526,0,0
749,498,0,0,0,0,0,0,0,0,0,-1,1973,526,0,0
756,498,0,0,0,0,0,0,0,0,0,-1,1980,526,0,0
763,498,0,0,0,0,0,0,0,0,0,-1,1987,526,0,0
770,498,0,0,0,0,0,0,0,0,0,-1,1994,526,0,0
777,498,0,0,0,0,0,0,0,0,0,-1,2001,526,0,0
784,498,0,0,0,0,0,0,0,0,0,-1,2008,526,0,0
791,498,0,0,0,0,0,0,0,0,0,-1,2015,526,0,0
798,498,0,0,0,0,0,0,0,0,0,-1,2022,526,0,0
805,498,0,0,0,0,0,0,0,0,0,-1,2029,526,0,0
812,498,0,0,0,0,0,0,0,0,0,-1,2036,526,0,0
-700,491,0,0,0,0,0,0,0,0,0,-1,524,533,0,0
-693,491,0,0,0,0,0,0,0,0,0,-1,531,533,0,0
-686,491,0,0,0,0,0,0,0,0,0,-1,538,533,0,0
-679,491,0,0,0,0,0,0,0,0,0,-1,545,533,0,0
-672,491,0,0,0,0,0,0,0,0,0,-1,552,533,0,0
-665,491,0,0,0,0,0,0,0,0,0,-1,559,533,0,0
-658,491,0,0,0,0,0,0,0,0,0,-1,566,533,0,0
-651,491,0,0,0,0,0,0,0,0,0,-1,573,533,0,0
-644,491,0,0,0,0,0,0,0,0,0,-1,580,533,0,0
-637,491,0,0,0,0,0,0,0,0,0,-1,587,533,0,0
-630,491,0,0,0,0,0,0,0,0,0,-1,594,533,0,0
-623,491,0,0,0,0,0,0,0,0,0,-1,601,533,0,0
-616,491,0,0,0,0,0,0,0,0,0,-1,608,533,0,0
-609,491,0,0,0,0,0,0,0,0,0,-1,615,533,0,0
-602,491,0,0,0,0,0,0,0,0,0,-1,622,533,0,0
-595,491,0,0,0,0,0,0,0,0,0,-1,629,533,0,0
-588,491,0,0,0,0,0,0,0,0,0,-1,636,533,0,0
-581,491,0,0,0,0,0,0,0,0,0,-1,643,533,0,0
-574,491,0,0,0,0,0,0,0,0,0,-1,650,533,0,0
-567,491,0,0,0,0,0,0,0,0,0,-1,657,533,0,0
-560,491,0,0,0,0,0,0,0,0,0,-1,664,533,0,0
-553,491,0,0,0,0,0,0,0,0,0,-1,671,533,0,0
-546,491,0,0,0,0,0,0,0,0,0,-1,678,533,0,0
-539,491,0,0,0,0,0,0,0,0,0,-1,685,533,0,0
-532,491,0,0,0,0,0,0,0,0,0,-1,692,533,0,0
-525,491,0,0,0,0,0,0,0,0,0,-1,699,533,0,0
-518,491,0,0,0,0,0,0,0,0,0,-1,706,533,0,0
-511,491,0,0,0,0,0,0,0,0,0,-1,713,533,0,0
-504,491,0,0,0,0,0,0,0,0,0,-1,720,533,0,0
-497,491,0,0,0,0,0,0,0,0,0,-1,727,533,0,0
-490,491,0,0,0,0,0,0,0,0,0,-1,734,533,0,0
-483,491,0,0,0,0,0,0,0,0,0,-1,741,533,0,0
-476,491,0,0,0,0,0,0,0,0,0,-1,748,533,0,0
-469,491,-5.85913,4.55011,0,0,0,0,0,0,0,-1,755,533,-5.8591,-4.55009
-462,491,-9.93713,4.90381,0,0,0,0,0,0,0,-1,762,533,-9.93716,-4.9038
-455,491,1.9494,-0.27887,0,0,0,0,0,0,0,-1,769,533,1.94941,0.27885
-448,491,2.68909,-1.8999,0,0,0,0,0,0,0,-1,776,533,2.6891,1.89988
-441,491,3.46069,-3.51855,0,0,0,0,0,0,0,-1,783,533,3.46071,3.51854
-434,491,2.67145,-7.44061,0,0,0,0,0,0,0,-1,790,533,2.67146,7.44061
-427,491,2.27136,-8.34546,0,0,0,0,0,0,0,-1,797,533,2.27136,8.34546
-420,491,-6.41321,-22.5922,0,0,0,0,0,0,0,-1,804,533,-6.41323,22.5922
-413,491,-12.8848,-37.5042,0,0,0,0,0,0,0,-1,811,533,-12.8847,37.5042
-406,491,-26.6932,-80.2836,0,0,0,0,0,0,0,-1,818,533,-26.6932,80.2835
-399,491,-43.749,-98.2497,0,0,0,0,0,0,0,-1,825,533,-43.749,98.2497
-392,491,-45.0804,-102.586,0.0306564,0.00373745,0.0167115,0.0386546,-0.00426074,0.446385,0.027301,0.0406533,832,533,-45.0805,102.585
-385,491,-46.3945,-106.815,0.0310757,0.0011626,0.0188764,0.0402027,-0.00796442,0.450372,0.0298134,0.0163787,839,533,-46.3945,106.815
-378,491,-47.7673,-111.193,0.0316811,-0.00100186,0.0212363,0.0421356,-0.0114563,0.457463,0.0325875,0.0192131,846,533,-47.7673,111.193
-371,491,-49.062,-115.624,0.0327221,-0.00274824,0.0236375,0.044538,-0.0145641,0.463552,0.0355553,0.0216459,853,533,-49.062,115.624
-364,491,-50.3446,-120.003,0.0344256,-0.00418477,0.0263008,0.047746,-0.0175051,0.468802,0.038998,0.0206758,860,533,-50.3446,120.004
-357,491,-51.4559,-124.309,0.0364401,-0.00532352,0.0293297,0.0515622,-0.0204456,0.476042,0.0428481,0.0172183,867,533,-51.4559,124.309
-350,491,-52.539,-128.604,0.0385572,-0.00630217,0.0329679,0.0560019,-0.023747,0.486691,0.0472817,0.0192332,874,533,-52.539,128.604
-343,491,-53.653,-132.846,0.0410369,-0.00747737,0.0369623,0.0609909,-0.0274313,0.495014,0.0522619,0.0331415,881,533,-53.653,132.846
-336,491,-54.7448,-137.111,0.0434648,-0.00895835,0.0415248,0.0663587,-0.0318523,0.503866,0.057857,0.0352969,888,533,-54.7448,137.111
-329,491,-55.6389,-141.13,0.0461911,-0.0106439,0.0466913,0.0724329,-0.0368857,0.512029,0.0642177,0.0386379,895,533,-55.6389,141.13
-322,491,-56.6099,-145.078,0,0,0,0,0,0,0,-1,902,533,-56.6099,145.078
-315,491,-57.4386,-149.103,0,0,0,0,0,0,0,-1,909,533,-57.4386,149.103
-308,491,-33.4544,-112.486,0,0,0,0,0,0,0,-1,916,533,-33.4544,112.486
-301,491,-6.54926,-39.0012,0,0,0,0,0,0,0,-1,923,533,-6.54927,39.0012
-294,491,-0.777283,-8.60913,0,0,0,0,0,0,0,-1,930,533,-0.777288,8.6091
-287,491,-0.26123,-8.69055,0,0,0,0,0,0,0,-1,937,533,-0.261204,8.69053
-280,491,0.2948,-5.99219,0,0,0,0,0,0,0,-1,944,533,0.294811,5.99221
-273,491,0.369995,-5.33691,0,0,0,0,0,0,0,-1,951,533,0.369985,5.33693
-266,491,1.1167,-5.0321,0,0,0,0,0,0,0,-1,958,533,1.11668,5.0321
-259,491,12.0862,-16.9615,0,0,0,0,0,0,0,-1,965,533,12.0862,16.9615
-252,491,9.72443,-13.8417,0,0,0,0,0,0,0,-1,972,533,9.72444,13.8418
-245,491,5.27258,-14.3619,0,0,0,0,0,0,0,-1,979,533,5.27255,14.3619
-238,491,3.65381,-11.1472,0,0,0,0,0,0,0,-1,986,533,3.6538,11.1472
-231,491,2.17719,-7.86835,0,0,0,0,0,0,0,-1,993,533,2.17719,7.86832
-224,491,0.554626,-4.61725,0,0,0,0,0,0,0,-1,1000,533,0.554608,4.61727
-217,491,-2.92743,-1.0766,0,0,0,0,0,0,0,-1,1007,533,-2.92743,1.07659
-210,491,-0.92395,0.374512,0,0,0,0,0,0,0,-1,1014,533,-0.923959,-0.374531
-203,491,0.417419,4.77161,0,0,0,0,0,0,0,-1,1021,533,0.417446,-4.77162
-196,491,0,0,0,0,0,0,0,0,0,-1,1028,533,0,0
-189,491,0,0,0,0,0,0,0,0,0,-1,1035,533,0,0
-182,491,0,0,0,0,0,0,0,0,0,-1,1042,533,0,0
-175,491,0,0,0,0,0,0,0,0,0,-1,1049,533,0,0
-168,491,0,0,0,0,0,0,0,0,0,-1,1056,533,0,0
-161,491,0,0,0,0,0,0,0,0,0,-1,1063,533,0,0
-154,491,0,0,0,0,0,0,0,0,0,-1,1070,533,0,0
-147,491,0,0,0,0,0,0,0,0,0,-1,1077,533,0,0
-140,491,0,0,0,0,0,0,0,0,0,-1,1084,533,0,0
-133,491,0,0,0,0,0,0,0,0,0,-1,1091,533,0,0
-126,491,0,0,0,0,0,0,0,0,0,-1,1098,533,0,0
-119,491,0,0,0,0,0,0,0,0,0,-1,1105,533,0,0
-112,491,0,0,0,0,0,0,0,0,0,-1,1112,533,0,0
-105,491,0,0,0,0,0,0,0,0,0,-1,1119,533,0,0
-98,491,0,0,0,0,0,0,0,0,0,-1,1126,533,0,0
-91,491,0,0,0,0,0,0,0,0,0,-1,1133,533,0,0
-84,491,0,0,0,0,0,0,0,0,0,-1,1140,533,0,0
-77,491,0,0,0,0,0,0,0,0,0,-1,1147,533,0,0
-70,491,0,0,0,0,0,0,0,0,0,-1,1154,533,0,0
-63,491,0,0,0,0,0,0,0,0,0,-1,1161,533,0,0
-56,491,0,0,0,0,0,0,0,0,0,-1,1168,533,0,0
-49,491,0,0,0,0,0,0,0,0,0,-1,1175,533,0,0
-42,491,0,0,0,0,0,0,0,0,0,-1,1182,533,0,0
-35,491,0,0,0,0,0,0,0,0,0,-1,1189,533,0,0
-28,491,0,0,0,0,0,0,0,0,0,-1,1196,533,0,0
-21,491,0,0,0,0,0,0,0,0,0,-1,1203,533,0,0
-14,491,0,0,0,0,0,0,0,0,0,-1,1210,533,0,0
-7,491,0,0,0,0,0,0,0,0,0,-1,1217,533,0,0
0,491,0,0,0,0,0,0,0,0,0,-1,1224,533,0,0
7,491,0,0,0,0,0,0,0,0,0,-1,1231,533,0,0
14,491,0,0,0,0,0,0,0,0,0,-1,1238,533,0,0
21,491,0,0,0,0,0,0,0,0,0,-1,1245,533,0,0
28,491,0,0,0,0,0,0,0,0,0,-1,1252,533,0,0
35,491,0,0,0,0,0,0,0,0,0,-1,1259,533,0,0
42,491,0,0,0,0,0,0,0,0,0,-1,1266,533,0,0
49,491,0,0,0,0,0,0,0,0,0,-1,1273,533,0,0
56,491,0,0,0,0,0,0,0,0,0,-1,1280,533,0,0
63,491,0,0,0,0,0,0,0,0,0,-1,1287,533,0,0
70,491,0,0,0,0,0,0,0,0,0,-1,1294,533,0,0
77,491,0,0,0,0,0,0,0,0,0,-1,1301,533,0,0
84,491,0,0,0,0,0,0,0,0,0,-1,1308,533,0,0
91,491,0,0,0,0,0,0,0,0,0,-1,1315,533,0,0
98,491,0,0,0,0,0,0,0,0,0,-1,1322,533,0,0
105,491,0,0,0,0,0,0,0,0,0,-1,1329,533,0,0
112,491,0,0,0,0,0,0,0,0,0,-1,1336,533,0,0
119,491,0,0,0,0,0,0,0,0,0,-1,1343,533,0,0
126,491,0,0,0,0,0,0,0,0,0,-1,1350,533,0,0
133,491,0,0,0,0,0,0,0,0,0,-1,1357,533,0,0
140,491,0,0,0,0,0,0,0,0,0,-1,1364,533,0,0
147,491,0,0,0,0,0,0,0,0,0,-1,1371,533,0,0
154,491,0,0,0,0,0,0,0,0,0,-1,1378,533,0,0
161,491,0,0,0,0,0,0,0,0,0,-1,1385,533,0,0
168,491,0,0,0,0,0,0,0,0,0,-1,1392,533,0,0
175,491,0,0,0,0,0,0,0,0,0,-1,1399,533,0,0
182,491,0,0,0,0,0,0,0,0,0,-1,1406,533,0,0
189,491,0,0,0,0,0,0,0,0,0,-1,1413,533,0,0
196,491,0,0,0,0,0,0,0,0,0,-1,1420,533,0,0
203,491,0,0,0,0,0,0,0,0,0,-1,1427,533,0,0
210,491,0,0,0,0,0,0,0,0,0,-1,1434,533,0,0
217,491,0,0,0,0,0,0,0,0,0,-1,1441,533,0,0
224,491,0,0,0,0,0,0,0,0,0,-1,1448,533,0,0
231,491,0,0,0,0,0,0,0,0,0,-1,1455,533,0,0
238,491,0,0,0,0,0,0,0,0,0,-1,1462,533,0,0
245,491,0,0,0,0,0,0,0,0,0,-1,1469,533,0,0
252,491,0,0,0,0,0,0,0,0,0,-1,1476,533,0,0
259,491,0,0,0,0,0,0,0,0,0,-1,1483,533,0,0
266,491,0,0,0,0,0,0,0,0,0,-1,1490,533,0,0
273,491,0,0,0,0,0,0,0,0,0,-1,1497,533,0,0
280,491,0,0,0,0,0,0,0,0,0,-1,1504,533,0,0
287,491,0,0,0,0,0,0,0,0,0,-1,1511,533,0,0
294,491,0,0,0,0,0,0,0,0,0,-1,1518,533,0,0
301,491,0,0,0,0,0,0,0,0,0,-1,1525,533,0,0
308,491,0,0,0,0,0,0,0,0,0,-1,1532,533,0,0
315,491,0,0,0,0,0,0,0,0,0,-1,1539,533,0,0
322,491,4.26331,-0.734314,0,0,0,0,0,0,0,-1,1546,533,4.26326,0.734324
329,491,4.25354,-0.783752,0,0,0,0,0,0,0,-1,1553,533,4.25359,0.783734
336,491,4.81604,-0.722107,0,0,0,0,0,0,0,-1,1560,533,4.81605,0.722115
343,491,6.14478,-1.44281,0,0,0,0,0,0,0,-1,1567,533,6.14474,1.44281
350,491,6.36353,-1.30792,0,0,0,0,0,0,0,-1,1574,533,6.36352,1.3079
357,491,6.69482,-1.06018,0,0,0,0,0,0,0,-1,1581,533,6.69489,1.06018
364,491,8.01086,-1.69604,0,0,0,0,0,0,0,-1,1588,533,8.01087,1.69607
371,491,8.2135,-0.539307,0,0,0,0,0,0,0,-1,1595,533,8.21348,0.53929
378,491,13.3589,2.17267,0,0,0,0,0,0,0,-1,1602,533,13.3589,-2.17264
385,491,8.08228,-4.95471,0,0,0,0,0,0,0,-1,1609,533,8.08227,4.95474
392,491,2.88721,-4.30988,0,0,0,0,0,0,0,-1,1616,533,2.88716,4.30986
399,491,8.95862,-8.55518,0,0,0,0,0,0,0,-1,1623,533,8.95864,8.55516
406,491,8.16541,-9.00806,0,0,0,0,0,0,0,-1,1630,533,8.16535,9.00807
413,491,5.31848,-3.7124,0,0,0,0,0,0,0,-1,1637,533,5.31849,3.7124
420,491,4.86389,-3.95892,0,0,0,0,0,0,0,-1,1644,533,4.86387,3.95893
427,491,11.5096,-15.2742,0,0,0,0,0,0,0,-1,1651,533,11.5096,15.2742
434,491,24.1083,-39.8145,0,0,0,0,0,0,0,-1,1658,533,24.1083,39.8145
441,491,56.7123,-148.218,0,0,0,0,0,0,0,-1,1665,533,56.7123,148.218
448,491,67.9063,-146.685,0,0,0,0,0,0,0,-1,1672,533,67.9062,146.685
455,491,67.2214,-142.458,0,0,0,0,0,0,0,-1,1679,533,67.2215,142.458
462,491,66.4655,-138.358,0.0369885,0.000427904,-0.051577,0.0734289,-0.0360125,-0.615091,0.0644052,0.0263772,1686,533,66.4655,138.358
469,491,65.4397,-134.246,0.0357353,0.000858356,-0.0471747,0.0685915,-0.0319979,-0.608359,0.0593425,0.0205782,1693,533,65.4397,134.246
476,491,64.194,-130.349,0.0352591,0.0013081,-0.0423433,0.0639029,-0.0273358,-0.594757,0.0540685,0.0210377,1700,533,64.194,130.349
483,491,62.8132,-126.702,0,0,0,0,0,0,0,-1,1707,533,62.8133,126.702
490,491,61.6515,-122.112,0.0359292,0.00240623,-0.0324965,0.0557323,-0.0173969,-0.547297,0.0441125,0.0462575,1714,533,61.6515,122.112
497,491,60.8684,-117.194,0.0371983,0.00308556,-0.027734,0.052701,-0.0124172,-0.509711,0.0399221,0.0291774,1721,533,60.8685,117.194
504,491,59.7585,-112.656,0.0384907,0.00392466,-0.0233753,0.0502784,-0.00786307,-0.467066,0.036424,0.0213647,1728,533,59.7585,112.656
511,491,58.5153,-108.249,0.0398046,0.00500476,-0.0197366,0.0487161,-0.00390673,-0.424118,0.0338549,0.019652,1735,533,58.5153,108.249
518,491,57.2467,-103.897,0.0411596,0.006554,-0.0170936,0.0481791,-0.000465576,-0.389658,0.0322757,0.0158742,1742,533,57.2467,103.897
525,491,55.9691,-99.4626,0.0421405,0.00824923,-0.0154924,0.048155,0.00223474,-0.370313,0.0313849,0.0205514,1749,533,55.9692,99.4627
532,491,54.6023,-94.836,0,0,0,0,0,0,0,-1,1756,533,54.6023,94.836
539,491,27.2163,-35.1343,0,0,0,0,0,0,0,-1,1763,533,27.2163,35.1343
546,491,22.9856,-26.3007,0,0,0,0,0,0,0,-1,1770,533,22.9856,26.3007
553,491,10.5021,-7.77869,0,0,0,0,0,0,0,-1,1777,533,10.502,7.77871
560,491,6.28455,-1.43585,0,0,0,0,0,0,0,-1,1784,533,6.28458,1.43586
567,491,5.67651,-1.3562,0,0,0,0,0,0,0,-1,1791,533,5.67649,1.3562
574,491,8.0719,1.58325,0,0,0,0,0,0,0,-1,1798,533,8.07195,-1.58326
581,491,9.44812,1.60931,0,0,0,0,0,0,0,-1,1805,533,9.44808,-1.60933
588,491,11.0497,1.54962,0,0,0,0,0,0,0,-1,1812,533,11.0496,-1.54963
595,491,0,0,0,0,0,0,0,0,0,-1,1819,533,0,0
602,491,0,0,0,0,0,0,0,0,0,-1,1826,533,0,0
609,491,0,0,0,0,0,0,0,0,0,-1,1833,533,0,0
616,491,0,0,0,0,0,0,0,0,0,-1,1840,533,0,0
623,491,0,0,0,0,0,0,0,0,0,-1,1847,533,0,0
630,491,0,0,0,0,0,0,0,0,0,-1,1854,533,0,0
637,491,0,0,0,0,0,0,0,0,0,-1,1861,533,0,0
644,491,0,0,0,0,0,0,0,0,0,-1,1868,533,0,0
651,491,0,0,0,0,0,0,0,0,0,-1,1875,533,0,0
658,491,0,0,0,0,0,0,0,0,0,-1,1882,533,0,0
665,491,0,0,0,0,0,0,0,0,0,-1,1889,533,0,0
672,491,0,0,0,0,0,0,0,0,0,-1,1896,533,0,0
679,491,0,0,0,0,0,0,0,0,0,-1,1903,533,0,0
686,491,0,0,0,0,0,0,0,0,0,-1,1910,533,0,0
693,491,0,0,0,0,0,0,0,0,0,-1,1917,533,0,0
700,491,0,0,0,0,0,0,0,0,0,-1,1924,533,0,0
707,491,0,0,0,0,0,0,0,0,0,-1,1931,533,0,0
714,491,0,0,0,0,0,0,0,0,0,-1,1938,533,0,0
721,491,0,0,0,0,0,0,0,0,0,-1,1945,533,0,0
728,491,0,0,0,0,0,0,0,0,0,-1,1952,533,0,0
735,491,0,0,0,0,0,0,0,0,0,-1,1959,533,0,0
742,491,0,0,0,0,0,0,0,0,0,-1,1966,533,0,0
749,491,0,0,0,0,0,0,0,0,0,-1,1973,533,0,0
756,491,0,0,0,0,0,0,0,0,0,-1,1980,533,0,0
763,491,0,0,0,0,0,0,0,0,0,-1,1987,533,0,0
770,491,0,0,0,0,0,0,0,0,0,-1,1994,533,0,0
777,491,0,0,0,0,0,0,0,0,0,-1,2001,533,0,0
784,491,0,0,0,0,0,0,0,0,0,-1,2008,533,0,0
791,491,0,0,0,0,0,0,0,0,0,-1,2015,533,0,0
798,491,0,0,0,0,0,0,0,0,0,-1,2022,533,0,0
805,491,0,0,0,0,0,0,0,0,0,-1,2029,533,0,0
812,491,0,0,0,0,0,0,0,0,0,-1,2036,533,0,0
-700,484,0,0,0,0,0,0,0,0,0,-1,524,540,0,0
-693,484,0,0,0,0,0,0,0,0,0,-1,531,540,0,0
-686,484,0,0,0,0,0,0,0,0,0,-1,538,540,0,0
-679,484,0,0,0,0,0,0,0,0,0,-1,545,540,0,0
-672,484,0,0,0,0,0,0,0,0,0,-1,552,540,0,0
-665,484,0,0,0,0,0,0,0,0,0,-1,559,540,0,0
-658,484,0,0,0,0,0,0,0,0,0,-1,566,540,0,0
-651,484,0,0,0,0,0,0,0,0,0,-1,573,540,0,0
-644,484,0,0,0,0,0,0,0,0,0,-1,580,540,0,0
-637,484,0,0,0,0,0,0,0,0,0,-1,587,540,0,0
-630,484,0,0,0,0,0,0,0,0,0,-1,594,540,0,0
-623,484,0,0,0,0,0,0,0,0,0,-1,601,540,0,0
-616,484,0,0,0,0,0,0,0,0,0,-1,608,540,0,0
-609,484,0,0,0,0,0,0,0,0,0,-1,615,540,0,0
-602,484,0,0,0,0,0,0,0,0,0,-1,622,540,0,0
-595,484,0,0,0,0,0,0,0,0,0,-1,629,540,0,0
-588,484,0,0,0,0,0,0,0,0,0,-1,636,540,0,0
-581,484,0,0,0,0,0,0,0,0,0,-1,643,540,0,0
-574,484,0,0,0,0,0,0,0,0,0,-1,650,540,0,0
-567,484,0,0,0,0,0,0,0,0,0,-1,657,540,0,0
-560,484,0,0,0,0,0,0,0,0,0,-1,664,540,0,0
-553,484,0,0,0,0,0,0,0,0,0,-1,671,540,0,0
-546,484,0,0,0,0,0,0,0,0,0,-1,678,540,0,0
-539,484,0,0,0,0,0,0,0,0,0,-1,685,540,0,0
-532,484,0,0,0,0,0,0,0,0,0,-1,692,540,0,0
-525,484,0,0,0,0,0,0,0,0,0,-1,699,540,0,0
-518,484,0,0,0,0,0,0,0,0,0,-1,706,540,0,0
-511,484,0,0,0,0,0,0,0,0,0,-1,713,540,0,0
-504,484,0,0,0,0,0,0,0,0,0,-1,720,540,0,0
-497,484,0,0,0,0,0,0,0,0,0,-1,727,540,0,0
-490,484,0,0,0,0,0,0,0,0,0,-1,734,540,0,0
-483,484,0,0,0,0,0,0,0,0,0,-1,741,540,0,0
-476,484,-8.46552,1.44702,0,0,0,0,0,0,0,-1,748,540,-8.46554,-1.44702
-469,484,-7.82343,1.70355,0,0,0,0,0,0,0,-1,755,540,-7.82345,-1.70355
-462,484,-8.36987,3.08612,0,0,0,0,0,0,0,-1,762,540,-8.36988,-3.0861
-455,484,-6.77197,2.07092,0,0,0,0,0,0,0,-1,769,540,-6.77197,-2.07094
-448,484,3.54895,-1.40106,0,0,0,0,0,0,0,-1,776,540,3.54897,1.40106
-441,484,4.28906,-3.05884,0,0,0,0,0,0,0,-1,783,540,4.28905,3.05883
-434,484,-2.17548,-5.07245,0,0,0,0,0,0,0,-1,790,540,-2.17546,5.07243
-427,484,-6.97125,-22.7925,0,0,0,0,0,0,0,-1,797,540,-6.97126,22.7925
-420,484,-27.6194,-78.022,0,0,0,0,0,0,0,-1,804,540,-27.6195,78.022
-413,484,-45.5145,-86.8063,0,0,0,0,0,0,0,-1,811,540,-45.5145,86.8063
-406,484,-47.2919,-91.5732,0,0,0,0,0,0,0,-1,818,540,-47.2919,91.5732
-399,484,-48.4757,-96.1558,0,0,0,0,0,0,0,-1,825,540,-48.4757,96.1558
-392,484,-49.5668,-100.701,0.0328845,0.00195838,0.0211479,0.0436196,-0.00877665,0.469722,0.0324039,0.0333781,832,540,-49.5668,100.701
-385,484,-50.8618,-105.147,0.0328598,-0.000654165,0.0232876,0.0447927,-0.012587,0.473529,0.0348242,0.0196241,839,540,-50.8618,105.147
-378,484,-52.3298,-109.533,0.0332804,-0.0028231,0.0255709,0.0465294,-0.0160721,0.478045,0.0375418,0.0203471,846,540,-52.3298,109.533
-371,484,-53.5549,-113.947,0.0342636,-0.00454532,0.0278699,0.0488189,-0.0191006,0.481296,0.0404452,0.0242765,853,540,-53.5549,113.947
-364,484,-54.7621,-118.273,0.0360017,-0.00588241,0.0304391,0.052007,-0.0218877,0.484085,0.0438285,0.0173784,860,540,-54.7621,118.273
-357,484,-55.8773,-122.575,0.0381113,-0.00690262,0.0333892,0.055871,-0.0246623,0.48884,0.0476455,0.0176156,867,540,-55.8773,122.575
-350,484,-56.9731,-126.855,0.0404777,-0.00787818,0.0369308,0.0604411,-0.0278415,0.495568,0.0521155,0.0186401,874,540,-56.9731,126.855
-343,484,-58.11,-131.183,0.0433268,-0.00907366,0.0408099,0.065623,-0.0313698,0.50003,0.057151,0.0291209,881,540,-58.11,131.183
-336,484,-59.2047,-135.407,0.0461037,-0.0105959,0.0452669,0.0711655,-0.0356577,0.505638,0.0627999,0.0439819,888,540,-59.2047,135.407
-329,484,-60.2812,-139.523,0,0,0,0,0,0,0,-1,895,540,-60.2812,139.523
-322,484,-51.9425,-141.9,0,0,0,0,0,0,0,-1,902,540,-51.9425,141.9
-315,484,-35.3205,-109.059,0,0,0,0,0,0,0,-1,909,540,-35.3205,109.059
-308,484,-1.32623,-8.9317,0,0,0,0,0,0,0,-1,916,540,-1.32626,8.93173
-301,484,-1.33453,-6.52667,0,0,0,0,0,0,0,-1,923,540,-1.33454,6.5267
-294,484,-1.61224,-8.17059,0,0,0,0,0,0,0,-1,930,540,-1.61227,8.17058
-287,484,-0.715759,-5.62103,0,0,0,0,0,0,0,-1,937,540,-0.715772,5.62105
-280,484,2.66742,-1.6795,0,0,0,0,0,0,0,-1,944,540,2.6674,1.67949
-273,484,2.53125,-2.22296,0,0,0,0,0,0,0,-1,951,540,2.53128,2.22295
-266,484,2.6778,-2.72058,0,0,0,0,0,0,0,-1,958,540,2.6778,2.72061
-259,484,2.41718,-2.59894,0,0,0,0,0,0,0,-1,965,540,2.41717,2.59892
-252,484,10.6069,-11.696,0,0,0,0,0,0,0,-1,972,540,10.6069,11.696
-245,484,6.34106,-11.6107,0,0,0,0,0,0,0,-1,979,540,6.34104,11.6107
-238,484,4.89319,-8.54059,0,0,0,0,0,0,0,-1,986,540,4.89321,8.5406
-231,484,3.47675,-5.22064,0,0,0,0,0,0,0,-1,993,540,3.47676,5.22067
-224,484,1.71344,-2.03473,0,0,0,0,0,0,0,-1,1000,540,1.71342,2.03472
-217,484,-0.745056,1.17358,0,0,0,0,0,0,0,-1,1007,540,-0.745043,-1.17359
-210,484,0,0,0,0,0,0,0,0,0,-1,1014,540,0,0
-203,484,0,0,0,0,0,0,0,0,0,-1,1021,540,0,0
-196,484,0,0,0,0,0,0,0,0,0,-1,1028,540,0,0
-189,484,0,0,0,0,0,0,0,0,0,-1,1035,540,0,0
-182,484,0,0,0,0,0,0,0,0,0,-1,1042,540,0,0
-175,484,0,0,0,0,0,0,0,0,0,-1,1049,540,0,0
-168,484,0,0,0,0,0,0,0,0,0,-1,1056,540,0,0
-161,484,0,0,0,0,0,0,0,0,0,-1,1063,540,0,0
-154,484,0,0,0,0,0,0,0,0,0,-1,1070,540,0,0
-147,484,0,0,0,0,0,0,0,0,0,-1,1077,540,0,0
-140,484,0,0,0,0,0,0,0,0,0,-1,1084,540,0,0
-133,484,0,0,0,0,0,0,0,0,0,-1,1091,540,0,0
-126,484,0,0,0,0,0,0,0,0,0,-1,1098,540,0,0
-119,484,0,0,0,0,0,0,0,0,0,-1,1105,540,0,0
-112,484,0,0,0,0,0,0,0,0,0,-1,1112,540,0,0
-105,484,0,0,0,0,0,0,0,0,0,-1,1119,540,0,0
-98,484,0,0,0,0,0,0,0,0,0,-1,1126,540,0,0
-91,484,0,0,0,0,0,0,0,0,0,-1,1133,540,0,0
-84,484,0,0,0,0,0,0,0,0,0,-1,1140,540,0,0
-77,484,0,0,0,0,0,0,0,0,0,-1,1147,540,0,0
-70,484,0,0,0,0,0,0,0,0,0,-1,1154,540,0,0
-63,484,0,0,0,0,0,0,0,0,0,-1,1161,540,0,0
-56,484,0,0,0,0,0,0,0,0,0,-1,1168,540,0,0
-49,484,0,0,0,0,0,0,0,0,0,-1,1175,540,0,0
-42,484,0,0,0,0,0,0,0,0,0,-1,1182,540,0,0
-35,484,0,0,0,0,0,0,0,0,0,-1,1189,540,0,0
-28,484,0,0,0,0,0,0,0,0,0,-1,1196,540,0,0
-21,484,0,0,0,0,0,0,0,0,0,-1,1203,540,0,0
-14,484,0,0,0,0,0,0,0,0,0,-1,1210,540,0,0
-7,484,0,0,0,0,0,0,0,0,0,-1,1217,540,0,0
0,484,0,0,0,0,0,0,0,0,0,-1,1224,540,0,0
7,484,0,0,0,0,0,0,0,0,0,-1,1231,540,0,0
14,484,0,0,0,0,0,0,0,0,0,-1,1238,540,0,0
21,484,0,0,0,0,0,0,0,0,0,-1,1245,540,0,0
28,484,0,0,0,0,0,0,0,0,0,-1,1252,540,0,0
35,484,0,0,0,0,0,0,0,0,0,-1,1259,540,0,0
42,484,0,0,0,0,0,0,0,0,0,-1,1266,540,0,0
49,484,0,0,0,0,0,0,0,0,0,-1,1273,540,0,0
56,484,0,0,0,0,0,0,0,0,0,-1,1280,540,0,0
63,484,0,0,0,0,0,0,0,0,0,-1,1287,540,0,0
70,484,0,0,0,0,0,0,0,0,0,-1,1294,540,0,0
77,484,0,0,0,0,0,0,0,0,0,-1,1301,540,0,0
84,484,0,0,0,0,0,0,0,0,0,-1,1308,540,0,0
91,484,0,0,0,0,0,0,0,0,0,-1,1315,540,0,0
98,484,0,0,0,0,0,0,0,0,0,-1,1322,540,0,0
105,484,0,0,0,0,0,0,0,0,0,-1,1329,540,0,0
112,484,0,0,0,0,0,0,0,0,0,-1,1336,540,0,0
119,484,0,0,0,0,0,0,0,0,0,-1,1343,540,0,0
126,484,0,0,0,0,0,0,0,0,0,-1,1350,540,0,0
133,484,0,0,0,0,0,0,0,0,0,-1,1357,540,0,0
140,484,0,0,0,0,0,0,0,0,0,-1,1364,540,0,0
147,484,0,0,0,0,0,0,0,0,0,-1,1371,540,0,0
154,484,0,0,0,0,0,0,0,0,0,-1,1378,540,0,0
161,484,0,0,0,0,0,0,0,0,0,-1,1385,540,0,0
168,484,0,0,0,0,0,0,0,0,0,-1,1392,540,0,0
175,484,0,0,0,0,0,0,0,0,0,-1,1399,540,0,0
182,484,0,0,0,0,0,0,0,0,0,-1,1406,540,0,0
189,484,0,0,0,0,0,0,0,0,0,-1,1413,540,0,0
196,484,0,0,0,0,0,0,0,0,0,-1,1420,540,0,0
203,484,0,0,0,0,0,0,0,0,0,-1,1427,540,0,0
210,484,0,0,0,0,0,0,0,0,0,-1,1434,540,0,0
217,484,0,0,0,0,0,0,0,0,0,-1,1441,540,0,0
224,484,0,0,0,0,0,0,0,0,0,-1,1448,540,0,0
231,484,0,0,0,0,0,0,0,0,0,-1,1455,540,0,0
238,484,0,0,0,0,0,0,0,0,0,-1,1462,540,0,0
245,484,0,0,0,0,0,0,0,0,0,-1,1469,540,0,0
252,484,0,0,0,0,0,0,0,0,0,-1,1476,540,0,0
259,484,0,0,0,0,0,0,0,0,0,-1,1483,540,0,0
266,484,0,0,0,0,0,0,0,0,0,-1,1490,540,0,0
273,484,0,0,0,0,0,0,0,0,0,-1,1497,540,0,0
280,484,0,0,0,0,0,0,0,0,0,-1,1504,540,0,0
287,484,0,0,0,0,0,0,0,0,0,-1,1511,540,0,0
294,484,0,0,0,0,0,0,0,0,0,-1,1518,540,0,0
301,484,0,0,0,0,0,0,0,0,0,-1,1525,540,0,0
308,484,0,0,0,0,0,0,0,0,0,-1,1532,540,0,0
315,484,0,0,0,0,0,0,0,0,0,-1,1539,540,0,0
322,484,0,0,0,0,0,0,0,0,0,-1,1546,540,0,0
329,484,0,0,0,0,0,0,0,0,0,-1,1553,540,0,0
336,484,4.38708,-1.64136,0,0,0,0,0,0,0,-1,1560,540,4.38704,1.64138
343,484,7.57996,-1.05457,0,0,0,0,0,0,0,-1,1567,540,7.57995,1.05454
350,484,8.10425,-1.18878,0,0,0,0,0,0,0,-1,1574,540,8.1043,1.18877
357,484,7.74902,-3.80286,0,0,0,0,0,0,0,-1,1581,540,7.74901,3.80287
364,484,6.31262,-3.87213,0,0,0,0,0,0,0,-1,1588,540,6.31263,3.87215
371,484,7.21008,0.973511,0,0,0,0,0,0,0,-1,1595,540,7.21014,-0.973541
378,484,11.0563,1.5014,0,0,0,0,0,0,0,-1,1602,540,11.0563,-1.5014
385,484,14.3469,2.5545,0,0,0,0,0,0,0,-1,1609,540,14.3469,-2.55453
392,484,7.39453,-4.95026,0,0,0,0,0,0,0,-1,1616,540,7.39448,4.95023
399,484,7.14417,-2.5639,0,0,0,0,0,0,0,-1,1623,540,7.14417,2.56391
406,484,7.88953,-2.47321,0,0,0,0,0,0,0,-1,1630,540,7.88954,2.47323
413,484,4.4895,-1.08673,0,0,0,0,0,0,0,-1,1637,540,4.48952,1.08674
420,484,4.50012,-2.11255,0,0,0,0,0,0,0,-1,1644,540,4.50012,2.11256
427,484,5.28601,-3.54053,0,0,0,0,0,0,0,-1,1651,540,5.28599,3.54051
434,484,11.1488,-13.5359,0,0,0,0,0,0,0,-1,1658,540,11.1489,13.5359
441,484,24.9087,-38.5439,0,0,0,0,0,0,0,-1,1665,540,24.9087,38.5439
448,484,34.1501,-61.0443,0,0,0,0,0,0,0,-1,1672,540,34.1502,61.0443
455,484,70.8767,-141.131,0,0,0,0,0,0,0,-1,1679,540,70.8768,141.131
462,484,70.6101,-136.787,0,0,0,0,0,0,0,-1,1686,540,70.6101,136.787
469,484,69.7778,-132.691,0,0,0,0,0,0,0,-1,1693,540,69.7778,132.691
476,484,68.5917,-128.51,0,0,0,0,0,0,0,-1,1700,540,68.5917,128.51
483,484,67.3181,-124.4,0.0324921,-0.000321726,-0.0447598,0.0637572,-0.0315869,-0.609725,0.0560817,0.0406671,1707,540,67.3181,124.4
490,484,66.2958,-120.066,0.0335617,0.000106144,-0.0395981,0.0598203,-0.0261525,-0.585549,0.0508893,0.0422213,1714,540,66.2957,120.066
497,484,65.3516,-115.505,0.0352068,0.00065893,-0.0344518,0.0564727,-0.0206069,-0.553017,0.0460798,0.0284229,1721,540,65.3515,115.505
504,484,64.262,-111.092,0.0367891,0.0013894,-0.0297993,0.0537487,-0.0155703,-0.517412,0.041996,0.0237677,1728,540,64.262,111.092
511,484,62.9827,-106.689,0.0383248,0.00235035,-0.0259128,0.0518814,-0.0112062,-0.482005,0.0388653,0.0237469,1735,540,62.9827,106.689
518,484,61.7068,-102.297,0.039807,0.00374014,-0.0230951,0.0510752,-0.00752807,-0.453926,0.0368169,0.0216101,1742,540,61.7068,102.297
525,484,60.4904,-97.79,0.0410692,0.0053854,-0.0213304,0.0510359,-0.00458133,-0.43711,0.0356493,0.0192979,1749,540,60.4904,97.79
532,484,59.1984,-93.1908,0.0421292,0.00734296,-0.0207854,0.0518387,-0.00236655,-0.437009,0.0353744,0.0249378,1756,540,59.1984,93.1908
539,484,57.8197,-88.4971,0,0,0,0,0,0,0,-1,1763,540,57.8197,88.497
546,484,28.965,-33.8799,0,0,0,0,0,0,0,-1,1770,540,28.965,33.8799
553,484,12.4246,-8.96423,0,0,0,0,0,0,0,-1,1777,540,12.4246,8.96422
560,484,10.0549,-5.47931,0,0,0,0,0,0,0,-1,1784,540,10.055,5.47928
567,484,7.78223,-1.38312,0,0,0,0,0,0,0,-1,1791,540,7.78224,1.38311
574,484,5.74463,1.50922,0,0,0,0,0,0,0,-1,1798,540,5.74463,-1.50924
581,484,10.34,2.9491,0,0,0,0,0,0,0,-1,1805,540,10.34,-2.94912
588,484,10.6669,2.88568,0,0,0,0,0,0,0,-1,1812,540,10.6669,-2.88567
595,484,10.7233,1.04767,0,0,0,0,0,0,0,-1,1819,540,10.7233,-1.04766
602,484,0,0,0,0,0,0,0,0,0,-1,1826,540,0,0
609,484,0,0,0,0,0,0,0,0,0,-1,1833,540,0,0
616,484,0,0,0,0,0,0,0,0,0,-1,1840,540,0,0
623,484,0,0,0,0,0,0,0,0,0,-1,1847,540,0,0
630,484,0,0,0,0,0,0,0,0,0,-1,1854,540,0,0
637,484,0,0,0,0,0,0,0,0,0,-1,1861,540,0,0
644,484,0,0,0,0,0,0,0,0,0,-1,1868,540,0,0
651,484,0,0,0,0,0,0,0,0,0,-1,1875,540,0,0
658,484,0,0,0,0,0,0,0,0,0,-1,1882,540,0,0
665,484,0,0,0,0,0,0,0,0,0,-1,1889,540,0,0
672,484,0,0,0,0,0,0,0,0,0,-1,1896,540,0,0
679,484,0,0,0,0,0,0,0,0,0,-1,1903,540,0,0
686,484,0,0,0,0,0,0,0,0,0,-1,1910,540,0,0
693,484,0,0,0,0,0,0,0,0,0,-1,1917,540,0,0
700,484,0,0,0,0,0,0,0,0,0,-1,1924,540,0,0
707,484,0,0,0,0,0,0,0,0,0,-1,1931,540,0,0
714,484,0,0,0,0,0,0,0,0,0,-1,1938,540,0,0
721,484,0,0,0,0,0,0,0,0,0,-1,1945,540,0,0
728,484,0,0,0,0,0,0,0,0,0,-1,1952,540,0,0
735,484,0,0,0,0,0,0,0,0,0,-1,1959,540,0,0
742,484,0,0,0,0,0,0,0,0,0,-1,1966,540,0,0
749,484,0,0,0,0,0,0,0,0,0,-1,1973,540,0,0
756,484,0,0,0,0,0,0,0,0,0,-1,1980,540,0,0
763,484,0,0,0,0,0,0,0,0,0,-1,1987,540,0,0
770,484,0,0,0,0,0,0,0,0,0,-1,1994,540,0,0
777,484,0,0,0,0,0,0,0,0,0,-1,2001,540,0,0
784,484,0,0,0,0,0,0,0,0,0,-1,2008,540,0,0
791,484,0,0,0,0,0,0,0,0,0,-1,2015,540,0,0
798,484,0,0,0,0,0,0,0,0,0,-1,2022,540,0,0
805,484,0,0,0,0,0,0,0,0,0,-1,2029,540,0,0
812,484,0,0,0,0,0,0,0,0,0,-1,2036,540,0,0
-700,477,0,0,0,0,0,0,0,0,0,-1,524,547,0,0
-693,477,0,0,0,0,0,0,0,0,0,-1,531,547,0,0
-686,477,0,0,0,0,0,0,0,0,0,-1,538,547,0,0
-679,477,0,0,0,0,0,0,0,0,0,-1,545,547,0,0
-672,477,0,0,0,0,0,0,0,0,0,-1,552,547,0,0
-665,477,0,0,0,0,0,0,0,0,0,-1,559,547,0,0
-658,477,0,0,0,0,0,0,0,0,0,-1,566,547,0,0
-651,477,0,0,0,0,0,0,0,0,0,-1,573,547,0,0
-644,477,0,0,0,0,0,0,0,0,0,-1,580,547,0,0
-637,477,0,0,0,0,0,0,0,0,0,-1,587,547,0,0
-630,477,0,0,0,0,0,0,0,0,0,-1,594,547,0,0
-623,477,0,0,0,0,0,0,0,0,0,-1,601,547,0,0
-616,477,0,0,0,0,0,0,0,0,0,-1,608,547,0,0
-609,477,0,0,0,0,0,0,0,0,0,-1,615,547,0,0
-602,477,0,0,0,0,0,0,0,0,0,-1,622,547,0,0
-595,477,0,0,0,0,0,0,0,0,0,-1,629,547,0,0
-588,477,0,0,0,0,0,0,0,0,0,-1,636,547,0,0
-581,477,0,0,0,0,0,0,0,0,0,-1,643,547,0,0
-574,477,0,0,0,0,0,0,0,0,0,-1,650,547,0,0
-567,477,0,0,0,0,0,0,0,0,0,-1,657,547,0,0
-560,477,0,0,0,0,0,0,0,0,0,-1,664,547,0,0
-553,477,0,0,0,0,0,0,0,0,0,-1,671,547,0,0
-546,477,0,0,0,0,0,0,0,0,0,-1,678,547,0,0
-539,477,0,0,0,0,0,0,0,0,0,-1,685,547,0,0
-532,477,0,0,0,0,0,0,0,0,0,-1,692,547,0,0
-525,477,0,0,0,0,0,0,0,0,0,-1,699,547,0,0
-518,477,0,0,0,0,0,0,0,0,0,-1,706,547,0,0
-511,477,0,0,0,0,0,0,0,0,0,-1,713,547,0,0
-504,477,0,0,0,0,0,0,0,0,0,-1,720,547,0,0
-497,477,0,0,0,0,0,0,0,0,0,-1,727,547,0,0
-490,477,0,0,0,0,0,0,0,0,0,-1,734,547,0,0
-483,477,-7.73151,-0.224182,0,0,0,0,0,0,0,-1,741,547,-7.73152,0.224176
-476,477,-6.25806,-0.310547,0,0,0,0,0,0,0,-1,748,547,-6.25804,0.310549
-469,477,-7.26617,0.525085,0,0,0,0,0,0,0,-1,755,547,-7.2662,-0.525111
-462,477,-6.65143,1.06042,0,0,0,0,0,0,0,-1,762,547,-6.65143,-1.06043
-455,477,-5.31757,0.429016,0,0,0,0,0,0,0,-1,769,547,-5.31756,-0.42902
-448,477,-4.0697,0.273376,0,0,0,0,0,0,0,-1,776,547,-4.06971,-0.273363
-441,477,-2.47504,-4.76971,0,0,0,0,0,0,0,-1,783,547,-2.47505,4.76973
-434,477,-7.66589,-22.4534,0,0,0,0,0,0,0,-1,790,547,-7.66591,22.4534
-427,477,-36.6924,-76.6806,0,0,0,0,0,0,0,-1,797,547,-36.6924,76.6806
-420,477,-48.9943,-80.7642,0,0,0,0,0,0,0,-1,804,547,-48.9943,80.7642
-413,477,-50.2775,-85.3134,0.0364138,0.0120239,0.0209626,0.0484706,-3.28962e-05,0.521953,0.0323247,0.0441744,811,547,-50.2776,85.3134
-406,477,-51.8756,-89.8741,0.0352742,0.00736088,0.0222595,0.0475906,-0.00495549,0.50538,0.0335013,0.0260766,818,547,-51.8756,89.8742
-399,477,-53.0458,-94.34,0.0341309,0.00334838,0.0238203,0.0470998,-0.00962053,0.49857,0.0350496,0.0440956,825,547,-53.0458,94.34
-392,477,-54.142,-98.842,0.0335068,0.000128751,0.0256706,0.0474364,-0.0138009,0.497168,0.0370906,0.0284209,832,547,-54.142,98.842
-385,477,-55.4445,-103.393,0.0334835,-0.00233458,0.0276074,0.0484819,-0.017333,0.497666,0.0393913,0.0216021,839,547,-55.4445,103.393
-378,477,-56.8279,-107.848,0.0339897,-0.00439458,0.0297275,0.0501821,-0.0205869,0.498759,0.0420326,0.0189029,846,547,-56.8279,107.848
-371,477,-58.1213,-112.153,0.0351205,-0.00598325,0.0318765,0.0524961,-0.0233588,0.499066,0.0448589,0.0195122,853,547,-58.1213,112.153
-364,477,-59.2368,-116.473,0.0370174,-0.00716193,0.0343262,0.0557473,-0.0258919,0.499494,0.0481736,0.0192171,860,547,-59.2368,116.473
-357,477,-60.4173,-120.783,0.0393194,-0.00804543,0.0371861,0.059724,-0.02845,0.501856,0.0519637,0.0154313,867,547,-60.4173,120.783
-350,477,-61.5378,-125.086,0.0420941,-0.00911432,0.0406232,0.0645089,-0.0315291,0.504202,0.0565268,0.0148515,874,547,-61.5378,125.086
-343,477,-62.4247,-129.695,0.0454551,-0.0103922,0.044357,0.0699459,-0.034883,0.504477,0.0616412,0.045703,881,547,-62.4247,129.695
-336,477,-63.6257,-133.782,0,0,0,0,0,0,0,-1,888,547,-63.6257,133.782
-329,477,-15.676,-52.1498,0,0,0,0,0,0,0,-1,895,547,-15.676,52.1498
-322,477,-5.91638,-27.4468,0,0,0,0,0,0,0,-1,902,547,-5.91639,27.4468
-315,477,-1.67358,-9.15253,0,0,0,0,0,0,0,-1,909,547,-1.67356,9.15253
-308,477,-1.30127,-6.55188,0,0,0,0,0,0,0,-1,916,547,-1.30128,6.55185
-301,477,-1.21185,-6.28351,0,0,0,0,0,0,0,-1,923,547,-1.21184,6.28352
-294,477,-0.352905,3.27142,0,0,0,0,0,0,0,-1,930,547,-0.35292,-3.27144
-287,477,3.54364,2.15399,0,0,0,0,0,0,0,-1,937,547,3.54362,-2.15396
-280,477,1.97308,-0.954163,0,0,0,0,0,0,0,-1,944,547,1.9731,0.954178
-273,477,2.11621,-3.76709,0,0,0,0,0,0,0,-1,951,547,2.11619,3.76706
-266,477,2.04669,-3.42389,0,0,0,0,0,0,0,-1,958,547,2.04671,3.42391
-259,477,-1.33478,-3.41205,0,0,0,0,0,0,0,-1,965,547,-1.3348,3.41206
-252,477,0.597168,-5.32922,0,0,0,0,0,0,0,-1,972,547,0.597144,5.32924
-245,477,8.2309,-8.48492,0,0,0,0,0,0,0,-1,979,547,8.23091,8.48494
-238,477,6.60938,-5.64063,0,0,0,0,0,0,0,-1,986,547,6.60938,5.64063
-231,477,4.71716,-2.52484,0,0,0,0,0,0,0,-1,993,547,4.71716,2.52483
-224,477,0,0,0,0,0,0,0,0,0,-1,1000,547,0,0
-217,477,0,0,0,0,0,0,0,0,0,-1,1007,547,0,0
-210,477,0,0,0,0,0,0,0,0,0,-1,1014,547,0,0
-203,477,0,0,0,0,0,0,0,0,0,-1,1021,547,0,0
-196,477,0,0,0,0,0,0,0,0,0,-1,1028,547,0,0
-189,477,0,0,0,0,0,0,0,0,0,-1,1035,547,0,0
-182,477,0,0,0,0,0,0,0,0,0,-1,1042,547,0,0
-175,477,0,0,0,0,0,0,0,0,0,-1,1049,547,0,0
-168,477,0,0,0,0,0,0,0,0,0,-1,1056,547,0,0
-161,477,0,0,0,0,0,0,0,0,0,-1,1063,547,0,0
-154,477,0,0,0,0,0,0,0,0,0,-1,1070,547,0,0
-147,477,0,0,0,0,0,0,0,0,0,-1,1077,547,0,0
-140,477,0,0,0,0,0,0,0,0,0,-1,1084,547,0,0
-133,477,0,0,0,0,0,0,0,0,0,-1,1091,547,0,0
-126,477,0,0,0,0,0,0,0,0,0,-1,1098,547,0,0
-119,477,0,0,0,0,0,0,0,0,0,-1,1105,547,0,0
-112,477,0,0,0,0,0,0,0,0,0,-1,1112,547,0,0
-105,477,0,0,0,0,0,0,0,0,0,-1,1119,547,0,0
-98,477,0,0,0,0,0,0,0,0,0,-1,1126,547,0,0
-91,477,0,0,0,0,0,0,0,0,0,-1,1133,547,0,0
-84,477,0,0,0,0,0,0,0,0,0,-1,1140,547,0,0
-77,477,0,0,0,0,0,0,0,0,0,-1,1147,547,0,0
-70,477,0,0,0,0,0,0,0,0,0,-1,1154,547,0,0
-63,477,0,0,0,0,0,0,0,0,0,-1,1161,547,0,0
-56,477,0,0,0,0,0,0,0,0,0,-1,1168,547,0,0
-49,477,0,0,0,0,0,0,0,0,0,-1,1175,547,0,0
-42,477,0,0,0,0,0,0,0,0,0,-1,1182,547,0,0
-35,477,0,0,0,0,0,0,0,0,0,-1,1189,547,0,0
-28,477,0,0,0,0,0,0,0,0,0,-1,1196,547,0,0
-21,477,0,0,0,0,0,0,0,0,0,-1,1203,547,0,0
-14,477,0,0,0,0,0,0,0,0,0,-1,1210,547,0,0
-7,477,0,0,0,0,0,0,0,0,0,-1,1217,547,0,0
0,477,0,0,0,0,0,0,0,0,0,-1,1224,547,0,0
7,477,0,0,0,0,0,0,0,0,0,-1,1231,547,0,0
14,477,0,0,0,0,0,0,0,0,0,-1,1238,547,0,0
21,477,0,0,0,0,0,0,0,0,0,-1,1245,547,0,0
28,477,0,0,0,0,0,0,0,0,0,-1,1252,547,0,0
35,477,0,0,0,0,0,0,0,0,0,-1,1259,547,0,0
42,477,0,0,0,0,0,0,0,0,0,-1,1266,547,0,0
49,477,0,0,0,0,0,0,0,0,0,-1,1273,547,0,0
56,477,0,0,0,0,0,0,0,0,0,-1,1280,547,0,0
63,477,0,0,0,0,0,0,0,0,0,-1,1287,547,0,0
70,477,0,0,0,0,0,0,0,0,0,-1,1294,547,0,0
77,477,0,0,0,0,0,0,0,0,0,-1,1301,547,0,0
84,477,0,0,0,0,0,0,0,0,0,-1,1308,547,0,0
91,477,0,0,0,0,0,0,0,0,0,-1,1315,547,0,0
98,477,0,0,0,0,0,0,0,0,0,-1,1322,547,0,0
105,477,0,0,0,0,0,0,0,0,0,-1,1329,547,0,0
112,477,0,0,0,0,0,0,0,0,0,-1,1336,547,0,0
119,477,0,0,0,0,0,0,0,0,0,-1,1343,547,0,0
126,477,0,0,0,0,0,0,0,0,0,-1,1350,547,0,0
133,477,0,0,0,0,0,0,0,0,0,-1,1357,547,0,0
140,477,0,0,0,0,0,0,0,0,0,-1,1364,547,0,0
147,477,0,0,0,0,0,0,0,0,0,-1,1371,547,0,0
154,477,0,0,0,0,0,0,0,0,0,-1,1378,547,0,0
161,477,0,0,0,0,0,0,0,0,0,-1,1385,547,0,0
168,477,0,0,0,0,0,0,0,0,0,-1,1392,547,0,0
175,477,0,0,0,0,0,0,0,0,0,-1,1399,547,0,0
182,477,0,0,0,0,0,0,0,0,0,-1,1406,547,0,0
189,477,0,0,0,0,0,0,0,0,0,-1,1413,547,0,0
196,477,0,0,0,0,0,0,0,0,0,-1,1420,547,0,0
203,477,0,0,0,0,0,0,0,0,0,-1,1427,547,0,0
210,477,0,0,0,0,0,0,0,0,0,-1,1434,547,0,0
217,477,0,0,0,0,0,0,0,0,0,-1,1441,547,0,0
224,477,0,0,0,0,0,0,0,0,0,-1,1448,547,0,0
231,477,0,0,0,0,0,0,0,0,0,-1,1455,547,0,0
238,477,0,0,0,0,0,0,0,0,0,-1,1462,547,0,0
245,477,0,0,0,0,0,0,0,0,0,-1,1469,547,0,0
252,477,0,0,0,0,0,0,0,0,0,-1,1476,547,0,0
259,477,0,0,0,0,0,0,0,0,0,-1,1483,547,0,0
266,477,0,0,0,0,0,0,0,0,0,-1,1490,547,0,0
273,477,0,0,0,0,0,0,0,0,0,-1,1497,547,0,0
280,477,0,0,0,0,0,0,0,0,0,-1,1504,547,0,0
287,477,0,0,0,0,0,0,0,0,0,-1,1511,547,0,0
294,477,0,0,0,0,0,0,0,0,0,-1,1518,547,0,0
301,477,0,0,0,0,0,0,0,0,0,-1,1525,547,0,0
308,477,0,0,0,0,0,0,0,0,0,-1,1532,547,0,0
315,477,0,0,0,0,0,0,0,0,0,-1,1539,547,0,0
322,477,0,0,0,0,0,0,0,0,0,-1,1546,547,0,0
329,477,0,0,0,0,0,0,0,0,0,-1,1553,547,0,0
336,477,0,0,0,0,0,0,0,0,0,-1,1560,547,0,0
343,477,0,0,0,0,0,0,0,0,0,-1,1567,547,0,0
350,477,1.7699,-3.32275,0,0,0,0,0,0,0,-1,1574,547,1.7699,3.32272
357,477,3.073,-4.83313,0,0,0,0,0,0,0,-1,1581,547,3.07303,4.83316
364,477,4.30127,-4.22864,0,0,0,0,0,0,0,-1,1588,547,4.30125,4.22865
371,477,4.57703,0.283264,0,0,0,0,0,0,0,-1,1595,547,4.57706,-0.283262
378,477,8.57947,1.05969,0,0,0,0,0,0,0,-1,1602,547,8.5795,-1.05972
385,477,12.3726,2.02356,0,0,0,0,0,0,0,-1,1609,547,12.3725,-2.02355
392,477,16.4678,2.76843,0,0,0,0,0,0,0,-1,1616,547,16.4678,-2.76845
399,477,8.00037,-2.29523,0,0,0,0,0,0,0,-1,1623,547,8.00031,2.2952
406,477,4.82495,2.7475,0,0,0,0,0,0,0,-1,1630,547,4.825,-2.74752
413,477,4.88171,-0.336426,0,0,0,0,0,0,0,-1,1637,547,4.88169,0.336398
420,477,3.34875,0.102722,0,0,0,0,0,0,0,-1,1644,547,3.34871,-0.1027
427,477,1.66772,-0.373108,0,0,0,0,0,0,0,-1,1651,547,1.66768,0.373104
434,477,3.76978,-2.30798,0,0,0,0,0,0,0,-1,1658,547,3.76974,2.30801
441,477,4.05444,-2.80402,0,0,0,0,0,0,0,-1,1665,547,4.05444,2.804
448,477,10.4247,-11.7421,0,0,0,0,0,0,0,-1,1672,547,10.4247,11.7421
455,477,13.3054,-16.8109,0,0,0,0,0,0,0,-1,1679,547,13.3054,16.8109
462,477,41.8641,-79.7932,0,0,0,0,0,0,0,-1,1686,547,41.8641,79.7932
469,477,74.2271,-131.185,0,0,0,0,0,0,0,-1,1693,547,74.227,131.185
476,477,73.1774,-126.725,0,0,0,0,0,0,0,-1,1700,547,73.1773,126.725
483,477,72.0541,-122.549,0.0282907,-0.00220909,-0.0522668,0.0674869,-0.0414053,-0.643453,0.0634672,0.0369893,1707,547,72.0541,122.55
490,477,70.9617,-118.293,0.0298706,-0.00193278,-0.0465021,0.0631148,-0.0351769,-0.620652,0.0575078,0.0309895,1714,547,70.9616,118.293
497,477,69.9143,-113.869,0.0320191,-0.00153758,-0.0408471,0.0593995,-0.028918,-0.590524,0.0519926,0.0251959,1721,547,69.9143,113.869
504,477,68.8146,-109.422,0.0339745,-0.000891492,-0.0357659,0.0563298,-0.0232468,-0.558632,0.0472485,0.0236172,1728,547,68.8146,109.422
511,477,67.5408,-105.018,0.0358258,3.31184e-06,-0.0315146,0.0541634,-0.0183343,-0.526988,0.0435271,0.025774,1735,547,67.5407,105.018
518,477,66.2684,-100.535,0.0375521,0.00133601,-0.0283954,0.053122,-0.0142339,-0.501555,0.0409915,0.0265808,1742,547,66.2685,100.535
525,477,65.0265,-96.1555,0.0391163,0.00304544,-0.0263766,0.053034,-0.0108723,-0.485525,0.0394823,0.0260172,1749,547,65.0264,96.1555
532,477,63.7234,-91.7102,0.0405579,0.00521212,-0.0255508,0.0539523,-0.00818226,-0.482839,0.0389829,0.031807,1756,547,63.7233,91.7102
539,477,62.5205,-87.2413,0.0418922,0.00806186,-0.0266952,0.0565802,-0.00662608,-0.503004,0.0401117,0.0304706,1763,547,62.5205,87.2413
546,477,61.3691,-83.0073,0,0,0,0,0,0,0,-1,1770,547,61.3691,83.0073
553,477,33.2839,-37.685,0,0,0,0,0,0,0,-1,1777,547,33.284,37.685
560,477,19.4597,-16.1135,0,0,0,0,0,0,0,-1,1784,547,19.4597,16.1135
567,477,29.3896,-26.2586,0,0,0,0,0,0,0,-1,1791,547,29.3897,26.2586
574,477,6.82593,-0.916992,0,0,0,0,0,0,0,-1,1798,547,6.82598,0.916977
581,477,9.29321,-0.557007,0,0,0,0,0,0,0,-1,1805,547,9.29324,0.55703
588,477,9.75195,0.422729,0,0,0,0,0,0,0,-1,1812,547,9.75198,-0.42273
595,477,9.89172,1.21326,0,0,0,0,0,0,0,-1,1819,547,9.89174,-1.21328
602,477,6.5271,-0.964417,0,0,0,0,0,0,0,-1,1826,547,6.52706,0.964427
609,477,0,0,0,0,0,0,0,0,0,-1,1833,547,0,0
616,477,0,0,0,0,0,0,0,0,0,-1,1840,547,0,0
623,477,0,0,0,0,0,0,0,0,0,-1,1847,547,0,0
630,477,0,0,0,0,0,0,0,0,0,-1,1854,547,0,0
637,477,0,0,0,0,0,0,0,0,0,-1,1861,547,0,0
644,477,0,0,0,0,0,0,0,0,0,-1,1868,547,0,0
651,477,0,0,0,0,0,0,0,0,0,-1,1875,547,0,0
658,477,0,0,0,0,0,0,0,0,0,-1,1882,547,0,0
665,477,0,0,0,0,0,0,0,0,0,-1,1889,547,0,0
672,477,0,0,0,0,0,0,0,0,0,-1,1896,547,0,0
679,477,0,0,0,0,0,0,0,0,0,-1,1903,547,0,0
686,477,0,0,0,0,0,0,0,0,0,-1,1910,547,0,0
693,477,0,0,0,0,0,0,0,0,0,-1,1917,547,0,0
700,477,0,0,0,0,0,0,0,0,0,-1,1924,547,0,0
707,477,0,0,0,0,0,0,0,0,0,-1,1931,547,0,0
714,477,0,0,0,0,0,0,0,0,0,-1,1938,547,0,0
721,477,0,0,0,0,0,0,0,0,0,-1,1945,547,0,0
728,477,0,0,0,0,0,0,0,0,0,-1,1952,547,0,0
735,477,0,0,0,0,0,0,0,0,0,-1,1959,547,0,0
742,477,0,0,0,0,0,0,0,0,0,-1,1966,547,0,0
749,477,0,0,0,0,0,0,0,0,0,-1,1973,547,0,0
756,477,0,0,0,0,0,0,0,0,0,-1,1980,547,0,0
763,477,0,0,0,0,0,0,0,0,0,-1,1987,547,0,0
770,477,0,0,0,0,0,0,0,0,0,-1,1994,547,0,0
777,477,0,0,0,0,0,0,0,0,0,-1,2001,547,0,0
784,477,0,0,0,0,0,0,0,0,0,-1,2008,547,0,0
791,477,0,0,0,0,0,0,0,0,0,-1,2015,547,0,0
798,477,0,0,0,0,0,0,0,0,0,-1,2022,547,0,0
805,477,0,0,0,0,0,0,0,0,0,-1,2029,547,0,0
812,477,0,0,0,0,0,0,0,0,0,-1,2036,547,0,0
-700,470,0,0,0,0,0,0,0,0,0,-1,524,554,0,0
-693,470,0,0,0,0,0,0,0,0,0,-1,531,554,0,0
-686,470,0,0,0,0,0,0,0,0,0,-1,538,554,0,0
-679,470,0,0,0,0,0,0,0,0,0,-1,545,554,0,0
-672,470,0,0,0,0,0,0,0,0,0,-1,552,554,0,0
-665,470,0,0,0,0,0,0,0,0,0,-1,559,554,0,0
-658,470,0,0,0,0,0,0,0,0,0,-1,566,554,0,0
-651,470,0,0,0,0,0,0,0,0,0,-1,573,554,0,0
-644,470,0,0,0,0,0,0,0,0,0,-1,580,554,0,0
-637,470,0,0,0,0,0,0,0,0,0,-1,587,554,0,0
-630,470,0,0,0,0,0,0,0,0,0,-1,594,554,0,0
-623,470,0,0,0,0,0,0,0,0,0,-1,601,554,0,0
-616,470,0,0,0,0,0,0,0,0,0,-1,608,554,0,0
-609,470,0,0,0,0,0,0,0,0,0,-1,615,554,0,0
-602,470,0,0,0,0,0,0,0,0,0,-1,622,554,0,0
-595,470,0,0,0,0,0,0,0,0,0,-1,629,554,0,0
-588,470,0,0,0,0,0,0,0,0,0,-1,636,554,0,0
-581,470,0,0,0,0,0,0,0,0,0,-1,643,554,0,0
-574,470,0,0,0,0,0,0,0,0,0,-1,650,554,0,0
-567,470,0,0,0,0,0,0,0,0,0,-1,657,554,0,0
-560,470,0,0,0,0,0,0,0,0,0,-1,664,554,0,0
-553,470,0,0,0,0,0,0,0,0,0,-1,671,554,0,0
-546,470,0,0,0,0,0,0,0,0,0,-1,678,554,0,0
-539,470,0,0,0,0,0,0,0,0,0,-1,685,554,0,0
-532,470,0,0,0,0,0,0,0,0,0,-1,692,554,0,0
-525,470,0,0,0,0,0,0,0,0,0,-1,699,554,0,0
-518,470,0,0,0,0,0,0,0,0,0,-1,706,554,0,0
-511,470,0,0,0,0,0,0,0,0,0,-1,713,554,0,0
-504,470,0,0,0,0,0,0,0,0,0,-1,720,554,0,0
-497,470,0,0,0,0,0,0,0,0,0,-1,727,554,0,0
-490,470,-9.13263,-1.03125,0,0,0,0,0,0,0,-1,734,554,-9.1326,1.03127
-483,470,-7.68677,-1.03955,0,0,0,0,0,0,0,-1,741,554,-7.68678,1.03958
-476,470,-6.17969,-1.03394,0,0,0,0,0,0,0,-1,748,554,-6.17971,1.03395
-469,470,-6.23016,-0.651855,0,0,0,0,0,0,0,-1,755,554,-6.23014,0.651829
-462,470,-4.87915,-1.03705,0,0,0,0,0,0,0,-1,762,554,-4.87914,1.03702
-455,470,-4.14777,-1.37079,0,0,0,0,0,0,0,-1,769,554,-4.14779,1.37078
-448,470,-2.9314,-5.74518,0,0,0,0,0,0,0,-1,776,554,-2.93137,5.74518
-441,470,-8.03943,-19.0135,0,0,0,0,0,0,0,-1,783,554,-8.03942,19.0135
-434,470,-45.1323,-70.0407,0,0,0,0,0,0,0,-1,790,554,-45.1323,70.0407
-427,470,-52.2252,-74.6602,0,0,0,0,0,0,0,-1,797,554,-52.2252,74.6602
-420,470,-53.629,-79.1837,0.0378478,0.0151731,0.0251036,0.0540555,-0.0010346,0.573297,0.0363868,0.0389966,804,554,-53.629,79.1837
-413,470,-55.0302,-83.7173,0.0362402,0.010142,0.0258172,0.0521187,-0.00573651,0.551402,0.0368073,0.0201906,811,554,-55.0302,83.7174
-406,470,-56.3586,-88.1327,0.0349238,0.00561868,0.0268266,0.0508385,-0.0102961,0.53544,0.0377948,0.0272559,818,554,-56.3586,88.1327
-399,470,-57.5522,-92.5405,0.0337937,0.0017136,0.0281336,0.0501386,-0.0146313,0.526312,0.0392233,0.0416097,825,554,-57.5522,92.5405
-392,470,-58.7122,-97.1047,0.0332769,-0.00140555,0.029677,0.0503079,-0.0184365,0.520989,0.0410868,0.0263446,832,554,-58.7122,97.1047
-385,470,-60.0192,-101.651,0.0332502,-0.00377461,0.0314649,0.0512446,-0.021769,0.519493,0.0432843,0.0176211,839,554,-60.0192,101.651
-378,470,-61.321,-106.077,0.0338169,-0.00570882,0.0334785,0.0529306,-0.0248224,0.518764,0.0458581,0.023631,846,554,-61.321,106.077
-371,470,-62.6438,-110.385,0.0350822,-0.00712168,0.0355663,0.0553355,-0.027375,0.517654,0.048654,0.0210598,853,554,-62.6438,110.385
-364,470,-63.8032,-114.762,0.0371028,-0.0080674,0.0379577,0.0586863,-0.029651,0.517028,0.0519118,0.0222188,860,554,-63.8032,114.762
-357,470,-65.007,-119.065,0.0395642,-0.00871307,0.0407755,0.0628103,-0.0319592,0.518144,0.0556732,0.0306039,867,554,-65.007,119.065
-350,470,-66.2004,-123.42,0.0428381,-0.00979617,0.0441147,0.0678892,-0.0348473,0.516455,0.0603289,0.0460309,874,554,-66.2004,123.42
-343,470,-66.9028,-128.281,0,0,0,0,0,0,0,-1,881,554,-66.9028,128.281
-336,470,-14.7072,-46.67,0,0,0,0,0,0,0,-1,888,554,-14.7072,46.67
-329,470,-2.78516,-12.3594,0,0,0,0,0,0,0,-1,895,554,-2.78517,12.3594
-322,470,-2.30829,-11.4527,0,0,0,0,0,0,0,-1,902,554,-2.30827,11.4527
-315,470,-1.04797,-8.29529,0,0,0,0,0,0,0,-1,909,554,-1.04797,8.29526
-308,470,-1.39368,-6.68152,0,0,0,0,0,0,0,-1,916,554,-1.39369,6.68149
-301,470,-0.0340576,3.34888,0,0,0,0,0,0,0,-1,923,554,-0.0340496,-3.3489
-294,470,-1.18378,3.22266,0,0,0,0,0,0,0,-1,930,554,-1.18376,-3.22268
-287,470,-2.15454,3.2204,0,0,0,0,0,0,0,-1,937,554,-2.15452,-3.22037
-280,470,-3.00537,3.099,0,0,0,0,0,0,0,-1,944,554,-3.00536,-3.09898
-273,470,-12.3932,3.65009,0,0,0,0,0,0,0,-1,951,554,-12.3932,-3.65011
-266,470,-11.5706,1.16028,0,0,0,0,0,0,0,-1,958,554,-11.5706,-1.16031
-259,470,-7.50415,-2.77167,0,0,0,0,0,0,0,-1,965,554,-7.50413,2.7717
-252,470,-0.371155,-5.87823,0,0,0,0,0,0,0,-1,972,554,-0.37114,5.87821
-245,470,1.33221,-6.81122,0,0,0,0,0,0,0,-1,979,554,1.33223,6.8112
-238,470,0,0,0,0,0,0,0,0,0,-1,986,554,0,0
-231,470,0,0,0,0,0,0,0,0,0,-1,993,554,0,0
-224,470,0,0,0,0,0,0,0,0,0,-1,1000,554,0,0
-217,470,0,0,0,0,0,0,0,0,0,-1,1007,554,0,0
-210,470,0,0,0,0,0,0,0,0,0,-1,1014,554,0,0
-203,470,0,0,0,0,0,0,0,0,0,-1,1021,554,0,0
-196,470,0,0,0,0,0,0,0,0,0,-1,1028,554,0,0
-189,470,0,0,0,0,0,0,0,0,0,-1,1035,554,0,0
-182,470,0,0,0,0,0,0,0,0,0,-1,1042,554,0,0
-175,470,0,0,0,0,0,0,0,0,0,-1,1049,554,0,0
-168,470,0,0,0,0,0,0,0,0,0,-1,1056,554,0,0
-161,470,0,0,0,0,0,0,0,0,0,-1,1063,554,0,0
-154,470,0,0,0,0,0,0,0,0,0,-1,1070,554,0,0
-147,470,0,0,0,0,0,0,0,0,0,-1,1077,554,0,0
-140,470,0,0,0,0,0,0,0,0,0,-1,1084,554,0,0
-133,470,0,0,0,0,0,0,0,0,0,-1,1091,554,0,0
-126,470,0,0,0,0,0,0,0,0,0,-1,1098,554,0,0
-119,470,0,0,0,0,0,0,0,0,0,-1,1105,554,0,0
-112,470,0,0,0,0,0,0,0,0,0,-1,1112,554,0,0
-105,470,0,0,0,0,0,0,0,0,0,-1,1119,554,0,0
-98,470,0,0,0,0,0,0,0,0,0,-1,1126,554,0,0
-91,470,0,0,0,0,0,0,0,0,0,-1,1133,554,0,0
-84,470,0,0,0,0,0,0,0,0,0,-1,1140,554,0,0
-77,470,0,0,0,0,0,0,0,0,0,-1,1147,554,0,0
-70,470,0,0,0,0,0,0,0,0,0,-1,1154,554,0,0
-63,470,0,0,0,0,0,0,0,0,0,-1,1161,554,0,0
-56,470,0,0,0,0,0,0,0,0,0,-1,1168,554,0,0
-49,470,0,0,0,0,0,0,0,0,0,-1,1175,554,0,0
-42,470,0,0,0,0,0,0,0,0,0,-1,1182,554,0,0
-35,470,0,0,0,0,0,0,0,0,0,-1,1189,554,0,0
-28,470,0,0,0,0,0,0,0,0,0,-1,1196,554,0,0
-21,470,0,0,0,0,0,0,0,0,0,-1,1203,554,0,0
-14,470,0,0,0,0,0,0,0,0,0,-1,1210,554,0,0
-7,470,0,0,0,0,0,0,0,0,0,-1,1217,554,0,0
0,470,0,0,0,0,0,0,0,0,0,-1,1224,554,0,0
7,470,0,0,0,0,0,0,0,0,0,-1,1231,554,0,0
14,470,0,0,0,0,0,0,0,0,0,-1,1238,554,0,0
21,470,0,0,0,0,0,0,0,0,0,-1,1245,554,0,0
28,470,0,0,0,0,0,0,0,0,0,-1,1252,554,0,0
35,470,0,0,0,0,0,0,0,0,0,-1,1259,554,0,0
42,470,0,0,0,0,0,0,0,0,0,-1,1266,554,0,0
49,470,0,0,0,0,0,0,0,0,0,-1,1273,554,0,0
56,470,0,0,0,0,0,0,0,0,0,-1,1280,554,0,0
63,470,0,0,0,0,0,0,0,0,0,-1,1287,554,0,0
70,470,0,0,0,0,0,0,0,0,0,-1,1294,554,0,0
77,470,0,0,0,0,0,0,0,0,0,-1,1301,554,0,0
84,470,0,0,0,0,0,0,0,0,0,-1,1308,554,0,0
91,470,0,0,0,0,0,0,0,0,0,-1,1315,554,0,0
98,470,0,0,0,0,0,0,0,0,0,-1,1322,554,0,0
105,470,0,0,0,0,0,0,0,0,0,-1,1329,554,0,0
112,470,0,0,0,0,0,0,0,0,0,-1,1336,554,0,0
119,470,0,0,0,0,0,0,0,0,0,-1,1343,554,0,0
126,470,0,0,0,0,0,0,0,0,0,-1,1350,554,0,0
133,470,0,0,0,0,0,0,0,0,0,-1,1357,554,0,0
140,470,0,0,0,0,0,0,0,0,0,-1,1364,554,0,0
147,470,0,0,0,0,0,0,0,0,0,-1,1371,554,0,0
154,470,0,0,0,0,0,0,0,0,0,-1,1378,554,0,0
161,470,0,0,0,0,0,0,0,0,0,-1,1385,554,0,0
168,470,0,0,0,0,0,0,0,0,0,-1,1392,554,0,0
175,470,0,0,0,0,0,0,0,0,0,-1,1399,554,0,0
182,470,0,0,0,0,0,0,0,0,0,-1,1406,554,0,0
189,470,0,0,0,0,0,0,0,0,0,-1,1413,554,0,0
196,470,0,0,0,0,0,0,0,0,0,-1,1420,554,0,0
203,470,0,0,0,0,0,0,0,0,0,-1,1427,554,0,0
210,470,0,0,0,0,0,0,0,0,0,-1,1434,554,0,0
217,470,0,0,0,0,0,0,0,0,0,-1,1441,554,0,0
224,470,0,0,0,0,0,0,0,0,0,-1,1448,554,0,0
231,470,0,0,0,0,0,0,0,0,0,-1,1455,554,0,0
238,470,0,0,0,0,0,0,0,0,0,-1,1462,554,0,0
245,470,0,0,0,0,0,0,0,0,0,-1,1469,554,0,0
252,470,0,0,0,0,0,0,0,0,0,-1,1476,554,0,0
259,470,0,0,0,0,0,0,0,0,0,-1,1483,554,0,0
266,470,0,0,0,0,0,0,0,0,0,-1,1490,554,0,0
273,470,0,0,0,0,0,0,0,0,0,-1,1497,554,0,0
280,470,0,0,0,0,0,0,0,0,0,-1,1504,554,0,0
287,470,0,0,0,0,0,0,0,0,0,-1,1511,554,0,0
294,470,0,0,0,0,0,0,0,0,0,-1,1518,554,0,0
301,470,0,0,0,0,0,0,0,0,0,-1,1525,554,0,0
308,470,0,0,0,0,0,0,0,0,0,-1,1532,554,0,0
315,470,0,0,0,0,0,0,0,0,0,-1,1539,554,0,0
322,470,0,0,0,0,0,0,0,0,0,-1,1546,554,0,0
329,470,0,0,0,0,0,0,0,0,0,-1,1553,554,0,0
336,470,0,0,0,0,0,0,0,0,0,-1,1560,554,0,0
343,470,0,0,0,0,0,0,0,0,0,-1,1567,554,0,0
350,470,0,0,0,0,0,0,0,0,0,-1,1574,554,0,0
357,470,0,0,0,0,0,0,0,0,0,-1,1581,554,0,0
364,470,1.33423,0.293335,0,0,0,0,0,0,0,-1,1588,554,1.33422,-0.293348
371,470,2.22498,-0.0305176,0,0,0,0,0,0,0,-1,1595,554,2.22494,0.0305046
378,470,6.27051,0.710083,0,0,0,0,0,0,0,-1,1602,554,6.27054,-0.710093
385,470,10.3657,1.47296,0,0,0,0,0,0,0,-1,1609,554,10.3657,-1.47299
392,470,15.3881,3.01935,0,0,0,0,0,0,0,-1,1616,554,15.388,-3.01937
399,470,18.4479,2.93793,0,0,0,0,0,0,0,-1,1623,554,18.4479,-2.93792
406,470,15.1896,1.36676,0,0,0,0,0,0,0,-1,1630,554,15.1896,-1.36679
413,470,6.55383,1.99207,0,0,0,0,0,0,0,-1,1637,554,6.5538,-1.99208
420,470,4.47095,0.845703,0,0,0,0,0,0,0,-1,1644,554,4.47098,-0.845718
427,470,3.51038,1.19684,0,0,0,0,0,0,0,-1,1651,554,3.51039,-1.19684
434,470,3.31775,-1.37427,0,0,0,0,0,0,0,-1,1658,554,3.31781,1.37426
441,470,2.55457,-2.05902,0,0,0,0,0,0,0,-1,1665,554,2.55461,2.05904
448,470,3.27258,-2.64032,0,0,0,0,0,0,0,-1,1672,554,3.27257,2.64029
455,470,10.3658,-9.82233,0,0,0,0,0,0,0,-1,1679,554,10.3659,9.82233
462,470,11.0651,-11.9958,0,0,0,0,0,0,0,-1,1686,554,11.0651,11.9958
469,470,15.4242,-19.0521,0,0,0,0,0,0,0,-1,1693,554,15.4242,19.0521
476,470,78.2614,-124.821,0,0,0,0,0,0,0,-1,1700,554,78.2613,124.821
483,470,77.2795,-120.371,0.0223044,-0.00371035,-0.0595199,0.0702216,-0.0516275,-0.67782,0.0706222,0.0429192,1707,554,77.2796,120.371
490,470,75.9563,-116.261,0.0247337,-0.00356556,-0.0529186,0.0653617,-0.0441936,-0.654762,0.0636441,0.0290065,1714,554,75.9563,116.261
497,470,74.5223,-111.904,0.0276321,-0.00316579,-0.0464497,0.0611689,-0.0367025,-0.62534,0.0570916,0.0295829,1721,554,74.5223,111.904
504,470,73.3346,-107.64,0.0301393,-0.00254124,-0.0407962,0.057746,-0.0301479,-0.594915,0.0515727,0.025916,1728,554,73.3346,107.64
511,470,72.0751,-103.264,0.0324255,-0.00166477,-0.0361069,0.0553084,-0.0245477,-0.564869,0.0472313,0.03084,1735,554,72.0751,103.264
518,470,70.7698,-98.7089,0.0344912,-0.000381575,-0.0326664,0.0540835,-0.0199738,-0.540249,0.0442429,0.0385566,1742,554,70.7698,98.7089
525,470,69.519,-94.3341,0.0363937,0.00131103,-0.0304508,0.0539942,-0.0162895,-0.524085,0.0424801,0.0286835,1749,554,69.5191,94.3341
532,470,68.3458,-89.9613,0.0381501,0.00347251,-0.0294815,0.0550135,-0.0133909,-0.519577,0.0418595,0.0294885,1756,554,68.3458,89.9613
539,470,67.2075,-85.6351,0.0396834,0.00611883,-0.0300597,0.0573283,-0.0115261,-0.530802,0.042584,0.0334869,1763,554,67.2075,85.6351
546,470,65.943,-81.3082,0.0407714,0.00875001,-0.0321741,0.0606984,-0.011177,-0.554525,0.0446599,0.0290215,1770,554,65.943,81.3081
553,470,64.6311,-76.9474,0,0,0,0,0,0,0,-1,1777,554,64.6311,76.9474
560,470,47.7207,-71.8304,0,0,0,0,0,0,0,-1,1784,554,47.7207,71.8304
567,470,30.5542,-27.1653,0,0,0,0,0,0,0,-1,1791,554,30.5542,27.1653
574,470,30.1276,-24.6316,0,0,0,0,0,0,0,-1,1798,554,30.1275,24.6316
581,470,8.24646,-4.06317,0,0,0,0,0,0,0,-1,1805,554,8.24648,4.06318
588,470,11.1803,1.74927,0,0,0,0,0,0,0,-1,1812,554,11.1803,-1.74926
595,470,4.72192,3.44116,0,0,0,0,0,0,0,-1,1819,554,4.72191,-3.44116
602,470,14.4307,2.76141,0,0,0,0,0,0,0,-1,1826,554,14.4306,-2.76139
609,470,20.9181,4.41058,0,0,0,0,0,0,0,-1,1833,554,20.9181,-4.4106
616,470,0,0,0,0,0,0,0,0,0,-1,1840,554,0,0
623,470,0,0,0,0,0,0,0,0,0,-1,1847,554,0,0
630,470,0,0,0,0,0,0,0,0,0,-1,1854,554,0,0
637,470,0,0,0,0,0,0,0,0,0,-1,1861,554,0,0
644,470,0,0,0,0,0,0,0,0,0,-1,1868,554,0,0
651,470,0,0,0,0,0,0,0,0,0,-1,1875,554,0,0
658,470,0,0,0,0,0,0,0,0,0,-1,1882,554,0,0
665,470,0,0,0,0,0,0,0,0,0,-1,1889,554,0,0
672,470,0,0,0,0,0,0,0,0,0,-1,1896,554,0,0
679,470,0,0,0,0,0,0,0,0,0,-1,1903,554,0,0
686,470,0,0,0,0,0,0,0,0,0,-1,1910,554,0,0
693,470,0,0,0,0,0,0,0,0,0,-1,1917,554,0,0
700,470,0,0,0,0,0,0,0,0,0,-1,1924,554,0,0
707,470,0,0,0,0,0,0,0,0,0,-1,1931,554,0,0
714,470,0,0,0,0,0,0,0,0,0,-1,1938,554,0,0
721,470,0,0,0,0,0,0,0,0,0,-1,1945,554,0,0
728,470,0,0,0,0,0,0,0,0,0,-1,1952,554,0,0
735,470,0,0,0,0,0,0,0,0,0,-1,1959,554,0,0
742,470,0,0,0,0,0,0,0,0,0,-1,1966,554,0,0
749,470,0,0,0,0,0,0,0,0,0,-1,1973,554,0,0
756,470,0,0,0,0,0,0,0,0,0,-1,1980,554,0,0
763,470,0,0,0,0,0,0,0,0,0,-1,1987,554,0,0
770,470,0,0,0,0,0,0,0,0,0,-1,1994,554,0,0
777,470,0,0,0,0,0,0,0,0,0,-1,2001,554,0,0
784,470,0,0,0,0,0,0,0,0,0,-1,2008,554,0,0
791,470,0,0,0,0,0,0,0,0,0,-1,2015,554,0,0
798,470,0,0,0,0,0,0,0,0,0,-1,2022,554,0,0
805,470,0,0,0,0,0,0,0,0,0,-1,2029,554,0,0
812,470,0,0,0,0,0,0,0,0,0,-1,2036,554,0,0
-700,463,0,0,0,0,0,0,0,0,0,-1,524,561,0,0
-693,463,0,0,0,0,0,0,0,0,0,-1,531,561,0,0
-686,463,0,0,0,0,0,0,0,0,0,-1,538,561,0,0
-679,463,0,0,0,0,0,0,0,0,0,-1,545,561,0,0
-672,463,0,0,0,0,0,0,0,0,0,-1,552,561,0,0
-665,463,0,0,0,0,0,0,0,0,0,-1,559,561,0,0
-658,463,0,0,0,0,0,0,0,0,0,-1,566,561,0,0
-651,463,0,0,0,0,0,0,0,0,0,-1,573,561,0,0
-644,463,0,0,0,0,0,0,0,0,0,-1,580,561,0,0
-637,463,0,0,0,0,0,0,0,0,0,-1,587,561,0,0
-630,463,0,0,0,0,0,0,0,0,0,-1,594,561,0,0
-623,463,0,0,0,0,0,0,0,0,0,-1,601,561,0,0
-616,463,0,0,0,0,0,0,0,0,0,-1,608,561,0,0
-609,463,0,0,0,0,0,0,0,0,0,-1,615,561,0,0
-602,463,0,0,0,0,0,0,0,0,0,-1,622,561,0,0
-595,463,0,0,0,0,0,0,0,0,0,-1,629,561,0,0
-588,463,0,0,0,0,0,0,0,0,0,-1,636,561,0,0
-581,463,0,0,0,0,0,0,0,0,0,-1,643,561,0,0
-574,463,0,0,0,0,0,0,0,0,0,-1,650,561,0,0
-567,463,0,0,0,0,0,0,0,0,0,-1,657,561,0,0
-560,463,0,0,0,0,0,0,0,0,0,-1,664,561,0,0
-553,463,0,0,0,0,0,0,0,0,0,-1,671,561,0,0
-546,463,0,0,0,0,0,0,0,0,0,-1,678,561,0,0
-539,463,0,0,0,0,0,0,0,0,0,-1,685,561,0,0
-532,463,0,0,0,0,0,0,0,0,0,-1,692,561,0,0
-525,463,0,0,0,0,0,0,0,0,0,-1,699,561,0,0
-518,463,0,0,0,0,0,0,0,0,0,-1,706,561,0,0
-511,463,0,0,0,0,0,0,0,0,0,-1,713,561,0,0
-504,463,0,0,0,0,0,0,0,0,0,-1,720,561,0,0
-497,463,-9.81451,-1.67126,0,0,0,0,0,0,0,-1,727,561,-9.81452,1.67127
-490,463,-8.57043,-1.58942,0,0,0,0,0,0,0,-1,734,561,-8.57045,1.58944
-483,463,-7.29224,-1.7226,0,0,0,0,0,0,0,-1,741,561,-7.29226,1.72261
-476,463,-5.77704,-1.7312,0,0,0,0,0,0,0,-1,748,561,-5.77703,1.73121
-469,463,-5.14545,-2.138,0,0,0,0,0,0,0,-1,755,561,-5.14546,2.13799
-462,463,-3.13672,-3.07977,0,0,0,0,0,0,0,-1,762,561,-3.13672,3.07974
-455,463,-2.91406,-5.61798,0,0,0,0,0,0,0,-1,769,561,-2.91406,5.61801
-448,463,-4.00177,-8.54681,0,0,0,0,0,0,0,-1,776,561,-4.00175,8.54683
-441,463,-48.1638,-63.7264,0,0,0,0,0,0,0,-1,783,561,-48.1638,63.7264
-434,463,-56.1734,-68.7343,0,0,0,0,0,0,0,-1,790,561,-56.1734,68.7343
-427,463,-57.1583,-73.1617,0.0381637,0.0187624,0.0289989,0.0590414,-0.00211538,0.62399,0.0400847,0.0425656,797,561,-57.1583,73.1617
-420,463,-58.2947,-77.587,0.036567,0.0134227,0.0290487,0.0562637,-0.00627399,0.595847,0.0397658,0.0170686,804,561,-58.2947,77.587
-413,463,-59.6576,-82.0606,0.0349364,0.00857353,0.0295785,0.0541377,-0.0106277,0.575786,0.0401065,0.0183853,811,561,-59.6576,82.0606
-406,463,-60.9403,-86.4617,0.0335554,0.00415166,0.0304513,0.0526682,-0.0149611,0.560502,0.0410189,0.0270698,818,561,-60.9403,86.4617
-399,463,-62.1538,-90.8162,0.0324512,0.000375195,0.031648,0.051893,-0.0190666,0.550877,0.0424046,0.0289911,825,561,-62.1538,90.8162
-392,463,-63.3674,-95.2888,0.0320326,-0.00264778,0.0330339,0.0520009,-0.022616,0.543705,0.0441796,0.0191496,832,561,-63.3674,95.2888
-385,463,-64.6296,-99.8026,0.0320334,-0.00494878,0.034769,0.0529226,-0.0258379,0.541006,0.04636,0.0180112,839,561,-64.6296,99.8026
-378,463,-65.8909,-104.268,0.0326863,-0.00673669,0.0367729,0.0546976,-0.028748,0.53937,0.0489477,0.0202211,846,561,-65.8909,104.268
-371,463,-67.1508,-108.618,0.034138,-0.00793382,0.0389332,0.0573549,-0.0311507,0.537713,0.0518399,0.0229,853,561,-67.1508,108.618
-364,463,-68.3353,-112.913,0.0363426,-0.00856301,0.0413918,0.0609792,-0.0331996,0.536886,0.055157,0.0288426,860,561,-68.3353,112.913
-357,463,-69.6642,-117.252,0,0,0,0,0,0,0,-1,867,561,-69.6643,117.252
-350,463,-71.0177,-121.636,0,0,0,0,0,0,0,-1,874,561,-71.0177,121.636
-343,463,-21.5904,-55.3489,0,0,0,0,0,0,0,-1,881,561,-21.5904,55.3489
-336,463,-2.94928,-12.2127,0,0,0,0,0,0,0,-1,888,561,-2.94925,12.2127
-329,463,-2.64307,-12.7037,0,0,0,0,0,0,0,-1,895,561,-2.64307,12.7038
-322,463,-1.82898,-9.11957,0,0,0,0,0,0,0,-1,902,561,-1.829,9.11957
-315,463,-0.944763,-5.96234,0,0,0,0,0,0,0,-1,909,561,-0.94479,5.96237
-308,463,-1.1535,-3.17889,0,0,0,0,0,0,0,-1,916,561,-1.15352,3.17889
-301,463,-1.50366,-3.15338,0,0,0,0,0,0,0,-1,923,561,-1.50364,3.15341
-294,463,-2.35889,-3.93463,0,0,0,0,0,0,0,-1,930,561,-2.35886,3.93465
-287,463,-2.80322,2.73999,0,0,0,0,0,0,0,-1,937,561,-2.80322,-2.74
-280,463,-12.864,5.25146,0,0,0,0,0,0,0,-1,944,561,-12.864,-5.25149
-273,463,-12.4598,3.39178,0,0,0,0,0,0,0,-1,951,561,-12.4598,-3.3918
-266,463,-8.78101,-3.7356,0,0,0,0,0,0,0,-1,958,561,-8.78098,3.73562
-259,463,-6.23285,-5.68842,0,0,0,0,0,0,0,-1,965,561,-6.23288,5.68843
-252,463,0,0,0,0,0,0,0,0,0,-1,972,561,0,0
-245,463,0,0,0,0,0,0,0,0,0,-1,979,561,0,0
-238,463,0,0,0,0,0,0,0,0,0,-1,986,561,0,0
-231,463,0,0,0,0,0,0,0,0,0,-1,993,561,0,0
-224,463,0,0,0,0,0,0,0,0,0,-1,1000,561,0,0
-217,463,0,0,0,0,0,0,0,0,0,-1,1007,561,0,0
-210,463,0,0,0,0,0,0,0,0,0,-1,1014,561,0,0
-203,463,0,0,0,0,0,0,0,0,0,-1,1021,561,0,0
-196,463,0,0,0,0,0,0,0,0,0,-1,1028,561,0,0
-189,463,0,0,0,0,0,0,0,0,0,-1,1035,561,0,0
-182,463,0,0,0,0,0,0,0,0,0,-1,1042,561,0,0
-175,463,0,0,0,0,0,0,0,0,0,-1,1049,561,0,0
-168,463,0,0,0,0,0,0,0,0,0,-1,1056,561,0,0
-161,463,0,0,0,0,0,0,0,0,0,-1,1063,561,0,0
-154,463,0,0,0,0,0,0,0,0,0,-1,1070,561,0,0
-147,463,0,0,0,0,0,0,0,0,0,-1,1077,561,0,0
-140,463,0,0,0,0,0,0,0,0,0,-1,1084,561,0,0
-133,463,0,0,0,0,0,0,0,0,0,-1,1091,561,0,0
-126,463,0,0,0,0,0,0,0,0,0,-1,1098,561,0,0
-119,463,0,0,0,0,0,0,0,0,0,-1,1105,561,0,0
-112,463,0,0,0,0,0,0,0,0,0,-1,1112,561,0,0
-105,463,0,0,0,0,0,0,0,0,0,-1,1119,561,0,0
-98,463,0,0,0,0,0,0,0,0,0,-1,1126,561,0,0
-91,463,0,0,0,0,0,0,0,0,0,-1,1133,561,0,0
-84,463,0,0,0,0,0,0,0,0,0,-1,1140,561,0,0
-77,463,0,0,0,0,0,0,0,0,0,-1,1147,561,0,0
-70,463,0,0,0,0,0,0,0,0,0,-1,1154,561,0,0
-63,463,0,0,0,0,0,0,0,0,0,-1,1161,561,0,0
-56,463,0,0,0,0,0,0,0,0,0,-1,1168,561,0,0
-49,463,0,0,0,0,0,0,0,0,0,-1,1175,561,0,0
-42,463,0,0,0,0,0,0,0,0,0,-1,1182,561,0,0
-35,463,0,0,0,0,0,0,0,0,0,-1,1189,561,0,0
-28,463,0,0,0,0,0,0,0,0,0,-1,1196,561,0,0
-21,463,0,0,0,0,0,0,0,0,0,-1,1203,561,0,0
-14,463,0,0,0,0,0,0,0,0,0,-1,1210,561,0,0
-7,463,0,0,0,0,0,0,0,0,0,-1,1217,561,0,0
0,463,0,0,0,0,0,0,0,0,0,-1,1224,561,0,0
7,463,0,0,0,0,0,0,0,0,0,-1,1231,561,0,0
14,463,0,0,0,0,0,0,0,0,0,-1,1238,561,0,0
21,463,0,0,0,0,0,0,0,0,0,-1,1245,561,0,0
28,463,0,0,0,0,0,0,0,0,0,-1,1252,561,0,0
35,463,0,0,0,0,0,0,0,0,0,-1,1259,561,0,0
42,463,0,0,0,0,0,0,0,0,0,-1,1266,561,0,0
49,463,0,0,0,0,0,0,0,0,0,-1,1273,561,0,0
56,463,0,0,0,0,0,0,0,0,0,-1,1280,561,0,0
63,463,0,0,0,0,0,0,0,0,0,-1,1287,561,0,0
70,463,0,0,0,0,0,0,0,0,0,-1,1294,561,0,0
77,463,0,0,0,0,0,0,0,0,0,-1,1301,561,0,0
84,463,0,0,0,0,0,0,0,0,0,-1,1308,561,0,0
91,463,0,0,0,0,0,0,0,0,0,-1,1315,561,0,0
98,463,0,0,0,0,0,0,0,0,0,-1,1322,561,0,0
105,463,0,0,0,0,0,0,0,0,0,-1,1329,561,0,0
112,463,0,0,0,0,0,0,0,0,0,-1,1336,561,0,0
119,463,0,0,0,0,0,0,0,0,0,-1,1343,561,0,0
126,463,0,0,0,0,0,0,0,0,0,-1,1350,561,0,0
133,463,0,0,0,0,0,0,0,0,0,-1,1357,561,0,0
140,463,0,0,0,0,0,0,0,0,0,-1,1364,561,0,0
147,463,0,0,0,0,0,0,0,0,0,-1,1371,561,0,0
154,463,0,0,0,0,0,0,0,0,0,-1,1378,561,0,0
161,463,0,0,0,0,0,0,0,0,0,-1,1385,561,0,0
168,463,0,0,0,0,0,0,0,0,0,-1,1392,561,0,0
175,463,0,0,0,0,0,0,0,0,0,-1,1399,561,0,0
182,463,0,0,0,0,0,0,0,0,0,-1,1406,561,0,0
189,463,0,0,0,0,0,0,0,0,0,-1,1413,561,0,0
196,463,0,0,0,0,0,0,0,0,0,-1,1420,561,0,0
203,463,0,0,0,0,0,0,0,0,0,-1,1427,561,0,0
210,463,0,0,0,0,0,0,0,0,0,-1,1434,561,0,0
217,463,0,0,0,0,0,0,0,0,0,-1,1441,561,0,0
224,463,0,0,0,0,0,0,0,0,0,-1,1448,561,0,0
231,463,0,0,0,0,0,0,0,0,0,-1,1455,561,0,0
238,463,0,0,0,0,0,0,0,0,0,-1,1462,561,0,0
245,463,0,0,0,0,0,0,0,0,0,-1,1469,561,0,0
252,463,0,0,0,0,0,0,0,0,0,-1,1476,561,0,0
259,463,0,0,0,0,0,0,0,0,0,-1,1483,561,0,0
266,463,0,0,0,0,0,0,0,0,0,-1,1490,561,0,0
273,463,0,0,0,0,0,0,0,0,0,-1,1497,561,0,0
280,463,0,0,0,0,0,0,0,0,0,-1,1504,561,0,0
287,463,0,0,0,0,0,0,0,0,0,-1,1511,561,0,0
294,463,0,0,0,0,0,0,0,0,0,-1,1518,561,0,0
301,463,0,0,0,0,0,0,0,0,0,-1,1525,561,0,0
308,463,0,0,0,0,0,0,0,0,0,-1,1532,561,0,0
315,463,0,0,0,0,0,0,0,0,0,-1,1539,561,0,0
322,463,0,0,0,0,0,0,0,0,0,-1,1546,561,0,0
329,463,0,0,0,0,0,0,0,0,0,-1,1553,561,0,0
336,463,0,0,0,0,0,0,0,0,0,-1,1560,561,0,0
343,463,0,0,0,0,0,0,0,0,0,-1,1567,561,0,0
350,463,0,0,0,0,0,0,0,0,0,-1,1574,561,0,0
357,463,0,0,0,0,0,0,0,0,0,-1,1581,561,0,0
364,463,0,0,0,0,0,0,0,0,0,-1,1588,561,0,0
371,463,1.75842,0.152588,0,0,0,0,0,0,0,-1,1595,561,1.75844,-0.152558
378,463,4.58813,-0.0444336,0,0,0,0,0,0,0,-1,1602,561,4.58809,0.0444505
385,463,8.88574,1.65057,0,0,0,0,0,0,0,-1,1609,561,8.88575,-1.65055
392,463,14.0912,2.50513,0,0,0,0,0,0,0,-1,1616,561,14.0912,-2.5051
399,463,21.4769,2.7002,0,0,0,0,0,0,0,-1,1623,561,21.477,-2.70017
406,463,26.2987,4.32318,0,0,0,0,0,0,0,-1,1630,561,26.2987,-4.3232
413,463,26.5011,2.65222,0,0,0,0,0,0,0,-1,1637,561,26.5011,-2.65224
420,463,8.849,2.26611,0,0,0,0,0,0,0,-1,1644,561,8.84899,-2.26613
427,463,5.12207,1.69183,0,0,0,0,0,0,0,-1,1651,561,5.12206,-1.69184
434,463,4.59814,1.81995,0,0,0,0,0,0,0,-1,1658,561,4.59812,-1.81994
441,463,1.76392,-5.99225,0,0,0,0,0,0,0,-1,1665,561,1.7639,5.99225
448,463,2.49939,-4.30536,0,0,0,0,0,0,0,-1,1672,561,2.49941,4.30536
455,463,4.40295,-3.02557,0,0,0,0,0,0,0,-1,1679,561,4.40299,3.02558
462,463,5.38293,-4.06445,0,0,0,0,0,0,0,-1,1686,561,5.38289,4.06444
469,463,5.94373,-4.50647,0,0,0,0,0,0,0,-1,1693,561,5.94368,4.50646
476,463,15.2559,-17.3189,0,0,0,0,0,0,0,-1,1700,561,15.2558,17.3189
483,463,82.5817,-117.913,0,0,0,0,0,0,0,-1,1707,561,82.5816,117.913
490,463,80.9408,-113.941,0.0177861,-0.004679,-0.0585859,0.0662065,-0.0530994,-0.690684,0.0690197,0.0401063,1714,561,80.9408,113.941
497,463,79.2881,-109.963,0.0221794,-0.00410034,-0.0509482,0.0616549,-0.0435759,-0.659195,0.0610532,0.0333127,1721,561,79.2881,109.963
504,463,77.8961,-105.821,0.0256905,-0.00343274,-0.0445786,0.0580254,-0.0357677,-0.627536,0.0546574,0.0244523,1728,561,77.8961,105.821
511,463,76.61,-101.484,0.0286282,-0.00253587,-0.0393677,0.0553854,-0.0292931,-0.596954,0.0496568,0.0294035,1735,561,76.6099,101.484
518,463,75.3258,-96.9493,0.0311503,-0.00129988,-0.0355685,0.0540196,-0.0241692,-0.571414,0.0462259,0.0363239,1742,561,75.3258,96.9493
525,463,74.0062,-92.6219,0.0333907,0.000324322,-0.0331622,0.0539126,-0.0201975,-0.554152,0.0442388,0.0346433,1749,561,74.0062,92.6219
532,463,72.975,-88.2505,0.0352914,0.0023725,-0.0320875,0.0548947,-0.0172308,-0.548419,0.0434931,0.0340956,1756,561,72.9749,88.2506
539,463,71.7813,-83.8389,0.036759,0.00473767,-0.0322509,0.0567547,-0.0152581,-0.555,0.0438172,0.0390259,1763,561,71.7812,83.8388
546,463,70.5273,-79.6285,0.0377317,0.00719822,-0.0338289,0.0595792,-0.0146493,-0.573434,0.0453974,0.0271601,1770,561,70.5273,79.6285
553,463,69.2323,-75.3409,0.0387126,0.00975156,-0.0364026,0.0634091,-0.0149449,-0.5961,0.0480357,0.0172661,1777,561,69.2323,75.3409
560,463,67.9103,-70.954,0,0,0,0,0,0,0,-1,1784,561,67.9102,70.954
567,463,67.3137,-66.3829,0,0,0,0,0,0,0,-1,1791,561,67.3137,66.3829
574,463,32.9689,-27.5378,0,0,0,0,0,0,0,-1,1798,561,32.9689,27.5379
581,463,9.4939,-3.88245,0,0,0,0,0,0,0,-1,1805,561,9.49392,3.88245
588,463,1.97424,2.16016,0,0,0,0,0,0,0,-1,1812,561,1.97422,-2.16013
595,463,9.98657,2.99854,0,0,0,0,0,0,0,-1,1819,561,9.98662,-2.99856
602,463,17.2202,4.91302,0,0,0,0,0,0,0,-1,1826,561,17.2202,-4.91305
609,463,17.96,4.03131,0,0,0,0,0,0,0,-1,1833,561,17.96,-4.03132
616,463,20.8352,3.15131,0,0,0,0,0,0,0,-1,1840,561,20.8352,-3.1513
623,463,0,0,0,0,0,0,0,0,0,-1,1847,561,0,0
630,463,0,0,0,0,0,0,0,0,0,-1,1854,561,0,0
637,463,0,0,0,0,0,0,0,0,0,-1,1861,561,0,0
644,463,0,0,0,0,0,0,0,0,0,-1,1868,561,0,0
651,463,0,0,0,0,0,0,0,0,0,-1,1875,561,0,0
658,463,0,0,0,0,0,0,0,0,0,-1,1882,561,0,0
665,463,0,0,0,0,0,0,0,0,0,-1,1889,561,0,0
672,463,0,0,0,0,0,0,0,0,0,-1,1896,561,0,0
679,463,0,0,0,0,0,0,0,0,0,-1,1903,561,0,0
686,463,0,0,0,0,0,0,0,0,0,-1,1910,561,0,0
693,463,0,0,0,0,0,0,0,0,0,-1,1917,561,0,0
700,463,0,0,0,0,0,0,0,0,0,-1,1924,561,0,0
707,463,0,0,0,0,0,0,0,0,0,-1,1931,561,0,0
714,463,0,0,0,0,0,0,0,0,0,-1,1938,561,0,0
721,463,0,0,0,0,0,0,0,0,0,-1,1945,561,0,0
728,463,0,0,0,0,0,0,0,0,0,-1,1952,561,0,0
735,463,0,0,0,0,0,0,0,0,0,-1,1959,561,0,0
742,463,0,0,0,0,0,0,0,0,0,-1,1966,561,0,0
749,463,0,0,0,0,0,0,0,0,0,-1,1973,561,0,0
756,463,0,0,0,0,0,0,0,0,0,-1,1980,561,0,0
763,463,0,0,0,0,0,0,0,0,0,-1,1987,561,0,0
770,463,0,0,0,0,0,0,0,0,0,-1,1994,561,0,0
777,463,0,0,0,0,0,0,0,0,0,-1,2001,561,0,0
784,463,0,0,0,0,0,0,0,0,0,-1,2008,561,0,0
791,463,0,0,0,0,0,0,0,0,0,-1,2015,561,0,0
798,463,0,0,0,0,0,0,0,0,0,-1,2022,561,0,0
805,463,0,0,0,0,0,0,0,0,0,-1,2029,561,0,0
812,463,0,0,0,0,0,0,0,0,0,-1,2036,561,0,0
-700,456,0,0,0,0,0,0,0,0,0,-1,524,568,0,0
-693,456,0,0,0,0,0,0,0,0,0,-1,531,568,0,0
-686,456,0,0,0,0,0,0,0,0,0,-1,538,568,0,0
-679,456,0,0,0,0,0,0,0,0,0,-1,545,568,0,0
-672,456,0,0,0,0,0,0,0,0,0,-1,552,568,0,0
-665,456,0,0,0,0,0,0,0,0,0,-1,559,568,0,0
-658,456,0,0,0,0,0,0,0,0,0,-1,566,568,0,0
-651,456,0,0,0,0,0,0,0,0,0,-1,573,568,0,0
-644,456,0,0,0,0,0,0,0,0,0,-1,580,568,0,0
-637,456,0,0,0,0,0,0,0,0,0,-1,587,568,0,0
-630,456,0,0,0,0,0,0,0,0,0,-1,594,568,0,0
-623,456,0,0,0,0,0,0,0,0,0,-1,601,568,0,0
-616,456,0,0,0,0,0,0,0,0,0,-1,608,568,0,0
-609,456,0,0,0,0,0,0,0,0,0,-1,615,568,0,0
-602,456,0,0,0,0,0,0,0,0,0,-1,622,568,0,0
-595,456,0,0,0,0,0,0,0,0,0,-1,629,568,0,0
-588,456,0,0,0,0,0,0,0,0,0,-1,636,568,0,0
-581,456,0,0,0,0,0,0,0,0,0,-1,643,568,0,0
-574,456,0,0,0,0,0,0,0,0,0,-1,650,568,0,0
-567,456,0,0,0,0,0,0,0,0,0,-1,657,568,0,0
-560,456,0,0,0,0,0,0,0,0,0,-1,664,568,0,0
-553,456,0,0,0,0,0,0,0,0,0,-1,671,568,0,0
-546,456,0,0,0,0,0,0,0,0,0,-1,678,568,0,0
-539,456,0,0,0,0,0,0,0,0,0,-1,685,568,0,0
-532,456,0,0,0,0,0,0,0,0,0,-1,692,568,0,0
-525,456,0,0,0,0,0,0,0,0,0,-1,699,568,0,0
-518,456,0,0,0,0,0,0,0,0,0,-1,706,568,0,0
-511,456,0,0,0,0,0,0,0,0,0,-1,713,568,0,0
-504,456,-10.3994,-2.34839,0,0,0,0,0,0,0,-1,720,568,-10.3994,2.3484
-497,456,-9.21375,-2.38068,0,0,0,0,0,0,0,-1,727,568,-9.21372,2.38069
-490,456,-8.09058,-2.31824,0,0,0,0,0,0,0,-1,734,568,-8.09057,2.31821
-483,456,-6.66119,-2.24329,0,0,0,0,0,0,0,-1,741,568,-6.66121,2.24331
-476,456,-5.1499,-2.21185,0,0,0,0,0,0,0,-1,748,568,-5.14992,2.21184
-469,456,-2.81238,-3.51501,0,0,0,0,0,0,0,-1,755,568,-2.81237,3.51501
-462,456,-4.2431,-5.27478,0,0,0,0,0,0,0,-1,762,568,-4.24312,5.27476
-455,456,-5.98364,-8.72119,0,0,0,0,0,0,0,-1,769,568,-5.98364,8.72122
-448,456,-10.723,-19.1761,0,0,0,0,0,0,0,-1,776,568,-10.723,19.1761
-441,456,-56.2336,-62.7078,0,0,0,0,0,0,0,-1,783,568,-56.2336,62.7079
-434,456,-60.6667,-67.1934,0,0,0,0,0,0,0,-1,790,568,-60.6667,67.1934
-427,456,-61.7574,-71.5519,0.0362128,0.0169464,0.0318997,0.0599021,-0.00674292,0.63876,0.0423617,0.0259081,797,568,-61.7574,71.5519
-420,456,-62.9531,-75.9301,0.0345209,0.0119379,0.0318909,0.0570603,-0.0106015,0.615251,0.0420222,0.0151362,804,568,-62.9531,75.9301
-413,456,-64.2881,-80.3477,0.0328733,0.00721623,0.0323669,0.0548612,-0.0147717,0.596721,0.0423653,0.0267161,811,568,-64.2882,80.3477
-406,456,-65.6031,-84.738,0.0314376,0.00288313,0.0332297,0.0533274,-0.0190067,0.582496,0.0433007,0.0316676,818,568,-65.6031,84.738
-399,456,-66.7777,-89.0068,0.0303196,-0.000766038,0.0344353,0.0525574,-0.0230038,0.573405,0.0447237,0.027372,825,568,-66.7777,89.0069
-392,456,-67.9557,-93.4423,0.0298918,-0.00370407,0.0357858,0.052626,-0.0264383,0.565963,0.046475,0.0164956,832,568,-67.9558,93.4423
-385,456,-69.2241,-97.9354,0.0298328,-0.00596344,0.0375523,0.0535342,-0.0296648,0.563014,0.0486895,0.0152745,839,568,-69.2241,97.9354
-378,456,-70.5906,-102.458,0.0304651,-0.00760441,0.0396386,0.0554024,-0.0325417,0.561554,0.0513432,0.0208613,846,568,-70.5906,102.458
-371,456,-71.9302,-106.778,0.0319782,-0.00860141,0.0420033,0.0583355,-0.0349588,0.5604,0.0544242,0.0290457,853,568,-71.9302,106.778
-364,456,-72.8864,-110.921,0,0,0,0,0,0,0,-1,860,568,-72.8864,110.921
-357,456,-53.2725,-110.042,0,0,0,0,0,0,0,-1,867,568,-53.2725,110.042
-350,456,-24.6786,-56.8698,0,0,0,0,0,0,0,-1,874,568,-24.6786,56.8698
-343,456,-3.39081,-12.0217,0,0,0,0,0,0,0,-1,881,568,-3.39078,12.0217
-336,456,-3.04517,-12.4623,0,0,0,0,0,0,0,-1,888,568,-3.04519,12.4624
-329,456,-1.06183,-10.7184,0,0,0,0,0,0,0,-1,895,568,-1.06184,10.7184
-322,456,-0.662537,-7.66632,0,0,0,0,0,0,0,-1,902,568,-0.662564,7.66633
-315,456,-0.675476,-3.38397,0,0,0,0,0,0,0,-1,909,568,-0.675473,3.38399
-308,456,-1.1618,-3.15314,0,0,0,0,0,0,0,-1,916,568,-1.16178,3.15314
-301,456,-1.83551,-3.26447,0,0,0,0,0,0,0,-1,923,568,-1.8355,3.26449
-294,456,-2.93414,-3.35449,0,0,0,0,0,0,0,-1,930,568,-2.93413,3.35451
-287,456,-3.7569,-3.53101,0,0,0,0,0,0,0,-1,937,568,-3.75692,3.53101
-280,456,-13.072,4.52856,0,0,0,0,0,0,0,-1,944,568,-13.072,-4.52855
-273,456,-8.26538,-6.66748,0,0,0,0,0,0,0,-1,951,568,-8.26536,6.66745
-266,456,-5.71527,-9.36884,0,0,0,0,0,0,0,-1,958,568,-5.71529,9.36885
-259,456,0,0,0,0,0,0,0,0,0,-1,965,568,0,0
-252,456,0,0,0,0,0,0,0,0,0,-1,972,568,0,0
-245,456,0,0,0,0,0,0,0,0,0,-1,979,568,0,0
-238,456,0,0,0,0,0,0,0,0,0,-1,986,568,0,0
-231,456,0,0,0,0,0,0,0,0,0,-1,993,568,0,0
-224,456,0,0,0,0,0,0,0,0,0,-1,1000,568,0,0
-217,456,0,0,0,0,0,0,0,0,0,-1,1007,568,0,0
-210,456,0,0,0,0,0,0,0,0,0,-1,1014,568,0,0
-203,456,0,0,0,0,0,0,0,0,0,-1,1021,568,0,0
-196,456,0,0,0,0,0,0,0,0,0,-1,1028,568,0,0
-189,456,0,0,0,0,0,0,0,0,0,-1,1035,568,0,0
-182,456,0,0,0,0,0,0,0,0,0,-1,1042,568,0,0
-175,456,0,0,0,0,0,0,0,0,0,-1,1049,568,0,0
-168,456,0,0,0,0,0,0,0,0,0,-1,1056,568,0,0
-161,456,0,0,0,0,0,0,0,0,0,-1,1063,568,0,0
-154,456,0,0,0,0,0,0,0,0,0,-1,1070,568,0,0
-147,456,0,0,0,0,0,0,0,0,0,-1,1077,568,0,0
-140,456,0,0,0,0,0,0,0,0,0,-1,1084,568,0,0
-133,456,0,0,0,0,0,0,0,0,0,-1,1091,568,0,0
-126,456,0,0,0,0,0,0,0,0,0,-1,1098,568,0,0
-119,456,0,0,0,0,0,0,0,0,0,-1,1105,568,0,0
-112,456,0,0,0,0,0,0,0,0,0,-1,1112,568,0,0
-105,456,0,0,0,0,0,0,0,0,0,-1,1119,568,0,0
-98,456,0,0,0,0,0,0,0,0,0,-1,1126,568,0,0
-91,456,0,0,0,0,0,0,0,0,0,-1,1133,568,0,0
-84,456,0,0,0,0,0,0,0,0,0,-1,1140,568,0,0
-77,456,0,0,0,0,0,0,0,0,0,-1,1147,568,0,0
-70,456,0,0,0,0,0,0,0,0,0,-1,1154,568,0,0
-63,456,0,0,0,0,0,0,0,0,0,-1,1161,568,0,0
-56,456,0,0,0,0,0,0,0,0,0,-1,1168,568,0,0
-49,456,0,0,0,0,0,0,0,0,0,-1,1175,568,0,0
-42,456,0,0,0,0,0,0,0,0,0,-1,1182,568,0,0
-35,456,0,0,0,0,0,0,0,0,0,-1,1189,568,0,0
-28,456,0,0,0,0,0,0,0,0,0,-1,1196,568,0,0
-21,456,0,0,0,0,0,0,0,0,0,-1,1203,568,0,0
-14,456,0,0,0,0,0,0,0,0,0,-1,1210,568,0,0
-7,456,0,0,0,0,0,0,0,0,0,-1,1217,568,0,0
0,456,0,0,0,0,0,0,0,0,0,-1,1224,568,0,0
7,456,0,0,0,0,0,0,0,0,0,-1,1231,568,0,0
14,456,0,0,0,0,0,0,0,0,0,-1,1238,568,0,0
21,456,0,0,0,0,0,0,0,0,0,-1,1245,568,0,0
28,456,0,0,0,0,0,0,0,0,0,-1,1252,568,0,0
35,456,0,0,0,0,0,0,0,0,0,-1,1259,568,0,0
42,456,0,0,0,0,0,0,0,0,0,-1,1266,568,0,0
49,456,0,0,0,0,0,0,0,0,0,-1,1273,568,0,0
56,456,0,0,0,0,0,0,0,0,0,-1,1280,568,0,0
63,456,0,0,0,0,0,0,0,0,0,-1,1287,568,0,0
70,456,0,0,0,0,0,0,0,0,0,-1,1294,568,0,0
77,456,0,0,0,0,0,0,0,0,0,-1,1301,568,0,0
84,456,0,0,0,0,0,0,0,0,0,-1,1308,568,0,0
91,456,0,0,0,0,0,0,0,0,0,-1,1315,568,0,0
98,456,0,0,0,0,0,0,0,0,0,-1,1322,568,0,0
105,456,0,0,0,0,0,0,0,0,0,-1,1329,568,0,0
112,456,0,0,0,0,0,0,0,0,0,-1,1336,568,0,0
119,456,0,0,0,0,0,0,0,0,0,-1,1343,568,0,0
126,456,0,0,0,0,0,0,0,0,0,-1,1350,568,0,0
133,456,0,0,0,0,0,0,0,0,0,-1,1357,568,0,0
140,456,0,0,0,0,0,0,0,0,0,-1,1364,568,0,0
147,456,0,0,0,0,0,0,0,0,0,-1,1371,568,0,0
154,456,0,0,0,0,0,0,0,0,0,-1,1378,568,0,0
161,456,0,0,0,0,0,0,0,0,0,-1,1385,568,0,0
168,456,0,0,0,0,0,0,0,0,0,-1,1392,568,0,0
175,456,0,0,0,0,0,0,0,0,0,-1,1399,568,0,0
182,456,0,0,0,0,0,0,0,0,0,-1,1406,568,0,0
189,456,0,0,0,0,0,0,0,0,0,-1,1413,568,0,0
196,456,0,0,0,0,0,0,0,0,0,-1,1420,568,0,0
203,456,0,0,0,0,0,0,0,0,0,-1,1427,568,0,0
210,456,0,0,0,0,0,0,0,0,0,-1,1434,568,0,0
217,456,0,0,0,0,0,0,0,0,0,-1,1441,568,0,0
224,456,0,0,0,0,0,0,0,0,0,-1,1448,568,0,0
231,456,0,0,0,0,0,0,0,0,0,-1,1455,568,0,0
238,456,0,0,0,0,0,0,0,0,0,-1,1462,568,0,0
245,456,0,0,0,0,0,0,0,0,0,-1,1469,568,0,0
252,456,0,0,0,0,0,0,0,0,0,-1,1476,568,0,0
259,456,0,0,0,0,0,0,0,0,0,-1,1483,568,0,0
266,456,0,0,0,0,0,0,0,0,0,-1,1490,568,0,0
273,456,0,0,0,0,0,0,0,0,0,-1,1497,568,0,0
280,456,0,0,0,0,0,0,0,0,0,-1,1504,568,0,0
287,456,0,0,0,0,0,0,0,0,0,-1,1511,568,0,0
294,456,0,0,0,0,0,0,0,0,0,-1,1518,568,0,0
301,456,0,0,0,0,0,0,0,0,0,-1,1525,568,0,0
308,456,0,0,0,0,0,0,0,0,0,-1,1532,568,0,0
315,456,0,0,0,0,0,0,0,0,0,-1,1539,568,0,0
322,456,0,0,0,0,0,0,0,0,0,-1,1546,568,0,0
329,456,0,0,0,0,0,0,0,0,0,-1,1553,568,0,0
336,456,0,0,0,0,0,0,0,0,0,-1,1560,568,0,0
343,456,0,0,0,0,0,0,0,0,0,-1,1567,568,0,0
350,456,0,0,0,0,0,0,0,0,0,-1,1574,568,0,0
357,456,0,0,0,0,0,0,0,0,0,-1,1581,568,0,0
364,456,0,0,0,0,0,0,0,0,0,-1,1588,568,0,0
371,456,0,0,0,0,0,0,0,0,0,-1,1595,568,0,0
378,456,0,0,0,0,0,0,0,0,0,-1,1602,568,0,0
385,456,5.66284,0.660645,0,0,0,0,0,0,0,-1,1609,568,5.66285,-0.660615
392,456,17.5027,4.32971,0,0,0,0,0,0,0,-1,1616,568,17.5026,-4.32971
399,456,24.1917,5.99652,0,0,0,0,0,0,0,-1,1623,568,24.1916,-5.99651
406,456,24.446,4.53003,0,0,0,0,0,0,0,-1,1630,568,24.446,-4.53005
413,456,24.9418,2.90521,0,0,0,0,0,0,0,-1,1637,568,24.9418,-2.90524
420,456,25.3048,1.04712,0,0,0,0,0,0,0,-1,1644,568,25.3048,-1.04713
427,456,6.21375,2.02905,0,0,0,0,0,0,0,-1,1651,568,6.21372,-2.02904
434,456,3.0719,-4.86285,0,0,0,0,0,0,0,-1,1658,568,3.07184,4.86287
441,456,2.90344,-4.70459,0,0,0,0,0,0,0,-1,1665,568,2.90346,4.7046
448,456,3.06995,-4.93689,0,0,0,0,0,0,0,-1,1672,568,3.06991,4.93687
455,456,3.46582,-3.43701,0,0,0,0,0,0,0,-1,1679,568,3.46585,3.43698
462,456,4.68445,-4.45831,0,0,0,0,0,0,0,-1,1686,568,4.68439,4.45833
469,456,4.93201,-2.289,0,0,0,0,0,0,0,-1,1693,568,4.93197,2.28903
476,456,4.8363,-2.79364,0,0,0,0,0,0,0,-1,1700,568,4.83636,2.79363
483,456,12.8522,-13.692,0,0,0,0,0,0,0,-1,1707,568,12.8522,13.6919
490,456,85.7938,-111.662,0,0,0,0,0,0,0,-1,1714,568,85.7938,111.662
497,456,84.0723,-108.115,0,0,0,0,0,0,0,-1,1721,568,84.0723,108.115
504,456,82.5198,-104.081,0.0201476,-0.00354287,-0.0470443,0.056815,-0.0402103,-0.662067,0.0562904,0.0272802,1728,568,82.5197,104.081
511,456,81.1837,-99.6984,0.0239975,-0.00274944,-0.0414065,0.0541366,-0.0328886,-0.629196,0.0507408,0.0197257,1735,568,81.1837,99.6984
518,456,79.9014,-95.3075,0.0271873,-0.00163738,-0.0373245,0.0527854,-0.0272354,-0.601149,0.0469785,0.0228035,1742,568,79.9013,95.3075
525,456,78.6655,-90.9565,0.029892,-0.000112915,-0.0347365,0.0527273,-0.0229482,-0.581551,0.0448047,0.0246452,1749,568,78.6656,90.9565
532,456,77.4106,-86.4913,0.0320701,0.00179541,-0.0335172,0.0537096,-0.0198441,-0.573294,0.043941,0.0329455,1756,568,77.4106,86.4913
539,456,76.274,-82.0638,0,0,0,0,0,0,0,-1,1763,568,76.274,82.0638
546,456,75.0707,-77.971,0,0,0,0,0,0,0,-1,1770,568,75.0707,77.971
553,456,73.7429,-73.6782,0.0359168,0.00888843,-0.0366039,0.0614216,-0.0166164,-0.60856,0.0474661,0.0230212,1777,568,73.743,73.6782
560,456,72.821,-69.476,0.0371774,0.0116813,-0.0392069,0.0656567,-0.016798,-0.628215,0.050314,0.0202065,1784,568,72.8211,69.476
567,456,71.9371,-65.2148,0.0390208,0.0148866,-0.0418482,0.070507,-0.0165996,-0.645029,0.0534048,0.0480453,1791,568,71.9371,65.2149
574,456,70.9344,-61.0686,0,0,0,0,0,0,0,-1,1798,568,70.9345,61.0686
581,456,16.2228,-9.08563,0,0,0,0,0,0,0,-1,1805,568,16.2228,9.08562
588,456,5.23901,-0.0901489,0,0,0,0,0,0,0,-1,1812,568,5.23906,0.0901656
595,456,6.90063,3.14886,0,0,0,0,0,0,0,-1,1819,568,6.90066,-3.14887
602,456,16.894,4.10938,0,0,0,0,0,0,0,-1,1826,568,16.8941,-4.1094
609,456,14.9966,3.5708,0,0,0,0,0,0,0,-1,1833,568,14.9966,-3.57083
616,456,17.7407,2.6579,0,0,0,0,0,0,0,-1,1840,568,17.7408,-2.6579
623,456,20.6838,1.7121,0,0,0,0,0,0,0,-1,1847,568,20.6838,-1.71208
630,456,0,0,0,0,0,0,0,0,0,-1,1854,568,0,0
637,456,0,0,0,0,0,0,0,0,0,-1,1861,568,0,0
644,456,0,0,0,0,0,0,0,0,0,-1,1868,568,0,0
651,456,0,0,0,0,0,0,0,0,0,-1,1875,568,0,0
658,456,0,0,0,0,0,0,0,0,0,-1,1882,568,0,0
665,456,0,0,0,0,0,0,0,0,0,-1,1889,568,0,0
672,456,0,0,0,0,0,0,0,0,0,-1,1896,568,0,0
679,456,0,0,0,0,0,0,0,0,0,-1,1903,568,0,0
686,456,0,0,0,0,0,0,0,0,0,-1,1910,568,0,0
693,456,0,0,0,0,0,0,0,0,0,-1,1917,568,0,0
700,456,0,0,0,0,0,0,0,0,0,-1,1924,568,0,0
707,456,0,0,0,0,0,0,0,0,0,-1,1931,568,0,0
714,456,0,0,0,0,0,0,0,0,0,-1,1938,568,0,0
721,456,0,0,0,0,0,0,0,0,0,-1,1945,568,0,0
728,456,0,0,0,0,0,0,0,0,0,-1,1952,568,0,0
735,456,0,0,0,0,0,0,0,0,0,-1,1959,568,0,0
742,456,0,0,0,0,0,0,0,0,0,-1,1966,568,0,0
749,456,0,0,0,0,0,0,0,0,0,-1,1973,568,0,0
756,456,0,0,0,0,0,0,0,0,0,-1,1980,568,0,0
763,456,0,0,0,0,0,0,0,0,0,-1,1987,568,0,0
770,456,0,0,0,0,0,0,0,0,0,-1,1994,568,0,0
777,456,0,0,0,0,0,0,0,0,0,-1,2001,568,0,0
784,456,0,0,0,0,0,0,0,0,0,-1,2008,568,0,0
791,456,0,0,0,0,0,0,0,0,0,-1,2015,568,0,0
798,456,0,0,0,0,0,0,0,0,0,-1,2022,568,0,0
805,456,0,0,0,0,0,0,0,0,0,-1,2029,568,0,0
812,456,0,0,0,0,0,0,0,0,0,-1,2036,568,0,0
-700,449,0,0,0,0,0,0,0,0,0,-1,524,575,0,0
-693,449,0,0,0,0,0,0,0,0,0,-1,531,575,0,0
-686,449,0,0,0,0,0,0,0,0,0,-1,538,575,0,0
-679,449,0,0,0,0,0,0,0,0,0,-1,545,575,0,0
-672,449,0,0,0,0,0,0,0,0,0,-1,552,575,0,0
-665,449,0,0,0,0,0,0,0,0,0,-1,559,575,0,0
-658,449,0,0,0,0,0,0,0,0,0,-1,566,575,0,0
-651,449,0,0,0,0,0,0,0,0,0,-1,573,575,0,0
-644,449,0,0,0,0,0,0,0,0,0,-1,580,575,0,0
-637,449,0,0,0,0,0,0,0,0,0,-1,587,575,0,0
-630,449,0,0,0,0,0,0,0,0,0,-1,594,575,0,0
-623,449,0,0,0,0,0,0,0,0,0,-1,601,575,0,0
-616,449,0,0,0,0,0,0,0,0,0,-1,608,575,0,0
-609,449,0,0,0,0,0,0,0,0,0,-1,615,575,0,0
-602,449,0,0,0,0,0,0,0,0,0,-1,622,575,0,0
-595,449,0,0,0,0,0,0,0,0,0,-1,629,575,0,0
-588,449,0,0,0,0,0,0,0,0,0,-1,636,575,0,0
-581,449,0,0,0,0,0,0,0,0,0,-1,643,575,0,0
-574,449,0,0,0,0,0,0,0,0,0,-1,650,575,0,0
-567,449,0,0,0,0,0,0,0,0,0,-1,657,575,0,0
-560,449,0,0,0,0,0,0,0,0,0,-1,664,575,0,0
-553,449,0,0,0,0,0,0,0,0,0,-1,671,575,0,0
-546,449,0,0,0,0,0,0,0,0,0,-1,678,575,0,0
-539,449,0,0,0,0,0,0,0,0,0,-1,685,575,0,0
-532,449,0,0,0,0,0,0,0,0,0,-1,692,575,0,0
-525,449,0,0,0,0,0,0,0,0,0,-1,699,575,0,0
-518,449,0,0,0,0,0,0,0,0,0,-1,706,575,0,0
-511,449,-0.941345,-4.4519,0,0,0,0,0,0,0,-1,713,575,-0.941356,4.45191
-504,449,-14.1078,0.318237,0,0,0,0,0,0,0,-1,720,575,-14.1078,-0.318231
-497,449,-8.61292,-3.09009,0,0,0,0,0,0,0,-1,727,575,-8.61291,3.09011
-490,449,-7.50995,-2.96252,0,0,0,0,0,0,0,-1,734,575,-7.50995,2.96251
-483,449,-5.77789,-2.50061,0,0,0,0,0,0,0,-1,741,575,-5.77792,2.50059
-476,449,-4.1723,-2.07739,0,0,0,0,0,0,0,-1,748,575,-4.17228,2.0774
-469,449,-5.0976,-5.78448,0,0,0,0,0,0,0,-1,755,575,-5.09758,5.78451
-462,449,-6.54181,-9.54535,0,0,0,0,0,0,0,-1,762,575,-6.54178,9.54536
-455,449,-18.7641,-24.19,0,0,0,0,0,0,0,-1,769,575,-18.7641,24.19
-448,449,-63.4702,-57.163,0,0,0,0,0,0,0,-1,776,575,-63.4702,57.163
-441,449,-64.4776,-61.192,0,0,0,0,0,0,0,-1,783,575,-64.4776,61.192
-434,449,-65.4899,-65.5385,0.0351989,0.0204044,0.0344837,0.0630699,-0.00746657,0.679743,0.0447436,0.0370427,790,575,-65.49,65.5385
-427,449,-66.5597,-69.9331,0.0335389,0.0153376,0.0340216,0.059656,-0.0107795,0.65471,0.0438082,0.0317312,797,575,-66.5597,69.9331
-420,449,-67.6437,-74.2061,0.0318245,0.0105856,0.0339428,0.0567703,-0.0143603,0.63379,0.0434323,0.0207025,804,575,-67.6437,74.2061
-413,449,-69.0107,-78.6099,0.0301393,0.00598049,0.0343664,0.0544874,-0.0183676,0.616398,0.0437521,0.0309522,811,575,-69.0107,78.6098
-406,449,-70.1776,-82.9344,0.0286111,0.0017519,0.0352128,0.0528683,-0.0225053,0.60322,0.0446784,0.0299361,818,575,-70.1776,82.9344
-399,449,-71.3874,-87.2297,0.0274223,-0.00174833,0.036437,0.0520847,-0.0264107,0.595021,0.0461203,0.0195657,825,575,-71.3874,87.2297
-392,449,-72.5638,-91.6558,0.0268697,-0.00456548,0.0377742,0.0520658,-0.0297617,0.588247,0.0478246,0.0145348,832,575,-72.5638,91.6558
-385,449,-73.8638,-96.1107,0.0266518,-0.00675507,0.0395504,0.0528814,-0.0329846,0.585594,0.0500164,0.015802,839,575,-73.8638,96.1107
-378,449,-75.2983,-100.73,0.0271893,-0.00816538,0.0416997,0.0548038,-0.0357799,0.58492,0.0526816,0.019973,846,575,-75.2983,100.73
-371,449,-76.7379,-104.895,0,0,0,0,0,0,0,-1,853,575,-76.7379,104.895
-364,449,-54.8773,-103.736,0,0,0,0,0,0,0,-1,860,575,-54.8772,103.736
-357,449,-26.1739,-54.8464,0,0,0,0,0,0,0,-1,867,575,-26.1739,54.8464
-350,449,-2.8764,-9.90204,0,0,0,0,0,0,0,-1,874,575,-2.87638,9.90203
-343,449,-2.98492,-9.2254,0,0,0,0,0,0,0,-1,881,575,-2.98491,9.22541
-336,449,-1.29523,-9.54626,0,0,0,0,0,0,0,-1,888,575,-1.29525,9.54626
-329,449,-0.733398,-7.78937,0,0,0,0,0,0,0,-1,895,575,-0.733398,7.78937
-322,449,-0.628845,-3.16669,0,0,0,0,0,0,0,-1,902,575,-0.628861,3.16667
-315,449,-0.540344,-3.21918,0,0,0,0,0,0,0,-1,909,575,-0.540336,3.21917
-308,449,-1.04413,-2.99341,0,0,0,0,0,0,0,-1,916,575,-1.04415,2.99338
-301,449,-1.58691,-2.80725,0,0,0,0,0,0,0,-1,923,575,-1.58692,2.80728
-294,449,-3.71118,-2.76086,0,0,0,0,0,0,0,-1,930,575,-3.71119,2.76087
-287,449,-4.4082,-2.69525,0,0,0,0,0,0,0,-1,937,575,-4.40822,2.69526
-280,449,0.723999,-14.2697,0,0,0,0,0,0,0,-1,944,575,0.723977,14.2696
-273,449,0,0,0,0,0,0,0,0,0,-1,951,575,0,0
-266,449,0,0,0,0,0,0,0,0,0,-1,958,575,0,0
-259,449,0,0,0,0,0,0,0,0,0,-1,965,575,0,0
-252,449,0,0,0,0,0,0,0,0,0,-1,972,575,0,0
-245,449,0,0,0,0,0,0,0,0,0,-1,979,575,0,0
-238,449,0,0,0,0,0,0,0,0,0,-1,986,575,0,0
-231,449,0,0,0,0,0,0,0,0,0,-1,993,575,0,0
-224,449,0,0,0,0,0,0,0,0,0,-1,1000,575,0,0
-217,449,0,0,0,0,0,0,0,0,0,-1,1007,575,0,0
-210,449,0,0,0,0,0,0,0,0,0,-1,1014,575,0,0
-203,449,0,0,0,0,0,0,0,0,0,-1,1021,575,0,0
-196,449,0,0,0,0,0,0,0,0,0,-1,1028,575,0,0
-189,449,0,0,0,0,0,0,0,0,0,-1,1035,575,0,0
-182,449,0,0,0,0,0,0,0,0,0,-1,1042,575,0,0
-175,449,0,0,0,0,0,0,0,0,0,-1,1049,575,0,0
-168,449,0,0,0,0,0,0,0,0,0,-1,1056,575,0,0
-161,449,0,0,0,0,0,0,0,0,0,-1,1063,575,0,0
-154,449,0,0,0,0,0,0,0,0,0,-1,1070,575,0,0
-147,449,0,0,0,0,0,0,0,0,0,-1,1077,575,0,0
-140,449,0,0,0,0,0,0,0,0,0,-1,1084,575,0,0
-133,449,0,0,0,0,0,0,0,0,0,-1,1091,575,0,0
-126,449,0,0,0,0,0,0,0,0,0,-1,1098,575,0,0
-119,449,0,0,0,0,0,0,0,0,0,-1,1105,575,0,0
-112,449,0,0,0,0,0,0,0,0,0,-1,1112,575,0,0
-105,449,0,0,0,0,0,0,0,0,0,-1,1119,575,0,0
-98,449,0,0,0,0,0,0,0,0,0,-1,1126,575,0,0
-91,449,0,0,0,0,0,0,0,0,0,-1,1133,575,0,0
-84,449,0,0,0,0,0,0,0,0,0,-1,1140,575,0,0
-77,449,0,0,0,0,0,0,0,0,0,-1,1147,575,0,0
-70,449,0,0,0,0,0,0,0,0,0,-1,1154,575,0,0
-63,449,0,0,0,0,0,0,0,0,0,-1,1161,575,0,0
-56,449,0,0,0,0,0,0,0,0,0,-1,1168,575,0,0
-49,449,0,0,0,0,0,0,0,0,0,-1,1175,575,0,0
-42,449,0,0,0,0,0,0,0,0,0,-1,1182,575,0,0
-35,449,0,0,0,0,0,0,0,0,0,-1,1189,575,0,0
-28,449,0,0,0,0,0,0,0,0,0,-1,1196,575,0,0
-21,449,0,0,0,0,0,0,0,0,0,-1,1203,575,0,0
-14,449,0,0,0,0,0,0,0,0,0,-1,1210,575,0,0
-7,449,0,0,0,0,0,0,0,0,0,-1,1217,575,0,0
0,449,0,0,0,0,0,0,0,0,0,-1,1224,575,0,0
7,449,0,0,0,0,0,0,0,0,0,-1,1231,575,0,0
14,449,0,0,0,0,0,0,0,0,0,-1,1238,575,0,0
21,449,0,0,0,0,0,0,0,0,0,-1,1245,575,0,0
28,449,0,0,0,0,0,0,0,0,0,-1,1252,575,0,0
35,449,0,0,0,0,0,0,0,0,0,-1,1259,575,0,0
42,449,0,0,0,0,0,0,0,0,0,-1,1266,575,0,0
49,449,0,0,0,0,0,0,0,0,0,-1,1273,575,0,0
56,449,0,0,0,0,0,0,0,0,0,-1,1280,575,0,0
63,449,0,0,0,0,0,0,0,0,0,-1,1287,575,0,0
70,449,0,0,0,0,0,0,0,0,0,-1,1294,575,0,0
77,449,0,0,0,0,0,0,0,0,0,-1,1301,575,0,0
84,449,0,0,0,0,0,0,0,0,0,-1,1308,575,0,0
91,449,0,0,0,0,0,0,0,0,0,-1,1315,575,0,0
98,449,0,0,0,0,0,0,0,0,0,-1,1322,575,0,0
105,449,0,0,0,0,0,0,0,0,0,-1,1329,575,0,0
112,449,0,0,0,0,0,0,0,0,0,-1,1336,575,0,0
119,449,0,0,0,0,0,0,0,0,0,-1,1343,575,0,0
126,449,0,0,0,0,0,0,0,0,0,-1,1350,575,0,0
133,449,0,0,0,0,0,0,0,0,0,-1,1357,575,0,0
140,449,0,0,0,0,0,0,0,0,0,-1,1364,575,0,0
147,449,0,0,0,0,0,0,0,0,0,-1,1371,575,0,0
154,449,0,0,0,0,0,0,0,0,0,-1,1378,575,0,0
161,449,0,0,0,0,0,0,0,0,0,-1,1385,575,0,0
168,449,0,0,0,0,0,0,0,0,0,-1,1392,575,0,0
175,449,0,0,0,0,0,0,0,0,0,-1,1399,575,0,0
182,449,0,0,0,0,0,0,0,0,0,-1,1406,575,0,0
189,449,0,0,0,0,0,0,0,0,0,-1,1413,575,0,0
196,449,0,0,0,0,0,0,0,0,0,-1,1420,575,0,0
203,449,0,0,0,0,0,0,0,0,0,-1,1427,575,0,0
210,449,0,0,0,0,0,0,0,0,0,-1,1434,575,0,0
217,449,0,0,0,0,0,0,0,0,0,-1,1441,575,0,0
224,449,0,0,0,0,0,0,0,0,0,-1,1448,575,0,0
231,449,0,0,0,0,0,0,0,0,0,-1,1455,575,0,0
238,449,0,0,0,0,0,0,0,0,0,-1,1462,575,0,0
245,449,0,0,0,0,0,0,0,0,0,-1,1469,575,0,0
252,449,0,0,0,0,0,0,0,0,0,-1,1476,575,0,0
259,449,0,0,0,0,0,0,0,0,0,-1,1483,575,0,0
266,449,0,0,0,0,0,0,0,0,0,-1,1490,575,0,0
273,449,0,0,0,0,0,0,0,0,0,-1,1497,575,0,0
280,449,0,0,0,0,0,0,0,0,0,-1,1504,575,0,0
287,449,0,0,0,0,0,0,0,0,0,-1,1511,575,0,0
294,449,0,0,0,0,0,0,0,0,0,-1,1518,575,0,0
301,449,0,0,0,0,0,0,0,0,0,-1,1525,575,0,0
308,449,0,0,0,0,0,0,0,0,0,-1,1532,575,0,0
315,449,0,0,0,0,0,0,0,0,0,-1,1539,575,0,0
322,449,0,0,0,0,0,0,0,0,0,-1,1546,575,0,0
329,449,0,0,0,0,0,0,0,0,0,-1,1553,575,0,0
336,449,0,0,0,0,0,0,0,0,0,-1,1560,575,0,0
343,449,0,0,0,0,0,0,0,0,0,-1,1567,575,0,0
350,449,0,0,0,0,0,0,0,0,0,-1,1574,575,0,0
357,449,0,0,0,0,0,0,0,0,0,-1,1581,575,0,0
364,449,0,0,0,0,0,0,0,0,0,-1,1588,575,0,0
371,449,0,0,0,0,0,0,0,0,0,-1,1595,575,0,0
378,449,0,0,0,0,0,0,0,0,0,-1,1602,575,0,0
385,449,0,0,0,0,0,0,0,0,0,-1,1609,575,0,0
392,449,7.95471,3.66217,0,0,0,0,0,0,0,-1,1616,575,7.95471,-3.66218
399,449,19.9791,5.565,0,0,0,0,0,0,0,-1,1623,575,19.9791,-5.56499
406,449,24.9847,4.55969,0,0,0,0,0,0,0,-1,1630,575,24.9848,-4.55968
413,449,30.4159,3.15027,0,0,0,0,0,0,0,-1,1637,575,30.4159,-3.15028
420,449,23.9675,1.29718,0,0,0,0,0,0,0,-1,1644,575,23.9675,-1.29721
427,449,24.4276,-0.596558,0,0,0,0,0,0,0,-1,1651,575,24.4277,0.596569
434,449,25.61,-2.96594,0,0,0,0,0,0,0,-1,1658,575,25.61,2.96595
441,449,3.89856,-6.06458,0,0,0,0,0,0,0,-1,1665,575,3.89855,6.06459
448,449,4.03198,-5.18207,0,0,0,0,0,0,0,-1,1672,575,4.03197,5.18207
455,449,4.21948,-4.09467,0,0,0,0,0,0,0,-1,1679,575,4.21952,4.09465
462,449,4.23181,-2.96924,0,0,0,0,0,0,0,-1,1686,575,4.23185,2.96926
469,449,4.51672,-2.95135,0,0,0,0,0,0,0,-1,1693,575,4.51672,2.95135
476,449,4.71838,-1.86688,0,0,0,0,0,0,0,-1,1700,575,4.71842,1.86689
483,449,4.87878,-1.73126,0,0,0,0,0,0,0,-1,1707,575,4.87875,1.73128
490,449,5.73279,-2.74573,0,0,0,0,0,0,0,-1,1714,575,5.73282,2.74575
497,449,17.2095,-16.4381,0,0,0,0,0,0,0,-1,1721,575,17.2094,16.4381
504,449,87.0977,-102.466,0,0,0,0,0,0,0,-1,1728,575,87.0976,102.466
511,449,85.8263,-98.1045,0.0190608,-0.00215852,-0.0418694,0.0516438,-0.0347416,-0.661311,0.0501918,0.0270039,1735,575,85.8262,98.1045
518,449,84.5331,-93.6406,0.0230166,-0.00118494,-0.0375618,0.0503787,-0.0285471,-0.62957,0.0461452,0.0206107,1742,575,84.533,93.6406
525,449,83.204,-89.1984,0.0262393,0.000202252,-0.0349054,0.0504749,-0.0240334,-0.606905,0.043911,0.0266997,1749,575,83.204,89.1984
532,449,81.8704,-84.8242,0.028701,0.00189948,-0.0336503,0.0515207,-0.0209202,-0.595906,0.0430497,0.0264425,1756,575,81.8704,84.8242
539,449,80.6824,-80.5692,0.0305199,0.00380862,-0.0332109,0.05296,-0.0186315,-0.594221,0.0428881,0.0358684,1763,575,80.6824,80.5692
546,449,79.4835,-76.3383,0,0,0,0,0,0,0,-1,1770,575,79.4835,76.3382
553,449,78.4752,-72.1153,0.0329629,0.00848058,-0.0360447,0.0587883,-0.0173449,-0.621704,0.0460752,0.0355761,1777,575,78.4752,72.1153
560,449,77.4088,-67.8649,0.0339932,0.0111601,-0.0385008,0.0627344,-0.0175812,-0.641264,0.0487517,0.0247217,1784,575,77.4088,67.8649
567,449,76.4137,-63.8135,0.0353938,0.0141039,-0.0410477,0.0671544,-0.0176567,-0.658528,0.0516708,0.0182616,1791,575,76.4137,63.8135
574,449,75.3459,-59.6342,0,0,0,0,0,0,0,-1,1798,575,75.3459,59.6342
581,449,40.2885,-30.4276,0,0,0,0,0,0,0,-1,1805,575,40.2884,30.4275
588,449,12.3274,-4.5672,0,0,0,0,0,0,0,-1,1812,575,12.3274,4.5672
595,449,15.9352,-5.65479,0,0,0,0,0,0,0,-1,1819,575,15.9352,5.65478
602,449,9.46167,4.17444,0,0,0,0,0,0,0,-1,1826,575,9.46164,-4.17442
609,449,12.2028,3.18652,0,0,0,0,0,0,0,-1,1833,575,12.2027,-3.18655
616,449,14.9438,2.19867,0,0,0,0,0,0,0,-1,1840,575,14.9438,-2.19867
623,449,9.83789,-0.0820313,0,0,0,0,0,0,0,-1,1847,575,9.83794,0.0820443
630,449,8.90686,4.99329,0,0,0,0,0,0,0,-1,1854,575,8.90685,-4.99327
637,449,0,0,0,0,0,0,0,0,0,-1,1861,575,0,0
644,449,0,0,0,0,0,0,0,0,0,-1,1868,575,0,0
651,449,0,0,0,0,0,0,0,0,0,-1,1875,575,0,0
658,449,0,0,0,0,0,0,0,0,0,-1,1882,575,0,0
665,449,0,0,0,0,0,0,0,0,0,-1,1889,575,0,0
672,449,0,0,0,0,0,0,0,0,0,-1,1896,575,0,0
679,449,0,0,0,0,0,0,0,0,0,-1,1903,575,0,0
686,449,0,0,0,0,0,0,0,0,0,-1,1910,575,0,0
693,449,0,0,0,0,0,0,0,0,0,-1,1917,575,0,0
700,449,0,0,0,0,0,0,0,0,0,-1,1924,575,0,0
707,449,0,0,0,0,0,0,0,0,0,-1,1931,575,0,0
714,449,0,0,0,0,0,0,0,0,0,-1,1938,575,0,0
721,449,0,0,0,0,0,0,0,0,0,-1,1945,575,0,0
728,449,0,0,0,0,0,0,0,0,0,-1,1952,575,0,0
735,449,0,0,0,0,0,0,0,0,0,-1,1959,575,0,0
742,449,0,0,0,0,0,0,0,0,0,-1,1966,575,0,0
749,449,0,0,0,0,0,0,0,0,0,-1,1973,575,0,0
756,449,0,0,0,0,0,0,0,0,0,-1,1980,575,0,0
763,449,0,0,0,0,0,0,0,0,0,-1,1987,575,0,0
770,449,0,0,0,0,0,0,0,0,0,-1,1994,575,0,0
777,449,0,0,0,0,0,0,0,0,0,-1,2001,575,0,0
784,449,0,0,0,0,0,0,0,0,0,-1,2008,575,0,0
791,449,0,0,0,0,0,0,0,0,0,-1,2015,575,0,0
798,449,0,0,0,0,0,0,0,0,0,-1,2022,575,0,0
805,449,0,0,0,0,0,0,0,0,0,-1,2029,575,0,0
812,449,0,0,0,0,0,0,0,0,0,-1,2036,575,0,0
-700,442,0,0,0,0,0,0,0,0,0,-1,524,582,0,0
-693,442,0,0,0,0,0,0,0,0,0,-1,531,582,0,0
-686,442,0,0,0,0,0,0,0,0,0,-1,538,582,0,0
-679,442,0,0,0,0,0,0,0,0,0,-1,545,582,0,0
-672,442,0,0,0,0,0,0,0,0,0,-1,552,582,0,0
-665,442,0,0,0,0,0,0,0,0,0,-1,559,582,0,0
-658,442,0,0,0,0,0,0,0,0,0,-1,566,582,0,0
-651,442,0,0,0,0,0,0,0,0,0,-1,573,582,0,0
-644,442,0,0,0,0,0,0,0,0,0,-1,580,582,0,0
-637,442,0,0,0,0,0,0,0,0,0,-1,587,582,0,0
-630,442,0,0,0,0,0,0,0,0,0,-1,594,582,0,0
-623,442,0,0,0,0,0,0,0,0,0,-1,601,582,0,0
-616,442,0,0,0,0,0,0,0,0,0,-1,608,582,0,0
-609,442,0,0,0,0,0,0,0,0,0,-1,615,582,0,0
-602,442,0,0,0,0,0,0,0,0,0,-1,622,582,0,0
-595,442,0,0,0,0,0,0,0,0,0,-1,629,582,0,0
-588,442,0,0,0,0,0,0,0,0,0,-1,636,582,0,0
-581,442,0,0,0,0,0,0,0,0,0,-1,643,582,0,0
-574,442,0,0,0,0,0,0,0,0,0,-1,650,582,0,0
-567,442,0,0,0,0,0,0,0,0,0,-1,657,582,0,0
-560,442,0,0,0,0,0,0,0,0,0,-1,664,582,0,0
-553,442,0,0,0,0,0,0,0,0,0,-1,671,582,0,0
-546,442,0,0,0,0,0,0,0,0,0,-1,678,582,0,0
-539,442,0,0,0,0,0,0,0,0,0,-1,685,582,0,0
-532,442,0,0,0,0,0,0,0,0,0,-1,692,582,0,0
-525,442,0,0,0,0,0,0,0,0,0,-1,699,582,0,0
-518,442,-0.493774,-5.72943,0,0,0,0,0,0,0,-1,706,582,-0.493791,5.72946
-511,442,-1.33008,-6.18512,0,0,0,0,0,0,0,-1,713,582,-1.33006,6.18511
-504,442,-3.20807,-6.34082,0,0,0,0,0,0,0,-1,720,582,-3.2081,6.34083
-497,442,-13.6886,-0.250122,0,0,0,0,0,0,0,-1,727,582,-13.6886,0.250143
-490,442,-9.09039,-3.64862,0,0,0,0,0,0,0,-1,734,582,-9.09037,3.64861
-483,442,-7.36499,-1.01892,0,0,0,0,0,0,0,-1,741,582,-7.365,1.01895
-476,442,-4.84784,-4.44141,0,0,0,0,0,0,0,-1,748,582,-4.84787,4.44138
-469,442,-13.2483,-15.6807,0,0,0,0,0,0,0,-1,755,582,-13.2483,15.6807
-462,442,-15.0205,-19.2228,0,0,0,0,0,0,0,-1,762,582,-15.0205,19.2229
-455,442,-66.7059,-51.5317,0,0,0,0,0,0,0,-1,769,582,-66.706,51.5318
-448,442,-68.0117,-55.8601,0.034906,0.0276891,0.0387813,0.0702464,-0.00765128,0.739009,0.0495785,0.0434898,776,582,-68.0117,55.8601
-441,442,-69.2186,-59.9899,0.0338398,0.0236112,0.0367703,0.0658497,-0.00839875,0.716298,0.0469504,0.0246562,783,582,-69.2186,59.9899
-434,442,-70.2177,-64.1432,0.032112,0.0187848,0.0358083,0.0618714,-0.0109746,0.693405,0.0453506,0.0239487,790,582,-70.2177,64.1432
-427,442,-71.2509,-68.3305,0.0304474,0.0139945,0.0351804,0.0583504,-0.0139085,0.670544,0.0442708,0.0193851,797,582,-71.2509,68.3305
-420,442,-72.3318,-72.525,0.0286608,0.00944696,0.0350518,0.0553984,-0.0172907,0.651644,0.0438473,0.0181959,804,582,-72.3318,72.525
-413,442,-73.5504,-76.8483,0.0268788,0.00494879,0.0354392,0.0530106,-0.0211829,0.635367,0.0441299,0.0241215,811,582,-73.5504,76.8483
-406,442,-74.7305,-81.1937,0.0251774,0.000838438,0.0362741,0.0512689,-0.0252531,0.623554,0.0450231,0.0230236,818,582,-74.7305,81.1936
-399,442,-76.0074,-85.3787,0.0238214,-0.0024928,0.0375235,0.0504276,-0.029099,0.616777,0.0464619,0.0182448,825,582,-76.0074,85.3787
-392,442,-77.3221,-89.6964,0.0229789,-0.00513521,0.0388777,0.0502628,-0.0324191,0.611925,0.0481056,0.0210312,832,582,-77.3221,89.6963
-385,442,-78.6385,-94.2581,0.0224396,-0.00718487,0.0406818,0.0509218,-0.0356671,0.610808,0.0502501,0.0322715,839,582,-78.6385,94.258
-378,442,-80.0317,-98.9506,0,0,0,0,0,0,0,-1,846,582,-80.0317,98.9506
-371,442,-57.6353,-99.1408,0,0,0,0,0,0,0,-1,853,582,-57.6353,99.1408
-364,442,-6.89764,-17.5333,0,0,0,0,0,0,0,-1,860,582,-6.89765,17.5333
-357,442,-4.9115,-11.2649,0,0,0,0,0,0,0,-1,867,582,-4.91147,11.2649
-350,442,-1.75372,-6.27618,0,0,0,0,0,0,0,-1,874,582,-1.75371,6.27618
-343,442,-1.4599,-4.63605,0,0,0,0,0,0,0,-1,881,582,-1.4599,4.63607
-336,442,-1.4054,-2.64313,0,0,0,0,0,0,0,-1,888,582,-1.40539,2.64315
-329,442,-0.952576,-2.76923,0,0,0,0,0,0,0,-1,895,582,-0.952571,2.7692
-322,442,-0.972534,-2.63208,0,0,0,0,0,0,0,-1,902,582,-0.972512,2.6321
-315,442,-0.445557,-2.89764,0,0,0,0,0,0,0,-1,909,582,-0.445582,2.89765
-308,442,-0.654175,-3.07831,0,0,0,0,0,0,0,-1,916,582,-0.654145,3.07832
-301,442,-1.37427,-2.41455,0,0,0,0,0,0,0,-1,923,582,-1.37425,2.41453
-294,442,-2.99963,-2.07855,0,0,0,0,0,0,0,-1,930,582,-2.99964,2.07857
-287,442,3.91034,-10.1913,0,0,0,0,0,0,0,-1,937,582,3.91034,10.1913
-280,442,0,0,0,0,0,0,0,0,0,-1,944,582,0,0
-273,442,0,0,0,0,0,0,0,0,0,-1,951,582,0,0
-266,442,0,0,0,0,0,0,0,0,0,-1,958,582,0,0
-259,442,0,0,0,0,0,0,0,0,0,-1,965,582,0,0
-252,442,0,0,0,0,0,0,0,0,0,-1,972,582,0,0
-245,442,0,0,0,0,0,0,0,0,0,-1,979,582,0,0
-238,442,0,0,0,0,0,0,0,0,0,-1,986,582,0,0
-231,442,0,0,0,0,0,0,0,0,0,-1,993,582,0,0
-224,442,0,0,0,0,0,0,0,0,0,-1,1000,582,0,0
-217,442,0,0,0,0,0,0,0,0,0,-1,1007,582,0,0
-210,442,0,0,0,0,0,0,0,0,0,-1,1014,582,0,0
-203,442,0,0,0,0,0,0,0,0,0,-1,1021,582,0,0
-196,442,0,0,0,0,0,0,0,0,0,-1,1028,582,0,0
-189,442,0,0,0,0,0,0,0,0,0,-1,1035,582,0,0
-182,442,0,0,0,0,0,0,0,0,0,-1,1042,582,0,0
-175,442,0,0,0,0,0,0,0,0,0,-1,1049,582,0,0
-168,442,0,0,0,0,0,0,0,0,0,-1,1056,582,0,0
-161,442,0,0,0,0,0,0,0,0,0,-1,1063,582,0,0
-154,442,0,0,0,0,0,0,0,0,0,-1,1070,582,0,0
-147,442,0,0,0,0,0,0,0,0,0,-1,1077,582,0,0
-140,442,0,0,0,0,0,0,0,0,0,-1,1084,582,0,0
-133,442,0,0,0,0,0,0,0,0,0,-1,1091,582,0,0
-126,442,0,0,0,0,0,0,0,0,0,-1,1098,582,0,0
-119,442,0,0,0,0,0,0,0,0,0,-1,1105,582,0,0
-112,442,0,0,0,0,0,0,0,0,0,-1,1112,582,0,0
-105,442,0,0,0,0,0,0,0,0,0,-1,1119,582,0,0
-98,442,0,0,0,0,0,0,0,0,0,-1,1126,582,0,0
-91,442,0,0,0,0,0,0,0,0,0,-1,1133,582,0,0
-84,442,0,0,0,0,0,0,0,0,0,-1,1140,582,0,0
-77,442,0,0,0,0,0,0,0,0,0,-1,1147,582,0,0
-70,442,0,0,0,0,0,0,0,0,0,-1,1154,582,0,0
-63,442,0,0,0,0,0,0,0,0,0,-1,1161,582,0,0
-56,442,0,0,0,0,0,0,0,0,0,-1,1168,582,0,0
-49,442,0,0,0,0,0,0,0,0,0,-1,1175,582,0,0
-42,442,0,0,0,0,0,0,0,0,0,-1,1182,582,0,0
-35,442,0,0,0,0,0,0,0,0,0,-1,1189,582,0,0
-28,442,0,0,0,0,0,0,0,0,0,-1,1196,582,0,0
-21,442,0,0,0,0,0,0,0,0,0,-1,1203,582,0,0
-14,442,0,0,0,0,0,0,0,0,0,-1,1210,582,0,0
-7,442,0,0,0,0,0,0,0,0,0,-1,1217,582,0,0
0,442,0,0,0,0,0,0,0,0,0,-1,1224,582,0,0
7,442,0,0,0,0,0,0,0,0,0,-1,1231,582,0,0
14,442,0,0,0,0,0,0,0,0,0,-1,1238,582,0,0
21,442,0,0,0,0,0,0,0,0,0,-1,1245,582,0,0
28,442,0,0,0,0,0,0,0,0,0,-1,1252,582,0,0
35,442,0,0,0,0,0,0,0,0,0,-1,1259,582,0,0
42,442,0,0,0,0,0,0,0,0,0,-1,1266,582,0,0
49,442,0,0,0,0,0,0,0,0,0,-1,1273,582,0,0
56,442,0,0,0,0,0,0,0,0,0,-1,1280,582,0,0
63,442,0,0,0,0,0,0,0,0,0,-1,1287,582,0,0
70,442,0,0,0,0,0,0,0,0,0,-1,1294,582,0,0
77,442,0,0,0,0,0,0,0,0,0,-1,1301,582,0,0
84,442,0,0,0,0,0,0,0,0,0,-1,1308,582,0,0
91,442,0,0,0,0,0,0,0,0,0,-1,1315,582,0,0
98,442,0,0,0,0,0,0,0,0,0,-1,1322,582,0,0
105,442,0,0,0,0,0,0,0,0,0,-1,1329,582,0,0
112,442,0,0,0,0,0,0,0,0,0,-1,1336,582,0,0
119,442,0,0,0,0,0,0,0,0,0,-1,1343,582,0,0
126,442,0,0,0,0,0,0,0,0,0,-1,1350,582,0,0
133,442,0,0,0,0,0,0,0,0,0,-1,1357,582,0,0
140,442,0,0,0,0,0,0,0,0,0,-1,1364,582,0,0
147,442,0,0,0,0,0,0,0,0,0,-1,1371,582,0,0
154,442,0,0,0,0,0,0,0,0,0,-1,1378,582,0,0
161,442,0,0,0,0,0,0,0,0,0,-1,1385,582,0,0
168,442,0,0,0,0,0,0,0,0,0,-1,1392,582,0,0
175,442,0,0,0,0,0,0,0,0,0,-1,1399,582,0,0
182,442,0,0,0,0,0,0,0,0,0,-1,1406,582,0,0
189,442,0,0,0,0,0,0,0,0,0,-1,1413,582,0,0
196,442,0,0,0,0,0,0,0,0,0,-1,1420,582,0,0
203,442,0,0,0,0,0,0,0,0,0,-1,1427,582,0,0
210,442,0,0,0,0,0,0,0,0,0,-1,1434,582,0,0
217,442,0,0,0,0,0,0,0,0,0,-1,1441,582,0,0
224,442,0,0,0,0,0,0,0,0,0,-1,1448,582,0,0
231,442,0,0,0,0,0,0,0,0,0,-1,1455,582,0,0
238,442,0,0,0,0,0,0,0,0,0,-1,1462,582,0,0
245,442,0,0,0,0,0,0,0,0,0,-1,1469,582,0,0
252,442,0,0,0,0,0,0,0,0,0,-1,1476,582,0,0
259,442,0,0,0,0,0,0,0,0,0,-1,1483,582,0,0
266,442,0,0,0,0,0,0,0,0,0,-1,1490,582,0,0
273,442,0,0,0,0,0,0,0,0,0,-1,1497,582,0,0
280,442,0,0,0,0,0,0,0,0,0,-1,1504,582,0,0
287,442,0,0,0,0,0,0,0,0,0,-1,1511,582,0,0
294,442,0,0,0,0,0,0,0,0,0,-1,1518,582,0,0
301,442,0,0,0,0,0,0,0,0,0,-1,1525,582,0,0
308,442,0,0,0,0,0,0,0,0,0,-1,1532,582,0,0
315,442,0,0,0,0,0,0,0,0,0,-1,1539,582,0,0
322,442,0,0,0,0,0,0,0,0,0,-1,1546,582,0,0
329,442,0,0,0,0,0,0,0,0,0,-1,1553,582,0,0
336,442,0,0,0,0,0,0,0,0,0,-1,1560,582,0,0
343,442,0,0,0,0,0,0,0,0,0,-1,1567,582,0,0
350,442,0,0,0,0,0,0,0,0,0,-1,1574,582,0,0
357,442,0,0,0,0,0,0,0,0,0,-1,1581,582,0,0
364,442,0,0,0,0,0,0,0,0,0,-1,1588,582,0,0
371,442,0,0,0,0,0,0,0,0,0,-1,1595,582,0,0
378,442,0,0,0,0,0,0,0,0,0,-1,1602,582,0,0
385,442,0,0,0,0,0,0,0,0,0,-1,1609,582,0,0
392,442,0,0,0,0,0,0,0,0,0,-1,1616,582,0,0
399,442,0,0,0,0,0,0,0,0,0,-1,1623,582,0,0
406,442,17.6321,4.08295,0,0,0,0,0,0,0,-1,1630,582,17.6321,-4.08293
413,442,25.4768,2.74445,0,0,0,0,0,0,0,-1,1637,582,25.4768,-2.74444
420,442,22.7478,1.55011,0,0,0,0,0,0,0,-1,1644,582,22.7478,-1.55009
427,442,23.2969,-0.456787,0,0,0,0,0,0,0,-1,1651,582,23.2968,0.456769
434,442,23.9512,-2.49365,0,0,0,0,0,0,0,-1,1658,582,23.9512,2.49366
441,442,24.8251,-4.43958,0,0,0,0,0,0,0,-1,1665,582,24.8251,4.43956
448,442,4.7749,-5.88562,0,0,0,0,0,0,0,-1,1672,582,4.7749,5.8856
455,442,4.87024,-4.60687,0,0,0,0,0,0,0,-1,1679,582,4.87019,4.60686
462,442,5.02307,-3.72821,0,0,0,0,0,0,0,-1,1686,582,5.02311,3.7282
469,442,5.12976,-2.98834,0,0,0,0,0,0,0,-1,1693,582,5.12971,2.98834
476,442,5.4624,1.76947,0,0,0,0,0,0,0,-1,1700,582,5.46234,-1.76944
483,442,5.98486,1.87042,0,0,0,0,0,0,0,-1,1707,582,5.98492,-1.87045
490,442,5.04407,-2.35834,0,0,0,0,0,0,0,-1,1714,582,5.04411,2.35837
497,442,6.20984,-3.07831,0,0,0,0,0,0,0,-1,1721,582,6.2098,3.07833
504,442,20.9276,-19.7709,0,0,0,0,0,0,0,-1,1728,582,20.9276,19.771
511,442,90.3826,-96.5721,0,0,0,0,0,0,0,-1,1735,582,90.3826,96.5721
518,442,89.0726,-92.0317,0,0,0,0,0,0,0,-1,1742,582,89.0726,92.0317
525,442,87.8049,-87.3476,0.0229168,0.0011262,-0.0337054,0.0474441,-0.0234011,-0.629073,0.0416802,0.0377888,1749,582,87.8049,87.3476
532,442,86.2823,-83.0266,0.0254923,0.00251023,-0.0325132,0.0484853,-0.0204828,-0.615536,0.0408982,0.0410806,1756,582,86.2824,83.0265
539,442,85.0892,-78.8636,0.0273899,0.004159,-0.0320466,0.0498612,-0.0183122,-0.611534,0.0407406,0.0392062,1763,582,85.0892,78.8636
546,442,84.0154,-74.5855,0.0290081,0.00625188,-0.0327017,0.0522546,-0.0169946,-0.617981,0.0416728,0.0448047,1770,582,84.0154,74.5855
553,442,82.963,-70.5168,0.0299405,0.00851941,-0.0347639,0.0556064,-0.0171465,-0.635965,0.0439167,0.0421194,1777,582,82.963,70.5168
560,442,81.9696,-66.3518,0.0307655,0.011035,-0.0372178,0.0594033,-0.0176028,-0.655844,0.0465917,0.0208372,1784,582,81.9696,66.3518
567,442,80.7833,-62.2955,0.0317919,0.0136884,-0.039787,0.0635438,-0.0180635,-0.673549,0.0494949,0.0169318,1791,582,80.7834,62.2955
574,442,79.6913,-58.1878,0.0330786,0.0164691,-0.0422674,0.0678493,-0.0183017,-0.688393,0.0524097,0.0221477,1798,582,79.6913,58.1878
581,442,78.5778,-54.0378,0,0,0,0,0,0,0,-1,1805,582,78.5778,54.0379
588,442,35.4717,-22.1596,0,0,0,0,0,0,0,-1,1812,582,35.4717,22.1596
595,442,16.27,-6.47083,0,0,0,0,0,0,0,-1,1819,582,16.27,6.47082
602,442,16.2213,-4.49225,0,0,0,0,0,0,0,-1,1826,582,16.2213,4.49223
609,442,12.761,2.97223,0,0,0,0,0,0,0,-1,1833,582,12.761,-2.97221
616,442,9.78345,-0.103394,0,0,0,0,0,0,0,-1,1840,582,9.78341,0.103424
623,442,9.23828,0.326721,0,0,0,0,0,0,0,-1,1847,582,9.23829,-0.326727
630,442,7.74304,2.3924,0,0,0,0,0,0,0,-1,1854,582,7.7431,-2.39238
637,442,5.87805,1.84027,0,0,0,0,0,0,0,-1,1861,582,5.87807,-1.84025
644,442,0,0,0,0,0,0,0,0,0,-1,1868,582,0,0
651,442,0,0,0,0,0,0,0,0,0,-1,1875,582,0,0
658,442,0,0,0,0,0,0,0,0,0,-1,1882,582,0,0
665,442,0,0,0,0,0,0,0,0,0,-1,1889,582,0,0
672,442,0,0,0,0,0,0,0,0,0,-1,1896,582,0,0
679,442,0,0,0,0,0,0,0,0,0,-1,1903,582,0,0
686,442,0,0,0,0,0,0,0,0,0,-1,1910,582,0,0
693,442,0,0,0,0,0,0,0,0,0,-1,1917,582,0,0
700,442,0,0,0,0,0,0,0,0,0,-1,1924,582,0,0
707,442,0,0,0,0,0,0,0,0,0,-1,1931,582,0,0
714,442,0,0,0,0,0,0,0,0,0,-1,1938,582,0,0
721,442,0,0,0,0,0,0,0,0,0,-1,1945,582,0,0
728,442,0,0,0,0,0,0,0,0,0,-1,1952,582,0,0
735,442,0,0,0,0,0,0,0,0,0,-1,1959,582,0,0
742,442,0,0,0,0,0,0,0,0,0,-1,1966,582,0,0
749,442,0,0,0,0,0,0,0,0,0,-1,1973,582,0,0
756,442,0,0,0,0,0,0,0,0,0,-1,1980,582,0,0
763,442,0,0,0,0,0,0,0,0,0,-1,1987,582,0,0
770,442,0,0,0,0,0,0,0,0,0,-1,1994,582,0,0
777,442,0,0,0,0,0,0,0,0,0,-1,2001,582,0,0
784,442,0,0,0,0,0,0,0,0,0,-1,2008,582,0,0
791,442,0,0,0,0,0,0,0,0,0,-1,2015,582,0,0
798,442,0,0,0,0,0,0,0,0,0,-1,2022,582,0,0
805,442,0,0,0,0,0,0,0,0,0,-1,2029,582,0,0
812,442,0,0,0,0,0,0,0,0,0,-1,2036,582,0,0
-700,435,0,0,0,0,0,0,0,0,0,-1,524,589,0,0
-693,435,0,0,0,0,0,0,0,0,0,-1,531,589,0,0
-686,435,0,0,0,0,0,0,0,0,0,-1,538,589,0,0
-679,435,0,0,0,0,0,0,0,0,0,-1,545,589,0,0
-672,435,0,0,0,0,0,0,0,0,0,-1,552,589,0,0
-665,435,0,0,0,0,0,0,0,0,0,-1,559,589,0,0
-658,435,0,0,0,0,0,0,0,0,0,-1,566,589,0,0
-651,435,0,0,0,0,0,0,0,0,0,-1,573,589,0,0
-644,435,0,0,0,0,0,0,0,0,0,-1,580,589,0,0
-637,435,0,0,0,0,0,0,0,0,0,-1,587,589,0,0
-630,435,0,0,0,0,0,0,0,0,0,-1,594,589,0,0
-623,435,0,0,0,0,0,0,0,0,0,-1,601,589,0,0
-616,435,0,0,0,0,0,0,0,0,0,-1,608,589,0,0
-609,435,0,0,0,0,0,0,0,0,0,-1,615,589,0,0
-602,435,0,0,0,0,0,0,0,0,0,-1,622,589,0,0
-595,435,0,0,0,0,0,0,0,0,0,-1,629,589,0,0
-588,435,0,0,0,0,0,0,0,0,0,-1,636,589,0,0
-581,435,0,0,0,0,0,0,0,0,0,-1,643,589,0,0
-574,435,0,0,0,0,0,0,0,0,0,-1,650,589,0,0
-567,435,0,0,0,0,0,0,0,0,0,-1,657,589,0,0
-560,435,0,0,0,0,0,0,0,0,0,-1,664,589,0,0
-553,435,0,0,0,0,0,0,0,0,0,-1,671,589,0,0
-546,435,0,0,0,0,0,0,0,0,0,-1,678,589,0,0
-539,435,0,0,0,0,0,0,0,0,0,-1,685,589,0,0
-532,435,0,0,0,0,0,0,0,0,0,-1,692,589,0,0
-525,435,-10.0776,10.0547,0,0,0,0,0,0,0,-1,699,589,-10.0776,-10.0547
-518,435,-1.83093,-5.82367,0,0,0,0,0,0,0,-1,706,589,-1.83093,5.8237
-511,435,-2.45154,-5.33118,0,0,0,0,0,0,0,-1,713,589,-2.45151,5.33115
-504,435,-3.07208,-4.83862,0,0,0,0,0,0,0,-1,720,589,-3.0721,4.8386
-497,435,-6.31012,-5.84698,0,0,0,0,0,0,0,-1,727,589,-6.31012,5.84697
-490,435,-5.81903,-0.458679,0,0,0,0,0,0,0,-1,734,589,-5.81902,0.458684
-483,435,-6.96503,-3.01624,0,0,0,0,0,0,0,-1,741,589,-6.96505,3.01623
-476,435,-14.5337,-14.7686,0,0,0,0,0,0,0,-1,748,589,-14.5337,14.7685
-469,435,-19.5134,-19.9833,0,0,0,0,0,0,0,-1,755,589,-19.5134,19.9833
-462,435,-30.1574,-30.2823,0,0,0,0,0,0,0,-1,762,589,-30.1574,30.2823
-455,435,-71.5195,-50.4019,0,0,0,0,0,0,0,-1,769,589,-71.5195,50.4019
-448,435,-72.4461,-54.5184,0.0315933,0.0261829,0.0389633,0.0679452,-0.010169,0.750739,0.0490392,0.0264094,776,589,-72.4461,54.5183
-441,435,-73.607,-58.5434,0.0304363,0.0220485,0.037161,0.0636394,-0.0111545,0.729207,0.0465917,0.0172759,783,589,-73.607,58.5434
-434,435,-74.611,-62.5751,0.0288324,0.017452,0.0361082,0.059696,-0.0134116,0.707247,0.04494,0.0175836,790,589,-74.611,62.5751
-427,435,-75.7158,-66.7711,0.0271437,0.0129116,0.0353487,0.0560855,-0.0160301,0.686071,0.0437244,0.0147312,797,589,-75.7158,66.771
-420,435,-76.8451,-70.9269,0.0252535,0.00853501,0.0351726,0.0530466,-0.0192581,0.668731,0.0432378,0.013985,804,589,-76.8451,70.9269
-413,435,-77.9891,-75.1426,0.0233128,0.00414568,0.0355398,0.0505385,-0.02308,0.653702,0.043478,0.0150804,811,589,-77.9891,75.1426
-406,435,-79.2393,-79.394,0.0213207,0.000127026,0.0364049,0.0486397,-0.0271919,0.64377,0.0443613,0.0179414,818,589,-79.2393,79.394
-399,435,-80.6714,-83.47,0.0196001,-0.00310927,0.0377704,0.0476856,-0.0311948,0.639383,0.0458722,0.0288414,825,589,-80.6714,83.47
-392,435,-82.0732,-87.2184,0.0181017,-0.00570786,0.0393008,0.0472612,-0.0348673,0.638334,0.0475966,0.047776,832,589,-82.0732,87.2185
-385,435,-83.4778,-92.4502,0,0,0,0,0,0,0,-1,839,589,-83.4779,92.4502
-378,435,-58.4313,-91.4755,0,0,0,0,0,0,0,-1,846,589,-58.4314,91.4755
-371,435,-10.247,-21.7153,0,0,0,0,0,0,0,-1,853,589,-10.247,21.7153
-364,435,-5.62848,-11.5937,0,0,0,0,0,0,0,-1,860,589,-5.62847,11.5937
-357,435,-5.57343,-10.9666,0,0,0,0,0,0,0,-1,867,589,-5.57342,10.9666
-350,435,-0.86676,-3.69836,0,0,0,0,0,0,0,-1,874,589,-0.866784,3.69834
-343,435,-1.60706,-2.36835,0,0,0,0,0,0,0,-1,881,589,-1.60706,2.36838
-336,435,-2.07263,-1.94012,0,0,0,0,0,0,0,-1,888,589,-2.07265,1.94014
-329,435,-2.55963,-1.5517,0,0,0,0,0,0,0,-1,895,589,-2.5596,1.55168
-322,435,-3.08545,-1.55255,0,0,0,0,0,0,0,-1,902,589,-3.08544,1.55254
-315,435,-0.404297,-2.63763,0,0,0,0,0,0,0,-1,909,589,-0.404276,2.63761
-308,435,-1.70056,-1.90369,0,0,0,0,0,0,0,-1,916,589,-1.70056,1.90367
-301,435,-1.19391,-2.41632,0,0,0,0,0,0,0,-1,923,589,-1.1939,2.41635
-294,435,3.78278,-10.3275,0,0,0,0,0,0,0,-1,930,589,3.78281,10.3275
-287,435,0,0,0,0,0,0,0,0,0,-1,937,589,0,0
-280,435,0,0,0,0,0,0,0,0,0,-1,944,589,0,0
-273,435,0,0,0,0,0,0,0,0,0,-1,951,589,0,0
-266,435,0,0,0,0,0,0,0,0,0,-1,958,589,0,0
-259,435,0,0,0,0,0,0,0,0,0,-1,965,589,0,0
-252,435,0,0,0,0,0,0,0,0,0,-1,972,589,0,0
-245,435,0,0,0,0,0,0,0,0,0,-1,979,589,0,0
-238,435,0,0,0,0,0,0,0,0,0,-1,986,589,0,0
-231,435,0,0,0,0,0,0,0,0,0,-1,993,589,0,0
-224,435,0,0,0,0,0,0,0,0,0,-1,1000,589,0,0
-217,435,0,0,0,0,0,0,0,0,0,-1,1007,589,0,0
-210,435,0,0,0,0,0,0,0,0,0,-1,1014,589,0,0
-203,435,0,0,0,0,0,0,0,0,0,-1,1021,589,0,0
-196,435,0,0,0,0,0,0,0,0,0,-1,1028,589,0,0
-189,435,0,0,0,0,0,0,0,0,0,-1,1035,589,0,0
-182,435,0,0,0,0,0,0,0,0,0,-1,1042,589,0,0
-175,435,0,0,0,0,0,0,0,0,0,-1,1049,589,0,0
-168,435,0,0,0,0,0,0,0,0,0,-1,1056,589,0,0
-161,435,0,0,0,0,0,0,0,0,0,-1,1063,589,0,0
-154,435,0,0,0,0,0,0,0,0,0,-1,1070,589,0,0
-147,435,0,0,0,0,0,0,0,0,0,-1,1077,589,0,0
-140,435,0,0,0,0,0,0,0,0,0,-1,1084,589,0,0
-133,435,0,0,0,0,0,0,0,0,0,-1,1091,589,0,0
-126,435,0,0,0,0,0,0,0,0,0,-1,1098,589,0,0
-119,435,0,0,0,0,0,0,0,0,0,-1,1105,589,0,0
-112,435,0,0,0,0,0,0,0,0,0,-1,1112,589,0,0
-105,435,0,0,0,0,0,0,0,0,0,-1,1119,589,0,0
-98,435,0,0,0,0,0,0,0,0,0,-1,1126,589,0,0
-91,435,0,0,0,0,0,0,0,0,0,-1,1133,589,0,0
-84,435,0,0,0,0,0,0,0,0,0,-1,1140,589,0,0
-77,435,0,0,0,0,0,0,0,0,0,-1,1147,589,0,0
-70,435,0,0,0,0,0,0,0,0,0,-1,1154,589,0,0
-63,435,0,0,0,0,0,0,0,0,0,-1,1161,589,0,0
-56,435,0,0,0,0,0,0,0,0,0,-1,1168,589,0,0
-49,435,0,0,0,0,0,0,0,0,0,-1,1175,589,0,0
-42,435,0,0,0,0,0,0,0,0,0,-1,1182,589,0,0
-35,435,0,0,0,0,0,0,0,0,0,-1,1189,589,0,0
-28,435,0,0,0,0,0,0,0,0,0,-1,1196,589,0,0
-21,435,0,0,0,0,0,0,0,0,0,-1,1203,589,0,0
-14,435,0,0,0,0,0,0,0,0,0,-1,1210,589,0,0
-7,435,0,0,0,0,0,0,0,0,0,-1,1217,589,0,0
0,435,0,0,0,0,0,0,0,0,0,-1,1224,589,0,0
7,435,0,0,0,0,0,0,0,0,0,-1,1231,589,0,0
14,435,0,0,0,0,0,0,0,0,0,-1,1238,589,0,0
21,435,0,0,0,0,0,0,0,0,0,-1,1245,589,0,0
28,435,0,0,0,0,0,0,0,0,0,-1,1252,589,0,0
35,435,0,0,0,0,0,0,0,0,0,-1,1259,589,0,0
42,435,0,0,0,0,0,0,0,0,0,-1,1266,589,0,0
49,435,0,0,0,0,0,0,0,0,0,-1,1273,589,0,0
56,435,0,0,0,0,0,0,0,0,0,-1,1280,589,0,0
63,435,0,0,0,0,0,0,0,0,0,-1,1287,589,0,0
70,435,0,0,0,0,0,0,0,0,0,-1,1294,589,0,0
77,435,0,0,0,0,0,0,0,0,0,-1,1301,589,0,0
84,435,0,0,0,0,0,0,0,0,0,-1,1308,589,0,0
91,435,0,0,0,0,0,0,0,0,0,-1,1315,589,0,0
98,435,0,0,0,0,0,0,0,0,0,-1,1322,589,0,0
105,435,0,0,0,0,0,0,0,0,0,-1,1329,589,0,0
112,435,0,0,0,0,0,0,0,0,0,-1,1336,589,0,0
119,435,0,0,0,0,0,0,0,0,0,-1,1343,589,0,0
126,435,0,0,0,0,0,0,0,0,0,-1,1350,589,0,0
133,435,0,0,0,0,0,0,0,0,0,-1,1357,589,0,0
140,435,0,0,0,0,0,0,0,0,0,-1,1364,589,0,0
147,435,0,0,0,0,0,0,0,0,0,-1,1371,589,0,0
154,435,0,0,0,0,0,0,0,0,0,-1,1378,589,0,0
161,435,0,0,0,0,0,0,0,0,0,-1,1385,589,0,0
168,435,0,0,0,0,0,0,0,0,0,-1,1392,589,0,0
175,435,0,0,0,0,0,0,0,0,0,-1,1399,589,0,0
182,435,0,0,0,0,0,0,0,0,0,-1,1406,589,0,0
189,435,0,0,0,0,0,0,0,0,0,-1,1413,589,0,0
196,435,0,0,0,0,0,0,0,0,0,-1,1420,589,0,0
203,435,0,0,0,0,0,0,0,0,0,-1,1427,589,0,0
210,435,0,0,0,0,0,0,0,0,0,-1,1434,589,0,0
217,435,0,0,0,0,0,0,0,0,0,-1,1441,589,0,0
224,435,0,0,0,0,0,0,0,0,0,-1,1448,589,0,0
231,435,0,0,0,0,0,0,0,0,0,-1,1455,589,0,0
238,435,0,0,0,0,0,0,0,0,0,-1,1462,589,0,0
245,435,0,0,0,0,0,0,0,0,0,-1,1469,589,0,0
252,435,0,0,0,0,0,0,0,0,0,-1,1476,589,0,0
259,435,0,0,0,0,0,0,0,0,0,-1,1483,589,0,0
266,435,0,0,0,0,0,0,0,0,0,-1,1490,589,0,0
273,435,0,0,0,0,0,0,0,0,0,-1,1497,589,0,0
280,435,0,0,0,0,0,0,0,0,0,-1,1504,589,0,0
287,435,0,0,0,0,0,0,0,0,0,-1,1511,589,0,0
294,435,0,0,0,0,0,0,0,0,0,-1,1518,589,0,0
301,435,0,0,0,0,0,0,0,0,0,-1,1525,589,0,0
308,435,0,0,0,0,0,0,0,0,0,-1,1532,589,0,0
315,435,0,0,0,0,0,0,0,0,0,-1,1539,589,0,0
322,435,0,0,0,0,0,0,0,0,0,-1,1546,589,0,0
329,435,0,0,0,0,0,0,0,0,0,-1,1553,589,0,0
336,435,0,0,0,0,0,0,0,0,0,-1,1560,589,0,0
343,435,0,0,0,0,0,0,0,0,0,-1,1567,589,0,0
350,435,0,0,0,0,0,0,0,0,0,-1,1574,589,0,0
357,435,0,0,0,0,0,0,0,0,0,-1,1581,589,0,0
364,435,0,0,0,0,0,0,0,0,0,-1,1588,589,0,0
371,435,0,0,0,0,0,0,0,0,0,-1,1595,589,0,0
378,435,0,0,0,0,0,0,0,0,0,-1,1602,589,0,0
385,435,0,0,0,0,0,0,0,0,0,-1,1609,589,0,0
392,435,0,0,0,0,0,0,0,0,0,-1,1616,589,0,0
399,435,0,0,0,0,0,0,0,0,0,-1,1623,589,0,0
406,435,0,0,0,0,0,0,0,0,0,-1,1630,589,0,0
413,435,20.4565,3.49835,0,0,0,0,0,0,0,-1,1637,589,20.4565,-3.49836
420,435,21.4015,1.49609,0,0,0,0,0,0,0,-1,1644,589,21.4015,-1.49609
427,435,22.0464,-0.373962,0,0,0,0,0,0,0,-1,1651,589,22.0464,0.373972
434,435,22.1863,-1.54407,0,0,0,0,0,0,0,-1,1658,589,22.1862,1.54405
441,435,22.3992,-2.38287,0,0,0,0,0,0,0,-1,1665,589,22.3992,2.38289
448,435,7.4585,-0.00292969,0,0,0,0,0,0,0,-1,1672,589,7.45848,0.00294131
455,435,5.49915,-5.047,0,0,0,0,0,0,0,-1,1679,589,5.49914,5.04703
462,435,5.60669,-4.71466,0,0,0,0,0,0,0,-1,1686,589,5.60675,4.71469
469,435,5.87708,1.22351,0,0,0,0,0,0,0,-1,1693,589,5.87703,-1.22351
476,435,6.14136,1.37714,0,0,0,0,0,0,0,-1,1700,589,6.14138,-1.37712
483,435,6.49243,1.36169,0,0,0,0,0,0,0,-1,1707,589,6.49242,-1.36171
490,435,4.38391,-1.36218,0,0,0,0,0,0,0,-1,1714,589,4.38389,1.3622
497,435,7.23499,-3.64551,0,0,0,0,0,0,0,-1,1721,589,7.23495,3.64551
504,435,7.31189,-3.75909,0,0,0,0,0,0,0,-1,1728,589,7.31184,3.75911
511,435,63.4806,-86.4816,0,0,0,0,0,0,0,-1,1735,589,63.4806,86.4816
518,435,80.7251,-90.1277,0,0,0,0,0,0,0,-1,1742,589,80.7252,90.1278
525,435,92.5544,-85.3852,0,0,0,0,0,0,0,-1,1749,589,92.5544,85.3852
532,435,90.7262,-81.3296,0,0,0,0,0,0,0,-1,1756,589,90.7262,81.3296
539,435,89.5649,-77.3717,0.0246194,0.00501235,-0.0297038,0.0460957,-0.0164639,-0.626005,0.037445,0.0467125,1763,589,89.5649,77.3717
546,435,88.4307,-73.0441,0.0263192,0.00689828,-0.0305081,0.0486249,-0.0154075,-0.631322,0.0385916,0.0398797,1770,589,88.4306,73.0441
553,435,87.3973,-68.9623,0.0271645,0.00899898,-0.032709,0.0520284,-0.015865,-0.649969,0.0410099,0.0231083,1777,589,87.3974,68.9623
560,435,86.3383,-64.8748,0.027732,0.0112954,-0.0352795,0.0557378,-0.0167104,-0.670965,0.0438043,0.0132974,1784,589,86.3382,64.8748
567,435,85.1681,-60.7688,0.0283321,0.0136121,-0.037978,0.0596567,-0.0177125,-0.689686,0.0468061,0.015495,1791,589,85.1682,60.7688
574,435,84.0692,-56.7256,0.0290936,0.0160159,-0.0406081,0.0636859,-0.0185764,-0.705572,0.0498176,0.0180463,1798,589,84.0692,56.7257
581,435,83.0477,-52.7041,0.029971,0.0182136,-0.0432407,0.0677307,-0.0195462,-0.717836,0.0528872,0.0393005,1805,589,83.0478,52.7041
588,435,82.3712,-48.7737,0,0,0,0,0,0,0,-1,1812,589,82.3712,48.7738
595,435,38.4182,-22.4416,0,0,0,0,0,0,0,-1,1819,589,38.4182,22.4416
602,435,16.8671,-6.39026,0,0,0,0,0,0,0,-1,1826,589,16.867,6.39024
609,435,15.2611,-3.42242,0,0,0,0,0,0,0,-1,1833,589,15.2611,3.42242
616,435,5.05151,-2.75269,0,0,0,0,0,0,0,-1,1840,589,5.05157,2.7527
623,435,11.7588,3.9704,0,0,0,0,0,0,0,-1,1847,589,11.7587,-3.97043
630,435,4.72742,-0.87561,0,0,0,0,0,0,0,-1,1854,589,4.7274,0.875636
637,435,5.05286,1.48792,0,0,0,0,0,0,0,-1,1861,589,5.05291,-1.48792
644,435,0,0,0,0,0,0,0,0,0,-1,1868,589,0,0
651,435,0,0,0,0,0,0,0,0,0,-1,1875,589,0,0
658,435,0,0,0,0,0,0,0,0,0,-1,1882,589,0,0
665,435,0,0,0,0,0,0,0,0,0,-1,1889,589,0,0
672,435,0,0,0,0,0,0,0,0,0,-1,1896,589,0,0
679,435,0,0,0,0,0,0,0,0,0,-1,1903,589,0,0
686,435,0,0,0,0,0,0,0,0,0,-1,1910,589,0,0
693,435,0,0,0,0,0,0,0,0,0,-1,1917,589,0,0
700,435,0,0,0,0,0,0,0,0,0,-1,1924,589,0,0
707,435,0,0,0,0,0,0,0,0,0,-1,1931,589,0,0
714,435,0,0,0,0,0,0,0,0,0,-1,1938,589,0,0
721,435,0,0,0,0,0,0,0,0,0,-1,1945,589,0,0
728,435,0,0,0,0,0,0,0,0,0,-1,1952,589,0,0
735,435,0,0,0,0,0,0,0,0,0,-1,1959,589,0,0
742,435,0,0,0,0,0,0,0,0,0,-1,1966,589,0,0
749,435,0,0,0,0,0,0,0,0,0,-1,1973,589,0,0
756,435,0,0,0,0,0,0,0,0,0,-1,1980,589,0,0
763,435,0,0,0,0,0,0,0,0,0,-1,1987,589,0,0
770,435,0,0,0,0,0,0,0,0,0,-1,1994,589,0,0
777,435,0,0,0,0,0,0,0,0,0,-1,2001,589,0,0
784,435,0,0,0,0,0,0,0,0,0,-1,2008,589,0,0
791,435,0,0,0,0,0,0,0,0,0,-1,2015,589,0,0
798,435,0,0,0,0,0,0,0,0,0,-1,2022,589,0,0
805,435,0,0,0,0,0,0,0,0,0,-1,2029,589,0,0
812,435,0,0,0,0,0,0,0,0,0,-1,2036,589,0,0
-700,428,0,0,0,0,0,0,0,0,0,-1,524,596,0,0
-693,428,0,0,0,0,0,0,0,0,0,-1,531,596,0,0
-686,428,0,0,0,0,0,0,0,0,0,-1,538,596,0,0
-679,428,0,0,0,0,0,0,0,0,0,-1,545,596,0,0
-672,428,0,0,0,0,0,0,0,0,0,-1,552,596,0,0
-665,428,0,0,0,0,0,0,0,0,0,-1,559,596,0,0
-658,428,0,0,0,0,0,0,0,0,0,-1,566,596,0,0
-651,428,0,0,0,0,0,0,0,0,0,-1,573,596,0,0
-644,428,0,0,0,0,0,0,0,0,0,-1,580,596,0,0
-637,428,0,0,0,0,0,0,0,0,0,-1,587,596,0,0
-630,428,0,0,0,0,0,0,0,0,0,-1,594,596,0,0
-623,428,0,0,0,0,0,0,0,0,0,-1,601,596,0,0
-616,428,0,0,0,0,0,0,0,0,0,-1,608,596,0,0
-609,428,0,0,0,0,0,0,0,0,0,-1,615,596,0,0
-602,428,0,0,0,0,0,0,0,0,0,-1,622,596,0,0
-595,428,0,0,0,0,0,0,0,0,0,-1,629,596,0,0
-588,428,0,0,0,0,0,0,0,0,0,-1,636,596,0,0
-581,428,0,0,0,0,0,0,0,0,0,-1,643,596,0,0
-574,428,0,0,0,0,0,0,0,0,0,-1,650,596,0,0
-567,428,0,0,0,0,0,0,0,0,0,-1,657,596,0,0
-560,428,0,0,0,0,0,0,0,0,0,-1,664,596,0,0
-553,428,0,0,0,0,0,0,0,0,0,-1,671,596,0,0
-546,428,0,0,0,0,0,0,0,0,0,-1,678,596,0,0
-539,428,0,0,0,0,0,0,0,0,0,-1,685,596,0,0
-532,428,0,0,0,0,0,0,0,0,0,-1,692,596,0,0
-525,428,-9.59918,7.58618,0,0,0,0,0,0,0,-1,699,596,-9.59918,-7.5862
-518,428,-2.92285,-4.81854,0,0,0,0,0,0,0,-1,706,596,-2.92285,4.81856
-511,428,-3.68811,-4.79474,0,0,0,0,0,0,0,-1,713,596,-3.68811,4.79474
-504,428,-4.45337,-4.77094,0,0,0,0,0,0,0,-1,720,596,-4.45337,4.77092
-497,428,-2.98108,-3.77502,0,0,0,0,0,0,0,-1,727,596,-2.98106,3.77505
-490,428,-6.39044,-2.80481,0,0,0,0,0,0,0,-1,734,596,-6.39047,2.80483
-483,428,-10.8474,-9.11322,0,0,0,0,0,0,0,-1,741,596,-10.8473,9.11321
-476,428,-20.6912,-18.7292,0,0,0,0,0,0,0,-1,748,596,-20.6912,18.7292
-469,428,-23.0342,-21.3403,0,0,0,0,0,0,0,-1,755,596,-23.0342,21.3403
-462,428,-75.0519,-45.1108,0,0,0,0,0,0,0,-1,762,596,-75.0519,45.1108
-455,428,-75.994,-49.1338,0.0293251,0.0289577,0.0402251,0.0693669,-0.0110841,0.783114,0.0503477,0.0291183,769,596,-75.994,49.1338
-448,428,-76.8351,-53.0941,0.0282276,0.0248178,0.0383432,0.0649038,-0.0118585,0.763181,0.0477158,0.0189747,776,596,-76.8351,53.0941
-441,428,-77.9532,-57.0656,0.0269073,0.0206038,0.0367429,0.0606334,-0.0131223,0.742614,0.0454325,0.0176447,783,596,-77.9532,57.0656
-434,428,-79.1049,-61.1428,0.0253351,0.016226,0.0356068,0.0566774,-0.0151164,0.721788,0.043704,0.0133345,790,596,-79.1049,61.1428
-427,428,-80.206,-65.262,0.0235888,0.011916,0.0347462,0.0529853,-0.0174806,0.702189,0.04237,0.0163221,797,596,-80.206,65.262
-420,428,-81.2974,-69.3675,0.0215852,0.00768626,0.0345058,0.0498344,-0.0205629,0.686027,0.0417986,0.0158741,804,596,-81.2974,69.3675
-413,428,-82.493,-73.5682,0.0194832,0.00342547,0.0348317,0.0471995,-0.0242907,0.672124,0.0419753,0.0173057,811,596,-82.4931,73.5682
-406,428,-83.8633,-77.8269,0.0172002,-0.000484472,0.0357097,0.045146,-0.0284303,0.664031,0.0428432,0.0256821,818,596,-83.8633,77.8269
-399,428,-85.3704,-81.6042,0,0,0,0,0,0,0,-1,825,596,-85.3704,81.6042
-392,428,-86.8685,-84.6426,0,0,0,0,0,0,0,-1,832,596,-86.8685,84.6426
-385,428,-58.4974,-83.2041,0,0,0,0,0,0,0,-1,839,596,-58.4974,83.2041
-378,428,-10.8172,-20.952,0,0,0,0,0,0,0,-1,846,596,-10.8172,20.952
-371,428,-5.96155,-11.0703,0,0,0,0,0,0,0,-1,853,596,-5.96154,11.0702
-364,428,-6.33643,-10.7223,0,0,0,0,0,0,0,-1,860,596,-6.33645,10.7223
-357,428,-3.20996,-4.70966,0,0,0,0,0,0,0,-1,867,596,-3.20997,4.70965
-350,428,-1.62793,-3.94055,0,0,0,0,0,0,0,-1,874,596,-1.62794,3.94055
-343,428,-0.0567017,-4.80994,0,0,0,0,0,0,0,-1,881,596,-0.0567096,4.80996
-336,428,-3.29175,-1.39569,0,0,0,0,0,0,0,-1,888,596,-3.29172,1.39568
-329,428,-3.71564,-0.791321,0,0,0,0,0,0,0,-1,895,596,-3.71564,0.791299
-322,428,-5.52863,-3.59827,0,0,0,0,0,0,0,-1,902,596,-5.52865,3.59829
-315,428,-4.57172,-1.22052,0,0,0,0,0,0,0,-1,909,596,-4.57171,1.22052
-308,428,-5.60742,-3.40961,0,0,0,0,0,0,0,-1,916,596,-5.60744,3.40959
-301,428,0,0,0,0,0,0,0,0,0,-1,923,596,0,0
-294,428,0,0,0,0,0,0,0,0,0,-1,930,596,0,0
-287,428,0,0,0,0,0,0,0,0,0,-1,937,596,0,0
-280,428,0,0,0,0,0,0,0,0,0,-1,944,596,0,0
-273,428,0,0,0,0,0,0,0,0,0,-1,951,596,0,0
-266,428,0,0,0,0,0,0,0,0,0,-1,958,596,0,0
-259,428,0,0,0,0,0,0,0,0,0,-1,965,596,0,0
-252,428,0,0,0,0,0,0,0,0,0,-1,972,596,0,0
-245,428,0,0,0,0,0,0,0,0,0,-1,979,596,0,0
-238,428,0,0,0,0,0,0,0,0,0,-1,986,596,0,0
-231,428,0,0,0,0,0,0,0,0,0,-1,993,596,0,0
-224,428,0,0,0,0,0,0,0,0,0,-1,1000,596,0,0
-217,428,0,0,0,0,0,0,0,0,0,-1,1007,596,0,0
-210,428,0,0,0,0,0,0,0,0,0,-1,1014,596,0,0
-203,428,0,0,0,0,0,0,0,0,0,-1,1021,596,0,0
-196,428,0,0,0,0,0,0,0,0,0,-1,1028,596,0,0
-189,428,0,0,0,0,0,0,0,0,0,-1,1035,596,0,0
-182,428,0,0,0,0,0,0,0,0,0,-1,1042,596,0,0
-175,428,0,0,0,0,0,0,0,0,0,-1,1049,596,0,0
-168,428,0,0,0,0,0,0,0,0,0,-1,1056,596,0,0
-161,428,0,0,0,0,0,0,0,0,0,-1,1063,596,0,0
-154,428,0,0,0,0,0,0,0,0,0,-1,1070,596,0,0
-147,428,0,0,0,0,0,0,0,0,0,-1,1077,596,0,0
-140,428,0,0,0,0,0,0,0,0,0,-1,1084,596,0,0
-133,428,0,0,0,0,0,0,0,0,0,-1,1091,596,0,0
-126,428,0,0,0,0,0,0,0,0,0,-1,1098,596,0,0
-119,428,0,0,0,0,0,0,0,0,0,-1,1105,596,0,0
-112,428,0,0,0,0,0,0,0,0,0,-1,1112,596,0,0
-105,428,0,0,0,0,0,0,0,0,0,-1,1119,596,0,0
-98,428,0,0,0,0,0,0,0,0,0,-1,1126,596,0,0
-91,428,0,0,0,0,0,0,0,0,0,-1,1133,596,0,0
-84,428,0,0,0,0,0,0,0,0,0,-1,1140,596,0,0
-77,428,0,0,0,0,0,0,0,0,0,-1,1147,596,0,0
-70,428,0,0,0,0,0,0,0,0,0,-1,1154,596,0,0
-63,428,0,0,0,0,0,0,0,0,0,-1,1161,596,0,0
-56,428,0,0,0,0,0,0,0,0,0,-1,1168,596,0,0
-49,428,0,0,0,0,0,0,0,0,0,-1,1175,596,0,0
-42,428,0,0,0,0,0,0,0,0,0,-1,1182,596,0,0
-35,428,0,0,0,0,0,0,0,0,0,-1,1189,596,0,0
-28,428,0,0,0,0,0,0,0,0,0,-1,1196,596,0,0
-21,428,0,0,0,0,0,0,0,0,0,-1,1203,596,0,0
-14,428,0,0,0,0,0,0,0,0,0,-1,1210,596,0,0
-7,428,0,0,0,0,0,0,0,0,0,-1,1217,596,0,0
0,428,0,0,0,0,0,0,0,0,0,-1,1224,596,0,0
7,428,0,0,0,0,0,0,0,0,0,-1,1231,596,0,0
14,428,0,0,0,0,0,0,0,0,0,-1,1238,596,0,0
21,428,0,0,0,0,0,0,0,0,0,-1,1245,596,0,0
28,428,0,0,0,0,0,0,0,0,0,-1,1252,596,0,0
35,428,0,0,0,0,0,0,0,0,0,-1,1259,596,0,0
42,428,0,0,0,0,0,0,0,0,0,-1,1266,596,0,0
49,428,0,0,0,0,0,0,0,0,0,-1,1273,596,0,0
56,428,0,0,0,0,0,0,0,0,0,-1,1280,596,0,0
63,428,0,0,0,0,0,0,0,0,0,-1,1287,596,0,0
70,428,0,0,0,0,0,0,0,0,0,-1,1294,596,0,0
77,428,0,0,0,0,0,0,0,0,0,-1,1301,596,0,0
84,428,0,0,0,0,0,0,0,0,0,-1,1308,596,0,0
91,428,0,0,0,0,0,0,0,0,0,-1,1315,596,0,0
98,428,0,0,0,0,0,0,0,0,0,-1,1322,596,0,0
105,428,0,0,0,0,0,0,0,0,0,-1,1329,596,0,0
112,428,0,0,0,0,0,0,0,0,0,-1,1336,596,0,0
119,428,0,0,0,0,0,0,0,0,0,-1,1343,596,0,0
126,428,0,0,0,0,0,0,0,0,0,-1,1350,596,0,0
133,428,0,0,0,0,0,0,0,0,0,-1,1357,596,0,0
140,428,0,0,0,0,0,0,0,0,0,-1,1364,596,0,0
147,428,0,0,0,0,0,0,0,0,0,-1,1371,596,0,0
154,428,0,0,0,0,0,0,0,0,0,-1,1378,596,0,0
161,428,0,0,0,0,0,0,0,0,0,-1,1385,596,0,0
168,428,0,0,0,0,0,0,0,0,0,-1,1392,596,0,0
175,428,0,0,0,0,0,0,0,0,0,-1,1399,596,0,0
182,428,0,0,0,0,0,0,0,0,0,-1,1406,596,0,0
189,428,0,0,0,0,0,0,0,0,0,-1,1413,596,0,0
196,428,0,0,0,0,0,0,0,0,0,-1,1420,596,0,0
203,428,0,0,0,0,0,0,0,0,0,-1,1427,596,0,0
210,428,0,0,0,0,0,0,0,0,0,-1,1434,596,0,0
217,428,0,0,0,0,0,0,0,0,0,-1,1441,596,0,0
224,428,0,0,0,0,0,0,0,0,0,-1,1448,596,0,0
231,428,0,0,0,0,0,0,0,0,0,-1,1455,596,0,0
238,428,0,0,0,0,0,0,0,0,0,-1,1462,596,0,0
245,428,0,0,0,0,0,0,0,0,0,-1,1469,596,0,0
252,428,0,0,0,0,0,0,0,0,0,-1,1476,596,0,0
259,428,0,0,0,0,0,0,0,0,0,-1,1483,596,0,0
266,428,0,0,0,0,0,0,0,0,0,-1,1490,596,0,0
273,428,0,0,0,0,0,0,0,0,0,-1,1497,596,0,0
280,428,0,0,0,0,0,0,0,0,0,-1,1504,596,0,0
287,428,0,0,0,0,0,0,0,0,0,-1,1511,596,0,0
294,428,0,0,0,0,0,0,0,0,0,-1,1518,596,0,0
301,428,0,0,0,0,0,0,0,0,0,-1,1525,596,0,0
308,428,0,0,0,0,0,0,0,0,0,-1,1532,596,0,0
315,428,0,0,0,0,0,0,0,0,0,-1,1539,596,0,0
322,428,0,0,0,0,0,0,0,0,0,-1,1546,596,0,0
329,428,0,0,0,0,0,0,0,0,0,-1,1553,596,0,0
336,428,0,0,0,0,0,0,0,0,0,-1,1560,596,0,0
343,428,0,0,0,0,0,0,0,0,0,-1,1567,596,0,0
350,428,0,0,0,0,0,0,0,0,0,-1,1574,596,0,0
357,428,0,0,0,0,0,0,0,0,0,-1,1581,596,0,0
364,428,0,0,0,0,0,0,0,0,0,-1,1588,596,0,0
371,428,0,0,0,0,0,0,0,0,0,-1,1595,596,0,0
378,428,0,0,0,0,0,0,0,0,0,-1,1602,596,0,0
385,428,0,0,0,0,0,0,0,0,0,-1,1609,596,0,0
392,428,0,0,0,0,0,0,0,0,0,-1,1616,596,0,0
399,428,0,0,0,0,0,0,0,0,0,-1,1623,596,0,0
406,428,0,0,0,0,0,0,0,0,0,-1,1630,596,0,0
413,428,0,0,0,0,0,0,0,0,0,-1,1637,596,0,0
420,428,19.8469,1.3399,0,0,0,0,0,0,0,-1,1644,596,19.8469,-1.33992
427,428,20.7299,-0.225281,0,0,0,0,0,0,0,-1,1651,596,20.7299,0.225262
434,428,19.8915,-0.583069,0,0,0,0,0,0,0,-1,1658,596,19.8915,0.583075
441,428,8.17993,0.607483,0,0,0,0,0,0,0,-1,1665,596,8.17997,-0.607513
448,428,7.84338,-0.385986,0,0,0,0,0,0,0,-1,1672,596,7.84336,0.385978
455,428,6.64038,2.1123,0,0,0,0,0,0,0,-1,1679,596,6.64037,-2.11229
462,428,4.84106,4.12341,0,0,0,0,0,0,0,-1,1686,596,4.84107,-4.12339
469,428,7.83789,3.10083,0,0,0,0,0,0,0,-1,1693,596,7.83785,-3.10086
476,428,7.61255,1.73956,0,0,0,0,0,0,0,-1,1700,596,7.61252,-1.73958
483,428,7.22766,1.05121,0,0,0,0,0,0,0,-1,1707,596,7.2277,-1.05121
490,428,5.4071,-3.2793,0,0,0,0,0,0,0,-1,1714,596,5.40707,3.27929
497,428,7.84106,-3.65491,0,0,0,0,0,0,0,-1,1721,596,7.84107,3.65491
504,428,6.92139,-2.83356,0,0,0,0,0,0,0,-1,1728,596,6.92137,2.83353
511,428,7.88501,-3.78723,0,0,0,0,0,0,0,-1,1735,596,7.88502,3.78722
518,428,66.0958,-82.11,0,0,0,0,0,0,0,-1,1742,596,66.0958,82.11
525,428,89.0146,-85.3292,0,0,0,0,0,0,0,-1,1749,596,89.0147,85.3292
532,428,95.3704,-80.4916,0,0,0,0,0,0,0,-1,1756,596,95.3703,80.4916
539,428,94.0908,-76.0257,0,0,0,0,0,0,0,-1,1763,596,94.0909,76.0257
546,428,92.8114,-71.5598,0,0,0,0,0,0,0,-1,1770,596,92.8114,71.5598
553,428,91.9287,-67.4369,0.024371,0.00991246,-0.0298137,0.0478194,-0.0135359,-0.666453,0.0372212,0.0198946,1777,596,91.9287,67.4369
560,428,90.7242,-63.3757,0.0246729,0.0119043,-0.0326296,0.0515369,-0.0149597,-0.688789,0.0402814,0.017389,1784,596,90.7242,63.3757
567,428,89.6239,-59.3243,0.0249982,0.0138914,-0.0355338,0.0554099,-0.0165204,-0.707883,0.0435052,0.0187565,1791,596,89.6239,59.3244
574,428,88.5714,-55.4041,0.0255134,0.01598,-0.0383912,0.0594327,-0.0179392,-0.723633,0.0467629,0.022589,1798,596,88.5714,55.4041
581,428,87.5405,-51.483,0.0262845,0.0180439,-0.0412532,0.0636227,-0.0192943,-0.735624,0.0501006,0.0183344,1805,596,87.5406,51.483
588,428,86.6665,-47.5829,0.0274061,0.0198381,-0.0441356,0.0679196,-0.0206754,-0.742635,0.0535197,0.0383689,1812,596,86.6665,47.5829
595,428,85.8766,-43.6551,0,0,0,0,0,0,0,-1,1819,596,85.8766,43.6551
602,428,39.9447,-21.0615,0,0,0,0,0,0,0,-1,1826,596,39.9447,21.0615
609,428,17.2073,-4.82446,0,0,0,0,0,0,0,-1,1833,596,17.2073,4.82447
616,428,15.7817,-3.09558,0,0,0,0,0,0,0,-1,1840,596,15.7817,3.09556
623,428,9.53577,1.12518,0,0,0,0,0,0,0,-1,1847,596,9.5358,-1.1252
630,428,7.07996,6.88562,0,0,0,0,0,0,0,-1,1854,596,7.0799,-6.88565
637,428,3.95435,1.90857,0,0,0,0,0,0,0,-1,1861,596,3.95439,-1.90858
644,428,5.75476,0.888977,0,0,0,0,0,0,0,-1,1868,596,5.75472,-0.888955
651,428,0,0,0,0,0,0,0,0,0,-1,1875,596,0,0
658,428,0,0,0,0,0,0,0,0,0,-1,1882,596,0,0
665,428,0,0,0,0,0,0,0,0,0,-1,1889,596,0,0
672,428,0,0,0,0,0,0,0,0,0,-1,1896,596,0,0
679,428,0,0,0,0,0,0,0,0,0,-1,1903,596,0,0
686,428,0,0,0,0,0,0,0,0,0,-1,1910,596,0,0
693,428,0,0,0,0,0,0,0,0,0,-1,1917,596,0,0
700,428,0,0,0,0,0,0,0,0,0,-1,1924,596,0,0
707,428,0,0,0,0,0,0,0,0,0,-1,1931,596,0,0
714,428,0,0,0,0,0,0,0,0,0,-1,1938,596,0,0
721,428,0,0,0,0,0,0,0,0,0,-1,1945,596,0,0
728,428,0,0,0,0,0,0,0,0,0,-1,1952,596,0,0
735,428,0,0,0,0,0,0,0,0,0,-1,1959,596,0,0
742,428,0,0,0,0,0,0,0,0,0,-1,1966,596,0,0
749,428,0,0,0,0,0,0,0,0,0,-1,1973,596,0,0
756,428,0,0,0,0,0,0,0,0,0,-1,1980,596,0,0
763,428,0,0,0,0,0,0,0,0,0,-1,1987,596,0,0
770,428,0,0,0,0,0,0,0,0,0,-1,1994,596,0,0
777,428,0,0,0,0,0,0,0,0,0,-1,2001,596,0,0
784,428,0,0,0,0,0,0,0,0,0,-1,2008,596,0,0
791,428,0,0,0,0,0,0,0,0,0,-1,2015,596,0,0
798,428,0,0,0,0,0,0,0,0,0,-1,2022,596,0,0
805,428,0,0,0,0,0,0,0,0,0,-1,2029,596,0,0
812,428,0,0,0,0,0,0,0,0,0,-1,2036,596,0,0
-700,421,0,0,0,0,0,0,0,0,0,-1,524,603,0,0
-693,421,0,0,0,0,0,0,0,0,0,-1,531,603,0,0
-686,421,0,0,0,0,0,0,0,0,0,-1,538,603,0,0
-679,421,0,0,0,0,0,0,0,0,0,-1,545,603,0,0
-672,421,0,0,0,0,0,0,0,0,0,-1,552,603,0,0
-665,421,0,0,0,0,0,0,0,0,0,-1,559,603,0,0
-658,421,0,0,0,0,0,0,0,0,0,-1,566,603,0,0
-651,421,0,0,0,0,0,0,0,0,0,-1,573,603,0,0
-644,421,0,0,0,0,0,0,0,0,0,-1,580,603,0,0
-637,421,0,0,0,0,0,0,0,0,0,-1,587,603,0,0
-630,421,0,0,0,0,0,0,0,0,0,-1,594,603,0,0
-623,421,0,0,0,0,0,0,0,0,0,-1,601,603,0,0
-616,421,0,0,0,0,0,0,0,0,0,-1,608,603,0,0
-609,421,0,0,0,0,0,0,0,0,0,-1,615,603,0,0
-602,421,0,0,0,0,0,0,0,0,0,-1,622,603,0,0
-595,421,0,0,0,0,0,0,0,0,0,-1,629,603,0,0
-588,421,0,0,0,0,0,0,0,0,0,-1,636,603,0,0
-581,421,0,0,0,0,0,0,0,0,0,-1,643,603,0,0
-574,421,0,0,0,0,0,0,0,0,0,-1,650,603,0,0
-567,421,0,0,0,0,0,0,0,0,0,-1,657,603,0,0
-560,421,0,0,0,0,0,0,0,0,0,-1,664,603,0,0
-553,421,0,0,0,0,0,0,0,0,0,-1,671,603,0,0
-546,421,0,0,0,0,0,0,0,0,0,-1,678,603,0,0
-539,421,0,0,0,0,0,0,0,0,0,-1,685,603,0,0
-532,421,-8.97382,6.95636,0,0,0,0,0,0,0,-1,692,603,-8.97384,-6.95634
-525,421,-2.11481,-8.04272,0,0,0,0,0,0,0,-1,699,603,-2.11483,8.0427
-518,421,-3.05908,-5.07233,0,0,0,0,0,0,0,-1,706,603,-3.0591,5.07235
-511,421,-4.63525,-4.08447,0,0,0,0,0,0,0,-1,713,603,-4.63524,4.08449
-504,421,-5.17029,-4.94458,0,0,0,0,0,0,0,-1,720,603,-5.17029,4.9446
-497,421,-6.63141,-2.32501,0,0,0,0,0,0,0,-1,727,603,-6.6314,2.32498
-490,421,-6.7616,-4.14783,0,0,0,0,0,0,0,-1,734,603,-6.76159,4.1478
-483,421,-16.1866,-14.4011,0,0,0,0,0,0,0,-1,741,603,-16.1866,14.4011
-476,421,-78.3089,-36.3004,0,0,0,0,0,0,0,-1,748,603,-78.3089,36.3004
-469,421,-78.8728,-39.9624,0,0,0,0,0,0,0,-1,755,603,-78.8728,39.9624
-462,421,-79.4793,-43.9851,0.0273434,0.0316595,0.0410222,0.0705803,-0.0115774,0.811678,0.0513496,0.0351573,762,603,-79.4793,43.9851
-455,421,-80.5077,-47.8956,0.026219,0.0274793,0.0391314,0.0659856,-0.0122874,0.793449,0.0486067,0.0290727,769,603,-80.5077,47.8956
-448,421,-81.3826,-51.8069,0.0249505,0.0234379,0.037279,0.0614809,-0.0130925,0.775256,0.0459771,0.0297299,776,603,-81.3826,51.8069
-441,421,-82.408,-55.7149,0.0234798,0.0192261,0.0357742,0.0571904,-0.0144844,0.755707,0.0437615,0.021854,783,603,-82.408,55.7149
-434,421,-83.5667,-59.7339,0.0218665,0.0150582,0.0345074,0.0531372,-0.0162126,0.736232,0.0418882,0.0140045,790,603,-83.5667,59.7339
-427,421,-84.6033,-63.7957,0.0199901,0.0109808,0.0334818,0.0492689,-0.018298,0.71853,0.0403527,0.0136448,797,603,-84.6033,63.7956
-420,421,-85.7059,-67.8798,0.0178072,0.0068887,0.0330479,0.0458438,-0.0211479,0.703542,0.039544,0.0156755,804,603,-85.706,67.8798
-413,421,-86.9446,-72.0661,0.0154593,0.00277084,0.0331576,0.0428742,-0.024644,0.690873,0.0394525,0.0192315,811,603,-86.9446,72.0661
-406,421,-88.3536,-76.2985,0.0127736,-0.000976833,0.0338436,0.0404332,-0.0286364,0.685188,0.0400708,0.0463256,818,603,-88.3536,76.2985
-399,421,-89.9034,-80.5803,0,0,0,0,0,0,0,-1,825,603,-89.9034,80.5802
-392,421,-39.7571,-54.787,0,0,0,0,0,0,0,-1,832,603,-39.7571,54.7871
-385,421,-11.5825,-18.8583,0,0,0,0,0,0,0,-1,839,603,-11.5825,18.8583
-378,421,-4.94733,-8.87909,0,0,0,0,0,0,0,-1,846,603,-4.94731,8.87906
-371,421,-5.65082,-7.01849,0,0,0,0,0,0,0,-1,853,603,-5.65082,7.0185
-364,421,-5.94189,-7.09875,0,0,0,0,0,0,0,-1,860,603,-5.94192,7.09878
-357,421,-7.62531,-8.26337,0,0,0,0,0,0,0,-1,867,603,-7.62532,8.26337
-350,421,-5.38019,-3.75024,0,0,0,0,0,0,0,-1,874,603,-5.38017,3.75026
-343,421,-6.22797,-2.57123,0,0,0,0,0,0,0,-1,881,603,-6.22798,2.57121
-336,421,-6.22882,-2.59369,0,0,0,0,0,0,0,-1,888,603,-6.22883,2.5937
-329,421,-4.50134,-1.49469,0,0,0,0,0,0,0,-1,895,603,-4.50137,1.49468
-322,421,-7.55817,1.13263,0,0,0,0,0,0,0,-1,902,603,-7.55818,-1.13263
-315,421,-4.16144,-1.96649,0,0,0,0,0,0,0,-1,909,603,-4.16146,1.9665
-308,421,0,0,0,0,0,0,0,0,0,-1,916,603,0,0
-301,421,0,0,0,0,0,0,0,0,0,-1,923,603,0,0
-294,421,0,0,0,0,0,0,0,0,0,-1,930,603,0,0
-287,421,0,0,0,0,0,0,0,0,0,-1,937,603,0,0
-280,421,0,0,0,0,0,0,0,0,0,-1,944,603,0,0
-273,421,0,0,0,0,0,0,0,0,0,-1,951,603,0,0
-266,421,0,0,0,0,0,0,0,0,0,-1,958,603,0,0
-259,421,0,0,0,0,0,0,0,0,0,-1,965,603,0,0
-252,421,0,0,0,0,0,0,0,0,0,-1,972,603,0,0
-245,421,0,0,0,0,0,0,0,0,0,-1,979,603,0,0
-238,421,0,0,0,0,0,0,0,0,0,-1,986,603,0,0
-231,421,0,0,0,0,0,0,0,0,0,-1,993,603,0,0
-224,421,0,0,0,0,0,0,0,0,0,-1,1000,603,0,0
-217,421,0,0,0,0,0,0,0,0,0,-1,1007,603,0,0
-210,421,0,0,0,0,0,0,0,0,0,-1,1014,603,0,0
-203,421,0,0,0,0,0,0,0,0,0,-1,1021,603,0,0
-196,421,0,0,0,0,0,0,0,0,0,-1,1028,603,0,0
-189,421,0,0,0,0,0,0,0,0,0,-1,1035,603,0,0
-182,421,0,0,0,0,0,0,0,0,0,-1,1042,603,0,0
-175,421,0,0,0,0,0,0,0,0,0,-1,1049,603,0,0
-168,421,0,0,0,0,0,0,0,0,0,-1,1056,603,0,0
-161,421,0,0,0,0,0,0,0,0,0,-1,1063,603,0,0
-154,421,0,0,0,0,0,0,0,0,0,-1,1070,603,0,0
-147,421,0,0,0,0,0,0,0,0,0,-1,1077,603,0,0
-140,421,0,0,0,0,0,0,0,0,0,-1,1084,603,0,0
-133,421,0,0,0,0,0,0,0,0,0,-1,1091,603,0,0
-126,421,0,0,0,0,0,0,0,0,0,-1,1098,603,0,0
-119,421,0,0,0,0,0,0,0,0,0,-1,1105,603,0,0
-112,421,0,0,0,0,0,0,0,0,0,-1,1112,603,0,0
-105,421,0,0,0,0,0,0,0,0,0,-1,1119,603,0,0
-98,421,0,0,0,0,0,0,0,0,0,-1,1126,603,0,0
-91,421,0,0,0,0,0,0,0,0,0,-1,1133,603,0,0
-84,421,0,0,0,0,0,0,0,0,0,-1,1140,603,0,0
-77,421,0,0,0,0,0,0,0,0,0,-1,1147,603,0,0
-70,421,0,0,0,0,0,0,0,0,0,-1,1154,603,0,0
-63,421,0,0,0,0,0,0,0,0,0,-1,1161,603,0,0
-56,421,0,0,0,0,0,0,0,0,0,-1,1168,603,0,0
-49,421,0,0,0,0,0,0,0,0,0,-1,1175,603,0,0
-42,421,0,0,0,0,0,0,0,0,0,-1,1182,603,0,0
-35,421,0,0,0,0,0,0,0,0,0,-1,1189,603,0,0
-28,421,0,0,0,0,0,0,0,0,0,-1,1196,603,0,0
-21,421,0,0,0,0,0,0,0,0,0,-1,1203,603,0,0
-14,421,0,0,0,0,0,0,0,0,0,-1,1210,603,0,0
-7,421,0,0,0,0,0,0,0,0,0,-1,1217,603,0,0
0,421,0,0,0,0,0,0,0,0,0,-1,1224,603,0,0
7,421,0,0,0,0,0,0,0,0,0,-1,1231,603,0,0
14,421,0,0,0,0,0,0,0,0,0,-1,1238,603,0,0
21,421,0,0,0,0,0,0,0,0,0,-1,1245,603,0,0
28,421,0,0,0,0,0,0,0,0,0,-1,1252,603,0,0
35,421,0,0,0,0,0,0,0,0,0,-1,1259,603,0,0
42,421,0,0,0,0,0,0,0,0,0,-1,1266,603,0,0
49,421,0,0,0,0,0,0,0,0,0,-1,1273,603,0,0
56,421,0,0,0,0,0,0,0,0,0,-1,1280,603,0,0
63,421,0,0,0,0,0,0,0,0,0,-1,1287,603,0,0
70,421,0,0,0,0,0,0,0,0,0,-1,1294,603,0,0
77,421,0,0,0,0,0,0,0,0,0,-1,1301,603,0,0
84,421,0,0,0,0,0,0,0,0,0,-1,1308,603,0,0
91,421,0,0,0,0,0,0,0,0,0,-1,1315,603,0,0
98,421,0,0,0,0,0,0,0,0,0,-1,1322,603,0,0
105,421,0,0,0,0,0,0,0,0,0,-1,1329,603,0,0
112,421,0,0,0,0,0,0,0,0,0,-1,1336,603,0,0
119,421,0,0,0,0,0,0,0,0,0,-1,1343,603,0,0
126,421,0,0,0,0,0,0,0,0,0,-1,1350,603,0,0
133,421,0,0,0,0,0,0,0,0,0,-1,1357,603,0,0
140,421,0,0,0,0,0,0,0,0,0,-1,1364,603,0,0
147,421,0,0,0,0,0,0,0,0,0,-1,1371,603,0,0
154,421,0,0,0,0,0,0,0,0,0,-1,1378,603,0,0
161,421,0,0,0,0,0,0,0,0,0,-1,1385,603,0,0
168,421,0,0,0,0,0,0,0,0,0,-1,1392,603,0,0
175,421,0,0,0,0,0,0,0,0,0,-1,1399,603,0,0
182,421,0,0,0,0,0,0,0,0,0,-1,1406,603,0,0
189,421,0,0,0,0,0,0,0,0,0,-1,1413,603,0,0
196,421,0,0,0,0,0,0,0,0,0,-1,1420,603,0,0
203,421,0,0,0,0,0,0,0,0,0,-1,1427,603,0,0
210,421,0,0,0,0,0,0,0,0,0,-1,1434,603,0,0
217,421,0,0,0,0,0,0,0,0,0,-1,1441,603,0,0
224,421,0,0,0,0,0,0,0,0,0,-1,1448,603,0,0
231,421,0,0,0,0,0,0,0,0,0,-1,1455,603,0,0
238,421,0,0,0,0,0,0,0,0,0,-1,1462,603,0,0
245,421,0,0,0,0,0,0,0,0,0,-1,1469,603,0,0
252,421,0,0,0,0,0,0,0,0,0,-1,1476,603,0,0
259,421,0,0,0,0,0,0,0,0,0,-1,1483,603,0,0
266,421,0,0,0,0,0,0,0,0,0,-1,1490,603,0,0
273,421,0,0,0,0,0,0,0,0,0,-1,1497,603,0,0
280,421,0,0,0,0,0,0,0,0,0,-1,1504,603,0,0
287,421,0,0,0,0,0,0,0,0,0,-1,1511,603,0,0
294,421,0,0,0,0,0,0,0,0,0,-1,1518,603,0,0
301,421,0,0,0,0,0,0,0,0,0,-1,1525,603,0,0
308,421,0,0,0,0,0,0,0,0,0,-1,1532,603,0,0
315,421,0,0,0,0,0,0,0,0,0,-1,1539,603,0,0
322,421,0,0,0,0,0,0,0,0,0,-1,1546,603,0,0
329,421,0,0,0,0,0,0,0,0,0,-1,1553,603,0,0
336,421,0,0,0,0,0,0,0,0,0,-1,1560,603,0,0
343,421,0,0,0,0,0,0,0,0,0,-1,1567,603,0,0
350,421,0,0,0,0,0,0,0,0,0,-1,1574,603,0,0
357,421,0,0,0,0,0,0,0,0,0,-1,1581,603,0,0
364,421,0,0,0,0,0,0,0,0,0,-1,1588,603,0,0
371,421,0,0,0,0,0,0,0,0,0,-1,1595,603,0,0
378,421,0,0,0,0,0,0,0,0,0,-1,1602,603,0,0
385,421,0,0,0,0,0,0,0,0,0,-1,1609,603,0,0
392,421,0,0,0,0,0,0,0,0,0,-1,1616,603,0,0
399,421,0,0,0,0,0,0,0,0,0,-1,1623,603,0,0
406,421,0,0,0,0,0,0,0,0,0,-1,1630,603,0,0
413,421,0,0,0,0,0,0,0,0,0,-1,1637,603,0,0
420,421,0,0,0,0,0,0,0,0,0,-1,1644,603,0,0
427,421,0,0,0,0,0,0,0,0,0,-1,1651,603,0,0
434,421,3.68176,-0.0327759,0,0,0,0,0,0,0,-1,1658,603,3.6818,0.0328037
441,421,8.06689,0.527832,0,0,0,0,0,0,0,-1,1665,603,8.06693,-0.527851
448,421,6.93921,0.802246,0,0,0,0,0,0,0,-1,1672,603,6.93923,-0.802251
455,421,7.29456,2.14825,0,0,0,0,0,0,0,-1,1679,603,7.29461,-2.14827
462,421,7.86902,3.53174,0,0,0,0,0,0,0,-1,1686,603,7.869,-3.53173
469,421,8.06604,2.81213,0,0,0,0,0,0,0,-1,1693,603,8.06606,-2.81212
476,421,8.26306,2.09253,0,0,0,0,0,0,0,-1,1700,603,8.26312,-2.09251
483,421,8.05322,0.798096,0,0,0,0,0,0,0,-1,1707,603,8.05323,-0.7981
490,421,7.51233,0.213074,0,0,0,0,0,0,0,-1,1714,603,7.51235,-0.213043
497,421,7.49634,-2.86688,0,0,0,0,0,0,0,-1,1721,603,7.4963,2.86688
504,421,6.90491,-2.18671,0,0,0,0,0,0,0,-1,1728,603,6.90491,2.18669
511,421,6.31348,-1.50653,0,0,0,0,0,0,0,-1,1735,603,6.31353,1.5065
518,421,6.27588,-2.49878,0,0,0,0,0,0,0,-1,1742,603,6.2759,2.4988
525,421,30.6759,-25.1779,0,0,0,0,0,0,0,-1,1749,603,30.6759,25.1779
532,421,97.0912,-78.8753,0,0,0,0,0,0,0,-1,1756,603,97.0912,78.8753
539,421,98.5912,-74.5493,0,0,0,0,0,0,0,-1,1763,603,98.5912,74.5493
546,421,97.4282,-70.0675,0.0217933,0.00966395,-0.0234213,0.0399223,-0.00846511,-0.658712,0.0298396,0.0247942,1770,603,97.4282,70.0675
553,421,96.24,-65.9376,0.0221294,0.0111664,-0.0263284,0.0435408,-0.010245,-0.682765,0.032977,0.0224987,1777,603,96.2399,65.9376
560,421,95.1044,-61.8894,0.0220808,0.0127311,-0.0294118,0.047187,-0.0123751,-0.706585,0.0362933,0.0205768,1784,603,95.1044,61.8894
567,421,94.0704,-58.0059,0.0220592,0.014391,-0.0325183,0.0509686,-0.0145184,-0.726716,0.0397132,0.0236215,1791,603,94.0705,58.0059
574,421,93.0463,-54.0831,0.0222533,0.0162347,-0.0355753,0.0549464,-0.0164584,-0.743204,0.0431757,0.0299745,1798,603,93.0463,54.0832
581,421,92.0304,-50.175,0.0227935,0.0182201,-0.0386304,0.0592048,-0.0181913,-0.755836,0.0467292,0.0272293,1805,603,92.0303,50.175
588,421,91.0692,-46.2964,0.0236738,0.0201201,-0.0417332,0.063668,-0.0198741,-0.764123,0.0503937,0.0171714,1812,603,91.0692,46.2964
595,421,90.1954,-42.3936,0.025114,0.0221625,-0.0449054,0.0685679,-0.0212914,-0.768972,0.0542209,0.0399079,1819,603,90.1954,42.3936
602,421,89.3834,-38.4346,0,0,0,0,0,0,0,-1,1826,603,89.3835,38.4346
609,421,22.8762,-8.37524,0,0,0,0,0,0,0,-1,1833,603,22.8762,8.37525
616,421,17.7633,-4.72491,0,0,0,0,0,0,0,-1,1840,603,17.7633,4.7249
623,421,6.19885,0.376648,0,0,0,0,0,0,0,-1,1847,603,6.19881,-0.376624
630,421,6.54993,0.778748,0,0,0,0,0,0,0,-1,1854,603,6.54991,-0.778744
637,421,3.74512,1.65405,0,0,0,0,0,0,0,-1,1861,603,3.74517,-1.65407
644,421,3.58081,0.354675,0,0,0,0,0,0,0,-1,1868,603,3.58082,-0.354704
651,421,3.28687,3.66351,0,0,0,0,0,0,0,-1,1875,603,3.28688,-3.66353
658,421,0,0,0,0,0,0,0,0,0,-1,1882,603,0,0
665,421,0,0,0,0,0,0,0,0,0,-1,1889,603,0,0
672,421,0,0,0,0,0,0,0,0,0,-1,1896,603,0,0
679,421,0,0,0,0,0,0,0,0,0,-1,1903,603,0,0
686,421,0,0,0,0,0,0,0,0,0,-1,1910,603,0,0
693,421,0,0,0,0,0,0,0,0,0,-1,1917,603,0,0
700,421,0,0,0,0,0,0,0,0,0,-1,1924,603,0,0
707,421,0,0,0,0,0,0,0,0,0,-1,1931,603,0,0
714,421,0,0,0,0,0,0,0,0,0,-1,1938,603,0,0
721,421,0,0,0,0,0,0,0,0,0,-1,1945,603,0,0
728,421,0,0,0,0,0,0,0,0,0,-1,1952,603,0,0
735,421,0,0,0,0,0,0,0,0,0,-1,1959,603,0,0
742,421,0,0,0,0,0,0,0,0,0,-1,1966,603,0,0
749,421,0,0,0,0,0,0,0,0,0,-1,1973,603,0,0
756,421,0,0,0,0,0,0,0,0,0,-1,1980,603,0,0
763,421,0,0,0,0,0,0,0,0,0,-1,1987,603,0,0
770,421,0,0,0,0,0,0,0,0,0,-1,1994,603,0,0
777,421,0,0,0,0,0,0,0,0,0,-1,2001,603,0,0
784,421,0,0,0,0,0,0,0,0,0,-1,2008,603,0,0
791,421,0,0,0,0,0,0,0,0,0,-1,2015,603,0,0
798,421,0,0,0,0,0,0,0,0,0,-1,2022,603,0,0
805,421,0,0,0,0,0,0,0,0,0,-1,2029,603,0,0
812,421,0,0,0,0,0,0,0,0,0,-1,2036,603,0,0
-700,414,0,0,0,0,0,0,0,0,0,-1,524,610,0,0
-693,414,0,0,0,0,0,0,0,0,0,-1,531,610,0,0
-686,414,0,0,0,0,0,0,0,0,0,-1,538,610,0,0
-679,414,0,0,0,0,0,0,0,0,0,-1,545,610,0,0
-672,414,0,0,0,0,0,0,0,0,0,-1,552,610,0,0
-665,414,0,0,0,0,0,0,0,0,0,-1,559,610,0,0
-658,414,0,0,0,0,0,0,0,0,0,-1,566,610,0,0
-651,414,0,0,0,0,0,0,0,0,0,-1,573,610,0,0
-644,414,0,0,0,0,0,0,0,0,0,-1,580,610,0,0
-637,414,0,0,0,0,0,0,0,0,0,-1,587,610,0,0
-630,414,0,0,0,0,0,0,0,0,0,-1,594,610,0,0
-623,414,0,0,0,0,0,0,0,0,0,-1,601,610,0,0
-616,414,0,0,0,0,0,0,0,0,0,-1,608,610,0,0
-609,414,0,0,0,0,0,0,0,0,0,-1,615,610,0,0
-602,414,0,0,0,0,0,0,0,0,0,-1,622,610,0,0
-595,414,0,0,0,0,0,0,0,0,0,-1,629,610,0,0
-588,414,0,0,0,0,0,0,0,0,0,-1,636,610,0,0
-581,414,0,0,0,0,0,0,0,0,0,-1,643,610,0,0
-574,414,0,0,0,0,0,0,0,0,0,-1,650,610,0,0
-567,414,0,0,0,0,0,0,0,0,0,-1,657,610,0,0
-560,414,0,0,0,0,0,0,0,0,0,-1,664,610,0,0
-553,414,0,0,0,0,0,0,0,0,0,-1,671,610,0,0
-546,414,0,0,0,0,0,0,0,0,0,-1,678,610,0,0
-539,414,-7.50146,5.65619,0,0,0,0,0,0,0,-1,685,610,-7.50149,-5.65617
-532,414,-8.15204,4.01605,0,0,0,0,0,0,0,-1,692,610,-8.15206,-4.01606
-525,414,-3.47137,-3.27924,0,0,0,0,0,0,0,-1,699,610,-3.47136,3.27922
-518,414,-4.12909,-4.36908,0,0,0,0,0,0,0,-1,706,610,-4.12909,4.36909
-511,414,-3.92542,-4.97021,0,0,0,0,0,0,0,-1,713,610,-3.92542,4.97023
-504,414,-9.35394,-5.49896,0,0,0,0,0,0,0,-1,720,610,-9.35394,5.49898
-497,414,-9.67627,-6.54761,0,0,0,0,0,0,0,-1,727,610,-9.6763,6.5476
-490,414,-17.4136,-12.953,0,0,0,0,0,0,0,-1,734,610,-17.4136,12.953
-483,414,-81.3933,-31.6771,0,0,0,0,0,0,0,-1,741,610,-81.3933,31.6771
-476,414,-82.3326,-35.2894,0.0273633,0.0390753,0.0426721,0.0762914,-0.00985276,0.853588,0.0544432,0.047748,748,610,-82.3326,35.2895
-469,414,-83.0552,-38.9158,0.0258496,0.0344916,0.0410075,0.0714051,-0.0110639,0.83789,0.0516876,0.0302701,755,610,-83.0552,38.9158
-462,414,-83.937,-42.7784,0.0244141,0.0300198,0.0393011,0.0666179,-0.012184,0.820996,0.048981,0.0298322,762,610,-83.937,42.7784
-455,414,-84.9319,-46.6763,0.0230312,0.0258067,0.0374552,0.0618999,-0.013062,0.803915,0.0462397,0.035101,769,610,-84.9319,46.6763
-448,414,-85.8274,-50.5673,0.0215281,0.0217451,0.0356575,0.0572943,-0.0140211,0.78692,0.0436275,0.0346893,776,610,-85.8274,50.5673
-441,414,-86.8436,-54.4168,0.0198548,0.0175251,0.0341902,0.0528999,-0.0155201,0.76837,0.0414208,0.0250256,783,610,-86.8436,54.4168
-434,414,-87.9102,-58.3345,0.0181466,0.0135272,0.0327786,0.0486967,-0.017023,0.750224,0.0393848,0.0131773,790,610,-87.9102,58.3345
-427,414,-88.9605,-62.3602,0.0161259,0.0096895,0.0315724,0.0446437,-0.0188283,0.734608,0.0376424,0.0133451,797,610,-88.9605,62.3602
-420,414,-90.1046,-66.3981,0.0137771,0.00576677,0.0308941,0.0409246,-0.0213807,0.720937,0.0365571,0.01514,804,610,-90.1046,66.3981
-413,414,-91.3645,-70.6561,0.0112295,0.00189411,0.0306968,0.0376115,-0.0244879,0.709947,0.036119,0.0279362,811,610,-91.3645,70.6561
-406,414,-92.8363,-74.8958,0,0,0,0,0,0,0,-1,818,610,-92.8363,74.8958
-399,414,-38.7434,-47.9197,0,0,0,0,0,0,0,-1,825,610,-38.7434,47.9197
-392,414,-9.43781,-14.5624,0,0,0,0,0,0,0,-1,832,610,-9.43779,14.5624
-385,414,-8.14691,-13.0653,0,0,0,0,0,0,0,-1,839,610,-8.14692,13.0653
-378,414,-8.04907,-11.3331,0,0,0,0,0,0,0,-1,846,610,-8.04905,11.3331
-371,414,-5.20886,-8.05151,0,0,0,0,0,0,0,-1,853,610,-5.20887,8.05153
-364,414,-6.76282,-6.58759,0,0,0,0,0,0,0,-1,860,610,-6.7628,6.58756
-357,414,-9.08685,-8.86188,0,0,0,0,0,0,0,-1,867,610,-9.08688,8.86187
-350,414,-6.4502,-2.41821,0,0,0,0,0,0,0,-1,874,610,-6.45021,2.41822
-343,414,-6.80249,-2.32117,0,0,0,0,0,0,0,-1,881,610,-6.80252,2.32116
-336,414,-7.11017,-2.52026,0,0,0,0,0,0,0,-1,888,610,-7.11016,2.52026
-329,414,-7.59747,-2.70313,0,0,0,0,0,0,0,-1,895,610,-7.59747,2.70315
-322,414,-4.42236,-1.29163,0,0,0,0,0,0,0,-1,902,610,-4.42238,1.2916
-315,414,0,0,0,0,0,0,0,0,0,-1,909,610,0,0
-308,414,0,0,0,0,0,0,0,0,0,-1,916,610,0,0
-301,414,0,0,0,0,0,0,0,0,0,-1,923,610,0,0
-294,414,0,0,0,0,0,0,0,0,0,-1,930,610,0,0
-287,414,0,0,0,0,0,0,0,0,0,-1,937,610,0,0
-280,414,0,0,0,0,0,0,0,0,0,-1,944,610,0,0
-273,414,0,0,0,0,0,0,0,0,0,-1,951,610,0,0
-266,414,0,0,0,0,0,0,0,0,0,-1,958,610,0,0
-259,414,0,0,0,0,0,0,0,0,0,-1,965,610,0,0
-252,414,0,0,0,0,0,0,0,0,0,-1,972,610,0,0
-245,414,0,0,0,0,0,0,0,0,0,-1,979,610,0,0
-238,414,0,0,0,0,0,0,0,0,0,-1,986,610,0,0
-231,414,0,0,0,0,0,0,0,0,0,-1,993,610,0,0
-224,414,0,0,0,0,0,0,0,0,0,-1,1000,610,0,0
-217,414,0,0,0,0,0,0,0,0,0,-1,1007,610,0,0
-210,414,0,0,0,0,0,0,0,0,0,-1,1014,610,0,0
-203,414,0,0,0,0,0,0,0,0,0,-1,1021,610,0,0
-196,414,0,0,0,0,0,0,0,0,0,-1,1028,610,0,0
-189,414,0,0,0,0,0,0,0,0,0,-1,1035,610,0,0
-182,414,0,0,0,0,0,0,0,0,0,-1,1042,610,0,0
-175,414,0,0,0,0,0,0,0,0,0,-1,1049,610,0,0
-168,414,0,0,0,0,0,0,0,0,0,-1,1056,610,0,0
-161,414,0,0,0,0,0,0,0,0,0,-1,1063,610,0,0
-154,414,0,0,0,0,0,0,0,0,0,-1,1070,610,0,0
-147,414,0,0,0,0,0,0,0,0,0,-1,1077,610,0,0
-140,414,0,0,0,0,0,0,0,0,0,-1,1084,610,0,0
-133,414,0,0,0,0,0,0,0,0,0,-1,1091,610,0,0
-126,414,0,0,0,0,0,0,0,0,0,-1,1098,610,0,0
-119,414,0,0,0,0,0,0,0,0,0,-1,1105,610,0,0
-112,414,0,0,0,0,0,0,0,0,0,-1,1112,610,0,0
-105,414,0,0,0,0,0,0,0,0,0,-1,1119,610,0,0
-98,414,0,0,0,0,0,0,0,0,0,-1,1126,610,0,0
-91,414,0,0,0,0,0,0,0,0,0,-1,1133,610,0,0
-84,414,0,0,0,0,0,0,0,0,0,-1,1140,610,0,0
-77,414,0,0,0,0,0,0,0,0,0,-1,1147,610,0,0
-70,414,0,0,0,0,0,0,0,0,0,-1,1154,610,0,0
-63,414,0,0,0,0,0,0,0,0,0,-1,1161,610,0,0
-56,414,0,0,0,0,0,0,0,0,0,-1,1168,610,0,0
-49,414,0,0,0,0,0,0,0,0,0,-1,1175,610,0,0
-42,414,0,0,0,0,0,0,0,0,0,-1,1182,610,0,0
-35,414,0,0,0,0,0,0,0,0,0,-1,1189,610,0,0
-28,414,0,0,0,0,0,0,0,0,0,-1,1196,610,0,0
-21,414,0,0,0,0,0,0,0,0,0,-1,1203,610,0,0
-14,414,0,0,0,0,0,0,0,0,0,-1,1210,610,0,0
-7,414,0,0,0,0,0,0,0,0,0,-1,1217,610,0,0
0,414,0,0,0,0,0,0,0,0,0,-1,1224,610,0,0
7,414,0,0,0,0,0,0,0,0,0,-1,1231,610,0,0
14,414,0,0,0,0,0,0,0,0,0,-1,1238,610,0,0
21,414,0,0,0,0,0,0,0,0,0,-1,1245,610,0,0
28,414,0,0,0,0,0,0,0,0,0,-1,1252,610,0,0
35,414,0,0,0,0,0,0,0,0,0,-1,1259,610,0,0
42,414,0,0,0,0,0,0,0,0,0,-1,1266,610,0,0
49,414,0,0,0,0,0,0,0,0,0,-1,1273,610,0,0
56,414,0,0,0,0,0,0,0,0,0,-1,1280,610,0,0
63,414,0,0,0,0,0,0,0,0,0,-1,1287,610,0,0
70,414,0,0,0,0,0,0,0,0,0,-1,1294,610,0,0
77,414,0,0,0,0,0,0,0,0,0,-1,1301,610,0,0
84,414,0,0,0,0,0,0,0,0,0,-1,1308,610,0,0
91,414,0,0,0,0,0,0,0,0,0,-1,1315,610,0,0
98,414,0,0,0,0,0,0,0,0,0,-1,1322,610,0,0
105,414,0,0,0,0,0,0,0,0,0,-1,1329,610,0,0
112,414,0,0,0,0,0,0,0,0,0,-1,1336,610,0,0
119,414,0,0,0,0,0,0,0,0,0,-1,1343,610,0,0
126,414,0,0,0,0,0,0,0,0,0,-1,1350,610,0,0
133,414,0,0,0,0,0,0,0,0,0,-1,1357,610,0,0
140,414,0,0,0,0,0,0,0,0,0,-1,1364,610,0,0
147,414,0,0,0,0,0,0,0,0,0,-1,1371,610,0,0
154,414,0,0,0,0,0,0,0,0,0,-1,1378,610,0,0
161,414,0,0,0,0,0,0,0,0,0,-1,1385,610,0,0
168,414,0,0,0,0,0,0,0,0,0,-1,1392,610,0,0
175,414,0,0,0,0,0,0,0,0,0,-1,1399,610,0,0
182,414,0,0,0,0,0,0,0,0,0,-1,1406,610,0,0
189,414,0,0,0,0,0,0,0,0,0,-1,1413,610,0,0
196,414,0,0,0,0,0,0,0,0,0,-1,1420,610,0,0
203,414,0,0,0,0,0,0,0,0,0,-1,1427,610,0,0
210,414,0,0,0,0,0,0,0,0,0,-1,1434,610,0,0
217,414,0,0,0,0,0,0,0,0,0,-1,1441,610,0,0
224,414,0,0,0,0,0,0,0,0,0,-1,1448,610,0,0
231,414,0,0,0,0,0,0,0,0,0,-1,1455,610,0,0
238,414,0,0,0,0,0,0,0,0,0,-1,1462,610,0,0
245,414,0,0,0,0,0,0,0,0,0,-1,1469,610,0,0
252,414,0,0,0,0,0,0,0,0,0,-1,1476,610,0,0
259,414,0,0,0,0,0,0,0,0,0,-1,1483,610,0,0
266,414,0,0,0,0,0,0,0,0,0,-1,1490,610,0,0
273,414,0,0,0,0,0,0,0,0,0,-1,1497,610,0,0
280,414,0,0,0,0,0,0,0,0,0,-1,1504,610,0,0
287,414,0,0,0,0,0,0,0,0,0,-1,1511,610,0,0
294,414,0,0,0,0,0,0,0,0,0,-1,1518,610,0,0
301,414,0,0,0,0,0,0,0,0,0,-1,1525,610,0,0
308,414,0,0,0,0,0,0,0,0,0,-1,1532,610,0,0
315,414,0,0,0,0,0,0,0,0,0,-1,1539,610,0,0
322,414,0,0,0,0,0,0,0,0,0,-1,1546,610,0,0
329,414,0,0,0,0,0,0,0,0,0,-1,1553,610,0,0
336,414,0,0,0,0,0,0,0,0,0,-1,1560,610,0,0
343,414,0,0,0,0,0,0,0,0,0,-1,1567,610,0,0
350,414,0,0,0,0,0,0,0,0,0,-1,1574,610,0,0
357,414,0,0,0,0,0,0,0,0,0,-1,1581,610,0,0
364,414,0,0,0,0,0,0,0,0,0,-1,1588,610,0,0
371,414,0,0,0,0,0,0,0,0,0,-1,1595,610,0,0
378,414,0,0,0,0,0,0,0,0,0,-1,1602,610,0,0
385,414,0,0,0,0,0,0,0,0,0,-1,1609,610,0,0
392,414,0,0,0,0,0,0,0,0,0,-1,1616,610,0,0
399,414,0,0,0,0,0,0,0,0,0,-1,1623,610,0,0
406,414,0,0,0,0,0,0,0,0,0,-1,1630,610,0,0
413,414,0,0,0,0,0,0,0,0,0,-1,1637,610,0,0
420,414,0,0,0,0,0,0,0,0,0,-1,1644,610,0,0
427,414,0,0,0,0,0,0,0,0,0,-1,1651,610,0,0
434,414,0,0,0,0,0,0,0,0,0,-1,1658,610,0,0
441,414,7.84375,0.584412,0,0,0,0,0,0,0,-1,1665,610,7.84379,-0.584394
448,414,7.40808,1.25446,0,0,0,0,0,0,0,-1,1672,610,7.40807,-1.25446
455,414,6.3512,1.73846,0,0,0,0,0,0,0,-1,1679,610,6.3512,-1.73847
462,414,8.18103,3.22113,0,0,0,0,0,0,0,-1,1686,610,8.18108,-3.22112
469,414,8.38513,2.49579,0,0,0,0,0,0,0,-1,1693,610,8.38516,-2.49576
476,414,8.64099,1.71161,0,0,0,0,0,0,0,-1,1700,610,8.64097,-1.71164
483,414,8.62744,0.687622,0,0,0,0,0,0,0,-1,1707,610,8.62749,-0.687615
490,414,8.38831,-0.0302734,0,0,0,0,0,0,0,-1,1714,610,8.38835,0.0302913
497,414,4.71094,-0.110046,0,0,0,0,0,0,0,-1,1721,610,4.71089,0.110024
504,414,7.19568,-1.43835,0,0,0,0,0,0,0,-1,1728,610,7.19563,1.43836
511,414,5.94153,-1.28772,0,0,0,0,0,0,0,-1,1735,610,5.94151,1.28769
518,414,4.53381,-0.0996704,0,0,0,0,0,0,0,-1,1742,610,4.53378,0.0996819
525,414,6.18811,-1.64056,0,0,0,0,0,0,0,-1,1749,610,6.18814,1.64055
532,414,32.4541,-24.196,0,0,0,0,0,0,0,-1,1756,610,32.4541,24.196
539,414,102.333,-73.2466,0,0,0,0,0,0,0,-1,1763,610,102.333,73.2466
546,414,101.604,-68.9085,0.0197269,0.0114846,-0.0191821,0.0352255,-0.00401405,-0.679585,0.0249296,0.046447,1770,610,101.604,68.9085
553,414,100.616,-64.528,0.0196946,0.0125476,-0.0223589,0.0387638,-0.0065216,-0.706156,0.0282683,0.034557,1777,610,100.616,64.528
560,414,99.554,-60.4902,0.0193321,0.0135409,-0.0256865,0.0422857,-0.00941266,-0.729271,0.0317958,0.0339731,1784,610,99.5539,60.4902
567,414,98.4022,-56.6544,0.0190241,0.0148698,-0.0289956,0.0460168,-0.0121229,-0.749641,0.0354173,0.0441145,1791,610,98.4022,56.6544
574,414,97.4082,-52.6487,0.0190475,0.016494,-0.0322563,0.0500523,-0.0145108,-0.765617,0.0391129,0.0349819,1798,610,97.4082,52.6487
581,414,96.2845,-48.7391,0.0195226,0.0183794,-0.0355117,0.0544673,-0.0165653,-0.777351,0.0429127,0.0287146,1805,610,96.2846,48.7391
588,414,95.1234,-44.9529,0.0203524,0.0203397,-0.0388506,0.0591967,-0.0185046,-0.785316,0.0468666,0.0234913,1812,610,95.1234,44.953
595,414,94.1349,-41.1186,0.0216109,0.0224691,-0.042263,0.0643052,-0.0202252,-0.790475,0.0509675,0.0312688,1819,610,94.1349,41.1186
602,414,93.2653,-37.5024,0.0239167,0.0251832,-0.0454304,0.0699848,-0.0208848,-0.792367,0.0549572,0.0442701,1826,610,93.2652,37.5025
609,414,92.4323,-33.6709,0,0,0,0,0,0,0,-1,1833,610,92.4322,33.6709
616,414,51.8026,-23.4824,0,0,0,0,0,0,0,-1,1840,610,51.8027,23.4824
623,414,9.6969,0.0378418,0,0,0,0,0,0,0,-1,1847,610,9.69685,-0.0378644
630,414,5.47144,0.499329,0,0,0,0,0,0,0,-1,1854,610,5.47142,-0.499303
637,414,8.36707,4.16278,0,0,0,0,0,0,0,-1,1861,610,8.36709,-4.16278
644,414,5.87073,1.51422,0,0,0,0,0,0,0,-1,1868,610,5.87076,-1.51424
651,414,3.6377,0.820557,0,0,0,0,0,0,0,-1,1875,610,3.6377,-0.820543
658,414,2.29761,3.87323,0,0,0,0,0,0,0,-1,1882,610,2.29758,-3.87325
665,414,0,0,0,0,0,0,0,0,0,-1,1889,610,0,0
672,414,0,0,0,0,0,0,0,0,0,-1,1896,610,0,0
679,414,0,0,0,0,0,0,0,0,0,-1,1903,610,0,0
686,414,0,0,0,0,0,0,0,0,0,-1,1910,610,0,0
693,414,0,0,0,0,0,0,0,0,0,-1,1917,610,0,0
700,414,0,0,0,0,0,0,0,0,0,-1,1924,610,0,0
707,414,0,0,0,0,0,0,0,0,0,-1,1931,610,0,0
714,414,0,0,0,0,0,0,0,0,0,-1,1938,610,0,0
721,414,0,0,0,0,0,0,0,0,0,-1,1945,610,0,0
728,414,0,0,0,0,0,0,0,0,0,-1,1952,610,0,0
735,414,0,0,0,0,0,0,0,0,0,-1,1959,610,0,0
742,414,0,0,0,0,0,0,0,0,0,-1,1966,610,0,0
749,414,0,0,0,0,0,0,0,0,0,-1,1973,610,0,0
756,414,0,0,0,0,0,0,0,0,0,-1,1980,610,0,0
763,414,0,0,0,0,0,0,0,0,0,-1,1987,610,0,0
770,414,0,0,0,0,0,0,0,0,0,-1,1994,610,0,0
777,414,0,0,0,0,0,0,0,0,0,-1,2001,610,0,0
784,414,0,0,0,0,0,0,0,0,0,-1,2008,610,0,0
791,414,0,0,0,0,0,0,0,0,0,-1,2015,610,0,0
798,414,0,0,0,0,0,0,0,0,0,-1,2022,610,0,0
805,414,0,0,0,0,0,0,0,0,0,-1,2029,610,0,0
812,414,0,0,0,0,0,0,0,0,0,-1,2036,610,0,0
-700,407,0,0,0,0,0,0,0,0,0,-1,524,617,0,0
-693,407,0,0,0,0,0,0,0,0,0,-1,531,617,0,0
-686,407,0,0,0,0,0,0,0,0,0,-1,538,617,0,0
-679,407,0,0,0,0,0,0,0,0,0,-1,545,617,0,0
-672,407,0,0,0,0,0,0,0,0,0,-1,552,617,0,0
-665,407,0,0,0,0,0,0,0,0,0,-1,559,617,0,0
-658,407,0,0,0,0,0,0,0,0,0,-1,566,617,0,0
-651,407,0,0,0,0,0,0,0,0,0,-1,573,617,0,0
-644,407,0,0,0,0,0,0,0,0,0,-1,580,617,0,0
-637,407,0,0,0,0,0,0,0,0,0,-1,587,617,0,0
-630,407,0,0,0,0,0,0,0,0,0,-1,594,617,0,0
-623,407,0,0,0,0,0,0,0,0,0,-1,601,617,0,0
-616,407,0,0,0,0,0,0,0,0,0,-1,608,617,0,0
-609,407,0,0,0,0,0,0,0,0,0,-1,615,617,0,0
-602,407,0,0,0,0,0,0,0,0,0,-1,622,617,0,0
-595,407,0,0,0,0,0,0,0,0,0,-1,629,617,0,0
-588,407,0,0,0,0,0,0,0,0,0,-1,636,617,0,0
-581,407,0,0,0,0,0,0,0,0,0,-1,643,617,0,0
-574,407,0,0,0,0,0,0,0,0,0,-1,650,617,0,0
-567,407,0,0,0,0,0,0,0,0,0,-1,657,617,0,0
-560,407,0,0,0,0,0,0,0,0,0,-1,664,617,0,0
-553,407,0,0,0,0,0,0,0,0,0,-1,671,617,0,0
-546,407,-8.54517,-0.658142,0,0,0,0,0,0,0,-1,678,617,-8.54515,0.658112
-539,407,-6.09442,-1.01154,0,0,0,0,0,0,0,-1,685,617,-6.09441,1.01155
-532,407,-7.75665,1.62152,0,0,0,0,0,0,0,-1,692,617,-7.75667,-1.62154
-525,407,-3.78247,-2.67639,0,0,0,0,0,0,0,-1,699,617,-3.78246,2.67638
-518,407,-5.013,-5.87323,0,0,0,0,0,0,0,-1,706,617,-5.013,5.87324
-511,407,-9.42743,-4.94189,0,0,0,0,0,0,0,-1,713,617,-9.42745,4.94191
-504,407,-10.8291,-8.05927,0,0,0,0,0,0,0,-1,720,617,-10.8291,8.05927
-497,407,-9.84467,-6.81641,0,0,0,0,0,0,0,-1,727,617,-9.84468,6.8164
-490,407,-84.5546,-26.6644,0,0,0,0,0,0,0,-1,734,617,-84.5546,26.6643
-483,407,-85.4876,-30.5843,0.0262808,0.0419996,0.0416208,0.0764965,-0.0082161,0.878716,0.0539453,0.0446374,741,617,-85.4876,30.5843
-476,407,-86.3796,-34.1415,0.0243417,0.0368801,0.0404622,0.0715559,-0.0103341,0.862257,0.0514954,0.025069,748,617,-86.3796,34.1415
-469,407,-87.1942,-37.7827,0.022671,0.0322337,0.0389812,0.0667257,-0.0118209,0.846422,0.0489027,0.0175075,755,617,-87.1942,37.7827
-462,407,-88.0956,-41.5966,0.0211149,0.0277952,0.0373489,0.061953,-0.013043,0.829995,0.0462666,0.0270672,762,617,-88.0956,41.5965
-455,407,-89.1055,-45.4575,0.0195683,0.0236479,0.035548,0.0572146,-0.0139984,0.814058,0.0435654,0.0301128,769,617,-89.1055,45.4575
-448,407,-90.1198,-49.2117,0.0179641,0.0196451,0.0337688,0.0525839,-0.0149746,0.79784,0.0409701,0.0253544,776,617,-90.1198,49.2117
-441,407,-91.1484,-53.0036,0.0162195,0.0155242,0.0322706,0.0481443,-0.0164006,0.780012,0.0387382,0.0192866,783,617,-91.1485,53.0036
-434,407,-92.1744,-56.9368,0.0144989,0.0117459,0.0306849,0.0438382,-0.0175933,0.762984,0.0365305,0.0142413,790,617,-92.1744,56.9368
-427,407,-93.2895,-60.9215,0.012423,0.00817483,0.0292812,0.0396571,-0.0190593,0.749191,0.0345882,0.014102,797,617,-93.2895,60.9215
-420,407,-94.4733,-64.957,0.010004,0.00440631,0.0282892,0.0356325,-0.0212222,0.73609,0.0331746,0.0215036,804,617,-94.4733,64.957
-413,407,-95.7805,-69.3524,0,0,0,0,0,0,0,-1,811,617,-95.7805,69.3524
-406,407,-60.2758,-66.5497,0,0,0,0,0,0,0,-1,818,617,-60.2757,66.5497
-399,407,-16.5686,-23.1791,0,0,0,0,0,0,0,-1,825,617,-16.5686,23.1791
-392,407,-8.33612,-12.195,0,0,0,0,0,0,0,-1,832,617,-8.33611,12.195
-385,407,-7.65765,-10.7744,0,0,0,0,0,0,0,-1,839,617,-7.65767,10.7744
-378,407,-6.08655,-7.42291,0,0,0,0,0,0,0,-1,846,617,-6.08652,7.42292
-371,407,-7.4007,-5.79449,0,0,0,0,0,0,0,-1,853,617,-7.40072,5.79447
-364,407,-10.0638,-6.6228,0,0,0,0,0,0,0,-1,860,617,-10.0639,6.62279
-357,407,-6.64447,-1.83337,0,0,0,0,0,0,0,-1,867,617,-6.64446,1.8334
-350,407,-7.03351,-1.77551,0,0,0,0,0,0,0,-1,874,617,-7.03349,1.77551
-343,407,-7.40967,-1.95026,0,0,0,0,0,0,0,-1,881,617,-7.40969,1.95026
-336,407,-8.10229,-2.40662,0,0,0,0,0,0,0,-1,888,617,-8.10229,2.40664
-329,407,-8.81232,-2.76331,0,0,0,0,0,0,0,-1,895,617,-8.81235,2.76331
-322,407,0,0,0,0,0,0,0,0,0,-1,902,617,0,0
-315,407,0,0,0,0,0,0,0,0,0,-1,909,617,0,0
-308,407,0,0,0,0,0,0,0,0,0,-1,916,617,0,0
-301,407,0,0,0,0,0,0,0,0,0,-1,923,617,0,0
-294,407,0,0,0,0,0,0,0,0,0,-1,930,617,0,0
-287,407,0,0,0,0,0,0,0,0,0,-1,937,617,0,0
-280,407,0,0,0,0,0,0,0,0,0,-1,944,617,0,0
-273,407,0,0,0,0,0,0,0,0,0,-1,951,617,0,0
-266,407,0,0,0,0,0,0,0,0,0,-1,958,617,0,0
-259,407,0,0,0,0,0,0,0,0,0,-1,965,617,0,0
-252,407,0,0,0,0,0,0,0,0,0,-1,972,617,0,0
-245,407,0,0,0,0,0,0,0,0,0,-1,979,617,0,0
-238,407,0,0,0,0,0,0,0,0,0,-1,986,617,0,0
-231,407,0,0,0,0,0,0,0,0,0,-1,993,617,0,0
-224,407,0,0,0,0,0,0,0,0,0,-1,1000,617,0,0
-217,407,0,0,0,0,0,0,0,0,0,-1,1007,617,0,0
-210,407,0,0,0,0,0,0,0,0,0,-1,1014,617,0,0
-203,407,0,0,0,0,0,0,0,0,0,-1,1021,617,0,0
-196,407,0,0,0,0,0,0,0,0,0,-1,1028,617,0,0
-189,407,0,0,0,0,0,0,0,0,0,-1,1035,617,0,0
-182,407,0,0,0,0,0,0,0,0,0,-1,1042,617,0,0
-175,407,0,0,0,0,0,0,0,0,0,-1,1049,617,0,0
-168,407,0,0,0,0,0,0,0,0,0,-1,1056,617,0,0
-161,407,0,0,0,0,0,0,0,0,0,-1,1063,617,0,0
-154,407,0,0,0,0,0,0,0,0,0,-1,1070,617,0,0
-147,407,0,0,0,0,0,0,0,0,0,-1,1077,617,0,0
-140,407,0,0,0,0,0,0,0,0,0,-1,1084,617,0,0
-133,407,0,0,0,0,0,0,0,0,0,-1,1091,617,0,0
-126,407,0,0,0,0,0,0,0,0,0,-1,1098,617,0,0
-119,407,0,0,0,0,0,0,0,0,0,-1,1105,617,0,0
-112,407,0,0,0,0,0,0,0,0,0,-1,1112,617,0,0
-105,407,0,0,0,0,0,0,0,0,0,-1,1119,617,0,0
-98,407,0,0,0,0,0,0,0,0,0,-1,1126,617,0,0
-91,407,0,0,0,0,0,0,0,0,0,-1,1133,617,0,0
-84,407,0,0,0,0,0,0,0,0,0,-1,1140,617,0,0
-77,407,0,0,0,0,0,0,0,0,0,-1,1147,617,0,0
-70,407,0,0,0,0,0,0,0,0,0,-1,1154,617,0,0
-63,407,0,0,0,0,0,0,0,0,0,-1,1161,617,0,0
-56,407,0,0,0,0,0,0,0,0,0,-1,1168,617,0,0
-49,407,0,0,0,0,0,0,0,0,0,-1,1175,617,0,0
-42,407,0,0,0,0,0,0,0,0,0,-1,1182,617,0,0
-35,407,0,0,0,0,0,0,0,0,0,-1,1189,617,0,0
-28,407,0,0,0,0,0,0,0,0,0,-1,1196,617,0,0
-21,407,0,0,0,0,0,0,0,0,0,-1,1203,617,0,0
-14,407,0,0,0,0,0,0,0,0,0,-1,1210,617,0,0
-7,407,0,0,0,0,0,0,0,0,0,-1,1217,617,0,0
0,407,0,0,0,0,0,0,0,0,0,-1,1224,617,0,0
7,407,0,0,0,0,0,0,0,0,0,-1,1231,617,0,0
14,407,0,0,0,0,0,0,0,0,0,-1,1238,617,0,0
21,407,0,0,0,0,0,0,0,0,0,-1,1245,617,0,0
28,407,0,0,0,0,0,0,0,0,0,-1,1252,617,0,0
35,407,0,0,0,0,0,0,0,0,0,-1,1259,617,0,0
42,407,0,0,0,0,0,0,0,0,0,-1,1266,617,0,0
49,407,0,0,0,0,0,0,0,0,0,-1,1273,617,0,0
56,407,0,0,0,0,0,0,0,0,0,-1,1280,617,0,0
63,407,0,0,0,0,0,0,0,0,0,-1,1287,617,0,0
70,407,0,0,0,0,0,0,0,0,0,-1,1294,617,0,0
77,407,0,0,0,0,0,0,0,0,0,-1,1301,617,0,0
84,407,0,0,0,0,0,0,0,0,0,-1,1308,617,0,0
91,407,0,0,0,0,0,0,0,0,0,-1,1315,617,0,0
98,407,0,0,0,0,0,0,0,0,0,-1,1322,617,0,0
105,407,0,0,0,0,0,0,0,0,0,-1,1329,617,0,0
112,407,0,0,0,0,0,0,0,0,0,-1,1336,617,0,0
119,407,0,0,0,0,0,0,0,0,0,-1,1343,617,0,0
126,407,0,0,0,0,0,0,0,0,0,-1,1350,617,0,0
133,407,0,0,0,0,0,0,0,0,0,-1,1357,617,0,0
140,407,0,0,0,0,0,0,0,0,0,-1,1364,617,0,0
147,407,0,0,0,0,0,0,0,0,0,-1,1371,617,0,0
154,407,0,0,0,0,0,0,0,0,0,-1,1378,617,0,0
161,407,0,0,0,0,0,0,0,0,0,-1,1385,617,0,0
168,407,0,0,0,0,0,0,0,0,0,-1,1392,617,0,0
175,407,0,0,0,0,0,0,0,0,0,-1,1399,617,0,0
182,407,0,0,0,0,0,0,0,0,0,-1,1406,617,0,0
189,407,0,0,0,0,0,0,0,0,0,-1,1413,617,0,0
196,407,0,0,0,0,0,0,0,0,0,-1,1420,617,0,0
203,407,0,0,0,0,0,0,0,0,0,-1,1427,617,0,0
210,407,0,0,0,0,0,0,0,0,0,-1,1434,617,0,0
217,407,0,0,0,0,0,0,0,0,0,-1,1441,617,0,0
224,407,0,0,0,0,0,0,0,0,0,-1,1448,617,0,0
231,407,0,0,0,0,0,0,0,0,0,-1,1455,617,0,0
238,407,0,0,0,0,0,0,0,0,0,-1,1462,617,0,0
245,407,0,0,0,0,0,0,0,0,0,-1,1469,617,0,0
252,407,0,0,0,0,0,0,0,0,0,-1,1476,617,0,0
259,407,0,0,0,0,0,0,0,0,0,-1,1483,617,0,0
266,407,0,0,0,0,0,0,0,0,0,-1,1490,617,0,0
273,407,0,0,0,0,0,0,0,0,0,-1,1497,617,0,0
280,407,0,0,0,0,0,0,0,0,0,-1,1504,617,0,0
287,407,0,0,0,0,0,0,0,0,0,-1,1511,617,0,0
294,407,0,0,0,0,0,0,0,0,0,-1,1518,617,0,0
301,407,0,0,0,0,0,0,0,0,0,-1,1525,617,0,0
308,407,0,0,0,0,0,0,0,0,0,-1,1532,617,0,0
315,407,0,0,0,0,0,0,0,0,0,-1,1539,617,0,0
322,407,0,0,0,0,0,0,0,0,0,-1,1546,617,0,0
329,407,0,0,0,0,0,0,0,0,0,-1,1553,617,0,0
336,407,0,0,0,0,0,0,0,0,0,-1,1560,617,0,0
343,407,0,0,0,0,0,0,0,0,0,-1,1567,617,0,0
350,407,0,0,0,0,0,0,0,0,0,-1,1574,617,0,0
357,407,0,0,0,0,0,0,0,0,0,-1,1581,617,0,0
364,407,0,0,0,0,0,0,0,0,0,-1,1588,617,0,0
371,407,0,0,0,0,0,0,0,0,0,-1,1595,617,0,0
378,407,0,0,0,0,0,0,0,0,0,-1,1602,617,0,0
385,407,0,0,0,0,0,0,0,0,0,-1,1609,617,0,0
392,407,0,0,0,0,0,0,0,0,0,-1,1616,617,0,0
399,407,0,0,0,0,0,0,0,0,0,-1,1623,617,0,0
406,407,0,0,0,0,0,0,0,0,0,-1,1630,617,0,0
413,407,0,0,0,0,0,0,0,0,0,-1,1637,617,0,0
420,407,0,0,0,0,0,0,0,0,0,-1,1644,617,0,0
427,407,0,0,0,0,0,0,0,0,0,-1,1651,617,0,0
434,407,0,0,0,0,0,0,0,0,0,-1,1658,617,0,0
441,407,0,0,0,0,0,0,0,0,0,-1,1665,617,0,0
448,407,7.02893,2.13843,0,0,0,0,0,0,0,-1,1672,617,7.02899,-2.13844
455,407,7.55237,2.29242,0,0,0,0,0,0,0,-1,1679,617,7.55236,-2.29244
462,407,8.2926,2.46173,0,0,0,0,0,0,0,-1,1686,617,8.29261,-2.46174
469,407,8.71509,2.22681,0,0,0,0,0,0,0,-1,1693,617,8.71511,-2.22681
476,407,8.89917,1.47766,0,0,0,0,0,0,0,-1,1700,617,8.89914,-1.47768
483,407,9.02612,0.682983,0,0,0,0,0,0,0,-1,1707,617,9.02608,-0.683004
490,407,9.12659,0.000671387,0,0,0,0,0,0,0,-1,1714,617,9.12653,-0.000675931
497,407,7.76819,0.855835,0,0,0,0,0,0,0,-1,1721,617,7.7682,-0.855865
504,407,4.69336,0.160706,0,0,0,0,0,0,0,-1,1728,617,4.69337,-0.1607
511,407,4.07104,-0.00140381,0,0,0,0,0,0,0,-1,1735,617,4.07109,0.00141425
518,407,6.09534,1.9411,0,0,0,0,0,0,0,-1,1742,617,6.09532,-1.94113
525,407,5.72534,-1.35986,0,0,0,0,0,0,0,-1,1749,617,5.72529,1.35988
532,407,18.5767,-10.6388,0,0,0,0,0,0,0,-1,1756,617,18.5766,10.6388
539,407,70.3644,-66.1935,0,0,0,0,0,0,0,-1,1763,617,70.3643,66.1935
546,407,105.786,-68.0313,0,0,0,0,0,0,0,-1,1770,617,105.786,68.0313
553,407,105.002,-63.1686,0,0,0,0,0,0,0,-1,1777,617,105.002,63.1686
560,407,103.774,-59.2513,0,0,0,0,0,0,0,-1,1784,617,103.774,59.2513
567,407,102.82,-54.9862,0,0,0,0,0,0,0,-1,1791,617,102.82,54.9862
574,407,101.604,-51.2136,0.0158374,0.0166246,-0.0285078,0.0447416,-0.0122795,-0.792301,0.0346538,0.0433399,1798,617,101.604,51.2136
581,407,100.413,-47.3478,0.0162619,0.0184281,-0.0319479,0.0493112,-0.0146212,-0.802343,0.0386803,0.0395689,1805,617,100.413,47.3479
588,407,99.3857,-43.6877,0.017042,0.0203977,-0.0354689,0.0542284,-0.0167887,-0.809033,0.0428589,0.0318789,1812,617,99.3857,43.6877
595,407,98.4375,-40.0444,0,0,0,0,0,0,0,-1,1819,617,98.4376,40.0444
602,407,97.4708,-36.1218,0.0199309,0.0251578,-0.0425459,0.0651705,-0.0200818,-0.816073,0.051464,0.044837,1826,617,97.4709,36.1218
609,407,96.6935,-32.6063,0.0220103,0.0280338,-0.0463452,0.0714651,-0.021421,-0.817846,0.0561623,0.0443102,1833,617,96.6935,32.6063
616,407,96.0895,-29.1172,0,0,0,0,0,0,0,-1,1840,617,96.0895,29.1172
623,407,53.5945,-21.0079,0,0,0,0,0,0,0,-1,1847,617,53.5945,21.0078
630,407,7.06177,0.814575,0,0,0,0,0,0,0,-1,1854,617,7.06178,-0.814579
637,407,11.1063,0.391846,0,0,0,0,0,0,0,-1,1861,617,11.1063,-0.391862
644,407,5.09766,2.27747,0,0,0,0,0,0,0,-1,1868,617,5.09764,-2.27746
651,407,7.37524,0.0513916,0,0,0,0,0,0,0,-1,1875,617,7.3752,-0.0513923
658,407,3.76685,0.594177,0,0,0,0,0,0,0,-1,1882,617,3.76683,-0.594184
665,407,5.76123,0.375061,0,0,0,0,0,0,0,-1,1889,617,5.76118,-0.37509
672,407,0,0,0,0,0,0,0,0,0,-1,1896,617,0,0
679,407,0,0,0,0,0,0,0,0,0,-1,1903,617,0,0
686,407,0,0,0,0,0,0,0,0,0,-1,1910,617,0,0
693,407,0,0,0,0,0,0,0,0,0,-1,1917,617,0,0
700,407,0,0,0,0,0,0,0,0,0,-1,1924,617,0,0
707,407,0,0,0,0,0,0,0,0,0,-1,1931,617,0,0
714,407,0,0,0,0,0,0,0,0,0,-1,1938,617,0,0
721,407,0,0,0,0,0,0,0,0,0,-1,1945,617,0,0
728,407,0,0,0,0,0,0,0,0,0,-1,1952,617,0,0
735,407,0,0,0,0,0,0,0,0,0,-1,1959,617,0,0
742,407,0,0,0,0,0,0,0,0,0,-1,1966,617,0,0
749,407,0,0,0,0,0,0,0,0,0,-1,1973,617,0,0
756,407,0,0,0,0,0,0,0,0,0,-1,1980,617,0,0
763,407,0,0,0,0,0,0,0,0,0,-1,1987,617,0,0
770,407,0,0,0,0,0,0,0,0,0,-1,1994,617,0,0
777,407,0,0,0,0,0,0,0,0,0,-1,2001,617,0,0
784,407,0,0,0,0,0,0,0,0,0,-1,2008,617,0,0
791,407,0,0,0,0,0,0,0,0,0,-1,2015,617,0,0
798,407,0,0,0,0,0,0,0,0,0,-1,2022,617,0,0
805,407,0,0,0,0,0,0,0,0,0,-1,2029,617,0,0
812,407,0,0,0,0,0,0,0,0,0,-1,2036,617,0,0
-700,400,0,0,0,0,0,0,0,0,0,-1,524,624,0,0
-693,400,0,0,0,0,0,0,0,0,0,-1,531,624,0,0
-686,400,0,0,0,0,0,0,0,0,0,-1,538,624,0,0
-679,400,0,0,0,0,0,0,0,0,0,-1,545,624,0,0
-672,400,0,0,0,0,0,0,0,0,0,-1,552,624,0,0
-665,400,0,0,0,0,0,0,0,0,0,-1,559,624,0,0
-658,400,0,0,0,0,0,0,0,0,0,-1,566,624,0,0
-651,400,0,0,0,0,0,0,0,0,0,-1,573,624,0,0
-644,400,0,0,0,0,0,0,0,0,0,-1,580,624,0,0
-637,400,0,0,0,0,0,0,0,0,0,-1,587,624,0,0
-630,400,0,0,0,0,0,0,0,0,0,-1,594,624,0,0
-623,400,0,0,0,0,0,0,0,0,0,-1,601,624,0,0
-616,400,0,0,0,0,0,0,0,0,0,-1,608,624,0,0
-609,400,0,0,0,0,0,0,0,0,0,-1,615,624,0,0
-602,400,0,0,0,0,0,0,0,0,0,-1,622,624,0,0
-595,400,0,0,0,0,0,0,0,0,0,-1,629,624,0,0
-588,400,0,0,0,0,0,0,0,0,0,-1,636,624,0,0
-581,400,0,0,0,0,0,0,0,0,0,-1,643,624,0,0
-574,400,0,0,0,0,0,0,0,0,0,-1,650,624,0,0
-567,400,0,0,0,0,0,0,0,0,0,-1,657,624,0,0
-560,400,0,0,0,0,0,0,0,0,0,-1,664,624,0,0
-553,400,0,0,0,0,0,0,0,0,0,-1,671,624,0,0
-546,400,-8.41174,-1.4599,0,0,0,0,0,0,0,-1,678,624,-8.41173,1.45989
-539,400,-5.69104,-1.7337,0,0,0,0,0,0,0,-1,685,624,-5.69103,1.7337
-532,400,-3.03632,-2.03912,0,0,0,0,0,0,0,-1,692,624,-3.03632,2.03909
-525,400,-6.20813,-7.04071,0,0,0,0,0,0,0,-1,699,624,-6.20814,7.04071
-518,400,-5.26544,-1.58661,0,0,0,0,0,0,0,-1,706,624,-5.26544,1.58658
-511,400,-10.6307,-6.7121,0,0,0,0,0,0,0,-1,713,624,-10.6307,6.71209
-504,400,-10.2663,-6.55109,0,0,0,0,0,0,0,-1,720,624,-10.2663,6.55106
-497,400,-37.1384,-17.8541,0,0,0,0,0,0,0,-1,727,624,-37.1384,17.8541
-490,400,-88.801,-25.7887,0,0,0,0,0,0,0,-1,734,624,-88.8009,25.7887
-483,400,-89.7114,-29.5348,0.023284,0.0388702,0.0395664,0.0714037,-0.00924951,0.882635,0.0509662,0.0221509,741,624,-89.7114,29.5348
-476,400,-90.5167,-33.1022,0.0212425,0.0339339,0.0383936,0.0665027,-0.0113263,0.867298,0.048553,0.0188159,748,624,-90.5167,33.1022
-469,400,-91.4369,-36.6914,0.0194462,0.0293961,0.036942,0.0616966,-0.0128543,0.85233,0.0460182,0.0205486,755,624,-91.4369,36.6914
-462,400,-92.3864,-40.475,0.0177749,0.025112,0.035297,0.0569306,-0.0140437,0.837179,0.0433991,0.0246437,762,624,-92.3864,40.4751
-455,400,-93.2609,-44.1796,0.0161113,0.0211084,0.0334672,0.0521702,-0.0149505,0.822657,0.0406897,0.0256654,769,624,-93.2609,44.1796
-448,400,-94.3055,-47.8842,0.0144382,0.0172554,0.0316355,0.0475137,-0.01582,0.807647,0.0380613,0.0217863,776,624,-94.3055,47.8841
-441,400,-95.3514,-51.6733,0.0126438,0.0133506,0.0300328,0.0430321,-0.0170377,0.791281,0.0357473,0.0210684,783,624,-95.3514,51.6733
-434,400,-96.4406,-55.6144,0.0109005,0.0098607,0.0282631,0.0386485,-0.0178873,0.776202,0.0333665,0.0180852,790,624,-96.4406,55.6144
-427,400,-97.5571,-59.6981,0.00878467,0.00659401,0.0267122,0.034424,-0.0190453,0.764907,0.0312933,0.026042,797,624,-97.5571,59.6981
-420,400,-98.8152,-63.612,0,0,0,0,0,0,0,-1,804,624,-98.8153,63.612
-413,400,-63.7141,-63.7772,0,0,0,0,0,0,0,-1,811,624,-63.7141,63.7772
-406,400,-20.0208,-25.2792,0,0,0,0,0,0,0,-1,818,624,-20.0208,25.2792
-399,400,-11.0176,-13.2944,0,0,0,0,0,0,0,-1,825,624,-11.0176,13.2944
-392,400,-4.92285,-6.63354,0,0,0,0,0,0,0,-1,832,624,-4.92285,6.63354
-385,400,-3.68738,-5.04205,0,0,0,0,0,0,0,-1,839,624,-3.68736,5.04207
-378,400,-6.84064,-1.28662,0,0,0,0,0,0,0,-1,846,624,-6.84062,1.28662
-371,400,-6.98865,-1.2572,0,0,0,0,0,0,0,-1,853,624,-6.98865,1.25721
-364,400,-6.97247,-1.24133,0,0,0,0,0,0,0,-1,860,624,-6.97249,1.24135
-357,400,-7.18329,-1.23218,0,0,0,0,0,0,0,-1,867,624,-7.18327,1.2322
-350,400,-7.40186,-1.19409,0,0,0,0,0,0,0,-1,874,624,-7.40187,1.19407
-343,400,-8.09357,-1.51147,0,0,0,0,0,0,0,-1,881,624,-8.09355,1.51148
-336,400,0,0,0,0,0,0,0,0,0,-1,888,624,0,0
-329,400,0,0,0,0,0,0,0,0,0,-1,895,624,0,0
-322,400,0,0,0,0,0,0,0,0,0,-1,902,624,0,0
-315,400,0,0,0,0,0,0,0,0,0,-1,909,624,0,0
-308,400,0,0,0,0,0,0,0,0,0,-1,916,624,0,0
-301,400,0,0,0,0,0,0,0,0,0,-1,923,624,0,0
-294,400,0,0,0,0,0,0,0,0,0,-1,930,624,0,0
-287,400,0,0,0,0,0,0,0,0,0,-1,937,624,0,0
-280,400,0,0,0,0,0,0,0,0,0,-1,944,624,0,0
-273,400,0,0,0,0,0,0,0,0,0,-1,951,624,0,0
-266,400,0,0,0,0,0,0,0,0,0,-1,958,624,0,0
-259,400,0,0,0,0,0,0,0,0,0,-1,965,624,0,0
-252,400,0,0,0,0,0,0,0,0,0,-1,972,624,0,0
-245,400,0,0,0,0,0,0,0,0,0,-1,979,624,0,0
-238,400,0,0,0,0,0,0,0,0,0,-1,986,624,0,0
-231,400,0,0,0,0,0,0,0,0,0,-1,993,624,0,0
-224,400,0,0,0,0,0,0,0,0,0,-1,1000,624,0,0
-217,400,0,0,0,0,0,0,0,0,0,-1,1007,624,0,0
-210,400,0,0,0,0,0,0,0,0,0,-1,1014,624,0,0
-203,400,0,0,0,0,0,0,0,0,0,-1,1021,624,0,0
-196,400,0,0,0,0,0,0,0,0,0,-1,1028,624,0,0
-189,400,0,0,0,0,0,0,0,0,0,-1,1035,624,0,0
-182,400,0,0,0,0,0,0,0,0,0,-1,1042,624,0,0
-175,400,0,0,0,0,0,0,0,0,0,-1,1049,624,0,0
-168,400,0,0,0,0,0,0,0,0,0,-1,1056,624,0,0
-161,400,0,0,0,0,0,0,0,0,0,-1,1063,624,0,0
-154,400,0,0,0,0,0,0,0,0,0,-1,1070,624,0,0
-147,400,0,0,0,0,0,0,0,0,0,-1,1077,624,0,0
-140,400,0,0,0,0,0,0,0,0,0,-1,1084,624,0,0
-133,400,0,0,0,0,0,0,0,0,0,-1,1091,624,0,0
-126,400,0,0,0,0,0,0,0,0,0,-1,1098,624,0,0
-119,400,0,0,0,0,0,0,0,0,0,-1,1105,624,0,0
-112,400,0,0,0,0,0,0,0,0,0,-1,1112,624,0,0
-105,400,0,0,0,0,0,0,0,0,0,-1,1119,624,0,0
-98,400,0,0,0,0,0,0,0,0,0,-1,1126,624,0,0
-91,400,0,0,0,0,0,0,0,0,0,-1,1133,624,0,0
-84,400,0,0,0,0,0,0,0,0,0,-1,1140,624,0,0
-77,400,0,0,0,0,0,0,0,0,0,-1,1147,624,0,0
-70,400,0,0,0,0,0,0,0,0,0,-1,1154,624,0,0
-63,400,0,0,0,0,0,0,0,0,0,-1,1161,624,0,0
-56,400,0,0,0,0,0,0,0,0,0,-1,1168,624,0,0
-49,400,0,0,0,0,0,0,0,0,0,-1,1175,624,0,0
-42,400,0,0,0,0,0,0,0,0,0,-1,1182,624,0,0
-35,400,0,0,0,0,0,0,0,0,0,-1,1189,624,0,0
-28,400,0,0,0,0,0,0,0,0,0,-1,1196,624,0,0
-21,400,0,0,0,0,0,0,0,0,0,-1,1203,624,0,0
-14,400,0,0,0,0,0,0,0,0,0,-1,1210,624,0,0
-7,400,0,0,0,0,0,0,0,0,0,-1,1217,624,0,0
0,400,0,0,0,0,0,0,0,0,0,-1,1224,624,0,0
7,400,0,0,0,0,0,0,0,0,0,-1,1231,624,0,0
14,400,0,0,0,0,0,0,0,0,0,-1,1238,624,0,0
21,400,0,0,0,0,0,0,0,0,0,-1,1245,624,0,0
28,400,0,0,0,0,0,0,0,0,0,-1,1252,624,0,0
35,400,0,0,0,0,0,0,0,0,0,-1,1259,624,0,0
42,400,0,0,0,0,0,0,0,0,0,-1,1266,624,0,0
49,400,0,0,0,0,0,0,0,0,0,-1,1273,624,0,0
56,400,0,0,0,0,0,0,0,0,0,-1,1280,624,0,0
63,400,0,0,0,0,0,0,0,0,0,-1,1287,624,0,0
70,400,0,0,0,0,0,0,0,0,0,-1,1294,624,0,0
77,400,0,0,0,0,0,0,0,0,0,-1,1301,624,0,0
84,400,0,0,0,0,0,0,0,0,0,-1,1308,624,0,0
91,400,0,0,0,0,0,0,0,0,0,-1,1315,624,0,0
98,400,0,0,0,0,0,0,0,0,0,-1,1322,624,0,0
105,400,0,0,0,0,0,0,0,0,0,-1,1329,624,0,0
112,400,0,0,0,0,0,0,0,0,0,-1,1336,624,0,0
119,400,0,0,0,0,0,0,0,0,0,-1,1343,624,0,0
126,400,0,0,0,0,0,0,0,0,0,-1,1350,624,0,0
133,400,0,0,0,0,0,0,0,0,0,-1,1357,624,0,0
140,400,0,0,0,0,0,0,0,0,0,-1,1364,624,0,0
147,400,0,0,0,0,0,0,0,0,0,-1,1371,624,0,0
154,400,0,0,0,0,0,0,0,0,0,-1,1378,624,0,0
161,400,0,0,0,0,0,0,0,0,0,-1,1385,624,0,0
168,400,0,0,0,0,0,0,0,0,0,-1,1392,624,0,0
175,400,0,0,0,0,0,0,0,0,0,-1,1399,624,0,0
182,400,0,0,0,0,0,0,0,0,0,-1,1406,624,0,0
189,400,0,0,0,0,0,0,0,0,0,-1,1413,624,0,0
196,400,0,0,0,0,0,0,0,0,0,-1,1420,624,0,0
203,400,0,0,0,0,0,0,0,0,0,-1,1427,624,0,0
210,400,0,0,0,0,0,0,0,0,0,-1,1434,624,0,0
217,400,0,0,0,0,0,0,0,0,0,-1,1441,624,0,0
224,400,0,0,0,0,0,0,0,0,0,-1,1448,624,0,0
231,400,0,0,0,0,0,0,0,0,0,-1,1455,624,0,0
238,400,0,0,0,0,0,0,0,0,0,-1,1462,624,0,0
245,400,0,0,0,0,0,0,0,0,0,-1,1469,624,0,0
252,400,0,0,0,0,0,0,0,0,0,-1,1476,624,0,0
259,400,0,0,0,0,0,0,0,0,0,-1,1483,624,0,0
266,400,0,0,0,0,0,0,0,0,0,-1,1490,624,0,0
273,400,0,0,0,0,0,0,0,0,0,-1,1497,624,0,0
280,400,0,0,0,0,0,0,0,0,0,-1,1504,624,0,0
287,400,0,0,0,0,0,0,0,0,0,-1,1511,624,0,0
294,400,0,0,0,0,0,0,0,0,0,-1,1518,624,0,0
301,400,0,0,0,0,0,0,0,0,0,-1,1525,624,0,0
308,400,0,0,0,0,0,0,0,0,0,-1,1532,624,0,0
315,400,0,0,0,0,0,0,0,0,0,-1,1539,624,0,0
322,400,0,0,0,0,0,0,0,0,0,-1,1546,624,0,0
329,400,0,0,0,0,0,0,0,0,0,-1,1553,624,0,0
336,400,0,0,0,0,0,0,0,0,0,-1,1560,624,0,0
343,400,0,0,0,0,0,0,0,0,0,-1,1567,624,0,0
350,400,0,0,0,0,0,0,0,0,0,-1,1574,624,0,0
357,400,0,0,0,0,0,0,0,0,0,-1,1581,624,0,0
364,400,0,0,0,0,0,0,0,0,0,-1,1588,624,0,0
371,400,0,0,0,0,0,0,0,0,0,-1,1595,624,0,0
378,400,0,0,0,0,0,0,0,0,0,-1,1602,624,0,0
385,400,0,0,0,0,0,0,0,0,0,-1,1609,624,0,0
392,400,0,0,0,0,0,0,0,0,0,-1,1616,624,0,0
399,400,0,0,0,0,0,0,0,0,0,-1,1623,624,0,0
406,400,0,0,0,0,0,0,0,0,0,-1,1630,624,0,0
413,400,0,0,0,0,0,0,0,0,0,-1,1637,624,0,0
420,400,0,0,0,0,0,0,0,0,0,-1,1644,624,0,0
427,400,0,0,0,0,0,0,0,0,0,-1,1651,624,0,0
434,400,0,0,0,0,0,0,0,0,0,-1,1658,624,0,0
441,400,0,0,0,0,0,0,0,0,0,-1,1665,624,0,0
448,400,0,0,0,0,0,0,0,0,0,-1,1672,624,0,0
455,400,8.91309,2.75885,0,0,0,0,0,0,0,-1,1679,624,8.91312,-2.75885
462,400,8.90356,2.37878,0,0,0,0,0,0,0,-1,1686,624,8.90353,-2.37878
469,400,9.14429,1.76849,0,0,0,0,0,0,0,-1,1693,624,9.14432,-1.76847
476,400,9.23254,1.25995,0,0,0,0,0,0,0,-1,1700,624,9.23252,-1.25994
483,400,9.59766,0.562439,0,0,0,0,0,0,0,-1,1707,624,9.59771,-0.56242
490,400,9.92578,-0.213745,0,0,0,0,0,0,0,-1,1714,624,9.92579,0.21376
497,400,9.19141,0.175232,0,0,0,0,0,0,0,-1,1721,624,9.19138,-0.175209
504,400,9.23438,0.00823975,0,0,0,0,0,0,0,-1,1728,624,9.23436,-0.00823766
511,400,6.16687,3.3501,0,0,0,0,0,0,0,-1,1735,624,6.16682,-3.35007
518,400,6.55237,1.74994,0,0,0,0,0,0,0,-1,1742,624,6.55236,-1.74993
525,400,6.99731,1.08783,0,0,0,0,0,0,0,-1,1749,624,6.99736,-1.08785
532,400,6.96582,-1.74982,0,0,0,0,0,0,0,-1,1756,624,6.96585,1.74983
539,400,21.2305,-10.5841,0,0,0,0,0,0,0,-1,1763,624,21.2304,10.5841
546,400,73.1659,-62.1676,0,0,0,0,0,0,0,-1,1770,624,73.1659,62.1676
553,400,108.791,-61.8079,0,0,0,0,0,0,0,-1,1777,624,108.791,61.8079
560,400,107.878,-57.9969,0,0,0,0,0,0,0,-1,1784,624,107.878,57.9969
567,400,106.855,-53.8761,0,0,0,0,0,0,0,-1,1791,624,106.856,53.8761
574,400,105.633,-50.0972,0,0,0,0,0,0,0,-1,1798,624,105.633,50.0972
581,400,104.646,-46.0803,0,0,0,0,0,0,0,-1,1805,624,104.646,46.0803
588,400,103.677,-42.4639,0,0,0,0,0,0,0,-1,1812,624,103.677,42.4639
595,400,102.658,-38.7693,0,0,0,0,0,0,0,-1,1819,624,102.658,38.7693
602,400,101.683,-35.0836,0.0159256,0.0245604,-0.0389348,0.0594164,-0.0189304,-0.840617,0.0472038,0.0344964,1826,624,101.683,35.0836
609,400,100.832,-31.6497,0.0178046,0.0272212,-0.0425365,0.0653091,-0.0202834,-0.840518,0.0516458,0.0300464,1833,624,100.832,31.6497
616,400,100.172,-28.1575,0.0196079,0.030072,-0.0462631,0.0713979,-0.021718,-0.841706,0.0562532,0.0338486,1840,624,100.172,28.1575
623,400,99.4858,-24.4834,0,0,0,0,0,0,0,-1,1847,624,99.4858,24.4834
630,400,11.9432,0.09021,0,0,0,0,0,0,0,-1,1854,624,11.9432,-0.0902007
637,400,6.92896,1.01917,0,0,0,0,0,0,0,-1,1861,624,6.92899,-1.01918
644,400,8.65381,1.4599,0,0,0,0,0,0,0,-1,1868,624,8.65379,-1.45991
651,400,7.90601,0.424072,0,0,0,0,0,0,0,-1,1875,624,7.90598,-0.424097
658,400,8.69031,1.0484,0,0,0,0,0,0,0,-1,1882,624,8.6903,-1.0484
665,400,5.98438,0.522522,0,0,0,0,0,0,0,-1,1889,624,5.98442,-0.522552
672,400,0,0,0,0,0,0,0,0,0,-1,1896,624,0,0
679,400,0,0,0,0,0,0,0,0,0,-1,1903,624,0,0
686,400,0,0,0,0,0,0,0,0,0,-1,1910,624,0,0
693,400,0,0,0,0,0,0,0,0,0,-1,1917,624,0,0
700,400,0,0,0,0,0,0,0,0,0,-1,1924,624,0,0
707,400,0,0,0,0,0,0,0,0,0,-1,1931,624,0,0
714,400,0,0,0,0,0,0,0,0,0,-1,1938,624,0,0
721,400,0,0,0,0,0,0,0,0,0,-1,1945,624,0,0
728,400,0,0,0,0,0,0,0,0,0,-1,1952,624,0,0
735,400,0,0,0,0,0,0,0,0,0,-1,1959,624,0,0
742,400,0,0,0,0,0,0,0,0,0,-1,1966,624,0,0
749,400,0,0,0,0,0,0,0,0,0,-1,1973,624,0,0
756,400,0,0,0,0,0,0,0,0,0,-1,1980,624,0,0
763,400,0,0,0,0,0,0,0,0,0,-1,1987,624,0,0
770,400,0,0,0,0,0,0,0,0,0,-1,1994,624,0,0
777,400,0,0,0,0,0,0,0,0,0,-1,2001,624,0,0
784,400,0,0,0,0,0,0,0,0,0,-1,2008,624,0,0
791,400,0,0,0,0,0,0,0,0,0,-1,2015,624,0,0
798,400,0,0,0,0,0,0,0,0,0,-1,2022,624,0,0
805,400,0,0,0,0,0,0,0,0,0,-1,2029,624,0,0
812,400,0,0,0,0,0,0,0,0,0,-1,2036,624,0,0
-700,393,0,0,0,0,0,0,0,0,0,-1,524,631,0,0
-693,393,0,0,0,0,0,0,0,0,0,-1,531,631,0,0
-686,393,0,0,0,0,0,0,0,0,0,-1,538,631,0,0
-679,393,0,0,0,0,0,0,0,0,0,-1,545,631,0,0
-672,393,0,0,0,0,0,0,0,0,0,-1,552,631,0,0
-665,393,0,0,0,0,0,0,0,0,0,-1,559,631,0,0
-658,393,0,0,0,0,0,0,0,0,0,-1,566,631,0,0
-651,393,0,0,0,0,0,0,0,0,0,-1,573,631,0,0
-644,393,0,0,0,0,0,0,0,0,0,-1,580,631,0,0
-637,393,0,0,0,0,0,0,0,0,0,-1,587,631,0,0
-630,393,0,0,0,0,0,0,0,0,0,-1,594,631,0,0
-623,393,0,0,0,0,0,0,0,0,0,-1,601,631,0,0
-616,393,0,0,0,0,0,0,0,0,0,-1,608,631,0,0
-609,393,0,0,0,0,0,0,0,0,0,-1,615,631,0,0
-602,393,0,0,0,0,0,0,0,0,0,-1,622,631,0,0
-595,393,0,0,0,0,0,0,0,0,0,-1,629,631,0,0
-588,393,0,0,0,0,0,0,0,0,0,-1,636,631,0,0
-581,393,0,0,0,0,0,0,0,0,0,-1,643,631,0,0
-574,393,0,0,0,0,0,0,0,0,0,-1,650,631,0,0
-567,393,0,0,0,0,0,0,0,0,0,-1,657,631,0,0
-560,393,0,0,0,0,0,0,0,0,0,-1,664,631,0,0
-553,393,-2.35107,3.92633,0,0,0,0,0,0,0,-1,671,631,-2.35108,-3.92634
-546,393,-1.78778,2.4856,0,0,0,0,0,0,0,-1,678,631,-1.78778,-2.48557
-539,393,-5.2113,-2.20245,0,0,0,0,0,0,0,-1,685,631,-5.21128,2.20247
-532,393,-2.83643,-2.01624,0,0,0,0,0,0,0,-1,692,631,-2.83642,2.01626
-525,393,-5.9505,-0.952698,0,0,0,0,0,0,0,-1,699,631,-5.95053,0.95268
-518,393,-5.80219,-1.57739,0,0,0,0,0,0,0,-1,706,631,-5.80219,1.57738
-511,393,-6.15527,-2.09906,0,0,0,0,0,0,0,-1,713,631,-6.15526,2.09903
-504,393,-13.6063,-6.95947,0,0,0,0,0,0,0,-1,720,631,-13.6063,6.95946
-497,393,-92.2066,-21.0372,0,0,0,0,0,0,0,-1,727,631,-92.2066,21.0372
-490,393,-93.0167,-24.8241,0.0224698,0.0404732,0.0384281,0.0709399,-0.00799683,0.900448,0.0501717,0.0469266,734,631,-93.0167,24.8241
-483,393,-93.8589,-28.495,0.0201971,0.0355241,0.0374776,0.0661137,-0.0103925,0.886249,0.0479171,0.0285173,741,631,-93.8589,28.495
-476,393,-94.6337,-32.0705,0.0180719,0.0307936,0.0362665,0.0612529,-0.0123874,0.872211,0.0455296,0.0232265,748,631,-94.6337,32.0705
-469,393,-95.5788,-35.6105,0.01615,0.0263729,0.0348217,0.0564562,-0.0139334,0.858272,0.0430404,0.0196632,755,631,-95.5788,35.6105
-462,393,-96.5847,-39.3098,0.0143604,0.0222277,0.0331687,0.0516952,-0.0151071,0.84442,0.0404507,0.0203909,762,631,-96.5847,39.3098
-455,393,-97.4999,-43.0077,0.0125877,0.0183545,0.0313172,0.0469208,-0.0159785,0.831304,0.0377512,0.019111,769,631,-97.4999,43.0077
-448,393,-98.4756,-46.7151,0.0108595,0.0146639,0.0294267,0.0422498,-0.0167264,0.817674,0.0350967,0.0183538,776,631,-98.4757,46.7151
-441,393,-99.4957,-50.4668,0.00905181,0.0110429,0.0276787,0.037744,-0.0176493,0.803374,0.0326752,0.0176972,783,631,-99.4957,50.4668
-434,393,-100.614,-54.3698,0.00734482,0.00790729,0.0257065,0.0333341,-0.0180819,0.790868,0.0301173,0.0216772,790,631,-100.614,54.3698
-427,393,-101.759,-58.4299,0,0,0,0,0,0,0,-1,797,631,-101.759,58.4299
-420,393,-93.9938,-64.2738,0,0,0,0,0,0,0,-1,804,631,-93.9939,64.2738
-413,393,-15.0913,-18.3777,0,0,0,0,0,0,0,-1,811,631,-15.0913,18.3777
-406,393,-11.826,-12.7987,0,0,0,0,0,0,0,-1,818,631,-11.8261,12.7987
-399,393,-5.07343,-5.92365,0,0,0,0,0,0,0,-1,825,631,-5.07344,5.92364
-392,393,-2.08063,-3.02386,0,0,0,0,0,0,0,-1,832,631,-2.08063,3.02384
-385,393,-3.16931,-0.624756,0,0,0,0,0,0,0,-1,839,631,-3.16928,0.624764
-378,393,-7.33081,-0.872314,0,0,0,0,0,0,0,-1,846,631,-7.33081,0.872325
-371,393,-7.47858,-0.811096,0,0,0,0,0,0,0,-1,853,631,-7.47859,0.811075
-364,393,-7.64917,-0.662415,0,0,0,0,0,0,0,-1,860,631,-7.64917,0.662406
-357,393,-8.09686,-0.726013,0,0,0,0,0,0,0,-1,867,631,-8.09689,0.726029
-350,393,-8.38788,-0.511841,0,0,0,0,0,0,0,-1,874,631,-8.38785,0.511811
-343,393,0,0,0,0,0,0,0,0,0,-1,881,631,0,0
-336,393,0,0,0,0,0,0,0,0,0,-1,888,631,0,0
-329,393,0,0,0,0,0,0,0,0,0,-1,895,631,0,0
-322,393,0,0,0,0,0,0,0,0,0,-1,902,631,0,0
-315,393,0,0,0,0,0,0,0,0,0,-1,909,631,0,0
-308,393,0,0,0,0,0,0,0,0,0,-1,916,631,0,0
-301,393,0,0,0,0,0,0,0,0,0,-1,923,631,0,0
-294,393,0,0,0,0,0,0,0,0,0,-1,930,631,0,0
-287,393,0,0,0,0,0,0,0,0,0,-1,937,631,0,0
-280,393,0,0,0,0,0,0,0,0,0,-1,944,631,0,0
-273,393,0,0,0,0,0,0,0,0,0,-1,951,631,0,0
-266,393,0,0,0,0,0,0,0,0,0,-1,958,631,0,0
-259,393,0,0,0,0,0,0,0,0,0,-1,965,631,0,0
-252,393,0,0,0,0,0,0,0,0,0,-1,972,631,0,0
-245,393,0,0,0,0,0,0,0,0,0,-1,979,631,0,0
-238,393,0,0,0,0,0,0,0,0,0,-1,986,631,0,0
-231,393,0,0,0,0,0,0,0,0,0,-1,993,631,0,0
-224,393,0,0,0,0,0,0,0,0,0,-1,1000,631,0,0
-217,393,0,0,0,0,0,0,0,0,0,-1,1007,631,0,0
-210,393,0,0,0,0,0,0,0,0,0,-1,1014,631,0,0
-203,393,0,0,0,0,0,0,0,0,0,-1,1021,631,0,0
-196,393,0,0,0,0,0,0,0,0,0,-1,1028,631,0,0
-189,393,0,0,0,0,0,0,0,0,0,-1,1035,631,0,0
-182,393,0,0,0,0,0,0,0,0,0,-1,1042,631,0,0
-175,393,0,0,0,0,0,0,0,0,0,-1,1049,631,0,0
-168,393,0,0,0,0,0,0,0,0,0,-1,1056,631,0,0
-161,393,0,0,0,0,0,0,0,0,0,-1,1063,631,0,0
-154,393,0,0,0,0,0,0,0,0,0,-1,1070,631,0,0
-147,393,0,0,0,0,0,0,0,0,0,-1,1077,631,0,0
-140,393,0,0,0,0,0,0,0,0,0,-1,1084,631,0,0
-133,393,0,0,0,0,0,0,0,0,0,-1,1091,631,0,0
-126,393,0,0,0,0,0,0,0,0,0,-1,1098,631,0,0
-119,393,0,0,0,0,0,0,0,0,0,-1,1105,631,0,0
-112,393,0,0,0,0,0,0,0,0,0,-1,1112,631,0,0
-105,393,0,0,0,0,0,0,0,0,0,-1,1119,631,0,0
-98,393,0,0,0,0,0,0,0,0,0,-1,1126,631,0,0
-91,393,0,0,0,0,0,0,0,0,0,-1,1133,631,0,0
-84,393,0,0,0,0,0,0,0,0,0,-1,1140,631,0,0
-77,393,0,0,0,0,0,0,0,0,0,-1,1147,631,0,0
-70,393,0,0,0,0,0,0,0,0,0,-1,1154,631,0,0
-63,393,0,0,0,0,0,0,0,0,0,-1,1161,631,0,0
-56,393,0,0,0,0,0,0,0,0,0,-1,1168,631,0,0
-49,393,0,0,0,0,0,0,0,0,0,-1,1175,631,0,0
-42,393,0,0,0,0,0,0,0,0,0,-1,1182,631,0,0
-35,393,0,0,0,0,0,0,0,0,0,-1,1189,631,0,0
-28,393,0,0,0,0,0,0,0,0,0,-1,1196,631,0,0
-21,393,0,0,0,0,0,0,0,0,0,-1,1203,631,0,0
-14,393,0,0,0,0,0,0,0,0,0,-1,1210,631,0,0
-7,393,0,0,0,0,0,0,0,0,0,-1,1217,631,0,0
0,393,0,0,0,0,0,0,0,0,0,-1,1224,631,0,0
7,393,0,0,0,0,0,0,0,0,0,-1,1231,631,0,0
14,393,0,0,0,0,0,0,0,0,0,-1,1238,631,0,0
21,393,0,0,0,0,0,0,0,0,0,-1,1245,631,0,0
28,393,0,0,0,0,0,0,0,0,0,-1,1252,631,0,0
35,393,0,0,0,0,0,0,0,0,0,-1,1259,631,0,0
42,393,0,0,0,0,0,0,0,0,0,-1,1266,631,0,0
49,393,0,0,0,0,0,0,0,0,0,-1,1273,631,0,0
56,393,0,0,0,0,0,0,0,0,0,-1,1280,631,0,0
63,393,0,0,0,0,0,0,0,0,0,-1,1287,631,0,0
70,393,0,0,0,0,0,0,0,0,0,-1,1294,631,0,0
77,393,0,0,0,0,0,0,0,0,0,-1,1301,631,0,0
84,393,0,0,0,0,0,0,0,0,0,-1,1308,631,0,0
91,393,0,0,0,0,0,0,0,0,0,-1,1315,631,0,0
98,393,0,0,0,0,0,0,0,0,0,-1,1322,631,0,0
105,393,0,0,0,0,0,0,0,0,0,-1,1329,631,0,0
112,393,0,0,0,0,0,0,0,0,0,-1,1336,631,0,0
119,393,0,0,0,0,0,0,0,0,0,-1,1343,631,0,0
126,393,0,0,0,0,0,0,0,0,0,-1,1350,631,0,0
133,393,0,0,0,0,0,0,0,0,0,-1,1357,631,0,0
140,393,0,0,0,0,0,0,0,0,0,-1,1364,631,0,0
147,393,0,0,0,0,0,0,0,0,0,-1,1371,631,0,0
154,393,0,0,0,0,0,0,0,0,0,-1,1378,631,0,0
161,393,0,0,0,0,0,0,0,0,0,-1,1385,631,0,0
168,393,0,0,0,0,0,0,0,0,0,-1,1392,631,0,0
175,393,0,0,0,0,0,0,0,0,0,-1,1399,631,0,0
182,393,0,0,0,0,0,0,0,0,0,-1,1406,631,0,0
189,393,0,0,0,0,0,0,0,0,0,-1,1413,631,0,0
196,393,0,0,0,0,0,0,0,0,0,-1,1420,631,0,0
203,393,0,0,0,0,0,0,0,0,0,-1,1427,631,0,0
210,393,0,0,0,0,0,0,0,0,0,-1,1434,631,0,0
217,393,0,0,0,0,0,0,0,0,0,-1,1441,631,0,0
224,393,0,0,0,0,0,0,0,0,0,-1,1448,631,0,0
231,393,0,0,0,0,0,0,0,0,0,-1,1455,631,0,0
238,393,0,0,0,0,0,0,0,0,0,-1,1462,631,0,0
245,393,0,0,0,0,0,0,0,0,0,-1,1469,631,0,0
252,393,0,0,0,0,0,0,0,0,0,-1,1476,631,0,0
259,393,0,0,0,0,0,0,0,0,0,-1,1483,631,0,0
266,393,0,0,0,0,0,0,0,0,0,-1,1490,631,0,0
273,393,0,0,0,0,0,0,0,0,0,-1,1497,631,0,0
280,393,0,0,0,0,0,0,0,0,0,-1,1504,631,0,0
287,393,0,0,0,0,0,0,0,0,0,-1,1511,631,0,0
294,393,0,0,0,0,0,0,0,0,0,-1,1518,631,0,0
301,393,0,0,0,0,0,0,0,0,0,-1,1525,631,0,0
308,393,0,0,0,0,0,0,0,0,0,-1,1532,631,0,0
315,393,0,0,0,0,0,0,0,0,0,-1,1539,631,0,0
322,393,0,0,0,0,0,0,0,0,0,-1,1546,631,0,0
329,393,0,0,0,0,0,0,0,0,0,-1,1553,631,0,0
336,393,0,0,0,0,0,0,0,0,0,-1,1560,631,0,0
343,393,0,0,0,0,0,0,0,0,0,-1,1567,631,0,0
350,393,0,0,0,0,0,0,0,0,0,-1,1574,631,0,0
357,393,0,0,0,0,0,0,0,0,0,-1,1581,631,0,0
364,393,0,0,0,0,0,0,0,0,0,-1,1588,631,0,0
371,393,0,0,0,0,0,0,0,0,0,-1,1595,631,0,0
378,393,0,0,0,0,0,0,0,0,0,-1,1602,631,0,0
385,393,0,0,0,0,0,0,0,0,0,-1,1609,631,0,0
392,393,0,0,0,0,0,0,0,0,0,-1,1616,631,0,0
399,393,0,0,0,0,0,0,0,0,0,-1,1623,631,0,0
406,393,0,0,0,0,0,0,0,0,0,-1,1630,631,0,0
413,393,0,0,0,0,0,0,0,0,0,-1,1637,631,0,0
420,393,0,0,0,0,0,0,0,0,0,-1,1644,631,0,0
427,393,0,0,0,0,0,0,0,0,0,-1,1651,631,0,0
434,393,0,0,0,0,0,0,0,0,0,-1,1658,631,0,0
441,393,0,0,0,0,0,0,0,0,0,-1,1665,631,0,0
448,393,0,0,0,0,0,0,0,0,0,-1,1672,631,0,0
455,393,0,0,0,0,0,0,0,0,0,-1,1679,631,0,0
462,393,8.51099,1.89502,0,0,0,0,0,0,0,-1,1686,631,8.51103,-1.89504
469,393,9.39465,1.51703,0,0,0,0,0,0,0,-1,1693,631,9.39465,-1.51703
476,393,9.95569,1.185,0,0,0,0,0,0,0,-1,1700,631,9.95575,-1.18497
483,393,10.5267,0.887329,0,0,0,0,0,0,0,-1,1707,631,10.5267,-0.887321
490,393,10.9303,0.761414,0,0,0,0,0,0,0,-1,1714,631,10.9303,-0.761386
497,393,8.32153,1.88104,0,0,0,0,0,0,0,-1,1721,631,8.32148,-1.88103
504,393,9.46985,1.78711,0,0,0,0,0,0,0,-1,1728,631,9.46986,-1.78713
511,393,9.66565,-0.375977,0,0,0,0,0,0,0,-1,1735,631,9.66571,0.375949
518,393,7.01599,1.62482,0,0,0,0,0,0,0,-1,1742,631,7.01597,-1.62483
525,393,7.88245,-1.13422,0,0,0,0,0,0,0,-1,1749,631,7.88246,1.13423
532,393,7.06335,-1.18103,0,0,0,0,0,0,0,-1,1756,631,7.06332,1.18101
539,393,9.91626,-2.46301,0,0,0,0,0,0,0,-1,1763,631,9.91625,2.46302
546,393,16.4094,-8.04651,0,0,0,0,0,0,0,-1,1770,631,16.4094,8.04649
553,393,71.0729,-54.5511,0,0,0,0,0,0,0,-1,1777,631,71.0729,54.5511
560,393,111.918,-56.8559,0,0,0,0,0,0,0,-1,1784,631,111.918,56.8559
567,393,110.877,-52.8052,0,0,0,0,0,0,0,-1,1791,631,110.877,52.8052
574,393,109.727,-48.9349,0,0,0,0,0,0,0,-1,1798,631,109.727,48.935
581,393,108.646,-45.1638,0,0,0,0,0,0,0,-1,1805,631,108.646,45.1638
588,393,108.012,-41.223,0,0,0,0,0,0,0,-1,1812,631,108.012,41.223
595,393,106.817,-37.7193,0,0,0,0,0,0,0,-1,1819,631,106.817,37.7193
602,393,105.729,-34.0917,0.0123792,0.0238722,-0.035122,0.0537147,-0.0174633,-0.866487,0.0428344,0.0404527,1826,631,105.729,34.0916
609,393,104.963,-30.6044,0.0141331,0.0263469,-0.0386861,0.0594052,-0.0189252,-0.863681,0.0471941,0.0273825,1833,631,104.962,30.6044
616,393,104.221,-27.1849,0.0159076,0.0289464,-0.0423155,0.0652417,-0.0203878,-0.86183,0.0516496,0.0221888,1840,631,104.221,27.185
623,393,103.31,-23.6189,0,0,0,0,0,0,0,-1,1847,631,103.31,23.6189
630,393,50.0315,-15.3729,0,0,0,0,0,0,0,-1,1854,631,50.0316,15.3728
637,393,11.4626,0.608887,0,0,0,0,0,0,0,-1,1861,631,11.4627,-0.608904
644,393,8.97583,1.30585,0,0,0,0,0,0,0,-1,1868,631,8.97586,-1.30584
651,393,11.348,0.53302,0,0,0,0,0,0,0,-1,1875,631,11.348,-0.53305
658,393,9.21338,1.50836,0,0,0,0,0,0,0,-1,1882,631,9.21338,-1.50834
665,393,6.1001,2.32129,0,0,0,0,0,0,0,-1,1889,631,6.10012,-2.3213
672,393,7.14575,2.43225,0,0,0,0,0,0,0,-1,1896,631,7.14572,-2.43222
679,393,0,0,0,0,0,0,0,0,0,-1,1903,631,0,0
686,393,0,0,0,0,0,0,0,0,0,-1,1910,631,0,0
693,393,0,0,0,0,0,0,0,0,0,-1,1917,631,0,0
700,393,0,0,0,0,0,0,0,0,0,-1,1924,631,0,0
707,393,0,0,0,0,0,0,0,0,0,-1,1931,631,0,0
714,393,0,0,0,0,0,0,0,0,0,-1,1938,631,0,0
721,393,0,0,0,0,0,0,0,0,0,-1,1945,631,0,0
728,393,0,0,0,0,0,0,0,0,0,-1,1952,631,0,0
735,393,0,0,0,0,0,0,0,0,0,-1,1959,631,0,0
742,393,0,0,0,0,0,0,0,0,0,-1,1966,631,0,0
749,393,0,0,0,0,0,0,0,0,0,-1,1973,631,0,0
756,393,0,0,0,0,0,0,0,0,0,-1,1980,631,0,0
763,393,0,0,0,0,0,0,0,0,0,-1,1987,631,0,0
770,393,0,0,0,0,0,0,0,0,0,-1,1994,631,0,0
777,393,0,0,0,0,0,0,0,0,0,-1,2001,631,0,0
784,393,0,0,0,0,0,0,0,0,0,-1,2008,631,0,0
791,393,0,0,0,0,0,0,0,0,0,-1,2015,631,0,0
798,393,0,0,0,0,0,0,0,0,0,-1,2022,631,0,0
805,393,0,0,0,0,0,0,0,0,0,-1,2029,631,0,0
812,393,0,0,0,0,0,0,0,0,0,-1,2036,631,0,0
-700,386,0,0,0,0,0,0,0,0,0,-1,524,638,0,0
-693,386,0,0,0,0,0,0,0,0,0,-1,531,638,0,0
-686,386,0,0,0,0,0,0,0,0,0,-1,538,638,0,0
-679,386,0,0,0,0,0,0,0,0,0,-1,545,638,0,0
-672,386,0,0,0,0,0,0,0,0,0,-1,552,638,0,0
-665,386,0,0,0,0,0,0,0,0,0,-1,559,638,0,0
-658,386,0,0,0,0,0,0,0,0,0,-1,566,638,0,0
-651,386,0,0,0,0,0,0,0,0,0,-1,573,638,0,0
-644,386,0,0,0,0,0,0,0,0,0,-1,580,638,0,0
-637,386,0,0,0,0,0,0,0,0,0,-1,587,638,0,0
-630,386,0,0,0,0,0,0,0,0,0,-1,594,638,0,0
-623,386,0,0,0,0,0,0,0,0,0,-1,601,638,0,0
-616,386,0,0,0,0,0,0,0,0,0,-1,608,638,0,0
-609,386,0,0,0,0,0,0,0,0,0,-1,615,638,0,0
-602,386,0,0,0,0,0,0,0,0,0,-1,622,638,0,0
-595,386,0,0,0,0,0,0,0,0,0,-1,629,638,0,0
-588,386,0,0,0,0,0,0,0,0,0,-1,636,638,0,0
-581,386,0,0,0,0,0,0,0,0,0,-1,643,638,0,0
-574,386,0,0,0,0,0,0,0,0,0,-1,650,638,0,0
-567,386,0,0,0,0,0,0,0,0,0,-1,657,638,0,0
-560,386,-3.97229,-5.13898,0,0,0,0,0,0,0,-1,664,638,-3.97232,5.13897
-553,386,-4.94244,-5.54309,0,0,0,0,0,0,0,-1,671,638,-4.94242,5.5431
-546,386,-1.78668,1.72827,0,0,0,0,0,0,0,-1,678,638,-1.78668,-1.72829
-539,386,-0.879456,-2.90009,0,0,0,0,0,0,0,-1,685,638,-0.879442,2.90008
-532,386,-5.4884,1.73328,0,0,0,0,0,0,0,-1,692,638,-5.4884,-1.73325
-525,386,-6.64148,-1.50604,0,0,0,0,0,0,0,-1,699,638,-6.64149,1.50603
-518,386,-11.1217,-4.10382,0,0,0,0,0,0,0,-1,706,638,-11.1217,4.1038
-511,386,-13.0612,-5.05151,0,0,0,0,0,0,0,-1,713,638,-13.0612,5.05149
-504,386,-34.0443,-13.7252,0,0,0,0,0,0,0,-1,720,638,-34.0442,13.7252
-497,386,-96.2335,-19.9481,0,0,0,0,0,0,0,-1,727,638,-96.2335,19.9481
-490,386,-97.1448,-23.8795,0.0195289,0.0365691,0.0366789,0.0657045,-0.00960652,0.899518,0.0473312,0.0258909,734,638,-97.1448,23.8794
-483,386,-98.051,-27.504,0.0172795,0.0320974,0.0354913,0.0609449,-0.0115679,0.888298,0.0449844,0.0293889,741,638,-98.051,27.504
-476,386,-98.7505,-30.9885,0.0151267,0.0277365,0.0341207,0.0561299,-0.0132667,0.876759,0.0425375,0.0246993,748,638,-98.7505,30.9885
-469,386,-99.6649,-34.514,0.0130918,0.0235437,0.0325878,0.0513219,-0.0146865,0.864904,0.0400187,0.0172847,755,638,-99.6649,34.514
-462,386,-100.625,-38.1748,0.0111743,0.0195783,0.030856,0.0465171,-0.0157645,0.853073,0.0373909,0.0154233,762,638,-100.625,38.1748
-455,386,-101.619,-41.909,0.00927296,0.0158247,0.0289376,0.0416712,-0.0165736,0.841761,0.0346526,0.0175935,769,638,-101.619,41.909
-448,386,-102.527,-45.6266,0.00744171,0.0122508,0.0269254,0.0368788,-0.0171863,0.829932,0.0318972,0.0181284,776,638,-102.527,45.6266
-441,386,-103.544,-49.3206,0.00551526,0.00889152,0.0248964,0.032157,-0.0177502,0.819249,0.0292113,0.0180775,783,638,-103.544,49.3206
-434,386,-104.662,-53.0175,0,0,0,0,0,0,0,-1,790,638,-104.662,53.0175
-427,386,-105.153,-57.5392,0,0,0,0,0,0,0,-1,797,638,-105.153,57.5392
-420,386,-14.5338,-16.0451,0,0,0,0,0,0,0,-1,804,638,-14.5338,16.0451
-413,386,-5.45691,-5.35785,0,0,0,0,0,0,0,-1,811,638,-5.45691,5.35783
-406,386,-4.51135,-4.10999,0,0,0,0,0,0,0,-1,818,638,-4.51135,4.10996
-399,386,-3.57117,-3.42126,0,0,0,0,0,0,0,-1,825,638,-3.57116,3.42129
-392,386,-4.00977,0.403625,0,0,0,0,0,0,0,-1,832,638,-4.0098,-0.403616
-385,386,-3.2406,-0.118469,0,0,0,0,0,0,0,-1,839,638,-3.24058,0.118485
-378,386,-2.55243,-1.22748,0,0,0,0,0,0,0,-1,846,638,-2.55243,1.22748
-371,386,-7.95807,-0.330261,0,0,0,0,0,0,0,-1,853,638,-7.95806,0.330284
-364,386,-8.90637,-0.665955,0,0,0,0,0,0,0,-1,860,638,-8.90635,0.665951
-357,386,-9.10364,-0.388733,0,0,0,0,0,0,0,-1,867,638,-9.10364,0.388744
-350,386,0,0,0,0,0,0,0,0,0,-1,874,638,0,0
-343,386,0,0,0,0,0,0,0,0,0,-1,881,638,0,0
-336,386,0,0,0,0,0,0,0,0,0,-1,888,638,0,0
-329,386,0,0,0,0,0,0,0,0,0,-1,895,638,0,0
-322,386,0,0,0,0,0,0,0,0,0,-1,902,638,0,0
-315,386,0,0,0,0,0,0,0,0,0,-1,909,638,0,0
-308,386,0,0,0,0,0,0,0,0,0,-1,916,638,0,0
-301,386,0,0,0,0,0,0,0,0,0,-1,923,638,0,0
-294,386,0,0,0,0,0,0,0,0,0,-1,930,638,0,0
-287,386,0,0,0,0,0,0,0,0,0,-1,937,638,0,0
-280,386,0,0,0,0,0,0,0,0,0,-1,944,638,0,0
-273,386,0,0,0,0,0,0,0,0,0,-1,951,638,0,0
-266,386,0,0,0,0,0,0,0,0,0,-1,958,638,0,0
-259,386,0,0,0,0,0,0,0,0,0,-1,965,638,0,0
-252,386,0,0,0,0,0,0,0,0,0,-1,972,638,0,0
-245,386,0,0,0,0,0,0,0,0,0,-1,979,638,0,0
-238,386,0,0,0,0,0,0,0,0,0,-1,986,638,0,0
-231,386,0,0,0,0,0,0,0,0,0,-1,993,638,0,0
-224,386,0,0,0,0,0,0,0,0,0,-1,1000,638,0,0
-217,386,0,0,0,0,0,0,0,0,0,-1,1007,638,0,0
-210,386,0,0,0,0,0,0,0,0,0,-1,1014,638,0,0
-203,386,0,0,0,0,0,0,0,0,0,-1,1021,638,0,0
-196,386,0,0,0,0,0,0,0,0,0,-1,1028,638,0,0
-189,386,0,0,0,0,0,0,0,0,0,-1,1035,638,0,0
-182,386,0,0,0,0,0,0,0,0,0,-1,1042,638,0,0
-175,386,0,0,0,0,0,0,0,0,0,-1,1049,638,0,0
-168,386,0,0,0,0,0,0,0,0,0,-1,1056,638,0,0
-161,386,0,0,0,0,0,0,0,0,0,-1,1063,638,0,0
-154,386,0,0,0,0,0,0,0,0,0,-1,1070,638,0,0
-147,386,0,0,0,0,0,0,0,0,0,-1,1077,638,0,0
-140,386,0,0,0,0,0,0,0,0,0,-1,1084,638,0,0
-133,386,0,0,0,0,0,0,0,0,0,-1,1091,638,0,0
-126,386,0,0,0,0,0,0,0,0,0,-1,1098,638,0,0
-119,386,0,0,0,0,0,0,0,0,0,-1,1105,638,0,0
-112,386,0,0,0,0,0,0,0,0,0,-1,1112,638,0,0
-105,386,0,0,0,0,0,0,0,0,0,-1,1119,638,0,0
-98,386,0,0,0,0,0,0,0,0,0,-1,1126,638,0,0
-91,386,0,0,0,0,0,0,0,0,0,-1,1133,638,0,0
-84,386,0,0,0,0,0,0,0,0,0,-1,1140,638,0,0
-77,386,0,0,0,0,0,0,0,0,0,-1,1147,638,0,0
-70,386,0,0,0,0,0,0,0,0,0,-1,1154,638,0,0
-63,386,0,0,0,0,0,0,0,0,0,-1,1161,638,0,0
-56,386,0,0,0,0,0,0,0,0,0,-1,1168,638,0,0
-49,386,0,0,0,0,0,0,0,0,0,-1,1175,638,0,0
-42,386,0,0,0,0,0,0,0,0,0,-1,1182,638,0,0
-35,386,0,0,0,0,0,0,0,0,0,-1,1189,638,0,0
-28,386,0,0,0,0,0,0,0,0,0,-1,1196,638,0,0
-21,386,0,0,0,0,0,0,0,0,0,-1,1203,638,0,0
-14,386,0,0,0,0,0,0,0,0,0,-1,1210,638,0,0
-7,386,0,0,0,0,0,0,0,0,0,-1,1217,638,0,0
0,386,0,0,0,0,0,0,0,0,0,-1,1224,638,0,0
7,386,0,0,0,0,0,0,0,0,0,-1,1231,638,0,0
14,386,0,0,0,0,0,0,0,0,0,-1,1238,638,0,0
21,386,0,0,0,0,0,0,0,0,0,-1,1245,638,0,0
28,386,0,0,0,0,0,0,0,0,0,-1,1252,638,0,0
35,386,0,0,0,0,0,0,0,0,0,-1,1259,638,0,0
42,386,0,0,0,0,0,0,0,0,0,-1,1266,638,0,0
49,386,0,0,0,0,0,0,0,0,0,-1,1273,638,0,0
56,386,0,0,0,0,0,0,0,0,0,-1,1280,638,0,0
63,386,0,0,0,0,0,0,0,0,0,-1,1287,638,0,0
70,386,0,0,0,0,0,0,0,0,0,-1,1294,638,0,0
77,386,0,0,0,0,0,0,0,0,0,-1,1301,638,0,0
84,386,0,0,0,0,0,0,0,0,0,-1,1308,638,0,0
91,386,0,0,0,0,0,0,0,0,0,-1,1315,638,0,0
98,386,0,0,0,0,0,0,0,0,0,-1,1322,638,0,0
105,386,0,0,0,0,0,0,0,0,0,-1,1329,638,0,0
112,386,0,0,0,0,0,0,0,0,0,-1,1336,638,0,0
119,386,0,0,0,0,0,0,0,0,0,-1,1343,638,0,0
126,386,0,0,0,0,0,0,0,0,0,-1,1350,638,0,0
133,386,0,0,0,0,0,0,0,0,0,-1,1357,638,0,0
140,386,0,0,0,0,0,0,0,0,0,-1,1364,638,0,0
147,386,0,0,0,0,0,0,0,0,0,-1,1371,638,0,0
154,386,0,0,0,0,0,0,0,0,0,-1,1378,638,0,0
161,386,0,0,0,0,0,0,0,0,0,-1,1385,638,0,0
168,386,0,0,0,0,0,0,0,0,0,-1,1392,638,0,0
175,386,0,0,0,0,0,0,0,0,0,-1,1399,638,0,0
182,386,0,0,0,0,0,0,0,0,0,-1,1406,638,0,0
189,386,0,0,0,0,0,0,0,0,0,-1,1413,638,0,0
196,386,0,0,0,0,0,0,0,0,0,-1,1420,638,0,0
203,386,0,0,0,0,0,0,0,0,0,-1,1427,638,0,0
210,386,0,0,0,0,0,0,0,0,0,-1,1434,638,0,0
217,386,0,0,0,0,0,0,0,0,0,-1,1441,638,0,0
224,386,0,0,0,0,0,0,0,0,0,-1,1448,638,0,0
231,386,0,0,0,0,0,0,0,0,0,-1,1455,638,0,0
238,386,0,0,0,0,0,0,0,0,0,-1,1462,638,0,0
245,386,0,0,0,0,0,0,0,0,0,-1,1469,638,0,0
252,386,0,0,0,0,0,0,0,0,0,-1,1476,638,0,0
259,386,0,0,0,0,0,0,0,0,0,-1,1483,638,0,0
266,386,0,0,0,0,0,0,0,0,0,-1,1490,638,0,0
273,386,0,0,0,0,0,0,0,0,0,-1,1497,638,0,0
280,386,0,0,0,0,0,0,0,0,0,-1,1504,638,0,0
287,386,0,0,0,0,0,0,0,0,0,-1,1511,638,0,0
294,386,0,0,0,0,0,0,0,0,0,-1,1518,638,0,0
301,386,0,0,0,0,0,0,0,0,0,-1,1525,638,0,0
308,386,0,0,0,0,0,0,0,0,0,-1,1532,638,0,0
315,386,0,0,0,0,0,0,0,0,0,-1,1539,638,0,0
322,386,0,0,0,0,0,0,0,0,0,-1,1546,638,0,0
329,386,0,0,0,0,0,0,0,0,0,-1,1553,638,0,0
336,386,0,0,0,0,0,0,0,0,0,-1,1560,638,0,0
343,386,0,0,0,0,0,0,0,0,0,-1,1567,638,0,0
350,386,0,0,0,0,0,0,0,0,0,-1,1574,638,0,0
357,386,0,0,0,0,0,0,0,0,0,-1,1581,638,0,0
364,386,0,0,0,0,0,0,0,0,0,-1,1588,638,0,0
371,386,0,0,0,0,0,0,0,0,0,-1,1595,638,0,0
378,386,0,0,0,0,0,0,0,0,0,-1,1602,638,0,0
385,386,0,0,0,0,0,0,0,0,0,-1,1609,638,0,0
392,386,0,0,0,0,0,0,0,0,0,-1,1616,638,0,0
399,386,0,0,0,0,0,0,0,0,0,-1,1623,638,0,0
406,386,0,0,0,0,0,0,0,0,0,-1,1630,638,0,0
413,386,0,0,0,0,0,0,0,0,0,-1,1637,638,0,0
420,386,0,0,0,0,0,0,0,0,0,-1,1644,638,0,0
427,386,0,0,0,0,0,0,0,0,0,-1,1651,638,0,0
434,386,0,0,0,0,0,0,0,0,0,-1,1658,638,0,0
441,386,0,0,0,0,0,0,0,0,0,-1,1665,638,0,0
448,386,0,0,0,0,0,0,0,0,0,-1,1672,638,0,0
455,386,0,0,0,0,0,0,0,0,0,-1,1679,638,0,0
462,386,0,0,0,0,0,0,0,0,0,-1,1686,638,0,0
469,386,9.84692,1.55804,0,0,0,0,0,0,0,-1,1693,638,9.84691,-1.55807
476,386,10.6145,0.986511,0,0,0,0,0,0,0,-1,1700,638,10.6145,-0.986529
483,386,11.4113,0.732971,0,0,0,0,0,0,0,-1,1707,638,11.4112,-0.732958
490,386,7.79785,1.79572,0,0,0,0,0,0,0,-1,1714,638,7.79788,-1.7957
497,386,8.96362,1.77081,0,0,0,0,0,0,0,-1,1721,638,8.96357,-1.77081
504,386,10.0555,1.69427,0,0,0,0,0,0,0,-1,1728,638,10.0555,-1.69426
511,386,11.2172,1.534,0,0,0,0,0,0,0,-1,1735,638,11.2172,-1.53398
518,386,7.41553,1.75238,0,0,0,0,0,0,0,-1,1742,638,7.41547,-1.75238
525,386,8.82422,-1.1449,0,0,0,0,0,0,0,-1,1749,638,8.82426,1.14492
532,386,10.6432,0.617371,0,0,0,0,0,0,0,-1,1756,638,10.6432,-0.617359
539,386,9.62061,-0.393616,0,0,0,0,0,0,0,-1,1763,638,9.62059,0.393634
546,386,10.7963,-2.854,0,0,0,0,0,0,0,-1,1770,638,10.7962,2.854
553,386,16.9939,-7.27942,0,0,0,0,0,0,0,-1,1777,638,16.9939,7.27944
560,386,73.2229,-52.2673,0,0,0,0,0,0,0,-1,1784,638,73.2229,52.2673
567,386,114.886,-51.824,0,0,0,0,0,0,0,-1,1791,638,114.886,51.824
574,386,113.836,-47.7467,0,0,0,0,0,0,0,-1,1798,638,113.836,47.7467
581,386,112.809,-44.1215,0.00607664,0.0181721,-0.0198822,0.032906,-0.00865722,-0.933041,0.0253213,0.0342493,1805,638,112.809,44.1215
588,386,112.013,-40.3807,0.00670932,0.0195113,-0.0236674,0.0376281,-0.0114074,-0.917467,0.0296291,0.0382253,1812,638,112.013,40.3807
595,386,110.893,-36.7192,0.00782465,0.021163,-0.0274274,0.0427204,-0.0137327,-0.904663,0.0339954,0.0378272,1819,638,110.893,36.7192
602,386,109.974,-33.2071,0.00909246,0.0230924,-0.0312373,0.0481045,-0.0159196,-0.895622,0.0384897,0.0280564,1826,638,109.974,33.2071
609,386,109.16,-29.7014,0.0107583,0.0253809,-0.0348039,0.0536332,-0.0174939,-0.888928,0.0427957,0.0194885,1833,638,109.16,29.7014
616,386,108.246,-26.1334,0.0124814,0.0277551,-0.0383678,0.0592388,-0.0190022,-0.883636,0.0471215,0.0162723,1840,638,108.246,26.1334
623,386,107.368,-22.6899,0.0140672,0.0302092,-0.0418694,0.0647784,-0.020502,-0.880613,0.0514011,0.0159959,1847,638,107.368,22.6899
630,386,106.471,-19.2292,0,0,0,0,0,0,0,-1,1854,638,106.471,19.2292
637,386,51.4513,-13.595,0,0,0,0,0,0,0,-1,1861,638,51.4513,13.595
644,386,11.6521,0.723328,0,0,0,0,0,0,0,-1,1868,638,11.6521,-0.723355
651,386,9.3866,1.31097,0,0,0,0,0,0,0,-1,1875,638,9.3866,-1.31095
658,386,12.0731,-0.00415039,0,0,0,0,0,0,0,-1,1882,638,12.0731,0.00412803
665,386,6.33167,1.78601,0,0,0,0,0,0,0,-1,1889,638,6.33171,-1.78601
672,386,7.23352,2.14435,0,0,0,0,0,0,0,-1,1896,638,7.23353,-2.14433
679,386,8.07764,2.57104,0,0,0,0,0,0,0,-1,1903,638,8.07758,-2.57103
686,386,0,0,0,0,0,0,0,0,0,-1,1910,638,0,0
693,386,0,0,0,0,0,0,0,0,0,-1,1917,638,0,0
700,386,0,0,0,0,0,0,0,0,0,-1,1924,638,0,0
707,386,0,0,0,0,0,0,0,0,0,-1,1931,638,0,0
714,386,0,0,0,0,0,0,0,0,0,-1,1938,638,0,0
721,386,0,0,0,0,0,0,0,0,0,-1,1945,638,0,0
728,386,0,0,0,0,0,0,0,0,0,-1,1952,638,0,0
735,386,0,0,0,0,0,0,0,0,0,-1,1959,638,0,0
742,386,0,0,0,0,0,0,0,0,0,-1,1966,638,0,0
749,386,0,0,0,0,0,0,0,0,0,-1,1973,638,0,0
756,386,0,0,0,0,0,0,0,0,0,-1,1980,638,0,0
763,386,0,0,0,0,0,0,0,0,0,-1,1987,638,0,0
770,386,0,0,0,0,0,0,0,0,0,-1,1994,638,0,0
777,386,0,0,0,0,0,0,0,0,0,-1,2001,638,0,0
784,386,0,0,0,0,0,0,0,0,0,-1,2008,638,0,0
791,386,0,0,0,0,0,0,0,0,0,-1,2015,638,0,0
798,386,0,0,0,0,0,0,0,0,0,-1,2022,638,0,0
805,386,0,0,0,0,0,0,0,0,0,-1,2029,638,0,0
812,386,0,0,0,0,0,0,0,0,0,-1,2036,638,0,0
-700,379,0,0,0,0,0,0,0,0,0,-1,524,645,0,0
-693,379,0,0,0,0,0,0,0,0,0,-1,531,645,0,0
-686,379,0,0,0,0,0,0,0,0,0,-1,538,645,0,0
-679,379,0,0,0,0,0,0,0,0,0,-1,545,645,0,0
-672,379,0,0,0,0,0,0,0,0,0,-1,552,645,0,0
-665,379,0,0,0,0,0,0,0,0,0,-1,559,645,0,0
-658,379,0,0,0,0,0,0,0,0,0,-1,566,645,0,0
-651,379,0,0,0,0,0,0,0,0,0,-1,573,645,0,0
-644,379,0,0,0,0,0,0,0,0,0,-1,580,645,0,0
-637,379,0,0,0,0,0,0,0,0,0,-1,587,645,0,0
-630,379,0,0,0,0,0,0,0,0,0,-1,594,645,0,0
-623,379,0,0,0,0,0,0,0,0,0,-1,601,645,0,0
-616,379,0,0,0,0,0,0,0,0,0,-1,608,645,0,0
-609,379,0,0,0,0,0,0,0,0,0,-1,615,645,0,0
-602,379,0,0,0,0,0,0,0,0,0,-1,622,645,0,0
-595,379,0,0,0,0,0,0,0,0,0,-1,629,645,0,0
-588,379,0,0,0,0,0,0,0,0,0,-1,636,645,0,0
-581,379,0,0,0,0,0,0,0,0,0,-1,643,645,0,0
-574,379,0,0,0,0,0,0,0,0,0,-1,650,645,0,0
-567,379,-8.78058,0.59668,0,0,0,0,0,0,0,-1,657,645,-8.7806,-0.596692
-560,379,-9.53485,-0.211304,0,0,0,0,0,0,0,-1,664,645,-9.53487,0.211282
-553,379,-5.17108,-4.53119,0,0,0,0,0,0,0,-1,671,645,-5.17106,4.53117
-546,379,-6.23053,-4.92102,0,0,0,0,0,0,0,-1,678,645,-6.23054,4.92105
-539,379,-0.71698,-2.19427,0,0,0,0,0,0,0,-1,685,645,-0.716959,2.19427
-532,379,-7.69611,0.217224,0,0,0,0,0,0,0,-1,692,645,-7.69614,-0.217204
-525,379,-7.09833,-1.13043,0,0,0,0,0,0,0,-1,699,645,-7.0983,1.13041
-518,379,-13.126,-5.33893,0,0,0,0,0,0,0,-1,706,645,-13.126,5.33895
-511,379,-38.2532,-12.7537,0,0,0,0,0,0,0,-1,713,645,-38.2533,12.7537
-504,379,-99.6164,-15.744,0,0,0,0,0,0,0,-1,720,645,-99.6164,15.744
-497,379,-100.328,-19.3471,0.0190771,0.0374298,0.0356006,0.0650177,-0.00851077,0.911532,0.0464427,0.0414661,727,645,-100.329,19.3471
-490,379,-101.117,-22.8645,0.0168547,0.0331385,0.0344302,0.0603764,-0.0103831,0.901503,0.0441212,0.0250577,734,645,-101.117,22.8645
-483,379,-101.938,-26.4536,0.0145569,0.0288681,0.0331665,0.0556421,-0.0122171,0.891644,0.041767,0.0233352,741,645,-101.938,26.4535
-476,379,-102.666,-29.9236,0.01229,0.0246574,0.0317785,0.0508482,-0.0139008,0.88149,0.0393594,0.0197361,748,645,-102.666,29.9236
-469,379,-103.559,-33.3877,0.0100943,0.0205567,0.030256,0.0460305,-0.0153794,0.871001,0.0368977,0.0181965,755,645,-103.559,33.3877
-462,379,-104.547,-37.0234,0.00799948,0.0166398,0.0285491,0.0411937,-0.0165545,0.86049,0.0343376,0.0135393,762,645,-104.547,37.0234
-455,379,-105.545,-40.7285,0.00594368,0.0128929,0.0266703,0.036314,-0.0174774,0.850173,0.0316849,0.0136128,769,645,-105.545,40.7285
-448,379,-106.502,-44.4489,0.00404289,0.00937934,0.02459,0.0314454,-0.0180232,0.839441,0.028909,0.0192043,776,645,-106.502,44.4489
-441,379,-107.569,-48.1823,0,0,0,0,0,0,0,-1,783,645,-107.569,48.1822
-434,379,-108.043,-52.2777,0,0,0,0,0,0,0,-1,790,645,-108.043,52.2777
-427,379,-4.16113,-4.13452,0,0,0,0,0,0,0,-1,797,645,-4.16116,4.1345
-420,379,-4.63953,-3.46869,0,0,0,0,0,0,0,-1,804,645,-4.63953,3.46872
-413,379,-4.62543,-3.7912,0,0,0,0,0,0,0,-1,811,645,-4.62541,3.79123
-406,379,-4.64063,-4.38489,0,0,0,0,0,0,0,-1,818,645,-4.64065,4.3849
-399,379,-2.93536,-1.40118,0,0,0,0,0,0,0,-1,825,645,-2.93534,1.40119
-392,379,-4.16711,-0.466003,0,0,0,0,0,0,0,-1,832,645,-4.16714,0.465992
-385,379,-3.51862,0.441101,0,0,0,0,0,0,0,-1,839,645,-3.51859,-0.441072
-378,379,-5.3504,0.212219,0,0,0,0,0,0,0,-1,846,645,-5.35038,-0.212241
-371,379,-4.32092,-0.186707,0,0,0,0,0,0,0,-1,853,645,-4.3209,0.186707
-364,379,-3.40887,-0.549805,0,0,0,0,0,0,0,-1,860,645,-3.4089,0.549802
-357,379,0,0,0,0,0,0,0,0,0,-1,867,645,0,0
-350,379,0,0,0,0,0,0,0,0,0,-1,874,645,0,0
-343,379,0,0,0,0,0,0,0,0,0,-1,881,645,0,0
-336,379,0,0,0,0,0,0,0,0,0,-1,888,645,0,0
-329,379,0,0,0,0,0,0,0,0,0,-1,895,645,0,0
-322,379,0,0,0,0,0,0,0,0,0,-1,902,645,0,0
-315,379,0,0,0,0,0,0,0,0,0,-1,909,645,0,0
-308,379,0,0,0,0,0,0,0,0,0,-1,916,645,0,0
-301,379,0,0,0,0,0,0,0,0,0,-1,923,645,0,0
-294,379,0,0,0,0,0,0,0,0,0,-1,930,645,0,0
-287,379,0,0,0,0,0,0,0,0,0,-1,937,645,0,0
-280,379,0,0,0,0,0,0,0,0,0,-1,944,645,0,0
-273,379,0,0,0,0,0,0,0,0,0,-1,951,645,0,0
-266,379,0,0,0,0,0,0,0,0,0,-1,958,645,0,0
-259,379,0,0,0,0,0,0,0,0,0,-1,965,645,0,0
-252,379,0,0,0,0,0,0,0,0,0,-1,972,645,0,0
-245,379,0,0,0,0,0,0,0,0,0,-1,979,645,0,0
-238,379,0,0,0,0,0,0,0,0,0,-1,986,645,0,0
-231,379,0,0,0,0,0,0,0,0,0,-1,993,645,0,0
-224,379,0,0,0,0,0,0,0,0,0,-1,1000,645,0,0
-217,379,0,0,0,0,0,0,0,0,0,-1,1007,645,0,0
-210,379,0,0,0,0,0,0,0,0,0,-1,1014,645,0,0
-203,379,0,0,0,0,0,0,0,0,0,-1,1021,645,0,0
-196,379,0,0,0,0,0,0,0,0,0,-1,1028,645,0,0
-189,379,0,0,0,0,0,0,0,0,0,-1,1035,645,0,0
-182,379,0,0,0,0,0,0,0,0,0,-1,1042,645,0,0
-175,379,0,0,0,0,0,0,0,0,0,-1,1049,645,0,0
-168,379,0,0,0,0,0,0,0,0,0,-1,1056,645,0,0
-161,379,0,0,0,0,0,0,0,0,0,-1,1063,645,0,0
-154,379,0,0,0,0,0,0,0,0,0,-1,1070,645,0,0
-147,379,0,0,0,0,0,0,0,0,0,-1,1077,645,0,0
-140,379,0,0,0,0,0,0,0,0,0,-1,1084,645,0,0
-133,379,0,0,0,0,0,0,0,0,0,-1,1091,645,0,0
-126,379,0,0,0,0,0,0,0,0,0,-1,1098,645,0,0
-119,379,0,0,0,0,0,0,0,0,0,-1,1105,645,0,0
-112,379,0,0,0,0,0,0,0,0,0,-1,1112,645,0,0
-105,379,0,0,0,0,0,0,0,0,0,-1,1119,645,0,0
-98,379,0,0,0,0,0,0,0,0,0,-1,1126,645,0,0
-91,379,0,0,0,0,0,0,0,0,0,-1,1133,645,0,0
-84,379,0,0,0,0,0,0,0,0,0,-1,1140,645,0,0
-77,379,0,0,0,0,0,0,0,0,0,-1,1147,645,0,0
-70,379,0,0,0,0,0,0,0,0,0,-1,1154,645,0,0
-63,379,0,0,0,0,0,0,0,0,0,-1,1161,645,0,0
-56,379,0,0,0,0,0,0,0,0,0,-1,1168,645,0,0
-49,379,0,0,0,0,0,0,0,0,0,-1,1175,645,0,0
-42,379,0,0,0,0,0,0,0,0,0,-1,1182,645,0,0
-35,379,0,0,0,0,0,0,0,0,0,-1,1189,645,0,0
-28,379,0,0,0,0,0,0,0,0,0,-1,1196,645,0,0
-21,379,0,0,0,0,0,0,0,0,0,-1,1203,645,0,0
-14,379,0,0,0,0,0,0,0,0,0,-1,1210,645,0,0
-7,379,0,0,0,0,0,0,0,0,0,-1,1217,645,0,0
0,379,0,0,0,0,0,0,0,0,0,-1,1224,645,0,0
7,379,0,0,0,0,0,0,0,0,0,-1,1231,645,0,0
14,379,0,0,0,0,0,0,0,0,0,-1,1238,645,0,0
21,379,0,0,0,0,0,0,0,0,0,-1,1245,645,0,0
28,379,0,0,0,0,0,0,0,0,0,-1,1252,645,0,0
35,379,0,0,0,0,0,0,0,0,0,-1,1259,645,0,0
42,379,0,0,0,0,0,0,0,0,0,-1,1266,645,0,0
49,379,0,0,0,0,0,0,0,0,0,-1,1273,645,0,0
56,379,0,0,0,0,0,0,0,0,0,-1,1280,645,0,0
63,379,0,0,0,0,0,0,0,0,0,-1,1287,645,0,0
70,379,0,0,0,0,0,0,0,0,0,-1,1294,645,0,0
77,379,0,0,0,0,0,0,0,0,0,-1,1301,645,0,0
84,379,0,0,0,0,0,0,0,0,0,-1,1308,645,0,0
91,379,0,0,0,0,0,0,0,0,0,-1,1315,645,0,0
98,379,0,0,0,0,0,0,0,0,0,-1,1322,645,0,0
105,379,0,0,0,0,0,0,0,0,0,-1,1329,645,0,0
112,379,0,0,0,0,0,0,0,0,0,-1,1336,645,0,0
119,379,0,0,0,0,0,0,0,0,0,-1,1343,645,0,0
126,379,0,0,0,0,0,0,0,0,0,-1,1350,645,0,0
133,379,0,0,0,0,0,0,0,0,0,-1,1357,645,0,0
140,379,0,0,0,0,0,0,0,0,0,-1,1364,645,0,0
147,379,0,0,0,0,0,0,0,0,0,-1,1371,645,0,0
154,379,0,0,0,0,0,0,0,0,0,-1,1378,645,0,0
161,379,0,0,0,0,0,0,0,0,0,-1,1385,645,0,0
168,379,0,0,0,0,0,0,0,0,0,-1,1392,645,0,0
175,379,0,0,0,0,0,0,0,0,0,-1,1399,645,0,0
182,379,0,0,0,0,0,0,0,0,0,-1,1406,645,0,0
189,379,0,0,0,0,0,0,0,0,0,-1,1413,645,0,0
196,379,0,0,0,0,0,0,0,0,0,-1,1420,645,0,0
203,379,0,0,0,0,0,0,0,0,0,-1,1427,645,0,0
210,379,0,0,0,0,0,0,0,0,0,-1,1434,645,0,0
217,379,0,0,0,0,0,0,0,0,0,-1,1441,645,0,0
224,379,0,0,0,0,0,0,0,0,0,-1,1448,645,0,0
231,379,0,0,0,0,0,0,0,0,0,-1,1455,645,0,0
238,379,0,0,0,0,0,0,0,0,0,-1,1462,645,0,0
245,379,0,0,0,0,0,0,0,0,0,-1,1469,645,0,0
252,379,0,0,0,0,0,0,0,0,0,-1,1476,645,0,0
259,379,0,0,0,0,0,0,0,0,0,-1,1483,645,0,0
266,379,0,0,0,0,0,0,0,0,0,-1,1490,645,0,0
273,379,0,0,0,0,0,0,0,0,0,-1,1497,645,0,0
280,379,0,0,0,0,0,0,0,0,0,-1,1504,645,0,0
287,379,0,0,0,0,0,0,0,0,0,-1,1511,645,0,0
294,379,0,0,0,0,0,0,0,0,0,-1,1518,645,0,0
301,379,0,0,0,0,0,0,0,0,0,-1,1525,645,0,0
308,379,0,0,0,0,0,0,0,0,0,-1,1532,645,0,0
315,379,0,0,0,0,0,0,0,0,0,-1,1539,645,0,0
322,379,0,0,0,0,0,0,0,0,0,-1,1546,645,0,0
329,379,0,0,0,0,0,0,0,0,0,-1,1553,645,0,0
336,379,0,0,0,0,0,0,0,0,0,-1,1560,645,0,0
343,379,0,0,0,0,0,0,0,0,0,-1,1567,645,0,0
350,379,0,0,0,0,0,0,0,0,0,-1,1574,645,0,0
357,379,0,0,0,0,0,0,0,0,0,-1,1581,645,0,0
364,379,0,0,0,0,0,0,0,0,0,-1,1588,645,0,0
371,379,0,0,0,0,0,0,0,0,0,-1,1595,645,0,0
378,379,0,0,0,0,0,0,0,0,0,-1,1602,645,0,0
385,379,0,0,0,0,0,0,0,0,0,-1,1609,645,0,0
392,379,0,0,0,0,0,0,0,0,0,-1,1616,645,0,0
399,379,0,0,0,0,0,0,0,0,0,-1,1623,645,0,0
406,379,0,0,0,0,0,0,0,0,0,-1,1630,645,0,0
413,379,0,0,0,0,0,0,0,0,0,-1,1637,645,0,0
420,379,0,0,0,0,0,0,0,0,0,-1,1644,645,0,0
427,379,0,0,0,0,0,0,0,0,0,-1,1651,645,0,0
434,379,0,0,0,0,0,0,0,0,0,-1,1658,645,0,0
441,379,0,0,0,0,0,0,0,0,0,-1,1665,645,0,0
448,379,0,0,0,0,0,0,0,0,0,-1,1672,645,0,0
455,379,0,0,0,0,0,0,0,0,0,-1,1679,645,0,0
462,379,0,0,0,0,0,0,0,0,0,-1,1686,645,0,0
469,379,0,0,0,0,0,0,0,0,0,-1,1693,645,0,0
476,379,11.1787,0.830383,0,0,0,0,0,0,0,-1,1700,645,11.1787,-0.830365
483,379,7.4231,1.54321,0,0,0,0,0,0,0,-1,1707,645,7.42314,-1.54324
490,379,8.52881,1.56677,0,0,0,0,0,0,0,-1,1714,645,8.52878,-1.56677
497,379,9.63599,1.49573,0,0,0,0,0,0,0,-1,1721,645,9.63604,-1.4957
504,379,10.0833,1.35229,0,0,0,0,0,0,0,-1,1728,645,10.0832,-1.35227
511,379,8.14343,1.59912,0,0,0,0,0,0,0,-1,1735,645,8.14347,-1.59912
518,379,12.7955,-0.324097,0,0,0,0,0,0,0,-1,1742,645,12.7955,0.324101
525,379,6.03711,1.10352,0,0,0,0,0,0,0,-1,1749,645,6.03711,-1.10351
532,379,8.70947,0.887817,0,0,0,0,0,0,0,-1,1756,645,8.70953,-0.887808
539,379,9.87097,0.111389,0,0,0,0,0,0,0,-1,1763,645,9.87095,-0.111395
546,379,8.42383,-0.730652,0,0,0,0,0,0,0,-1,1770,645,8.42378,0.730638
553,379,19.2905,-7.67834,0,0,0,0,0,0,0,-1,1777,645,19.2905,7.67837
560,379,71.6378,-47.4678,0,0,0,0,0,0,0,-1,1784,645,71.6378,47.4678
567,379,84.3038,-53.5042,0,0,0,0,0,0,0,-1,1791,645,84.3038,53.5041
574,379,117.983,-46.5761,0,0,0,0,0,0,0,-1,1798,645,117.983,46.5761
581,379,116.931,-43.0906,0.00257978,0.0176331,-0.0156432,0.0274662,-0.00725335,-1.00962,0.0211474,0.0488302,1805,645,116.931,43.0906
588,379,115.784,-39.4327,0.00348596,0.0187656,-0.019522,0.0320894,-0.0098379,-0.971909,0.0253176,0.0307606,1812,645,115.784,39.4327
595,379,114.774,-35.7201,0.00484182,0.0202489,-0.0233407,0.0371244,-0.0120337,-0.944794,0.0295881,0.0243209,1819,645,114.774,35.7201
602,379,113.96,-32.1619,0.00611162,0.0219452,-0.0271969,0.0423542,-0.0142973,-0.92703,0.0340186,0.026354,1826,645,113.96,32.1618
609,379,113.012,-28.7449,0.00768635,0.0240305,-0.0307772,0.0477021,-0.0159852,-0.915166,0.0382596,0.0299132,1833,645,113.012,28.7449
616,379,112.121,-25.2078,0.0092627,0.0262016,-0.0343073,0.0530694,-0.0176051,-0.906414,0.0424819,0.0234047,1840,645,112.121,25.2078
623,379,111.26,-21.6979,0.0106532,0.0284715,-0.0377751,0.0583738,-0.0192491,-0.901205,0.0466746,0.0210418,1847,645,111.26,21.6979
630,379,110.416,-18.3962,0.0118998,0.0307961,-0.0411023,0.0635221,-0.0208262,-0.89837,0.0507356,0.0248867,1854,645,110.416,18.3962
637,379,109.746,-15.0736,0,0,0,0,0,0,0,-1,1861,645,109.746,15.0736
644,379,49.4104,-10.7761,0,0,0,0,0,0,0,-1,1868,645,49.4104,10.7762
651,379,12.9515,0.220825,0,0,0,0,0,0,0,-1,1875,645,12.9515,-0.220814
658,379,13.7498,0.37439,0,0,0,0,0,0,0,-1,1882,645,13.7498,-0.374371
665,379,11.9719,0.353333,0,0,0,0,0,0,0,-1,1889,645,11.9719,-0.353321
672,379,7.57605,2.15326,0,0,0,0,0,0,0,-1,1896,645,7.57599,-2.15326
679,379,8.55078,2.50409,0,0,0,0,0,0,0,-1,1903,645,8.55073,-2.50406
686,379,0,0,0,0,0,0,0,0,0,-1,1910,645,0,0
693,379,0,0,0,0,0,0,0,0,0,-1,1917,645,0,0
700,379,0,0,0,0,0,0,0,0,0,-1,1924,645,0,0
707,379,0,0,0,0,0,0,0,0,0,-1,1931,645,0,0
714,379,0,0,0,0,0,0,0,0,0,-1,1938,645,0,0
721,379,0,0,0,0,0,0,0,0,0,-1,1945,645,0,0
728,379,0,0,0,0,0,0,0,0,0,-1,1952,645,0,0
735,379,0,0,0,0,0,0,0,0,0,-1,1959,645,0,0
742,379,0,0,0,0,0,0,0,0,0,-1,1966,645,0,0
749,379,0,0,0,0,0,0,0,0,0,-1,1973,645,0,0
756,379,0,0,0,0,0,0,0,0,0,-1,1980,645,0,0
763,379,0,0,0,0,0,0,0,0,0,-1,1987,645,0,0
770,379,0,0,0,0,0,0,0,0,0,-1,1994,645,0,0
777,379,0,0,0,0,0,0,0,0,0,-1,2001,645,0,0
784,379,0,0,0,0,0,0,0,0,0,-1,2008,645,0,0
791,379,0,0,0,0,0,0,0,0,0,-1,2015,645,0,0
798,379,0,0,0,0,0,0,0,0,0,-1,2022,645,0,0
805,379,0,0,0,0,0,0,0,0,0,-1,2029,645,0,0
812,379,0,0,0,0,0,0,0,0,0,-1,2036,645,0,0
-700,372,0,0,0,0,0,0,0,0,0,-1,524,652,0,0
-693,372,0,0,0,0,0,0,0,0,0,-1,531,652,0,0
-686,372,0,0,0,0,0,0,0,0,0,-1,538,652,0,0
-679,372,0,0,0,0,0,0,0,0,0,-1,545,652,0,0
-672,372,0,0,0,0,0,0,0,0,0,-1,552,652,0,0
-665,372,0,0,0,0,0,0,0,0,0,-1,559,652,0,0
-658,372,0,0,0,0,0,0,0,0,0,-1,566,652,0,0
-651,372,0,0,0,0,0,0,0,0,0,-1,573,652,0,0
-644,372,0,0,0,0,0,0,0,0,0,-1,580,652,0,0
-637,372,0,0,0,0,0,0,0,0,0,-1,587,652,0,0
-630,372,0,0,0,0,0,0,0,0,0,-1,594,652,0,0
-623,372,0,0,0,0,0,0,0,0,0,-1,601,652,0,0
-616,372,0,0,0,0,0,0,0,0,0,-1,608,652,0,0
-609,372,0,0,0,0,0,0,0,0,0,-1,615,652,0,0
-602,372,0,0,0,0,0,0,0,0,0,-1,622,652,0,0
-595,372,0,0,0,0,0,0,0,0,0,-1,629,652,0,0
-588,372,0,0,0,0,0,0,0,0,0,-1,636,652,0,0
-581,372,0,0,0,0,0,0,0,0,0,-1,643,652,0,0
-574,372,0,0,0,0,0,0,0,0,0,-1,650,652,0,0
-567,372,-7.93744,0.73407,0,0,0,0,0,0,0,-1,657,652,-7.93741,-0.734076
-560,372,-8.78552,-0.158203,0,0,0,0,0,0,0,-1,664,652,-8.78552,0.158216
-553,372,-7.95551,1.61694,0,0,0,0,0,0,0,-1,671,652,-7.95552,-1.61697
-546,372,-4.2403,-3.75372,0,0,0,0,0,0,0,-1,678,652,-4.24028,3.75369
-539,372,-7.92285,-0.0650024,0,0,0,0,0,0,0,-1,685,652,-7.92287,0.0649772
-532,372,-8.59589,-0.419556,0,0,0,0,0,0,0,-1,692,652,-8.59591,0.419539
-525,372,-8.03674,-1.36804,0,0,0,0,0,0,0,-1,699,652,-8.03676,1.36806
-518,372,-39.8794,-10.6113,0,0,0,0,0,0,0,-1,706,652,-39.8794,10.6113
-511,372,-80.2879,-14.7131,0,0,0,0,0,0,0,-1,713,652,-80.2879,14.7131
-504,372,-103.397,-15.0642,0,0,0,0,0,0,0,-1,720,652,-103.397,15.0642
-497,372,-104.262,-18.6262,0.016196,0.0340084,0.0336697,0.0599299,-0.00972547,0.914696,0.0435585,0.0268437,727,652,-104.262,18.6261
-490,372,-105.148,-21.9694,0.0141112,0.0298504,0.0321768,0.055106,-0.0111444,0.905331,0.0409606,0.0245648,734,652,-105.148,21.9694
-483,372,-105.929,-25.4722,0.0118424,0.02567,0.0307639,0.0502874,-0.012775,0.895931,0.0384964,0.0209578,741,652,-105.929,25.4722
-476,372,-106.619,-28.9155,0.00951198,0.0215741,0.0293279,0.0454846,-0.0143985,0.886806,0.036093,0.0197225,748,652,-106.619,28.9155
-469,372,-107.51,-32.3358,0.00718237,0.01756,0.0278258,0.0406767,-0.0159342,0.877577,0.0337088,0.0152776,755,652,-107.51,32.3358
-462,372,-108.511,-35.9427,0.00493219,0.0136788,0.02619,0.0358581,-0.0172471,0.868127,0.0312816,0.013469,762,652,-108.511,35.9428
-455,372,-109.582,-39.597,0.00275823,0.00992836,0.0244554,0.03106,-0.0183735,0.858178,0.028852,0.0219049,769,652,-109.582,39.597
-448,372,-110.624,-43.352,0.000733835,0.00647948,0.0225106,0.0262999,-0.0190865,0.848865,0.0263139,0.0338002,776,652,-110.624,43.352
-441,372,-111.625,-47.3686,0,0,0,0,0,0,0,-1,783,652,-111.625,47.3686
-434,372,-9.86865,-9.68494,0,0,0,0,0,0,0,-1,790,652,-9.86863,9.68492
-427,372,-4.54248,-3.56268,0,0,0,0,0,0,0,-1,797,652,-4.54247,3.56266
-420,372,-4.66168,-2.93597,0,0,0,0,0,0,0,-1,804,652,-4.66166,2.93599
-413,372,-4.74762,-3.29541,0,0,0,0,0,0,0,-1,811,652,-4.74763,3.29542
-406,372,-0.885437,-0.583923,0,0,0,0,0,0,0,-1,818,652,-0.885437,0.5839
-399,372,-3.97357,-0.825012,0,0,0,0,0,0,0,-1,825,652,-3.97359,0.825037
-392,372,-7.64337,0.173035,0,0,0,0,0,0,0,-1,832,652,-7.64337,-0.173019
-385,372,-6.48871,-0.0271606,0,0,0,0,0,0,0,-1,839,652,-6.48874,0.0271353
-378,372,-5.33044,-0.242432,0,0,0,0,0,0,0,-1,846,652,-5.33042,0.242457
-371,372,-4.40802,-0.495667,0,0,0,0,0,0,0,-1,853,652,-4.40802,0.495661
-364,372,0,0,0,0,0,0,0,0,0,-1,860,652,0,0
-357,372,0,0,0,0,0,0,0,0,0,-1,867,652,0,0
-350,372,0,0,0,0,0,0,0,0,0,-1,874,652,0,0
-343,372,0,0,0,0,0,0,0,0,0,-1,881,652,0,0
-336,372,0,0,0,0,0,0,0,0,0,-1,888,652,0,0
-329,372,0,0,0,0,0,0,0,0,0,-1,895,652,0,0
-322,372,0,0,0,0,0,0,0,0,0,-1,902,652,0,0
-315,372,0,0,0,0,0,0,0,0,0,-1,909,652,0,0
-308,372,0,0,0,0,0,0,0,0,0,-1,916,652,0,0
-301,372,0,0,0,0,0,0,0,0,0,-1,923,652,0,0
-294,372,0,0,0,0,0,0,0,0,0,-1,930,652,0,0
-287,372,0,0,0,0,0,0,0,0,0,-1,937,652,0,0
-280,372,0,0,0,0,0,0,0,0,0,-1,944,652,0,0
-273,372,0,0,0,0,0,0,0,0,0,-1,951,652,0,0
-266,372,0,0,0,0,0,0,0,0,0,-1,958,652,0,0
-259,372,0,0,0,0,0,0,0,0,0,-1,965,652,0,0
-252,372,0,0,0,0,0,0,0,0,0,-1,972,652,0,0
-245,372,0,0,0,0,0,0,0,0,0,-1,979,652,0,0
-238,372,0,0,0,0,0,0,0,0,0,-1,986,652,0,0
-231,372,0,0,0,0,0,0,0,0,0,-1,993,652,0,0
-224,372,0,0,0,0,0,0,0,0,0,-1,1000,652,0,0
-217,372,0,0,0,0,0,0,0,0,0,-1,1007,652,0,0
-210,372,0,0,0,0,0,0,0,0,0,-1,1014,652,0,0
-203,372,0,0,0,0,0,0,0,0,0,-1,1021,652,0,0
-196,372,0,0,0,0,0,0,0,0,0,-1,1028,652,0,0
-189,372,0,0,0,0,0,0,0,0,0,-1,1035,652,0,0
-182,372,0,0,0,0,0,0,0,0,0,-1,1042,652,0,0
-175,372,0,0,0,0,0,0,0,0,0,-1,1049,652,0,0
-168,372,0,0,0,0,0,0,0,0,0,-1,1056,652,0,0
-161,372,0,0,0,0,0,0,0,0,0,-1,1063,652,0,0
-154,372,0,0,0,0,0,0,0,0,0,-1,1070,652,0,0
-147,372,0,0,0,0,0,0,0,0,0,-1,1077,652,0,0
-140,372,0,0,0,0,0,0,0,0,0,-1,1084,652,0,0
-133,372,0,0,0,0,0,0,0,0,0,-1,1091,652,0,0
-126,372,0,0,0,0,0,0,0,0,0,-1,1098,652,0,0
-119,372,0,0,0,0,0,0,0,0,0,-1,1105,652,0,0
-112,372,0,0,0,0,0,0,0,0,0,-1,1112,652,0,0
-105,372,0,0,0,0,0,0,0,0,0,-1,1119,652,0,0
-98,372,0,0,0,0,0,0,0,0,0,-1,1126,652,0,0
-91,372,0,0,0,0,0,0,0,0,0,-1,1133,652,0,0
-84,372,0,0,0,0,0,0,0,0,0,-1,1140,652,0,0
-77,372,0,0,0,0,0,0,0,0,0,-1,1147,652,0,0
-70,372,0,0,0,0,0,0,0,0,0,-1,1154,652,0,0
-63,372,0,0,0,0,0,0,0,0,0,-1,1161,652,0,0
-56,372,0,0,0,0,0,0,0,0,0,-1,1168,652,0,0
-49,372,0,0,0,0,0,0,0,0,0,-1,1175,652,0,0
-42,372,0,0,0,0,0,0,0,0,0,-1,1182,652,0,0
-35,372,0,0,0,0,0,0,0,0,0,-1,1189,652,0,0
-28,372,0,0,0,0,0,0,0,0,0,-1,1196,652,0,0
-21,372,0,0,0,0,0,0,0,0,0,-1,1203,652,0,0
-14,372,0,0,0,0,0,0,0,0,0,-1,1210,652,0,0
-7,372,0,0,0,0,0,0,0,0,0,-1,1217,652,0,0
0,372,0,0,0,0,0,0,0,0,0,-1,1224,652,0,0
7,372,0,0,0,0,0,0,0,0,0,-1,1231,652,0,0
14,372,0,0,0,0,0,0,0,0,0,-1,1238,652,0,0
21,372,0,0,0,0,0,0,0,0,0,-1,1245,652,0,0
28,372,0,0,0,0,0,0,0,0,0,-1,1252,652,0,0
35,372,0,0,0,0,0,0,0,0,0,-1,1259,652,0,0
42,372,0,0,0,0,0,0,0,0,0,-1,1266,652,0,0
49,372,0,0,0,0,0,0,0,0,0,-1,1273,652,0,0
56,372,0,0,0,0,0,0,0,0,0,-1,1280,652,0,0
63,372,0,0,0,0,0,0,0,0,0,-1,1287,652,0,0
70,372,0,0,0,0,0,0,0,0,0,-1,1294,652,0,0
77,372,0,0,0,0,0,0,0,0,0,-1,1301,652,0,0
84,372,0,0,0,0,0,0,0,0,0,-1,1308,652,0,0
91,372,0,0,0,0,0,0,0,0,0,-1,1315,652,0,0
98,372,0,0,0,0,0,0,0,0,0,-1,1322,652,0,0
105,372,0,0,0,0,0,0,0,0,0,-1,1329,652,0,0
112,372,0,0,0,0,0,0,0,0,0,-1,1336,652,0,0
119,372,0,0,0,0,0,0,0,0,0,-1,1343,652,0,0
126,372,0,0,0,0,0,0,0,0,0,-1,1350,652,0,0
133,372,0,0,0,0,0,0,0,0,0,-1,1357,652,0,0
140,372,0,0,0,0,0,0,0,0,0,-1,1364,652,0,0
147,372,0,0,0,0,0,0,0,0,0,-1,1371,652,0,0
154,372,0,0,0,0,0,0,0,0,0,-1,1378,652,0,0
161,372,0,0,0,0,0,0,0,0,0,-1,1385,652,0,0
168,372,0,0,0,0,0,0,0,0,0,-1,1392,652,0,0
175,372,0,0,0,0,0,0,0,0,0,-1,1399,652,0,0
182,372,0,0,0,0,0,0,0,0,0,-1,1406,652,0,0
189,372,0,0,0,0,0,0,0,0,0,-1,1413,652,0,0
196,372,0,0,0,0,0,0,0,0,0,-1,1420,652,0,0
203,372,0,0,0,0,0,0,0,0,0,-1,1427,652,0,0
210,372,0,0,0,0,0,0,0,0,0,-1,1434,652,0,0
217,372,0,0,0,0,0,0,0,0,0,-1,1441,652,0,0
224,372,0,0,0,0,0,0,0,0,0,-1,1448,652,0,0
231,372,0,0,0,0,0,0,0,0,0,-1,1455,652,0,0
238,372,0,0,0,0,0,0,0,0,0,-1,1462,652,0,0
245,372,0,0,0,0,0,0,0,0,0,-1,1469,652,0,0
252,372,0,0,0,0,0,0,0,0,0,-1,1476,652,0,0
259,372,0,0,0,0,0,0,0,0,0,-1,1483,652,0,0
266,372,0,0,0,0,0,0,0,0,0,-1,1490,652,0,0
273,372,0,0,0,0,0,0,0,0,0,-1,1497,652,0,0
280,372,0,0,0,0,0,0,0,0,0,-1,1504,652,0,0
287,372,0,0,0,0,0,0,0,0,0,-1,1511,652,0,0
294,372,0,0,0,0,0,0,0,0,0,-1,1518,652,0,0
301,372,0,0,0,0,0,0,0,0,0,-1,1525,652,0,0
308,372,0,0,0,0,0,0,0,0,0,-1,1532,652,0,0
315,372,0,0,0,0,0,0,0,0,0,-1,1539,652,0,0
322,372,0,0,0,0,0,0,0,0,0,-1,1546,652,0,0
329,372,0,0,0,0,0,0,0,0,0,-1,1553,652,0,0
336,372,0,0,0,0,0,0,0,0,0,-1,1560,652,0,0
343,372,0,0,0,0,0,0,0,0,0,-1,1567,652,0,0
350,372,0,0,0,0,0,0,0,0,0,-1,1574,652,0,0
357,372,0,0,0,0,0,0,0,0,0,-1,1581,652,0,0
364,372,0,0,0,0,0,0,0,0,0,-1,1588,652,0,0
371,372,0,0,0,0,0,0,0,0,0,-1,1595,652,0,0
378,372,0,0,0,0,0,0,0,0,0,-1,1602,652,0,0
385,372,0,0,0,0,0,0,0,0,0,-1,1609,652,0,0
392,372,0,0,0,0,0,0,0,0,0,-1,1616,652,0,0
399,372,0,0,0,0,0,0,0,0,0,-1,1623,652,0,0
406,372,0,0,0,0,0,0,0,0,0,-1,1630,652,0,0
413,372,0,0,0,0,0,0,0,0,0,-1,1637,652,0,0
420,372,0,0,0,0,0,0,0,0,0,-1,1644,652,0,0
427,372,0,0,0,0,0,0,0,0,0,-1,1651,652,0,0
434,372,0,0,0,0,0,0,0,0,0,-1,1658,652,0,0
441,372,0,0,0,0,0,0,0,0,0,-1,1665,652,0,0
448,372,0,0,0,0,0,0,0,0,0,-1,1672,652,0,0
455,372,0,0,0,0,0,0,0,0,0,-1,1679,652,0,0
462,372,0,0,0,0,0,0,0,0,0,-1,1686,652,0,0
469,372,0,0,0,0,0,0,0,0,0,-1,1693,652,0,0
476,372,0,0,0,0,0,0,0,0,0,-1,1700,652,0,0
483,372,8.74182,1.53125,0,0,0,0,0,0,0,-1,1707,652,8.74186,-1.53126
490,372,9.78455,1.67096,0,0,0,0,0,0,0,-1,1714,652,9.7846,-1.67093
497,372,9.97644,1.46069,0,0,0,0,0,0,0,-1,1721,652,9.97647,-1.46071
504,372,10.1216,1.28375,0,0,0,0,0,0,0,-1,1728,652,10.1216,-1.28376
511,372,11.7367,-0.0272217,0,0,0,0,0,0,0,-1,1735,652,11.7367,0.0272326
518,372,12.0657,-0.0995483,0,0,0,0,0,0,0,-1,1742,652,12.0657,0.0995285
525,372,12.3947,-0.171814,0,0,0,0,0,0,0,-1,1749,652,12.3946,0.171824
532,372,9.36597,1.72034,0,0,0,0,0,0,0,-1,1756,652,9.36597,-1.72036
539,372,7.82886,-0.0865479,0,0,0,0,0,0,0,-1,1763,652,7.82882,0.0865771
546,372,10.953,-0.187195,0,0,0,0,0,0,0,-1,1770,652,10.953,0.187181
553,372,14.1201,-4.83234,0,0,0,0,0,0,0,-1,1777,652,14.1201,4.83235
560,372,73.8258,-45.9283,0,0,0,0,0,0,0,-1,1784,652,73.8258,45.9284
567,372,77.1294,-46.5966,0,0,0,0,0,0,0,-1,1791,652,77.1294,46.5965
574,372,86.9434,-49.3795,0,0,0,0,0,0,0,-1,1798,652,86.9433,49.3795
581,372,120.762,-42.1213,0,0,0,0,0,0,0,-1,1805,652,120.762,42.1213
588,372,119.66,-38.438,0.000450593,0.0178888,-0.0152421,0.0267294,-0.00839001,-1.0452,0.0211777,0.0377865,1812,652,119.66,38.438
595,372,118.65,-34.7469,0.00200404,0.0191528,-0.0190873,0.0315031,-0.0103463,-0.9965,0.0251699,0.0217047,1819,652,118.65,34.7469
602,372,117.842,-31.1466,0.00333268,0.0206305,-0.0229517,0.0365088,-0.0125456,-0.965585,0.0294265,0.0363586,1826,652,117.842,31.1466
609,372,116.887,-27.76,0.00491584,0.022505,-0.0265635,0.0416919,-0.014271,-0.945258,0.0335782,0.040583,1833,652,116.887,27.76
616,372,115.979,-24.2821,0.00647295,0.0244959,-0.0301402,0.0469429,-0.0159741,-0.930661,0.0377635,0.036556,1840,652,115.979,24.2821
623,372,115.144,-20.8076,0.00785729,0.0266416,-0.0336756,0.0522102,-0.0177113,-0.921393,0.0419752,0.0251556,1847,652,115.144,20.8076
630,372,114.351,-17.511,0.00909548,0.0288766,-0.0371087,0.0573901,-0.0194181,-0.915635,0.0461163,0.028511,1854,652,114.351,17.511
637,372,113.726,-14.2296,0.0103266,0.0314041,-0.0404996,0.0627136,-0.020983,-0.912684,0.0502845,0.047302,1861,652,113.726,14.2296
644,372,113.177,-10.9031,0,0,0,0,0,0,0,-1,1868,652,113.177,10.9032
651,372,21.3998,-0.888,0,0,0,0,0,0,0,-1,1875,652,21.3998,0.887992
658,372,14.157,0.280273,0,0,0,0,0,0,0,-1,1882,652,14.157,-0.280264
665,372,15.2286,0.463867,0,0,0,0,0,0,0,-1,1889,652,15.2287,-0.463854
672,372,9.34106,1.48444,0,0,0,0,0,0,0,-1,1896,652,9.34109,-1.48444
679,372,10.7308,2.32391,0,0,0,0,0,0,0,-1,1903,652,10.7309,-2.3239
686,372,11.6295,2.52997,0,0,0,0,0,0,0,-1,1910,652,11.6296,-2.52996
693,372,0,0,0,0,0,0,0,0,0,-1,1917,652,0,0
700,372,0,0,0,0,0,0,0,0,0,-1,1924,652,0,0
707,372,0,0,0,0,0,0,0,0,0,-1,1931,652,0,0
714,372,0,0,0,0,0,0,0,0,0,-1,1938,652,0,0
721,372,0,0,0,0,0,0,0,0,0,-1,1945,652,0,0
728,372,0,0,0,0,0,0,0,0,0,-1,1952,652,0,0
735,372,0,0,0,0,0,0,0,0,0,-1,1959,652,0,0
742,372,0,0,0,0,0,0,0,0,0,-1,1966,652,0,0
749,372,0,0,0,0,0,0,0,0,0,-1,1973,652,0,0
756,372,0,0,0,0,0,0,0,0,0,-1,1980,652,0,0
763,372,0,0,0,0,0,0,0,0,0,-1,1987,652,0,0
770,372,0,0,0,0,0,0,0,0,0,-1,1994,652,0,0
777,372,0,0,0,0,0,0,0,0,0,-1,2001,652,0,0
784,372,0,0,0,0,0,0,0,0,0,-1,2008,652,0,0
791,372,0,0,0,0,0,0,0,0,0,-1,2015,652,0,0
798,372,0,0,0,0,0,0,0,0,0,-1,2022,652,0,0
805,372,0,0,0,0,0,0,0,0,0,-1,2029,652,0,0
812,372,0,0,0,0,0,0,0,0,0,-1,2036,652,0,0
-700,365,0,0,0,0,0,0,0,0,0,-1,524,659,0,0
-693,365,0,0,0,0,0,0,0,0,0,-1,531,659,0,0
-686,365,0,0,0,0,0,0,0,0,0,-1,538,659,0,0
-679,365,0,0,0,0,0,0,0,0,0,-1,545,659,0,0
-672,365,0,0,0,0,0,0,0,0,0,-1,552,659,0,0
-665,365,0,0,0,0,0,0,0,0,0,-1,559,659,0,0
-658,365,0,0,0,0,0,0,0,0,0,-1,566,659,0,0
-651,365,0,0,0,0,0,0,0,0,0,-1,573,659,0,0
-644,365,0,0,0,0,0,0,0,0,0,-1,580,659,0,0
-637,365,0,0,0,0,0,0,0,0,0,-1,587,659,0,0
-630,365,0,0,0,0,0,0,0,0,0,-1,594,659,0,0
-623,365,0,0,0,0,0,0,0,0,0,-1,601,659,0,0
-616,365,0,0,0,0,0,0,0,0,0,-1,608,659,0,0
-609,365,0,0,0,0,0,0,0,0,0,-1,615,659,0,0
-602,365,0,0,0,0,0,0,0,0,0,-1,622,659,0,0
-595,365,0,0,0,0,0,0,0,0,0,-1,629,659,0,0
-588,365,0,0,0,0,0,0,0,0,0,-1,636,659,0,0
-581,365,0,0,0,0,0,0,0,0,0,-1,643,659,0,0
-574,365,-7.69281,1.59015,0,0,0,0,0,0,0,-1,650,659,-7.69282,-1.59018
-567,365,-8.2583,1.72638,0,0,0,0,0,0,0,-1,657,659,-8.25827,-1.72637
-560,365,-7.17767,0.275757,0,0,0,0,0,0,0,-1,664,659,-7.17768,-0.27577
-553,365,-10.0349,-0.169617,0,0,0,0,0,0,0,-1,671,659,-10.0349,0.169593
-546,365,-10.6303,-1.51642,0,0,0,0,0,0,0,-1,678,659,-10.6303,1.5164
-539,365,-8.38599,1.52936,0,0,0,0,0,0,0,-1,685,659,-8.38598,-1.52935
-532,365,-8.52863,0.166504,0,0,0,0,0,0,0,-1,692,659,-8.52863,-0.166501
-525,365,-9.28229,-2.62726,0,0,0,0,0,0,0,-1,699,659,-9.28227,2.62724
-518,365,-51.3718,-12.6115,0,0,0,0,0,0,0,-1,706,659,-51.3718,12.6115
-511,365,-106.501,-10.7921,0,0,0,0,0,0,0,-1,713,659,-106.501,10.7921
-504,365,-107.275,-14.1956,0.0156821,0.0348513,0.0334016,0.0600162,-0.00948281,0.925119,0.0435175,0.0220849,720,659,-107.275,14.1955
-497,365,-108.079,-17.6463,0.0137352,0.0307603,0.0315849,0.0549597,-0.0104642,0.917027,0.0405801,0.0190116,727,659,-108.079,17.6463
-490,365,-108.935,-21.0569,0.0116487,0.0268286,0.0298625,0.0500506,-0.0115733,0.909844,0.0378198,0.0209767,734,659,-108.935,21.057
-483,365,-109.804,-24.4031,0.0093396,0.022832,0.0283055,0.0451841,-0.0130126,0.902383,0.0352697,0.0192574,741,659,-109.804,24.4031
-476,365,-110.503,-27.92,0.006899,0.0188949,0.0267996,0.0403595,-0.0145657,0.895487,0.032856,0.0216456,748,659,-110.503,27.92
-469,365,-111.376,-31.3436,0.00439336,0.0149911,0.0253041,0.0355452,-0.0161607,0.88861,0.0305437,0.021183,755,659,-111.376,31.3436
-462,365,-112.309,-34.7278,0.00190791,0.0111415,0.023746,0.0307154,-0.0176659,0.881413,0.0282696,0.0245103,762,659,-112.309,34.7278
-455,365,-113.502,-38.2033,-0.000476964,0.00739573,0.0222136,0.0260191,-0.0191003,0.87309,0.0261516,0.0335299,769,659,-113.502,38.2033
-448,365,-114.867,-42.0941,0,0,0,0,0,0,0,-1,776,659,-114.867,42.094
-441,365,-105.474,-47.8329,0,0,0,0,0,0,0,-1,783,659,-105.474,47.833
-434,365,-5.45056,-3.98041,0,0,0,0,0,0,0,-1,790,659,-5.45055,3.98042
-427,365,-5.05377,-4.74689,0,0,0,0,0,0,0,-1,797,659,-5.05376,4.7469
-420,365,-4.58813,-3.16376,0,0,0,0,0,0,0,-1,804,659,-4.58816,3.16374
-413,365,0.141357,0.672729,0,0,0,0,0,0,0,-1,811,659,0.141365,-0.672714
-406,365,-1.75067,-0.934448,0,0,0,0,0,0,0,-1,818,659,-1.7507,0.934424
-399,365,-4.10242,-1.25439,0,0,0,0,0,0,0,-1,825,659,-4.10244,1.25438
-392,365,-7.46545,-0.779724,0,0,0,0,0,0,0,-1,832,659,-7.46543,0.779744
-385,365,-6.27875,-0.887573,0,0,0,0,0,0,0,-1,839,659,-6.27874,0.887545
-378,365,-5.34503,-0.263306,0,0,0,0,0,0,0,-1,846,659,-5.34504,0.263275
-371,365,0,0,0,0,0,0,0,0,0,-1,853,659,0,0
-364,365,0,0,0,0,0,0,0,0,0,-1,860,659,0,0
-357,365,0,0,0,0,0,0,0,0,0,-1,867,659,0,0
-350,365,0,0,0,0,0,0,0,0,0,-1,874,659,0,0
-343,365,0,0,0,0,0,0,0,0,0,-1,881,659,0,0
-336,365,0,0,0,0,0,0,0,0,0,-1,888,659,0,0
-329,365,0,0,0,0,0,0,0,0,0,-1,895,659,0,0
-322,365,0,0,0,0,0,0,0,0,0,-1,902,659,0,0
-315,365,0,0,0,0,0,0,0,0,0,-1,909,659,0,0
-308,365,0,0,0,0,0,0,0,0,0,-1,916,659,0,0
-301,365,0,0,0,0,0,0,0,0,0,-1,923,659,0,0
-294,365,0,0,0,0,0,0,0,0,0,-1,930,659,0,0
-287,365,0,0,0,0,0,0,0,0,0,-1,937,659,0,0
-280,365,0,0,0,0,0,0,0,0,0,-1,944,659,0,0
-273,365,0,0,0,0,0,0,0,0,0,-1,951,659,0,0
-266,365,0,0,0,0,0,0,0,0,0,-1,958,659,0,0
-259,365,0,0,0,0,0,0,0,0,0,-1,965,659,0,0
-252,365,0,0,0,0,0,0,0,0,0,-1,972,659,0,0
-245,365,0,0,0,0,0,0,0,0,0,-1,979,659,0,0
-238,365,0,0,0,0,0,0,0,0,0,-1,986,659,0,0
-231,365,0,0,0,0,0,0,0,0,0,-1,993,659,0,0
-224,365,0,0,0,0,0,0,0,0,0,-1,1000,659,0,0
-217,365,0,0,0,0,0,0,0,0,0,-1,1007,659,0,0
-210,365,0,0,0,0,0,0,0,0,0,-1,1014,659,0,0
-203,365,0,0,0,0,0,0,0,0,0,-1,1021,659,0,0
-196,365,0,0,0,0,0,0,0,0,0,-1,1028,659,0,0
-189,365,0,0,0,0,0,0,0,0,0,-1,1035,659,0,0
-182,365,0,0,0,0,0,0,0,0,0,-1,1042,659,0,0
-175,365,0,0,0,0,0,0,0,0,0,-1,1049,659,0,0
-168,365,0,0,0,0,0,0,0,0,0,-1,1056,659,0,0
-161,365,0,0,0,0,0,0,0,0,0,-1,1063,659,0,0
-154,365,0,0,0,0,0,0,0,0,0,-1,1070,659,0,0
-147,365,0,0,0,0,0,0,0,0,0,-1,1077,659,0,0
-140,365,0,0,0,0,0,0,0,0,0,-1,1084,659,0,0
-133,365,0,0,0,0,0,0,0,0,0,-1,1091,659,0,0
-126,365,0,0,0,0,0,0,0,0,0,-1,1098,659,0,0
-119,365,0,0,0,0,0,0,0,0,0,-1,1105,659,0,0
-112,365,0,0,0,0,0,0,0,0,0,-1,1112,659,0,0
-105,365,0,0,0,0,0,0,0,0,0,-1,1119,659,0,0
-98,365,0,0,0,0,0,0,0,0,0,-1,1126,659,0,0
-91,365,0,0,0,0,0,0,0,0,0,-1,1133,659,0,0
-84,365,0,0,0,0,0,0,0,0,0,-1,1140,659,0,0
-77,365,0,0,0,0,0,0,0,0,0,-1,1147,659,0,0
-70,365,0,0,0,0,0,0,0,0,0,-1,1154,659,0,0
-63,365,0,0,0,0,0,0,0,0,0,-1,1161,659,0,0
-56,365,0,0,0,0,0,0,0,0,0,-1,1168,659,0,0
-49,365,0,0,0,0,0,0,0,0,0,-1,1175,659,0,0
-42,365,0,0,0,0,0,0,0,0,0,-1,1182,659,0,0
-35,365,0,0,0,0,0,0,0,0,0,-1,1189,659,0,0
-28,365,0,0,0,0,0,0,0,0,0,-1,1196,659,0,0
-21,365,0,0,0,0,0,0,0,0,0,-1,1203,659,0,0
-14,365,0,0,0,0,0,0,0,0,0,-1,1210,659,0,0
-7,365,0,0,0,0,0,0,0,0,0,-1,1217,659,0,0
0,365,0,0,0,0,0,0,0,0,0,-1,1224,659,0,0
7,365,0,0,0,0,0,0,0,0,0,-1,1231,659,0,0
14,365,0,0,0,0,0,0,0,0,0,-1,1238,659,0,0
21,365,0,0,0,0,0,0,0,0,0,-1,1245,659,0,0
28,365,0,0,0,0,0,0,0,0,0,-1,1252,659,0,0
35,365,0,0,0,0,0,0,0,0,0,-1,1259,659,0,0
42,365,0,0,0,0,0,0,0,0,0,-1,1266,659,0,0
49,365,0,0,0,0,0,0,0,0,0,-1,1273,659,0,0
56,365,0,0,0,0,0,0,0,0,0,-1,1280,659,0,0
63,365,0,0,0,0,0,0,0,0,0,-1,1287,659,0,0
70,365,0,0,0,0,0,0,0,0,0,-1,1294,659,0,0
77,365,0,0,0,0,0,0,0,0,0,-1,1301,659,0,0
84,365,0,0,0,0,0,0,0,0,0,-1,1308,659,0,0
91,365,0,0,0,0,0,0,0,0,0,-1,1315,659,0,0
98,365,0,0,0,0,0,0,0,0,0,-1,1322,659,0,0
105,365,0,0,0,0,0,0,0,0,0,-1,1329,659,0,0
112,365,0,0,0,0,0,0,0,0,0,-1,1336,659,0,0
119,365,0,0,0,0,0,0,0,0,0,-1,1343,659,0,0
126,365,0,0,0,0,0,0,0,0,0,-1,1350,659,0,0
133,365,0,0,0,0,0,0,0,0,0,-1,1357,659,0,0
140,365,0,0,0,0,0,0,0,0,0,-1,1364,659,0,0
147,365,0,0,0,0,0,0,0,0,0,-1,1371,659,0,0
154,365,0,0,0,0,0,0,0,0,0,-1,1378,659,0,0
161,365,0,0,0,0,0,0,0,0,0,-1,1385,659,0,0
168,365,0,0,0,0,0,0,0,0,0,-1,1392,659,0,0
175,365,0,0,0,0,0,0,0,0,0,-1,1399,659,0,0
182,365,0,0,0,0,0,0,0,0,0,-1,1406,659,0,0
189,365,0,0,0,0,0,0,0,0,0,-1,1413,659,0,0
196,365,0,0,0,0,0,0,0,0,0,-1,1420,659,0,0
203,365,0,0,0,0,0,0,0,0,0,-1,1427,659,0,0
210,365,0,0,0,0,0,0,0,0,0,-1,1434,659,0,0
217,365,0,0,0,0,0,0,0,0,0,-1,1441,659,0,0
224,365,0,0,0,0,0,0,0,0,0,-1,1448,659,0,0
231,365,0,0,0,0,0,0,0,0,0,-1,1455,659,0,0
238,365,0,0,0,0,0,0,0,0,0,-1,1462,659,0,0
245,365,0,0,0,0,0,0,0,0,0,-1,1469,659,0,0
252,365,0,0,0,0,0,0,0,0,0,-1,1476,659,0,0
259,365,0,0,0,0,0,0,0,0,0,-1,1483,659,0,0
266,365,0,0,0,0,0,0,0,0,0,-1,1490,659,0,0
273,365,0,0,0,0,0,0,0,0,0,-1,1497,659,0,0
280,365,0,0,0,0,0,0,0,0,0,-1,1504,659,0,0
287,365,0,0,0,0,0,0,0,0,0,-1,1511,659,0,0
294,365,0,0,0,0,0,0,0,0,0,-1,1518,659,0,0
301,365,0,0,0,0,0,0,0,0,0,-1,1525,659,0,0
308,365,0,0,0,0,0,0,0,0,0,-1,1532,659,0,0
315,365,0,0,0,0,0,0,0,0,0,-1,1539,659,0,0
322,365,0,0,0,0,0,0,0,0,0,-1,1546,659,0,0
329,365,0,0,0,0,0,0,0,0,0,-1,1553,659,0,0
336,365,0,0,0,0,0,0,0,0,0,-1,1560,659,0,0
343,365,0,0,0,0,0,0,0,0,0,-1,1567,659,0,0
350,365,0,0,0,0,0,0,0,0,0,-1,1574,659,0,0
357,365,0,0,0,0,0,0,0,0,0,-1,1581,659,0,0
364,365,0,0,0,0,0,0,0,0,0,-1,1588,659,0,0
371,365,0,0,0,0,0,0,0,0,0,-1,1595,659,0,0
378,365,0,0,0,0,0,0,0,0,0,-1,1602,659,0,0
385,365,0,0,0,0,0,0,0,0,0,-1,1609,659,0,0
392,365,0,0,0,0,0,0,0,0,0,-1,1616,659,0,0
399,365,0,0,0,0,0,0,0,0,0,-1,1623,659,0,0
406,365,0,0,0,0,0,0,0,0,0,-1,1630,659,0,0
413,365,0,0,0,0,0,0,0,0,0,-1,1637,659,0,0
420,365,0,0,0,0,0,0,0,0,0,-1,1644,659,0,0
427,365,0,0,0,0,0,0,0,0,0,-1,1651,659,0,0
434,365,0,0,0,0,0,0,0,0,0,-1,1658,659,0,0
441,365,0,0,0,0,0,0,0,0,0,-1,1665,659,0,0
448,365,0,0,0,0,0,0,0,0,0,-1,1672,659,0,0
455,365,0,0,0,0,0,0,0,0,0,-1,1679,659,0,0
462,365,0,0,0,0,0,0,0,0,0,-1,1686,659,0,0
469,365,0,0,0,0,0,0,0,0,0,-1,1693,659,0,0
476,365,0,0,0,0,0,0,0,0,0,-1,1700,659,0,0
483,365,0,0,0,0,0,0,0,0,0,-1,1707,659,0,0
490,365,8.39551,0.471252,0,0,0,0,0,0,0,-1,1714,659,8.39551,-0.471241
497,365,9.89233,1.35394,0,0,0,0,0,0,0,-1,1721,659,9.89237,-1.35396
504,365,10.1414,1.18005,0,0,0,0,0,0,0,-1,1728,659,10.1413,-1.18004
511,365,10.5151,0.993896,0,0,0,0,0,0,0,-1,1735,659,10.5152,-0.993894
518,365,11.2029,0.398132,0,0,0,0,0,0,0,-1,1742,659,11.2029,-0.398136
525,365,15.5748,3.85303,0,0,0,0,0,0,0,-1,1749,659,15.5748,-3.85303
532,365,11.2446,1.00629,0,0,0,0,0,0,0,-1,1756,659,11.2446,-1.00631
539,365,12.6301,1.03204,0,0,0,0,0,0,0,-1,1763,659,12.6302,-1.03204
546,365,11.647,0.84198,0,0,0,0,0,0,0,-1,1770,659,11.6469,-0.841955
553,365,12.028,-0.558899,0,0,0,0,0,0,0,-1,1777,659,12.028,0.558873
560,365,14.5372,-4.55548,0,0,0,0,0,0,0,-1,1784,659,14.5373,4.55547
567,365,76.046,-42.9528,0,0,0,0,0,0,0,-1,1791,659,76.0461,42.9528
574,365,79.3885,-42.8714,0,0,0,0,0,0,0,-1,1798,659,79.3886,42.8714
581,365,125.051,-41.1282,0,0,0,0,0,0,0,-1,1805,659,125.051,41.1282
588,365,123.818,-37.3686,-0.00238818,0.0168113,-0.0109094,0.0217433,-0.00732015,-1.14621,0.0174549,0.0476956,1812,659,123.819,37.3686
595,365,122.575,-33.6785,-0.000444928,0.0180287,-0.0148571,0.0262863,-0.00870247,-1.06351,0.0210339,0.0288581,1819,659,122.575,33.6785
602,365,121.523,-30.0649,0.00105495,0.0193964,-0.0187353,0.0310851,-0.0106337,-1.013,0.0250325,0.0382048,1826,659,121.523,30.0649
609,365,120.689,-26.5483,0.00268254,0.0211223,-0.0224231,0.0361471,-0.0123422,-0.98045,0.0290981,0.0454233,1833,659,120.689,26.5483
616,365,119.88,-23.2169,0.00417994,0.0229901,-0.0260827,0.0413116,-0.0141416,-0.958436,0.0332722,0.0443333,1840,659,119.88,23.2168
623,365,119.005,-19.8983,0.00547736,0.0250172,-0.0296884,0.0465019,-0.0160074,-0.944357,0.037494,0.0198783,1847,659,119.005,19.8982
630,365,118.235,-16.5369,0.00660071,0.0271326,-0.0332011,0.0516187,-0.0178854,-0.935338,0.0416739,0.0222672,1854,659,118.235,16.5369
637,365,117.5,-13.3386,0.00767186,0.0294195,-0.036638,0.0567633,-0.0196719,-0.929653,0.0458291,0.0301053,1861,659,117.5,13.3386
644,365,116.718,-10.2263,0,0,0,0,0,0,0,-1,1868,659,116.718,10.2263
651,365,115.653,-6.263,0,0,0,0,0,0,0,-1,1875,659,115.653,6.26298
658,365,24.745,-2.13275,0,0,0,0,0,0,0,-1,1882,659,24.745,2.13277
665,365,14.0961,0.769043,0,0,0,0,0,0,0,-1,1889,659,14.0961,-0.769063
672,365,10.0579,2.15088,0,0,0,0,0,0,0,-1,1896,659,10.0579,-2.15088
679,365,10.9718,2.19208,0,0,0,0,0,0,0,-1,1903,659,10.9718,-2.19211
686,365,12.2134,2.17108,0,0,0,0,0,0,0,-1,1910,659,12.2134,-2.17109
693,365,13.7141,1.98279,0,0,0,0,0,0,0,-1,1917,659,13.7141,-1.98278
700,365,0,0,0,0,0,0,0,0,0,-1,1924,659,0,0
707,365,0,0,0,0,0,0,0,0,0,-1,1931,659,0,0
714,365,0,0,0,0,0,0,0,0,0,-1,1938,659,0,0
721,365,0,0,0,0,0,0,0,0,0,-1,1945,659,0,0
728,365,0,0,0,0,0,0,0,0,0,-1,1952,659,0,0
735,365,0,0,0,0,0,0,0,0,0,-1,1959,659,0,0
742,365,0,0,0,0,0,0,0,0,0,-1,1966,659,0,0
749,365,0,0,0,0,0,0,0,0,0,-1,1973,659,0,0
756,365,0,0,0,0,0,0,0,0,0,-1,1980,659,0,0
763,365,0,0,0,0,0,0,0,0,0,-1,1987,659,0,0
770,365,0,0,0,0,0,0,0,0,0,-1,1994,659,0,0
777,365,0,0,0,0,0,0,0,0,0,-1,2001,659,0,0
784,365,0,0,0,0,0,0,0,0,0,-1,2008,659,0,0
791,365,0,0,0,0,0,0,0,0,0,-1,2015,659,0,0
798,365,0,0,0,0,0,0,0,0,0,-1,2022,659,0,0
805,365,0,0,0,0,0,0,0,0,0,-1,2029,659,0,0
812,365,0,0,0,0,0,0,0,0,0,-1,2036,659,0,0
-700,358,0,0,0,0,0,0,0,0,0,-1,524,666,0,0
-693,358,0,0,0,0,0,0,0,0,0,-1,531,666,0,0
-686,358,0,0,0,0,0,0,0,0,0,-1,538,666,0,0
-679,358,0,0,0,0,0,0,0,0,0,-1,545,666,0,0
-672,358,0,0,0,0,0,0,0,0,0,-1,552,666,0,0
-665,358,0,0,0,0,0,0,0,0,0,-1,559,666,0,0
-658,358,0,0,0,0,0,0,0,0,0,-1,566,666,0,0
-651,358,0,0,0,0,0,0,0,0,0,-1,573,666,0,0
-644,358,0,0,0,0,0,0,0,0,0,-1,580,666,0,0
-637,358,0,0,0,0,0,0,0,0,0,-1,587,666,0,0
-630,358,0,0,0,0,0,0,0,0,0,-1,594,666,0,0
-623,358,0,0,0,0,0,0,0,0,0,-1,601,666,0,0
-616,358,0,0,0,0,0,0,0,0,0,-1,608,666,0,0
-609,358,0,0,0,0,0,0,0,0,0,-1,615,666,0,0
-602,358,0,0,0,0,0,0,0,0,0,-1,622,666,0,0
-595,358,0,0,0,0,0,0,0,0,0,-1,629,666,0,0
-588,358,0,0,0,0,0,0,0,0,0,-1,636,666,0,0
-581,358,-8.31616,1.61993,0,0,0,0,0,0,0,-1,643,666,-8.31614,-1.61993
-574,358,-8.22406,1.75385,0,0,0,0,0,0,0,-1,650,666,-8.22408,-1.75383
-567,358,-8.14215,1.91577,0,0,0,0,0,0,0,-1,657,666,-8.14214,-1.91579
-560,358,-10.6086,2.18872,0,0,0,0,0,0,0,-1,664,666,-10.6086,-2.18873
-553,358,-13.4767,1.09552,0,0,0,0,0,0,0,-1,671,666,-13.4767,-1.09551
-546,358,-13.3743,-0.185059,0,0,0,0,0,0,0,-1,678,666,-13.3743,0.185037
-539,358,-9.43884,-2.04785,0,0,0,0,0,0,0,-1,685,666,-9.43884,2.04785
-532,358,-12.4141,-2.36572,0,0,0,0,0,0,0,-1,692,666,-12.4141,2.3657
-525,358,-12.731,-3.88031,0,0,0,0,0,0,0,-1,699,666,-12.731,3.88029
-518,358,-109.922,-6.97241,0,0,0,0,0,0,0,-1,706,666,-109.922,6.97239
-511,358,-110.481,-10.1893,0.014531,0.035161,0.033594,0.0599879,-0.0102959,0.934354,0.0438289,0.0295691,713,666,-110.481,10.1893
-504,358,-111.08,-13.4105,0.0131818,0.031775,0.0313106,0.05514,-0.0101833,0.92971,0.0405826,0.0173052,720,666,-111.08,13.4105
-497,358,-111.854,-16.7507,0.0113281,0.0280617,0.029311,0.0501767,-0.0107869,0.924425,0.0375666,0.0163991,727,666,-111.854,16.7507
-490,358,-112.654,-20.1299,0.00928982,0.0243894,0.0274117,0.045272,-0.0115928,0.919778,0.0346973,0.0151005,734,666,-112.654,20.1299
-483,358,-113.452,-23.4491,0.00700019,0.0206149,0.0257189,0.0404121,-0.012797,0.914773,0.0320697,0.0131921,741,666,-113.452,23.4491
-476,358,-114.267,-26.8777,0.00453155,0.0168339,0.0241193,0.035574,-0.0142086,0.910253,0.0296112,0.0180585,748,666,-114.267,26.8777
-469,358,-115.185,-30.26,0.00193311,0.0129771,0.0225927,0.0307128,-0.0158026,0.905256,0.0273117,0.02362,755,666,-115.185,30.26
-462,358,-116.015,-33.4164,-0.000787885,0.00899744,0.0210736,0.0257389,-0.0175294,0.899462,0.0251304,0.0395906,762,666,-116.015,33.4164
-455,358,-117.487,-36.8564,0,0,0,0,0,0,0,-1,769,666,-117.487,36.8565
-448,358,-108.503,-42.5771,0,0,0,0,0,0,0,-1,776,666,-108.503,42.5771
-441,358,-5.56293,-3.98041,0,0,0,0,0,0,0,-1,783,666,-5.56291,3.98043
-434,358,-5.21558,-4.43127,0,0,0,0,0,0,0,-1,790,666,-5.21559,4.43125
-427,358,-3.56189,-3.15729,0,0,0,0,0,0,0,-1,797,666,-3.56192,3.15729
-420,358,0.200195,1.08234,0,0,0,0,0,0,0,-1,804,666,0.200174,-1.08231
-413,358,0.0325317,0.161072,0,0,0,0,0,0,0,-1,811,666,0.0325501,-0.161098
-406,358,-3.85846,0.753113,0,0,0,0,0,0,0,-1,818,666,-3.85846,-0.753129
-399,358,-1.31213,0.190735,0,0,0,0,0,0,0,-1,825,666,-1.31215,-0.190763
-392,358,-3.73914,-0.832214,0,0,0,0,0,0,0,-1,832,666,-3.73915,0.832202
-385,358,-5.95178,-1.69141,0,0,0,0,0,0,0,-1,839,666,-5.9518,1.69143
-378,358,0,0,0,0,0,0,0,0,0,-1,846,666,0,0
-371,358,0,0,0,0,0,0,0,0,0,-1,853,666,0,0
-364,358,0,0,0,0,0,0,0,0,0,-1,860,666,0,0
-357,358,0,0,0,0,0,0,0,0,0,-1,867,666,0,0
-350,358,0,0,0,0,0,0,0,0,0,-1,874,666,0,0
-343,358,0,0,0,0,0,0,0,0,0,-1,881,666,0,0
-336,358,0,0,0,0,0,0,0,0,0,-1,888,666,0,0
-329,358,0,0,0,0,0,0,0,0,0,-1,895,666,0,0
-322,358,0,0,0,0,0,0,0,0,0,-1,902,666,0,0
-315,358,0,0,0,0,0,0,0,0,0,-1,909,666,0,0
-308,358,0,0,0,0,0,0,0,0,0,-1,916,666,0,0
-301,358,0,0,0,0,0,0,0,0,0,-1,923,666,0,0
-294,358,0,0,0,0,0,0,0,0,0,-1,930,666,0,0
-287,358,0,0,0,0,0,0,0,0,0,-1,937,666,0,0
-280,358,0,0,0,0,0,0,0,0,0,-1,944,666,0,0
-273,358,0,0,0,0,0,0,0,0,0,-1,951,666,0,0
-266,358,0,0,0,0,0,0,0,0,0,-1,958,666,0,0
-259,358,0,0,0,0,0,0,0,0,0,-1,965,666,0,0
-252,358,0,0,0,0,0,0,0,0,0,-1,972,666,0,0
-245,358,0,0,0,0,0,0,0,0,0,-1,979,666,0,0
-238,358,0,0,0,0,0,0,0,0,0,-1,986,666,0,0
-231,358,0,0,0,0,0,0,0,0,0,-1,993,666,0,0
-224,358,0,0,0,0,0,0,0,0,0,-1,1000,666,0,0
-217,358,0,0,0,0,0,0,0,0,0,-1,1007,666,0,0
-210,358,0,0,0,0,0,0,0,0,0,-1,1014,666,0,0
-203,358,0,0,0,0,0,0,0,0,0,-1,1021,666,0,0
-196,358,0,0,0,0,0,0,0,0,0,-1,1028,666,0,0
-189,358,0,0,0,0,0,0,0,0,0,-1,1035,666,0,0
-182,358,0,0,0,0,0,0,0,0,0,-1,1042,666,0,0
-175,358,0,0,0,0,0,0,0,0,0,-1,1049,666,0,0
-168,358,0,0,0,0,0,0,0,0,0,-1,1056,666,0,0
-161,358,0,0,0,0,0,0,0,0,0,-1,1063,666,0,0
-154,358,0,0,0,0,0,0,0,0,0,-1,1070,666,0,0
-147,358,0,0,0,0,0,0,0,0,0,-1,1077,666,0,0
-140,358,0,0,0,0,0,0,0,0,0,-1,1084,666,0,0
-133,358,0,0,0,0,0,0,0,0,0,-1,1091,666,0,0
-126,358,0,0,0,0,0,0,0,0,0,-1,1098,666,0,0
-119,358,0,0,0,0,0,0,0,0,0,-1,1105,666,0,0
-112,358,0,0,0,0,0,0,0,0,0,-1,1112,666,0,0
-105,358,0,0,0,0,0,0,0,0,0,-1,1119,666,0,0
-98,358,0,0,0,0,0,0,0,0,0,-1,1126,666,0,0
-91,358,0,0,0,0,0,0,0,0,0,-1,1133,666,0,0
-84,358,0,0,0,0,0,0,0,0,0,-1,1140,666,0,0
-77,358,0,0,0,0,0,0,0,0,0,-1,1147,666,0,0
-70,358,0,0,0,0,0,0,0,0,0,-1,1154,666,0,0
-63,358,0,0,0,0,0,0,0,0,0,-1,1161,666,0,0
-56,358,0,0,0,0,0,0,0,0,0,-1,1168,666,0,0
-49,358,0,0,0,0,0,0,0,0,0,-1,1175,666,0,0
-42,358,0,0,0,0,0,0,0,0,0,-1,1182,666,0,0
-35,358,0,0,0,0,0,0,0,0,0,-1,1189,666,0,0
-28,358,0,0,0,0,0,0,0,0,0,-1,1196,666,0,0
-21,358,0,0,0,0,0,0,0,0,0,-1,1203,666,0,0
-14,358,0,0,0,0,0,0,0,0,0,-1,1210,666,0,0
-7,358,0,0,0,0,0,0,0,0,0,-1,1217,666,0,0
0,358,0,0,0,0,0,0,0,0,0,-1,1224,666,0,0
7,358,0,0,0,0,0,0,0,0,0,-1,1231,666,0,0
14,358,0,0,0,0,0,0,0,0,0,-1,1238,666,0,0
21,358,0,0,0,0,0,0,0,0,0,-1,1245,666,0,0
28,358,0,0,0,0,0,0,0,0,0,-1,1252,666,0,0
35,358,0,0,0,0,0,0,0,0,0,-1,1259,666,0,0
42,358,0,0,0,0,0,0,0,0,0,-1,1266,666,0,0
49,358,0,0,0,0,0,0,0,0,0,-1,1273,666,0,0
56,358,0,0,0,0,0,0,0,0,0,-1,1280,666,0,0
63,358,0,0,0,0,0,0,0,0,0,-1,1287,666,0,0
70,358,0,0,0,0,0,0,0,0,0,-1,1294,666,0,0
77,358,0,0,0,0,0,0,0,0,0,-1,1301,666,0,0
84,358,0,0,0,0,0,0,0,0,0,-1,1308,666,0,0
91,358,0,0,0,0,0,0,0,0,0,-1,1315,666,0,0
98,358,0,0,0,0,0,0,0,0,0,-1,1322,666,0,0
105,358,0,0,0,0,0,0,0,0,0,-1,1329,666,0,0
112,358,0,0,0,0,0,0,0,0,0,-1,1336,666,0,0
119,358,0,0,0,0,0,0,0,0,0,-1,1343,666,0,0
126,358,0,0,0,0,0,0,0,0,0,-1,1350,666,0,0
133,358,0,0,0,0,0,0,0,0,0,-1,1357,666,0,0
140,358,0,0,0,0,0,0,0,0,0,-1,1364,666,0,0
147,358,0,0,0,0,0,0,0,0,0,-1,1371,666,0,0
154,358,0,0,0,0,0,0,0,0,0,-1,1378,666,0,0
161,358,0,0,0,0,0,0,0,0,0,-1,1385,666,0,0
168,358,0,0,0,0,0,0,0,0,0,-1,1392,666,0,0
175,358,0,0,0,0,0,0,0,0,0,-1,1399,666,0,0
182,358,0,0,0,0,0,0,0,0,0,-1,1406,666,0,0
189,358,0,0,0,0,0,0,0,0,0,-1,1413,666,0,0
196,358,0,0,0,0,0,0,0,0,0,-1,1420,666,0,0
203,358,0,0,0,0,0,0,0,0,0,-1,1427,666,0,0
210,358,0,0,0,0,0,0,0,0,0,-1,1434,666,0,0
217,358,0,0,0,0,0,0,0,0,0,-1,1441,666,0,0
224,358,0,0,0,0,0,0,0,0,0,-1,1448,666,0,0
231,358,0,0,0,0,0,0,0,0,0,-1,1455,666,0,0
238,358,0,0,0,0,0,0,0,0,0,-1,1462,666,0,0
245,358,0,0,0,0,0,0,0,0,0,-1,1469,666,0,0
252,358,0,0,0,0,0,0,0,0,0,-1,1476,666,0,0
259,358,0,0,0,0,0,0,0,0,0,-1,1483,666,0,0
266,358,0,0,0,0,0,0,0,0,0,-1,1490,666,0,0
273,358,0,0,0,0,0,0,0,0,0,-1,1497,666,0,0
280,358,0,0,0,0,0,0,0,0,0,-1,1504,666,0,0
287,358,0,0,0,0,0,0,0,0,0,-1,1511,666,0,0
294,358,0,0,0,0,0,0,0,0,0,-1,1518,666,0,0
301,358,0,0,0,0,0,0,0,0,0,-1,1525,666,0,0
308,358,0,0,0,0,0,0,0,0,0,-1,1532,666,0,0
315,358,0,0,0,0,0,0,0,0,0,-1,1539,666,0,0
322,358,0,0,0,0,0,0,0,0,0,-1,1546,666,0,0
329,358,0,0,0,0,0,0,0,0,0,-1,1553,666,0,0
336,358,0,0,0,0,0,0,0,0,0,-1,1560,666,0,0
343,358,0,0,0,0,0,0,0,0,0,-1,1567,666,0,0
350,358,0,0,0,0,0,0,0,0,0,-1,1574,666,0,0
357,358,0,0,0,0,0,0,0,0,0,-1,1581,666,0,0
364,358,0,0,0,0,0,0,0,0,0,-1,1588,666,0,0
371,358,0,0,0,0,0,0,0,0,0,-1,1595,666,0,0
378,358,0,0,0,0,0,0,0,0,0,-1,1602,666,0,0
385,358,0,0,0,0,0,0,0,0,0,-1,1609,666,0,0
392,358,0,0,0,0,0,0,0,0,0,-1,1616,666,0,0
399,358,0,0,0,0,0,0,0,0,0,-1,1623,666,0,0
406,358,0,0,0,0,0,0,0,0,0,-1,1630,666,0,0
413,358,0,0,0,0,0,0,0,0,0,-1,1637,666,0,0
420,358,0,0,0,0,0,0,0,0,0,-1,1644,666,0,0
427,358,0,0,0,0,0,0,0,0,0,-1,1651,666,0,0
434,358,0,0,0,0,0,0,0,0,0,-1,1658,666,0,0
441,358,0,0,0,0,0,0,0,0,0,-1,1665,666,0,0
448,358,0,0,0,0,0,0,0,0,0,-1,1672,666,0,0
455,358,0,0,0,0,0,0,0,0,0,-1,1679,666,0,0
462,358,0,0,0,0,0,0,0,0,0,-1,1686,666,0,0
469,358,0,0,0,0,0,0,0,0,0,-1,1693,666,0,0
476,358,0,0,0,0,0,0,0,0,0,-1,1700,666,0,0
483,358,0,0,0,0,0,0,0,0,0,-1,1707,666,0,0
490,358,0,0,0,0,0,0,0,0,0,-1,1714,666,0,0
497,358,8.57239,1.1322,0,0,0,0,0,0,0,-1,1721,666,8.57234,-1.13219
504,358,10.5972,0.832947,0,0,0,0,0,0,0,-1,1728,666,10.5972,-0.832968
511,358,10.6873,0.868469,0,0,0,0,0,0,0,-1,1735,666,10.6872,-0.868484
518,358,16.5884,2.34894,0,0,0,0,0,0,0,-1,1742,666,16.5884,-2.34894
525,358,15.7626,3.65344,0,0,0,0,0,0,0,-1,1749,666,15.7626,-3.65342
532,358,14.9368,4.95789,0,0,0,0,0,0,0,-1,1756,666,14.9367,-4.9579
539,358,15.1597,3.42694,0,0,0,0,0,0,0,-1,1763,666,15.1597,-3.42692
546,358,12.3792,1.53558,0,0,0,0,0,0,0,-1,1770,666,12.3792,-1.5356
553,358,11.6584,1.26172,0,0,0,0,0,0,0,-1,1777,666,11.6585,-1.26175
560,358,10.8234,1.43042,0,0,0,0,0,0,0,-1,1784,666,10.8233,-1.43041
567,358,10.1333,-0.955139,0,0,0,0,0,0,0,-1,1791,666,10.1333,0.955132
574,358,14.7886,-2.69293,0,0,0,0,0,0,0,-1,1798,666,14.7885,2.6929
581,358,76.2957,-37.3464,0,0,0,0,0,0,0,-1,1805,666,76.2957,37.3464
588,358,127.825,-36.0856,0,0,0,0,0,0,0,-1,1812,666,127.825,36.0856
595,358,126.358,-32.5933,-0.00303459,0.0171013,-0.0107023,0.021727,-0.00766028,-1.16283,0.0176028,0.0451825,1819,666,126.358,32.5933
602,358,125.141,-29.0485,-0.000903803,0.018306,-0.0144797,0.0260769,-0.00867465,-1.07824,0.0208855,0.0285158,1826,666,125.141,29.0485
609,358,124.256,-25.5091,0.000917929,0.0198954,-0.0181958,0.0309279,-0.0101146,-1.02574,0.0246907,0.0406805,1833,666,124.256,25.5091
616,358,123.577,-22.2711,0.00240578,0.0216462,-0.0219193,0.0359635,-0.0119115,-0.992187,0.0287799,0.0331347,1840,666,123.577,22.2711
623,358,122.786,-18.9899,0.00367512,0.0235249,-0.0255966,0.0410534,-0.0138534,-0.970346,0.0329716,0.0186746,1847,666,122.786,18.9898
630,358,122.013,-15.6503,0.00478752,0.0255053,-0.0291991,0.0461286,-0.0158358,-0.955856,0.0371729,0.0224738,1854,666,122.013,15.6503
637,358,121.254,-12.4761,0.0058449,0.0275715,-0.0327242,0.0511884,-0.017772,-0.945657,0.0413431,0.032692,1861,666,121.254,12.4761
644,358,120.389,-9.35712,0.00686724,0.0298442,-0.0361637,0.0563004,-0.0195889,-0.939197,0.0454915,0.0284722,1868,666,120.389,9.35712
651,358,119.558,-6.09161,0,0,0,0,0,0,0,-1,1875,666,119.558,6.09162
658,358,52.9972,-7.31555,0,0,0,0,0,0,0,-1,1882,666,52.9972,7.31555
665,358,28.0272,-2.07764,0,0,0,0,0,0,0,-1,1889,666,28.0272,2.07764
672,358,12.4299,1.47272,0,0,0,0,0,0,0,-1,1896,666,12.4299,-1.4727
679,358,12.1294,2.19702,0,0,0,0,0,0,0,-1,1903,666,12.1294,-2.19703
686,358,11.9557,2.2002,0,0,0,0,0,0,0,-1,1910,666,11.9557,-2.20021
693,358,13.188,2.52203,0,0,0,0,0,0,0,-1,1917,666,13.188,-2.52202
700,358,0,0,0,0,0,0,0,0,0,-1,1924,666,0,0
707,358,0,0,0,0,0,0,0,0,0,-1,1931,666,0,0
714,358,0,0,0,0,0,0,0,0,0,-1,1938,666,0,0
721,358,0,0,0,0,0,0,0,0,0,-1,1945,666,0,0
728,358,0,0,0,0,0,0,0,0,0,-1,1952,666,0,0
735,358,0,0,0,0,0,0,0,0,0,-1,1959,666,0,0
742,358,0,0,0,0,0,0,0,0,0,-1,1966,666,0,0
749,358,0,0,0,0,0,0,0,0,0,-1,1973,666,0,0
756,358,0,0,0,0,0,0,0,0,0,-1,1980,666,0,0
763,358,0,0,0,0,0,0,0,0,0,-1,1987,666,0,0
770,358,0,0,0,0,0,0,0,0,0,-1,1994,666,0,0
777,358,0,0,0,0,0,0,0,0,0,-1,2001,666,0,0
784,358,0,0,0,0,0,0,0,0,0,-1,2008,666,0,0
791,358,0,0,0,0,0,0,0,0,0,-1,2015,666,0,0
798,358,0,0,0,0,0,0,0,0,0,-1,2022,666,0,0
805,358,0,0,0,0,0,0,0,0,0,-1,2029,666,0,0
812,358,0,0,0,0,0,0,0,0,0,-1,2036,666,0,0
-700,351,0,0,0,0,0,0,0,0,0,-1,524,673,0,0
-693,351,0,0,0,0,0,0,0,0,0,-1,531,673,0,0
-686,351,0,0,0,0,0,0,0,0,0,-1,538,673,0,0
-679,351,0,0,0,0,0,0,0,0,0,-1,545,673,0,0
-672,351,0,0,0,0,0,0,0,0,0,-1,552,673,0,0
-665,351,0,0,0,0,0,0,0,0,0,-1,559,673,0,0
-658,351,0,0,0,0,0,0,0,0,0,-1,566,673,0,0
-651,351,0,0,0,0,0,0,0,0,0,-1,573,673,0,0
-644,351,0,0,0,0,0,0,0,0,0,-1,580,673,0,0
-637,351,0,0,0,0,0,0,0,0,0,-1,587,673,0,0
-630,351,0,0,0,0,0,0,0,0,0,-1,594,673,0,0
-623,351,0,0,0,0,0,0,0,0,0,-1,601,673,0,0
-616,351,0,0,0,0,0,0,0,0,0,-1,608,673,0,0
-609,351,0,0,0,0,0,0,0,0,0,-1,615,673,0,0
-602,351,0,0,0,0,0,0,0,0,0,-1,622,673,0,0
-595,351,0,0,0,0,0,0,0,0,0,-1,629,673,0,0
-588,351,0,0,0,0,0,0,0,0,0,-1,636,673,0,0
-581,351,-9.0647,1.71906,0,0,0,0,0,0,0,-1,643,673,-9.06472,-1.71908
-574,351,-8.23584,2.64764,0,0,0,0,0,0,0,-1,650,673,-8.23584,-2.64764
-567,351,-10.8027,4.56836,0,0,0,0,0,0,0,-1,657,673,-10.8027,-4.56839
-560,351,-14.2001,2.17084,0,0,0,0,0,0,0,-1,664,673,-14.2002,-2.17086
-553,351,-13.4979,0.779541,0,0,0,0,0,0,0,-1,671,673,-13.4978,-0.779519
-546,351,-14.0065,0.73645,0,0,0,0,0,0,0,-1,678,673,-14.0065,-0.736473
-539,351,-12.8123,-1.46393,0,0,0,0,0,0,0,-1,685,673,-12.8123,1.46395
-532,351,-16.0198,-4.03937,0,0,0,0,0,0,0,-1,692,673,-16.0198,4.03936
-525,351,-112.804,-2.84692,0,0,0,0,0,0,0,-1,699,673,-112.804,2.84694
-518,351,-113.491,-6.09717,0.0141604,0.0354357,0.0341196,0.0605375,-0.0109413,0.936511,0.0444565,0.0366114,706,673,-113.491,6.09718
-511,351,-114.171,-9.3335,0.0128388,0.0323924,0.0313321,0.0554376,-0.0102064,0.93663,0.0407885,0.0166835,713,673,-114.171,9.33351
-504,351,-114.825,-12.551,0.0111815,0.0290508,0.0289415,0.0504054,-0.010173,0.935114,0.0374579,0.0136306,720,673,-114.825,12.551
-497,351,-115.596,-15.8466,0.00921043,0.0256467,0.026785,0.0454459,-0.0105888,0.934249,0.0343749,0.0139074,727,673,-115.596,15.8466
-490,351,-116.351,-19.1586,0.00704175,0.0222702,0.0247405,0.0405417,-0.0112297,0.934681,0.0314466,0.0132121,734,673,-116.351,19.1586
-483,351,-117.144,-22.5526,0.00461076,0.0188227,0.0229342,0.0357265,-0.0122931,0.935629,0.0288035,0.0166737,741,673,-117.144,22.5526
-476,351,-118.033,-25.9726,0.00197455,0.0153531,0.0212517,0.0309435,-0.0136158,0.937871,0.0263667,0.0157621,748,673,-118.033,25.9726
-469,351,-118.938,-29.3271,-0.000861654,0.0116984,0.0196925,0.0260879,-0.0152513,0.939752,0.024139,0.0224151,755,673,-118.938,29.3272
-462,351,-119.904,-32.5913,0,0,0,0,0,0,0,-1,762,673,-119.904,32.5913
-455,351,-39.3901,-22.7581,0,0,0,0,0,0,0,-1,769,673,-39.3901,22.758
-448,351,-6.61456,-4.38654,0,0,0,0,0,0,0,-1,776,673,-6.61456,4.38654
-441,351,-4.31567,-2.3009,0,0,0,0,0,0,0,-1,783,673,-4.31565,2.30089
-434,351,-3.81708,-2.28003,0,0,0,0,0,0,0,-1,790,673,-3.81706,2.28006
-427,351,-2.05157,-2.7785,0,0,0,0,0,0,0,-1,797,673,-2.05157,2.77848
-420,351,-1.06989,-2.43665,0,0,0,0,0,0,0,-1,804,673,-1.06991,2.43663
-413,351,-0.392334,-2.06671,0,0,0,0,0,0,0,-1,811,673,-0.392363,2.06672
-406,351,-1.86316,-2.58105,0,0,0,0,0,0,0,-1,818,673,-1.86313,2.58106
-399,351,1.00952,-1.53455,0,0,0,0,0,0,0,-1,825,673,1.00954,1.53457
-392,351,-1.02197,0.877136,0,0,0,0,0,0,0,-1,832,673,-1.02195,-0.877143
-385,351,-1.47205,1.04437,0,0,0,0,0,0,0,-1,839,673,-1.47207,-1.04435
-378,351,0,0,0,0,0,0,0,0,0,-1,846,673,0,0
-371,351,0,0,0,0,0,0,0,0,0,-1,853,673,0,0
-364,351,0,0,0,0,0,0,0,0,0,-1,860,673,0,0
-357,351,0,0,0,0,0,0,0,0,0,-1,867,673,0,0
-350,351,0,0,0,0,0,0,0,0,0,-1,874,673,0,0
-343,351,0,0,0,0,0,0,0,0,0,-1,881,673,0,0
-336,351,0,0,0,0,0,0,0,0,0,-1,888,673,0,0
-329,351,0,0,0,0,0,0,0,0,0,-1,895,673,0,0
-322,351,0,0,0,0,0,0,0,0,0,-1,902,673,0,0
-315,351,0,0,0,0,0,0,0,0,0,-1,909,673,0,0
-308,351,0,0,0,0,0,0,0,0,0,-1,916,673,0,0
-301,351,0,0,0,0,0,0,0,0,0,-1,923,673,0,0
-294,351,0,0,0,0,0,0,0,0,0,-1,930,673,0,0
-287,351,0,0,0,0,0,0,0,0,0,-1,937,673,0,0
-280,351,0,0,0,0,0,0,0,0,0,-1,944,673,0,0
-273,351,0,0,0,0,0,0,0,0,0,-1,951,673,0,0
-266,351,0,0,0,0,0,0,0,0,0,-1,958,673,0,0
-259,351,0,0,0,0,0,0,0,0,0,-1,965,673,0,0
-252,351,0,0,0,0,0,0,0,0,0,-1,972,673,0,0
-245,351,0,0,0,0,0,0,0,0,0,-1,979,673,0,0
-238,351,0,0,0,0,0,0,0,0,0,-1,986,673,0,0
-231,351,0,0,0,0,0,0,0,0,0,-1,993,673,0,0
-224,351,0,0,0,0,0,0,0,0,0,-1,1000,673,0,0
-217,351,0,0,0,0,0,0,0,0,0,-1,1007,673,0,0
-210,351,0,0,0,0,0,0,0,0,0,-1,1014,673,0,0
-203,351,0,0,0,0,0,0,0,0,0,-1,1021,673,0,0
-196,351,0,0,0,0,0,0,0,0,0,-1,1028,673,0,0
-189,351,0,0,0,0,0,0,0,0,0,-1,1035,673,0,0
-182,351,0,0,0,0,0,0,0,0,0,-1,1042,673,0,0
-175,351,0,0,0,0,0,0,0,0,0,-1,1049,673,0,0
-168,351,0,0,0,0,0,0,0,0,0,-1,1056,673,0,0
-161,351,0,0,0,0,0,0,0,0,0,-1,1063,673,0,0
-154,351,0,0,0,0,0,0,0,0,0,-1,1070,673,0,0
-147,351,0,0,0,0,0,0,0,0,0,-1,1077,673,0,0
-140,351,0,0,0,0,0,0,0,0,0,-1,1084,673,0,0
-133,351,0,0,0,0,0,0,0,0,0,-1,1091,673,0,0
-126,351,0,0,0,0,0,0,0,0,0,-1,1098,673,0,0
-119,351,0,0,0,0,0,0,0,0,0,-1,1105,673,0,0
-112,351,0,0,0,0,0,0,0,0,0,-1,1112,673,0,0
-105,351,0,0,0,0,0,0,0,0,0,-1,1119,673,0,0
-98,351,0,0,0,0,0,0,0,0,0,-1,1126,673,0,0
-91,351,0,0,0,0,0,0,0,0,0,-1,1133,673,0,0
-84,351,0,0,0,0,0,0,0,0,0,-1,1140,673,0,0
-77,351,0,0,0,0,0,0,0,0,0,-1,1147,673,0,0
-70,351,0,0,0,0,0,0,0,0,0,-1,1154,673,0,0
-63,351,0,0,0,0,0,0,0,0,0,-1,1161,673,0,0
-56,351,0,0,0,0,0,0,0,0,0,-1,1168,673,0,0
-49,351,0,0,0,0,0,0,0,0,0,-1,1175,673,0,0
-42,351,0,0,0,0,0,0,0,0,0,-1,1182,673,0,0
-35,351,0,0,0,0,0,0,0,0,0,-1,1189,673,0,0
-28,351,0,0,0,0,0,0,0,0,0,-1,1196,673,0,0
-21,351,0,0,0,0,0,0,0,0,0,-1,1203,673,0,0
-14,351,0,0,0,0,0,0,0,0,0,-1,1210,673,0,0
-7,351,0,0,0,0,0,0,0,0,0,-1,1217,673,0,0
0,351,0,0,0,0,0,0,0,0,0,-1,1224,673,0,0
7,351,0,0,0,0,0,0,0,0,0,-1,1231,673,0,0
14,351,0,0,0,0,0,0,0,0,0,-1,1238,673,0,0
21,351,0,0,0,0,0,0,0,0,0,-1,1245,673,0,0
28,351,0,0,0,0,0,0,0,0,0,-1,1252,673,0,0
35,351,0,0,0,0,0,0,0,0,0,-1,1259,673,0,0
42,351,0,0,0,0,0,0,0,0,0,-1,1266,673,0,0
49,351,0,0,0,0,0,0,0,0,0,-1,1273,673,0,0
56,351,0,0,0,0,0,0,0,0,0,-1,1280,673,0,0
63,351,0,0,0,0,0,0,0,0,0,-1,1287,673,0,0
70,351,0,0,0,0,0,0,0,0,0,-1,1294,673,0,0
77,351,0,0,0,0,0,0,0,0,0,-1,1301,673,0,0
84,351,0,0,0,0,0,0,0,0,0,-1,1308,673,0,0
91,351,0,0,0,0,0,0,0,0,0,-1,1315,673,0,0
98,351,0,0,0,0,0,0,0,0,0,-1,1322,673,0,0
105,351,0,0,0,0,0,0,0,0,0,-1,1329,673,0,0
112,351,0,0,0,0,0,0,0,0,0,-1,1336,673,0,0
119,351,0,0,0,0,0,0,0,0,0,-1,1343,673,0,0
126,351,0,0,0,0,0,0,0,0,0,-1,1350,673,0,0
133,351,0,0,0,0,0,0,0,0,0,-1,1357,673,0,0
140,351,0,0,0,0,0,0,0,0,0,-1,1364,673,0,0
147,351,0,0,0,0,0,0,0,0,0,-1,1371,673,0,0
154,351,0,0,0,0,0,0,0,0,0,-1,1378,673,0,0
161,351,0,0,0,0,0,0,0,0,0,-1,1385,673,0,0
168,351,0,0,0,0,0,0,0,0,0,-1,1392,673,0,0
175,351,0,0,0,0,0,0,0,0,0,-1,1399,673,0,0
182,351,0,0,0,0,0,0,0,0,0,-1,1406,673,0,0
189,351,0,0,0,0,0,0,0,0,0,-1,1413,673,0,0
196,351,0,0,0,0,0,0,0,0,0,-1,1420,673,0,0
203,351,0,0,0,0,0,0,0,0,0,-1,1427,673,0,0
210,351,0,0,0,0,0,0,0,0,0,-1,1434,673,0,0
217,351,0,0,0,0,0,0,0,0,0,-1,1441,673,0,0
224,351,0,0,0,0,0,0,0,0,0,-1,1448,673,0,0
231,351,0,0,0,0,0,0,0,0,0,-1,1455,673,0,0
238,351,0,0,0,0,0,0,0,0,0,-1,1462,673,0,0
245,351,0,0,0,0,0,0,0,0,0,-1,1469,673,0,0
252,351,0,0,0,0,0,0,0,0,0,-1,1476,673,0,0
259,351,0,0,0,0,0,0,0,0,0,-1,1483,673,0,0
266,351,0,0,0,0,0,0,0,0,0,-1,1490,673,0,0
273,351,0,0,0,0,0,0,0,0,0,-1,1497,673,0,0
280,351,0,0,0,0,0,0,0,0,0,-1,1504,673,0,0
287,351,0,0,0,0,0,0,0,0,0,-1,1511,673,0,0
294,351,0,0,0,0,0,0,0,0,0,-1,1518,673,0,0
301,351,0,0,0,0,0,0,0,0,0,-1,1525,673,0,0
308,351,0,0,0,0,0,0,0,0,0,-1,1532,673,0,0
315,351,0,0,0,0,0,0,0,0,0,-1,1539,673,0,0
322,351,0,0,0,0,0,0,0,0,0,-1,1546,673,0,0
329,351,0,0,0,0,0,0,0,0,0,-1,1553,673,0,0
336,351,0,0,0,0,0,0,0,0,0,-1,1560,673,0,0
343,351,0,0,0,0,0,0,0,0,0,-1,1567,673,0,0
350,351,0,0,0,0,0,0,0,0,0,-1,1574,673,0,0
357,351,0,0,0,0,0,0,0,0,0,-1,1581,673,0,0
364,351,0,0,0,0,0,0,0,0,0,-1,1588,673,0,0
371,351,0,0,0,0,0,0,0,0,0,-1,1595,673,0,0
378,351,0,0,0,0,0,0,0,0,0,-1,1602,673,0,0
385,351,0,0,0,0,0,0,0,0,0,-1,1609,673,0,0
392,351,0,0,0,0,0,0,0,0,0,-1,1616,673,0,0
399,351,0,0,0,0,0,0,0,0,0,-1,1623,673,0,0
406,351,0,0,0,0,0,0,0,0,0,-1,1630,673,0,0
413,351,0,0,0,0,0,0,0,0,0,-1,1637,673,0,0
420,351,0,0,0,0,0,0,0,0,0,-1,1644,673,0,0
427,351,0,0,0,0,0,0,0,0,0,-1,1651,673,0,0
434,351,0,0,0,0,0,0,0,0,0,-1,1658,673,0,0
441,351,0,0,0,0,0,0,0,0,0,-1,1665,673,0,0
448,351,0,0,0,0,0,0,0,0,0,-1,1672,673,0,0
455,351,0,0,0,0,0,0,0,0,0,-1,1679,673,0,0
462,351,0,0,0,0,0,0,0,0,0,-1,1686,673,0,0
469,351,0,0,0,0,0,0,0,0,0,-1,1693,673,0,0
476,351,0,0,0,0,0,0,0,0,0,-1,1700,673,0,0
483,351,0,0,0,0,0,0,0,0,0,-1,1707,673,0,0
490,351,0,0,0,0,0,0,0,0,0,-1,1714,673,0,0
497,351,0,0,0,0,0,0,0,0,0,-1,1721,673,0,0
504,351,10.8842,1.61615,0,0,0,0,0,0,0,-1,1728,673,10.8842,-1.61618
511,351,15.4548,0.0236816,0,0,0,0,0,0,0,-1,1735,673,15.4549,-0.0236664
518,351,16.7448,2.49268,0,0,0,0,0,0,0,-1,1742,673,16.7448,-2.49269
525,351,16.0701,3.43225,0,0,0,0,0,0,0,-1,1749,673,16.07,-3.43227
532,351,32.3822,3.03021,0,0,0,0,0,0,0,-1,1756,673,32.3822,-3.03019
539,351,15.3387,3.54486,0,0,0,0,0,0,0,-1,1763,673,15.3387,-3.54485
546,351,13.9387,4.59357,0,0,0,0,0,0,0,-1,1770,673,13.9388,-4.59359
553,351,12.0682,2.02832,0,0,0,0,0,0,0,-1,1777,673,12.0683,-2.02831
560,351,12.0173,0.55304,0,0,0,0,0,0,0,-1,1784,673,12.0174,-0.553028
567,351,10.7827,0.130188,0,0,0,0,0,0,0,-1,1791,673,10.7827,-0.130183
574,351,13.405,-1.09204,0,0,0,0,0,0,0,-1,1798,673,13.405,1.09207
581,351,15.2351,-3.06049,0,0,0,0,0,0,0,-1,1805,673,15.2351,3.06046
588,351,79.4626,-35.6771,0,0,0,0,0,0,0,-1,1812,673,79.4626,35.6771
595,351,130.017,-31.6611,0,0,0,0,0,0,0,-1,1819,673,130.017,31.6611
602,351,128.899,-28.1442,-0.00200332,0.0170447,-0.0103633,0.0215956,-0.00655425,-1.15701,0.0170081,0.0398028,1826,673,128.899,28.1442
609,351,127.944,-24.8455,-0.000281601,0.0184459,-0.0140598,0.0259747,-0.00781037,-1.07917,0.0204239,0.0311973,1833,673,127.944,24.8454
616,351,127.186,-21.4437,0.00107758,0.0200613,-0.017835,0.030773,-0.00963411,-1.02994,0.02437,0.0212562,1840,673,127.186,21.4437
623,351,126.42,-18.1904,0.00222585,0.0218199,-0.0215776,0.0357205,-0.0116747,-0.998501,0.0285134,0.0181383,1847,673,126.42,18.1904
630,351,125.567,-14.96,0.00324987,0.0237269,-0.0252646,0.0407487,-0.013772,-0.977911,0.0327368,0.027556,1854,673,125.567,14.96
637,351,124.734,-11.7639,0.00424248,0.0257383,-0.028863,0.0457895,-0.0158088,-0.963633,0.0369412,0.032851,1861,673,124.734,11.7639
644,351,123.958,-8.57281,0.00528714,0.0279526,-0.0324076,0.0509518,-0.0177121,-0.953599,0.0411623,0.0261491,1868,673,123.958,8.57284
651,351,123.288,-5.38446,0.00633866,0.0300954,-0.0357278,0.0558677,-0.0194336,-0.945884,0.0451397,0.0348471,1875,673,123.288,5.38448
658,351,122.749,-2.23364,0,0,0,0,0,0,0,-1,1882,673,122.749,2.23363
665,351,54.0391,-5.79291,0,0,0,0,0,0,0,-1,1889,673,54.039,5.79288
672,351,34.9646,-3.1748,0,0,0,0,0,0,0,-1,1896,673,34.9646,3.17482
679,351,14.1252,1.85681,0,0,0,0,0,0,0,-1,1903,673,14.1253,-1.85682
686,351,13.0294,2.1189,0,0,0,0,0,0,0,-1,1910,673,13.0294,-2.11892
693,351,13.5187,2.34595,0,0,0,0,0,0,0,-1,1917,673,13.5187,-2.34596
700,351,14.5629,-2.40173,0,0,0,0,0,0,0,-1,1924,673,14.5629,2.40172
707,351,0,0,0,0,0,0,0,0,0,-1,1931,673,0,0
714,351,0,0,0,0,0,0,0,0,0,-1,1938,673,0,0
721,351,0,0,0,0,0,0,0,0,0,-1,1945,673,0,0
728,351,0,0,0,0,0,0,0,0,0,-1,1952,673,0,0
735,351,0,0,0,0,0,0,0,0,0,-1,1959,673,0,0
742,351,0,0,0,0,0,0,0,0,0,-1,1966,673,0,0
749,351,0,0,0,0,0,0,0,0,0,-1,1973,673,0,0
756,351,0,0,0,0,0,0,0,0,0,-1,1980,673,0,0
763,351,0,0,0,0,0,0,0,0,0,-1,1987,673,0,0
770,351,0,0,0,0,0,0,0,0,0,-1,1994,673,0,0
777,351,0,0,0,0,0,0,0,0,0,-1,2001,673,0,0
784,351,0,0,0,0,0,0,0,0,0,-1,2008,673,0,0
791,351,0,0,0,0,0,0,0,0,0,-1,2015,673,0,0
798,351,0,0,0,0,0,0,0,0,0,-1,2022,673,0,0
805,351,0,0,0,0,0,0,0,0,0,-1,2029,673,0,0
812,351,0,0,0,0,0,0,0,0,0,-1,2036,673,0,0
-700,344,0,0,0,0,0,0,0,0,0,-1,524,680,0,0
-693,344,0,0,0,0,0,0,0,0,0,-1,531,680,0,0
-686,344,0,0,0,0,0,0,0,0,0,-1,538,680,0,0
-679,344,0,0,0,0,0,0,0,0,0,-1,545,680,0,0
-672,344,0,0,0,0,0,0,0,0,0,-1,552,680,0,0
-665,344,0,0,0,0,0,0,0,0,0,-1,559,680,0,0
-658,344,0,0,0,0,0,0,0,0,0,-1,566,680,0,0
-651,344,0,0,0,0,0,0,0,0,0,-1,573,680,0,0
-644,344,0,0,0,0,0,0,0,0,0,-1,580,680,0,0
-637,344,0,0,0,0,0,0,0,0,0,-1,587,680,0,0
-630,344,0,0,0,0,0,0,0,0,0,-1,594,680,0,0
-623,344,0,0,0,0,0,0,0,0,0,-1,601,680,0,0
-616,344,0,0,0,0,0,0,0,0,0,-1,608,680,0,0
-609,344,0,0,0,0,0,0,0,0,0,-1,615,680,0,0
-602,344,0,0,0,0,0,0,0,0,0,-1,622,680,0,0
-595,344,0,0,0,0,0,0,0,0,0,-1,629,680,0,0
-588,344,-9.27826,1.47302,0,0,0,0,0,0,0,-1,636,680,-9.27829,-1.473
-581,344,-10.0098,1.71753,0,0,0,0,0,0,0,-1,643,680,-10.0098,-1.7175
-574,344,-10.2208,3.04871,0,0,0,0,0,0,0,-1,650,680,-10.2208,-3.04869
-567,344,-14.3779,2.29016,0,0,0,0,0,0,0,-1,657,680,-14.3779,-2.29014
-560,344,-14.1238,1.8374,0,0,0,0,0,0,0,-1,664,680,-14.1238,-1.83743
-553,344,-14.7884,2.00116,0,0,0,0,0,0,0,-1,671,680,-14.7884,-2.00115
-546,344,-17.4192,0.157654,0,0,0,0,0,0,0,-1,678,680,-17.4192,-0.157635
-539,344,-17.2671,-2.75714,0,0,0,0,0,0,0,-1,685,680,-17.2671,2.75712
-532,344,-18.4417,-4.38605,0,0,0,0,0,0,0,-1,692,680,-18.4417,4.38603
-525,344,-116.528,-2.07727,0,0,0,0,0,0,0,-1,699,680,-116.528,2.0773
-518,344,-117.098,-5.30444,0.0123525,0.0334005,0.0316664,0.0562459,-0.0104929,0.945827,0.0414401,0.02478,706,680,-117.098,5.30446
-511,344,-117.887,-8.58264,0.0108169,0.0300971,0.0288247,0.050851,-0.00993705,0.94677,0.0376527,0.0205381,713,680,-117.887,8.58265
-504,344,-118.584,-11.7961,0.00902823,0.0267497,0.0263032,0.0456445,-0.00986663,0.947862,0.0341964,0.0190987,720,680,-118.584,11.7961
-497,344,-119.275,-15.0346,0.00704885,0.0235552,0.023995,0.0406768,-0.0100727,0.951037,0.0310253,0.0172013,727,680,-119.275,15.0346
-490,344,-120.004,-18.334,0.00482943,0.0204308,0.0218465,0.0358275,-0.0105673,0.956877,0.0280783,0.0174563,734,680,-120.004,18.334
-483,344,-120.786,-21.702,0.00230664,0.0173294,0.0199696,0.0311536,-0.0115175,0.965284,0.0254909,0.0203704,741,680,-120.786,21.702
-476,344,-121.682,-25.0743,-0.000481319,0.0142325,0.0182589,0.0265608,-0.0128097,0.97691,0.0231881,0.0239355,748,680,-121.682,25.0743
-469,344,-122.584,-28.4284,0,0,0,0,0,0,0,-1,755,680,-122.584,28.4284
-462,344,-123.067,-32.219,0,0,0,0,0,0,0,-1,762,680,-123.067,32.219
-455,344,-12.1653,-7.99176,0,0,0,0,0,0,0,-1,769,680,-12.1653,7.99174
-448,344,-5.67657,-2.72864,0,0,0,0,0,0,0,-1,776,680,-5.6766,2.72863
-441,344,-5.09229,-2.34167,0,0,0,0,0,0,0,-1,783,680,-5.09229,2.34168
-434,344,-4.28778,-2.08807,0,0,0,0,0,0,0,-1,790,680,-4.28778,2.08809
-427,344,-3.06506,-1.45404,0,0,0,0,0,0,0,-1,797,680,-3.06505,1.45402
-420,344,-1.96582,-1.57574,0,0,0,0,0,0,0,-1,804,680,-1.96579,1.57574
-413,344,-0.817993,-1.4751,0,0,0,0,0,0,0,-1,811,680,-0.818017,1.47511
-406,344,-0.00714111,-1.25189,0,0,0,0,0,0,0,-1,818,680,-0.00714956,1.25191
-399,344,0.240051,-1.75769,0,0,0,0,0,0,0,-1,825,680,0.240079,1.75767
-392,344,1.11353,-2.05615,0,0,0,0,0,0,0,-1,832,680,1.11351,2.05616
-385,344,0,0,0,0,0,0,0,0,0,-1,839,680,0,0
-378,344,0,0,0,0,0,0,0,0,0,-1,846,680,0,0
-371,344,0,0,0,0,0,0,0,0,0,-1,853,680,0,0
-364,344,0,0,0,0,0,0,0,0,0,-1,860,680,0,0
-357,344,0,0,0,0,0,0,0,0,0,-1,867,680,0,0
-350,344,0,0,0,0,0,0,0,0,0,-1,874,680,0,0
-343,344,0,0,0,0,0,0,0,0,0,-1,881,680,0,0
-336,344,0,0,0,0,0,0,0,0,0,-1,888,680,0,0
-329,344,0,0,0,0,0,0,0,0,0,-1,895,680,0,0
-322,344,0,0,0,0,0,0,0,0,0,-1,902,680,0,0
-315,344,0,0,0,0,0,0,0,0,0,-1,909,680,0,0
-308,344,0,0,0,0,0,0,0,0,0,-1,916,680,0,0
-301,344,0,0,0,0,0,0,0,0,0,-1,923,680,0,0
-294,344,0,0,0,0,0,0,0,0,0,-1,930,680,0,0
-287,344,0,0,0,0,0,0,0,0,0,-1,937,680,0,0
-280,344,0,0,0,0,0,0,0,0,0,-1,944,680,0,0
-273,344,0,0,0,0,0,0,0,0,0,-1,951,680,0,0
-266,344,0,0,0,0,0,0,0,0,0,-1,958,680,0,0
-259,344,0,0,0,0,0,0,0,0,0,-1,965,680,0,0
-252,344,0,0,0,0,0,0,0,0,0,-1,972,680,0,0
-245,344,0,0,0,0,0,0,0,0,0,-1,979,680,0,0
-238,344,0,0,0,0,0,0,0,0,0,-1,986,680,0,0
-231,344,0,0,0,0,0,0,0,0,0,-1,993,680,0,0
-224,344,0,0,0,0,0,0,0,0,0,-1,1000,680,0,0
-217,344,0,0,0,0,0,0,0,0,0,-1,1007,680,0,0
-210,344,0,0,0,0,0,0,0,0,0,-1,1014,680,0,0
-203,344,0,0,0,0,0,0,0,0,0,-1,1021,680,0,0
-196,344,0,0,0,0,0,0,0,0,0,-1,1028,680,0,0
-189,344,0,0,0,0,0,0,0,0,0,-1,1035,680,0,0
-182,344,0,0,0,0,0,0,0,0,0,-1,1042,680,0,0
-175,344,0,0,0,0,0,0,0,0,0,-1,1049,680,0,0
-168,344,0,0,0,0,0,0,0,0,0,-1,1056,680,0,0
-161,344,0,0,0,0,0,0,0,0,0,-1,1063,680,0,0
-154,344,0,0,0,0,0,0,0,0,0,-1,1070,680,0,0
-147,344,0,0,0,0,0,0,0,0,0,-1,1077,680,0,0
-140,344,0,0,0,0,0,0,0,0,0,-1,1084,680,0,0
-133,344,0,0,0,0,0,0,0,0,0,-1,1091,680,0,0
-126,344,0,0,0,0,0,0,0,0,0,-1,1098,680,0,0
-119,344,0,0,0,0,0,0,0,0,0,-1,1105,680,0,0
-112,344,0,0,0,0,0,0,0,0,0,-1,1112,680,0,0
-105,344,0,0,0,0,0,0,0,0,0,-1,1119,680,0,0
-98,344,0,0,0,0,0,0,0,0,0,-1,1126,680,0,0
-91,344,0,0,0,0,0,0,0,0,0,-1,1133,680,0,0
-84,344,0,0,0,0,0,0,0,0,0,-1,1140,680,0,0
-77,344,0,0,0,0,0,0,0,0,0,-1,1147,680,0,0
-70,344,0,0,0,0,0,0,0,0,0,-1,1154,680,0,0
-63,344,0,0,0,0,0,0,0,0,0,-1,1161,680,0,0
-56,344,0,0,0,0,0,0,0,0,0,-1,1168,680,0,0
-49,344,0,0,0,0,0,0,0,0,0,-1,1175,680,0,0
-42,344,0,0,0,0,0,0,0,0,0,-1,1182,680,0,0
-35,344,0,0,0,0,0,0,0,0,0,-1,1189,680,0,0
-28,344,0,0,0,0,0,0,0,0,0,-1,1196,680,0,0
-21,344,0,0,0,0,0,0,0,0,0,-1,1203,680,0,0
-14,344,0,0,0,0,0,0,0,0,0,-1,1210,680,0,0
-7,344,0,0,0,0,0,0,0,0,0,-1,1217,680,0,0
0,344,0,0,0,0,0,0,0,0,0,-1,1224,680,0,0
7,344,0,0,0,0,0,0,0,0,0,-1,1231,680,0,0
14,344,0,0,0,0,0,0,0,0,0,-1,1238,680,0,0
21,344,0,0,0,0,0,0,0,0,0,-1,1245,680,0,0
28,344,0,0,0,0,0,0,0,0,0,-1,1252,680,0,0
35,344,0,0,0,0,0,0,0,0,0,-1,1259,680,0,0
42,344,0,0,0,0,0,0,0,0,0,-1,1266,680,0,0
49,344,0,0,0,0,0,0,0,0,0,-1,1273,680,0,0
56,344,0,0,0,0,0,0,0,0,0,-1,1280,680,0,0
63,344,0,0,0,0,0,0,0,0,0,-1,1287,680,0,0
70,344,0,0,0,0,0,0,0,0,0,-1,1294,680,0,0
77,344,0,0,0,0,0,0,0,0,0,-1,1301,680,0,0
84,344,0,0,0,0,0,0,0,0,0,-1,1308,680,0,0
91,344,0,0,0,0,0,0,0,0,0,-1,1315,680,0,0
98,344,0,0,0,0,0,0,0,0,0,-1,1322,680,0,0
105,344,0,0,0,0,0,0,0,0,0,-1,1329,680,0,0
112,344,0,0,0,0,0,0,0,0,0,-1,1336,680,0,0
119,344,0,0,0,0,0,0,0,0,0,-1,1343,680,0,0
126,344,0,0,0,0,0,0,0,0,0,-1,1350,680,0,0
133,344,0,0,0,0,0,0,0,0,0,-1,1357,680,0,0
140,344,0,0,0,0,0,0,0,0,0,-1,1364,680,0,0
147,344,0,0,0,0,0,0,0,0,0,-1,1371,680,0,0
154,344,0,0,0,0,0,0,0,0,0,-1,1378,680,0,0
161,344,0,0,0,0,0,0,0,0,0,-1,1385,680,0,0
168,344,0,0,0,0,0,0,0,0,0,-1,1392,680,0,0
175,344,0,0,0,0,0,0,0,0,0,-1,1399,680,0,0
182,344,0,0,0,0,0,0,0,0,0,-1,1406,680,0,0
189,344,0,0,0,0,0,0,0,0,0,-1,1413,680,0,0
196,344,0,0,0,0,0,0,0,0,0,-1,1420,680,0,0
203,344,0,0,0,0,0,0,0,0,0,-1,1427,680,0,0
210,344,0,0,0,0,0,0,0,0,0,-1,1434,680,0,0
217,344,0,0,0,0,0,0,0,0,0,-1,1441,680,0,0
224,344,0,0,0,0,0,0,0,0,0,-1,1448,680,0,0
231,344,0,0,0,0,0,0,0,0,0,-1,1455,680,0,0
238,344,0,0,0,0,0,0,0,0,0,-1,1462,680,0,0
245,344,0,0,0,0,0,0,0,0,0,-1,1469,680,0,0
252,344,0,0,0,0,0,0,0,0,0,-1,1476,680,0,0
259,344,0,0,0,0,0,0,0,0,0,-1,1483,680,0,0
266,344,0,0,0,0,0,0,0,0,0,-1,1490,680,0,0
273,344,0,0,0,0,0,0,0,0,0,-1,1497,680,0,0
280,344,0,0,0,0,0,0,0,0,0,-1,1504,680,0,0
287,344,0,0,0,0,0,0,0,0,0,-1,1511,680,0,0
294,344,0,0,0,0,0,0,0,0,0,-1,1518,680,0,0
301,344,0,0,0,0,0,0,0,0,0,-1,1525,680,0,0
308,344,0,0,0,0,0,0,0,0,0,-1,1532,680,0,0
315,344,0,0,0,0,0,0,0,0,0,-1,1539,680,0,0
322,344,0,0,0,0,0,0,0,0,0,-1,1546,680,0,0
329,344,0,0,0,0,0,0,0,0,0,-1,1553,680,0,0
336,344,0,0,0,0,0,0,0,0,0,-1,1560,680,0,0
343,344,0,0,0,0,0,0,0,0,0,-1,1567,680,0,0
350,344,0,0,0,0,0,0,0,0,0,-1,1574,680,0,0
357,344,0,0,0,0,0,0,0,0,0,-1,1581,680,0,0
364,344,0,0,0,0,0,0,0,0,0,-1,1588,680,0,0
371,344,0,0,0,0,0,0,0,0,0,-1,1595,680,0,0
378,344,0,0,0,0,0,0,0,0,0,-1,1602,680,0,0
385,344,0,0,0,0,0,0,0,0,0,-1,1609,680,0,0
392,344,0,0,0,0,0,0,0,0,0,-1,1616,680,0,0
399,344,0,0,0,0,0,0,0,0,0,-1,1623,680,0,0
406,344,0,0,0,0,0,0,0,0,0,-1,1630,680,0,0
413,344,0,0,0,0,0,0,0,0,0,-1,1637,680,0,0
420,344,0,0,0,0,0,0,0,0,0,-1,1644,680,0,0
427,344,0,0,0,0,0,0,0,0,0,-1,1651,680,0,0
434,344,0,0,0,0,0,0,0,0,0,-1,1658,680,0,0
441,344,0,0,0,0,0,0,0,0,0,-1,1665,680,0,0
448,344,0,0,0,0,0,0,0,0,0,-1,1672,680,0,0
455,344,0,0,0,0,0,0,0,0,0,-1,1679,680,0,0
462,344,0,0,0,0,0,0,0,0,0,-1,1686,680,0,0
469,344,0,0,0,0,0,0,0,0,0,-1,1693,680,0,0
476,344,0,0,0,0,0,0,0,0,0,-1,1700,680,0,0
483,344,0,0,0,0,0,0,0,0,0,-1,1707,680,0,0
490,344,0,0,0,0,0,0,0,0,0,-1,1714,680,0,0
497,344,0,0,0,0,0,0,0,0,0,-1,1721,680,0,0
504,344,0,0,0,0,0,0,0,0,0,-1,1728,680,0,0
511,344,15.4819,0.452637,0,0,0,0,0,0,0,-1,1735,680,15.4819,-0.452656
518,344,17.1357,2.31207,0,0,0,0,0,0,0,-1,1742,680,17.1358,-2.31207
525,344,31.5201,2.6217,0,0,0,0,0,0,0,-1,1749,680,31.5201,-2.62168
532,344,31.9766,2.61047,0,0,0,0,0,0,0,-1,1756,680,31.9765,-2.6105
539,344,32.4379,2.65314,0,0,0,0,0,0,0,-1,1763,680,32.4378,-2.65316
546,344,14.6722,4.30243,0,0,0,0,0,0,0,-1,1770,680,14.6722,-4.30241
553,344,14.8136,4.35681,0,0,0,0,0,0,0,-1,1777,680,14.8136,-4.35679
560,344,11.9363,2.14185,0,0,0,0,0,0,0,-1,1784,680,11.9362,-2.14182
567,344,11.397,0.925842,0,0,0,0,0,0,0,-1,1791,680,11.397,-0.92583
574,344,10.0004,0.504639,0,0,0,0,0,0,0,-1,1798,680,10.0004,-0.504645
581,344,13.6709,-0.969604,0,0,0,0,0,0,0,-1,1805,680,13.6709,0.969629
588,344,77.6672,-32.3207,0,0,0,0,0,0,0,-1,1812,680,77.6673,32.3207
595,344,81.5276,-32.8669,0,0,0,0,0,0,0,-1,1819,680,81.5276,32.8669
602,344,132.667,-27.1647,0,0,0,0,0,0,0,-1,1826,680,132.667,27.1647
609,344,131.599,-24.0803,-0.000949656,0.0170892,-0.00994895,0.0214985,-0.00535899,-1.15361,0.0164129,0.0405062,1833,680,131.599,24.0802
616,344,130.705,-20.6401,0.000181449,0.0185932,-0.0138008,0.0259768,-0.00720214,-1.07953,0.0201522,0.0308803,1840,680,130.705,20.6401
623,344,129.874,-17.4064,0.00112351,0.020239,-0.0176294,0.0307349,-0.00937232,-1.0338,0.0242261,0.023817,1847,680,129.874,17.4063
630,344,128.991,-14.2061,0.00199167,0.0220822,-0.0214336,0.0357077,-0.0116338,-1.00453,0.0284863,0.0292594,1854,680,128.991,14.2061
637,344,128.105,-10.996,0.00284633,0.0240666,-0.0251505,0.0407533,-0.0138404,-0.985005,0.0327715,0.0292891,1861,680,128.105,10.996
644,344,127.385,-7.78357,0.00382035,0.0262446,-0.0288301,0.045966,-0.0159011,-0.97085,0.0370982,0.0227526,1868,680,127.385,7.78354
651,344,126.809,-4.69043,0.00486379,0.0285206,-0.0323456,0.0511327,-0.0177483,-0.960689,0.0412961,0.0194702,1875,680,126.809,4.69043
658,344,126.251,-1.69031,0,0,0,0,0,0,0,-1,1882,680,126.251,1.69033
665,344,125.932,1.31934,0,0,0,0,0,0,0,-1,1889,680,125.932,-1.31931
672,344,54.3232,-5.07654,0,0,0,0,0,0,0,-1,1896,680,54.3233,5.07656
679,344,36.7468,-2.59857,0,0,0,0,0,0,0,-1,1903,680,36.7468,2.59857
686,344,15.024,1.82709,0,0,0,0,0,0,0,-1,1910,680,15.024,-1.82706
693,344,12.4362,-1.42346,0,0,0,0,0,0,0,-1,1917,680,12.4361,1.42348
700,344,17.5396,2.61206,0,0,0,0,0,0,0,-1,1924,680,17.5396,-2.61204
707,344,18.5829,3.29352,0,0,0,0,0,0,0,-1,1931,680,18.5828,-3.2935
714,344,0,0,0,0,0,0,0,0,0,-1,1938,680,0,0
721,344,0,0,0,0,0,0,0,0,0,-1,1945,680,0,0
728,344,0,0,0,0,0,0,0,0,0,-1,1952,680,0,0
735,344,0,0,0,0,0,0,0,0,0,-1,1959,680,0,0
742,344,0,0,0,0,0,0,0,0,0,-1,1966,680,0,0
749,344,0,0,0,0,0,0,0,0,0,-1,1973,680,0,0
756,344,0,0,0,0,0,0,0,0,0,-1,1980,680,0,0
763,344,0,0,0,0,0,0,0,0,0,-1,1987,680,0,0
770,344,0,0,0,0,0,0,0,0,0,-1,1994,680,0,0
777,344,0,0,0,0,0,0,0,0,0,-1,2001,680,0,0
784,344,0,0,0,0,0,0,0,0,0,-1,2008,680,0,0
791,344,0,0,0,0,0,0,0,0,0,-1,2015,680,0,0
798,344,0,0,0,0,0,0,0,0,0,-1,2022,680,0,0
805,344,0,0,0,0,0,0,0,0,0,-1,2029,680,0,0
812,344,0,0,0,0,0,0,0,0,0,-1,2036,680,0,0
-700,337,0,0,0,0,0,0,0,0,0,-1,524,687,0,0
-693,337,0,0,0,0,0,0,0,0,0,-1,531,687,0,0
-686,337,0,0,0,0,0,0,0,0,0,-1,538,687,0,0
-679,337,0,0,0,0,0,0,0,0,0,-1,545,687,0,0
-672,337,0,0,0,0,0,0,0,0,0,-1,552,687,0,0
-665,337,0,0,0,0,0,0,0,0,0,-1,559,687,0,0
-658,337,0,0,0,0,0,0,0,0,0,-1,566,687,0,0
-651,337,0,0,0,0,0,0,0,0,0,-1,573,687,0,0
-644,337,0,0,0,0,0,0,0,0,0,-1,580,687,0,0
-637,337,0,0,0,0,0,0,0,0,0,-1,587,687,0,0
-630,337,0,0,0,0,0,0,0,0,0,-1,594,687,0,0
-623,337,0,0,0,0,0,0,0,0,0,-1,601,687,0,0
-616,337,0,0,0,0,0,0,0,0,0,-1,608,687,0,0
-609,337,0,0,0,0,0,0,0,0,0,-1,615,687,0,0
-602,337,0,0,0,0,0,0,0,0,0,-1,622,687,0,0
-595,337,0,0,0,0,0,0,0,0,0,-1,629,687,0,0
-588,337,-10.8413,1.27863,0,0,0,0,0,0,0,-1,636,687,-10.8413,-1.27861
-581,337,-11.2157,1.31567,0,0,0,0,0,0,0,-1,643,687,-11.2157,-1.3157
-574,337,-6.03339,2.0321,0,0,0,0,0,0,0,-1,650,687,-6.03337,-2.03213
-567,337,-13.8102,1.56787,0,0,0,0,0,0,0,-1,657,687,-13.8102,-1.56789
-560,337,-15.5435,2.34247,0,0,0,0,0,0,0,-1,664,687,-15.5435,-2.34247
-553,337,-18.0128,1.12927,0,0,0,0,0,0,0,-1,671,687,-18.0128,-1.12926
-546,337,-18.0244,-2.03845,0,0,0,0,0,0,0,-1,678,687,-18.0244,2.03846
-539,337,-19.2426,-3.53815,0,0,0,0,0,0,0,-1,685,687,-19.2426,3.53813
-532,337,-119.579,1.86322,0,0,0,0,0,0,0,-1,692,687,-119.579,-1.86324
-525,337,-120.119,-1.41248,0.0119797,0.0351135,0.0324151,0.0579636,-0.0108704,0.956774,0.0427293,0.0278396,699,687,-120.119,1.41246
-518,337,-120.711,-4.51984,0.0104205,0.0314865,0.0291908,0.0519865,-0.0100795,0.958545,0.0384603,0.0278491,706,687,-120.711,4.51982
-511,337,-121.493,-7.75208,0.00870354,0.0281116,0.0262333,0.0463782,-0.00956303,0.96255,0.0345505,0.0276469,713,687,-121.493,7.75209
-504,337,-122.204,-10.9915,0.00678979,0.0248474,0.0235264,0.041018,-0.00938087,0.968618,0.0309499,0.0257513,720,687,-122.204,10.9915
-497,337,-122.877,-14.1974,0.0047589,0.021875,0.0210403,0.0360312,-0.00939722,0.978553,0.0276899,0.0187541,727,687,-122.877,14.1975
-490,337,-123.578,-17.5077,0.00246833,0.0190459,0.0187876,0.0312919,-0.00977765,0.993148,0.0247723,0.0180611,734,687,-123.578,17.5077
-483,337,-124.408,-20.9117,-0.000156203,0.0163693,0.0168138,0.0268409,-0.0106278,1.01378,0.0222975,0.028115,741,687,-124.408,20.9117
-476,337,-125.376,-24.5846,-0.00301935,0.0138188,0.0149747,0.0225789,-0.0117794,1.04149,0.0201608,0.0407159,748,687,-125.376,24.5846
-469,337,-126.225,-28.0943,0,0,0,0,0,0,0,-1,755,687,-126.225,28.0943
-462,337,-126.823,-31.3864,0,0,0,0,0,0,0,-1,762,687,-126.823,31.3864
-455,337,-6.00574,-3.12933,0,0,0,0,0,0,0,-1,769,687,-6.00576,3.12934
-448,337,-5.30627,-2.07202,0,0,0,0,0,0,0,-1,776,687,-5.30628,2.07205
-441,337,-4.24762,-1.49597,0,0,0,0,0,0,0,-1,783,687,-4.24762,1.49598
-434,337,-6.86908,1.37531,0,0,0,0,0,0,0,-1,790,687,-6.86908,-1.3753
-427,337,-9.92004,2.487,0,0,0,0,0,0,0,-1,797,687,-9.92002,-2.48701
-420,337,-2.95996,-1.76697,0,0,0,0,0,0,0,-1,804,687,-2.95998,1.76696
-413,337,-1.29169,-1.99487,0,0,0,0,0,0,0,-1,811,687,-1.29171,1.9949
-406,337,-1.02356,-1.89563,0,0,0,0,0,0,0,-1,818,687,-1.02357,1.89564
-399,337,-0.472839,-2.21338,0,0,0,0,0,0,0,-1,825,687,-0.472837,2.2134
-392,337,0,0,0,0,0,0,0,0,0,-1,832,687,0,0
-385,337,0,0,0,0,0,0,0,0,0,-1,839,687,0,0
-378,337,0,0,0,0,0,0,0,0,0,-1,846,687,0,0
-371,337,0,0,0,0,0,0,0,0,0,-1,853,687,0,0
-364,337,0,0,0,0,0,0,0,0,0,-1,860,687,0,0
-357,337,0,0,0,0,0,0,0,0,0,-1,867,687,0,0
-350,337,0,0,0,0,0,0,0,0,0,-1,874,687,0,0
-343,337,0,0,0,0,0,0,0,0,0,-1,881,687,0,0
-336,337,0,0,0,0,0,0,0,0,0,-1,888,687,0,0
-329,337,0,0,0,0,0,0,0,0,0,-1,895,687,0,0
-322,337,0,0,0,0,0,0,0,0,0,-1,902,687,0,0
-315,337,0,0,0,0,0,0,0,0,0,-1,909,687,0,0
-308,337,0,0,0,0,0,0,0,0,0,-1,916,687,0,0
-301,337,0,0,0,0,0,0,0,0,0,-1,923,687,0,0
-294,337,0,0,0,0,0,0,0,0,0,-1,930,687,0,0
-287,337,0,0,0,0,0,0,0,0,0,-1,937,687,0,0
-280,337,0,0,0,0,0,0,0,0,0,-1,944,687,0,0
-273,337,0,0,0,0,0,0,0,0,0,-1,951,687,0,0
-266,337,0,0,0,0,0,0,0,0,0,-1,958,687,0,0
-259,337,0,0,0,0,0,0,0,0,0,-1,965,687,0,0
-252,337,0,0,0,0,0,0,0,0,0,-1,972,687,0,0
-245,337,0,0,0,0,0,0,0,0,0,-1,979,687,0,0
-238,337,0,0,0,0,0,0,0,0,0,-1,986,687,0,0
-231,337,0,0,0,0,0,0,0,0,0,-1,993,687,0,0
-224,337,0,0,0,0,0,0,0,0,0,-1,1000,687,0,0
-217,337,0,0,0,0,0,0,0,0,0,-1,1007,687,0,0
-210,337,0,0,0,0,0,0,0,0,0,-1,1014,687,0,0
-203,337,0,0,0,0,0,0,0,0,0,-1,1021,687,0,0
-196,337,0,0,0,0,0,0,0,0,0,-1,1028,687,0,0
-189,337,0,0,0,0,0,0,0,0,0,-1,1035,687,0,0
-182,337,0,0,0,0,0,0,0,0,0,-1,1042,687,0,0
-175,337,0,0,0,0,0,0,0,0,0,-1,1049,687,0,0
-168,337,0,0,0,0,0,0,0,0,0,-1,1056,687,0,0
-161,337,0,0,0,0,0,0,0,0,0,-1,1063,687,0,0
-154,337,0,0,0,0,0,0,0,0,0,-1,1070,687,0,0
-147,337,0,0,0,0,0,0,0,0,0,-1,1077,687,0,0
-140,337,0,0,0,0,0,0,0,0,0,-1,1084,687,0,0
-133,337,0,0,0,0,0,0,0,0,0,-1,1091,687,0,0
-126,337,0,0,0,0,0,0,0,0,0,-1,1098,687,0,0
-119,337,0,0,0,0,0,0,0,0,0,-1,1105,687,0,0
-112,337,0,0,0,0,0,0,0,0,0,-1,1112,687,0,0
-105,337,0,0,0,0,0,0,0,0,0,-1,1119,687,0,0
-98,337,0,0,0,0,0,0,0,0,0,-1,1126,687,0,0
-91,337,0,0,0,0,0,0,0,0,0,-1,1133,687,0,0
-84,337,0,0,0,0,0,0,0,0,0,-1,1140,687,0,0
-77,337,0,0,0,0,0,0,0,0,0,-1,1147,687,0,0
-70,337,0,0,0,0,0,0,0,0,0,-1,1154,687,0,0
-63,337,0,0,0,0,0,0,0,0,0,-1,1161,687,0,0
-56,337,0,0,0,0,0,0,0,0,0,-1,1168,687,0,0
-49,337,0,0,0,0,0,0,0,0,0,-1,1175,687,0,0
-42,337,0,0,0,0,0,0,0,0,0,-1,1182,687,0,0
-35,337,0,0,0,0,0,0,0,0,0,-1,1189,687,0,0
-28,337,0,0,0,0,0,0,0,0,0,-1,1196,687,0,0
-21,337,0,0,0,0,0,0,0,0,0,-1,1203,687,0,0
-14,337,0,0,0,0,0,0,0,0,0,-1,1210,687,0,0
-7,337,0,0,0,0,0,0,0,0,0,-1,1217,687,0,0
0,337,0,0,0,0,0,0,0,0,0,-1,1224,687,0,0
7,337,0,0,0,0,0,0,0,0,0,-1,1231,687,0,0
14,337,0,0,0,0,0,0,0,0,0,-1,1238,687,0,0
21,337,0,0,0,0,0,0,0,0,0,-1,1245,687,0,0
28,337,0,0,0,0,0,0,0,0,0,-1,1252,687,0,0
35,337,0,0,0,0,0,0,0,0,0,-1,1259,687,0,0
42,337,0,0,0,0,0,0,0,0,0,-1,1266,687,0,0
49,337,0,0,0,0,0,0,0,0,0,-1,1273,687,0,0
56,337,0,0,0,0,0,0,0,0,0,-1,1280,687,0,0
63,337,0,0,0,0,0,0,0,0,0,-1,1287,687,0,0
70,337,0,0,0,0,0,0,0,0,0,-1,1294,687,0,0
77,337,0,0,0,0,0,0,0,0,0,-1,1301,687,0,0
84,337,0,0,0,0,0,0,0,0,0,-1,1308,687,0,0
91,337,0,0,0,0,0,0,0,0,0,-1,1315,687,0,0
98,337,0,0,0,0,0,0,0,0,0,-1,1322,687,0,0
105,337,0,0,0,0,0,0,0,0,0,-1,1329,687,0,0
112,337,0,0,0,0,0,0,0,0,0,-1,1336,687,0,0
119,337,0,0,0,0,0,0,0,0,0,-1,1343,687,0,0
126,337,0,0,0,0,0,0,0,0,0,-1,1350,687,0,0
133,337,0,0,0,0,0,0,0,0,0,-1,1357,687,0,0
140,337,0,0,0,0,0,0,0,0,0,-1,1364,687,0,0
147,337,0,0,0,0,0,0,0,0,0,-1,1371,687,0,0
154,337,0,0,0,0,0,0,0,0,0,-1,1378,687,0,0
161,337,0,0,0,0,0,0,0,0,0,-1,1385,687,0,0
168,337,0,0,0,0,0,0,0,0,0,-1,1392,687,0,0
175,337,0,0,0,0,0,0,0,0,0,-1,1399,687,0,0
182,337,0,0,0,0,0,0,0,0,0,-1,1406,687,0,0
189,337,0,0,0,0,0,0,0,0,0,-1,1413,687,0,0
196,337,0,0,0,0,0,0,0,0,0,-1,1420,687,0,0
203,337,0,0,0,0,0,0,0,0,0,-1,1427,687,0,0
210,337,0,0,0,0,0,0,0,0,0,-1,1434,687,0,0
217,337,0,0,0,0,0,0,0,0,0,-1,1441,687,0,0
224,337,0,0,0,0,0,0,0,0,0,-1,1448,687,0,0
231,337,0,0,0,0,0,0,0,0,0,-1,1455,687,0,0
238,337,0,0,0,0,0,0,0,0,0,-1,1462,687,0,0
245,337,0,0,0,0,0,0,0,0,0,-1,1469,687,0,0
252,337,0,0,0,0,0,0,0,0,0,-1,1476,687,0,0
259,337,0,0,0,0,0,0,0,0,0,-1,1483,687,0,0
266,337,0,0,0,0,0,0,0,0,0,-1,1490,687,0,0
273,337,0,0,0,0,0,0,0,0,0,-1,1497,687,0,0
280,337,0,0,0,0,0,0,0,0,0,-1,1504,687,0,0
287,337,0,0,0,0,0,0,0,0,0,-1,1511,687,0,0
294,337,0,0,0,0,0,0,0,0,0,-1,1518,687,0,0
301,337,0,0,0,0,0,0,0,0,0,-1,1525,687,0,0
308,337,0,0,0,0,0,0,0,0,0,-1,1532,687,0,0
315,337,0,0,0,0,0,0,0,0,0,-1,1539,687,0,0
322,337,0,0,0,0,0,0,0,0,0,-1,1546,687,0,0
329,337,0,0,0,0,0,0,0,0,0,-1,1553,687,0,0
336,337,0,0,0,0,0,0,0,0,0,-1,1560,687,0,0
343,337,0,0,0,0,0,0,0,0,0,-1,1567,687,0,0
350,337,0,0,0,0,0,0,0,0,0,-1,1574,687,0,0
357,337,0,0,0,0,0,0,0,0,0,-1,1581,687,0,0
364,337,0,0,0,0,0,0,0,0,0,-1,1588,687,0,0
371,337,0,0,0,0,0,0,0,0,0,-1,1595,687,0,0
378,337,0,0,0,0,0,0,0,0,0,-1,1602,687,0,0
385,337,0,0,0,0,0,0,0,0,0,-1,1609,687,0,0
392,337,0,0,0,0,0,0,0,0,0,-1,1616,687,0,0
399,337,0,0,0,0,0,0,0,0,0,-1,1623,687,0,0
406,337,0,0,0,0,0,0,0,0,0,-1,1630,687,0,0
413,337,0,0,0,0,0,0,0,0,0,-1,1637,687,0,0
420,337,0,0,0,0,0,0,0,0,0,-1,1644,687,0,0
427,337,0,0,0,0,0,0,0,0,0,-1,1651,687,0,0
434,337,0,0,0,0,0,0,0,0,0,-1,1658,687,0,0
441,337,0,0,0,0,0,0,0,0,0,-1,1665,687,0,0
448,337,0,0,0,0,0,0,0,0,0,-1,1672,687,0,0
455,337,0,0,0,0,0,0,0,0,0,-1,1679,687,0,0
462,337,0,0,0,0,0,0,0,0,0,-1,1686,687,0,0
469,337,0,0,0,0,0,0,0,0,0,-1,1693,687,0,0
476,337,0,0,0,0,0,0,0,0,0,-1,1700,687,0,0
483,337,0,0,0,0,0,0,0,0,0,-1,1707,687,0,0
490,337,0,0,0,0,0,0,0,0,0,-1,1714,687,0,0
497,337,0,0,0,0,0,0,0,0,0,-1,1721,687,0,0
504,337,0,0,0,0,0,0,0,0,0,-1,1728,687,0,0
511,337,0,0,0,0,0,0,0,0,0,-1,1735,687,0,0
518,337,18.0369,1.64581,0,0,0,0,0,0,0,-1,1742,687,18.0368,-1.64581
525,337,31.0717,2.13745,0,0,0,0,0,0,0,-1,1749,687,31.0717,-2.13747
532,337,31.5126,2.13904,0,0,0,0,0,0,0,-1,1756,687,31.5125,-2.13905
539,337,31.9684,2.15594,0,0,0,0,0,0,0,-1,1763,687,31.9684,-2.15596
546,337,32.3584,1.43719,0,0,0,0,0,0,0,-1,1770,687,32.3585,-1.43722
553,337,32.1809,1.36395,0,0,0,0,0,0,0,-1,1777,687,32.181,-1.36396
560,337,18.4053,3.62793,0,0,0,0,0,0,0,-1,1784,687,18.4052,-3.6279
567,337,11.9288,1.38776,0,0,0,0,0,0,0,-1,1791,687,11.9288,-1.38777
574,337,10.704,1.19476,0,0,0,0,0,0,0,-1,1798,687,10.704,-1.19478
581,337,8.50427,0.561768,0,0,0,0,0,0,0,-1,1805,687,8.5043,-0.561754
588,337,8.5885,-0.0536499,0,0,0,0,0,0,0,-1,1812,687,8.58844,0.0536788
595,337,81.6165,-31.2047,0,0,0,0,0,0,0,-1,1819,687,81.6165,31.2047
602,337,88.9606,-31.2034,0,0,0,0,0,0,0,-1,1826,687,88.9605,31.2034
609,337,134.956,-23.4218,0,0,0,0,0,0,0,-1,1833,687,134.956,23.4218
616,337,134.161,-19.9673,-0.000344909,0.0174084,-0.00975141,0.0217183,-0.0046548,-1.15464,0.0162542,0.0408221,1840,687,134.161,19.9673
623,337,133.383,-16.5014,0.0003641,0.0189164,-0.0136666,0.0261576,-0.00687711,-1.08356,0.0201263,0.0198033,1847,687,133.383,16.5014
630,337,132.551,-13.2626,0.00106951,0.0206865,-0.0175957,0.0310229,-0.00926688,-1.03967,0.0243656,0.0244064,1854,687,132.551,13.2626
637,337,131.747,-10.1818,0.00178667,0.0226443,-0.0214502,0.0360665,-0.0116355,-1.01167,0.0287196,0.0252768,1861,687,131.747,10.1818
644,337,131.026,-7.06097,0.00265284,0.0248376,-0.0252544,0.0413283,-0.0138379,-0.992327,0.0331422,0.0215306,1868,687,131.026,7.06097
651,337,130.347,-4.03864,0.00362438,0.0272302,-0.0289416,0.0466831,-0.0158285,-0.979012,0.0375279,0.019326,1875,687,130.347,4.03864
658,337,129.781,-1.02344,0.00473285,0.0298033,-0.0324854,0.0520881,-0.0175519,-0.969533,0.0418223,0.0202163,1882,687,129.781,1.02342
665,337,129.245,1.94299,0.00619279,0.0328534,-0.0358292,0.0577517,-0.0187056,-0.96349,0.0460214,0.0252441,1889,687,129.245,-1.943
672,337,128.706,5.03674,0,0,0,0,0,0,0,-1,1896,687,128.706,-5.03675
679,337,53.736,-3.5094,0,0,0,0,0,0,0,-1,1903,687,53.736,3.50941
686,337,18.5614,1.68597,0,0,0,0,0,0,0,-1,1910,687,18.5614,-1.68598
693,337,16.5415,2.21411,0,0,0,0,0,0,0,-1,1917,687,16.5415,-2.2141
700,337,17.2661,2.44379,0,0,0,0,0,0,0,-1,1924,687,17.2661,-2.44378
707,337,17.3544,5.61853,0,0,0,0,0,0,0,-1,1931,687,17.3543,-5.61851
714,337,0,0,0,0,0,0,0,0,0,-1,1938,687,0,0
721,337,0,0,0,0,0,0,0,0,0,-1,1945,687,0,0
728,337,0,0,0,0,0,0,0,0,0,-1,1952,687,0,0
735,337,0,0,0,0,0,0,0,0,0,-1,1959,687,0,0
742,337,0,0,0,0,0,0,0,0,0,-1,1966,687,0,0
749,337,0,0,0,0,0,0,0,0,0,-1,1973,687,0,0
756,337,0,0,0,0,0,0,0,0,0,-1,1980,687,0,0
763,337,0,0,0,0,0,0,0,0,0,-1,1987,687,0,0
770,337,0,0,0,0,0,0,0,0,0,-1,1994,687,0,0
777,337,0,0,0,0,0,0,0,0,0,-1,2001,687,0,0
784,337,0,0,0,0,0,0,0,0,0,-1,2008,687,0,0
791,337,0,0,0,0,0,0,0,0,0,-1,2015,687,0,0
798,337,0,0,0,0,0,0,0,0,0,-1,2022,687,0,0
805,337,0,0,0,0,0,0,0,0,0,-1,2029,687,0,0
812,337,0,0,0,0,0,0,0,0,0,-1,2036,687,0,0
-700,330,0,0,0,0,0,0,0,0,0,-1,524,694,0,0
-693,330,0,0,0,0,0,0,0,0,0,-1,531,694,0,0
-686,330,0,0,0,0,0,0,0,0,0,-1,538,694,0,0
-679,330,0,0,0,0,0,0,0,0,0,-1,545,694,0,0
-672,330,0,0,0,0,0,0,0,0,0,-1,552,694,0,0
-665,330,0,0,0,0,0,0,0,0,0,-1,559,694,0,0
-658,330,0,0,0,0,0,0,0,0,0,-1,566,694,0,0
-651,330,0,0,0,0,0,0,0,0,0,-1,573,694,0,0
-644,330,0,0,0,0,0,0,0,0,0,-1,580,694,0,0
-637,330,0,0,0,0,0,0,0,0,0,-1,587,694,0,0
-630,330,0,0,0,0,0,0,0,0,0,-1,594,694,0,0
-623,330,0,0,0,0,0,0,0,0,0,-1,601,694,0,0
-616,330,0,0,0,0,0,0,0,0,0,-1,608,694,0,0
-609,330,0,0,0,0,0,0,0,0,0,-1,615,694,0,0
-602,330,0,0,0,0,0,0,0,0,0,-1,622,694,0,0
-595,330,-4.67883,1.65515,0,0,0,0,0,0,0,-1,629,694,-4.67881,-1.65515
-588,330,-8.5047,2.67346,0,0,0,0,0,0,0,-1,636,694,-8.50469,-2.67348
-581,330,-12.4227,0.947083,0,0,0,0,0,0,0,-1,643,694,-12.4227,-0.947109
-574,330,-9.02118,1.87952,0,0,0,0,0,0,0,-1,650,694,-9.02115,-1.87953
-567,330,-8.35577,0.909973,0,0,0,0,0,0,0,-1,657,694,-8.35575,-0.909945
-560,330,-13.1036,-0.584656,0,0,0,0,0,0,0,-1,664,694,-13.1035,0.584658
-553,330,-17.5484,-1.21545,0,0,0,0,0,0,0,-1,671,694,-17.5484,1.21547
-546,330,-121.469,8.32849,0,0,0,0,0,0,0,-1,678,694,-121.469,-8.32849
-539,330,-122.577,5.48676,0,0,0,0,0,0,0,-1,685,694,-122.577,-5.48673
-532,330,-123.067,2.38397,0.0119049,0.0375474,0.0332604,0.0603722,-0.0109198,0.969362,0.0443386,0.0381597,692,694,-123.067,-2.38399
-525,330,-123.606,-0.752136,0.010184,0.0333542,0.0298412,0.0537802,-0.010242,0.970556,0.0397102,0.0155501,699,694,-123.606,0.752129
-518,330,-124.258,-3.79224,0.00835979,0.0298325,0.0264968,0.0476855,-0.00949323,0.977886,0.0353818,0.0182166,706,694,-124.258,3.79225
-511,330,-125.005,-6.935,0.00638625,0.0264885,0.0234142,0.0419177,-0.009043,0.988141,0.0313966,0.0234864,713,694,-125.005,6.93499
-504,330,-125.687,-10.1652,0.00424527,0.0233334,0.0205376,0.0364362,-0.00885759,1.00291,0.0277192,0.0214927,720,694,-125.687,10.1652
-497,330,-126.396,-13.3702,0.00202332,0.0205364,0.0178829,0.0314164,-0.00885671,1.02422,0.0244375,0.0171452,727,694,-126.396,13.3702
-490,330,-127.13,-16.7107,-0.000471595,0.0179601,0.0155375,0.0268092,-0.00932075,1.05308,0.0216589,0.0222931,734,694,-127.13,16.7107
-483,330,-128.028,-20.2035,0,0,0,0,0,0,0,-1,741,694,-128.028,20.2035
-476,330,-129.037,-24.0962,0,0,0,0,0,0,0,-1,748,694,-129.037,24.0962
-469,330,-128.802,-27.5754,0,0,0,0,0,0,0,-1,755,694,-128.802,27.5754
-462,330,-7.26733,-3.84833,0,0,0,0,0,0,0,-1,762,694,-7.26731,3.84832
-455,330,-5.04254,-1.79303,0,0,0,0,0,0,0,-1,769,694,-5.04252,1.79305
-448,330,-4.89886,-1.66156,0,0,0,0,0,0,0,-1,776,694,-4.89886,1.66157
-441,330,-5.30676,-2.34045,0,0,0,0,0,0,0,-1,783,694,-5.30679,2.34048
-434,330,-7.20428,1.00024,0,0,0,0,0,0,0,-1,790,694,-7.20431,-1.00027
-427,330,-16.0428,2.89258,0,0,0,0,0,0,0,-1,797,694,-16.0428,-2.89259
-420,330,-29.0331,0.271606,0,0,0,0,0,0,0,-1,804,694,-29.0331,-0.27158
-413,330,-29.0896,0.56366,0,0,0,0,0,0,0,-1,811,694,-29.0896,-0.563671
-406,330,-1.65375,-1.74371,0,0,0,0,0,0,0,-1,818,694,-1.65375,1.74371
-399,330,0,0,0,0,0,0,0,0,0,-1,825,694,0,0
-392,330,0,0,0,0,0,0,0,0,0,-1,832,694,0,0
-385,330,0,0,0,0,0,0,0,0,0,-1,839,694,0,0
-378,330,0,0,0,0,0,0,0,0,0,-1,846,694,0,0
-371,330,0,0,0,0,0,0,0,0,0,-1,853,694,0,0
-364,330,0,0,0,0,0,0,0,0,0,-1,860,694,0,0
-357,330,0,0,0,0,0,0,0,0,0,-1,867,694,0,0
-350,330,0,0,0,0,0,0,0,0,0,-1,874,694,0,0
-343,330,0,0,0,0,0,0,0,0,0,-1,881,694,0,0
-336,330,0,0,0,0,0,0,0,0,0,-1,888,694,0,0
-329,330,0,0,0,0,0,0,0,0,0,-1,895,694,0,0
-322,330,0,0,0,0,0,0,0,0,0,-1,902,694,0,0
-315,330,0,0,0,0,0,0,0,0,0,-1,909,694,0,0
-308,330,0,0,0,0,0,0,0,0,0,-1,916,694,0,0
-301,330,0,0,0,0,0,0,0,0,0,-1,923,694,0,0
-294,330,0,0,0,0,0,0,0,0,0,-1,930,694,0,0
-287,330,0,0,0,0,0,0,0,0,0,-1,937,694,0,0
-280,330,0,0,0,0,0,0,0,0,0,-1,944,694,0,0
-273,330,0,0,0,0,0,0,0,0,0,-1,951,694,0,0
-266,330,0,0,0,0,0,0,0,0,0,-1,958,694,0,0
-259,330,0,0,0,0,0,0,0,0,0,-1,965,694,0,0
-252,330,0,0,0,0,0,0,0,0,0,-1,972,694,0,0
-245,330,0,0,0,0,0,0,0,0,0,-1,979,694,0,0
-238,330,0,0,0,0,0,0,0,0,0,-1,986,694,0,0
-231,330,0,0,0,0,0,0,0,0,0,-1,993,694,0,0
-224,330,0,0,0,0,0,0,0,0,0,-1,1000,694,0,0
-217,330,0,0,0,0,0,0,0,0,0,-1,1007,694,0,0
-210,330,0,0,0,0,0,0,0,0,0,-1,1014,694,0,0
-203,330,0,0,0,0,0,0,0,0,0,-1,1021,694,0,0
-196,330,0,0,0,0,0,0,0,0,0,-1,1028,694,0,0
-189,330,0,0,0,0,0,0,0,0,0,-1,1035,694,0,0
-182,330,0,0,0,0,0,0,0,0,0,-1,1042,694,0,0
-175,330,0,0,0,0,0,0,0,0,0,-1,1049,694,0,0
-168,330,0,0,0,0,0,0,0,0,0,-1,1056,694,0,0
-161,330,0,0,0,0,0,0,0,0,0,-1,1063,694,0,0
-154,330,0,0,0,0,0,0,0,0,0,-1,1070,694,0,0
-147,330,0,0,0,0,0,0,0,0,0,-1,1077,694,0,0
-140,330,0,0,0,0,0,0,0,0,0,-1,1084,694,0,0
-133,330,0,0,0,0,0,0,0,0,0,-1,1091,694,0,0
-126,330,0,0,0,0,0,0,0,0,0,-1,1098,694,0,0
-119,330,0,0,0,0,0,0,0,0,0,-1,1105,694,0,0
-112,330,0,0,0,0,0,0,0,0,0,-1,1112,694,0,0
-105,330,0,0,0,0,0,0,0,0,0,-1,1119,694,0,0
-98,330,0,0,0,0,0,0,0,0,0,-1,1126,694,0,0
-91,330,0,0,0,0,0,0,0,0,0,-1,1133,694,0,0
-84,330,0,0,0,0,0,0,0,0,0,-1,1140,694,0,0
-77,330,0,0,0,0,0,0,0,0,0,-1,1147,694,0,0
-70,330,0,0,0,0,0,0,0,0,0,-1,1154,694,0,0
-63,330,0,0,0,0,0,0,0,0,0,-1,1161,694,0,0
-56,330,0,0,0,0,0,0,0,0,0,-1,1168,694,0,0
-49,330,0,0,0,0,0,0,0,0,0,-1,1175,694,0,0
-42,330,0,0,0,0,0,0,0,0,0,-1,1182,694,0,0
-35,330,0,0,0,0,0,0,0,0,0,-1,1189,694,0,0
-28,330,0,0,0,0,0,0,0,0,0,-1,1196,694,0,0
-21,330,0,0,0,0,0,0,0,0,0,-1,1203,694,0,0
-14,330,0,0,0,0,0,0,0,0,0,-1,1210,694,0,0
-7,330,0,0,0,0,0,0,0,0,0,-1,1217,694,0,0
0,330,0,0,0,0,0,0,0,0,0,-1,1224,694,0,0
7,330,0,0,0,0,0,0,0,0,0,-1,1231,694,0,0
14,330,0,0,0,0,0,0,0,0,0,-1,1238,694,0,0
21,330,0,0,0,0,0,0,0,0,0,-1,1245,694,0,0
28,330,0,0,0,0,0,0,0,0,0,-1,1252,694,0,0
35,330,0,0,0,0,0,0,0,0,0,-1,1259,694,0,0
42,330,0,0,0,0,0,0,0,0,0,-1,1266,694,0,0
49,330,0,0,0,0,0,0,0,0,0,-1,1273,694,0,0
56,330,0,0,0,0,0,0,0,0,0,-1,1280,694,0,0
63,330,0,0,0,0,0,0,0,0,0,-1,1287,694,0,0
70,330,0,0,0,0,0,0,0,0,0,-1,1294,694,0,0
77,330,0,0,0,0,0,0,0,0,0,-1,1301,694,0,0
84,330,0,0,0,0,0,0,0,0,0,-1,1308,694,0,0
91,330,0,0,0,0,0,0,0,0,0,-1,1315,694,0,0
98,330,0,0,0,0,0,0,0,0,0,-1,1322,694,0,0
105,330,0,0,0,0,0,0,0,0,0,-1,1329,694,0,0
112,330,0,0,0,0,0,0,0,0,0,-1,1336,694,0,0
119,330,0,0,0,0,0,0,0,0,0,-1,1343,694,0,0
126,330,0,0,0,0,0,0,0,0,0,-1,1350,694,0,0
133,330,0,0,0,0,0,0,0,0,0,-1,1357,694,0,0
140,330,0,0,0,0,0,0,0,0,0,-1,1364,694,0,0
147,330,0,0,0,0,0,0,0,0,0,-1,1371,694,0,0
154,330,0,0,0,0,0,0,0,0,0,-1,1378,694,0,0
161,330,0,0,0,0,0,0,0,0,0,-1,1385,694,0,0
168,330,0,0,0,0,0,0,0,0,0,-1,1392,694,0,0
175,330,0,0,0,0,0,0,0,0,0,-1,1399,694,0,0
182,330,0,0,0,0,0,0,0,0,0,-1,1406,694,0,0
189,330,0,0,0,0,0,0,0,0,0,-1,1413,694,0,0
196,330,0,0,0,0,0,0,0,0,0,-1,1420,694,0,0
203,330,0,0,0,0,0,0,0,0,0,-1,1427,694,0,0
210,330,0,0,0,0,0,0,0,0,0,-1,1434,694,0,0
217,330,0,0,0,0,0,0,0,0,0,-1,1441,694,0,0
224,330,0,0,0,0,0,0,0,0,0,-1,1448,694,0,0
231,330,0,0,0,0,0,0,0,0,0,-1,1455,694,0,0
238,330,0,0,0,0,0,0,0,0,0,-1,1462,694,0,0
245,330,0,0,0,0,0,0,0,0,0,-1,1469,694,0,0
252,330,0,0,0,0,0,0,0,0,0,-1,1476,694,0,0
259,330,0,0,0,0,0,0,0,0,0,-1,1483,694,0,0
266,330,0,0,0,0,0,0,0,0,0,-1,1490,694,0,0
273,330,0,0,0,0,0,0,0,0,0,-1,1497,694,0,0
280,330,0,0,0,0,0,0,0,0,0,-1,1504,694,0,0
287,330,0,0,0,0,0,0,0,0,0,-1,1511,694,0,0
294,330,0,0,0,0,0,0,0,0,0,-1,1518,694,0,0
301,330,0,0,0,0,0,0,0,0,0,-1,1525,694,0,0
308,330,0,0,0,0,0,0,0,0,0,-1,1532,694,0,0
315,330,0,0,0,0,0,0,0,0,0,-1,1539,694,0,0
322,330,0,0,0,0,0,0,0,0,0,-1,1546,694,0,0
329,330,0,0,0,0,0,0,0,0,0,-1,1553,694,0,0
336,330,0,0,0,0,0,0,0,0,0,-1,1560,694,0,0
343,330,0,0,0,0,0,0,0,0,0,-1,1567,694,0,0
350,330,0,0,0,0,0,0,0,0,0,-1,1574,694,0,0
357,330,0,0,0,0,0,0,0,0,0,-1,1581,694,0,0
364,330,0,0,0,0,0,0,0,0,0,-1,1588,694,0,0
371,330,0,0,0,0,0,0,0,0,0,-1,1595,694,0,0
378,330,0,0,0,0,0,0,0,0,0,-1,1602,694,0,0
385,330,0,0,0,0,0,0,0,0,0,-1,1609,694,0,0
392,330,0,0,0,0,0,0,0,0,0,-1,1616,694,0,0
399,330,0,0,0,0,0,0,0,0,0,-1,1623,694,0,0
406,330,0,0,0,0,0,0,0,0,0,-1,1630,694,0,0
413,330,0,0,0,0,0,0,0,0,0,-1,1637,694,0,0
420,330,0,0,0,0,0,0,0,0,0,-1,1644,694,0,0
427,330,0,0,0,0,0,0,0,0,0,-1,1651,694,0,0
434,330,0,0,0,0,0,0,0,0,0,-1,1658,694,0,0
441,330,0,0,0,0,0,0,0,0,0,-1,1665,694,0,0
448,330,0,0,0,0,0,0,0,0,0,-1,1672,694,0,0
455,330,0,0,0,0,0,0,0,0,0,-1,1679,694,0,0
462,330,0,0,0,0,0,0,0,0,0,-1,1686,694,0,0
469,330,0,0,0,0,0,0,0,0,0,-1,1693,694,0,0
476,330,0,0,0,0,0,0,0,0,0,-1,1700,694,0,0
483,330,0,0,0,0,0,0,0,0,0,-1,1707,694,0,0
490,330,0,0,0,0,0,0,0,0,0,-1,1714,694,0,0
497,330,0,0,0,0,0,0,0,0,0,-1,1721,694,0,0
504,330,0,0,0,0,0,0,0,0,0,-1,1728,694,0,0
511,330,0,0,0,0,0,0,0,0,0,-1,1735,694,0,0
518,330,0,0,0,0,0,0,0,0,0,-1,1742,694,0,0
525,330,30.6694,0.69519,0,0,0,0,0,0,0,-1,1749,694,30.6694,-0.695206
532,330,30.9469,1.32501,0,0,0,0,0,0,0,-1,1756,694,30.9469,-1.32501
539,330,31.5155,1.62506,0,0,0,0,0,0,0,-1,1763,694,31.5155,-1.62507
546,330,31.4187,1.85651,0,0,0,0,0,0,0,-1,1770,694,31.4187,-1.85651
553,330,31.8452,1.81476,0,0,0,0,0,0,0,-1,1777,694,31.8452,-1.81475
560,330,32.2401,2.43225,0,0,0,0,0,0,0,-1,1784,694,32.2401,-2.43227
567,330,18.0321,3.98578,0,0,0,0,0,0,0,-1,1791,694,18.0321,-3.98576
574,330,12.0454,2.1662,0,0,0,0,0,0,0,-1,1798,694,12.0455,-2.16618
581,330,11.4215,4.50836,0,0,0,0,0,0,0,-1,1805,694,11.4215,-4.50837
588,330,6.45667,-0.0630493,0,0,0,0,0,0,0,-1,1812,694,6.45661,0.0630695
595,330,79.1702,-27.7747,0,0,0,0,0,0,0,-1,1819,694,79.1702,27.7747
602,330,88.7308,-30.3799,0,0,0,0,0,0,0,-1,1826,694,88.7308,30.38
609,330,138.373,-22.5932,0,0,0,0,0,0,0,-1,1833,694,138.373,22.5932
616,330,137.587,-19.1301,-0.000901223,0.0163365,-0.00562969,0.0180122,-0.00257693,-1.28149,0.0129528,0.0440386,1840,694,137.587,19.13
623,330,136.877,-15.6785,-0.000351014,0.0177537,-0.00974919,0.0220052,-0.00460249,-1.15957,0.0164207,0.0199821,1847,694,136.877,15.6784
630,330,136.11,-12.4656,0.000248983,0.0194731,-0.013869,0.0267353,-0.00701317,-1.08843,0.0205638,0.0212749,1854,694,136.11,12.4656
637,330,135.287,-9.33405,0.000895293,0.02142,-0.0178995,0.0317903,-0.0094751,-1.04569,0.0249588,0.0187972,1861,694,135.287,9.33404
644,330,134.582,-6.2757,0.00166135,0.0235971,-0.0218201,0.0370508,-0.0117923,-1.01828,0.0294296,0.0149003,1868,694,134.582,6.27569
651,330,133.85,-3.34943,0.00254823,0.0260284,-0.0256321,0.0424811,-0.0139044,-1.00015,0.0339192,0.0205499,1875,694,133.85,3.34942
658,330,133.223,-0.359375,0.00355017,0.0286746,-0.0292828,0.047976,-0.0157513,-0.988023,0.0383289,0.0199549,1882,694,133.223,0.359398
665,330,132.576,2.61554,0.00477276,0.0317178,-0.0327281,0.0536379,-0.0171473,-0.980653,0.0426396,0.0176035,1889,694,132.576,-2.61552
672,330,132.178,5.67548,0,0,0,0,0,0,0,-1,1896,694,132.178,-5.67548
679,330,59.6794,-2.67194,0,0,0,0,0,0,0,-1,1903,694,59.6795,2.67195
686,330,30.6691,0.582825,0,0,0,0,0,0,0,-1,1910,694,30.6691,-0.582798
693,330,17.3999,2.5976,0,0,0,0,0,0,0,-1,1917,694,17.4,-2.59759
700,330,17.1072,4.13,0,0,0,0,0,0,0,-1,1924,694,17.1071,-4.13002
707,330,16.663,4.88672,0,0,0,0,0,0,0,-1,1931,694,16.6629,-4.88673
714,330,16.5454,5.80896,0,0,0,0,0,0,0,-1,1938,694,16.5454,-5.80899
721,330,0,0,0,0,0,0,0,0,0,-1,1945,694,0,0
728,330,0,0,0,0,0,0,0,0,0,-1,1952,694,0,0
735,330,0,0,0,0,0,0,0,0,0,-1,1959,694,0,0
742,330,0,0,0,0,0,0,0,0,0,-1,1966,694,0,0
749,330,0,0,0,0,0,0,0,0,0,-1,1973,694,0,0
756,330,0,0,0,0,0,0,0,0,0,-1,1980,694,0,0
763,330,0,0,0,0,0,0,0,0,0,-1,1987,694,0,0
770,330,0,0,0,0,0,0,0,0,0,-1,1994,694,0,0
777,330,0,0,0,0,0,0,0,0,0,-1,2001,694,0,0
784,330,0,0,0,0,0,0,0,0,0,-1,2008,694,0,0
791,330,0,0,0,0,0,0,0,0,0,-1,2015,694,0,0
798,330,0,0,0,0,0,0,0,0,0,-1,2022,694,0,0
805,330,0,0,0,0,0,0,0,0,0,-1,2029,694,0,0
812,330,0,0,0,0,0,0,0,0,0,-1,2036,694,0,0
-700,323,0,0,0,0,0,0,0,0,0,-1,524,701,0,0
-693,323,0,0,0,0,0,0,0,0,0,-1,531,701,0,0
-686,323,0,0,0,0,0,0,0,0,0,-1,538,701,0,0
-679,323,0,0,0,0,0,0,0,0,0,-1,545,701,0,0
-672,323,0,0,0,0,0,0,0,0,0,-1,552,701,0,0
-665,323,0,0,0,0,0,0,0,0,0,-1,559,701,0,0
-658,323,0,0,0,0,0,0,0,0,0,-1,566,701,0,0
-651,323,0,0,0,0,0,0,0,0,0,-1,573,701,0,0
-644,323,0,0,0,0,0,0,0,0,0,-1,580,701,0,0
-637,323,0,0,0,0,0,0,0,0,0,-1,587,701,0,0
-630,323,0,0,0,0,0,0,0,0,0,-1,594,701,0,0
-623,323,0,0,0,0,0,0,0,0,0,-1,601,701,0,0
-616,323,0,0,0,0,0,0,0,0,0,-1,608,701,0,0
-609,323,0,0,0,0,0,0,0,0,0,-1,615,701,0,0
-602,323,-4.15833,2.12256,0,0,0,0,0,0,0,-1,622,701,-4.1583,-2.12257
-595,323,-4.052,1.79156,0,0,0,0,0,0,0,-1,629,701,-4.05198,-1.79158
-588,323,-4.07019,1.94543,0,0,0,0,0,0,0,-1,636,701,-4.07019,-1.94542
-581,323,-6.63727,0.562805,0,0,0,0,0,0,0,-1,643,701,-6.63728,-0.56279
-574,323,-6.15887,0.426697,0,0,0,0,0,0,0,-1,650,701,-6.15887,-0.426727
-567,323,-10.0015,0.0371094,0,0,0,0,0,0,0,-1,657,701,-10.0015,-0.037126
-560,323,-16.3503,-1.16956,0,0,0,0,0,0,0,-1,664,701,-16.3503,1.16957
-553,323,-124.755,11.1439,0,0,0,0,0,0,0,-1,671,701,-124.755,-11.1439
-546,323,-125.242,8.56635,0.0123286,0.0430898,0.0384898,0.0691583,-0.0137399,0.975479,0.0513025,0.0423518,678,701,-125.242,-8.56637
-539,323,-125.813,5.80426,0.0108462,0.0393474,0.0343624,0.062297,-0.0121033,0.981962,0.0460985,0.0326807,685,701,-125.813,-5.80425
-532,323,-126.458,2.89813,0.00941091,0.0353716,0.0306032,0.0556335,-0.010851,0.985973,0.0411852,0.0174022,692,701,-126.458,-2.89813
-525,323,-127.046,-0.00354004,0.0077982,0.0315041,0.0270418,0.0491766,-0.00987427,0.991947,0.0365235,0.0120345,699,701,-127.046,0.00355482
-518,323,-127.658,-3.07587,0.00599863,0.0280665,0.0236363,0.0431174,-0.00905233,1.00378,0.0321895,0.0127802,706,701,-127.658,3.07587
-511,323,-128.357,-6.18457,0.00401587,0.0247852,0.0204648,0.0373494,-0.0085483,1.02019,0.0281845,0.0160616,713,701,-128.357,6.18456
-504,323,-129.08,-9.32532,0.0018215,0.0217656,0.0174747,0.0319134,-0.00832629,1.04468,0.0245268,0.0183139,720,701,-129.08,9.32532
-497,323,-129.834,-12.5059,-0.00049839,0.019177,0.0146772,0.0270085,-0.00832988,1.08064,0.0213315,0.0198463,727,701,-129.834,12.5059
-490,323,-130.585,-15.7979,-0.00314602,0.0169491,0.0122491,0.0227443,-0.00894126,1.12889,0.0188634,0.0379524,734,701,-130.585,15.7978
-483,323,-131.252,-19.2385,0,0,0,0,0,0,0,-1,741,701,-131.252,19.2385
-476,323,-86.7814,-28.3901,0,0,0,0,0,0,0,-1,748,701,-86.7815,28.3902
-469,323,-8.33301,-3.64001,0,0,0,0,0,0,0,-1,755,701,-8.33298,3.64
-462,323,-5.29431,-1.45697,0,0,0,0,0,0,0,-1,762,701,-5.29431,1.45699
-455,323,-5.0658,-1.36639,0,0,0,0,0,0,0,-1,769,701,-5.06578,1.3664
-448,323,-4.91608,-1.59601,0,0,0,0,0,0,0,-1,776,701,-4.91606,1.59604
-441,323,-14.4006,0.535217,0,0,0,0,0,0,0,-1,783,701,-14.4006,-0.535203
-434,323,-15.3158,2.479,0,0,0,0,0,0,0,-1,790,701,-15.3158,-2.47898
-427,323,-28.3923,1.16797,0,0,0,0,0,0,0,-1,797,701,-28.3923,-1.16796
-420,323,-28.7292,1.09302,0,0,0,0,0,0,0,-1,804,701,-28.7292,-1.09304
-413,323,-28.7955,1.22418,0,0,0,0,0,0,0,-1,811,701,-28.7956,-1.22419
-406,323,0,0,0,0,0,0,0,0,0,-1,818,701,0,0
-399,323,0,0,0,0,0,0,0,0,0,-1,825,701,0,0
-392,323,0,0,0,0,0,0,0,0,0,-1,832,701,0,0
-385,323,0,0,0,0,0,0,0,0,0,-1,839,701,0,0
-378,323,0,0,0,0,0,0,0,0,0,-1,846,701,0,0
-371,323,0,0,0,0,0,0,0,0,0,-1,853,701,0,0
-364,323,0,0,0,0,0,0,0,0,0,-1,860,701,0,0
-357,323,0,0,0,0,0,0,0,0,0,-1,867,701,0,0
-350,323,0,0,0,0,0,0,0,0,0,-1,874,701,0,0
-343,323,0,0,0,0,0,0,0,0,0,-1,881,701,0,0
-336,323,0,0,0,0,0,0,0,0,0,-1,888,701,0,0
-329,323,0,0,0,0,0,0,0,0,0,-1,895,701,0,0
-322,323,0,0,0,0,0,0,0,0,0,-1,902,701,0,0
-315,323,0,0,0,0,0,0,0,0,0,-1,909,701,0,0
-308,323,0,0,0,0,0,0,0,0,0,-1,916,701,0,0
-301,323,0,0,0,0,0,0,0,0,0,-1,923,701,0,0
-294,323,0,0,0,0,0,0,0,0,0,-1,930,701,0,0
-287,323,0,0,0,0,0,0,0,0,0,-1,937,701,0,0
-280,323,0,0,0,0,0,0,0,0,0,-1,944,701,0,0
-273,323,0,0,0,0,0,0,0,0,0,-1,951,701,0,0
-266,323,0,0,0,0,0,0,0,0,0,-1,958,701,0,0
-259,323,0,0,0,0,0,0,0,0,0,-1,965,701,0,0
-252,323,0,0,0,0,0,0,0,0,0,-1,972,701,0,0
-245,323,0,0,0,0,0,0,0,0,0,-1,979,701,0,0
-238,323,0,0,0,0,0,0,0,0,0,-1,986,701,0,0
-231,323,0,0,0,0,0,0,0,0,0,-1,993,701,0,0
-224,323,0,0,0,0,0,0,0,0,0,-1,1000,701,0,0
-217,323,0,0,0,0,0,0,0,0,0,-1,1007,701,0,0
-210,323,0,0,0,0,0,0,0,0,0,-1,1014,701,0,0
-203,323,0,0,0,0,0,0,0,0,0,-1,1021,701,0,0
-196,323,0,0,0,0,0,0,0,0,0,-1,1028,701,0,0
-189,323,0,0,0,0,0,0,0,0,0,-1,1035,701,0,0
-182,323,0,0,0,0,0,0,0,0,0,-1,1042,701,0,0
-175,323,0,0,0,0,0,0,0,0,0,-1,1049,701,0,0
-168,323,0,0,0,0,0,0,0,0,0,-1,1056,701,0,0
-161,323,0,0,0,0,0,0,0,0,0,-1,1063,701,0,0
-154,323,0,0,0,0,0,0,0,0,0,-1,1070,701,0,0
-147,323,0,0,0,0,0,0,0,0,0,-1,1077,701,0,0
-140,323,0,0,0,0,0,0,0,0,0,-1,1084,701,0,0
-133,323,0,0,0,0,0,0,0,0,0,-1,1091,701,0,0
-126,323,0,0,0,0,0,0,0,0,0,-1,1098,701,0,0
-119,323,0,0,0,0,0,0,0,0,0,-1,1105,701,0,0
-112,323,0,0,0,0,0,0,0,0,0,-1,1112,701,0,0
-105,323,0,0,0,0,0,0,0,0,0,-1,1119,701,0,0
-98,323,0,0,0,0,0,0,0,0,0,-1,1126,701,0,0
-91,323,0,0,0,0,0,0,0,0,0,-1,1133,701,0,0
-84,323,0,0,0,0,0,0,0,0,0,-1,1140,701,0,0
-77,323,0,0,0,0,0,0,0,0,0,-1,1147,701,0,0
-70,323,0,0,0,0,0,0,0,0,0,-1,1154,701,0,0
-63,323,0,0,0,0,0,0,0,0,0,-1,1161,701,0,0
-56,323,0,0,0,0,0,0,0,0,0,-1,1168,701,0,0
-49,323,0,0,0,0,0,0,0,0,0,-1,1175,701,0,0
-42,323,0,0,0,0,0,0,0,0,0,-1,1182,701,0,0
-35,323,0,0,0,0,0,0,0,0,0,-1,1189,701,0,0
-28,323,0,0,0,0,0,0,0,0,0,-1,1196,701,0,0
-21,323,0,0,0,0,0,0,0,0,0,-1,1203,701,0,0
-14,323,0,0,0,0,0,0,0,0,0,-1,1210,701,0,0
-7,323,0,0,0,0,0,0,0,0,0,-1,1217,701,0,0
0,323,0,0,0,0,0,0,0,0,0,-1,1224,701,0,0
7,323,0,0,0,0,0,0,0,0,0,-1,1231,701,0,0
14,323,0,0,0,0,0,0,0,0,0,-1,1238,701,0,0
21,323,0,0,0,0,0,0,0,0,0,-1,1245,701,0,0
28,323,0,0,0,0,0,0,0,0,0,-1,1252,701,0,0
35,323,0,0,0,0,0,0,0,0,0,-1,1259,701,0,0
42,323,0,0,0,0,0,0,0,0,0,-1,1266,701,0,0
49,323,0,0,0,0,0,0,0,0,0,-1,1273,701,0,0
56,323,0,0,0,0,0,0,0,0,0,-1,1280,701,0,0
63,323,0,0,0,0,0,0,0,0,0,-1,1287,701,0,0
70,323,0,0,0,0,0,0,0,0,0,-1,1294,701,0,0
77,323,0,0,0,0,0,0,0,0,0,-1,1301,701,0,0
84,323,0,0,0,0,0,0,0,0,0,-1,1308,701,0,0
91,323,0,0,0,0,0,0,0,0,0,-1,1315,701,0,0
98,323,0,0,0,0,0,0,0,0,0,-1,1322,701,0,0
105,323,0,0,0,0,0,0,0,0,0,-1,1329,701,0,0
112,323,0,0,0,0,0,0,0,0,0,-1,1336,701,0,0
119,323,0,0,0,0,0,0,0,0,0,-1,1343,701,0,0
126,323,0,0,0,0,0,0,0,0,0,-1,1350,701,0,0
133,323,0,0,0,0,0,0,0,0,0,-1,1357,701,0,0
140,323,0,0,0,0,0,0,0,0,0,-1,1364,701,0,0
147,323,0,0,0,0,0,0,0,0,0,-1,1371,701,0,0
154,323,0,0,0,0,0,0,0,0,0,-1,1378,701,0,0
161,323,0,0,0,0,0,0,0,0,0,-1,1385,701,0,0
168,323,0,0,0,0,0,0,0,0,0,-1,1392,701,0,0
175,323,0,0,0,0,0,0,0,0,0,-1,1399,701,0,0
182,323,0,0,0,0,0,0,0,0,0,-1,1406,701,0,0
189,323,0,0,0,0,0,0,0,0,0,-1,1413,701,0,0
196,323,0,0,0,0,0,0,0,0,0,-1,1420,701,0,0
203,323,0,0,0,0,0,0,0,0,0,-1,1427,701,0,0
210,323,0,0,0,0,0,0,0,0,0,-1,1434,701,0,0
217,323,0,0,0,0,0,0,0,0,0,-1,1441,701,0,0
224,323,0,0,0,0,0,0,0,0,0,-1,1448,701,0,0
231,323,0,0,0,0,0,0,0,0,0,-1,1455,701,0,0
238,323,0,0,0,0,0,0,0,0,0,-1,1462,701,0,0
245,323,0,0,0,0,0,0,0,0,0,-1,1469,701,0,0
252,323,0,0,0,0,0,0,0,0,0,-1,1476,701,0,0
259,323,0,0,0,0,0,0,0,0,0,-1,1483,701,0,0
266,323,0,0,0,0,0,0,0,0,0,-1,1490,701,0,0
273,323,0,0,0,0,0,0,0,0,0,-1,1497,701,0,0
280,323,0,0,0,0,0,0,0,0,0,-1,1504,701,0,0
287,323,0,0,0,0,0,0,0,0,0,-1,1511,701,0,0
294,323,0,0,0,0,0,0,0,0,0,-1,1518,701,0,0
301,323,0,0,0,0,0,0,0,0,0,-1,1525,701,0,0
308,323,0,0,0,0,0,0,0,0,0,-1,1532,701,0,0
315,323,0,0,0,0,0,0,0,0,0,-1,1539,701,0,0
322,323,0,0,0,0,0,0,0,0,0,-1,1546,701,0,0
329,323,0,0,0,0,0,0,0,0,0,-1,1553,701,0,0
336,323,0,0,0,0,0,0,0,0,0,-1,1560,701,0,0
343,323,0,0,0,0,0,0,0,0,0,-1,1567,701,0,0
350,323,0,0,0,0,0,0,0,0,0,-1,1574,701,0,0
357,323,0,0,0,0,0,0,0,0,0,-1,1581,701,0,0
364,323,0,0,0,0,0,0,0,0,0,-1,1588,701,0,0
371,323,0,0,0,0,0,0,0,0,0,-1,1595,701,0,0
378,323,0,0,0,0,0,0,0,0,0,-1,1602,701,0,0
385,323,0,0,0,0,0,0,0,0,0,-1,1609,701,0,0
392,323,0,0,0,0,0,0,0,0,0,-1,1616,701,0,0
399,323,0,0,0,0,0,0,0,0,0,-1,1623,701,0,0
406,323,0,0,0,0,0,0,0,0,0,-1,1630,701,0,0
413,323,0,0,0,0,0,0,0,0,0,-1,1637,701,0,0
420,323,0,0,0,0,0,0,0,0,0,-1,1644,701,0,0
427,323,0,0,0,0,0,0,0,0,0,-1,1651,701,0,0
434,323,0,0,0,0,0,0,0,0,0,-1,1658,701,0,0
441,323,0,0,0,0,0,0,0,0,0,-1,1665,701,0,0
448,323,0,0,0,0,0,0,0,0,0,-1,1672,701,0,0
455,323,0,0,0,0,0,0,0,0,0,-1,1679,701,0,0
462,323,0,0,0,0,0,0,0,0,0,-1,1686,701,0,0
469,323,0,0,0,0,0,0,0,0,0,-1,1693,701,0,0
476,323,0,0,0,0,0,0,0,0,0,-1,1700,701,0,0
483,323,0,0,0,0,0,0,0,0,0,-1,1707,701,0,0
490,323,0,0,0,0,0,0,0,0,0,-1,1714,701,0,0
497,323,0,0,0,0,0,0,0,0,0,-1,1721,701,0,0
504,323,0,0,0,0,0,0,0,0,0,-1,1728,701,0,0
511,323,0,0,0,0,0,0,0,0,0,-1,1735,701,0,0
518,323,0,0,0,0,0,0,0,0,0,-1,1742,701,0,0
525,323,0,0,0,0,0,0,0,0,0,-1,1749,701,0,0
532,323,33.6193,1.69446,0,0,0,0,0,0,0,-1,1756,701,33.6193,-1.69444
539,323,32.2698,2.44037,0,0,0,0,0,0,0,-1,1763,701,32.2697,-2.44036
546,323,31.1644,3.9444,0,0,0,0,0,0,0,-1,1770,701,31.1644,-3.94438
553,323,30.2488,5.8775,0,0,0,0,0,0,0,-1,1777,701,30.2487,-5.87752
560,323,40.6711,1.25153,0,0,0,0,0,0,0,-1,1784,701,40.6711,-1.25154
567,323,42.1637,2.01208,0,0,0,0,0,0,0,-1,1791,701,42.1637,-2.01207
574,323,12.514,5.89685,0,0,0,0,0,0,0,-1,1798,701,12.5141,-5.89683
581,323,11.821,5.3476,0,0,0,0,0,0,0,-1,1805,701,11.821,-5.34762
588,323,11.7933,7.00818,0,0,0,0,0,0,0,-1,1812,701,11.7933,-7.00819
595,323,6.67847,0.06604,0,0,0,0,0,0,0,-1,1819,701,6.67841,-0.0660418
602,323,82.4321,-26.4705,0,0,0,0,0,0,0,-1,1826,701,82.4321,26.4705
609,323,136.009,-22.1287,0,0,0,0,0,0,0,-1,1833,701,136.009,22.1287
616,323,140.959,-18.2204,0,0,0,0,0,0,0,-1,1840,701,140.959,18.2204
623,323,140.227,-14.9828,-0.000822656,0.0167331,-0.00579834,0.0184752,-0.00256485,-1.27891,0.0132548,0.0247202,1847,701,140.227,14.9829
630,323,139.431,-11.7448,-0.000413871,0.0183417,-0.0101241,0.0227639,-0.00483608,-1.15897,0.0170185,0.0205511,1854,701,139.431,11.7448
637,323,138.661,-8.59796,8.55094e-05,0.0202353,-0.0143307,0.0276782,-0.00735739,-1.09178,0.0213318,0.0154383,1861,701,138.661,8.59795
644,323,138.002,-5.56647,0.000737119,0.0223742,-0.0183597,0.0328658,-0.00975446,-1.05164,0.0257846,0.0117602,1868,701,138.002,5.56649
651,323,137.328,-2.57031,0.00153805,0.0248472,-0.0222536,0.0383134,-0.0119281,-1.02662,0.030311,0.01712,1875,701,137.328,2.57033
658,323,136.657,0.433167,0.00242209,0.0275683,-0.0259621,0.0438416,-0.0138512,-1.0109,0.0347767,0.0237405,1882,701,136.657,-0.433196
665,323,135.982,3.28186,0.00343858,0.030669,-0.0294496,0.0494983,-0.0153908,-1.00192,0.0391509,0.0201987,1889,701,135.982,-3.28184
672,323,135.481,6.15497,0.00487257,0.0341175,-0.0325638,0.0551912,-0.0162012,-0.996426,0.0432189,0.0413411,1896,701,135.481,-6.15499
679,323,135.006,9.26575,0,0,0,0,0,0,0,-1,1903,701,135.006,-9.26577
686,323,30.4916,0.378235,0,0,0,0,0,0,0,-1,1910,701,30.4916,-0.37825
693,323,23.8806,1.08844,0,0,0,0,0,0,0,-1,1917,701,23.8806,-1.08845
700,323,10.7705,0.828613,0,0,0,0,0,0,0,-1,1924,701,10.7705,-0.828591
707,323,16.9005,4.79193,0,0,0,0,0,0,0,-1,1931,701,16.9005,-4.7919
714,323,16.2346,6.25958,0,0,0,0,0,0,0,-1,1938,701,16.2346,-6.25956
721,323,0,0,0,0,0,0,0,0,0,-1,1945,701,0,0
728,323,0,0,0,0,0,0,0,0,0,-1,1952,701,0,0
735,323,0,0,0,0,0,0,0,0,0,-1,1959,701,0,0
742,323,0,0,0,0,0,0,0,0,0,-1,1966,701,0,0
749,323,0,0,0,0,0,0,0,0,0,-1,1973,701,0,0
756,323,0,0,0,0,0,0,0,0,0,-1,1980,701,0,0
763,323,0,0,0,0,0,0,0,0,0,-1,1987,701,0,0
770,323,0,0,0,0,0,0,0,0,0,-1,1994,701,0,0
777,323,0,0,0,0,0,0,0,0,0,-1,2001,701,0,0
784,323,0,0,0,0,0,0,0,0,0,-1,2008,701,0,0
791,323,0,0,0,0,0,0,0,0,0,-1,2015,701,0,0
798,323,0,0,0,0,0,0,0,0,0,-1,2022,701,0,0
805,323,0,0,0,0,0,0,0,0,0,-1,2029,701,0,0
812,323,0,0,0,0,0,0,0,0,0,-1,2036,701,0,0
-700,316,0,0,0,0,0,0,0,0,0,-1,524,708,0,0
-693,316,0,0,0,0,0,0,0,0,0,-1,531,708,0,0
-686,316,0,0,0,0,0,0,0,0,0,-1,538,708,0,0
-679,316,0,0,0,0,0,0,0,0,0,-1,545,708,0,0
-672,316,0,0,0,0,0,0,0,0,0,-1,552,708,0,0
-665,316,0,0,0,0,0,0,0,0,0,-1,559,708,0,0
-658,316,0,0,0,0,0,0,0,0,0,-1,566,708,0,0
-651,316,0,0,0,0,0,0,0,0,0,-1,573,708,0,0
-644,316,0,0,0,0,0,0,0,0,0,-1,580,708,0,0
-637,316,0,0,0,0,0,0,0,0,0,-1,587,708,0,0
-630,316,0,0,0,0,0,0,0,0,0,-1,594,708,0,0
-623,316,0,0,0,0,0,0,0,0,0,-1,601,708,0,0
-616,316,0,0,0,0,0,0,0,0,0,-1,608,708,0,0
-609,316,0,0,0,0,0,0,0,0,0,-1,615,708,0,0
-602,316,-0.451782,-0.0494995,0,0,0,0,0,0,0,-1,622,708,-0.451768,0.0495022
-595,316,-3.3761,2.17188,0,0,0,0,0,0,0,-1,629,708,-3.37609,-2.17189
-588,316,-5.00177,2.60675,0,0,0,0,0,0,0,-1,636,708,-5.00175,-2.60676
-581,316,-3.94653,0.393433,0,0,0,0,0,0,0,-1,643,708,-3.94655,-0.39342
-574,316,-9.67395,1.06067,0,0,0,0,0,0,0,-1,650,708,-9.67396,-1.06065
-567,316,-10.1962,0.448425,0,0,0,0,0,0,0,-1,657,708,-10.1962,-0.448411
-560,316,-18.9941,-1.75067,0,0,0,0,0,0,0,-1,664,708,-18.9941,1.75068
-553,316,-128.314,12.0912,0,0,0,0,0,0,0,-1,671,708,-128.314,-12.0913
-546,316,-128.802,9.22266,0.0092791,0.0408059,0.0355716,0.0639503,-0.0138654,0.993968,0.0479286,0.0423972,678,708,-128.802,-9.22264
-539,316,-129.335,6.28381,0.00826952,0.03719,0.0314656,0.057359,-0.0118995,1.00078,0.0427613,0.0176261,685,708,-129.335,-6.28379
-532,316,-129.905,3.42505,0.0070416,0.0334102,0.0276692,0.0508757,-0.0104239,1.00773,0.037873,0.0143689,692,708,-129.905,-3.42503
-525,316,-130.417,0.561707,0.00552399,0.0297941,0.0240611,0.0446071,-0.00928903,1.01896,0.0332695,0.0139975,699,708,-130.417,-0.561702
-518,316,-131.093,-2.40985,0.00375422,0.0264311,0.0206564,0.0386564,-0.00847106,1.0364,0.0290098,0.0130811,706,708,-131.093,2.40987
-511,316,-131.749,-5.46271,0.00171006,0.0232063,0.017483,0.0329808,-0.00806446,1.061,0.0251108,0.0134351,713,708,-131.749,5.46273
-504,316,-132.478,-8.63306,-0.000605025,0.0202849,0.0144808,0.0276946,-0.00801475,1.09784,0.0216353,0.0208576,720,708,-132.478,8.63305
-497,316,-133.238,-11.7219,-0.00310879,0.0178212,0.0116391,0.0230081,-0.00829577,1.15156,0.0187269,0.0251524,727,708,-133.238,11.7219
-490,316,-134.151,-14.8298,0,0,0,0,0,0,0,-1,734,708,-134.151,14.8298
-483,316,-133.161,-18.4009,0,0,0,0,0,0,0,-1,741,708,-133.161,18.4009
-476,316,-8.90894,-3.31207,0,0,0,0,0,0,0,-1,748,708,-8.90896,3.31206
-469,316,-6.24194,-1.42725,0,0,0,0,0,0,0,-1,755,708,-6.24192,1.42725
-462,316,-5.74237,-1.40039,0,0,0,0,0,0,0,-1,762,708,-5.74238,1.40039
-455,316,-5.44745,-1.21899,0,0,0,0,0,0,0,-1,769,708,-5.44746,1.21898
-448,316,-14.8945,0.655396,0,0,0,0,0,0,0,-1,776,708,-14.8946,-0.655396
-441,316,-14.9626,0.576111,0,0,0,0,0,0,0,-1,783,708,-14.9626,-0.576115
-434,316,-27.7723,1.15576,0,0,0,0,0,0,0,-1,790,708,-27.7723,-1.15579
-427,316,-28.0504,1.31427,0,0,0,0,0,0,0,-1,797,708,-28.0504,-1.31427
-420,316,-28.198,1.62891,0,0,0,0,0,0,0,-1,804,708,-28.198,-1.62889
-413,316,0,0,0,0,0,0,0,0,0,-1,811,708,0,0
-406,316,0,0,0,0,0,0,0,0,0,-1,818,708,0,0
-399,316,0,0,0,0,0,0,0,0,0,-1,825,708,0,0
-392,316,0,0,0,0,0,0,0,0,0,-1,832,708,0,0
-385,316,0,0,0,0,0,0,0,0,0,-1,839,708,0,0
-378,316,0,0,0,0,0,0,0,0,0,-1,846,708,0,0
-371,316,0,0,0,0,0,0,0,0,0,-1,853,708,0,0
-364,316,0,0,0,0,0,0,0,0,0,-1,860,708,0,0
-357,316,0,0,0,0,0,0,0,0,0,-1,867,708,0,0
-350,316,0,0,0,0,0,0,0,0,0,-1,874,708,0,0
-343,316,0,0,0,0,0,0,0,0,0,-1,881,708,0,0
-336,316,0,0,0,0,0,0,0,0,0,-1,888,708,0,0
-329,316,0,0,0,0,0,0,0,0,0,-1,895,708,0,0
-322,316,0,0,0,0,0,0,0,0,0,-1,902,708,0,0
-315,316,0,0,0,0,0,0,0,0,0,-1,909,708,0,0
-308,316,0,0,0,0,0,0,0,0,0,-1,916,708,0,0
-301,316,0,0,0,0,0,0,0,0,0,-1,923,708,0,0
-294,316,0,0,0,0,0,0,0,0,0,-1,930,708,0,0
-287,316,0,0,0,0,0,0,0,0,0,-1,937,708,0,0
-280,316,0,0,0,0,0,0,0,0,0,-1,944,708,0,0
-273,316,0,0,0,0,0,0,0,0,0,-1,951,708,0,0
-266,316,0,0,0,0,0,0,0,0,0,-1,958,708,0,0
-259,316,0,0,0,0,0,0,0,0,0,-1,965,708,0,0
-252,316,0,0,0,0,0,0,0,0,0,-1,972,708,0,0
-245,316,0,0,0,0,0,0,0,0,0,-1,979,708,0,0
-238,316,0,0,0,0,0,0,0,0,0,-1,986,708,0,0
-231,316,0,0,0,0,0,0,0,0,0,-1,993,708,0,0
-224,316,0,0,0,0,0,0,0,0,0,-1,1000,708,0,0
-217,316,0,0,0,0,0,0,0,0,0,-1,1007,708,0,0
-210,316,0,0,0,0,0,0,0,0,0,-1,1014,708,0,0
-203,316,0,0,0,0,0,0,0,0,0,-1,1021,708,0,0
-196,316,0,0,0,0,0,0,0,0,0,-1,1028,708,0,0
-189,316,0,0,0,0,0,0,0,0,0,-1,1035,708,0,0
-182,316,0,0,0,0,0,0,0,0,0,-1,1042,708,0,0
-175,316,0,0,0,0,0,0,0,0,0,-1,1049,708,0,0
-168,316,0,0,0,0,0,0,0,0,0,-1,1056,708,0,0
-161,316,0,0,0,0,0,0,0,0,0,-1,1063,708,0,0
-154,316,0,0,0,0,0,0,0,0,0,-1,1070,708,0,0
-147,316,0,0,0,0,0,0,0,0,0,-1,1077,708,0,0
-140,316,0,0,0,0,0,0,0,0,0,-1,1084,708,0,0
-133,316,0,0,0,0,0,0,0,0,0,-1,1091,708,0,0
-126,316,0,0,0,0,0,0,0,0,0,-1,1098,708,0,0
-119,316,0,0,0,0,0,0,0,0,0,-1,1105,708,0,0
-112,316,0,0,0,0,0,0,0,0,0,-1,1112,708,0,0
-105,316,0,0,0,0,0,0,0,0,0,-1,1119,708,0,0
-98,316,0,0,0,0,0,0,0,0,0,-1,1126,708,0,0
-91,316,0,0,0,0,0,0,0,0,0,-1,1133,708,0,0
-84,316,0,0,0,0,0,0,0,0,0,-1,1140,708,0,0
-77,316,0,0,0,0,0,0,0,0,0,-1,1147,708,0,0
-70,316,0,0,0,0,0,0,0,0,0,-1,1154,708,0,0
-63,316,0,0,0,0,0,0,0,0,0,-1,1161,708,0,0
-56,316,0,0,0,0,0,0,0,0,0,-1,1168,708,0,0
-49,316,0,0,0,0,0,0,0,0,0,-1,1175,708,0,0
-42,316,0,0,0,0,0,0,0,0,0,-1,1182,708,0,0
-35,316,0,0,0,0,0,0,0,0,0,-1,1189,708,0,0
-28,316,0,0,0,0,0,0,0,0,0,-1,1196,708,0,0
-21,316,0,0,0,0,0,0,0,0,0,-1,1203,708,0,0
-14,316,0,0,0,0,0,0,0,0,0,-1,1210,708,0,0
-7,316,0,0,0,0,0,0,0,0,0,-1,1217,708,0,0
0,316,0,0,0,0,0,0,0,0,0,-1,1224,708,0,0
7,316,0,0,0,0,0,0,0,0,0,-1,1231,708,0,0
14,316,0,0,0,0,0,0,0,0,0,-1,1238,708,0,0
21,316,0,0,0,0,0,0,0,0,0,-1,1245,708,0,0
28,316,0,0,0,0,0,0,0,0,0,-1,1252,708,0,0
35,316,0,0,0,0,0,0,0,0,0,-1,1259,708,0,0
42,316,0,0,0,0,0,0,0,0,0,-1,1266,708,0,0
49,316,0,0,0,0,0,0,0,0,0,-1,1273,708,0,0
56,316,0,0,0,0,0,0,0,0,0,-1,1280,708,0,0
63,316,0,0,0,0,0,0,0,0,0,-1,1287,708,0,0
70,316,0,0,0,0,0,0,0,0,0,-1,1294,708,0,0
77,316,0,0,0,0,0,0,0,0,0,-1,1301,708,0,0
84,316,0,0,0,0,0,0,0,0,0,-1,1308,708,0,0
91,316,0,0,0,0,0,0,0,0,0,-1,1315,708,0,0
98,316,0,0,0,0,0,0,0,0,0,-1,1322,708,0,0
105,316,0,0,0,0,0,0,0,0,0,-1,1329,708,0,0
112,316,0,0,0,0,0,0,0,0,0,-1,1336,708,0,0
119,316,0,0,0,0,0,0,0,0,0,-1,1343,708,0,0
126,316,0,0,0,0,0,0,0,0,0,-1,1350,708,0,0
133,316,0,0,0,0,0,0,0,0,0,-1,1357,708,0,0
140,316,0,0,0,0,0,0,0,0,0,-1,1364,708,0,0
147,316,0,0,0,0,0,0,0,0,0,-1,1371,708,0,0
154,316,0,0,0,0,0,0,0,0,0,-1,1378,708,0,0
161,316,0,0,0,0,0,0,0,0,0,-1,1385,708,0,0
168,316,0,0,0,0,0,0,0,0,0,-1,1392,708,0,0
175,316,0,0,0,0,0,0,0,0,0,-1,1399,708,0,0
182,316,0,0,0,0,0,0,0,0,0,-1,1406,708,0,0
189,316,0,0,0,0,0,0,0,0,0,-1,1413,708,0,0
196,316,0,0,0,0,0,0,0,0,0,-1,1420,708,0,0
203,316,0,0,0,0,0,0,0,0,0,-1,1427,708,0,0
210,316,0,0,0,0,0,0,0,0,0,-1,1434,708,0,0
217,316,0,0,0,0,0,0,0,0,0,-1,1441,708,0,0
224,316,0,0,0,0,0,0,0,0,0,-1,1448,708,0,0
231,316,0,0,0,0,0,0,0,0,0,-1,1455,708,0,0
238,316,0,0,0,0,0,0,0,0,0,-1,1462,708,0,0
245,316,0,0,0,0,0,0,0,0,0,-1,1469,708,0,0
252,316,0,0,0,0,0,0,0,0,0,-1,1476,708,0,0
259,316,0,0,0,0,0,0,0,0,0,-1,1483,708,0,0
266,316,0,0,0,0,0,0,0,0,0,-1,1490,708,0,0
273,316,0,0,0,0,0,0,0,0,0,-1,1497,708,0,0
280,316,0,0,0,0,0,0,0,0,0,-1,1504,708,0,0
287,316,0,0,0,0,0,0,0,0,0,-1,1511,708,0,0
294,316,0,0,0,0,0,0,0,0,0,-1,1518,708,0,0
301,316,0,0,0,0,0,0,0,0,0,-1,1525,708,0,0
308,316,0,0,0,0,0,0,0,0,0,-1,1532,708,0,0
315,316,0,0,0,0,0,0,0,0,0,-1,1539,708,0,0
322,316,0,0,0,0,0,0,0,0,0,-1,1546,708,0,0
329,316,0,0,0,0,0,0,0,0,0,-1,1553,708,0,0
336,316,0,0,0,0,0,0,0,0,0,-1,1560,708,0,0
343,316,0,0,0,0,0,0,0,0,0,-1,1567,708,0,0
350,316,0,0,0,0,0,0,0,0,0,-1,1574,708,0,0
357,316,0,0,0,0,0,0,0,0,0,-1,1581,708,0,0
364,316,0,0,0,0,0,0,0,0,0,-1,1588,708,0,0
371,316,0,0,0,0,0,0,0,0,0,-1,1595,708,0,0
378,316,0,0,0,0,0,0,0,0,0,-1,1602,708,0,0
385,316,0,0,0,0,0,0,0,0,0,-1,1609,708,0,0
392,316,0,0,0,0,0,0,0,0,0,-1,1616,708,0,0
399,316,0,0,0,0,0,0,0,0,0,-1,1623,708,0,0
406,316,0,0,0,0,0,0,0,0,0,-1,1630,708,0,0
413,316,0,0,0,0,0,0,0,0,0,-1,1637,708,0,0
420,316,0,0,0,0,0,0,0,0,0,-1,1644,708,0,0
427,316,0,0,0,0,0,0,0,0,0,-1,1651,708,0,0
434,316,0,0,0,0,0,0,0,0,0,-1,1658,708,0,0
441,316,0,0,0,0,0,0,0,0,0,-1,1665,708,0,0
448,316,0,0,0,0,0,0,0,0,0,-1,1672,708,0,0
455,316,0,0,0,0,0,0,0,0,0,-1,1679,708,0,0
462,316,0,0,0,0,0,0,0,0,0,-1,1686,708,0,0
469,316,0,0,0,0,0,0,0,0,0,-1,1693,708,0,0
476,316,0,0,0,0,0,0,0,0,0,-1,1700,708,0,0
483,316,0,0,0,0,0,0,0,0,0,-1,1707,708,0,0
490,316,0,0,0,0,0,0,0,0,0,-1,1714,708,0,0
497,316,0,0,0,0,0,0,0,0,0,-1,1721,708,0,0
504,316,0,0,0,0,0,0,0,0,0,-1,1728,708,0,0
511,316,0,0,0,0,0,0,0,0,0,-1,1735,708,0,0
518,316,0,0,0,0,0,0,0,0,0,-1,1742,708,0,0
525,316,0,0,0,0,0,0,0,0,0,-1,1749,708,0,0
532,316,33.8604,0.531128,0,0,0,0,0,0,0,-1,1756,708,33.8604,-0.531151
539,316,44.4543,2.73468,0,0,0,0,0,0,0,-1,1763,708,44.4543,-2.7347
546,316,44.713,3.35498,0,0,0,0,0,0,0,-1,1770,708,44.7131,-3.35501
553,316,39.9031,6.57275,0,0,0,0,0,0,0,-1,1777,708,39.9031,-6.57274
560,316,39.1196,1.10046,0,0,0,0,0,0,0,-1,1784,708,39.1197,-1.10048
567,316,47.3683,6.04919,0,0,0,0,0,0,0,-1,1791,708,47.3683,-6.04918
574,316,45.9872,6.7655,0,0,0,0,0,0,0,-1,1798,708,45.9871,-6.76552
581,316,24.6815,7.77496,0,0,0,0,0,0,0,-1,1805,708,24.6815,-7.77499
588,316,19.7659,2.90198,0,0,0,0,0,0,0,-1,1812,708,19.7659,-2.902
595,316,12.5363,1.50702,0,0,0,0,0,0,0,-1,1819,708,12.5363,-1.50701
602,316,7.79919,0.0422363,0,0,0,0,0,0,0,-1,1826,708,7.79923,-0.0422066
609,316,85.3544,-24.1375,0,0,0,0,0,0,0,-1,1833,708,85.3544,24.1375
616,316,144.213,-17.4882,0,0,0,0,0,0,0,-1,1840,708,144.213,17.4882
623,316,143.396,-14.264,-0.00125901,0.0158725,-0.00177634,0.0160548,-0.00144125,-1.46856,0.0112145,0.0300799,1847,708,143.396,14.264
630,316,142.694,-11.0607,-0.00112267,0.0173249,-0.00631891,0.0192817,-0.00307953,-1.27048,0.0139944,0.0203209,1854,708,142.694,11.0607
637,316,142.012,-7.90515,-0.000809678,0.0191072,-0.0106922,0.0237601,-0.00546264,-1.16034,0.0179404,0.017668,1861,708,142.012,7.90516
644,316,141.346,-4.92114,-0.000327709,0.0212232,-0.0148539,0.0287985,-0.00790296,-1.09919,0.022305,0.0163673,1868,708,141.346,4.92113
651,316,140.709,-1.91742,0.000353703,0.0237274,-0.0188375,0.0342089,-0.0101278,-1.06304,0.0268268,0.0230789,1875,708,140.709,1.91742
658,316,140.032,1.15594,0.00116383,0.0265402,-0.0226243,0.0397913,-0.0120873,-1.04096,0.0313434,0.0411194,1882,708,140.032,-1.15595
665,316,139.301,3.93726,0.00208193,0.0297335,-0.0261931,0.0455258,-0.0137103,-1.02823,0.0358066,0.0283994,1889,708,139.301,-3.93724
672,316,138.833,6.69098,0.00331146,0.0333786,-0.0294561,0.0514157,-0.0147256,-1.02135,0.0400973,0.0199625,1896,708,138.833,-6.69096
679,316,138.359,9.54895,0,0,0,0,0,0,0,-1,1903,708,138.359,-9.54898
686,316,34.0828,0.223206,0,0,0,0,0,0,0,-1,1910,708,34.0828,-0.223183
693,316,26.4315,1.80652,0,0,0,0,0,0,0,-1,1917,708,26.4315,-1.80651
700,316,12.8749,2.89136,0,0,0,0,0,0,0,-1,1924,708,12.8748,-2.89137
707,316,15.7089,5.41486,0,0,0,0,0,0,0,-1,1931,708,15.7088,-5.41487
714,316,16.1727,5.52045,0,0,0,0,0,0,0,-1,1938,708,16.1728,-5.52042
721,316,16.7094,6.53351,0,0,0,0,0,0,0,-1,1945,708,16.7094,-6.5335
728,316,0,0,0,0,0,0,0,0,0,-1,1952,708,0,0
735,316,0,0,0,0,0,0,0,0,0,-1,1959,708,0,0
742,316,0,0,0,0,0,0,0,0,0,-1,1966,708,0,0
749,316,0,0,0,0,0,0,0,0,0,-1,1973,708,0,0
756,316,0,0,0,0,0,0,0,0,0,-1,1980,708,0,0
763,316,0,0,0,0,0,0,0,0,0,-1,1987,708,0,0
770,316,0,0,0,0,0,0,0,0,0,-1,1994,708,0,0
777,316,0,0,0,0,0,0,0,0,0,-1,2001,708,0,0
784,316,0,0,0,0,0,0,0,0,0,-1,2008,708,0,0
791,316,0,0,0,0,0,0,0,0,0,-1,2015,708,0,0
798,316,0,0,0,0,0,0,0,0,0,-1,2022,708,0,0
805,316,0,0,0,0,0,0,0,0,0,-1,2029,708,0,0
812,316,0,0,0,0,0,0,0,0,0,-1,2036,708,0,0
-700,309,0,0,0,0,0,0,0,0,0,-1,524,715,0,0
-693,309,0,0,0,0,0,0,0,0,0,-1,531,715,0,0
-686,309,0,0,0,0,0,0,0,0,0,-1,538,715,0,0
-679,309,0,0,0,0,0,0,0,0,0,-1,545,715,0,0
-672,309,0,0,0,0,0,0,0,0,0,-1,552,715,0,0
-665,309,0,0,0,0,0,0,0,0,0,-1,559,715,0,0
-658,309,0,0,0,0,0,0,0,0,0,-1,566,715,0,0
-651,309,0,0,0,0,0,0,0,0,0,-1,573,715,0,0
-644,309,0,0,0,0,0,0,0,0,0,-1,580,715,0,0
-637,309,0,0,0,0,0,0,0,0,0,-1,587,715,0,0
-630,309,0,0,0,0,0,0,0,0,0,-1,594,715,0,0
-623,309,0,0,0,0,0,0,0,0,0,-1,601,715,0,0
-616,309,0,0,0,0,0,0,0,0,0,-1,608,715,0,0
-609,309,-5.95392,-3.93689,0,0,0,0,0,0,0,-1,615,715,-5.95392,3.93686
-602,309,-4.99786,-3.31287,0,0,0,0,0,0,0,-1,622,715,-4.99786,3.31284
-595,309,-6.80847,2.4046,0,0,0,0,0,0,0,-1,629,715,-6.80845,-2.40458
-588,309,-6.08795,2.19324,0,0,0,0,0,0,0,-1,636,715,-6.08793,-2.19325
-581,309,-5.97552,1.3277,0,0,0,0,0,0,0,-1,643,715,-5.97552,-1.32769
-574,309,-8.73602,0.208435,0,0,0,0,0,0,0,-1,650,715,-8.73604,-0.208437
-567,309,-10.3909,0.85968,0,0,0,0,0,0,0,-1,657,715,-10.3909,-0.859696
-560,309,-18.6088,-1.73389,0,0,0,0,0,0,0,-1,664,715,-18.6088,1.73389
-553,309,-131.699,12.533,0,0,0,0,0,0,0,-1,671,715,-131.699,-12.533
-546,309,-132.097,9.78638,0.00711297,0.0388606,0.0325488,0.0592002,-0.0132265,1.01227,0.0445352,0.0390116,678,715,-132.097,-9.78639
-539,309,-132.586,6.9549,0.00620052,0.0352295,0.0285337,0.0527282,-0.0112982,1.02068,0.0394611,0.0252036,685,715,-132.586,-6.9549
-532,309,-133.197,4.00494,0.00491772,0.0315122,0.0247745,0.0463324,-0.00990253,1.0317,0.0346639,0.018538,692,715,-133.197,-4.00495
-525,309,-133.806,1.09583,0.0032688,0.0280037,0.0211809,0.0401634,-0.00889093,1.04965,0.030179,0.0207717,699,715,-133.806,-1.09581
-518,309,-134.474,-1.85516,0.00132624,0.0246611,0.0177941,0.0342718,-0.00828447,1.07558,0.0260522,0.021677,706,715,-134.474,1.85516
-511,309,-135.117,-4.76404,-0.000925949,0.0215092,0.0146005,0.0287038,-0.00812058,1.11295,0.0223402,0.0179697,713,715,-135.117,4.76405
-504,309,-135.758,-8.01221,-0.00341265,0.0187469,0.0115374,0.0236632,-0.00832891,1.16798,0.0191649,0.0251873,720,715,-135.758,8.01223
-497,309,-136.563,-11.1596,-0.00610322,0.0165716,0.0085869,0.0194564,-0.00898803,1.24669,0.0167891,0.045827,727,715,-136.563,11.1596
-490,309,-137.692,-14.408,0,0,0,0,0,0,0,-1,734,715,-137.692,14.408
-483,309,-133.522,-18.5393,0,0,0,0,0,0,0,-1,741,715,-133.522,18.5393
-476,309,-5.29486,-1.2262,0,0,0,0,0,0,0,-1,748,715,-5.29484,1.22622
-469,309,-4.22717,-0.592896,0,0,0,0,0,0,0,-1,755,715,-4.2272,0.592905
-462,309,-10.428,2.46948,0,0,0,0,0,0,0,-1,762,715,-10.428,-2.46947
-455,309,-15.8216,0.00915527,0,0,0,0,0,0,0,-1,769,715,-15.8216,-0.00913359
-448,309,-37.3543,-1.02441,0,0,0,0,0,0,0,-1,776,715,-37.3543,1.02444
-441,309,-19.8181,1.4425,0,0,0,0,0,0,0,-1,783,715,-19.8181,-1.44249
-434,309,-46.7953,1.72064,0,0,0,0,0,0,0,-1,790,715,-46.7953,-1.72067
-427,309,-27.8553,1.40332,0,0,0,0,0,0,0,-1,797,715,-27.8553,-1.40334
-420,309,-27.3148,1.90747,0,0,0,0,0,0,0,-1,804,715,-27.3148,-1.90745
-413,309,0,0,0,0,0,0,0,0,0,-1,811,715,0,0
-406,309,0,0,0,0,0,0,0,0,0,-1,818,715,0,0
-399,309,0,0,0,0,0,0,0,0,0,-1,825,715,0,0
-392,309,0,0,0,0,0,0,0,0,0,-1,832,715,0,0
-385,309,0,0,0,0,0,0,0,0,0,-1,839,715,0,0
-378,309,0,0,0,0,0,0,0,0,0,-1,846,715,0,0
-371,309,0,0,0,0,0,0,0,0,0,-1,853,715,0,0
-364,309,0,0,0,0,0,0,0,0,0,-1,860,715,0,0
-357,309,0,0,0,0,0,0,0,0,0,-1,867,715,0,0
-350,309,0,0,0,0,0,0,0,0,0,-1,874,715,0,0
-343,309,0,0,0,0,0,0,0,0,0,-1,881,715,0,0
-336,309,0,0,0,0,0,0,0,0,0,-1,888,715,0,0
-329,309,0,0,0,0,0,0,0,0,0,-1,895,715,0,0
-322,309,0,0,0,0,0,0,0,0,0,-1,902,715,0,0
-315,309,0,0,0,0,0,0,0,0,0,-1,909,715,0,0
-308,309,0,0,0,0,0,0,0,0,0,-1,916,715,0,0
-301,309,0,0,0,0,0,0,0,0,0,-1,923,715,0,0
-294,309,0,0,0,0,0,0,0,0,0,-1,930,715,0,0
-287,309,0,0,0,0,0,0,0,0,0,-1,937,715,0,0
-280,309,0,0,0,0,0,0,0,0,0,-1,944,715,0,0
-273,309,0,0,0,0,0,0,0,0,0,-1,951,715,0,0
-266,309,0,0,0,0,0,0,0,0,0,-1,958,715,0,0
-259,309,0,0,0,0,0,0,0,0,0,-1,965,715,0,0
-252,309,0,0,0,0,0,0,0,0,0,-1,972,715,0,0
-245,309,0,0,0,0,0,0,0,0,0,-1,979,715,0,0
-238,309,0,0,0,0,0,0,0,0,0,-1,986,715,0,0
-231,309,0,0,0,0,0,0,0,0,0,-1,993,715,0,0
-224,309,0,0,0,0,0,0,0,0,0,-1,1000,715,0,0
-217,309,0,0,0,0,0,0,0,0,0,-1,1007,715,0,0
-210,309,0,0,0,0,0,0,0,0,0,-1,1014,715,0,0
-203,309,0,0,0,0,0,0,0,0,0,-1,1021,715,0,0
-196,309,0,0,0,0,0,0,0,0,0,-1,1028,715,0,0
-189,309,0,0,0,0,0,0,0,0,0,-1,1035,715,0,0
-182,309,0,0,0,0,0,0,0,0,0,-1,1042,715,0,0
-175,309,0,0,0,0,0,0,0,0,0,-1,1049,715,0,0
-168,309,0,0,0,0,0,0,0,0,0,-1,1056,715,0,0
-161,309,0,0,0,0,0,0,0,0,0,-1,1063,715,0,0
-154,309,0,0,0,0,0,0,0,0,0,-1,1070,715,0,0
-147,309,0,0,0,0,0,0,0,0,0,-1,1077,715,0,0
-140,309,0,0,0,0,0,0,0,0,0,-1,1084,715,0,0
-133,309,0,0,0,0,0,0,0,0,0,-1,1091,715,0,0
-126,309,0,0,0,0,0,0,0,0,0,-1,1098,715,0,0
-119,309,0,0,0,0,0,0,0,0,0,-1,1105,715,0,0
-112,309,0,0,0,0,0,0,0,0,0,-1,1112,715,0,0
-105,309,0,0,0,0,0,0,0,0,0,-1,1119,715,0,0
-98,309,0,0,0,0,0,0,0,0,0,-1,1126,715,0,0
-91,309,0,0,0,0,0,0,0,0,0,-1,1133,715,0,0
-84,309,0,0,0,0,0,0,0,0,0,-1,1140,715,0,0
-77,309,0,0,0,0,0,0,0,0,0,-1,1147,715,0,0
-70,309,0,0,0,0,0,0,0,0,0,-1,1154,715,0,0
-63,309,0,0,0,0,0,0,0,0,0,-1,1161,715,0,0
-56,309,0,0,0,0,0,0,0,0,0,-1,1168,715,0,0
-49,309,0,0,0,0,0,0,0,0,0,-1,1175,715,0,0
-42,309,0,0,0,0,0,0,0,0,0,-1,1182,715,0,0
-35,309,0,0,0,0,0,0,0,0,0,-1,1189,715,0,0
-28,309,0,0,0,0,0,0,0,0,0,-1,1196,715,0,0
-21,309,0,0,0,0,0,0,0,0,0,-1,1203,715,0,0
-14,309,0,0,0,0,0,0,0,0,0,-1,1210,715,0,0
-7,309,0,0,0,0,0,0,0,0,0,-1,1217,715,0,0
0,309,0,0,0,0,0,0,0,0,0,-1,1224,715,0,0
7,309,0,0,0,0,0,0,0,0,0,-1,1231,715,0,0
14,309,0,0,0,0,0,0,0,0,0,-1,1238,715,0,0
21,309,0,0,0,0,0,0,0,0,0,-1,1245,715,0,0
28,309,0,0,0,0,0,0,0,0,0,-1,1252,715,0,0
35,309,0,0,0,0,0,0,0,0,0,-1,1259,715,0,0
42,309,0,0,0,0,0,0,0,0,0,-1,1266,715,0,0
49,309,0,0,0,0,0,0,0,0,0,-1,1273,715,0,0
56,309,0,0,0,0,0,0,0,0,0,-1,1280,715,0,0
63,309,0,0,0,0,0,0,0,0,0,-1,1287,715,0,0
70,309,0,0,0,0,0,0,0,0,0,-1,1294,715,0,0
77,309,0,0,0,0,0,0,0,0,0,-1,1301,715,0,0
84,309,0,0,0,0,0,0,0,0,0,-1,1308,715,0,0
91,309,0,0,0,0,0,0,0,0,0,-1,1315,715,0,0
98,309,0,0,0,0,0,0,0,0,0,-1,1322,715,0,0
105,309,0,0,0,0,0,0,0,0,0,-1,1329,715,0,0
112,309,0,0,0,0,0,0,0,0,0,-1,1336,715,0,0
119,309,0,0,0,0,0,0,0,0,0,-1,1343,715,0,0
126,309,0,0,0,0,0,0,0,0,0,-1,1350,715,0,0
133,309,0,0,0,0,0,0,0,0,0,-1,1357,715,0,0
140,309,0,0,0,0,0,0,0,0,0,-1,1364,715,0,0
147,309,0,0,0,0,0,0,0,0,0,-1,1371,715,0,0
154,309,0,0,0,0,0,0,0,0,0,-1,1378,715,0,0
161,309,0,0,0,0,0,0,0,0,0,-1,1385,715,0,0
168,309,0,0,0,0,0,0,0,0,0,-1,1392,715,0,0
175,309,0,0,0,0,0,0,0,0,0,-1,1399,715,0,0
182,309,0,0,0,0,0,0,0,0,0,-1,1406,715,0,0
189,309,0,0,0,0,0,0,0,0,0,-1,1413,715,0,0
196,309,0,0,0,0,0,0,0,0,0,-1,1420,715,0,0
203,309,0,0,0,0,0,0,0,0,0,-1,1427,715,0,0
210,309,0,0,0,0,0,0,0,0,0,-1,1434,715,0,0
217,309,0,0,0,0,0,0,0,0,0,-1,1441,715,0,0
224,309,0,0,0,0,0,0,0,0,0,-1,1448,715,0,0
231,309,0,0,0,0,0,0,0,0,0,-1,1455,715,0,0
238,309,0,0,0,0,0,0,0,0,0,-1,1462,715,0,0
245,309,0,0,0,0,0,0,0,0,0,-1,1469,715,0,0
252,309,0,0,0,0,0,0,0,0,0,-1,1476,715,0,0
259,309,0,0,0,0,0,0,0,0,0,-1,1483,715,0,0
266,309,0,0,0,0,0,0,0,0,0,-1,1490,715,0,0
273,309,0,0,0,0,0,0,0,0,0,-1,1497,715,0,0
280,309,0,0,0,0,0,0,0,0,0,-1,1504,715,0,0
287,309,0,0,0,0,0,0,0,0,0,-1,1511,715,0,0
294,309,0,0,0,0,0,0,0,0,0,-1,1518,715,0,0
301,309,0,0,0,0,0,0,0,0,0,-1,1525,715,0,0
308,309,0,0,0,0,0,0,0,0,0,-1,1532,715,0,0
315,309,0,0,0,0,0,0,0,0,0,-1,1539,715,0,0
322,309,0,0,0,0,0,0,0,0,0,-1,1546,715,0,0
329,309,0,0,0,0,0,0,0,0,0,-1,1553,715,0,0
336,309,0,0,0,0,0,0,0,0,0,-1,1560,715,0,0
343,309,0,0,0,0,0,0,0,0,0,-1,1567,715,0,0
350,309,0,0,0,0,0,0,0,0,0,-1,1574,715,0,0
357,309,0,0,0,0,0,0,0,0,0,-1,1581,715,0,0
364,309,0,0,0,0,0,0,0,0,0,-1,1588,715,0,0
371,309,0,0,0,0,0,0,0,0,0,-1,1595,715,0,0
378,309,0,0,0,0,0,0,0,0,0,-1,1602,715,0,0
385,309,0,0,0,0,0,0,0,0,0,-1,1609,715,0,0
392,309,0,0,0,0,0,0,0,0,0,-1,1616,715,0,0
399,309,0,0,0,0,0,0,0,0,0,-1,1623,715,0,0
406,309,0,0,0,0,0,0,0,0,0,-1,1630,715,0,0
413,309,0,0,0,0,0,0,0,0,0,-1,1637,715,0,0
420,309,0,0,0,0,0,0,0,0,0,-1,1644,715,0,0
427,309,0,0,0,0,0,0,0,0,0,-1,1651,715,0,0
434,309,0,0,0,0,0,0,0,0,0,-1,1658,715,0,0
441,309,0,0,0,0,0,0,0,0,0,-1,1665,715,0,0
448,309,0,0,0,0,0,0,0,0,0,-1,1672,715,0,0
455,309,0,0,0,0,0,0,0,0,0,-1,1679,715,0,0
462,309,0,0,0,0,0,0,0,0,0,-1,1686,715,0,0
469,309,0,0,0,0,0,0,0,0,0,-1,1693,715,0,0
476,309,0,0,0,0,0,0,0,0,0,-1,1700,715,0,0
483,309,0,0,0,0,0,0,0,0,0,-1,1707,715,0,0
490,309,0,0,0,0,0,0,0,0,0,-1,1714,715,0,0
497,309,0,0,0,0,0,0,0,0,0,-1,1721,715,0,0
504,309,0,0,0,0,0,0,0,0,0,-1,1728,715,0,0
511,309,0,0,0,0,0,0,0,0,0,-1,1735,715,0,0
518,309,0,0,0,0,0,0,0,0,0,-1,1742,715,0,0
525,309,0,0,0,0,0,0,0,0,0,-1,1749,715,0,0
532,309,0,0,0,0,0,0,0,0,0,-1,1756,715,0,0
539,309,44.2073,2.66235,0,0,0,0,0,0,0,-1,1763,715,44.2073,-2.66238
546,309,44.4976,3.25531,0,0,0,0,0,0,0,-1,1770,715,44.4976,-3.25533
553,309,47.9611,4.06433,0,0,0,0,0,0,0,-1,1777,715,47.9611,-4.06434
560,309,47.9784,4.64801,0,0,0,0,0,0,0,-1,1784,715,47.9784,-4.64799
567,309,47.0073,5.43121,0,0,0,0,0,0,0,-1,1791,715,47.0073,-5.43121
574,309,45.8746,6.53271,0,0,0,0,0,0,0,-1,1798,715,45.8747,-6.53269
581,309,45.0629,7.73468,0,0,0,0,0,0,0,-1,1805,715,45.0629,-7.73471
588,309,26.2064,7.76422,0,0,0,0,0,0,0,-1,1812,715,26.2064,-7.7642
595,309,19.585,3.71558,0,0,0,0,0,0,0,-1,1819,715,19.5849,-3.71555
602,309,11.0811,3.47772,0,0,0,0,0,0,0,-1,1826,715,11.0811,-3.47772
609,309,56.9344,-15.415,0,0,0,0,0,0,0,-1,1833,715,56.9345,15.415
616,309,93.344,-22.6922,0,0,0,0,0,0,0,-1,1840,715,93.344,22.6922
623,309,146.791,-13.553,0,0,0,0,0,0,0,-1,1847,715,146.791,13.553
630,309,146.138,-10.5202,-0.0016545,0.0163356,-0.00262278,0.0167102,-0.00202908,-1.42894,0.0118744,0.0366131,1854,715,146.138,10.5202
637,309,145.232,-7.22644,-0.00151101,0.0179455,-0.00716405,0.0202987,-0.00386426,-1.25342,0.0149875,0.0282904,1861,715,145.232,7.22644
644,309,144.418,-4.27161,-0.00120663,0.0199962,-0.0114643,0.0250095,-0.00621999,-1.15855,0.0190872,0.0238204,1868,715,144.418,4.27162
651,309,143.78,-1.34515,-0.000623615,0.0224765,-0.0155287,0.0302796,-0.00842668,-1.10516,0.0235043,0.0236109,1875,715,143.779,1.34513
658,309,143.206,1.60675,0.000152182,0.0253289,-0.0193819,0.0358517,-0.0103706,-1.07341,0.0280056,0.0390623,1882,715,143.206,-1.60675
665,309,142.586,4.44629,0.001018,0.0285861,-0.0230227,0.0416358,-0.0120316,-1.05514,0.0325183,0.0316247,1889,715,142.586,-4.44631
672,309,141.978,7.26697,0.00212091,0.0323633,-0.0263993,0.0476653,-0.0131811,-1.04548,0.0369625,0.0229797,1896,715,141.978,-7.26699
679,309,141.406,10.1082,0.00352367,0.0366467,-0.0294116,0.053839,-0.0136687,-1.04182,0.0412116,0.0395034,1903,715,141.406,-10.1081
686,309,140.813,13.0494,0,0,0,0,0,0,0,-1,1910,715,140.813,-13.0494
693,309,32.7026,1.51727,0,0,0,0,0,0,0,-1,1917,715,32.7026,-1.51727
700,309,23.0179,3.08337,0,0,0,0,0,0,0,-1,1924,715,23.018,-3.08336
707,309,15.6318,4.58655,0,0,0,0,0,0,0,-1,1931,715,15.6318,-4.58657
714,309,16.7573,6.68286,0,0,0,0,0,0,0,-1,1938,715,16.7574,-6.68284
721,309,16.8337,5.4458,0,0,0,0,0,0,0,-1,1945,715,16.8338,-5.44582
728,309,0,0,0,0,0,0,0,0,0,-1,1952,715,0,0
735,309,0,0,0,0,0,0,0,0,0,-1,1959,715,0,0
742,309,0,0,0,0,0,0,0,0,0,-1,1966,715,0,0
749,309,0,0,0,0,0,0,0,0,0,-1,1973,715,0,0
756,309,0,0,0,0,0,0,0,0,0,-1,1980,715,0,0
763,309,0,0,0,0,0,0,0,0,0,-1,1987,715,0,0
770,309,0,0,0,0,0,0,0,0,0,-1,1994,715,0,0
777,309,0,0,0,0,0,0,0,0,0,-1,2001,715,0,0
784,309,0,0,0,0,0,0,0,0,0,-1,2008,715,0,0
791,309,0,0,0,0,0,0,0,0,0,-1,2015,715,0,0
798,309,0,0,0,0,0,0,0,0,0,-1,2022,715,0,0
805,309,0,0,0,0,0,0,0,0,0,-1,2029,715,0,0
812,309,0,0,0,0,0,0,0,0,0,-1,2036,715,0,0
-700,302,0,0,0,0,0,0,0,0,0,-1,524,722,0,0
-693,302,0,0,0,0,0,0,0,0,0,-1,531,722,0,0
-686,302,0,0,0,0,0,0,0,0,0,-1,538,722,0,0
-679,302,0,0,0,0,0,0,0,0,0,-1,545,722,0,0
-672,302,0,0,0,0,0,0,0,0,0,-1,552,722,0,0
-665,302,0,0,0,0,0,0,0,0,0,-1,559,722,0,0
-658,302,0,0,0,0,0,0,0,0,0,-1,566,722,0,0
-651,302,0,0,0,0,0,0,0,0,0,-1,573,722,0,0
-644,302,0,0,0,0,0,0,0,0,0,-1,580,722,0,0
-637,302,0,0,0,0,0,0,0,0,0,-1,587,722,0,0
-630,302,0,0,0,0,0,0,0,0,0,-1,594,722,0,0
-623,302,0,0,0,0,0,0,0,0,0,-1,601,722,0,0
-616,302,0,0,0,0,0,0,0,0,0,-1,608,722,0,0
-609,302,-7.79266,-3.71649,0,0,0,0,0,0,0,-1,615,722,-7.79267,3.7165
-602,302,0.92865,-1.99158,0,0,0,0,0,0,0,-1,622,722,0.928637,1.99157
-595,302,-7.89941,2.13641,0,0,0,0,0,0,0,-1,629,722,-7.89939,-2.13639
-588,302,-7.10895,1.79163,0,0,0,0,0,0,0,-1,636,722,-7.10896,-1.79163
-581,302,-9.17566,1.09448,0,0,0,0,0,0,0,-1,643,722,-9.17569,-1.09445
-574,302,-11.5183,-0.344543,0,0,0,0,0,0,0,-1,650,722,-11.5183,0.344557
-567,302,-12.1534,-0.672241,0,0,0,0,0,0,0,-1,657,722,-12.1535,0.672246
-560,302,-134.522,15.702,0,0,0,0,0,0,0,-1,664,722,-134.522,-15.702
-553,302,-134.82,12.9409,0.00479595,0.0409732,0.0338929,0.0613024,-0.0155332,1.03052,0.0469112,0.0444578,671,722,-134.82,-12.9409
-546,302,-135.249,10.2543,0.00488613,0.0370219,0.0295247,0.0545678,-0.0126597,1.03459,0.0412511,0.0276776,678,722,-135.249,-10.2544
-539,302,-135.818,7.52197,0.00407604,0.0332832,0.0255438,0.0481033,-0.010744,1.04508,0.0361858,0.0274662,685,722,-135.818,-7.52198
-532,302,-136.465,4.60242,0.00278192,0.0295316,0.0217905,0.0417246,-0.00941105,1.06065,0.0314267,0.022573,692,722,-136.465,-4.6024
-525,302,-137.119,1.6665,0,0,0,0,0,0,0,-1,699,722,-137.118,-1.66651
-518,302,-137.715,-1.30518,-0.00102021,0.0226312,0.0148073,0.0297555,-0.00814454,1.12235,0.0230369,0.0325532,706,722,-137.715,1.30517
-511,302,-138.363,-4.12781,-0.00348129,0.0195251,0.0115519,0.0243244,-0.00828053,1.17704,0.0195694,0.020668,713,722,-138.363,4.1278
-504,302,-139.061,-7.21814,-0.00623222,0.0168204,0.00847934,0.0196034,-0.00901517,1.25367,0.0168957,0.0296399,720,722,-139.061,7.21813
-497,302,-140.126,-10.429,-0.00922408,0.0148745,0.00544439,0.0160474,-0.010397,1.3586,0.0153834,0.0435025,727,722,-140.126,10.429
-490,302,-141.311,-13.6362,0,0,0,0,0,0,0,-1,734,722,-141.311,13.6361
-483,302,-9.53412,-3.1673,0,0,0,0,0,0,0,-1,741,722,-9.53411,3.1673
-476,302,-4.29749,-0.203491,0,0,0,0,0,0,0,-1,748,722,-4.29751,0.203464
-469,302,-12.369,1.42859,0,0,0,0,0,0,0,-1,755,722,-12.3689,-1.42857
-462,302,-17.4766,0.310791,0,0,0,0,0,0,0,-1,762,722,-17.4766,-0.310788
-455,302,-36.7368,-2.97418,0,0,0,0,0,0,0,-1,769,722,-36.7368,2.97416
-448,302,-42.1174,-1.44232,0,0,0,0,0,0,0,-1,776,722,-42.1174,1.44229
-441,302,-46.7637,0.580078,0,0,0,0,0,0,0,-1,783,722,-46.7636,-0.58007
-434,302,-46.574,1.30511,0,0,0,0,0,0,0,-1,790,722,-46.574,-1.30509
-427,302,-46.7514,1.51532,0,0,0,0,0,0,0,-1,797,722,-46.7514,-1.51532
-420,302,0,0,0,0,0,0,0,0,0,-1,804,722,0,0
-413,302,0,0,0,0,0,0,0,0,0,-1,811,722,0,0
-406,302,0,0,0,0,0,0,0,0,0,-1,818,722,0,0
-399,302,0,0,0,0,0,0,0,0,0,-1,825,722,0,0
-392,302,0,0,0,0,0,0,0,0,0,-1,832,722,0,0
-385,302,0,0,0,0,0,0,0,0,0,-1,839,722,0,0
-378,302,0,0,0,0,0,0,0,0,0,-1,846,722,0,0
-371,302,0,0,0,0,0,0,0,0,0,-1,853,722,0,0
-364,302,0,0,0,0,0,0,0,0,0,-1,860,722,0,0
-357,302,0,0,0,0,0,0,0,0,0,-1,867,722,0,0
-350,302,0,0,0,0,0,0,0,0,0,-1,874,722,0,0
-343,302,0,0,0,0,0,0,0,0,0,-1,881,722,0,0
-336,302,0,0,0,0,0,0,0,0,0,-1,888,722,0,0
-329,302,0,0,0,0,0,0,0,0,0,-1,895,722,0,0
-322,302,0,0,0,0,0,0,0,0,0,-1,902,722,0,0
-315,302,0,0,0,0,0,0,0,0,0,-1,909,722,0,0
-308,302,0,0,0,0,0,0,0,0,0,-1,916,722,0,0
-301,302,0,0,0,0,0,0,0,0,0,-1,923,722,0,0
-294,302,0,0,0,0,0,0,0,0,0,-1,930,722,0,0
-287,302,0,0,0,0,0,0,0,0,0,-1,937,722,0,0
-280,302,0,0,0,0,0,0,0,0,0,-1,944,722,0,0
-273,302,0,0,0,0,0,0,0,0,0,-1,951,722,0,0
-266,302,0,0,0,0,0,0,0,0,0,-1,958,722,0,0
-259,302,0,0,0,0,0,0,0,0,0,-1,965,722,0,0
-252,302,0,0,0,0,0,0,0,0,0,-1,972,722,0,0
-245,302,0,0,0,0,0,0,0,0,0,-1,979,722,0,0
-238,302,0,0,0,0,0,0,0,0,0,-1,986,722,0,0
-231,302,0,0,0,0,0,0,0,0,0,-1,993,722,0,0
-224,302,0,0,0,0,0,0,0,0,0,-1,1000,722,0,0
-217,302,0,0,0,0,0,0,0,0,0,-1,1007,722,0,0
-210,302,0,0,0,0,0,0,0,0,0,-1,1014,722,0,0
-203,302,0,0,0,0,0,0,0,0,0,-1,1021,722,0,0
-196,302,0,0,0,0,0,0,0,0,0,-1,1028,722,0,0
-189,302,0,0,0,0,0,0,0,0,0,-1,1035,722,0,0
-182,302,0,0,0,0,0,0,0,0,0,-1,1042,722,0,0
-175,302,0,0,0,0,0,0,0,0,0,-1,1049,722,0,0
-168,302,0,0,0,0,0,0,0,0,0,-1,1056,722,0,0
-161,302,0,0,0,0,0,0,0,0,0,-1,1063,722,0,0
-154,302,0,0,0,0,0,0,0,0,0,-1,1070,722,0,0
-147,302,0,0,0,0,0,0,0,0,0,-1,1077,722,0,0
-140,302,0,0,0,0,0,0,0,0,0,-1,1084,722,0,0
-133,302,0,0,0,0,0,0,0,0,0,-1,1091,722,0,0
-126,302,0,0,0,0,0,0,0,0,0,-1,1098,722,0,0
-119,302,0,0,0,0,0,0,0,0,0,-1,1105,722,0,0
-112,302,0,0,0,0,0,0,0,0,0,-1,1112,722,0,0
-105,302,0,0,0,0,0,0,0,0,0,-1,1119,722,0,0
-98,302,0,0,0,0,0,0,0,0,0,-1,1126,722,0,0
-91,302,0,0,0,0,0,0,0,0,0,-1,1133,722,0,0
-84,302,0,0,0,0,0,0,0,0,0,-1,1140,722,0,0
-77,302,0,0,0,0,0,0,0,0,0,-1,1147,722,0,0
-70,302,0,0,0,0,0,0,0,0,0,-1,1154,722,0,0
-63,302,0,0,0,0,0,0,0,0,0,-1,1161,722,0,0
-56,302,0,0,0,0,0,0,0,0,0,-1,1168,722,0,0
-49,302,0,0,0,0,0,0,0,0,0,-1,1175,722,0,0
-42,302,0,0,0,0,0,0,0,0,0,-1,1182,722,0,0
-35,302,0,0,0,0,0,0,0,0,0,-1,1189,722,0,0
-28,302,0,0,0,0,0,0,0,0,0,-1,1196,722,0,0
-21,302,0,0,0,0,0,0,0,0,0,-1,1203,722,0,0
-14,302,0,0,0,0,0,0,0,0,0,-1,1210,722,0,0
-7,302,0,0,0,0,0,0,0,0,0,-1,1217,722,0,0
0,302,0,0,0,0,0,0,0,0,0,-1,1224,722,0,0
7,302,0,0,0,0,0,0,0,0,0,-1,1231,722,0,0
14,302,0,0,0,0,0,0,0,0,0,-1,1238,722,0,0
21,302,0,0,0,0,0,0,0,0,0,-1,1245,722,0,0
28,302,0,0,0,0,0,0,0,0,0,-1,1252,722,0,0
35,302,0,0,0,0,0,0,0,0,0,-1,1259,722,0,0
42,302,0,0,0,0,0,0,0,0,0,-1,1266,722,0,0
49,302,0,0,0,0,0,0,0,0,0,-1,1273,722,0,0
56,302,0,0,0,0,0,0,0,0,0,-1,1280,722,0,0
63,302,0,0,0,0,0,0,0,0,0,-1,1287,722,0,0
70,302,0,0,0,0,0,0,0,0,0,-1,1294,722,0,0
77,302,0,0,0,0,0,0,0,0,0,-1,1301,722,0,0
84,302,0,0,0,0,0,0,0,0,0,-1,1308,722,0,0
91,302,0,0,0,0,0,0,0,0,0,-1,1315,722,0,0
98,302,0,0,0,0,0,0,0,0,0,-1,1322,722,0,0
105,302,0,0,0,0,0,0,0,0,0,-1,1329,722,0,0
112,302,0,0,0,0,0,0,0,0,0,-1,1336,722,0,0
119,302,0,0,0,0,0,0,0,0,0,-1,1343,722,0,0
126,302,0,0,0,0,0,0,0,0,0,-1,1350,722,0,0
133,302,0,0,0,0,0,0,0,0,0,-1,1357,722,0,0
140,302,0,0,0,0,0,0,0,0,0,-1,1364,722,0,0
147,302,0,0,0,0,0,0,0,0,0,-1,1371,722,0,0
154,302,0,0,0,0,0,0,0,0,0,-1,1378,722,0,0
161,302,0,0,0,0,0,0,0,0,0,-1,1385,722,0,0
168,302,0,0,0,0,0,0,0,0,0,-1,1392,722,0,0
175,302,0,0,0,0,0,0,0,0,0,-1,1399,722,0,0
182,302,0,0,0,0,0,0,0,0,0,-1,1406,722,0,0
189,302,0,0,0,0,0,0,0,0,0,-1,1413,722,0,0
196,302,0,0,0,0,0,0,0,0,0,-1,1420,722,0,0
203,302,0,0,0,0,0,0,0,0,0,-1,1427,722,0,0
210,302,0,0,0,0,0,0,0,0,0,-1,1434,722,0,0
217,302,0,0,0,0,0,0,0,0,0,-1,1441,722,0,0
224,302,0,0,0,0,0,0,0,0,0,-1,1448,722,0,0
231,302,0,0,0,0,0,0,0,0,0,-1,1455,722,0,0
238,302,0,0,0,0,0,0,0,0,0,-1,1462,722,0,0
245,302,0,0,0,0,0,0,0,0,0,-1,1469,722,0,0
252,302,0,0,0,0,0,0,0,0,0,-1,1476,722,0,0
259,302,0,0,0,0,0,0,0,0,0,-1,1483,722,0,0
266,302,0,0,0,0,0,0,0,0,0,-1,1490,722,0,0
273,302,0,0,0,0,0,0,0,0,0,-1,1497,722,0,0
280,302,0,0,0,0,0,0,0,0,0,-1,1504,722,0,0
287,302,0,0,0,0,0,0,0,0,0,-1,1511,722,0,0
294,302,0,0,0,0,0,0,0,0,0,-1,1518,722,0,0
301,302,0,0,0,0,0,0,0,0,0,-1,1525,722,0,0
308,302,0,0,0,0,0,0,0,0,0,-1,1532,722,0,0
315,302,0,0,0,0,0,0,0,0,0,-1,1539,722,0,0
322,302,0,0,0,0,0,0,0,0,0,-1,1546,722,0,0
329,302,0,0,0,0,0,0,0,0,0,-1,1553,722,0,0
336,302,0,0,0,0,0,0,0,0,0,-1,1560,722,0,0
343,302,0,0,0,0,0,0,0,0,0,-1,1567,722,0,0
350,302,0,0,0,0,0,0,0,0,0,-1,1574,722,0,0
357,302,0,0,0,0,0,0,0,0,0,-1,1581,722,0,0
364,302,0,0,0,0,0,0,0,0,0,-1,1588,722,0,0
371,302,0,0,0,0,0,0,0,0,0,-1,1595,722,0,0
378,302,0,0,0,0,0,0,0,0,0,-1,1602,722,0,0
385,302,0,0,0,0,0,0,0,0,0,-1,1609,722,0,0
392,302,0,0,0,0,0,0,0,0,0,-1,1616,722,0,0
399,302,0,0,0,0,0,0,0,0,0,-1,1623,722,0,0
406,302,0,0,0,0,0,0,0,0,0,-1,1630,722,0,0
413,302,0,0,0,0,0,0,0,0,0,-1,1637,722,0,0
420,302,0,0,0,0,0,0,0,0,0,-1,1644,722,0,0
427,302,0,0,0,0,0,0,0,0,0,-1,1651,722,0,0
434,302,0,0,0,0,0,0,0,0,0,-1,1658,722,0,0
441,302,0,0,0,0,0,0,0,0,0,-1,1665,722,0,0
448,302,0,0,0,0,0,0,0,0,0,-1,1672,722,0,0
455,302,0,0,0,0,0,0,0,0,0,-1,1679,722,0,0
462,302,0,0,0,0,0,0,0,0,0,-1,1686,722,0,0
469,302,0,0,0,0,0,0,0,0,0,-1,1693,722,0,0
476,302,0,0,0,0,0,0,0,0,0,-1,1700,722,0,0
483,302,0,0,0,0,0,0,0,0,0,-1,1707,722,0,0
490,302,0,0,0,0,0,0,0,0,0,-1,1714,722,0,0
497,302,0,0,0,0,0,0,0,0,0,-1,1721,722,0,0
504,302,0,0,0,0,0,0,0,0,0,-1,1728,722,0,0
511,302,0,0,0,0,0,0,0,0,0,-1,1735,722,0,0
518,302,0,0,0,0,0,0,0,0,0,-1,1742,722,0,0
525,302,0,0,0,0,0,0,0,0,0,-1,1749,722,0,0
532,302,0,0,0,0,0,0,0,0,0,-1,1756,722,0,0
539,302,0,0,0,0,0,0,0,0,0,-1,1763,722,0,0
546,302,48.9873,1.50562,0,0,0,0,0,0,0,-1,1770,722,48.9873,-1.50562
553,302,56.7844,3.46533,0,0,0,0,0,0,0,-1,1777,722,56.7844,-3.4653
560,302,56.7115,3.84808,0,0,0,0,0,0,0,-1,1784,722,56.7116,-3.84806
567,302,55.9475,4.24542,0,0,0,0,0,0,0,-1,1791,722,55.9475,-4.24542
574,302,45.9537,6.00867,0,0,0,0,0,0,0,-1,1798,722,45.9537,-6.00864
581,302,45.137,7.38043,0,0,0,0,0,0,0,-1,1805,722,45.1369,-7.38044
588,302,26.9731,7.19983,0,0,0,0,0,0,0,-1,1812,722,26.9732,-7.19981
595,302,27.3826,8.13104,0,0,0,0,0,0,0,-1,1819,722,27.3825,-8.13102
602,302,14.7349,5.21246,0,0,0,0,0,0,0,-1,1826,722,14.7349,-5.21247
609,302,31.1039,-6.34253,0,0,0,0,0,0,0,-1,1833,722,31.1039,6.34254
616,302,74.8665,-16.7825,0,0,0,0,0,0,0,-1,1840,722,74.8664,16.7825
623,302,143.144,-13.0864,0,0,0,0,0,0,0,-1,1847,722,143.143,13.0863
630,302,149.469,-9.75354,0,0,0,0,0,0,0,-1,1854,722,149.469,9.75357
637,302,148.346,-6.61444,-0.00256859,0.0166038,-0.00369133,0.01729,-0.00325473,-1.38701,0.0127508,0.0425438,1861,722,148.346,6.61447
644,302,147.599,-3.65314,-0.0023254,0.0185364,-0.00822172,0.0213871,-0.00517608,-1.23704,0.0162604,0.027245,1868,722,147.599,3.65317
651,302,146.957,-0.73584,-0.00181055,0.0209889,-0.0124565,0.0264746,-0.00729628,-1.15596,0.0205189,0.024008,1875,722,146.957,0.735838
658,302,146.444,2.07507,-0.00101206,0.0238747,-0.0164257,0.0320381,-0.00917548,-1.10956,0.0249853,0.0300391,1882,722,146.444,-2.07506
665,302,145.805,4.93866,-0.000100785,0.0271853,-0.0201745,0.0378968,-0.0108123,-1.0827,0.0295359,0.0277321,1889,722,145.805,-4.93867
672,302,145.129,7.77496,0.00101852,0.0310194,-0.0236745,0.0440457,-0.0120077,-1.06778,0.034079,0.0187062,1896,722,145.129,-7.77496
679,302,144.603,10.5626,0.00248563,0.0353753,-0.0268496,0.0504159,-0.012555,-1.06017,0.0384844,0.0148248,1903,722,144.603,-10.5626
686,302,144.056,13.2899,0.00416818,0.0408499,-0.0297253,0.0574372,-0.0124192,-1.06182,0.0430328,0.0356881,1910,722,144.056,-13.2899
693,302,143.426,15.948,0,0,0,0,0,0,0,-1,1917,722,143.426,-15.948
700,302,25.4069,1.97308,0,0,0,0,0,0,0,-1,1924,722,25.4068,-1.97311
707,302,16.7321,4.76685,0,0,0,0,0,0,0,-1,1931,722,16.7321,-4.76687
714,302,17.2,5.77594,0,0,0,0,0,0,0,-1,1938,722,17.2,-5.77595
721,302,17.7914,6.60394,0,0,0,0,0,0,0,-1,1945,722,17.7914,-6.60395
728,302,17.2798,4.81702,0,0,0,0,0,0,0,-1,1952,722,17.2798,-4.81703
735,302,0,0,0,0,0,0,0,0,0,-1,1959,722,0,0
742,302,0,0,0,0,0,0,0,0,0,-1,1966,722,0,0
749,302,0,0,0,0,0,0,0,0,0,-1,1973,722,0,0
756,302,0,0,0,0,0,0,0,0,0,-1,1980,722,0,0
763,302,0,0,0,0,0,0,0,0,0,-1,1987,722,0,0
770,302,0,0,0,0,0,0,0,0,0,-1,1994,722,0,0
777,302,0,0,0,0,0,0,0,0,0,-1,2001,722,0,0
784,302,0,0,0,0,0,0,0,0,0,-1,2008,722,0,0
791,302,0,0,0,0,0,0,0,0,0,-1,2015,722,0,0
798,302,0,0,0,0,0,0,0,0,0,-1,2022,722,0,0
805,302,0,0,0,0,0,0,0,0,0,-1,2029,722,0,0
812,302,0,0,0,0,0,0,0,0,0,-1,2036,722,0,0
-700,295,0,0,0,0,0,0,0,0,0,-1,524,729,0,0
-693,295,0,0,0,0,0,0,0,0,0,-1,531,729,0,0
-686,295,0,0,0,0,0,0,0,0,0,-1,538,729,0,0
-679,295,0,0,0,0,0,0,0,0,0,-1,545,729,0,0
-672,295,0,0,0,0,0,0,0,0,0,-1,552,729,0,0
-665,295,0,0,0,0,0,0,0,0,0,-1,559,729,0,0
-658,295,0,0,0,0,0,0,0,0,0,-1,566,729,0,0
-651,295,0,0,0,0,0,0,0,0,0,-1,573,729,0,0
-644,295,0,0,0,0,0,0,0,0,0,-1,580,729,0,0
-637,295,0,0,0,0,0,0,0,0,0,-1,587,729,0,0
-630,295,0,0,0,0,0,0,0,0,0,-1,594,729,0,0
-623,295,0,0,0,0,0,0,0,0,0,-1,601,729,0,0
-616,295,-13.4911,1.31738,0,0,0,0,0,0,0,-1,608,729,-13.4911,-1.3174
-609,295,-10.2864,0.832031,0,0,0,0,0,0,0,-1,615,729,-10.2863,-0.832034
-602,295,-8.19006,3.01587,0,0,0,0,0,0,0,-1,622,729,-8.19005,-3.01588
-595,295,-0.615479,-1.95447,0,0,0,0,0,0,0,-1,629,729,-0.615481,1.95445
-588,295,-7.98999,1.56903,0,0,0,0,0,0,0,-1,636,729,-7.98997,-1.56905
-581,295,-12.0404,0.150574,0,0,0,0,0,0,0,-1,643,729,-12.0404,-0.150604
-574,295,-12.1605,-0.0739746,0,0,0,0,0,0,0,-1,650,729,-12.1605,0.0739856
-567,295,-62.5502,4.69238,0,0,0,0,0,0,0,-1,657,729,-62.5503,-4.69241
-560,295,-137.467,16.0336,0,0,0,0,0,0,0,-1,664,729,-137.467,-16.0336
-553,295,-137.9,13.327,0.00328788,0.0389281,0.0307814,0.0566756,-0.0144596,1.04779,0.0434138,0.0294803,671,729,-137.9,-13.327
-546,295,-138.45,10.709,0.00314843,0.0350367,0.0265444,0.0500574,-0.0118722,1.05585,0.0379531,0.0273346,678,729,-138.45,-10.709
-539,295,-139.02,7.95459,0.00221175,0.0312824,0.0226057,0.0436226,-0.0101285,1.07111,0.0329804,0.0255427,685,729,-139.02,-7.9546
-532,295,-139.544,5.20538,0.000732862,0.0275482,0.0188692,0.0372882,-0.0090071,1.09429,0.0283423,0.0194639,692,729,-139.544,-5.20541
-525,295,-140.127,2.26404,-0.00122094,0.0240298,0.0152919,0.0312347,-0.00842588,1.13048,0.0241273,0.0192888,699,729,-140.127,-2.26405
-518,295,-140.823,-0.6297,-0.00359246,0.0206142,0.0119079,0.0254899,-0.00846821,1.18217,0.0204103,0.0177477,706,729,-140.823,0.629709
-511,295,-141.485,-3.4823,-0.00644815,0.0174497,0.00868931,0.0202751,-0.00927357,1.25642,0.0174496,0.0217727,713,729,-141.485,3.48231
-504,295,-142.282,-6.51685,-0.00965795,0.0146618,0.00573325,0.0159456,-0.0109418,1.35051,0.0156128,0.0244748,720,729,-142.282,6.51683
-497,295,-143.813,-9.73981,0,0,0,0,0,0,0,-1,727,729,-143.813,9.73981
-490,295,-52.578,-14.2667,0,0,0,0,0,0,0,-1,734,729,-52.578,14.2667
-483,295,-6.84503,-0.454651,0,0,0,0,0,0,0,-1,741,729,-6.84505,0.454639
-476,295,-13.1738,-0.836243,0,0,0,0,0,0,0,-1,748,729,-13.1738,0.836223
-469,295,-26.5608,-0.466187,0,0,0,0,0,0,0,-1,755,729,-26.5608,0.466162
-462,295,-29.7701,-0.792664,0,0,0,0,0,0,0,-1,762,729,-29.7701,0.792642
-455,295,-45.11,-2.79272,0,0,0,0,0,0,0,-1,769,729,-45.11,2.79272
-448,295,-48.0288,1.41229,0,0,0,0,0,0,0,-1,776,729,-48.0288,-1.41227
-441,295,-47.1089,1.03058,0,0,0,0,0,0,0,-1,783,729,-47.109,-1.0306
-434,295,-46.2319,1.10614,0,0,0,0,0,0,0,-1,790,729,-46.2319,-1.10612
-427,295,0,0,0,0,0,0,0,0,0,-1,797,729,0,0
-420,295,0,0,0,0,0,0,0,0,0,-1,804,729,0,0
-413,295,0,0,0,0,0,0,0,0,0,-1,811,729,0,0
-406,295,0,0,0,0,0,0,0,0,0,-1,818,729,0,0
-399,295,0,0,0,0,0,0,0,0,0,-1,825,729,0,0
-392,295,0,0,0,0,0,0,0,0,0,-1,832,729,0,0
-385,295,0,0,0,0,0,0,0,0,0,-1,839,729,0,0
-378,295,0,0,0,0,0,0,0,0,0,-1,846,729,0,0
-371,295,0,0,0,0,0,0,0,0,0,-1,853,729,0,0
-364,295,0,0,0,0,0,0,0,0,0,-1,860,729,0,0
-357,295,0,0,0,0,0,0,0,0,0,-1,867,729,0,0
-350,295,0,0,0,0,0,0,0,0,0,-1,874,729,0,0
-343,295,0,0,0,0,0,0,0,0,0,-1,881,729,0,0
-336,295,0,0,0,0,0,0,0,0,0,-1,888,729,0,0
-329,295,0,0,0,0,0,0,0,0,0,-1,895,729,0,0
-322,295,0,0,0,0,0,0,0,0,0,-1,902,729,0,0
-315,295,0,0,0,0,0,0,0,0,0,-1,909,729,0,0
-308,295,0,0,0,0,0,0,0,0,0,-1,916,729,0,0
-301,295,0,0,0,0,0,0,0,0,0,-1,923,729,0,0
-294,295,0,0,0,0,0,0,0,0,0,-1,930,729,0,0
-287,295,0,0,0,0,0,0,0,0,0,-1,937,729,0,0
-280,295,0,0,0,0,0,0,0,0,0,-1,944,729,0,0
-273,295,0,0,0,0,0,0,0,0,0,-1,951,729,0,0
-266,295,0,0,0,0,0,0,0,0,0,-1,958,729,0,0
-259,295,0,0,0,0,0,0,0,0,0,-1,965,729,0,0
-252,295,0,0,0,0,0,0,0,0,0,-1,972,729,0,0
-245,295,0,0,0,0,0,0,0,0,0,-1,979,729,0,0
-238,295,0,0,0,0,0,0,0,0,0,-1,986,729,0,0
-231,295,0,0,0,0,0,0,0,0,0,-1,993,729,0,0
-224,295,0,0,0,0,0,0,0,0,0,-1,1000,729,0,0
-217,295,0,0,0,0,0,0,0,0,0,-1,1007,729,0,0
-210,295,0,0,0,0,0,0,0,0,0,-1,1014,729,0,0
-203,295,0,0,0,0,0,0,0,0,0,-1,1021,729,0,0
-196,295,0,0,0,0,0,0,0,0,0,-1,1028,729,0,0
-189,295,0,0,0,0,0,0,0,0,0,-1,1035,729,0,0
-182,295,0,0,0,0,0,0,0,0,0,-1,1042,729,0,0
-175,295,0,0,0,0,0,0,0,0,0,-1,1049,729,0,0
-168,295,0,0,0,0,0,0,0,0,0,-1,1056,729,0,0
-161,295,0,0,0,0,0,0,0,0,0,-1,1063,729,0,0
-154,295,0,0,0,0,0,0,0,0,0,-1,1070,729,0,0
-147,295,0,0,0,0,0,0,0,0,0,-1,1077,729,0,0
-140,295,0,0,0,0,0,0,0,0,0,-1,1084,729,0,0
-133,295,0,0,0,0,0,0,0,0,0,-1,1091,729,0,0
-126,295,0,0,0,0,0,0,0,0,0,-1,1098,729,0,0
-119,295,0,0,0,0,0,0,0,0,0,-1,1105,729,0,0
-112,295,0,0,0,0,0,0,0,0,0,-1,1112,729,0,0
-105,295,0,0,0,0,0,0,0,0,0,-1,1119,729,0,0
-98,295,0,0,0,0,0,0,0,0,0,-1,1126,729,0,0
-91,295,0,0,0,0,0,0,0,0,0,-1,1133,729,0,0
-84,295,0,0,0,0,0,0,0,0,0,-1,1140,729,0,0
-77,295,0,0,0,0,0,0,0,0,0,-1,1147,729,0,0
-70,295,0,0,0,0,0,0,0,0,0,-1,1154,729,0,0
-63,295,0,0,0,0,0,0,0,0,0,-1,1161,729,0,0
-56,295,0,0,0,0,0,0,0,0,0,-1,1168,729,0,0
-49,295,0,0,0,0,0,0,0,0,0,-1,1175,729,0,0
-42,295,0,0,0,0,0,0,0,0,0,-1,1182,729,0,0
-35,295,0,0,0,0,0,0,0,0,0,-1,1189,729,0,0
-28,295,0,0,0,0,0,0,0,0,0,-1,1196,729,0,0
-21,295,0,0,0,0,0,0,0,0,0,-1,1203,729,0,0
-14,295,0,0,0,0,0,0,0,0,0,-1,1210,729,0,0
-7,295,0,0,0,0,0,0,0,0,0,-1,1217,729,0,0
0,295,0,0,0,0,0,0,0,0,0,-1,1224,729,0,0
7,295,0,0,0,0,0,0,0,0,0,-1,1231,729,0,0
14,295,0,0,0,0,0,0,0,0,0,-1,1238,729,0,0
21,295,0,0,0,0,0,0,0,0,0,-1,1245,729,0,0
28,295,0,0,0,0,0,0,0,0,0,-1,1252,729,0,0
35,295,0,0,0,0,0,0,0,0,0,-1,1259,729,0,0
42,295,0,0,0,0,0,0,0,0,0,-1,1266,729,0,0
49,295,0,0,0,0,0,0,0,0,0,-1,1273,729,0,0
56,295,0,0,0,0,0,0,0,0,0,-1,1280,729,0,0
63,295,0,0,0,0,0,0,0,0,0,-1,1287,729,0,0
70,295,0,0,0,0,0,0,0,0,0,-1,1294,729,0,0
77,295,0,0,0,0,0,0,0,0,0,-1,1301,729,0,0
84,295,0,0,0,0,0,0,0,0,0,-1,1308,729,0,0
91,295,0,0,0,0,0,0,0,0,0,-1,1315,729,0,0
98,295,0,0,0,0,0,0,0,0,0,-1,1322,729,0,0
105,295,0,0,0,0,0,0,0,0,0,-1,1329,729,0,0
112,295,0,0,0,0,0,0,0,0,0,-1,1336,729,0,0
119,295,0,0,0,0,0,0,0,0,0,-1,1343,729,0,0
126,295,0,0,0,0,0,0,0,0,0,-1,1350,729,0,0
133,295,0,0,0,0,0,0,0,0,0,-1,1357,729,0,0
140,295,0,0,0,0,0,0,0,0,0,-1,1364,729,0,0
147,295,0,0,0,0,0,0,0,0,0,-1,1371,729,0,0
154,295,0,0,0,0,0,0,0,0,0,-1,1378,729,0,0
161,295,0,0,0,0,0,0,0,0,0,-1,1385,729,0,0
168,295,0,0,0,0,0,0,0,0,0,-1,1392,729,0,0
175,295,0,0,0,0,0,0,0,0,0,-1,1399,729,0,0
182,295,0,0,0,0,0,0,0,0,0,-1,1406,729,0,0
189,295,0,0,0,0,0,0,0,0,0,-1,1413,729,0,0
196,295,0,0,0,0,0,0,0,0,0,-1,1420,729,0,0
203,295,0,0,0,0,0,0,0,0,0,-1,1427,729,0,0
210,295,0,0,0,0,0,0,0,0,0,-1,1434,729,0,0
217,295,0,0,0,0,0,0,0,0,0,-1,1441,729,0,0
224,295,0,0,0,0,0,0,0,0,0,-1,1448,729,0,0
231,295,0,0,0,0,0,0,0,0,0,-1,1455,729,0,0
238,295,0,0,0,0,0,0,0,0,0,-1,1462,729,0,0
245,295,0,0,0,0,0,0,0,0,0,-1,1469,729,0,0
252,295,0,0,0,0,0,0,0,0,0,-1,1476,729,0,0
259,295,0,0,0,0,0,0,0,0,0,-1,1483,729,0,0
266,295,0,0,0,0,0,0,0,0,0,-1,1490,729,0,0
273,295,0,0,0,0,0,0,0,0,0,-1,1497,729,0,0
280,295,0,0,0,0,0,0,0,0,0,-1,1504,729,0,0
287,295,0,0,0,0,0,0,0,0,0,-1,1511,729,0,0
294,295,0,0,0,0,0,0,0,0,0,-1,1518,729,0,0
301,295,0,0,0,0,0,0,0,0,0,-1,1525,729,0,0
308,295,0,0,0,0,0,0,0,0,0,-1,1532,729,0,0
315,295,0,0,0,0,0,0,0,0,0,-1,1539,729,0,0
322,295,0,0,0,0,0,0,0,0,0,-1,1546,729,0,0
329,295,0,0,0,0,0,0,0,0,0,-1,1553,729,0,0
336,295,0,0,0,0,0,0,0,0,0,-1,1560,729,0,0
343,295,0,0,0,0,0,0,0,0,0,-1,1567,729,0,0
350,295,0,0,0,0,0,0,0,0,0,-1,1574,729,0,0
357,295,0,0,0,0,0,0,0,0,0,-1,1581,729,0,0
364,295,0,0,0,0,0,0,0,0,0,-1,1588,729,0,0
371,295,0,0,0,0,0,0,0,0,0,-1,1595,729,0,0
378,295,0,0,0,0,0,0,0,0,0,-1,1602,729,0,0
385,295,0,0,0,0,0,0,0,0,0,-1,1609,729,0,0
392,295,0,0,0,0,0,0,0,0,0,-1,1616,729,0,0
399,295,0,0,0,0,0,0,0,0,0,-1,1623,729,0,0
406,295,0,0,0,0,0,0,0,0,0,-1,1630,729,0,0
413,295,0,0,0,0,0,0,0,0,0,-1,1637,729,0,0
420,295,0,0,0,0,0,0,0,0,0,-1,1644,729,0,0
427,295,0,0,0,0,0,0,0,0,0,-1,1651,729,0,0
434,295,0,0,0,0,0,0,0,0,0,-1,1658,729,0,0
441,295,0,0,0,0,0,0,0,0,0,-1,1665,729,0,0
448,295,0,0,0,0,0,0,0,0,0,-1,1672,729,0,0
455,295,0,0,0,0,0,0,0,0,0,-1,1679,729,0,0
462,295,0,0,0,0,0,0,0,0,0,-1,1686,729,0,0
469,295,0,0,0,0,0,0,0,0,0,-1,1693,729,0,0
476,295,0,0,0,0,0,0,0,0,0,-1,1700,729,0,0
483,295,0,0,0,0,0,0,0,0,0,-1,1707,729,0,0
490,295,0,0,0,0,0,0,0,0,0,-1,1714,729,0,0
497,295,0,0,0,0,0,0,0,0,0,-1,1721,729,0,0
504,295,0,0,0,0,0,0,0,0,0,-1,1728,729,0,0
511,295,0,0,0,0,0,0,0,0,0,-1,1735,729,0,0
518,295,0,0,0,0,0,0,0,0,0,-1,1742,729,0,0
525,295,0,0,0,0,0,0,0,0,0,-1,1749,729,0,0
532,295,0,0,0,0,0,0,0,0,0,-1,1756,729,0,0
539,295,0,0,0,0,0,0,0,0,0,-1,1763,729,0,0
546,295,57.4674,2.36884,0,0,0,0,0,0,0,-1,1770,729,57.4674,-2.36883
553,295,57.1969,2.73846,0,0,0,0,0,0,0,-1,1777,729,57.197,-2.73843
560,295,57.0291,3.27454,0,0,0,0,0,0,0,-1,1784,729,57.029,-3.27454
567,295,56.6243,3.88239,0,0,0,0,0,0,0,-1,1791,729,56.6242,-3.8824
574,295,56.5275,4.755,0,0,0,0,0,0,0,-1,1798,729,56.5274,-4.75501
581,295,37.8191,2.19592,0,0,0,0,0,0,0,-1,1805,729,37.8191,-2.19594
588,295,39.0542,2.45679,0,0,0,0,0,0,0,-1,1812,729,39.0542,-2.45676
595,295,27.2102,6.99121,0,0,0,0,0,0,0,-1,1819,729,27.2103,-6.99121
602,295,26.9065,7.82141,0,0,0,0,0,0,0,-1,1826,729,26.9064,-7.8214
609,295,11.7737,2.19989,0,0,0,0,0,0,0,-1,1833,729,11.7736,-2.19988
616,295,45.2537,-10.4867,0,0,0,0,0,0,0,-1,1840,729,45.2537,10.4867
623,295,86.2454,-17.1973,0,0,0,0,0,0,0,-1,1847,729,86.2454,17.1973
630,295,145.647,-9.03015,0,0,0,0,0,0,0,-1,1854,729,145.647,9.03017
637,295,151.539,-6.04865,0,0,0,0,0,0,0,-1,1861,729,151.539,6.04865
644,295,150.827,-3.10645,-0.00328684,0.0168145,-0.00507747,0.0180243,-0.00449658,-1.3369,0.0137621,0.0438599,1868,729,150.827,3.10643
651,295,150.155,-0.0647583,-0.00290285,0.0192878,-0.00959252,0.0228595,-0.0064746,-1.21435,0.0177949,0.02093,1875,729,150.155,0.0647664
658,295,149.523,2.78241,-0.00222685,0.0222402,-0.0137479,0.0284095,-0.00839618,-1.14899,0.0222723,0.0231773,1882,729,149.523,-2.78238
665,295,148.836,5.52814,-0.00136361,0.0256326,-0.0176086,0.0343215,-0.0100525,-1.11241,0.0268662,0.0190269,1889,729,148.836,-5.52814
672,295,148.295,8.2934,-0.000302905,0.0295062,-0.0211978,0.0405148,-0.0113115,-1.09181,0.0314656,0.0218725,1896,729,148.295,-8.29337
679,295,147.801,11.0687,0.00110937,0.0338864,-0.0244708,0.0469496,-0.0119538,-1.08045,0.035953,0.0193937,1903,729,147.801,-11.0687
686,295,147.214,13.6955,0.0028469,0.039134,-0.0274316,0.0538794,-0.0118985,-1.07758,0.040473,0.0189111,1910,729,147.214,-13.6955
693,295,146.63,16.2946,0,0,0,0,0,0,0,-1,1917,729,146.63,-16.2946
700,295,31.3757,2.06982,0,0,0,0,0,0,0,-1,1924,729,31.3758,-2.0698
707,295,22.2661,3.05206,0,0,0,0,0,0,0,-1,1931,729,22.2662,-3.05207
714,295,17.4906,4.63068,0,0,0,0,0,0,0,-1,1938,729,17.4906,-4.63066
721,295,18.3792,5.32281,0,0,0,0,0,0,0,-1,1945,729,18.3791,-5.32283
728,295,17.379,3.74866,0,0,0,0,0,0,0,-1,1952,729,17.379,-3.74863
735,295,0,0,0,0,0,0,0,0,0,-1,1959,729,0,0
742,295,0,0,0,0,0,0,0,0,0,-1,1966,729,0,0
749,295,0,0,0,0,0,0,0,0,0,-1,1973,729,0,0
756,295,0,0,0,0,0,0,0,0,0,-1,1980,729,0,0
763,295,0,0,0,0,0,0,0,0,0,-1,1987,729,0,0
770,295,0,0,0,0,0,0,0,0,0,-1,1994,729,0,0
777,295,0,0,0,0,0,0,0,0,0,-1,2001,729,0,0
784,295,0,0,0,0,0,0,0,0,0,-1,2008,729,0,0
791,295,0,0,0,0,0,0,0,0,0,-1,2015,729,0,0
798,295,0,0,0,0,0,0,0,0,0,-1,2022,729,0,0
805,295,0,0,0,0,0,0,0,0,0,-1,2029,729,0,0
812,295,0,0,0,0,0,0,0,0,0,-1,2036,729,0,0
-700,288,0,0,0,0,0,0,0,0,0,-1,524,736,0,0
-693,288,0,0,0,0,0,0,0,0,0,-1,531,736,0,0
-686,288,0,0,0,0,0,0,0,0,0,-1,538,736,0,0
-679,288,0,0,0,0,0,0,0,0,0,-1,545,736,0,0
-672,288,0,0,0,0,0,0,0,0,0,-1,552,736,0,0
-665,288,0,0,0,0,0,0,0,0,0,-1,559,736,0,0
-658,288,0,0,0,0,0,0,0,0,0,-1,566,736,0,0
-651,288,0,0,0,0,0,0,0,0,0,-1,573,736,0,0
-644,288,0,0,0,0,0,0,0,0,0,-1,580,736,0,0
-637,288,0,0,0,0,0,0,0,0,0,-1,587,736,0,0
-630,288,0,0,0,0,0,0,0,0,0,-1,594,736,0,0
-623,288,0,0,0,0,0,0,0,0,0,-1,601,736,0,0
-616,288,-11.7584,2.4425,0,0,0,0,0,0,0,-1,608,736,-11.7584,-2.44251
-609,288,-10.3007,2.32178,0,0,0,0,0,0,0,-1,615,736,-10.3007,-2.32178
-602,288,-10.1458,-1.85559,0,0,0,0,0,0,0,-1,622,736,-10.1458,1.85556
-595,288,-7.63208,1.81769,0,0,0,0,0,0,0,-1,629,736,-7.63205,-1.81766
-588,288,-8.19269,1.50598,0,0,0,0,0,0,0,-1,636,736,-8.19268,-1.50601
-581,288,-59.2949,7.2605,0,0,0,0,0,0,0,-1,643,736,-59.2949,-7.26048
-574,288,-74.4278,8.36401,0,0,0,0,0,0,0,-1,650,736,-74.4278,-8.36403
-567,288,-140.13,18.9675,0,0,0,0,0,0,0,-1,657,736,-140.13,-18.9675
-560,288,-140.573,16.2559,0.00124208,0.0403086,0.0320943,0.0583465,-0.0167958,1.05877,0.0455406,0.0277067,664,736,-140.573,-16.2558
-553,288,-140.994,13.8481,0.00179345,0.0366949,0.0278111,0.0520768,-0.0135885,1.06559,0.0400238,0.0273921,671,736,-140.994,-13.8481
-546,288,-141.563,11.2282,0.00153166,0.0329651,0.0236668,0.0456585,-0.0111617,1.0785,0.0347621,0.0299642,678,736,-141.563,-11.2282
-539,288,-142.114,8.47058,0.000525851,0.0293066,0.019751,0.0393536,-0.00952111,1.10023,0.0299187,0.0228086,685,736,-142.114,-8.4706
-532,288,-142.557,5.67474,-0.00108422,0.0256718,0.016016,0.0331621,-0.00857445,1.13334,0.0254523,0.0185029,692,736,-142.557,-5.67475
-525,288,-143.131,2.849,-0.00322916,0.0221783,0.0124458,0.0272589,-0.00830975,1.18323,0.021485,0.0179203,699,736,-143.131,-2.84897
-518,288,-143.843,-0.00427246,-0.0059391,0.0187795,0.00908294,0.0217582,-0.00891773,1.25391,0.0182206,0.0229105,706,736,-143.843,0.0042582
-511,288,-144.646,-2.90405,-0.00929001,0.0155414,0.00592529,0.0168828,-0.0106314,1.34816,0.0160214,0.0244457,713,736,-144.646,2.90403
-504,288,-145.188,-5.80164,0,0,0,0,0,0,0,-1,720,736,-145.187,5.80161
-497,288,-81.8885,-16.6532,0,0,0,0,0,0,0,-1,727,736,-81.8885,16.6532
-490,288,-50.7991,-12.983,0,0,0,0,0,0,0,-1,734,736,-50.799,12.9831
-483,288,-17.3287,0.564758,0,0,0,0,0,0,0,-1,741,736,-17.3287,-0.56477
-476,288,-26.136,0.452148,0,0,0,0,0,0,0,-1,748,736,-26.136,-0.452177
-469,288,-27.7904,0.649841,0,0,0,0,0,0,0,-1,755,736,-27.7904,-0.649854
-462,288,-44.999,-2.65112,0,0,0,0,0,0,0,-1,762,736,-44.999,2.65111
-455,288,-49.1631,1.86432,0,0,0,0,0,0,0,-1,769,736,-49.1632,-1.8643
-448,288,-55.5283,0.0455933,0,0,0,0,0,0,0,-1,776,736,-55.5284,-0.0456
-441,288,-55.0096,0.39325,0,0,0,0,0,0,0,-1,783,736,-55.0096,-0.393269
-434,288,-46.7119,1.66388,0,0,0,0,0,0,0,-1,790,736,-46.7119,-1.66385
-427,288,0,0,0,0,0,0,0,0,0,-1,797,736,0,0
-420,288,0,0,0,0,0,0,0,0,0,-1,804,736,0,0
-413,288,0,0,0,0,0,0,0,0,0,-1,811,736,0,0
-406,288,0,0,0,0,0,0,0,0,0,-1,818,736,0,0
-399,288,0,0,0,0,0,0,0,0,0,-1,825,736,0,0
-392,288,0,0,0,0,0,0,0,0,0,-1,832,736,0,0
-385,288,0,0,0,0,0,0,0,0,0,-1,839,736,0,0
-378,288,0,0,0,0,0,0,0,0,0,-1,846,736,0,0
-371,288,0,0,0,0,0,0,0,0,0,-1,853,736,0,0
-364,288,0,0,0,0,0,0,0,0,0,-1,860,736,0,0
-357,288,0,0,0,0,0,0,0,0,0,-1,867,736,0,0
-350,288,0,0,0,0,0,0,0,0,0,-1,874,736,0,0
-343,288,0,0,0,0,0,0,0,0,0,-1,881,736,0,0
-336,288,0,0,0,0,0,0,0,0,0,-1,888,736,0,0
-329,288,0,0,0,0,0,0,0,0,0,-1,895,736,0,0
-322,288,0,0,0,0,0,0,0,0,0,-1,902,736,0,0
-315,288,0,0,0,0,0,0,0,0,0,-1,909,736,0,0
-308,288,0,0,0,0,0,0,0,0,0,-1,916,736,0,0
-301,288,0,0,0,0,0,0,0,0,0,-1,923,736,0,0
-294,288,0,0,0,0,0,0,0,0,0,-1,930,736,0,0
-287,288,0,0,0,0,0,0,0,0,0,-1,937,736,0,0
-280,288,0,0,0,0,0,0,0,0,0,-1,944,736,0,0
-273,288,0,0,0,0,0,0,0,0,0,-1,951,736,0,0
-266,288,0,0,0,0,0,0,0,0,0,-1,958,736,0,0
-259,288,0,0,0,0,0,0,0,0,0,-1,965,736,0,0
-252,288,0,0,0,0,0,0,0,0,0,-1,972,736,0,0
-245,288,0,0,0,0,0,0,0,0,0,-1,979,736,0,0
-238,288,0,0,0,0,0,0,0,0,0,-1,986,736,0,0
-231,288,0,0,0,0,0,0,0,0,0,-1,993,736,0,0
-224,288,0,0,0,0,0,0,0,0,0,-1,1000,736,0,0
-217,288,0,0,0,0,0,0,0,0,0,-1,1007,736,0,0
-210,288,0,0,0,0,0,0,0,0,0,-1,1014,736,0,0
-203,288,0,0,0,0,0,0,0,0,0,-1,1021,736,0,0
-196,288,0,0,0,0,0,0,0,0,0,-1,1028,736,0,0
-189,288,0,0,0,0,0,0,0,0,0,-1,1035,736,0,0
-182,288,0,0,0,0,0,0,0,0,0,-1,1042,736,0,0
-175,288,0,0,0,0,0,0,0,0,0,-1,1049,736,0,0
-168,288,0,0,0,0,0,0,0,0,0,-1,1056,736,0,0
-161,288,0,0,0,0,0,0,0,0,0,-1,1063,736,0,0
-154,288,0,0,0,0,0,0,0,0,0,-1,1070,736,0,0
-147,288,0,0,0,0,0,0,0,0,0,-1,1077,736,0,0
-140,288,0,0,0,0,0,0,0,0,0,-1,1084,736,0,0
-133,288,0,0,0,0,0,0,0,0,0,-1,1091,736,0,0
-126,288,0,0,0,0,0,0,0,0,0,-1,1098,736,0,0
-119,288,0,0,0,0,0,0,0,0,0,-1,1105,736,0,0
-112,288,0,0,0,0,0,0,0,0,0,-1,1112,736,0,0
-105,288,0,0,0,0,0,0,0,0,0,-1,1119,736,0,0
-98,288,0,0,0,0,0,0,0,0,0,-1,1126,736,0,0
-91,288,0,0,0,0,0,0,0,0,0,-1,1133,736,0,0
-84,288,0,0,0,0,0,0,0,0,0,-1,1140,736,0,0
-77,288,0,0,0,0,0,0,0,0,0,-1,1147,736,0,0
-70,288,0,0,0,0,0,0,0,0,0,-1,1154,736,0,0
-63,288,0,0,0,0,0,0,0,0,0,-1,1161,736,0,0
-56,288,0,0,0,0,0,0,0,0,0,-1,1168,736,0,0
-49,288,0,0,0,0,0,0,0,0,0,-1,1175,736,0,0
-42,288,0,0,0,0,0,0,0,0,0,-1,1182,736,0,0
-35,288,0,0,0,0,0,0,0,0,0,-1,1189,736,0,0
-28,288,0,0,0,0,0,0,0,0,0,-1,1196,736,0,0
-21,288,0,0,0,0,0,0,0,0,0,-1,1203,736,0,0
-14,288,0,0,0,0,0,0,0,0,0,-1,1210,736,0,0
-7,288,0,0,0,0,0,0,0,0,0,-1,1217,736,0,0
0,288,0,0,0,0,0,0,0,0,0,-1,1224,736,0,0
7,288,0,0,0,0,0,0,0,0,0,-1,1231,736,0,0
14,288,0,0,0,0,0,0,0,0,0,-1,1238,736,0,0
21,288,0,0,0,0,0,0,0,0,0,-1,1245,736,0,0
28,288,0,0,0,0,0,0,0,0,0,-1,1252,736,0,0
35,288,0,0,0,0,0,0,0,0,0,-1,1259,736,0,0
42,288,0,0,0,0,0,0,0,0,0,-1,1266,736,0,0
49,288,0,0,0,0,0,0,0,0,0,-1,1273,736,0,0
56,288,0,0,0,0,0,0,0,0,0,-1,1280,736,0,0
63,288,0,0,0,0,0,0,0,0,0,-1,1287,736,0,0
70,288,0,0,0,0,0,0,0,0,0,-1,1294,736,0,0
77,288,0,0,0,0,0,0,0,0,0,-1,1301,736,0,0
84,288,0,0,0,0,0,0,0,0,0,-1,1308,736,0,0
91,288,0,0,0,0,0,0,0,0,0,-1,1315,736,0,0
98,288,0,0,0,0,0,0,0,0,0,-1,1322,736,0,0
105,288,0,0,0,0,0,0,0,0,0,-1,1329,736,0,0
112,288,0,0,0,0,0,0,0,0,0,-1,1336,736,0,0
119,288,0,0,0,0,0,0,0,0,0,-1,1343,736,0,0
126,288,0,0,0,0,0,0,0,0,0,-1,1350,736,0,0
133,288,0,0,0,0,0,0,0,0,0,-1,1357,736,0,0
140,288,0,0,0,0,0,0,0,0,0,-1,1364,736,0,0
147,288,0,0,0,0,0,0,0,0,0,-1,1371,736,0,0
154,288,0,0,0,0,0,0,0,0,0,-1,1378,736,0,0
161,288,0,0,0,0,0,0,0,0,0,-1,1385,736,0,0
168,288,0,0,0,0,0,0,0,0,0,-1,1392,736,0,0
175,288,0,0,0,0,0,0,0,0,0,-1,1399,736,0,0
182,288,0,0,0,0,0,0,0,0,0,-1,1406,736,0,0
189,288,0,0,0,0,0,0,0,0,0,-1,1413,736,0,0
196,288,0,0,0,0,0,0,0,0,0,-1,1420,736,0,0
203,288,0,0,0,0,0,0,0,0,0,-1,1427,736,0,0
210,288,0,0,0,0,0,0,0,0,0,-1,1434,736,0,0
217,288,0,0,0,0,0,0,0,0,0,-1,1441,736,0,0
224,288,0,0,0,0,0,0,0,0,0,-1,1448,736,0,0
231,288,0,0,0,0,0,0,0,0,0,-1,1455,736,0,0
238,288,0,0,0,0,0,0,0,0,0,-1,1462,736,0,0
245,288,0,0,0,0,0,0,0,0,0,-1,1469,736,0,0
252,288,0,0,0,0,0,0,0,0,0,-1,1476,736,0,0
259,288,0,0,0,0,0,0,0,0,0,-1,1483,736,0,0
266,288,0,0,0,0,0,0,0,0,0,-1,1490,736,0,0
273,288,0,0,0,0,0,0,0,0,0,-1,1497,736,0,0
280,288,0,0,0,0,0,0,0,0,0,-1,1504,736,0,0
287,288,0,0,0,0,0,0,0,0,0,-1,1511,736,0,0
294,288,0,0,0,0,0,0,0,0,0,-1,1518,736,0,0
301,288,0,0,0,0,0,0,0,0,0,-1,1525,736,0,0
308,288,0,0,0,0,0,0,0,0,0,-1,1532,736,0,0
315,288,0,0,0,0,0,0,0,0,0,-1,1539,736,0,0
322,288,0,0,0,0,0,0,0,0,0,-1,1546,736,0,0
329,288,0,0,0,0,0,0,0,0,0,-1,1553,736,0,0
336,288,0,0,0,0,0,0,0,0,0,-1,1560,736,0,0
343,288,0,0,0,0,0,0,0,0,0,-1,1567,736,0,0
350,288,0,0,0,0,0,0,0,0,0,-1,1574,736,0,0
357,288,0,0,0,0,0,0,0,0,0,-1,1581,736,0,0
364,288,0,0,0,0,0,0,0,0,0,-1,1588,736,0,0
371,288,0,0,0,0,0,0,0,0,0,-1,1595,736,0,0
378,288,0,0,0,0,0,0,0,0,0,-1,1602,736,0,0
385,288,0,0,0,0,0,0,0,0,0,-1,1609,736,0,0
392,288,0,0,0,0,0,0,0,0,0,-1,1616,736,0,0
399,288,0,0,0,0,0,0,0,0,0,-1,1623,736,0,0
406,288,0,0,0,0,0,0,0,0,0,-1,1630,736,0,0
413,288,0,0,0,0,0,0,0,0,0,-1,1637,736,0,0
420,288,0,0,0,0,0,0,0,0,0,-1,1644,736,0,0
427,288,0,0,0,0,0,0,0,0,0,-1,1651,736,0,0
434,288,0,0,0,0,0,0,0,0,0,-1,1658,736,0,0
441,288,0,0,0,0,0,0,0,0,0,-1,1665,736,0,0
448,288,0,0,0,0,0,0,0,0,0,-1,1672,736,0,0
455,288,0,0,0,0,0,0,0,0,0,-1,1679,736,0,0
462,288,0,0,0,0,0,0,0,0,0,-1,1686,736,0,0
469,288,0,0,0,0,0,0,0,0,0,-1,1693,736,0,0
476,288,0,0,0,0,0,0,0,0,0,-1,1700,736,0,0
483,288,0,0,0,0,0,0,0,0,0,-1,1707,736,0,0
490,288,0,0,0,0,0,0,0,0,0,-1,1714,736,0,0
497,288,0,0,0,0,0,0,0,0,0,-1,1721,736,0,0
504,288,0,0,0,0,0,0,0,0,0,-1,1728,736,0,0
511,288,0,0,0,0,0,0,0,0,0,-1,1735,736,0,0
518,288,0,0,0,0,0,0,0,0,0,-1,1742,736,0,0
525,288,0,0,0,0,0,0,0,0,0,-1,1749,736,0,0
532,288,0,0,0,0,0,0,0,0,0,-1,1756,736,0,0
539,288,0,0,0,0,0,0,0,0,0,-1,1763,736,0,0
546,288,0,0,0,0,0,0,0,0,0,-1,1770,736,0,0
553,288,57.4934,2.28064,0,0,0,0,0,0,0,-1,1777,736,57.4934,-2.28064
560,288,57.3807,3.02881,0,0,0,0,0,0,0,-1,1784,736,57.3808,-3.0288
567,288,57.2081,3.74274,0,0,0,0,0,0,0,-1,1791,736,57.2081,-3.74273
574,288,56.9817,4.36981,0,0,0,0,0,0,0,-1,1798,736,56.9816,-4.36984
581,288,53.4904,5.33215,0,0,0,0,0,0,0,-1,1805,736,53.4904,-5.33218
588,288,54.9313,3.29852,0,0,0,0,0,0,0,-1,1812,736,54.9313,-3.29849
595,288,47.035,3.35156,0,0,0,0,0,0,0,-1,1819,736,47.035,-3.35157
602,288,26.7634,7.61279,0,0,0,0,0,0,0,-1,1826,736,26.7635,-7.61279
609,288,17.5223,4.86414,0,0,0,0,0,0,0,-1,1833,736,17.5223,-4.86412
616,288,13.4886,0.801331,0,0,0,0,0,0,0,-1,1840,736,13.4886,-0.80132
623,288,57.6567,-12.0563,0,0,0,0,0,0,0,-1,1847,736,57.6568,12.0563
630,288,145.987,-8.1131,0,0,0,0,0,0,0,-1,1854,736,145.987,8.11312
637,288,154.584,-5.32196,0,0,0,0,0,0,0,-1,1861,736,154.584,5.32197
644,288,153.828,-2.54022,-0.00423139,0.0150049,-0.00231165,0.0152788,-0.00450528,-1.45286,0.0119736,0.0481728,1868,736,153.828,2.5402
651,288,153.185,0.495422,-0.00408908,0.0174042,-0.00696379,0.0194632,-0.00614809,-1.28331,0.0154384,0.0284537,1875,736,153.185,-0.495417
658,288,152.429,3.39001,-0.00360834,0.02036,-0.0111952,0.0247756,-0.00802396,-1.19511,0.019743,0.0254066,1882,736,152.429,-3.39003
665,288,151.845,6.08228,-0.00282751,0.0238161,-0.0151298,0.0306532,-0.00966462,-1.14637,0.0243061,0.0246012,1889,736,151.845,-6.08227
672,288,151.384,8.81519,-0.00181415,0.0277262,-0.0187969,0.0368617,-0.0109496,-1.1184,0.0289237,0.0286917,1896,736,151.384,-8.81522
679,288,150.888,11.5758,-0.000408554,0.0321292,-0.0221838,0.0433703,-0.0116496,-1.10178,0.0334793,0.0266418,1903,736,150.888,-11.5758
686,288,150.272,14.0973,0.00143763,0.0372308,-0.0252782,0.0503063,-0.0116379,-1.09343,0.0380154,0.0209765,1910,736,150.272,-14.0973
693,288,149.732,16.7288,0.00371711,0.0428524,-0.0280988,0.0575256,-0.0109561,-1.08955,0.042476,0.0400019,1917,736,149.732,-16.7288
700,288,149.169,19.4426,0,0,0,0,0,0,0,-1,1924,736,149.169,-19.4426
707,288,30.9496,3.07977,0,0,0,0,0,0,0,-1,1931,736,30.9496,-3.07975
714,288,23.0149,3.82544,0,0,0,0,0,0,0,-1,1938,736,23.0149,-3.82541
721,288,18.0732,3.69385,0,0,0,0,0,0,0,-1,1945,736,18.0732,-3.69387
728,288,19.3208,3.91455,0,0,0,0,0,0,0,-1,1952,736,19.3209,-3.91455
735,288,18.7712,3.51312,0,0,0,0,0,0,0,-1,1959,736,18.7713,-3.51309
742,288,0,0,0,0,0,0,0,0,0,-1,1966,736,0,0
749,288,0,0,0,0,0,0,0,0,0,-1,1973,736,0,0
756,288,0,0,0,0,0,0,0,0,0,-1,1980,736,0,0
763,288,0,0,0,0,0,0,0,0,0,-1,1987,736,0,0
770,288,0,0,0,0,0,0,0,0,0,-1,1994,736,0,0
777,288,0,0,0,0,0,0,0,0,0,-1,2001,736,0,0
784,288,0,0,0,0,0,0,0,0,0,-1,2008,736,0,0
791,288,0,0,0,0,0,0,0,0,0,-1,2015,736,0,0
798,288,0,0,0,0,0,0,0,0,0,-1,2022,736,0,0
805,288,0,0,0,0,0,0,0,0,0,-1,2029,736,0,0
812,288,0,0,0,0,0,0,0,0,0,-1,2036,736,0,0
-700,281,0,0,0,0,0,0,0,0,0,-1,524,743,0,0
-693,281,0,0,0,0,0,0,0,0,0,-1,531,743,0,0
-686,281,0,0,0,0,0,0,0,0,0,-1,538,743,0,0
-679,281,0,0,0,0,0,0,0,0,0,-1,545,743,0,0
-672,281,0,0,0,0,0,0,0,0,0,-1,552,743,0,0
-665,281,0,0,0,0,0,0,0,0,0,-1,559,743,0,0
-658,281,0,0,0,0,0,0,0,0,0,-1,566,743,0,0
-651,281,0,0,0,0,0,0,0,0,0,-1,573,743,0,0
-644,281,0,0,0,0,0,0,0,0,0,-1,580,743,0,0
-637,281,0,0,0,0,0,0,0,0,0,-1,587,743,0,0
-630,281,0,0,0,0,0,0,0,0,0,-1,594,743,0,0
-623,281,-19.1697,5.67017,0,0,0,0,0,0,0,-1,601,743,-19.1697,-5.67019
-616,281,-11.5906,2.6853,0,0,0,0,0,0,0,-1,608,743,-11.5906,-2.68529
-609,281,-16.1972,4.14838,0,0,0,0,0,0,0,-1,615,743,-16.1972,-4.14837
-602,281,-21.9772,6.77417,0,0,0,0,0,0,0,-1,622,743,-21.9771,-6.77415
-595,281,-10.4797,-1.07404,0,0,0,0,0,0,0,-1,629,743,-10.4798,1.07402
-588,281,-61.8041,9.54553,0,0,0,0,0,0,0,-1,636,743,-61.8041,-9.54551
-581,281,-76.5182,10.7938,0,0,0,0,0,0,0,-1,643,743,-76.5183,-10.7938
-574,281,-142.949,21.5586,0,0,0,0,0,0,0,-1,650,743,-142.949,-21.5586
-567,281,-143.219,19.1385,-0.00144895,0.0426792,0.0331074,0.0604011,-0.0191709,1.07932,0.0479526,0.033117,657,743,-143.219,-19.1385
-560,281,-143.639,16.6647,0.00017417,0.0385805,0.028907,0.0540814,-0.0153268,1.07858,0.0421036,0.0138163,664,743,-143.639,-16.6647
-553,281,-144.149,14.1284,0.000449222,0.0347868,0.0248009,0.0477817,-0.0125457,1.08816,0.0367571,0.0295704,671,743,-144.149,-14.1284
-546,281,-144.611,11.6006,-2.63826e-05,0.0310292,0.0207867,0.0414475,-0.0104447,1.10619,0.0316922,0.0328864,678,743,-144.611,-11.6006
-539,281,-145.104,8.85272,-0.0011782,0.0273422,0.0169313,0.0352185,-0.00905448,1.13538,0.0270079,0.0222171,685,743,-145.105,-8.85275
-532,281,-145.621,6.15918,-0.00296851,0.023696,0.0132505,0.0291606,-0.00843317,1.17964,0.0227779,0.0195234,692,743,-145.621,-6.15917
-525,281,-146.13,3.37439,-0.00534661,0.0201231,0.00975536,0.0234302,-0.00865369,1.24395,0.0191673,0.0289466,699,743,-146.13,-3.37436
-518,281,-146.746,0.43689,-0.00847349,0.0166614,0.00649604,0.018241,-0.0100531,1.33226,0.0165621,0.0377069,706,743,-146.746,-0.436871
-511,281,-147.759,-2.38361,-0.0124703,0.0132257,0.00354542,0.0137059,-0.0129505,1.43617,0.0153921,0.0336708,713,743,-147.759,2.38363
-504,281,-148.687,-5.17133,0,0,0,0,0,0,0,-1,720,743,-148.687,5.17132
-497,281,-73.8456,-14.3827,0,0,0,0,0,0,0,-1,727,743,-73.8456,14.3827
-490,281,-27.6985,-9.63165,0,0,0,0,0,0,0,-1,734,743,-27.6986,9.63165
-483,281,-22.1078,-2.34973,0,0,0,0,0,0,0,-1,741,743,-22.1078,2.3497
-476,281,-28.0016,2.17786,0,0,0,0,0,0,0,-1,748,743,-28.0016,-2.17786
-469,281,-34.6448,0.171692,0,0,0,0,0,0,0,-1,755,743,-34.6448,-0.171685
-462,281,-46.6214,0.0193481,0,0,0,0,0,0,0,-1,762,743,-46.6214,-0.0193665
-455,281,-56.0239,-0.1521,0,0,0,0,0,0,0,-1,769,743,-56.024,0.152123
-448,281,-55.8145,0.304321,0,0,0,0,0,0,0,-1,776,743,-55.8145,-0.304294
-441,281,-55.4486,0.766052,0,0,0,0,0,0,0,-1,783,743,-55.4486,-0.766078
-434,281,0,0,0,0,0,0,0,0,0,-1,790,743,0,0
-427,281,0,0,0,0,0,0,0,0,0,-1,797,743,0,0
-420,281,0,0,0,0,0,0,0,0,0,-1,804,743,0,0
-413,281,0,0,0,0,0,0,0,0,0,-1,811,743,0,0
-406,281,0,0,0,0,0,0,0,0,0,-1,818,743,0,0
-399,281,0,0,0,0,0,0,0,0,0,-1,825,743,0,0
-392,281,0,0,0,0,0,0,0,0,0,-1,832,743,0,0
-385,281,0,0,0,0,0,0,0,0,0,-1,839,743,0,0
-378,281,0,0,0,0,0,0,0,0,0,-1,846,743,0,0
-371,281,0,0,0,0,0,0,0,0,0,-1,853,743,0,0
-364,281,0,0,0,0,0,0,0,0,0,-1,860,743,0,0
-357,281,0,0,0,0,0,0,0,0,0,-1,867,743,0,0
-350,281,0,0,0,0,0,0,0,0,0,-1,874,743,0,0
-343,281,0,0,0,0,0,0,0,0,0,-1,881,743,0,0
-336,281,0,0,0,0,0,0,0,0,0,-1,888,743,0,0
-329,281,0,0,0,0,0,0,0,0,0,-1,895,743,0,0
-322,281,0,0,0,0,0,0,0,0,0,-1,902,743,0,0
-315,281,0,0,0,0,0,0,0,0,0,-1,909,743,0,0
-308,281,0,0,0,0,0,0,0,0,0,-1,916,743,0,0
-301,281,0,0,0,0,0,0,0,0,0,-1,923,743,0,0
-294,281,0,0,0,0,0,0,0,0,0,-1,930,743,0,0
-287,281,0,0,0,0,0,0,0,0,0,-1,937,743,0,0
-280,281,0,0,0,0,0,0,0,0,0,-1,944,743,0,0
-273,281,0,0,0,0,0,0,0,0,0,-1,951,743,0,0
-266,281,0,0,0,0,0,0,0,0,0,-1,958,743,0,0
-259,281,0,0,0,0,0,0,0,0,0,-1,965,743,0,0
-252,281,0,0,0,0,0,0,0,0,0,-1,972,743,0,0
-245,281,0,0,0,0,0,0,0,0,0,-1,979,743,0,0
-238,281,0,0,0,0,0,0,0,0,0,-1,986,743,0,0
-231,281,0,0,0,0,0,0,0,0,0,-1,993,743,0,0
-224,281,0,0,0,0,0,0,0,0,0,-1,1000,743,0,0
-217,281,0,0,0,0,0,0,0,0,0,-1,1007,743,0,0
-210,281,0,0,0,0,0,0,0,0,0,-1,1014,743,0,0
-203,281,0,0,0,0,0,0,0,0,0,-1,1021,743,0,0
-196,281,0,0,0,0,0,0,0,0,0,-1,1028,743,0,0
-189,281,0,0,0,0,0,0,0,0,0,-1,1035,743,0,0
-182,281,0,0,0,0,0,0,0,0,0,-1,1042,743,0,0
-175,281,0,0,0,0,0,0,0,0,0,-1,1049,743,0,0
-168,281,0,0,0,0,0,0,0,0,0,-1,1056,743,0,0
-161,281,0,0,0,0,0,0,0,0,0,-1,1063,743,0,0
-154,281,0,0,0,0,0,0,0,0,0,-1,1070,743,0,0
-147,281,0,0,0,0,0,0,0,0,0,-1,1077,743,0,0
-140,281,0,0,0,0,0,0,0,0,0,-1,1084,743,0,0
-133,281,0,0,0,0,0,0,0,0,0,-1,1091,743,0,0
-126,281,0,0,0,0,0,0,0,0,0,-1,1098,743,0,0
-119,281,0,0,0,0,0,0,0,0,0,-1,1105,743,0,0
-112,281,0,0,0,0,0,0,0,0,0,-1,1112,743,0,0
-105,281,0,0,0,0,0,0,0,0,0,-1,1119,743,0,0
-98,281,0,0,0,0,0,0,0,0,0,-1,1126,743,0,0
-91,281,0,0,0,0,0,0,0,0,0,-1,1133,743,0,0
-84,281,0,0,0,0,0,0,0,0,0,-1,1140,743,0,0
-77,281,0,0,0,0,0,0,0,0,0,-1,1147,743,0,0
-70,281,0,0,0,0,0,0,0,0,0,-1,1154,743,0,0
-63,281,0,0,0,0,0,0,0,0,0,-1,1161,743,0,0
-56,281,0,0,0,0,0,0,0,0,0,-1,1168,743,0,0
-49,281,0,0,0,0,0,0,0,0,0,-1,1175,743,0,0
-42,281,0,0,0,0,0,0,0,0,0,-1,1182,743,0,0
-35,281,0,0,0,0,0,0,0,0,0,-1,1189,743,0,0
-28,281,0,0,0,0,0,0,0,0,0,-1,1196,743,0,0
-21,281,0,0,0,0,0,0,0,0,0,-1,1203,743,0,0
-14,281,0,0,0,0,0,0,0,0,0,-1,1210,743,0,0
-7,281,0,0,0,0,0,0,0,0,0,-1,1217,743,0,0
0,281,0,0,0,0,0,0,0,0,0,-1,1224,743,0,0
7,281,0,0,0,0,0,0,0,0,0,-1,1231,743,0,0
14,281,0,0,0,0,0,0,0,0,0,-1,1238,743,0,0
21,281,0,0,0,0,0,0,0,0,0,-1,1245,743,0,0
28,281,0,0,0,0,0,0,0,0,0,-1,1252,743,0,0
35,281,0,0,0,0,0,0,0,0,0,-1,1259,743,0,0
42,281,0,0,0,0,0,0,0,0,0,-1,1266,743,0,0
49,281,0,0,0,0,0,0,0,0,0,-1,1273,743,0,0
56,281,0,0,0,0,0,0,0,0,0,-1,1280,743,0,0
63,281,0,0,0,0,0,0,0,0,0,-1,1287,743,0,0
70,281,0,0,0,0,0,0,0,0,0,-1,1294,743,0,0
77,281,0,0,0,0,0,0,0,0,0,-1,1301,743,0,0
84,281,0,0,0,0,0,0,0,0,0,-1,1308,743,0,0
91,281,0,0,0,0,0,0,0,0,0,-1,1315,743,0,0
98,281,0,0,0,0,0,0,0,0,0,-1,1322,743,0,0
105,281,0,0,0,0,0,0,0,0,0,-1,1329,743,0,0
112,281,0,0,0,0,0,0,0,0,0,-1,1336,743,0,0
119,281,0,0,0,0,0,0,0,0,0,-1,1343,743,0,0
126,281,0,0,0,0,0,0,0,0,0,-1,1350,743,0,0
133,281,0,0,0,0,0,0,0,0,0,-1,1357,743,0,0
140,281,0,0,0,0,0,0,0,0,0,-1,1364,743,0,0
147,281,0,0,0,0,0,0,0,0,0,-1,1371,743,0,0
154,281,0,0,0,0,0,0,0,0,0,-1,1378,743,0,0
161,281,0,0,0,0,0,0,0,0,0,-1,1385,743,0,0
168,281,0,0,0,0,0,0,0,0,0,-1,1392,743,0,0
175,281,0,0,0,0,0,0,0,0,0,-1,1399,743,0,0
182,281,0,0,0,0,0,0,0,0,0,-1,1406,743,0,0
189,281,0,0,0,0,0,0,0,0,0,-1,1413,743,0,0
196,281,0,0,0,0,0,0,0,0,0,-1,1420,743,0,0
203,281,0,0,0,0,0,0,0,0,0,-1,1427,743,0,0
210,281,0,0,0,0,0,0,0,0,0,-1,1434,743,0,0
217,281,0,0,0,0,0,0,0,0,0,-1,1441,743,0,0
224,281,0,0,0,0,0,0,0,0,0,-1,1448,743,0,0
231,281,0,0,0,0,0,0,0,0,0,-1,1455,743,0,0
238,281,0,0,0,0,0,0,0,0,0,-1,1462,743,0,0
245,281,0,0,0,0,0,0,0,0,0,-1,1469,743,0,0
252,281,0,0,0,0,0,0,0,0,0,-1,1476,743,0,0
259,281,0,0,0,0,0,0,0,0,0,-1,1483,743,0,0
266,281,0,0,0,0,0,0,0,0,0,-1,1490,743,0,0
273,281,0,0,0,0,0,0,0,0,0,-1,1497,743,0,0
280,281,0,0,0,0,0,0,0,0,0,-1,1504,743,0,0
287,281,0,0,0,0,0,0,0,0,0,-1,1511,743,0,0
294,281,0,0,0,0,0,0,0,0,0,-1,1518,743,0,0
301,281,0,0,0,0,0,0,0,0,0,-1,1525,743,0,0
308,281,0,0,0,0,0,0,0,0,0,-1,1532,743,0,0
315,281,0,0,0,0,0,0,0,0,0,-1,1539,743,0,0
322,281,0,0,0,0,0,0,0,0,0,-1,1546,743,0,0
329,281,0,0,0,0,0,0,0,0,0,-1,1553,743,0,0
336,281,0,0,0,0,0,0,0,0,0,-1,1560,743,0,0
343,281,0,0,0,0,0,0,0,0,0,-1,1567,743,0,0
350,281,0,0,0,0,0,0,0,0,0,-1,1574,743,0,0
357,281,0,0,0,0,0,0,0,0,0,-1,1581,743,0,0
364,281,0,0,0,0,0,0,0,0,0,-1,1588,743,0,0
371,281,0,0,0,0,0,0,0,0,0,-1,1595,743,0,0
378,281,0,0,0,0,0,0,0,0,0,-1,1602,743,0,0
385,281,0,0,0,0,0,0,0,0,0,-1,1609,743,0,0
392,281,0,0,0,0,0,0,0,0,0,-1,1616,743,0,0
399,281,0,0,0,0,0,0,0,0,0,-1,1623,743,0,0
406,281,0,0,0,0,0,0,0,0,0,-1,1630,743,0,0
413,281,0,0,0,0,0,0,0,0,0,-1,1637,743,0,0
420,281,0,0,0,0,0,0,0,0,0,-1,1644,743,0,0
427,281,0,0,0,0,0,0,0,0,0,-1,1651,743,0,0
434,281,0,0,0,0,0,0,0,0,0,-1,1658,743,0,0
441,281,0,0,0,0,0,0,0,0,0,-1,1665,743,0,0
448,281,0,0,0,0,0,0,0,0,0,-1,1672,743,0,0
455,281,0,0,0,0,0,0,0,0,0,-1,1679,743,0,0
462,281,0,0,0,0,0,0,0,0,0,-1,1686,743,0,0
469,281,0,0,0,0,0,0,0,0,0,-1,1693,743,0,0
476,281,0,0,0,0,0,0,0,0,0,-1,1700,743,0,0
483,281,0,0,0,0,0,0,0,0,0,-1,1707,743,0,0
490,281,0,0,0,0,0,0,0,0,0,-1,1714,743,0,0
497,281,0,0,0,0,0,0,0,0,0,-1,1721,743,0,0
504,281,0,0,0,0,0,0,0,0,0,-1,1728,743,0,0
511,281,0,0,0,0,0,0,0,0,0,-1,1735,743,0,0
518,281,0,0,0,0,0,0,0,0,0,-1,1742,743,0,0
525,281,0,0,0,0,0,0,0,0,0,-1,1749,743,0,0
532,281,0,0,0,0,0,0,0,0,0,-1,1756,743,0,0
539,281,0,0,0,0,0,0,0,0,0,-1,1763,743,0,0
546,281,0,0,0,0,0,0,0,0,0,-1,1770,743,0,0
553,281,0,0,0,0,0,0,0,0,0,-1,1777,743,0,0
560,281,57.8354,3.06482,0,0,0,0,0,0,0,-1,1784,743,57.8354,-3.06479
567,281,57.6156,3.64508,0,0,0,0,0,0,0,-1,1791,743,57.6156,-3.64511
574,281,57.3431,4.17767,0,0,0,0,0,0,0,-1,1798,743,57.3431,-4.17769
581,281,57.0648,4.53906,0,0,0,0,0,0,0,-1,1805,743,57.0648,-4.53908
588,281,53.5422,6.00092,0,0,0,0,0,0,0,-1,1812,743,53.5422,-6.00092
595,281,54.8569,3.32269,0,0,0,0,0,0,0,-1,1819,743,54.857,-3.32269
602,281,45.9985,3.98254,0,0,0,0,0,0,0,-1,1826,743,45.9985,-3.98254
609,281,32.7925,1.28723,0,0,0,0,0,0,0,-1,1833,743,32.7925,-1.28722
616,281,21.3191,-0.253906,0,0,0,0,0,0,0,-1,1840,743,21.3191,0.253931
623,281,31.8741,-4.74182,0,0,0,0,0,0,0,-1,1847,743,31.8741,4.74184
630,281,83.0317,-13.8112,0,0,0,0,0,0,0,-1,1854,743,83.0318,13.8112
637,281,147.63,-5.0332,0,0,0,0,0,0,0,-1,1861,743,147.63,5.0332
644,281,156.568,-1.70538,0,0,0,0,0,0,0,-1,1868,743,156.568,1.70541
651,281,156.13,1.05511,0,0,0,0,0,0,0,-1,1875,743,156.13,-1.05513
658,281,155.456,3.80823,-0.0050902,0.0181888,-0.00890566,0.021205,-0.00810637,-1.24424,0.0174771,0.0305715,1882,743,155.456,-3.80822
665,281,154.793,6.49438,-0.00440308,0.0217096,-0.0128891,0.0269998,-0.0096933,-1.18132,0.0219562,0.0309516,1889,743,154.793,-6.49439
672,281,154.344,9.31818,-0.00346846,0.0256831,-0.01664,0.0332284,-0.0110138,-1.14508,0.0265949,0.0230728,1896,743,154.344,-9.31818
679,281,153.804,11.9968,-0.00213117,0.0301268,-0.020156,0.0398127,-0.0118171,-1.12283,0.031235,0.0394464,1903,743,153.804,-11.9968
686,281,153.212,14.5297,-0.000319285,0.0351168,-0.0234271,0.0467716,-0.011974,-1.10916,0.0358453,0.0320548,1910,743,153.212,-14.5297
693,281,152.717,16.992,0.0019683,0.0406251,-0.0264705,0.0540728,-0.0114794,-1.10075,0.0404221,0.0228722,1917,743,152.717,-16.992
700,281,152.365,19.6317,0,0,0,0,0,0,0,-1,1924,743,152.364,-19.6316
707,281,53.7238,1.7442,0,0,0,0,0,0,0,-1,1931,743,53.7237,-1.74422
714,281,25.0125,2.5105,0,0,0,0,0,0,0,-1,1938,743,25.0124,-2.51053
721,281,16.9656,3.22174,0,0,0,0,0,0,0,-1,1945,743,16.9656,-3.22172
728,281,19.0251,3.63934,0,0,0,0,0,0,0,-1,1952,743,19.0252,-3.63932
735,281,19.0869,2.50311,0,0,0,0,0,0,0,-1,1959,743,19.0869,-2.5031
742,281,0,0,0,0,0,0,0,0,0,-1,1966,743,0,0
749,281,0,0,0,0,0,0,0,0,0,-1,1973,743,0,0
756,281,0,0,0,0,0,0,0,0,0,-1,1980,743,0,0
763,281,0,0,0,0,0,0,0,0,0,-1,1987,743,0,0
770,281,0,0,0,0,0,0,0,0,0,-1,1994,743,0,0
777,281,0,0,0,0,0,0,0,0,0,-1,2001,743,0,0
784,281,0,0,0,0,0,0,0,0,0,-1,2008,743,0,0
791,281,0,0,0,0,0,0,0,0,0,-1,2015,743,0,0
798,281,0,0,0,0,0,0,0,0,0,-1,2022,743,0,0
805,281,0,0,0,0,0,0,0,0,0,-1,2029,743,0,0
812,281,0,0,0,0,0,0,0,0,0,-1,2036,743,0,0
-700,274,0,0,0,0,0,0,0,0,0,-1,524,750,0,0
-693,274,0,0,0,0,0,0,0,0,0,-1,531,750,0,0
-686,274,0,0,0,0,0,0,0,0,0,-1,538,750,0,0
-679,274,0,0,0,0,0,0,0,0,0,-1,545,750,0,0
-672,274,0,0,0,0,0,0,0,0,0,-1,552,750,0,0
-665,274,0,0,0,0,0,0,0,0,0,-1,559,750,0,0
-658,274,0,0,0,0,0,0,0,0,0,-1,566,750,0,0
-651,274,0,0,0,0,0,0,0,0,0,-1,573,750,0,0
-644,274,0,0,0,0,0,0,0,0,0,-1,580,750,0,0
-637,274,0,0,0,0,0,0,0,0,0,-1,587,750,0,0
-630,274,0,0,0,0,0,0,0,0,0,-1,594,750,0,0
-623,274,-19.6909,5.12701,0,0,0,0,0,0,0,-1,601,750,-19.6908,-5.12703
-616,274,-17.9133,3.9024,0,0,0,0,0,0,0,-1,608,750,-17.9133,-3.90239
-609,274,-26.0861,5.57306,0,0,0,0,0,0,0,-1,615,750,-26.0861,-5.57307
-602,274,-25.7372,3.73846,0,0,0,0,0,0,0,-1,622,750,-25.7372,-3.73849
-595,274,-25.258,2.53473,0,0,0,0,0,0,0,-1,629,750,-25.258,-2.53474
-588,274,-73.9796,12.9916,0,0,0,0,0,0,0,-1,636,750,-73.9796,-12.9916
-581,274,-110.397,18.036,0,0,0,0,0,0,0,-1,643,750,-110.397,-18.036
-574,274,-145.567,22.1074,0,0,0,0,0,0,0,-1,650,750,-145.567,-22.1074
-567,274,-146.064,19.5369,-0.00197184,0.0409412,0.0299661,0.0563404,-0.0173711,1.0961,0.0444957,0.0448991,657,750,-146.064,-19.5369
-560,274,-146.567,17.251,-0.000847421,0.0367465,0.025966,0.0500051,-0.014106,1.09869,0.0389008,0.0220809,664,750,-146.567,-17.251
-553,274,-147.165,14.546,-0.000794288,0.032854,0.0219711,0.0437026,-0.0116429,1.11215,0.0336933,0.0173361,671,750,-147.165,-14.546
-546,274,-147.606,11.9279,-0.00144703,0.0290946,0.018036,0.0374562,-0.00980872,1.13668,0.0288026,0.0204392,678,750,-147.606,-11.9279
-539,274,-148.033,9.28345,-0.00274334,0.0254173,0.0142097,0.0313413,-0.00866729,1.17581,0.024304,0.0178778,685,750,-148.033,-9.28343
-532,274,-148.552,6.6604,-0.00469241,0.0218124,0.0105403,0.0254929,-0.00837294,1.23485,0.0203682,0.0199024,692,750,-148.552,-6.66041
-525,274,-148.991,3.85138,-0.00725714,0.0183256,0.00703772,0.0201338,-0.00906538,1.3193,0.0172572,0.0289346,699,750,-148.991,-3.85141
-518,274,-149.499,1.08893,-0.0107988,0.0149882,0.00379063,0.0155338,-0.0113444,1.42783,0.0155809,0.0396151,706,750,-149.499,-1.08895
-511,274,-150.189,-1.67828,0,0,0,0,0,0,0,-1,713,750,-150.189,1.67826
-504,274,-78.1935,-12.3701,0,0,0,0,0,0,0,-1,720,750,-78.1935,12.3701
-497,274,-40.4099,-10.8548,0,0,0,0,0,0,0,-1,727,750,-40.4099,10.8548
-490,274,-13.6545,-3.58826,0,0,0,0,0,0,0,-1,734,750,-13.6546,3.58825
-483,274,-27.8608,1.30981,0,0,0,0,0,0,0,-1,741,750,-27.8608,-1.30979
-476,274,-33.7561,-0.508606,0,0,0,0,0,0,0,-1,748,750,-33.7561,0.508636
-469,274,-41.1387,0.907715,0,0,0,0,0,0,0,-1,755,750,-41.1387,-0.907744
-462,274,-56.4362,0.240723,0,0,0,0,0,0,0,-1,762,750,-56.4362,-0.240732
-455,274,-67.431,1.67236,0,0,0,0,0,0,0,-1,769,750,-67.431,-1.67238
-448,274,-56.1052,0.421143,0,0,0,0,0,0,0,-1,776,750,-56.1052,-0.421134
-441,274,0,0,0,0,0,0,0,0,0,-1,783,750,0,0
-434,274,0,0,0,0,0,0,0,0,0,-1,790,750,0,0
-427,274,0,0,0,0,0,0,0,0,0,-1,797,750,0,0
-420,274,0,0,0,0,0,0,0,0,0,-1,804,750,0,0
-413,274,0,0,0,0,0,0,0,0,0,-1,811,750,0,0
-406,274,0,0,0,0,0,0,0,0,0,-1,818,750,0,0
-399,274,0,0,0,0,0,0,0,0,0,-1,825,750,0,0
-392,274,0,0,0,0,0,0,0,0,0,-1,832,750,0,0
-385,274,0,0,0,0,0,0,0,0,0,-1,839,750,0,0
-378,274,0,0,0,0,0,0,0,0,0,-1,846,750,0,0
-371,274,0,0,0,0,0,0,0,0,0,-1,853,750,0,0
-364,274,0,0,0,0,0,0,0,0,0,-1,860,750,0,0
-357,274,0,0,0,0,0,0,0,0,0,-1,867,750,0,0
-350,274,0,0,0,0,0,0,0,0,0,-1,874,750,0,0
-343,274,0,0,0,0,0,0,0,0,0,-1,881,750,0,0
-336,274,0,0,0,0,0,0,0,0,0,-1,888,750,0,0
-329,274,0,0,0,0,0,0,0,0,0,-1,895,750,0,0
-322,274,0,0,0,0,0,0,0,0,0,-1,902,750,0,0
-315,274,0,0,0,0,0,0,0,0,0,-1,909,750,0,0
-308,274,0,0,0,0,0,0,0,0,0,-1,916,750,0,0
-301,274,0,0,0,0,0,0,0,0,0,-1,923,750,0,0
-294,274,0,0,0,0,0,0,0,0,0,-1,930,750,0,0
-287,274,0,0,0,0,0,0,0,0,0,-1,937,750,0,0
-280,274,0,0,0,0,0,0,0,0,0,-1,944,750,0,0
-273,274,0,0,0,0,0,0,0,0,0,-1,951,750,0,0
-266,274,0,0,0,0,0,0,0,0,0,-1,958,750,0,0
-259,274,0,0,0,0,0,0,0,0,0,-1,965,750,0,0
-252,274,0,0,0,0,0,0,0,0,0,-1,972,750,0,0
-245,274,0,0,0,0,0,0,0,0,0,-1,979,750,0,0
-238,274,0,0,0,0,0,0,0,0,0,-1,986,750,0,0
-231,274,0,0,0,0,0,0,0,0,0,-1,993,750,0,0
-224,274,0,0,0,0,0,0,0,0,0,-1,1000,750,0,0
-217,274,0,0,0,0,0,0,0,0,0,-1,1007,750,0,0
-210,274,0,0,0,0,0,0,0,0,0,-1,1014,750,0,0
-203,274,0,0,0,0,0,0,0,0,0,-1,1021,750,0,0
-196,274,0,0,0,0,0,0,0,0,0,-1,1028,750,0,0
-189,274,0,0,0,0,0,0,0,0,0,-1,1035,750,0,0
-182,274,0,0,0,0,0,0,0,0,0,-1,1042,750,0,0
-175,274,0,0,0,0,0,0,0,0,0,-1,1049,750,0,0
-168,274,0,0,0,0,0,0,0,0,0,-1,1056,750,0,0
-161,274,0,0,0,0,0,0,0,0,0,-1,1063,750,0,0
-154,274,0,0,0,0,0,0,0,0,0,-1,1070,750,0,0
-147,274,0,0,0,0,0,0,0,0,0,-1,1077,750,0,0
-140,274,0,0,0,0,0,0,0,0,0,-1,1084,750,0,0
-133,274,0,0,0,0,0,0,0,0,0,-1,1091,750,0,0
-126,274,0,0,0,0,0,0,0,0,0,-1,1098,750,0,0
-119,274,0,0,0,0,0,0,0,0,0,-1,1105,750,0,0
-112,274,0,0,0,0,0,0,0,0,0,-1,1112,750,0,0
-105,274,0,0,0,0,0,0,0,0,0,-1,1119,750,0,0
-98,274,0,0,0,0,0,0,0,0,0,-1,1126,750,0,0
-91,274,0,0,0,0,0,0,0,0,0,-1,1133,750,0,0
-84,274,0,0,0,0,0,0,0,0,0,-1,1140,750,0,0
-77,274,0,0,0,0,0,0,0,0,0,-1,1147,750,0,0
-70,274,0,0,0,0,0,0,0,0,0,-1,1154,750,0,0
-63,274,0,0,0,0,0,0,0,0,0,-1,1161,750,0,0
-56,274,0,0,0,0,0,0,0,0,0,-1,1168,750,0,0
-49,274,0,0,0,0,0,0,0,0,0,-1,1175,750,0,0
-42,274,0,0,0,0,0,0,0,0,0,-1,1182,750,0,0
-35,274,0,0,0,0,0,0,0,0,0,-1,1189,750,0,0
-28,274,0,0,0,0,0,0,0,0,0,-1,1196,750,0,0
-21,274,0,0,0,0,0,0,0,0,0,-1,1203,750,0,0
-14,274,0,0,0,0,0,0,0,0,0,-1,1210,750,0,0
-7,274,0,0,0,0,0,0,0,0,0,-1,1217,750,0,0
0,274,0,0,0,0,0,0,0,0,0,-1,1224,750,0,0
7,274,0,0,0,0,0,0,0,0,0,-1,1231,750,0,0
14,274,0,0,0,0,0,0,0,0,0,-1,1238,750,0,0
21,274,0,0,0,0,0,0,0,0,0,-1,1245,750,0,0
28,274,0,0,0,0,0,0,0,0,0,-1,1252,750,0,0
35,274,0,0,0,0,0,0,0,0,0,-1,1259,750,0,0
42,274,0,0,0,0,0,0,0,0,0,-1,1266,750,0,0
49,274,0,0,0,0,0,0,0,0,0,-1,1273,750,0,0
56,274,0,0,0,0,0,0,0,0,0,-1,1280,750,0,0
63,274,0,0,0,0,0,0,0,0,0,-1,1287,750,0,0
70,274,0,0,0,0,0,0,0,0,0,-1,1294,750,0,0
77,274,0,0,0,0,0,0,0,0,0,-1,1301,750,0,0
84,274,0,0,0,0,0,0,0,0,0,-1,1308,750,0,0
91,274,0,0,0,0,0,0,0,0,0,-1,1315,750,0,0
98,274,0,0,0,0,0,0,0,0,0,-1,1322,750,0,0
105,274,0,0,0,0,0,0,0,0,0,-1,1329,750,0,0
112,274,0,0,0,0,0,0,0,0,0,-1,1336,750,0,0
119,274,0,0,0,0,0,0,0,0,0,-1,1343,750,0,0
126,274,0,0,0,0,0,0,0,0,0,-1,1350,750,0,0
133,274,0,0,0,0,0,0,0,0,0,-1,1357,750,0,0
140,274,0,0,0,0,0,0,0,0,0,-1,1364,750,0,0
147,274,0,0,0,0,0,0,0,0,0,-1,1371,750,0,0
154,274,0,0,0,0,0,0,0,0,0,-1,1378,750,0,0
161,274,0,0,0,0,0,0,0,0,0,-1,1385,750,0,0
168,274,0,0,0,0,0,0,0,0,0,-1,1392,750,0,0
175,274,0,0,0,0,0,0,0,0,0,-1,1399,750,0,0
182,274,0,0,0,0,0,0,0,0,0,-1,1406,750,0,0
189,274,0,0,0,0,0,0,0,0,0,-1,1413,750,0,0
196,274,0,0,0,0,0,0,0,0,0,-1,1420,750,0,0
203,274,0,0,0,0,0,0,0,0,0,-1,1427,750,0,0
210,274,0,0,0,0,0,0,0,0,0,-1,1434,750,0,0
217,274,0,0,0,0,0,0,0,0,0,-1,1441,750,0,0
224,274,0,0,0,0,0,0,0,0,0,-1,1448,750,0,0
231,274,0,0,0,0,0,0,0,0,0,-1,1455,750,0,0
238,274,0,0,0,0,0,0,0,0,0,-1,1462,750,0,0
245,274,0,0,0,0,0,0,0,0,0,-1,1469,750,0,0
252,274,0,0,0,0,0,0,0,0,0,-1,1476,750,0,0
259,274,0,0,0,0,0,0,0,0,0,-1,1483,750,0,0
266,274,0,0,0,0,0,0,0,0,0,-1,1490,750,0,0
273,274,0,0,0,0,0,0,0,0,0,-1,1497,750,0,0
280,274,0,0,0,0,0,0,0,0,0,-1,1504,750,0,0
287,274,0,0,0,0,0,0,0,0,0,-1,1511,750,0,0
294,274,0,0,0,0,0,0,0,0,0,-1,1518,750,0,0
301,274,0,0,0,0,0,0,0,0,0,-1,1525,750,0,0
308,274,0,0,0,0,0,0,0,0,0,-1,1532,750,0,0
315,274,0,0,0,0,0,0,0,0,0,-1,1539,750,0,0
322,274,0,0,0,0,0,0,0,0,0,-1,1546,750,0,0
329,274,0,0,0,0,0,0,0,0,0,-1,1553,750,0,0
336,274,0,0,0,0,0,0,0,0,0,-1,1560,750,0,0
343,274,0,0,0,0,0,0,0,0,0,-1,1567,750,0,0
350,274,0,0,0,0,0,0,0,0,0,-1,1574,750,0,0
357,274,0,0,0,0,0,0,0,0,0,-1,1581,750,0,0
364,274,0,0,0,0,0,0,0,0,0,-1,1588,750,0,0
371,274,0,0,0,0,0,0,0,0,0,-1,1595,750,0,0
378,274,0,0,0,0,0,0,0,0,0,-1,1602,750,0,0
385,274,0,0,0,0,0,0,0,0,0,-1,1609,750,0,0
392,274,0,0,0,0,0,0,0,0,0,-1,1616,750,0,0
399,274,0,0,0,0,0,0,0,0,0,-1,1623,750,0,0
406,274,0,0,0,0,0,0,0,0,0,-1,1630,750,0,0
413,274,0,0,0,0,0,0,0,0,0,-1,1637,750,0,0
420,274,0,0,0,0,0,0,0,0,0,-1,1644,750,0,0
427,274,0,0,0,0,0,0,0,0,0,-1,1651,750,0,0
434,274,0,0,0,0,0,0,0,0,0,-1,1658,750,0,0
441,274,0,0,0,0,0,0,0,0,0,-1,1665,750,0,0
448,274,0,0,0,0,0,0,0,0,0,-1,1672,750,0,0
455,274,0,0,0,0,0,0,0,0,0,-1,1679,750,0,0
462,274,0,0,0,0,0,0,0,0,0,-1,1686,750,0,0
469,274,0,0,0,0,0,0,0,0,0,-1,1693,750,0,0
476,274,0,0,0,0,0,0,0,0,0,-1,1700,750,0,0
483,274,0,0,0,0,0,0,0,0,0,-1,1707,750,0,0
490,274,0,0,0,0,0,0,0,0,0,-1,1714,750,0,0
497,274,0,0,0,0,0,0,0,0,0,-1,1721,750,0,0
504,274,0,0,0,0,0,0,0,0,0,-1,1728,750,0,0
511,274,0,0,0,0,0,0,0,0,0,-1,1735,750,0,0
518,274,0,0,0,0,0,0,0,0,0,-1,1742,750,0,0
525,274,0,0,0,0,0,0,0,0,0,-1,1749,750,0,0
532,274,0,0,0,0,0,0,0,0,0,-1,1756,750,0,0
539,274,0,0,0,0,0,0,0,0,0,-1,1763,750,0,0
546,274,0,0,0,0,0,0,0,0,0,-1,1770,750,0,0
553,274,0,0,0,0,0,0,0,0,0,-1,1777,750,0,0
560,274,57.9182,3.24518,0,0,0,0,0,0,0,-1,1784,750,57.9182,-3.24516
567,274,57.8315,3.4137,0,0,0,0,0,0,0,-1,1791,750,57.8315,-3.41368
574,274,58.2571,3.11115,0,0,0,0,0,0,0,-1,1798,750,58.2571,-3.11114
581,274,54.4941,4.68127,0,0,0,0,0,0,0,-1,1805,750,54.4941,-4.68125
588,274,53.9908,5.6676,0,0,0,0,0,0,0,-1,1812,750,53.9908,-5.66763
595,274,66.2316,2.66986,0,0,0,0,0,0,0,-1,1819,750,66.2315,-2.66988
602,274,55.6321,2.56519,0,0,0,0,0,0,0,-1,1826,750,55.6321,-2.56521
609,274,44.6676,3.10461,0,0,0,0,0,0,0,-1,1833,750,44.6676,-3.1046
616,274,32.7869,1.78436,0,0,0,0,0,0,0,-1,1840,750,32.7868,-1.78437
623,274,24.8231,-1.80353,0,0,0,0,0,0,0,-1,1847,750,24.8232,1.80351
630,274,58.5311,-10.4259,0,0,0,0,0,0,0,-1,1854,750,58.5312,10.4259
637,274,93.1326,-11.4611,0,0,0,0,0,0,0,-1,1861,750,93.1325,11.4611
644,274,96.5939,-11.506,0,0,0,0,0,0,0,-1,1868,750,96.5939,11.506
651,274,158.947,1.38263,0,0,0,0,0,0,0,-1,1875,750,158.947,-1.38262
658,274,158.36,4.33612,-0.00681835,0.015714,-0.00697082,0.0176961,-0.00880053,-1.29375,0.0155826,0.0286119,1882,750,158.36,-4.33609
665,274,157.808,7.07306,-0.0060546,0.0193281,-0.0109589,0.0234048,-0.0101313,-1.21466,0.0198612,0.0227433,1889,750,157.808,-7.07306
672,274,157.228,9.78705,-0.00503266,0.0233873,-0.0147472,0.0296567,-0.011302,-1.16882,0.0244262,0.0188604,1896,750,157.228,-9.78706
679,274,156.688,12.4585,-0.00366931,0.0278848,-0.0183414,0.0363012,-0.0120857,-1.14059,0.0290789,0.0236105,1903,750,156.688,-12.4585
686,274,156.111,14.986,-0.00184809,0.0328084,-0.0217393,0.0432806,-0.0123203,-1.12188,0.0337193,0.0292694,1910,750,156.111,-14.986
693,274,155.644,17.4693,0.000450491,0.0382194,-0.0249525,0.0506279,-0.011958,-1.10932,0.0383643,0.022902,1917,750,155.644,-17.4693
700,274,155.249,19.9573,0.00357397,0.0441758,-0.0279035,0.0583819,-0.0106321,-1.09988,0.0429066,0.0320328,1924,750,155.249,-19.9573
707,274,154.845,22.4283,0,0,0,0,0,0,0,-1,1931,750,154.845,-22.4283
714,274,49.125,2.56622,0,0,0,0,0,0,0,-1,1938,750,49.1251,-2.5662
721,274,25.6215,3.91144,0,0,0,0,0,0,0,-1,1945,750,25.6214,-3.91141
728,274,19.2209,3.95154,0,0,0,0,0,0,0,-1,1952,750,19.221,-3.95151
735,274,20.6608,4.10931,0,0,0,0,0,0,0,-1,1959,750,20.6607,-4.10932
742,274,11.7815,-0.740234,0,0,0,0,0,0,0,-1,1966,750,11.7815,0.740253
749,274,0,0,0,0,0,0,0,0,0,-1,1973,750,0,0
756,274,0,0,0,0,0,0,0,0,0,-1,1980,750,0,0
763,274,0,0,0,0,0,0,0,0,0,-1,1987,750,0,0
770,274,0,0,0,0,0,0,0,0,0,-1,1994,750,0,0
777,274,0,0,0,0,0,0,0,0,0,-1,2001,750,0,0
784,274,0,0,0,0,0,0,0,0,0,-1,2008,750,0,0
791,274,0,0,0,0,0,0,0,0,0,-1,2015,750,0,0
798,274,0,0,0,0,0,0,0,0,0,-1,2022,750,0,0
805,274,0,0,0,0,0,0,0,0,0,-1,2029,750,0,0
812,274,0,0,0,0,0,0,0,0,0,-1,2036,750,0,0
-700,267,0,0,0,0,0,0,0,0,0,-1,524,757,0,0
-693,267,0,0,0,0,0,0,0,0,0,-1,531,757,0,0
-686,267,0,0,0,0,0,0,0,0,0,-1,538,757,0,0
-679,267,0,0,0,0,0,0,0,0,0,-1,545,757,0,0
-672,267,0,0,0,0,0,0,0,0,0,-1,552,757,0,0
-665,267,0,0,0,0,0,0,0,0,0,-1,559,757,0,0
-658,267,0,0,0,0,0,0,0,0,0,-1,566,757,0,0
-651,267,0,0,0,0,0,0,0,0,0,-1,573,757,0,0
-644,267,0,0,0,0,0,0,0,0,0,-1,580,757,0,0
-637,267,0,0,0,0,0,0,0,0,0,-1,587,757,0,0
-630,267,-21.3979,5.17529,0,0,0,0,0,0,0,-1,594,757,-21.3979,-5.17529
-623,267,-20.043,4.43115,0,0,0,0,0,0,0,-1,601,757,-20.043,-4.43116
-616,267,-27.1628,5.9325,0,0,0,0,0,0,0,-1,608,757,-27.1629,-5.93249
-609,267,-26.9868,4.99658,0,0,0,0,0,0,0,-1,615,757,-26.9868,-4.99656
-602,267,-26.6637,3.74072,0,0,0,0,0,0,0,-1,622,757,-26.6637,-3.74075
-595,267,-32.7299,2.1203,0,0,0,0,0,0,0,-1,629,757,-32.7299,-2.12028
-588,267,-96.1294,17.3846,0,0,0,0,0,0,0,-1,636,757,-96.1294,-17.3846
-581,267,-148.02,24.6797,0,0,0,0,0,0,0,-1,643,757,-148.02,-24.6797
-574,267,-148.334,22.1859,-0.00324296,0.0436028,0.0302842,0.0584652,-0.0181054,1.11456,0.0462097,0.0381264,650,757,-148.334,-22.1859
-567,267,-148.994,19.8528,-0.0021454,0.0392914,0.026597,0.0522872,-0.0151413,1.11629,0.0408515,0.0436498,657,757,-148.994,-19.8528
-560,267,-149.471,17.5156,-0.00148585,0.0349941,0.0228549,0.0459952,-0.012487,1.12218,0.0355642,0.0308401,664,757,-149.471,-17.5155
-553,267,-149.891,15.0612,-0.00166381,0.0310215,0.0190451,0.0397746,-0.0104169,1.13999,0.0305858,0.0252523,671,757,-149.891,-15.0611
-546,267,-150.399,12.4317,-0.00251314,0.0272724,0.0152612,0.0337032,-0.00894404,1.17199,0.0259688,0.0158427,678,757,-150.399,-12.4317
-539,267,-150.794,9.73639,-0.00400335,0.0236343,0.0115492,0.027825,-0.00819405,1.22271,0.0218009,0.022395,685,757,-150.794,-9.7364
-532,267,-151.329,6.8537,-0.00616975,0.0201455,0.0079665,0.0223693,-0.00839354,1.29858,0.0183618,0.0372594,692,757,-151.329,-6.85369
-525,267,-151.958,4.22937,-0.00900362,0.0168312,0.00453973,0.0176057,-0.00977813,1.40182,0.0160239,0.0335736,699,757,-151.958,-4.22939
-518,267,-152.401,1.66022,-0.0131746,0.0137321,0.00141548,0.0138064,-0.0132488,1.51838,0.0156214,0.0442794,706,757,-152.401,-1.66021
-511,267,-152.867,-1.00134,0,0,0,0,0,0,0,-1,713,757,-152.867,1.00136
-504,267,-67.1038,-11.0731,0,0,0,0,0,0,0,-1,720,757,-67.1038,11.073
-497,267,-31.5913,-8.72119,0,0,0,0,0,0,0,-1,727,757,-31.5913,8.72117
-490,267,-23.4949,-0.494995,0,0,0,0,0,0,0,-1,734,757,-23.4949,0.494981
-483,267,-33.2785,-0.448425,0,0,0,0,0,0,0,-1,741,757,-33.2785,0.448407
-476,267,-40.2954,0.52002,0,0,0,0,0,0,0,-1,748,757,-40.2954,-0.520037
-469,267,-52.9857,0.187744,0,0,0,0,0,0,0,-1,755,757,-52.9857,-0.187726
-462,267,-67.6375,0.974915,0,0,0,0,0,0,0,-1,762,757,-67.6374,-0.974935
-455,267,-71.4348,0.0582886,0,0,0,0,0,0,0,-1,769,757,-71.4348,-0.0582862
-448,267,-68.0212,1.50757,0,0,0,0,0,0,0,-1,776,757,-68.0212,-1.50758
-441,267,0,0,0,0,0,0,0,0,0,-1,783,757,0,0
-434,267,0,0,0,0,0,0,0,0,0,-1,790,757,0,0
-427,267,0,0,0,0,0,0,0,0,0,-1,797,757,0,0
-420,267,0,0,0,0,0,0,0,0,0,-1,804,757,0,0
-413,267,0,0,0,0,0,0,0,0,0,-1,811,757,0,0
-406,267,0,0,0,0,0,0,0,0,0,-1,818,757,0,0
-399,267,0,0,0,0,0,0,0,0,0,-1,825,757,0,0
-392,267,0,0,0,0,0,0,0,0,0,-1,832,757,0,0
-385,267,0,0,0,0,0,0,0,0,0,-1,839,757,0,0
-378,267,0,0,0,0,0,0,0,0,0,-1,846,757,0,0
-371,267,0,0,0,0,0,0,0,0,0,-1,853,757,0,0
-364,267,0,0,0,0,0,0,0,0,0,-1,860,757,0,0
-357,267,0,0,0,0,0,0,0,0,0,-1,867,757,0,0
-350,267,0,0,0,0,0,0,0,0,0,-1,874,757,0,0
-343,267,0,0,0,0,0,0,0,0,0,-1,881,757,0,0
-336,267,0,0,0,0,0,0,0,0,0,-1,888,757,0,0
-329,267,0,0,0,0,0,0,0,0,0,-1,895,757,0,0
-322,267,0,0,0,0,0,0,0,0,0,-1,902,757,0,0
-315,267,0,0,0,0,0,0,0,0,0,-1,909,757,0,0
-308,267,0,0,0,0,0,0,0,0,0,-1,916,757,0,0
-301,267,0,0,0,0,0,0,0,0,0,-1,923,757,0,0
-294,267,0,0,0,0,0,0,0,0,0,-1,930,757,0,0
-287,267,0,0,0,0,0,0,0,0,0,-1,937,757,0,0
-280,267,0,0,0,0,0,0,0,0,0,-1,944,757,0,0
-273,267,0,0,0,0,0,0,0,0,0,-1,951,757,0,0
-266,267,0,0,0,0,0,0,0,0,0,-1,958,757,0,0
-259,267,0,0,0,0,0,0,0,0,0,-1,965,757,0,0
-252,267,0,0,0,0,0,0,0,0,0,-1,972,757,0,0
-245,267,0,0,0,0,0,0,0,0,0,-1,979,757,0,0
-238,267,0,0,0,0,0,0,0,0,0,-1,986,757,0,0
-231,267,0,0,0,0,0,0,0,0,0,-1,993,757,0,0
-224,267,0,0,0,0,0,0,0,0,0,-1,1000,757,0,0
-217,267,0,0,0,0,0,0,0,0,0,-1,1007,757,0,0
-210,267,0,0,0,0,0,0,0,0,0,-1,1014,757,0,0
-203,267,0,0,0,0,0,0,0,0,0,-1,1021,757,0,0
-196,267,0,0,0,0,0,0,0,0,0,-1,1028,757,0,0
-189,267,0,0,0,0,0,0,0,0,0,-1,1035,757,0,0
-182,267,0,0,0,0,0,0,0,0,0,-1,1042,757,0,0
-175,267,0,0,0,0,0,0,0,0,0,-1,1049,757,0,0
-168,267,0,0,0,0,0,0,0,0,0,-1,1056,757,0,0
-161,267,0,0,0,0,0,0,0,0,0,-1,1063,757,0,0
-154,267,0,0,0,0,0,0,0,0,0,-1,1070,757,0,0
-147,267,0,0,0,0,0,0,0,0,0,-1,1077,757,0,0
-140,267,0,0,0,0,0,0,0,0,0,-1,1084,757,0,0
-133,267,0,0,0,0,0,0,0,0,0,-1,1091,757,0,0
-126,267,0,0,0,0,0,0,0,0,0,-1,1098,757,0,0
-119,267,0,0,0,0,0,0,0,0,0,-1,1105,757,0,0
-112,267,0,0,0,0,0,0,0,0,0,-1,1112,757,0,0
-105,267,0,0,0,0,0,0,0,0,0,-1,1119,757,0,0
-98,267,0,0,0,0,0,0,0,0,0,-1,1126,757,0,0
-91,267,0,0,0,0,0,0,0,0,0,-1,1133,757,0,0
-84,267,0,0,0,0,0,0,0,0,0,-1,1140,757,0,0
-77,267,0,0,0,0,0,0,0,0,0,-1,1147,757,0,0
-70,267,0,0,0,0,0,0,0,0,0,-1,1154,757,0,0
-63,267,0,0,0,0,0,0,0,0,0,-1,1161,757,0,0
-56,267,0,0,0,0,0,0,0,0,0,-1,1168,757,0,0
-49,267,0,0,0,0,0,0,0,0,0,-1,1175,757,0,0
-42,267,0,0,0,0,0,0,0,0,0,-1,1182,757,0,0
-35,267,0,0,0,0,0,0,0,0,0,-1,1189,757,0,0
-28,267,0,0,0,0,0,0,0,0,0,-1,1196,757,0,0
-21,267,0,0,0,0,0,0,0,0,0,-1,1203,757,0,0
-14,267,0,0,0,0,0,0,0,0,0,-1,1210,757,0,0
-7,267,0,0,0,0,0,0,0,0,0,-1,1217,757,0,0
0,267,0,0,0,0,0,0,0,0,0,-1,1224,757,0,0
7,267,0,0,0,0,0,0,0,0,0,-1,1231,757,0,0
14,267,0,0,0,0,0,0,0,0,0,-1,1238,757,0,0
21,267,0,0,0,0,0,0,0,0,0,-1,1245,757,0,0
28,267,0,0,0,0,0,0,0,0,0,-1,1252,757,0,0
35,267,0,0,0,0,0,0,0,0,0,-1,1259,757,0,0
42,267,0,0,0,0,0,0,0,0,0,-1,1266,757,0,0
49,267,0,0,0,0,0,0,0,0,0,-1,1273,757,0,0
56,267,0,0,0,0,0,0,0,0,0,-1,1280,757,0,0
63,267,0,0,0,0,0,0,0,0,0,-1,1287,757,0,0
70,267,0,0,0,0,0,0,0,0,0,-1,1294,757,0,0
77,267,0,0,0,0,0,0,0,0,0,-1,1301,757,0,0
84,267,0,0,0,0,0,0,0,0,0,-1,1308,757,0,0
91,267,0,0,0,0,0,0,0,0,0,-1,1315,757,0,0
98,267,0,0,0,0,0,0,0,0,0,-1,1322,757,0,0
105,267,0,0,0,0,0,0,0,0,0,-1,1329,757,0,0
112,267,0,0,0,0,0,0,0,0,0,-1,1336,757,0,0
119,267,0,0,0,0,0,0,0,0,0,-1,1343,757,0,0
126,267,0,0,0,0,0,0,0,0,0,-1,1350,757,0,0
133,267,0,0,0,0,0,0,0,0,0,-1,1357,757,0,0
140,267,0,0,0,0,0,0,0,0,0,-1,1364,757,0,0
147,267,0,0,0,0,0,0,0,0,0,-1,1371,757,0,0
154,267,0,0,0,0,0,0,0,0,0,-1,1378,757,0,0
161,267,0,0,0,0,0,0,0,0,0,-1,1385,757,0,0
168,267,0,0,0,0,0,0,0,0,0,-1,1392,757,0,0
175,267,0,0,0,0,0,0,0,0,0,-1,1399,757,0,0
182,267,0,0,0,0,0,0,0,0,0,-1,1406,757,0,0
189,267,0,0,0,0,0,0,0,0,0,-1,1413,757,0,0
196,267,0,0,0,0,0,0,0,0,0,-1,1420,757,0,0
203,267,0,0,0,0,0,0,0,0,0,-1,1427,757,0,0
210,267,0,0,0,0,0,0,0,0,0,-1,1434,757,0,0
217,267,0,0,0,0,0,0,0,0,0,-1,1441,757,0,0
224,267,0,0,0,0,0,0,0,0,0,-1,1448,757,0,0
231,267,0,0,0,0,0,0,0,0,0,-1,1455,757,0,0
238,267,0,0,0,0,0,0,0,0,0,-1,1462,757,0,0
245,267,0,0,0,0,0,0,0,0,0,-1,1469,757,0,0
252,267,0,0,0,0,0,0,0,0,0,-1,1476,757,0,0
259,267,0,0,0,0,0,0,0,0,0,-1,1483,757,0,0
266,267,0,0,0,0,0,0,0,0,0,-1,1490,757,0,0
273,267,0,0,0,0,0,0,0,0,0,-1,1497,757,0,0
280,267,0,0,0,0,0,0,0,0,0,-1,1504,757,0,0
287,267,0,0,0,0,0,0,0,0,0,-1,1511,757,0,0
294,267,0,0,0,0,0,0,0,0,0,-1,1518,757,0,0
301,267,0,0,0,0,0,0,0,0,0,-1,1525,757,0,0
308,267,0,0,0,0,0,0,0,0,0,-1,1532,757,0,0
315,267,0,0,0,0,0,0,0,0,0,-1,1539,757,0,0
322,267,0,0,0,0,0,0,0,0,0,-1,1546,757,0,0
329,267,0,0,0,0,0,0,0,0,0,-1,1553,757,0,0
336,267,0,0,0,0,0,0,0,0,0,-1,1560,757,0,0
343,267,0,0,0,0,0,0,0,0,0,-1,1567,757,0,0
350,267,0,0,0,0,0,0,0,0,0,-1,1574,757,0,0
357,267,0,0,0,0,0,0,0,0,0,-1,1581,757,0,0
364,267,0,0,0,0,0,0,0,0,0,-1,1588,757,0,0
371,267,0,0,0,0,0,0,0,0,0,-1,1595,757,0,0
378,267,0,0,0,0,0,0,0,0,0,-1,1602,757,0,0
385,267,0,0,0,0,0,0,0,0,0,-1,1609,757,0,0
392,267,0,0,0,0,0,0,0,0,0,-1,1616,757,0,0
399,267,0,0,0,0,0,0,0,0,0,-1,1623,757,0,0
406,267,0,0,0,0,0,0,0,0,0,-1,1630,757,0,0
413,267,0,0,0,0,0,0,0,0,0,-1,1637,757,0,0
420,267,0,0,0,0,0,0,0,0,0,-1,1644,757,0,0
427,267,0,0,0,0,0,0,0,0,0,-1,1651,757,0,0
434,267,0,0,0,0,0,0,0,0,0,-1,1658,757,0,0
441,267,0,0,0,0,0,0,0,0,0,-1,1665,757,0,0
448,267,0,0,0,0,0,0,0,0,0,-1,1672,757,0,0
455,267,0,0,0,0,0,0,0,0,0,-1,1679,757,0,0
462,267,0,0,0,0,0,0,0,0,0,-1,1686,757,0,0
469,267,0,0,0,0,0,0,0,0,0,-1,1693,757,0,0
476,267,0,0,0,0,0,0,0,0,0,-1,1700,757,0,0
483,267,0,0,0,0,0,0,0,0,0,-1,1707,757,0,0
490,267,0,0,0,0,0,0,0,0,0,-1,1714,757,0,0
497,267,0,0,0,0,0,0,0,0,0,-1,1721,757,0,0
504,267,0,0,0,0,0,0,0,0,0,-1,1728,757,0,0
511,267,0,0,0,0,0,0,0,0,0,-1,1735,757,0,0
518,267,0,0,0,0,0,0,0,0,0,-1,1742,757,0,0
525,267,0,0,0,0,0,0,0,0,0,-1,1749,757,0,0
532,267,0,0,0,0,0,0,0,0,0,-1,1756,757,0,0
539,267,0,0,0,0,0,0,0,0,0,-1,1763,757,0,0
546,267,0,0,0,0,0,0,0,0,0,-1,1770,757,0,0
553,267,0,0,0,0,0,0,0,0,0,-1,1777,757,0,0
560,267,0,0,0,0,0,0,0,0,0,-1,1784,757,0,0
567,267,58.0104,3.24304,0,0,0,0,0,0,0,-1,1791,757,58.0104,-3.24306
574,267,64.5414,2.91858,0,0,0,0,0,0,0,-1,1798,757,64.5414,-2.91855
581,267,58.374,2.95636,0,0,0,0,0,0,0,-1,1805,757,58.3741,-2.95639
588,267,65.9681,2.6438,0,0,0,0,0,0,0,-1,1812,757,65.9682,-2.64382
595,267,66.191,2.60791,0,0,0,0,0,0,0,-1,1819,757,66.191,-2.60792
602,267,66.4139,2.57202,0,0,0,0,0,0,0,-1,1826,757,66.4139,-2.57203
609,267,54.5498,3.24054,0,0,0,0,0,0,0,-1,1833,757,54.5498,-3.24052
616,267,44.2543,3.28918,0,0,0,0,0,0,0,-1,1840,757,44.2542,-3.28918
623,267,24.1475,-1.1391,0,0,0,0,0,0,0,-1,1847,757,24.1475,1.13913
630,267,40.7198,-5.42108,0,0,0,0,0,0,0,-1,1854,757,40.7198,5.4211
637,267,89.6044,-11.636,0,0,0,0,0,0,0,-1,1861,757,89.6043,11.636
644,267,94.4562,-10.2131,0,0,0,0,0,0,0,-1,1868,757,94.4562,10.2131
651,267,159.842,1.91986,0,0,0,0,0,0,0,-1,1875,757,159.842,-1.91985
658,267,161.206,4.73962,0,0,0,0,0,0,0,-1,1882,757,161.206,-4.73964
665,267,160.671,7.56488,-0.00791112,0.0166268,-0.00934408,0.0197799,-0.0110642,-1.24535,0.0180433,0.0338712,1889,757,160.671,-7.56486
672,267,160.016,10.2082,-0.00693416,0.0207672,-0.0130695,0.02596,-0.0121269,-1.1926,0.0224677,0.0210845,1896,757,160.016,-10.2082
679,267,159.558,12.798,-0.00561937,0.0253112,-0.0166702,0.0325851,-0.0128933,-1.15936,0.027065,0.0174606,1903,757,159.558,-12.798
686,267,159.019,15.3387,-0.00385038,0.0301947,-0.020149,0.0395492,-0.0132049,-1.13614,0.0316982,0.0290727,1910,757,159.019,-15.3387
693,267,158.437,17.7213,-0.00161706,0.0355184,-0.0235116,0.0469099,-0.0130085,-1.11962,0.0363929,0.0319944,1917,757,158.437,-17.7212
700,267,158.027,20.1523,0.0012635,0.041239,-0.026714,0.0546151,-0.0121126,-1.10658,0.0410477,0.0271345,1924,757,158.027,-20.1523
707,267,157.781,22.4645,0.00468276,0.0471129,-0.0298303,0.0625028,-0.0107072,-1.0945,0.045658,0.0450954,1931,757,157.781,-22.4645
714,267,157.515,24.8365,0,0,0,0,0,0,0,-1,1938,757,157.515,-24.8365
721,267,47.0829,3.73804,0,0,0,0,0,0,0,-1,1945,757,47.0828,-3.73803
728,267,26.7886,3.90027,0,0,0,0,0,0,0,-1,1952,757,26.7886,-3.90028
735,267,24.6713,2.82483,0,0,0,0,0,0,0,-1,1959,757,24.6713,-2.82483
742,267,18.1177,3.56561,0,0,0,0,0,0,0,-1,1966,757,18.1176,-3.56564
749,267,0,0,0,0,0,0,0,0,0,-1,1973,757,0,0
756,267,0,0,0,0,0,0,0,0,0,-1,1980,757,0,0
763,267,0,0,0,0,0,0,0,0,0,-1,1987,757,0,0
770,267,0,0,0,0,0,0,0,0,0,-1,1994,757,0,0
777,267,0,0,0,0,0,0,0,0,0,-1,2001,757,0,0
784,267,0,0,0,0,0,0,0,0,0,-1,2008,757,0,0
791,267,0,0,0,0,0,0,0,0,0,-1,2015,757,0,0
798,267,0,0,0,0,0,0,0,0,0,-1,2022,757,0,0
805,267,0,0,0,0,0,0,0,0,0,-1,2029,757,0,0
812,267,0,0,0,0,0,0,0,0,0,-1,2036,757,0,0
-700,260,0,0,0,0,0,0,0,0,0,-1,524,764,0,0
-693,260,0,0,0,0,0,0,0,0,0,-1,531,764,0,0
-686,260,0,0,0,0,0,0,0,0,0,-1,538,764,0,0
-679,260,0,0,0,0,0,0,0,0,0,-1,545,764,0,0
-672,260,0,0,0,0,0,0,0,0,0,-1,552,764,0,0
-665,260,0,0,0,0,0,0,0,0,0,-1,559,764,0,0
-658,260,0,0,0,0,0,0,0,0,0,-1,566,764,0,0
-651,260,0,0,0,0,0,0,0,0,0,-1,573,764,0,0
-644,260,0,0,0,0,0,0,0,0,0,-1,580,764,0,0
-637,260,0,0,0,0,0,0,0,0,0,-1,587,764,0,0
-630,260,-21.8905,4.49341,0,0,0,0,0,0,0,-1,594,764,-21.8905,-4.49342
-623,260,-20.3127,3.53546,0,0,0,0,0,0,0,-1,601,764,-20.3127,-3.53544
-616,260,-23.4346,3.65009,0,0,0,0,0,0,0,-1,608,764,-23.4345,-3.65008
-609,260,-27.8874,4.42004,0,0,0,0,0,0,0,-1,615,764,-27.8874,-4.42005
-602,260,-32.8671,3.61243,0,0,0,0,0,0,0,-1,622,764,-32.867,-3.61241
-595,260,-44.4068,5.76526,0,0,0,0,0,0,0,-1,629,764,-44.4068,-5.76525
-588,260,-148.247,27.3552,0,0,0,0,0,0,0,-1,636,764,-148.247,-27.3551
-581,260,-150.883,25.0739,0,0,0,0,0,0,0,-1,643,764,-150.883,-25.0739
-574,260,-151.329,22.5916,-0.00356087,0.0423706,0.0272156,0.0550154,-0.0162057,1.13585,0.0431065,0.0352854,650,764,-151.329,-22.5916
-567,260,-151.891,20.1499,-0.00275034,0.0377833,0.0237549,0.0487421,-0.0137092,1.13856,0.0379001,0.0241462,657,764,-151.891,-20.1499
-560,260,-152.284,17.7538,-0.00239979,0.0333893,0.0201678,0.0424569,-0.0114674,1.14827,0.0328022,0.0271079,664,764,-152.284,-17.7538
-553,260,-152.717,15.3567,-0.00274693,0.0293154,0.0164612,0.0362618,-0.00969336,1.17148,0.0279712,0.0266141,671,764,-152.717,-15.3567
-546,260,-153.159,12.8652,-0.00372184,0.0255073,0.0127415,0.0302817,-0.00849624,1.21228,0.0235367,0.018576,678,764,-153.159,-12.8651
-539,260,-153.425,10.0861,-0.00535466,0.0218407,0.00906496,0.0245853,-0.00809928,1.2768,0.0196543,0.0293954,685,764,-153.425,-10.0861
-532,260,-154.174,7.12378,-0.00767372,0.0183798,0.00548458,0.0194873,-0.00878121,1.37155,0.0167065,0.0459428,692,764,-154.174,-7.12379
-525,260,-154.878,4.79028,-0.0106718,0.0151404,0.00205634,0.0153032,-0.0108346,1.49179,0.015164,0.0325647,699,764,-154.878,-4.79027
-518,260,-155.337,2.14655,0,0,0,0,0,0,0,-1,706,764,-155.337,-2.14656
-511,260,-83.9215,-10.0087,0,0,0,0,0,0,0,-1,713,764,-83.9215,10.0087
-504,260,-34.7117,-8.67163,0,0,0,0,0,0,0,-1,720,764,-34.7117,8.6716
-497,260,-16.6542,-3.67334,0,0,0,0,0,0,0,-1,727,764,-16.6542,3.67331
-490,260,-29.4557,0.921387,0,0,0,0,0,0,0,-1,734,764,-29.4557,-0.921369
-483,260,-40.8972,1.04193,0,0,0,0,0,0,0,-1,741,764,-40.8972,-1.04193
-476,260,-53.8282,0.00378418,0,0,0,0,0,0,0,-1,748,764,-53.8283,-0.00378825
-469,260,-67.7608,1.11853,0,0,0,0,0,0,0,-1,755,764,-67.7608,-1.11852
-462,260,-71.5759,0.041748,0,0,0,0,0,0,0,-1,762,764,-71.5759,-0.0417456
-455,260,-71.384,0.305603,0,0,0,0,0,0,0,-1,769,764,-71.384,-0.305624
-448,260,0,0,0,0,0,0,0,0,0,-1,776,764,0,0
-441,260,0,0,0,0,0,0,0,0,0,-1,783,764,0,0
-434,260,0,0,0,0,0,0,0,0,0,-1,790,764,0,0
-427,260,0,0,0,0,0,0,0,0,0,-1,797,764,0,0
-420,260,0,0,0,0,0,0,0,0,0,-1,804,764,0,0
-413,260,0,0,0,0,0,0,0,0,0,-1,811,764,0,0
-406,260,0,0,0,0,0,0,0,0,0,-1,818,764,0,0
-399,260,0,0,0,0,0,0,0,0,0,-1,825,764,0,0
-392,260,0,0,0,0,0,0,0,0,0,-1,832,764,0,0
-385,260,0,0,0,0,0,0,0,0,0,-1,839,764,0,0
-378,260,0,0,0,0,0,0,0,0,0,-1,846,764,0,0
-371,260,0,0,0,0,0,0,0,0,0,-1,853,764,0,0
-364,260,0,0,0,0,0,0,0,0,0,-1,860,764,0,0
-357,260,0,0,0,0,0,0,0,0,0,-1,867,764,0,0
-350,260,0,0,0,0,0,0,0,0,0,-1,874,764,0,0
-343,260,0,0,0,0,0,0,0,0,0,-1,881,764,0,0
-336,260,0,0,0,0,0,0,0,0,0,-1,888,764,0,0
-329,260,0,0,0,0,0,0,0,0,0,-1,895,764,0,0
-322,260,0,0,0,0,0,0,0,0,0,-1,902,764,0,0
-315,260,0,0,0,0,0,0,0,0,0,-1,909,764,0,0
-308,260,0,0,0,0,0,0,0,0,0,-1,916,764,0,0
-301,260,0,0,0,0,0,0,0,0,0,-1,923,764,0,0
-294,260,0,0,0,0,0,0,0,0,0,-1,930,764,0,0
-287,260,0,0,0,0,0,0,0,0,0,-1,937,764,0,0
-280,260,0,0,0,0,0,0,0,0,0,-1,944,764,0,0
-273,260,0,0,0,0,0,0,0,0,0,-1,951,764,0,0
-266,260,0,0,0,0,0,0,0,0,0,-1,958,764,0,0
-259,260,0,0,0,0,0,0,0,0,0,-1,965,764,0,0
-252,260,0,0,0,0,0,0,0,0,0,-1,972,764,0,0
-245,260,0,0,0,0,0,0,0,0,0,-1,979,764,0,0
-238,260,0,0,0,0,0,0,0,0,0,-1,986,764,0,0
-231,260,0,0,0,0,0,0,0,0,0,-1,993,764,0,0
-224,260,0,0,0,0,0,0,0,0,0,-1,1000,764,0,0
-217,260,0,0,0,0,0,0,0,0,0,-1,1007,764,0,0
-210,260,0,0,0,0,0,0,0,0,0,-1,1014,764,0,0
-203,260,0,0,0,0,0,0,0,0,0,-1,1021,764,0,0
-196,260,0,0,0,0,0,0,0,0,0,-1,1028,764,0,0
-189,260,0,0,0,0,0,0,0,0,0,-1,1035,764,0,0
-182,260,0,0,0,0,0,0,0,0,0,-1,1042,764,0,0
-175,260,0,0,0,0,0,0,0,0,0,-1,1049,764,0,0
-168,260,0,0,0,0,0,0,0,0,0,-1,1056,764,0,0
-161,260,0,0,0,0,0,0,0,0,0,-1,1063,764,0,0
-154,260,0,0,0,0,0,0,0,0,0,-1,1070,764,0,0
-147,260,0,0,0,0,0,0,0,0,0,-1,1077,764,0,0
-140,260,0,0,0,0,0,0,0,0,0,-1,1084,764,0,0
-133,260,0,0,0,0,0,0,0,0,0,-1,1091,764,0,0
-126,260,0,0,0,0,0,0,0,0,0,-1,1098,764,0,0
-119,260,0,0,0,0,0,0,0,0,0,-1,1105,764,0,0
-112,260,0,0,0,0,0,0,0,0,0,-1,1112,764,0,0
-105,260,0,0,0,0,0,0,0,0,0,-1,1119,764,0,0
-98,260,0,0,0,0,0,0,0,0,0,-1,1126,764,0,0
-91,260,0,0,0,0,0,0,0,0,0,-1,1133,764,0,0
-84,260,0,0,0,0,0,0,0,0,0,-1,1140,764,0,0
-77,260,0,0,0,0,0,0,0,0,0,-1,1147,764,0,0
-70,260,0,0,0,0,0,0,0,0,0,-1,1154,764,0,0
-63,260,0,0,0,0,0,0,0,0,0,-1,1161,764,0,0
-56,260,0,0,0,0,0,0,0,0,0,-1,1168,764,0,0
-49,260,0,0,0,0,0,0,0,0,0,-1,1175,764,0,0
-42,260,0,0,0,0,0,0,0,0,0,-1,1182,764,0,0
-35,260,0,0,0,0,0,0,0,0,0,-1,1189,764,0,0
-28,260,0,0,0,0,0,0,0,0,0,-1,1196,764,0,0
-21,260,0,0,0,0,0,0,0,0,0,-1,1203,764,0,0
-14,260,0,0,0,0,0,0,0,0,0,-1,1210,764,0,0
-7,260,0,0,0,0,0,0,0,0,0,-1,1217,764,0,0
0,260,0,0,0,0,0,0,0,0,0,-1,1224,764,0,0
7,260,0,0,0,0,0,0,0,0,0,-1,1231,764,0,0
14,260,0,0,0,0,0,0,0,0,0,-1,1238,764,0,0
21,260,0,0,0,0,0,0,0,0,0,-1,1245,764,0,0
28,260,0,0,0,0,0,0,0,0,0,-1,1252,764,0,0
35,260,0,0,0,0,0,0,0,0,0,-1,1259,764,0,0
42,260,0,0,0,0,0,0,0,0,0,-1,1266,764,0,0
49,260,0,0,0,0,0,0,0,0,0,-1,1273,764,0,0
56,260,0,0,0,0,0,0,0,0,0,-1,1280,764,0,0
63,260,0,0,0,0,0,0,0,0,0,-1,1287,764,0,0
70,260,0,0,0,0,0,0,0,0,0,-1,1294,764,0,0
77,260,0,0,0,0,0,0,0,0,0,-1,1301,764,0,0
84,260,0,0,0,0,0,0,0,0,0,-1,1308,764,0,0
91,260,0,0,0,0,0,0,0,0,0,-1,1315,764,0,0
98,260,0,0,0,0,0,0,0,0,0,-1,1322,764,0,0
105,260,0,0,0,0,0,0,0,0,0,-1,1329,764,0,0
112,260,0,0,0,0,0,0,0,0,0,-1,1336,764,0,0
119,260,0,0,0,0,0,0,0,0,0,-1,1343,764,0,0
126,260,0,0,0,0,0,0,0,0,0,-1,1350,764,0,0
133,260,0,0,0,0,0,0,0,0,0,-1,1357,764,0,0
140,260,0,0,0,0,0,0,0,0,0,-1,1364,764,0,0
147,260,0,0,0,0,0,0,0,0,0,-1,1371,764,0,0
154,260,0,0,0,0,0,0,0,0,0,-1,1378,764,0,0
161,260,0,0,0,0,0,0,0,0,0,-1,1385,764,0,0
168,260,0,0,0,0,0,0,0,0,0,-1,1392,764,0,0
175,260,0,0,0,0,0,0,0,0,0,-1,1399,764,0,0
182,260,0,0,0,0,0,0,0,0,0,-1,1406,764,0,0
189,260,0,0,0,0,0,0,0,0,0,-1,1413,764,0,0
196,260,0,0,0,0,0,0,0,0,0,-1,1420,764,0,0
203,260,0,0,0,0,0,0,0,0,0,-1,1427,764,0,0
210,260,0,0,0,0,0,0,0,0,0,-1,1434,764,0,0
217,260,0,0,0,0,0,0,0,0,0,-1,1441,764,0,0
224,260,0,0,0,0,0,0,0,0,0,-1,1448,764,0,0
231,260,0,0,0,0,0,0,0,0,0,-1,1455,764,0,0
238,260,0,0,0,0,0,0,0,0,0,-1,1462,764,0,0
245,260,0,0,0,0,0,0,0,0,0,-1,1469,764,0,0
252,260,0,0,0,0,0,0,0,0,0,-1,1476,764,0,0
259,260,0,0,0,0,0,0,0,0,0,-1,1483,764,0,0
266,260,0,0,0,0,0,0,0,0,0,-1,1490,764,0,0
273,260,0,0,0,0,0,0,0,0,0,-1,1497,764,0,0
280,260,0,0,0,0,0,0,0,0,0,-1,1504,764,0,0
287,260,0,0,0,0,0,0,0,0,0,-1,1511,764,0,0
294,260,0,0,0,0,0,0,0,0,0,-1,1518,764,0,0
301,260,0,0,0,0,0,0,0,0,0,-1,1525,764,0,0
308,260,0,0,0,0,0,0,0,0,0,-1,1532,764,0,0
315,260,0,0,0,0,0,0,0,0,0,-1,1539,764,0,0
322,260,0,0,0,0,0,0,0,0,0,-1,1546,764,0,0
329,260,0,0,0,0,0,0,0,0,0,-1,1553,764,0,0
336,260,0,0,0,0,0,0,0,0,0,-1,1560,764,0,0
343,260,0,0,0,0,0,0,0,0,0,-1,1567,764,0,0
350,260,0,0,0,0,0,0,0,0,0,-1,1574,764,0,0
357,260,0,0,0,0,0,0,0,0,0,-1,1581,764,0,0
364,260,0,0,0,0,0,0,0,0,0,-1,1588,764,0,0
371,260,0,0,0,0,0,0,0,0,0,-1,1595,764,0,0
378,260,0,0,0,0,0,0,0,0,0,-1,1602,764,0,0
385,260,0,0,0,0,0,0,0,0,0,-1,1609,764,0,0
392,260,0,0,0,0,0,0,0,0,0,-1,1616,764,0,0
399,260,0,0,0,0,0,0,0,0,0,-1,1623,764,0,0
406,260,0,0,0,0,0,0,0,0,0,-1,1630,764,0,0
413,260,0,0,0,0,0,0,0,0,0,-1,1637,764,0,0
420,260,0,0,0,0,0,0,0,0,0,-1,1644,764,0,0
427,260,0,0,0,0,0,0,0,0,0,-1,1651,764,0,0
434,260,0,0,0,0,0,0,0,0,0,-1,1658,764,0,0
441,260,0,0,0,0,0,0,0,0,0,-1,1665,764,0,0
448,260,0,0,0,0,0,0,0,0,0,-1,1672,764,0,0
455,260,0,0,0,0,0,0,0,0,0,-1,1679,764,0,0
462,260,0,0,0,0,0,0,0,0,0,-1,1686,764,0,0
469,260,0,0,0,0,0,0,0,0,0,-1,1693,764,0,0
476,260,0,0,0,0,0,0,0,0,0,-1,1700,764,0,0
483,260,0,0,0,0,0,0,0,0,0,-1,1707,764,0,0
490,260,0,0,0,0,0,0,0,0,0,-1,1714,764,0,0
497,260,0,0,0,0,0,0,0,0,0,-1,1721,764,0,0
504,260,0,0,0,0,0,0,0,0,0,-1,1728,764,0,0
511,260,0,0,0,0,0,0,0,0,0,-1,1735,764,0,0
518,260,0,0,0,0,0,0,0,0,0,-1,1742,764,0,0
525,260,0,0,0,0,0,0,0,0,0,-1,1749,764,0,0
532,260,0,0,0,0,0,0,0,0,0,-1,1756,764,0,0
539,260,0,0,0,0,0,0,0,0,0,-1,1763,764,0,0
546,260,0,0,0,0,0,0,0,0,0,-1,1770,764,0,0
553,260,0,0,0,0,0,0,0,0,0,-1,1777,764,0,0
560,260,0,0,0,0,0,0,0,0,0,-1,1784,764,0,0
567,260,0,0,0,0,0,0,0,0,0,-1,1791,764,0,0
574,260,123.775,3.97382,0,0,0,0,0,0,0,-1,1798,764,123.775,-3.97382
581,260,123.673,4.10852,0,0,0,0,0,0,0,-1,1805,764,123.673,-4.10852
588,260,78.047,2.81091,0,0,0,0,0,0,0,-1,1812,764,78.047,-2.81091
595,260,66.1678,2.56989,0,0,0,0,0,0,0,-1,1819,764,66.1678,-2.56989
602,260,65.9274,2.69824,0,0,0,0,0,0,0,-1,1826,764,65.9274,-2.69825
609,260,65.4674,3.08105,0,0,0,0,0,0,0,-1,1833,764,65.4673,-3.08107
616,260,46.0709,2.74542,0,0,0,0,0,0,0,-1,1840,764,46.0709,-2.74545
623,260,32.2268,3.25836,0,0,0,0,0,0,0,-1,1847,764,32.2268,-3.25833
630,260,24.3739,-0.536316,0,0,0,0,0,0,0,-1,1854,764,24.3739,0.536343
637,260,42.7155,-5.35486,0,0,0,0,0,0,0,-1,1861,764,42.7154,5.35488
644,260,91.3242,-9.78699,0,0,0,0,0,0,0,-1,1868,764,91.3243,9.78696
651,260,76.7991,-7.37592,0,0,0,0,0,0,0,-1,1875,764,76.7991,7.37592
658,260,162.486,5.01086,0,0,0,0,0,0,0,-1,1882,764,162.486,-5.01085
665,260,163.565,7.89972,0,0,0,0,0,0,0,-1,1889,764,163.565,-7.89971
672,260,162.749,10.655,-0.00862555,0.0181121,-0.0110823,0.0221083,-0.0126217,-1.22472,0.0202992,0.0327696,1896,764,162.749,-10.655
679,260,162.337,13.2193,-0.00733028,0.0226883,-0.014779,0.0287431,-0.0133851,-1.18196,0.0248557,0.0171373,1903,764,162.337,-13.2193
686,260,161.749,15.6581,-0.00568206,0.0275381,-0.0184286,0.0357375,-0.0138814,-1.15217,0.0295594,0.0374935,1910,764,161.749,-15.6581
693,260,161.126,17.8343,0,0,0,0,0,0,0,-1,1917,764,161.126,-17.8343
700,260,160.764,20.2696,-0.00126085,0.0381692,-0.0255676,0.0507401,-0.0138318,-1.11383,0.0392582,0.0278426,1924,764,160.764,-20.2696
707,260,160.586,22.6383,0.00148534,0.0437102,-0.029089,0.0585409,-0.0133453,-1.09931,0.0441531,0.0311803,1931,764,160.586,-22.6383
714,260,160.263,25.057,0,0,0,0,0,0,0,-1,1938,764,160.263,-25.057
721,260,59.4307,4.13696,0,0,0,0,0,0,0,-1,1945,764,59.4307,-4.13694
728,260,33.4344,5.75409,0,0,0,0,0,0,0,-1,1952,764,33.4345,-5.75408
735,260,26.9788,4.85681,0,0,0,0,0,0,0,-1,1959,764,26.9787,-4.85678
742,260,32.1443,1.73688,0,0,0,0,0,0,0,-1,1966,764,32.1442,-1.73688
749,260,33.6013,2.94733,0,0,0,0,0,0,0,-1,1973,764,33.6013,-2.9473
756,260,0,0,0,0,0,0,0,0,0,-1,1980,764,0,0
763,260,0,0,0,0,0,0,0,0,0,-1,1987,764,0,0
770,260,0,0,0,0,0,0,0,0,0,-1,1994,764,0,0
777,260,0,0,0,0,0,0,0,0,0,-1,2001,764,0,0
784,260,0,0,0,0,0,0,0,0,0,-1,2008,764,0,0
791,260,0,0,0,0,0,0,0,0,0,-1,2015,764,0,0
798,260,0,0,0,0,0,0,0,0,0,-1,2022,764,0,0
805,260,0,0,0,0,0,0,0,0,0,-1,2029,764,0,0
812,260,0,0,0,0,0,0,0,0,0,-1,2036,764,0,0
-700,253,0,0,0,0,0,0,0,0,0,-1,524,771,0,0
-693,253,0,0,0,0,0,0,0,0,0,-1,531,771,0,0
-686,253,0,0,0,0,0,0,0,0,0,-1,538,771,0,0
-679,253,0,0,0,0,0,0,0,0,0,-1,545,771,0,0
-672,253,0,0,0,0,0,0,0,0,0,-1,552,771,0,0
-665,253,0,0,0,0,0,0,0,0,0,-1,559,771,0,0
-658,253,0,0,0,0,0,0,0,0,0,-1,566,771,0,0
-651,253,0,0,0,0,0,0,0,0,0,-1,573,771,0,0
-644,253,0,0,0,0,0,0,0,0,0,-1,580,771,0,0
-637,253,-24.7979,-0.491394,0,0,0,0,0,0,0,-1,587,771,-24.7978,0.491371
-630,253,-25.156,0.540405,0,0,0,0,0,0,0,-1,594,771,-25.156,-0.540421
-623,253,-20.808,2.84314,0,0,0,0,0,0,0,-1,601,771,-20.8081,-2.84312
-616,253,-25.0877,2.96875,0,0,0,0,0,0,0,-1,608,771,-25.0877,-2.96876
-609,253,-24.28,2.08228,0,0,0,0,0,0,0,-1,615,771,-24.2801,-2.08227
-602,253,-45.6953,6.73285,0,0,0,0,0,0,0,-1,622,771,-45.6953,-6.73285
-595,253,-50.7667,7.12732,0,0,0,0,0,0,0,-1,629,771,-50.7667,-7.1273
-588,253,-148.193,26.6655,0,0,0,0,0,0,0,-1,636,771,-148.193,-26.6655
-581,253,-153.685,25.2959,0,0,0,0,0,0,0,-1,643,771,-153.685,-25.2959
-574,253,-154.085,22.7774,-0.0033841,0.0410861,0.0244286,0.0518837,-0.0141817,1.15461,0.0401599,0.0424885,650,771,-154.085,-22.7774
-567,253,-154.611,20.4808,-0.00308367,0.0362679,0.0211691,0.0454931,-0.0123089,1.15982,0.0351574,0.02186,657,771,-154.611,-20.4808
-560,253,-155.029,18.1118,-0.00316748,0.031783,0.0177209,0.0391958,-0.0105803,1.17461,0.0302799,0.0175886,664,771,-155.029,-18.1118
-553,253,-155.469,15.7366,-0.00380989,0.0276255,0.014112,0.0330312,-0.00921552,1.20499,0.0256505,0.0177147,671,771,-155.469,-15.7366
-546,253,-155.902,13.2947,-0.00498811,0.0237642,0.010423,0.0271451,-0.00836899,1.25714,0.021438,0.0184214,678,771,-155.902,-13.2947
-539,253,-156.037,10.6848,-0.00680498,0.0201035,0.00674989,0.0217018,-0.00840323,1.3383,0.0179375,0.0351125,685,771,-156.037,-10.6848
-532,253,-157.039,8.00183,-0.00931262,0.0166993,0.0031068,0.0170652,-0.00967854,1.45356,0.0156356,0.0425947,692,771,-157.039,-8.00182
-525,253,-157.643,5.22906,-0.0125194,0.0135427,-0.000416394,0.0135494,-0.0125261,-1.55482,0.0150585,0.0314996,699,771,-157.643,-5.22905
-518,253,-158.099,2.44464,0,0,0,0,0,0,0,-1,706,771,-158.099,-2.44466
-511,253,-68.3588,-8.90771,0,0,0,0,0,0,0,-1,713,771,-68.3588,8.90769
-504,253,-19.317,-4.1723,0,0,0,0,0,0,0,-1,720,771,-19.317,4.1723
-497,253,-21.7737,-1.76837,0,0,0,0,0,0,0,-1,727,771,-21.7738,1.7684
-490,253,-29.7674,0.438354,0,0,0,0,0,0,0,-1,734,771,-29.7674,-0.438339
-483,253,-45.4489,1.59302,0,0,0,0,0,0,0,-1,741,771,-45.4489,-1.59303
-476,253,-64.2688,0.0551758,0,0,0,0,0,0,0,-1,748,771,-64.2688,-0.0552001
-469,253,-71.0914,0.867859,0,0,0,0,0,0,0,-1,755,771,-71.0914,-0.867851
-462,253,-71.4388,0.379639,0,0,0,0,0,0,0,-1,762,771,-71.4388,-0.379644
-455,253,-71.35,0.581238,0,0,0,0,0,0,0,-1,769,771,-71.35,-0.581243
-448,253,0,0,0,0,0,0,0,0,0,-1,776,771,0,0
-441,253,0,0,0,0,0,0,0,0,0,-1,783,771,0,0
-434,253,0,0,0,0,0,0,0,0,0,-1,790,771,0,0
-427,253,0,0,0,0,0,0,0,0,0,-1,797,771,0,0
-420,253,0,0,0,0,0,0,0,0,0,-1,804,771,0,0
-413,253,0,0,0,0,0,0,0,0,0,-1,811,771,0,0
-406,253,0,0,0,0,0,0,0,0,0,-1,818,771,0,0
-399,253,0,0,0,0,0,0,0,0,0,-1,825,771,0,0
-392,253,0,0,0,0,0,0,0,0,0,-1,832,771,0,0
-385,253,0,0,0,0,0,0,0,0,0,-1,839,771,0,0
-378,253,0,0,0,0,0,0,0,0,0,-1,846,771,0,0
-371,253,0,0,0,0,0,0,0,0,0,-1,853,771,0,0
-364,253,0,0,0,0,0,0,0,0,0,-1,860,771,0,0
-357,253,0,0,0,0,0,0,0,0,0,-1,867,771,0,0
-350,253,0,0,0,0,0,0,0,0,0,-1,874,771,0,0
-343,253,0,0,0,0,0,0,0,0,0,-1,881,771,0,0
-336,253,0,0,0,0,0,0,0,0,0,-1,888,771,0,0
-329,253,0,0,0,0,0,0,0,0,0,-1,895,771,0,0
-322,253,0,0,0,0,0,0,0,0,0,-1,902,771,0,0
-315,253,0,0,0,0,0,0,0,0,0,-1,909,771,0,0
-308,253,0,0,0,0,0,0,0,0,0,-1,916,771,0,0
-301,253,0,0,0,0,0,0,0,0,0,-1,923,771,0,0
-294,253,0,0,0,0,0,0,0,0,0,-1,930,771,0,0
-287,253,0,0,0,0,0,0,0,0,0,-1,937,771,0,0
-280,253,0,0,0,0,0,0,0,0,0,-1,944,771,0,0
-273,253,0,0,0,0,0,0,0,0,0,-1,951,771,0,0
-266,253,0,0,0,0,0,0,0,0,0,-1,958,771,0,0
-259,253,0,0,0,0,0,0,0,0,0,-1,965,771,0,0
-252,253,0,0,0,0,0,0,0,0,0,-1,972,771,0,0
-245,253,0,0,0,0,0,0,0,0,0,-1,979,771,0,0
-238,253,0,0,0,0,0,0,0,0,0,-1,986,771,0,0
-231,253,0,0,0,0,0,0,0,0,0,-1,993,771,0,0
-224,253,0,0,0,0,0,0,0,0,0,-1,1000,771,0,0
-217,253,0,0,0,0,0,0,0,0,0,-1,1007,771,0,0
-210,253,0,0,0,0,0,0,0,0,0,-1,1014,771,0,0
-203,253,0,0,0,0,0,0,0,0,0,-1,1021,771,0,0
-196,253,0,0,0,0,0,0,0,0,0,-1,1028,771,0,0
-189,253,0,0,0,0,0,0,0,0,0,-1,1035,771,0,0
-182,253,0,0,0,0,0,0,0,0,0,-1,1042,771,0,0
-175,253,0,0,0,0,0,0,0,0,0,-1,1049,771,0,0
-168,253,0,0,0,0,0,0,0,0,0,-1,1056,771,0,0
-161,253,0,0,0,0,0,0,0,0,0,-1,1063,771,0,0
-154,253,0,0,0,0,0,0,0,0,0,-1,1070,771,0,0
-147,253,0,0,0,0,0,0,0,0,0,-1,1077,771,0,0
-140,253,0,0,0,0,0,0,0,0,0,-1,1084,771,0,0
-133,253,0,0,0,0,0,0,0,0,0,-1,1091,771,0,0
-126,253,0,0,0,0,0,0,0,0,0,-1,1098,771,0,0
-119,253,0,0,0,0,0,0,0,0,0,-1,1105,771,0,0
-112,253,0,0,0,0,0,0,0,0,0,-1,1112,771,0,0
-105,253,0,0,0,0,0,0,0,0,0,-1,1119,771,0,0
-98,253,0,0,0,0,0,0,0,0,0,-1,1126,771,0,0
-91,253,0,0,0,0,0,0,0,0,0,-1,1133,771,0,0
-84,253,0,0,0,0,0,0,0,0,0,-1,1140,771,0,0
-77,253,0,0,0,0,0,0,0,0,0,-1,1147,771,0,0
-70,253,0,0,0,0,0,0,0,0,0,-1,1154,771,0,0
-63,253,0,0,0,0,0,0,0,0,0,-1,1161,771,0,0
-56,253,0,0,0,0,0,0,0,0,0,-1,1168,771,0,0
-49,253,0,0,0,0,0,0,0,0,0,-1,1175,771,0,0
-42,253,0,0,0,0,0,0,0,0,0,-1,1182,771,0,0
-35,253,0,0,0,0,0,0,0,0,0,-1,1189,771,0,0
-28,253,0,0,0,0,0,0,0,0,0,-1,1196,771,0,0
-21,253,0,0,0,0,0,0,0,0,0,-1,1203,771,0,0
-14,253,0,0,0,0,0,0,0,0,0,-1,1210,771,0,0
-7,253,0,0,0,0,0,0,0,0,0,-1,1217,771,0,0
0,253,0,0,0,0,0,0,0,0,0,-1,1224,771,0,0
7,253,0,0,0,0,0,0,0,0,0,-1,1231,771,0,0
14,253,0,0,0,0,0,0,0,0,0,-1,1238,771,0,0
21,253,0,0,0,0,0,0,0,0,0,-1,1245,771,0,0
28,253,0,0,0,0,0,0,0,0,0,-1,1252,771,0,0
35,253,0,0,0,0,0,0,0,0,0,-1,1259,771,0,0
42,253,0,0,0,0,0,0,0,0,0,-1,1266,771,0,0
49,253,0,0,0,0,0,0,0,0,0,-1,1273,771,0,0
56,253,0,0,0,0,0,0,0,0,0,-1,1280,771,0,0
63,253,0,0,0,0,0,0,0,0,0,-1,1287,771,0,0
70,253,0,0,0,0,0,0,0,0,0,-1,1294,771,0,0
77,253,0,0,0,0,0,0,0,0,0,-1,1301,771,0,0
84,253,0,0,0,0,0,0,0,0,0,-1,1308,771,0,0
91,253,0,0,0,0,0,0,0,0,0,-1,1315,771,0,0
98,253,0,0,0,0,0,0,0,0,0,-1,1322,771,0,0
105,253,0,0,0,0,0,0,0,0,0,-1,1329,771,0,0
112,253,0,0,0,0,0,0,0,0,0,-1,1336,771,0,0
119,253,0,0,0,0,0,0,0,0,0,-1,1343,771,0,0
126,253,0,0,0,0,0,0,0,0,0,-1,1350,771,0,0
133,253,0,0,0,0,0,0,0,0,0,-1,1357,771,0,0
140,253,0,0,0,0,0,0,0,0,0,-1,1364,771,0,0
147,253,0,0,0,0,0,0,0,0,0,-1,1371,771,0,0
154,253,0,0,0,0,0,0,0,0,0,-1,1378,771,0,0
161,253,0,0,0,0,0,0,0,0,0,-1,1385,771,0,0
168,253,0,0,0,0,0,0,0,0,0,-1,1392,771,0,0
175,253,0,0,0,0,0,0,0,0,0,-1,1399,771,0,0
182,253,0,0,0,0,0,0,0,0,0,-1,1406,771,0,0
189,253,0,0,0,0,0,0,0,0,0,-1,1413,771,0,0
196,253,0,0,0,0,0,0,0,0,0,-1,1420,771,0,0
203,253,0,0,0,0,0,0,0,0,0,-1,1427,771,0,0
210,253,0,0,0,0,0,0,0,0,0,-1,1434,771,0,0
217,253,0,0,0,0,0,0,0,0,0,-1,1441,771,0,0
224,253,0,0,0,0,0,0,0,0,0,-1,1448,771,0,0
231,253,0,0,0,0,0,0,0,0,0,-1,1455,771,0,0
238,253,0,0,0,0,0,0,0,0,0,-1,1462,771,0,0
245,253,0,0,0,0,0,0,0,0,0,-1,1469,771,0,0
252,253,0,0,0,0,0,0,0,0,0,-1,1476,771,0,0
259,253,0,0,0,0,0,0,0,0,0,-1,1483,771,0,0
266,253,0,0,0,0,0,0,0,0,0,-1,1490,771,0,0
273,253,0,0,0,0,0,0,0,0,0,-1,1497,771,0,0
280,253,0,0,0,0,0,0,0,0,0,-1,1504,771,0,0
287,253,0,0,0,0,0,0,0,0,0,-1,1511,771,0,0
294,253,0,0,0,0,0,0,0,0,0,-1,1518,771,0,0
301,253,0,0,0,0,0,0,0,0,0,-1,1525,771,0,0
308,253,0,0,0,0,0,0,0,0,0,-1,1532,771,0,0
315,253,0,0,0,0,0,0,0,0,0,-1,1539,771,0,0
322,253,0,0,0,0,0,0,0,0,0,-1,1546,771,0,0
329,253,0,0,0,0,0,0,0,0,0,-1,1553,771,0,0
336,253,0,0,0,0,0,0,0,0,0,-1,1560,771,0,0
343,253,0,0,0,0,0,0,0,0,0,-1,1567,771,0,0
350,253,0,0,0,0,0,0,0,0,0,-1,1574,771,0,0
357,253,0,0,0,0,0,0,0,0,0,-1,1581,771,0,0
364,253,0,0,0,0,0,0,0,0,0,-1,1588,771,0,0
371,253,0,0,0,0,0,0,0,0,0,-1,1595,771,0,0
378,253,0,0,0,0,0,0,0,0,0,-1,1602,771,0,0
385,253,0,0,0,0,0,0,0,0,0,-1,1609,771,0,0
392,253,0,0,0,0,0,0,0,0,0,-1,1616,771,0,0
399,253,0,0,0,0,0,0,0,0,0,-1,1623,771,0,0
406,253,0,0,0,0,0,0,0,0,0,-1,1630,771,0,0
413,253,0,0,0,0,0,0,0,0,0,-1,1637,771,0,0
420,253,0,0,0,0,0,0,0,0,0,-1,1644,771,0,0
427,253,0,0,0,0,0,0,0,0,0,-1,1651,771,0,0
434,253,0,0,0,0,0,0,0,0,0,-1,1658,771,0,0
441,253,0,0,0,0,0,0,0,0,0,-1,1665,771,0,0
448,253,0,0,0,0,0,0,0,0,0,-1,1672,771,0,0
455,253,0,0,0,0,0,0,0,0,0,-1,1679,771,0,0
462,253,0,0,0,0,0,0,0,0,0,-1,1686,771,0,0
469,253,0,0,0,0,0,0,0,0,0,-1,1693,771,0,0
476,253,0,0,0,0,0,0,0,0,0,-1,1700,771,0,0
483,253,0,0,0,0,0,0,0,0,0,-1,1707,771,0,0
490,253,0,0,0,0,0,0,0,0,0,-1,1714,771,0,0
497,253,0,0,0,0,0,0,0,0,0,-1,1721,771,0,0
504,253,0,0,0,0,0,0,0,0,0,-1,1728,771,0,0
511,253,0,0,0,0,0,0,0,0,0,-1,1735,771,0,0
518,253,0,0,0,0,0,0,0,0,0,-1,1742,771,0,0
525,253,0,0,0,0,0,0,0,0,0,-1,1749,771,0,0
532,253,0,0,0,0,0,0,0,0,0,-1,1756,771,0,0
539,253,0,0,0,0,0,0,0,0,0,-1,1763,771,0,0
546,253,0,0,0,0,0,0,0,0,0,-1,1770,771,0,0
553,253,0,0,0,0,0,0,0,0,0,-1,1777,771,0,0
560,253,0,0,0,0,0,0,0,0,0,-1,1784,771,0,0
567,253,0,0,0,0,0,0,0,0,0,-1,1791,771,0,0
574,253,123.62,3.96124,0,0,0,0,0,0,0,-1,1798,771,123.62,-3.96124
581,253,215.282,8.88885,0,0,0,0,0,0,0,-1,1805,771,215.282,-8.88885
588,253,125.995,4.1709,0,0,0,0,0,0,0,-1,1812,771,125.995,-4.17091
595,253,107.31,2.72931,0,0,0,0,0,0,0,-1,1819,771,107.31,-2.72928
602,253,66.4502,2.6098,0,0,0,0,0,0,0,-1,1826,771,66.4502,-2.60979
609,253,65.2542,3.18195,0,0,0,0,0,0,0,-1,1833,771,65.2541,-3.18193
616,253,58.416,2.69031,0,0,0,0,0,0,0,-1,1840,771,58.4161,-2.69031
623,253,48.8328,3.01001,0,0,0,0,0,0,0,-1,1847,771,48.8328,-3.01002
630,253,33.561,2.96838,0,0,0,0,0,0,0,-1,1854,771,33.561,-2.96836
637,253,22.3192,-0.604004,0,0,0,0,0,0,0,-1,1861,771,22.3192,0.603986
644,253,48.2843,-5.22784,0,0,0,0,0,0,0,-1,1868,771,48.2843,5.22783
651,253,71.8274,-7.87415,0,0,0,0,0,0,0,-1,1875,771,71.8274,7.87416
658,253,74.8138,-4.5741,0,0,0,0,0,0,0,-1,1882,771,74.8138,4.57408
665,253,164.198,8.34912,0,0,0,0,0,0,0,-1,1889,771,164.198,-8.34911
672,253,165.413,11.1026,0,0,0,0,0,0,0,-1,1896,771,165.413,-11.1026
679,253,165.086,13.5985,-0.00840316,0.0203093,-0.0125453,0.0250184,-0.0131123,-1.2117,0.0223696,0.0180882,1903,771,165.086,-13.5985
686,253,164.424,16.0492,-0.00704073,0.0251755,-0.0163867,0.0320456,-0.0139108,-1.17381,0.0272128,0.042135,1910,771,164.424,-16.0492
693,253,163.87,18.3357,-0.00542147,0.0302015,-0.0202246,0.0393397,-0.0145596,-1.14642,0.0321964,0.0421792,1917,771,163.87,-18.3357
700,253,163.539,20.5509,-0.00358486,0.0353781,-0.024052,0.0468486,-0.0150554,-1.12579,0.0372784,0.0301066,1924,771,163.539,-20.5509
707,253,163.307,22.89,-0.00165043,0.0405937,-0.027878,0.0544477,-0.0155044,-1.10959,0.0424218,0.0264728,1931,771,163.307,-22.89
714,253,162.92,25.3605,0,0,0,0,0,0,0,-1,1938,771,162.92,-25.3605
721,253,113.766,17.9685,0,0,0,0,0,0,0,-1,1945,771,113.766,-17.9685
728,253,96.8784,15.2808,0,0,0,0,0,0,0,-1,1952,771,96.8783,-15.2808
735,253,34.5735,6.15118,0,0,0,0,0,0,0,-1,1959,771,34.5734,-6.1512
742,253,31.0571,5.7337,0,0,0,0,0,0,0,-1,1966,771,31.0571,-5.73373
749,253,33.7754,3.21533,0,0,0,0,0,0,0,-1,1973,771,33.7754,-3.21533
756,253,0,0,0,0,0,0,0,0,0,-1,1980,771,0,0
763,253,0,0,0,0,0,0,0,0,0,-1,1987,771,0,0
770,253,0,0,0,0,0,0,0,0,0,-1,1994,771,0,0
777,253,0,0,0,0,0,0,0,0,0,-1,2001,771,0,0
784,253,0,0,0,0,0,0,0,0,0,-1,2008,771,0,0
791,253,0,0,0,0,0,0,0,0,0,-1,2015,771,0,0
798,253,0,0,0,0,0,0,0,0,0,-1,2022,771,0,0
805,253,0,0,0,0,0,0,0,0,0,-1,2029,771,0,0
812,253,0,0,0,0,0,0,0,0,0,-1,2036,771,0,0
-700,246,0,0,0,0,0,0,0,0,0,-1,524,778,0,0
-693,246,0,0,0,0,0,0,0,0,0,-1,531,778,0,0
-686,246,0,0,0,0,0,0,0,0,0,-1,538,778,0,0
-679,246,0,0,0,0,0,0,0,0,0,-1,545,778,0,0
-672,246,0,0,0,0,0,0,0,0,0,-1,552,778,0,0
-665,246,0,0,0,0,0,0,0,0,0,-1,559,778,0,0
-658,246,0,0,0,0,0,0,0,0,0,-1,566,778,0,0
-651,246,0,0,0,0,0,0,0,0,0,-1,573,778,0,0
-644,246,0,0,0,0,0,0,0,0,0,-1,580,778,0,0
-637,246,-24.1234,0.130432,0,0,0,0,0,0,0,-1,587,778,-24.1234,-0.130438
-630,246,-24.0781,1.38916,0,0,0,0,0,0,0,-1,594,778,-24.0781,-1.38913
-623,246,-23.9183,2.49573,0,0,0,0,0,0,0,-1,601,778,-23.9183,-2.49575
-616,246,-26.8182,2.0705,0,0,0,0,0,0,0,-1,608,778,-26.8182,-2.07052
-609,246,-26.0615,1.16388,0,0,0,0,0,0,0,-1,615,778,-26.0615,-1.16388
-602,246,-51.7078,9.6991,0,0,0,0,0,0,0,-1,622,778,-51.7078,-9.69909
-595,246,-62.918,10.173,0,0,0,0,0,0,0,-1,629,778,-62.918,-10.173
-588,246,-156.135,27.5232,0,0,0,0,0,0,0,-1,636,778,-156.135,-27.5232
-581,246,-156.473,25.2813,-0.00440951,0.0452963,0.024862,0.0555972,-0.0147103,1.17801,0.042819,0.0410844,643,778,-156.473,-25.2813
-574,246,-156.795,22.8982,-0.0037576,0.0396665,0.0219518,0.0488299,-0.012921,1.17535,0.0376076,0.030248,650,778,-156.795,-22.8982
-567,246,-157.249,20.5986,-0.00356868,0.0347187,0.0188116,0.0424144,-0.0112644,1.18247,0.0326847,0.0278261,657,778,-157.249,-20.5986
-560,246,-157.635,18.3836,-0.00380019,0.0302008,0.0154458,0.0361696,-0.009769,1.20204,0.0279445,0.0211582,664,778,-157.635,-18.3836
-553,246,-158.067,16.0931,-0.00453084,0.0260382,0.0118957,0.0301218,-0.00861446,1.24012,0.0234854,0.0172306,671,778,-158.067,-16.0931
-546,246,-158.521,13.6321,-0.00577696,0.0222039,0.00820657,0.0244332,-0.00800626,1.30555,0.019513,0.0208031,678,778,-158.521,-13.6322
-539,246,-158.74,11.0899,-0.00770258,0.0186514,0.00449308,0.0193964,-0.00844755,1.40649,0.0164848,0.0345266,685,778,-158.74,-11.0899
-532,246,-159.705,8.58203,-0.0103322,0.0154356,0.0007202,0.0154557,-0.0103523,1.54288,0.0149971,0.0336414,692,778,-159.705,-8.58206
-525,246,-160.288,5.68939,0,0,0,0,0,0,0,-1,699,778,-160.288,-5.68937
-518,246,-78.9205,-6.83978,0,0,0,0,0,0,0,-1,706,778,-78.9205,6.83976
-511,246,-28.5886,-5.38635,0,0,0,0,0,0,0,-1,713,778,-28.5886,5.38633
-504,246,-20.0047,-2.88214,0,0,0,0,0,0,0,-1,720,778,-20.0047,2.88216
-497,246,-29.4669,1.82684,0,0,0,0,0,0,0,-1,727,778,-29.4669,-1.82687
-490,246,-40.4299,1.04309,0,0,0,0,0,0,0,-1,734,778,-40.4299,-1.04308
-483,246,-55.5514,-0.0795898,0,0,0,0,0,0,0,-1,741,778,-55.5514,0.0795595
-476,246,-71.3194,0.512817,0,0,0,0,0,0,0,-1,748,778,-71.3194,-0.512787
-469,246,-71.1252,0.834961,0,0,0,0,0,0,0,-1,755,778,-71.1252,-0.834941
-462,246,-71.2921,0.690796,0,0,0,0,0,0,0,-1,762,778,-71.2921,-0.690778
-455,246,0,0,0,0,0,0,0,0,0,-1,769,778,0,0
-448,246,0,0,0,0,0,0,0,0,0,-1,776,778,0,0
-441,246,0,0,0,0,0,0,0,0,0,-1,783,778,0,0
-434,246,0,0,0,0,0,0,0,0,0,-1,790,778,0,0
-427,246,0,0,0,0,0,0,0,0,0,-1,797,778,0,0
-420,246,0,0,0,0,0,0,0,0,0,-1,804,778,0,0
-413,246,0,0,0,0,0,0,0,0,0,-1,811,778,0,0
-406,246,0,0,0,0,0,0,0,0,0,-1,818,778,0,0
-399,246,0,0,0,0,0,0,0,0,0,-1,825,778,0,0
-392,246,0,0,0,0,0,0,0,0,0,-1,832,778,0,0
-385,246,0,0,0,0,0,0,0,0,0,-1,839,778,0,0
-378,246,0,0,0,0,0,0,0,0,0,-1,846,778,0,0
-371,246,0,0,0,0,0,0,0,0,0,-1,853,778,0,0
-364,246,0,0,0,0,0,0,0,0,0,-1,860,778,0,0
-357,246,0,0,0,0,0,0,0,0,0,-1,867,778,0,0
-350,246,0,0,0,0,0,0,0,0,0,-1,874,778,0,0
-343,246,0,0,0,0,0,0,0,0,0,-1,881,778,0,0
-336,246,0,0,0,0,0,0,0,0,0,-1,888,778,0,0
-329,246,0,0,0,0,0,0,0,0,0,-1,895,778,0,0
-322,246,0,0,0,0,0,0,0,0,0,-1,902,778,0,0
-315,246,0,0,0,0,0,0,0,0,0,-1,909,778,0,0
-308,246,0,0,0,0,0,0,0,0,0,-1,916,778,0,0
-301,246,0,0,0,0,0,0,0,0,0,-1,923,778,0,0
-294,246,0,0,0,0,0,0,0,0,0,-1,930,778,0,0
-287,246,0,0,0,0,0,0,0,0,0,-1,937,778,0,0
-280,246,0,0,0,0,0,0,0,0,0,-1,944,778,0,0
-273,246,0,0,0,0,0,0,0,0,0,-1,951,778,0,0
-266,246,0,0,0,0,0,0,0,0,0,-1,958,778,0,0
-259,246,0,0,0,0,0,0,0,0,0,-1,965,778,0,0
-252,246,0,0,0,0,0,0,0,0,0,-1,972,778,0,0
-245,246,0,0,0,0,0,0,0,0,0,-1,979,778,0,0
-238,246,0,0,0,0,0,0,0,0,0,-1,986,778,0,0
-231,246,0,0,0,0,0,0,0,0,0,-1,993,778,0,0
-224,246,0,0,0,0,0,0,0,0,0,-1,1000,778,0,0
-217,246,0,0,0,0,0,0,0,0,0,-1,1007,778,0,0
-210,246,0,0,0,0,0,0,0,0,0,-1,1014,778,0,0
-203,246,0,0,0,0,0,0,0,0,0,-1,1021,778,0,0
-196,246,0,0,0,0,0,0,0,0,0,-1,1028,778,0,0
-189,246,0,0,0,0,0,0,0,0,0,-1,1035,778,0,0
-182,246,0,0,0,0,0,0,0,0,0,-1,1042,778,0,0
-175,246,0,0,0,0,0,0,0,0,0,-1,1049,778,0,0
-168,246,0,0,0,0,0,0,0,0,0,-1,1056,778,0,0
-161,246,0,0,0,0,0,0,0,0,0,-1,1063,778,0,0
-154,246,0,0,0,0,0,0,0,0,0,-1,1070,778,0,0
-147,246,0,0,0,0,0,0,0,0,0,-1,1077,778,0,0
-140,246,0,0,0,0,0,0,0,0,0,-1,1084,778,0,0
-133,246,0,0,0,0,0,0,0,0,0,-1,1091,778,0,0
-126,246,0,0,0,0,0,0,0,0,0,-1,1098,778,0,0
-119,246,0,0,0,0,0,0,0,0,0,-1,1105,778,0,0
-112,246,0,0,0,0,0,0,0,0,0,-1,1112,778,0,0
-105,246,0,0,0,0,0,0,0,0,0,-1,1119,778,0,0
-98,246,0,0,0,0,0,0,0,0,0,-1,1126,778,0,0
-91,246,0,0,0,0,0,0,0,0,0,-1,1133,778,0,0
-84,246,0,0,0,0,0,0,0,0,0,-1,1140,778,0,0
-77,246,0,0,0,0,0,0,0,0,0,-1,1147,778,0,0
-70,246,0,0,0,0,0,0,0,0,0,-1,1154,778,0,0
-63,246,0,0,0,0,0,0,0,0,0,-1,1161,778,0,0
-56,246,0,0,0,0,0,0,0,0,0,-1,1168,778,0,0
-49,246,0,0,0,0,0,0,0,0,0,-1,1175,778,0,0
-42,246,0,0,0,0,0,0,0,0,0,-1,1182,778,0,0
-35,246,0,0,0,0,0,0,0,0,0,-1,1189,778,0,0
-28,246,0,0,0,0,0,0,0,0,0,-1,1196,778,0,0
-21,246,0,0,0,0,0,0,0,0,0,-1,1203,778,0,0
-14,246,0,0,0,0,0,0,0,0,0,-1,1210,778,0,0
-7,246,0,0,0,0,0,0,0,0,0,-1,1217,778,0,0
0,246,0,0,0,0,0,0,0,0,0,-1,1224,778,0,0
7,246,0,0,0,0,0,0,0,0,0,-1,1231,778,0,0
14,246,0,0,0,0,0,0,0,0,0,-1,1238,778,0,0
21,246,0,0,0,0,0,0,0,0,0,-1,1245,778,0,0
28,246,0,0,0,0,0,0,0,0,0,-1,1252,778,0,0
35,246,0,0,0,0,0,0,0,0,0,-1,1259,778,0,0
42,246,0,0,0,0,0,0,0,0,0,-1,1266,778,0,0
49,246,0,0,0,0,0,0,0,0,0,-1,1273,778,0,0
56,246,0,0,0,0,0,0,0,0,0,-1,1280,778,0,0
63,246,0,0,0,0,0,0,0,0,0,-1,1287,778,0,0
70,246,0,0,0,0,0,0,0,0,0,-1,1294,778,0,0
77,246,0,0,0,0,0,0,0,0,0,-1,1301,778,0,0
84,246,0,0,0,0,0,0,0,0,0,-1,1308,778,0,0
91,246,0,0,0,0,0,0,0,0,0,-1,1315,778,0,0
98,246,0,0,0,0,0,0,0,0,0,-1,1322,778,0,0
105,246,0,0,0,0,0,0,0,0,0,-1,1329,778,0,0
112,246,0,0,0,0,0,0,0,0,0,-1,1336,778,0,0
119,246,0,0,0,0,0,0,0,0,0,-1,1343,778,0,0
126,246,0,0,0,0,0,0,0,0,0,-1,1350,778,0,0
133,246,0,0,0,0,0,0,0,0,0,-1,1357,778,0,0
140,246,0,0,0,0,0,0,0,0,0,-1,1364,778,0,0
147,246,0,0,0,0,0,0,0,0,0,-1,1371,778,0,0
154,246,0,0,0,0,0,0,0,0,0,-1,1378,778,0,0
161,246,0,0,0,0,0,0,0,0,0,-1,1385,778,0,0
168,246,0,0,0,0,0,0,0,0,0,-1,1392,778,0,0
175,246,0,0,0,0,0,0,0,0,0,-1,1399,778,0,0
182,246,0,0,0,0,0,0,0,0,0,-1,1406,778,0,0
189,246,0,0,0,0,0,0,0,0,0,-1,1413,778,0,0
196,246,0,0,0,0,0,0,0,0,0,-1,1420,778,0,0
203,246,0,0,0,0,0,0,0,0,0,-1,1427,778,0,0
210,246,0,0,0,0,0,0,0,0,0,-1,1434,778,0,0
217,246,0,0,0,0,0,0,0,0,0,-1,1441,778,0,0
224,246,0,0,0,0,0,0,0,0,0,-1,1448,778,0,0
231,246,0,0,0,0,0,0,0,0,0,-1,1455,778,0,0
238,246,0,0,0,0,0,0,0,0,0,-1,1462,778,0,0
245,246,0,0,0,0,0,0,0,0,0,-1,1469,778,0,0
252,246,0,0,0,0,0,0,0,0,0,-1,1476,778,0,0
259,246,0,0,0,0,0,0,0,0,0,-1,1483,778,0,0
266,246,0,0,0,0,0,0,0,0,0,-1,1490,778,0,0
273,246,0,0,0,0,0,0,0,0,0,-1,1497,778,0,0
280,246,0,0,0,0,0,0,0,0,0,-1,1504,778,0,0
287,246,0,0,0,0,0,0,0,0,0,-1,1511,778,0,0
294,246,0,0,0,0,0,0,0,0,0,-1,1518,778,0,0
301,246,0,0,0,0,0,0,0,0,0,-1,1525,778,0,0
308,246,0,0,0,0,0,0,0,0,0,-1,1532,778,0,0
315,246,0,0,0,0,0,0,0,0,0,-1,1539,778,0,0
322,246,0,0,0,0,0,0,0,0,0,-1,1546,778,0,0
329,246,0,0,0,0,0,0,0,0,0,-1,1553,778,0,0
336,246,0,0,0,0,0,0,0,0,0,-1,1560,778,0,0
343,246,0,0,0,0,0,0,0,0,0,-1,1567,778,0,0
350,246,0,0,0,0,0,0,0,0,0,-1,1574,778,0,0
357,246,0,0,0,0,0,0,0,0,0,-1,1581,778,0,0
364,246,0,0,0,0,0,0,0,0,0,-1,1588,778,0,0
371,246,0,0,0,0,0,0,0,0,0,-1,1595,778,0,0
378,246,0,0,0,0,0,0,0,0,0,-1,1602,778,0,0
385,246,0,0,0,0,0,0,0,0,0,-1,1609,778,0,0
392,246,0,0,0,0,0,0,0,0,0,-1,1616,778,0,0
399,246,0,0,0,0,0,0,0,0,0,-1,1623,778,0,0
406,246,0,0,0,0,0,0,0,0,0,-1,1630,778,0,0
413,246,0,0,0,0,0,0,0,0,0,-1,1637,778,0,0
420,246,0,0,0,0,0,0,0,0,0,-1,1644,778,0,0
427,246,0,0,0,0,0,0,0,0,0,-1,1651,778,0,0
434,246,0,0,0,0,0,0,0,0,0,-1,1658,778,0,0
441,246,0,0,0,0,0,0,0,0,0,-1,1665,778,0,0
448,246,0,0,0,0,0,0,0,0,0,-1,1672,778,0,0
455,246,0,0,0,0,0,0,0,0,0,-1,1679,778,0,0
462,246,0,0,0,0,0,0,0,0,0,-1,1686,778,0,0
469,246,0,0,0,0,0,0,0,0,0,-1,1693,778,0,0
476,246,0,0,0,0,0,0,0,0,0,-1,1700,778,0,0
483,246,0,0,0,0,0,0,0,0,0,-1,1707,778,0,0
490,246,0,0,0,0,0,0,0,0,0,-1,1714,778,0,0
497,246,0,0,0,0,0,0,0,0,0,-1,1721,778,0,0
504,246,0,0,0,0,0,0,0,0,0,-1,1728,778,0,0
511,246,0,0,0,0,0,0,0,0,0,-1,1735,778,0,0
518,246,0,0,0,0,0,0,0,0,0,-1,1742,778,0,0
525,246,0,0,0,0,0,0,0,0,0,-1,1749,778,0,0
532,246,0,0,0,0,0,0,0,0,0,-1,1756,778,0,0
539,246,0,0,0,0,0,0,0,0,0,-1,1763,778,0,0
546,246,0,0,0,0,0,0,0,0,0,-1,1770,778,0,0
553,246,0,0,0,0,0,0,0,0,0,-1,1777,778,0,0
560,246,0,0,0,0,0,0,0,0,0,-1,1784,778,0,0
567,246,0,0,0,0,0,0,0,0,0,-1,1791,778,0,0
574,246,0,0,0,0,0,0,0,0,0,-1,1798,778,0,0
581,246,215.333,8.94513,0,0,0,0,0,0,0,-1,1805,778,215.333,-8.94513
588,246,215.335,8.87561,0,0,0,0,0,0,0,-1,1812,778,215.335,-8.87558
595,246,215.494,8.6012,0,0,0,0,0,0,0,-1,1819,778,215.494,-8.6012
602,246,107.337,2.6972,0,0,0,0,0,0,0,-1,1826,778,107.337,-2.69723
609,246,65.04,3.03278,0,0,0,0,0,0,0,-1,1833,778,65.04,-3.03277
616,246,60.4568,3.98492,0,0,0,0,0,0,0,-1,1840,778,60.4568,-3.98491
623,246,55.8947,3.95953,0,0,0,0,0,0,0,-1,1847,778,55.8947,-3.95952
630,246,49.5938,1.99902,0,0,0,0,0,0,0,-1,1854,778,49.5937,-1.999
637,246,29.5785,0.837585,0,0,0,0,0,0,0,-1,1861,778,29.5785,-0.837606
644,246,28.1232,-1.43188,0,0,0,0,0,0,0,-1,1868,778,28.1232,1.43188
651,246,48.5865,-4.32922,0,0,0,0,0,0,0,-1,1875,778,48.5865,4.32921
658,246,72.3572,-5.37158,0,0,0,0,0,0,0,-1,1882,778,72.3571,5.37156
665,246,86.7817,-3.43433,0,0,0,0,0,0,0,-1,1889,778,86.7817,3.43432
672,246,168.231,11.4964,0,0,0,0,0,0,0,-1,1896,778,168.231,-11.4964
679,246,167.749,13.9327,-0.00933943,0.0180909,-0.00983476,0.0212526,-0.0125011,-1.25975,0.0197049,0.0320783,1903,778,167.749,-13.9328
686,246,167.26,16.4227,-0.0082462,0.022933,-0.0139649,0.0282732,-0.0135864,-1.20556,0.0246585,0.0360303,1910,778,167.26,-16.4227
693,246,166.788,18.7699,-0.00702083,0.027924,-0.0180953,0.0356056,-0.0147025,-1.16934,0.0298694,0.0293099,1917,778,166.788,-18.7699
700,246,166.376,20.9796,-0.00575174,0.0330184,-0.022223,0.043123,-0.0158564,-1.14405,0.0352439,0.0246105,1924,778,166.376,-20.9796
707,246,165.883,23.2269,-0.00456586,0.0382075,-0.0263454,0.0507542,-0.0171125,-1.12634,0.0407559,0.0228361,1931,778,165.883,-23.2269
714,246,165.51,25.4279,-0.00374139,0.0434739,-0.0305813,0.0584996,-0.0187671,-1.1141,0.0465345,0.0319234,1938,778,165.51,-25.4279
721,246,165.117,27.5465,0,0,0,0,0,0,0,-1,1945,778,165.117,-27.5465
728,246,115.72,20.5336,0,0,0,0,0,0,0,-1,1952,778,115.72,-20.5337
735,246,98.2612,18.2271,0,0,0,0,0,0,0,-1,1959,778,98.2612,-18.2271
742,246,31.7356,6.70013,0,0,0,0,0,0,0,-1,1966,778,31.7356,-6.70011
749,246,32.3883,7.69324,0,0,0,0,0,0,0,-1,1973,778,32.3883,-7.69322
756,246,33.6919,3.45264,0,0,0,0,0,0,0,-1,1980,778,33.6919,-3.45262
763,246,0,0,0,0,0,0,0,0,0,-1,1987,778,0,0
770,246,0,0,0,0,0,0,0,0,0,-1,1994,778,0,0
777,246,0,0,0,0,0,0,0,0,0,-1,2001,778,0,0
784,246,0,0,0,0,0,0,0,0,0,-1,2008,778,0,0
791,246,0,0,0,0,0,0,0,0,0,-1,2015,778,0,0
798,246,0,0,0,0,0,0,0,0,0,-1,2022,778,0,0
805,246,0,0,0,0,0,0,0,0,0,-1,2029,778,0,0
812,246,0,0,0,0,0,0,0,0,0,-1,2036,778,0,0
-700,239,0,0,0,0,0,0,0,0,0,-1,524,785,0,0
-693,239,0,0,0,0,0,0,0,0,0,-1,531,785,0,0
-686,239,0,0,0,0,0,0,0,0,0,-1,538,785,0,0
-679,239,0,0,0,0,0,0,0,0,0,-1,545,785,0,0
-672,239,0,0,0,0,0,0,0,0,0,-1,552,785,0,0
-665,239,0,0,0,0,0,0,0,0,0,-1,559,785,0,0
-658,239,0,0,0,0,0,0,0,0,0,-1,566,785,0,0
-651,239,0,0,0,0,0,0,0,0,0,-1,573,785,0,0
-644,239,0,0,0,0,0,0,0,0,0,-1,580,785,0,0
-637,239,-23.2709,0.465088,0,0,0,0,0,0,0,-1,587,785,-23.271,-0.465116
-630,239,-23.4006,0.956299,0,0,0,0,0,0,0,-1,594,785,-23.4005,-0.956285
-623,239,-30.6328,2.52185,0,0,0,0,0,0,0,-1,601,785,-30.6328,-2.52183
-616,239,-29.1425,1.42139,0,0,0,0,0,0,0,-1,608,785,-29.1425,-1.42139
-609,239,-52.9622,11.0265,0,0,0,0,0,0,0,-1,615,785,-52.9622,-11.0265
-602,239,-60.6862,12.3326,0,0,0,0,0,0,0,-1,622,785,-60.6862,-12.3326
-595,239,-101.804,19.7628,0,0,0,0,0,0,0,-1,629,785,-101.804,-19.7628
-588,239,-158.819,27.7204,0,0,0,0,0,0,0,-1,636,785,-158.819,-27.7204
-581,239,-159.175,25.4528,-0.00491212,0.0436883,0.0223465,0.0524012,-0.013625,1.19903,0.040252,0.0246647,643,785,-159.175,-25.4528
-574,239,-159.551,23.1557,-0.00417293,0.0381057,0.0195778,0.0457789,-0.0118461,1.19726,0.03514,0.0186325,650,785,-159.551,-23.1557
-567,239,-159.821,20.9106,-0.00387321,0.0331124,0.0165639,0.0394459,-0.0102067,1.20558,0.0302785,0.0209593,657,785,-159.821,-20.9106
-560,239,-160.215,18.7214,-0.00405474,0.0285955,0.0133024,0.0333289,-0.0087882,1.22893,0.0256554,0.0205021,664,785,-160.215,-18.7214
-553,239,-160.704,16.4381,-0.00473745,0.024467,0.00982764,0.0274661,-0.00773658,1.2746,0.0213618,0.0294272,671,785,-160.704,-16.4381
-546,239,-161.212,13.9371,-0.00601943,0.02072,0.00619115,0.0220839,-0.00738333,1.35396,0.0177046,0.042062,678,785,-161.212,-13.9371
-539,239,-161.494,11.337,-0.00807014,0.0173638,0.00245266,0.0175981,-0.00830449,1.47553,0.0152724,0.0423915,685,785,-161.494,-11.337
-532,239,-162.179,8.77887,-0.0108765,0.0144518,-0.00146848,0.0145366,-0.0109614,-1.51308,0.0147694,0.0382572,692,785,-162.179,-8.77889
-525,239,-162.828,6.1579,0,0,0,0,0,0,0,-1,699,785,-162.828,-6.1579
-518,239,-40.5128,-6.22827,0,0,0,0,0,0,0,-1,706,785,-40.5128,6.22828
-511,239,-20.9849,-2.09235,0,0,0,0,0,0,0,-1,713,785,-20.9848,2.09234
-504,239,-25.5015,2.00421,0,0,0,0,0,0,0,-1,720,785,-25.5015,-2.00422
-497,239,-40.2453,1.4447,0,0,0,0,0,0,0,-1,727,785,-40.2453,-1.4447
-490,239,-55.7633,-0.30426,0,0,0,0,0,0,0,-1,734,785,-55.7633,0.304271
-483,239,-71.5136,0.470825,0,0,0,0,0,0,0,-1,741,785,-71.5136,-0.470807
-476,239,-71.3347,0.550476,0,0,0,0,0,0,0,-1,748,785,-71.3347,-0.550462
-469,239,-71.1616,0.772156,0,0,0,0,0,0,0,-1,755,785,-71.1616,-0.772161
-462,239,-71.1605,0.909424,0,0,0,0,0,0,0,-1,762,785,-71.1605,-0.909427
-455,239,0,0,0,0,0,0,0,0,0,-1,769,785,0,0
-448,239,0,0,0,0,0,0,0,0,0,-1,776,785,0,0
-441,239,0,0,0,0,0,0,0,0,0,-1,783,785,0,0
-434,239,0,0,0,0,0,0,0,0,0,-1,790,785,0,0
-427,239,0,0,0,0,0,0,0,0,0,-1,797,785,0,0
-420,239,0,0,0,0,0,0,0,0,0,-1,804,785,0,0
-413,239,0,0,0,0,0,0,0,0,0,-1,811,785,0,0
-406,239,0,0,0,0,0,0,0,0,0,-1,818,785,0,0
-399,239,0,0,0,0,0,0,0,0,0,-1,825,785,0,0
-392,239,0,0,0,0,0,0,0,0,0,-1,832,785,0,0
-385,239,0,0,0,0,0,0,0,0,0,-1,839,785,0,0
-378,239,0,0,0,0,0,0,0,0,0,-1,846,785,0,0
-371,239,0,0,0,0,0,0,0,0,0,-1,853,785,0,0
-364,239,0,0,0,0,0,0,0,0,0,-1,860,785,0,0
-357,239,0,0,0,0,0,0,0,0,0,-1,867,785,0,0
-350,239,0,0,0,0,0,0,0,0,0,-1,874,785,0,0
-343,239,0,0,0,0,0,0,0,0,0,-1,881,785,0,0
-336,239,0,0,0,0,0,0,0,0,0,-1,888,785,0,0
-329,239,0,0,0,0,0,0,0,0,0,-1,895,785,0,0
-322,239,0,0,0,0,0,0,0,0,0,-1,902,785,0,0
-315,239,0,0,0,0,0,0,0,0,0,-1,909,785,0,0
-308,239,0,0,0,0,0,0,0,0,0,-1,916,785,0,0
-301,239,0,0,0,0,0,0,0,0,0,-1,923,785,0,0
-294,239,0,0,0,0,0,0,0,0,0,-1,930,785,0,0
-287,239,0,0,0,0,0,0,0,0,0,-1,937,785,0,0
-280,239,0,0,0,0,0,0,0,0,0,-1,944,785,0,0
-273,239,0,0,0,0,0,0,0,0,0,-1,951,785,0,0
-266,239,0,0,0,0,0,0,0,0,0,-1,958,785,0,0
-259,239,0,0,0,0,0,0,0,0,0,-1,965,785,0,0
-252,239,0,0,0,0,0,0,0,0,0,-1,972,785,0,0
-245,239,0,0,0,0,0,0,0,0,0,-1,979,785,0,0
-238,239,0,0,0,0,0,0,0,0,0,-1,986,785,0,0
-231,239,0,0,0,0,0,0,0,0,0,-1,993,785,0,0
-224,239,0,0,0,0,0,0,0,0,0,-1,1000,785,0,0
-217,239,0,0,0,0,0,0,0,0,0,-1,1007,785,0,0
-210,239,0,0,0,0,0,0,0,0,0,-1,1014,785,0,0
-203,239,0,0,0,0,0,0,0,0,0,-1,1021,785,0,0
-196,239,0,0,0,0,0,0,0,0,0,-1,1028,785,0,0
-189,239,0,0,0,0,0,0,0,0,0,-1,1035,785,0,0
-182,239,0,0,0,0,0,0,0,0,0,-1,1042,785,0,0
-175,239,0,0,0,0,0,0,0,0,0,-1,1049,785,0,0
-168,239,0,0,0,0,0,0,0,0,0,-1,1056,785,0,0
-161,239,0,0,0,0,0,0,0,0,0,-1,1063,785,0,0
-154,239,0,0,0,0,0,0,0,0,0,-1,1070,785,0,0
-147,239,0,0,0,0,0,0,0,0,0,-1,1077,785,0,0
-140,239,0,0,0,0,0,0,0,0,0,-1,1084,785,0,0
-133,239,0,0,0,0,0,0,0,0,0,-1,1091,785,0,0
-126,239,0,0,0,0,0,0,0,0,0,-1,1098,785,0,0
-119,239,0,0,0,0,0,0,0,0,0,-1,1105,785,0,0
-112,239,0,0,0,0,0,0,0,0,0,-1,1112,785,0,0
-105,239,0,0,0,0,0,0,0,0,0,-1,1119,785,0,0
-98,239,0,0,0,0,0,0,0,0,0,-1,1126,785,0,0
-91,239,0,0,0,0,0,0,0,0,0,-1,1133,785,0,0
-84,239,0,0,0,0,0,0,0,0,0,-1,1140,785,0,0
-77,239,0,0,0,0,0,0,0,0,0,-1,1147,785,0,0
-70,239,0,0,0,0,0,0,0,0,0,-1,1154,785,0,0
-63,239,0,0,0,0,0,0,0,0,0,-1,1161,785,0,0
-56,239,0,0,0,0,0,0,0,0,0,-1,1168,785,0,0
-49,239,0,0,0,0,0,0,0,0,0,-1,1175,785,0,0
-42,239,0,0,0,0,0,0,0,0,0,-1,1182,785,0,0
-35,239,0,0,0,0,0,0,0,0,0,-1,1189,785,0,0
-28,239,0,0,0,0,0,0,0,0,0,-1,1196,785,0,0
-21,239,0,0,0,0,0,0,0,0,0,-1,1203,785,0,0
-14,239,0,0,0,0,0,0,0,0,0,-1,1210,785,0,0
-7,239,0,0,0,0,0,0,0,0,0,-1,1217,785,0,0
0,239,0,0,0,0,0,0,0,0,0,-1,1224,785,0,0
7,239,0,0,0,0,0,0,0,0,0,-1,1231,785,0,0
14,239,0,0,0,0,0,0,0,0,0,-1,1238,785,0,0
21,239,0,0,0,0,0,0,0,0,0,-1,1245,785,0,0
28,239,0,0,0,0,0,0,0,0,0,-1,1252,785,0,0
35,239,0,0,0,0,0,0,0,0,0,-1,1259,785,0,0
42,239,0,0,0,0,0,0,0,0,0,-1,1266,785,0,0
49,239,0,0,0,0,0,0,0,0,0,-1,1273,785,0,0
56,239,0,0,0,0,0,0,0,0,0,-1,1280,785,0,0
63,239,0,0,0,0,0,0,0,0,0,-1,1287,785,0,0
70,239,0,0,0,0,0,0,0,0,0,-1,1294,785,0,0
77,239,0,0,0,0,0,0,0,0,0,-1,1301,785,0,0
84,239,0,0,0,0,0,0,0,0,0,-1,1308,785,0,0
91,239,0,0,0,0,0,0,0,0,0,-1,1315,785,0,0
98,239,0,0,0,0,0,0,0,0,0,-1,1322,785,0,0
105,239,0,0,0,0,0,0,0,0,0,-1,1329,785,0,0
112,239,0,0,0,0,0,0,0,0,0,-1,1336,785,0,0
119,239,0,0,0,0,0,0,0,0,0,-1,1343,785,0,0
126,239,0,0,0,0,0,0,0,0,0,-1,1350,785,0,0
133,239,0,0,0,0,0,0,0,0,0,-1,1357,785,0,0
140,239,0,0,0,0,0,0,0,0,0,-1,1364,785,0,0
147,239,0,0,0,0,0,0,0,0,0,-1,1371,785,0,0
154,239,0,0,0,0,0,0,0,0,0,-1,1378,785,0,0
161,239,0,0,0,0,0,0,0,0,0,-1,1385,785,0,0
168,239,0,0,0,0,0,0,0,0,0,-1,1392,785,0,0
175,239,0,0,0,0,0,0,0,0,0,-1,1399,785,0,0
182,239,0,0,0,0,0,0,0,0,0,-1,1406,785,0,0
189,239,0,0,0,0,0,0,0,0,0,-1,1413,785,0,0
196,239,0,0,0,0,0,0,0,0,0,-1,1420,785,0,0
203,239,0,0,0,0,0,0,0,0,0,-1,1427,785,0,0
210,239,0,0,0,0,0,0,0,0,0,-1,1434,785,0,0
217,239,0,0,0,0,0,0,0,0,0,-1,1441,785,0,0
224,239,0,0,0,0,0,0,0,0,0,-1,1448,785,0,0
231,239,0,0,0,0,0,0,0,0,0,-1,1455,785,0,0
238,239,0,0,0,0,0,0,0,0,0,-1,1462,785,0,0
245,239,0,0,0,0,0,0,0,0,0,-1,1469,785,0,0
252,239,0,0,0,0,0,0,0,0,0,-1,1476,785,0,0
259,239,0,0,0,0,0,0,0,0,0,-1,1483,785,0,0
266,239,0,0,0,0,0,0,0,0,0,-1,1490,785,0,0
273,239,0,0,0,0,0,0,0,0,0,-1,1497,785,0,0
280,239,0,0,0,0,0,0,0,0,0,-1,1504,785,0,0
287,239,0,0,0,0,0,0,0,0,0,-1,1511,785,0,0
294,239,0,0,0,0,0,0,0,0,0,-1,1518,785,0,0
301,239,0,0,0,0,0,0,0,0,0,-1,1525,785,0,0
308,239,0,0,0,0,0,0,0,0,0,-1,1532,785,0,0
315,239,0,0,0,0,0,0,0,0,0,-1,1539,785,0,0
322,239,0,0,0,0,0,0,0,0,0,-1,1546,785,0,0
329,239,0,0,0,0,0,0,0,0,0,-1,1553,785,0,0
336,239,0,0,0,0,0,0,0,0,0,-1,1560,785,0,0
343,239,0,0,0,0,0,0,0,0,0,-1,1567,785,0,0
350,239,0,0,0,0,0,0,0,0,0,-1,1574,785,0,0
357,239,0,0,0,0,0,0,0,0,0,-1,1581,785,0,0
364,239,0,0,0,0,0,0,0,0,0,-1,1588,785,0,0
371,239,0,0,0,0,0,0,0,0,0,-1,1595,785,0,0
378,239,0,0,0,0,0,0,0,0,0,-1,1602,785,0,0
385,239,0,0,0,0,0,0,0,0,0,-1,1609,785,0,0
392,239,0,0,0,0,0,0,0,0,0,-1,1616,785,0,0
399,239,0,0,0,0,0,0,0,0,0,-1,1623,785,0,0
406,239,0,0,0,0,0,0,0,0,0,-1,1630,785,0,0
413,239,0,0,0,0,0,0,0,0,0,-1,1637,785,0,0
420,239,0,0,0,0,0,0,0,0,0,-1,1644,785,0,0
427,239,0,0,0,0,0,0,0,0,0,-1,1651,785,0,0
434,239,0,0,0,0,0,0,0,0,0,-1,1658,785,0,0
441,239,0,0,0,0,0,0,0,0,0,-1,1665,785,0,0
448,239,0,0,0,0,0,0,0,0,0,-1,1672,785,0,0
455,239,0,0,0,0,0,0,0,0,0,-1,1679,785,0,0
462,239,0,0,0,0,0,0,0,0,0,-1,1686,785,0,0
469,239,0,0,0,0,0,0,0,0,0,-1,1693,785,0,0
476,239,0,0,0,0,0,0,0,0,0,-1,1700,785,0,0
483,239,0,0,0,0,0,0,0,0,0,-1,1707,785,0,0
490,239,0,0,0,0,0,0,0,0,0,-1,1714,785,0,0
497,239,0,0,0,0,0,0,0,0,0,-1,1721,785,0,0
504,239,0,0,0,0,0,0,0,0,0,-1,1728,785,0,0
511,239,0,0,0,0,0,0,0,0,0,-1,1735,785,0,0
518,239,0,0,0,0,0,0,0,0,0,-1,1742,785,0,0
525,239,0,0,0,0,0,0,0,0,0,-1,1749,785,0,0
532,239,0,0,0,0,0,0,0,0,0,-1,1756,785,0,0
539,239,0,0,0,0,0,0,0,0,0,-1,1763,785,0,0
546,239,0,0,0,0,0,0,0,0,0,-1,1770,785,0,0
553,239,0,0,0,0,0,0,0,0,0,-1,1777,785,0,0
560,239,0,0,0,0,0,0,0,0,0,-1,1784,785,0,0
567,239,0,0,0,0,0,0,0,0,0,-1,1791,785,0,0
574,239,0,0,0,0,0,0,0,0,0,-1,1798,785,0,0
581,239,215.334,8.8501,0,0,0,0,0,0,0,-1,1805,785,215.334,-8.85009
588,239,215.249,8.89734,0,0,0,0,0,0,0,-1,1812,785,215.249,-8.89731
595,239,215.368,8.80322,0,0,0,0,0,0,0,-1,1819,785,215.368,-8.80319
602,239,215.573,8.50671,0,0,0,0,0,0,0,-1,1826,785,215.573,-8.5067
609,239,100.036,2.43237,0,0,0,0,0,0,0,-1,1833,785,100.036,-2.43237
616,239,55.8469,3.72443,0,0,0,0,0,0,0,-1,1840,785,55.8469,-3.72445
623,239,65.0618,2.66516,0,0,0,0,0,0,0,-1,1847,785,65.0617,-2.66519
630,239,54.5767,3.64667,0,0,0,0,0,0,0,-1,1854,785,54.5766,-3.64667
637,239,39.5542,2.54114,0,0,0,0,0,0,0,-1,1861,785,39.5543,-2.54114
644,239,18.3466,0.735413,0,0,0,0,0,0,0,-1,1868,785,18.3465,-0.735414
651,239,34.2471,-2.15778,0,0,0,0,0,0,0,-1,1875,785,34.2471,2.1578
658,239,77.917,-5.03833,0,0,0,0,0,0,0,-1,1882,785,77.917,5.03835
665,239,79.9928,-3.56384,0,0,0,0,0,0,0,-1,1889,785,79.9928,3.56385
672,239,168.895,11.9018,0,0,0,0,0,0,0,-1,1896,785,168.895,-11.9018
679,239,170.416,14.2607,0,0,0,0,0,0,0,-1,1903,785,170.416,-14.2608
686,239,169.951,16.8174,0,0,0,0,0,0,0,-1,1910,785,169.951,-16.8175
693,239,169.606,19.1366,-0.00798334,0.0257199,-0.0157854,0.0319585,-0.0142219,-1.19443,0.0273099,0.0341604,1917,785,169.606,-19.1366
700,239,169.031,21.3462,-0.00719041,0.0308114,-0.0202089,0.0395492,-0.0159282,-1.1627,0.0329835,0.0219583,1924,785,169.03,-21.3462
707,239,168.515,23.4492,-0.00658157,0.03603,-0.0246752,0.0473249,-0.0178764,-1.14152,0.0389028,0.0179951,1931,785,168.515,-23.4492
714,239,168.112,25.5911,-0.00630803,0.0414061,-0.029274,0.0553131,-0.0202151,-1.1273,0.0451484,0.0220907,1938,785,168.112,-25.5911
721,239,167.64,27.6045,0,0,0,0,0,0,0,-1,1945,785,167.64,-27.6045
728,239,137.158,26.5078,0,0,0,0,0,0,0,-1,1952,785,137.158,-26.5077
735,239,77.1766,10.8863,0,0,0,0,0,0,0,-1,1959,785,77.1767,-10.8863
742,239,32.4141,7.6665,0,0,0,0,0,0,0,-1,1966,785,32.4141,-7.6665
749,239,32.1489,3.4411,0,0,0,0,0,0,0,-1,1973,785,32.149,-3.44109
756,239,32.9064,3.6687,0,0,0,0,0,0,0,-1,1980,785,32.9063,-3.66873
763,239,0,0,0,0,0,0,0,0,0,-1,1987,785,0,0
770,239,0,0,0,0,0,0,0,0,0,-1,1994,785,0,0
777,239,0,0,0,0,0,0,0,0,0,-1,2001,785,0,0
784,239,0,0,0,0,0,0,0,0,0,-1,2008,785,0,0
791,239,0,0,0,0,0,0,0,0,0,-1,2015,785,0,0
798,239,0,0,0,0,0,0,0,0,0,-1,2022,785,0,0
805,239,0,0,0,0,0,0,0,0,0,-1,2029,785,0,0
812,239,0,0,0,0,0,0,0,0,0,-1,2036,785,0,0
-700,232,0,0,0,0,0,0,0,0,0,-1,524,792,0,0
-693,232,0,0,0,0,0,0,0,0,0,-1,531,792,0,0
-686,232,0,0,0,0,0,0,0,0,0,-1,538,792,0,0
-679,232,0,0,0,0,0,0,0,0,0,-1,545,792,0,0
-672,232,0,0,0,0,0,0,0,0,0,-1,552,792,0,0
-665,232,0,0,0,0,0,0,0,0,0,-1,559,792,0,0
-658,232,0,0,0,0,0,0,0,0,0,-1,566,792,0,0
-651,232,0,0,0,0,0,0,0,0,0,-1,573,792,0,0
-644,232,-41.2348,4.28168,0,0,0,0,0,0,0,-1,580,792,-41.2348,-4.28166
-637,232,-42.1427,3.51453,0,0,0,0,0,0,0,-1,587,792,-42.1427,-3.51452
-630,232,-32.2345,1.80212,0,0,0,0,0,0,0,-1,594,792,-32.2345,-1.80211
-623,232,-31.5665,1.05115,0,0,0,0,0,0,0,-1,601,792,-31.5664,-1.05112
-616,232,-30.6812,0.432861,0,0,0,0,0,0,0,-1,608,792,-30.6812,-0.432881
-609,232,-100.422,23.6974,0,0,0,0,0,0,0,-1,615,792,-100.422,-23.6974
-602,232,-80.7242,16.2311,0,0,0,0,0,0,0,-1,622,792,-80.7242,-16.2311
-595,232,-161.294,30.2615,0,0,0,0,0,0,0,-1,629,792,-161.294,-30.2615
-588,232,-161.419,27.8867,-0.00781271,0.0487262,0.0221588,0.0563757,-0.0154623,1.23839,0.0436603,0.0320771,636,792,-161.419,-27.8867
-581,232,-161.728,25.5714,-0.00563467,0.0422002,0.0200891,0.0495176,-0.0129521,1.22149,0.0380707,0.0135203,643,792,-161.728,-25.5713
-574,232,-162.05,23.4625,-0.00457895,0.0364295,0.0174048,0.0428204,-0.0109699,1.21889,0.0328205,0.0121487,650,792,-162.05,-23.4625
-567,232,-162.447,21.257,-0.00395314,0.0312449,0.0144956,0.0364461,-0.00915429,1.2263,0.0278548,0.0144268,657,792,-162.447,-21.257
-560,232,-162.846,19.0661,-0.00385034,0.0266066,0.0113375,0.0303636,-0.00760725,1.25081,0.0231977,0.0182321,664,792,-162.846,-19.0661
-553,232,-163.372,16.8233,-0.00426705,0.0224392,0.00795744,0.0246305,-0.00645827,1.30209,0.0189437,0.0289961,671,792,-163.372,-16.8233
-546,232,-163.831,14.3495,0,0,0,0,0,0,0,-1,678,792,-163.831,-14.3495
-539,232,-164.094,11.557,0,0,0,0,0,0,0,-1,685,792,-164.094,-11.557
-532,232,-164.796,8.867,0,0,0,0,0,0,0,-1,692,792,-164.796,-8.86701
-525,232,-72.6752,-4.75323,0,0,0,0,0,0,0,-1,699,792,-72.6752,4.75324
-518,232,-20.8098,-3.08154,0,0,0,0,0,0,0,-1,706,792,-20.8098,3.08155
-511,232,-21.6708,-0.962708,0,0,0,0,0,0,0,-1,713,792,-21.6708,0.962731
-504,232,-34.2155,0.346985,0,0,0,0,0,0,0,-1,720,792,-34.2155,-0.346955
-497,232,-52.7195,0.518677,0,0,0,0,0,0,0,-1,727,792,-52.7195,-0.518678
-490,232,-71.4019,0.270386,0,0,0,0,0,0,0,-1,734,792,-71.4019,-0.270382
-483,232,-71.4127,0.497375,0,0,0,0,0,0,0,-1,741,792,-71.4127,-0.497367
-476,232,-71.2791,0.580017,0,0,0,0,0,0,0,-1,748,792,-71.2791,-0.580024
-469,232,-71.2144,0.716919,0,0,0,0,0,0,0,-1,755,792,-71.2143,-0.716921
-462,232,0,0,0,0,0,0,0,0,0,-1,762,792,0,0
-455,232,0,0,0,0,0,0,0,0,0,-1,769,792,0,0
-448,232,0,0,0,0,0,0,0,0,0,-1,776,792,0,0
-441,232,0,0,0,0,0,0,0,0,0,-1,783,792,0,0
-434,232,0,0,0,0,0,0,0,0,0,-1,790,792,0,0
-427,232,0,0,0,0,0,0,0,0,0,-1,797,792,0,0
-420,232,0,0,0,0,0,0,0,0,0,-1,804,792,0,0
-413,232,0,0,0,0,0,0,0,0,0,-1,811,792,0,0
-406,232,0,0,0,0,0,0,0,0,0,-1,818,792,0,0
-399,232,0,0,0,0,0,0,0,0,0,-1,825,792,0,0
-392,232,0,0,0,0,0,0,0,0,0,-1,832,792,0,0
-385,232,0,0,0,0,0,0,0,0,0,-1,839,792,0,0
-378,232,0,0,0,0,0,0,0,0,0,-1,846,792,0,0
-371,232,0,0,0,0,0,0,0,0,0,-1,853,792,0,0
-364,232,0,0,0,0,0,0,0,0,0,-1,860,792,0,0
-357,232,0,0,0,0,0,0,0,0,0,-1,867,792,0,0
-350,232,0,0,0,0,0,0,0,0,0,-1,874,792,0,0
-343,232,0,0,0,0,0,0,0,0,0,-1,881,792,0,0
-336,232,0,0,0,0,0,0,0,0,0,-1,888,792,0,0
-329,232,0,0,0,0,0,0,0,0,0,-1,895,792,0,0
-322,232,0,0,0,0,0,0,0,0,0,-1,902,792,0,0
-315,232,0,0,0,0,0,0,0,0,0,-1,909,792,0,0
-308,232,0,0,0,0,0,0,0,0,0,-1,916,792,0,0
-301,232,0,0,0,0,0,0,0,0,0,-1,923,792,0,0
-294,232,0,0,0,0,0,0,0,0,0,-1,930,792,0,0
-287,232,0,0,0,0,0,0,0,0,0,-1,937,792,0,0
-280,232,0,0,0,0,0,0,0,0,0,-1,944,792,0,0
-273,232,0,0,0,0,0,0,0,0,0,-1,951,792,0,0
-266,232,0,0,0,0,0,0,0,0,0,-1,958,792,0,0
-259,232,0,0,0,0,0,0,0,0,0,-1,965,792,0,0
-252,232,0,0,0,0,0,0,0,0,0,-1,972,792,0,0
-245,232,0,0,0,0,0,0,0,0,0,-1,979,792,0,0
-238,232,0,0,0,0,0,0,0,0,0,-1,986,792,0,0
-231,232,0,0,0,0,0,0,0,0,0,-1,993,792,0,0
-224,232,0,0,0,0,0,0,0,0,0,-1,1000,792,0,0
-217,232,0,0,0,0,0,0,0,0,0,-1,1007,792,0,0
-210,232,0,0,0,0,0,0,0,0,0,-1,1014,792,0,0
-203,232,0,0,0,0,0,0,0,0,0,-1,1021,792,0,0
-196,232,0,0,0,0,0,0,0,0,0,-1,1028,792,0,0
-189,232,0,0,0,0,0,0,0,0,0,-1,1035,792,0,0
-182,232,0,0,0,0,0,0,0,0,0,-1,1042,792,0,0
-175,232,0,0,0,0,0,0,0,0,0,-1,1049,792,0,0
-168,232,0,0,0,0,0,0,0,0,0,-1,1056,792,0,0
-161,232,0,0,0,0,0,0,0,0,0,-1,1063,792,0,0
-154,232,0,0,0,0,0,0,0,0,0,-1,1070,792,0,0
-147,232,0,0,0,0,0,0,0,0,0,-1,1077,792,0,0
-140,232,0,0,0,0,0,0,0,0,0,-1,1084,792,0,0
-133,232,0,0,0,0,0,0,0,0,0,-1,1091,792,0,0
-126,232,0,0,0,0,0,0,0,0,0,-1,1098,792,0,0
-119,232,0,0,0,0,0,0,0,0,0,-1,1105,792,0,0
-112,232,0,0,0,0,0,0,0,0,0,-1,1112,792,0,0
-105,232,0,0,0,0,0,0,0,0,0,-1,1119,792,0,0
-98,232,0,0,0,0,0,0,0,0,0,-1,1126,792,0,0
-91,232,0,0,0,0,0,0,0,0,0,-1,1133,792,0,0
-84,232,0,0,0,0,0,0,0,0,0,-1,1140,792,0,0
-77,232,0,0,0,0,0,0,0,0,0,-1,1147,792,0,0
-70,232,0,0,0,0,0,0,0,0,0,-1,1154,792,0,0
-63,232,0,0,0,0,0,0,0,0,0,-1,1161,792,0,0
-56,232,0,0,0,0,0,0,0,0,0,-1,1168,792,0,0
-49,232,0,0,0,0,0,0,0,0,0,-1,1175,792,0,0
-42,232,0,0,0,0,0,0,0,0,0,-1,1182,792,0,0
-35,232,0,0,0,0,0,0,0,0,0,-1,1189,792,0,0
-28,232,0,0,0,0,0,0,0,0,0,-1,1196,792,0,0
-21,232,0,0,0,0,0,0,0,0,0,-1,1203,792,0,0
-14,232,0,0,0,0,0,0,0,0,0,-1,1210,792,0,0
-7,232,0,0,0,0,0,0,0,0,0,-1,1217,792,0,0
0,232,0,0,0,0,0,0,0,0,0,-1,1224,792,0,0
7,232,0,0,0,0,0,0,0,0,0,-1,1231,792,0,0
14,232,0,0,0,0,0,0,0,0,0,-1,1238,792,0,0
21,232,0,0,0,0,0,0,0,0,0,-1,1245,792,0,0
28,232,0,0,0,0,0,0,0,0,0,-1,1252,792,0,0
35,232,0,0,0,0,0,0,0,0,0,-1,1259,792,0,0
42,232,0,0,0,0,0,0,0,0,0,-1,1266,792,0,0
49,232,0,0,0,0,0,0,0,0,0,-1,1273,792,0,0
56,232,0,0,0,0,0,0,0,0,0,-1,1280,792,0,0
63,232,0,0,0,0,0,0,0,0,0,-1,1287,792,0,0
70,232,0,0,0,0,0,0,0,0,0,-1,1294,792,0,0
77,232,0,0,0,0,0,0,0,0,0,-1,1301,792,0,0
84,232,0,0,0,0,0,0,0,0,0,-1,1308,792,0,0
91,232,0,0,0,0,0,0,0,0,0,-1,1315,792,0,0
98,232,0,0,0,0,0,0,0,0,0,-1,1322,792,0,0
105,232,0,0,0,0,0,0,0,0,0,-1,1329,792,0,0
112,232,0,0,0,0,0,0,0,0,0,-1,1336,792,0,0
119,232,0,0,0,0,0,0,0,0,0,-1,1343,792,0,0
126,232,0,0,0,0,0,0,0,0,0,-1,1350,792,0,0
133,232,0,0,0,0,0,0,0,0,0,-1,1357,792,0,0
140,232,0,0,0,0,0,0,0,0,0,-1,1364,792,0,0
147,232,0,0,0,0,0,0,0,0,0,-1,1371,792,0,0
154,232,0,0,0,0,0,0,0,0,0,-1,1378,792,0,0
161,232,0,0,0,0,0,0,0,0,0,-1,1385,792,0,0
168,232,0,0,0,0,0,0,0,0,0,-1,1392,792,0,0
175,232,0,0,0,0,0,0,0,0,0,-1,1399,792,0,0
182,232,0,0,0,0,0,0,0,0,0,-1,1406,792,0,0
189,232,0,0,0,0,0,0,0,0,0,-1,1413,792,0,0
196,232,0,0,0,0,0,0,0,0,0,-1,1420,792,0,0
203,232,0,0,0,0,0,0,0,0,0,-1,1427,792,0,0
210,232,0,0,0,0,0,0,0,0,0,-1,1434,792,0,0
217,232,0,0,0,0,0,0,0,0,0,-1,1441,792,0,0
224,232,0,0,0,0,0,0,0,0,0,-1,1448,792,0,0
231,232,0,0,0,0,0,0,0,0,0,-1,1455,792,0,0
238,232,0,0,0,0,0,0,0,0,0,-1,1462,792,0,0
245,232,0,0,0,0,0,0,0,0,0,-1,1469,792,0,0
252,232,0,0,0,0,0,0,0,0,0,-1,1476,792,0,0
259,232,0,0,0,0,0,0,0,0,0,-1,1483,792,0,0
266,232,0,0,0,0,0,0,0,0,0,-1,1490,792,0,0
273,232,0,0,0,0,0,0,0,0,0,-1,1497,792,0,0
280,232,0,0,0,0,0,0,0,0,0,-1,1504,792,0,0
287,232,0,0,0,0,0,0,0,0,0,-1,1511,792,0,0
294,232,0,0,0,0,0,0,0,0,0,-1,1518,792,0,0
301,232,0,0,0,0,0,0,0,0,0,-1,1525,792,0,0
308,232,0,0,0,0,0,0,0,0,0,-1,1532,792,0,0
315,232,0,0,0,0,0,0,0,0,0,-1,1539,792,0,0
322,232,0,0,0,0,0,0,0,0,0,-1,1546,792,0,0
329,232,0,0,0,0,0,0,0,0,0,-1,1553,792,0,0
336,232,0,0,0,0,0,0,0,0,0,-1,1560,792,0,0
343,232,0,0,0,0,0,0,0,0,0,-1,1567,792,0,0
350,232,0,0,0,0,0,0,0,0,0,-1,1574,792,0,0
357,232,0,0,0,0,0,0,0,0,0,-1,1581,792,0,0
364,232,0,0,0,0,0,0,0,0,0,-1,1588,792,0,0
371,232,0,0,0,0,0,0,0,0,0,-1,1595,792,0,0
378,232,0,0,0,0,0,0,0,0,0,-1,1602,792,0,0
385,232,0,0,0,0,0,0,0,0,0,-1,1609,792,0,0
392,232,0,0,0,0,0,0,0,0,0,-1,1616,792,0,0
399,232,0,0,0,0,0,0,0,0,0,-1,1623,792,0,0
406,232,0,0,0,0,0,0,0,0,0,-1,1630,792,0,0
413,232,0,0,0,0,0,0,0,0,0,-1,1637,792,0,0
420,232,0,0,0,0,0,0,0,0,0,-1,1644,792,0,0
427,232,0,0,0,0,0,0,0,0,0,-1,1651,792,0,0
434,232,0,0,0,0,0,0,0,0,0,-1,1658,792,0,0
441,232,0,0,0,0,0,0,0,0,0,-1,1665,792,0,0
448,232,0,0,0,0,0,0,0,0,0,-1,1672,792,0,0
455,232,0,0,0,0,0,0,0,0,0,-1,1679,792,0,0
462,232,0,0,0,0,0,0,0,0,0,-1,1686,792,0,0
469,232,0,0,0,0,0,0,0,0,0,-1,1693,792,0,0
476,232,0,0,0,0,0,0,0,0,0,-1,1700,792,0,0
483,232,0,0,0,0,0,0,0,0,0,-1,1707,792,0,0
490,232,0,0,0,0,0,0,0,0,0,-1,1714,792,0,0
497,232,0,0,0,0,0,0,0,0,0,-1,1721,792,0,0
504,232,0,0,0,0,0,0,0,0,0,-1,1728,792,0,0
511,232,0,0,0,0,0,0,0,0,0,-1,1735,792,0,0
518,232,0,0,0,0,0,0,0,0,0,-1,1742,792,0,0
525,232,0,0,0,0,0,0,0,0,0,-1,1749,792,0,0
532,232,0,0,0,0,0,0,0,0,0,-1,1756,792,0,0
539,232,0,0,0,0,0,0,0,0,0,-1,1763,792,0,0
546,232,0,0,0,0,0,0,0,0,0,-1,1770,792,0,0
553,232,0,0,0,0,0,0,0,0,0,-1,1777,792,0,0
560,232,0,0,0,0,0,0,0,0,0,-1,1784,792,0,0
567,232,0,0,0,0,0,0,0,0,0,-1,1791,792,0,0
574,232,0,0,0,0,0,0,0,0,0,-1,1798,792,0,0
581,232,0,0,0,0,0,0,0,0,0,-1,1805,792,0,0
588,232,215.298,8.92676,0,0,0,0,0,0,0,-1,1812,792,215.299,-8.92673
595,232,215.322,8.89264,0,0,0,0,0,0,0,-1,1819,792,215.322,-8.89261
602,232,215.274,8.75256,0,0,0,0,0,0,0,-1,1826,792,215.274,-8.75254
609,232,215.348,8.70294,0,0,0,0,0,0,0,-1,1833,792,215.348,-8.70295
616,232,95.6742,2.46368,0,0,0,0,0,0,0,-1,1840,792,95.6742,-2.46369
623,232,74.9668,2.53278,0,0,0,0,0,0,0,-1,1847,792,74.9667,-2.5328
630,232,64.9034,2.97992,0,0,0,0,0,0,0,-1,1854,792,64.9035,-2.9799
637,232,47.0471,4.04309,0,0,0,0,0,0,0,-1,1861,792,47.0471,-4.04309
644,232,30.7756,4.24139,0,0,0,0,0,0,0,-1,1868,792,30.7757,-4.24141
651,232,31.6797,-0.564087,0,0,0,0,0,0,0,-1,1875,792,31.6797,0.564059
658,232,79.729,-4.87579,0,0,0,0,0,0,0,-1,1882,792,79.729,4.87581
665,232,79.3129,-3.47662,0,0,0,0,0,0,0,-1,1889,792,79.3128,3.47662
672,232,172.569,12.8215,0,0,0,0,0,0,0,-1,1896,792,172.569,-12.8215
679,232,172.498,15.0521,0,0,0,0,0,0,0,-1,1903,792,172.497,-15.0521
686,232,172.466,17.2547,0,0,0,0,0,0,0,-1,1910,792,172.466,-17.2547
693,232,171.954,19.4515,-0.00791188,0.0233268,-0.0135234,0.0283677,-0.0129528,-1.21399,0.0244035,0.02423,1917,792,171.954,-19.4516
700,232,171.503,21.6282,-0.0078244,0.02846,-0.0180901,0.0359379,-0.0153023,-1.17882,0.0303727,0.0215148,1924,792,171.503,-21.6282
707,232,171.126,23.708,-0.00805552,0.0336963,-0.0226625,0.0436326,-0.0179918,-1.15759,0.036591,0.0221765,1931,792,171.126,-23.708
714,232,170.637,25.8012,-0.00864327,0.0390343,-0.0272551,0.051405,-0.021014,-1.14472,0.0430208,0.0307952,1938,792,170.637,-25.8012
721,232,170.096,27.6714,-0.00963107,0.0444273,-0.0318405,0.0591641,-0.0243678,-1.13732,0.0496023,0.0489049,1945,792,170.096,-27.6715
728,232,169.748,29.6055,0,0,0,0,0,0,0,-1,1952,792,169.748,-29.6055
735,232,75.9558,10.0535,0,0,0,0,0,0,0,-1,1959,792,75.9558,-10.0535
742,232,25.6461,6.00684,0,0,0,0,0,0,0,-1,1966,792,25.6461,-6.00684
749,232,31.2874,3.74713,0,0,0,0,0,0,0,-1,1973,792,31.2874,-3.74713
756,232,34.9586,15.3984,0,0,0,0,0,0,0,-1,1980,792,34.9586,-15.3984
763,232,35.741,16.6099,0,0,0,0,0,0,0,-1,1987,792,35.741,-16.6099
770,232,0,0,0,0,0,0,0,0,0,-1,1994,792,0,0
777,232,0,0,0,0,0,0,0,0,0,-1,2001,792,0,0
784,232,0,0,0,0,0,0,0,0,0,-1,2008,792,0,0
791,232,0,0,0,0,0,0,0,0,0,-1,2015,792,0,0
798,232,0,0,0,0,0,0,0,0,0,-1,2022,792,0,0
805,232,0,0,0,0,0,0,0,0,0,-1,2029,792,0,0
812,232,0,0,0,0,0,0,0,0,0,-1,2036,792,0,0
-700,225,0,0,0,0,0,0,0,0,0,-1,524,799,0,0
-693,225,0,0,0,0,0,0,0,0,0,-1,531,799,0,0
-686,225,0,0,0,0,0,0,0,0,0,-1,538,799,0,0
-679,225,0,0,0,0,0,0,0,0,0,-1,545,799,0,0
-672,225,0,0,0,0,0,0,0,0,0,-1,552,799,0,0
-665,225,0,0,0,0,0,0,0,0,0,-1,559,799,0,0
-658,225,0,0,0,0,0,0,0,0,0,-1,566,799,0,0
-651,225,0,0,0,0,0,0,0,0,0,-1,573,799,0,0
-644,225,-40.8898,4.14661,0,0,0,0,0,0,0,-1,580,799,-40.8898,-4.14661
-637,225,-41.61,3.36749,0,0,0,0,0,0,0,-1,587,799,-41.61,-3.36751
-630,225,-30.244,4.82196,0,0,0,0,0,0,0,-1,594,799,-30.244,-4.82193
-623,225,-32.8276,-0.00836182,0,0,0,0,0,0,0,-1,601,799,-32.8276,0.00837668
-616,225,-101.933,24.8918,0,0,0,0,0,0,0,-1,608,799,-101.933,-24.8918
-609,225,-126.364,27.8994,0,0,0,0,0,0,0,-1,615,799,-126.364,-27.8994
-602,225,-130.831,27.6741,0,0,0,0,0,0,0,-1,622,799,-130.831,-27.6741
-595,225,-163.696,30.1556,0,0,0,0,0,0,0,-1,629,799,-163.696,-30.1556
-588,225,-163.872,27.8672,-0.00816722,0.0470511,0.0205036,0.0538319,-0.014948,1.25141,0.0417718,0.024486,636,799,-163.872,-27.8672
-581,225,-164.179,25.775,-0.005984,0.0404633,0.0183083,0.0468121,-0.0123328,1.237,0.0360296,0.0147391,643,799,-164.179,-25.775
-574,225,-164.54,23.7285,-0.00459551,0.0345713,0.0157201,0.0401003,-0.0101245,1.2326,0.0306705,0.0121913,650,799,-164.54,-23.7285
-567,225,-164.955,21.5354,-0.00358038,0.0292416,0.012938,0.0337283,-0.00806703,1.23699,0.0256018,0.015868,657,799,-164.955,-21.5354
-560,225,-165.282,19.3464,-0.00303578,0.0244716,0.00990635,0.0276678,-0.00623201,1.2587,0.0208356,0.0162925,664,799,-165.282,-19.3464
-553,225,-165.674,17.1598,-0.00301654,0.0202872,0.00663479,0.0220438,-0.00477312,1.31198,0.0165184,0.0218935,671,799,-165.674,-17.1598
-546,225,-165.986,15.0597,0,0,0,0,0,0,0,-1,678,799,-165.986,-15.0597
-539,225,-63.7479,-1.78418,0,0,0,0,0,0,0,-1,685,799,-63.7479,1.78418
-532,225,-73.9179,-3.04211,0,0,0,0,0,0,0,-1,692,799,-73.9179,3.04213
-525,225,-29.1705,-3.88239,0,0,0,0,0,0,0,-1,699,799,-29.1705,3.88237
-518,225,-21.963,0.171326,0,0,0,0,0,0,0,-1,706,799,-21.9629,-0.171319
-511,225,-33.0002,0.660217,0,0,0,0,0,0,0,-1,713,799,-33.0002,-0.660239
-504,225,-50.4542,0.524109,0,0,0,0,0,0,0,-1,720,799,-50.4542,-0.524105
-497,225,-71.3785,0.302002,0,0,0,0,0,0,0,-1,727,799,-71.3785,-0.302022
-490,225,-71.3395,0.410217,0,0,0,0,0,0,0,-1,734,799,-71.3395,-0.410223
-483,225,-71.3074,0.58075,0,0,0,0,0,0,0,-1,741,799,-71.3074,-0.580749
-476,225,-71.2732,0.59375,0,0,0,0,0,0,0,-1,748,799,-71.2732,-0.593749
-469,225,-71.2862,0.688171,0,0,0,0,0,0,0,-1,755,799,-71.2862,-0.688153
-462,225,0,0,0,0,0,0,0,0,0,-1,762,799,0,0
-455,225,0,0,0,0,0,0,0,0,0,-1,769,799,0,0
-448,225,0,0,0,0,0,0,0,0,0,-1,776,799,0,0
-441,225,0,0,0,0,0,0,0,0,0,-1,783,799,0,0
-434,225,0,0,0,0,0,0,0,0,0,-1,790,799,0,0
-427,225,0,0,0,0,0,0,0,0,0,-1,797,799,0,0
-420,225,0,0,0,0,0,0,0,0,0,-1,804,799,0,0
-413,225,0,0,0,0,0,0,0,0,0,-1,811,799,0,0
-406,225,0,0,0,0,0,0,0,0,0,-1,818,799,0,0
-399,225,0,0,0,0,0,0,0,0,0,-1,825,799,0,0
-392,225,0,0,0,0,0,0,0,0,0,-1,832,799,0,0
-385,225,0,0,0,0,0,0,0,0,0,-1,839,799,0,0
-378,225,0,0,0,0,0,0,0,0,0,-1,846,799,0,0
-371,225,0,0,0,0,0,0,0,0,0,-1,853,799,0,0
-364,225,0,0,0,0,0,0,0,0,0,-1,860,799,0,0
-357,225,0,0,0,0,0,0,0,0,0,-1,867,799,0,0
-350,225,0,0,0,0,0,0,0,0,0,-1,874,799,0,0
-343,225,0,0,0,0,0,0,0,0,0,-1,881,799,0,0
-336,225,0,0,0,0,0,0,0,0,0,-1,888,799,0,0
-329,225,0,0,0,0,0,0,0,0,0,-1,895,799,0,0
-322,225,0,0,0,0,0,0,0,0,0,-1,902,799,0,0
-315,225,0,0,0,0,0,0,0,0,0,-1,909,799,0,0
-308,225,0,0,0,0,0,0,0,0,0,-1,916,799,0,0
-301,225,0,0,0,0,0,0,0,0,0,-1,923,799,0,0
-294,225,0,0,0,0,0,0,0,0,0,-1,930,799,0,0
-287,225,0,0,0,0,0,0,0,0,0,-1,937,799,0,0
-280,225,0,0,0,0,0,0,0,0,0,-1,944,799,0,0
-273,225,0,0,0,0,0,0,0,0,0,-1,951,799,0,0
-266,225,0,0,0,0,0,0,0,0,0,-1,958,799,0,0
-259,225,0,0,0,0,0,0,0,0,0,-1,965,799,0,0
-252,225,0,0,0,0,0,0,0,0,0,-1,972,799,0,0
-245,225,0,0,0,0,0,0,0,0,0,-1,979,799,0,0
-238,225,0,0,0,0,0,0,0,0,0,-1,986,799,0,0
-231,225,0,0,0,0,0,0,0,0,0,-1,993,799,0,0
-224,225,0,0,0,0,0,0,0,0,0,-1,1000,799,0,0
-217,225,0,0,0,0,0,0,0,0,0,-1,1007,799,0,0
-210,225,0,0,0,0,0,0,0,0,0,-1,1014,799,0,0
-203,225,0,0,0,0,0,0,0,0,0,-1,1021,799,0,0
-196,225,0,0,0,0,0,0,0,0,0,-1,1028,799,0,0
-189,225,0,0,0,0,0,0,0,0,0,-1,1035,799,0,0
-182,225,0,0,0,0,0,0,0,0,0,-1,1042,799,0,0
-175,225,0,0,0,0,0,0,0,0,0,-1,1049,799,0,0
-168,225,0,0,0,0,0,0,0,0,0,-1,1056,799,0,0
-161,225,0,0,0,0,0,0,0,0,0,-1,1063,799,0,0
-154,225,0,0,0,0,0,0,0,0,0,-1,1070,799,0,0
-147,225,0,0,0,0,0,0,0,0,0,-1,1077,799,0,0
-140,225,0,0,0,0,0,0,0,0,0,-1,1084,799,0,0
-133,225,0,0,0,0,0,0,0,0,0,-1,1091,799,0,0
-126,225,0,0,0,0,0,0,0,0,0,-1,1098,799,0,0
-119,225,0,0,0,0,0,0,0,0,0,-1,1105,799,0,0
-112,225,0,0,0,0,0,0,0,0,0,-1,1112,799,0,0
-105,225,0,0,0,0,0,0,0,0,0,-1,1119,799,0,0
-98,225,0,0,0,0,0,0,0,0,0,-1,1126,799,0,0
-91,225,0,0,0,0,0,0,0,0,0,-1,1133,799,0,0
-84,225,0,0,0,0,0,0,0,0,0,-1,1140,799,0,0
-77,225,0,0,0,0,0,0,0,0,0,-1,1147,799,0,0
-70,225,0,0,0,0,0,0,0,0,0,-1,1154,799,0,0
-63,225,0,0,0,0,0,0,0,0,0,-1,1161,799,0,0
-56,225,0,0,0,0,0,0,0,0,0,-1,1168,799,0,0
-49,225,0,0,0,0,0,0,0,0,0,-1,1175,799,0,0
-42,225,0,0,0,0,0,0,0,0,0,-1,1182,799,0,0
-35,225,0,0,0,0,0,0,0,0,0,-1,1189,799,0,0
-28,225,0,0,0,0,0,0,0,0,0,-1,1196,799,0,0
-21,225,0,0,0,0,0,0,0,0,0,-1,1203,799,0,0
-14,225,0,0,0,0,0,0,0,0,0,-1,1210,799,0,0
-7,225,0,0,0,0,0,0,0,0,0,-1,1217,799,0,0
0,225,0,0,0,0,0,0,0,0,0,-1,1224,799,0,0
7,225,0,0,0,0,0,0,0,0,0,-1,1231,799,0,0
14,225,0,0,0,0,0,0,0,0,0,-1,1238,799,0,0
21,225,0,0,0,0,0,0,0,0,0,-1,1245,799,0,0
28,225,0,0,0,0,0,0,0,0,0,-1,1252,799,0,0
35,225,0,0,0,0,0,0,0,0,0,-1,1259,799,0,0
42,225,0,0,0,0,0,0,0,0,0,-1,1266,799,0,0
49,225,0,0,0,0,0,0,0,0,0,-1,1273,799,0,0
56,225,0,0,0,0,0,0,0,0,0,-1,1280,799,0,0
63,225,0,0,0,0,0,0,0,0,0,-1,1287,799,0,0
70,225,0,0,0,0,0,0,0,0,0,-1,1294,799,0,0
77,225,0,0,0,0,0,0,0,0,0,-1,1301,799,0,0
84,225,0,0,0,0,0,0,0,0,0,-1,1308,799,0,0
91,225,0,0,0,0,0,0,0,0,0,-1,1315,799,0,0
98,225,0,0,0,0,0,0,0,0,0,-1,1322,799,0,0
105,225,0,0,0,0,0,0,0,0,0,-1,1329,799,0,0
112,225,0,0,0,0,0,0,0,0,0,-1,1336,799,0,0
119,225,0,0,0,0,0,0,0,0,0,-1,1343,799,0,0
126,225,0,0,0,0,0,0,0,0,0,-1,1350,799,0,0
133,225,0,0,0,0,0,0,0,0,0,-1,1357,799,0,0
140,225,0,0,0,0,0,0,0,0,0,-1,1364,799,0,0
147,225,0,0,0,0,0,0,0,0,0,-1,1371,799,0,0
154,225,0,0,0,0,0,0,0,0,0,-1,1378,799,0,0
161,225,0,0,0,0,0,0,0,0,0,-1,1385,799,0,0
168,225,0,0,0,0,0,0,0,0,0,-1,1392,799,0,0
175,225,0,0,0,0,0,0,0,0,0,-1,1399,799,0,0
182,225,0,0,0,0,0,0,0,0,0,-1,1406,799,0,0
189,225,0,0,0,0,0,0,0,0,0,-1,1413,799,0,0
196,225,0,0,0,0,0,0,0,0,0,-1,1420,799,0,0
203,225,0,0,0,0,0,0,0,0,0,-1,1427,799,0,0
210,225,0,0,0,0,0,0,0,0,0,-1,1434,799,0,0
217,225,0,0,0,0,0,0,0,0,0,-1,1441,799,0,0
224,225,0,0,0,0,0,0,0,0,0,-1,1448,799,0,0
231,225,0,0,0,0,0,0,0,0,0,-1,1455,799,0,0
238,225,0,0,0,0,0,0,0,0,0,-1,1462,799,0,0
245,225,0,0,0,0,0,0,0,0,0,-1,1469,799,0,0
252,225,0,0,0,0,0,0,0,0,0,-1,1476,799,0,0
259,225,0,0,0,0,0,0,0,0,0,-1,1483,799,0,0
266,225,0,0,0,0,0,0,0,0,0,-1,1490,799,0,0
273,225,0,0,0,0,0,0,0,0,0,-1,1497,799,0,0
280,225,0,0,0,0,0,0,0,0,0,-1,1504,799,0,0
287,225,0,0,0,0,0,0,0,0,0,-1,1511,799,0,0
294,225,0,0,0,0,0,0,0,0,0,-1,1518,799,0,0
301,225,0,0,0,0,0,0,0,0,0,-1,1525,799,0,0
308,225,0,0,0,0,0,0,0,0,0,-1,1532,799,0,0
315,225,0,0,0,0,0,0,0,0,0,-1,1539,799,0,0
322,225,0,0,0,0,0,0,0,0,0,-1,1546,799,0,0
329,225,0,0,0,0,0,0,0,0,0,-1,1553,799,0,0
336,225,0,0,0,0,0,0,0,0,0,-1,1560,799,0,0
343,225,0,0,0,0,0,0,0,0,0,-1,1567,799,0,0
350,225,0,0,0,0,0,0,0,0,0,-1,1574,799,0,0
357,225,0,0,0,0,0,0,0,0,0,-1,1581,799,0,0
364,225,0,0,0,0,0,0,0,0,0,-1,1588,799,0,0
371,225,0,0,0,0,0,0,0,0,0,-1,1595,799,0,0
378,225,0,0,0,0,0,0,0,0,0,-1,1602,799,0,0
385,225,0,0,0,0,0,0,0,0,0,-1,1609,799,0,0
392,225,0,0,0,0,0,0,0,0,0,-1,1616,799,0,0
399,225,0,0,0,0,0,0,0,0,0,-1,1623,799,0,0
406,225,0,0,0,0,0,0,0,0,0,-1,1630,799,0,0
413,225,0,0,0,0,0,0,0,0,0,-1,1637,799,0,0
420,225,0,0,0,0,0,0,0,0,0,-1,1644,799,0,0
427,225,0,0,0,0,0,0,0,0,0,-1,1651,799,0,0
434,225,0,0,0,0,0,0,0,0,0,-1,1658,799,0,0
441,225,0,0,0,0,0,0,0,0,0,-1,1665,799,0,0
448,225,0,0,0,0,0,0,0,0,0,-1,1672,799,0,0
455,225,0,0,0,0,0,0,0,0,0,-1,1679,799,0,0
462,225,0,0,0,0,0,0,0,0,0,-1,1686,799,0,0
469,225,0,0,0,0,0,0,0,0,0,-1,1693,799,0,0
476,225,0,0,0,0,0,0,0,0,0,-1,1700,799,0,0
483,225,0,0,0,0,0,0,0,0,0,-1,1707,799,0,0
490,225,0,0,0,0,0,0,0,0,0,-1,1714,799,0,0
497,225,0,0,0,0,0,0,0,0,0,-1,1721,799,0,0
504,225,0,0,0,0,0,0,0,0,0,-1,1728,799,0,0
511,225,0,0,0,0,0,0,0,0,0,-1,1735,799,0,0
518,225,0,0,0,0,0,0,0,0,0,-1,1742,799,0,0
525,225,0,0,0,0,0,0,0,0,0,-1,1749,799,0,0
532,225,0,0,0,0,0,0,0,0,0,-1,1756,799,0,0
539,225,0,0,0,0,0,0,0,0,0,-1,1763,799,0,0
546,225,0,0,0,0,0,0,0,0,0,-1,1770,799,0,0
553,225,0,0,0,0,0,0,0,0,0,-1,1777,799,0,0
560,225,0,0,0,0,0,0,0,0,0,-1,1784,799,0,0
567,225,0,0,0,0,0,0,0,0,0,-1,1791,799,0,0
574,225,0,0,0,0,0,0,0,0,0,-1,1798,799,0,0
581,225,0,0,0,0,0,0,0,0,0,-1,1805,799,0,0
588,225,215.4,8.78546,0,0,0,0,0,0,0,-1,1812,799,215.4,-8.78543
595,225,215.343,8.703,0,0,0,0,0,0,0,-1,1819,799,215.342,-8.70302
602,225,215.278,8.60846,0,0,0,0,0,0,0,-1,1826,799,215.278,-8.60848
609,225,215.309,8.71564,0,0,0,0,0,0,0,-1,1833,799,215.309,-8.71562
616,225,215.366,8.58759,0,0,0,0,0,0,0,-1,1840,799,215.366,-8.58759
623,225,98.7035,2.56226,0,0,0,0,0,0,0,-1,1847,799,98.7035,-2.56224
630,225,75.2485,2.28778,0,0,0,0,0,0,0,-1,1854,799,75.2485,-2.28778
637,225,55.6359,2.8064,0,0,0,0,0,0,0,-1,1861,799,55.6359,-2.80637
644,225,42.0298,2.46411,0,0,0,0,0,0,0,-1,1868,799,42.0298,-2.4641
651,225,27.9657,0.579529,0,0,0,0,0,0,0,-1,1875,799,27.9657,-0.579541
658,225,79.1904,-4.22021,0,0,0,0,0,0,0,-1,1882,799,79.1905,4.22019
665,225,80.8872,-3.34991,0,0,0,0,0,0,0,-1,1889,799,80.8872,3.34992
672,225,85.205,-1.42188,0,0,0,0,0,0,0,-1,1896,799,85.205,1.4219
679,225,174.299,15.4891,0,0,0,0,0,0,0,-1,1903,799,174.299,-15.4891
686,225,174.313,17.6142,0,0,0,0,0,0,0,-1,1910,799,174.313,-17.6142
693,225,174.234,19.679,-0.0076082,0.0207267,-0.0114438,0.0247713,-0.0116528,-1.23107,0.0214793,0.0184227,1917,799,174.234,-19.6789
700,225,173.904,21.8546,-0.00812471,0.0260689,-0.0159025,0.0323215,-0.0143772,-1.19618,0.027617,0.0191431,1924,799,173.904,-21.8546
707,225,173.698,23.8924,0,0,0,0,0,0,0,-1,1931,799,173.698,-23.8924
714,225,173.147,25.9124,0,0,0,0,0,0,0,-1,1938,799,173.147,-25.9124
721,225,172.66,27.9548,0,0,0,0,0,0,0,-1,1945,799,172.66,-27.9548
728,225,172.539,29.725,0,0,0,0,0,0,0,-1,1952,799,172.539,-29.725
735,225,95.1782,15.2966,0,0,0,0,0,0,0,-1,1959,799,95.1782,-15.2966
742,225,77.4065,11.2324,0,0,0,0,0,0,0,-1,1966,799,77.4065,-11.2324
749,225,29.9529,4.45538,0,0,0,0,0,0,0,-1,1973,799,29.9529,-4.45537
756,225,42.6417,11.3672,0,0,0,0,0,0,0,-1,1980,799,42.6417,-11.3672
763,225,42.6943,10.949,0,0,0,0,0,0,0,-1,1987,799,42.6943,-10.9489
770,225,0,0,0,0,0,0,0,0,0,-1,1994,799,0,0
777,225,0,0,0,0,0,0,0,0,0,-1,2001,799,0,0
784,225,0,0,0,0,0,0,0,0,0,-1,2008,799,0,0
791,225,0,0,0,0,0,0,0,0,0,-1,2015,799,0,0
798,225,0,0,0,0,0,0,0,0,0,-1,2022,799,0,0
805,225,0,0,0,0,0,0,0,0,0,-1,2029,799,0,0
812,225,0,0,0,0,0,0,0,0,0,-1,2036,799,0,0
-700,218,0,0,0,0,0,0,0,0,0,-1,524,806,0,0
-693,218,0,0,0,0,0,0,0,0,0,-1,531,806,0,0
-686,218,0,0,0,0,0,0,0,0,0,-1,538,806,0,0
-679,218,0,0,0,0,0,0,0,0,0,-1,545,806,0,0
-672,218,0,0,0,0,0,0,0,0,0,-1,552,806,0,0
-665,218,0,0,0,0,0,0,0,0,0,-1,559,806,0,0
-658,218,0,0,0,0,0,0,0,0,0,-1,566,806,0,0
-651,218,-40.3778,5.1792,0,0,0,0,0,0,0,-1,573,806,-40.3778,-5.1792
-644,218,-40.7704,4.19714,0,0,0,0,0,0,0,-1,580,806,-40.7704,-4.19714
-637,218,-41.541,3.36328,0,0,0,0,0,0,0,-1,587,806,-41.541,-3.36326
-630,218,-42.1423,2.85565,0,0,0,0,0,0,0,-1,594,806,-42.1423,-2.85567
-623,218,-42.7292,2.59015,0,0,0,0,0,0,0,-1,601,806,-42.7292,-2.59015
-616,218,-128.5,29.2946,0,0,0,0,0,0,0,-1,608,806,-128.5,-29.2946
-609,218,-148.764,32.5039,0,0,0,0,0,0,0,-1,615,806,-148.764,-32.5039
-602,218,-165.583,32.3148,0,0,0,0,0,0,0,-1,622,806,-165.583,-32.3148
-595,218,-165.887,30.1686,-0.00821812,0.0517288,0.0205242,0.0580823,-0.0145717,1.27059,0.0443834,0.0378999,629,806,-165.887,-30.1686
-588,218,-166.207,28.057,-0.00688275,0.0447743,0.0186759,0.050819,-0.0129275,1.25777,0.038911,0.0218987,636,806,-166.207,-28.057
-581,218,-166.568,25.9945,-0.00531331,0.0383966,0.0165694,0.0439676,-0.0108843,1.24645,0.0335339,0.0153713,643,806,-166.568,-25.9945
-574,218,-166.924,23.9555,-0.00404095,0.0325998,0.0141632,0.0374362,-0.00887729,1.24174,0.0283831,0.0141858,650,806,-166.924,-23.9555
-567,218,-167.196,21.7076,-0.0030016,0.0273174,0.011557,0.0312203,-0.00690452,1.24511,0.0234563,0.0239454,657,806,-167.196,-21.7076
-560,218,-167.615,19.6319,-0.00225642,0.0225879,0.00864181,0.0252982,-0.0049667,1.26689,0.0187417,0.0248358,664,806,-167.615,-19.6319
-553,218,-167.942,17.2952,-0.00198314,0.0185445,0.00546151,0.0199071,-0.00334576,1.32629,0.0145158,0.0289557,671,806,-167.942,-17.2952
-546,218,-168.341,15.0773,-0.00296399,0.0150707,0.00213656,0.0153204,-0.00321365,1.45447,0.0114363,0.0318266,678,806,-168.341,-15.0773
-539,218,-168.613,12.9936,0,0,0,0,0,0,0,-1,685,806,-168.613,-12.9936
-532,218,-65.3845,-3.26965,0,0,0,0,0,0,0,-1,692,806,-65.3845,3.26966
-525,218,-29.3521,-3.64417,0,0,0,0,0,0,0,-1,699,806,-29.3521,3.64414
-518,218,-23.61,2.54181,0,0,0,0,0,0,0,-1,706,806,-23.61,-2.54183
-511,218,-41.0953,1.06879,0,0,0,0,0,0,0,-1,713,806,-41.0953,-1.06876
-504,218,-59.1388,0.682068,0,0,0,0,0,0,0,-1,720,806,-59.1388,-0.682072
-497,218,-71.1117,0.685852,0,0,0,0,0,0,0,-1,727,806,-71.1117,-0.685864
-490,218,-71.2746,0.549255,0,0,0,0,0,0,0,-1,734,806,-71.2746,-0.54923
-483,218,-71.272,0.618164,0,0,0,0,0,0,0,-1,741,806,-71.272,-0.618135
-476,218,-71.212,0.670837,0,0,0,0,0,0,0,-1,748,806,-71.212,-0.670823
-469,218,0,0,0,0,0,0,0,0,0,-1,755,806,0,0
-462,218,0,0,0,0,0,0,0,0,0,-1,762,806,0,0
-455,218,0,0,0,0,0,0,0,0,0,-1,769,806,0,0
-448,218,0,0,0,0,0,0,0,0,0,-1,776,806,0,0
-441,218,0,0,0,0,0,0,0,0,0,-1,783,806,0,0
-434,218,0,0,0,0,0,0,0,0,0,-1,790,806,0,0
-427,218,0,0,0,0,0,0,0,0,0,-1,797,806,0,0
-420,218,0,0,0,0,0,0,0,0,0,-1,804,806,0,0
-413,218,0,0,0,0,0,0,0,0,0,-1,811,806,0,0
-406,218,0,0,0,0,0,0,0,0,0,-1,818,806,0,0
-399,218,0,0,0,0,0,0,0,0,0,-1,825,806,0,0
-392,218,0,0,0,0,0,0,0,0,0,-1,832,806,0,0
-385,218,0,0,0,0,0,0,0,0,0,-1,839,806,0,0
-378,218,0,0,0,0,0,0,0,0,0,-1,846,806,0,0
-371,218,0,0,0,0,0,0,0,0,0,-1,853,806,0,0
-364,218,0,0,0,0,0,0,0,0,0,-1,860,806,0,0
-357,218,0,0,0,0,0,0,0,0,0,-1,867,806,0,0
-350,218,0,0,0,0,0,0,0,0,0,-1,874,806,0,0
-343,218,0,0,0,0,0,0,0,0,0,-1,881,806,0,0
-336,218,0,0,0,0,0,0,0,0,0,-1,888,806,0,0
-329,218,0,0,0,0,0,0,0,0,0,-1,895,806,0,0
-322,218,0,0,0,0,0,0,0,0,0,-1,902,806,0,0
-315,218,0,0,0,0,0,0,0,0,0,-1,909,806,0,0
-308,218,0,0,0,0,0,0,0,0,0,-1,916,806,0,0
-301,218,0,0,0,0,0,0,0,0,0,-1,923,806,0,0
-294,218,0,0,0,0,0,0,0,0,0,-1,930,806,0,0
-287,218,0,0,0,0,0,0,0,0,0,-1,937,806,0,0
-280,218,0,0,0,0,0,0,0,0,0,-1,944,806,0,0
-273,218,0,0,0,0,0,0,0,0,0,-1,951,806,0,0
-266,218,0,0,0,0,0,0,0,0,0,-1,958,806,0,0
-259,218,0,0,0,0,0,0,0,0,0,-1,965,806,0,0
-252,218,0,0,0,0,0,0,0,0,0,-1,972,806,0,0
-245,218,0,0,0,0,0,0,0,0,0,-1,979,806,0,0
-238,218,0,0,0,0,0,0,0,0,0,-1,986,806,0,0
-231,218,0,0,0,0,0,0,0,0,0,-1,993,806,0,0
-224,218,0,0,0,0,0,0,0,0,0,-1,1000,806,0,0
-217,218,0,0,0,0,0,0,0,0,0,-1,1007,806,0,0
-210,218,0,0,0,0,0,0,0,0,0,-1,1014,806,0,0
-203,218,0,0,0,0,0,0,0,0,0,-1,1021,806,0,0
-196,218,0,0,0,0,0,0,0,0,0,-1,1028,806,0,0
-189,218,0,0,0,0,0,0,0,0,0,-1,1035,806,0,0
-182,218,0,0,0,0,0,0,0,0,0,-1,1042,806,0,0
-175,218,0,0,0,0,0,0,0,0,0,-1,1049,806,0,0
-168,218,0,0,0,0,0,0,0,0,0,-1,1056,806,0,0
-161,218,0,0,0,0,0,0,0,0,0,-1,1063,806,0,0
-154,218,0,0,0,0,0,0,0,0,0,-1,1070,806,0,0
-147,218,0,0,0,0,0,0,0,0,0,-1,1077,806,0,0
-140,218,0,0,0,0,0,0,0,0,0,-1,1084,806,0,0
-133,218,0,0,0,0,0,0,0,0,0,-1,1091,806,0,0
-126,218,0,0,0,0,0,0,0,0,0,-1,1098,806,0,0
-119,218,0,0,0,0,0,0,0,0,0,-1,1105,806,0,0
-112,218,0,0,0,0,0,0,0,0,0,-1,1112,806,0,0
-105,218,0,0,0,0,0,0,0,0,0,-1,1119,806,0,0
-98,218,0,0,0,0,0,0,0,0,0,-1,1126,806,0,0
-91,218,0,0,0,0,0,0,0,0,0,-1,1133,806,0,0
-84,218,0,0,0,0,0,0,0,0,0,-1,1140,806,0,0
-77,218,0,0,0,0,0,0,0,0,0,-1,1147,806,0,0
-70,218,0,0,0,0,0,0,0,0,0,-1,1154,806,0,0
-63,218,0,0,0,0,0,0,0,0,0,-1,1161,806,0,0
-56,218,0,0,0,0,0,0,0,0,0,-1,1168,806,0,0
-49,218,0,0,0,0,0,0,0,0,0,-1,1175,806,0,0
-42,218,0,0,0,0,0,0,0,0,0,-1,1182,806,0,0
-35,218,0,0,0,0,0,0,0,0,0,-1,1189,806,0,0
-28,218,0,0,0,0,0,0,0,0,0,-1,1196,806,0,0
-21,218,0,0,0,0,0,0,0,0,0,-1,1203,806,0,0
-14,218,0,0,0,0,0,0,0,0,0,-1,1210,806,0,0
-7,218,0,0,0,0,0,0,0,0,0,-1,1217,806,0,0
0,218,0,0,0,0,0,0,0,0,0,-1,1224,806,0,0
7,218,0,0,0,0,0,0,0,0,0,-1,1231,806,0,0
14,218,0,0,0,0,0,0,0,0,0,-1,1238,806,0,0
21,218,0,0,0,0,0,0,0,0,0,-1,1245,806,0,0
28,218,0,0,0,0,0,0,0,0,0,-1,1252,806,0,0
35,218,0,0,0,0,0,0,0,0,0,-1,1259,806,0,0
42,218,0,0,0,0,0,0,0,0,0,-1,1266,806,0,0
49,218,0,0,0,0,0,0,0,0,0,-1,1273,806,0,0
56,218,0,0,0,0,0,0,0,0,0,-1,1280,806,0,0
63,218,0,0,0,0,0,0,0,0,0,-1,1287,806,0,0
70,218,0,0,0,0,0,0,0,0,0,-1,1294,806,0,0
77,218,0,0,0,0,0,0,0,0,0,-1,1301,806,0,0
84,218,0,0,0,0,0,0,0,0,0,-1,1308,806,0,0
91,218,0,0,0,0,0,0,0,0,0,-1,1315,806,0,0
98,218,0,0,0,0,0,0,0,0,0,-1,1322,806,0,0
105,218,0,0,0,0,0,0,0,0,0,-1,1329,806,0,0
112,218,0,0,0,0,0,0,0,0,0,-1,1336,806,0,0
119,218,0,0,0,0,0,0,0,0,0,-1,1343,806,0,0
126,218,0,0,0,0,0,0,0,0,0,-1,1350,806,0,0
133,218,0,0,0,0,0,0,0,0,0,-1,1357,806,0,0
140,218,0,0,0,0,0,0,0,0,0,-1,1364,806,0,0
147,218,0,0,0,0,0,0,0,0,0,-1,1371,806,0,0
154,218,0,0,0,0,0,0,0,0,0,-1,1378,806,0,0
161,218,0,0,0,0,0,0,0,0,0,-1,1385,806,0,0
168,218,0,0,0,0,0,0,0,0,0,-1,1392,806,0,0
175,218,0,0,0,0,0,0,0,0,0,-1,1399,806,0,0
182,218,0,0,0,0,0,0,0,0,0,-1,1406,806,0,0
189,218,0,0,0,0,0,0,0,0,0,-1,1413,806,0,0
196,218,0,0,0,0,0,0,0,0,0,-1,1420,806,0,0
203,218,0,0,0,0,0,0,0,0,0,-1,1427,806,0,0
210,218,0,0,0,0,0,0,0,0,0,-1,1434,806,0,0
217,218,0,0,0,0,0,0,0,0,0,-1,1441,806,0,0
224,218,0,0,0,0,0,0,0,0,0,-1,1448,806,0,0
231,218,0,0,0,0,0,0,0,0,0,-1,1455,806,0,0
238,218,0,0,0,0,0,0,0,0,0,-1,1462,806,0,0
245,218,0,0,0,0,0,0,0,0,0,-1,1469,806,0,0
252,218,0,0,0,0,0,0,0,0,0,-1,1476,806,0,0
259,218,0,0,0,0,0,0,0,0,0,-1,1483,806,0,0
266,218,0,0,0,0,0,0,0,0,0,-1,1490,806,0,0
273,218,0,0,0,0,0,0,0,0,0,-1,1497,806,0,0
280,218,0,0,0,0,0,0,0,0,0,-1,1504,806,0,0
287,218,0,0,0,0,0,0,0,0,0,-1,1511,806,0,0
294,218,0,0,0,0,0,0,0,0,0,-1,1518,806,0,0
301,218,0,0,0,0,0,0,0,0,0,-1,1525,806,0,0
308,218,0,0,0,0,0,0,0,0,0,-1,1532,806,0,0
315,218,0,0,0,0,0,0,0,0,0,-1,1539,806,0,0
322,218,0,0,0,0,0,0,0,0,0,-1,1546,806,0,0
329,218,0,0,0,0,0,0,0,0,0,-1,1553,806,0,0
336,218,0,0,0,0,0,0,0,0,0,-1,1560,806,0,0
343,218,0,0,0,0,0,0,0,0,0,-1,1567,806,0,0
350,218,0,0,0,0,0,0,0,0,0,-1,1574,806,0,0
357,218,0,0,0,0,0,0,0,0,0,-1,1581,806,0,0
364,218,0,0,0,0,0,0,0,0,0,-1,1588,806,0,0
371,218,0,0,0,0,0,0,0,0,0,-1,1595,806,0,0
378,218,0,0,0,0,0,0,0,0,0,-1,1602,806,0,0
385,218,0,0,0,0,0,0,0,0,0,-1,1609,806,0,0
392,218,0,0,0,0,0,0,0,0,0,-1,1616,806,0,0
399,218,0,0,0,0,0,0,0,0,0,-1,1623,806,0,0
406,218,0,0,0,0,0,0,0,0,0,-1,1630,806,0,0
413,218,0,0,0,0,0,0,0,0,0,-1,1637,806,0,0
420,218,0,0,0,0,0,0,0,0,0,-1,1644,806,0,0
427,218,0,0,0,0,0,0,0,0,0,-1,1651,806,0,0
434,218,0,0,0,0,0,0,0,0,0,-1,1658,806,0,0
441,218,0,0,0,0,0,0,0,0,0,-1,1665,806,0,0
448,218,0,0,0,0,0,0,0,0,0,-1,1672,806,0,0
455,218,0,0,0,0,0,0,0,0,0,-1,1679,806,0,0
462,218,0,0,0,0,0,0,0,0,0,-1,1686,806,0,0
469,218,0,0,0,0,0,0,0,0,0,-1,1693,806,0,0
476,218,0,0,0,0,0,0,0,0,0,-1,1700,806,0,0
483,218,0,0,0,0,0,0,0,0,0,-1,1707,806,0,0
490,218,0,0,0,0,0,0,0,0,0,-1,1714,806,0,0
497,218,0,0,0,0,0,0,0,0,0,-1,1721,806,0,0
504,218,0,0,0,0,0,0,0,0,0,-1,1728,806,0,0
511,218,0,0,0,0,0,0,0,0,0,-1,1735,806,0,0
518,218,0,0,0,0,0,0,0,0,0,-1,1742,806,0,0
525,218,0,0,0,0,0,0,0,0,0,-1,1749,806,0,0
532,218,0,0,0,0,0,0,0,0,0,-1,1756,806,0,0
539,218,0,0,0,0,0,0,0,0,0,-1,1763,806,0,0
546,218,0,0,0,0,0,0,0,0,0,-1,1770,806,0,0
553,218,0,0,0,0,0,0,0,0,0,-1,1777,806,0,0
560,218,0,0,0,0,0,0,0,0,0,-1,1784,806,0,0
567,218,0,0,0,0,0,0,0,0,0,-1,1791,806,0,0
574,218,0,0,0,0,0,0,0,0,0,-1,1798,806,0,0
581,218,0,0,0,0,0,0,0,0,0,-1,1805,806,0,0
588,218,0,0,0,0,0,0,0,0,0,-1,1812,806,0,0
595,218,215.382,8.62482,0,0,0,0,0,0,0,-1,1819,806,215.382,-8.62483
602,218,215.315,8.58081,0,0,0,0,0,0,0,-1,1826,806,215.315,-8.58078
609,218,215.257,8.72333,0,0,0,0,0,0,0,-1,1833,806,215.257,-8.72335
616,218,215.253,8.75104,0,0,0,0,0,0,0,-1,1840,806,215.253,-8.75101
623,218,215.156,8.60272,0,0,0,0,0,0,0,-1,1847,806,215.156,-8.6027
630,218,98.8997,2.35669,0,0,0,0,0,0,0,-1,1854,806,98.8997,-2.3567
637,218,75.0532,2.44513,0,0,0,0,0,0,0,-1,1861,806,75.0532,-2.44515
644,218,52.4042,2.47949,0,0,0,0,0,0,0,-1,1868,806,52.4041,-2.47949
651,218,41.7338,1.99164,0,0,0,0,0,0,0,-1,1875,806,41.7338,-1.99162
658,218,28.41,0.514954,0,0,0,0,0,0,0,-1,1882,806,28.41,-0.514983
665,218,87.3844,-2.94836,0,0,0,0,0,0,0,-1,1889,806,87.3844,2.94834
672,218,105.041,-0.09729,0,0,0,0,0,0,0,-1,1896,806,105.041,0.0972892
679,218,177.213,15.3354,0,0,0,0,0,0,0,-1,1903,806,177.213,-15.3354
686,218,176.907,17.7111,0,0,0,0,0,0,0,-1,1910,806,176.907,-17.711
693,218,176.611,19.9689,-0.00666137,0.0181487,-0.0090383,0.0210921,-0.00960481,-1.25596,0.0181318,0.0199184,1917,806,176.611,-19.9688
700,218,176.32,22.135,-0.00781232,0.0237064,-0.0135172,0.0287093,-0.0128152,-1.21632,0.0245526,0.018612,1924,806,176.32,-22.135
707,218,175.644,24.3123,-0.00929404,0.0293819,-0.0179093,0.0364011,-0.0163132,-1.19727,0.0311625,0.0432166,1931,806,175.644,-24.3123
714,218,174.973,26.5532,0,0,0,0,0,0,0,-1,1938,806,174.973,-26.5531
721,218,175.316,28.044,0,0,0,0,0,0,0,-1,1945,806,175.316,-28.044
728,218,174.878,30.3701,0,0,0,0,0,0,0,-1,1952,806,174.878,-30.3701
735,218,118.738,21.3044,0,0,0,0,0,0,0,-1,1959,806,118.738,-21.3045
742,218,47.8733,6.84155,0,0,0,0,0,0,0,-1,1966,806,47.8733,-6.84158
749,218,42.0249,6.64703,0,0,0,0,0,0,0,-1,1973,806,42.0249,-6.64703
756,218,68.6807,8.39844,0,0,0,0,0,0,0,-1,1980,806,68.6807,-8.39847
763,218,70.9336,11.1503,0,0,0,0,0,0,0,-1,1987,806,70.9336,-11.1503
770,218,0,0,0,0,0,0,0,0,0,-1,1994,806,0,0
777,218,0,0,0,0,0,0,0,0,0,-1,2001,806,0,0
784,218,0,0,0,0,0,0,0,0,0,-1,2008,806,0,0
791,218,0,0,0,0,0,0,0,0,0,-1,2015,806,0,0
798,218,0,0,0,0,0,0,0,0,0,-1,2022,806,0,0
805,218,0,0,0,0,0,0,0,0,0,-1,2029,806,0,0
812,218,0,0,0,0,0,0,0,0,0,-1,2036,806,0,0
-700,211,0,0,0,0,0,0,0,0,0,-1,524,813,0,0
-693,211,0,0,0,0,0,0,0,0,0,-1,531,813,0,0
-686,211,0,0,0,0,0,0,0,0,0,-1,538,813,0,0
-679,211,0,0,0,0,0,0,0,0,0,-1,545,813,0,0
-672,211,0,0,0,0,0,0,0,0,0,-1,552,813,0,0
-665,211,0,0,0,0,0,0,0,0,0,-1,559,813,0,0
-658,211,0,0,0,0,0,0,0,0,0,-1,566,813,0,0
-651,211,-40.2495,5.20386,0,0,0,0,0,0,0,-1,573,813,-40.2494,-5.20384
-644,211,-40.6288,4.32092,0,0,0,0,0,0,0,-1,580,813,-40.6288,-4.3209
-637,211,-41.3664,3.51849,0,0,0,0,0,0,0,-1,587,813,-41.3664,-3.51847
-630,211,-41.9262,2.94977,0,0,0,0,0,0,0,-1,594,813,-41.9262,-2.94975
-623,211,-42.5012,2.62903,0,0,0,0,0,0,0,-1,601,813,-42.5011,-2.629
-616,211,-151.41,34.4951,0,0,0,0,0,0,0,-1,608,813,-151.41,-34.495
-609,211,-167.705,33.6312,0,0,0,0,0,0,0,-1,615,813,-167.705,-33.6312
-602,211,-167.76,31.9201,-0.00751894,0.0564314,0.0205479,0.0624645,-0.013552,1.28521,0.0468188,0.0395157,622,813,-167.76,-31.9201
-595,211,-168.277,30.0502,-0.00715635,0.049184,0.0189403,0.0549593,-0.0129316,1.27483,0.0416251,0.0260213,629,813,-168.277,-30.0502
-588,211,-168.655,28.1153,-0.00601232,0.0424249,0.0171369,0.0478748,-0.0114621,1.26289,0.0363448,0.0208523,636,813,-168.655,-28.1153
-581,211,-168.959,26.2039,-0.00459058,0.0361352,0.0150728,0.0411068,-0.00956217,1.25219,0.0310861,0.0162024,643,813,-168.959,-26.2039
-574,211,-169.272,24.0756,-0.00317173,0.030345,0.0127723,0.0346573,-0.00748407,1.24518,0.0259617,0.0166884,650,813,-169.272,-24.0756
-567,211,-169.687,21.9803,-0.00184586,0.0250422,0.0102343,0.0284944,-0.00529807,1.24546,0.0209864,0.0266365,657,813,-169.687,-21.9803
-560,211,-169.955,19.958,0,0,0,0,0,0,0,-1,664,813,-169.955,-19.958
-553,211,-170.244,17.3871,0,0,0,0,0,0,0,-1,671,813,-170.244,-17.3871
-546,211,-170.761,15.3359,0,0,0,0,0,0,0,-1,678,813,-170.761,-15.336
-539,211,-171.243,13.424,0,0,0,0,0,0,0,-1,685,813,-171.243,-13.4239
-532,211,-56.3252,-3.37701,0,0,0,0,0,0,0,-1,692,813,-56.3252,3.37701
-525,211,-14.3009,2.3233,0,0,0,0,0,0,0,-1,699,813,-14.3009,-2.3233
-518,211,-34.952,1.93011,0,0,0,0,0,0,0,-1,706,813,-34.952,-1.9301
-511,211,-53.0876,0.677734,0,0,0,0,0,0,0,-1,713,813,-53.0876,-0.677737
-504,211,-71.0793,0.713501,0,0,0,0,0,0,0,-1,720,813,-71.0793,-0.713471
-497,211,-71.1944,0.650879,0,0,0,0,0,0,0,-1,727,813,-71.1944,-0.650871
-490,211,-71.2502,0.66217,0,0,0,0,0,0,0,-1,734,813,-71.2502,-0.662185
-483,211,-71.1762,0.722412,0,0,0,0,0,0,0,-1,741,813,-71.1762,-0.722423
-476,211,-71.2107,0.635254,0,0,0,0,0,0,0,-1,748,813,-71.2107,-0.635269
-469,211,0,0,0,0,0,0,0,0,0,-1,755,813,0,0
-462,211,0,0,0,0,0,0,0,0,0,-1,762,813,0,0
-455,211,0,0,0,0,0,0,0,0,0,-1,769,813,0,0
-448,211,0,0,0,0,0,0,0,0,0,-1,776,813,0,0
-441,211,0,0,0,0,0,0,0,0,0,-1,783,813,0,0
-434,211,0,0,0,0,0,0,0,0,0,-1,790,813,0,0
-427,211,0,0,0,0,0,0,0,0,0,-1,797,813,0,0
-420,211,0,0,0,0,0,0,0,0,0,-1,804,813,0,0
-413,211,0,0,0,0,0,0,0,0,0,-1,811,813,0,0
-406,211,0,0,0,0,0,0,0,0,0,-1,818,813,0,0
-399,211,0,0,0,0,0,0,0,0,0,-1,825,813,0,0
-392,211,0,0,0,0,0,0,0,0,0,-1,832,813,0,0
-385,211,0,0,0,0,0,0,0,0,0,-1,839,813,0,0
-378,211,0,0,0,0,0,0,0,0,0,-1,846,813,0,0
-371,211,0,0,0,0,0,0,0,0,0,-1,853,813,0,0
-364,211,0,0,0,0,0,0,0,0,0,-1,860,813,0,0
-357,211,0,0,0,0,0,0,0,0,0,-1,867,813,0,0
-350,211,0,0,0,0,0,0,0,0,0,-1,874,813,0,0
-343,211,0,0,0,0,0,0,0,0,0,-1,881,813,0,0
-336,211,0,0,0,0,0,0,0,0,0,-1,888,813,0,0
-329,211,0,0,0,0,0,0,0,0,0,-1,895,813,0,0
-322,211,0,0,0,0,0,0,0,0,0,-1,902,813,0,0
-315,211,0,0,0,0,0,0,0,0,0,-1,909,813,0,0
-308,211,0,0,0,0,0,0,0,0,0,-1,916,813,0,0
-301,211,0,0,0,0,0,0,0,0,0,-1,923,813,0,0
-294,211,0,0,0,0,0,0,0,0,0,-1,930,813,0,0
-287,211,0,0,0,0,0,0,0,0,0,-1,937,813,0,0
-280,211,0,0,0,0,0,0,0,0,0,-1,944,813,0,0
-273,211,0,0,0,0,0,0,0,0,0,-1,951,813,0,0
-266,211,0,0,0,0,0,0,0,0,0,-1,958,813,0,0
-259,211,0,0,0,0,0,0,0,0,0,-1,965,813,0,0
-252,211,0,0,0,0,0,0,0,0,0,-1,972,813,0,0
-245,211,0,0,0,0,0,0,0,0,0,-1,979,813,0,0
-238,211,0,0,0,0,0,0,0,0,0,-1,986,813,0,0
-231,211,0,0,0,0,0,0,0,0,0,-1,993,813,0,0
-224,211,0,0,0,0,0,0,0,0,0,-1,1000,813,0,0
-217,211,0,0,0,0,0,0,0,0,0,-1,1007,813,0,0
-210,211,0,0,0,0,0,0,0,0,0,-1,1014,813,0,0
-203,211,0,0,0,0,0,0,0,0,0,-1,1021,813,0,0
-196,211,0,0,0,0,0,0,0,0,0,-1,1028,813,0,0
-189,211,0,0,0,0,0,0,0,0,0,-1,1035,813,0,0
-182,211,0,0,0,0,0,0,0,0,0,-1,1042,813,0,0
-175,211,0,0,0,0,0,0,0,0,0,-1,1049,813,0,0
-168,211,0,0,0,0,0,0,0,0,0,-1,1056,813,0,0
-161,211,0,0,0,0,0,0,0,0,0,-1,1063,813,0,0
-154,211,0,0,0,0,0,0,0,0,0,-1,1070,813,0,0
-147,211,0,0,0,0,0,0,0,0,0,-1,1077,813,0,0
-140,211,0,0,0,0,0,0,0,0,0,-1,1084,813,0,0
-133,211,0,0,0,0,0,0,0,0,0,-1,1091,813,0,0
-126,211,0,0,0,0,0,0,0,0,0,-1,1098,813,0,0
-119,211,0,0,0,0,0,0,0,0,0,-1,1105,813,0,0
-112,211,0,0,0,0,0,0,0,0,0,-1,1112,813,0,0
-105,211,0,0,0,0,0,0,0,0,0,-1,1119,813,0,0
-98,211,0,0,0,0,0,0,0,0,0,-1,1126,813,0,0
-91,211,0,0,0,0,0,0,0,0,0,-1,1133,813,0,0
-84,211,0,0,0,0,0,0,0,0,0,-1,1140,813,0,0
-77,211,0,0,0,0,0,0,0,0,0,-1,1147,813,0,0
-70,211,0,0,0,0,0,0,0,0,0,-1,1154,813,0,0
-63,211,0,0,0,0,0,0,0,0,0,-1,1161,813,0,0
-56,211,0,0,0,0,0,0,0,0,0,-1,1168,813,0,0
-49,211,0,0,0,0,0,0,0,0,0,-1,1175,813,0,0
-42,211,0,0,0,0,0,0,0,0,0,-1,1182,813,0,0
-35,211,0,0,0,0,0,0,0,0,0,-1,1189,813,0,0
-28,211,0,0,0,0,0,0,0,0,0,-1,1196,813,0,0
-21,211,0,0,0,0,0,0,0,0,0,-1,1203,813,0,0
-14,211,0,0,0,0,0,0,0,0,0,-1,1210,813,0,0
-7,211,0,0,0,0,0,0,0,0,0,-1,1217,813,0,0
0,211,0,0,0,0,0,0,0,0,0,-1,1224,813,0,0
7,211,0,0,0,0,0,0,0,0,0,-1,1231,813,0,0
14,211,0,0,0,0,0,0,0,0,0,-1,1238,813,0,0
21,211,0,0,0,0,0,0,0,0,0,-1,1245,813,0,0
28,211,0,0,0,0,0,0,0,0,0,-1,1252,813,0,0
35,211,0,0,0,0,0,0,0,0,0,-1,1259,813,0,0
42,211,0,0,0,0,0,0,0,0,0,-1,1266,813,0,0
49,211,0,0,0,0,0,0,0,0,0,-1,1273,813,0,0
56,211,0,0,0,0,0,0,0,0,0,-1,1280,813,0,0
63,211,0,0,0,0,0,0,0,0,0,-1,1287,813,0,0
70,211,0,0,0,0,0,0,0,0,0,-1,1294,813,0,0
77,211,0,0,0,0,0,0,0,0,0,-1,1301,813,0,0
84,211,0,0,0,0,0,0,0,0,0,-1,1308,813,0,0
91,211,0,0,0,0,0,0,0,0,0,-1,1315,813,0,0
98,211,0,0,0,0,0,0,0,0,0,-1,1322,813,0,0
105,211,0,0,0,0,0,0,0,0,0,-1,1329,813,0,0
112,211,0,0,0,0,0,0,0,0,0,-1,1336,813,0,0
119,211,0,0,0,0,0,0,0,0,0,-1,1343,813,0,0
126,211,0,0,0,0,0,0,0,0,0,-1,1350,813,0,0
133,211,0,0,0,0,0,0,0,0,0,-1,1357,813,0,0
140,211,0,0,0,0,0,0,0,0,0,-1,1364,813,0,0
147,211,0,0,0,0,0,0,0,0,0,-1,1371,813,0,0
154,211,0,0,0,0,0,0,0,0,0,-1,1378,813,0,0
161,211,0,0,0,0,0,0,0,0,0,-1,1385,813,0,0
168,211,0,0,0,0,0,0,0,0,0,-1,1392,813,0,0
175,211,0,0,0,0,0,0,0,0,0,-1,1399,813,0,0
182,211,0,0,0,0,0,0,0,0,0,-1,1406,813,0,0
189,211,0,0,0,0,0,0,0,0,0,-1,1413,813,0,0
196,211,0,0,0,0,0,0,0,0,0,-1,1420,813,0,0
203,211,0,0,0,0,0,0,0,0,0,-1,1427,813,0,0
210,211,0,0,0,0,0,0,0,0,0,-1,1434,813,0,0
217,211,0,0,0,0,0,0,0,0,0,-1,1441,813,0,0
224,211,0,0,0,0,0,0,0,0,0,-1,1448,813,0,0
231,211,0,0,0,0,0,0,0,0,0,-1,1455,813,0,0
238,211,0,0,0,0,0,0,0,0,0,-1,1462,813,0,0
245,211,0,0,0,0,0,0,0,0,0,-1,1469,813,0,0
252,211,0,0,0,0,0,0,0,0,0,-1,1476,813,0,0
259,211,0,0,0,0,0,0,0,0,0,-1,1483,813,0,0
266,211,0,0,0,0,0,0,0,0,0,-1,1490,813,0,0
273,211,0,0,0,0,0,0,0,0,0,-1,1497,813,0,0
280,211,0,0,0,0,0,0,0,0,0,-1,1504,813,0,0
287,211,0,0,0,0,0,0,0,0,0,-1,1511,813,0,0
294,211,0,0,0,0,0,0,0,0,0,-1,1518,813,0,0
301,211,0,0,0,0,0,0,0,0,0,-1,1525,813,0,0
308,211,0,0,0,0,0,0,0,0,0,-1,1532,813,0,0
315,211,0,0,0,0,0,0,0,0,0,-1,1539,813,0,0
322,211,0,0,0,0,0,0,0,0,0,-1,1546,813,0,0
329,211,0,0,0,0,0,0,0,0,0,-1,1553,813,0,0
336,211,0,0,0,0,0,0,0,0,0,-1,1560,813,0,0
343,211,0,0,0,0,0,0,0,0,0,-1,1567,813,0,0
350,211,0,0,0,0,0,0,0,0,0,-1,1574,813,0,0
357,211,0,0,0,0,0,0,0,0,0,-1,1581,813,0,0
364,211,0,0,0,0,0,0,0,0,0,-1,1588,813,0,0
371,211,0,0,0,0,0,0,0,0,0,-1,1595,813,0,0
378,211,0,0,0,0,0,0,0,0,0,-1,1602,813,0,0
385,211,0,0,0,0,0,0,0,0,0,-1,1609,813,0,0
392,211,0,0,0,0,0,0,0,0,0,-1,1616,813,0,0
399,211,0,0,0,0,0,0,0,0,0,-1,1623,813,0,0
406,211,0,0,0,0,0,0,0,0,0,-1,1630,813,0,0
413,211,0,0,0,0,0,0,0,0,0,-1,1637,813,0,0
420,211,0,0,0,0,0,0,0,0,0,-1,1644,813,0,0
427,211,0,0,0,0,0,0,0,0,0,-1,1651,813,0,0
434,211,0,0,0,0,0,0,0,0,0,-1,1658,813,0,0
441,211,0,0,0,0,0,0,0,0,0,-1,1665,813,0,0
448,211,0,0,0,0,0,0,0,0,0,-1,1672,813,0,0
455,211,0,0,0,0,0,0,0,0,0,-1,1679,813,0,0
462,211,0,0,0,0,0,0,0,0,0,-1,1686,813,0,0
469,211,0,0,0,0,0,0,0,0,0,-1,1693,813,0,0
476,211,0,0,0,0,0,0,0,0,0,-1,1700,813,0,0
483,211,0,0,0,0,0,0,0,0,0,-1,1707,813,0,0
490,211,0,0,0,0,0,0,0,0,0,-1,1714,813,0,0
497,211,0,0,0,0,0,0,0,0,0,-1,1721,813,0,0
504,211,0,0,0,0,0,0,0,0,0,-1,1728,813,0,0
511,211,0,0,0,0,0,0,0,0,0,-1,1735,813,0,0
518,211,0,0,0,0,0,0,0,0,0,-1,1742,813,0,0
525,211,0,0,0,0,0,0,0,0,0,-1,1749,813,0,0
532,211,0,0,0,0,0,0,0,0,0,-1,1756,813,0,0
539,211,0,0,0,0,0,0,0,0,0,-1,1763,813,0,0
546,211,0,0,0,0,0,0,0,0,0,-1,1770,813,0,0
553,211,0,0,0,0,0,0,0,0,0,-1,1777,813,0,0
560,211,0,0,0,0,0,0,0,0,0,-1,1784,813,0,0
567,211,0,0,0,0,0,0,0,0,0,-1,1791,813,0,0
574,211,0,0,0,0,0,0,0,0,0,-1,1798,813,0,0
581,211,0,0,0,0,0,0,0,0,0,-1,1805,813,0,0
588,211,0,0,0,0,0,0,0,0,0,-1,1812,813,0,0
595,211,215.418,8.55505,0,0,0,0,0,0,0,-1,1819,813,215.418,-8.55508
602,211,215.349,8.58331,0,0,0,0,0,0,0,-1,1826,813,215.349,-8.58332
609,211,215.296,8.70972,0,0,0,0,0,0,0,-1,1833,813,215.296,-8.70974
616,211,215.291,8.88599,0,0,0,0,0,0,0,-1,1840,813,215.291,-8.88599
623,211,215.31,8.77875,0,0,0,0,0,0,0,-1,1847,813,215.31,-8.77872
630,211,215.296,8.58722,0,0,0,0,0,0,0,-1,1854,813,215.296,-8.58721
637,211,93.1104,2.29517,0,0,0,0,0,0,0,-1,1861,813,93.1103,-2.29517
644,211,66.401,2.3595,0,0,0,0,0,0,0,-1,1868,813,66.401,-2.35952
651,211,48.5043,2.95557,0,0,0,0,0,0,0,-1,1875,813,48.5043,-2.95558
658,211,27.7909,1.52234,0,0,0,0,0,0,0,-1,1882,813,27.7909,-1.52234
665,211,42.2053,-0.745605,0,0,0,0,0,0,0,-1,1889,813,42.2054,0.745605
672,211,88.5627,-1.52313,0,0,0,0,0,0,0,-1,1896,813,88.5627,1.52312
679,211,113.734,3.14288,0,0,0,0,0,0,0,-1,1903,813,113.734,-3.14288
686,211,179.264,17.9254,0,0,0,0,0,0,0,-1,1910,813,179.264,-17.9253
693,211,178.917,20.2145,-0.00616766,0.01545,-0.00732017,0.0176955,-0.00841316,-1.27315,0.0153881,0.0263002,1917,813,178.917,-20.2146
700,211,178.546,22.4902,-0.00777757,0.0211871,-0.0116133,0.0252684,-0.0118588,-1.23285,0.0218965,0.0231012,1924,813,178.546,-22.4902
707,211,178.19,24.6018,-0.00960397,0.0269435,-0.0158022,0.0328283,-0.0154889,-1.2143,0.0284884,0.048294,1931,813,178.19,-24.6018
714,211,177.73,26.6516,0,0,0,0,0,0,0,-1,1938,813,177.73,-26.6516
721,211,177.376,28.51,0,0,0,0,0,0,0,-1,1945,813,177.376,-28.51
728,211,177.079,30.4146,0,0,0,0,0,0,0,-1,1952,813,177.079,-30.4145
735,211,176.729,32.2504,0,0,0,0,0,0,0,-1,1959,813,176.729,-32.2504
742,211,84.2058,12.8079,0,0,0,0,0,0,0,-1,1966,813,84.2058,-12.8079
749,211,73.5072,9.75317,0,0,0,0,0,0,0,-1,1973,813,73.5072,-9.75319
756,211,69.7454,8.43085,0,0,0,0,0,0,0,-1,1980,813,69.7454,-8.43087
763,211,79.0168,15.136,0,0,0,0,0,0,0,-1,1987,813,79.017,-15.136
770,211,69.272,8.75696,0,0,0,0,0,0,0,-1,1994,813,69.2719,-8.75697
777,211,0,0,0,0,0,0,0,0,0,-1,2001,813,0,0
784,211,0,0,0,0,0,0,0,0,0,-1,2008,813,0,0
791,211,0,0,0,0,0,0,0,0,0,-1,2015,813,0,0
798,211,0,0,0,0,0,0,0,0,0,-1,2022,813,0,0
805,211,0,0,0,0,0,0,0,0,0,-1,2029,813,0,0
812,211,0,0,0,0,0,0,0,0,0,-1,2036,813,0,0
-700,204,0,0,0,0,0,0,0,0,0,-1,524,820,0,0
-693,204,0,0,0,0,0,0,0,0,0,-1,531,820,0,0
-686,204,0,0,0,0,0,0,0,0,0,-1,538,820,0,0
-679,204,0,0,0,0,0,0,0,0,0,-1,545,820,0,0
-672,204,0,0,0,0,0,0,0,0,0,-1,552,820,0,0
-665,204,0,0,0,0,0,0,0,0,0,-1,559,820,0,0
-658,204,0,0,0,0,0,0,0,0,0,-1,566,820,0,0
-651,204,-40.064,5.25806,0,0,0,0,0,0,0,-1,573,820,-40.064,-5.25806
-644,204,-40.4117,4.54321,0,0,0,0,0,0,0,-1,580,820,-40.4117,-4.54323
-637,204,-40.8671,3.93817,0,0,0,0,0,0,0,-1,587,820,-40.8671,-3.93819
-630,204,-41.7101,3.04382,0,0,0,0,0,0,0,-1,594,820,-41.7101,-3.04383
-623,204,-41.8597,2.11951,0,0,0,0,0,0,0,-1,601,820,-41.8597,-2.11951
-616,204,-170.336,35.3519,0,0,0,0,0,0,0,-1,608,820,-170.336,-35.3519
-609,204,-170.048,33.6405,-0.0059431,0.0602446,0.0197429,0.0656863,-0.0113847,1.30185,0.0480376,0.0469259,615,820,-170.048,-33.6405
-602,204,-170.092,31.9982,-0.00678218,0.0531955,0.0188869,0.0586474,-0.0122341,1.28978,0.0437502,0.0314026,622,820,-170.092,-31.9982
-595,204,-170.474,30.2308,-0.00650234,0.0463645,0.0174777,0.0516202,-0.011758,1.27869,0.0389292,0.0294249,629,820,-170.474,-30.2309
-588,204,-170.938,28.2363,-0.00536886,0.0398917,0.0158,0.0448616,-0.0103387,1.26604,0.0338839,0.0203873,636,820,-170.938,-28.2363
-581,204,-171.202,26.241,-0.00384259,0.0337982,0.0138197,0.0383271,-0.0083715,1.25411,0.0287511,0.0233793,643,820,-171.202,-26.241
-574,204,-171.528,24.2311,-0.00204749,0.0281274,0.0115932,0.0320671,-0.00598721,1.24321,0.023628,0.0199434,650,820,-171.528,-24.2312
-567,204,-172,22.3374,-0.00010815,0.0229207,0.00907674,0.0260681,-0.00325556,1.23702,0.0185593,0.0213002,657,820,-172,-22.3374
-560,204,-172.504,20.5031,0,0,0,0,0,0,0,-1,664,820,-172.504,-20.5031
-553,204,-172.569,18.0204,0,0,0,0,0,0,0,-1,671,820,-172.569,-18.0204
-546,204,-173.346,15.7289,0,0,0,0,0,0,0,-1,678,820,-173.346,-15.7289
-539,204,-168.29,13.2012,0,0,0,0,0,0,0,-1,685,820,-168.29,-13.2011
-532,204,-30.0565,-3.29065,0,0,0,0,0,0,0,-1,692,820,-30.0565,3.29063
-525,204,-25.7137,1.52496,0,0,0,0,0,0,0,-1,699,820,-25.7137,-1.52496
-518,204,-43.4591,0.383972,0,0,0,0,0,0,0,-1,706,820,-43.4591,-0.383942
-511,204,-67.4779,0.469788,0,0,0,0,0,0,0,-1,713,820,-67.4779,-0.469764
-504,204,-71.0822,0.762695,0,0,0,0,0,0,0,-1,720,820,-71.0822,-0.762675
-497,204,-71.2341,0.638,0,0,0,0,0,0,0,-1,727,820,-71.2341,-0.638005
-490,204,-71.2697,0.596191,0,0,0,0,0,0,0,-1,734,820,-71.2697,-0.596182
-483,204,-71.1739,0.642822,0,0,0,0,0,0,0,-1,741,820,-71.1739,-0.6428
-476,204,0,0,0,0,0,0,0,0,0,-1,748,820,0,0
-469,204,0,0,0,0,0,0,0,0,0,-1,755,820,0,0
-462,204,0,0,0,0,0,0,0,0,0,-1,762,820,0,0
-455,204,0,0,0,0,0,0,0,0,0,-1,769,820,0,0
-448,204,0,0,0,0,0,0,0,0,0,-1,776,820,0,0
-441,204,0,0,0,0,0,0,0,0,0,-1,783,820,0,0
-434,204,0,0,0,0,0,0,0,0,0,-1,790,820,0,0
-427,204,0,0,0,0,0,0,0,0,0,-1,797,820,0,0
-420,204,0,0,0,0,0,0,0,0,0,-1,804,820,0,0
-413,204,0,0,0,0,0,0,0,0,0,-1,811,820,0,0
-406,204,0,0,0,0,0,0,0,0,0,-1,818,820,0,0
-399,204,0,0,0,0,0,0,0,0,0,-1,825,820,0,0
-392,204,0,0,0,0,0,0,0,0,0,-1,832,820,0,0
-385,204,0,0,0,0,0,0,0,0,0,-1,839,820,0,0
-378,204,0,0,0,0,0,0,0,0,0,-1,846,820,0,0
-371,204,0,0,0,0,0,0,0,0,0,-1,853,820,0,0
-364,204,0,0,0,0,0,0,0,0,0,-1,860,820,0,0
-357,204,0,0,0,0,0,0,0,0,0,-1,867,820,0,0
-350,204,0,0,0,0,0,0,0,0,0,-1,874,820,0,0
-343,204,0,0,0,0,0,0,0,0,0,-1,881,820,0,0
-336,204,0,0,0,0,0,0,0,0,0,-1,888,820,0,0
-329,204,0,0,0,0,0,0,0,0,0,-1,895,820,0,0
-322,204,0,0,0,0,0,0,0,0,0,-1,902,820,0,0
-315,204,0,0,0,0,0,0,0,0,0,-1,909,820,0,0
-308,204,0,0,0,0,0,0,0,0,0,-1,916,820,0,0
-301,204,0,0,0,0,0,0,0,0,0,-1,923,820,0,0
-294,204,0,0,0,0,0,0,0,0,0,-1,930,820,0,0
-287,204,0,0,0,0,0,0,0,0,0,-1,937,820,0,0
-280,204,0,0,0,0,0,0,0,0,0,-1,944,820,0,0
-273,204,0,0,0,0,0,0,0,0,0,-1,951,820,0,0
-266,204,0,0,0,0,0,0,0,0,0,-1,958,820,0,0
-259,204,0,0,0,0,0,0,0,0,0,-1,965,820,0,0
-252,204,0,0,0,0,0,0,0,0,0,-1,972,820,0,0
-245,204,0,0,0,0,0,0,0,0,0,-1,979,820,0,0
-238,204,0,0,0,0,0,0,0,0,0,-1,986,820,0,0
-231,204,0,0,0,0,0,0,0,0,0,-1,993,820,0,0
-224,204,0,0,0,0,0,0,0,0,0,-1,1000,820,0,0
-217,204,0,0,0,0,0,0,0,0,0,-1,1007,820,0,0
-210,204,0,0,0,0,0,0,0,0,0,-1,1014,820,0,0
-203,204,0,0,0,0,0,0,0,0,0,-1,1021,820,0,0
-196,204,0,0,0,0,0,0,0,0,0,-1,1028,820,0,0
-189,204,0,0,0,0,0,0,0,0,0,-1,1035,820,0,0
-182,204,0,0,0,0,0,0,0,0,0,-1,1042,820,0,0
-175,204,0,0,0,0,0,0,0,0,0,-1,1049,820,0,0
-168,204,0,0,0,0,0,0,0,0,0,-1,1056,820,0,0
-161,204,0,0,0,0,0,0,0,0,0,-1,1063,820,0,0
-154,204,0,0,0,0,0,0,0,0,0,-1,1070,820,0,0
-147,204,0,0,0,0,0,0,0,0,0,-1,1077,820,0,0
-140,204,0,0,0,0,0,0,0,0,0,-1,1084,820,0,0
-133,204,0,0,0,0,0,0,0,0,0,-1,1091,820,0,0
-126,204,0,0,0,0,0,0,0,0,0,-1,1098,820,0,0
-119,204,0,0,0,0,0,0,0,0,0,-1,1105,820,0,0
-112,204,0,0,0,0,0,0,0,0,0,-1,1112,820,0,0
-105,204,0,0,0,0,0,0,0,0,0,-1,1119,820,0,0
-98,204,0,0,0,0,0,0,0,0,0,-1,1126,820,0,0
-91,204,0,0,0,0,0,0,0,0,0,-1,1133,820,0,0
-84,204,0,0,0,0,0,0,0,0,0,-1,1140,820,0,0
-77,204,0,0,0,0,0,0,0,0,0,-1,1147,820,0,0
-70,204,0,0,0,0,0,0,0,0,0,-1,1154,820,0,0
-63,204,0,0,0,0,0,0,0,0,0,-1,1161,820,0,0
-56,204,0,0,0,0,0,0,0,0,0,-1,1168,820,0,0
-49,204,0,0,0,0,0,0,0,0,0,-1,1175,820,0,0
-42,204,0,0,0,0,0,0,0,0,0,-1,1182,820,0,0
-35,204,0,0,0,0,0,0,0,0,0,-1,1189,820,0,0
-28,204,0,0,0,0,0,0,0,0,0,-1,1196,820,0,0
-21,204,0,0,0,0,0,0,0,0,0,-1,1203,820,0,0
-14,204,0,0,0,0,0,0,0,0,0,-1,1210,820,0,0
-7,204,0,0,0,0,0,0,0,0,0,-1,1217,820,0,0
0,204,0,0,0,0,0,0,0,0,0,-1,1224,820,0,0
7,204,0,0,0,0,0,0,0,0,0,-1,1231,820,0,0
14,204,0,0,0,0,0,0,0,0,0,-1,1238,820,0,0
21,204,0,0,0,0,0,0,0,0,0,-1,1245,820,0,0
28,204,0,0,0,0,0,0,0,0,0,-1,1252,820,0,0
35,204,0,0,0,0,0,0,0,0,0,-1,1259,820,0,0
42,204,0,0,0,0,0,0,0,0,0,-1,1266,820,0,0
49,204,0,0,0,0,0,0,0,0,0,-1,1273,820,0,0
56,204,0,0,0,0,0,0,0,0,0,-1,1280,820,0,0
63,204,0,0,0,0,0,0,0,0,0,-1,1287,820,0,0
70,204,0,0,0,0,0,0,0,0,0,-1,1294,820,0,0
77,204,0,0,0,0,0,0,0,0,0,-1,1301,820,0,0
84,204,0,0,0,0,0,0,0,0,0,-1,1308,820,0,0
91,204,0,0,0,0,0,0,0,0,0,-1,1315,820,0,0
98,204,0,0,0,0,0,0,0,0,0,-1,1322,820,0,0
105,204,0,0,0,0,0,0,0,0,0,-1,1329,820,0,0
112,204,0,0,0,0,0,0,0,0,0,-1,1336,820,0,0
119,204,0,0,0,0,0,0,0,0,0,-1,1343,820,0,0
126,204,0,0,0,0,0,0,0,0,0,-1,1350,820,0,0
133,204,0,0,0,0,0,0,0,0,0,-1,1357,820,0,0
140,204,0,0,0,0,0,0,0,0,0,-1,1364,820,0,0
147,204,0,0,0,0,0,0,0,0,0,-1,1371,820,0,0
154,204,0,0,0,0,0,0,0,0,0,-1,1378,820,0,0
161,204,0,0,0,0,0,0,0,0,0,-1,1385,820,0,0
168,204,0,0,0,0,0,0,0,0,0,-1,1392,820,0,0
175,204,0,0,0,0,0,0,0,0,0,-1,1399,820,0,0
182,204,0,0,0,0,0,0,0,0,0,-1,1406,820,0,0
189,204,0,0,0,0,0,0,0,0,0,-1,1413,820,0,0
196,204,0,0,0,0,0,0,0,0,0,-1,1420,820,0,0
203,204,0,0,0,0,0,0,0,0,0,-1,1427,820,0,0
210,204,0,0,0,0,0,0,0,0,0,-1,1434,820,0,0
217,204,0,0,0,0,0,0,0,0,0,-1,1441,820,0,0
224,204,0,0,0,0,0,0,0,0,0,-1,1448,820,0,0
231,204,0,0,0,0,0,0,0,0,0,-1,1455,820,0,0
238,204,0,0,0,0,0,0,0,0,0,-1,1462,820,0,0
245,204,0,0,0,0,0,0,0,0,0,-1,1469,820,0,0
252,204,0,0,0,0,0,0,0,0,0,-1,1476,820,0,0
259,204,0,0,0,0,0,0,0,0,0,-1,1483,820,0,0
266,204,0,0,0,0,0,0,0,0,0,-1,1490,820,0,0
273,204,0,0,0,0,0,0,0,0,0,-1,1497,820,0,0
280,204,0,0,0,0,0,0,0,0,0,-1,1504,820,0,0
287,204,0,0,0,0,0,0,0,0,0,-1,1511,820,0,0
294,204,0,0,0,0,0,0,0,0,0,-1,1518,820,0,0
301,204,0,0,0,0,0,0,0,0,0,-1,1525,820,0,0
308,204,0,0,0,0,0,0,0,0,0,-1,1532,820,0,0
315,204,0,0,0,0,0,0,0,0,0,-1,1539,820,0,0
322,204,0,0,0,0,0,0,0,0,0,-1,1546,820,0,0
329,204,0,0,0,0,0,0,0,0,0,-1,1553,820,0,0
336,204,0,0,0,0,0,0,0,0,0,-1,1560,820,0,0
343,204,0,0,0,0,0,0,0,0,0,-1,1567,820,0,0
350,204,0,0,0,0,0,0,0,0,0,-1,1574,820,0,0
357,204,0,0,0,0,0,0,0,0,0,-1,1581,820,0,0
364,204,0,0,0,0,0,0,0,0,0,-1,1588,820,0,0
371,204,0,0,0,0,0,0,0,0,0,-1,1595,820,0,0
378,204,0,0,0,0,0,0,0,0,0,-1,1602,820,0,0
385,204,0,0,0,0,0,0,0,0,0,-1,1609,820,0,0
392,204,0,0,0,0,0,0,0,0,0,-1,1616,820,0,0
399,204,0,0,0,0,0,0,0,0,0,-1,1623,820,0,0
406,204,0,0,0,0,0,0,0,0,0,-1,1630,820,0,0
413,204,0,0,0,0,0,0,0,0,0,-1,1637,820,0,0
420,204,0,0,0,0,0,0,0,0,0,-1,1644,820,0,0
427,204,0,0,0,0,0,0,0,0,0,-1,1651,820,0,0
434,204,0,0,0,0,0,0,0,0,0,-1,1658,820,0,0
441,204,0,0,0,0,0,0,0,0,0,-1,1665,820,0,0
448,204,0,0,0,0,0,0,0,0,0,-1,1672,820,0,0
455,204,0,0,0,0,0,0,0,0,0,-1,1679,820,0,0
462,204,0,0,0,0,0,0,0,0,0,-1,1686,820,0,0
469,204,0,0,0,0,0,0,0,0,0,-1,1693,820,0,0
476,204,0,0,0,0,0,0,0,0,0,-1,1700,820,0,0
483,204,0,0,0,0,0,0,0,0,0,-1,1707,820,0,0
490,204,0,0,0,0,0,0,0,0,0,-1,1714,820,0,0
497,204,0,0,0,0,0,0,0,0,0,-1,1721,820,0,0
504,204,0,0,0,0,0,0,0,0,0,-1,1728,820,0,0
511,204,0,0,0,0,0,0,0,0,0,-1,1735,820,0,0
518,204,0,0,0,0,0,0,0,0,0,-1,1742,820,0,0
525,204,0,0,0,0,0,0,0,0,0,-1,1749,820,0,0
532,204,0,0,0,0,0,0,0,0,0,-1,1756,820,0,0
539,204,0,0,0,0,0,0,0,0,0,-1,1763,820,0,0
546,204,0,0,0,0,0,0,0,0,0,-1,1770,820,0,0
553,204,0,0,0,0,0,0,0,0,0,-1,1777,820,0,0
560,204,0,0,0,0,0,0,0,0,0,-1,1784,820,0,0
567,204,0,0,0,0,0,0,0,0,0,-1,1791,820,0,0
574,204,0,0,0,0,0,0,0,0,0,-1,1798,820,0,0
581,204,0,0,0,0,0,0,0,0,0,-1,1805,820,0,0
588,204,0,0,0,0,0,0,0,0,0,-1,1812,820,0,0
595,204,0,0,0,0,0,0,0,0,0,-1,1819,820,0,0
602,204,215.413,8.71802,0,0,0,0,0,0,0,-1,1826,820,215.413,-8.71802
609,204,215.32,8.78894,0,0,0,0,0,0,0,-1,1833,820,215.32,-8.78893
616,204,215.414,8.74927,0,0,0,0,0,0,0,-1,1840,820,215.414,-8.74928
623,204,215.412,8.84283,0,0,0,0,0,0,0,-1,1847,820,215.412,-8.84285
630,204,215.33,8.78619,0,0,0,0,0,0,0,-1,1854,820,215.33,-8.7862
637,204,215.282,8.68854,0,0,0,0,0,0,0,-1,1861,820,215.282,-8.68851
644,204,80.9747,2.19354,0,0,0,0,0,0,0,-1,1868,820,80.9747,-2.19357
651,204,53.7611,2.32251,0,0,0,0,0,0,0,-1,1875,820,53.7611,-2.32249
658,204,34.9631,1.64844,0,0,0,0,0,0,0,-1,1882,820,34.9631,-1.64842
665,204,21.8292,1.51099,0,0,0,0,0,0,0,-1,1889,820,21.8292,-1.51099
672,204,76.1548,-2.67474,0,0,0,0,0,0,0,-1,1896,820,76.1548,2.67474
679,204,181.907,16.5512,0,0,0,0,0,0,0,-1,1903,820,181.907,-16.5512
686,204,181.719,18.3383,0,0,0,0,0,0,0,-1,1910,820,181.719,-18.3382
693,204,181.098,20.3934,0,0,0,0,0,0,0,-1,1917,820,181.098,-20.3934
700,204,180.612,22.5752,-0.00753139,0.0187943,-0.00968797,0.0219752,-0.0107123,-1.25355,0.0192419,0.0245239,1924,820,180.612,-22.5752
707,204,180.49,24.6619,-0.00959444,0.024692,-0.0136852,0.0294845,-0.0143869,-1.23395,0.0258243,0.0222329,1931,820,180.49,-24.6619
714,204,180.053,26.6704,-0.0118565,0.0305315,-0.0176631,0.0369268,-0.0182519,-1.22341,0.0324599,0.0398152,1938,820,180.053,-26.6704
721,204,179.656,28.6461,0,0,0,0,0,0,0,-1,1945,820,179.656,-28.6461
728,204,179.332,30.4136,0,0,0,0,0,0,0,-1,1952,820,179.332,-30.4136
735,204,178.832,32.1878,0,0,0,0,0,0,0,-1,1959,820,178.832,-32.1878
742,204,178.613,33.7984,0,0,0,0,0,0,0,-1,1966,820,178.613,-33.7984
749,204,101.314,18.9936,0,0,0,0,0,0,0,-1,1973,820,101.314,-18.9936
756,204,92.436,17.8448,0,0,0,0,0,0,0,-1,1980,820,92.436,-17.8448
763,204,100.431,20.1368,0,0,0,0,0,0,0,-1,1987,820,100.431,-20.1368
770,204,81.447,15.5807,0,0,0,0,0,0,0,-1,1994,820,81.4469,-15.5807
777,204,0,0,0,0,0,0,0,0,0,-1,2001,820,0,0
784,204,0,0,0,0,0,0,0,0,0,-1,2008,820,0,0
791,204,0,0,0,0,0,0,0,0,0,-1,2015,820,0,0
798,204,0,0,0,0,0,0,0,0,0,-1,2022,820,0,0
805,204,0,0,0,0,0,0,0,0,0,-1,2029,820,0,0
812,204,0,0,0,0,0,0,0,0,0,-1,2036,820,0,0
-700,197,0,0,0,0,0,0,0,0,0,-1,524,827,0,0
-693,197,0,0,0,0,0,0,0,0,0,-1,531,827,0,0
-686,197,0,0,0,0,0,0,0,0,0,-1,538,827,0,0
-679,197,0,0,0,0,0,0,0,0,0,-1,545,827,0,0
-672,197,0,0,0,0,0,0,0,0,0,-1,552,827,0,0
-665,197,0,0,0,0,0,0,0,0,0,-1,559,827,0,0
-658,197,-39.9774,5.66638,0,0,0,0,0,0,0,-1,566,827,-39.9774,-5.66637
-651,197,-39.9665,5.23578,0,0,0,0,0,0,0,-1,573,827,-39.9665,-5.23575
-644,197,-38.9225,4.75665,0,0,0,0,0,0,0,-1,580,827,-38.9225,-4.75665
-637,197,-45.2572,7.41498,0,0,0,0,0,0,0,-1,587,827,-45.2572,-7.415
-630,197,-40.4908,2.45648,0,0,0,0,0,0,0,-1,594,827,-40.4908,-2.45649
-623,197,-74.227,17.6605,0,0,0,0,0,0,0,-1,601,827,-74.227,-17.6605
-616,197,-172.007,35.1002,0,0,0,0,0,0,0,-1,608,827,-172.007,-35.1001
-609,197,-172.036,33.5213,-0.00449596,0.0569245,0.0179557,0.0617885,-0.00935994,1.30626,0.0446406,0.0483458,615,827,-172.036,-33.5213
-602,197,-172.28,31.9111,-0.00570699,0.0502486,0.0173054,0.0551681,-0.0106265,1.29383,0.040785,0.0311073,622,827,-172.28,-31.9112
-595,197,-172.689,30.217,-0.00561288,0.0437239,0.0160976,0.0485117,-0.0104006,1.28171,0.036308,0.0284158,629,827,-172.689,-30.217
-588,197,-173.155,28.3492,-0.00452996,0.0374787,0.0145667,0.0420355,-0.00908672,1.26762,0.0314926,0.0294334,636,827,-173.155,-28.3492
-581,197,-173.41,26.3583,-0.00286631,0.0315843,0.0127064,0.0357638,-0.00704575,1.25302,0.0265051,0.0218333,643,827,-173.41,-26.3583
-574,197,-173.743,24.4241,-0.000735548,0.0260571,0.0106153,0.0297531,-0.00443148,1.23575,0.0214656,0.0231529,650,827,-173.744,-24.4242
-567,197,-174,22.5776,0.00188745,0.0209858,0.00813106,0.0239786,-0.00110534,1.21812,0.0163666,0.0319395,657,827,-174,-22.5776
-560,197,-173.979,20.2966,0.00460268,0.0164291,0.0054108,0.018531,0.00250072,1.20027,0.0116106,0.0407772,664,827,-173.98,-20.2966
-553,197,-174.734,18.3933,0,0,0,0,0,0,0,-1,671,827,-174.734,-18.3933
-546,197,-175.338,16.6265,0,0,0,0,0,0,0,-1,678,827,-175.338,-16.6264
-539,197,-32.8993,-2.61737,0,0,0,0,0,0,0,-1,685,827,-32.8993,2.61737
-532,197,-16.0519,0.0410156,0,0,0,0,0,0,0,-1,692,827,-16.0519,-0.0410415
-525,197,-35.3785,2.11829,0,0,0,0,0,0,0,-1,699,827,-35.3785,-2.11826
-518,197,-57.6698,0.308533,0,0,0,0,0,0,0,-1,706,827,-57.6698,-0.308561
-511,197,-72.6749,0.492554,0,0,0,0,0,0,0,-1,713,827,-72.6749,-0.492524
-504,197,-71.1552,0.703064,0,0,0,0,0,0,0,-1,720,827,-71.1552,-0.703067
-497,197,-71.2643,0.608765,0,0,0,0,0,0,0,-1,727,827,-71.2643,-0.608793
-490,197,-71.2889,0.46698,0,0,0,0,0,0,0,-1,734,827,-71.2889,-0.466976
-483,197,-71.1486,0.482544,0,0,0,0,0,0,0,-1,741,827,-71.1485,-0.482525
-476,197,0,0,0,0,0,0,0,0,0,-1,748,827,0,0
-469,197,0,0,0,0,0,0,0,0,0,-1,755,827,0,0
-462,197,0,0,0,0,0,0,0,0,0,-1,762,827,0,0
-455,197,0,0,0,0,0,0,0,0,0,-1,769,827,0,0
-448,197,0,0,0,0,0,0,0,0,0,-1,776,827,0,0
-441,197,0,0,0,0,0,0,0,0,0,-1,783,827,0,0
-434,197,0,0,0,0,0,0,0,0,0,-1,790,827,0,0
-427,197,0,0,0,0,0,0,0,0,0,-1,797,827,0,0
-420,197,0,0,0,0,0,0,0,0,0,-1,804,827,0,0
-413,197,0,0,0,0,0,0,0,0,0,-1,811,827,0,0
-406,197,0,0,0,0,0,0,0,0,0,-1,818,827,0,0
-399,197,0,0,0,0,0,0,0,0,0,-1,825,827,0,0
-392,197,0,0,0,0,0,0,0,0,0,-1,832,827,0,0
-385,197,0,0,0,0,0,0,0,0,0,-1,839,827,0,0
-378,197,0,0,0,0,0,0,0,0,0,-1,846,827,0,0
-371,197,0,0,0,0,0,0,0,0,0,-1,853,827,0,0
-364,197,0,0,0,0,0,0,0,0,0,-1,860,827,0,0
-357,197,0,0,0,0,0,0,0,0,0,-1,867,827,0,0
-350,197,0,0,0,0,0,0,0,0,0,-1,874,827,0,0
-343,197,0,0,0,0,0,0,0,0,0,-1,881,827,0,0
-336,197,0,0,0,0,0,0,0,0,0,-1,888,827,0,0
-329,197,0,0,0,0,0,0,0,0,0,-1,895,827,0,0
-322,197,0,0,0,0,0,0,0,0,0,-1,902,827,0,0
-315,197,0,0,0,0,0,0,0,0,0,-1,909,827,0,0
-308,197,0,0,0,0,0,0,0,0,0,-1,916,827,0,0
-301,197,0,0,0,0,0,0,0,0,0,-1,923,827,0,0
-294,197,0,0,0,0,0,0,0,0,0,-1,930,827,0,0
-287,197,0,0,0,0,0,0,0,0,0,-1,937,827,0,0
-280,197,0,0,0,0,0,0,0,0,0,-1,944,827,0,0
-273,197,0,0,0,0,0,0,0,0,0,-1,951,827,0,0
-266,197,0,0,0,0,0,0,0,0,0,-1,958,827,0,0
-259,197,0,0,0,0,0,0,0,0,0,-1,965,827,0,0
-252,197,0,0,0,0,0,0,0,0,0,-1,972,827,0,0
-245,197,0,0,0,0,0,0,0,0,0,-1,979,827,0,0
-238,197,0,0,0,0,0,0,0,0,0,-1,986,827,0,0
-231,197,0,0,0,0,0,0,0,0,0,-1,993,827,0,0
-224,197,0,0,0,0,0,0,0,0,0,-1,1000,827,0,0
-217,197,0,0,0,0,0,0,0,0,0,-1,1007,827,0,0
-210,197,0,0,0,0,0,0,0,0,0,-1,1014,827,0,0
-203,197,0,0,0,0,0,0,0,0,0,-1,1021,827,0,0
-196,197,0,0,0,0,0,0,0,0,0,-1,1028,827,0,0
-189,197,0,0,0,0,0,0,0,0,0,-1,1035,827,0,0
-182,197,0,0,0,0,0,0,0,0,0,-1,1042,827,0,0
-175,197,0,0,0,0,0,0,0,0,0,-1,1049,827,0,0
-168,197,0,0,0,0,0,0,0,0,0,-1,1056,827,0,0
-161,197,0,0,0,0,0,0,0,0,0,-1,1063,827,0,0
-154,197,0,0,0,0,0,0,0,0,0,-1,1070,827,0,0
-147,197,0,0,0,0,0,0,0,0,0,-1,1077,827,0,0
-140,197,0,0,0,0,0,0,0,0,0,-1,1084,827,0,0
-133,197,0,0,0,0,0,0,0,0,0,-1,1091,827,0,0
-126,197,0,0,0,0,0,0,0,0,0,-1,1098,827,0,0
-119,197,0,0,0,0,0,0,0,0,0,-1,1105,827,0,0
-112,197,0,0,0,0,0,0,0,0,0,-1,1112,827,0,0
-105,197,0,0,0,0,0,0,0,0,0,-1,1119,827,0,0
-98,197,0,0,0,0,0,0,0,0,0,-1,1126,827,0,0
-91,197,0,0,0,0,0,0,0,0,0,-1,1133,827,0,0
-84,197,0,0,0,0,0,0,0,0,0,-1,1140,827,0,0
-77,197,0,0,0,0,0,0,0,0,0,-1,1147,827,0,0
-70,197,0,0,0,0,0,0,0,0,0,-1,1154,827,0,0
-63,197,0,0,0,0,0,0,0,0,0,-1,1161,827,0,0
-56,197,0,0,0,0,0,0,0,0,0,-1,1168,827,0,0
-49,197,0,0,0,0,0,0,0,0,0,-1,1175,827,0,0
-42,197,0,0,0,0,0,0,0,0,0,-1,1182,827,0,0
-35,197,0,0,0,0,0,0,0,0,0,-1,1189,827,0,0
-28,197,0,0,0,0,0,0,0,0,0,-1,1196,827,0,0
-21,197,0,0,0,0,0,0,0,0,0,-1,1203,827,0,0
-14,197,0,0,0,0,0,0,0,0,0,-1,1210,827,0,0
-7,197,0,0,0,0,0,0,0,0,0,-1,1217,827,0,0
0,197,0,0,0,0,0,0,0,0,0,-1,1224,827,0,0
7,197,0,0,0,0,0,0,0,0,0,-1,1231,827,0,0
14,197,0,0,0,0,0,0,0,0,0,-1,1238,827,0,0
21,197,0,0,0,0,0,0,0,0,0,-1,1245,827,0,0
28,197,0,0,0,0,0,0,0,0,0,-1,1252,827,0,0
35,197,0,0,0,0,0,0,0,0,0,-1,1259,827,0,0
42,197,0,0,0,0,0,0,0,0,0,-1,1266,827,0,0
49,197,0,0,0,0,0,0,0,0,0,-1,1273,827,0,0
56,197,0,0,0,0,0,0,0,0,0,-1,1280,827,0,0
63,197,0,0,0,0,0,0,0,0,0,-1,1287,827,0,0
70,197,0,0,0,0,0,0,0,0,0,-1,1294,827,0,0
77,197,0,0,0,0,0,0,0,0,0,-1,1301,827,0,0
84,197,0,0,0,0,0,0,0,0,0,-1,1308,827,0,0
91,197,0,0,0,0,0,0,0,0,0,-1,1315,827,0,0
98,197,0,0,0,0,0,0,0,0,0,-1,1322,827,0,0
105,197,0,0,0,0,0,0,0,0,0,-1,1329,827,0,0
112,197,0,0,0,0,0,0,0,0,0,-1,1336,827,0,0
119,197,0,0,0,0,0,0,0,0,0,-1,1343,827,0,0
126,197,0,0,0,0,0,0,0,0,0,-1,1350,827,0,0
133,197,0,0,0,0,0,0,0,0,0,-1,1357,827,0,0
140,197,0,0,0,0,0,0,0,0,0,-1,1364,827,0,0
147,197,0,0,0,0,0,0,0,0,0,-1,1371,827,0,0
154,197,0,0,0,0,0,0,0,0,0,-1,1378,827,0,0
161,197,0,0,0,0,0,0,0,0,0,-1,1385,827,0,0
168,197,0,0,0,0,0,0,0,0,0,-1,1392,827,0,0
175,197,0,0,0,0,0,0,0,0,0,-1,1399,827,0,0
182,197,0,0,0,0,0,0,0,0,0,-1,1406,827,0,0
189,197,0,0,0,0,0,0,0,0,0,-1,1413,827,0,0
196,197,0,0,0,0,0,0,0,0,0,-1,1420,827,0,0
203,197,0,0,0,0,0,0,0,0,0,-1,1427,827,0,0
210,197,0,0,0,0,0,0,0,0,0,-1,1434,827,0,0
217,197,0,0,0,0,0,0,0,0,0,-1,1441,827,0,0
224,197,0,0,0,0,0,0,0,0,0,-1,1448,827,0,0
231,197,0,0,0,0,0,0,0,0,0,-1,1455,827,0,0
238,197,0,0,0,0,0,0,0,0,0,-1,1462,827,0,0
245,197,0,0,0,0,0,0,0,0,0,-1,1469,827,0,0
252,197,0,0,0,0,0,0,0,0,0,-1,1476,827,0,0
259,197,0,0,0,0,0,0,0,0,0,-1,1483,827,0,0
266,197,0,0,0,0,0,0,0,0,0,-1,1490,827,0,0
273,197,0,0,0,0,0,0,0,0,0,-1,1497,827,0,0
280,197,0,0,0,0,0,0,0,0,0,-1,1504,827,0,0
287,197,0,0,0,0,0,0,0,0,0,-1,1511,827,0,0
294,197,0,0,0,0,0,0,0,0,0,-1,1518,827,0,0
301,197,0,0,0,0,0,0,0,0,0,-1,1525,827,0,0
308,197,0,0,0,0,0,0,0,0,0,-1,1532,827,0,0
315,197,0,0,0,0,0,0,0,0,0,-1,1539,827,0,0
322,197,0,0,0,0,0,0,0,0,0,-1,1546,827,0,0
329,197,0,0,0,0,0,0,0,0,0,-1,1553,827,0,0
336,197,0,0,0,0,0,0,0,0,0,-1,1560,827,0,0
343,197,0,0,0,0,0,0,0,0,0,-1,1567,827,0,0
350,197,0,0,0,0,0,0,0,0,0,-1,1574,827,0,0
357,197,0,0,0,0,0,0,0,0,0,-1,1581,827,0,0
364,197,0,0,0,0,0,0,0,0,0,-1,1588,827,0,0
371,197,0,0,0,0,0,0,0,0,0,-1,1595,827,0,0
378,197,0,0,0,0,0,0,0,0,0,-1,1602,827,0,0
385,197,0,0,0,0,0,0,0,0,0,-1,1609,827,0,0
392,197,0,0,0,0,0,0,0,0,0,-1,1616,827,0,0
399,197,0,0,0,0,0,0,0,0,0,-1,1623,827,0,0
406,197,0,0,0,0,0,0,0,0,0,-1,1630,827,0,0
413,197,0,0,0,0,0,0,0,0,0,-1,1637,827,0,0
420,197,0,0,0,0,0,0,0,0,0,-1,1644,827,0,0
427,197,0,0,0,0,0,0,0,0,0,-1,1651,827,0,0
434,197,0,0,0,0,0,0,0,0,0,-1,1658,827,0,0
441,197,0,0,0,0,0,0,0,0,0,-1,1665,827,0,0
448,197,0,0,0,0,0,0,0,0,0,-1,1672,827,0,0
455,197,0,0,0,0,0,0,0,0,0,-1,1679,827,0,0
462,197,0,0,0,0,0,0,0,0,0,-1,1686,827,0,0
469,197,0,0,0,0,0,0,0,0,0,-1,1693,827,0,0
476,197,0,0,0,0,0,0,0,0,0,-1,1700,827,0,0
483,197,0,0,0,0,0,0,0,0,0,-1,1707,827,0,0
490,197,0,0,0,0,0,0,0,0,0,-1,1714,827,0,0
497,197,0,0,0,0,0,0,0,0,0,-1,1721,827,0,0
504,197,0,0,0,0,0,0,0,0,0,-1,1728,827,0,0
511,197,0,0,0,0,0,0,0,0,0,-1,1735,827,0,0
518,197,0,0,0,0,0,0,0,0,0,-1,1742,827,0,0
525,197,0,0,0,0,0,0,0,0,0,-1,1749,827,0,0
532,197,0,0,0,0,0,0,0,0,0,-1,1756,827,0,0
539,197,0,0,0,0,0,0,0,0,0,-1,1763,827,0,0
546,197,0,0,0,0,0,0,0,0,0,-1,1770,827,0,0
553,197,0,0,0,0,0,0,0,0,0,-1,1777,827,0,0
560,197,0,0,0,0,0,0,0,0,0,-1,1784,827,0,0
567,197,0,0,0,0,0,0,0,0,0,-1,1791,827,0,0
574,197,0,0,0,0,0,0,0,0,0,-1,1798,827,0,0
581,197,0,0,0,0,0,0,0,0,0,-1,1805,827,0,0
588,197,0,0,0,0,0,0,0,0,0,-1,1812,827,0,0
595,197,0,0,0,0,0,0,0,0,0,-1,1819,827,0,0
602,197,215.4,8.68518,0,0,0,0,0,0,0,-1,1826,827,215.4,-8.68518
609,197,215.305,8.61279,0,0,0,0,0,0,0,-1,1833,827,215.305,-8.61282
616,197,215.366,8.73773,0,0,0,0,0,0,0,-1,1840,827,215.366,-8.73774
623,197,215.236,8.89813,0,0,0,0,0,0,0,-1,1847,827,215.236,-8.89813
630,197,215.32,8.67145,0,0,0,0,0,0,0,-1,1854,827,215.32,-8.67144
637,197,215.313,8.59283,0,0,0,0,0,0,0,-1,1861,827,215.312,-8.59281
644,197,215.288,8.58228,0,0,0,0,0,0,0,-1,1868,827,215.288,-8.58227
651,197,73.8147,2.2644,0,0,0,0,0,0,0,-1,1875,827,73.8147,-2.26442
658,197,40.4694,3.05927,0,0,0,0,0,0,0,-1,1882,827,40.4694,-3.05926
665,197,14.0618,1.80304,0,0,0,0,0,0,0,-1,1889,827,14.0617,-1.80303
672,197,73.9781,-2.86737,0,0,0,0,0,0,0,-1,1896,827,73.9782,2.86738
679,197,184.284,16.8443,0,0,0,0,0,0,0,-1,1903,827,184.284,-16.8443
686,197,183.788,18.7706,0,0,0,0,0,0,0,-1,1910,827,183.788,-18.7706
693,197,183.46,21.0064,0,0,0,0,0,0,0,-1,1917,827,183.46,-21.0064
700,197,182.708,22.6719,0,0,0,0,0,0,0,-1,1924,827,182.708,-22.6719
707,197,182.597,24.7957,-0.00903967,0.0224244,-0.0116069,0.0262427,-0.012858,-1.25298,0.0230115,0.0141387,1931,827,182.597,-24.7957
714,197,182.289,26.6991,-0.0114214,0.0284319,-0.0153851,0.03368,-0.0166696,-1.24205,0.0296172,0.0185675,1938,827,182.289,-26.6991
721,197,181.875,28.6104,-0.0139226,0.0343328,-0.0192053,0.0410433,-0.020633,-1.23465,0.0362529,0.0205547,1945,827,181.875,-28.6104
728,197,181.551,30.3875,-0.0164587,0.0401292,-0.0230846,0.0483516,-0.0246811,-1.22862,0.0428973,0.0203438,1952,827,181.551,-30.3875
735,197,181.252,32.0941,-0.0189334,0.0458281,-0.0270305,0.0556274,-0.0287328,-1.223,0.0495236,0.0313087,1959,827,181.252,-32.0941
742,197,180.918,33.7972,-0.0212468,0.0514516,-0.0310267,0.0628927,-0.0326879,-1.21751,0.0560945,0.0445449,1966,827,180.918,-33.7973
749,197,180.687,35.5045,0,0,0,0,0,0,0,-1,1973,827,180.687,-35.5045
756,197,121.426,24.1558,0,0,0,0,0,0,0,-1,1980,827,121.426,-24.1558
763,197,104.387,22.0678,0,0,0,0,0,0,0,-1,1987,827,104.387,-22.0678
770,197,101.281,21.3771,0,0,0,0,0,0,0,-1,1994,827,101.281,-21.3772
777,197,0,0,0,0,0,0,0,0,0,-1,2001,827,0,0
784,197,0,0,0,0,0,0,0,0,0,-1,2008,827,0,0
791,197,0,0,0,0,0,0,0,0,0,-1,2015,827,0,0
798,197,0,0,0,0,0,0,0,0,0,-1,2022,827,0,0
805,197,0,0,0,0,0,0,0,0,0,-1,2029,827,0,0
812,197,0,0,0,0,0,0,0,0,0,-1,2036,827,0,0
-700,190,0,0,0,0,0,0,0,0,0,-1,524,834,0,0
-693,190,0,0,0,0,0,0,0,0,0,-1,531,834,0,0
-686,190,0,0,0,0,0,0,0,0,0,-1,538,834,0,0
-679,190,0,0,0,0,0,0,0,0,0,-1,545,834,0,0
-672,190,0,0,0,0,0,0,0,0,0,-1,552,834,0,0
-665,190,0,0,0,0,0,0,0,0,0,-1,559,834,0,0
-658,190,-41.9736,5.50092,0,0,0,0,0,0,0,-1,566,834,-41.9736,-5.50089
-651,190,-40.1895,4.99677,0,0,0,0,0,0,0,-1,573,834,-40.1894,-4.99677
-644,190,-106.669,29.3985,0,0,0,0,0,0,0,-1,580,834,-106.669,-29.3985
-637,190,-64.9345,16.5327,0,0,0,0,0,0,0,-1,587,834,-64.9345,-16.5327
-630,190,-50.036,11.1152,0,0,0,0,0,0,0,-1,594,834,-50.036,-11.1152
-623,190,-175.305,36.3337,0,0,0,0,0,0,0,-1,601,834,-175.305,-36.3337
-616,190,-161.076,34.4747,0,0,0,0,0,0,0,-1,608,834,-161.076,-34.4747
-609,190,-174.037,33.5488,0,0,0,0,0,0,0,-1,615,834,-174.037,-33.5488
-602,190,-174.461,32.0272,-0.00457334,0.0474462,0.0157277,0.0518316,-0.00895877,1.29887,0.0378953,0.0354676,622,834,-174.461,-32.0272
-595,190,-174.964,30.1682,-0.0049105,0.041121,0.0147426,0.0454378,-0.00922729,1.28595,0.0337902,0.0260407,629,834,-174.964,-30.1682
-588,190,-175.307,28.3289,-0.00405593,0.0350059,0.0133854,0.0391525,-0.00820254,1.27039,0.0292221,0.0259029,636,834,-175.307,-28.3289
-581,190,-175.551,26.4556,-0.00231232,0.0291867,0.0116914,0.0330519,-0.00617752,1.25151,0.0243563,0.0207936,643,834,-175.551,-26.4556
-574,190,-175.832,24.5944,0.000144803,0.0236998,0.00975225,0.0272133,-0.00336874,1.22499,0.0193631,0.0208499,650,834,-175.832,-24.5944
-567,190,-176.01,22.4884,0.00368123,0.0185993,0.00727189,0.0215574,0.000723085,1.18445,0.0141367,0.0326855,657,834,-176.01,-22.4884
-560,190,-176.118,20.5269,0.00759868,0.0139524,0.00465075,0.0164078,0.00514333,1.08504,0.00969029,0.0321809,664,834,-176.118,-20.5268
-553,190,-176.584,18.5753,0,0,0,0,0,0,0,-1,671,834,-176.584,-18.5753
-546,190,-81.8255,2.11407,0,0,0,0,0,0,0,-1,678,834,-81.8255,-2.11409
-539,190,-16.4624,-0.542542,0,0,0,0,0,0,0,-1,685,834,-16.4624,0.542527
-532,190,-21.6292,2.06122,0,0,0,0,0,0,0,-1,692,834,-21.6292,-2.06123
-525,190,-38.9377,1.03369,0,0,0,0,0,0,0,-1,699,834,-38.9377,-1.0337
-518,190,-72.4769,0.710876,0,0,0,0,0,0,0,-1,706,834,-72.4768,-0.710856
-511,190,-72.7098,0.459412,0,0,0,0,0,0,0,-1,713,834,-72.7098,-0.459385
-504,190,-72.9623,0.199707,0,0,0,0,0,0,0,-1,720,834,-72.9624,-0.199699
-497,190,-71.3149,0.34845,0,0,0,0,0,0,0,-1,727,834,-71.3149,-0.348457
-490,190,-72.7162,1.22229,0,0,0,0,0,0,0,-1,734,834,-72.7163,-1.22232
-483,190,0,0,0,0,0,0,0,0,0,-1,741,834,0,0
-476,190,0,0,0,0,0,0,0,0,0,-1,748,834,0,0
-469,190,0,0,0,0,0,0,0,0,0,-1,755,834,0,0
-462,190,0,0,0,0,0,0,0,0,0,-1,762,834,0,0
-455,190,0,0,0,0,0,0,0,0,0,-1,769,834,0,0
-448,190,0,0,0,0,0,0,0,0,0,-1,776,834,0,0
-441,190,0,0,0,0,0,0,0,0,0,-1,783,834,0,0
-434,190,0,0,0,0,0,0,0,0,0,-1,790,834,0,0
-427,190,0,0,0,0,0,0,0,0,0,-1,797,834,0,0
-420,190,0,0,0,0,0,0,0,0,0,-1,804,834,0,0
-413,190,0,0,0,0,0,0,0,0,0,-1,811,834,0,0
-406,190,0,0,0,0,0,0,0,0,0,-1,818,834,0,0
-399,190,0,0,0,0,0,0,0,0,0,-1,825,834,0,0
-392,190,0,0,0,0,0,0,0,0,0,-1,832,834,0,0
-385,190,0,0,0,0,0,0,0,0,0,-1,839,834,0,0
-378,190,0,0,0,0,0,0,0,0,0,-1,846,834,0,0
-371,190,0,0,0,0,0,0,0,0,0,-1,853,834,0,0
-364,190,0,0,0,0,0,0,0,0,0,-1,860,834,0,0
-357,190,0,0,0,0,0,0,0,0,0,-1,867,834,0,0
-350,190,0,0,0,0,0,0,0,0,0,-1,874,834,0,0
-343,190,0,0,0,0,0,0,0,0,0,-1,881,834,0,0
-336,190,0,0,0,0,0,0,0,0,0,-1,888,834,0,0
-329,190,0,0,0,0,0,0,0,0,0,-1,895,834,0,0
-322,190,0,0,0,0,0,0,0,0,0,-1,902,834,0,0
-315,190,0,0,0,0,0,0,0,0,0,-1,909,834,0,0
-308,190,0,0,0,0,0,0,0,0,0,-1,916,834,0,0
-301,190,0,0,0,0,0,0,0,0,0,-1,923,834,0,0
-294,190,0,0,0,0,0,0,0,0,0,-1,930,834,0,0
-287,190,0,0,0,0,0,0,0,0,0,-1,937,834,0,0
-280,190,0,0,0,0,0,0,0,0,0,-1,944,834,0,0
-273,190,0,0,0,0,0,0,0,0,0,-1,951,834,0,0
-266,190,0,0,0,0,0,0,0,0,0,-1,958,834,0,0
-259,190,0,0,0,0,0,0,0,0,0,-1,965,834,0,0
-252,190,0,0,0,0,0,0,0,0,0,-1,972,834,0,0
-245,190,0,0,0,0,0,0,0,0,0,-1,979,834,0,0
-238,190,0,0,0,0,0,0,0,0,0,-1,986,834,0,0
-231,190,0,0,0,0,0,0,0,0,0,-1,993,834,0,0
-224,190,0,0,0,0,0,0,0,0,0,-1,1000,834,0,0
-217,190,0,0,0,0,0,0,0,0,0,-1,1007,834,0,0
-210,190,0,0,0,0,0,0,0,0,0,-1,1014,834,0,0
-203,190,0,0,0,0,0,0,0,0,0,-1,1021,834,0,0
-196,190,0,0,0,0,0,0,0,0,0,-1,1028,834,0,0
-189,190,0,0,0,0,0,0,0,0,0,-1,1035,834,0,0
-182,190,0,0,0,0,0,0,0,0,0,-1,1042,834,0,0
-175,190,0,0,0,0,0,0,0,0,0,-1,1049,834,0,0
-168,190,0,0,0,0,0,0,0,0,0,-1,1056,834,0,0
-161,190,0,0,0,0,0,0,0,0,0,-1,1063,834,0,0
-154,190,0,0,0,0,0,0,0,0,0,-1,1070,834,0,0
-147,190,0,0,0,0,0,0,0,0,0,-1,1077,834,0,0
-140,190,0,0,0,0,0,0,0,0,0,-1,1084,834,0,0
-133,190,0,0,0,0,0,0,0,0,0,-1,1091,834,0,0
-126,190,0,0,0,0,0,0,0,0,0,-1,1098,834,0,0
-119,190,0,0,0,0,0,0,0,0,0,-1,1105,834,0,0
-112,190,0,0,0,0,0,0,0,0,0,-1,1112,834,0,0
-105,190,0,0,0,0,0,0,0,0,0,-1,1119,834,0,0
-98,190,0,0,0,0,0,0,0,0,0,-1,1126,834,0,0
-91,190,0,0,0,0,0,0,0,0,0,-1,1133,834,0,0
-84,190,0,0,0,0,0,0,0,0,0,-1,1140,834,0,0
-77,190,0,0,0,0,0,0,0,0,0,-1,1147,834,0,0
-70,190,0,0,0,0,0,0,0,0,0,-1,1154,834,0,0
-63,190,0,0,0,0,0,0,0,0,0,-1,1161,834,0,0
-56,190,0,0,0,0,0,0,0,0,0,-1,1168,834,0,0
-49,190,0,0,0,0,0,0,0,0,0,-1,1175,834,0,0
-42,190,0,0,0,0,0,0,0,0,0,-1,1182,834,0,0
-35,190,0,0,0,0,0,0,0,0,0,-1,1189,834,0,0
-28,190,0,0,0,0,0,0,0,0,0,-1,1196,834,0,0
-21,190,0,0,0,0,0,0,0,0,0,-1,1203,834,0,0
-14,190,0,0,0,0,0,0,0,0,0,-1,1210,834,0,0
-7,190,0,0,0,0,0,0,0,0,0,-1,1217,834,0,0
0,190,0,0,0,0,0,0,0,0,0,-1,1224,834,0,0
7,190,0,0,0,0,0,0,0,0,0,-1,1231,834,0,0
14,190,0,0,0,0,0,0,0,0,0,-1,1238,834,0,0
21,190,0,0,0,0,0,0,0,0,0,-1,1245,834,0,0
28,190,0,0,0,0,0,0,0,0,0,-1,1252,834,0,0
35,190,0,0,0,0,0,0,0,0,0,-1,1259,834,0,0
42,190,0,0,0,0,0,0,0,0,0,-1,1266,834,0,0
49,190,0,0,0,0,0,0,0,0,0,-1,1273,834,0,0
56,190,0,0,0,0,0,0,0,0,0,-1,1280,834,0,0
63,190,0,0,0,0,0,0,0,0,0,-1,1287,834,0,0
70,190,0,0,0,0,0,0,0,0,0,-1,1294,834,0,0
77,190,0,0,0,0,0,0,0,0,0,-1,1301,834,0,0
84,190,0,0,0,0,0,0,0,0,0,-1,1308,834,0,0
91,190,0,0,0,0,0,0,0,0,0,-1,1315,834,0,0
98,190,0,0,0,0,0,0,0,0,0,-1,1322,834,0,0
105,190,0,0,0,0,0,0,0,0,0,-1,1329,834,0,0
112,190,0,0,0,0,0,0,0,0,0,-1,1336,834,0,0
119,190,0,0,0,0,0,0,0,0,0,-1,1343,834,0,0
126,190,0,0,0,0,0,0,0,0,0,-1,1350,834,0,0
133,190,0,0,0,0,0,0,0,0,0,-1,1357,834,0,0
140,190,0,0,0,0,0,0,0,0,0,-1,1364,834,0,0
147,190,0,0,0,0,0,0,0,0,0,-1,1371,834,0,0
154,190,0,0,0,0,0,0,0,0,0,-1,1378,834,0,0
161,190,0,0,0,0,0,0,0,0,0,-1,1385,834,0,0
168,190,0,0,0,0,0,0,0,0,0,-1,1392,834,0,0
175,190,0,0,0,0,0,0,0,0,0,-1,1399,834,0,0
182,190,0,0,0,0,0,0,0,0,0,-1,1406,834,0,0
189,190,0,0,0,0,0,0,0,0,0,-1,1413,834,0,0
196,190,0,0,0,0,0,0,0,0,0,-1,1420,834,0,0
203,190,0,0,0,0,0,0,0,0,0,-1,1427,834,0,0
210,190,0,0,0,0,0,0,0,0,0,-1,1434,834,0,0
217,190,0,0,0,0,0,0,0,0,0,-1,1441,834,0,0
224,190,0,0,0,0,0,0,0,0,0,-1,1448,834,0,0
231,190,0,0,0,0,0,0,0,0,0,-1,1455,834,0,0
238,190,0,0,0,0,0,0,0,0,0,-1,1462,834,0,0
245,190,0,0,0,0,0,0,0,0,0,-1,1469,834,0,0
252,190,0,0,0,0,0,0,0,0,0,-1,1476,834,0,0
259,190,0,0,0,0,0,0,0,0,0,-1,1483,834,0,0
266,190,0,0,0,0,0,0,0,0,0,-1,1490,834,0,0
273,190,0,0,0,0,0,0,0,0,0,-1,1497,834,0,0
280,190,0,0,0,0,0,0,0,0,0,-1,1504,834,0,0
287,190,0,0,0,0,0,0,0,0,0,-1,1511,834,0,0
294,190,0,0,0,0,0,0,0,0,0,-1,1518,834,0,0
301,190,0,0,0,0,0,0,0,0,0,-1,1525,834,0,0
308,190,0,0,0,0,0,0,0,0,0,-1,1532,834,0,0
315,190,0,0,0,0,0,0,0,0,0,-1,1539,834,0,0
322,190,0,0,0,0,0,0,0,0,0,-1,1546,834,0,0
329,190,0,0,0,0,0,0,0,0,0,-1,1553,834,0,0
336,190,0,0,0,0,0,0,0,0,0,-1,1560,834,0,0
343,190,0,0,0,0,0,0,0,0,0,-1,1567,834,0,0
350,190,0,0,0,0,0,0,0,0,0,-1,1574,834,0,0
357,190,0,0,0,0,0,0,0,0,0,-1,1581,834,0,0
364,190,0,0,0,0,0,0,0,0,0,-1,1588,834,0,0
371,190,0,0,0,0,0,0,0,0,0,-1,1595,834,0,0
378,190,0,0,0,0,0,0,0,0,0,-1,1602,834,0,0
385,190,0,0,0,0,0,0,0,0,0,-1,1609,834,0,0
392,190,0,0,0,0,0,0,0,0,0,-1,1616,834,0,0
399,190,0,0,0,0,0,0,0,0,0,-1,1623,834,0,0
406,190,0,0,0,0,0,0,0,0,0,-1,1630,834,0,0
413,190,0,0,0,0,0,0,0,0,0,-1,1637,834,0,0
420,190,0,0,0,0,0,0,0,0,0,-1,1644,834,0,0
427,190,0,0,0,0,0,0,0,0,0,-1,1651,834,0,0
434,190,0,0,0,0,0,0,0,0,0,-1,1658,834,0,0
441,190,0,0,0,0,0,0,0,0,0,-1,1665,834,0,0
448,190,0,0,0,0,0,0,0,0,0,-1,1672,834,0,0
455,190,0,0,0,0,0,0,0,0,0,-1,1679,834,0,0
462,190,0,0,0,0,0,0,0,0,0,-1,1686,834,0,0
469,190,0,0,0,0,0,0,0,0,0,-1,1693,834,0,0
476,190,0,0,0,0,0,0,0,0,0,-1,1700,834,0,0
483,190,0,0,0,0,0,0,0,0,0,-1,1707,834,0,0
490,190,0,0,0,0,0,0,0,0,0,-1,1714,834,0,0
497,190,0,0,0,0,0,0,0,0,0,-1,1721,834,0,0
504,190,0,0,0,0,0,0,0,0,0,-1,1728,834,0,0
511,190,0,0,0,0,0,0,0,0,0,-1,1735,834,0,0
518,190,0,0,0,0,0,0,0,0,0,-1,1742,834,0,0
525,190,0,0,0,0,0,0,0,0,0,-1,1749,834,0,0
532,190,0,0,0,0,0,0,0,0,0,-1,1756,834,0,0
539,190,0,0,0,0,0,0,0,0,0,-1,1763,834,0,0
546,190,0,0,0,0,0,0,0,0,0,-1,1770,834,0,0
553,190,0,0,0,0,0,0,0,0,0,-1,1777,834,0,0
560,190,0,0,0,0,0,0,0,0,0,-1,1784,834,0,0
567,190,0,0,0,0,0,0,0,0,0,-1,1791,834,0,0
574,190,0,0,0,0,0,0,0,0,0,-1,1798,834,0,0
581,190,0,0,0,0,0,0,0,0,0,-1,1805,834,0,0
588,190,0,0,0,0,0,0,0,0,0,-1,1812,834,0,0
595,190,0,0,0,0,0,0,0,0,0,-1,1819,834,0,0
602,190,215.298,8.73175,0,0,0,0,0,0,0,-1,1826,834,215.298,-8.73176
609,190,215.28,8.7226,0,0,0,0,0,0,0,-1,1833,834,215.279,-8.7226
616,190,215.215,8.8147,0,0,0,0,0,0,0,-1,1840,834,215.215,-8.81472
623,190,215.133,8.92163,0,0,0,0,0,0,0,-1,1847,834,215.133,-8.92166
630,190,215.209,8.77057,0,0,0,0,0,0,0,-1,1854,834,215.209,-8.77059
637,190,215.333,8.59332,0,0,0,0,0,0,0,-1,1861,834,215.334,-8.59333
644,190,215.229,8.68597,0,0,0,0,0,0,0,-1,1868,834,215.229,-8.68598
651,190,166.686,6.40106,0,0,0,0,0,0,0,-1,1875,834,166.686,-6.40108
658,190,54.0599,3.0943,0,0,0,0,0,0,0,-1,1882,834,54.0599,-3.09428
665,190,25.9916,3.05157,0,0,0,0,0,0,0,-1,1889,834,25.9916,-3.05156
672,190,27.2662,1.70862,0,0,0,0,0,0,0,-1,1896,834,27.2662,-1.70861
679,190,186.59,17.2493,0,0,0,0,0,0,0,-1,1903,834,186.59,-17.2493
686,190,185.985,19.1493,0,0,0,0,0,0,0,-1,1910,834,185.985,-19.1493
693,190,185.426,21.2008,-0.00443339,0.00727516,-0.00280736,0.00791348,-0.00507171,-1.34722,0.00755661,0.0420652,1917,834,185.426,-21.2008
700,190,184.998,23.0732,-0.00616948,0.0138809,-0.00637482,0.0157361,-0.00802464,-1.2876,0.013957,0.038583,1924,834,184.998,-23.0732
707,190,184.591,24.9758,-0.008272,0.0201092,-0.00989354,0.0232176,-0.0113804,-1.26638,0.0203612,0.0221308,1931,834,184.591,-24.9758
714,190,184.391,26.8233,-0.0106316,0.0261952,-0.0134679,0.0305949,-0.0150313,-1.25504,0.0268483,0.0202625,1938,834,184.391,-26.8233
721,190,184.128,28.6628,-0.0132106,0.032133,-0.0171182,0.0378697,-0.0189473,-1.24744,0.0334042,0.0175877,1945,834,184.128,-28.6628
728,190,183.801,30.4366,-0.015916,0.0379335,-0.0208545,0.0450654,-0.0230479,-1.24128,0.0400042,0.0208866,1952,834,183.801,-30.4366
735,190,183.423,32.1003,-0.0186467,0.0436132,-0.0246752,0.0522065,-0.02724,-1.23567,0.0466174,0.0193101,1959,834,183.423,-32.1003
742,190,183.242,33.7675,-0.0212991,0.0491926,-0.0285687,0.0593167,-0.0314233,-1.23022,0.0532075,0.0236967,1966,834,183.242,-33.7675
749,190,183.157,35.5193,0,0,0,0,0,0,0,-1,1973,834,183.158,-35.5194
756,190,173.624,35.8187,0,0,0,0,0,0,0,-1,1980,834,173.624,-35.8187
763,190,122.597,25.3192,0,0,0,0,0,0,0,-1,1987,834,122.597,-25.3191
770,190,106.929,24.4991,0,0,0,0,0,0,0,-1,1994,834,106.929,-24.4992
777,190,51.4365,10.3331,0,0,0,0,0,0,0,-1,2001,834,51.4366,-10.3331
784,190,0,0,0,0,0,0,0,0,0,-1,2008,834,0,0
791,190,0,0,0,0,0,0,0,0,0,-1,2015,834,0,0
798,190,0,0,0,0,0,0,0,0,0,-1,2022,834,0,0
805,190,0,0,0,0,0,0,0,0,0,-1,2029,834,0,0
812,190,0,0,0,0,0,0,0,0,0,-1,2036,834,0,0
-700,183,0,0,0,0,0,0,0,0,0,-1,524,841,0,0
-693,183,0,0,0,0,0,0,0,0,0,-1,531,841,0,0
-686,183,0,0,0,0,0,0,0,0,0,-1,538,841,0,0
-679,183,0,0,0,0,0,0,0,0,0,-1,545,841,0,0
-672,183,0,0,0,0,0,0,0,0,0,-1,552,841,0,0
-665,183,0,0,0,0,0,0,0,0,0,-1,559,841,0,0
-658,183,-56.7401,1.32843,0,0,0,0,0,0,0,-1,566,841,-56.7401,-1.32844
-651,183,-107.228,30.9319,0,0,0,0,0,0,0,-1,573,841,-107.228,-30.9319
-644,183,-131.669,32.186,0,0,0,0,0,0,0,-1,580,841,-131.669,-32.186
-637,183,-108.134,28.3177,0,0,0,0,0,0,0,-1,587,841,-108.134,-28.3177
-630,183,-176.684,38.2861,0,0,0,0,0,0,0,-1,594,841,-176.684,-38.2861
-623,183,-176.681,36.5484,0,0,0,0,0,0,0,-1,601,841,-176.681,-36.5484
-616,183,-175.987,35.7706,0,0,0,0,0,0,0,-1,608,841,-175.987,-35.7706
-609,183,-176.151,33.9174,-0.00121293,0.0507973,0.0144372,0.0545361,-0.00495168,1.3174,0.0381153,0.046663,615,841,-176.151,-33.9174
-602,183,-176.671,31.9915,-0.00369739,0.0446209,0.0142183,0.0484943,-0.00757079,1.30483,0.0351261,0.0210536,622,841,-176.671,-31.9915
-595,183,-177.06,30.2394,-0.00455,0.0384984,0.0134138,0.042336,-0.00838762,1.29215,0.0313956,0.0149849,629,841,-177.06,-30.2394
-588,183,-177.318,28.4368,-0.00404768,0.0325087,0.0122017,0.0362072,-0.00774617,1.27649,0.0270918,0.0201213,636,841,-177.318,-28.4367
-581,183,-177.603,26.6209,-0.00241264,0.0267212,0.0106696,0.0302108,-0.00590218,1.25471,0.022369,0.0227759,643,841,-177.603,-26.6209
-574,183,-177.863,24.7343,0.00015546,0.0212116,0.00888311,0.0244585,-0.00309145,1.22037,0.0174278,0.0291573,650,841,-177.863,-24.7343
-567,183,-177.885,22.7432,0.00451919,0.0159304,0.00636394,0.0187719,0.00167764,1.15085,0.0119946,0.0381747,657,841,-177.885,-22.7432
-560,183,-178.082,20.675,0.00954139,0.0109293,0.00386602,0.0141631,0.00630752,0.874201,0.00819335,0.0493177,664,841,-178.082,-20.675
-553,183,-178.245,18.4188,0,0,0,0,0,0,0,-1,671,841,-178.245,-18.4187
-546,183,-27.8053,-1.91199,0,0,0,0,0,0,0,-1,678,841,-27.8053,1.91201
-539,183,-16.8032,-0.417297,0,0,0,0,0,0,0,-1,685,841,-16.8032,0.41732
-532,183,-29.9686,0.953613,0,0,0,0,0,0,0,-1,692,841,-29.9686,-0.953627
-525,183,-55.6847,0.842468,0,0,0,0,0,0,0,-1,699,841,-55.6847,-0.842446
-518,183,-72.6883,0.389221,0,0,0,0,0,0,0,-1,706,841,-72.6883,-0.389223
-511,183,-72.7325,0.370056,0,0,0,0,0,0,0,-1,713,841,-72.7325,-0.370065
-504,183,-72.9583,0.115173,0,0,0,0,0,0,0,-1,720,841,-72.9583,-0.115146
-497,183,-73.1502,-0.125122,0,0,0,0,0,0,0,-1,727,841,-73.1502,0.125119
-490,183,-72.6449,0.85791,0,0,0,0,0,0,0,-1,734,841,-72.6449,-0.857887
-483,183,0,0,0,0,0,0,0,0,0,-1,741,841,0,0
-476,183,0,0,0,0,0,0,0,0,0,-1,748,841,0,0
-469,183,0,0,0,0,0,0,0,0,0,-1,755,841,0,0
-462,183,0,0,0,0,0,0,0,0,0,-1,762,841,0,0
-455,183,0,0,0,0,0,0,0,0,0,-1,769,841,0,0
-448,183,0,0,0,0,0,0,0,0,0,-1,776,841,0,0
-441,183,0,0,0,0,0,0,0,0,0,-1,783,841,0,0
-434,183,0,0,0,0,0,0,0,0,0,-1,790,841,0,0
-427,183,0,0,0,0,0,0,0,0,0,-1,797,841,0,0
-420,183,0,0,0,0,0,0,0,0,0,-1,804,841,0,0
-413,183,0,0,0,0,0,0,0,0,0,-1,811,841,0,0
-406,183,0,0,0,0,0,0,0,0,0,-1,818,841,0,0
-399,183,0,0,0,0,0,0,0,0,0,-1,825,841,0,0
-392,183,0,0,0,0,0,0,0,0,0,-1,832,841,0,0
-385,183,0,0,0,0,0,0,0,0,0,-1,839,841,0,0
-378,183,0,0,0,0,0,0,0,0,0,-1,846,841,0,0
-371,183,0,0,0,0,0,0,0,0,0,-1,853,841,0,0
-364,183,0,0,0,0,0,0,0,0,0,-1,860,841,0,0
-357,183,0,0,0,0,0,0,0,0,0,-1,867,841,0,0
-350,183,0,0,0,0,0,0,0,0,0,-1,874,841,0,0
-343,183,0,0,0,0,0,0,0,0,0,-1,881,841,0,0
-336,183,0,0,0,0,0,0,0,0,0,-1,888,841,0,0
-329,183,0,0,0,0,0,0,0,0,0,-1,895,841,0,0
-322,183,0,0,0,0,0,0,0,0,0,-1,902,841,0,0
-315,183,0,0,0,0,0,0,0,0,0,-1,909,841,0,0
-308,183,0,0,0,0,0,0,0,0,0,-1,916,841,0,0
-301,183,0,0,0,0,0,0,0,0,0,-1,923,841,0,0
-294,183,0,0,0,0,0,0,0,0,0,-1,930,841,0,0
-287,183,0,0,0,0,0,0,0,0,0,-1,937,841,0,0
-280,183,0,0,0,0,0,0,0,0,0,-1,944,841,0,0
-273,183,0,0,0,0,0,0,0,0,0,-1,951,841,0,0
-266,183,0,0,0,0,0,0,0,0,0,-1,958,841,0,0
-259,183,0,0,0,0,0,0,0,0,0,-1,965,841,0,0
-252,183,0,0,0,0,0,0,0,0,0,-1,972,841,0,0
-245,183,0,0,0,0,0,0,0,0,0,-1,979,841,0,0
-238,183,0,0,0,0,0,0,0,0,0,-1,986,841,0,0
-231,183,0,0,0,0,0,0,0,0,0,-1,993,841,0,0
-224,183,0,0,0,0,0,0,0,0,0,-1,1000,841,0,0
-217,183,0,0,0,0,0,0,0,0,0,-1,1007,841,0,0
-210,183,0,0,0,0,0,0,0,0,0,-1,1014,841,0,0
-203,183,0,0,0,0,0,0,0,0,0,-1,1021,841,0,0
-196,183,0,0,0,0,0,0,0,0,0,-1,1028,841,0,0
-189,183,0,0,0,0,0,0,0,0,0,-1,1035,841,0,0
-182,183,0,0,0,0,0,0,0,0,0,-1,1042,841,0,0
-175,183,0,0,0,0,0,0,0,0,0,-1,1049,841,0,0
-168,183,0,0,0,0,0,0,0,0,0,-1,1056,841,0,0
-161,183,0,0,0,0,0,0,0,0,0,-1,1063,841,0,0
-154,183,0,0,0,0,0,0,0,0,0,-1,1070,841,0,0
-147,183,0,0,0,0,0,0,0,0,0,-1,1077,841,0,0
-140,183,0,0,0,0,0,0,0,0,0,-1,1084,841,0,0
-133,183,0,0,0,0,0,0,0,0,0,-1,1091,841,0,0
-126,183,0,0,0,0,0,0,0,0,0,-1,1098,841,0,0
-119,183,0,0,0,0,0,0,0,0,0,-1,1105,841,0,0
-112,183,0,0,0,0,0,0,0,0,0,-1,1112,841,0,0
-105,183,0,0,0,0,0,0,0,0,0,-1,1119,841,0,0
-98,183,0,0,0,0,0,0,0,0,0,-1,1126,841,0,0
-91,183,0,0,0,0,0,0,0,0,0,-1,1133,841,0,0
-84,183,0,0,0,0,0,0,0,0,0,-1,1140,841,0,0
-77,183,0,0,0,0,0,0,0,0,0,-1,1147,841,0,0
-70,183,0,0,0,0,0,0,0,0,0,-1,1154,841,0,0
-63,183,0,0,0,0,0,0,0,0,0,-1,1161,841,0,0
-56,183,0,0,0,0,0,0,0,0,0,-1,1168,841,0,0
-49,183,0,0,0,0,0,0,0,0,0,-1,1175,841,0,0
-42,183,0,0,0,0,0,0,0,0,0,-1,1182,841,0,0
-35,183,0,0,0,0,0,0,0,0,0,-1,1189,841,0,0
-28,183,0,0,0,0,0,0,0,0,0,-1,1196,841,0,0
-21,183,0,0,0,0,0,0,0,0,0,-1,1203,841,0,0
-14,183,0,0,0,0,0,0,0,0,0,-1,1210,841,0,0
-7,183,0,0,0,0,0,0,0,0,0,-1,1217,841,0,0
0,183,0,0,0,0,0,0,0,0,0,-1,1224,841,0,0
7,183,0,0,0,0,0,0,0,0,0,-1,1231,841,0,0
14,183,0,0,0,0,0,0,0,0,0,-1,1238,841,0,0
21,183,0,0,0,0,0,0,0,0,0,-1,1245,841,0,0
28,183,0,0,0,0,0,0,0,0,0,-1,1252,841,0,0
35,183,0,0,0,0,0,0,0,0,0,-1,1259,841,0,0
42,183,0,0,0,0,0,0,0,0,0,-1,1266,841,0,0
49,183,0,0,0,0,0,0,0,0,0,-1,1273,841,0,0
56,183,0,0,0,0,0,0,0,0,0,-1,1280,841,0,0
63,183,0,0,0,0,0,0,0,0,0,-1,1287,841,0,0
70,183,0,0,0,0,0,0,0,0,0,-1,1294,841,0,0
77,183,0,0,0,0,0,0,0,0,0,-1,1301,841,0,0
84,183,0,0,0,0,0,0,0,0,0,-1,1308,841,0,0
91,183,0,0,0,0,0,0,0,0,0,-1,1315,841,0,0
98,183,0,0,0,0,0,0,0,0,0,-1,1322,841,0,0
105,183,0,0,0,0,0,0,0,0,0,-1,1329,841,0,0
112,183,0,0,0,0,0,0,0,0,0,-1,1336,841,0,0
119,183,0,0,0,0,0,0,0,0,0,-1,1343,841,0,0
126,183,0,0,0,0,0,0,0,0,0,-1,1350,841,0,0
133,183,0,0,0,0,0,0,0,0,0,-1,1357,841,0,0
140,183,0,0,0,0,0,0,0,0,0,-1,1364,841,0,0
147,183,0,0,0,0,0,0,0,0,0,-1,1371,841,0,0
154,183,0,0,0,0,0,0,0,0,0,-1,1378,841,0,0
161,183,0,0,0,0,0,0,0,0,0,-1,1385,841,0,0
168,183,0,0,0,0,0,0,0,0,0,-1,1392,841,0,0
175,183,0,0,0,0,0,0,0,0,0,-1,1399,841,0,0
182,183,0,0,0,0,0,0,0,0,0,-1,1406,841,0,0
189,183,0,0,0,0,0,0,0,0,0,-1,1413,841,0,0
196,183,0,0,0,0,0,0,0,0,0,-1,1420,841,0,0
203,183,0,0,0,0,0,0,0,0,0,-1,1427,841,0,0
210,183,0,0,0,0,0,0,0,0,0,-1,1434,841,0,0
217,183,0,0,0,0,0,0,0,0,0,-1,1441,841,0,0
224,183,0,0,0,0,0,0,0,0,0,-1,1448,841,0,0
231,183,0,0,0,0,0,0,0,0,0,-1,1455,841,0,0
238,183,0,0,0,0,0,0,0,0,0,-1,1462,841,0,0
245,183,0,0,0,0,0,0,0,0,0,-1,1469,841,0,0
252,183,0,0,0,0,0,0,0,0,0,-1,1476,841,0,0
259,183,0,0,0,0,0,0,0,0,0,-1,1483,841,0,0
266,183,0,0,0,0,0,0,0,0,0,-1,1490,841,0,0
273,183,0,0,0,0,0,0,0,0,0,-1,1497,841,0,0
280,183,0,0,0,0,0,0,0,0,0,-1,1504,841,0,0
287,183,0,0,0,0,0,0,0,0,0,-1,1511,841,0,0
294,183,0,0,0,0,0,0,0,0,0,-1,1518,841,0,0
301,183,0,0,0,0,0,0,0,0,0,-1,1525,841,0,0
308,183,0,0,0,0,0,0,0,0,0,-1,1532,841,0,0
315,183,0,0,0,0,0,0,0,0,0,-1,1539,841,0,0
322,183,0,0,0,0,0,0,0,0,0,-1,1546,841,0,0
329,183,0,0,0,0,0,0,0,0,0,-1,1553,841,0,0
336,183,0,0,0,0,0,0,0,0,0,-1,1560,841,0,0
343,183,0,0,0,0,0,0,0,0,0,-1,1567,841,0,0
350,183,0,0,0,0,0,0,0,0,0,-1,1574,841,0,0
357,183,0,0,0,0,0,0,0,0,0,-1,1581,841,0,0
364,183,0,0,0,0,0,0,0,0,0,-1,1588,841,0,0
371,183,0,0,0,0,0,0,0,0,0,-1,1595,841,0,0
378,183,0,0,0,0,0,0,0,0,0,-1,1602,841,0,0
385,183,0,0,0,0,0,0,0,0,0,-1,1609,841,0,0
392,183,0,0,0,0,0,0,0,0,0,-1,1616,841,0,0
399,183,0,0,0,0,0,0,0,0,0,-1,1623,841,0,0
406,183,0,0,0,0,0,0,0,0,0,-1,1630,841,0,0
413,183,0,0,0,0,0,0,0,0,0,-1,1637,841,0,0
420,183,0,0,0,0,0,0,0,0,0,-1,1644,841,0,0
427,183,0,0,0,0,0,0,0,0,0,-1,1651,841,0,0
434,183,0,0,0,0,0,0,0,0,0,-1,1658,841,0,0
441,183,0,0,0,0,0,0,0,0,0,-1,1665,841,0,0
448,183,0,0,0,0,0,0,0,0,0,-1,1672,841,0,0
455,183,0,0,0,0,0,0,0,0,0,-1,1679,841,0,0
462,183,0,0,0,0,0,0,0,0,0,-1,1686,841,0,0
469,183,0,0,0,0,0,0,0,0,0,-1,1693,841,0,0
476,183,0,0,0,0,0,0,0,0,0,-1,1700,841,0,0
483,183,0,0,0,0,0,0,0,0,0,-1,1707,841,0,0
490,183,0,0,0,0,0,0,0,0,0,-1,1714,841,0,0
497,183,0,0,0,0,0,0,0,0,0,-1,1721,841,0,0
504,183,0,0,0,0,0,0,0,0,0,-1,1728,841,0,0
511,183,0,0,0,0,0,0,0,0,0,-1,1735,841,0,0
518,183,0,0,0,0,0,0,0,0,0,-1,1742,841,0,0
525,183,0,0,0,0,0,0,0,0,0,-1,1749,841,0,0
532,183,0,0,0,0,0,0,0,0,0,-1,1756,841,0,0
539,183,0,0,0,0,0,0,0,0,0,-1,1763,841,0,0
546,183,0,0,0,0,0,0,0,0,0,-1,1770,841,0,0
553,183,0,0,0,0,0,0,0,0,0,-1,1777,841,0,0
560,183,0,0,0,0,0,0,0,0,0,-1,1784,841,0,0
567,183,0,0,0,0,0,0,0,0,0,-1,1791,841,0,0
574,183,0,0,0,0,0,0,0,0,0,-1,1798,841,0,0
581,183,0,0,0,0,0,0,0,0,0,-1,1805,841,0,0
588,183,0,0,0,0,0,0,0,0,0,-1,1812,841,0,0
595,183,0,0,0,0,0,0,0,0,0,-1,1819,841,0,0
602,183,0,0,0,0,0,0,0,0,0,-1,1826,841,0,0
609,183,215.255,8.80597,0,0,0,0,0,0,0,-1,1833,841,215.255,-8.80598
616,183,215.174,8.88977,0,0,0,0,0,0,0,-1,1840,841,215.174,-8.88977
623,183,215.143,8.92297,0,0,0,0,0,0,0,-1,1847,841,215.143,-8.92295
630,183,215.192,8.78577,0,0,0,0,0,0,0,-1,1854,841,215.192,-8.78579
637,183,215.297,8.58539,0,0,0,0,0,0,0,-1,1861,841,215.297,-8.58539
644,183,215.145,8.67914,0,0,0,0,0,0,0,-1,1868,841,215.145,-8.67914
651,183,215.027,8.91455,0,0,0,0,0,0,0,-1,1875,841,215.027,-8.91455
658,183,83.877,2.72919,0,0,0,0,0,0,0,-1,1882,841,83.8769,-2.72919
665,183,38.4337,2.66992,0,0,0,0,0,0,0,-1,1889,841,38.4337,-2.6699
672,183,29.168,1.54572,0,0,0,0,0,0,0,-1,1896,841,29.168,-1.54574
679,183,78.9729,-1.12219,0,0,0,0,0,0,0,-1,1903,841,78.9729,1.12222
686,183,188.14,19.7263,0,0,0,0,0,0,0,-1,1910,841,188.14,-19.7263
693,183,187.347,21.3964,-0.00392833,0.00502644,-0.00220006,0.00553777,-0.00443966,-1.34244,0.00577209,0.0371708,1917,841,187.347,-21.3964
700,183,187.043,23.3828,-0.00530357,0.0117724,-0.00529071,0.0132788,-0.00680992,-1.29342,0.011797,0.0451226,1924,841,187.043,-23.3828
707,183,186.587,25.1119,-0.0072687,0.0180082,-0.00848772,0.0205938,-0.00985431,-1.2751,0.01794,0.0212977,1931,841,186.588,-25.1119
714,183,186.562,26.9011,-0.00960478,0.0240715,-0.0117962,0.0277924,-0.0133257,-1.26524,0.0242244,0.0263747,1938,841,186.562,-26.9011
721,183,186.471,28.7699,-0.0122886,0.0299653,-0.015216,0.0348743,-0.0171977,-1.25871,0.0306358,0.0248034,1945,841,186.471,-28.7699
728,183,186.084,30.5746,-0.0152062,0.0356967,-0.0187562,0.0418612,-0.0213708,-1.25325,0.0371404,0.023958,1952,841,186.084,-30.5746
735,183,185.656,32.178,-0.0182469,0.0412883,-0.022403,0.0487767,-0.0257353,-1.24822,0.0436997,0.0225178,1959,841,185.657,-32.178
742,183,185.213,33.7564,-0.0213004,0.0467692,-0.0261344,0.0556457,-0.0301769,-1.24338,0.0502717,0.0168717,1966,841,185.213,-33.7564
749,183,184.987,35.2788,-0.0245507,0.0522076,-0.0297084,0.0623624,-0.0347055,-1.24143,0.0567954,0.0388141,1973,841,184.987,-35.2788
756,183,184.73,36.7585,0,0,0,0,0,0,0,-1,1980,841,184.731,-36.7586
763,183,174.226,37.3138,0,0,0,0,0,0,0,-1,1987,841,174.226,-37.3138
770,183,51.5659,9.50665,0,0,0,0,0,0,0,-1,1994,841,51.5659,-9.50663
777,183,42.1948,7.22906,0,0,0,0,0,0,0,-1,2001,841,42.1948,-7.22905
784,183,0,0,0,0,0,0,0,0,0,-1,2008,841,0,0
791,183,0,0,0,0,0,0,0,0,0,-1,2015,841,0,0
798,183,0,0,0,0,0,0,0,0,0,-1,2022,841,0,0
805,183,0,0,0,0,0,0,0,0,0,-1,2029,841,0,0
812,183,0,0,0,0,0,0,0,0,0,-1,2036,841,0,0
-700,176,0,0,0,0,0,0,0,0,0,-1,524,848,0,0
-693,176,0,0,0,0,0,0,0,0,0,-1,531,848,0,0
-686,176,0,0,0,0,0,0,0,0,0,-1,538,848,0,0
-679,176,0,0,0,0,0,0,0,0,0,-1,545,848,0,0
-672,176,0,0,0,0,0,0,0,0,0,-1,552,848,0,0
-665,176,-59.6962,8.75854,0,0,0,0,0,0,0,-1,559,848,-59.6962,-8.75853
-658,176,-59.6349,7.95142,0,0,0,0,0,0,0,-1,566,848,-59.6349,-7.95144
-651,176,-133.25,33.5839,0,0,0,0,0,0,0,-1,573,848,-133.25,-33.5838
-644,176,-133.137,32.3544,0,0,0,0,0,0,0,-1,580,848,-133.137,-32.3544
-637,176,-133.18,31.4319,0,0,0,0,0,0,0,-1,587,848,-133.18,-31.4319
-630,176,-178.05,38.618,0,0,0,0,0,0,0,-1,594,848,-178.05,-38.618
-623,176,-179.805,36.8589,0,0,0,0,0,0,0,-1,601,848,-179.805,-36.8589
-616,176,-178.862,35.0815,0,0,0,0,0,0,0,-1,608,848,-178.862,-35.0815
-609,176,-178.633,33.6471,-0.000861571,0.0476598,0.0132652,0.0510496,-0.00425134,1.32061,0.035535,0.0252525,615,848,-178.633,-33.6471
-602,176,-178.825,32.0751,-0.00354752,0.041831,0.013018,0.0453003,-0.00701683,1.31035,0.0327903,0.0173605,622,848,-178.825,-32.0751
-595,176,-179.107,30.3216,-0.00457448,0.0360098,0.0121911,0.0393903,-0.00795497,1.3003,0.0292744,0.0160681,629,848,-179.107,-30.3216
-588,176,-179.363,28.5769,-0.00417482,0.0302798,0.0109398,0.0334598,-0.00735483,1.28791,0.0251197,0.022433,636,848,-179.363,-28.5769
-581,176,-179.618,26.8327,-0.00254294,0.024728,0.00936146,0.0276322,-0.00544721,1.26997,0.0204801,0.0270156,643,848,-179.618,-26.8327
-574,176,-180.001,25.0709,0.000141739,0.0194377,0.0075347,0.0220313,-0.00245182,1.23928,0.0155693,0.0340193,650,848,-180.001,-25.0709
-567,176,-180.003,23.1091,0.00528056,0.0142991,0.00474963,0.016339,0.00324059,1.16512,0.00998928,0.0337485,657,848,-180.003,-23.1091
-560,176,-180.174,21.0219,0,0,0,0,0,0,0,-1,664,848,-180.174,-21.0219
-553,176,-130.914,10.5666,0,0,0,0,0,0,0,-1,671,848,-130.914,-10.5666
-546,176,-16.657,-0.403198,0,0,0,0,0,0,0,-1,678,848,-16.657,0.403182
-539,176,-22.7061,1.48657,0,0,0,0,0,0,0,-1,685,848,-22.7061,-1.48657
-532,176,-38.8326,1.29749,0,0,0,0,0,0,0,-1,692,848,-38.8326,-1.29747
-525,176,-72.6287,0.52948,0,0,0,0,0,0,0,-1,699,848,-72.6287,-0.529456
-518,176,-72.6528,0.501587,0,0,0,0,0,0,0,-1,706,848,-72.6528,-0.501577
-511,176,-72.6872,0.485535,0,0,0,0,0,0,0,-1,713,848,-72.6872,-0.485559
-504,176,-72.8505,0.407227,0,0,0,0,0,0,0,-1,720,848,-72.8506,-0.407217
-497,176,-72.7821,0.65387,0,0,0,0,0,0,0,-1,727,848,-72.7821,-0.653851
-490,176,-72.6411,0.631165,0,0,0,0,0,0,0,-1,734,848,-72.641,-0.631162
-483,176,0,0,0,0,0,0,0,0,0,-1,741,848,0,0
-476,176,0,0,0,0,0,0,0,0,0,-1,748,848,0,0
-469,176,0,0,0,0,0,0,0,0,0,-1,755,848,0,0
-462,176,0,0,0,0,0,0,0,0,0,-1,762,848,0,0
-455,176,0,0,0,0,0,0,0,0,0,-1,769,848,0,0
-448,176,0,0,0,0,0,0,0,0,0,-1,776,848,0,0
-441,176,0,0,0,0,0,0,0,0,0,-1,783,848,0,0
-434,176,0,0,0,0,0,0,0,0,0,-1,790,848,0,0
-427,176,0,0,0,0,0,0,0,0,0,-1,797,848,0,0
-420,176,0,0,0,0,0,0,0,0,0,-1,804,848,0,0
-413,176,0,0,0,0,0,0,0,0,0,-1,811,848,0,0
-406,176,0,0,0,0,0,0,0,0,0,-1,818,848,0,0
-399,176,0,0,0,0,0,0,0,0,0,-1,825,848,0,0
-392,176,0,0,0,0,0,0,0,0,0,-1,832,848,0,0
-385,176,0,0,0,0,0,0,0,0,0,-1,839,848,0,0
-378,176,0,0,0,0,0,0,0,0,0,-1,846,848,0,0
-371,176,0,0,0,0,0,0,0,0,0,-1,853,848,0,0
-364,176,0,0,0,0,0,0,0,0,0,-1,860,848,0,0
-357,176,0,0,0,0,0,0,0,0,0,-1,867,848,0,0
-350,176,0,0,0,0,0,0,0,0,0,-1,874,848,0,0
-343,176,0,0,0,0,0,0,0,0,0,-1,881,848,0,0
-336,176,0,0,0,0,0,0,0,0,0,-1,888,848,0,0
-329,176,0,0,0,0,0,0,0,0,0,-1,895,848,0,0
-322,176,0,0,0,0,0,0,0,0,0,-1,902,848,0,0
-315,176,0,0,0,0,0,0,0,0,0,-1,909,848,0,0
-308,176,0,0,0,0,0,0,0,0,0,-1,916,848,0,0
-301,176,0,0,0,0,0,0,0,0,0,-1,923,848,0,0
-294,176,0,0,0,0,0,0,0,0,0,-1,930,848,0,0
-287,176,0,0,0,0,0,0,0,0,0,-1,937,848,0,0
-280,176,0,0,0,0,0,0,0,0,0,-1,944,848,0,0
-273,176,0,0,0,0,0,0,0,0,0,-1,951,848,0,0
-266,176,0,0,0,0,0,0,0,0,0,-1,958,848,0,0
-259,176,0,0,0,0,0,0,0,0,0,-1,965,848,0,0
-252,176,0,0,0,0,0,0,0,0,0,-1,972,848,0,0
-245,176,0,0,0,0,0,0,0,0,0,-1,979,848,0,0
-238,176,0,0,0,0,0,0,0,0,0,-1,986,848,0,0
-231,176,0,0,0,0,0,0,0,0,0,-1,993,848,0,0
-224,176,0,0,0,0,0,0,0,0,0,-1,1000,848,0,0
-217,176,0,0,0,0,0,0,0,0,0,-1,1007,848,0,0
-210,176,0,0,0,0,0,0,0,0,0,-1,1014,848,0,0
-203,176,0,0,0,0,0,0,0,0,0,-1,1021,848,0,0
-196,176,0,0,0,0,0,0,0,0,0,-1,1028,848,0,0
-189,176,0,0,0,0,0,0,0,0,0,-1,1035,848,0,0
-182,176,0,0,0,0,0,0,0,0,0,-1,1042,848,0,0
-175,176,0,0,0,0,0,0,0,0,0,-1,1049,848,0,0
-168,176,0,0,0,0,0,0,0,0,0,-1,1056,848,0,0
-161,176,0,0,0,0,0,0,0,0,0,-1,1063,848,0,0
-154,176,0,0,0,0,0,0,0,0,0,-1,1070,848,0,0
-147,176,0,0,0,0,0,0,0,0,0,-1,1077,848,0,0
-140,176,0,0,0,0,0,0,0,0,0,-1,1084,848,0,0
-133,176,0,0,0,0,0,0,0,0,0,-1,1091,848,0,0
-126,176,0,0,0,0,0,0,0,0,0,-1,1098,848,0,0
-119,176,0,0,0,0,0,0,0,0,0,-1,1105,848,0,0
-112,176,0,0,0,0,0,0,0,0,0,-1,1112,848,0,0
-105,176,0,0,0,0,0,0,0,0,0,-1,1119,848,0,0
-98,176,0,0,0,0,0,0,0,0,0,-1,1126,848,0,0
-91,176,0,0,0,0,0,0,0,0,0,-1,1133,848,0,0
-84,176,0,0,0,0,0,0,0,0,0,-1,1140,848,0,0
-77,176,0,0,0,0,0,0,0,0,0,-1,1147,848,0,0
-70,176,0,0,0,0,0,0,0,0,0,-1,1154,848,0,0
-63,176,0,0,0,0,0,0,0,0,0,-1,1161,848,0,0
-56,176,0,0,0,0,0,0,0,0,0,-1,1168,848,0,0
-49,176,0,0,0,0,0,0,0,0,0,-1,1175,848,0,0
-42,176,0,0,0,0,0,0,0,0,0,-1,1182,848,0,0
-35,176,0,0,0,0,0,0,0,0,0,-1,1189,848,0,0
-28,176,0,0,0,0,0,0,0,0,0,-1,1196,848,0,0
-21,176,0,0,0,0,0,0,0,0,0,-1,1203,848,0,0
-14,176,0,0,0,0,0,0,0,0,0,-1,1210,848,0,0
-7,176,0,0,0,0,0,0,0,0,0,-1,1217,848,0,0
0,176,0,0,0,0,0,0,0,0,0,-1,1224,848,0,0
7,176,0,0,0,0,0,0,0,0,0,-1,1231,848,0,0
14,176,0,0,0,0,0,0,0,0,0,-1,1238,848,0,0
21,176,0,0,0,0,0,0,0,0,0,-1,1245,848,0,0
28,176,0,0,0,0,0,0,0,0,0,-1,1252,848,0,0
35,176,0,0,0,0,0,0,0,0,0,-1,1259,848,0,0
42,176,0,0,0,0,0,0,0,0,0,-1,1266,848,0,0
49,176,0,0,0,0,0,0,0,0,0,-1,1273,848,0,0
56,176,0,0,0,0,0,0,0,0,0,-1,1280,848,0,0
63,176,0,0,0,0,0,0,0,0,0,-1,1287,848,0,0
70,176,0,0,0,0,0,0,0,0,0,-1,1294,848,0,0
77,176,0,0,0,0,0,0,0,0,0,-1,1301,848,0,0
84,176,0,0,0,0,0,0,0,0,0,-1,1308,848,0,0
91,176,0,0,0,0,0,0,0,0,0,-1,1315,848,0,0
98,176,0,0,0,0,0,0,0,0,0,-1,1322,848,0,0
105,176,0,0,0,0,0,0,0,0,0,-1,1329,848,0,0
112,176,0,0,0,0,0,0,0,0,0,-1,1336,848,0,0
119,176,0,0,0,0,0,0,0,0,0,-1,1343,848,0,0
126,176,0,0,0,0,0,0,0,0,0,-1,1350,848,0,0
133,176,0,0,0,0,0,0,0,0,0,-1,1357,848,0,0
140,176,0,0,0,0,0,0,0,0,0,-1,1364,848,0,0
147,176,0,0,0,0,0,0,0,0,0,-1,1371,848,0,0
154,176,0,0,0,0,0,0,0,0,0,-1,1378,848,0,0
161,176,0,0,0,0,0,0,0,0,0,-1,1385,848,0,0
168,176,0,0,0,0,0,0,0,0,0,-1,1392,848,0,0
175,176,0,0,0,0,0,0,0,0,0,-1,1399,848,0,0
182,176,0,0,0,0,0,0,0,0,0,-1,1406,848,0,0
189,176,0,0,0,0,0,0,0,0,0,-1,1413,848,0,0
196,176,0,0,0,0,0,0,0,0,0,-1,1420,848,0,0
203,176,0,0,0,0,0,0,0,0,0,-1,1427,848,0,0
210,176,0,0,0,0,0,0,0,0,0,-1,1434,848,0,0
217,176,0,0,0,0,0,0,0,0,0,-1,1441,848,0,0
224,176,0,0,0,0,0,0,0,0,0,-1,1448,848,0,0
231,176,0,0,0,0,0,0,0,0,0,-1,1455,848,0,0
238,176,0,0,0,0,0,0,0,0,0,-1,1462,848,0,0
245,176,0,0,0,0,0,0,0,0,0,-1,1469,848,0,0
252,176,0,0,0,0,0,0,0,0,0,-1,1476,848,0,0
259,176,0,0,0,0,0,0,0,0,0,-1,1483,848,0,0
266,176,0,0,0,0,0,0,0,0,0,-1,1490,848,0,0
273,176,0,0,0,0,0,0,0,0,0,-1,1497,848,0,0
280,176,0,0,0,0,0,0,0,0,0,-1,1504,848,0,0
287,176,0,0,0,0,0,0,0,0,0,-1,1511,848,0,0
294,176,0,0,0,0,0,0,0,0,0,-1,1518,848,0,0
301,176,0,0,0,0,0,0,0,0,0,-1,1525,848,0,0
308,176,0,0,0,0,0,0,0,0,0,-1,1532,848,0,0
315,176,0,0,0,0,0,0,0,0,0,-1,1539,848,0,0
322,176,0,0,0,0,0,0,0,0,0,-1,1546,848,0,0
329,176,0,0,0,0,0,0,0,0,0,-1,1553,848,0,0
336,176,0,0,0,0,0,0,0,0,0,-1,1560,848,0,0
343,176,0,0,0,0,0,0,0,0,0,-1,1567,848,0,0
350,176,0,0,0,0,0,0,0,0,0,-1,1574,848,0,0
357,176,0,0,0,0,0,0,0,0,0,-1,1581,848,0,0
364,176,0,0,0,0,0,0,0,0,0,-1,1588,848,0,0
371,176,0,0,0,0,0,0,0,0,0,-1,1595,848,0,0
378,176,0,0,0,0,0,0,0,0,0,-1,1602,848,0,0
385,176,0,0,0,0,0,0,0,0,0,-1,1609,848,0,0
392,176,0,0,0,0,0,0,0,0,0,-1,1616,848,0,0
399,176,0,0,0,0,0,0,0,0,0,-1,1623,848,0,0
406,176,0,0,0,0,0,0,0,0,0,-1,1630,848,0,0
413,176,0,0,0,0,0,0,0,0,0,-1,1637,848,0,0
420,176,0,0,0,0,0,0,0,0,0,-1,1644,848,0,0
427,176,0,0,0,0,0,0,0,0,0,-1,1651,848,0,0
434,176,0,0,0,0,0,0,0,0,0,-1,1658,848,0,0
441,176,0,0,0,0,0,0,0,0,0,-1,1665,848,0,0
448,176,0,0,0,0,0,0,0,0,0,-1,1672,848,0,0
455,176,0,0,0,0,0,0,0,0,0,-1,1679,848,0,0
462,176,0,0,0,0,0,0,0,0,0,-1,1686,848,0,0
469,176,0,0,0,0,0,0,0,0,0,-1,1693,848,0,0
476,176,0,0,0,0,0,0,0,0,0,-1,1700,848,0,0
483,176,0,0,0,0,0,0,0,0,0,-1,1707,848,0,0
490,176,0,0,0,0,0,0,0,0,0,-1,1714,848,0,0
497,176,0,0,0,0,0,0,0,0,0,-1,1721,848,0,0
504,176,0,0,0,0,0,0,0,0,0,-1,1728,848,0,0
511,176,0,0,0,0,0,0,0,0,0,-1,1735,848,0,0
518,176,0,0,0,0,0,0,0,0,0,-1,1742,848,0,0
525,176,0,0,0,0,0,0,0,0,0,-1,1749,848,0,0
532,176,0,0,0,0,0,0,0,0,0,-1,1756,848,0,0
539,176,0,0,0,0,0,0,0,0,0,-1,1763,848,0,0
546,176,0,0,0,0,0,0,0,0,0,-1,1770,848,0,0
553,176,0,0,0,0,0,0,0,0,0,-1,1777,848,0,0
560,176,0,0,0,0,0,0,0,0,0,-1,1784,848,0,0
567,176,0,0,0,0,0,0,0,0,0,-1,1791,848,0,0
574,176,0,0,0,0,0,0,0,0,0,-1,1798,848,0,0
581,176,0,0,0,0,0,0,0,0,0,-1,1805,848,0,0
588,176,0,0,0,0,0,0,0,0,0,-1,1812,848,0,0
595,176,0,0,0,0,0,0,0,0,0,-1,1819,848,0,0
602,176,0,0,0,0,0,0,0,0,0,-1,1826,848,0,0
609,176,215.3,8.74573,0,0,0,0,0,0,0,-1,1833,848,215.299,-8.74574
616,176,215.2,8.6535,0,0,0,0,0,0,0,-1,1840,848,215.2,-8.65351
623,176,215.231,8.9679,0,0,0,0,0,0,0,-1,1847,848,215.231,-8.96788
630,176,215.315,8.81708,0,0,0,0,0,0,0,-1,1854,848,215.315,-8.81706
637,176,215.295,8.62897,0,0,0,0,0,0,0,-1,1861,848,215.295,-8.62894
644,176,215.146,8.65912,0,0,0,0,0,0,0,-1,1868,848,215.146,-8.65912
651,176,215.167,8.6673,0,0,0,0,0,0,0,-1,1875,848,215.167,-8.66732
658,176,215.26,8.57733,0,0,0,0,0,0,0,-1,1882,848,215.26,-8.57732
665,176,54.3333,2.34277,0,0,0,0,0,0,0,-1,1889,848,54.3333,-2.34279
672,176,16.9304,2.80719,0,0,0,0,0,0,0,-1,1896,848,16.9305,-2.80719
679,176,50.9341,0.315979,0,0,0,0,0,0,0,-1,1903,848,50.9341,-0.315984
686,176,166.622,18.533,0,0,0,0,0,0,0,-1,1910,848,166.622,-18.533
693,176,189.239,21.5707,0,0,0,0,0,0,0,-1,1917,848,189.239,-21.5708
700,176,189.113,23.6901,-0.00522735,0.0090037,-0.0044903,0.0103021,-0.00652571,-1.28932,0.00979673,0.0463755,1924,848,189.113,-23.69
707,176,188.745,25.4097,-0.00687883,0.0153985,-0.0072769,0.0175648,-0.00904517,-1.28145,0.0156236,0.0450585,1931,848,188.745,-25.4097
714,176,188.477,27.043,-0.00896953,0.0216013,-0.0102532,0.0247216,-0.0120899,-1.27537,0.0216662,0.0242239,1938,848,188.476,-27.043
721,176,188.369,28.8812,-0.0115138,0.0276285,-0.0133765,0.0317631,-0.0156484,-1.27102,0.0278951,0.0224453,1945,848,188.369,-28.8812
728,176,188.098,30.6899,-0.0143807,0.0334758,-0.0166627,0.0387059,-0.0196107,-1.26666,0.0342655,0.0297449,1952,848,188.098,-30.69
735,176,187.537,32.2842,-0.0174513,0.0391691,-0.0200879,0.0455718,-0.0238541,-1.26224,0.0407316,0.0265813,1959,848,187.537,-32.2842
742,176,187.059,33.8411,-0.0206076,0.0447428,-0.0236204,0.0523862,-0.028251,-1.25784,0.0472459,0.0256346,1966,848,187.059,-33.8411
749,176,186.852,35.1444,-0.0239633,0.0502694,-0.0270513,0.0590812,-0.0327751,-1.25589,0.0537533,0.0414758,1973,848,186.852,-35.1444
756,176,186.709,36.4467,0,0,0,0,0,0,0,-1,1980,848,186.709,-36.4467
763,176,115.493,23.4837,0,0,0,0,0,0,0,-1,1987,848,115.493,-23.4837
770,176,36.4186,4.25641,0,0,0,0,0,0,0,-1,1994,848,36.4186,-4.25639
777,176,43.8328,7.50177,0,0,0,0,0,0,0,-1,2001,848,43.8328,-7.50178
784,176,0,0,0,0,0,0,0,0,0,-1,2008,848,0,0
791,176,0,0,0,0,0,0,0,0,0,-1,2015,848,0,0
798,176,0,0,0,0,0,0,0,0,0,-1,2022,848,0,0
805,176,0,0,0,0,0,0,0,0,0,-1,2029,848,0,0
812,176,0,0,0,0,0,0,0,0,0,-1,2036,848,0,0
-700,169,0,0,0,0,0,0,0,0,0,-1,524,855,0,0
-693,169,0,0,0,0,0,0,0,0,0,-1,531,855,0,0
-686,169,0,0,0,0,0,0,0,0,0,-1,538,855,0,0
-679,169,0,0,0,0,0,0,0,0,0,-1,545,855,0,0
-672,169,0,0,0,0,0,0,0,0,0,-1,552,855,0,0
-665,169,-50.4697,8.3269,0,0,0,0,0,0,0,-1,559,855,-50.4697,-8.32688
-658,169,-58.8608,8.22839,0,0,0,0,0,0,0,-1,566,855,-58.8608,-8.2284
-651,169,-134.47,33.6487,0,0,0,0,0,0,0,-1,573,855,-134.47,-33.6487
-644,169,-134.489,32.519,0,0,0,0,0,0,0,-1,580,855,-134.489,-32.5191
-637,169,-139.811,32.4285,0,0,0,0,0,0,0,-1,587,855,-139.811,-32.4285
-630,169,-181.421,38.7942,0,0,0,0,0,0,0,-1,594,855,-181.421,-38.7942
-623,169,-180.991,36.8817,0.0143308,0.0558064,0.00925857,0.0577793,0.0123579,1.36084,0.0351324,0.0473742,601,855,-180.991,-36.8817
-616,169,-180.449,35.1057,0.00427258,0.0503164,0.0111915,0.0528925,0.00169649,1.34455,0.03471,0.0378771,608,855,-180.449,-35.1056
-609,169,-180.523,33.6508,-0.000973555,0.0448478,0.0119966,0.0477986,-0.00392437,1.32961,0.0332511,0.0214811,615,855,-180.523,-33.6508
-602,169,-180.786,32.059,-0.00380054,0.0392632,0.0118242,0.0422962,-0.00683353,1.3197,0.0307296,0.0174571,622,855,-180.786,-32.059
-595,169,-181.072,30.3567,-0.00502467,0.0336424,0.011094,0.0365993,-0.00798154,1.31032,0.0274496,0.0180697,629,855,-181.072,-30.3567
-588,169,-181.314,28.6686,-0.0048209,0.0280774,0.00993381,0.0308443,-0.00758776,1.29915,0.023504,0.0191221,636,855,-181.314,-28.6686
-581,169,-181.551,26.9716,-0.00334702,0.0226667,0.00844031,0.0251652,-0.00584555,1.28299,0.0190271,0.0356078,643,855,-181.551,-26.9715
-574,169,-182.082,25.2113,-0.000753906,0.0175021,0.00669634,0.0196949,-0.00294674,1.25433,0.0142144,0.045509,650,855,-182.082,-25.2113
-567,169,-182.33,23.1865,0.00503173,0.0123782,0.00369135,0.0139126,0.0034974,1.17687,0.00835685,0.0430446,657,855,-182.33,-23.1865
-560,169,-182.823,21.388,0,0,0,0,0,0,0,-1,664,855,-182.823,-21.388
-553,169,-32.1944,-0.787964,0,0,0,0,0,0,0,-1,671,855,-32.1944,0.787959
-546,169,-19.0852,-1.05609,0,0,0,0,0,0,0,-1,678,855,-19.0852,1.05612
-539,169,-33.2307,1.10706,0,0,0,0,0,0,0,-1,685,855,-33.2307,-1.10708
-532,169,-71.3272,0.203064,0,0,0,0,0,0,0,-1,692,855,-71.3272,-0.203058
-525,169,-72.7736,0.297241,0,0,0,0,0,0,0,-1,699,855,-72.7736,-0.297265
-518,169,-72.6509,0.381287,0,0,0,0,0,0,0,-1,706,855,-72.6509,-0.38129
-511,169,-72.4978,0.552429,0,0,0,0,0,0,0,-1,713,855,-72.4978,-0.552413
-504,169,-72.7489,0.517273,0,0,0,0,0,0,0,-1,720,855,-72.7489,-0.517272
-497,169,-72.8129,0.525146,0,0,0,0,0,0,0,-1,727,855,-72.8129,-0.525136
-490,169,0,0,0,0,0,0,0,0,0,-1,734,855,0,0
-483,169,0,0,0,0,0,0,0,0,0,-1,741,855,0,0
-476,169,0,0,0,0,0,0,0,0,0,-1,748,855,0,0
-469,169,0,0,0,0,0,0,0,0,0,-1,755,855,0,0
-462,169,0,0,0,0,0,0,0,0,0,-1,762,855,0,0
-455,169,0,0,0,0,0,0,0,0,0,-1,769,855,0,0
-448,169,0,0,0,0,0,0,0,0,0,-1,776,855,0,0
-441,169,0,0,0,0,0,0,0,0,0,-1,783,855,0,0
-434,169,0,0,0,0,0,0,0,0,0,-1,790,855,0,0
-427,169,0,0,0,0,0,0,0,0,0,-1,797,855,0,0
-420,169,0,0,0,0,0,0,0,0,0,-1,804,855,0,0
-413,169,0,0,0,0,0,0,0,0,0,-1,811,855,0,0
-406,169,0,0,0,0,0,0,0,0,0,-1,818,855,0,0
-399,169,0,0,0,0,0,0,0,0,0,-1,825,855,0,0
-392,169,0,0,0,0,0,0,0,0,0,-1,832,855,0,0
-385,169,0,0,0,0,0,0,0,0,0,-1,839,855,0,0
-378,169,0,0,0,0,0,0,0,0,0,-1,846,855,0,0
-371,169,0,0,0,0,0,0,0,0,0,-1,853,855,0,0
-364,169,0,0,0,0,0,0,0,0,0,-1,860,855,0,0
-357,169,0,0,0,0,0,0,0,0,0,-1,867,855,0,0
-350,169,0,0,0,0,0,0,0,0,0,-1,874,855,0,0
-343,169,0,0,0,0,0,0,0,0,0,-1,881,855,0,0
-336,169,0,0,0,0,0,0,0,0,0,-1,888,855,0,0
-329,169,0,0,0,0,0,0,0,0,0,-1,895,855,0,0
-322,169,0,0,0,0,0,0,0,0,0,-1,902,855,0,0
-315,169,0,0,0,0,0,0,0,0,0,-1,909,855,0,0
-308,169,0,0,0,0,0,0,0,0,0,-1,916,855,0,0
-301,169,0,0,0,0,0,0,0,0,0,-1,923,855,0,0
-294,169,0,0,0,0,0,0,0,0,0,-1,930,855,0,0
-287,169,0,0,0,0,0,0,0,0,0,-1,937,855,0,0
-280,169,0,0,0,0,0,0,0,0,0,-1,944,855,0,0
-273,169,0,0,0,0,0,0,0,0,0,-1,951,855,0,0
-266,169,0,0,0,0,0,0,0,0,0,-1,958,855,0,0
-259,169,0,0,0,0,0,0,0,0,0,-1,965,855,0,0
-252,169,0,0,0,0,0,0,0,0,0,-1,972,855,0,0
-245,169,0,0,0,0,0,0,0,0,0,-1,979,855,0,0
-238,169,0,0,0,0,0,0,0,0,0,-1,986,855,0,0
-231,169,0,0,0,0,0,0,0,0,0,-1,993,855,0,0
-224,169,0,0,0,0,0,0,0,0,0,-1,1000,855,0,0
-217,169,0,0,0,0,0,0,0,0,0,-1,1007,855,0,0
-210,169,0,0,0,0,0,0,0,0,0,-1,1014,855,0,0
-203,169,0,0,0,0,0,0,0,0,0,-1,1021,855,0,0
-196,169,0,0,0,0,0,0,0,0,0,-1,1028,855,0,0
-189,169,0,0,0,0,0,0,0,0,0,-1,1035,855,0,0
-182,169,0,0,0,0,0,0,0,0,0,-1,1042,855,0,0
-175,169,0,0,0,0,0,0,0,0,0,-1,1049,855,0,0
-168,169,0,0,0,0,0,0,0,0,0,-1,1056,855,0,0
-161,169,0,0,0,0,0,0,0,0,0,-1,1063,855,0,0
-154,169,0,0,0,0,0,0,0,0,0,-1,1070,855,0,0
-147,169,0,0,0,0,0,0,0,0,0,-1,1077,855,0,0
-140,169,0,0,0,0,0,0,0,0,0,-1,1084,855,0,0
-133,169,0,0,0,0,0,0,0,0,0,-1,1091,855,0,0
-126,169,0,0,0,0,0,0,0,0,0,-1,1098,855,0,0
-119,169,0,0,0,0,0,0,0,0,0,-1,1105,855,0,0
-112,169,0,0,0,0,0,0,0,0,0,-1,1112,855,0,0
-105,169,0,0,0,0,0,0,0,0,0,-1,1119,855,0,0
-98,169,0,0,0,0,0,0,0,0,0,-1,1126,855,0,0
-91,169,0,0,0,0,0,0,0,0,0,-1,1133,855,0,0
-84,169,0,0,0,0,0,0,0,0,0,-1,1140,855,0,0
-77,169,0,0,0,0,0,0,0,0,0,-1,1147,855,0,0
-70,169,0,0,0,0,0,0,0,0,0,-1,1154,855,0,0
-63,169,0,0,0,0,0,0,0,0,0,-1,1161,855,0,0
-56,169,0,0,0,0,0,0,0,0,0,-1,1168,855,0,0
-49,169,0,0,0,0,0,0,0,0,0,-1,1175,855,0,0
-42,169,0,0,0,0,0,0,0,0,0,-1,1182,855,0,0
-35,169,0,0,0,0,0,0,0,0,0,-1,1189,855,0,0
-28,169,0,0,0,0,0,0,0,0,0,-1,1196,855,0,0
-21,169,0,0,0,0,0,0,0,0,0,-1,1203,855,0,0
-14,169,0,0,0,0,0,0,0,0,0,-1,1210,855,0,0
-7,169,0,0,0,0,0,0,0,0,0,-1,1217,855,0,0
0,169,0,0,0,0,0,0,0,0,0,-1,1224,855,0,0
7,169,0,0,0,0,0,0,0,0,0,-1,1231,855,0,0
14,169,0,0,0,0,0,0,0,0,0,-1,1238,855,0,0
21,169,0,0,0,0,0,0,0,0,0,-1,1245,855,0,0
28,169,0,0,0,0,0,0,0,0,0,-1,1252,855,0,0
35,169,0,0,0,0,0,0,0,0,0,-1,1259,855,0,0
42,169,0,0,0,0,0,0,0,0,0,-1,1266,855,0,0
49,169,0,0,0,0,0,0,0,0,0,-1,1273,855,0,0
56,169,0,0,0,0,0,0,0,0,0,-1,1280,855,0,0
63,169,0,0,0,0,0,0,0,0,0,-1,1287,855,0,0
70,169,0,0,0,0,0,0,0,0,0,-1,1294,855,0,0
77,169,0,0,0,0,0,0,0,0,0,-1,1301,855,0,0
84,169,0,0,0,0,0,0,0,0,0,-1,1308,855,0,0
91,169,0,0,0,0,0,0,0,0,0,-1,1315,855,0,0
98,169,0,0,0,0,0,0,0,0,0,-1,1322,855,0,0
105,169,0,0,0,0,0,0,0,0,0,-1,1329,855,0,0
112,169,0,0,0,0,0,0,0,0,0,-1,1336,855,0,0
119,169,0,0,0,0,0,0,0,0,0,-1,1343,855,0,0
126,169,0,0,0,0,0,0,0,0,0,-1,1350,855,0,0
133,169,0,0,0,0,0,0,0,0,0,-1,1357,855,0,0
140,169,0,0,0,0,0,0,0,0,0,-1,1364,855,0,0
147,169,0,0,0,0,0,0,0,0,0,-1,1371,855,0,0
154,169,0,0,0,0,0,0,0,0,0,-1,1378,855,0,0
161,169,0,0,0,0,0,0,0,0,0,-1,1385,855,0,0
168,169,0,0,0,0,0,0,0,0,0,-1,1392,855,0,0
175,169,0,0,0,0,0,0,0,0,0,-1,1399,855,0,0
182,169,0,0,0,0,0,0,0,0,0,-1,1406,855,0,0
189,169,0,0,0,0,0,0,0,0,0,-1,1413,855,0,0
196,169,0,0,0,0,0,0,0,0,0,-1,1420,855,0,0
203,169,0,0,0,0,0,0,0,0,0,-1,1427,855,0,0
210,169,0,0,0,0,0,0,0,0,0,-1,1434,855,0,0
217,169,0,0,0,0,0,0,0,0,0,-1,1441,855,0,0
224,169,0,0,0,0,0,0,0,0,0,-1,1448,855,0,0
231,169,0,0,0,0,0,0,0,0,0,-1,1455,855,0,0
238,169,0,0,0,0,0,0,0,0,0,-1,1462,855,0,0
245,169,0,0,0,0,0,0,0,0,0,-1,1469,855,0,0
252,169,0,0,0,0,0,0,0,0,0,-1,1476,855,0,0
259,169,0,0,0,0,0,0,0,0,0,-1,1483,855,0,0
266,169,0,0,0,0,0,0,0,0,0,-1,1490,855,0,0
273,169,0,0,0,0,0,0,0,0,0,-1,1497,855,0,0
280,169,0,0,0,0,0,0,0,0,0,-1,1504,855,0,0
287,169,0,0,0,0,0,0,0,0,0,-1,1511,855,0,0
294,169,0,0,0,0,0,0,0,0,0,-1,1518,855,0,0
301,169,0,0,0,0,0,0,0,0,0,-1,1525,855,0,0
308,169,0,0,0,0,0,0,0,0,0,-1,1532,855,0,0
315,169,0,0,0,0,0,0,0,0,0,-1,1539,855,0,0
322,169,0,0,0,0,0,0,0,0,0,-1,1546,855,0,0
329,169,0,0,0,0,0,0,0,0,0,-1,1553,855,0,0
336,169,0,0,0,0,0,0,0,0,0,-1,1560,855,0,0
343,169,0,0,0,0,0,0,0,0,0,-1,1567,855,0,0
350,169,0,0,0,0,0,0,0,0,0,-1,1574,855,0,0
357,169,0,0,0,0,0,0,0,0,0,-1,1581,855,0,0
364,169,0,0,0,0,0,0,0,0,0,-1,1588,855,0,0
371,169,0,0,0,0,0,0,0,0,0,-1,1595,855,0,0
378,169,0,0,0,0,0,0,0,0,0,-1,1602,855,0,0
385,169,0,0,0,0,0,0,0,0,0,-1,1609,855,0,0
392,169,0,0,0,0,0,0,0,0,0,-1,1616,855,0,0
399,169,0,0,0,0,0,0,0,0,0,-1,1623,855,0,0
406,169,0,0,0,0,0,0,0,0,0,-1,1630,855,0,0
413,169,0,0,0,0,0,0,0,0,0,-1,1637,855,0,0
420,169,0,0,0,0,0,0,0,0,0,-1,1644,855,0,0
427,169,0,0,0,0,0,0,0,0,0,-1,1651,855,0,0
434,169,0,0,0,0,0,0,0,0,0,-1,1658,855,0,0
441,169,0,0,0,0,0,0,0,0,0,-1,1665,855,0,0
448,169,0,0,0,0,0,0,0,0,0,-1,1672,855,0,0
455,169,0,0,0,0,0,0,0,0,0,-1,1679,855,0,0
462,169,0,0,0,0,0,0,0,0,0,-1,1686,855,0,0
469,169,0,0,0,0,0,0,0,0,0,-1,1693,855,0,0
476,169,0,0,0,0,0,0,0,0,0,-1,1700,855,0,0
483,169,0,0,0,0,0,0,0,0,0,-1,1707,855,0,0
490,169,0,0,0,0,0,0,0,0,0,-1,1714,855,0,0
497,169,0,0,0,0,0,0,0,0,0,-1,1721,855,0,0
504,169,0,0,0,0,0,0,0,0,0,-1,1728,855,0,0
511,169,0,0,0,0,0,0,0,0,0,-1,1735,855,0,0
518,169,0,0,0,0,0,0,0,0,0,-1,1742,855,0,0
525,169,0,0,0,0,0,0,0,0,0,-1,1749,855,0,0
532,169,0,0,0,0,0,0,0,0,0,-1,1756,855,0,0
539,169,0,0,0,0,0,0,0,0,0,-1,1763,855,0,0
546,169,0,0,0,0,0,0,0,0,0,-1,1770,855,0,0
553,169,0,0,0,0,0,0,0,0,0,-1,1777,855,0,0
560,169,0,0,0,0,0,0,0,0,0,-1,1784,855,0,0
567,169,0,0,0,0,0,0,0,0,0,-1,1791,855,0,0
574,169,0,0,0,0,0,0,0,0,0,-1,1798,855,0,0
581,169,0,0,0,0,0,0,0,0,0,-1,1805,855,0,0
588,169,0,0,0,0,0,0,0,0,0,-1,1812,855,0,0
595,169,0,0,0,0,0,0,0,0,0,-1,1819,855,0,0
602,169,0,0,0,0,0,0,0,0,0,-1,1826,855,0,0
609,169,0,0,0,0,0,0,0,0,0,-1,1833,855,0,0
616,169,215.287,8.5329,0,0,0,0,0,0,0,-1,1840,855,215.287,-8.53292
623,169,215.583,8.76678,0,0,0,0,0,0,0,-1,1847,855,215.583,-8.76681
630,169,215.422,8.70532,0,0,0,0,0,0,0,-1,1854,855,215.422,-8.70533
637,169,215.277,8.71667,0,0,0,0,0,0,0,-1,1861,855,215.277,-8.71665
644,169,215.206,8.69666,0,0,0,0,0,0,0,-1,1868,855,215.205,-8.69668
651,169,215.236,8.64612,0,0,0,0,0,0,0,-1,1875,855,215.236,-8.64613
658,169,215.164,8.76178,0,0,0,0,0,0,0,-1,1882,855,215.164,-8.76177
665,169,74.1068,1.9809,0,0,0,0,0,0,0,-1,1889,855,74.1069,-1.98093
672,169,31.2465,2.96387,0,0,0,0,0,0,0,-1,1896,855,31.2464,-2.9639
679,169,38.4297,1.08197,0,0,0,0,0,0,0,-1,1903,855,38.4296,-1.08194
686,169,170.483,18.8353,0,0,0,0,0,0,0,-1,1910,855,170.483,-18.8353
693,169,191.048,21.7432,0,0,0,0,0,0,0,-1,1917,855,191.048,-21.7432
700,169,191.115,23.9407,0,0,0,0,0,0,0,-1,1924,855,191.115,-23.9407
707,169,191.181,26.1382,0,0,0,0,0,0,0,-1,1931,855,191.181,-26.1382
714,169,190.199,27.1564,-0.00867544,0.0190394,-0.00882595,0.0216114,-0.0112474,-1.28724,0.019283,0.0331151,1938,855,190.199,-27.1564
721,169,190.115,28.9243,-0.0111747,0.0250768,-0.0117562,0.0285555,-0.0146534,-1.2831,0.0253734,0.0299721,1945,855,190.115,-28.9243
728,169,189.814,30.5837,-0.0140331,0.0309474,-0.0148481,0.0354067,-0.0184924,-1.27904,0.0316253,0.0250761,1952,855,189.814,-30.5838
735,169,189.365,32.2108,-0.0171315,0.0366814,-0.0180762,0.0421895,-0.0226396,-1.27502,0.0379922,0.0327621,1959,855,189.365,-32.2107
742,169,188.988,33.7051,-0.0203503,0.0423172,-0.0214053,0.0489307,-0.0269637,-1.27114,0.0444253,0.026639,1966,855,188.988,-33.7051
749,169,188.681,35.1447,0,0,0,0,0,0,0,-1,1973,855,188.681,-35.1447
756,169,188.167,35.5233,0,0,0,0,0,0,0,-1,1980,855,188.168,-35.5233
763,169,61.2976,7.40009,0,0,0,0,0,0,0,-1,1987,855,61.2975,-7.40007
770,169,37.2059,3.97021,0,0,0,0,0,0,0,-1,1994,855,37.2059,-3.97022
777,169,41.7505,8.7085,0,0,0,0,0,0,0,-1,2001,855,41.7505,-8.70852
784,169,40.7385,9.24359,0,0,0,0,0,0,0,-1,2008,855,40.7384,-9.24361
791,169,0,0,0,0,0,0,0,0,0,-1,2015,855,0,0
798,169,0,0,0,0,0,0,0,0,0,-1,2022,855,0,0
805,169,0,0,0,0,0,0,0,0,0,-1,2029,855,0,0
812,169,0,0,0,0,0,0,0,0,0,-1,2036,855,0,0
-700,162,0,0,0,0,0,0,0,0,0,-1,524,862,0,0
-693,162,0,0,0,0,0,0,0,0,0,-1,531,862,0,0
-686,162,0,0,0,0,0,0,0,0,0,-1,538,862,0,0
-679,162,0,0,0,0,0,0,0,0,0,-1,545,862,0,0
-672,162,0,0,0,0,0,0,0,0,0,-1,552,862,0,0
-665,162,-50.6751,7.18884,0,0,0,0,0,0,0,-1,559,862,-50.6751,-7.18885
-658,162,-50.7888,6.02673,0,0,0,0,0,0,0,-1,566,862,-50.7888,-6.02673
-651,162,-132.896,33.8102,0,0,0,0,0,0,0,-1,573,862,-132.896,-33.8102
-644,162,-140.793,32.8753,0,0,0,0,0,0,0,-1,580,862,-140.793,-32.8753
-637,162,-150.535,35.4913,0,0,0,0,0,0,0,-1,587,862,-150.535,-35.4913
-630,162,-182.521,38.0974,0,0,0,0,0,0,0,-1,594,862,-182.521,-38.0974
-623,162,-182.272,36.5481,0.0123114,0.0530787,0.00878347,0.0548906,0.0104995,1.36736,0.0336445,0.0463254,601,862,-182.272,-36.5481
-616,162,-182.161,35.041,0.00340291,0.0476518,0.0103831,0.0499671,0.00108765,1.3514,0.0329548,0.0346892,608,862,-182.161,-35.041
-609,162,-182.417,33.5795,-0.00157979,0.0423081,0.0110598,0.0449376,-0.00420931,1.33737,0.0314555,0.0214187,615,862,-182.417,-33.5795
-602,162,-182.672,32.0322,-0.00450064,0.0368746,0.0108932,0.0395673,-0.00719332,1.32846,0.0290741,0.0174601,622,862,-182.672,-32.0322
-595,162,-182.924,30.4238,-0.00593914,0.0313932,0.0102091,0.0340026,-0.00854858,1.32055,0.0259909,0.0200411,629,862,-182.924,-30.4238
-588,162,-183.098,28.7664,-0.00599274,0.0259602,0.00910087,0.0283705,-0.00840304,1.3119,0.02225,0.0279008,636,862,-183.098,-28.7664
-581,162,-183.401,26.7968,0,0,0,0,0,0,0,-1,643,862,-183.401,-26.7968
-574,162,-184.319,24.9166,0,0,0,0,0,0,0,-1,650,862,-184.319,-24.9166
-567,162,-184.896,23.1196,0,0,0,0,0,0,0,-1,657,862,-184.896,-23.1196
-560,162,-36.5075,-0.831665,0,0,0,0,0,0,0,-1,664,862,-36.5075,0.831657
-553,162,-35.9823,-1.60956,0,0,0,0,0,0,0,-1,671,862,-35.9823,1.60954
-546,162,-22.8181,-1.51154,0,0,0,0,0,0,0,-1,678,862,-22.8181,1.51155
-539,162,-53.0229,0.9328,0,0,0,0,0,0,0,-1,685,862,-53.0229,-0.932798
-532,162,-72.6682,0.448364,0,0,0,0,0,0,0,-1,692,862,-72.6681,-0.44835
-525,162,-72.7237,0.432861,0,0,0,0,0,0,0,-1,699,862,-72.7237,-0.432833
-518,162,-72.6802,0.400024,0,0,0,0,0,0,0,-1,706,862,-72.6803,-0.400041
-511,162,-72.5015,0.546997,0,0,0,0,0,0,0,-1,713,862,-72.5015,-0.54698
-504,162,-72.6396,0.532898,0,0,0,0,0,0,0,-1,720,862,-72.6396,-0.532875
-497,162,-72.7673,0.427124,0,0,0,0,0,0,0,-1,727,862,-72.7673,-0.427125
-490,162,0,0,0,0,0,0,0,0,0,-1,734,862,0,0
-483,162,0,0,0,0,0,0,0,0,0,-1,741,862,0,0
-476,162,0,0,0,0,0,0,0,0,0,-1,748,862,0,0
-469,162,0,0,0,0,0,0,0,0,0,-1,755,862,0,0
-462,162,0,0,0,0,0,0,0,0,0,-1,762,862,0,0
-455,162,0,0,0,0,0,0,0,0,0,-1,769,862,0,0
-448,162,0,0,0,0,0,0,0,0,0,-1,776,862,0,0
-441,162,0,0,0,0,0,0,0,0,0,-1,783,862,0,0
-434,162,0,0,0,0,0,0,0,0,0,-1,790,862,0,0
-427,162,0,0,0,0,0,0,0,0,0,-1,797,862,0,0
-420,162,0,0,0,0,0,0,0,0,0,-1,804,862,0,0
-413,162,0,0,0,0,0,0,0,0,0,-1,811,862,0,0
-406,162,0,0,0,0,0,0,0,0,0,-1,818,862,0,0
-399,162,0,0,0,0,0,0,0,0,0,-1,825,862,0,0
-392,162,0,0,0,0,0,0,0,0,0,-1,832,862,0,0
-385,162,0,0,0,0,0,0,0,0,0,-1,839,862,0,0
-378,162,0,0,0,0,0,0,0,0,0,-1,846,862,0,0
-371,162,0,0,0,0,0,0,0,0,0,-1,853,862,0,0
-364,162,0,0,0,0,0,0,0,0,0,-1,860,862,0,0
-357,162,0,0,0,0,0,0,0,0,0,-1,867,862,0,0
-350,162,0,0,0,0,0,0,0,0,0,-1,874,862,0,0
-343,162,0,0,0,0,0,0,0,0,0,-1,881,862,0,0
-336,162,0,0,0,0,0,0,0,0,0,-1,888,862,0,0
-329,162,0,0,0,0,0,0,0,0,0,-1,895,862,0,0
-322,162,0,0,0,0,0,0,0,0,0,-1,902,862,0,0
-315,162,0,0,0,0,0,0,0,0,0,-1,909,862,0,0
-308,162,0,0,0,0,0,0,0,0,0,-1,916,862,0,0
-301,162,0,0,0,0,0,0,0,0,0,-1,923,862,0,0
-294,162,0,0,0,0,0,0,0,0,0,-1,930,862,0,0
-287,162,0,0,0,0,0,0,0,0,0,-1,937,862,0,0
-280,162,0,0,0,0,0,0,0,0,0,-1,944,862,0,0
-273,162,0,0,0,0,0,0,0,0,0,-1,951,862,0,0
-266,162,0,0,0,0,0,0,0,0,0,-1,958,862,0,0
-259,162,0,0,0,0,0,0,0,0,0,-1,965,862,0,0
-252,162,0,0,0,0,0,0,0,0,0,-1,972,862,0,0
-245,162,0,0,0,0,0,0,0,0,0,-1,979,862,0,0
-238,162,0,0,0,0,0,0,0,0,0,-1,986,862,0,0
-231,162,0,0,0,0,0,0,0,0,0,-1,993,862,0,0
-224,162,0,0,0,0,0,0,0,0,0,-1,1000,862,0,0
-217,162,0,0,0,0,0,0,0,0,0,-1,1007,862,0,0
-210,162,0,0,0,0,0,0,0,0,0,-1,1014,862,0,0
-203,162,0,0,0,0,0,0,0,0,0,-1,1021,862,0,0
-196,162,0,0,0,0,0,0,0,0,0,-1,1028,862,0,0
-189,162,0,0,0,0,0,0,0,0,0,-1,1035,862,0,0
-182,162,0,0,0,0,0,0,0,0,0,-1,1042,862,0,0
-175,162,0,0,0,0,0,0,0,0,0,-1,1049,862,0,0
-168,162,0,0,0,0,0,0,0,0,0,-1,1056,862,0,0
-161,162,0,0,0,0,0,0,0,0,0,-1,1063,862,0,0
-154,162,0,0,0,0,0,0,0,0,0,-1,1070,862,0,0
-147,162,0,0,0,0,0,0,0,0,0,-1,1077,862,0,0
-140,162,0,0,0,0,0,0,0,0,0,-1,1084,862,0,0
-133,162,0,0,0,0,0,0,0,0,0,-1,1091,862,0,0
-126,162,0,0,0,0,0,0,0,0,0,-1,1098,862,0,0
-119,162,0,0,0,0,0,0,0,0,0,-1,1105,862,0,0
-112,162,0,0,0,0,0,0,0,0,0,-1,1112,862,0,0
-105,162,0,0,0,0,0,0,0,0,0,-1,1119,862,0,0
-98,162,0,0,0,0,0,0,0,0,0,-1,1126,862,0,0
-91,162,0,0,0,0,0,0,0,0,0,-1,1133,862,0,0
-84,162,0,0,0,0,0,0,0,0,0,-1,1140,862,0,0
-77,162,0,0,0,0,0,0,0,0,0,-1,1147,862,0,0
-70,162,0,0,0,0,0,0,0,0,0,-1,1154,862,0,0
-63,162,0,0,0,0,0,0,0,0,0,-1,1161,862,0,0
-56,162,0,0,0,0,0,0,0,0,0,-1,1168,862,0,0
-49,162,0,0,0,0,0,0,0,0,0,-1,1175,862,0,0
-42,162,0,0,0,0,0,0,0,0,0,-1,1182,862,0,0
-35,162,0,0,0,0,0,0,0,0,0,-1,1189,862,0,0
-28,162,0,0,0,0,0,0,0,0,0,-1,1196,862,0,0
-21,162,0,0,0,0,0,0,0,0,0,-1,1203,862,0,0
-14,162,0,0,0,0,0,0,0,0,0,-1,1210,862,0,0
-7,162,0,0,0,0,0,0,0,0,0,-1,1217,862,0,0
0,162,0,0,0,0,0,0,0,0,0,-1,1224,862,0,0
7,162,0,0,0,0,0,0,0,0,0,-1,1231,862,0,0
14,162,0,0,0,0,0,0,0,0,0,-1,1238,862,0,0
21,162,0,0,0,0,0,0,0,0,0,-1,1245,862,0,0
28,162,0,0,0,0,0,0,0,0,0,-1,1252,862,0,0
35,162,0,0,0,0,0,0,0,0,0,-1,1259,862,0,0
42,162,0,0,0,0,0,0,0,0,0,-1,1266,862,0,0
49,162,0,0,0,0,0,0,0,0,0,-1,1273,862,0,0
56,162,0,0,0,0,0,0,0,0,0,-1,1280,862,0,0
63,162,0,0,0,0,0,0,0,0,0,-1,1287,862,0,0
70,162,0,0,0,0,0,0,0,0,0,-1,1294,862,0,0
77,162,0,0,0,0,0,0,0,0,0,-1,1301,862,0,0
84,162,0,0,0,0,0,0,0,0,0,-1,1308,862,0,0
91,162,0,0,0,0,0,0,0,0,0,-1,1315,862,0,0
98,162,0,0,0,0,0,0,0,0,0,-1,1322,862,0,0
105,162,0,0,0,0,0,0,0,0,0,-1,1329,862,0,0
112,162,0,0,0,0,0,0,0,0,0,-1,1336,862,0,0
119,162,0,0,0,0,0,0,0,0,0,-1,1343,862,0,0
126,162,0,0,0,0,0,0,0,0,0,-1,1350,862,0,0
133,162,0,0,0,0,0,0,0,0,0,-1,1357,862,0,0
140,162,0,0,0,0,0,0,0,0,0,-1,1364,862,0,0
147,162,0,0,0,0,0,0,0,0,0,-1,1371,862,0,0
154,162,0,0,0,0,0,0,0,0,0,-1,1378,862,0,0
161,162,0,0,0,0,0,0,0,0,0,-1,1385,862,0,0
168,162,0,0,0,0,0,0,0,0,0,-1,1392,862,0,0
175,162,0,0,0,0,0,0,0,0,0,-1,1399,862,0,0
182,162,0,0,0,0,0,0,0,0,0,-1,1406,862,0,0
189,162,0,0,0,0,0,0,0,0,0,-1,1413,862,0,0
196,162,0,0,0,0,0,0,0,0,0,-1,1420,862,0,0
203,162,0,0,0,0,0,0,0,0,0,-1,1427,862,0,0
210,162,0,0,0,0,0,0,0,0,0,-1,1434,862,0,0
217,162,0,0,0,0,0,0,0,0,0,-1,1441,862,0,0
224,162,0,0,0,0,0,0,0,0,0,-1,1448,862,0,0
231,162,0,0,0,0,0,0,0,0,0,-1,1455,862,0,0
238,162,0,0,0,0,0,0,0,0,0,-1,1462,862,0,0
245,162,0,0,0,0,0,0,0,0,0,-1,1469,862,0,0
252,162,0,0,0,0,0,0,0,0,0,-1,1476,862,0,0
259,162,0,0,0,0,0,0,0,0,0,-1,1483,862,0,0
266,162,0,0,0,0,0,0,0,0,0,-1,1490,862,0,0
273,162,0,0,0,0,0,0,0,0,0,-1,1497,862,0,0
280,162,0,0,0,0,0,0,0,0,0,-1,1504,862,0,0
287,162,0,0,0,0,0,0,0,0,0,-1,1511,862,0,0
294,162,0,0,0,0,0,0,0,0,0,-1,1518,862,0,0
301,162,0,0,0,0,0,0,0,0,0,-1,1525,862,0,0
308,162,0,0,0,0,0,0,0,0,0,-1,1532,862,0,0
315,162,0,0,0,0,0,0,0,0,0,-1,1539,862,0,0
322,162,0,0,0,0,0,0,0,0,0,-1,1546,862,0,0
329,162,0,0,0,0,0,0,0,0,0,-1,1553,862,0,0
336,162,0,0,0,0,0,0,0,0,0,-1,1560,862,0,0
343,162,0,0,0,0,0,0,0,0,0,-1,1567,862,0,0
350,162,0,0,0,0,0,0,0,0,0,-1,1574,862,0,0
357,162,0,0,0,0,0,0,0,0,0,-1,1581,862,0,0
364,162,0,0,0,0,0,0,0,0,0,-1,1588,862,0,0
371,162,0,0,0,0,0,0,0,0,0,-1,1595,862,0,0
378,162,0,0,0,0,0,0,0,0,0,-1,1602,862,0,0
385,162,0,0,0,0,0,0,0,0,0,-1,1609,862,0,0
392,162,0,0,0,0,0,0,0,0,0,-1,1616,862,0,0
399,162,0,0,0,0,0,0,0,0,0,-1,1623,862,0,0
406,162,0,0,0,0,0,0,0,0,0,-1,1630,862,0,0
413,162,0,0,0,0,0,0,0,0,0,-1,1637,862,0,0
420,162,0,0,0,0,0,0,0,0,0,-1,1644,862,0,0
427,162,0,0,0,0,0,0,0,0,0,-1,1651,862,0,0
434,162,0,0,0,0,0,0,0,0,0,-1,1658,862,0,0
441,162,0,0,0,0,0,0,0,0,0,-1,1665,862,0,0
448,162,0,0,0,0,0,0,0,0,0,-1,1672,862,0,0
455,162,0,0,0,0,0,0,0,0,0,-1,1679,862,0,0
462,162,0,0,0,0,0,0,0,0,0,-1,1686,862,0,0
469,162,0,0,0,0,0,0,0,0,0,-1,1693,862,0,0
476,162,0,0,0,0,0,0,0,0,0,-1,1700,862,0,0
483,162,0,0,0,0,0,0,0,0,0,-1,1707,862,0,0
490,162,0,0,0,0,0,0,0,0,0,-1,1714,862,0,0
497,162,0,0,0,0,0,0,0,0,0,-1,1721,862,0,0
504,162,0,0,0,0,0,0,0,0,0,-1,1728,862,0,0
511,162,0,0,0,0,0,0,0,0,0,-1,1735,862,0,0
518,162,0,0,0,0,0,0,0,0,0,-1,1742,862,0,0
525,162,0,0,0,0,0,0,0,0,0,-1,1749,862,0,0
532,162,0,0,0,0,0,0,0,0,0,-1,1756,862,0,0
539,162,0,0,0,0,0,0,0,0,0,-1,1763,862,0,0
546,162,0,0,0,0,0,0,0,0,0,-1,1770,862,0,0
553,162,0,0,0,0,0,0,0,0,0,-1,1777,862,0,0
560,162,0,0,0,0,0,0,0,0,0,-1,1784,862,0,0
567,162,0,0,0,0,0,0,0,0,0,-1,1791,862,0,0
574,162,0,0,0,0,0,0,0,0,0,-1,1798,862,0,0
581,162,0,0,0,0,0,0,0,0,0,-1,1805,862,0,0
588,162,0,0,0,0,0,0,0,0,0,-1,1812,862,0,0
595,162,0,0,0,0,0,0,0,0,0,-1,1819,862,0,0
602,162,0,0,0,0,0,0,0,0,0,-1,1826,862,0,0
609,162,0,0,0,0,0,0,0,0,0,-1,1833,862,0,0
616,162,215.338,8.41937,0,0,0,0,0,0,0,-1,1840,862,215.338,-8.41938
623,162,215.427,8.56311,0,0,0,0,0,0,0,-1,1847,862,215.426,-8.56312
630,162,215.418,8.54572,0,0,0,0,0,0,0,-1,1854,862,215.418,-8.54573
637,162,215.258,8.6449,0,0,0,0,0,0,0,-1,1861,862,215.258,-8.64487
644,162,215.222,8.65009,0,0,0,0,0,0,0,-1,1868,862,215.222,-8.65009
651,162,215.213,8.65649,0,0,0,0,0,0,0,-1,1875,862,215.213,-8.6565
658,162,215.207,8.66858,0,0,0,0,0,0,0,-1,1882,862,215.206,-8.66861
665,162,215.162,8.59637,0,0,0,0,0,0,0,-1,1889,862,215.162,-8.59639
672,162,56.9712,3.04034,0,0,0,0,0,0,0,-1,1896,862,56.9711,-3.04034
679,162,26.5077,2.54785,0,0,0,0,0,0,0,-1,1903,862,26.5077,-2.54787
686,162,69.0739,-0.282166,0,0,0,0,0,0,0,-1,1910,862,69.0738,0.28219
693,162,172.14,20.9952,0,0,0,0,0,0,0,-1,1917,862,172.14,-20.9951
700,162,192.931,24.0558,0,0,0,0,0,0,0,-1,1924,862,192.931,-24.0558
707,162,192.452,25.7514,-0.00613426,0.0110476,-0.00471491,0.0122564,-0.00734305,-1.31983,0.0114336,0.0392752,1931,862,192.452,-25.7514
714,162,191.998,27.1749,-0.00803468,0.0170345,-0.00744245,0.0190775,-0.0100777,-1.30289,0.017098,0.0472256,1938,862,191.998,-27.175
721,162,191.823,28.8893,0,0,0,0,0,0,0,-1,1945,862,191.823,-28.8893
728,162,191.402,30.584,-0.0134053,0.0287148,-0.0131264,0.0324706,-0.0171611,-1.29211,0.0291058,0.0398925,1952,862,191.402,-30.584
735,162,191.197,32.1242,-0.0165667,0.0343866,-0.0161552,0.039077,-0.0212571,-1.28823,0.0353367,0.0191185,1959,862,191.197,-32.1242
742,162,190.888,33.5814,-0.0198789,0.0399982,-0.0192629,0.0456599,-0.0255406,-1.28493,0.0416511,0.024141,1966,862,190.888,-33.5814
749,162,190.446,34.8399,-0.023346,0.0456174,-0.0222997,0.0521998,-0.0299285,-1.28377,0.0479944,0.0432945,1973,862,190.446,-34.8399
756,162,189.929,35.9049,0,0,0,0,0,0,0,-1,1980,862,189.93,-35.9049
763,162,87.7278,14.9944,0,0,0,0,0,0,0,-1,1987,862,87.7277,-14.9944
770,162,54.8257,9.36987,0,0,0,0,0,0,0,-1,1994,862,54.8256,-9.36988
777,162,66.324,10.5801,0,0,0,0,0,0,0,-1,2001,862,66.3239,-10.5802
784,162,55.6492,10.6049,0,0,0,0,0,0,0,-1,2008,862,55.6491,-10.6049
791,162,0,0,0,0,0,0,0,0,0,-1,2015,862,0,0
798,162,0,0,0,0,0,0,0,0,0,-1,2022,862,0,0
805,162,0,0,0,0,0,0,0,0,0,-1,2029,862,0,0
812,162,0,0,0,0,0,0,0,0,0,-1,2036,862,0,0
-700,155,0,0,0,0,0,0,0,0,0,-1,524,869,0,0
-693,155,0,0,0,0,0,0,0,0,0,-1,531,869,0,0
-686,155,0,0,0,0,0,0,0,0,0,-1,538,869,0,0
-679,155,0,0,0,0,0,0,0,0,0,-1,545,869,0,0
-672,155,0,0,0,0,0,0,0,0,0,-1,552,869,0,0
-665,155,-50.9639,6.01917,0,0,0,0,0,0,0,-1,559,869,-50.9639,-6.01917
-658,155,-51.2028,4.90723,0,0,0,0,0,0,0,-1,566,869,-51.2028,-4.90722
-651,155,-51.22,3.81226,0,0,0,0,0,0,0,-1,573,869,-51.2201,-3.81228
-644,155,-134.493,32.0388,0,0,0,0,0,0,0,-1,580,869,-134.493,-32.0388
-637,155,-142.264,31.7313,0,0,0,0,0,0,0,-1,587,869,-142.264,-31.7313
-630,155,-183.735,38.3032,0,0,0,0,0,0,0,-1,594,869,-183.735,-38.3032
-623,155,-183.753,36.6078,0.00966179,0.0504935,0.00891664,0.0523558,0.00779955,1.36491,0.0326164,0.0445789,601,869,-183.753,-36.6078
-616,155,-183.937,35.0209,0.00207495,0.0451558,0.00997525,0.0473534,-0.000122681,1.35395,0.0316099,0.0310596,608,869,-183.937,-35.0209
-609,155,-184.206,33.4762,-0.0025289,0.0399239,0.0103609,0.0423176,-0.00492259,1.34375,0.0299876,0.0232777,615,869,-184.206,-33.4762
-602,155,-184.467,31.9744,-0.00550346,0.0346062,0.010063,0.0369893,-0.00788655,1.33826,0.0276656,0.0192237,622,869,-184.467,-31.9744
-595,155,-184.698,30.4319,-0.0072118,0.0292528,0.00929903,0.0314872,-0.00944627,1.33498,0.0247486,0.0190802,629,869,-184.698,-30.432
-588,155,-184.784,28.9195,-0.00769389,0.0239572,0.00814132,0.0259285,-0.00966522,1.33323,0.0212531,0.0353052,636,869,-184.784,-28.9195
-581,155,-184.582,27.3184,0,0,0,0,0,0,0,-1,643,869,-184.582,-27.3183
-574,155,-50.6295,2.30585,0,0,0,0,0,0,0,-1,650,869,-50.6295,-2.30585
-567,155,-38.0134,0.582214,0,0,0,0,0,0,0,-1,657,869,-38.0134,-0.582192
-560,155,-37.1416,-0.708008,0,0,0,0,0,0,0,-1,664,869,-37.1416,0.70801
-553,155,-36.7729,-1.71521,0,0,0,0,0,0,0,-1,671,869,-36.7729,1.71523
-546,155,-22.7988,0.873657,0,0,0,0,0,0,0,-1,678,869,-22.7988,-0.873645
-539,155,-72.6761,0.243042,0,0,0,0,0,0,0,-1,685,869,-72.6761,-0.243061
-532,155,-72.5966,0.578491,0,0,0,0,0,0,0,-1,692,869,-72.5965,-0.578462
-525,155,-72.6186,0.610901,0,0,0,0,0,0,0,-1,699,869,-72.6186,-0.61091
-518,155,-72.5714,0.588013,0,0,0,0,0,0,0,-1,706,869,-72.5714,-0.588003
-511,155,-72.443,0.543091,0,0,0,0,0,0,0,-1,713,869,-72.443,-0.543098
-504,155,-72.4114,0.27301,0,0,0,0,0,0,0,-1,720,869,-72.4115,-0.27298
-497,155,0,0,0,0,0,0,0,0,0,-1,727,869,0,0
-490,155,0,0,0,0,0,0,0,0,0,-1,734,869,0,0
-483,155,0,0,0,0,0,0,0,0,0,-1,741,869,0,0
-476,155,0,0,0,0,0,0,0,0,0,-1,748,869,0,0
-469,155,0,0,0,0,0,0,0,0,0,-1,755,869,0,0
-462,155,0,0,0,0,0,0,0,0,0,-1,762,869,0,0
-455,155,0,0,0,0,0,0,0,0,0,-1,769,869,0,0
-448,155,0,0,0,0,0,0,0,0,0,-1,776,869,0,0
-441,155,0,0,0,0,0,0,0,0,0,-1,783,869,0,0
-434,155,0,0,0,0,0,0,0,0,0,-1,790,869,0,0
-427,155,0,0,0,0,0,0,0,0,0,-1,797,869,0,0
-420,155,0,0,0,0,0,0,0,0,0,-1,804,869,0,0
-413,155,0,0,0,0,0,0,0,0,0,-1,811,869,0,0
-406,155,0,0,0,0,0,0,0,0,0,-1,818,869,0,0
-399,155,0,0,0,0,0,0,0,0,0,-1,825,869,0,0
-392,155,0,0,0,0,0,0,0,0,0,-1,832,869,0,0
-385,155,0,0,0,0,0,0,0,0,0,-1,839,869,0,0
-378,155,0,0,0,0,0,0,0,0,0,-1,846,869,0,0
-371,155,0,0,0,0,0,0,0,0,0,-1,853,869,0,0
-364,155,0,0,0,0,0,0,0,0,0,-1,860,869,0,0
-357,155,0,0,0,0,0,0,0,0,0,-1,867,869,0,0
-350,155,0,0,0,0,0,0,0,0,0,-1,874,869,0,0
-343,155,0,0,0,0,0,0,0,0,0,-1,881,869,0,0
-336,155,0,0,0,0,0,0,0,0,0,-1,888,869,0,0
-329,155,0,0,0,0,0,0,0,0,0,-1,895,869,0,0
-322,155,0,0,0,0,0,0,0,0,0,-1,902,869,0,0
-315,155,0,0,0,0,0,0,0,0,0,-1,909,869,0,0
-308,155,0,0,0,0,0,0,0,0,0,-1,916,869,0,0
-301,155,0,0,0,0,0,0,0,0,0,-1,923,869,0,0
-294,155,0,0,0,0,0,0,0,0,0,-1,930,869,0,0
-287,155,0,0,0,0,0,0,0,0,0,-1,937,869,0,0
-280,155,0,0,0,0,0,0,0,0,0,-1,944,869,0,0
-273,155,0,0,0,0,0,0,0,0,0,-1,951,869,0,0
-266,155,0,0,0,0,0,0,0,0,0,-1,958,869,0,0
-259,155,0,0,0,0,0,0,0,0,0,-1,965,869,0,0
-252,155,0,0,0,0,0,0,0,0,0,-1,972,869,0,0
-245,155,0,0,0,0,0,0,0,0,0,-1,979,869,0,0
-238,155,0,0,0,0,0,0,0,0,0,-1,986,869,0,0
-231,155,0,0,0,0,0,0,0,0,0,-1,993,869,0,0
-224,155,0,0,0,0,0,0,0,0,0,-1,1000,869,0,0
-217,155,0,0,0,0,0,0,0,0,0,-1,1007,869,0,0
-210,155,0,0,0,0,0,0,0,0,0,-1,1014,869,0,0
-203,155,0,0,0,0,0,0,0,0,0,-1,1021,869,0,0
-196,155,0,0,0,0,0,0,0,0,0,-1,1028,869,0,0
-189,155,0,0,0,0,0,0,0,0,0,-1,1035,869,0,0
-182,155,0,0,0,0,0,0,0,0,0,-1,1042,869,0,0
-175,155,0,0,0,0,0,0,0,0,0,-1,1049,869,0,0
-168,155,0,0,0,0,0,0,0,0,0,-1,1056,869,0,0
-161,155,0,0,0,0,0,0,0,0,0,-1,1063,869,0,0
-154,155,0,0,0,0,0,0,0,0,0,-1,1070,869,0,0
-147,155,0,0,0,0,0,0,0,0,0,-1,1077,869,0,0
-140,155,0,0,0,0,0,0,0,0,0,-1,1084,869,0,0
-133,155,0,0,0,0,0,0,0,0,0,-1,1091,869,0,0
-126,155,0,0,0,0,0,0,0,0,0,-1,1098,869,0,0
-119,155,0,0,0,0,0,0,0,0,0,-1,1105,869,0,0
-112,155,0,0,0,0,0,0,0,0,0,-1,1112,869,0,0
-105,155,0,0,0,0,0,0,0,0,0,-1,1119,869,0,0
-98,155,0,0,0,0,0,0,0,0,0,-1,1126,869,0,0
-91,155,0,0,0,0,0,0,0,0,0,-1,1133,869,0,0
-84,155,0,0,0,0,0,0,0,0,0,-1,1140,869,0,0
-77,155,0,0,0,0,0,0,0,0,0,-1,1147,869,0,0
-70,155,0,0,0,0,0,0,0,0,0,-1,1154,869,0,0
-63,155,0,0,0,0,0,0,0,0,0,-1,1161,869,0,0
-56,155,0,0,0,0,0,0,0,0,0,-1,1168,869,0,0
-49,155,0,0,0,0,0,0,0,0,0,-1,1175,869,0,0
-42,155,0,0,0,0,0,0,0,0,0,-1,1182,869,0,0
-35,155,0,0,0,0,0,0,0,0,0,-1,1189,869,0,0
-28,155,0,0,0,0,0,0,0,0,0,-1,1196,869,0,0
-21,155,0,0,0,0,0,0,0,0,0,-1,1203,869,0,0
-14,155,0,0,0,0,0,0,0,0,0,-1,1210,869,0,0
-7,155,0,0,0,0,0,0,0,0,0,-1,1217,869,0,0
0,155,0,0,0,0,0,0,0,0,0,-1,1224,869,0,0
7,155,0,0,0,0,0,0,0,0,0,-1,1231,869,0,0
14,155,0,0,0,0,0,0,0,0,0,-1,1238,869,0,0
21,155,0,0,0,0,0,0,0,0,0,-1,1245,869,0,0
28,155,0,0,0,0,0,0,0,0,0,-1,1252,869,0,0
35,155,0,0,0,0,0,0,0,0,0,-1,1259,869,0,0
42,155,0,0,0,0,0,0,0,0,0,-1,1266,869,0,0
49,155,0,0,0,0,0,0,0,0,0,-1,1273,869,0,0
56,155,0,0,0,0,0,0,0,0,0,-1,1280,869,0,0
63,155,0,0,0,0,0,0,0,0,0,-1,1287,869,0,0
70,155,0,0,0,0,0,0,0,0,0,-1,1294,869,0,0
77,155,0,0,0,0,0,0,0,0,0,-1,1301,869,0,0
84,155,0,0,0,0,0,0,0,0,0,-1,1308,869,0,0
91,155,0,0,0,0,0,0,0,0,0,-1,1315,869,0,0
98,155,0,0,0,0,0,0,0,0,0,-1,1322,869,0,0
105,155,0,0,0,0,0,0,0,0,0,-1,1329,869,0,0
112,155,0,0,0,0,0,0,0,0,0,-1,1336,869,0,0
119,155,0,0,0,0,0,0,0,0,0,-1,1343,869,0,0
126,155,0,0,0,0,0,0,0,0,0,-1,1350,869,0,0
133,155,0,0,0,0,0,0,0,0,0,-1,1357,869,0,0
140,155,0,0,0,0,0,0,0,0,0,-1,1364,869,0,0
147,155,0,0,0,0,0,0,0,0,0,-1,1371,869,0,0
154,155,0,0,0,0,0,0,0,0,0,-1,1378,869,0,0
161,155,0,0,0,0,0,0,0,0,0,-1,1385,869,0,0
168,155,0,0,0,0,0,0,0,0,0,-1,1392,869,0,0
175,155,0,0,0,0,0,0,0,0,0,-1,1399,869,0,0
182,155,0,0,0,0,0,0,0,0,0,-1,1406,869,0,0
189,155,0,0,0,0,0,0,0,0,0,-1,1413,869,0,0
196,155,0,0,0,0,0,0,0,0,0,-1,1420,869,0,0
203,155,0,0,0,0,0,0,0,0,0,-1,1427,869,0,0
210,155,0,0,0,0,0,0,0,0,0,-1,1434,869,0,0
217,155,0,0,0,0,0,0,0,0,0,-1,1441,869,0,0
224,155,0,0,0,0,0,0,0,0,0,-1,1448,869,0,0
231,155,0,0,0,0,0,0,0,0,0,-1,1455,869,0,0
238,155,0,0,0,0,0,0,0,0,0,-1,1462,869,0,0
245,155,0,0,0,0,0,0,0,0,0,-1,1469,869,0,0
252,155,0,0,0,0,0,0,0,0,0,-1,1476,869,0,0
259,155,0,0,0,0,0,0,0,0,0,-1,1483,869,0,0
266,155,0,0,0,0,0,0,0,0,0,-1,1490,869,0,0
273,155,0,0,0,0,0,0,0,0,0,-1,1497,869,0,0
280,155,0,0,0,0,0,0,0,0,0,-1,1504,869,0,0
287,155,0,0,0,0,0,0,0,0,0,-1,1511,869,0,0
294,155,0,0,0,0,0,0,0,0,0,-1,1518,869,0,0
301,155,0,0,0,0,0,0,0,0,0,-1,1525,869,0,0
308,155,0,0,0,0,0,0,0,0,0,-1,1532,869,0,0
315,155,0,0,0,0,0,0,0,0,0,-1,1539,869,0,0
322,155,0,0,0,0,0,0,0,0,0,-1,1546,869,0,0
329,155,0,0,0,0,0,0,0,0,0,-1,1553,869,0,0
336,155,0,0,0,0,0,0,0,0,0,-1,1560,869,0,0
343,155,0,0,0,0,0,0,0,0,0,-1,1567,869,0,0
350,155,0,0,0,0,0,0,0,0,0,-1,1574,869,0,0
357,155,0,0,0,0,0,0,0,0,0,-1,1581,869,0,0
364,155,0,0,0,0,0,0,0,0,0,-1,1588,869,0,0
371,155,0,0,0,0,0,0,0,0,0,-1,1595,869,0,0
378,155,0,0,0,0,0,0,0,0,0,-1,1602,869,0,0
385,155,0,0,0,0,0,0,0,0,0,-1,1609,869,0,0
392,155,0,0,0,0,0,0,0,0,0,-1,1616,869,0,0
399,155,0,0,0,0,0,0,0,0,0,-1,1623,869,0,0
406,155,0,0,0,0,0,0,0,0,0,-1,1630,869,0,0
413,155,0,0,0,0,0,0,0,0,0,-1,1637,869,0,0
420,155,0,0,0,0,0,0,0,0,0,-1,1644,869,0,0
427,155,0,0,0,0,0,0,0,0,0,-1,1651,869,0,0
434,155,0,0,0,0,0,0,0,0,0,-1,1658,869,0,0
441,155,0,0,0,0,0,0,0,0,0,-1,1665,869,0,0
448,155,0,0,0,0,0,0,0,0,0,-1,1672,869,0,0
455,155,0,0,0,0,0,0,0,0,0,-1,1679,869,0,0
462,155,0,0,0,0,0,0,0,0,0,-1,1686,869,0,0
469,155,0,0,0,0,0,0,0,0,0,-1,1693,869,0,0
476,155,0,0,0,0,0,0,0,0,0,-1,1700,869,0,0
483,155,0,0,0,0,0,0,0,0,0,-1,1707,869,0,0
490,155,0,0,0,0,0,0,0,0,0,-1,1714,869,0,0
497,155,0,0,0,0,0,0,0,0,0,-1,1721,869,0,0
504,155,0,0,0,0,0,0,0,0,0,-1,1728,869,0,0
511,155,0,0,0,0,0,0,0,0,0,-1,1735,869,0,0
518,155,0,0,0,0,0,0,0,0,0,-1,1742,869,0,0
525,155,0,0,0,0,0,0,0,0,0,-1,1749,869,0,0
532,155,0,0,0,0,0,0,0,0,0,-1,1756,869,0,0
539,155,0,0,0,0,0,0,0,0,0,-1,1763,869,0,0
546,155,0,0,0,0,0,0,0,0,0,-1,1770,869,0,0
553,155,0,0,0,0,0,0,0,0,0,-1,1777,869,0,0
560,155,0,0,0,0,0,0,0,0,0,-1,1784,869,0,0
567,155,0,0,0,0,0,0,0,0,0,-1,1791,869,0,0
574,155,0,0,0,0,0,0,0,0,0,-1,1798,869,0,0
581,155,0,0,0,0,0,0,0,0,0,-1,1805,869,0,0
588,155,0,0,0,0,0,0,0,0,0,-1,1812,869,0,0
595,155,0,0,0,0,0,0,0,0,0,-1,1819,869,0,0
602,155,0,0,0,0,0,0,0,0,0,-1,1826,869,0,0
609,155,0,0,0,0,0,0,0,0,0,-1,1833,869,0,0
616,155,215.352,8.41638,0,0,0,0,0,0,0,-1,1840,869,215.352,-8.41636
623,155,215.461,8.52271,0,0,0,0,0,0,0,-1,1847,869,215.461,-8.52269
630,155,215.416,8.60016,0,0,0,0,0,0,0,-1,1854,869,215.416,-8.60013
637,155,215.229,8.68628,0,0,0,0,0,0,0,-1,1861,869,215.229,-8.68627
644,155,215.238,8.67419,0,0,0,0,0,0,0,-1,1868,869,215.238,-8.67418
651,155,215.288,8.65997,0,0,0,0,0,0,0,-1,1875,869,215.288,-8.65997
658,155,215.236,8.59729,0,0,0,0,0,0,0,-1,1882,869,215.236,-8.59726
665,155,215.188,8.53406,0,0,0,0,0,0,0,-1,1889,869,215.188,-8.53407
672,155,215.297,8.30151,0,0,0,0,0,0,0,-1,1896,869,215.297,-8.30151
679,155,35.1565,2.78528,0,0,0,0,0,0,0,-1,1903,869,35.1565,-2.7853
686,155,43.6101,1.63361,0,0,0,0,0,0,0,-1,1910,869,43.6101,-1.63362
693,155,70.7813,1.23804,0,0,0,0,0,0,0,-1,1917,869,70.7813,-1.23802
700,155,194.016,24.2836,0,0,0,0,0,0,0,-1,1924,869,194.016,-24.2836
707,155,194.184,25.8721,0,0,0,0,0,0,0,-1,1931,869,194.184,-25.8721
714,155,193.811,27.0898,0,0,0,0,0,0,0,-1,1938,869,193.811,-27.0898
721,155,193.308,29.1235,0,0,0,0,0,0,0,-1,1945,869,193.308,-29.1235
728,155,193.098,30.6409,-0.0128479,0.0266485,-0.0115259,0.0297659,-0.0159653,-1.30664,0.0268007,0.0298526,1952,869,193.098,-30.6409
735,155,192.877,32.1359,-0.0160358,0.0323555,-0.0143566,0.0362942,-0.0199745,-1.30304,0.0329391,0.0228547,1959,869,192.877,-32.1359
742,155,192.667,33.5726,-0.019377,0.0380748,-0.0172343,0.0428481,-0.0241503,-1.3006,0.0391805,0.0281893,1966,869,192.667,-33.5726
749,155,192.269,34.9106,-0.0228377,0.0438732,-0.0200416,0.0494312,-0.0283956,-1.30027,0.0454771,0.0334776,1973,869,192.269,-34.9106
756,155,191.821,36.2018,0,0,0,0,0,0,0,-1,1980,869,191.821,-36.2018
763,155,154.673,33.9367,0,0,0,0,0,0,0,-1,1987,869,154.673,-33.9367
770,155,74.0938,12.5649,0,0,0,0,0,0,0,-1,1994,869,74.0936,-12.565
777,155,73.948,14.0645,0,0,0,0,0,0,0,-1,2001,869,73.948,-14.0645
784,155,69.9526,8.4718,0,0,0,0,0,0,0,-1,2008,869,69.9525,-8.47183
791,155,0,0,0,0,0,0,0,0,0,-1,2015,869,0,0
798,155,0,0,0,0,0,0,0,0,0,-1,2022,869,0,0
805,155,0,0,0,0,0,0,0,0,0,-1,2029,869,0,0
812,155,0,0,0,0,0,0,0,0,0,-1,2036,869,0,0
-700,148,0,0,0,0,0,0,0,0,0,-1,524,876,0,0
-693,148,0,0,0,0,0,0,0,0,0,-1,531,876,0,0
-686,148,0,0,0,0,0,0,0,0,0,-1,538,876,0,0
-679,148,0,0,0,0,0,0,0,0,0,-1,545,876,0,0
-672,148,-48.1407,-0.726746,0,0,0,0,0,0,0,-1,552,876,-48.1407,0.726755
-665,148,-48.2041,-3.97095,0,0,0,0,0,0,0,-1,559,876,-48.2041,3.97096
-658,148,-51.7661,3.82794,0,0,0,0,0,0,0,-1,566,876,-51.7661,-3.82797
-651,148,-52.0392,2.79663,0,0,0,0,0,0,0,-1,573,876,-52.0392,-2.79661
-644,148,-52.2687,1.81482,0,0,0,0,0,0,0,-1,580,876,-52.2687,-1.81482
-637,148,-52.5708,0.881165,0,0,0,0,0,0,0,-1,587,876,-52.5708,-0.88117
-630,148,-184.181,39.2773,0,0,0,0,0,0,0,-1,594,876,-184.181,-39.2773
-623,148,-185.124,36.9841,0,0,0,0,0,0,0,-1,601,876,-185.124,-36.9841
-616,148,-185.637,35.0313,-0.000323524,0.0425475,0.00987737,0.0447138,-0.00248978,1.3549,0.0306728,0.0302874,608,876,-185.637,-35.0313
-609,148,-185.95,33.4596,-0.00419603,0.0374683,0.00977943,0.0396495,-0.00637726,1.35135,0.0287951,0.020358,615,876,-185.95,-33.4596
-602,148,-186.183,31.9068,-0.00685822,0.03231,0.00915175,0.0343428,-0.00889105,1.35222,0.0263635,0.0199916,622,876,-186.183,-31.9068
-595,148,-186.374,30.3838,-0.00850133,0.0271279,0.00811979,0.0288911,-0.0102645,1.35697,0.0234436,0.0181134,629,876,-186.374,-30.3838
-588,148,-186.598,28.8499,-0.00911824,0.0220062,0.00673223,0.0234,-0.010512,1.36665,0.0200449,0.0378529,636,876,-186.598,-28.8499
-581,148,-186.637,27.2787,0,0,0,0,0,0,0,-1,643,876,-186.637,-27.2788
-574,148,-141.084,19.3962,0,0,0,0,0,0,0,-1,650,876,-141.084,-19.3962
-567,148,-35.6293,0.615784,0,0,0,0,0,0,0,-1,657,876,-35.6293,-0.615792
-560,148,-37.7973,-0.588135,0,0,0,0,0,0,0,-1,664,876,-37.7973,0.588143
-553,148,-18.3896,-0.00280762,0,0,0,0,0,0,0,-1,671,876,-18.3897,0.00278524
-546,148,-72.6356,0.278809,0,0,0,0,0,0,0,-1,678,876,-72.6356,-0.278824
-539,148,-72.5992,0.387451,0,0,0,0,0,0,0,-1,685,876,-72.5992,-0.387442
-532,148,-72.5662,0.512207,0,0,0,0,0,0,0,-1,692,876,-72.5661,-0.512225
-525,148,-72.5568,0.659302,0,0,0,0,0,0,0,-1,699,876,-72.5568,-0.659294
-518,148,-72.5514,0.678345,0,0,0,0,0,0,0,-1,706,876,-72.5514,-0.678346
-511,148,-72.4734,0.641174,0,0,0,0,0,0,0,-1,713,876,-72.4734,-0.64118
-504,148,-72.4635,0.438782,0,0,0,0,0,0,0,-1,720,876,-72.4635,-0.438791
-497,148,0,0,0,0,0,0,0,0,0,-1,727,876,0,0
-490,148,0,0,0,0,0,0,0,0,0,-1,734,876,0,0
-483,148,0,0,0,0,0,0,0,0,0,-1,741,876,0,0
-476,148,0,0,0,0,0,0,0,0,0,-1,748,876,0,0
-469,148,0,0,0,0,0,0,0,0,0,-1,755,876,0,0
-462,148,0,0,0,0,0,0,0,0,0,-1,762,876,0,0
-455,148,0,0,0,0,0,0,0,0,0,-1,769,876,0,0
-448,148,0,0,0,0,0,0,0,0,0,-1,776,876,0,0
-441,148,0,0,0,0,0,0,0,0,0,-1,783,876,0,0
-434,148,0,0,0,0,0,0,0,0,0,-1,790,876,0,0
-427,148,0,0,0,0,0,0,0,0,0,-1,797,876,0,0
-420,148,0,0,0,0,0,0,0,0,0,-1,804,876,0,0
-413,148,0,0,0,0,0,0,0,0,0,-1,811,876,0,0
-406,148,0,0,0,0,0,0,0,0,0,-1,818,876,0,0
-399,148,0,0,0,0,0,0,0,0,0,-1,825,876,0,0
-392,148,0,0,0,0,0,0,0,0,0,-1,832,876,0,0
-385,148,0,0,0,0,0,0,0,0,0,-1,839,876,0,0
-378,148,0,0,0,0,0,0,0,0,0,-1,846,876,0,0
-371,148,0,0,0,0,0,0,0,0,0,-1,853,876,0,0
-364,148,0,0,0,0,0,0,0,0,0,-1,860,876,0,0
-357,148,0,0,0,0,0,0,0,0,0,-1,867,876,0,0
-350,148,0,0,0,0,0,0,0,0,0,-1,874,876,0,0
-343,148,0,0,0,0,0,0,0,0,0,-1,881,876,0,0
-336,148,0,0,0,0,0,0,0,0,0,-1,888,876,0,0
-329,148,0,0,0,0,0,0,0,0,0,-1,895,876,0,0
-322,148,0,0,0,0,0,0,0,0,0,-1,902,876,0,0
-315,148,0,0,0,0,0,0,0,0,0,-1,909,876,0,0
-308,148,0,0,0,0,0,0,0,0,0,-1,916,876,0,0
-301,148,0,0,0,0,0,0,0,0,0,-1,923,876,0,0
-294,148,0,0,0,0,0,0,0,0,0,-1,930,876,0,0
-287,148,0,0,0,0,0,0,0,0,0,-1,937,876,0,0
-280,148,0,0,0,0,0,0,0,0,0,-1,944,876,0,0
-273,148,0,0,0,0,0,0,0,0,0,-1,951,876,0,0
-266,148,0,0,0,0,0,0,0,0,0,-1,958,876,0,0
-259,148,0,0,0,0,0,0,0,0,0,-1,965,876,0,0
-252,148,0,0,0,0,0,0,0,0,0,-1,972,876,0,0
-245,148,0,0,0,0,0,0,0,0,0,-1,979,876,0,0
-238,148,0,0,0,0,0,0,0,0,0,-1,986,876,0,0
-231,148,0,0,0,0,0,0,0,0,0,-1,993,876,0,0
-224,148,0,0,0,0,0,0,0,0,0,-1,1000,876,0,0
-217,148,0,0,0,0,0,0,0,0,0,-1,1007,876,0,0
-210,148,0,0,0,0,0,0,0,0,0,-1,1014,876,0,0
-203,148,0,0,0,0,0,0,0,0,0,-1,1021,876,0,0
-196,148,0,0,0,0,0,0,0,0,0,-1,1028,876,0,0
-189,148,0,0,0,0,0,0,0,0,0,-1,1035,876,0,0
-182,148,0,0,0,0,0,0,0,0,0,-1,1042,876,0,0
-175,148,0,0,0,0,0,0,0,0,0,-1,1049,876,0,0
-168,148,0,0,0,0,0,0,0,0,0,-1,1056,876,0,0
-161,148,0,0,0,0,0,0,0,0,0,-1,1063,876,0,0
-154,148,0,0,0,0,0,0,0,0,0,-1,1070,876,0,0
-147,148,0,0,0,0,0,0,0,0,0,-1,1077,876,0,0
-140,148,0,0,0,0,0,0,0,0,0,-1,1084,876,0,0
-133,148,0,0,0,0,0,0,0,0,0,-1,1091,876,0,0
-126,148,0,0,0,0,0,0,0,0,0,-1,1098,876,0,0
-119,148,0,0,0,0,0,0,0,0,0,-1,1105,876,0,0
-112,148,0,0,0,0,0,0,0,0,0,-1,1112,876,0,0
-105,148,0,0,0,0,0,0,0,0,0,-1,1119,876,0,0
-98,148,0,0,0,0,0,0,0,0,0,-1,1126,876,0,0
-91,148,0,0,0,0,0,0,0,0,0,-1,1133,876,0,0
-84,148,0,0,0,0,0,0,0,0,0,-1,1140,876,0,0
-77,148,0,0,0,0,0,0,0,0,0,-1,1147,876,0,0
-70,148,0,0,0,0,0,0,0,0,0,-1,1154,876,0,0
-63,148,0,0,0,0,0,0,0,0,0,-1,1161,876,0,0
-56,148,0,0,0,0,0,0,0,0,0,-1,1168,876,0,0
-49,148,0,0,0,0,0,0,0,0,0,-1,1175,876,0,0
-42,148,0,0,0,0,0,0,0,0,0,-1,1182,876,0,0
-35,148,0,0,0,0,0,0,0,0,0,-1,1189,876,0,0
-28,148,0,0,0,0,0,0,0,0,0,-1,1196,876,0,0
-21,148,0,0,0,0,0,0,0,0,0,-1,1203,876,0,0
-14,148,0,0,0,0,0,0,0,0,0,-1,1210,876,0,0
-7,148,0,0,0,0,0,0,0,0,0,-1,1217,876,0,0
0,148,0,0,0,0,0,0,0,0,0,-1,1224,876,0,0
7,148,0,0,0,0,0,0,0,0,0,-1,1231,876,0,0
14,148,0,0,0,0,0,0,0,0,0,-1,1238,876,0,0
21,148,0,0,0,0,0,0,0,0,0,-1,1245,876,0,0
28,148,0,0,0,0,0,0,0,0,0,-1,1252,876,0,0
35,148,0,0,0,0,0,0,0,0,0,-1,1259,876,0,0
42,148,0,0,0,0,0,0,0,0,0,-1,1266,876,0,0
49,148,0,0,0,0,0,0,0,0,0,-1,1273,876,0,0
56,148,0,0,0,0,0,0,0,0,0,-1,1280,876,0,0
63,148,0,0,0,0,0,0,0,0,0,-1,1287,876,0,0
70,148,0,0,0,0,0,0,0,0,0,-1,1294,876,0,0
77,148,0,0,0,0,0,0,0,0,0,-1,1301,876,0,0
84,148,0,0,0,0,0,0,0,0,0,-1,1308,876,0,0
91,148,0,0,0,0,0,0,0,0,0,-1,1315,876,0,0
98,148,0,0,0,0,0,0,0,0,0,-1,1322,876,0,0
105,148,0,0,0,0,0,0,0,0,0,-1,1329,876,0,0
112,148,0,0,0,0,0,0,0,0,0,-1,1336,876,0,0
119,148,0,0,0,0,0,0,0,0,0,-1,1343,876,0,0
126,148,0,0,0,0,0,0,0,0,0,-1,1350,876,0,0
133,148,0,0,0,0,0,0,0,0,0,-1,1357,876,0,0
140,148,0,0,0,0,0,0,0,0,0,-1,1364,876,0,0
147,148,0,0,0,0,0,0,0,0,0,-1,1371,876,0,0
154,148,0,0,0,0,0,0,0,0,0,-1,1378,876,0,0
161,148,0,0,0,0,0,0,0,0,0,-1,1385,876,0,0
168,148,0,0,0,0,0,0,0,0,0,-1,1392,876,0,0
175,148,0,0,0,0,0,0,0,0,0,-1,1399,876,0,0
182,148,0,0,0,0,0,0,0,0,0,-1,1406,876,0,0
189,148,0,0,0,0,0,0,0,0,0,-1,1413,876,0,0
196,148,0,0,0,0,0,0,0,0,0,-1,1420,876,0,0
203,148,0,0,0,0,0,0,0,0,0,-1,1427,876,0,0
210,148,0,0,0,0,0,0,0,0,0,-1,1434,876,0,0
217,148,0,0,0,0,0,0,0,0,0,-1,1441,876,0,0
224,148,0,0,0,0,0,0,0,0,0,-1,1448,876,0,0
231,148,0,0,0,0,0,0,0,0,0,-1,1455,876,0,0
238,148,0,0,0,0,0,0,0,0,0,-1,1462,876,0,0
245,148,0,0,0,0,0,0,0,0,0,-1,1469,876,0,0
252,148,0,0,0,0,0,0,0,0,0,-1,1476,876,0,0
259,148,0,0,0,0,0,0,0,0,0,-1,1483,876,0,0
266,148,0,0,0,0,0,0,0,0,0,-1,1490,876,0,0
273,148,0,0,0,0,0,0,0,0,0,-1,1497,876,0,0
280,148,0,0,0,0,0,0,0,0,0,-1,1504,876,0,0
287,148,0,0,0,0,0,0,0,0,0,-1,1511,876,0,0
294,148,0,0,0,0,0,0,0,0,0,-1,1518,876,0,0
301,148,0,0,0,0,0,0,0,0,0,-1,1525,876,0,0
308,148,0,0,0,0,0,0,0,0,0,-1,1532,876,0,0
315,148,0,0,0,0,0,0,0,0,0,-1,1539,876,0,0
322,148,0,0,0,0,0,0,0,0,0,-1,1546,876,0,0
329,148,0,0,0,0,0,0,0,0,0,-1,1553,876,0,0
336,148,0,0,0,0,0,0,0,0,0,-1,1560,876,0,0
343,148,0,0,0,0,0,0,0,0,0,-1,1567,876,0,0
350,148,0,0,0,0,0,0,0,0,0,-1,1574,876,0,0
357,148,0,0,0,0,0,0,0,0,0,-1,1581,876,0,0
364,148,0,0,0,0,0,0,0,0,0,-1,1588,876,0,0
371,148,0,0,0,0,0,0,0,0,0,-1,1595,876,0,0
378,148,0,0,0,0,0,0,0,0,0,-1,1602,876,0,0
385,148,0,0,0,0,0,0,0,0,0,-1,1609,876,0,0
392,148,0,0,0,0,0,0,0,0,0,-1,1616,876,0,0
399,148,0,0,0,0,0,0,0,0,0,-1,1623,876,0,0
406,148,0,0,0,0,0,0,0,0,0,-1,1630,876,0,0
413,148,0,0,0,0,0,0,0,0,0,-1,1637,876,0,0
420,148,0,0,0,0,0,0,0,0,0,-1,1644,876,0,0
427,148,0,0,0,0,0,0,0,0,0,-1,1651,876,0,0
434,148,0,0,0,0,0,0,0,0,0,-1,1658,876,0,0
441,148,0,0,0,0,0,0,0,0,0,-1,1665,876,0,0
448,148,0,0,0,0,0,0,0,0,0,-1,1672,876,0,0
455,148,0,0,0,0,0,0,0,0,0,-1,1679,876,0,0
462,148,0,0,0,0,0,0,0,0,0,-1,1686,876,0,0
469,148,0,0,0,0,0,0,0,0,0,-1,1693,876,0,0
476,148,0,0,0,0,0,0,0,0,0,-1,1700,876,0,0
483,148,0,0,0,0,0,0,0,0,0,-1,1707,876,0,0
490,148,0,0,0,0,0,0,0,0,0,-1,1714,876,0,0
497,148,0,0,0,0,0,0,0,0,0,-1,1721,876,0,0
504,148,0,0,0,0,0,0,0,0,0,-1,1728,876,0,0
511,148,0,0,0,0,0,0,0,0,0,-1,1735,876,0,0
518,148,0,0,0,0,0,0,0,0,0,-1,1742,876,0,0
525,148,0,0,0,0,0,0,0,0,0,-1,1749,876,0,0
532,148,0,0,0,0,0,0,0,0,0,-1,1756,876,0,0
539,148,0,0,0,0,0,0,0,0,0,-1,1763,876,0,0
546,148,0,0,0,0,0,0,0,0,0,-1,1770,876,0,0
553,148,0,0,0,0,0,0,0,0,0,-1,1777,876,0,0
560,148,0,0,0,0,0,0,0,0,0,-1,1784,876,0,0
567,148,0,0,0,0,0,0,0,0,0,-1,1791,876,0,0
574,148,0,0,0,0,0,0,0,0,0,-1,1798,876,0,0
581,148,0,0,0,0,0,0,0,0,0,-1,1805,876,0,0
588,148,0,0,0,0,0,0,0,0,0,-1,1812,876,0,0
595,148,0,0,0,0,0,0,0,0,0,-1,1819,876,0,0
602,148,0,0,0,0,0,0,0,0,0,-1,1826,876,0,0
609,148,0,0,0,0,0,0,0,0,0,-1,1833,876,0,0
616,148,0,0,0,0,0,0,0,0,0,-1,1840,876,0,0
623,148,215.391,8.75635,0,0,0,0,0,0,0,-1,1847,876,215.391,-8.75634
630,148,215.25,8.8075,0,0,0,0,0,0,0,-1,1854,876,215.249,-8.80747
637,148,215.151,8.84772,0,0,0,0,0,0,0,-1,1861,876,215.151,-8.8477
644,148,215.2,8.698,0,0,0,0,0,0,0,-1,1868,876,215.2,-8.69797
651,148,215.282,8.44745,0,0,0,0,0,0,0,-1,1875,876,215.282,-8.44745
658,148,215.299,8.5105,0,0,0,0,0,0,0,-1,1882,876,215.299,-8.51047
665,148,215.164,8.66296,0,0,0,0,0,0,0,-1,1889,876,215.164,-8.66299
672,148,215.19,8.5589,0,0,0,0,0,0,0,-1,1896,876,215.19,-8.55889
679,148,215.229,8.40961,0,0,0,0,0,0,0,-1,1903,876,215.229,-8.40958
686,148,21.6195,2.40845,0,0,0,0,0,0,0,-1,1910,876,21.6196,-2.40846
693,148,48.1387,1.97351,0,0,0,0,0,0,0,-1,1917,876,48.1387,-1.97351
700,148,172.962,23.575,0,0,0,0,0,0,0,-1,1924,876,172.962,-23.5749
707,148,195.929,26.2361,0,0,0,0,0,0,0,-1,1931,876,195.929,-26.2361
714,148,195.58,27.6636,0,0,0,0,0,0,0,-1,1938,876,195.58,-27.6635
721,148,195.046,29.1091,-0.00921288,0.0187036,-0.00752587,0.0206033,-0.0111125,-1.32355,0.0185824,0.0411399,1945,876,195.046,-29.1091
728,148,194.892,30.6009,-0.0121095,0.0244966,-0.0101085,0.0271025,-0.0147154,-1.3185,0.0244941,0.0261748,1952,876,194.892,-30.6009
735,148,194.702,32.123,-0.0152626,0.0303123,-0.0127541,0.0336387,-0.0185891,-1.31567,0.0305682,0.0260597,1959,876,194.702,-32.123
742,148,194.327,33.4982,-0.018552,0.0361885,-0.0154162,0.0402315,-0.022595,-1.31432,0.0367462,0.0299224,1966,876,194.327,-33.4983
749,148,193.936,34.786,-0.0219122,0.0421859,-0.0179969,0.0468931,-0.0266194,-1.31497,0.0429772,0.0357639,1973,876,193.936,-34.786
756,148,193.686,36.2379,-0.0254099,0.04822,-0.0205808,0.0535822,-0.0307721,-1.31592,0.0492919,0.042295,1980,876,193.686,-36.2379
763,148,193.441,37.9109,0,0,0,0,0,0,0,-1,1987,876,193.441,-37.911
770,148,108.528,22.8148,0,0,0,0,0,0,0,-1,1994,876,108.528,-22.8148
777,148,75.2727,13.6713,0,0,0,0,0,0,0,-1,2001,876,75.2726,-13.6714
784,148,75.4836,15.2984,0,0,0,0,0,0,0,-1,2008,876,75.4836,-15.2984
791,148,71.4524,10.6003,0,0,0,0,0,0,0,-1,2015,876,71.4523,-10.6003
798,148,0,0,0,0,0,0,0,0,0,-1,2022,876,0,0
805,148,0,0,0,0,0,0,0,0,0,-1,2029,876,0,0
812,148,0,0,0,0,0,0,0,0,0,-1,2036,876,0,0
-700,141,0,0,0,0,0,0,0,0,0,-1,524,883,0,0
-693,141,0,0,0,0,0,0,0,0,0,-1,531,883,0,0
-686,141,0,0,0,0,0,0,0,0,0,-1,538,883,0,0
-679,141,0,0,0,0,0,0,0,0,0,-1,545,883,0,0
-672,141,-48.7804,-0.600891,0,0,0,0,0,0,0,-1,552,883,-48.7804,0.600898
-665,141,-48.764,-3.67065,0,0,0,0,0,0,0,-1,559,883,-48.764,3.67066
-658,141,-52.3438,3.12531,0,0,0,0,0,0,0,-1,566,883,-52.3438,-3.1253
-651,141,-53.1779,1.50293,0,0,0,0,0,0,0,-1,573,883,-53.1778,-1.50292
-644,141,-52.4205,-0.191956,0,0,0,0,0,0,0,-1,580,883,-52.4205,0.191941
-637,141,-52.859,0.400024,0,0,0,0,0,0,0,-1,587,883,-52.859,-0.400006
-630,141,-179.258,37.9363,0,0,0,0,0,0,0,-1,594,883,-179.258,-37.9364
-623,141,-186.889,36.4295,0,0,0,0,0,0,0,-1,601,883,-186.889,-36.4295
-616,141,-187.37,34.8497,-0.00256221,0.0404208,0.00992216,0.0426007,-0.00474207,1.35453,0.0301059,0.0267725,608,883,-187.37,-34.8497
-609,141,-187.678,33.3268,-0.00560927,0.0352981,0.00928774,0.037308,-0.00761923,1.35767,0.0277625,0.0207449,615,883,-187.678,-33.3268
-602,141,-187.84,31.8445,-0.00786935,0.0301436,0.00828192,0.0318696,-0.00959537,1.36533,0.0250648,0.0209565,622,883,-187.84,-31.8446
-595,141,-187.948,30.394,-0.00940328,0.0250014,0.00697137,0.0263603,-0.0107622,1.37828,0.0220543,0.0226534,629,883,-187.948,-30.394
-588,141,-188.615,28.923,-0.0101526,0.0199444,0.00539327,0.0208817,-0.0110898,1.39873,0.0187451,0.0381918,636,883,-188.615,-28.923
-581,141,-189.193,27.3731,0,0,0,0,0,0,0,-1,643,883,-189.193,-27.3731
-574,141,-171.227,25.0035,0,0,0,0,0,0,0,-1,650,883,-171.227,-25.0035
-567,141,-30.5335,0.480103,0,0,0,0,0,0,0,-1,657,883,-30.5335,-0.480081
-560,141,-30.5542,0.23175,0,0,0,0,0,0,0,-1,664,883,-30.5542,-0.231742
-553,141,-32.0876,1.39459,0,0,0,0,0,0,0,-1,671,883,-32.0876,-1.3946
-546,141,-72.5951,0.447754,0,0,0,0,0,0,0,-1,678,883,-72.5951,-0.447775
-539,141,-72.5854,0.451538,0,0,0,0,0,0,0,-1,685,883,-72.5855,-0.451528
-532,141,-72.5859,0.468872,0,0,0,0,0,0,0,-1,692,883,-72.5859,-0.468888
-525,141,-72.6156,0.501648,0,0,0,0,0,0,0,-1,699,883,-72.6156,-0.501667
-518,141,-72.6504,0.630859,0,0,0,0,0,0,0,-1,706,883,-72.6504,-0.630879
-511,141,-72.6628,0.72522,0,0,0,0,0,0,0,-1,713,883,-72.6628,-0.725227
-504,141,-72.6421,0.891968,0,0,0,0,0,0,0,-1,720,883,-72.6421,-0.891968
-497,141,0,0,0,0,0,0,0,0,0,-1,727,883,0,0
-490,141,0,0,0,0,0,0,0,0,0,-1,734,883,0,0
-483,141,0,0,0,0,0,0,0,0,0,-1,741,883,0,0
-476,141,0,0,0,0,0,0,0,0,0,-1,748,883,0,0
-469,141,0,0,0,0,0,0,0,0,0,-1,755,883,0,0
-462,141,0,0,0,0,0,0,0,0,0,-1,762,883,0,0
-455,141,0,0,0,0,0,0,0,0,0,-1,769,883,0,0
-448,141,0,0,0,0,0,0,0,0,0,-1,776,883,0,0
-441,141,0,0,0,0,0,0,0,0,0,-1,783,883,0,0
-434,141,0,0,0,0,0,0,0,0,0,-1,790,883,0,0
-427,141,0,0,0,0,0,0,0,0,0,-1,797,883,0,0
-420,141,0,0,0,0,0,0,0,0,0,-1,804,883,0,0
-413,141,0,0,0,0,0,0,0,0,0,-1,811,883,0,0
-406,141,0,0,0,0,0,0,0,0,0,-1,818,883,0,0
-399,141,0,0,0,0,0,0,0,0,0,-1,825,883,0,0
-392,141,0,0,0,0,0,0,0,0,0,-1,832,883,0,0
-385,141,0,0,0,0,0,0,0,0,0,-1,839,883,0,0
-378,141,0,0,0,0,0,0,0,0,0,-1,846,883,0,0
-371,141,0,0,0,0,0,0,0,0,0,-1,853,883,0,0
-364,141,0,0,0,0,0,0,0,0,0,-1,860,883,0,0
-357,141,0,0,0,0,0,0,0,0,0,-1,867,883,0,0
-350,141,0,0,0,0,0,0,0,0,0,-1,874,883,0,0
-343,141,0,0,0,0,0,0,0,0,0,-1,881,883,0,0
-336,141,0,0,0,0,0,0,0,0,0,-1,888,883,0,0
-329,141,0,0,0,0,0,0,0,0,0,-1,895,883,0,0
-322,141,0,0,0,0,0,0,0,0,0,-1,902,883,0,0
-315,141,0,0,0,0,0,0,0,0,0,-1,909,883,0,0
-308,141,0,0,0,0,0,0,0,0,0,-1,916,883,0,0
-301,141,0,0,0,0,0,0,0,0,0,-1,923,883,0,0
-294,141,0,0,0,0,0,0,0,0,0,-1,930,883,0,0
-287,141,0,0,0,0,0,0,0,0,0,-1,937,883,0,0
-280,141,0,0,0,0,0,0,0,0,0,-1,944,883,0,0
-273,141,0,0,0,0,0,0,0,0,0,-1,951,883,0,0
-266,141,0,0,0,0,0,0,0,0,0,-1,958,883,0,0
-259,141,0,0,0,0,0,0,0,0,0,-1,965,883,0,0
-252,141,0,0,0,0,0,0,0,0,0,-1,972,883,0,0
-245,141,0,0,0,0,0,0,0,0,0,-1,979,883,0,0
-238,141,0,0,0,0,0,0,0,0,0,-1,986,883,0,0
-231,141,0,0,0,0,0,0,0,0,0,-1,993,883,0,0
-224,141,0,0,0,0,0,0,0,0,0,-1,1000,883,0,0
-217,141,0,0,0,0,0,0,0,0,0,-1,1007,883,0,0
-210,141,0,0,0,0,0,0,0,0,0,-1,1014,883,0,0
-203,141,0,0,0,0,0,0,0,0,0,-1,1021,883,0,0
-196,141,0,0,0,0,0,0,0,0,0,-1,1028,883,0,0
-189,141,0,0,0,0,0,0,0,0,0,-1,1035,883,0,0
-182,141,0,0,0,0,0,0,0,0,0,-1,1042,883,0,0
-175,141,0,0,0,0,0,0,0,0,0,-1,1049,883,0,0
-168,141,0,0,0,0,0,0,0,0,0,-1,1056,883,0,0
-161,141,0,0,0,0,0,0,0,0,0,-1,1063,883,0,0
-154,141,0,0,0,0,0,0,0,0,0,-1,1070,883,0,0
-147,141,0,0,0,0,0,0,0,0,0,-1,1077,883,0,0
-140,141,0,0,0,0,0,0,0,0,0,-1,1084,883,0,0
-133,141,0,0,0,0,0,0,0,0,0,-1,1091,883,0,0
-126,141,0,0,0,0,0,0,0,0,0,-1,1098,883,0,0
-119,141,0,0,0,0,0,0,0,0,0,-1,1105,883,0,0
-112,141,0,0,0,0,0,0,0,0,0,-1,1112,883,0,0
-105,141,0,0,0,0,0,0,0,0,0,-1,1119,883,0,0
-98,141,0,0,0,0,0,0,0,0,0,-1,1126,883,0,0
-91,141,0,0,0,0,0,0,0,0,0,-1,1133,883,0,0
-84,141,0,0,0,0,0,0,0,0,0,-1,1140,883,0,0
-77,141,0,0,0,0,0,0,0,0,0,-1,1147,883,0,0
-70,141,0,0,0,0,0,0,0,0,0,-1,1154,883,0,0
-63,141,0,0,0,0,0,0,0,0,0,-1,1161,883,0,0
-56,141,0,0,0,0,0,0,0,0,0,-1,1168,883,0,0
-49,141,0,0,0,0,0,0,0,0,0,-1,1175,883,0,0
-42,141,0,0,0,0,0,0,0,0,0,-1,1182,883,0,0
-35,141,0,0,0,0,0,0,0,0,0,-1,1189,883,0,0
-28,141,0,0,0,0,0,0,0,0,0,-1,1196,883,0,0
-21,141,0,0,0,0,0,0,0,0,0,-1,1203,883,0,0
-14,141,0,0,0,0,0,0,0,0,0,-1,1210,883,0,0
-7,141,0,0,0,0,0,0,0,0,0,-1,1217,883,0,0
0,141,0,0,0,0,0,0,0,0,0,-1,1224,883,0,0
7,141,0,0,0,0,0,0,0,0,0,-1,1231,883,0,0
14,141,0,0,0,0,0,0,0,0,0,-1,1238,883,0,0
21,141,0,0,0,0,0,0,0,0,0,-1,1245,883,0,0
28,141,0,0,0,0,0,0,0,0,0,-1,1252,883,0,0
35,141,0,0,0,0,0,0,0,0,0,-1,1259,883,0,0
42,141,0,0,0,0,0,0,0,0,0,-1,1266,883,0,0
49,141,0,0,0,0,0,0,0,0,0,-1,1273,883,0,0
56,141,0,0,0,0,0,0,0,0,0,-1,1280,883,0,0
63,141,0,0,0,0,0,0,0,0,0,-1,1287,883,0,0
70,141,0,0,0,0,0,0,0,0,0,-1,1294,883,0,0
77,141,0,0,0,0,0,0,0,0,0,-1,1301,883,0,0
84,141,0,0,0,0,0,0,0,0,0,-1,1308,883,0,0
91,141,0,0,0,0,0,0,0,0,0,-1,1315,883,0,0
98,141,0,0,0,0,0,0,0,0,0,-1,1322,883,0,0
105,141,0,0,0,0,0,0,0,0,0,-1,1329,883,0,0
112,141,0,0,0,0,0,0,0,0,0,-1,1336,883,0,0
119,141,0,0,0,0,0,0,0,0,0,-1,1343,883,0,0
126,141,0,0,0,0,0,0,0,0,0,-1,1350,883,0,0
133,141,0,0,0,0,0,0,0,0,0,-1,1357,883,0,0
140,141,0,0,0,0,0,0,0,0,0,-1,1364,883,0,0
147,141,0,0,0,0,0,0,0,0,0,-1,1371,883,0,0
154,141,0,0,0,0,0,0,0,0,0,-1,1378,883,0,0
161,141,0,0,0,0,0,0,0,0,0,-1,1385,883,0,0
168,141,0,0,0,0,0,0,0,0,0,-1,1392,883,0,0
175,141,0,0,0,0,0,0,0,0,0,-1,1399,883,0,0
182,141,0,0,0,0,0,0,0,0,0,-1,1406,883,0,0
189,141,0,0,0,0,0,0,0,0,0,-1,1413,883,0,0
196,141,0,0,0,0,0,0,0,0,0,-1,1420,883,0,0
203,141,0,0,0,0,0,0,0,0,0,-1,1427,883,0,0
210,141,0,0,0,0,0,0,0,0,0,-1,1434,883,0,0
217,141,0,0,0,0,0,0,0,0,0,-1,1441,883,0,0
224,141,0,0,0,0,0,0,0,0,0,-1,1448,883,0,0
231,141,0,0,0,0,0,0,0,0,0,-1,1455,883,0,0
238,141,0,0,0,0,0,0,0,0,0,-1,1462,883,0,0
245,141,0,0,0,0,0,0,0,0,0,-1,1469,883,0,0
252,141,0,0,0,0,0,0,0,0,0,-1,1476,883,0,0
259,141,0,0,0,0,0,0,0,0,0,-1,1483,883,0,0
266,141,0,0,0,0,0,0,0,0,0,-1,1490,883,0,0
273,141,0,0,0,0,0,0,0,0,0,-1,1497,883,0,0
280,141,0,0,0,0,0,0,0,0,0,-1,1504,883,0,0
287,141,0,0,0,0,0,0,0,0,0,-1,1511,883,0,0
294,141,0,0,0,0,0,0,0,0,0,-1,1518,883,0,0
301,141,0,0,0,0,0,0,0,0,0,-1,1525,883,0,0
308,141,0,0,0,0,0,0,0,0,0,-1,1532,883,0,0
315,141,0,0,0,0,0,0,0,0,0,-1,1539,883,0,0
322,141,0,0,0,0,0,0,0,0,0,-1,1546,883,0,0
329,141,0,0,0,0,0,0,0,0,0,-1,1553,883,0,0
336,141,0,0,0,0,0,0,0,0,0,-1,1560,883,0,0
343,141,0,0,0,0,0,0,0,0,0,-1,1567,883,0,0
350,141,0,0,0,0,0,0,0,0,0,-1,1574,883,0,0
357,141,0,0,0,0,0,0,0,0,0,-1,1581,883,0,0
364,141,0,0,0,0,0,0,0,0,0,-1,1588,883,0,0
371,141,0,0,0,0,0,0,0,0,0,-1,1595,883,0,0
378,141,0,0,0,0,0,0,0,0,0,-1,1602,883,0,0
385,141,0,0,0,0,0,0,0,0,0,-1,1609,883,0,0
392,141,0,0,0,0,0,0,0,0,0,-1,1616,883,0,0
399,141,0,0,0,0,0,0,0,0,0,-1,1623,883,0,0
406,141,0,0,0,0,0,0,0,0,0,-1,1630,883,0,0
413,141,0,0,0,0,0,0,0,0,0,-1,1637,883,0,0
420,141,0,0,0,0,0,0,0,0,0,-1,1644,883,0,0
427,141,0,0,0,0,0,0,0,0,0,-1,1651,883,0,0
434,141,0,0,0,0,0,0,0,0,0,-1,1658,883,0,0
441,141,0,0,0,0,0,0,0,0,0,-1,1665,883,0,0
448,141,0,0,0,0,0,0,0,0,0,-1,1672,883,0,0
455,141,0,0,0,0,0,0,0,0,0,-1,1679,883,0,0
462,141,0,0,0,0,0,0,0,0,0,-1,1686,883,0,0
469,141,0,0,0,0,0,0,0,0,0,-1,1693,883,0,0
476,141,0,0,0,0,0,0,0,0,0,-1,1700,883,0,0
483,141,0,0,0,0,0,0,0,0,0,-1,1707,883,0,0
490,141,0,0,0,0,0,0,0,0,0,-1,1714,883,0,0
497,141,0,0,0,0,0,0,0,0,0,-1,1721,883,0,0
504,141,0,0,0,0,0,0,0,0,0,-1,1728,883,0,0
511,141,0,0,0,0,0,0,0,0,0,-1,1735,883,0,0
518,141,0,0,0,0,0,0,0,0,0,-1,1742,883,0,0
525,141,0,0,0,0,0,0,0,0,0,-1,1749,883,0,0
532,141,0,0,0,0,0,0,0,0,0,-1,1756,883,0,0
539,141,0,0,0,0,0,0,0,0,0,-1,1763,883,0,0
546,141,0,0,0,0,0,0,0,0,0,-1,1770,883,0,0
553,141,0,0,0,0,0,0,0,0,0,-1,1777,883,0,0
560,141,0,0,0,0,0,0,0,0,0,-1,1784,883,0,0
567,141,0,0,0,0,0,0,0,0,0,-1,1791,883,0,0
574,141,0,0,0,0,0,0,0,0,0,-1,1798,883,0,0
581,141,0,0,0,0,0,0,0,0,0,-1,1805,883,0,0
588,141,0,0,0,0,0,0,0,0,0,-1,1812,883,0,0
595,141,0,0,0,0,0,0,0,0,0,-1,1819,883,0,0
602,141,0,0,0,0,0,0,0,0,0,-1,1826,883,0,0
609,141,0,0,0,0,0,0,0,0,0,-1,1833,883,0,0
616,141,0,0,0,0,0,0,0,0,0,-1,1840,883,0,0
623,141,215.199,9.00323,0,0,0,0,0,0,0,-1,1847,883,215.199,-9.00325
630,141,215,9.04218,0,0,0,0,0,0,0,-1,1854,883,215,-9.04216
637,141,215.067,8.82672,0,0,0,0,0,0,0,-1,1861,883,215.067,-8.82675
644,141,215.155,8.61652,0,0,0,0,0,0,0,-1,1868,883,215.155,-8.61649
651,141,215.289,8.42633,0,0,0,0,0,0,0,-1,1875,883,215.289,-8.42632
658,141,215.304,8.46527,0,0,0,0,0,0,0,-1,1882,883,215.304,-8.46525
665,141,215.115,8.61456,0,0,0,0,0,0,0,-1,1889,883,215.114,-8.61459
672,141,215.093,8.68304,0,0,0,0,0,0,0,-1,1896,883,215.093,-8.68305
679,141,215.119,8.69135,0,0,0,0,0,0,0,-1,1903,883,215.119,-8.69135
686,141,189.992,7.97687,0,0,0,0,0,0,0,-1,1910,883,189.992,-7.97685
693,141,51.7202,1.76593,0,0,0,0,0,0,0,-1,1917,883,51.7202,-1.76595
700,141,62.7651,1.95361,0,0,0,0,0,0,0,-1,1924,883,62.7651,-1.95364
707,141,195.433,26.6295,0,0,0,0,0,0,0,-1,1931,883,195.433,-26.6295
714,141,196.442,27.9242,0,0,0,0,0,0,0,-1,1938,883,196.442,-27.9242
721,141,196.523,29.1888,-0.00886369,0.016591,-0.00637508,0.0180984,-0.0103711,-1.33861,0.0166374,0.0272484,1945,883,196.523,-29.1888
728,141,196.568,30.6639,-0.0116338,0.022364,-0.00875081,0.0244842,-0.013754,-1.33309,0.0223647,0.0206112,1952,883,196.568,-30.6639
735,141,196.394,32.3193,-0.0145849,0.0282079,-0.0111443,0.0309362,-0.0173132,-1.3307,0.0282245,0.02447,1959,883,196.394,-32.3193
742,141,195.979,33.5435,-0.0175967,0.0341489,-0.0135034,0.0374607,-0.0209085,-1.33028,0.0341482,0.0264853,1966,883,195.979,-33.5435
749,141,195.739,34.767,-0.0205809,0.0402264,-0.0157466,0.0440622,-0.0244167,-1.33186,0.0400749,0.0235449,1973,883,195.739,-34.767
756,141,195.615,36.1478,-0.0235401,0.0464031,-0.0178872,0.0507121,-0.0278491,-1.3344,0.0459931,0.0316454,1980,883,195.615,-36.1478
763,141,195.38,37.574,0,0,0,0,0,0,0,-1,1987,883,195.38,-37.574
770,141,144.087,31.3549,0,0,0,0,0,0,0,-1,1994,883,144.087,-31.3548
777,141,110.394,25.0393,0,0,0,0,0,0,0,-1,2001,883,110.394,-25.0393
784,141,73.3435,9.80182,0,0,0,0,0,0,0,-1,2008,883,73.3434,-9.80183
791,141,73.7993,11.1595,0,0,0,0,0,0,0,-1,2015,883,73.7994,-11.1595
798,141,0,0,0,0,0,0,0,0,0,-1,2022,883,0,0
805,141,0,0,0,0,0,0,0,0,0,-1,2029,883,0,0
812,141,0,0,0,0,0,0,0,0,0,-1,2036,883,0,0
-700,134,0,0,0,0,0,0,0,0,0,-1,524,890,0,0
-693,134,0,0,0,0,0,0,0,0,0,-1,531,890,0,0
-686,134,0,0,0,0,0,0,0,0,0,-1,538,890,0,0
-679,134,0,0,0,0,0,0,0,0,0,-1,545,890,0,0
-672,134,-49.3306,-0.500671,0,0,0,0,0,0,0,-1,552,890,-49.3306,0.500651
-665,134,-49.3356,-3.00098,0,0,0,0,0,0,0,-1,559,890,-49.3356,3.00096
-658,134,-49.3368,-5.46246,0,0,0,0,0,0,0,-1,566,890,-49.3368,5.46248
-651,134,-53.0905,0.530762,0,0,0,0,0,0,0,-1,573,890,-53.0905,-0.530792
-644,134,-51.8253,-1.26782,0,0,0,0,0,0,0,-1,580,890,-51.8253,1.26783
-637,134,-50.5067,-2.83545,0,0,0,0,0,0,0,-1,587,890,-50.5066,2.83545
-630,134,-182.257,36.1755,0,0,0,0,0,0,0,-1,594,890,-182.257,-36.1755
-623,134,-188.351,36.1691,0,0,0,0,0,0,0,-1,601,890,-188.351,-36.1691
-616,134,-188.969,34.7332,-0.00482634,0.0388368,0.0101713,0.0410899,-0.00707946,1.3528,0.0300325,0.0270783,608,890,-188.969,-34.7332
-609,134,-189.324,33.3412,-0.00689011,0.0334312,0.00895899,0.0353322,-0.00879108,1.36171,0.0269671,0.0185003,615,890,-189.324,-33.3412
-602,134,-189.472,31.8908,-0.0085701,0.0280246,0.00747431,0.0294924,-0.0100378,1.37689,0.0237262,0.0206912,622,890,-189.472,-31.8908
-595,134,-189.48,30.5535,-0.00984544,0.0226539,0.0057701,0.023648,-0.0108395,1.4002,0.0203639,0.0294445,629,890,-189.48,-30.5535
-588,134,-190.193,29.1164,-0.0106392,0.0173774,0.00388498,0.0179061,-0.0111679,1.43553,0.0169355,0.0475501,636,890,-190.193,-29.1164
-581,134,-190.432,27.4516,0,0,0,0,0,0,0,-1,643,890,-190.432,-27.4516
-574,134,-31.1517,0.757751,0,0,0,0,0,0,0,-1,650,890,-31.1517,-0.757758
-567,134,-30.9003,0.296326,0,0,0,0,0,0,0,-1,657,890,-30.9002,-0.296302
-560,134,-22.9123,0.106567,0,0,0,0,0,0,0,-1,664,890,-22.9123,-0.106594
-553,134,-72.5416,0.452454,0,0,0,0,0,0,0,-1,671,890,-72.5416,-0.452462
-546,134,-72.5792,0.43927,0,0,0,0,0,0,0,-1,678,890,-72.5792,-0.439291
-539,134,-72.602,0.427246,0,0,0,0,0,0,0,-1,685,890,-72.602,-0.42724
-532,134,-72.6031,0.462463,0,0,0,0,0,0,0,-1,692,890,-72.6031,-0.462467
-525,134,-72.651,0.554382,0,0,0,0,0,0,0,-1,699,890,-72.651,-0.554408
-518,134,-72.6708,0.689209,0,0,0,0,0,0,0,-1,706,890,-72.6708,-0.689198
-511,134,-72.619,0.895386,0,0,0,0,0,0,0,-1,713,890,-72.619,-0.895374
-504,134,0,0,0,0,0,0,0,0,0,-1,720,890,0,0
-497,134,0,0,0,0,0,0,0,0,0,-1,727,890,0,0
-490,134,0,0,0,0,0,0,0,0,0,-1,734,890,0,0
-483,134,0,0,0,0,0,0,0,0,0,-1,741,890,0,0
-476,134,0,0,0,0,0,0,0,0,0,-1,748,890,0,0
-469,134,0,0,0,0,0,0,0,0,0,-1,755,890,0,0
-462,134,0,0,0,0,0,0,0,0,0,-1,762,890,0,0
-455,134,0,0,0,0,0,0,0,0,0,-1,769,890,0,0
-448,134,0,0,0,0,0,0,0,0,0,-1,776,890,0,0
-441,134,0,0,0,0,0,0,0,0,0,-1,783,890,0,0
-434,134,0,0,0,0,0,0,0,0,0,-1,790,890,0,0
-427,134,0,0,0,0,0,0,0,0,0,-1,797,890,0,0
-420,134,0,0,0,0,0,0,0,0,0,-1,804,890,0,0
-413,134,0,0,0,0,0,0,0,0,0,-1,811,890,0,0
-406,134,0,0,0,0,0,0,0,0,0,-1,818,890,0,0
-399,134,0,0,0,0,0,0,0,0,0,-1,825,890,0,0
-392,134,0,0,0,0,0,0,0,0,0,-1,832,890,0,0
-385,134,0,0,0,0,0,0,0,0,0,-1,839,890,0,0
-378,134,0,0,0,0,0,0,0,0,0,-1,846,890,0,0
-371,134,0,0,0,0,0,0,0,0,0,-1,853,890,0,0
-364,134,0,0,0,0,0,0,0,0,0,-1,860,890,0,0
-357,134,0,0,0,0,0,0,0,0,0,-1,867,890,0,0
-350,134,0,0,0,0,0,0,0,0,0,-1,874,890,0,0
-343,134,0,0,0,0,0,0,0,0,0,-1,881,890,0,0
-336,134,0,0,0,0,0,0,0,0,0,-1,888,890,0,0
-329,134,0,0,0,0,0,0,0,0,0,-1,895,890,0,0
-322,134,0,0,0,0,0,0,0,0,0,-1,902,890,0,0
-315,134,0,0,0,0,0,0,0,0,0,-1,909,890,0,0
-308,134,0,0,0,0,0,0,0,0,0,-1,916,890,0,0
-301,134,0,0,0,0,0,0,0,0,0,-1,923,890,0,0
-294,134,0,0,0,0,0,0,0,0,0,-1,930,890,0,0
-287,134,0,0,0,0,0,0,0,0,0,-1,937,890,0,0
-280,134,0,0,0,0,0,0,0,0,0,-1,944,890,0,0
-273,134,0,0,0,0,0,0,0,0,0,-1,951,890,0,0
-266,134,0,0,0,0,0,0,0,0,0,-1,958,890,0,0
-259,134,0,0,0,0,0,0,0,0,0,-1,965,890,0,0
-252,134,0,0,0,0,0,0,0,0,0,-1,972,890,0,0
-245,134,0,0,0,0,0,0,0,0,0,-1,979,890,0,0
-238,134,0,0,0,0,0,0,0,0,0,-1,986,890,0,0
-231,134,0,0,0,0,0,0,0,0,0,-1,993,890,0,0
-224,134,0,0,0,0,0,0,0,0,0,-1,1000,890,0,0
-217,134,0,0,0,0,0,0,0,0,0,-1,1007,890,0,0
-210,134,0,0,0,0,0,0,0,0,0,-1,1014,890,0,0
-203,134,0,0,0,0,0,0,0,0,0,-1,1021,890,0,0
-196,134,0,0,0,0,0,0,0,0,0,-1,1028,890,0,0
-189,134,0,0,0,0,0,0,0,0,0,-1,1035,890,0,0
-182,134,0,0,0,0,0,0,0,0,0,-1,1042,890,0,0
-175,134,0,0,0,0,0,0,0,0,0,-1,1049,890,0,0
-168,134,0,0,0,0,0,0,0,0,0,-1,1056,890,0,0
-161,134,0,0,0,0,0,0,0,0,0,-1,1063,890,0,0
-154,134,0,0,0,0,0,0,0,0,0,-1,1070,890,0,0
-147,134,0,0,0,0,0,0,0,0,0,-1,1077,890,0,0
-140,134,0,0,0,0,0,0,0,0,0,-1,1084,890,0,0
-133,134,0,0,0,0,0,0,0,0,0,-1,1091,890,0,0
-126,134,0,0,0,0,0,0,0,0,0,-1,1098,890,0,0
-119,134,0,0,0,0,0,0,0,0,0,-1,1105,890,0,0
-112,134,0,0,0,0,0,0,0,0,0,-1,1112,890,0,0
-105,134,0,0,0,0,0,0,0,0,0,-1,1119,890,0,0
-98,134,0,0,0,0,0,0,0,0,0,-1,1126,890,0,0
-91,134,0,0,0,0,0,0,0,0,0,-1,1133,890,0,0
-84,134,0,0,0,0,0,0,0,0,0,-1,1140,890,0,0
-77,134,0,0,0,0,0,0,0,0,0,-1,1147,890,0,0
-70,134,0,0,0,0,0,0,0,0,0,-1,1154,890,0,0
-63,134,0,0,0,0,0,0,0,0,0,-1,1161,890,0,0
-56,134,0,0,0,0,0,0,0,0,0,-1,1168,890,0,0
-49,134,0,0,0,0,0,0,0,0,0,-1,1175,890,0,0
-42,134,0,0,0,0,0,0,0,0,0,-1,1182,890,0,0
-35,134,0,0,0,0,0,0,0,0,0,-1,1189,890,0,0
-28,134,0,0,0,0,0,0,0,0,0,-1,1196,890,0,0
-21,134,0,0,0,0,0,0,0,0,0,-1,1203,890,0,0
-14,134,0,0,0,0,0,0,0,0,0,-1,1210,890,0,0
-7,134,0,0,0,0,0,0,0,0,0,-1,1217,890,0,0
0,134,0,0,0,0,0,0,0,0,0,-1,1224,890,0,0
7,134,0,0,0,0,0,0,0,0,0,-1,1231,890,0,0
14,134,0,0,0,0,0,0,0,0,0,-1,1238,890,0,0
21,134,0,0,0,0,0,0,0,0,0,-1,1245,890,0,0
28,134,0,0,0,0,0,0,0,0,0,-1,1252,890,0,0
35,134,0,0,0,0,0,0,0,0,0,-1,1259,890,0,0
42,134,0,0,0,0,0,0,0,0,0,-1,1266,890,0,0
49,134,0,0,0,0,0,0,0,0,0,-1,1273,890,0,0
56,134,0,0,0,0,0,0,0,0,0,-1,1280,890,0,0
63,134,0,0,0,0,0,0,0,0,0,-1,1287,890,0,0
70,134,0,0,0,0,0,0,0,0,0,-1,1294,890,0,0
77,134,0,0,0,0,0,0,0,0,0,-1,1301,890,0,0
84,134,0,0,0,0,0,0,0,0,0,-1,1308,890,0,0
91,134,0,0,0,0,0,0,0,0,0,-1,1315,890,0,0
98,134,0,0,0,0,0,0,0,0,0,-1,1322,890,0,0
105,134,0,0,0,0,0,0,0,0,0,-1,1329,890,0,0
112,134,0,0,0,0,0,0,0,0,0,-1,1336,890,0,0
119,134,0,0,0,0,0,0,0,0,0,-1,1343,890,0,0
126,134,0,0,0,0,0,0,0,0,0,-1,1350,890,0,0
133,134,0,0,0,0,0,0,0,0,0,-1,1357,890,0,0
140,134,0,0,0,0,0,0,0,0,0,-1,1364,890,0,0
147,134,0,0,0,0,0,0,0,0,0,-1,1371,890,0,0
154,134,0,0,0,0,0,0,0,0,0,-1,1378,890,0,0
161,134,0,0,0,0,0,0,0,0,0,-1,1385,890,0,0
168,134,0,0,0,0,0,0,0,0,0,-1,1392,890,0,0
175,134,0,0,0,0,0,0,0,0,0,-1,1399,890,0,0
182,134,0,0,0,0,0,0,0,0,0,-1,1406,890,0,0
189,134,0,0,0,0,0,0,0,0,0,-1,1413,890,0,0
196,134,0,0,0,0,0,0,0,0,0,-1,1420,890,0,0
203,134,0,0,0,0,0,0,0,0,0,-1,1427,890,0,0
210,134,0,0,0,0,0,0,0,0,0,-1,1434,890,0,0
217,134,0,0,0,0,0,0,0,0,0,-1,1441,890,0,0
224,134,0,0,0,0,0,0,0,0,0,-1,1448,890,0,0
231,134,0,0,0,0,0,0,0,0,0,-1,1455,890,0,0
238,134,0,0,0,0,0,0,0,0,0,-1,1462,890,0,0
245,134,0,0,0,0,0,0,0,0,0,-1,1469,890,0,0
252,134,0,0,0,0,0,0,0,0,0,-1,1476,890,0,0
259,134,0,0,0,0,0,0,0,0,0,-1,1483,890,0,0
266,134,0,0,0,0,0,0,0,0,0,-1,1490,890,0,0
273,134,0,0,0,0,0,0,0,0,0,-1,1497,890,0,0
280,134,0,0,0,0,0,0,0,0,0,-1,1504,890,0,0
287,134,0,0,0,0,0,0,0,0,0,-1,1511,890,0,0
294,134,0,0,0,0,0,0,0,0,0,-1,1518,890,0,0
301,134,0,0,0,0,0,0,0,0,0,-1,1525,890,0,0
308,134,0,0,0,0,0,0,0,0,0,-1,1532,890,0,0
315,134,0,0,0,0,0,0,0,0,0,-1,1539,890,0,0
322,134,0,0,0,0,0,0,0,0,0,-1,1546,890,0,0
329,134,0,0,0,0,0,0,0,0,0,-1,1553,890,0,0
336,134,0,0,0,0,0,0,0,0,0,-1,1560,890,0,0
343,134,0,0,0,0,0,0,0,0,0,-1,1567,890,0,0
350,134,0,0,0,0,0,0,0,0,0,-1,1574,890,0,0
357,134,0,0,0,0,0,0,0,0,0,-1,1581,890,0,0
364,134,0,0,0,0,0,0,0,0,0,-1,1588,890,0,0
371,134,0,0,0,0,0,0,0,0,0,-1,1595,890,0,0
378,134,0,0,0,0,0,0,0,0,0,-1,1602,890,0,0
385,134,0,0,0,0,0,0,0,0,0,-1,1609,890,0,0
392,134,0,0,0,0,0,0,0,0,0,-1,1616,890,0,0
399,134,0,0,0,0,0,0,0,0,0,-1,1623,890,0,0
406,134,0,0,0,0,0,0,0,0,0,-1,1630,890,0,0
413,134,0,0,0,0,0,0,0,0,0,-1,1637,890,0,0
420,134,0,0,0,0,0,0,0,0,0,-1,1644,890,0,0
427,134,0,0,0,0,0,0,0,0,0,-1,1651,890,0,0
434,134,0,0,0,0,0,0,0,0,0,-1,1658,890,0,0
441,134,0,0,0,0,0,0,0,0,0,-1,1665,890,0,0
448,134,0,0,0,0,0,0,0,0,0,-1,1672,890,0,0
455,134,0,0,0,0,0,0,0,0,0,-1,1679,890,0,0
462,134,0,0,0,0,0,0,0,0,0,-1,1686,890,0,0
469,134,0,0,0,0,0,0,0,0,0,-1,1693,890,0,0
476,134,0,0,0,0,0,0,0,0,0,-1,1700,890,0,0
483,134,0,0,0,0,0,0,0,0,0,-1,1707,890,0,0
490,134,0,0,0,0,0,0,0,0,0,-1,1714,890,0,0
497,134,0,0,0,0,0,0,0,0,0,-1,1721,890,0,0
504,134,0,0,0,0,0,0,0,0,0,-1,1728,890,0,0
511,134,0,0,0,0,0,0,0,0,0,-1,1735,890,0,0
518,134,0,0,0,0,0,0,0,0,0,-1,1742,890,0,0
525,134,0,0,0,0,0,0,0,0,0,-1,1749,890,0,0
532,134,0,0,0,0,0,0,0,0,0,-1,1756,890,0,0
539,134,0,0,0,0,0,0,0,0,0,-1,1763,890,0,0
546,134,0,0,0,0,0,0,0,0,0,-1,1770,890,0,0
553,134,0,0,0,0,0,0,0,0,0,-1,1777,890,0,0
560,134,0,0,0,0,0,0,0,0,0,-1,1784,890,0,0
567,134,0,0,0,0,0,0,0,0,0,-1,1791,890,0,0
574,134,0,0,0,0,0,0,0,0,0,-1,1798,890,0,0
581,134,0,0,0,0,0,0,0,0,0,-1,1805,890,0,0
588,134,0,0,0,0,0,0,0,0,0,-1,1812,890,0,0
595,134,0,0,0,0,0,0,0,0,0,-1,1819,890,0,0
602,134,0,0,0,0,0,0,0,0,0,-1,1826,890,0,0
609,134,0,0,0,0,0,0,0,0,0,-1,1833,890,0,0
616,134,0,0,0,0,0,0,0,0,0,-1,1840,890,0,0
623,134,215.068,9.03552,0,0,0,0,0,0,0,-1,1847,890,215.068,-9.03554
630,134,215.159,8.93915,0,0,0,0,0,0,0,-1,1854,890,215.159,-8.93912
637,134,215.102,8.92517,0,0,0,0,0,0,0,-1,1861,890,215.102,-8.92515
644,134,215.202,8.79327,0,0,0,0,0,0,0,-1,1868,890,215.202,-8.79324
651,134,215.236,8.56622,0,0,0,0,0,0,0,-1,1875,890,215.236,-8.56622
658,134,215.183,8.49976,0,0,0,0,0,0,0,-1,1882,890,215.183,-8.49977
665,134,215.111,8.49048,0,0,0,0,0,0,0,-1,1889,890,215.111,-8.49046
672,134,215.126,8.50195,0,0,0,0,0,0,0,-1,1896,890,215.126,-8.50194
679,134,215.144,8.57697,0,0,0,0,0,0,0,-1,1903,890,215.144,-8.57699
686,134,215.016,8.59955,0,0,0,0,0,0,0,-1,1910,890,215.016,-8.59955
693,134,34.5778,2.48096,0,0,0,0,0,0,0,-1,1917,890,34.5777,-2.48099
700,134,148.722,16.1923,0,0,0,0,0,0,0,-1,1924,890,148.722,-16.1923
707,134,198.126,26.1578,0,0,0,0,0,0,0,-1,1931,890,198.126,-26.1578
714,134,198.167,27.3579,0,0,0,0,0,0,0,-1,1938,890,198.167,-27.3579
721,134,198.266,29.024,-0.00829411,0.0145712,-0.00509007,0.0156531,-0.00937603,-1.36136,0.0146012,0.0295593,1945,890,198.266,-29.024
728,134,198.208,30.6511,-0.0111593,0.0203507,-0.00732326,0.0219696,-0.0127781,-1.35324,0.0202942,0.0258486,1952,890,198.209,-30.6511
735,134,197.984,32.262,-0.0140977,0.0262523,-0.00954069,0.0283945,-0.0162398,-1.34993,0.0260862,0.036181,1959,890,197.984,-32.262
742,134,197.595,33.5086,-0.0170075,0.0322869,-0.0116826,0.0349155,-0.0196361,-1.34948,0.0319045,0.0241941,1966,890,197.595,-33.5086
749,134,197.405,34.6953,-0.0198027,0.0384697,-0.0136821,0.0415223,-0.0228553,-1.35128,0.0376857,0.0188589,1973,890,197.405,-34.6953
756,134,197.213,35.9949,-0.0224608,0.0447922,-0.0155155,0.0481991,-0.0258677,-1.35465,0.0434056,0.022275,1980,890,197.213,-35.9949
763,134,196.818,37.3716,-0.0250834,0.0513121,-0.017221,0.0550146,-0.0287859,-1.35902,0.0491658,0.0438061,1987,890,196.818,-37.3717
770,134,196.338,38.7936,0,0,0,0,0,0,0,-1,1994,890,196.338,-38.7937
777,134,74.8572,9.58441,0,0,0,0,0,0,0,-1,2001,890,74.8572,-9.58442
784,134,75.1489,10.8398,0,0,0,0,0,0,0,-1,2008,890,75.1489,-10.8398
791,134,75.4202,12.0895,0,0,0,0,0,0,0,-1,2015,890,75.4202,-12.0896
798,134,0,0,0,0,0,0,0,0,0,-1,2022,890,0,0
805,134,0,0,0,0,0,0,0,0,0,-1,2029,890,0,0
812,134,0,0,0,0,0,0,0,0,0,-1,2036,890,0,0
-700,127,0,0,0,0,0,0,0,0,0,-1,524,897,0,0
-693,127,0,0,0,0,0,0,0,0,0,-1,531,897,0,0
-686,127,0,0,0,0,0,0,0,0,0,-1,538,897,0,0
-679,127,-52.0821,4.30957,0,0,0,0,0,0,0,-1,545,897,-52.0821,-4.30955
-672,127,-50.373,4.8219,0,0,0,0,0,0,0,-1,552,897,-50.373,-4.8219
-665,127,-49.6271,-2.44153,0,0,0,0,0,0,0,-1,559,897,-49.6271,2.44154
-658,127,-48.965,-4.18744,0,0,0,0,0,0,0,-1,566,897,-48.965,4.18745
-651,127,-52.9149,-0.455505,0,0,0,0,0,0,0,-1,573,897,-52.9149,0.455524
-644,127,-51.6913,-2.33765,0,0,0,0,0,0,0,-1,580,897,-51.6914,2.33763
-637,127,-50.3104,-4.18658,0,0,0,0,0,0,0,-1,587,897,-50.3104,4.18656
-630,127,-190.142,36.5151,0,0,0,0,0,0,0,-1,594,897,-190.142,-36.5151
-623,127,-190.285,35.669,-0.00473043,0.0427417,0.0118608,0.0455401,-0.00752884,1.3391,0.0331558,0.0343094,601,897,-190.285,-35.669
-616,127,-190.533,34.6174,-0.00629166,0.0370345,0.0102282,0.0393278,-0.0085849,1.35024,0.0294995,0.0241579,608,897,-190.533,-34.6175
-609,127,-190.873,33.2816,-0.00762135,0.0314713,0.0084657,0.0332259,-0.00937589,1.36644,0.025849,0.0222987,615,897,-190.873,-33.2815
-602,127,-191.045,31.9332,-0.00888881,0.0259436,0.00650352,0.0271182,-0.0100635,1.3921,0.0222069,0.0243627,622,897,-191.045,-31.9332
-595,127,-191.101,30.6258,-0.010071,0.0204949,0.00438601,0.0211118,-0.0106879,1.43106,0.0186855,0.0338648,629,897,-191.101,-30.6258
-588,127,-191.275,28.9833,-0.0111188,0.0151784,0.00216506,0.0153555,-0.0112959,1.4892,0.0154466,0.0453442,636,897,-191.275,-28.9833
-581,127,-190.983,27.1407,0,0,0,0,0,0,0,-1,643,897,-190.983,-27.1407
-574,127,-25.2603,0.511169,0,0,0,0,0,0,0,-1,650,897,-25.2603,-0.51117
-567,127,-24.5417,-0.0447388,0,0,0,0,0,0,0,-1,657,897,-24.5417,0.0447226
-560,127,-18.9678,1.21667,0,0,0,0,0,0,0,-1,664,897,-18.9677,-1.2167
-553,127,-72.5789,0.438843,0,0,0,0,0,0,0,-1,671,897,-72.5789,-0.438847
-546,127,-72.5634,0.41156,0,0,0,0,0,0,0,-1,678,897,-72.5634,-0.411548
-539,127,-72.5593,0.420044,0,0,0,0,0,0,0,-1,685,897,-72.5593,-0.420028
-532,127,-72.5491,0.465576,0,0,0,0,0,0,0,-1,692,897,-72.5491,-0.465589
-525,127,-72.5822,0.586487,0,0,0,0,0,0,0,-1,699,897,-72.5822,-0.586498
-518,127,-72.545,0.665894,0,0,0,0,0,0,0,-1,706,897,-72.5451,-0.665918
-511,127,-72.4194,0.653198,0,0,0,0,0,0,0,-1,713,897,-72.4195,-0.653199
-504,127,0,0,0,0,0,0,0,0,0,-1,720,897,0,0
-497,127,0,0,0,0,0,0,0,0,0,-1,727,897,0,0
-490,127,0,0,0,0,0,0,0,0,0,-1,734,897,0,0
-483,127,0,0,0,0,0,0,0,0,0,-1,741,897,0,0
-476,127,0,0,0,0,0,0,0,0,0,-1,748,897,0,0
-469,127,0,0,0,0,0,0,0,0,0,-1,755,897,0,0
-462,127,0,0,0,0,0,0,0,0,0,-1,762,897,0,0
-455,127,0,0,0,0,0,0,0,0,0,-1,769,897,0,0
-448,127,0,0,0,0,0,0,0,0,0,-1,776,897,0,0
-441,127,0,0,0,0,0,0,0,0,0,-1,783,897,0,0
-434,127,0,0,0,0,0,0,0,0,0,-1,790,897,0,0
-427,127,0,0,0,0,0,0,0,0,0,-1,797,897,0,0
-420,127,0,0,0,0,0,0,0,0,0,-1,804,897,0,0
-413,127,0,0,0,0,0,0,0,0,0,-1,811,897,0,0
-406,127,0,0,0,0,0,0,0,0,0,-1,818,897,0,0
-399,127,0,0,0,0,0,0,0,0,0,-1,825,897,0,0
-392,127,0,0,0,0,0,0,0,0,0,-1,832,897,0,0
-385,127,0,0,0,0,0,0,0,0,0,-1,839,897,0,0
-378,127,0,0,0,0,0,0,0,0,0,-1,846,897,0,0
-371,127,0,0,0,0,0,0,0,0,0,-1,853,897,0,0
-364,127,0,0,0,0,0,0,0,0,0,-1,860,897,0,0
-357,127,0,0,0,0,0,0,0,0,0,-1,867,897,0,0
-350,127,0,0,0,0,0,0,0,0,0,-1,874,897,0,0
-343,127,0,0,0,0,0,0,0,0,0,-1,881,897,0,0
-336,127,0,0,0,0,0,0,0,0,0,-1,888,897,0,0
-329,127,0,0,0,0,0,0,0,0,0,-1,895,897,0,0
-322,127,0,0,0,0,0,0,0,0,0,-1,902,897,0,0
-315,127,0,0,0,0,0,0,0,0,0,-1,909,897,0,0
-308,127,0,0,0,0,0,0,0,0,0,-1,916,897,0,0
-301,127,0,0,0,0,0,0,0,0,0,-1,923,897,0,0
-294,127,0,0,0,0,0,0,0,0,0,-1,930,897,0,0
-287,127,0,0,0,0,0,0,0,0,0,-1,937,897,0,0
-280,127,0,0,0,0,0,0,0,0,0,-1,944,897,0,0
-273,127,0,0,0,0,0,0,0,0,0,-1,951,897,0,0
-266,127,0,0,0,0,0,0,0,0,0,-1,958,897,0,0
-259,127,0,0,0,0,0,0,0,0,0,-1,965,897,0,0
-252,127,0,0,0,0,0,0,0,0,0,-1,972,897,0,0
-245,127,0,0,0,0,0,0,0,0,0,-1,979,897,0,0
-238,127,0,0,0,0,0,0,0,0,0,-1,986,897,0,0
-231,127,0,0,0,0,0,0,0,0,0,-1,993,897,0,0
-224,127,0,0,0,0,0,0,0,0,0,-1,1000,897,0,0
-217,127,0,0,0,0,0,0,0,0,0,-1,1007,897,0,0
-210,127,0,0,0,0,0,0,0,0,0,-1,1014,897,0,0
-203,127,0,0,0,0,0,0,0,0,0,-1,1021,897,0,0
-196,127,0,0,0,0,0,0,0,0,0,-1,1028,897,0,0
-189,127,0,0,0,0,0,0,0,0,0,-1,1035,897,0,0
-182,127,0,0,0,0,0,0,0,0,0,-1,1042,897,0,0
-175,127,0,0,0,0,0,0,0,0,0,-1,1049,897,0,0
-168,127,0,0,0,0,0,0,0,0,0,-1,1056,897,0,0
-161,127,0,0,0,0,0,0,0,0,0,-1,1063,897,0,0
-154,127,0,0,0,0,0,0,0,0,0,-1,1070,897,0,0
-147,127,0,0,0,0,0,0,0,0,0,-1,1077,897,0,0
-140,127,0,0,0,0,0,0,0,0,0,-1,1084,897,0,0
-133,127,0,0,0,0,0,0,0,0,0,-1,1091,897,0,0
-126,127,0,0,0,0,0,0,0,0,0,-1,1098,897,0,0
-119,127,0,0,0,0,0,0,0,0,0,-1,1105,897,0,0
-112,127,0,0,0,0,0,0,0,0,0,-1,1112,897,0,0
-105,127,0,0,0,0,0,0,0,0,0,-1,1119,897,0,0
-98,127,0,0,0,0,0,0,0,0,0,-1,1126,897,0,0
-91,127,0,0,0,0,0,0,0,0,0,-1,1133,897,0,0
-84,127,0,0,0,0,0,0,0,0,0,-1,1140,897,0,0
-77,127,0,0,0,0,0,0,0,0,0,-1,1147,897,0,0
-70,127,0,0,0,0,0,0,0,0,0,-1,1154,897,0,0
-63,127,0,0,0,0,0,0,0,0,0,-1,1161,897,0,0
-56,127,0,0,0,0,0,0,0,0,0,-1,1168,897,0,0
-49,127,0,0,0,0,0,0,0,0,0,-1,1175,897,0,0
-42,127,0,0,0,0,0,0,0,0,0,-1,1182,897,0,0
-35,127,0,0,0,0,0,0,0,0,0,-1,1189,897,0,0
-28,127,0,0,0,0,0,0,0,0,0,-1,1196,897,0,0
-21,127,0,0,0,0,0,0,0,0,0,-1,1203,897,0,0
-14,127,0,0,0,0,0,0,0,0,0,-1,1210,897,0,0
-7,127,0,0,0,0,0,0,0,0,0,-1,1217,897,0,0
0,127,0,0,0,0,0,0,0,0,0,-1,1224,897,0,0
7,127,0,0,0,0,0,0,0,0,0,-1,1231,897,0,0
14,127,0,0,0,0,0,0,0,0,0,-1,1238,897,0,0
21,127,0,0,0,0,0,0,0,0,0,-1,1245,897,0,0
28,127,0,0,0,0,0,0,0,0,0,-1,1252,897,0,0
35,127,0,0,0,0,0,0,0,0,0,-1,1259,897,0,0
42,127,0,0,0,0,0,0,0,0,0,-1,1266,897,0,0
49,127,0,0,0,0,0,0,0,0,0,-1,1273,897,0,0
56,127,0,0,0,0,0,0,0,0,0,-1,1280,897,0,0
63,127,0,0,0,0,0,0,0,0,0,-1,1287,897,0,0
70,127,0,0,0,0,0,0,0,0,0,-1,1294,897,0,0
77,127,0,0,0,0,0,0,0,0,0,-1,1301,897,0,0
84,127,0,0,0,0,0,0,0,0,0,-1,1308,897,0,0
91,127,0,0,0,0,0,0,0,0,0,-1,1315,897,0,0
98,127,0,0,0,0,0,0,0,0,0,-1,1322,897,0,0
105,127,0,0,0,0,0,0,0,0,0,-1,1329,897,0,0
112,127,0,0,0,0,0,0,0,0,0,-1,1336,897,0,0
119,127,0,0,0,0,0,0,0,0,0,-1,1343,897,0,0
126,127,0,0,0,0,0,0,0,0,0,-1,1350,897,0,0
133,127,0,0,0,0,0,0,0,0,0,-1,1357,897,0,0
140,127,0,0,0,0,0,0,0,0,0,-1,1364,897,0,0
147,127,0,0,0,0,0,0,0,0,0,-1,1371,897,0,0
154,127,0,0,0,0,0,0,0,0,0,-1,1378,897,0,0
161,127,0,0,0,0,0,0,0,0,0,-1,1385,897,0,0
168,127,0,0,0,0,0,0,0,0,0,-1,1392,897,0,0
175,127,0,0,0,0,0,0,0,0,0,-1,1399,897,0,0
182,127,0,0,0,0,0,0,0,0,0,-1,1406,897,0,0
189,127,0,0,0,0,0,0,0,0,0,-1,1413,897,0,0
196,127,0,0,0,0,0,0,0,0,0,-1,1420,897,0,0
203,127,0,0,0,0,0,0,0,0,0,-1,1427,897,0,0
210,127,0,0,0,0,0,0,0,0,0,-1,1434,897,0,0
217,127,0,0,0,0,0,0,0,0,0,-1,1441,897,0,0
224,127,0,0,0,0,0,0,0,0,0,-1,1448,897,0,0
231,127,0,0,0,0,0,0,0,0,0,-1,1455,897,0,0
238,127,0,0,0,0,0,0,0,0,0,-1,1462,897,0,0
245,127,0,0,0,0,0,0,0,0,0,-1,1469,897,0,0
252,127,0,0,0,0,0,0,0,0,0,-1,1476,897,0,0
259,127,0,0,0,0,0,0,0,0,0,-1,1483,897,0,0
266,127,0,0,0,0,0,0,0,0,0,-1,1490,897,0,0
273,127,0,0,0,0,0,0,0,0,0,-1,1497,897,0,0
280,127,0,0,0,0,0,0,0,0,0,-1,1504,897,0,0
287,127,0,0,0,0,0,0,0,0,0,-1,1511,897,0,0
294,127,0,0,0,0,0,0,0,0,0,-1,1518,897,0,0
301,127,0,0,0,0,0,0,0,0,0,-1,1525,897,0,0
308,127,0,0,0,0,0,0,0,0,0,-1,1532,897,0,0
315,127,0,0,0,0,0,0,0,0,0,-1,1539,897,0,0
322,127,0,0,0,0,0,0,0,0,0,-1,1546,897,0,0
329,127,0,0,0,0,0,0,0,0,0,-1,1553,897,0,0
336,127,0,0,0,0,0,0,0,0,0,-1,1560,897,0,0
343,127,0,0,0,0,0,0,0,0,0,-1,1567,897,0,0
350,127,0,0,0,0,0,0,0,0,0,-1,1574,897,0,0
357,127,0,0,0,0,0,0,0,0,0,-1,1581,897,0,0
364,127,0,0,0,0,0,0,0,0,0,-1,1588,897,0,0
371,127,0,0,0,0,0,0,0,0,0,-1,1595,897,0,0
378,127,0,0,0,0,0,0,0,0,0,-1,1602,897,0,0
385,127,0,0,0,0,0,0,0,0,0,-1,1609,897,0,0
392,127,0,0,0,0,0,0,0,0,0,-1,1616,897,0,0
399,127,0,0,0,0,0,0,0,0,0,-1,1623,897,0,0
406,127,0,0,0,0,0,0,0,0,0,-1,1630,897,0,0
413,127,0,0,0,0,0,0,0,0,0,-1,1637,897,0,0
420,127,0,0,0,0,0,0,0,0,0,-1,1644,897,0,0
427,127,0,0,0,0,0,0,0,0,0,-1,1651,897,0,0
434,127,0,0,0,0,0,0,0,0,0,-1,1658,897,0,0
441,127,0,0,0,0,0,0,0,0,0,-1,1665,897,0,0
448,127,0,0,0,0,0,0,0,0,0,-1,1672,897,0,0
455,127,0,0,0,0,0,0,0,0,0,-1,1679,897,0,0
462,127,0,0,0,0,0,0,0,0,0,-1,1686,897,0,0
469,127,0,0,0,0,0,0,0,0,0,-1,1693,897,0,0
476,127,0,0,0,0,0,0,0,0,0,-1,1700,897,0,0
483,127,0,0,0,0,0,0,0,0,0,-1,1707,897,0,0
490,127,0,0,0,0,0,0,0,0,0,-1,1714,897,0,0
497,127,0,0,0,0,0,0,0,0,0,-1,1721,897,0,0
504,127,0,0,0,0,0,0,0,0,0,-1,1728,897,0,0
511,127,0,0,0,0,0,0,0,0,0,-1,1735,897,0,0
518,127,0,0,0,0,0,0,0,0,0,-1,1742,897,0,0
525,127,0,0,0,0,0,0,0,0,0,-1,1749,897,0,0
532,127,0,0,0,0,0,0,0,0,0,-1,1756,897,0,0
539,127,0,0,0,0,0,0,0,0,0,-1,1763,897,0,0
546,127,0,0,0,0,0,0,0,0,0,-1,1770,897,0,0
553,127,0,0,0,0,0,0,0,0,0,-1,1777,897,0,0
560,127,0,0,0,0,0,0,0,0,0,-1,1784,897,0,0
567,127,0,0,0,0,0,0,0,0,0,-1,1791,897,0,0
574,127,0,0,0,0,0,0,0,0,0,-1,1798,897,0,0
581,127,0,0,0,0,0,0,0,0,0,-1,1805,897,0,0
588,127,0,0,0,0,0,0,0,0,0,-1,1812,897,0,0
595,127,0,0,0,0,0,0,0,0,0,-1,1819,897,0,0
602,127,0,0,0,0,0,0,0,0,0,-1,1826,897,0,0
609,127,0,0,0,0,0,0,0,0,0,-1,1833,897,0,0
616,127,0,0,0,0,0,0,0,0,0,-1,1840,897,0,0
623,127,0,0,0,0,0,0,0,0,0,-1,1847,897,0,0
630,127,215.189,8.74207,0,0,0,0,0,0,0,-1,1854,897,215.189,-8.74205
637,127,215.24,8.6925,0,0,0,0,0,0,0,-1,1861,897,215.24,-8.69249
644,127,215.325,8.63409,0,0,0,0,0,0,0,-1,1868,897,215.325,-8.63408
651,127,215.214,8.56366,0,0,0,0,0,0,0,-1,1875,897,215.214,-8.56368
658,127,215.042,8.55853,0,0,0,0,0,0,0,-1,1882,897,215.042,-8.55855
665,127,215.087,8.52759,0,0,0,0,0,0,0,-1,1889,897,215.087,-8.52761
672,127,215.081,8.51025,0,0,0,0,0,0,0,-1,1896,897,215.081,-8.51027
679,127,215.127,8.6004,0,0,0,0,0,0,0,-1,1903,897,215.127,-8.60043
686,127,215.093,8.71295,0,0,0,0,0,0,0,-1,1910,897,215.093,-8.71296
693,127,215.011,8.78918,0,0,0,0,0,0,0,-1,1917,897,215.011,-8.78918
700,127,145.75,15.071,0,0,0,0,0,0,0,-1,1924,897,145.749,-15.071
707,127,200.234,25.8066,0,0,0,0,0,0,0,-1,1931,897,200.234,-25.8066
714,127,200.161,27.5865,0,0,0,0,0,0,0,-1,1938,897,200.161,-27.5865
721,127,199.956,29.2837,-0.00829148,0.0124352,-0.00381017,0.0131135,-0.00896971,-1.39464,0.0128243,0.0295745,1945,897,199.956,-29.2837
728,127,199.698,30.6981,-0.0110126,0.0182966,-0.00602513,0.0194869,-0.0122028,-1.37576,0.0184565,0.0292337,1952,897,199.698,-30.6981
735,127,199.402,32.0599,-0.0137649,0.0243238,-0.0081633,0.0259996,-0.0154408,-1.36832,0.0241831,0.0308677,1959,897,199.402,-32.0599
742,127,199.134,33.3707,-0.0164618,0.0305156,-0.0101691,0.0326224,-0.0185686,-1.36651,0.0299241,0.0275198,1966,897,199.134,-33.3707
749,127,198.915,34.6293,-0.0190317,0.0368705,-0.0119919,0.0393343,-0.0214955,-1.36816,0.03562,0.0185247,1973,897,198.915,-34.6293
756,127,198.699,35.8629,-0.0214342,0.0433852,-0.0135965,0.0461217,-0.0241707,-1.37219,0.0412376,0.0225661,1980,897,198.699,-35.8629
763,127,198.414,37.123,-0.0237537,0.0500817,-0.0149816,0.0530057,-0.0266777,-1.37804,0.0468348,0.0336526,1987,897,198.414,-37.123
770,127,198.264,38.3873,0,0,0,0,0,0,0,-1,1994,897,198.264,-38.3873
777,127,76.3003,10.8735,0,0,0,0,0,0,0,-1,2001,897,76.3003,-10.8735
784,127,78.9905,10.8276,0,0,0,0,0,0,0,-1,2008,897,78.9905,-10.8276
791,127,76.7629,12.9143,0,0,0,0,0,0,0,-1,2015,897,76.763,-12.9143
798,127,0,0,0,0,0,0,0,0,0,-1,2022,897,0,0
805,127,0,0,0,0,0,0,0,0,0,-1,2029,897,0,0
812,127,0,0,0,0,0,0,0,0,0,-1,2036,897,0,0
-700,120,0,0,0,0,0,0,0,0,0,-1,524,904,0,0
-693,120,0,0,0,0,0,0,0,0,0,-1,531,904,0,0
-686,120,0,0,0,0,0,0,0,0,0,-1,538,904,0,0
-679,120,-52.0888,4.76025,0,0,0,0,0,0,0,-1,545,904,-52.0888,-4.76024
-672,120,-51.1454,5.42755,0,0,0,0,0,0,0,-1,552,904,-51.1454,-5.42753
-665,120,-50.2376,-2.67987,0,0,0,0,0,0,0,-1,559,904,-50.2376,2.67988
-658,120,-54.6443,7.5307,0,0,0,0,0,0,0,-1,566,904,-54.6443,-7.53071
-651,120,-52.9452,-1.22644,0,0,0,0,0,0,0,-1,573,904,-52.9452,1.22647
-644,120,-51.6526,-3.15863,0,0,0,0,0,0,0,-1,580,904,-51.6526,3.15864
-637,120,-63.5991,12.2592,0,0,0,0,0,0,0,-1,587,904,-63.5991,-12.2592
-630,120,-191.714,36.743,0,0,0,0,0,0,0,-1,594,904,-191.714,-36.743
-623,120,-191.862,35.5774,-0.00702005,0.0414328,0.0118749,0.0441866,-0.00977385,1.34292,0.0331988,0.0265947,601,904,-191.862,-35.5774
-616,120,-192.056,34.4018,-0.00754831,0.0354935,0.00987928,0.0376527,-0.00970756,1.35562,0.0288866,0.0174007,608,904,-192.056,-34.4018
-609,120,-192.289,33.1877,-0.00813078,0.0296401,0.00769932,0.0311493,-0.00963993,1.37724,0.0246169,0.0181712,615,904,-192.289,-33.1877
-602,120,-192.485,31.8984,-0.00883134,0.0238247,0.00531186,0.024667,-0.00967365,1.41353,0.0204468,0.0203735,622,904,-192.485,-31.8984
-595,120,-192.547,30.5848,-0.00966966,0.018087,0.00273841,0.0183546,-0.00993725,1.47339,0.0165735,0.0346906,629,904,-192.547,-30.5849
-588,120,-192.575,28.8235,0,0,0,0,0,0,0,-1,636,904,-192.575,-28.8235
-581,120,-193.172,28.2164,0,0,0,0,0,0,0,-1,643,904,-193.172,-28.2164
-574,120,-27.5438,0.505066,0,0,0,0,0,0,0,-1,650,904,-27.5438,-0.505085
-567,120,-25.2822,-0.410645,0,0,0,0,0,0,0,-1,657,904,-25.2821,0.410629
-560,120,-27.3358,1.10327,0,0,0,0,0,0,0,-1,664,904,-27.3358,-1.10324
-553,120,-72.493,0.529297,0,0,0,0,0,0,0,-1,671,904,-72.493,-0.529275
-546,120,-72.4564,0.473267,0,0,0,0,0,0,0,-1,678,904,-72.4564,-0.47327
-539,120,-72.4779,0.478088,0,0,0,0,0,0,0,-1,685,904,-72.4779,-0.478083
-532,120,-72.5178,0.429443,0,0,0,0,0,0,0,-1,692,904,-72.5178,-0.429422
-525,120,-72.5717,0.447632,0,0,0,0,0,0,0,-1,699,904,-72.5716,-0.447629
-518,120,-72.5829,0.531921,0,0,0,0,0,0,0,-1,706,904,-72.5829,-0.531914
-511,120,-72.8918,0.68634,0,0,0,0,0,0,0,-1,713,904,-72.8918,-0.686362
-504,120,0,0,0,0,0,0,0,0,0,-1,720,904,0,0
-497,120,0,0,0,0,0,0,0,0,0,-1,727,904,0,0
-490,120,0,0,0,0,0,0,0,0,0,-1,734,904,0,0
-483,120,0,0,0,0,0,0,0,0,0,-1,741,904,0,0
-476,120,0,0,0,0,0,0,0,0,0,-1,748,904,0,0
-469,120,0,0,0,0,0,0,0,0,0,-1,755,904,0,0
-462,120,0,0,0,0,0,0,0,0,0,-1,762,904,0,0
-455,120,0,0,0,0,0,0,0,0,0,-1,769,904,0,0
-448,120,0,0,0,0,0,0,0,0,0,-1,776,904,0,0
-441,120,0,0,0,0,0,0,0,0,0,-1,783,904,0,0
-434,120,0,0,0,0,0,0,0,0,0,-1,790,904,0,0
-427,120,0,0,0,0,0,0,0,0,0,-1,797,904,0,0
-420,120,0,0,0,0,0,0,0,0,0,-1,804,904,0,0
-413,120,0,0,0,0,0,0,0,0,0,-1,811,904,0,0
-406,120,0,0,0,0,0,0,0,0,0,-1,818,904,0,0
-399,120,0,0,0,0,0,0,0,0,0,-1,825,904,0,0
-392,120,0,0,0,0,0,0,0,0,0,-1,832,904,0,0
-385,120,0,0,0,0,0,0,0,0,0,-1,839,904,0,0
-378,120,0,0,0,0,0,0,0,0,0,-1,846,904,0,0
-371,120,0,0,0,0,0,0,0,0,0,-1,853,904,0,0
-364,120,0,0,0,0,0,0,0,0,0,-1,860,904,0,0
-357,120,0,0,0,0,0,0,0,0,0,-1,867,904,0,0
-350,120,0,0,0,0,0,0,0,0,0,-1,874,904,0,0
-343,120,0,0,0,0,0,0,0,0,0,-1,881,904,0,0
-336,120,0,0,0,0,0,0,0,0,0,-1,888,904,0,0
-329,120,0,0,0,0,0,0,0,0,0,-1,895,904,0,0
-322,120,0,0,0,0,0,0,0,0,0,-1,902,904,0,0
-315,120,0,0,0,0,0,0,0,0,0,-1,909,904,0,0
-308,120,0,0,0,0,0,0,0,0,0,-1,916,904,0,0
-301,120,0,0,0,0,0,0,0,0,0,-1,923,904,0,0
-294,120,0,0,0,0,0,0,0,0,0,-1,930,904,0,0
-287,120,0,0,0,0,0,0,0,0,0,-1,937,904,0,0
-280,120,0,0,0,0,0,0,0,0,0,-1,944,904,0,0
-273,120,0,0,0,0,0,0,0,0,0,-1,951,904,0,0
-266,120,0,0,0,0,0,0,0,0,0,-1,958,904,0,0
-259,120,0,0,0,0,0,0,0,0,0,-1,965,904,0,0
-252,120,0,0,0,0,0,0,0,0,0,-1,972,904,0,0
-245,120,0,0,0,0,0,0,0,0,0,-1,979,904,0,0
-238,120,0,0,0,0,0,0,0,0,0,-1,986,904,0,0
-231,120,0,0,0,0,0,0,0,0,0,-1,993,904,0,0
-224,120,0,0,0,0,0,0,0,0,0,-1,1000,904,0,0
-217,120,0,0,0,0,0,0,0,0,0,-1,1007,904,0,0
-210,120,0,0,0,0,0,0,0,0,0,-1,1014,904,0,0
-203,120,0,0,0,0,0,0,0,0,0,-1,1021,904,0,0
-196,120,0,0,0,0,0,0,0,0,0,-1,1028,904,0,0
-189,120,0,0,0,0,0,0,0,0,0,-1,1035,904,0,0
-182,120,0,0,0,0,0,0,0,0,0,-1,1042,904,0,0
-175,120,0,0,0,0,0,0,0,0,0,-1,1049,904,0,0
-168,120,0,0,0,0,0,0,0,0,0,-1,1056,904,0,0
-161,120,0,0,0,0,0,0,0,0,0,-1,1063,904,0,0
-154,120,0,0,0,0,0,0,0,0,0,-1,1070,904,0,0
-147,120,0,0,0,0,0,0,0,0,0,-1,1077,904,0,0
-140,120,0,0,0,0,0,0,0,0,0,-1,1084,904,0,0
-133,120,0,0,0,0,0,0,0,0,0,-1,1091,904,0,0
-126,120,0,0,0,0,0,0,0,0,0,-1,1098,904,0,0
-119,120,0,0,0,0,0,0,0,0,0,-1,1105,904,0,0
-112,120,0,0,0,0,0,0,0,0,0,-1,1112,904,0,0
-105,120,0,0,0,0,0,0,0,0,0,-1,1119,904,0,0
-98,120,0,0,0,0,0,0,0,0,0,-1,1126,904,0,0
-91,120,0,0,0,0,0,0,0,0,0,-1,1133,904,0,0
-84,120,0,0,0,0,0,0,0,0,0,-1,1140,904,0,0
-77,120,0,0,0,0,0,0,0,0,0,-1,1147,904,0,0
-70,120,0,0,0,0,0,0,0,0,0,-1,1154,904,0,0
-63,120,0,0,0,0,0,0,0,0,0,-1,1161,904,0,0
-56,120,0,0,0,0,0,0,0,0,0,-1,1168,904,0,0
-49,120,0,0,0,0,0,0,0,0,0,-1,1175,904,0,0
-42,120,0,0,0,0,0,0,0,0,0,-1,1182,904,0,0
-35,120,0,0,0,0,0,0,0,0,0,-1,1189,904,0,0
-28,120,0,0,0,0,0,0,0,0,0,-1,1196,904,0,0
-21,120,0,0,0,0,0,0,0,0,0,-1,1203,904,0,0
-14,120,0,0,0,0,0,0,0,0,0,-1,1210,904,0,0
-7,120,0,0,0,0,0,0,0,0,0,-1,1217,904,0,0
0,120,0,0,0,0,0,0,0,0,0,-1,1224,904,0,0
7,120,0,0,0,0,0,0,0,0,0,-1,1231,904,0,0
14,120,0,0,0,0,0,0,0,0,0,-1,1238,904,0,0
21,120,0,0,0,0,0,0,0,0,0,-1,1245,904,0,0
28,120,0,0,0,0,0,0,0,0,0,-1,1252,904,0,0
35,120,0,0,0,0,0,0,0,0,0,-1,1259,904,0,0
42,120,0,0,0,0,0,0,0,0,0,-1,1266,904,0,0
49,120,0,0,0,0,0,0,0,0,0,-1,1273,904,0,0
56,120,0,0,0,0,0,0,0,0,0,-1,1280,904,0,0
63,120,0,0,0,0,0,0,0,0,0,-1,1287,904,0,0
70,120,0,0,0,0,0,0,0,0,0,-1,1294,904,0,0
77,120,0,0,0,0,0,0,0,0,0,-1,1301,904,0,0
84,120,0,0,0,0,0,0,0,0,0,-1,1308,904,0,0
91,120,0,0,0,0,0,0,0,0,0,-1,1315,904,0,0
98,120,0,0,0,0,0,0,0,0,0,-1,1322,904,0,0
105,120,0,0,0,0,0,0,0,0,0,-1,1329,904,0,0
112,120,0,0,0,0,0,0,0,0,0,-1,1336,904,0,0
119,120,0,0,0,0,0,0,0,0,0,-1,1343,904,0,0
126,120,0,0,0,0,0,0,0,0,0,-1,1350,904,0,0
133,120,0,0,0,0,0,0,0,0,0,-1,1357,904,0,0
140,120,0,0,0,0,0,0,0,0,0,-1,1364,904,0,0
147,120,0,0,0,0,0,0,0,0,0,-1,1371,904,0,0
154,120,0,0,0,0,0,0,0,0,0,-1,1378,904,0,0
161,120,0,0,0,0,0,0,0,0,0,-1,1385,904,0,0
168,120,0,0,0,0,0,0,0,0,0,-1,1392,904,0,0
175,120,0,0,0,0,0,0,0,0,0,-1,1399,904,0,0
182,120,0,0,0,0,0,0,0,0,0,-1,1406,904,0,0
189,120,0,0,0,0,0,0,0,0,0,-1,1413,904,0,0
196,120,0,0,0,0,0,0,0,0,0,-1,1420,904,0,0
203,120,0,0,0,0,0,0,0,0,0,-1,1427,904,0,0
210,120,0,0,0,0,0,0,0,0,0,-1,1434,904,0,0
217,120,0,0,0,0,0,0,0,0,0,-1,1441,904,0,0
224,120,0,0,0,0,0,0,0,0,0,-1,1448,904,0,0
231,120,0,0,0,0,0,0,0,0,0,-1,1455,904,0,0
238,120,0,0,0,0,0,0,0,0,0,-1,1462,904,0,0
245,120,0,0,0,0,0,0,0,0,0,-1,1469,904,0,0
252,120,0,0,0,0,0,0,0,0,0,-1,1476,904,0,0
259,120,0,0,0,0,0,0,0,0,0,-1,1483,904,0,0
266,120,0,0,0,0,0,0,0,0,0,-1,1490,904,0,0
273,120,0,0,0,0,0,0,0,0,0,-1,1497,904,0,0
280,120,0,0,0,0,0,0,0,0,0,-1,1504,904,0,0
287,120,0,0,0,0,0,0,0,0,0,-1,1511,904,0,0
294,120,0,0,0,0,0,0,0,0,0,-1,1518,904,0,0
301,120,0,0,0,0,0,0,0,0,0,-1,1525,904,0,0
308,120,0,0,0,0,0,0,0,0,0,-1,1532,904,0,0
315,120,0,0,0,0,0,0,0,0,0,-1,1539,904,0,0
322,120,0,0,0,0,0,0,0,0,0,-1,1546,904,0,0
329,120,0,0,0,0,0,0,0,0,0,-1,1553,904,0,0
336,120,0,0,0,0,0,0,0,0,0,-1,1560,904,0,0
343,120,0,0,0,0,0,0,0,0,0,-1,1567,904,0,0
350,120,0,0,0,0,0,0,0,0,0,-1,1574,904,0,0
357,120,0,0,0,0,0,0,0,0,0,-1,1581,904,0,0
364,120,0,0,0,0,0,0,0,0,0,-1,1588,904,0,0
371,120,0,0,0,0,0,0,0,0,0,-1,1595,904,0,0
378,120,0,0,0,0,0,0,0,0,0,-1,1602,904,0,0
385,120,0,0,0,0,0,0,0,0,0,-1,1609,904,0,0
392,120,0,0,0,0,0,0,0,0,0,-1,1616,904,0,0
399,120,0,0,0,0,0,0,0,0,0,-1,1623,904,0,0
406,120,0,0,0,0,0,0,0,0,0,-1,1630,904,0,0
413,120,0,0,0,0,0,0,0,0,0,-1,1637,904,0,0
420,120,0,0,0,0,0,0,0,0,0,-1,1644,904,0,0
427,120,0,0,0,0,0,0,0,0,0,-1,1651,904,0,0
434,120,0,0,0,0,0,0,0,0,0,-1,1658,904,0,0
441,120,0,0,0,0,0,0,0,0,0,-1,1665,904,0,0
448,120,0,0,0,0,0,0,0,0,0,-1,1672,904,0,0
455,120,0,0,0,0,0,0,0,0,0,-1,1679,904,0,0
462,120,0,0,0,0,0,0,0,0,0,-1,1686,904,0,0
469,120,0,0,0,0,0,0,0,0,0,-1,1693,904,0,0
476,120,0,0,0,0,0,0,0,0,0,-1,1700,904,0,0
483,120,0,0,0,0,0,0,0,0,0,-1,1707,904,0,0
490,120,0,0,0,0,0,0,0,0,0,-1,1714,904,0,0
497,120,0,0,0,0,0,0,0,0,0,-1,1721,904,0,0
504,120,0,0,0,0,0,0,0,0,0,-1,1728,904,0,0
511,120,0,0,0,0,0,0,0,0,0,-1,1735,904,0,0
518,120,0,0,0,0,0,0,0,0,0,-1,1742,904,0,0
525,120,0,0,0,0,0,0,0,0,0,-1,1749,904,0,0
532,120,0,0,0,0,0,0,0,0,0,-1,1756,904,0,0
539,120,0,0,0,0,0,0,0,0,0,-1,1763,904,0,0
546,120,0,0,0,0,0,0,0,0,0,-1,1770,904,0,0
553,120,0,0,0,0,0,0,0,0,0,-1,1777,904,0,0
560,120,0,0,0,0,0,0,0,0,0,-1,1784,904,0,0
567,120,0,0,0,0,0,0,0,0,0,-1,1791,904,0,0
574,120,0,0,0,0,0,0,0,0,0,-1,1798,904,0,0
581,120,0,0,0,0,0,0,0,0,0,-1,1805,904,0,0
588,120,0,0,0,0,0,0,0,0,0,-1,1812,904,0,0
595,120,0,0,0,0,0,0,0,0,0,-1,1819,904,0,0
602,120,0,0,0,0,0,0,0,0,0,-1,1826,904,0,0
609,120,0,0,0,0,0,0,0,0,0,-1,1833,904,0,0
616,120,0,0,0,0,0,0,0,0,0,-1,1840,904,0,0
623,120,0,0,0,0,0,0,0,0,0,-1,1847,904,0,0
630,120,215.252,8.6167,0,0,0,0,0,0,0,-1,1854,904,215.252,-8.61667
637,120,215.284,8.51526,0,0,0,0,0,0,0,-1,1861,904,215.284,-8.51526
644,120,215.283,8.47778,0,0,0,0,0,0,0,-1,1868,904,215.283,-8.47781
651,120,215.131,8.50049,0,0,0,0,0,0,0,-1,1875,904,215.131,-8.5005
658,120,214.955,8.63861,0,0,0,0,0,0,0,-1,1882,904,214.955,-8.63858
665,120,214.985,8.75574,0,0,0,0,0,0,0,-1,1889,904,214.985,-8.75574
672,120,215.066,8.59332,0,0,0,0,0,0,0,-1,1896,904,215.066,-8.59333
679,120,215.13,8.55731,0,0,0,0,0,0,0,-1,1903,904,215.13,-8.55729
686,120,215.112,8.62756,0,0,0,0,0,0,0,-1,1910,904,215.112,-8.62758
693,120,215.149,8.7301,0,0,0,0,0,0,0,-1,1917,904,215.15,-8.73012
700,120,42.2007,3.00946,0,0,0,0,0,0,0,-1,1924,904,42.2007,-3.00944
707,120,200.849,26.6091,0,0,0,0,0,0,0,-1,1931,904,200.849,-26.6091
714,120,202.155,27.8151,0,0,0,0,0,0,0,-1,1938,904,202.155,-27.8151
721,120,201.318,29.5989,-0.00787634,0.0103745,-0.00262345,0.0107441,-0.00824596,-1.43083,0.0109955,0.0309298,1945,904,201.318,-29.5989
728,120,200.997,30.8248,-0.0105824,0.0162636,-0.00490197,0.0171307,-0.0114494,-1.39572,0.0166091,0.0220445,1952,904,200.997,-30.8248
735,120,200.822,32.0667,-0.0132783,0.0223821,-0.00699812,0.0237063,-0.0146025,-1.38379,0.0223248,0.0211786,1959,904,200.822,-32.0667
742,120,200.593,33.3477,-0.0159006,0.0287141,-0.00888296,0.0304177,-0.0176041,-1.38132,0.0280525,0.0204745,1966,904,200.593,-33.3477
749,120,200.372,34.6039,-0.0183952,0.0352453,-0.0105271,0.0372373,-0.0203873,-1.38378,0.0337404,0.0154246,1973,904,200.372,-34.6039
756,120,200.043,35.8428,-0.0207176,0.0419631,-0.0119004,0.0441464,-0.0229009,-1.38935,0.0393523,0.0239566,1980,904,200.043,-35.8428
763,120,199.745,36.9404,-0.0229251,0.0488758,-0.012986,0.0511523,-0.0252016,-1.39726,0.0449236,0.0471,1987,904,199.745,-36.9404
770,120,199.571,38.0651,0,0,0,0,0,0,0,-1,1994,904,199.571,-38.0651
777,120,77.7629,11.9034,0,0,0,0,0,0,0,-1,2001,904,77.763,-11.9034
784,120,78.0063,12.8853,0,0,0,0,0,0,0,-1,2008,904,78.0063,-12.8852
791,120,78.2561,13.8319,0,0,0,0,0,0,0,-1,2015,904,78.2561,-13.8319
798,120,78.5127,14.8143,0,0,0,0,0,0,0,-1,2022,904,78.5128,-14.8143
805,120,0,0,0,0,0,0,0,0,0,-1,2029,904,0,0
812,120,0,0,0,0,0,0,0,0,0,-1,2036,904,0,0
-700,113,0,0,0,0,0,0,0,0,0,-1,524,911,0,0
-693,113,0,0,0,0,0,0,0,0,0,-1,531,911,0,0
-686,113,0,0,0,0,0,0,0,0,0,-1,538,911,0,0
-679,113,-55.9637,4.78546,0,0,0,0,0,0,0,-1,545,911,-55.9637,-4.78548
-672,113,-52.5881,5.49811,0,0,0,0,0,0,0,-1,552,911,-52.5881,-5.49808
-665,113,-56.8114,7.23682,0,0,0,0,0,0,0,-1,559,911,-56.8114,-7.23679
-658,113,-54.1535,7.58624,0,0,0,0,0,0,0,-1,566,911,-54.1535,-7.58627
-651,113,-53.3762,7.8313,0,0,0,0,0,0,0,-1,573,911,-53.3762,-7.8313
-644,113,-48.5211,7.83691,0,0,0,0,0,0,0,-1,580,911,-48.5211,-7.83694
-637,113,-193.263,37.7568,0,0,0,0,0,0,0,-1,587,911,-193.263,-37.7568
-630,113,-193.323,36.6639,-0.0083256,0.046313,0.0144387,0.0498939,-0.0119065,1.3277,0.0378607,0.0331358,594,911,-193.323,-36.6639
-623,113,-193.404,35.4477,-0.00849995,0.0401872,0.0122545,0.0430977,-0.0114104,1.33762,0.0331955,0.0199703,601,911,-193.404,-35.4477
-616,113,-193.537,34.2879,-0.00848931,0.0339964,0.00986349,0.0361746,-0.0106675,1.35345,0.0283494,0.0154734,608,911,-193.537,-34.2879
-609,113,-193.689,33.1486,-0.00840459,0.0277584,0.00726356,0.0291628,-0.00980898,1.37981,0.023407,0.016123,615,911,-193.689,-33.1486
-602,113,-193.884,31.9043,-0.0083429,0.0214905,0.00444899,0.0221398,-0.00899224,1.42587,0.0185007,0.0232405,622,911,-193.884,-31.9043
-595,113,-194.03,30.7256,-0.00839051,0.0152094,0.00141073,0.0152935,-0.00847454,1.5113,0.0139094,0.0307794,629,911,-194.03,-30.7256
-588,113,-194.11,29.3913,0,0,0,0,0,0,0,-1,636,911,-194.11,-29.3913
-581,113,-194.321,28.0934,0,0,0,0,0,0,0,-1,643,911,-194.321,-28.0934
-574,113,-194.537,26.5476,0,0,0,0,0,0,0,-1,650,911,-194.537,-26.5476
-567,113,-21.8396,0.437378,0,0,0,0,0,0,0,-1,657,911,-21.8396,-0.437351
-560,113,-72.5729,0.38501,0,0,0,0,0,0,0,-1,664,911,-72.5729,-0.385037
-553,113,-72.5334,0.569885,0,0,0,0,0,0,0,-1,671,911,-72.5334,-0.5699
-546,113,-72.5052,0.60083,0,0,0,0,0,0,0,-1,678,911,-72.5052,-0.60083
-539,113,-72.4194,0.534973,0,0,0,0,0,0,0,-1,685,911,-72.4194,-0.534962
-532,113,-72.4289,0.388855,0,0,0,0,0,0,0,-1,692,911,-72.4289,-0.388827
-525,113,-72.5496,0.299011,0,0,0,0,0,0,0,-1,699,911,-72.5496,-0.299028
-518,113,-72.7172,0.401367,0,0,0,0,0,0,0,-1,706,911,-72.7172,-0.401357
-511,113,-72.8064,0.46875,0,0,0,0,0,0,0,-1,713,911,-72.8064,-0.468774
-504,113,0,0,0,0,0,0,0,0,0,-1,720,911,0,0
-497,113,0,0,0,0,0,0,0,0,0,-1,727,911,0,0
-490,113,0,0,0,0,0,0,0,0,0,-1,734,911,0,0
-483,113,0,0,0,0,0,0,0,0,0,-1,741,911,0,0
-476,113,0,0,0,0,0,0,0,0,0,-1,748,911,0,0
-469,113,0,0,0,0,0,0,0,0,0,-1,755,911,0,0
-462,113,0,0,0,0,0,0,0,0,0,-1,762,911,0,0
-455,113,0,0,0,0,0,0,0,0,0,-1,769,911,0,0
-448,113,0,0,0,0,0,0,0,0,0,-1,776,911,0,0
-441,113,0,0,0,0,0,0,0,0,0,-1,783,911,0,0
-434,113,0,0,0,0,0,0,0,0,0,-1,790,911,0,0
-427,113,0,0,0,0,0,0,0,0,0,-1,797,911,0,0
-420,113,0,0,0,0,0,0,0,0,0,-1,804,911,0,0
-413,113,0,0,0,0,0,0,0,0,0,-1,811,911,0,0
-406,113,0,0,0,0,0,0,0,0,0,-1,818,911,0,0
-399,113,0,0,0,0,0,0,0,0,0,-1,825,911,0,0
-392,113,0,0,0,0,0,0,0,0,0,-1,832,911,0,0
-385,113,0,0,0,0,0,0,0,0,0,-1,839,911,0,0
-378,113,0,0,0,0,0,0,0,0,0,-1,846,911,0,0
-371,113,0,0,0,0,0,0,0,0,0,-1,853,911,0,0
-364,113,0,0,0,0,0,0,0,0,0,-1,860,911,0,0
-357,113,0,0,0,0,0,0,0,0,0,-1,867,911,0,0
-350,113,0,0,0,0,0,0,0,0,0,-1,874,911,0,0
-343,113,0,0,0,0,0,0,0,0,0,-1,881,911,0,0
-336,113,0,0,0,0,0,0,0,0,0,-1,888,911,0,0
-329,113,0,0,0,0,0,0,0,0,0,-1,895,911,0,0
-322,113,0,0,0,0,0,0,0,0,0,-1,902,911,0,0
-315,113,0,0,0,0,0,0,0,0,0,-1,909,911,0,0
-308,113,0,0,0,0,0,0,0,0,0,-1,916,911,0,0
-301,113,0,0,0,0,0,0,0,0,0,-1,923,911,0,0
-294,113,0,0,0,0,0,0,0,0,0,-1,930,911,0,0
-287,113,0,0,0,0,0,0,0,0,0,-1,937,911,0,0
-280,113,0,0,0,0,0,0,0,0,0,-1,944,911,0,0
-273,113,0,0,0,0,0,0,0,0,0,-1,951,911,0,0
-266,113,0,0,0,0,0,0,0,0,0,-1,958,911,0,0
-259,113,0,0,0,0,0,0,0,0,0,-1,965,911,0,0
-252,113,0,0,0,0,0,0,0,0,0,-1,972,911,0,0
-245,113,0,0,0,0,0,0,0,0,0,-1,979,911,0,0
-238,113,0,0,0,0,0,0,0,0,0,-1,986,911,0,0
-231,113,0,0,0,0,0,0,0,0,0,-1,993,911,0,0
-224,113,0,0,0,0,0,0,0,0,0,-1,1000,911,0,0
-217,113,0,0,0,0,0,0,0,0,0,-1,1007,911,0,0
-210,113,0,0,0,0,0,0,0,0,0,-1,1014,911,0,0
-203,113,0,0,0,0,0,0,0,0,0,-1,1021,911,0,0
-196,113,0,0,0,0,0,0,0,0,0,-1,1028,911,0,0
-189,113,0,0,0,0,0,0,0,0,0,-1,1035,911,0,0
-182,113,0,0,0,0,0,0,0,0,0,-1,1042,911,0,0
-175,113,0,0,0,0,0,0,0,0,0,-1,1049,911,0,0
-168,113,0,0,0,0,0,0,0,0,0,-1,1056,911,0,0
-161,113,0,0,0,0,0,0,0,0,0,-1,1063,911,0,0
-154,113,0,0,0,0,0,0,0,0,0,-1,1070,911,0,0
-147,113,0,0,0,0,0,0,0,0,0,-1,1077,911,0,0
-140,113,0,0,0,0,0,0,0,0,0,-1,1084,911,0,0
-133,113,0,0,0,0,0,0,0,0,0,-1,1091,911,0,0
-126,113,0,0,0,0,0,0,0,0,0,-1,1098,911,0,0
-119,113,0,0,0,0,0,0,0,0,0,-1,1105,911,0,0
-112,113,0,0,0,0,0,0,0,0,0,-1,1112,911,0,0
-105,113,0,0,0,0,0,0,0,0,0,-1,1119,911,0,0
-98,113,0,0,0,0,0,0,0,0,0,-1,1126,911,0,0
-91,113,0,0,0,0,0,0,0,0,0,-1,1133,911,0,0
-84,113,0,0,0,0,0,0,0,0,0,-1,1140,911,0,0
-77,113,0,0,0,0,0,0,0,0,0,-1,1147,911,0,0
-70,113,0,0,0,0,0,0,0,0,0,-1,1154,911,0,0
-63,113,0,0,0,0,0,0,0,0,0,-1,1161,911,0,0
-56,113,0,0,0,0,0,0,0,0,0,-1,1168,911,0,0
-49,113,0,0,0,0,0,0,0,0,0,-1,1175,911,0,0
-42,113,0,0,0,0,0,0,0,0,0,-1,1182,911,0,0
-35,113,0,0,0,0,0,0,0,0,0,-1,1189,911,0,0
-28,113,0,0,0,0,0,0,0,0,0,-1,1196,911,0,0
-21,113,0,0,0,0,0,0,0,0,0,-1,1203,911,0,0
-14,113,0,0,0,0,0,0,0,0,0,-1,1210,911,0,0
-7,113,0,0,0,0,0,0,0,0,0,-1,1217,911,0,0
0,113,0,0,0,0,0,0,0,0,0,-1,1224,911,0,0
7,113,0,0,0,0,0,0,0,0,0,-1,1231,911,0,0
14,113,0,0,0,0,0,0,0,0,0,-1,1238,911,0,0
21,113,0,0,0,0,0,0,0,0,0,-1,1245,911,0,0
28,113,0,0,0,0,0,0,0,0,0,-1,1252,911,0,0
35,113,0,0,0,0,0,0,0,0,0,-1,1259,911,0,0
42,113,0,0,0,0,0,0,0,0,0,-1,1266,911,0,0
49,113,0,0,0,0,0,0,0,0,0,-1,1273,911,0,0
56,113,0,0,0,0,0,0,0,0,0,-1,1280,911,0,0
63,113,0,0,0,0,0,0,0,0,0,-1,1287,911,0,0
70,113,0,0,0,0,0,0,0,0,0,-1,1294,911,0,0
77,113,0,0,0,0,0,0,0,0,0,-1,1301,911,0,0
84,113,0,0,0,0,0,0,0,0,0,-1,1308,911,0,0
91,113,0,0,0,0,0,0,0,0,0,-1,1315,911,0,0
98,113,0,0,0,0,0,0,0,0,0,-1,1322,911,0,0
105,113,0,0,0,0,0,0,0,0,0,-1,1329,911,0,0
112,113,0,0,0,0,0,0,0,0,0,-1,1336,911,0,0
119,113,0,0,0,0,0,0,0,0,0,-1,1343,911,0,0
126,113,0,0,0,0,0,0,0,0,0,-1,1350,911,0,0
133,113,0,0,0,0,0,0,0,0,0,-1,1357,911,0,0
140,113,0,0,0,0,0,0,0,0,0,-1,1364,911,0,0
147,113,0,0,0,0,0,0,0,0,0,-1,1371,911,0,0
154,113,0,0,0,0,0,0,0,0,0,-1,1378,911,0,0
161,113,0,0,0,0,0,0,0,0,0,-1,1385,911,0,0
168,113,0,0,0,0,0,0,0,0,0,-1,1392,911,0,0
175,113,0,0,0,0,0,0,0,0,0,-1,1399,911,0,0
182,113,0,0,0,0,0,0,0,0,0,-1,1406,911,0,0
189,113,0,0,0,0,0,0,0,0,0,-1,1413,911,0,0
196,113,0,0,0,0,0,0,0,0,0,-1,1420,911,0,0
203,113,0,0,0,0,0,0,0,0,0,-1,1427,911,0,0
210,113,0,0,0,0,0,0,0,0,0,-1,1434,911,0,0
217,113,0,0,0,0,0,0,0,0,0,-1,1441,911,0,0
224,113,0,0,0,0,0,0,0,0,0,-1,1448,911,0,0
231,113,0,0,0,0,0,0,0,0,0,-1,1455,911,0,0
238,113,0,0,0,0,0,0,0,0,0,-1,1462,911,0,0
245,113,0,0,0,0,0,0,0,0,0,-1,1469,911,0,0
252,113,0,0,0,0,0,0,0,0,0,-1,1476,911,0,0
259,113,0,0,0,0,0,0,0,0,0,-1,1483,911,0,0
266,113,0,0,0,0,0,0,0,0,0,-1,1490,911,0,0
273,113,0,0,0,0,0,0,0,0,0,-1,1497,911,0,0
280,113,0,0,0,0,0,0,0,0,0,-1,1504,911,0,0
287,113,0,0,0,0,0,0,0,0,0,-1,1511,911,0,0
294,113,0,0,0,0,0,0,0,0,0,-1,1518,911,0,0
301,113,0,0,0,0,0,0,0,0,0,-1,1525,911,0,0
308,113,0,0,0,0,0,0,0,0,0,-1,1532,911,0,0
315,113,0,0,0,0,0,0,0,0,0,-1,1539,911,0,0
322,113,0,0,0,0,0,0,0,0,0,-1,1546,911,0,0
329,113,0,0,0,0,0,0,0,0,0,-1,1553,911,0,0
336,113,0,0,0,0,0,0,0,0,0,-1,1560,911,0,0
343,113,0,0,0,0,0,0,0,0,0,-1,1567,911,0,0
350,113,0,0,0,0,0,0,0,0,0,-1,1574,911,0,0
357,113,0,0,0,0,0,0,0,0,0,-1,1581,911,0,0
364,113,0,0,0,0,0,0,0,0,0,-1,1588,911,0,0
371,113,0,0,0,0,0,0,0,0,0,-1,1595,911,0,0
378,113,0,0,0,0,0,0,0,0,0,-1,1602,911,0,0
385,113,0,0,0,0,0,0,0,0,0,-1,1609,911,0,0
392,113,0,0,0,0,0,0,0,0,0,-1,1616,911,0,0
399,113,0,0,0,0,0,0,0,0,0,-1,1623,911,0,0
406,113,0,0,0,0,0,0,0,0,0,-1,1630,911,0,0
413,113,0,0,0,0,0,0,0,0,0,-1,1637,911,0,0
420,113,0,0,0,0,0,0,0,0,0,-1,1644,911,0,0
427,113,0,0,0,0,0,0,0,0,0,-1,1651,911,0,0
434,113,0,0,0,0,0,0,0,0,0,-1,1658,911,0,0
441,113,0,0,0,0,0,0,0,0,0,-1,1665,911,0,0
448,113,0,0,0,0,0,0,0,0,0,-1,1672,911,0,0
455,113,0,0,0,0,0,0,0,0,0,-1,1679,911,0,0
462,113,0,0,0,0,0,0,0,0,0,-1,1686,911,0,0
469,113,0,0,0,0,0,0,0,0,0,-1,1693,911,0,0
476,113,0,0,0,0,0,0,0,0,0,-1,1700,911,0,0
483,113,0,0,0,0,0,0,0,0,0,-1,1707,911,0,0
490,113,0,0,0,0,0,0,0,0,0,-1,1714,911,0,0
497,113,0,0,0,0,0,0,0,0,0,-1,1721,911,0,0
504,113,0,0,0,0,0,0,0,0,0,-1,1728,911,0,0
511,113,0,0,0,0,0,0,0,0,0,-1,1735,911,0,0
518,113,0,0,0,0,0,0,0,0,0,-1,1742,911,0,0
525,113,0,0,0,0,0,0,0,0,0,-1,1749,911,0,0
532,113,0,0,0,0,0,0,0,0,0,-1,1756,911,0,0
539,113,0,0,0,0,0,0,0,0,0,-1,1763,911,0,0
546,113,0,0,0,0,0,0,0,0,0,-1,1770,911,0,0
553,113,0,0,0,0,0,0,0,0,0,-1,1777,911,0,0
560,113,0,0,0,0,0,0,0,0,0,-1,1784,911,0,0
567,113,0,0,0,0,0,0,0,0,0,-1,1791,911,0,0
574,113,0,0,0,0,0,0,0,0,0,-1,1798,911,0,0
581,113,0,0,0,0,0,0,0,0,0,-1,1805,911,0,0
588,113,0,0,0,0,0,0,0,0,0,-1,1812,911,0,0
595,113,0,0,0,0,0,0,0,0,0,-1,1819,911,0,0
602,113,0,0,0,0,0,0,0,0,0,-1,1826,911,0,0
609,113,0,0,0,0,0,0,0,0,0,-1,1833,911,0,0
616,113,0,0,0,0,0,0,0,0,0,-1,1840,911,0,0
623,113,0,0,0,0,0,0,0,0,0,-1,1847,911,0,0
630,113,215.302,8.60889,0,0,0,0,0,0,0,-1,1854,911,215.302,-8.60887
637,113,215.325,8.59149,0,0,0,0,0,0,0,-1,1861,911,215.325,-8.59147
644,113,215.261,8.57196,0,0,0,0,0,0,0,-1,1868,911,215.261,-8.57196
651,113,215.091,8.62927,0,0,0,0,0,0,0,-1,1875,911,215.091,-8.62929
658,113,215.093,8.58881,0,0,0,0,0,0,0,-1,1882,911,215.093,-8.58878
665,113,215.118,8.48029,0,0,0,0,0,0,0,-1,1889,911,215.118,-8.48026
672,113,215.117,8.57214,0,0,0,0,0,0,0,-1,1896,911,215.117,-8.57216
679,113,215.142,8.58929,0,0,0,0,0,0,0,-1,1903,911,215.142,-8.5893
686,113,215.224,8.57831,0,0,0,0,0,0,0,-1,1910,911,215.224,-8.57831
693,113,215.029,8.66553,0,0,0,0,0,0,0,-1,1917,911,215.029,-8.66554
700,113,43.897,2.79669,0,0,0,0,0,0,0,-1,1924,911,43.897,-2.79671
707,113,202.813,26.8403,0,0,0,0,0,0,0,-1,1931,911,202.814,-26.8403
714,113,202.781,28.2488,-0.00530544,0.00237953,0.000806335,0.00246322,-0.00538913,1.46737,0.00463728,0.0284746,1938,911,202.781,-28.2488
721,113,202.578,29.5712,-0.0078271,0.00818131,-0.00196112,0.00841806,-0.00806385,-1.45066,0.00951656,0.0314801,1945,911,202.578,-29.5712
728,113,202.302,30.8284,-0.0103507,0.0142246,-0.00412231,0.0148976,-0.0110237,-1.40895,0.0150213,0.0284167,1952,911,202.302,-30.8284
735,113,202.183,32.0464,-0.0129093,0.0204435,-0.00613923,0.0215376,-0.0140035,-1.39443,0.0206728,0.0235474,1959,911,202.183,-32.0464
742,113,201.995,33.2601,-0.0153922,0.0267471,-0.0079663,0.0282029,-0.0168479,-1.39006,0.026284,0.0176207,1966,911,201.995,-33.2601
749,113,201.817,34.5075,-0.0177717,0.0331463,-0.00958456,0.0348907,-0.0195161,-1.39077,0.0318271,0.0152362,1973,911,201.817,-34.5075
756,113,201.474,35.7472,-0.0199957,0.0395804,-0.0109854,0.0415415,-0.0219568,-1.39414,0.0372375,0.0251358,1980,911,201.474,-35.7472
763,113,201.063,36.9998,0,0,0,0,0,0,0,-1,1987,911,201.063,-36.9997
770,113,198.759,38.5779,0,0,0,0,0,0,0,-1,1994,911,198.759,-38.5779
777,113,58.1719,9.65338,0,0,0,0,0,0,0,-1,2001,911,58.172,-9.6534
784,113,79.3757,13.6559,0,0,0,0,0,0,0,-1,2008,911,79.3756,-13.6559
791,113,74.5583,10.0654,0,0,0,0,0,0,0,-1,2015,911,74.5583,-10.0654
798,113,74.8208,11.6051,0,0,0,0,0,0,0,-1,2022,911,74.8207,-11.6051
805,113,0,0,0,0,0,0,0,0,0,-1,2029,911,0,0
812,113,0,0,0,0,0,0,0,0,0,-1,2036,911,0,0
-700,106,0,0,0,0,0,0,0,0,0,-1,524,918,0,0
-693,106,0,0,0,0,0,0,0,0,0,-1,531,918,0,0
-686,106,0,0,0,0,0,0,0,0,0,-1,538,918,0,0
-679,106,-60.4137,10.3801,0,0,0,0,0,0,0,-1,545,918,-60.4137,-10.3802
-672,106,-59.9378,11.2709,0,0,0,0,0,0,0,-1,552,918,-59.9378,-11.271
-665,106,-53.5263,9.70886,0,0,0,0,0,0,0,-1,559,918,-53.5263,-9.70888
-658,106,-53.7712,10.2163,0,0,0,0,0,0,0,-1,566,918,-53.7712,-10.2163
-651,106,-52.8008,8.01733,0,0,0,0,0,0,0,-1,573,918,-52.8008,-8.01734
-644,106,-64.0154,12.8989,0,0,0,0,0,0,0,-1,580,918,-64.0155,-12.8989
-637,106,-194.567,37.3575,0,0,0,0,0,0,0,-1,587,918,-194.567,-37.3576
-630,106,-194.637,36.3494,-0.00730795,0.0451471,0.0137825,0.0485479,-0.0107088,1.32888,0.0364629,0.0256269,594,918,-194.637,-36.3494
-623,106,-194.829,35.2586,-0.00774397,0.0388217,0.011616,0.0415585,-0.0104808,1.33941,0.0317806,0.0258362,601,918,-194.829,-35.2586
-616,106,-194.978,34.1491,-0.00778157,0.0324351,0.00924243,0.0344575,-0.00980393,1.35538,0.0268432,0.0249275,608,918,-194.978,-34.1491
-609,106,-195.065,33.0844,-0.00755938,0.0260127,0.00666687,0.0272882,-0.00883486,1.38177,0.0217439,0.0185639,615,918,-195.065,-33.0844
-602,106,-195.179,31.851,-0.00719926,0.0195773,0.00388877,0.0201307,-0.00775259,1.42946,0.0166188,0.0233605,622,918,-195.179,-31.851
-595,106,-195.442,30.6485,-0.00680922,0.0131499,0.000902449,0.0131907,-0.00684994,1.5257,0.0117619,0.030148,629,918,-195.442,-30.6485
-588,106,-195.675,29.4257,0,0,0,0,0,0,0,-1,636,918,-195.675,-29.4257
-581,106,-195.585,28.0383,0,0,0,0,0,0,0,-1,643,918,-195.585,-28.0383
-574,106,-195.951,26.757,0,0,0,0,0,0,0,-1,650,918,-195.951,-26.757
-567,106,-41.3706,0.420776,0,0,0,0,0,0,0,-1,657,918,-41.3706,-0.420794
-560,106,-72.5184,0.346619,0,0,0,0,0,0,0,-1,664,918,-72.5184,-0.346624
-553,106,-72.5411,0.640625,0,0,0,0,0,0,0,-1,671,918,-72.5411,-0.640601
-546,106,-72.6151,0.578125,0,0,0,0,0,0,0,-1,678,918,-72.6151,-0.578127
-539,106,-72.566,0.447876,0,0,0,0,0,0,0,-1,685,918,-72.566,-0.4479
-532,106,-72.3527,0.214966,0,0,0,0,0,0,0,-1,692,918,-72.3527,-0.214992
-525,106,-72.5553,0.141418,0,0,0,0,0,0,0,-1,699,918,-72.5553,-0.141448
-518,106,-72.6719,0.387268,0,0,0,0,0,0,0,-1,706,918,-72.672,-0.387285
-511,106,0,0,0,0,0,0,0,0,0,-1,713,918,0,0
-504,106,0,0,0,0,0,0,0,0,0,-1,720,918,0,0
-497,106,0,0,0,0,0,0,0,0,0,-1,727,918,0,0
-490,106,0,0,0,0,0,0,0,0,0,-1,734,918,0,0
-483,106,0,0,0,0,0,0,0,0,0,-1,741,918,0,0
-476,106,0,0,0,0,0,0,0,0,0,-1,748,918,0,0
-469,106,0,0,0,0,0,0,0,0,0,-1,755,918,0,0
-462,106,0,0,0,0,0,0,0,0,0,-1,762,918,0,0
-455,106,0,0,0,0,0,0,0,0,0,-1,769,918,0,0
-448,106,0,0,0,0,0,0,0,0,0,-1,776,918,0,0
-441,106,0,0,0,0,0,0,0,0,0,-1,783,918,0,0
-434,106,0,0,0,0,0,0,0,0,0,-1,790,918,0,0
-427,106,0,0,0,0,0,0,0,0,0,-1,797,918,0,0
-420,106,0,0,0,0,0,0,0,0,0,-1,804,918,0,0
-413,106,0,0,0,0,0,0,0,0,0,-1,811,918,0,0
-406,106,0,0,0,0,0,0,0,0,0,-1,818,918,0,0
-399,106,0,0,0,0,0,0,0,0,0,-1,825,918,0,0
-392,106,0,0,0,0,0,0,0,0,0,-1,832,918,0,0
-385,106,0,0,0,0,0,0,0,0,0,-1,839,918,0,0
-378,106,0,0,0,0,0,0,0,0,0,-1,846,918,0,0
-371,106,0,0,0,0,0,0,0,0,0,-1,853,918,0,0
-364,106,0,0,0,0,0,0,0,0,0,-1,860,918,0,0
-357,106,0,0,0,0,0,0,0,0,0,-1,867,918,0,0
-350,106,0,0,0,0,0,0,0,0,0,-1,874,918,0,0
-343,106,0,0,0,0,0,0,0,0,0,-1,881,918,0,0
-336,106,0,0,0,0,0,0,0,0,0,-1,888,918,0,0
-329,106,0,0,0,0,0,0,0,0,0,-1,895,918,0,0
-322,106,0,0,0,0,0,0,0,0,0,-1,902,918,0,0
-315,106,0,0,0,0,0,0,0,0,0,-1,909,918,0,0
-308,106,0,0,0,0,0,0,0,0,0,-1,916,918,0,0
-301,106,0,0,0,0,0,0,0,0,0,-1,923,918,0,0
-294,106,0,0,0,0,0,0,0,0,0,-1,930,918,0,0
-287,106,0,0,0,0,0,0,0,0,0,-1,937,918,0,0
-280,106,0,0,0,0,0,0,0,0,0,-1,944,918,0,0
-273,106,0,0,0,0,0,0,0,0,0,-1,951,918,0,0
-266,106,0,0,0,0,0,0,0,0,0,-1,958,918,0,0
-259,106,0,0,0,0,0,0,0,0,0,-1,965,918,0,0
-252,106,0,0,0,0,0,0,0,0,0,-1,972,918,0,0
-245,106,0,0,0,0,0,0,0,0,0,-1,979,918,0,0
-238,106,0,0,0,0,0,0,0,0,0,-1,986,918,0,0
-231,106,0,0,0,0,0,0,0,0,0,-1,993,918,0,0
-224,106,0,0,0,0,0,0,0,0,0,-1,1000,918,0,0
-217,106,0,0,0,0,0,0,0,0,0,-1,1007,918,0,0
-210,106,0,0,0,0,0,0,0,0,0,-1,1014,918,0,0
-203,106,0,0,0,0,0,0,0,0,0,-1,1021,918,0,0
-196,106,0,0,0,0,0,0,0,0,0,-1,1028,918,0,0
-189,106,0,0,0,0,0,0,0,0,0,-1,1035,918,0,0
-182,106,0,0,0,0,0,0,0,0,0,-1,1042,918,0,0
-175,106,0,0,0,0,0,0,0,0,0,-1,1049,918,0,0
-168,106,0,0,0,0,0,0,0,0,0,-1,1056,918,0,0
-161,106,0,0,0,0,0,0,0,0,0,-1,1063,918,0,0
-154,106,0,0,0,0,0,0,0,0,0,-1,1070,918,0,0
-147,106,0,0,0,0,0,0,0,0,0,-1,1077,918,0,0
-140,106,0,0,0,0,0,0,0,0,0,-1,1084,918,0,0
-133,106,0,0,0,0,0,0,0,0,0,-1,1091,918,0,0
-126,106,0,0,0,0,0,0,0,0,0,-1,1098,918,0,0
-119,106,0,0,0,0,0,0,0,0,0,-1,1105,918,0,0
-112,106,0,0,0,0,0,0,0,0,0,-1,1112,918,0,0
-105,106,0,0,0,0,0,0,0,0,0,-1,1119,918,0,0
-98,106,0,0,0,0,0,0,0,0,0,-1,1126,918,0,0
-91,106,0,0,0,0,0,0,0,0,0,-1,1133,918,0,0
-84,106,0,0,0,0,0,0,0,0,0,-1,1140,918,0,0
-77,106,0,0,0,0,0,0,0,0,0,-1,1147,918,0,0
-70,106,0,0,0,0,0,0,0,0,0,-1,1154,918,0,0
-63,106,0,0,0,0,0,0,0,0,0,-1,1161,918,0,0
-56,106,0,0,0,0,0,0,0,0,0,-1,1168,918,0,0
-49,106,0,0,0,0,0,0,0,0,0,-1,1175,918,0,0
-42,106,0,0,0,0,0,0,0,0,0,-1,1182,918,0,0
-35,106,0,0,0,0,0,0,0,0,0,-1,1189,918,0,0
-28,106,0,0,0,0,0,0,0,0,0,-1,1196,918,0,0
-21,106,0,0,0,0,0,0,0,0,0,-1,1203,918,0,0
-14,106,0,0,0,0,0,0,0,0,0,-1,1210,918,0,0
-7,106,0,0,0,0,0,0,0,0,0,-1,1217,918,0,0
0,106,0,0,0,0,0,0,0,0,0,-1,1224,918,0,0
7,106,0,0,0,0,0,0,0,0,0,-1,1231,918,0,0
14,106,0,0,0,0,0,0,0,0,0,-1,1238,918,0,0
21,106,0,0,0,0,0,0,0,0,0,-1,1245,918,0,0
28,106,0,0,0,0,0,0,0,0,0,-1,1252,918,0,0
35,106,0,0,0,0,0,0,0,0,0,-1,1259,918,0,0
42,106,0,0,0,0,0,0,0,0,0,-1,1266,918,0,0
49,106,0,0,0,0,0,0,0,0,0,-1,1273,918,0,0
56,106,0,0,0,0,0,0,0,0,0,-1,1280,918,0,0
63,106,0,0,0,0,0,0,0,0,0,-1,1287,918,0,0
70,106,0,0,0,0,0,0,0,0,0,-1,1294,918,0,0
77,106,0,0,0,0,0,0,0,0,0,-1,1301,918,0,0
84,106,0,0,0,0,0,0,0,0,0,-1,1308,918,0,0
91,106,0,0,0,0,0,0,0,0,0,-1,1315,918,0,0
98,106,0,0,0,0,0,0,0,0,0,-1,1322,918,0,0
105,106,0,0,0,0,0,0,0,0,0,-1,1329,918,0,0
112,106,0,0,0,0,0,0,0,0,0,-1,1336,918,0,0
119,106,0,0,0,0,0,0,0,0,0,-1,1343,918,0,0
126,106,0,0,0,0,0,0,0,0,0,-1,1350,918,0,0
133,106,0,0,0,0,0,0,0,0,0,-1,1357,918,0,0
140,106,0,0,0,0,0,0,0,0,0,-1,1364,918,0,0
147,106,0,0,0,0,0,0,0,0,0,-1,1371,918,0,0
154,106,0,0,0,0,0,0,0,0,0,-1,1378,918,0,0
161,106,0,0,0,0,0,0,0,0,0,-1,1385,918,0,0
168,106,0,0,0,0,0,0,0,0,0,-1,1392,918,0,0
175,106,0,0,0,0,0,0,0,0,0,-1,1399,918,0,0
182,106,0,0,0,0,0,0,0,0,0,-1,1406,918,0,0
189,106,0,0,0,0,0,0,0,0,0,-1,1413,918,0,0
196,106,0,0,0,0,0,0,0,0,0,-1,1420,918,0,0
203,106,0,0,0,0,0,0,0,0,0,-1,1427,918,0,0
210,106,0,0,0,0,0,0,0,0,0,-1,1434,918,0,0
217,106,0,0,0,0,0,0,0,0,0,-1,1441,918,0,0
224,106,0,0,0,0,0,0,0,0,0,-1,1448,918,0,0
231,106,0,0,0,0,0,0,0,0,0,-1,1455,918,0,0
238,106,0,0,0,0,0,0,0,0,0,-1,1462,918,0,0
245,106,0,0,0,0,0,0,0,0,0,-1,1469,918,0,0
252,106,0,0,0,0,0,0,0,0,0,-1,1476,918,0,0
259,106,0,0,0,0,0,0,0,0,0,-1,1483,918,0,0
266,106,0,0,0,0,0,0,0,0,0,-1,1490,918,0,0
273,106,0,0,0,0,0,0,0,0,0,-1,1497,918,0,0
280,106,0,0,0,0,0,0,0,0,0,-1,1504,918,0,0
287,106,0,0,0,0,0,0,0,0,0,-1,1511,918,0,0
294,106,0,0,0,0,0,0,0,0,0,-1,1518,918,0,0
301,106,0,0,0,0,0,0,0,0,0,-1,1525,918,0,0
308,106,0,0,0,0,0,0,0,0,0,-1,1532,918,0,0
315,106,0,0,0,0,0,0,0,0,0,-1,1539,918,0,0
322,106,0,0,0,0,0,0,0,0,0,-1,1546,918,0,0
329,106,0,0,0,0,0,0,0,0,0,-1,1553,918,0,0
336,106,0,0,0,0,0,0,0,0,0,-1,1560,918,0,0
343,106,0,0,0,0,0,0,0,0,0,-1,1567,918,0,0
350,106,0,0,0,0,0,0,0,0,0,-1,1574,918,0,0
357,106,0,0,0,0,0,0,0,0,0,-1,1581,918,0,0
364,106,0,0,0,0,0,0,0,0,0,-1,1588,918,0,0
371,106,0,0,0,0,0,0,0,0,0,-1,1595,918,0,0
378,106,0,0,0,0,0,0,0,0,0,-1,1602,918,0,0
385,106,0,0,0,0,0,0,0,0,0,-1,1609,918,0,0
392,106,0,0,0,0,0,0,0,0,0,-1,1616,918,0,0
399,106,0,0,0,0,0,0,0,0,0,-1,1623,918,0,0
406,106,0,0,0,0,0,0,0,0,0,-1,1630,918,0,0
413,106,0,0,0,0,0,0,0,0,0,-1,1637,918,0,0
420,106,0,0,0,0,0,0,0,0,0,-1,1644,918,0,0
427,106,0,0,0,0,0,0,0,0,0,-1,1651,918,0,0
434,106,0,0,0,0,0,0,0,0,0,-1,1658,918,0,0
441,106,0,0,0,0,0,0,0,0,0,-1,1665,918,0,0
448,106,0,0,0,0,0,0,0,0,0,-1,1672,918,0,0
455,106,0,0,0,0,0,0,0,0,0,-1,1679,918,0,0
462,106,0,0,0,0,0,0,0,0,0,-1,1686,918,0,0
469,106,0,0,0,0,0,0,0,0,0,-1,1693,918,0,0
476,106,0,0,0,0,0,0,0,0,0,-1,1700,918,0,0
483,106,0,0,0,0,0,0,0,0,0,-1,1707,918,0,0
490,106,0,0,0,0,0,0,0,0,0,-1,1714,918,0,0
497,106,0,0,0,0,0,0,0,0,0,-1,1721,918,0,0
504,106,0,0,0,0,0,0,0,0,0,-1,1728,918,0,0
511,106,0,0,0,0,0,0,0,0,0,-1,1735,918,0,0
518,106,0,0,0,0,0,0,0,0,0,-1,1742,918,0,0
525,106,0,0,0,0,0,0,0,0,0,-1,1749,918,0,0
532,106,0,0,0,0,0,0,0,0,0,-1,1756,918,0,0
539,106,0,0,0,0,0,0,0,0,0,-1,1763,918,0,0
546,106,0,0,0,0,0,0,0,0,0,-1,1770,918,0,0
553,106,0,0,0,0,0,0,0,0,0,-1,1777,918,0,0
560,106,0,0,0,0,0,0,0,0,0,-1,1784,918,0,0
567,106,0,0,0,0,0,0,0,0,0,-1,1791,918,0,0
574,106,0,0,0,0,0,0,0,0,0,-1,1798,918,0,0
581,106,0,0,0,0,0,0,0,0,0,-1,1805,918,0,0
588,106,0,0,0,0,0,0,0,0,0,-1,1812,918,0,0
595,106,0,0,0,0,0,0,0,0,0,-1,1819,918,0,0
602,106,0,0,0,0,0,0,0,0,0,-1,1826,918,0,0
609,106,0,0,0,0,0,0,0,0,0,-1,1833,918,0,0
616,106,0,0,0,0,0,0,0,0,0,-1,1840,918,0,0
623,106,0,0,0,0,0,0,0,0,0,-1,1847,918,0,0
630,106,215.095,8.98303,0,0,0,0,0,0,0,-1,1854,918,215.095,-8.98302
637,106,215.23,8.90326,0,0,0,0,0,0,0,-1,1861,918,215.23,-8.90325
644,106,215.223,8.7016,0,0,0,0,0,0,0,-1,1868,918,215.223,-8.7016
651,106,215.152,8.65411,0,0,0,0,0,0,0,-1,1875,918,215.152,-8.65409
658,106,215.15,8.5412,0,0,0,0,0,0,0,-1,1882,918,215.15,-8.54118
665,106,215.188,8.37061,0,0,0,0,0,0,0,-1,1889,918,215.188,-8.37059
672,106,215.116,8.63239,0,0,0,0,0,0,0,-1,1896,918,215.116,-8.63238
679,106,215.169,8.78766,0,0,0,0,0,0,0,-1,1903,918,215.169,-8.78765
686,106,215.351,8.67267,0,0,0,0,0,0,0,-1,1910,918,215.351,-8.67267
693,106,215.144,8.64612,0,0,0,0,0,0,0,-1,1917,918,215.144,-8.6461
700,106,214.792,8.57245,0,0,0,0,0,0,0,-1,1924,918,214.791,-8.57244
707,106,204.257,26.806,0,0,0,0,0,0,0,-1,1931,918,204.257,-26.806
714,106,204.063,28.2695,-0.00414498,-2.84297e-05,0.00151494,0.00046898,-0.00464239,1.25355,0.00326251,0.0322418,1938,918,204.063,-28.2695
721,106,203.886,29.6957,-0.00693409,0.00602165,-0.00134932,0.00616069,-0.00707312,-1.46812,0.0076466,0.0376347,1945,918,203.887,-29.6957
728,106,203.735,30.9367,-0.0096207,0.0122907,-0.00338151,0.0128007,-0.0101307,-1.42111,0.0132693,0.0324204,1952,918,203.735,-30.9367
735,106,203.596,32.0672,-0.0123028,0.0186701,-0.00529651,0.0195508,-0.0131834,-1.40603,0.0190179,0.0236671,1959,918,203.596,-32.0672
742,106,203.369,33.2266,-0.0149819,0.0249401,-0.00691605,0.0261043,-0.0161461,-1.40403,0.0246181,0.0187415,1966,918,203.369,-33.2266
749,106,203.165,34.3907,-0.0176666,0.0311857,-0.00824913,0.032541,-0.0190219,-1.40795,0.030109,0.0168453,1973,918,203.165,-34.3907
756,106,202.906,35.5358,-0.020346,0.0373127,-0.00928754,0.0387718,-0.021805,-1.41497,0.0354284,0.0212369,1980,918,202.907,-35.5358
763,106,202.603,36.8118,-0.0230513,0.043213,-0.00999606,0.0446881,-0.0245264,-1.42429,0.0405222,0.0410439,1987,918,202.603,-36.8118
770,106,202.367,38.1358,0,0,0,0,0,0,0,-1,1994,918,202.367,-38.1358
777,106,88.3054,13.259,0,0,0,0,0,0,0,-1,2001,918,88.3054,-13.259
784,106,89.1936,14.7273,0,0,0,0,0,0,0,-1,2008,918,89.1936,-14.7273
791,106,83.1514,12.6997,0,0,0,0,0,0,0,-1,2015,918,83.1513,-12.6997
798,106,85.3481,12.517,0,0,0,0,0,0,0,-1,2022,918,85.3481,-12.517
805,106,0,0,0,0,0,0,0,0,0,-1,2029,918,0,0
812,106,0,0,0,0,0,0,0,0,0,-1,2036,918,0,0
-700,99,0,0,0,0,0,0,0,0,0,-1,524,925,0,0
-693,99,0,0,0,0,0,0,0,0,0,-1,531,925,0,0
-686,99,0,0,0,0,0,0,0,0,0,-1,538,925,0,0
-679,99,-60.0285,9.58405,0,0,0,0,0,0,0,-1,545,925,-60.0285,-9.58402
-672,99,-59.5222,10.1797,0,0,0,0,0,0,0,-1,552,925,-59.5222,-10.1797
-665,99,-58.8331,10.9661,0,0,0,0,0,0,0,-1,559,925,-58.8331,-10.9661
-658,99,-58.6227,11.3068,0,0,0,0,0,0,0,-1,566,925,-58.6227,-11.3068
-651,99,-58.2084,11.0227,0,0,0,0,0,0,0,-1,573,925,-58.2084,-11.0227
-644,99,-92.0863,19.8066,0,0,0,0,0,0,0,-1,580,925,-92.0863,-19.8066
-637,99,-195.805,37.3162,0,0,0,0,0,0,0,-1,587,925,-195.805,-37.3162
-630,99,-195.909,36.3394,-0.00611023,0.0439855,0.0130001,0.0471582,-0.00928289,1.33143,0.0349465,0.0330815,594,925,-195.909,-36.3394
-623,99,-196.153,35.3214,-0.00665927,0.0374878,0.0108695,0.0400188,-0.00919034,1.34201,0.0302123,0.0184881,601,925,-196.153,-35.3214
-616,99,-196.246,34.1331,-0.00670214,0.0309468,0.00852066,0.0327854,-0.00854074,1.35827,0.0251911,0.0211794,608,925,-196.246,-34.1331
-609,99,-196.342,33.0416,-0.00637886,0.0243896,0.00596386,0.0255051,-0.00749439,1.38588,0.0199758,0.0158257,615,925,-196.342,-33.0416
-602,99,-196.423,31.9121,-0.00581434,0.0178405,0.00320224,0.0182663,-0.00624018,1.43859,0.0147058,0.0198837,622,925,-196.423,-31.9121
-595,99,-196.661,30.7189,-0.00512084,0.0113217,0.000232671,0.011325,-0.00512413,1.55665,0.00971925,0.0281432,629,925,-196.661,-30.7189
-588,99,-196.841,29.5042,-0.00367897,0.00473661,-0.00321701,0.00582549,-0.00476784,-1.24443,0.00612621,0.0305706,636,925,-196.841,-29.5041
-581,99,-197.158,28.1308,0,0,0,0,0,0,0,-1,643,925,-197.158,-28.1308
-574,99,-197.689,26.7504,0,0,0,0,0,0,0,-1,650,925,-197.689,-26.7504
-567,99,-50.5977,0.659485,0,0,0,0,0,0,0,-1,657,925,-50.5977,-0.659461
-560,99,-72.4919,0.276306,0,0,0,0,0,0,0,-1,664,925,-72.4919,-0.276328
-553,99,-72.5533,0.815918,0,0,0,0,0,0,0,-1,671,925,-72.5533,-0.815947
-546,99,-72.6324,0.722656,0,0,0,0,0,0,0,-1,678,925,-72.6324,-0.722639
-539,99,-72.7263,0.40863,0,0,0,0,0,0,0,-1,685,925,-72.7263,-0.408647
-532,99,-72.3987,0.165527,0,0,0,0,0,0,0,-1,692,925,-72.3988,-0.165522
-525,99,-72.4885,0.298767,0,0,0,0,0,0,0,-1,699,925,-72.4885,-0.29878
-518,99,-72.6053,0.533752,0,0,0,0,0,0,0,-1,706,925,-72.6053,-0.533766
-511,99,0,0,0,0,0,0,0,0,0,-1,713,925,0,0
-504,99,0,0,0,0,0,0,0,0,0,-1,720,925,0,0
-497,99,0,0,0,0,0,0,0,0,0,-1,727,925,0,0
-490,99,0,0,0,0,0,0,0,0,0,-1,734,925,0,0
-483,99,0,0,0,0,0,0,0,0,0,-1,741,925,0,0
-476,99,0,0,0,0,0,0,0,0,0,-1,748,925,0,0
-469,99,0,0,0,0,0,0,0,0,0,-1,755,925,0,0
-462,99,0,0,0,0,0,0,0,0,0,-1,762,925,0,0
-455,99,0,0,0,0,0,0,0,0,0,-1,769,925,0,0
-448,99,0,0,0,0,0,0,0,0,0,-1,776,925,0,0
-441,99,0,0,0,0,0,0,0,0,0,-1,783,925,0,0
-434,99,0,0,0,0,0,0,0,0,0,-1,790,925,0,0
-427,99,0,0,0,0,0,0,0,0,0,-1,797,925,0,0
-420,99,0,0,0,0,0,0,0,0,0,-1,804,925,0,0
-413,99,0,0,0,0,0,0,0,0,0,-1,811,925,0,0
-406,99,0,0,0,0,0,0,0,0,0,-1,818,925,0,0
-399,99,0,0,0,0,0,0,0,0,0,-1,825,925,0,0
-392,99,0,0,0,0,0,0,0,0,0,-1,832,925,0,0
-385,99,0,0,0,0,0,0,0,0,0,-1,839,925,0,0
-378,99,0,0,0,0,0,0,0,0,0,-1,846,925,0,0
-371,99,0,0,0,0,0,0,0,0,0,-1,853,925,0,0
-364,99,0,0,0,0,0,0,0,0,0,-1,860,925,0,0
-357,99,0,0,0,0,0,0,0,0,0,-1,867,925,0,0
-350,99,0,0,0,0,0,0,0,0,0,-1,874,925,0,0
-343,99,0,0,0,0,0,0,0,0,0,-1,881,925,0,0
-336,99,0,0,0,0,0,0,0,0,0,-1,888,925,0,0
-329,99,0,0,0,0,0,0,0,0,0,-1,895,925,0,0
-322,99,0,0,0,0,0,0,0,0,0,-1,902,925,0,0
-315,99,0,0,0,0,0,0,0,0,0,-1,909,925,0,0
-308,99,0,0,0,0,0,0,0,0,0,-1,916,925,0,0
-301,99,0,0,0,0,0,0,0,0,0,-1,923,925,0,0
-294,99,0,0,0,0,0,0,0,0,0,-1,930,925,0,0
-287,99,0,0,0,0,0,0,0,0,0,-1,937,925,0,0
-280,99,0,0,0,0,0,0,0,0,0,-1,944,925,0,0
-273,99,0,0,0,0,0,0,0,0,0,-1,951,925,0,0
-266,99,0,0,0,0,0,0,0,0,0,-1,958,925,0,0
-259,99,0,0,0,0,0,0,0,0,0,-1,965,925,0,0
-252,99,0,0,0,0,0,0,0,0,0,-1,972,925,0,0
-245,99,0,0,0,0,0,0,0,0,0,-1,979,925,0,0
-238,99,0,0,0,0,0,0,0,0,0,-1,986,925,0,0
-231,99,0,0,0,0,0,0,0,0,0,-1,993,925,0,0
-224,99,0,0,0,0,0,0,0,0,0,-1,1000,925,0,0
-217,99,0,0,0,0,0,0,0,0,0,-1,1007,925,0,0
-210,99,0,0,0,0,0,0,0,0,0,-1,1014,925,0,0
-203,99,0,0,0,0,0,0,0,0,0,-1,1021,925,0,0
-196,99,0,0,0,0,0,0,0,0,0,-1,1028,925,0,0
-189,99,0,0,0,0,0,0,0,0,0,-1,1035,925,0,0
-182,99,0,0,0,0,0,0,0,0,0,-1,1042,925,0,0
-175,99,0,0,0,0,0,0,0,0,0,-1,1049,925,0,0
-168,99,0,0,0,0,0,0,0,0,0,-1,1056,925,0,0
-161,99,0,0,0,0,0,0,0,0,0,-1,1063,925,0,0
-154,99,0,0,0,0,0,0,0,0,0,-1,1070,925,0,0
-147,99,0,0,0,0,0,0,0,0,0,-1,1077,925,0,0
-140,99,0,0,0,0,0,0,0,0,0,-1,1084,925,0,0
-133,99,0,0,0,0,0,0,0,0,0,-1,1091,925,0,0
-126,99,0,0,0,0,0,0,0,0,0,-1,1098,925,0,0
-119,99,0,0,0,0,0,0,0,0,0,-1,1105,925,0,0
-112,99,0,0,0,0,0,0,0,0,0,-1,1112,925,0,0
-105,99,0,0,0,0,0,0,0,0,0,-1,1119,925,0,0
-98,99,0,0,0,0,0,0,0,0,0,-1,1126,925,0,0
-91,99,0,0,0,0,0,0,0,0,0,-1,1133,925,0,0
-84,99,0,0,0,0,0,0,0,0,0,-1,1140,925,0,0
-77,99,0,0,0,0,0,0,0,0,0,-1,1147,925,0,0
-70,99,0,0,0,0,0,0,0,0,0,-1,1154,925,0,0
-63,99,0,0,0,0,0,0,0,0,0,-1,1161,925,0,0
-56,99,0,0,0,0,0,0,0,0,0,-1,1168,925,0,0
-49,99,0,0,0,0,0,0,0,0,0,-1,1175,925,0,0
-42,99,0,0,0,0,0,0,0,0,0,-1,1182,925,0,0
-35,99,0,0,0,0,0,0,0,0,0,-1,1189,925,0,0
-28,99,0,0,0,0,0,0,0,0,0,-1,1196,925,0,0
-21,99,0,0,0,0,0,0,0,0,0,-1,1203,925,0,0
-14,99,0,0,0,0,0,0,0,0,0,-1,1210,925,0,0
-7,99,0,0,0,0,0,0,0,0,0,-1,1217,925,0,0
0,99,0,0,0,0,0,0,0,0,0,-1,1224,925,0,0
7,99,0,0,0,0,0,0,0,0,0,-1,1231,925,0,0
14,99,0,0,0,0,0,0,0,0,0,-1,1238,925,0,0
21,99,0,0,0,0,0,0,0,0,0,-1,1245,925,0,0
28,99,0,0,0,0,0,0,0,0,0,-1,1252,925,0,0
35,99,0,0,0,0,0,0,0,0,0,-1,1259,925,0,0
42,99,0,0,0,0,0,0,0,0,0,-1,1266,925,0,0
49,99,0,0,0,0,0,0,0,0,0,-1,1273,925,0,0
56,99,0,0,0,0,0,0,0,0,0,-1,1280,925,0,0
63,99,0,0,0,0,0,0,0,0,0,-1,1287,925,0,0
70,99,0,0,0,0,0,0,0,0,0,-1,1294,925,0,0
77,99,0,0,0,0,0,0,0,0,0,-1,1301,925,0,0
84,99,0,0,0,0,0,0,0,0,0,-1,1308,925,0,0
91,99,0,0,0,0,0,0,0,0,0,-1,1315,925,0,0
98,99,0,0,0,0,0,0,0,0,0,-1,1322,925,0,0
105,99,0,0,0,0,0,0,0,0,0,-1,1329,925,0,0
112,99,0,0,0,0,0,0,0,0,0,-1,1336,925,0,0
119,99,0,0,0,0,0,0,0,0,0,-1,1343,925,0,0
126,99,0,0,0,0,0,0,0,0,0,-1,1350,925,0,0
133,99,0,0,0,0,0,0,0,0,0,-1,1357,925,0,0
140,99,0,0,0,0,0,0,0,0,0,-1,1364,925,0,0
147,99,0,0,0,0,0,0,0,0,0,-1,1371,925,0,0
154,99,0,0,0,0,0,0,0,0,0,-1,1378,925,0,0
161,99,0,0,0,0,0,0,0,0,0,-1,1385,925,0,0
168,99,0,0,0,0,0,0,0,0,0,-1,1392,925,0,0
175,99,0,0,0,0,0,0,0,0,0,-1,1399,925,0,0
182,99,0,0,0,0,0,0,0,0,0,-1,1406,925,0,0
189,99,0,0,0,0,0,0,0,0,0,-1,1413,925,0,0
196,99,0,0,0,0,0,0,0,0,0,-1,1420,925,0,0
203,99,0,0,0,0,0,0,0,0,0,-1,1427,925,0,0
210,99,0,0,0,0,0,0,0,0,0,-1,1434,925,0,0
217,99,0,0,0,0,0,0,0,0,0,-1,1441,925,0,0
224,99,0,0,0,0,0,0,0,0,0,-1,1448,925,0,0
231,99,0,0,0,0,0,0,0,0,0,-1,1455,925,0,0
238,99,0,0,0,0,0,0,0,0,0,-1,1462,925,0,0
245,99,0,0,0,0,0,0,0,0,0,-1,1469,925,0,0
252,99,0,0,0,0,0,0,0,0,0,-1,1476,925,0,0
259,99,0,0,0,0,0,0,0,0,0,-1,1483,925,0,0
266,99,0,0,0,0,0,0,0,0,0,-1,1490,925,0,0
273,99,0,0,0,0,0,0,0,0,0,-1,1497,925,0,0
280,99,0,0,0,0,0,0,0,0,0,-1,1504,925,0,0
287,99,0,0,0,0,0,0,0,0,0,-1,1511,925,0,0
294,99,0,0,0,0,0,0,0,0,0,-1,1518,925,0,0
301,99,0,0,0,0,0,0,0,0,0,-1,1525,925,0,0
308,99,0,0,0,0,0,0,0,0,0,-1,1532,925,0,0
315,99,0,0,0,0,0,0,0,0,0,-1,1539,925,0,0
322,99,0,0,0,0,0,0,0,0,0,-1,1546,925,0,0
329,99,0,0,0,0,0,0,0,0,0,-1,1553,925,0,0
336,99,0,0,0,0,0,0,0,0,0,-1,1560,925,0,0
343,99,0,0,0,0,0,0,0,0,0,-1,1567,925,0,0
350,99,0,0,0,0,0,0,0,0,0,-1,1574,925,0,0
357,99,0,0,0,0,0,0,0,0,0,-1,1581,925,0,0
364,99,0,0,0,0,0,0,0,0,0,-1,1588,925,0,0
371,99,0,0,0,0,0,0,0,0,0,-1,1595,925,0,0
378,99,0,0,0,0,0,0,0,0,0,-1,1602,925,0,0
385,99,0,0,0,0,0,0,0,0,0,-1,1609,925,0,0
392,99,0,0,0,0,0,0,0,0,0,-1,1616,925,0,0
399,99,0,0,0,0,0,0,0,0,0,-1,1623,925,0,0
406,99,0,0,0,0,0,0,0,0,0,-1,1630,925,0,0
413,99,0,0,0,0,0,0,0,0,0,-1,1637,925,0,0
420,99,0,0,0,0,0,0,0,0,0,-1,1644,925,0,0
427,99,0,0,0,0,0,0,0,0,0,-1,1651,925,0,0
434,99,0,0,0,0,0,0,0,0,0,-1,1658,925,0,0
441,99,0,0,0,0,0,0,0,0,0,-1,1665,925,0,0
448,99,0,0,0,0,0,0,0,0,0,-1,1672,925,0,0
455,99,0,0,0,0,0,0,0,0,0,-1,1679,925,0,0
462,99,0,0,0,0,0,0,0,0,0,-1,1686,925,0,0
469,99,0,0,0,0,0,0,0,0,0,-1,1693,925,0,0
476,99,0,0,0,0,0,0,0,0,0,-1,1700,925,0,0
483,99,0,0,0,0,0,0,0,0,0,-1,1707,925,0,0
490,99,0,0,0,0,0,0,0,0,0,-1,1714,925,0,0
497,99,0,0,0,0,0,0,0,0,0,-1,1721,925,0,0
504,99,0,0,0,0,0,0,0,0,0,-1,1728,925,0,0
511,99,0,0,0,0,0,0,0,0,0,-1,1735,925,0,0
518,99,0,0,0,0,0,0,0,0,0,-1,1742,925,0,0
525,99,0,0,0,0,0,0,0,0,0,-1,1749,925,0,0
532,99,0,0,0,0,0,0,0,0,0,-1,1756,925,0,0
539,99,0,0,0,0,0,0,0,0,0,-1,1763,925,0,0
546,99,0,0,0,0,0,0,0,0,0,-1,1770,925,0,0
553,99,0,0,0,0,0,0,0,0,0,-1,1777,925,0,0
560,99,0,0,0,0,0,0,0,0,0,-1,1784,925,0,0
567,99,0,0,0,0,0,0,0,0,0,-1,1791,925,0,0
574,99,0,0,0,0,0,0,0,0,0,-1,1798,925,0,0
581,99,0,0,0,0,0,0,0,0,0,-1,1805,925,0,0
588,99,0,0,0,0,0,0,0,0,0,-1,1812,925,0,0
595,99,0,0,0,0,0,0,0,0,0,-1,1819,925,0,0
602,99,0,0,0,0,0,0,0,0,0,-1,1826,925,0,0
609,99,0,0,0,0,0,0,0,0,0,-1,1833,925,0,0
616,99,0,0,0,0,0,0,0,0,0,-1,1840,925,0,0
623,99,0,0,0,0,0,0,0,0,0,-1,1847,925,0,0
630,99,0,0,0,0,0,0,0,0,0,-1,1854,925,0,0
637,99,215.276,8.85962,0,0,0,0,0,0,0,-1,1861,925,215.276,-8.8596
644,99,215.256,8.62909,0,0,0,0,0,0,0,-1,1868,925,215.256,-8.62909
651,99,215.147,8.6181,0,0,0,0,0,0,0,-1,1875,925,215.147,-8.61811
658,99,215.166,8.57764,0,0,0,0,0,0,0,-1,1882,925,215.166,-8.57762
665,99,215.131,8.50873,0,0,0,0,0,0,0,-1,1889,925,215.131,-8.50875
672,99,215.076,8.68542,0,0,0,0,0,0,0,-1,1896,925,215.076,-8.68545
679,99,215.073,8.6925,0,0,0,0,0,0,0,-1,1903,925,215.073,-8.69251
686,99,215.538,8.7251,0,0,0,0,0,0,0,-1,1910,925,215.538,-8.72512
693,99,215.322,8.66516,0,0,0,0,0,0,0,-1,1917,925,215.322,-8.66517
700,99,202.766,8.29431,0,0,0,0,0,0,0,-1,1924,925,202.766,-8.29432
707,99,205.739,27.2947,0,0,0,0,0,0,0,-1,1931,925,205.739,-27.2948
714,99,204.871,28.2073,0,0,0,0,0,0,0,-1,1938,925,204.871,-28.2074
721,99,205.053,29.6441,-0.00701905,0.00406087,-0.000935589,0.00413932,-0.00709749,-1.48715,0.00656208,0.0403541,1945,925,205.053,-29.6441
728,99,204.999,30.907,-0.00957993,0.0104738,-0.00282034,0.0108629,-0.00996903,-1.4337,0.012031,0.0346296,1952,925,204.999,-30.907
735,99,204.907,32.0954,-0.0121736,0.0169935,-0.0046516,0.0177174,-0.0128975,-1.41642,0.0177484,0.0225923,1959,925,204.907,-32.0954
742,99,204.688,33.2139,-0.0148284,0.0231861,-0.00614528,0.0241549,-0.0157971,-1.41444,0.0232339,0.0209649,1966,925,204.688,-33.2139
749,99,204.432,34.2711,-0.0175778,0.029261,-0.00732465,0.0303797,-0.0186965,-1.41924,0.0286006,0.0196334,1973,925,204.432,-34.2711
756,99,204.228,35.3536,-0.0203975,0.0350957,-0.00819195,0.0362797,-0.0215815,-1.42725,0.0337636,0.0199916,1980,925,204.228,-35.3536
763,99,204.18,36.4457,-0.0233294,0.0405642,-0.00870406,0.0417287,-0.0244939,-1.4378,0.0386628,0.024523,1987,925,204.18,-36.4457
770,99,204.542,37.4503,0,0,0,0,0,0,0,-1,1994,925,204.542,-37.4503
777,99,204.111,38.6051,0,0,0,0,0,0,0,-1,2001,925,204.111,-38.6051
784,99,90.0874,14.4108,0,0,0,0,0,0,0,-1,2008,925,90.0873,-14.4108
791,99,91.6816,15.5447,0,0,0,0,0,0,0,-1,2015,925,91.6815,-15.5447
798,99,91.3784,14.3621,0,0,0,0,0,0,0,-1,2022,925,91.3783,-14.3621
805,99,0,0,0,0,0,0,0,0,0,-1,2029,925,0,0
812,99,0,0,0,0,0,0,0,0,0,-1,2036,925,0,0
-700,92,0,0,0,0,0,0,0,0,0,-1,524,932,0,0
-693,92,0,0,0,0,0,0,0,0,0,-1,531,932,0,0
-686,92,-71.6475,-3.3797,0,0,0,0,0,0,0,-1,538,932,-71.6475,3.3797
-679,92,-69.8624,-2.1322,0,0,0,0,0,0,0,-1,545,932,-69.8624,2.1322
-672,92,-59.2169,9.25281,0,0,0,0,0,0,0,-1,552,932,-59.2169,-9.25281
-665,92,-58.6809,9.84479,0,0,0,0,0,0,0,-1,559,932,-58.6809,-9.8448
-658,92,-58.4986,10.1044,0,0,0,0,0,0,0,-1,566,932,-58.4986,-10.1044
-651,92,-58.3638,10.0627,0,0,0,0,0,0,0,-1,573,932,-58.3637,-10.0627
-644,92,-100.671,21.8364,0,0,0,0,0,0,0,-1,580,932,-100.671,-21.8364
-637,92,-196.904,37.236,0,0,0,0,0,0,0,-1,587,932,-196.904,-37.236
-630,92,-197.124,36.2337,-0.00464096,0.0425304,0.0119661,0.0453922,-0.00750282,1.33604,0.0330476,0.0317081,594,932,-197.124,-36.2337
-623,92,-197.361,35.2122,-0.00531651,0.0359058,0.00994783,0.0381809,-0.00759158,1.34596,0.0283256,0.0164854,601,932,-197.361,-35.2122
-616,92,-197.428,34.1368,-0.00540292,0.0292287,0.00772022,0.0308718,-0.00704599,1.3611,0.0232879,0.0148087,608,932,-197.428,-34.1368
-609,92,-197.567,33.019,-0.00503433,0.0225296,0.0052958,0.023512,-0.00601679,1.38737,0.0180183,0.0115811,615,932,-197.567,-33.019
-602,92,-197.675,31.8724,-0.00432961,0.015835,0.00267902,0.0161849,-0.00467946,1.44094,0.0126418,0.0144235,622,932,-197.675,-31.8723
-595,92,-197.776,30.6478,-0.0033948,0.00916869,-0.000133019,0.00917009,-0.00339621,-1.56021,0.0075061,0.0257321,629,932,-197.776,-30.6478
-588,92,-197.858,29.5212,-0.00149059,0.00240493,-0.0034975,0.00446046,-0.00354611,-1.03946,0.00463263,0.0325264,636,932,-197.858,-29.5212
-581,92,-197.873,28.3981,0,0,0,0,0,0,0,-1,643,932,-197.873,-28.3981
-574,92,-198.769,26.9364,0,0,0,0,0,0,0,-1,650,932,-198.769,-26.9364
-567,92,-70.9372,0.522583,0,0,0,0,0,0,0,-1,657,932,-70.9372,-0.522612
-560,92,-72.371,0.383606,0,0,0,0,0,0,0,-1,664,932,-72.371,-0.383636
-553,92,-72.4481,0.722412,0,0,0,0,0,0,0,-1,671,932,-72.448,-0.722438
-546,92,-72.5264,0.623535,0,0,0,0,0,0,0,-1,678,932,-72.5265,-0.62354
-539,92,-72.5651,0.373596,0,0,0,0,0,0,0,-1,685,932,-72.5652,-0.373594
-532,92,-72.5598,0.387268,0,0,0,0,0,0,0,-1,692,932,-72.5598,-0.387249
-525,92,-72.5999,0.502197,0,0,0,0,0,0,0,-1,699,932,-72.5999,-0.502169
-518,92,-72.532,0.667786,0,0,0,0,0,0,0,-1,706,932,-72.532,-0.667758
-511,92,0,0,0,0,0,0,0,0,0,-1,713,932,0,0
-504,92,0,0,0,0,0,0,0,0,0,-1,720,932,0,0
-497,92,0,0,0,0,0,0,0,0,0,-1,727,932,0,0
-490,92,0,0,0,0,0,0,0,0,0,-1,734,932,0,0
-483,92,0,0,0,0,0,0,0,0,0,-1,741,932,0,0
-476,92,0,0,0,0,0,0,0,0,0,-1,748,932,0,0
-469,92,0,0,0,0,0,0,0,0,0,-1,755,932,0,0
-462,92,0,0,0,0,0,0,0,0,0,-1,762,932,0,0
-455,92,0,0,0,0,0,0,0,0,0,-1,769,932,0,0
-448,92,0,0,0,0,0,0,0,0,0,-1,776,932,0,0
-441,92,0,0,0,0,0,0,0,0,0,-1,783,932,0,0
-434,92,0,0,0,0,0,0,0,0,0,-1,790,932,0,0
-427,92,0,0,0,0,0,0,0,0,0,-1,797,932,0,0
-420,92,0,0,0,0,0,0,0,0,0,-1,804,932,0,0
-413,92,0,0,0,0,0,0,0,0,0,-1,811,932,0,0
-406,92,0,0,0,0,0,0,0,0,0,-1,818,932,0,0
-399,92,0,0,0,0,0,0,0,0,0,-1,825,932,0,0
-392,92,0,0,0,0,0,0,0,0,0,-1,832,932,0,0
-385,92,0,0,0,0,0,0,0,0,0,-1,839,932,0,0
-378,92,0,0,0,0,0,0,0,0,0,-1,846,932,0,0
-371,92,0,0,0,0,0,0,0,0,0,-1,853,932,0,0
-364,92,0,0,0,0,0,0,0,0,0,-1,860,932,0,0
-357,92,0,0,0,0,0,0,0,0,0,-1,867,932,0,0
-350,92,0,0,0,0,0,0,0,0,0,-1,874,932,0,0
-343,92,0,0,0,0,0,0,0,0,0,-1,881,932,0,0
-336,92,0,0,0,0,0,0,0,0,0,-1,888,932,0,0
-329,92,0,0,0,0,0,0,0,0,0,-1,895,932,0,0
-322,92,0,0,0,0,0,0,0,0,0,-1,902,932,0,0
-315,92,0,0,0,0,0,0,0,0,0,-1,909,932,0,0
-308,92,0,0,0,0,0,0,0,0,0,-1,916,932,0,0
-301,92,0,0,0,0,0,0,0,0,0,-1,923,932,0,0
-294,92,0,0,0,0,0,0,0,0,0,-1,930,932,0,0
-287,92,0,0,0,0,0,0,0,0,0,-1,937,932,0,0
-280,92,0,0,0,0,0,0,0,0,0,-1,944,932,0,0
-273,92,0,0,0,0,0,0,0,0,0,-1,951,932,0,0
-266,92,0,0,0,0,0,0,0,0,0,-1,958,932,0,0
-259,92,0,0,0,0,0,0,0,0,0,-1,965,932,0,0
-252,92,0,0,0,0,0,0,0,0,0,-1,972,932,0,0
-245,92,0,0,0,0,0,0,0,0,0,-1,979,932,0,0
-238,92,0,0,0,0,0,0,0,0,0,-1,986,932,0,0
-231,92,0,0,0,0,0,0,0,0,0,-1,993,932,0,0
-224,92,0,0,0,0,0,0,0,0,0,-1,1000,932,0,0
-217,92,0,0,0,0,0,0,0,0,0,-1,1007,932,0,0
-210,92,0,0,0,0,0,0,0,0,0,-1,1014,932,0,0
-203,92,0,0,0,0,0,0,0,0,0,-1,1021,932,0,0
-196,92,0,0,0,0,0,0,0,0,0,-1,1028,932,0,0
-189,92,0,0,0,0,0,0,0,0,0,-1,1035,932,0,0
-182,92,0,0,0,0,0,0,0,0,0,-1,1042,932,0,0
-175,92,0,0,0,0,0,0,0,0,0,-1,1049,932,0,0
-168,92,0,0,0,0,0,0,0,0,0,-1,1056,932,0,0
-161,92,0,0,0,0,0,0,0,0,0,-1,1063,932,0,0
-154,92,0,0,0,0,0,0,0,0,0,-1,1070,932,0,0
-147,92,0,0,0,0,0,0,0,0,0,-1,1077,932,0,0
-140,92,0,0,0,0,0,0,0,0,0,-1,1084,932,0,0
-133,92,0,0,0,0,0,0,0,0,0,-1,1091,932,0,0
-126,92,0,0,0,0,0,0,0,0,0,-1,1098,932,0,0
-119,92,0,0,0,0,0,0,0,0,0,-1,1105,932,0,0
-112,92,0,0,0,0,0,0,0,0,0,-1,1112,932,0,0
-105,92,0,0,0,0,0,0,0,0,0,-1,1119,932,0,0
-98,92,0,0,0,0,0,0,0,0,0,-1,1126,932,0,0
-91,92,0,0,0,0,0,0,0,0,0,-1,1133,932,0,0
-84,92,0,0,0,0,0,0,0,0,0,-1,1140,932,0,0
-77,92,0,0,0,0,0,0,0,0,0,-1,1147,932,0,0
-70,92,0,0,0,0,0,0,0,0,0,-1,1154,932,0,0
-63,92,0,0,0,0,0,0,0,0,0,-1,1161,932,0,0
-56,92,0,0,0,0,0,0,0,0,0,-1,1168,932,0,0
-49,92,0,0,0,0,0,0,0,0,0,-1,1175,932,0,0
-42,92,0,0,0,0,0,0,0,0,0,-1,1182,932,0,0
-35,92,0,0,0,0,0,0,0,0,0,-1,1189,932,0,0
-28,92,0,0,0,0,0,0,0,0,0,-1,1196,932,0,0
-21,92,0,0,0,0,0,0,0,0,0,-1,1203,932,0,0
-14,92,0,0,0,0,0,0,0,0,0,-1,1210,932,0,0
-7,92,0,0,0,0,0,0,0,0,0,-1,1217,932,0,0
0,92,0,0,0,0,0,0,0,0,0,-1,1224,932,0,0
7,92,0,0,0,0,0,0,0,0,0,-1,1231,932,0,0
14,92,0,0,0,0,0,0,0,0,0,-1,1238,932,0,0
21,92,0,0,0,0,0,0,0,0,0,-1,1245,932,0,0
28,92,0,0,0,0,0,0,0,0,0,-1,1252,932,0,0
35,92,0,0,0,0,0,0,0,0,0,-1,1259,932,0,0
42,92,0,0,0,0,0,0,0,0,0,-1,1266,932,0,0
49,92,0,0,0,0,0,0,0,0,0,-1,1273,932,0,0
56,92,0,0,0,0,0,0,0,0,0,-1,1280,932,0,0
63,92,0,0,0,0,0,0,0,0,0,-1,1287,932,0,0
70,92,0,0,0,0,0,0,0,0,0,-1,1294,932,0,0
77,92,0,0,0,0,0,0,0,0,0,-1,1301,932,0,0
84,92,0,0,0,0,0,0,0,0,0,-1,1308,932,0,0
91,92,0,0,0,0,0,0,0,0,0,-1,1315,932,0,0
98,92,0,0,0,0,0,0,0,0,0,-1,1322,932,0,0
105,92,0,0,0,0,0,0,0,0,0,-1,1329,932,0,0
112,92,0,0,0,0,0,0,0,0,0,-1,1336,932,0,0
119,92,0,0,0,0,0,0,0,0,0,-1,1343,932,0,0
126,92,0,0,0,0,0,0,0,0,0,-1,1350,932,0,0
133,92,0,0,0,0,0,0,0,0,0,-1,1357,932,0,0
140,92,0,0,0,0,0,0,0,0,0,-1,1364,932,0,0
147,92,0,0,0,0,0,0,0,0,0,-1,1371,932,0,0
154,92,0,0,0,0,0,0,0,0,0,-1,1378,932,0,0
161,92,0,0,0,0,0,0,0,0,0,-1,1385,932,0,0
168,92,0,0,0,0,0,0,0,0,0,-1,1392,932,0,0
175,92,0,0,0,0,0,0,0,0,0,-1,1399,932,0,0
182,92,0,0,0,0,0,0,0,0,0,-1,1406,932,0,0
189,92,0,0,0,0,0,0,0,0,0,-1,1413,932,0,0
196,92,0,0,0,0,0,0,0,0,0,-1,1420,932,0,0
203,92,0,0,0,0,0,0,0,0,0,-1,1427,932,0,0
210,92,0,0,0,0,0,0,0,0,0,-1,1434,932,0,0
217,92,0,0,0,0,0,0,0,0,0,-1,1441,932,0,0
224,92,0,0,0,0,0,0,0,0,0,-1,1448,932,0,0
231,92,0,0,0,0,0,0,0,0,0,-1,1455,932,0,0
238,92,0,0,0,0,0,0,0,0,0,-1,1462,932,0,0
245,92,0,0,0,0,0,0,0,0,0,-1,1469,932,0,0
252,92,0,0,0,0,0,0,0,0,0,-1,1476,932,0,0
259,92,0,0,0,0,0,0,0,0,0,-1,1483,932,0,0
266,92,0,0,0,0,0,0,0,0,0,-1,1490,932,0,0
273,92,0,0,0,0,0,0,0,0,0,-1,1497,932,0,0
280,92,0,0,0,0,0,0,0,0,0,-1,1504,932,0,0
287,92,0,0,0,0,0,0,0,0,0,-1,1511,932,0,0
294,92,0,0,0,0,0,0,0,0,0,-1,1518,932,0,0
301,92,0,0,0,0,0,0,0,0,0,-1,1525,932,0,0
308,92,0,0,0,0,0,0,0,0,0,-1,1532,932,0,0
315,92,0,0,0,0,0,0,0,0,0,-1,1539,932,0,0
322,92,0,0,0,0,0,0,0,0,0,-1,1546,932,0,0
329,92,0,0,0,0,0,0,0,0,0,-1,1553,932,0,0
336,92,0,0,0,0,0,0,0,0,0,-1,1560,932,0,0
343,92,0,0,0,0,0,0,0,0,0,-1,1567,932,0,0
350,92,0,0,0,0,0,0,0,0,0,-1,1574,932,0,0
357,92,0,0,0,0,0,0,0,0,0,-1,1581,932,0,0
364,92,0,0,0,0,0,0,0,0,0,-1,1588,932,0,0
371,92,0,0,0,0,0,0,0,0,0,-1,1595,932,0,0
378,92,0,0,0,0,0,0,0,0,0,-1,1602,932,0,0
385,92,0,0,0,0,0,0,0,0,0,-1,1609,932,0,0
392,92,0,0,0,0,0,0,0,0,0,-1,1616,932,0,0
399,92,0,0,0,0,0,0,0,0,0,-1,1623,932,0,0
406,92,0,0,0,0,0,0,0,0,0,-1,1630,932,0,0
413,92,0,0,0,0,0,0,0,0,0,-1,1637,932,0,0
420,92,0,0,0,0,0,0,0,0,0,-1,1644,932,0,0
427,92,0,0,0,0,0,0,0,0,0,-1,1651,932,0,0
434,92,0,0,0,0,0,0,0,0,0,-1,1658,932,0,0
441,92,0,0,0,0,0,0,0,0,0,-1,1665,932,0,0
448,92,0,0,0,0,0,0,0,0,0,-1,1672,932,0,0
455,92,0,0,0,0,0,0,0,0,0,-1,1679,932,0,0
462,92,0,0,0,0,0,0,0,0,0,-1,1686,932,0,0
469,92,0,0,0,0,0,0,0,0,0,-1,1693,932,0,0
476,92,0,0,0,0,0,0,0,0,0,-1,1700,932,0,0
483,92,0,0,0,0,0,0,0,0,0,-1,1707,932,0,0
490,92,0,0,0,0,0,0,0,0,0,-1,1714,932,0,0
497,92,0,0,0,0,0,0,0,0,0,-1,1721,932,0,0
504,92,0,0,0,0,0,0,0,0,0,-1,1728,932,0,0
511,92,0,0,0,0,0,0,0,0,0,-1,1735,932,0,0
518,92,0,0,0,0,0,0,0,0,0,-1,1742,932,0,0
525,92,0,0,0,0,0,0,0,0,0,-1,1749,932,0,0
532,92,0,0,0,0,0,0,0,0,0,-1,1756,932,0,0
539,92,0,0,0,0,0,0,0,0,0,-1,1763,932,0,0
546,92,0,0,0,0,0,0,0,0,0,-1,1770,932,0,0
553,92,0,0,0,0,0,0,0,0,0,-1,1777,932,0,0
560,92,0,0,0,0,0,0,0,0,0,-1,1784,932,0,0
567,92,0,0,0,0,0,0,0,0,0,-1,1791,932,0,0
574,92,0,0,0,0,0,0,0,0,0,-1,1798,932,0,0
581,92,0,0,0,0,0,0,0,0,0,-1,1805,932,0,0
588,92,0,0,0,0,0,0,0,0,0,-1,1812,932,0,0
595,92,0,0,0,0,0,0,0,0,0,-1,1819,932,0,0
602,92,0,0,0,0,0,0,0,0,0,-1,1826,932,0,0
609,92,0,0,0,0,0,0,0,0,0,-1,1833,932,0,0
616,92,0,0,0,0,0,0,0,0,0,-1,1840,932,0,0
623,92,0,0,0,0,0,0,0,0,0,-1,1847,932,0,0
630,92,0,0,0,0,0,0,0,0,0,-1,1854,932,0,0
637,92,215.306,8.62579,0,0,0,0,0,0,0,-1,1861,932,215.306,-8.62579
644,92,215.137,8.72302,0,0,0,0,0,0,0,-1,1868,932,215.137,-8.72303
651,92,215.244,8.75159,0,0,0,0,0,0,0,-1,1875,932,215.244,-8.75158
658,92,215.244,8.76636,0,0,0,0,0,0,0,-1,1882,932,215.244,-8.76635
665,92,215.035,8.63348,0,0,0,0,0,0,0,-1,1889,932,215.035,-8.63351
672,92,215.051,8.56757,0,0,0,0,0,0,0,-1,1896,932,215.051,-8.56759
679,92,214.968,8.69067,0,0,0,0,0,0,0,-1,1903,932,214.968,-8.6907
686,92,214.933,8.54749,0,0,0,0,0,0,0,-1,1910,932,214.933,-8.54748
693,92,214.728,8.79572,0,0,0,0,0,0,0,-1,1917,932,214.728,-8.79572
700,92,215.1,8.97046,0,0,0,0,0,0,0,-1,1924,932,215.1,-8.97048
707,92,140.011,15.4938,0,0,0,0,0,0,0,-1,1931,932,140.011,-15.4939
714,92,206.794,28.6191,0,0,0,0,0,0,0,-1,1938,932,206.795,-28.6191
721,92,206.525,29.8309,-0.00595557,0.00216071,-0.000429443,0.00218337,-0.00597822,-1.51808,0.00487893,0.0415973,1945,932,206.525,-29.8309
728,92,206.234,30.9706,-0.00866751,0.00875434,-0.00217328,0.00902135,-0.00893453,-1.44855,0.0103669,0.0323228,1952,932,206.234,-30.9706
735,92,206.086,32.0595,-0.0113854,0.0154715,-0.00396982,0.016046,-0.0119599,-1.42708,0.0162265,0.0243292,1959,932,206.086,-32.0595
742,92,205.988,33.1348,-0.0141899,0.0216124,-0.00540624,0.0224109,-0.0149885,-1.42415,0.0217339,0.0280225,1966,932,205.988,-33.1348
749,92,205.696,34.1863,-0.01717,0.0275578,-0.00649723,0.0284824,-0.0180947,-1.42943,0.0271133,0.0264183,1973,932,205.696,-34.1863
756,92,205.442,35.2556,-0.0202656,0.0331669,-0.00727085,0.0341386,-0.0212373,-1.43794,0.0322592,0.0211653,1980,932,205.442,-35.2555
763,92,205.401,36.3128,-0.0235278,0.0383064,-0.00767865,0.0392457,-0.024467,-1.44908,0.037113,0.0237116,1987,932,205.401,-36.3128
770,92,205.407,37.2285,-0.0271057,0.0429176,-0.00748452,0.0437087,-0.0278967,-1.4655,0.041676,0.0405514,1994,932,205.407,-37.2285
777,92,205.411,38.133,0,0,0,0,0,0,0,-1,2001,932,205.411,-38.133
784,92,117.767,21.7665,0,0,0,0,0,0,0,-1,2008,932,117.767,-21.7665
791,92,95.6941,14.4346,0,0,0,0,0,0,0,-1,2015,932,95.694,-14.4346
798,92,92.6777,13.6,0,0,0,0,0,0,0,-1,2022,932,92.6777,-13.6
805,92,0,0,0,0,0,0,0,0,0,-1,2029,932,0,0
812,92,0,0,0,0,0,0,0,0,0,-1,2036,932,0,0
-700,85,0,0,0,0,0,0,0,0,0,-1,524,939,0,0
-693,85,0,0,0,0,0,0,0,0,0,-1,531,939,0,0
-686,85,-71.3799,-3.12042,0,0,0,0,0,0,0,-1,538,939,-71.3799,3.1204
-679,85,-70.2184,-2.08044,0,0,0,0,0,0,0,-1,545,939,-70.2184,2.08043
-672,85,-58.9819,8.30292,0,0,0,0,0,0,0,-1,552,939,-58.9819,-8.30292
-665,85,-58.5912,8.72552,0,0,0,0,0,0,0,-1,559,939,-58.5912,-8.7255
-658,85,-58.3745,8.90198,0,0,0,0,0,0,0,-1,566,939,-58.3745,-8.90199
-651,85,-58.5191,9.10278,0,0,0,0,0,0,0,-1,573,939,-58.5191,-9.1028
-644,85,-67.919,11.7991,0,0,0,0,0,0,0,-1,580,939,-67.919,-11.7991
-637,85,-198.218,37.1022,0,0,0,0,0,0,0,-1,587,939,-198.218,-37.1022
-630,85,-198.349,35.9908,-0.00354209,0.0412139,0.0110358,0.0437871,-0.00611531,1.34172,0.0314288,0.0289814,594,939,-198.349,-35.9908
-623,85,-198.555,34.993,-0.00413031,0.0344828,0.00910898,0.0365238,-0.00617127,1.35038,0.0266456,0.0154742,601,939,-198.555,-34.993
-616,85,-198.639,34.0109,-0.0040521,0.0277065,0.00697715,0.0291717,-0.00551733,1.3638,0.021524,0.0151235,608,939,-198.639,-34.0109
-609,85,-198.788,32.952,-0.00343243,0.0209232,0.00465919,0.0217841,-0.0042933,1.38809,0.0161452,0.0174793,615,939,-198.788,-32.952
-602,85,-198.919,31.8903,-0.00237872,0.0141667,0.00216566,0.0144455,-0.00265749,1.44278,0.0106275,0.0199998,622,939,-198.919,-31.8903
-595,85,-198.959,30.7751,-0.000983614,0.00746657,-0.000500584,0.00749612,-0.00101317,-1.51183,0.00536711,0.0179278,629,939,-198.959,-30.7751
-588,85,-198.98,29.6348,0.00163708,0.000691032,-0.00375657,0.0049503,-0.00262218,-0.722768,0.00444031,0.024364,636,939,-198.98,-29.6348
-581,85,-199.01,28.4337,0,0,0,0,0,0,0,-1,643,939,-199.01,-28.4337
-574,85,-189.416,26.8539,0,0,0,0,0,0,0,-1,650,939,-189.416,-26.854
-567,85,-72.4246,0.480103,0,0,0,0,0,0,0,-1,657,939,-72.4246,-0.480077
-560,85,-72.3094,0.425659,0,0,0,0,0,0,0,-1,664,939,-72.3094,-0.425637
-553,85,-72.3888,0.423218,0,0,0,0,0,0,0,-1,671,939,-72.3888,-0.423207
-546,85,-72.4185,0.450989,0,0,0,0,0,0,0,-1,678,939,-72.4184,-0.450987
-539,85,-72.4494,0.444458,0,0,0,0,0,0,0,-1,685,939,-72.4494,-0.444476
-532,85,-72.5694,0.691101,0,0,0,0,0,0,0,-1,692,939,-72.5694,-0.691116
-525,85,-72.6234,0.690491,0,0,0,0,0,0,0,-1,699,939,-72.6234,-0.690502
-518,85,-72.5887,0.684326,0,0,0,0,0,0,0,-1,706,939,-72.5888,-0.684306
-511,85,0,0,0,0,0,0,0,0,0,-1,713,939,0,0
-504,85,0,0,0,0,0,0,0,0,0,-1,720,939,0,0
-497,85,0,0,0,0,0,0,0,0,0,-1,727,939,0,0
-490,85,0,0,0,0,0,0,0,0,0,-1,734,939,0,0
-483,85,0,0,0,0,0,0,0,0,0,-1,741,939,0,0
-476,85,0,0,0,0,0,0,0,0,0,-1,748,939,0,0
-469,85,0,0,0,0,0,0,0,0,0,-1,755,939,0,0
-462,85,0,0,0,0,0,0,0,0,0,-1,762,939,0,0
-455,85,0,0,0,0,0,0,0,0,0,-1,769,939,0,0
-448,85,0,0,0,0,0,0,0,0,0,-1,776,939,0,0
-441,85,0,0,0,0,0,0,0,0,0,-1,783,939,0,0
-434,85,0,0,0,0,0,0,0,0,0,-1,790,939,0,0
-427,85,0,0,0,0,0,0,0,0,0,-1,797,939,0,0
-420,85,0,0,0,0,0,0,0,0,0,-1,804,939,0,0
-413,85,0,0,0,0,0,0,0,0,0,-1,811,939,0,0
-406,85,0,0,0,0,0,0,0,0,0,-1,818,939,0,0
-399,85,0,0,0,0,0,0,0,0,0,-1,825,939,0,0
-392,85,0,0,0,0,0,0,0,0,0,-1,832,939,0,0
-385,85,0,0,0,0,0,0,0,0,0,-1,839,939,0,0
-378,85,0,0,0,0,0,0,0,0,0,-1,846,939,0,0
-371,85,0,0,0,0,0,0,0,0,0,-1,853,939,0,0
-364,85,0,0,0,0,0,0,0,0,0,-1,860,939,0,0
-357,85,0,0,0,0,0,0,0,0,0,-1,867,939,0,0
-350,85,0,0,0,0,0,0,0,0,0,-1,874,939,0,0
-343,85,0,0,0,0,0,0,0,0,0,-1,881,939,0,0
-336,85,0,0,0,0,0,0,0,0,0,-1,888,939,0,0
-329,85,0,0,0,0,0,0,0,0,0,-1,895,939,0,0
-322,85,0,0,0,0,0,0,0,0,0,-1,902,939,0,0
-315,85,0,0,0,0,0,0,0,0,0,-1,909,939,0,0
-308,85,0,0,0,0,0,0,0,0,0,-1,916,939,0,0
-301,85,0,0,0,0,0,0,0,0,0,-1,923,939,0,0
-294,85,0,0,0,0,0,0,0,0,0,-1,930,939,0,0
-287,85,0,0,0,0,0,0,0,0,0,-1,937,939,0,0
-280,85,0,0,0,0,0,0,0,0,0,-1,944,939,0,0
-273,85,0,0,0,0,0,0,0,0,0,-1,951,939,0,0
-266,85,0,0,0,0,0,0,0,0,0,-1,958,939,0,0
-259,85,0,0,0,0,0,0,0,0,0,-1,965,939,0,0
-252,85,0,0,0,0,0,0,0,0,0,-1,972,939,0,0
-245,85,0,0,0,0,0,0,0,0,0,-1,979,939,0,0
-238,85,0,0,0,0,0,0,0,0,0,-1,986,939,0,0
-231,85,0,0,0,0,0,0,0,0,0,-1,993,939,0,0
-224,85,0,0,0,0,0,0,0,0,0,-1,1000,939,0,0
-217,85,0,0,0,0,0,0,0,0,0,-1,1007,939,0,0
-210,85,0,0,0,0,0,0,0,0,0,-1,1014,939,0,0
-203,85,0,0,0,0,0,0,0,0,0,-1,1021,939,0,0
-196,85,0,0,0,0,0,0,0,0,0,-1,1028,939,0,0
-189,85,0,0,0,0,0,0,0,0,0,-1,1035,939,0,0
-182,85,0,0,0,0,0,0,0,0,0,-1,1042,939,0,0
-175,85,0,0,0,0,0,0,0,0,0,-1,1049,939,0,0
-168,85,0,0,0,0,0,0,0,0,0,-1,1056,939,0,0
-161,85,0,0,0,0,0,0,0,0,0,-1,1063,939,0,0
-154,85,0,0,0,0,0,0,0,0,0,-1,1070,939,0,0
-147,85,0,0,0,0,0,0,0,0,0,-1,1077,939,0,0
-140,85,0,0,0,0,0,0,0,0,0,-1,1084,939,0,0
-133,85,0,0,0,0,0,0,0,0,0,-1,1091,939,0,0
-126,85,0,0,0,0,0,0,0,0,0,-1,1098,939,0,0
-119,85,0,0,0,0,0,0,0,0,0,-1,1105,939,0,0
-112,85,0,0,0,0,0,0,0,0,0,-1,1112,939,0,0
-105,85,0,0,0,0,0,0,0,0,0,-1,1119,939,0,0
-98,85,0,0,0,0,0,0,0,0,0,-1,1126,939,0,0
-91,85,0,0,0,0,0,0,0,0,0,-1,1133,939,0,0
-84,85,0,0,0,0,0,0,0,0,0,-1,1140,939,0,0
-77,85,0,0,0,0,0,0,0,0,0,-1,1147,939,0,0
-70,85,0,0,0,0,0,0,0,0,0,-1,1154,939,0,0
-63,85,0,0,0,0,0,0,0,0,0,-1,1161,939,0,0
-56,85,0,0,0,0,0,0,0,0,0,-1,1168,939,0,0
-49,85,0,0,0,0,0,0,0,0,0,-1,1175,939,0,0
-42,85,0,0,0,0,0,0,0,0,0,-1,1182,939,0,0
-35,85,0,0,0,0,0,0,0,0,0,-1,1189,939,0,0
-28,85,0,0,0,0,0,0,0,0,0,-1,1196,939,0,0
-21,85,0,0,0,0,0,0,0,0,0,-1,1203,939,0,0
-14,85,0,0,0,0,0,0,0,0,0,-1,1210,939,0,0
-7,85,0,0,0,0,0,0,0,0,0,-1,1217,939,0,0
0,85,0,0,0,0,0,0,0,0,0,-1,1224,939,0,0
7,85,0,0,0,0,0,0,0,0,0,-1,1231,939,0,0
14,85,0,0,0,0,0,0,0,0,0,-1,1238,939,0,0
21,85,0,0,0,0,0,0,0,0,0,-1,1245,939,0,0
28,85,0,0,0,0,0,0,0,0,0,-1,1252,939,0,0
35,85,0,0,0,0,0,0,0,0,0,-1,1259,939,0,0
42,85,0,0,0,0,0,0,0,0,0,-1,1266,939,0,0
49,85,0,0,0,0,0,0,0,0,0,-1,1273,939,0,0
56,85,0,0,0,0,0,0,0,0,0,-1,1280,939,0,0
63,85,0,0,0,0,0,0,0,0,0,-1,1287,939,0,0
70,85,0,0,0,0,0,0,0,0,0,-1,1294,939,0,0
77,85,0,0,0,0,0,0,0,0,0,-1,1301,939,0,0
84,85,0,0,0,0,0,0,0,0,0,-1,1308,939,0,0
91,85,0,0,0,0,0,0,0,0,0,-1,1315,939,0,0
98,85,0,0,0,0,0,0,0,0,0,-1,1322,939,0,0
105,85,0,0,0,0,0,0,0,0,0,-1,1329,939,0,0
112,85,0,0,0,0,0,0,0,0,0,-1,1336,939,0,0
119,85,0,0,0,0,0,0,0,0,0,-1,1343,939,0,0
126,85,0,0,0,0,0,0,0,0,0,-1,1350,939,0,0
133,85,0,0,0,0,0,0,0,0,0,-1,1357,939,0,0
140,85,0,0,0,0,0,0,0,0,0,-1,1364,939,0,0
147,85,0,0,0,0,0,0,0,0,0,-1,1371,939,0,0
154,85,0,0,0,0,0,0,0,0,0,-1,1378,939,0,0
161,85,0,0,0,0,0,0,0,0,0,-1,1385,939,0,0
168,85,0,0,0,0,0,0,0,0,0,-1,1392,939,0,0
175,85,0,0,0,0,0,0,0,0,0,-1,1399,939,0,0
182,85,0,0,0,0,0,0,0,0,0,-1,1406,939,0,0
189,85,0,0,0,0,0,0,0,0,0,-1,1413,939,0,0
196,85,0,0,0,0,0,0,0,0,0,-1,1420,939,0,0
203,85,0,0,0,0,0,0,0,0,0,-1,1427,939,0,0
210,85,0,0,0,0,0,0,0,0,0,-1,1434,939,0,0
217,85,0,0,0,0,0,0,0,0,0,-1,1441,939,0,0
224,85,0,0,0,0,0,0,0,0,0,-1,1448,939,0,0
231,85,0,0,0,0,0,0,0,0,0,-1,1455,939,0,0
238,85,0,0,0,0,0,0,0,0,0,-1,1462,939,0,0
245,85,0,0,0,0,0,0,0,0,0,-1,1469,939,0,0
252,85,0,0,0,0,0,0,0,0,0,-1,1476,939,0,0
259,85,0,0,0,0,0,0,0,0,0,-1,1483,939,0,0
266,85,0,0,0,0,0,0,0,0,0,-1,1490,939,0,0
273,85,0,0,0,0,0,0,0,0,0,-1,1497,939,0,0
280,85,0,0,0,0,0,0,0,0,0,-1,1504,939,0,0
287,85,0,0,0,0,0,0,0,0,0,-1,1511,939,0,0
294,85,0,0,0,0,0,0,0,0,0,-1,1518,939,0,0
301,85,0,0,0,0,0,0,0,0,0,-1,1525,939,0,0
308,85,0,0,0,0,0,0,0,0,0,-1,1532,939,0,0
315,85,0,0,0,0,0,0,0,0,0,-1,1539,939,0,0
322,85,0,0,0,0,0,0,0,0,0,-1,1546,939,0,0
329,85,0,0,0,0,0,0,0,0,0,-1,1553,939,0,0
336,85,0,0,0,0,0,0,0,0,0,-1,1560,939,0,0
343,85,0,0,0,0,0,0,0,0,0,-1,1567,939,0,0
350,85,0,0,0,0,0,0,0,0,0,-1,1574,939,0,0
357,85,0,0,0,0,0,0,0,0,0,-1,1581,939,0,0
364,85,0,0,0,0,0,0,0,0,0,-1,1588,939,0,0
371,85,0,0,0,0,0,0,0,0,0,-1,1595,939,0,0
378,85,0,0,0,0,0,0,0,0,0,-1,1602,939,0,0
385,85,0,0,0,0,0,0,0,0,0,-1,1609,939,0,0
392,85,0,0,0,0,0,0,0,0,0,-1,1616,939,0,0
399,85,0,0,0,0,0,0,0,0,0,-1,1623,939,0,0
406,85,0,0,0,0,0,0,0,0,0,-1,1630,939,0,0
413,85,0,0,0,0,0,0,0,0,0,-1,1637,939,0,0
420,85,0,0,0,0,0,0,0,0,0,-1,1644,939,0,0
427,85,0,0,0,0,0,0,0,0,0,-1,1651,939,0,0
434,85,0,0,0,0,0,0,0,0,0,-1,1658,939,0,0
441,85,0,0,0,0,0,0,0,0,0,-1,1665,939,0,0
448,85,0,0,0,0,0,0,0,0,0,-1,1672,939,0,0
455,85,0,0,0,0,0,0,0,0,0,-1,1679,939,0,0
462,85,0,0,0,0,0,0,0,0,0,-1,1686,939,0,0
469,85,0,0,0,0,0,0,0,0,0,-1,1693,939,0,0
476,85,0,0,0,0,0,0,0,0,0,-1,1700,939,0,0
483,85,0,0,0,0,0,0,0,0,0,-1,1707,939,0,0
490,85,0,0,0,0,0,0,0,0,0,-1,1714,939,0,0
497,85,0,0,0,0,0,0,0,0,0,-1,1721,939,0,0
504,85,0,0,0,0,0,0,0,0,0,-1,1728,939,0,0
511,85,0,0,0,0,0,0,0,0,0,-1,1735,939,0,0
518,85,0,0,0,0,0,0,0,0,0,-1,1742,939,0,0
525,85,0,0,0,0,0,0,0,0,0,-1,1749,939,0,0
532,85,0,0,0,0,0,0,0,0,0,-1,1756,939,0,0
539,85,0,0,0,0,0,0,0,0,0,-1,1763,939,0,0
546,85,0,0,0,0,0,0,0,0,0,-1,1770,939,0,0
553,85,0,0,0,0,0,0,0,0,0,-1,1777,939,0,0
560,85,0,0,0,0,0,0,0,0,0,-1,1784,939,0,0
567,85,0,0,0,0,0,0,0,0,0,-1,1791,939,0,0
574,85,0,0,0,0,0,0,0,0,0,-1,1798,939,0,0
581,85,0,0,0,0,0,0,0,0,0,-1,1805,939,0,0
588,85,0,0,0,0,0,0,0,0,0,-1,1812,939,0,0
595,85,0,0,0,0,0,0,0,0,0,-1,1819,939,0,0
602,85,0,0,0,0,0,0,0,0,0,-1,1826,939,0,0
609,85,0,0,0,0,0,0,0,0,0,-1,1833,939,0,0
616,85,0,0,0,0,0,0,0,0,0,-1,1840,939,0,0
623,85,0,0,0,0,0,0,0,0,0,-1,1847,939,0,0
630,85,0,0,0,0,0,0,0,0,0,-1,1854,939,0,0
637,85,215.04,9.04388,0,0,0,0,0,0,0,-1,1861,939,215.04,-9.0439
644,85,214.848,8.99115,0,0,0,0,0,0,0,-1,1868,939,214.848,-8.99117
651,85,215.109,9.09503,0,0,0,0,0,0,0,-1,1875,939,215.109,-9.09505
658,85,215.189,8.8877,0,0,0,0,0,0,0,-1,1882,939,215.189,-8.88769
665,85,214.925,8.66461,0,0,0,0,0,0,0,-1,1889,939,214.925,-8.66463
672,85,214.954,8.64252,0,0,0,0,0,0,0,-1,1896,939,214.954,-8.64249
679,85,214.948,8.74402,0,0,0,0,0,0,0,-1,1903,939,214.948,-8.74403
686,85,214.892,8.68597,0,0,0,0,0,0,0,-1,1910,939,214.892,-8.68598
693,85,215.024,8.73193,0,0,0,0,0,0,0,-1,1917,939,215.024,-8.73192
700,85,215.107,8.77551,0,0,0,0,0,0,0,-1,1924,939,215.107,-8.77552
707,85,215.017,8.73755,0,0,0,0,0,0,0,-1,1931,939,215.017,-8.73756
714,85,208.286,28.6791,0,0,0,0,0,0,0,-1,1938,939,208.286,-28.6791
721,85,207.703,29.8991,0,0,0,0,0,0,0,-1,1945,939,207.703,-29.8991
728,85,207.372,31.0825,0,0,0,0,0,0,0,-1,1952,939,207.372,-31.0826
735,85,207.386,32.235,0,0,0,0,0,0,0,-1,1959,939,207.386,-32.2351
742,85,207.147,33.1428,-0.0133373,0.0200905,-0.00463401,0.020721,-0.0139678,-1.43557,0.0201537,0.0350832,1966,939,207.147,-33.1428
749,85,206.864,34.1543,-0.0166558,0.0259397,-0.00568584,0.0266856,-0.0174017,-1.44035,0.0256412,0.020123,1973,939,206.864,-34.1543
756,85,206.6,35.1238,-0.0201113,0.0313617,-0.00642271,0.032151,-0.0209006,-1.44852,0.0308581,0.0172856,1980,939,206.6,-35.1239
763,85,206.44,36.1047,-0.0237682,0.0362237,-0.00679448,0.0369836,-0.0245281,-1.45942,0.0357557,0.0189642,1987,939,206.44,-36.1047
770,85,206.212,37.0524,-0.0277702,0.0404345,-0.0066287,0.0410728,-0.0284084,-1.4748,0.0403365,0.0286865,1994,939,206.212,-37.0524
777,85,205.889,38.0314,0,0,0,0,0,0,0,-1,2001,939,205.889,-38.0314
784,85,114.733,22.3542,0,0,0,0,0,0,0,-1,2008,939,114.733,-22.3543
791,85,108.085,18.0881,0,0,0,0,0,0,0,-1,2015,939,108.085,-18.0881
798,85,93.9771,12.838,0,0,0,0,0,0,0,-1,2022,939,93.9771,-12.838
805,85,67.4045,8.44751,0,0,0,0,0,0,0,-1,2029,939,67.4046,-8.4475
812,85,0,0,0,0,0,0,0,0,0,-1,2036,939,0,0
-700,78,0,0,0,0,0,0,0,0,0,-1,524,946,0,0
-693,78,0,0,0,0,0,0,0,0,0,-1,531,946,0,0
-686,78,-71.3092,-3.06555,0,0,0,0,0,0,0,-1,538,946,-71.3092,3.06553
-679,78,-70.2859,-2.42047,0,0,0,0,0,0,0,-1,545,946,-70.2859,2.42045
-672,78,-68.8298,-1.27698,0,0,0,0,0,0,0,-1,552,946,-68.8298,1.27699
-665,78,-58.3835,7.82446,0,0,0,0,0,0,0,-1,559,946,-58.3835,-7.82444
-658,78,-68.3195,14.526,0,0,0,0,0,0,0,-1,566,946,-68.3195,-14.526
-651,78,-57.2355,9.40192,0,0,0,0,0,0,0,-1,573,946,-57.2355,-9.40191
-644,78,-68.5534,11.7624,0,0,0,0,0,0,0,-1,580,946,-68.5534,-11.7624
-637,78,-199.568,36.565,0,0,0,0,0,0,0,-1,587,946,-199.568,-36.565
-630,78,-199.597,35.6906,-0.00233764,0.0400235,0.010102,0.0423093,-0.00462339,1.34828,0.0298668,0.03329,594,946,-199.597,-35.6906
-623,78,-199.631,34.8194,-0.0029182,0.0332573,0.00830252,0.0350718,-0.00473267,1.35563,0.0251079,0.0158581,601,946,-199.631,-34.8194
-616,78,-199.769,33.8547,-0.00275999,0.0264363,0.00629903,0.0277374,-0.00406102,1.36712,0.0199833,0.0157483,608,946,-199.769,-33.8547
-609,78,-199.904,32.9178,-0.00198192,0.0196064,0.0041182,0.0203654,-0.00274083,1.38856,0.0145767,0.0179112,615,946,-199.904,-32.9179
-602,78,-199.991,31.8754,-0.000683585,0.012809,0.001779,0.0130396,-0.000914204,1.44188,0.00901327,0.0203016,622,946,-199.991,-31.8754
-595,78,-199.979,30.8843,0.00105213,0.00608111,-0.000706634,0.00617851,0.000954729,-1.43382,0.00384053,0.0177938,629,946,-199.979,-30.8843
-588,78,-200.07,29.8658,0.00429913,-0.000739365,-0.00379319,0.00633345,-0.00277368,-0.492269,0.00539023,0.0182105,636,946,-200.07,-29.8658
-581,78,-200.324,28.8518,0,0,0,0,0,0,0,-1,643,946,-200.324,-28.8518
-574,78,-200.873,27.7678,0,0,0,0,0,0,0,-1,650,946,-200.873,-27.7678
-567,78,-72.409,0.433167,0,0,0,0,0,0,0,-1,657,946,-72.409,-0.433163
-560,78,-72.4455,0.42749,0,0,0,0,0,0,0,-1,664,946,-72.4455,-0.427491
-553,78,-72.4747,0.470947,0,0,0,0,0,0,0,-1,671,946,-72.4747,-0.47097
-546,78,-72.4727,0.549438,0,0,0,0,0,0,0,-1,678,946,-72.4727,-0.549428
-539,78,-72.4183,0.590637,0,0,0,0,0,0,0,-1,685,946,-72.4183,-0.590633
-532,78,-72.4738,0.447388,0,0,0,0,0,0,0,-1,692,946,-72.4738,-0.447377
-525,78,-72.4651,0.455017,0,0,0,0,0,0,0,-1,699,946,-72.4652,-0.455003
-518,78,-72.4155,0.587219,0,0,0,0,0,0,0,-1,706,946,-72.4155,-0.587229
-511,78,0,0,0,0,0,0,0,0,0,-1,713,946,0,0
-504,78,0,0,0,0,0,0,0,0,0,-1,720,946,0,0
-497,78,0,0,0,0,0,0,0,0,0,-1,727,946,0,0
-490,78,0,0,0,0,0,0,0,0,0,-1,734,946,0,0
-483,78,0,0,0,0,0,0,0,0,0,-1,741,946,0,0
-476,78,0,0,0,0,0,0,0,0,0,-1,748,946,0,0
-469,78,0,0,0,0,0,0,0,0,0,-1,755,946,0,0
-462,78,0,0,0,0,0,0,0,0,0,-1,762,946,0,0
-455,78,0,0,0,0,0,0,0,0,0,-1,769,946,0,0
-448,78,0,0,0,0,0,0,0,0,0,-1,776,946,0,0
-441,78,0,0,0,0,0,0,0,0,0,-1,783,946,0,0
-434,78,0,0,0,0,0,0,0,0,0,-1,790,946,0,0
-427,78,0,0,0,0,0,0,0,0,0,-1,797,946,0,0
-420,78,0,0,0,0,0,0,0,0,0,-1,804,946,0,0
-413,78,0,0,0,0,0,0,0,0,0,-1,811,946,0,0
-406,78,0,0,0,0,0,0,0,0,0,-1,818,946,0,0
-399,78,0,0,0,0,0,0,0,0,0,-1,825,946,0,0
-392,78,0,0,0,0,0,0,0,0,0,-1,832,946,0,0
-385,78,0,0,0,0,0,0,0,0,0,-1,839,946,0,0
-378,78,0,0,0,0,0,0,0,0,0,-1,846,946,0,0
-371,78,0,0,0,0,0,0,0,0,0,-1,853,946,0,0
-364,78,0,0,0,0,0,0,0,0,0,-1,860,946,0,0
-357,78,0,0,0,0,0,0,0,0,0,-1,867,946,0,0
-350,78,0,0,0,0,0,0,0,0,0,-1,874,946,0,0
-343,78,0,0,0,0,0,0,0,0,0,-1,881,946,0,0
-336,78,0,0,0,0,0,0,0,0,0,-1,888,946,0,0
-329,78,0,0,0,0,0,0,0,0,0,-1,895,946,0,0
-322,78,0,0,0,0,0,0,0,0,0,-1,902,946,0,0
-315,78,0,0,0,0,0,0,0,0,0,-1,909,946,0,0
-308,78,0,0,0,0,0,0,0,0,0,-1,916,946,0,0
-301,78,0,0,0,0,0,0,0,0,0,-1,923,946,0,0
-294,78,0,0,0,0,0,0,0,0,0,-1,930,946,0,0
-287,78,0,0,0,0,0,0,0,0,0,-1,937,946,0,0
-280,78,0,0,0,0,0,0,0,0,0,-1,944,946,0,0
-273,78,0,0,0,0,0,0,0,0,0,-1,951,946,0,0
-266,78,0,0,0,0,0,0,0,0,0,-1,958,946,0,0
-259,78,0,0,0,0,0,0,0,0,0,-1,965,946,0,0
-252,78,0,0,0,0,0,0,0,0,0,-1,972,946,0,0
-245,78,0,0,0,0,0,0,0,0,0,-1,979,946,0,0
-238,78,0,0,0,0,0,0,0,0,0,-1,986,946,0,0
-231,78,0,0,0,0,0,0,0,0,0,-1,993,946,0,0
-224,78,0,0,0,0,0,0,0,0,0,-1,1000,946,0,0
-217,78,0,0,0,0,0,0,0,0,0,-1,1007,946,0,0
-210,78,0,0,0,0,0,0,0,0,0,-1,1014,946,0,0
-203,78,0,0,0,0,0,0,0,0,0,-1,1021,946,0,0
-196,78,0,0,0,0,0,0,0,0,0,-1,1028,946,0,0
-189,78,0,0,0,0,0,0,0,0,0,-1,1035,946,0,0
-182,78,0,0,0,0,0,0,0,0,0,-1,1042,946,0,0
-175,78,0,0,0,0,0,0,0,0,0,-1,1049,946,0,0
-168,78,0,0,0,0,0,0,0,0,0,-1,1056,946,0,0
-161,78,0,0,0,0,0,0,0,0,0,-1,1063,946,0,0
-154,78,0,0,0,0,0,0,0,0,0,-1,1070,946,0,0
-147,78,0,0,0,0,0,0,0,0,0,-1,1077,946,0,0
-140,78,0,0,0,0,0,0,0,0,0,-1,1084,946,0,0
-133,78,0,0,0,0,0,0,0,0,0,-1,1091,946,0,0
-126,78,0,0,0,0,0,0,0,0,0,-1,1098,946,0,0
-119,78,0,0,0,0,0,0,0,0,0,-1,1105,946,0,0
-112,78,0,0,0,0,0,0,0,0,0,-1,1112,946,0,0
-105,78,0,0,0,0,0,0,0,0,0,-1,1119,946,0,0
-98,78,0,0,0,0,0,0,0,0,0,-1,1126,946,0,0
-91,78,0,0,0,0,0,0,0,0,0,-1,1133,946,0,0
-84,78,0,0,0,0,0,0,0,0,0,-1,1140,946,0,0
-77,78,0,0,0,0,0,0,0,0,0,-1,1147,946,0,0
-70,78,0,0,0,0,0,0,0,0,0,-1,1154,946,0,0
-63,78,0,0,0,0,0,0,0,0,0,-1,1161,946,0,0
-56,78,0,0,0,0,0,0,0,0,0,-1,1168,946,0,0
-49,78,0,0,0,0,0,0,0,0,0,-1,1175,946,0,0
-42,78,0,0,0,0,0,0,0,0,0,-1,1182,946,0,0
-35,78,0,0,0,0,0,0,0,0,0,-1,1189,946,0,0
-28,78,0,0,0,0,0,0,0,0,0,-1,1196,946,0,0
-21,78,0,0,0,0,0,0,0,0,0,-1,1203,946,0,0
-14,78,0,0,0,0,0,0,0,0,0,-1,1210,946,0,0
-7,78,0,0,0,0,0,0,0,0,0,-1,1217,946,0,0
0,78,0,0,0,0,0,0,0,0,0,-1,1224,946,0,0
7,78,0,0,0,0,0,0,0,0,0,-1,1231,946,0,0
14,78,0,0,0,0,0,0,0,0,0,-1,1238,946,0,0
21,78,0,0,0,0,0,0,0,0,0,-1,1245,946,0,0
28,78,0,0,0,0,0,0,0,0,0,-1,1252,946,0,0
35,78,0,0,0,0,0,0,0,0,0,-1,1259,946,0,0
42,78,0,0,0,0,0,0,0,0,0,-1,1266,946,0,0
49,78,0,0,0,0,0,0,0,0,0,-1,1273,946,0,0
56,78,0,0,0,0,0,0,0,0,0,-1,1280,946,0,0
63,78,0,0,0,0,0,0,0,0,0,-1,1287,946,0,0
70,78,0,0,0,0,0,0,0,0,0,-1,1294,946,0,0
77,78,0,0,0,0,0,0,0,0,0,-1,1301,946,0,0
84,78,0,0,0,0,0,0,0,0,0,-1,1308,946,0,0
91,78,0,0,0,0,0,0,0,0,0,-1,1315,946,0,0
98,78,0,0,0,0,0,0,0,0,0,-1,1322,946,0,0
105,78,0,0,0,0,0,0,0,0,0,-1,1329,946,0,0
112,78,0,0,0,0,0,0,0,0,0,-1,1336,946,0,0
119,78,0,0,0,0,0,0,0,0,0,-1,1343,946,0,0
126,78,0,0,0,0,0,0,0,0,0,-1,1350,946,0,0
133,78,0,0,0,0,0,0,0,0,0,-1,1357,946,0,0
140,78,0,0,0,0,0,0,0,0,0,-1,1364,946,0,0
147,78,0,0,0,0,0,0,0,0,0,-1,1371,946,0,0
154,78,0,0,0,0,0,0,0,0,0,-1,1378,946,0,0
161,78,0,0,0,0,0,0,0,0,0,-1,1385,946,0,0
168,78,0,0,0,0,0,0,0,0,0,-1,1392,946,0,0
175,78,0,0,0,0,0,0,0,0,0,-1,1399,946,0,0
182,78,0,0,0,0,0,0,0,0,0,-1,1406,946,0,0
189,78,0,0,0,0,0,0,0,0,0,-1,1413,946,0,0
196,78,0,0,0,0,0,0,0,0,0,-1,1420,946,0,0
203,78,0,0,0,0,0,0,0,0,0,-1,1427,946,0,0
210,78,0,0,0,0,0,0,0,0,0,-1,1434,946,0,0
217,78,0,0,0,0,0,0,0,0,0,-1,1441,946,0,0
224,78,0,0,0,0,0,0,0,0,0,-1,1448,946,0,0
231,78,0,0,0,0,0,0,0,0,0,-1,1455,946,0,0
238,78,0,0,0,0,0,0,0,0,0,-1,1462,946,0,0
245,78,0,0,0,0,0,0,0,0,0,-1,1469,946,0,0
252,78,0,0,0,0,0,0,0,0,0,-1,1476,946,0,0
259,78,0,0,0,0,0,0,0,0,0,-1,1483,946,0,0
266,78,0,0,0,0,0,0,0,0,0,-1,1490,946,0,0
273,78,0,0,0,0,0,0,0,0,0,-1,1497,946,0,0
280,78,0,0,0,0,0,0,0,0,0,-1,1504,946,0,0
287,78,0,0,0,0,0,0,0,0,0,-1,1511,946,0,0
294,78,0,0,0,0,0,0,0,0,0,-1,1518,946,0,0
301,78,0,0,0,0,0,0,0,0,0,-1,1525,946,0,0
308,78,0,0,0,0,0,0,0,0,0,-1,1532,946,0,0
315,78,0,0,0,0,0,0,0,0,0,-1,1539,946,0,0
322,78,0,0,0,0,0,0,0,0,0,-1,1546,946,0,0
329,78,0,0,0,0,0,0,0,0,0,-1,1553,946,0,0
336,78,0,0,0,0,0,0,0,0,0,-1,1560,946,0,0
343,78,0,0,0,0,0,0,0,0,0,-1,1567,946,0,0
350,78,0,0,0,0,0,0,0,0,0,-1,1574,946,0,0
357,78,0,0,0,0,0,0,0,0,0,-1,1581,946,0,0
364,78,0,0,0,0,0,0,0,0,0,-1,1588,946,0,0
371,78,0,0,0,0,0,0,0,0,0,-1,1595,946,0,0
378,78,0,0,0,0,0,0,0,0,0,-1,1602,946,0,0
385,78,0,0,0,0,0,0,0,0,0,-1,1609,946,0,0
392,78,0,0,0,0,0,0,0,0,0,-1,1616,946,0,0
399,78,0,0,0,0,0,0,0,0,0,-1,1623,946,0,0
406,78,0,0,0,0,0,0,0,0,0,-1,1630,946,0,0
413,78,0,0,0,0,0,0,0,0,0,-1,1637,946,0,0
420,78,0,0,0,0,0,0,0,0,0,-1,1644,946,0,0
427,78,0,0,0,0,0,0,0,0,0,-1,1651,946,0,0
434,78,0,0,0,0,0,0,0,0,0,-1,1658,946,0,0
441,78,0,0,0,0,0,0,0,0,0,-1,1665,946,0,0
448,78,0,0,0,0,0,0,0,0,0,-1,1672,946,0,0
455,78,0,0,0,0,0,0,0,0,0,-1,1679,946,0,0
462,78,0,0,0,0,0,0,0,0,0,-1,1686,946,0,0
469,78,0,0,0,0,0,0,0,0,0,-1,1693,946,0,0
476,78,0,0,0,0,0,0,0,0,0,-1,1700,946,0,0
483,78,0,0,0,0,0,0,0,0,0,-1,1707,946,0,0
490,78,0,0,0,0,0,0,0,0,0,-1,1714,946,0,0
497,78,0,0,0,0,0,0,0,0,0,-1,1721,946,0,0
504,78,0,0,0,0,0,0,0,0,0,-1,1728,946,0,0
511,78,0,0,0,0,0,0,0,0,0,-1,1735,946,0,0
518,78,0,0,0,0,0,0,0,0,0,-1,1742,946,0,0
525,78,0,0,0,0,0,0,0,0,0,-1,1749,946,0,0
532,78,0,0,0,0,0,0,0,0,0,-1,1756,946,0,0
539,78,0,0,0,0,0,0,0,0,0,-1,1763,946,0,0
546,78,0,0,0,0,0,0,0,0,0,-1,1770,946,0,0
553,78,0,0,0,0,0,0,0,0,0,-1,1777,946,0,0
560,78,0,0,0,0,0,0,0,0,0,-1,1784,946,0,0
567,78,0,0,0,0,0,0,0,0,0,-1,1791,946,0,0
574,78,0,0,0,0,0,0,0,0,0,-1,1798,946,0,0
581,78,0,0,0,0,0,0,0,0,0,-1,1805,946,0,0
588,78,0,0,0,0,0,0,0,0,0,-1,1812,946,0,0
595,78,0,0,0,0,0,0,0,0,0,-1,1819,946,0,0
602,78,0,0,0,0,0,0,0,0,0,-1,1826,946,0,0
609,78,0,0,0,0,0,0,0,0,0,-1,1833,946,0,0
616,78,0,0,0,0,0,0,0,0,0,-1,1840,946,0,0
623,78,0,0,0,0,0,0,0,0,0,-1,1847,946,0,0
630,78,0,0,0,0,0,0,0,0,0,-1,1854,946,0,0
637,78,214.958,8.7569,0,0,0,0,0,0,0,-1,1861,946,214.958,-8.75691
644,78,214.697,8.93793,0,0,0,0,0,0,0,-1,1868,946,214.697,-8.9379
651,78,214.578,9.09601,0,0,0,0,0,0,0,-1,1875,946,214.578,-9.096
658,78,215.042,8.62317,0,0,0,0,0,0,0,-1,1882,946,215.042,-8.62319
665,78,214.888,8.66071,0,0,0,0,0,0,0,-1,1889,946,214.888,-8.66073
672,78,215.004,8.7359,0,0,0,0,0,0,0,-1,1896,946,215.004,-8.73589
679,78,214.918,8.74615,0,0,0,0,0,0,0,-1,1903,946,214.918,-8.74617
686,78,214.953,8.61877,0,0,0,0,0,0,0,-1,1910,946,214.953,-8.61878
693,78,214.999,8.56915,0,0,0,0,0,0,0,-1,1917,946,214.999,-8.56917
700,78,215.081,8.61371,0,0,0,0,0,0,0,-1,1924,946,215.081,-8.61369
707,78,215.031,8.72235,0,0,0,0,0,0,0,-1,1931,946,215.032,-8.72236
714,78,209.163,28.7344,0,0,0,0,0,0,0,-1,1938,946,209.162,-28.7344
721,78,208.627,29.9373,0,0,0,0,0,0,0,-1,1945,946,208.627,-29.9373
728,78,208.091,31.1402,0,0,0,0,0,0,0,-1,1952,946,208.091,-31.1402
735,78,208.406,32.1966,-0.00864476,0.01244,-0.00275419,0.0127938,-0.00899859,-1.44303,0.0126453,0.0455741,1959,946,208.406,-32.1966
742,78,208.263,33.0704,-0.0120479,0.0185365,-0.00419823,0.0191023,-0.0126137,-1.43683,0.0184386,0.0365513,1966,946,208.263,-33.0704
749,78,207.941,34.0856,-0.015765,0.024291,-0.00521499,0.0249588,-0.0164328,-1.44343,0.0240659,0.0215434,1973,946,207.941,-34.0856
756,78,207.744,34.9818,-0.0196217,0.029539,-0.00592146,0.0302422,-0.0203249,-1.4526,0.0293815,0.020229,1980,946,207.744,-34.9818
763,78,207.527,35.9059,-0.023691,0.0341519,-0.00626463,0.0348226,-0.0243618,-1.46414,0.0343475,0.026054,1987,946,207.527,-35.9059
770,78,207.218,36.8389,-0.0281075,0.0380317,-0.00611245,0.0385918,-0.0286677,-1.47941,0.038973,0.0338859,1994,946,207.218,-36.8389
777,78,206.756,37.6725,0,0,0,0,0,0,0,-1,2001,946,206.756,-37.6726
784,78,207.532,37.2321,0,0,0,0,0,0,0,-1,2008,946,207.532,-37.232
791,78,175.01,38.6979,0,0,0,0,0,0,0,-1,2015,946,175.01,-38.6979
798,78,70.8296,7.99933,0,0,0,0,0,0,0,-1,2022,946,70.8295,-7.99931
805,78,68.5852,7.34106,0,0,0,0,0,0,0,-1,2029,946,68.5853,-7.34105
812,78,0,0,0,0,0,0,0,0,0,-1,2036,946,0,0
-700,71,0,0,0,0,0,0,0,0,0,-1,524,953,0,0
-693,71,0,0,0,0,0,0,0,0,0,-1,531,953,0,0
-686,71,-71.189,-2.98248,0,0,0,0,0,0,0,-1,538,953,-71.189,2.98245
-679,71,-70.2738,-2.17017,0,0,0,0,0,0,0,-1,545,953,-70.2738,2.17015
-672,71,-69.1418,-1.21301,0,0,0,0,0,0,0,-1,552,953,-69.1418,1.21302
-665,71,-68.7411,12.514,0,0,0,0,0,0,0,-1,559,953,-68.7411,-12.514
-658,71,-68.6742,12.8325,0,0,0,0,0,0,0,-1,566,953,-68.6741,-12.8325
-651,71,-162.769,34.3455,0,0,0,0,0,0,0,-1,573,953,-162.769,-34.3455
-644,71,-201.257,36.9924,0,0,0,0,0,0,0,-1,580,953,-201.257,-36.9924
-637,71,-200.528,36.2759,0,0,0,0,0,0,0,-1,587,953,-200.528,-36.2759
-630,71,-200.61,35.5233,-0.00136782,0.0388205,0.00914096,0.0408019,-0.00334927,1.35733,0.0283837,0.0251914,594,953,-200.61,-35.5233
-623,71,-200.665,34.6686,-0.00198436,0.0320288,0.00745602,0.0335915,-0.003547,1.36421,0.0236654,0.0175942,601,953,-200.665,-34.6687
-616,71,-200.806,33.6704,-0.00185167,0.0251764,0.0055804,0.0262832,-0.00295852,1.37499,0.018587,0.018017,608,953,-200.807,-33.6704
-609,71,-200.891,32.7133,-0.00107925,0.0183135,0.0035465,0.0189417,-0.00170747,1.39548,0.0132337,0.0192586,615,953,-200.891,-32.7132
-602,71,-200.948,31.8243,0.000241715,0.0114872,0.00138004,0.0116541,7.48355e-05,1.45046,0.00774459,0.0196199,622,953,-200.948,-31.8243
-595,71,-201.011,30.9192,0.00203656,0.00474185,-0.000899573,0.00501367,0.00176474,-1.27736,0.00293662,0.0223462,629,953,-201.011,-30.9192
-588,71,-201.043,30.0092,0.00549743,-0.00212367,-0.0037605,0.00704054,-0.00366678,-0.389394,0.00628333,0.0273958,636,953,-201.043,-30.0092
-581,71,-200.92,28.9309,0,0,0,0,0,0,0,-1,643,953,-200.92,-28.9309
-574,71,-72.4724,0.236389,0,0,0,0,0,0,0,-1,650,953,-72.4724,-0.236367
-567,71,-72.4236,0.345825,0,0,0,0,0,0,0,-1,657,953,-72.4236,-0.345807
-560,71,-72.4896,0.420471,0,0,0,0,0,0,0,-1,664,953,-72.4896,-0.420502
-553,71,-72.5439,0.572449,0,0,0,0,0,0,0,-1,671,953,-72.5439,-0.572455
-546,71,-72.5021,0.74353,0,0,0,0,0,0,0,-1,678,953,-72.5022,-0.743537
-539,71,-72.4401,0.409424,0,0,0,0,0,0,0,-1,685,953,-72.4401,-0.409447
-532,71,-72.476,0.163879,0,0,0,0,0,0,0,-1,692,953,-72.4759,-0.163905
-525,71,-72.3993,0.277771,0,0,0,0,0,0,0,-1,699,953,-72.3993,-0.277776
-518,71,0,0,0,0,0,0,0,0,0,-1,706,953,0,0
-511,71,0,0,0,0,0,0,0,0,0,-1,713,953,0,0
-504,71,0,0,0,0,0,0,0,0,0,-1,720,953,0,0
-497,71,0,0,0,0,0,0,0,0,0,-1,727,953,0,0
-490,71,0,0,0,0,0,0,0,0,0,-1,734,953,0,0
-483,71,0,0,0,0,0,0,0,0,0,-1,741,953,0,0
-476,71,0,0,0,0,0,0,0,0,0,-1,748,953,0,0
-469,71,0,0,0,0,0,0,0,0,0,-1,755,953,0,0
-462,71,0,0,0,0,0,0,0,0,0,-1,762,953,0,0
-455,71,0,0,0,0,0,0,0,0,0,-1,769,953,0,0
-448,71,0,0,0,0,0,0,0,0,0,-1,776,953,0,0
-441,71,0,0,0,0,0,0,0,0,0,-1,783,953,0,0
-434,71,0,0,0,0,0,0,0,0,0,-1,790,953,0,0
-427,71,0,0,0,0,0,0,0,0,0,-1,797,953,0,0
-420,71,0,0,0,0,0,0,0,0,0,-1,804,953,0,0
-413,71,0,0,0,0,0,0,0,0,0,-1,811,953,0,0
-406,71,0,0,0,0,0,0,0,0,0,-1,818,953,0,0
-399,71,0,0,0,0,0,0,0,0,0,-1,825,953,0,0
-392,71,0,0,0,0,0,0,0,0,0,-1,832,953,0,0
-385,71,0,0,0,0,0,0,0,0,0,-1,839,953,0,0
-378,71,0,0,0,0,0,0,0,0,0,-1,846,953,0,0
-371,71,0,0,0,0,0,0,0,0,0,-1,853,953,0,0
-364,71,0,0,0,0,0,0,0,0,0,-1,860,953,0,0
-357,71,0,0,0,0,0,0,0,0,0,-1,867,953,0,0
-350,71,0,0,0,0,0,0,0,0,0,-1,874,953,0,0
-343,71,0,0,0,0,0,0,0,0,0,-1,881,953,0,0
-336,71,0,0,0,0,0,0,0,0,0,-1,888,953,0,0
-329,71,0,0,0,0,0,0,0,0,0,-1,895,953,0,0
-322,71,0,0,0,0,0,0,0,0,0,-1,902,953,0,0
-315,71,0,0,0,0,0,0,0,0,0,-1,909,953,0,0
-308,71,0,0,0,0,0,0,0,0,0,-1,916,953,0,0
-301,71,0,0,0,0,0,0,0,0,0,-1,923,953,0,0
-294,71,0,0,0,0,0,0,0,0,0,-1,930,953,0,0
-287,71,0,0,0,0,0,0,0,0,0,-1,937,953,0,0
-280,71,0,0,0,0,0,0,0,0,0,-1,944,953,0,0
-273,71,0,0,0,0,0,0,0,0,0,-1,951,953,0,0
-266,71,0,0,0,0,0,0,0,0,0,-1,958,953,0,0
-259,71,0,0,0,0,0,0,0,0,0,-1,965,953,0,0
-252,71,0,0,0,0,0,0,0,0,0,-1,972,953,0,0
-245,71,0,0,0,0,0,0,0,0,0,-1,979,953,0,0
-238,71,0,0,0,0,0,0,0,0,0,-1,986,953,0,0
-231,71,0,0,0,0,0,0,0,0,0,-1,993,953,0,0
-224,71,0,0,0,0,0,0,0,0,0,-1,1000,953,0,0
-217,71,0,0,0,0,0,0,0,0,0,-1,1007,953,0,0
-210,71,0,0,0,0,0,0,0,0,0,-1,1014,953,0,0
-203,71,0,0,0,0,0,0,0,0,0,-1,1021,953,0,0
-196,71,0,0,0,0,0,0,0,0,0,-1,1028,953,0,0
-189,71,0,0,0,0,0,0,0,0,0,-1,1035,953,0,0
-182,71,0,0,0,0,0,0,0,0,0,-1,1042,953,0,0
-175,71,0,0,0,0,0,0,0,0,0,-1,1049,953,0,0
-168,71,0,0,0,0,0,0,0,0,0,-1,1056,953,0,0
-161,71,0,0,0,0,0,0,0,0,0,-1,1063,953,0,0
-154,71,0,0,0,0,0,0,0,0,0,-1,1070,953,0,0
-147,71,0,0,0,0,0,0,0,0,0,-1,1077,953,0,0
-140,71,0,0,0,0,0,0,0,0,0,-1,1084,953,0,0
-133,71,0,0,0,0,0,0,0,0,0,-1,1091,953,0,0
-126,71,0,0,0,0,0,0,0,0,0,-1,1098,953,0,0
-119,71,0,0,0,0,0,0,0,0,0,-1,1105,953,0,0
-112,71,0,0,0,0,0,0,0,0,0,-1,1112,953,0,0
-105,71,0,0,0,0,0,0,0,0,0,-1,1119,953,0,0
-98,71,0,0,0,0,0,0,0,0,0,-1,1126,953,0,0
-91,71,0,0,0,0,0,0,0,0,0,-1,1133,953,0,0
-84,71,0,0,0,0,0,0,0,0,0,-1,1140,953,0,0
-77,71,0,0,0,0,0,0,0,0,0,-1,1147,953,0,0
-70,71,0,0,0,0,0,0,0,0,0,-1,1154,953,0,0
-63,71,0,0,0,0,0,0,0,0,0,-1,1161,953,0,0
-56,71,0,0,0,0,0,0,0,0,0,-1,1168,953,0,0
-49,71,0,0,0,0,0,0,0,0,0,-1,1175,953,0,0
-42,71,0,0,0,0,0,0,0,0,0,-1,1182,953,0,0
-35,71,0,0,0,0,0,0,0,0,0,-1,1189,953,0,0
-28,71,0,0,0,0,0,0,0,0,0,-1,1196,953,0,0
-21,71,0,0,0,0,0,0,0,0,0,-1,1203,953,0,0
-14,71,0,0,0,0,0,0,0,0,0,-1,1210,953,0,0
-7,71,0,0,0,0,0,0,0,0,0,-1,1217,953,0,0
0,71,0,0,0,0,0,0,0,0,0,-1,1224,953,0,0
7,71,0,0,0,0,0,0,0,0,0,-1,1231,953,0,0
14,71,0,0,0,0,0,0,0,0,0,-1,1238,953,0,0
21,71,0,0,0,0,0,0,0,0,0,-1,1245,953,0,0
28,71,0,0,0,0,0,0,0,0,0,-1,1252,953,0,0
35,71,0,0,0,0,0,0,0,0,0,-1,1259,953,0,0
42,71,0,0,0,0,0,0,0,0,0,-1,1266,953,0,0
49,71,0,0,0,0,0,0,0,0,0,-1,1273,953,0,0
56,71,0,0,0,0,0,0,0,0,0,-1,1280,953,0,0
63,71,0,0,0,0,0,0,0,0,0,-1,1287,953,0,0
70,71,0,0,0,0,0,0,0,0,0,-1,1294,953,0,0
77,71,0,0,0,0,0,0,0,0,0,-1,1301,953,0,0
84,71,0,0,0,0,0,0,0,0,0,-1,1308,953,0,0
91,71,0,0,0,0,0,0,0,0,0,-1,1315,953,0,0
98,71,0,0,0,0,0,0,0,0,0,-1,1322,953,0,0
105,71,0,0,0,0,0,0,0,0,0,-1,1329,953,0,0
112,71,0,0,0,0,0,0,0,0,0,-1,1336,953,0,0
119,71,0,0,0,0,0,0,0,0,0,-1,1343,953,0,0
126,71,0,0,0,0,0,0,0,0,0,-1,1350,953,0,0
133,71,0,0,0,0,0,0,0,0,0,-1,1357,953,0,0
140,71,0,0,0,0,0,0,0,0,0,-1,1364,953,0,0
147,71,0,0,0,0,0,0,0,0,0,-1,1371,953,0,0
154,71,0,0,0,0,0,0,0,0,0,-1,1378,953,0,0
161,71,0,0,0,0,0,0,0,0,0,-1,1385,953,0,0
168,71,0,0,0,0,0,0,0,0,0,-1,1392,953,0,0
175,71,0,0,0,0,0,0,0,0,0,-1,1399,953,0,0
182,71,0,0,0,0,0,0,0,0,0,-1,1406,953,0,0
189,71,0,0,0,0,0,0,0,0,0,-1,1413,953,0,0
196,71,0,0,0,0,0,0,0,0,0,-1,1420,953,0,0
203,71,0,0,0,0,0,0,0,0,0,-1,1427,953,0,0
210,71,0,0,0,0,0,0,0,0,0,-1,1434,953,0,0
217,71,0,0,0,0,0,0,0,0,0,-1,1441,953,0,0
224,71,0,0,0,0,0,0,0,0,0,-1,1448,953,0,0
231,71,0,0,0,0,0,0,0,0,0,-1,1455,953,0,0
238,71,0,0,0,0,0,0,0,0,0,-1,1462,953,0,0
245,71,0,0,0,0,0,0,0,0,0,-1,1469,953,0,0
252,71,0,0,0,0,0,0,0,0,0,-1,1476,953,0,0
259,71,0,0,0,0,0,0,0,0,0,-1,1483,953,0,0
266,71,0,0,0,0,0,0,0,0,0,-1,1490,953,0,0
273,71,0,0,0,0,0,0,0,0,0,-1,1497,953,0,0
280,71,0,0,0,0,0,0,0,0,0,-1,1504,953,0,0
287,71,0,0,0,0,0,0,0,0,0,-1,1511,953,0,0
294,71,0,0,0,0,0,0,0,0,0,-1,1518,953,0,0
301,71,0,0,0,0,0,0,0,0,0,-1,1525,953,0,0
308,71,0,0,0,0,0,0,0,0,0,-1,1532,953,0,0
315,71,0,0,0,0,0,0,0,0,0,-1,1539,953,0,0
322,71,0,0,0,0,0,0,0,0,0,-1,1546,953,0,0
329,71,0,0,0,0,0,0,0,0,0,-1,1553,953,0,0
336,71,0,0,0,0,0,0,0,0,0,-1,1560,953,0,0
343,71,0,0,0,0,0,0,0,0,0,-1,1567,953,0,0
350,71,0,0,0,0,0,0,0,0,0,-1,1574,953,0,0
357,71,0,0,0,0,0,0,0,0,0,-1,1581,953,0,0
364,71,0,0,0,0,0,0,0,0,0,-1,1588,953,0,0
371,71,0,0,0,0,0,0,0,0,0,-1,1595,953,0,0
378,71,0,0,0,0,0,0,0,0,0,-1,1602,953,0,0
385,71,0,0,0,0,0,0,0,0,0,-1,1609,953,0,0
392,71,0,0,0,0,0,0,0,0,0,-1,1616,953,0,0
399,71,0,0,0,0,0,0,0,0,0,-1,1623,953,0,0
406,71,0,0,0,0,0,0,0,0,0,-1,1630,953,0,0
413,71,0,0,0,0,0,0,0,0,0,-1,1637,953,0,0
420,71,0,0,0,0,0,0,0,0,0,-1,1644,953,0,0
427,71,0,0,0,0,0,0,0,0,0,-1,1651,953,0,0
434,71,0,0,0,0,0,0,0,0,0,-1,1658,953,0,0
441,71,0,0,0,0,0,0,0,0,0,-1,1665,953,0,0
448,71,0,0,0,0,0,0,0,0,0,-1,1672,953,0,0
455,71,0,0,0,0,0,0,0,0,0,-1,1679,953,0,0
462,71,0,0,0,0,0,0,0,0,0,-1,1686,953,0,0
469,71,0,0,0,0,0,0,0,0,0,-1,1693,953,0,0
476,71,0,0,0,0,0,0,0,0,0,-1,1700,953,0,0
483,71,0,0,0,0,0,0,0,0,0,-1,1707,953,0,0
490,71,0,0,0,0,0,0,0,0,0,-1,1714,953,0,0
497,71,0,0,0,0,0,0,0,0,0,-1,1721,953,0,0
504,71,0,0,0,0,0,0,0,0,0,-1,1728,953,0,0
511,71,0,0,0,0,0,0,0,0,0,-1,1735,953,0,0
518,71,0,0,0,0,0,0,0,0,0,-1,1742,953,0,0
525,71,0,0,0,0,0,0,0,0,0,-1,1749,953,0,0
532,71,0,0,0,0,0,0,0,0,0,-1,1756,953,0,0
539,71,0,0,0,0,0,0,0,0,0,-1,1763,953,0,0
546,71,0,0,0,0,0,0,0,0,0,-1,1770,953,0,0
553,71,0,0,0,0,0,0,0,0,0,-1,1777,953,0,0
560,71,0,0,0,0,0,0,0,0,0,-1,1784,953,0,0
567,71,0,0,0,0,0,0,0,0,0,-1,1791,953,0,0
574,71,0,0,0,0,0,0,0,0,0,-1,1798,953,0,0
581,71,0,0,0,0,0,0,0,0,0,-1,1805,953,0,0
588,71,0,0,0,0,0,0,0,0,0,-1,1812,953,0,0
595,71,0,0,0,0,0,0,0,0,0,-1,1819,953,0,0
602,71,0,0,0,0,0,0,0,0,0,-1,1826,953,0,0
609,71,0,0,0,0,0,0,0,0,0,-1,1833,953,0,0
616,71,0,0,0,0,0,0,0,0,0,-1,1840,953,0,0
623,71,0,0,0,0,0,0,0,0,0,-1,1847,953,0,0
630,71,0,0,0,0,0,0,0,0,0,-1,1854,953,0,0
637,71,214.941,8.57465,0,0,0,0,0,0,0,-1,1861,953,214.941,-8.57466
644,71,214.682,8.5553,0,0,0,0,0,0,0,-1,1868,953,214.682,-8.55527
651,71,214.812,8.57965,0,0,0,0,0,0,0,-1,1875,953,214.812,-8.57963
658,71,215.086,8.47656,0,0,0,0,0,0,0,-1,1882,953,215.086,-8.47659
665,71,215.162,8.55975,0,0,0,0,0,0,0,-1,1889,953,215.162,-8.55976
672,71,215.007,8.7818,0,0,0,0,0,0,0,-1,1896,953,215.007,-8.78179
679,71,214.928,8.80652,0,0,0,0,0,0,0,-1,1903,953,214.928,-8.80651
686,71,215.062,8.59662,0,0,0,0,0,0,0,-1,1910,953,215.061,-8.59661
693,71,215.094,8.46796,0,0,0,0,0,0,0,-1,1917,953,215.093,-8.46797
700,71,215.171,8.38837,0,0,0,0,0,0,0,-1,1924,953,215.171,-8.38836
707,71,215.134,8.46545,0,0,0,0,0,0,0,-1,1931,953,215.134,-8.46548
714,71,210.038,28.8775,0,0,0,0,0,0,0,-1,1938,953,210.038,-28.8775
721,71,209.578,30.0695,0,0,0,0,0,0,0,-1,1945,953,209.578,-30.0695
728,71,209.118,31.2615,0,0,0,0,0,0,0,-1,1952,953,209.118,-31.2615
735,71,209.239,32.3076,-0.00681023,0.0111887,-0.00224442,0.0114644,-0.00708589,-1.44859,0.010809,0.0363028,1959,953,209.239,-32.3076
742,71,209.192,33.1959,-0.0105855,0.0172838,-0.0037437,0.017778,-0.0110796,-1.43956,0.0168099,0.0374329,1966,953,209.192,-33.1959
749,71,208.996,34.0743,-0.0147143,0.0229984,-0.00475487,0.0235886,-0.0153045,-1.44729,0.0226241,0.0302183,1973,953,208.996,-34.0743
756,71,208.804,34.8417,-0.0189598,0.0281576,-0.00545041,0.0287799,-0.0195821,-1.45712,0.0280896,0.0251444,1980,953,208.804,-34.8417
763,71,208.627,35.744,-0.023399,0.0326393,-0.00577715,0.0332287,-0.0239884,-1.46913,0.0331776,0.0375109,1987,953,208.627,-35.7439
770,71,208.195,36.5614,-0.0281571,0.036347,-0.00562962,0.0368346,-0.0286448,-1.48439,0.037903,0.040301,1994,953,208.195,-36.5614
777,71,207.784,36.7778,0,0,0,0,0,0,0,-1,2001,953,207.784,-36.7777
784,71,208.259,37.1917,0,0,0,0,0,0,0,-1,2008,953,208.259,-37.1917
791,71,208.398,38.0868,0,0,0,0,0,0,0,-1,2015,953,208.398,-38.0868
798,71,176.074,39.0334,0,0,0,0,0,0,0,-1,2022,953,176.075,-39.0334
805,71,59.978,6.41992,0,0,0,0,0,0,0,-1,2029,953,59.9781,-6.41992
812,71,0,0,0,0,0,0,0,0,0,-1,2036,953,0,0
-700,64,0,0,0,0,0,0,0,0,0,-1,524,960,0,0
-693,64,0,0,0,0,0,0,0,0,0,-1,531,960,0,0
-686,64,-73.4523,4.74207,0,0,0,0,0,0,0,-1,538,960,-73.4523,-4.74207
-679,64,-81.7646,8.53833,0,0,0,0,0,0,0,-1,545,960,-81.7646,-8.53834
-672,64,-69.4809,11.0681,0,0,0,0,0,0,0,-1,552,960,-69.4809,-11.0681
-665,64,-69.2921,11.0865,0,0,0,0,0,0,0,-1,559,960,-69.2921,-11.0865
-658,64,-163.936,34.8105,0,0,0,0,0,0,0,-1,566,960,-163.936,-34.8106
-651,64,-202.615,37.3109,0,0,0,0,0,0,0,-1,573,960,-202.615,-37.3108
-644,64,-202.069,36.6431,0.00380664,0.0514837,0.0105374,0.0537088,0.00158153,1.36269,0.0352905,0.0480736,580,960,-202.069,-36.6431
-637,64,-201.501,36.0195,0.000226183,0.0443538,0.00975893,0.0464157,-0.00183569,1.36258,0.0315735,0.0297779,587,960,-201.501,-36.0195
-630,64,-201.561,35.3091,-0.00104431,0.0376348,0.00832491,0.0393505,-0.00275997,1.36755,0.0272004,0.019867,594,960,-201.561,-35.3091
-623,64,-201.67,34.5232,-0.00148884,0.030822,0.00666706,0.0321436,-0.00281047,1.3751,0.0224247,0.0174196,601,960,-201.67,-34.5232
-616,64,-201.764,33.6062,-0.00121677,0.0239702,0.00482292,0.0248621,-0.0021087,1.38793,0.0173205,0.0217998,608,960,-201.764,-33.6062
-609,64,-201.862,32.7248,-0.000320699,0.0171334,0.00282406,0.017579,-0.000766254,1.41431,0.0119829,0.0220602,615,960,-201.862,-32.7248
-602,64,-201.898,31.8863,0.00112341,0.0103646,0.000696101,0.0104168,0.00107127,1.49603,0.00661639,0.0210011,622,960,-201.898,-31.8863
-595,64,-201.992,31.0118,0.00305537,0.00371607,-0.00154087,0.00496161,0.00180984,-0.890995,0.0028993,0.0295154,629,960,-201.992,-31.0118
-588,64,-201.908,30.0539,0.00679213,-0.00300086,-0.00440479,0.00848183,-0.00469055,-0.366292,0.00770936,0.0427343,636,960,-201.908,-30.0539
-581,64,-201.652,28.9193,0,0,0,0,0,0,0,-1,643,960,-201.652,-28.9193
-574,64,-72.4006,0.371521,0,0,0,0,0,0,0,-1,650,960,-72.4006,-0.37155
-567,64,-72.3788,0.370911,0,0,0,0,0,0,0,-1,657,960,-72.3788,-0.370913
-560,64,-72.4356,0.388611,0,0,0,0,0,0,0,-1,664,960,-72.4356,-0.388604
-553,64,-72.4363,0.548584,0,0,0,0,0,0,0,-1,671,960,-72.4363,-0.5486
-546,64,-72.4562,0.710083,0,0,0,0,0,0,0,-1,678,960,-72.4563,-0.710067
-539,64,-72.674,0.512695,0,0,0,0,0,0,0,-1,685,960,-72.674,-0.512709
-532,64,-72.5784,0.511841,0,0,0,0,0,0,0,-1,692,960,-72.5783,-0.511854
-525,64,-72.2922,0.433228,0,0,0,0,0,0,0,-1,699,960,-72.2922,-0.433254
-518,64,0,0,0,0,0,0,0,0,0,-1,706,960,0,0
-511,64,0,0,0,0,0,0,0,0,0,-1,713,960,0,0
-504,64,0,0,0,0,0,0,0,0,0,-1,720,960,0,0
-497,64,0,0,0,0,0,0,0,0,0,-1,727,960,0,0
-490,64,0,0,0,0,0,0,0,0,0,-1,734,960,0,0
-483,64,0,0,0,0,0,0,0,0,0,-1,741,960,0,0
-476,64,0,0,0,0,0,0,0,0,0,-1,748,960,0,0
-469,64,0,0,0,0,0,0,0,0,0,-1,755,960,0,0
-462,64,0,0,0,0,0,0,0,0,0,-1,762,960,0,0
-455,64,0,0,0,0,0,0,0,0,0,-1,769,960,0,0
-448,64,0,0,0,0,0,0,0,0,0,-1,776,960,0,0
-441,64,0,0,0,0,0,0,0,0,0,-1,783,960,0,0
-434,64,0,0,0,0,0,0,0,0,0,-1,790,960,0,0
-427,64,0,0,0,0,0,0,0,0,0,-1,797,960,0,0
-420,64,0,0,0,0,0,0,0,0,0,-1,804,960,0,0
-413,64,0,0,0,0,0,0,0,0,0,-1,811,960,0,0
-406,64,0,0,0,0,0,0,0,0,0,-1,818,960,0,0
-399,64,0,0,0,0,0,0,0,0,0,-1,825,960,0,0
-392,64,0,0,0,0,0,0,0,0,0,-1,832,960,0,0
-385,64,0,0,0,0,0,0,0,0,0,-1,839,960,0,0
-378,64,0,0,0,0,0,0,0,0,0,-1,846,960,0,0
-371,64,0,0,0,0,0,0,0,0,0,-1,853,960,0,0
-364,64,0,0,0,0,0,0,0,0,0,-1,860,960,0,0
-357,64,0,0,0,0,0,0,0,0,0,-1,867,960,0,0
-350,64,0,0,0,0,0,0,0,0,0,-1,874,960,0,0
-343,64,0,0,0,0,0,0,0,0,0,-1,881,960,0,0
-336,64,0,0,0,0,0,0,0,0,0,-1,888,960,0,0
-329,64,0,0,0,0,0,0,0,0,0,-1,895,960,0,0
-322,64,0,0,0,0,0,0,0,0,0,-1,902,960,0,0
-315,64,0,0,0,0,0,0,0,0,0,-1,909,960,0,0
-308,64,0,0,0,0,0,0,0,0,0,-1,916,960,0,0
-301,64,0,0,0,0,0,0,0,0,0,-1,923,960,0,0
-294,64,0,0,0,0,0,0,0,0,0,-1,930,960,0,0
-287,64,0,0,0,0,0,0,0,0,0,-1,937,960,0,0
-280,64,0,0,0,0,0,0,0,0,0,-1,944,960,0,0
-273,64,0,0,0,0,0,0,0,0,0,-1,951,960,0,0
-266,64,0,0,0,0,0,0,0,0,0,-1,958,960,0,0
-259,64,0,0,0,0,0,0,0,0,0,-1,965,960,0,0
-252,64,0,0,0,0,0,0,0,0,0,-1,972,960,0,0
-245,64,0,0,0,0,0,0,0,0,0,-1,979,960,0,0
-238,64,0,0,0,0,0,0,0,0,0,-1,986,960,0,0
-231,64,0,0,0,0,0,0,0,0,0,-1,993,960,0,0
-224,64,0,0,0,0,0,0,0,0,0,-1,1000,960,0,0
-217,64,0,0,0,0,0,0,0,0,0,-1,1007,960,0,0
-210,64,0,0,0,0,0,0,0,0,0,-1,1014,960,0,0
-203,64,0,0,0,0,0,0,0,0,0,-1,1021,960,0,0
-196,64,0,0,0,0,0,0,0,0,0,-1,1028,960,0,0
-189,64,0,0,0,0,0,0,0,0,0,-1,1035,960,0,0
-182,64,0,0,0,0,0,0,0,0,0,-1,1042,960,0,0
-175,64,0,0,0,0,0,0,0,0,0,-1,1049,960,0,0
-168,64,0,0,0,0,0,0,0,0,0,-1,1056,960,0,0
-161,64,0,0,0,0,0,0,0,0,0,-1,1063,960,0,0
-154,64,0,0,0,0,0,0,0,0,0,-1,1070,960,0,0
-147,64,0,0,0,0,0,0,0,0,0,-1,1077,960,0,0
-140,64,0,0,0,0,0,0,0,0,0,-1,1084,960,0,0
-133,64,0,0,0,0,0,0,0,0,0,-1,1091,960,0,0
-126,64,0,0,0,0,0,0,0,0,0,-1,1098,960,0,0
-119,64,0,0,0,0,0,0,0,0,0,-1,1105,960,0,0
-112,64,0,0,0,0,0,0,0,0,0,-1,1112,960,0,0
-105,64,0,0,0,0,0,0,0,0,0,-1,1119,960,0,0
-98,64,0,0,0,0,0,0,0,0,0,-1,1126,960,0,0
-91,64,0,0,0,0,0,0,0,0,0,-1,1133,960,0,0
-84,64,0,0,0,0,0,0,0,0,0,-1,1140,960,0,0
-77,64,0,0,0,0,0,0,0,0,0,-1,1147,960,0,0
-70,64,0,0,0,0,0,0,0,0,0,-1,1154,960,0,0
-63,64,0,0,0,0,0,0,0,0,0,-1,1161,960,0,0
-56,64,0,0,0,0,0,0,0,0,0,-1,1168,960,0,0
-49,64,0,0,0,0,0,0,0,0,0,-1,1175,960,0,0
-42,64,0,0,0,0,0,0,0,0,0,-1,1182,960,0,0
-35,64,0,0,0,0,0,0,0,0,0,-1,1189,960,0,0
-28,64,0,0,0,0,0,0,0,0,0,-1,1196,960,0,0
-21,64,0,0,0,0,0,0,0,0,0,-1,1203,960,0,0
-14,64,0,0,0,0,0,0,0,0,0,-1,1210,960,0,0
-7,64,0,0,0,0,0,0,0,0,0,-1,1217,960,0,0
0,64,0,0,0,0,0,0,0,0,0,-1,1224,960,0,0
7,64,0,0,0,0,0,0,0,0,0,-1,1231,960,0,0
14,64,0,0,0,0,0,0,0,0,0,-1,1238,960,0,0
21,64,0,0,0,0,0,0,0,0,0,-1,1245,960,0,0
28,64,0,0,0,0,0,0,0,0,0,-1,1252,960,0,0
35,64,0,0,0,0,0,0,0,0,0,-1,1259,960,0,0
42,64,0,0,0,0,0,0,0,0,0,-1,1266,960,0,0
49,64,0,0,0,0,0,0,0,0,0,-1,1273,960,0,0
56,64,0,0,0,0,0,0,0,0,0,-1,1280,960,0,0
63,64,0,0,0,0,0,0,0,0,0,-1,1287,960,0,0
70,64,0,0,0,0,0,0,0,0,0,-1,1294,960,0,0
77,64,0,0,0,0,0,0,0,0,0,-1,1301,960,0,0
84,64,0,0,0,0,0,0,0,0,0,-1,1308,960,0,0
91,64,0,0,0,0,0,0,0,0,0,-1,1315,960,0,0
98,64,0,0,0,0,0,0,0,0,0,-1,1322,960,0,0
105,64,0,0,0,0,0,0,0,0,0,-1,1329,960,0,0
112,64,0,0,0,0,0,0,0,0,0,-1,1336,960,0,0
119,64,0,0,0,0,0,0,0,0,0,-1,1343,960,0,0
126,64,0,0,0,0,0,0,0,0,0,-1,1350,960,0,0
133,64,0,0,0,0,0,0,0,0,0,-1,1357,960,0,0
140,64,0,0,0,0,0,0,0,0,0,-1,1364,960,0,0
147,64,0,0,0,0,0,0,0,0,0,-1,1371,960,0,0
154,64,0,0,0,0,0,0,0,0,0,-1,1378,960,0,0
161,64,0,0,0,0,0,0,0,0,0,-1,1385,960,0,0
168,64,0,0,0,0,0,0,0,0,0,-1,1392,960,0,0
175,64,0,0,0,0,0,0,0,0,0,-1,1399,960,0,0
182,64,0,0,0,0,0,0,0,0,0,-1,1406,960,0,0
189,64,0,0,0,0,0,0,0,0,0,-1,1413,960,0,0
196,64,0,0,0,0,0,0,0,0,0,-1,1420,960,0,0
203,64,0,0,0,0,0,0,0,0,0,-1,1427,960,0,0
210,64,0,0,0,0,0,0,0,0,0,-1,1434,960,0,0
217,64,0,0,0,0,0,0,0,0,0,-1,1441,960,0,0
224,64,0,0,0,0,0,0,0,0,0,-1,1448,960,0,0
231,64,0,0,0,0,0,0,0,0,0,-1,1455,960,0,0
238,64,0,0,0,0,0,0,0,0,0,-1,1462,960,0,0
245,64,0,0,0,0,0,0,0,0,0,-1,1469,960,0,0
252,64,0,0,0,0,0,0,0,0,0,-1,1476,960,0,0
259,64,0,0,0,0,0,0,0,0,0,-1,1483,960,0,0
266,64,0,0,0,0,0,0,0,0,0,-1,1490,960,0,0
273,64,0,0,0,0,0,0,0,0,0,-1,1497,960,0,0
280,64,0,0,0,0,0,0,0,0,0,-1,1504,960,0,0
287,64,0,0,0,0,0,0,0,0,0,-1,1511,960,0,0
294,64,0,0,0,0,0,0,0,0,0,-1,1518,960,0,0
301,64,0,0,0,0,0,0,0,0,0,-1,1525,960,0,0
308,64,0,0,0,0,0,0,0,0,0,-1,1532,960,0,0
315,64,0,0,0,0,0,0,0,0,0,-1,1539,960,0,0
322,64,0,0,0,0,0,0,0,0,0,-1,1546,960,0,0
329,64,0,0,0,0,0,0,0,0,0,-1,1553,960,0,0
336,64,0,0,0,0,0,0,0,0,0,-1,1560,960,0,0
343,64,0,0,0,0,0,0,0,0,0,-1,1567,960,0,0
350,64,0,0,0,0,0,0,0,0,0,-1,1574,960,0,0
357,64,0,0,0,0,0,0,0,0,0,-1,1581,960,0,0
364,64,0,0,0,0,0,0,0,0,0,-1,1588,960,0,0
371,64,0,0,0,0,0,0,0,0,0,-1,1595,960,0,0
378,64,0,0,0,0,0,0,0,0,0,-1,1602,960,0,0
385,64,0,0,0,0,0,0,0,0,0,-1,1609,960,0,0
392,64,0,0,0,0,0,0,0,0,0,-1,1616,960,0,0
399,64,0,0,0,0,0,0,0,0,0,-1,1623,960,0,0
406,64,0,0,0,0,0,0,0,0,0,-1,1630,960,0,0
413,64,0,0,0,0,0,0,0,0,0,-1,1637,960,0,0
420,64,0,0,0,0,0,0,0,0,0,-1,1644,960,0,0
427,64,0,0,0,0,0,0,0,0,0,-1,1651,960,0,0
434,64,0,0,0,0,0,0,0,0,0,-1,1658,960,0,0
441,64,0,0,0,0,0,0,0,0,0,-1,1665,960,0,0
448,64,0,0,0,0,0,0,0,0,0,-1,1672,960,0,0
455,64,0,0,0,0,0,0,0,0,0,-1,1679,960,0,0
462,64,0,0,0,0,0,0,0,0,0,-1,1686,960,0,0
469,64,0,0,0,0,0,0,0,0,0,-1,1693,960,0,0
476,64,0,0,0,0,0,0,0,0,0,-1,1700,960,0,0
483,64,0,0,0,0,0,0,0,0,0,-1,1707,960,0,0
490,64,0,0,0,0,0,0,0,0,0,-1,1714,960,0,0
497,64,0,0,0,0,0,0,0,0,0,-1,1721,960,0,0
504,64,0,0,0,0,0,0,0,0,0,-1,1728,960,0,0
511,64,0,0,0,0,0,0,0,0,0,-1,1735,960,0,0
518,64,0,0,0,0,0,0,0,0,0,-1,1742,960,0,0
525,64,0,0,0,0,0,0,0,0,0,-1,1749,960,0,0
532,64,0,0,0,0,0,0,0,0,0,-1,1756,960,0,0
539,64,0,0,0,0,0,0,0,0,0,-1,1763,960,0,0
546,64,0,0,0,0,0,0,0,0,0,-1,1770,960,0,0
553,64,0,0,0,0,0,0,0,0,0,-1,1777,960,0,0
560,64,0,0,0,0,0,0,0,0,0,-1,1784,960,0,0
567,64,0,0,0,0,0,0,0,0,0,-1,1791,960,0,0
574,64,0,0,0,0,0,0,0,0,0,-1,1798,960,0,0
581,64,0,0,0,0,0,0,0,0,0,-1,1805,960,0,0
588,64,0,0,0,0,0,0,0,0,0,-1,1812,960,0,0
595,64,0,0,0,0,0,0,0,0,0,-1,1819,960,0,0
602,64,0,0,0,0,0,0,0,0,0,-1,1826,960,0,0
609,64,0,0,0,0,0,0,0,0,0,-1,1833,960,0,0
616,64,0,0,0,0,0,0,0,0,0,-1,1840,960,0,0
623,64,0,0,0,0,0,0,0,0,0,-1,1847,960,0,0
630,64,0,0,0,0,0,0,0,0,0,-1,1854,960,0,0
637,64,0,0,0,0,0,0,0,0,0,-1,1861,960,0,0
644,64,214.842,8.42633,0,0,0,0,0,0,0,-1,1868,960,214.841,-8.42633
651,64,215.002,8.4375,0,0,0,0,0,0,0,-1,1875,960,215.002,-8.43751
658,64,215.066,8.48187,0,0,0,0,0,0,0,-1,1882,960,215.066,-8.48188
665,64,215.125,8.54462,0,0,0,0,0,0,0,-1,1889,960,215.125,-8.5446
672,64,215.094,8.68188,0,0,0,0,0,0,0,-1,1896,960,215.094,-8.6819
679,64,214.988,8.99799,0,0,0,0,0,0,0,-1,1903,960,214.988,-8.99799
686,64,215.023,8.6908,0,0,0,0,0,0,0,-1,1910,960,215.023,-8.6908
693,64,215.013,8.43195,0,0,0,0,0,0,0,-1,1917,960,215.013,-8.43193
700,64,215.129,8.3031,0,0,0,0,0,0,0,-1,1924,960,215.129,-8.30309
707,64,190.186,7.72693,0,0,0,0,0,0,0,-1,1931,960,190.186,-7.72695
714,64,202.955,28.7263,0,0,0,0,0,0,0,-1,1938,960,202.955,-28.7263
721,64,210.427,30.1785,0,0,0,0,0,0,0,-1,1945,960,210.427,-30.1785
728,64,210.111,31.1904,-0.000423604,0.00163544,0.000292557,0.0016762,-0.000464365,1.43236,0.00130019,0.0410955,1952,960,210.111,-31.1904
735,64,209.931,32.3151,-0.00474305,0.00987562,-0.00181467,0.0100975,-0.00496494,-1.44912,0.008863,0.0495256,1959,960,209.931,-32.3151
742,64,210.137,33.1196,-0.00889734,0.0160806,-0.00339374,0.0165335,-0.00935023,-1.43813,0.0151346,0.0416192,1966,960,210.137,-33.1196
749,64,210.044,33.9065,-0.0134048,0.0218664,-0.00441235,0.02241,-0.0139484,-1.44821,0.0211802,0.0238253,1973,960,210.044,-33.9065
756,64,209.784,34.673,-0.0179777,0.0270565,-0.00509829,0.0276265,-0.0185476,-1.45946,0.0268299,0.0214117,1980,960,209.784,-34.673
763,64,209.688,35.517,-0.0226987,0.0315363,-0.00539585,0.0320679,-0.0232303,-1.47259,0.032062,0.0316487,1987,960,209.687,-35.517
770,64,209.327,36.1545,-0.027691,0.0352164,-0.00521259,0.0356454,-0.02812,-1.48868,0.0369003,0.0326227,1994,960,209.327,-36.1545
777,64,208.88,36.7674,-0.03318,0.0379381,-0.0044688,0.0382178,-0.0334597,-1.50829,0.0414134,0.0487209,2001,960,208.88,-36.7674
784,64,208.87,37.257,-0.0389976,0.0386638,-0.00255206,0.0387475,-0.0390814,-1.53798,0.0449347,0.0442742,2008,960,208.87,-37.257
791,64,206.631,39.5469,0,0,0,0,0,0,0,-1,2015,960,206.631,-39.5469
798,64,204.88,41.7885,0,0,0,0,0,0,0,-1,2022,960,204.88,-41.7885
805,64,71.8018,7.16925,0,0,0,0,0,0,0,-1,2029,960,71.8016,-7.16926
812,64,0,0,0,0,0,0,0,0,0,-1,2036,960,0,0
-700,57,0,0,0,0,0,0,0,0,0,-1,524,967,0,0
-693,57,0,0,0,0,0,0,0,0,0,-1,531,967,0,0
-686,57,-103.514,6.7984,0,0,0,0,0,0,0,-1,538,967,-103.514,-6.79842
-679,57,-81.4638,7.94403,0,0,0,0,0,0,0,-1,545,967,-81.4638,-7.94406
-672,57,-81.1378,8.84052,0,0,0,0,0,0,0,-1,552,967,-81.1378,-8.84049
-665,57,-69.8138,9.20465,0,0,0,0,0,0,0,-1,559,967,-69.8138,-9.20464
-658,57,-69.5607,9.87787,0,0,0,0,0,0,0,-1,566,967,-69.5607,-9.87786
-651,57,-203.227,37.1985,0,0,0,0,0,0,0,-1,573,967,-203.227,-37.1985
-644,57,-202.769,36.4445,0.00231075,0.0505286,0.0099967,0.052519,0.000320358,1.37426,0.0349064,0.043507,580,967,-202.769,-36.4445
-637,57,-202.404,35.7208,-0.000441033,0.0432963,0.00917603,0.0451434,-0.00228815,1.37215,0.0308866,0.0283679,587,967,-202.404,-35.7208
-630,57,-202.516,35.071,-0.00126224,0.0365394,0.00775912,0.0380701,-0.00279289,1.37603,0.0263604,0.0191229,594,967,-202.516,-35.071
-623,57,-202.641,34.3782,-0.00133458,0.0297061,0.00612284,0.0308702,-0.00249866,1.38292,0.0214616,0.0164924,601,967,-202.641,-34.3782
-616,57,-202.695,33.5549,-0.00074462,0.0228523,0.00430291,0.0236125,-0.00150477,1.39594,0.0162665,0.0205241,608,967,-202.695,-33.5549
-609,57,-202.768,32.7266,0.000433428,0.0160355,0.00232972,0.016376,9.29795e-05,1.42569,0.0108864,0.0227565,615,967,-202.768,-32.7266
-602,57,-202.806,31.8969,0.00213866,0.00931477,0.000228414,0.00932203,0.00213139,1.53901,0.0056401,0.014827,622,967,-202.806,-31.8968
-595,57,-202.889,31.0256,0.0043237,0.00275136,-0.00198105,0.00566887,0.00140619,-0.596506,0.00340862,0.0232199,629,967,-202.889,-31.0256
-588,57,-202.714,30.1272,0.00846097,-0.003824,-0.00489687,0.010174,-0.00553705,-0.33652,0.00920154,0.0403172,636,967,-202.714,-30.1272
-581,57,-202.532,29.075,0,0,0,0,0,0,0,-1,643,967,-202.532,-29.075
-574,57,-72.3458,0.503174,0,0,0,0,0,0,0,-1,650,967,-72.3458,-0.503146
-567,57,-72.3713,0.355774,0,0,0,0,0,0,0,-1,657,967,-72.3714,-0.355774
-560,57,-72.4128,0.327271,0,0,0,0,0,0,0,-1,664,967,-72.4128,-0.327253
-553,57,-72.379,0.421326,0,0,0,0,0,0,0,-1,671,967,-72.379,-0.4213
-546,57,-72.3694,0.425354,0,0,0,0,0,0,0,-1,678,967,-72.3694,-0.425354
-539,57,-72.5713,0.431824,0,0,0,0,0,0,0,-1,685,967,-72.5713,-0.431793
-532,57,-72.5948,0.583679,0,0,0,0,0,0,0,-1,692,967,-72.5948,-0.583709
-525,57,-72.3409,0.563782,0,0,0,0,0,0,0,-1,699,967,-72.3409,-0.563798
-518,57,0,0,0,0,0,0,0,0,0,-1,706,967,0,0
-511,57,0,0,0,0,0,0,0,0,0,-1,713,967,0,0
-504,57,0,0,0,0,0,0,0,0,0,-1,720,967,0,0
-497,57,0,0,0,0,0,0,0,0,0,-1,727,967,0,0
-490,57,0,0,0,0,0,0,0,0,0,-1,734,967,0,0
-483,57,0,0,0,0,0,0,0,0,0,-1,741,967,0,0
-476,57,0,0,0,0,0,0,0,0,0,-1,748,967,0,0
-469,57,0,0,0,0,0,0,0,0,0,-1,755,967,0,0
-462,57,0,0,0,0,0,0,0,0,0,-1,762,967,0,0
-455,57,0,0,0,0,0,0,0,0,0,-1,769,967,0,0
-448,57,0,0,0,0,0,0,0,0,0,-1,776,967,0,0
-441,57,0,0,0,0,0,0,0,0,0,-1,783,967,0,0
-434,57,0,0,0,0,0,0,0,0,0,-1,790,967,0,0
-427,57,0,0,0,0,0,0,0,0,0,-1,797,967,0,0
-420,57,0,0,0,0,0,0,0,0,0,-1,804,967,0,0
-413,57,0,0,0,0,0,0,0,0,0,-1,811,967,0,0
-406,57,0,0,0,0,0,0,0,0,0,-1,818,967,0,0
-399,57,0,0,0,0,0,0,0,0,0,-1,825,967,0,0
-392,57,0,0,0,0,0,0,0,0,0,-1,832,967,0,0
-385,57,0,0,0,0,0,0,0,0,0,-1,839,967,0,0
-378,57,0,0,0,0,0,0,0,0,0,-1,846,967,0,0
-371,57,0,0,0,0,0,0,0,0,0,-1,853,967,0,0
-364,57,0,0,0,0,0,0,0,0,0,-1,860,967,0,0
-357,57,0,0,0,0,0,0,0,0,0,-1,867,967,0,0
-350,57,0,0,0,0,0,0,0,0,0,-1,874,967,0,0
-343,57,0,0,0,0,0,0,0,0,0,-1,881,967,0,0
-336,57,0,0,0,0,0,0,0,0,0,-1,888,967,0,0
-329,57,0,0,0,0,0,0,0,0,0,-1,895,967,0,0
-322,57,0,0,0,0,0,0,0,0,0,-1,902,967,0,0
-315,57,0,0,0,0,0,0,0,0,0,-1,909,967,0,0
-308,57,0,0,0,0,0,0,0,0,0,-1,916,967,0,0
-301,57,0,0,0,0,0,0,0,0,0,-1,923,967,0,0
-294,57,0,0,0,0,0,0,0,0,0,-1,930,967,0,0
-287,57,0,0,0,0,0,0,0,0,0,-1,937,967,0,0
-280,57,0,0,0,0,0,0,0,0,0,-1,944,967,0,0
-273,57,0,0,0,0,0,0,0,0,0,-1,951,967,0,0
-266,57,0,0,0,0,0,0,0,0,0,-1,958,967,0,0
-259,57,0,0,0,0,0,0,0,0,0,-1,965,967,0,0
-252,57,0,0,0,0,0,0,0,0,0,-1,972,967,0,0
-245,57,0,0,0,0,0,0,0,0,0,-1,979,967,0,0
-238,57,0,0,0,0,0,0,0,0,0,-1,986,967,0,0
-231,57,0,0,0,0,0,0,0,0,0,-1,993,967,0,0
-224,57,0,0,0,0,0,0,0,0,0,-1,1000,967,0,0
-217,57,0,0,0,0,0,0,0,0,0,-1,1007,967,0,0
-210,57,0,0,0,0,0,0,0,0,0,-1,1014,967,0,0
-203,57,0,0,0,0,0,0,0,0,0,-1,1021,967,0,0
-196,57,0,0,0,0,0,0,0,0,0,-1,1028,967,0,0
-189,57,0,0,0,0,0,0,0,0,0,-1,1035,967,0,0
-182,57,0,0,0,0,0,0,0,0,0,-1,1042,967,0,0
-175,57,0,0,0,0,0,0,0,0,0,-1,1049,967,0,0
-168,57,0,0,0,0,0,0,0,0,0,-1,1056,967,0,0
-161,57,0,0,0,0,0,0,0,0,0,-1,1063,967,0,0
-154,57,0,0,0,0,0,0,0,0,0,-1,1070,967,0,0
-147,57,0,0,0,0,0,0,0,0,0,-1,1077,967,0,0
-140,57,0,0,0,0,0,0,0,0,0,-1,1084,967,0,0
-133,57,0,0,0,0,0,0,0,0,0,-1,1091,967,0,0
-126,57,0,0,0,0,0,0,0,0,0,-1,1098,967,0,0
-119,57,0,0,0,0,0,0,0,0,0,-1,1105,967,0,0
-112,57,0,0,0,0,0,0,0,0,0,-1,1112,967,0,0
-105,57,0,0,0,0,0,0,0,0,0,-1,1119,967,0,0
-98,57,0,0,0,0,0,0,0,0,0,-1,1126,967,0,0
-91,57,0,0,0,0,0,0,0,0,0,-1,1133,967,0,0
-84,57,0,0,0,0,0,0,0,0,0,-1,1140,967,0,0
-77,57,0,0,0,0,0,0,0,0,0,-1,1147,967,0,0
-70,57,0,0,0,0,0,0,0,0,0,-1,1154,967,0,0
-63,57,0,0,0,0,0,0,0,0,0,-1,1161,967,0,0
-56,57,0,0,0,0,0,0,0,0,0,-1,1168,967,0,0
-49,57,0,0,0,0,0,0,0,0,0,-1,1175,967,0,0
-42,57,0,0,0,0,0,0,0,0,0,-1,1182,967,0,0
-35,57,0,0,0,0,0,0,0,0,0,-1,1189,967,0,0
-28,57,0,0,0,0,0,0,0,0,0,-1,1196,967,0,0
-21,57,0,0,0,0,0,0,0,0,0,-1,1203,967,0,0
-14,57,0,0,0,0,0,0,0,0,0,-1,1210,967,0,0
-7,57,0,0,0,0,0,0,0,0,0,-1,1217,967,0,0
0,57,0,0,0,0,0,0,0,0,0,-1,1224,967,0,0
7,57,0,0,0,0,0,0,0,0,0,-1,1231,967,0,0
14,57,0,0,0,0,0,0,0,0,0,-1,1238,967,0,0
21,57,0,0,0,0,0,0,0,0,0,-1,1245,967,0,0
28,57,0,0,0,0,0,0,0,0,0,-1,1252,967,0,0
35,57,0,0,0,0,0,0,0,0,0,-1,1259,967,0,0
42,57,0,0,0,0,0,0,0,0,0,-1,1266,967,0,0
49,57,0,0,0,0,0,0,0,0,0,-1,1273,967,0,0
56,57,0,0,0,0,0,0,0,0,0,-1,1280,967,0,0
63,57,0,0,0,0,0,0,0,0,0,-1,1287,967,0,0
70,57,0,0,0,0,0,0,0,0,0,-1,1294,967,0,0
77,57,0,0,0,0,0,0,0,0,0,-1,1301,967,0,0
84,57,0,0,0,0,0,0,0,0,0,-1,1308,967,0,0
91,57,0,0,0,0,0,0,0,0,0,-1,1315,967,0,0
98,57,0,0,0,0,0,0,0,0,0,-1,1322,967,0,0
105,57,0,0,0,0,0,0,0,0,0,-1,1329,967,0,0
112,57,0,0,0,0,0,0,0,0,0,-1,1336,967,0,0
119,57,0,0,0,0,0,0,0,0,0,-1,1343,967,0,0
126,57,0,0,0,0,0,0,0,0,0,-1,1350,967,0,0
133,57,0,0,0,0,0,0,0,0,0,-1,1357,967,0,0
140,57,0,0,0,0,0,0,0,0,0,-1,1364,967,0,0
147,57,0,0,0,0,0,0,0,0,0,-1,1371,967,0,0
154,57,0,0,0,0,0,0,0,0,0,-1,1378,967,0,0
161,57,0,0,0,0,0,0,0,0,0,-1,1385,967,0,0
168,57,0,0,0,0,0,0,0,0,0,-1,1392,967,0,0
175,57,0,0,0,0,0,0,0,0,0,-1,1399,967,0,0
182,57,0,0,0,0,0,0,0,0,0,-1,1406,967,0,0
189,57,0,0,0,0,0,0,0,0,0,-1,1413,967,0,0
196,57,0,0,0,0,0,0,0,0,0,-1,1420,967,0,0
203,57,0,0,0,0,0,0,0,0,0,-1,1427,967,0,0
210,57,0,0,0,0,0,0,0,0,0,-1,1434,967,0,0
217,57,0,0,0,0,0,0,0,0,0,-1,1441,967,0,0
224,57,0,0,0,0,0,0,0,0,0,-1,1448,967,0,0
231,57,0,0,0,0,0,0,0,0,0,-1,1455,967,0,0
238,57,0,0,0,0,0,0,0,0,0,-1,1462,967,0,0
245,57,0,0,0,0,0,0,0,0,0,-1,1469,967,0,0
252,57,0,0,0,0,0,0,0,0,0,-1,1476,967,0,0
259,57,0,0,0,0,0,0,0,0,0,-1,1483,967,0,0
266,57,0,0,0,0,0,0,0,0,0,-1,1490,967,0,0
273,57,0,0,0,0,0,0,0,0,0,-1,1497,967,0,0
280,57,0,0,0,0,0,0,0,0,0,-1,1504,967,0,0
287,57,0,0,0,0,0,0,0,0,0,-1,1511,967,0,0
294,57,0,0,0,0,0,0,0,0,0,-1,1518,967,0,0
301,57,0,0,0,0,0,0,0,0,0,-1,1525,967,0,0
308,57,0,0,0,0,0,0,0,0,0,-1,1532,967,0,0
315,57,0,0,0,0,0,0,0,0,0,-1,1539,967,0,0
322,57,0,0,0,0,0,0,0,0,0,-1,1546,967,0,0
329,57,0,0,0,0,0,0,0,0,0,-1,1553,967,0,0
336,57,0,0,0,0,0,0,0,0,0,-1,1560,967,0,0
343,57,0,0,0,0,0,0,0,0,0,-1,1567,967,0,0
350,57,0,0,0,0,0,0,0,0,0,-1,1574,967,0,0
357,57,0,0,0,0,0,0,0,0,0,-1,1581,967,0,0
364,57,0,0,0,0,0,0,0,0,0,-1,1588,967,0,0
371,57,0,0,0,0,0,0,0,0,0,-1,1595,967,0,0
378,57,0,0,0,0,0,0,0,0,0,-1,1602,967,0,0
385,57,0,0,0,0,0,0,0,0,0,-1,1609,967,0,0
392,57,0,0,0,0,0,0,0,0,0,-1,1616,967,0,0
399,57,0,0,0,0,0,0,0,0,0,-1,1623,967,0,0
406,57,0,0,0,0,0,0,0,0,0,-1,1630,967,0,0
413,57,0,0,0,0,0,0,0,0,0,-1,1637,967,0,0
420,57,0,0,0,0,0,0,0,0,0,-1,1644,967,0,0
427,57,0,0,0,0,0,0,0,0,0,-1,1651,967,0,0
434,57,0,0,0,0,0,0,0,0,0,-1,1658,967,0,0
441,57,0,0,0,0,0,0,0,0,0,-1,1665,967,0,0
448,57,0,0,0,0,0,0,0,0,0,-1,1672,967,0,0
455,57,0,0,0,0,0,0,0,0,0,-1,1679,967,0,0
462,57,0,0,0,0,0,0,0,0,0,-1,1686,967,0,0
469,57,0,0,0,0,0,0,0,0,0,-1,1693,967,0,0
476,57,0,0,0,0,0,0,0,0,0,-1,1700,967,0,0
483,57,0,0,0,0,0,0,0,0,0,-1,1707,967,0,0
490,57,0,0,0,0,0,0,0,0,0,-1,1714,967,0,0
497,57,0,0,0,0,0,0,0,0,0,-1,1721,967,0,0
504,57,0,0,0,0,0,0,0,0,0,-1,1728,967,0,0
511,57,0,0,0,0,0,0,0,0,0,-1,1735,967,0,0
518,57,0,0,0,0,0,0,0,0,0,-1,1742,967,0,0
525,57,0,0,0,0,0,0,0,0,0,-1,1749,967,0,0
532,57,0,0,0,0,0,0,0,0,0,-1,1756,967,0,0
539,57,0,0,0,0,0,0,0,0,0,-1,1763,967,0,0
546,57,0,0,0,0,0,0,0,0,0,-1,1770,967,0,0
553,57,0,0,0,0,0,0,0,0,0,-1,1777,967,0,0
560,57,0,0,0,0,0,0,0,0,0,-1,1784,967,0,0
567,57,0,0,0,0,0,0,0,0,0,-1,1791,967,0,0
574,57,0,0,0,0,0,0,0,0,0,-1,1798,967,0,0
581,57,0,0,0,0,0,0,0,0,0,-1,1805,967,0,0
588,57,0,0,0,0,0,0,0,0,0,-1,1812,967,0,0
595,57,0,0,0,0,0,0,0,0,0,-1,1819,967,0,0
602,57,0,0,0,0,0,0,0,0,0,-1,1826,967,0,0
609,57,0,0,0,0,0,0,0,0,0,-1,1833,967,0,0
616,57,0,0,0,0,0,0,0,0,0,-1,1840,967,0,0
623,57,0,0,0,0,0,0,0,0,0,-1,1847,967,0,0
630,57,0,0,0,0,0,0,0,0,0,-1,1854,967,0,0
637,57,0,0,0,0,0,0,0,0,0,-1,1861,967,0,0
644,57,214.981,8.61188,0,0,0,0,0,0,0,-1,1868,967,214.981,-8.61189
651,57,215.001,8.57336,0,0,0,0,0,0,0,-1,1875,967,215.001,-8.57335
658,57,215.047,8.54492,0,0,0,0,0,0,0,-1,1882,967,215.047,-8.54492
665,57,215.055,8.47296,0,0,0,0,0,0,0,-1,1889,967,215.055,-8.47293
672,57,215.029,8.55902,0,0,0,0,0,0,0,-1,1896,967,215.029,-8.55903
679,57,214.931,8.88696,0,0,0,0,0,0,0,-1,1903,967,214.931,-8.88696
686,57,214.956,8.62872,0,0,0,0,0,0,0,-1,1910,967,214.956,-8.62873
693,57,214.896,8.41864,0,0,0,0,0,0,0,-1,1917,967,214.896,-8.41865
700,57,215.037,8.43317,0,0,0,0,0,0,0,-1,1924,967,215.037,-8.43318
707,57,214.969,9.01886,0,0,0,0,0,0,0,-1,1931,967,214.969,-9.01888
714,57,203.393,28.8443,0,0,0,0,0,0,0,-1,1938,967,203.393,-28.8443
721,57,211.504,30.419,0,0,0,0,0,0,0,-1,1945,967,211.504,-30.419
728,57,211.151,31.3115,0.00212215,-0.00050522,0.000883633,0.00239168,-0.000774751,0.296062,0.00190594,0.0325769,1952,967,211.151,-31.3115
735,57,211.027,32.2115,-0.00265119,0.00829734,-0.00132917,0.00845639,-0.00281024,-1.4517,0.00677159,0.0435557,1959,967,211.027,-32.2116
742,57,210.991,32.8777,-0.00712506,0.0146967,-0.00297103,0.0150939,-0.00752233,-1.43787,0.0132992,0.0299451,1966,967,210.991,-32.8777
749,57,210.883,33.7376,-0.011932,0.0206354,-0.00400045,0.0211196,-0.0124162,-1.45035,0.0195781,0.0185705,1973,967,210.883,-33.7376
756,57,210.701,34.5408,-0.0167431,0.02595,-0.00469495,0.0264602,-0.0172533,-1.46255,0.0254239,0.0182095,1980,967,210.701,-34.5408
763,57,210.473,35.3342,-0.0216475,0.0305418,-0.00499671,0.0310159,-0.0221216,-1.4762,0.0308219,0.0212473,1987,967,210.473,-35.3342
770,57,210.226,36.054,-0.026764,0.0343345,-0.00482314,0.0347129,-0.0271424,-1.4925,0.0358012,0.0225489,1994,967,210.226,-36.054
777,57,209.982,36.7466,-0.032298,0.0372169,-0.00409943,0.0374578,-0.032539,-1.5121,0.0404459,0.0409793,2001,967,209.982,-36.7466
784,57,209.624,37.3771,-0.0380976,0.0382042,-0.00220743,0.038268,-0.0381614,-1.5419,0.0441266,0.0481637,2008,967,209.624,-37.377
791,57,208.572,39.2488,-0.0451321,0.0368638,0.00142613,0.0368886,-0.0451569,1.55341,0.0474491,0.0495572,2015,967,208.572,-39.2488
798,57,207.44,41.1763,0,0,0,0,0,0,0,-1,2022,967,207.44,-41.1763
805,57,206.221,43.4042,0,0,0,0,0,0,0,-1,2029,967,206.221,-43.4043
812,57,0,0,0,0,0,0,0,0,0,-1,2036,967,0,0
-700,50,0,0,0,0,0,0,0,0,0,-1,524,974,0,0
-693,50,-102.432,2.85944,0,0,0,0,0,0,0,-1,531,974,-102.432,-2.85945
-686,50,-102.001,5.11273,0,0,0,0,0,0,0,-1,538,974,-102.001,-5.11273
-679,50,-100.914,6.28094,0,0,0,0,0,0,0,-1,545,974,-100.914,-6.28094
-672,50,-81.1913,8.17609,0,0,0,0,0,0,0,-1,552,974,-81.1913,-8.17607
-665,50,-66.1696,0.16217,0,0,0,0,0,0,0,-1,559,974,-66.1696,-0.162174
-658,50,-67.4576,10.0194,0,0,0,0,0,0,0,-1,566,974,-67.4576,-10.0194
-651,50,-203.005,36.8787,0,0,0,0,0,0,0,-1,573,974,-203.005,-36.8787
-644,50,-203.169,36.1945,0.000364589,0.0500448,0.00944188,0.0517787,-0.00136935,1.38918,0.0349845,0.0431236,580,974,-203.169,-36.1945
-637,50,-203.259,35.525,-0.00133919,0.0426942,0.0086137,0.0443192,-0.00296421,1.38433,0.0305821,0.0245192,587,974,-203.259,-35.525
-630,50,-203.381,34.9221,-0.00153919,0.0358488,0.00724682,0.0372043,-0.00289468,1.38589,0.0258219,0.0148461,594,974,-203.381,-34.9221
-623,50,-203.5,34.2631,-0.0010988,0.0289455,0.00567978,0.0299834,-0.00213668,1.39006,0.0207379,0.0159229,601,974,-203.5,-34.263
-616,50,-203.589,33.5399,-7.545e-05,0.0220415,0.00394633,0.0227246,-0.000758499,1.39941,0.0154088,0.0174453,608,974,-203.589,-33.5399
-609,50,-203.609,32.7097,0.0014804,0.0151974,0.00207554,0.0155046,0.00117322,1.42387,0.00996835,0.0171005,615,974,-203.609,-32.7097
-602,50,-203.654,31.9133,0.00352673,0.00847775,9.16402e-05,0.00847944,0.00352503,1.5523,0.00491874,0.0142508,622,974,-203.654,-31.9133
-595,50,-203.713,31.0961,0.00603085,0.00195148,-0.00198603,0.00683803,0.0011443,-0.386036,0.00422917,0.0175719,629,974,-203.713,-31.0961
-588,50,-203.66,29.9396,0.0105513,-0.004531,-0.0047995,0.011949,-0.00592876,-0.283393,0.010515,0.0408219,636,974,-203.66,-29.9396
-581,50,-203.53,28.487,0,0,0,0,0,0,0,-1,643,974,-203.53,-28.487
-574,50,-72.3653,0.396179,0,0,0,0,0,0,0,-1,650,974,-72.3653,-0.396162
-567,50,-72.3264,0.2995,0,0,0,0,0,0,0,-1,657,974,-72.3264,-0.299482
-560,50,-72.3513,0.199829,0,0,0,0,0,0,0,-1,664,974,-72.3513,-0.199808
-553,50,-72.4231,0.359375,0,0,0,0,0,0,0,-1,671,974,-72.4231,-0.359398
-546,50,-72.4158,0.498962,0,0,0,0,0,0,0,-1,678,974,-72.4158,-0.498949
-539,50,-72.4652,0.52063,0,0,0,0,0,0,0,-1,685,974,-72.4652,-0.520637
-532,50,-72.4564,0.349854,0,0,0,0,0,0,0,-1,692,974,-72.4564,-0.349861
-525,50,-72.4167,0.362976,0,0,0,0,0,0,0,-1,699,974,-72.4167,-0.362984
-518,50,0,0,0,0,0,0,0,0,0,-1,706,974,0,0
-511,50,0,0,0,0,0,0,0,0,0,-1,713,974,0,0
-504,50,0,0,0,0,0,0,0,0,0,-1,720,974,0,0
-497,50,0,0,0,0,0,0,0,0,0,-1,727,974,0,0
-490,50,0,0,0,0,0,0,0,0,0,-1,734,974,0,0
-483,50,0,0,0,0,0,0,0,0,0,-1,741,974,0,0
-476,50,0,0,0,0,0,0,0,0,0,-1,748,974,0,0
-469,50,0,0,0,0,0,0,0,0,0,-1,755,974,0,0
-462,50,0,0,0,0,0,0,0,0,0,-1,762,974,0,0
-455,50,0,0,0,0,0,0,0,0,0,-1,769,974,0,0
-448,50,0,0,0,0,0,0,0,0,0,-1,776,974,0,0
-441,50,0,0,0,0,0,0,0,0,0,-1,783,974,0,0
-434,50,0,0,0,0,0,0,0,0,0,-1,790,974,0,0
-427,50,0,0,0,0,0,0,0,0,0,-1,797,974,0,0
-420,50,0,0,0,0,0,0,0,0,0,-1,804,974,0,0
-413,50,0,0,0,0,0,0,0,0,0,-1,811,974,0,0
-406,50,0,0,0,0,0,0,0,0,0,-1,818,974,0,0
-399,50,0,0,0,0,0,0,0,0,0,-1,825,974,0,0
-392,50,0,0,0,0,0,0,0,0,0,-1,832,974,0,0
-385,50,0,0,0,0,0,0,0,0,0,-1,839,974,0,0
-378,50,0,0,0,0,0,0,0,0,0,-1,846,974,0,0
-371,50,0,0,0,0,0,0,0,0,0,-1,853,974,0,0
-364,50,0,0,0,0,0,0,0,0,0,-1,860,974,0,0
-357,50,0,0,0,0,0,0,0,0,0,-1,867,974,0,0
-350,50,0,0,0,0,0,0,0,0,0,-1,874,974,0,0
-343,50,0,0,0,0,0,0,0,0,0,-1,881,974,0,0
-336,50,0,0,0,0,0,0,0,0,0,-1,888,974,0,0
-329,50,0,0,0,0,0,0,0,0,0,-1,895,974,0,0
-322,50,0,0,0,0,0,0,0,0,0,-1,902,974,0,0
-315,50,0,0,0,0,0,0,0,0,0,-1,909,974,0,0
-308,50,0,0,0,0,0,0,0,0,0,-1,916,974,0,0
-301,50,0,0,0,0,0,0,0,0,0,-1,923,974,0,0
-294,50,0,0,0,0,0,0,0,0,0,-1,930,974,0,0
-287,50,0,0,0,0,0,0,0,0,0,-1,937,974,0,0
-280,50,0,0,0,0,0,0,0,0,0,-1,944,974,0,0
-273,50,0,0,0,0,0,0,0,0,0,-1,951,974,0,0
-266,50,0,0,0,0,0,0,0,0,0,-1,958,974,0,0
-259,50,0,0,0,0,0,0,0,0,0,-1,965,974,0,0
-252,50,0,0,0,0,0,0,0,0,0,-1,972,974,0,0
-245,50,0,0,0,0,0,0,0,0,0,-1,979,974,0,0
-238,50,0,0,0,0,0,0,0,0,0,-1,986,974,0,0
-231,50,0,0,0,0,0,0,0,0,0,-1,993,974,0,0
-224,50,0,0,0,0,0,0,0,0,0,-1,1000,974,0,0
-217,50,0,0,0,0,0,0,0,0,0,-1,1007,974,0,0
-210,50,0,0,0,0,0,0,0,0,0,-1,1014,974,0,0
-203,50,0,0,0,0,0,0,0,0,0,-1,1021,974,0,0
-196,50,0,0,0,0,0,0,0,0,0,-1,1028,974,0,0
-189,50,0,0,0,0,0,0,0,0,0,-1,1035,974,0,0
-182,50,0,0,0,0,0,0,0,0,0,-1,1042,974,0,0
-175,50,0,0,0,0,0,0,0,0,0,-1,1049,974,0,0
-168,50,0,0,0,0,0,0,0,0,0,-1,1056,974,0,0
-161,50,0,0,0,0,0,0,0,0,0,-1,1063,974,0,0
-154,50,0,0,0,0,0,0,0,0,0,-1,1070,974,0,0
-147,50,0,0,0,0,0,0,0,0,0,-1,1077,974,0,0
-140,50,0,0,0,0,0,0,0,0,0,-1,1084,974,0,0
-133,50,0,0,0,0,0,0,0,0,0,-1,1091,974,0,0
-126,50,0,0,0,0,0,0,0,0,0,-1,1098,974,0,0
-119,50,0,0,0,0,0,0,0,0,0,-1,1105,974,0,0
-112,50,0,0,0,0,0,0,0,0,0,-1,1112,974,0,0
-105,50,0,0,0,0,0,0,0,0,0,-1,1119,974,0,0
-98,50,0,0,0,0,0,0,0,0,0,-1,1126,974,0,0
-91,50,0,0,0,0,0,0,0,0,0,-1,1133,974,0,0
-84,50,0,0,0,0,0,0,0,0,0,-1,1140,974,0,0
-77,50,0,0,0,0,0,0,0,0,0,-1,1147,974,0,0
-70,50,0,0,0,0,0,0,0,0,0,-1,1154,974,0,0
-63,50,0,0,0,0,0,0,0,0,0,-1,1161,974,0,0
-56,50,0,0,0,0,0,0,0,0,0,-1,1168,974,0,0
-49,50,0,0,0,0,0,0,0,0,0,-1,1175,974,0,0
-42,50,0,0,0,0,0,0,0,0,0,-1,1182,974,0,0
-35,50,0,0,0,0,0,0,0,0,0,-1,1189,974,0,0
-28,50,0,0,0,0,0,0,0,0,0,-1,1196,974,0,0
-21,50,0,0,0,0,0,0,0,0,0,-1,1203,974,0,0
-14,50,0,0,0,0,0,0,0,0,0,-1,1210,974,0,0
-7,50,0,0,0,0,0,0,0,0,0,-1,1217,974,0,0
0,50,0,0,0,0,0,0,0,0,0,-1,1224,974,0,0
7,50,0,0,0,0,0,0,0,0,0,-1,1231,974,0,0
14,50,0,0,0,0,0,0,0,0,0,-1,1238,974,0,0
21,50,0,0,0,0,0,0,0,0,0,-1,1245,974,0,0
28,50,0,0,0,0,0,0,0,0,0,-1,1252,974,0,0
35,50,0,0,0,0,0,0,0,0,0,-1,1259,974,0,0
42,50,0,0,0,0,0,0,0,0,0,-1,1266,974,0,0
49,50,0,0,0,0,0,0,0,0,0,-1,1273,974,0,0
56,50,0,0,0,0,0,0,0,0,0,-1,1280,974,0,0
63,50,0,0,0,0,0,0,0,0,0,-1,1287,974,0,0
70,50,0,0,0,0,0,0,0,0,0,-1,1294,974,0,0
77,50,0,0,0,0,0,0,0,0,0,-1,1301,974,0,0
84,50,0,0,0,0,0,0,0,0,0,-1,1308,974,0,0
91,50,0,0,0,0,0,0,0,0,0,-1,1315,974,0,0
98,50,0,0,0,0,0,0,0,0,0,-1,1322,974,0,0
105,50,0,0,0,0,0,0,0,0,0,-1,1329,974,0,0
112,50,0,0,0,0,0,0,0,0,0,-1,1336,974,0,0
119,50,0,0,0,0,0,0,0,0,0,-1,1343,974,0,0
126,50,0,0,0,0,0,0,0,0,0,-1,1350,974,0,0
133,50,0,0,0,0,0,0,0,0,0,-1,1357,974,0,0
140,50,0,0,0,0,0,0,0,0,0,-1,1364,974,0,0
147,50,0,0,0,0,0,0,0,0,0,-1,1371,974,0,0
154,50,0,0,0,0,0,0,0,0,0,-1,1378,974,0,0
161,50,0,0,0,0,0,0,0,0,0,-1,1385,974,0,0
168,50,0,0,0,0,0,0,0,0,0,-1,1392,974,0,0
175,50,0,0,0,0,0,0,0,0,0,-1,1399,974,0,0
182,50,0,0,0,0,0,0,0,0,0,-1,1406,974,0,0
189,50,0,0,0,0,0,0,0,0,0,-1,1413,974,0,0
196,50,0,0,0,0,0,0,0,0,0,-1,1420,974,0,0
203,50,0,0,0,0,0,0,0,0,0,-1,1427,974,0,0
210,50,0,0,0,0,0,0,0,0,0,-1,1434,974,0,0
217,50,0,0,0,0,0,0,0,0,0,-1,1441,974,0,0
224,50,0,0,0,0,0,0,0,0,0,-1,1448,974,0,0
231,50,0,0,0,0,0,0,0,0,0,-1,1455,974,0,0
238,50,0,0,0,0,0,0,0,0,0,-1,1462,974,0,0
245,50,0,0,0,0,0,0,0,0,0,-1,1469,974,0,0
252,50,0,0,0,0,0,0,0,0,0,-1,1476,974,0,0
259,50,0,0,0,0,0,0,0,0,0,-1,1483,974,0,0
266,50,0,0,0,0,0,0,0,0,0,-1,1490,974,0,0
273,50,0,0,0,0,0,0,0,0,0,-1,1497,974,0,0
280,50,0,0,0,0,0,0,0,0,0,-1,1504,974,0,0
287,50,0,0,0,0,0,0,0,0,0,-1,1511,974,0,0
294,50,0,0,0,0,0,0,0,0,0,-1,1518,974,0,0
301,50,0,0,0,0,0,0,0,0,0,-1,1525,974,0,0
308,50,0,0,0,0,0,0,0,0,0,-1,1532,974,0,0
315,50,0,0,0,0,0,0,0,0,0,-1,1539,974,0,0
322,50,0,0,0,0,0,0,0,0,0,-1,1546,974,0,0
329,50,0,0,0,0,0,0,0,0,0,-1,1553,974,0,0
336,50,0,0,0,0,0,0,0,0,0,-1,1560,974,0,0
343,50,0,0,0,0,0,0,0,0,0,-1,1567,974,0,0
350,50,0,0,0,0,0,0,0,0,0,-1,1574,974,0,0
357,50,0,0,0,0,0,0,0,0,0,-1,1581,974,0,0
364,50,0,0,0,0,0,0,0,0,0,-1,1588,974,0,0
371,50,0,0,0,0,0,0,0,0,0,-1,1595,974,0,0
378,50,0,0,0,0,0,0,0,0,0,-1,1602,974,0,0
385,50,0,0,0,0,0,0,0,0,0,-1,1609,974,0,0
392,50,0,0,0,0,0,0,0,0,0,-1,1616,974,0,0
399,50,0,0,0,0,0,0,0,0,0,-1,1623,974,0,0
406,50,0,0,0,0,0,0,0,0,0,-1,1630,974,0,0
413,50,0,0,0,0,0,0,0,0,0,-1,1637,974,0,0
420,50,0,0,0,0,0,0,0,0,0,-1,1644,974,0,0
427,50,0,0,0,0,0,0,0,0,0,-1,1651,974,0,0
434,50,0,0,0,0,0,0,0,0,0,-1,1658,974,0,0
441,50,0,0,0,0,0,0,0,0,0,-1,1665,974,0,0
448,50,0,0,0,0,0,0,0,0,0,-1,1672,974,0,0
455,50,0,0,0,0,0,0,0,0,0,-1,1679,974,0,0
462,50,0,0,0,0,0,0,0,0,0,-1,1686,974,0,0
469,50,0,0,0,0,0,0,0,0,0,-1,1693,974,0,0
476,50,0,0,0,0,0,0,0,0,0,-1,1700,974,0,0
483,50,0,0,0,0,0,0,0,0,0,-1,1707,974,0,0
490,50,0,0,0,0,0,0,0,0,0,-1,1714,974,0,0
497,50,0,0,0,0,0,0,0,0,0,-1,1721,974,0,0
504,50,0,0,0,0,0,0,0,0,0,-1,1728,974,0,0
511,50,0,0,0,0,0,0,0,0,0,-1,1735,974,0,0
518,50,0,0,0,0,0,0,0,0,0,-1,1742,974,0,0
525,50,0,0,0,0,0,0,0,0,0,-1,1749,974,0,0
532,50,0,0,0,0,0,0,0,0,0,-1,1756,974,0,0
539,50,0,0,0,0,0,0,0,0,0,-1,1763,974,0,0
546,50,0,0,0,0,0,0,0,0,0,-1,1770,974,0,0
553,50,0,0,0,0,0,0,0,0,0,-1,1777,974,0,0
560,50,0,0,0,0,0,0,0,0,0,-1,1784,974,0,0
567,50,0,0,0,0,0,0,0,0,0,-1,1791,974,0,0
574,50,0,0,0,0,0,0,0,0,0,-1,1798,974,0,0
581,50,0,0,0,0,0,0,0,0,0,-1,1805,974,0,0
588,50,0,0,0,0,0,0,0,0,0,-1,1812,974,0,0
595,50,0,0,0,0,0,0,0,0,0,-1,1819,974,0,0
602,50,0,0,0,0,0,0,0,0,0,-1,1826,974,0,0
609,50,0,0,0,0,0,0,0,0,0,-1,1833,974,0,0
616,50,0,0,0,0,0,0,0,0,0,-1,1840,974,0,0
623,50,0,0,0,0,0,0,0,0,0,-1,1847,974,0,0
630,50,0,0,0,0,0,0,0,0,0,-1,1854,974,0,0
637,50,0,0,0,0,0,0,0,0,0,-1,1861,974,0,0
644,50,215.058,8.7583,0,0,0,0,0,0,0,-1,1868,974,215.058,-8.75831
651,50,214.927,8.68518,0,0,0,0,0,0,0,-1,1875,974,214.926,-8.68519
658,50,214.882,8.62305,0,0,0,0,0,0,0,-1,1882,974,214.882,-8.62305
665,50,214.865,8.44556,0,0,0,0,0,0,0,-1,1889,974,214.865,-8.44554
672,50,214.913,8.39154,0,0,0,0,0,0,0,-1,1896,974,214.913,-8.39152
679,50,214.901,8.71765,0,0,0,0,0,0,0,-1,1903,974,214.901,-8.71767
686,50,214.916,8.54852,0,0,0,0,0,0,0,-1,1910,974,214.916,-8.54851
693,50,214.849,8.38379,0,0,0,0,0,0,0,-1,1917,974,214.849,-8.38377
700,50,214.892,8.44342,0,0,0,0,0,0,0,-1,1924,974,214.892,-8.44344
707,50,211.845,8.40979,0,0,0,0,0,0,0,-1,1931,974,211.845,-8.40979
714,50,205.916,7.94446,0,0,0,0,0,0,0,-1,1938,974,205.916,-7.94446
721,50,211.513,30.7479,0,0,0,0,0,0,0,-1,1945,974,211.513,-30.7479
728,50,212.139,31.5535,0,0,0,0,0,0,0,-1,1952,974,212.139,-31.5535
735,50,211.982,32.1425,-0.000557797,0.00673995,-0.000911259,0.00685202,-0.000669864,-1.44843,0.00480688,0.0253504,1959,974,211.982,-32.1425
742,50,211.783,32.9752,-0.00537794,0.0134026,-0.00258402,0.0137517,-0.00572699,-1.43653,0.0115597,0.0187075,1966,974,211.784,-32.9752
749,50,211.731,33.6531,-0.0104894,0.0195776,-0.00361422,0.020006,-0.0109177,-1.45283,0.018109,0.0205899,1973,974,211.731,-33.6531
756,50,211.578,34.3726,-0.0155385,0.0251256,-0.00431541,0.0255785,-0.0159914,-1.46622,0.0242122,0.0213834,1980,974,211.578,-34.3726
763,50,211.344,35.1194,-0.0206158,0.0299652,-0.00462759,0.0303851,-0.0210357,-1.48031,0.029851,0.0213081,1987,974,211.344,-35.1194
770,50,211.138,35.7985,-0.0258333,0.0340283,-0.00448302,0.0343622,-0.0261672,-1.49646,0.0350533,0.0214688,1994,974,211.138,-35.7984
777,50,211.048,36.5794,-0.0313894,0.0372535,-0.00380869,0.0374642,-0.0316001,-1.51554,0.0399222,0.0371804,2001,974,211.048,-36.5794
784,50,210.673,37.5957,-0.0370977,0.0386863,-0.0019463,0.0387363,-0.0371476,-1.54514,0.0438148,0.0477585,2008,974,210.673,-37.5957
791,50,210.204,39.0117,-0.0439476,0.037987,0.00165754,0.0380205,-0.0439811,1.55058,0.0473854,0.0461125,2015,974,210.204,-39.0117
798,50,209.853,40.436,0,0,0,0,0,0,0,-1,2022,974,209.853,-40.436
805,50,95.884,13.8399,0,0,0,0,0,0,0,-1,2029,974,95.8841,-13.8399
812,50,0,0,0,0,0,0,0,0,0,-1,2036,974,0,0
-700,43,0,0,0,0,0,0,0,0,0,-1,524,981,0,0
-693,43,-100.95,1.95203,0,0,0,0,0,0,0,-1,531,981,-100.95,-1.95204
-686,43,-100.614,3.59869,0,0,0,0,0,0,0,-1,538,981,-100.614,-3.5987
-679,43,-99.7601,5.06866,0,0,0,0,0,0,0,-1,545,981,-99.7601,-5.06869
-672,43,-98.6341,6.25378,0,0,0,0,0,0,0,-1,552,981,-98.6341,-6.25376
-665,43,-62.4393,6.80096,0,0,0,0,0,0,0,-1,559,981,-62.4393,-6.80097
-658,43,-96.4501,16.9009,0,0,0,0,0,0,0,-1,566,981,-96.4501,-16.9009
-651,43,-203.397,36.3664,0,0,0,0,0,0,0,-1,573,981,-203.397,-36.3664
-644,43,-203.858,35.8504,-0.00159074,0.049808,0.00897001,0.0513284,-0.0031112,1.40289,0.0353017,0.0345505,580,981,-203.858,-35.8504
-637,43,-204.098,35.308,-0.00230445,0.0423616,0.00810549,0.043787,-0.00372986,1.39672,0.0305107,0.0210311,587,981,-204.098,-35.308
-630,43,-204.183,34.7461,-0.00184475,0.0354146,0.00678611,0.0366121,-0.00304223,1.39613,0.0254827,0.0160569,594,981,-204.183,-34.7461
-623,43,-204.275,34.0914,-0.00087606,0.0284149,0.00529306,0.0293421,-0.0018032,1.39739,0.0201893,0.015962,601,981,-204.275,-34.0914
-616,43,-204.344,33.3836,0.000574011,0.0214217,0.00365899,0.0220453,-4.95305e-05,1.402,0.0147134,0.0164173,608,981,-204.344,-33.3836
-609,43,-204.403,32.6251,0.00248017,0.0144992,0.00191275,0.0147963,0.00218311,1.41672,0.00922301,0.0188297,615,981,-204.403,-32.625
-602,43,-204.409,31.889,0.00482098,0.00771738,7.89945e-05,0.00771953,0.00481883,1.54355,0.0045025,0.0186981,622,981,-204.409,-31.8891
-595,43,-204.54,31.1884,0.00758008,0.00115214,-0.00182205,0.00806062,0.000671596,-0.257869,0.00516446,0.0314419,629,981,-204.54,-31.1884
-588,43,-204.724,30.4649,0,0,0,0,0,0,0,-1,636,981,-204.724,-30.4649
-581,43,-72.4127,0.449585,0,0,0,0,0,0,0,-1,643,981,-72.4127,-0.449601
-574,43,-72.3796,0.402466,0,0,0,0,0,0,0,-1,650,981,-72.3796,-0.402445
-567,43,-72.3245,0.34906,0,0,0,0,0,0,0,-1,657,981,-72.3245,-0.349055
-560,43,-72.3109,0.30719,0,0,0,0,0,0,0,-1,664,981,-72.3109,-0.307183
-553,43,-72.4063,0.408447,0,0,0,0,0,0,0,-1,671,981,-72.4063,-0.408433
-546,43,-72.4841,0.671204,0,0,0,0,0,0,0,-1,678,981,-72.4841,-0.671202
-539,43,-72.3586,0.661743,0,0,0,0,0,0,0,-1,685,981,-72.3586,-0.661716
-532,43,-72.2639,0.142639,0,0,0,0,0,0,0,-1,692,981,-72.2639,-0.142642
-525,43,-72.2532,0.235413,0,0,0,0,0,0,0,-1,699,981,-72.2533,-0.235409
-518,43,0,0,0,0,0,0,0,0,0,-1,706,981,0,0
-511,43,0,0,0,0,0,0,0,0,0,-1,713,981,0,0
-504,43,0,0,0,0,0,0,0,0,0,-1,720,981,0,0
-497,43,0,0,0,0,0,0,0,0,0,-1,727,981,0,0
-490,43,0,0,0,0,0,0,0,0,0,-1,734,981,0,0
-483,43,0,0,0,0,0,0,0,0,0,-1,741,981,0,0
-476,43,0,0,0,0,0,0,0,0,0,-1,748,981,0,0
-469,43,0,0,0,0,0,0,0,0,0,-1,755,981,0,0
-462,43,0,0,0,0,0,0,0,0,0,-1,762,981,0,0
-455,43,0,0,0,0,0,0,0,0,0,-1,769,981,0,0
-448,43,0,0,0,0,0,0,0,0,0,-1,776,981,0,0
-441,43,0,0,0,0,0,0,0,0,0,-1,783,981,0,0
-434,43,0,0,0,0,0,0,0,0,0,-1,790,981,0,0
-427,43,0,0,0,0,0,0,0,0,0,-1,797,981,0,0
-420,43,0,0,0,0,0,0,0,0,0,-1,804,981,0,0
-413,43,0,0,0,0,0,0,0,0,0,-1,811,981,0,0
-406,43,0,0,0,0,0,0,0,0,0,-1,818,981,0,0
-399,43,0,0,0,0,0,0,0,0,0,-1,825,981,0,0
-392,43,0,0,0,0,0,0,0,0,0,-1,832,981,0,0
-385,43,0,0,0,0,0,0,0,0,0,-1,839,981,0,0
-378,43,0,0,0,0,0,0,0,0,0,-1,846,981,0,0
-371,43,0,0,0,0,0,0,0,0,0,-1,853,981,0,0
-364,43,0,0,0,0,0,0,0,0,0,-1,860,981,0,0
-357,43,0,0,0,0,0,0,0,0,0,-1,867,981,0,0
-350,43,0,0,0,0,0,0,0,0,0,-1,874,981,0,0
-343,43,0,0,0,0,0,0,0,0,0,-1,881,981,0,0
-336,43,0,0,0,0,0,0,0,0,0,-1,888,981,0,0
-329,43,0,0,0,0,0,0,0,0,0,-1,895,981,0,0
-322,43,0,0,0,0,0,0,0,0,0,-1,902,981,0,0
-315,43,0,0,0,0,0,0,0,0,0,-1,909,981,0,0
-308,43,0,0,0,0,0,0,0,0,0,-1,916,981,0,0
-301,43,0,0,0,0,0,0,0,0,0,-1,923,981,0,0
-294,43,0,0,0,0,0,0,0,0,0,-1,930,981,0,0
-287,43,0,0,0,0,0,0,0,0,0,-1,937,981,0,0
-280,43,0,0,0,0,0,0,0,0,0,-1,944,981,0,0
-273,43,0,0,0,0,0,0,0,0,0,-1,951,981,0,0
-266,43,0,0,0,0,0,0,0,0,0,-1,958,981,0,0
-259,43,0,0,0,0,0,0,0,0,0,-1,965,981,0,0
-252,43,0,0,0,0,0,0,0,0,0,-1,972,981,0,0
-245,43,0,0,0,0,0,0,0,0,0,-1,979,981,0,0
-238,43,0,0,0,0,0,0,0,0,0,-1,986,981,0,0
-231,43,0,0,0,0,0,0,0,0,0,-1,993,981,0,0
-224,43,0,0,0,0,0,0,0,0,0,-1,1000,981,0,0
-217,43,0,0,0,0,0,0,0,0,0,-1,1007,981,0,0
-210,43,0,0,0,0,0,0,0,0,0,-1,1014,981,0,0
-203,43,0,0,0,0,0,0,0,0,0,-1,1021,981,0,0
-196,43,0,0,0,0,0,0,0,0,0,-1,1028,981,0,0
-189,43,0,0,0,0,0,0,0,0,0,-1,1035,981,0,0
-182,43,0,0,0,0,0,0,0,0,0,-1,1042,981,0,0
-175,43,0,0,0,0,0,0,0,0,0,-1,1049,981,0,0
-168,43,0,0,0,0,0,0,0,0,0,-1,1056,981,0,0
-161,43,0,0,0,0,0,0,0,0,0,-1,1063,981,0,0
-154,43,0,0,0,0,0,0,0,0,0,-1,1070,981,0,0
-147,43,0,0,0,0,0,0,0,0,0,-1,1077,981,0,0
-140,43,0,0,0,0,0,0,0,0,0,-1,1084,981,0,0
-133,43,0,0,0,0,0,0,0,0,0,-1,1091,981,0,0
-126,43,0,0,0,0,0,0,0,0,0,-1,1098,981,0,0
-119,43,0,0,0,0,0,0,0,0,0,-1,1105,981,0,0
-112,43,0,0,0,0,0,0,0,0,0,-1,1112,981,0,0
-105,43,0,0,0,0,0,0,0,0,0,-1,1119,981,0,0
-98,43,0,0,0,0,0,0,0,0,0,-1,1126,981,0,0
-91,43,0,0,0,0,0,0,0,0,0,-1,1133,981,0,0
-84,43,0,0,0,0,0,0,0,0,0,-1,1140,981,0,0
-77,43,0,0,0,0,0,0,0,0,0,-1,1147,981,0,0
-70,43,0,0,0,0,0,0,0,0,0,-1,1154,981,0,0
-63,43,0,0,0,0,0,0,0,0,0,-1,1161,981,0,0
-56,43,0,0,0,0,0,0,0,0,0,-1,1168,981,0,0
-49,43,0,0,0,0,0,0,0,0,0,-1,1175,981,0,0
-42,43,0,0,0,0,0,0,0,0,0,-1,1182,981,0,0
-35,43,0,0,0,0,0,0,0,0,0,-1,1189,981,0,0
-28,43,0,0,0,0,0,0,0,0,0,-1,1196,981,0,0
-21,43,0,0,0,0,0,0,0,0,0,-1,1203,981,0,0
-14,43,0,0,0,0,0,0,0,0,0,-1,1210,981,0,0
-7,43,0,0,0,0,0,0,0,0,0,-1,1217,981,0,0
0,43,0,0,0,0,0,0,0,0,0,-1,1224,981,0,0
7,43,0,0,0,0,0,0,0,0,0,-1,1231,981,0,0
14,43,0,0,0,0,0,0,0,0,0,-1,1238,981,0,0
21,43,0,0,0,0,0,0,0,0,0,-1,1245,981,0,0
28,43,0,0,0,0,0,0,0,0,0,-1,1252,981,0,0
35,43,0,0,0,0,0,0,0,0,0,-1,1259,981,0,0
42,43,0,0,0,0,0,0,0,0,0,-1,1266,981,0,0
49,43,0,0,0,0,0,0,0,0,0,-1,1273,981,0,0
56,43,0,0,0,0,0,0,0,0,0,-1,1280,981,0,0
63,43,0,0,0,0,0,0,0,0,0,-1,1287,981,0,0
70,43,0,0,0,0,0,0,0,0,0,-1,1294,981,0,0
77,43,0,0,0,0,0,0,0,0,0,-1,1301,981,0,0
84,43,0,0,0,0,0,0,0,0,0,-1,1308,981,0,0
91,43,0,0,0,0,0,0,0,0,0,-1,1315,981,0,0
98,43,0,0,0,0,0,0,0,0,0,-1,1322,981,0,0
105,43,0,0,0,0,0,0,0,0,0,-1,1329,981,0,0
112,43,0,0,0,0,0,0,0,0,0,-1,1336,981,0,0
119,43,0,0,0,0,0,0,0,0,0,-1,1343,981,0,0
126,43,0,0,0,0,0,0,0,0,0,-1,1350,981,0,0
133,43,0,0,0,0,0,0,0,0,0,-1,1357,981,0,0
140,43,0,0,0,0,0,0,0,0,0,-1,1364,981,0,0
147,43,0,0,0,0,0,0,0,0,0,-1,1371,981,0,0
154,43,0,0,0,0,0,0,0,0,0,-1,1378,981,0,0
161,43,0,0,0,0,0,0,0,0,0,-1,1385,981,0,0
168,43,0,0,0,0,0,0,0,0,0,-1,1392,981,0,0
175,43,0,0,0,0,0,0,0,0,0,-1,1399,981,0,0
182,43,0,0,0,0,0,0,0,0,0,-1,1406,981,0,0
189,43,0,0,0,0,0,0,0,0,0,-1,1413,981,0,0
196,43,0,0,0,0,0,0,0,0,0,-1,1420,981,0,0
203,43,0,0,0,0,0,0,0,0,0,-1,1427,981,0,0
210,43,0,0,0,0,0,0,0,0,0,-1,1434,981,0,0
217,43,0,0,0,0,0,0,0,0,0,-1,1441,981,0,0
224,43,0,0,0,0,0,0,0,0,0,-1,1448,981,0,0
231,43,0,0,0,0,0,0,0,0,0,-1,1455,981,0,0
238,43,0,0,0,0,0,0,0,0,0,-1,1462,981,0,0
245,43,0,0,0,0,0,0,0,0,0,-1,1469,981,0,0
252,43,0,0,0,0,0,0,0,0,0,-1,1476,981,0,0
259,43,0,0,0,0,0,0,0,0,0,-1,1483,981,0,0
266,43,0,0,0,0,0,0,0,0,0,-1,1490,981,0,0
273,43,0,0,0,0,0,0,0,0,0,-1,1497,981,0,0
280,43,0,0,0,0,0,0,0,0,0,-1,1504,981,0,0
287,43,0,0,0,0,0,0,0,0,0,-1,1511,981,0,0
294,43,0,0,0,0,0,0,0,0,0,-1,1518,981,0,0
301,43,0,0,0,0,0,0,0,0,0,-1,1525,981,0,0
308,43,0,0,0,0,0,0,0,0,0,-1,1532,981,0,0
315,43,0,0,0,0,0,0,0,0,0,-1,1539,981,0,0
322,43,0,0,0,0,0,0,0,0,0,-1,1546,981,0,0
329,43,0,0,0,0,0,0,0,0,0,-1,1553,981,0,0
336,43,0,0,0,0,0,0,0,0,0,-1,1560,981,0,0
343,43,0,0,0,0,0,0,0,0,0,-1,1567,981,0,0
350,43,0,0,0,0,0,0,0,0,0,-1,1574,981,0,0
357,43,0,0,0,0,0,0,0,0,0,-1,1581,981,0,0
364,43,0,0,0,0,0,0,0,0,0,-1,1588,981,0,0
371,43,0,0,0,0,0,0,0,0,0,-1,1595,981,0,0
378,43,0,0,0,0,0,0,0,0,0,-1,1602,981,0,0
385,43,0,0,0,0,0,0,0,0,0,-1,1609,981,0,0
392,43,0,0,0,0,0,0,0,0,0,-1,1616,981,0,0
399,43,0,0,0,0,0,0,0,0,0,-1,1623,981,0,0
406,43,0,0,0,0,0,0,0,0,0,-1,1630,981,0,0
413,43,0,0,0,0,0,0,0,0,0,-1,1637,981,0,0
420,43,0,0,0,0,0,0,0,0,0,-1,1644,981,0,0
427,43,0,0,0,0,0,0,0,0,0,-1,1651,981,0,0
434,43,0,0,0,0,0,0,0,0,0,-1,1658,981,0,0
441,43,0,0,0,0,0,0,0,0,0,-1,1665,981,0,0
448,43,0,0,0,0,0,0,0,0,0,-1,1672,981,0,0
455,43,0,0,0,0,0,0,0,0,0,-1,1679,981,0,0
462,43,0,0,0,0,0,0,0,0,0,-1,1686,981,0,0
469,43,0,0,0,0,0,0,0,0,0,-1,1693,981,0,0
476,43,0,0,0,0,0,0,0,0,0,-1,1700,981,0,0
483,43,0,0,0,0,0,0,0,0,0,-1,1707,981,0,0
490,43,0,0,0,0,0,0,0,0,0,-1,1714,981,0,0
497,43,0,0,0,0,0,0,0,0,0,-1,1721,981,0,0
504,43,0,0,0,0,0,0,0,0,0,-1,1728,981,0,0
511,43,0,0,0,0,0,0,0,0,0,-1,1735,981,0,0
518,43,0,0,0,0,0,0,0,0,0,-1,1742,981,0,0
525,43,0,0,0,0,0,0,0,0,0,-1,1749,981,0,0
532,43,0,0,0,0,0,0,0,0,0,-1,1756,981,0,0
539,43,0,0,0,0,0,0,0,0,0,-1,1763,981,0,0
546,43,0,0,0,0,0,0,0,0,0,-1,1770,981,0,0
553,43,0,0,0,0,0,0,0,0,0,-1,1777,981,0,0
560,43,0,0,0,0,0,0,0,0,0,-1,1784,981,0,0
567,43,0,0,0,0,0,0,0,0,0,-1,1791,981,0,0
574,43,0,0,0,0,0,0,0,0,0,-1,1798,981,0,0
581,43,0,0,0,0,0,0,0,0,0,-1,1805,981,0,0
588,43,0,0,0,0,0,0,0,0,0,-1,1812,981,0,0
595,43,0,0,0,0,0,0,0,0,0,-1,1819,981,0,0
602,43,0,0,0,0,0,0,0,0,0,-1,1826,981,0,0
609,43,0,0,0,0,0,0,0,0,0,-1,1833,981,0,0
616,43,0,0,0,0,0,0,0,0,0,-1,1840,981,0,0
623,43,0,0,0,0,0,0,0,0,0,-1,1847,981,0,0
630,43,0,0,0,0,0,0,0,0,0,-1,1854,981,0,0
637,43,0,0,0,0,0,0,0,0,0,-1,1861,981,0,0
644,43,214.941,8.6983,0,0,0,0,0,0,0,-1,1868,981,214.941,-8.69833
651,43,214.799,8.53052,0,0,0,0,0,0,0,-1,1875,981,214.799,-8.5305
658,43,214.811,8.57544,0,0,0,0,0,0,0,-1,1882,981,214.811,-8.57543
665,43,214.885,8.41321,0,0,0,0,0,0,0,-1,1889,981,214.886,-8.41319
672,43,214.969,8.39813,0,0,0,0,0,0,0,-1,1896,981,214.969,-8.39816
679,43,214.983,8.56769,0,0,0,0,0,0,0,-1,1903,981,214.983,-8.56771
686,43,214.893,8.61884,0,0,0,0,0,0,0,-1,1910,981,214.893,-8.61881
693,43,214.927,8.51117,0,0,0,0,0,0,0,-1,1917,981,214.927,-8.51119
700,43,215.006,8.495,0,0,0,0,0,0,0,-1,1924,981,215.006,-8.49498
707,43,211.878,8.16754,0,0,0,0,0,0,0,-1,1931,981,211.878,-8.16752
714,43,193.781,8.07935,0,0,0,0,0,0,0,-1,1938,981,193.78,-8.07934
721,43,212.39,30.6392,0,0,0,0,0,0,0,-1,1945,981,212.39,-30.6392
728,43,212.629,31.4306,0.0071611,-0.00441276,0.0018974,0.00746422,-0.00471588,0.158416,0.00709161,0.024829,1952,981,212.629,-31.4306
735,43,212.76,32.1844,0.0014336,0.00535156,-0.00046999,0.00540715,0.00137801,-1.45306,0.00324449,0.0176082,1959,981,212.76,-32.1844
742,43,212.608,32.9195,-0.00373734,0.0123373,-0.00223278,0.0126416,-0.00404172,-1.43531,0.0100497,0.0191713,1966,981,212.608,-32.9195
749,43,212.556,33.5466,-0.00913829,0.0188434,-0.00331716,0.0192313,-0.00952616,-1.4544,0.0169153,0.0216423,1973,981,212.556,-33.5466
756,43,212.42,34.2029,-0.014409,0.0247498,-0.00406886,0.0251681,-0.0148273,-1.46835,0.0233472,0.026656,1980,981,212.42,-34.2029
763,43,212.315,34.8204,-0.0196363,0.0299815,-0.00443303,0.0303744,-0.0200292,-1.48239,0.0293042,0.0311178,1987,981,212.316,-34.8204
770,43,212.103,35.5684,-0.0249286,0.034475,-0.00434629,0.0347913,-0.0252449,-1.49815,0.0348077,0.0309615,1994,981,212.103,-35.5683
777,43,212.133,36.3274,-0.0304806,0.0381818,-0.00374678,0.0383856,-0.0306845,-1.51644,0.0399602,0.0374391,2001,981,212.133,-36.3274
784,43,212.21,37.1729,0,0,0,0,0,0,0,-1,2008,981,212.211,-37.1729
791,43,211.878,38.9423,0,0,0,0,0,0,0,-1,2015,981,211.878,-38.9423
798,43,199.719,37.7299,0,0,0,0,0,0,0,-1,2022,981,199.72,-37.7299
805,43,100.68,14.4006,0,0,0,0,0,0,0,-1,2029,981,100.68,-14.4006
812,43,88.1521,11.3432,0,0,0,0,0,0,0,-1,2036,981,88.1521,-11.3432
-700,36,0,0,0,0,0,0,0,0,0,-1,524,988,0,0
-693,36,-99.4285,1.0423,0,0,0,0,0,0,0,-1,531,988,-99.4285,-1.0423
-686,36,-99.1122,2.69891,0,0,0,0,0,0,0,-1,538,988,-99.1122,-2.69891
-679,36,-98.9387,3.27319,0,0,0,0,0,0,0,-1,545,988,-98.9387,-3.27319
-672,36,-92.8255,3.66522,0,0,0,0,0,0,0,-1,552,988,-92.8255,-3.66522
-665,36,-76.8934,4.69366,0,0,0,0,0,0,0,-1,559,988,-76.8934,-4.69369
-658,36,-90.5589,15.0411,0,0,0,0,0,0,0,-1,566,988,-90.5589,-15.0411
-651,36,-204.293,35.8753,0,0,0,0,0,0,0,-1,573,988,-204.293,-35.8753
-644,36,-204.614,35.5287,-0.00427319,0.0500165,0.00820384,0.0512291,-0.00548581,1.42405,0.0361205,0.0430718,580,988,-204.614,-35.5288
-637,36,-204.861,35.0071,-0.00387705,0.0422644,0.00742219,0.0434289,-0.00504158,1.41517,0.0307711,0.0268434,587,988,-204.861,-35.0072
-630,36,-204.998,34.4821,-0.00265607,0.0351143,0.0061942,0.0361042,-0.00364595,1.41233,0.0253723,0.0183367,594,988,-204.998,-34.4821
-623,36,-205.103,33.8785,-0.00106275,0.0279473,0.00480627,0.0287229,-0.0018383,1.41081,0.0197898,0.0172398,601,988,-205.103,-33.8786
-616,36,-205.115,33.3163,0.000898081,0.0208188,0.00328918,0.0213479,0.000369045,1.41132,0.0141105,0.0151313,608,988,-205.115,-33.3163
-609,36,-205.009,32.7202,0.00322172,0.0137911,0.00167093,0.014049,0.00296385,1.41768,0.00855101,0.0227139,615,988,-205.009,-32.7202
-602,36,-205.072,31.9796,0.00590498,0.00693328,-2.36417e-05,0.00693382,0.00590443,-1.54782,0.00432049,0.0255725,622,988,-205.072,-31.9796
-595,36,-205.105,31.1287,0,0,0,0,0,0,0,-1,629,988,-205.105,-31.1287
-588,36,-178.321,28.7643,0,0,0,0,0,0,0,-1,636,988,-178.321,-28.7643
-581,36,-72.3473,0.507568,0,0,0,0,0,0,0,-1,643,988,-72.3473,-0.50759
-574,36,-72.3412,0.423096,0,0,0,0,0,0,0,-1,650,988,-72.3412,-0.423081
-567,36,-72.3419,0.350952,0,0,0,0,0,0,0,-1,657,988,-72.3419,-0.350938
-560,36,-72.3801,0.31012,0,0,0,0,0,0,0,-1,664,988,-72.3801,-0.310147
-553,36,-72.459,0.418152,0,0,0,0,0,0,0,-1,671,988,-72.459,-0.418138
-546,36,-72.4573,0.761353,0,0,0,0,0,0,0,-1,678,988,-72.4573,-0.761375
-539,36,-72.3875,0.629822,0,0,0,0,0,0,0,-1,685,988,-72.3875,-0.629807
-532,36,-72.3541,0.460571,0,0,0,0,0,0,0,-1,692,988,-72.3541,-0.460576
-525,36,-72.4338,0.453003,0,0,0,0,0,0,0,-1,699,988,-72.4338,-0.453011
-518,36,0,0,0,0,0,0,0,0,0,-1,706,988,0,0
-511,36,0,0,0,0,0,0,0,0,0,-1,713,988,0,0
-504,36,0,0,0,0,0,0,0,0,0,-1,720,988,0,0
-497,36,0,0,0,0,0,0,0,0,0,-1,727,988,0,0
-490,36,0,0,0,0,0,0,0,0,0,-1,734,988,0,0
-483,36,0,0,0,0,0,0,0,0,0,-1,741,988,0,0
-476,36,0,0,0,0,0,0,0,0,0,-1,748,988,0,0
-469,36,0,0,0,0,0,0,0,0,0,-1,755,988,0,0
-462,36,0,0,0,0,0,0,0,0,0,-1,762,988,0,0
-455,36,0,0,0,0,0,0,0,0,0,-1,769,988,0,0
-448,36,0,0,0,0,0,0,0,0,0,-1,776,988,0,0
-441,36,0,0,0,0,0,0,0,0,0,-1,783,988,0,0
-434,36,0,0,0,0,0,0,0,0,0,-1,790,988,0,0
-427,36,0,0,0,0,0,0,0,0,0,-1,797,988,0,0
-420,36,0,0,0,0,0,0,0,0,0,-1,804,988,0,0
-413,36,0,0,0,0,0,0,0,0,0,-1,811,988,0,0
-406,36,0,0,0,0,0,0,0,0,0,-1,818,988,0,0
-399,36,0,0,0,0,0,0,0,0,0,-1,825,988,0,0
-392,36,0,0,0,0,0,0,0,0,0,-1,832,988,0,0
-385,36,0,0,0,0,0,0,0,0,0,-1,839,988,0,0
-378,36,0,0,0,0,0,0,0,0,0,-1,846,988,0,0
-371,36,0,0,0,0,0,0,0,0,0,-1,853,988,0,0
-364,36,0,0,0,0,0,0,0,0,0,-1,860,988,0,0
-357,36,0,0,0,0,0,0,0,0,0,-1,867,988,0,0
-350,36,0,0,0,0,0,0,0,0,0,-1,874,988,0,0
-343,36,0,0,0,0,0,0,0,0,0,-1,881,988,0,0
-336,36,0,0,0,0,0,0,0,0,0,-1,888,988,0,0
-329,36,0,0,0,0,0,0,0,0,0,-1,895,988,0,0
-322,36,0,0,0,0,0,0,0,0,0,-1,902,988,0,0
-315,36,0,0,0,0,0,0,0,0,0,-1,909,988,0,0
-308,36,0,0,0,0,0,0,0,0,0,-1,916,988,0,0
-301,36,0,0,0,0,0,0,0,0,0,-1,923,988,0,0
-294,36,0,0,0,0,0,0,0,0,0,-1,930,988,0,0
-287,36,0,0,0,0,0,0,0,0,0,-1,937,988,0,0
-280,36,0,0,0,0,0,0,0,0,0,-1,944,988,0,0
-273,36,0,0,0,0,0,0,0,0,0,-1,951,988,0,0
-266,36,0,0,0,0,0,0,0,0,0,-1,958,988,0,0
-259,36,0,0,0,0,0,0,0,0,0,-1,965,988,0,0
-252,36,0,0,0,0,0,0,0,0,0,-1,972,988,0,0
-245,36,0,0,0,0,0,0,0,0,0,-1,979,988,0,0
-238,36,0,0,0,0,0,0,0,0,0,-1,986,988,0,0
-231,36,0,0,0,0,0,0,0,0,0,-1,993,988,0,0
-224,36,0,0,0,0,0,0,0,0,0,-1,1000,988,0,0
-217,36,0,0,0,0,0,0,0,0,0,-1,1007,988,0,0
-210,36,0,0,0,0,0,0,0,0,0,-1,1014,988,0,0
-203,36,0,0,0,0,0,0,0,0,0,-1,1021,988,0,0
-196,36,0,0,0,0,0,0,0,0,0,-1,1028,988,0,0
-189,36,0,0,0,0,0,0,0,0,0,-1,1035,988,0,0
-182,36,0,0,0,0,0,0,0,0,0,-1,1042,988,0,0
-175,36,0,0,0,0,0,0,0,0,0,-1,1049,988,0,0
-168,36,0,0,0,0,0,0,0,0,0,-1,1056,988,0,0
-161,36,0,0,0,0,0,0,0,0,0,-1,1063,988,0,0
-154,36,0,0,0,0,0,0,0,0,0,-1,1070,988,0,0
-147,36,0,0,0,0,0,0,0,0,0,-1,1077,988,0,0
-140,36,0,0,0,0,0,0,0,0,0,-1,1084,988,0,0
-133,36,0,0,0,0,0,0,0,0,0,-1,1091,988,0,0
-126,36,0,0,0,0,0,0,0,0,0,-1,1098,988,0,0
-119,36,0,0,0,0,0,0,0,0,0,-1,1105,988,0,0
-112,36,0,0,0,0,0,0,0,0,0,-1,1112,988,0,0
-105,36,0,0,0,0,0,0,0,0,0,-1,1119,988,0,0
-98,36,0,0,0,0,0,0,0,0,0,-1,1126,988,0,0
-91,36,0,0,0,0,0,0,0,0,0,-1,1133,988,0,0
-84,36,0,0,0,0,0,0,0,0,0,-1,1140,988,0,0
-77,36,0,0,0,0,0,0,0,0,0,-1,1147,988,0,0
-70,36,0,0,0,0,0,0,0,0,0,-1,1154,988,0,0
-63,36,0,0,0,0,0,0,0,0,0,-1,1161,988,0,0
-56,36,0,0,0,0,0,0,0,0,0,-1,1168,988,0,0
-49,36,0,0,0,0,0,0,0,0,0,-1,1175,988,0,0
-42,36,0,0,0,0,0,0,0,0,0,-1,1182,988,0,0
-35,36,0,0,0,0,0,0,0,0,0,-1,1189,988,0,0
-28,36,0,0,0,0,0,0,0,0,0,-1,1196,988,0,0
-21,36,0,0,0,0,0,0,0,0,0,-1,1203,988,0,0
-14,36,0,0,0,0,0,0,0,0,0,-1,1210,988,0,0
-7,36,0,0,0,0,0,0,0,0,0,-1,1217,988,0,0
0,36,0,0,0,0,0,0,0,0,0,-1,1224,988,0,0
7,36,0,0,0,0,0,0,0,0,0,-1,1231,988,0,0
14,36,0,0,0,0,0,0,0,0,0,-1,1238,988,0,0
21,36,0,0,0,0,0,0,0,0,0,-1,1245,988,0,0
28,36,0,0,0,0,0,0,0,0,0,-1,1252,988,0,0
35,36,0,0,0,0,0,0,0,0,0,-1,1259,988,0,0
42,36,0,0,0,0,0,0,0,0,0,-1,1266,988,0,0
49,36,0,0,0,0,0,0,0,0,0,-1,1273,988,0,0
56,36,0,0,0,0,0,0,0,0,0,-1,1280,988,0,0
63,36,0,0,0,0,0,0,0,0,0,-1,1287,988,0,0
70,36,0,0,0,0,0,0,0,0,0,-1,1294,988,0,0
77,36,0,0,0,0,0,0,0,0,0,-1,1301,988,0,0
84,36,0,0,0,0,0,0,0,0,0,-1,1308,988,0,0
91,36,0,0,0,0,0,0,0,0,0,-1,1315,988,0,0
98,36,0,0,0,0,0,0,0,0,0,-1,1322,988,0,0
105,36,0,0,0,0,0,0,0,0,0,-1,1329,988,0,0
112,36,0,0,0,0,0,0,0,0,0,-1,1336,988,0,0
119,36,0,0,0,0,0,0,0,0,0,-1,1343,988,0,0
126,36,0,0,0,0,0,0,0,0,0,-1,1350,988,0,0
133,36,0,0,0,0,0,0,0,0,0,-1,1357,988,0,0
140,36,0,0,0,0,0,0,0,0,0,-1,1364,988,0,0
147,36,0,0,0,0,0,0,0,0,0,-1,1371,988,0,0
154,36,0,0,0,0,0,0,0,0,0,-1,1378,988,0,0
161,36,0,0,0,0,0,0,0,0,0,-1,1385,988,0,0
168,36,0,0,0,0,0,0,0,0,0,-1,1392,988,0,0
175,36,0,0,0,0,0,0,0,0,0,-1,1399,988,0,0
182,36,0,0,0,0,0,0,0,0,0,-1,1406,988,0,0
189,36,0,0,0,0,0,0,0,0,0,-1,1413,988,0,0
196,36,0,0,0,0,0,0,0,0,0,-1,1420,988,0,0
203,36,0,0,0,0,0,0,0,0,0,-1,1427,988,0,0
210,36,0,0,0,0,0,0,0,0,0,-1,1434,988,0,0
217,36,0,0,0,0,0,0,0,0,0,-1,1441,988,0,0
224,36,0,0,0,0,0,0,0,0,0,-1,1448,988,0,0
231,36,0,0,0,0,0,0,0,0,0,-1,1455,988,0,0
238,36,0,0,0,0,0,0,0,0,0,-1,1462,988,0,0
245,36,0,0,0,0,0,0,0,0,0,-1,1469,988,0,0
252,36,0,0,0,0,0,0,0,0,0,-1,1476,988,0,0
259,36,0,0,0,0,0,0,0,0,0,-1,1483,988,0,0
266,36,0,0,0,0,0,0,0,0,0,-1,1490,988,0,0
273,36,0,0,0,0,0,0,0,0,0,-1,1497,988,0,0
280,36,0,0,0,0,0,0,0,0,0,-1,1504,988,0,0
287,36,0,0,0,0,0,0,0,0,0,-1,1511,988,0,0
294,36,0,0,0,0,0,0,0,0,0,-1,1518,988,0,0
301,36,0,0,0,0,0,0,0,0,0,-1,1525,988,0,0
308,36,0,0,0,0,0,0,0,0,0,-1,1532,988,0,0
315,36,0,0,0,0,0,0,0,0,0,-1,1539,988,0,0
322,36,0,0,0,0,0,0,0,0,0,-1,1546,988,0,0
329,36,0,0,0,0,0,0,0,0,0,-1,1553,988,0,0
336,36,0,0,0,0,0,0,0,0,0,-1,1560,988,0,0
343,36,0,0,0,0,0,0,0,0,0,-1,1567,988,0,0
350,36,0,0,0,0,0,0,0,0,0,-1,1574,988,0,0
357,36,0,0,0,0,0,0,0,0,0,-1,1581,988,0,0
364,36,0,0,0,0,0,0,0,0,0,-1,1588,988,0,0
371,36,0,0,0,0,0,0,0,0,0,-1,1595,988,0,0
378,36,0,0,0,0,0,0,0,0,0,-1,1602,988,0,0
385,36,0,0,0,0,0,0,0,0,0,-1,1609,988,0,0
392,36,0,0,0,0,0,0,0,0,0,-1,1616,988,0,0
399,36,0,0,0,0,0,0,0,0,0,-1,1623,988,0,0
406,36,0,0,0,0,0,0,0,0,0,-1,1630,988,0,0
413,36,0,0,0,0,0,0,0,0,0,-1,1637,988,0,0
420,36,0,0,0,0,0,0,0,0,0,-1,1644,988,0,0
427,36,0,0,0,0,0,0,0,0,0,-1,1651,988,0,0
434,36,0,0,0,0,0,0,0,0,0,-1,1658,988,0,0
441,36,0,0,0,0,0,0,0,0,0,-1,1665,988,0,0
448,36,0,0,0,0,0,0,0,0,0,-1,1672,988,0,0
455,36,0,0,0,0,0,0,0,0,0,-1,1679,988,0,0
462,36,0,0,0,0,0,0,0,0,0,-1,1686,988,0,0
469,36,0,0,0,0,0,0,0,0,0,-1,1693,988,0,0
476,36,0,0,0,0,0,0,0,0,0,-1,1700,988,0,0
483,36,0,0,0,0,0,0,0,0,0,-1,1707,988,0,0
490,36,0,0,0,0,0,0,0,0,0,-1,1714,988,0,0
497,36,0,0,0,0,0,0,0,0,0,-1,1721,988,0,0
504,36,0,0,0,0,0,0,0,0,0,-1,1728,988,0,0
511,36,0,0,0,0,0,0,0,0,0,-1,1735,988,0,0
518,36,0,0,0,0,0,0,0,0,0,-1,1742,988,0,0
525,36,0,0,0,0,0,0,0,0,0,-1,1749,988,0,0
532,36,0,0,0,0,0,0,0,0,0,-1,1756,988,0,0
539,36,0,0,0,0,0,0,0,0,0,-1,1763,988,0,0
546,36,0,0,0,0,0,0,0,0,0,-1,1770,988,0,0
553,36,0,0,0,0,0,0,0,0,0,-1,1777,988,0,0
560,36,0,0,0,0,0,0,0,0,0,-1,1784,988,0,0
567,36,0,0,0,0,0,0,0,0,0,-1,1791,988,0,0
574,36,0,0,0,0,0,0,0,0,0,-1,1798,988,0,0
581,36,0,0,0,0,0,0,0,0,0,-1,1805,988,0,0
588,36,0,0,0,0,0,0,0,0,0,-1,1812,988,0,0
595,36,0,0,0,0,0,0,0,0,0,-1,1819,988,0,0
602,36,0,0,0,0,0,0,0,0,0,-1,1826,988,0,0
609,36,0,0,0,0,0,0,0,0,0,-1,1833,988,0,0
616,36,0,0,0,0,0,0,0,0,0,-1,1840,988,0,0
623,36,0,0,0,0,0,0,0,0,0,-1,1847,988,0,0
630,36,0,0,0,0,0,0,0,0,0,-1,1854,988,0,0
637,36,0,0,0,0,0,0,0,0,0,-1,1861,988,0,0
644,36,214.941,8.685,0,0,0,0,0,0,0,-1,1868,988,214.941,-8.685
651,36,214.825,8.70929,0,0,0,0,0,0,0,-1,1875,988,214.825,-8.70926
658,36,214.958,8.79974,0,0,0,0,0,0,0,-1,1882,988,214.957,-8.79972
665,36,215.074,8.59314,0,0,0,0,0,0,0,-1,1889,988,215.075,-8.59315
672,36,214.996,8.60706,0,0,0,0,0,0,0,-1,1896,988,214.996,-8.60705
679,36,214.97,8.70782,0,0,0,0,0,0,0,-1,1903,988,214.97,-8.70782
686,36,214.888,8.7088,0,0,0,0,0,0,0,-1,1910,988,214.888,-8.70879
693,36,214.93,8.59967,0,0,0,0,0,0,0,-1,1917,988,214.93,-8.59965
700,36,214.989,8.5365,0,0,0,0,0,0,0,-1,1924,988,214.989,-8.53651
707,36,211.856,8.22894,0,0,0,0,0,0,0,-1,1931,988,211.857,-8.22896
714,36,196.268,8.11206,0,0,0,0,0,0,0,-1,1938,988,196.268,-8.11206
721,36,212.814,30.6599,0,0,0,0,0,0,0,-1,1945,988,212.814,-30.6599
728,36,213.152,31.4655,0.0103842,-0.00631148,0.0025064,0.0107524,-0.00667963,0.145841,0.0101555,0.0342771,1952,988,213.152,-31.4654
735,36,213.336,32.2573,0.00379706,0.00389841,-3.95317e-05,0.00391201,0.00378346,-1.23956,0.00256623,0.0237089,1959,988,213.336,-32.2573
742,36,213.242,32.8039,-0.00200617,0.0112111,-0.00195617,0.0114946,-0.00228961,-1.4269,0.0085293,0.0183208,1966,988,213.243,-32.8039
749,36,213.175,33.4359,-0.00791473,0.0180528,-0.00313906,0.0184269,-0.0082888,-1.45219,0.0157902,0.020708,1973,988,213.175,-33.4359
756,36,213.065,34.0793,-0.013586,0.0243222,-0.00398019,0.0247356,-0.0139994,-1.4673,0.0226482,0.0228645,1980,988,213.065,-34.0794
763,36,212.9,34.6703,-0.0191116,0.029947,-0.00443047,0.0303439,-0.0195085,-1.48145,0.029008,0.0252382,1987,988,212.9,-34.6703
770,36,212.764,35.3162,-0.0246021,0.0348665,-0.0044314,0.0351949,-0.0249305,-1.49682,0.0348816,0.0226945,1994,988,212.764,-35.3162
777,36,212.875,36.0026,-0.0301882,0.03904,-0.0039159,0.0392608,-0.030409,-1.51447,0.040332,0.0340008,2001,988,212.874,-36.0026
784,36,213.717,36.4147,0,0,0,0,0,0,0,-1,2008,988,213.717,-36.4147
791,36,202.26,37.1884,0,0,0,0,0,0,0,-1,2015,988,202.26,-37.1884
798,36,114.126,20.1268,0,0,0,0,0,0,0,-1,2022,988,114.126,-20.1268
805,36,114.409,21.1661,0,0,0,0,0,0,0,-1,2029,988,114.409,-21.1661
812,36,80.2622,5.14569,0,0,0,0,0,0,0,-1,2036,988,80.2621,-5.1457
-700,29,0,0,0,0,0,0,0,0,0,-1,524,995,0,0
-693,29,-97.8289,0.372925,0,0,0,0,0,0,0,-1,531,995,-97.8289,-0.372929
-686,29,-97.6048,1.65991,0,0,0,0,0,0,0,-1,538,995,-97.6048,-1.65989
-679,29,-97.4024,2.89258,0,0,0,0,0,0,0,-1,545,995,-97.4024,-2.8926
-672,29,-97.1027,4.07483,0,0,0,0,0,0,0,-1,552,995,-97.1027,-4.07484
-665,29,-76.1727,4.00098,0,0,0,0,0,0,0,-1,559,995,-76.1727,-4.00097
-658,29,-74.8002,4.05365,0,0,0,0,0,0,0,-1,566,995,-74.8002,-4.05367
-651,29,-91.399,14.4346,0,0,0,0,0,0,0,-1,573,995,-91.399,-14.4346
-644,29,-205.265,35.1638,0,0,0,0,0,0,0,-1,580,995,-205.265,-35.1638
-637,29,-205.545,34.7635,-0.0056544,0.0420941,0.00658957,0.0429868,-0.00654711,1.43614,0.031071,0.037656,587,995,-205.545,-34.7635
-630,29,-205.677,34.2249,-0.00364072,0.0346934,0.00550379,0.035468,-0.00441527,1.43098,0.0252461,0.0186626,594,995,-205.677,-34.2249
-623,29,-205.748,33.6923,-0.00138666,0.0273427,0.00426538,0.0279626,-0.00200655,1.42648,0.0193453,0.0174344,601,995,-205.748,-33.6923
-616,29,-205.797,33.2253,0.00111557,0.0200899,0.00290549,0.0205249,0.000680629,1.4222,0.0134621,0.023454,608,995,-205.797,-33.2253
-609,29,-205.687,32.713,0.00387435,0.0129902,0.00145328,0.0132163,0.00364828,1.41647,0.00788145,0.0331932,615,995,-205.687,-32.713
-602,29,-205.736,32.0267,0.00689945,0.00610667,-6.44249e-05,0.00690465,0.00610146,-0.0805597,0.0043601,0.0333486,622,995,-205.736,-32.0267
-595,29,-205.723,31.252,0,0,0,0,0,0,0,-1,629,995,-205.723,-31.2519
-588,29,-184.78,29.9845,0,0,0,0,0,0,0,-1,636,995,-184.78,-29.9845
-581,29,-72.3035,0.499573,0,0,0,0,0,0,0,-1,643,995,-72.3036,-0.499578
-574,29,-72.31,0.427063,0,0,0,0,0,0,0,-1,650,995,-72.31,-0.427046
-567,29,-72.3035,0.407288,0,0,0,0,0,0,0,-1,657,995,-72.3035,-0.407297
-560,29,-72.4127,0.387878,0,0,0,0,0,0,0,-1,664,995,-72.4127,-0.387875
-553,29,-72.4764,0.807861,0,0,0,0,0,0,0,-1,671,995,-72.4764,-0.807876
-546,29,-72.4146,0.674622,0,0,0,0,0,0,0,-1,678,995,-72.4146,-0.674645
-539,29,-72.316,0.321289,0,0,0,0,0,0,0,-1,685,995,-72.316,-0.321271
-532,29,-72.0922,0.0151978,0,0,0,0,0,0,0,-1,692,995,-72.0922,-0.0152197
-525,29,-72.4575,0.468079,0,0,0,0,0,0,0,-1,699,995,-72.4575,-0.4681
-518,29,0,0,0,0,0,0,0,0,0,-1,706,995,0,0
-511,29,0,0,0,0,0,0,0,0,0,-1,713,995,0,0
-504,29,0,0,0,0,0,0,0,0,0,-1,720,995,0,0
-497,29,0,0,0,0,0,0,0,0,0,-1,727,995,0,0
-490,29,0,0,0,0,0,0,0,0,0,-1,734,995,0,0
-483,29,0,0,0,0,0,0,0,0,0,-1,741,995,0,0
-476,29,0,0,0,0,0,0,0,0,0,-1,748,995,0,0
-469,29,0,0,0,0,0,0,0,0,0,-1,755,995,0,0
-462,29,0,0,0,0,0,0,0,0,0,-1,762,995,0,0
-455,29,0,0,0,0,0,0,0,0,0,-1,769,995,0,0
-448,29,0,0,0,0,0,0,0,0,0,-1,776,995,0,0
-441,29,0,0,0,0,0,0,0,0,0,-1,783,995,0,0
-434,29,0,0,0,0,0,0,0,0,0,-1,790,995,0,0
-427,29,0,0,0,0,0,0,0,0,0,-1,797,995,0,0
-420,29,0,0,0,0,0,0,0,0,0,-1,804,995,0,0
-413,29,0,0,0,0,0,0,0,0,0,-1,811,995,0,0
-406,29,0,0,0,0,0,0,0,0,0,-1,818,995,0,0
-399,29,0,0,0,0,0,0,0,0,0,-1,825,995,0,0
-392,29,0,0,0,0,0,0,0,0,0,-1,832,995,0,0
-385,29,0,0,0,0,0,0,0,0,0,-1,839,995,0,0
-378,29,0,0,0,0,0,0,0,0,0,-1,846,995,0,0
-371,29,0,0,0,0,0,0,0,0,0,-1,853,995,0,0
-364,29,0,0,0,0,0,0,0,0,0,-1,860,995,0,0
-357,29,0,0,0,0,0,0,0,0,0,-1,867,995,0,0
-350,29,0,0,0,0,0,0,0,0,0,-1,874,995,0,0
-343,29,0,0,0,0,0,0,0,0,0,-1,881,995,0,0
-336,29,0,0,0,0,0,0,0,0,0,-1,888,995,0,0
-329,29,0,0,0,0,0,0,0,0,0,-1,895,995,0,0
-322,29,0,0,0,0,0,0,0,0,0,-1,902,995,0,0
-315,29,0,0,0,0,0,0,0,0,0,-1,909,995,0,0
-308,29,0,0,0,0,0,0,0,0,0,-1,916,995,0,0
-301,29,0,0,0,0,0,0,0,0,0,-1,923,995,0,0
-294,29,0,0,0,0,0,0,0,0,0,-1,930,995,0,0
-287,29,0,0,0,0,0,0,0,0,0,-1,937,995,0,0
-280,29,0,0,0,0,0,0,0,0,0,-1,944,995,0,0
-273,29,0,0,0,0,0,0,0,0,0,-1,951,995,0,0
-266,29,0,0,0,0,0,0,0,0,0,-1,958,995,0,0
-259,29,0,0,0,0,0,0,0,0,0,-1,965,995,0,0
-252,29,0,0,0,0,0,0,0,0,0,-1,972,995,0,0
-245,29,0,0,0,0,0,0,0,0,0,-1,979,995,0,0
-238,29,0,0,0,0,0,0,0,0,0,-1,986,995,0,0
-231,29,0,0,0,0,0,0,0,0,0,-1,993,995,0,0
-224,29,0,0,0,0,0,0,0,0,0,-1,1000,995,0,0
-217,29,0,0,0,0,0,0,0,0,0,-1,1007,995,0,0
-210,29,0,0,0,0,0,0,0,0,0,-1,1014,995,0,0
-203,29,0,0,0,0,0,0,0,0,0,-1,1021,995,0,0
-196,29,0,0,0,0,0,0,0,0,0,-1,1028,995,0,0
-189,29,0,0,0,0,0,0,0,0,0,-1,1035,995,0,0
-182,29,0,0,0,0,0,0,0,0,0,-1,1042,995,0,0
-175,29,0,0,0,0,0,0,0,0,0,-1,1049,995,0,0
-168,29,0,0,0,0,0,0,0,0,0,-1,1056,995,0,0
-161,29,0,0,0,0,0,0,0,0,0,-1,1063,995,0,0
-154,29,0,0,0,0,0,0,0,0,0,-1,1070,995,0,0
-147,29,0,0,0,0,0,0,0,0,0,-1,1077,995,0,0
-140,29,0,0,0,0,0,0,0,0,0,-1,1084,995,0,0
-133,29,0,0,0,0,0,0,0,0,0,-1,1091,995,0,0
-126,29,0,0,0,0,0,0,0,0,0,-1,1098,995,0,0
-119,29,0,0,0,0,0,0,0,0,0,-1,1105,995,0,0
-112,29,0,0,0,0,0,0,0,0,0,-1,1112,995,0,0
-105,29,0,0,0,0,0,0,0,0,0,-1,1119,995,0,0
-98,29,0,0,0,0,0,0,0,0,0,-1,1126,995,0,0
-91,29,0,0,0,0,0,0,0,0,0,-1,1133,995,0,0
-84,29,0,0,0,0,0,0,0,0,0,-1,1140,995,0,0
-77,29,0,0,0,0,0,0,0,0,0,-1,1147,995,0,0
-70,29,0,0,0,0,0,0,0,0,0,-1,1154,995,0,0
-63,29,0,0,0,0,0,0,0,0,0,-1,1161,995,0,0
-56,29,0,0,0,0,0,0,0,0,0,-1,1168,995,0,0
-49,29,0,0,0,0,0,0,0,0,0,-1,1175,995,0,0
-42,29,0,0,0,0,0,0,0,0,0,-1,1182,995,0,0
-35,29,0,0,0,0,0,0,0,0,0,-1,1189,995,0,0
-28,29,0,0,0,0,0,0,0,0,0,-1,1196,995,0,0
-21,29,0,0,0,0,0,0,0,0,0,-1,1203,995,0,0
-14,29,0,0,0,0,0,0,0,0,0,-1,1210,995,0,0
-7,29,0,0,0,0,0,0,0,0,0,-1,1217,995,0,0
0,29,0,0,0,0,0,0,0,0,0,-1,1224,995,0,0
7,29,0,0,0,0,0,0,0,0,0,-1,1231,995,0,0
14,29,0,0,0,0,0,0,0,0,0,-1,1238,995,0,0
21,29,0,0,0,0,0,0,0,0,0,-1,1245,995,0,0
28,29,0,0,0,0,0,0,0,0,0,-1,1252,995,0,0
35,29,0,0,0,0,0,0,0,0,0,-1,1259,995,0,0
42,29,0,0,0,0,0,0,0,0,0,-1,1266,995,0,0
49,29,0,0,0,0,0,0,0,0,0,-1,1273,995,0,0
56,29,0,0,0,0,0,0,0,0,0,-1,1280,995,0,0
63,29,0,0,0,0,0,0,0,0,0,-1,1287,995,0,0
70,29,0,0,0,0,0,0,0,0,0,-1,1294,995,0,0
77,29,0,0,0,0,0,0,0,0,0,-1,1301,995,0,0
84,29,0,0,0,0,0,0,0,0,0,-1,1308,995,0,0
91,29,0,0,0,0,0,0,0,0,0,-1,1315,995,0,0
98,29,0,0,0,0,0,0,0,0,0,-1,1322,995,0,0
105,29,0,0,0,0,0,0,0,0,0,-1,1329,995,0,0
112,29,0,0,0,0,0,0,0,0,0,-1,1336,995,0,0
119,29,0,0,0,0,0,0,0,0,0,-1,1343,995,0,0
126,29,0,0,0,0,0,0,0,0,0,-1,1350,995,0,0
133,29,0,0,0,0,0,0,0,0,0,-1,1357,995,0,0
140,29,0,0,0,0,0,0,0,0,0,-1,1364,995,0,0
147,29,0,0,0,0,0,0,0,0,0,-1,1371,995,0,0
154,29,0,0,0,0,0,0,0,0,0,-1,1378,995,0,0
161,29,0,0,0,0,0,0,0,0,0,-1,1385,995,0,0
168,29,0,0,0,0,0,0,0,0,0,-1,1392,995,0,0
175,29,0,0,0,0,0,0,0,0,0,-1,1399,995,0,0
182,29,0,0,0,0,0,0,0,0,0,-1,1406,995,0,0
189,29,0,0,0,0,0,0,0,0,0,-1,1413,995,0,0
196,29,0,0,0,0,0,0,0,0,0,-1,1420,995,0,0
203,29,0,0,0,0,0,0,0,0,0,-1,1427,995,0,0
210,29,0,0,0,0,0,0,0,0,0,-1,1434,995,0,0
217,29,0,0,0,0,0,0,0,0,0,-1,1441,995,0,0
224,29,0,0,0,0,0,0,0,0,0,-1,1448,995,0,0
231,29,0,0,0,0,0,0,0,0,0,-1,1455,995,0,0
238,29,0,0,0,0,0,0,0,0,0,-1,1462,995,0,0
245,29,0,0,0,0,0,0,0,0,0,-1,1469,995,0,0
252,29,0,0,0,0,0,0,0,0,0,-1,1476,995,0,0
259,29,0,0,0,0,0,0,0,0,0,-1,1483,995,0,0
266,29,0,0,0,0,0,0,0,0,0,-1,1490,995,0,0
273,29,0,0,0,0,0,0,0,0,0,-1,1497,995,0,0
280,29,0,0,0,0,0,0,0,0,0,-1,1504,995,0,0
287,29,0,0,0,0,0,0,0,0,0,-1,1511,995,0,0
294,29,0,0,0,0,0,0,0,0,0,-1,1518,995,0,0
301,29,0,0,0,0,0,0,0,0,0,-1,1525,995,0,0
308,29,0,0,0,0,0,0,0,0,0,-1,1532,995,0,0
315,29,0,0,0,0,0,0,0,0,0,-1,1539,995,0,0
322,29,0,0,0,0,0,0,0,0,0,-1,1546,995,0,0
329,29,0,0,0,0,0,0,0,0,0,-1,1553,995,0,0
336,29,0,0,0,0,0,0,0,0,0,-1,1560,995,0,0
343,29,0,0,0,0,0,0,0,0,0,-1,1567,995,0,0
350,29,0,0,0,0,0,0,0,0,0,-1,1574,995,0,0
357,29,0,0,0,0,0,0,0,0,0,-1,1581,995,0,0
364,29,0,0,0,0,0,0,0,0,0,-1,1588,995,0,0
371,29,0,0,0,0,0,0,0,0,0,-1,1595,995,0,0
378,29,0,0,0,0,0,0,0,0,0,-1,1602,995,0,0
385,29,0,0,0,0,0,0,0,0,0,-1,1609,995,0,0
392,29,0,0,0,0,0,0,0,0,0,-1,1616,995,0,0
399,29,0,0,0,0,0,0,0,0,0,-1,1623,995,0,0
406,29,0,0,0,0,0,0,0,0,0,-1,1630,995,0,0
413,29,0,0,0,0,0,0,0,0,0,-1,1637,995,0,0
420,29,0,0,0,0,0,0,0,0,0,-1,1644,995,0,0
427,29,0,0,0,0,0,0,0,0,0,-1,1651,995,0,0
434,29,0,0,0,0,0,0,0,0,0,-1,1658,995,0,0
441,29,0,0,0,0,0,0,0,0,0,-1,1665,995,0,0
448,29,0,0,0,0,0,0,0,0,0,-1,1672,995,0,0
455,29,0,0,0,0,0,0,0,0,0,-1,1679,995,0,0
462,29,0,0,0,0,0,0,0,0,0,-1,1686,995,0,0
469,29,0,0,0,0,0,0,0,0,0,-1,1693,995,0,0
476,29,0,0,0,0,0,0,0,0,0,-1,1700,995,0,0
483,29,0,0,0,0,0,0,0,0,0,-1,1707,995,0,0
490,29,0,0,0,0,0,0,0,0,0,-1,1714,995,0,0
497,29,0,0,0,0,0,0,0,0,0,-1,1721,995,0,0
504,29,0,0,0,0,0,0,0,0,0,-1,1728,995,0,0
511,29,0,0,0,0,0,0,0,0,0,-1,1735,995,0,0
518,29,0,0,0,0,0,0,0,0,0,-1,1742,995,0,0
525,29,0,0,0,0,0,0,0,0,0,-1,1749,995,0,0
532,29,0,0,0,0,0,0,0,0,0,-1,1756,995,0,0
539,29,0,0,0,0,0,0,0,0,0,-1,1763,995,0,0
546,29,0,0,0,0,0,0,0,0,0,-1,1770,995,0,0
553,29,0,0,0,0,0,0,0,0,0,-1,1777,995,0,0
560,29,0,0,0,0,0,0,0,0,0,-1,1784,995,0,0
567,29,0,0,0,0,0,0,0,0,0,-1,1791,995,0,0
574,29,0,0,0,0,0,0,0,0,0,-1,1798,995,0,0
581,29,0,0,0,0,0,0,0,0,0,-1,1805,995,0,0
588,29,0,0,0,0,0,0,0,0,0,-1,1812,995,0,0
595,29,0,0,0,0,0,0,0,0,0,-1,1819,995,0,0
602,29,0,0,0,0,0,0,0,0,0,-1,1826,995,0,0
609,29,0,0,0,0,0,0,0,0,0,-1,1833,995,0,0
616,29,0,0,0,0,0,0,0,0,0,-1,1840,995,0,0
623,29,0,0,0,0,0,0,0,0,0,-1,1847,995,0,0
630,29,0,0,0,0,0,0,0,0,0,-1,1854,995,0,0
637,29,0,0,0,0,0,0,0,0,0,-1,1861,995,0,0
644,29,215.062,8.6333,0,0,0,0,0,0,0,-1,1868,995,215.062,-8.63331
651,29,214.977,8.7182,0,0,0,0,0,0,0,-1,1875,995,214.977,-8.71818
658,29,214.979,8.71948,0,0,0,0,0,0,0,-1,1882,995,214.98,-8.71945
665,29,215.058,8.77991,0,0,0,0,0,0,0,-1,1889,995,215.058,-8.77992
672,29,215.008,8.75244,0,0,0,0,0,0,0,-1,1896,995,215.008,-8.75242
679,29,214.909,8.64697,0,0,0,0,0,0,0,-1,1903,995,214.909,-8.64698
686,29,214.891,8.62836,0,0,0,0,0,0,0,-1,1910,995,214.891,-8.62833
693,29,214.802,8.71967,0,0,0,0,0,0,0,-1,1917,995,214.802,-8.71967
700,29,214.886,8.61658,0,0,0,0,0,0,0,-1,1924,995,214.886,-8.61659
707,29,214.861,8.7951,0,0,0,0,0,0,0,-1,1931,995,214.861,-8.7951
714,29,211.435,8.45007,0,0,0,0,0,0,0,-1,1938,995,211.435,-8.4501
721,29,213.266,31.0983,0,0,0,0,0,0,0,-1,1945,995,213.266,-31.0983
728,29,213.772,31.6007,0.0118424,-0.00808777,0.00275561,0.0122164,-0.00846175,0.134892,0.0120039,0.0414784,1952,995,213.772,-31.6007
735,29,213.99,32.1739,0.00483105,0.00257912,0.000195225,0.00484785,0.00256232,0.0858389,0.00280043,0.0199511,1959,995,213.99,-32.1739
742,29,213.867,32.7415,-0.00127884,0.0101964,-0.00175762,0.0104596,-0.00154202,-1.42217,0.0075398,0.0164331,1966,995,213.867,-32.7415
749,29,213.823,33.3526,-0.00745705,0.0173403,-0.00295604,0.0176878,-0.00780456,-1.45377,0.0150822,0.0169439,1973,995,213.823,-33.3526
756,29,213.712,33.9591,-0.0133437,0.0239326,-0.00383209,0.0243225,-0.0137336,-1.46941,0.0222534,0.0187795,1980,995,213.712,-33.9591
763,29,213.579,34.469,-0.0190363,0.0299052,-0.00433919,0.030287,-0.019418,-1.48305,0.028925,0.0183007,1987,995,213.579,-34.469
770,29,213.463,34.9769,-0.0246496,0.0352009,-0.00442161,0.0355258,-0.0249745,-1.49745,0.0351065,0.0266315,1994,995,213.463,-34.9769
777,29,213.372,35.8168,0,0,0,0,0,0,0,-1,2001,995,213.372,-35.8168
784,29,213.231,36.1017,0,0,0,0,0,0,0,-1,2008,995,213.231,-36.1017
791,29,114.385,18.9071,0,0,0,0,0,0,0,-1,2015,995,114.385,-18.9071
798,29,114.547,20.011,0,0,0,0,0,0,0,-1,2022,995,114.547,-20.011
805,29,89.9102,12.0472,0,0,0,0,0,0,0,-1,2029,995,89.9103,-12.0472
812,29,74.3464,11.3901,0,0,0,0,0,0,0,-1,2036,995,74.3464,-11.3901
-700,22,0,0,0,0,0,0,0,0,0,-1,524,1002,0,0
-693,22,-96.5399,0.00201416,0,0,0,0,0,0,0,-1,531,1002,-96.5399,-0.00198688
-686,22,-96.4305,1.45563,0,0,0,0,0,0,0,-1,538,1002,-96.4305,-1.45565
-679,22,-96.1309,2.72589,0,0,0,0,0,0,0,-1,545,1002,-96.1309,-2.72589
-672,22,-95.7907,3.92188,0,0,0,0,0,0,0,-1,552,1002,-95.7907,-3.9219
-665,22,-87.7646,3.7699,0,0,0,0,0,0,0,-1,559,1002,-87.7646,-3.76988
-658,22,-68.7921,5.42706,0,0,0,0,0,0,0,-1,566,1002,-68.7921,-5.42709
-651,22,-70.0956,8.71375,0,0,0,0,0,0,0,-1,573,1002,-70.0956,-8.71376
-644,22,-205.994,34.8528,0,0,0,0,0,0,0,-1,580,1002,-205.994,-34.8528
-637,22,-206.275,34.4363,-0.00716288,0.0422517,0.0056825,0.0428967,-0.00780793,1.45777,0.0315244,0.0403751,587,1002,-206.275,-34.4363
-630,22,-206.293,33.9883,-0.00452241,0.0344769,0.00476499,0.0350507,-0.00509616,1.45096,0.0252379,0.0224184,594,1002,-206.293,-33.9883
-623,22,-206.374,33.4695,-0.00167751,0.0268227,0.00370276,0.0272959,-0.00215072,1.44369,0.0189549,0.0189078,601,1002,-206.374,-33.4696
-616,22,-206.4,32.9683,0.00136843,0.0193291,0.00252694,0.0196779,0.00101968,1.43365,0.0127922,0.0322226,608,1002,-206.4,-32.9682
-609,22,-206.362,32.6119,0.00461792,0.0120448,0.00126699,0.012255,0.00440772,1.40639,0.00716772,0.0410333,615,1002,-206.362,-32.6119
-602,22,-206.339,31.971,0.00807878,0.00502761,-4.9508e-05,0.00807958,0.00502681,-0.0162202,0.00471093,0.0400193,622,1002,-206.338,-31.971
-595,22,-206.467,31.1596,0,0,0,0,0,0,0,-1,629,1002,-206.467,-31.1596
-588,22,-206.877,30.5573,0,0,0,0,0,0,0,-1,636,1002,-206.877,-30.5573
-581,22,-72.3125,0.418152,0,0,0,0,0,0,0,-1,643,1002,-72.3125,-0.41816
-574,22,-72.3202,0.457031,0,0,0,0,0,0,0,-1,650,1002,-72.3202,-0.457039
-567,22,-72.3143,0.489685,0,0,0,0,0,0,0,-1,657,1002,-72.3143,-0.48969
-560,22,-72.375,0.517212,0,0,0,0,0,0,0,-1,664,1002,-72.375,-0.517202
-553,22,-72.4261,0.57373,0,0,0,0,0,0,0,-1,671,1002,-72.4261,-0.573721
-546,22,-72.3248,0.688538,0,0,0,0,0,0,0,-1,678,1002,-72.3248,-0.688512
-539,22,-72.3094,0.448792,0,0,0,0,0,0,0,-1,685,1002,-72.3094,-0.448788
-532,22,-72.2036,0.229858,0,0,0,0,0,0,0,-1,692,1002,-72.2036,-0.229864
-525,22,0,0,0,0,0,0,0,0,0,-1,699,1002,0,0
-518,22,0,0,0,0,0,0,0,0,0,-1,706,1002,0,0
-511,22,0,0,0,0,0,0,0,0,0,-1,713,1002,0,0
-504,22,0,0,0,0,0,0,0,0,0,-1,720,1002,0,0
-497,22,0,0,0,0,0,0,0,0,0,-1,727,1002,0,0
-490,22,0,0,0,0,0,0,0,0,0,-1,734,1002,0,0
-483,22,0,0,0,0,0,0,0,0,0,-1,741,1002,0,0
-476,22,0,0,0,0,0,0,0,0,0,-1,748,1002,0,0
-469,22,0,0,0,0,0,0,0,0,0,-1,755,1002,0,0
-462,22,0,0,0,0,0,0,0,0,0,-1,762,1002,0,0
-455,22,0,0,0,0,0,0,0,0,0,-1,769,1002,0,0
-448,22,0,0,0,0,0,0,0,0,0,-1,776,1002,0,0
-441,22,0,0,0,0,0,0,0,0,0,-1,783,1002,0,0
-434,22,0,0,0,0,0,0,0,0,0,-1,790,1002,0,0
-427,22,0,0,0,0,0,0,0,0,0,-1,797,1002,0,0
-420,22,0,0,0,0,0,0,0,0,0,-1,804,1002,0,0
-413,22,0,0,0,0,0,0,0,0,0,-1,811,1002,0,0
-406,22,0,0,0,0,0,0,0,0,0,-1,818,1002,0,0
-399,22,0,0,0,0,0,0,0,0,0,-1,825,1002,0,0
-392,22,0,0,0,0,0,0,0,0,0,-1,832,1002,0,0
-385,22,0,0,0,0,0,0,0,0,0,-1,839,1002,0,0
-378,22,0,0,0,0,0,0,0,0,0,-1,846,1002,0,0
-371,22,0,0,0,0,0,0,0,0,0,-1,853,1002,0,0
-364,22,0,0,0,0,0,0,0,0,0,-1,860,1002,0,0
-357,22,0,0,0,0,0,0,0,0,0,-1,867,1002,0,0
-350,22,0,0,0,0,0,0,0,0,0,-1,874,1002,0,0
-343,22,0,0,0,0,0,0,0,0,0,-1,881,1002,0,0
-336,22,0,0,0,0,0,0,0,0,0,-1,888,1002,0,0
-329,22,0,0,0,0,0,0,0,0,0,-1,895,1002,0,0
-322,22,0,0,0,0,0,0,0,0,0,-1,902,1002,0,0
-315,22,0,0,0,0,0,0,0,0,0,-1,909,1002,0,0
-308,22,0,0,0,0,0,0,0,0,0,-1,916,1002,0,0
-301,22,0,0,0,0,0,0,0,0,0,-1,923,1002,0,0
-294,22,0,0,0,0,0,0,0,0,0,-1,930,1002,0,0
-287,22,0,0,0,0,0,0,0,0,0,-1,937,1002,0,0
-280,22,0,0,0,0,0,0,0,0,0,-1,944,1002,0,0
-273,22,0,0,0,0,0,0,0,0,0,-1,951,1002,0,0
-266,22,0,0,0,0,0,0,0,0,0,-1,958,1002,0,0
-259,22,0,0,0,0,0,0,0,0,0,-1,965,1002,0,0
-252,22,0,0,0,0,0,0,0,0,0,-1,972,1002,0,0
-245,22,0,0,0,0,0,0,0,0,0,-1,979,1002,0,0
-238,22,0,0,0,0,0,0,0,0,0,-1,986,1002,0,0
-231,22,0,0,0,0,0,0,0,0,0,-1,993,1002,0,0
-224,22,0,0,0,0,0,0,0,0,0,-1,1000,1002,0,0
-217,22,0,0,0,0,0,0,0,0,0,-1,1007,1002,0,0
-210,22,0,0,0,0,0,0,0,0,0,-1,1014,1002,0,0
-203,22,0,0,0,0,0,0,0,0,0,-1,1021,1002,0,0
-196,22,0,0,0,0,0,0,0,0,0,-1,1028,1002,0,0
-189,22,0,0,0,0,0,0,0,0,0,-1,1035,1002,0,0
-182,22,0,0,0,0,0,0,0,0,0,-1,1042,1002,0,0
-175,22,0,0,0,0,0,0,0,0,0,-1,1049,1002,0,0
-168,22,0,0,0,0,0,0,0,0,0,-1,1056,1002,0,0
-161,22,0,0,0,0,0,0,0,0,0,-1,1063,1002,0,0
-154,22,0,0,0,0,0,0,0,0,0,-1,1070,1002,0,0
-147,22,0,0,0,0,0,0,0,0,0,-1,1077,1002,0,0
-140,22,0,0,0,0,0,0,0,0,0,-1,1084,1002,0,0
-133,22,0,0,0,0,0,0,0,0,0,-1,1091,1002,0,0
-126,22,0,0,0,0,0,0,0,0,0,-1,1098,1002,0,0
-119,22,0,0,0,0,0,0,0,0,0,-1,1105,1002,0,0
-112,22,0,0,0,0,0,0,0,0,0,-1,1112,1002,0,0
-105,22,0,0,0,0,0,0,0,0,0,-1,1119,1002,0,0
-98,22,0,0,0,0,0,0,0,0,0,-1,1126,1002,0,0
-91,22,0,0,0,0,0,0,0,0,0,-1,1133,1002,0,0
-84,22,0,0,0,0,0,0,0,0,0,-1,1140,1002,0,0
-77,22,0,0,0,0,0,0,0,0,0,-1,1147,1002,0,0
-70,22,0,0,0,0,0,0,0,0,0,-1,1154,1002,0,0
-63,22,0,0,0,0,0,0,0,0,0,-1,1161,1002,0,0
-56,22,0,0,0,0,0,0,0,0,0,-1,1168,1002,0,0
-49,22,0,0,0,0,0,0,0,0,0,-1,1175,1002,0,0
-42,22,0,0,0,0,0,0,0,0,0,-1,1182,1002,0,0
-35,22,0,0,0,0,0,0,0,0,0,-1,1189,1002,0,0
-28,22,0,0,0,0,0,0,0,0,0,-1,1196,1002,0,0
-21,22,0,0,0,0,0,0,0,0,0,-1,1203,1002,0,0
-14,22,0,0,0,0,0,0,0,0,0,-1,1210,1002,0,0
-7,22,0,0,0,0,0,0,0,0,0,-1,1217,1002,0,0
0,22,0,0,0,0,0,0,0,0,0,-1,1224,1002,0,0
7,22,0,0,0,0,0,0,0,0,0,-1,1231,1002,0,0
14,22,0,0,0,0,0,0,0,0,0,-1,1238,1002,0,0
21,22,0,0,0,0,0,0,0,0,0,-1,1245,1002,0,0
28,22,0,0,0,0,0,0,0,0,0,-1,1252,1002,0,0
35,22,0,0,0,0,0,0,0,0,0,-1,1259,1002,0,0
42,22,0,0,0,0,0,0,0,0,0,-1,1266,1002,0,0
49,22,0,0,0,0,0,0,0,0,0,-1,1273,1002,0,0
56,22,0,0,0,0,0,0,0,0,0,-1,1280,1002,0,0
63,22,0,0,0,0,0,0,0,0,0,-1,1287,1002,0,0
70,22,0,0,0,0,0,0,0,0,0,-1,1294,1002,0,0
77,22,0,0,0,0,0,0,0,0,0,-1,1301,1002,0,0
84,22,0,0,0,0,0,0,0,0,0,-1,1308,1002,0,0
91,22,0,0,0,0,0,0,0,0,0,-1,1315,1002,0,0
98,22,0,0,0,0,0,0,0,0,0,-1,1322,1002,0,0
105,22,0,0,0,0,0,0,0,0,0,-1,1329,1002,0,0
112,22,0,0,0,0,0,0,0,0,0,-1,1336,1002,0,0
119,22,0,0,0,0,0,0,0,0,0,-1,1343,1002,0,0
126,22,0,0,0,0,0,0,0,0,0,-1,1350,1002,0,0
133,22,0,0,0,0,0,0,0,0,0,-1,1357,1002,0,0
140,22,0,0,0,0,0,0,0,0,0,-1,1364,1002,0,0
147,22,0,0,0,0,0,0,0,0,0,-1,1371,1002,0,0
154,22,0,0,0,0,0,0,0,0,0,-1,1378,1002,0,0
161,22,0,0,0,0,0,0,0,0,0,-1,1385,1002,0,0
168,22,0,0,0,0,0,0,0,0,0,-1,1392,1002,0,0
175,22,0,0,0,0,0,0,0,0,0,-1,1399,1002,0,0
182,22,0,0,0,0,0,0,0,0,0,-1,1406,1002,0,0
189,22,0,0,0,0,0,0,0,0,0,-1,1413,1002,0,0
196,22,0,0,0,0,0,0,0,0,0,-1,1420,1002,0,0
203,22,0,0,0,0,0,0,0,0,0,-1,1427,1002,0,0
210,22,0,0,0,0,0,0,0,0,0,-1,1434,1002,0,0
217,22,0,0,0,0,0,0,0,0,0,-1,1441,1002,0,0
224,22,0,0,0,0,0,0,0,0,0,-1,1448,1002,0,0
231,22,0,0,0,0,0,0,0,0,0,-1,1455,1002,0,0
238,22,0,0,0,0,0,0,0,0,0,-1,1462,1002,0,0
245,22,0,0,0,0,0,0,0,0,0,-1,1469,1002,0,0
252,22,0,0,0,0,0,0,0,0,0,-1,1476,1002,0,0
259,22,0,0,0,0,0,0,0,0,0,-1,1483,1002,0,0
266,22,0,0,0,0,0,0,0,0,0,-1,1490,1002,0,0
273,22,0,0,0,0,0,0,0,0,0,-1,1497,1002,0,0
280,22,0,0,0,0,0,0,0,0,0,-1,1504,1002,0,0
287,22,0,0,0,0,0,0,0,0,0,-1,1511,1002,0,0
294,22,0,0,0,0,0,0,0,0,0,-1,1518,1002,0,0
301,22,0,0,0,0,0,0,0,0,0,-1,1525,1002,0,0
308,22,0,0,0,0,0,0,0,0,0,-1,1532,1002,0,0
315,22,0,0,0,0,0,0,0,0,0,-1,1539,1002,0,0
322,22,0,0,0,0,0,0,0,0,0,-1,1546,1002,0,0
329,22,0,0,0,0,0,0,0,0,0,-1,1553,1002,0,0
336,22,0,0,0,0,0,0,0,0,0,-1,1560,1002,0,0
343,22,0,0,0,0,0,0,0,0,0,-1,1567,1002,0,0
350,22,0,0,0,0,0,0,0,0,0,-1,1574,1002,0,0
357,22,0,0,0,0,0,0,0,0,0,-1,1581,1002,0,0
364,22,0,0,0,0,0,0,0,0,0,-1,1588,1002,0,0
371,22,0,0,0,0,0,0,0,0,0,-1,1595,1002,0,0
378,22,0,0,0,0,0,0,0,0,0,-1,1602,1002,0,0
385,22,0,0,0,0,0,0,0,0,0,-1,1609,1002,0,0
392,22,0,0,0,0,0,0,0,0,0,-1,1616,1002,0,0
399,22,0,0,0,0,0,0,0,0,0,-1,1623,1002,0,0
406,22,0,0,0,0,0,0,0,0,0,-1,1630,1002,0,0
413,22,0,0,0,0,0,0,0,0,0,-1,1637,1002,0,0
420,22,0,0,0,0,0,0,0,0,0,-1,1644,1002,0,0
427,22,0,0,0,0,0,0,0,0,0,-1,1651,1002,0,0
434,22,0,0,0,0,0,0,0,0,0,-1,1658,1002,0,0
441,22,0,0,0,0,0,0,0,0,0,-1,1665,1002,0,0
448,22,0,0,0,0,0,0,0,0,0,-1,1672,1002,0,0
455,22,0,0,0,0,0,0,0,0,0,-1,1679,1002,0,0
462,22,0,0,0,0,0,0,0,0,0,-1,1686,1002,0,0
469,22,0,0,0,0,0,0,0,0,0,-1,1693,1002,0,0
476,22,0,0,0,0,0,0,0,0,0,-1,1700,1002,0,0
483,22,0,0,0,0,0,0,0,0,0,-1,1707,1002,0,0
490,22,0,0,0,0,0,0,0,0,0,-1,1714,1002,0,0
497,22,0,0,0,0,0,0,0,0,0,-1,1721,1002,0,0
504,22,0,0,0,0,0,0,0,0,0,-1,1728,1002,0,0
511,22,0,0,0,0,0,0,0,0,0,-1,1735,1002,0,0
518,22,0,0,0,0,0,0,0,0,0,-1,1742,1002,0,0
525,22,0,0,0,0,0,0,0,0,0,-1,1749,1002,0,0
532,22,0,0,0,0,0,0,0,0,0,-1,1756,1002,0,0
539,22,0,0,0,0,0,0,0,0,0,-1,1763,1002,0,0
546,22,0,0,0,0,0,0,0,0,0,-1,1770,1002,0,0
553,22,0,0,0,0,0,0,0,0,0,-1,1777,1002,0,0
560,22,0,0,0,0,0,0,0,0,0,-1,1784,1002,0,0
567,22,0,0,0,0,0,0,0,0,0,-1,1791,1002,0,0
574,22,0,0,0,0,0,0,0,0,0,-1,1798,1002,0,0
581,22,0,0,0,0,0,0,0,0,0,-1,1805,1002,0,0
588,22,0,0,0,0,0,0,0,0,0,-1,1812,1002,0,0
595,22,0,0,0,0,0,0,0,0,0,-1,1819,1002,0,0
602,22,0,0,0,0,0,0,0,0,0,-1,1826,1002,0,0
609,22,0,0,0,0,0,0,0,0,0,-1,1833,1002,0,0
616,22,0,0,0,0,0,0,0,0,0,-1,1840,1002,0,0
623,22,0,0,0,0,0,0,0,0,0,-1,1847,1002,0,0
630,22,0,0,0,0,0,0,0,0,0,-1,1854,1002,0,0
637,22,0,0,0,0,0,0,0,0,0,-1,1861,1002,0,0
644,22,214.998,8.69867,0,0,0,0,0,0,0,-1,1868,1002,214.998,-8.6987
651,22,214.923,8.68536,0,0,0,0,0,0,0,-1,1875,1002,214.923,-8.68535
658,22,214.973,8.92236,0,0,0,0,0,0,0,-1,1882,1002,214.973,-8.92238
665,22,215.01,9.00665,0,0,0,0,0,0,0,-1,1889,1002,215.01,-9.00664
672,22,214.993,8.76514,0,0,0,0,0,0,0,-1,1896,1002,214.993,-8.76512
679,22,214.904,8.54236,0,0,0,0,0,0,0,-1,1903,1002,214.904,-8.54237
686,22,214.914,8.62543,0,0,0,0,0,0,0,-1,1910,1002,214.913,-8.6254
693,22,214.885,8.74469,0,0,0,0,0,0,0,-1,1917,1002,214.885,-8.74467
700,22,215.002,8.65045,0,0,0,0,0,0,0,-1,1924,1002,215.002,-8.65047
707,22,215.022,8.69409,0,0,0,0,0,0,0,-1,1931,1002,215.022,-8.69412
714,22,215.049,8.90442,0,0,0,0,0,0,0,-1,1938,1002,215.049,-8.90441
721,22,76.814,2.41211,0,0,0,0,0,0,0,-1,1945,1002,76.814,-2.41212
728,22,214.573,31.6617,0,0,0,0,0,0,0,-1,1952,1002,214.573,-31.6617
735,22,214.515,32.2208,0.0038285,0.00200068,0.000280063,0.00387045,0.00195873,0.14868,0.00223466,0.0187335,1959,1002,214.515,-32.2208
742,22,214.486,32.7336,-0.00201579,0.00966502,-0.00148549,0.00985097,-0.00220174,-1.44626,0.00741106,0.0194714,1966,1002,214.486,-32.7336
749,22,214.427,33.2838,-0.00797838,0.0169108,-0.00255822,0.017171,-0.0082386,-1.46942,0.0149693,0.0144431,1973,1002,214.427,-33.2838
756,22,214.358,33.77,-0.0136838,0.0236771,-0.00333428,0.0239723,-0.0139791,-1.48248,0.022163,0.0213437,1980,1002,214.358,-33.77
763,22,214.188,34.3138,-0.0192212,0.0298986,-0.00377077,0.0301864,-0.019509,-1.49462,0.0289116,0.0270092,1987,1002,214.188,-34.3138
770,22,213.929,34.7767,-0.024695,0.0355169,-0.00381543,0.0357577,-0.0249358,-1.50777,0.0352266,0.0290346,1994,1002,213.93,-34.7767
777,22,213.518,35.1038,0,0,0,0,0,0,0,-1,2001,1002,213.518,-35.1038
784,22,176.982,32.8964,0,0,0,0,0,0,0,-1,2008,1002,176.982,-32.8964
791,22,100.772,12.5767,0,0,0,0,0,0,0,-1,2015,1002,100.772,-12.5767
798,22,88.1873,9.98132,0,0,0,0,0,0,0,-1,2022,1002,88.1872,-9.98132
805,22,75.3247,9.49249,0,0,0,0,0,0,0,-1,2029,1002,75.3248,-9.49248
812,22,75.3965,9.88782,0,0,0,0,0,0,0,-1,2036,1002,75.3966,-9.88781
-700,15,0,0,0,0,0,0,0,0,0,-1,524,1009,0,0
-693,15,-95.7462,0.0612793,0,0,0,0,0,0,0,-1,531,1009,-95.7463,-0.0612602
-686,15,-95.0714,1.24689,0,0,0,0,0,0,0,-1,538,1009,-95.0714,-1.24687
-679,15,-94.2675,2.47766,0,0,0,0,0,0,0,-1,545,1009,-94.2675,-2.47764
-672,15,-92.8383,3.98071,0,0,0,0,0,0,0,-1,552,1009,-92.8382,-3.98072
-665,15,-91.6124,4.78375,0,0,0,0,0,0,0,-1,559,1009,-91.6124,-4.78375
-658,15,-67.7799,6.4903,0,0,0,0,0,0,0,-1,566,1009,-67.7799,-6.49027
-651,15,-51.4943,3.62128,0,0,0,0,0,0,0,-1,573,1009,-51.4943,-3.62128
-644,15,-206.705,34.7161,0,0,0,0,0,0,0,-1,580,1009,-206.705,-34.716
-637,15,-206.716,34.2702,-0.00871026,0.042526,0.00515425,0.0430394,-0.00922363,1.47152,0.0322107,0.0409722,587,1009,-206.716,-34.2702
-630,15,-206.782,33.8191,-0.00544401,0.03441,0.00429507,0.0348676,-0.00590164,1.46465,0.0254415,0.0233236,594,1009,-206.782,-33.8191
-623,15,-206.859,33.3483,-0.00205143,0.0264471,0.0033297,0.0268309,-0.00243529,1.45602,0.0187518,0.0164539,601,1009,-206.859,-33.3483
-616,15,-206.73,32.8774,0.00146529,0.0186722,0.00228238,0.0189697,0.0011677,1.44114,0.0122758,0.0233854,608,1009,-206.73,-32.8774
-609,15,-206.737,32.4385,0.00510933,0.011129,0.00117697,0.011351,0.00488739,1.38442,0.00657452,0.0260344,615,1009,-206.737,-32.4385
-602,15,-206.71,31.9726,0.00888897,0.00387109,3.69134e-05,0.00888924,0.00387082,0.00735585,0.00514644,0.0293874,622,1009,-206.71,-31.9726
-595,15,-207.316,30.8597,0,0,0,0,0,0,0,-1,629,1009,-207.316,-30.8597
-588,15,-72.2071,0.610718,0,0,0,0,0,0,0,-1,636,1009,-72.2071,-0.61074
-581,15,-72.2703,0.514465,0,0,0,0,0,0,0,-1,643,1009,-72.2703,-0.514438
-574,15,-72.299,0.44397,0,0,0,0,0,0,0,-1,650,1009,-72.299,-0.443981
-567,15,-72.3457,0.428711,0,0,0,0,0,0,0,-1,657,1009,-72.3457,-0.428701
-560,15,-72.3326,0.582153,0,0,0,0,0,0,0,-1,664,1009,-72.3326,-0.582123
-553,15,-72.2341,0.739929,0,0,0,0,0,0,0,-1,671,1009,-72.2341,-0.739918
-546,15,-72.1395,0.576538,0,0,0,0,0,0,0,-1,678,1009,-72.1395,-0.576547
-539,15,-72.1952,0.250854,0,0,0,0,0,0,0,-1,685,1009,-72.1952,-0.250863
-532,15,-72.2346,0.0326538,0,0,0,0,0,0,0,-1,692,1009,-72.2346,-0.0326423
-525,15,0,0,0,0,0,0,0,0,0,-1,699,1009,0,0
-518,15,0,0,0,0,0,0,0,0,0,-1,706,1009,0,0
-511,15,0,0,0,0,0,0,0,0,0,-1,713,1009,0,0
-504,15,0,0,0,0,0,0,0,0,0,-1,720,1009,0,0
-497,15,0,0,0,0,0,0,0,0,0,-1,727,1009,0,0
-490,15,0,0,0,0,0,0,0,0,0,-1,734,1009,0,0
-483,15,0,0,0,0,0,0,0,0,0,-1,741,1009,0,0
-476,15,0,0,0,0,0,0,0,0,0,-1,748,1009,0,0
-469,15,0,0,0,0,0,0,0,0,0,-1,755,1009,0,0
-462,15,0,0,0,0,0,0,0,0,0,-1,762,1009,0,0
-455,15,0,0,0,0,0,0,0,0,0,-1,769,1009,0,0
-448,15,0,0,0,0,0,0,0,0,0,-1,776,1009,0,0
-441,15,0,0,0,0,0,0,0,0,0,-1,783,1009,0,0
-434,15,0,0,0,0,0,0,0,0,0,-1,790,1009,0,0
-427,15,0,0,0,0,0,0,0,0,0,-1,797,1009,0,0
-420,15,0,0,0,0,0,0,0,0,0,-1,804,1009,0,0
-413,15,0,0,0,0,0,0,0,0,0,-1,811,1009,0,0
-406,15,0,0,0,0,0,0,0,0,0,-1,818,1009,0,0
-399,15,0,0,0,0,0,0,0,0,0,-1,825,1009,0,0
-392,15,0,0,0,0,0,0,0,0,0,-1,832,1009,0,0
-385,15,0,0,0,0,0,0,0,0,0,-1,839,1009,0,0
-378,15,0,0,0,0,0,0,0,0,0,-1,846,1009,0,0
-371,15,0,0,0,0,0,0,0,0,0,-1,853,1009,0,0
-364,15,0,0,0,0,0,0,0,0,0,-1,860,1009,0,0
-357,15,0,0,0,0,0,0,0,0,0,-1,867,1009,0,0
-350,15,0,0,0,0,0,0,0,0,0,-1,874,1009,0,0
-343,15,0,0,0,0,0,0,0,0,0,-1,881,1009,0,0
-336,15,0,0,0,0,0,0,0,0,0,-1,888,1009,0,0
-329,15,0,0,0,0,0,0,0,0,0,-1,895,1009,0,0
-322,15,0,0,0,0,0,0,0,0,0,-1,902,1009,0,0
-315,15,0,0,0,0,0,0,0,0,0,-1,909,1009,0,0
-308,15,0,0,0,0,0,0,0,0,0,-1,916,1009,0,0
-301,15,0,0,0,0,0,0,0,0,0,-1,923,1009,0,0
-294,15,0,0,0,0,0,0,0,0,0,-1,930,1009,0,0
-287,15,0,0,0,0,0,0,0,0,0,-1,937,1009,0,0
-280,15,0,0,0,0,0,0,0,0,0,-1,944,1009,0,0
-273,15,0,0,0,0,0,0,0,0,0,-1,951,1009,0,0
-266,15,0,0,0,0,0,0,0,0,0,-1,958,1009,0,0
-259,15,0,0,0,0,0,0,0,0,0,-1,965,1009,0,0
-252,15,0,0,0,0,0,0,0,0,0,-1,972,1009,0,0
-245,15,0,0,0,0,0,0,0,0,0,-1,979,1009,0,0
-238,15,0,0,0,0,0,0,0,0,0,-1,986,1009,0,0
-231,15,0,0,0,0,0,0,0,0,0,-1,993,1009,0,0
-224,15,0,0,0,0,0,0,0,0,0,-1,1000,1009,0,0
-217,15,0,0,0,0,0,0,0,0,0,-1,1007,1009,0,0
-210,15,0,0,0,0,0,0,0,0,0,-1,1014,1009,0,0
-203,15,0,0,0,0,0,0,0,0,0,-1,1021,1009,0,0
-196,15,0,0,0,0,0,0,0,0,0,-1,1028,1009,0,0
-189,15,0,0,0,0,0,0,0,0,0,-1,1035,1009,0,0
-182,15,0,0,0,0,0,0,0,0,0,-1,1042,1009,0,0
-175,15,0,0,0,0,0,0,0,0,0,-1,1049,1009,0,0
-168,15,0,0,0,0,0,0,0,0,0,-1,1056,1009,0,0
-161,15,0,0,0,0,0,0,0,0,0,-1,1063,1009,0,0
-154,15,0,0,0,0,0,0,0,0,0,-1,1070,1009,0,0
-147,15,0,0,0,0,0,0,0,0,0,-1,1077,1009,0,0
-140,15,0,0,0,0,0,0,0,0,0,-1,1084,1009,0,0
-133,15,0,0,0,0,0,0,0,0,0,-1,1091,1009,0,0
-126,15,0,0,0,0,0,0,0,0,0,-1,1098,1009,0,0
-119,15,0,0,0,0,0,0,0,0,0,-1,1105,1009,0,0
-112,15,0,0,0,0,0,0,0,0,0,-1,1112,1009,0,0
-105,15,0,0,0,0,0,0,0,0,0,-1,1119,1009,0,0
-98,15,0,0,0,0,0,0,0,0,0,-1,1126,1009,0,0
-91,15,0,0,0,0,0,0,0,0,0,-1,1133,1009,0,0
-84,15,0,0,0,0,0,0,0,0,0,-1,1140,1009,0,0
-77,15,0,0,0,0,0,0,0,0,0,-1,1147,1009,0,0
-70,15,0,0,0,0,0,0,0,0,0,-1,1154,1009,0,0
-63,15,0,0,0,0,0,0,0,0,0,-1,1161,1009,0,0
-56,15,0,0,0,0,0,0,0,0,0,-1,1168,1009,0,0
-49,15,0,0,0,0,0,0,0,0,0,-1,1175,1009,0,0
-42,15,0,0,0,0,0,0,0,0,0,-1,1182,1009,0,0
-35,15,0,0,0,0,0,0,0,0,0,-1,1189,1009,0,0
-28,15,0,0,0,0,0,0,0,0,0,-1,1196,1009,0,0
-21,15,0,0,0,0,0,0,0,0,0,-1,1203,1009,0,0
-14,15,0,0,0,0,0,0,0,0,0,-1,1210,1009,0,0
-7,15,0,0,0,0,0,0,0,0,0,-1,1217,1009,0,0
0,15,0,0,0,0,0,0,0,0,0,-1,1224,1009,0,0
7,15,0,0,0,0,0,0,0,0,0,-1,1231,1009,0,0
14,15,0,0,0,0,0,0,0,0,0,-1,1238,1009,0,0
21,15,0,0,0,0,0,0,0,0,0,-1,1245,1009,0,0
28,15,0,0,0,0,0,0,0,0,0,-1,1252,1009,0,0
35,15,0,0,0,0,0,0,0,0,0,-1,1259,1009,0,0
42,15,0,0,0,0,0,0,0,0,0,-1,1266,1009,0,0
49,15,0,0,0,0,0,0,0,0,0,-1,1273,1009,0,0
56,15,0,0,0,0,0,0,0,0,0,-1,1280,1009,0,0
63,15,0,0,0,0,0,0,0,0,0,-1,1287,1009,0,0
70,15,0,0,0,0,0,0,0,0,0,-1,1294,1009,0,0
77,15,0,0,0,0,0,0,0,0,0,-1,1301,1009,0,0
84,15,0,0,0,0,0,0,0,0,0,-1,1308,1009,0,0
91,15,0,0,0,0,0,0,0,0,0,-1,1315,1009,0,0
98,15,0,0,0,0,0,0,0,0,0,-1,1322,1009,0,0
105,15,0,0,0,0,0,0,0,0,0,-1,1329,1009,0,0
112,15,0,0,0,0,0,0,0,0,0,-1,1336,1009,0,0
119,15,0,0,0,0,0,0,0,0,0,-1,1343,1009,0,0
126,15,0,0,0,0,0,0,0,0,0,-1,1350,1009,0,0
133,15,0,0,0,0,0,0,0,0,0,-1,1357,1009,0,0
140,15,0,0,0,0,0,0,0,0,0,-1,1364,1009,0,0
147,15,0,0,0,0,0,0,0,0,0,-1,1371,1009,0,0
154,15,0,0,0,0,0,0,0,0,0,-1,1378,1009,0,0
161,15,0,0,0,0,0,0,0,0,0,-1,1385,1009,0,0
168,15,0,0,0,0,0,0,0,0,0,-1,1392,1009,0,0
175,15,0,0,0,0,0,0,0,0,0,-1,1399,1009,0,0
182,15,0,0,0,0,0,0,0,0,0,-1,1406,1009,0,0
189,15,0,0,0,0,0,0,0,0,0,-1,1413,1009,0,0
196,15,0,0,0,0,0,0,0,0,0,-1,1420,1009,0,0
203,15,0,0,0,0,0,0,0,0,0,-1,1427,1009,0,0
210,15,0,0,0,0,0,0,0,0,0,-1,1434,1009,0,0
217,15,0,0,0,0,0,0,0,0,0,-1,1441,1009,0,0
224,15,0,0,0,0,0,0,0,0,0,-1,1448,1009,0,0
231,15,0,0,0,0,0,0,0,0,0,-1,1455,1009,0,0
238,15,0,0,0,0,0,0,0,0,0,-1,1462,1009,0,0
245,15,0,0,0,0,0,0,0,0,0,-1,1469,1009,0,0
252,15,0,0,0,0,0,0,0,0,0,-1,1476,1009,0,0
259,15,0,0,0,0,0,0,0,0,0,-1,1483,1009,0,0
266,15,0,0,0,0,0,0,0,0,0,-1,1490,1009,0,0
273,15,0,0,0,0,0,0,0,0,0,-1,1497,1009,0,0
280,15,0,0,0,0,0,0,0,0,0,-1,1504,1009,0,0
287,15,0,0,0,0,0,0,0,0,0,-1,1511,1009,0,0
294,15,0,0,0,0,0,0,0,0,0,-1,1518,1009,0,0
301,15,0,0,0,0,0,0,0,0,0,-1,1525,1009,0,0
308,15,0,0,0,0,0,0,0,0,0,-1,1532,1009,0,0
315,15,0,0,0,0,0,0,0,0,0,-1,1539,1009,0,0
322,15,0,0,0,0,0,0,0,0,0,-1,1546,1009,0,0
329,15,0,0,0,0,0,0,0,0,0,-1,1553,1009,0,0
336,15,0,0,0,0,0,0,0,0,0,-1,1560,1009,0,0
343,15,0,0,0,0,0,0,0,0,0,-1,1567,1009,0,0
350,15,0,0,0,0,0,0,0,0,0,-1,1574,1009,0,0
357,15,0,0,0,0,0,0,0,0,0,-1,1581,1009,0,0
364,15,0,0,0,0,0,0,0,0,0,-1,1588,1009,0,0
371,15,0,0,0,0,0,0,0,0,0,-1,1595,1009,0,0
378,15,0,0,0,0,0,0,0,0,0,-1,1602,1009,0,0
385,15,0,0,0,0,0,0,0,0,0,-1,1609,1009,0,0
392,15,0,0,0,0,0,0,0,0,0,-1,1616,1009,0,0
399,15,0,0,0,0,0,0,0,0,0,-1,1623,1009,0,0
406,15,0,0,0,0,0,0,0,0,0,-1,1630,1009,0,0
413,15,0,0,0,0,0,0,0,0,0,-1,1637,1009,0,0
420,15,0,0,0,0,0,0,0,0,0,-1,1644,1009,0,0
427,15,0,0,0,0,0,0,0,0,0,-1,1651,1009,0,0
434,15,0,0,0,0,0,0,0,0,0,-1,1658,1009,0,0
441,15,0,0,0,0,0,0,0,0,0,-1,1665,1009,0,0
448,15,0,0,0,0,0,0,0,0,0,-1,1672,1009,0,0
455,15,0,0,0,0,0,0,0,0,0,-1,1679,1009,0,0
462,15,0,0,0,0,0,0,0,0,0,-1,1686,1009,0,0
469,15,0,0,0,0,0,0,0,0,0,-1,1693,1009,0,0
476,15,0,0,0,0,0,0,0,0,0,-1,1700,1009,0,0
483,15,0,0,0,0,0,0,0,0,0,-1,1707,1009,0,0
490,15,0,0,0,0,0,0,0,0,0,-1,1714,1009,0,0
497,15,0,0,0,0,0,0,0,0,0,-1,1721,1009,0,0
504,15,0,0,0,0,0,0,0,0,0,-1,1728,1009,0,0
511,15,0,0,0,0,0,0,0,0,0,-1,1735,1009,0,0
518,15,0,0,0,0,0,0,0,0,0,-1,1742,1009,0,0
525,15,0,0,0,0,0,0,0,0,0,-1,1749,1009,0,0
532,15,0,0,0,0,0,0,0,0,0,-1,1756,1009,0,0
539,15,0,0,0,0,0,0,0,0,0,-1,1763,1009,0,0
546,15,0,0,0,0,0,0,0,0,0,-1,1770,1009,0,0
553,15,0,0,0,0,0,0,0,0,0,-1,1777,1009,0,0
560,15,0,0,0,0,0,0,0,0,0,-1,1784,1009,0,0
567,15,0,0,0,0,0,0,0,0,0,-1,1791,1009,0,0
574,15,0,0,0,0,0,0,0,0,0,-1,1798,1009,0,0
581,15,0,0,0,0,0,0,0,0,0,-1,1805,1009,0,0
588,15,0,0,0,0,0,0,0,0,0,-1,1812,1009,0,0
595,15,0,0,0,0,0,0,0,0,0,-1,1819,1009,0,0
602,15,0,0,0,0,0,0,0,0,0,-1,1826,1009,0,0
609,15,0,0,0,0,0,0,0,0,0,-1,1833,1009,0,0
616,15,0,0,0,0,0,0,0,0,0,-1,1840,1009,0,0
623,15,0,0,0,0,0,0,0,0,0,-1,1847,1009,0,0
630,15,0,0,0,0,0,0,0,0,0,-1,1854,1009,0,0
637,15,0,0,0,0,0,0,0,0,0,-1,1861,1009,0,0
644,15,214.907,8.75238,0,0,0,0,0,0,0,-1,1868,1009,214.907,-8.75241
651,15,214.868,8.61951,0,0,0,0,0,0,0,-1,1875,1009,214.868,-8.61954
658,15,214.903,8.61469,0,0,0,0,0,0,0,-1,1882,1009,214.903,-8.61471
665,15,214.984,8.57031,0,0,0,0,0,0,0,-1,1889,1009,214.984,-8.57029
672,15,214.97,8.66156,0,0,0,0,0,0,0,-1,1896,1009,214.97,-8.66154
679,15,214.961,8.48047,0,0,0,0,0,0,0,-1,1903,1009,214.961,-8.4805
686,15,214.916,8.56354,0,0,0,0,0,0,0,-1,1910,1009,214.916,-8.56355
693,15,214.909,8.40887,0,0,0,0,0,0,0,-1,1917,1009,214.909,-8.40886
700,15,214.951,8.51001,0,0,0,0,0,0,0,-1,1924,1009,214.951,-8.50998
707,15,215.019,8.59949,0,0,0,0,0,0,0,-1,1931,1009,215.019,-8.59952
714,15,215.259,8.74756,0,0,0,0,0,0,0,-1,1938,1009,215.259,-8.74753
721,15,105.871,3.06104,0,0,0,0,0,0,0,-1,1945,1009,105.871,-3.06104
728,15,215.049,31.8317,0,0,0,0,0,0,0,-1,1952,1009,215.049,-31.8317
735,15,214.949,32.3325,0,0,0,0,0,0,0,-1,1959,1009,214.949,-32.3324
742,15,215.091,32.7098,0,0,0,0,0,0,0,-1,1966,1009,215.091,-32.7098
749,15,214.954,33.3395,-0.00893324,0.0165583,-0.00216078,0.0167401,-0.00911511,-1.48683,0.0151424,0.0349089,1973,1009,214.954,-33.3395
756,15,214.941,33.5758,-0.0143565,0.0233908,-0.00276271,0.0235919,-0.0145577,-1.49812,0.0222306,0.0264495,1980,1009,214.941,-33.5758
763,15,214.748,34.0984,-0.019655,0.0298118,-0.00307039,0.0300016,-0.0198449,-1.50904,0.0289773,0.0196476,1987,1009,214.748,-34.0984
770,15,214.498,34.3781,-0.0249217,0.0357604,-0.00303745,0.035912,-0.0250734,-1.52091,0.0353948,0.0265585,1994,1009,214.498,-34.378
777,15,214.05,34.6566,0,0,0,0,0,0,0,-1,2001,1009,214.05,-34.6565
784,15,183.132,33.4588,0,0,0,0,0,0,0,-1,2008,1009,183.132,-33.4588
791,15,77.2153,5.6933,0,0,0,0,0,0,0,-1,2015,1009,77.2154,-5.69328
798,15,88.0789,8.15259,0,0,0,0,0,0,0,-1,2022,1009,88.0789,-8.1526
805,15,88.3564,8.5954,0,0,0,0,0,0,0,-1,2029,1009,88.3564,-8.59542
812,15,88.9314,8.58789,0,0,0,0,0,0,0,-1,2036,1009,88.9313,-8.58789
-700,8,0,0,0,0,0,0,0,0,0,-1,524,1016,0,0
-693,8,-94.4625,-0.110535,0,0,0,0,0,0,0,-1,531,1016,-94.4625,0.110518
-686,8,-93.652,1.13306,0,0,0,0,0,0,0,-1,538,1016,-93.652,-1.13308
-679,8,-92.8582,2.35199,0,0,0,0,0,0,0,-1,545,1016,-92.8582,-2.35199
-672,8,-91.9374,3.4234,0,0,0,0,0,0,0,-1,552,1016,-91.9374,-3.42337
-665,8,-91.0598,4.48438,0,0,0,0,0,0,0,-1,559,1016,-91.0598,-4.48439
-658,8,-67.093,6.67358,0,0,0,0,0,0,0,-1,566,1016,-67.093,-6.67358
-651,8,-66.0091,7.37134,0,0,0,0,0,0,0,-1,573,1016,-66.0091,-7.37133
-644,8,-203.948,33.6974,0,0,0,0,0,0,0,-1,580,1016,-203.948,-33.6974
-637,8,-207.113,34.0298,0,0,0,0,0,0,0,-1,587,1016,-207.113,-34.0298
-630,8,-207.208,33.6139,-0.00682226,0.0345049,0.00391767,0.034873,-0.00719036,1.47711,0.0259793,0.0310439,594,1016,-207.208,-33.6139
-623,8,-207.259,33.2613,-0.00275844,0.026222,0.00303265,0.0265359,-0.00307239,1.46764,0.0187986,0.0212478,601,1016,-207.259,-33.2613
-616,8,-207.289,32.8561,0.00133321,0.0181405,0.00212907,0.018406,0.0010677,1.44673,0.0119307,0.0218787,608,1016,-207.289,-32.8561
-609,8,-207.252,32.3907,0.00545468,0.0102976,0.00122369,0.0105892,0.00516304,1.33684,0.00611433,0.0186285,615,1016,-207.252,-32.3908
-602,8,-207.074,32.0729,0.00961152,0.00274007,0.000334069,0.00962772,0.00272387,0.0484646,0.00573054,0.0299506,622,1016,-207.074,-32.073
-595,8,-206.936,31.6378,0,0,0,0,0,0,0,-1,629,1016,-206.936,-31.6378
-588,8,-72.1575,0.396667,0,0,0,0,0,0,0,-1,636,1016,-72.1575,-0.396696
-581,8,-72.2949,0.488342,0,0,0,0,0,0,0,-1,643,1016,-72.2949,-0.488366
-574,8,-72.2419,0.491821,0,0,0,0,0,0,0,-1,650,1016,-72.242,-0.491798
-567,8,-72.2828,0.555176,0,0,0,0,0,0,0,-1,657,1016,-72.2828,-0.555176
-560,8,-72.3215,0.677917,0,0,0,0,0,0,0,-1,664,1016,-72.3215,-0.677912
-553,8,-72.1692,0.698608,0,0,0,0,0,0,0,-1,671,1016,-72.1692,-0.698607
-546,8,-72.1154,0.481506,0,0,0,0,0,0,0,-1,678,1016,-72.1154,-0.481502
-539,8,-72.0368,0.219299,0,0,0,0,0,0,0,-1,685,1016,-72.0368,-0.219299
-532,8,-72.2081,0.637329,0,0,0,0,0,0,0,-1,692,1016,-72.2082,-0.637349
-525,8,0,0,0,0,0,0,0,0,0,-1,699,1016,0,0
-518,8,0,0,0,0,0,0,0,0,0,-1,706,1016,0,0
-511,8,0,0,0,0,0,0,0,0,0,-1,713,1016,0,0
-504,8,0,0,0,0,0,0,0,0,0,-1,720,1016,0,0
-497,8,0,0,0,0,0,0,0,0,0,-1,727,1016,0,0
-490,8,0,0,0,0,0,0,0,0,0,-1,734,1016,0,0
-483,8,0,0,0,0,0,0,0,0,0,-1,741,1016,0,0
-476,8,0,0,0,0,0,0,0,0,0,-1,748,1016,0,0
-469,8,0,0,0,0,0,0,0,0,0,-1,755,1016,0,0
-462,8,0,0,0,0,0,0,0,0,0,-1,762,1016,0,0
-455,8,0,0,0,0,0,0,0,0,0,-1,769,1016,0,0
-448,8,0,0,0,0,0,0,0,0,0,-1,776,1016,0,0
-441,8,0,0,0,0,0,0,0,0,0,-1,783,1016,0,0
-434,8,0,0,0,0,0,0,0,0,0,-1,790,1016,0,0
-427,8,0,0,0,0,0,0,0,0,0,-1,797,1016,0,0
-420,8,0,0,0,0,0,0,0,0,0,-1,804,1016,0,0
-413,8,0,0,0,0,0,0,0,0,0,-1,811,1016,0,0
-406,8,0,0,0,0,0,0,0,0,0,-1,818,1016,0,0
-399,8,0,0,0,0,0,0,0,0,0,-1,825,1016,0,0
-392,8,0,0,0,0,0,0,0,0,0,-1,832,1016,0,0
-385,8,0,0,0,0,0,0,0,0,0,-1,839,1016,0,0
-378,8,0,0,0,0,0,0,0,0,0,-1,846,1016,0,0
-371,8,0,0,0,0,0,0,0,0,0,-1,853,1016,0,0
-364,8,0,0,0,0,0,0,0,0,0,-1,860,1016,0,0
-357,8,0,0,0,0,0,0,0,0,0,-1,867,1016,0,0
-350,8,0,0,0,0,0,0,0,0,0,-1,874,1016,0,0
-343,8,0,0,0,0,0,0,0,0,0,-1,881,1016,0,0
-336,8,0,0,0,0,0,0,0,0,0,-1,888,1016,0,0
-329,8,0,0,0,0,0,0,0,0,0,-1,895,1016,0,0
-322,8,0,0,0,0,0,0,0,0,0,-1,902,1016,0,0
-315,8,0,0,0,0,0,0,0,0,0,-1,909,1016,0,0
-308,8,0,0,0,0,0,0,0,0,0,-1,916,1016,0,0
-301,8,0,0,0,0,0,0,0,0,0,-1,923,1016,0,0
-294,8,0,0,0,0,0,0,0,0,0,-1,930,1016,0,0
-287,8,0,0,0,0,0,0,0,0,0,-1,937,1016,0,0
-280,8,0,0,0,0,0,0,0,0,0,-1,944,1016,0,0
-273,8,0,0,0,0,0,0,0,0,0,-1,951,1016,0,0
-266,8,0,0,0,0,0,0,0,0,0,-1,958,1016,0,0
-259,8,0,0,0,0,0,0,0,0,0,-1,965,1016,0,0
-252,8,0,0,0,0,0,0,0,0,0,-1,972,1016,0,0
-245,8,0,0,0,0,0,0,0,0,0,-1,979,1016,0,0
-238,8,0,0,0,0,0,0,0,0,0,-1,986,1016,0,0
-231,8,0,0,0,0,0,0,0,0,0,-1,993,1016,0,0
-224,8,0,0,0,0,0,0,0,0,0,-1,1000,1016,0,0
-217,8,0,0,0,0,0,0,0,0,0,-1,1007,1016,0,0
-210,8,0,0,0,0,0,0,0,0,0,-1,1014,1016,0,0
-203,8,0,0,0,0,0,0,0,0,0,-1,1021,1016,0,0
-196,8,0,0,0,0,0,0,0,0,0,-1,1028,1016,0,0
-189,8,0,0,0,0,0,0,0,0,0,-1,1035,1016,0,0
-182,8,0,0,0,0,0,0,0,0,0,-1,1042,1016,0,0
-175,8,0,0,0,0,0,0,0,0,0,-1,1049,1016,0,0
-168,8,0,0,0,0,0,0,0,0,0,-1,1056,1016,0,0
-161,8,0,0,0,0,0,0,0,0,0,-1,1063,1016,0,0
-154,8,0,0,0,0,0,0,0,0,0,-1,1070,1016,0,0
-147,8,0,0,0,0,0,0,0,0,0,-1,1077,1016,0,0
-140,8,0,0,0,0,0,0,0,0,0,-1,1084,1016,0,0
-133,8,0,0,0,0,0,0,0,0,0,-1,1091,1016,0,0
-126,8,0,0,0,0,0,0,0,0,0,-1,1098,1016,0,0
-119,8,0,0,0,0,0,0,0,0,0,-1,1105,1016,0,0
-112,8,0,0,0,0,0,0,0,0,0,-1,1112,1016,0,0
-105,8,0,0,0,0,0,0,0,0,0,-1,1119,1016,0,0
-98,8,0,0,0,0,0,0,0,0,0,-1,1126,1016,0,0
-91,8,0,0,0,0,0,0,0,0,0,-1,1133,1016,0,0
-84,8,0,0,0,0,0,0,0,0,0,-1,1140,1016,0,0
-77,8,0,0,0,0,0,0,0,0,0,-1,1147,1016,0,0
-70,8,0,0,0,0,0,0,0,0,0,-1,1154,1016,0,0
-63,8,0,0,0,0,0,0,0,0,0,-1,1161,1016,0,0
-56,8,0,0,0,0,0,0,0,0,0,-1,1168,1016,0,0
-49,8,0,0,0,0,0,0,0,0,0,-1,1175,1016,0,0
-42,8,0,0,0,0,0,0,0,0,0,-1,1182,1016,0,0
-35,8,0,0,0,0,0,0,0,0,0,-1,1189,1016,0,0
-28,8,0,0,0,0,0,0,0,0,0,-1,1196,1016,0,0
-21,8,0,0,0,0,0,0,0,0,0,-1,1203,1016,0,0
-14,8,0,0,0,0,0,0,0,0,0,-1,1210,1016,0,0
-7,8,0,0,0,0,0,0,0,0,0,-1,1217,1016,0,0
0,8,0,0,0,0,0,0,0,0,0,-1,1224,1016,0,0
7,8,0,0,0,0,0,0,0,0,0,-1,1231,1016,0,0
14,8,0,0,0,0,0,0,0,0,0,-1,1238,1016,0,0
21,8,0,0,0,0,0,0,0,0,0,-1,1245,1016,0,0
28,8,0,0,0,0,0,0,0,0,0,-1,1252,1016,0,0
35,8,0,0,0,0,0,0,0,0,0,-1,1259,1016,0,0
42,8,0,0,0,0,0,0,0,0,0,-1,1266,1016,0,0
49,8,0,0,0,0,0,0,0,0,0,-1,1273,1016,0,0
56,8,0,0,0,0,0,0,0,0,0,-1,1280,1016,0,0
63,8,0,0,0,0,0,0,0,0,0,-1,1287,1016,0,0
70,8,0,0,0,0,0,0,0,0,0,-1,1294,1016,0,0
77,8,0,0,0,0,0,0,0,0,0,-1,1301,1016,0,0
84,8,0,0,0,0,0,0,0,0,0,-1,1308,1016,0,0
91,8,0,0,0,0,0,0,0,0,0,-1,1315,1016,0,0
98,8,0,0,0,0,0,0,0,0,0,-1,1322,1016,0,0
105,8,0,0,0,0,0,0,0,0,0,-1,1329,1016,0,0
112,8,0,0,0,0,0,0,0,0,0,-1,1336,1016,0,0
119,8,0,0,0,0,0,0,0,0,0,-1,1343,1016,0,0
126,8,0,0,0,0,0,0,0,0,0,-1,1350,1016,0,0
133,8,0,0,0,0,0,0,0,0,0,-1,1357,1016,0,0
140,8,0,0,0,0,0,0,0,0,0,-1,1364,1016,0,0
147,8,0,0,0,0,0,0,0,0,0,-1,1371,1016,0,0
154,8,0,0,0,0,0,0,0,0,0,-1,1378,1016,0,0
161,8,0,0,0,0,0,0,0,0,0,-1,1385,1016,0,0
168,8,0,0,0,0,0,0,0,0,0,-1,1392,1016,0,0
175,8,0,0,0,0,0,0,0,0,0,-1,1399,1016,0,0
182,8,0,0,0,0,0,0,0,0,0,-1,1406,1016,0,0
189,8,0,0,0,0,0,0,0,0,0,-1,1413,1016,0,0
196,8,0,0,0,0,0,0,0,0,0,-1,1420,1016,0,0
203,8,0,0,0,0,0,0,0,0,0,-1,1427,1016,0,0
210,8,0,0,0,0,0,0,0,0,0,-1,1434,1016,0,0
217,8,0,0,0,0,0,0,0,0,0,-1,1441,1016,0,0
224,8,0,0,0,0,0,0,0,0,0,-1,1448,1016,0,0
231,8,0,0,0,0,0,0,0,0,0,-1,1455,1016,0,0
238,8,0,0,0,0,0,0,0,0,0,-1,1462,1016,0,0
245,8,0,0,0,0,0,0,0,0,0,-1,1469,1016,0,0
252,8,0,0,0,0,0,0,0,0,0,-1,1476,1016,0,0
259,8,0,0,0,0,0,0,0,0,0,-1,1483,1016,0,0
266,8,0,0,0,0,0,0,0,0,0,-1,1490,1016,0,0
273,8,0,0,0,0,0,0,0,0,0,-1,1497,1016,0,0
280,8,0,0,0,0,0,0,0,0,0,-1,1504,1016,0,0
287,8,0,0,0,0,0,0,0,0,0,-1,1511,1016,0,0
294,8,0,0,0,0,0,0,0,0,0,-1,1518,1016,0,0
301,8,0,0,0,0,0,0,0,0,0,-1,1525,1016,0,0
308,8,0,0,0,0,0,0,0,0,0,-1,1532,1016,0,0
315,8,0,0,0,0,0,0,0,0,0,-1,1539,1016,0,0
322,8,0,0,0,0,0,0,0,0,0,-1,1546,1016,0,0
329,8,0,0,0,0,0,0,0,0,0,-1,1553,1016,0,0
336,8,0,0,0,0,0,0,0,0,0,-1,1560,1016,0,0
343,8,0,0,0,0,0,0,0,0,0,-1,1567,1016,0,0
350,8,0,0,0,0,0,0,0,0,0,-1,1574,1016,0,0
357,8,0,0,0,0,0,0,0,0,0,-1,1581,1016,0,0
364,8,0,0,0,0,0,0,0,0,0,-1,1588,1016,0,0
371,8,0,0,0,0,0,0,0,0,0,-1,1595,1016,0,0
378,8,0,0,0,0,0,0,0,0,0,-1,1602,1016,0,0
385,8,0,0,0,0,0,0,0,0,0,-1,1609,1016,0,0
392,8,0,0,0,0,0,0,0,0,0,-1,1616,1016,0,0
399,8,0,0,0,0,0,0,0,0,0,-1,1623,1016,0,0
406,8,0,0,0,0,0,0,0,0,0,-1,1630,1016,0,0
413,8,0,0,0,0,0,0,0,0,0,-1,1637,1016,0,0
420,8,0,0,0,0,0,0,0,0,0,-1,1644,1016,0,0
427,8,0,0,0,0,0,0,0,0,0,-1,1651,1016,0,0
434,8,0,0,0,0,0,0,0,0,0,-1,1658,1016,0,0
441,8,0,0,0,0,0,0,0,0,0,-1,1665,1016,0,0
448,8,0,0,0,0,0,0,0,0,0,-1,1672,1016,0,0
455,8,0,0,0,0,0,0,0,0,0,-1,1679,1016,0,0
462,8,0,0,0,0,0,0,0,0,0,-1,1686,1016,0,0
469,8,0,0,0,0,0,0,0,0,0,-1,1693,1016,0,0
476,8,0,0,0,0,0,0,0,0,0,-1,1700,1016,0,0
483,8,0,0,0,0,0,0,0,0,0,-1,1707,1016,0,0
490,8,0,0,0,0,0,0,0,0,0,-1,1714,1016,0,0
497,8,0,0,0,0,0,0,0,0,0,-1,1721,1016,0,0
504,8,0,0,0,0,0,0,0,0,0,-1,1728,1016,0,0
511,8,0,0,0,0,0,0,0,0,0,-1,1735,1016,0,0
518,8,0,0,0,0,0,0,0,0,0,-1,1742,1016,0,0
525,8,0,0,0,0,0,0,0,0,0,-1,1749,1016,0,0
532,8,0,0,0,0,0,0,0,0,0,-1,1756,1016,0,0
539,8,0,0,0,0,0,0,0,0,0,-1,1763,1016,0,0
546,8,0,0,0,0,0,0,0,0,0,-1,1770,1016,0,0
553,8,0,0,0,0,0,0,0,0,0,-1,1777,1016,0,0
560,8,0,0,0,0,0,0,0,0,0,-1,1784,1016,0,0
567,8,0,0,0,0,0,0,0,0,0,-1,1791,1016,0,0
574,8,0,0,0,0,0,0,0,0,0,-1,1798,1016,0,0
581,8,0,0,0,0,0,0,0,0,0,-1,1805,1016,0,0
588,8,0,0,0,0,0,0,0,0,0,-1,1812,1016,0,0
595,8,0,0,0,0,0,0,0,0,0,-1,1819,1016,0,0
602,8,0,0,0,0,0,0,0,0,0,-1,1826,1016,0,0
609,8,0,0,0,0,0,0,0,0,0,-1,1833,1016,0,0
616,8,0,0,0,0,0,0,0,0,0,-1,1840,1016,0,0
623,8,0,0,0,0,0,0,0,0,0,-1,1847,1016,0,0
630,8,0,0,0,0,0,0,0,0,0,-1,1854,1016,0,0
637,8,0,0,0,0,0,0,0,0,0,-1,1861,1016,0,0
644,8,214.899,8.70532,0,0,0,0,0,0,0,-1,1868,1016,214.899,-8.70532
651,8,214.905,8.57159,0,0,0,0,0,0,0,-1,1875,1016,214.905,-8.5716
658,8,214.919,8.51581,0,0,0,0,0,0,0,-1,1882,1016,214.919,-8.51583
665,8,214.959,8.44,0,0,0,0,0,0,0,-1,1889,1016,214.959,-8.44002
672,8,214.943,8.40973,0,0,0,0,0,0,0,-1,1896,1016,214.943,-8.40971
679,8,214.895,8.43231,0,0,0,0,0,0,0,-1,1903,1016,214.895,-8.4323
686,8,214.873,8.4812,0,0,0,0,0,0,0,-1,1910,1016,214.873,-8.48119
693,8,214.789,8.58521,0,0,0,0,0,0,0,-1,1917,1016,214.789,-8.58521
700,8,214.856,8.54913,0,0,0,0,0,0,0,-1,1924,1016,214.856,-8.54916
707,8,214.937,8.55096,0,0,0,0,0,0,0,-1,1931,1016,214.937,-8.55099
714,8,214.937,8.42725,0,0,0,0,0,0,0,-1,1938,1016,214.937,-8.42725
721,8,214.663,8.17438,0,0,0,0,0,0,0,-1,1945,1016,214.663,-8.17437
728,8,52.1681,5.36774,0,0,0,0,0,0,0,-1,1952,1016,52.168,-5.36773
735,8,215.415,32.436,0,0,0,0,0,0,0,-1,1959,1016,215.415,-32.436
742,8,83.9912,8.48407,0,0,0,0,0,0,0,-1,1966,1016,83.9913,-8.48409
749,8,215.544,33.4163,0,0,0,0,0,0,0,-1,1973,1016,215.544,-33.4163
756,8,215.541,33.5432,0,0,0,0,0,0,0,-1,1980,1016,215.54,-33.5431
763,8,215.294,33.7682,0,0,0,0,0,0,0,-1,1987,1016,215.294,-33.7683
770,8,215.02,34.0385,0,0,0,0,0,0,0,-1,1994,1016,215.02,-34.0384
777,8,214.608,34.4395,0,0,0,0,0,0,0,-1,2001,1016,214.608,-34.4395
784,8,134.481,19.9537,0,0,0,0,0,0,0,-1,2008,1016,134.481,-19.9537
791,8,88.1389,7.42731,0,0,0,0,0,0,0,-1,2015,1016,88.1389,-7.42729
798,8,88.519,7.40491,0,0,0,0,0,0,0,-1,2022,1016,88.519,-7.40488
805,8,94.8618,12.5284,0,0,0,0,0,0,0,-1,2029,1016,94.8618,-12.5284
812,8,95.3872,12.9834,0,0,0,0,0,0,0,-1,2036,1016,95.3873,-12.9834
-700,1,0,0,0,0,0,0,0,0,0,-1,524,1023,0,0
-693,1,-89.0085,15.0234,0,0,0,0,0,0,0,-1,531,1023,-89.0085,-15.0233
-686,1,-92.1439,0.987854,0,0,0,0,0,0,0,-1,538,1023,-92.1439,-0.987837
-679,1,-91.2599,2.24536,0,0,0,0,0,0,0,-1,545,1023,-91.2599,-2.24535
-672,1,-90.748,2.95911,0,0,0,0,0,0,0,-1,552,1023,-90.748,-2.95909
-665,1,-89.907,3.96826,0,0,0,0,0,0,0,-1,559,1023,-89.907,-3.96827
-658,1,-71.1587,7.20117,0,0,0,0,0,0,0,-1,566,1023,-71.1587,-7.20115
-651,1,-67.7609,7.71844,0,0,0,0,0,0,0,-1,573,1023,-67.7609,-7.71845
-644,1,-203.337,34.0722,0,0,0,0,0,0,0,-1,580,1023,-203.337,-34.0722
-637,1,-207.668,33.6282,0,0,0,0,0,0,0,-1,587,1023,-207.668,-33.6282
-630,1,-207.711,33.3866,-0.00770688,0.0346017,0.00345539,0.0348821,-0.00798723,1.48984,0.0263242,0.0426008,594,1023,-207.711,-33.3866
-623,1,-207.603,33.1042,-0.00326596,0.0259695,0.00272562,0.0262214,-0.0035179,1.47862,0.0187638,0.0209133,601,1023,-207.603,-33.1043
-616,1,-207.798,32.6475,0.00113092,0.0175296,0.00200374,0.0177709,0.000889638,1.45096,0.0115621,0.0251981,608,1023,-207.798,-32.6474
-609,1,-207.809,32.413,0.00548664,0.00930945,0.00130429,0.00971205,0.00508403,1.2714,0.00560932,0.0199723,615,1023,-207.809,-32.4129
-602,1,-207.492,32.0587,0.00980485,0.00134535,0.000643214,0.00985348,0.00129672,0.0754564,0.00618224,0.0179677,622,1023,-207.492,-32.0586
-595,1,-207.323,31.6815,0.0142018,-0.00598602,3.31881e-05,0.0142019,-0.00598607,0.00164396,0.0119729,0.0334953,629,1023,-207.323,-31.6815
-588,1,-207.06,31.4864,0,0,0,0,0,0,0,-1,636,1023,-207.06,-31.4864
-581,1,-72.3068,0.48175,0,0,0,0,0,0,0,-1,643,1023,-72.3068,-0.481753
-574,1,-72.3138,0.632874,0,0,0,0,0,0,0,-1,650,1023,-72.3138,-0.632846
-567,1,-72.231,0.548584,0,0,0,0,0,0,0,-1,657,1023,-72.231,-0.548607
-560,1,-72.2925,0.673706,0,0,0,0,0,0,0,-1,664,1023,-72.2926,-0.673701
-553,1,-72.1824,-0.118774,0,0,0,0,0,0,0,-1,671,1023,-72.1824,0.118785
-546,1,-72.0557,0.329224,0,0,0,0,0,0,0,-1,678,1023,-72.0557,-0.329219
-539,1,-72.0885,0.710022,0,0,0,0,0,0,0,-1,685,1023,-72.0885,-0.710042
-532,1,-72.1794,0.856262,0,0,0,0,0,0,0,-1,692,1023,-72.1794,-0.856276
-525,1,0,0,0,0,0,0,0,0,0,-1,699,1023,0,0
-518,1,0,0,0,0,0,0,0,0,0,-1,706,1023,0,0
-511,1,0,0,0,0,0,0,0,0,0,-1,713,1023,0,0
-504,1,0,0,0,0,0,0,0,0,0,-1,720,1023,0,0
-497,1,0,0,0,0,0,0,0,0,0,-1,727,1023,0,0
-490,1,0,0,0,0,0,0,0,0,0,-1,734,1023,0,0
-483,1,0,0,0,0,0,0,0,0,0,-1,741,1023,0,0
-476,1,0,0,0,0,0,0,0,0,0,-1,748,1023,0,0
-469,1,0,0,0,0,0,0,0,0,0,-1,755,1023,0,0
-462,1,0,0,0,0,0,0,0,0,0,-1,762,1023,0,0
-455,1,0,0,0,0,0,0,0,0,0,-1,769,1023,0,0
-448,1,0,0,0,0,0,0,0,0,0,-1,776,1023,0,0
-441,1,0,0,0,0,0,0,0,0,0,-1,783,1023,0,0
-434,1,0,0,0,0,0,0,0,0,0,-1,790,1023,0,0
-427,1,0,0,0,0,0,0,0,0,0,-1,797,1023,0,0
-420,1,0,0,0,0,0,0,0,0,0,-1,804,1023,0,0
-413,1,0,0,0,0,0,0,0,0,0,-1,811,1023,0,0
-406,1,0,0,0,0,0,0,0,0,0,-1,818,1023,0,0
-399,1,0,0,0,0,0,0,0,0,0,-1,825,1023,0,0
-392,1,0,0,0,0,0,0,0,0,0,-1,832,1023,0,0
-385,1,0,0,0,0,0,0,0,0,0,-1,839,1023,0,0
-378,1,0,0,0,0,0,0,0,0,0,-1,846,1023,0,0
-371,1,0,0,0,0,0,0,0,0,0,-1,853,1023,0,0
-364,1,0,0,0,0,0,0,0,0,0,-1,860,1023,0,0
-357,1,0,0,0,0,0,0,0,0,0,-1,867,1023,0,0
-350,1,0,0,0,0,0,0,0,0,0,-1,874,1023,0,0
-343,1,0,0,0,0,0,0,0,0,0,-1,881,1023,0,0
-336,1,0,0,0,0,0,0,0,0,0,-1,888,1023,0,0
-329,1,0,0,0,0,0,0,0,0,0,-1,895,1023,0,0
-322,1,0,0,0,0,0,0,0,0,0,-1,902,1023,0,0
-315,1,0,0,0,0,0,0,0,0,0,-1,909,1023,0,0
-308,1,0,0,0,0,0,0,0,0,0,-1,916,1023,0,0
-301,1,0,0,0,0,0,0,0,0,0,-1,923,1023,0,0
-294,1,0,0,0,0,0,0,0,0,0,-1,930,1023,0,0
-287,1,0,0,0,0,0,0,0,0,0,-1,937,1023,0,0
-280,1,0,0,0,0,0,0,0,0,0,-1,944,1023,0,0
-273,1,0,0,0,0,0,0,0,0,0,-1,951,1023,0,0
-266,1,0,0,0,0,0,0,0,0,0,-1,958,1023,0,0
-259,1,0,0,0,0,0,0,0,0,0,-1,965,1023,0,0
-252,1,0,0,0,0,0,0,0,0,0,-1,972,1023,0,0
-245,1,0,0,0,0,0,0,0,0,0,-1,979,1023,0,0
-238,1,0,0,0,0,0,0,0,0,0,-1,986,1023,0,0
-231,1,0,0,0,0,0,0,0,0,0,-1,993,1023,0,0
-224,1,0,0,0,0,0,0,0,0,0,-1,1000,1023,0,0
-217,1,0,0,0,0,0,0,0,0,0,-1,1007,1023,0,0
-210,1,0,0,0,0,0,0,0,0,0,-1,1014,1023,0,0
-203,1,0,0,0,0,0,0,0,0,0,-1,1021,1023,0,0
-196,1,0,0,0,0,0,0,0,0,0,-1,1028,1023,0,0
-189,1,0,0,0,0,0,0,0,0,0,-1,1035,1023,0,0
-182,1,0,0,0,0,0,0,0,0,0,-1,1042,1023,0,0
-175,1,0,0,0,0,0,0,0,0,0,-1,1049,1023,0,0
-168,1,0,0,0,0,0,0,0,0,0,-1,1056,1023,0,0
-161,1,0,0,0,0,0,0,0,0,0,-1,1063,1023,0,0
-154,1,0,0,0,0,0,0,0,0,0,-1,1070,1023,0,0
-147,1,0,0,0,0,0,0,0,0,0,-1,1077,1023,0,0
-140,1,0,0,0,0,0,0,0,0,0,-1,1084,1023,0,0
-133,1,0,0,0,0,0,0,0,0,0,-1,1091,1023,0,0
-126,1,0,0,0,0,0,0,0,0,0,-1,1098,1023,0,0
-119,1,0,0,0,0,0,0,0,0,0,-1,1105,1023,0,0
-112,1,0,0,0,0,0,0,0,0,0,-1,1112,1023,0,0
-105,1,0,0,0,0,0,0,0,0,0,-1,1119,1023,0,0
-98,1,0,0,0,0,0,0,0,0,0,-1,1126,1023,0,0
-91,1,0,0,0,0,0,0,0,0,0,-1,1133,1023,0,0
-84,1,0,0,0,0,0,0,0,0,0,-1,1140,1023,0,0
-77,1,0,0,0,0,0,0,0,0,0,-1,1147,1023,0,0
-70,1,0,0,0,0,0,0,0,0,0,-1,1154,1023,0,0
-63,1,0,0,0,0,0,0,0,0,0,-1,1161,1023,0,0
-56,1,0,0,0,0,0,0,0,0,0,-1,1168,1023,0,0
-49,1,0,0,0,0,0,0,0,0,0,-1,1175,1023,0,0
-42,1,0,0,0,0,0,0,0,0,0,-1,1182,1023,0,0
-35,1,0,0,0,0,0,0,0,0,0,-1,1189,1023,0,0
-28,1,0,0,0,0,0,0,0,0,0,-1,1196,1023,0,0
-21,1,0,0,0,0,0,0,0,0,0,-1,1203,1023,0,0
-14,1,0,0,0,0,0,0,0,0,0,-1,1210,1023,0,0
-7,1,0,0,0,0,0,0,0,0,0,-1,1217,1023,0,0
0,1,0,0,0,0,0,0,0,0,0,-1,1224,1023,0,0
7,1,0,0,0,0,0,0,0,0,0,-1,1231,1023,0,0
14,1,0,0,0,0,0,0,0,0,0,-1,1238,1023,0,0
21,1,0,0,0,0,0,0,0,0,0,-1,1245,1023,0,0
28,1,0,0,0,0,0,0,0,0,0,-1,1252,1023,0,0
35,1,0,0,0,0,0,0,0,0,0,-1,1259,1023,0,0
42,1,0,0,0,0,0,0,0,0,0,-1,1266,1023,0,0
49,1,0,0,0,0,0,0,0,0,0,-1,1273,1023,0,0
56,1,0,0,0,0,0,0,0,0,0,-1,1280,1023,0,0
63,1,0,0,0,0,0,0,0,0,0,-1,1287,1023,0,0
70,1,0,0,0,0,0,0,0,0,0,-1,1294,1023,0,0
77,1,0,0,0,0,0,0,0,0,0,-1,1301,1023,0,0
84,1,0,0,0,0,0,0,0,0,0,-1,1308,1023,0,0
91,1,0,0,0,0,0,0,0,0,0,-1,1315,1023,0,0
98,1,0,0,0,0,0,0,0,0,0,-1,1322,1023,0,0
105,1,0,0,0,0,0,0,0,0,0,-1,1329,1023,0,0
112,1,0,0,0,0,0,0,0,0,0,-1,1336,1023,0,0
119,1,0,0,0,0,0,0,0,0,0,-1,1343,1023,0,0
126,1,0,0,0,0,0,0,0,0,0,-1,1350,1023,0,0
133,1,0,0,0,0,0,0,0,0,0,-1,1357,1023,0,0
140,1,0,0,0,0,0,0,0,0,0,-1,1364,1023,0,0
147,1,0,0,0,0,0,0,0,0,0,-1,1371,1023,0,0
154,1,0,0,0,0,0,0,0,0,0,-1,1378,1023,0,0
161,1,0,0,0,0,0,0,0,0,0,-1,1385,1023,0,0
168,1,0,0,0,0,0,0,0,0,0,-1,1392,1023,0,0
175,1,0,0,0,0,0,0,0,0,0,-1,1399,1023,0,0
182,1,0,0,0,0,0,0,0,0,0,-1,1406,1023,0,0
189,1,0,0,0,0,0,0,0,0,0,-1,1413,1023,0,0
196,1,0,0,0,0,0,0,0,0,0,-1,1420,1023,0,0
203,1,0,0,0,0,0,0,0,0,0,-1,1427,1023,0,0
210,1,0,0,0,0,0,0,0,0,0,-1,1434,1023,0,0
217,1,0,0,0,0,0,0,0,0,0,-1,1441,1023,0,0
224,1,0,0,0,0,0,0,0,0,0,-1,1448,1023,0,0
231,1,0,0,0,0,0,0,0,0,0,-1,1455,1023,0,0
238,1,0,0,0,0,0,0,0,0,0,-1,1462,1023,0,0
245,1,0,0,0,0,0,0,0,0,0,-1,1469,1023,0,0
252,1,0,0,0,0,0,0,0,0,0,-1,1476,1023,0,0
259,1,0,0,0,0,0,0,0,0,0,-1,1483,1023,0,0
266,1,0,0,0,0,0,0,0,0,0,-1,1490,1023,0,0
273,1,0,0,0,0,0,0,0,0,0,-1,1497,1023,0,0
280,1,0,0,0,0,0,0,0,0,0,-1,1504,1023,0,0
287,1,0,0,0,0,0,0,0,0,0,-1,1511,1023,0,0
294,1,0,0,0,0,0,0,0,0,0,-1,1518,1023,0,0
301,1,0,0,0,0,0,0,0,0,0,-1,1525,1023,0,0
308,1,0,0,0,0,0,0,0,0,0,-1,1532,1023,0,0
315,1,0,0,0,0,0,0,0,0,0,-1,1539,1023,0,0
322,1,0,0,0,0,0,0,0,0,0,-1,1546,1023,0,0
329,1,0,0,0,0,0,0,0,0,0,-1,1553,1023,0,0
336,1,0,0,0,0,0,0,0,0,0,-1,1560,1023,0,0
343,1,0,0,0,0,0,0,0,0,0,-1,1567,1023,0,0
350,1,0,0,0,0,0,0,0,0,0,-1,1574,1023,0,0
357,1,0,0,0,0,0,0,0,0,0,-1,1581,1023,0,0
364,1,0,0,0,0,0,0,0,0,0,-1,1588,1023,0,0
371,1,0,0,0,0,0,0,0,0,0,-1,1595,1023,0,0
378,1,0,0,0,0,0,0,0,0,0,-1,1602,1023,0,0
385,1,0,0,0,0,0,0,0,0,0,-1,1609,1023,0,0
392,1,0,0,0,0,0,0,0,0,0,-1,1616,1023,0,0
399,1,0,0,0,0,0,0,0,0,0,-1,1623,1023,0,0
406,1,0,0,0,0,0,0,0,0,0,-1,1630,1023,0,0
413,1,0,0,0,0,0,0,0,0,0,-1,1637,1023,0,0
420,1,0,0,0,0,0,0,0,0,0,-1,1644,1023,0,0
427,1,0,0,0,0,0,0,0,0,0,-1,1651,1023,0,0
434,1,0,0,0,0,0,0,0,0,0,-1,1658,1023,0,0
441,1,0,0,0,0,0,0,0,0,0,-1,1665,1023,0,0
448,1,0,0,0,0,0,0,0,0,0,-1,1672,1023,0,0
455,1,0,0,0,0,0,0,0,0,0,-1,1679,1023,0,0
462,1,0,0,0,0,0,0,0,0,0,-1,1686,1023,0,0
469,1,0,0,0,0,0,0,0,0,0,-1,1693,1023,0,0
476,1,0,0,0,0,0,0,0,0,0,-1,1700,1023,0,0
483,1,0,0,0,0,0,0,0,0,0,-1,1707,1023,0,0
490,1,0,0,0,0,0,0,0,0,0,-1,1714,1023,0,0
497,1,0,0,0,0,0,0,0,0,0,-1,1721,1023,0,0
504,1,0,0,0,0,0,0,0,0,0,-1,1728,1023,0,0
511,1,0,0,0,0,0,0,0,0,0,-1,1735,1023,0,0
518,1,0,0,0,0,0,0,0,0,0,-1,1742,1023,0,0
525,1,0,0,0,0,0,0,0,0,0,-1,1749,1023,0,0
532,1,0,0,0,0,0,0,0,0,0,-1,1756,1023,0,0
539,1,0,0,0,0,0,0,0,0,0,-1,1763,1023,0,0
546,1,0,0,0,0,0,0,0,0,0,-1,1770,1023,0,0
553,1,0,0,0,0,0,0,0,0,0,-1,1777,1023,0,0
560,1,0,0,0,0,0,0,0,0,0,-1,1784,1023,0,0
567,1,0,0,0,0,0,0,0,0,0,-1,1791,1023,0,0
574,1,0,0,0,0,0,0,0,0,0,-1,1798,1023,0,0
581,1,0,0,0,0,0,0,0,0,0,-1,1805,1023,0,0
588,1,0,0,0,0,0,0,0,0,0,-1,1812,1023,0,0
595,1,0,0,0,0,0,0,0,0,0,-1,1819,1023,0,0
602,1,0,0,0,0,0,0,0,0,0,-1,1826,1023,0,0
609,1,0,0,0,0,0,0,0,0,0,-1,1833,1023,0,0
616,1,0,0,0,0,0,0,0,0,0,-1,1840,1023,0,0
623,1,0,0,0,0,0,0,0,0,0,-1,1847,1023,0,0
630,1,0,0,0,0,0,0,0,0,0,-1,1854,1023,0,0
637,1,0,0,0,0,0,0,0,0,0,-1,1861,1023,0,0
644,1,0,0,0,0,0,0,0,0,0,-1,1868,1023,0,0
651,1,214.966,8.57275,0,0,0,0,0,0,0,-1,1875,1023,214.966,-8.57277
658,1,214.996,8.59613,0,0,0,0,0,0,0,-1,1882,1023,214.996,-8.59612
665,1,215.027,8.51953,0,0,0,0,0,0,0,-1,1889,1023,215.027,-8.51955
672,1,214.952,8.50464,0,0,0,0,0,0,0,-1,1896,1023,214.952,-8.50464
679,1,214.854,8.58221,0,0,0,0,0,0,0,-1,1903,1023,214.854,-8.58223
686,1,214.691,8.59644,0,0,0,0,0,0,0,-1,1910,1023,214.691,-8.59644
693,1,214.719,8.6994,0,0,0,0,0,0,0,-1,1917,1023,214.719,-8.69942
700,1,214.873,8.67279,0,0,0,0,0,0,0,-1,1924,1023,214.873,-8.67281
707,1,214.887,8.5177,0,0,0,0,0,0,0,-1,1931,1023,214.887,-8.51771
714,1,214.87,8.4231,0,0,0,0,0,0,0,-1,1938,1023,214.87,-8.42311
721,1,214.75,8.42853,0,0,0,0,0,0,0,-1,1945,1023,214.75,-8.42854
728,1,52.4639,5.59277,0,0,0,0,0,0,0,-1,1952,1023,52.4639,-5.59276
735,1,53.3617,6.10699,0,0,0,0,0,0,0,-1,1959,1023,53.3617,-6.10698
742,1,52.4393,5.81525,0,0,0,0,0,0,0,-1,1966,1023,52.4393,-5.81527
749,1,82.8113,7.83478,0,0,0,0,0,0,0,-1,1973,1023,82.8112,-7.8348
756,1,210.199,33.1948,0,0,0,0,0,0,0,-1,1980,1023,210.199,-33.1948
763,1,215.681,33.5202,0,0,0,0,0,0,0,-1,1987,1023,215.681,-33.5202
770,1,215.412,33.7791,-0.0240797,0.037642,-0.00243962,0.0377382,-0.024176,-1.53135,0.0360309,0.0279516,1994,1023,215.412,-33.779
777,1,215.156,34.0662,-0.0280957,0.045051,-0.00263087,0.0451455,-0.0281902,-1.53489,0.0427159,0.0444571,2001,1023,215.156,-34.0662
784,1,214.917,34.2861,0,0,0,0,0,0,0,-1,2008,1023,214.917,-34.2861
791,1,100.412,8.00543,0,0,0,0,0,0,0,-1,2015,1023,100.411,-8.00544
798,1,101.517,12.6337,0,0,0,0,0,0,0,-1,2022,1023,101.517,-12.6337
805,1,104.376,19.1456,0,0,0,0,0,0,0,-1,2029,1023,104.376,-19.1455
812,1,104.873,17.9626,0,0,0,0,0,0,0,-1,2036,1023,104.873,-17.9627
-700,-6,0,0,0,0,0,0,0,0,0,-1,524,1030,0,0
-693,-6,-88.6603,13.7856,0,0,0,0,0,0,0,-1,531,1030,-88.6604,-13.7856
-686,-6,-90.5388,13.9272,0,0,0,0,0,0,0,-1,538,1030,-90.5388,-13.9272
-679,-6,-91.8646,14.2508,0,0,0,0,0,0,0,-1,545,1030,-91.8646,-14.2508
-672,-6,-89.5654,2.59106,0,0,0,0,0,0,0,-1,552,1030,-89.5654,-2.59105
-665,-6,-87.2815,3.90417,0,0,0,0,0,0,0,-1,559,1030,-87.2815,-3.90414
-658,-6,-85.4016,4.85437,0,0,0,0,0,0,0,-1,566,1030,-85.4016,-4.85436
-651,-6,-87.49,11.0592,0,0,0,0,0,0,0,-1,573,1030,-87.4899,-11.0592
-644,-6,-194.497,33.6895,0,0,0,0,0,0,0,-1,580,1030,-194.497,-33.6895
-637,-6,-208.204,33.5642,0,0,0,0,0,0,0,-1,587,1030,-208.204,-33.5642
-630,-6,-208.097,33.1698,-0.00768225,0.0344076,0.00314755,0.0346417,-0.00791633,1.49656,0.0261359,0.0342756,594,1030,-208.097,-33.1698
-623,-6,-207.951,32.9429,-0.00325361,0.0254421,0.00256711,0.02567,-0.00348145,1.48227,0.018384,0.0231817,601,1030,-207.951,-32.9429
-616,-6,-208.071,32.5829,0.00116586,0.0166545,0.002012,0.0169116,0.000908763,1.4437,0.010984,0.0247285,608,1030,-208.071,-32.5829
-609,-6,-208.07,32.3767,0.00558036,0.00805356,0.00149914,0.00876031,0.00487361,1.13026,0.00506846,0.0207484,615,1030,-208.07,-32.3767
-602,-6,-207.933,32.0654,0.00999483,-0.000346562,0.00104925,0.0101002,-0.000451947,0.100102,0.00688907,0.0174808,622,1030,-207.933,-32.0654
-595,-6,-207.861,31.6524,0.0145885,-0.00813692,0.000733731,0.0146121,-0.00816059,0.0322421,0.0133226,0.041563,629,1030,-207.861,-31.6524
-588,-6,-207.198,31.2502,0,0,0,0,0,0,0,-1,636,1030,-207.198,-31.2503
-581,-6,-72.2767,0.400757,0,0,0,0,0,0,0,-1,643,1030,-72.2767,-0.400731
-574,-6,-72.3219,0.456665,0,0,0,0,0,0,0,-1,650,1030,-72.3219,-0.456675
-567,-6,-72.2971,0.412842,0,0,0,0,0,0,0,-1,657,1030,-72.2971,-0.412811
-560,-6,-72.3146,0.529053,0,0,0,0,0,0,0,-1,664,1030,-72.3146,-0.529107
-553,-6,-72.132,0.543579,0,0,0,0,0,0,0,-1,671,1030,-72.132,-0.543622
-546,-6,-72.027,0.153687,0,0,0,0,0,0,0,-1,678,1030,-72.0271,-0.153691
-539,-6,-72.1198,0.670776,0,0,0,0,0,0,0,-1,685,1030,-72.1198,-0.670789
-532,-6,-72.3258,1.02258,0,0,0,0,0,0,0,-1,692,1030,-72.3258,-1.02254
-525,-6,0,0,0,0,0,0,0,0,0,-1,699,1030,0,0
-518,-6,0,0,0,0,0,0,0,0,0,-1,706,1030,0,0
-511,-6,0,0,0,0,0,0,0,0,0,-1,713,1030,0,0
-504,-6,0,0,0,0,0,0,0,0,0,-1,720,1030,0,0
-497,-6,0,0,0,0,0,0,0,0,0,-1,727,1030,0,0
-490,-6,0,0,0,0,0,0,0,0,0,-1,734,1030,0,0
-483,-6,0,0,0,0,0,0,0,0,0,-1,741,1030,0,0
-476,-6,0,0,0,0,0,0,0,0,0,-1,748,1030,0,0
-469,-6,0,0,0,0,0,0,0,0,0,-1,755,1030,0,0
-462,-6,0,0,0,0,0,0,0,0,0,-1,762,1030,0,0
-455,-6,0,0,0,0,0,0,0,0,0,-1,769,1030,0,0
-448,-6,0,0,0,0,0,0,0,0,0,-1,776,1030,0,0
-441,-6,0,0,0,0,0,0,0,0,0,-1,783,1030,0,0
-434,-6,0,0,0,0,0,0,0,0,0,-1,790,1030,0,0
-427,-6,0,0,0,0,0,0,0,0,0,-1,797,1030,0,0
-420,-6,0,0,0,0,0,0,0,0,0,-1,804,1030,0,0
-413,-6,0,0,0,0,0,0,0,0,0,-1,811,1030,0,0
-406,-6,0,0,0,0,0,0,0,0,0,-1,818,1030,0,0
-399,-6,0,0,0,0,0,0,0,0,0,-1,825,1030,0,0
-392,-6,0,0,0,0,0,0,0,0,0,-1,832,1030,0,0
-385,-6,0,0,0,0,0,0,0,0,0,-1,839,1030,0,0
-378,-6,0,0,0,0,0,0,0,0,0,-1,846,1030,0,0
-371,-6,0,0,0,0,0,0,0,0,0,-1,853,1030,0,0
-364,-6,0,0,0,0,0,0,0,0,0,-1,860,1030,0,0
-357,-6,0,0,0,0,0,0,0,0,0,-1,867,1030,0,0
-350,-6,0,0,0,0,0,0,0,0,0,-1,874,1030,0,0
-343,-6,0,0,0,0,0,0,0,0,0,-1,881,1030,0,0
-336,-6,0,0,0,0,0,0,0,0,0,-1,888,1030,0,0
-329,-6,0,0,0,0,0,0,0,0,0,-1,895,1030,0,0
-322,-6,0,0,0,0,0,0,0,0,0,-1,902,1030,0,0
-315,-6,0,0,0,0,0,0,0,0,0,-1,909,1030,0,0
-308,-6,0,0,0,0,0,0,0,0,0,-1,916,1030,0,0
-301,-6,0,0,0,0,0,0,0,0,0,-1,923,1030,0,0
-294,-6,0,0,0,0,0,0,0,0,0,-1,930,1030,0,0
-287,-6,0,0,0,0,0,0,0,0,0,-1,937,1030,0,0
-280,-6,0,0,0,0,0,0,0,0,0,-1,944,1030,0,0
-273,-6,0,0,0,0,0,0,0,0,0,-1,951,1030,0,0
-266,-6,0,0,0,0,0,0,0,0,0,-1,958,1030,0,0
-259,-6,0,0,0,0,0,0,0,0,0,-1,965,1030,0,0
-252,-6,0,0,0,0,0,0,0,0,0,-1,972,1030,0,0
-245,-6,0,0,0,0,0,0,0,0,0,-1,979,1030,0,0
-238,-6,0,0,0,0,0,0,0,0,0,-1,986,1030,0,0
-231,-6,0,0,0,0,0,0,0,0,0,-1,993,1030,0,0
-224,-6,0,0,0,0,0,0,0,0,0,-1,1000,1030,0,0
-217,-6,0,0,0,0,0,0,0,0,0,-1,1007,1030,0,0
-210,-6,0,0,0,0,0,0,0,0,0,-1,1014,1030,0,0
-203,-6,0,0,0,0,0,0,0,0,0,-1,1021,1030,0,0
-196,-6,0,0,0,0,0,0,0,0,0,-1,1028,1030,0,0
-189,-6,0,0,0,0,0,0,0,0,0,-1,1035,1030,0,0
-182,-6,0,0,0,0,0,0,0,0,0,-1,1042,1030,0,0
-175,-6,0,0,0,0,0,0,0,0,0,-1,1049,1030,0,0
-168,-6,0,0,0,0,0,0,0,0,0,-1,1056,1030,0,0
-161,-6,0,0,0,0,0,0,0,0,0,-1,1063,1030,0,0
-154,-6,0,0,0,0,0,0,0,0,0,-1,1070,1030,0,0
-147,-6,0,0,0,0,0,0,0,0,0,-1,1077,1030,0,0
-140,-6,0,0,0,0,0,0,0,0,0,-1,1084,1030,0,0
-133,-6,0,0,0,0,0,0,0,0,0,-1,1091,1030,0,0
-126,-6,0,0,0,0,0,0,0,0,0,-1,1098,1030,0,0
-119,-6,0,0,0,0,0,0,0,0,0,-1,1105,1030,0,0
-112,-6,0,0,0,0,0,0,0,0,0,-1,1112,1030,0,0
-105,-6,0,0,0,0,0,0,0,0,0,-1,1119,1030,0,0
-98,-6,0,0,0,0,0,0,0,0,0,-1,1126,1030,0,0
-91,-6,0,0,0,0,0,0,0,0,0,-1,1133,1030,0,0
-84,-6,0,0,0,0,0,0,0,0,0,-1,1140,1030,0,0
-77,-6,0,0,0,0,0,0,0,0,0,-1,1147,1030,0,0
-70,-6,0,0,0,0,0,0,0,0,0,-1,1154,1030,0,0
-63,-6,0,0,0,0,0,0,0,0,0,-1,1161,1030,0,0
-56,-6,0,0,0,0,0,0,0,0,0,-1,1168,1030,0,0
-49,-6,0,0,0,0,0,0,0,0,0,-1,1175,1030,0,0
-42,-6,0,0,0,0,0,0,0,0,0,-1,1182,1030,0,0
-35,-6,0,0,0,0,0,0,0,0,0,-1,1189,1030,0,0
-28,-6,0,0,0,0,0,0,0,0,0,-1,1196,1030,0,0
-21,-6,0,0,0,0,0,0,0,0,0,-1,1203,1030,0,0
-14,-6,0,0,0,0,0,0,0,0,0,-1,1210,1030,0,0
-7,-6,0,0,0,0,0,0,0,0,0,-1,1217,1030,0,0
0,-6,0,0,0,0,0,0,0,0,0,-1,1224,1030,0,0
7,-6,0,0,0,0,0,0,0,0,0,-1,1231,1030,0,0
14,-6,0,0,0,0,0,0,0,0,0,-1,1238,1030,0,0
21,-6,0,0,0,0,0,0,0,0,0,-1,1245,1030,0,0
28,-6,0,0,0,0,0,0,0,0,0,-1,1252,1030,0,0
35,-6,0,0,0,0,0,0,0,0,0,-1,1259,1030,0,0
42,-6,0,0,0,0,0,0,0,0,0,-1,1266,1030,0,0
49,-6,0,0,0,0,0,0,0,0,0,-1,1273,1030,0,0
56,-6,0,0,0,0,0,0,0,0,0,-1,1280,1030,0,0
63,-6,0,0,0,0,0,0,0,0,0,-1,1287,1030,0,0
70,-6,0,0,0,0,0,0,0,0,0,-1,1294,1030,0,0
77,-6,0,0,0,0,0,0,0,0,0,-1,1301,1030,0,0
84,-6,0,0,0,0,0,0,0,0,0,-1,1308,1030,0,0
91,-6,0,0,0,0,0,0,0,0,0,-1,1315,1030,0,0
98,-6,0,0,0,0,0,0,0,0,0,-1,1322,1030,0,0
105,-6,0,0,0,0,0,0,0,0,0,-1,1329,1030,0,0
112,-6,0,0,0,0,0,0,0,0,0,-1,1336,1030,0,0
119,-6,0,0,0,0,0,0,0,0,0,-1,1343,1030,0,0
126,-6,0,0,0,0,0,0,0,0,0,-1,1350,1030,0,0
133,-6,0,0,0,0,0,0,0,0,0,-1,1357,1030,0,0
140,-6,0,0,0,0,0,0,0,0,0,-1,1364,1030,0,0
147,-6,0,0,0,0,0,0,0,0,0,-1,1371,1030,0,0
154,-6,0,0,0,0,0,0,0,0,0,-1,1378,1030,0,0
161,-6,0,0,0,0,0,0,0,0,0,-1,1385,1030,0,0
168,-6,0,0,0,0,0,0,0,0,0,-1,1392,1030,0,0
175,-6,0,0,0,0,0,0,0,0,0,-1,1399,1030,0,0
182,-6,0,0,0,0,0,0,0,0,0,-1,1406,1030,0,0
189,-6,0,0,0,0,0,0,0,0,0,-1,1413,1030,0,0
196,-6,0,0,0,0,0,0,0,0,0,-1,1420,1030,0,0
203,-6,0,0,0,0,0,0,0,0,0,-1,1427,1030,0,0
210,-6,0,0,0,0,0,0,0,0,0,-1,1434,1030,0,0
217,-6,0,0,0,0,0,0,0,0,0,-1,1441,1030,0,0
224,-6,0,0,0,0,0,0,0,0,0,-1,1448,1030,0,0
231,-6,0,0,0,0,0,0,0,0,0,-1,1455,1030,0,0
238,-6,0,0,0,0,0,0,0,0,0,-1,1462,1030,0,0
245,-6,0,0,0,0,0,0,0,0,0,-1,1469,1030,0,0
252,-6,0,0,0,0,0,0,0,0,0,-1,1476,1030,0,0
259,-6,0,0,0,0,0,0,0,0,0,-1,1483,1030,0,0
266,-6,0,0,0,0,0,0,0,0,0,-1,1490,1030,0,0
273,-6,0,0,0,0,0,0,0,0,0,-1,1497,1030,0,0
280,-6,0,0,0,0,0,0,0,0,0,-1,1504,1030,0,0
287,-6,0,0,0,0,0,0,0,0,0,-1,1511,1030,0,0
294,-6,0,0,0,0,0,0,0,0,0,-1,1518,1030,0,0
301,-6,0,0,0,0,0,0,0,0,0,-1,1525,1030,0,0
308,-6,0,0,0,0,0,0,0,0,0,-1,1532,1030,0,0
315,-6,0,0,0,0,0,0,0,0,0,-1,1539,1030,0,0
322,-6,0,0,0,0,0,0,0,0,0,-1,1546,1030,0,0
329,-6,0,0,0,0,0,0,0,0,0,-1,1553,1030,0,0
336,-6,0,0,0,0,0,0,0,0,0,-1,1560,1030,0,0
343,-6,0,0,0,0,0,0,0,0,0,-1,1567,1030,0,0
350,-6,0,0,0,0,0,0,0,0,0,-1,1574,1030,0,0
357,-6,0,0,0,0,0,0,0,0,0,-1,1581,1030,0,0
364,-6,0,0,0,0,0,0,0,0,0,-1,1588,1030,0,0
371,-6,0,0,0,0,0,0,0,0,0,-1,1595,1030,0,0
378,-6,0,0,0,0,0,0,0,0,0,-1,1602,1030,0,0
385,-6,0,0,0,0,0,0,0,0,0,-1,1609,1030,0,0
392,-6,0,0,0,0,0,0,0,0,0,-1,1616,1030,0,0
399,-6,0,0,0,0,0,0,0,0,0,-1,1623,1030,0,0
406,-6,0,0,0,0,0,0,0,0,0,-1,1630,1030,0,0
413,-6,0,0,0,0,0,0,0,0,0,-1,1637,1030,0,0
420,-6,0,0,0,0,0,0,0,0,0,-1,1644,1030,0,0
427,-6,0,0,0,0,0,0,0,0,0,-1,1651,1030,0,0
434,-6,0,0,0,0,0,0,0,0,0,-1,1658,1030,0,0
441,-6,0,0,0,0,0,0,0,0,0,-1,1665,1030,0,0
448,-6,0,0,0,0,0,0,0,0,0,-1,1672,1030,0,0
455,-6,0,0,0,0,0,0,0,0,0,-1,1679,1030,0,0
462,-6,0,0,0,0,0,0,0,0,0,-1,1686,1030,0,0
469,-6,0,0,0,0,0,0,0,0,0,-1,1693,1030,0,0
476,-6,0,0,0,0,0,0,0,0,0,-1,1700,1030,0,0
483,-6,0,0,0,0,0,0,0,0,0,-1,1707,1030,0,0
490,-6,0,0,0,0,0,0,0,0,0,-1,1714,1030,0,0
497,-6,0,0,0,0,0,0,0,0,0,-1,1721,1030,0,0
504,-6,0,0,0,0,0,0,0,0,0,-1,1728,1030,0,0
511,-6,0,0,0,0,0,0,0,0,0,-1,1735,1030,0,0
518,-6,0,0,0,0,0,0,0,0,0,-1,1742,1030,0,0
525,-6,0,0,0,0,0,0,0,0,0,-1,1749,1030,0,0
532,-6,0,0,0,0,0,0,0,0,0,-1,1756,1030,0,0
539,-6,0,0,0,0,0,0,0,0,0,-1,1763,1030,0,0
546,-6,0,0,0,0,0,0,0,0,0,-1,1770,1030,0,0
553,-6,0,0,0,0,0,0,0,0,0,-1,1777,1030,0,0
560,-6,0,0,0,0,0,0,0,0,0,-1,1784,1030,0,0
567,-6,0,0,0,0,0,0,0,0,0,-1,1791,1030,0,0
574,-6,0,0,0,0,0,0,0,0,0,-1,1798,1030,0,0
581,-6,0,0,0,0,0,0,0,0,0,-1,1805,1030,0,0
588,-6,0,0,0,0,0,0,0,0,0,-1,1812,1030,0,0
595,-6,0,0,0,0,0,0,0,0,0,-1,1819,1030,0,0
602,-6,0,0,0,0,0,0,0,0,0,-1,1826,1030,0,0
609,-6,0,0,0,0,0,0,0,0,0,-1,1833,1030,0,0
616,-6,0,0,0,0,0,0,0,0,0,-1,1840,1030,0,0
623,-6,0,0,0,0,0,0,0,0,0,-1,1847,1030,0,0
630,-6,0,0,0,0,0,0,0,0,0,-1,1854,1030,0,0
637,-6,0,0,0,0,0,0,0,0,0,-1,1861,1030,0,0
644,-6,0,0,0,0,0,0,0,0,0,-1,1868,1030,0,0
651,-6,215.048,8.89771,0,0,0,0,0,0,0,-1,1875,1030,215.048,-8.8977
658,-6,215.004,8.59125,0,0,0,0,0,0,0,-1,1882,1030,215.004,-8.59124
665,-6,215.263,8.1405,0,0,0,0,0,0,0,-1,1889,1030,215.263,-8.14049
672,-6,215.073,8.55072,0,0,0,0,0,0,0,-1,1896,1030,215.073,-8.5507
679,-6,214.834,8.61755,0,0,0,0,0,0,0,-1,1903,1030,214.834,-8.61753
686,-6,214.657,8.60541,0,0,0,0,0,0,0,-1,1910,1030,214.658,-8.60538
693,-6,214.715,8.63739,0,0,0,0,0,0,0,-1,1917,1030,214.715,-8.63738
700,-6,214.841,8.61902,0,0,0,0,0,0,0,-1,1924,1030,214.841,-8.61903
707,-6,214.848,8.39069,0,0,0,0,0,0,0,-1,1931,1030,214.848,-8.39071
714,-6,215.057,7.95343,0,0,0,0,0,0,0,-1,1938,1030,215.057,-7.9534
721,-6,184.064,6.99164,0,0,0,0,0,0,0,-1,1945,1030,184.064,-6.99162
728,-6,53.1713,6.25494,0,0,0,0,0,0,0,-1,1952,1030,53.1713,-6.25495
735,-6,78.4772,7.47345,0,0,0,0,0,0,0,-1,1959,1030,78.4772,-7.47343
742,-6,93.9734,9.68024,0,0,0,0,0,0,0,-1,1966,1030,93.9735,-9.68022
749,-6,210.681,32.5361,0,0,0,0,0,0,0,-1,1973,1030,210.681,-32.5361
756,-6,216.05,33.0776,0,0,0,0,0,0,0,-1,1980,1030,216.05,-33.0776
763,-6,215.954,33.2728,0,0,0,0,0,0,0,-1,1987,1030,215.954,-33.2728
770,-6,215.73,33.5218,-0.0240172,0.0381614,-0.00206232,0.0382297,-0.0240855,-1.53768,0.0362853,0.0259922,1994,1030,215.73,-33.5218
777,-6,215.525,33.7177,-0.0277648,0.0463915,-0.00239672,0.0464689,-0.0278422,-1.53852,0.0433504,0.0305037,2001,1030,215.525,-33.7177
784,-6,215.382,33.9001,0,0,0,0,0,0,0,-1,2008,1030,215.382,-33.9001
791,-6,122.263,16.3963,0,0,0,0,0,0,0,-1,2015,1030,122.263,-16.3963
798,-6,109.146,16.0051,0,0,0,0,0,0,0,-1,2022,1030,109.146,-16.0051
805,-6,108.771,15.1763,0,0,0,0,0,0,0,-1,2029,1030,108.771,-15.1763
812,-6,108.805,14.3323,0,0,0,0,0,0,0,-1,2036,1030,108.805,-14.3324
-700,-13,0,0,0,0,0,0,0,0,0,-1,524,1037,0,0
-693,-13,-88.6181,12.3467,0,0,0,0,0,0,0,-1,531,1037,-88.6181,-12.3467
-686,-13,-90.2635,12.9246,0,0,0,0,0,0,0,-1,538,1037,-90.2636,-12.9246
-679,-13,-91.6175,13.3315,0,0,0,0,0,0,0,-1,545,1037,-91.6175,-13.3315
-672,-13,-92.9723,13.725,0,0,0,0,0,0,0,-1,552,1037,-92.9723,-13.725
-665,-13,-102.499,14.6928,0,0,0,0,0,0,0,-1,559,1037,-102.499,-14.6928
-658,-13,-86.5689,5.10486,0,0,0,0,0,0,0,-1,566,1037,-86.569,-5.10484
-651,-13,-194.564,33.5059,0,0,0,0,0,0,0,-1,573,1037,-194.564,-33.5059
-644,-13,-207.689,33.384,0,0,0,0,0,0,0,-1,580,1037,-207.689,-33.3841
-637,-13,-207.952,33.065,-0.0117819,0.0431263,0.00331336,0.0433255,-0.0119811,1.51074,0.0335971,0.0363258,587,1037,-207.952,-33.065
-630,-13,-208.194,32.7798,-0.00748004,0.0339164,0.00282623,0.0341085,-0.0076721,1.50294,0.0256812,0.0215441,594,1037,-208.194,-32.7798
-623,-13,-208.225,32.6902,-0.00312618,0.0249078,0.00233956,0.0251017,-0.00332008,1.4881,0.0179438,0.0201234,601,1037,-208.225,-32.6903
-616,-13,-208.28,32.5048,0.0012849,0.0160969,0.00186648,0.0163284,0.00105333,1.44736,0.0105521,0.0176728,608,1037,-208.28,-32.5048
-609,-13,-208.29,32.2706,0.0057612,0.00748624,0.00142371,0.00828832,0.00495912,1.05775,0.00481601,0.0213768,615,1037,-208.29,-32.2706
-602,-13,-208.188,32.0865,0.0103132,-0.000915455,0.00103162,0.0104072,-0.00100945,0.090861,0.0072979,0.0161531,622,1037,-208.188,-32.0866
-595,-13,-208.273,31.75,0,0,0,0,0,0,0,-1,629,1037,-208.273,-31.75
-588,-13,-72.2089,0.594238,0,0,0,0,0,0,0,-1,636,1037,-72.2089,-0.594287
-581,-13,-72.2836,0.314087,0,0,0,0,0,0,0,-1,643,1037,-72.2836,-0.314046
-574,-13,-72.244,0.27478,0,0,0,0,0,0,0,-1,650,1037,-72.244,-0.274767
-567,-13,-72.2231,0.455933,0,0,0,0,0,0,0,-1,657,1037,-72.2231,-0.455912
-560,-13,-72.3318,0.672241,0,0,0,0,0,0,0,-1,664,1037,-72.3318,-0.672274
-553,-13,-72.1812,0.473267,0,0,0,0,0,0,0,-1,671,1037,-72.1812,-0.473223
-546,-13,-72.0977,0.129761,0,0,0,0,0,0,0,-1,678,1037,-72.0977,-0.129714
-539,-13,-72.2216,0.659302,0,0,0,0,0,0,0,-1,685,1037,-72.2216,-0.659334
-532,-13,-72.4635,0.773682,0,0,0,0,0,0,0,-1,692,1037,-72.4635,-0.77364
-525,-13,0,0,0,0,0,0,0,0,0,-1,699,1037,0,0
-518,-13,0,0,0,0,0,0,0,0,0,-1,706,1037,0,0
-511,-13,0,0,0,0,0,0,0,0,0,-1,713,1037,0,0
-504,-13,0,0,0,0,0,0,0,0,0,-1,720,1037,0,0
-497,-13,0,0,0,0,0,0,0,0,0,-1,727,1037,0,0
-490,-13,0,0,0,0,0,0,0,0,0,-1,734,1037,0,0
-483,-13,0,0,0,0,0,0,0,0,0,-1,741,1037,0,0
-476,-13,0,0,0,0,0,0,0,0,0,-1,748,1037,0,0
-469,-13,0,0,0,0,0,0,0,0,0,-1,755,1037,0,0
-462,-13,0,0,0,0,0,0,0,0,0,-1,762,1037,0,0
-455,-13,0,0,0,0,0,0,0,0,0,-1,769,1037,0,0
-448,-13,0,0,0,0,0,0,0,0,0,-1,776,1037,0,0
-441,-13,0,0,0,0,0,0,0,0,0,-1,783,1037,0,0
-434,-13,0,0,0,0,0,0,0,0,0,-1,790,1037,0,0
-427,-13,0,0,0,0,0,0,0,0,0,-1,797,1037,0,0
-420,-13,0,0,0,0,0,0,0,0,0,-1,804,1037,0,0
-413,-13,0,0,0,0,0,0,0,0,0,-1,811,1037,0,0
-406,-13,0,0,0,0,0,0,0,0,0,-1,818,1037,0,0
-399,-13,0,0,0,0,0,0,0,0,0,-1,825,1037,0,0
-392,-13,0,0,0,0,0,0,0,0,0,-1,832,1037,0,0
-385,-13,0,0,0,0,0,0,0,0,0,-1,839,1037,0,0
-378,-13,0,0,0,0,0,0,0,0,0,-1,846,1037,0,0
-371,-13,0,0,0,0,0,0,0,0,0,-1,853,1037,0,0
-364,-13,0,0,0,0,0,0,0,0,0,-1,860,1037,0,0
-357,-13,0,0,0,0,0,0,0,0,0,-1,867,1037,0,0
-350,-13,0,0,0,0,0,0,0,0,0,-1,874,1037,0,0
-343,-13,0,0,0,0,0,0,0,0,0,-1,881,1037,0,0
-336,-13,0,0,0,0,0,0,0,0,0,-1,888,1037,0,0
-329,-13,0,0,0,0,0,0,0,0,0,-1,895,1037,0,0
-322,-13,0,0,0,0,0,0,0,0,0,-1,902,1037,0,0
-315,-13,0,0,0,0,0,0,0,0,0,-1,909,1037,0,0
-308,-13,0,0,0,0,0,0,0,0,0,-1,916,1037,0,0
-301,-13,0,0,0,0,0,0,0,0,0,-1,923,1037,0,0
-294,-13,0,0,0,0,0,0,0,0,0,-1,930,1037,0,0
-287,-13,0,0,0,0,0,0,0,0,0,-1,937,1037,0,0
-280,-13,0,0,0,0,0,0,0,0,0,-1,944,1037,0,0
-273,-13,0,0,0,0,0,0,0,0,0,-1,951,1037,0,0
-266,-13,0,0,0,0,0,0,0,0,0,-1,958,1037,0,0
-259,-13,0,0,0,0,0,0,0,0,0,-1,965,1037,0,0
-252,-13,0,0,0,0,0,0,0,0,0,-1,972,1037,0,0
-245,-13,0,0,0,0,0,0,0,0,0,-1,979,1037,0,0
-238,-13,0,0,0,0,0,0,0,0,0,-1,986,1037,0,0
-231,-13,0,0,0,0,0,0,0,0,0,-1,993,1037,0,0
-224,-13,0,0,0,0,0,0,0,0,0,-1,1000,1037,0,0
-217,-13,0,0,0,0,0,0,0,0,0,-1,1007,1037,0,0
-210,-13,0,0,0,0,0,0,0,0,0,-1,1014,1037,0,0
-203,-13,0,0,0,0,0,0,0,0,0,-1,1021,1037,0,0
-196,-13,0,0,0,0,0,0,0,0,0,-1,1028,1037,0,0
-189,-13,0,0,0,0,0,0,0,0,0,-1,1035,1037,0,0
-182,-13,0,0,0,0,0,0,0,0,0,-1,1042,1037,0,0
-175,-13,0,0,0,0,0,0,0,0,0,-1,1049,1037,0,0
-168,-13,0,0,0,0,0,0,0,0,0,-1,1056,1037,0,0
-161,-13,0,0,0,0,0,0,0,0,0,-1,1063,1037,0,0
-154,-13,0,0,0,0,0,0,0,0,0,-1,1070,1037,0,0
-147,-13,0,0,0,0,0,0,0,0,0,-1,1077,1037,0,0
-140,-13,0,0,0,0,0,0,0,0,0,-1,1084,1037,0,0
-133,-13,0,0,0,0,0,0,0,0,0,-1,1091,1037,0,0
-126,-13,0,0,0,0,0,0,0,0,0,-1,1098,1037,0,0
-119,-13,0,0,0,0,0,0,0,0,0,-1,1105,1037,0,0
-112,-13,0,0,0,0,0,0,0,0,0,-1,1112,1037,0,0
-105,-13,0,0,0,0,0,0,0,0,0,-1,1119,1037,0,0
-98,-13,0,0,0,0,0,0,0,0,0,-1,1126,1037,0,0
-91,-13,0,0,0,0,0,0,0,0,0,-1,1133,1037,0,0
-84,-13,0,0,0,0,0,0,0,0,0,-1,1140,1037,0,0
-77,-13,0,0,0,0,0,0,0,0,0,-1,1147,1037,0,0
-70,-13,0,0,0,0,0,0,0,0,0,-1,1154,1037,0,0
-63,-13,0,0,0,0,0,0,0,0,0,-1,1161,1037,0,0
-56,-13,0,0,0,0,0,0,0,0,0,-1,1168,1037,0,0
-49,-13,0,0,0,0,0,0,0,0,0,-1,1175,1037,0,0
-42,-13,0,0,0,0,0,0,0,0,0,-1,1182,1037,0,0
-35,-13,0,0,0,0,0,0,0,0,0,-1,1189,1037,0,0
-28,-13,0,0,0,0,0,0,0,0,0,-1,1196,1037,0,0
-21,-13,0,0,0,0,0,0,0,0,0,-1,1203,1037,0,0
-14,-13,0,0,0,0,0,0,0,0,0,-1,1210,1037,0,0
-7,-13,0,0,0,0,0,0,0,0,0,-1,1217,1037,0,0
0,-13,0,0,0,0,0,0,0,0,0,-1,1224,1037,0,0
7,-13,0,0,0,0,0,0,0,0,0,-1,1231,1037,0,0
14,-13,0,0,0,0,0,0,0,0,0,-1,1238,1037,0,0
21,-13,0,0,0,0,0,0,0,0,0,-1,1245,1037,0,0
28,-13,0,0,0,0,0,0,0,0,0,-1,1252,1037,0,0
35,-13,0,0,0,0,0,0,0,0,0,-1,1259,1037,0,0
42,-13,0,0,0,0,0,0,0,0,0,-1,1266,1037,0,0
49,-13,0,0,0,0,0,0,0,0,0,-1,1273,1037,0,0
56,-13,0,0,0,0,0,0,0,0,0,-1,1280,1037,0,0
63,-13,0,0,0,0,0,0,0,0,0,-1,1287,1037,0,0
70,-13,0,0,0,0,0,0,0,0,0,-1,1294,1037,0,0
77,-13,0,0,0,0,0,0,0,0,0,-1,1301,1037,0,0
84,-13,0,0,0,0,0,0,0,0,0,-1,1308,1037,0,0
91,-13,0,0,0,0,0,0,0,0,0,-1,1315,1037,0,0
98,-13,0,0,0,0,0,0,0,0,0,-1,1322,1037,0,0
105,-13,0,0,0,0,0,0,0,0,0,-1,1329,1037,0,0
112,-13,0,0,0,0,0,0,0,0,0,-1,1336,1037,0,0
119,-13,0,0,0,0,0,0,0,0,0,-1,1343,1037,0,0
126,-13,0,0,0,0,0,0,0,0,0,-1,1350,1037,0,0
133,-13,0,0,0,0,0,0,0,0,0,-1,1357,1037,0,0
140,-13,0,0,0,0,0,0,0,0,0,-1,1364,1037,0,0
147,-13,0,0,0,0,0,0,0,0,0,-1,1371,1037,0,0
154,-13,0,0,0,0,0,0,0,0,0,-1,1378,1037,0,0
161,-13,0,0,0,0,0,0,0,0,0,-1,1385,1037,0,0
168,-13,0,0,0,0,0,0,0,0,0,-1,1392,1037,0,0
175,-13,0,0,0,0,0,0,0,0,0,-1,1399,1037,0,0
182,-13,0,0,0,0,0,0,0,0,0,-1,1406,1037,0,0
189,-13,0,0,0,0,0,0,0,0,0,-1,1413,1037,0,0
196,-13,0,0,0,0,0,0,0,0,0,-1,1420,1037,0,0
203,-13,0,0,0,0,0,0,0,0,0,-1,1427,1037,0,0
210,-13,0,0,0,0,0,0,0,0,0,-1,1434,1037,0,0
217,-13,0,0,0,0,0,0,0,0,0,-1,1441,1037,0,0
224,-13,0,0,0,0,0,0,0,0,0,-1,1448,1037,0,0
231,-13,0,0,0,0,0,0,0,0,0,-1,1455,1037,0,0
238,-13,0,0,0,0,0,0,0,0,0,-1,1462,1037,0,0
245,-13,0,0,0,0,0,0,0,0,0,-1,1469,1037,0,0
252,-13,0,0,0,0,0,0,0,0,0,-1,1476,1037,0,0
259,-13,0,0,0,0,0,0,0,0,0,-1,1483,1037,0,0
266,-13,0,0,0,0,0,0,0,0,0,-1,1490,1037,0,0
273,-13,0,0,0,0,0,0,0,0,0,-1,1497,1037,0,0
280,-13,0,0,0,0,0,0,0,0,0,-1,1504,1037,0,0
287,-13,0,0,0,0,0,0,0,0,0,-1,1511,1037,0,0
294,-13,0,0,0,0,0,0,0,0,0,-1,1518,1037,0,0
301,-13,0,0,0,0,0,0,0,0,0,-1,1525,1037,0,0
308,-13,0,0,0,0,0,0,0,0,0,-1,1532,1037,0,0
315,-13,0,0,0,0,0,0,0,0,0,-1,1539,1037,0,0
322,-13,0,0,0,0,0,0,0,0,0,-1,1546,1037,0,0
329,-13,0,0,0,0,0,0,0,0,0,-1,1553,1037,0,0
336,-13,0,0,0,0,0,0,0,0,0,-1,1560,1037,0,0
343,-13,0,0,0,0,0,0,0,0,0,-1,1567,1037,0,0
350,-13,0,0,0,0,0,0,0,0,0,-1,1574,1037,0,0
357,-13,0,0,0,0,0,0,0,0,0,-1,1581,1037,0,0
364,-13,0,0,0,0,0,0,0,0,0,-1,1588,1037,0,0
371,-13,0,0,0,0,0,0,0,0,0,-1,1595,1037,0,0
378,-13,0,0,0,0,0,0,0,0,0,-1,1602,1037,0,0
385,-13,0,0,0,0,0,0,0,0,0,-1,1609,1037,0,0
392,-13,0,0,0,0,0,0,0,0,0,-1,1616,1037,0,0
399,-13,0,0,0,0,0,0,0,0,0,-1,1623,1037,0,0
406,-13,0,0,0,0,0,0,0,0,0,-1,1630,1037,0,0
413,-13,0,0,0,0,0,0,0,0,0,-1,1637,1037,0,0
420,-13,0,0,0,0,0,0,0,0,0,-1,1644,1037,0,0
427,-13,0,0,0,0,0,0,0,0,0,-1,1651,1037,0,0
434,-13,0,0,0,0,0,0,0,0,0,-1,1658,1037,0,0
441,-13,0,0,0,0,0,0,0,0,0,-1,1665,1037,0,0
448,-13,0,0,0,0,0,0,0,0,0,-1,1672,1037,0,0
455,-13,0,0,0,0,0,0,0,0,0,-1,1679,1037,0,0
462,-13,0,0,0,0,0,0,0,0,0,-1,1686,1037,0,0
469,-13,0,0,0,0,0,0,0,0,0,-1,1693,1037,0,0
476,-13,0,0,0,0,0,0,0,0,0,-1,1700,1037,0,0
483,-13,0,0,0,0,0,0,0,0,0,-1,1707,1037,0,0
490,-13,0,0,0,0,0,0,0,0,0,-1,1714,1037,0,0
497,-13,0,0,0,0,0,0,0,0,0,-1,1721,1037,0,0
504,-13,0,0,0,0,0,0,0,0,0,-1,1728,1037,0,0
511,-13,0,0,0,0,0,0,0,0,0,-1,1735,1037,0,0
518,-13,0,0,0,0,0,0,0,0,0,-1,1742,1037,0,0
525,-13,0,0,0,0,0,0,0,0,0,-1,1749,1037,0,0
532,-13,0,0,0,0,0,0,0,0,0,-1,1756,1037,0,0
539,-13,0,0,0,0,0,0,0,0,0,-1,1763,1037,0,0
546,-13,0,0,0,0,0,0,0,0,0,-1,1770,1037,0,0
553,-13,0,0,0,0,0,0,0,0,0,-1,1777,1037,0,0
560,-13,0,0,0,0,0,0,0,0,0,-1,1784,1037,0,0
567,-13,0,0,0,0,0,0,0,0,0,-1,1791,1037,0,0
574,-13,0,0,0,0,0,0,0,0,0,-1,1798,1037,0,0
581,-13,0,0,0,0,0,0,0,0,0,-1,1805,1037,0,0
588,-13,0,0,0,0,0,0,0,0,0,-1,1812,1037,0,0
595,-13,0,0,0,0,0,0,0,0,0,-1,1819,1037,0,0
602,-13,0,0,0,0,0,0,0,0,0,-1,1826,1037,0,0
609,-13,0,0,0,0,0,0,0,0,0,-1,1833,1037,0,0
616,-13,0,0,0,0,0,0,0,0,0,-1,1840,1037,0,0
623,-13,0,0,0,0,0,0,0,0,0,-1,1847,1037,0,0
630,-13,0,0,0,0,0,0,0,0,0,-1,1854,1037,0,0
637,-13,0,0,0,0,0,0,0,0,0,-1,1861,1037,0,0
644,-13,0,0,0,0,0,0,0,0,0,-1,1868,1037,0,0
651,-13,215.103,8.67554,0,0,0,0,0,0,0,-1,1875,1037,215.103,-8.67557
658,-13,215.028,8.37244,0,0,0,0,0,0,0,-1,1882,1037,215.028,-8.37238
665,-13,215.055,8.34521,0,0,0,0,0,0,0,-1,1889,1037,215.055,-8.34521
672,-13,215.03,8.4939,0,0,0,0,0,0,0,-1,1896,1037,215.03,-8.49393
679,-13,214.793,8.58472,0,0,0,0,0,0,0,-1,1903,1037,214.793,-8.58477
686,-13,214.718,8.56506,0,0,0,0,0,0,0,-1,1910,1037,214.717,-8.56511
693,-13,214.802,8.47107,0,0,0,0,0,0,0,-1,1917,1037,214.801,-8.4711
700,-13,214.826,8.44263,0,0,0,0,0,0,0,-1,1924,1037,214.826,-8.44263
707,-13,214.979,8.33374,0,0,0,0,0,0,0,-1,1931,1037,214.979,-8.33369
714,-13,215.375,7.94971,0,0,0,0,0,0,0,-1,1938,1037,215.375,-7.94969
721,-13,178.453,6.83362,0,0,0,0,0,0,0,-1,1945,1037,178.453,-6.83357
728,-13,78.576,7.60706,0,0,0,0,0,0,0,-1,1952,1037,78.5761,-7.60708
735,-13,216.191,32.3076,0,0,0,0,0,0,0,-1,1959,1037,216.191,-32.3076
742,-13,93.698,9.32483,0,0,0,0,0,0,0,-1,1966,1037,93.6979,-9.32482
749,-13,216.084,32.712,0,0,0,0,0,0,0,-1,1973,1037,216.084,-32.7121
756,-13,216.255,32.9456,-0.0172731,0.0213003,-0.00102556,0.0213276,-0.0173003,-1.54423,0.0223422,0.0284164,1980,1037,216.255,-32.9456
763,-13,216.172,33.1154,-0.0210555,0.0293596,-0.00125029,0.0293906,-0.0210865,-1.54602,0.0292741,0.0361881,1987,1037,216.172,-33.1154
770,-13,216.038,33.2791,-0.0247993,0.0375182,-0.0015068,0.0375546,-0.0248358,-1.54664,0.0362698,0.0318616,1994,1037,216.038,-33.279
777,-13,215.779,33.3882,-0.0284755,0.0457713,-0.00182271,0.045816,-0.0285202,-1.54627,0.0433035,0.0257935,2001,1037,215.779,-33.3882
784,-13,215.606,33.4637,0,0,0,0,0,0,0,-1,2008,1037,215.607,-33.4637
791,-13,209.752,32.8858,0,0,0,0,0,0,0,-1,2015,1037,209.752,-32.8858
798,-13,141.364,21.8746,0,0,0,0,0,0,0,-1,2022,1037,141.364,-21.8746
805,-13,141.104,21.3998,0,0,0,0,0,0,0,-1,2029,1037,141.104,-21.3998
812,-13,118.83,15.0224,0,0,0,0,0,0,0,-1,2036,1037,118.83,-15.0224
-700,-20,-93.2781,-2.50916,0,0,0,0,0,0,0,-1,524,1044,-93.2781,2.50913
-693,-20,-89.4135,12.1685,0,0,0,0,0,0,0,-1,531,1044,-89.4135,-12.1684
-686,-20,-90.3054,12.3282,0,0,0,0,0,0,0,-1,538,1044,-90.3054,-12.3283
-679,-20,-91.2314,12.5063,0,0,0,0,0,0,0,-1,545,1044,-91.2314,-12.5063
-672,-20,-102.373,14.449,0,0,0,0,0,0,0,-1,552,1044,-102.373,-14.449
-665,-20,-183.108,31.8218,0,0,0,0,0,0,0,-1,559,1044,-183.108,-31.8218
-658,-20,-205.981,32.1492,0,0,0,0,0,0,0,-1,566,1044,-205.981,-32.1492
-651,-20,-207.837,33.0488,0,0,0,0,0,0,0,-1,573,1044,-207.837,-33.0488
-644,-20,-208.007,32.8767,-0.0156702,0.0519593,0.00328447,0.0521184,-0.0158293,1.52238,0.0410522,0.0363085,580,1044,-208.007,-32.8767
-637,-20,-208.17,32.593,-0.011634,0.0425954,0.00287025,0.0427469,-0.0117855,1.51806,0.0331326,0.0264208,587,1044,-208.17,-32.593
-630,-20,-208.23,32.6371,-0.00751843,0.033456,0.00245551,0.0336026,-0.00766506,1.51115,0.0253461,0.0201609,594,1044,-208.23,-32.6372
-623,-20,-208.359,32.5721,-0.00332295,0.0245251,0.00204682,0.0246747,-0.00347259,1.49782,0.0177211,0.0187043,601,1044,-208.359,-32.5721
-616,-20,-208.435,32.3832,0.000956795,0.0157933,0.00165436,0.0159755,0.000774563,1.46109,0.0104018,0.0185036,608,1044,-208.435,-32.3833
-609,-20,-208.465,32.2385,0.00532863,0.00725815,0.001292,0.00790585,0.00468093,1.1061,0.00459017,0.0194663,615,1044,-208.465,-32.2385
-602,-20,-208.417,32.1045,0.0098036,-0.00107616,0.000977403,0.00989071,-0.00116327,0.0888884,0.0070138,0.0151947,622,1044,-208.417,-32.1045
-595,-20,-208.443,31.989,0,0,0,0,0,0,0,-1,629,1044,-208.443,-31.989
-588,-20,-72.2241,0.531372,0,0,0,0,0,0,0,-1,636,1044,-72.2241,-0.531387
-581,-20,-72.261,0.247192,0,0,0,0,0,0,0,-1,643,1044,-72.261,-0.247205
-574,-20,-72.2443,0.32019,0,0,0,0,0,0,0,-1,650,1044,-72.2443,-0.320219
-567,-20,-72.0424,0.520142,0,0,0,0,0,0,0,-1,657,1044,-72.0424,-0.520167
-560,-20,-71.8108,0.804077,0,0,0,0,0,0,0,-1,664,1044,-71.8108,-0.804076
-553,-20,-72.0823,0.542358,0,0,0,0,0,0,0,-1,671,1044,-72.0823,-0.542369
-546,-20,-72.0886,0.290649,0,0,0,0,0,0,0,-1,678,1044,-72.0885,-0.290684
-539,-20,-72.2553,0.547974,0,0,0,0,0,0,0,-1,685,1044,-72.2553,-0.547983
-532,-20,-72.5035,0.667969,0,0,0,0,0,0,0,-1,692,1044,-72.5035,-0.667925
-525,-20,0,0,0,0,0,0,0,0,0,-1,699,1044,0,0
-518,-20,0,0,0,0,0,0,0,0,0,-1,706,1044,0,0
-511,-20,0,0,0,0,0,0,0,0,0,-1,713,1044,0,0
-504,-20,0,0,0,0,0,0,0,0,0,-1,720,1044,0,0
-497,-20,0,0,0,0,0,0,0,0,0,-1,727,1044,0,0
-490,-20,0,0,0,0,0,0,0,0,0,-1,734,1044,0,0
-483,-20,0,0,0,0,0,0,0,0,0,-1,741,1044,0,0
-476,-20,0,0,0,0,0,0,0,0,0,-1,748,1044,0,0
-469,-20,0,0,0,0,0,0,0,0,0,-1,755,1044,0,0
-462,-20,0,0,0,0,0,0,0,0,0,-1,762,1044,0,0
-455,-20,0,0,0,0,0,0,0,0,0,-1,769,1044,0,0
-448,-20,0,0,0,0,0,0,0,0,0,-1,776,1044,0,0
-441,-20,0,0,0,0,0,0,0,0,0,-1,783,1044,0,0
-434,-20,0,0,0,0,0,0,0,0,0,-1,790,1044,0,0
-427,-20,0,0,0,0,0,0,0,0,0,-1,797,1044,0,0
-420,-20,0,0,0,0,0,0,0,0,0,-1,804,1044,0,0
-413,-20,0,0,0,0,0,0,0,0,0,-1,811,1044,0,0
-406,-20,0,0,0,0,0,0,0,0,0,-1,818,1044,0,0
-399,-20,0,0,0,0,0,0,0,0,0,-1,825,1044,0,0
-392,-20,0,0,0,0,0,0,0,0,0,-1,832,1044,0,0
-385,-20,0,0,0,0,0,0,0,0,0,-1,839,1044,0,0
-378,-20,0,0,0,0,0,0,0,0,0,-1,846,1044,0,0
-371,-20,0,0,0,0,0,0,0,0,0,-1,853,1044,0,0
-364,-20,0,0,0,0,0,0,0,0,0,-1,860,1044,0,0
-357,-20,0,0,0,0,0,0,0,0,0,-1,867,1044,0,0
-350,-20,0,0,0,0,0,0,0,0,0,-1,874,1044,0,0
-343,-20,0,0,0,0,0,0,0,0,0,-1,881,1044,0,0
-336,-20,0,0,0,0,0,0,0,0,0,-1,888,1044,0,0
-329,-20,0,0,0,0,0,0,0,0,0,-1,895,1044,0,0
-322,-20,0,0,0,0,0,0,0,0,0,-1,902,1044,0,0
-315,-20,0,0,0,0,0,0,0,0,0,-1,909,1044,0,0
-308,-20,0,0,0,0,0,0,0,0,0,-1,916,1044,0,0
-301,-20,0,0,0,0,0,0,0,0,0,-1,923,1044,0,0
-294,-20,0,0,0,0,0,0,0,0,0,-1,930,1044,0,0
-287,-20,0,0,0,0,0,0,0,0,0,-1,937,1044,0,0
-280,-20,0,0,0,0,0,0,0,0,0,-1,944,1044,0,0
-273,-20,0,0,0,0,0,0,0,0,0,-1,951,1044,0,0
-266,-20,0,0,0,0,0,0,0,0,0,-1,958,1044,0,0
-259,-20,0,0,0,0,0,0,0,0,0,-1,965,1044,0,0
-252,-20,0,0,0,0,0,0,0,0,0,-1,972,1044,0,0
-245,-20,0,0,0,0,0,0,0,0,0,-1,979,1044,0,0
-238,-20,0,0,0,0,0,0,0,0,0,-1,986,1044,0,0
-231,-20,0,0,0,0,0,0,0,0,0,-1,993,1044,0,0
-224,-20,0,0,0,0,0,0,0,0,0,-1,1000,1044,0,0
-217,-20,0,0,0,0,0,0,0,0,0,-1,1007,1044,0,0
-210,-20,0,0,0,0,0,0,0,0,0,-1,1014,1044,0,0
-203,-20,0,0,0,0,0,0,0,0,0,-1,1021,1044,0,0
-196,-20,0,0,0,0,0,0,0,0,0,-1,1028,1044,0,0
-189,-20,0,0,0,0,0,0,0,0,0,-1,1035,1044,0,0
-182,-20,0,0,0,0,0,0,0,0,0,-1,1042,1044,0,0
-175,-20,0,0,0,0,0,0,0,0,0,-1,1049,1044,0,0
-168,-20,0,0,0,0,0,0,0,0,0,-1,1056,1044,0,0
-161,-20,0,0,0,0,0,0,0,0,0,-1,1063,1044,0,0
-154,-20,0,0,0,0,0,0,0,0,0,-1,1070,1044,0,0
-147,-20,0,0,0,0,0,0,0,0,0,-1,1077,1044,0,0
-140,-20,0,0,0,0,0,0,0,0,0,-1,1084,1044,0,0
-133,-20,0,0,0,0,0,0,0,0,0,-1,1091,1044,0,0
-126,-20,0,0,0,0,0,0,0,0,0,-1,1098,1044,0,0
-119,-20,0,0,0,0,0,0,0,0,0,-1,1105,1044,0,0
-112,-20,0,0,0,0,0,0,0,0,0,-1,1112,1044,0,0
-105,-20,0,0,0,0,0,0,0,0,0,-1,1119,1044,0,0
-98,-20,0,0,0,0,0,0,0,0,0,-1,1126,1044,0,0
-91,-20,0,0,0,0,0,0,0,0,0,-1,1133,1044,0,0
-84,-20,0,0,0,0,0,0,0,0,0,-1,1140,1044,0,0
-77,-20,0,0,0,0,0,0,0,0,0,-1,1147,1044,0,0
-70,-20,0,0,0,0,0,0,0,0,0,-1,1154,1044,0,0
-63,-20,0,0,0,0,0,0,0,0,0,-1,1161,1044,0,0
-56,-20,0,0,0,0,0,0,0,0,0,-1,1168,1044,0,0
-49,-20,0,0,0,0,0,0,0,0,0,-1,1175,1044,0,0
-42,-20,0,0,0,0,0,0,0,0,0,-1,1182,1044,0,0
-35,-20,0,0,0,0,0,0,0,0,0,-1,1189,1044,0,0
-28,-20,0,0,0,0,0,0,0,0,0,-1,1196,1044,0,0
-21,-20,0,0,0,0,0,0,0,0,0,-1,1203,1044,0,0
-14,-20,0,0,0,0,0,0,0,0,0,-1,1210,1044,0,0
-7,-20,0,0,0,0,0,0,0,0,0,-1,1217,1044,0,0
0,-20,0,0,0,0,0,0,0,0,0,-1,1224,1044,0,0
7,-20,0,0,0,0,0,0,0,0,0,-1,1231,1044,0,0
14,-20,0,0,0,0,0,0,0,0,0,-1,1238,1044,0,0
21,-20,0,0,0,0,0,0,0,0,0,-1,1245,1044,0,0
28,-20,0,0,0,0,0,0,0,0,0,-1,1252,1044,0,0
35,-20,0,0,0,0,0,0,0,0,0,-1,1259,1044,0,0
42,-20,0,0,0,0,0,0,0,0,0,-1,1266,1044,0,0
49,-20,0,0,0,0,0,0,0,0,0,-1,1273,1044,0,0
56,-20,0,0,0,0,0,0,0,0,0,-1,1280,1044,0,0
63,-20,0,0,0,0,0,0,0,0,0,-1,1287,1044,0,0
70,-20,0,0,0,0,0,0,0,0,0,-1,1294,1044,0,0
77,-20,0,0,0,0,0,0,0,0,0,-1,1301,1044,0,0
84,-20,0,0,0,0,0,0,0,0,0,-1,1308,1044,0,0
91,-20,0,0,0,0,0,0,0,0,0,-1,1315,1044,0,0
98,-20,0,0,0,0,0,0,0,0,0,-1,1322,1044,0,0
105,-20,0,0,0,0,0,0,0,0,0,-1,1329,1044,0,0
112,-20,0,0,0,0,0,0,0,0,0,-1,1336,1044,0,0
119,-20,0,0,0,0,0,0,0,0,0,-1,1343,1044,0,0
126,-20,0,0,0,0,0,0,0,0,0,-1,1350,1044,0,0
133,-20,0,0,0,0,0,0,0,0,0,-1,1357,1044,0,0
140,-20,0,0,0,0,0,0,0,0,0,-1,1364,1044,0,0
147,-20,0,0,0,0,0,0,0,0,0,-1,1371,1044,0,0
154,-20,0,0,0,0,0,0,0,0,0,-1,1378,1044,0,0
161,-20,0,0,0,0,0,0,0,0,0,-1,1385,1044,0,0
168,-20,0,0,0,0,0,0,0,0,0,-1,1392,1044,0,0
175,-20,0,0,0,0,0,0,0,0,0,-1,1399,1044,0,0
182,-20,0,0,0,0,0,0,0,0,0,-1,1406,1044,0,0
189,-20,0,0,0,0,0,0,0,0,0,-1,1413,1044,0,0
196,-20,0,0,0,0,0,0,0,0,0,-1,1420,1044,0,0
203,-20,0,0,0,0,0,0,0,0,0,-1,1427,1044,0,0
210,-20,0,0,0,0,0,0,0,0,0,-1,1434,1044,0,0
217,-20,0,0,0,0,0,0,0,0,0,-1,1441,1044,0,0
224,-20,0,0,0,0,0,0,0,0,0,-1,1448,1044,0,0
231,-20,0,0,0,0,0,0,0,0,0,-1,1455,1044,0,0
238,-20,0,0,0,0,0,0,0,0,0,-1,1462,1044,0,0
245,-20,0,0,0,0,0,0,0,0,0,-1,1469,1044,0,0
252,-20,0,0,0,0,0,0,0,0,0,-1,1476,1044,0,0
259,-20,0,0,0,0,0,0,0,0,0,-1,1483,1044,0,0
266,-20,0,0,0,0,0,0,0,0,0,-1,1490,1044,0,0
273,-20,0,0,0,0,0,0,0,0,0,-1,1497,1044,0,0
280,-20,0,0,0,0,0,0,0,0,0,-1,1504,1044,0,0
287,-20,0,0,0,0,0,0,0,0,0,-1,1511,1044,0,0
294,-20,0,0,0,0,0,0,0,0,0,-1,1518,1044,0,0
301,-20,0,0,0,0,0,0,0,0,0,-1,1525,1044,0,0
308,-20,0,0,0,0,0,0,0,0,0,-1,1532,1044,0,0
315,-20,0,0,0,0,0,0,0,0,0,-1,1539,1044,0,0
322,-20,0,0,0,0,0,0,0,0,0,-1,1546,1044,0,0
329,-20,0,0,0,0,0,0,0,0,0,-1,1553,1044,0,0
336,-20,0,0,0,0,0,0,0,0,0,-1,1560,1044,0,0
343,-20,0,0,0,0,0,0,0,0,0,-1,1567,1044,0,0
350,-20,0,0,0,0,0,0,0,0,0,-1,1574,1044,0,0
357,-20,0,0,0,0,0,0,0,0,0,-1,1581,1044,0,0
364,-20,0,0,0,0,0,0,0,0,0,-1,1588,1044,0,0
371,-20,0,0,0,0,0,0,0,0,0,-1,1595,1044,0,0
378,-20,0,0,0,0,0,0,0,0,0,-1,1602,1044,0,0
385,-20,0,0,0,0,0,0,0,0,0,-1,1609,1044,0,0
392,-20,0,0,0,0,0,0,0,0,0,-1,1616,1044,0,0
399,-20,0,0,0,0,0,0,0,0,0,-1,1623,1044,0,0
406,-20,0,0,0,0,0,0,0,0,0,-1,1630,1044,0,0
413,-20,0,0,0,0,0,0,0,0,0,-1,1637,1044,0,0
420,-20,0,0,0,0,0,0,0,0,0,-1,1644,1044,0,0
427,-20,0,0,0,0,0,0,0,0,0,-1,1651,1044,0,0
434,-20,0,0,0,0,0,0,0,0,0,-1,1658,1044,0,0
441,-20,0,0,0,0,0,0,0,0,0,-1,1665,1044,0,0
448,-20,0,0,0,0,0,0,0,0,0,-1,1672,1044,0,0
455,-20,0,0,0,0,0,0,0,0,0,-1,1679,1044,0,0
462,-20,0,0,0,0,0,0,0,0,0,-1,1686,1044,0,0
469,-20,0,0,0,0,0,0,0,0,0,-1,1693,1044,0,0
476,-20,0,0,0,0,0,0,0,0,0,-1,1700,1044,0,0
483,-20,0,0,0,0,0,0,0,0,0,-1,1707,1044,0,0
490,-20,0,0,0,0,0,0,0,0,0,-1,1714,1044,0,0
497,-20,0,0,0,0,0,0,0,0,0,-1,1721,1044,0,0
504,-20,0,0,0,0,0,0,0,0,0,-1,1728,1044,0,0
511,-20,0,0,0,0,0,0,0,0,0,-1,1735,1044,0,0
518,-20,0,0,0,0,0,0,0,0,0,-1,1742,1044,0,0
525,-20,0,0,0,0,0,0,0,0,0,-1,1749,1044,0,0
532,-20,0,0,0,0,0,0,0,0,0,-1,1756,1044,0,0
539,-20,0,0,0,0,0,0,0,0,0,-1,1763,1044,0,0
546,-20,0,0,0,0,0,0,0,0,0,-1,1770,1044,0,0
553,-20,0,0,0,0,0,0,0,0,0,-1,1777,1044,0,0
560,-20,0,0,0,0,0,0,0,0,0,-1,1784,1044,0,0
567,-20,0,0,0,0,0,0,0,0,0,-1,1791,1044,0,0
574,-20,0,0,0,0,0,0,0,0,0,-1,1798,1044,0,0
581,-20,0,0,0,0,0,0,0,0,0,-1,1805,1044,0,0
588,-20,0,0,0,0,0,0,0,0,0,-1,1812,1044,0,0
595,-20,0,0,0,0,0,0,0,0,0,-1,1819,1044,0,0
602,-20,0,0,0,0,0,0,0,0,0,-1,1826,1044,0,0
609,-20,0,0,0,0,0,0,0,0,0,-1,1833,1044,0,0
616,-20,0,0,0,0,0,0,0,0,0,-1,1840,1044,0,0
623,-20,0,0,0,0,0,0,0,0,0,-1,1847,1044,0,0
630,-20,0,0,0,0,0,0,0,0,0,-1,1854,1044,0,0
637,-20,0,0,0,0,0,0,0,0,0,-1,1861,1044,0,0
644,-20,0,0,0,0,0,0,0,0,0,-1,1868,1044,0,0
651,-20,215.019,8.53479,0,0,0,0,0,0,0,-1,1875,1044,215.019,-8.53483
658,-20,214.897,8.52368,0,0,0,0,0,0,0,-1,1882,1044,214.898,-8.52368
665,-20,214.892,8.60413,0,0,0,0,0,0,0,-1,1889,1044,214.892,-8.60411
672,-20,214.862,8.66174,0,0,0,0,0,0,0,-1,1896,1044,214.862,-8.66168
679,-20,214.856,8.55737,0,0,0,0,0,0,0,-1,1903,1044,214.856,-8.55735
686,-20,214.807,8.41333,0,0,0,0,0,0,0,-1,1910,1044,214.807,-8.41339
693,-20,214.893,8.35315,0,0,0,0,0,0,0,-1,1917,1044,214.893,-8.35321
700,-20,214.857,8.40442,0,0,0,0,0,0,0,-1,1924,1044,214.857,-8.40437
707,-20,214.862,8.58289,0,0,0,0,0,0,0,-1,1931,1044,214.862,-8.58286
714,-20,210.085,8.54321,0,0,0,0,0,0,0,-1,1938,1044,210.085,-8.54319
721,-20,178.509,7.30029,0,0,0,0,0,0,0,-1,1945,1044,178.509,-7.30034
728,-20,216.908,32.4188,0,0,0,0,0,0,0,-1,1952,1044,216.908,-32.4188
735,-20,216.646,32.4754,0,0,0,0,0,0,0,-1,1959,1044,216.646,-32.4754
742,-20,216.622,32.571,0,0,0,0,0,0,0,-1,1966,1044,216.622,-32.5711
749,-20,216.452,32.5551,0,0,0,0,0,0,0,-1,1973,1044,216.452,-32.555
756,-20,216.495,32.851,-0.0188447,0.0205762,-0.000671586,0.0205876,-0.0188562,-1.55377,0.0227802,0.0267903,1980,1044,216.495,-32.851
763,-20,216.328,33.0098,-0.0222999,0.0286034,-0.000735264,0.028614,-0.0223105,-1.55636,0.0294763,0.037151,1987,1044,216.328,-33.0099
770,-20,216.193,33.1573,-0.025804,0.0367174,-0.000881179,0.0367298,-0.0258164,-1.55671,0.0362938,0.0318554,1994,1044,216.193,-33.1573
777,-20,215.92,33.1915,-0.0293218,0.0449165,-0.00113883,0.044934,-0.0293393,-1.55546,0.0431956,0.0265233,2001,1044,215.92,-33.1915
784,-20,215.778,33.5118,0,0,0,0,0,0,0,-1,2008,1044,215.777,-33.5118
791,-20,215.687,33.4619,0,0,0,0,0,0,0,-1,2015,1044,215.687,-33.4619
798,-20,209.781,32.6409,0,0,0,0,0,0,0,-1,2022,1044,209.781,-32.6409
805,-20,145.318,17.1595,0,0,0,0,0,0,0,-1,2029,1044,145.318,-17.1595
812,-20,146.059,16.0255,0,0,0,0,0,0,0,-1,2036,1044,146.059,-16.0255
-700,-27,-88.3745,10.9375,0,0,0,0,0,0,0,-1,524,1051,-88.3745,-10.9374
-693,-27,-89.2953,11.3148,0,0,0,0,0,0,0,-1,531,1051,-89.2953,-11.3148
-686,-27,-90.1198,11.5474,0,0,0,0,0,0,0,-1,538,1051,-90.1198,-11.5473
-679,-27,-101.677,13.863,0,0,0,0,0,0,0,-1,545,1051,-101.677,-13.863
-672,-27,-183.888,31.3157,0,0,0,0,0,0,0,-1,552,1051,-183.889,-31.3157
-665,-27,-206.876,31.779,0,0,0,0,0,0,0,-1,559,1051,-206.876,-31.779
-658,-27,-208.079,32.726,0,0,0,0,0,0,0,-1,566,1051,-208.079,-32.726
-651,-27,-208.181,32.6166,-0.0195274,0.0611994,0.00388996,0.0613864,-0.0197145,1.52276,0.0488405,0.0498706,573,1051,-208.181,-32.6166
-644,-27,-208.177,32.4938,-0.0158855,0.0512418,0.00325337,0.0513991,-0.0160428,1.52248,0.0406821,0.0264429,580,1051,-208.177,-32.4938
-637,-27,-208.336,32.3826,-0.0119033,0.0419776,0.00276995,0.0421196,-0.0120453,1.51957,0.0328396,0.0201762,587,1051,-208.336,-32.3827
-630,-27,-208.381,32.4774,-0.00785872,0.0329294,0.00229749,0.0330584,-0.00798772,1.51471,0.0251283,0.0224164,594,1051,-208.381,-32.4774
-623,-27,-208.527,32.4757,-0.00375045,0.0240783,0.00183427,0.0241987,-0.00387084,1.50526,0.0175655,0.0209401,601,1051,-208.527,-32.4757
-616,-27,-208.481,32.3632,0.000426164,0.0154117,0.00138253,0.0155382,0.000299681,1.47956,0.0102603,0.0179639,608,1051,-208.481,-32.3631
-609,-27,-208.498,32.2474,0.00467897,0.00692378,0.000948561,0.00727092,0.00433183,1.21997,0.00422346,0.0176208,615,1051,-208.498,-32.2475
-602,-27,-208.502,32.1508,0.00901883,-0.00138433,0.000542791,0.00904707,-0.00141258,0.0519874,0.00655319,0.0153787,622,1051,-208.502,-32.1508
-595,-27,-208.502,32.0555,0,0,0,0,0,0,0,-1,629,1051,-208.502,-32.0556
-588,-27,-204.825,32.0211,0,0,0,0,0,0,0,-1,636,1051,-204.825,-32.0211
-581,-27,-72.1835,0.374878,0,0,0,0,0,0,0,-1,643,1051,-72.1835,-0.37492
-574,-27,-72.1907,0.398804,0,0,0,0,0,0,0,-1,650,1051,-72.1907,-0.398771
-567,-27,-72.0397,0.301392,0,0,0,0,0,0,0,-1,657,1051,-72.0396,-0.301375
-560,-27,-72.0294,0.408813,0,0,0,0,0,0,0,-1,664,1051,-72.0294,-0.408812
-553,-27,-72.0273,0.499268,0,0,0,0,0,0,0,-1,671,1051,-72.0273,-0.499301
-546,-27,-72.1342,0.19397,0,0,0,0,0,0,0,-1,678,1051,-72.1342,-0.193915
-539,-27,-72.2832,0.279175,0,0,0,0,0,0,0,-1,685,1051,-72.2832,-0.279193
-532,-27,-72.424,0.484375,0,0,0,0,0,0,0,-1,692,1051,-72.424,-0.484377
-525,-27,0,0,0,0,0,0,0,0,0,-1,699,1051,0,0
-518,-27,0,0,0,0,0,0,0,0,0,-1,706,1051,0,0
-511,-27,0,0,0,0,0,0,0,0,0,-1,713,1051,0,0
-504,-27,0,0,0,0,0,0,0,0,0,-1,720,1051,0,0
-497,-27,0,0,0,0,0,0,0,0,0,-1,727,1051,0,0
-490,-27,0,0,0,0,0,0,0,0,0,-1,734,1051,0,0
-483,-27,0,0,0,0,0,0,0,0,0,-1,741,1051,0,0
-476,-27,0,0,0,0,0,0,0,0,0,-1,748,1051,0,0
-469,-27,0,0,0,0,0,0,0,0,0,-1,755,1051,0,0
-462,-27,0,0,0,0,0,0,0,0,0,-1,762,1051,0,0
-455,-27,0,0,0,0,0,0,0,0,0,-1,769,1051,0,0
-448,-27,0,0,0,0,0,0,0,0,0,-1,776,1051,0,0
-441,-27,0,0,0,0,0,0,0,0,0,-1,783,1051,0,0
-434,-27,0,0,0,0,0,0,0,0,0,-1,790,1051,0,0
-427,-27,0,0,0,0,0,0,0,0,0,-1,797,1051,0,0
-420,-27,0,0,0,0,0,0,0,0,0,-1,804,1051,0,0
-413,-27,0,0,0,0,0,0,0,0,0,-1,811,1051,0,0
-406,-27,0,0,0,0,0,0,0,0,0,-1,818,1051,0,0
-399,-27,0,0,0,0,0,0,0,0,0,-1,825,1051,0,0
-392,-27,0,0,0,0,0,0,0,0,0,-1,832,1051,0,0
-385,-27,0,0,0,0,0,0,0,0,0,-1,839,1051,0,0
-378,-27,0,0,0,0,0,0,0,0,0,-1,846,1051,0,0
-371,-27,0,0,0,0,0,0,0,0,0,-1,853,1051,0,0
-364,-27,0,0,0,0,0,0,0,0,0,-1,860,1051,0,0
-357,-27,0,0,0,0,0,0,0,0,0,-1,867,1051,0,0
-350,-27,0,0,0,0,0,0,0,0,0,-1,874,1051,0,0
-343,-27,0,0,0,0,0,0,0,0,0,-1,881,1051,0,0
-336,-27,0,0,0,0,0,0,0,0,0,-1,888,1051,0,0
-329,-27,0,0,0,0,0,0,0,0,0,-1,895,1051,0,0
-322,-27,0,0,0,0,0,0,0,0,0,-1,902,1051,0,0
-315,-27,0,0,0,0,0,0,0,0,0,-1,909,1051,0,0
-308,-27,0,0,0,0,0,0,0,0,0,-1,916,1051,0,0
-301,-27,0,0,0,0,0,0,0,0,0,-1,923,1051,0,0
-294,-27,0,0,0,0,0,0,0,0,0,-1,930,1051,0,0
-287,-27,0,0,0,0,0,0,0,0,0,-1,937,1051,0,0
-280,-27,0,0,0,0,0,0,0,0,0,-1,944,1051,0,0
-273,-27,0,0,0,0,0,0,0,0,0,-1,951,1051,0,0
-266,-27,0,0,0,0,0,0,0,0,0,-1,958,1051,0,0
-259,-27,0,0,0,0,0,0,0,0,0,-1,965,1051,0,0
-252,-27,0,0,0,0,0,0,0,0,0,-1,972,1051,0,0
-245,-27,0,0,0,0,0,0,0,0,0,-1,979,1051,0,0
-238,-27,0,0,0,0,0,0,0,0,0,-1,986,1051,0,0
-231,-27,0,0,0,0,0,0,0,0,0,-1,993,1051,0,0
-224,-27,0,0,0,0,0,0,0,0,0,-1,1000,1051,0,0
-217,-27,0,0,0,0,0,0,0,0,0,-1,1007,1051,0,0
-210,-27,0,0,0,0,0,0,0,0,0,-1,1014,1051,0,0
-203,-27,0,0,0,0,0,0,0,0,0,-1,1021,1051,0,0
-196,-27,0,0,0,0,0,0,0,0,0,-1,1028,1051,0,0
-189,-27,0,0,0,0,0,0,0,0,0,-1,1035,1051,0,0
-182,-27,0,0,0,0,0,0,0,0,0,-1,1042,1051,0,0
-175,-27,0,0,0,0,0,0,0,0,0,-1,1049,1051,0,0
-168,-27,0,0,0,0,0,0,0,0,0,-1,1056,1051,0,0
-161,-27,0,0,0,0,0,0,0,0,0,-1,1063,1051,0,0
-154,-27,0,0,0,0,0,0,0,0,0,-1,1070,1051,0,0
-147,-27,0,0,0,0,0,0,0,0,0,-1,1077,1051,0,0
-140,-27,0,0,0,0,0,0,0,0,0,-1,1084,1051,0,0
-133,-27,0,0,0,0,0,0,0,0,0,-1,1091,1051,0,0
-126,-27,0,0,0,0,0,0,0,0,0,-1,1098,1051,0,0
-119,-27,0,0,0,0,0,0,0,0,0,-1,1105,1051,0,0
-112,-27,0,0,0,0,0,0,0,0,0,-1,1112,1051,0,0
-105,-27,0,0,0,0,0,0,0,0,0,-1,1119,1051,0,0
-98,-27,0,0,0,0,0,0,0,0,0,-1,1126,1051,0,0
-91,-27,0,0,0,0,0,0,0,0,0,-1,1133,1051,0,0
-84,-27,0,0,0,0,0,0,0,0,0,-1,1140,1051,0,0
-77,-27,0,0,0,0,0,0,0,0,0,-1,1147,1051,0,0
-70,-27,0,0,0,0,0,0,0,0,0,-1,1154,1051,0,0
-63,-27,0,0,0,0,0,0,0,0,0,-1,1161,1051,0,0
-56,-27,0,0,0,0,0,0,0,0,0,-1,1168,1051,0,0
-49,-27,0,0,0,0,0,0,0,0,0,-1,1175,1051,0,0
-42,-27,0,0,0,0,0,0,0,0,0,-1,1182,1051,0,0
-35,-27,0,0,0,0,0,0,0,0,0,-1,1189,1051,0,0
-28,-27,0,0,0,0,0,0,0,0,0,-1,1196,1051,0,0
-21,-27,0,0,0,0,0,0,0,0,0,-1,1203,1051,0,0
-14,-27,0,0,0,0,0,0,0,0,0,-1,1210,1051,0,0
-7,-27,0,0,0,0,0,0,0,0,0,-1,1217,1051,0,0
0,-27,0,0,0,0,0,0,0,0,0,-1,1224,1051,0,0
7,-27,0,0,0,0,0,0,0,0,0,-1,1231,1051,0,0
14,-27,0,0,0,0,0,0,0,0,0,-1,1238,1051,0,0
21,-27,0,0,0,0,0,0,0,0,0,-1,1245,1051,0,0
28,-27,0,0,0,0,0,0,0,0,0,-1,1252,1051,0,0
35,-27,0,0,0,0,0,0,0,0,0,-1,1259,1051,0,0
42,-27,0,0,0,0,0,0,0,0,0,-1,1266,1051,0,0
49,-27,0,0,0,0,0,0,0,0,0,-1,1273,1051,0,0
56,-27,0,0,0,0,0,0,0,0,0,-1,1280,1051,0,0
63,-27,0,0,0,0,0,0,0,0,0,-1,1287,1051,0,0
70,-27,0,0,0,0,0,0,0,0,0,-1,1294,1051,0,0
77,-27,0,0,0,0,0,0,0,0,0,-1,1301,1051,0,0
84,-27,0,0,0,0,0,0,0,0,0,-1,1308,1051,0,0
91,-27,0,0,0,0,0,0,0,0,0,-1,1315,1051,0,0
98,-27,0,0,0,0,0,0,0,0,0,-1,1322,1051,0,0
105,-27,0,0,0,0,0,0,0,0,0,-1,1329,1051,0,0
112,-27,0,0,0,0,0,0,0,0,0,-1,1336,1051,0,0
119,-27,0,0,0,0,0,0,0,0,0,-1,1343,1051,0,0
126,-27,0,0,0,0,0,0,0,0,0,-1,1350,1051,0,0
133,-27,0,0,0,0,0,0,0,0,0,-1,1357,1051,0,0
140,-27,0,0,0,0,0,0,0,0,0,-1,1364,1051,0,0
147,-27,0,0,0,0,0,0,0,0,0,-1,1371,1051,0,0
154,-27,0,0,0,0,0,0,0,0,0,-1,1378,1051,0,0
161,-27,0,0,0,0,0,0,0,0,0,-1,1385,1051,0,0
168,-27,0,0,0,0,0,0,0,0,0,-1,1392,1051,0,0
175,-27,0,0,0,0,0,0,0,0,0,-1,1399,1051,0,0
182,-27,0,0,0,0,0,0,0,0,0,-1,1406,1051,0,0
189,-27,0,0,0,0,0,0,0,0,0,-1,1413,1051,0,0
196,-27,0,0,0,0,0,0,0,0,0,-1,1420,1051,0,0
203,-27,0,0,0,0,0,0,0,0,0,-1,1427,1051,0,0
210,-27,0,0,0,0,0,0,0,0,0,-1,1434,1051,0,0
217,-27,0,0,0,0,0,0,0,0,0,-1,1441,1051,0,0
224,-27,0,0,0,0,0,0,0,0,0,-1,1448,1051,0,0
231,-27,0,0,0,0,0,0,0,0,0,-1,1455,1051,0,0
238,-27,0,0,0,0,0,0,0,0,0,-1,1462,1051,0,0
245,-27,0,0,0,0,0,0,0,0,0,-1,1469,1051,0,0
252,-27,0,0,0,0,0,0,0,0,0,-1,1476,1051,0,0
259,-27,0,0,0,0,0,0,0,0,0,-1,1483,1051,0,0
266,-27,0,0,0,0,0,0,0,0,0,-1,1490,1051,0,0
273,-27,0,0,0,0,0,0,0,0,0,-1,1497,1051,0,0
280,-27,0,0,0,0,0,0,0,0,0,-1,1504,1051,0,0
287,-27,0,0,0,0,0,0,0,0,0,-1,1511,1051,0,0
294,-27,0,0,0,0,0,0,0,0,0,-1,1518,1051,0,0
301,-27,0,0,0,0,0,0,0,0,0,-1,1525,1051,0,0
308,-27,0,0,0,0,0,0,0,0,0,-1,1532,1051,0,0
315,-27,0,0,0,0,0,0,0,0,0,-1,1539,1051,0,0
322,-27,0,0,0,0,0,0,0,0,0,-1,1546,1051,0,0
329,-27,0,0,0,0,0,0,0,0,0,-1,1553,1051,0,0
336,-27,0,0,0,0,0,0,0,0,0,-1,1560,1051,0,0
343,-27,0,0,0,0,0,0,0,0,0,-1,1567,1051,0,0
350,-27,0,0,0,0,0,0,0,0,0,-1,1574,1051,0,0
357,-27,0,0,0,0,0,0,0,0,0,-1,1581,1051,0,0
364,-27,0,0,0,0,0,0,0,0,0,-1,1588,1051,0,0
371,-27,0,0,0,0,0,0,0,0,0,-1,1595,1051,0,0
378,-27,0,0,0,0,0,0,0,0,0,-1,1602,1051,0,0
385,-27,0,0,0,0,0,0,0,0,0,-1,1609,1051,0,0
392,-27,0,0,0,0,0,0,0,0,0,-1,1616,1051,0,0
399,-27,0,0,0,0,0,0,0,0,0,-1,1623,1051,0,0
406,-27,0,0,0,0,0,0,0,0,0,-1,1630,1051,0,0
413,-27,0,0,0,0,0,0,0,0,0,-1,1637,1051,0,0
420,-27,0,0,0,0,0,0,0,0,0,-1,1644,1051,0,0
427,-27,0,0,0,0,0,0,0,0,0,-1,1651,1051,0,0
434,-27,0,0,0,0,0,0,0,0,0,-1,1658,1051,0,0
441,-27,0,0,0,0,0,0,0,0,0,-1,1665,1051,0,0
448,-27,0,0,0,0,0,0,0,0,0,-1,1672,1051,0,0
455,-27,0,0,0,0,0,0,0,0,0,-1,1679,1051,0,0
462,-27,0,0,0,0,0,0,0,0,0,-1,1686,1051,0,0
469,-27,0,0,0,0,0,0,0,0,0,-1,1693,1051,0,0
476,-27,0,0,0,0,0,0,0,0,0,-1,1700,1051,0,0
483,-27,0,0,0,0,0,0,0,0,0,-1,1707,1051,0,0
490,-27,0,0,0,0,0,0,0,0,0,-1,1714,1051,0,0
497,-27,0,0,0,0,0,0,0,0,0,-1,1721,1051,0,0
504,-27,0,0,0,0,0,0,0,0,0,-1,1728,1051,0,0
511,-27,0,0,0,0,0,0,0,0,0,-1,1735,1051,0,0
518,-27,0,0,0,0,0,0,0,0,0,-1,1742,1051,0,0
525,-27,0,0,0,0,0,0,0,0,0,-1,1749,1051,0,0
532,-27,0,0,0,0,0,0,0,0,0,-1,1756,1051,0,0
539,-27,0,0,0,0,0,0,0,0,0,-1,1763,1051,0,0
546,-27,0,0,0,0,0,0,0,0,0,-1,1770,1051,0,0
553,-27,0,0,0,0,0,0,0,0,0,-1,1777,1051,0,0
560,-27,0,0,0,0,0,0,0,0,0,-1,1784,1051,0,0
567,-27,0,0,0,0,0,0,0,0,0,-1,1791,1051,0,0
574,-27,0,0,0,0,0,0,0,0,0,-1,1798,1051,0,0
581,-27,0,0,0,0,0,0,0,0,0,-1,1805,1051,0,0
588,-27,0,0,0,0,0,0,0,0,0,-1,1812,1051,0,0
595,-27,0,0,0,0,0,0,0,0,0,-1,1819,1051,0,0
602,-27,0,0,0,0,0,0,0,0,0,-1,1826,1051,0,0
609,-27,0,0,0,0,0,0,0,0,0,-1,1833,1051,0,0
616,-27,0,0,0,0,0,0,0,0,0,-1,1840,1051,0,0
623,-27,0,0,0,0,0,0,0,0,0,-1,1847,1051,0,0
630,-27,0,0,0,0,0,0,0,0,0,-1,1854,1051,0,0
637,-27,0,0,0,0,0,0,0,0,0,-1,1861,1051,0,0
644,-27,0,0,0,0,0,0,0,0,0,-1,1868,1051,0,0
651,-27,215.018,8.62952,0,0,0,0,0,0,0,-1,1875,1051,215.018,-8.62955
658,-27,214.926,8.79407,0,0,0,0,0,0,0,-1,1882,1051,214.926,-8.79406
665,-27,214.835,8.83789,0,0,0,0,0,0,0,-1,1889,1051,214.836,-8.83794
672,-27,214.706,8.75977,0,0,0,0,0,0,0,-1,1896,1051,214.706,-8.7598
679,-27,214.742,8.57507,0,0,0,0,0,0,0,-1,1903,1051,214.742,-8.5751
686,-27,214.818,8.51392,0,0,0,0,0,0,0,-1,1910,1051,214.818,-8.51387
693,-27,214.914,8.4613,0,0,0,0,0,0,0,-1,1917,1051,214.914,-8.46133
700,-27,214.845,8.44641,0,0,0,0,0,0,0,-1,1924,1051,214.846,-8.44647
707,-27,214.729,8.52954,0,0,0,0,0,0,0,-1,1931,1051,214.729,-8.52959
714,-27,215.297,8.22485,0,0,0,0,0,0,0,-1,1938,1051,215.297,-8.22488
721,-27,202.48,8.61157,0,0,0,0,0,0,0,-1,1945,1051,202.48,-8.61152
728,-27,217.191,32.4895,0,0,0,0,0,0,0,-1,1952,1051,217.191,-32.4895
735,-27,216.831,32.547,-0.0123499,-0.00348219,-0.000558091,-0.0034472,-0.0123849,-1.50819,0.0073809,0.027071,1959,1051,216.831,-32.547
742,-27,216.666,32.5857,-0.0146916,0.00424306,-0.000325418,0.00424865,-0.0146971,-1.55362,0.0114795,0.023185,1966,1051,216.666,-32.5857
749,-27,216.678,32.5392,-0.0172803,0.0120999,-0.00011958,0.0121004,-0.0172808,-1.56673,0.0170509,0.0209176,1973,1051,216.678,-32.5392
756,-27,216.558,32.6316,-0.0200634,0.0200764,3.76542e-05,0.0200765,-0.0200634,1.56986,0.0231748,0.0222491,1980,1051,216.558,-32.6316
763,-27,216.369,32.7333,-0.0229872,0.0281623,0.000120976,0.0281626,-0.0229875,1.56843,0.0295819,0.0208229,1987,1051,216.369,-32.7333
770,-27,216.247,32.7988,-0.0259969,0.0363494,0.000101116,0.0363496,-0.0259971,1.56917,0.0361609,0.0207872,1994,1051,216.247,-32.7988
777,-27,216.048,33.0424,-0.0290366,0.0446321,-5.54572e-05,0.0446321,-0.0290367,-1.57004,0.0428492,0.0299456,2001,1051,216.048,-33.0424
784,-27,216.017,33.4123,0,0,0,0,0,0,0,-1,2008,1051,216.017,-33.4123
791,-27,216.216,33.711,0,0,0,0,0,0,0,-1,2015,1051,216.216,-33.711
798,-27,148.048,15.4778,0,0,0,0,0,0,0,-1,2022,1051,148.048,-15.4778
805,-27,149.532,12.9192,0,0,0,0,0,0,0,-1,2029,1051,149.532,-12.9192
812,-27,122.348,7.61328,0,0,0,0,0,0,0,-1,2036,1051,122.348,-7.61324
-700,-34,-88.641,10.5408,0,0,0,0,0,0,0,-1,524,1058,-88.641,-10.5407
-693,-34,-89.3244,10.6776,0,0,0,0,0,0,0,-1,531,1058,-89.3244,-10.6776
-686,-34,-89.9775,10.8049,0,0,0,0,0,0,0,-1,538,1058,-89.9775,-10.805
-679,-34,-90.4781,10.9393,0,0,0,0,0,0,0,-1,545,1058,-90.4781,-10.9394
-672,-34,-102.759,13.5153,0,0,0,0,0,0,0,-1,552,1058,-102.759,-13.5153
-665,-34,-184.19,31.0149,0,0,0,0,0,0,0,-1,559,1058,-184.19,-31.0149
-658,-34,-207.808,32.0903,0,0,0,0,0,0,0,-1,566,1058,-207.808,-32.0903
-651,-34,-208.162,32.1339,-0.0199464,0.0605419,0.00380683,0.0607216,-0.020126,1.52364,0.0485993,0.0455275,573,1058,-208.162,-32.1339
-644,-34,-208.428,32.1749,-0.0162817,0.0507154,0.00317202,0.0508653,-0.0164315,1.52359,0.0405137,0.0216609,580,1058,-208.428,-32.175
-637,-34,-208.474,32.2034,-0.0123169,0.0415237,0.00266027,0.0416548,-0.0124481,1.52155,0.0327183,0.0217929,587,1058,-208.474,-32.2033
-630,-34,-208.437,32.2268,-0.00829748,0.0325335,0.00217474,0.032649,-0.00841299,1.51773,0.0250459,0.0210072,594,1058,-208.437,-32.2268
-623,-34,-208.488,32.2375,-0.00422081,0.0237242,0.00170582,0.0238279,-0.00432455,1.51005,0.0175058,0.0189387,601,1058,-208.488,-32.2376
-616,-34,-208.449,32.3427,-8.16092e-05,0.0150804,0.00124794,0.0151825,-0.000183635,1.48922,0.0101834,0.0282868,608,1058,-208.449,-32.3426
-609,-34,-208.477,32.2638,0.0041281,0.00659286,0.000799632,0.00682956,0.00389141,1.28301,0.00395583,0.023608,615,1058,-208.477,-32.2638
-602,-34,-208.547,32.1724,0.00841888,-0.00174175,0.000363588,0.00843187,-0.00175474,0.0357231,0.00628831,0.0200454,622,1058,-208.547,-32.1724
-595,-34,-208.701,32.1927,0,0,0,0,0,0,0,-1,629,1058,-208.701,-32.1927
-588,-34,-208.773,32.2499,0,0,0,0,0,0,0,-1,636,1058,-208.773,-32.2499
-581,-34,-72.1434,0.436035,0,0,0,0,0,0,0,-1,643,1058,-72.1434,-0.436062
-574,-34,-72.0847,0.55542,0,0,0,0,0,0,0,-1,650,1058,-72.0847,-0.555444
-567,-34,-72.0326,0.461548,0,0,0,0,0,0,0,-1,657,1058,-72.0326,-0.461549
-560,-34,-71.9365,0.331909,0,0,0,0,0,0,0,-1,664,1058,-71.9365,-0.331852
-553,-34,-72.034,0.347778,0,0,0,0,0,0,0,-1,671,1058,-72.034,-0.347718
-546,-34,-72.1083,0.333984,0,0,0,0,0,0,0,-1,678,1058,-72.1083,-0.334014
-539,-34,-72.1866,0.363037,0,0,0,0,0,0,0,-1,685,1058,-72.1866,-0.363007
-532,-34,-72.3097,0.421509,0,0,0,0,0,0,0,-1,692,1058,-72.3097,-0.421536
-525,-34,0,0,0,0,0,0,0,0,0,-1,699,1058,0,0
-518,-34,0,0,0,0,0,0,0,0,0,-1,706,1058,0,0
-511,-34,0,0,0,0,0,0,0,0,0,-1,713,1058,0,0
-504,-34,0,0,0,0,0,0,0,0,0,-1,720,1058,0,0
-497,-34,0,0,0,0,0,0,0,0,0,-1,727,1058,0,0
-490,-34,0,0,0,0,0,0,0,0,0,-1,734,1058,0,0
-483,-34,0,0,0,0,0,0,0,0,0,-1,741,1058,0,0
-476,-34,0,0,0,0,0,0,0,0,0,-1,748,1058,0,0
-469,-34,0,0,0,0,0,0,0,0,0,-1,755,1058,0,0
-462,-34,0,0,0,0,0,0,0,0,0,-1,762,1058,0,0
-455,-34,0,0,0,0,0,0,0,0,0,-1,769,1058,0,0
-448,-34,0,0,0,0,0,0,0,0,0,-1,776,1058,0,0
-441,-34,0,0,0,0,0,0,0,0,0,-1,783,1058,0,0
-434,-34,0,0,0,0,0,0,0,0,0,-1,790,1058,0,0
-427,-34,0,0,0,0,0,0,0,0,0,-1,797,1058,0,0
-420,-34,0,0,0,0,0,0,0,0,0,-1,804,1058,0,0
-413,-34,0,0,0,0,0,0,0,0,0,-1,811,1058,0,0
-406,-34,0,0,0,0,0,0,0,0,0,-1,818,1058,0,0
-399,-34,0,0,0,0,0,0,0,0,0,-1,825,1058,0,0
-392,-34,0,0,0,0,0,0,0,0,0,-1,832,1058,0,0
-385,-34,0,0,0,0,0,0,0,0,0,-1,839,1058,0,0
-378,-34,0,0,0,0,0,0,0,0,0,-1,846,1058,0,0
-371,-34,0,0,0,0,0,0,0,0,0,-1,853,1058,0,0
-364,-34,0,0,0,0,0,0,0,0,0,-1,860,1058,0,0
-357,-34,0,0,0,0,0,0,0,0,0,-1,867,1058,0,0
-350,-34,0,0,0,0,0,0,0,0,0,-1,874,1058,0,0
-343,-34,0,0,0,0,0,0,0,0,0,-1,881,1058,0,0
-336,-34,0,0,0,0,0,0,0,0,0,-1,888,1058,0,0
-329,-34,0,0,0,0,0,0,0,0,0,-1,895,1058,0,0
-322,-34,0,0,0,0,0,0,0,0,0,-1,902,1058,0,0
-315,-34,0,0,0,0,0,0,0,0,0,-1,909,1058,0,0
-308,-34,0,0,0,0,0,0,0,0,0,-1,916,1058,0,0
-301,-34,0,0,0,0,0,0,0,0,0,-1,923,1058,0,0
-294,-34,0,0,0,0,0,0,0,0,0,-1,930,1058,0,0
-287,-34,0,0,0,0,0,0,0,0,0,-1,937,1058,0,0
-280,-34,0,0,0,0,0,0,0,0,0,-1,944,1058,0,0
-273,-34,0,0,0,0,0,0,0,0,0,-1,951,1058,0,0
-266,-34,0,0,0,0,0,0,0,0,0,-1,958,1058,0,0
-259,-34,0,0,0,0,0,0,0,0,0,-1,965,1058,0,0
-252,-34,0,0,0,0,0,0,0,0,0,-1,972,1058,0,0
-245,-34,0,0,0,0,0,0,0,0,0,-1,979,1058,0,0
-238,-34,0,0,0,0,0,0,0,0,0,-1,986,1058,0,0
-231,-34,0,0,0,0,0,0,0,0,0,-1,993,1058,0,0
-224,-34,0,0,0,0,0,0,0,0,0,-1,1000,1058,0,0
-217,-34,0,0,0,0,0,0,0,0,0,-1,1007,1058,0,0
-210,-34,0,0,0,0,0,0,0,0,0,-1,1014,1058,0,0
-203,-34,0,0,0,0,0,0,0,0,0,-1,1021,1058,0,0
-196,-34,0,0,0,0,0,0,0,0,0,-1,1028,1058,0,0
-189,-34,0,0,0,0,0,0,0,0,0,-1,1035,1058,0,0
-182,-34,0,0,0,0,0,0,0,0,0,-1,1042,1058,0,0
-175,-34,0,0,0,0,0,0,0,0,0,-1,1049,1058,0,0
-168,-34,0,0,0,0,0,0,0,0,0,-1,1056,1058,0,0
-161,-34,0,0,0,0,0,0,0,0,0,-1,1063,1058,0,0
-154,-34,0,0,0,0,0,0,0,0,0,-1,1070,1058,0,0
-147,-34,0,0,0,0,0,0,0,0,0,-1,1077,1058,0,0
-140,-34,0,0,0,0,0,0,0,0,0,-1,1084,1058,0,0
-133,-34,0,0,0,0,0,0,0,0,0,-1,1091,1058,0,0
-126,-34,0,0,0,0,0,0,0,0,0,-1,1098,1058,0,0
-119,-34,0,0,0,0,0,0,0,0,0,-1,1105,1058,0,0
-112,-34,0,0,0,0,0,0,0,0,0,-1,1112,1058,0,0
-105,-34,0,0,0,0,0,0,0,0,0,-1,1119,1058,0,0
-98,-34,0,0,0,0,0,0,0,0,0,-1,1126,1058,0,0
-91,-34,0,0,0,0,0,0,0,0,0,-1,1133,1058,0,0
-84,-34,0,0,0,0,0,0,0,0,0,-1,1140,1058,0,0
-77,-34,0,0,0,0,0,0,0,0,0,-1,1147,1058,0,0
-70,-34,0,0,0,0,0,0,0,0,0,-1,1154,1058,0,0
-63,-34,0,0,0,0,0,0,0,0,0,-1,1161,1058,0,0
-56,-34,0,0,0,0,0,0,0,0,0,-1,1168,1058,0,0
-49,-34,0,0,0,0,0,0,0,0,0,-1,1175,1058,0,0
-42,-34,0,0,0,0,0,0,0,0,0,-1,1182,1058,0,0
-35,-34,0,0,0,0,0,0,0,0,0,-1,1189,1058,0,0
-28,-34,0,0,0,0,0,0,0,0,0,-1,1196,1058,0,0
-21,-34,0,0,0,0,0,0,0,0,0,-1,1203,1058,0,0
-14,-34,0,0,0,0,0,0,0,0,0,-1,1210,1058,0,0
-7,-34,0,0,0,0,0,0,0,0,0,-1,1217,1058,0,0
0,-34,0,0,0,0,0,0,0,0,0,-1,1224,1058,0,0
7,-34,0,0,0,0,0,0,0,0,0,-1,1231,1058,0,0
14,-34,0,0,0,0,0,0,0,0,0,-1,1238,1058,0,0
21,-34,0,0,0,0,0,0,0,0,0,-1,1245,1058,0,0
28,-34,0,0,0,0,0,0,0,0,0,-1,1252,1058,0,0
35,-34,0,0,0,0,0,0,0,0,0,-1,1259,1058,0,0
42,-34,0,0,0,0,0,0,0,0,0,-1,1266,1058,0,0
49,-34,0,0,0,0,0,0,0,0,0,-1,1273,1058,0,0
56,-34,0,0,0,0,0,0,0,0,0,-1,1280,1058,0,0
63,-34,0,0,0,0,0,0,0,0,0,-1,1287,1058,0,0
70,-34,0,0,0,0,0,0,0,0,0,-1,1294,1058,0,0
77,-34,0,0,0,0,0,0,0,0,0,-1,1301,1058,0,0
84,-34,0,0,0,0,0,0,0,0,0,-1,1308,1058,0,0
91,-34,0,0,0,0,0,0,0,0,0,-1,1315,1058,0,0
98,-34,0,0,0,0,0,0,0,0,0,-1,1322,1058,0,0
105,-34,0,0,0,0,0,0,0,0,0,-1,1329,1058,0,0
112,-34,0,0,0,0,0,0,0,0,0,-1,1336,1058,0,0
119,-34,0,0,0,0,0,0,0,0,0,-1,1343,1058,0,0
126,-34,0,0,0,0,0,0,0,0,0,-1,1350,1058,0,0
133,-34,0,0,0,0,0,0,0,0,0,-1,1357,1058,0,0
140,-34,0,0,0,0,0,0,0,0,0,-1,1364,1058,0,0
147,-34,0,0,0,0,0,0,0,0,0,-1,1371,1058,0,0
154,-34,0,0,0,0,0,0,0,0,0,-1,1378,1058,0,0
161,-34,0,0,0,0,0,0,0,0,0,-1,1385,1058,0,0
168,-34,0,0,0,0,0,0,0,0,0,-1,1392,1058,0,0
175,-34,0,0,0,0,0,0,0,0,0,-1,1399,1058,0,0
182,-34,0,0,0,0,0,0,0,0,0,-1,1406,1058,0,0
189,-34,0,0,0,0,0,0,0,0,0,-1,1413,1058,0,0
196,-34,0,0,0,0,0,0,0,0,0,-1,1420,1058,0,0
203,-34,0,0,0,0,0,0,0,0,0,-1,1427,1058,0,0
210,-34,0,0,0,0,0,0,0,0,0,-1,1434,1058,0,0
217,-34,0,0,0,0,0,0,0,0,0,-1,1441,1058,0,0
224,-34,0,0,0,0,0,0,0,0,0,-1,1448,1058,0,0
231,-34,0,0,0,0,0,0,0,0,0,-1,1455,1058,0,0
238,-34,0,0,0,0,0,0,0,0,0,-1,1462,1058,0,0
245,-34,0,0,0,0,0,0,0,0,0,-1,1469,1058,0,0
252,-34,0,0,0,0,0,0,0,0,0,-1,1476,1058,0,0
259,-34,0,0,0,0,0,0,0,0,0,-1,1483,1058,0,0
266,-34,0,0,0,0,0,0,0,0,0,-1,1490,1058,0,0
273,-34,0,0,0,0,0,0,0,0,0,-1,1497,1058,0,0
280,-34,0,0,0,0,0,0,0,0,0,-1,1504,1058,0,0
287,-34,0,0,0,0,0,0,0,0,0,-1,1511,1058,0,0
294,-34,0,0,0,0,0,0,0,0,0,-1,1518,1058,0,0
301,-34,0,0,0,0,0,0,0,0,0,-1,1525,1058,0,0
308,-34,0,0,0,0,0,0,0,0,0,-1,1532,1058,0,0
315,-34,0,0,0,0,0,0,0,0,0,-1,1539,1058,0,0
322,-34,0,0,0,0,0,0,0,0,0,-1,1546,1058,0,0
329,-34,0,0,0,0,0,0,0,0,0,-1,1553,1058,0,0
336,-34,0,0,0,0,0,0,0,0,0,-1,1560,1058,0,0
343,-34,0,0,0,0,0,0,0,0,0,-1,1567,1058,0,0
350,-34,0,0,0,0,0,0,0,0,0,-1,1574,1058,0,0
357,-34,0,0,0,0,0,0,0,0,0,-1,1581,1058,0,0
364,-34,0,0,0,0,0,0,0,0,0,-1,1588,1058,0,0
371,-34,0,0,0,0,0,0,0,0,0,-1,1595,1058,0,0
378,-34,0,0,0,0,0,0,0,0,0,-1,1602,1058,0,0
385,-34,0,0,0,0,0,0,0,0,0,-1,1609,1058,0,0
392,-34,0,0,0,0,0,0,0,0,0,-1,1616,1058,0,0
399,-34,0,0,0,0,0,0,0,0,0,-1,1623,1058,0,0
406,-34,0,0,0,0,0,0,0,0,0,-1,1630,1058,0,0
413,-34,0,0,0,0,0,0,0,0,0,-1,1637,1058,0,0
420,-34,0,0,0,0,0,0,0,0,0,-1,1644,1058,0,0
427,-34,0,0,0,0,0,0,0,0,0,-1,1651,1058,0,0
434,-34,0,0,0,0,0,0,0,0,0,-1,1658,1058,0,0
441,-34,0,0,0,0,0,0,0,0,0,-1,1665,1058,0,0
448,-34,0,0,0,0,0,0,0,0,0,-1,1672,1058,0,0
455,-34,0,0,0,0,0,0,0,0,0,-1,1679,1058,0,0
462,-34,0,0,0,0,0,0,0,0,0,-1,1686,1058,0,0
469,-34,0,0,0,0,0,0,0,0,0,-1,1693,1058,0,0
476,-34,0,0,0,0,0,0,0,0,0,-1,1700,1058,0,0
483,-34,0,0,0,0,0,0,0,0,0,-1,1707,1058,0,0
490,-34,0,0,0,0,0,0,0,0,0,-1,1714,1058,0,0
497,-34,0,0,0,0,0,0,0,0,0,-1,1721,1058,0,0
504,-34,0,0,0,0,0,0,0,0,0,-1,1728,1058,0,0
511,-34,0,0,0,0,0,0,0,0,0,-1,1735,1058,0,0
518,-34,0,0,0,0,0,0,0,0,0,-1,1742,1058,0,0
525,-34,0,0,0,0,0,0,0,0,0,-1,1749,1058,0,0
532,-34,0,0,0,0,0,0,0,0,0,-1,1756,1058,0,0
539,-34,0,0,0,0,0,0,0,0,0,-1,1763,1058,0,0
546,-34,0,0,0,0,0,0,0,0,0,-1,1770,1058,0,0
553,-34,0,0,0,0,0,0,0,0,0,-1,1777,1058,0,0
560,-34,0,0,0,0,0,0,0,0,0,-1,1784,1058,0,0
567,-34,0,0,0,0,0,0,0,0,0,-1,1791,1058,0,0
574,-34,0,0,0,0,0,0,0,0,0,-1,1798,1058,0,0
581,-34,0,0,0,0,0,0,0,0,0,-1,1805,1058,0,0
588,-34,0,0,0,0,0,0,0,0,0,-1,1812,1058,0,0
595,-34,0,0,0,0,0,0,0,0,0,-1,1819,1058,0,0
602,-34,0,0,0,0,0,0,0,0,0,-1,1826,1058,0,0
609,-34,0,0,0,0,0,0,0,0,0,-1,1833,1058,0,0
616,-34,0,0,0,0,0,0,0,0,0,-1,1840,1058,0,0
623,-34,0,0,0,0,0,0,0,0,0,-1,1847,1058,0,0
630,-34,0,0,0,0,0,0,0,0,0,-1,1854,1058,0,0
637,-34,0,0,0,0,0,0,0,0,0,-1,1861,1058,0,0
644,-34,0,0,0,0,0,0,0,0,0,-1,1868,1058,0,0
651,-34,215.044,8.63721,0,0,0,0,0,0,0,-1,1875,1058,215.044,-8.63727
658,-34,215.009,8.58765,0,0,0,0,0,0,0,-1,1882,1058,215.009,-8.58764
665,-34,214.893,8.48108,0,0,0,0,0,0,0,-1,1889,1058,214.893,-8.4811
672,-34,214.666,8.69043,0,0,0,0,0,0,0,-1,1896,1058,214.666,-8.69048
679,-34,214.61,8.44556,0,0,0,0,0,0,0,-1,1903,1058,214.61,-8.44557
686,-34,214.724,8.47021,0,0,0,0,0,0,0,-1,1910,1058,214.724,-8.47023
693,-34,214.836,8.57959,0,0,0,0,0,0,0,-1,1917,1058,214.836,-8.57958
700,-34,214.716,8.44861,0,0,0,0,0,0,0,-1,1924,1058,214.716,-8.44864
707,-34,214.753,8.56018,0,0,0,0,0,0,0,-1,1931,1058,214.753,-8.56019
714,-34,214.821,8.62,0,0,0,0,0,0,0,-1,1938,1058,214.82,-8.62004
721,-34,214.751,8.63123,0,0,0,0,0,0,0,-1,1945,1058,214.751,-8.63118
728,-34,216.948,32.3481,0,0,0,0,0,0,0,-1,1952,1058,216.948,-32.3482
735,-34,216.877,32.5007,-0.0130931,-0.00440709,0.000382704,-0.00439026,-0.0131099,1.52685,0.00770535,0.0289076,1959,1058,216.877,-32.5008
742,-34,216.753,32.4825,-0.0152801,0.00347849,0.000575636,0.00349614,-0.0152978,1.54015,0.0115418,0.0212471,1966,1058,216.753,-32.4826
749,-34,216.691,32.4882,-0.0177349,0.0115134,0.000739187,0.0115321,-0.0177535,1.54554,0.0170348,0.0222165,1973,1058,216.691,-32.4881
756,-34,216.608,32.4847,-0.0203957,0.0196768,0.000855816,0.019695,-0.020414,1.54945,0.0231582,0.0185052,1980,1058,216.608,-32.4848
763,-34,216.427,32.5281,-0.0231988,0.0279502,0.00090348,0.0279662,-0.0232147,1.55314,0.0295917,0.0177137,1987,1058,216.427,-32.5281
770,-34,216.215,32.5974,-0.0260779,0.0363185,0.000855079,0.0363302,-0.0260897,1.5571,0.0361994,0.0224968,1994,1058,216.215,-32.5974
777,-34,215.981,32.7377,-0.0289642,0.0447696,0.000678072,0.0447758,-0.0289704,1.5616,0.0429021,0.0291978,2001,1058,215.981,-32.7377
784,-34,215.782,32.7938,0,0,0,0,0,0,0,-1,2008,1058,215.782,-32.7939
791,-34,159.261,24.1865,0,0,0,0,0,0,0,-1,2015,1058,159.261,-24.1865
798,-34,121.588,12.5922,0,0,0,0,0,0,0,-1,2022,1058,121.588,-12.5921
805,-34,125.464,13.6713,0,0,0,0,0,0,0,-1,2029,1058,125.464,-13.6713
812,-34,120.777,11.1539,0,0,0,0,0,0,0,-1,2036,1058,120.777,-11.154
-700,-41,-89.518,-1.90662,0,0,0,0,0,0,0,-1,524,1065,-89.5181,1.90658
-693,-41,-89.1671,9.85364,0,0,0,0,0,0,0,-1,531,1065,-89.167,-9.85359
-686,-41,-89.8336,9.96179,0,0,0,0,0,0,0,-1,538,1065,-89.8336,-9.96181
-679,-41,-89.9981,10.0525,0,0,0,0,0,0,0,-1,545,1065,-89.9981,-10.0525
-672,-41,-87.9003,9.43982,0,0,0,0,0,0,0,-1,552,1065,-87.9003,-9.43984
-665,-41,-100.841,12.2817,0,0,0,0,0,0,0,-1,559,1065,-100.841,-12.2818
-658,-41,-208.201,31.3574,0,0,0,0,0,0,0,-1,566,1065,-208.201,-31.3574
-651,-41,-208.299,31.6671,-0.0200645,0.0600187,0.00370016,0.0601893,-0.0202351,1.52472,0.0483052,0.0389227,573,1065,-208.299,-31.6672
-644,-41,-208.4,31.9192,-0.0164809,0.0503567,0.00306159,0.0504967,-0.0166209,1.52512,0.0403621,0.0234286,580,1065,-208.4,-31.9192
-637,-41,-208.499,31.9924,-0.0126205,0.0412921,0.00255641,0.041413,-0.0127414,1.52352,0.0326942,0.0260769,587,1065,-208.499,-31.9924
-630,-41,-208.524,32.0167,-0.00871003,0.0324076,0.00208182,0.0325127,-0.00881516,1.52034,0.0251342,0.0197063,594,1065,-208.524,-32.0167
-623,-41,-208.498,32.0613,-0.00474704,0.0236832,0.00162398,0.0237756,-0.00483951,1.51392,0.0176857,0.0184936,601,1065,-208.498,-32.0613
-616,-41,-208.579,32.1876,-0.000726635,0.0151035,0.00117324,0.01519,-0.000813116,1.49722,0.0104083,0.0268128,608,1065,-208.579,-32.1877
-609,-41,-208.513,32.2108,0.00335847,0.00665842,0.000724025,0.00681028,0.0032066,1.36404,0.00393415,0.0275569,615,1065,-208.513,-32.2108
-602,-41,-208.551,32.2224,0.00751781,-0.00165732,0.000274762,0.00752603,-0.00166554,0.0299106,0.00565489,0.0180309,622,1065,-208.551,-32.2224
-595,-41,-208.658,32.214,0,0,0,0,0,0,0,-1,629,1065,-208.658,-32.214
-588,-41,-205.154,31.9601,0,0,0,0,0,0,0,-1,636,1065,-205.154,-31.96
-581,-41,-72.1207,0.19458,0,0,0,0,0,0,0,-1,643,1065,-72.1207,-0.194633
-574,-41,-72.1909,0.302856,0,0,0,0,0,0,0,-1,650,1065,-72.1909,-0.302903
-567,-41,-72.1972,0.48999,0,0,0,0,0,0,0,-1,657,1065,-72.1972,-0.490016
-560,-41,-72.1502,0.519897,0,0,0,0,0,0,0,-1,664,1065,-72.1502,-0.519944
-553,-41,-72.0277,0.413452,0,0,0,0,0,0,0,-1,671,1065,-72.0277,-0.413458
-546,-41,-72.038,0.488159,0,0,0,0,0,0,0,-1,678,1065,-72.038,-0.488107
-539,-41,-72.1121,0.595093,0,0,0,0,0,0,0,-1,685,1065,-72.112,-0.595043
-532,-41,-72.0419,0.654419,0,0,0,0,0,0,0,-1,692,1065,-72.0419,-0.654407
-525,-41,0,0,0,0,0,0,0,0,0,-1,699,1065,0,0
-518,-41,0,0,0,0,0,0,0,0,0,-1,706,1065,0,0
-511,-41,0,0,0,0,0,0,0,0,0,-1,713,1065,0,0
-504,-41,0,0,0,0,0,0,0,0,0,-1,720,1065,0,0
-497,-41,0,0,0,0,0,0,0,0,0,-1,727,1065,0,0
-490,-41,0,0,0,0,0,0,0,0,0,-1,734,1065,0,0
-483,-41,0,0,0,0,0,0,0,0,0,-1,741,1065,0,0
-476,-41,0,0,0,0,0,0,0,0,0,-1,748,1065,0,0
-469,-41,0,0,0,0,0,0,0,0,0,-1,755,1065,0,0
-462,-41,0,0,0,0,0,0,0,0,0,-1,762,1065,0,0
-455,-41,0,0,0,0,0,0,0,0,0,-1,769,1065,0,0
-448,-41,0,0,0,0,0,0,0,0,0,-1,776,1065,0,0
-441,-41,0,0,0,0,0,0,0,0,0,-1,783,1065,0,0
-434,-41,0,0,0,0,0,0,0,0,0,-1,790,1065,0,0
-427,-41,0,0,0,0,0,0,0,0,0,-1,797,1065,0,0
-420,-41,0,0,0,0,0,0,0,0,0,-1,804,1065,0,0
-413,-41,0,0,0,0,0,0,0,0,0,-1,811,1065,0,0
-406,-41,0,0,0,0,0,0,0,0,0,-1,818,1065,0,0
-399,-41,0,0,0,0,0,0,0,0,0,-1,825,1065,0,0
-392,-41,0,0,0,0,0,0,0,0,0,-1,832,1065,0,0
-385,-41,0,0,0,0,0,0,0,0,0,-1,839,1065,0,0
-378,-41,0,0,0,0,0,0,0,0,0,-1,846,1065,0,0
-371,-41,0,0,0,0,0,0,0,0,0,-1,853,1065,0,0
-364,-41,0,0,0,0,0,0,0,0,0,-1,860,1065,0,0
-357,-41,0,0,0,0,0,0,0,0,0,-1,867,1065,0,0
-350,-41,0,0,0,0,0,0,0,0,0,-1,874,1065,0,0
-343,-41,0,0,0,0,0,0,0,0,0,-1,881,1065,0,0
-336,-41,0,0,0,0,0,0,0,0,0,-1,888,1065,0,0
-329,-41,0,0,0,0,0,0,0,0,0,-1,895,1065,0,0
-322,-41,0,0,0,0,0,0,0,0,0,-1,902,1065,0,0
-315,-41,0,0,0,0,0,0,0,0,0,-1,909,1065,0,0
-308,-41,0,0,0,0,0,0,0,0,0,-1,916,1065,0,0
-301,-41,0,0,0,0,0,0,0,0,0,-1,923,1065,0,0
-294,-41,0,0,0,0,0,0,0,0,0,-1,930,1065,0,0
-287,-41,0,0,0,0,0,0,0,0,0,-1,937,1065,0,0
-280,-41,0,0,0,0,0,0,0,0,0,-1,944,1065,0,0
-273,-41,0,0,0,0,0,0,0,0,0,-1,951,1065,0,0
-266,-41,0,0,0,0,0,0,0,0,0,-1,958,1065,0,0
-259,-41,0,0,0,0,0,0,0,0,0,-1,965,1065,0,0
-252,-41,0,0,0,0,0,0,0,0,0,-1,972,1065,0,0
-245,-41,0,0,0,0,0,0,0,0,0,-1,979,1065,0,0
-238,-41,0,0,0,0,0,0,0,0,0,-1,986,1065,0,0
-231,-41,0,0,0,0,0,0,0,0,0,-1,993,1065,0,0
-224,-41,0,0,0,0,0,0,0,0,0,-1,1000,1065,0,0
-217,-41,0,0,0,0,0,0,0,0,0,-1,1007,1065,0,0
-210,-41,0,0,0,0,0,0,0,0,0,-1,1014,1065,0,0
-203,-41,0,0,0,0,0,0,0,0,0,-1,1021,1065,0,0
-196,-41,0,0,0,0,0,0,0,0,0,-1,1028,1065,0,0
-189,-41,0,0,0,0,0,0,0,0,0,-1,1035,1065,0,0
-182,-41,0,0,0,0,0,0,0,0,0,-1,1042,1065,0,0
-175,-41,0,0,0,0,0,0,0,0,0,-1,1049,1065,0,0
-168,-41,0,0,0,0,0,0,0,0,0,-1,1056,1065,0,0
-161,-41,0,0,0,0,0,0,0,0,0,-1,1063,1065,0,0
-154,-41,0,0,0,0,0,0,0,0,0,-1,1070,1065,0,0
-147,-41,0,0,0,0,0,0,0,0,0,-1,1077,1065,0,0
-140,-41,0,0,0,0,0,0,0,0,0,-1,1084,1065,0,0
-133,-41,0,0,0,0,0,0,0,0,0,-1,1091,1065,0,0
-126,-41,0,0,0,0,0,0,0,0,0,-1,1098,1065,0,0
-119,-41,0,0,0,0,0,0,0,0,0,-1,1105,1065,0,0
-112,-41,0,0,0,0,0,0,0,0,0,-1,1112,1065,0,0
-105,-41,0,0,0,0,0,0,0,0,0,-1,1119,1065,0,0
-98,-41,0,0,0,0,0,0,0,0,0,-1,1126,1065,0,0
-91,-41,0,0,0,0,0,0,0,0,0,-1,1133,1065,0,0
-84,-41,0,0,0,0,0,0,0,0,0,-1,1140,1065,0,0
-77,-41,0,0,0,0,0,0,0,0,0,-1,1147,1065,0,0
-70,-41,0,0,0,0,0,0,0,0,0,-1,1154,1065,0,0
-63,-41,0,0,0,0,0,0,0,0,0,-1,1161,1065,0,0
-56,-41,0,0,0,0,0,0,0,0,0,-1,1168,1065,0,0
-49,-41,0,0,0,0,0,0,0,0,0,-1,1175,1065,0,0
-42,-41,0,0,0,0,0,0,0,0,0,-1,1182,1065,0,0
-35,-41,0,0,0,0,0,0,0,0,0,-1,1189,1065,0,0
-28,-41,0,0,0,0,0,0,0,0,0,-1,1196,1065,0,0
-21,-41,0,0,0,0,0,0,0,0,0,-1,1203,1065,0,0
-14,-41,0,0,0,0,0,0,0,0,0,-1,1210,1065,0,0
-7,-41,0,0,0,0,0,0,0,0,0,-1,1217,1065,0,0
0,-41,0,0,0,0,0,0,0,0,0,-1,1224,1065,0,0
7,-41,0,0,0,0,0,0,0,0,0,-1,1231,1065,0,0
14,-41,0,0,0,0,0,0,0,0,0,-1,1238,1065,0,0
21,-41,0,0,0,0,0,0,0,0,0,-1,1245,1065,0,0
28,-41,0,0,0,0,0,0,0,0,0,-1,1252,1065,0,0
35,-41,0,0,0,0,0,0,0,0,0,-1,1259,1065,0,0
42,-41,0,0,0,0,0,0,0,0,0,-1,1266,1065,0,0
49,-41,0,0,0,0,0,0,0,0,0,-1,1273,1065,0,0
56,-41,0,0,0,0,0,0,0,0,0,-1,1280,1065,0,0
63,-41,0,0,0,0,0,0,0,0,0,-1,1287,1065,0,0
70,-41,0,0,0,0,0,0,0,0,0,-1,1294,1065,0,0
77,-41,0,0,0,0,0,0,0,0,0,-1,1301,1065,0,0
84,-41,0,0,0,0,0,0,0,0,0,-1,1308,1065,0,0
91,-41,0,0,0,0,0,0,0,0,0,-1,1315,1065,0,0
98,-41,0,0,0,0,0,0,0,0,0,-1,1322,1065,0,0
105,-41,0,0,0,0,0,0,0,0,0,-1,1329,1065,0,0
112,-41,0,0,0,0,0,0,0,0,0,-1,1336,1065,0,0
119,-41,0,0,0,0,0,0,0,0,0,-1,1343,1065,0,0
126,-41,0,0,0,0,0,0,0,0,0,-1,1350,1065,0,0
133,-41,0,0,0,0,0,0,0,0,0,-1,1357,1065,0,0
140,-41,0,0,0,0,0,0,0,0,0,-1,1364,1065,0,0
147,-41,0,0,0,0,0,0,0,0,0,-1,1371,1065,0,0
154,-41,0,0,0,0,0,0,0,0,0,-1,1378,1065,0,0
161,-41,0,0,0,0,0,0,0,0,0,-1,1385,1065,0,0
168,-41,0,0,0,0,0,0,0,0,0,-1,1392,1065,0,0
175,-41,0,0,0,0,0,0,0,0,0,-1,1399,1065,0,0
182,-41,0,0,0,0,0,0,0,0,0,-1,1406,1065,0,0
189,-41,0,0,0,0,0,0,0,0,0,-1,1413,1065,0,0
196,-41,0,0,0,0,0,0,0,0,0,-1,1420,1065,0,0
203,-41,0,0,0,0,0,0,0,0,0,-1,1427,1065,0,0
210,-41,0,0,0,0,0,0,0,0,0,-1,1434,1065,0,0
217,-41,0,0,0,0,0,0,0,0,0,-1,1441,1065,0,0
224,-41,0,0,0,0,0,0,0,0,0,-1,1448,1065,0,0
231,-41,0,0,0,0,0,0,0,0,0,-1,1455,1065,0,0
238,-41,0,0,0,0,0,0,0,0,0,-1,1462,1065,0,0
245,-41,0,0,0,0,0,0,0,0,0,-1,1469,1065,0,0
252,-41,0,0,0,0,0,0,0,0,0,-1,1476,1065,0,0
259,-41,0,0,0,0,0,0,0,0,0,-1,1483,1065,0,0
266,-41,0,0,0,0,0,0,0,0,0,-1,1490,1065,0,0
273,-41,0,0,0,0,0,0,0,0,0,-1,1497,1065,0,0
280,-41,0,0,0,0,0,0,0,0,0,-1,1504,1065,0,0
287,-41,0,0,0,0,0,0,0,0,0,-1,1511,1065,0,0
294,-41,0,0,0,0,0,0,0,0,0,-1,1518,1065,0,0
301,-41,0,0,0,0,0,0,0,0,0,-1,1525,1065,0,0
308,-41,0,0,0,0,0,0,0,0,0,-1,1532,1065,0,0
315,-41,0,0,0,0,0,0,0,0,0,-1,1539,1065,0,0
322,-41,0,0,0,0,0,0,0,0,0,-1,1546,1065,0,0
329,-41,0,0,0,0,0,0,0,0,0,-1,1553,1065,0,0
336,-41,0,0,0,0,0,0,0,0,0,-1,1560,1065,0,0
343,-41,0,0,0,0,0,0,0,0,0,-1,1567,1065,0,0
350,-41,0,0,0,0,0,0,0,0,0,-1,1574,1065,0,0
357,-41,0,0,0,0,0,0,0,0,0,-1,1581,1065,0,0
364,-41,0,0,0,0,0,0,0,0,0,-1,1588,1065,0,0
371,-41,0,0,0,0,0,0,0,0,0,-1,1595,1065,0,0
378,-41,0,0,0,0,0,0,0,0,0,-1,1602,1065,0,0
385,-41,0,0,0,0,0,0,0,0,0,-1,1609,1065,0,0
392,-41,0,0,0,0,0,0,0,0,0,-1,1616,1065,0,0
399,-41,0,0,0,0,0,0,0,0,0,-1,1623,1065,0,0
406,-41,0,0,0,0,0,0,0,0,0,-1,1630,1065,0,0
413,-41,0,0,0,0,0,0,0,0,0,-1,1637,1065,0,0
420,-41,0,0,0,0,0,0,0,0,0,-1,1644,1065,0,0
427,-41,0,0,0,0,0,0,0,0,0,-1,1651,1065,0,0
434,-41,0,0,0,0,0,0,0,0,0,-1,1658,1065,0,0
441,-41,0,0,0,0,0,0,0,0,0,-1,1665,1065,0,0
448,-41,0,0,0,0,0,0,0,0,0,-1,1672,1065,0,0
455,-41,0,0,0,0,0,0,0,0,0,-1,1679,1065,0,0
462,-41,0,0,0,0,0,0,0,0,0,-1,1686,1065,0,0
469,-41,0,0,0,0,0,0,0,0,0,-1,1693,1065,0,0
476,-41,0,0,0,0,0,0,0,0,0,-1,1700,1065,0,0
483,-41,0,0,0,0,0,0,0,0,0,-1,1707,1065,0,0
490,-41,0,0,0,0,0,0,0,0,0,-1,1714,1065,0,0
497,-41,0,0,0,0,0,0,0,0,0,-1,1721,1065,0,0
504,-41,0,0,0,0,0,0,0,0,0,-1,1728,1065,0,0
511,-41,0,0,0,0,0,0,0,0,0,-1,1735,1065,0,0
518,-41,0,0,0,0,0,0,0,0,0,-1,1742,1065,0,0
525,-41,0,0,0,0,0,0,0,0,0,-1,1749,1065,0,0
532,-41,0,0,0,0,0,0,0,0,0,-1,1756,1065,0,0
539,-41,0,0,0,0,0,0,0,0,0,-1,1763,1065,0,0
546,-41,0,0,0,0,0,0,0,0,0,-1,1770,1065,0,0
553,-41,0,0,0,0,0,0,0,0,0,-1,1777,1065,0,0
560,-41,0,0,0,0,0,0,0,0,0,-1,1784,1065,0,0
567,-41,0,0,0,0,0,0,0,0,0,-1,1791,1065,0,0
574,-41,0,0,0,0,0,0,0,0,0,-1,1798,1065,0,0
581,-41,0,0,0,0,0,0,0,0,0,-1,1805,1065,0,0
588,-41,0,0,0,0,0,0,0,0,0,-1,1812,1065,0,0
595,-41,0,0,0,0,0,0,0,0,0,-1,1819,1065,0,0
602,-41,0,0,0,0,0,0,0,0,0,-1,1826,1065,0,0
609,-41,0,0,0,0,0,0,0,0,0,-1,1833,1065,0,0
616,-41,0,0,0,0,0,0,0,0,0,-1,1840,1065,0,0
623,-41,0,0,0,0,0,0,0,0,0,-1,1847,1065,0,0
630,-41,0,0,0,0,0,0,0,0,0,-1,1854,1065,0,0
637,-41,0,0,0,0,0,0,0,0,0,-1,1861,1065,0,0
644,-41,0,0,0,0,0,0,0,0,0,-1,1868,1065,0,0
651,-41,214.86,8.5304,0,0,0,0,0,0,0,-1,1875,1065,214.86,-8.53042
658,-41,214.883,8.3772,0,0,0,0,0,0,0,-1,1882,1065,214.883,-8.37719
665,-41,214.872,8.17371,0,0,0,0,0,0,0,-1,1889,1065,214.872,-8.1737
672,-41,214.824,8.12634,0,0,0,0,0,0,0,-1,1896,1065,214.824,-8.12638
679,-41,214.708,8.28296,0,0,0,0,0,0,0,-1,1903,1065,214.708,-8.28291
686,-41,214.878,8.28345,0,0,0,0,0,0,0,-1,1910,1065,214.878,-8.28345
693,-41,214.802,8.54041,0,0,0,0,0,0,0,-1,1917,1065,214.802,-8.54037
700,-41,214.72,8.58167,0,0,0,0,0,0,0,-1,1924,1065,214.72,-8.58166
707,-41,214.751,8.56763,0,0,0,0,0,0,0,-1,1931,1065,214.751,-8.56762
714,-41,214.804,8.64795,0,0,0,0,0,0,0,-1,1938,1065,214.804,-8.64794
721,-41,214.838,8.66614,0,0,0,0,0,0,0,-1,1945,1065,214.838,-8.66616
728,-41,217.182,32.364,0,0,0,0,0,0,0,-1,1952,1065,217.182,-32.3641
735,-41,216.897,32.3807,-0.0129991,-0.0056755,0.00192941,-0.00519829,-0.0134763,1.32833,0.00784796,0.0390381,1959,1065,216.897,-32.3807
742,-41,216.688,32.3153,-0.0152686,0.00257931,0.00197722,0.00279572,-0.015485,1.46178,0.0113704,0.0235214,1966,1065,216.687,-32.3153
749,-41,216.623,32.4172,-0.0177916,0.0109253,0.00200402,0.0110645,-0.0179308,1.50146,0.0168962,0.0216797,1973,1065,216.622,-32.4173
756,-41,216.579,32.4564,-0.0205089,0.0193508,0.00199184,0.0194501,-0.0206082,1.52099,0.0231309,0.020135,1980,1065,216.579,-32.4564
763,-41,216.403,32.3622,-0.0233562,0.0278458,0.00191842,0.0279176,-0.0234279,1.5334,0.0296821,0.0174293,1987,1065,216.403,-32.3622
770,-41,216.16,32.3115,-0.0262638,0.0364019,0.00175647,0.0364511,-0.026313,1.5428,0.0363941,0.0196873,1994,1065,216.16,-32.3115
777,-41,215.926,32.2782,-0.0291569,0.0450137,0.00147325,0.0450429,-0.0291862,1.55094,0.0431809,0.0247346,2001,1065,215.926,-32.2782
784,-41,215.699,32.1554,-0.0319555,0.0536784,0.00103025,0.0536908,-0.0319678,1.55877,0.0499823,0.0411728,2008,1065,215.699,-32.1553
791,-41,215.615,31.9949,0,0,0,0,0,0,0,-1,2015,1065,215.614,-31.9948
798,-41,144.406,18.5679,0,0,0,0,0,0,0,-1,2022,1065,144.406,-18.5679
805,-41,143.496,17.1398,0,0,0,0,0,0,0,-1,2029,1065,143.496,-17.1397
812,-41,130.787,15.5538,0,0,0,0,0,0,0,-1,2036,1065,130.787,-15.5539
-700,-48,-88.5808,-1.61304,0,0,0,0,0,0,0,-1,524,1072,-88.5808,1.61309
-693,-48,-89.1802,8.5564,0,0,0,0,0,0,0,-1,531,1072,-89.1802,-8.55644
-686,-48,-89.7466,8.80872,0,0,0,0,0,0,0,-1,538,1072,-89.7466,-8.80872
-679,-48,-90.313,9.06104,0,0,0,0,0,0,0,-1,545,1072,-90.313,-9.06099
-672,-48,-85.5398,3.31128,0,0,0,0,0,0,0,-1,552,1072,-85.5398,-3.31128
-665,-48,-84.2753,4.37109,0,0,0,0,0,0,0,-1,559,1072,-84.2753,-4.37112
-658,-48,-98.2539,10.8611,0,0,0,0,0,0,0,-1,566,1072,-98.2539,-10.8611
-651,-48,-207.976,31.775,0,0,0,0,0,0,0,-1,573,1072,-207.976,-31.775
-644,-48,-208.204,31.6947,-0.0160973,0.0493819,0.0025994,0.0494849,-0.0162003,1.53118,0.039513,0.0316775,580,1072,-208.204,-31.6947
-637,-48,-208.399,31.6074,-0.0125273,0.0406509,0.0021844,0.0407405,-0.0126169,1.52981,0.0322007,0.0311798,587,1072,-208.399,-31.6074
-630,-48,-208.488,31.7773,-0.00890552,0.0320532,0.00178808,0.0321311,-0.00898343,1.52725,0.02496,0.0339297,594,1072,-208.488,-31.7774
-623,-48,-208.589,31.8818,-0.00523087,0.0235678,0.00139056,0.0236348,-0.00529786,1.52266,0.0177874,0.0187506,601,1072,-208.589,-31.8818
-616,-48,-208.577,32.0048,-0.00150012,0.0151782,0.000976145,0.0152351,-0.00155706,1.51253,0.0107136,0.0166919,608,1072,-208.577,-32.0048
-609,-48,-208.475,32.2183,0.00229213,0.00687265,0.000533139,0.00693389,0.00223089,1.45644,0.00408721,0.0164523,615,1072,-208.475,-32.2183
-602,-48,-208.484,32.2406,0.0061534,-0.00135604,5.37245e-05,0.00615378,-0.00135643,0.00715377,0.0046215,0.0181475,622,1072,-208.484,-32.2405
-595,-48,-208.441,32.24,0,0,0,0,0,0,0,-1,629,1072,-208.441,-32.24
-588,-48,-204.934,31.9355,0,0,0,0,0,0,0,-1,636,1072,-204.934,-31.9356
-581,-48,-72.1721,0.0887451,0,0,0,0,0,0,0,-1,643,1072,-72.172,-0.0887806
-574,-48,-72.2043,0.252686,0,0,0,0,0,0,0,-1,650,1072,-72.2043,-0.25272
-567,-48,-72.2415,0.488281,0,0,0,0,0,0,0,-1,657,1072,-72.2414,-0.488321
-560,-48,-72.2725,0.536499,0,0,0,0,0,0,0,-1,664,1072,-72.2725,-0.536524
-553,-48,-72.2182,0.4552,0,0,0,0,0,0,0,-1,671,1072,-72.2182,-0.45517
-546,-48,-72.1917,0.478149,0,0,0,0,0,0,0,-1,678,1072,-72.1916,-0.478111
-539,-48,-72.183,0.666382,0,0,0,0,0,0,0,-1,685,1072,-72.183,-0.66641
-532,-48,-72.2211,0.694214,0,0,0,0,0,0,0,-1,692,1072,-72.2211,-0.694174
-525,-48,0,0,0,0,0,0,0,0,0,-1,699,1072,0,0
-518,-48,0,0,0,0,0,0,0,0,0,-1,706,1072,0,0
-511,-48,0,0,0,0,0,0,0,0,0,-1,713,1072,0,0
-504,-48,0,0,0,0,0,0,0,0,0,-1,720,1072,0,0
-497,-48,0,0,0,0,0,0,0,0,0,-1,727,1072,0,0
-490,-48,0,0,0,0,0,0,0,0,0,-1,734,1072,0,0
-483,-48,0,0,0,0,0,0,0,0,0,-1,741,1072,0,0
-476,-48,0,0,0,0,0,0,0,0,0,-1,748,1072,0,0
-469,-48,0,0,0,0,0,0,0,0,0,-1,755,1072,0,0
-462,-48,0,0,0,0,0,0,0,0,0,-1,762,1072,0,0
-455,-48,0,0,0,0,0,0,0,0,0,-1,769,1072,0,0
-448,-48,0,0,0,0,0,0,0,0,0,-1,776,1072,0,0
-441,-48,0,0,0,0,0,0,0,0,0,-1,783,1072,0,0
-434,-48,0,0,0,0,0,0,0,0,0,-1,790,1072,0,0
-427,-48,0,0,0,0,0,0,0,0,0,-1,797,1072,0,0
-420,-48,0,0,0,0,0,0,0,0,0,-1,804,1072,0,0
-413,-48,0,0,0,0,0,0,0,0,0,-1,811,1072,0,0
-406,-48,0,0,0,0,0,0,0,0,0,-1,818,1072,0,0
-399,-48,0,0,0,0,0,0,0,0,0,-1,825,1072,0,0
-392,-48,0,0,0,0,0,0,0,0,0,-1,832,1072,0,0
-385,-48,0,0,0,0,0,0,0,0,0,-1,839,1072,0,0
-378,-48,0,0,0,0,0,0,0,0,0,-1,846,1072,0,0
-371,-48,0,0,0,0,0,0,0,0,0,-1,853,1072,0,0
-364,-48,0,0,0,0,0,0,0,0,0,-1,860,1072,0,0
-357,-48,0,0,0,0,0,0,0,0,0,-1,867,1072,0,0
-350,-48,0,0,0,0,0,0,0,0,0,-1,874,1072,0,0
-343,-48,0,0,0,0,0,0,0,0,0,-1,881,1072,0,0
-336,-48,0,0,0,0,0,0,0,0,0,-1,888,1072,0,0
-329,-48,0,0,0,0,0,0,0,0,0,-1,895,1072,0,0
-322,-48,0,0,0,0,0,0,0,0,0,-1,902,1072,0,0
-315,-48,0,0,0,0,0,0,0,0,0,-1,909,1072,0,0
-308,-48,0,0,0,0,0,0,0,0,0,-1,916,1072,0,0
-301,-48,0,0,0,0,0,0,0,0,0,-1,923,1072,0,0
-294,-48,0,0,0,0,0,0,0,0,0,-1,930,1072,0,0
-287,-48,0,0,0,0,0,0,0,0,0,-1,937,1072,0,0
-280,-48,0,0,0,0,0,0,0,0,0,-1,944,1072,0,0
-273,-48,0,0,0,0,0,0,0,0,0,-1,951,1072,0,0
-266,-48,0,0,0,0,0,0,0,0,0,-1,958,1072,0,0
-259,-48,0,0,0,0,0,0,0,0,0,-1,965,1072,0,0
-252,-48,0,0,0,0,0,0,0,0,0,-1,972,1072,0,0
-245,-48,0,0,0,0,0,0,0,0,0,-1,979,1072,0,0
-238,-48,0,0,0,0,0,0,0,0,0,-1,986,1072,0,0
-231,-48,0,0,0,0,0,0,0,0,0,-1,993,1072,0,0
-224,-48,0,0,0,0,0,0,0,0,0,-1,1000,1072,0,0
-217,-48,0,0,0,0,0,0,0,0,0,-1,1007,1072,0,0
-210,-48,0,0,0,0,0,0,0,0,0,-1,1014,1072,0,0
-203,-48,0,0,0,0,0,0,0,0,0,-1,1021,1072,0,0
-196,-48,0,0,0,0,0,0,0,0,0,-1,1028,1072,0,0
-189,-48,0,0,0,0,0,0,0,0,0,-1,1035,1072,0,0
-182,-48,0,0,0,0,0,0,0,0,0,-1,1042,1072,0,0
-175,-48,0,0,0,0,0,0,0,0,0,-1,1049,1072,0,0
-168,-48,0,0,0,0,0,0,0,0,0,-1,1056,1072,0,0
-161,-48,0,0,0,0,0,0,0,0,0,-1,1063,1072,0,0
-154,-48,0,0,0,0,0,0,0,0,0,-1,1070,1072,0,0
-147,-48,0,0,0,0,0,0,0,0,0,-1,1077,1072,0,0
-140,-48,0,0,0,0,0,0,0,0,0,-1,1084,1072,0,0
-133,-48,0,0,0,0,0,0,0,0,0,-1,1091,1072,0,0
-126,-48,0,0,0,0,0,0,0,0,0,-1,1098,1072,0,0
-119,-48,0,0,0,0,0,0,0,0,0,-1,1105,1072,0,0
-112,-48,0,0,0,0,0,0,0,0,0,-1,1112,1072,0,0
-105,-48,0,0,0,0,0,0,0,0,0,-1,1119,1072,0,0
-98,-48,0,0,0,0,0,0,0,0,0,-1,1126,1072,0,0
-91,-48,0,0,0,0,0,0,0,0,0,-1,1133,1072,0,0
-84,-48,0,0,0,0,0,0,0,0,0,-1,1140,1072,0,0
-77,-48,0,0,0,0,0,0,0,0,0,-1,1147,1072,0,0
-70,-48,0,0,0,0,0,0,0,0,0,-1,1154,1072,0,0
-63,-48,0,0,0,0,0,0,0,0,0,-1,1161,1072,0,0
-56,-48,0,0,0,0,0,0,0,0,0,-1,1168,1072,0,0
-49,-48,0,0,0,0,0,0,0,0,0,-1,1175,1072,0,0
-42,-48,0,0,0,0,0,0,0,0,0,-1,1182,1072,0,0
-35,-48,0,0,0,0,0,0,0,0,0,-1,1189,1072,0,0
-28,-48,0,0,0,0,0,0,0,0,0,-1,1196,1072,0,0
-21,-48,0,0,0,0,0,0,0,0,0,-1,1203,1072,0,0
-14,-48,0,0,0,0,0,0,0,0,0,-1,1210,1072,0,0
-7,-48,0,0,0,0,0,0,0,0,0,-1,1217,1072,0,0
0,-48,0,0,0,0,0,0,0,0,0,-1,1224,1072,0,0
7,-48,0,0,0,0,0,0,0,0,0,-1,1231,1072,0,0
14,-48,0,0,0,0,0,0,0,0,0,-1,1238,1072,0,0
21,-48,0,0,0,0,0,0,0,0,0,-1,1245,1072,0,0
28,-48,0,0,0,0,0,0,0,0,0,-1,1252,1072,0,0
35,-48,0,0,0,0,0,0,0,0,0,-1,1259,1072,0,0
42,-48,0,0,0,0,0,0,0,0,0,-1,1266,1072,0,0
49,-48,0,0,0,0,0,0,0,0,0,-1,1273,1072,0,0
56,-48,0,0,0,0,0,0,0,0,0,-1,1280,1072,0,0
63,-48,0,0,0,0,0,0,0,0,0,-1,1287,1072,0,0
70,-48,0,0,0,0,0,0,0,0,0,-1,1294,1072,0,0
77,-48,0,0,0,0,0,0,0,0,0,-1,1301,1072,0,0
84,-48,0,0,0,0,0,0,0,0,0,-1,1308,1072,0,0
91,-48,0,0,0,0,0,0,0,0,0,-1,1315,1072,0,0
98,-48,0,0,0,0,0,0,0,0,0,-1,1322,1072,0,0
105,-48,0,0,0,0,0,0,0,0,0,-1,1329,1072,0,0
112,-48,0,0,0,0,0,0,0,0,0,-1,1336,1072,0,0
119,-48,0,0,0,0,0,0,0,0,0,-1,1343,1072,0,0
126,-48,0,0,0,0,0,0,0,0,0,-1,1350,1072,0,0
133,-48,0,0,0,0,0,0,0,0,0,-1,1357,1072,0,0
140,-48,0,0,0,0,0,0,0,0,0,-1,1364,1072,0,0
147,-48,0,0,0,0,0,0,0,0,0,-1,1371,1072,0,0
154,-48,0,0,0,0,0,0,0,0,0,-1,1378,1072,0,0
161,-48,0,0,0,0,0,0,0,0,0,-1,1385,1072,0,0
168,-48,0,0,0,0,0,0,0,0,0,-1,1392,1072,0,0
175,-48,0,0,0,0,0,0,0,0,0,-1,1399,1072,0,0
182,-48,0,0,0,0,0,0,0,0,0,-1,1406,1072,0,0
189,-48,0,0,0,0,0,0,0,0,0,-1,1413,1072,0,0
196,-48,0,0,0,0,0,0,0,0,0,-1,1420,1072,0,0
203,-48,0,0,0,0,0,0,0,0,0,-1,1427,1072,0,0
210,-48,0,0,0,0,0,0,0,0,0,-1,1434,1072,0,0
217,-48,0,0,0,0,0,0,0,0,0,-1,1441,1072,0,0
224,-48,0,0,0,0,0,0,0,0,0,-1,1448,1072,0,0
231,-48,0,0,0,0,0,0,0,0,0,-1,1455,1072,0,0
238,-48,0,0,0,0,0,0,0,0,0,-1,1462,1072,0,0
245,-48,0,0,0,0,0,0,0,0,0,-1,1469,1072,0,0
252,-48,0,0,0,0,0,0,0,0,0,-1,1476,1072,0,0
259,-48,0,0,0,0,0,0,0,0,0,-1,1483,1072,0,0
266,-48,0,0,0,0,0,0,0,0,0,-1,1490,1072,0,0
273,-48,0,0,0,0,0,0,0,0,0,-1,1497,1072,0,0
280,-48,0,0,0,0,0,0,0,0,0,-1,1504,1072,0,0
287,-48,0,0,0,0,0,0,0,0,0,-1,1511,1072,0,0
294,-48,0,0,0,0,0,0,0,0,0,-1,1518,1072,0,0
301,-48,0,0,0,0,0,0,0,0,0,-1,1525,1072,0,0
308,-48,0,0,0,0,0,0,0,0,0,-1,1532,1072,0,0
315,-48,0,0,0,0,0,0,0,0,0,-1,1539,1072,0,0
322,-48,0,0,0,0,0,0,0,0,0,-1,1546,1072,0,0
329,-48,0,0,0,0,0,0,0,0,0,-1,1553,1072,0,0
336,-48,0,0,0,0,0,0,0,0,0,-1,1560,1072,0,0
343,-48,0,0,0,0,0,0,0,0,0,-1,1567,1072,0,0
350,-48,0,0,0,0,0,0,0,0,0,-1,1574,1072,0,0
357,-48,0,0,0,0,0,0,0,0,0,-1,1581,1072,0,0
364,-48,0,0,0,0,0,0,0,0,0,-1,1588,1072,0,0
371,-48,0,0,0,0,0,0,0,0,0,-1,1595,1072,0,0
378,-48,0,0,0,0,0,0,0,0,0,-1,1602,1072,0,0
385,-48,0,0,0,0,0,0,0,0,0,-1,1609,1072,0,0
392,-48,0,0,0,0,0,0,0,0,0,-1,1616,1072,0,0
399,-48,0,0,0,0,0,0,0,0,0,-1,1623,1072,0,0
406,-48,0,0,0,0,0,0,0,0,0,-1,1630,1072,0,0
413,-48,0,0,0,0,0,0,0,0,0,-1,1637,1072,0,0
420,-48,0,0,0,0,0,0,0,0,0,-1,1644,1072,0,0
427,-48,0,0,0,0,0,0,0,0,0,-1,1651,1072,0,0
434,-48,0,0,0,0,0,0,0,0,0,-1,1658,1072,0,0
441,-48,0,0,0,0,0,0,0,0,0,-1,1665,1072,0,0
448,-48,0,0,0,0,0,0,0,0,0,-1,1672,1072,0,0
455,-48,0,0,0,0,0,0,0,0,0,-1,1679,1072,0,0
462,-48,0,0,0,0,0,0,0,0,0,-1,1686,1072,0,0
469,-48,0,0,0,0,0,0,0,0,0,-1,1693,1072,0,0
476,-48,0,0,0,0,0,0,0,0,0,-1,1700,1072,0,0
483,-48,0,0,0,0,0,0,0,0,0,-1,1707,1072,0,0
490,-48,0,0,0,0,0,0,0,0,0,-1,1714,1072,0,0
497,-48,0,0,0,0,0,0,0,0,0,-1,1721,1072,0,0
504,-48,0,0,0,0,0,0,0,0,0,-1,1728,1072,0,0
511,-48,0,0,0,0,0,0,0,0,0,-1,1735,1072,0,0
518,-48,0,0,0,0,0,0,0,0,0,-1,1742,1072,0,0
525,-48,0,0,0,0,0,0,0,0,0,-1,1749,1072,0,0
532,-48,0,0,0,0,0,0,0,0,0,-1,1756,1072,0,0
539,-48,0,0,0,0,0,0,0,0,0,-1,1763,1072,0,0
546,-48,0,0,0,0,0,0,0,0,0,-1,1770,1072,0,0
553,-48,0,0,0,0,0,0,0,0,0,-1,1777,1072,0,0
560,-48,0,0,0,0,0,0,0,0,0,-1,1784,1072,0,0
567,-48,0,0,0,0,0,0,0,0,0,-1,1791,1072,0,0
574,-48,0,0,0,0,0,0,0,0,0,-1,1798,1072,0,0
581,-48,0,0,0,0,0,0,0,0,0,-1,1805,1072,0,0
588,-48,0,0,0,0,0,0,0,0,0,-1,1812,1072,0,0
595,-48,0,0,0,0,0,0,0,0,0,-1,1819,1072,0,0
602,-48,0,0,0,0,0,0,0,0,0,-1,1826,1072,0,0
609,-48,0,0,0,0,0,0,0,0,0,-1,1833,1072,0,0
616,-48,0,0,0,0,0,0,0,0,0,-1,1840,1072,0,0
623,-48,0,0,0,0,0,0,0,0,0,-1,1847,1072,0,0
630,-48,0,0,0,0,0,0,0,0,0,-1,1854,1072,0,0
637,-48,0,0,0,0,0,0,0,0,0,-1,1861,1072,0,0
644,-48,0,0,0,0,0,0,0,0,0,-1,1868,1072,0,0
651,-48,214.737,8.48706,0,0,0,0,0,0,0,-1,1875,1072,214.737,-8.487
658,-48,214.805,8.57654,0,0,0,0,0,0,0,-1,1882,1072,214.805,-8.57654
665,-48,214.708,8.47205,0,0,0,0,0,0,0,-1,1889,1072,214.708,-8.4721
672,-48,214.61,8.34875,0,0,0,0,0,0,0,-1,1896,1072,214.61,-8.34873
679,-48,214.699,8.27917,0,0,0,0,0,0,0,-1,1903,1072,214.699,-8.27921
686,-48,214.803,8.35022,0,0,0,0,0,0,0,-1,1910,1072,214.803,-8.35018
693,-48,214.762,8.37793,0,0,0,0,0,0,0,-1,1917,1072,214.762,-8.37798
700,-48,214.698,8.62952,0,0,0,0,0,0,0,-1,1924,1072,214.698,-8.62947
707,-48,214.86,8.57385,0,0,0,0,0,0,0,-1,1931,1072,214.86,-8.57382
714,-48,214.774,8.55383,0,0,0,0,0,0,0,-1,1938,1072,214.774,-8.55381
721,-48,214.738,8.58984,0,0,0,0,0,0,0,-1,1945,1072,214.738,-8.58982
728,-48,217.064,32.6512,0,0,0,0,0,0,0,-1,1952,1072,217.064,-32.6512
735,-48,216.774,32.5781,-0.0118964,-0.0067891,0.00246654,-0.00579241,-0.0128931,1.18677,0.00745659,0.0409134,1959,1072,216.774,-32.5781
742,-48,216.484,32.4117,-0.0144775,0.00190649,0.00247184,0.00227129,-0.0148423,1.42427,0.0107324,0.0223993,1966,1072,216.484,-32.4117
749,-48,216.477,32.306,-0.0172945,0.01064,0.00247455,0.0108575,-0.017512,1.48312,0.0165287,0.0221041,1973,1072,216.477,-32.3061
756,-48,216.427,32.2491,-0.0202861,0.0194051,0.00245225,0.019556,-0.020437,1.50932,0.0230918,0.0196462,1980,1072,216.427,-32.2492
763,-48,216.295,32.1508,-0.023385,0.0281967,0.00237865,0.0283062,-0.0234944,1.52481,0.0299501,0.0172095,1987,1072,216.295,-32.1508
770,-48,216.139,32.0457,-0.026518,0.0370114,0.00222303,0.0370891,-0.0265957,1.53586,0.0369344,0.0223278,1994,1072,216.139,-32.0456
777,-48,215.886,31.9364,-0.0296053,0.0458479,0.00194971,0.0458982,-0.0296557,1.54498,0.0439558,0.0227968,2001,1072,215.886,-31.9363
784,-48,215.642,31.8195,-0.0325612,0.0547074,0.00151787,0.0547338,-0.0325876,1.55341,0.0509526,0.0371684,2008,1072,215.642,-31.8194
791,-48,215.496,31.634,0,0,0,0,0,0,0,-1,2015,1072,215.496,-31.634
798,-48,211.928,31.2397,0,0,0,0,0,0,0,-1,2022,1072,211.928,-31.2398
805,-48,145.94,17.7681,0,0,0,0,0,0,0,-1,2029,1072,145.94,-17.768
812,-48,145.715,16.424,0,0,0,0,0,0,0,-1,2036,1072,145.715,-16.424
-700,-55,-87.3454,-1.32239,0,0,0,0,0,0,0,-1,524,1079,-87.3454,1.32238
-693,-55,-88.6417,7.0238,0,0,0,0,0,0,0,-1,531,1079,-88.6417,-7.02386
-686,-55,-89.3746,7.15051,0,0,0,0,0,0,0,-1,538,1079,-89.3746,-7.15048
-679,-55,-90.1075,7.2771,0,0,0,0,0,0,0,-1,545,1079,-90.1075,-7.27709
-672,-55,-85.4192,2.81006,0,0,0,0,0,0,0,-1,552,1079,-85.4192,-2.81005
-665,-55,-84.8889,2.23938,0,0,0,0,0,0,0,-1,559,1079,-84.8889,-2.23935
-658,-55,-84.2544,2.53162,0,0,0,0,0,0,0,-1,566,1079,-84.2544,-2.53157
-651,-55,-208.098,31.2556,0,0,0,0,0,0,0,-1,573,1079,-208.098,-31.2556
-644,-55,-208.183,31.3435,-0.0161895,0.0485008,0.00169876,0.0485454,-0.016234,1.54456,0.0389203,0.0412716,580,1079,-208.183,-31.3435
-637,-55,-208.311,31.3214,-0.012857,0.0400954,0.00150355,0.0401381,-0.0128996,1.54243,0.0319391,0.0284503,587,1079,-208.311,-31.3214
-630,-55,-208.425,31.5319,-0.00944632,0.0317667,0.00130091,0.0318077,-0.00948734,1.53927,0.0249756,0.0308876,594,1079,-208.425,-31.5319
-623,-55,-208.559,31.801,-0.00596011,0.0234945,0.00106546,0.023533,-0.0059986,1.53469,0.0180241,0.0245751,601,1079,-208.559,-31.801
-616,-55,-208.563,31.9473,-0.00239971,0.0152625,0.000775434,0.0152965,-0.00243369,1.52701,0.0110982,0.021674,608,1079,-208.563,-31.9473
-609,-55,-208.453,32.1724,0.00123485,0.00705779,0.00041237,0.00708684,0.00120579,1.50045,0.00437833,0.0223391,615,1079,-208.453,-32.1723
-602,-55,-208.402,32.2725,0.00494502,-0.00112923,-3.9001e-05,0.00494527,-0.00112948,-0.00642036,0.00373077,0.0189999,622,1079,-208.402,-32.2724
-595,-55,-208.246,32.3499,0.00876465,-0.00896688,-0.000417343,0.00877447,-0.0089767,-0.0235194,0.0102489,0.049667,629,1079,-208.246,-32.3498
-588,-55,-208.359,32.5126,0,0,0,0,0,0,0,-1,636,1079,-208.359,-32.5125
-581,-55,-72.2021,0.568848,0,0,0,0,0,0,0,-1,643,1079,-72.2021,-0.568903
-574,-55,-72.1902,0.588257,0,0,0,0,0,0,0,-1,650,1079,-72.1903,-0.588203
-567,-55,-72.2176,0.383911,0,0,0,0,0,0,0,-1,657,1079,-72.2176,-0.383936
-560,-55,-72.2438,0.371704,0,0,0,0,0,0,0,-1,664,1079,-72.2438,-0.371714
-553,-55,-72.1981,0.384766,0,0,0,0,0,0,0,-1,671,1079,-72.1981,-0.384818
-546,-55,-72.202,0.425049,0,0,0,0,0,0,0,-1,678,1079,-72.202,-0.425034
-539,-55,-72.2377,0.464722,0,0,0,0,0,0,0,-1,685,1079,-72.2377,-0.464753
-532,-55,-76.1212,-0.043335,0,0,0,0,0,0,0,-1,692,1079,-76.1211,0.043395
-525,-55,0,0,0,0,0,0,0,0,0,-1,699,1079,0,0
-518,-55,0,0,0,0,0,0,0,0,0,-1,706,1079,0,0
-511,-55,0,0,0,0,0,0,0,0,0,-1,713,1079,0,0
-504,-55,0,0,0,0,0,0,0,0,0,-1,720,1079,0,0
-497,-55,0,0,0,0,0,0,0,0,0,-1,727,1079,0,0
-490,-55,0,0,0,0,0,0,0,0,0,-1,734,1079,0,0
-483,-55,0,0,0,0,0,0,0,0,0,-1,741,1079,0,0
-476,-55,0,0,0,0,0,0,0,0,0,-1,748,1079,0,0
-469,-55,0,0,0,0,0,0,0,0,0,-1,755,1079,0,0
-462,-55,0,0,0,0,0,0,0,0,0,-1,762,1079,0,0
-455,-55,0,0,0,0,0,0,0,0,0,-1,769,1079,0,0
-448,-55,0,0,0,0,0,0,0,0,0,-1,776,1079,0,0
-441,-55,0,0,0,0,0,0,0,0,0,-1,783,1079,0,0
-434,-55,0,0,0,0,0,0,0,0,0,-1,790,1079,0,0
-427,-55,0,0,0,0,0,0,0,0,0,-1,797,1079,0,0
-420,-55,0,0,0,0,0,0,0,0,0,-1,804,1079,0,0
-413,-55,0,0,0,0,0,0,0,0,0,-1,811,1079,0,0
-406,-55,0,0,0,0,0,0,0,0,0,-1,818,1079,0,0
-399,-55,0,0,0,0,0,0,0,0,0,-1,825,1079,0,0
-392,-55,0,0,0,0,0,0,0,0,0,-1,832,1079,0,0
-385,-55,0,0,0,0,0,0,0,0,0,-1,839,1079,0,0
-378,-55,0,0,0,0,0,0,0,0,0,-1,846,1079,0,0
-371,-55,0,0,0,0,0,0,0,0,0,-1,853,1079,0,0
-364,-55,0,0,0,0,0,0,0,0,0,-1,860,1079,0,0
-357,-55,0,0,0,0,0,0,0,0,0,-1,867,1079,0,0
-350,-55,0,0,0,0,0,0,0,0,0,-1,874,1079,0,0
-343,-55,0,0,0,0,0,0,0,0,0,-1,881,1079,0,0
-336,-55,0,0,0,0,0,0,0,0,0,-1,888,1079,0,0
-329,-55,0,0,0,0,0,0,0,0,0,-1,895,1079,0,0
-322,-55,0,0,0,0,0,0,0,0,0,-1,902,1079,0,0
-315,-55,0,0,0,0,0,0,0,0,0,-1,909,1079,0,0
-308,-55,0,0,0,0,0,0,0,0,0,-1,916,1079,0,0
-301,-55,0,0,0,0,0,0,0,0,0,-1,923,1079,0,0
-294,-55,0,0,0,0,0,0,0,0,0,-1,930,1079,0,0
-287,-55,0,0,0,0,0,0,0,0,0,-1,937,1079,0,0
-280,-55,0,0,0,0,0,0,0,0,0,-1,944,1079,0,0
-273,-55,0,0,0,0,0,0,0,0,0,-1,951,1079,0,0
-266,-55,0,0,0,0,0,0,0,0,0,-1,958,1079,0,0
-259,-55,0,0,0,0,0,0,0,0,0,-1,965,1079,0,0
-252,-55,0,0,0,0,0,0,0,0,0,-1,972,1079,0,0
-245,-55,0,0,0,0,0,0,0,0,0,-1,979,1079,0,0
-238,-55,0,0,0,0,0,0,0,0,0,-1,986,1079,0,0
-231,-55,0,0,0,0,0,0,0,0,0,-1,993,1079,0,0
-224,-55,0,0,0,0,0,0,0,0,0,-1,1000,1079,0,0
-217,-55,0,0,0,0,0,0,0,0,0,-1,1007,1079,0,0
-210,-55,0,0,0,0,0,0,0,0,0,-1,1014,1079,0,0
-203,-55,0,0,0,0,0,0,0,0,0,-1,1021,1079,0,0
-196,-55,0,0,0,0,0,0,0,0,0,-1,1028,1079,0,0
-189,-55,0,0,0,0,0,0,0,0,0,-1,1035,1079,0,0
-182,-55,0,0,0,0,0,0,0,0,0,-1,1042,1079,0,0
-175,-55,0,0,0,0,0,0,0,0,0,-1,1049,1079,0,0
-168,-55,0,0,0,0,0,0,0,0,0,-1,1056,1079,0,0
-161,-55,0,0,0,0,0,0,0,0,0,-1,1063,1079,0,0
-154,-55,0,0,0,0,0,0,0,0,0,-1,1070,1079,0,0
-147,-55,0,0,0,0,0,0,0,0,0,-1,1077,1079,0,0
-140,-55,0,0,0,0,0,0,0,0,0,-1,1084,1079,0,0
-133,-55,0,0,0,0,0,0,0,0,0,-1,1091,1079,0,0
-126,-55,0,0,0,0,0,0,0,0,0,-1,1098,1079,0,0
-119,-55,0,0,0,0,0,0,0,0,0,-1,1105,1079,0,0
-112,-55,0,0,0,0,0,0,0,0,0,-1,1112,1079,0,0
-105,-55,0,0,0,0,0,0,0,0,0,-1,1119,1079,0,0
-98,-55,0,0,0,0,0,0,0,0,0,-1,1126,1079,0,0
-91,-55,0,0,0,0,0,0,0,0,0,-1,1133,1079,0,0
-84,-55,0,0,0,0,0,0,0,0,0,-1,1140,1079,0,0
-77,-55,0,0,0,0,0,0,0,0,0,-1,1147,1079,0,0
-70,-55,0,0,0,0,0,0,0,0,0,-1,1154,1079,0,0
-63,-55,0,0,0,0,0,0,0,0,0,-1,1161,1079,0,0
-56,-55,0,0,0,0,0,0,0,0,0,-1,1168,1079,0,0
-49,-55,0,0,0,0,0,0,0,0,0,-1,1175,1079,0,0
-42,-55,0,0,0,0,0,0,0,0,0,-1,1182,1079,0,0
-35,-55,0,0,0,0,0,0,0,0,0,-1,1189,1079,0,0
-28,-55,0,0,0,0,0,0,0,0,0,-1,1196,1079,0,0
-21,-55,0,0,0,0,0,0,0,0,0,-1,1203,1079,0,0
-14,-55,0,0,0,0,0,0,0,0,0,-1,1210,1079,0,0
-7,-55,0,0,0,0,0,0,0,0,0,-1,1217,1079,0,0
0,-55,0,0,0,0,0,0,0,0,0,-1,1224,1079,0,0
7,-55,0,0,0,0,0,0,0,0,0,-1,1231,1079,0,0
14,-55,0,0,0,0,0,0,0,0,0,-1,1238,1079,0,0
21,-55,0,0,0,0,0,0,0,0,0,-1,1245,1079,0,0
28,-55,0,0,0,0,0,0,0,0,0,-1,1252,1079,0,0
35,-55,0,0,0,0,0,0,0,0,0,-1,1259,1079,0,0
42,-55,0,0,0,0,0,0,0,0,0,-1,1266,1079,0,0
49,-55,0,0,0,0,0,0,0,0,0,-1,1273,1079,0,0
56,-55,0,0,0,0,0,0,0,0,0,-1,1280,1079,0,0
63,-55,0,0,0,0,0,0,0,0,0,-1,1287,1079,0,0
70,-55,0,0,0,0,0,0,0,0,0,-1,1294,1079,0,0
77,-55,0,0,0,0,0,0,0,0,0,-1,1301,1079,0,0
84,-55,0,0,0,0,0,0,0,0,0,-1,1308,1079,0,0
91,-55,0,0,0,0,0,0,0,0,0,-1,1315,1079,0,0
98,-55,0,0,0,0,0,0,0,0,0,-1,1322,1079,0,0
105,-55,0,0,0,0,0,0,0,0,0,-1,1329,1079,0,0
112,-55,0,0,0,0,0,0,0,0,0,-1,1336,1079,0,0
119,-55,0,0,0,0,0,0,0,0,0,-1,1343,1079,0,0
126,-55,0,0,0,0,0,0,0,0,0,-1,1350,1079,0,0
133,-55,0,0,0,0,0,0,0,0,0,-1,1357,1079,0,0
140,-55,0,0,0,0,0,0,0,0,0,-1,1364,1079,0,0
147,-55,0,0,0,0,0,0,0,0,0,-1,1371,1079,0,0
154,-55,0,0,0,0,0,0,0,0,0,-1,1378,1079,0,0
161,-55,0,0,0,0,0,0,0,0,0,-1,1385,1079,0,0
168,-55,0,0,0,0,0,0,0,0,0,-1,1392,1079,0,0
175,-55,0,0,0,0,0,0,0,0,0,-1,1399,1079,0,0
182,-55,0,0,0,0,0,0,0,0,0,-1,1406,1079,0,0
189,-55,0,0,0,0,0,0,0,0,0,-1,1413,1079,0,0
196,-55,0,0,0,0,0,0,0,0,0,-1,1420,1079,0,0
203,-55,0,0,0,0,0,0,0,0,0,-1,1427,1079,0,0
210,-55,0,0,0,0,0,0,0,0,0,-1,1434,1079,0,0
217,-55,0,0,0,0,0,0,0,0,0,-1,1441,1079,0,0
224,-55,0,0,0,0,0,0,0,0,0,-1,1448,1079,0,0
231,-55,0,0,0,0,0,0,0,0,0,-1,1455,1079,0,0
238,-55,0,0,0,0,0,0,0,0,0,-1,1462,1079,0,0
245,-55,0,0,0,0,0,0,0,0,0,-1,1469,1079,0,0
252,-55,0,0,0,0,0,0,0,0,0,-1,1476,1079,0,0
259,-55,0,0,0,0,0,0,0,0,0,-1,1483,1079,0,0
266,-55,0,0,0,0,0,0,0,0,0,-1,1490,1079,0,0
273,-55,0,0,0,0,0,0,0,0,0,-1,1497,1079,0,0
280,-55,0,0,0,0,0,0,0,0,0,-1,1504,1079,0,0
287,-55,0,0,0,0,0,0,0,0,0,-1,1511,1079,0,0
294,-55,0,0,0,0,0,0,0,0,0,-1,1518,1079,0,0
301,-55,0,0,0,0,0,0,0,0,0,-1,1525,1079,0,0
308,-55,0,0,0,0,0,0,0,0,0,-1,1532,1079,0,0
315,-55,0,0,0,0,0,0,0,0,0,-1,1539,1079,0,0
322,-55,0,0,0,0,0,0,0,0,0,-1,1546,1079,0,0
329,-55,0,0,0,0,0,0,0,0,0,-1,1553,1079,0,0
336,-55,0,0,0,0,0,0,0,0,0,-1,1560,1079,0,0
343,-55,0,0,0,0,0,0,0,0,0,-1,1567,1079,0,0
350,-55,0,0,0,0,0,0,0,0,0,-1,1574,1079,0,0
357,-55,0,0,0,0,0,0,0,0,0,-1,1581,1079,0,0
364,-55,0,0,0,0,0,0,0,0,0,-1,1588,1079,0,0
371,-55,0,0,0,0,0,0,0,0,0,-1,1595,1079,0,0
378,-55,0,0,0,0,0,0,0,0,0,-1,1602,1079,0,0
385,-55,0,0,0,0,0,0,0,0,0,-1,1609,1079,0,0
392,-55,0,0,0,0,0,0,0,0,0,-1,1616,1079,0,0
399,-55,0,0,0,0,0,0,0,0,0,-1,1623,1079,0,0
406,-55,0,0,0,0,0,0,0,0,0,-1,1630,1079,0,0
413,-55,0,0,0,0,0,0,0,0,0,-1,1637,1079,0,0
420,-55,0,0,0,0,0,0,0,0,0,-1,1644,1079,0,0
427,-55,0,0,0,0,0,0,0,0,0,-1,1651,1079,0,0
434,-55,0,0,0,0,0,0,0,0,0,-1,1658,1079,0,0
441,-55,0,0,0,0,0,0,0,0,0,-1,1665,1079,0,0
448,-55,0,0,0,0,0,0,0,0,0,-1,1672,1079,0,0
455,-55,0,0,0,0,0,0,0,0,0,-1,1679,1079,0,0
462,-55,0,0,0,0,0,0,0,0,0,-1,1686,1079,0,0
469,-55,0,0,0,0,0,0,0,0,0,-1,1693,1079,0,0
476,-55,0,0,0,0,0,0,0,0,0,-1,1700,1079,0,0
483,-55,0,0,0,0,0,0,0,0,0,-1,1707,1079,0,0
490,-55,0,0,0,0,0,0,0,0,0,-1,1714,1079,0,0
497,-55,0,0,0,0,0,0,0,0,0,-1,1721,1079,0,0
504,-55,0,0,0,0,0,0,0,0,0,-1,1728,1079,0,0
511,-55,0,0,0,0,0,0,0,0,0,-1,1735,1079,0,0
518,-55,0,0,0,0,0,0,0,0,0,-1,1742,1079,0,0
525,-55,0,0,0,0,0,0,0,0,0,-1,1749,1079,0,0
532,-55,0,0,0,0,0,0,0,0,0,-1,1756,1079,0,0
539,-55,0,0,0,0,0,0,0,0,0,-1,1763,1079,0,0
546,-55,0,0,0,0,0,0,0,0,0,-1,1770,1079,0,0
553,-55,0,0,0,0,0,0,0,0,0,-1,1777,1079,0,0
560,-55,0,0,0,0,0,0,0,0,0,-1,1784,1079,0,0
567,-55,0,0,0,0,0,0,0,0,0,-1,1791,1079,0,0
574,-55,0,0,0,0,0,0,0,0,0,-1,1798,1079,0,0
581,-55,0,0,0,0,0,0,0,0,0,-1,1805,1079,0,0
588,-55,0,0,0,0,0,0,0,0,0,-1,1812,1079,0,0
595,-55,0,0,0,0,0,0,0,0,0,-1,1819,1079,0,0
602,-55,0,0,0,0,0,0,0,0,0,-1,1826,1079,0,0
609,-55,0,0,0,0,0,0,0,0,0,-1,1833,1079,0,0
616,-55,0,0,0,0,0,0,0,0,0,-1,1840,1079,0,0
623,-55,0,0,0,0,0,0,0,0,0,-1,1847,1079,0,0
630,-55,0,0,0,0,0,0,0,0,0,-1,1854,1079,0,0
637,-55,0,0,0,0,0,0,0,0,0,-1,1861,1079,0,0
644,-55,0,0,0,0,0,0,0,0,0,-1,1868,1079,0,0
651,-55,214.648,8.42688,0,0,0,0,0,0,0,-1,1875,1079,214.648,-8.42687
658,-55,214.835,8.6499,0,0,0,0,0,0,0,-1,1882,1079,214.835,-8.64993
665,-55,214.683,8.80005,0,0,0,0,0,0,0,-1,1889,1079,214.683,-8.80005
672,-55,214.69,8.77173,0,0,0,0,0,0,0,-1,1896,1079,214.69,-8.77168
679,-55,214.709,8.60876,0,0,0,0,0,0,0,-1,1903,1079,214.709,-8.60879
686,-55,214.757,8.5813,0,0,0,0,0,0,0,-1,1910,1079,214.756,-8.58133
693,-55,214.712,8.60913,0,0,0,0,0,0,0,-1,1917,1079,214.712,-8.60915
700,-55,214.734,8.64343,0,0,0,0,0,0,0,-1,1924,1079,214.734,-8.64338
707,-55,214.825,8.54346,0,0,0,0,0,0,0,-1,1931,1079,214.825,-8.54343
714,-55,214.768,8.50391,0,0,0,0,0,0,0,-1,1938,1079,214.768,-8.50394
721,-55,214.541,8.56213,0,0,0,0,0,0,0,-1,1945,1079,214.541,-8.56216
728,-55,216.643,32.7728,0,0,0,0,0,0,0,-1,1952,1079,216.643,-32.7728
735,-55,216.496,32.6219,-0.0107672,-0.00763383,0.00279498,-0.00599638,-0.0124046,1.04084,0.00716312,0.0309284,1959,1079,216.496,-32.6219
742,-55,216.473,32.5178,-0.0136834,0.0014259,0.00280432,0.0019296,-0.0141871,1.39308,0.0101625,0.0279476,1966,1079,216.473,-32.5178
749,-55,216.426,32.3257,-0.0168075,0.010483,0.00282429,0.0107722,-0.0170967,1.46875,0.0162276,0.0216077,1973,1079,216.426,-32.3257
756,-55,216.255,32.1167,-0.020078,0.0195352,0.00283002,0.0197364,-0.0202792,1.49984,0.0231037,0.019819,1980,1079,216.255,-32.1167
763,-55,216.162,31.9675,-0.0234281,0.0285816,0.0027931,0.0287312,-0.0235777,1.5173,0.0302494,0.0204983,1987,1079,216.162,-31.9675
770,-55,215.993,31.8219,-0.0267843,0.037623,0.00268098,0.0377344,-0.0268957,1.52927,0.0374887,0.0256198,1994,1079,215.993,-31.8219
777,-55,215.77,31.6863,-0.0300663,0.0466623,0.00245642,0.0467409,-0.0301449,1.53883,0.0447334,0.0238519,2001,1079,215.769,-31.6863
784,-55,215.647,31.4509,-0.0331877,0.0557056,0.00207732,0.0557541,-0.0332362,1.54744,0.0519239,0.0428186,2008,1079,215.647,-31.451
791,-55,215.586,31.1686,0,0,0,0,0,0,0,-1,2015,1079,215.586,-31.1685
798,-55,154.99,20.4393,0,0,0,0,0,0,0,-1,2022,1079,154.989,-20.4393
805,-55,144.886,17.7817,0,0,0,0,0,0,0,-1,2029,1079,144.886,-17.7818
812,-55,144.398,16.9786,0,0,0,0,0,0,0,-1,2036,1079,144.398,-16.9786
-700,-62,-85.9905,-1.22083,0,0,0,0,0,0,0,-1,524,1086,-85.9906,1.22079
-693,-62,-86.1433,0.277466,0,0,0,0,0,0,0,-1,531,1086,-86.1434,-0.277479
-686,-62,-88.9893,5.4032,0,0,0,0,0,0,0,-1,538,1086,-88.9893,-5.40321
-679,-62,-85.3067,3.15723,0,0,0,0,0,0,0,-1,545,1086,-85.3067,-3.15717
-672,-62,-84.727,4.49841,0,0,0,0,0,0,0,-1,552,1086,-84.727,-4.4984
-665,-62,-84.3833,2.66711,0,0,0,0,0,0,0,-1,559,1086,-84.3833,-2.66709
-658,-62,-84.1052,2.85754,0,0,0,0,0,0,0,-1,566,1086,-84.1052,-2.8576
-651,-62,-207.958,30.4135,0,0,0,0,0,0,0,-1,573,1086,-207.958,-30.4134
-644,-62,-208.109,30.9575,-0.0169156,0.0475295,0.000405738,0.0475321,-0.0169181,1.5645,0.0385843,0.0488873,580,1086,-208.109,-30.9575
-637,-62,-208.194,31.2374,-0.0137072,0.0394537,0.000528196,0.0394589,-0.0137125,1.56086,0.0318756,0.0227125,587,1086,-208.194,-31.2374
-630,-62,-208.29,31.4277,-0.0103926,0.0314106,0.000612694,0.0314195,-0.0104016,1.55614,0.0251413,0.0207987,594,1086,-208.29,-31.4277
-623,-62,-208.36,31.7202,-0.00697233,0.0233823,0.000631707,0.0233955,-0.00698547,1.55,0.0183736,0.0234493,601,1086,-208.36,-31.7203
-616,-62,-208.361,32.0007,-0.00344692,0.0153539,0.000560806,0.0153706,-0.00346363,1.541,0.0115756,0.0247579,608,1086,-208.361,-32.0007
-609,-62,-208.32,32.1152,0.00018359,0.00731259,0.000378246,0.0073326,0.000163578,1.51794,0.0048348,0.0240017,615,1086,-208.32,-32.1153
-602,-62,-208.244,32.2532,0.00391974,-0.000751941,6.47359e-05,0.00392064,-0.000752838,0.0138536,0.00289749,0.0208576,622,1086,-208.244,-32.2532
-595,-62,-208.067,32.5165,0.00777198,-0.0085517,-0.000231801,0.00777527,-0.00855499,-0.0141965,0.00943186,0.0448132,629,1086,-208.067,-32.5164
-588,-62,-207.841,32.7223,0,0,0,0,0,0,0,-1,636,1086,-207.841,-32.7222
-581,-62,-72.1781,0.615723,0,0,0,0,0,0,0,-1,643,1086,-72.1781,-0.615709
-574,-62,-72.2164,0.539185,0,0,0,0,0,0,0,-1,650,1086,-72.2164,-0.539192
-567,-62,-72.2147,0.359985,0,0,0,0,0,0,0,-1,657,1086,-72.2147,-0.360028
-560,-62,-72.1146,0.307617,0,0,0,0,0,0,0,-1,664,1086,-72.1146,-0.307569
-553,-62,-72.0814,0.354126,0,0,0,0,0,0,0,-1,671,1086,-72.0814,-0.354185
-546,-62,-72.1473,0.42334,0,0,0,0,0,0,0,-1,678,1086,-72.1473,-0.423366
-539,-62,-72.1967,0.42981,0,0,0,0,0,0,0,-1,685,1086,-72.1967,-0.429812
-532,-62,-72.1149,0.448608,0,0,0,0,0,0,0,-1,692,1086,-72.1149,-0.448575
-525,-62,0,0,0,0,0,0,0,0,0,-1,699,1086,0,0
-518,-62,0,0,0,0,0,0,0,0,0,-1,706,1086,0,0
-511,-62,0,0,0,0,0,0,0,0,0,-1,713,1086,0,0
-504,-62,0,0,0,0,0,0,0,0,0,-1,720,1086,0,0
-497,-62,0,0,0,0,0,0,0,0,0,-1,727,1086,0,0
-490,-62,0,0,0,0,0,0,0,0,0,-1,734,1086,0,0
-483,-62,0,0,0,0,0,0,0,0,0,-1,741,1086,0,0
-476,-62,0,0,0,0,0,0,0,0,0,-1,748,1086,0,0
-469,-62,0,0,0,0,0,0,0,0,0,-1,755,1086,0,0
-462,-62,0,0,0,0,0,0,0,0,0,-1,762,1086,0,0
-455,-62,0,0,0,0,0,0,0,0,0,-1,769,1086,0,0
-448,-62,0,0,0,0,0,0,0,0,0,-1,776,1086,0,0
-441,-62,0,0,0,0,0,0,0,0,0,-1,783,1086,0,0
-434,-62,0,0,0,0,0,0,0,0,0,-1,790,1086,0,0
-427,-62,0,0,0,0,0,0,0,0,0,-1,797,1086,0,0
-420,-62,0,0,0,0,0,0,0,0,0,-1,804,1086,0,0
-413,-62,0,0,0,0,0,0,0,0,0,-1,811,1086,0,0
-406,-62,0,0,0,0,0,0,0,0,0,-1,818,1086,0,0
-399,-62,0,0,0,0,0,0,0,0,0,-1,825,1086,0,0
-392,-62,0,0,0,0,0,0,0,0,0,-1,832,1086,0,0
-385,-62,0,0,0,0,0,0,0,0,0,-1,839,1086,0,0
-378,-62,0,0,0,0,0,0,0,0,0,-1,846,1086,0,0
-371,-62,0,0,0,0,0,0,0,0,0,-1,853,1086,0,0
-364,-62,0,0,0,0,0,0,0,0,0,-1,860,1086,0,0
-357,-62,0,0,0,0,0,0,0,0,0,-1,867,1086,0,0
-350,-62,0,0,0,0,0,0,0,0,0,-1,874,1086,0,0
-343,-62,0,0,0,0,0,0,0,0,0,-1,881,1086,0,0
-336,-62,0,0,0,0,0,0,0,0,0,-1,888,1086,0,0
-329,-62,0,0,0,0,0,0,0,0,0,-1,895,1086,0,0
-322,-62,0,0,0,0,0,0,0,0,0,-1,902,1086,0,0
-315,-62,0,0,0,0,0,0,0,0,0,-1,909,1086,0,0
-308,-62,0,0,0,0,0,0,0,0,0,-1,916,1086,0,0
-301,-62,0,0,0,0,0,0,0,0,0,-1,923,1086,0,0
-294,-62,0,0,0,0,0,0,0,0,0,-1,930,1086,0,0
-287,-62,0,0,0,0,0,0,0,0,0,-1,937,1086,0,0
-280,-62,0,0,0,0,0,0,0,0,0,-1,944,1086,0,0
-273,-62,0,0,0,0,0,0,0,0,0,-1,951,1086,0,0
-266,-62,0,0,0,0,0,0,0,0,0,-1,958,1086,0,0
-259,-62,0,0,0,0,0,0,0,0,0,-1,965,1086,0,0
-252,-62,0,0,0,0,0,0,0,0,0,-1,972,1086,0,0
-245,-62,0,0,0,0,0,0,0,0,0,-1,979,1086,0,0
-238,-62,0,0,0,0,0,0,0,0,0,-1,986,1086,0,0
-231,-62,0,0,0,0,0,0,0,0,0,-1,993,1086,0,0
-224,-62,0,0,0,0,0,0,0,0,0,-1,1000,1086,0,0
-217,-62,0,0,0,0,0,0,0,0,0,-1,1007,1086,0,0
-210,-62,0,0,0,0,0,0,0,0,0,-1,1014,1086,0,0
-203,-62,0,0,0,0,0,0,0,0,0,-1,1021,1086,0,0
-196,-62,0,0,0,0,0,0,0,0,0,-1,1028,1086,0,0
-189,-62,0,0,0,0,0,0,0,0,0,-1,1035,1086,0,0
-182,-62,0,0,0,0,0,0,0,0,0,-1,1042,1086,0,0
-175,-62,0,0,0,0,0,0,0,0,0,-1,1049,1086,0,0
-168,-62,0,0,0,0,0,0,0,0,0,-1,1056,1086,0,0
-161,-62,0,0,0,0,0,0,0,0,0,-1,1063,1086,0,0
-154,-62,0,0,0,0,0,0,0,0,0,-1,1070,1086,0,0
-147,-62,0,0,0,0,0,0,0,0,0,-1,1077,1086,0,0
-140,-62,0,0,0,0,0,0,0,0,0,-1,1084,1086,0,0
-133,-62,0,0,0,0,0,0,0,0,0,-1,1091,1086,0,0
-126,-62,0,0,0,0,0,0,0,0,0,-1,1098,1086,0,0
-119,-62,0,0,0,0,0,0,0,0,0,-1,1105,1086,0,0
-112,-62,0,0,0,0,0,0,0,0,0,-1,1112,1086,0,0
-105,-62,0,0,0,0,0,0,0,0,0,-1,1119,1086,0,0
-98,-62,0,0,0,0,0,0,0,0,0,-1,1126,1086,0,0
-91,-62,0,0,0,0,0,0,0,0,0,-1,1133,1086,0,0
-84,-62,0,0,0,0,0,0,0,0,0,-1,1140,1086,0,0
-77,-62,0,0,0,0,0,0,0,0,0,-1,1147,1086,0,0
-70,-62,0,0,0,0,0,0,0,0,0,-1,1154,1086,0,0
-63,-62,0,0,0,0,0,0,0,0,0,-1,1161,1086,0,0
-56,-62,0,0,0,0,0,0,0,0,0,-1,1168,1086,0,0
-49,-62,0,0,0,0,0,0,0,0,0,-1,1175,1086,0,0
-42,-62,0,0,0,0,0,0,0,0,0,-1,1182,1086,0,0
-35,-62,0,0,0,0,0,0,0,0,0,-1,1189,1086,0,0
-28,-62,0,0,0,0,0,0,0,0,0,-1,1196,1086,0,0
-21,-62,0,0,0,0,0,0,0,0,0,-1,1203,1086,0,0
-14,-62,0,0,0,0,0,0,0,0,0,-1,1210,1086,0,0
-7,-62,0,0,0,0,0,0,0,0,0,-1,1217,1086,0,0
0,-62,0,0,0,0,0,0,0,0,0,-1,1224,1086,0,0
7,-62,0,0,0,0,0,0,0,0,0,-1,1231,1086,0,0
14,-62,0,0,0,0,0,0,0,0,0,-1,1238,1086,0,0
21,-62,0,0,0,0,0,0,0,0,0,-1,1245,1086,0,0
28,-62,0,0,0,0,0,0,0,0,0,-1,1252,1086,0,0
35,-62,0,0,0,0,0,0,0,0,0,-1,1259,1086,0,0
42,-62,0,0,0,0,0,0,0,0,0,-1,1266,1086,0,0
49,-62,0,0,0,0,0,0,0,0,0,-1,1273,1086,0,0
56,-62,0,0,0,0,0,0,0,0,0,-1,1280,1086,0,0
63,-62,0,0,0,0,0,0,0,0,0,-1,1287,1086,0,0
70,-62,0,0,0,0,0,0,0,0,0,-1,1294,1086,0,0
77,-62,0,0,0,0,0,0,0,0,0,-1,1301,1086,0,0
84,-62,0,0,0,0,0,0,0,0,0,-1,1308,1086,0,0
91,-62,0,0,0,0,0,0,0,0,0,-1,1315,1086,0,0
98,-62,0,0,0,0,0,0,0,0,0,-1,1322,1086,0,0
105,-62,0,0,0,0,0,0,0,0,0,-1,1329,1086,0,0
112,-62,0,0,0,0,0,0,0,0,0,-1,1336,1086,0,0
119,-62,0,0,0,0,0,0,0,0,0,-1,1343,1086,0,0
126,-62,0,0,0,0,0,0,0,0,0,-1,1350,1086,0,0
133,-62,0,0,0,0,0,0,0,0,0,-1,1357,1086,0,0
140,-62,0,0,0,0,0,0,0,0,0,-1,1364,1086,0,0
147,-62,0,0,0,0,0,0,0,0,0,-1,1371,1086,0,0
154,-62,0,0,0,0,0,0,0,0,0,-1,1378,1086,0,0
161,-62,0,0,0,0,0,0,0,0,0,-1,1385,1086,0,0
168,-62,0,0,0,0,0,0,0,0,0,-1,1392,1086,0,0
175,-62,0,0,0,0,0,0,0,0,0,-1,1399,1086,0,0
182,-62,0,0,0,0,0,0,0,0,0,-1,1406,1086,0,0
189,-62,0,0,0,0,0,0,0,0,0,-1,1413,1086,0,0
196,-62,0,0,0,0,0,0,0,0,0,-1,1420,1086,0,0
203,-62,0,0,0,0,0,0,0,0,0,-1,1427,1086,0,0
210,-62,0,0,0,0,0,0,0,0,0,-1,1434,1086,0,0
217,-62,0,0,0,0,0,0,0,0,0,-1,1441,1086,0,0
224,-62,0,0,0,0,0,0,0,0,0,-1,1448,1086,0,0
231,-62,0,0,0,0,0,0,0,0,0,-1,1455,1086,0,0
238,-62,0,0,0,0,0,0,0,0,0,-1,1462,1086,0,0
245,-62,0,0,0,0,0,0,0,0,0,-1,1469,1086,0,0
252,-62,0,0,0,0,0,0,0,0,0,-1,1476,1086,0,0
259,-62,0,0,0,0,0,0,0,0,0,-1,1483,1086,0,0
266,-62,0,0,0,0,0,0,0,0,0,-1,1490,1086,0,0
273,-62,0,0,0,0,0,0,0,0,0,-1,1497,1086,0,0
280,-62,0,0,0,0,0,0,0,0,0,-1,1504,1086,0,0
287,-62,0,0,0,0,0,0,0,0,0,-1,1511,1086,0,0
294,-62,0,0,0,0,0,0,0,0,0,-1,1518,1086,0,0
301,-62,0,0,0,0,0,0,0,0,0,-1,1525,1086,0,0
308,-62,0,0,0,0,0,0,0,0,0,-1,1532,1086,0,0
315,-62,0,0,0,0,0,0,0,0,0,-1,1539,1086,0,0
322,-62,0,0,0,0,0,0,0,0,0,-1,1546,1086,0,0
329,-62,0,0,0,0,0,0,0,0,0,-1,1553,1086,0,0
336,-62,0,0,0,0,0,0,0,0,0,-1,1560,1086,0,0
343,-62,0,0,0,0,0,0,0,0,0,-1,1567,1086,0,0
350,-62,0,0,0,0,0,0,0,0,0,-1,1574,1086,0,0
357,-62,0,0,0,0,0,0,0,0,0,-1,1581,1086,0,0
364,-62,0,0,0,0,0,0,0,0,0,-1,1588,1086,0,0
371,-62,0,0,0,0,0,0,0,0,0,-1,1595,1086,0,0
378,-62,0,0,0,0,0,0,0,0,0,-1,1602,1086,0,0
385,-62,0,0,0,0,0,0,0,0,0,-1,1609,1086,0,0
392,-62,0,0,0,0,0,0,0,0,0,-1,1616,1086,0,0
399,-62,0,0,0,0,0,0,0,0,0,-1,1623,1086,0,0
406,-62,0,0,0,0,0,0,0,0,0,-1,1630,1086,0,0
413,-62,0,0,0,0,0,0,0,0,0,-1,1637,1086,0,0
420,-62,0,0,0,0,0,0,0,0,0,-1,1644,1086,0,0
427,-62,0,0,0,0,0,0,0,0,0,-1,1651,1086,0,0
434,-62,0,0,0,0,0,0,0,0,0,-1,1658,1086,0,0
441,-62,0,0,0,0,0,0,0,0,0,-1,1665,1086,0,0
448,-62,0,0,0,0,0,0,0,0,0,-1,1672,1086,0,0
455,-62,0,0,0,0,0,0,0,0,0,-1,1679,1086,0,0
462,-62,0,0,0,0,0,0,0,0,0,-1,1686,1086,0,0
469,-62,0,0,0,0,0,0,0,0,0,-1,1693,1086,0,0
476,-62,0,0,0,0,0,0,0,0,0,-1,1700,1086,0,0
483,-62,0,0,0,0,0,0,0,0,0,-1,1707,1086,0,0
490,-62,0,0,0,0,0,0,0,0,0,-1,1714,1086,0,0
497,-62,0,0,0,0,0,0,0,0,0,-1,1721,1086,0,0
504,-62,0,0,0,0,0,0,0,0,0,-1,1728,1086,0,0
511,-62,0,0,0,0,0,0,0,0,0,-1,1735,1086,0,0
518,-62,0,0,0,0,0,0,0,0,0,-1,1742,1086,0,0
525,-62,0,0,0,0,0,0,0,0,0,-1,1749,1086,0,0
532,-62,0,0,0,0,0,0,0,0,0,-1,1756,1086,0,0
539,-62,0,0,0,0,0,0,0,0,0,-1,1763,1086,0,0
546,-62,0,0,0,0,0,0,0,0,0,-1,1770,1086,0,0
553,-62,0,0,0,0,0,0,0,0,0,-1,1777,1086,0,0
560,-62,0,0,0,0,0,0,0,0,0,-1,1784,1086,0,0
567,-62,0,0,0,0,0,0,0,0,0,-1,1791,1086,0,0
574,-62,0,0,0,0,0,0,0,0,0,-1,1798,1086,0,0
581,-62,0,0,0,0,0,0,0,0,0,-1,1805,1086,0,0
588,-62,0,0,0,0,0,0,0,0,0,-1,1812,1086,0,0
595,-62,0,0,0,0,0,0,0,0,0,-1,1819,1086,0,0
602,-62,0,0,0,0,0,0,0,0,0,-1,1826,1086,0,0
609,-62,0,0,0,0,0,0,0,0,0,-1,1833,1086,0,0
616,-62,0,0,0,0,0,0,0,0,0,-1,1840,1086,0,0
623,-62,0,0,0,0,0,0,0,0,0,-1,1847,1086,0,0
630,-62,0,0,0,0,0,0,0,0,0,-1,1854,1086,0,0
637,-62,0,0,0,0,0,0,0,0,0,-1,1861,1086,0,0
644,-62,0,0,0,0,0,0,0,0,0,-1,1868,1086,0,0
651,-62,214.546,8.34351,0,0,0,0,0,0,0,-1,1875,1086,214.546,-8.34355
658,-62,214.646,8.45886,0,0,0,0,0,0,0,-1,1882,1086,214.646,-8.45884
665,-62,214.758,8.65027,0,0,0,0,0,0,0,-1,1889,1086,214.758,-8.65028
672,-62,214.675,8.7981,0,0,0,0,0,0,0,-1,1896,1086,214.675,-8.79814
679,-62,214.751,8.78418,0,0,0,0,0,0,0,-1,1903,1086,214.751,-8.78413
686,-62,214.738,8.73755,0,0,0,0,0,0,0,-1,1910,1086,214.738,-8.73755
693,-62,214.811,8.65894,0,0,0,0,0,0,0,-1,1917,1086,214.81,-8.6589
700,-62,214.869,8.59387,0,0,0,0,0,0,0,-1,1924,1086,214.869,-8.59384
707,-62,214.807,8.42542,0,0,0,0,0,0,0,-1,1931,1086,214.807,-8.42539
714,-62,214.693,8.45703,0,0,0,0,0,0,0,-1,1938,1086,214.693,-8.45699
721,-62,214.54,8.63123,0,0,0,0,0,0,0,-1,1945,1086,214.54,-8.63119
728,-62,216.415,33.0006,0,0,0,0,0,0,0,-1,1952,1086,216.415,-33.0006
735,-62,216.353,32.5771,-0.00990056,-0.00834139,0.00333365,-0.00569738,-0.0125446,0.900261,0.00725274,0.0385796,1959,1086,216.353,-32.5772
742,-62,216.308,32.5096,-0.0130518,0.00094957,0.00326241,0.00167242,-0.0137746,1.35275,0.00978828,0.0421335,1966,1086,216.308,-32.5096
749,-62,216.345,32.4543,0,0,0,0,0,0,0,-1,1973,1086,216.345,-32.4544
756,-62,216.074,32.0249,-0.019889,0.0195213,0.00322137,0.0197828,-0.0201506,1.48977,0.0230559,0.0207002,1980,1086,216.074,-32.0249
763,-62,215.928,31.7743,-0.0234499,0.0287917,0.00319161,0.028986,-0.0236441,1.51,0.0304381,0.0257975,1987,1086,215.928,-31.7742
770,-62,215.772,31.5396,-0.0270126,0.0380522,0.00310949,0.0382005,-0.0271608,1.52315,0.0379154,0.0259312,1994,1086,215.772,-31.5395
777,-62,215.458,31.269,-0.0304994,0.0473085,0.00293492,0.0474191,-0.03061,1.53315,0.0453972,0.0281203,2001,1086,215.457,-31.269
784,-62,215.421,30.9883,-0.033805,0.056588,0.00263326,0.0566646,-0.0338816,1.5417,0.0528256,0.0430033,2008,1086,215.421,-30.9883
791,-62,215.444,30.7706,0,0,0,0,0,0,0,-1,2015,1086,215.444,-30.7706
798,-62,145.367,17.0892,0,0,0,0,0,0,0,-1,2022,1086,145.367,-17.0892
805,-62,143.891,17.6748,0,0,0,0,0,0,0,-1,2029,1086,143.891,-17.6749
812,-62,143.176,17.629,0,0,0,0,0,0,0,-1,2036,1086,143.175,-17.629
-700,-69,-84.8301,-0.922119,0,0,0,0,0,0,0,-1,524,1093,-84.8301,0.922103
-693,-69,-85.0201,0.548096,0,0,0,0,0,0,0,-1,531,1093,-85.0201,-0.548078
-686,-69,-85.1974,2.0426,0,0,0,0,0,0,0,-1,538,1093,-85.1974,-2.04259
-679,-69,-85.5246,3.56934,0,0,0,0,0,0,0,-1,545,1093,-85.5246,-3.56928
-672,-69,-83.949,2.89832,0,0,0,0,0,0,0,-1,552,1093,-83.949,-2.89829
-665,-69,-83.4005,3.32349,0,0,0,0,0,0,0,-1,559,1093,-83.4005,-3.32348
-658,-69,-82.7957,3.74512,0,0,0,0,0,0,0,-1,566,1093,-82.7957,-3.74516
-651,-69,-91.5511,10.6301,0,0,0,0,0,0,0,-1,573,1093,-91.5511,-10.6301
-644,-69,-207.896,30.739,0,0,0,0,0,0,0,-1,580,1093,-207.896,-30.739
-637,-69,-207.872,31.0181,-0.0141294,0.0385828,-0.00058048,0.0385891,-0.0141358,-1.55979,0.0315132,0.0285659,587,1093,-207.872,-31.0181
-630,-69,-207.967,31.262,-0.0109774,0.0309023,-0.000202642,0.0309032,-0.0109784,-1.56596,0.0250759,0.020583,594,1093,-207.967,-31.262
-623,-69,-207.944,31.4563,-0.00772384,0.0232064,8.40484e-05,0.0232066,-0.00772407,1.56808,0.0185886,0.0268263,601,1093,-207.944,-31.4563
-616,-69,-208.021,31.7024,-0.00436782,0.0154839,0.000256087,0.0154872,-0.00437112,1.5579,0.0120491,0.0343344,608,1093,-208.021,-31.7024
-609,-69,-208.116,32.0123,-0.00090895,0.0077257,0.000291855,0.00773555,-0.000918804,1.53705,0.005489,0.0292772,615,1093,-208.116,-32.0124
-602,-69,-208.069,32.2899,0.00265306,-7.61703e-05,0.000171319,0.00266378,-8.68823e-05,0.0624451,0.00180551,0.0258893,622,1093,-208.069,-32.2899
-595,-69,-207.973,32.4983,0.00628896,-0.00766171,2.95369e-05,0.00628903,-0.00766177,0.00211722,0.00806749,0.0416171,629,1093,-207.973,-32.4983
-588,-69,-207.897,32.6399,0,0,0,0,0,0,0,-1,636,1093,-207.897,-32.6399
-581,-69,-72.1123,0.543701,0,0,0,0,0,0,0,-1,643,1093,-72.1123,-0.543654
-574,-69,-72.1184,0.475464,0,0,0,0,0,0,0,-1,650,1093,-72.1184,-0.475443
-567,-69,-72.0325,0.365845,0,0,0,0,0,0,0,-1,657,1093,-72.0325,-0.365815
-560,-69,-72.1545,0.69043,0,0,0,0,0,0,0,-1,664,1093,-72.1545,-0.690484
-553,-69,-72.1738,0.429199,0,0,0,0,0,0,0,-1,671,1093,-72.1738,-0.429245
-546,-69,-72.1447,0.32312,0,0,0,0,0,0,0,-1,678,1093,-72.1447,-0.323069
-539,-69,-72.1819,0.331909,0,0,0,0,0,0,0,-1,685,1093,-72.1819,-0.331935
-532,-69,-72.0621,0.311523,0,0,0,0,0,0,0,-1,692,1093,-72.0621,-0.31155
-525,-69,0,0,0,0,0,0,0,0,0,-1,699,1093,0,0
-518,-69,0,0,0,0,0,0,0,0,0,-1,706,1093,0,0
-511,-69,0,0,0,0,0,0,0,0,0,-1,713,1093,0,0
-504,-69,0,0,0,0,0,0,0,0,0,-1,720,1093,0,0
-497,-69,0,0,0,0,0,0,0,0,0,-1,727,1093,0,0
-490,-69,0,0,0,0,0,0,0,0,0,-1,734,1093,0,0
-483,-69,0,0,0,0,0,0,0,0,0,-1,741,1093,0,0
-476,-69,0,0,0,0,0,0,0,0,0,-1,748,1093,0,0
-469,-69,0,0,0,0,0,0,0,0,0,-1,755,1093,0,0
-462,-69,0,0,0,0,0,0,0,0,0,-1,762,1093,0,0
-455,-69,0,0,0,0,0,0,0,0,0,-1,769,1093,0,0
-448,-69,0,0,0,0,0,0,0,0,0,-1,776,1093,0,0
-441,-69,0,0,0,0,0,0,0,0,0,-1,783,1093,0,0
-434,-69,0,0,0,0,0,0,0,0,0,-1,790,1093,0,0
-427,-69,0,0,0,0,0,0,0,0,0,-1,797,1093,0,0
-420,-69,0,0,0,0,0,0,0,0,0,-1,804,1093,0,0
-413,-69,0,0,0,0,0,0,0,0,0,-1,811,1093,0,0
-406,-69,0,0,0,0,0,0,0,0,0,-1,818,1093,0,0
-399,-69,0,0,0,0,0,0,0,0,0,-1,825,1093,0,0
-392,-69,0,0,0,0,0,0,0,0,0,-1,832,1093,0,0
-385,-69,0,0,0,0,0,0,0,0,0,-1,839,1093,0,0
-378,-69,0,0,0,0,0,0,0,0,0,-1,846,1093,0,0
-371,-69,0,0,0,0,0,0,0,0,0,-1,853,1093,0,0
-364,-69,0,0,0,0,0,0,0,0,0,-1,860,1093,0,0
-357,-69,0,0,0,0,0,0,0,0,0,-1,867,1093,0,0
-350,-69,0,0,0,0,0,0,0,0,0,-1,874,1093,0,0
-343,-69,0,0,0,0,0,0,0,0,0,-1,881,1093,0,0
-336,-69,0,0,0,0,0,0,0,0,0,-1,888,1093,0,0
-329,-69,0,0,0,0,0,0,0,0,0,-1,895,1093,0,0
-322,-69,0,0,0,0,0,0,0,0,0,-1,902,1093,0,0
-315,-69,0,0,0,0,0,0,0,0,0,-1,909,1093,0,0
-308,-69,0,0,0,0,0,0,0,0,0,-1,916,1093,0,0
-301,-69,0,0,0,0,0,0,0,0,0,-1,923,1093,0,0
-294,-69,0,0,0,0,0,0,0,0,0,-1,930,1093,0,0
-287,-69,0,0,0,0,0,0,0,0,0,-1,937,1093,0,0
-280,-69,0,0,0,0,0,0,0,0,0,-1,944,1093,0,0
-273,-69,0,0,0,0,0,0,0,0,0,-1,951,1093,0,0
-266,-69,0,0,0,0,0,0,0,0,0,-1,958,1093,0,0
-259,-69,0,0,0,0,0,0,0,0,0,-1,965,1093,0,0
-252,-69,0,0,0,0,0,0,0,0,0,-1,972,1093,0,0
-245,-69,0,0,0,0,0,0,0,0,0,-1,979,1093,0,0
-238,-69,0,0,0,0,0,0,0,0,0,-1,986,1093,0,0
-231,-69,0,0,0,0,0,0,0,0,0,-1,993,1093,0,0
-224,-69,0,0,0,0,0,0,0,0,0,-1,1000,1093,0,0
-217,-69,0,0,0,0,0,0,0,0,0,-1,1007,1093,0,0
-210,-69,0,0,0,0,0,0,0,0,0,-1,1014,1093,0,0
-203,-69,0,0,0,0,0,0,0,0,0,-1,1021,1093,0,0
-196,-69,0,0,0,0,0,0,0,0,0,-1,1028,1093,0,0
-189,-69,0,0,0,0,0,0,0,0,0,-1,1035,1093,0,0
-182,-69,0,0,0,0,0,0,0,0,0,-1,1042,1093,0,0
-175,-69,0,0,0,0,0,0,0,0,0,-1,1049,1093,0,0
-168,-69,0,0,0,0,0,0,0,0,0,-1,1056,1093,0,0
-161,-69,0,0,0,0,0,0,0,0,0,-1,1063,1093,0,0
-154,-69,0,0,0,0,0,0,0,0,0,-1,1070,1093,0,0
-147,-69,0,0,0,0,0,0,0,0,0,-1,1077,1093,0,0
-140,-69,0,0,0,0,0,0,0,0,0,-1,1084,1093,0,0
-133,-69,0,0,0,0,0,0,0,0,0,-1,1091,1093,0,0
-126,-69,0,0,0,0,0,0,0,0,0,-1,1098,1093,0,0
-119,-69,0,0,0,0,0,0,0,0,0,-1,1105,1093,0,0
-112,-69,0,0,0,0,0,0,0,0,0,-1,1112,1093,0,0
-105,-69,0,0,0,0,0,0,0,0,0,-1,1119,1093,0,0
-98,-69,0,0,0,0,0,0,0,0,0,-1,1126,1093,0,0
-91,-69,0,0,0,0,0,0,0,0,0,-1,1133,1093,0,0
-84,-69,0,0,0,0,0,0,0,0,0,-1,1140,1093,0,0
-77,-69,0,0,0,0,0,0,0,0,0,-1,1147,1093,0,0
-70,-69,0,0,0,0,0,0,0,0,0,-1,1154,1093,0,0
-63,-69,0,0,0,0,0,0,0,0,0,-1,1161,1093,0,0
-56,-69,0,0,0,0,0,0,0,0,0,-1,1168,1093,0,0
-49,-69,0,0,0,0,0,0,0,0,0,-1,1175,1093,0,0
-42,-69,0,0,0,0,0,0,0,0,0,-1,1182,1093,0,0
-35,-69,0,0,0,0,0,0,0,0,0,-1,1189,1093,0,0
-28,-69,0,0,0,0,0,0,0,0,0,-1,1196,1093,0,0
-21,-69,0,0,0,0,0,0,0,0,0,-1,1203,1093,0,0
-14,-69,0,0,0,0,0,0,0,0,0,-1,1210,1093,0,0
-7,-69,0,0,0,0,0,0,0,0,0,-1,1217,1093,0,0
0,-69,0,0,0,0,0,0,0,0,0,-1,1224,1093,0,0
7,-69,0,0,0,0,0,0,0,0,0,-1,1231,1093,0,0
14,-69,0,0,0,0,0,0,0,0,0,-1,1238,1093,0,0
21,-69,0,0,0,0,0,0,0,0,0,-1,1245,1093,0,0
28,-69,0,0,0,0,0,0,0,0,0,-1,1252,1093,0,0
35,-69,0,0,0,0,0,0,0,0,0,-1,1259,1093,0,0
42,-69,0,0,0,0,0,0,0,0,0,-1,1266,1093,0,0
49,-69,0,0,0,0,0,0,0,0,0,-1,1273,1093,0,0
56,-69,0,0,0,0,0,0,0,0,0,-1,1280,1093,0,0
63,-69,0,0,0,0,0,0,0,0,0,-1,1287,1093,0,0
70,-69,0,0,0,0,0,0,0,0,0,-1,1294,1093,0,0
77,-69,0,0,0,0,0,0,0,0,0,-1,1301,1093,0,0
84,-69,0,0,0,0,0,0,0,0,0,-1,1308,1093,0,0
91,-69,0,0,0,0,0,0,0,0,0,-1,1315,1093,0,0
98,-69,0,0,0,0,0,0,0,0,0,-1,1322,1093,0,0
105,-69,0,0,0,0,0,0,0,0,0,-1,1329,1093,0,0
112,-69,0,0,0,0,0,0,0,0,0,-1,1336,1093,0,0
119,-69,0,0,0,0,0,0,0,0,0,-1,1343,1093,0,0
126,-69,0,0,0,0,0,0,0,0,0,-1,1350,1093,0,0
133,-69,0,0,0,0,0,0,0,0,0,-1,1357,1093,0,0
140,-69,0,0,0,0,0,0,0,0,0,-1,1364,1093,0,0
147,-69,0,0,0,0,0,0,0,0,0,-1,1371,1093,0,0
154,-69,0,0,0,0,0,0,0,0,0,-1,1378,1093,0,0
161,-69,0,0,0,0,0,0,0,0,0,-1,1385,1093,0,0
168,-69,0,0,0,0,0,0,0,0,0,-1,1392,1093,0,0
175,-69,0,0,0,0,0,0,0,0,0,-1,1399,1093,0,0
182,-69,0,0,0,0,0,0,0,0,0,-1,1406,1093,0,0
189,-69,0,0,0,0,0,0,0,0,0,-1,1413,1093,0,0
196,-69,0,0,0,0,0,0,0,0,0,-1,1420,1093,0,0
203,-69,0,0,0,0,0,0,0,0,0,-1,1427,1093,0,0
210,-69,0,0,0,0,0,0,0,0,0,-1,1434,1093,0,0
217,-69,0,0,0,0,0,0,0,0,0,-1,1441,1093,0,0
224,-69,0,0,0,0,0,0,0,0,0,-1,1448,1093,0,0
231,-69,0,0,0,0,0,0,0,0,0,-1,1455,1093,0,0
238,-69,0,0,0,0,0,0,0,0,0,-1,1462,1093,0,0
245,-69,0,0,0,0,0,0,0,0,0,-1,1469,1093,0,0
252,-69,0,0,0,0,0,0,0,0,0,-1,1476,1093,0,0
259,-69,0,0,0,0,0,0,0,0,0,-1,1483,1093,0,0
266,-69,0,0,0,0,0,0,0,0,0,-1,1490,1093,0,0
273,-69,0,0,0,0,0,0,0,0,0,-1,1497,1093,0,0
280,-69,0,0,0,0,0,0,0,0,0,-1,1504,1093,0,0
287,-69,0,0,0,0,0,0,0,0,0,-1,1511,1093,0,0
294,-69,0,0,0,0,0,0,0,0,0,-1,1518,1093,0,0
301,-69,0,0,0,0,0,0,0,0,0,-1,1525,1093,0,0
308,-69,0,0,0,0,0,0,0,0,0,-1,1532,1093,0,0
315,-69,0,0,0,0,0,0,0,0,0,-1,1539,1093,0,0
322,-69,0,0,0,0,0,0,0,0,0,-1,1546,1093,0,0
329,-69,0,0,0,0,0,0,0,0,0,-1,1553,1093,0,0
336,-69,0,0,0,0,0,0,0,0,0,-1,1560,1093,0,0
343,-69,0,0,0,0,0,0,0,0,0,-1,1567,1093,0,0
350,-69,0,0,0,0,0,0,0,0,0,-1,1574,1093,0,0
357,-69,0,0,0,0,0,0,0,0,0,-1,1581,1093,0,0
364,-69,0,0,0,0,0,0,0,0,0,-1,1588,1093,0,0
371,-69,0,0,0,0,0,0,0,0,0,-1,1595,1093,0,0
378,-69,0,0,0,0,0,0,0,0,0,-1,1602,1093,0,0
385,-69,0,0,0,0,0,0,0,0,0,-1,1609,1093,0,0
392,-69,0,0,0,0,0,0,0,0,0,-1,1616,1093,0,0
399,-69,0,0,0,0,0,0,0,0,0,-1,1623,1093,0,0
406,-69,0,0,0,0,0,0,0,0,0,-1,1630,1093,0,0
413,-69,0,0,0,0,0,0,0,0,0,-1,1637,1093,0,0
420,-69,0,0,0,0,0,0,0,0,0,-1,1644,1093,0,0
427,-69,0,0,0,0,0,0,0,0,0,-1,1651,1093,0,0
434,-69,0,0,0,0,0,0,0,0,0,-1,1658,1093,0,0
441,-69,0,0,0,0,0,0,0,0,0,-1,1665,1093,0,0
448,-69,0,0,0,0,0,0,0,0,0,-1,1672,1093,0,0
455,-69,0,0,0,0,0,0,0,0,0,-1,1679,1093,0,0
462,-69,0,0,0,0,0,0,0,0,0,-1,1686,1093,0,0
469,-69,0,0,0,0,0,0,0,0,0,-1,1693,1093,0,0
476,-69,0,0,0,0,0,0,0,0,0,-1,1700,1093,0,0
483,-69,0,0,0,0,0,0,0,0,0,-1,1707,1093,0,0
490,-69,0,0,0,0,0,0,0,0,0,-1,1714,1093,0,0
497,-69,0,0,0,0,0,0,0,0,0,-1,1721,1093,0,0
504,-69,0,0,0,0,0,0,0,0,0,-1,1728,1093,0,0
511,-69,0,0,0,0,0,0,0,0,0,-1,1735,1093,0,0
518,-69,0,0,0,0,0,0,0,0,0,-1,1742,1093,0,0
525,-69,0,0,0,0,0,0,0,0,0,-1,1749,1093,0,0
532,-69,0,0,0,0,0,0,0,0,0,-1,1756,1093,0,0
539,-69,0,0,0,0,0,0,0,0,0,-1,1763,1093,0,0
546,-69,0,0,0,0,0,0,0,0,0,-1,1770,1093,0,0
553,-69,0,0,0,0,0,0,0,0,0,-1,1777,1093,0,0
560,-69,0,0,0,0,0,0,0,0,0,-1,1784,1093,0,0
567,-69,0,0,0,0,0,0,0,0,0,-1,1791,1093,0,0
574,-69,0,0,0,0,0,0,0,0,0,-1,1798,1093,0,0
581,-69,0,0,0,0,0,0,0,0,0,-1,1805,1093,0,0
588,-69,0,0,0,0,0,0,0,0,0,-1,1812,1093,0,0
595,-69,0,0,0,0,0,0,0,0,0,-1,1819,1093,0,0
602,-69,0,0,0,0,0,0,0,0,0,-1,1826,1093,0,0
609,-69,0,0,0,0,0,0,0,0,0,-1,1833,1093,0,0
616,-69,0,0,0,0,0,0,0,0,0,-1,1840,1093,0,0
623,-69,0,0,0,0,0,0,0,0,0,-1,1847,1093,0,0
630,-69,0,0,0,0,0,0,0,0,0,-1,1854,1093,0,0
637,-69,0,0,0,0,0,0,0,0,0,-1,1861,1093,0,0
644,-69,0,0,0,0,0,0,0,0,0,-1,1868,1093,0,0
651,-69,214.482,8.52356,0,0,0,0,0,0,0,-1,1875,1093,214.482,-8.52359
658,-69,214.553,8.54639,0,0,0,0,0,0,0,-1,1882,1093,214.553,-8.5464
665,-69,214.724,8.64099,0,0,0,0,0,0,0,-1,1889,1093,214.724,-8.64095
672,-69,214.592,8.63269,0,0,0,0,0,0,0,-1,1896,1093,214.592,-8.63274
679,-69,214.705,8.6615,0,0,0,0,0,0,0,-1,1903,1093,214.705,-8.66146
686,-69,214.771,8.72473,0,0,0,0,0,0,0,-1,1910,1093,214.771,-8.72479
693,-69,214.784,8.55994,0,0,0,0,0,0,0,-1,1917,1093,214.784,-8.55991
700,-69,214.811,8.37158,0,0,0,0,0,0,0,-1,1924,1093,214.811,-8.37153
707,-69,214.76,8.36377,0,0,0,0,0,0,0,-1,1931,1093,214.759,-8.36379
714,-69,214.735,8.57458,0,0,0,0,0,0,0,-1,1938,1093,214.735,-8.5746
721,-69,214.647,8.93713,0,0,0,0,0,0,0,-1,1945,1093,214.647,-8.93714
728,-69,215.688,33.1349,0,0,0,0,0,0,0,-1,1952,1093,215.688,-33.1349
735,-69,216.049,32.7539,-0.00939809,-0.00884253,0.00438264,-0.00472888,-0.0135117,0.817047,0.00791719,0.0471351,1959,1093,216.049,-32.7539
742,-69,215.953,32.5769,-0.0126713,0.000680625,0.00407714,0.00182716,-0.0138178,1.29666,0.00987744,0.0410541,1966,1093,215.953,-32.5769
749,-69,215.92,32.1652,0,0,0,0,0,0,0,-1,1973,1093,215.921,-32.1652
756,-69,215.758,31.8527,-0.019831,0.0196866,0.00372971,0.0200355,-0.0201799,1.47751,0.0232184,0.020518,1980,1093,215.758,-31.8526
763,-69,215.622,31.5342,-0.0235922,0.0291556,0.00361451,0.0294021,-0.0238387,1.5027,0.0307945,0.0295526,1987,1093,215.622,-31.5341
770,-69,215.307,31.3994,-0.0273822,0.0386024,0.00348442,0.0387859,-0.0275657,1.51818,0.0384903,0.0371196,1994,1093,215.307,-31.3994
777,-69,215.138,31.2893,-0.0311246,0.0480348,0.0032945,0.0481716,-0.0312615,1.52927,0.0462058,0.0421874,2001,1093,215.138,-31.2893
784,-69,215.114,30.4255,0,0,0,0,0,0,0,-1,2008,1093,215.114,-30.4255
791,-69,211.786,30.1648,0,0,0,0,0,0,0,-1,2015,1093,211.786,-30.1648
798,-69,130.727,14.436,0,0,0,0,0,0,0,-1,2022,1093,130.727,-14.4361
805,-69,141.347,18.6334,0,0,0,0,0,0,0,-1,2029,1093,141.347,-18.6334
812,-69,141.898,18.0513,0,0,0,0,0,0,0,-1,2036,1093,141.898,-18.0513
-700,-76,0,0,0,0,0,0,0,0,0,-1,524,1100,0,0
-693,-76,-84.1913,0.912598,0,0,0,0,0,0,0,-1,531,1100,-84.1913,-0.912564
-686,-76,-84.7185,2.40625,0,0,0,0,0,0,0,-1,538,1100,-84.7185,-2.40624
-679,-76,-85.125,4.04797,0,0,0,0,0,0,0,-1,545,1100,-85.125,-4.04794
-672,-76,-85.447,5.35437,0,0,0,0,0,0,0,-1,552,1100,-85.447,-5.35438
-665,-76,-85.3085,6.47705,0,0,0,0,0,0,0,-1,559,1100,-85.3085,-6.47707
-658,-76,-67.4031,4.96143,0,0,0,0,0,0,0,-1,566,1100,-67.4031,-4.9614
-651,-76,-182.68,30.7188,0,0,0,0,0,0,0,-1,573,1100,-182.68,-30.7187
-644,-76,-207.397,30.4414,0,0,0,0,0,0,0,-1,580,1100,-207.397,-30.4414
-637,-76,-207.479,30.7019,-0.014613,0.0380716,-0.00171023,0.038127,-0.0146684,-1.53838,0.0314685,0.0340853,587,1100,-207.479,-30.7019
-630,-76,-207.52,30.9965,-0.0116936,0.0307277,-0.00105221,0.0307538,-0.0117196,-1.54601,0.0253295,0.0208213,594,1100,-207.52,-30.9964
-623,-76,-207.604,31.2606,-0.00867235,0.0233158,-0.000498769,0.0233236,-0.00868013,-1.55521,0.0191112,0.0293654,601,1100,-207.604,-31.2606
-616,-76,-207.732,31.5901,-0.00555015,0.0158323,-7.42278e-05,0.0158326,-0.0055504,-1.56732,0.0128124,0.0304452,608,1100,-207.732,-31.59
-609,-76,-207.751,31.9946,-0.00232873,0.00827487,0.000198231,0.00827857,-0.00233243,1.55211,0.00643892,0.0287147,615,1100,-207.751,-31.9946
-602,-76,-207.697,32.3055,0.000989455,0.000641834,0.000296298,0.00115916,0.00047213,0.520142,0.000673064,0.024365,622,1100,-207.697,-32.3056
-595,-76,-207.764,32.4194,0.00433442,-0.00683405,0.000347695,0.00434523,-0.00684486,0.0310918,0.00651411,0.0411514,629,1100,-207.764,-32.4195
-588,-76,-207.961,32.4203,0,0,0,0,0,0,0,-1,636,1100,-207.961,-32.4203
-581,-76,-72.097,0.376953,0,0,0,0,0,0,0,-1,643,1100,-72.097,-0.377007
-574,-76,-72.0711,0.447632,0,0,0,0,0,0,0,-1,650,1100,-72.0711,-0.44758
-567,-76,-72.015,0.546509,0,0,0,0,0,0,0,-1,657,1100,-72.015,-0.546474
-560,-76,-72.2302,0.441284,0,0,0,0,0,0,0,-1,664,1100,-72.2302,-0.44127
-553,-76,-72.1963,0.22937,0,0,0,0,0,0,0,-1,671,1100,-72.1963,-0.229379
-546,-76,-72.09,0.186401,0,0,0,0,0,0,0,-1,678,1100,-72.09,-0.186419
-539,-76,-72.1268,0.189087,0,0,0,0,0,0,0,-1,685,1100,-72.1268,-0.18903
-532,-76,-72.0507,0.187256,0,0,0,0,0,0,0,-1,692,1100,-72.0507,-0.187309
-525,-76,0,0,0,0,0,0,0,0,0,-1,699,1100,0,0
-518,-76,0,0,0,0,0,0,0,0,0,-1,706,1100,0,0
-511,-76,0,0,0,0,0,0,0,0,0,-1,713,1100,0,0
-504,-76,0,0,0,0,0,0,0,0,0,-1,720,1100,0,0
-497,-76,0,0,0,0,0,0,0,0,0,-1,727,1100,0,0
-490,-76,0,0,0,0,0,0,0,0,0,-1,734,1100,0,0
-483,-76,0,0,0,0,0,0,0,0,0,-1,741,1100,0,0
-476,-76,0,0,0,0,0,0,0,0,0,-1,748,1100,0,0
-469,-76,0,0,0,0,0,0,0,0,0,-1,755,1100,0,0
-462,-76,0,0,0,0,0,0,0,0,0,-1,762,1100,0,0
-455,-76,0,0,0,0,0,0,0,0,0,-1,769,1100,0,0
-448,-76,0,0,0,0,0,0,0,0,0,-1,776,1100,0,0
-441,-76,0,0,0,0,0,0,0,0,0,-1,783,1100,0,0
-434,-76,0,0,0,0,0,0,0,0,0,-1,790,1100,0,0
-427,-76,0,0,0,0,0,0,0,0,0,-1,797,1100,0,0
-420,-76,0,0,0,0,0,0,0,0,0,-1,804,1100,0,0
-413,-76,0,0,0,0,0,0,0,0,0,-1,811,1100,0,0
-406,-76,0,0,0,0,0,0,0,0,0,-1,818,1100,0,0
-399,-76,0,0,0,0,0,0,0,0,0,-1,825,1100,0,0
-392,-76,0,0,0,0,0,0,0,0,0,-1,832,1100,0,0
-385,-76,0,0,0,0,0,0,0,0,0,-1,839,1100,0,0
-378,-76,0,0,0,0,0,0,0,0,0,-1,846,1100,0,0
-371,-76,0,0,0,0,0,0,0,0,0,-1,853,1100,0,0
-364,-76,0,0,0,0,0,0,0,0,0,-1,860,1100,0,0
-357,-76,0,0,0,0,0,0,0,0,0,-1,867,1100,0,0
-350,-76,0,0,0,0,0,0,0,0,0,-1,874,1100,0,0
-343,-76,0,0,0,0,0,0,0,0,0,-1,881,1100,0,0
-336,-76,0,0,0,0,0,0,0,0,0,-1,888,1100,0,0
-329,-76,0,0,0,0,0,0,0,0,0,-1,895,1100,0,0
-322,-76,0,0,0,0,0,0,0,0,0,-1,902,1100,0,0
-315,-76,0,0,0,0,0,0,0,0,0,-1,909,1100,0,0
-308,-76,0,0,0,0,0,0,0,0,0,-1,916,1100,0,0
-301,-76,0,0,0,0,0,0,0,0,0,-1,923,1100,0,0
-294,-76,0,0,0,0,0,0,0,0,0,-1,930,1100,0,0
-287,-76,0,0,0,0,0,0,0,0,0,-1,937,1100,0,0
-280,-76,0,0,0,0,0,0,0,0,0,-1,944,1100,0,0
-273,-76,0,0,0,0,0,0,0,0,0,-1,951,1100,0,0
-266,-76,0,0,0,0,0,0,0,0,0,-1,958,1100,0,0
-259,-76,0,0,0,0,0,0,0,0,0,-1,965,1100,0,0
-252,-76,0,0,0,0,0,0,0,0,0,-1,972,1100,0,0
-245,-76,0,0,0,0,0,0,0,0,0,-1,979,1100,0,0
-238,-76,0,0,0,0,0,0,0,0,0,-1,986,1100,0,0
-231,-76,0,0,0,0,0,0,0,0,0,-1,993,1100,0,0
-224,-76,0,0,0,0,0,0,0,0,0,-1,1000,1100,0,0
-217,-76,0,0,0,0,0,0,0,0,0,-1,1007,1100,0,0
-210,-76,0,0,0,0,0,0,0,0,0,-1,1014,1100,0,0
-203,-76,0,0,0,0,0,0,0,0,0,-1,1021,1100,0,0
-196,-76,0,0,0,0,0,0,0,0,0,-1,1028,1100,0,0
-189,-76,0,0,0,0,0,0,0,0,0,-1,1035,1100,0,0
-182,-76,0,0,0,0,0,0,0,0,0,-1,1042,1100,0,0
-175,-76,0,0,0,0,0,0,0,0,0,-1,1049,1100,0,0
-168,-76,0,0,0,0,0,0,0,0,0,-1,1056,1100,0,0
-161,-76,0,0,0,0,0,0,0,0,0,-1,1063,1100,0,0
-154,-76,0,0,0,0,0,0,0,0,0,-1,1070,1100,0,0
-147,-76,0,0,0,0,0,0,0,0,0,-1,1077,1100,0,0
-140,-76,0,0,0,0,0,0,0,0,0,-1,1084,1100,0,0
-133,-76,0,0,0,0,0,0,0,0,0,-1,1091,1100,0,0
-126,-76,0,0,0,0,0,0,0,0,0,-1,1098,1100,0,0
-119,-76,0,0,0,0,0,0,0,0,0,-1,1105,1100,0,0
-112,-76,0,0,0,0,0,0,0,0,0,-1,1112,1100,0,0
-105,-76,0,0,0,0,0,0,0,0,0,-1,1119,1100,0,0
-98,-76,0,0,0,0,0,0,0,0,0,-1,1126,1100,0,0
-91,-76,0,0,0,0,0,0,0,0,0,-1,1133,1100,0,0
-84,-76,0,0,0,0,0,0,0,0,0,-1,1140,1100,0,0
-77,-76,0,0,0,0,0,0,0,0,0,-1,1147,1100,0,0
-70,-76,0,0,0,0,0,0,0,0,0,-1,1154,1100,0,0
-63,-76,0,0,0,0,0,0,0,0,0,-1,1161,1100,0,0
-56,-76,0,0,0,0,0,0,0,0,0,-1,1168,1100,0,0
-49,-76,0,0,0,0,0,0,0,0,0,-1,1175,1100,0,0
-42,-76,0,0,0,0,0,0,0,0,0,-1,1182,1100,0,0
-35,-76,0,0,0,0,0,0,0,0,0,-1,1189,1100,0,0
-28,-76,0,0,0,0,0,0,0,0,0,-1,1196,1100,0,0
-21,-76,0,0,0,0,0,0,0,0,0,-1,1203,1100,0,0
-14,-76,0,0,0,0,0,0,0,0,0,-1,1210,1100,0,0
-7,-76,0,0,0,0,0,0,0,0,0,-1,1217,1100,0,0
0,-76,0,0,0,0,0,0,0,0,0,-1,1224,1100,0,0
7,-76,0,0,0,0,0,0,0,0,0,-1,1231,1100,0,0
14,-76,0,0,0,0,0,0,0,0,0,-1,1238,1100,0,0
21,-76,0,0,0,0,0,0,0,0,0,-1,1245,1100,0,0
28,-76,0,0,0,0,0,0,0,0,0,-1,1252,1100,0,0
35,-76,0,0,0,0,0,0,0,0,0,-1,1259,1100,0,0
42,-76,0,0,0,0,0,0,0,0,0,-1,1266,1100,0,0
49,-76,0,0,0,0,0,0,0,0,0,-1,1273,1100,0,0
56,-76,0,0,0,0,0,0,0,0,0,-1,1280,1100,0,0
63,-76,0,0,0,0,0,0,0,0,0,-1,1287,1100,0,0
70,-76,0,0,0,0,0,0,0,0,0,-1,1294,1100,0,0
77,-76,0,0,0,0,0,0,0,0,0,-1,1301,1100,0,0
84,-76,0,0,0,0,0,0,0,0,0,-1,1308,1100,0,0
91,-76,0,0,0,0,0,0,0,0,0,-1,1315,1100,0,0
98,-76,0,0,0,0,0,0,0,0,0,-1,1322,1100,0,0
105,-76,0,0,0,0,0,0,0,0,0,-1,1329,1100,0,0
112,-76,0,0,0,0,0,0,0,0,0,-1,1336,1100,0,0
119,-76,0,0,0,0,0,0,0,0,0,-1,1343,1100,0,0
126,-76,0,0,0,0,0,0,0,0,0,-1,1350,1100,0,0
133,-76,0,0,0,0,0,0,0,0,0,-1,1357,1100,0,0
140,-76,0,0,0,0,0,0,0,0,0,-1,1364,1100,0,0
147,-76,0,0,0,0,0,0,0,0,0,-1,1371,1100,0,0
154,-76,0,0,0,0,0,0,0,0,0,-1,1378,1100,0,0
161,-76,0,0,0,0,0,0,0,0,0,-1,1385,1100,0,0
168,-76,0,0,0,0,0,0,0,0,0,-1,1392,1100,0,0
175,-76,0,0,0,0,0,0,0,0,0,-1,1399,1100,0,0
182,-76,0,0,0,0,0,0,0,0,0,-1,1406,1100,0,0
189,-76,0,0,0,0,0,0,0,0,0,-1,1413,1100,0,0
196,-76,0,0,0,0,0,0,0,0,0,-1,1420,1100,0,0
203,-76,0,0,0,0,0,0,0,0,0,-1,1427,1100,0,0
210,-76,0,0,0,0,0,0,0,0,0,-1,1434,1100,0,0
217,-76,0,0,0,0,0,0,0,0,0,-1,1441,1100,0,0
224,-76,0,0,0,0,0,0,0,0,0,-1,1448,1100,0,0
231,-76,0,0,0,0,0,0,0,0,0,-1,1455,1100,0,0
238,-76,0,0,0,0,0,0,0,0,0,-1,1462,1100,0,0
245,-76,0,0,0,0,0,0,0,0,0,-1,1469,1100,0,0
252,-76,0,0,0,0,0,0,0,0,0,-1,1476,1100,0,0
259,-76,0,0,0,0,0,0,0,0,0,-1,1483,1100,0,0
266,-76,0,0,0,0,0,0,0,0,0,-1,1490,1100,0,0
273,-76,0,0,0,0,0,0,0,0,0,-1,1497,1100,0,0
280,-76,0,0,0,0,0,0,0,0,0,-1,1504,1100,0,0
287,-76,0,0,0,0,0,0,0,0,0,-1,1511,1100,0,0
294,-76,0,0,0,0,0,0,0,0,0,-1,1518,1100,0,0
301,-76,0,0,0,0,0,0,0,0,0,-1,1525,1100,0,0
308,-76,0,0,0,0,0,0,0,0,0,-1,1532,1100,0,0
315,-76,0,0,0,0,0,0,0,0,0,-1,1539,1100,0,0
322,-76,0,0,0,0,0,0,0,0,0,-1,1546,1100,0,0
329,-76,0,0,0,0,0,0,0,0,0,-1,1553,1100,0,0
336,-76,0,0,0,0,0,0,0,0,0,-1,1560,1100,0,0
343,-76,0,0,0,0,0,0,0,0,0,-1,1567,1100,0,0
350,-76,0,0,0,0,0,0,0,0,0,-1,1574,1100,0,0
357,-76,0,0,0,0,0,0,0,0,0,-1,1581,1100,0,0
364,-76,0,0,0,0,0,0,0,0,0,-1,1588,1100,0,0
371,-76,0,0,0,0,0,0,0,0,0,-1,1595,1100,0,0
378,-76,0,0,0,0,0,0,0,0,0,-1,1602,1100,0,0
385,-76,0,0,0,0,0,0,0,0,0,-1,1609,1100,0,0
392,-76,0,0,0,0,0,0,0,0,0,-1,1616,1100,0,0
399,-76,0,0,0,0,0,0,0,0,0,-1,1623,1100,0,0
406,-76,0,0,0,0,0,0,0,0,0,-1,1630,1100,0,0
413,-76,0,0,0,0,0,0,0,0,0,-1,1637,1100,0,0
420,-76,0,0,0,0,0,0,0,0,0,-1,1644,1100,0,0
427,-76,0,0,0,0,0,0,0,0,0,-1,1651,1100,0,0
434,-76,0,0,0,0,0,0,0,0,0,-1,1658,1100,0,0
441,-76,0,0,0,0,0,0,0,0,0,-1,1665,1100,0,0
448,-76,0,0,0,0,0,0,0,0,0,-1,1672,1100,0,0
455,-76,0,0,0,0,0,0,0,0,0,-1,1679,1100,0,0
462,-76,0,0,0,0,0,0,0,0,0,-1,1686,1100,0,0
469,-76,0,0,0,0,0,0,0,0,0,-1,1693,1100,0,0
476,-76,0,0,0,0,0,0,0,0,0,-1,1700,1100,0,0
483,-76,0,0,0,0,0,0,0,0,0,-1,1707,1100,0,0
490,-76,0,0,0,0,0,0,0,0,0,-1,1714,1100,0,0
497,-76,0,0,0,0,0,0,0,0,0,-1,1721,1100,0,0
504,-76,0,0,0,0,0,0,0,0,0,-1,1728,1100,0,0
511,-76,0,0,0,0,0,0,0,0,0,-1,1735,1100,0,0
518,-76,0,0,0,0,0,0,0,0,0,-1,1742,1100,0,0
525,-76,0,0,0,0,0,0,0,0,0,-1,1749,1100,0,0
532,-76,0,0,0,0,0,0,0,0,0,-1,1756,1100,0,0
539,-76,0,0,0,0,0,0,0,0,0,-1,1763,1100,0,0
546,-76,0,0,0,0,0,0,0,0,0,-1,1770,1100,0,0
553,-76,0,0,0,0,0,0,0,0,0,-1,1777,1100,0,0
560,-76,0,0,0,0,0,0,0,0,0,-1,1784,1100,0,0
567,-76,0,0,0,0,0,0,0,0,0,-1,1791,1100,0,0
574,-76,0,0,0,0,0,0,0,0,0,-1,1798,1100,0,0
581,-76,0,0,0,0,0,0,0,0,0,-1,1805,1100,0,0
588,-76,0,0,0,0,0,0,0,0,0,-1,1812,1100,0,0
595,-76,0,0,0,0,0,0,0,0,0,-1,1819,1100,0,0
602,-76,0,0,0,0,0,0,0,0,0,-1,1826,1100,0,0
609,-76,0,0,0,0,0,0,0,0,0,-1,1833,1100,0,0
616,-76,0,0,0,0,0,0,0,0,0,-1,1840,1100,0,0
623,-76,0,0,0,0,0,0,0,0,0,-1,1847,1100,0,0
630,-76,0,0,0,0,0,0,0,0,0,-1,1854,1100,0,0
637,-76,0,0,0,0,0,0,0,0,0,-1,1861,1100,0,0
644,-76,0,0,0,0,0,0,0,0,0,-1,1868,1100,0,0
651,-76,214.586,8.50659,0,0,0,0,0,0,0,-1,1875,1100,214.586,-8.50661
658,-76,214.582,8.53198,0,0,0,0,0,0,0,-1,1882,1100,214.582,-8.53201
665,-76,214.688,8.55432,0,0,0,0,0,0,0,-1,1889,1100,214.688,-8.55437
672,-76,214.668,8.48572,0,0,0,0,0,0,0,-1,1896,1100,214.668,-8.48566
679,-76,214.66,8.53271,0,0,0,0,0,0,0,-1,1903,1100,214.66,-8.53272
686,-76,214.813,8.72913,0,0,0,0,0,0,0,-1,1910,1100,214.813,-8.72915
693,-76,214.754,8.51953,0,0,0,0,0,0,0,-1,1917,1100,214.754,-8.51958
700,-76,214.752,8.23865,0,0,0,0,0,0,0,-1,1924,1100,214.752,-8.23864
707,-76,214.721,8.43994,0,0,0,0,0,0,0,-1,1931,1100,214.721,-8.43999
714,-76,214.792,8.50964,0,0,0,0,0,0,0,-1,1938,1100,214.792,-8.50966
721,-76,45.1713,3.04919,0,0,0,0,0,0,0,-1,1945,1100,45.1713,-3.04915
728,-76,156.902,25.9305,0,0,0,0,0,0,0,-1,1952,1100,156.902,-25.9305
735,-76,215.443,32.9991,0,0,0,0,0,0,0,-1,1959,1100,215.443,-32.9991
742,-76,215.541,32.6044,-0.0120041,0.000986355,0.00484876,0.00259659,-0.0136143,1.25016,0.0100541,0.0429413,1966,1100,215.541,-32.6043
749,-76,215.372,32.1129,0,0,0,0,0,0,0,-1,1973,1100,215.372,-32.1129
756,-76,215.383,31.7457,-0.0193285,0.0202644,0.00419937,0.0207049,-0.019769,1.46628,0.0233697,0.0214356,1980,1100,215.383,-31.7457
763,-76,215.166,31.484,-0.0232409,0.0298664,0.00400763,0.0301671,-0.0235416,1.4959,0.0310873,0.0281898,1987,1100,215.166,-31.484
770,-76,214.898,31.2429,-0.0272382,0.0394467,0.00384312,0.0396675,-0.027459,1.51342,0.0389686,0.0313758,1994,1100,214.898,-31.243
777,-76,214.677,31.1899,-0.0312514,0.0490148,0.0036559,0.049181,-0.0314176,1.52537,0.0469088,0.0437042,2001,1100,214.677,-31.1899
784,-76,214.54,30.9114,0,0,0,0,0,0,0,-1,2008,1100,214.539,-30.9113
791,-76,210.776,29.9143,0,0,0,0,0,0,0,-1,2015,1100,210.776,-29.9144
798,-76,154.434,19.4275,0,0,0,0,0,0,0,-1,2022,1100,154.434,-19.4275
805,-76,125.512,12.9398,0,0,0,0,0,0,0,-1,2029,1100,125.512,-12.9399
812,-76,140.617,18.4784,0,0,0,0,0,0,0,-1,2036,1100,140.617,-18.4783
-700,-83,0,0,0,0,0,0,0,0,0,-1,524,1107,0,0
-693,-83,-83.7391,1.26392,0,0,0,0,0,0,0,-1,531,1107,-83.7391,-1.26397
-686,-83,-83.9973,2.73779,0,0,0,0,0,0,0,-1,538,1107,-83.9973,-2.73779
-679,-83,-84.214,4.20288,0,0,0,0,0,0,0,-1,545,1107,-84.214,-4.20288
-672,-83,-84.4678,5.47815,0,0,0,0,0,0,0,-1,552,1107,-84.4678,-5.47815
-665,-83,-85.1248,6.91895,0,0,0,0,0,0,0,-1,559,1107,-85.1248,-6.91893
-658,-83,-85.575,8.10474,0,0,0,0,0,0,0,-1,566,1107,-85.575,-8.10475
-651,-83,-206.01,30.3195,0,0,0,0,0,0,0,-1,573,1107,-206.01,-30.3194
-644,-83,-206.675,30.3243,0,0,0,0,0,0,0,-1,580,1107,-206.675,-30.3244
-637,-83,-207.097,30.4569,-0.015092,0.0378851,-0.00292627,0.0380463,-0.0152532,-1.51578,0.0316965,0.0248973,587,1107,-207.097,-30.4569
-630,-83,-207.107,30.7749,-0.0124287,0.0308509,-0.00195531,0.0309391,-0.0125168,-1.52574,0.0258298,0.0249317,594,1107,-207.107,-30.7749
-623,-83,-207.2,31.0532,-0.00968069,0.0236776,-0.00109721,0.0237137,-0.00971674,-1.53795,0.019857,0.0310572,601,1107,-207.2,-31.0532
-616,-83,-207.415,31.4388,-0.0068499,0.0163728,-0.00038101,0.016379,-0.00685615,-1.5544,0.0137853,0.0246559,608,1107,-207.415,-31.4388
-609,-83,-207.405,31.8585,-0.00394042,0.00894356,0.000166004,0.0089457,-0.00394256,1.55791,0.00762564,0.0312221,615,1107,-207.405,-31.8585
-602,-83,-207.364,32.3207,-0.000958034,0.00139696,0.000517865,0.00150581,-0.00106688,1.36363,0.00149253,0.0254704,622,1107,-207.364,-32.3207
-595,-83,-207.344,32.5236,0.00197503,-0.00610136,0.000828313,0.0020591,-0.00618544,0.101157,0.00495473,0.0405925,629,1107,-207.344,-32.5235
-588,-83,-207.53,32.2677,0,0,0,0,0,0,0,-1,636,1107,-207.53,-32.2677
-581,-83,-72.0923,0.283447,0,0,0,0,0,0,0,-1,643,1107,-72.0923,-0.283507
-574,-83,-72.0815,0.412354,0,0,0,0,0,0,0,-1,650,1107,-72.0815,-0.412369
-567,-83,-72.0112,0.552002,0,0,0,0,0,0,0,-1,657,1107,-72.0112,-0.551955
-560,-83,-72.1143,0.244629,0,0,0,0,0,0,0,-1,664,1107,-72.1142,-0.244629
-553,-83,-72.1241,0.0872803,0,0,0,0,0,0,0,-1,671,1107,-72.1241,-0.0872678
-546,-83,-72.0452,0.189331,0,0,0,0,0,0,0,-1,678,1107,-72.0452,-0.189338
-539,-83,-72.0553,0.273926,0,0,0,0,0,0,0,-1,685,1107,-72.0553,-0.273949
-532,-83,-72.0438,0.221191,0,0,0,0,0,0,0,-1,692,1107,-72.0438,-0.221206
-525,-83,0,0,0,0,0,0,0,0,0,-1,699,1107,0,0
-518,-83,0,0,0,0,0,0,0,0,0,-1,706,1107,0,0
-511,-83,0,0,0,0,0,0,0,0,0,-1,713,1107,0,0
-504,-83,0,0,0,0,0,0,0,0,0,-1,720,1107,0,0
-497,-83,0,0,0,0,0,0,0,0,0,-1,727,1107,0,0
-490,-83,0,0,0,0,0,0,0,0,0,-1,734,1107,0,0
-483,-83,0,0,0,0,0,0,0,0,0,-1,741,1107,0,0
-476,-83,0,0,0,0,0,0,0,0,0,-1,748,1107,0,0
-469,-83,0,0,0,0,0,0,0,0,0,-1,755,1107,0,0
-462,-83,0,0,0,0,0,0,0,0,0,-1,762,1107,0,0
-455,-83,0,0,0,0,0,0,0,0,0,-1,769,1107,0,0
-448,-83,0,0,0,0,0,0,0,0,0,-1,776,1107,0,0
-441,-83,0,0,0,0,0,0,0,0,0,-1,783,1107,0,0
-434,-83,0,0,0,0,0,0,0,0,0,-1,790,1107,0,0
-427,-83,0,0,0,0,0,0,0,0,0,-1,797,1107,0,0
-420,-83,0,0,0,0,0,0,0,0,0,-1,804,1107,0,0
-413,-83,0,0,0,0,0,0,0,0,0,-1,811,1107,0,0
-406,-83,0,0,0,0,0,0,0,0,0,-1,818,1107,0,0
-399,-83,0,0,0,0,0,0,0,0,0,-1,825,1107,0,0
-392,-83,0,0,0,0,0,0,0,0,0,-1,832,1107,0,0
-385,-83,0,0,0,0,0,0,0,0,0,-1,839,1107,0,0
-378,-83,0,0,0,0,0,0,0,0,0,-1,846,1107,0,0
-371,-83,0,0,0,0,0,0,0,0,0,-1,853,1107,0,0
-364,-83,0,0,0,0,0,0,0,0,0,-1,860,1107,0,0
-357,-83,0,0,0,0,0,0,0,0,0,-1,867,1107,0,0
-350,-83,0,0,0,0,0,0,0,0,0,-1,874,1107,0,0
-343,-83,0,0,0,0,0,0,0,0,0,-1,881,1107,0,0
-336,-83,0,0,0,0,0,0,0,0,0,-1,888,1107,0,0
-329,-83,0,0,0,0,0,0,0,0,0,-1,895,1107,0,0
-322,-83,0,0,0,0,0,0,0,0,0,-1,902,1107,0,0
-315,-83,0,0,0,0,0,0,0,0,0,-1,909,1107,0,0
-308,-83,0,0,0,0,0,0,0,0,0,-1,916,1107,0,0
-301,-83,0,0,0,0,0,0,0,0,0,-1,923,1107,0,0
-294,-83,0,0,0,0,0,0,0,0,0,-1,930,1107,0,0
-287,-83,0,0,0,0,0,0,0,0,0,-1,937,1107,0,0
-280,-83,0,0,0,0,0,0,0,0,0,-1,944,1107,0,0
-273,-83,0,0,0,0,0,0,0,0,0,-1,951,1107,0,0
-266,-83,0,0,0,0,0,0,0,0,0,-1,958,1107,0,0
-259,-83,0,0,0,0,0,0,0,0,0,-1,965,1107,0,0
-252,-83,0,0,0,0,0,0,0,0,0,-1,972,1107,0,0
-245,-83,0,0,0,0,0,0,0,0,0,-1,979,1107,0,0
-238,-83,0,0,0,0,0,0,0,0,0,-1,986,1107,0,0
-231,-83,0,0,0,0,0,0,0,0,0,-1,993,1107,0,0
-224,-83,0,0,0,0,0,0,0,0,0,-1,1000,1107,0,0
-217,-83,0,0,0,0,0,0,0,0,0,-1,1007,1107,0,0
-210,-83,0,0,0,0,0,0,0,0,0,-1,1014,1107,0,0
-203,-83,0,0,0,0,0,0,0,0,0,-1,1021,1107,0,0
-196,-83,0,0,0,0,0,0,0,0,0,-1,1028,1107,0,0
-189,-83,0,0,0,0,0,0,0,0,0,-1,1035,1107,0,0
-182,-83,0,0,0,0,0,0,0,0,0,-1,1042,1107,0,0
-175,-83,0,0,0,0,0,0,0,0,0,-1,1049,1107,0,0
-168,-83,0,0,0,0,0,0,0,0,0,-1,1056,1107,0,0
-161,-83,0,0,0,0,0,0,0,0,0,-1,1063,1107,0,0
-154,-83,0,0,0,0,0,0,0,0,0,-1,1070,1107,0,0
-147,-83,0,0,0,0,0,0,0,0,0,-1,1077,1107,0,0
-140,-83,0,0,0,0,0,0,0,0,0,-1,1084,1107,0,0
-133,-83,0,0,0,0,0,0,0,0,0,-1,1091,1107,0,0
-126,-83,0,0,0,0,0,0,0,0,0,-1,1098,1107,0,0
-119,-83,0,0,0,0,0,0,0,0,0,-1,1105,1107,0,0
-112,-83,0,0,0,0,0,0,0,0,0,-1,1112,1107,0,0
-105,-83,0,0,0,0,0,0,0,0,0,-1,1119,1107,0,0
-98,-83,0,0,0,0,0,0,0,0,0,-1,1126,1107,0,0
-91,-83,0,0,0,0,0,0,0,0,0,-1,1133,1107,0,0
-84,-83,0,0,0,0,0,0,0,0,0,-1,1140,1107,0,0
-77,-83,0,0,0,0,0,0,0,0,0,-1,1147,1107,0,0
-70,-83,0,0,0,0,0,0,0,0,0,-1,1154,1107,0,0
-63,-83,0,0,0,0,0,0,0,0,0,-1,1161,1107,0,0
-56,-83,0,0,0,0,0,0,0,0,0,-1,1168,1107,0,0
-49,-83,0,0,0,0,0,0,0,0,0,-1,1175,1107,0,0
-42,-83,0,0,0,0,0,0,0,0,0,-1,1182,1107,0,0
-35,-83,0,0,0,0,0,0,0,0,0,-1,1189,1107,0,0
-28,-83,0,0,0,0,0,0,0,0,0,-1,1196,1107,0,0
-21,-83,0,0,0,0,0,0,0,0,0,-1,1203,1107,0,0
-14,-83,0,0,0,0,0,0,0,0,0,-1,1210,1107,0,0
-7,-83,0,0,0,0,0,0,0,0,0,-1,1217,1107,0,0
0,-83,0,0,0,0,0,0,0,0,0,-1,1224,1107,0,0
7,-83,0,0,0,0,0,0,0,0,0,-1,1231,1107,0,0
14,-83,0,0,0,0,0,0,0,0,0,-1,1238,1107,0,0
21,-83,0,0,0,0,0,0,0,0,0,-1,1245,1107,0,0
28,-83,0,0,0,0,0,0,0,0,0,-1,1252,1107,0,0
35,-83,0,0,0,0,0,0,0,0,0,-1,1259,1107,0,0
42,-83,0,0,0,0,0,0,0,0,0,-1,1266,1107,0,0
49,-83,0,0,0,0,0,0,0,0,0,-1,1273,1107,0,0
56,-83,0,0,0,0,0,0,0,0,0,-1,1280,1107,0,0
63,-83,0,0,0,0,0,0,0,0,0,-1,1287,1107,0,0
70,-83,0,0,0,0,0,0,0,0,0,-1,1294,1107,0,0
77,-83,0,0,0,0,0,0,0,0,0,-1,1301,1107,0,0
84,-83,0,0,0,0,0,0,0,0,0,-1,1308,1107,0,0
91,-83,0,0,0,0,0,0,0,0,0,-1,1315,1107,0,0
98,-83,0,0,0,0,0,0,0,0,0,-1,1322,1107,0,0
105,-83,0,0,0,0,0,0,0,0,0,-1,1329,1107,0,0
112,-83,0,0,0,0,0,0,0,0,0,-1,1336,1107,0,0
119,-83,0,0,0,0,0,0,0,0,0,-1,1343,1107,0,0
126,-83,0,0,0,0,0,0,0,0,0,-1,1350,1107,0,0
133,-83,0,0,0,0,0,0,0,0,0,-1,1357,1107,0,0
140,-83,0,0,0,0,0,0,0,0,0,-1,1364,1107,0,0
147,-83,0,0,0,0,0,0,0,0,0,-1,1371,1107,0,0
154,-83,0,0,0,0,0,0,0,0,0,-1,1378,1107,0,0
161,-83,0,0,0,0,0,0,0,0,0,-1,1385,1107,0,0
168,-83,0,0,0,0,0,0,0,0,0,-1,1392,1107,0,0
175,-83,0,0,0,0,0,0,0,0,0,-1,1399,1107,0,0
182,-83,0,0,0,0,0,0,0,0,0,-1,1406,1107,0,0
189,-83,0,0,0,0,0,0,0,0,0,-1,1413,1107,0,0
196,-83,0,0,0,0,0,0,0,0,0,-1,1420,1107,0,0
203,-83,0,0,0,0,0,0,0,0,0,-1,1427,1107,0,0
210,-83,0,0,0,0,0,0,0,0,0,-1,1434,1107,0,0
217,-83,0,0,0,0,0,0,0,0,0,-1,1441,1107,0,0
224,-83,0,0,0,0,0,0,0,0,0,-1,1448,1107,0,0
231,-83,0,0,0,0,0,0,0,0,0,-1,1455,1107,0,0
238,-83,0,0,0,0,0,0,0,0,0,-1,1462,1107,0,0
245,-83,0,0,0,0,0,0,0,0,0,-1,1469,1107,0,0
252,-83,0,0,0,0,0,0,0,0,0,-1,1476,1107,0,0
259,-83,0,0,0,0,0,0,0,0,0,-1,1483,1107,0,0
266,-83,0,0,0,0,0,0,0,0,0,-1,1490,1107,0,0
273,-83,0,0,0,0,0,0,0,0,0,-1,1497,1107,0,0
280,-83,0,0,0,0,0,0,0,0,0,-1,1504,1107,0,0
287,-83,0,0,0,0,0,0,0,0,0,-1,1511,1107,0,0
294,-83,0,0,0,0,0,0,0,0,0,-1,1518,1107,0,0
301,-83,0,0,0,0,0,0,0,0,0,-1,1525,1107,0,0
308,-83,0,0,0,0,0,0,0,0,0,-1,1532,1107,0,0
315,-83,0,0,0,0,0,0,0,0,0,-1,1539,1107,0,0
322,-83,0,0,0,0,0,0,0,0,0,-1,1546,1107,0,0
329,-83,0,0,0,0,0,0,0,0,0,-1,1553,1107,0,0
336,-83,0,0,0,0,0,0,0,0,0,-1,1560,1107,0,0
343,-83,0,0,0,0,0,0,0,0,0,-1,1567,1107,0,0
350,-83,0,0,0,0,0,0,0,0,0,-1,1574,1107,0,0
357,-83,0,0,0,0,0,0,0,0,0,-1,1581,1107,0,0
364,-83,0,0,0,0,0,0,0,0,0,-1,1588,1107,0,0
371,-83,0,0,0,0,0,0,0,0,0,-1,1595,1107,0,0
378,-83,0,0,0,0,0,0,0,0,0,-1,1602,1107,0,0
385,-83,0,0,0,0,0,0,0,0,0,-1,1609,1107,0,0
392,-83,0,0,0,0,0,0,0,0,0,-1,1616,1107,0,0
399,-83,0,0,0,0,0,0,0,0,0,-1,1623,1107,0,0
406,-83,0,0,0,0,0,0,0,0,0,-1,1630,1107,0,0
413,-83,0,0,0,0,0,0,0,0,0,-1,1637,1107,0,0
420,-83,0,0,0,0,0,0,0,0,0,-1,1644,1107,0,0
427,-83,0,0,0,0,0,0,0,0,0,-1,1651,1107,0,0
434,-83,0,0,0,0,0,0,0,0,0,-1,1658,1107,0,0
441,-83,0,0,0,0,0,0,0,0,0,-1,1665,1107,0,0
448,-83,0,0,0,0,0,0,0,0,0,-1,1672,1107,0,0
455,-83,0,0,0,0,0,0,0,0,0,-1,1679,1107,0,0
462,-83,0,0,0,0,0,0,0,0,0,-1,1686,1107,0,0
469,-83,0,0,0,0,0,0,0,0,0,-1,1693,1107,0,0
476,-83,0,0,0,0,0,0,0,0,0,-1,1700,1107,0,0
483,-83,0,0,0,0,0,0,0,0,0,-1,1707,1107,0,0
490,-83,0,0,0,0,0,0,0,0,0,-1,1714,1107,0,0
497,-83,0,0,0,0,0,0,0,0,0,-1,1721,1107,0,0
504,-83,0,0,0,0,0,0,0,0,0,-1,1728,1107,0,0
511,-83,0,0,0,0,0,0,0,0,0,-1,1735,1107,0,0
518,-83,0,0,0,0,0,0,0,0,0,-1,1742,1107,0,0
525,-83,0,0,0,0,0,0,0,0,0,-1,1749,1107,0,0
532,-83,0,0,0,0,0,0,0,0,0,-1,1756,1107,0,0
539,-83,0,0,0,0,0,0,0,0,0,-1,1763,1107,0,0
546,-83,0,0,0,0,0,0,0,0,0,-1,1770,1107,0,0
553,-83,0,0,0,0,0,0,0,0,0,-1,1777,1107,0,0
560,-83,0,0,0,0,0,0,0,0,0,-1,1784,1107,0,0
567,-83,0,0,0,0,0,0,0,0,0,-1,1791,1107,0,0
574,-83,0,0,0,0,0,0,0,0,0,-1,1798,1107,0,0
581,-83,0,0,0,0,0,0,0,0,0,-1,1805,1107,0,0
588,-83,0,0,0,0,0,0,0,0,0,-1,1812,1107,0,0
595,-83,0,0,0,0,0,0,0,0,0,-1,1819,1107,0,0
602,-83,0,0,0,0,0,0,0,0,0,-1,1826,1107,0,0
609,-83,0,0,0,0,0,0,0,0,0,-1,1833,1107,0,0
616,-83,0,0,0,0,0,0,0,0,0,-1,1840,1107,0,0
623,-83,0,0,0,0,0,0,0,0,0,-1,1847,1107,0,0
630,-83,0,0,0,0,0,0,0,0,0,-1,1854,1107,0,0
637,-83,0,0,0,0,0,0,0,0,0,-1,1861,1107,0,0
644,-83,214.72,8.58301,0,0,0,0,0,0,0,-1,1868,1107,214.72,-8.58299
651,-83,214.647,8.37878,0,0,0,0,0,0,0,-1,1875,1107,214.647,-8.37876
658,-83,214.708,8.48303,0,0,0,0,0,0,0,-1,1882,1107,214.708,-8.48298
665,-83,214.675,8.47241,0,0,0,0,0,0,0,-1,1889,1107,214.675,-8.47242
672,-83,214.637,8.34094,0,0,0,0,0,0,0,-1,1896,1107,214.637,-8.34089
679,-83,214.637,8.43433,0,0,0,0,0,0,0,-1,1903,1107,214.637,-8.43438
686,-83,214.706,8.65112,0,0,0,0,0,0,0,-1,1910,1107,214.706,-8.6511
693,-83,214.668,8.51721,0,0,0,0,0,0,0,-1,1917,1107,214.668,-8.51715
700,-83,214.68,8.4624,0,0,0,0,0,0,0,-1,1924,1107,214.68,-8.4624
707,-83,214.697,8.51416,0,0,0,0,0,0,0,-1,1931,1107,214.697,-8.51417
714,-83,214.826,8.51331,0,0,0,0,0,0,0,-1,1938,1107,214.826,-8.51333
721,-83,49.1162,7.36719,0,0,0,0,0,0,0,-1,1945,1107,49.1162,-7.36721
728,-83,66.6315,8.32141,0,0,0,0,0,0,0,-1,1952,1107,66.6314,-8.32147
735,-83,214.031,32.8972,0,0,0,0,0,0,0,-1,1959,1107,214.03,-32.8973
742,-83,215.199,32.5313,0,0,0,0,0,0,0,-1,1966,1107,215.199,-32.5313
749,-83,215.158,32.1329,0,0,0,0,0,0,0,-1,1973,1107,215.158,-32.1329
756,-83,215.034,31.5929,-0.0188548,0.0209731,0.004485,0.0214719,-0.0193536,1.46003,0.0235812,0.0240074,1980,1107,215.034,-31.5929
763,-83,214.881,31.1844,-0.0229301,0.0307137,0.00427873,0.0310528,-0.0232692,1.4917,0.03147,0.0187318,1987,1107,214.881,-31.1844
770,-83,214.637,30.9194,-0.0271233,0.0404329,0.00413815,0.0406854,-0.0273758,1.50985,0.0395448,0.0250349,1994,1107,214.637,-30.9195
777,-83,214.154,30.6005,-0.0313767,0.0501435,0.0040132,0.0503406,-0.0315738,1.52172,0.0477052,0.036683,2001,1107,214.154,-30.6005
784,-83,213.651,30.297,0,0,0,0,0,0,0,-1,2008,1107,213.651,-30.297
791,-83,203.463,30.1829,0,0,0,0,0,0,0,-1,2015,1107,203.463,-30.1829
798,-83,131.871,16.2344,0,0,0,0,0,0,0,-1,2022,1107,131.871,-16.2344
805,-83,124.276,12.3838,0,0,0,0,0,0,0,-1,2029,1107,124.276,-12.3837
812,-83,124.219,11.7633,0,0,0,0,0,0,0,-1,2036,1107,124.219,-11.7633
-700,-90,0,0,0,0,0,0,0,0,0,-1,524,1114,0,0
-693,-90,-90.692,3.47388,0,0,0,0,0,0,0,-1,531,1114,-90.692,-3.4739
-686,-90,-90.7303,5.27307,0,0,0,0,0,0,0,-1,538,1114,-90.7303,-5.27313
-679,-90,-90.8391,6.87366,0,0,0,0,0,0,0,-1,545,1114,-90.8391,-6.8736
-672,-90,-90.992,7.98755,0,0,0,0,0,0,0,-1,552,1114,-90.9921,-7.98753
-665,-90,-90.9703,9.08142,0,0,0,0,0,0,0,-1,559,1114,-90.9703,-9.08142
-658,-90,-91.029,9.63928,0,0,0,0,0,0,0,-1,566,1114,-91.029,-9.63924
-651,-90,-205.817,29.0605,0,0,0,0,0,0,0,-1,573,1114,-205.817,-29.0605
-644,-90,-206.658,30.0072,0,0,0,0,0,0,0,-1,580,1114,-206.658,-30.0073
-637,-90,-206.631,30.1442,-0.0152855,0.0379754,-0.00432122,0.0383237,-0.0156339,-1.49036,0.0320574,0.0263514,587,1114,-206.631,-30.1442
-630,-90,-206.711,30.5991,-0.0130702,0.031307,-0.00290635,0.0314966,-0.0132598,-1.50568,0.0265455,0.0225907,594,1114,-206.711,-30.5991
-623,-90,-206.819,31.0203,-0.010733,0.0244272,-0.00164435,0.024504,-0.0108097,-1.52416,0.0208931,0.0212083,601,1114,-206.819,-31.0203
-616,-90,-206.932,31.4548,-0.00829156,0.0173531,-0.000562347,0.0173654,-0.00830388,-1.54888,0.0151248,0.019795,608,1114,-206.932,-31.4548
-609,-90,-206.921,31.8859,-0.00576645,0.0100993,0.000314284,0.0101055,-0.00577267,1.551,0.00928033,0.0329007,615,1114,-206.921,-31.8859
-602,-90,-207.052,32.2775,-0.00317983,0.00267798,0.000961346,0.00283172,-0.00333357,1.41222,0.00356346,0.0279787,622,1114,-207.052,-32.2774
-595,-90,-207.075,32.6398,-0.000579536,-0.00480967,0.0015028,-0.000100011,-0.0052892,0.308876,0.00349327,0.0332127,629,1114,-207.075,-32.6397
-588,-90,-207.397,32.3964,0,0,0,0,0,0,0,-1,636,1114,-207.397,-32.3964
-581,-90,-72.1534,0.511597,0,0,0,0,0,0,0,-1,643,1114,-72.1535,-0.511617
-574,-90,-72.1114,0.455933,0,0,0,0,0,0,0,-1,650,1114,-72.1114,-0.455892
-567,-90,-71.9807,0.329224,0,0,0,0,0,0,0,-1,657,1114,-71.9807,-0.329208
-560,-90,-71.8557,0.221558,0,0,0,0,0,0,0,-1,664,1114,-71.8556,-0.221563
-553,-90,-72.0052,0.168823,0,0,0,0,0,0,0,-1,671,1114,-72.0052,-0.16887
-546,-90,-72.0448,0.128662,0,0,0,0,0,0,0,-1,678,1114,-72.0448,-0.128629
-539,-90,-72.0883,0.242065,0,0,0,0,0,0,0,-1,685,1114,-72.0882,-0.242084
-532,-90,-72.1111,0.248169,0,0,0,0,0,0,0,-1,692,1114,-72.1112,-0.248142
-525,-90,0,0,0,0,0,0,0,0,0,-1,699,1114,0,0
-518,-90,0,0,0,0,0,0,0,0,0,-1,706,1114,0,0
-511,-90,0,0,0,0,0,0,0,0,0,-1,713,1114,0,0
-504,-90,0,0,0,0,0,0,0,0,0,-1,720,1114,0,0
-497,-90,0,0,0,0,0,0,0,0,0,-1,727,1114,0,0
-490,-90,0,0,0,0,0,0,0,0,0,-1,734,1114,0,0
-483,-90,0,0,0,0,0,0,0,0,0,-1,741,1114,0,0
-476,-90,0,0,0,0,0,0,0,0,0,-1,748,1114,0,0
-469,-90,0,0,0,0,0,0,0,0,0,-1,755,1114,0,0
-462,-90,0,0,0,0,0,0,0,0,0,-1,762,1114,0,0
-455,-90,0,0,0,0,0,0,0,0,0,-1,769,1114,0,0
-448,-90,0,0,0,0,0,0,0,0,0,-1,776,1114,0,0
-441,-90,0,0,0,0,0,0,0,0,0,-1,783,1114,0,0
-434,-90,0,0,0,0,0,0,0,0,0,-1,790,1114,0,0
-427,-90,0,0,0,0,0,0,0,0,0,-1,797,1114,0,0
-420,-90,0,0,0,0,0,0,0,0,0,-1,804,1114,0,0
-413,-90,0,0,0,0,0,0,0,0,0,-1,811,1114,0,0
-406,-90,0,0,0,0,0,0,0,0,0,-1,818,1114,0,0
-399,-90,0,0,0,0,0,0,0,0,0,-1,825,1114,0,0
-392,-90,0,0,0,0,0,0,0,0,0,-1,832,1114,0,0
-385,-90,0,0,0,0,0,0,0,0,0,-1,839,1114,0,0
-378,-90,0,0,0,0,0,0,0,0,0,-1,846,1114,0,0
-371,-90,0,0,0,0,0,0,0,0,0,-1,853,1114,0,0
-364,-90,0,0,0,0,0,0,0,0,0,-1,860,1114,0,0
-357,-90,0,0,0,0,0,0,0,0,0,-1,867,1114,0,0
-350,-90,0,0,0,0,0,0,0,0,0,-1,874,1114,0,0
-343,-90,0,0,0,0,0,0,0,0,0,-1,881,1114,0,0
-336,-90,0,0,0,0,0,0,0,0,0,-1,888,1114,0,0
-329,-90,0,0,0,0,0,0,0,0,0,-1,895,1114,0,0
-322,-90,0,0,0,0,0,0,0,0,0,-1,902,1114,0,0
-315,-90,0,0,0,0,0,0,0,0,0,-1,909,1114,0,0
-308,-90,0,0,0,0,0,0,0,0,0,-1,916,1114,0,0
-301,-90,0,0,0,0,0,0,0,0,0,-1,923,1114,0,0
-294,-90,0,0,0,0,0,0,0,0,0,-1,930,1114,0,0
-287,-90,0,0,0,0,0,0,0,0,0,-1,937,1114,0,0
-280,-90,0,0,0,0,0,0,0,0,0,-1,944,1114,0,0
-273,-90,0,0,0,0,0,0,0,0,0,-1,951,1114,0,0
-266,-90,0,0,0,0,0,0,0,0,0,-1,958,1114,0,0
-259,-90,0,0,0,0,0,0,0,0,0,-1,965,1114,0,0
-252,-90,0,0,0,0,0,0,0,0,0,-1,972,1114,0,0
-245,-90,0,0,0,0,0,0,0,0,0,-1,979,1114,0,0
-238,-90,0,0,0,0,0,0,0,0,0,-1,986,1114,0,0
-231,-90,0,0,0,0,0,0,0,0,0,-1,993,1114,0,0
-224,-90,0,0,0,0,0,0,0,0,0,-1,1000,1114,0,0
-217,-90,0,0,0,0,0,0,0,0,0,-1,1007,1114,0,0
-210,-90,0,0,0,0,0,0,0,0,0,-1,1014,1114,0,0
-203,-90,0,0,0,0,0,0,0,0,0,-1,1021,1114,0,0
-196,-90,0,0,0,0,0,0,0,0,0,-1,1028,1114,0,0
-189,-90,0,0,0,0,0,0,0,0,0,-1,1035,1114,0,0
-182,-90,0,0,0,0,0,0,0,0,0,-1,1042,1114,0,0
-175,-90,0,0,0,0,0,0,0,0,0,-1,1049,1114,0,0
-168,-90,0,0,0,0,0,0,0,0,0,-1,1056,1114,0,0
-161,-90,0,0,0,0,0,0,0,0,0,-1,1063,1114,0,0
-154,-90,0,0,0,0,0,0,0,0,0,-1,1070,1114,0,0
-147,-90,0,0,0,0,0,0,0,0,0,-1,1077,1114,0,0
-140,-90,0,0,0,0,0,0,0,0,0,-1,1084,1114,0,0
-133,-90,0,0,0,0,0,0,0,0,0,-1,1091,1114,0,0
-126,-90,0,0,0,0,0,0,0,0,0,-1,1098,1114,0,0
-119,-90,0,0,0,0,0,0,0,0,0,-1,1105,1114,0,0
-112,-90,0,0,0,0,0,0,0,0,0,-1,1112,1114,0,0
-105,-90,0,0,0,0,0,0,0,0,0,-1,1119,1114,0,0
-98,-90,0,0,0,0,0,0,0,0,0,-1,1126,1114,0,0
-91,-90,0,0,0,0,0,0,0,0,0,-1,1133,1114,0,0
-84,-90,0,0,0,0,0,0,0,0,0,-1,1140,1114,0,0
-77,-90,0,0,0,0,0,0,0,0,0,-1,1147,1114,0,0
-70,-90,0,0,0,0,0,0,0,0,0,-1,1154,1114,0,0
-63,-90,0,0,0,0,0,0,0,0,0,-1,1161,1114,0,0
-56,-90,0,0,0,0,0,0,0,0,0,-1,1168,1114,0,0
-49,-90,0,0,0,0,0,0,0,0,0,-1,1175,1114,0,0
-42,-90,0,0,0,0,0,0,0,0,0,-1,1182,1114,0,0
-35,-90,0,0,0,0,0,0,0,0,0,-1,1189,1114,0,0
-28,-90,0,0,0,0,0,0,0,0,0,-1,1196,1114,0,0
-21,-90,0,0,0,0,0,0,0,0,0,-1,1203,1114,0,0
-14,-90,0,0,0,0,0,0,0,0,0,-1,1210,1114,0,0
-7,-90,0,0,0,0,0,0,0,0,0,-1,1217,1114,0,0
0,-90,0,0,0,0,0,0,0,0,0,-1,1224,1114,0,0
7,-90,0,0,0,0,0,0,0,0,0,-1,1231,1114,0,0
14,-90,0,0,0,0,0,0,0,0,0,-1,1238,1114,0,0
21,-90,0,0,0,0,0,0,0,0,0,-1,1245,1114,0,0
28,-90,0,0,0,0,0,0,0,0,0,-1,1252,1114,0,0
35,-90,0,0,0,0,0,0,0,0,0,-1,1259,1114,0,0
42,-90,0,0,0,0,0,0,0,0,0,-1,1266,1114,0,0
49,-90,0,0,0,0,0,0,0,0,0,-1,1273,1114,0,0
56,-90,0,0,0,0,0,0,0,0,0,-1,1280,1114,0,0
63,-90,0,0,0,0,0,0,0,0,0,-1,1287,1114,0,0
70,-90,0,0,0,0,0,0,0,0,0,-1,1294,1114,0,0
77,-90,0,0,0,0,0,0,0,0,0,-1,1301,1114,0,0
84,-90,0,0,0,0,0,0,0,0,0,-1,1308,1114,0,0
91,-90,0,0,0,0,0,0,0,0,0,-1,1315,1114,0,0
98,-90,0,0,0,0,0,0,0,0,0,-1,1322,1114,0,0
105,-90,0,0,0,0,0,0,0,0,0,-1,1329,1114,0,0
112,-90,0,0,0,0,0,0,0,0,0,-1,1336,1114,0,0
119,-90,0,0,0,0,0,0,0,0,0,-1,1343,1114,0,0
126,-90,0,0,0,0,0,0,0,0,0,-1,1350,1114,0,0
133,-90,0,0,0,0,0,0,0,0,0,-1,1357,1114,0,0
140,-90,0,0,0,0,0,0,0,0,0,-1,1364,1114,0,0
147,-90,0,0,0,0,0,0,0,0,0,-1,1371,1114,0,0
154,-90,0,0,0,0,0,0,0,0,0,-1,1378,1114,0,0
161,-90,0,0,0,0,0,0,0,0,0,-1,1385,1114,0,0
168,-90,0,0,0,0,0,0,0,0,0,-1,1392,1114,0,0
175,-90,0,0,0,0,0,0,0,0,0,-1,1399,1114,0,0
182,-90,0,0,0,0,0,0,0,0,0,-1,1406,1114,0,0
189,-90,0,0,0,0,0,0,0,0,0,-1,1413,1114,0,0
196,-90,0,0,0,0,0,0,0,0,0,-1,1420,1114,0,0
203,-90,0,0,0,0,0,0,0,0,0,-1,1427,1114,0,0
210,-90,0,0,0,0,0,0,0,0,0,-1,1434,1114,0,0
217,-90,0,0,0,0,0,0,0,0,0,-1,1441,1114,0,0
224,-90,0,0,0,0,0,0,0,0,0,-1,1448,1114,0,0
231,-90,0,0,0,0,0,0,0,0,0,-1,1455,1114,0,0
238,-90,0,0,0,0,0,0,0,0,0,-1,1462,1114,0,0
245,-90,0,0,0,0,0,0,0,0,0,-1,1469,1114,0,0
252,-90,0,0,0,0,0,0,0,0,0,-1,1476,1114,0,0
259,-90,0,0,0,0,0,0,0,0,0,-1,1483,1114,0,0
266,-90,0,0,0,0,0,0,0,0,0,-1,1490,1114,0,0
273,-90,0,0,0,0,0,0,0,0,0,-1,1497,1114,0,0
280,-90,0,0,0,0,0,0,0,0,0,-1,1504,1114,0,0
287,-90,0,0,0,0,0,0,0,0,0,-1,1511,1114,0,0
294,-90,0,0,0,0,0,0,0,0,0,-1,1518,1114,0,0
301,-90,0,0,0,0,0,0,0,0,0,-1,1525,1114,0,0
308,-90,0,0,0,0,0,0,0,0,0,-1,1532,1114,0,0
315,-90,0,0,0,0,0,0,0,0,0,-1,1539,1114,0,0
322,-90,0,0,0,0,0,0,0,0,0,-1,1546,1114,0,0
329,-90,0,0,0,0,0,0,0,0,0,-1,1553,1114,0,0
336,-90,0,0,0,0,0,0,0,0,0,-1,1560,1114,0,0
343,-90,0,0,0,0,0,0,0,0,0,-1,1567,1114,0,0
350,-90,0,0,0,0,0,0,0,0,0,-1,1574,1114,0,0
357,-90,0,0,0,0,0,0,0,0,0,-1,1581,1114,0,0
364,-90,0,0,0,0,0,0,0,0,0,-1,1588,1114,0,0
371,-90,0,0,0,0,0,0,0,0,0,-1,1595,1114,0,0
378,-90,0,0,0,0,0,0,0,0,0,-1,1602,1114,0,0
385,-90,0,0,0,0,0,0,0,0,0,-1,1609,1114,0,0
392,-90,0,0,0,0,0,0,0,0,0,-1,1616,1114,0,0
399,-90,0,0,0,0,0,0,0,0,0,-1,1623,1114,0,0
406,-90,0,0,0,0,0,0,0,0,0,-1,1630,1114,0,0
413,-90,0,0,0,0,0,0,0,0,0,-1,1637,1114,0,0
420,-90,0,0,0,0,0,0,0,0,0,-1,1644,1114,0,0
427,-90,0,0,0,0,0,0,0,0,0,-1,1651,1114,0,0
434,-90,0,0,0,0,0,0,0,0,0,-1,1658,1114,0,0
441,-90,0,0,0,0,0,0,0,0,0,-1,1665,1114,0,0
448,-90,0,0,0,0,0,0,0,0,0,-1,1672,1114,0,0
455,-90,0,0,0,0,0,0,0,0,0,-1,1679,1114,0,0
462,-90,0,0,0,0,0,0,0,0,0,-1,1686,1114,0,0
469,-90,0,0,0,0,0,0,0,0,0,-1,1693,1114,0,0
476,-90,0,0,0,0,0,0,0,0,0,-1,1700,1114,0,0
483,-90,0,0,0,0,0,0,0,0,0,-1,1707,1114,0,0
490,-90,0,0,0,0,0,0,0,0,0,-1,1714,1114,0,0
497,-90,0,0,0,0,0,0,0,0,0,-1,1721,1114,0,0
504,-90,0,0,0,0,0,0,0,0,0,-1,1728,1114,0,0
511,-90,0,0,0,0,0,0,0,0,0,-1,1735,1114,0,0
518,-90,0,0,0,0,0,0,0,0,0,-1,1742,1114,0,0
525,-90,0,0,0,0,0,0,0,0,0,-1,1749,1114,0,0
532,-90,0,0,0,0,0,0,0,0,0,-1,1756,1114,0,0
539,-90,0,0,0,0,0,0,0,0,0,-1,1763,1114,0,0
546,-90,0,0,0,0,0,0,0,0,0,-1,1770,1114,0,0
553,-90,0,0,0,0,0,0,0,0,0,-1,1777,1114,0,0
560,-90,0,0,0,0,0,0,0,0,0,-1,1784,1114,0,0
567,-90,0,0,0,0,0,0,0,0,0,-1,1791,1114,0,0
574,-90,0,0,0,0,0,0,0,0,0,-1,1798,1114,0,0
581,-90,0,0,0,0,0,0,0,0,0,-1,1805,1114,0,0
588,-90,0,0,0,0,0,0,0,0,0,-1,1812,1114,0,0
595,-90,0,0,0,0,0,0,0,0,0,-1,1819,1114,0,0
602,-90,0,0,0,0,0,0,0,0,0,-1,1826,1114,0,0
609,-90,0,0,0,0,0,0,0,0,0,-1,1833,1114,0,0
616,-90,0,0,0,0,0,0,0,0,0,-1,1840,1114,0,0
623,-90,0,0,0,0,0,0,0,0,0,-1,1847,1114,0,0
630,-90,0,0,0,0,0,0,0,0,0,-1,1854,1114,0,0
637,-90,0,0,0,0,0,0,0,0,0,-1,1861,1114,0,0
644,-90,214.651,8.49353,0,0,0,0,0,0,0,-1,1868,1114,214.651,-8.49358
651,-90,214.687,8.45483,0,0,0,0,0,0,0,-1,1875,1114,214.687,-8.45486
658,-90,214.705,8.53455,0,0,0,0,0,0,0,-1,1882,1114,214.705,-8.53454
665,-90,214.663,8.46277,0,0,0,0,0,0,0,-1,1889,1114,214.663,-8.46279
672,-90,214.599,8.24524,0,0,0,0,0,0,0,-1,1896,1114,214.599,-8.24518
679,-90,214.552,8.4928,0,0,0,0,0,0,0,-1,1903,1114,214.552,-8.49285
686,-90,214.591,8.72705,0,0,0,0,0,0,0,-1,1910,1114,214.591,-8.727
693,-90,214.546,8.48047,0,0,0,0,0,0,0,-1,1917,1114,214.546,-8.48052
700,-90,214.442,8.35388,0,0,0,0,0,0,0,-1,1924,1114,214.442,-8.35386
707,-90,214.713,8.53784,0,0,0,0,0,0,0,-1,1931,1114,214.713,-8.53782
714,-90,209.027,8.35974,0,0,0,0,0,0,0,-1,1938,1114,209.027,-8.35976
721,-90,63.521,8.76965,0,0,0,0,0,0,0,-1,1945,1114,63.521,-8.7697
728,-90,135.37,21.8513,0,0,0,0,0,0,0,-1,1952,1114,135.37,-21.8513
735,-90,213.456,33.0063,0,0,0,0,0,0,0,-1,1959,1114,213.456,-33.0064
742,-90,214.277,32.1891,0,0,0,0,0,0,0,-1,1966,1114,214.277,-32.1891
749,-90,214.727,31.6226,-0.0145847,0.0119451,0.00493301,0.0128326,-0.0154722,1.39278,0.0163655,0.0339585,1973,1114,214.727,-31.6225
756,-90,214.735,31.3066,-0.0184335,0.0218594,0.00463508,0.0223857,-0.0189598,1.45773,0.0238982,0.0246093,1980,1114,214.735,-31.3066
763,-90,214.52,30.9183,-0.0224617,0.03172,0.00449416,0.0320902,-0.022832,1.4886,0.0318591,0.019377,1987,1114,214.52,-30.9184
770,-90,214.336,30.4829,-0.0266374,0.0415391,0.00446005,0.0418296,-0.026928,1.50575,0.0400067,0.0310386,1994,1114,214.336,-30.4829
777,-90,213.93,30.1898,-0.0309199,0.0513353,0.00448046,0.0515786,-0.0311633,1.51654,0.0482533,0.0369693,2001,1114,213.93,-30.1899
784,-90,213.647,29.7795,0,0,0,0,0,0,0,-1,2008,1114,213.647,-29.7795
791,-90,187.555,29.4889,0,0,0,0,0,0,0,-1,2015,1114,187.555,-29.4889
798,-90,134.395,15.3065,0,0,0,0,0,0,0,-1,2022,1114,134.394,-15.3065
805,-90,131.621,15.2422,0,0,0,0,0,0,0,-1,2029,1114,131.621,-15.2421
812,-90,123.027,11.3015,0,0,0,0,0,0,0,-1,2036,1114,123.027,-11.3016
-700,-97,0,0,0,0,0,0,0,0,0,-1,524,1121,0,0
-693,-97,-89.9478,2.73914,0,0,0,0,0,0,0,-1,531,1121,-89.9478,-2.73918
-686,-97,-89.8224,4.55396,0,0,0,0,0,0,0,-1,538,1121,-89.8224,-4.55392
-679,-97,-89.7606,6.30127,0,0,0,0,0,0,0,-1,545,1121,-89.7606,-6.3013
-672,-97,-89.9535,7.65637,0,0,0,0,0,0,0,-1,552,1121,-89.9534,-7.65637
-665,-97,-90.0474,8.70679,0,0,0,0,0,0,0,-1,559,1121,-90.0474,-8.7068
-658,-97,-90.24,9.39502,0,0,0,0,0,0,0,-1,566,1121,-90.24,-9.39496
-651,-97,-206.054,28.7648,0,0,0,0,0,0,0,-1,573,1121,-206.054,-28.7648
-644,-97,-206.177,29.2562,-0.0175074,0.0438195,-0.00805936,0.044861,-0.0185488,-1.44229,0.0376456,0.0239679,580,1121,-206.177,-29.2563
-637,-97,-206.176,29.8612,-0.0157415,0.0379815,-0.00590578,0.0386231,-0.0163831,-1.46259,0.0326116,0.0234267,587,1121,-206.176,-29.8612
-630,-97,-206.249,30.3867,-0.0138401,0.0318227,-0.00396041,0.0321636,-0.0141811,-1.48492,0.0274203,0.0198906,594,1121,-206.249,-30.3867
-623,-97,-206.416,30.739,-0.0118211,0.0253757,-0.00223868,0.0255099,-0.0119553,-1.5109,0.0220974,0.026098,601,1121,-206.416,-30.7391
-616,-97,-206.533,31.3057,-0.00970856,0.0186682,-0.000755644,0.0186883,-0.00972867,-1.54419,0.0166761,0.0246798,608,1121,-206.533,-31.3056
-609,-97,-206.544,31.866,-0.00753167,0.0117221,0.000473626,0.0117338,-0.00754331,1.54622,0.011217,0.0346898,615,1121,-206.544,-31.866
-602,-97,-206.703,32.2679,-0.00532311,0.00455429,0.00143376,0.0047582,-0.00552702,1.42952,0.0059437,0.0366606,622,1121,-206.703,-32.2679
-595,-97,-206.805,32.6044,-0.00311741,-0.00282353,0.00210888,-0.000856475,-0.00508446,0.82018,0.00314329,0.0370156,629,1121,-206.805,-32.6043
-588,-97,-207.29,32.5715,0,0,0,0,0,0,0,-1,636,1121,-207.29,-32.5715
-581,-97,-51.2355,3.23926,0,0,0,0,0,0,0,-1,643,1121,-51.2355,-3.23926
-574,-97,-72.1288,0.532715,0,0,0,0,0,0,0,-1,650,1121,-72.1289,-0.532768
-567,-97,-72.0277,0.395386,0,0,0,0,0,0,0,-1,657,1121,-72.0277,-0.395328
-560,-97,-71.9832,0.468018,0,0,0,0,0,0,0,-1,664,1121,-71.9832,-0.467976
-553,-97,-72.03,0.328735,0,0,0,0,0,0,0,-1,671,1121,-72.03,-0.328706
-546,-97,-72.0363,0.304321,0,0,0,0,0,0,0,-1,678,1121,-72.0362,-0.30431
-539,-97,-72.1473,0.396973,0,0,0,0,0,0,0,-1,685,1121,-72.1474,-0.396945
-532,-97,-72.1843,0.338135,0,0,0,0,0,0,0,-1,692,1121,-72.1843,-0.338076
-525,-97,0,0,0,0,0,0,0,0,0,-1,699,1121,0,0
-518,-97,0,0,0,0,0,0,0,0,0,-1,706,1121,0,0
-511,-97,0,0,0,0,0,0,0,0,0,-1,713,1121,0,0
-504,-97,0,0,0,0,0,0,0,0,0,-1,720,1121,0,0
-497,-97,0,0,0,0,0,0,0,0,0,-1,727,1121,0,0
-490,-97,0,0,0,0,0,0,0,0,0,-1,734,1121,0,0
-483,-97,0,0,0,0,0,0,0,0,0,-1,741,1121,0,0
-476,-97,0,0,0,0,0,0,0,0,0,-1,748,1121,0,0
-469,-97,0,0,0,0,0,0,0,0,0,-1,755,1121,0,0
-462,-97,0,0,0,0,0,0,0,0,0,-1,762,1121,0,0
-455,-97,0,0,0,0,0,0,0,0,0,-1,769,1121,0,0
-448,-97,0,0,0,0,0,0,0,0,0,-1,776,1121,0,0
-441,-97,0,0,0,0,0,0,0,0,0,-1,783,1121,0,0
-434,-97,0,0,0,0,0,0,0,0,0,-1,790,1121,0,0
-427,-97,0,0,0,0,0,0,0,0,0,-1,797,1121,0,0
-420,-97,0,0,0,0,0,0,0,0,0,-1,804,1121,0,0
-413,-97,0,0,0,0,0,0,0,0,0,-1,811,1121,0,0
-406,-97,0,0,0,0,0,0,0,0,0,-1,818,1121,0,0
-399,-97,0,0,0,0,0,0,0,0,0,-1,825,1121,0,0
-392,-97,0,0,0,0,0,0,0,0,0,-1,832,1121,0,0
-385,-97,0,0,0,0,0,0,0,0,0,-1,839,1121,0,0
-378,-97,0,0,0,0,0,0,0,0,0,-1,846,1121,0,0
-371,-97,0,0,0,0,0,0,0,0,0,-1,853,1121,0,0
-364,-97,0,0,0,0,0,0,0,0,0,-1,860,1121,0,0
-357,-97,0,0,0,0,0,0,0,0,0,-1,867,1121,0,0
-350,-97,0,0,0,0,0,0,0,0,0,-1,874,1121,0,0
-343,-97,0,0,0,0,0,0,0,0,0,-1,881,1121,0,0
-336,-97,0,0,0,0,0,0,0,0,0,-1,888,1121,0,0
-329,-97,0,0,0,0,0,0,0,0,0,-1,895,1121,0,0
-322,-97,0,0,0,0,0,0,0,0,0,-1,902,1121,0,0
-315,-97,0,0,0,0,0,0,0,0,0,-1,909,1121,0,0
-308,-97,0,0,0,0,0,0,0,0,0,-1,916,1121,0,0
-301,-97,0,0,0,0,0,0,0,0,0,-1,923,1121,0,0
-294,-97,0,0,0,0,0,0,0,0,0,-1,930,1121,0,0
-287,-97,0,0,0,0,0,0,0,0,0,-1,937,1121,0,0
-280,-97,0,0,0,0,0,0,0,0,0,-1,944,1121,0,0
-273,-97,0,0,0,0,0,0,0,0,0,-1,951,1121,0,0
-266,-97,0,0,0,0,0,0,0,0,0,-1,958,1121,0,0
-259,-97,0,0,0,0,0,0,0,0,0,-1,965,1121,0,0
-252,-97,0,0,0,0,0,0,0,0,0,-1,972,1121,0,0
-245,-97,0,0,0,0,0,0,0,0,0,-1,979,1121,0,0
-238,-97,0,0,0,0,0,0,0,0,0,-1,986,1121,0,0
-231,-97,0,0,0,0,0,0,0,0,0,-1,993,1121,0,0
-224,-97,0,0,0,0,0,0,0,0,0,-1,1000,1121,0,0
-217,-97,0,0,0,0,0,0,0,0,0,-1,1007,1121,0,0
-210,-97,0,0,0,0,0,0,0,0,0,-1,1014,1121,0,0
-203,-97,0,0,0,0,0,0,0,0,0,-1,1021,1121,0,0
-196,-97,0,0,0,0,0,0,0,0,0,-1,1028,1121,0,0
-189,-97,0,0,0,0,0,0,0,0,0,-1,1035,1121,0,0
-182,-97,0,0,0,0,0,0,0,0,0,-1,1042,1121,0,0
-175,-97,0,0,0,0,0,0,0,0,0,-1,1049,1121,0,0
-168,-97,0,0,0,0,0,0,0,0,0,-1,1056,1121,0,0
-161,-97,0,0,0,0,0,0,0,0,0,-1,1063,1121,0,0
-154,-97,0,0,0,0,0,0,0,0,0,-1,1070,1121,0,0
-147,-97,0,0,0,0,0,0,0,0,0,-1,1077,1121,0,0
-140,-97,0,0,0,0,0,0,0,0,0,-1,1084,1121,0,0
-133,-97,0,0,0,0,0,0,0,0,0,-1,1091,1121,0,0
-126,-97,0,0,0,0,0,0,0,0,0,-1,1098,1121,0,0
-119,-97,0,0,0,0,0,0,0,0,0,-1,1105,1121,0,0
-112,-97,0,0,0,0,0,0,0,0,0,-1,1112,1121,0,0
-105,-97,0,0,0,0,0,0,0,0,0,-1,1119,1121,0,0
-98,-97,0,0,0,0,0,0,0,0,0,-1,1126,1121,0,0
-91,-97,0,0,0,0,0,0,0,0,0,-1,1133,1121,0,0
-84,-97,0,0,0,0,0,0,0,0,0,-1,1140,1121,0,0
-77,-97,0,0,0,0,0,0,0,0,0,-1,1147,1121,0,0
-70,-97,0,0,0,0,0,0,0,0,0,-1,1154,1121,0,0
-63,-97,0,0,0,0,0,0,0,0,0,-1,1161,1121,0,0
-56,-97,0,0,0,0,0,0,0,0,0,-1,1168,1121,0,0
-49,-97,0,0,0,0,0,0,0,0,0,-1,1175,1121,0,0
-42,-97,0,0,0,0,0,0,0,0,0,-1,1182,1121,0,0
-35,-97,0,0,0,0,0,0,0,0,0,-1,1189,1121,0,0
-28,-97,0,0,0,0,0,0,0,0,0,-1,1196,1121,0,0
-21,-97,0,0,0,0,0,0,0,0,0,-1,1203,1121,0,0
-14,-97,0,0,0,0,0,0,0,0,0,-1,1210,1121,0,0
-7,-97,0,0,0,0,0,0,0,0,0,-1,1217,1121,0,0
0,-97,0,0,0,0,0,0,0,0,0,-1,1224,1121,0,0
7,-97,0,0,0,0,0,0,0,0,0,-1,1231,1121,0,0
14,-97,0,0,0,0,0,0,0,0,0,-1,1238,1121,0,0
21,-97,0,0,0,0,0,0,0,0,0,-1,1245,1121,0,0
28,-97,0,0,0,0,0,0,0,0,0,-1,1252,1121,0,0
35,-97,0,0,0,0,0,0,0,0,0,-1,1259,1121,0,0
42,-97,0,0,0,0,0,0,0,0,0,-1,1266,1121,0,0
49,-97,0,0,0,0,0,0,0,0,0,-1,1273,1121,0,0
56,-97,0,0,0,0,0,0,0,0,0,-1,1280,1121,0,0
63,-97,0,0,0,0,0,0,0,0,0,-1,1287,1121,0,0
70,-97,0,0,0,0,0,0,0,0,0,-1,1294,1121,0,0
77,-97,0,0,0,0,0,0,0,0,0,-1,1301,1121,0,0
84,-97,0,0,0,0,0,0,0,0,0,-1,1308,1121,0,0
91,-97,0,0,0,0,0,0,0,0,0,-1,1315,1121,0,0
98,-97,0,0,0,0,0,0,0,0,0,-1,1322,1121,0,0
105,-97,0,0,0,0,0,0,0,0,0,-1,1329,1121,0,0
112,-97,0,0,0,0,0,0,0,0,0,-1,1336,1121,0,0
119,-97,0,0,0,0,0,0,0,0,0,-1,1343,1121,0,0
126,-97,0,0,0,0,0,0,0,0,0,-1,1350,1121,0,0
133,-97,0,0,0,0,0,0,0,0,0,-1,1357,1121,0,0
140,-97,0,0,0,0,0,0,0,0,0,-1,1364,1121,0,0
147,-97,0,0,0,0,0,0,0,0,0,-1,1371,1121,0,0
154,-97,0,0,0,0,0,0,0,0,0,-1,1378,1121,0,0
161,-97,0,0,0,0,0,0,0,0,0,-1,1385,1121,0,0
168,-97,0,0,0,0,0,0,0,0,0,-1,1392,1121,0,0
175,-97,0,0,0,0,0,0,0,0,0,-1,1399,1121,0,0
182,-97,0,0,0,0,0,0,0,0,0,-1,1406,1121,0,0
189,-97,0,0,0,0,0,0,0,0,0,-1,1413,1121,0,0
196,-97,0,0,0,0,0,0,0,0,0,-1,1420,1121,0,0
203,-97,0,0,0,0,0,0,0,0,0,-1,1427,1121,0,0
210,-97,0,0,0,0,0,0,0,0,0,-1,1434,1121,0,0
217,-97,0,0,0,0,0,0,0,0,0,-1,1441,1121,0,0
224,-97,0,0,0,0,0,0,0,0,0,-1,1448,1121,0,0
231,-97,0,0,0,0,0,0,0,0,0,-1,1455,1121,0,0
238,-97,0,0,0,0,0,0,0,0,0,-1,1462,1121,0,0
245,-97,0,0,0,0,0,0,0,0,0,-1,1469,1121,0,0
252,-97,0,0,0,0,0,0,0,0,0,-1,1476,1121,0,0
259,-97,0,0,0,0,0,0,0,0,0,-1,1483,1121,0,0
266,-97,0,0,0,0,0,0,0,0,0,-1,1490,1121,0,0
273,-97,0,0,0,0,0,0,0,0,0,-1,1497,1121,0,0
280,-97,0,0,0,0,0,0,0,0,0,-1,1504,1121,0,0
287,-97,0,0,0,0,0,0,0,0,0,-1,1511,1121,0,0
294,-97,0,0,0,0,0,0,0,0,0,-1,1518,1121,0,0
301,-97,0,0,0,0,0,0,0,0,0,-1,1525,1121,0,0
308,-97,0,0,0,0,0,0,0,0,0,-1,1532,1121,0,0
315,-97,0,0,0,0,0,0,0,0,0,-1,1539,1121,0,0
322,-97,0,0,0,0,0,0,0,0,0,-1,1546,1121,0,0
329,-97,0,0,0,0,0,0,0,0,0,-1,1553,1121,0,0
336,-97,0,0,0,0,0,0,0,0,0,-1,1560,1121,0,0
343,-97,0,0,0,0,0,0,0,0,0,-1,1567,1121,0,0
350,-97,0,0,0,0,0,0,0,0,0,-1,1574,1121,0,0
357,-97,0,0,0,0,0,0,0,0,0,-1,1581,1121,0,0
364,-97,0,0,0,0,0,0,0,0,0,-1,1588,1121,0,0
371,-97,0,0,0,0,0,0,0,0,0,-1,1595,1121,0,0
378,-97,0,0,0,0,0,0,0,0,0,-1,1602,1121,0,0
385,-97,0,0,0,0,0,0,0,0,0,-1,1609,1121,0,0
392,-97,0,0,0,0,0,0,0,0,0,-1,1616,1121,0,0
399,-97,0,0,0,0,0,0,0,0,0,-1,1623,1121,0,0
406,-97,0,0,0,0,0,0,0,0,0,-1,1630,1121,0,0
413,-97,0,0,0,0,0,0,0,0,0,-1,1637,1121,0,0
420,-97,0,0,0,0,0,0,0,0,0,-1,1644,1121,0,0
427,-97,0,0,0,0,0,0,0,0,0,-1,1651,1121,0,0
434,-97,0,0,0,0,0,0,0,0,0,-1,1658,1121,0,0
441,-97,0,0,0,0,0,0,0,0,0,-1,1665,1121,0,0
448,-97,0,0,0,0,0,0,0,0,0,-1,1672,1121,0,0
455,-97,0,0,0,0,0,0,0,0,0,-1,1679,1121,0,0
462,-97,0,0,0,0,0,0,0,0,0,-1,1686,1121,0,0
469,-97,0,0,0,0,0,0,0,0,0,-1,1693,1121,0,0
476,-97,0,0,0,0,0,0,0,0,0,-1,1700,1121,0,0
483,-97,0,0,0,0,0,0,0,0,0,-1,1707,1121,0,0
490,-97,0,0,0,0,0,0,0,0,0,-1,1714,1121,0,0
497,-97,0,0,0,0,0,0,0,0,0,-1,1721,1121,0,0
504,-97,0,0,0,0,0,0,0,0,0,-1,1728,1121,0,0
511,-97,0,0,0,0,0,0,0,0,0,-1,1735,1121,0,0
518,-97,0,0,0,0,0,0,0,0,0,-1,1742,1121,0,0
525,-97,0,0,0,0,0,0,0,0,0,-1,1749,1121,0,0
532,-97,0,0,0,0,0,0,0,0,0,-1,1756,1121,0,0
539,-97,0,0,0,0,0,0,0,0,0,-1,1763,1121,0,0
546,-97,0,0,0,0,0,0,0,0,0,-1,1770,1121,0,0
553,-97,0,0,0,0,0,0,0,0,0,-1,1777,1121,0,0
560,-97,0,0,0,0,0,0,0,0,0,-1,1784,1121,0,0
567,-97,0,0,0,0,0,0,0,0,0,-1,1791,1121,0,0
574,-97,0,0,0,0,0,0,0,0,0,-1,1798,1121,0,0
581,-97,0,0,0,0,0,0,0,0,0,-1,1805,1121,0,0
588,-97,0,0,0,0,0,0,0,0,0,-1,1812,1121,0,0
595,-97,0,0,0,0,0,0,0,0,0,-1,1819,1121,0,0
602,-97,0,0,0,0,0,0,0,0,0,-1,1826,1121,0,0
609,-97,0,0,0,0,0,0,0,0,0,-1,1833,1121,0,0
616,-97,0,0,0,0,0,0,0,0,0,-1,1840,1121,0,0
623,-97,0,0,0,0,0,0,0,0,0,-1,1847,1121,0,0
630,-97,0,0,0,0,0,0,0,0,0,-1,1854,1121,0,0
637,-97,0,0,0,0,0,0,0,0,0,-1,1861,1121,0,0
644,-97,214.657,8.46936,0,0,0,0,0,0,0,-1,1868,1121,214.657,-8.46937
651,-97,214.684,8.47961,0,0,0,0,0,0,0,-1,1875,1121,214.684,-8.47959
658,-97,214.685,8.62158,0,0,0,0,0,0,0,-1,1882,1121,214.685,-8.62163
665,-97,214.637,8.51892,0,0,0,0,0,0,0,-1,1889,1121,214.637,-8.5189
672,-97,214.58,8.41101,0,0,0,0,0,0,0,-1,1896,1121,214.58,-8.41101
679,-97,214.616,8.69202,0,0,0,0,0,0,0,-1,1903,1121,214.616,-8.69196
686,-97,214.603,8.73157,0,0,0,0,0,0,0,-1,1910,1121,214.603,-8.7316
693,-97,214.573,8.48071,0,0,0,0,0,0,0,-1,1917,1121,214.573,-8.48067
700,-97,214.545,8.41321,0,0,0,0,0,0,0,-1,1924,1121,214.545,-8.41321
707,-97,214.625,8.44934,0,0,0,0,0,0,0,-1,1931,1121,214.626,-8.44932
714,-97,214.755,8.41687,0,0,0,0,0,0,0,-1,1938,1121,214.755,-8.4169
721,-97,134.605,22.2906,0,0,0,0,0,0,0,-1,1945,1121,134.605,-22.2907
728,-97,213.757,32.7578,0,0,0,0,0,0,0,-1,1952,1121,213.757,-32.7578
735,-97,213.762,32.9071,0,0,0,0,0,0,0,-1,1959,1121,213.762,-32.9071
742,-97,213.992,32.0813,-0.0107829,0.00286804,0.00570753,0.00493993,-0.0128548,1.22258,0.0106071,0.0351276,1966,1121,213.992,-32.0813
749,-97,214.165,31.577,-0.0143784,0.0128584,0.00520337,0.0138186,-0.0153386,1.38831,0.0168415,0.03542,1973,1121,214.165,-31.577
756,-97,214.218,31.0977,-0.0181404,0.0227727,0.0049581,0.023365,-0.0187326,1.4519,0.0243541,0.0245704,1980,1121,214.218,-31.0976
763,-97,213.974,30.6733,-0.0220675,0.0326235,0.00491916,0.0330625,-0.0225064,1.4818,0.0322751,0.0307049,1987,1121,213.974,-30.6734
770,-97,213.795,30.2791,-0.0261501,0.042429,0.00503163,0.0427962,-0.0265173,1.49795,0.0403844,0.030447,1994,1121,213.795,-30.279
777,-97,213.558,29.8047,-0.0303697,0.0522141,0.00523779,0.052545,-0.0307006,1.50771,0.0486103,0.0371424,2001,1121,213.558,-29.8047
784,-97,213.389,29.2686,0,0,0,0,0,0,0,-1,2008,1121,213.389,-29.2686
791,-97,134.17,15.504,0,0,0,0,0,0,0,-1,2015,1121,134.17,-15.504
798,-97,131.522,15.1385,0,0,0,0,0,0,0,-1,2022,1121,131.522,-15.1386
805,-97,124.571,12.1506,0,0,0,0,0,0,0,-1,2029,1121,124.571,-12.1506
812,-97,126.348,9.70874,0,0,0,0,0,0,0,-1,2036,1121,126.348,-9.70871
-700,-104,0,0,0,0,0,0,0,0,0,-1,524,1128,0,0
-693,-104,-88.4984,2.96033,0,0,0,0,0,0,0,-1,531,1128,-88.4984,-2.96029
-686,-104,-88.6273,4.21045,0,0,0,0,0,0,0,-1,538,1128,-88.6273,-4.21046
-679,-104,-88.796,5.63074,0,0,0,0,0,0,0,-1,545,1128,-88.796,-5.63079
-672,-104,-88.9519,7.09509,0,0,0,0,0,0,0,-1,552,1128,-88.9519,-7.09509
-665,-104,-89.3686,8.08325,0,0,0,0,0,0,0,-1,559,1128,-89.3686,-8.0833
-658,-104,-89.5414,8.89392,0,0,0,0,0,0,0,-1,566,1128,-89.5414,-8.89391
-651,-104,-205.171,28.6353,0,0,0,0,0,0,0,-1,573,1128,-205.171,-28.6353
-644,-104,-205.439,29.2104,-0.0173072,0.0436386,-0.00944012,0.0450673,-0.0187359,-1.42059,0.037868,0.0319131,580,1128,-205.439,-29.2105
-637,-104,-205.556,29.6932,-0.0158933,0.0383663,-0.00699334,0.0392531,-0.0167802,-1.44466,0.0332068,0.022532,587,1128,-205.556,-29.6932
-630,-104,-205.718,30.1083,-0.0143324,0.0327256,-0.00474859,0.0332,-0.0148068,-1.47122,0.0283867,0.0281644,594,1128,-205.718,-30.1083
-623,-104,-205.992,30.5842,-0.0126395,0.0267499,-0.00272398,0.0269374,-0.012827,-1.50208,0.0234348,0.0332398,601,1128,-205.992,-30.5842
-616,-104,-206.315,31.2197,-0.0108391,0.0204671,-0.000937034,0.0204952,-0.0108671,-1.5409,0.0183892,0.034039,608,1128,-206.315,-31.2197
-609,-104,-206.325,31.7283,-0.00896375,0.0138992,0.000594931,0.0139147,-0.00897922,1.5448,0.0133198,0.0466346,615,1128,-206.325,-31.7283
-602,-104,-205.811,32.1614,0,0,0,0,0,0,0,-1,622,1128,-205.811,-32.1614
-595,-104,-206.23,32.8579,0,0,0,0,0,0,0,-1,629,1128,-206.23,-32.8579
-588,-104,-206.648,33.5543,0,0,0,0,0,0,0,-1,636,1128,-206.648,-33.5543
-581,-104,-23.9373,2.85864,0,0,0,0,0,0,0,-1,643,1128,-23.9373,-2.85861
-574,-104,-72.0505,0.37915,0,0,0,0,0,0,0,-1,650,1128,-72.0505,-0.379201
-567,-104,-71.9956,0.300293,0,0,0,0,0,0,0,-1,657,1128,-71.9956,-0.300253
-560,-104,-72.1018,0.113281,0,0,0,0,0,0,0,-1,664,1128,-72.1018,-0.113305
-553,-104,-72.0447,0.12207,0,0,0,0,0,0,0,-1,671,1128,-72.0447,-0.122018
-546,-104,-72.1016,0.472168,0,0,0,0,0,0,0,-1,678,1128,-72.1016,-0.472146
-539,-104,-72.235,0.630371,0,0,0,0,0,0,0,-1,685,1128,-72.235,-0.630384
-532,-104,-72.246,0.490479,0,0,0,0,0,0,0,-1,692,1128,-72.246,-0.490481
-525,-104,-79.9618,1.60864,0,0,0,0,0,0,0,-1,699,1128,-79.9618,-1.60862
-518,-104,0,0,0,0,0,0,0,0,0,-1,706,1128,0,0
-511,-104,0,0,0,0,0,0,0,0,0,-1,713,1128,0,0
-504,-104,0,0,0,0,0,0,0,0,0,-1,720,1128,0,0
-497,-104,0,0,0,0,0,0,0,0,0,-1,727,1128,0,0
-490,-104,0,0,0,0,0,0,0,0,0,-1,734,1128,0,0
-483,-104,0,0,0,0,0,0,0,0,0,-1,741,1128,0,0
-476,-104,0,0,0,0,0,0,0,0,0,-1,748,1128,0,0
-469,-104,0,0,0,0,0,0,0,0,0,-1,755,1128,0,0
-462,-104,0,0,0,0,0,0,0,0,0,-1,762,1128,0,0
-455,-104,0,0,0,0,0,0,0,0,0,-1,769,1128,0,0
-448,-104,0,0,0,0,0,0,0,0,0,-1,776,1128,0,0
-441,-104,0,0,0,0,0,0,0,0,0,-1,783,1128,0,0
-434,-104,0,0,0,0,0,0,0,0,0,-1,790,1128,0,0
-427,-104,0,0,0,0,0,0,0,0,0,-1,797,1128,0,0
-420,-104,0,0,0,0,0,0,0,0,0,-1,804,1128,0,0
-413,-104,0,0,0,0,0,0,0,0,0,-1,811,1128,0,0
-406,-104,0,0,0,0,0,0,0,0,0,-1,818,1128,0,0
-399,-104,0,0,0,0,0,0,0,0,0,-1,825,1128,0,0
-392,-104,0,0,0,0,0,0,0,0,0,-1,832,1128,0,0
-385,-104,0,0,0,0,0,0,0,0,0,-1,839,1128,0,0
-378,-104,0,0,0,0,0,0,0,0,0,-1,846,1128,0,0
-371,-104,0,0,0,0,0,0,0,0,0,-1,853,1128,0,0
-364,-104,0,0,0,0,0,0,0,0,0,-1,860,1128,0,0
-357,-104,0,0,0,0,0,0,0,0,0,-1,867,1128,0,0
-350,-104,0,0,0,0,0,0,0,0,0,-1,874,1128,0,0
-343,-104,0,0,0,0,0,0,0,0,0,-1,881,1128,0,0
-336,-104,0,0,0,0,0,0,0,0,0,-1,888,1128,0,0
-329,-104,0,0,0,0,0,0,0,0,0,-1,895,1128,0,0
-322,-104,0,0,0,0,0,0,0,0,0,-1,902,1128,0,0
-315,-104,0,0,0,0,0,0,0,0,0,-1,909,1128,0,0
-308,-104,0,0,0,0,0,0,0,0,0,-1,916,1128,0,0
-301,-104,0,0,0,0,0,0,0,0,0,-1,923,1128,0,0
-294,-104,0,0,0,0,0,0,0,0,0,-1,930,1128,0,0
-287,-104,0,0,0,0,0,0,0,0,0,-1,937,1128,0,0
-280,-104,0,0,0,0,0,0,0,0,0,-1,944,1128,0,0
-273,-104,0,0,0,0,0,0,0,0,0,-1,951,1128,0,0
-266,-104,0,0,0,0,0,0,0,0,0,-1,958,1128,0,0
-259,-104,0,0,0,0,0,0,0,0,0,-1,965,1128,0,0
-252,-104,0,0,0,0,0,0,0,0,0,-1,972,1128,0,0
-245,-104,0,0,0,0,0,0,0,0,0,-1,979,1128,0,0
-238,-104,0,0,0,0,0,0,0,0,0,-1,986,1128,0,0
-231,-104,0,0,0,0,0,0,0,0,0,-1,993,1128,0,0
-224,-104,0,0,0,0,0,0,0,0,0,-1,1000,1128,0,0
-217,-104,0,0,0,0,0,0,0,0,0,-1,1007,1128,0,0
-210,-104,0,0,0,0,0,0,0,0,0,-1,1014,1128,0,0
-203,-104,0,0,0,0,0,0,0,0,0,-1,1021,1128,0,0
-196,-104,0,0,0,0,0,0,0,0,0,-1,1028,1128,0,0
-189,-104,0,0,0,0,0,0,0,0,0,-1,1035,1128,0,0
-182,-104,0,0,0,0,0,0,0,0,0,-1,1042,1128,0,0
-175,-104,0,0,0,0,0,0,0,0,0,-1,1049,1128,0,0
-168,-104,0,0,0,0,0,0,0,0,0,-1,1056,1128,0,0
-161,-104,0,0,0,0,0,0,0,0,0,-1,1063,1128,0,0
-154,-104,0,0,0,0,0,0,0,0,0,-1,1070,1128,0,0
-147,-104,0,0,0,0,0,0,0,0,0,-1,1077,1128,0,0
-140,-104,0,0,0,0,0,0,0,0,0,-1,1084,1128,0,0
-133,-104,0,0,0,0,0,0,0,0,0,-1,1091,1128,0,0
-126,-104,0,0,0,0,0,0,0,0,0,-1,1098,1128,0,0
-119,-104,0,0,0,0,0,0,0,0,0,-1,1105,1128,0,0
-112,-104,0,0,0,0,0,0,0,0,0,-1,1112,1128,0,0
-105,-104,0,0,0,0,0,0,0,0,0,-1,1119,1128,0,0
-98,-104,0,0,0,0,0,0,0,0,0,-1,1126,1128,0,0
-91,-104,0,0,0,0,0,0,0,0,0,-1,1133,1128,0,0
-84,-104,0,0,0,0,0,0,0,0,0,-1,1140,1128,0,0
-77,-104,0,0,0,0,0,0,0,0,0,-1,1147,1128,0,0
-70,-104,0,0,0,0,0,0,0,0,0,-1,1154,1128,0,0
-63,-104,0,0,0,0,0,0,0,0,0,-1,1161,1128,0,0
-56,-104,0,0,0,0,0,0,0,0,0,-1,1168,1128,0,0
-49,-104,0,0,0,0,0,0,0,0,0,-1,1175,1128,0,0
-42,-104,0,0,0,0,0,0,0,0,0,-1,1182,1128,0,0
-35,-104,0,0,0,0,0,0,0,0,0,-1,1189,1128,0,0
-28,-104,0,0,0,0,0,0,0,0,0,-1,1196,1128,0,0
-21,-104,0,0,0,0,0,0,0,0,0,-1,1203,1128,0,0
-14,-104,0,0,0,0,0,0,0,0,0,-1,1210,1128,0,0
-7,-104,0,0,0,0,0,0,0,0,0,-1,1217,1128,0,0
0,-104,0,0,0,0,0,0,0,0,0,-1,1224,1128,0,0
7,-104,0,0,0,0,0,0,0,0,0,-1,1231,1128,0,0
14,-104,0,0,0,0,0,0,0,0,0,-1,1238,1128,0,0
21,-104,0,0,0,0,0,0,0,0,0,-1,1245,1128,0,0
28,-104,0,0,0,0,0,0,0,0,0,-1,1252,1128,0,0
35,-104,0,0,0,0,0,0,0,0,0,-1,1259,1128,0,0
42,-104,0,0,0,0,0,0,0,0,0,-1,1266,1128,0,0
49,-104,0,0,0,0,0,0,0,0,0,-1,1273,1128,0,0
56,-104,0,0,0,0,0,0,0,0,0,-1,1280,1128,0,0
63,-104,0,0,0,0,0,0,0,0,0,-1,1287,1128,0,0
70,-104,0,0,0,0,0,0,0,0,0,-1,1294,1128,0,0
77,-104,0,0,0,0,0,0,0,0,0,-1,1301,1128,0,0
84,-104,0,0,0,0,0,0,0,0,0,-1,1308,1128,0,0
91,-104,0,0,0,0,0,0,0,0,0,-1,1315,1128,0,0
98,-104,0,0,0,0,0,0,0,0,0,-1,1322,1128,0,0
105,-104,0,0,0,0,0,0,0,0,0,-1,1329,1128,0,0
112,-104,0,0,0,0,0,0,0,0,0,-1,1336,1128,0,0
119,-104,0,0,0,0,0,0,0,0,0,-1,1343,1128,0,0
126,-104,0,0,0,0,0,0,0,0,0,-1,1350,1128,0,0
133,-104,0,0,0,0,0,0,0,0,0,-1,1357,1128,0,0
140,-104,0,0,0,0,0,0,0,0,0,-1,1364,1128,0,0
147,-104,0,0,0,0,0,0,0,0,0,-1,1371,1128,0,0
154,-104,0,0,0,0,0,0,0,0,0,-1,1378,1128,0,0
161,-104,0,0,0,0,0,0,0,0,0,-1,1385,1128,0,0
168,-104,0,0,0,0,0,0,0,0,0,-1,1392,1128,0,0
175,-104,0,0,0,0,0,0,0,0,0,-1,1399,1128,0,0
182,-104,0,0,0,0,0,0,0,0,0,-1,1406,1128,0,0
189,-104,0,0,0,0,0,0,0,0,0,-1,1413,1128,0,0
196,-104,0,0,0,0,0,0,0,0,0,-1,1420,1128,0,0
203,-104,0,0,0,0,0,0,0,0,0,-1,1427,1128,0,0
210,-104,0,0,0,0,0,0,0,0,0,-1,1434,1128,0,0
217,-104,0,0,0,0,0,0,0,0,0,-1,1441,1128,0,0
224,-104,0,0,0,0,0,0,0,0,0,-1,1448,1128,0,0
231,-104,0,0,0,0,0,0,0,0,0,-1,1455,1128,0,0
238,-104,0,0,0,0,0,0,0,0,0,-1,1462,1128,0,0
245,-104,0,0,0,0,0,0,0,0,0,-1,1469,1128,0,0
252,-104,0,0,0,0,0,0,0,0,0,-1,1476,1128,0,0
259,-104,0,0,0,0,0,0,0,0,0,-1,1483,1128,0,0
266,-104,0,0,0,0,0,0,0,0,0,-1,1490,1128,0,0
273,-104,0,0,0,0,0,0,0,0,0,-1,1497,1128,0,0
280,-104,0,0,0,0,0,0,0,0,0,-1,1504,1128,0,0
287,-104,0,0,0,0,0,0,0,0,0,-1,1511,1128,0,0
294,-104,0,0,0,0,0,0,0,0,0,-1,1518,1128,0,0
301,-104,0,0,0,0,0,0,0,0,0,-1,1525,1128,0,0
308,-104,0,0,0,0,0,0,0,0,0,-1,1532,1128,0,0
315,-104,0,0,0,0,0,0,0,0,0,-1,1539,1128,0,0
322,-104,0,0,0,0,0,0,0,0,0,-1,1546,1128,0,0
329,-104,0,0,0,0,0,0,0,0,0,-1,1553,1128,0,0
336,-104,0,0,0,0,0,0,0,0,0,-1,1560,1128,0,0
343,-104,0,0,0,0,0,0,0,0,0,-1,1567,1128,0,0
350,-104,0,0,0,0,0,0,0,0,0,-1,1574,1128,0,0
357,-104,0,0,0,0,0,0,0,0,0,-1,1581,1128,0,0
364,-104,0,0,0,0,0,0,0,0,0,-1,1588,1128,0,0
371,-104,0,0,0,0,0,0,0,0,0,-1,1595,1128,0,0
378,-104,0,0,0,0,0,0,0,0,0,-1,1602,1128,0,0
385,-104,0,0,0,0,0,0,0,0,0,-1,1609,1128,0,0
392,-104,0,0,0,0,0,0,0,0,0,-1,1616,1128,0,0
399,-104,0,0,0,0,0,0,0,0,0,-1,1623,1128,0,0
406,-104,0,0,0,0,0,0,0,0,0,-1,1630,1128,0,0
413,-104,0,0,0,0,0,0,0,0,0,-1,1637,1128,0,0
420,-104,0,0,0,0,0,0,0,0,0,-1,1644,1128,0,0
427,-104,0,0,0,0,0,0,0,0,0,-1,1651,1128,0,0
434,-104,0,0,0,0,0,0,0,0,0,-1,1658,1128,0,0
441,-104,0,0,0,0,0,0,0,0,0,-1,1665,1128,0,0
448,-104,0,0,0,0,0,0,0,0,0,-1,1672,1128,0,0
455,-104,0,0,0,0,0,0,0,0,0,-1,1679,1128,0,0
462,-104,0,0,0,0,0,0,0,0,0,-1,1686,1128,0,0
469,-104,0,0,0,0,0,0,0,0,0,-1,1693,1128,0,0
476,-104,0,0,0,0,0,0,0,0,0,-1,1700,1128,0,0
483,-104,0,0,0,0,0,0,0,0,0,-1,1707,1128,0,0
490,-104,0,0,0,0,0,0,0,0,0,-1,1714,1128,0,0
497,-104,0,0,0,0,0,0,0,0,0,-1,1721,1128,0,0
504,-104,0,0,0,0,0,0,0,0,0,-1,1728,1128,0,0
511,-104,0,0,0,0,0,0,0,0,0,-1,1735,1128,0,0
518,-104,0,0,0,0,0,0,0,0,0,-1,1742,1128,0,0
525,-104,0,0,0,0,0,0,0,0,0,-1,1749,1128,0,0
532,-104,0,0,0,0,0,0,0,0,0,-1,1756,1128,0,0
539,-104,0,0,0,0,0,0,0,0,0,-1,1763,1128,0,0
546,-104,0,0,0,0,0,0,0,0,0,-1,1770,1128,0,0
553,-104,0,0,0,0,0,0,0,0,0,-1,1777,1128,0,0
560,-104,0,0,0,0,0,0,0,0,0,-1,1784,1128,0,0
567,-104,0,0,0,0,0,0,0,0,0,-1,1791,1128,0,0
574,-104,0,0,0,0,0,0,0,0,0,-1,1798,1128,0,0
581,-104,0,0,0,0,0,0,0,0,0,-1,1805,1128,0,0
588,-104,0,0,0,0,0,0,0,0,0,-1,1812,1128,0,0
595,-104,0,0,0,0,0,0,0,0,0,-1,1819,1128,0,0
602,-104,0,0,0,0,0,0,0,0,0,-1,1826,1128,0,0
609,-104,0,0,0,0,0,0,0,0,0,-1,1833,1128,0,0
616,-104,0,0,0,0,0,0,0,0,0,-1,1840,1128,0,0
623,-104,0,0,0,0,0,0,0,0,0,-1,1847,1128,0,0
630,-104,0,0,0,0,0,0,0,0,0,-1,1854,1128,0,0
637,-104,0,0,0,0,0,0,0,0,0,-1,1861,1128,0,0
644,-104,214.63,8.65271,0,0,0,0,0,0,0,-1,1868,1128,214.63,-8.65268
651,-104,214.693,8.6886,0,0,0,0,0,0,0,-1,1875,1128,214.693,-8.68855
658,-104,214.763,8.70471,0,0,0,0,0,0,0,-1,1882,1128,214.763,-8.70473
665,-104,214.743,8.57312,0,0,0,0,0,0,0,-1,1889,1128,214.743,-8.57307
672,-104,214.646,8.47131,0,0,0,0,0,0,0,-1,1896,1128,214.645,-8.47133
679,-104,214.621,8.82788,0,0,0,0,0,0,0,-1,1903,1128,214.621,-8.82794
686,-104,214.541,8.77209,0,0,0,0,0,0,0,-1,1910,1128,214.541,-8.77204
693,-104,214.585,8.6261,0,0,0,0,0,0,0,-1,1917,1128,214.585,-8.62615
700,-104,214.602,8.54089,0,0,0,0,0,0,0,-1,1924,1128,214.602,-8.54085
707,-104,214.667,8.60449,0,0,0,0,0,0,0,-1,1931,1128,214.667,-8.60446
714,-104,211.875,8.83447,0,0,0,0,0,0,0,-1,1938,1128,211.875,-8.83449
721,-104,148.973,26.0243,0,0,0,0,0,0,0,-1,1945,1128,148.973,-26.0243
728,-104,214.042,33.233,0,0,0,0,0,0,0,-1,1952,1128,214.042,-33.233
735,-104,213.937,32.6082,0,0,0,0,0,0,0,-1,1959,1128,213.937,-32.6082
742,-104,213.737,32.0623,-0.0104931,0.00456306,0.00604205,0.00668788,-0.0126179,1.23263,0.0113201,0.0355278,1966,1128,213.737,-32.0622
749,-104,213.672,31.5934,-0.0139264,0.0141141,0.00564941,0.0152095,-0.0150218,1.37927,0.0174542,0.0325259,1973,1128,213.672,-31.5934
756,-104,213.554,31.0016,-0.0174603,0.0235102,0.00559263,0.0242599,-0.01821,1.43754,0.0246028,0.026884,1980,1128,213.554,-31.0016
763,-104,213.255,30.4546,0,0,0,0,0,0,0,-1,1987,1128,213.255,-30.4546
770,-104,213.185,29.8488,0,0,0,0,0,0,0,-1,1994,1128,213.185,-29.8488
777,-104,213.066,29.5315,0,0,0,0,0,0,0,-1,2001,1128,213.066,-29.5315
784,-104,198.008,29.3326,0,0,0,0,0,0,0,-1,2008,1128,198.008,-29.3327
791,-104,124.777,12.4595,0,0,0,0,0,0,0,-1,2015,1128,124.777,-12.4595
798,-104,117.724,5.89856,0,0,0,0,0,0,0,-1,2022,1128,117.724,-5.89853
805,-104,116.657,4.51953,0,0,0,0,0,0,0,-1,2029,1128,116.657,-4.51951
812,-104,115.406,3.27905,0,0,0,0,0,0,0,-1,2036,1128,115.406,-3.27907
-700,-111,0,0,0,0,0,0,0,0,0,-1,524,1135,0,0
-693,-111,-87.3786,2.87793,0,0,0,0,0,0,0,-1,531,1135,-87.3786,-2.87792
-686,-111,-87.7664,3.81384,0,0,0,0,0,0,0,-1,538,1135,-87.7664,-3.81379
-679,-111,-87.8987,5.0907,0,0,0,0,0,0,0,-1,545,1135,-87.8987,-5.09074
-672,-111,-87.9348,6.62744,0,0,0,0,0,0,0,-1,552,1135,-87.9348,-6.62745
-665,-111,-89.323,7.58716,0,0,0,0,0,0,0,-1,559,1135,-89.323,-7.58714
-658,-111,-88.7458,8.3031,0,0,0,0,0,0,0,-1,566,1135,-88.7457,-8.30306
-651,-111,-204.439,28.3479,0,0,0,0,0,0,0,-1,573,1135,-204.439,-28.3479
-644,-111,-204.679,28.9663,-0.0176807,0.0437479,-0.0113687,0.0457844,-0.0197172,-1.39354,0.0388028,0.0491605,580,1135,-204.679,-28.9663
-637,-111,-204.964,29.4556,-0.0166588,0.0389953,-0.00859529,0.0402926,-0.0179561,-1.421,0.0344442,0.0234234,587,1135,-204.964,-29.4555
-630,-111,-205.201,29.792,-0.0155063,0.0338189,-0.00602896,0.0345451,-0.0162325,-1.45092,0.0299452,0.0397103,594,1135,-205.201,-29.792
-623,-111,-205.225,30.4701,-0.0142254,0.0282544,-0.00369191,0.0285729,-0.0145439,-1.48475,0.0253289,0.0386432,601,1135,-205.225,-30.4701
-616,-111,-205.65,31.1348,-0.0128283,0.0223327,-0.0016052,0.0224058,-0.0129014,-1.52527,0.0206294,0.0436618,608,1135,-205.65,-31.1348
-609,-111,-206.224,31.5165,0,0,0,0,0,0,0,-1,615,1135,-206.224,-31.5164
-602,-111,-206.038,32.0465,0,0,0,0,0,0,0,-1,622,1135,-206.038,-32.0465
-595,-111,-205.631,32.8033,0,0,0,0,0,0,0,-1,629,1135,-205.631,-32.8033
-588,-111,-205.224,33.5602,0,0,0,0,0,0,0,-1,636,1135,-205.224,-33.5602
-581,-111,-21.0555,3.14551,0,0,0,0,0,0,0,-1,643,1135,-21.0555,-3.14548
-574,-111,-72.0052,0.325439,0,0,0,0,0,0,0,-1,650,1135,-72.0053,-0.325442
-567,-111,-71.9791,0.25293,0,0,0,0,0,0,0,-1,657,1135,-71.979,-0.25289
-560,-111,-72.0156,-0.0426025,0,0,0,0,0,0,0,-1,664,1135,-72.0156,0.0426468
-553,-111,-71.9611,0.0412598,0,0,0,0,0,0,0,-1,671,1135,-71.9611,-0.0412414
-546,-111,-71.9863,0.294189,0,0,0,0,0,0,0,-1,678,1135,-71.9863,-0.294224
-539,-111,-72.1181,0.645142,0,0,0,0,0,0,0,-1,685,1135,-72.1181,-0.645102
-532,-111,-72.2086,0.617065,0,0,0,0,0,0,0,-1,692,1135,-72.2085,-0.617046
-525,-111,-72.1599,0.566895,0,0,0,0,0,0,0,-1,699,1135,-72.1599,-0.56687
-518,-111,0,0,0,0,0,0,0,0,0,-1,706,1135,0,0
-511,-111,0,0,0,0,0,0,0,0,0,-1,713,1135,0,0
-504,-111,0,0,0,0,0,0,0,0,0,-1,720,1135,0,0
-497,-111,0,0,0,0,0,0,0,0,0,-1,727,1135,0,0
-490,-111,0,0,0,0,0,0,0,0,0,-1,734,1135,0,0
-483,-111,0,0,0,0,0,0,0,0,0,-1,741,1135,0,0
-476,-111,0,0,0,0,0,0,0,0,0,-1,748,1135,0,0
-469,-111,0,0,0,0,0,0,0,0,0,-1,755,1135,0,0
-462,-111,0,0,0,0,0,0,0,0,0,-1,762,1135,0,0
-455,-111,0,0,0,0,0,0,0,0,0,-1,769,1135,0,0
-448,-111,0,0,0,0,0,0,0,0,0,-1,776,1135,0,0
-441,-111,0,0,0,0,0,0,0,0,0,-1,783,1135,0,0
-434,-111,0,0,0,0,0,0,0,0,0,-1,790,1135,0,0
-427,-111,0,0,0,0,0,0,0,0,0,-1,797,1135,0,0
-420,-111,0,0,0,0,0,0,0,0,0,-1,804,1135,0,0
-413,-111,0,0,0,0,0,0,0,0,0,-1,811,1135,0,0
-406,-111,0,0,0,0,0,0,0,0,0,-1,818,1135,0,0
-399,-111,0,0,0,0,0,0,0,0,0,-1,825,1135,0,0
-392,-111,0,0,0,0,0,0,0,0,0,-1,832,1135,0,0
-385,-111,0,0,0,0,0,0,0,0,0,-1,839,1135,0,0
-378,-111,0,0,0,0,0,0,0,0,0,-1,846,1135,0,0
-371,-111,0,0,0,0,0,0,0,0,0,-1,853,1135,0,0
-364,-111,0,0,0,0,0,0,0,0,0,-1,860,1135,0,0
-357,-111,0,0,0,0,0,0,0,0,0,-1,867,1135,0,0
-350,-111,0,0,0,0,0,0,0,0,0,-1,874,1135,0,0
-343,-111,0,0,0,0,0,0,0,0,0,-1,881,1135,0,0
-336,-111,0,0,0,0,0,0,0,0,0,-1,888,1135,0,0
-329,-111,0,0,0,0,0,0,0,0,0,-1,895,1135,0,0
-322,-111,0,0,0,0,0,0,0,0,0,-1,902,1135,0,0
-315,-111,0,0,0,0,0,0,0,0,0,-1,909,1135,0,0
-308,-111,0,0,0,0,0,0,0,0,0,-1,916,1135,0,0
-301,-111,0,0,0,0,0,0,0,0,0,-1,923,1135,0,0
-294,-111,0,0,0,0,0,0,0,0,0,-1,930,1135,0,0
-287,-111,0,0,0,0,0,0,0,0,0,-1,937,1135,0,0
-280,-111,0,0,0,0,0,0,0,0,0,-1,944,1135,0,0
-273,-111,0,0,0,0,0,0,0,0,0,-1,951,1135,0,0
-266,-111,0,0,0,0,0,0,0,0,0,-1,958,1135,0,0
-259,-111,0,0,0,0,0,0,0,0,0,-1,965,1135,0,0
-252,-111,0,0,0,0,0,0,0,0,0,-1,972,1135,0,0
-245,-111,0,0,0,0,0,0,0,0,0,-1,979,1135,0,0
-238,-111,0,0,0,0,0,0,0,0,0,-1,986,1135,0,0
-231,-111,0,0,0,0,0,0,0,0,0,-1,993,1135,0,0
-224,-111,0,0,0,0,0,0,0,0,0,-1,1000,1135,0,0
-217,-111,0,0,0,0,0,0,0,0,0,-1,1007,1135,0,0
-210,-111,0,0,0,0,0,0,0,0,0,-1,1014,1135,0,0
-203,-111,0,0,0,0,0,0,0,0,0,-1,1021,1135,0,0
-196,-111,0,0,0,0,0,0,0,0,0,-1,1028,1135,0,0
-189,-111,0,0,0,0,0,0,0,0,0,-1,1035,1135,0,0
-182,-111,0,0,0,0,0,0,0,0,0,-1,1042,1135,0,0
-175,-111,0,0,0,0,0,0,0,0,0,-1,1049,1135,0,0
-168,-111,0,0,0,0,0,0,0,0,0,-1,1056,1135,0,0
-161,-111,0,0,0,0,0,0,0,0,0,-1,1063,1135,0,0
-154,-111,0,0,0,0,0,0,0,0,0,-1,1070,1135,0,0
-147,-111,0,0,0,0,0,0,0,0,0,-1,1077,1135,0,0
-140,-111,0,0,0,0,0,0,0,0,0,-1,1084,1135,0,0
-133,-111,0,0,0,0,0,0,0,0,0,-1,1091,1135,0,0
-126,-111,0,0,0,0,0,0,0,0,0,-1,1098,1135,0,0
-119,-111,0,0,0,0,0,0,0,0,0,-1,1105,1135,0,0
-112,-111,0,0,0,0,0,0,0,0,0,-1,1112,1135,0,0
-105,-111,0,0,0,0,0,0,0,0,0,-1,1119,1135,0,0
-98,-111,0,0,0,0,0,0,0,0,0,-1,1126,1135,0,0
-91,-111,0,0,0,0,0,0,0,0,0,-1,1133,1135,0,0
-84,-111,0,0,0,0,0,0,0,0,0,-1,1140,1135,0,0
-77,-111,0,0,0,0,0,0,0,0,0,-1,1147,1135,0,0
-70,-111,0,0,0,0,0,0,0,0,0,-1,1154,1135,0,0
-63,-111,0,0,0,0,0,0,0,0,0,-1,1161,1135,0,0
-56,-111,0,0,0,0,0,0,0,0,0,-1,1168,1135,0,0
-49,-111,0,0,0,0,0,0,0,0,0,-1,1175,1135,0,0
-42,-111,0,0,0,0,0,0,0,0,0,-1,1182,1135,0,0
-35,-111,0,0,0,0,0,0,0,0,0,-1,1189,1135,0,0
-28,-111,0,0,0,0,0,0,0,0,0,-1,1196,1135,0,0
-21,-111,0,0,0,0,0,0,0,0,0,-1,1203,1135,0,0
-14,-111,0,0,0,0,0,0,0,0,0,-1,1210,1135,0,0
-7,-111,0,0,0,0,0,0,0,0,0,-1,1217,1135,0,0
0,-111,0,0,0,0,0,0,0,0,0,-1,1224,1135,0,0
7,-111,0,0,0,0,0,0,0,0,0,-1,1231,1135,0,0
14,-111,0,0,0,0,0,0,0,0,0,-1,1238,1135,0,0
21,-111,0,0,0,0,0,0,0,0,0,-1,1245,1135,0,0
28,-111,0,0,0,0,0,0,0,0,0,-1,1252,1135,0,0
35,-111,0,0,0,0,0,0,0,0,0,-1,1259,1135,0,0
42,-111,0,0,0,0,0,0,0,0,0,-1,1266,1135,0,0
49,-111,0,0,0,0,0,0,0,0,0,-1,1273,1135,0,0
56,-111,0,0,0,0,0,0,0,0,0,-1,1280,1135,0,0
63,-111,0,0,0,0,0,0,0,0,0,-1,1287,1135,0,0
70,-111,0,0,0,0,0,0,0,0,0,-1,1294,1135,0,0
77,-111,0,0,0,0,0,0,0,0,0,-1,1301,1135,0,0
84,-111,0,0,0,0,0,0,0,0,0,-1,1308,1135,0,0
91,-111,0,0,0,0,0,0,0,0,0,-1,1315,1135,0,0
98,-111,0,0,0,0,0,0,0,0,0,-1,1322,1135,0,0
105,-111,0,0,0,0,0,0,0,0,0,-1,1329,1135,0,0
112,-111,0,0,0,0,0,0,0,0,0,-1,1336,1135,0,0
119,-111,0,0,0,0,0,0,0,0,0,-1,1343,1135,0,0
126,-111,0,0,0,0,0,0,0,0,0,-1,1350,1135,0,0
133,-111,0,0,0,0,0,0,0,0,0,-1,1357,1135,0,0
140,-111,0,0,0,0,0,0,0,0,0,-1,1364,1135,0,0
147,-111,0,0,0,0,0,0,0,0,0,-1,1371,1135,0,0
154,-111,0,0,0,0,0,0,0,0,0,-1,1378,1135,0,0
161,-111,0,0,0,0,0,0,0,0,0,-1,1385,1135,0,0
168,-111,0,0,0,0,0,0,0,0,0,-1,1392,1135,0,0
175,-111,0,0,0,0,0,0,0,0,0,-1,1399,1135,0,0
182,-111,0,0,0,0,0,0,0,0,0,-1,1406,1135,0,0
189,-111,0,0,0,0,0,0,0,0,0,-1,1413,1135,0,0
196,-111,0,0,0,0,0,0,0,0,0,-1,1420,1135,0,0
203,-111,0,0,0,0,0,0,0,0,0,-1,1427,1135,0,0
210,-111,0,0,0,0,0,0,0,0,0,-1,1434,1135,0,0
217,-111,0,0,0,0,0,0,0,0,0,-1,1441,1135,0,0
224,-111,0,0,0,0,0,0,0,0,0,-1,1448,1135,0,0
231,-111,0,0,0,0,0,0,0,0,0,-1,1455,1135,0,0
238,-111,0,0,0,0,0,0,0,0,0,-1,1462,1135,0,0
245,-111,0,0,0,0,0,0,0,0,0,-1,1469,1135,0,0
252,-111,0,0,0,0,0,0,0,0,0,-1,1476,1135,0,0
259,-111,0,0,0,0,0,0,0,0,0,-1,1483,1135,0,0
266,-111,0,0,0,0,0,0,0,0,0,-1,1490,1135,0,0
273,-111,0,0,0,0,0,0,0,0,0,-1,1497,1135,0,0
280,-111,0,0,0,0,0,0,0,0,0,-1,1504,1135,0,0
287,-111,0,0,0,0,0,0,0,0,0,-1,1511,1135,0,0
294,-111,0,0,0,0,0,0,0,0,0,-1,1518,1135,0,0
301,-111,0,0,0,0,0,0,0,0,0,-1,1525,1135,0,0
308,-111,0,0,0,0,0,0,0,0,0,-1,1532,1135,0,0
315,-111,0,0,0,0,0,0,0,0,0,-1,1539,1135,0,0
322,-111,0,0,0,0,0,0,0,0,0,-1,1546,1135,0,0
329,-111,0,0,0,0,0,0,0,0,0,-1,1553,1135,0,0
336,-111,0,0,0,0,0,0,0,0,0,-1,1560,1135,0,0
343,-111,0,0,0,0,0,0,0,0,0,-1,1567,1135,0,0
350,-111,0,0,0,0,0,0,0,0,0,-1,1574,1135,0,0
357,-111,0,0,0,0,0,0,0,0,0,-1,1581,1135,0,0
364,-111,0,0,0,0,0,0,0,0,0,-1,1588,1135,0,0
371,-111,0,0,0,0,0,0,0,0,0,-1,1595,1135,0,0
378,-111,0,0,0,0,0,0,0,0,0,-1,1602,1135,0,0
385,-111,0,0,0,0,0,0,0,0,0,-1,1609,1135,0,0
392,-111,0,0,0,0,0,0,0,0,0,-1,1616,1135,0,0
399,-111,0,0,0,0,0,0,0,0,0,-1,1623,1135,0,0
406,-111,0,0,0,0,0,0,0,0,0,-1,1630,1135,0,0
413,-111,0,0,0,0,0,0,0,0,0,-1,1637,1135,0,0
420,-111,0,0,0,0,0,0,0,0,0,-1,1644,1135,0,0
427,-111,0,0,0,0,0,0,0,0,0,-1,1651,1135,0,0
434,-111,0,0,0,0,0,0,0,0,0,-1,1658,1135,0,0
441,-111,0,0,0,0,0,0,0,0,0,-1,1665,1135,0,0
448,-111,0,0,0,0,0,0,0,0,0,-1,1672,1135,0,0
455,-111,0,0,0,0,0,0,0,0,0,-1,1679,1135,0,0
462,-111,0,0,0,0,0,0,0,0,0,-1,1686,1135,0,0
469,-111,0,0,0,0,0,0,0,0,0,-1,1693,1135,0,0
476,-111,0,0,0,0,0,0,0,0,0,-1,1700,1135,0,0
483,-111,0,0,0,0,0,0,0,0,0,-1,1707,1135,0,0
490,-111,0,0,0,0,0,0,0,0,0,-1,1714,1135,0,0
497,-111,0,0,0,0,0,0,0,0,0,-1,1721,1135,0,0
504,-111,0,0,0,0,0,0,0,0,0,-1,1728,1135,0,0
511,-111,0,0,0,0,0,0,0,0,0,-1,1735,1135,0,0
518,-111,0,0,0,0,0,0,0,0,0,-1,1742,1135,0,0
525,-111,0,0,0,0,0,0,0,0,0,-1,1749,1135,0,0
532,-111,0,0,0,0,0,0,0,0,0,-1,1756,1135,0,0
539,-111,0,0,0,0,0,0,0,0,0,-1,1763,1135,0,0
546,-111,0,0,0,0,0,0,0,0,0,-1,1770,1135,0,0
553,-111,0,0,0,0,0,0,0,0,0,-1,1777,1135,0,0
560,-111,0,0,0,0,0,0,0,0,0,-1,1784,1135,0,0
567,-111,0,0,0,0,0,0,0,0,0,-1,1791,1135,0,0
574,-111,0,0,0,0,0,0,0,0,0,-1,1798,1135,0,0
581,-111,0,0,0,0,0,0,0,0,0,-1,1805,1135,0,0
588,-111,0,0,0,0,0,0,0,0,0,-1,1812,1135,0,0
595,-111,0,0,0,0,0,0,0,0,0,-1,1819,1135,0,0
602,-111,0,0,0,0,0,0,0,0,0,-1,1826,1135,0,0
609,-111,0,0,0,0,0,0,0,0,0,-1,1833,1135,0,0
616,-111,0,0,0,0,0,0,0,0,0,-1,1840,1135,0,0
623,-111,0,0,0,0,0,0,0,0,0,-1,1847,1135,0,0
630,-111,0,0,0,0,0,0,0,0,0,-1,1854,1135,0,0
637,-111,0,0,0,0,0,0,0,0,0,-1,1861,1135,0,0
644,-111,214.443,8.82117,0,0,0,0,0,0,0,-1,1868,1135,214.443,-8.82121
651,-111,214.676,9.02588,0,0,0,0,0,0,0,-1,1875,1135,214.676,-9.02584
658,-111,214.97,8.93005,0,0,0,0,0,0,0,-1,1882,1135,214.97,-8.93007
665,-111,214.945,8.56348,0,0,0,0,0,0,0,-1,1889,1135,214.945,-8.56342
672,-111,214.575,8.44006,0,0,0,0,0,0,0,-1,1896,1135,214.575,-8.44001
679,-111,214.604,8.62158,0,0,0,0,0,0,0,-1,1903,1135,214.605,-8.62161
686,-111,214.533,8.65967,0,0,0,0,0,0,0,-1,1910,1135,214.533,-8.65971
693,-111,214.563,8.60571,0,0,0,0,0,0,0,-1,1917,1135,214.563,-8.60571
700,-111,214.659,8.63452,0,0,0,0,0,0,0,-1,1924,1135,214.659,-8.63456
707,-111,214.8,8.75623,0,0,0,0,0,0,0,-1,1931,1135,214.8,-8.7562
714,-111,45.1654,7.39746,0,0,0,0,0,0,0,-1,1938,1135,45.1654,-7.39745
721,-111,213.486,33.7947,0,0,0,0,0,0,0,-1,1945,1135,213.485,-33.7947
728,-111,213.446,33.209,-0.00449928,-0.0125875,0.00791424,0.000344235,-0.017431,0.549196,0.0117371,0.0483916,1952,1135,213.446,-33.2089
735,-111,213.417,32.6517,-0.00763519,-0.003055,0.00688775,0.00191339,-0.0126036,0.945893,0.00910743,0.0400638,1959,1135,213.416,-32.6517
742,-111,213.178,32.1475,-0.0106903,0.00625926,0.00631226,0.00835172,-0.0127827,1.2507,0.012291,0.0267525,1966,1135,213.178,-32.1474
749,-111,212.949,31.5205,-0.0137764,0.0153001,0.00617305,0.0165564,-0.0150327,1.37003,0.018245,0.0281811,1973,1135,212.949,-31.5206
756,-111,212.803,30.8884,-0.0169197,0.0240654,0.00643286,0.0250514,-0.0179057,1.41871,0.0249154,0.025496,1980,1135,212.803,-30.8884
763,-111,212.623,30.1893,-0.0201417,0.0325558,0.00705282,0.0334834,-0.0210693,1.44003,0.0317667,0.043313,1987,1135,212.623,-30.1894
770,-111,212.583,29.6522,-0.0234578,0.0407747,0.00799263,0.0417543,-0.0244374,1.44884,0.0386493,0.0395906,1994,1135,212.583,-29.6523
777,-111,212.346,29.231,0,0,0,0,0,0,0,-1,2001,1135,212.346,-29.2309
784,-111,196.202,28.8839,0,0,0,0,0,0,0,-1,2008,1135,196.202,-28.8839
791,-111,196.289,28.3062,0,0,0,0,0,0,0,-1,2015,1135,196.289,-28.3061
798,-111,117.362,5.41443,0,0,0,0,0,0,0,-1,2022,1135,117.362,-5.41445
805,-111,116.808,4.02344,0,0,0,0,0,0,0,-1,2029,1135,116.808,-4.02344
812,-111,115.569,2.60425,0,0,0,0,0,0,0,-1,2036,1135,115.569,-2.60429
-700,-118,0,0,0,0,0,0,0,0,0,-1,524,1142,0,0
-693,-118,-86.2747,2.6283,0,0,0,0,0,0,0,-1,531,1142,-86.2747,-2.62824
-686,-118,-86.7041,3.22351,0,0,0,0,0,0,0,-1,538,1142,-86.7041,-3.22351
-679,-118,-86.7281,4.65881,0,0,0,0,0,0,0,-1,545,1142,-86.7281,-4.65885
-672,-118,-86.7669,6.11426,0,0,0,0,0,0,0,-1,552,1142,-86.7669,-6.11421
-665,-118,-81.5959,6.78015,0,0,0,0,0,0,0,-1,559,1142,-81.5959,-6.78018
-658,-118,-83.8181,6.78662,0,0,0,0,0,0,0,-1,566,1142,-83.8181,-6.78663
-651,-118,-178.296,28.0144,0,0,0,0,0,0,0,-1,573,1142,-178.296,-28.0145
-644,-118,-203.86,28.9141,0,0,0,0,0,0,0,-1,580,1142,-203.86,-28.9141
-637,-118,-204.189,29.3059,-0.0177662,0.0396142,-0.0105101,0.0414788,-0.0196308,-1.39522,0.0360254,0.0345172,587,1142,-204.189,-29.3059
-630,-118,-204.464,29.738,-0.01692,0.0348272,-0.00750768,0.0358944,-0.0179872,-1.42959,0.0316761,0.0383875,594,1142,-204.464,-29.7381
-623,-118,-204.47,30.4208,-0.0159792,0.0296232,-0.0048028,0.0301236,-0.0164795,-1.46699,0.027288,0.0340827,601,1142,-204.47,-30.4207
-616,-118,-204.269,31.1709,0,0,0,0,0,0,0,-1,608,1142,-204.269,-31.1709
-609,-118,-204.068,31.4963,0,0,0,0,0,0,0,-1,615,1142,-204.068,-31.4964
-602,-118,-205.808,31.6796,0,0,0,0,0,0,0,-1,622,1142,-205.808,-31.6795
-595,-118,-205.067,32.6804,0,0,0,0,0,0,0,-1,629,1142,-205.067,-32.6804
-588,-118,-204.326,33.6813,0,0,0,0,0,0,0,-1,636,1142,-204.326,-33.6813
-581,-118,-24.6116,3.89648,0,0,0,0,0,0,0,-1,643,1142,-24.6116,-3.89645
-574,-118,-72.0256,0.515259,0,0,0,0,0,0,0,-1,650,1142,-72.0257,-0.515318
-567,-118,-72.0513,0.48877,0,0,0,0,0,0,0,-1,657,1142,-72.0513,-0.488796
-560,-118,-71.967,0.49707,0,0,0,0,0,0,0,-1,664,1142,-71.967,-0.497115
-553,-118,-71.8315,0.429077,0,0,0,0,0,0,0,-1,671,1142,-71.8316,-0.429054
-546,-118,-71.9034,0.514893,0,0,0,0,0,0,0,-1,678,1142,-71.9035,-0.514945
-539,-118,-72.0641,0.645264,0,0,0,0,0,0,0,-1,685,1142,-72.0641,-0.645291
-532,-118,-72.1383,0.627808,0,0,0,0,0,0,0,-1,692,1142,-72.1383,-0.627791
-525,-118,-72.0248,0.533691,0,0,0,0,0,0,0,-1,699,1142,-72.0248,-0.533746
-518,-118,0,0,0,0,0,0,0,0,0,-1,706,1142,0,0
-511,-118,0,0,0,0,0,0,0,0,0,-1,713,1142,0,0
-504,-118,0,0,0,0,0,0,0,0,0,-1,720,1142,0,0
-497,-118,0,0,0,0,0,0,0,0,0,-1,727,1142,0,0
-490,-118,0,0,0,0,0,0,0,0,0,-1,734,1142,0,0
-483,-118,0,0,0,0,0,0,0,0,0,-1,741,1142,0,0
-476,-118,0,0,0,0,0,0,0,0,0,-1,748,1142,0,0
-469,-118,0,0,0,0,0,0,0,0,0,-1,755,1142,0,0
-462,-118,0,0,0,0,0,0,0,0,0,-1,762,1142,0,0
-455,-118,0,0,0,0,0,0,0,0,0,-1,769,1142,0,0
-448,-118,0,0,0,0,0,0,0,0,0,-1,776,1142,0,0
-441,-118,0,0,0,0,0,0,0,0,0,-1,783,1142,0,0
-434,-118,0,0,0,0,0,0,0,0,0,-1,790,1142,0,0
-427,-118,0,0,0,0,0,0,0,0,0,-1,797,1142,0,0
-420,-118,0,0,0,0,0,0,0,0,0,-1,804,1142,0,0
-413,-118,0,0,0,0,0,0,0,0,0,-1,811,1142,0,0
-406,-118,0,0,0,0,0,0,0,0,0,-1,818,1142,0,0
-399,-118,0,0,0,0,0,0,0,0,0,-1,825,1142,0,0
-392,-118,0,0,0,0,0,0,0,0,0,-1,832,1142,0,0
-385,-118,0,0,0,0,0,0,0,0,0,-1,839,1142,0,0
-378,-118,0,0,0,0,0,0,0,0,0,-1,846,1142,0,0
-371,-118,0,0,0,0,0,0,0,0,0,-1,853,1142,0,0
-364,-118,0,0,0,0,0,0,0,0,0,-1,860,1142,0,0
-357,-118,0,0,0,0,0,0,0,0,0,-1,867,1142,0,0
-350,-118,0,0,0,0,0,0,0,0,0,-1,874,1142,0,0
-343,-118,0,0,0,0,0,0,0,0,0,-1,881,1142,0,0
-336,-118,0,0,0,0,0,0,0,0,0,-1,888,1142,0,0
-329,-118,0,0,0,0,0,0,0,0,0,-1,895,1142,0,0
-322,-118,0,0,0,0,0,0,0,0,0,-1,902,1142,0,0
-315,-118,0,0,0,0,0,0,0,0,0,-1,909,1142,0,0
-308,-118,0,0,0,0,0,0,0,0,0,-1,916,1142,0,0
-301,-118,0,0,0,0,0,0,0,0,0,-1,923,1142,0,0
-294,-118,0,0,0,0,0,0,0,0,0,-1,930,1142,0,0
-287,-118,0,0,0,0,0,0,0,0,0,-1,937,1142,0,0
-280,-118,0,0,0,0,0,0,0,0,0,-1,944,1142,0,0
-273,-118,0,0,0,0,0,0,0,0,0,-1,951,1142,0,0
-266,-118,0,0,0,0,0,0,0,0,0,-1,958,1142,0,0
-259,-118,0,0,0,0,0,0,0,0,0,-1,965,1142,0,0
-252,-118,0,0,0,0,0,0,0,0,0,-1,972,1142,0,0
-245,-118,0,0,0,0,0,0,0,0,0,-1,979,1142,0,0
-238,-118,0,0,0,0,0,0,0,0,0,-1,986,1142,0,0
-231,-118,0,0,0,0,0,0,0,0,0,-1,993,1142,0,0
-224,-118,0,0,0,0,0,0,0,0,0,-1,1000,1142,0,0
-217,-118,0,0,0,0,0,0,0,0,0,-1,1007,1142,0,0
-210,-118,0,0,0,0,0,0,0,0,0,-1,1014,1142,0,0
-203,-118,0,0,0,0,0,0,0,0,0,-1,1021,1142,0,0
-196,-118,0,0,0,0,0,0,0,0,0,-1,1028,1142,0,0
-189,-118,0,0,0,0,0,0,0,0,0,-1,1035,1142,0,0
-182,-118,0,0,0,0,0,0,0,0,0,-1,1042,1142,0,0
-175,-118,0,0,0,0,0,0,0,0,0,-1,1049,1142,0,0
-168,-118,0,0,0,0,0,0,0,0,0,-1,1056,1142,0,0
-161,-118,0,0,0,0,0,0,0,0,0,-1,1063,1142,0,0
-154,-118,0,0,0,0,0,0,0,0,0,-1,1070,1142,0,0
-147,-118,0,0,0,0,0,0,0,0,0,-1,1077,1142,0,0
-140,-118,0,0,0,0,0,0,0,0,0,-1,1084,1142,0,0
-133,-118,0,0,0,0,0,0,0,0,0,-1,1091,1142,0,0
-126,-118,0,0,0,0,0,0,0,0,0,-1,1098,1142,0,0
-119,-118,0,0,0,0,0,0,0,0,0,-1,1105,1142,0,0
-112,-118,0,0,0,0,0,0,0,0,0,-1,1112,1142,0,0
-105,-118,0,0,0,0,0,0,0,0,0,-1,1119,1142,0,0
-98,-118,0,0,0,0,0,0,0,0,0,-1,1126,1142,0,0
-91,-118,0,0,0,0,0,0,0,0,0,-1,1133,1142,0,0
-84,-118,0,0,0,0,0,0,0,0,0,-1,1140,1142,0,0
-77,-118,0,0,0,0,0,0,0,0,0,-1,1147,1142,0,0
-70,-118,0,0,0,0,0,0,0,0,0,-1,1154,1142,0,0
-63,-118,0,0,0,0,0,0,0,0,0,-1,1161,1142,0,0
-56,-118,0,0,0,0,0,0,0,0,0,-1,1168,1142,0,0
-49,-118,0,0,0,0,0,0,0,0,0,-1,1175,1142,0,0
-42,-118,0,0,0,0,0,0,0,0,0,-1,1182,1142,0,0
-35,-118,0,0,0,0,0,0,0,0,0,-1,1189,1142,0,0
-28,-118,0,0,0,0,0,0,0,0,0,-1,1196,1142,0,0
-21,-118,0,0,0,0,0,0,0,0,0,-1,1203,1142,0,0
-14,-118,0,0,0,0,0,0,0,0,0,-1,1210,1142,0,0
-7,-118,0,0,0,0,0,0,0,0,0,-1,1217,1142,0,0
0,-118,0,0,0,0,0,0,0,0,0,-1,1224,1142,0,0
7,-118,0,0,0,0,0,0,0,0,0,-1,1231,1142,0,0
14,-118,0,0,0,0,0,0,0,0,0,-1,1238,1142,0,0
21,-118,0,0,0,0,0,0,0,0,0,-1,1245,1142,0,0
28,-118,0,0,0,0,0,0,0,0,0,-1,1252,1142,0,0
35,-118,0,0,0,0,0,0,0,0,0,-1,1259,1142,0,0
42,-118,0,0,0,0,0,0,0,0,0,-1,1266,1142,0,0
49,-118,0,0,0,0,0,0,0,0,0,-1,1273,1142,0,0
56,-118,0,0,0,0,0,0,0,0,0,-1,1280,1142,0,0
63,-118,0,0,0,0,0,0,0,0,0,-1,1287,1142,0,0
70,-118,0,0,0,0,0,0,0,0,0,-1,1294,1142,0,0
77,-118,0,0,0,0,0,0,0,0,0,-1,1301,1142,0,0
84,-118,0,0,0,0,0,0,0,0,0,-1,1308,1142,0,0
91,-118,0,0,0,0,0,0,0,0,0,-1,1315,1142,0,0
98,-118,0,0,0,0,0,0,0,0,0,-1,1322,1142,0,0
105,-118,0,0,0,0,0,0,0,0,0,-1,1329,1142,0,0
112,-118,0,0,0,0,0,0,0,0,0,-1,1336,1142,0,0
119,-118,0,0,0,0,0,0,0,0,0,-1,1343,1142,0,0
126,-118,0,0,0,0,0,0,0,0,0,-1,1350,1142,0,0
133,-118,0,0,0,0,0,0,0,0,0,-1,1357,1142,0,0
140,-118,0,0,0,0,0,0,0,0,0,-1,1364,1142,0,0
147,-118,0,0,0,0,0,0,0,0,0,-1,1371,1142,0,0
154,-118,0,0,0,0,0,0,0,0,0,-1,1378,1142,0,0
161,-118,0,0,0,0,0,0,0,0,0,-1,1385,1142,0,0
168,-118,0,0,0,0,0,0,0,0,0,-1,1392,1142,0,0
175,-118,0,0,0,0,0,0,0,0,0,-1,1399,1142,0,0
182,-118,0,0,0,0,0,0,0,0,0,-1,1406,1142,0,0
189,-118,0,0,0,0,0,0,0,0,0,-1,1413,1142,0,0
196,-118,0,0,0,0,0,0,0,0,0,-1,1420,1142,0,0
203,-118,0,0,0,0,0,0,0,0,0,-1,1427,1142,0,0
210,-118,0,0,0,0,0,0,0,0,0,-1,1434,1142,0,0
217,-118,0,0,0,0,0,0,0,0,0,-1,1441,1142,0,0
224,-118,0,0,0,0,0,0,0,0,0,-1,1448,1142,0,0
231,-118,0,0,0,0,0,0,0,0,0,-1,1455,1142,0,0
238,-118,0,0,0,0,0,0,0,0,0,-1,1462,1142,0,0
245,-118,0,0,0,0,0,0,0,0,0,-1,1469,1142,0,0
252,-118,0,0,0,0,0,0,0,0,0,-1,1476,1142,0,0
259,-118,0,0,0,0,0,0,0,0,0,-1,1483,1142,0,0
266,-118,0,0,0,0,0,0,0,0,0,-1,1490,1142,0,0
273,-118,0,0,0,0,0,0,0,0,0,-1,1497,1142,0,0
280,-118,0,0,0,0,0,0,0,0,0,-1,1504,1142,0,0
287,-118,0,0,0,0,0,0,0,0,0,-1,1511,1142,0,0
294,-118,0,0,0,0,0,0,0,0,0,-1,1518,1142,0,0
301,-118,0,0,0,0,0,0,0,0,0,-1,1525,1142,0,0
308,-118,0,0,0,0,0,0,0,0,0,-1,1532,1142,0,0
315,-118,0,0,0,0,0,0,0,0,0,-1,1539,1142,0,0
322,-118,0,0,0,0,0,0,0,0,0,-1,1546,1142,0,0
329,-118,0,0,0,0,0,0,0,0,0,-1,1553,1142,0,0
336,-118,0,0,0,0,0,0,0,0,0,-1,1560,1142,0,0
343,-118,0,0,0,0,0,0,0,0,0,-1,1567,1142,0,0
350,-118,0,0,0,0,0,0,0,0,0,-1,1574,1142,0,0
357,-118,0,0,0,0,0,0,0,0,0,-1,1581,1142,0,0
364,-118,0,0,0,0,0,0,0,0,0,-1,1588,1142,0,0
371,-118,0,0,0,0,0,0,0,0,0,-1,1595,1142,0,0
378,-118,0,0,0,0,0,0,0,0,0,-1,1602,1142,0,0
385,-118,0,0,0,0,0,0,0,0,0,-1,1609,1142,0,0
392,-118,0,0,0,0,0,0,0,0,0,-1,1616,1142,0,0
399,-118,0,0,0,0,0,0,0,0,0,-1,1623,1142,0,0
406,-118,0,0,0,0,0,0,0,0,0,-1,1630,1142,0,0
413,-118,0,0,0,0,0,0,0,0,0,-1,1637,1142,0,0
420,-118,0,0,0,0,0,0,0,0,0,-1,1644,1142,0,0
427,-118,0,0,0,0,0,0,0,0,0,-1,1651,1142,0,0
434,-118,0,0,0,0,0,0,0,0,0,-1,1658,1142,0,0
441,-118,0,0,0,0,0,0,0,0,0,-1,1665,1142,0,0
448,-118,0,0,0,0,0,0,0,0,0,-1,1672,1142,0,0
455,-118,0,0,0,0,0,0,0,0,0,-1,1679,1142,0,0
462,-118,0,0,0,0,0,0,0,0,0,-1,1686,1142,0,0
469,-118,0,0,0,0,0,0,0,0,0,-1,1693,1142,0,0
476,-118,0,0,0,0,0,0,0,0,0,-1,1700,1142,0,0
483,-118,0,0,0,0,0,0,0,0,0,-1,1707,1142,0,0
490,-118,0,0,0,0,0,0,0,0,0,-1,1714,1142,0,0
497,-118,0,0,0,0,0,0,0,0,0,-1,1721,1142,0,0
504,-118,0,0,0,0,0,0,0,0,0,-1,1728,1142,0,0
511,-118,0,0,0,0,0,0,0,0,0,-1,1735,1142,0,0
518,-118,0,0,0,0,0,0,0,0,0,-1,1742,1142,0,0
525,-118,0,0,0,0,0,0,0,0,0,-1,1749,1142,0,0
532,-118,0,0,0,0,0,0,0,0,0,-1,1756,1142,0,0
539,-118,0,0,0,0,0,0,0,0,0,-1,1763,1142,0,0
546,-118,0,0,0,0,0,0,0,0,0,-1,1770,1142,0,0
553,-118,0,0,0,0,0,0,0,0,0,-1,1777,1142,0,0
560,-118,0,0,0,0,0,0,0,0,0,-1,1784,1142,0,0
567,-118,0,0,0,0,0,0,0,0,0,-1,1791,1142,0,0
574,-118,0,0,0,0,0,0,0,0,0,-1,1798,1142,0,0
581,-118,0,0,0,0,0,0,0,0,0,-1,1805,1142,0,0
588,-118,0,0,0,0,0,0,0,0,0,-1,1812,1142,0,0
595,-118,0,0,0,0,0,0,0,0,0,-1,1819,1142,0,0
602,-118,0,0,0,0,0,0,0,0,0,-1,1826,1142,0,0
609,-118,0,0,0,0,0,0,0,0,0,-1,1833,1142,0,0
616,-118,0,0,0,0,0,0,0,0,0,-1,1840,1142,0,0
623,-118,0,0,0,0,0,0,0,0,0,-1,1847,1142,0,0
630,-118,0,0,0,0,0,0,0,0,0,-1,1854,1142,0,0
637,-118,0,0,0,0,0,0,0,0,0,-1,1861,1142,0,0
644,-118,214.408,9.01831,0,0,0,0,0,0,0,-1,1868,1142,214.408,-9.01828
651,-118,214.686,9.01636,0,0,0,0,0,0,0,-1,1875,1142,214.686,-9.01637
658,-118,214.975,9.00732,0,0,0,0,0,0,0,-1,1882,1142,214.975,-9.00729
665,-118,214.598,8.58557,0,0,0,0,0,0,0,-1,1889,1142,214.598,-8.58557
672,-118,214.522,8.43079,0,0,0,0,0,0,0,-1,1896,1142,214.522,-8.43075
679,-118,214.555,8.56189,0,0,0,0,0,0,0,-1,1903,1142,214.555,-8.5619
686,-118,214.581,8.62219,0,0,0,0,0,0,0,-1,1910,1142,214.581,-8.62216
693,-118,214.569,8.56702,0,0,0,0,0,0,0,-1,1917,1142,214.569,-8.56701
700,-118,214.627,8.62256,0,0,0,0,0,0,0,-1,1924,1142,214.628,-8.62261
707,-118,214.862,8.76343,0,0,0,0,0,0,0,-1,1931,1142,214.862,-8.76345
714,-118,50.4819,8.53809,0,0,0,0,0,0,0,-1,1938,1142,50.4819,-8.53809
721,-118,212.927,33.871,0,0,0,0,0,0,0,-1,1945,1142,212.927,-33.871
728,-118,212.753,33.2925,-0.00474307,-0.0104807,0.00757587,0.000488967,-0.0157127,0.604402,0.0106419,0.0319423,1952,1142,212.753,-33.2925
735,-118,212.634,32.8022,-0.0077133,-0.00116229,0.00669597,0.00301639,-0.011892,1.01287,0.00910162,0.0305216,1959,1142,212.634,-32.8023
742,-118,212.523,32.2177,-0.0106314,0.00784296,0.00632408,0.0098004,-0.0125888,1.27063,0.0129598,0.0427848,1966,1142,212.523,-32.2176
749,-118,212.14,31.5313,-0.0135352,0.0165241,0.00642809,0.0178411,-0.0148521,1.36872,0.0189017,0.0346467,1973,1142,212.14,-31.5313
756,-118,211.998,30.8153,-0.016461,0.0248713,0.00697439,0.0260164,-0.0176062,1.40806,0.0253411,0.0268469,1980,1142,211.998,-30.8153
763,-118,212.139,30.1393,-0.0194427,0.0328756,0.00792834,0.0340506,-0.0206178,1.42366,0.0318789,0.0177369,1987,1142,212.14,-30.1393
770,-118,211.804,29.5962,-0.0225107,0.040529,0.00925472,0.0418596,-0.0238413,1.428,0.038405,0.0277242,1994,1142,211.804,-29.5962
777,-118,211.466,28.9261,0,0,0,0,0,0,0,-1,2001,1142,211.466,-28.9261
784,-118,211.197,28.1823,0,0,0,0,0,0,0,-1,2008,1142,211.197,-28.1823
791,-118,148.07,17.4791,0,0,0,0,0,0,0,-1,2015,1142,148.07,-17.4791
798,-118,133.874,10.8453,0,0,0,0,0,0,0,-1,2022,1142,133.874,-10.8454
805,-118,117.066,3.61499,0,0,0,0,0,0,0,-1,2029,1142,117.066,-3.61499
812,-118,115.738,2.09705,0,0,0,0,0,0,0,-1,2036,1142,115.738,-2.09702
-700,-125,0,0,0,0,0,0,0,0,0,-1,524,1149,0,0
-693,-125,-85.8903,0.790649,0,0,0,0,0,0,0,-1,531,1149,-85.8903,-0.790608
-686,-125,-85.7074,2.69226,0,0,0,0,0,0,0,-1,538,1149,-85.7074,-2.6923
-679,-125,-85.6257,4.22424,0,0,0,0,0,0,0,-1,545,1149,-85.6257,-4.22429
-672,-125,-85.823,5.55298,0,0,0,0,0,0,0,-1,552,1149,-85.823,-5.55295
-665,-125,-80.6827,9.34875,0,0,0,0,0,0,0,-1,559,1149,-80.6827,-9.34879
-658,-125,-81.5901,7.77625,0,0,0,0,0,0,0,-1,566,1149,-81.59,-7.77628
-651,-125,-92.6542,11.2368,0,0,0,0,0,0,0,-1,573,1149,-92.6542,-11.2368
-644,-125,-203.501,28.5511,0,0,0,0,0,0,0,-1,580,1149,-203.501,-28.5512
-637,-125,-203.433,29.0734,-0.0186342,0.0405301,-0.0119834,0.0428651,-0.0209692,-1.37835,0.0375705,0.0289174,587,1149,-203.433,-29.0733
-630,-125,-203.594,29.6158,-0.017812,0.035902,-0.00868922,0.0372727,-0.0191826,-1.41434,0.0331476,0.027296,594,1149,-203.594,-29.6158
-623,-125,-203.69,30.2906,-0.0169323,0.030862,-0.0057263,0.0315385,-0.0176088,-1.4532,0.0287526,0.0211467,601,1149,-203.69,-30.2906
-616,-125,-203.696,31.082,0,0,0,0,0,0,0,-1,608,1149,-203.696,-31.0821
-609,-125,-203.047,31.5315,0,0,0,0,0,0,0,-1,615,1149,-203.047,-31.5314
-602,-125,-205.432,31.9958,0,0,0,0,0,0,0,-1,622,1149,-205.432,-31.9958
-595,-125,-204.398,32.8918,0,0,0,0,0,0,0,-1,629,1149,-204.398,-32.8918
-588,-125,-203.364,33.7878,0,0,0,0,0,0,0,-1,636,1149,-203.364,-33.7879
-581,-125,-26.4055,4.83203,0,0,0,0,0,0,0,-1,643,1149,-26.4055,-4.83204
-574,-125,-37.674,0.655151,0,0,0,0,0,0,0,-1,650,1149,-37.674,-0.655195
-567,-125,-72.0776,0.557861,0,0,0,0,0,0,0,-1,657,1149,-72.0776,-0.557844
-560,-125,-72.0543,0.454834,0,0,0,0,0,0,0,-1,664,1149,-72.0543,-0.45488
-553,-125,-71.9824,0.501099,0,0,0,0,0,0,0,-1,671,1149,-71.9824,-0.501113
-546,-125,-72.0555,0.591553,0,0,0,0,0,0,0,-1,678,1149,-72.0555,-0.591532
-539,-125,-72.1036,0.750366,0,0,0,0,0,0,0,-1,685,1149,-72.1036,-0.750355
-532,-125,-72.1306,0.628418,0,0,0,0,0,0,0,-1,692,1149,-72.1305,-0.628371
-525,-125,-71.9377,0.417236,0,0,0,0,0,0,0,-1,699,1149,-71.9377,-0.417244
-518,-125,0,0,0,0,0,0,0,0,0,-1,706,1149,0,0
-511,-125,0,0,0,0,0,0,0,0,0,-1,713,1149,0,0
-504,-125,0,0,0,0,0,0,0,0,0,-1,720,1149,0,0
-497,-125,0,0,0,0,0,0,0,0,0,-1,727,1149,0,0
-490,-125,0,0,0,0,0,0,0,0,0,-1,734,1149,0,0
-483,-125,0,0,0,0,0,0,0,0,0,-1,741,1149,0,0
-476,-125,0,0,0,0,0,0,0,0,0,-1,748,1149,0,0
-469,-125,0,0,0,0,0,0,0,0,0,-1,755,1149,0,0
-462,-125,0,0,0,0,0,0,0,0,0,-1,762,1149,0,0
-455,-125,0,0,0,0,0,0,0,0,0,-1,769,1149,0,0
-448,-125,0,0,0,0,0,0,0,0,0,-1,776,1149,0,0
-441,-125,0,0,0,0,0,0,0,0,0,-1,783,1149,0,0
-434,-125,0,0,0,0,0,0,0,0,0,-1,790,1149,0,0
-427,-125,0,0,0,0,0,0,0,0,0,-1,797,1149,0,0
-420,-125,0,0,0,0,0,0,0,0,0,-1,804,1149,0,0
-413,-125,0,0,0,0,0,0,0,0,0,-1,811,1149,0,0
-406,-125,0,0,0,0,0,0,0,0,0,-1,818,1149,0,0
-399,-125,0,0,0,0,0,0,0,0,0,-1,825,1149,0,0
-392,-125,0,0,0,0,0,0,0,0,0,-1,832,1149,0,0
-385,-125,0,0,0,0,0,0,0,0,0,-1,839,1149,0,0
-378,-125,0,0,0,0,0,0,0,0,0,-1,846,1149,0,0
-371,-125,0,0,0,0,0,0,0,0,0,-1,853,1149,0,0
-364,-125,0,0,0,0,0,0,0,0,0,-1,860,1149,0,0
-357,-125,0,0,0,0,0,0,0,0,0,-1,867,1149,0,0
-350,-125,0,0,0,0,0,0,0,0,0,-1,874,1149,0,0
-343,-125,0,0,0,0,0,0,0,0,0,-1,881,1149,0,0
-336,-125,0,0,0,0,0,0,0,0,0,-1,888,1149,0,0
-329,-125,0,0,0,0,0,0,0,0,0,-1,895,1149,0,0
-322,-125,0,0,0,0,0,0,0,0,0,-1,902,1149,0,0
-315,-125,0,0,0,0,0,0,0,0,0,-1,909,1149,0,0
-308,-125,0,0,0,0,0,0,0,0,0,-1,916,1149,0,0
-301,-125,0,0,0,0,0,0,0,0,0,-1,923,1149,0,0
-294,-125,0,0,0,0,0,0,0,0,0,-1,930,1149,0,0
-287,-125,0,0,0,0,0,0,0,0,0,-1,937,1149,0,0
-280,-125,0,0,0,0,0,0,0,0,0,-1,944,1149,0,0
-273,-125,0,0,0,0,0,0,0,0,0,-1,951,1149,0,0
-266,-125,0,0,0,0,0,0,0,0,0,-1,958,1149,0,0
-259,-125,0,0,0,0,0,0,0,0,0,-1,965,1149,0,0
-252,-125,0,0,0,0,0,0,0,0,0,-1,972,1149,0,0
-245,-125,0,0,0,0,0,0,0,0,0,-1,979,1149,0,0
-238,-125,0,0,0,0,0,0,0,0,0,-1,986,1149,0,0
-231,-125,0,0,0,0,0,0,0,0,0,-1,993,1149,0,0
-224,-125,0,0,0,0,0,0,0,0,0,-1,1000,1149,0,0
-217,-125,0,0,0,0,0,0,0,0,0,-1,1007,1149,0,0
-210,-125,0,0,0,0,0,0,0,0,0,-1,1014,1149,0,0
-203,-125,0,0,0,0,0,0,0,0,0,-1,1021,1149,0,0
-196,-125,0,0,0,0,0,0,0,0,0,-1,1028,1149,0,0
-189,-125,0,0,0,0,0,0,0,0,0,-1,1035,1149,0,0
-182,-125,0,0,0,0,0,0,0,0,0,-1,1042,1149,0,0
-175,-125,0,0,0,0,0,0,0,0,0,-1,1049,1149,0,0
-168,-125,0,0,0,0,0,0,0,0,0,-1,1056,1149,0,0
-161,-125,0,0,0,0,0,0,0,0,0,-1,1063,1149,0,0
-154,-125,0,0,0,0,0,0,0,0,0,-1,1070,1149,0,0
-147,-125,0,0,0,0,0,0,0,0,0,-1,1077,1149,0,0
-140,-125,0,0,0,0,0,0,0,0,0,-1,1084,1149,0,0
-133,-125,0,0,0,0,0,0,0,0,0,-1,1091,1149,0,0
-126,-125,0,0,0,0,0,0,0,0,0,-1,1098,1149,0,0
-119,-125,0,0,0,0,0,0,0,0,0,-1,1105,1149,0,0
-112,-125,0,0,0,0,0,0,0,0,0,-1,1112,1149,0,0
-105,-125,0,0,0,0,0,0,0,0,0,-1,1119,1149,0,0
-98,-125,0,0,0,0,0,0,0,0,0,-1,1126,1149,0,0
-91,-125,0,0,0,0,0,0,0,0,0,-1,1133,1149,0,0
-84,-125,0,0,0,0,0,0,0,0,0,-1,1140,1149,0,0
-77,-125,0,0,0,0,0,0,0,0,0,-1,1147,1149,0,0
-70,-125,0,0,0,0,0,0,0,0,0,-1,1154,1149,0,0
-63,-125,0,0,0,0,0,0,0,0,0,-1,1161,1149,0,0
-56,-125,0,0,0,0,0,0,0,0,0,-1,1168,1149,0,0
-49,-125,0,0,0,0,0,0,0,0,0,-1,1175,1149,0,0
-42,-125,0,0,0,0,0,0,0,0,0,-1,1182,1149,0,0
-35,-125,0,0,0,0,0,0,0,0,0,-1,1189,1149,0,0
-28,-125,0,0,0,0,0,0,0,0,0,-1,1196,1149,0,0
-21,-125,0,0,0,0,0,0,0,0,0,-1,1203,1149,0,0
-14,-125,0,0,0,0,0,0,0,0,0,-1,1210,1149,0,0
-7,-125,0,0,0,0,0,0,0,0,0,-1,1217,1149,0,0
0,-125,0,0,0,0,0,0,0,0,0,-1,1224,1149,0,0
7,-125,0,0,0,0,0,0,0,0,0,-1,1231,1149,0,0
14,-125,0,0,0,0,0,0,0,0,0,-1,1238,1149,0,0
21,-125,0,0,0,0,0,0,0,0,0,-1,1245,1149,0,0
28,-125,0,0,0,0,0,0,0,0,0,-1,1252,1149,0,0
35,-125,0,0,0,0,0,0,0,0,0,-1,1259,1149,0,0
42,-125,0,0,0,0,0,0,0,0,0,-1,1266,1149,0,0
49,-125,0,0,0,0,0,0,0,0,0,-1,1273,1149,0,0
56,-125,0,0,0,0,0,0,0,0,0,-1,1280,1149,0,0
63,-125,0,0,0,0,0,0,0,0,0,-1,1287,1149,0,0
70,-125,0,0,0,0,0,0,0,0,0,-1,1294,1149,0,0
77,-125,0,0,0,0,0,0,0,0,0,-1,1301,1149,0,0
84,-125,0,0,0,0,0,0,0,0,0,-1,1308,1149,0,0
91,-125,0,0,0,0,0,0,0,0,0,-1,1315,1149,0,0
98,-125,0,0,0,0,0,0,0,0,0,-1,1322,1149,0,0
105,-125,0,0,0,0,0,0,0,0,0,-1,1329,1149,0,0
112,-125,0,0,0,0,0,0,0,0,0,-1,1336,1149,0,0
119,-125,0,0,0,0,0,0,0,0,0,-1,1343,1149,0,0
126,-125,0,0,0,0,0,0,0,0,0,-1,1350,1149,0,0
133,-125,0,0,0,0,0,0,0,0,0,-1,1357,1149,0,0
140,-125,0,0,0,0,0,0,0,0,0,-1,1364,1149,0,0
147,-125,0,0,0,0,0,0,0,0,0,-1,1371,1149,0,0
154,-125,0,0,0,0,0,0,0,0,0,-1,1378,1149,0,0
161,-125,0,0,0,0,0,0,0,0,0,-1,1385,1149,0,0
168,-125,0,0,0,0,0,0,0,0,0,-1,1392,1149,0,0
175,-125,0,0,0,0,0,0,0,0,0,-1,1399,1149,0,0
182,-125,0,0,0,0,0,0,0,0,0,-1,1406,1149,0,0
189,-125,0,0,0,0,0,0,0,0,0,-1,1413,1149,0,0
196,-125,0,0,0,0,0,0,0,0,0,-1,1420,1149,0,0
203,-125,0,0,0,0,0,0,0,0,0,-1,1427,1149,0,0
210,-125,0,0,0,0,0,0,0,0,0,-1,1434,1149,0,0
217,-125,0,0,0,0,0,0,0,0,0,-1,1441,1149,0,0
224,-125,0,0,0,0,0,0,0,0,0,-1,1448,1149,0,0
231,-125,0,0,0,0,0,0,0,0,0,-1,1455,1149,0,0
238,-125,0,0,0,0,0,0,0,0,0,-1,1462,1149,0,0
245,-125,0,0,0,0,0,0,0,0,0,-1,1469,1149,0,0
252,-125,0,0,0,0,0,0,0,0,0,-1,1476,1149,0,0
259,-125,0,0,0,0,0,0,0,0,0,-1,1483,1149,0,0
266,-125,0,0,0,0,0,0,0,0,0,-1,1490,1149,0,0
273,-125,0,0,0,0,0,0,0,0,0,-1,1497,1149,0,0
280,-125,0,0,0,0,0,0,0,0,0,-1,1504,1149,0,0
287,-125,0,0,0,0,0,0,0,0,0,-1,1511,1149,0,0
294,-125,0,0,0,0,0,0,0,0,0,-1,1518,1149,0,0
301,-125,0,0,0,0,0,0,0,0,0,-1,1525,1149,0,0
308,-125,0,0,0,0,0,0,0,0,0,-1,1532,1149,0,0
315,-125,0,0,0,0,0,0,0,0,0,-1,1539,1149,0,0
322,-125,0,0,0,0,0,0,0,0,0,-1,1546,1149,0,0
329,-125,0,0,0,0,0,0,0,0,0,-1,1553,1149,0,0
336,-125,0,0,0,0,0,0,0,0,0,-1,1560,1149,0,0
343,-125,0,0,0,0,0,0,0,0,0,-1,1567,1149,0,0
350,-125,0,0,0,0,0,0,0,0,0,-1,1574,1149,0,0
357,-125,0,0,0,0,0,0,0,0,0,-1,1581,1149,0,0
364,-125,0,0,0,0,0,0,0,0,0,-1,1588,1149,0,0
371,-125,0,0,0,0,0,0,0,0,0,-1,1595,1149,0,0
378,-125,0,0,0,0,0,0,0,0,0,-1,1602,1149,0,0
385,-125,0,0,0,0,0,0,0,0,0,-1,1609,1149,0,0
392,-125,0,0,0,0,0,0,0,0,0,-1,1616,1149,0,0
399,-125,0,0,0,0,0,0,0,0,0,-1,1623,1149,0,0
406,-125,0,0,0,0,0,0,0,0,0,-1,1630,1149,0,0
413,-125,0,0,0,0,0,0,0,0,0,-1,1637,1149,0,0
420,-125,0,0,0,0,0,0,0,0,0,-1,1644,1149,0,0
427,-125,0,0,0,0,0,0,0,0,0,-1,1651,1149,0,0
434,-125,0,0,0,0,0,0,0,0,0,-1,1658,1149,0,0
441,-125,0,0,0,0,0,0,0,0,0,-1,1665,1149,0,0
448,-125,0,0,0,0,0,0,0,0,0,-1,1672,1149,0,0
455,-125,0,0,0,0,0,0,0,0,0,-1,1679,1149,0,0
462,-125,0,0,0,0,0,0,0,0,0,-1,1686,1149,0,0
469,-125,0,0,0,0,0,0,0,0,0,-1,1693,1149,0,0
476,-125,0,0,0,0,0,0,0,0,0,-1,1700,1149,0,0
483,-125,0,0,0,0,0,0,0,0,0,-1,1707,1149,0,0
490,-125,0,0,0,0,0,0,0,0,0,-1,1714,1149,0,0
497,-125,0,0,0,0,0,0,0,0,0,-1,1721,1149,0,0
504,-125,0,0,0,0,0,0,0,0,0,-1,1728,1149,0,0
511,-125,0,0,0,0,0,0,0,0,0,-1,1735,1149,0,0
518,-125,0,0,0,0,0,0,0,0,0,-1,1742,1149,0,0
525,-125,0,0,0,0,0,0,0,0,0,-1,1749,1149,0,0
532,-125,0,0,0,0,0,0,0,0,0,-1,1756,1149,0,0
539,-125,0,0,0,0,0,0,0,0,0,-1,1763,1149,0,0
546,-125,0,0,0,0,0,0,0,0,0,-1,1770,1149,0,0
553,-125,0,0,0,0,0,0,0,0,0,-1,1777,1149,0,0
560,-125,0,0,0,0,0,0,0,0,0,-1,1784,1149,0,0
567,-125,0,0,0,0,0,0,0,0,0,-1,1791,1149,0,0
574,-125,0,0,0,0,0,0,0,0,0,-1,1798,1149,0,0
581,-125,0,0,0,0,0,0,0,0,0,-1,1805,1149,0,0
588,-125,0,0,0,0,0,0,0,0,0,-1,1812,1149,0,0
595,-125,0,0,0,0,0,0,0,0,0,-1,1819,1149,0,0
602,-125,0,0,0,0,0,0,0,0,0,-1,1826,1149,0,0
609,-125,0,0,0,0,0,0,0,0,0,-1,1833,1149,0,0
616,-125,0,0,0,0,0,0,0,0,0,-1,1840,1149,0,0
623,-125,0,0,0,0,0,0,0,0,0,-1,1847,1149,0,0
630,-125,0,0,0,0,0,0,0,0,0,-1,1854,1149,0,0
637,-125,0,0,0,0,0,0,0,0,0,-1,1861,1149,0,0
644,-125,214.622,9.07764,0,0,0,0,0,0,0,-1,1868,1149,214.622,-9.07758
651,-125,214.619,8.6748,0,0,0,0,0,0,0,-1,1875,1149,214.619,-8.67482
658,-125,214.427,8.64087,0,0,0,0,0,0,0,-1,1882,1149,214.428,-8.64081
665,-125,214.466,8.74219,0,0,0,0,0,0,0,-1,1889,1149,214.466,-8.7422
672,-125,214.475,8.62817,0,0,0,0,0,0,0,-1,1896,1149,214.475,-8.62818
679,-125,214.504,8.56055,0,0,0,0,0,0,0,-1,1903,1149,214.504,-8.5605
686,-125,214.528,8.54773,0,0,0,0,0,0,0,-1,1910,1149,214.528,-8.54774
693,-125,214.538,8.53101,0,0,0,0,0,0,0,-1,1917,1149,214.538,-8.53095
700,-125,214.591,8.54956,0,0,0,0,0,0,0,-1,1924,1149,214.591,-8.54957
707,-125,214.908,8.4248,0,0,0,0,0,0,0,-1,1931,1149,214.908,-8.42479
714,-125,54.8745,9.21375,0,0,0,0,0,0,0,-1,1938,1149,54.8746,-9.21371
721,-125,211.899,34.1587,0,0,0,0,0,0,0,-1,1945,1149,211.899,-34.1587
728,-125,211.784,33.5427,-0.00368635,-0.00761689,0.00691982,0.00154186,-0.0128451,0.647038,0.0091209,0.0339563,1952,1149,211.784,-33.5427
735,-125,211.748,32.9531,-0.00684566,0.00127837,0.00626659,0.00468429,-0.0102516,1.07295,0.00882066,0.0377049,1959,1149,211.748,-32.9532
742,-125,211.618,32.1416,-0.00986258,0.00983979,0.00612667,0.0115896,-0.0116123,1.2926,0.0133956,0.0433975,1966,1149,211.618,-32.1416
749,-125,211.306,31.4384,-0.0127701,0.0180541,0.00647117,0.0193576,-0.0140735,1.37204,0.0193817,0.0359374,1973,1149,211.306,-31.4384
756,-125,211.187,30.5652,-0.0155994,0.0259077,0.00726984,0.0271442,-0.0168359,1.40233,0.0256233,0.0337272,1980,1149,211.187,-30.5651
763,-125,211.315,29.9619,-0.018379,0.0333863,0.00849169,0.0347437,-0.0197364,1.41229,0.0318494,0.018961,1987,1149,211.315,-29.9619
770,-125,210.938,29.3789,0,0,0,0,0,0,0,-1,1994,1149,210.938,-29.3789
777,-125,210.572,28.7594,0,0,0,0,0,0,0,-1,2001,1149,210.572,-28.7594
784,-125,147.026,18.6482,0,0,0,0,0,0,0,-1,2008,1149,147.026,-18.6482
791,-125,132.727,12.136,0,0,0,0,0,0,0,-1,2015,1149,132.727,-12.136
798,-125,113.704,2.52368,0,0,0,0,0,0,0,-1,2022,1149,113.704,-2.52367
805,-125,114.45,3.41956,0,0,0,0,0,0,0,-1,2029,1149,114.451,-3.41951
812,-125,115.883,3.97852,0,0,0,0,0,0,0,-1,2036,1149,115.883,-3.97857
-700,-132,0,0,0,0,0,0,0,0,0,-1,524,1156,0,0
-693,-132,-84.8775,-0.206787,0,0,0,0,0,0,0,-1,531,1156,-84.8775,0.20675
-686,-132,-84.7945,1.61938,0,0,0,0,0,0,0,-1,538,1156,-84.7945,-1.6194
-679,-132,-84.6419,3.61133,0,0,0,0,0,0,0,-1,545,1156,-84.6419,-3.61137
-672,-132,-81.5812,8.59778,0,0,0,0,0,0,0,-1,552,1156,-81.5813,-8.59783
-665,-132,-80.6072,9.95984,0,0,0,0,0,0,0,-1,559,1156,-80.6072,-9.95988
-658,-132,-91.9766,9.54736,0,0,0,0,0,0,0,-1,566,1156,-91.9766,-9.54732
-651,-132,-116.257,16.9509,0,0,0,0,0,0,0,-1,573,1156,-116.257,-16.9509
-644,-132,-202.912,28.1707,0,0,0,0,0,0,0,-1,580,1156,-202.912,-28.1706
-637,-132,-202.833,28.7458,-0.0197391,0.0413418,-0.0137646,0.0443004,-0.0226977,-1.35908,0.0393459,0.0279964,587,1156,-202.833,-28.7458
-630,-132,-202.914,29.338,-0.01892,0.0368674,-0.00995338,0.03859,-0.0206426,-1.39942,0.0347173,0.0203701,594,1156,-202.914,-29.338
-623,-132,-202.956,30.0503,-0.018097,0.0319685,-0.00645167,0.0327865,-0.018915,-1.44468,0.0302059,0.0235051,601,1156,-202.956,-30.0503
-616,-132,-203.009,30.8127,0,0,0,0,0,0,0,-1,608,1156,-203.009,-30.8128
-609,-132,-202.009,31.626,0,0,0,0,0,0,0,-1,615,1156,-202.009,-31.626
-602,-132,-200.797,32.3807,0,0,0,0,0,0,0,-1,622,1156,-200.797,-32.3807
-595,-132,-203.735,33.1725,0,0,0,0,0,0,0,-1,629,1156,-203.735,-33.1725
-588,-132,-42.6534,6.92969,0,0,0,0,0,0,0,-1,636,1156,-42.6535,-6.92967
-581,-132,-35.9343,6.42957,0,0,0,0,0,0,0,-1,643,1156,-35.9342,-6.42957
-574,-132,-33.2071,2.86963,0,0,0,0,0,0,0,-1,650,1156,-33.2071,-2.86963
-567,-132,-72.0044,0.526489,0,0,0,0,0,0,0,-1,657,1156,-72.0044,-0.526461
-560,-132,-72.1078,0.445068,0,0,0,0,0,0,0,-1,664,1156,-72.1078,-0.445009
-553,-132,-72.0989,0.435669,0,0,0,0,0,0,0,-1,671,1156,-72.0989,-0.435641
-546,-132,-72.072,0.571045,0,0,0,0,0,0,0,-1,678,1156,-72.0721,-0.570985
-539,-132,-72.0065,0.603271,0,0,0,0,0,0,0,-1,685,1156,-72.0065,-0.603318
-532,-132,-71.9823,0.505493,0,0,0,0,0,0,0,-1,692,1156,-71.9823,-0.505447
-525,-132,-72.0096,0.454956,0,0,0,0,0,0,0,-1,699,1156,-72.0097,-0.455012
-518,-132,0,0,0,0,0,0,0,0,0,-1,706,1156,0,0
-511,-132,0,0,0,0,0,0,0,0,0,-1,713,1156,0,0
-504,-132,0,0,0,0,0,0,0,0,0,-1,720,1156,0,0
-497,-132,0,0,0,0,0,0,0,0,0,-1,727,1156,0,0
-490,-132,0,0,0,0,0,0,0,0,0,-1,734,1156,0,0
-483,-132,0,0,0,0,0,0,0,0,0,-1,741,1156,0,0
-476,-132,0,0,0,0,0,0,0,0,0,-1,748,1156,0,0
-469,-132,0,0,0,0,0,0,0,0,0,-1,755,1156,0,0
-462,-132,0,0,0,0,0,0,0,0,0,-1,762,1156,0,0
-455,-132,0,0,0,0,0,0,0,0,0,-1,769,1156,0,0
-448,-132,0,0,0,0,0,0,0,0,0,-1,776,1156,0,0
-441,-132,0,0,0,0,0,0,0,0,0,-1,783,1156,0,0
-434,-132,0,0,0,0,0,0,0,0,0,-1,790,1156,0,0
-427,-132,0,0,0,0,0,0,0,0,0,-1,797,1156,0,0
-420,-132,0,0,0,0,0,0,0,0,0,-1,804,1156,0,0
-413,-132,0,0,0,0,0,0,0,0,0,-1,811,1156,0,0
-406,-132,0,0,0,0,0,0,0,0,0,-1,818,1156,0,0
-399,-132,0,0,0,0,0,0,0,0,0,-1,825,1156,0,0
-392,-132,0,0,0,0,0,0,0,0,0,-1,832,1156,0,0
-385,-132,0,0,0,0,0,0,0,0,0,-1,839,1156,0,0
-378,-132,0,0,0,0,0,0,0,0,0,-1,846,1156,0,0
-371,-132,0,0,0,0,0,0,0,0,0,-1,853,1156,0,0
-364,-132,0,0,0,0,0,0,0,0,0,-1,860,1156,0,0
-357,-132,0,0,0,0,0,0,0,0,0,-1,867,1156,0,0
-350,-132,0,0,0,0,0,0,0,0,0,-1,874,1156,0,0
-343,-132,0,0,0,0,0,0,0,0,0,-1,881,1156,0,0
-336,-132,0,0,0,0,0,0,0,0,0,-1,888,1156,0,0
-329,-132,0,0,0,0,0,0,0,0,0,-1,895,1156,0,0
-322,-132,0,0,0,0,0,0,0,0,0,-1,902,1156,0,0
-315,-132,0,0,0,0,0,0,0,0,0,-1,909,1156,0,0
-308,-132,0,0,0,0,0,0,0,0,0,-1,916,1156,0,0
-301,-132,0,0,0,0,0,0,0,0,0,-1,923,1156,0,0
-294,-132,0,0,0,0,0,0,0,0,0,-1,930,1156,0,0
-287,-132,0,0,0,0,0,0,0,0,0,-1,937,1156,0,0
-280,-132,0,0,0,0,0,0,0,0,0,-1,944,1156,0,0
-273,-132,0,0,0,0,0,0,0,0,0,-1,951,1156,0,0
-266,-132,0,0,0,0,0,0,0,0,0,-1,958,1156,0,0
-259,-132,0,0,0,0,0,0,0,0,0,-1,965,1156,0,0
-252,-132,0,0,0,0,0,0,0,0,0,-1,972,1156,0,0
-245,-132,0,0,0,0,0,0,0,0,0,-1,979,1156,0,0
-238,-132,0,0,0,0,0,0,0,0,0,-1,986,1156,0,0
-231,-132,0,0,0,0,0,0,0,0,0,-1,993,1156,0,0
-224,-132,0,0,0,0,0,0,0,0,0,-1,1000,1156,0,0
-217,-132,0,0,0,0,0,0,0,0,0,-1,1007,1156,0,0
-210,-132,0,0,0,0,0,0,0,0,0,-1,1014,1156,0,0
-203,-132,0,0,0,0,0,0,0,0,0,-1,1021,1156,0,0
-196,-132,0,0,0,0,0,0,0,0,0,-1,1028,1156,0,0
-189,-132,0,0,0,0,0,0,0,0,0,-1,1035,1156,0,0
-182,-132,0,0,0,0,0,0,0,0,0,-1,1042,1156,0,0
-175,-132,0,0,0,0,0,0,0,0,0,-1,1049,1156,0,0
-168,-132,0,0,0,0,0,0,0,0,0,-1,1056,1156,0,0
-161,-132,0,0,0,0,0,0,0,0,0,-1,1063,1156,0,0
-154,-132,0,0,0,0,0,0,0,0,0,-1,1070,1156,0,0
-147,-132,0,0,0,0,0,0,0,0,0,-1,1077,1156,0,0
-140,-132,0,0,0,0,0,0,0,0,0,-1,1084,1156,0,0
-133,-132,0,0,0,0,0,0,0,0,0,-1,1091,1156,0,0
-126,-132,0,0,0,0,0,0,0,0,0,-1,1098,1156,0,0
-119,-132,0,0,0,0,0,0,0,0,0,-1,1105,1156,0,0
-112,-132,0,0,0,0,0,0,0,0,0,-1,1112,1156,0,0
-105,-132,0,0,0,0,0,0,0,0,0,-1,1119,1156,0,0
-98,-132,0,0,0,0,0,0,0,0,0,-1,1126,1156,0,0
-91,-132,0,0,0,0,0,0,0,0,0,-1,1133,1156,0,0
-84,-132,0,0,0,0,0,0,0,0,0,-1,1140,1156,0,0
-77,-132,0,0,0,0,0,0,0,0,0,-1,1147,1156,0,0
-70,-132,0,0,0,0,0,0,0,0,0,-1,1154,1156,0,0
-63,-132,0,0,0,0,0,0,0,0,0,-1,1161,1156,0,0
-56,-132,0,0,0,0,0,0,0,0,0,-1,1168,1156,0,0
-49,-132,0,0,0,0,0,0,0,0,0,-1,1175,1156,0,0
-42,-132,0,0,0,0,0,0,0,0,0,-1,1182,1156,0,0
-35,-132,0,0,0,0,0,0,0,0,0,-1,1189,1156,0,0
-28,-132,0,0,0,0,0,0,0,0,0,-1,1196,1156,0,0
-21,-132,0,0,0,0,0,0,0,0,0,-1,1203,1156,0,0
-14,-132,0,0,0,0,0,0,0,0,0,-1,1210,1156,0,0
-7,-132,0,0,0,0,0,0,0,0,0,-1,1217,1156,0,0
0,-132,0,0,0,0,0,0,0,0,0,-1,1224,1156,0,0
7,-132,0,0,0,0,0,0,0,0,0,-1,1231,1156,0,0
14,-132,0,0,0,0,0,0,0,0,0,-1,1238,1156,0,0
21,-132,0,0,0,0,0,0,0,0,0,-1,1245,1156,0,0
28,-132,0,0,0,0,0,0,0,0,0,-1,1252,1156,0,0
35,-132,0,0,0,0,0,0,0,0,0,-1,1259,1156,0,0
42,-132,0,0,0,0,0,0,0,0,0,-1,1266,1156,0,0
49,-132,0,0,0,0,0,0,0,0,0,-1,1273,1156,0,0
56,-132,0,0,0,0,0,0,0,0,0,-1,1280,1156,0,0
63,-132,0,0,0,0,0,0,0,0,0,-1,1287,1156,0,0
70,-132,0,0,0,0,0,0,0,0,0,-1,1294,1156,0,0
77,-132,0,0,0,0,0,0,0,0,0,-1,1301,1156,0,0
84,-132,0,0,0,0,0,0,0,0,0,-1,1308,1156,0,0
91,-132,0,0,0,0,0,0,0,0,0,-1,1315,1156,0,0
98,-132,0,0,0,0,0,0,0,0,0,-1,1322,1156,0,0
105,-132,0,0,0,0,0,0,0,0,0,-1,1329,1156,0,0
112,-132,0,0,0,0,0,0,0,0,0,-1,1336,1156,0,0
119,-132,0,0,0,0,0,0,0,0,0,-1,1343,1156,0,0
126,-132,0,0,0,0,0,0,0,0,0,-1,1350,1156,0,0
133,-132,0,0,0,0,0,0,0,0,0,-1,1357,1156,0,0
140,-132,0,0,0,0,0,0,0,0,0,-1,1364,1156,0,0
147,-132,0,0,0,0,0,0,0,0,0,-1,1371,1156,0,0
154,-132,0,0,0,0,0,0,0,0,0,-1,1378,1156,0,0
161,-132,0,0,0,0,0,0,0,0,0,-1,1385,1156,0,0
168,-132,0,0,0,0,0,0,0,0,0,-1,1392,1156,0,0
175,-132,0,0,0,0,0,0,0,0,0,-1,1399,1156,0,0
182,-132,0,0,0,0,0,0,0,0,0,-1,1406,1156,0,0
189,-132,0,0,0,0,0,0,0,0,0,-1,1413,1156,0,0
196,-132,0,0,0,0,0,0,0,0,0,-1,1420,1156,0,0
203,-132,0,0,0,0,0,0,0,0,0,-1,1427,1156,0,0
210,-132,0,0,0,0,0,0,0,0,0,-1,1434,1156,0,0
217,-132,0,0,0,0,0,0,0,0,0,-1,1441,1156,0,0
224,-132,0,0,0,0,0,0,0,0,0,-1,1448,1156,0,0
231,-132,0,0,0,0,0,0,0,0,0,-1,1455,1156,0,0
238,-132,0,0,0,0,0,0,0,0,0,-1,1462,1156,0,0
245,-132,0,0,0,0,0,0,0,0,0,-1,1469,1156,0,0
252,-132,0,0,0,0,0,0,0,0,0,-1,1476,1156,0,0
259,-132,0,0,0,0,0,0,0,0,0,-1,1483,1156,0,0
266,-132,0,0,0,0,0,0,0,0,0,-1,1490,1156,0,0
273,-132,0,0,0,0,0,0,0,0,0,-1,1497,1156,0,0
280,-132,0,0,0,0,0,0,0,0,0,-1,1504,1156,0,0
287,-132,0,0,0,0,0,0,0,0,0,-1,1511,1156,0,0
294,-132,0,0,0,0,0,0,0,0,0,-1,1518,1156,0,0
301,-132,0,0,0,0,0,0,0,0,0,-1,1525,1156,0,0
308,-132,0,0,0,0,0,0,0,0,0,-1,1532,1156,0,0
315,-132,0,0,0,0,0,0,0,0,0,-1,1539,1156,0,0
322,-132,0,0,0,0,0,0,0,0,0,-1,1546,1156,0,0
329,-132,0,0,0,0,0,0,0,0,0,-1,1553,1156,0,0
336,-132,0,0,0,0,0,0,0,0,0,-1,1560,1156,0,0
343,-132,0,0,0,0,0,0,0,0,0,-1,1567,1156,0,0
350,-132,0,0,0,0,0,0,0,0,0,-1,1574,1156,0,0
357,-132,0,0,0,0,0,0,0,0,0,-1,1581,1156,0,0
364,-132,0,0,0,0,0,0,0,0,0,-1,1588,1156,0,0
371,-132,0,0,0,0,0,0,0,0,0,-1,1595,1156,0,0
378,-132,0,0,0,0,0,0,0,0,0,-1,1602,1156,0,0
385,-132,0,0,0,0,0,0,0,0,0,-1,1609,1156,0,0
392,-132,0,0,0,0,0,0,0,0,0,-1,1616,1156,0,0
399,-132,0,0,0,0,0,0,0,0,0,-1,1623,1156,0,0
406,-132,0,0,0,0,0,0,0,0,0,-1,1630,1156,0,0
413,-132,0,0,0,0,0,0,0,0,0,-1,1637,1156,0,0
420,-132,0,0,0,0,0,0,0,0,0,-1,1644,1156,0,0
427,-132,0,0,0,0,0,0,0,0,0,-1,1651,1156,0,0
434,-132,0,0,0,0,0,0,0,0,0,-1,1658,1156,0,0
441,-132,0,0,0,0,0,0,0,0,0,-1,1665,1156,0,0
448,-132,0,0,0,0,0,0,0,0,0,-1,1672,1156,0,0
455,-132,0,0,0,0,0,0,0,0,0,-1,1679,1156,0,0
462,-132,0,0,0,0,0,0,0,0,0,-1,1686,1156,0,0
469,-132,0,0,0,0,0,0,0,0,0,-1,1693,1156,0,0
476,-132,0,0,0,0,0,0,0,0,0,-1,1700,1156,0,0
483,-132,0,0,0,0,0,0,0,0,0,-1,1707,1156,0,0
490,-132,0,0,0,0,0,0,0,0,0,-1,1714,1156,0,0
497,-132,0,0,0,0,0,0,0,0,0,-1,1721,1156,0,0
504,-132,0,0,0,0,0,0,0,0,0,-1,1728,1156,0,0
511,-132,0,0,0,0,0,0,0,0,0,-1,1735,1156,0,0
518,-132,0,0,0,0,0,0,0,0,0,-1,1742,1156,0,0
525,-132,0,0,0,0,0,0,0,0,0,-1,1749,1156,0,0
532,-132,0,0,0,0,0,0,0,0,0,-1,1756,1156,0,0
539,-132,0,0,0,0,0,0,0,0,0,-1,1763,1156,0,0
546,-132,0,0,0,0,0,0,0,0,0,-1,1770,1156,0,0
553,-132,0,0,0,0,0,0,0,0,0,-1,1777,1156,0,0
560,-132,0,0,0,0,0,0,0,0,0,-1,1784,1156,0,0
567,-132,0,0,0,0,0,0,0,0,0,-1,1791,1156,0,0
574,-132,0,0,0,0,0,0,0,0,0,-1,1798,1156,0,0
581,-132,0,0,0,0,0,0,0,0,0,-1,1805,1156,0,0
588,-132,0,0,0,0,0,0,0,0,0,-1,1812,1156,0,0
595,-132,0,0,0,0,0,0,0,0,0,-1,1819,1156,0,0
602,-132,0,0,0,0,0,0,0,0,0,-1,1826,1156,0,0
609,-132,0,0,0,0,0,0,0,0,0,-1,1833,1156,0,0
616,-132,0,0,0,0,0,0,0,0,0,-1,1840,1156,0,0
623,-132,0,0,0,0,0,0,0,0,0,-1,1847,1156,0,0
630,-132,0,0,0,0,0,0,0,0,0,-1,1854,1156,0,0
637,-132,0,0,0,0,0,0,0,0,0,-1,1861,1156,0,0
644,-132,214.896,8.79639,0,0,0,0,0,0,0,-1,1868,1156,214.895,-8.79638
651,-132,214.783,8.71387,0,0,0,0,0,0,0,-1,1875,1156,214.783,-8.71391
658,-132,214.507,8.72473,0,0,0,0,0,0,0,-1,1882,1156,214.507,-8.72475
665,-132,214.498,8.6936,0,0,0,0,0,0,0,-1,1889,1156,214.498,-8.6936
672,-132,214.454,8.75061,0,0,0,0,0,0,0,-1,1896,1156,214.454,-8.75065
679,-132,214.402,8.66614,0,0,0,0,0,0,0,-1,1903,1156,214.402,-8.66611
686,-132,214.446,8.61694,0,0,0,0,0,0,0,-1,1910,1156,214.446,-8.61697
693,-132,214.533,8.7406,0,0,0,0,0,0,0,-1,1917,1156,214.533,-8.7406
700,-132,214.598,8.47339,0,0,0,0,0,0,0,-1,1924,1156,214.598,-8.47337
707,-132,57.9275,3.01367,0,0,0,0,0,0,0,-1,1931,1156,57.9275,-3.01369
714,-132,57.8083,9.22156,0,0,0,0,0,0,0,-1,1938,1156,57.8084,-9.22151
721,-132,211.039,34.2433,0,0,0,0,0,0,0,-1,1945,1156,211.039,-34.2432
728,-132,210.827,33.7059,-0.00273388,-0.00472323,0.00646017,0.00280775,-0.0102649,0.709013,0.00794626,0.0454135,1952,1156,210.827,-33.7059
735,-132,210.885,32.8948,-0.00607388,0.0036656,0.00607926,0.00658507,-0.00899334,1.12309,0.00902995,0.0477881,1959,1156,210.885,-32.8947
742,-132,210.792,32.0309,-0.00916726,0.0116838,0.00618658,0.0133812,-0.0108647,1.30302,0.0140235,0.0339397,1966,1156,210.792,-32.0308
749,-132,210.507,31.1951,-0.0120439,0.0193099,0.0067609,0.0207057,-0.0134396,1.36721,0.019862,0.0323265,1973,1156,210.507,-31.195
756,-132,210.335,30.3932,-0.0147307,0.0265199,0.00778005,0.0279385,-0.0161493,1.39044,0.0257557,0.0376567,1980,1156,210.336,-30.3932
763,-132,210.38,29.7782,-0.017251,0.0332873,0.00922141,0.0349173,-0.018881,1.39584,0.0315171,0.0219757,1987,1156,210.38,-29.7782
770,-132,210.21,29.1597,-0.0196236,0.0395829,0.0110622,0.0415822,-0.0216229,1.39199,0.037093,0.0291275,1994,1156,210.21,-29.1596
777,-132,209.877,28.3438,0,0,0,0,0,0,0,-1,2001,1156,209.877,-28.3438
784,-132,109.483,2.9032,0,0,0,0,0,0,0,-1,2008,1156,109.483,-2.9032
791,-132,109.441,3.19641,0,0,0,0,0,0,0,-1,2015,1156,109.441,-3.19635
798,-132,114.092,2.5321,0,0,0,0,0,0,0,-1,2022,1156,114.092,-2.53215
805,-132,115.147,3.21765,0,0,0,0,0,0,0,-1,2029,1156,115.147,-3.21762
812,-132,116.501,3.68884,0,0,0,0,0,0,0,-1,2036,1156,116.501,-3.68888
-700,-139,0,0,0,0,0,0,0,0,0,-1,524,1163,0,0
-693,-139,-83.8602,-1.02612,0,0,0,0,0,0,0,-1,531,1163,-83.8602,1.02614
-686,-139,-84.5963,0.895996,0,0,0,0,0,0,0,-1,538,1163,-84.5963,-0.895989
-679,-139,-76.4769,6.57263,0,0,0,0,0,0,0,-1,545,1163,-76.4769,-6.5726
-672,-139,-81.4354,9.16565,0,0,0,0,0,0,0,-1,552,1163,-81.4354,-9.16571
-665,-139,-76.317,6.78796,0,0,0,0,0,0,0,-1,559,1163,-76.317,-6.78797
-658,-139,-77.2073,6.44202,0,0,0,0,0,0,0,-1,566,1163,-77.2073,-6.44196
-651,-139,-119.496,17.2479,0,0,0,0,0,0,0,-1,573,1163,-119.496,-17.2479
-644,-139,-201.938,27.5905,0,0,0,0,0,0,0,-1,580,1163,-201.938,-27.5904
-637,-139,-202.002,28.3398,-0.0208696,0.0419644,-0.015697,0.0456675,-0.0245728,-1.33912,0.0411583,0.0283139,587,1163,-202.002,-28.3398
-630,-139,-202.099,29.0435,-0.0199156,0.0378131,-0.0112987,0.0399457,-0.0220482,-1.38424,0.036286,0.0151548,594,1163,-202.099,-29.0435
-623,-139,-202.081,29.7617,-0.0190449,0.0332311,-0.00715274,0.0341922,-0.020006,-1.43724,0.0316466,0.0222157,601,1163,-202.081,-29.7617
-616,-139,-202.357,30.6093,-0.0182258,0.0282062,-0.00330583,0.0284404,-0.01846,-1.50007,0.0272816,0.0283424,608,1163,-202.357,-30.6092
-609,-139,-202.725,31.488,0,0,0,0,0,0,0,-1,615,1163,-202.725,-31.488
-602,-139,-200.251,32.6224,0,0,0,0,0,0,0,-1,622,1163,-200.251,-32.6224
-595,-139,-199.748,33.3462,0,0,0,0,0,0,0,-1,629,1163,-199.748,-33.3462
-588,-139,-51.0773,9.1781,0,0,0,0,0,0,0,-1,636,1163,-51.0773,-9.17806
-581,-139,-34.4892,6.72473,0,0,0,0,0,0,0,-1,643,1163,-34.4892,-6.72476
-574,-139,-23.0725,2.4043,0,0,0,0,0,0,0,-1,650,1163,-23.0725,-2.40433
-567,-139,-71.9699,0.449097,0,0,0,0,0,0,0,-1,657,1163,-71.9699,-0.449152
-560,-139,-72.0389,0.474487,0,0,0,0,0,0,0,-1,664,1163,-72.0389,-0.4745
-553,-139,-71.9187,0.398071,0,0,0,0,0,0,0,-1,671,1163,-71.9187,-0.39804
-546,-139,-72.0151,0.339478,0,0,0,0,0,0,0,-1,678,1163,-72.0151,-0.339479
-539,-139,-72.0318,0.385498,0,0,0,0,0,0,0,-1,685,1163,-72.0318,-0.385501
-532,-139,-71.9254,0.387329,0,0,0,0,0,0,0,-1,692,1163,-71.9254,-0.387287
-525,-139,-72.0009,0.424561,0,0,0,0,0,0,0,-1,699,1163,-72.0009,-0.424544
-518,-139,0,0,0,0,0,0,0,0,0,-1,706,1163,0,0
-511,-139,0,0,0,0,0,0,0,0,0,-1,713,1163,0,0
-504,-139,0,0,0,0,0,0,0,0,0,-1,720,1163,0,0
-497,-139,0,0,0,0,0,0,0,0,0,-1,727,1163,0,0
-490,-139,0,0,0,0,0,0,0,0,0,-1,734,1163,0,0
-483,-139,0,0,0,0,0,0,0,0,0,-1,741,1163,0,0
-476,-139,0,0,0,0,0,0,0,0,0,-1,748,1163,0,0
-469,-139,0,0,0,0,0,0,0,0,0,-1,755,1163,0,0
-462,-139,0,0,0,0,0,0,0,0,0,-1,762,1163,0,0
-455,-139,0,0,0,0,0,0,0,0,0,-1,769,1163,0,0
-448,-139,0,0,0,0,0,0,0,0,0,-1,776,1163,0,0
-441,-139,0,0,0,0,0,0,0,0,0,-1,783,1163,0,0
-434,-139,0,0,0,0,0,0,0,0,0,-1,790,1163,0,0
-427,-139,0,0,0,0,0,0,0,0,0,-1,797,1163,0,0
-420,-139,0,0,0,0,0,0,0,0,0,-1,804,1163,0,0
-413,-139,0,0,0,0,0,0,0,0,0,-1,811,1163,0,0
-406,-139,0,0,0,0,0,0,0,0,0,-1,818,1163,0,0
-399,-139,0,0,0,0,0,0,0,0,0,-1,825,1163,0,0
-392,-139,0,0,0,0,0,0,0,0,0,-1,832,1163,0,0
-385,-139,0,0,0,0,0,0,0,0,0,-1,839,1163,0,0
-378,-139,0,0,0,0,0,0,0,0,0,-1,846,1163,0,0
-371,-139,0,0,0,0,0,0,0,0,0,-1,853,1163,0,0
-364,-139,0,0,0,0,0,0,0,0,0,-1,860,1163,0,0
-357,-139,0,0,0,0,0,0,0,0,0,-1,867,1163,0,0
-350,-139,0,0,0,0,0,0,0,0,0,-1,874,1163,0,0
-343,-139,0,0,0,0,0,0,0,0,0,-1,881,1163,0,0
-336,-139,0,0,0,0,0,0,0,0,0,-1,888,1163,0,0
-329,-139,0,0,0,0,0,0,0,0,0,-1,895,1163,0,0
-322,-139,0,0,0,0,0,0,0,0,0,-1,902,1163,0,0
-315,-139,0,0,0,0,0,0,0,0,0,-1,909,1163,0,0
-308,-139,0,0,0,0,0,0,0,0,0,-1,916,1163,0,0
-301,-139,0,0,0,0,0,0,0,0,0,-1,923,1163,0,0
-294,-139,0,0,0,0,0,0,0,0,0,-1,930,1163,0,0
-287,-139,0,0,0,0,0,0,0,0,0,-1,937,1163,0,0
-280,-139,0,0,0,0,0,0,0,0,0,-1,944,1163,0,0
-273,-139,0,0,0,0,0,0,0,0,0,-1,951,1163,0,0
-266,-139,0,0,0,0,0,0,0,0,0,-1,958,1163,0,0
-259,-139,0,0,0,0,0,0,0,0,0,-1,965,1163,0,0
-252,-139,0,0,0,0,0,0,0,0,0,-1,972,1163,0,0
-245,-139,0,0,0,0,0,0,0,0,0,-1,979,1163,0,0
-238,-139,0,0,0,0,0,0,0,0,0,-1,986,1163,0,0
-231,-139,0,0,0,0,0,0,0,0,0,-1,993,1163,0,0
-224,-139,0,0,0,0,0,0,0,0,0,-1,1000,1163,0,0
-217,-139,0,0,0,0,0,0,0,0,0,-1,1007,1163,0,0
-210,-139,0,0,0,0,0,0,0,0,0,-1,1014,1163,0,0
-203,-139,0,0,0,0,0,0,0,0,0,-1,1021,1163,0,0
-196,-139,0,0,0,0,0,0,0,0,0,-1,1028,1163,0,0
-189,-139,0,0,0,0,0,0,0,0,0,-1,1035,1163,0,0
-182,-139,0,0,0,0,0,0,0,0,0,-1,1042,1163,0,0
-175,-139,0,0,0,0,0,0,0,0,0,-1,1049,1163,0,0
-168,-139,0,0,0,0,0,0,0,0,0,-1,1056,1163,0,0
-161,-139,0,0,0,0,0,0,0,0,0,-1,1063,1163,0,0
-154,-139,0,0,0,0,0,0,0,0,0,-1,1070,1163,0,0
-147,-139,0,0,0,0,0,0,0,0,0,-1,1077,1163,0,0
-140,-139,0,0,0,0,0,0,0,0,0,-1,1084,1163,0,0
-133,-139,0,0,0,0,0,0,0,0,0,-1,1091,1163,0,0
-126,-139,0,0,0,0,0,0,0,0,0,-1,1098,1163,0,0
-119,-139,0,0,0,0,0,0,0,0,0,-1,1105,1163,0,0
-112,-139,0,0,0,0,0,0,0,0,0,-1,1112,1163,0,0
-105,-139,0,0,0,0,0,0,0,0,0,-1,1119,1163,0,0
-98,-139,0,0,0,0,0,0,0,0,0,-1,1126,1163,0,0
-91,-139,0,0,0,0,0,0,0,0,0,-1,1133,1163,0,0
-84,-139,0,0,0,0,0,0,0,0,0,-1,1140,1163,0,0
-77,-139,0,0,0,0,0,0,0,0,0,-1,1147,1163,0,0
-70,-139,0,0,0,0,0,0,0,0,0,-1,1154,1163,0,0
-63,-139,0,0,0,0,0,0,0,0,0,-1,1161,1163,0,0
-56,-139,0,0,0,0,0,0,0,0,0,-1,1168,1163,0,0
-49,-139,0,0,0,0,0,0,0,0,0,-1,1175,1163,0,0
-42,-139,0,0,0,0,0,0,0,0,0,-1,1182,1163,0,0
-35,-139,0,0,0,0,0,0,0,0,0,-1,1189,1163,0,0
-28,-139,0,0,0,0,0,0,0,0,0,-1,1196,1163,0,0
-21,-139,0,0,0,0,0,0,0,0,0,-1,1203,1163,0,0
-14,-139,0,0,0,0,0,0,0,0,0,-1,1210,1163,0,0
-7,-139,0,0,0,0,0,0,0,0,0,-1,1217,1163,0,0
0,-139,0,0,0,0,0,0,0,0,0,-1,1224,1163,0,0
7,-139,0,0,0,0,0,0,0,0,0,-1,1231,1163,0,0
14,-139,0,0,0,0,0,0,0,0,0,-1,1238,1163,0,0
21,-139,0,0,0,0,0,0,0,0,0,-1,1245,1163,0,0
28,-139,0,0,0,0,0,0,0,0,0,-1,1252,1163,0,0
35,-139,0,0,0,0,0,0,0,0,0,-1,1259,1163,0,0
42,-139,0,0,0,0,0,0,0,0,0,-1,1266,1163,0,0
49,-139,0,0,0,0,0,0,0,0,0,-1,1273,1163,0,0
56,-139,0,0,0,0,0,0,0,0,0,-1,1280,1163,0,0
63,-139,0,0,0,0,0,0,0,0,0,-1,1287,1163,0,0
70,-139,0,0,0,0,0,0,0,0,0,-1,1294,1163,0,0
77,-139,0,0,0,0,0,0,0,0,0,-1,1301,1163,0,0
84,-139,0,0,0,0,0,0,0,0,0,-1,1308,1163,0,0
91,-139,0,0,0,0,0,0,0,0,0,-1,1315,1163,0,0
98,-139,0,0,0,0,0,0,0,0,0,-1,1322,1163,0,0
105,-139,0,0,0,0,0,0,0,0,0,-1,1329,1163,0,0
112,-139,0,0,0,0,0,0,0,0,0,-1,1336,1163,0,0
119,-139,0,0,0,0,0,0,0,0,0,-1,1343,1163,0,0
126,-139,0,0,0,0,0,0,0,0,0,-1,1350,1163,0,0
133,-139,0,0,0,0,0,0,0,0,0,-1,1357,1163,0,0
140,-139,0,0,0,0,0,0,0,0,0,-1,1364,1163,0,0
147,-139,0,0,0,0,0,0,0,0,0,-1,1371,1163,0,0
154,-139,0,0,0,0,0,0,0,0,0,-1,1378,1163,0,0
161,-139,0,0,0,0,0,0,0,0,0,-1,1385,1163,0,0
168,-139,0,0,0,0,0,0,0,0,0,-1,1392,1163,0,0
175,-139,0,0,0,0,0,0,0,0,0,-1,1399,1163,0,0
182,-139,0,0,0,0,0,0,0,0,0,-1,1406,1163,0,0
189,-139,0,0,0,0,0,0,0,0,0,-1,1413,1163,0,0
196,-139,0,0,0,0,0,0,0,0,0,-1,1420,1163,0,0
203,-139,0,0,0,0,0,0,0,0,0,-1,1427,1163,0,0
210,-139,0,0,0,0,0,0,0,0,0,-1,1434,1163,0,0
217,-139,0,0,0,0,0,0,0,0,0,-1,1441,1163,0,0
224,-139,0,0,0,0,0,0,0,0,0,-1,1448,1163,0,0
231,-139,0,0,0,0,0,0,0,0,0,-1,1455,1163,0,0
238,-139,0,0,0,0,0,0,0,0,0,-1,1462,1163,0,0
245,-139,0,0,0,0,0,0,0,0,0,-1,1469,1163,0,0
252,-139,0,0,0,0,0,0,0,0,0,-1,1476,1163,0,0
259,-139,0,0,0,0,0,0,0,0,0,-1,1483,1163,0,0
266,-139,0,0,0,0,0,0,0,0,0,-1,1490,1163,0,0
273,-139,0,0,0,0,0,0,0,0,0,-1,1497,1163,0,0
280,-139,0,0,0,0,0,0,0,0,0,-1,1504,1163,0,0
287,-139,0,0,0,0,0,0,0,0,0,-1,1511,1163,0,0
294,-139,0,0,0,0,0,0,0,0,0,-1,1518,1163,0,0
301,-139,0,0,0,0,0,0,0,0,0,-1,1525,1163,0,0
308,-139,0,0,0,0,0,0,0,0,0,-1,1532,1163,0,0
315,-139,0,0,0,0,0,0,0,0,0,-1,1539,1163,0,0
322,-139,0,0,0,0,0,0,0,0,0,-1,1546,1163,0,0
329,-139,0,0,0,0,0,0,0,0,0,-1,1553,1163,0,0
336,-139,0,0,0,0,0,0,0,0,0,-1,1560,1163,0,0
343,-139,0,0,0,0,0,0,0,0,0,-1,1567,1163,0,0
350,-139,0,0,0,0,0,0,0,0,0,-1,1574,1163,0,0
357,-139,0,0,0,0,0,0,0,0,0,-1,1581,1163,0,0
364,-139,0,0,0,0,0,0,0,0,0,-1,1588,1163,0,0
371,-139,0,0,0,0,0,0,0,0,0,-1,1595,1163,0,0
378,-139,0,0,0,0,0,0,0,0,0,-1,1602,1163,0,0
385,-139,0,0,0,0,0,0,0,0,0,-1,1609,1163,0,0
392,-139,0,0,0,0,0,0,0,0,0,-1,1616,1163,0,0
399,-139,0,0,0,0,0,0,0,0,0,-1,1623,1163,0,0
406,-139,0,0,0,0,0,0,0,0,0,-1,1630,1163,0,0
413,-139,0,0,0,0,0,0,0,0,0,-1,1637,1163,0,0
420,-139,0,0,0,0,0,0,0,0,0,-1,1644,1163,0,0
427,-139,0,0,0,0,0,0,0,0,0,-1,1651,1163,0,0
434,-139,0,0,0,0,0,0,0,0,0,-1,1658,1163,0,0
441,-139,0,0,0,0,0,0,0,0,0,-1,1665,1163,0,0
448,-139,0,0,0,0,0,0,0,0,0,-1,1672,1163,0,0
455,-139,0,0,0,0,0,0,0,0,0,-1,1679,1163,0,0
462,-139,0,0,0,0,0,0,0,0,0,-1,1686,1163,0,0
469,-139,0,0,0,0,0,0,0,0,0,-1,1693,1163,0,0
476,-139,0,0,0,0,0,0,0,0,0,-1,1700,1163,0,0
483,-139,0,0,0,0,0,0,0,0,0,-1,1707,1163,0,0
490,-139,0,0,0,0,0,0,0,0,0,-1,1714,1163,0,0
497,-139,0,0,0,0,0,0,0,0,0,-1,1721,1163,0,0
504,-139,0,0,0,0,0,0,0,0,0,-1,1728,1163,0,0
511,-139,0,0,0,0,0,0,0,0,0,-1,1735,1163,0,0
518,-139,0,0,0,0,0,0,0,0,0,-1,1742,1163,0,0
525,-139,0,0,0,0,0,0,0,0,0,-1,1749,1163,0,0
532,-139,0,0,0,0,0,0,0,0,0,-1,1756,1163,0,0
539,-139,0,0,0,0,0,0,0,0,0,-1,1763,1163,0,0
546,-139,0,0,0,0,0,0,0,0,0,-1,1770,1163,0,0
553,-139,0,0,0,0,0,0,0,0,0,-1,1777,1163,0,0
560,-139,0,0,0,0,0,0,0,0,0,-1,1784,1163,0,0
567,-139,0,0,0,0,0,0,0,0,0,-1,1791,1163,0,0
574,-139,0,0,0,0,0,0,0,0,0,-1,1798,1163,0,0
581,-139,0,0,0,0,0,0,0,0,0,-1,1805,1163,0,0
588,-139,0,0,0,0,0,0,0,0,0,-1,1812,1163,0,0
595,-139,0,0,0,0,0,0,0,0,0,-1,1819,1163,0,0
602,-139,0,0,0,0,0,0,0,0,0,-1,1826,1163,0,0
609,-139,0,0,0,0,0,0,0,0,0,-1,1833,1163,0,0
616,-139,0,0,0,0,0,0,0,0,0,-1,1840,1163,0,0
623,-139,0,0,0,0,0,0,0,0,0,-1,1847,1163,0,0
630,-139,0,0,0,0,0,0,0,0,0,-1,1854,1163,0,0
637,-139,0,0,0,0,0,0,0,0,0,-1,1861,1163,0,0
644,-139,214.767,8.56421,0,0,0,0,0,0,0,-1,1868,1163,214.767,-8.5642
651,-139,214.718,8.599,0,0,0,0,0,0,0,-1,1875,1163,214.718,-8.59899
658,-139,214.593,8.64856,0,0,0,0,0,0,0,-1,1882,1163,214.593,-8.64857
665,-139,214.596,8.50867,0,0,0,0,0,0,0,-1,1889,1163,214.596,-8.50866
672,-139,214.588,8.74023,0,0,0,0,0,0,0,-1,1896,1163,214.588,-8.74026
679,-139,214.526,8.74072,0,0,0,0,0,0,0,-1,1903,1163,214.526,-8.74069
686,-139,214.389,8.82251,0,0,0,0,0,0,0,-1,1910,1163,214.389,-8.82251
693,-139,214.539,8.81238,0,0,0,0,0,0,0,-1,1917,1163,214.539,-8.81241
700,-139,214.707,8.59705,0,0,0,0,0,0,0,-1,1924,1163,214.707,-8.59704
707,-139,32.116,6.54346,0,0,0,0,0,0,0,-1,1931,1163,32.116,-6.54343
714,-139,62.1425,10.1428,0,0,0,0,0,0,0,-1,1938,1163,62.1424,-10.1428
721,-139,72.1608,11.011,0,0,0,0,0,0,0,-1,1945,1163,72.1608,-11.0109
728,-139,209.879,33.9224,0,0,0,0,0,0,0,-1,1952,1163,209.879,-33.9224
735,-139,210.112,32.8494,-0.00584076,0.00638222,0.00547989,0.00847923,-0.00793777,1.20531,0.00948008,0.0480176,1959,1163,210.112,-32.8494
742,-139,210.04,31.8582,-0.00890267,0.0137521,0.00603622,0.0152601,-0.0104106,1.32599,0.0149089,0.033368,1966,1163,210.04,-31.8582
749,-139,209.778,31.0287,-0.0116265,0.0206693,0.00705766,0.0221443,-0.0131015,1.36477,0.0205712,0.0263697,1973,1163,209.778,-31.0287
756,-139,209.56,30.2848,-0.014026,0.0270995,0.00852958,0.0287984,-0.0157248,1.37419,0.0260723,0.017458,1980,1163,209.56,-30.2848
763,-139,209.42,29.5831,-0.0161103,0.0330032,0.0104382,0.0351295,-0.0182367,1.36983,0.0313213,0.0195058,1987,1163,209.42,-29.5831
770,-139,209.282,28.8309,-0.0178836,0.0383357,0.0127706,0.0411007,-0.0206486,1.35758,0.0362969,0.0281382,1994,1163,209.282,-28.8309
777,-139,209.136,27.9696,0,0,0,0,0,0,0,-1,2001,1163,209.136,-27.9696
784,-139,111.54,4.47424,0,0,0,0,0,0,0,-1,2008,1163,111.54,-4.47423
791,-139,113.788,9.25476,0,0,0,0,0,0,0,-1,2015,1163,113.788,-9.25476
798,-139,114.748,2.3186,0,0,0,0,0,0,0,-1,2022,1163,114.748,-2.31858
805,-139,115.784,2.98291,0,0,0,0,0,0,0,-1,2029,1163,115.784,-2.98296
812,-139,0,0,0,0,0,0,0,0,0,-1,2036,1163,0,0
-700,-146,0,0,0,0,0,0,0,0,0,-1,524,1170,0,0
-693,-146,-82.7482,-2.19629,0,0,0,0,0,0,0,-1,531,1170,-82.7482,2.19632
-686,-146,-140.813,8.43152,0,0,0,0,0,0,0,-1,538,1170,-140.813,-8.43151
-679,-146,-83.9792,1.00256,0,0,0,0,0,0,0,-1,545,1170,-83.9791,-1.00257
-672,-146,-74.9213,7.40356,0,0,0,0,0,0,0,-1,552,1170,-74.9213,-7.40356
-665,-146,-75.6855,5.98706,0,0,0,0,0,0,0,-1,559,1170,-75.6855,-5.98704
-658,-146,-76.8463,5.53369,0,0,0,0,0,0,0,-1,566,1170,-76.8463,-5.53366
-651,-146,-118.127,17.3252,0,0,0,0,0,0,0,-1,573,1170,-118.127,-17.3252
-644,-146,-201.013,27.4727,0,0,0,0,0,0,0,-1,580,1170,-201.013,-27.4726
-637,-146,-201.114,28.0989,-0.0223754,0.042053,-0.0175671,0.0465315,-0.0268539,-1.32117,0.0428738,0.0319518,587,1170,-201.114,-28.0988
-630,-146,-201.249,28.7825,-0.0207242,0.0385629,-0.0126838,0.0411625,-0.0233237,-1.36864,0.037703,0.0186477,594,1170,-201.249,-28.7825
-623,-146,-201.292,29.5868,-0.0191553,0.0347799,-0.00798463,0.0359371,-0.0203125,-1.42687,0.0328907,0.021423,601,1170,-201.292,-29.5868
-616,-146,-201.516,30.2675,-0.0176424,0.03069,-0.00352044,0.0309451,-0.0178975,-1.49847,0.0285327,0.0348557,608,1170,-201.516,-30.2674
-609,-146,-201.753,30.8506,0,0,0,0,0,0,0,-1,615,1170,-201.753,-30.8506
-602,-146,-199.416,32.1975,0,0,0,0,0,0,0,-1,622,1170,-199.416,-32.1975
-595,-146,-109.641,23.5803,0,0,0,0,0,0,0,-1,629,1170,-109.641,-23.5803
-588,-146,-45.0034,7.81934,0,0,0,0,0,0,0,-1,636,1170,-45.0034,-7.81931
-581,-146,-31.7815,6.30347,0,0,0,0,0,0,0,-1,643,1170,-31.7815,-6.3035
-574,-146,-17.9915,3.79114,0,0,0,0,0,0,0,-1,650,1170,-17.9915,-3.79118
-567,-146,-44.4572,0.6604,0,0,0,0,0,0,0,-1,657,1170,-44.4572,-0.660404
-560,-146,-71.9951,0.45874,0,0,0,0,0,0,0,-1,664,1170,-71.9951,-0.458771
-553,-146,-71.8871,0.505371,0,0,0,0,0,0,0,-1,671,1170,-71.8871,-0.505387
-546,-146,-71.9315,0.423218,0,0,0,0,0,0,0,-1,678,1170,-71.9315,-0.423264
-539,-146,-71.9998,0.394165,0,0,0,0,0,0,0,-1,685,1170,-71.9998,-0.394152
-532,-146,-71.8738,0.287109,0,0,0,0,0,0,0,-1,692,1170,-71.8738,-0.287159
-525,-146,-71.8591,0.315796,0,0,0,0,0,0,0,-1,699,1170,-71.8591,-0.315751
-518,-146,0,0,0,0,0,0,0,0,0,-1,706,1170,0,0
-511,-146,0,0,0,0,0,0,0,0,0,-1,713,1170,0,0
-504,-146,0,0,0,0,0,0,0,0,0,-1,720,1170,0,0
-497,-146,0,0,0,0,0,0,0,0,0,-1,727,1170,0,0
-490,-146,0,0,0,0,0,0,0,0,0,-1,734,1170,0,0
-483,-146,0,0,0,0,0,0,0,0,0,-1,741,1170,0,0
-476,-146,0,0,0,0,0,0,0,0,0,-1,748,1170,0,0
-469,-146,0,0,0,0,0,0,0,0,0,-1,755,1170,0,0
-462,-146,0,0,0,0,0,0,0,0,0,-1,762,1170,0,0
-455,-146,0,0,0,0,0,0,0,0,0,-1,769,1170,0,0
-448,-146,0,0,0,0,0,0,0,0,0,-1,776,1170,0,0
-441,-146,0,0,0,0,0,0,0,0,0,-1,783,1170,0,0
-434,-146,0,0,0,0,0,0,0,0,0,-1,790,1170,0,0
-427,-146,0,0,0,0,0,0,0,0,0,-1,797,1170,0,0
-420,-146,0,0,0,0,0,0,0,0,0,-1,804,1170,0,0
-413,-146,0,0,0,0,0,0,0,0,0,-1,811,1170,0,0
-406,-146,0,0,0,0,0,0,0,0,0,-1,818,1170,0,0
-399,-146,0,0,0,0,0,0,0,0,0,-1,825,1170,0,0
-392,-146,0,0,0,0,0,0,0,0,0,-1,832,1170,0,0
-385,-146,0,0,0,0,0,0,0,0,0,-1,839,1170,0,0
-378,-146,0,0,0,0,0,0,0,0,0,-1,846,1170,0,0
-371,-146,0,0,0,0,0,0,0,0,0,-1,853,1170,0,0
-364,-146,0,0,0,0,0,0,0,0,0,-1,860,1170,0,0
-357,-146,0,0,0,0,0,0,0,0,0,-1,867,1170,0,0
-350,-146,0,0,0,0,0,0,0,0,0,-1,874,1170,0,0
-343,-146,0,0,0,0,0,0,0,0,0,-1,881,1170,0,0
-336,-146,0,0,0,0,0,0,0,0,0,-1,888,1170,0,0
-329,-146,0,0,0,0,0,0,0,0,0,-1,895,1170,0,0
-322,-146,0,0,0,0,0,0,0,0,0,-1,902,1170,0,0
-315,-146,0,0,0,0,0,0,0,0,0,-1,909,1170,0,0
-308,-146,0,0,0,0,0,0,0,0,0,-1,916,1170,0,0
-301,-146,0,0,0,0,0,0,0,0,0,-1,923,1170,0,0
-294,-146,0,0,0,0,0,0,0,0,0,-1,930,1170,0,0
-287,-146,0,0,0,0,0,0,0,0,0,-1,937,1170,0,0
-280,-146,0,0,0,0,0,0,0,0,0,-1,944,1170,0,0
-273,-146,0,0,0,0,0,0,0,0,0,-1,951,1170,0,0
-266,-146,0,0,0,0,0,0,0,0,0,-1,958,1170,0,0
-259,-146,0,0,0,0,0,0,0,0,0,-1,965,1170,0,0
-252,-146,0,0,0,0,0,0,0,0,0,-1,972,1170,0,0
-245,-146,0,0,0,0,0,0,0,0,0,-1,979,1170,0,0
-238,-146,0,0,0,0,0,0,0,0,0,-1,986,1170,0,0
-231,-146,0,0,0,0,0,0,0,0,0,-1,993,1170,0,0
-224,-146,0,0,0,0,0,0,0,0,0,-1,1000,1170,0,0
-217,-146,0,0,0,0,0,0,0,0,0,-1,1007,1170,0,0
-210,-146,0,0,0,0,0,0,0,0,0,-1,1014,1170,0,0
-203,-146,0,0,0,0,0,0,0,0,0,-1,1021,1170,0,0
-196,-146,0,0,0,0,0,0,0,0,0,-1,1028,1170,0,0
-189,-146,0,0,0,0,0,0,0,0,0,-1,1035,1170,0,0
-182,-146,0,0,0,0,0,0,0,0,0,-1,1042,1170,0,0
-175,-146,0,0,0,0,0,0,0,0,0,-1,1049,1170,0,0
-168,-146,0,0,0,0,0,0,0,0,0,-1,1056,1170,0,0
-161,-146,0,0,0,0,0,0,0,0,0,-1,1063,1170,0,0
-154,-146,0,0,0,0,0,0,0,0,0,-1,1070,1170,0,0
-147,-146,0,0,0,0,0,0,0,0,0,-1,1077,1170,0,0
-140,-146,0,0,0,0,0,0,0,0,0,-1,1084,1170,0,0
-133,-146,0,0,0,0,0,0,0,0,0,-1,1091,1170,0,0
-126,-146,0,0,0,0,0,0,0,0,0,-1,1098,1170,0,0
-119,-146,0,0,0,0,0,0,0,0,0,-1,1105,1170,0,0
-112,-146,0,0,0,0,0,0,0,0,0,-1,1112,1170,0,0
-105,-146,0,0,0,0,0,0,0,0,0,-1,1119,1170,0,0
-98,-146,0,0,0,0,0,0,0,0,0,-1,1126,1170,0,0
-91,-146,0,0,0,0,0,0,0,0,0,-1,1133,1170,0,0
-84,-146,0,0,0,0,0,0,0,0,0,-1,1140,1170,0,0
-77,-146,0,0,0,0,0,0,0,0,0,-1,1147,1170,0,0
-70,-146,0,0,0,0,0,0,0,0,0,-1,1154,1170,0,0
-63,-146,0,0,0,0,0,0,0,0,0,-1,1161,1170,0,0
-56,-146,0,0,0,0,0,0,0,0,0,-1,1168,1170,0,0
-49,-146,0,0,0,0,0,0,0,0,0,-1,1175,1170,0,0
-42,-146,0,0,0,0,0,0,0,0,0,-1,1182,1170,0,0
-35,-146,0,0,0,0,0,0,0,0,0,-1,1189,1170,0,0
-28,-146,0,0,0,0,0,0,0,0,0,-1,1196,1170,0,0
-21,-146,0,0,0,0,0,0,0,0,0,-1,1203,1170,0,0
-14,-146,0,0,0,0,0,0,0,0,0,-1,1210,1170,0,0
-7,-146,0,0,0,0,0,0,0,0,0,-1,1217,1170,0,0
0,-146,0,0,0,0,0,0,0,0,0,-1,1224,1170,0,0
7,-146,0,0,0,0,0,0,0,0,0,-1,1231,1170,0,0
14,-146,0,0,0,0,0,0,0,0,0,-1,1238,1170,0,0
21,-146,0,0,0,0,0,0,0,0,0,-1,1245,1170,0,0
28,-146,0,0,0,0,0,0,0,0,0,-1,1252,1170,0,0
35,-146,0,0,0,0,0,0,0,0,0,-1,1259,1170,0,0
42,-146,0,0,0,0,0,0,0,0,0,-1,1266,1170,0,0
49,-146,0,0,0,0,0,0,0,0,0,-1,1273,1170,0,0
56,-146,0,0,0,0,0,0,0,0,0,-1,1280,1170,0,0
63,-146,0,0,0,0,0,0,0,0,0,-1,1287,1170,0,0
70,-146,0,0,0,0,0,0,0,0,0,-1,1294,1170,0,0
77,-146,0,0,0,0,0,0,0,0,0,-1,1301,1170,0,0
84,-146,0,0,0,0,0,0,0,0,0,-1,1308,1170,0,0
91,-146,0,0,0,0,0,0,0,0,0,-1,1315,1170,0,0
98,-146,0,0,0,0,0,0,0,0,0,-1,1322,1170,0,0
105,-146,0,0,0,0,0,0,0,0,0,-1,1329,1170,0,0
112,-146,0,0,0,0,0,0,0,0,0,-1,1336,1170,0,0
119,-146,0,0,0,0,0,0,0,0,0,-1,1343,1170,0,0
126,-146,0,0,0,0,0,0,0,0,0,-1,1350,1170,0,0
133,-146,0,0,0,0,0,0,0,0,0,-1,1357,1170,0,0
140,-146,0,0,0,0,0,0,0,0,0,-1,1364,1170,0,0
147,-146,0,0,0,0,0,0,0,0,0,-1,1371,1170,0,0
154,-146,0,0,0,0,0,0,0,0,0,-1,1378,1170,0,0
161,-146,0,0,0,0,0,0,0,0,0,-1,1385,1170,0,0
168,-146,0,0,0,0,0,0,0,0,0,-1,1392,1170,0,0
175,-146,0,0,0,0,0,0,0,0,0,-1,1399,1170,0,0
182,-146,0,0,0,0,0,0,0,0,0,-1,1406,1170,0,0
189,-146,0,0,0,0,0,0,0,0,0,-1,1413,1170,0,0
196,-146,0,0,0,0,0,0,0,0,0,-1,1420,1170,0,0
203,-146,0,0,0,0,0,0,0,0,0,-1,1427,1170,0,0
210,-146,0,0,0,0,0,0,0,0,0,-1,1434,1170,0,0
217,-146,0,0,0,0,0,0,0,0,0,-1,1441,1170,0,0
224,-146,0,0,0,0,0,0,0,0,0,-1,1448,1170,0,0
231,-146,0,0,0,0,0,0,0,0,0,-1,1455,1170,0,0
238,-146,0,0,0,0,0,0,0,0,0,-1,1462,1170,0,0
245,-146,0,0,0,0,0,0,0,0,0,-1,1469,1170,0,0
252,-146,0,0,0,0,0,0,0,0,0,-1,1476,1170,0,0
259,-146,0,0,0,0,0,0,0,0,0,-1,1483,1170,0,0
266,-146,0,0,0,0,0,0,0,0,0,-1,1490,1170,0,0
273,-146,0,0,0,0,0,0,0,0,0,-1,1497,1170,0,0
280,-146,0,0,0,0,0,0,0,0,0,-1,1504,1170,0,0
287,-146,0,0,0,0,0,0,0,0,0,-1,1511,1170,0,0
294,-146,0,0,0,0,0,0,0,0,0,-1,1518,1170,0,0
301,-146,0,0,0,0,0,0,0,0,0,-1,1525,1170,0,0
308,-146,0,0,0,0,0,0,0,0,0,-1,1532,1170,0,0
315,-146,0,0,0,0,0,0,0,0,0,-1,1539,1170,0,0
322,-146,0,0,0,0,0,0,0,0,0,-1,1546,1170,0,0
329,-146,0,0,0,0,0,0,0,0,0,-1,1553,1170,0,0
336,-146,0,0,0,0,0,0,0,0,0,-1,1560,1170,0,0
343,-146,0,0,0,0,0,0,0,0,0,-1,1567,1170,0,0
350,-146,0,0,0,0,0,0,0,0,0,-1,1574,1170,0,0
357,-146,0,0,0,0,0,0,0,0,0,-1,1581,1170,0,0
364,-146,0,0,0,0,0,0,0,0,0,-1,1588,1170,0,0
371,-146,0,0,0,0,0,0,0,0,0,-1,1595,1170,0,0
378,-146,0,0,0,0,0,0,0,0,0,-1,1602,1170,0,0
385,-146,0,0,0,0,0,0,0,0,0,-1,1609,1170,0,0
392,-146,0,0,0,0,0,0,0,0,0,-1,1616,1170,0,0
399,-146,0,0,0,0,0,0,0,0,0,-1,1623,1170,0,0
406,-146,0,0,0,0,0,0,0,0,0,-1,1630,1170,0,0
413,-146,0,0,0,0,0,0,0,0,0,-1,1637,1170,0,0
420,-146,0,0,0,0,0,0,0,0,0,-1,1644,1170,0,0
427,-146,0,0,0,0,0,0,0,0,0,-1,1651,1170,0,0
434,-146,0,0,0,0,0,0,0,0,0,-1,1658,1170,0,0
441,-146,0,0,0,0,0,0,0,0,0,-1,1665,1170,0,0
448,-146,0,0,0,0,0,0,0,0,0,-1,1672,1170,0,0
455,-146,0,0,0,0,0,0,0,0,0,-1,1679,1170,0,0
462,-146,0,0,0,0,0,0,0,0,0,-1,1686,1170,0,0
469,-146,0,0,0,0,0,0,0,0,0,-1,1693,1170,0,0
476,-146,0,0,0,0,0,0,0,0,0,-1,1700,1170,0,0
483,-146,0,0,0,0,0,0,0,0,0,-1,1707,1170,0,0
490,-146,0,0,0,0,0,0,0,0,0,-1,1714,1170,0,0
497,-146,0,0,0,0,0,0,0,0,0,-1,1721,1170,0,0
504,-146,0,0,0,0,0,0,0,0,0,-1,1728,1170,0,0
511,-146,0,0,0,0,0,0,0,0,0,-1,1735,1170,0,0
518,-146,0,0,0,0,0,0,0,0,0,-1,1742,1170,0,0
525,-146,0,0,0,0,0,0,0,0,0,-1,1749,1170,0,0
532,-146,0,0,0,0,0,0,0,0,0,-1,1756,1170,0,0
539,-146,0,0,0,0,0,0,0,0,0,-1,1763,1170,0,0
546,-146,0,0,0,0,0,0,0,0,0,-1,1770,1170,0,0
553,-146,0,0,0,0,0,0,0,0,0,-1,1777,1170,0,0
560,-146,0,0,0,0,0,0,0,0,0,-1,1784,1170,0,0
567,-146,0,0,0,0,0,0,0,0,0,-1,1791,1170,0,0
574,-146,0,0,0,0,0,0,0,0,0,-1,1798,1170,0,0
581,-146,0,0,0,0,0,0,0,0,0,-1,1805,1170,0,0
588,-146,0,0,0,0,0,0,0,0,0,-1,1812,1170,0,0
595,-146,0,0,0,0,0,0,0,0,0,-1,1819,1170,0,0
602,-146,0,0,0,0,0,0,0,0,0,-1,1826,1170,0,0
609,-146,0,0,0,0,0,0,0,0,0,-1,1833,1170,0,0
616,-146,0,0,0,0,0,0,0,0,0,-1,1840,1170,0,0
623,-146,0,0,0,0,0,0,0,0,0,-1,1847,1170,0,0
630,-146,0,0,0,0,0,0,0,0,0,-1,1854,1170,0,0
637,-146,214.604,8.52588,0,0,0,0,0,0,0,-1,1861,1170,214.604,-8.52583
644,-146,214.614,8.57922,0,0,0,0,0,0,0,-1,1868,1170,214.614,-8.57921
651,-146,214.628,8.67371,0,0,0,0,0,0,0,-1,1875,1170,214.628,-8.67367
658,-146,214.588,8.63708,0,0,0,0,0,0,0,-1,1882,1170,214.588,-8.63709
665,-146,214.581,8.56018,0,0,0,0,0,0,0,-1,1889,1170,214.581,-8.56022
672,-146,214.579,8.65247,0,0,0,0,0,0,0,-1,1896,1170,214.579,-8.65243
679,-146,214.543,8.66687,0,0,0,0,0,0,0,-1,1903,1170,214.543,-8.66684
686,-146,214.349,8.58203,0,0,0,0,0,0,0,-1,1910,1170,214.349,-8.58199
693,-146,214.525,8.57983,0,0,0,0,0,0,0,-1,1917,1170,214.525,-8.57978
700,-146,214.677,8.6062,0,0,0,0,0,0,0,-1,1924,1170,214.678,-8.60623
707,-146,29.9441,6.94653,0,0,0,0,0,0,0,-1,1931,1170,29.9441,-6.94652
714,-146,31.325,6.13245,0,0,0,0,0,0,0,-1,1938,1170,31.325,-6.1325
721,-146,61.3608,9.47766,0,0,0,0,0,0,0,-1,1945,1170,61.3608,-9.47767
728,-146,208.865,33.4503,0,0,0,0,0,0,0,-1,1952,1170,208.865,-33.4503
735,-146,209.342,32.8685,0,0,0,0,0,0,0,-1,1959,1170,209.342,-32.8686
742,-146,209.176,31.7517,-0.00916959,0.0157454,0.00558448,0.0169398,-0.010364,1.36008,0.0159156,0.027419,1966,1170,209.175,-31.7517
749,-146,208.882,30.9452,-0.0116926,0.0221065,0.00703641,0.0235128,-0.013099,1.37353,0.021421,0.0215065,1973,1170,208.882,-30.9452
756,-146,208.699,30.1095,-0.013836,0.0279324,0.00893198,0.0297623,-0.0156659,1.36872,0.0266456,0.018025,1980,1170,208.699,-30.1095
763,-146,208.438,29.2924,-0.01558,0.0331704,0.0112725,0.0356507,-0.0180603,1.35421,0.0315596,0.0182371,1987,1170,208.439,-29.2924
770,-146,208.258,28.4329,-0.0169013,0.0377599,0.0140613,0.041165,-0.0203063,1.33321,0.0361651,0.0272032,1994,1170,208.258,-28.4329
777,-146,208.268,27.5991,0,0,0,0,0,0,0,-1,2001,1170,208.268,-27.5991
784,-146,191.351,27.9769,0,0,0,0,0,0,0,-1,2008,1170,191.351,-27.977
791,-146,203.29,27.1288,0,0,0,0,0,0,0,-1,2015,1170,203.289,-27.1288
798,-146,202.691,24.5387,0,0,0,0,0,0,0,-1,2022,1170,202.691,-24.5388
805,-146,204.107,23.8569,0,0,0,0,0,0,0,-1,2029,1170,204.107,-23.8569
812,-146,0,0,0,0,0,0,0,0,0,-1,2036,1170,0,0
-700,-153,0,0,0,0,0,0,0,0,0,-1,524,1177,0,0
-693,-153,0,0,0,0,0,0,0,0,0,-1,531,1177,0,0
-686,-153,-168.385,19.0377,0,0,0,0,0,0,0,-1,538,1177,-168.385,-19.0377
-679,-153,-140.842,11.0273,0,0,0,0,0,0,0,-1,545,1177,-140.842,-11.0274
-672,-153,-177.624,20.2991,0,0,0,0,0,0,0,-1,552,1177,-177.624,-20.2991
-665,-153,-109.895,18.7006,0,0,0,0,0,0,0,-1,559,1177,-109.895,-18.7006
-658,-153,-76.2853,4.375,0,0,0,0,0,0,0,-1,566,1177,-76.2853,-4.375
-651,-153,-73.9761,7.67358,0,0,0,0,0,0,0,-1,573,1177,-73.9761,-7.67353
-644,-153,-200.072,27.2726,0,0,0,0,0,0,0,-1,580,1177,-200.072,-27.2725
-637,-153,-200.182,27.9332,-0.0246634,0.0419928,-0.0192332,0.0471443,-0.0298149,-1.3091,0.0448063,0.0383797,587,1177,-200.182,-27.9333
-630,-153,-200.295,28.6794,-0.0218426,0.0390821,-0.0142615,0.0422553,-0.0250157,-1.35187,0.0392618,0.0213844,594,1177,-200.295,-28.6795
-623,-153,-200.496,29.1624,-0.0191397,0.0362112,-0.00939982,0.0377639,-0.0206925,-1.40709,0.0342262,0.0314031,601,1177,-200.496,-29.1623
-616,-153,-200.612,30.0928,-0.0165447,0.0334109,-0.00466201,0.0338423,-0.016976,-1.47853,0.0298738,0.0471482,608,1177,-200.612,-30.0928
-609,-153,-200.691,31.1881,0,0,0,0,0,0,0,-1,615,1177,-200.691,-31.1881
-602,-153,-108.822,22.9852,0,0,0,0,0,0,0,-1,622,1177,-108.822,-22.9852
-595,-153,-43.9551,7.35718,0,0,0,0,0,0,0,-1,629,1177,-43.9551,-7.35722
-588,-153,-32.348,5.51038,0,0,0,0,0,0,0,-1,636,1177,-32.348,-5.51034
-581,-153,-33.4568,6.41492,0,0,0,0,0,0,0,-1,643,1177,-33.4568,-6.41497
-574,-153,-25.4814,5.16956,0,0,0,0,0,0,0,-1,650,1177,-25.4814,-5.16961
-567,-153,-35.3121,1.09485,0,0,0,0,0,0,0,-1,657,1177,-35.3121,-1.09482
-560,-153,-72.0881,0.687866,0,0,0,0,0,0,0,-1,664,1177,-72.0881,-0.687857
-553,-153,-71.9505,0.579346,0,0,0,0,0,0,0,-1,671,1177,-71.9505,-0.579368
-546,-153,-71.9724,0.468628,0,0,0,0,0,0,0,-1,678,1177,-71.9724,-0.468682
-539,-153,-72.1825,0.396606,0,0,0,0,0,0,0,-1,685,1177,-72.1825,-0.396654
-532,-153,-72.1336,0.405396,0,0,0,0,0,0,0,-1,692,1177,-72.1336,-0.405355
-525,-153,-71.8697,0.428833,0,0,0,0,0,0,0,-1,699,1177,-71.8697,-0.428859
-518,-153,0,0,0,0,0,0,0,0,0,-1,706,1177,0,0
-511,-153,0,0,0,0,0,0,0,0,0,-1,713,1177,0,0
-504,-153,0,0,0,0,0,0,0,0,0,-1,720,1177,0,0
-497,-153,0,0,0,0,0,0,0,0,0,-1,727,1177,0,0
-490,-153,0,0,0,0,0,0,0,0,0,-1,734,1177,0,0
-483,-153,0,0,0,0,0,0,0,0,0,-1,741,1177,0,0
-476,-153,0,0,0,0,0,0,0,0,0,-1,748,1177,0,0
-469,-153,0,0,0,0,0,0,0,0,0,-1,755,1177,0,0
-462,-153,0,0,0,0,0,0,0,0,0,-1,762,1177,0,0
-455,-153,0,0,0,0,0,0,0,0,0,-1,769,1177,0,0
-448,-153,0,0,0,0,0,0,0,0,0,-1,776,1177,0,0
-441,-153,0,0,0,0,0,0,0,0,0,-1,783,1177,0,0
-434,-153,0,0,0,0,0,0,0,0,0,-1,790,1177,0,0
-427,-153,0,0,0,0,0,0,0,0,0,-1,797,1177,0,0
-420,-153,0,0,0,0,0,0,0,0,0,-1,804,1177,0,0
-413,-153,0,0,0,0,0,0,0,0,0,-1,811,1177,0,0
-406,-153,0,0,0,0,0,0,0,0,0,-1,818,1177,0,0
-399,-153,0,0,0,0,0,0,0,0,0,-1,825,1177,0,0
-392,-153,0,0,0,0,0,0,0,0,0,-1,832,1177,0,0
-385,-153,0,0,0,0,0,0,0,0,0,-1,839,1177,0,0
-378,-153,0,0,0,0,0,0,0,0,0,-1,846,1177,0,0
-371,-153,0,0,0,0,0,0,0,0,0,-1,853,1177,0,0
-364,-153,0,0,0,0,0,0,0,0,0,-1,860,1177,0,0
-357,-153,0,0,0,0,0,0,0,0,0,-1,867,1177,0,0
-350,-153,0,0,0,0,0,0,0,0,0,-1,874,1177,0,0
-343,-153,0,0,0,0,0,0,0,0,0,-1,881,1177,0,0
-336,-153,0,0,0,0,0,0,0,0,0,-1,888,1177,0,0
-329,-153,0,0,0,0,0,0,0,0,0,-1,895,1177,0,0
-322,-153,0,0,0,0,0,0,0,0,0,-1,902,1177,0,0
-315,-153,0,0,0,0,0,0,0,0,0,-1,909,1177,0,0
-308,-153,0,0,0,0,0,0,0,0,0,-1,916,1177,0,0
-301,-153,0,0,0,0,0,0,0,0,0,-1,923,1177,0,0
-294,-153,0,0,0,0,0,0,0,0,0,-1,930,1177,0,0
-287,-153,0,0,0,0,0,0,0,0,0,-1,937,1177,0,0
-280,-153,0,0,0,0,0,0,0,0,0,-1,944,1177,0,0
-273,-153,0,0,0,0,0,0,0,0,0,-1,951,1177,0,0
-266,-153,0,0,0,0,0,0,0,0,0,-1,958,1177,0,0
-259,-153,0,0,0,0,0,0,0,0,0,-1,965,1177,0,0
-252,-153,0,0,0,0,0,0,0,0,0,-1,972,1177,0,0
-245,-153,0,0,0,0,0,0,0,0,0,-1,979,1177,0,0
-238,-153,0,0,0,0,0,0,0,0,0,-1,986,1177,0,0
-231,-153,0,0,0,0,0,0,0,0,0,-1,993,1177,0,0
-224,-153,0,0,0,0,0,0,0,0,0,-1,1000,1177,0,0
-217,-153,0,0,0,0,0,0,0,0,0,-1,1007,1177,0,0
-210,-153,0,0,0,0,0,0,0,0,0,-1,1014,1177,0,0
-203,-153,0,0,0,0,0,0,0,0,0,-1,1021,1177,0,0
-196,-153,0,0,0,0,0,0,0,0,0,-1,1028,1177,0,0
-189,-153,0,0,0,0,0,0,0,0,0,-1,1035,1177,0,0
-182,-153,0,0,0,0,0,0,0,0,0,-1,1042,1177,0,0
-175,-153,0,0,0,0,0,0,0,0,0,-1,1049,1177,0,0
-168,-153,0,0,0,0,0,0,0,0,0,-1,1056,1177,0,0
-161,-153,0,0,0,0,0,0,0,0,0,-1,1063,1177,0,0
-154,-153,0,0,0,0,0,0,0,0,0,-1,1070,1177,0,0
-147,-153,0,0,0,0,0,0,0,0,0,-1,1077,1177,0,0
-140,-153,0,0,0,0,0,0,0,0,0,-1,1084,1177,0,0
-133,-153,0,0,0,0,0,0,0,0,0,-1,1091,1177,0,0
-126,-153,0,0,0,0,0,0,0,0,0,-1,1098,1177,0,0
-119,-153,0,0,0,0,0,0,0,0,0,-1,1105,1177,0,0
-112,-153,0,0,0,0,0,0,0,0,0,-1,1112,1177,0,0
-105,-153,0,0,0,0,0,0,0,0,0,-1,1119,1177,0,0
-98,-153,0,0,0,0,0,0,0,0,0,-1,1126,1177,0,0
-91,-153,0,0,0,0,0,0,0,0,0,-1,1133,1177,0,0
-84,-153,0,0,0,0,0,0,0,0,0,-1,1140,1177,0,0
-77,-153,0,0,0,0,0,0,0,0,0,-1,1147,1177,0,0
-70,-153,0,0,0,0,0,0,0,0,0,-1,1154,1177,0,0
-63,-153,0,0,0,0,0,0,0,0,0,-1,1161,1177,0,0
-56,-153,0,0,0,0,0,0,0,0,0,-1,1168,1177,0,0
-49,-153,0,0,0,0,0,0,0,0,0,-1,1175,1177,0,0
-42,-153,0,0,0,0,0,0,0,0,0,-1,1182,1177,0,0
-35,-153,0,0,0,0,0,0,0,0,0,-1,1189,1177,0,0
-28,-153,0,0,0,0,0,0,0,0,0,-1,1196,1177,0,0
-21,-153,0,0,0,0,0,0,0,0,0,-1,1203,1177,0,0
-14,-153,0,0,0,0,0,0,0,0,0,-1,1210,1177,0,0
-7,-153,0,0,0,0,0,0,0,0,0,-1,1217,1177,0,0
0,-153,0,0,0,0,0,0,0,0,0,-1,1224,1177,0,0
7,-153,0,0,0,0,0,0,0,0,0,-1,1231,1177,0,0
14,-153,0,0,0,0,0,0,0,0,0,-1,1238,1177,0,0
21,-153,0,0,0,0,0,0,0,0,0,-1,1245,1177,0,0
28,-153,0,0,0,0,0,0,0,0,0,-1,1252,1177,0,0
35,-153,0,0,0,0,0,0,0,0,0,-1,1259,1177,0,0
42,-153,0,0,0,0,0,0,0,0,0,-1,1266,1177,0,0
49,-153,0,0,0,0,0,0,0,0,0,-1,1273,1177,0,0
56,-153,0,0,0,0,0,0,0,0,0,-1,1280,1177,0,0
63,-153,0,0,0,0,0,0,0,0,0,-1,1287,1177,0,0
70,-153,0,0,0,0,0,0,0,0,0,-1,1294,1177,0,0
77,-153,0,0,0,0,0,0,0,0,0,-1,1301,1177,0,0
84,-153,0,0,0,0,0,0,0,0,0,-1,1308,1177,0,0
91,-153,0,0,0,0,0,0,0,0,0,-1,1315,1177,0,0
98,-153,0,0,0,0,0,0,0,0,0,-1,1322,1177,0,0
105,-153,0,0,0,0,0,0,0,0,0,-1,1329,1177,0,0
112,-153,0,0,0,0,0,0,0,0,0,-1,1336,1177,0,0
119,-153,0,0,0,0,0,0,0,0,0,-1,1343,1177,0,0
126,-153,0,0,0,0,0,0,0,0,0,-1,1350,1177,0,0
133,-153,0,0,0,0,0,0,0,0,0,-1,1357,1177,0,0
140,-153,0,0,0,0,0,0,0,0,0,-1,1364,1177,0,0
147,-153,0,0,0,0,0,0,0,0,0,-1,1371,1177,0,0
154,-153,0,0,0,0,0,0,0,0,0,-1,1378,1177,0,0
161,-153,0,0,0,0,0,0,0,0,0,-1,1385,1177,0,0
168,-153,0,0,0,0,0,0,0,0,0,-1,1392,1177,0,0
175,-153,0,0,0,0,0,0,0,0,0,-1,1399,1177,0,0
182,-153,0,0,0,0,0,0,0,0,0,-1,1406,1177,0,0
189,-153,0,0,0,0,0,0,0,0,0,-1,1413,1177,0,0
196,-153,0,0,0,0,0,0,0,0,0,-1,1420,1177,0,0
203,-153,0,0,0,0,0,0,0,0,0,-1,1427,1177,0,0
210,-153,0,0,0,0,0,0,0,0,0,-1,1434,1177,0,0
217,-153,0,0,0,0,0,0,0,0,0,-1,1441,1177,0,0
224,-153,0,0,0,0,0,0,0,0,0,-1,1448,1177,0,0
231,-153,0,0,0,0,0,0,0,0,0,-1,1455,1177,0,0
238,-153,0,0,0,0,0,0,0,0,0,-1,1462,1177,0,0
245,-153,0,0,0,0,0,0,0,0,0,-1,1469,1177,0,0
252,-153,0,0,0,0,0,0,0,0,0,-1,1476,1177,0,0
259,-153,0,0,0,0,0,0,0,0,0,-1,1483,1177,0,0
266,-153,0,0,0,0,0,0,0,0,0,-1,1490,1177,0,0
273,-153,0,0,0,0,0,0,0,0,0,-1,1497,1177,0,0
280,-153,0,0,0,0,0,0,0,0,0,-1,1504,1177,0,0
287,-153,0,0,0,0,0,0,0,0,0,-1,1511,1177,0,0
294,-153,0,0,0,0,0,0,0,0,0,-1,1518,1177,0,0
301,-153,0,0,0,0,0,0,0,0,0,-1,1525,1177,0,0
308,-153,0,0,0,0,0,0,0,0,0,-1,1532,1177,0,0
315,-153,0,0,0,0,0,0,0,0,0,-1,1539,1177,0,0
322,-153,0,0,0,0,0,0,0,0,0,-1,1546,1177,0,0
329,-153,0,0,0,0,0,0,0,0,0,-1,1553,1177,0,0
336,-153,0,0,0,0,0,0,0,0,0,-1,1560,1177,0,0
343,-153,0,0,0,0,0,0,0,0,0,-1,1567,1177,0,0
350,-153,0,0,0,0,0,0,0,0,0,-1,1574,1177,0,0
357,-153,0,0,0,0,0,0,0,0,0,-1,1581,1177,0,0
364,-153,0,0,0,0,0,0,0,0,0,-1,1588,1177,0,0
371,-153,0,0,0,0,0,0,0,0,0,-1,1595,1177,0,0
378,-153,0,0,0,0,0,0,0,0,0,-1,1602,1177,0,0
385,-153,0,0,0,0,0,0,0,0,0,-1,1609,1177,0,0
392,-153,0,0,0,0,0,0,0,0,0,-1,1616,1177,0,0
399,-153,0,0,0,0,0,0,0,0,0,-1,1623,1177,0,0
406,-153,0,0,0,0,0,0,0,0,0,-1,1630,1177,0,0
413,-153,0,0,0,0,0,0,0,0,0,-1,1637,1177,0,0
420,-153,0,0,0,0,0,0,0,0,0,-1,1644,1177,0,0
427,-153,0,0,0,0,0,0,0,0,0,-1,1651,1177,0,0
434,-153,0,0,0,0,0,0,0,0,0,-1,1658,1177,0,0
441,-153,0,0,0,0,0,0,0,0,0,-1,1665,1177,0,0
448,-153,0,0,0,0,0,0,0,0,0,-1,1672,1177,0,0
455,-153,0,0,0,0,0,0,0,0,0,-1,1679,1177,0,0
462,-153,0,0,0,0,0,0,0,0,0,-1,1686,1177,0,0
469,-153,0,0,0,0,0,0,0,0,0,-1,1693,1177,0,0
476,-153,0,0,0,0,0,0,0,0,0,-1,1700,1177,0,0
483,-153,0,0,0,0,0,0,0,0,0,-1,1707,1177,0,0
490,-153,0,0,0,0,0,0,0,0,0,-1,1714,1177,0,0
497,-153,0,0,0,0,0,0,0,0,0,-1,1721,1177,0,0
504,-153,0,0,0,0,0,0,0,0,0,-1,1728,1177,0,0
511,-153,0,0,0,0,0,0,0,0,0,-1,1735,1177,0,0
518,-153,0,0,0,0,0,0,0,0,0,-1,1742,1177,0,0
525,-153,0,0,0,0,0,0,0,0,0,-1,1749,1177,0,0
532,-153,0,0,0,0,0,0,0,0,0,-1,1756,1177,0,0
539,-153,0,0,0,0,0,0,0,0,0,-1,1763,1177,0,0
546,-153,0,0,0,0,0,0,0,0,0,-1,1770,1177,0,0
553,-153,0,0,0,0,0,0,0,0,0,-1,1777,1177,0,0
560,-153,0,0,0,0,0,0,0,0,0,-1,1784,1177,0,0
567,-153,0,0,0,0,0,0,0,0,0,-1,1791,1177,0,0
574,-153,0,0,0,0,0,0,0,0,0,-1,1798,1177,0,0
581,-153,0,0,0,0,0,0,0,0,0,-1,1805,1177,0,0
588,-153,0,0,0,0,0,0,0,0,0,-1,1812,1177,0,0
595,-153,0,0,0,0,0,0,0,0,0,-1,1819,1177,0,0
602,-153,0,0,0,0,0,0,0,0,0,-1,1826,1177,0,0
609,-153,0,0,0,0,0,0,0,0,0,-1,1833,1177,0,0
616,-153,0,0,0,0,0,0,0,0,0,-1,1840,1177,0,0
623,-153,0,0,0,0,0,0,0,0,0,-1,1847,1177,0,0
630,-153,0,0,0,0,0,0,0,0,0,-1,1854,1177,0,0
637,-153,214.509,8.75354,0,0,0,0,0,0,0,-1,1861,1177,214.509,-8.75351
644,-153,214.53,8.73523,0,0,0,0,0,0,0,-1,1868,1177,214.53,-8.73528
651,-153,214.549,8.6665,0,0,0,0,0,0,0,-1,1875,1177,214.549,-8.66651
658,-153,214.563,8.54114,0,0,0,0,0,0,0,-1,1882,1177,214.563,-8.54119
665,-153,214.569,8.54773,0,0,0,0,0,0,0,-1,1889,1177,214.569,-8.54776
672,-153,214.461,8.51025,0,0,0,0,0,0,0,-1,1896,1177,214.461,-8.51024
679,-153,214.386,8.52075,0,0,0,0,0,0,0,-1,1903,1177,214.387,-8.52081
686,-153,214.401,8.55835,0,0,0,0,0,0,0,-1,1910,1177,214.401,-8.5583
693,-153,214.645,8.46436,0,0,0,0,0,0,0,-1,1917,1177,214.644,-8.46434
700,-153,79.9266,2.01807,0,0,0,0,0,0,0,-1,1924,1177,79.9267,-2.01805
707,-153,29.6483,6.6842,0,0,0,0,0,0,0,-1,1931,1177,29.6483,-6.68415
714,-153,36.0046,6.78418,0,0,0,0,0,0,0,-1,1938,1177,36.0046,-6.78418
721,-153,36.4866,6.47595,0,0,0,0,0,0,0,-1,1945,1177,36.4866,-6.47593
728,-153,47.7305,7.37024,0,0,0,0,0,0,0,-1,1952,1177,47.7304,-7.37022
735,-153,207.665,32.5771,0,0,0,0,0,0,0,-1,1959,1177,207.665,-32.5771
742,-153,207.844,31.823,-0.0097721,0.0174499,0.00539122,0.0184787,-0.0108009,1.38223,0.0170972,0.0273693,1966,1177,207.843,-31.823
749,-153,207.864,30.932,-0.0119714,0.0233962,0.00711459,0.0247737,-0.0133489,1.37954,0.0223371,0.0230746,1973,1177,207.864,-30.932
756,-153,207.698,30.0043,-0.0137997,0.0287712,0.00925521,0.0306963,-0.0157248,1.36572,0.0272619,0.0169385,1980,1177,207.697,-30.0043
763,-153,207.491,29.0793,-0.0152158,0.0335078,0.0118338,0.0362299,-0.0179379,1.3447,0.0318626,0.01857,1987,1177,207.491,-29.0794
770,-153,207.257,28.291,-0.0161763,0.0375295,0.0148744,0.0413739,-0.0200207,1.31787,0.0361538,0.0204362,1994,1177,207.257,-28.291
777,-153,207.187,27.5405,-0.0166344,0.0407508,0.0184041,0.046146,-0.0220296,1.28564,0.0401737,0.0381977,2001,1177,207.187,-27.5405
784,-153,207.363,26.8135,0,0,0,0,0,0,0,-1,2008,1177,207.363,-26.8135
791,-153,202.403,26.4507,0,0,0,0,0,0,0,-1,2015,1177,202.403,-26.4507
798,-153,202.484,25.9869,0,0,0,0,0,0,0,-1,2022,1177,202.484,-25.9869
805,-153,202.37,25.3752,0,0,0,0,0,0,0,-1,2029,1177,202.37,-25.3752
812,-153,0,0,0,0,0,0,0,0,0,-1,2036,1177,0,0
-700,-160,0,0,0,0,0,0,0,0,0,-1,524,1184,0,0
-693,-160,0,0,0,0,0,0,0,0,0,-1,531,1184,0,0
-686,-160,-167.674,18.0548,0,0,0,0,0,0,0,-1,538,1184,-167.674,-18.0549
-679,-160,-181.141,19.9757,0,0,0,0,0,0,0,-1,545,1184,-181.141,-19.9757
-672,-160,-180.457,21.9385,0,0,0,0,0,0,0,-1,552,1184,-180.457,-21.9385
-665,-160,-180.104,23.5477,0,0,0,0,0,0,0,-1,559,1184,-180.104,-23.5477
-658,-160,-108.842,18.2297,0,0,0,0,0,0,0,-1,566,1184,-108.842,-18.2297
-651,-160,-73.1214,7.68677,0,0,0,0,0,0,0,-1,573,1184,-73.1214,-7.68675
-644,-160,-198.783,26.968,0,0,0,0,0,0,0,-1,580,1184,-198.783,-26.968
-637,-160,-199.016,27.7271,-0.0266129,0.0421709,-0.0197774,0.047452,-0.031894,-1.30986,0.0461031,0.0439533,587,1184,-199.016,-27.7271
-630,-160,-199.32,28.4507,-0.022674,0.0394396,-0.0153143,0.0430102,-0.0262446,-1.34174,0.0403729,0.0220073,594,1184,-199.32,-28.4507
-623,-160,-199.748,28.8518,-0.0189173,0.0368183,-0.0110638,0.0389342,-0.0210332,-1.38183,0.0351326,0.0446344,601,1184,-199.748,-28.8519
-616,-160,-199.994,29.2841,0,0,0,0,0,0,0,-1,608,1184,-199.994,-29.284
-609,-160,-172.537,31.3198,0,0,0,0,0,0,0,-1,615,1184,-172.537,-31.3198
-602,-160,-172.736,32.4874,0,0,0,0,0,0,0,-1,622,1184,-172.736,-32.4875
-595,-160,-33.0669,5.93445,0,0,0,0,0,0,0,-1,629,1184,-33.0669,-5.93446
-588,-160,-33.4845,5.66699,0,0,0,0,0,0,0,-1,636,1184,-33.4845,-5.66697
-581,-160,-33.1338,6.41174,0,0,0,0,0,0,0,-1,643,1184,-33.1338,-6.41176
-574,-160,-32.7831,7.15649,0,0,0,0,0,0,0,-1,650,1184,-32.7831,-7.15655
-567,-160,-29.5828,0.643921,0,0,0,0,0,0,0,-1,657,1184,-29.5828,-0.643968
-560,-160,-57.0784,0.200806,0,0,0,0,0,0,0,-1,664,1184,-57.0784,-0.200768
-553,-160,-71.9811,0.620483,0,0,0,0,0,0,0,-1,671,1184,-71.9811,-0.620473
-546,-160,-72.0035,0.388306,0,0,0,0,0,0,0,-1,678,1184,-72.0035,-0.388251
-539,-160,-72.1849,0.41272,0,0,0,0,0,0,0,-1,685,1184,-72.1849,-0.412664
-532,-160,-72.0911,0.559814,0,0,0,0,0,0,0,-1,692,1184,-72.091,-0.559809
-525,-160,-71.9916,0.556885,0,0,0,0,0,0,0,-1,699,1184,-71.9916,-0.556882
-518,-160,-71.9895,0.636475,0,0,0,0,0,0,0,-1,706,1184,-71.9895,-0.636494
-511,-160,0,0,0,0,0,0,0,0,0,-1,713,1184,0,0
-504,-160,0,0,0,0,0,0,0,0,0,-1,720,1184,0,0
-497,-160,0,0,0,0,0,0,0,0,0,-1,727,1184,0,0
-490,-160,0,0,0,0,0,0,0,0,0,-1,734,1184,0,0
-483,-160,0,0,0,0,0,0,0,0,0,-1,741,1184,0,0
-476,-160,0,0,0,0,0,0,0,0,0,-1,748,1184,0,0
-469,-160,0,0,0,0,0,0,0,0,0,-1,755,1184,0,0
-462,-160,0,0,0,0,0,0,0,0,0,-1,762,1184,0,0
-455,-160,0,0,0,0,0,0,0,0,0,-1,769,1184,0,0
-448,-160,0,0,0,0,0,0,0,0,0,-1,776,1184,0,0
-441,-160,0,0,0,0,0,0,0,0,0,-1,783,1184,0,0
-434,-160,0,0,0,0,0,0,0,0,0,-1,790,1184,0,0
-427,-160,0,0,0,0,0,0,0,0,0,-1,797,1184,0,0
-420,-160,0,0,0,0,0,0,0,0,0,-1,804,1184,0,0
-413,-160,0,0,0,0,0,0,0,0,0,-1,811,1184,0,0
-406,-160,0,0,0,0,0,0,0,0,0,-1,818,1184,0,0
-399,-160,0,0,0,0,0,0,0,0,0,-1,825,1184,0,0
-392,-160,0,0,0,0,0,0,0,0,0,-1,832,1184,0,0
-385,-160,0,0,0,0,0,0,0,0,0,-1,839,1184,0,0
-378,-160,0,0,0,0,0,0,0,0,0,-1,846,1184,0,0
-371,-160,0,0,0,0,0,0,0,0,0,-1,853,1184,0,0
-364,-160,0,0,0,0,0,0,0,0,0,-1,860,1184,0,0
-357,-160,0,0,0,0,0,0,0,0,0,-1,867,1184,0,0
-350,-160,0,0,0,0,0,0,0,0,0,-1,874,1184,0,0
-343,-160,0,0,0,0,0,0,0,0,0,-1,881,1184,0,0
-336,-160,0,0,0,0,0,0,0,0,0,-1,888,1184,0,0
-329,-160,0,0,0,0,0,0,0,0,0,-1,895,1184,0,0
-322,-160,0,0,0,0,0,0,0,0,0,-1,902,1184,0,0
-315,-160,0,0,0,0,0,0,0,0,0,-1,909,1184,0,0
-308,-160,0,0,0,0,0,0,0,0,0,-1,916,1184,0,0
-301,-160,0,0,0,0,0,0,0,0,0,-1,923,1184,0,0
-294,-160,0,0,0,0,0,0,0,0,0,-1,930,1184,0,0
-287,-160,0,0,0,0,0,0,0,0,0,-1,937,1184,0,0
-280,-160,0,0,0,0,0,0,0,0,0,-1,944,1184,0,0
-273,-160,0,0,0,0,0,0,0,0,0,-1,951,1184,0,0
-266,-160,0,0,0,0,0,0,0,0,0,-1,958,1184,0,0
-259,-160,0,0,0,0,0,0,0,0,0,-1,965,1184,0,0
-252,-160,0,0,0,0,0,0,0,0,0,-1,972,1184,0,0
-245,-160,0,0,0,0,0,0,0,0,0,-1,979,1184,0,0
-238,-160,0,0,0,0,0,0,0,0,0,-1,986,1184,0,0
-231,-160,0,0,0,0,0,0,0,0,0,-1,993,1184,0,0
-224,-160,0,0,0,0,0,0,0,0,0,-1,1000,1184,0,0
-217,-160,0,0,0,0,0,0,0,0,0,-1,1007,1184,0,0
-210,-160,0,0,0,0,0,0,0,0,0,-1,1014,1184,0,0
-203,-160,0,0,0,0,0,0,0,0,0,-1,1021,1184,0,0
-196,-160,0,0,0,0,0,0,0,0,0,-1,1028,1184,0,0
-189,-160,0,0,0,0,0,0,0,0,0,-1,1035,1184,0,0
-182,-160,0,0,0,0,0,0,0,0,0,-1,1042,1184,0,0
-175,-160,0,0,0,0,0,0,0,0,0,-1,1049,1184,0,0
-168,-160,0,0,0,0,0,0,0,0,0,-1,1056,1184,0,0
-161,-160,0,0,0,0,0,0,0,0,0,-1,1063,1184,0,0
-154,-160,0,0,0,0,0,0,0,0,0,-1,1070,1184,0,0
-147,-160,0,0,0,0,0,0,0,0,0,-1,1077,1184,0,0
-140,-160,0,0,0,0,0,0,0,0,0,-1,1084,1184,0,0
-133,-160,0,0,0,0,0,0,0,0,0,-1,1091,1184,0,0
-126,-160,0,0,0,0,0,0,0,0,0,-1,1098,1184,0,0
-119,-160,0,0,0,0,0,0,0,0,0,-1,1105,1184,0,0
-112,-160,0,0,0,0,0,0,0,0,0,-1,1112,1184,0,0
-105,-160,0,0,0,0,0,0,0,0,0,-1,1119,1184,0,0
-98,-160,0,0,0,0,0,0,0,0,0,-1,1126,1184,0,0
-91,-160,0,0,0,0,0,0,0,0,0,-1,1133,1184,0,0
-84,-160,0,0,0,0,0,0,0,0,0,-1,1140,1184,0,0
-77,-160,0,0,0,0,0,0,0,0,0,-1,1147,1184,0,0
-70,-160,0,0,0,0,0,0,0,0,0,-1,1154,1184,0,0
-63,-160,0,0,0,0,0,0,0,0,0,-1,1161,1184,0,0
-56,-160,0,0,0,0,0,0,0,0,0,-1,1168,1184,0,0
-49,-160,0,0,0,0,0,0,0,0,0,-1,1175,1184,0,0
-42,-160,0,0,0,0,0,0,0,0,0,-1,1182,1184,0,0
-35,-160,0,0,0,0,0,0,0,0,0,-1,1189,1184,0,0
-28,-160,0,0,0,0,0,0,0,0,0,-1,1196,1184,0,0
-21,-160,0,0,0,0,0,0,0,0,0,-1,1203,1184,0,0
-14,-160,0,0,0,0,0,0,0,0,0,-1,1210,1184,0,0
-7,-160,0,0,0,0,0,0,0,0,0,-1,1217,1184,0,0
0,-160,0,0,0,0,0,0,0,0,0,-1,1224,1184,0,0
7,-160,0,0,0,0,0,0,0,0,0,-1,1231,1184,0,0
14,-160,0,0,0,0,0,0,0,0,0,-1,1238,1184,0,0
21,-160,0,0,0,0,0,0,0,0,0,-1,1245,1184,0,0
28,-160,0,0,0,0,0,0,0,0,0,-1,1252,1184,0,0
35,-160,0,0,0,0,0,0,0,0,0,-1,1259,1184,0,0
42,-160,0,0,0,0,0,0,0,0,0,-1,1266,1184,0,0
49,-160,0,0,0,0,0,0,0,0,0,-1,1273,1184,0,0
56,-160,0,0,0,0,0,0,0,0,0,-1,1280,1184,0,0
63,-160,0,0,0,0,0,0,0,0,0,-1,1287,1184,0,0
70,-160,0,0,0,0,0,0,0,0,0,-1,1294,1184,0,0
77,-160,0,0,0,0,0,0,0,0,0,-1,1301,1184,0,0
84,-160,0,0,0,0,0,0,0,0,0,-1,1308,1184,0,0
91,-160,0,0,0,0,0,0,0,0,0,-1,1315,1184,0,0
98,-160,0,0,0,0,0,0,0,0,0,-1,1322,1184,0,0
105,-160,0,0,0,0,0,0,0,0,0,-1,1329,1184,0,0
112,-160,0,0,0,0,0,0,0,0,0,-1,1336,1184,0,0
119,-160,0,0,0,0,0,0,0,0,0,-1,1343,1184,0,0
126,-160,0,0,0,0,0,0,0,0,0,-1,1350,1184,0,0
133,-160,0,0,0,0,0,0,0,0,0,-1,1357,1184,0,0
140,-160,0,0,0,0,0,0,0,0,0,-1,1364,1184,0,0
147,-160,0,0,0,0,0,0,0,0,0,-1,1371,1184,0,0
154,-160,0,0,0,0,0,0,0,0,0,-1,1378,1184,0,0
161,-160,0,0,0,0,0,0,0,0,0,-1,1385,1184,0,0
168,-160,0,0,0,0,0,0,0,0,0,-1,1392,1184,0,0
175,-160,0,0,0,0,0,0,0,0,0,-1,1399,1184,0,0
182,-160,0,0,0,0,0,0,0,0,0,-1,1406,1184,0,0
189,-160,0,0,0,0,0,0,0,0,0,-1,1413,1184,0,0
196,-160,0,0,0,0,0,0,0,0,0,-1,1420,1184,0,0
203,-160,0,0,0,0,0,0,0,0,0,-1,1427,1184,0,0
210,-160,0,0,0,0,0,0,0,0,0,-1,1434,1184,0,0
217,-160,0,0,0,0,0,0,0,0,0,-1,1441,1184,0,0
224,-160,0,0,0,0,0,0,0,0,0,-1,1448,1184,0,0
231,-160,0,0,0,0,0,0,0,0,0,-1,1455,1184,0,0
238,-160,0,0,0,0,0,0,0,0,0,-1,1462,1184,0,0
245,-160,0,0,0,0,0,0,0,0,0,-1,1469,1184,0,0
252,-160,0,0,0,0,0,0,0,0,0,-1,1476,1184,0,0
259,-160,0,0,0,0,0,0,0,0,0,-1,1483,1184,0,0
266,-160,0,0,0,0,0,0,0,0,0,-1,1490,1184,0,0
273,-160,0,0,0,0,0,0,0,0,0,-1,1497,1184,0,0
280,-160,0,0,0,0,0,0,0,0,0,-1,1504,1184,0,0
287,-160,0,0,0,0,0,0,0,0,0,-1,1511,1184,0,0
294,-160,0,0,0,0,0,0,0,0,0,-1,1518,1184,0,0
301,-160,0,0,0,0,0,0,0,0,0,-1,1525,1184,0,0
308,-160,0,0,0,0,0,0,0,0,0,-1,1532,1184,0,0
315,-160,0,0,0,0,0,0,0,0,0,-1,1539,1184,0,0
322,-160,0,0,0,0,0,0,0,0,0,-1,1546,1184,0,0
329,-160,0,0,0,0,0,0,0,0,0,-1,1553,1184,0,0
336,-160,0,0,0,0,0,0,0,0,0,-1,1560,1184,0,0
343,-160,0,0,0,0,0,0,0,0,0,-1,1567,1184,0,0
350,-160,0,0,0,0,0,0,0,0,0,-1,1574,1184,0,0
357,-160,0,0,0,0,0,0,0,0,0,-1,1581,1184,0,0
364,-160,0,0,0,0,0,0,0,0,0,-1,1588,1184,0,0
371,-160,0,0,0,0,0,0,0,0,0,-1,1595,1184,0,0
378,-160,0,0,0,0,0,0,0,0,0,-1,1602,1184,0,0
385,-160,0,0,0,0,0,0,0,0,0,-1,1609,1184,0,0
392,-160,0,0,0,0,0,0,0,0,0,-1,1616,1184,0,0
399,-160,0,0,0,0,0,0,0,0,0,-1,1623,1184,0,0
406,-160,0,0,0,0,0,0,0,0,0,-1,1630,1184,0,0
413,-160,0,0,0,0,0,0,0,0,0,-1,1637,1184,0,0
420,-160,0,0,0,0,0,0,0,0,0,-1,1644,1184,0,0
427,-160,0,0,0,0,0,0,0,0,0,-1,1651,1184,0,0
434,-160,0,0,0,0,0,0,0,0,0,-1,1658,1184,0,0
441,-160,0,0,0,0,0,0,0,0,0,-1,1665,1184,0,0
448,-160,0,0,0,0,0,0,0,0,0,-1,1672,1184,0,0
455,-160,0,0,0,0,0,0,0,0,0,-1,1679,1184,0,0
462,-160,0,0,0,0,0,0,0,0,0,-1,1686,1184,0,0
469,-160,0,0,0,0,0,0,0,0,0,-1,1693,1184,0,0
476,-160,0,0,0,0,0,0,0,0,0,-1,1700,1184,0,0
483,-160,0,0,0,0,0,0,0,0,0,-1,1707,1184,0,0
490,-160,0,0,0,0,0,0,0,0,0,-1,1714,1184,0,0
497,-160,0,0,0,0,0,0,0,0,0,-1,1721,1184,0,0
504,-160,0,0,0,0,0,0,0,0,0,-1,1728,1184,0,0
511,-160,0,0,0,0,0,0,0,0,0,-1,1735,1184,0,0
518,-160,0,0,0,0,0,0,0,0,0,-1,1742,1184,0,0
525,-160,0,0,0,0,0,0,0,0,0,-1,1749,1184,0,0
532,-160,0,0,0,0,0,0,0,0,0,-1,1756,1184,0,0
539,-160,0,0,0,0,0,0,0,0,0,-1,1763,1184,0,0
546,-160,0,0,0,0,0,0,0,0,0,-1,1770,1184,0,0
553,-160,0,0,0,0,0,0,0,0,0,-1,1777,1184,0,0
560,-160,0,0,0,0,0,0,0,0,0,-1,1784,1184,0,0
567,-160,0,0,0,0,0,0,0,0,0,-1,1791,1184,0,0
574,-160,0,0,0,0,0,0,0,0,0,-1,1798,1184,0,0
581,-160,0,0,0,0,0,0,0,0,0,-1,1805,1184,0,0
588,-160,0,0,0,0,0,0,0,0,0,-1,1812,1184,0,0
595,-160,0,0,0,0,0,0,0,0,0,-1,1819,1184,0,0
602,-160,0,0,0,0,0,0,0,0,0,-1,1826,1184,0,0
609,-160,0,0,0,0,0,0,0,0,0,-1,1833,1184,0,0
616,-160,0,0,0,0,0,0,0,0,0,-1,1840,1184,0,0
623,-160,0,0,0,0,0,0,0,0,0,-1,1847,1184,0,0
630,-160,0,0,0,0,0,0,0,0,0,-1,1854,1184,0,0
637,-160,214.493,8.90613,0,0,0,0,0,0,0,-1,1861,1184,214.493,-8.90615
644,-160,214.634,8.65649,0,0,0,0,0,0,0,-1,1868,1184,214.634,-8.65648
651,-160,214.457,8.57397,0,0,0,0,0,0,0,-1,1875,1184,214.457,-8.57394
658,-160,214.387,8.57849,0,0,0,0,0,0,0,-1,1882,1184,214.387,-8.57846
665,-160,214.45,8.52661,0,0,0,0,0,0,0,-1,1889,1184,214.45,-8.52664
672,-160,214.446,8.45349,0,0,0,0,0,0,0,-1,1896,1184,214.446,-8.45344
679,-160,214.406,8.54785,0,0,0,0,0,0,0,-1,1903,1184,214.406,-8.54787
686,-160,214.472,8.53174,0,0,0,0,0,0,0,-1,1910,1184,214.472,-8.5318
693,-160,214.658,8.38794,0,0,0,0,0,0,0,-1,1917,1184,214.658,-8.38794
700,-160,42.8784,2.44617,0,0,0,0,0,0,0,-1,1924,1184,42.8785,-2.4462
707,-160,24.5115,6.27405,0,0,0,0,0,0,0,-1,1931,1184,24.5115,-6.27401
714,-160,35.6892,6.8905,0,0,0,0,0,0,0,-1,1938,1184,35.6892,-6.89048
721,-160,36.2388,6.37878,0,0,0,0,0,0,0,-1,1945,1184,36.2388,-6.37876
728,-160,52.2174,8.57385,0,0,0,0,0,0,0,-1,1952,1184,52.2174,-8.57381
735,-160,206.612,32.7213,0,0,0,0,0,0,0,-1,1959,1184,206.612,-32.7213
742,-160,206.812,31.7002,-0.00944666,0.0194427,0.00533458,0.0203963,-0.0104002,1.39391,0.0180899,0.0313685,1966,1184,206.812,-31.7002
749,-160,206.799,30.7719,-0.0117512,0.0250047,0.00712508,0.0263375,-0.0130841,1.38587,0.0231849,0.0259296,1973,1184,206.799,-30.7719
756,-160,206.635,29.8577,-0.0136939,0.0300439,0.00929271,0.0319364,-0.0155864,1.36989,0.0279734,0.0176508,1980,1184,206.635,-29.8577
763,-160,206.379,29.0779,-0.0152211,0.0344768,0.0118633,0.0371634,-0.0179077,1.34809,0.0324367,0.0214406,1987,1184,206.379,-29.0778
770,-160,206.046,28.2391,-0.0162753,0.0382101,0.0148679,0.0420031,-0.0200684,1.32101,0.0365753,0.0363402,1994,1184,206.046,-28.2391
777,-160,205.933,27.5942,-0.0167209,0.0411575,0.0184107,0.0465175,-0.0220809,1.2875,0.0404342,0.0459171,2001,1184,205.933,-27.5942
784,-160,206.127,26.5359,0,0,0,0,0,0,0,-1,2008,1184,206.127,-26.5359
791,-160,206.224,25.4962,0,0,0,0,0,0,0,-1,2015,1184,206.224,-25.4962
798,-160,201.334,25.6141,0,0,0,0,0,0,0,-1,2022,1184,201.335,-25.6141
805,-160,201.37,24.9214,0,0,0,0,0,0,0,-1,2029,1184,201.37,-24.9214
812,-160,0,0,0,0,0,0,0,0,0,-1,2036,1184,0,0
-700,-167,0,0,0,0,0,0,0,0,0,-1,524,1191,0,0
-693,-167,0,0,0,0,0,0,0,0,0,-1,531,1191,0,0
-686,-167,-181.577,17.9915,0,0,0,0,0,0,0,-1,538,1191,-181.577,-17.9914
-679,-167,-180.486,19.9419,0,0,0,0,0,0,0,-1,545,1191,-180.486,-19.9419
-672,-167,-183.377,20.8622,0,0,0,0,0,0,0,-1,552,1191,-183.377,-20.8622
-665,-167,-182.894,22.3654,0,0,0,0,0,0,0,-1,559,1191,-182.894,-22.3654
-658,-167,-183.22,23.9731,0,0,0,0,0,0,0,-1,566,1191,-183.22,-23.9731
-651,-167,-182.867,24.7874,0,0,0,0,0,0,0,-1,573,1191,-182.867,-24.7874
-644,-167,-197.574,26.9705,0,0,0,0,0,0,0,-1,580,1191,-197.574,-26.9705
-637,-167,-197.826,27.6002,-0.0286199,0.0422055,-0.0203685,0.0476453,-0.0340597,-1.30981,0.0473893,0.044565,587,1191,-197.826,-27.6002
-630,-167,-198.211,28.2056,-0.0235734,0.0397029,-0.0162178,0.0436173,-0.0274879,-1.33396,0.0414032,0.0219899,594,1191,-198.211,-28.2055
-623,-167,-198.552,29.071,-0.0186729,0.0373047,-0.0123115,0.0398928,-0.021261,-1.3636,0.0358492,0.0379658,601,1191,-198.552,-29.071
-616,-167,-198.859,29.8469,0,0,0,0,0,0,0,-1,608,1191,-198.859,-29.8469
-609,-167,-188.495,31.2517,0,0,0,0,0,0,0,-1,615,1191,-188.495,-31.2517
-602,-167,-171.534,32.4463,0,0,0,0,0,0,0,-1,622,1191,-171.534,-32.4463
-595,-167,-53.8502,10.2292,0,0,0,0,0,0,0,-1,629,1191,-53.8502,-10.2292
-588,-167,-42.7112,7.92004,0,0,0,0,0,0,0,-1,636,1191,-42.7112,-7.92007
-581,-167,-32.8646,6.30542,0,0,0,0,0,0,0,-1,643,1191,-32.8646,-6.30537
-574,-167,-32.4808,7.37524,0,0,0,0,0,0,0,-1,650,1191,-32.4808,-7.37525
-567,-167,-27.3643,2.55859,0,0,0,0,0,0,0,-1,657,1191,-27.3643,-2.55864
-560,-167,-48.2598,0.834839,0,0,0,0,0,0,0,-1,664,1191,-48.2598,-0.834822
-553,-167,-71.9608,0.495361,0,0,0,0,0,0,0,-1,671,1191,-71.9607,-0.495325
-546,-167,-71.9877,0.515503,0,0,0,0,0,0,0,-1,678,1191,-71.9877,-0.515464
-539,-167,-71.9675,0.487549,0,0,0,0,0,0,0,-1,685,1191,-71.9675,-0.487605
-532,-167,-71.9727,0.365723,0,0,0,0,0,0,0,-1,692,1191,-71.9727,-0.36578
-525,-167,-72.0439,0.532471,0,0,0,0,0,0,0,-1,699,1191,-72.0439,-0.532526
-518,-167,-72.0834,0.718506,0,0,0,0,0,0,0,-1,706,1191,-72.0834,-0.718521
-511,-167,0,0,0,0,0,0,0,0,0,-1,713,1191,0,0
-504,-167,0,0,0,0,0,0,0,0,0,-1,720,1191,0,0
-497,-167,0,0,0,0,0,0,0,0,0,-1,727,1191,0,0
-490,-167,0,0,0,0,0,0,0,0,0,-1,734,1191,0,0
-483,-167,0,0,0,0,0,0,0,0,0,-1,741,1191,0,0
-476,-167,0,0,0,0,0,0,0,0,0,-1,748,1191,0,0
-469,-167,0,0,0,0,0,0,0,0,0,-1,755,1191,0,0
-462,-167,0,0,0,0,0,0,0,0,0,-1,762,1191,0,0
-455,-167,0,0,0,0,0,0,0,0,0,-1,769,1191,0,0
-448,-167,0,0,0,0,0,0,0,0,0,-1,776,1191,0,0
-441,-167,0,0,0,0,0,0,0,0,0,-1,783,1191,0,0
-434,-167,0,0,0,0,0,0,0,0,0,-1,790,1191,0,0
-427,-167,0,0,0,0,0,0,0,0,0,-1,797,1191,0,0
-420,-167,0,0,0,0,0,0,0,0,0,-1,804,1191,0,0
-413,-167,0,0,0,0,0,0,0,0,0,-1,811,1191,0,0
-406,-167,0,0,0,0,0,0,0,0,0,-1,818,1191,0,0
-399,-167,0,0,0,0,0,0,0,0,0,-1,825,1191,0,0
-392,-167,0,0,0,0,0,0,0,0,0,-1,832,1191,0,0
-385,-167,0,0,0,0,0,0,0,0,0,-1,839,1191,0,0
-378,-167,0,0,0,0,0,0,0,0,0,-1,846,1191,0,0
-371,-167,0,0,0,0,0,0,0,0,0,-1,853,1191,0,0
-364,-167,0,0,0,0,0,0,0,0,0,-1,860,1191,0,0
-357,-167,0,0,0,0,0,0,0,0,0,-1,867,1191,0,0
-350,-167,0,0,0,0,0,0,0,0,0,-1,874,1191,0,0
-343,-167,0,0,0,0,0,0,0,0,0,-1,881,1191,0,0
-336,-167,0,0,0,0,0,0,0,0,0,-1,888,1191,0,0
-329,-167,0,0,0,0,0,0,0,0,0,-1,895,1191,0,0
-322,-167,0,0,0,0,0,0,0,0,0,-1,902,1191,0,0
-315,-167,0,0,0,0,0,0,0,0,0,-1,909,1191,0,0
-308,-167,0,0,0,0,0,0,0,0,0,-1,916,1191,0,0
-301,-167,0,0,0,0,0,0,0,0,0,-1,923,1191,0,0
-294,-167,0,0,0,0,0,0,0,0,0,-1,930,1191,0,0
-287,-167,0,0,0,0,0,0,0,0,0,-1,937,1191,0,0
-280,-167,0,0,0,0,0,0,0,0,0,-1,944,1191,0,0
-273,-167,0,0,0,0,0,0,0,0,0,-1,951,1191,0,0
-266,-167,0,0,0,0,0,0,0,0,0,-1,958,1191,0,0
-259,-167,0,0,0,0,0,0,0,0,0,-1,965,1191,0,0
-252,-167,0,0,0,0,0,0,0,0,0,-1,972,1191,0,0
-245,-167,0,0,0,0,0,0,0,0,0,-1,979,1191,0,0
-238,-167,0,0,0,0,0,0,0,0,0,-1,986,1191,0,0
-231,-167,0,0,0,0,0,0,0,0,0,-1,993,1191,0,0
-224,-167,0,0,0,0,0,0,0,0,0,-1,1000,1191,0,0
-217,-167,0,0,0,0,0,0,0,0,0,-1,1007,1191,0,0
-210,-167,0,0,0,0,0,0,0,0,0,-1,1014,1191,0,0
-203,-167,0,0,0,0,0,0,0,0,0,-1,1021,1191,0,0
-196,-167,0,0,0,0,0,0,0,0,0,-1,1028,1191,0,0
-189,-167,0,0,0,0,0,0,0,0,0,-1,1035,1191,0,0
-182,-167,0,0,0,0,0,0,0,0,0,-1,1042,1191,0,0
-175,-167,0,0,0,0,0,0,0,0,0,-1,1049,1191,0,0
-168,-167,0,0,0,0,0,0,0,0,0,-1,1056,1191,0,0
-161,-167,0,0,0,0,0,0,0,0,0,-1,1063,1191,0,0
-154,-167,0,0,0,0,0,0,0,0,0,-1,1070,1191,0,0
-147,-167,0,0,0,0,0,0,0,0,0,-1,1077,1191,0,0
-140,-167,0,0,0,0,0,0,0,0,0,-1,1084,1191,0,0
-133,-167,0,0,0,0,0,0,0,0,0,-1,1091,1191,0,0
-126,-167,0,0,0,0,0,0,0,0,0,-1,1098,1191,0,0
-119,-167,0,0,0,0,0,0,0,0,0,-1,1105,1191,0,0
-112,-167,0,0,0,0,0,0,0,0,0,-1,1112,1191,0,0
-105,-167,0,0,0,0,0,0,0,0,0,-1,1119,1191,0,0
-98,-167,0,0,0,0,0,0,0,0,0,-1,1126,1191,0,0
-91,-167,0,0,0,0,0,0,0,0,0,-1,1133,1191,0,0
-84,-167,0,0,0,0,0,0,0,0,0,-1,1140,1191,0,0
-77,-167,0,0,0,0,0,0,0,0,0,-1,1147,1191,0,0
-70,-167,0,0,0,0,0,0,0,0,0,-1,1154,1191,0,0
-63,-167,0,0,0,0,0,0,0,0,0,-1,1161,1191,0,0
-56,-167,0,0,0,0,0,0,0,0,0,-1,1168,1191,0,0
-49,-167,0,0,0,0,0,0,0,0,0,-1,1175,1191,0,0
-42,-167,0,0,0,0,0,0,0,0,0,-1,1182,1191,0,0
-35,-167,0,0,0,0,0,0,0,0,0,-1,1189,1191,0,0
-28,-167,0,0,0,0,0,0,0,0,0,-1,1196,1191,0,0
-21,-167,0,0,0,0,0,0,0,0,0,-1,1203,1191,0,0
-14,-167,0,0,0,0,0,0,0,0,0,-1,1210,1191,0,0
-7,-167,0,0,0,0,0,0,0,0,0,-1,1217,1191,0,0
0,-167,0,0,0,0,0,0,0,0,0,-1,1224,1191,0,0
7,-167,0,0,0,0,0,0,0,0,0,-1,1231,1191,0,0
14,-167,0,0,0,0,0,0,0,0,0,-1,1238,1191,0,0
21,-167,0,0,0,0,0,0,0,0,0,-1,1245,1191,0,0
28,-167,0,0,0,0,0,0,0,0,0,-1,1252,1191,0,0
35,-167,0,0,0,0,0,0,0,0,0,-1,1259,1191,0,0
42,-167,0,0,0,0,0,0,0,0,0,-1,1266,1191,0,0
49,-167,0,0,0,0,0,0,0,0,0,-1,1273,1191,0,0
56,-167,0,0,0,0,0,0,0,0,0,-1,1280,1191,0,0
63,-167,0,0,0,0,0,0,0,0,0,-1,1287,1191,0,0
70,-167,0,0,0,0,0,0,0,0,0,-1,1294,1191,0,0
77,-167,0,0,0,0,0,0,0,0,0,-1,1301,1191,0,0
84,-167,0,0,0,0,0,0,0,0,0,-1,1308,1191,0,0
91,-167,0,0,0,0,0,0,0,0,0,-1,1315,1191,0,0
98,-167,0,0,0,0,0,0,0,0,0,-1,1322,1191,0,0
105,-167,0,0,0,0,0,0,0,0,0,-1,1329,1191,0,0
112,-167,0,0,0,0,0,0,0,0,0,-1,1336,1191,0,0
119,-167,0,0,0,0,0,0,0,0,0,-1,1343,1191,0,0
126,-167,0,0,0,0,0,0,0,0,0,-1,1350,1191,0,0
133,-167,0,0,0,0,0,0,0,0,0,-1,1357,1191,0,0
140,-167,0,0,0,0,0,0,0,0,0,-1,1364,1191,0,0
147,-167,0,0,0,0,0,0,0,0,0,-1,1371,1191,0,0
154,-167,0,0,0,0,0,0,0,0,0,-1,1378,1191,0,0
161,-167,0,0,0,0,0,0,0,0,0,-1,1385,1191,0,0
168,-167,0,0,0,0,0,0,0,0,0,-1,1392,1191,0,0
175,-167,0,0,0,0,0,0,0,0,0,-1,1399,1191,0,0
182,-167,0,0,0,0,0,0,0,0,0,-1,1406,1191,0,0
189,-167,0,0,0,0,0,0,0,0,0,-1,1413,1191,0,0
196,-167,0,0,0,0,0,0,0,0,0,-1,1420,1191,0,0
203,-167,0,0,0,0,0,0,0,0,0,-1,1427,1191,0,0
210,-167,0,0,0,0,0,0,0,0,0,-1,1434,1191,0,0
217,-167,0,0,0,0,0,0,0,0,0,-1,1441,1191,0,0
224,-167,0,0,0,0,0,0,0,0,0,-1,1448,1191,0,0
231,-167,0,0,0,0,0,0,0,0,0,-1,1455,1191,0,0
238,-167,0,0,0,0,0,0,0,0,0,-1,1462,1191,0,0
245,-167,0,0,0,0,0,0,0,0,0,-1,1469,1191,0,0
252,-167,0,0,0,0,0,0,0,0,0,-1,1476,1191,0,0
259,-167,0,0,0,0,0,0,0,0,0,-1,1483,1191,0,0
266,-167,0,0,0,0,0,0,0,0,0,-1,1490,1191,0,0
273,-167,0,0,0,0,0,0,0,0,0,-1,1497,1191,0,0
280,-167,0,0,0,0,0,0,0,0,0,-1,1504,1191,0,0
287,-167,0,0,0,0,0,0,0,0,0,-1,1511,1191,0,0
294,-167,0,0,0,0,0,0,0,0,0,-1,1518,1191,0,0
301,-167,0,0,0,0,0,0,0,0,0,-1,1525,1191,0,0
308,-167,0,0,0,0,0,0,0,0,0,-1,1532,1191,0,0
315,-167,0,0,0,0,0,0,0,0,0,-1,1539,1191,0,0
322,-167,0,0,0,0,0,0,0,0,0,-1,1546,1191,0,0
329,-167,0,0,0,0,0,0,0,0,0,-1,1553,1191,0,0
336,-167,0,0,0,0,0,0,0,0,0,-1,1560,1191,0,0
343,-167,0,0,0,0,0,0,0,0,0,-1,1567,1191,0,0
350,-167,0,0,0,0,0,0,0,0,0,-1,1574,1191,0,0
357,-167,0,0,0,0,0,0,0,0,0,-1,1581,1191,0,0
364,-167,0,0,0,0,0,0,0,0,0,-1,1588,1191,0,0
371,-167,0,0,0,0,0,0,0,0,0,-1,1595,1191,0,0
378,-167,0,0,0,0,0,0,0,0,0,-1,1602,1191,0,0
385,-167,0,0,0,0,0,0,0,0,0,-1,1609,1191,0,0
392,-167,0,0,0,0,0,0,0,0,0,-1,1616,1191,0,0
399,-167,0,0,0,0,0,0,0,0,0,-1,1623,1191,0,0
406,-167,0,0,0,0,0,0,0,0,0,-1,1630,1191,0,0
413,-167,0,0,0,0,0,0,0,0,0,-1,1637,1191,0,0
420,-167,0,0,0,0,0,0,0,0,0,-1,1644,1191,0,0
427,-167,0,0,0,0,0,0,0,0,0,-1,1651,1191,0,0
434,-167,0,0,0,0,0,0,0,0,0,-1,1658,1191,0,0
441,-167,0,0,0,0,0,0,0,0,0,-1,1665,1191,0,0
448,-167,0,0,0,0,0,0,0,0,0,-1,1672,1191,0,0
455,-167,0,0,0,0,0,0,0,0,0,-1,1679,1191,0,0
462,-167,0,0,0,0,0,0,0,0,0,-1,1686,1191,0,0
469,-167,0,0,0,0,0,0,0,0,0,-1,1693,1191,0,0
476,-167,0,0,0,0,0,0,0,0,0,-1,1700,1191,0,0
483,-167,0,0,0,0,0,0,0,0,0,-1,1707,1191,0,0
490,-167,0,0,0,0,0,0,0,0,0,-1,1714,1191,0,0
497,-167,0,0,0,0,0,0,0,0,0,-1,1721,1191,0,0
504,-167,0,0,0,0,0,0,0,0,0,-1,1728,1191,0,0
511,-167,0,0,0,0,0,0,0,0,0,-1,1735,1191,0,0
518,-167,0,0,0,0,0,0,0,0,0,-1,1742,1191,0,0
525,-167,0,0,0,0,0,0,0,0,0,-1,1749,1191,0,0
532,-167,0,0,0,0,0,0,0,0,0,-1,1756,1191,0,0
539,-167,0,0,0,0,0,0,0,0,0,-1,1763,1191,0,0
546,-167,0,0,0,0,0,0,0,0,0,-1,1770,1191,0,0
553,-167,0,0,0,0,0,0,0,0,0,-1,1777,1191,0,0
560,-167,0,0,0,0,0,0,0,0,0,-1,1784,1191,0,0
567,-167,0,0,0,0,0,0,0,0,0,-1,1791,1191,0,0
574,-167,0,0,0,0,0,0,0,0,0,-1,1798,1191,0,0
581,-167,0,0,0,0,0,0,0,0,0,-1,1805,1191,0,0
588,-167,0,0,0,0,0,0,0,0,0,-1,1812,1191,0,0
595,-167,0,0,0,0,0,0,0,0,0,-1,1819,1191,0,0
602,-167,0,0,0,0,0,0,0,0,0,-1,1826,1191,0,0
609,-167,0,0,0,0,0,0,0,0,0,-1,1833,1191,0,0
616,-167,0,0,0,0,0,0,0,0,0,-1,1840,1191,0,0
623,-167,0,0,0,0,0,0,0,0,0,-1,1847,1191,0,0
630,-167,0,0,0,0,0,0,0,0,0,-1,1854,1191,0,0
637,-167,214.383,8.85327,0,0,0,0,0,0,0,-1,1861,1191,214.383,-8.8533
644,-167,214.509,8.44885,0,0,0,0,0,0,0,-1,1868,1191,214.509,-8.44889
651,-167,214.292,8.62085,0,0,0,0,0,0,0,-1,1875,1191,214.292,-8.6208
658,-167,214.211,8.82593,0,0,0,0,0,0,0,-1,1882,1191,214.211,-8.82594
665,-167,214.38,8.84595,0,0,0,0,0,0,0,-1,1889,1191,214.38,-8.8459
672,-167,214.446,8.66101,0,0,0,0,0,0,0,-1,1896,1191,214.446,-8.66107
679,-167,214.448,8.60522,0,0,0,0,0,0,0,-1,1903,1191,214.449,-8.60518
686,-167,214.514,8.38916,0,0,0,0,0,0,0,-1,1910,1191,214.514,-8.3892
693,-167,83.0426,2.22205,0,0,0,0,0,0,0,-1,1917,1191,83.0426,-2.22204
700,-167,28.0459,2.70508,0,0,0,0,0,0,0,-1,1924,1191,28.0459,-2.70513
707,-167,29.4708,7.10168,0,0,0,0,0,0,0,-1,1931,1191,29.4708,-7.10172
714,-167,35.9202,6.84668,0,0,0,0,0,0,0,-1,1938,1191,35.9202,-6.84664
721,-167,36.2072,6.38892,0,0,0,0,0,0,0,-1,1945,1191,36.2072,-6.38891
728,-167,203.269,34.3833,0,0,0,0,0,0,0,-1,1952,1191,203.268,-34.3833
735,-167,205.795,32.8911,0,0,0,0,0,0,0,-1,1959,1191,205.795,-32.8912
742,-167,205.773,31.7776,-0.00891552,0.0215013,0.00534324,0.0224127,-0.00982685,1.40186,0.0190804,0.0285527,1966,1191,205.773,-31.7775
749,-167,205.647,30.7039,-0.0115589,0.0264343,0.00725701,0.0277732,-0.0128978,1.38834,0.0239993,0.0221655,1973,1191,205.647,-30.7039
756,-167,205.532,29.7552,-0.0138284,0.0309136,0.00949611,0.0328456,-0.0157604,1.37008,0.0286348,0.0168753,1980,1191,205.532,-29.7552
763,-167,205.137,28.7452,-0.0156641,0.0348439,0.0120863,0.0375872,-0.0184073,1.34761,0.0329545,0.020741,1987,1191,205.137,-28.7453
770,-167,204.728,27.754,0,0,0,0,0,0,0,-1,1994,1191,204.728,-27.754
777,-167,204.764,27.6201,0,0,0,0,0,0,0,-1,2001,1191,204.765,-27.6201
784,-167,205.021,26.5559,0,0,0,0,0,0,0,-1,2008,1191,205.021,-26.5559
791,-167,200.445,25.1343,0,0,0,0,0,0,0,-1,2015,1191,200.445,-25.1342
798,-167,200.385,24.8876,0,0,0,0,0,0,0,-1,2022,1191,200.385,-24.8875
805,-167,200.37,24.4675,0,0,0,0,0,0,0,-1,2029,1191,200.37,-24.4675
812,-167,0,0,0,0,0,0,0,0,0,-1,2036,1191,0,0
-700,-174,0,0,0,0,0,0,0,0,0,-1,524,1198,0,0
-693,-174,0,0,0,0,0,0,0,0,0,-1,531,1198,0,0
-686,-174,-181.3,18.2295,0,0,0,0,0,0,0,-1,538,1198,-181.3,-18.2295
-679,-174,-182.095,19.8165,0,0,0,0,0,0,0,-1,545,1198,-182.095,-19.8165
-672,-174,-181.861,21.2617,0,0,0,0,0,0,0,-1,552,1198,-181.861,-21.2617
-665,-174,-181.892,22.6538,0,0,0,0,0,0,0,-1,559,1198,-181.892,-22.6539
-658,-174,-181.998,24.1498,0,0,0,0,0,0,0,-1,566,1198,-181.998,-24.1497
-651,-174,-181.661,25.0159,0,0,0,0,0,0,0,-1,573,1198,-181.661,-25.0159
-644,-174,-194.594,26.0352,0,0,0,0,0,0,0,-1,580,1198,-194.594,-26.0351
-637,-174,-196.589,27.353,0,0,0,0,0,0,0,-1,587,1198,-196.589,-27.353
-630,-174,-196.981,28.0354,-0.0238261,0.0402762,-0.0165858,0.0443133,-0.0278633,-1.33203,0.0420304,0.0269941,594,1198,-196.981,-28.0353
-623,-174,-197.217,28.9485,-0.0194342,0.0375514,-0.0135429,0.0406062,-0.0224889,-1.34895,0.0369252,0.0227009,601,1198,-197.217,-28.9484
-616,-174,-197.294,29.9753,-0.0154264,0.0348279,-0.010879,0.0370819,-0.0176804,-1.3665,0.0322716,0.0281296,608,1198,-197.294,-29.9753
-609,-174,-197.384,31.0228,0,0,0,0,0,0,0,-1,615,1198,-197.384,-31.0228
-602,-174,-187.908,31.9341,0,0,0,0,0,0,0,-1,622,1198,-187.908,-31.934
-595,-174,-52.4874,10.4403,0,0,0,0,0,0,0,-1,629,1198,-52.4874,-10.4403
-588,-174,-82.5152,19.7214,0,0,0,0,0,0,0,-1,636,1198,-82.5152,-19.7215
-581,-174,-51.1051,11.6198,0,0,0,0,0,0,0,-1,643,1198,-51.1051,-11.6197
-574,-174,-31.7448,7.09595,0,0,0,0,0,0,0,-1,650,1198,-31.7448,-7.09599
-567,-174,-26.6597,3.04041,0,0,0,0,0,0,0,-1,657,1198,-26.6597,-3.04039
-560,-174,-42.6953,1.07178,0,0,0,0,0,0,0,-1,664,1198,-42.6953,-1.07181
-553,-174,-71.9143,0.470703,0,0,0,0,0,0,0,-1,671,1198,-71.9143,-0.470669
-546,-174,-71.9802,0.492554,0,0,0,0,0,0,0,-1,678,1198,-71.9802,-0.492513
-539,-174,-71.983,0.482666,0,0,0,0,0,0,0,-1,685,1198,-71.983,-0.48269
-532,-174,-72.0311,0.235718,0,0,0,0,0,0,0,-1,692,1198,-72.0311,-0.235711
-525,-174,-72.1511,0.398926,0,0,0,0,0,0,0,-1,699,1198,-72.1511,-0.398868
-518,-174,-72.131,0.657959,0,0,0,0,0,0,0,-1,706,1198,-72.131,-0.657944
-511,-174,0,0,0,0,0,0,0,0,0,-1,713,1198,0,0
-504,-174,0,0,0,0,0,0,0,0,0,-1,720,1198,0,0
-497,-174,0,0,0,0,0,0,0,0,0,-1,727,1198,0,0
-490,-174,0,0,0,0,0,0,0,0,0,-1,734,1198,0,0
-483,-174,0,0,0,0,0,0,0,0,0,-1,741,1198,0,0
-476,-174,0,0,0,0,0,0,0,0,0,-1,748,1198,0,0
-469,-174,0,0,0,0,0,0,0,0,0,-1,755,1198,0,0
-462,-174,0,0,0,0,0,0,0,0,0,-1,762,1198,0,0
-455,-174,0,0,0,0,0,0,0,0,0,-1,769,1198,0,0
-448,-174,0,0,0,0,0,0,0,0,0,-1,776,1198,0,0
-441,-174,0,0,0,0,0,0,0,0,0,-1,783,1198,0,0
-434,-174,0,0,0,0,0,0,0,0,0,-1,790,1198,0,0
-427,-174,0,0,0,0,0,0,0,0,0,-1,797,1198,0,0
-420,-174,0,0,0,0,0,0,0,0,0,-1,804,1198,0,0
-413,-174,0,0,0,0,0,0,0,0,0,-1,811,1198,0,0
-406,-174,0,0,0,0,0,0,0,0,0,-1,818,1198,0,0
-399,-174,0,0,0,0,0,0,0,0,0,-1,825,1198,0,0
-392,-174,0,0,0,0,0,0,0,0,0,-1,832,1198,0,0
-385,-174,0,0,0,0,0,0,0,0,0,-1,839,1198,0,0
-378,-174,0,0,0,0,0,0,0,0,0,-1,846,1198,0,0
-371,-174,0,0,0,0,0,0,0,0,0,-1,853,1198,0,0
-364,-174,0,0,0,0,0,0,0,0,0,-1,860,1198,0,0
-357,-174,0,0,0,0,0,0,0,0,0,-1,867,1198,0,0
-350,-174,0,0,0,0,0,0,0,0,0,-1,874,1198,0,0
-343,-174,0,0,0,0,0,0,0,0,0,-1,881,1198,0,0
-336,-174,0,0,0,0,0,0,0,0,0,-1,888,1198,0,0
-329,-174,0,0,0,0,0,0,0,0,0,-1,895,1198,0,0
-322,-174,0,0,0,0,0,0,0,0,0,-1,902,1198,0,0
-315,-174,0,0,0,0,0,0,0,0,0,-1,909,1198,0,0
-308,-174,0,0,0,0,0,0,0,0,0,-1,916,1198,0,0
-301,-174,0,0,0,0,0,0,0,0,0,-1,923,1198,0,0
-294,-174,0,0,0,0,0,0,0,0,0,-1,930,1198,0,0
-287,-174,0,0,0,0,0,0,0,0,0,-1,937,1198,0,0
-280,-174,0,0,0,0,0,0,0,0,0,-1,944,1198,0,0
-273,-174,0,0,0,0,0,0,0,0,0,-1,951,1198,0,0
-266,-174,0,0,0,0,0,0,0,0,0,-1,958,1198,0,0
-259,-174,0,0,0,0,0,0,0,0,0,-1,965,1198,0,0
-252,-174,0,0,0,0,0,0,0,0,0,-1,972,1198,0,0
-245,-174,0,0,0,0,0,0,0,0,0,-1,979,1198,0,0
-238,-174,0,0,0,0,0,0,0,0,0,-1,986,1198,0,0
-231,-174,0,0,0,0,0,0,0,0,0,-1,993,1198,0,0
-224,-174,0,0,0,0,0,0,0,0,0,-1,1000,1198,0,0
-217,-174,0,0,0,0,0,0,0,0,0,-1,1007,1198,0,0
-210,-174,0,0,0,0,0,0,0,0,0,-1,1014,1198,0,0
-203,-174,0,0,0,0,0,0,0,0,0,-1,1021,1198,0,0
-196,-174,0,0,0,0,0,0,0,0,0,-1,1028,1198,0,0
-189,-174,0,0,0,0,0,0,0,0,0,-1,1035,1198,0,0
-182,-174,0,0,0,0,0,0,0,0,0,-1,1042,1198,0,0
-175,-174,0,0,0,0,0,0,0,0,0,-1,1049,1198,0,0
-168,-174,0,0,0,0,0,0,0,0,0,-1,1056,1198,0,0
-161,-174,0,0,0,0,0,0,0,0,0,-1,1063,1198,0,0
-154,-174,0,0,0,0,0,0,0,0,0,-1,1070,1198,0,0
-147,-174,0,0,0,0,0,0,0,0,0,-1,1077,1198,0,0
-140,-174,0,0,0,0,0,0,0,0,0,-1,1084,1198,0,0
-133,-174,0,0,0,0,0,0,0,0,0,-1,1091,1198,0,0
-126,-174,0,0,0,0,0,0,0,0,0,-1,1098,1198,0,0
-119,-174,0,0,0,0,0,0,0,0,0,-1,1105,1198,0,0
-112,-174,0,0,0,0,0,0,0,0,0,-1,1112,1198,0,0
-105,-174,0,0,0,0,0,0,0,0,0,-1,1119,1198,0,0
-98,-174,0,0,0,0,0,0,0,0,0,-1,1126,1198,0,0
-91,-174,0,0,0,0,0,0,0,0,0,-1,1133,1198,0,0
-84,-174,0,0,0,0,0,0,0,0,0,-1,1140,1198,0,0
-77,-174,0,0,0,0,0,0,0,0,0,-1,1147,1198,0,0
-70,-174,0,0,0,0,0,0,0,0,0,-1,1154,1198,0,0
-63,-174,0,0,0,0,0,0,0,0,0,-1,1161,1198,0,0
-56,-174,0,0,0,0,0,0,0,0,0,-1,1168,1198,0,0
-49,-174,0,0,0,0,0,0,0,0,0,-1,1175,1198,0,0
-42,-174,0,0,0,0,0,0,0,0,0,-1,1182,1198,0,0
-35,-174,0,0,0,0,0,0,0,0,0,-1,1189,1198,0,0
-28,-174,0,0,0,0,0,0,0,0,0,-1,1196,1198,0,0
-21,-174,0,0,0,0,0,0,0,0,0,-1,1203,1198,0,0
-14,-174,0,0,0,0,0,0,0,0,0,-1,1210,1198,0,0
-7,-174,0,0,0,0,0,0,0,0,0,-1,1217,1198,0,0
0,-174,0,0,0,0,0,0,0,0,0,-1,1224,1198,0,0
7,-174,0,0,0,0,0,0,0,0,0,-1,1231,1198,0,0
14,-174,0,0,0,0,0,0,0,0,0,-1,1238,1198,0,0
21,-174,0,0,0,0,0,0,0,0,0,-1,1245,1198,0,0
28,-174,0,0,0,0,0,0,0,0,0,-1,1252,1198,0,0
35,-174,0,0,0,0,0,0,0,0,0,-1,1259,1198,0,0
42,-174,0,0,0,0,0,0,0,0,0,-1,1266,1198,0,0
49,-174,0,0,0,0,0,0,0,0,0,-1,1273,1198,0,0
56,-174,0,0,0,0,0,0,0,0,0,-1,1280,1198,0,0
63,-174,0,0,0,0,0,0,0,0,0,-1,1287,1198,0,0
70,-174,0,0,0,0,0,0,0,0,0,-1,1294,1198,0,0
77,-174,0,0,0,0,0,0,0,0,0,-1,1301,1198,0,0
84,-174,0,0,0,0,0,0,0,0,0,-1,1308,1198,0,0
91,-174,0,0,0,0,0,0,0,0,0,-1,1315,1198,0,0
98,-174,0,0,0,0,0,0,0,0,0,-1,1322,1198,0,0
105,-174,0,0,0,0,0,0,0,0,0,-1,1329,1198,0,0
112,-174,0,0,0,0,0,0,0,0,0,-1,1336,1198,0,0
119,-174,0,0,0,0,0,0,0,0,0,-1,1343,1198,0,0
126,-174,0,0,0,0,0,0,0,0,0,-1,1350,1198,0,0
133,-174,0,0,0,0,0,0,0,0,0,-1,1357,1198,0,0
140,-174,0,0,0,0,0,0,0,0,0,-1,1364,1198,0,0
147,-174,0,0,0,0,0,0,0,0,0,-1,1371,1198,0,0
154,-174,0,0,0,0,0,0,0,0,0,-1,1378,1198,0,0
161,-174,0,0,0,0,0,0,0,0,0,-1,1385,1198,0,0
168,-174,0,0,0,0,0,0,0,0,0,-1,1392,1198,0,0
175,-174,0,0,0,0,0,0,0,0,0,-1,1399,1198,0,0
182,-174,0,0,0,0,0,0,0,0,0,-1,1406,1198,0,0
189,-174,0,0,0,0,0,0,0,0,0,-1,1413,1198,0,0
196,-174,0,0,0,0,0,0,0,0,0,-1,1420,1198,0,0
203,-174,0,0,0,0,0,0,0,0,0,-1,1427,1198,0,0
210,-174,0,0,0,0,0,0,0,0,0,-1,1434,1198,0,0
217,-174,0,0,0,0,0,0,0,0,0,-1,1441,1198,0,0
224,-174,0,0,0,0,0,0,0,0,0,-1,1448,1198,0,0
231,-174,0,0,0,0,0,0,0,0,0,-1,1455,1198,0,0
238,-174,0,0,0,0,0,0,0,0,0,-1,1462,1198,0,0
245,-174,0,0,0,0,0,0,0,0,0,-1,1469,1198,0,0
252,-174,0,0,0,0,0,0,0,0,0,-1,1476,1198,0,0
259,-174,0,0,0,0,0,0,0,0,0,-1,1483,1198,0,0
266,-174,0,0,0,0,0,0,0,0,0,-1,1490,1198,0,0
273,-174,0,0,0,0,0,0,0,0,0,-1,1497,1198,0,0
280,-174,0,0,0,0,0,0,0,0,0,-1,1504,1198,0,0
287,-174,0,0,0,0,0,0,0,0,0,-1,1511,1198,0,0
294,-174,0,0,0,0,0,0,0,0,0,-1,1518,1198,0,0
301,-174,0,0,0,0,0,0,0,0,0,-1,1525,1198,0,0
308,-174,0,0,0,0,0,0,0,0,0,-1,1532,1198,0,0
315,-174,0,0,0,0,0,0,0,0,0,-1,1539,1198,0,0
322,-174,0,0,0,0,0,0,0,0,0,-1,1546,1198,0,0
329,-174,0,0,0,0,0,0,0,0,0,-1,1553,1198,0,0
336,-174,0,0,0,0,0,0,0,0,0,-1,1560,1198,0,0
343,-174,0,0,0,0,0,0,0,0,0,-1,1567,1198,0,0
350,-174,0,0,0,0,0,0,0,0,0,-1,1574,1198,0,0
357,-174,0,0,0,0,0,0,0,0,0,-1,1581,1198,0,0
364,-174,0,0,0,0,0,0,0,0,0,-1,1588,1198,0,0
371,-174,0,0,0,0,0,0,0,0,0,-1,1595,1198,0,0
378,-174,0,0,0,0,0,0,0,0,0,-1,1602,1198,0,0
385,-174,0,0,0,0,0,0,0,0,0,-1,1609,1198,0,0
392,-174,0,0,0,0,0,0,0,0,0,-1,1616,1198,0,0
399,-174,0,0,0,0,0,0,0,0,0,-1,1623,1198,0,0
406,-174,0,0,0,0,0,0,0,0,0,-1,1630,1198,0,0
413,-174,0,0,0,0,0,0,0,0,0,-1,1637,1198,0,0
420,-174,0,0,0,0,0,0,0,0,0,-1,1644,1198,0,0
427,-174,0,0,0,0,0,0,0,0,0,-1,1651,1198,0,0
434,-174,0,0,0,0,0,0,0,0,0,-1,1658,1198,0,0
441,-174,0,0,0,0,0,0,0,0,0,-1,1665,1198,0,0
448,-174,0,0,0,0,0,0,0,0,0,-1,1672,1198,0,0
455,-174,0,0,0,0,0,0,0,0,0,-1,1679,1198,0,0
462,-174,0,0,0,0,0,0,0,0,0,-1,1686,1198,0,0
469,-174,0,0,0,0,0,0,0,0,0,-1,1693,1198,0,0
476,-174,0,0,0,0,0,0,0,0,0,-1,1700,1198,0,0
483,-174,0,0,0,0,0,0,0,0,0,-1,1707,1198,0,0
490,-174,0,0,0,0,0,0,0,0,0,-1,1714,1198,0,0
497,-174,0,0,0,0,0,0,0,0,0,-1,1721,1198,0,0
504,-174,0,0,0,0,0,0,0,0,0,-1,1728,1198,0,0
511,-174,0,0,0,0,0,0,0,0,0,-1,1735,1198,0,0
518,-174,0,0,0,0,0,0,0,0,0,-1,1742,1198,0,0
525,-174,0,0,0,0,0,0,0,0,0,-1,1749,1198,0,0
532,-174,0,0,0,0,0,0,0,0,0,-1,1756,1198,0,0
539,-174,0,0,0,0,0,0,0,0,0,-1,1763,1198,0,0
546,-174,0,0,0,0,0,0,0,0,0,-1,1770,1198,0,0
553,-174,0,0,0,0,0,0,0,0,0,-1,1777,1198,0,0
560,-174,0,0,0,0,0,0,0,0,0,-1,1784,1198,0,0
567,-174,0,0,0,0,0,0,0,0,0,-1,1791,1198,0,0
574,-174,0,0,0,0,0,0,0,0,0,-1,1798,1198,0,0
581,-174,0,0,0,0,0,0,0,0,0,-1,1805,1198,0,0
588,-174,0,0,0,0,0,0,0,0,0,-1,1812,1198,0,0
595,-174,0,0,0,0,0,0,0,0,0,-1,1819,1198,0,0
602,-174,0,0,0,0,0,0,0,0,0,-1,1826,1198,0,0
609,-174,0,0,0,0,0,0,0,0,0,-1,1833,1198,0,0
616,-174,0,0,0,0,0,0,0,0,0,-1,1840,1198,0,0
623,-174,0,0,0,0,0,0,0,0,0,-1,1847,1198,0,0
630,-174,0,0,0,0,0,0,0,0,0,-1,1854,1198,0,0
637,-174,214.478,9.11682,0,0,0,0,0,0,0,-1,1861,1198,214.478,-9.11679
644,-174,214.363,8.68933,0,0,0,0,0,0,0,-1,1868,1198,214.363,-8.68935
651,-174,214.325,8.64172,0,0,0,0,0,0,0,-1,1875,1198,214.325,-8.64168
658,-174,214.182,8.7738,0,0,0,0,0,0,0,-1,1882,1198,214.182,-8.77385
665,-174,214.402,8.81555,0,0,0,0,0,0,0,-1,1889,1198,214.402,-8.81555
672,-174,214.445,8.6355,0,0,0,0,0,0,0,-1,1896,1198,214.445,-8.63553
679,-174,214.458,8.52563,0,0,0,0,0,0,0,-1,1903,1198,214.458,-8.52559
686,-174,214.555,8.25171,0,0,0,0,0,0,0,-1,1910,1198,214.555,-8.25167
693,-174,51.1324,2.57349,0,0,0,0,0,0,0,-1,1917,1198,51.1325,-2.57343
700,-174,25.4004,6.11792,0,0,0,0,0,0,0,-1,1924,1198,25.4004,-6.11797
707,-174,34.7908,7.34473,0,0,0,0,0,0,0,-1,1931,1198,34.7908,-7.34475
714,-174,40.1135,7.79871,0,0,0,0,0,0,0,-1,1938,1198,40.1135,-7.79875
721,-174,40.8693,7.59863,0,0,0,0,0,0,0,-1,1945,1198,40.8693,-7.59859
728,-174,204.355,33.8322,0,0,0,0,0,0,0,-1,1952,1198,204.355,-33.8322
735,-174,204.455,32.8899,-0.00452609,0.0182312,0.00385118,0.0188653,-0.00516015,1.40762,0.014604,0.0403921,1959,1198,204.455,-32.8899
742,-174,204.665,31.7196,-0.0082171,0.0229711,0.00574997,0.0239975,-0.00924342,1.39417,0.0198118,0.0327629,1966,1198,204.665,-31.7196
749,-174,204.521,30.5754,-0.0114839,0.0273889,0.00787792,0.0289247,-0.0130198,1.37826,0.0247902,0.0253074,1973,1198,204.521,-30.5755
756,-174,204.289,29.5245,-0.014283,0.0314023,0.0102551,0.0335987,-0.0164794,1.35981,0.0294704,0.0173292,1980,1198,204.289,-29.5245
763,-174,204.04,28.4738,-0.0165609,0.0349127,0.0129122,0.0379702,-0.0196183,1.33829,0.0338068,0.0243494,1987,1198,204.04,-28.4738
770,-174,203.837,27.3888,0,0,0,0,0,0,0,-1,1994,1198,203.837,-27.3887
777,-174,112.049,4.95313,0,0,0,0,0,0,0,-1,2001,1198,112.049,-4.95312
784,-174,111.412,4.28589,0,0,0,0,0,0,0,-1,2008,1198,111.412,-4.28584
791,-174,202.178,23.3279,0,0,0,0,0,0,0,-1,2015,1198,202.178,-23.3279
798,-174,199.414,24.0172,0,0,0,0,0,0,0,-1,2022,1198,199.414,-24.0172
805,-174,110.032,10.519,0,0,0,0,0,0,0,-1,2029,1198,110.032,-10.5191
812,-174,0,0,0,0,0,0,0,0,0,-1,2036,1198,0,0
-700,-181,0,0,0,0,0,0,0,0,0,-1,524,1205,0,0
-693,-181,0,0,0,0,0,0,0,0,0,-1,531,1205,0,0
-686,-181,-181.035,18.4607,0,0,0,0,0,0,0,-1,538,1205,-181.035,-18.4607
-679,-181,-180.687,19.6251,0,0,0,0,0,0,0,-1,545,1205,-180.687,-19.6251
-672,-181,-181.005,21.6814,0,0,0,0,0,0,0,-1,552,1205,-181.005,-21.6814
-665,-181,-180.938,22.9178,0,0,0,0,0,0,0,-1,559,1205,-180.938,-22.9179
-658,-181,-180.849,24.1835,0,0,0,0,0,0,0,-1,566,1205,-180.849,-24.1834
-651,-181,-193.665,24.5267,0,0,0,0,0,0,0,-1,573,1205,-193.665,-24.5267
-644,-181,-195.325,25.5333,0,0,0,0,0,0,0,-1,580,1205,-195.325,-25.5334
-637,-181,-195.4,26.7878,0,0,0,0,0,0,0,-1,587,1205,-195.4,-26.7879
-630,-181,-195.752,27.8209,-0.0235703,0.0412442,-0.0168416,0.0453591,-0.0276853,-1.33116,0.0425817,0.0236689,594,1205,-195.752,-27.821
-623,-181,-196.073,28.8751,-0.0197496,0.0378528,-0.0145471,0.0413181,-0.0232149,-1.33694,0.0377436,0.0199753,601,1205,-196.073,-28.8752
-616,-181,-196.163,29.9642,-0.0164784,0.034359,-0.0126599,0.0373372,-0.0194566,-1.33975,0.0333272,0.0185718,608,1205,-196.163,-29.9643
-609,-181,-196.479,31.0035,-0.0138044,0.0307566,-0.0112005,0.0334134,-0.0164613,-1.33789,0.0293444,0.0277298,615,1205,-196.479,-31.0035
-602,-181,-196.936,31.9987,0,0,0,0,0,0,0,-1,622,1205,-196.936,-31.9987
-595,-181,-184.223,34.2135,0,0,0,0,0,0,0,-1,629,1205,-184.223,-34.2135
-588,-181,-81.3058,19.9136,0,0,0,0,0,0,0,-1,636,1205,-81.3058,-19.9135
-581,-181,-81.564,20.8275,0,0,0,0,0,0,0,-1,643,1205,-81.564,-20.8275
-574,-181,-49.6119,12.3185,0,0,0,0,0,0,0,-1,650,1205,-49.6119,-12.3185
-567,-181,-25.8839,3.34485,0,0,0,0,0,0,0,-1,657,1205,-25.8839,-3.3449
-560,-181,-31.7396,1.63306,0,0,0,0,0,0,0,-1,664,1205,-31.7396,-1.63303
-553,-181,-57.8761,0.527832,0,0,0,0,0,0,0,-1,671,1205,-57.8761,-0.527787
-546,-181,-71.9266,0.492798,0,0,0,0,0,0,0,-1,678,1205,-71.9266,-0.492781
-539,-181,-71.897,0.373657,0,0,0,0,0,0,0,-1,685,1205,-71.8971,-0.373697
-532,-181,-71.999,0.237061,0,0,0,0,0,0,0,-1,692,1205,-71.999,-0.237102
-525,-181,-72.1212,0.416626,0,0,0,0,0,0,0,-1,699,1205,-72.1212,-0.416618
-518,-181,-71.9969,0.632813,0,0,0,0,0,0,0,-1,706,1205,-71.997,-0.632783
-511,-181,0,0,0,0,0,0,0,0,0,-1,713,1205,0,0
-504,-181,0,0,0,0,0,0,0,0,0,-1,720,1205,0,0
-497,-181,0,0,0,0,0,0,0,0,0,-1,727,1205,0,0
-490,-181,0,0,0,0,0,0,0,0,0,-1,734,1205,0,0
-483,-181,0,0,0,0,0,0,0,0,0,-1,741,1205,0,0
-476,-181,0,0,0,0,0,0,0,0,0,-1,748,1205,0,0
-469,-181,0,0,0,0,0,0,0,0,0,-1,755,1205,0,0
-462,-181,0,0,0,0,0,0,0,0,0,-1,762,1205,0,0
-455,-181,0,0,0,0,0,0,0,0,0,-1,769,1205,0,0
-448,-181,0,0,0,0,0,0,0,0,0,-1,776,1205,0,0
-441,-181,0,0,0,0,0,0,0,0,0,-1,783,1205,0,0
-434,-181,0,0,0,0,0,0,0,0,0,-1,790,1205,0,0
-427,-181,0,0,0,0,0,0,0,0,0,-1,797,1205,0,0
-420,-181,0,0,0,0,0,0,0,0,0,-1,804,1205,0,0
-413,-181,0,0,0,0,0,0,0,0,0,-1,811,1205,0,0
-406,-181,0,0,0,0,0,0,0,0,0,-1,818,1205,0,0
-399,-181,0,0,0,0,0,0,0,0,0,-1,825,1205,0,0
-392,-181,0,0,0,0,0,0,0,0,0,-1,832,1205,0,0
-385,-181,0,0,0,0,0,0,0,0,0,-1,839,1205,0,0
-378,-181,0,0,0,0,0,0,0,0,0,-1,846,1205,0,0
-371,-181,0,0,0,0,0,0,0,0,0,-1,853,1205,0,0
-364,-181,0,0,0,0,0,0,0,0,0,-1,860,1205,0,0
-357,-181,0,0,0,0,0,0,0,0,0,-1,867,1205,0,0
-350,-181,0,0,0,0,0,0,0,0,0,-1,874,1205,0,0
-343,-181,0,0,0,0,0,0,0,0,0,-1,881,1205,0,0
-336,-181,0,0,0,0,0,0,0,0,0,-1,888,1205,0,0
-329,-181,0,0,0,0,0,0,0,0,0,-1,895,1205,0,0
-322,-181,0,0,0,0,0,0,0,0,0,-1,902,1205,0,0
-315,-181,0,0,0,0,0,0,0,0,0,-1,909,1205,0,0
-308,-181,0,0,0,0,0,0,0,0,0,-1,916,1205,0,0
-301,-181,0,0,0,0,0,0,0,0,0,-1,923,1205,0,0
-294,-181,0,0,0,0,0,0,0,0,0,-1,930,1205,0,0
-287,-181,0,0,0,0,0,0,0,0,0,-1,937,1205,0,0
-280,-181,0,0,0,0,0,0,0,0,0,-1,944,1205,0,0
-273,-181,0,0,0,0,0,0,0,0,0,-1,951,1205,0,0
-266,-181,0,0,0,0,0,0,0,0,0,-1,958,1205,0,0
-259,-181,0,0,0,0,0,0,0,0,0,-1,965,1205,0,0
-252,-181,0,0,0,0,0,0,0,0,0,-1,972,1205,0,0
-245,-181,0,0,0,0,0,0,0,0,0,-1,979,1205,0,0
-238,-181,0,0,0,0,0,0,0,0,0,-1,986,1205,0,0
-231,-181,0,0,0,0,0,0,0,0,0,-1,993,1205,0,0
-224,-181,0,0,0,0,0,0,0,0,0,-1,1000,1205,0,0
-217,-181,0,0,0,0,0,0,0,0,0,-1,1007,1205,0,0
-210,-181,0,0,0,0,0,0,0,0,0,-1,1014,1205,0,0
-203,-181,0,0,0,0,0,0,0,0,0,-1,1021,1205,0,0
-196,-181,0,0,0,0,0,0,0,0,0,-1,1028,1205,0,0
-189,-181,0,0,0,0,0,0,0,0,0,-1,1035,1205,0,0
-182,-181,0,0,0,0,0,0,0,0,0,-1,1042,1205,0,0
-175,-181,0,0,0,0,0,0,0,0,0,-1,1049,1205,0,0
-168,-181,0,0,0,0,0,0,0,0,0,-1,1056,1205,0,0
-161,-181,0,0,0,0,0,0,0,0,0,-1,1063,1205,0,0
-154,-181,0,0,0,0,0,0,0,0,0,-1,1070,1205,0,0
-147,-181,0,0,0,0,0,0,0,0,0,-1,1077,1205,0,0
-140,-181,0,0,0,0,0,0,0,0,0,-1,1084,1205,0,0
-133,-181,0,0,0,0,0,0,0,0,0,-1,1091,1205,0,0
-126,-181,0,0,0,0,0,0,0,0,0,-1,1098,1205,0,0
-119,-181,0,0,0,0,0,0,0,0,0,-1,1105,1205,0,0
-112,-181,0,0,0,0,0,0,0,0,0,-1,1112,1205,0,0
-105,-181,0,0,0,0,0,0,0,0,0,-1,1119,1205,0,0
-98,-181,0,0,0,0,0,0,0,0,0,-1,1126,1205,0,0
-91,-181,0,0,0,0,0,0,0,0,0,-1,1133,1205,0,0
-84,-181,0,0,0,0,0,0,0,0,0,-1,1140,1205,0,0
-77,-181,0,0,0,0,0,0,0,0,0,-1,1147,1205,0,0
-70,-181,0,0,0,0,0,0,0,0,0,-1,1154,1205,0,0
-63,-181,0,0,0,0,0,0,0,0,0,-1,1161,1205,0,0
-56,-181,0,0,0,0,0,0,0,0,0,-1,1168,1205,0,0
-49,-181,0,0,0,0,0,0,0,0,0,-1,1175,1205,0,0
-42,-181,0,0,0,0,0,0,0,0,0,-1,1182,1205,0,0
-35,-181,0,0,0,0,0,0,0,0,0,-1,1189,1205,0,0
-28,-181,0,0,0,0,0,0,0,0,0,-1,1196,1205,0,0
-21,-181,0,0,0,0,0,0,0,0,0,-1,1203,1205,0,0
-14,-181,0,0,0,0,0,0,0,0,0,-1,1210,1205,0,0
-7,-181,0,0,0,0,0,0,0,0,0,-1,1217,1205,0,0
0,-181,0,0,0,0,0,0,0,0,0,-1,1224,1205,0,0
7,-181,0,0,0,0,0,0,0,0,0,-1,1231,1205,0,0
14,-181,0,0,0,0,0,0,0,0,0,-1,1238,1205,0,0
21,-181,0,0,0,0,0,0,0,0,0,-1,1245,1205,0,0
28,-181,0,0,0,0,0,0,0,0,0,-1,1252,1205,0,0
35,-181,0,0,0,0,0,0,0,0,0,-1,1259,1205,0,0
42,-181,0,0,0,0,0,0,0,0,0,-1,1266,1205,0,0
49,-181,0,0,0,0,0,0,0,0,0,-1,1273,1205,0,0
56,-181,0,0,0,0,0,0,0,0,0,-1,1280,1205,0,0
63,-181,0,0,0,0,0,0,0,0,0,-1,1287,1205,0,0
70,-181,0,0,0,0,0,0,0,0,0,-1,1294,1205,0,0
77,-181,0,0,0,0,0,0,0,0,0,-1,1301,1205,0,0
84,-181,0,0,0,0,0,0,0,0,0,-1,1308,1205,0,0
91,-181,0,0,0,0,0,0,0,0,0,-1,1315,1205,0,0
98,-181,0,0,0,0,0,0,0,0,0,-1,1322,1205,0,0
105,-181,0,0,0,0,0,0,0,0,0,-1,1329,1205,0,0
112,-181,0,0,0,0,0,0,0,0,0,-1,1336,1205,0,0
119,-181,0,0,0,0,0,0,0,0,0,-1,1343,1205,0,0
126,-181,0,0,0,0,0,0,0,0,0,-1,1350,1205,0,0
133,-181,0,0,0,0,0,0,0,0,0,-1,1357,1205,0,0
140,-181,0,0,0,0,0,0,0,0,0,-1,1364,1205,0,0
147,-181,0,0,0,0,0,0,0,0,0,-1,1371,1205,0,0
154,-181,0,0,0,0,0,0,0,0,0,-1,1378,1205,0,0
161,-181,0,0,0,0,0,0,0,0,0,-1,1385,1205,0,0
168,-181,0,0,0,0,0,0,0,0,0,-1,1392,1205,0,0
175,-181,0,0,0,0,0,0,0,0,0,-1,1399,1205,0,0
182,-181,0,0,0,0,0,0,0,0,0,-1,1406,1205,0,0
189,-181,0,0,0,0,0,0,0,0,0,-1,1413,1205,0,0
196,-181,0,0,0,0,0,0,0,0,0,-1,1420,1205,0,0
203,-181,0,0,0,0,0,0,0,0,0,-1,1427,1205,0,0
210,-181,0,0,0,0,0,0,0,0,0,-1,1434,1205,0,0
217,-181,0,0,0,0,0,0,0,0,0,-1,1441,1205,0,0
224,-181,0,0,0,0,0,0,0,0,0,-1,1448,1205,0,0
231,-181,0,0,0,0,0,0,0,0,0,-1,1455,1205,0,0
238,-181,0,0,0,0,0,0,0,0,0,-1,1462,1205,0,0
245,-181,0,0,0,0,0,0,0,0,0,-1,1469,1205,0,0
252,-181,0,0,0,0,0,0,0,0,0,-1,1476,1205,0,0
259,-181,0,0,0,0,0,0,0,0,0,-1,1483,1205,0,0
266,-181,0,0,0,0,0,0,0,0,0,-1,1490,1205,0,0
273,-181,0,0,0,0,0,0,0,0,0,-1,1497,1205,0,0
280,-181,0,0,0,0,0,0,0,0,0,-1,1504,1205,0,0
287,-181,0,0,0,0,0,0,0,0,0,-1,1511,1205,0,0
294,-181,0,0,0,0,0,0,0,0,0,-1,1518,1205,0,0
301,-181,0,0,0,0,0,0,0,0,0,-1,1525,1205,0,0
308,-181,0,0,0,0,0,0,0,0,0,-1,1532,1205,0,0
315,-181,0,0,0,0,0,0,0,0,0,-1,1539,1205,0,0
322,-181,0,0,0,0,0,0,0,0,0,-1,1546,1205,0,0
329,-181,0,0,0,0,0,0,0,0,0,-1,1553,1205,0,0
336,-181,0,0,0,0,0,0,0,0,0,-1,1560,1205,0,0
343,-181,0,0,0,0,0,0,0,0,0,-1,1567,1205,0,0
350,-181,0,0,0,0,0,0,0,0,0,-1,1574,1205,0,0
357,-181,0,0,0,0,0,0,0,0,0,-1,1581,1205,0,0
364,-181,0,0,0,0,0,0,0,0,0,-1,1588,1205,0,0
371,-181,0,0,0,0,0,0,0,0,0,-1,1595,1205,0,0
378,-181,0,0,0,0,0,0,0,0,0,-1,1602,1205,0,0
385,-181,0,0,0,0,0,0,0,0,0,-1,1609,1205,0,0
392,-181,0,0,0,0,0,0,0,0,0,-1,1616,1205,0,0
399,-181,0,0,0,0,0,0,0,0,0,-1,1623,1205,0,0
406,-181,0,0,0,0,0,0,0,0,0,-1,1630,1205,0,0
413,-181,0,0,0,0,0,0,0,0,0,-1,1637,1205,0,0
420,-181,0,0,0,0,0,0,0,0,0,-1,1644,1205,0,0
427,-181,0,0,0,0,0,0,0,0,0,-1,1651,1205,0,0
434,-181,0,0,0,0,0,0,0,0,0,-1,1658,1205,0,0
441,-181,0,0,0,0,0,0,0,0,0,-1,1665,1205,0,0
448,-181,0,0,0,0,0,0,0,0,0,-1,1672,1205,0,0
455,-181,0,0,0,0,0,0,0,0,0,-1,1679,1205,0,0
462,-181,0,0,0,0,0,0,0,0,0,-1,1686,1205,0,0
469,-181,0,0,0,0,0,0,0,0,0,-1,1693,1205,0,0
476,-181,0,0,0,0,0,0,0,0,0,-1,1700,1205,0,0
483,-181,0,0,0,0,0,0,0,0,0,-1,1707,1205,0,0
490,-181,0,0,0,0,0,0,0,0,0,-1,1714,1205,0,0
497,-181,0,0,0,0,0,0,0,0,0,-1,1721,1205,0,0
504,-181,0,0,0,0,0,0,0,0,0,-1,1728,1205,0,0
511,-181,0,0,0,0,0,0,0,0,0,-1,1735,1205,0,0
518,-181,0,0,0,0,0,0,0,0,0,-1,1742,1205,0,0
525,-181,0,0,0,0,0,0,0,0,0,-1,1749,1205,0,0
532,-181,0,0,0,0,0,0,0,0,0,-1,1756,1205,0,0
539,-181,0,0,0,0,0,0,0,0,0,-1,1763,1205,0,0
546,-181,0,0,0,0,0,0,0,0,0,-1,1770,1205,0,0
553,-181,0,0,0,0,0,0,0,0,0,-1,1777,1205,0,0
560,-181,0,0,0,0,0,0,0,0,0,-1,1784,1205,0,0
567,-181,0,0,0,0,0,0,0,0,0,-1,1791,1205,0,0
574,-181,0,0,0,0,0,0,0,0,0,-1,1798,1205,0,0
581,-181,0,0,0,0,0,0,0,0,0,-1,1805,1205,0,0
588,-181,0,0,0,0,0,0,0,0,0,-1,1812,1205,0,0
595,-181,0,0,0,0,0,0,0,0,0,-1,1819,1205,0,0
602,-181,0,0,0,0,0,0,0,0,0,-1,1826,1205,0,0
609,-181,0,0,0,0,0,0,0,0,0,-1,1833,1205,0,0
616,-181,0,0,0,0,0,0,0,0,0,-1,1840,1205,0,0
623,-181,0,0,0,0,0,0,0,0,0,-1,1847,1205,0,0
630,-181,214.537,8.89563,0,0,0,0,0,0,0,-1,1854,1205,214.537,-8.89566
637,-181,214.556,8.92395,0,0,0,0,0,0,0,-1,1861,1205,214.556,-8.92401
644,-181,214.518,8.8147,0,0,0,0,0,0,0,-1,1868,1205,214.518,-8.81471
651,-181,214.466,8.8147,0,0,0,0,0,0,0,-1,1875,1205,214.466,-8.81473
658,-181,214.307,8.73315,0,0,0,0,0,0,0,-1,1882,1205,214.307,-8.73321
665,-181,214.373,8.823,0,0,0,0,0,0,0,-1,1889,1205,214.373,-8.82304
672,-181,214.428,8.61926,0,0,0,0,0,0,0,-1,1896,1205,214.428,-8.61921
679,-181,214.575,8.44812,0,0,0,0,0,0,0,-1,1903,1205,214.575,-8.4481
686,-181,84.0454,1.91431,0,0,0,0,0,0,0,-1,1910,1205,84.0455,-1.91427
693,-181,36.1301,2.91016,0,0,0,0,0,0,0,-1,1917,1205,36.1302,-2.9102
700,-181,29.5845,6.58398,0,0,0,0,0,0,0,-1,1924,1205,29.5844,-6.58395
707,-181,55.4949,10.6722,0,0,0,0,0,0,0,-1,1931,1205,55.4949,-10.6722
714,-181,89.1893,18.8728,0,0,0,0,0,0,0,-1,1938,1205,89.1894,-18.8728
721,-181,203.657,35.011,0,0,0,0,0,0,0,-1,1945,1205,203.657,-35.011
728,-181,203.632,33.6788,0,0,0,0,0,0,0,-1,1952,1205,203.632,-33.6788
735,-181,203.489,32.7201,-0.00387174,0.0195224,0.00406996,0.0202102,-0.00455958,1.40337,0.0152227,0.0341555,1959,1205,203.489,-32.7201
742,-181,203.454,31.7469,-0.00821862,0.0239621,0.00622865,0.0251256,-0.00938212,1.38613,0.0206026,0.0268737,1966,1205,203.454,-31.747
749,-181,203.273,30.55,-0.0120759,0.0281384,0.00849539,0.0298594,-0.013797,1.37092,0.0257674,0.0214055,1973,1205,203.273,-30.55
756,-181,203.109,29.4417,-0.0154023,0.0319654,0.0109013,0.0343538,-0.0177908,1.35511,0.0306078,0.0185197,1980,1205,203.109,-29.4417
763,-181,202.964,28.3259,-0.0181462,0.0353411,0.0134883,0.03855,-0.0213552,1.33723,0.035058,0.0274334,1987,1205,202.964,-28.3259
770,-181,202.907,27.2001,0,0,0,0,0,0,0,-1,1994,1205,202.907,-27.2001
777,-181,112.389,5.52087,0,0,0,0,0,0,0,-1,2001,1205,112.389,-5.52082
784,-181,111.663,4.77502,0,0,0,0,0,0,0,-1,2008,1205,111.663,-4.77498
791,-181,110.522,4.12244,0,0,0,0,0,0,0,-1,2015,1205,110.522,-4.12243
798,-181,118.47,0.938965,0,0,0,0,0,0,0,-1,2022,1205,118.47,-0.938971
805,-181,0,0,0,0,0,0,0,0,0,-1,2029,1205,0,0
812,-181,0,0,0,0,0,0,0,0,0,-1,2036,1205,0,0
-700,-188,0,0,0,0,0,0,0,0,0,-1,524,1212,0,0
-693,-188,0,0,0,0,0,0,0,0,0,-1,531,1212,0,0
-686,-188,0,0,0,0,0,0,0,0,0,-1,538,1212,0,0
-679,-188,-180.175,20.2563,0,0,0,0,0,0,0,-1,545,1212,-180.175,-20.2563
-672,-188,-179.93,21.7358,0,0,0,0,0,0,0,-1,552,1212,-179.93,-21.7358
-665,-188,-179.946,23.1642,0,0,0,0,0,0,0,-1,559,1212,-179.946,-23.1642
-658,-188,-179.795,24.5853,0,0,0,0,0,0,0,-1,566,1212,-179.795,-24.5854
-651,-188,-179.422,25.6511,0,0,0,0,0,0,0,-1,573,1212,-179.422,-25.6511
-644,-188,-192.648,25.5492,0,0,0,0,0,0,0,-1,580,1212,-192.648,-25.5492
-637,-188,-194.393,26.5095,0,0,0,0,0,0,0,-1,587,1212,-194.393,-26.5095
-630,-188,-194.514,27.6553,-0.0233927,0.0427869,-0.0167979,0.0468064,-0.0274123,-1.33592,0.0433351,0.0273962,594,1212,-194.514,-27.6552
-623,-188,-194.762,28.7581,-0.0198671,0.0386649,-0.0151268,0.0423431,-0.0235453,-1.33227,0.0385533,0.0172067,601,1212,-194.762,-28.7581
-616,-188,-194.94,29.7782,-0.0169024,0.0344035,-0.0138661,0.0379112,-0.0204101,-1.32303,0.0341734,0.0157773,608,1212,-194.94,-29.7782
-609,-188,-195.15,30.9539,-0.0145516,0.0299853,-0.0130463,0.0335256,-0.0180918,-1.30582,0.0302421,0.0205531,615,1212,-195.15,-30.9538
-602,-188,-195.349,32.2037,0,0,0,0,0,0,0,-1,622,1212,-195.349,-32.2037
-595,-188,-194.04,33.9813,0,0,0,0,0,0,0,-1,629,1212,-194.04,-33.9814
-588,-188,-80.1454,20.0868,0,0,0,0,0,0,0,-1,636,1212,-80.1454,-20.0868
-581,-188,-80.2917,21.2421,0,0,0,0,0,0,0,-1,643,1212,-80.2917,-21.2421
-574,-188,-51.8871,13.5398,0,0,0,0,0,0,0,-1,650,1212,-51.8871,-13.5398
-567,-188,-19.5786,4.10388,0,0,0,0,0,0,0,-1,657,1212,-19.5785,-4.10383
-560,-188,-23.9507,0.416626,0,0,0,0,0,0,0,-1,664,1212,-23.9508,-0.416602
-553,-188,-49.2368,1.03101,0,0,0,0,0,0,0,-1,671,1212,-49.2367,-1.03099
-546,-188,-71.8369,0.494629,0,0,0,0,0,0,0,-1,678,1212,-71.8369,-0.494635
-539,-188,-71.8539,0.373535,0,0,0,0,0,0,0,-1,685,1212,-71.854,-0.373478
-532,-188,-72.0013,0.373047,0,0,0,0,0,0,0,-1,692,1212,-72.0014,-0.373048
-525,-188,-72.0408,0.373535,0,0,0,0,0,0,0,-1,699,1212,-72.0408,-0.373498
-518,-188,-71.9813,0.422363,0,0,0,0,0,0,0,-1,706,1212,-71.9813,-0.422411
-511,-188,-71.7823,0.477417,0,0,0,0,0,0,0,-1,713,1212,-71.7823,-0.477475
-504,-188,0,0,0,0,0,0,0,0,0,-1,720,1212,0,0
-497,-188,0,0,0,0,0,0,0,0,0,-1,727,1212,0,0
-490,-188,0,0,0,0,0,0,0,0,0,-1,734,1212,0,0
-483,-188,0,0,0,0,0,0,0,0,0,-1,741,1212,0,0
-476,-188,0,0,0,0,0,0,0,0,0,-1,748,1212,0,0
-469,-188,0,0,0,0,0,0,0,0,0,-1,755,1212,0,0
-462,-188,0,0,0,0,0,0,0,0,0,-1,762,1212,0,0
-455,-188,0,0,0,0,0,0,0,0,0,-1,769,1212,0,0
-448,-188,0,0,0,0,0,0,0,0,0,-1,776,1212,0,0
-441,-188,0,0,0,0,0,0,0,0,0,-1,783,1212,0,0
-434,-188,0,0,0,0,0,0,0,0,0,-1,790,1212,0,0
-427,-188,0,0,0,0,0,0,0,0,0,-1,797,1212,0,0
-420,-188,0,0,0,0,0,0,0,0,0,-1,804,1212,0,0
-413,-188,0,0,0,0,0,0,0,0,0,-1,811,1212,0,0
-406,-188,0,0,0,0,0,0,0,0,0,-1,818,1212,0,0
-399,-188,0,0,0,0,0,0,0,0,0,-1,825,1212,0,0
-392,-188,0,0,0,0,0,0,0,0,0,-1,832,1212,0,0
-385,-188,0,0,0,0,0,0,0,0,0,-1,839,1212,0,0
-378,-188,0,0,0,0,0,0,0,0,0,-1,846,1212,0,0
-371,-188,0,0,0,0,0,0,0,0,0,-1,853,1212,0,0
-364,-188,0,0,0,0,0,0,0,0,0,-1,860,1212,0,0
-357,-188,0,0,0,0,0,0,0,0,0,-1,867,1212,0,0
-350,-188,0,0,0,0,0,0,0,0,0,-1,874,1212,0,0
-343,-188,0,0,0,0,0,0,0,0,0,-1,881,1212,0,0
-336,-188,0,0,0,0,0,0,0,0,0,-1,888,1212,0,0
-329,-188,0,0,0,0,0,0,0,0,0,-1,895,1212,0,0
-322,-188,0,0,0,0,0,0,0,0,0,-1,902,1212,0,0
-315,-188,0,0,0,0,0,0,0,0,0,-1,909,1212,0,0
-308,-188,0,0,0,0,0,0,0,0,0,-1,916,1212,0,0
-301,-188,0,0,0,0,0,0,0,0,0,-1,923,1212,0,0
-294,-188,0,0,0,0,0,0,0,0,0,-1,930,1212,0,0
-287,-188,0,0,0,0,0,0,0,0,0,-1,937,1212,0,0
-280,-188,0,0,0,0,0,0,0,0,0,-1,944,1212,0,0
-273,-188,0,0,0,0,0,0,0,0,0,-1,951,1212,0,0
-266,-188,0,0,0,0,0,0,0,0,0,-1,958,1212,0,0
-259,-188,0,0,0,0,0,0,0,0,0,-1,965,1212,0,0
-252,-188,0,0,0,0,0,0,0,0,0,-1,972,1212,0,0
-245,-188,0,0,0,0,0,0,0,0,0,-1,979,1212,0,0
-238,-188,0,0,0,0,0,0,0,0,0,-1,986,1212,0,0
-231,-188,0,0,0,0,0,0,0,0,0,-1,993,1212,0,0
-224,-188,0,0,0,0,0,0,0,0,0,-1,1000,1212,0,0
-217,-188,0,0,0,0,0,0,0,0,0,-1,1007,1212,0,0
-210,-188,0,0,0,0,0,0,0,0,0,-1,1014,1212,0,0
-203,-188,0,0,0,0,0,0,0,0,0,-1,1021,1212,0,0
-196,-188,0,0,0,0,0,0,0,0,0,-1,1028,1212,0,0
-189,-188,0,0,0,0,0,0,0,0,0,-1,1035,1212,0,0
-182,-188,0,0,0,0,0,0,0,0,0,-1,1042,1212,0,0
-175,-188,0,0,0,0,0,0,0,0,0,-1,1049,1212,0,0
-168,-188,0,0,0,0,0,0,0,0,0,-1,1056,1212,0,0
-161,-188,0,0,0,0,0,0,0,0,0,-1,1063,1212,0,0
-154,-188,0,0,0,0,0,0,0,0,0,-1,1070,1212,0,0
-147,-188,0,0,0,0,0,0,0,0,0,-1,1077,1212,0,0
-140,-188,0,0,0,0,0,0,0,0,0,-1,1084,1212,0,0
-133,-188,0,0,0,0,0,0,0,0,0,-1,1091,1212,0,0
-126,-188,0,0,0,0,0,0,0,0,0,-1,1098,1212,0,0
-119,-188,0,0,0,0,0,0,0,0,0,-1,1105,1212,0,0
-112,-188,0,0,0,0,0,0,0,0,0,-1,1112,1212,0,0
-105,-188,0,0,0,0,0,0,0,0,0,-1,1119,1212,0,0
-98,-188,0,0,0,0,0,0,0,0,0,-1,1126,1212,0,0
-91,-188,0,0,0,0,0,0,0,0,0,-1,1133,1212,0,0
-84,-188,0,0,0,0,0,0,0,0,0,-1,1140,1212,0,0
-77,-188,0,0,0,0,0,0,0,0,0,-1,1147,1212,0,0
-70,-188,0,0,0,0,0,0,0,0,0,-1,1154,1212,0,0
-63,-188,0,0,0,0,0,0,0,0,0,-1,1161,1212,0,0
-56,-188,0,0,0,0,0,0,0,0,0,-1,1168,1212,0,0
-49,-188,0,0,0,0,0,0,0,0,0,-1,1175,1212,0,0
-42,-188,0,0,0,0,0,0,0,0,0,-1,1182,1212,0,0
-35,-188,0,0,0,0,0,0,0,0,0,-1,1189,1212,0,0
-28,-188,0,0,0,0,0,0,0,0,0,-1,1196,1212,0,0
-21,-188,0,0,0,0,0,0,0,0,0,-1,1203,1212,0,0
-14,-188,0,0,0,0,0,0,0,0,0,-1,1210,1212,0,0
-7,-188,0,0,0,0,0,0,0,0,0,-1,1217,1212,0,0
0,-188,0,0,0,0,0,0,0,0,0,-1,1224,1212,0,0
7,-188,0,0,0,0,0,0,0,0,0,-1,1231,1212,0,0
14,-188,0,0,0,0,0,0,0,0,0,-1,1238,1212,0,0
21,-188,0,0,0,0,0,0,0,0,0,-1,1245,1212,0,0
28,-188,0,0,0,0,0,0,0,0,0,-1,1252,1212,0,0
35,-188,0,0,0,0,0,0,0,0,0,-1,1259,1212,0,0
42,-188,0,0,0,0,0,0,0,0,0,-1,1266,1212,0,0
49,-188,0,0,0,0,0,0,0,0,0,-1,1273,1212,0,0
56,-188,0,0,0,0,0,0,0,0,0,-1,1280,1212,0,0
63,-188,0,0,0,0,0,0,0,0,0,-1,1287,1212,0,0
70,-188,0,0,0,0,0,0,0,0,0,-1,1294,1212,0,0
77,-188,0,0,0,0,0,0,0,0,0,-1,1301,1212,0,0
84,-188,0,0,0,0,0,0,0,0,0,-1,1308,1212,0,0
91,-188,0,0,0,0,0,0,0,0,0,-1,1315,1212,0,0
98,-188,0,0,0,0,0,0,0,0,0,-1,1322,1212,0,0
105,-188,0,0,0,0,0,0,0,0,0,-1,1329,1212,0,0
112,-188,0,0,0,0,0,0,0,0,0,-1,1336,1212,0,0
119,-188,0,0,0,0,0,0,0,0,0,-1,1343,1212,0,0
126,-188,0,0,0,0,0,0,0,0,0,-1,1350,1212,0,0
133,-188,0,0,0,0,0,0,0,0,0,-1,1357,1212,0,0
140,-188,0,0,0,0,0,0,0,0,0,-1,1364,1212,0,0
147,-188,0,0,0,0,0,0,0,0,0,-1,1371,1212,0,0
154,-188,0,0,0,0,0,0,0,0,0,-1,1378,1212,0,0
161,-188,0,0,0,0,0,0,0,0,0,-1,1385,1212,0,0
168,-188,0,0,0,0,0,0,0,0,0,-1,1392,1212,0,0
175,-188,0,0,0,0,0,0,0,0,0,-1,1399,1212,0,0
182,-188,0,0,0,0,0,0,0,0,0,-1,1406,1212,0,0
189,-188,0,0,0,0,0,0,0,0,0,-1,1413,1212,0,0
196,-188,0,0,0,0,0,0,0,0,0,-1,1420,1212,0,0
203,-188,0,0,0,0,0,0,0,0,0,-1,1427,1212,0,0
210,-188,0,0,0,0,0,0,0,0,0,-1,1434,1212,0,0
217,-188,0,0,0,0,0,0,0,0,0,-1,1441,1212,0,0
224,-188,0,0,0,0,0,0,0,0,0,-1,1448,1212,0,0
231,-188,0,0,0,0,0,0,0,0,0,-1,1455,1212,0,0
238,-188,0,0,0,0,0,0,0,0,0,-1,1462,1212,0,0
245,-188,0,0,0,0,0,0,0,0,0,-1,1469,1212,0,0
252,-188,0,0,0,0,0,0,0,0,0,-1,1476,1212,0,0
259,-188,0,0,0,0,0,0,0,0,0,-1,1483,1212,0,0
266,-188,0,0,0,0,0,0,0,0,0,-1,1490,1212,0,0
273,-188,0,0,0,0,0,0,0,0,0,-1,1497,1212,0,0
280,-188,0,0,0,0,0,0,0,0,0,-1,1504,1212,0,0
287,-188,0,0,0,0,0,0,0,0,0,-1,1511,1212,0,0
294,-188,0,0,0,0,0,0,0,0,0,-1,1518,1212,0,0
301,-188,0,0,0,0,0,0,0,0,0,-1,1525,1212,0,0
308,-188,0,0,0,0,0,0,0,0,0,-1,1532,1212,0,0
315,-188,0,0,0,0,0,0,0,0,0,-1,1539,1212,0,0
322,-188,0,0,0,0,0,0,0,0,0,-1,1546,1212,0,0
329,-188,0,0,0,0,0,0,0,0,0,-1,1553,1212,0,0
336,-188,0,0,0,0,0,0,0,0,0,-1,1560,1212,0,0
343,-188,0,0,0,0,0,0,0,0,0,-1,1567,1212,0,0
350,-188,0,0,0,0,0,0,0,0,0,-1,1574,1212,0,0
357,-188,0,0,0,0,0,0,0,0,0,-1,1581,1212,0,0
364,-188,0,0,0,0,0,0,0,0,0,-1,1588,1212,0,0
371,-188,0,0,0,0,0,0,0,0,0,-1,1595,1212,0,0
378,-188,0,0,0,0,0,0,0,0,0,-1,1602,1212,0,0
385,-188,0,0,0,0,0,0,0,0,0,-1,1609,1212,0,0
392,-188,0,0,0,0,0,0,0,0,0,-1,1616,1212,0,0
399,-188,0,0,0,0,0,0,0,0,0,-1,1623,1212,0,0
406,-188,0,0,0,0,0,0,0,0,0,-1,1630,1212,0,0
413,-188,0,0,0,0,0,0,0,0,0,-1,1637,1212,0,0
420,-188,0,0,0,0,0,0,0,0,0,-1,1644,1212,0,0
427,-188,0,0,0,0,0,0,0,0,0,-1,1651,1212,0,0
434,-188,0,0,0,0,0,0,0,0,0,-1,1658,1212,0,0
441,-188,0,0,0,0,0,0,0,0,0,-1,1665,1212,0,0
448,-188,0,0,0,0,0,0,0,0,0,-1,1672,1212,0,0
455,-188,0,0,0,0,0,0,0,0,0,-1,1679,1212,0,0
462,-188,0,0,0,0,0,0,0,0,0,-1,1686,1212,0,0
469,-188,0,0,0,0,0,0,0,0,0,-1,1693,1212,0,0
476,-188,0,0,0,0,0,0,0,0,0,-1,1700,1212,0,0
483,-188,0,0,0,0,0,0,0,0,0,-1,1707,1212,0,0
490,-188,0,0,0,0,0,0,0,0,0,-1,1714,1212,0,0
497,-188,0,0,0,0,0,0,0,0,0,-1,1721,1212,0,0
504,-188,0,0,0,0,0,0,0,0,0,-1,1728,1212,0,0
511,-188,0,0,0,0,0,0,0,0,0,-1,1735,1212,0,0
518,-188,0,0,0,0,0,0,0,0,0,-1,1742,1212,0,0
525,-188,0,0,0,0,0,0,0,0,0,-1,1749,1212,0,0
532,-188,0,0,0,0,0,0,0,0,0,-1,1756,1212,0,0
539,-188,0,0,0,0,0,0,0,0,0,-1,1763,1212,0,0
546,-188,0,0,0,0,0,0,0,0,0,-1,1770,1212,0,0
553,-188,0,0,0,0,0,0,0,0,0,-1,1777,1212,0,0
560,-188,0,0,0,0,0,0,0,0,0,-1,1784,1212,0,0
567,-188,0,0,0,0,0,0,0,0,0,-1,1791,1212,0,0
574,-188,0,0,0,0,0,0,0,0,0,-1,1798,1212,0,0
581,-188,0,0,0,0,0,0,0,0,0,-1,1805,1212,0,0
588,-188,0,0,0,0,0,0,0,0,0,-1,1812,1212,0,0
595,-188,0,0,0,0,0,0,0,0,0,-1,1819,1212,0,0
602,-188,0,0,0,0,0,0,0,0,0,-1,1826,1212,0,0
609,-188,0,0,0,0,0,0,0,0,0,-1,1833,1212,0,0
616,-188,0,0,0,0,0,0,0,0,0,-1,1840,1212,0,0
623,-188,0,0,0,0,0,0,0,0,0,-1,1847,1212,0,0
630,-188,214.521,8.70142,0,0,0,0,0,0,0,-1,1854,1212,214.521,-8.7014
637,-188,214.505,8.74451,0,0,0,0,0,0,0,-1,1861,1212,214.505,-8.74456
644,-188,214.447,8.77087,0,0,0,0,0,0,0,-1,1868,1212,214.447,-8.7709
651,-188,214.399,8.77808,0,0,0,0,0,0,0,-1,1875,1212,214.399,-8.77807
658,-188,214.423,8.79712,0,0,0,0,0,0,0,-1,1882,1212,214.423,-8.79711
665,-188,214.329,8.7655,0,0,0,0,0,0,0,-1,1889,1212,214.329,-8.76553
672,-188,214.374,8.47253,0,0,0,0,0,0,0,-1,1896,1212,214.374,-8.47248
679,-188,143.12,4.60071,0,0,0,0,0,0,0,-1,1903,1212,143.12,-4.60066
686,-188,60.1007,2.41321,0,0,0,0,0,0,0,-1,1910,1212,60.1007,-2.41325
693,-188,35.9054,2.18042,0,0,0,0,0,0,0,-1,1917,1212,35.9054,-2.18038
700,-188,54.452,11.2678,0,0,0,0,0,0,0,-1,1924,1212,54.452,-11.2678
707,-188,87.9962,19.8148,0,0,0,0,0,0,0,-1,1931,1212,87.9962,-19.8148
714,-188,202.763,36.8282,0,0,0,0,0,0,0,-1,1938,1212,202.763,-36.8282
721,-188,202.625,35.2501,0,0,0,0,0,0,0,-1,1945,1212,202.625,-35.2501
728,-188,202.524,33.6998,0,0,0,0,0,0,0,-1,1952,1212,202.524,-33.6998
735,-188,202.371,32.7117,-0.00394443,0.020691,0.00504409,0.0216838,-0.00493719,1.37646,0.016352,0.0345842,1959,1212,202.371,-32.7116
742,-188,202.074,31.6421,-0.00855477,0.0247758,0.00728639,0.026299,-0.010078,1.36471,0.0216872,0.0221836,1966,1212,202.074,-31.6421
749,-188,201.959,30.4811,-0.01269,0.0286315,0.00953927,0.0307273,-0.0147859,1.35452,0.026809,0.0223642,1973,1212,201.959,-30.4811
756,-188,201.782,29.3535,-0.0163069,0.0321756,0.0118361,0.0349109,-0.0190421,1.34369,0.0315957,0.0204168,1980,1212,201.782,-29.3535
763,-188,201.599,28.1299,-0.0193533,0.0353104,0.0142227,0.0387895,-0.0228324,1.33089,0.0359728,0.0367655,1987,1212,201.599,-28.1299
770,-188,201.483,26.8809,0,0,0,0,0,0,0,-1,1994,1212,201.483,-26.8809
777,-188,112.896,6.17334,0,0,0,0,0,0,0,-1,2001,1212,112.896,-6.17339
784,-188,112.584,4.92078,0,0,0,0,0,0,0,-1,2008,1212,112.585,-4.92083
791,-188,110.442,4.34192,0,0,0,0,0,0,0,-1,2015,1212,110.442,-4.34196
798,-188,109.589,3.68896,0,0,0,0,0,0,0,-1,2022,1212,109.589,-3.68891
805,-188,0,0,0,0,0,0,0,0,0,-1,2029,1212,0,0
812,-188,0,0,0,0,0,0,0,0,0,-1,2036,1212,0,0
-700,-195,0,0,0,0,0,0,0,0,0,-1,524,1219,0,0
-693,-195,0,0,0,0,0,0,0,0,0,-1,531,1219,0,0
-686,-195,0,0,0,0,0,0,0,0,0,-1,538,1219,0,0
-679,-195,-179.567,20.6488,0,0,0,0,0,0,0,-1,545,1219,-179.567,-20.6488
-672,-195,-179.524,22.1337,0,0,0,0,0,0,0,-1,552,1219,-179.524,-22.1337
-665,-195,-179.025,23.479,0,0,0,0,0,0,0,-1,559,1219,-179.025,-23.479
-658,-195,-178.41,25.1653,0,0,0,0,0,0,0,-1,566,1219,-178.41,-25.1653
-651,-195,-172.918,25.9795,0,0,0,0,0,0,0,-1,573,1219,-172.918,-25.9794
-644,-195,-156.917,22.6722,0,0,0,0,0,0,0,-1,580,1219,-156.917,-22.6723
-637,-195,-192.711,26.4888,0,0,0,0,0,0,0,-1,587,1219,-192.711,-26.4888
-630,-195,-193.244,27.4063,-0.0235974,0.0447705,-0.0155793,0.0481533,-0.0269801,-1.35698,0.0439487,0.0378429,594,1219,-193.244,-27.4062
-623,-195,-193.468,28.5234,-0.0203016,0.0398987,-0.0149578,0.0434104,-0.0238133,-1.3402,0.0393575,0.0194978,601,1219,-193.468,-28.5234
-616,-195,-193.676,29.6976,-0.0176686,0.0348952,-0.0147653,0.0387588,-0.0215322,-1.31487,0.0352795,0.0163541,608,1219,-193.676,-29.6976
-609,-195,-193.729,30.9755,-0.0157793,0.0297355,-0.015035,0.0342535,-0.0202974,-1.27888,0.0318367,0.0254119,615,1219,-193.729,-30.9754
-602,-195,-193.85,32.0801,-0.0147212,0.0243913,-0.0158015,0.0299774,-0.0203072,-1.231,0.0292102,0.0386197,622,1219,-193.85,-32.0801
-595,-195,-193.997,33.465,0,0,0,0,0,0,0,-1,629,1219,-193.997,-33.4649
-588,-195,-79.0808,20.1426,0,0,0,0,0,0,0,-1,636,1219,-79.0808,-20.1426
-581,-195,-79.1722,21.3226,0,0,0,0,0,0,0,-1,643,1219,-79.1723,-21.3226
-574,-195,-50.9985,13.5392,0,0,0,0,0,0,0,-1,650,1219,-50.9985,-13.5392
-567,-195,-20.6388,3.78369,0,0,0,0,0,0,0,-1,657,1219,-20.6388,-3.78369
-560,-195,-20.878,2.10388,0,0,0,0,0,0,0,-1,664,1219,-20.878,-2.10385
-553,-195,-41.595,0.613281,0,0,0,0,0,0,0,-1,671,1219,-41.595,-0.61334
-546,-195,-63.8136,0.917603,0,0,0,0,0,0,0,-1,678,1219,-63.8136,-0.917637
-539,-195,-71.8246,0.420898,0,0,0,0,0,0,0,-1,685,1219,-71.8246,-0.420894
-532,-195,-71.9599,0.428955,0,0,0,0,0,0,0,-1,692,1219,-71.9599,-0.428942
-525,-195,-72.043,0.315674,0,0,0,0,0,0,0,-1,699,1219,-72.043,-0.315645
-518,-195,-72.0127,0.386719,0,0,0,0,0,0,0,-1,706,1219,-72.0127,-0.386762
-511,-195,-71.9944,0.641724,0,0,0,0,0,0,0,-1,713,1219,-71.9944,-0.64174
-504,-195,0,0,0,0,0,0,0,0,0,-1,720,1219,0,0
-497,-195,0,0,0,0,0,0,0,0,0,-1,727,1219,0,0
-490,-195,0,0,0,0,0,0,0,0,0,-1,734,1219,0,0
-483,-195,0,0,0,0,0,0,0,0,0,-1,741,1219,0,0
-476,-195,0,0,0,0,0,0,0,0,0,-1,748,1219,0,0
-469,-195,0,0,0,0,0,0,0,0,0,-1,755,1219,0,0
-462,-195,0,0,0,0,0,0,0,0,0,-1,762,1219,0,0
-455,-195,0,0,0,0,0,0,0,0,0,-1,769,1219,0,0
-448,-195,0,0,0,0,0,0,0,0,0,-1,776,1219,0,0
-441,-195,0,0,0,0,0,0,0,0,0,-1,783,1219,0,0
-434,-195,0,0,0,0,0,0,0,0,0,-1,790,1219,0,0
-427,-195,0,0,0,0,0,0,0,0,0,-1,797,1219,0,0
-420,-195,0,0,0,0,0,0,0,0,0,-1,804,1219,0,0
-413,-195,0,0,0,0,0,0,0,0,0,-1,811,1219,0,0
-406,-195,0,0,0,0,0,0,0,0,0,-1,818,1219,0,0
-399,-195,0,0,0,0,0,0,0,0,0,-1,825,1219,0,0
-392,-195,0,0,0,0,0,0,0,0,0,-1,832,1219,0,0
-385,-195,0,0,0,0,0,0,0,0,0,-1,839,1219,0,0
-378,-195,0,0,0,0,0,0,0,0,0,-1,846,1219,0,0
-371,-195,0,0,0,0,0,0,0,0,0,-1,853,1219,0,0
-364,-195,0,0,0,0,0,0,0,0,0,-1,860,1219,0,0
-357,-195,0,0,0,0,0,0,0,0,0,-1,867,1219,0,0
-350,-195,0,0,0,0,0,0,0,0,0,-1,874,1219,0,0
-343,-195,0,0,0,0,0,0,0,0,0,-1,881,1219,0,0
-336,-195,0,0,0,0,0,0,0,0,0,-1,888,1219,0,0
-329,-195,0,0,0,0,0,0,0,0,0,-1,895,1219,0,0
-322,-195,0,0,0,0,0,0,0,0,0,-1,902,1219,0,0
-315,-195,0,0,0,0,0,0,0,0,0,-1,909,1219,0,0
-308,-195,0,0,0,0,0,0,0,0,0,-1,916,1219,0,0
-301,-195,0,0,0,0,0,0,0,0,0,-1,923,1219,0,0
-294,-195,0,0,0,0,0,0,0,0,0,-1,930,1219,0,0
-287,-195,0,0,0,0,0,0,0,0,0,-1,937,1219,0,0
-280,-195,0,0,0,0,0,0,0,0,0,-1,944,1219,0,0
-273,-195,0,0,0,0,0,0,0,0,0,-1,951,1219,0,0
-266,-195,0,0,0,0,0,0,0,0,0,-1,958,1219,0,0
-259,-195,0,0,0,0,0,0,0,0,0,-1,965,1219,0,0
-252,-195,0,0,0,0,0,0,0,0,0,-1,972,1219,0,0
-245,-195,0,0,0,0,0,0,0,0,0,-1,979,1219,0,0
-238,-195,0,0,0,0,0,0,0,0,0,-1,986,1219,0,0
-231,-195,0,0,0,0,0,0,0,0,0,-1,993,1219,0,0
-224,-195,0,0,0,0,0,0,0,0,0,-1,1000,1219,0,0
-217,-195,0,0,0,0,0,0,0,0,0,-1,1007,1219,0,0
-210,-195,0,0,0,0,0,0,0,0,0,-1,1014,1219,0,0
-203,-195,0,0,0,0,0,0,0,0,0,-1,1021,1219,0,0
-196,-195,0,0,0,0,0,0,0,0,0,-1,1028,1219,0,0
-189,-195,0,0,0,0,0,0,0,0,0,-1,1035,1219,0,0
-182,-195,0,0,0,0,0,0,0,0,0,-1,1042,1219,0,0
-175,-195,0,0,0,0,0,0,0,0,0,-1,1049,1219,0,0
-168,-195,0,0,0,0,0,0,0,0,0,-1,1056,1219,0,0
-161,-195,0,0,0,0,0,0,0,0,0,-1,1063,1219,0,0
-154,-195,0,0,0,0,0,0,0,0,0,-1,1070,1219,0,0
-147,-195,0,0,0,0,0,0,0,0,0,-1,1077,1219,0,0
-140,-195,0,0,0,0,0,0,0,0,0,-1,1084,1219,0,0
-133,-195,0,0,0,0,0,0,0,0,0,-1,1091,1219,0,0
-126,-195,0,0,0,0,0,0,0,0,0,-1,1098,1219,0,0
-119,-195,0,0,0,0,0,0,0,0,0,-1,1105,1219,0,0
-112,-195,0,0,0,0,0,0,0,0,0,-1,1112,1219,0,0
-105,-195,0,0,0,0,0,0,0,0,0,-1,1119,1219,0,0
-98,-195,0,0,0,0,0,0,0,0,0,-1,1126,1219,0,0
-91,-195,0,0,0,0,0,0,0,0,0,-1,1133,1219,0,0
-84,-195,0,0,0,0,0,0,0,0,0,-1,1140,1219,0,0
-77,-195,0,0,0,0,0,0,0,0,0,-1,1147,1219,0,0
-70,-195,0,0,0,0,0,0,0,0,0,-1,1154,1219,0,0
-63,-195,0,0,0,0,0,0,0,0,0,-1,1161,1219,0,0
-56,-195,0,0,0,0,0,0,0,0,0,-1,1168,1219,0,0
-49,-195,0,0,0,0,0,0,0,0,0,-1,1175,1219,0,0
-42,-195,0,0,0,0,0,0,0,0,0,-1,1182,1219,0,0
-35,-195,0,0,0,0,0,0,0,0,0,-1,1189,1219,0,0
-28,-195,0,0,0,0,0,0,0,0,0,-1,1196,1219,0,0
-21,-195,0,0,0,0,0,0,0,0,0,-1,1203,1219,0,0
-14,-195,0,0,0,0,0,0,0,0,0,-1,1210,1219,0,0
-7,-195,0,0,0,0,0,0,0,0,0,-1,1217,1219,0,0
0,-195,0,0,0,0,0,0,0,0,0,-1,1224,1219,0,0
7,-195,0,0,0,0,0,0,0,0,0,-1,1231,1219,0,0
14,-195,0,0,0,0,0,0,0,0,0,-1,1238,1219,0,0
21,-195,0,0,0,0,0,0,0,0,0,-1,1245,1219,0,0
28,-195,0,0,0,0,0,0,0,0,0,-1,1252,1219,0,0
35,-195,0,0,0,0,0,0,0,0,0,-1,1259,1219,0,0
42,-195,0,0,0,0,0,0,0,0,0,-1,1266,1219,0,0
49,-195,0,0,0,0,0,0,0,0,0,-1,1273,1219,0,0
56,-195,0,0,0,0,0,0,0,0,0,-1,1280,1219,0,0
63,-195,0,0,0,0,0,0,0,0,0,-1,1287,1219,0,0
70,-195,0,0,0,0,0,0,0,0,0,-1,1294,1219,0,0
77,-195,0,0,0,0,0,0,0,0,0,-1,1301,1219,0,0
84,-195,0,0,0,0,0,0,0,0,0,-1,1308,1219,0,0
91,-195,0,0,0,0,0,0,0,0,0,-1,1315,1219,0,0
98,-195,0,0,0,0,0,0,0,0,0,-1,1322,1219,0,0
105,-195,0,0,0,0,0,0,0,0,0,-1,1329,1219,0,0
112,-195,0,0,0,0,0,0,0,0,0,-1,1336,1219,0,0
119,-195,0,0,0,0,0,0,0,0,0,-1,1343,1219,0,0
126,-195,0,0,0,0,0,0,0,0,0,-1,1350,1219,0,0
133,-195,0,0,0,0,0,0,0,0,0,-1,1357,1219,0,0
140,-195,0,0,0,0,0,0,0,0,0,-1,1364,1219,0,0
147,-195,0,0,0,0,0,0,0,0,0,-1,1371,1219,0,0
154,-195,0,0,0,0,0,0,0,0,0,-1,1378,1219,0,0
161,-195,0,0,0,0,0,0,0,0,0,-1,1385,1219,0,0
168,-195,0,0,0,0,0,0,0,0,0,-1,1392,1219,0,0
175,-195,0,0,0,0,0,0,0,0,0,-1,1399,1219,0,0
182,-195,0,0,0,0,0,0,0,0,0,-1,1406,1219,0,0
189,-195,0,0,0,0,0,0,0,0,0,-1,1413,1219,0,0
196,-195,0,0,0,0,0,0,0,0,0,-1,1420,1219,0,0
203,-195,0,0,0,0,0,0,0,0,0,-1,1427,1219,0,0
210,-195,0,0,0,0,0,0,0,0,0,-1,1434,1219,0,0
217,-195,0,0,0,0,0,0,0,0,0,-1,1441,1219,0,0
224,-195,0,0,0,0,0,0,0,0,0,-1,1448,1219,0,0
231,-195,0,0,0,0,0,0,0,0,0,-1,1455,1219,0,0
238,-195,0,0,0,0,0,0,0,0,0,-1,1462,1219,0,0
245,-195,0,0,0,0,0,0,0,0,0,-1,1469,1219,0,0
252,-195,0,0,0,0,0,0,0,0,0,-1,1476,1219,0,0
259,-195,0,0,0,0,0,0,0,0,0,-1,1483,1219,0,0
266,-195,0,0,0,0,0,0,0,0,0,-1,1490,1219,0,0
273,-195,0,0,0,0,0,0,0,0,0,-1,1497,1219,0,0
280,-195,0,0,0,0,0,0,0,0,0,-1,1504,1219,0,0
287,-195,0,0,0,0,0,0,0,0,0,-1,1511,1219,0,0
294,-195,0,0,0,0,0,0,0,0,0,-1,1518,1219,0,0
301,-195,0,0,0,0,0,0,0,0,0,-1,1525,1219,0,0
308,-195,0,0,0,0,0,0,0,0,0,-1,1532,1219,0,0
315,-195,0,0,0,0,0,0,0,0,0,-1,1539,1219,0,0
322,-195,0,0,0,0,0,0,0,0,0,-1,1546,1219,0,0
329,-195,0,0,0,0,0,0,0,0,0,-1,1553,1219,0,0
336,-195,0,0,0,0,0,0,0,0,0,-1,1560,1219,0,0
343,-195,0,0,0,0,0,0,0,0,0,-1,1567,1219,0,0
350,-195,0,0,0,0,0,0,0,0,0,-1,1574,1219,0,0
357,-195,0,0,0,0,0,0,0,0,0,-1,1581,1219,0,0
364,-195,0,0,0,0,0,0,0,0,0,-1,1588,1219,0,0
371,-195,0,0,0,0,0,0,0,0,0,-1,1595,1219,0,0
378,-195,0,0,0,0,0,0,0,0,0,-1,1602,1219,0,0
385,-195,0,0,0,0,0,0,0,0,0,-1,1609,1219,0,0
392,-195,0,0,0,0,0,0,0,0,0,-1,1616,1219,0,0
399,-195,0,0,0,0,0,0,0,0,0,-1,1623,1219,0,0
406,-195,0,0,0,0,0,0,0,0,0,-1,1630,1219,0,0
413,-195,0,0,0,0,0,0,0,0,0,-1,1637,1219,0,0
420,-195,0,0,0,0,0,0,0,0,0,-1,1644,1219,0,0
427,-195,0,0,0,0,0,0,0,0,0,-1,1651,1219,0,0
434,-195,0,0,0,0,0,0,0,0,0,-1,1658,1219,0,0
441,-195,0,0,0,0,0,0,0,0,0,-1,1665,1219,0,0
448,-195,0,0,0,0,0,0,0,0,0,-1,1672,1219,0,0
455,-195,0,0,0,0,0,0,0,0,0,-1,1679,1219,0,0
462,-195,0,0,0,0,0,0,0,0,0,-1,1686,1219,0,0
469,-195,0,0,0,0,0,0,0,0,0,-1,1693,1219,0,0
476,-195,0,0,0,0,0,0,0,0,0,-1,1700,1219,0,0
483,-195,0,0,0,0,0,0,0,0,0,-1,1707,1219,0,0
490,-195,0,0,0,0,0,0,0,0,0,-1,1714,1219,0,0
497,-195,0,0,0,0,0,0,0,0,0,-1,1721,1219,0,0
504,-195,0,0,0,0,0,0,0,0,0,-1,1728,1219,0,0
511,-195,0,0,0,0,0,0,0,0,0,-1,1735,1219,0,0
518,-195,0,0,0,0,0,0,0,0,0,-1,1742,1219,0,0
525,-195,0,0,0,0,0,0,0,0,0,-1,1749,1219,0,0
532,-195,0,0,0,0,0,0,0,0,0,-1,1756,1219,0,0
539,-195,0,0,0,0,0,0,0,0,0,-1,1763,1219,0,0
546,-195,0,0,0,0,0,0,0,0,0,-1,1770,1219,0,0
553,-195,0,0,0,0,0,0,0,0,0,-1,1777,1219,0,0
560,-195,0,0,0,0,0,0,0,0,0,-1,1784,1219,0,0
567,-195,0,0,0,0,0,0,0,0,0,-1,1791,1219,0,0
574,-195,0,0,0,0,0,0,0,0,0,-1,1798,1219,0,0
581,-195,0,0,0,0,0,0,0,0,0,-1,1805,1219,0,0
588,-195,0,0,0,0,0,0,0,0,0,-1,1812,1219,0,0
595,-195,0,0,0,0,0,0,0,0,0,-1,1819,1219,0,0
602,-195,0,0,0,0,0,0,0,0,0,-1,1826,1219,0,0
609,-195,0,0,0,0,0,0,0,0,0,-1,1833,1219,0,0
616,-195,0,0,0,0,0,0,0,0,0,-1,1840,1219,0,0
623,-195,0,0,0,0,0,0,0,0,0,-1,1847,1219,0,0
630,-195,214.469,8.56738,0,0,0,0,0,0,0,-1,1854,1219,214.469,-8.56734
637,-195,214.486,8.62659,0,0,0,0,0,0,0,-1,1861,1219,214.486,-8.62665
644,-195,214.47,8.74023,0,0,0,0,0,0,0,-1,1868,1219,214.47,-8.74022
651,-195,214.438,8.76514,0,0,0,0,0,0,0,-1,1875,1219,214.438,-8.76517
658,-195,214.457,8.73694,0,0,0,0,0,0,0,-1,1882,1219,214.457,-8.73689
665,-195,214.43,8.68018,0,0,0,0,0,0,0,-1,1889,1219,214.43,-8.6802
672,-195,214.426,8.4574,0,0,0,0,0,0,0,-1,1896,1219,214.426,-8.45737
679,-195,88.1234,1.78857,0,0,0,0,0,0,0,-1,1903,1219,88.1234,-1.78854
686,-195,51.2117,1.94312,0,0,0,0,0,0,0,-1,1910,1219,51.2117,-1.9431
693,-195,24.4368,5.68298,0,0,0,0,0,0,0,-1,1917,1219,24.4368,-5.68293
700,-195,68.4086,14.5306,0,0,0,0,0,0,0,-1,1924,1219,68.4086,-14.5306
707,-195,75.7532,15.8331,0,0,0,0,0,0,0,-1,1931,1219,75.7532,-15.8332
714,-195,201.508,36.7875,0,0,0,0,0,0,0,-1,1938,1219,201.507,-36.7875
721,-195,201.337,35.4417,0,0,0,0,0,0,0,-1,1945,1219,201.337,-35.4416
728,-195,201.439,34.0621,0.000883656,0.0165474,0.00421181,0.0176081,-0.00017703,1.32409,0.0117982,0.0313341,1952,1219,201.439,-34.0621
735,-195,201.096,32.6957,-0.00426882,0.0208931,0.00659501,0.0225169,-0.0058926,1.32938,0.017313,0.0322888,1959,1219,201.096,-32.6956
742,-195,200.77,31.4811,-0.00914113,0.0249973,0.00894336,0.0271983,-0.0113421,1.32949,0.0228705,0.0235744,1966,1219,200.769,-31.4811
749,-195,200.598,30.3353,-0.0136424,0.0288132,0.0112544,0.0316121,-0.0164413,1.32705,0.0282008,0.0229825,1973,1219,200.598,-30.3353
756,-195,200.388,29.2275,-0.0177298,0.0322603,0.0135458,0.0356948,-0.0211643,1.32248,0.033183,0.0241407,1980,1219,200.388,-29.2275
763,-195,200.126,27.8777,-0.0212871,0.0352762,0.0158417,0.0394108,-0.0254217,1.3155,0.0377204,0.0468519,1987,1219,200.126,-27.8777
770,-195,199.988,26.4226,0,0,0,0,0,0,0,-1,1994,1219,199.988,-26.4226
777,-195,67.0903,5.65259,0,0,0,0,0,0,0,-1,2001,1219,67.0904,-5.65253
784,-195,113.331,5.10986,0,0,0,0,0,0,0,-1,2008,1219,113.331,-5.10985
791,-195,68.9104,-1.24268,0,0,0,0,0,0,0,-1,2015,1219,68.9103,1.24264
798,-195,66.05,2.49902,0,0,0,0,0,0,0,-1,2022,1219,66.0501,-2.499
805,-195,0,0,0,0,0,0,0,0,0,-1,2029,1219,0,0
812,-195,0,0,0,0,0,0,0,0,0,-1,2036,1219,0,0
-700,-202,0,0,0,0,0,0,0,0,0,-1,524,1226,0,0
-693,-202,0,0,0,0,0,0,0,0,0,-1,531,1226,0,0
-686,-202,0,0,0,0,0,0,0,0,0,-1,538,1226,0,0
-679,-202,-179.012,21.0378,0,0,0,0,0,0,0,-1,545,1226,-179.012,-21.0378
-672,-202,-178.975,22.5787,0,0,0,0,0,0,0,-1,552,1226,-178.975,-22.5787
-665,-202,-178.984,24.1697,0,0,0,0,0,0,0,-1,559,1226,-178.984,-24.1697
-658,-202,-174.612,24.4117,0,0,0,0,0,0,0,-1,566,1226,-174.612,-24.4117
-651,-202,-156.909,20.6821,0,0,0,0,0,0,0,-1,573,1226,-156.909,-20.6821
-644,-202,-53.0106,6.29651,0,0,0,0,0,0,0,-1,580,1226,-53.0105,-6.29651
-637,-202,-89.9309,14.75,0,0,0,0,0,0,0,-1,587,1226,-89.9309,-14.75
-630,-202,-191.811,27.1969,0,0,0,0,0,0,0,-1,594,1226,-191.811,-27.1969
-623,-202,-192.135,28.4205,-0.0191246,0.0408967,-0.0145069,0.0442191,-0.022447,-1.34566,0.0391679,0.0196806,601,1226,-192.135,-28.4205
-616,-202,-192.289,29.5883,-0.0173709,0.0358872,-0.0150244,0.0398333,-0.021317,-1.31395,0.0358406,0.0137718,608,1226,-192.289,-29.5883
-609,-202,-192.349,30.8158,-0.0163273,0.0306198,-0.0156967,0.0353844,-0.0210919,-1.27609,0.0329528,0.0308352,615,1226,-192.349,-30.8158
-602,-202,-192.544,31.8306,-0.0159589,0.0251819,-0.0164855,0.0309727,-0.0217497,-1.23299,0.0305942,0.0475386,622,1226,-192.544,-31.8305
-595,-202,-192.546,32.8181,0,0,0,0,0,0,0,-1,629,1226,-192.546,-32.8181
-588,-202,-77.8618,20.3673,0,0,0,0,0,0,0,-1,636,1226,-77.8618,-20.3673
-581,-202,-77.893,21.4277,0,0,0,0,0,0,0,-1,643,1226,-77.893,-21.4278
-574,-202,-77.9501,22.582,0,0,0,0,0,0,0,-1,650,1226,-77.9501,-22.5821
-567,-202,-22.1768,4.56995,0,0,0,0,0,0,0,-1,657,1226,-22.1768,-4.56991
-560,-202,-10.929,2.73096,0,0,0,0,0,0,0,-1,664,1226,-10.929,-2.73092
-553,-202,-30.2701,1.474,0,0,0,0,0,0,0,-1,671,1226,-30.2701,-1.47395
-546,-202,-53.2803,0.580933,0,0,0,0,0,0,0,-1,678,1226,-53.2803,-0.580945
-539,-202,-71.7885,0.485962,0,0,0,0,0,0,0,-1,685,1226,-71.7885,-0.486007
-532,-202,-71.8226,0.46228,0,0,0,0,0,0,0,-1,692,1226,-71.8226,-0.462257
-525,-202,-71.8826,0.379639,0,0,0,0,0,0,0,-1,699,1226,-71.8826,-0.379652
-518,-202,-72.0466,0.453613,0,0,0,0,0,0,0,-1,706,1226,-72.0466,-0.453633
-511,-202,-72.2618,0.686035,0,0,0,0,0,0,0,-1,713,1226,-72.2618,-0.686083
-504,-202,0,0,0,0,0,0,0,0,0,-1,720,1226,0,0
-497,-202,0,0,0,0,0,0,0,0,0,-1,727,1226,0,0
-490,-202,0,0,0,0,0,0,0,0,0,-1,734,1226,0,0
-483,-202,0,0,0,0,0,0,0,0,0,-1,741,1226,0,0
-476,-202,0,0,0,0,0,0,0,0,0,-1,748,1226,0,0
-469,-202,0,0,0,0,0,0,0,0,0,-1,755,1226,0,0
-462,-202,0,0,0,0,0,0,0,0,0,-1,762,1226,0,0
-455,-202,0,0,0,0,0,0,0,0,0,-1,769,1226,0,0
-448,-202,0,0,0,0,0,0,0,0,0,-1,776,1226,0,0
-441,-202,0,0,0,0,0,0,0,0,0,-1,783,1226,0,0
-434,-202,0,0,0,0,0,0,0,0,0,-1,790,1226,0,0
-427,-202,0,0,0,0,0,0,0,0,0,-1,797,1226,0,0
-420,-202,0,0,0,0,0,0,0,0,0,-1,804,1226,0,0
-413,-202,0,0,0,0,0,0,0,0,0,-1,811,1226,0,0
-406,-202,0,0,0,0,0,0,0,0,0,-1,818,1226,0,0
-399,-202,0,0,0,0,0,0,0,0,0,-1,825,1226,0,0
-392,-202,0,0,0,0,0,0,0,0,0,-1,832,1226,0,0
-385,-202,0,0,0,0,0,0,0,0,0,-1,839,1226,0,0
-378,-202,0,0,0,0,0,0,0,0,0,-1,846,1226,0,0
-371,-202,0,0,0,0,0,0,0,0,0,-1,853,1226,0,0
-364,-202,0,0,0,0,0,0,0,0,0,-1,860,1226,0,0
-357,-202,0,0,0,0,0,0,0,0,0,-1,867,1226,0,0
-350,-202,0,0,0,0,0,0,0,0,0,-1,874,1226,0,0
-343,-202,0,0,0,0,0,0,0,0,0,-1,881,1226,0,0
-336,-202,0,0,0,0,0,0,0,0,0,-1,888,1226,0,0
-329,-202,0,0,0,0,0,0,0,0,0,-1,895,1226,0,0
-322,-202,0,0,0,0,0,0,0,0,0,-1,902,1226,0,0
-315,-202,0,0,0,0,0,0,0,0,0,-1,909,1226,0,0
-308,-202,0,0,0,0,0,0,0,0,0,-1,916,1226,0,0
-301,-202,0,0,0,0,0,0,0,0,0,-1,923,1226,0,0
-294,-202,0,0,0,0,0,0,0,0,0,-1,930,1226,0,0
-287,-202,0,0,0,0,0,0,0,0,0,-1,937,1226,0,0
-280,-202,0,0,0,0,0,0,0,0,0,-1,944,1226,0,0
-273,-202,0,0,0,0,0,0,0,0,0,-1,951,1226,0,0
-266,-202,0,0,0,0,0,0,0,0,0,-1,958,1226,0,0
-259,-202,0,0,0,0,0,0,0,0,0,-1,965,1226,0,0
-252,-202,0,0,0,0,0,0,0,0,0,-1,972,1226,0,0
-245,-202,0,0,0,0,0,0,0,0,0,-1,979,1226,0,0
-238,-202,0,0,0,0,0,0,0,0,0,-1,986,1226,0,0
-231,-202,0,0,0,0,0,0,0,0,0,-1,993,1226,0,0
-224,-202,0,0,0,0,0,0,0,0,0,-1,1000,1226,0,0
-217,-202,0,0,0,0,0,0,0,0,0,-1,1007,1226,0,0
-210,-202,0,0,0,0,0,0,0,0,0,-1,1014,1226,0,0
-203,-202,0,0,0,0,0,0,0,0,0,-1,1021,1226,0,0
-196,-202,0,0,0,0,0,0,0,0,0,-1,1028,1226,0,0
-189,-202,0,0,0,0,0,0,0,0,0,-1,1035,1226,0,0
-182,-202,0,0,0,0,0,0,0,0,0,-1,1042,1226,0,0
-175,-202,0,0,0,0,0,0,0,0,0,-1,1049,1226,0,0
-168,-202,0,0,0,0,0,0,0,0,0,-1,1056,1226,0,0
-161,-202,0,0,0,0,0,0,0,0,0,-1,1063,1226,0,0
-154,-202,0,0,0,0,0,0,0,0,0,-1,1070,1226,0,0
-147,-202,0,0,0,0,0,0,0,0,0,-1,1077,1226,0,0
-140,-202,0,0,0,0,0,0,0,0,0,-1,1084,1226,0,0
-133,-202,0,0,0,0,0,0,0,0,0,-1,1091,1226,0,0
-126,-202,0,0,0,0,0,0,0,0,0,-1,1098,1226,0,0
-119,-202,0,0,0,0,0,0,0,0,0,-1,1105,1226,0,0
-112,-202,0,0,0,0,0,0,0,0,0,-1,1112,1226,0,0
-105,-202,0,0,0,0,0,0,0,0,0,-1,1119,1226,0,0
-98,-202,0,0,0,0,0,0,0,0,0,-1,1126,1226,0,0
-91,-202,0,0,0,0,0,0,0,0,0,-1,1133,1226,0,0
-84,-202,0,0,0,0,0,0,0,0,0,-1,1140,1226,0,0
-77,-202,0,0,0,0,0,0,0,0,0,-1,1147,1226,0,0
-70,-202,0,0,0,0,0,0,0,0,0,-1,1154,1226,0,0
-63,-202,0,0,0,0,0,0,0,0,0,-1,1161,1226,0,0
-56,-202,0,0,0,0,0,0,0,0,0,-1,1168,1226,0,0
-49,-202,0,0,0,0,0,0,0,0,0,-1,1175,1226,0,0
-42,-202,0,0,0,0,0,0,0,0,0,-1,1182,1226,0,0
-35,-202,0,0,0,0,0,0,0,0,0,-1,1189,1226,0,0
-28,-202,0,0,0,0,0,0,0,0,0,-1,1196,1226,0,0
-21,-202,0,0,0,0,0,0,0,0,0,-1,1203,1226,0,0
-14,-202,0,0,0,0,0,0,0,0,0,-1,1210,1226,0,0
-7,-202,0,0,0,0,0,0,0,0,0,-1,1217,1226,0,0
0,-202,0,0,0,0,0,0,0,0,0,-1,1224,1226,0,0
7,-202,0,0,0,0,0,0,0,0,0,-1,1231,1226,0,0
14,-202,0,0,0,0,0,0,0,0,0,-1,1238,1226,0,0
21,-202,0,0,0,0,0,0,0,0,0,-1,1245,1226,0,0
28,-202,0,0,0,0,0,0,0,0,0,-1,1252,1226,0,0
35,-202,0,0,0,0,0,0,0,0,0,-1,1259,1226,0,0
42,-202,0,0,0,0,0,0,0,0,0,-1,1266,1226,0,0
49,-202,0,0,0,0,0,0,0,0,0,-1,1273,1226,0,0
56,-202,0,0,0,0,0,0,0,0,0,-1,1280,1226,0,0
63,-202,0,0,0,0,0,0,0,0,0,-1,1287,1226,0,0
70,-202,0,0,0,0,0,0,0,0,0,-1,1294,1226,0,0
77,-202,0,0,0,0,0,0,0,0,0,-1,1301,1226,0,0
84,-202,0,0,0,0,0,0,0,0,0,-1,1308,1226,0,0
91,-202,0,0,0,0,0,0,0,0,0,-1,1315,1226,0,0
98,-202,0,0,0,0,0,0,0,0,0,-1,1322,1226,0,0
105,-202,0,0,0,0,0,0,0,0,0,-1,1329,1226,0,0
112,-202,0,0,0,0,0,0,0,0,0,-1,1336,1226,0,0
119,-202,0,0,0,0,0,0,0,0,0,-1,1343,1226,0,0
126,-202,0,0,0,0,0,0,0,0,0,-1,1350,1226,0,0
133,-202,0,0,0,0,0,0,0,0,0,-1,1357,1226,0,0
140,-202,0,0,0,0,0,0,0,0,0,-1,1364,1226,0,0
147,-202,0,0,0,0,0,0,0,0,0,-1,1371,1226,0,0
154,-202,0,0,0,0,0,0,0,0,0,-1,1378,1226,0,0
161,-202,0,0,0,0,0,0,0,0,0,-1,1385,1226,0,0
168,-202,0,0,0,0,0,0,0,0,0,-1,1392,1226,0,0
175,-202,0,0,0,0,0,0,0,0,0,-1,1399,1226,0,0
182,-202,0,0,0,0,0,0,0,0,0,-1,1406,1226,0,0
189,-202,0,0,0,0,0,0,0,0,0,-1,1413,1226,0,0
196,-202,0,0,0,0,0,0,0,0,0,-1,1420,1226,0,0
203,-202,0,0,0,0,0,0,0,0,0,-1,1427,1226,0,0
210,-202,0,0,0,0,0,0,0,0,0,-1,1434,1226,0,0
217,-202,0,0,0,0,0,0,0,0,0,-1,1441,1226,0,0
224,-202,0,0,0,0,0,0,0,0,0,-1,1448,1226,0,0
231,-202,0,0,0,0,0,0,0,0,0,-1,1455,1226,0,0
238,-202,0,0,0,0,0,0,0,0,0,-1,1462,1226,0,0
245,-202,0,0,0,0,0,0,0,0,0,-1,1469,1226,0,0
252,-202,0,0,0,0,0,0,0,0,0,-1,1476,1226,0,0
259,-202,0,0,0,0,0,0,0,0,0,-1,1483,1226,0,0
266,-202,0,0,0,0,0,0,0,0,0,-1,1490,1226,0,0
273,-202,0,0,0,0,0,0,0,0,0,-1,1497,1226,0,0
280,-202,0,0,0,0,0,0,0,0,0,-1,1504,1226,0,0
287,-202,0,0,0,0,0,0,0,0,0,-1,1511,1226,0,0
294,-202,0,0,0,0,0,0,0,0,0,-1,1518,1226,0,0
301,-202,0,0,0,0,0,0,0,0,0,-1,1525,1226,0,0
308,-202,0,0,0,0,0,0,0,0,0,-1,1532,1226,0,0
315,-202,0,0,0,0,0,0,0,0,0,-1,1539,1226,0,0
322,-202,0,0,0,0,0,0,0,0,0,-1,1546,1226,0,0
329,-202,0,0,0,0,0,0,0,0,0,-1,1553,1226,0,0
336,-202,0,0,0,0,0,0,0,0,0,-1,1560,1226,0,0
343,-202,0,0,0,0,0,0,0,0,0,-1,1567,1226,0,0
350,-202,0,0,0,0,0,0,0,0,0,-1,1574,1226,0,0
357,-202,0,0,0,0,0,0,0,0,0,-1,1581,1226,0,0
364,-202,0,0,0,0,0,0,0,0,0,-1,1588,1226,0,0
371,-202,0,0,0,0,0,0,0,0,0,-1,1595,1226,0,0
378,-202,0,0,0,0,0,0,0,0,0,-1,1602,1226,0,0
385,-202,0,0,0,0,0,0,0,0,0,-1,1609,1226,0,0
392,-202,0,0,0,0,0,0,0,0,0,-1,1616,1226,0,0
399,-202,0,0,0,0,0,0,0,0,0,-1,1623,1226,0,0
406,-202,0,0,0,0,0,0,0,0,0,-1,1630,1226,0,0
413,-202,0,0,0,0,0,0,0,0,0,-1,1637,1226,0,0
420,-202,0,0,0,0,0,0,0,0,0,-1,1644,1226,0,0
427,-202,0,0,0,0,0,0,0,0,0,-1,1651,1226,0,0
434,-202,0,0,0,0,0,0,0,0,0,-1,1658,1226,0,0
441,-202,0,0,0,0,0,0,0,0,0,-1,1665,1226,0,0
448,-202,0,0,0,0,0,0,0,0,0,-1,1672,1226,0,0
455,-202,0,0,0,0,0,0,0,0,0,-1,1679,1226,0,0
462,-202,0,0,0,0,0,0,0,0,0,-1,1686,1226,0,0
469,-202,0,0,0,0,0,0,0,0,0,-1,1693,1226,0,0
476,-202,0,0,0,0,0,0,0,0,0,-1,1700,1226,0,0
483,-202,0,0,0,0,0,0,0,0,0,-1,1707,1226,0,0
490,-202,0,0,0,0,0,0,0,0,0,-1,1714,1226,0,0
497,-202,0,0,0,0,0,0,0,0,0,-1,1721,1226,0,0
504,-202,0,0,0,0,0,0,0,0,0,-1,1728,1226,0,0
511,-202,0,0,0,0,0,0,0,0,0,-1,1735,1226,0,0
518,-202,0,0,0,0,0,0,0,0,0,-1,1742,1226,0,0
525,-202,0,0,0,0,0,0,0,0,0,-1,1749,1226,0,0
532,-202,0,0,0,0,0,0,0,0,0,-1,1756,1226,0,0
539,-202,0,0,0,0,0,0,0,0,0,-1,1763,1226,0,0
546,-202,0,0,0,0,0,0,0,0,0,-1,1770,1226,0,0
553,-202,0,0,0,0,0,0,0,0,0,-1,1777,1226,0,0
560,-202,0,0,0,0,0,0,0,0,0,-1,1784,1226,0,0
567,-202,0,0,0,0,0,0,0,0,0,-1,1791,1226,0,0
574,-202,0,0,0,0,0,0,0,0,0,-1,1798,1226,0,0
581,-202,0,0,0,0,0,0,0,0,0,-1,1805,1226,0,0
588,-202,0,0,0,0,0,0,0,0,0,-1,1812,1226,0,0
595,-202,0,0,0,0,0,0,0,0,0,-1,1819,1226,0,0
602,-202,0,0,0,0,0,0,0,0,0,-1,1826,1226,0,0
609,-202,0,0,0,0,0,0,0,0,0,-1,1833,1226,0,0
616,-202,0,0,0,0,0,0,0,0,0,-1,1840,1226,0,0
623,-202,0,0,0,0,0,0,0,0,0,-1,1847,1226,0,0
630,-202,214.435,8.80469,0,0,0,0,0,0,0,-1,1854,1226,214.435,-8.80467
637,-202,214.505,8.77283,0,0,0,0,0,0,0,-1,1861,1226,214.505,-8.7728
644,-202,214.475,8.79883,0,0,0,0,0,0,0,-1,1868,1226,214.475,-8.79887
651,-202,214.498,8.74976,0,0,0,0,0,0,0,-1,1875,1226,214.497,-8.74975
658,-202,214.494,8.70496,0,0,0,0,0,0,0,-1,1882,1226,214.494,-8.705
665,-202,214.504,8.68469,0,0,0,0,0,0,0,-1,1889,1226,214.504,-8.68474
672,-202,214.483,8.52881,0,0,0,0,0,0,0,-1,1896,1226,214.483,-8.5288
679,-202,72.3511,2.32935,0,0,0,0,0,0,0,-1,1903,1226,72.3511,-2.32932
686,-202,49.1708,2.15198,0,0,0,0,0,0,0,-1,1910,1226,49.1708,-2.15195
693,-202,52.1176,12.0886,0,0,0,0,0,0,0,-1,1917,1226,52.1176,-12.0886
700,-202,74.741,16.6233,0,0,0,0,0,0,0,-1,1924,1226,74.741,-16.6233
707,-202,92.8003,22.7876,0,0,0,0,0,0,0,-1,1931,1226,92.8003,-22.7876
714,-202,200.013,36.7919,0,0,0,0,0,0,0,-1,1938,1226,200.013,-36.7919
721,-202,199.781,35.4192,0,0,0,0,0,0,0,-1,1945,1226,199.781,-35.4192
728,-202,200.041,34.111,0.00105269,0.0171575,0.00483127,0.0184956,-0.000285449,1.30059,0.0124267,0.0264865,1952,1226,200.041,-34.111
735,-202,199.713,32.7448,-0.00468093,0.0214287,0.00766401,0.0235121,-0.00676432,1.30537,0.0183499,0.0245088,1959,1226,199.713,-32.7448
742,-202,199.388,31.5122,-0.0101728,0.0254197,0.0104668,0.0282696,-0.0130227,1.30497,0.0243758,0.0215197,1966,1226,199.388,-31.5122
749,-202,199.101,30.3627,-0.0153204,0.0290963,0.0132111,0.0327287,-0.0189527,1.30248,0.0301896,0.0239796,1973,1226,199.101,-30.3626
756,-202,198.924,29.0806,-0.0201087,0.0323724,0.0158914,0.0368093,-0.0245456,1.29853,0.0356583,0.02381,1980,1226,198.924,-29.0806
763,-202,198.881,27.7715,-0.0243547,0.0352269,0.0184994,0.0405035,-0.0296312,1.29295,0.0406541,0.049762,1987,1226,198.881,-27.7715
770,-202,198.812,26.5399,0,0,0,0,0,0,0,-1,1994,1226,198.812,-26.5399
777,-202,67.5615,-0.236572,0,0,0,0,0,0,0,-1,2001,1226,67.5615,0.236573
784,-202,66.7117,0.754517,0,0,0,0,0,0,0,-1,2008,1226,66.7118,-0.754543
791,-202,66.512,1.74207,0,0,0,0,0,0,0,-1,2015,1226,66.512,-1.74201
798,-202,51.8999,3.58789,0,0,0,0,0,0,0,-1,2022,1226,51.9,-3.58791
805,-202,0,0,0,0,0,0,0,0,0,-1,2029,1226,0,0
812,-202,0,0,0,0,0,0,0,0,0,-1,2036,1226,0,0
-700,-209,0,0,0,0,0,0,0,0,0,-1,524,1233,0,0
-693,-209,0,0,0,0,0,0,0,0,0,-1,531,1233,0,0
-686,-209,0,0,0,0,0,0,0,0,0,-1,538,1233,0,0
-679,-209,-178.342,21.2993,0,0,0,0,0,0,0,-1,545,1233,-178.342,-21.2994
-672,-209,-178.497,22.929,0,0,0,0,0,0,0,-1,552,1233,-178.497,-22.929
-665,-209,-178.528,24.5173,0,0,0,0,0,0,0,-1,559,1233,-178.528,-24.5173
-658,-209,-172.306,23.4949,0,0,0,0,0,0,0,-1,566,1233,-172.306,-23.4948
-651,-209,-48.544,5.83411,0,0,0,0,0,0,0,-1,573,1233,-48.544,-5.83409
-644,-209,-64.1546,-2.03052,0,0,0,0,0,0,0,-1,580,1233,-64.1546,2.03054
-637,-209,-93.7946,16.2063,0,0,0,0,0,0,0,-1,587,1233,-93.7946,-16.2063
-630,-209,-190.456,26.985,0,0,0,0,0,0,0,-1,594,1233,-190.456,-26.985
-623,-209,-190.647,28.2791,-0.0180086,0.0422925,-0.0142726,0.0455,-0.0212161,-1.34973,0.0393599,0.0269396,601,1233,-190.647,-28.279
-616,-209,-190.85,29.4408,-0.0169323,0.0372741,-0.0152459,0.0412679,-0.0209261,-1.3146,0.0365423,0.0175039,608,1233,-190.85,-29.4408
-609,-209,-191.027,30.6235,-0.0161431,0.0318858,-0.0156699,0.0365461,-0.0208034,-1.28172,0.033524,0.0192345,615,1233,-191.027,-30.6235
-602,-209,-191.076,31.9218,-0.0156396,0.0263837,-0.0156537,0.0315738,-0.0208296,-1.25065,0.0304663,0.041789,622,1233,-191.076,-31.9218
-595,-209,-190.936,33.0782,0,0,0,0,0,0,0,-1,629,1233,-190.936,-33.0782
-588,-209,-76.5599,20.4441,0,0,0,0,0,0,0,-1,636,1233,-76.5598,-20.4441
-581,-209,-76.5614,21.6544,0,0,0,0,0,0,0,-1,643,1233,-76.5614,-21.6544
-574,-209,-76.64,22.7886,0,0,0,0,0,0,0,-1,650,1233,-76.6399,-22.7886
-567,-209,-76.9697,24.0137,0,0,0,0,0,0,0,-1,657,1233,-76.9698,-24.0137
-560,-209,-13.9294,4.16626,0,0,0,0,0,0,0,-1,664,1233,-13.9294,-4.16621
-553,-209,-22.7542,0.748779,0,0,0,0,0,0,0,-1,671,1233,-22.7541,-0.748796
-546,-209,-44.691,0.142822,0,0,0,0,0,0,0,-1,678,1233,-44.6911,-0.142844
-539,-209,-65.5246,0.622681,0,0,0,0,0,0,0,-1,685,1233,-65.5246,-0.622625
-532,-209,-71.7545,0.510864,0,0,0,0,0,0,0,-1,692,1233,-71.7545,-0.510841
-525,-209,-71.8335,0.54895,0,0,0,0,0,0,0,-1,699,1233,-71.8335,-0.548929
-518,-209,-72.0107,0.633545,0,0,0,0,0,0,0,-1,706,1233,-72.0108,-0.633602
-511,-209,-72.1729,0.666382,0,0,0,0,0,0,0,-1,713,1233,-72.1729,-0.666353
-504,-209,0,0,0,0,0,0,0,0,0,-1,720,1233,0,0
-497,-209,0,0,0,0,0,0,0,0,0,-1,727,1233,0,0
-490,-209,0,0,0,0,0,0,0,0,0,-1,734,1233,0,0
-483,-209,0,0,0,0,0,0,0,0,0,-1,741,1233,0,0
-476,-209,0,0,0,0,0,0,0,0,0,-1,748,1233,0,0
-469,-209,0,0,0,0,0,0,0,0,0,-1,755,1233,0,0
-462,-209,0,0,0,0,0,0,0,0,0,-1,762,1233,0,0
-455,-209,0,0,0,0,0,0,0,0,0,-1,769,1233,0,0
-448,-209,0,0,0,0,0,0,0,0,0,-1,776,1233,0,0
-441,-209,0,0,0,0,0,0,0,0,0,-1,783,1233,0,0
-434,-209,0,0,0,0,0,0,0,0,0,-1,790,1233,0,0
-427,-209,0,0,0,0,0,0,0,0,0,-1,797,1233,0,0
-420,-209,0,0,0,0,0,0,0,0,0,-1,804,1233,0,0
-413,-209,0,0,0,0,0,0,0,0,0,-1,811,1233,0,0
-406,-209,0,0,0,0,0,0,0,0,0,-1,818,1233,0,0
-399,-209,0,0,0,0,0,0,0,0,0,-1,825,1233,0,0
-392,-209,0,0,0,0,0,0,0,0,0,-1,832,1233,0,0
-385,-209,0,0,0,0,0,0,0,0,0,-1,839,1233,0,0
-378,-209,0,0,0,0,0,0,0,0,0,-1,846,1233,0,0
-371,-209,0,0,0,0,0,0,0,0,0,-1,853,1233,0,0
-364,-209,0,0,0,0,0,0,0,0,0,-1,860,1233,0,0
-357,-209,0,0,0,0,0,0,0,0,0,-1,867,1233,0,0
-350,-209,0,0,0,0,0,0,0,0,0,-1,874,1233,0,0
-343,-209,0,0,0,0,0,0,0,0,0,-1,881,1233,0,0
-336,-209,0,0,0,0,0,0,0,0,0,-1,888,1233,0,0
-329,-209,0,0,0,0,0,0,0,0,0,-1,895,1233,0,0
-322,-209,0,0,0,0,0,0,0,0,0,-1,902,1233,0,0
-315,-209,0,0,0,0,0,0,0,0,0,-1,909,1233,0,0
-308,-209,0,0,0,0,0,0,0,0,0,-1,916,1233,0,0
-301,-209,0,0,0,0,0,0,0,0,0,-1,923,1233,0,0
-294,-209,0,0,0,0,0,0,0,0,0,-1,930,1233,0,0
-287,-209,0,0,0,0,0,0,0,0,0,-1,937,1233,0,0
-280,-209,0,0,0,0,0,0,0,0,0,-1,944,1233,0,0
-273,-209,0,0,0,0,0,0,0,0,0,-1,951,1233,0,0
-266,-209,0,0,0,0,0,0,0,0,0,-1,958,1233,0,0
-259,-209,0,0,0,0,0,0,0,0,0,-1,965,1233,0,0
-252,-209,0,0,0,0,0,0,0,0,0,-1,972,1233,0,0
-245,-209,0,0,0,0,0,0,0,0,0,-1,979,1233,0,0
-238,-209,0,0,0,0,0,0,0,0,0,-1,986,1233,0,0
-231,-209,0,0,0,0,0,0,0,0,0,-1,993,1233,0,0
-224,-209,0,0,0,0,0,0,0,0,0,-1,1000,1233,0,0
-217,-209,0,0,0,0,0,0,0,0,0,-1,1007,1233,0,0
-210,-209,0,0,0,0,0,0,0,0,0,-1,1014,1233,0,0
-203,-209,0,0,0,0,0,0,0,0,0,-1,1021,1233,0,0
-196,-209,0,0,0,0,0,0,0,0,0,-1,1028,1233,0,0
-189,-209,0,0,0,0,0,0,0,0,0,-1,1035,1233,0,0
-182,-209,0,0,0,0,0,0,0,0,0,-1,1042,1233,0,0
-175,-209,0,0,0,0,0,0,0,0,0,-1,1049,1233,0,0
-168,-209,0,0,0,0,0,0,0,0,0,-1,1056,1233,0,0
-161,-209,0,0,0,0,0,0,0,0,0,-1,1063,1233,0,0
-154,-209,0,0,0,0,0,0,0,0,0,-1,1070,1233,0,0
-147,-209,0,0,0,0,0,0,0,0,0,-1,1077,1233,0,0
-140,-209,0,0,0,0,0,0,0,0,0,-1,1084,1233,0,0
-133,-209,0,0,0,0,0,0,0,0,0,-1,1091,1233,0,0
-126,-209,0,0,0,0,0,0,0,0,0,-1,1098,1233,0,0
-119,-209,0,0,0,0,0,0,0,0,0,-1,1105,1233,0,0
-112,-209,0,0,0,0,0,0,0,0,0,-1,1112,1233,0,0
-105,-209,0,0,0,0,0,0,0,0,0,-1,1119,1233,0,0
-98,-209,0,0,0,0,0,0,0,0,0,-1,1126,1233,0,0
-91,-209,0,0,0,0,0,0,0,0,0,-1,1133,1233,0,0
-84,-209,0,0,0,0,0,0,0,0,0,-1,1140,1233,0,0
-77,-209,0,0,0,0,0,0,0,0,0,-1,1147,1233,0,0
-70,-209,0,0,0,0,0,0,0,0,0,-1,1154,1233,0,0
-63,-209,0,0,0,0,0,0,0,0,0,-1,1161,1233,0,0
-56,-209,0,0,0,0,0,0,0,0,0,-1,1168,1233,0,0
-49,-209,0,0,0,0,0,0,0,0,0,-1,1175,1233,0,0
-42,-209,0,0,0,0,0,0,0,0,0,-1,1182,1233,0,0
-35,-209,0,0,0,0,0,0,0,0,0,-1,1189,1233,0,0
-28,-209,0,0,0,0,0,0,0,0,0,-1,1196,1233,0,0
-21,-209,0,0,0,0,0,0,0,0,0,-1,1203,1233,0,0
-14,-209,0,0,0,0,0,0,0,0,0,-1,1210,1233,0,0
-7,-209,0,0,0,0,0,0,0,0,0,-1,1217,1233,0,0
0,-209,0,0,0,0,0,0,0,0,0,-1,1224,1233,0,0
7,-209,0,0,0,0,0,0,0,0,0,-1,1231,1233,0,0
14,-209,0,0,0,0,0,0,0,0,0,-1,1238,1233,0,0
21,-209,0,0,0,0,0,0,0,0,0,-1,1245,1233,0,0
28,-209,0,0,0,0,0,0,0,0,0,-1,1252,1233,0,0
35,-209,0,0,0,0,0,0,0,0,0,-1,1259,1233,0,0
42,-209,0,0,0,0,0,0,0,0,0,-1,1266,1233,0,0
49,-209,0,0,0,0,0,0,0,0,0,-1,1273,1233,0,0
56,-209,0,0,0,0,0,0,0,0,0,-1,1280,1233,0,0
63,-209,0,0,0,0,0,0,0,0,0,-1,1287,1233,0,0
70,-209,0,0,0,0,0,0,0,0,0,-1,1294,1233,0,0
77,-209,0,0,0,0,0,0,0,0,0,-1,1301,1233,0,0
84,-209,0,0,0,0,0,0,0,0,0,-1,1308,1233,0,0
91,-209,0,0,0,0,0,0,0,0,0,-1,1315,1233,0,0
98,-209,0,0,0,0,0,0,0,0,0,-1,1322,1233,0,0
105,-209,0,0,0,0,0,0,0,0,0,-1,1329,1233,0,0
112,-209,0,0,0,0,0,0,0,0,0,-1,1336,1233,0,0
119,-209,0,0,0,0,0,0,0,0,0,-1,1343,1233,0,0
126,-209,0,0,0,0,0,0,0,0,0,-1,1350,1233,0,0
133,-209,0,0,0,0,0,0,0,0,0,-1,1357,1233,0,0
140,-209,0,0,0,0,0,0,0,0,0,-1,1364,1233,0,0
147,-209,0,0,0,0,0,0,0,0,0,-1,1371,1233,0,0
154,-209,0,0,0,0,0,0,0,0,0,-1,1378,1233,0,0
161,-209,0,0,0,0,0,0,0,0,0,-1,1385,1233,0,0
168,-209,0,0,0,0,0,0,0,0,0,-1,1392,1233,0,0
175,-209,0,0,0,0,0,0,0,0,0,-1,1399,1233,0,0
182,-209,0,0,0,0,0,0,0,0,0,-1,1406,1233,0,0
189,-209,0,0,0,0,0,0,0,0,0,-1,1413,1233,0,0
196,-209,0,0,0,0,0,0,0,0,0,-1,1420,1233,0,0
203,-209,0,0,0,0,0,0,0,0,0,-1,1427,1233,0,0
210,-209,0,0,0,0,0,0,0,0,0,-1,1434,1233,0,0
217,-209,0,0,0,0,0,0,0,0,0,-1,1441,1233,0,0
224,-209,0,0,0,0,0,0,0,0,0,-1,1448,1233,0,0
231,-209,0,0,0,0,0,0,0,0,0,-1,1455,1233,0,0
238,-209,0,0,0,0,0,0,0,0,0,-1,1462,1233,0,0
245,-209,0,0,0,0,0,0,0,0,0,-1,1469,1233,0,0
252,-209,0,0,0,0,0,0,0,0,0,-1,1476,1233,0,0
259,-209,0,0,0,0,0,0,0,0,0,-1,1483,1233,0,0
266,-209,0,0,0,0,0,0,0,0,0,-1,1490,1233,0,0
273,-209,0,0,0,0,0,0,0,0,0,-1,1497,1233,0,0
280,-209,0,0,0,0,0,0,0,0,0,-1,1504,1233,0,0
287,-209,0,0,0,0,0,0,0,0,0,-1,1511,1233,0,0
294,-209,0,0,0,0,0,0,0,0,0,-1,1518,1233,0,0
301,-209,0,0,0,0,0,0,0,0,0,-1,1525,1233,0,0
308,-209,0,0,0,0,0,0,0,0,0,-1,1532,1233,0,0
315,-209,0,0,0,0,0,0,0,0,0,-1,1539,1233,0,0
322,-209,0,0,0,0,0,0,0,0,0,-1,1546,1233,0,0
329,-209,0,0,0,0,0,0,0,0,0,-1,1553,1233,0,0
336,-209,0,0,0,0,0,0,0,0,0,-1,1560,1233,0,0
343,-209,0,0,0,0,0,0,0,0,0,-1,1567,1233,0,0
350,-209,0,0,0,0,0,0,0,0,0,-1,1574,1233,0,0
357,-209,0,0,0,0,0,0,0,0,0,-1,1581,1233,0,0
364,-209,0,0,0,0,0,0,0,0,0,-1,1588,1233,0,0
371,-209,0,0,0,0,0,0,0,0,0,-1,1595,1233,0,0
378,-209,0,0,0,0,0,0,0,0,0,-1,1602,1233,0,0
385,-209,0,0,0,0,0,0,0,0,0,-1,1609,1233,0,0
392,-209,0,0,0,0,0,0,0,0,0,-1,1616,1233,0,0
399,-209,0,0,0,0,0,0,0,0,0,-1,1623,1233,0,0
406,-209,0,0,0,0,0,0,0,0,0,-1,1630,1233,0,0
413,-209,0,0,0,0,0,0,0,0,0,-1,1637,1233,0,0
420,-209,0,0,0,0,0,0,0,0,0,-1,1644,1233,0,0
427,-209,0,0,0,0,0,0,0,0,0,-1,1651,1233,0,0
434,-209,0,0,0,0,0,0,0,0,0,-1,1658,1233,0,0
441,-209,0,0,0,0,0,0,0,0,0,-1,1665,1233,0,0
448,-209,0,0,0,0,0,0,0,0,0,-1,1672,1233,0,0
455,-209,0,0,0,0,0,0,0,0,0,-1,1679,1233,0,0
462,-209,0,0,0,0,0,0,0,0,0,-1,1686,1233,0,0
469,-209,0,0,0,0,0,0,0,0,0,-1,1693,1233,0,0
476,-209,0,0,0,0,0,0,0,0,0,-1,1700,1233,0,0
483,-209,0,0,0,0,0,0,0,0,0,-1,1707,1233,0,0
490,-209,0,0,0,0,0,0,0,0,0,-1,1714,1233,0,0
497,-209,0,0,0,0,0,0,0,0,0,-1,1721,1233,0,0
504,-209,0,0,0,0,0,0,0,0,0,-1,1728,1233,0,0
511,-209,0,0,0,0,0,0,0,0,0,-1,1735,1233,0,0
518,-209,0,0,0,0,0,0,0,0,0,-1,1742,1233,0,0
525,-209,0,0,0,0,0,0,0,0,0,-1,1749,1233,0,0
532,-209,0,0,0,0,0,0,0,0,0,-1,1756,1233,0,0
539,-209,0,0,0,0,0,0,0,0,0,-1,1763,1233,0,0
546,-209,0,0,0,0,0,0,0,0,0,-1,1770,1233,0,0
553,-209,0,0,0,0,0,0,0,0,0,-1,1777,1233,0,0
560,-209,0,0,0,0,0,0,0,0,0,-1,1784,1233,0,0
567,-209,0,0,0,0,0,0,0,0,0,-1,1791,1233,0,0
574,-209,0,0,0,0,0,0,0,0,0,-1,1798,1233,0,0
581,-209,0,0,0,0,0,0,0,0,0,-1,1805,1233,0,0
588,-209,0,0,0,0,0,0,0,0,0,-1,1812,1233,0,0
595,-209,0,0,0,0,0,0,0,0,0,-1,1819,1233,0,0
602,-209,0,0,0,0,0,0,0,0,0,-1,1826,1233,0,0
609,-209,0,0,0,0,0,0,0,0,0,-1,1833,1233,0,0
616,-209,0,0,0,0,0,0,0,0,0,-1,1840,1233,0,0
623,-209,214.339,8.59534,0,0,0,0,0,0,0,-1,1847,1233,214.339,-8.59539
630,-209,214.376,8.59875,0,0,0,0,0,0,0,-1,1854,1233,214.376,-8.59871
637,-209,214.425,8.66516,0,0,0,0,0,0,0,-1,1861,1233,214.425,-8.6652
644,-209,214.468,8.72217,0,0,0,0,0,0,0,-1,1868,1233,214.468,-8.72222
651,-209,214.46,8.70105,0,0,0,0,0,0,0,-1,1875,1233,214.46,-8.70103
658,-209,214.431,8.6875,0,0,0,0,0,0,0,-1,1882,1233,214.431,-8.68755
665,-209,214.548,8.64514,0,0,0,0,0,0,0,-1,1889,1233,214.548,-8.64517
672,-209,87.3463,1.96936,0,0,0,0,0,0,0,-1,1896,1233,87.3464,-1.96942
679,-209,55.2465,2.78674,0,0,0,0,0,0,0,-1,1903,1233,55.2464,-2.78678
686,-209,33.3711,3.89856,0,0,0,0,0,0,0,-1,1910,1233,33.3711,-3.89855
693,-209,60.7567,13.6616,0,0,0,0,0,0,0,-1,1917,1233,60.7567,-13.6616
700,-209,84.3783,20.4895,0,0,0,0,0,0,0,-1,1924,1233,84.3783,-20.4894
707,-209,198.443,38.0765,0,0,0,0,0,0,0,-1,1931,1233,198.443,-38.0765
714,-209,198.698,36.8245,0,0,0,0,0,0,0,-1,1938,1233,198.698,-36.8245
721,-209,198.635,35.5502,0.00586486,0.0130983,0.00301466,0.01419,0.00477321,1.22337,0.00833753,0.0324289,1945,1233,198.635,-35.5501
728,-209,198.56,34.1267,-0.000167973,0.0178028,0.00595366,0.0195963,-0.00196142,1.27821,0.0137646,0.0314629,1952,1233,198.56,-34.1267
735,-209,198.15,32.8027,0,0,0,0,0,0,0,-1,1959,1233,198.15,-32.8028
742,-209,197.869,31.5356,0,0,0,0,0,0,0,-1,1966,1233,197.869,-31.5356
749,-209,197.543,30.3427,0,0,0,0,0,0,0,-1,1973,1233,197.543,-30.3427
756,-209,197.351,28.9005,0,0,0,0,0,0,0,-1,1980,1233,197.351,-28.9005
763,-209,197.509,27.5007,0,0,0,0,0,0,0,-1,1987,1233,197.509,-27.5007
770,-209,195.065,26.8967,0,0,0,0,0,0,0,-1,1994,1233,195.065,-26.8967
777,-209,68.0347,-0.36377,0,0,0,0,0,0,0,-1,2001,1233,68.0346,0.363742
784,-209,67.6289,0.771729,0,0,0,0,0,0,0,-1,2008,1233,67.6289,-0.771742
791,-209,67.1841,1.90906,0,0,0,0,0,0,0,-1,2015,1233,67.1841,-1.90909
798,-209,53.6404,3.71179,0,0,0,0,0,0,0,-1,2022,1233,53.6404,-3.71185
805,-209,0,0,0,0,0,0,0,0,0,-1,2029,1233,0,0
812,-209,0,0,0,0,0,0,0,0,0,-1,2036,1233,0,0
-700,-216,0,0,0,0,0,0,0,0,0,-1,524,1240,0,0
-693,-216,0,0,0,0,0,0,0,0,0,-1,531,1240,0,0
-686,-216,0,0,0,0,0,0,0,0,0,-1,538,1240,0,0
-679,-216,-177.594,21.6741,0,0,0,0,0,0,0,-1,545,1240,-177.594,-21.674
-672,-216,-178.041,23.2711,0,0,0,0,0,0,0,-1,552,1240,-178.041,-23.2711
-665,-216,-175.086,22.3207,0,0,0,0,0,0,0,-1,559,1240,-175.086,-22.3207
-658,-216,-78.3845,24.0464,0,0,0,0,0,0,0,-1,566,1240,-78.3845,-24.0463
-651,-216,-63.4149,-2.69446,0,0,0,0,0,0,0,-1,573,1240,-63.4149,2.69441
-644,-216,-63.9308,-2.41199,0,0,0,0,0,0,0,-1,580,1240,-63.9308,2.41198
-637,-216,-188.139,25.2428,0,0,0,0,0,0,0,-1,587,1240,-188.139,-25.2428
-630,-216,-188.703,26.8018,0,0,0,0,0,0,0,-1,594,1240,-188.703,-26.8017
-623,-216,-189.082,28.1847,-0.0166347,0.0439859,-0.0136131,0.0469026,-0.0195514,-1.35973,0.0394356,0.0277623,601,1240,-189.082,-28.1847
-616,-216,-189.352,29.2987,-0.016267,0.0390687,-0.0151427,0.0429415,-0.0201398,-1.32041,0.0372046,0.0192889,608,1240,-189.352,-29.2988
-609,-216,-189.568,30.5286,-0.0158188,0.0335386,-0.0156748,0.0380958,-0.020376,-1.28786,0.0342715,0.0187422,615,1240,-189.568,-30.5286
-602,-216,-189.615,31.9379,-0.0154781,0.0278449,-0.0155736,0.0328622,-0.0204954,-1.25913,0.0310806,0.028711,622,1240,-189.615,-31.9379
-595,-216,-189.508,33.3567,0,0,0,0,0,0,0,-1,629,1240,-189.508,-33.3566
-588,-216,-76.3784,20.2157,0,0,0,0,0,0,0,-1,636,1240,-76.3784,-20.2156
-581,-216,-75.1554,21.9757,0,0,0,0,0,0,0,-1,643,1240,-75.1554,-21.9757
-574,-216,-75.3052,22.9486,0,0,0,0,0,0,0,-1,650,1240,-75.3051,-22.9486
-567,-216,-48.2406,14.5559,0,0,0,0,0,0,0,-1,657,1240,-48.2406,-14.5559
-560,-216,-16.5087,5.4574,0,0,0,0,0,0,0,-1,664,1240,-16.5087,-5.45746
-553,-216,-16.2355,1.22351,0,0,0,0,0,0,0,-1,671,1240,-16.2356,-1.22356
-546,-216,-37.1617,-0.25415,0,0,0,0,0,0,0,-1,678,1240,-37.1618,0.254161
-539,-216,-47.7817,1.47327,0,0,0,0,0,0,0,-1,685,1240,-47.7818,-1.4733
-532,-216,-68.0657,0.361084,0,0,0,0,0,0,0,-1,692,1240,-68.0657,-0.361113
-525,-216,-71.8069,0.608032,0,0,0,0,0,0,0,-1,699,1240,-71.8069,-0.608086
-518,-216,-71.9826,0.685303,0,0,0,0,0,0,0,-1,706,1240,-71.9826,-0.685246
-511,-216,-72.0073,0.585571,0,0,0,0,0,0,0,-1,713,1240,-72.0072,-0.585511
-504,-216,-71.8983,0.502075,0,0,0,0,0,0,0,-1,720,1240,-71.8983,-0.502107
-497,-216,0,0,0,0,0,0,0,0,0,-1,727,1240,0,0
-490,-216,0,0,0,0,0,0,0,0,0,-1,734,1240,0,0
-483,-216,0,0,0,0,0,0,0,0,0,-1,741,1240,0,0
-476,-216,0,0,0,0,0,0,0,0,0,-1,748,1240,0,0
-469,-216,0,0,0,0,0,0,0,0,0,-1,755,1240,0,0
-462,-216,0,0,0,0,0,0,0,0,0,-1,762,1240,0,0
-455,-216,0,0,0,0,0,0,0,0,0,-1,769,1240,0,0
-448,-216,0,0,0,0,0,0,0,0,0,-1,776,1240,0,0
-441,-216,0,0,0,0,0,0,0,0,0,-1,783,1240,0,0
-434,-216,0,0,0,0,0,0,0,0,0,-1,790,1240,0,0
-427,-216,0,0,0,0,0,0,0,0,0,-1,797,1240,0,0
-420,-216,0,0,0,0,0,0,0,0,0,-1,804,1240,0,0
-413,-216,0,0,0,0,0,0,0,0,0,-1,811,1240,0,0
-406,-216,0,0,0,0,0,0,0,0,0,-1,818,1240,0,0
-399,-216,0,0,0,0,0,0,0,0,0,-1,825,1240,0,0
-392,-216,0,0,0,0,0,0,0,0,0,-1,832,1240,0,0
-385,-216,0,0,0,0,0,0,0,0,0,-1,839,1240,0,0
-378,-216,0,0,0,0,0,0,0,0,0,-1,846,1240,0,0
-371,-216,0,0,0,0,0,0,0,0,0,-1,853,1240,0,0
-364,-216,0,0,0,0,0,0,0,0,0,-1,860,1240,0,0
-357,-216,0,0,0,0,0,0,0,0,0,-1,867,1240,0,0
-350,-216,0,0,0,0,0,0,0,0,0,-1,874,1240,0,0
-343,-216,0,0,0,0,0,0,0,0,0,-1,881,1240,0,0
-336,-216,0,0,0,0,0,0,0,0,0,-1,888,1240,0,0
-329,-216,0,0,0,0,0,0,0,0,0,-1,895,1240,0,0
-322,-216,0,0,0,0,0,0,0,0,0,-1,902,1240,0,0
-315,-216,0,0,0,0,0,0,0,0,0,-1,909,1240,0,0
-308,-216,0,0,0,0,0,0,0,0,0,-1,916,1240,0,0
-301,-216,0,0,0,0,0,0,0,0,0,-1,923,1240,0,0
-294,-216,0,0,0,0,0,0,0,0,0,-1,930,1240,0,0
-287,-216,0,0,0,0,0,0,0,0,0,-1,937,1240,0,0
-280,-216,0,0,0,0,0,0,0,0,0,-1,944,1240,0,0
-273,-216,0,0,0,0,0,0,0,0,0,-1,951,1240,0,0
-266,-216,0,0,0,0,0,0,0,0,0,-1,958,1240,0,0
-259,-216,0,0,0,0,0,0,0,0,0,-1,965,1240,0,0
-252,-216,0,0,0,0,0,0,0,0,0,-1,972,1240,0,0
-245,-216,0,0,0,0,0,0,0,0,0,-1,979,1240,0,0
-238,-216,0,0,0,0,0,0,0,0,0,-1,986,1240,0,0
-231,-216,0,0,0,0,0,0,0,0,0,-1,993,1240,0,0
-224,-216,0,0,0,0,0,0,0,0,0,-1,1000,1240,0,0
-217,-216,0,0,0,0,0,0,0,0,0,-1,1007,1240,0,0
-210,-216,0,0,0,0,0,0,0,0,0,-1,1014,1240,0,0
-203,-216,0,0,0,0,0,0,0,0,0,-1,1021,1240,0,0
-196,-216,0,0,0,0,0,0,0,0,0,-1,1028,1240,0,0
-189,-216,0,0,0,0,0,0,0,0,0,-1,1035,1240,0,0
-182,-216,0,0,0,0,0,0,0,0,0,-1,1042,1240,0,0
-175,-216,0,0,0,0,0,0,0,0,0,-1,1049,1240,0,0
-168,-216,0,0,0,0,0,0,0,0,0,-1,1056,1240,0,0
-161,-216,0,0,0,0,0,0,0,0,0,-1,1063,1240,0,0
-154,-216,0,0,0,0,0,0,0,0,0,-1,1070,1240,0,0
-147,-216,0,0,0,0,0,0,0,0,0,-1,1077,1240,0,0
-140,-216,0,0,0,0,0,0,0,0,0,-1,1084,1240,0,0
-133,-216,0,0,0,0,0,0,0,0,0,-1,1091,1240,0,0
-126,-216,0,0,0,0,0,0,0,0,0,-1,1098,1240,0,0
-119,-216,0,0,0,0,0,0,0,0,0,-1,1105,1240,0,0
-112,-216,0,0,0,0,0,0,0,0,0,-1,1112,1240,0,0
-105,-216,0,0,0,0,0,0,0,0,0,-1,1119,1240,0,0
-98,-216,0,0,0,0,0,0,0,0,0,-1,1126,1240,0,0
-91,-216,0,0,0,0,0,0,0,0,0,-1,1133,1240,0,0
-84,-216,0,0,0,0,0,0,0,0,0,-1,1140,1240,0,0
-77,-216,0,0,0,0,0,0,0,0,0,-1,1147,1240,0,0
-70,-216,0,0,0,0,0,0,0,0,0,-1,1154,1240,0,0
-63,-216,0,0,0,0,0,0,0,0,0,-1,1161,1240,0,0
-56,-216,0,0,0,0,0,0,0,0,0,-1,1168,1240,0,0
-49,-216,0,0,0,0,0,0,0,0,0,-1,1175,1240,0,0
-42,-216,0,0,0,0,0,0,0,0,0,-1,1182,1240,0,0
-35,-216,0,0,0,0,0,0,0,0,0,-1,1189,1240,0,0
-28,-216,0,0,0,0,0,0,0,0,0,-1,1196,1240,0,0
-21,-216,0,0,0,0,0,0,0,0,0,-1,1203,1240,0,0
-14,-216,0,0,0,0,0,0,0,0,0,-1,1210,1240,0,0
-7,-216,0,0,0,0,0,0,0,0,0,-1,1217,1240,0,0
0,-216,0,0,0,0,0,0,0,0,0,-1,1224,1240,0,0
7,-216,0,0,0,0,0,0,0,0,0,-1,1231,1240,0,0
14,-216,0,0,0,0,0,0,0,0,0,-1,1238,1240,0,0
21,-216,0,0,0,0,0,0,0,0,0,-1,1245,1240,0,0
28,-216,0,0,0,0,0,0,0,0,0,-1,1252,1240,0,0
35,-216,0,0,0,0,0,0,0,0,0,-1,1259,1240,0,0
42,-216,0,0,0,0,0,0,0,0,0,-1,1266,1240,0,0
49,-216,0,0,0,0,0,0,0,0,0,-1,1273,1240,0,0
56,-216,0,0,0,0,0,0,0,0,0,-1,1280,1240,0,0
63,-216,0,0,0,0,0,0,0,0,0,-1,1287,1240,0,0
70,-216,0,0,0,0,0,0,0,0,0,-1,1294,1240,0,0
77,-216,0,0,0,0,0,0,0,0,0,-1,1301,1240,0,0
84,-216,0,0,0,0,0,0,0,0,0,-1,1308,1240,0,0
91,-216,0,0,0,0,0,0,0,0,0,-1,1315,1240,0,0
98,-216,0,0,0,0,0,0,0,0,0,-1,1322,1240,0,0
105,-216,0,0,0,0,0,0,0,0,0,-1,1329,1240,0,0
112,-216,0,0,0,0,0,0,0,0,0,-1,1336,1240,0,0
119,-216,0,0,0,0,0,0,0,0,0,-1,1343,1240,0,0
126,-216,0,0,0,0,0,0,0,0,0,-1,1350,1240,0,0
133,-216,0,0,0,0,0,0,0,0,0,-1,1357,1240,0,0
140,-216,0,0,0,0,0,0,0,0,0,-1,1364,1240,0,0
147,-216,0,0,0,0,0,0,0,0,0,-1,1371,1240,0,0
154,-216,0,0,0,0,0,0,0,0,0,-1,1378,1240,0,0
161,-216,0,0,0,0,0,0,0,0,0,-1,1385,1240,0,0
168,-216,0,0,0,0,0,0,0,0,0,-1,1392,1240,0,0
175,-216,0,0,0,0,0,0,0,0,0,-1,1399,1240,0,0
182,-216,0,0,0,0,0,0,0,0,0,-1,1406,1240,0,0
189,-216,0,0,0,0,0,0,0,0,0,-1,1413,1240,0,0
196,-216,0,0,0,0,0,0,0,0,0,-1,1420,1240,0,0
203,-216,0,0,0,0,0,0,0,0,0,-1,1427,1240,0,0
210,-216,0,0,0,0,0,0,0,0,0,-1,1434,1240,0,0
217,-216,0,0,0,0,0,0,0,0,0,-1,1441,1240,0,0
224,-216,0,0,0,0,0,0,0,0,0,-1,1448,1240,0,0
231,-216,0,0,0,0,0,0,0,0,0,-1,1455,1240,0,0
238,-216,0,0,0,0,0,0,0,0,0,-1,1462,1240,0,0
245,-216,0,0,0,0,0,0,0,0,0,-1,1469,1240,0,0
252,-216,0,0,0,0,0,0,0,0,0,-1,1476,1240,0,0
259,-216,0,0,0,0,0,0,0,0,0,-1,1483,1240,0,0
266,-216,0,0,0,0,0,0,0,0,0,-1,1490,1240,0,0
273,-216,0,0,0,0,0,0,0,0,0,-1,1497,1240,0,0
280,-216,0,0,0,0,0,0,0,0,0,-1,1504,1240,0,0
287,-216,0,0,0,0,0,0,0,0,0,-1,1511,1240,0,0
294,-216,0,0,0,0,0,0,0,0,0,-1,1518,1240,0,0
301,-216,0,0,0,0,0,0,0,0,0,-1,1525,1240,0,0
308,-216,0,0,0,0,0,0,0,0,0,-1,1532,1240,0,0
315,-216,0,0,0,0,0,0,0,0,0,-1,1539,1240,0,0
322,-216,0,0,0,0,0,0,0,0,0,-1,1546,1240,0,0
329,-216,0,0,0,0,0,0,0,0,0,-1,1553,1240,0,0
336,-216,0,0,0,0,0,0,0,0,0,-1,1560,1240,0,0
343,-216,0,0,0,0,0,0,0,0,0,-1,1567,1240,0,0
350,-216,0,0,0,0,0,0,0,0,0,-1,1574,1240,0,0
357,-216,0,0,0,0,0,0,0,0,0,-1,1581,1240,0,0
364,-216,0,0,0,0,0,0,0,0,0,-1,1588,1240,0,0
371,-216,0,0,0,0,0,0,0,0,0,-1,1595,1240,0,0
378,-216,0,0,0,0,0,0,0,0,0,-1,1602,1240,0,0
385,-216,0,0,0,0,0,0,0,0,0,-1,1609,1240,0,0
392,-216,0,0,0,0,0,0,0,0,0,-1,1616,1240,0,0
399,-216,0,0,0,0,0,0,0,0,0,-1,1623,1240,0,0
406,-216,0,0,0,0,0,0,0,0,0,-1,1630,1240,0,0
413,-216,0,0,0,0,0,0,0,0,0,-1,1637,1240,0,0
420,-216,0,0,0,0,0,0,0,0,0,-1,1644,1240,0,0
427,-216,0,0,0,0,0,0,0,0,0,-1,1651,1240,0,0
434,-216,0,0,0,0,0,0,0,0,0,-1,1658,1240,0,0
441,-216,0,0,0,0,0,0,0,0,0,-1,1665,1240,0,0
448,-216,0,0,0,0,0,0,0,0,0,-1,1672,1240,0,0
455,-216,0,0,0,0,0,0,0,0,0,-1,1679,1240,0,0
462,-216,0,0,0,0,0,0,0,0,0,-1,1686,1240,0,0
469,-216,0,0,0,0,0,0,0,0,0,-1,1693,1240,0,0
476,-216,0,0,0,0,0,0,0,0,0,-1,1700,1240,0,0
483,-216,0,0,0,0,0,0,0,0,0,-1,1707,1240,0,0
490,-216,0,0,0,0,0,0,0,0,0,-1,1714,1240,0,0
497,-216,0,0,0,0,0,0,0,0,0,-1,1721,1240,0,0
504,-216,0,0,0,0,0,0,0,0,0,-1,1728,1240,0,0
511,-216,0,0,0,0,0,0,0,0,0,-1,1735,1240,0,0
518,-216,0,0,0,0,0,0,0,0,0,-1,1742,1240,0,0
525,-216,0,0,0,0,0,0,0,0,0,-1,1749,1240,0,0
532,-216,0,0,0,0,0,0,0,0,0,-1,1756,1240,0,0
539,-216,0,0,0,0,0,0,0,0,0,-1,1763,1240,0,0
546,-216,0,0,0,0,0,0,0,0,0,-1,1770,1240,0,0
553,-216,0,0,0,0,0,0,0,0,0,-1,1777,1240,0,0
560,-216,0,0,0,0,0,0,0,0,0,-1,1784,1240,0,0
567,-216,0,0,0,0,0,0,0,0,0,-1,1791,1240,0,0
574,-216,0,0,0,0,0,0,0,0,0,-1,1798,1240,0,0
581,-216,0,0,0,0,0,0,0,0,0,-1,1805,1240,0,0
588,-216,0,0,0,0,0,0,0,0,0,-1,1812,1240,0,0
595,-216,0,0,0,0,0,0,0,0,0,-1,1819,1240,0,0
602,-216,0,0,0,0,0,0,0,0,0,-1,1826,1240,0,0
609,-216,0,0,0,0,0,0,0,0,0,-1,1833,1240,0,0
616,-216,0,0,0,0,0,0,0,0,0,-1,1840,1240,0,0
623,-216,214.302,8.52466,0,0,0,0,0,0,0,-1,1847,1240,214.302,-8.52461
630,-216,214.298,8.63391,0,0,0,0,0,0,0,-1,1854,1240,214.298,-8.63394
637,-216,214.35,8.72534,0,0,0,0,0,0,0,-1,1861,1240,214.35,-8.72534
644,-216,214.367,8.7511,0,0,0,0,0,0,0,-1,1868,1240,214.367,-8.75109
651,-216,214.389,8.75488,0,0,0,0,0,0,0,-1,1875,1240,214.389,-8.75484
658,-216,214.431,8.71643,0,0,0,0,0,0,0,-1,1882,1240,214.431,-8.71641
665,-216,101.954,2.26392,0,0,0,0,0,0,0,-1,1889,1240,101.954,-2.26386
672,-216,68.6339,1.33826,0,0,0,0,0,0,0,-1,1896,1240,68.6339,-1.33828
679,-216,47.3159,3.82703,0,0,0,0,0,0,0,-1,1903,1240,47.316,-3.82708
686,-216,21.5172,6.19458,0,0,0,0,0,0,0,-1,1910,1240,21.5172,-6.19453
693,-216,56.1224,12.7039,0,0,0,0,0,0,0,-1,1917,1240,56.1224,-12.7038
700,-216,82.1761,20.2852,0,0,0,0,0,0,0,-1,1924,1240,82.1761,-20.2852
707,-216,170.891,39.0442,0,0,0,0,0,0,0,-1,1931,1240,170.891,-39.0442
714,-216,197.383,36.8571,0,0,0,0,0,0,0,-1,1938,1240,197.383,-36.8571
721,-216,197.056,35.5751,0.00445442,0.0137931,0.00410662,0.0153421,0.00290548,1.21011,0.00941028,0.0292194,1945,1240,197.056,-35.5751
728,-216,197.013,34.0488,-0.00147743,0.0184798,0.00734518,0.0208917,-0.00388931,1.25353,0.0153889,0.026477,1952,1240,197.013,-34.0488
735,-216,196.762,32.6897,0,0,0,0,0,0,0,-1,1959,1240,196.762,-32.6897
742,-216,177.203,31.9943,0,0,0,0,0,0,0,-1,1966,1240,177.203,-31.9942
749,-216,196.055,30.1208,0,0,0,0,0,0,0,-1,1973,1240,196.055,-30.1208
756,-216,195.727,28.7279,-0.0252524,0.0336926,0.0203443,0.0400324,-0.0315922,1.26871,0.0414481,0.0235784,1980,1240,195.727,-28.7279
763,-216,195.38,27.3766,-0.030627,0.0366225,0.0232444,0.0438747,-0.0378792,1.26837,0.0472429,0.0436198,1987,1240,195.38,-27.3766
770,-216,195.279,25.9862,0,0,0,0,0,0,0,-1,1994,1240,195.279,-25.9862
777,-216,71.583,6.68445,0,0,0,0,0,0,0,-1,2001,1240,71.5829,-6.6844
784,-216,68.2205,0.660034,0,0,0,0,0,0,0,-1,2008,1240,68.2204,-0.660033
791,-216,67.71,1.8468,0,0,0,0,0,0,0,-1,2015,1240,67.7099,-1.84686
798,-216,0,0,0,0,0,0,0,0,0,-1,2022,1240,0,0
805,-216,0,0,0,0,0,0,0,0,0,-1,2029,1240,0,0
812,-216,0,0,0,0,0,0,0,0,0,-1,2036,1240,0,0
-700,-223,0,0,0,0,0,0,0,0,0,-1,524,1247,0,0
-693,-223,0,0,0,0,0,0,0,0,0,-1,531,1247,0,0
-686,-223,0,0,0,0,0,0,0,0,0,-1,538,1247,0,0
-679,-223,0,0,0,0,0,0,0,0,0,-1,545,1247,0,0
-672,-223,-149.914,11.8156,0,0,0,0,0,0,0,-1,552,1247,-149.914,-11.8155
-665,-223,-129.016,15.0405,0,0,0,0,0,0,0,-1,559,1247,-129.016,-15.0406
-658,-223,-81.3573,25.3363,0,0,0,0,0,0,0,-1,566,1247,-81.3573,-25.3363
-651,-223,-81.1982,27.5779,0,0,0,0,0,0,0,-1,573,1247,-81.1982,-27.5779
-644,-223,-63.6605,-3.14734,0,0,0,0,0,0,0,-1,580,1247,-63.6605,3.14729
-637,-223,-49.2922,0.294189,0,0,0,0,0,0,0,-1,587,1247,-49.2922,-0.294245
-630,-223,-186.86,26.7722,0,0,0,0,0,0,0,-1,594,1247,-186.86,-26.7722
-623,-223,-187.512,27.9431,0,0,0,0,0,0,0,-1,601,1247,-187.512,-27.9431
-616,-223,-187.757,29.15,-0.0157022,0.0408295,-0.0150665,0.0445942,-0.0194669,-1.32594,0.0379223,0.0228672,608,1247,-187.757,-29.15
-609,-223,-187.973,30.4204,-0.0156558,0.0353124,-0.0156878,0.039754,-0.0200974,-1.29489,0.0351709,0.0172443,615,1247,-187.973,-30.4204
-602,-223,-188.114,31.8142,-0.0154652,0.0296102,-0.0154825,0.0344157,-0.0202708,-1.26984,0.0319234,0.0258379,622,1247,-188.114,-31.8142
-595,-223,-188.623,32.5464,-0.0148667,0.0237151,-0.0142459,0.0284052,-0.0195568,-1.25275,0.0278475,0.0482856,629,1247,-188.623,-32.5464
-588,-223,-189.221,33.2609,0,0,0,0,0,0,0,-1,636,1247,-189.221,-33.2609
-581,-223,-73.8349,22.21,0,0,0,0,0,0,0,-1,643,1247,-73.8349,-22.21
-574,-223,-47.5632,13.7034,0,0,0,0,0,0,0,-1,650,1247,-47.5632,-13.7034
-567,-223,-57.4084,18.6537,0,0,0,0,0,0,0,-1,657,1247,-57.4084,-18.6536
-560,-223,-31.8748,9.50732,0,0,0,0,0,0,0,-1,664,1247,-31.8748,-9.50735
-553,-223,-11.4025,4.14722,0,0,0,0,0,0,0,-1,671,1247,-11.4025,-4.14719
-546,-223,-26.9034,-0.148682,0,0,0,0,0,0,0,-1,678,1247,-26.9034,0.14867
-539,-223,-36.7405,0.35376,0,0,0,0,0,0,0,-1,685,1247,-36.7405,-0.353807
-532,-223,-47.6184,1.39844,0,0,0,0,0,0,0,-1,692,1247,-47.6184,-1.3984
-525,-223,-68.3091,0.599243,0,0,0,0,0,0,0,-1,699,1247,-68.3091,-0.599261
-518,-223,-71.9418,0.685669,0,0,0,0,0,0,0,-1,706,1247,-71.9418,-0.685676
-511,-223,-71.9317,0.546631,0,0,0,0,0,0,0,-1,713,1247,-71.9317,-0.546598
-504,-223,-71.9573,0.504639,0,0,0,0,0,0,0,-1,720,1247,-71.9573,-0.504659
-497,-223,0,0,0,0,0,0,0,0,0,-1,727,1247,0,0
-490,-223,0,0,0,0,0,0,0,0,0,-1,734,1247,0,0
-483,-223,0,0,0,0,0,0,0,0,0,-1,741,1247,0,0
-476,-223,0,0,0,0,0,0,0,0,0,-1,748,1247,0,0
-469,-223,0,0,0,0,0,0,0,0,0,-1,755,1247,0,0
-462,-223,0,0,0,0,0,0,0,0,0,-1,762,1247,0,0
-455,-223,0,0,0,0,0,0,0,0,0,-1,769,1247,0,0
-448,-223,0,0,0,0,0,0,0,0,0,-1,776,1247,0,0
-441,-223,0,0,0,0,0,0,0,0,0,-1,783,1247,0,0
-434,-223,0,0,0,0,0,0,0,0,0,-1,790,1247,0,0
-427,-223,0,0,0,0,0,0,0,0,0,-1,797,1247,0,0
-420,-223,0,0,0,0,0,0,0,0,0,-1,804,1247,0,0
-413,-223,0,0,0,0,0,0,0,0,0,-1,811,1247,0,0
-406,-223,0,0,0,0,0,0,0,0,0,-1,818,1247,0,0
-399,-223,0,0,0,0,0,0,0,0,0,-1,825,1247,0,0
-392,-223,0,0,0,0,0,0,0,0,0,-1,832,1247,0,0
-385,-223,0,0,0,0,0,0,0,0,0,-1,839,1247,0,0
-378,-223,0,0,0,0,0,0,0,0,0,-1,846,1247,0,0
-371,-223,0,0,0,0,0,0,0,0,0,-1,853,1247,0,0
-364,-223,0,0,0,0,0,0,0,0,0,-1,860,1247,0,0
-357,-223,0,0,0,0,0,0,0,0,0,-1,867,1247,0,0
-350,-223,0,0,0,0,0,0,0,0,0,-1,874,1247,0,0
-343,-223,0,0,0,0,0,0,0,0,0,-1,881,1247,0,0
-336,-223,0,0,0,0,0,0,0,0,0,-1,888,1247,0,0
-329,-223,0,0,0,0,0,0,0,0,0,-1,895,1247,0,0
-322,-223,0,0,0,0,0,0,0,0,0,-1,902,1247,0,0
-315,-223,0,0,0,0,0,0,0,0,0,-1,909,1247,0,0
-308,-223,0,0,0,0,0,0,0,0,0,-1,916,1247,0,0
-301,-223,0,0,0,0,0,0,0,0,0,-1,923,1247,0,0
-294,-223,0,0,0,0,0,0,0,0,0,-1,930,1247,0,0
-287,-223,0,0,0,0,0,0,0,0,0,-1,937,1247,0,0
-280,-223,0,0,0,0,0,0,0,0,0,-1,944,1247,0,0
-273,-223,0,0,0,0,0,0,0,0,0,-1,951,1247,0,0
-266,-223,0,0,0,0,0,0,0,0,0,-1,958,1247,0,0
-259,-223,0,0,0,0,0,0,0,0,0,-1,965,1247,0,0
-252,-223,0,0,0,0,0,0,0,0,0,-1,972,1247,0,0
-245,-223,0,0,0,0,0,0,0,0,0,-1,979,1247,0,0
-238,-223,0,0,0,0,0,0,0,0,0,-1,986,1247,0,0
-231,-223,0,0,0,0,0,0,0,0,0,-1,993,1247,0,0
-224,-223,0,0,0,0,0,0,0,0,0,-1,1000,1247,0,0
-217,-223,0,0,0,0,0,0,0,0,0,-1,1007,1247,0,0
-210,-223,0,0,0,0,0,0,0,0,0,-1,1014,1247,0,0
-203,-223,0,0,0,0,0,0,0,0,0,-1,1021,1247,0,0
-196,-223,0,0,0,0,0,0,0,0,0,-1,1028,1247,0,0
-189,-223,0,0,0,0,0,0,0,0,0,-1,1035,1247,0,0
-182,-223,0,0,0,0,0,0,0,0,0,-1,1042,1247,0,0
-175,-223,0,0,0,0,0,0,0,0,0,-1,1049,1247,0,0
-168,-223,0,0,0,0,0,0,0,0,0,-1,1056,1247,0,0
-161,-223,0,0,0,0,0,0,0,0,0,-1,1063,1247,0,0
-154,-223,0,0,0,0,0,0,0,0,0,-1,1070,1247,0,0
-147,-223,0,0,0,0,0,0,0,0,0,-1,1077,1247,0,0
-140,-223,0,0,0,0,0,0,0,0,0,-1,1084,1247,0,0
-133,-223,0,0,0,0,0,0,0,0,0,-1,1091,1247,0,0
-126,-223,0,0,0,0,0,0,0,0,0,-1,1098,1247,0,0
-119,-223,0,0,0,0,0,0,0,0,0,-1,1105,1247,0,0
-112,-223,0,0,0,0,0,0,0,0,0,-1,1112,1247,0,0
-105,-223,0,0,0,0,0,0,0,0,0,-1,1119,1247,0,0
-98,-223,0,0,0,0,0,0,0,0,0,-1,1126,1247,0,0
-91,-223,0,0,0,0,0,0,0,0,0,-1,1133,1247,0,0
-84,-223,0,0,0,0,0,0,0,0,0,-1,1140,1247,0,0
-77,-223,0,0,0,0,0,0,0,0,0,-1,1147,1247,0,0
-70,-223,0,0,0,0,0,0,0,0,0,-1,1154,1247,0,0
-63,-223,0,0,0,0,0,0,0,0,0,-1,1161,1247,0,0
-56,-223,0,0,0,0,0,0,0,0,0,-1,1168,1247,0,0
-49,-223,0,0,0,0,0,0,0,0,0,-1,1175,1247,0,0
-42,-223,0,0,0,0,0,0,0,0,0,-1,1182,1247,0,0
-35,-223,0,0,0,0,0,0,0,0,0,-1,1189,1247,0,0
-28,-223,0,0,0,0,0,0,0,0,0,-1,1196,1247,0,0
-21,-223,0,0,0,0,0,0,0,0,0,-1,1203,1247,0,0
-14,-223,0,0,0,0,0,0,0,0,0,-1,1210,1247,0,0
-7,-223,0,0,0,0,0,0,0,0,0,-1,1217,1247,0,0
0,-223,0,0,0,0,0,0,0,0,0,-1,1224,1247,0,0
7,-223,0,0,0,0,0,0,0,0,0,-1,1231,1247,0,0
14,-223,0,0,0,0,0,0,0,0,0,-1,1238,1247,0,0
21,-223,0,0,0,0,0,0,0,0,0,-1,1245,1247,0,0
28,-223,0,0,0,0,0,0,0,0,0,-1,1252,1247,0,0
35,-223,0,0,0,0,0,0,0,0,0,-1,1259,1247,0,0
42,-223,0,0,0,0,0,0,0,0,0,-1,1266,1247,0,0
49,-223,0,0,0,0,0,0,0,0,0,-1,1273,1247,0,0
56,-223,0,0,0,0,0,0,0,0,0,-1,1280,1247,0,0
63,-223,0,0,0,0,0,0,0,0,0,-1,1287,1247,0,0
70,-223,0,0,0,0,0,0,0,0,0,-1,1294,1247,0,0
77,-223,0,0,0,0,0,0,0,0,0,-1,1301,1247,0,0
84,-223,0,0,0,0,0,0,0,0,0,-1,1308,1247,0,0
91,-223,0,0,0,0,0,0,0,0,0,-1,1315,1247,0,0
98,-223,0,0,0,0,0,0,0,0,0,-1,1322,1247,0,0
105,-223,0,0,0,0,0,0,0,0,0,-1,1329,1247,0,0
112,-223,0,0,0,0,0,0,0,0,0,-1,1336,1247,0,0
119,-223,0,0,0,0,0,0,0,0,0,-1,1343,1247,0,0
126,-223,0,0,0,0,0,0,0,0,0,-1,1350,1247,0,0
133,-223,0,0,0,0,0,0,0,0,0,-1,1357,1247,0,0
140,-223,0,0,0,0,0,0,0,0,0,-1,1364,1247,0,0
147,-223,0,0,0,0,0,0,0,0,0,-1,1371,1247,0,0
154,-223,0,0,0,0,0,0,0,0,0,-1,1378,1247,0,0
161,-223,0,0,0,0,0,0,0,0,0,-1,1385,1247,0,0
168,-223,0,0,0,0,0,0,0,0,0,-1,1392,1247,0,0
175,-223,0,0,0,0,0,0,0,0,0,-1,1399,1247,0,0
182,-223,0,0,0,0,0,0,0,0,0,-1,1406,1247,0,0
189,-223,0,0,0,0,0,0,0,0,0,-1,1413,1247,0,0
196,-223,0,0,0,0,0,0,0,0,0,-1,1420,1247,0,0
203,-223,0,0,0,0,0,0,0,0,0,-1,1427,1247,0,0
210,-223,0,0,0,0,0,0,0,0,0,-1,1434,1247,0,0
217,-223,0,0,0,0,0,0,0,0,0,-1,1441,1247,0,0
224,-223,0,0,0,0,0,0,0,0,0,-1,1448,1247,0,0
231,-223,0,0,0,0,0,0,0,0,0,-1,1455,1247,0,0
238,-223,0,0,0,0,0,0,0,0,0,-1,1462,1247,0,0
245,-223,0,0,0,0,0,0,0,0,0,-1,1469,1247,0,0
252,-223,0,0,0,0,0,0,0,0,0,-1,1476,1247,0,0
259,-223,0,0,0,0,0,0,0,0,0,-1,1483,1247,0,0
266,-223,0,0,0,0,0,0,0,0,0,-1,1490,1247,0,0
273,-223,0,0,0,0,0,0,0,0,0,-1,1497,1247,0,0
280,-223,0,0,0,0,0,0,0,0,0,-1,1504,1247,0,0
287,-223,0,0,0,0,0,0,0,0,0,-1,1511,1247,0,0
294,-223,0,0,0,0,0,0,0,0,0,-1,1518,1247,0,0
301,-223,0,0,0,0,0,0,0,0,0,-1,1525,1247,0,0
308,-223,0,0,0,0,0,0,0,0,0,-1,1532,1247,0,0
315,-223,0,0,0,0,0,0,0,0,0,-1,1539,1247,0,0
322,-223,0,0,0,0,0,0,0,0,0,-1,1546,1247,0,0
329,-223,0,0,0,0,0,0,0,0,0,-1,1553,1247,0,0
336,-223,0,0,0,0,0,0,0,0,0,-1,1560,1247,0,0
343,-223,0,0,0,0,0,0,0,0,0,-1,1567,1247,0,0
350,-223,0,0,0,0,0,0,0,0,0,-1,1574,1247,0,0
357,-223,0,0,0,0,0,0,0,0,0,-1,1581,1247,0,0
364,-223,0,0,0,0,0,0,0,0,0,-1,1588,1247,0,0
371,-223,0,0,0,0,0,0,0,0,0,-1,1595,1247,0,0
378,-223,0,0,0,0,0,0,0,0,0,-1,1602,1247,0,0
385,-223,0,0,0,0,0,0,0,0,0,-1,1609,1247,0,0
392,-223,0,0,0,0,0,0,0,0,0,-1,1616,1247,0,0
399,-223,0,0,0,0,0,0,0,0,0,-1,1623,1247,0,0
406,-223,0,0,0,0,0,0,0,0,0,-1,1630,1247,0,0
413,-223,0,0,0,0,0,0,0,0,0,-1,1637,1247,0,0
420,-223,0,0,0,0,0,0,0,0,0,-1,1644,1247,0,0
427,-223,0,0,0,0,0,0,0,0,0,-1,1651,1247,0,0
434,-223,0,0,0,0,0,0,0,0,0,-1,1658,1247,0,0
441,-223,0,0,0,0,0,0,0,0,0,-1,1665,1247,0,0
448,-223,0,0,0,0,0,0,0,0,0,-1,1672,1247,0,0
455,-223,0,0,0,0,0,0,0,0,0,-1,1679,1247,0,0
462,-223,0,0,0,0,0,0,0,0,0,-1,1686,1247,0,0
469,-223,0,0,0,0,0,0,0,0,0,-1,1693,1247,0,0
476,-223,0,0,0,0,0,0,0,0,0,-1,1700,1247,0,0
483,-223,0,0,0,0,0,0,0,0,0,-1,1707,1247,0,0
490,-223,0,0,0,0,0,0,0,0,0,-1,1714,1247,0,0
497,-223,0,0,0,0,0,0,0,0,0,-1,1721,1247,0,0
504,-223,0,0,0,0,0,0,0,0,0,-1,1728,1247,0,0
511,-223,0,0,0,0,0,0,0,0,0,-1,1735,1247,0,0
518,-223,0,0,0,0,0,0,0,0,0,-1,1742,1247,0,0
525,-223,0,0,0,0,0,0,0,0,0,-1,1749,1247,0,0
532,-223,0,0,0,0,0,0,0,0,0,-1,1756,1247,0,0
539,-223,0,0,0,0,0,0,0,0,0,-1,1763,1247,0,0
546,-223,0,0,0,0,0,0,0,0,0,-1,1770,1247,0,0
553,-223,0,0,0,0,0,0,0,0,0,-1,1777,1247,0,0
560,-223,0,0,0,0,0,0,0,0,0,-1,1784,1247,0,0
567,-223,0,0,0,0,0,0,0,0,0,-1,1791,1247,0,0
574,-223,0,0,0,0,0,0,0,0,0,-1,1798,1247,0,0
581,-223,0,0,0,0,0,0,0,0,0,-1,1805,1247,0,0
588,-223,0,0,0,0,0,0,0,0,0,-1,1812,1247,0,0
595,-223,0,0,0,0,0,0,0,0,0,-1,1819,1247,0,0
602,-223,0,0,0,0,0,0,0,0,0,-1,1826,1247,0,0
609,-223,0,0,0,0,0,0,0,0,0,-1,1833,1247,0,0
616,-223,0,0,0,0,0,0,0,0,0,-1,1840,1247,0,0
623,-223,214.367,8.97827,0,0,0,0,0,0,0,-1,1847,1247,214.367,-8.97822
630,-223,214.395,8.87305,0,0,0,0,0,0,0,-1,1854,1247,214.395,-8.87307
637,-223,214.423,8.76794,0,0,0,0,0,0,0,-1,1861,1247,214.423,-8.76795
644,-223,214.319,8.72791,0,0,0,0,0,0,0,-1,1868,1247,214.319,-8.72791
651,-223,214.383,8.53296,0,0,0,0,0,0,0,-1,1875,1247,214.383,-8.53298
658,-223,113.084,3.32898,0,0,0,0,0,0,0,-1,1882,1247,113.084,-3.32899
665,-223,68.7177,1.6427,0,0,0,0,0,0,0,-1,1889,1247,68.7176,-1.64275
672,-223,56.4625,2.72424,0,0,0,0,0,0,0,-1,1896,1247,56.4626,-2.72418
679,-223,43.2783,2.46973,0,0,0,0,0,0,0,-1,1903,1247,43.2784,-2.46978
686,-223,40.7926,10.0316,0,0,0,0,0,0,0,-1,1910,1247,40.7926,-10.0316
693,-223,81.1904,21.5211,0,0,0,0,0,0,0,-1,1917,1247,81.1904,-21.5211
700,-223,102.817,28.546,0,0,0,0,0,0,0,-1,1924,1247,102.817,-28.546
707,-223,195.834,38.865,0,0,0,0,0,0,0,-1,1931,1247,195.834,-38.865
714,-223,195.521,37.2212,0,0,0,0,0,0,0,-1,1938,1247,195.52,-37.2212
721,-223,195.228,35.6277,0.00282196,0.0145553,0.00543136,0.0166835,0.000693786,1.19735,0.0108984,0.0354279,1945,1247,195.228,-35.6277
728,-223,195.29,34.094,-0.00306305,0.0192565,0.00905025,0.022465,-0.00627157,1.2301,0.017447,0.0341682,1952,1247,195.29,-34.094
735,-223,195.113,32.7213,0,0,0,0,0,0,0,-1,1959,1247,195.113,-32.7213
742,-223,194.706,31.062,0,0,0,0,0,0,0,-1,1966,1247,194.706,-31.0621
749,-223,194.378,29.8862,-0.0214343,0.0309311,0.0203027,0.0378805,-0.0283836,1.24101,0.0383883,0.0437041,1973,1247,194.378,-29.8862
756,-223,194.028,28.7166,-0.0277618,0.0338272,0.0240484,0.0421048,-0.0360394,1.23929,0.0451618,0.0259105,1980,1247,194.028,-28.7166
763,-223,193.675,27.5568,-0.0335799,0.0364259,0.0275436,0.0459635,-0.0431175,1.23745,0.0514397,0.0332241,1987,1247,193.675,-27.5568
770,-223,193.652,26.2593,0,0,0,0,0,0,0,-1,1994,1247,193.651,-26.2593
777,-223,69.5923,7.03833,0,0,0,0,0,0,0,-1,2001,1247,69.5922,-7.03835
784,-223,68.8677,0.507813,0,0,0,0,0,0,0,-1,2008,1247,68.8676,-0.507816
791,-223,34.7136,2.92554,0,0,0,0,0,0,0,-1,2015,1247,34.7137,-2.92555
798,-223,0,0,0,0,0,0,0,0,0,-1,2022,1247,0,0
805,-223,0,0,0,0,0,0,0,0,0,-1,2029,1247,0,0
812,-223,0,0,0,0,0,0,0,0,0,-1,2036,1247,0,0
-700,-230,0,0,0,0,0,0,0,0,0,-1,524,1254,0,0
-693,-230,0,0,0,0,0,0,0,0,0,-1,531,1254,0,0
-686,-230,0,0,0,0,0,0,0,0,0,-1,538,1254,0,0
-679,-230,0,0,0,0,0,0,0,0,0,-1,545,1254,0,0
-672,-230,-127.6,12.7964,0,0,0,0,0,0,0,-1,552,1254,-127.6,-12.7964
-665,-230,-81.2452,24.4174,0,0,0,0,0,0,0,-1,559,1254,-81.2452,-24.4173
-658,-230,-81.4997,26.5293,0,0,0,0,0,0,0,-1,566,1254,-81.4997,-26.5293
-651,-230,-81.583,28.701,0,0,0,0,0,0,0,-1,573,1254,-81.583,-28.701
-644,-230,-62.1854,10.1193,0,0,0,0,0,0,0,-1,580,1254,-62.1854,-10.1193
-637,-230,-49.1636,-0.158325,0,0,0,0,0,0,0,-1,587,1254,-49.1636,0.158288
-630,-230,-41.3331,5.24744,0,0,0,0,0,0,0,-1,594,1254,-41.3331,-5.24744
-623,-230,-185.908,27.6857,0,0,0,0,0,0,0,-1,601,1254,-185.908,-27.6857
-616,-230,-186.101,29.0514,-0.0156562,0.0423,-0.0152221,0.0460548,-0.019411,-1.32896,0.0388261,0.026179,608,1254,-186.101,-29.0514
-609,-230,-186.309,30.4199,-0.0156618,0.0369613,-0.0158018,0.0413417,-0.0200422,-1.30038,0.0361442,0.0163012,615,1254,-186.309,-30.42
-602,-230,-186.498,31.745,-0.0153604,0.0314064,-0.0154556,0.0360526,-0.0200067,-1.27877,0.0328048,0.020354,622,1254,-186.498,-31.745
-595,-230,-187.024,32.7791,-0.0145336,0.0256337,-0.0140212,0.0300439,-0.0189438,-1.26606,0.028524,0.0474144,629,1254,-187.024,-32.7791
-588,-230,-187.593,33.7413,0,0,0,0,0,0,0,-1,636,1254,-187.593,-33.7413
-581,-230,-58.0035,16.7986,0,0,0,0,0,0,0,-1,643,1254,-58.0036,-16.7985
-574,-230,-179.955,38.5265,0,0,0,0,0,0,0,-1,650,1254,-179.955,-38.5265
-567,-230,-56.2896,18.8512,0,0,0,0,0,0,0,-1,657,1254,-56.2896,-18.8512
-560,-230,-56.3123,19.355,0,0,0,0,0,0,0,-1,664,1254,-56.3123,-19.355
-553,-230,-13.1939,4.9718,0,0,0,0,0,0,0,-1,671,1254,-13.1939,-4.97175
-546,-230,-15.23,0.453979,0,0,0,0,0,0,0,-1,678,1254,-15.23,-0.453996
-539,-230,-25.8232,0.512817,0,0,0,0,0,0,0,-1,685,1254,-25.8232,-0.512878
-532,-230,-21.1644,1.52966,0,0,0,0,0,0,0,-1,692,1254,-21.1644,-1.52969
-525,-230,-29.4775,0.731445,0,0,0,0,0,0,0,-1,699,1254,-29.4775,-0.731432
-518,-230,-71.6359,0.529785,0,0,0,0,0,0,0,-1,706,1254,-71.6359,-0.529735
-511,-230,-71.8687,0.53125,0,0,0,0,0,0,0,-1,713,1254,-71.8687,-0.531259
-504,-230,-72.0195,0.526123,0,0,0,0,0,0,0,-1,720,1254,-72.0195,-0.526122
-497,-230,0,0,0,0,0,0,0,0,0,-1,727,1254,0,0
-490,-230,0,0,0,0,0,0,0,0,0,-1,734,1254,0,0
-483,-230,0,0,0,0,0,0,0,0,0,-1,741,1254,0,0
-476,-230,0,0,0,0,0,0,0,0,0,-1,748,1254,0,0
-469,-230,0,0,0,0,0,0,0,0,0,-1,755,1254,0,0
-462,-230,0,0,0,0,0,0,0,0,0,-1,762,1254,0,0
-455,-230,0,0,0,0,0,0,0,0,0,-1,769,1254,0,0
-448,-230,0,0,0,0,0,0,0,0,0,-1,776,1254,0,0
-441,-230,0,0,0,0,0,0,0,0,0,-1,783,1254,0,0
-434,-230,0,0,0,0,0,0,0,0,0,-1,790,1254,0,0
-427,-230,0,0,0,0,0,0,0,0,0,-1,797,1254,0,0
-420,-230,0,0,0,0,0,0,0,0,0,-1,804,1254,0,0
-413,-230,0,0,0,0,0,0,0,0,0,-1,811,1254,0,0
-406,-230,0,0,0,0,0,0,0,0,0,-1,818,1254,0,0
-399,-230,0,0,0,0,0,0,0,0,0,-1,825,1254,0,0
-392,-230,0,0,0,0,0,0,0,0,0,-1,832,1254,0,0
-385,-230,0,0,0,0,0,0,0,0,0,-1,839,1254,0,0
-378,-230,0,0,0,0,0,0,0,0,0,-1,846,1254,0,0
-371,-230,0,0,0,0,0,0,0,0,0,-1,853,1254,0,0
-364,-230,0,0,0,0,0,0,0,0,0,-1,860,1254,0,0
-357,-230,0,0,0,0,0,0,0,0,0,-1,867,1254,0,0
-350,-230,0,0,0,0,0,0,0,0,0,-1,874,1254,0,0
-343,-230,0,0,0,0,0,0,0,0,0,-1,881,1254,0,0
-336,-230,0,0,0,0,0,0,0,0,0,-1,888,1254,0,0
-329,-230,0,0,0,0,0,0,0,0,0,-1,895,1254,0,0
-322,-230,0,0,0,0,0,0,0,0,0,-1,902,1254,0,0
-315,-230,0,0,0,0,0,0,0,0,0,-1,909,1254,0,0
-308,-230,0,0,0,0,0,0,0,0,0,-1,916,1254,0,0
-301,-230,0,0,0,0,0,0,0,0,0,-1,923,1254,0,0
-294,-230,0,0,0,0,0,0,0,0,0,-1,930,1254,0,0
-287,-230,0,0,0,0,0,0,0,0,0,-1,937,1254,0,0
-280,-230,0,0,0,0,0,0,0,0,0,-1,944,1254,0,0
-273,-230,0,0,0,0,0,0,0,0,0,-1,951,1254,0,0
-266,-230,0,0,0,0,0,0,0,0,0,-1,958,1254,0,0
-259,-230,0,0,0,0,0,0,0,0,0,-1,965,1254,0,0
-252,-230,0,0,0,0,0,0,0,0,0,-1,972,1254,0,0
-245,-230,0,0,0,0,0,0,0,0,0,-1,979,1254,0,0
-238,-230,0,0,0,0,0,0,0,0,0,-1,986,1254,0,0
-231,-230,0,0,0,0,0,0,0,0,0,-1,993,1254,0,0
-224,-230,0,0,0,0,0,0,0,0,0,-1,1000,1254,0,0
-217,-230,0,0,0,0,0,0,0,0,0,-1,1007,1254,0,0
-210,-230,0,0,0,0,0,0,0,0,0,-1,1014,1254,0,0
-203,-230,0,0,0,0,0,0,0,0,0,-1,1021,1254,0,0
-196,-230,0,0,0,0,0,0,0,0,0,-1,1028,1254,0,0
-189,-230,0,0,0,0,0,0,0,0,0,-1,1035,1254,0,0
-182,-230,0,0,0,0,0,0,0,0,0,-1,1042,1254,0,0
-175,-230,0,0,0,0,0,0,0,0,0,-1,1049,1254,0,0
-168,-230,0,0,0,0,0,0,0,0,0,-1,1056,1254,0,0
-161,-230,0,0,0,0,0,0,0,0,0,-1,1063,1254,0,0
-154,-230,0,0,0,0,0,0,0,0,0,-1,1070,1254,0,0
-147,-230,0,0,0,0,0,0,0,0,0,-1,1077,1254,0,0
-140,-230,0,0,0,0,0,0,0,0,0,-1,1084,1254,0,0
-133,-230,0,0,0,0,0,0,0,0,0,-1,1091,1254,0,0
-126,-230,0,0,0,0,0,0,0,0,0,-1,1098,1254,0,0
-119,-230,0,0,0,0,0,0,0,0,0,-1,1105,1254,0,0
-112,-230,0,0,0,0,0,0,0,0,0,-1,1112,1254,0,0
-105,-230,0,0,0,0,0,0,0,0,0,-1,1119,1254,0,0
-98,-230,0,0,0,0,0,0,0,0,0,-1,1126,1254,0,0
-91,-230,0,0,0,0,0,0,0,0,0,-1,1133,1254,0,0
-84,-230,0,0,0,0,0,0,0,0,0,-1,1140,1254,0,0
-77,-230,0,0,0,0,0,0,0,0,0,-1,1147,1254,0,0
-70,-230,0,0,0,0,0,0,0,0,0,-1,1154,1254,0,0
-63,-230,0,0,0,0,0,0,0,0,0,-1,1161,1254,0,0
-56,-230,0,0,0,0,0,0,0,0,0,-1,1168,1254,0,0
-49,-230,0,0,0,0,0,0,0,0,0,-1,1175,1254,0,0
-42,-230,0,0,0,0,0,0,0,0,0,-1,1182,1254,0,0
-35,-230,0,0,0,0,0,0,0,0,0,-1,1189,1254,0,0
-28,-230,0,0,0,0,0,0,0,0,0,-1,1196,1254,0,0
-21,-230,0,0,0,0,0,0,0,0,0,-1,1203,1254,0,0
-14,-230,0,0,0,0,0,0,0,0,0,-1,1210,1254,0,0
-7,-230,0,0,0,0,0,0,0,0,0,-1,1217,1254,0,0
0,-230,0,0,0,0,0,0,0,0,0,-1,1224,1254,0,0
7,-230,0,0,0,0,0,0,0,0,0,-1,1231,1254,0,0
14,-230,0,0,0,0,0,0,0,0,0,-1,1238,1254,0,0
21,-230,0,0,0,0,0,0,0,0,0,-1,1245,1254,0,0
28,-230,0,0,0,0,0,0,0,0,0,-1,1252,1254,0,0
35,-230,0,0,0,0,0,0,0,0,0,-1,1259,1254,0,0
42,-230,0,0,0,0,0,0,0,0,0,-1,1266,1254,0,0
49,-230,0,0,0,0,0,0,0,0,0,-1,1273,1254,0,0
56,-230,0,0,0,0,0,0,0,0,0,-1,1280,1254,0,0
63,-230,0,0,0,0,0,0,0,0,0,-1,1287,1254,0,0
70,-230,0,0,0,0,0,0,0,0,0,-1,1294,1254,0,0
77,-230,0,0,0,0,0,0,0,0,0,-1,1301,1254,0,0
84,-230,0,0,0,0,0,0,0,0,0,-1,1308,1254,0,0
91,-230,0,0,0,0,0,0,0,0,0,-1,1315,1254,0,0
98,-230,0,0,0,0,0,0,0,0,0,-1,1322,1254,0,0
105,-230,0,0,0,0,0,0,0,0,0,-1,1329,1254,0,0
112,-230,0,0,0,0,0,0,0,0,0,-1,1336,1254,0,0
119,-230,0,0,0,0,0,0,0,0,0,-1,1343,1254,0,0
126,-230,0,0,0,0,0,0,0,0,0,-1,1350,1254,0,0
133,-230,0,0,0,0,0,0,0,0,0,-1,1357,1254,0,0
140,-230,0,0,0,0,0,0,0,0,0,-1,1364,1254,0,0
147,-230,0,0,0,0,0,0,0,0,0,-1,1371,1254,0,0
154,-230,0,0,0,0,0,0,0,0,0,-1,1378,1254,0,0
161,-230,0,0,0,0,0,0,0,0,0,-1,1385,1254,0,0
168,-230,0,0,0,0,0,0,0,0,0,-1,1392,1254,0,0
175,-230,0,0,0,0,0,0,0,0,0,-1,1399,1254,0,0
182,-230,0,0,0,0,0,0,0,0,0,-1,1406,1254,0,0
189,-230,0,0,0,0,0,0,0,0,0,-1,1413,1254,0,0
196,-230,0,0,0,0,0,0,0,0,0,-1,1420,1254,0,0
203,-230,0,0,0,0,0,0,0,0,0,-1,1427,1254,0,0
210,-230,0,0,0,0,0,0,0,0,0,-1,1434,1254,0,0
217,-230,0,0,0,0,0,0,0,0,0,-1,1441,1254,0,0
224,-230,0,0,0,0,0,0,0,0,0,-1,1448,1254,0,0
231,-230,0,0,0,0,0,0,0,0,0,-1,1455,1254,0,0
238,-230,0,0,0,0,0,0,0,0,0,-1,1462,1254,0,0
245,-230,0,0,0,0,0,0,0,0,0,-1,1469,1254,0,0
252,-230,0,0,0,0,0,0,0,0,0,-1,1476,1254,0,0
259,-230,0,0,0,0,0,0,0,0,0,-1,1483,1254,0,0
266,-230,0,0,0,0,0,0,0,0,0,-1,1490,1254,0,0
273,-230,0,0,0,0,0,0,0,0,0,-1,1497,1254,0,0
280,-230,0,0,0,0,0,0,0,0,0,-1,1504,1254,0,0
287,-230,0,0,0,0,0,0,0,0,0,-1,1511,1254,0,0
294,-230,0,0,0,0,0,0,0,0,0,-1,1518,1254,0,0
301,-230,0,0,0,0,0,0,0,0,0,-1,1525,1254,0,0
308,-230,0,0,0,0,0,0,0,0,0,-1,1532,1254,0,0
315,-230,0,0,0,0,0,0,0,0,0,-1,1539,1254,0,0
322,-230,0,0,0,0,0,0,0,0,0,-1,1546,1254,0,0
329,-230,0,0,0,0,0,0,0,0,0,-1,1553,1254,0,0
336,-230,0,0,0,0,0,0,0,0,0,-1,1560,1254,0,0
343,-230,0,0,0,0,0,0,0,0,0,-1,1567,1254,0,0
350,-230,0,0,0,0,0,0,0,0,0,-1,1574,1254,0,0
357,-230,0,0,0,0,0,0,0,0,0,-1,1581,1254,0,0
364,-230,0,0,0,0,0,0,0,0,0,-1,1588,1254,0,0
371,-230,0,0,0,0,0,0,0,0,0,-1,1595,1254,0,0
378,-230,0,0,0,0,0,0,0,0,0,-1,1602,1254,0,0
385,-230,0,0,0,0,0,0,0,0,0,-1,1609,1254,0,0
392,-230,0,0,0,0,0,0,0,0,0,-1,1616,1254,0,0
399,-230,0,0,0,0,0,0,0,0,0,-1,1623,1254,0,0
406,-230,0,0,0,0,0,0,0,0,0,-1,1630,1254,0,0
413,-230,0,0,0,0,0,0,0,0,0,-1,1637,1254,0,0
420,-230,0,0,0,0,0,0,0,0,0,-1,1644,1254,0,0
427,-230,0,0,0,0,0,0,0,0,0,-1,1651,1254,0,0
434,-230,0,0,0,0,0,0,0,0,0,-1,1658,1254,0,0
441,-230,0,0,0,0,0,0,0,0,0,-1,1665,1254,0,0
448,-230,0,0,0,0,0,0,0,0,0,-1,1672,1254,0,0
455,-230,0,0,0,0,0,0,0,0,0,-1,1679,1254,0,0
462,-230,0,0,0,0,0,0,0,0,0,-1,1686,1254,0,0
469,-230,0,0,0,0,0,0,0,0,0,-1,1693,1254,0,0
476,-230,0,0,0,0,0,0,0,0,0,-1,1700,1254,0,0
483,-230,0,0,0,0,0,0,0,0,0,-1,1707,1254,0,0
490,-230,0,0,0,0,0,0,0,0,0,-1,1714,1254,0,0
497,-230,0,0,0,0,0,0,0,0,0,-1,1721,1254,0,0
504,-230,0,0,0,0,0,0,0,0,0,-1,1728,1254,0,0
511,-230,0,0,0,0,0,0,0,0,0,-1,1735,1254,0,0
518,-230,0,0,0,0,0,0,0,0,0,-1,1742,1254,0,0
525,-230,0,0,0,0,0,0,0,0,0,-1,1749,1254,0,0
532,-230,0,0,0,0,0,0,0,0,0,-1,1756,1254,0,0
539,-230,0,0,0,0,0,0,0,0,0,-1,1763,1254,0,0
546,-230,0,0,0,0,0,0,0,0,0,-1,1770,1254,0,0
553,-230,0,0,0,0,0,0,0,0,0,-1,1777,1254,0,0
560,-230,0,0,0,0,0,0,0,0,0,-1,1784,1254,0,0
567,-230,0,0,0,0,0,0,0,0,0,-1,1791,1254,0,0
574,-230,0,0,0,0,0,0,0,0,0,-1,1798,1254,0,0
581,-230,0,0,0,0,0,0,0,0,0,-1,1805,1254,0,0
588,-230,0,0,0,0,0,0,0,0,0,-1,1812,1254,0,0
595,-230,0,0,0,0,0,0,0,0,0,-1,1819,1254,0,0
602,-230,0,0,0,0,0,0,0,0,0,-1,1826,1254,0,0
609,-230,0,0,0,0,0,0,0,0,0,-1,1833,1254,0,0
616,-230,214.443,8.9823,0,0,0,0,0,0,0,-1,1840,1254,214.443,-8.98226
623,-230,214.593,8.98022,0,0,0,0,0,0,0,-1,1847,1254,214.593,-8.98028
630,-230,214.53,8.91687,0,0,0,0,0,0,0,-1,1854,1254,214.53,-8.91686
637,-230,214.36,8.82703,0,0,0,0,0,0,0,-1,1861,1254,214.36,-8.82701
644,-230,214.312,8.65588,0,0,0,0,0,0,0,-1,1868,1254,214.312,-8.65585
651,-230,214.308,8.4364,0,0,0,0,0,0,0,-1,1875,1254,214.308,-8.43635
658,-230,92.1161,1.86768,0,0,0,0,0,0,0,-1,1882,1254,92.116,-1.86765
665,-230,56.2585,2.51587,0,0,0,0,0,0,0,-1,1889,1254,56.2586,-2.51586
672,-230,43.0962,2.78699,0,0,0,0,0,0,0,-1,1896,1254,43.0962,-2.78698
679,-230,27.9967,2.37708,0,0,0,0,0,0,0,-1,1903,1254,27.9967,-2.3771
686,-230,40.8854,10.1788,0,0,0,0,0,0,0,-1,1910,1254,40.8853,-10.1788
693,-230,84.3876,23.9386,0,0,0,0,0,0,0,-1,1917,1254,84.3876,-23.9386
700,-230,194.934,40.3815,0,0,0,0,0,0,0,-1,1924,1254,194.934,-40.3815
707,-230,194.33,38.9537,0,0,0,0,0,0,0,-1,1931,1254,194.33,-38.9537
714,-230,193.873,37.2948,0,0,0,0,0,0,0,-1,1938,1254,193.873,-37.2948
721,-230,193.517,36.0776,0.000386648,0.0153367,0.00695306,0.0180705,-0.00234721,1.19618,0.0129008,0.0297444,1945,1254,193.517,-36.0776
728,-230,193.482,34.394,-0.00537619,0.0200451,0.0108955,0.0240758,-0.00940686,1.21647,0.01994,0.0232568,1952,1254,193.482,-34.3941
735,-230,193.27,32.8691,-0.0114274,0.024322,0.0150066,0.0297861,-0.0168915,1.2216,0.02729,0.0243561,1959,1254,193.27,-32.8692
742,-230,192.968,31.3263,-0.0176327,0.0281665,0.0192253,0.0351668,-0.024633,1.2216,0.0347035,0.0175304,1966,1254,192.968,-31.3263
749,-230,192.696,29.7936,-0.0238848,0.0315657,0.0234959,0.0401825,-0.0325016,1.21929,0.0420422,0.0232975,1973,1254,192.696,-29.7936
756,-230,192.218,28.483,-0.0305758,0.0342621,0.0278906,0.0446085,-0.0409221,1.21557,0.0493964,0.0436508,1980,1254,192.218,-28.483
763,-230,191.751,27.1925,0,0,0,0,0,0,0,-1,1987,1254,191.751,-27.1925
770,-230,107.623,16.1041,0,0,0,0,0,0,0,-1,1994,1254,107.623,-16.1041
777,-230,41.8693,3.74707,0,0,0,0,0,0,0,-1,2001,1254,41.8692,-3.74713
784,-230,35.8896,1.80334,0,0,0,0,0,0,0,-1,2008,1254,35.8897,-1.80338
791,-230,35.6028,2.20642,0,0,0,0,0,0,0,-1,2015,1254,35.6027,-2.2064
798,-230,0,0,0,0,0,0,0,0,0,-1,2022,1254,0,0
805,-230,0,0,0,0,0,0,0,0,0,-1,2029,1254,0,0
812,-230,0,0,0,0,0,0,0,0,0,-1,2036,1254,0,0
-700,-237,0,0,0,0,0,0,0,0,0,-1,524,1261,0,0
-693,-237,0,0,0,0,0,0,0,0,0,-1,531,1261,0,0
-686,-237,0,0,0,0,0,0,0,0,0,-1,538,1261,0,0
-679,-237,0,0,0,0,0,0,0,0,0,-1,545,1261,0,0
-672,-237,-81.1678,23.7125,0,0,0,0,0,0,0,-1,552,1261,-81.1678,-23.7125
-665,-237,-81.6478,25.696,0,0,0,0,0,0,0,-1,559,1261,-81.6478,-25.6961
-658,-237,-81.9223,27.0465,0,0,0,0,0,0,0,-1,566,1261,-81.9223,-27.0465
-651,-237,-81.7989,29.6414,0,0,0,0,0,0,0,-1,573,1261,-81.7989,-29.6414
-644,-237,-62.5868,9.75488,0,0,0,0,0,0,0,-1,580,1261,-62.5868,-9.75482
-637,-237,-33.4961,2.71313,0,0,0,0,0,0,0,-1,587,1261,-33.4961,-2.71312
-630,-237,-45.178,6.85889,0,0,0,0,0,0,0,-1,594,1261,-45.1781,-6.85892
-623,-237,-184.175,27.2609,0,0,0,0,0,0,0,-1,601,1261,-184.175,-27.2608
-616,-237,-184.251,28.9069,-0.015494,0.0437511,-0.015675,0.0476427,-0.0193856,-1.32745,0.0398286,0.0300027,608,1261,-184.251,-28.9069
-609,-237,-184.646,30.3641,-0.0154132,0.0385647,-0.0161628,0.0430343,-0.0198828,-1.301,0.0371359,0.0242795,615,1261,-184.646,-30.3642
-602,-237,-184.856,31.7932,-0.0149194,0.0331434,-0.0156383,0.0377837,-0.0195597,-1.28235,0.0336599,0.0211135,622,1261,-184.856,-31.7933
-595,-237,-185.421,33.1831,0,0,0,0,0,0,0,-1,629,1261,-185.421,-33.1831
-588,-237,-186.453,34.8894,0,0,0,0,0,0,0,-1,636,1261,-186.453,-34.8894
-581,-237,-177.923,36.6564,0,0,0,0,0,0,0,-1,643,1261,-177.923,-36.6564
-574,-237,-185.966,38.0186,0,0,0,0,0,0,0,-1,650,1261,-185.966,-38.0186
-567,-237,-178.334,40.4208,0,0,0,0,0,0,0,-1,657,1261,-178.334,-40.4207
-560,-237,-55.2889,19.8724,0,0,0,0,0,0,0,-1,664,1261,-55.2889,-19.8725
-553,-237,-20.6102,6.92139,0,0,0,0,0,0,0,-1,671,1261,-20.6102,-6.92138
-546,-237,-11.192,1.14014,0,0,0,0,0,0,0,-1,678,1261,-11.192,-1.14011
-539,-237,-16.512,1.53455,0,0,0,0,0,0,0,-1,685,1261,-16.512,-1.53457
-532,-237,-29.7025,1.23621,0,0,0,0,0,0,0,-1,692,1261,-29.7025,-1.23618
-525,-237,-47.2925,0.590942,0,0,0,0,0,0,0,-1,699,1261,-47.2925,-0.590989
-518,-237,-48.2897,0.765869,0,0,0,0,0,0,0,-1,706,1261,-48.2897,-0.765854
-511,-237,-71.7244,0.621704,0,0,0,0,0,0,0,-1,713,1261,-71.7244,-0.621723
-504,-237,-72.0632,0.737671,0,0,0,0,0,0,0,-1,720,1261,-72.0632,-0.737635
-497,-237,-72.178,0.960449,0,0,0,0,0,0,0,-1,727,1261,-72.178,-0.960392
-490,-237,0,0,0,0,0,0,0,0,0,-1,734,1261,0,0
-483,-237,0,0,0,0,0,0,0,0,0,-1,741,1261,0,0
-476,-237,0,0,0,0,0,0,0,0,0,-1,748,1261,0,0
-469,-237,0,0,0,0,0,0,0,0,0,-1,755,1261,0,0
-462,-237,0,0,0,0,0,0,0,0,0,-1,762,1261,0,0
-455,-237,0,0,0,0,0,0,0,0,0,-1,769,1261,0,0
-448,-237,0,0,0,0,0,0,0,0,0,-1,776,1261,0,0
-441,-237,0,0,0,0,0,0,0,0,0,-1,783,1261,0,0
-434,-237,0,0,0,0,0,0,0,0,0,-1,790,1261,0,0
-427,-237,0,0,0,0,0,0,0,0,0,-1,797,1261,0,0
-420,-237,0,0,0,0,0,0,0,0,0,-1,804,1261,0,0
-413,-237,0,0,0,0,0,0,0,0,0,-1,811,1261,0,0
-406,-237,0,0,0,0,0,0,0,0,0,-1,818,1261,0,0
-399,-237,0,0,0,0,0,0,0,0,0,-1,825,1261,0,0
-392,-237,0,0,0,0,0,0,0,0,0,-1,832,1261,0,0
-385,-237,0,0,0,0,0,0,0,0,0,-1,839,1261,0,0
-378,-237,0,0,0,0,0,0,0,0,0,-1,846,1261,0,0
-371,-237,0,0,0,0,0,0,0,0,0,-1,853,1261,0,0
-364,-237,0,0,0,0,0,0,0,0,0,-1,860,1261,0,0
-357,-237,0,0,0,0,0,0,0,0,0,-1,867,1261,0,0
-350,-237,0,0,0,0,0,0,0,0,0,-1,874,1261,0,0
-343,-237,0,0,0,0,0,0,0,0,0,-1,881,1261,0,0
-336,-237,0,0,0,0,0,0,0,0,0,-1,888,1261,0,0
-329,-237,0,0,0,0,0,0,0,0,0,-1,895,1261,0,0
-322,-237,0,0,0,0,0,0,0,0,0,-1,902,1261,0,0
-315,-237,0,0,0,0,0,0,0,0,0,-1,909,1261,0,0
-308,-237,0,0,0,0,0,0,0,0,0,-1,916,1261,0,0
-301,-237,0,0,0,0,0,0,0,0,0,-1,923,1261,0,0
-294,-237,0,0,0,0,0,0,0,0,0,-1,930,1261,0,0
-287,-237,0,0,0,0,0,0,0,0,0,-1,937,1261,0,0
-280,-237,0,0,0,0,0,0,0,0,0,-1,944,1261,0,0
-273,-237,0,0,0,0,0,0,0,0,0,-1,951,1261,0,0
-266,-237,0,0,0,0,0,0,0,0,0,-1,958,1261,0,0
-259,-237,0,0,0,0,0,0,0,0,0,-1,965,1261,0,0
-252,-237,0,0,0,0,0,0,0,0,0,-1,972,1261,0,0
-245,-237,0,0,0,0,0,0,0,0,0,-1,979,1261,0,0
-238,-237,0,0,0,0,0,0,0,0,0,-1,986,1261,0,0
-231,-237,0,0,0,0,0,0,0,0,0,-1,993,1261,0,0
-224,-237,0,0,0,0,0,0,0,0,0,-1,1000,1261,0,0
-217,-237,0,0,0,0,0,0,0,0,0,-1,1007,1261,0,0
-210,-237,0,0,0,0,0,0,0,0,0,-1,1014,1261,0,0
-203,-237,0,0,0,0,0,0,0,0,0,-1,1021,1261,0,0
-196,-237,0,0,0,0,0,0,0,0,0,-1,1028,1261,0,0
-189,-237,0,0,0,0,0,0,0,0,0,-1,1035,1261,0,0
-182,-237,0,0,0,0,0,0,0,0,0,-1,1042,1261,0,0
-175,-237,0,0,0,0,0,0,0,0,0,-1,1049,1261,0,0
-168,-237,0,0,0,0,0,0,0,0,0,-1,1056,1261,0,0
-161,-237,0,0,0,0,0,0,0,0,0,-1,1063,1261,0,0
-154,-237,0,0,0,0,0,0,0,0,0,-1,1070,1261,0,0
-147,-237,0,0,0,0,0,0,0,0,0,-1,1077,1261,0,0
-140,-237,0,0,0,0,0,0,0,0,0,-1,1084,1261,0,0
-133,-237,0,0,0,0,0,0,0,0,0,-1,1091,1261,0,0
-126,-237,0,0,0,0,0,0,0,0,0,-1,1098,1261,0,0
-119,-237,0,0,0,0,0,0,0,0,0,-1,1105,1261,0,0
-112,-237,0,0,0,0,0,0,0,0,0,-1,1112,1261,0,0
-105,-237,0,0,0,0,0,0,0,0,0,-1,1119,1261,0,0
-98,-237,0,0,0,0,0,0,0,0,0,-1,1126,1261,0,0
-91,-237,0,0,0,0,0,0,0,0,0,-1,1133,1261,0,0
-84,-237,0,0,0,0,0,0,0,0,0,-1,1140,1261,0,0
-77,-237,0,0,0,0,0,0,0,0,0,-1,1147,1261,0,0
-70,-237,0,0,0,0,0,0,0,0,0,-1,1154,1261,0,0
-63,-237,0,0,0,0,0,0,0,0,0,-1,1161,1261,0,0
-56,-237,0,0,0,0,0,0,0,0,0,-1,1168,1261,0,0
-49,-237,0,0,0,0,0,0,0,0,0,-1,1175,1261,0,0
-42,-237,0,0,0,0,0,0,0,0,0,-1,1182,1261,0,0
-35,-237,0,0,0,0,0,0,0,0,0,-1,1189,1261,0,0
-28,-237,0,0,0,0,0,0,0,0,0,-1,1196,1261,0,0
-21,-237,0,0,0,0,0,0,0,0,0,-1,1203,1261,0,0
-14,-237,0,0,0,0,0,0,0,0,0,-1,1210,1261,0,0
-7,-237,0,0,0,0,0,0,0,0,0,-1,1217,1261,0,0
0,-237,0,0,0,0,0,0,0,0,0,-1,1224,1261,0,0
7,-237,0,0,0,0,0,0,0,0,0,-1,1231,1261,0,0
14,-237,0,0,0,0,0,0,0,0,0,-1,1238,1261,0,0
21,-237,0,0,0,0,0,0,0,0,0,-1,1245,1261,0,0
28,-237,0,0,0,0,0,0,0,0,0,-1,1252,1261,0,0
35,-237,0,0,0,0,0,0,0,0,0,-1,1259,1261,0,0
42,-237,0,0,0,0,0,0,0,0,0,-1,1266,1261,0,0
49,-237,0,0,0,0,0,0,0,0,0,-1,1273,1261,0,0
56,-237,0,0,0,0,0,0,0,0,0,-1,1280,1261,0,0
63,-237,0,0,0,0,0,0,0,0,0,-1,1287,1261,0,0
70,-237,0,0,0,0,0,0,0,0,0,-1,1294,1261,0,0
77,-237,0,0,0,0,0,0,0,0,0,-1,1301,1261,0,0
84,-237,0,0,0,0,0,0,0,0,0,-1,1308,1261,0,0
91,-237,0,0,0,0,0,0,0,0,0,-1,1315,1261,0,0
98,-237,0,0,0,0,0,0,0,0,0,-1,1322,1261,0,0
105,-237,0,0,0,0,0,0,0,0,0,-1,1329,1261,0,0
112,-237,0,0,0,0,0,0,0,0,0,-1,1336,1261,0,0
119,-237,0,0,0,0,0,0,0,0,0,-1,1343,1261,0,0
126,-237,0,0,0,0,0,0,0,0,0,-1,1350,1261,0,0
133,-237,0,0,0,0,0,0,0,0,0,-1,1357,1261,0,0
140,-237,0,0,0,0,0,0,0,0,0,-1,1364,1261,0,0
147,-237,0,0,0,0,0,0,0,0,0,-1,1371,1261,0,0
154,-237,0,0,0,0,0,0,0,0,0,-1,1378,1261,0,0
161,-237,0,0,0,0,0,0,0,0,0,-1,1385,1261,0,0
168,-237,0,0,0,0,0,0,0,0,0,-1,1392,1261,0,0
175,-237,0,0,0,0,0,0,0,0,0,-1,1399,1261,0,0
182,-237,0,0,0,0,0,0,0,0,0,-1,1406,1261,0,0
189,-237,0,0,0,0,0,0,0,0,0,-1,1413,1261,0,0
196,-237,0,0,0,0,0,0,0,0,0,-1,1420,1261,0,0
203,-237,0,0,0,0,0,0,0,0,0,-1,1427,1261,0,0
210,-237,0,0,0,0,0,0,0,0,0,-1,1434,1261,0,0
217,-237,0,0,0,0,0,0,0,0,0,-1,1441,1261,0,0
224,-237,0,0,0,0,0,0,0,0,0,-1,1448,1261,0,0
231,-237,0,0,0,0,0,0,0,0,0,-1,1455,1261,0,0
238,-237,0,0,0,0,0,0,0,0,0,-1,1462,1261,0,0
245,-237,0,0,0,0,0,0,0,0,0,-1,1469,1261,0,0
252,-237,0,0,0,0,0,0,0,0,0,-1,1476,1261,0,0
259,-237,0,0,0,0,0,0,0,0,0,-1,1483,1261,0,0
266,-237,0,0,0,0,0,0,0,0,0,-1,1490,1261,0,0
273,-237,0,0,0,0,0,0,0,0,0,-1,1497,1261,0,0
280,-237,0,0,0,0,0,0,0,0,0,-1,1504,1261,0,0
287,-237,0,0,0,0,0,0,0,0,0,-1,1511,1261,0,0
294,-237,0,0,0,0,0,0,0,0,0,-1,1518,1261,0,0
301,-237,0,0,0,0,0,0,0,0,0,-1,1525,1261,0,0
308,-237,0,0,0,0,0,0,0,0,0,-1,1532,1261,0,0
315,-237,0,0,0,0,0,0,0,0,0,-1,1539,1261,0,0
322,-237,0,0,0,0,0,0,0,0,0,-1,1546,1261,0,0
329,-237,0,0,0,0,0,0,0,0,0,-1,1553,1261,0,0
336,-237,0,0,0,0,0,0,0,0,0,-1,1560,1261,0,0
343,-237,0,0,0,0,0,0,0,0,0,-1,1567,1261,0,0
350,-237,0,0,0,0,0,0,0,0,0,-1,1574,1261,0,0
357,-237,0,0,0,0,0,0,0,0,0,-1,1581,1261,0,0
364,-237,0,0,0,0,0,0,0,0,0,-1,1588,1261,0,0
371,-237,0,0,0,0,0,0,0,0,0,-1,1595,1261,0,0
378,-237,0,0,0,0,0,0,0,0,0,-1,1602,1261,0,0
385,-237,0,0,0,0,0,0,0,0,0,-1,1609,1261,0,0
392,-237,0,0,0,0,0,0,0,0,0,-1,1616,1261,0,0
399,-237,0,0,0,0,0,0,0,0,0,-1,1623,1261,0,0
406,-237,0,0,0,0,0,0,0,0,0,-1,1630,1261,0,0
413,-237,0,0,0,0,0,0,0,0,0,-1,1637,1261,0,0
420,-237,0,0,0,0,0,0,0,0,0,-1,1644,1261,0,0
427,-237,0,0,0,0,0,0,0,0,0,-1,1651,1261,0,0
434,-237,0,0,0,0,0,0,0,0,0,-1,1658,1261,0,0
441,-237,0,0,0,0,0,0,0,0,0,-1,1665,1261,0,0
448,-237,0,0,0,0,0,0,0,0,0,-1,1672,1261,0,0
455,-237,0,0,0,0,0,0,0,0,0,-1,1679,1261,0,0
462,-237,0,0,0,0,0,0,0,0,0,-1,1686,1261,0,0
469,-237,0,0,0,0,0,0,0,0,0,-1,1693,1261,0,0
476,-237,0,0,0,0,0,0,0,0,0,-1,1700,1261,0,0
483,-237,0,0,0,0,0,0,0,0,0,-1,1707,1261,0,0
490,-237,0,0,0,0,0,0,0,0,0,-1,1714,1261,0,0
497,-237,0,0,0,0,0,0,0,0,0,-1,1721,1261,0,0
504,-237,0,0,0,0,0,0,0,0,0,-1,1728,1261,0,0
511,-237,0,0,0,0,0,0,0,0,0,-1,1735,1261,0,0
518,-237,0,0,0,0,0,0,0,0,0,-1,1742,1261,0,0
525,-237,0,0,0,0,0,0,0,0,0,-1,1749,1261,0,0
532,-237,0,0,0,0,0,0,0,0,0,-1,1756,1261,0,0
539,-237,0,0,0,0,0,0,0,0,0,-1,1763,1261,0,0
546,-237,0,0,0,0,0,0,0,0,0,-1,1770,1261,0,0
553,-237,0,0,0,0,0,0,0,0,0,-1,1777,1261,0,0
560,-237,0,0,0,0,0,0,0,0,0,-1,1784,1261,0,0
567,-237,0,0,0,0,0,0,0,0,0,-1,1791,1261,0,0
574,-237,0,0,0,0,0,0,0,0,0,-1,1798,1261,0,0
581,-237,0,0,0,0,0,0,0,0,0,-1,1805,1261,0,0
588,-237,0,0,0,0,0,0,0,0,0,-1,1812,1261,0,0
595,-237,0,0,0,0,0,0,0,0,0,-1,1819,1261,0,0
602,-237,0,0,0,0,0,0,0,0,0,-1,1826,1261,0,0
609,-237,0,0,0,0,0,0,0,0,0,-1,1833,1261,0,0
616,-237,214.378,8.83496,0,0,0,0,0,0,0,-1,1840,1261,214.378,-8.83492
623,-237,214.523,8.8927,0,0,0,0,0,0,0,-1,1847,1261,214.523,-8.89272
630,-237,214.443,8.77808,0,0,0,0,0,0,0,-1,1854,1261,214.443,-8.77808
637,-237,214.239,8.61511,0,0,0,0,0,0,0,-1,1861,1261,214.238,-8.61506
644,-237,214.249,8.48486,0,0,0,0,0,0,0,-1,1868,1261,214.249,-8.48488
651,-237,102.834,1.94067,0,0,0,0,0,0,0,-1,1875,1261,102.834,-1.94072
658,-237,76.8235,1.29675,0,0,0,0,0,0,0,-1,1882,1261,76.8235,-1.2968
665,-237,57.9302,3.30676,0,0,0,0,0,0,0,-1,1889,1261,57.9302,-3.30671
672,-237,45.3922,1.95618,0,0,0,0,0,0,0,-1,1896,1261,45.3922,-1.95623
679,-237,23.1501,7.37488,0,0,0,0,0,0,0,-1,1903,1261,23.1502,-7.37493
686,-237,67.415,18.053,0,0,0,0,0,0,0,-1,1910,1261,67.415,-18.053
693,-237,90.6783,27.291,0,0,0,0,0,0,0,-1,1917,1261,90.6784,-27.291
700,-237,193.102,40.8583,0,0,0,0,0,0,0,-1,1924,1261,193.102,-40.8583
707,-237,192.658,39.2455,0,0,0,0,0,0,0,-1,1931,1261,192.658,-39.2454
714,-237,192.079,37.6299,0,0,0,0,0,0,0,-1,1938,1261,192.079,-37.6299
721,-237,191.895,36.0648,-0.00166865,0.0164463,0.00828315,0.0196627,-0.00488507,1.20041,0.0150043,0.0346958,1945,1261,191.895,-36.0648
728,-237,191.721,34.439,-0.00738584,0.0211266,0.0125923,0.0258916,-0.0121508,1.20905,0.0224363,0.0230159,1952,1261,191.721,-34.439
735,-237,191.441,32.8368,-0.0135043,0.0253713,0.0171389,0.0318482,-0.0199812,1.20948,0.030184,0.0294237,1959,1261,191.441,-32.8368
742,-237,191.27,31.3218,-0.0198968,0.0291726,0.0218683,0.0375039,-0.0282281,1.2068,0.0380761,0.0260496,1966,1261,191.27,-31.3218
749,-237,190.986,29.8915,-0.0264579,0.0325102,0.0267308,0.0428237,-0.0367714,1.20257,0.0459985,0.0262273,1973,1261,190.986,-29.8915
756,-237,190.135,28.2062,0,0,0,0,0,0,0,-1,1980,1261,190.135,-28.2062
763,-237,106.22,17.7108,0,0,0,0,0,0,0,-1,1987,1261,106.22,-17.7108
770,-237,105.618,16.0095,0,0,0,0,0,0,0,-1,1994,1261,105.618,-16.0095
777,-237,56.8215,4.47815,0,0,0,0,0,0,0,-1,2001,1261,56.8214,-4.47817
784,-237,36.3441,1.68591,0,0,0,0,0,0,0,-1,2008,1261,36.3441,-1.68592
791,-237,32.3025,6.03235,0,0,0,0,0,0,0,-1,2015,1261,32.3025,-6.03229
798,-237,0,0,0,0,0,0,0,0,0,-1,2022,1261,0,0
805,-237,0,0,0,0,0,0,0,0,0,-1,2029,1261,0,0
812,-237,0,0,0,0,0,0,0,0,0,-1,2036,1261,0,0
-700,-244,0,0,0,0,0,0,0,0,0,-1,524,1268,0,0
-693,-244,0,0,0,0,0,0,0,0,0,-1,531,1268,0,0
-686,-244,0,0,0,0,0,0,0,0,0,-1,538,1268,0,0
-679,-244,0,0,0,0,0,0,0,0,0,-1,545,1268,0,0
-672,-244,-74.9612,20.7479,0,0,0,0,0,0,0,-1,552,1268,-74.9612,-20.7479
-665,-244,-75.2466,22.6189,0,0,0,0,0,0,0,-1,559,1268,-75.2466,-22.6189
-658,-244,-82.4415,27.5525,0,0,0,0,0,0,0,-1,566,1268,-82.4415,-27.5525
-651,-244,-75.8113,25.9297,0,0,0,0,0,0,0,-1,573,1268,-75.8113,-25.9297
-644,-244,-62.6064,9.31079,0,0,0,0,0,0,0,-1,580,1268,-62.6065,-9.31082
-637,-244,-51.7188,8.54675,0,0,0,0,0,0,0,-1,587,1268,-51.7187,-8.54672
-630,-244,-51.6189,9.35242,0,0,0,0,0,0,0,-1,594,1268,-51.6189,-9.35244
-623,-244,-182.294,27.1429,0,0,0,0,0,0,0,-1,601,1268,-182.294,-27.143
-616,-244,-182.38,28.7783,-0.0152378,0.0451517,-0.0162354,0.0492397,-0.0193259,-1.32412,0.0408229,0.0400272,608,1268,-182.38,-28.7783
-609,-244,-182.951,30.3235,-0.0150657,0.0401559,-0.0166638,0.0447947,-0.0197046,-1.29929,0.0381663,0.0243779,615,1268,-182.951,-30.3235
-602,-244,-183.205,31.7358,-0.0143904,0.0349115,-0.0159973,0.0396473,-0.0191262,-1.28298,0.0346155,0.023177,622,1268,-183.205,-31.7359
-595,-244,-183.518,33.285,-0.0130652,0.0294356,-0.0141298,0.0337043,-0.017334,-1.2774,0.029968,0.0263792,629,1268,-183.519,-33.2851
-588,-244,-184.146,34.8134,-0.0109782,0.0237284,-0.0109988,0.0269205,-0.0141702,-1.28834,0.0241014,0.0478899,636,1268,-184.146,-34.8133
-581,-244,-185.045,36.371,0,0,0,0,0,0,0,-1,643,1268,-185.045,-36.3709
-574,-244,-184.098,38.046,0,0,0,0,0,0,0,-1,650,1268,-184.098,-38.0461
-567,-244,-184.378,39.8556,0,0,0,0,0,0,0,-1,657,1268,-184.378,-39.8556
-560,-244,-159.489,42.7916,0,0,0,0,0,0,0,-1,664,1268,-159.489,-42.7916
-553,-244,-54.347,20.9492,0,0,0,0,0,0,0,-1,671,1268,-54.347,-20.9492
-546,-244,-11.2686,4.41772,0,0,0,0,0,0,0,-1,678,1268,-11.2686,-4.41767
-539,-244,-12.8706,0.3302,0,0,0,0,0,0,0,-1,685,1268,-12.8706,-0.330156
-532,-244,-18.1502,0.816528,0,0,0,0,0,0,0,-1,692,1268,-18.1502,-0.816514
-525,-244,-33.0835,0.693604,0,0,0,0,0,0,0,-1,699,1268,-33.0835,-0.69365
-518,-244,-47.5015,0.609131,0,0,0,0,0,0,0,-1,706,1268,-47.5015,-0.60919
-511,-244,-48.6138,1.11877,0,0,0,0,0,0,0,-1,713,1268,-48.6138,-1.11872
-504,-244,-72.0964,0.876465,0,0,0,0,0,0,0,-1,720,1268,-72.0964,-0.876515
-497,-244,-72.4528,1.26904,0,0,0,0,0,0,0,-1,727,1268,-72.4529,-1.26907
-490,-244,0,0,0,0,0,0,0,0,0,-1,734,1268,0,0
-483,-244,0,0,0,0,0,0,0,0,0,-1,741,1268,0,0
-476,-244,0,0,0,0,0,0,0,0,0,-1,748,1268,0,0
-469,-244,0,0,0,0,0,0,0,0,0,-1,755,1268,0,0
-462,-244,0,0,0,0,0,0,0,0,0,-1,762,1268,0,0
-455,-244,0,0,0,0,0,0,0,0,0,-1,769,1268,0,0
-448,-244,0,0,0,0,0,0,0,0,0,-1,776,1268,0,0
-441,-244,0,0,0,0,0,0,0,0,0,-1,783,1268,0,0
-434,-244,0,0,0,0,0,0,0,0,0,-1,790,1268,0,0
-427,-244,0,0,0,0,0,0,0,0,0,-1,797,1268,0,0
-420,-244,0,0,0,0,0,0,0,0,0,-1,804,1268,0,0
-413,-244,0,0,0,0,0,0,0,0,0,-1,811,1268,0,0
-406,-244,0,0,0,0,0,0,0,0,0,-1,818,1268,0,0
-399,-244,0,0,0,0,0,0,0,0,0,-1,825,1268,0,0
-392,-244,0,0,0,0,0,0,0,0,0,-1,832,1268,0,0
-385,-244,0,0,0,0,0,0,0,0,0,-1,839,1268,0,0
-378,-244,0,0,0,0,0,0,0,0,0,-1,846,1268,0,0
-371,-244,0,0,0,0,0,0,0,0,0,-1,853,1268,0,0
-364,-244,0,0,0,0,0,0,0,0,0,-1,860,1268,0,0
-357,-244,0,0,0,0,0,0,0,0,0,-1,867,1268,0,0
-350,-244,0,0,0,0,0,0,0,0,0,-1,874,1268,0,0
-343,-244,0,0,0,0,0,0,0,0,0,-1,881,1268,0,0
-336,-244,0,0,0,0,0,0,0,0,0,-1,888,1268,0,0
-329,-244,0,0,0,0,0,0,0,0,0,-1,895,1268,0,0
-322,-244,0,0,0,0,0,0,0,0,0,-1,902,1268,0,0
-315,-244,0,0,0,0,0,0,0,0,0,-1,909,1268,0,0
-308,-244,0,0,0,0,0,0,0,0,0,-1,916,1268,0,0
-301,-244,0,0,0,0,0,0,0,0,0,-1,923,1268,0,0
-294,-244,0,0,0,0,0,0,0,0,0,-1,930,1268,0,0
-287,-244,0,0,0,0,0,0,0,0,0,-1,937,1268,0,0
-280,-244,0,0,0,0,0,0,0,0,0,-1,944,1268,0,0
-273,-244,0,0,0,0,0,0,0,0,0,-1,951,1268,0,0
-266,-244,0,0,0,0,0,0,0,0,0,-1,958,1268,0,0
-259,-244,0,0,0,0,0,0,0,0,0,-1,965,1268,0,0
-252,-244,0,0,0,0,0,0,0,0,0,-1,972,1268,0,0
-245,-244,0,0,0,0,0,0,0,0,0,-1,979,1268,0,0
-238,-244,0,0,0,0,0,0,0,0,0,-1,986,1268,0,0
-231,-244,0,0,0,0,0,0,0,0,0,-1,993,1268,0,0
-224,-244,0,0,0,0,0,0,0,0,0,-1,1000,1268,0,0
-217,-244,0,0,0,0,0,0,0,0,0,-1,1007,1268,0,0
-210,-244,0,0,0,0,0,0,0,0,0,-1,1014,1268,0,0
-203,-244,0,0,0,0,0,0,0,0,0,-1,1021,1268,0,0
-196,-244,0,0,0,0,0,0,0,0,0,-1,1028,1268,0,0
-189,-244,0,0,0,0,0,0,0,0,0,-1,1035,1268,0,0
-182,-244,0,0,0,0,0,0,0,0,0,-1,1042,1268,0,0
-175,-244,0,0,0,0,0,0,0,0,0,-1,1049,1268,0,0
-168,-244,0,0,0,0,0,0,0,0,0,-1,1056,1268,0,0
-161,-244,0,0,0,0,0,0,0,0,0,-1,1063,1268,0,0
-154,-244,0,0,0,0,0,0,0,0,0,-1,1070,1268,0,0
-147,-244,0,0,0,0,0,0,0,0,0,-1,1077,1268,0,0
-140,-244,0,0,0,0,0,0,0,0,0,-1,1084,1268,0,0
-133,-244,0,0,0,0,0,0,0,0,0,-1,1091,1268,0,0
-126,-244,0,0,0,0,0,0,0,0,0,-1,1098,1268,0,0
-119,-244,0,0,0,0,0,0,0,0,0,-1,1105,1268,0,0
-112,-244,0,0,0,0,0,0,0,0,0,-1,1112,1268,0,0
-105,-244,0,0,0,0,0,0,0,0,0,-1,1119,1268,0,0
-98,-244,0,0,0,0,0,0,0,0,0,-1,1126,1268,0,0
-91,-244,0,0,0,0,0,0,0,0,0,-1,1133,1268,0,0
-84,-244,0,0,0,0,0,0,0,0,0,-1,1140,1268,0,0
-77,-244,0,0,0,0,0,0,0,0,0,-1,1147,1268,0,0
-70,-244,0,0,0,0,0,0,0,0,0,-1,1154,1268,0,0
-63,-244,0,0,0,0,0,0,0,0,0,-1,1161,1268,0,0
-56,-244,0,0,0,0,0,0,0,0,0,-1,1168,1268,0,0
-49,-244,0,0,0,0,0,0,0,0,0,-1,1175,1268,0,0
-42,-244,0,0,0,0,0,0,0,0,0,-1,1182,1268,0,0
-35,-244,0,0,0,0,0,0,0,0,0,-1,1189,1268,0,0
-28,-244,0,0,0,0,0,0,0,0,0,-1,1196,1268,0,0
-21,-244,0,0,0,0,0,0,0,0,0,-1,1203,1268,0,0
-14,-244,0,0,0,0,0,0,0,0,0,-1,1210,1268,0,0
-7,-244,0,0,0,0,0,0,0,0,0,-1,1217,1268,0,0
0,-244,0,0,0,0,0,0,0,0,0,-1,1224,1268,0,0
7,-244,0,0,0,0,0,0,0,0,0,-1,1231,1268,0,0
14,-244,0,0,0,0,0,0,0,0,0,-1,1238,1268,0,0
21,-244,0,0,0,0,0,0,0,0,0,-1,1245,1268,0,0
28,-244,0,0,0,0,0,0,0,0,0,-1,1252,1268,0,0
35,-244,0,0,0,0,0,0,0,0,0,-1,1259,1268,0,0
42,-244,0,0,0,0,0,0,0,0,0,-1,1266,1268,0,0
49,-244,0,0,0,0,0,0,0,0,0,-1,1273,1268,0,0
56,-244,0,0,0,0,0,0,0,0,0,-1,1280,1268,0,0
63,-244,0,0,0,0,0,0,0,0,0,-1,1287,1268,0,0
70,-244,0,0,0,0,0,0,0,0,0,-1,1294,1268,0,0
77,-244,0,0,0,0,0,0,0,0,0,-1,1301,1268,0,0
84,-244,0,0,0,0,0,0,0,0,0,-1,1308,1268,0,0
91,-244,0,0,0,0,0,0,0,0,0,-1,1315,1268,0,0
98,-244,0,0,0,0,0,0,0,0,0,-1,1322,1268,0,0
105,-244,0,0,0,0,0,0,0,0,0,-1,1329,1268,0,0
112,-244,0,0,0,0,0,0,0,0,0,-1,1336,1268,0,0
119,-244,0,0,0,0,0,0,0,0,0,-1,1343,1268,0,0
126,-244,0,0,0,0,0,0,0,0,0,-1,1350,1268,0,0
133,-244,0,0,0,0,0,0,0,0,0,-1,1357,1268,0,0
140,-244,0,0,0,0,0,0,0,0,0,-1,1364,1268,0,0
147,-244,0,0,0,0,0,0,0,0,0,-1,1371,1268,0,0
154,-244,0,0,0,0,0,0,0,0,0,-1,1378,1268,0,0
161,-244,0,0,0,0,0,0,0,0,0,-1,1385,1268,0,0
168,-244,0,0,0,0,0,0,0,0,0,-1,1392,1268,0,0
175,-244,0,0,0,0,0,0,0,0,0,-1,1399,1268,0,0
182,-244,0,0,0,0,0,0,0,0,0,-1,1406,1268,0,0
189,-244,0,0,0,0,0,0,0,0,0,-1,1413,1268,0,0
196,-244,0,0,0,0,0,0,0,0,0,-1,1420,1268,0,0
203,-244,0,0,0,0,0,0,0,0,0,-1,1427,1268,0,0
210,-244,0,0,0,0,0,0,0,0,0,-1,1434,1268,0,0
217,-244,0,0,0,0,0,0,0,0,0,-1,1441,1268,0,0
224,-244,0,0,0,0,0,0,0,0,0,-1,1448,1268,0,0
231,-244,0,0,0,0,0,0,0,0,0,-1,1455,1268,0,0
238,-244,0,0,0,0,0,0,0,0,0,-1,1462,1268,0,0
245,-244,0,0,0,0,0,0,0,0,0,-1,1469,1268,0,0
252,-244,0,0,0,0,0,0,0,0,0,-1,1476,1268,0,0
259,-244,0,0,0,0,0,0,0,0,0,-1,1483,1268,0,0
266,-244,0,0,0,0,0,0,0,0,0,-1,1490,1268,0,0
273,-244,0,0,0,0,0,0,0,0,0,-1,1497,1268,0,0
280,-244,0,0,0,0,0,0,0,0,0,-1,1504,1268,0,0
287,-244,0,0,0,0,0,0,0,0,0,-1,1511,1268,0,0
294,-244,0,0,0,0,0,0,0,0,0,-1,1518,1268,0,0
301,-244,0,0,0,0,0,0,0,0,0,-1,1525,1268,0,0
308,-244,0,0,0,0,0,0,0,0,0,-1,1532,1268,0,0
315,-244,0,0,0,0,0,0,0,0,0,-1,1539,1268,0,0
322,-244,0,0,0,0,0,0,0,0,0,-1,1546,1268,0,0
329,-244,0,0,0,0,0,0,0,0,0,-1,1553,1268,0,0
336,-244,0,0,0,0,0,0,0,0,0,-1,1560,1268,0,0
343,-244,0,0,0,0,0,0,0,0,0,-1,1567,1268,0,0
350,-244,0,0,0,0,0,0,0,0,0,-1,1574,1268,0,0
357,-244,0,0,0,0,0,0,0,0,0,-1,1581,1268,0,0
364,-244,0,0,0,0,0,0,0,0,0,-1,1588,1268,0,0
371,-244,0,0,0,0,0,0,0,0,0,-1,1595,1268,0,0
378,-244,0,0,0,0,0,0,0,0,0,-1,1602,1268,0,0
385,-244,0,0,0,0,0,0,0,0,0,-1,1609,1268,0,0
392,-244,0,0,0,0,0,0,0,0,0,-1,1616,1268,0,0
399,-244,0,0,0,0,0,0,0,0,0,-1,1623,1268,0,0
406,-244,0,0,0,0,0,0,0,0,0,-1,1630,1268,0,0
413,-244,0,0,0,0,0,0,0,0,0,-1,1637,1268,0,0
420,-244,0,0,0,0,0,0,0,0,0,-1,1644,1268,0,0
427,-244,0,0,0,0,0,0,0,0,0,-1,1651,1268,0,0
434,-244,0,0,0,0,0,0,0,0,0,-1,1658,1268,0,0
441,-244,0,0,0,0,0,0,0,0,0,-1,1665,1268,0,0
448,-244,0,0,0,0,0,0,0,0,0,-1,1672,1268,0,0
455,-244,0,0,0,0,0,0,0,0,0,-1,1679,1268,0,0
462,-244,0,0,0,0,0,0,0,0,0,-1,1686,1268,0,0
469,-244,0,0,0,0,0,0,0,0,0,-1,1693,1268,0,0
476,-244,0,0,0,0,0,0,0,0,0,-1,1700,1268,0,0
483,-244,0,0,0,0,0,0,0,0,0,-1,1707,1268,0,0
490,-244,0,0,0,0,0,0,0,0,0,-1,1714,1268,0,0
497,-244,0,0,0,0,0,0,0,0,0,-1,1721,1268,0,0
504,-244,0,0,0,0,0,0,0,0,0,-1,1728,1268,0,0
511,-244,0,0,0,0,0,0,0,0,0,-1,1735,1268,0,0
518,-244,0,0,0,0,0,0,0,0,0,-1,1742,1268,0,0
525,-244,0,0,0,0,0,0,0,0,0,-1,1749,1268,0,0
532,-244,0,0,0,0,0,0,0,0,0,-1,1756,1268,0,0
539,-244,0,0,0,0,0,0,0,0,0,-1,1763,1268,0,0
546,-244,0,0,0,0,0,0,0,0,0,-1,1770,1268,0,0
553,-244,0,0,0,0,0,0,0,0,0,-1,1777,1268,0,0
560,-244,0,0,0,0,0,0,0,0,0,-1,1784,1268,0,0
567,-244,0,0,0,0,0,0,0,0,0,-1,1791,1268,0,0
574,-244,0,0,0,0,0,0,0,0,0,-1,1798,1268,0,0
581,-244,0,0,0,0,0,0,0,0,0,-1,1805,1268,0,0
588,-244,0,0,0,0,0,0,0,0,0,-1,1812,1268,0,0
595,-244,0,0,0,0,0,0,0,0,0,-1,1819,1268,0,0
602,-244,0,0,0,0,0,0,0,0,0,-1,1826,1268,0,0
609,-244,0,0,0,0,0,0,0,0,0,-1,1833,1268,0,0
616,-244,214.335,8.68408,0,0,0,0,0,0,0,-1,1840,1268,214.335,-8.68402
623,-244,214.432,8.81519,0,0,0,0,0,0,0,-1,1847,1268,214.432,-8.81516
630,-244,214.323,8.73828,0,0,0,0,0,0,0,-1,1854,1268,214.323,-8.73831
637,-244,214.118,8.5293,0,0,0,0,0,0,0,-1,1861,1268,214.118,-8.52933
644,-244,114.925,3.12561,0,0,0,0,0,0,0,-1,1868,1268,114.925,-3.12563
651,-244,90.5771,1.93823,0,0,0,0,0,0,0,-1,1875,1268,90.5771,-1.93817
658,-244,71.6105,1.55334,0,0,0,0,0,0,0,-1,1882,1268,71.6104,-1.55332
665,-244,50.7988,1.09888,0,0,0,0,0,0,0,-1,1889,1268,50.7989,-1.09893
672,-244,32.224,3.6123,0,0,0,0,0,0,0,-1,1896,1268,32.224,-3.6123
679,-244,27.2593,7.90649,0,0,0,0,0,0,0,-1,1903,1268,27.2592,-7.9065
686,-244,84.4209,27.0175,0,0,0,0,0,0,0,-1,1910,1268,84.4209,-27.0174
693,-244,191.59,43.0643,0,0,0,0,0,0,0,-1,1917,1268,191.59,-43.0643
700,-244,191.307,41.2565,0.00829861,0.00223659,-0.00308008,0.00958893,0.000946267,-0.396714,0.00610171,0.0469731,1924,1268,191.307,-41.2564
707,-244,190.878,39.4839,0,0,0,0,0,0,0,-1,1931,1268,190.878,-39.4839
714,-244,190.278,37.798,0.00139339,0.013077,0.00516334,0.0150318,-0.000561382,1.20888,0.0102135,0.0467311,1938,1268,190.278,-37.798
721,-244,190.171,36.2266,-0.00371535,0.0179583,0.00955749,0.0215708,-0.00732783,1.20942,0.017347,0.0378185,1945,1268,190.171,-36.2266
728,-244,189.859,34.5679,-0.00943666,0.0224582,0.0142789,0.0279166,-0.014895,1.20567,0.0250955,0.0428378,1952,1268,189.859,-34.5678
735,-244,189.54,32.6537,-0.015653,0.0265665,0.019282,0.0340473,-0.0231338,1.20071,0.0332134,0.0412869,1959,1268,189.54,-32.6537
742,-244,189.302,31.3513,-0.0222577,0.0302661,0.0245241,0.0399363,-0.031928,1.1952,0.0415766,0.030609,1966,1268,189.302,-31.3513
749,-244,188.984,30.1327,-0.029157,0.0335306,0.0299665,0.0455507,-0.0411771,1.18933,0.0500935,0.0406659,1973,1268,188.984,-30.1327
756,-244,188.369,28.8228,0,0,0,0,0,0,0,-1,1980,1268,188.369,-28.8228
763,-244,104.206,18.0935,0,0,0,0,0,0,0,-1,1987,1268,104.206,-18.0935
770,-244,56.2969,5.43298,0,0,0,0,0,0,0,-1,1994,1268,56.2969,-5.43297
777,-244,48.7119,2.7002,0,0,0,0,0,0,0,-1,2001,1268,48.712,-2.70019
784,-244,31.7908,5.20081,0,0,0,0,0,0,0,-1,2008,1268,31.7907,-5.20083
791,-244,0,0,0,0,0,0,0,0,0,-1,2015,1268,0,0
798,-244,0,0,0,0,0,0,0,0,0,-1,2022,1268,0,0
805,-244,0,0,0,0,0,0,0,0,0,-1,2029,1268,0,0
812,-244,0,0,0,0,0,0,0,0,0,-1,2036,1268,0,0
-700,-251,0,0,0,0,0,0,0,0,0,-1,524,1275,0,0
-693,-251,0,0,0,0,0,0,0,0,0,-1,531,1275,0,0
-686,-251,0,0,0,0,0,0,0,0,0,-1,538,1275,0,0
-679,-251,0,0,0,0,0,0,0,0,0,-1,545,1275,0,0
-672,-251,0,0,0,0,0,0,0,0,0,-1,552,1275,0,0
-665,-251,-75.6944,23.8195,0,0,0,0,0,0,0,-1,559,1275,-75.6944,-23.8195
-658,-251,-75.8995,25.6963,0,0,0,0,0,0,0,-1,566,1275,-75.8995,-25.6963
-651,-251,-76.1266,27.5671,0,0,0,0,0,0,0,-1,573,1275,-76.1266,-27.5671
-644,-251,-50.9809,8.08691,0,0,0,0,0,0,0,-1,580,1275,-50.9809,-8.08686
-637,-251,-50.8358,8.91528,0,0,0,0,0,0,0,-1,587,1275,-50.8358,-8.91532
-630,-251,-71.7939,14.9017,0,0,0,0,0,0,0,-1,594,1275,-71.7939,-14.9018
-623,-251,-181.887,27.3945,0,0,0,0,0,0,0,-1,601,1275,-181.887,-27.3945
-616,-251,-181.151,28.865,-0.0148919,0.0469301,-0.0168502,0.0512245,-0.0191863,-1.32125,0.042031,0.0448468,608,1275,-181.151,-28.865
-609,-251,-181.143,30.2136,-0.0146991,0.0419028,-0.017264,0.0467529,-0.0195491,-1.29692,0.0393389,0.0312147,615,1275,-181.143,-30.2136
-602,-251,-181.303,31.7308,-0.0138895,0.036646,-0.0165124,0.041563,-0.0188065,-1.28138,0.0356702,0.0211123,622,1275,-181.303,-31.7308
-595,-251,-181.535,33.3499,-0.0123435,0.0311945,-0.014516,0.0355904,-0.0167394,-1.27674,0.0308592,0.0194712,629,1275,-181.535,-33.3498
-588,-251,-182.106,34.9447,-0.00997342,0.025561,-0.011238,0.0288168,-0.0132292,-1.2888,0.0248251,0.0249541,636,1275,-182.106,-34.9448
-581,-251,-182.002,36.6066,0,0,0,0,0,0,0,-1,643,1275,-182.002,-36.6066
-574,-251,-182.276,38.2009,-0.00258545,0.0136914,-0.000916626,0.0137429,-0.00263691,-1.51472,0.0101556,0.0357538,650,1275,-182.276,-38.2009
-567,-251,-182.509,39.95,0.00260771,0.00735789,0.0060371,0.0114703,-0.0015047,0.972807,0.00819462,0.0440048,657,1275,-182.509,-39.9499
-560,-251,-182.699,41.6178,0,0,0,0,0,0,0,-1,664,1275,-182.699,-41.6178
-553,-251,-73.401,29.2515,0,0,0,0,0,0,0,-1,671,1275,-73.401,-29.2514
-546,-251,-12.995,4.5675,0,0,0,0,0,0,0,-1,678,1275,-12.995,-4.56745
-539,-251,-10.7916,0.366333,0,0,0,0,0,0,0,-1,685,1275,-10.7916,-0.366282
-532,-251,-10.7391,-0.00769043,0,0,0,0,0,0,0,-1,692,1275,-10.7391,0.00773227
-525,-251,-29.4286,-0.250244,0,0,0,0,0,0,0,-1,699,1275,-29.4286,0.250266
-518,-251,-32.6981,0.678833,0,0,0,0,0,0,0,-1,706,1275,-32.6981,-0.678787
-511,-251,-29.4731,0.637085,0,0,0,0,0,0,0,-1,713,1275,-29.4731,-0.637025
-504,-251,-30.6428,0.792358,0,0,0,0,0,0,0,-1,720,1275,-30.6427,-0.792335
-497,-251,-54.1249,0.753784,0,0,0,0,0,0,0,-1,727,1275,-54.1249,-0.753774
-490,-251,0,0,0,0,0,0,0,0,0,-1,734,1275,0,0
-483,-251,0,0,0,0,0,0,0,0,0,-1,741,1275,0,0
-476,-251,0,0,0,0,0,0,0,0,0,-1,748,1275,0,0
-469,-251,0,0,0,0,0,0,0,0,0,-1,755,1275,0,0
-462,-251,0,0,0,0,0,0,0,0,0,-1,762,1275,0,0
-455,-251,0,0,0,0,0,0,0,0,0,-1,769,1275,0,0
-448,-251,0,0,0,0,0,0,0,0,0,-1,776,1275,0,0
-441,-251,0,0,0,0,0,0,0,0,0,-1,783,1275,0,0
-434,-251,0,0,0,0,0,0,0,0,0,-1,790,1275,0,0
-427,-251,0,0,0,0,0,0,0,0,0,-1,797,1275,0,0
-420,-251,0,0,0,0,0,0,0,0,0,-1,804,1275,0,0
-413,-251,0,0,0,0,0,0,0,0,0,-1,811,1275,0,0
-406,-251,0,0,0,0,0,0,0,0,0,-1,818,1275,0,0
-399,-251,0,0,0,0,0,0,0,0,0,-1,825,1275,0,0
-392,-251,0,0,0,0,0,0,0,0,0,-1,832,1275,0,0
-385,-251,0,0,0,0,0,0,0,0,0,-1,839,1275,0,0
-378,-251,0,0,0,0,0,0,0,0,0,-1,846,1275,0,0
-371,-251,0,0,0,0,0,0,0,0,0,-1,853,1275,0,0
-364,-251,0,0,0,0,0,0,0,0,0,-1,860,1275,0,0
-357,-251,0,0,0,0,0,0,0,0,0,-1,867,1275,0,0
-350,-251,0,0,0,0,0,0,0,0,0,-1,874,1275,0,0
-343,-251,0,0,0,0,0,0,0,0,0,-1,881,1275,0,0
-336,-251,0,0,0,0,0,0,0,0,0,-1,888,1275,0,0
-329,-251,0,0,0,0,0,0,0,0,0,-1,895,1275,0,0
-322,-251,0,0,0,0,0,0,0,0,0,-1,902,1275,0,0
-315,-251,0,0,0,0,0,0,0,0,0,-1,909,1275,0,0
-308,-251,0,0,0,0,0,0,0,0,0,-1,916,1275,0,0
-301,-251,0,0,0,0,0,0,0,0,0,-1,923,1275,0,0
-294,-251,0,0,0,0,0,0,0,0,0,-1,930,1275,0,0
-287,-251,0,0,0,0,0,0,0,0,0,-1,937,1275,0,0
-280,-251,0,0,0,0,0,0,0,0,0,-1,944,1275,0,0
-273,-251,0,0,0,0,0,0,0,0,0,-1,951,1275,0,0
-266,-251,0,0,0,0,0,0,0,0,0,-1,958,1275,0,0
-259,-251,0,0,0,0,0,0,0,0,0,-1,965,1275,0,0
-252,-251,0,0,0,0,0,0,0,0,0,-1,972,1275,0,0
-245,-251,0,0,0,0,0,0,0,0,0,-1,979,1275,0,0
-238,-251,0,0,0,0,0,0,0,0,0,-1,986,1275,0,0
-231,-251,0,0,0,0,0,0,0,0,0,-1,993,1275,0,0
-224,-251,0,0,0,0,0,0,0,0,0,-1,1000,1275,0,0
-217,-251,0,0,0,0,0,0,0,0,0,-1,1007,1275,0,0
-210,-251,0,0,0,0,0,0,0,0,0,-1,1014,1275,0,0
-203,-251,0,0,0,0,0,0,0,0,0,-1,1021,1275,0,0
-196,-251,0,0,0,0,0,0,0,0,0,-1,1028,1275,0,0
-189,-251,0,0,0,0,0,0,0,0,0,-1,1035,1275,0,0
-182,-251,0,0,0,0,0,0,0,0,0,-1,1042,1275,0,0
-175,-251,0,0,0,0,0,0,0,0,0,-1,1049,1275,0,0
-168,-251,0,0,0,0,0,0,0,0,0,-1,1056,1275,0,0
-161,-251,0,0,0,0,0,0,0,0,0,-1,1063,1275,0,0
-154,-251,0,0,0,0,0,0,0,0,0,-1,1070,1275,0,0
-147,-251,0,0,0,0,0,0,0,0,0,-1,1077,1275,0,0
-140,-251,0,0,0,0,0,0,0,0,0,-1,1084,1275,0,0
-133,-251,0,0,0,0,0,0,0,0,0,-1,1091,1275,0,0
-126,-251,0,0,0,0,0,0,0,0,0,-1,1098,1275,0,0
-119,-251,0,0,0,0,0,0,0,0,0,-1,1105,1275,0,0
-112,-251,0,0,0,0,0,0,0,0,0,-1,1112,1275,0,0
-105,-251,0,0,0,0,0,0,0,0,0,-1,1119,1275,0,0
-98,-251,0,0,0,0,0,0,0,0,0,-1,1126,1275,0,0
-91,-251,0,0,0,0,0,0,0,0,0,-1,1133,1275,0,0
-84,-251,0,0,0,0,0,0,0,0,0,-1,1140,1275,0,0
-77,-251,0,0,0,0,0,0,0,0,0,-1,1147,1275,0,0
-70,-251,0,0,0,0,0,0,0,0,0,-1,1154,1275,0,0
-63,-251,0,0,0,0,0,0,0,0,0,-1,1161,1275,0,0
-56,-251,0,0,0,0,0,0,0,0,0,-1,1168,1275,0,0
-49,-251,0,0,0,0,0,0,0,0,0,-1,1175,1275,0,0
-42,-251,0,0,0,0,0,0,0,0,0,-1,1182,1275,0,0
-35,-251,0,0,0,0,0,0,0,0,0,-1,1189,1275,0,0
-28,-251,0,0,0,0,0,0,0,0,0,-1,1196,1275,0,0
-21,-251,0,0,0,0,0,0,0,0,0,-1,1203,1275,0,0
-14,-251,0,0,0,0,0,0,0,0,0,-1,1210,1275,0,0
-7,-251,0,0,0,0,0,0,0,0,0,-1,1217,1275,0,0
0,-251,0,0,0,0,0,0,0,0,0,-1,1224,1275,0,0
7,-251,0,0,0,0,0,0,0,0,0,-1,1231,1275,0,0
14,-251,0,0,0,0,0,0,0,0,0,-1,1238,1275,0,0
21,-251,0,0,0,0,0,0,0,0,0,-1,1245,1275,0,0
28,-251,0,0,0,0,0,0,0,0,0,-1,1252,1275,0,0
35,-251,0,0,0,0,0,0,0,0,0,-1,1259,1275,0,0
42,-251,0,0,0,0,0,0,0,0,0,-1,1266,1275,0,0
49,-251,0,0,0,0,0,0,0,0,0,-1,1273,1275,0,0
56,-251,0,0,0,0,0,0,0,0,0,-1,1280,1275,0,0
63,-251,0,0,0,0,0,0,0,0,0,-1,1287,1275,0,0
70,-251,0,0,0,0,0,0,0,0,0,-1,1294,1275,0,0
77,-251,0,0,0,0,0,0,0,0,0,-1,1301,1275,0,0
84,-251,0,0,0,0,0,0,0,0,0,-1,1308,1275,0,0
91,-251,0,0,0,0,0,0,0,0,0,-1,1315,1275,0,0
98,-251,0,0,0,0,0,0,0,0,0,-1,1322,1275,0,0
105,-251,0,0,0,0,0,0,0,0,0,-1,1329,1275,0,0
112,-251,0,0,0,0,0,0,0,0,0,-1,1336,1275,0,0
119,-251,0,0,0,0,0,0,0,0,0,-1,1343,1275,0,0
126,-251,0,0,0,0,0,0,0,0,0,-1,1350,1275,0,0
133,-251,0,0,0,0,0,0,0,0,0,-1,1357,1275,0,0
140,-251,0,0,0,0,0,0,0,0,0,-1,1364,1275,0,0
147,-251,0,0,0,0,0,0,0,0,0,-1,1371,1275,0,0
154,-251,0,0,0,0,0,0,0,0,0,-1,1378,1275,0,0
161,-251,0,0,0,0,0,0,0,0,0,-1,1385,1275,0,0
168,-251,0,0,0,0,0,0,0,0,0,-1,1392,1275,0,0
175,-251,0,0,0,0,0,0,0,0,0,-1,1399,1275,0,0
182,-251,0,0,0,0,0,0,0,0,0,-1,1406,1275,0,0
189,-251,0,0,0,0,0,0,0,0,0,-1,1413,1275,0,0
196,-251,0,0,0,0,0,0,0,0,0,-1,1420,1275,0,0
203,-251,0,0,0,0,0,0,0,0,0,-1,1427,1275,0,0
210,-251,0,0,0,0,0,0,0,0,0,-1,1434,1275,0,0
217,-251,0,0,0,0,0,0,0,0,0,-1,1441,1275,0,0
224,-251,0,0,0,0,0,0,0,0,0,-1,1448,1275,0,0
231,-251,0,0,0,0,0,0,0,0,0,-1,1455,1275,0,0
238,-251,0,0,0,0,0,0,0,0,0,-1,1462,1275,0,0
245,-251,0,0,0,0,0,0,0,0,0,-1,1469,1275,0,0
252,-251,0,0,0,0,0,0,0,0,0,-1,1476,1275,0,0
259,-251,0,0,0,0,0,0,0,0,0,-1,1483,1275,0,0
266,-251,0,0,0,0,0,0,0,0,0,-1,1490,1275,0,0
273,-251,0,0,0,0,0,0,0,0,0,-1,1497,1275,0,0
280,-251,0,0,0,0,0,0,0,0,0,-1,1504,1275,0,0
287,-251,0,0,0,0,0,0,0,0,0,-1,1511,1275,0,0
294,-251,0,0,0,0,0,0,0,0,0,-1,1518,1275,0,0
301,-251,0,0,0,0,0,0,0,0,0,-1,1525,1275,0,0
308,-251,0,0,0,0,0,0,0,0,0,-1,1532,1275,0,0
315,-251,0,0,0,0,0,0,0,0,0,-1,1539,1275,0,0
322,-251,0,0,0,0,0,0,0,0,0,-1,1546,1275,0,0
329,-251,0,0,0,0,0,0,0,0,0,-1,1553,1275,0,0
336,-251,0,0,0,0,0,0,0,0,0,-1,1560,1275,0,0
343,-251,0,0,0,0,0,0,0,0,0,-1,1567,1275,0,0
350,-251,0,0,0,0,0,0,0,0,0,-1,1574,1275,0,0
357,-251,0,0,0,0,0,0,0,0,0,-1,1581,1275,0,0
364,-251,0,0,0,0,0,0,0,0,0,-1,1588,1275,0,0
371,-251,0,0,0,0,0,0,0,0,0,-1,1595,1275,0,0
378,-251,0,0,0,0,0,0,0,0,0,-1,1602,1275,0,0
385,-251,0,0,0,0,0,0,0,0,0,-1,1609,1275,0,0
392,-251,0,0,0,0,0,0,0,0,0,-1,1616,1275,0,0
399,-251,0,0,0,0,0,0,0,0,0,-1,1623,1275,0,0
406,-251,0,0,0,0,0,0,0,0,0,-1,1630,1275,0,0
413,-251,0,0,0,0,0,0,0,0,0,-1,1637,1275,0,0
420,-251,0,0,0,0,0,0,0,0,0,-1,1644,1275,0,0
427,-251,0,0,0,0,0,0,0,0,0,-1,1651,1275,0,0
434,-251,0,0,0,0,0,0,0,0,0,-1,1658,1275,0,0
441,-251,0,0,0,0,0,0,0,0,0,-1,1665,1275,0,0
448,-251,0,0,0,0,0,0,0,0,0,-1,1672,1275,0,0
455,-251,0,0,0,0,0,0,0,0,0,-1,1679,1275,0,0
462,-251,0,0,0,0,0,0,0,0,0,-1,1686,1275,0,0
469,-251,0,0,0,0,0,0,0,0,0,-1,1693,1275,0,0
476,-251,0,0,0,0,0,0,0,0,0,-1,1700,1275,0,0
483,-251,0,0,0,0,0,0,0,0,0,-1,1707,1275,0,0
490,-251,0,0,0,0,0,0,0,0,0,-1,1714,1275,0,0
497,-251,0,0,0,0,0,0,0,0,0,-1,1721,1275,0,0
504,-251,0,0,0,0,0,0,0,0,0,-1,1728,1275,0,0
511,-251,0,0,0,0,0,0,0,0,0,-1,1735,1275,0,0
518,-251,0,0,0,0,0,0,0,0,0,-1,1742,1275,0,0
525,-251,0,0,0,0,0,0,0,0,0,-1,1749,1275,0,0
532,-251,0,0,0,0,0,0,0,0,0,-1,1756,1275,0,0
539,-251,0,0,0,0,0,0,0,0,0,-1,1763,1275,0,0
546,-251,0,0,0,0,0,0,0,0,0,-1,1770,1275,0,0
553,-251,0,0,0,0,0,0,0,0,0,-1,1777,1275,0,0
560,-251,0,0,0,0,0,0,0,0,0,-1,1784,1275,0,0
567,-251,0,0,0,0,0,0,0,0,0,-1,1791,1275,0,0
574,-251,0,0,0,0,0,0,0,0,0,-1,1798,1275,0,0
581,-251,0,0,0,0,0,0,0,0,0,-1,1805,1275,0,0
588,-251,0,0,0,0,0,0,0,0,0,-1,1812,1275,0,0
595,-251,0,0,0,0,0,0,0,0,0,-1,1819,1275,0,0
602,-251,0,0,0,0,0,0,0,0,0,-1,1826,1275,0,0
609,-251,214.28,8.8269,0,0,0,0,0,0,0,-1,1833,1275,214.28,-8.82685
616,-251,214.315,8.7699,0,0,0,0,0,0,0,-1,1840,1275,214.316,-8.76994
623,-251,214.312,8.78308,0,0,0,0,0,0,0,-1,1847,1275,214.312,-8.78303
630,-251,214.209,8.71106,0,0,0,0,0,0,0,-1,1854,1275,214.21,-8.71102
637,-251,119.813,3.21826,0,0,0,0,0,0,0,-1,1861,1275,119.813,-3.21831
644,-251,103.02,2.53735,0,0,0,0,0,0,0,-1,1868,1275,103.02,-2.53738
651,-251,83.6721,2.65125,0,0,0,0,0,0,0,-1,1875,1275,83.6722,-2.65119
658,-251,64.3931,2.57288,0,0,0,0,0,0,0,-1,1882,1275,64.393,-2.57287
665,-251,32.9579,2.60229,0,0,0,0,0,0,0,-1,1889,1275,32.9579,-2.60231
672,-251,26.0721,4.53064,0,0,0,0,0,0,0,-1,1896,1275,26.0721,-4.53063
679,-251,66.3422,18.9362,0,0,0,0,0,0,0,-1,1903,1275,66.3421,-18.9362
686,-251,94.9014,31.4364,0,0,0,0,0,0,0,-1,1910,1275,94.9014,-31.4364
693,-251,189.562,43.3557,0,0,0,0,0,0,0,-1,1917,1275,189.562,-43.3557
700,-251,189.363,41.6138,0,0,0,0,0,0,0,-1,1924,1275,189.363,-41.6137
707,-251,188.734,39.8622,0,0,0,0,0,0,0,-1,1931,1275,188.734,-39.8622
714,-251,188.547,38.0286,-0.000651904,0.0150016,0.00653358,0.0173702,-0.00302053,1.223,0.0127072,0.0409603,1938,1275,188.547,-38.0285
721,-251,188.341,36.3607,-0.00569833,0.0196532,0.0111701,0.0238726,-0.00991771,1.20963,0.0200557,0.0395345,1945,1275,188.341,-36.3608
728,-251,187.954,34.8069,-0.0114012,0.0239819,0.0161772,0.0302631,-0.0176824,1.20044,0.0279972,0.0456279,1952,1275,187.954,-34.8068
735,-251,187.705,32.8502,-0.0176803,0.0279652,0.021525,0.0365145,-0.0262295,1.19273,0.0363871,0.0362768,1959,1275,187.705,-32.8502
742,-251,187.353,31.4207,-0.0244584,0.0315771,0.0271829,0.0425965,-0.0354779,1.18566,0.0451387,0.028735,1966,1275,187.353,-31.4207
749,-251,186.789,30.2969,-0.0316634,0.0347854,0.0331228,0.0484757,-0.0453536,1.17886,0.0541824,0.0439338,1973,1275,186.789,-30.2968
756,-251,185.997,29.1827,0,0,0,0,0,0,0,-1,1980,1275,185.997,-29.1828
763,-251,43.3652,5.7583,0,0,0,0,0,0,0,-1,1987,1275,43.3653,-5.75827
770,-251,49.4386,3.45508,0,0,0,0,0,0,0,-1,1994,1275,49.4386,-3.4551
777,-251,31.5731,4.33252,0,0,0,0,0,0,0,-1,2001,1275,31.5731,-4.33251
784,-251,32.0776,5.78247,0,0,0,0,0,0,0,-1,2008,1275,32.0776,-5.78247
791,-251,0,0,0,0,0,0,0,0,0,-1,2015,1275,0,0
798,-251,0,0,0,0,0,0,0,0,0,-1,2022,1275,0,0
805,-251,0,0,0,0,0,0,0,0,0,-1,2029,1275,0,0
812,-251,0,0,0,0,0,0,0,0,0,-1,2036,1275,0,0
-700,-258,0,0,0,0,0,0,0,0,0,-1,524,1282,0,0
-693,-258,0,0,0,0,0,0,0,0,0,-1,531,1282,0,0
-686,-258,0,0,0,0,0,0,0,0,0,-1,538,1282,0,0
-679,-258,0,0,0,0,0,0,0,0,0,-1,545,1282,0,0
-672,-258,0,0,0,0,0,0,0,0,0,-1,552,1282,0,0
-665,-258,-76.3329,25.1647,0,0,0,0,0,0,0,-1,559,1282,-76.3329,-25.1646
-658,-258,-76.3535,27.1967,0,0,0,0,0,0,0,-1,566,1282,-76.3535,-27.1966
-651,-258,-45.5418,0.0863037,0,0,0,0,0,0,0,-1,573,1282,-45.5418,-0.0863288
-644,-258,-62.455,9.17346,0,0,0,0,0,0,0,-1,580,1282,-62.455,-9.17347
-637,-258,-49.9528,9.28394,0,0,0,0,0,0,0,-1,587,1282,-49.9528,-9.28393
-630,-258,-69.9883,14.4841,0,0,0,0,0,0,0,-1,594,1282,-69.9883,-14.4841
-623,-258,-96.8689,21.0114,0,0,0,0,0,0,0,-1,601,1282,-96.8689,-21.0114
-616,-258,-179.109,28.4913,0,0,0,0,0,0,0,-1,608,1282,-179.109,-28.4914
-609,-258,-179.255,30.1316,-0.0142698,0.0435941,-0.0179081,0.048688,-0.0193636,-1.29367,0.0404873,0.0277163,615,1282,-179.255,-30.1316
-602,-258,-179.416,31.7505,-0.0133377,0.038449,-0.0171392,0.0436075,-0.0184962,-1.27844,0.0368197,0.02108,622,1282,-179.416,-31.7505
-595,-258,-179.615,33.387,-0.0116737,0.0331938,-0.0151622,0.037837,-0.0163169,-1.27362,0.0320781,0.0196012,629,1282,-179.615,-33.387
-588,-258,-179.881,35.0018,-0.00922974,0.0278412,-0.0119853,0.0313786,-0.0127671,-1.2838,0.0262317,0.021413,636,1282,-179.881,-35.0018
-581,-258,-180.099,36.6653,0,0,0,0,0,0,0,-1,643,1282,-180.099,-36.6653
-574,-258,-180.62,38.0847,-0.00198924,0.0167825,-0.00227086,0.0170533,-0.00226005,-1.45211,0.0121922,0.0400223,650,1282,-180.62,-38.0847
-567,-258,-180.785,40.3389,0.00279141,0.0109943,0.00404803,0.0126555,0.00113018,1.18137,0.00808666,0.0370128,657,1282,-180.785,-40.3389
-560,-258,-180.797,42.3032,0,0,0,0,0,0,0,-1,664,1282,-180.797,-42.3032
-553,-258,-32.5081,11.6642,0,0,0,0,0,0,0,-1,671,1282,-32.5081,-11.6641
-546,-258,-14.2231,5.92029,0,0,0,0,0,0,0,-1,678,1282,-14.2231,-5.92028
-539,-258,-10.2228,4.05823,0,0,0,0,0,0,0,-1,685,1282,-10.2228,-4.05823
-532,-258,-10.2173,-0.353882,0,0,0,0,0,0,0,-1,692,1282,-10.2173,0.353836
-525,-258,-21.8661,-1.5929,0,0,0,0,0,0,0,-1,699,1282,-21.8661,1.59285
-518,-258,-29.2484,0.123169,0,0,0,0,0,0,0,-1,706,1282,-29.2484,-0.123186
-511,-258,-23.5061,1.16833,0,0,0,0,0,0,0,-1,713,1282,-23.5061,-1.16833
-504,-258,-22.9178,0.484131,0,0,0,0,0,0,0,-1,720,1282,-22.9178,-0.484106
-497,-258,-17.8047,0.730469,0,0,0,0,0,0,0,-1,727,1282,-17.8048,-0.730489
-490,-258,-15.4346,0.632935,0,0,0,0,0,0,0,-1,734,1282,-15.4346,-0.632917
-483,-258,0,0,0,0,0,0,0,0,0,-1,741,1282,0,0
-476,-258,0,0,0,0,0,0,0,0,0,-1,748,1282,0,0
-469,-258,0,0,0,0,0,0,0,0,0,-1,755,1282,0,0
-462,-258,0,0,0,0,0,0,0,0,0,-1,762,1282,0,0
-455,-258,0,0,0,0,0,0,0,0,0,-1,769,1282,0,0
-448,-258,0,0,0,0,0,0,0,0,0,-1,776,1282,0,0
-441,-258,0,0,0,0,0,0,0,0,0,-1,783,1282,0,0
-434,-258,0,0,0,0,0,0,0,0,0,-1,790,1282,0,0
-427,-258,0,0,0,0,0,0,0,0,0,-1,797,1282,0,0
-420,-258,0,0,0,0,0,0,0,0,0,-1,804,1282,0,0
-413,-258,0,0,0,0,0,0,0,0,0,-1,811,1282,0,0
-406,-258,0,0,0,0,0,0,0,0,0,-1,818,1282,0,0
-399,-258,0,0,0,0,0,0,0,0,0,-1,825,1282,0,0
-392,-258,0,0,0,0,0,0,0,0,0,-1,832,1282,0,0
-385,-258,0,0,0,0,0,0,0,0,0,-1,839,1282,0,0
-378,-258,0,0,0,0,0,0,0,0,0,-1,846,1282,0,0
-371,-258,0,0,0,0,0,0,0,0,0,-1,853,1282,0,0
-364,-258,0,0,0,0,0,0,0,0,0,-1,860,1282,0,0
-357,-258,0,0,0,0,0,0,0,0,0,-1,867,1282,0,0
-350,-258,0,0,0,0,0,0,0,0,0,-1,874,1282,0,0
-343,-258,0,0,0,0,0,0,0,0,0,-1,881,1282,0,0
-336,-258,0,0,0,0,0,0,0,0,0,-1,888,1282,0,0
-329,-258,0,0,0,0,0,0,0,0,0,-1,895,1282,0,0
-322,-258,0,0,0,0,0,0,0,0,0,-1,902,1282,0,0
-315,-258,0,0,0,0,0,0,0,0,0,-1,909,1282,0,0
-308,-258,0,0,0,0,0,0,0,0,0,-1,916,1282,0,0
-301,-258,0,0,0,0,0,0,0,0,0,-1,923,1282,0,0
-294,-258,0,0,0,0,0,0,0,0,0,-1,930,1282,0,0
-287,-258,0,0,0,0,0,0,0,0,0,-1,937,1282,0,0
-280,-258,0,0,0,0,0,0,0,0,0,-1,944,1282,0,0
-273,-258,0,0,0,0,0,0,0,0,0,-1,951,1282,0,0
-266,-258,0,0,0,0,0,0,0,0,0,-1,958,1282,0,0
-259,-258,0,0,0,0,0,0,0,0,0,-1,965,1282,0,0
-252,-258,0,0,0,0,0,0,0,0,0,-1,972,1282,0,0
-245,-258,0,0,0,0,0,0,0,0,0,-1,979,1282,0,0
-238,-258,0,0,0,0,0,0,0,0,0,-1,986,1282,0,0
-231,-258,0,0,0,0,0,0,0,0,0,-1,993,1282,0,0
-224,-258,0,0,0,0,0,0,0,0,0,-1,1000,1282,0,0
-217,-258,0,0,0,0,0,0,0,0,0,-1,1007,1282,0,0
-210,-258,0,0,0,0,0,0,0,0,0,-1,1014,1282,0,0
-203,-258,0,0,0,0,0,0,0,0,0,-1,1021,1282,0,0
-196,-258,0,0,0,0,0,0,0,0,0,-1,1028,1282,0,0
-189,-258,0,0,0,0,0,0,0,0,0,-1,1035,1282,0,0
-182,-258,0,0,0,0,0,0,0,0,0,-1,1042,1282,0,0
-175,-258,0,0,0,0,0,0,0,0,0,-1,1049,1282,0,0
-168,-258,0,0,0,0,0,0,0,0,0,-1,1056,1282,0,0
-161,-258,0,0,0,0,0,0,0,0,0,-1,1063,1282,0,0
-154,-258,0,0,0,0,0,0,0,0,0,-1,1070,1282,0,0
-147,-258,0,0,0,0,0,0,0,0,0,-1,1077,1282,0,0
-140,-258,0,0,0,0,0,0,0,0,0,-1,1084,1282,0,0
-133,-258,0,0,0,0,0,0,0,0,0,-1,1091,1282,0,0
-126,-258,0,0,0,0,0,0,0,0,0,-1,1098,1282,0,0
-119,-258,0,0,0,0,0,0,0,0,0,-1,1105,1282,0,0
-112,-258,0,0,0,0,0,0,0,0,0,-1,1112,1282,0,0
-105,-258,0,0,0,0,0,0,0,0,0,-1,1119,1282,0,0
-98,-258,0,0,0,0,0,0,0,0,0,-1,1126,1282,0,0
-91,-258,0,0,0,0,0,0,0,0,0,-1,1133,1282,0,0
-84,-258,0,0,0,0,0,0,0,0,0,-1,1140,1282,0,0
-77,-258,0,0,0,0,0,0,0,0,0,-1,1147,1282,0,0
-70,-258,0,0,0,0,0,0,0,0,0,-1,1154,1282,0,0
-63,-258,0,0,0,0,0,0,0,0,0,-1,1161,1282,0,0
-56,-258,0,0,0,0,0,0,0,0,0,-1,1168,1282,0,0
-49,-258,0,0,0,0,0,0,0,0,0,-1,1175,1282,0,0
-42,-258,0,0,0,0,0,0,0,0,0,-1,1182,1282,0,0
-35,-258,0,0,0,0,0,0,0,0,0,-1,1189,1282,0,0
-28,-258,0,0,0,0,0,0,0,0,0,-1,1196,1282,0,0
-21,-258,0,0,0,0,0,0,0,0,0,-1,1203,1282,0,0
-14,-258,0,0,0,0,0,0,0,0,0,-1,1210,1282,0,0
-7,-258,0,0,0,0,0,0,0,0,0,-1,1217,1282,0,0
0,-258,0,0,0,0,0,0,0,0,0,-1,1224,1282,0,0
7,-258,0,0,0,0,0,0,0,0,0,-1,1231,1282,0,0
14,-258,0,0,0,0,0,0,0,0,0,-1,1238,1282,0,0
21,-258,0,0,0,0,0,0,0,0,0,-1,1245,1282,0,0
28,-258,0,0,0,0,0,0,0,0,0,-1,1252,1282,0,0
35,-258,0,0,0,0,0,0,0,0,0,-1,1259,1282,0,0
42,-258,0,0,0,0,0,0,0,0,0,-1,1266,1282,0,0
49,-258,0,0,0,0,0,0,0,0,0,-1,1273,1282,0,0
56,-258,0,0,0,0,0,0,0,0,0,-1,1280,1282,0,0
63,-258,0,0,0,0,0,0,0,0,0,-1,1287,1282,0,0
70,-258,0,0,0,0,0,0,0,0,0,-1,1294,1282,0,0
77,-258,0,0,0,0,0,0,0,0,0,-1,1301,1282,0,0
84,-258,0,0,0,0,0,0,0,0,0,-1,1308,1282,0,0
91,-258,0,0,0,0,0,0,0,0,0,-1,1315,1282,0,0
98,-258,0,0,0,0,0,0,0,0,0,-1,1322,1282,0,0
105,-258,0,0,0,0,0,0,0,0,0,-1,1329,1282,0,0
112,-258,0,0,0,0,0,0,0,0,0,-1,1336,1282,0,0
119,-258,0,0,0,0,0,0,0,0,0,-1,1343,1282,0,0
126,-258,0,0,0,0,0,0,0,0,0,-1,1350,1282,0,0
133,-258,0,0,0,0,0,0,0,0,0,-1,1357,1282,0,0
140,-258,0,0,0,0,0,0,0,0,0,-1,1364,1282,0,0
147,-258,0,0,0,0,0,0,0,0,0,-1,1371,1282,0,0
154,-258,0,0,0,0,0,0,0,0,0,-1,1378,1282,0,0
161,-258,0,0,0,0,0,0,0,0,0,-1,1385,1282,0,0
168,-258,0,0,0,0,0,0,0,0,0,-1,1392,1282,0,0
175,-258,0,0,0,0,0,0,0,0,0,-1,1399,1282,0,0
182,-258,0,0,0,0,0,0,0,0,0,-1,1406,1282,0,0
189,-258,0,0,0,0,0,0,0,0,0,-1,1413,1282,0,0
196,-258,0,0,0,0,0,0,0,0,0,-1,1420,1282,0,0
203,-258,0,0,0,0,0,0,0,0,0,-1,1427,1282,0,0
210,-258,0,0,0,0,0,0,0,0,0,-1,1434,1282,0,0
217,-258,0,0,0,0,0,0,0,0,0,-1,1441,1282,0,0
224,-258,0,0,0,0,0,0,0,0,0,-1,1448,1282,0,0
231,-258,0,0,0,0,0,0,0,0,0,-1,1455,1282,0,0
238,-258,0,0,0,0,0,0,0,0,0,-1,1462,1282,0,0
245,-258,0,0,0,0,0,0,0,0,0,-1,1469,1282,0,0
252,-258,0,0,0,0,0,0,0,0,0,-1,1476,1282,0,0
259,-258,0,0,0,0,0,0,0,0,0,-1,1483,1282,0,0
266,-258,0,0,0,0,0,0,0,0,0,-1,1490,1282,0,0
273,-258,0,0,0,0,0,0,0,0,0,-1,1497,1282,0,0
280,-258,0,0,0,0,0,0,0,0,0,-1,1504,1282,0,0
287,-258,0,0,0,0,0,0,0,0,0,-1,1511,1282,0,0
294,-258,0,0,0,0,0,0,0,0,0,-1,1518,1282,0,0
301,-258,0,0,0,0,0,0,0,0,0,-1,1525,1282,0,0
308,-258,0,0,0,0,0,0,0,0,0,-1,1532,1282,0,0
315,-258,0,0,0,0,0,0,0,0,0,-1,1539,1282,0,0
322,-258,0,0,0,0,0,0,0,0,0,-1,1546,1282,0,0
329,-258,0,0,0,0,0,0,0,0,0,-1,1553,1282,0,0
336,-258,0,0,0,0,0,0,0,0,0,-1,1560,1282,0,0
343,-258,0,0,0,0,0,0,0,0,0,-1,1567,1282,0,0
350,-258,0,0,0,0,0,0,0,0,0,-1,1574,1282,0,0
357,-258,0,0,0,0,0,0,0,0,0,-1,1581,1282,0,0
364,-258,0,0,0,0,0,0,0,0,0,-1,1588,1282,0,0
371,-258,0,0,0,0,0,0,0,0,0,-1,1595,1282,0,0
378,-258,0,0,0,0,0,0,0,0,0,-1,1602,1282,0,0
385,-258,0,0,0,0,0,0,0,0,0,-1,1609,1282,0,0
392,-258,0,0,0,0,0,0,0,0,0,-1,1616,1282,0,0
399,-258,0,0,0,0,0,0,0,0,0,-1,1623,1282,0,0
406,-258,0,0,0,0,0,0,0,0,0,-1,1630,1282,0,0
413,-258,0,0,0,0,0,0,0,0,0,-1,1637,1282,0,0
420,-258,0,0,0,0,0,0,0,0,0,-1,1644,1282,0,0
427,-258,0,0,0,0,0,0,0,0,0,-1,1651,1282,0,0
434,-258,0,0,0,0,0,0,0,0,0,-1,1658,1282,0,0
441,-258,0,0,0,0,0,0,0,0,0,-1,1665,1282,0,0
448,-258,0,0,0,0,0,0,0,0,0,-1,1672,1282,0,0
455,-258,0,0,0,0,0,0,0,0,0,-1,1679,1282,0,0
462,-258,0,0,0,0,0,0,0,0,0,-1,1686,1282,0,0
469,-258,0,0,0,0,0,0,0,0,0,-1,1693,1282,0,0
476,-258,0,0,0,0,0,0,0,0,0,-1,1700,1282,0,0
483,-258,0,0,0,0,0,0,0,0,0,-1,1707,1282,0,0
490,-258,0,0,0,0,0,0,0,0,0,-1,1714,1282,0,0
497,-258,0,0,0,0,0,0,0,0,0,-1,1721,1282,0,0
504,-258,0,0,0,0,0,0,0,0,0,-1,1728,1282,0,0
511,-258,0,0,0,0,0,0,0,0,0,-1,1735,1282,0,0
518,-258,0,0,0,0,0,0,0,0,0,-1,1742,1282,0,0
525,-258,0,0,0,0,0,0,0,0,0,-1,1749,1282,0,0
532,-258,0,0,0,0,0,0,0,0,0,-1,1756,1282,0,0
539,-258,0,0,0,0,0,0,0,0,0,-1,1763,1282,0,0
546,-258,0,0,0,0,0,0,0,0,0,-1,1770,1282,0,0
553,-258,0,0,0,0,0,0,0,0,0,-1,1777,1282,0,0
560,-258,0,0,0,0,0,0,0,0,0,-1,1784,1282,0,0
567,-258,0,0,0,0,0,0,0,0,0,-1,1791,1282,0,0
574,-258,0,0,0,0,0,0,0,0,0,-1,1798,1282,0,0
581,-258,0,0,0,0,0,0,0,0,0,-1,1805,1282,0,0
588,-258,0,0,0,0,0,0,0,0,0,-1,1812,1282,0,0
595,-258,0,0,0,0,0,0,0,0,0,-1,1819,1282,0,0
602,-258,0,0,0,0,0,0,0,0,0,-1,1826,1282,0,0
609,-258,214.316,8.87158,0,0,0,0,0,0,0,-1,1833,1282,214.316,-8.87158
616,-258,214.258,8.74707,0,0,0,0,0,0,0,-1,1840,1282,214.258,-8.74701
623,-258,214.131,8.55396,0,0,0,0,0,0,0,-1,1847,1282,214.131,-8.55393
630,-258,123.931,3.52234,0,0,0,0,0,0,0,-1,1854,1282,123.931,-3.52233
637,-258,104.7,2.59534,0,0,0,0,0,0,0,-1,1861,1282,104.7,-2.59538
644,-258,88.6257,1.45276,0,0,0,0,0,0,0,-1,1868,1282,88.6257,-1.45271
651,-258,77.8041,3.65466,0,0,0,0,0,0,0,-1,1875,1282,77.8041,-3.65469
658,-258,45.4424,3.1405,0,0,0,0,0,0,0,-1,1882,1282,45.4423,-3.14046
665,-258,35.4747,1.1864,0,0,0,0,0,0,0,-1,1889,1282,35.4747,-1.18637
672,-258,22.703,2.80957,0,0,0,0,0,0,0,-1,1896,1282,22.703,-2.80962
679,-258,26.8693,8.19543,0,0,0,0,0,0,0,-1,1903,1282,26.8692,-8.19548
686,-258,177.352,44.9663,0,0,0,0,0,0,0,-1,1910,1282,177.351,-44.9663
693,-258,187.801,43.4626,0,0,0,0,0,0,0,-1,1917,1282,187.801,-43.4627
700,-258,187.34,41.8644,0,0,0,0,0,0,0,-1,1924,1282,187.34,-41.8644
707,-258,187.117,39.8556,0,0,0,0,0,0,0,-1,1931,1282,187.117,-39.8556
714,-258,186.826,38.1024,-0.00310885,0.0170994,0.00795222,0.0198533,-0.00586284,1.23741,0.0155624,0.0265873,1938,1282,186.826,-38.1024
721,-258,186.523,36.3342,-0.00798704,0.0215282,0.0128576,0.0263437,-0.0128025,1.21244,0.0230474,0.0356409,1945,1282,186.523,-36.3342
728,-258,186.1,34.6816,-0.013579,0.0256961,0.0181649,0.0328092,-0.0206921,1.19757,0.031152,0.0343099,1952,1282,186.1,-34.6816
735,-258,185.873,32.9735,-0.0198409,0.0295676,0.0238612,0.0392095,-0.0294828,1.18678,0.0397919,0.0293433,1959,1282,185.873,-32.9736
742,-258,185.553,31.4086,-0.0267259,0.0331052,0.0299304,0.0455071,-0.0391278,1.17797,0.0489103,0.0286784,1966,1282,185.553,-31.4086
749,-258,184.615,30.2793,0,0,0,0,0,0,0,-1,1973,1282,184.615,-30.2793
756,-258,146.302,29.0245,0,0,0,0,0,0,0,-1,1980,1282,146.302,-29.0245
763,-258,39.3638,5.09753,0,0,0,0,0,0,0,-1,1987,1282,39.3638,-5.09751
770,-258,40.3713,4.08325,0,0,0,0,0,0,0,-1,1994,1282,40.3713,-4.08323
777,-258,31.912,4.83093,0,0,0,0,0,0,0,-1,2001,1282,31.912,-4.8309
784,-258,32.6525,6.43091,0,0,0,0,0,0,0,-1,2008,1282,32.6525,-6.43091
791,-258,0,0,0,0,0,0,0,0,0,-1,2015,1282,0,0
798,-258,0,0,0,0,0,0,0,0,0,-1,2022,1282,0,0
805,-258,0,0,0,0,0,0,0,0,0,-1,2029,1282,0,0
812,-258,0,0,0,0,0,0,0,0,0,-1,2036,1282,0,0
-700,-265,0,0,0,0,0,0,0,0,0,-1,524,1289,0,0
-693,-265,0,0,0,0,0,0,0,0,0,-1,531,1289,0,0
-686,-265,0,0,0,0,0,0,0,0,0,-1,538,1289,0,0
-679,-265,0,0,0,0,0,0,0,0,0,-1,545,1289,0,0
-672,-265,0,0,0,0,0,0,0,0,0,-1,552,1289,0,0
-665,-265,-76.8365,26.342,0,0,0,0,0,0,0,-1,559,1289,-76.8365,-26.342
-658,-265,-65.901,0.884277,0,0,0,0,0,0,0,-1,566,1289,-65.901,-0.884263
-651,-265,-44.821,1.0614,0,0,0,0,0,0,0,-1,573,1289,-44.821,-1.06141
-644,-265,-44.4684,0.304932,0,0,0,0,0,0,0,-1,580,1289,-44.4684,-0.304991
-637,-265,-44.6157,0.250122,0,0,0,0,0,0,0,-1,587,1289,-44.6157,-0.250067
-630,-265,-44.5689,0.900269,0,0,0,0,0,0,0,-1,594,1289,-44.5689,-0.900302
-623,-265,-68.8688,15.7357,0,0,0,0,0,0,0,-1,601,1289,-68.8688,-15.7357
-616,-265,-176.848,28.0243,0,0,0,0,0,0,0,-1,608,1289,-176.848,-28.0243
-609,-265,-176.995,29.9962,-0.0136896,0.0452007,-0.0186635,0.0506173,-0.0191062,-1.28833,0.0416027,0.0348944,615,1289,-176.995,-29.9962
-602,-265,-177.438,31.8359,-0.0126715,0.0402285,-0.0179868,0.0457649,-0.0182078,-1.2722,0.0380598,0.0240195,622,1289,-177.438,-31.836
-595,-265,-177.728,33.4594,-0.010876,0.0351918,-0.016148,0.0402883,-0.0159725,-1.26508,0.0334782,0.0210307,629,1289,-177.728,-33.4594
-588,-265,-177.953,35.072,-0.00829651,0.0301023,-0.0131947,0.0341992,-0.0123934,-1.26974,0.027865,0.0191396,636,1289,-177.953,-35.072
-581,-265,-178.161,36.709,0,0,0,0,0,0,0,-1,643,1289,-178.161,-36.709
-574,-265,-178.919,37.8833,0,0,0,0,0,0,0,-1,650,1289,-178.919,-37.8833
-567,-265,-178.88,40.4779,0,0,0,0,0,0,0,-1,657,1289,-178.88,-40.4779
-560,-265,-179.078,42.8165,0,0,0,0,0,0,0,-1,664,1289,-179.078,-42.8165
-553,-265,-68.6046,28.845,0,0,0,0,0,0,0,-1,671,1289,-68.6046,-28.8449
-546,-265,-24.2283,10.2581,0,0,0,0,0,0,0,-1,678,1289,-24.2283,-10.258
-539,-265,-13.7668,6.39917,0,0,0,0,0,0,0,-1,685,1289,-13.7668,-6.39915
-532,-265,-8.53998,3.41467,0,0,0,0,0,0,0,-1,692,1289,-8.53996,-3.41473
-525,-265,-12.1317,0.514648,0,0,0,0,0,0,0,-1,699,1289,-12.1317,-0.514634
-518,-265,-24.1604,0.712402,0,0,0,0,0,0,0,-1,706,1289,-24.1604,-0.712425
-511,-265,-23.233,0.791626,0,0,0,0,0,0,0,-1,713,1289,-23.233,-0.791617
-504,-265,-22.3056,0.87085,0,0,0,0,0,0,0,-1,720,1289,-22.3056,-0.87081
-497,-265,-18.689,-0.278442,0,0,0,0,0,0,0,-1,727,1289,-18.689,0.278423
-490,-265,-15.1696,0.492676,0,0,0,0,0,0,0,-1,734,1289,-15.1696,-0.492688
-483,-265,0,0,0,0,0,0,0,0,0,-1,741,1289,0,0
-476,-265,0,0,0,0,0,0,0,0,0,-1,748,1289,0,0
-469,-265,0,0,0,0,0,0,0,0,0,-1,755,1289,0,0
-462,-265,0,0,0,0,0,0,0,0,0,-1,762,1289,0,0
-455,-265,0,0,0,0,0,0,0,0,0,-1,769,1289,0,0
-448,-265,0,0,0,0,0,0,0,0,0,-1,776,1289,0,0
-441,-265,0,0,0,0,0,0,0,0,0,-1,783,1289,0,0
-434,-265,0,0,0,0,0,0,0,0,0,-1,790,1289,0,0
-427,-265,0,0,0,0,0,0,0,0,0,-1,797,1289,0,0
-420,-265,0,0,0,0,0,0,0,0,0,-1,804,1289,0,0
-413,-265,0,0,0,0,0,0,0,0,0,-1,811,1289,0,0
-406,-265,0,0,0,0,0,0,0,0,0,-1,818,1289,0,0
-399,-265,0,0,0,0,0,0,0,0,0,-1,825,1289,0,0
-392,-265,0,0,0,0,0,0,0,0,0,-1,832,1289,0,0
-385,-265,0,0,0,0,0,0,0,0,0,-1,839,1289,0,0
-378,-265,0,0,0,0,0,0,0,0,0,-1,846,1289,0,0
-371,-265,0,0,0,0,0,0,0,0,0,-1,853,1289,0,0
-364,-265,0,0,0,0,0,0,0,0,0,-1,860,1289,0,0
-357,-265,0,0,0,0,0,0,0,0,0,-1,867,1289,0,0
-350,-265,0,0,0,0,0,0,0,0,0,-1,874,1289,0,0
-343,-265,0,0,0,0,0,0,0,0,0,-1,881,1289,0,0
-336,-265,0,0,0,0,0,0,0,0,0,-1,888,1289,0,0
-329,-265,0,0,0,0,0,0,0,0,0,-1,895,1289,0,0
-322,-265,0,0,0,0,0,0,0,0,0,-1,902,1289,0,0
-315,-265,0,0,0,0,0,0,0,0,0,-1,909,1289,0,0
-308,-265,0,0,0,0,0,0,0,0,0,-1,916,1289,0,0
-301,-265,0,0,0,0,0,0,0,0,0,-1,923,1289,0,0
-294,-265,0,0,0,0,0,0,0,0,0,-1,930,1289,0,0
-287,-265,0,0,0,0,0,0,0,0,0,-1,937,1289,0,0
-280,-265,0,0,0,0,0,0,0,0,0,-1,944,1289,0,0
-273,-265,0,0,0,0,0,0,0,0,0,-1,951,1289,0,0
-266,-265,0,0,0,0,0,0,0,0,0,-1,958,1289,0,0
-259,-265,0,0,0,0,0,0,0,0,0,-1,965,1289,0,0
-252,-265,0,0,0,0,0,0,0,0,0,-1,972,1289,0,0
-245,-265,0,0,0,0,0,0,0,0,0,-1,979,1289,0,0
-238,-265,0,0,0,0,0,0,0,0,0,-1,986,1289,0,0
-231,-265,0,0,0,0,0,0,0,0,0,-1,993,1289,0,0
-224,-265,0,0,0,0,0,0,0,0,0,-1,1000,1289,0,0
-217,-265,0,0,0,0,0,0,0,0,0,-1,1007,1289,0,0
-210,-265,0,0,0,0,0,0,0,0,0,-1,1014,1289,0,0
-203,-265,0,0,0,0,0,0,0,0,0,-1,1021,1289,0,0
-196,-265,0,0,0,0,0,0,0,0,0,-1,1028,1289,0,0
-189,-265,0,0,0,0,0,0,0,0,0,-1,1035,1289,0,0
-182,-265,0,0,0,0,0,0,0,0,0,-1,1042,1289,0,0
-175,-265,0,0,0,0,0,0,0,0,0,-1,1049,1289,0,0
-168,-265,0,0,0,0,0,0,0,0,0,-1,1056,1289,0,0
-161,-265,0,0,0,0,0,0,0,0,0,-1,1063,1289,0,0
-154,-265,0,0,0,0,0,0,0,0,0,-1,1070,1289,0,0
-147,-265,0,0,0,0,0,0,0,0,0,-1,1077,1289,0,0
-140,-265,0,0,0,0,0,0,0,0,0,-1,1084,1289,0,0
-133,-265,0,0,0,0,0,0,0,0,0,-1,1091,1289,0,0
-126,-265,0,0,0,0,0,0,0,0,0,-1,1098,1289,0,0
-119,-265,0,0,0,0,0,0,0,0,0,-1,1105,1289,0,0
-112,-265,0,0,0,0,0,0,0,0,0,-1,1112,1289,0,0
-105,-265,0,0,0,0,0,0,0,0,0,-1,1119,1289,0,0
-98,-265,0,0,0,0,0,0,0,0,0,-1,1126,1289,0,0
-91,-265,0,0,0,0,0,0,0,0,0,-1,1133,1289,0,0
-84,-265,0,0,0,0,0,0,0,0,0,-1,1140,1289,0,0
-77,-265,0,0,0,0,0,0,0,0,0,-1,1147,1289,0,0
-70,-265,0,0,0,0,0,0,0,0,0,-1,1154,1289,0,0
-63,-265,0,0,0,0,0,0,0,0,0,-1,1161,1289,0,0
-56,-265,0,0,0,0,0,0,0,0,0,-1,1168,1289,0,0
-49,-265,0,0,0,0,0,0,0,0,0,-1,1175,1289,0,0
-42,-265,0,0,0,0,0,0,0,0,0,-1,1182,1289,0,0
-35,-265,0,0,0,0,0,0,0,0,0,-1,1189,1289,0,0
-28,-265,0,0,0,0,0,0,0,0,0,-1,1196,1289,0,0
-21,-265,0,0,0,0,0,0,0,0,0,-1,1203,1289,0,0
-14,-265,0,0,0,0,0,0,0,0,0,-1,1210,1289,0,0
-7,-265,0,0,0,0,0,0,0,0,0,-1,1217,1289,0,0
0,-265,0,0,0,0,0,0,0,0,0,-1,1224,1289,0,0
7,-265,0,0,0,0,0,0,0,0,0,-1,1231,1289,0,0
14,-265,0,0,0,0,0,0,0,0,0,-1,1238,1289,0,0
21,-265,0,0,0,0,0,0,0,0,0,-1,1245,1289,0,0
28,-265,0,0,0,0,0,0,0,0,0,-1,1252,1289,0,0
35,-265,0,0,0,0,0,0,0,0,0,-1,1259,1289,0,0
42,-265,0,0,0,0,0,0,0,0,0,-1,1266,1289,0,0
49,-265,0,0,0,0,0,0,0,0,0,-1,1273,1289,0,0
56,-265,0,0,0,0,0,0,0,0,0,-1,1280,1289,0,0
63,-265,0,0,0,0,0,0,0,0,0,-1,1287,1289,0,0
70,-265,0,0,0,0,0,0,0,0,0,-1,1294,1289,0,0
77,-265,0,0,0,0,0,0,0,0,0,-1,1301,1289,0,0
84,-265,0,0,0,0,0,0,0,0,0,-1,1308,1289,0,0
91,-265,0,0,0,0,0,0,0,0,0,-1,1315,1289,0,0
98,-265,0,0,0,0,0,0,0,0,0,-1,1322,1289,0,0
105,-265,0,0,0,0,0,0,0,0,0,-1,1329,1289,0,0
112,-265,0,0,0,0,0,0,0,0,0,-1,1336,1289,0,0
119,-265,0,0,0,0,0,0,0,0,0,-1,1343,1289,0,0
126,-265,0,0,0,0,0,0,0,0,0,-1,1350,1289,0,0
133,-265,0,0,0,0,0,0,0,0,0,-1,1357,1289,0,0
140,-265,0,0,0,0,0,0,0,0,0,-1,1364,1289,0,0
147,-265,0,0,0,0,0,0,0,0,0,-1,1371,1289,0,0
154,-265,0,0,0,0,0,0,0,0,0,-1,1378,1289,0,0
161,-265,0,0,0,0,0,0,0,0,0,-1,1385,1289,0,0
168,-265,0,0,0,0,0,0,0,0,0,-1,1392,1289,0,0
175,-265,0,0,0,0,0,0,0,0,0,-1,1399,1289,0,0
182,-265,0,0,0,0,0,0,0,0,0,-1,1406,1289,0,0
189,-265,0,0,0,0,0,0,0,0,0,-1,1413,1289,0,0
196,-265,0,0,0,0,0,0,0,0,0,-1,1420,1289,0,0
203,-265,0,0,0,0,0,0,0,0,0,-1,1427,1289,0,0
210,-265,0,0,0,0,0,0,0,0,0,-1,1434,1289,0,0
217,-265,0,0,0,0,0,0,0,0,0,-1,1441,1289,0,0
224,-265,0,0,0,0,0,0,0,0,0,-1,1448,1289,0,0
231,-265,0,0,0,0,0,0,0,0,0,-1,1455,1289,0,0
238,-265,0,0,0,0,0,0,0,0,0,-1,1462,1289,0,0
245,-265,0,0,0,0,0,0,0,0,0,-1,1469,1289,0,0
252,-265,0,0,0,0,0,0,0,0,0,-1,1476,1289,0,0
259,-265,0,0,0,0,0,0,0,0,0,-1,1483,1289,0,0
266,-265,0,0,0,0,0,0,0,0,0,-1,1490,1289,0,0
273,-265,0,0,0,0,0,0,0,0,0,-1,1497,1289,0,0
280,-265,0,0,0,0,0,0,0,0,0,-1,1504,1289,0,0
287,-265,0,0,0,0,0,0,0,0,0,-1,1511,1289,0,0
294,-265,0,0,0,0,0,0,0,0,0,-1,1518,1289,0,0
301,-265,0,0,0,0,0,0,0,0,0,-1,1525,1289,0,0
308,-265,0,0,0,0,0,0,0,0,0,-1,1532,1289,0,0
315,-265,0,0,0,0,0,0,0,0,0,-1,1539,1289,0,0
322,-265,0,0,0,0,0,0,0,0,0,-1,1546,1289,0,0
329,-265,0,0,0,0,0,0,0,0,0,-1,1553,1289,0,0
336,-265,0,0,0,0,0,0,0,0,0,-1,1560,1289,0,0
343,-265,0,0,0,0,0,0,0,0,0,-1,1567,1289,0,0
350,-265,0,0,0,0,0,0,0,0,0,-1,1574,1289,0,0
357,-265,0,0,0,0,0,0,0,0,0,-1,1581,1289,0,0
364,-265,0,0,0,0,0,0,0,0,0,-1,1588,1289,0,0
371,-265,0,0,0,0,0,0,0,0,0,-1,1595,1289,0,0
378,-265,0,0,0,0,0,0,0,0,0,-1,1602,1289,0,0
385,-265,0,0,0,0,0,0,0,0,0,-1,1609,1289,0,0
392,-265,0,0,0,0,0,0,0,0,0,-1,1616,1289,0,0
399,-265,0,0,0,0,0,0,0,0,0,-1,1623,1289,0,0
406,-265,0,0,0,0,0,0,0,0,0,-1,1630,1289,0,0
413,-265,0,0,0,0,0,0,0,0,0,-1,1637,1289,0,0
420,-265,0,0,0,0,0,0,0,0,0,-1,1644,1289,0,0
427,-265,0,0,0,0,0,0,0,0,0,-1,1651,1289,0,0
434,-265,0,0,0,0,0,0,0,0,0,-1,1658,1289,0,0
441,-265,0,0,0,0,0,0,0,0,0,-1,1665,1289,0,0
448,-265,0,0,0,0,0,0,0,0,0,-1,1672,1289,0,0
455,-265,0,0,0,0,0,0,0,0,0,-1,1679,1289,0,0
462,-265,0,0,0,0,0,0,0,0,0,-1,1686,1289,0,0
469,-265,0,0,0,0,0,0,0,0,0,-1,1693,1289,0,0
476,-265,0,0,0,0,0,0,0,0,0,-1,1700,1289,0,0
483,-265,0,0,0,0,0,0,0,0,0,-1,1707,1289,0,0
490,-265,0,0,0,0,0,0,0,0,0,-1,1714,1289,0,0
497,-265,0,0,0,0,0,0,0,0,0,-1,1721,1289,0,0
504,-265,0,0,0,0,0,0,0,0,0,-1,1728,1289,0,0
511,-265,0,0,0,0,0,0,0,0,0,-1,1735,1289,0,0
518,-265,0,0,0,0,0,0,0,0,0,-1,1742,1289,0,0
525,-265,0,0,0,0,0,0,0,0,0,-1,1749,1289,0,0
532,-265,0,0,0,0,0,0,0,0,0,-1,1756,1289,0,0
539,-265,0,0,0,0,0,0,0,0,0,-1,1763,1289,0,0
546,-265,0,0,0,0,0,0,0,0,0,-1,1770,1289,0,0
553,-265,0,0,0,0,0,0,0,0,0,-1,1777,1289,0,0
560,-265,0,0,0,0,0,0,0,0,0,-1,1784,1289,0,0
567,-265,0,0,0,0,0,0,0,0,0,-1,1791,1289,0,0
574,-265,0,0,0,0,0,0,0,0,0,-1,1798,1289,0,0
581,-265,0,0,0,0,0,0,0,0,0,-1,1805,1289,0,0
588,-265,0,0,0,0,0,0,0,0,0,-1,1812,1289,0,0
595,-265,0,0,0,0,0,0,0,0,0,-1,1819,1289,0,0
602,-265,214.287,8.84924,0,0,0,0,0,0,0,-1,1826,1289,214.287,-8.84924
609,-265,214.215,8.80005,0,0,0,0,0,0,0,-1,1833,1289,214.215,-8.80005
616,-265,214.226,8.63086,0,0,0,0,0,0,0,-1,1840,1289,214.226,-8.6309
623,-265,125.862,3.50574,0,0,0,0,0,0,0,-1,1847,1289,125.862,-3.5057
630,-265,107.643,2.78882,0,0,0,0,0,0,0,-1,1854,1289,107.643,-2.78883
637,-265,92.8903,1.12158,0,0,0,0,0,0,0,-1,1861,1289,92.8903,-1.12158
644,-265,77.3746,2.97742,0,0,0,0,0,0,0,-1,1868,1289,77.3746,-2.97738
651,-265,53.6781,1.57166,0,0,0,0,0,0,0,-1,1875,1289,53.6781,-1.57167
658,-265,41.7163,3.71619,0,0,0,0,0,0,0,-1,1882,1289,41.7163,-3.71624
665,-265,34.7902,1.43164,0,0,0,0,0,0,0,-1,1889,1289,34.7901,-1.43162
672,-265,20.0045,6.62671,0,0,0,0,0,0,0,-1,1896,1289,20.0045,-6.62668
679,-265,82.8594,29.2052,0,0,0,0,0,0,0,-1,1903,1289,82.8594,-29.2052
686,-265,185.99,45.332,0,0,0,0,0,0,0,-1,1910,1289,185.99,-45.332
693,-265,185.801,43.9313,0,0,0,0,0,0,0,-1,1917,1289,185.801,-43.9312
700,-265,185.203,42.351,0,0,0,0,0,0,0,-1,1924,1289,185.203,-42.351
707,-265,185.125,40.192,-0.00271584,0.013639,0.00488176,0.0149853,-0.00406218,1.3017,0.0115841,0.0275764,1931,1289,185.125,-40.192
714,-265,184.914,38.2269,-0.00628227,0.0186226,0.00952431,0.0218474,-0.00950707,1.24433,0.018564,0.0271258,1938,1289,184.914,-38.2269
721,-265,184.37,36.4557,-0.0106415,0.0231139,0.0145597,0.0285261,-0.0160537,1.2149,0.0260718,0.0362143,1945,1289,184.37,-36.4557
728,-265,184.07,34.7764,-0.0156999,0.027328,0.02002,0.035202,-0.0235739,1.19607,0.034155,0.033903,1952,1289,184.07,-34.7764
735,-265,183.959,33.0437,-0.0214461,0.0312242,0.0259135,0.0418356,-0.0320575,1.18213,0.0427866,0.0252313,1959,1289,183.959,-33.0437
742,-265,183.666,31.4606,-0.0278213,0.0348266,0.0322328,0.0484486,-0.0414434,1.17095,0.0519516,0.0316247,1966,1289,183.666,-31.4606
749,-265,183.326,29.906,0,0,0,0,0,0,0,-1,1973,1289,183.326,-29.906
756,-265,69.9429,10.3409,0,0,0,0,0,0,0,-1,1980,1289,69.9429,-10.341
763,-265,39.1299,4.9679,0,0,0,0,0,0,0,-1,1987,1289,39.1299,-4.96791
770,-265,35.1674,5.07715,0,0,0,0,0,0,0,-1,1994,1289,35.1673,-5.07718
777,-265,32.1664,5.3457,0,0,0,0,0,0,0,-1,2001,1289,32.1664,-5.34568
784,-265,0,0,0,0,0,0,0,0,0,-1,2008,1289,0,0
791,-265,0,0,0,0,0,0,0,0,0,-1,2015,1289,0,0
798,-265,0,0,0,0,0,0,0,0,0,-1,2022,1289,0,0
805,-265,0,0,0,0,0,0,0,0,0,-1,2029,1289,0,0
812,-265,0,0,0,0,0,0,0,0,0,-1,2036,1289,0,0
-700,-272,0,0,0,0,0,0,0,0,0,-1,524,1296,0,0
-693,-272,0,0,0,0,0,0,0,0,0,-1,531,1296,0,0
-686,-272,0,0,0,0,0,0,0,0,0,-1,538,1296,0,0
-679,-272,0,0,0,0,0,0,0,0,0,-1,545,1296,0,0
-672,-272,0,0,0,0,0,0,0,0,0,-1,552,1296,0,0
-665,-272,0,0,0,0,0,0,0,0,0,-1,559,1296,0,0
-658,-272,-44.6526,1.54443,0,0,0,0,0,0,0,-1,566,1296,-44.6526,-1.5444
-651,-272,-44.3723,1.53772,0,0,0,0,0,0,0,-1,573,1296,-44.3723,-1.53774
-644,-272,-44.1104,1.46021,0,0,0,0,0,0,0,-1,580,1296,-44.1104,-1.46022
-637,-272,-43.9348,1.25171,0,0,0,0,0,0,0,-1,587,1296,-43.9348,-1.25175
-630,-272,-43.5906,0.784912,0,0,0,0,0,0,0,-1,594,1296,-43.5906,-0.784935
-623,-272,-36.8673,6.23547,0,0,0,0,0,0,0,-1,601,1296,-36.8673,-6.23548
-616,-272,-161.404,29.9991,0,0,0,0,0,0,0,-1,608,1296,-161.404,-29.9991
-609,-272,-174.746,29.9359,0,0,0,0,0,0,0,-1,615,1296,-174.746,-29.9359
-602,-272,-175.296,31.7246,-0.0120531,0.0419303,-0.0189603,0.0479241,-0.0180469,-1.26461,0.0393689,0.0278775,622,1296,-175.296,-31.7246
-595,-272,-175.671,33.4675,-0.0100003,0.0370153,-0.017308,0.0426997,-0.0156847,-1.25347,0.0348904,0.0199763,629,1296,-175.671,-33.4676
-588,-272,-176.017,35.1694,-0.00715126,0.032098,-0.0146425,0.0369586,-0.0120119,-1.25029,0.0294707,0.0202683,636,1296,-176.017,-35.1695
-581,-272,-176.286,36.9824,-0.00356875,0.0271674,-0.0110752,0.0307423,-0.00714369,-1.25857,0.0232449,0.0301211,643,1296,-176.286,-36.9824
-574,-272,-176.474,39.0353,0,0,0,0,0,0,0,-1,650,1296,-176.474,-39.0353
-567,-272,-176.807,40.5813,0,0,0,0,0,0,0,-1,657,1296,-176.807,-40.5812
-560,-272,-76.906,31.7885,0,0,0,0,0,0,0,-1,664,1296,-76.906,-31.7884
-553,-272,-77.0592,33.2899,0,0,0,0,0,0,0,-1,671,1296,-77.0592,-33.2899
-546,-272,-66.9853,29.9088,0,0,0,0,0,0,0,-1,678,1296,-66.9853,-29.9089
-539,-272,-24.1416,11.0325,0,0,0,0,0,0,0,-1,685,1296,-24.1416,-11.0324
-532,-272,-10.5572,4.53943,0,0,0,0,0,0,0,-1,692,1296,-10.5572,-4.53943
-525,-272,-11.9599,0.0393066,0,0,0,0,0,0,0,-1,699,1296,-11.9599,-0.0393577
-518,-272,-21.1357,-1.41382,0,0,0,0,0,0,0,-1,706,1296,-21.1357,1.41379
-511,-272,-23.2565,0.226318,0,0,0,0,0,0,0,-1,713,1296,-23.2565,-0.22626
-504,-272,-19.7397,0.114746,0,0,0,0,0,0,0,-1,720,1296,-19.7397,-0.114701
-497,-272,-19.2225,1.71301,0,0,0,0,0,0,0,-1,727,1296,-19.2225,-1.71302
-490,-272,-20.1948,2.4032,0,0,0,0,0,0,0,-1,734,1296,-20.1948,-2.40322
-483,-272,-15.3736,0.792603,0,0,0,0,0,0,0,-1,741,1296,-15.3736,-0.79263
-476,-272,0,0,0,0,0,0,0,0,0,-1,748,1296,0,0
-469,-272,0,0,0,0,0,0,0,0,0,-1,755,1296,0,0
-462,-272,0,0,0,0,0,0,0,0,0,-1,762,1296,0,0
-455,-272,0,0,0,0,0,0,0,0,0,-1,769,1296,0,0
-448,-272,0,0,0,0,0,0,0,0,0,-1,776,1296,0,0
-441,-272,0,0,0,0,0,0,0,0,0,-1,783,1296,0,0
-434,-272,0,0,0,0,0,0,0,0,0,-1,790,1296,0,0
-427,-272,0,0,0,0,0,0,0,0,0,-1,797,1296,0,0
-420,-272,0,0,0,0,0,0,0,0,0,-1,804,1296,0,0
-413,-272,0,0,0,0,0,0,0,0,0,-1,811,1296,0,0
-406,-272,0,0,0,0,0,0,0,0,0,-1,818,1296,0,0
-399,-272,0,0,0,0,0,0,0,0,0,-1,825,1296,0,0
-392,-272,0,0,0,0,0,0,0,0,0,-1,832,1296,0,0
-385,-272,0,0,0,0,0,0,0,0,0,-1,839,1296,0,0
-378,-272,0,0,0,0,0,0,0,0,0,-1,846,1296,0,0
-371,-272,0,0,0,0,0,0,0,0,0,-1,853,1296,0,0
-364,-272,0,0,0,0,0,0,0,0,0,-1,860,1296,0,0
-357,-272,0,0,0,0,0,0,0,0,0,-1,867,1296,0,0
-350,-272,0,0,0,0,0,0,0,0,0,-1,874,1296,0,0
-343,-272,0,0,0,0,0,0,0,0,0,-1,881,1296,0,0
-336,-272,0,0,0,0,0,0,0,0,0,-1,888,1296,0,0
-329,-272,0,0,0,0,0,0,0,0,0,-1,895,1296,0,0
-322,-272,0,0,0,0,0,0,0,0,0,-1,902,1296,0,0
-315,-272,0,0,0,0,0,0,0,0,0,-1,909,1296,0,0
-308,-272,0,0,0,0,0,0,0,0,0,-1,916,1296,0,0
-301,-272,0,0,0,0,0,0,0,0,0,-1,923,1296,0,0
-294,-272,0,0,0,0,0,0,0,0,0,-1,930,1296,0,0
-287,-272,0,0,0,0,0,0,0,0,0,-1,937,1296,0,0
-280,-272,0,0,0,0,0,0,0,0,0,-1,944,1296,0,0
-273,-272,0,0,0,0,0,0,0,0,0,-1,951,1296,0,0
-266,-272,0,0,0,0,0,0,0,0,0,-1,958,1296,0,0
-259,-272,0,0,0,0,0,0,0,0,0,-1,965,1296,0,0
-252,-272,0,0,0,0,0,0,0,0,0,-1,972,1296,0,0
-245,-272,0,0,0,0,0,0,0,0,0,-1,979,1296,0,0
-238,-272,0,0,0,0,0,0,0,0,0,-1,986,1296,0,0
-231,-272,0,0,0,0,0,0,0,0,0,-1,993,1296,0,0
-224,-272,0,0,0,0,0,0,0,0,0,-1,1000,1296,0,0
-217,-272,0,0,0,0,0,0,0,0,0,-1,1007,1296,0,0
-210,-272,0,0,0,0,0,0,0,0,0,-1,1014,1296,0,0
-203,-272,0,0,0,0,0,0,0,0,0,-1,1021,1296,0,0
-196,-272,0,0,0,0,0,0,0,0,0,-1,1028,1296,0,0
-189,-272,0,0,0,0,0,0,0,0,0,-1,1035,1296,0,0
-182,-272,0,0,0,0,0,0,0,0,0,-1,1042,1296,0,0
-175,-272,0,0,0,0,0,0,0,0,0,-1,1049,1296,0,0
-168,-272,0,0,0,0,0,0,0,0,0,-1,1056,1296,0,0
-161,-272,0,0,0,0,0,0,0,0,0,-1,1063,1296,0,0
-154,-272,0,0,0,0,0,0,0,0,0,-1,1070,1296,0,0
-147,-272,0,0,0,0,0,0,0,0,0,-1,1077,1296,0,0
-140,-272,0,0,0,0,0,0,0,0,0,-1,1084,1296,0,0
-133,-272,0,0,0,0,0,0,0,0,0,-1,1091,1296,0,0
-126,-272,0,0,0,0,0,0,0,0,0,-1,1098,1296,0,0
-119,-272,0,0,0,0,0,0,0,0,0,-1,1105,1296,0,0
-112,-272,0,0,0,0,0,0,0,0,0,-1,1112,1296,0,0
-105,-272,0,0,0,0,0,0,0,0,0,-1,1119,1296,0,0
-98,-272,0,0,0,0,0,0,0,0,0,-1,1126,1296,0,0
-91,-272,0,0,0,0,0,0,0,0,0,-1,1133,1296,0,0
-84,-272,0,0,0,0,0,0,0,0,0,-1,1140,1296,0,0
-77,-272,0,0,0,0,0,0,0,0,0,-1,1147,1296,0,0
-70,-272,0,0,0,0,0,0,0,0,0,-1,1154,1296,0,0
-63,-272,0,0,0,0,0,0,0,0,0,-1,1161,1296,0,0
-56,-272,0,0,0,0,0,0,0,0,0,-1,1168,1296,0,0
-49,-272,0,0,0,0,0,0,0,0,0,-1,1175,1296,0,0
-42,-272,0,0,0,0,0,0,0,0,0,-1,1182,1296,0,0
-35,-272,0,0,0,0,0,0,0,0,0,-1,1189,1296,0,0
-28,-272,0,0,0,0,0,0,0,0,0,-1,1196,1296,0,0
-21,-272,0,0,0,0,0,0,0,0,0,-1,1203,1296,0,0
-14,-272,0,0,0,0,0,0,0,0,0,-1,1210,1296,0,0
-7,-272,0,0,0,0,0,0,0,0,0,-1,1217,1296,0,0
0,-272,0,0,0,0,0,0,0,0,0,-1,1224,1296,0,0
7,-272,0,0,0,0,0,0,0,0,0,-1,1231,1296,0,0
14,-272,0,0,0,0,0,0,0,0,0,-1,1238,1296,0,0
21,-272,0,0,0,0,0,0,0,0,0,-1,1245,1296,0,0
28,-272,0,0,0,0,0,0,0,0,0,-1,1252,1296,0,0
35,-272,0,0,0,0,0,0,0,0,0,-1,1259,1296,0,0
42,-272,0,0,0,0,0,0,0,0,0,-1,1266,1296,0,0
49,-272,0,0,0,0,0,0,0,0,0,-1,1273,1296,0,0
56,-272,0,0,0,0,0,0,0,0,0,-1,1280,1296,0,0
63,-272,0,0,0,0,0,0,0,0,0,-1,1287,1296,0,0
70,-272,0,0,0,0,0,0,0,0,0,-1,1294,1296,0,0
77,-272,0,0,0,0,0,0,0,0,0,-1,1301,1296,0,0
84,-272,0,0,0,0,0,0,0,0,0,-1,1308,1296,0,0
91,-272,0,0,0,0,0,0,0,0,0,-1,1315,1296,0,0
98,-272,0,0,0,0,0,0,0,0,0,-1,1322,1296,0,0
105,-272,0,0,0,0,0,0,0,0,0,-1,1329,1296,0,0
112,-272,0,0,0,0,0,0,0,0,0,-1,1336,1296,0,0
119,-272,0,0,0,0,0,0,0,0,0,-1,1343,1296,0,0
126,-272,0,0,0,0,0,0,0,0,0,-1,1350,1296,0,0
133,-272,0,0,0,0,0,0,0,0,0,-1,1357,1296,0,0
140,-272,0,0,0,0,0,0,0,0,0,-1,1364,1296,0,0
147,-272,0,0,0,0,0,0,0,0,0,-1,1371,1296,0,0
154,-272,0,0,0,0,0,0,0,0,0,-1,1378,1296,0,0
161,-272,0,0,0,0,0,0,0,0,0,-1,1385,1296,0,0
168,-272,0,0,0,0,0,0,0,0,0,-1,1392,1296,0,0
175,-272,0,0,0,0,0,0,0,0,0,-1,1399,1296,0,0
182,-272,0,0,0,0,0,0,0,0,0,-1,1406,1296,0,0
189,-272,0,0,0,0,0,0,0,0,0,-1,1413,1296,0,0
196,-272,0,0,0,0,0,0,0,0,0,-1,1420,1296,0,0
203,-272,0,0,0,0,0,0,0,0,0,-1,1427,1296,0,0
210,-272,0,0,0,0,0,0,0,0,0,-1,1434,1296,0,0
217,-272,0,0,0,0,0,0,0,0,0,-1,1441,1296,0,0
224,-272,0,0,0,0,0,0,0,0,0,-1,1448,1296,0,0
231,-272,0,0,0,0,0,0,0,0,0,-1,1455,1296,0,0
238,-272,0,0,0,0,0,0,0,0,0,-1,1462,1296,0,0
245,-272,0,0,0,0,0,0,0,0,0,-1,1469,1296,0,0
252,-272,0,0,0,0,0,0,0,0,0,-1,1476,1296,0,0
259,-272,0,0,0,0,0,0,0,0,0,-1,1483,1296,0,0
266,-272,0,0,0,0,0,0,0,0,0,-1,1490,1296,0,0
273,-272,0,0,0,0,0,0,0,0,0,-1,1497,1296,0,0
280,-272,0,0,0,0,0,0,0,0,0,-1,1504,1296,0,0
287,-272,0,0,0,0,0,0,0,0,0,-1,1511,1296,0,0
294,-272,0,0,0,0,0,0,0,0,0,-1,1518,1296,0,0
301,-272,0,0,0,0,0,0,0,0,0,-1,1525,1296,0,0
308,-272,0,0,0,0,0,0,0,0,0,-1,1532,1296,0,0
315,-272,0,0,0,0,0,0,0,0,0,-1,1539,1296,0,0
322,-272,0,0,0,0,0,0,0,0,0,-1,1546,1296,0,0
329,-272,0,0,0,0,0,0,0,0,0,-1,1553,1296,0,0
336,-272,0,0,0,0,0,0,0,0,0,-1,1560,1296,0,0
343,-272,0,0,0,0,0,0,0,0,0,-1,1567,1296,0,0
350,-272,0,0,0,0,0,0,0,0,0,-1,1574,1296,0,0
357,-272,0,0,0,0,0,0,0,0,0,-1,1581,1296,0,0
364,-272,0,0,0,0,0,0,0,0,0,-1,1588,1296,0,0
371,-272,0,0,0,0,0,0,0,0,0,-1,1595,1296,0,0
378,-272,0,0,0,0,0,0,0,0,0,-1,1602,1296,0,0
385,-272,0,0,0,0,0,0,0,0,0,-1,1609,1296,0,0
392,-272,0,0,0,0,0,0,0,0,0,-1,1616,1296,0,0
399,-272,0,0,0,0,0,0,0,0,0,-1,1623,1296,0,0
406,-272,0,0,0,0,0,0,0,0,0,-1,1630,1296,0,0
413,-272,0,0,0,0,0,0,0,0,0,-1,1637,1296,0,0
420,-272,0,0,0,0,0,0,0,0,0,-1,1644,1296,0,0
427,-272,0,0,0,0,0,0,0,0,0,-1,1651,1296,0,0
434,-272,0,0,0,0,0,0,0,0,0,-1,1658,1296,0,0
441,-272,0,0,0,0,0,0,0,0,0,-1,1665,1296,0,0
448,-272,0,0,0,0,0,0,0,0,0,-1,1672,1296,0,0
455,-272,0,0,0,0,0,0,0,0,0,-1,1679,1296,0,0
462,-272,0,0,0,0,0,0,0,0,0,-1,1686,1296,0,0
469,-272,0,0,0,0,0,0,0,0,0,-1,1693,1296,0,0
476,-272,0,0,0,0,0,0,0,0,0,-1,1700,1296,0,0
483,-272,0,0,0,0,0,0,0,0,0,-1,1707,1296,0,0
490,-272,0,0,0,0,0,0,0,0,0,-1,1714,1296,0,0
497,-272,0,0,0,0,0,0,0,0,0,-1,1721,1296,0,0
504,-272,0,0,0,0,0,0,0,0,0,-1,1728,1296,0,0
511,-272,0,0,0,0,0,0,0,0,0,-1,1735,1296,0,0
518,-272,0,0,0,0,0,0,0,0,0,-1,1742,1296,0,0
525,-272,0,0,0,0,0,0,0,0,0,-1,1749,1296,0,0
532,-272,0,0,0,0,0,0,0,0,0,-1,1756,1296,0,0
539,-272,0,0,0,0,0,0,0,0,0,-1,1763,1296,0,0
546,-272,0,0,0,0,0,0,0,0,0,-1,1770,1296,0,0
553,-272,0,0,0,0,0,0,0,0,0,-1,1777,1296,0,0
560,-272,0,0,0,0,0,0,0,0,0,-1,1784,1296,0,0
567,-272,0,0,0,0,0,0,0,0,0,-1,1791,1296,0,0
574,-272,0,0,0,0,0,0,0,0,0,-1,1798,1296,0,0
581,-272,0,0,0,0,0,0,0,0,0,-1,1805,1296,0,0
588,-272,0,0,0,0,0,0,0,0,0,-1,1812,1296,0,0
595,-272,0,0,0,0,0,0,0,0,0,-1,1819,1296,0,0
602,-272,214.354,8.81909,0,0,0,0,0,0,0,-1,1826,1296,214.354,-8.81914
609,-272,214.265,8.70251,0,0,0,0,0,0,0,-1,1833,1296,214.265,-8.7025
616,-272,126.119,3.40002,0,0,0,0,0,0,0,-1,1840,1296,126.119,-3.40006
623,-272,109.517,3.08215,0,0,0,0,0,0,0,-1,1847,1296,109.517,-3.08218
630,-272,97.5989,2.35938,0,0,0,0,0,0,0,-1,1854,1296,97.5989,-2.35936
637,-272,81.689,1.84167,0,0,0,0,0,0,0,-1,1861,1296,81.6889,-1.84169
644,-272,53.563,1.44336,0,0,0,0,0,0,0,-1,1868,1296,53.5629,-1.4433
651,-272,41.9225,4.27161,0,0,0,0,0,0,0,-1,1875,1296,41.9225,-4.27157
658,-272,35.1527,2.10571,0,0,0,0,0,0,0,-1,1882,1296,35.1527,-2.10573
665,-272,22.0238,4.14417,0,0,0,0,0,0,0,-1,1889,1296,22.0238,-4.14421
672,-272,22.661,7.21765,0,0,0,0,0,0,0,-1,1896,1296,22.661,-7.21761
679,-272,51.5885,15.1158,0,0,0,0,0,0,0,-1,1903,1296,51.5885,-15.1159
686,-272,184.197,46.2505,0,0,0,0,0,0,0,-1,1910,1296,184.197,-46.2505
693,-272,183.955,44.2751,0,0,0,0,0,0,0,-1,1917,1296,183.955,-44.2751
700,-272,183.402,42.2987,0,0,0,0,0,0,0,-1,1924,1296,183.402,-42.2987
707,-272,183.08,40.3361,-0.00544428,0.0157922,0.00636996,0.0175563,-0.00720842,1.30062,0.0147081,0.0250015,1931,1296,183.08,-40.3361
714,-272,182.803,38.4623,-0.00866652,0.0205431,0.0111584,0.0243179,-0.0124413,1.24459,0.021589,0.0273494,1938,1296,182.803,-38.4623
721,-272,182.349,36.6587,-0.0125661,0.0249674,0.0163588,0.0310964,-0.0186952,1.21232,0.0290429,0.0392977,1945,1296,182.349,-36.6587
728,-272,181.923,34.8158,-0.0170987,0.0291785,0.0220027,0.0379697,-0.0258899,1.19068,0.0370886,0.0395563,1952,1296,181.923,-34.8158
735,-272,181.706,33.1425,-0.0223057,0.0330974,0.0281316,0.044877,-0.0340853,1.17425,0.0457306,0.030761,1959,1296,181.706,-33.1425
742,-272,181.317,31.5571,-0.0280921,0.0368696,0.0347481,0.0519538,-0.0431764,1.16124,0.0550013,0.0394549,1966,1296,181.317,-31.5571
749,-272,180.859,29.9235,0,0,0,0,0,0,0,-1,1973,1296,180.859,-29.9235
756,-272,95.0237,19.6219,0,0,0,0,0,0,0,-1,1980,1296,95.0237,-19.622
763,-272,34.3995,5.88416,0,0,0,0,0,0,0,-1,1987,1296,34.3996,-5.88419
770,-272,25.9485,3.67749,0,0,0,0,0,0,0,-1,1994,1296,25.9485,-3.67744
777,-272,32.3619,6.13257,0,0,0,0,0,0,0,-1,2001,1296,32.362,-6.1326
784,-272,0,0,0,0,0,0,0,0,0,-1,2008,1296,0,0
791,-272,0,0,0,0,0,0,0,0,0,-1,2015,1296,0,0
798,-272,0,0,0,0,0,0,0,0,0,-1,2022,1296,0,0
805,-272,0,0,0,0,0,0,0,0,0,-1,2029,1296,0,0
812,-272,0,0,0,0,0,0,0,0,0,-1,2036,1296,0,0
-700,-279,0,0,0,0,0,0,0,0,0,-1,524,1303,0,0
-693,-279,0,0,0,0,0,0,0,0,0,-1,531,1303,0,0
-686,-279,0,0,0,0,0,0,0,0,0,-1,538,1303,0,0
-679,-279,0,0,0,0,0,0,0,0,0,-1,545,1303,0,0
-672,-279,0,0,0,0,0,0,0,0,0,-1,552,1303,0,0
-665,-279,0,0,0,0,0,0,0,0,0,-1,559,1303,0,0
-658,-279,-44.3733,1.65881,0,0,0,0,0,0,0,-1,566,1303,-44.3733,-1.65883
-651,-279,-44.1603,1.61462,0,0,0,0,0,0,0,-1,573,1303,-44.1604,-1.61462
-644,-279,-43.8069,1.50903,0,0,0,0,0,0,0,-1,580,1303,-43.8069,-1.50909
-637,-279,-43.2951,1.33704,0,0,0,0,0,0,0,-1,587,1303,-43.2951,-1.33703
-630,-279,-42.6152,1.22852,0,0,0,0,0,0,0,-1,594,1303,-42.6152,-1.22856
-623,-279,-41.8359,0.907715,0,0,0,0,0,0,0,-1,601,1303,-41.8358,-0.907688
-616,-279,-36.7089,8.0625,0,0,0,0,0,0,0,-1,608,1303,-36.7089,-8.06252
-609,-279,-173.174,29.8215,0,0,0,0,0,0,0,-1,615,1303,-173.174,-29.8215
-602,-279,-173.376,31.6764,-0.0119837,0.0435066,-0.0202465,0.0501084,-0.0185855,-1.2556,0.0410288,0.031933,622,1303,-173.376,-31.6764
-595,-279,-173.67,33.4766,-0.0093422,0.0388226,-0.0184155,0.0450568,-0.0155764,-1.24438,0.0363597,0.0199711,629,1303,-173.67,-33.4765
-588,-279,-173.98,35.2439,-0.00606846,0.0341374,-0.0157886,0.0395963,-0.0115274,-1.23791,0.0309637,0.0222475,636,1303,-173.98,-35.2439
-581,-279,-174.276,37.041,-0.00224243,0.0294427,-0.0124841,0.0337704,-0.0065701,-1.2371,0.0249931,0.0231851,643,1303,-174.276,-37.041
-574,-279,-174.441,38.9371,0.00203938,0.0247242,-0.00863767,0.0276387,-0.000875121,-1.24537,0.0187243,0.0464939,650,1303,-174.441,-38.9372
-567,-279,-174.289,40.9847,0,0,0,0,0,0,0,-1,657,1303,-174.289,-40.9848
-560,-279,-75.499,31.936,0,0,0,0,0,0,0,-1,664,1303,-75.499,-31.936
-553,-279,-91.6979,38.8201,0,0,0,0,0,0,0,-1,671,1303,-91.6979,-38.82
-546,-279,-75.6956,34.5919,0,0,0,0,0,0,0,-1,678,1303,-75.6955,-34.5919
-539,-279,-43.8463,20.5084,0,0,0,0,0,0,0,-1,685,1303,-43.8463,-20.5085
-532,-279,-14.9813,7.89917,0,0,0,0,0,0,0,-1,692,1303,-14.9813,-7.89918
-525,-279,-11.7063,-0.539185,0,0,0,0,0,0,0,-1,699,1303,-11.7063,0.539166
-518,-279,-16.8138,1.11963,0,0,0,0,0,0,0,-1,706,1303,-16.8138,-1.11968
-511,-279,-20.1063,-1.37915,0,0,0,0,0,0,0,-1,713,1303,-20.1062,1.37918
-504,-279,-18.3766,1.04578,0,0,0,0,0,0,0,-1,720,1303,-18.3767,-1.04577
-497,-279,-19.0046,2.08911,0,0,0,0,0,0,0,-1,727,1303,-19.0046,-2.08905
-490,-279,-20.0176,2.55188,0,0,0,0,0,0,0,-1,734,1303,-20.0176,-2.55183
-483,-279,-20.8064,2.99792,0,0,0,0,0,0,0,-1,741,1303,-20.8064,-2.99797
-476,-279,0,0,0,0,0,0,0,0,0,-1,748,1303,0,0
-469,-279,0,0,0,0,0,0,0,0,0,-1,755,1303,0,0
-462,-279,0,0,0,0,0,0,0,0,0,-1,762,1303,0,0
-455,-279,0,0,0,0,0,0,0,0,0,-1,769,1303,0,0
-448,-279,0,0,0,0,0,0,0,0,0,-1,776,1303,0,0
-441,-279,0,0,0,0,0,0,0,0,0,-1,783,1303,0,0
-434,-279,0,0,0,0,0,0,0,0,0,-1,790,1303,0,0
-427,-279,0,0,0,0,0,0,0,0,0,-1,797,1303,0,0
-420,-279,0,0,0,0,0,0,0,0,0,-1,804,1303,0,0
-413,-279,0,0,0,0,0,0,0,0,0,-1,811,1303,0,0
-406,-279,0,0,0,0,0,0,0,0,0,-1,818,1303,0,0
-399,-279,0,0,0,0,0,0,0,0,0,-1,825,1303,0,0
-392,-279,0,0,0,0,0,0,0,0,0,-1,832,1303,0,0
-385,-279,0,0,0,0,0,0,0,0,0,-1,839,1303,0,0
-378,-279,0,0,0,0,0,0,0,0,0,-1,846,1303,0,0
-371,-279,0,0,0,0,0,0,0,0,0,-1,853,1303,0,0
-364,-279,0,0,0,0,0,0,0,0,0,-1,860,1303,0,0
-357,-279,0,0,0,0,0,0,0,0,0,-1,867,1303,0,0
-350,-279,0,0,0,0,0,0,0,0,0,-1,874,1303,0,0
-343,-279,0,0,0,0,0,0,0,0,0,-1,881,1303,0,0
-336,-279,0,0,0,0,0,0,0,0,0,-1,888,1303,0,0
-329,-279,0,0,0,0,0,0,0,0,0,-1,895,1303,0,0
-322,-279,0,0,0,0,0,0,0,0,0,-1,902,1303,0,0
-315,-279,0,0,0,0,0,0,0,0,0,-1,909,1303,0,0
-308,-279,0,0,0,0,0,0,0,0,0,-1,916,1303,0,0
-301,-279,0,0,0,0,0,0,0,0,0,-1,923,1303,0,0
-294,-279,0,0,0,0,0,0,0,0,0,-1,930,1303,0,0
-287,-279,0,0,0,0,0,0,0,0,0,-1,937,1303,0,0
-280,-279,0,0,0,0,0,0,0,0,0,-1,944,1303,0,0
-273,-279,0,0,0,0,0,0,0,0,0,-1,951,1303,0,0
-266,-279,0,0,0,0,0,0,0,0,0,-1,958,1303,0,0
-259,-279,0,0,0,0,0,0,0,0,0,-1,965,1303,0,0
-252,-279,0,0,0,0,0,0,0,0,0,-1,972,1303,0,0
-245,-279,0,0,0,0,0,0,0,0,0,-1,979,1303,0,0
-238,-279,0,0,0,0,0,0,0,0,0,-1,986,1303,0,0
-231,-279,0,0,0,0,0,0,0,0,0,-1,993,1303,0,0
-224,-279,0,0,0,0,0,0,0,0,0,-1,1000,1303,0,0
-217,-279,0,0,0,0,0,0,0,0,0,-1,1007,1303,0,0
-210,-279,0,0,0,0,0,0,0,0,0,-1,1014,1303,0,0
-203,-279,0,0,0,0,0,0,0,0,0,-1,1021,1303,0,0
-196,-279,0,0,0,0,0,0,0,0,0,-1,1028,1303,0,0
-189,-279,0,0,0,0,0,0,0,0,0,-1,1035,1303,0,0
-182,-279,0,0,0,0,0,0,0,0,0,-1,1042,1303,0,0
-175,-279,0,0,0,0,0,0,0,0,0,-1,1049,1303,0,0
-168,-279,0,0,0,0,0,0,0,0,0,-1,1056,1303,0,0
-161,-279,0,0,0,0,0,0,0,0,0,-1,1063,1303,0,0
-154,-279,0,0,0,0,0,0,0,0,0,-1,1070,1303,0,0
-147,-279,0,0,0,0,0,0,0,0,0,-1,1077,1303,0,0
-140,-279,0,0,0,0,0,0,0,0,0,-1,1084,1303,0,0
-133,-279,0,0,0,0,0,0,0,0,0,-1,1091,1303,0,0
-126,-279,0,0,0,0,0,0,0,0,0,-1,1098,1303,0,0
-119,-279,0,0,0,0,0,0,0,0,0,-1,1105,1303,0,0
-112,-279,0,0,0,0,0,0,0,0,0,-1,1112,1303,0,0
-105,-279,0,0,0,0,0,0,0,0,0,-1,1119,1303,0,0
-98,-279,0,0,0,0,0,0,0,0,0,-1,1126,1303,0,0
-91,-279,0,0,0,0,0,0,0,0,0,-1,1133,1303,0,0
-84,-279,0,0,0,0,0,0,0,0,0,-1,1140,1303,0,0
-77,-279,0,0,0,0,0,0,0,0,0,-1,1147,1303,0,0
-70,-279,0,0,0,0,0,0,0,0,0,-1,1154,1303,0,0
-63,-279,0,0,0,0,0,0,0,0,0,-1,1161,1303,0,0
-56,-279,0,0,0,0,0,0,0,0,0,-1,1168,1303,0,0
-49,-279,0,0,0,0,0,0,0,0,0,-1,1175,1303,0,0
-42,-279,0,0,0,0,0,0,0,0,0,-1,1182,1303,0,0
-35,-279,0,0,0,0,0,0,0,0,0,-1,1189,1303,0,0
-28,-279,0,0,0,0,0,0,0,0,0,-1,1196,1303,0,0
-21,-279,0,0,0,0,0,0,0,0,0,-1,1203,1303,0,0
-14,-279,0,0,0,0,0,0,0,0,0,-1,1210,1303,0,0
-7,-279,0,0,0,0,0,0,0,0,0,-1,1217,1303,0,0
0,-279,0,0,0,0,0,0,0,0,0,-1,1224,1303,0,0
7,-279,0,0,0,0,0,0,0,0,0,-1,1231,1303,0,0
14,-279,0,0,0,0,0,0,0,0,0,-1,1238,1303,0,0
21,-279,0,0,0,0,0,0,0,0,0,-1,1245,1303,0,0
28,-279,0,0,0,0,0,0,0,0,0,-1,1252,1303,0,0
35,-279,0,0,0,0,0,0,0,0,0,-1,1259,1303,0,0
42,-279,0,0,0,0,0,0,0,0,0,-1,1266,1303,0,0
49,-279,0,0,0,0,0,0,0,0,0,-1,1273,1303,0,0
56,-279,0,0,0,0,0,0,0,0,0,-1,1280,1303,0,0
63,-279,0,0,0,0,0,0,0,0,0,-1,1287,1303,0,0
70,-279,0,0,0,0,0,0,0,0,0,-1,1294,1303,0,0
77,-279,0,0,0,0,0,0,0,0,0,-1,1301,1303,0,0
84,-279,0,0,0,0,0,0,0,0,0,-1,1308,1303,0,0
91,-279,0,0,0,0,0,0,0,0,0,-1,1315,1303,0,0
98,-279,0,0,0,0,0,0,0,0,0,-1,1322,1303,0,0
105,-279,0,0,0,0,0,0,0,0,0,-1,1329,1303,0,0
112,-279,0,0,0,0,0,0,0,0,0,-1,1336,1303,0,0
119,-279,0,0,0,0,0,0,0,0,0,-1,1343,1303,0,0
126,-279,0,0,0,0,0,0,0,0,0,-1,1350,1303,0,0
133,-279,0,0,0,0,0,0,0,0,0,-1,1357,1303,0,0
140,-279,0,0,0,0,0,0,0,0,0,-1,1364,1303,0,0
147,-279,0,0,0,0,0,0,0,0,0,-1,1371,1303,0,0
154,-279,0,0,0,0,0,0,0,0,0,-1,1378,1303,0,0
161,-279,0,0,0,0,0,0,0,0,0,-1,1385,1303,0,0
168,-279,0,0,0,0,0,0,0,0,0,-1,1392,1303,0,0
175,-279,0,0,0,0,0,0,0,0,0,-1,1399,1303,0,0
182,-279,0,0,0,0,0,0,0,0,0,-1,1406,1303,0,0
189,-279,0,0,0,0,0,0,0,0,0,-1,1413,1303,0,0
196,-279,0,0,0,0,0,0,0,0,0,-1,1420,1303,0,0
203,-279,0,0,0,0,0,0,0,0,0,-1,1427,1303,0,0
210,-279,0,0,0,0,0,0,0,0,0,-1,1434,1303,0,0
217,-279,0,0,0,0,0,0,0,0,0,-1,1441,1303,0,0
224,-279,0,0,0,0,0,0,0,0,0,-1,1448,1303,0,0
231,-279,0,0,0,0,0,0,0,0,0,-1,1455,1303,0,0
238,-279,0,0,0,0,0,0,0,0,0,-1,1462,1303,0,0
245,-279,0,0,0,0,0,0,0,0,0,-1,1469,1303,0,0
252,-279,0,0,0,0,0,0,0,0,0,-1,1476,1303,0,0
259,-279,0,0,0,0,0,0,0,0,0,-1,1483,1303,0,0
266,-279,0,0,0,0,0,0,0,0,0,-1,1490,1303,0,0
273,-279,0,0,0,0,0,0,0,0,0,-1,1497,1303,0,0
280,-279,0,0,0,0,0,0,0,0,0,-1,1504,1303,0,0
287,-279,0,0,0,0,0,0,0,0,0,-1,1511,1303,0,0
294,-279,0,0,0,0,0,0,0,0,0,-1,1518,1303,0,0
301,-279,0,0,0,0,0,0,0,0,0,-1,1525,1303,0,0
308,-279,0,0,0,0,0,0,0,0,0,-1,1532,1303,0,0
315,-279,0,0,0,0,0,0,0,0,0,-1,1539,1303,0,0
322,-279,0,0,0,0,0,0,0,0,0,-1,1546,1303,0,0
329,-279,0,0,0,0,0,0,0,0,0,-1,1553,1303,0,0
336,-279,0,0,0,0,0,0,0,0,0,-1,1560,1303,0,0
343,-279,0,0,0,0,0,0,0,0,0,-1,1567,1303,0,0
350,-279,0,0,0,0,0,0,0,0,0,-1,1574,1303,0,0
357,-279,0,0,0,0,0,0,0,0,0,-1,1581,1303,0,0
364,-279,0,0,0,0,0,0,0,0,0,-1,1588,1303,0,0
371,-279,0,0,0,0,0,0,0,0,0,-1,1595,1303,0,0
378,-279,0,0,0,0,0,0,0,0,0,-1,1602,1303,0,0
385,-279,0,0,0,0,0,0,0,0,0,-1,1609,1303,0,0
392,-279,0,0,0,0,0,0,0,0,0,-1,1616,1303,0,0
399,-279,0,0,0,0,0,0,0,0,0,-1,1623,1303,0,0
406,-279,0,0,0,0,0,0,0,0,0,-1,1630,1303,0,0
413,-279,0,0,0,0,0,0,0,0,0,-1,1637,1303,0,0
420,-279,0,0,0,0,0,0,0,0,0,-1,1644,1303,0,0
427,-279,0,0,0,0,0,0,0,0,0,-1,1651,1303,0,0
434,-279,0,0,0,0,0,0,0,0,0,-1,1658,1303,0,0
441,-279,0,0,0,0,0,0,0,0,0,-1,1665,1303,0,0
448,-279,0,0,0,0,0,0,0,0,0,-1,1672,1303,0,0
455,-279,0,0,0,0,0,0,0,0,0,-1,1679,1303,0,0
462,-279,0,0,0,0,0,0,0,0,0,-1,1686,1303,0,0
469,-279,0,0,0,0,0,0,0,0,0,-1,1693,1303,0,0
476,-279,0,0,0,0,0,0,0,0,0,-1,1700,1303,0,0
483,-279,0,0,0,0,0,0,0,0,0,-1,1707,1303,0,0
490,-279,0,0,0,0,0,0,0,0,0,-1,1714,1303,0,0
497,-279,0,0,0,0,0,0,0,0,0,-1,1721,1303,0,0
504,-279,0,0,0,0,0,0,0,0,0,-1,1728,1303,0,0
511,-279,0,0,0,0,0,0,0,0,0,-1,1735,1303,0,0
518,-279,0,0,0,0,0,0,0,0,0,-1,1742,1303,0,0
525,-279,0,0,0,0,0,0,0,0,0,-1,1749,1303,0,0
532,-279,0,0,0,0,0,0,0,0,0,-1,1756,1303,0,0
539,-279,0,0,0,0,0,0,0,0,0,-1,1763,1303,0,0
546,-279,0,0,0,0,0,0,0,0,0,-1,1770,1303,0,0
553,-279,0,0,0,0,0,0,0,0,0,-1,1777,1303,0,0
560,-279,0,0,0,0,0,0,0,0,0,-1,1784,1303,0,0
567,-279,0,0,0,0,0,0,0,0,0,-1,1791,1303,0,0
574,-279,0,0,0,0,0,0,0,0,0,-1,1798,1303,0,0
581,-279,0,0,0,0,0,0,0,0,0,-1,1805,1303,0,0
588,-279,0,0,0,0,0,0,0,0,0,-1,1812,1303,0,0
595,-279,0,0,0,0,0,0,0,0,0,-1,1819,1303,0,0
602,-279,209.374,8.67725,0,0,0,0,0,0,0,-1,1826,1303,209.374,-8.67723
609,-279,126.095,3.35498,0,0,0,0,0,0,0,-1,1833,1303,126.095,-3.35493
616,-279,109.392,2.99854,0,0,0,0,0,0,0,-1,1840,1303,109.392,-2.99857
623,-279,99.0006,2.2428,0,0,0,0,0,0,0,-1,1847,1303,99.0006,-2.24284
630,-279,88.6062,2.73572,0,0,0,0,0,0,0,-1,1854,1303,88.6063,-2.73567
637,-279,73.1141,1.62744,0,0,0,0,0,0,0,-1,1861,1303,73.1142,-1.62742
644,-279,33.5021,3.40234,0,0,0,0,0,0,0,-1,1868,1303,33.5021,-3.40237
651,-279,29.8456,2.3562,0,0,0,0,0,0,0,-1,1875,1303,29.8455,-2.35615
658,-279,21.5076,7.65649,0,0,0,0,0,0,0,-1,1882,1303,21.5076,-7.65648
665,-279,18.9794,6.09607,0,0,0,0,0,0,0,-1,1889,1303,18.9793,-6.09601
672,-279,23.5206,8.32507,0,0,0,0,0,0,0,-1,1896,1303,23.5206,-8.32512
679,-279,63.2394,20.0441,0,0,0,0,0,0,0,-1,1903,1303,63.2394,-20.0441
686,-279,84.6371,29.4445,0,0,0,0,0,0,0,-1,1910,1303,84.6371,-29.4445
693,-279,182.115,44.5251,0,0,0,0,0,0,0,-1,1917,1303,182.115,-44.5252
700,-279,181.174,42.5604,0,0,0,0,0,0,0,-1,1924,1303,181.174,-42.5604
707,-279,180.982,40.5526,-0.00855137,0.0181145,0.00842929,0.0205556,-0.0109925,1.28891,0.0184912,0.0232529,1931,1303,180.982,-40.5526
714,-279,180.629,38.5922,-0.0108674,0.0226049,0.0131535,0.0271552,-0.0154178,1.23774,0.024889,0.0173594,1938,1303,180.629,-38.5922
721,-279,180.272,36.6752,-0.0138699,0.0268044,0.0183294,0.0338454,-0.0209109,1.20404,0.0319062,0.025233,1945,1303,180.272,-36.6751
728,-279,179.865,34.9003,-0.0175148,0.0307831,0.0239916,0.0406748,-0.0274065,1.17973,0.0395548,0.0338935,1952,1303,179.865,-34.9003
735,-279,179.387,33.4469,0,0,0,0,0,0,0,-1,1959,1303,179.387,-33.447
742,-279,178.945,32.1792,0,0,0,0,0,0,0,-1,1966,1303,178.945,-32.1792
749,-279,177.751,29.278,0,0,0,0,0,0,0,-1,1973,1303,177.751,-29.278
756,-279,103.538,20.6768,0,0,0,0,0,0,0,-1,1980,1303,103.538,-20.6768
763,-279,27.1613,3.46265,0,0,0,0,0,0,0,-1,1987,1303,27.1613,-3.4627
770,-279,21.5828,3.54199,0,0,0,0,0,0,0,-1,1994,1303,21.5827,-3.54198
777,-279,32.5369,6.99609,0,0,0,0,0,0,0,-1,2001,1303,32.5369,-6.99608
784,-279,0,0,0,0,0,0,0,0,0,-1,2008,1303,0,0
791,-279,0,0,0,0,0,0,0,0,0,-1,2015,1303,0,0
798,-279,0,0,0,0,0,0,0,0,0,-1,2022,1303,0,0
805,-279,0,0,0,0,0,0,0,0,0,-1,2029,1303,0,0
812,-279,0,0,0,0,0,0,0,0,0,-1,2036,1303,0,0
-700,-286,0,0,0,0,0,0,0,0,0,-1,524,1310,0,0
-693,-286,0,0,0,0,0,0,0,0,0,-1,531,1310,0,0
-686,-286,0,0,0,0,0,0,0,0,0,-1,538,1310,0,0
-679,-286,0,0,0,0,0,0,0,0,0,-1,545,1310,0,0
-672,-286,0,0,0,0,0,0,0,0,0,-1,552,1310,0,0
-665,-286,0,0,0,0,0,0,0,0,0,-1,559,1310,0,0
-658,-286,-44.103,1.76782,0,0,0,0,0,0,0,-1,566,1310,-44.103,-1.76778
-651,-286,-43.6417,1.98254,0,0,0,0,0,0,0,-1,573,1310,-43.6416,-1.98254
-644,-286,-43.3175,1.59558,0,0,0,0,0,0,0,-1,580,1310,-43.3175,-1.59556
-637,-286,-42.8448,1.15039,0,0,0,0,0,0,0,-1,587,1310,-42.8448,-1.15043
-630,-286,-42.1176,0.443848,0,0,0,0,0,0,0,-1,594,1310,-42.1176,-0.443802
-623,-286,-41.3121,-0.468384,0,0,0,0,0,0,0,-1,601,1310,-41.3121,0.468376
-616,-286,-22.0634,2.37744,0,0,0,0,0,0,0,-1,608,1310,-22.0633,-2.37746
-609,-286,-169.208,29.6649,0,0,0,0,0,0,0,-1,615,1310,-169.208,-29.6649
-602,-286,-171.409,31.8608,0,0,0,0,0,0,0,-1,622,1310,-171.409,-31.8608
-595,-286,-171.593,33.5756,-0.00934197,0.0403771,-0.0195937,0.0471705,-0.0161354,-1.23705,0.0379855,0.0236197,629,1310,-171.593,-33.5755
-588,-286,-171.895,35.3026,-0.00568616,0.0360045,-0.0171967,0.0421823,-0.011864,-1.22591,0.0327994,0.0251784,636,1310,-171.895,-35.3026
-581,-286,-172.185,37.162,-0.00166364,0.0316307,-0.0143125,0.0369374,-0.0069704,-1.21573,0.0272472,0.0255398,643,1310,-172.185,-37.162
-574,-286,-172.437,39.0409,0.00263358,0.0272578,-0.0110723,0.0315043,-0.00161284,-1.20458,0.0215606,0.0454857,650,1310,-172.437,-39.0409
-567,-286,-172.398,41.0514,0,0,0,0,0,0,0,-1,657,1310,-172.398,-41.0514
-560,-286,-89.4232,37.6656,0,0,0,0,0,0,0,-1,664,1310,-89.4232,-37.6656
-553,-286,-173.5,45.4543,0,0,0,0,0,0,0,-1,671,1310,-173.5,-45.4544
-546,-286,-90.5775,40.3599,0,0,0,0,0,0,0,-1,678,1310,-90.5775,-40.3599
-539,-286,-60.7808,29.4718,0,0,0,0,0,0,0,-1,685,1310,-60.7808,-29.4718
-532,-286,-21.6771,10.4924,0,0,0,0,0,0,0,-1,692,1310,-21.6771,-10.4924
-525,-286,-11.4528,-1.11768,0,0,0,0,0,0,0,-1,699,1310,-11.4528,1.11769
-518,-286,-11.0701,1.37329,0,0,0,0,0,0,0,-1,706,1310,-11.0701,-1.37332
-511,-286,-17.7545,-0.0791016,0,0,0,0,0,0,0,-1,713,1310,-17.7544,0.0791606
-504,-286,-18.0455,1.29602,0,0,0,0,0,0,0,-1,720,1310,-18.0455,-1.29601
-497,-286,-18.3367,2.67114,0,0,0,0,0,0,0,-1,727,1310,-18.3366,-2.67118
-490,-286,-19.5795,2.47266,0,0,0,0,0,0,0,-1,734,1310,-19.5795,-2.4727
-483,-286,-19.7277,2.74744,0,0,0,0,0,0,0,-1,741,1310,-19.7277,-2.74747
-476,-286,-20.0391,3.06177,0,0,0,0,0,0,0,-1,748,1310,-20.0391,-3.06178
-469,-286,0,0,0,0,0,0,0,0,0,-1,755,1310,0,0
-462,-286,0,0,0,0,0,0,0,0,0,-1,762,1310,0,0
-455,-286,0,0,0,0,0,0,0,0,0,-1,769,1310,0,0
-448,-286,0,0,0,0,0,0,0,0,0,-1,776,1310,0,0
-441,-286,0,0,0,0,0,0,0,0,0,-1,783,1310,0,0
-434,-286,0,0,0,0,0,0,0,0,0,-1,790,1310,0,0
-427,-286,0,0,0,0,0,0,0,0,0,-1,797,1310,0,0
-420,-286,0,0,0,0,0,0,0,0,0,-1,804,1310,0,0
-413,-286,0,0,0,0,0,0,0,0,0,-1,811,1310,0,0
-406,-286,0,0,0,0,0,0,0,0,0,-1,818,1310,0,0
-399,-286,0,0,0,0,0,0,0,0,0,-1,825,1310,0,0
-392,-286,0,0,0,0,0,0,0,0,0,-1,832,1310,0,0
-385,-286,0,0,0,0,0,0,0,0,0,-1,839,1310,0,0
-378,-286,0,0,0,0,0,0,0,0,0,-1,846,1310,0,0
-371,-286,0,0,0,0,0,0,0,0,0,-1,853,1310,0,0
-364,-286,0,0,0,0,0,0,0,0,0,-1,860,1310,0,0
-357,-286,0,0,0,0,0,0,0,0,0,-1,867,1310,0,0
-350,-286,0,0,0,0,0,0,0,0,0,-1,874,1310,0,0
-343,-286,0,0,0,0,0,0,0,0,0,-1,881,1310,0,0
-336,-286,0,0,0,0,0,0,0,0,0,-1,888,1310,0,0
-329,-286,0,0,0,0,0,0,0,0,0,-1,895,1310,0,0
-322,-286,0,0,0,0,0,0,0,0,0,-1,902,1310,0,0
-315,-286,0,0,0,0,0,0,0,0,0,-1,909,1310,0,0
-308,-286,0,0,0,0,0,0,0,0,0,-1,916,1310,0,0
-301,-286,0,0,0,0,0,0,0,0,0,-1,923,1310,0,0
-294,-286,0,0,0,0,0,0,0,0,0,-1,930,1310,0,0
-287,-286,0,0,0,0,0,0,0,0,0,-1,937,1310,0,0
-280,-286,0,0,0,0,0,0,0,0,0,-1,944,1310,0,0
-273,-286,0,0,0,0,0,0,0,0,0,-1,951,1310,0,0
-266,-286,0,0,0,0,0,0,0,0,0,-1,958,1310,0,0
-259,-286,0,0,0,0,0,0,0,0,0,-1,965,1310,0,0
-252,-286,0,0,0,0,0,0,0,0,0,-1,972,1310,0,0
-245,-286,0,0,0,0,0,0,0,0,0,-1,979,1310,0,0
-238,-286,0,0,0,0,0,0,0,0,0,-1,986,1310,0,0
-231,-286,0,0,0,0,0,0,0,0,0,-1,993,1310,0,0
-224,-286,0,0,0,0,0,0,0,0,0,-1,1000,1310,0,0
-217,-286,0,0,0,0,0,0,0,0,0,-1,1007,1310,0,0
-210,-286,0,0,0,0,0,0,0,0,0,-1,1014,1310,0,0
-203,-286,0,0,0,0,0,0,0,0,0,-1,1021,1310,0,0
-196,-286,0,0,0,0,0,0,0,0,0,-1,1028,1310,0,0
-189,-286,0,0,0,0,0,0,0,0,0,-1,1035,1310,0,0
-182,-286,0,0,0,0,0,0,0,0,0,-1,1042,1310,0,0
-175,-286,0,0,0,0,0,0,0,0,0,-1,1049,1310,0,0
-168,-286,0,0,0,0,0,0,0,0,0,-1,1056,1310,0,0
-161,-286,0,0,0,0,0,0,0,0,0,-1,1063,1310,0,0
-154,-286,0,0,0,0,0,0,0,0,0,-1,1070,1310,0,0
-147,-286,0,0,0,0,0,0,0,0,0,-1,1077,1310,0,0
-140,-286,0,0,0,0,0,0,0,0,0,-1,1084,1310,0,0
-133,-286,0,0,0,0,0,0,0,0,0,-1,1091,1310,0,0
-126,-286,0,0,0,0,0,0,0,0,0,-1,1098,1310,0,0
-119,-286,0,0,0,0,0,0,0,0,0,-1,1105,1310,0,0
-112,-286,0,0,0,0,0,0,0,0,0,-1,1112,1310,0,0
-105,-286,0,0,0,0,0,0,0,0,0,-1,1119,1310,0,0
-98,-286,0,0,0,0,0,0,0,0,0,-1,1126,1310,0,0
-91,-286,0,0,0,0,0,0,0,0,0,-1,1133,1310,0,0
-84,-286,0,0,0,0,0,0,0,0,0,-1,1140,1310,0,0
-77,-286,0,0,0,0,0,0,0,0,0,-1,1147,1310,0,0
-70,-286,0,0,0,0,0,0,0,0,0,-1,1154,1310,0,0
-63,-286,0,0,0,0,0,0,0,0,0,-1,1161,1310,0,0
-56,-286,0,0,0,0,0,0,0,0,0,-1,1168,1310,0,0
-49,-286,0,0,0,0,0,0,0,0,0,-1,1175,1310,0,0
-42,-286,0,0,0,0,0,0,0,0,0,-1,1182,1310,0,0
-35,-286,0,0,0,0,0,0,0,0,0,-1,1189,1310,0,0
-28,-286,0,0,0,0,0,0,0,0,0,-1,1196,1310,0,0
-21,-286,0,0,0,0,0,0,0,0,0,-1,1203,1310,0,0
-14,-286,0,0,0,0,0,0,0,0,0,-1,1210,1310,0,0
-7,-286,0,0,0,0,0,0,0,0,0,-1,1217,1310,0,0
0,-286,0,0,0,0,0,0,0,0,0,-1,1224,1310,0,0
7,-286,0,0,0,0,0,0,0,0,0,-1,1231,1310,0,0
14,-286,0,0,0,0,0,0,0,0,0,-1,1238,1310,0,0
21,-286,0,0,0,0,0,0,0,0,0,-1,1245,1310,0,0
28,-286,0,0,0,0,0,0,0,0,0,-1,1252,1310,0,0
35,-286,0,0,0,0,0,0,0,0,0,-1,1259,1310,0,0
42,-286,0,0,0,0,0,0,0,0,0,-1,1266,1310,0,0
49,-286,0,0,0,0,0,0,0,0,0,-1,1273,1310,0,0
56,-286,0,0,0,0,0,0,0,0,0,-1,1280,1310,0,0
63,-286,0,0,0,0,0,0,0,0,0,-1,1287,1310,0,0
70,-286,0,0,0,0,0,0,0,0,0,-1,1294,1310,0,0
77,-286,0,0,0,0,0,0,0,0,0,-1,1301,1310,0,0
84,-286,0,0,0,0,0,0,0,0,0,-1,1308,1310,0,0
91,-286,0,0,0,0,0,0,0,0,0,-1,1315,1310,0,0
98,-286,0,0,0,0,0,0,0,0,0,-1,1322,1310,0,0
105,-286,0,0,0,0,0,0,0,0,0,-1,1329,1310,0,0
112,-286,0,0,0,0,0,0,0,0,0,-1,1336,1310,0,0
119,-286,0,0,0,0,0,0,0,0,0,-1,1343,1310,0,0
126,-286,0,0,0,0,0,0,0,0,0,-1,1350,1310,0,0
133,-286,0,0,0,0,0,0,0,0,0,-1,1357,1310,0,0
140,-286,0,0,0,0,0,0,0,0,0,-1,1364,1310,0,0
147,-286,0,0,0,0,0,0,0,0,0,-1,1371,1310,0,0
154,-286,0,0,0,0,0,0,0,0,0,-1,1378,1310,0,0
161,-286,0,0,0,0,0,0,0,0,0,-1,1385,1310,0,0
168,-286,0,0,0,0,0,0,0,0,0,-1,1392,1310,0,0
175,-286,0,0,0,0,0,0,0,0,0,-1,1399,1310,0,0
182,-286,0,0,0,0,0,0,0,0,0,-1,1406,1310,0,0
189,-286,0,0,0,0,0,0,0,0,0,-1,1413,1310,0,0
196,-286,0,0,0,0,0,0,0,0,0,-1,1420,1310,0,0
203,-286,0,0,0,0,0,0,0,0,0,-1,1427,1310,0,0
210,-286,0,0,0,0,0,0,0,0,0,-1,1434,1310,0,0
217,-286,0,0,0,0,0,0,0,0,0,-1,1441,1310,0,0
224,-286,0,0,0,0,0,0,0,0,0,-1,1448,1310,0,0
231,-286,0,0,0,0,0,0,0,0,0,-1,1455,1310,0,0
238,-286,0,0,0,0,0,0,0,0,0,-1,1462,1310,0,0
245,-286,0,0,0,0,0,0,0,0,0,-1,1469,1310,0,0
252,-286,0,0,0,0,0,0,0,0,0,-1,1476,1310,0,0
259,-286,0,0,0,0,0,0,0,0,0,-1,1483,1310,0,0
266,-286,0,0,0,0,0,0,0,0,0,-1,1490,1310,0,0
273,-286,0,0,0,0,0,0,0,0,0,-1,1497,1310,0,0
280,-286,0,0,0,0,0,0,0,0,0,-1,1504,1310,0,0
287,-286,0,0,0,0,0,0,0,0,0,-1,1511,1310,0,0
294,-286,0,0,0,0,0,0,0,0,0,-1,1518,1310,0,0
301,-286,0,0,0,0,0,0,0,0,0,-1,1525,1310,0,0
308,-286,0,0,0,0,0,0,0,0,0,-1,1532,1310,0,0
315,-286,0,0,0,0,0,0,0,0,0,-1,1539,1310,0,0
322,-286,0,0,0,0,0,0,0,0,0,-1,1546,1310,0,0
329,-286,0,0,0,0,0,0,0,0,0,-1,1553,1310,0,0
336,-286,0,0,0,0,0,0,0,0,0,-1,1560,1310,0,0
343,-286,0,0,0,0,0,0,0,0,0,-1,1567,1310,0,0
350,-286,0,0,0,0,0,0,0,0,0,-1,1574,1310,0,0
357,-286,0,0,0,0,0,0,0,0,0,-1,1581,1310,0,0
364,-286,0,0,0,0,0,0,0,0,0,-1,1588,1310,0,0
371,-286,0,0,0,0,0,0,0,0,0,-1,1595,1310,0,0
378,-286,0,0,0,0,0,0,0,0,0,-1,1602,1310,0,0
385,-286,0,0,0,0,0,0,0,0,0,-1,1609,1310,0,0
392,-286,0,0,0,0,0,0,0,0,0,-1,1616,1310,0,0
399,-286,0,0,0,0,0,0,0,0,0,-1,1623,1310,0,0
406,-286,0,0,0,0,0,0,0,0,0,-1,1630,1310,0,0
413,-286,0,0,0,0,0,0,0,0,0,-1,1637,1310,0,0
420,-286,0,0,0,0,0,0,0,0,0,-1,1644,1310,0,0
427,-286,0,0,0,0,0,0,0,0,0,-1,1651,1310,0,0
434,-286,0,0,0,0,0,0,0,0,0,-1,1658,1310,0,0
441,-286,0,0,0,0,0,0,0,0,0,-1,1665,1310,0,0
448,-286,0,0,0,0,0,0,0,0,0,-1,1672,1310,0,0
455,-286,0,0,0,0,0,0,0,0,0,-1,1679,1310,0,0
462,-286,0,0,0,0,0,0,0,0,0,-1,1686,1310,0,0
469,-286,0,0,0,0,0,0,0,0,0,-1,1693,1310,0,0
476,-286,0,0,0,0,0,0,0,0,0,-1,1700,1310,0,0
483,-286,0,0,0,0,0,0,0,0,0,-1,1707,1310,0,0
490,-286,0,0,0,0,0,0,0,0,0,-1,1714,1310,0,0
497,-286,0,0,0,0,0,0,0,0,0,-1,1721,1310,0,0
504,-286,0,0,0,0,0,0,0,0,0,-1,1728,1310,0,0
511,-286,0,0,0,0,0,0,0,0,0,-1,1735,1310,0,0
518,-286,0,0,0,0,0,0,0,0,0,-1,1742,1310,0,0
525,-286,0,0,0,0,0,0,0,0,0,-1,1749,1310,0,0
532,-286,0,0,0,0,0,0,0,0,0,-1,1756,1310,0,0
539,-286,0,0,0,0,0,0,0,0,0,-1,1763,1310,0,0
546,-286,0,0,0,0,0,0,0,0,0,-1,1770,1310,0,0
553,-286,0,0,0,0,0,0,0,0,0,-1,1777,1310,0,0
560,-286,0,0,0,0,0,0,0,0,0,-1,1784,1310,0,0
567,-286,0,0,0,0,0,0,0,0,0,-1,1791,1310,0,0
574,-286,0,0,0,0,0,0,0,0,0,-1,1798,1310,0,0
581,-286,0,0,0,0,0,0,0,0,0,-1,1805,1310,0,0
588,-286,0,0,0,0,0,0,0,0,0,-1,1812,1310,0,0
595,-286,85.6449,2.23169,0,0,0,0,0,0,0,-1,1819,1310,85.6449,-2.23175
602,-286,124.014,3.47412,0,0,0,0,0,0,0,-1,1826,1310,124.014,-3.4741
609,-286,92.1185,1.80212,0,0,0,0,0,0,0,-1,1833,1310,92.1185,-1.80215
616,-286,99.723,2.9939,0,0,0,0,0,0,0,-1,1840,1310,99.7231,-2.99387
623,-286,91.3973,1.46118,0,0,0,0,0,0,0,-1,1847,1310,91.3974,-1.46122
630,-286,73.3732,1.46594,0,0,0,0,0,0,0,-1,1854,1310,73.3731,-1.46595
637,-286,47.8409,3.69824,0,0,0,0,0,0,0,-1,1861,1310,47.841,-3.69823
644,-286,25.6433,1.33862,0,0,0,0,0,0,0,-1,1868,1310,25.6433,-1.33858
651,-286,25.2507,1.88245,0,0,0,0,0,0,0,-1,1875,1310,25.2508,-1.88245
658,-286,25.9475,9.43689,0,0,0,0,0,0,0,-1,1882,1310,25.9475,-9.43693
665,-286,24.9838,8.03101,0,0,0,0,0,0,0,-1,1889,1310,24.9837,-8.03104
672,-286,40.2175,12.9626,0,0,0,0,0,0,0,-1,1896,1310,40.2175,-12.9627
679,-286,95.2627,37.8113,0,0,0,0,0,0,0,-1,1903,1310,95.2627,-37.8113
686,-286,82.3354,29.6196,0,0,0,0,0,0,0,-1,1910,1310,82.3354,-29.6197
693,-286,178.307,45.2314,0,0,0,0,0,0,0,-1,1917,1310,178.307,-45.2315
700,-286,179.191,42.8252,0,0,0,0,0,0,0,-1,1924,1310,179.191,-42.8252
707,-286,178.836,40.7584,-0.0103009,0.0198873,0.0109351,0.0234321,-0.0138457,1.25732,0.0217583,0.0191809,1931,1310,178.836,-40.7585
714,-286,178.491,38.7571,-0.0120048,0.0242534,0.0155051,0.0299795,-0.0177309,1.21703,0.0278466,0.0158402,1938,1310,178.491,-38.757
721,-286,178.176,36.8517,-0.0143647,0.0282457,0.0205547,0.0365447,-0.0226637,1.18706,0.0344957,0.0193742,1945,1310,178.175,-36.8517
728,-286,177.8,35.0195,-0.0173339,0.0319406,0.0261186,0.0432085,-0.0286017,1.16351,0.0417446,0.0267057,1952,1310,177.8,-35.0195
735,-286,177.475,33.11,0,0,0,0,0,0,0,-1,1959,1310,177.475,-33.11
742,-286,177.385,30.9962,0,0,0,0,0,0,0,-1,1966,1310,177.385,-30.9962
749,-286,102.236,22.6971,0,0,0,0,0,0,0,-1,1973,1310,102.236,-22.6971
756,-286,24.8226,4.43481,0,0,0,0,0,0,0,-1,1980,1310,24.8227,-4.43479
763,-286,20.6671,3.99683,0,0,0,0,0,0,0,-1,1987,1310,20.6671,-3.99683
770,-286,23.9147,4.45679,0,0,0,0,0,0,0,-1,1994,1310,23.9146,-4.45675
777,-286,0,0,0,0,0,0,0,0,0,-1,2001,1310,0,0
784,-286,0,0,0,0,0,0,0,0,0,-1,2008,1310,0,0
791,-286,0,0,0,0,0,0,0,0,0,-1,2015,1310,0,0
798,-286,0,0,0,0,0,0,0,0,0,-1,2022,1310,0,0
805,-286,0,0,0,0,0,0,0,0,0,-1,2029,1310,0,0
812,-286,0,0,0,0,0,0,0,0,0,-1,2036,1310,0,0
-700,-293,0,0,0,0,0,0,0,0,0,-1,524,1317,0,0
-693,-293,0,0,0,0,0,0,0,0,0,-1,531,1317,0,0
-686,-293,0,0,0,0,0,0,0,0,0,-1,538,1317,0,0
-679,-293,0,0,0,0,0,0,0,0,0,-1,545,1317,0,0
-672,-293,0,0,0,0,0,0,0,0,0,-1,552,1317,0,0
-665,-293,0,0,0,0,0,0,0,0,0,-1,559,1317,0,0
-658,-293,0,0,0,0,0,0,0,0,0,-1,566,1317,0,0
-651,-293,-42.6636,2.1897,0,0,0,0,0,0,0,-1,573,1317,-42.6636,-2.18965
-644,-293,-42.6672,1.56262,0,0,0,0,0,0,0,-1,580,1317,-42.6672,-1.5626
-637,-293,-42.7898,0.963745,0,0,0,0,0,0,0,-1,587,1317,-42.7898,-0.963689
-630,-293,-42.7558,0.296021,0,0,0,0,0,0,0,-1,594,1317,-42.7558,-0.295997
-623,-293,-15.6058,0.229614,0,0,0,0,0,0,0,-1,601,1317,-15.6058,-0.229666
-616,-293,-15.5056,2.17737,0,0,0,0,0,0,0,-1,608,1317,-15.5055,-2.17742
-609,-293,-25.3796,5.07373,0,0,0,0,0,0,0,-1,615,1317,-25.3796,-5.07369
-602,-293,-169.277,31.913,0,0,0,0,0,0,0,-1,622,1317,-169.277,-31.9129
-595,-293,-169.44,33.6681,-0.00871866,0.0417539,-0.0206211,0.0491075,-0.0160723,-1.22825,0.0392096,0.0397664,629,1317,-169.44,-33.6681
-588,-293,-169.685,35.4126,-0.00518296,0.0375686,-0.0186237,0.0445436,-0.012158,-1.21244,0.0344707,0.026125,636,1317,-169.685,-35.4127
-581,-293,-169.991,37.2583,-0.00139926,0.0334285,-0.0162828,0.0398552,-0.00782595,-1.19487,0.0295265,0.0306585,643,1317,-169.991,-37.2583
-574,-293,-170.18,39.2367,0.0025234,0.0293367,-0.0137339,0.0351227,-0.0032626,-1.17207,0.024575,0.0378838,650,1317,-170.18,-39.2367
-567,-293,-170.221,41.229,0,0,0,0,0,0,0,-1,657,1317,-170.221,-41.229
-560,-293,-171.521,43.1857,0,0,0,0,0,0,0,-1,664,1317,-171.521,-43.1857
-553,-293,-171.484,45.4872,0,0,0,0,0,0,0,-1,671,1317,-171.484,-45.4872
-546,-293,-171.448,47.7887,0,0,0,0,0,0,0,-1,678,1317,-171.448,-47.7887
-539,-293,-75.0351,37.2535,0,0,0,0,0,0,0,-1,685,1317,-75.0351,-37.2536
-532,-293,-27.4858,13.6715,0,0,0,0,0,0,0,-1,692,1317,-27.4858,-13.6715
-525,-293,-8.20642,3.62256,0,0,0,0,0,0,0,-1,699,1317,-8.20639,-3.6226
-518,-293,-10.1053,0.314209,0,0,0,0,0,0,0,-1,706,1317,-10.1053,-0.314234
-511,-293,-11.6276,0.235352,0,0,0,0,0,0,0,-1,713,1317,-11.6276,-0.235372
-504,-293,-17.9086,1.25427,0,0,0,0,0,0,0,-1,720,1317,-17.9086,-1.25423
-497,-293,-18.8006,1.62122,0,0,0,0,0,0,0,-1,727,1317,-18.8006,-1.62119
-490,-293,-18.8961,1.99255,0,0,0,0,0,0,0,-1,734,1317,-18.8961,-1.99251
-483,-293,-19.0831,2.35498,0,0,0,0,0,0,0,-1,741,1317,-19.0831,-2.35497
-476,-293,-19.5228,2.61243,0,0,0,0,0,0,0,-1,748,1317,-19.5228,-2.61237
-469,-293,0,0,0,0,0,0,0,0,0,-1,755,1317,0,0
-462,-293,0,0,0,0,0,0,0,0,0,-1,762,1317,0,0
-455,-293,0,0,0,0,0,0,0,0,0,-1,769,1317,0,0
-448,-293,0,0,0,0,0,0,0,0,0,-1,776,1317,0,0
-441,-293,0,0,0,0,0,0,0,0,0,-1,783,1317,0,0
-434,-293,0,0,0,0,0,0,0,0,0,-1,790,1317,0,0
-427,-293,0,0,0,0,0,0,0,0,0,-1,797,1317,0,0
-420,-293,0,0,0,0,0,0,0,0,0,-1,804,1317,0,0
-413,-293,0,0,0,0,0,0,0,0,0,-1,811,1317,0,0
-406,-293,0,0,0,0,0,0,0,0,0,-1,818,1317,0,0
-399,-293,0,0,0,0,0,0,0,0,0,-1,825,1317,0,0
-392,-293,0,0,0,0,0,0,0,0,0,-1,832,1317,0,0
-385,-293,0,0,0,0,0,0,0,0,0,-1,839,1317,0,0
-378,-293,0,0,0,0,0,0,0,0,0,-1,846,1317,0,0
-371,-293,0,0,0,0,0,0,0,0,0,-1,853,1317,0,0
-364,-293,0,0,0,0,0,0,0,0,0,-1,860,1317,0,0
-357,-293,0,0,0,0,0,0,0,0,0,-1,867,1317,0,0
-350,-293,0,0,0,0,0,0,0,0,0,-1,874,1317,0,0
-343,-293,0,0,0,0,0,0,0,0,0,-1,881,1317,0,0
-336,-293,0,0,0,0,0,0,0,0,0,-1,888,1317,0,0
-329,-293,0,0,0,0,0,0,0,0,0,-1,895,1317,0,0
-322,-293,0,0,0,0,0,0,0,0,0,-1,902,1317,0,0
-315,-293,0,0,0,0,0,0,0,0,0,-1,909,1317,0,0
-308,-293,0,0,0,0,0,0,0,0,0,-1,916,1317,0,0
-301,-293,0,0,0,0,0,0,0,0,0,-1,923,1317,0,0
-294,-293,0,0,0,0,0,0,0,0,0,-1,930,1317,0,0
-287,-293,0,0,0,0,0,0,0,0,0,-1,937,1317,0,0
-280,-293,0,0,0,0,0,0,0,0,0,-1,944,1317,0,0
-273,-293,0,0,0,0,0,0,0,0,0,-1,951,1317,0,0
-266,-293,0,0,0,0,0,0,0,0,0,-1,958,1317,0,0
-259,-293,0,0,0,0,0,0,0,0,0,-1,965,1317,0,0
-252,-293,0,0,0,0,0,0,0,0,0,-1,972,1317,0,0
-245,-293,0,0,0,0,0,0,0,0,0,-1,979,1317,0,0
-238,-293,0,0,0,0,0,0,0,0,0,-1,986,1317,0,0
-231,-293,0,0,0,0,0,0,0,0,0,-1,993,1317,0,0
-224,-293,0,0,0,0,0,0,0,0,0,-1,1000,1317,0,0
-217,-293,0,0,0,0,0,0,0,0,0,-1,1007,1317,0,0
-210,-293,0,0,0,0,0,0,0,0,0,-1,1014,1317,0,0
-203,-293,0,0,0,0,0,0,0,0,0,-1,1021,1317,0,0
-196,-293,0,0,0,0,0,0,0,0,0,-1,1028,1317,0,0
-189,-293,0,0,0,0,0,0,0,0,0,-1,1035,1317,0,0
-182,-293,0,0,0,0,0,0,0,0,0,-1,1042,1317,0,0
-175,-293,0,0,0,0,0,0,0,0,0,-1,1049,1317,0,0
-168,-293,0,0,0,0,0,0,0,0,0,-1,1056,1317,0,0
-161,-293,0,0,0,0,0,0,0,0,0,-1,1063,1317,0,0
-154,-293,0,0,0,0,0,0,0,0,0,-1,1070,1317,0,0
-147,-293,0,0,0,0,0,0,0,0,0,-1,1077,1317,0,0
-140,-293,0,0,0,0,0,0,0,0,0,-1,1084,1317,0,0
-133,-293,0,0,0,0,0,0,0,0,0,-1,1091,1317,0,0
-126,-293,0,0,0,0,0,0,0,0,0,-1,1098,1317,0,0
-119,-293,0,0,0,0,0,0,0,0,0,-1,1105,1317,0,0
-112,-293,0,0,0,0,0,0,0,0,0,-1,1112,1317,0,0
-105,-293,0,0,0,0,0,0,0,0,0,-1,1119,1317,0,0
-98,-293,0,0,0,0,0,0,0,0,0,-1,1126,1317,0,0
-91,-293,0,0,0,0,0,0,0,0,0,-1,1133,1317,0,0
-84,-293,0,0,0,0,0,0,0,0,0,-1,1140,1317,0,0
-77,-293,0,0,0,0,0,0,0,0,0,-1,1147,1317,0,0
-70,-293,0,0,0,0,0,0,0,0,0,-1,1154,1317,0,0
-63,-293,0,0,0,0,0,0,0,0,0,-1,1161,1317,0,0
-56,-293,0,0,0,0,0,0,0,0,0,-1,1168,1317,0,0
-49,-293,0,0,0,0,0,0,0,0,0,-1,1175,1317,0,0
-42,-293,0,0,0,0,0,0,0,0,0,-1,1182,1317,0,0
-35,-293,0,0,0,0,0,0,0,0,0,-1,1189,1317,0,0
-28,-293,0,0,0,0,0,0,0,0,0,-1,1196,1317,0,0
-21,-293,0,0,0,0,0,0,0,0,0,-1,1203,1317,0,0
-14,-293,0,0,0,0,0,0,0,0,0,-1,1210,1317,0,0
-7,-293,0,0,0,0,0,0,0,0,0,-1,1217,1317,0,0
0,-293,0,0,0,0,0,0,0,0,0,-1,1224,1317,0,0
7,-293,0,0,0,0,0,0,0,0,0,-1,1231,1317,0,0
14,-293,0,0,0,0,0,0,0,0,0,-1,1238,1317,0,0
21,-293,0,0,0,0,0,0,0,0,0,-1,1245,1317,0,0
28,-293,0,0,0,0,0,0,0,0,0,-1,1252,1317,0,0
35,-293,0,0,0,0,0,0,0,0,0,-1,1259,1317,0,0
42,-293,0,0,0,0,0,0,0,0,0,-1,1266,1317,0,0
49,-293,0,0,0,0,0,0,0,0,0,-1,1273,1317,0,0
56,-293,0,0,0,0,0,0,0,0,0,-1,1280,1317,0,0
63,-293,0,0,0,0,0,0,0,0,0,-1,1287,1317,0,0
70,-293,0,0,0,0,0,0,0,0,0,-1,1294,1317,0,0
77,-293,0,0,0,0,0,0,0,0,0,-1,1301,1317,0,0
84,-293,0,0,0,0,0,0,0,0,0,-1,1308,1317,0,0
91,-293,0,0,0,0,0,0,0,0,0,-1,1315,1317,0,0
98,-293,0,0,0,0,0,0,0,0,0,-1,1322,1317,0,0
105,-293,0,0,0,0,0,0,0,0,0,-1,1329,1317,0,0
112,-293,0,0,0,0,0,0,0,0,0,-1,1336,1317,0,0
119,-293,0,0,0,0,0,0,0,0,0,-1,1343,1317,0,0
126,-293,0,0,0,0,0,0,0,0,0,-1,1350,1317,0,0
133,-293,0,0,0,0,0,0,0,0,0,-1,1357,1317,0,0
140,-293,0,0,0,0,0,0,0,0,0,-1,1364,1317,0,0
147,-293,0,0,0,0,0,0,0,0,0,-1,1371,1317,0,0
154,-293,0,0,0,0,0,0,0,0,0,-1,1378,1317,0,0
161,-293,0,0,0,0,0,0,0,0,0,-1,1385,1317,0,0
168,-293,0,0,0,0,0,0,0,0,0,-1,1392,1317,0,0
175,-293,0,0,0,0,0,0,0,0,0,-1,1399,1317,0,0
182,-293,0,0,0,0,0,0,0,0,0,-1,1406,1317,0,0
189,-293,0,0,0,0,0,0,0,0,0,-1,1413,1317,0,0
196,-293,0,0,0,0,0,0,0,0,0,-1,1420,1317,0,0
203,-293,0,0,0,0,0,0,0,0,0,-1,1427,1317,0,0
210,-293,0,0,0,0,0,0,0,0,0,-1,1434,1317,0,0
217,-293,0,0,0,0,0,0,0,0,0,-1,1441,1317,0,0
224,-293,0,0,0,0,0,0,0,0,0,-1,1448,1317,0,0
231,-293,0,0,0,0,0,0,0,0,0,-1,1455,1317,0,0
238,-293,0,0,0,0,0,0,0,0,0,-1,1462,1317,0,0
245,-293,0,0,0,0,0,0,0,0,0,-1,1469,1317,0,0
252,-293,0,0,0,0,0,0,0,0,0,-1,1476,1317,0,0
259,-293,0,0,0,0,0,0,0,0,0,-1,1483,1317,0,0
266,-293,0,0,0,0,0,0,0,0,0,-1,1490,1317,0,0
273,-293,0,0,0,0,0,0,0,0,0,-1,1497,1317,0,0
280,-293,0,0,0,0,0,0,0,0,0,-1,1504,1317,0,0
287,-293,0,0,0,0,0,0,0,0,0,-1,1511,1317,0,0
294,-293,0,0,0,0,0,0,0,0,0,-1,1518,1317,0,0
301,-293,0,0,0,0,0,0,0,0,0,-1,1525,1317,0,0
308,-293,0,0,0,0,0,0,0,0,0,-1,1532,1317,0,0
315,-293,0,0,0,0,0,0,0,0,0,-1,1539,1317,0,0
322,-293,0,0,0,0,0,0,0,0,0,-1,1546,1317,0,0
329,-293,0,0,0,0,0,0,0,0,0,-1,1553,1317,0,0
336,-293,0,0,0,0,0,0,0,0,0,-1,1560,1317,0,0
343,-293,0,0,0,0,0,0,0,0,0,-1,1567,1317,0,0
350,-293,0,0,0,0,0,0,0,0,0,-1,1574,1317,0,0
357,-293,0,0,0,0,0,0,0,0,0,-1,1581,1317,0,0
364,-293,0,0,0,0,0,0,0,0,0,-1,1588,1317,0,0
371,-293,0,0,0,0,0,0,0,0,0,-1,1595,1317,0,0
378,-293,0,0,0,0,0,0,0,0,0,-1,1602,1317,0,0
385,-293,0,0,0,0,0,0,0,0,0,-1,1609,1317,0,0
392,-293,0,0,0,0,0,0,0,0,0,-1,1616,1317,0,0
399,-293,0,0,0,0,0,0,0,0,0,-1,1623,1317,0,0
406,-293,0,0,0,0,0,0,0,0,0,-1,1630,1317,0,0
413,-293,0,0,0,0,0,0,0,0,0,-1,1637,1317,0,0
420,-293,0,0,0,0,0,0,0,0,0,-1,1644,1317,0,0
427,-293,0,0,0,0,0,0,0,0,0,-1,1651,1317,0,0
434,-293,0,0,0,0,0,0,0,0,0,-1,1658,1317,0,0
441,-293,0,0,0,0,0,0,0,0,0,-1,1665,1317,0,0
448,-293,0,0,0,0,0,0,0,0,0,-1,1672,1317,0,0
455,-293,0,0,0,0,0,0,0,0,0,-1,1679,1317,0,0
462,-293,0,0,0,0,0,0,0,0,0,-1,1686,1317,0,0
469,-293,0,0,0,0,0,0,0,0,0,-1,1693,1317,0,0
476,-293,0,0,0,0,0,0,0,0,0,-1,1700,1317,0,0
483,-293,0,0,0,0,0,0,0,0,0,-1,1707,1317,0,0
490,-293,0,0,0,0,0,0,0,0,0,-1,1714,1317,0,0
497,-293,0,0,0,0,0,0,0,0,0,-1,1721,1317,0,0
504,-293,0,0,0,0,0,0,0,0,0,-1,1728,1317,0,0
511,-293,0,0,0,0,0,0,0,0,0,-1,1735,1317,0,0
518,-293,0,0,0,0,0,0,0,0,0,-1,1742,1317,0,0
525,-293,0,0,0,0,0,0,0,0,0,-1,1749,1317,0,0
532,-293,0,0,0,0,0,0,0,0,0,-1,1756,1317,0,0
539,-293,0,0,0,0,0,0,0,0,0,-1,1763,1317,0,0
546,-293,0,0,0,0,0,0,0,0,0,-1,1770,1317,0,0
553,-293,0,0,0,0,0,0,0,0,0,-1,1777,1317,0,0
560,-293,0,0,0,0,0,0,0,0,0,-1,1784,1317,0,0
567,-293,0,0,0,0,0,0,0,0,0,-1,1791,1317,0,0
574,-293,0,0,0,0,0,0,0,0,0,-1,1798,1317,0,0
581,-293,0,0,0,0,0,0,0,0,0,-1,1805,1317,0,0
588,-293,0,0,0,0,0,0,0,0,0,-1,1812,1317,0,0
595,-293,85.9399,2.10144,0,0,0,0,0,0,0,-1,1819,1317,85.94,-2.1015
602,-293,85.9573,1.71106,0,0,0,0,0,0,0,-1,1826,1317,85.9573,-1.71108
609,-293,86.5338,0.772461,0,0,0,0,0,0,0,-1,1833,1317,86.5338,-0.772455
616,-293,91.9178,1.40967,0,0,0,0,0,0,0,-1,1840,1317,91.9178,-1.40968
623,-293,64.6224,0.448364,0,0,0,0,0,0,0,-1,1847,1317,64.6224,-0.448318
630,-293,46.6716,3.21558,0,0,0,0,0,0,0,-1,1854,1317,46.6716,-3.2156
637,-293,42.7729,4.95544,0,0,0,0,0,0,0,-1,1861,1317,42.773,-4.95546
644,-293,24.4565,0.520752,0,0,0,0,0,0,0,-1,1868,1317,24.4566,-0.520709
651,-293,25.8926,9.51245,0,0,0,0,0,0,0,-1,1875,1317,25.8926,-9.51246
658,-293,25.4904,9.10205,0,0,0,0,0,0,0,-1,1882,1317,25.4904,-9.10209
665,-293,39.7999,13.4221,0,0,0,0,0,0,0,-1,1889,1317,39.8,-13.4221
672,-293,93.4913,39.5636,0,0,0,0,0,0,0,-1,1896,1317,93.4913,-39.5636
679,-293,104.875,42.3218,0,0,0,0,0,0,0,-1,1903,1317,104.875,-42.3218
686,-293,94.0323,36.5354,0,0,0,0,0,0,0,-1,1910,1317,94.0324,-36.5354
693,-293,177.368,45.4353,0,0,0,0,0,0,0,-1,1917,1317,177.368,-45.4353
700,-293,177.019,43.2396,-0.0104616,0.0166504,0.00956571,0.0196856,-0.0134968,1.26354,0.0192687,0.0326149,1924,1317,177.019,-43.2396
707,-293,176.614,40.9471,-0.011102,0.0215334,0.013379,0.026317,-0.0158856,1.22741,0.0246126,0.0199171,1931,1317,176.614,-40.9472
714,-293,176.284,38.9622,-0.0124237,0.0259237,0.0176494,0.0328102,-0.0193102,1.19878,0.0304263,0.0132217,1938,1317,176.284,-38.9622
721,-293,175.963,36.9966,-0.0143987,0.0299348,0.0224013,0.0392828,-0.0237467,1.17547,0.0367568,0.0167535,1945,1317,175.963,-36.9966
728,-293,175.448,35.1451,-0.016993,0.0336641,0.0276644,0.0458435,-0.0291725,1.15607,0.0436656,0.0336398,1952,1317,175.448,-35.1452
735,-293,174.91,33.4363,0,0,0,0,0,0,0,-1,1959,1317,174.91,-33.4363
742,-293,105.342,25.7426,0,0,0,0,0,0,0,-1,1966,1317,105.342,-25.7425
749,-293,74.3734,16.1273,0,0,0,0,0,0,0,-1,1973,1317,74.3734,-16.1274
756,-293,24.978,3.9718,0,0,0,0,0,0,0,-1,1980,1317,24.978,-3.97186
763,-293,26.6713,4.74097,0,0,0,0,0,0,0,-1,1987,1317,26.6713,-4.74098
770,-293,24.1349,4.69153,0,0,0,0,0,0,0,-1,1994,1317,24.1348,-4.69159
777,-293,0,0,0,0,0,0,0,0,0,-1,2001,1317,0,0
784,-293,0,0,0,0,0,0,0,0,0,-1,2008,1317,0,0
791,-293,0,0,0,0,0,0,0,0,0,-1,2015,1317,0,0
798,-293,0,0,0,0,0,0,0,0,0,-1,2022,1317,0,0
805,-293,0,0,0,0,0,0,0,0,0,-1,2029,1317,0,0
812,-293,0,0,0,0,0,0,0,0,0,-1,2036,1317,0,0
-700,-300,0,0,0,0,0,0,0,0,0,-1,524,1324,0,0
-693,-300,0,0,0,0,0,0,0,0,0,-1,531,1324,0,0
-686,-300,0,0,0,0,0,0,0,0,0,-1,538,1324,0,0
-679,-300,0,0,0,0,0,0,0,0,0,-1,545,1324,0,0
-672,-300,0,0,0,0,0,0,0,0,0,-1,552,1324,0,0
-665,-300,0,0,0,0,0,0,0,0,0,-1,559,1324,0,0
-658,-300,0,0,0,0,0,0,0,0,0,-1,566,1324,0,0
-651,-300,-41.7632,2.33789,0,0,0,0,0,0,0,-1,573,1324,-41.7632,-2.33789
-644,-300,-42.3084,1.3728,0,0,0,0,0,0,0,-1,580,1324,-42.3084,-1.37282
-637,-300,-42.6259,0.807251,0,0,0,0,0,0,0,-1,587,1324,-42.6259,-0.807209
-630,-300,-21.1108,2.26306,0,0,0,0,0,0,0,-1,594,1324,-21.1109,-2.2631
-623,-300,-12.7067,1.48462,0,0,0,0,0,0,0,-1,601,1324,-12.7067,-1.48462
-616,-300,-14.9988,1.68628,0,0,0,0,0,0,0,-1,608,1324,-14.9988,-1.68627
-609,-300,-15.5027,3.29907,0,0,0,0,0,0,0,-1,615,1324,-15.5027,-3.29902
-602,-300,-42.3108,13.1433,0,0,0,0,0,0,0,-1,622,1324,-42.3108,-13.1433
-595,-300,-167.296,33.7372,0,0,0,0,0,0,0,-1,629,1324,-167.296,-33.7372
-588,-300,-167.338,35.5023,-0.00457713,0.0393234,-0.0196951,0.046864,-0.0121177,-1.20515,0.0359689,0.0276533,636,1324,-167.338,-35.5024
-581,-300,-167.685,37.4087,-0.000804904,0.0352646,-0.0176439,0.04246,-0.00800026,-1.18358,0.0313159,0.0324068,643,1324,-167.685,-37.4087
-574,-300,-167.864,39.3961,0.00292083,0.0313054,-0.0155869,0.0381933,-0.00396704,-1.1547,0.0268823,0.0387795,650,1324,-167.864,-39.3961
-567,-300,-167.749,41.4358,0,0,0,0,0,0,0,-1,657,1324,-167.749,-41.4358
-560,-300,-169.353,43.4554,0,0,0,0,0,0,0,-1,664,1324,-169.353,-43.4555
-553,-300,-169.38,45.6636,0,0,0,0,0,0,0,-1,671,1324,-169.38,-45.6635
-546,-300,-169.292,47.9537,0,0,0,0,0,0,0,-1,678,1324,-169.292,-47.9538
-539,-300,-84.1171,42.1063,0,0,0,0,0,0,0,-1,685,1324,-84.1171,-42.1063
-532,-300,-63.239,34.0382,0,0,0,0,0,0,0,-1,692,1324,-63.239,-34.0382
-525,-300,-13.5115,6.27783,0,0,0,0,0,0,0,-1,699,1324,-13.5115,-6.2778
-518,-300,-9.8349,-0.537109,0,0,0,0,0,0,0,-1,706,1324,-9.83487,0.537068
-511,-300,-12.8644,0.081665,0,0,0,0,0,0,0,-1,713,1324,-12.8644,-0.0817016
-504,-300,-13.4829,-0.165527,0,0,0,0,0,0,0,-1,720,1324,-13.4829,0.165544
-497,-300,-18.1063,0.956543,0,0,0,0,0,0,0,-1,727,1324,-18.1063,-0.9565
-490,-300,-18.2293,1.53625,0,0,0,0,0,0,0,-1,734,1324,-18.2293,-1.53626
-483,-300,-18.3522,1.61084,0,0,0,0,0,0,0,-1,741,1324,-18.3522,-1.6108
-476,-300,-18.7489,1.96387,0,0,0,0,0,0,0,-1,748,1324,-18.7489,-1.96387
-469,-300,0,0,0,0,0,0,0,0,0,-1,755,1324,0,0
-462,-300,0,0,0,0,0,0,0,0,0,-1,762,1324,0,0
-455,-300,0,0,0,0,0,0,0,0,0,-1,769,1324,0,0
-448,-300,0,0,0,0,0,0,0,0,0,-1,776,1324,0,0
-441,-300,0,0,0,0,0,0,0,0,0,-1,783,1324,0,0
-434,-300,0,0,0,0,0,0,0,0,0,-1,790,1324,0,0
-427,-300,0,0,0,0,0,0,0,0,0,-1,797,1324,0,0
-420,-300,0,0,0,0,0,0,0,0,0,-1,804,1324,0,0
-413,-300,0,0,0,0,0,0,0,0,0,-1,811,1324,0,0
-406,-300,0,0,0,0,0,0,0,0,0,-1,818,1324,0,0
-399,-300,0,0,0,0,0,0,0,0,0,-1,825,1324,0,0
-392,-300,0,0,0,0,0,0,0,0,0,-1,832,1324,0,0
-385,-300,0,0,0,0,0,0,0,0,0,-1,839,1324,0,0
-378,-300,0,0,0,0,0,0,0,0,0,-1,846,1324,0,0
-371,-300,0,0,0,0,0,0,0,0,0,-1,853,1324,0,0
-364,-300,0,0,0,0,0,0,0,0,0,-1,860,1324,0,0
-357,-300,0,0,0,0,0,0,0,0,0,-1,867,1324,0,0
-350,-300,0,0,0,0,0,0,0,0,0,-1,874,1324,0,0
-343,-300,0,0,0,0,0,0,0,0,0,-1,881,1324,0,0
-336,-300,0,0,0,0,0,0,0,0,0,-1,888,1324,0,0
-329,-300,0,0,0,0,0,0,0,0,0,-1,895,1324,0,0
-322,-300,0,0,0,0,0,0,0,0,0,-1,902,1324,0,0
-315,-300,0,0,0,0,0,0,0,0,0,-1,909,1324,0,0
-308,-300,0,0,0,0,0,0,0,0,0,-1,916,1324,0,0
-301,-300,0,0,0,0,0,0,0,0,0,-1,923,1324,0,0
-294,-300,0,0,0,0,0,0,0,0,0,-1,930,1324,0,0
-287,-300,0,0,0,0,0,0,0,0,0,-1,937,1324,0,0
-280,-300,0,0,0,0,0,0,0,0,0,-1,944,1324,0,0
-273,-300,0,0,0,0,0,0,0,0,0,-1,951,1324,0,0
-266,-300,0,0,0,0,0,0,0,0,0,-1,958,1324,0,0
-259,-300,0,0,0,0,0,0,0,0,0,-1,965,1324,0,0
-252,-300,0,0,0,0,0,0,0,0,0,-1,972,1324,0,0
-245,-300,0,0,0,0,0,0,0,0,0,-1,979,1324,0,0
-238,-300,0,0,0,0,0,0,0,0,0,-1,986,1324,0,0
-231,-300,0,0,0,0,0,0,0,0,0,-1,993,1324,0,0
-224,-300,0,0,0,0,0,0,0,0,0,-1,1000,1324,0,0
-217,-300,0,0,0,0,0,0,0,0,0,-1,1007,1324,0,0
-210,-300,0,0,0,0,0,0,0,0,0,-1,1014,1324,0,0
-203,-300,0,0,0,0,0,0,0,0,0,-1,1021,1324,0,0
-196,-300,0,0,0,0,0,0,0,0,0,-1,1028,1324,0,0
-189,-300,0,0,0,0,0,0,0,0,0,-1,1035,1324,0,0
-182,-300,0,0,0,0,0,0,0,0,0,-1,1042,1324,0,0
-175,-300,0,0,0,0,0,0,0,0,0,-1,1049,1324,0,0
-168,-300,0,0,0,0,0,0,0,0,0,-1,1056,1324,0,0
-161,-300,0,0,0,0,0,0,0,0,0,-1,1063,1324,0,0
-154,-300,0,0,0,0,0,0,0,0,0,-1,1070,1324,0,0
-147,-300,0,0,0,0,0,0,0,0,0,-1,1077,1324,0,0
-140,-300,0,0,0,0,0,0,0,0,0,-1,1084,1324,0,0
-133,-300,0,0,0,0,0,0,0,0,0,-1,1091,1324,0,0
-126,-300,0,0,0,0,0,0,0,0,0,-1,1098,1324,0,0
-119,-300,0,0,0,0,0,0,0,0,0,-1,1105,1324,0,0
-112,-300,0,0,0,0,0,0,0,0,0,-1,1112,1324,0,0
-105,-300,0,0,0,0,0,0,0,0,0,-1,1119,1324,0,0
-98,-300,0,0,0,0,0,0,0,0,0,-1,1126,1324,0,0
-91,-300,0,0,0,0,0,0,0,0,0,-1,1133,1324,0,0
-84,-300,0,0,0,0,0,0,0,0,0,-1,1140,1324,0,0
-77,-300,0,0,0,0,0,0,0,0,0,-1,1147,1324,0,0
-70,-300,0,0,0,0,0,0,0,0,0,-1,1154,1324,0,0
-63,-300,0,0,0,0,0,0,0,0,0,-1,1161,1324,0,0
-56,-300,0,0,0,0,0,0,0,0,0,-1,1168,1324,0,0
-49,-300,0,0,0,0,0,0,0,0,0,-1,1175,1324,0,0
-42,-300,0,0,0,0,0,0,0,0,0,-1,1182,1324,0,0
-35,-300,0,0,0,0,0,0,0,0,0,-1,1189,1324,0,0
-28,-300,0,0,0,0,0,0,0,0,0,-1,1196,1324,0,0
-21,-300,0,0,0,0,0,0,0,0,0,-1,1203,1324,0,0
-14,-300,0,0,0,0,0,0,0,0,0,-1,1210,1324,0,0
-7,-300,0,0,0,0,0,0,0,0,0,-1,1217,1324,0,0
0,-300,0,0,0,0,0,0,0,0,0,-1,1224,1324,0,0
7,-300,0,0,0,0,0,0,0,0,0,-1,1231,1324,0,0
14,-300,0,0,0,0,0,0,0,0,0,-1,1238,1324,0,0
21,-300,0,0,0,0,0,0,0,0,0,-1,1245,1324,0,0
28,-300,0,0,0,0,0,0,0,0,0,-1,1252,1324,0,0
35,-300,0,0,0,0,0,0,0,0,0,-1,1259,1324,0,0
42,-300,0,0,0,0,0,0,0,0,0,-1,1266,1324,0,0
49,-300,0,0,0,0,0,0,0,0,0,-1,1273,1324,0,0
56,-300,0,0,0,0,0,0,0,0,0,-1,1280,1324,0,0
63,-300,0,0,0,0,0,0,0,0,0,-1,1287,1324,0,0
70,-300,0,0,0,0,0,0,0,0,0,-1,1294,1324,0,0
77,-300,0,0,0,0,0,0,0,0,0,-1,1301,1324,0,0
84,-300,0,0,0,0,0,0,0,0,0,-1,1308,1324,0,0
91,-300,0,0,0,0,0,0,0,0,0,-1,1315,1324,0,0
98,-300,0,0,0,0,0,0,0,0,0,-1,1322,1324,0,0
105,-300,0,0,0,0,0,0,0,0,0,-1,1329,1324,0,0
112,-300,0,0,0,0,0,0,0,0,0,-1,1336,1324,0,0
119,-300,0,0,0,0,0,0,0,0,0,-1,1343,1324,0,0
126,-300,0,0,0,0,0,0,0,0,0,-1,1350,1324,0,0
133,-300,0,0,0,0,0,0,0,0,0,-1,1357,1324,0,0
140,-300,0,0,0,0,0,0,0,0,0,-1,1364,1324,0,0
147,-300,0,0,0,0,0,0,0,0,0,-1,1371,1324,0,0
154,-300,0,0,0,0,0,0,0,0,0,-1,1378,1324,0,0
161,-300,0,0,0,0,0,0,0,0,0,-1,1385,1324,0,0
168,-300,0,0,0,0,0,0,0,0,0,-1,1392,1324,0,0
175,-300,0,0,0,0,0,0,0,0,0,-1,1399,1324,0,0
182,-300,0,0,0,0,0,0,0,0,0,-1,1406,1324,0,0
189,-300,0,0,0,0,0,0,0,0,0,-1,1413,1324,0,0
196,-300,0,0,0,0,0,0,0,0,0,-1,1420,1324,0,0
203,-300,0,0,0,0,0,0,0,0,0,-1,1427,1324,0,0
210,-300,0,0,0,0,0,0,0,0,0,-1,1434,1324,0,0
217,-300,0,0,0,0,0,0,0,0,0,-1,1441,1324,0,0
224,-300,0,0,0,0,0,0,0,0,0,-1,1448,1324,0,0
231,-300,0,0,0,0,0,0,0,0,0,-1,1455,1324,0,0
238,-300,0,0,0,0,0,0,0,0,0,-1,1462,1324,0,0
245,-300,0,0,0,0,0,0,0,0,0,-1,1469,1324,0,0
252,-300,0,0,0,0,0,0,0,0,0,-1,1476,1324,0,0
259,-300,0,0,0,0,0,0,0,0,0,-1,1483,1324,0,0
266,-300,0,0,0,0,0,0,0,0,0,-1,1490,1324,0,0
273,-300,0,0,0,0,0,0,0,0,0,-1,1497,1324,0,0
280,-300,0,0,0,0,0,0,0,0,0,-1,1504,1324,0,0
287,-300,0,0,0,0,0,0,0,0,0,-1,1511,1324,0,0
294,-300,0,0,0,0,0,0,0,0,0,-1,1518,1324,0,0
301,-300,0,0,0,0,0,0,0,0,0,-1,1525,1324,0,0
308,-300,0,0,0,0,0,0,0,0,0,-1,1532,1324,0,0
315,-300,0,0,0,0,0,0,0,0,0,-1,1539,1324,0,0
322,-300,0,0,0,0,0,0,0,0,0,-1,1546,1324,0,0
329,-300,0,0,0,0,0,0,0,0,0,-1,1553,1324,0,0
336,-300,0,0,0,0,0,0,0,0,0,-1,1560,1324,0,0
343,-300,0,0,0,0,0,0,0,0,0,-1,1567,1324,0,0
350,-300,0,0,0,0,0,0,0,0,0,-1,1574,1324,0,0
357,-300,0,0,0,0,0,0,0,0,0,-1,1581,1324,0,0
364,-300,0,0,0,0,0,0,0,0,0,-1,1588,1324,0,0
371,-300,0,0,0,0,0,0,0,0,0,-1,1595,1324,0,0
378,-300,0,0,0,0,0,0,0,0,0,-1,1602,1324,0,0
385,-300,0,0,0,0,0,0,0,0,0,-1,1609,1324,0,0
392,-300,0,0,0,0,0,0,0,0,0,-1,1616,1324,0,0
399,-300,0,0,0,0,0,0,0,0,0,-1,1623,1324,0,0
406,-300,0,0,0,0,0,0,0,0,0,-1,1630,1324,0,0
413,-300,0,0,0,0,0,0,0,0,0,-1,1637,1324,0,0
420,-300,0,0,0,0,0,0,0,0,0,-1,1644,1324,0,0
427,-300,0,0,0,0,0,0,0,0,0,-1,1651,1324,0,0
434,-300,0,0,0,0,0,0,0,0,0,-1,1658,1324,0,0
441,-300,0,0,0,0,0,0,0,0,0,-1,1665,1324,0,0
448,-300,0,0,0,0,0,0,0,0,0,-1,1672,1324,0,0
455,-300,0,0,0,0,0,0,0,0,0,-1,1679,1324,0,0
462,-300,0,0,0,0,0,0,0,0,0,-1,1686,1324,0,0
469,-300,0,0,0,0,0,0,0,0,0,-1,1693,1324,0,0
476,-300,0,0,0,0,0,0,0,0,0,-1,1700,1324,0,0
483,-300,0,0,0,0,0,0,0,0,0,-1,1707,1324,0,0
490,-300,0,0,0,0,0,0,0,0,0,-1,1714,1324,0,0
497,-300,0,0,0,0,0,0,0,0,0,-1,1721,1324,0,0
504,-300,0,0,0,0,0,0,0,0,0,-1,1728,1324,0,0
511,-300,0,0,0,0,0,0,0,0,0,-1,1735,1324,0,0
518,-300,0,0,0,0,0,0,0,0,0,-1,1742,1324,0,0
525,-300,0,0,0,0,0,0,0,0,0,-1,1749,1324,0,0
532,-300,0,0,0,0,0,0,0,0,0,-1,1756,1324,0,0
539,-300,0,0,0,0,0,0,0,0,0,-1,1763,1324,0,0
546,-300,0,0,0,0,0,0,0,0,0,-1,1770,1324,0,0
553,-300,0,0,0,0,0,0,0,0,0,-1,1777,1324,0,0
560,-300,0,0,0,0,0,0,0,0,0,-1,1784,1324,0,0
567,-300,0,0,0,0,0,0,0,0,0,-1,1791,1324,0,0
574,-300,0,0,0,0,0,0,0,0,0,-1,1798,1324,0,0
581,-300,0,0,0,0,0,0,0,0,0,-1,1805,1324,0,0
588,-300,66.4561,1.99207,0,0,0,0,0,0,0,-1,1812,1324,66.456,-1.99202
595,-300,66.4685,1.95496,0,0,0,0,0,0,0,-1,1819,1324,66.4685,-1.95499
602,-300,66.5259,1.72363,0,0,0,0,0,0,0,-1,1826,1324,66.5259,-1.72367
609,-300,64.2576,2.90149,0,0,0,0,0,0,0,-1,1833,1324,64.2575,-2.90154
616,-300,65.1267,2.84033,0,0,0,0,0,0,0,-1,1840,1324,65.1267,-2.84037
623,-300,47.4474,2.43188,0,0,0,0,0,0,0,-1,1847,1324,47.4474,-2.43194
630,-300,42.4099,3.9165,0,0,0,0,0,0,0,-1,1854,1324,42.4099,-3.91649
637,-300,31.1719,4.6366,0,0,0,0,0,0,0,-1,1861,1324,31.1718,-4.63665
644,-300,22.9836,3.44934,0,0,0,0,0,0,0,-1,1868,1324,22.9836,-3.4493
651,-300,25.5004,9.11853,0,0,0,0,0,0,0,-1,1875,1324,25.5004,-9.11851
658,-300,25.4012,9.20032,0,0,0,0,0,0,0,-1,1882,1324,25.4012,-9.20036
665,-300,91.6304,40.3275,0,0,0,0,0,0,0,-1,1889,1324,91.6304,-40.3276
672,-300,105.809,45.0531,0,0,0,0,0,0,0,-1,1896,1324,105.809,-45.0531
679,-300,176.26,50.1189,0,0,0,0,0,0,0,-1,1903,1324,176.26,-50.1188
686,-300,175.156,47.9929,0,0,0,0,0,0,0,-1,1910,1324,175.156,-47.9929
693,-300,174.992,45.5905,0,0,0,0,0,0,0,-1,1917,1324,174.992,-45.5904
700,-300,174.698,43.3253,-0.0110643,0.0189622,0.0117834,0.0230341,-0.0151363,1.23807,0.0221944,0.0263194,1924,1324,174.698,-43.3253
707,-300,174.353,41.234,-0.0113625,0.0236757,0.0155186,0.0295605,-0.0172473,1.20834,0.0273344,0.0159765,1931,1324,174.353,-41.234
714,-300,174.016,39.1639,-0.0122934,0.027843,0.0196471,0.0358594,-0.0203098,1.1834,0.0328409,0.0188746,1938,1324,174.016,-39.164
721,-300,173.627,37.199,-0.0138439,0.0315899,0.0241805,0.0420506,-0.0243046,1.1625,0.0387642,0.0208118,1945,1324,173.627,-37.199
728,-300,173.201,35.2928,-0.0159946,0.0350318,0.0291358,0.0482461,-0.0292089,1.145,0.0451667,0.0365936,1952,1324,173.201,-35.2928
735,-300,172.672,33.8423,0,0,0,0,0,0,0,-1,1959,1324,172.672,-33.8423
742,-300,101.949,26.0653,0,0,0,0,0,0,0,-1,1966,1324,101.949,-26.0653
749,-300,27.4065,5.9718,0,0,0,0,0,0,0,-1,1973,1324,27.4065,-5.97181
756,-300,22.1423,3.45642,0,0,0,0,0,0,0,-1,1980,1324,22.1423,-3.45638
763,-300,22.6136,5.1571,0,0,0,0,0,0,0,-1,1987,1324,22.6136,-5.15706
770,-300,24.859,4.77979,0,0,0,0,0,0,0,-1,1994,1324,24.859,-4.77972
777,-300,0,0,0,0,0,0,0,0,0,-1,2001,1324,0,0
784,-300,0,0,0,0,0,0,0,0,0,-1,2008,1324,0,0
791,-300,0,0,0,0,0,0,0,0,0,-1,2015,1324,0,0
798,-300,0,0,0,0,0,0,0,0,0,-1,2022,1324,0,0
805,-300,0,0,0,0,0,0,0,0,0,-1,2029,1324,0,0
812,-300,0,0,0,0,0,0,0,0,0,-1,2036,1324,0,0
-700,-307,0,0,0,0,0,0,0,0,0,-1,524,1331,0,0
-693,-307,0,0,0,0,0,0,0,0,0,-1,531,1331,0,0
-686,-307,0,0,0,0,0,0,0,0,0,-1,538,1331,0,0
-679,-307,0,0,0,0,0,0,0,0,0,-1,545,1331,0,0
-672,-307,0,0,0,0,0,0,0,0,0,-1,552,1331,0,0
-665,-307,0,0,0,0,0,0,0,0,0,-1,559,1331,0,0
-658,-307,0,0,0,0,0,0,0,0,0,-1,566,1331,0,0
-651,-307,-40.7436,1.98755,0,0,0,0,0,0,0,-1,573,1331,-40.7436,-1.98753
-644,-307,-41.7838,1.24817,0,0,0,0,0,0,0,-1,580,1331,-41.7838,-1.2482
-637,-307,-41.9006,0.477783,0,0,0,0,0,0,0,-1,587,1331,-41.9006,-0.477844
-630,-307,-12.0005,0.767212,0,0,0,0,0,0,0,-1,594,1331,-12.0005,-0.767266
-623,-307,-12.2128,2.93811,0,0,0,0,0,0,0,-1,601,1331,-12.2128,-2.93813
-616,-307,-12.6612,2.08289,0,0,0,0,0,0,0,-1,608,1331,-12.6612,-2.08293
-609,-307,-12.2767,1.83228,0,0,0,0,0,0,0,-1,615,1331,-12.2768,-1.83224
-602,-307,-27.5659,6.93335,0,0,0,0,0,0,0,-1,622,1331,-27.5658,-6.9333
-595,-307,-164.806,33.6782,0,0,0,0,0,0,0,-1,629,1331,-164.806,-33.6782
-588,-307,-165.015,35.6957,-0.00465877,0.041338,-0.0196355,0.0485799,-0.0119007,-1.21746,0.0369971,0.0363599,636,1331,-165.015,-35.6957
-581,-307,-165.371,37.6196,-0.000783251,0.0372735,-0.0183293,0.0446656,-0.00817538,-1.18745,0.0328432,0.0247648,643,1331,-165.371,-37.6197
-574,-307,-165.681,39.5702,0.00270942,0.0334431,-0.0172627,0.0411877,-0.0050352,-1.14908,0.0292816,0.025658,650,1331,-165.681,-39.5702
-567,-307,-165.921,41.7791,0.00572525,0.0297957,-0.0165359,0.0382125,-0.00269151,-1.09998,0.0264179,0.0366074,657,1331,-165.921,-41.779
-560,-307,-166.721,43.8937,0.00817493,0.026282,-0.0162463,0.0358271,-0.00137015,-1.0396,0.0243543,0.0458623,664,1331,-166.721,-43.8937
-553,-307,-167.059,45.8234,0,0,0,0,0,0,0,-1,671,1331,-167.059,-45.8234
-546,-307,-167.174,48.0049,0,0,0,0,0,0,0,-1,678,1331,-167.174,-48.0049
-539,-307,-165.706,50.8354,0,0,0,0,0,0,0,-1,685,1331,-165.706,-50.8355
-532,-307,-82.0417,43.2467,0,0,0,0,0,0,0,-1,692,1331,-82.0417,-43.2467
-525,-307,-13.2009,6.91309,0,0,0,0,0,0,0,-1,699,1331,-13.2009,-6.9131
-518,-307,-9.77777,-1.56653,0,0,0,0,0,0,0,-1,706,1331,-9.77777,1.56651
-511,-307,-12.5226,0.26709,0,0,0,0,0,0,0,-1,713,1331,-12.5226,-0.267038
-504,-307,-12.5913,-0.308105,0,0,0,0,0,0,0,-1,720,1331,-12.5913,0.308124
-497,-307,-13.8586,-0.115845,0,0,0,0,0,0,0,-1,727,1331,-13.8587,0.115861
-490,-307,-17.9429,0.982178,0,0,0,0,0,0,0,-1,734,1331,-17.9429,-0.982198
-483,-307,-18.1066,0.927612,0,0,0,0,0,0,0,-1,741,1331,-18.1066,-0.927609
-476,-307,-18.1288,1.1228,0,0,0,0,0,0,0,-1,748,1331,-18.1289,-1.12286
-469,-307,-18.2028,0.798584,0,0,0,0,0,0,0,-1,755,1331,-18.2027,-0.798546
-462,-307,0,0,0,0,0,0,0,0,0,-1,762,1331,0,0
-455,-307,0,0,0,0,0,0,0,0,0,-1,769,1331,0,0
-448,-307,0,0,0,0,0,0,0,0,0,-1,776,1331,0,0
-441,-307,0,0,0,0,0,0,0,0,0,-1,783,1331,0,0
-434,-307,0,0,0,0,0,0,0,0,0,-1,790,1331,0,0
-427,-307,0,0,0,0,0,0,0,0,0,-1,797,1331,0,0
-420,-307,0,0,0,0,0,0,0,0,0,-1,804,1331,0,0
-413,-307,0,0,0,0,0,0,0,0,0,-1,811,1331,0,0
-406,-307,0,0,0,0,0,0,0,0,0,-1,818,1331,0,0
-399,-307,0,0,0,0,0,0,0,0,0,-1,825,1331,0,0
-392,-307,0,0,0,0,0,0,0,0,0,-1,832,1331,0,0
-385,-307,0,0,0,0,0,0,0,0,0,-1,839,1331,0,0
-378,-307,0,0,0,0,0,0,0,0,0,-1,846,1331,0,0
-371,-307,0,0,0,0,0,0,0,0,0,-1,853,1331,0,0
-364,-307,0,0,0,0,0,0,0,0,0,-1,860,1331,0,0
-357,-307,0,0,0,0,0,0,0,0,0,-1,867,1331,0,0
-350,-307,0,0,0,0,0,0,0,0,0,-1,874,1331,0,0
-343,-307,0,0,0,0,0,0,0,0,0,-1,881,1331,0,0
-336,-307,0,0,0,0,0,0,0,0,0,-1,888,1331,0,0
-329,-307,0,0,0,0,0,0,0,0,0,-1,895,1331,0,0
-322,-307,0,0,0,0,0,0,0,0,0,-1,902,1331,0,0
-315,-307,0,0,0,0,0,0,0,0,0,-1,909,1331,0,0
-308,-307,0,0,0,0,0,0,0,0,0,-1,916,1331,0,0
-301,-307,0,0,0,0,0,0,0,0,0,-1,923,1331,0,0
-294,-307,0,0,0,0,0,0,0,0,0,-1,930,1331,0,0
-287,-307,0,0,0,0,0,0,0,0,0,-1,937,1331,0,0
-280,-307,0,0,0,0,0,0,0,0,0,-1,944,1331,0,0
-273,-307,0,0,0,0,0,0,0,0,0,-1,951,1331,0,0
-266,-307,0,0,0,0,0,0,0,0,0,-1,958,1331,0,0
-259,-307,0,0,0,0,0,0,0,0,0,-1,965,1331,0,0
-252,-307,0,0,0,0,0,0,0,0,0,-1,972,1331,0,0
-245,-307,0,0,0,0,0,0,0,0,0,-1,979,1331,0,0
-238,-307,0,0,0,0,0,0,0,0,0,-1,986,1331,0,0
-231,-307,0,0,0,0,0,0,0,0,0,-1,993,1331,0,0
-224,-307,0,0,0,0,0,0,0,0,0,-1,1000,1331,0,0
-217,-307,0,0,0,0,0,0,0,0,0,-1,1007,1331,0,0
-210,-307,0,0,0,0,0,0,0,0,0,-1,1014,1331,0,0
-203,-307,0,0,0,0,0,0,0,0,0,-1,1021,1331,0,0
-196,-307,0,0,0,0,0,0,0,0,0,-1,1028,1331,0,0
-189,-307,0,0,0,0,0,0,0,0,0,-1,1035,1331,0,0
-182,-307,0,0,0,0,0,0,0,0,0,-1,1042,1331,0,0
-175,-307,0,0,0,0,0,0,0,0,0,-1,1049,1331,0,0
-168,-307,0,0,0,0,0,0,0,0,0,-1,1056,1331,0,0
-161,-307,0,0,0,0,0,0,0,0,0,-1,1063,1331,0,0
-154,-307,0,0,0,0,0,0,0,0,0,-1,1070,1331,0,0
-147,-307,0,0,0,0,0,0,0,0,0,-1,1077,1331,0,0
-140,-307,0,0,0,0,0,0,0,0,0,-1,1084,1331,0,0
-133,-307,0,0,0,0,0,0,0,0,0,-1,1091,1331,0,0
-126,-307,0,0,0,0,0,0,0,0,0,-1,1098,1331,0,0
-119,-307,0,0,0,0,0,0,0,0,0,-1,1105,1331,0,0
-112,-307,0,0,0,0,0,0,0,0,0,-1,1112,1331,0,0
-105,-307,0,0,0,0,0,0,0,0,0,-1,1119,1331,0,0
-98,-307,0,0,0,0,0,0,0,0,0,-1,1126,1331,0,0
-91,-307,0,0,0,0,0,0,0,0,0,-1,1133,1331,0,0
-84,-307,0,0,0,0,0,0,0,0,0,-1,1140,1331,0,0
-77,-307,0,0,0,0,0,0,0,0,0,-1,1147,1331,0,0
-70,-307,0,0,0,0,0,0,0,0,0,-1,1154,1331,0,0
-63,-307,0,0,0,0,0,0,0,0,0,-1,1161,1331,0,0
-56,-307,0,0,0,0,0,0,0,0,0,-1,1168,1331,0,0
-49,-307,0,0,0,0,0,0,0,0,0,-1,1175,1331,0,0
-42,-307,0,0,0,0,0,0,0,0,0,-1,1182,1331,0,0
-35,-307,0,0,0,0,0,0,0,0,0,-1,1189,1331,0,0
-28,-307,0,0,0,0,0,0,0,0,0,-1,1196,1331,0,0
-21,-307,0,0,0,0,0,0,0,0,0,-1,1203,1331,0,0
-14,-307,0,0,0,0,0,0,0,0,0,-1,1210,1331,0,0
-7,-307,0,0,0,0,0,0,0,0,0,-1,1217,1331,0,0
0,-307,0,0,0,0,0,0,0,0,0,-1,1224,1331,0,0
7,-307,0,0,0,0,0,0,0,0,0,-1,1231,1331,0,0
14,-307,0,0,0,0,0,0,0,0,0,-1,1238,1331,0,0
21,-307,0,0,0,0,0,0,0,0,0,-1,1245,1331,0,0
28,-307,0,0,0,0,0,0,0,0,0,-1,1252,1331,0,0
35,-307,0,0,0,0,0,0,0,0,0,-1,1259,1331,0,0
42,-307,0,0,0,0,0,0,0,0,0,-1,1266,1331,0,0
49,-307,0,0,0,0,0,0,0,0,0,-1,1273,1331,0,0
56,-307,0,0,0,0,0,0,0,0,0,-1,1280,1331,0,0
63,-307,0,0,0,0,0,0,0,0,0,-1,1287,1331,0,0
70,-307,0,0,0,0,0,0,0,0,0,-1,1294,1331,0,0
77,-307,0,0,0,0,0,0,0,0,0,-1,1301,1331,0,0
84,-307,0,0,0,0,0,0,0,0,0,-1,1308,1331,0,0
91,-307,0,0,0,0,0,0,0,0,0,-1,1315,1331,0,0
98,-307,0,0,0,0,0,0,0,0,0,-1,1322,1331,0,0
105,-307,0,0,0,0,0,0,0,0,0,-1,1329,1331,0,0
112,-307,0,0,0,0,0,0,0,0,0,-1,1336,1331,0,0
119,-307,0,0,0,0,0,0,0,0,0,-1,1343,1331,0,0
126,-307,0,0,0,0,0,0,0,0,0,-1,1350,1331,0,0
133,-307,0,0,0,0,0,0,0,0,0,-1,1357,1331,0,0
140,-307,0,0,0,0,0,0,0,0,0,-1,1364,1331,0,0
147,-307,0,0,0,0,0,0,0,0,0,-1,1371,1331,0,0
154,-307,0,0,0,0,0,0,0,0,0,-1,1378,1331,0,0
161,-307,0,0,0,0,0,0,0,0,0,-1,1385,1331,0,0
168,-307,0,0,0,0,0,0,0,0,0,-1,1392,1331,0,0
175,-307,0,0,0,0,0,0,0,0,0,-1,1399,1331,0,0
182,-307,0,0,0,0,0,0,0,0,0,-1,1406,1331,0,0
189,-307,0,0,0,0,0,0,0,0,0,-1,1413,1331,0,0
196,-307,0,0,0,0,0,0,0,0,0,-1,1420,1331,0,0
203,-307,0,0,0,0,0,0,0,0,0,-1,1427,1331,0,0
210,-307,0,0,0,0,0,0,0,0,0,-1,1434,1331,0,0
217,-307,0,0,0,0,0,0,0,0,0,-1,1441,1331,0,0
224,-307,0,0,0,0,0,0,0,0,0,-1,1448,1331,0,0
231,-307,0,0,0,0,0,0,0,0,0,-1,1455,1331,0,0
238,-307,0,0,0,0,0,0,0,0,0,-1,1462,1331,0,0
245,-307,0,0,0,0,0,0,0,0,0,-1,1469,1331,0,0
252,-307,0,0,0,0,0,0,0,0,0,-1,1476,1331,0,0
259,-307,0,0,0,0,0,0,0,0,0,-1,1483,1331,0,0
266,-307,0,0,0,0,0,0,0,0,0,-1,1490,1331,0,0
273,-307,0,0,0,0,0,0,0,0,0,-1,1497,1331,0,0
280,-307,0,0,0,0,0,0,0,0,0,-1,1504,1331,0,0
287,-307,0,0,0,0,0,0,0,0,0,-1,1511,1331,0,0
294,-307,0,0,0,0,0,0,0,0,0,-1,1518,1331,0,0
301,-307,0,0,0,0,0,0,0,0,0,-1,1525,1331,0,0
308,-307,0,0,0,0,0,0,0,0,0,-1,1532,1331,0,0
315,-307,0,0,0,0,0,0,0,0,0,-1,1539,1331,0,0
322,-307,0,0,0,0,0,0,0,0,0,-1,1546,1331,0,0
329,-307,0,0,0,0,0,0,0,0,0,-1,1553,1331,0,0
336,-307,0,0,0,0,0,0,0,0,0,-1,1560,1331,0,0
343,-307,0,0,0,0,0,0,0,0,0,-1,1567,1331,0,0
350,-307,0,0,0,0,0,0,0,0,0,-1,1574,1331,0,0
357,-307,0,0,0,0,0,0,0,0,0,-1,1581,1331,0,0
364,-307,0,0,0,0,0,0,0,0,0,-1,1588,1331,0,0
371,-307,0,0,0,0,0,0,0,0,0,-1,1595,1331,0,0
378,-307,0,0,0,0,0,0,0,0,0,-1,1602,1331,0,0
385,-307,0,0,0,0,0,0,0,0,0,-1,1609,1331,0,0
392,-307,0,0,0,0,0,0,0,0,0,-1,1616,1331,0,0
399,-307,0,0,0,0,0,0,0,0,0,-1,1623,1331,0,0
406,-307,0,0,0,0,0,0,0,0,0,-1,1630,1331,0,0
413,-307,0,0,0,0,0,0,0,0,0,-1,1637,1331,0,0
420,-307,0,0,0,0,0,0,0,0,0,-1,1644,1331,0,0
427,-307,0,0,0,0,0,0,0,0,0,-1,1651,1331,0,0
434,-307,0,0,0,0,0,0,0,0,0,-1,1658,1331,0,0
441,-307,0,0,0,0,0,0,0,0,0,-1,1665,1331,0,0
448,-307,0,0,0,0,0,0,0,0,0,-1,1672,1331,0,0
455,-307,0,0,0,0,0,0,0,0,0,-1,1679,1331,0,0
462,-307,0,0,0,0,0,0,0,0,0,-1,1686,1331,0,0
469,-307,0,0,0,0,0,0,0,0,0,-1,1693,1331,0,0
476,-307,0,0,0,0,0,0,0,0,0,-1,1700,1331,0,0
483,-307,0,0,0,0,0,0,0,0,0,-1,1707,1331,0,0
490,-307,0,0,0,0,0,0,0,0,0,-1,1714,1331,0,0
497,-307,0,0,0,0,0,0,0,0,0,-1,1721,1331,0,0
504,-307,0,0,0,0,0,0,0,0,0,-1,1728,1331,0,0
511,-307,0,0,0,0,0,0,0,0,0,-1,1735,1331,0,0
518,-307,0,0,0,0,0,0,0,0,0,-1,1742,1331,0,0
525,-307,0,0,0,0,0,0,0,0,0,-1,1749,1331,0,0
532,-307,0,0,0,0,0,0,0,0,0,-1,1756,1331,0,0
539,-307,0,0,0,0,0,0,0,0,0,-1,1763,1331,0,0
546,-307,0,0,0,0,0,0,0,0,0,-1,1770,1331,0,0
553,-307,0,0,0,0,0,0,0,0,0,-1,1777,1331,0,0
560,-307,0,0,0,0,0,0,0,0,0,-1,1784,1331,0,0
567,-307,0,0,0,0,0,0,0,0,0,-1,1791,1331,0,0
574,-307,0,0,0,0,0,0,0,0,0,-1,1798,1331,0,0
581,-307,0,0,0,0,0,0,0,0,0,-1,1805,1331,0,0
588,-307,66.5917,1.60864,0,0,0,0,0,0,0,-1,1812,1331,66.5917,-1.60867
595,-307,66.708,1.85352,0,0,0,0,0,0,0,-1,1819,1331,66.708,-1.85351
602,-307,66.111,1.49976,0,0,0,0,0,0,0,-1,1826,1331,66.1109,-1.49974
609,-307,63.8848,2.78992,0,0,0,0,0,0,0,-1,1833,1331,63.8848,-2.78989
616,-307,53.2878,0.135498,0,0,0,0,0,0,0,-1,1840,1331,53.2878,-0.135477
623,-307,44.3966,2.84888,0,0,0,0,0,0,0,-1,1847,1331,44.3966,-2.84884
630,-307,29.8116,1.51184,0,0,0,0,0,0,0,-1,1854,1331,29.8116,-1.51188
637,-307,24.6407,4.09106,0,0,0,0,0,0,0,-1,1861,1331,24.6407,-4.09103
644,-307,22.6885,5.80408,0,0,0,0,0,0,0,-1,1868,1331,22.6884,-5.80408
651,-307,17.5013,5.80078,0,0,0,0,0,0,0,-1,1875,1331,17.5014,-5.80072
658,-307,37.4427,13.9775,0,0,0,0,0,0,0,-1,1882,1331,37.4427,-13.9776
665,-307,104.043,47.2717,0,0,0,0,0,0,0,-1,1889,1331,104.043,-47.2717
672,-307,174.253,52.5739,0,0,0,0,0,0,0,-1,1896,1331,174.253,-52.5738
679,-307,173.713,50.329,0,0,0,0,0,0,0,-1,1903,1331,173.713,-50.329
686,-307,173.648,48.2545,0,0,0,0,0,0,0,-1,1910,1331,173.648,-48.2545
693,-307,172.834,45.6138,0,0,0,0,0,0,0,-1,1917,1331,172.834,-45.6138
700,-307,172.375,43.5889,-0.0112088,0.020413,0.0143752,0.025971,-0.0167668,1.20186,0.0248647,0.0262124,1924,1331,172.375,-43.5889
707,-307,171.828,41.5212,-0.010903,0.0252537,0.0178498,0.0325809,-0.0182302,1.18128,0.0297232,0.0238324,1931,1331,171.828,-41.5213
714,-307,171.582,39.4001,-0.0111536,0.0295558,0.021634,0.0389053,-0.0205031,1.16287,0.0348437,0.019648,1938,1331,171.582,-39.4002
721,-307,171.246,37.4575,-0.0119473,0.0334255,0.0257223,0.0450365,-0.0235583,1.14678,0.0402452,0.0243315,1945,1331,171.246,-37.4576
728,-307,171.076,35.249,0,0,0,0,0,0,0,-1,1952,1331,171.076,-35.249
735,-307,100.371,27.8601,0,0,0,0,0,0,0,-1,1959,1331,100.371,-27.86
742,-307,26.677,6.09192,0,0,0,0,0,0,0,-1,1966,1331,26.677,-6.0919
749,-307,26.7727,5.9032,0,0,0,0,0,0,0,-1,1973,1331,26.7727,-5.90323
756,-307,27.1556,5.74756,0,0,0,0,0,0,0,-1,1980,1331,27.1557,-5.7475
763,-307,18.7522,3.55298,0,0,0,0,0,0,0,-1,1987,1331,18.7522,-3.55301
770,-307,0,0,0,0,0,0,0,0,0,-1,1994,1331,0,0
777,-307,0,0,0,0,0,0,0,0,0,-1,2001,1331,0,0
784,-307,0,0,0,0,0,0,0,0,0,-1,2008,1331,0,0
791,-307,0,0,0,0,0,0,0,0,0,-1,2015,1331,0,0
798,-307,0,0,0,0,0,0,0,0,0,-1,2022,1331,0,0
805,-307,0,0,0,0,0,0,0,0,0,-1,2029,1331,0,0
812,-307,0,0,0,0,0,0,0,0,0,-1,2036,1331,0,0
-700,-314,0,0,0,0,0,0,0,0,0,-1,524,1338,0,0
-693,-314,0,0,0,0,0,0,0,0,0,-1,531,1338,0,0
-686,-314,0,0,0,0,0,0,0,0,0,-1,538,1338,0,0
-679,-314,0,0,0,0,0,0,0,0,0,-1,545,1338,0,0
-672,-314,0,0,0,0,0,0,0,0,0,-1,552,1338,0,0
-665,-314,0,0,0,0,0,0,0,0,0,-1,559,1338,0,0
-658,-314,0,0,0,0,0,0,0,0,0,-1,566,1338,0,0
-651,-314,0,0,0,0,0,0,0,0,0,-1,573,1338,0,0
-644,-314,-41.2806,1.17566,0,0,0,0,0,0,0,-1,580,1338,-41.2806,-1.17565
-637,-314,-58.369,7.97375,0,0,0,0,0,0,0,-1,587,1338,-58.369,-7.97376
-630,-314,-59.7463,6.72742,0,0,0,0,0,0,0,-1,594,1338,-59.7463,-6.72739
-623,-314,-13.3542,3.00903,0,0,0,0,0,0,0,-1,601,1338,-13.3542,-3.00907
-616,-314,-9.93311,1.15088,0,0,0,0,0,0,0,-1,608,1338,-9.93308,-1.15093
-609,-314,-9.4361,2.86292,0,0,0,0,0,0,0,-1,615,1338,-9.43612,-2.86286
-602,-314,-11.8027,2.42798,0,0,0,0,0,0,0,-1,622,1338,-11.8027,-2.42802
-595,-314,-52.7681,19.3807,0,0,0,0,0,0,0,-1,629,1338,-52.7681,-19.3807
-588,-314,-162.739,35.6985,0,0,0,0,0,0,0,-1,636,1338,-162.739,-35.6985
-581,-314,-162.959,37.7583,0.000344856,0.0391858,-0.0174748,0.0458905,-0.00635983,-1.20444,0.032919,0.0192908,643,1338,-162.959,-37.7583
-574,-314,-163.339,39.8472,0.00265898,0.0353215,-0.0183287,0.0435391,-0.0055587,-1.14931,0.0310453,0.019819,650,1338,-163.339,-39.8472
-567,-314,-163.569,41.9214,0.00435852,0.0315962,-0.0196023,0.0418462,-0.00589153,-1.089,0.0300544,0.01933,657,1338,-163.569,-41.9213
-560,-314,-163.863,44.1976,0.00540841,0.0279681,-0.0213517,0.0408364,-0.00745984,-1.02841,0.0300214,0.039482,664,1338,-163.863,-44.1976
-553,-314,-163.947,46.3964,0,0,0,0,0,0,0,-1,671,1338,-163.947,-46.3963
-546,-314,-163.63,48.2896,0,0,0,0,0,0,0,-1,678,1338,-163.63,-48.2895
-539,-314,-79.5233,41.916,0,0,0,0,0,0,0,-1,685,1338,-79.5232,-41.916
-532,-314,-52.4742,29.8778,0,0,0,0,0,0,0,-1,692,1338,-52.4742,-29.8779
-525,-314,-13.3017,7.50671,0,0,0,0,0,0,0,-1,699,1338,-13.3017,-7.50669
-518,-314,-8.52753,4.70032,0,0,0,0,0,0,0,-1,706,1338,-8.52755,-4.70034
-511,-314,-11.8597,0.384888,0,0,0,0,0,0,0,-1,713,1338,-11.8597,-0.384927
-504,-314,-11.4322,-0.187378,0,0,0,0,0,0,0,-1,720,1338,-11.4322,0.187381
-497,-314,-11.0047,-0.759644,0,0,0,0,0,0,0,-1,727,1338,-11.0047,0.759689
-490,-314,-18.5143,0.471069,0,0,0,0,0,0,0,-1,734,1338,-18.5143,-0.47103
-483,-314,-17.8528,0.577271,0,0,0,0,0,0,0,-1,741,1338,-17.8528,-0.577327
-476,-314,-17.714,0.665405,0,0,0,0,0,0,0,-1,748,1338,-17.714,-0.665388
-469,-314,-17.7246,0.794678,0,0,0,0,0,0,0,-1,755,1338,-17.7246,-0.794645
-462,-314,0,0,0,0,0,0,0,0,0,-1,762,1338,0,0
-455,-314,0,0,0,0,0,0,0,0,0,-1,769,1338,0,0
-448,-314,0,0,0,0,0,0,0,0,0,-1,776,1338,0,0
-441,-314,0,0,0,0,0,0,0,0,0,-1,783,1338,0,0
-434,-314,0,0,0,0,0,0,0,0,0,-1,790,1338,0,0
-427,-314,0,0,0,0,0,0,0,0,0,-1,797,1338,0,0
-420,-314,0,0,0,0,0,0,0,0,0,-1,804,1338,0,0
-413,-314,0,0,0,0,0,0,0,0,0,-1,811,1338,0,0
-406,-314,0,0,0,0,0,0,0,0,0,-1,818,1338,0,0
-399,-314,0,0,0,0,0,0,0,0,0,-1,825,1338,0,0
-392,-314,0,0,0,0,0,0,0,0,0,-1,832,1338,0,0
-385,-314,0,0,0,0,0,0,0,0,0,-1,839,1338,0,0
-378,-314,0,0,0,0,0,0,0,0,0,-1,846,1338,0,0
-371,-314,0,0,0,0,0,0,0,0,0,-1,853,1338,0,0
-364,-314,0,0,0,0,0,0,0,0,0,-1,860,1338,0,0
-357,-314,0,0,0,0,0,0,0,0,0,-1,867,1338,0,0
-350,-314,0,0,0,0,0,0,0,0,0,-1,874,1338,0,0
-343,-314,0,0,0,0,0,0,0,0,0,-1,881,1338,0,0
-336,-314,0,0,0,0,0,0,0,0,0,-1,888,1338,0,0
-329,-314,0,0,0,0,0,0,0,0,0,-1,895,1338,0,0
-322,-314,0,0,0,0,0,0,0,0,0,-1,902,1338,0,0
-315,-314,0,0,0,0,0,0,0,0,0,-1,909,1338,0,0
-308,-314,0,0,0,0,0,0,0,0,0,-1,916,1338,0,0
-301,-314,0,0,0,0,0,0,0,0,0,-1,923,1338,0,0
-294,-314,0,0,0,0,0,0,0,0,0,-1,930,1338,0,0
-287,-314,0,0,0,0,0,0,0,0,0,-1,937,1338,0,0
-280,-314,0,0,0,0,0,0,0,0,0,-1,944,1338,0,0
-273,-314,0,0,0,0,0,0,0,0,0,-1,951,1338,0,0
-266,-314,0,0,0,0,0,0,0,0,0,-1,958,1338,0,0
-259,-314,0,0,0,0,0,0,0,0,0,-1,965,1338,0,0
-252,-314,0,0,0,0,0,0,0,0,0,-1,972,1338,0,0
-245,-314,0,0,0,0,0,0,0,0,0,-1,979,1338,0,0
-238,-314,0,0,0,0,0,0,0,0,0,-1,986,1338,0,0
-231,-314,0,0,0,0,0,0,0,0,0,-1,993,1338,0,0
-224,-314,0,0,0,0,0,0,0,0,0,-1,1000,1338,0,0
-217,-314,0,0,0,0,0,0,0,0,0,-1,1007,1338,0,0
-210,-314,0,0,0,0,0,0,0,0,0,-1,1014,1338,0,0
-203,-314,0,0,0,0,0,0,0,0,0,-1,1021,1338,0,0
-196,-314,0,0,0,0,0,0,0,0,0,-1,1028,1338,0,0
-189,-314,0,0,0,0,0,0,0,0,0,-1,1035,1338,0,0
-182,-314,0,0,0,0,0,0,0,0,0,-1,1042,1338,0,0
-175,-314,0,0,0,0,0,0,0,0,0,-1,1049,1338,0,0
-168,-314,0,0,0,0,0,0,0,0,0,-1,1056,1338,0,0
-161,-314,0,0,0,0,0,0,0,0,0,-1,1063,1338,0,0
-154,-314,0,0,0,0,0,0,0,0,0,-1,1070,1338,0,0
-147,-314,0,0,0,0,0,0,0,0,0,-1,1077,1338,0,0
-140,-314,0,0,0,0,0,0,0,0,0,-1,1084,1338,0,0
-133,-314,0,0,0,0,0,0,0,0,0,-1,1091,1338,0,0
-126,-314,0,0,0,0,0,0,0,0,0,-1,1098,1338,0,0
-119,-314,0,0,0,0,0,0,0,0,0,-1,1105,1338,0,0
-112,-314,0,0,0,0,0,0,0,0,0,-1,1112,1338,0,0
-105,-314,0,0,0,0,0,0,0,0,0,-1,1119,1338,0,0
-98,-314,0,0,0,0,0,0,0,0,0,-1,1126,1338,0,0
-91,-314,0,0,0,0,0,0,0,0,0,-1,1133,1338,0,0
-84,-314,0,0,0,0,0,0,0,0,0,-1,1140,1338,0,0
-77,-314,0,0,0,0,0,0,0,0,0,-1,1147,1338,0,0
-70,-314,0,0,0,0,0,0,0,0,0,-1,1154,1338,0,0
-63,-314,0,0,0,0,0,0,0,0,0,-1,1161,1338,0,0
-56,-314,0,0,0,0,0,0,0,0,0,-1,1168,1338,0,0
-49,-314,0,0,0,0,0,0,0,0,0,-1,1175,1338,0,0
-42,-314,0,0,0,0,0,0,0,0,0,-1,1182,1338,0,0
-35,-314,0,0,0,0,0,0,0,0,0,-1,1189,1338,0,0
-28,-314,0,0,0,0,0,0,0,0,0,-1,1196,1338,0,0
-21,-314,0,0,0,0,0,0,0,0,0,-1,1203,1338,0,0
-14,-314,0,0,0,0,0,0,0,0,0,-1,1210,1338,0,0
-7,-314,0,0,0,0,0,0,0,0,0,-1,1217,1338,0,0
0,-314,0,0,0,0,0,0,0,0,0,-1,1224,1338,0,0
7,-314,0,0,0,0,0,0,0,0,0,-1,1231,1338,0,0
14,-314,0,0,0,0,0,0,0,0,0,-1,1238,1338,0,0
21,-314,0,0,0,0,0,0,0,0,0,-1,1245,1338,0,0
28,-314,0,0,0,0,0,0,0,0,0,-1,1252,1338,0,0
35,-314,0,0,0,0,0,0,0,0,0,-1,1259,1338,0,0
42,-314,0,0,0,0,0,0,0,0,0,-1,1266,1338,0,0
49,-314,0,0,0,0,0,0,0,0,0,-1,1273,1338,0,0
56,-314,0,0,0,0,0,0,0,0,0,-1,1280,1338,0,0
63,-314,0,0,0,0,0,0,0,0,0,-1,1287,1338,0,0
70,-314,0,0,0,0,0,0,0,0,0,-1,1294,1338,0,0
77,-314,0,0,0,0,0,0,0,0,0,-1,1301,1338,0,0
84,-314,0,0,0,0,0,0,0,0,0,-1,1308,1338,0,0
91,-314,0,0,0,0,0,0,0,0,0,-1,1315,1338,0,0
98,-314,0,0,0,0,0,0,0,0,0,-1,1322,1338,0,0
105,-314,0,0,0,0,0,0,0,0,0,-1,1329,1338,0,0
112,-314,0,0,0,0,0,0,0,0,0,-1,1336,1338,0,0
119,-314,0,0,0,0,0,0,0,0,0,-1,1343,1338,0,0
126,-314,0,0,0,0,0,0,0,0,0,-1,1350,1338,0,0
133,-314,0,0,0,0,0,0,0,0,0,-1,1357,1338,0,0
140,-314,0,0,0,0,0,0,0,0,0,-1,1364,1338,0,0
147,-314,0,0,0,0,0,0,0,0,0,-1,1371,1338,0,0
154,-314,0,0,0,0,0,0,0,0,0,-1,1378,1338,0,0
161,-314,0,0,0,0,0,0,0,0,0,-1,1385,1338,0,0
168,-314,0,0,0,0,0,0,0,0,0,-1,1392,1338,0,0
175,-314,0,0,0,0,0,0,0,0,0,-1,1399,1338,0,0
182,-314,0,0,0,0,0,0,0,0,0,-1,1406,1338,0,0
189,-314,0,0,0,0,0,0,0,0,0,-1,1413,1338,0,0
196,-314,0,0,0,0,0,0,0,0,0,-1,1420,1338,0,0
203,-314,0,0,0,0,0,0,0,0,0,-1,1427,1338,0,0
210,-314,0,0,0,0,0,0,0,0,0,-1,1434,1338,0,0
217,-314,0,0,0,0,0,0,0,0,0,-1,1441,1338,0,0
224,-314,0,0,0,0,0,0,0,0,0,-1,1448,1338,0,0
231,-314,0,0,0,0,0,0,0,0,0,-1,1455,1338,0,0
238,-314,0,0,0,0,0,0,0,0,0,-1,1462,1338,0,0
245,-314,0,0,0,0,0,0,0,0,0,-1,1469,1338,0,0
252,-314,0,0,0,0,0,0,0,0,0,-1,1476,1338,0,0
259,-314,0,0,0,0,0,0,0,0,0,-1,1483,1338,0,0
266,-314,0,0,0,0,0,0,0,0,0,-1,1490,1338,0,0
273,-314,0,0,0,0,0,0,0,0,0,-1,1497,1338,0,0
280,-314,0,0,0,0,0,0,0,0,0,-1,1504,1338,0,0
287,-314,0,0,0,0,0,0,0,0,0,-1,1511,1338,0,0
294,-314,0,0,0,0,0,0,0,0,0,-1,1518,1338,0,0
301,-314,0,0,0,0,0,0,0,0,0,-1,1525,1338,0,0
308,-314,0,0,0,0,0,0,0,0,0,-1,1532,1338,0,0
315,-314,0,0,0,0,0,0,0,0,0,-1,1539,1338,0,0
322,-314,0,0,0,0,0,0,0,0,0,-1,1546,1338,0,0
329,-314,0,0,0,0,0,0,0,0,0,-1,1553,1338,0,0
336,-314,0,0,0,0,0,0,0,0,0,-1,1560,1338,0,0
343,-314,0,0,0,0,0,0,0,0,0,-1,1567,1338,0,0
350,-314,0,0,0,0,0,0,0,0,0,-1,1574,1338,0,0
357,-314,0,0,0,0,0,0,0,0,0,-1,1581,1338,0,0
364,-314,0,0,0,0,0,0,0,0,0,-1,1588,1338,0,0
371,-314,0,0,0,0,0,0,0,0,0,-1,1595,1338,0,0
378,-314,0,0,0,0,0,0,0,0,0,-1,1602,1338,0,0
385,-314,0,0,0,0,0,0,0,0,0,-1,1609,1338,0,0
392,-314,0,0,0,0,0,0,0,0,0,-1,1616,1338,0,0
399,-314,0,0,0,0,0,0,0,0,0,-1,1623,1338,0,0
406,-314,0,0,0,0,0,0,0,0,0,-1,1630,1338,0,0
413,-314,0,0,0,0,0,0,0,0,0,-1,1637,1338,0,0
420,-314,0,0,0,0,0,0,0,0,0,-1,1644,1338,0,0
427,-314,0,0,0,0,0,0,0,0,0,-1,1651,1338,0,0
434,-314,0,0,0,0,0,0,0,0,0,-1,1658,1338,0,0
441,-314,0,0,0,0,0,0,0,0,0,-1,1665,1338,0,0
448,-314,0,0,0,0,0,0,0,0,0,-1,1672,1338,0,0
455,-314,0,0,0,0,0,0,0,0,0,-1,1679,1338,0,0
462,-314,0,0,0,0,0,0,0,0,0,-1,1686,1338,0,0
469,-314,0,0,0,0,0,0,0,0,0,-1,1693,1338,0,0
476,-314,0,0,0,0,0,0,0,0,0,-1,1700,1338,0,0
483,-314,0,0,0,0,0,0,0,0,0,-1,1707,1338,0,0
490,-314,0,0,0,0,0,0,0,0,0,-1,1714,1338,0,0
497,-314,0,0,0,0,0,0,0,0,0,-1,1721,1338,0,0
504,-314,0,0,0,0,0,0,0,0,0,-1,1728,1338,0,0
511,-314,0,0,0,0,0,0,0,0,0,-1,1735,1338,0,0
518,-314,0,0,0,0,0,0,0,0,0,-1,1742,1338,0,0
525,-314,0,0,0,0,0,0,0,0,0,-1,1749,1338,0,0
532,-314,0,0,0,0,0,0,0,0,0,-1,1756,1338,0,0
539,-314,0,0,0,0,0,0,0,0,0,-1,1763,1338,0,0
546,-314,0,0,0,0,0,0,0,0,0,-1,1770,1338,0,0
553,-314,0,0,0,0,0,0,0,0,0,-1,1777,1338,0,0
560,-314,0,0,0,0,0,0,0,0,0,-1,1784,1338,0,0
567,-314,0,0,0,0,0,0,0,0,0,-1,1791,1338,0,0
574,-314,0,0,0,0,0,0,0,0,0,-1,1798,1338,0,0
581,-314,66.1637,1.86658,0,0,0,0,0,0,0,-1,1805,1338,66.1637,-1.86663
588,-314,66.4303,1.43481,0,0,0,0,0,0,0,-1,1812,1338,66.4303,-1.43487
595,-314,66.7465,0.982788,0,0,0,0,0,0,0,-1,1819,1338,66.7464,-0.982795
602,-314,66.322,1.38416,0,0,0,0,0,0,0,-1,1826,1338,66.322,-1.3842
609,-314,60.2225,1.27014,0,0,0,0,0,0,0,-1,1833,1338,60.2225,-1.27017
616,-314,48.1149,3.005,0,0,0,0,0,0,0,-1,1840,1338,48.1149,-3.00505
623,-314,38.7728,2.71741,0,0,0,0,0,0,0,-1,1847,1338,38.7728,-2.71737
630,-314,29.4308,6.23206,0,0,0,0,0,0,0,-1,1854,1338,29.4308,-6.23202
637,-314,22.1349,5.16418,0,0,0,0,0,0,0,-1,1861,1338,22.1349,-5.16414
644,-314,18.7517,6.2605,0,0,0,0,0,0,0,-1,1868,1338,18.7517,-6.26053
651,-314,23.1317,8.005,0,0,0,0,0,0,0,-1,1875,1338,23.1317,-8.00506
658,-314,49.9191,18.822,0,0,0,0,0,0,0,-1,1882,1338,49.9191,-18.8221
665,-314,102.126,47.7522,0,0,0,0,0,0,0,-1,1889,1338,102.126,-47.7522
672,-314,171.979,52.9712,0,0,0,0,0,0,0,-1,1896,1338,171.979,-52.9712
679,-314,171.315,50.6223,-0.0157958,0.00312593,0.00889774,0.00665266,-0.0193225,1.19343,0.0155801,0.0398691,1903,1338,171.315,-50.6223
686,-314,170.775,48.2646,0,0,0,0,0,0,0,-1,1910,1338,170.775,-48.2647
693,-314,170.46,46.0469,-0.0118543,0.0162986,0.0137789,0.02192,-0.0174757,1.18344,0.0227933,0.0268442,1917,1338,170.46,-46.0469
700,-314,169.931,43.7991,-0.0106574,0.0218901,0.0167645,0.0289805,-0.0177479,1.17067,0.0272372,0.0253915,1924,1338,169.931,-43.799
707,-314,169.398,41.7352,-0.00998742,0.0269012,0.0200467,0.0356977,-0.0187839,1.15729,0.0319563,0.0219287,1931,1338,169.398,-41.7353
714,-314,169.113,39.7311,-0.00986367,0.0314041,0.023629,0.0421404,-0.0206,1.14432,0.0369279,0.0172884,1938,1338,169.112,-39.731
721,-314,168.709,37.7056,-0.0103181,0.0354607,0.0275222,0.0483679,-0.0232253,1.13228,0.0421754,0.0343552,1945,1338,168.709,-37.7055
728,-314,168.328,35.647,0,0,0,0,0,0,0,-1,1952,1338,168.328,-35.647
735,-314,26.3665,6.21582,0,0,0,0,0,0,0,-1,1959,1338,26.3664,-6.21581
742,-314,26.2235,6.0166,0,0,0,0,0,0,0,-1,1966,1338,26.2235,-6.01662
749,-314,26.2223,5.47046,0,0,0,0,0,0,0,-1,1973,1338,26.2223,-5.47041
756,-314,24.2521,5.93408,0,0,0,0,0,0,0,-1,1980,1338,24.252,-5.93413
763,-314,19.2207,4.07239,0,0,0,0,0,0,0,-1,1987,1338,19.2206,-4.07239
770,-314,0,0,0,0,0,0,0,0,0,-1,1994,1338,0,0
777,-314,0,0,0,0,0,0,0,0,0,-1,2001,1338,0,0
784,-314,0,0,0,0,0,0,0,0,0,-1,2008,1338,0,0
791,-314,0,0,0,0,0,0,0,0,0,-1,2015,1338,0,0
798,-314,0,0,0,0,0,0,0,0,0,-1,2022,1338,0,0
805,-314,0,0,0,0,0,0,0,0,0,-1,2029,1338,0,0
812,-314,0,0,0,0,0,0,0,0,0,-1,2036,1338,0,0
-700,-321,0,0,0,0,0,0,0,0,0,-1,524,1345,0,0
-693,-321,0,0,0,0,0,0,0,0,0,-1,531,1345,0,0
-686,-321,0,0,0,0,0,0,0,0,0,-1,538,1345,0,0
-679,-321,0,0,0,0,0,0,0,0,0,-1,545,1345,0,0
-672,-321,0,0,0,0,0,0,0,0,0,-1,552,1345,0,0
-665,-321,0,0,0,0,0,0,0,0,0,-1,559,1345,0,0
-658,-321,0,0,0,0,0,0,0,0,0,-1,566,1345,0,0
-651,-321,0,0,0,0,0,0,0,0,0,-1,573,1345,0,0
-644,-321,-58.7329,10.2313,0,0,0,0,0,0,0,-1,580,1345,-58.7329,-10.2313
-637,-321,-59.9981,9.06421,0,0,0,0,0,0,0,-1,587,1345,-59.9981,-9.06417
-630,-321,-61.377,8.07166,0,0,0,0,0,0,0,-1,594,1345,-61.3769,-8.07168
-623,-321,-13.2242,3.14148,0,0,0,0,0,0,0,-1,601,1345,-13.2243,-3.14146
-616,-321,-11.6754,3.13794,0,0,0,0,0,0,0,-1,608,1345,-11.6754,-3.13789
-609,-321,-7.95209,1.14758,0,0,0,0,0,0,0,-1,615,1345,-7.95208,-1.14757
-602,-321,-8.85791,2.50049,0,0,0,0,0,0,0,-1,622,1345,-8.85791,-2.50048
-595,-321,-19.8463,5.36584,0,0,0,0,0,0,0,-1,629,1345,-19.8462,-5.36589
-588,-321,-160.28,35.6415,0,0,0,0,0,0,0,-1,636,1345,-160.28,-35.6415
-581,-321,-160.553,37.8911,0.00219407,0.0411696,-0.0169546,0.0475127,-0.00414902,-1.2128,0.0331448,0.021084,643,1345,-160.553,-37.8911
-574,-321,-160.936,40.0382,0.0038869,0.0374233,-0.017999,0.0452547,-0.00394445,-1.1604,0.0315668,0.0225201,650,1345,-160.936,-40.0382
-567,-321,-161.211,42.2356,0.00498054,0.0336763,-0.0194526,0.0435,-0.00484315,-1.10315,0.0307418,0.0256607,657,1345,-161.211,-42.2356
-560,-321,-161.176,44.4587,0.00546312,0.029916,-0.0213483,0.0422911,-0.00691195,-1.04546,0.030758,0.0457109,664,1345,-161.176,-44.4587
-553,-321,-161.191,46.7473,0,0,0,0,0,0,0,-1,671,1345,-161.191,-46.7473
-546,-321,-73.3562,38.6277,0,0,0,0,0,0,0,-1,678,1345,-73.3562,-38.6277
-539,-321,-62.9611,33.6246,0,0,0,0,0,0,0,-1,685,1345,-62.9611,-33.6247
-532,-321,-58.1584,32.4453,0,0,0,0,0,0,0,-1,692,1345,-58.1584,-32.4453
-525,-321,-60.7136,36.2605,0,0,0,0,0,0,0,-1,699,1345,-60.7136,-36.2605
-518,-321,-10.3564,6.75696,0,0,0,0,0,0,0,-1,706,1345,-10.3564,-6.75694
-511,-321,-9.3302,5.29297,0,0,0,0,0,0,0,-1,713,1345,-9.33023,-5.29294
-504,-321,-10.4713,0.0145264,0,0,0,0,0,0,0,-1,720,1345,-10.4713,-0.0145296
-497,-321,-9.96771,0.313599,0,0,0,0,0,0,0,-1,727,1345,-9.96769,-0.313618
-490,-321,-10.7631,0.973511,0,0,0,0,0,0,0,-1,734,1345,-10.7631,-0.97353
-483,-321,-17.5908,0.2323,0,0,0,0,0,0,0,-1,741,1345,-17.5908,-0.232355
-476,-321,-17.2915,0.297363,0,0,0,0,0,0,0,-1,748,1345,-17.2915,-0.297342
-469,-321,-17.2441,0.478027,0,0,0,0,0,0,0,-1,755,1345,-17.2441,-0.477994
-462,-321,-17.1672,0.526489,0,0,0,0,0,0,0,-1,762,1345,-17.1672,-0.526533
-455,-321,0,0,0,0,0,0,0,0,0,-1,769,1345,0,0
-448,-321,0,0,0,0,0,0,0,0,0,-1,776,1345,0,0
-441,-321,0,0,0,0,0,0,0,0,0,-1,783,1345,0,0
-434,-321,0,0,0,0,0,0,0,0,0,-1,790,1345,0,0
-427,-321,0,0,0,0,0,0,0,0,0,-1,797,1345,0,0
-420,-321,0,0,0,0,0,0,0,0,0,-1,804,1345,0,0
-413,-321,0,0,0,0,0,0,0,0,0,-1,811,1345,0,0
-406,-321,0,0,0,0,0,0,0,0,0,-1,818,1345,0,0
-399,-321,0,0,0,0,0,0,0,0,0,-1,825,1345,0,0
-392,-321,0,0,0,0,0,0,0,0,0,-1,832,1345,0,0
-385,-321,0,0,0,0,0,0,0,0,0,-1,839,1345,0,0
-378,-321,0,0,0,0,0,0,0,0,0,-1,846,1345,0,0
-371,-321,0,0,0,0,0,0,0,0,0,-1,853,1345,0,0
-364,-321,0,0,0,0,0,0,0,0,0,-1,860,1345,0,0
-357,-321,0,0,0,0,0,0,0,0,0,-1,867,1345,0,0
-350,-321,0,0,0,0,0,0,0,0,0,-1,874,1345,0,0
-343,-321,0,0,0,0,0,0,0,0,0,-1,881,1345,0,0
-336,-321,0,0,0,0,0,0,0,0,0,-1,888,1345,0,0
-329,-321,0,0,0,0,0,0,0,0,0,-1,895,1345,0,0
-322,-321,0,0,0,0,0,0,0,0,0,-1,902,1345,0,0
-315,-321,0,0,0,0,0,0,0,0,0,-1,909,1345,0,0
-308,-321,0,0,0,0,0,0,0,0,0,-1,916,1345,0,0
-301,-321,0,0,0,0,0,0,0,0,0,-1,923,1345,0,0
-294,-321,0,0,0,0,0,0,0,0,0,-1,930,1345,0,0
-287,-321,0,0,0,0,0,0,0,0,0,-1,937,1345,0,0
-280,-321,0,0,0,0,0,0,0,0,0,-1,944,1345,0,0
-273,-321,0,0,0,0,0,0,0,0,0,-1,951,1345,0,0
-266,-321,0,0,0,0,0,0,0,0,0,-1,958,1345,0,0
-259,-321,0,0,0,0,0,0,0,0,0,-1,965,1345,0,0
-252,-321,0,0,0,0,0,0,0,0,0,-1,972,1345,0,0
-245,-321,0,0,0,0,0,0,0,0,0,-1,979,1345,0,0
-238,-321,0,0,0,0,0,0,0,0,0,-1,986,1345,0,0
-231,-321,0,0,0,0,0,0,0,0,0,-1,993,1345,0,0
-224,-321,0,0,0,0,0,0,0,0,0,-1,1000,1345,0,0
-217,-321,0,0,0,0,0,0,0,0,0,-1,1007,1345,0,0
-210,-321,0,0,0,0,0,0,0,0,0,-1,1014,1345,0,0
-203,-321,0,0,0,0,0,0,0,0,0,-1,1021,1345,0,0
-196,-321,0,0,0,0,0,0,0,0,0,-1,1028,1345,0,0
-189,-321,0,0,0,0,0,0,0,0,0,-1,1035,1345,0,0
-182,-321,0,0,0,0,0,0,0,0,0,-1,1042,1345,0,0
-175,-321,0,0,0,0,0,0,0,0,0,-1,1049,1345,0,0
-168,-321,0,0,0,0,0,0,0,0,0,-1,1056,1345,0,0
-161,-321,0,0,0,0,0,0,0,0,0,-1,1063,1345,0,0
-154,-321,0,0,0,0,0,0,0,0,0,-1,1070,1345,0,0
-147,-321,0,0,0,0,0,0,0,0,0,-1,1077,1345,0,0
-140,-321,0,0,0,0,0,0,0,0,0,-1,1084,1345,0,0
-133,-321,0,0,0,0,0,0,0,0,0,-1,1091,1345,0,0
-126,-321,0,0,0,0,0,0,0,0,0,-1,1098,1345,0,0
-119,-321,0,0,0,0,0,0,0,0,0,-1,1105,1345,0,0
-112,-321,0,0,0,0,0,0,0,0,0,-1,1112,1345,0,0
-105,-321,0,0,0,0,0,0,0,0,0,-1,1119,1345,0,0
-98,-321,0,0,0,0,0,0,0,0,0,-1,1126,1345,0,0
-91,-321,0,0,0,0,0,0,0,0,0,-1,1133,1345,0,0
-84,-321,0,0,0,0,0,0,0,0,0,-1,1140,1345,0,0
-77,-321,0,0,0,0,0,0,0,0,0,-1,1147,1345,0,0
-70,-321,0,0,0,0,0,0,0,0,0,-1,1154,1345,0,0
-63,-321,0,0,0,0,0,0,0,0,0,-1,1161,1345,0,0
-56,-321,0,0,0,0,0,0,0,0,0,-1,1168,1345,0,0
-49,-321,0,0,0,0,0,0,0,0,0,-1,1175,1345,0,0
-42,-321,0,0,0,0,0,0,0,0,0,-1,1182,1345,0,0
-35,-321,0,0,0,0,0,0,0,0,0,-1,1189,1345,0,0
-28,-321,0,0,0,0,0,0,0,0,0,-1,1196,1345,0,0
-21,-321,0,0,0,0,0,0,0,0,0,-1,1203,1345,0,0
-14,-321,0,0,0,0,0,0,0,0,0,-1,1210,1345,0,0
-7,-321,0,0,0,0,0,0,0,0,0,-1,1217,1345,0,0
0,-321,0,0,0,0,0,0,0,0,0,-1,1224,1345,0,0
7,-321,0,0,0,0,0,0,0,0,0,-1,1231,1345,0,0
14,-321,0,0,0,0,0,0,0,0,0,-1,1238,1345,0,0
21,-321,0,0,0,0,0,0,0,0,0,-1,1245,1345,0,0
28,-321,0,0,0,0,0,0,0,0,0,-1,1252,1345,0,0
35,-321,0,0,0,0,0,0,0,0,0,-1,1259,1345,0,0
42,-321,0,0,0,0,0,0,0,0,0,-1,1266,1345,0,0
49,-321,0,0,0,0,0,0,0,0,0,-1,1273,1345,0,0
56,-321,0,0,0,0,0,0,0,0,0,-1,1280,1345,0,0
63,-321,0,0,0,0,0,0,0,0,0,-1,1287,1345,0,0
70,-321,0,0,0,0,0,0,0,0,0,-1,1294,1345,0,0
77,-321,0,0,0,0,0,0,0,0,0,-1,1301,1345,0,0
84,-321,0,0,0,0,0,0,0,0,0,-1,1308,1345,0,0
91,-321,0,0,0,0,0,0,0,0,0,-1,1315,1345,0,0
98,-321,0,0,0,0,0,0,0,0,0,-1,1322,1345,0,0
105,-321,0,0,0,0,0,0,0,0,0,-1,1329,1345,0,0
112,-321,0,0,0,0,0,0,0,0,0,-1,1336,1345,0,0
119,-321,0,0,0,0,0,0,0,0,0,-1,1343,1345,0,0
126,-321,0,0,0,0,0,0,0,0,0,-1,1350,1345,0,0
133,-321,0,0,0,0,0,0,0,0,0,-1,1357,1345,0,0
140,-321,0,0,0,0,0,0,0,0,0,-1,1364,1345,0,0
147,-321,0,0,0,0,0,0,0,0,0,-1,1371,1345,0,0
154,-321,0,0,0,0,0,0,0,0,0,-1,1378,1345,0,0
161,-321,0,0,0,0,0,0,0,0,0,-1,1385,1345,0,0
168,-321,0,0,0,0,0,0,0,0,0,-1,1392,1345,0,0
175,-321,0,0,0,0,0,0,0,0,0,-1,1399,1345,0,0
182,-321,0,0,0,0,0,0,0,0,0,-1,1406,1345,0,0
189,-321,0,0,0,0,0,0,0,0,0,-1,1413,1345,0,0
196,-321,0,0,0,0,0,0,0,0,0,-1,1420,1345,0,0
203,-321,0,0,0,0,0,0,0,0,0,-1,1427,1345,0,0
210,-321,0,0,0,0,0,0,0,0,0,-1,1434,1345,0,0
217,-321,0,0,0,0,0,0,0,0,0,-1,1441,1345,0,0
224,-321,0,0,0,0,0,0,0,0,0,-1,1448,1345,0,0
231,-321,0,0,0,0,0,0,0,0,0,-1,1455,1345,0,0
238,-321,0,0,0,0,0,0,0,0,0,-1,1462,1345,0,0
245,-321,0,0,0,0,0,0,0,0,0,-1,1469,1345,0,0
252,-321,0,0,0,0,0,0,0,0,0,-1,1476,1345,0,0
259,-321,0,0,0,0,0,0,0,0,0,-1,1483,1345,0,0
266,-321,0,0,0,0,0,0,0,0,0,-1,1490,1345,0,0
273,-321,0,0,0,0,0,0,0,0,0,-1,1497,1345,0,0
280,-321,0,0,0,0,0,0,0,0,0,-1,1504,1345,0,0
287,-321,0,0,0,0,0,0,0,0,0,-1,1511,1345,0,0
294,-321,0,0,0,0,0,0,0,0,0,-1,1518,1345,0,0
301,-321,0,0,0,0,0,0,0,0,0,-1,1525,1345,0,0
308,-321,0,0,0,0,0,0,0,0,0,-1,1532,1345,0,0
315,-321,0,0,0,0,0,0,0,0,0,-1,1539,1345,0,0
322,-321,0,0,0,0,0,0,0,0,0,-1,1546,1345,0,0
329,-321,0,0,0,0,0,0,0,0,0,-1,1553,1345,0,0
336,-321,0,0,0,0,0,0,0,0,0,-1,1560,1345,0,0
343,-321,0,0,0,0,0,0,0,0,0,-1,1567,1345,0,0
350,-321,0,0,0,0,0,0,0,0,0,-1,1574,1345,0,0
357,-321,0,0,0,0,0,0,0,0,0,-1,1581,1345,0,0
364,-321,0,0,0,0,0,0,0,0,0,-1,1588,1345,0,0
371,-321,0,0,0,0,0,0,0,0,0,-1,1595,1345,0,0
378,-321,0,0,0,0,0,0,0,0,0,-1,1602,1345,0,0
385,-321,0,0,0,0,0,0,0,0,0,-1,1609,1345,0,0
392,-321,0,0,0,0,0,0,0,0,0,-1,1616,1345,0,0
399,-321,0,0,0,0,0,0,0,0,0,-1,1623,1345,0,0
406,-321,0,0,0,0,0,0,0,0,0,-1,1630,1345,0,0
413,-321,0,0,0,0,0,0,0,0,0,-1,1637,1345,0,0
420,-321,0,0,0,0,0,0,0,0,0,-1,1644,1345,0,0
427,-321,0,0,0,0,0,0,0,0,0,-1,1651,1345,0,0
434,-321,0,0,0,0,0,0,0,0,0,-1,1658,1345,0,0
441,-321,0,0,0,0,0,0,0,0,0,-1,1665,1345,0,0
448,-321,0,0,0,0,0,0,0,0,0,-1,1672,1345,0,0
455,-321,0,0,0,0,0,0,0,0,0,-1,1679,1345,0,0
462,-321,0,0,0,0,0,0,0,0,0,-1,1686,1345,0,0
469,-321,0,0,0,0,0,0,0,0,0,-1,1693,1345,0,0
476,-321,0,0,0,0,0,0,0,0,0,-1,1700,1345,0,0
483,-321,0,0,0,0,0,0,0,0,0,-1,1707,1345,0,0
490,-321,0,0,0,0,0,0,0,0,0,-1,1714,1345,0,0
497,-321,0,0,0,0,0,0,0,0,0,-1,1721,1345,0,0
504,-321,0,0,0,0,0,0,0,0,0,-1,1728,1345,0,0
511,-321,0,0,0,0,0,0,0,0,0,-1,1735,1345,0,0
518,-321,0,0,0,0,0,0,0,0,0,-1,1742,1345,0,0
525,-321,0,0,0,0,0,0,0,0,0,-1,1749,1345,0,0
532,-321,0,0,0,0,0,0,0,0,0,-1,1756,1345,0,0
539,-321,0,0,0,0,0,0,0,0,0,-1,1763,1345,0,0
546,-321,0,0,0,0,0,0,0,0,0,-1,1770,1345,0,0
553,-321,0,0,0,0,0,0,0,0,0,-1,1777,1345,0,0
560,-321,0,0,0,0,0,0,0,0,0,-1,1784,1345,0,0
567,-321,0,0,0,0,0,0,0,0,0,-1,1791,1345,0,0
574,-321,0,0,0,0,0,0,0,0,0,-1,1798,1345,0,0
581,-321,66.1073,1.6543,0,0,0,0,0,0,0,-1,1805,1345,66.1073,-1.65427
588,-321,66.6576,0.7948,0,0,0,0,0,0,0,-1,1812,1345,66.6575,-0.794774
595,-321,67.2585,-0.216431,0,0,0,0,0,0,0,-1,1819,1345,67.2586,0.216484
602,-321,60.3523,1.24133,0,0,0,0,0,0,0,-1,1826,1345,60.3523,-1.2413
609,-321,48.311,3.39575,0,0,0,0,0,0,0,-1,1833,1345,48.311,-3.39571
616,-321,37.8107,2.58704,0,0,0,0,0,0,0,-1,1840,1345,37.8106,-2.58705
623,-321,37.6854,3.68933,0,0,0,0,0,0,0,-1,1847,1345,37.6854,-3.68931
630,-321,23.6674,4.34106,0,0,0,0,0,0,0,-1,1854,1345,23.6674,-4.34112
637,-321,21.7925,6.79224,0,0,0,0,0,0,0,-1,1861,1345,21.7925,-6.7922
644,-321,16.8844,6.71973,0,0,0,0,0,0,0,-1,1868,1345,16.8844,-6.71971
651,-321,27.4924,10.0319,0,0,0,0,0,0,0,-1,1875,1345,27.4924,-10.0319
658,-321,66.9578,30.2902,0,0,0,0,0,0,0,-1,1882,1345,66.9577,-30.2901
665,-321,90.8429,42.8761,0,0,0,0,0,0,0,-1,1889,1345,90.8429,-42.8761
672,-321,169.727,53.5234,0,0,0,0,0,0,0,-1,1896,1345,169.727,-53.5234
679,-321,169.01,51.2432,0,0,0,0,0,0,0,-1,1903,1345,169.01,-51.2432
686,-321,167.902,48.2748,0,0,0,0,0,0,0,-1,1910,1345,167.902,-48.2748
693,-321,167.877,46.4469,-0.0110793,0.0183316,0.0158516,0.0252485,-0.0179961,1.15935,0.025084,0.0235526,1917,1345,167.878,-46.4469
700,-321,167.416,44.0826,-0.00970287,0.0238626,0.0187053,0.0322105,-0.0180508,1.15104,0.0293997,0.0251207,1924,1345,167.416,-44.0826
707,-321,167.02,41.933,-0.00872893,0.0289347,0.0217896,0.0389026,-0.0186968,1.14176,0.0339302,0.0236035,1931,1345,167.019,-41.933
714,-321,166.67,39.8843,-0.00819212,0.0336098,0.0251034,0.0453743,-0.0199566,1.13255,0.0386586,0.0214932,1938,1345,166.67,-39.8843
721,-321,166.177,37.9487,0,0,0,0,0,0,0,-1,1945,1345,166.177,-37.9488
728,-321,69.6017,20.2322,0,0,0,0,0,0,0,-1,1952,1345,69.6017,-20.2322
735,-321,22.0081,5.65479,0,0,0,0,0,0,0,-1,1959,1345,22.008,-5.65481
742,-321,24.5398,5.05725,0,0,0,0,0,0,0,-1,1966,1345,24.5398,-5.05729
749,-321,24.0675,5.4458,0,0,0,0,0,0,0,-1,1973,1345,24.0675,-5.44581
756,-321,19.6251,4.98315,0,0,0,0,0,0,0,-1,1980,1345,19.6251,-4.98311
763,-321,19.6747,4.61438,0,0,0,0,0,0,0,-1,1987,1345,19.6747,-4.61436
770,-321,0,0,0,0,0,0,0,0,0,-1,1994,1345,0,0
777,-321,0,0,0,0,0,0,0,0,0,-1,2001,1345,0,0
784,-321,0,0,0,0,0,0,0,0,0,-1,2008,1345,0,0
791,-321,0,0,0,0,0,0,0,0,0,-1,2015,1345,0,0
798,-321,0,0,0,0,0,0,0,0,0,-1,2022,1345,0,0
805,-321,0,0,0,0,0,0,0,0,0,-1,2029,1345,0,0
812,-321,0,0,0,0,0,0,0,0,0,-1,2036,1345,0,0
-700,-328,0,0,0,0,0,0,0,0,0,-1,524,1352,0,0
-693,-328,0,0,0,0,0,0,0,0,0,-1,531,1352,0,0
-686,-328,0,0,0,0,0,0,0,0,0,-1,538,1352,0,0
-679,-328,0,0,0,0,0,0,0,0,0,-1,545,1352,0,0
-672,-328,0,0,0,0,0,0,0,0,0,-1,552,1352,0,0
-665,-328,0,0,0,0,0,0,0,0,0,-1,559,1352,0,0
-658,-328,0,0,0,0,0,0,0,0,0,-1,566,1352,0,0
-651,-328,0,0,0,0,0,0,0,0,0,-1,573,1352,0,0
-644,-328,0,0,0,0,0,0,0,0,0,-1,580,1352,0,0
-637,-328,-61.3883,10.1125,0,0,0,0,0,0,0,-1,587,1352,-61.3883,-10.1126
-630,-328,-62.8012,9.14563,0,0,0,0,0,0,0,-1,594,1352,-62.8012,-9.14564
-623,-328,-10.7739,4.55042,0,0,0,0,0,0,0,-1,601,1352,-10.7739,-4.55041
-616,-328,-8.22198,-0.25708,0,0,0,0,0,0,0,-1,608,1352,-8.22201,0.257067
-609,-328,-7.87439,0.192871,0,0,0,0,0,0,0,-1,615,1352,-7.87441,-0.192822
-602,-328,-7.63062,1.31665,0,0,0,0,0,0,0,-1,622,1352,-7.63064,-1.3166
-595,-328,-9.42639,2.93494,0,0,0,0,0,0,0,-1,629,1352,-9.42638,-2.93499
-588,-328,-157.883,35.3965,0,0,0,0,0,0,0,-1,636,1352,-157.883,-35.3965
-581,-328,-158.087,37.9316,0.0044654,0.0438091,-0.016398,0.0497473,-0.00147282,-1.22336,0.0336665,0.0446397,643,1352,-158.087,-37.9317
-574,-328,-158.396,40.2053,0.00547297,0.0399339,-0.0175866,0.0473241,-0.00191727,-1.17298,0.0322075,0.0213224,650,1352,-158.396,-40.2054
-567,-328,-158.774,42.3651,0.00591505,0.0360392,-0.0190864,0.0452908,-0.00333656,-1.11944,0.0313653,0.0249998,657,1352,-158.774,-42.3652
-560,-328,-159.015,44.7323,0.00581742,0.0321365,-0.0208951,0.0436706,-0.00571673,-1.06642,0.0311944,0.0379647,664,1352,-159.015,-44.7323
-553,-328,-159.274,47.1061,0,0,0,0,0,0,0,-1,671,1352,-159.274,-47.106
-546,-328,-74.9383,40.7139,0,0,0,0,0,0,0,-1,678,1352,-74.9383,-40.7139
-539,-328,-67.9141,38.4679,0,0,0,0,0,0,0,-1,685,1352,-67.9141,-38.468
-532,-328,-63.8609,37.8448,0,0,0,0,0,0,0,-1,692,1352,-63.8609,-37.8448
-525,-328,-58.8255,36.8346,0,0,0,0,0,0,0,-1,699,1352,-58.8255,-36.8346
-518,-328,-66.7287,42.3196,0,0,0,0,0,0,0,-1,706,1352,-66.7287,-42.3196
-511,-328,-9.39868,7.16113,0,0,0,0,0,0,0,-1,713,1352,-9.39869,-7.16113
-504,-328,-8.60626,-0.905762,0,0,0,0,0,0,0,-1,720,1352,-8.60623,0.905787
-497,-328,-9.29102,-0.0517578,0,0,0,0,0,0,0,-1,727,1352,-9.29104,0.0518175
-490,-328,-10.0663,0.882813,0,0,0,0,0,0,0,-1,734,1352,-10.0663,-0.882795
-483,-328,-10.8181,1.72375,0,0,0,0,0,0,0,-1,741,1352,-10.8181,-1.72374
-476,-328,-16.8951,-0.150757,0,0,0,0,0,0,0,-1,748,1352,-16.8951,0.150795
-469,-328,-16.8412,0.00158691,0,0,0,0,0,0,0,-1,755,1352,-16.8412,-0.00161515
-462,-328,-16.3546,-0.203491,0,0,0,0,0,0,0,-1,762,1352,-16.3545,0.203532
-455,-328,0,0,0,0,0,0,0,0,0,-1,769,1352,0,0
-448,-328,0,0,0,0,0,0,0,0,0,-1,776,1352,0,0
-441,-328,0,0,0,0,0,0,0,0,0,-1,783,1352,0,0
-434,-328,0,0,0,0,0,0,0,0,0,-1,790,1352,0,0
-427,-328,0,0,0,0,0,0,0,0,0,-1,797,1352,0,0
-420,-328,0,0,0,0,0,0,0,0,0,-1,804,1352,0,0
-413,-328,0,0,0,0,0,0,0,0,0,-1,811,1352,0,0
-406,-328,0,0,0,0,0,0,0,0,0,-1,818,1352,0,0
-399,-328,0,0,0,0,0,0,0,0,0,-1,825,1352,0,0
-392,-328,0,0,0,0,0,0,0,0,0,-1,832,1352,0,0
-385,-328,0,0,0,0,0,0,0,0,0,-1,839,1352,0,0
-378,-328,0,0,0,0,0,0,0,0,0,-1,846,1352,0,0
-371,-328,0,0,0,0,0,0,0,0,0,-1,853,1352,0,0
-364,-328,0,0,0,0,0,0,0,0,0,-1,860,1352,0,0
-357,-328,0,0,0,0,0,0,0,0,0,-1,867,1352,0,0
-350,-328,0,0,0,0,0,0,0,0,0,-1,874,1352,0,0
-343,-328,0,0,0,0,0,0,0,0,0,-1,881,1352,0,0
-336,-328,0,0,0,0,0,0,0,0,0,-1,888,1352,0,0
-329,-328,0,0,0,0,0,0,0,0,0,-1,895,1352,0,0
-322,-328,0,0,0,0,0,0,0,0,0,-1,902,1352,0,0
-315,-328,0,0,0,0,0,0,0,0,0,-1,909,1352,0,0
-308,-328,0,0,0,0,0,0,0,0,0,-1,916,1352,0,0
-301,-328,0,0,0,0,0,0,0,0,0,-1,923,1352,0,0
-294,-328,0,0,0,0,0,0,0,0,0,-1,930,1352,0,0
-287,-328,0,0,0,0,0,0,0,0,0,-1,937,1352,0,0
-280,-328,0,0,0,0,0,0,0,0,0,-1,944,1352,0,0
-273,-328,0,0,0,0,0,0,0,0,0,-1,951,1352,0,0
-266,-328,0,0,0,0,0,0,0,0,0,-1,958,1352,0,0
-259,-328,0,0,0,0,0,0,0,0,0,-1,965,1352,0,0
-252,-328,0,0,0,0,0,0,0,0,0,-1,972,1352,0,0
-245,-328,0,0,0,0,0,0,0,0,0,-1,979,1352,0,0
-238,-328,0,0,0,0,0,0,0,0,0,-1,986,1352,0,0
-231,-328,0,0,0,0,0,0,0,0,0,-1,993,1352,0,0
-224,-328,0,0,0,0,0,0,0,0,0,-1,1000,1352,0,0
-217,-328,0,0,0,0,0,0,0,0,0,-1,1007,1352,0,0
-210,-328,0,0,0,0,0,0,0,0,0,-1,1014,1352,0,0
-203,-328,0,0,0,0,0,0,0,0,0,-1,1021,1352,0,0
-196,-328,0,0,0,0,0,0,0,0,0,-1,1028,1352,0,0
-189,-328,0,0,0,0,0,0,0,0,0,-1,1035,1352,0,0
-182,-328,0,0,0,0,0,0,0,0,0,-1,1042,1352,0,0
-175,-328,0,0,0,0,0,0,0,0,0,-1,1049,1352,0,0
-168,-328,0,0,0,0,0,0,0,0,0,-1,1056,1352,0,0
-161,-328,0,0,0,0,0,0,0,0,0,-1,1063,1352,0,0
-154,-328,0,0,0,0,0,0,0,0,0,-1,1070,1352,0,0
-147,-328,0,0,0,0,0,0,0,0,0,-1,1077,1352,0,0
-140,-328,0,0,0,0,0,0,0,0,0,-1,1084,1352,0,0
-133,-328,0,0,0,0,0,0,0,0,0,-1,1091,1352,0,0
-126,-328,0,0,0,0,0,0,0,0,0,-1,1098,1352,0,0
-119,-328,0,0,0,0,0,0,0,0,0,-1,1105,1352,0,0
-112,-328,0,0,0,0,0,0,0,0,0,-1,1112,1352,0,0
-105,-328,0,0,0,0,0,0,0,0,0,-1,1119,1352,0,0
-98,-328,0,0,0,0,0,0,0,0,0,-1,1126,1352,0,0
-91,-328,0,0,0,0,0,0,0,0,0,-1,1133,1352,0,0
-84,-328,0,0,0,0,0,0,0,0,0,-1,1140,1352,0,0
-77,-328,0,0,0,0,0,0,0,0,0,-1,1147,1352,0,0
-70,-328,0,0,0,0,0,0,0,0,0,-1,1154,1352,0,0
-63,-328,0,0,0,0,0,0,0,0,0,-1,1161,1352,0,0
-56,-328,0,0,0,0,0,0,0,0,0,-1,1168,1352,0,0
-49,-328,0,0,0,0,0,0,0,0,0,-1,1175,1352,0,0
-42,-328,0,0,0,0,0,0,0,0,0,-1,1182,1352,0,0
-35,-328,0,0,0,0,0,0,0,0,0,-1,1189,1352,0,0
-28,-328,0,0,0,0,0,0,0,0,0,-1,1196,1352,0,0
-21,-328,0,0,0,0,0,0,0,0,0,-1,1203,1352,0,0
-14,-328,0,0,0,0,0,0,0,0,0,-1,1210,1352,0,0
-7,-328,0,0,0,0,0,0,0,0,0,-1,1217,1352,0,0
0,-328,0,0,0,0,0,0,0,0,0,-1,1224,1352,0,0
7,-328,0,0,0,0,0,0,0,0,0,-1,1231,1352,0,0
14,-328,0,0,0,0,0,0,0,0,0,-1,1238,1352,0,0
21,-328,0,0,0,0,0,0,0,0,0,-1,1245,1352,0,0
28,-328,0,0,0,0,0,0,0,0,0,-1,1252,1352,0,0
35,-328,0,0,0,0,0,0,0,0,0,-1,1259,1352,0,0
42,-328,0,0,0,0,0,0,0,0,0,-1,1266,1352,0,0
49,-328,0,0,0,0,0,0,0,0,0,-1,1273,1352,0,0
56,-328,0,0,0,0,0,0,0,0,0,-1,1280,1352,0,0
63,-328,0,0,0,0,0,0,0,0,0,-1,1287,1352,0,0
70,-328,0,0,0,0,0,0,0,0,0,-1,1294,1352,0,0
77,-328,0,0,0,0,0,0,0,0,0,-1,1301,1352,0,0
84,-328,0,0,0,0,0,0,0,0,0,-1,1308,1352,0,0
91,-328,0,0,0,0,0,0,0,0,0,-1,1315,1352,0,0
98,-328,0,0,0,0,0,0,0,0,0,-1,1322,1352,0,0
105,-328,0,0,0,0,0,0,0,0,0,-1,1329,1352,0,0
112,-328,0,0,0,0,0,0,0,0,0,-1,1336,1352,0,0
119,-328,0,0,0,0,0,0,0,0,0,-1,1343,1352,0,0
126,-328,0,0,0,0,0,0,0,0,0,-1,1350,1352,0,0
133,-328,0,0,0,0,0,0,0,0,0,-1,1357,1352,0,0
140,-328,0,0,0,0,0,0,0,0,0,-1,1364,1352,0,0
147,-328,0,0,0,0,0,0,0,0,0,-1,1371,1352,0,0
154,-328,0,0,0,0,0,0,0,0,0,-1,1378,1352,0,0
161,-328,0,0,0,0,0,0,0,0,0,-1,1385,1352,0,0
168,-328,0,0,0,0,0,0,0,0,0,-1,1392,1352,0,0
175,-328,0,0,0,0,0,0,0,0,0,-1,1399,1352,0,0
182,-328,0,0,0,0,0,0,0,0,0,-1,1406,1352,0,0
189,-328,0,0,0,0,0,0,0,0,0,-1,1413,1352,0,0
196,-328,0,0,0,0,0,0,0,0,0,-1,1420,1352,0,0
203,-328,0,0,0,0,0,0,0,0,0,-1,1427,1352,0,0
210,-328,0,0,0,0,0,0,0,0,0,-1,1434,1352,0,0
217,-328,0,0,0,0,0,0,0,0,0,-1,1441,1352,0,0
224,-328,0,0,0,0,0,0,0,0,0,-1,1448,1352,0,0
231,-328,0,0,0,0,0,0,0,0,0,-1,1455,1352,0,0
238,-328,0,0,0,0,0,0,0,0,0,-1,1462,1352,0,0
245,-328,0,0,0,0,0,0,0,0,0,-1,1469,1352,0,0
252,-328,0,0,0,0,0,0,0,0,0,-1,1476,1352,0,0
259,-328,0,0,0,0,0,0,0,0,0,-1,1483,1352,0,0
266,-328,0,0,0,0,0,0,0,0,0,-1,1490,1352,0,0
273,-328,0,0,0,0,0,0,0,0,0,-1,1497,1352,0,0
280,-328,0,0,0,0,0,0,0,0,0,-1,1504,1352,0,0
287,-328,0,0,0,0,0,0,0,0,0,-1,1511,1352,0,0
294,-328,0,0,0,0,0,0,0,0,0,-1,1518,1352,0,0
301,-328,0,0,0,0,0,0,0,0,0,-1,1525,1352,0,0
308,-328,0,0,0,0,0,0,0,0,0,-1,1532,1352,0,0
315,-328,0,0,0,0,0,0,0,0,0,-1,1539,1352,0,0
322,-328,0,0,0,0,0,0,0,0,0,-1,1546,1352,0,0
329,-328,0,0,0,0,0,0,0,0,0,-1,1553,1352,0,0
336,-328,0,0,0,0,0,0,0,0,0,-1,1560,1352,0,0
343,-328,0,0,0,0,0,0,0,0,0,-1,1567,1352,0,0
350,-328,0,0,0,0,0,0,0,0,0,-1,1574,1352,0,0
357,-328,0,0,0,0,0,0,0,0,0,-1,1581,1352,0,0
364,-328,0,0,0,0,0,0,0,0,0,-1,1588,1352,0,0
371,-328,0,0,0,0,0,0,0,0,0,-1,1595,1352,0,0
378,-328,0,0,0,0,0,0,0,0,0,-1,1602,1352,0,0
385,-328,0,0,0,0,0,0,0,0,0,-1,1609,1352,0,0
392,-328,0,0,0,0,0,0,0,0,0,-1,1616,1352,0,0
399,-328,0,0,0,0,0,0,0,0,0,-1,1623,1352,0,0
406,-328,0,0,0,0,0,0,0,0,0,-1,1630,1352,0,0
413,-328,0,0,0,0,0,0,0,0,0,-1,1637,1352,0,0
420,-328,0,0,0,0,0,0,0,0,0,-1,1644,1352,0,0
427,-328,0,0,0,0,0,0,0,0,0,-1,1651,1352,0,0
434,-328,0,0,0,0,0,0,0,0,0,-1,1658,1352,0,0
441,-328,0,0,0,0,0,0,0,0,0,-1,1665,1352,0,0
448,-328,0,0,0,0,0,0,0,0,0,-1,1672,1352,0,0
455,-328,0,0,0,0,0,0,0,0,0,-1,1679,1352,0,0
462,-328,0,0,0,0,0,0,0,0,0,-1,1686,1352,0,0
469,-328,0,0,0,0,0,0,0,0,0,-1,1693,1352,0,0
476,-328,0,0,0,0,0,0,0,0,0,-1,1700,1352,0,0
483,-328,0,0,0,0,0,0,0,0,0,-1,1707,1352,0,0
490,-328,0,0,0,0,0,0,0,0,0,-1,1714,1352,0,0
497,-328,0,0,0,0,0,0,0,0,0,-1,1721,1352,0,0
504,-328,0,0,0,0,0,0,0,0,0,-1,1728,1352,0,0
511,-328,0,0,0,0,0,0,0,0,0,-1,1735,1352,0,0
518,-328,0,0,0,0,0,0,0,0,0,-1,1742,1352,0,0
525,-328,0,0,0,0,0,0,0,0,0,-1,1749,1352,0,0
532,-328,0,0,0,0,0,0,0,0,0,-1,1756,1352,0,0
539,-328,0,0,0,0,0,0,0,0,0,-1,1763,1352,0,0
546,-328,0,0,0,0,0,0,0,0,0,-1,1770,1352,0,0
553,-328,0,0,0,0,0,0,0,0,0,-1,1777,1352,0,0
560,-328,0,0,0,0,0,0,0,0,0,-1,1784,1352,0,0
567,-328,0,0,0,0,0,0,0,0,0,-1,1791,1352,0,0
574,-328,65.0565,3.09021,0,0,0,0,0,0,0,-1,1798,1352,65.0565,-3.09019
581,-328,66.3988,1.74048,0,0,0,0,0,0,0,-1,1805,1352,66.3989,-1.74051
588,-328,67.0304,0.506714,0,0,0,0,0,0,0,-1,1812,1352,67.0304,-0.506669
595,-328,60.5831,1.52856,0,0,0,0,0,0,0,-1,1819,1352,60.5832,-1.52861
602,-328,48.7734,3.66785,0,0,0,0,0,0,0,-1,1826,1352,48.7734,-3.66782
609,-328,37.0468,1.17407,0,0,0,0,0,0,0,-1,1833,1352,37.0468,-1.17407
616,-328,36.999,2.42859,0,0,0,0,0,0,0,-1,1840,1352,36.999,-2.42862
623,-328,34.345,5.14722,0,0,0,0,0,0,0,-1,1847,1352,34.3449,-5.14718
630,-328,22.0211,5.026,0,0,0,0,0,0,0,-1,1854,1352,22.0212,-5.02603
637,-328,21.15,5.53699,0,0,0,0,0,0,0,-1,1861,1352,21.15,-5.53704
644,-328,16.9579,6.3396,0,0,0,0,0,0,0,-1,1868,1352,16.9579,-6.33959
651,-328,36.2629,14.6906,0,0,0,0,0,0,0,-1,1875,1352,36.263,-14.6905
658,-328,74.4406,36.167,0,0,0,0,0,0,0,-1,1882,1352,74.4405,-36.167
665,-328,86.4988,42.1331,0,0,0,0,0,0,0,-1,1889,1352,86.4988,-42.133
672,-328,166.873,53.6594,0,0,0,0,0,0,0,-1,1896,1352,166.873,-53.6594
679,-328,166.523,51.3296,-0.013098,0.00935858,0.0129349,0.0152588,-0.0189982,1.14284,0.0198175,0.0309714,1903,1352,166.523,-51.3295
686,-328,165.829,49.136,-0.0113139,0.0151756,0.015317,0.0221801,-0.0183184,1.14188,0.0234173,0.0301193,1910,1352,165.829,-49.136
693,-328,165.385,46.6974,-0.00964705,0.0207648,0.0178443,0.0290033,-0.0178855,1.13827,0.0273237,0.0193206,1917,1352,165.385,-46.6974
700,-328,164.847,44.2736,-0.00816987,0.0260826,0.0205247,0.0356878,-0.0177751,1.13309,0.031439,0.0258637,1924,1352,164.847,-44.2736
707,-328,164.51,42.1377,-0.00694584,0.0310675,0.0233979,0.0422058,-0.0180841,1.1265,0.035725,0.0251968,1931,1352,164.51,-42.1377
714,-328,164.213,40.0624,-0.00600091,0.0358661,0.0263827,0.0486113,-0.0187461,1.12077,0.0401428,0.0396007,1938,1352,164.213,-40.0624
721,-328,163.99,37.6979,0,0,0,0,0,0,0,-1,1945,1352,163.99,-37.6979
728,-328,29.2787,6.74695,0,0,0,0,0,0,0,-1,1952,1352,29.2787,-6.74693
735,-328,20.8927,5.23523,0,0,0,0,0,0,0,-1,1959,1352,20.8927,-5.23528
742,-328,20.3547,4.11316,0,0,0,0,0,0,0,-1,1966,1352,20.3547,-4.11321
749,-328,20.0669,5.66321,0,0,0,0,0,0,0,-1,1973,1352,20.0669,-5.66319
756,-328,19.9543,5.50464,0,0,0,0,0,0,0,-1,1980,1352,19.9543,-5.50463
763,-328,0,0,0,0,0,0,0,0,0,-1,1987,1352,0,0
770,-328,0,0,0,0,0,0,0,0,0,-1,1994,1352,0,0
777,-328,0,0,0,0,0,0,0,0,0,-1,2001,1352,0,0
784,-328,0,0,0,0,0,0,0,0,0,-1,2008,1352,0,0
791,-328,0,0,0,0,0,0,0,0,0,-1,2015,1352,0,0
798,-328,0,0,0,0,0,0,0,0,0,-1,2022,1352,0,0
805,-328,0,0,0,0,0,0,0,0,0,-1,2029,1352,0,0
812,-328,0,0,0,0,0,0,0,0,0,-1,2036,1352,0,0
-700,-335,0,0,0,0,0,0,0,0,0,-1,524,1359,0,0
-693,-335,0,0,0,0,0,0,0,0,0,-1,531,1359,0,0
-686,-335,0,0,0,0,0,0,0,0,0,-1,538,1359,0,0
-679,-335,0,0,0,0,0,0,0,0,0,-1,545,1359,0,0
-672,-335,0,0,0,0,0,0,0,0,0,-1,552,1359,0,0
-665,-335,0,0,0,0,0,0,0,0,0,-1,559,1359,0,0
-658,-335,0,0,0,0,0,0,0,0,0,-1,566,1359,0,0
-651,-335,0,0,0,0,0,0,0,0,0,-1,573,1359,0,0
-644,-335,0,0,0,0,0,0,0,0,0,-1,580,1359,0,0
-637,-335,-62.7114,11.0491,0,0,0,0,0,0,0,-1,587,1359,-62.7114,-11.0491
-630,-335,-64.2532,9.91284,0,0,0,0,0,0,0,-1,594,1359,-64.2532,-9.91285
-623,-335,-8.43304,1.09509,0,0,0,0,0,0,0,-1,601,1359,-8.43301,-1.09507
-616,-335,-7.80927,-0.485352,0,0,0,0,0,0,0,-1,608,1359,-7.80926,0.485291
-609,-335,-7.12256,-2.03601,0,0,0,0,0,0,0,-1,615,1359,-7.12253,2.03601
-602,-335,-9.39935,2.25146,0,0,0,0,0,0,0,-1,622,1359,-9.39935,-2.25145
-595,-335,-9.54767,3.01917,0,0,0,0,0,0,0,-1,629,1359,-9.54768,-3.01911
-588,-335,-34.9862,13.5168,0,0,0,0,0,0,0,-1,636,1359,-34.9862,-13.5169
-581,-335,-155.675,37.8959,0,0,0,0,0,0,0,-1,643,1359,-155.675,-37.8959
-574,-335,-155.793,40.3239,0.00759013,0.0427922,-0.0171635,0.0497754,0.000606965,-1.18439,0.0329831,0.0196511,650,1359,-155.793,-40.3238
-567,-335,-156.204,42.6299,0.00707449,0.038583,-0.0187934,0.0473519,-0.00169447,-1.13423,0.0321477,0.023843,657,1359,-156.204,-42.6298
-560,-335,-156.589,44.9503,0.00607818,0.0343639,-0.020601,0.0452094,-0.0047674,-1.08621,0.0318479,0.0340418,664,1359,-156.588,-44.9504
-553,-335,-156.882,47.2246,0,0,0,0,0,0,0,-1,671,1359,-156.882,-47.2246
-546,-335,-141.761,51.2694,0,0,0,0,0,0,0,-1,678,1359,-141.761,-51.2694
-539,-335,-70.172,41.3423,0,0,0,0,0,0,0,-1,685,1359,-70.172,-41.3422
-532,-335,-66.527,40.0629,0,0,0,0,0,0,0,-1,692,1359,-66.527,-40.0629
-525,-335,-64.6355,40.8328,0,0,0,0,0,0,0,-1,699,1359,-64.6355,-40.8328
-518,-335,-64.9236,42.5958,0,0,0,0,0,0,0,-1,706,1359,-64.9236,-42.5958
-511,-335,-65.4062,44.1842,0,0,0,0,0,0,0,-1,713,1359,-65.4062,-44.1843
-504,-335,-9.35767,5.99695,0,0,0,0,0,0,0,-1,720,1359,-9.35767,-5.99694
-497,-335,-8.75024,-0.650513,0,0,0,0,0,0,0,-1,727,1359,-8.75024,0.650521
-490,-335,-9.51971,0.417603,0,0,0,0,0,0,0,-1,734,1359,-9.51974,-0.41765
-483,-335,-10.2883,1.29224,0,0,0,0,0,0,0,-1,741,1359,-10.2883,-1.2922
-476,-335,-11.9938,-0.173462,0,0,0,0,0,0,0,-1,748,1359,-11.9938,0.173429
-469,-335,-12.8704,-0.204102,0,0,0,0,0,0,0,-1,755,1359,-12.8704,0.204117
-462,-335,-13.486,0.0218506,0,0,0,0,0,0,0,-1,762,1359,-13.4859,-0.0217908
-455,-335,-14.1504,0.549561,0,0,0,0,0,0,0,-1,769,1359,-14.1504,-0.549583
-448,-335,0,0,0,0,0,0,0,0,0,-1,776,1359,0,0
-441,-335,0,0,0,0,0,0,0,0,0,-1,783,1359,0,0
-434,-335,0,0,0,0,0,0,0,0,0,-1,790,1359,0,0
-427,-335,0,0,0,0,0,0,0,0,0,-1,797,1359,0,0
-420,-335,0,0,0,0,0,0,0,0,0,-1,804,1359,0,0
-413,-335,0,0,0,0,0,0,0,0,0,-1,811,1359,0,0
-406,-335,0,0,0,0,0,0,0,0,0,-1,818,1359,0,0
-399,-335,0,0,0,0,0,0,0,0,0,-1,825,1359,0,0
-392,-335,0,0,0,0,0,0,0,0,0,-1,832,1359,0,0
-385,-335,0,0,0,0,0,0,0,0,0,-1,839,1359,0,0
-378,-335,0,0,0,0,0,0,0,0,0,-1,846,1359,0,0
-371,-335,0,0,0,0,0,0,0,0,0,-1,853,1359,0,0
-364,-335,0,0,0,0,0,0,0,0,0,-1,860,1359,0,0
-357,-335,0,0,0,0,0,0,0,0,0,-1,867,1359,0,0
-350,-335,0,0,0,0,0,0,0,0,0,-1,874,1359,0,0
-343,-335,0,0,0,0,0,0,0,0,0,-1,881,1359,0,0
-336,-335,0,0,0,0,0,0,0,0,0,-1,888,1359,0,0
-329,-335,0,0,0,0,0,0,0,0,0,-1,895,1359,0,0
-322,-335,0,0,0,0,0,0,0,0,0,-1,902,1359,0,0
-315,-335,0,0,0,0,0,0,0,0,0,-1,909,1359,0,0
-308,-335,0,0,0,0,0,0,0,0,0,-1,916,1359,0,0
-301,-335,0,0,0,0,0,0,0,0,0,-1,923,1359,0,0
-294,-335,0,0,0,0,0,0,0,0,0,-1,930,1359,0,0
-287,-335,0,0,0,0,0,0,0,0,0,-1,937,1359,0,0
-280,-335,0,0,0,0,0,0,0,0,0,-1,944,1359,0,0
-273,-335,0,0,0,0,0,0,0,0,0,-1,951,1359,0,0
-266,-335,0,0,0,0,0,0,0,0,0,-1,958,1359,0,0
-259,-335,0,0,0,0,0,0,0,0,0,-1,965,1359,0,0
-252,-335,0,0,0,0,0,0,0,0,0,-1,972,1359,0,0
-245,-335,0,0,0,0,0,0,0,0,0,-1,979,1359,0,0
-238,-335,0,0,0,0,0,0,0,0,0,-1,986,1359,0,0
-231,-335,0,0,0,0,0,0,0,0,0,-1,993,1359,0,0
-224,-335,0,0,0,0,0,0,0,0,0,-1,1000,1359,0,0
-217,-335,0,0,0,0,0,0,0,0,0,-1,1007,1359,0,0
-210,-335,0,0,0,0,0,0,0,0,0,-1,1014,1359,0,0
-203,-335,0,0,0,0,0,0,0,0,0,-1,1021,1359,0,0
-196,-335,0,0,0,0,0,0,0,0,0,-1,1028,1359,0,0
-189,-335,0,0,0,0,0,0,0,0,0,-1,1035,1359,0,0
-182,-335,0,0,0,0,0,0,0,0,0,-1,1042,1359,0,0
-175,-335,0,0,0,0,0,0,0,0,0,-1,1049,1359,0,0
-168,-335,0,0,0,0,0,0,0,0,0,-1,1056,1359,0,0
-161,-335,0,0,0,0,0,0,0,0,0,-1,1063,1359,0,0
-154,-335,0,0,0,0,0,0,0,0,0,-1,1070,1359,0,0
-147,-335,0,0,0,0,0,0,0,0,0,-1,1077,1359,0,0
-140,-335,0,0,0,0,0,0,0,0,0,-1,1084,1359,0,0
-133,-335,0,0,0,0,0,0,0,0,0,-1,1091,1359,0,0
-126,-335,0,0,0,0,0,0,0,0,0,-1,1098,1359,0,0
-119,-335,0,0,0,0,0,0,0,0,0,-1,1105,1359,0,0
-112,-335,0,0,0,0,0,0,0,0,0,-1,1112,1359,0,0
-105,-335,0,0,0,0,0,0,0,0,0,-1,1119,1359,0,0
-98,-335,0,0,0,0,0,0,0,0,0,-1,1126,1359,0,0
-91,-335,0,0,0,0,0,0,0,0,0,-1,1133,1359,0,0
-84,-335,0,0,0,0,0,0,0,0,0,-1,1140,1359,0,0
-77,-335,0,0,0,0,0,0,0,0,0,-1,1147,1359,0,0
-70,-335,0,0,0,0,0,0,0,0,0,-1,1154,1359,0,0
-63,-335,0,0,0,0,0,0,0,0,0,-1,1161,1359,0,0
-56,-335,0,0,0,0,0,0,0,0,0,-1,1168,1359,0,0
-49,-335,0,0,0,0,0,0,0,0,0,-1,1175,1359,0,0
-42,-335,0,0,0,0,0,0,0,0,0,-1,1182,1359,0,0
-35,-335,0,0,0,0,0,0,0,0,0,-1,1189,1359,0,0
-28,-335,0,0,0,0,0,0,0,0,0,-1,1196,1359,0,0
-21,-335,0,0,0,0,0,0,0,0,0,-1,1203,1359,0,0
-14,-335,0,0,0,0,0,0,0,0,0,-1,1210,1359,0,0
-7,-335,0,0,0,0,0,0,0,0,0,-1,1217,1359,0,0
0,-335,0,0,0,0,0,0,0,0,0,-1,1224,1359,0,0
7,-335,0,0,0,0,0,0,0,0,0,-1,1231,1359,0,0
14,-335,0,0,0,0,0,0,0,0,0,-1,1238,1359,0,0
21,-335,0,0,0,0,0,0,0,0,0,-1,1245,1359,0,0
28,-335,0,0,0,0,0,0,0,0,0,-1,1252,1359,0,0
35,-335,0,0,0,0,0,0,0,0,0,-1,1259,1359,0,0
42,-335,0,0,0,0,0,0,0,0,0,-1,1266,1359,0,0
49,-335,0,0,0,0,0,0,0,0,0,-1,1273,1359,0,0
56,-335,0,0,0,0,0,0,0,0,0,-1,1280,1359,0,0
63,-335,0,0,0,0,0,0,0,0,0,-1,1287,1359,0,0
70,-335,0,0,0,0,0,0,0,0,0,-1,1294,1359,0,0
77,-335,0,0,0,0,0,0,0,0,0,-1,1301,1359,0,0
84,-335,0,0,0,0,0,0,0,0,0,-1,1308,1359,0,0
91,-335,0,0,0,0,0,0,0,0,0,-1,1315,1359,0,0
98,-335,0,0,0,0,0,0,0,0,0,-1,1322,1359,0,0
105,-335,0,0,0,0,0,0,0,0,0,-1,1329,1359,0,0
112,-335,0,0,0,0,0,0,0,0,0,-1,1336,1359,0,0
119,-335,0,0,0,0,0,0,0,0,0,-1,1343,1359,0,0
126,-335,0,0,0,0,0,0,0,0,0,-1,1350,1359,0,0
133,-335,0,0,0,0,0,0,0,0,0,-1,1357,1359,0,0
140,-335,0,0,0,0,0,0,0,0,0,-1,1364,1359,0,0
147,-335,0,0,0,0,0,0,0,0,0,-1,1371,1359,0,0
154,-335,0,0,0,0,0,0,0,0,0,-1,1378,1359,0,0
161,-335,0,0,0,0,0,0,0,0,0,-1,1385,1359,0,0
168,-335,0,0,0,0,0,0,0,0,0,-1,1392,1359,0,0
175,-335,0,0,0,0,0,0,0,0,0,-1,1399,1359,0,0
182,-335,0,0,0,0,0,0,0,0,0,-1,1406,1359,0,0
189,-335,0,0,0,0,0,0,0,0,0,-1,1413,1359,0,0
196,-335,0,0,0,0,0,0,0,0,0,-1,1420,1359,0,0
203,-335,0,0,0,0,0,0,0,0,0,-1,1427,1359,0,0
210,-335,0,0,0,0,0,0,0,0,0,-1,1434,1359,0,0
217,-335,0,0,0,0,0,0,0,0,0,-1,1441,1359,0,0
224,-335,0,0,0,0,0,0,0,0,0,-1,1448,1359,0,0
231,-335,0,0,0,0,0,0,0,0,0,-1,1455,1359,0,0
238,-335,0,0,0,0,0,0,0,0,0,-1,1462,1359,0,0
245,-335,0,0,0,0,0,0,0,0,0,-1,1469,1359,0,0
252,-335,0,0,0,0,0,0,0,0,0,-1,1476,1359,0,0
259,-335,0,0,0,0,0,0,0,0,0,-1,1483,1359,0,0
266,-335,0,0,0,0,0,0,0,0,0,-1,1490,1359,0,0
273,-335,0,0,0,0,0,0,0,0,0,-1,1497,1359,0,0
280,-335,0,0,0,0,0,0,0,0,0,-1,1504,1359,0,0
287,-335,0,0,0,0,0,0,0,0,0,-1,1511,1359,0,0
294,-335,0,0,0,0,0,0,0,0,0,-1,1518,1359,0,0
301,-335,0,0,0,0,0,0,0,0,0,-1,1525,1359,0,0
308,-335,0,0,0,0,0,0,0,0,0,-1,1532,1359,0,0
315,-335,0,0,0,0,0,0,0,0,0,-1,1539,1359,0,0
322,-335,0,0,0,0,0,0,0,0,0,-1,1546,1359,0,0
329,-335,0,0,0,0,0,0,0,0,0,-1,1553,1359,0,0
336,-335,0,0,0,0,0,0,0,0,0,-1,1560,1359,0,0
343,-335,0,0,0,0,0,0,0,0,0,-1,1567,1359,0,0
350,-335,0,0,0,0,0,0,0,0,0,-1,1574,1359,0,0
357,-335,0,0,0,0,0,0,0,0,0,-1,1581,1359,0,0
364,-335,0,0,0,0,0,0,0,0,0,-1,1588,1359,0,0
371,-335,0,0,0,0,0,0,0,0,0,-1,1595,1359,0,0
378,-335,0,0,0,0,0,0,0,0,0,-1,1602,1359,0,0
385,-335,0,0,0,0,0,0,0,0,0,-1,1609,1359,0,0
392,-335,0,0,0,0,0,0,0,0,0,-1,1616,1359,0,0
399,-335,0,0,0,0,0,0,0,0,0,-1,1623,1359,0,0
406,-335,0,0,0,0,0,0,0,0,0,-1,1630,1359,0,0
413,-335,0,0,0,0,0,0,0,0,0,-1,1637,1359,0,0
420,-335,0,0,0,0,0,0,0,0,0,-1,1644,1359,0,0
427,-335,0,0,0,0,0,0,0,0,0,-1,1651,1359,0,0
434,-335,0,0,0,0,0,0,0,0,0,-1,1658,1359,0,0
441,-335,0,0,0,0,0,0,0,0,0,-1,1665,1359,0,0
448,-335,0,0,0,0,0,0,0,0,0,-1,1672,1359,0,0
455,-335,0,0,0,0,0,0,0,0,0,-1,1679,1359,0,0
462,-335,0,0,0,0,0,0,0,0,0,-1,1686,1359,0,0
469,-335,0,0,0,0,0,0,0,0,0,-1,1693,1359,0,0
476,-335,0,0,0,0,0,0,0,0,0,-1,1700,1359,0,0
483,-335,0,0,0,0,0,0,0,0,0,-1,1707,1359,0,0
490,-335,0,0,0,0,0,0,0,0,0,-1,1714,1359,0,0
497,-335,0,0,0,0,0,0,0,0,0,-1,1721,1359,0,0
504,-335,0,0,0,0,0,0,0,0,0,-1,1728,1359,0,0
511,-335,0,0,0,0,0,0,0,0,0,-1,1735,1359,0,0
518,-335,0,0,0,0,0,0,0,0,0,-1,1742,1359,0,0
525,-335,0,0,0,0,0,0,0,0,0,-1,1749,1359,0,0
532,-335,0,0,0,0,0,0,0,0,0,-1,1756,1359,0,0
539,-335,0,0,0,0,0,0,0,0,0,-1,1763,1359,0,0
546,-335,0,0,0,0,0,0,0,0,0,-1,1770,1359,0,0
553,-335,0,0,0,0,0,0,0,0,0,-1,1777,1359,0,0
560,-335,0,0,0,0,0,0,0,0,0,-1,1784,1359,0,0
567,-335,0,0,0,0,0,0,0,0,0,-1,1791,1359,0,0
574,-335,65.0712,2.80188,0,0,0,0,0,0,0,-1,1798,1359,65.0712,-2.80193
581,-335,66.5206,1.60327,0,0,0,0,0,0,0,-1,1805,1359,66.5206,-1.60333
588,-335,67.826,0.334961,0,0,0,0,0,0,0,-1,1812,1359,67.8261,-0.335018
595,-335,49.984,3.76465,0,0,0,0,0,0,0,-1,1819,1359,49.984,-3.76467
602,-335,36.5643,0.0861816,0,0,0,0,0,0,0,-1,1826,1359,36.5643,-0.0862283
609,-335,36.2933,0.993896,0,0,0,0,0,0,0,-1,1833,1359,36.2934,-0.993911
616,-335,34.6969,4.82666,0,0,0,0,0,0,0,-1,1840,1359,34.6969,-4.82667
623,-335,26.6051,6.54333,0,0,0,0,0,0,0,-1,1847,1359,26.6051,-6.54339
630,-335,19.1707,1.00952,0,0,0,0,0,0,0,-1,1854,1359,19.1707,-1.00953
637,-335,18.2009,6.65454,0,0,0,0,0,0,0,-1,1861,1359,18.2009,-6.6546
644,-335,28.1042,12.067,0,0,0,0,0,0,0,-1,1868,1359,28.1042,-12.067
651,-335,56.3635,25.3947,0,0,0,0,0,0,0,-1,1875,1359,56.3636,-25.3946
658,-335,82.4652,42.7295,0,0,0,0,0,0,0,-1,1882,1359,82.4652,-42.7295
665,-335,89.772,45.6466,0,0,0,0,0,0,0,-1,1889,1359,89.772,-45.6466
672,-335,164.094,54.3533,0,0,0,0,0,0,0,-1,1896,1359,164.094,-54.3533
679,-335,163.709,51.8322,-0.0105883,0.0124487,0.0145174,0.019462,-0.0176017,1.12076,0.0214077,0.0316375,1903,1359,163.709,-51.8322
686,-335,163.271,49.5245,-0.00927422,0.017876,0.0171272,0.0261555,-0.0175538,1.12051,0.0253979,0.0255439,1910,1359,163.271,-49.5246
693,-335,162.781,47.1636,-0.00787018,0.0231982,0.0197654,0.0328033,-0.0174752,1.11845,0.0294745,0.0195926,1917,1359,162.782,-47.1635
700,-335,162.191,44.6764,-0.00645604,0.028359,0.0224666,0.0393727,-0.0174698,1.115,0.0336203,0.018993,1924,1359,162.191,-44.6763
707,-335,161.806,42.3993,-0.00509677,0.0333416,0.025246,0.0458515,-0.0176067,1.11074,0.037828,0.0237526,1931,1359,161.807,-42.3992
714,-335,161.626,40.2665,0,0,0,0,0,0,0,-1,1938,1359,161.626,-40.2665
721,-335,63.0804,18.417,0,0,0,0,0,0,0,-1,1945,1359,63.0804,-18.417
728,-335,20.8126,5.21167,0,0,0,0,0,0,0,-1,1952,1359,20.8127,-5.21172
735,-335,20.2725,5.34729,0,0,0,0,0,0,0,-1,1959,1359,20.2724,-5.34734
742,-335,19.8624,4.72229,0,0,0,0,0,0,0,-1,1966,1359,19.8624,-4.72225
749,-335,20.5887,6.05322,0,0,0,0,0,0,0,-1,1973,1359,20.5887,-6.05322
756,-335,20.7832,6.00452,0,0,0,0,0,0,0,-1,1980,1359,20.7832,-6.00447
763,-335,0,0,0,0,0,0,0,0,0,-1,1987,1359,0,0
770,-335,0,0,0,0,0,0,0,0,0,-1,1994,1359,0,0
777,-335,0,0,0,0,0,0,0,0,0,-1,2001,1359,0,0
784,-335,0,0,0,0,0,0,0,0,0,-1,2008,1359,0,0
791,-335,0,0,0,0,0,0,0,0,0,-1,2015,1359,0,0
798,-335,0,0,0,0,0,0,0,0,0,-1,2022,1359,0,0
805,-335,0,0,0,0,0,0,0,0,0,-1,2029,1359,0,0
812,-335,0,0,0,0,0,0,0,0,0,-1,2036,1359,0,0
-700,-342,0,0,0,0,0,0,0,0,0,-1,524,1366,0,0
-693,-342,0,0,0,0,0,0,0,0,0,-1,531,1366,0,0
-686,-342,0,0,0,0,0,0,0,0,0,-1,538,1366,0,0
-679,-342,0,0,0,0,0,0,0,0,0,-1,545,1366,0,0
-672,-342,0,0,0,0,0,0,0,0,0,-1,552,1366,0,0
-665,-342,0,0,0,0,0,0,0,0,0,-1,559,1366,0,0
-658,-342,0,0,0,0,0,0,0,0,0,-1,566,1366,0,0
-651,-342,0,0,0,0,0,0,0,0,0,-1,573,1366,0,0
-644,-342,0,0,0,0,0,0,0,0,0,-1,580,1366,0,0
-637,-342,-63.7546,12.2344,0,0,0,0,0,0,0,-1,587,1366,-63.7546,-12.2343
-630,-342,-8.60132,2.71777,0,0,0,0,0,0,0,-1,594,1366,-8.60135,-2.71779
-623,-342,-8.41168,0.662476,0,0,0,0,0,0,0,-1,601,1366,-8.41168,-0.662442
-616,-342,-6.625,-1.28015,0,0,0,0,0,0,0,-1,608,1366,-6.62499,1.28011
-609,-342,-7.83154,0.674561,0,0,0,0,0,0,0,-1,615,1366,-7.83155,-0.674598
-602,-342,-9.65765,2.25195,0,0,0,0,0,0,0,-1,622,1366,-9.65767,-2.25192
-595,-342,-9.47687,3.00671,0,0,0,0,0,0,0,-1,629,1366,-9.47686,-3.00668
-588,-342,-9.78467,3.57727,0,0,0,0,0,0,0,-1,636,1366,-9.78468,-3.57723
-581,-342,-153.175,38.3291,0,0,0,0,0,0,0,-1,643,1366,-153.175,-38.3291
-574,-342,-153.311,40.5593,0.0102624,0.0461007,-0.0166232,0.0526239,0.0037392,-1.19685,0.033905,0.0307573,650,1366,-153.311,-40.5594
-567,-342,-153.419,42.8081,0.00892625,0.0415128,-0.0183888,0.0497882,0.000650885,-1.14792,0.0329773,0.0234612,657,1366,-153.419,-42.8081
-560,-342,-153.809,45.1089,0.00739581,0.0369075,-0.0200782,0.0470689,-0.0027656,-1.10229,0.0323406,0.0321348,664,1366,-153.809,-45.1089
-553,-342,-154.266,47.4758,0.0056623,0.0323032,-0.0216833,0.0444307,-0.00646522,-1.06084,0.031994,0.0339404,671,1366,-154.266,-47.4758
-546,-342,-154.811,49.9775,0,0,0,0,0,0,0,-1,678,1366,-154.811,-49.9775
-539,-342,-81.4354,46.4868,0,0,0,0,0,0,0,-1,685,1366,-81.4353,-46.4869
-532,-342,-67.7392,42.2123,0,0,0,0,0,0,0,-1,692,1366,-67.7392,-42.2123
-525,-342,-65.3508,41.8672,0,0,0,0,0,0,0,-1,699,1366,-65.3508,-41.8671
-518,-342,-63.2446,42.9529,0,0,0,0,0,0,0,-1,706,1366,-63.2446,-42.9529
-511,-342,-63.2302,44.5254,0,0,0,0,0,0,0,-1,713,1366,-63.2302,-44.5253
-504,-342,-8.95709,6.5719,0,0,0,0,0,0,0,-1,720,1366,-8.95707,-6.57192
-497,-342,-8.26587,-0.943604,0,0,0,0,0,0,0,-1,727,1366,-8.26586,0.943543
-490,-342,-9.07153,-0.0227051,0,0,0,0,0,0,0,-1,734,1366,-9.07155,0.0227087
-483,-342,-9.87726,0.898071,0,0,0,0,0,0,0,-1,741,1366,-9.87724,-0.898125
-476,-342,-11.6371,-0.736328,0,0,0,0,0,0,0,-1,748,1366,-11.6371,0.736281
-469,-342,-12.6245,-0.987549,0,0,0,0,0,0,0,-1,755,1366,-12.6245,0.987553
-462,-342,-13.0912,-0.533203,0,0,0,0,0,0,0,-1,762,1366,-13.0912,0.533224
-455,-342,-13.7612,0.122925,0,0,0,0,0,0,0,-1,769,1366,-13.7612,-0.122896
-448,-342,-14.5278,0.826904,0,0,0,0,0,0,0,-1,776,1366,-14.5277,-0.826861
-441,-342,0,0,0,0,0,0,0,0,0,-1,783,1366,0,0
-434,-342,0,0,0,0,0,0,0,0,0,-1,790,1366,0,0
-427,-342,0,0,0,0,0,0,0,0,0,-1,797,1366,0,0
-420,-342,0,0,0,0,0,0,0,0,0,-1,804,1366,0,0
-413,-342,0,0,0,0,0,0,0,0,0,-1,811,1366,0,0
-406,-342,0,0,0,0,0,0,0,0,0,-1,818,1366,0,0
-399,-342,0,0,0,0,0,0,0,0,0,-1,825,1366,0,0
-392,-342,0,0,0,0,0,0,0,0,0,-1,832,1366,0,0
-385,-342,0,0,0,0,0,0,0,0,0,-1,839,1366,0,0
-378,-342,0,0,0,0,0,0,0,0,0,-1,846,1366,0,0
-371,-342,0,0,0,0,0,0,0,0,0,-1,853,1366,0,0
-364,-342,0,0,0,0,0,0,0,0,0,-1,860,1366,0,0
-357,-342,0,0,0,0,0,0,0,0,0,-1,867,1366,0,0
-350,-342,0,0,0,0,0,0,0,0,0,-1,874,1366,0,0
-343,-342,0,0,0,0,0,0,0,0,0,-1,881,1366,0,0
-336,-342,0,0,0,0,0,0,0,0,0,-1,888,1366,0,0
-329,-342,0,0,0,0,0,0,0,0,0,-1,895,1366,0,0
-322,-342,0,0,0,0,0,0,0,0,0,-1,902,1366,0,0
-315,-342,0,0,0,0,0,0,0,0,0,-1,909,1366,0,0
-308,-342,0,0,0,0,0,0,0,0,0,-1,916,1366,0,0
-301,-342,0,0,0,0,0,0,0,0,0,-1,923,1366,0,0
-294,-342,0,0,0,0,0,0,0,0,0,-1,930,1366,0,0
-287,-342,0,0,0,0,0,0,0,0,0,-1,937,1366,0,0
-280,-342,0,0,0,0,0,0,0,0,0,-1,944,1366,0,0
-273,-342,0,0,0,0,0,0,0,0,0,-1,951,1366,0,0
-266,-342,0,0,0,0,0,0,0,0,0,-1,958,1366,0,0
-259,-342,0,0,0,0,0,0,0,0,0,-1,965,1366,0,0
-252,-342,0,0,0,0,0,0,0,0,0,-1,972,1366,0,0
-245,-342,0,0,0,0,0,0,0,0,0,-1,979,1366,0,0
-238,-342,0,0,0,0,0,0,0,0,0,-1,986,1366,0,0
-231,-342,0,0,0,0,0,0,0,0,0,-1,993,1366,0,0
-224,-342,0,0,0,0,0,0,0,0,0,-1,1000,1366,0,0
-217,-342,0,0,0,0,0,0,0,0,0,-1,1007,1366,0,0
-210,-342,0,0,0,0,0,0,0,0,0,-1,1014,1366,0,0
-203,-342,0,0,0,0,0,0,0,0,0,-1,1021,1366,0,0
-196,-342,0,0,0,0,0,0,0,0,0,-1,1028,1366,0,0
-189,-342,0,0,0,0,0,0,0,0,0,-1,1035,1366,0,0
-182,-342,0,0,0,0,0,0,0,0,0,-1,1042,1366,0,0
-175,-342,0,0,0,0,0,0,0,0,0,-1,1049,1366,0,0
-168,-342,0,0,0,0,0,0,0,0,0,-1,1056,1366,0,0
-161,-342,0,0,0,0,0,0,0,0,0,-1,1063,1366,0,0
-154,-342,0,0,0,0,0,0,0,0,0,-1,1070,1366,0,0
-147,-342,0,0,0,0,0,0,0,0,0,-1,1077,1366,0,0
-140,-342,0,0,0,0,0,0,0,0,0,-1,1084,1366,0,0
-133,-342,0,0,0,0,0,0,0,0,0,-1,1091,1366,0,0
-126,-342,0,0,0,0,0,0,0,0,0,-1,1098,1366,0,0
-119,-342,0,0,0,0,0,0,0,0,0,-1,1105,1366,0,0
-112,-342,0,0,0,0,0,0,0,0,0,-1,1112,1366,0,0
-105,-342,0,0,0,0,0,0,0,0,0,-1,1119,1366,0,0
-98,-342,0,0,0,0,0,0,0,0,0,-1,1126,1366,0,0
-91,-342,0,0,0,0,0,0,0,0,0,-1,1133,1366,0,0
-84,-342,0,0,0,0,0,0,0,0,0,-1,1140,1366,0,0
-77,-342,0,0,0,0,0,0,0,0,0,-1,1147,1366,0,0
-70,-342,0,0,0,0,0,0,0,0,0,-1,1154,1366,0,0
-63,-342,0,0,0,0,0,0,0,0,0,-1,1161,1366,0,0
-56,-342,0,0,0,0,0,0,0,0,0,-1,1168,1366,0,0
-49,-342,0,0,0,0,0,0,0,0,0,-1,1175,1366,0,0
-42,-342,0,0,0,0,0,0,0,0,0,-1,1182,1366,0,0
-35,-342,0,0,0,0,0,0,0,0,0,-1,1189,1366,0,0
-28,-342,0,0,0,0,0,0,0,0,0,-1,1196,1366,0,0
-21,-342,0,0,0,0,0,0,0,0,0,-1,1203,1366,0,0
-14,-342,0,0,0,0,0,0,0,0,0,-1,1210,1366,0,0
-7,-342,0,0,0,0,0,0,0,0,0,-1,1217,1366,0,0
0,-342,0,0,0,0,0,0,0,0,0,-1,1224,1366,0,0
7,-342,0,0,0,0,0,0,0,0,0,-1,1231,1366,0,0
14,-342,0,0,0,0,0,0,0,0,0,-1,1238,1366,0,0
21,-342,0,0,0,0,0,0,0,0,0,-1,1245,1366,0,0
28,-342,0,0,0,0,0,0,0,0,0,-1,1252,1366,0,0
35,-342,0,0,0,0,0,0,0,0,0,-1,1259,1366,0,0
42,-342,0,0,0,0,0,0,0,0,0,-1,1266,1366,0,0
49,-342,0,0,0,0,0,0,0,0,0,-1,1273,1366,0,0
56,-342,0,0,0,0,0,0,0,0,0,-1,1280,1366,0,0
63,-342,0,0,0,0,0,0,0,0,0,-1,1287,1366,0,0
70,-342,0,0,0,0,0,0,0,0,0,-1,1294,1366,0,0
77,-342,0,0,0,0,0,0,0,0,0,-1,1301,1366,0,0
84,-342,0,0,0,0,0,0,0,0,0,-1,1308,1366,0,0
91,-342,0,0,0,0,0,0,0,0,0,-1,1315,1366,0,0
98,-342,0,0,0,0,0,0,0,0,0,-1,1322,1366,0,0
105,-342,0,0,0,0,0,0,0,0,0,-1,1329,1366,0,0
112,-342,0,0,0,0,0,0,0,0,0,-1,1336,1366,0,0
119,-342,0,0,0,0,0,0,0,0,0,-1,1343,1366,0,0
126,-342,0,0,0,0,0,0,0,0,0,-1,1350,1366,0,0
133,-342,0,0,0,0,0,0,0,0,0,-1,1357,1366,0,0
140,-342,0,0,0,0,0,0,0,0,0,-1,1364,1366,0,0
147,-342,0,0,0,0,0,0,0,0,0,-1,1371,1366,0,0
154,-342,0,0,0,0,0,0,0,0,0,-1,1378,1366,0,0
161,-342,0,0,0,0,0,0,0,0,0,-1,1385,1366,0,0
168,-342,0,0,0,0,0,0,0,0,0,-1,1392,1366,0,0
175,-342,0,0,0,0,0,0,0,0,0,-1,1399,1366,0,0
182,-342,0,0,0,0,0,0,0,0,0,-1,1406,1366,0,0
189,-342,0,0,0,0,0,0,0,0,0,-1,1413,1366,0,0
196,-342,0,0,0,0,0,0,0,0,0,-1,1420,1366,0,0
203,-342,0,0,0,0,0,0,0,0,0,-1,1427,1366,0,0
210,-342,0,0,0,0,0,0,0,0,0,-1,1434,1366,0,0
217,-342,0,0,0,0,0,0,0,0,0,-1,1441,1366,0,0
224,-342,0,0,0,0,0,0,0,0,0,-1,1448,1366,0,0
231,-342,0,0,0,0,0,0,0,0,0,-1,1455,1366,0,0
238,-342,0,0,0,0,0,0,0,0,0,-1,1462,1366,0,0
245,-342,0,0,0,0,0,0,0,0,0,-1,1469,1366,0,0
252,-342,0,0,0,0,0,0,0,0,0,-1,1476,1366,0,0
259,-342,0,0,0,0,0,0,0,0,0,-1,1483,1366,0,0
266,-342,0,0,0,0,0,0,0,0,0,-1,1490,1366,0,0
273,-342,0,0,0,0,0,0,0,0,0,-1,1497,1366,0,0
280,-342,0,0,0,0,0,0,0,0,0,-1,1504,1366,0,0
287,-342,0,0,0,0,0,0,0,0,0,-1,1511,1366,0,0
294,-342,0,0,0,0,0,0,0,0,0,-1,1518,1366,0,0
301,-342,0,0,0,0,0,0,0,0,0,-1,1525,1366,0,0
308,-342,0,0,0,0,0,0,0,0,0,-1,1532,1366,0,0
315,-342,0,0,0,0,0,0,0,0,0,-1,1539,1366,0,0
322,-342,0,0,0,0,0,0,0,0,0,-1,1546,1366,0,0
329,-342,0,0,0,0,0,0,0,0,0,-1,1553,1366,0,0
336,-342,0,0,0,0,0,0,0,0,0,-1,1560,1366,0,0
343,-342,0,0,0,0,0,0,0,0,0,-1,1567,1366,0,0
350,-342,0,0,0,0,0,0,0,0,0,-1,1574,1366,0,0
357,-342,0,0,0,0,0,0,0,0,0,-1,1581,1366,0,0
364,-342,0,0,0,0,0,0,0,0,0,-1,1588,1366,0,0
371,-342,0,0,0,0,0,0,0,0,0,-1,1595,1366,0,0
378,-342,0,0,0,0,0,0,0,0,0,-1,1602,1366,0,0
385,-342,0,0,0,0,0,0,0,0,0,-1,1609,1366,0,0
392,-342,0,0,0,0,0,0,0,0,0,-1,1616,1366,0,0
399,-342,0,0,0,0,0,0,0,0,0,-1,1623,1366,0,0
406,-342,0,0,0,0,0,0,0,0,0,-1,1630,1366,0,0
413,-342,0,0,0,0,0,0,0,0,0,-1,1637,1366,0,0
420,-342,0,0,0,0,0,0,0,0,0,-1,1644,1366,0,0
427,-342,0,0,0,0,0,0,0,0,0,-1,1651,1366,0,0
434,-342,0,0,0,0,0,0,0,0,0,-1,1658,1366,0,0
441,-342,0,0,0,0,0,0,0,0,0,-1,1665,1366,0,0
448,-342,0,0,0,0,0,0,0,0,0,-1,1672,1366,0,0
455,-342,0,0,0,0,0,0,0,0,0,-1,1679,1366,0,0
462,-342,0,0,0,0,0,0,0,0,0,-1,1686,1366,0,0
469,-342,0,0,0,0,0,0,0,0,0,-1,1693,1366,0,0
476,-342,0,0,0,0,0,0,0,0,0,-1,1700,1366,0,0
483,-342,0,0,0,0,0,0,0,0,0,-1,1707,1366,0,0
490,-342,0,0,0,0,0,0,0,0,0,-1,1714,1366,0,0
497,-342,0,0,0,0,0,0,0,0,0,-1,1721,1366,0,0
504,-342,0,0,0,0,0,0,0,0,0,-1,1728,1366,0,0
511,-342,0,0,0,0,0,0,0,0,0,-1,1735,1366,0,0
518,-342,0,0,0,0,0,0,0,0,0,-1,1742,1366,0,0
525,-342,0,0,0,0,0,0,0,0,0,-1,1749,1366,0,0
532,-342,0,0,0,0,0,0,0,0,0,-1,1756,1366,0,0
539,-342,0,0,0,0,0,0,0,0,0,-1,1763,1366,0,0
546,-342,0,0,0,0,0,0,0,0,0,-1,1770,1366,0,0
553,-342,0,0,0,0,0,0,0,0,0,-1,1777,1366,0,0
560,-342,0,0,0,0,0,0,0,0,0,-1,1784,1366,0,0
567,-342,64.6937,3.24878,0,0,0,0,0,0,0,-1,1791,1366,64.6938,-3.24881
574,-342,65.4669,2.18384,0,0,0,0,0,0,0,-1,1798,1366,65.4669,-2.18381
581,-342,66.542,1.36292,0,0,0,0,0,0,0,-1,1805,1366,66.542,-1.36295
588,-342,43.9108,7.22559,0,0,0,0,0,0,0,-1,1812,1366,43.9107,-7.22554
595,-342,35.7993,0.709961,0,0,0,0,0,0,0,-1,1819,1366,35.7993,-0.709913
602,-342,36.3618,3.28723,0,0,0,0,0,0,0,-1,1826,1366,36.3619,-3.28719
609,-342,35.3777,4.14978,0,0,0,0,0,0,0,-1,1833,1366,35.3777,-4.14976
616,-342,34.199,5.8158,0,0,0,0,0,0,0,-1,1840,1366,34.199,-5.81579
623,-342,26.0299,6.86865,0,0,0,0,0,0,0,-1,1847,1366,26.0299,-6.86863
630,-342,17.3431,0.773071,0,0,0,0,0,0,0,-1,1854,1366,17.3432,-0.773095
637,-342,16.196,6.76172,0,0,0,0,0,0,0,-1,1861,1366,16.1961,-6.76174
644,-342,31.8916,14.0614,0,0,0,0,0,0,0,-1,1868,1366,31.8916,-14.0613
651,-342,80.5938,43.9689,0,0,0,0,0,0,0,-1,1875,1366,80.5937,-43.9688
658,-342,87.5692,47.3271,0,0,0,0,0,0,0,-1,1882,1366,87.5692,-47.3271
665,-342,161.472,57.267,0,0,0,0,0,0,0,-1,1889,1366,161.472,-57.267
672,-342,161.163,54.937,0,0,0,0,0,0,0,-1,1896,1366,161.163,-54.937
679,-342,160.927,52.4012,-0.00837322,0.0151851,0.0161318,0.0233805,-0.0165687,1.10075,0.0231762,0.0235547,1903,1366,160.927,-52.4013
686,-342,160.533,49.9135,-0.00745091,0.0203032,0.0188634,0.0298441,-0.0169918,1.10253,0.027378,0.0253735,1910,1366,160.533,-49.9135
693,-342,160.058,47.5294,-0.00630955,0.0254201,0.0215626,0.0363254,-0.0172148,1.10256,0.031561,0.0221577,1917,1366,160.058,-47.5295
700,-342,159.524,45.1504,-0.00496427,0.0304576,0.0242642,0.0427871,-0.0172938,1.10066,0.0357134,0.0208574,1924,1366,159.524,-45.1504
707,-342,159.005,42.6322,-0.00355246,0.0354687,0.0269524,0.0492312,-0.0173149,1.09869,0.0398661,0.0208782,1931,1366,159.005,-42.6322
714,-342,158.522,40.1226,0,0,0,0,0,0,0,-1,1938,1366,158.522,-40.1226
721,-342,22.4666,6.08679,0,0,0,0,0,0,0,-1,1945,1366,22.4666,-6.08678
728,-342,19.8912,5.26636,0,0,0,0,0,0,0,-1,1952,1366,19.8913,-5.26636
735,-342,19.481,4.41968,0,0,0,0,0,0,0,-1,1959,1366,19.4809,-4.41962
742,-342,19.309,2.66943,0,0,0,0,0,0,0,-1,1966,1366,19.3089,-2.66948
749,-342,21.0934,6.47729,0,0,0,0,0,0,0,-1,1973,1366,21.0934,-6.4773
756,-342,0,0,0,0,0,0,0,0,0,-1,1980,1366,0,0
763,-342,0,0,0,0,0,0,0,0,0,-1,1987,1366,0,0
770,-342,0,0,0,0,0,0,0,0,0,-1,1994,1366,0,0
777,-342,0,0,0,0,0,0,0,0,0,-1,2001,1366,0,0
784,-342,0,0,0,0,0,0,0,0,0,-1,2008,1366,0,0
791,-342,0,0,0,0,0,0,0,0,0,-1,2015,1366,0,0
798,-342,0,0,0,0,0,0,0,0,0,-1,2022,1366,0,0
805,-342,0,0,0,0,0,0,0,0,0,-1,2029,1366,0,0
812,-342,0,0,0,0,0,0,0,0,0,-1,2036,1366,0,0
-700,-349,0,0,0,0,0,0,0,0,0,-1,524,1373,0,0
-693,-349,0,0,0,0,0,0,0,0,0,-1,531,1373,0,0
-686,-349,0,0,0,0,0,0,0,0,0,-1,538,1373,0,0
-679,-349,0,0,0,0,0,0,0,0,0,-1,545,1373,0,0
-672,-349,0,0,0,0,0,0,0,0,0,-1,552,1373,0,0
-665,-349,0,0,0,0,0,0,0,0,0,-1,559,1373,0,0
-658,-349,0,0,0,0,0,0,0,0,0,-1,566,1373,0,0
-651,-349,0,0,0,0,0,0,0,0,0,-1,573,1373,0,0
-644,-349,0,0,0,0,0,0,0,0,0,-1,580,1373,0,0
-637,-349,0,0,0,0,0,0,0,0,0,-1,587,1373,0,0
-630,-349,-7.64117,-5.06177,0,0,0,0,0,0,0,-1,594,1373,-7.64118,5.0618
-623,-349,-8.63507,0.51123,0,0,0,0,0,0,0,-1,601,1373,-8.63505,-0.511275
-616,-349,-5.2066,-0.188232,0,0,0,0,0,0,0,-1,608,1373,-5.20659,0.188211
-609,-349,-7.12073,1.37048,0,0,0,0,0,0,0,-1,615,1373,-7.12072,-1.37044
-602,-349,-9.00623,3.39587,0,0,0,0,0,0,0,-1,622,1373,-9.0062,-3.39591
-595,-349,-9.50568,2.96912,0,0,0,0,0,0,0,-1,629,1373,-9.50569,-2.96906
-588,-349,-8.60046,3.56042,0,0,0,0,0,0,0,-1,636,1373,-8.60046,-3.56047
-581,-349,-31.1797,14.1667,0,0,0,0,0,0,0,-1,643,1373,-31.1798,-14.1667
-574,-349,-150.933,40.6816,0,0,0,0,0,0,0,-1,650,1373,-150.933,-40.6816
-567,-349,-150.702,43.0056,0.0108677,0.044647,-0.0180959,0.0525106,0.0030041,-1.16086,0.0340499,0.0260033,657,1373,-150.702,-43.0056
-560,-349,-151.024,45.407,0.00872337,0.0397483,-0.019685,0.0492985,-0.000826778,-1.1191,0.0331447,0.0276221,664,1373,-151.024,-45.407
-553,-349,-151.516,47.9056,0.00660128,0.0347395,-0.0210216,0.0459656,-0.00462478,-1.0803,0.0322959,0.0326776,671,1373,-151.516,-47.9057
-546,-349,-152.043,50.3914,0,0,0,0,0,0,0,-1,678,1373,-152.043,-50.3914
-539,-349,-152.782,52.8638,0,0,0,0,0,0,0,-1,685,1373,-152.782,-52.8638
-532,-349,-80.009,48.7177,0,0,0,0,0,0,0,-1,692,1373,-80.0089,-48.7177
-525,-349,-69.8218,45.8181,0,0,0,0,0,0,0,-1,699,1373,-69.8218,-45.8181
-518,-349,-88.0445,55.7136,0,0,0,0,0,0,0,-1,706,1373,-88.0445,-55.7136
-511,-349,-58.4487,42.8572,0,0,0,0,0,0,0,-1,713,1373,-58.4487,-42.8572
-504,-349,-9.60516,7.88831,0,0,0,0,0,0,0,-1,720,1373,-9.60519,-7.88825
-497,-349,-7.9339,5.58789,0,0,0,0,0,0,0,-1,727,1373,-7.93388,-5.58785
-490,-349,-8.73969,-0.503784,0,0,0,0,0,0,0,-1,734,1373,-8.73966,0.503752
-483,-349,-5.66974,3.7395,0,0,0,0,0,0,0,-1,741,1373,-5.66975,-3.73949
-476,-349,-10.8496,1.15759,0,0,0,0,0,0,0,-1,748,1373,-10.8496,-1.15756
-469,-349,-12.3314,-1.74878,0,0,0,0,0,0,0,-1,755,1373,-12.3314,1.74882
-462,-349,-12.6559,-0.995361,0,0,0,0,0,0,0,-1,762,1373,-12.656,0.995351
-455,-349,-13.2897,-0.234253,0,0,0,0,0,0,0,-1,769,1373,-13.2897,0.234261
-448,-349,-14.045,0.712891,0,0,0,0,0,0,0,-1,776,1373,-14.045,-0.712838
-441,-349,0,0,0,0,0,0,0,0,0,-1,783,1373,0,0
-434,-349,0,0,0,0,0,0,0,0,0,-1,790,1373,0,0
-427,-349,0,0,0,0,0,0,0,0,0,-1,797,1373,0,0
-420,-349,0,0,0,0,0,0,0,0,0,-1,804,1373,0,0
-413,-349,0,0,0,0,0,0,0,0,0,-1,811,1373,0,0
-406,-349,0,0,0,0,0,0,0,0,0,-1,818,1373,0,0
-399,-349,0,0,0,0,0,0,0,0,0,-1,825,1373,0,0
-392,-349,0,0,0,0,0,0,0,0,0,-1,832,1373,0,0
-385,-349,0,0,0,0,0,0,0,0,0,-1,839,1373,0,0
-378,-349,0,0,0,0,0,0,0,0,0,-1,846,1373,0,0
-371,-349,0,0,0,0,0,0,0,0,0,-1,853,1373,0,0
-364,-349,0,0,0,0,0,0,0,0,0,-1,860,1373,0,0
-357,-349,0,0,0,0,0,0,0,0,0,-1,867,1373,0,0
-350,-349,0,0,0,0,0,0,0,0,0,-1,874,1373,0,0
-343,-349,0,0,0,0,0,0,0,0,0,-1,881,1373,0,0
-336,-349,0,0,0,0,0,0,0,0,0,-1,888,1373,0,0
-329,-349,0,0,0,0,0,0,0,0,0,-1,895,1373,0,0
-322,-349,0,0,0,0,0,0,0,0,0,-1,902,1373,0,0
-315,-349,0,0,0,0,0,0,0,0,0,-1,909,1373,0,0
-308,-349,0,0,0,0,0,0,0,0,0,-1,916,1373,0,0
-301,-349,0,0,0,0,0,0,0,0,0,-1,923,1373,0,0
-294,-349,0,0,0,0,0,0,0,0,0,-1,930,1373,0,0
-287,-349,0,0,0,0,0,0,0,0,0,-1,937,1373,0,0
-280,-349,0,0,0,0,0,0,0,0,0,-1,944,1373,0,0
-273,-349,0,0,0,0,0,0,0,0,0,-1,951,1373,0,0
-266,-349,0,0,0,0,0,0,0,0,0,-1,958,1373,0,0
-259,-349,0,0,0,0,0,0,0,0,0,-1,965,1373,0,0
-252,-349,0,0,0,0,0,0,0,0,0,-1,972,1373,0,0
-245,-349,0,0,0,0,0,0,0,0,0,-1,979,1373,0,0
-238,-349,0,0,0,0,0,0,0,0,0,-1,986,1373,0,0
-231,-349,0,0,0,0,0,0,0,0,0,-1,993,1373,0,0
-224,-349,0,0,0,0,0,0,0,0,0,-1,1000,1373,0,0
-217,-349,0,0,0,0,0,0,0,0,0,-1,1007,1373,0,0
-210,-349,0,0,0,0,0,0,0,0,0,-1,1014,1373,0,0
-203,-349,0,0,0,0,0,0,0,0,0,-1,1021,1373,0,0
-196,-349,0,0,0,0,0,0,0,0,0,-1,1028,1373,0,0
-189,-349,0,0,0,0,0,0,0,0,0,-1,1035,1373,0,0
-182,-349,0,0,0,0,0,0,0,0,0,-1,1042,1373,0,0
-175,-349,0,0,0,0,0,0,0,0,0,-1,1049,1373,0,0
-168,-349,0,0,0,0,0,0,0,0,0,-1,1056,1373,0,0
-161,-349,0,0,0,0,0,0,0,0,0,-1,1063,1373,0,0
-154,-349,0,0,0,0,0,0,0,0,0,-1,1070,1373,0,0
-147,-349,0,0,0,0,0,0,0,0,0,-1,1077,1373,0,0
-140,-349,0,0,0,0,0,0,0,0,0,-1,1084,1373,0,0
-133,-349,0,0,0,0,0,0,0,0,0,-1,1091,1373,0,0
-126,-349,0,0,0,0,0,0,0,0,0,-1,1098,1373,0,0
-119,-349,0,0,0,0,0,0,0,0,0,-1,1105,1373,0,0
-112,-349,0,0,0,0,0,0,0,0,0,-1,1112,1373,0,0
-105,-349,0,0,0,0,0,0,0,0,0,-1,1119,1373,0,0
-98,-349,0,0,0,0,0,0,0,0,0,-1,1126,1373,0,0
-91,-349,0,0,0,0,0,0,0,0,0,-1,1133,1373,0,0
-84,-349,0,0,0,0,0,0,0,0,0,-1,1140,1373,0,0
-77,-349,0,0,0,0,0,0,0,0,0,-1,1147,1373,0,0
-70,-349,0,0,0,0,0,0,0,0,0,-1,1154,1373,0,0
-63,-349,0,0,0,0,0,0,0,0,0,-1,1161,1373,0,0
-56,-349,0,0,0,0,0,0,0,0,0,-1,1168,1373,0,0
-49,-349,0,0,0,0,0,0,0,0,0,-1,1175,1373,0,0
-42,-349,0,0,0,0,0,0,0,0,0,-1,1182,1373,0,0
-35,-349,0,0,0,0,0,0,0,0,0,-1,1189,1373,0,0
-28,-349,0,0,0,0,0,0,0,0,0,-1,1196,1373,0,0
-21,-349,0,0,0,0,0,0,0,0,0,-1,1203,1373,0,0
-14,-349,0,0,0,0,0,0,0,0,0,-1,1210,1373,0,0
-7,-349,0,0,0,0,0,0,0,0,0,-1,1217,1373,0,0
0,-349,0,0,0,0,0,0,0,0,0,-1,1224,1373,0,0
7,-349,0,0,0,0,0,0,0,0,0,-1,1231,1373,0,0
14,-349,0,0,0,0,0,0,0,0,0,-1,1238,1373,0,0
21,-349,0,0,0,0,0,0,0,0,0,-1,1245,1373,0,0
28,-349,0,0,0,0,0,0,0,0,0,-1,1252,1373,0,0
35,-349,0,0,0,0,0,0,0,0,0,-1,1259,1373,0,0
42,-349,0,0,0,0,0,0,0,0,0,-1,1266,1373,0,0
49,-349,0,0,0,0,0,0,0,0,0,-1,1273,1373,0,0
56,-349,0,0,0,0,0,0,0,0,0,-1,1280,1373,0,0
63,-349,0,0,0,0,0,0,0,0,0,-1,1287,1373,0,0
70,-349,0,0,0,0,0,0,0,0,0,-1,1294,1373,0,0
77,-349,0,0,0,0,0,0,0,0,0,-1,1301,1373,0,0
84,-349,0,0,0,0,0,0,0,0,0,-1,1308,1373,0,0
91,-349,0,0,0,0,0,0,0,0,0,-1,1315,1373,0,0
98,-349,0,0,0,0,0,0,0,0,0,-1,1322,1373,0,0
105,-349,0,0,0,0,0,0,0,0,0,-1,1329,1373,0,0
112,-349,0,0,0,0,0,0,0,0,0,-1,1336,1373,0,0
119,-349,0,0,0,0,0,0,0,0,0,-1,1343,1373,0,0
126,-349,0,0,0,0,0,0,0,0,0,-1,1350,1373,0,0
133,-349,0,0,0,0,0,0,0,0,0,-1,1357,1373,0,0
140,-349,0,0,0,0,0,0,0,0,0,-1,1364,1373,0,0
147,-349,0,0,0,0,0,0,0,0,0,-1,1371,1373,0,0
154,-349,0,0,0,0,0,0,0,0,0,-1,1378,1373,0,0
161,-349,0,0,0,0,0,0,0,0,0,-1,1385,1373,0,0
168,-349,0,0,0,0,0,0,0,0,0,-1,1392,1373,0,0
175,-349,0,0,0,0,0,0,0,0,0,-1,1399,1373,0,0
182,-349,0,0,0,0,0,0,0,0,0,-1,1406,1373,0,0
189,-349,0,0,0,0,0,0,0,0,0,-1,1413,1373,0,0
196,-349,0,0,0,0,0,0,0,0,0,-1,1420,1373,0,0
203,-349,0,0,0,0,0,0,0,0,0,-1,1427,1373,0,0
210,-349,0,0,0,0,0,0,0,0,0,-1,1434,1373,0,0
217,-349,0,0,0,0,0,0,0,0,0,-1,1441,1373,0,0
224,-349,0,0,0,0,0,0,0,0,0,-1,1448,1373,0,0
231,-349,0,0,0,0,0,0,0,0,0,-1,1455,1373,0,0
238,-349,0,0,0,0,0,0,0,0,0,-1,1462,1373,0,0
245,-349,0,0,0,0,0,0,0,0,0,-1,1469,1373,0,0
252,-349,0,0,0,0,0,0,0,0,0,-1,1476,1373,0,0
259,-349,0,0,0,0,0,0,0,0,0,-1,1483,1373,0,0
266,-349,0,0,0,0,0,0,0,0,0,-1,1490,1373,0,0
273,-349,0,0,0,0,0,0,0,0,0,-1,1497,1373,0,0
280,-349,0,0,0,0,0,0,0,0,0,-1,1504,1373,0,0
287,-349,0,0,0,0,0,0,0,0,0,-1,1511,1373,0,0
294,-349,0,0,0,0,0,0,0,0,0,-1,1518,1373,0,0
301,-349,0,0,0,0,0,0,0,0,0,-1,1525,1373,0,0
308,-349,0,0,0,0,0,0,0,0,0,-1,1532,1373,0,0
315,-349,0,0,0,0,0,0,0,0,0,-1,1539,1373,0,0
322,-349,0,0,0,0,0,0,0,0,0,-1,1546,1373,0,0
329,-349,0,0,0,0,0,0,0,0,0,-1,1553,1373,0,0
336,-349,0,0,0,0,0,0,0,0,0,-1,1560,1373,0,0
343,-349,0,0,0,0,0,0,0,0,0,-1,1567,1373,0,0
350,-349,0,0,0,0,0,0,0,0,0,-1,1574,1373,0,0
357,-349,0,0,0,0,0,0,0,0,0,-1,1581,1373,0,0
364,-349,0,0,0,0,0,0,0,0,0,-1,1588,1373,0,0
371,-349,0,0,0,0,0,0,0,0,0,-1,1595,1373,0,0
378,-349,0,0,0,0,0,0,0,0,0,-1,1602,1373,0,0
385,-349,0,0,0,0,0,0,0,0,0,-1,1609,1373,0,0
392,-349,0,0,0,0,0,0,0,0,0,-1,1616,1373,0,0
399,-349,0,0,0,0,0,0,0,0,0,-1,1623,1373,0,0
406,-349,0,0,0,0,0,0,0,0,0,-1,1630,1373,0,0
413,-349,0,0,0,0,0,0,0,0,0,-1,1637,1373,0,0
420,-349,0,0,0,0,0,0,0,0,0,-1,1644,1373,0,0
427,-349,0,0,0,0,0,0,0,0,0,-1,1651,1373,0,0
434,-349,0,0,0,0,0,0,0,0,0,-1,1658,1373,0,0
441,-349,0,0,0,0,0,0,0,0,0,-1,1665,1373,0,0
448,-349,0,0,0,0,0,0,0,0,0,-1,1672,1373,0,0
455,-349,0,0,0,0,0,0,0,0,0,-1,1679,1373,0,0
462,-349,0,0,0,0,0,0,0,0,0,-1,1686,1373,0,0
469,-349,0,0,0,0,0,0,0,0,0,-1,1693,1373,0,0
476,-349,0,0,0,0,0,0,0,0,0,-1,1700,1373,0,0
483,-349,0,0,0,0,0,0,0,0,0,-1,1707,1373,0,0
490,-349,0,0,0,0,0,0,0,0,0,-1,1714,1373,0,0
497,-349,0,0,0,0,0,0,0,0,0,-1,1721,1373,0,0
504,-349,0,0,0,0,0,0,0,0,0,-1,1728,1373,0,0
511,-349,0,0,0,0,0,0,0,0,0,-1,1735,1373,0,0
518,-349,0,0,0,0,0,0,0,0,0,-1,1742,1373,0,0
525,-349,0,0,0,0,0,0,0,0,0,-1,1749,1373,0,0
532,-349,0,0,0,0,0,0,0,0,0,-1,1756,1373,0,0
539,-349,0,0,0,0,0,0,0,0,0,-1,1763,1373,0,0
546,-349,0,0,0,0,0,0,0,0,0,-1,1770,1373,0,0
553,-349,0,0,0,0,0,0,0,0,0,-1,1777,1373,0,0
560,-349,63.5519,3.94397,0,0,0,0,0,0,0,-1,1784,1373,63.5519,-3.94394
567,-349,64.7863,2.54688,0,0,0,0,0,0,0,-1,1791,1373,64.7863,-2.5469
574,-349,65.8214,1.63818,0,0,0,0,0,0,0,-1,1798,1373,65.8214,-1.63813
581,-349,42.8947,6.78381,0,0,0,0,0,0,0,-1,1805,1373,42.8946,-6.78376
588,-349,44.8121,5.06213,0,0,0,0,0,0,0,-1,1812,1373,44.8121,-5.06215
595,-349,44.4338,6.14099,0,0,0,0,0,0,0,-1,1819,1373,44.4338,-6.14095
602,-349,35.6641,3.26465,0,0,0,0,0,0,0,-1,1826,1373,35.6641,-3.26468
609,-349,34.7175,4.401,0,0,0,0,0,0,0,-1,1833,1373,34.7175,-4.40096
616,-349,27.1451,6.68274,0,0,0,0,0,0,0,-1,1840,1373,27.1451,-6.6828
623,-349,18.8478,2.75769,0,0,0,0,0,0,0,-1,1847,1373,18.8478,-2.75774
630,-349,15.4948,6.47644,0,0,0,0,0,0,0,-1,1854,1373,15.4947,-6.4765
637,-349,16.5161,6.92639,0,0,0,0,0,0,0,-1,1861,1373,16.5161,-6.92636
644,-349,44.2694,19.8312,0,0,0,0,0,0,0,-1,1868,1373,44.2695,-19.8311
651,-349,78.9188,43.9373,0,0,0,0,0,0,0,-1,1875,1373,78.9188,-43.9372
658,-349,87.4794,48.3646,0,0,0,0,0,0,0,-1,1882,1373,87.4794,-48.3647
665,-349,158.323,57.5726,0,0,0,0,0,0,0,-1,1889,1373,158.323,-57.5726
672,-349,158.369,55.0952,0,0,0,0,0,0,0,-1,1896,1373,158.369,-55.0952
679,-349,158.071,52.7958,-0.00682409,0.0177395,0.0180713,0.0273076,-0.0163921,1.08386,0.0254911,0.0240732,1903,1373,158.071,-52.7957
686,-349,157.611,50.2144,-0.00596942,0.0225636,0.0207239,0.0334568,-0.0168627,1.08685,0.0295739,0.027421,1910,1373,157.611,-50.2144
693,-349,157.221,47.7716,-0.0048537,0.0274876,0.0233288,0.0397022,-0.0170683,1.08846,0.0336336,0.0279156,1917,1373,157.221,-47.7716
700,-349,156.712,45.4547,-0.00337203,0.0324241,0.025915,0.0460209,-0.0169688,1.08761,0.0376344,0.0221887,1924,1373,156.712,-45.4547
707,-349,156.177,42.9954,0,0,0,0,0,0,0,-1,1931,1373,156.177,-42.9954
714,-349,65.1287,22.8026,0,0,0,0,0,0,0,-1,1938,1373,65.1287,-22.8026
721,-349,19.6688,5.93604,0,0,0,0,0,0,0,-1,1945,1373,19.6688,-5.93606
728,-349,18.6333,3.73218,0,0,0,0,0,0,0,-1,1952,1373,18.6333,-3.73214
735,-349,18.1918,3.39954,0,0,0,0,0,0,0,-1,1959,1373,18.1918,-3.3995
742,-349,20.7345,2.07483,0,0,0,0,0,0,0,-1,1966,1373,20.7345,-2.07485
749,-349,21.9037,1.45789,0,0,0,0,0,0,0,-1,1973,1373,21.9037,-1.45788
756,-349,0,0,0,0,0,0,0,0,0,-1,1980,1373,0,0
763,-349,0,0,0,0,0,0,0,0,0,-1,1987,1373,0,0
770,-349,0,0,0,0,0,0,0,0,0,-1,1994,1373,0,0
777,-349,0,0,0,0,0,0,0,0,0,-1,2001,1373,0,0
784,-349,0,0,0,0,0,0,0,0,0,-1,2008,1373,0,0
791,-349,0,0,0,0,0,0,0,0,0,-1,2015,1373,0,0
798,-349,0,0,0,0,0,0,0,0,0,-1,2022,1373,0,0
805,-349,0,0,0,0,0,0,0,0,0,-1,2029,1373,0,0
812,-349,0,0,0,0,0,0,0,0,0,-1,2036,1373,0,0
-700,-356,0,0,0,0,0,0,0,0,0,-1,524,1380,0,0
-693,-356,0,0,0,0,0,0,0,0,0,-1,531,1380,0,0
-686,-356,0,0,0,0,0,0,0,0,0,-1,538,1380,0,0
-679,-356,0,0,0,0,0,0,0,0,0,-1,545,1380,0,0
-672,-356,0,0,0,0,0,0,0,0,0,-1,552,1380,0,0
-665,-356,0,0,0,0,0,0,0,0,0,-1,559,1380,0,0
-658,-356,0,0,0,0,0,0,0,0,0,-1,566,1380,0,0
-651,-356,0,0,0,0,0,0,0,0,0,-1,573,1380,0,0
-644,-356,0,0,0,0,0,0,0,0,0,-1,580,1380,0,0
-637,-356,0,0,0,0,0,0,0,0,0,-1,587,1380,0,0
-630,-356,-8.23126,-5.01917,0,0,0,0,0,0,0,-1,594,1380,-8.23124,5.0192
-623,-356,-0.263855,-0.675781,0,0,0,0,0,0,0,-1,601,1380,-0.263835,0.675841
-616,-356,-8.26532,-3.43945,0,0,0,0,0,0,0,-1,608,1380,-8.2653,3.43948
-609,-356,-4.88483,0.734497,0,0,0,0,0,0,0,-1,615,1380,-4.88485,-0.734532
-602,-356,-9.06635,2.4021,0,0,0,0,0,0,0,-1,622,1380,-9.06634,-2.40206
-595,-356,-8.45703,3.61853,0,0,0,0,0,0,0,-1,629,1380,-8.45706,-3.61848
-588,-356,-9.31738,4.14258,0,0,0,0,0,0,0,-1,636,1380,-9.31736,-4.14255
-581,-356,-16.5185,7.32312,0,0,0,0,0,0,0,-1,643,1380,-16.5185,-7.32306
-574,-356,-147.786,40.825,0,0,0,0,0,0,0,-1,650,1380,-147.786,-40.825
-567,-356,-147.953,43.1685,0.0128967,0.0479418,-0.0180971,0.0556094,0.00522914,-1.17003,0.0354587,0.0424886,657,1380,-147.953,-43.1685
-560,-356,-148.24,45.7032,0.0102671,0.0429057,-0.0195965,0.0520882,0.00108465,-1.1326,0.0343696,0.0279427,664,1380,-148.24,-45.7033
-553,-356,-148.684,48.2079,0.00800551,0.0376681,-0.0207572,0.0483482,-0.00267457,-1.0956,0.0331596,0.0308335,671,1380,-148.684,-48.2079
-546,-356,-149.301,50.7146,0.00658239,0.0325253,-0.0213143,0.044505,-0.0053973,-1.05875,0.031623,0.0286614,678,1380,-149.301,-50.7146
-539,-356,-149.745,53.2911,0.00587228,0.0273876,-0.0214018,0.0405834,-0.00732346,-1.01828,0.0297983,0.036083,685,1380,-149.745,-53.2911
-532,-356,-150.146,55.9218,0,0,0,0,0,0,0,-1,692,1380,-150.146,-55.9218
-525,-356,-93.0189,56.4785,0,0,0,0,0,0,0,-1,699,1380,-93.0188,-56.4785
-518,-356,-93.6779,58.5238,0,0,0,0,0,0,0,-1,706,1380,-93.6779,-58.5238
-511,-356,-86.5028,58.0922,0,0,0,0,0,0,0,-1,713,1380,-86.5028,-58.0921
-504,-356,-14.3925,12.3971,0,0,0,0,0,0,0,-1,720,1380,-14.3925,-12.3971
-497,-356,-5.68604,4.96387,0,0,0,0,0,0,0,-1,727,1380,-5.68605,-4.96385
-490,-356,-7.95288,5.5625,0,0,0,0,0,0,0,-1,734,1380,-7.95285,-5.56246
-483,-356,-7.2627,4.07446,0,0,0,0,0,0,0,-1,741,1380,-7.2627,-4.07441
-476,-356,-5.1936,4.16016,0,0,0,0,0,0,0,-1,748,1380,-5.1936,-4.16012
-469,-356,-10.0883,0.536011,0,0,0,0,0,0,0,-1,755,1380,-10.0883,-0.535989
-462,-356,-12.3481,-0.215698,0,0,0,0,0,0,0,-1,762,1380,-12.3481,0.215641
-455,-356,-13.1367,-0.264648,0,0,0,0,0,0,0,-1,769,1380,-13.1367,0.264647
-448,-356,-13.9116,-0.310181,0,0,0,0,0,0,0,-1,776,1380,-13.9115,0.310207
-441,-356,-13.1602,3.05603,0,0,0,0,0,0,0,-1,783,1380,-13.1602,-3.05609
-434,-356,0,0,0,0,0,0,0,0,0,-1,790,1380,0,0
-427,-356,0,0,0,0,0,0,0,0,0,-1,797,1380,0,0
-420,-356,0,0,0,0,0,0,0,0,0,-1,804,1380,0,0
-413,-356,0,0,0,0,0,0,0,0,0,-1,811,1380,0,0
-406,-356,0,0,0,0,0,0,0,0,0,-1,818,1380,0,0
-399,-356,0,0,0,0,0,0,0,0,0,-1,825,1380,0,0
-392,-356,0,0,0,0,0,0,0,0,0,-1,832,1380,0,0
-385,-356,0,0,0,0,0,0,0,0,0,-1,839,1380,0,0
-378,-356,0,0,0,0,0,0,0,0,0,-1,846,1380,0,0
-371,-356,0,0,0,0,0,0,0,0,0,-1,853,1380,0,0
-364,-356,0,0,0,0,0,0,0,0,0,-1,860,1380,0,0
-357,-356,0,0,0,0,0,0,0,0,0,-1,867,1380,0,0
-350,-356,0,0,0,0,0,0,0,0,0,-1,874,1380,0,0
-343,-356,0,0,0,0,0,0,0,0,0,-1,881,1380,0,0
-336,-356,0,0,0,0,0,0,0,0,0,-1,888,1380,0,0
-329,-356,0,0,0,0,0,0,0,0,0,-1,895,1380,0,0
-322,-356,0,0,0,0,0,0,0,0,0,-1,902,1380,0,0
-315,-356,0,0,0,0,0,0,0,0,0,-1,909,1380,0,0
-308,-356,0,0,0,0,0,0,0,0,0,-1,916,1380,0,0
-301,-356,0,0,0,0,0,0,0,0,0,-1,923,1380,0,0
-294,-356,0,0,0,0,0,0,0,0,0,-1,930,1380,0,0
-287,-356,0,0,0,0,0,0,0,0,0,-1,937,1380,0,0
-280,-356,0,0,0,0,0,0,0,0,0,-1,944,1380,0,0
-273,-356,0,0,0,0,0,0,0,0,0,-1,951,1380,0,0
-266,-356,0,0,0,0,0,0,0,0,0,-1,958,1380,0,0
-259,-356,0,0,0,0,0,0,0,0,0,-1,965,1380,0,0
-252,-356,0,0,0,0,0,0,0,0,0,-1,972,1380,0,0
-245,-356,0,0,0,0,0,0,0,0,0,-1,979,1380,0,0
-238,-356,0,0,0,0,0,0,0,0,0,-1,986,1380,0,0
-231,-356,0,0,0,0,0,0,0,0,0,-1,993,1380,0,0
-224,-356,0,0,0,0,0,0,0,0,0,-1,1000,1380,0,0
-217,-356,0,0,0,0,0,0,0,0,0,-1,1007,1380,0,0
-210,-356,0,0,0,0,0,0,0,0,0,-1,1014,1380,0,0
-203,-356,0,0,0,0,0,0,0,0,0,-1,1021,1380,0,0
-196,-356,0,0,0,0,0,0,0,0,0,-1,1028,1380,0,0
-189,-356,0,0,0,0,0,0,0,0,0,-1,1035,1380,0,0
-182,-356,0,0,0,0,0,0,0,0,0,-1,1042,1380,0,0
-175,-356,0,0,0,0,0,0,0,0,0,-1,1049,1380,0,0
-168,-356,0,0,0,0,0,0,0,0,0,-1,1056,1380,0,0
-161,-356,0,0,0,0,0,0,0,0,0,-1,1063,1380,0,0
-154,-356,0,0,0,0,0,0,0,0,0,-1,1070,1380,0,0
-147,-356,0,0,0,0,0,0,0,0,0,-1,1077,1380,0,0
-140,-356,0,0,0,0,0,0,0,0,0,-1,1084,1380,0,0
-133,-356,0,0,0,0,0,0,0,0,0,-1,1091,1380,0,0
-126,-356,0,0,0,0,0,0,0,0,0,-1,1098,1380,0,0
-119,-356,0,0,0,0,0,0,0,0,0,-1,1105,1380,0,0
-112,-356,0,0,0,0,0,0,0,0,0,-1,1112,1380,0,0
-105,-356,0,0,0,0,0,0,0,0,0,-1,1119,1380,0,0
-98,-356,0,0,0,0,0,0,0,0,0,-1,1126,1380,0,0
-91,-356,0,0,0,0,0,0,0,0,0,-1,1133,1380,0,0
-84,-356,0,0,0,0,0,0,0,0,0,-1,1140,1380,0,0
-77,-356,0,0,0,0,0,0,0,0,0,-1,1147,1380,0,0
-70,-356,0,0,0,0,0,0,0,0,0,-1,1154,1380,0,0
-63,-356,0,0,0,0,0,0,0,0,0,-1,1161,1380,0,0
-56,-356,0,0,0,0,0,0,0,0,0,-1,1168,1380,0,0
-49,-356,0,0,0,0,0,0,0,0,0,-1,1175,1380,0,0
-42,-356,0,0,0,0,0,0,0,0,0,-1,1182,1380,0,0
-35,-356,0,0,0,0,0,0,0,0,0,-1,1189,1380,0,0
-28,-356,0,0,0,0,0,0,0,0,0,-1,1196,1380,0,0
-21,-356,0,0,0,0,0,0,0,0,0,-1,1203,1380,0,0
-14,-356,0,0,0,0,0,0,0,0,0,-1,1210,1380,0,0
-7,-356,0,0,0,0,0,0,0,0,0,-1,1217,1380,0,0
0,-356,0,0,0,0,0,0,0,0,0,-1,1224,1380,0,0
7,-356,0,0,0,0,0,0,0,0,0,-1,1231,1380,0,0
14,-356,0,0,0,0,0,0,0,0,0,-1,1238,1380,0,0
21,-356,0,0,0,0,0,0,0,0,0,-1,1245,1380,0,0
28,-356,0,0,0,0,0,0,0,0,0,-1,1252,1380,0,0
35,-356,0,0,0,0,0,0,0,0,0,-1,1259,1380,0,0
42,-356,0,0,0,0,0,0,0,0,0,-1,1266,1380,0,0
49,-356,0,0,0,0,0,0,0,0,0,-1,1273,1380,0,0
56,-356,0,0,0,0,0,0,0,0,0,-1,1280,1380,0,0
63,-356,0,0,0,0,0,0,0,0,0,-1,1287,1380,0,0
70,-356,0,0,0,0,0,0,0,0,0,-1,1294,1380,0,0
77,-356,0,0,0,0,0,0,0,0,0,-1,1301,1380,0,0
84,-356,0,0,0,0,0,0,0,0,0,-1,1308,1380,0,0
91,-356,0,0,0,0,0,0,0,0,0,-1,1315,1380,0,0
98,-356,0,0,0,0,0,0,0,0,0,-1,1322,1380,0,0
105,-356,0,0,0,0,0,0,0,0,0,-1,1329,1380,0,0
112,-356,0,0,0,0,0,0,0,0,0,-1,1336,1380,0,0
119,-356,0,0,0,0,0,0,0,0,0,-1,1343,1380,0,0
126,-356,0,0,0,0,0,0,0,0,0,-1,1350,1380,0,0
133,-356,0,0,0,0,0,0,0,0,0,-1,1357,1380,0,0
140,-356,0,0,0,0,0,0,0,0,0,-1,1364,1380,0,0
147,-356,0,0,0,0,0,0,0,0,0,-1,1371,1380,0,0
154,-356,0,0,0,0,0,0,0,0,0,-1,1378,1380,0,0
161,-356,0,0,0,0,0,0,0,0,0,-1,1385,1380,0,0
168,-356,0,0,0,0,0,0,0,0,0,-1,1392,1380,0,0
175,-356,0,0,0,0,0,0,0,0,0,-1,1399,1380,0,0
182,-356,0,0,0,0,0,0,0,0,0,-1,1406,1380,0,0
189,-356,0,0,0,0,0,0,0,0,0,-1,1413,1380,0,0
196,-356,0,0,0,0,0,0,0,0,0,-1,1420,1380,0,0
203,-356,0,0,0,0,0,0,0,0,0,-1,1427,1380,0,0
210,-356,0,0,0,0,0,0,0,0,0,-1,1434,1380,0,0
217,-356,0,0,0,0,0,0,0,0,0,-1,1441,1380,0,0
224,-356,0,0,0,0,0,0,0,0,0,-1,1448,1380,0,0
231,-356,0,0,0,0,0,0,0,0,0,-1,1455,1380,0,0
238,-356,0,0,0,0,0,0,0,0,0,-1,1462,1380,0,0
245,-356,0,0,0,0,0,0,0,0,0,-1,1469,1380,0,0
252,-356,0,0,0,0,0,0,0,0,0,-1,1476,1380,0,0
259,-356,0,0,0,0,0,0,0,0,0,-1,1483,1380,0,0
266,-356,0,0,0,0,0,0,0,0,0,-1,1490,1380,0,0
273,-356,0,0,0,0,0,0,0,0,0,-1,1497,1380,0,0
280,-356,0,0,0,0,0,0,0,0,0,-1,1504,1380,0,0
287,-356,0,0,0,0,0,0,0,0,0,-1,1511,1380,0,0
294,-356,0,0,0,0,0,0,0,0,0,-1,1518,1380,0,0
301,-356,0,0,0,0,0,0,0,0,0,-1,1525,1380,0,0
308,-356,0,0,0,0,0,0,0,0,0,-1,1532,1380,0,0
315,-356,0,0,0,0,0,0,0,0,0,-1,1539,1380,0,0
322,-356,0,0,0,0,0,0,0,0,0,-1,1546,1380,0,0
329,-356,0,0,0,0,0,0,0,0,0,-1,1553,1380,0,0
336,-356,0,0,0,0,0,0,0,0,0,-1,1560,1380,0,0
343,-356,0,0,0,0,0,0,0,0,0,-1,1567,1380,0,0
350,-356,0,0,0,0,0,0,0,0,0,-1,1574,1380,0,0
357,-356,0,0,0,0,0,0,0,0,0,-1,1581,1380,0,0
364,-356,0,0,0,0,0,0,0,0,0,-1,1588,1380,0,0
371,-356,0,0,0,0,0,0,0,0,0,-1,1595,1380,0,0
378,-356,0,0,0,0,0,0,0,0,0,-1,1602,1380,0,0
385,-356,0,0,0,0,0,0,0,0,0,-1,1609,1380,0,0
392,-356,0,0,0,0,0,0,0,0,0,-1,1616,1380,0,0
399,-356,0,0,0,0,0,0,0,0,0,-1,1623,1380,0,0
406,-356,0,0,0,0,0,0,0,0,0,-1,1630,1380,0,0
413,-356,0,0,0,0,0,0,0,0,0,-1,1637,1380,0,0
420,-356,0,0,0,0,0,0,0,0,0,-1,1644,1380,0,0
427,-356,0,0,0,0,0,0,0,0,0,-1,1651,1380,0,0
434,-356,0,0,0,0,0,0,0,0,0,-1,1658,1380,0,0
441,-356,0,0,0,0,0,0,0,0,0,-1,1665,1380,0,0
448,-356,0,0,0,0,0,0,0,0,0,-1,1672,1380,0,0
455,-356,0,0,0,0,0,0,0,0,0,-1,1679,1380,0,0
462,-356,0,0,0,0,0,0,0,0,0,-1,1686,1380,0,0
469,-356,0,0,0,0,0,0,0,0,0,-1,1693,1380,0,0
476,-356,0,0,0,0,0,0,0,0,0,-1,1700,1380,0,0
483,-356,0,0,0,0,0,0,0,0,0,-1,1707,1380,0,0
490,-356,0,0,0,0,0,0,0,0,0,-1,1714,1380,0,0
497,-356,0,0,0,0,0,0,0,0,0,-1,1721,1380,0,0
504,-356,0,0,0,0,0,0,0,0,0,-1,1728,1380,0,0
511,-356,0,0,0,0,0,0,0,0,0,-1,1735,1380,0,0
518,-356,0,0,0,0,0,0,0,0,0,-1,1742,1380,0,0
525,-356,0,0,0,0,0,0,0,0,0,-1,1749,1380,0,0
532,-356,0,0,0,0,0,0,0,0,0,-1,1756,1380,0,0
539,-356,0,0,0,0,0,0,0,0,0,-1,1763,1380,0,0
546,-356,0,0,0,0,0,0,0,0,0,-1,1770,1380,0,0
553,-356,0,0,0,0,0,0,0,0,0,-1,1777,1380,0,0
560,-356,63.6171,3.12183,0,0,0,0,0,0,0,-1,1784,1380,63.617,-3.12183
567,-356,65.0425,1.89966,0,0,0,0,0,0,0,-1,1791,1380,65.0424,-1.8996
574,-356,45.5742,3.39575,0,0,0,0,0,0,0,-1,1798,1380,45.5742,-3.39574
581,-356,45.6708,3.64172,0,0,0,0,0,0,0,-1,1805,1380,45.6707,-3.64175
588,-356,44.4739,4.87085,0,0,0,0,0,0,0,-1,1812,1380,44.4739,-4.87086
595,-356,32.0834,5.86084,0,0,0,0,0,0,0,-1,1819,1380,32.0834,-5.86079
602,-356,30.1604,6.07104,0,0,0,0,0,0,0,-1,1826,1380,30.1604,-6.07104
609,-356,28.3435,6.48901,0,0,0,0,0,0,0,-1,1833,1380,28.3435,-6.48899
616,-356,26.9358,6.80872,0,0,0,0,0,0,0,-1,1840,1380,26.9358,-6.80877
623,-356,16.1803,1.07532,0,0,0,0,0,0,0,-1,1847,1380,16.1803,-1.07529
630,-356,16.4138,6.91553,0,0,0,0,0,0,0,-1,1854,1380,16.4138,-6.9155
637,-356,24.8021,12.0151,0,0,0,0,0,0,0,-1,1861,1380,24.8022,-12.0151
644,-356,80.338,48.7954,0,0,0,0,0,0,0,-1,1868,1380,80.338,-48.7954
651,-356,87.4346,51.2051,0,0,0,0,0,0,0,-1,1875,1380,87.4345,-51.205
658,-356,94.4417,53.7695,0,0,0,0,0,0,0,-1,1882,1380,94.4416,-53.7695
665,-356,156.274,58.6134,0,0,0,0,0,0,0,-1,1889,1380,156.274,-58.6134
672,-356,155.759,55.8943,-0.00581287,0.0157979,0.0170648,0.0251906,-0.0152056,1.06763,0.0235591,0.0350534,1896,1380,155.758,-55.8942
679,-356,155.234,53.2152,-0.00536994,0.0203116,0.0197639,0.0310398,-0.0160982,1.07348,0.0276671,0.0267425,1903,1380,155.234,-53.2153
686,-356,154.632,50.6338,-0.00463004,0.0248967,0.0224342,0.0369894,-0.0167227,1.07641,0.031738,0.0271107,1910,1380,154.632,-50.6338
693,-356,154.306,48.1854,-0.00362821,0.0295416,0.0251277,0.0430642,-0.0171508,1.07709,0.0358221,0.0221733,1917,1380,154.306,-48.1854
700,-356,153.942,45.8486,-0.00205608,0.0342414,0.027761,0.0492596,-0.0170744,1.0749,0.0397723,0.0323637,1924,1380,153.942,-45.8486
707,-356,153.636,43.4822,0,0,0,0,0,0,0,-1,1931,1380,153.636,-43.4822
714,-356,19.6907,5.82129,0,0,0,0,0,0,0,-1,1938,1380,19.6907,-5.82132
721,-356,17.2948,4.1958,0,0,0,0,0,0,0,-1,1945,1380,17.2948,-4.19584
728,-356,19.1846,2.31519,0,0,0,0,0,0,0,-1,1952,1380,19.1846,-2.31514
735,-356,20.0731,2.50842,0,0,0,0,0,0,0,-1,1959,1380,20.0731,-2.50844
742,-356,21.0111,2.43762,0,0,0,0,0,0,0,-1,1966,1380,21.0112,-2.43762
749,-356,22.1411,1.83276,0,0,0,0,0,0,0,-1,1973,1380,22.1411,-1.83275
756,-356,0,0,0,0,0,0,0,0,0,-1,1980,1380,0,0
763,-356,0,0,0,0,0,0,0,0,0,-1,1987,1380,0,0
770,-356,0,0,0,0,0,0,0,0,0,-1,1994,1380,0,0
777,-356,0,0,0,0,0,0,0,0,0,-1,2001,1380,0,0
784,-356,0,0,0,0,0,0,0,0,0,-1,2008,1380,0,0
791,-356,0,0,0,0,0,0,0,0,0,-1,2015,1380,0,0
798,-356,0,0,0,0,0,0,0,0,0,-1,2022,1380,0,0
805,-356,0,0,0,0,0,0,0,0,0,-1,2029,1380,0,0
812,-356,0,0,0,0,0,0,0,0,0,-1,2036,1380,0,0
-700,-363,0,0,0,0,0,0,0,0,0,-1,524,1387,0,0
-693,-363,0,0,0,0,0,0,0,0,0,-1,531,1387,0,0
-686,-363,0,0,0,0,0,0,0,0,0,-1,538,1387,0,0
-679,-363,0,0,0,0,0,0,0,0,0,-1,545,1387,0,0
-672,-363,0,0,0,0,0,0,0,0,0,-1,552,1387,0,0
-665,-363,0,0,0,0,0,0,0,0,0,-1,559,1387,0,0
-658,-363,0,0,0,0,0,0,0,0,0,-1,566,1387,0,0
-651,-363,0,0,0,0,0,0,0,0,0,-1,573,1387,0,0
-644,-363,0,0,0,0,0,0,0,0,0,-1,580,1387,0,0
-637,-363,0,0,0,0,0,0,0,0,0,-1,587,1387,0,0
-630,-363,0,0,0,0,0,0,0,0,0,-1,594,1387,0,0
-623,-363,-9.67566,-5.91846,0,0,0,0,0,0,0,-1,601,1387,-9.67563,5.91847
-616,-363,-9.02985,-2.98083,0,0,0,0,0,0,0,-1,608,1387,-9.02987,2.98079
-609,-363,-4.90265,0.195679,0,0,0,0,0,0,0,-1,615,1387,-4.90263,-0.195721
-602,-363,-9.65009,3.5321,0,0,0,0,0,0,0,-1,622,1387,-9.65007,-3.53211
-595,-363,-8.00256,3.48853,0,0,0,0,0,0,0,-1,629,1387,-8.00256,-3.48855
-588,-363,-10.8846,4.49768,0,0,0,0,0,0,0,-1,636,1387,-10.8846,-4.49773
-581,-363,-11.7469,5.15161,0,0,0,0,0,0,0,-1,643,1387,-11.747,-5.15167
-574,-363,-17.8334,8.33801,0,0,0,0,0,0,0,-1,650,1387,-17.8334,-8.33804
-567,-363,-145.003,43.4417,0,0,0,0,0,0,0,-1,657,1387,-145.003,-43.4417
-560,-363,-145.408,46.0042,0.011293,0.0464464,-0.0202869,0.0557119,0.00202755,-1.14237,0.0364842,0.0245882,664,1387,-145.408,-46.0042
-553,-363,-145.74,48.5459,0.00941618,0.0407528,-0.0210729,0.051344,-0.00117504,-1.10507,0.0346277,0.0214209,671,1387,-145.74,-48.5459
-546,-363,-146.279,51.1136,0.00854996,0.0352586,-0.0210747,0.0468538,-0.00304527,-1.0678,0.0322989,0.0189545,678,1387,-146.279,-51.1137
-539,-363,-146.674,53.8164,0.008562,0.0299932,-0.0204454,0.0423608,-0.0038057,-1.02677,0.0295908,0.0275745,685,1387,-146.674,-53.8165
-532,-363,-147.132,56.5526,0,0,0,0,0,0,0,-1,692,1387,-147.132,-56.5526
-525,-363,-128.902,61.2649,0,0,0,0,0,0,0,-1,699,1387,-128.902,-61.2649
-518,-363,-91.1656,58.6323,0,0,0,0,0,0,0,-1,706,1387,-91.1656,-58.6323
-511,-363,-91.3474,60.9979,0,0,0,0,0,0,0,-1,713,1387,-91.3474,-60.998
-504,-363,-82.3174,59.6276,0,0,0,0,0,0,0,-1,720,1387,-82.3174,-59.6276
-497,-363,-7.18842,7.29944,0,0,0,0,0,0,0,-1,727,1387,-7.18839,-7.29945
-490,-363,-5.42413,4.6958,0,0,0,0,0,0,0,-1,734,1387,-5.42412,-4.69583
-483,-363,-6.28375,4.1394,0,0,0,0,0,0,0,-1,741,1387,-6.28374,-4.13944
-476,-363,-5.83807,4.31018,0,0,0,0,0,0,0,-1,748,1387,-5.8381,-4.31013
-469,-363,-10.7125,0.697754,0,0,0,0,0,0,0,-1,755,1387,-10.7125,-0.697811
-462,-363,-9.55951,-0.0830078,0,0,0,0,0,0,0,-1,762,1387,-9.55949,0.0830163
-455,-363,-13.1008,-0.290894,0,0,0,0,0,0,0,-1,769,1387,-13.1008,0.290921
-448,-363,-11.7324,2.46606,0,0,0,0,0,0,0,-1,776,1387,-11.7324,-2.46605
-441,-363,-12.4464,2.5354,0,0,0,0,0,0,0,-1,783,1387,-12.4463,-2.53537
-434,-363,-13.6918,2.14661,0,0,0,0,0,0,0,-1,790,1387,-13.6918,-2.14662
-427,-363,0,0,0,0,0,0,0,0,0,-1,797,1387,0,0
-420,-363,0,0,0,0,0,0,0,0,0,-1,804,1387,0,0
-413,-363,0,0,0,0,0,0,0,0,0,-1,811,1387,0,0
-406,-363,0,0,0,0,0,0,0,0,0,-1,818,1387,0,0
-399,-363,0,0,0,0,0,0,0,0,0,-1,825,1387,0,0
-392,-363,0,0,0,0,0,0,0,0,0,-1,832,1387,0,0
-385,-363,0,0,0,0,0,0,0,0,0,-1,839,1387,0,0
-378,-363,0,0,0,0,0,0,0,0,0,-1,846,1387,0,0
-371,-363,0,0,0,0,0,0,0,0,0,-1,853,1387,0,0
-364,-363,0,0,0,0,0,0,0,0,0,-1,860,1387,0,0
-357,-363,0,0,0,0,0,0,0,0,0,-1,867,1387,0,0
-350,-363,0,0,0,0,0,0,0,0,0,-1,874,1387,0,0
-343,-363,0,0,0,0,0,0,0,0,0,-1,881,1387,0,0
-336,-363,0,0,0,0,0,0,0,0,0,-1,888,1387,0,0
-329,-363,0,0,0,0,0,0,0,0,0,-1,895,1387,0,0
-322,-363,0,0,0,0,0,0,0,0,0,-1,902,1387,0,0
-315,-363,0,0,0,0,0,0,0,0,0,-1,909,1387,0,0
-308,-363,0,0,0,0,0,0,0,0,0,-1,916,1387,0,0
-301,-363,0,0,0,0,0,0,0,0,0,-1,923,1387,0,0
-294,-363,0,0,0,0,0,0,0,0,0,-1,930,1387,0,0
-287,-363,0,0,0,0,0,0,0,0,0,-1,937,1387,0,0
-280,-363,0,0,0,0,0,0,0,0,0,-1,944,1387,0,0
-273,-363,0,0,0,0,0,0,0,0,0,-1,951,1387,0,0
-266,-363,0,0,0,0,0,0,0,0,0,-1,958,1387,0,0
-259,-363,0,0,0,0,0,0,0,0,0,-1,965,1387,0,0
-252,-363,0,0,0,0,0,0,0,0,0,-1,972,1387,0,0
-245,-363,0,0,0,0,0,0,0,0,0,-1,979,1387,0,0
-238,-363,0,0,0,0,0,0,0,0,0,-1,986,1387,0,0
-231,-363,0,0,0,0,0,0,0,0,0,-1,993,1387,0,0
-224,-363,0,0,0,0,0,0,0,0,0,-1,1000,1387,0,0
-217,-363,0,0,0,0,0,0,0,0,0,-1,1007,1387,0,0
-210,-363,0,0,0,0,0,0,0,0,0,-1,1014,1387,0,0
-203,-363,0,0,0,0,0,0,0,0,0,-1,1021,1387,0,0
-196,-363,0,0,0,0,0,0,0,0,0,-1,1028,1387,0,0
-189,-363,0,0,0,0,0,0,0,0,0,-1,1035,1387,0,0
-182,-363,0,0,0,0,0,0,0,0,0,-1,1042,1387,0,0
-175,-363,0,0,0,0,0,0,0,0,0,-1,1049,1387,0,0
-168,-363,0,0,0,0,0,0,0,0,0,-1,1056,1387,0,0
-161,-363,0,0,0,0,0,0,0,0,0,-1,1063,1387,0,0
-154,-363,0,0,0,0,0,0,0,0,0,-1,1070,1387,0,0
-147,-363,0,0,0,0,0,0,0,0,0,-1,1077,1387,0,0
-140,-363,0,0,0,0,0,0,0,0,0,-1,1084,1387,0,0
-133,-363,0,0,0,0,0,0,0,0,0,-1,1091,1387,0,0
-126,-363,0,0,0,0,0,0,0,0,0,-1,1098,1387,0,0
-119,-363,0,0,0,0,0,0,0,0,0,-1,1105,1387,0,0
-112,-363,0,0,0,0,0,0,0,0,0,-1,1112,1387,0,0
-105,-363,0,0,0,0,0,0,0,0,0,-1,1119,1387,0,0
-98,-363,0,0,0,0,0,0,0,0,0,-1,1126,1387,0,0
-91,-363,0,0,0,0,0,0,0,0,0,-1,1133,1387,0,0
-84,-363,0,0,0,0,0,0,0,0,0,-1,1140,1387,0,0
-77,-363,0,0,0,0,0,0,0,0,0,-1,1147,1387,0,0
-70,-363,0,0,0,0,0,0,0,0,0,-1,1154,1387,0,0
-63,-363,0,0,0,0,0,0,0,0,0,-1,1161,1387,0,0
-56,-363,0,0,0,0,0,0,0,0,0,-1,1168,1387,0,0
-49,-363,0,0,0,0,0,0,0,0,0,-1,1175,1387,0,0
-42,-363,0,0,0,0,0,0,0,0,0,-1,1182,1387,0,0
-35,-363,0,0,0,0,0,0,0,0,0,-1,1189,1387,0,0
-28,-363,0,0,0,0,0,0,0,0,0,-1,1196,1387,0,0
-21,-363,0,0,0,0,0,0,0,0,0,-1,1203,1387,0,0
-14,-363,0,0,0,0,0,0,0,0,0,-1,1210,1387,0,0
-7,-363,0,0,0,0,0,0,0,0,0,-1,1217,1387,0,0
0,-363,0,0,0,0,0,0,0,0,0,-1,1224,1387,0,0
7,-363,0,0,0,0,0,0,0,0,0,-1,1231,1387,0,0
14,-363,0,0,0,0,0,0,0,0,0,-1,1238,1387,0,0
21,-363,0,0,0,0,0,0,0,0,0,-1,1245,1387,0,0
28,-363,0,0,0,0,0,0,0,0,0,-1,1252,1387,0,0
35,-363,0,0,0,0,0,0,0,0,0,-1,1259,1387,0,0
42,-363,0,0,0,0,0,0,0,0,0,-1,1266,1387,0,0
49,-363,0,0,0,0,0,0,0,0,0,-1,1273,1387,0,0
56,-363,0,0,0,0,0,0,0,0,0,-1,1280,1387,0,0
63,-363,0,0,0,0,0,0,0,0,0,-1,1287,1387,0,0
70,-363,0,0,0,0,0,0,0,0,0,-1,1294,1387,0,0
77,-363,0,0,0,0,0,0,0,0,0,-1,1301,1387,0,0
84,-363,0,0,0,0,0,0,0,0,0,-1,1308,1387,0,0
91,-363,0,0,0,0,0,0,0,0,0,-1,1315,1387,0,0
98,-363,0,0,0,0,0,0,0,0,0,-1,1322,1387,0,0
105,-363,0,0,0,0,0,0,0,0,0,-1,1329,1387,0,0
112,-363,0,0,0,0,0,0,0,0,0,-1,1336,1387,0,0
119,-363,0,0,0,0,0,0,0,0,0,-1,1343,1387,0,0
126,-363,0,0,0,0,0,0,0,0,0,-1,1350,1387,0,0
133,-363,0,0,0,0,0,0,0,0,0,-1,1357,1387,0,0
140,-363,0,0,0,0,0,0,0,0,0,-1,1364,1387,0,0
147,-363,0,0,0,0,0,0,0,0,0,-1,1371,1387,0,0
154,-363,0,0,0,0,0,0,0,0,0,-1,1378,1387,0,0
161,-363,0,0,0,0,0,0,0,0,0,-1,1385,1387,0,0
168,-363,0,0,0,0,0,0,0,0,0,-1,1392,1387,0,0
175,-363,0,0,0,0,0,0,0,0,0,-1,1399,1387,0,0
182,-363,0,0,0,0,0,0,0,0,0,-1,1406,1387,0,0
189,-363,0,0,0,0,0,0,0,0,0,-1,1413,1387,0,0
196,-363,0,0,0,0,0,0,0,0,0,-1,1420,1387,0,0
203,-363,0,0,0,0,0,0,0,0,0,-1,1427,1387,0,0
210,-363,0,0,0,0,0,0,0,0,0,-1,1434,1387,0,0
217,-363,0,0,0,0,0,0,0,0,0,-1,1441,1387,0,0
224,-363,0,0,0,0,0,0,0,0,0,-1,1448,1387,0,0
231,-363,0,0,0,0,0,0,0,0,0,-1,1455,1387,0,0
238,-363,0,0,0,0,0,0,0,0,0,-1,1462,1387,0,0
245,-363,0,0,0,0,0,0,0,0,0,-1,1469,1387,0,0
252,-363,0,0,0,0,0,0,0,0,0,-1,1476,1387,0,0
259,-363,0,0,0,0,0,0,0,0,0,-1,1483,1387,0,0
266,-363,0,0,0,0,0,0,0,0,0,-1,1490,1387,0,0
273,-363,0,0,0,0,0,0,0,0,0,-1,1497,1387,0,0
280,-363,0,0,0,0,0,0,0,0,0,-1,1504,1387,0,0
287,-363,0,0,0,0,0,0,0,0,0,-1,1511,1387,0,0
294,-363,0,0,0,0,0,0,0,0,0,-1,1518,1387,0,0
301,-363,0,0,0,0,0,0,0,0,0,-1,1525,1387,0,0
308,-363,0,0,0,0,0,0,0,0,0,-1,1532,1387,0,0
315,-363,0,0,0,0,0,0,0,0,0,-1,1539,1387,0,0
322,-363,0,0,0,0,0,0,0,0,0,-1,1546,1387,0,0
329,-363,0,0,0,0,0,0,0,0,0,-1,1553,1387,0,0
336,-363,0,0,0,0,0,0,0,0,0,-1,1560,1387,0,0
343,-363,0,0,0,0,0,0,0,0,0,-1,1567,1387,0,0
350,-363,0,0,0,0,0,0,0,0,0,-1,1574,1387,0,0
357,-363,0,0,0,0,0,0,0,0,0,-1,1581,1387,0,0
364,-363,0,0,0,0,0,0,0,0,0,-1,1588,1387,0,0
371,-363,0,0,0,0,0,0,0,0,0,-1,1595,1387,0,0
378,-363,0,0,0,0,0,0,0,0,0,-1,1602,1387,0,0
385,-363,0,0,0,0,0,0,0,0,0,-1,1609,1387,0,0
392,-363,0,0,0,0,0,0,0,0,0,-1,1616,1387,0,0
399,-363,0,0,0,0,0,0,0,0,0,-1,1623,1387,0,0
406,-363,0,0,0,0,0,0,0,0,0,-1,1630,1387,0,0
413,-363,0,0,0,0,0,0,0,0,0,-1,1637,1387,0,0
420,-363,0,0,0,0,0,0,0,0,0,-1,1644,1387,0,0
427,-363,0,0,0,0,0,0,0,0,0,-1,1651,1387,0,0
434,-363,0,0,0,0,0,0,0,0,0,-1,1658,1387,0,0
441,-363,0,0,0,0,0,0,0,0,0,-1,1665,1387,0,0
448,-363,0,0,0,0,0,0,0,0,0,-1,1672,1387,0,0
455,-363,0,0,0,0,0,0,0,0,0,-1,1679,1387,0,0
462,-363,0,0,0,0,0,0,0,0,0,-1,1686,1387,0,0
469,-363,0,0,0,0,0,0,0,0,0,-1,1693,1387,0,0
476,-363,0,0,0,0,0,0,0,0,0,-1,1700,1387,0,0
483,-363,0,0,0,0,0,0,0,0,0,-1,1707,1387,0,0
490,-363,0,0,0,0,0,0,0,0,0,-1,1714,1387,0,0
497,-363,0,0,0,0,0,0,0,0,0,-1,1721,1387,0,0
504,-363,0,0,0,0,0,0,0,0,0,-1,1728,1387,0,0
511,-363,0,0,0,0,0,0,0,0,0,-1,1735,1387,0,0
518,-363,0,0,0,0,0,0,0,0,0,-1,1742,1387,0,0
525,-363,0,0,0,0,0,0,0,0,0,-1,1749,1387,0,0
532,-363,0,0,0,0,0,0,0,0,0,-1,1756,1387,0,0
539,-363,0,0,0,0,0,0,0,0,0,-1,1763,1387,0,0
546,-363,0,0,0,0,0,0,0,0,0,-1,1770,1387,0,0
553,-363,62.1395,3.42249,0,0,0,0,0,0,0,-1,1777,1387,62.1395,-3.42245
560,-363,63.2896,2.40808,0,0,0,0,0,0,0,-1,1784,1387,63.2896,-2.40811
567,-363,64.4463,1.38135,0,0,0,0,0,0,0,-1,1791,1387,64.4463,-1.38131
574,-363,45.7261,2.8075,0,0,0,0,0,0,0,-1,1798,1387,45.7261,-2.80754
581,-363,39.2413,1.97632,0,0,0,0,0,0,0,-1,1805,1387,39.2413,-1.97636
588,-363,32.5608,6.72131,0,0,0,0,0,0,0,-1,1812,1387,32.5608,-6.72131
595,-363,31.4688,6.95435,0,0,0,0,0,0,0,-1,1819,1387,31.4688,-6.95431
602,-363,25.7437,5.33667,0,0,0,0,0,0,0,-1,1826,1387,25.7437,-5.33667
609,-363,27.7048,7.06885,0,0,0,0,0,0,0,-1,1833,1387,27.7048,-7.06882
616,-363,16.229,1.08704,0,0,0,0,0,0,0,-1,1840,1387,16.229,-1.08706
623,-363,15.7283,7.16663,0,0,0,0,0,0,0,-1,1847,1387,15.7282,-7.16665
630,-363,18.3192,9.27844,0,0,0,0,0,0,0,-1,1854,1387,18.3192,-9.27843
637,-363,78.6736,50.8374,0,0,0,0,0,0,0,-1,1861,1387,78.6736,-50.8373
644,-363,93.6857,58.8877,0,0,0,0,0,0,0,-1,1868,1387,93.6857,-58.8877
651,-363,129.548,66.186,0,0,0,0,0,0,0,-1,1875,1387,129.548,-66.186
658,-363,154.294,61.9027,0,0,0,0,0,0,0,-1,1882,1387,154.294,-61.9028
665,-363,153.56,59.0408,-0.00421502,0.0136965,0.0159479,0.0230312,-0.0135497,1.04124,0.0213551,0.0334217,1889,1387,153.56,-59.0408
672,-363,152.94,56.3949,-0.00414632,0.0181563,0.0187147,0.0287901,-0.0147801,1.05408,0.0255851,0.0212934,1896,1387,152.94,-56.3948
679,-363,152.381,53.7336,-0.00385967,0.0225458,0.021481,0.0345571,-0.015871,1.06095,0.0297735,0.0224946,1903,1387,152.381,-53.7336
686,-363,151.833,51.1783,-0.00332853,0.0269423,0.0242253,0.0403716,-0.0167579,1.06462,0.0339099,0.0245892,1910,1387,151.832,-51.1784
693,-363,151.39,48.6649,-0.00262782,0.0313514,0.0270055,0.0462671,-0.0175435,1.06617,0.0380649,0.0218559,1917,1387,151.39,-48.665
700,-363,150.865,46.2184,0,0,0,0,0,0,0,-1,1924,1387,150.865,-46.2184
707,-363,128.989,44.6556,0,0,0,0,0,0,0,-1,1931,1387,128.989,-44.6556
714,-363,16.5782,5.3147,0,0,0,0,0,0,0,-1,1938,1387,16.5783,-5.31472
721,-363,14.4045,4.51685,0,0,0,0,0,0,0,-1,1945,1387,14.4045,-4.51685
728,-363,19.9756,0.853027,0,0,0,0,0,0,0,-1,1952,1387,19.9756,-0.853059
735,-363,21.4297,1.2981,0,0,0,0,0,0,0,-1,1959,1387,21.4297,-1.29811
742,-363,21.3621,2.79663,0,0,0,0,0,0,0,-1,1966,1387,21.362,-2.7966
749,-363,0,0,0,0,0,0,0,0,0,-1,1973,1387,0,0
756,-363,0,0,0,0,0,0,0,0,0,-1,1980,1387,0,0
763,-363,0,0,0,0,0,0,0,0,0,-1,1987,1387,0,0
770,-363,0,0,0,0,0,0,0,0,0,-1,1994,1387,0,0
777,-363,0,0,0,0,0,0,0,0,0,-1,2001,1387,0,0
784,-363,0,0,0,0,0,0,0,0,0,-1,2008,1387,0,0
791,-363,0,0,0,0,0,0,0,0,0,-1,2015,1387,0,0
798,-363,0,0,0,0,0,0,0,0,0,-1,2022,1387,0,0
805,-363,0,0,0,0,0,0,0,0,0,-1,2029,1387,0,0
812,-363,0,0,0,0,0,0,0,0,0,-1,2036,1387,0,0
-700,-370,0,0,0,0,0,0,0,0,0,-1,524,1394,0,0
-693,-370,0,0,0,0,0,0,0,0,0,-1,531,1394,0,0
-686,-370,0,0,0,0,0,0,0,0,0,-1,538,1394,0,0
-679,-370,0,0,0,0,0,0,0,0,0,-1,545,1394,0,0
-672,-370,0,0,0,0,0,0,0,0,0,-1,552,1394,0,0
-665,-370,0,0,0,0,0,0,0,0,0,-1,559,1394,0,0
-658,-370,0,0,0,0,0,0,0,0,0,-1,566,1394,0,0
-651,-370,0,0,0,0,0,0,0,0,0,-1,573,1394,0,0
-644,-370,0,0,0,0,0,0,0,0,0,-1,580,1394,0,0
-637,-370,0,0,0,0,0,0,0,0,0,-1,587,1394,0,0
-630,-370,0,0,0,0,0,0,0,0,0,-1,594,1394,0,0
-623,-370,-10.1758,-7.10486,0,0,0,0,0,0,0,-1,601,1394,-10.1758,7.10483
-616,-370,-8.85925,-1.61475,0,0,0,0,0,0,0,-1,608,1394,-8.85925,1.61476
-609,-370,-5.39325,0.0421143,0,0,0,0,0,0,0,-1,615,1394,-5.39328,-0.0421372
-602,-370,-12.3151,3.44592,0,0,0,0,0,0,0,-1,622,1394,-12.3151,-3.44595
-595,-370,-7.53284,5.44214,0,0,0,0,0,0,0,-1,629,1394,-7.53284,-5.44216
-588,-370,-11.2422,4.50598,0,0,0,0,0,0,0,-1,636,1394,-11.2422,-4.50596
-581,-370,-13.1575,5.84888,0,0,0,0,0,0,0,-1,643,1394,-13.1575,-5.84887
-574,-370,-13.0107,6.69861,0,0,0,0,0,0,0,-1,650,1394,-13.0108,-6.69866
-567,-370,-39.5869,22.689,0,0,0,0,0,0,0,-1,657,1394,-39.5868,-22.689
-560,-370,-142.67,46.3829,0,0,0,0,0,0,0,-1,664,1394,-142.67,-46.383
-553,-370,-142.859,48.9382,0.0102356,0.0440051,-0.0219185,0.0547883,-0.000547571,-1.11359,0.0367094,0.0173625,671,1394,-142.859,-48.9382
-546,-370,-143.229,51.5812,0.00891964,0.0382287,-0.0217527,0.0498027,-0.00265434,-1.08182,0.034121,0.0213656,678,1394,-143.23,-51.5812
-539,-370,-143.667,54.1953,0.00879112,0.0330109,-0.0207087,0.0448906,-0.00308857,-1.04997,0.0310079,0.027572,685,1394,-143.667,-54.1953
-532,-370,-144.178,56.8312,0,0,0,0,0,0,0,-1,692,1394,-144.178,-56.8312
-525,-370,-135.969,60.519,0,0,0,0,0,0,0,-1,699,1394,-135.969,-60.519
-518,-370,-143.425,62.6539,0,0,0,0,0,0,0,-1,706,1394,-143.425,-62.654
-511,-370,-129.568,67.5051,0,0,0,0,0,0,0,-1,713,1394,-129.568,-67.5051
-504,-370,-88.5164,63.4016,0,0,0,0,0,0,0,-1,720,1394,-88.5164,-63.4016
-497,-370,-73.6671,59.0852,0,0,0,0,0,0,0,-1,727,1394,-73.667,-59.0852
-490,-370,-5.30695,4.5271,0,0,0,0,0,0,0,-1,734,1394,-5.30698,-4.52704
-483,-370,-6.02997,4.59253,0,0,0,0,0,0,0,-1,741,1394,-6.02994,-4.5925
-476,-370,-6.75293,4.65796,0,0,0,0,0,0,0,-1,748,1394,-6.7529,-4.65795
-469,-370,-10.584,1.14294,0,0,0,0,0,0,0,-1,755,1394,-10.584,-1.14293
-462,-370,-9.54462,0.387207,0,0,0,0,0,0,0,-1,762,1394,-9.5446,-0.387176
-455,-370,-8.50525,-0.36853,0,0,0,0,0,0,0,-1,769,1394,-8.50523,0.368582
-448,-370,-10.9543,2.28833,0,0,0,0,0,0,0,-1,776,1394,-10.9543,-2.28835
-441,-370,-11.8699,1.8313,0,0,0,0,0,0,0,-1,783,1394,-11.8699,-1.83127
-434,-370,-12.7855,1.37415,0,0,0,0,0,0,0,-1,790,1394,-12.7855,-1.37419
-427,-370,0,0,0,0,0,0,0,0,0,-1,797,1394,0,0
-420,-370,0,0,0,0,0,0,0,0,0,-1,804,1394,0,0
-413,-370,0,0,0,0,0,0,0,0,0,-1,811,1394,0,0
-406,-370,0,0,0,0,0,0,0,0,0,-1,818,1394,0,0
-399,-370,0,0,0,0,0,0,0,0,0,-1,825,1394,0,0
-392,-370,0,0,0,0,0,0,0,0,0,-1,832,1394,0,0
-385,-370,0,0,0,0,0,0,0,0,0,-1,839,1394,0,0
-378,-370,0,0,0,0,0,0,0,0,0,-1,846,1394,0,0
-371,-370,0,0,0,0,0,0,0,0,0,-1,853,1394,0,0
-364,-370,0,0,0,0,0,0,0,0,0,-1,860,1394,0,0
-357,-370,0,0,0,0,0,0,0,0,0,-1,867,1394,0,0
-350,-370,0,0,0,0,0,0,0,0,0,-1,874,1394,0,0
-343,-370,0,0,0,0,0,0,0,0,0,-1,881,1394,0,0
-336,-370,0,0,0,0,0,0,0,0,0,-1,888,1394,0,0
-329,-370,0,0,0,0,0,0,0,0,0,-1,895,1394,0,0
-322,-370,0,0,0,0,0,0,0,0,0,-1,902,1394,0,0
-315,-370,0,0,0,0,0,0,0,0,0,-1,909,1394,0,0
-308,-370,0,0,0,0,0,0,0,0,0,-1,916,1394,0,0
-301,-370,0,0,0,0,0,0,0,0,0,-1,923,1394,0,0
-294,-370,0,0,0,0,0,0,0,0,0,-1,930,1394,0,0
-287,-370,0,0,0,0,0,0,0,0,0,-1,937,1394,0,0
-280,-370,0,0,0,0,0,0,0,0,0,-1,944,1394,0,0
-273,-370,0,0,0,0,0,0,0,0,0,-1,951,1394,0,0
-266,-370,0,0,0,0,0,0,0,0,0,-1,958,1394,0,0
-259,-370,0,0,0,0,0,0,0,0,0,-1,965,1394,0,0
-252,-370,0,0,0,0,0,0,0,0,0,-1,972,1394,0,0
-245,-370,0,0,0,0,0,0,0,0,0,-1,979,1394,0,0
-238,-370,0,0,0,0,0,0,0,0,0,-1,986,1394,0,0
-231,-370,0,0,0,0,0,0,0,0,0,-1,993,1394,0,0
-224,-370,0,0,0,0,0,0,0,0,0,-1,1000,1394,0,0
-217,-370,0,0,0,0,0,0,0,0,0,-1,1007,1394,0,0
-210,-370,0,0,0,0,0,0,0,0,0,-1,1014,1394,0,0
-203,-370,0,0,0,0,0,0,0,0,0,-1,1021,1394,0,0
-196,-370,0,0,0,0,0,0,0,0,0,-1,1028,1394,0,0
-189,-370,0,0,0,0,0,0,0,0,0,-1,1035,1394,0,0
-182,-370,0,0,0,0,0,0,0,0,0,-1,1042,1394,0,0
-175,-370,0,0,0,0,0,0,0,0,0,-1,1049,1394,0,0
-168,-370,0,0,0,0,0,0,0,0,0,-1,1056,1394,0,0
-161,-370,0,0,0,0,0,0,0,0,0,-1,1063,1394,0,0
-154,-370,0,0,0,0,0,0,0,0,0,-1,1070,1394,0,0
-147,-370,0,0,0,0,0,0,0,0,0,-1,1077,1394,0,0
-140,-370,0,0,0,0,0,0,0,0,0,-1,1084,1394,0,0
-133,-370,0,0,0,0,0,0,0,0,0,-1,1091,1394,0,0
-126,-370,0,0,0,0,0,0,0,0,0,-1,1098,1394,0,0
-119,-370,0,0,0,0,0,0,0,0,0,-1,1105,1394,0,0
-112,-370,0,0,0,0,0,0,0,0,0,-1,1112,1394,0,0
-105,-370,0,0,0,0,0,0,0,0,0,-1,1119,1394,0,0
-98,-370,0,0,0,0,0,0,0,0,0,-1,1126,1394,0,0
-91,-370,0,0,0,0,0,0,0,0,0,-1,1133,1394,0,0
-84,-370,0,0,0,0,0,0,0,0,0,-1,1140,1394,0,0
-77,-370,0,0,0,0,0,0,0,0,0,-1,1147,1394,0,0
-70,-370,0,0,0,0,0,0,0,0,0,-1,1154,1394,0,0
-63,-370,0,0,0,0,0,0,0,0,0,-1,1161,1394,0,0
-56,-370,0,0,0,0,0,0,0,0,0,-1,1168,1394,0,0
-49,-370,0,0,0,0,0,0,0,0,0,-1,1175,1394,0,0
-42,-370,0,0,0,0,0,0,0,0,0,-1,1182,1394,0,0
-35,-370,0,0,0,0,0,0,0,0,0,-1,1189,1394,0,0
-28,-370,0,0,0,0,0,0,0,0,0,-1,1196,1394,0,0
-21,-370,0,0,0,0,0,0,0,0,0,-1,1203,1394,0,0
-14,-370,0,0,0,0,0,0,0,0,0,-1,1210,1394,0,0
-7,-370,0,0,0,0,0,0,0,0,0,-1,1217,1394,0,0
0,-370,0,0,0,0,0,0,0,0,0,-1,1224,1394,0,0
7,-370,0,0,0,0,0,0,0,0,0,-1,1231,1394,0,0
14,-370,0,0,0,0,0,0,0,0,0,-1,1238,1394,0,0
21,-370,0,0,0,0,0,0,0,0,0,-1,1245,1394,0,0
28,-370,0,0,0,0,0,0,0,0,0,-1,1252,1394,0,0
35,-370,0,0,0,0,0,0,0,0,0,-1,1259,1394,0,0
42,-370,0,0,0,0,0,0,0,0,0,-1,1266,1394,0,0
49,-370,0,0,0,0,0,0,0,0,0,-1,1273,1394,0,0
56,-370,0,0,0,0,0,0,0,0,0,-1,1280,1394,0,0
63,-370,0,0,0,0,0,0,0,0,0,-1,1287,1394,0,0
70,-370,0,0,0,0,0,0,0,0,0,-1,1294,1394,0,0
77,-370,0,0,0,0,0,0,0,0,0,-1,1301,1394,0,0
84,-370,0,0,0,0,0,0,0,0,0,-1,1308,1394,0,0
91,-370,0,0,0,0,0,0,0,0,0,-1,1315,1394,0,0
98,-370,0,0,0,0,0,0,0,0,0,-1,1322,1394,0,0
105,-370,0,0,0,0,0,0,0,0,0,-1,1329,1394,0,0
112,-370,0,0,0,0,0,0,0,0,0,-1,1336,1394,0,0
119,-370,0,0,0,0,0,0,0,0,0,-1,1343,1394,0,0
126,-370,0,0,0,0,0,0,0,0,0,-1,1350,1394,0,0
133,-370,0,0,0,0,0,0,0,0,0,-1,1357,1394,0,0
140,-370,0,0,0,0,0,0,0,0,0,-1,1364,1394,0,0
147,-370,0,0,0,0,0,0,0,0,0,-1,1371,1394,0,0
154,-370,0,0,0,0,0,0,0,0,0,-1,1378,1394,0,0
161,-370,0,0,0,0,0,0,0,0,0,-1,1385,1394,0,0
168,-370,0,0,0,0,0,0,0,0,0,-1,1392,1394,0,0
175,-370,0,0,0,0,0,0,0,0,0,-1,1399,1394,0,0
182,-370,0,0,0,0,0,0,0,0,0,-1,1406,1394,0,0
189,-370,0,0,0,0,0,0,0,0,0,-1,1413,1394,0,0
196,-370,0,0,0,0,0,0,0,0,0,-1,1420,1394,0,0
203,-370,0,0,0,0,0,0,0,0,0,-1,1427,1394,0,0
210,-370,0,0,0,0,0,0,0,0,0,-1,1434,1394,0,0
217,-370,0,0,0,0,0,0,0,0,0,-1,1441,1394,0,0
224,-370,0,0,0,0,0,0,0,0,0,-1,1448,1394,0,0
231,-370,0,0,0,0,0,0,0,0,0,-1,1455,1394,0,0
238,-370,0,0,0,0,0,0,0,0,0,-1,1462,1394,0,0
245,-370,0,0,0,0,0,0,0,0,0,-1,1469,1394,0,0
252,-370,0,0,0,0,0,0,0,0,0,-1,1476,1394,0,0
259,-370,0,0,0,0,0,0,0,0,0,-1,1483,1394,0,0
266,-370,0,0,0,0,0,0,0,0,0,-1,1490,1394,0,0
273,-370,0,0,0,0,0,0,0,0,0,-1,1497,1394,0,0
280,-370,0,0,0,0,0,0,0,0,0,-1,1504,1394,0,0
287,-370,0,0,0,0,0,0,0,0,0,-1,1511,1394,0,0
294,-370,0,0,0,0,0,0,0,0,0,-1,1518,1394,0,0
301,-370,0,0,0,0,0,0,0,0,0,-1,1525,1394,0,0
308,-370,0,0,0,0,0,0,0,0,0,-1,1532,1394,0,0
315,-370,0,0,0,0,0,0,0,0,0,-1,1539,1394,0,0
322,-370,0,0,0,0,0,0,0,0,0,-1,1546,1394,0,0
329,-370,0,0,0,0,0,0,0,0,0,-1,1553,1394,0,0
336,-370,0,0,0,0,0,0,0,0,0,-1,1560,1394,0,0
343,-370,0,0,0,0,0,0,0,0,0,-1,1567,1394,0,0
350,-370,0,0,0,0,0,0,0,0,0,-1,1574,1394,0,0
357,-370,0,0,0,0,0,0,0,0,0,-1,1581,1394,0,0
364,-370,0,0,0,0,0,0,0,0,0,-1,1588,1394,0,0
371,-370,0,0,0,0,0,0,0,0,0,-1,1595,1394,0,0
378,-370,0,0,0,0,0,0,0,0,0,-1,1602,1394,0,0
385,-370,0,0,0,0,0,0,0,0,0,-1,1609,1394,0,0
392,-370,0,0,0,0,0,0,0,0,0,-1,1616,1394,0,0
399,-370,0,0,0,0,0,0,0,0,0,-1,1623,1394,0,0
406,-370,0,0,0,0,0,0,0,0,0,-1,1630,1394,0,0
413,-370,0,0,0,0,0,0,0,0,0,-1,1637,1394,0,0
420,-370,0,0,0,0,0,0,0,0,0,-1,1644,1394,0,0
427,-370,0,0,0,0,0,0,0,0,0,-1,1651,1394,0,0
434,-370,0,0,0,0,0,0,0,0,0,-1,1658,1394,0,0
441,-370,0,0,0,0,0,0,0,0,0,-1,1665,1394,0,0
448,-370,0,0,0,0,0,0,0,0,0,-1,1672,1394,0,0
455,-370,0,0,0,0,0,0,0,0,0,-1,1679,1394,0,0
462,-370,0,0,0,0,0,0,0,0,0,-1,1686,1394,0,0
469,-370,0,0,0,0,0,0,0,0,0,-1,1693,1394,0,0
476,-370,0,0,0,0,0,0,0,0,0,-1,1700,1394,0,0
483,-370,0,0,0,0,0,0,0,0,0,-1,1707,1394,0,0
490,-370,0,0,0,0,0,0,0,0,0,-1,1714,1394,0,0
497,-370,0,0,0,0,0,0,0,0,0,-1,1721,1394,0,0
504,-370,0,0,0,0,0,0,0,0,0,-1,1728,1394,0,0
511,-370,0,0,0,0,0,0,0,0,0,-1,1735,1394,0,0
518,-370,0,0,0,0,0,0,0,0,0,-1,1742,1394,0,0
525,-370,0,0,0,0,0,0,0,0,0,-1,1749,1394,0,0
532,-370,0,0,0,0,0,0,0,0,0,-1,1756,1394,0,0
539,-370,0,0,0,0,0,0,0,0,0,-1,1763,1394,0,0
546,-370,60.9257,3.80493,0,0,0,0,0,0,0,-1,1770,1394,60.9256,-3.80494
553,-370,61.9966,2.87524,0,0,0,0,0,0,0,-1,1777,1394,61.9966,-2.8753
560,-370,63.1577,1.82617,0,0,0,0,0,0,0,-1,1784,1394,63.1578,-1.82617
567,-370,46.1089,3.11719,0,0,0,0,0,0,0,-1,1791,1394,46.1089,-3.1172
574,-370,38.8953,1.49353,0,0,0,0,0,0,0,-1,1798,1394,38.8952,-1.49348
581,-370,39.178,2.86145,0,0,0,0,0,0,0,-1,1805,1394,39.1779,-2.86145
588,-370,39.2102,4.27661,0,0,0,0,0,0,0,-1,1812,1394,39.2102,-4.27657
595,-370,25.793,4.5271,0,0,0,0,0,0,0,-1,1819,1394,25.793,-4.52711
602,-370,25.1077,5.34937,0,0,0,0,0,0,0,-1,1826,1394,25.1077,-5.34932
609,-370,16.712,0.993286,0,0,0,0,0,0,0,-1,1833,1394,16.7121,-0.99323
616,-370,16.7764,7.23315,0,0,0,0,0,0,0,-1,1840,1394,16.7764,-7.23313
623,-370,17.6625,8.94263,0,0,0,0,0,0,0,-1,1847,1394,17.6624,-8.94258
630,-370,20.9681,11.1785,0,0,0,0,0,0,0,-1,1854,1394,20.9681,-11.1784
637,-370,91.8469,61.3878,0,0,0,0,0,0,0,-1,1861,1394,91.847,-61.3879
644,-370,152.68,67.9153,0,0,0,0,0,0,0,-1,1868,1394,152.68,-67.9153
651,-370,151.839,65.4955,0,0,0,0,0,0,0,-1,1875,1394,151.839,-65.4955
658,-370,151.212,62.5797,-0.00291928,0.011861,0.0152397,0.0214079,-0.0124662,1.01116,0.019783,0.038779,1882,1394,151.212,-62.5797
665,-370,150.648,59.6511,-0.00291372,0.0163662,0.0178971,0.0270544,-0.0136019,1.03244,0.0238974,0.0219732,1889,1394,150.648,-59.6511
672,-370,150.017,56.9004,-0.0027982,0.020622,0.0206044,0.0326114,-0.0147876,1.0438,0.0280033,0.0223791,1896,1394,150.017,-56.9004
679,-370,149.423,54.2722,-0.00255064,0.0247293,0.0233199,0.0381053,-0.0159267,1.05002,0.0320594,0.020224,1903,1394,149.423,-54.2722
686,-370,148.881,51.6848,-0.00210804,0.0287143,0.0260562,0.0435757,-0.0169695,1.05246,0.0360633,0.0220525,1910,1394,148.881,-51.6848
693,-370,148.345,49.0551,-0.00167598,0.032611,0.0288755,0.0490486,-0.0181136,1.05329,0.0401238,0.0230595,1917,1394,148.345,-49.055
700,-370,147.881,46.3712,0,0,0,0,0,0,0,-1,1924,1394,147.881,-46.3713
707,-370,39.2391,11.5549,0,0,0,0,0,0,0,-1,1931,1394,39.2392,-11.555
714,-370,16.9116,5.93018,0,0,0,0,0,0,0,-1,1938,1394,16.9116,-5.93014
721,-370,17.2007,4.69153,0,0,0,0,0,0,0,-1,1945,1394,17.2007,-4.69158
728,-370,20.5315,-0.313354,0,0,0,0,0,0,0,-1,1952,1394,20.5315,0.313332
735,-370,22.3652,0.233398,0,0,0,0,0,0,0,-1,1959,1394,22.3652,-0.233355
742,-370,24.1989,0.780029,0,0,0,0,0,0,0,-1,1966,1394,24.1989,-0.780041
749,-370,0,0,0,0,0,0,0,0,0,-1,1973,1394,0,0
756,-370,0,0,0,0,0,0,0,0,0,-1,1980,1394,0,0
763,-370,0,0,0,0,0,0,0,0,0,-1,1987,1394,0,0
770,-370,0,0,0,0,0,0,0,0,0,-1,1994,1394,0,0
777,-370,0,0,0,0,0,0,0,0,0,-1,2001,1394,0,0
784,-370,0,0,0,0,0,0,0,0,0,-1,2008,1394,0,0
791,-370,0,0,0,0,0,0,0,0,0,-1,2015,1394,0,0
798,-370,0,0,0,0,0,0,0,0,0,-1,2022,1394,0,0
805,-370,0,0,0,0,0,0,0,0,0,-1,2029,1394,0,0
812,-370,0,0,0,0,0,0,0,0,0,-1,2036,1394,0,0
-700,-377,0,0,0,0,0,0,0,0,0,-1,524,1401,0,0
-693,-377,0,0,0,0,0,0,0,0,0,-1,531,1401,0,0
-686,-377,0,0,0,0,0,0,0,0,0,-1,538,1401,0,0
-679,-377,0,0,0,0,0,0,0,0,0,-1,545,1401,0,0
-672,-377,0,0,0,0,0,0,0,0,0,-1,552,1401,0,0
-665,-377,0,0,0,0,0,0,0,0,0,-1,559,1401,0,0
-658,-377,0,0,0,0,0,0,0,0,0,-1,566,1401,0,0
-651,-377,0,0,0,0,0,0,0,0,0,-1,573,1401,0,0
-644,-377,0,0,0,0,0,0,0,0,0,-1,580,1401,0,0
-637,-377,0,0,0,0,0,0,0,0,0,-1,587,1401,0,0
-630,-377,0,0,0,0,0,0,0,0,0,-1,594,1401,0,0
-623,-377,0,0,0,0,0,0,0,0,0,-1,601,1401,0,0
-616,-377,-9.43915,-2.4906,0,0,0,0,0,0,0,-1,608,1401,-9.43915,2.49062
-609,-377,-7.2821,-1.35278,0,0,0,0,0,0,0,-1,615,1401,-7.28208,1.35279
-602,-377,-14.9736,3.98279,0,0,0,0,0,0,0,-1,622,1401,-14.9737,-3.98276
-595,-377,-6.9082,1.18201,0,0,0,0,0,0,0,-1,629,1401,-6.90822,-1.18204
-588,-377,-12.8003,3.44751,0,0,0,0,0,0,0,-1,636,1401,-12.8003,-3.44754
-581,-377,-11.8243,6.21521,0,0,0,0,0,0,0,-1,643,1401,-11.8244,-6.21519
-574,-377,-12.2761,6.60547,0,0,0,0,0,0,0,-1,650,1401,-12.2761,-6.60552
-567,-377,-13.4844,7.41931,0,0,0,0,0,0,0,-1,657,1401,-13.4845,-7.41926
-560,-377,-139.265,46.2697,0,0,0,0,0,0,0,-1,664,1401,-139.265,-46.2697
-553,-377,-139.719,49.2406,0.0112817,0.0471821,-0.0230536,0.0584496,1.41822e-05,-1.11618,0.0389617,0.0277829,671,1401,-139.719,-49.2406
-546,-377,-140.197,51.9502,0.00907122,0.0411791,-0.0230155,0.0531866,-0.00293622,-1.08993,0.0364759,0.0238135,678,1401,-140.197,-51.9501
-539,-377,-140.652,54.5614,0.00854586,0.0359732,-0.021843,0.0480506,-0.00353155,-1.06571,0.0332734,0.0262665,685,1401,-140.652,-54.5614
-532,-377,-141.186,57.4146,0.00871427,0.0311499,-0.0201153,0.0429639,-0.00309974,-1.03976,0.0297298,0.0325325,692,1401,-141.186,-57.4146
-525,-377,-141.649,60.2163,0,0,0,0,0,0,0,-1,699,1401,-141.649,-60.2163
-518,-377,-140.403,63.2822,0,0,0,0,0,0,0,-1,706,1401,-140.403,-63.2822
-511,-377,-140.838,65.8633,0,0,0,0,0,0,0,-1,713,1401,-140.838,-65.8633
-504,-377,-127.546,70.9412,0,0,0,0,0,0,0,-1,720,1401,-127.546,-70.9412
-497,-377,-84.5035,65.3524,0,0,0,0,0,0,0,-1,727,1401,-84.5036,-65.3525
-490,-377,-8.88409,10.1245,0,0,0,0,0,0,0,-1,734,1401,-8.8841,-10.1245
-483,-377,-5.6524,5.07324,0,0,0,0,0,0,0,-1,741,1401,-5.6524,-5.07325
-476,-377,-6.11682,5.10535,0,0,0,0,0,0,0,-1,748,1401,-6.11681,-5.10537
-469,-377,-10.3211,1.9281,0,0,0,0,0,0,0,-1,755,1401,-10.3211,-1.92808
-462,-377,-9.2204,1.0022,0,0,0,0,0,0,0,-1,762,1401,-9.22039,-1.00218
-455,-377,-8.11969,0.0762939,0,0,0,0,0,0,0,-1,769,1401,-8.11968,-0.0762759
-448,-377,-9.05334,0.877319,0,0,0,0,0,0,0,-1,776,1401,-9.05332,-0.877324
-441,-377,-11.212,0.763428,0,0,0,0,0,0,0,-1,783,1401,-11.212,-0.763415
-434,-377,-11.0984,0.996216,0,0,0,0,0,0,0,-1,790,1401,-11.0984,-0.996265
-427,-377,-11.1733,1.25732,0,0,0,0,0,0,0,-1,797,1401,-11.1733,-1.25732
-420,-377,0,0,0,0,0,0,0,0,0,-1,804,1401,0,0
-413,-377,0,0,0,0,0,0,0,0,0,-1,811,1401,0,0
-406,-377,0,0,0,0,0,0,0,0,0,-1,818,1401,0,0
-399,-377,0,0,0,0,0,0,0,0,0,-1,825,1401,0,0
-392,-377,0,0,0,0,0,0,0,0,0,-1,832,1401,0,0
-385,-377,0,0,0,0,0,0,0,0,0,-1,839,1401,0,0
-378,-377,0,0,0,0,0,0,0,0,0,-1,846,1401,0,0
-371,-377,0,0,0,0,0,0,0,0,0,-1,853,1401,0,0
-364,-377,0,0,0,0,0,0,0,0,0,-1,860,1401,0,0
-357,-377,0,0,0,0,0,0,0,0,0,-1,867,1401,0,0
-350,-377,0,0,0,0,0,0,0,0,0,-1,874,1401,0,0
-343,-377,0,0,0,0,0,0,0,0,0,-1,881,1401,0,0
-336,-377,0,0,0,0,0,0,0,0,0,-1,888,1401,0,0
-329,-377,0,0,0,0,0,0,0,0,0,-1,895,1401,0,0
-322,-377,0,0,0,0,0,0,0,0,0,-1,902,1401,0,0
-315,-377,0,0,0,0,0,0,0,0,0,-1,909,1401,0,0
-308,-377,0,0,0,0,0,0,0,0,0,-1,916,1401,0,0
-301,-377,0,0,0,0,0,0,0,0,0,-1,923,1401,0,0
-294,-377,0,0,0,0,0,0,0,0,0,-1,930,1401,0,0
-287,-377,0,0,0,0,0,0,0,0,0,-1,937,1401,0,0
-280,-377,0,0,0,0,0,0,0,0,0,-1,944,1401,0,0
-273,-377,0,0,0,0,0,0,0,0,0,-1,951,1401,0,0
-266,-377,0,0,0,0,0,0,0,0,0,-1,958,1401,0,0
-259,-377,0,0,0,0,0,0,0,0,0,-1,965,1401,0,0
-252,-377,0,0,0,0,0,0,0,0,0,-1,972,1401,0,0
-245,-377,0,0,0,0,0,0,0,0,0,-1,979,1401,0,0
-238,-377,0,0,0,0,0,0,0,0,0,-1,986,1401,0,0
-231,-377,0,0,0,0,0,0,0,0,0,-1,993,1401,0,0
-224,-377,0,0,0,0,0,0,0,0,0,-1,1000,1401,0,0
-217,-377,0,0,0,0,0,0,0,0,0,-1,1007,1401,0,0
-210,-377,0,0,0,0,0,0,0,0,0,-1,1014,1401,0,0
-203,-377,0,0,0,0,0,0,0,0,0,-1,1021,1401,0,0
-196,-377,0,0,0,0,0,0,0,0,0,-1,1028,1401,0,0
-189,-377,0,0,0,0,0,0,0,0,0,-1,1035,1401,0,0
-182,-377,0,0,0,0,0,0,0,0,0,-1,1042,1401,0,0
-175,-377,0,0,0,0,0,0,0,0,0,-1,1049,1401,0,0
-168,-377,0,0,0,0,0,0,0,0,0,-1,1056,1401,0,0
-161,-377,0,0,0,0,0,0,0,0,0,-1,1063,1401,0,0
-154,-377,0,0,0,0,0,0,0,0,0,-1,1070,1401,0,0
-147,-377,0,0,0,0,0,0,0,0,0,-1,1077,1401,0,0
-140,-377,0,0,0,0,0,0,0,0,0,-1,1084,1401,0,0
-133,-377,0,0,0,0,0,0,0,0,0,-1,1091,1401,0,0
-126,-377,0,0,0,0,0,0,0,0,0,-1,1098,1401,0,0
-119,-377,0,0,0,0,0,0,0,0,0,-1,1105,1401,0,0
-112,-377,0,0,0,0,0,0,0,0,0,-1,1112,1401,0,0
-105,-377,0,0,0,0,0,0,0,0,0,-1,1119,1401,0,0
-98,-377,0,0,0,0,0,0,0,0,0,-1,1126,1401,0,0
-91,-377,0,0,0,0,0,0,0,0,0,-1,1133,1401,0,0
-84,-377,0,0,0,0,0,0,0,0,0,-1,1140,1401,0,0
-77,-377,0,0,0,0,0,0,0,0,0,-1,1147,1401,0,0
-70,-377,0,0,0,0,0,0,0,0,0,-1,1154,1401,0,0
-63,-377,0,0,0,0,0,0,0,0,0,-1,1161,1401,0,0
-56,-377,0,0,0,0,0,0,0,0,0,-1,1168,1401,0,0
-49,-377,0,0,0,0,0,0,0,0,0,-1,1175,1401,0,0
-42,-377,0,0,0,0,0,0,0,0,0,-1,1182,1401,0,0
-35,-377,0,0,0,0,0,0,0,0,0,-1,1189,1401,0,0
-28,-377,0,0,0,0,0,0,0,0,0,-1,1196,1401,0,0
-21,-377,0,0,0,0,0,0,0,0,0,-1,1203,1401,0,0
-14,-377,0,0,0,0,0,0,0,0,0,-1,1210,1401,0,0
-7,-377,0,0,0,0,0,0,0,0,0,-1,1217,1401,0,0
0,-377,0,0,0,0,0,0,0,0,0,-1,1224,1401,0,0
7,-377,0,0,0,0,0,0,0,0,0,-1,1231,1401,0,0
14,-377,0,0,0,0,0,0,0,0,0,-1,1238,1401,0,0
21,-377,0,0,0,0,0,0,0,0,0,-1,1245,1401,0,0
28,-377,0,0,0,0,0,0,0,0,0,-1,1252,1401,0,0
35,-377,0,0,0,0,0,0,0,0,0,-1,1259,1401,0,0
42,-377,0,0,0,0,0,0,0,0,0,-1,1266,1401,0,0
49,-377,0,0,0,0,0,0,0,0,0,-1,1273,1401,0,0
56,-377,0,0,0,0,0,0,0,0,0,-1,1280,1401,0,0
63,-377,0,0,0,0,0,0,0,0,0,-1,1287,1401,0,0
70,-377,0,0,0,0,0,0,0,0,0,-1,1294,1401,0,0
77,-377,0,0,0,0,0,0,0,0,0,-1,1301,1401,0,0
84,-377,0,0,0,0,0,0,0,0,0,-1,1308,1401,0,0
91,-377,0,0,0,0,0,0,0,0,0,-1,1315,1401,0,0
98,-377,0,0,0,0,0,0,0,0,0,-1,1322,1401,0,0
105,-377,0,0,0,0,0,0,0,0,0,-1,1329,1401,0,0
112,-377,0,0,0,0,0,0,0,0,0,-1,1336,1401,0,0
119,-377,0,0,0,0,0,0,0,0,0,-1,1343,1401,0,0
126,-377,0,0,0,0,0,0,0,0,0,-1,1350,1401,0,0
133,-377,0,0,0,0,0,0,0,0,0,-1,1357,1401,0,0
140,-377,0,0,0,0,0,0,0,0,0,-1,1364,1401,0,0
147,-377,0,0,0,0,0,0,0,0,0,-1,1371,1401,0,0
154,-377,0,0,0,0,0,0,0,0,0,-1,1378,1401,0,0
161,-377,0,0,0,0,0,0,0,0,0,-1,1385,1401,0,0
168,-377,0,0,0,0,0,0,0,0,0,-1,1392,1401,0,0
175,-377,0,0,0,0,0,0,0,0,0,-1,1399,1401,0,0
182,-377,0,0,0,0,0,0,0,0,0,-1,1406,1401,0,0
189,-377,0,0,0,0,0,0,0,0,0,-1,1413,1401,0,0
196,-377,0,0,0,0,0,0,0,0,0,-1,1420,1401,0,0
203,-377,0,0,0,0,0,0,0,0,0,-1,1427,1401,0,0
210,-377,0,0,0,0,0,0,0,0,0,-1,1434,1401,0,0
217,-377,0,0,0,0,0,0,0,0,0,-1,1441,1401,0,0
224,-377,0,0,0,0,0,0,0,0,0,-1,1448,1401,0,0
231,-377,0,0,0,0,0,0,0,0,0,-1,1455,1401,0,0
238,-377,0,0,0,0,0,0,0,0,0,-1,1462,1401,0,0
245,-377,0,0,0,0,0,0,0,0,0,-1,1469,1401,0,0
252,-377,0,0,0,0,0,0,0,0,0,-1,1476,1401,0,0
259,-377,0,0,0,0,0,0,0,0,0,-1,1483,1401,0,0
266,-377,0,0,0,0,0,0,0,0,0,-1,1490,1401,0,0
273,-377,0,0,0,0,0,0,0,0,0,-1,1497,1401,0,0
280,-377,0,0,0,0,0,0,0,0,0,-1,1504,1401,0,0
287,-377,0,0,0,0,0,0,0,0,0,-1,1511,1401,0,0
294,-377,0,0,0,0,0,0,0,0,0,-1,1518,1401,0,0
301,-377,0,0,0,0,0,0,0,0,0,-1,1525,1401,0,0
308,-377,0,0,0,0,0,0,0,0,0,-1,1532,1401,0,0
315,-377,0,0,0,0,0,0,0,0,0,-1,1539,1401,0,0
322,-377,0,0,0,0,0,0,0,0,0,-1,1546,1401,0,0
329,-377,0,0,0,0,0,0,0,0,0,-1,1553,1401,0,0
336,-377,0,0,0,0,0,0,0,0,0,-1,1560,1401,0,0
343,-377,0,0,0,0,0,0,0,0,0,-1,1567,1401,0,0
350,-377,0,0,0,0,0,0,0,0,0,-1,1574,1401,0,0
357,-377,0,0,0,0,0,0,0,0,0,-1,1581,1401,0,0
364,-377,0,0,0,0,0,0,0,0,0,-1,1588,1401,0,0
371,-377,0,0,0,0,0,0,0,0,0,-1,1595,1401,0,0
378,-377,0,0,0,0,0,0,0,0,0,-1,1602,1401,0,0
385,-377,0,0,0,0,0,0,0,0,0,-1,1609,1401,0,0
392,-377,0,0,0,0,0,0,0,0,0,-1,1616,1401,0,0
399,-377,0,0,0,0,0,0,0,0,0,-1,1623,1401,0,0
406,-377,0,0,0,0,0,0,0,0,0,-1,1630,1401,0,0
413,-377,0,0,0,0,0,0,0,0,0,-1,1637,1401,0,0
420,-377,0,0,0,0,0,0,0,0,0,-1,1644,1401,0,0
427,-377,0,0,0,0,0,0,0,0,0,-1,1651,1401,0,0
434,-377,0,0,0,0,0,0,0,0,0,-1,1658,1401,0,0
441,-377,0,0,0,0,0,0,0,0,0,-1,1665,1401,0,0
448,-377,0,0,0,0,0,0,0,0,0,-1,1672,1401,0,0
455,-377,0,0,0,0,0,0,0,0,0,-1,1679,1401,0,0
462,-377,0,0,0,0,0,0,0,0,0,-1,1686,1401,0,0
469,-377,0,0,0,0,0,0,0,0,0,-1,1693,1401,0,0
476,-377,0,0,0,0,0,0,0,0,0,-1,1700,1401,0,0
483,-377,0,0,0,0,0,0,0,0,0,-1,1707,1401,0,0
490,-377,0,0,0,0,0,0,0,0,0,-1,1714,1401,0,0
497,-377,0,0,0,0,0,0,0,0,0,-1,1721,1401,0,0
504,-377,0,0,0,0,0,0,0,0,0,-1,1728,1401,0,0
511,-377,0,0,0,0,0,0,0,0,0,-1,1735,1401,0,0
518,-377,0,0,0,0,0,0,0,0,0,-1,1742,1401,0,0
525,-377,0,0,0,0,0,0,0,0,0,-1,1749,1401,0,0
532,-377,0,0,0,0,0,0,0,0,0,-1,1756,1401,0,0
539,-377,0,0,0,0,0,0,0,0,0,-1,1763,1401,0,0
546,-377,27.8485,2.34094,0,0,0,0,0,0,0,-1,1770,1401,27.8486,-2.34091
553,-377,61.8907,2.39148,0,0,0,0,0,0,0,-1,1777,1401,61.8908,-2.39149
560,-377,38.3577,-2.15015,0,0,0,0,0,0,0,-1,1784,1401,38.3576,2.1501
567,-377,38.4889,-0.285645,0,0,0,0,0,0,0,-1,1791,1401,38.4889,0.2857
574,-377,38.6221,1.61694,0,0,0,0,0,0,0,-1,1798,1401,38.6221,-1.61689
581,-377,39.1818,3.76367,0,0,0,0,0,0,0,-1,1805,1401,39.1818,-3.76366
588,-377,25.882,4.35217,0,0,0,0,0,0,0,-1,1812,1401,25.8819,-4.3522
595,-377,25.5392,5.11804,0,0,0,0,0,0,0,-1,1819,1401,25.5392,-5.11808
602,-377,24.816,5.79126,0,0,0,0,0,0,0,-1,1826,1401,24.816,-5.79124
609,-377,15.0223,4.76135,0,0,0,0,0,0,0,-1,1833,1401,15.0224,-4.76129
616,-377,14.1842,5.78992,0,0,0,0,0,0,0,-1,1840,1401,14.1842,-5.78987
623,-377,15.8248,8.76721,0,0,0,0,0,0,0,-1,1847,1401,15.8248,-8.76725
630,-377,37.4343,20.0704,0,0,0,0,0,0,0,-1,1854,1401,37.4344,-20.0704
637,-377,150.133,71.6489,0,0,0,0,0,0,0,-1,1861,1401,150.133,-71.6489
644,-377,149.515,68.6563,-0.00657069,0.00199231,0.0144265,0.0127593,-0.0173376,0.929648,0.0174433,0.0423906,1868,1401,149.515,-68.6562
651,-377,148.861,65.7417,-0.00470546,0.00807701,0.0158955,0.0188181,-0.0154465,0.976546,0.0198146,0.0248484,1875,1401,148.861,-65.7417
658,-377,148.185,62.9872,-0.00346394,0.0134312,0.0178671,0.0247471,-0.0147798,1.00622,0.0230615,0.0213471,1882,1401,148.185,-62.9872
665,-377,147.664,60.1689,-0.00242242,0.0183219,0.0200511,0.0305247,-0.0146252,1.02409,0.0266006,0.027075,1889,1401,147.664,-60.1689
672,-377,147.074,57.4349,-0.00191003,0.0227475,0.0225443,0.036114,-0.0152765,1.03562,0.0304725,0.0295917,1896,1401,147.074,-57.435
679,-377,146.427,54.7762,-0.00160572,0.0268491,0.0252061,0.0415659,-0.0163225,1.04233,0.0344649,0.0252656,1903,1401,146.427,-54.7763
686,-377,145.902,52.1896,-0.00114679,0.0306799,0.0279889,0.046963,-0.0174299,1.04389,0.0384586,0.0230195,1910,1401,145.902,-52.1896
693,-377,145.439,49.5088,0,0,0,0,0,0,0,-1,1917,1401,145.439,-49.5088
700,-377,69.8997,32.8438,0,0,0,0,0,0,0,-1,1924,1401,69.8996,-32.8438
707,-377,28.6234,9.18152,0,0,0,0,0,0,0,-1,1931,1401,28.6234,-9.18151
714,-377,16.5369,5.45959,0,0,0,0,0,0,0,-1,1938,1401,16.5369,-5.4596
721,-377,17.0913,5.42529,0,0,0,0,0,0,0,-1,1945,1401,17.0914,-5.42529
728,-377,14.5396,2.79724,0,0,0,0,0,0,0,-1,1952,1401,14.5396,-2.7972
735,-377,23.2977,-0.991089,0,0,0,0,0,0,0,-1,1959,1401,23.2978,0.991076
742,-377,0,0,0,0,0,0,0,0,0,-1,1966,1401,0,0
749,-377,0,0,0,0,0,0,0,0,0,-1,1973,1401,0,0
756,-377,0,0,0,0,0,0,0,0,0,-1,1980,1401,0,0
763,-377,0,0,0,0,0,0,0,0,0,-1,1987,1401,0,0
770,-377,0,0,0,0,0,0,0,0,0,-1,1994,1401,0,0
777,-377,0,0,0,0,0,0,0,0,0,-1,2001,1401,0,0
784,-377,0,0,0,0,0,0,0,0,0,-1,2008,1401,0,0
791,-377,0,0,0,0,0,0,0,0,0,-1,2015,1401,0,0
798,-377,0,0,0,0,0,0,0,0,0,-1,2022,1401,0,0
805,-377,0,0,0,0,0,0,0,0,0,-1,2029,1401,0,0
812,-377,0,0,0,0,0,0,0,0,0,-1,2036,1401,0,0
-700,-384,0,0,0,0,0,0,0,0,0,-1,524,1408,0,0
-693,-384,0,0,0,0,0,0,0,0,0,-1,531,1408,0,0
-686,-384,0,0,0,0,0,0,0,0,0,-1,538,1408,0,0
-679,-384,0,0,0,0,0,0,0,0,0,-1,545,1408,0,0
-672,-384,0,0,0,0,0,0,0,0,0,-1,552,1408,0,0
-665,-384,0,0,0,0,0,0,0,0,0,-1,559,1408,0,0
-658,-384,0,0,0,0,0,0,0,0,0,-1,566,1408,0,0
-651,-384,0,0,0,0,0,0,0,0,0,-1,573,1408,0,0
-644,-384,0,0,0,0,0,0,0,0,0,-1,580,1408,0,0
-637,-384,0,0,0,0,0,0,0,0,0,-1,587,1408,0,0
-630,-384,0,0,0,0,0,0,0,0,0,-1,594,1408,0,0
-623,-384,0,0,0,0,0,0,0,0,0,-1,601,1408,0,0
-616,-384,-10.019,-3.36646,0,0,0,0,0,0,0,-1,608,1408,-10.019,3.36648
-609,-384,-7.72357,-2.3418,0,0,0,0,0,0,0,-1,615,1408,-7.72358,2.34182
-602,-384,-11.7632,-2.85156,0,0,0,0,0,0,0,-1,622,1408,-11.7632,2.85157
-595,-384,-10.2217,2.8855,0,0,0,0,0,0,0,-1,629,1408,-10.2218,-2.88548
-588,-384,-12.1653,2.29041,0,0,0,0,0,0,0,-1,636,1408,-12.1654,-2.29038
-581,-384,-11.9297,3.60376,0,0,0,0,0,0,0,-1,643,1408,-11.9298,-3.6038
-574,-384,-11.8677,6.02722,0,0,0,0,0,0,0,-1,650,1408,-11.8677,-6.02722
-567,-384,-12.0743,7.04639,0,0,0,0,0,0,0,-1,657,1408,-12.0743,-7.04641
-560,-384,-19.9478,11.6345,0,0,0,0,0,0,0,-1,664,1408,-19.9478,-11.6345
-553,-384,-136.646,49.551,0,0,0,0,0,0,0,-1,671,1408,-136.646,-49.5511
-546,-384,-137.191,52.3721,0.00919813,0.0439428,-0.0246936,0.0567627,-0.0036218,-1.09194,0.039105,0.0210186,678,1408,-137.191,-52.3721
-539,-384,-137.67,55.011,0.00875363,0.0386388,-0.0235164,0.0515584,-0.00416599,-1.06842,0.0358417,0.0225024,685,1408,-137.67,-55.011
-532,-384,-138.133,57.6826,0.00887292,0.0337747,-0.0217208,0.0463602,-0.00371255,-1.04565,0.0322157,0.0302968,692,1408,-138.133,-57.6826
-525,-384,-138.832,60.5021,0.00956621,0.0292724,-0.0193344,0.0411196,-0.002281,-1.02105,0.0282041,0.0353484,699,1408,-138.832,-60.5021
-518,-384,-139.352,63.657,0,0,0,0,0,0,0,-1,706,1408,-139.352,-63.657
-511,-384,-137.832,66.4292,0,0,0,0,0,0,0,-1,713,1408,-137.832,-66.4291
-504,-384,-136.673,69.4513,0,0,0,0,0,0,0,-1,720,1408,-136.673,-69.4513
-497,-384,-95.1385,71.2412,0,0,0,0,0,0,0,-1,727,1408,-95.1386,-71.2413
-490,-384,-82.2095,67.7151,0,0,0,0,0,0,0,-1,734,1408,-82.2096,-67.7151
-483,-384,-6.26471,7.61194,0,0,0,0,0,0,0,-1,741,1408,-6.26469,-7.61191
-476,-384,-6.02734,5.67761,0,0,0,0,0,0,0,-1,748,1408,-6.02736,-5.6776
-469,-384,-10.206,2.63721,0,0,0,0,0,0,0,-1,755,1408,-10.206,-2.6372
-462,-384,-9.04291,1.43542,0,0,0,0,0,0,0,-1,762,1408,-9.04293,-1.43545
-455,-384,-7.87988,0.233765,0,0,0,0,0,0,0,-1,769,1408,-7.87986,-0.233709
-448,-384,-9.35529,7.19226,0,0,0,0,0,0,0,-1,776,1408,-9.35531,-7.19226
-441,-384,-10.4697,1.79004,0,0,0,0,0,0,0,-1,783,1408,-10.4697,-1.79003
-434,-384,-10.6449,0.552246,0,0,0,0,0,0,0,-1,790,1408,-10.6449,-0.552216
-427,-384,-10.968,1.10583,0,0,0,0,0,0,0,-1,797,1408,-10.968,-1.10588
-420,-384,-12.5607,4.54858,0,0,0,0,0,0,0,-1,804,1408,-12.5607,-4.54859
-413,-384,0,0,0,0,0,0,0,0,0,-1,811,1408,0,0
-406,-384,0,0,0,0,0,0,0,0,0,-1,818,1408,0,0
-399,-384,0,0,0,0,0,0,0,0,0,-1,825,1408,0,0
-392,-384,0,0,0,0,0,0,0,0,0,-1,832,1408,0,0
-385,-384,0,0,0,0,0,0,0,0,0,-1,839,1408,0,0
-378,-384,0,0,0,0,0,0,0,0,0,-1,846,1408,0,0
-371,-384,0,0,0,0,0,0,0,0,0,-1,853,1408,0,0
-364,-384,0,0,0,0,0,0,0,0,0,-1,860,1408,0,0
-357,-384,0,0,0,0,0,0,0,0,0,-1,867,1408,0,0
-350,-384,0,0,0,0,0,0,0,0,0,-1,874,1408,0,0
-343,-384,0,0,0,0,0,0,0,0,0,-1,881,1408,0,0
-336,-384,0,0,0,0,0,0,0,0,0,-1,888,1408,0,0
-329,-384,0,0,0,0,0,0,0,0,0,-1,895,1408,0,0
-322,-384,0,0,0,0,0,0,0,0,0,-1,902,1408,0,0
-315,-384,0,0,0,0,0,0,0,0,0,-1,909,1408,0,0
-308,-384,0,0,0,0,0,0,0,0,0,-1,916,1408,0,0
-301,-384,0,0,0,0,0,0,0,0,0,-1,923,1408,0,0
-294,-384,0,0,0,0,0,0,0,0,0,-1,930,1408,0,0
-287,-384,0,0,0,0,0,0,0,0,0,-1,937,1408,0,0
-280,-384,0,0,0,0,0,0,0,0,0,-1,944,1408,0,0
-273,-384,0,0,0,0,0,0,0,0,0,-1,951,1408,0,0
-266,-384,0,0,0,0,0,0,0,0,0,-1,958,1408,0,0
-259,-384,0,0,0,0,0,0,0,0,0,-1,965,1408,0,0
-252,-384,0,0,0,0,0,0,0,0,0,-1,972,1408,0,0
-245,-384,0,0,0,0,0,0,0,0,0,-1,979,1408,0,0
-238,-384,0,0,0,0,0,0,0,0,0,-1,986,1408,0,0
-231,-384,0,0,0,0,0,0,0,0,0,-1,993,1408,0,0
-224,-384,0,0,0,0,0,0,0,0,0,-1,1000,1408,0,0
-217,-384,0,0,0,0,0,0,0,0,0,-1,1007,1408,0,0
-210,-384,0,0,0,0,0,0,0,0,0,-1,1014,1408,0,0
-203,-384,0,0,0,0,0,0,0,0,0,-1,1021,1408,0,0
-196,-384,0,0,0,0,0,0,0,0,0,-1,1028,1408,0,0
-189,-384,0,0,0,0,0,0,0,0,0,-1,1035,1408,0,0
-182,-384,0,0,0,0,0,0,0,0,0,-1,1042,1408,0,0
-175,-384,0,0,0,0,0,0,0,0,0,-1,1049,1408,0,0
-168,-384,0,0,0,0,0,0,0,0,0,-1,1056,1408,0,0
-161,-384,0,0,0,0,0,0,0,0,0,-1,1063,1408,0,0
-154,-384,0,0,0,0,0,0,0,0,0,-1,1070,1408,0,0
-147,-384,0,0,0,0,0,0,0,0,0,-1,1077,1408,0,0
-140,-384,0,0,0,0,0,0,0,0,0,-1,1084,1408,0,0
-133,-384,0,0,0,0,0,0,0,0,0,-1,1091,1408,0,0
-126,-384,0,0,0,0,0,0,0,0,0,-1,1098,1408,0,0
-119,-384,0,0,0,0,0,0,0,0,0,-1,1105,1408,0,0
-112,-384,0,0,0,0,0,0,0,0,0,-1,1112,1408,0,0
-105,-384,0,0,0,0,0,0,0,0,0,-1,1119,1408,0,0
-98,-384,0,0,0,0,0,0,0,0,0,-1,1126,1408,0,0
-91,-384,0,0,0,0,0,0,0,0,0,-1,1133,1408,0,0
-84,-384,0,0,0,0,0,0,0,0,0,-1,1140,1408,0,0
-77,-384,0,0,0,0,0,0,0,0,0,-1,1147,1408,0,0
-70,-384,0,0,0,0,0,0,0,0,0,-1,1154,1408,0,0
-63,-384,0,0,0,0,0,0,0,0,0,-1,1161,1408,0,0
-56,-384,0,0,0,0,0,0,0,0,0,-1,1168,1408,0,0
-49,-384,0,0,0,0,0,0,0,0,0,-1,1175,1408,0,0
-42,-384,0,0,0,0,0,0,0,0,0,-1,1182,1408,0,0
-35,-384,0,0,0,0,0,0,0,0,0,-1,1189,1408,0,0
-28,-384,0,0,0,0,0,0,0,0,0,-1,1196,1408,0,0
-21,-384,0,0,0,0,0,0,0,0,0,-1,1203,1408,0,0
-14,-384,0,0,0,0,0,0,0,0,0,-1,1210,1408,0,0
-7,-384,0,0,0,0,0,0,0,0,0,-1,1217,1408,0,0
0,-384,0,0,0,0,0,0,0,0,0,-1,1224,1408,0,0
7,-384,0,0,0,0,0,0,0,0,0,-1,1231,1408,0,0
14,-384,0,0,0,0,0,0,0,0,0,-1,1238,1408,0,0
21,-384,0,0,0,0,0,0,0,0,0,-1,1245,1408,0,0
28,-384,0,0,0,0,0,0,0,0,0,-1,1252,1408,0,0
35,-384,0,0,0,0,0,0,0,0,0,-1,1259,1408,0,0
42,-384,0,0,0,0,0,0,0,0,0,-1,1266,1408,0,0
49,-384,0,0,0,0,0,0,0,0,0,-1,1273,1408,0,0
56,-384,0,0,0,0,0,0,0,0,0,-1,1280,1408,0,0
63,-384,0,0,0,0,0,0,0,0,0,-1,1287,1408,0,0
70,-384,0,0,0,0,0,0,0,0,0,-1,1294,1408,0,0
77,-384,0,0,0,0,0,0,0,0,0,-1,1301,1408,0,0
84,-384,0,0,0,0,0,0,0,0,0,-1,1308,1408,0,0
91,-384,0,0,0,0,0,0,0,0,0,-1,1315,1408,0,0
98,-384,0,0,0,0,0,0,0,0,0,-1,1322,1408,0,0
105,-384,0,0,0,0,0,0,0,0,0,-1,1329,1408,0,0
112,-384,0,0,0,0,0,0,0,0,0,-1,1336,1408,0,0
119,-384,0,0,0,0,0,0,0,0,0,-1,1343,1408,0,0
126,-384,0,0,0,0,0,0,0,0,0,-1,1350,1408,0,0
133,-384,0,0,0,0,0,0,0,0,0,-1,1357,1408,0,0
140,-384,0,0,0,0,0,0,0,0,0,-1,1364,1408,0,0
147,-384,0,0,0,0,0,0,0,0,0,-1,1371,1408,0,0
154,-384,0,0,0,0,0,0,0,0,0,-1,1378,1408,0,0
161,-384,0,0,0,0,0,0,0,0,0,-1,1385,1408,0,0
168,-384,0,0,0,0,0,0,0,0,0,-1,1392,1408,0,0
175,-384,0,0,0,0,0,0,0,0,0,-1,1399,1408,0,0
182,-384,0,0,0,0,0,0,0,0,0,-1,1406,1408,0,0
189,-384,0,0,0,0,0,0,0,0,0,-1,1413,1408,0,0
196,-384,0,0,0,0,0,0,0,0,0,-1,1420,1408,0,0
203,-384,0,0,0,0,0,0,0,0,0,-1,1427,1408,0,0
210,-384,0,0,0,0,0,0,0,0,0,-1,1434,1408,0,0
217,-384,0,0,0,0,0,0,0,0,0,-1,1441,1408,0,0
224,-384,0,0,0,0,0,0,0,0,0,-1,1448,1408,0,0
231,-384,0,0,0,0,0,0,0,0,0,-1,1455,1408,0,0
238,-384,0,0,0,0,0,0,0,0,0,-1,1462,1408,0,0
245,-384,0,0,0,0,0,0,0,0,0,-1,1469,1408,0,0
252,-384,0,0,0,0,0,0,0,0,0,-1,1476,1408,0,0
259,-384,0,0,0,0,0,0,0,0,0,-1,1483,1408,0,0
266,-384,0,0,0,0,0,0,0,0,0,-1,1490,1408,0,0
273,-384,0,0,0,0,0,0,0,0,0,-1,1497,1408,0,0
280,-384,0,0,0,0,0,0,0,0,0,-1,1504,1408,0,0
287,-384,0,0,0,0,0,0,0,0,0,-1,1511,1408,0,0
294,-384,0,0,0,0,0,0,0,0,0,-1,1518,1408,0,0
301,-384,0,0,0,0,0,0,0,0,0,-1,1525,1408,0,0
308,-384,0,0,0,0,0,0,0,0,0,-1,1532,1408,0,0
315,-384,0,0,0,0,0,0,0,0,0,-1,1539,1408,0,0
322,-384,0,0,0,0,0,0,0,0,0,-1,1546,1408,0,0
329,-384,0,0,0,0,0,0,0,0,0,-1,1553,1408,0,0
336,-384,0,0,0,0,0,0,0,0,0,-1,1560,1408,0,0
343,-384,0,0,0,0,0,0,0,0,0,-1,1567,1408,0,0
350,-384,0,0,0,0,0,0,0,0,0,-1,1574,1408,0,0
357,-384,0,0,0,0,0,0,0,0,0,-1,1581,1408,0,0
364,-384,0,0,0,0,0,0,0,0,0,-1,1588,1408,0,0
371,-384,0,0,0,0,0,0,0,0,0,-1,1595,1408,0,0
378,-384,0,0,0,0,0,0,0,0,0,-1,1602,1408,0,0
385,-384,0,0,0,0,0,0,0,0,0,-1,1609,1408,0,0
392,-384,0,0,0,0,0,0,0,0,0,-1,1616,1408,0,0
399,-384,0,0,0,0,0,0,0,0,0,-1,1623,1408,0,0
406,-384,0,0,0,0,0,0,0,0,0,-1,1630,1408,0,0
413,-384,0,0,0,0,0,0,0,0,0,-1,1637,1408,0,0
420,-384,0,0,0,0,0,0,0,0,0,-1,1644,1408,0,0
427,-384,0,0,0,0,0,0,0,0,0,-1,1651,1408,0,0
434,-384,0,0,0,0,0,0,0,0,0,-1,1658,1408,0,0
441,-384,0,0,0,0,0,0,0,0,0,-1,1665,1408,0,0
448,-384,0,0,0,0,0,0,0,0,0,-1,1672,1408,0,0
455,-384,0,0,0,0,0,0,0,0,0,-1,1679,1408,0,0
462,-384,0,0,0,0,0,0,0,0,0,-1,1686,1408,0,0
469,-384,0,0,0,0,0,0,0,0,0,-1,1693,1408,0,0
476,-384,0,0,0,0,0,0,0,0,0,-1,1700,1408,0,0
483,-384,0,0,0,0,0,0,0,0,0,-1,1707,1408,0,0
490,-384,0,0,0,0,0,0,0,0,0,-1,1714,1408,0,0
497,-384,0,0,0,0,0,0,0,0,0,-1,1721,1408,0,0
504,-384,0,0,0,0,0,0,0,0,0,-1,1728,1408,0,0
511,-384,0,0,0,0,0,0,0,0,0,-1,1735,1408,0,0
518,-384,0,0,0,0,0,0,0,0,0,-1,1742,1408,0,0
525,-384,0,0,0,0,0,0,0,0,0,-1,1749,1408,0,0
532,-384,0,0,0,0,0,0,0,0,0,-1,1756,1408,0,0
539,-384,27.6886,2.85803,0,0,0,0,0,0,0,-1,1763,1408,27.6886,-2.85807
546,-384,27.5044,2.9425,0,0,0,0,0,0,0,-1,1770,1408,27.5044,-2.94255
553,-384,27.3052,2.78394,0,0,0,0,0,0,0,-1,1777,1408,27.3051,-2.78394
560,-384,26.833,3.19812,0,0,0,0,0,0,0,-1,1784,1408,26.833,-3.19816
567,-384,38.2566,0.109985,0,0,0,0,0,0,0,-1,1791,1408,38.2566,-0.110044
574,-384,38.4003,2.05945,0,0,0,0,0,0,0,-1,1798,1408,38.4003,-2.05949
581,-384,25.819,3.91846,0,0,0,0,0,0,0,-1,1805,1408,25.8189,-3.91848
588,-384,23.3721,4.25439,0,0,0,0,0,0,0,-1,1812,1408,23.3721,-4.25442
595,-384,24.981,5.59595,0,0,0,0,0,0,0,-1,1819,1408,24.981,-5.59598
602,-384,20.6605,4.17261,0,0,0,0,0,0,0,-1,1826,1408,20.6606,-4.17265
609,-384,14.158,5.49475,0,0,0,0,0,0,0,-1,1833,1408,14.158,-5.49474
616,-384,14.7997,7.6908,0,0,0,0,0,0,0,-1,1840,1408,14.7996,-7.69079
623,-384,16.4293,9.58899,0,0,0,0,0,0,0,-1,1847,1408,16.4294,-9.58901
630,-384,81.8457,60.5172,0,0,0,0,0,0,0,-1,1854,1408,81.8457,-60.5173
637,-384,147.034,72.8484,0,0,0,0,0,0,0,-1,1861,1408,147.034,-72.8484
644,-384,146.327,69.5513,-0.00839471,0.003337,0.0177915,0.0162047,-0.0212624,0.944637,0.0216972,0.0465819,1868,1408,146.327,-69.5513
651,-384,145.75,66.2987,-0.00520146,0.00987505,0.0186473,0.0224501,-0.0177766,0.977483,0.0232771,0.0291231,1875,1408,145.75,-66.2987
658,-384,145.026,63.4229,-0.0030826,0.0156002,0.0201681,0.0284852,-0.0159676,1.00228,0.0260018,0.0250571,1882,1408,145.026,-63.4229
665,-384,144.466,60.6418,-0.00145027,0.0207393,0.0220394,0.034319,-0.0150299,1.01858,0.0292081,0.0268049,1889,1408,144.466,-60.6418
672,-384,143.899,57.9341,-0.000873765,0.0252221,0.0244651,0.0399013,-0.0155529,1.03038,0.0330292,0.0259037,1896,1408,143.899,-57.9341
679,-384,143.283,55.2559,-0.000739001,0.0292818,0.0271487,0.0452934,-0.0167506,1.03793,0.0370631,0.0228103,1903,1408,143.283,-55.2558
686,-384,142.792,52.6437,-0.0004675,0.0328676,0.0300601,0.0505718,-0.0181717,1.03853,0.0411323,0.0345616,1910,1408,142.792,-52.6437
693,-384,142.482,49.8462,0,0,0,0,0,0,0,-1,1917,1408,142.482,-49.8461
700,-384,41.9762,14.4678,0,0,0,0,0,0,0,-1,1924,1408,41.9762,-14.4678
707,-384,17.0566,6.62842,0,0,0,0,0,0,0,-1,1931,1408,17.0567,-6.62848
714,-384,16.038,5.0282,0,0,0,0,0,0,0,-1,1938,1408,16.038,-5.02819
721,-384,13.8843,2.8717,0,0,0,0,0,0,0,-1,1945,1408,13.8843,-2.87171
728,-384,15.4409,6.25745,0,0,0,0,0,0,0,-1,1952,1408,15.4409,-6.2574
735,-384,16.7598,6.71289,0,0,0,0,0,0,0,-1,1959,1408,16.7598,-6.71287
742,-384,0,0,0,0,0,0,0,0,0,-1,1966,1408,0,0
749,-384,0,0,0,0,0,0,0,0,0,-1,1973,1408,0,0
756,-384,0,0,0,0,0,0,0,0,0,-1,1980,1408,0,0
763,-384,0,0,0,0,0,0,0,0,0,-1,1987,1408,0,0
770,-384,0,0,0,0,0,0,0,0,0,-1,1994,1408,0,0
777,-384,0,0,0,0,0,0,0,0,0,-1,2001,1408,0,0
784,-384,0,0,0,0,0,0,0,0,0,-1,2008,1408,0,0
791,-384,0,0,0,0,0,0,0,0,0,-1,2015,1408,0,0
798,-384,0,0,0,0,0,0,0,0,0,-1,2022,1408,0,0
805,-384,0,0,0,0,0,0,0,0,0,-1,2029,1408,0,0
812,-384,0,0,0,0,0,0,0,0,0,-1,2036,1408,0,0
-700,-391,0,0,0,0,0,0,0,0,0,-1,524,1415,0,0
-693,-391,0,0,0,0,0,0,0,0,0,-1,531,1415,0,0
-686,-391,0,0,0,0,0,0,0,0,0,-1,538,1415,0,0
-679,-391,0,0,0,0,0,0,0,0,0,-1,545,1415,0,0
-672,-391,0,0,0,0,0,0,0,0,0,-1,552,1415,0,0
-665,-391,0,0,0,0,0,0,0,0,0,-1,559,1415,0,0
-658,-391,0,0,0,0,0,0,0,0,0,-1,566,1415,0,0
-651,-391,0,0,0,0,0,0,0,0,0,-1,573,1415,0,0
-644,-391,0,0,0,0,0,0,0,0,0,-1,580,1415,0,0
-637,-391,0,0,0,0,0,0,0,0,0,-1,587,1415,0,0
-630,-391,0,0,0,0,0,0,0,0,0,-1,594,1415,0,0
-623,-391,0,0,0,0,0,0,0,0,0,-1,601,1415,0,0
-616,-391,0,0,0,0,0,0,0,0,0,-1,608,1415,0,0
-609,-391,-7.71753,-3.69763,0,0,0,0,0,0,0,-1,615,1415,-7.71751,3.69759
-602,-391,-13.9493,-4.12805,0,0,0,0,0,0,0,-1,622,1415,-13.9493,4.12803
-595,-391,-10.8315,1.76172,0,0,0,0,0,0,0,-1,629,1415,-10.8315,-1.76171
-588,-391,-10.265,2.16431,0,0,0,0,0,0,0,-1,636,1415,-10.265,-2.16431
-581,-391,-11.3325,2.44836,0,0,0,0,0,0,0,-1,643,1415,-11.3325,-2.44842
-574,-391,-11.1471,6.19983,0,0,0,0,0,0,0,-1,650,1415,-11.1471,-6.19981
-567,-391,-11.5172,6.82458,0,0,0,0,0,0,0,-1,657,1415,-11.5171,-6.82454
-560,-391,-11.2459,7.37195,0,0,0,0,0,0,0,-1,664,1415,-11.2459,-7.37191
-553,-391,-133.629,49.9196,0,0,0,0,0,0,0,-1,671,1415,-133.629,-49.9196
-546,-391,-133.99,52.7111,0.00890374,0.0464465,-0.0266422,0.0602661,-0.00491583,-1.09229,0.0419122,0.0367029,678,1415,-133.99,-52.7111
-539,-391,-134.401,55.5736,0.00872322,0.0408996,-0.0254255,0.0548994,-0.00527656,-1.06748,0.0384792,0.0197961,685,1415,-134.401,-55.5736
-532,-391,-134.985,58.2842,0.00900304,0.036037,-0.0234923,0.0496234,-0.00458344,-1.04646,0.0347111,0.0343104,692,1415,-134.985,-58.2842
-525,-391,-135.705,61.0344,0.00956124,0.0316373,-0.0210705,0.0443859,-0.00318738,-1.02667,0.0307083,0.0305846,699,1415,-135.705,-61.0344
-518,-391,-136.097,64.0975,0.0102544,0.0279253,-0.0181308,0.0392589,-0.00107918,-1.01212,0.0265396,0.0254526,706,1415,-136.097,-64.0975
-511,-391,-136.692,66.8865,0,0,0,0,0,0,0,-1,713,1415,-136.692,-66.8865
-504,-391,-137.876,69.2321,0,0,0,0,0,0,0,-1,720,1415,-137.876,-69.2321
-497,-391,-134.263,72.8459,0,0,0,0,0,0,0,-1,727,1415,-134.263,-72.846
-490,-391,-93.2216,74.1921,0,0,0,0,0,0,0,-1,734,1415,-93.2216,-74.1922
-483,-391,-11.1018,12.9382,0,0,0,0,0,0,0,-1,741,1415,-11.1018,-12.9382
-476,-391,-6.05731,6.85303,0,0,0,0,0,0,0,-1,748,1415,-6.05728,-6.85304
-469,-391,-3.88953,5.0979,0,0,0,0,0,0,0,-1,755,1415,-3.88955,-5.09794
-462,-391,-8.67688,2.03125,0,0,0,0,0,0,0,-1,762,1415,-8.67685,-2.03121
-455,-391,-8.65576,6.46997,0,0,0,0,0,0,0,-1,769,1415,-8.65579,-6.46999
-448,-391,-8.39618,4.38403,0,0,0,0,0,0,0,-1,776,1415,-8.39617,-4.38405
-441,-391,-9.77704,2.5946,0,0,0,0,0,0,0,-1,783,1415,-9.77702,-2.5946
-434,-391,-11.5403,2.12878,0,0,0,0,0,0,0,-1,790,1415,-11.5403,-2.12881
-427,-391,-10.5311,2.50403,0,0,0,0,0,0,0,-1,797,1415,-10.5311,-2.504
-420,-391,-14.7087,1.24365,0,0,0,0,0,0,0,-1,804,1415,-14.7088,-1.24365
-413,-391,0,0,0,0,0,0,0,0,0,-1,811,1415,0,0
-406,-391,0,0,0,0,0,0,0,0,0,-1,818,1415,0,0
-399,-391,0,0,0,0,0,0,0,0,0,-1,825,1415,0,0
-392,-391,0,0,0,0,0,0,0,0,0,-1,832,1415,0,0
-385,-391,0,0,0,0,0,0,0,0,0,-1,839,1415,0,0
-378,-391,0,0,0,0,0,0,0,0,0,-1,846,1415,0,0
-371,-391,0,0,0,0,0,0,0,0,0,-1,853,1415,0,0
-364,-391,0,0,0,0,0,0,0,0,0,-1,860,1415,0,0
-357,-391,0,0,0,0,0,0,0,0,0,-1,867,1415,0,0
-350,-391,0,0,0,0,0,0,0,0,0,-1,874,1415,0,0
-343,-391,0,0,0,0,0,0,0,0,0,-1,881,1415,0,0
-336,-391,0,0,0,0,0,0,0,0,0,-1,888,1415,0,0
-329,-391,0,0,0,0,0,0,0,0,0,-1,895,1415,0,0
-322,-391,0,0,0,0,0,0,0,0,0,-1,902,1415,0,0
-315,-391,0,0,0,0,0,0,0,0,0,-1,909,1415,0,0
-308,-391,0,0,0,0,0,0,0,0,0,-1,916,1415,0,0
-301,-391,0,0,0,0,0,0,0,0,0,-1,923,1415,0,0
-294,-391,0,0,0,0,0,0,0,0,0,-1,930,1415,0,0
-287,-391,0,0,0,0,0,0,0,0,0,-1,937,1415,0,0
-280,-391,0,0,0,0,0,0,0,0,0,-1,944,1415,0,0
-273,-391,0,0,0,0,0,0,0,0,0,-1,951,1415,0,0
-266,-391,0,0,0,0,0,0,0,0,0,-1,958,1415,0,0
-259,-391,0,0,0,0,0,0,0,0,0,-1,965,1415,0,0
-252,-391,0,0,0,0,0,0,0,0,0,-1,972,1415,0,0
-245,-391,0,0,0,0,0,0,0,0,0,-1,979,1415,0,0
-238,-391,0,0,0,0,0,0,0,0,0,-1,986,1415,0,0
-231,-391,0,0,0,0,0,0,0,0,0,-1,993,1415,0,0
-224,-391,0,0,0,0,0,0,0,0,0,-1,1000,1415,0,0
-217,-391,0,0,0,0,0,0,0,0,0,-1,1007,1415,0,0
-210,-391,0,0,0,0,0,0,0,0,0,-1,1014,1415,0,0
-203,-391,0,0,0,0,0,0,0,0,0,-1,1021,1415,0,0
-196,-391,0,0,0,0,0,0,0,0,0,-1,1028,1415,0,0
-189,-391,0,0,0,0,0,0,0,0,0,-1,1035,1415,0,0
-182,-391,0,0,0,0,0,0,0,0,0,-1,1042,1415,0,0
-175,-391,0,0,0,0,0,0,0,0,0,-1,1049,1415,0,0
-168,-391,0,0,0,0,0,0,0,0,0,-1,1056,1415,0,0
-161,-391,0,0,0,0,0,0,0,0,0,-1,1063,1415,0,0
-154,-391,0,0,0,0,0,0,0,0,0,-1,1070,1415,0,0
-147,-391,0,0,0,0,0,0,0,0,0,-1,1077,1415,0,0
-140,-391,0,0,0,0,0,0,0,0,0,-1,1084,1415,0,0
-133,-391,0,0,0,0,0,0,0,0,0,-1,1091,1415,0,0
-126,-391,0,0,0,0,0,0,0,0,0,-1,1098,1415,0,0
-119,-391,0,0,0,0,0,0,0,0,0,-1,1105,1415,0,0
-112,-391,0,0,0,0,0,0,0,0,0,-1,1112,1415,0,0
-105,-391,0,0,0,0,0,0,0,0,0,-1,1119,1415,0,0
-98,-391,0,0,0,0,0,0,0,0,0,-1,1126,1415,0,0
-91,-391,0,0,0,0,0,0,0,0,0,-1,1133,1415,0,0
-84,-391,0,0,0,0,0,0,0,0,0,-1,1140,1415,0,0
-77,-391,0,0,0,0,0,0,0,0,0,-1,1147,1415,0,0
-70,-391,0,0,0,0,0,0,0,0,0,-1,1154,1415,0,0
-63,-391,0,0,0,0,0,0,0,0,0,-1,1161,1415,0,0
-56,-391,0,0,0,0,0,0,0,0,0,-1,1168,1415,0,0
-49,-391,0,0,0,0,0,0,0,0,0,-1,1175,1415,0,0
-42,-391,0,0,0,0,0,0,0,0,0,-1,1182,1415,0,0
-35,-391,0,0,0,0,0,0,0,0,0,-1,1189,1415,0,0
-28,-391,0,0,0,0,0,0,0,0,0,-1,1196,1415,0,0
-21,-391,0,0,0,0,0,0,0,0,0,-1,1203,1415,0,0
-14,-391,0,0,0,0,0,0,0,0,0,-1,1210,1415,0,0
-7,-391,0,0,0,0,0,0,0,0,0,-1,1217,1415,0,0
0,-391,0,0,0,0,0,0,0,0,0,-1,1224,1415,0,0
7,-391,0,0,0,0,0,0,0,0,0,-1,1231,1415,0,0
14,-391,0,0,0,0,0,0,0,0,0,-1,1238,1415,0,0
21,-391,0,0,0,0,0,0,0,0,0,-1,1245,1415,0,0
28,-391,0,0,0,0,0,0,0,0,0,-1,1252,1415,0,0
35,-391,0,0,0,0,0,0,0,0,0,-1,1259,1415,0,0
42,-391,0,0,0,0,0,0,0,0,0,-1,1266,1415,0,0
49,-391,0,0,0,0,0,0,0,0,0,-1,1273,1415,0,0
56,-391,0,0,0,0,0,0,0,0,0,-1,1280,1415,0,0
63,-391,0,0,0,0,0,0,0,0,0,-1,1287,1415,0,0
70,-391,0,0,0,0,0,0,0,0,0,-1,1294,1415,0,0
77,-391,0,0,0,0,0,0,0,0,0,-1,1301,1415,0,0
84,-391,0,0,0,0,0,0,0,0,0,-1,1308,1415,0,0
91,-391,0,0,0,0,0,0,0,0,0,-1,1315,1415,0,0
98,-391,0,0,0,0,0,0,0,0,0,-1,1322,1415,0,0
105,-391,0,0,0,0,0,0,0,0,0,-1,1329,1415,0,0
112,-391,0,0,0,0,0,0,0,0,0,-1,1336,1415,0,0
119,-391,0,0,0,0,0,0,0,0,0,-1,1343,1415,0,0
126,-391,0,0,0,0,0,0,0,0,0,-1,1350,1415,0,0
133,-391,0,0,0,0,0,0,0,0,0,-1,1357,1415,0,0
140,-391,0,0,0,0,0,0,0,0,0,-1,1364,1415,0,0
147,-391,0,0,0,0,0,0,0,0,0,-1,1371,1415,0,0
154,-391,0,0,0,0,0,0,0,0,0,-1,1378,1415,0,0
161,-391,0,0,0,0,0,0,0,0,0,-1,1385,1415,0,0
168,-391,0,0,0,0,0,0,0,0,0,-1,1392,1415,0,0
175,-391,0,0,0,0,0,0,0,0,0,-1,1399,1415,0,0
182,-391,0,0,0,0,0,0,0,0,0,-1,1406,1415,0,0
189,-391,0,0,0,0,0,0,0,0,0,-1,1413,1415,0,0
196,-391,0,0,0,0,0,0,0,0,0,-1,1420,1415,0,0
203,-391,0,0,0,0,0,0,0,0,0,-1,1427,1415,0,0
210,-391,0,0,0,0,0,0,0,0,0,-1,1434,1415,0,0
217,-391,0,0,0,0,0,0,0,0,0,-1,1441,1415,0,0
224,-391,0,0,0,0,0,0,0,0,0,-1,1448,1415,0,0
231,-391,0,0,0,0,0,0,0,0,0,-1,1455,1415,0,0
238,-391,0,0,0,0,0,0,0,0,0,-1,1462,1415,0,0
245,-391,0,0,0,0,0,0,0,0,0,-1,1469,1415,0,0
252,-391,0,0,0,0,0,0,0,0,0,-1,1476,1415,0,0
259,-391,0,0,0,0,0,0,0,0,0,-1,1483,1415,0,0
266,-391,0,0,0,0,0,0,0,0,0,-1,1490,1415,0,0
273,-391,0,0,0,0,0,0,0,0,0,-1,1497,1415,0,0
280,-391,0,0,0,0,0,0,0,0,0,-1,1504,1415,0,0
287,-391,0,0,0,0,0,0,0,0,0,-1,1511,1415,0,0
294,-391,0,0,0,0,0,0,0,0,0,-1,1518,1415,0,0
301,-391,0,0,0,0,0,0,0,0,0,-1,1525,1415,0,0
308,-391,0,0,0,0,0,0,0,0,0,-1,1532,1415,0,0
315,-391,0,0,0,0,0,0,0,0,0,-1,1539,1415,0,0
322,-391,0,0,0,0,0,0,0,0,0,-1,1546,1415,0,0
329,-391,0,0,0,0,0,0,0,0,0,-1,1553,1415,0,0
336,-391,0,0,0,0,0,0,0,0,0,-1,1560,1415,0,0
343,-391,0,0,0,0,0,0,0,0,0,-1,1567,1415,0,0
350,-391,0,0,0,0,0,0,0,0,0,-1,1574,1415,0,0
357,-391,0,0,0,0,0,0,0,0,0,-1,1581,1415,0,0
364,-391,0,0,0,0,0,0,0,0,0,-1,1588,1415,0,0
371,-391,0,0,0,0,0,0,0,0,0,-1,1595,1415,0,0
378,-391,0,0,0,0,0,0,0,0,0,-1,1602,1415,0,0
385,-391,0,0,0,0,0,0,0,0,0,-1,1609,1415,0,0
392,-391,0,0,0,0,0,0,0,0,0,-1,1616,1415,0,0
399,-391,0,0,0,0,0,0,0,0,0,-1,1623,1415,0,0
406,-391,0,0,0,0,0,0,0,0,0,-1,1630,1415,0,0
413,-391,0,0,0,0,0,0,0,0,0,-1,1637,1415,0,0
420,-391,0,0,0,0,0,0,0,0,0,-1,1644,1415,0,0
427,-391,0,0,0,0,0,0,0,0,0,-1,1651,1415,0,0
434,-391,0,0,0,0,0,0,0,0,0,-1,1658,1415,0,0
441,-391,0,0,0,0,0,0,0,0,0,-1,1665,1415,0,0
448,-391,0,0,0,0,0,0,0,0,0,-1,1672,1415,0,0
455,-391,0,0,0,0,0,0,0,0,0,-1,1679,1415,0,0
462,-391,0,0,0,0,0,0,0,0,0,-1,1686,1415,0,0
469,-391,0,0,0,0,0,0,0,0,0,-1,1693,1415,0,0
476,-391,0,0,0,0,0,0,0,0,0,-1,1700,1415,0,0
483,-391,0,0,0,0,0,0,0,0,0,-1,1707,1415,0,0
490,-391,0,0,0,0,0,0,0,0,0,-1,1714,1415,0,0
497,-391,0,0,0,0,0,0,0,0,0,-1,1721,1415,0,0
504,-391,0,0,0,0,0,0,0,0,0,-1,1728,1415,0,0
511,-391,0,0,0,0,0,0,0,0,0,-1,1735,1415,0,0
518,-391,0,0,0,0,0,0,0,0,0,-1,1742,1415,0,0
525,-391,0,0,0,0,0,0,0,0,0,-1,1749,1415,0,0
532,-391,28.5959,3.02356,0,0,0,0,0,0,0,-1,1756,1415,28.596,-3.02358
539,-391,27.5881,3.25012,0,0,0,0,0,0,0,-1,1763,1415,27.5882,-3.25016
546,-391,27.2837,3.28064,0,0,0,0,0,0,0,-1,1770,1415,27.2837,-3.28064
553,-391,32.5952,5.04553,0,0,0,0,0,0,0,-1,1777,1415,32.5952,-5.04551
560,-391,31.2947,5.67017,0,0,0,0,0,0,0,-1,1784,1415,31.2947,-5.67011
567,-391,30.1473,6.17603,0,0,0,0,0,0,0,-1,1791,1415,30.1473,-6.17602
574,-391,27.5656,5.6842,0,0,0,0,0,0,0,-1,1798,1415,27.5655,-5.68422
581,-391,25.8883,5.76123,0,0,0,0,0,0,0,-1,1805,1415,25.8883,-5.76124
588,-391,24.2717,5.47986,0,0,0,0,0,0,0,-1,1812,1415,24.2717,-5.47982
595,-391,22.8827,6.1991,0,0,0,0,0,0,0,-1,1819,1415,22.8827,-6.19909
602,-391,15.1635,5.69849,0,0,0,0,0,0,0,-1,1826,1415,15.1635,-5.69847
609,-391,14.8285,7.50476,0,0,0,0,0,0,0,-1,1833,1415,14.8285,-7.50479
616,-391,20.7952,12.0503,0,0,0,0,0,0,0,-1,1840,1415,20.7952,-12.0503
623,-391,36.6426,20.3677,0,0,0,0,0,0,0,-1,1847,1415,36.6426,-20.3676
630,-391,129.99,76.0531,0,0,0,0,0,0,0,-1,1854,1415,129.991,-76.0531
637,-391,144.097,73.1229,0,0,0,0,0,0,0,-1,1861,1415,144.097,-73.123
644,-391,143.207,70.0789,-0.00955829,0.00573724,0.0210511,0.0204867,-0.0243078,0.959633,0.0258935,0.0342247,1868,1415,143.207,-70.0789
651,-391,142.574,67.1307,-0.00532875,0.0124923,0.0213484,0.0267151,-0.0195515,0.983101,0.0268186,0.0284832,1875,1415,142.574,-67.1307
658,-391,141.942,64.1481,-0.00238975,0.0183956,0.0223834,0.0326813,-0.0166755,1.00274,0.0289913,0.0252525,1882,1415,141.942,-64.1481
665,-391,141.318,61.2532,-0.000333671,0.0235951,0.0240516,0.0384938,-0.0152324,1.0162,0.0319733,0.0200161,1889,1415,141.318,-61.2532
672,-391,140.753,58.5283,0.000379468,0.0280097,0.0264415,0.0440276,-0.0156385,1.02613,0.0357244,0.0185344,1896,1415,140.753,-58.5284
679,-391,140.098,55.795,0.000593706,0.0319993,0.0291074,0.0493694,-0.0167764,1.03276,0.0397046,0.019537,1903,1415,140.098,-55.7951
686,-391,139.465,53.1559,0,0,0,0,0,0,0,-1,1910,1415,139.465,-53.1559
693,-391,55.7168,25.5087,0,0,0,0,0,0,0,-1,1917,1415,55.7168,-25.5087
700,-391,39.8163,14.4929,0,0,0,0,0,0,0,-1,1924,1415,39.8163,-14.4929
707,-391,12.9524,5.96851,0,0,0,0,0,0,0,-1,1931,1415,12.9524,-5.96849
714,-391,15.6875,7.67896,0,0,0,0,0,0,0,-1,1938,1415,15.6875,-7.67893
721,-391,14.1808,8.08435,0,0,0,0,0,0,0,-1,1945,1415,14.1808,-8.08439
728,-391,13.8102,7.28174,0,0,0,0,0,0,0,-1,1952,1415,13.8102,-7.28174
735,-391,0,0,0,0,0,0,0,0,0,-1,1959,1415,0,0
742,-391,0,0,0,0,0,0,0,0,0,-1,1966,1415,0,0
749,-391,0,0,0,0,0,0,0,0,0,-1,1973,1415,0,0
756,-391,0,0,0,0,0,0,0,0,0,-1,1980,1415,0,0
763,-391,0,0,0,0,0,0,0,0,0,-1,1987,1415,0,0
770,-391,0,0,0,0,0,0,0,0,0,-1,1994,1415,0,0
777,-391,0,0,0,0,0,0,0,0,0,-1,2001,1415,0,0
784,-391,0,0,0,0,0,0,0,0,0,-1,2008,1415,0,0
791,-391,0,0,0,0,0,0,0,0,0,-1,2015,1415,0,0
798,-391,0,0,0,0,0,0,0,0,0,-1,2022,1415,0,0
805,-391,0,0,0,0,0,0,0,0,0,-1,2029,1415,0,0
812,-391,0,0,0,0,0,0,0,0,0,-1,2036,1415,0,0
-700,-398,0,0,0,0,0,0,0,0,0,-1,524,1422,0,0
-693,-398,0,0,0,0,0,0,0,0,0,-1,531,1422,0,0
-686,-398,0,0,0,0,0,0,0,0,0,-1,538,1422,0,0
-679,-398,0,0,0,0,0,0,0,0,0,-1,545,1422,0,0
-672,-398,0,0,0,0,0,0,0,0,0,-1,552,1422,0,0
-665,-398,0,0,0,0,0,0,0,0,0,-1,559,1422,0,0
-658,-398,0,0,0,0,0,0,0,0,0,-1,566,1422,0,0
-651,-398,0,0,0,0,0,0,0,0,0,-1,573,1422,0,0
-644,-398,0,0,0,0,0,0,0,0,0,-1,580,1422,0,0
-637,-398,0,0,0,0,0,0,0,0,0,-1,587,1422,0,0
-630,-398,0,0,0,0,0,0,0,0,0,-1,594,1422,0,0
-623,-398,0,0,0,0,0,0,0,0,0,-1,601,1422,0,0
-616,-398,0,0,0,0,0,0,0,0,0,-1,608,1422,0,0
-609,-398,-7.47125,-4.05322,0,0,0,0,0,0,0,-1,615,1422,-7.47128,4.05317
-602,-398,-4.58868,-2.77026,0,0,0,0,0,0,0,-1,622,1422,-4.58869,2.77023
-595,-398,-12.2224,-1.82007,0,0,0,0,0,0,0,-1,629,1422,-12.2224,1.82006
-588,-398,-10.6939,1.32336,0,0,0,0,0,0,0,-1,636,1422,-10.6939,-1.32337
-581,-398,-10.433,3.1123,0,0,0,0,0,0,0,-1,643,1422,-10.433,-3.11233
-574,-398,-10.4475,5.89807,0,0,0,0,0,0,0,-1,650,1422,-10.4475,-5.89802
-567,-398,-10.4904,6.80115,0,0,0,0,0,0,0,-1,657,1422,-10.4904,-6.80115
-560,-398,-10.5333,7.70435,0,0,0,0,0,0,0,-1,664,1422,-10.5333,-7.70429
-553,-398,-26.3343,18.9387,0,0,0,0,0,0,0,-1,671,1422,-26.3343,-18.9387
-546,-398,-130.728,52.9491,0,0,0,0,0,0,0,-1,678,1422,-130.728,-52.9491
-539,-398,-131.176,56.041,0.00809215,0.0431204,-0.0277233,0.0583985,-0.00718588,-1.06712,0.0415353,0.0187028,685,1422,-131.176,-56.041
-532,-398,-131.798,58.8563,0.00872465,0.0382209,-0.0256207,0.053035,-0.00608948,-1.04655,0.0375514,0.0303129,692,1422,-131.798,-58.8563
-525,-398,-132.481,61.6667,0.009282,0.0337947,-0.0231876,0.0477659,-0.00468916,-1.02852,0.0335165,0.0265764,699,1422,-132.481,-61.6668
-518,-398,-132.963,64.6127,0.00983064,0.0301404,-0.0202674,0.0426546,-0.00268357,-1.01764,0.0293718,0.0268652,706,1422,-132.963,-64.6126
-511,-398,-133.518,67.4828,0.0104315,0.0270093,-0.0169905,0.037625,-0.000184221,-1.01234,0.025145,0.0397308,713,1422,-133.518,-67.4828
-504,-398,-134.256,70.5997,0.0109828,0.0245711,-0.0133967,0.0327981,0.00275586,-1.02007,0.0210071,0.0482896,720,1422,-134.256,-70.5997
-497,-398,-135.209,73.7452,0,0,0,0,0,0,0,-1,727,1422,-135.209,-73.7452
-490,-398,-115.703,78.3671,0,0,0,0,0,0,0,-1,734,1422,-115.703,-78.3671
-483,-398,-89.6431,76.8677,0,0,0,0,0,0,0,-1,741,1422,-89.6431,-76.8676
-476,-398,-8.64392,11.9448,0,0,0,0,0,0,0,-1,748,1422,-8.6439,-11.9448
-469,-398,-8.91699,10.6276,0,0,0,0,0,0,0,-1,755,1422,-8.91697,-10.6275
-462,-398,-9.59753,9.32532,0,0,0,0,0,0,0,-1,762,1422,-9.59753,-9.32531
-455,-398,-8.08331,6.75024,0,0,0,0,0,0,0,-1,769,1422,-8.08333,-6.75022
-448,-398,-7.4505,5.25293,0,0,0,0,0,0,0,-1,776,1422,-7.4505,-5.25291
-441,-398,-7.61639,3.32141,0,0,0,0,0,0,0,-1,783,1422,-7.61637,-3.32145
-434,-398,-10.7618,3.297,0,0,0,0,0,0,0,-1,790,1422,-10.7618,-3.29704
-427,-398,-11.9061,2.24939,0,0,0,0,0,0,0,-1,797,1422,-11.9061,-2.24941
-420,-398,-13.467,2.32788,0,0,0,0,0,0,0,-1,804,1422,-13.467,-2.32787
-413,-398,-14.7983,2.15515,0,0,0,0,0,0,0,-1,811,1422,-14.7983,-2.15516
-406,-398,0,0,0,0,0,0,0,0,0,-1,818,1422,0,0
-399,-398,0,0,0,0,0,0,0,0,0,-1,825,1422,0,0
-392,-398,0,0,0,0,0,0,0,0,0,-1,832,1422,0,0
-385,-398,0,0,0,0,0,0,0,0,0,-1,839,1422,0,0
-378,-398,0,0,0,0,0,0,0,0,0,-1,846,1422,0,0
-371,-398,0,0,0,0,0,0,0,0,0,-1,853,1422,0,0
-364,-398,0,0,0,0,0,0,0,0,0,-1,860,1422,0,0
-357,-398,0,0,0,0,0,0,0,0,0,-1,867,1422,0,0
-350,-398,0,0,0,0,0,0,0,0,0,-1,874,1422,0,0
-343,-398,0,0,0,0,0,0,0,0,0,-1,881,1422,0,0
-336,-398,0,0,0,0,0,0,0,0,0,-1,888,1422,0,0
-329,-398,0,0,0,0,0,0,0,0,0,-1,895,1422,0,0
-322,-398,0,0,0,0,0,0,0,0,0,-1,902,1422,0,0
-315,-398,0,0,0,0,0,0,0,0,0,-1,909,1422,0,0
-308,-398,0,0,0,0,0,0,0,0,0,-1,916,1422,0,0
-301,-398,0,0,0,0,0,0,0,0,0,-1,923,1422,0,0
-294,-398,0,0,0,0,0,0,0,0,0,-1,930,1422,0,0
-287,-398,0,0,0,0,0,0,0,0,0,-1,937,1422,0,0
-280,-398,0,0,0,0,0,0,0,0,0,-1,944,1422,0,0
-273,-398,0,0,0,0,0,0,0,0,0,-1,951,1422,0,0
-266,-398,0,0,0,0,0,0,0,0,0,-1,958,1422,0,0
-259,-398,0,0,0,0,0,0,0,0,0,-1,965,1422,0,0
-252,-398,0,0,0,0,0,0,0,0,0,-1,972,1422,0,0
-245,-398,0,0,0,0,0,0,0,0,0,-1,979,1422,0,0
-238,-398,0,0,0,0,0,0,0,0,0,-1,986,1422,0,0
-231,-398,0,0,0,0,0,0,0,0,0,-1,993,1422,0,0
-224,-398,0,0,0,0,0,0,0,0,0,-1,1000,1422,0,0
-217,-398,0,0,0,0,0,0,0,0,0,-1,1007,1422,0,0
-210,-398,0,0,0,0,0,0,0,0,0,-1,1014,1422,0,0
-203,-398,0,0,0,0,0,0,0,0,0,-1,1021,1422,0,0
-196,-398,0,0,0,0,0,0,0,0,0,-1,1028,1422,0,0
-189,-398,0,0,0,0,0,0,0,0,0,-1,1035,1422,0,0
-182,-398,0,0,0,0,0,0,0,0,0,-1,1042,1422,0,0
-175,-398,0,0,0,0,0,0,0,0,0,-1,1049,1422,0,0
-168,-398,0,0,0,0,0,0,0,0,0,-1,1056,1422,0,0
-161,-398,0,0,0,0,0,0,0,0,0,-1,1063,1422,0,0
-154,-398,0,0,0,0,0,0,0,0,0,-1,1070,1422,0,0
-147,-398,0,0,0,0,0,0,0,0,0,-1,1077,1422,0,0
-140,-398,0,0,0,0,0,0,0,0,0,-1,1084,1422,0,0
-133,-398,0,0,0,0,0,0,0,0,0,-1,1091,1422,0,0
-126,-398,0,0,0,0,0,0,0,0,0,-1,1098,1422,0,0
-119,-398,0,0,0,0,0,0,0,0,0,-1,1105,1422,0,0
-112,-398,0,0,0,0,0,0,0,0,0,-1,1112,1422,0,0
-105,-398,0,0,0,0,0,0,0,0,0,-1,1119,1422,0,0
-98,-398,0,0,0,0,0,0,0,0,0,-1,1126,1422,0,0
-91,-398,0,0,0,0,0,0,0,0,0,-1,1133,1422,0,0
-84,-398,0,0,0,0,0,0,0,0,0,-1,1140,1422,0,0
-77,-398,0,0,0,0,0,0,0,0,0,-1,1147,1422,0,0
-70,-398,0,0,0,0,0,0,0,0,0,-1,1154,1422,0,0
-63,-398,0,0,0,0,0,0,0,0,0,-1,1161,1422,0,0
-56,-398,0,0,0,0,0,0,0,0,0,-1,1168,1422,0,0
-49,-398,0,0,0,0,0,0,0,0,0,-1,1175,1422,0,0
-42,-398,0,0,0,0,0,0,0,0,0,-1,1182,1422,0,0
-35,-398,0,0,0,0,0,0,0,0,0,-1,1189,1422,0,0
-28,-398,0,0,0,0,0,0,0,0,0,-1,1196,1422,0,0
-21,-398,0,0,0,0,0,0,0,0,0,-1,1203,1422,0,0
-14,-398,0,0,0,0,0,0,0,0,0,-1,1210,1422,0,0
-7,-398,0,0,0,0,0,0,0,0,0,-1,1217,1422,0,0
0,-398,0,0,0,0,0,0,0,0,0,-1,1224,1422,0,0
7,-398,0,0,0,0,0,0,0,0,0,-1,1231,1422,0,0
14,-398,0,0,0,0,0,0,0,0,0,-1,1238,1422,0,0
21,-398,0,0,0,0,0,0,0,0,0,-1,1245,1422,0,0
28,-398,0,0,0,0,0,0,0,0,0,-1,1252,1422,0,0
35,-398,0,0,0,0,0,0,0,0,0,-1,1259,1422,0,0
42,-398,0,0,0,0,0,0,0,0,0,-1,1266,1422,0,0
49,-398,0,0,0,0,0,0,0,0,0,-1,1273,1422,0,0
56,-398,0,0,0,0,0,0,0,0,0,-1,1280,1422,0,0
63,-398,0,0,0,0,0,0,0,0,0,-1,1287,1422,0,0
70,-398,0,0,0,0,0,0,0,0,0,-1,1294,1422,0,0
77,-398,0,0,0,0,0,0,0,0,0,-1,1301,1422,0,0
84,-398,0,0,0,0,0,0,0,0,0,-1,1308,1422,0,0
91,-398,0,0,0,0,0,0,0,0,0,-1,1315,1422,0,0
98,-398,0,0,0,0,0,0,0,0,0,-1,1322,1422,0,0
105,-398,0,0,0,0,0,0,0,0,0,-1,1329,1422,0,0
112,-398,0,0,0,0,0,0,0,0,0,-1,1336,1422,0,0
119,-398,0,0,0,0,0,0,0,0,0,-1,1343,1422,0,0
126,-398,0,0,0,0,0,0,0,0,0,-1,1350,1422,0,0
133,-398,0,0,0,0,0,0,0,0,0,-1,1357,1422,0,0
140,-398,0,0,0,0,0,0,0,0,0,-1,1364,1422,0,0
147,-398,0,0,0,0,0,0,0,0,0,-1,1371,1422,0,0
154,-398,0,0,0,0,0,0,0,0,0,-1,1378,1422,0,0
161,-398,0,0,0,0,0,0,0,0,0,-1,1385,1422,0,0
168,-398,0,0,0,0,0,0,0,0,0,-1,1392,1422,0,0
175,-398,0,0,0,0,0,0,0,0,0,-1,1399,1422,0,0
182,-398,0,0,0,0,0,0,0,0,0,-1,1406,1422,0,0
189,-398,0,0,0,0,0,0,0,0,0,-1,1413,1422,0,0
196,-398,0,0,0,0,0,0,0,0,0,-1,1420,1422,0,0
203,-398,0,0,0,0,0,0,0,0,0,-1,1427,1422,0,0
210,-398,0,0,0,0,0,0,0,0,0,-1,1434,1422,0,0
217,-398,0,0,0,0,0,0,0,0,0,-1,1441,1422,0,0
224,-398,0,0,0,0,0,0,0,0,0,-1,1448,1422,0,0
231,-398,0,0,0,0,0,0,0,0,0,-1,1455,1422,0,0
238,-398,0,0,0,0,0,0,0,0,0,-1,1462,1422,0,0
245,-398,0,0,0,0,0,0,0,0,0,-1,1469,1422,0,0
252,-398,0,0,0,0,0,0,0,0,0,-1,1476,1422,0,0
259,-398,0,0,0,0,0,0,0,0,0,-1,1483,1422,0,0
266,-398,0,0,0,0,0,0,0,0,0,-1,1490,1422,0,0
273,-398,0,0,0,0,0,0,0,0,0,-1,1497,1422,0,0
280,-398,0,0,0,0,0,0,0,0,0,-1,1504,1422,0,0
287,-398,0,0,0,0,0,0,0,0,0,-1,1511,1422,0,0
294,-398,0,0,0,0,0,0,0,0,0,-1,1518,1422,0,0
301,-398,0,0,0,0,0,0,0,0,0,-1,1525,1422,0,0
308,-398,0,0,0,0,0,0,0,0,0,-1,1532,1422,0,0
315,-398,0,0,0,0,0,0,0,0,0,-1,1539,1422,0,0
322,-398,0,0,0,0,0,0,0,0,0,-1,1546,1422,0,0
329,-398,0,0,0,0,0,0,0,0,0,-1,1553,1422,0,0
336,-398,0,0,0,0,0,0,0,0,0,-1,1560,1422,0,0
343,-398,0,0,0,0,0,0,0,0,0,-1,1567,1422,0,0
350,-398,0,0,0,0,0,0,0,0,0,-1,1574,1422,0,0
357,-398,0,0,0,0,0,0,0,0,0,-1,1581,1422,0,0
364,-398,0,0,0,0,0,0,0,0,0,-1,1588,1422,0,0
371,-398,0,0,0,0,0,0,0,0,0,-1,1595,1422,0,0
378,-398,0,0,0,0,0,0,0,0,0,-1,1602,1422,0,0
385,-398,0,0,0,0,0,0,0,0,0,-1,1609,1422,0,0
392,-398,0,0,0,0,0,0,0,0,0,-1,1616,1422,0,0
399,-398,0,0,0,0,0,0,0,0,0,-1,1623,1422,0,0
406,-398,0,0,0,0,0,0,0,0,0,-1,1630,1422,0,0
413,-398,0,0,0,0,0,0,0,0,0,-1,1637,1422,0,0
420,-398,0,0,0,0,0,0,0,0,0,-1,1644,1422,0,0
427,-398,0,0,0,0,0,0,0,0,0,-1,1651,1422,0,0
434,-398,0,0,0,0,0,0,0,0,0,-1,1658,1422,0,0
441,-398,0,0,0,0,0,0,0,0,0,-1,1665,1422,0,0
448,-398,0,0,0,0,0,0,0,0,0,-1,1672,1422,0,0
455,-398,0,0,0,0,0,0,0,0,0,-1,1679,1422,0,0
462,-398,0,0,0,0,0,0,0,0,0,-1,1686,1422,0,0
469,-398,0,0,0,0,0,0,0,0,0,-1,1693,1422,0,0
476,-398,0,0,0,0,0,0,0,0,0,-1,1700,1422,0,0
483,-398,0,0,0,0,0,0,0,0,0,-1,1707,1422,0,0
490,-398,0,0,0,0,0,0,0,0,0,-1,1714,1422,0,0
497,-398,0,0,0,0,0,0,0,0,0,-1,1721,1422,0,0
504,-398,0,0,0,0,0,0,0,0,0,-1,1728,1422,0,0
511,-398,0,0,0,0,0,0,0,0,0,-1,1735,1422,0,0
518,-398,0,0,0,0,0,0,0,0,0,-1,1742,1422,0,0
525,-398,0,0,0,0,0,0,0,0,0,-1,1749,1422,0,0
532,-398,28.4558,3.84094,0,0,0,0,0,0,0,-1,1756,1422,28.4558,-3.8409
539,-398,27.0594,3.33887,0,0,0,0,0,0,0,-1,1763,1422,27.0595,-3.3389
546,-398,31.6873,5.58582,0,0,0,0,0,0,0,-1,1770,1422,31.6872,-5.58585
553,-398,30.4392,5.92383,0,0,0,0,0,0,0,-1,1777,1422,30.4392,-5.92386
560,-398,29.1621,6.30469,0,0,0,0,0,0,0,-1,1784,1422,29.1621,-6.30469
567,-398,27.8411,6.55029,0,0,0,0,0,0,0,-1,1791,1422,27.8411,-6.55033
574,-398,26.411,6.8916,0,0,0,0,0,0,0,-1,1798,1422,26.411,-6.8916
581,-398,24.75,7.11145,0,0,0,0,0,0,0,-1,1805,1422,24.7499,-7.11142
588,-398,23.1649,7.67969,0,0,0,0,0,0,0,-1,1812,1422,23.1649,-7.67975
595,-398,21.4253,7.86023,0,0,0,0,0,0,0,-1,1819,1422,21.4253,-7.86029
602,-398,19.6857,8.04077,0,0,0,0,0,0,0,-1,1826,1422,19.6856,-8.04083
609,-398,21.1835,13.2628,0,0,0,0,0,0,0,-1,1833,1422,21.1835,-13.2628
616,-398,35.7712,21.4,0,0,0,0,0,0,0,-1,1840,1422,35.7713,-21.4
623,-398,120.557,79.8324,0,0,0,0,0,0,0,-1,1847,1422,120.557,-79.8323
630,-398,141.609,76.0212,0,0,0,0,0,0,0,-1,1854,1422,141.609,-76.0213
637,-398,140.884,73.478,-0.016556,0.000929129,0.0248556,0.0185349,-0.0341618,0.954508,0.0308671,0.0406279,1861,1422,140.884,-73.478
644,-398,140.047,70.7623,-0.0096072,0.00870778,0.023733,0.0249887,-0.0258881,0.969525,0.0293753,0.0331255,1868,1422,140.047,-70.7623
651,-398,139.457,67.8123,-0.0045676,0.015478,0.023679,0.0311681,-0.0202577,0.985603,0.0299126,0.0383163,1875,1422,139.457,-67.8123
658,-398,138.846,64.9633,-0.000977822,0.0214772,0.0244385,0.0371438,-0.0166444,1.00073,0.0317976,0.0305682,1882,1422,138.846,-64.9632
665,-398,138.133,62.0142,0.00128467,0.0266645,0.0260381,0.0429403,-0.0149912,1.01214,0.03472,0.019967,1889,1422,138.133,-62.0141
672,-398,137.486,59.1272,0.0020216,0.0309664,0.0284518,0.0484151,-0.0154271,1.02068,0.0384646,0.0186311,1896,1422,137.486,-59.1273
679,-398,136.935,56.3171,0.00234826,0.0349261,0.0310868,0.053733,-0.0164587,1.02672,0.0423871,0.0463387,1903,1422,136.935,-56.3172
686,-398,136.279,53.1726,0,0,0,0,0,0,0,-1,1910,1422,136.279,-53.1726
693,-398,43.5162,17.3228,0,0,0,0,0,0,0,-1,1917,1422,43.5162,-17.3228
700,-398,38.7251,14.4174,0,0,0,0,0,0,0,-1,1924,1422,38.725,-14.4174
707,-398,10.9731,5.479,0,0,0,0,0,0,0,-1,1931,1422,10.9732,-5.47896
714,-398,11.7313,6.17346,0,0,0,0,0,0,0,-1,1938,1422,11.7313,-6.17348
721,-398,13.9371,8.05103,0,0,0,0,0,0,0,-1,1945,1422,13.9372,-8.05102
728,-398,14.786,7.0282,0,0,0,0,0,0,0,-1,1952,1422,14.786,-7.0282
735,-398,0,0,0,0,0,0,0,0,0,-1,1959,1422,0,0
742,-398,0,0,0,0,0,0,0,0,0,-1,1966,1422,0,0
749,-398,0,0,0,0,0,0,0,0,0,-1,1973,1422,0,0
756,-398,0,0,0,0,0,0,0,0,0,-1,1980,1422,0,0
763,-398,0,0,0,0,0,0,0,0,0,-1,1987,1422,0,0
770,-398,0,0,0,0,0,0,0,0,0,-1,1994,1422,0,0
777,-398,0,0,0,0,0,0,0,0,0,-1,2001,1422,0,0
784,-398,0,0,0,0,0,0,0,0,0,-1,2008,1422,0,0
791,-398,0,0,0,0,0,0,0,0,0,-1,2015,1422,0,0
798,-398,0,0,0,0,0,0,0,0,0,-1,2022,1422,0,0
805,-398,0,0,0,0,0,0,0,0,0,-1,2029,1422,0,0
812,-398,0,0,0,0,0,0,0,0,0,-1,2036,1422,0,0
-700,-405,0,0,0,0,0,0,0,0,0,-1,524,1429,0,0
-693,-405,0,0,0,0,0,0,0,0,0,-1,531,1429,0,0
-686,-405,0,0,0,0,0,0,0,0,0,-1,538,1429,0,0
-679,-405,0,0,0,0,0,0,0,0,0,-1,545,1429,0,0
-672,-405,0,0,0,0,0,0,0,0,0,-1,552,1429,0,0
-665,-405,0,0,0,0,0,0,0,0,0,-1,559,1429,0,0
-658,-405,0,0,0,0,0,0,0,0,0,-1,566,1429,0,0
-651,-405,0,0,0,0,0,0,0,0,0,-1,573,1429,0,0
-644,-405,0,0,0,0,0,0,0,0,0,-1,580,1429,0,0
-637,-405,0,0,0,0,0,0,0,0,0,-1,587,1429,0,0
-630,-405,0,0,0,0,0,0,0,0,0,-1,594,1429,0,0
-623,-405,0,0,0,0,0,0,0,0,0,-1,601,1429,0,0
-616,-405,0,0,0,0,0,0,0,0,0,-1,608,1429,0,0
-609,-405,0,0,0,0,0,0,0,0,0,-1,615,1429,0,0
-602,-405,-5.80988,-3.46594,0,0,0,0,0,0,0,-1,622,1429,-5.80987,3.46592
-595,-405,-9.35413,2.01477,0,0,0,0,0,0,0,-1,629,1429,-9.35411,-2.01476
-588,-405,-7.35693,0.507202,0,0,0,0,0,0,0,-1,636,1429,-7.35696,-0.507187
-581,-405,-10.1284,1.62927,0,0,0,0,0,0,0,-1,643,1429,-10.1284,-1.62922
-574,-405,-9.32074,3.05896,0,0,0,0,0,0,0,-1,650,1429,-9.32077,-3.0589
-567,-405,-9.68781,6.92163,0,0,0,0,0,0,0,-1,657,1429,-9.68782,-6.92166
-560,-405,-9.28674,7.20886,0,0,0,0,0,0,0,-1,664,1429,-9.28675,-7.20885
-553,-405,-20.6244,15.8638,0,0,0,0,0,0,0,-1,671,1429,-20.6244,-15.8637
-546,-405,-127.422,53.3945,0,0,0,0,0,0,0,-1,678,1429,-127.422,-53.3946
-539,-405,-127.966,56.4171,0.00748377,0.0453084,-0.0304546,0.0622452,-0.00945307,-1.06326,0.0449802,0.0333525,685,1429,-127.966,-56.4171
-532,-405,-128.571,59.3206,0.00838208,0.0403851,-0.0281968,0.0568044,-0.0080372,-1.04349,0.0408133,0.0251381,692,1429,-128.571,-59.3205
-525,-405,-129.158,62.2401,0.00883562,0.0358528,-0.0258166,0.0514814,-0.00679298,-1.02644,0.0367949,0.0231375,699,1429,-129.158,-62.2401
-518,-405,-129.634,65.2264,0.00917929,0.0320568,-0.0229599,0.0462696,-0.00503355,-1.0165,0.0326539,0.02115,706,1429,-129.634,-65.2264
-511,-405,-130.179,68.2592,0.00941116,0.0289102,-0.0197386,0.0411758,-0.00285446,-1.01479,0.0284498,0.0223511,713,1429,-130.179,-68.2591
-504,-405,-130.855,71.3937,0.00944976,0.0264278,-0.0162319,0.0362565,-0.000378938,-1.02633,0.0242983,0.0305828,720,1429,-130.855,-71.3936
-497,-405,-131.32,74.7858,0.00924374,0.0246645,-0.0124871,0.0316299,0.00227834,-1.06198,0.0203696,0.0477391,727,1429,-131.32,-74.7858
-490,-405,-131.808,77.8763,0,0,0,0,0,0,0,-1,734,1429,-131.808,-77.8764
-483,-405,-95.8985,80.5236,0,0,0,0,0,0,0,-1,741,1429,-95.8985,-80.5236
-476,-405,-87.4611,80.198,0,0,0,0,0,0,0,-1,748,1429,-87.4612,-80.198
-469,-405,-9.65692,12.8171,0,0,0,0,0,0,0,-1,755,1429,-9.65691,-12.8172
-462,-405,-9.14862,11.3597,0,0,0,0,0,0,0,-1,762,1429,-9.14865,-11.3597
-455,-405,-9.021,9.51111,0,0,0,0,0,0,0,-1,769,1429,-9.021,-9.51109
-448,-405,-8.4649,6.82813,0,0,0,0,0,0,0,-1,776,1429,-8.46492,-6.82817
-441,-405,-6.6712,4.23767,0,0,0,0,0,0,0,-1,783,1429,-6.67121,-4.23764
-434,-405,-9.62549,3.94189,0,0,0,0,0,0,0,-1,790,1429,-9.62546,-3.94191
-427,-405,-10.9764,3.73926,0,0,0,0,0,0,0,-1,797,1429,-10.9764,-3.73923
-420,-405,-12.1187,3.68506,0,0,0,0,0,0,0,-1,804,1429,-12.1187,-3.68512
-413,-405,-13.5353,3.75659,0,0,0,0,0,0,0,-1,811,1429,-13.5353,-3.75655
-406,-405,-14.7374,3.99817,0,0,0,0,0,0,0,-1,818,1429,-14.7374,-3.99814
-399,-405,0,0,0,0,0,0,0,0,0,-1,825,1429,0,0
-392,-405,0,0,0,0,0,0,0,0,0,-1,832,1429,0,0
-385,-405,0,0,0,0,0,0,0,0,0,-1,839,1429,0,0
-378,-405,0,0,0,0,0,0,0,0,0,-1,846,1429,0,0
-371,-405,0,0,0,0,0,0,0,0,0,-1,853,1429,0,0
-364,-405,0,0,0,0,0,0,0,0,0,-1,860,1429,0,0
-357,-405,0,0,0,0,0,0,0,0,0,-1,867,1429,0,0
-350,-405,0,0,0,0,0,0,0,0,0,-1,874,1429,0,0
-343,-405,0,0,0,0,0,0,0,0,0,-1,881,1429,0,0
-336,-405,0,0,0,0,0,0,0,0,0,-1,888,1429,0,0
-329,-405,0,0,0,0,0,0,0,0,0,-1,895,1429,0,0
-322,-405,0,0,0,0,0,0,0,0,0,-1,902,1429,0,0
-315,-405,0,0,0,0,0,0,0,0,0,-1,909,1429,0,0
-308,-405,0,0,0,0,0,0,0,0,0,-1,916,1429,0,0
-301,-405,0,0,0,0,0,0,0,0,0,-1,923,1429,0,0
-294,-405,0,0,0,0,0,0,0,0,0,-1,930,1429,0,0
-287,-405,0,0,0,0,0,0,0,0,0,-1,937,1429,0,0
-280,-405,0,0,0,0,0,0,0,0,0,-1,944,1429,0,0
-273,-405,0,0,0,0,0,0,0,0,0,-1,951,1429,0,0
-266,-405,0,0,0,0,0,0,0,0,0,-1,958,1429,0,0
-259,-405,0,0,0,0,0,0,0,0,0,-1,965,1429,0,0
-252,-405,0,0,0,0,0,0,0,0,0,-1,972,1429,0,0
-245,-405,0,0,0,0,0,0,0,0,0,-1,979,1429,0,0
-238,-405,0,0,0,0,0,0,0,0,0,-1,986,1429,0,0
-231,-405,0,0,0,0,0,0,0,0,0,-1,993,1429,0,0
-224,-405,0,0,0,0,0,0,0,0,0,-1,1000,1429,0,0
-217,-405,0,0,0,0,0,0,0,0,0,-1,1007,1429,0,0
-210,-405,0,0,0,0,0,0,0,0,0,-1,1014,1429,0,0
-203,-405,0,0,0,0,0,0,0,0,0,-1,1021,1429,0,0
-196,-405,0,0,0,0,0,0,0,0,0,-1,1028,1429,0,0
-189,-405,0,0,0,0,0,0,0,0,0,-1,1035,1429,0,0
-182,-405,0,0,0,0,0,0,0,0,0,-1,1042,1429,0,0
-175,-405,0,0,0,0,0,0,0,0,0,-1,1049,1429,0,0
-168,-405,0,0,0,0,0,0,0,0,0,-1,1056,1429,0,0
-161,-405,0,0,0,0,0,0,0,0,0,-1,1063,1429,0,0
-154,-405,0,0,0,0,0,0,0,0,0,-1,1070,1429,0,0
-147,-405,0,0,0,0,0,0,0,0,0,-1,1077,1429,0,0
-140,-405,0,0,0,0,0,0,0,0,0,-1,1084,1429,0,0
-133,-405,0,0,0,0,0,0,0,0,0,-1,1091,1429,0,0
-126,-405,0,0,0,0,0,0,0,0,0,-1,1098,1429,0,0
-119,-405,0,0,0,0,0,0,0,0,0,-1,1105,1429,0,0
-112,-405,0,0,0,0,0,0,0,0,0,-1,1112,1429,0,0
-105,-405,0,0,0,0,0,0,0,0,0,-1,1119,1429,0,0
-98,-405,0,0,0,0,0,0,0,0,0,-1,1126,1429,0,0
-91,-405,0,0,0,0,0,0,0,0,0,-1,1133,1429,0,0
-84,-405,0,0,0,0,0,0,0,0,0,-1,1140,1429,0,0
-77,-405,0,0,0,0,0,0,0,0,0,-1,1147,1429,0,0
-70,-405,0,0,0,0,0,0,0,0,0,-1,1154,1429,0,0
-63,-405,0,0,0,0,0,0,0,0,0,-1,1161,1429,0,0
-56,-405,0,0,0,0,0,0,0,0,0,-1,1168,1429,0,0
-49,-405,0,0,0,0,0,0,0,0,0,-1,1175,1429,0,0
-42,-405,0,0,0,0,0,0,0,0,0,-1,1182,1429,0,0
-35,-405,0,0,0,0,0,0,0,0,0,-1,1189,1429,0,0
-28,-405,0,0,0,0,0,0,0,0,0,-1,1196,1429,0,0
-21,-405,0,0,0,0,0,0,0,0,0,-1,1203,1429,0,0
-14,-405,0,0,0,0,0,0,0,0,0,-1,1210,1429,0,0
-7,-405,0,0,0,0,0,0,0,0,0,-1,1217,1429,0,0
0,-405,0,0,0,0,0,0,0,0,0,-1,1224,1429,0,0
7,-405,0,0,0,0,0,0,0,0,0,-1,1231,1429,0,0
14,-405,0,0,0,0,0,0,0,0,0,-1,1238,1429,0,0
21,-405,0,0,0,0,0,0,0,0,0,-1,1245,1429,0,0
28,-405,0,0,0,0,0,0,0,0,0,-1,1252,1429,0,0
35,-405,0,0,0,0,0,0,0,0,0,-1,1259,1429,0,0
42,-405,0,0,0,0,0,0,0,0,0,-1,1266,1429,0,0
49,-405,0,0,0,0,0,0,0,0,0,-1,1273,1429,0,0
56,-405,0,0,0,0,0,0,0,0,0,-1,1280,1429,0,0
63,-405,0,0,0,0,0,0,0,0,0,-1,1287,1429,0,0
70,-405,0,0,0,0,0,0,0,0,0,-1,1294,1429,0,0
77,-405,0,0,0,0,0,0,0,0,0,-1,1301,1429,0,0
84,-405,0,0,0,0,0,0,0,0,0,-1,1308,1429,0,0
91,-405,0,0,0,0,0,0,0,0,0,-1,1315,1429,0,0
98,-405,0,0,0,0,0,0,0,0,0,-1,1322,1429,0,0
105,-405,0,0,0,0,0,0,0,0,0,-1,1329,1429,0,0
112,-405,0,0,0,0,0,0,0,0,0,-1,1336,1429,0,0
119,-405,0,0,0,0,0,0,0,0,0,-1,1343,1429,0,0
126,-405,0,0,0,0,0,0,0,0,0,-1,1350,1429,0,0
133,-405,0,0,0,0,0,0,0,0,0,-1,1357,1429,0,0
140,-405,0,0,0,0,0,0,0,0,0,-1,1364,1429,0,0
147,-405,0,0,0,0,0,0,0,0,0,-1,1371,1429,0,0
154,-405,0,0,0,0,0,0,0,0,0,-1,1378,1429,0,0
161,-405,0,0,0,0,0,0,0,0,0,-1,1385,1429,0,0
168,-405,0,0,0,0,0,0,0,0,0,-1,1392,1429,0,0
175,-405,0,0,0,0,0,0,0,0,0,-1,1399,1429,0,0
182,-405,0,0,0,0,0,0,0,0,0,-1,1406,1429,0,0
189,-405,0,0,0,0,0,0,0,0,0,-1,1413,1429,0,0
196,-405,0,0,0,0,0,0,0,0,0,-1,1420,1429,0,0
203,-405,0,0,0,0,0,0,0,0,0,-1,1427,1429,0,0
210,-405,0,0,0,0,0,0,0,0,0,-1,1434,1429,0,0
217,-405,0,0,0,0,0,0,0,0,0,-1,1441,1429,0,0
224,-405,0,0,0,0,0,0,0,0,0,-1,1448,1429,0,0
231,-405,0,0,0,0,0,0,0,0,0,-1,1455,1429,0,0
238,-405,0,0,0,0,0,0,0,0,0,-1,1462,1429,0,0
245,-405,0,0,0,0,0,0,0,0,0,-1,1469,1429,0,0
252,-405,0,0,0,0,0,0,0,0,0,-1,1476,1429,0,0
259,-405,0,0,0,0,0,0,0,0,0,-1,1483,1429,0,0
266,-405,0,0,0,0,0,0,0,0,0,-1,1490,1429,0,0
273,-405,0,0,0,0,0,0,0,0,0,-1,1497,1429,0,0
280,-405,0,0,0,0,0,0,0,0,0,-1,1504,1429,0,0
287,-405,0,0,0,0,0,0,0,0,0,-1,1511,1429,0,0
294,-405,0,0,0,0,0,0,0,0,0,-1,1518,1429,0,0
301,-405,0,0,0,0,0,0,0,0,0,-1,1525,1429,0,0
308,-405,0,0,0,0,0,0,0,0,0,-1,1532,1429,0,0
315,-405,0,0,0,0,0,0,0,0,0,-1,1539,1429,0,0
322,-405,0,0,0,0,0,0,0,0,0,-1,1546,1429,0,0
329,-405,0,0,0,0,0,0,0,0,0,-1,1553,1429,0,0
336,-405,0,0,0,0,0,0,0,0,0,-1,1560,1429,0,0
343,-405,0,0,0,0,0,0,0,0,0,-1,1567,1429,0,0
350,-405,0,0,0,0,0,0,0,0,0,-1,1574,1429,0,0
357,-405,0,0,0,0,0,0,0,0,0,-1,1581,1429,0,0
364,-405,0,0,0,0,0,0,0,0,0,-1,1588,1429,0,0
371,-405,0,0,0,0,0,0,0,0,0,-1,1595,1429,0,0
378,-405,0,0,0,0,0,0,0,0,0,-1,1602,1429,0,0
385,-405,0,0,0,0,0,0,0,0,0,-1,1609,1429,0,0
392,-405,0,0,0,0,0,0,0,0,0,-1,1616,1429,0,0
399,-405,0,0,0,0,0,0,0,0,0,-1,1623,1429,0,0
406,-405,0,0,0,0,0,0,0,0,0,-1,1630,1429,0,0
413,-405,0,0,0,0,0,0,0,0,0,-1,1637,1429,0,0
420,-405,0,0,0,0,0,0,0,0,0,-1,1644,1429,0,0
427,-405,0,0,0,0,0,0,0,0,0,-1,1651,1429,0,0
434,-405,0,0,0,0,0,0,0,0,0,-1,1658,1429,0,0
441,-405,0,0,0,0,0,0,0,0,0,-1,1665,1429,0,0
448,-405,0,0,0,0,0,0,0,0,0,-1,1672,1429,0,0
455,-405,0,0,0,0,0,0,0,0,0,-1,1679,1429,0,0
462,-405,0,0,0,0,0,0,0,0,0,-1,1686,1429,0,0
469,-405,0,0,0,0,0,0,0,0,0,-1,1693,1429,0,0
476,-405,0,0,0,0,0,0,0,0,0,-1,1700,1429,0,0
483,-405,0,0,0,0,0,0,0,0,0,-1,1707,1429,0,0
490,-405,0,0,0,0,0,0,0,0,0,-1,1714,1429,0,0
497,-405,0,0,0,0,0,0,0,0,0,-1,1721,1429,0,0
504,-405,0,0,0,0,0,0,0,0,0,-1,1728,1429,0,0
511,-405,0,0,0,0,0,0,0,0,0,-1,1735,1429,0,0
518,-405,0,0,0,0,0,0,0,0,0,-1,1742,1429,0,0
525,-405,31.1563,-1.40942,0,0,0,0,0,0,0,-1,1749,1429,31.1563,1.40937
532,-405,28.156,4.8783,0,0,0,0,0,0,0,-1,1756,1429,28.1561,-4.87833
539,-405,26.5133,3.02454,0,0,0,0,0,0,0,-1,1763,1429,26.5133,-3.0246
546,-405,29.5735,6.53052,0,0,0,0,0,0,0,-1,1770,1429,29.5735,-6.53049
553,-405,28.2911,6.70654,0,0,0,0,0,0,0,-1,1777,1429,28.2912,-6.70656
560,-405,26.9299,7.08472,0,0,0,0,0,0,0,-1,1784,1429,26.9299,-7.08469
567,-405,25.804,7.14661,0,0,0,0,0,0,0,-1,1791,1429,25.8039,-7.14665
574,-405,25.1151,8.07971,0,0,0,0,0,0,0,-1,1798,1429,25.1151,-8.07965
581,-405,23.5055,8.505,0,0,0,0,0,0,0,-1,1805,1429,23.5054,-8.50501
588,-405,21.7491,8.98254,0,0,0,0,0,0,0,-1,1812,1429,21.7491,-8.98254
595,-405,21.6327,10.7795,0,0,0,0,0,0,0,-1,1819,1429,21.6327,-10.7796
602,-405,21.6461,13.9199,0,0,0,0,0,0,0,-1,1826,1429,21.6461,-13.92
609,-405,37.801,24.062,0,0,0,0,0,0,0,-1,1833,1429,37.8011,-24.062
616,-405,118.387,84.005,0,0,0,0,0,0,0,-1,1840,1429,118.387,-84.0051
623,-405,138.878,80.4446,0,0,0,0,0,0,0,-1,1847,1429,138.878,-80.4446
630,-405,138.247,77.3912,-0.0254572,-0.00414236,0.029936,0.0169767,-0.0465763,0.956407,0.0379957,0.0298973,1854,1429,138.247,-77.3912
637,-405,137.596,74.3542,-0.0157891,0.00446548,0.0272518,0.0234109,-0.0347345,0.9633,0.0337818,0.0236967,1861,1429,137.596,-74.3543
644,-405,136.821,71.2649,-0.00841258,0.0121482,0.0258963,0.02973,-0.0259944,0.974349,0.0321966,0.0459015,1868,1429,136.821,-71.2649
651,-405,135.912,68.2844,-0.00289525,0.0189177,0.0255768,0.0358163,-0.0197939,0.986935,0.0325477,0.044809,1875,1429,135.912,-68.2844
658,-405,135.357,65.5399,0.00113872,0.0249866,0.0261237,0.041779,-0.0156537,0.999497,0.0342832,0.0357022,1882,1429,135.357,-65.5399
665,-405,134.78,62.6554,0.00331291,0.0301181,0.0277198,0.0475054,-0.0140743,1.01058,0.0372586,0.0257502,1889,1429,134.78,-62.6554
672,-405,134.192,59.7285,0.00384482,0.0342721,0.0301524,0.0528316,-0.0147146,1.01904,0.0410154,0.0342799,1896,1429,134.192,-59.7285
679,-405,133.617,56.7626,0,0,0,0,0,0,0,-1,1903,1429,133.617,-56.7626
686,-405,42.9835,18.502,0,0,0,0,0,0,0,-1,1910,1429,42.9835,-18.5019
693,-405,37.6653,14.9521,0,0,0,0,0,0,0,-1,1917,1429,37.6653,-14.9521
700,-405,9.1958,4.02026,0,0,0,0,0,0,0,-1,1924,1429,9.19579,-4.02025
707,-405,7.40308,3.83191,0,0,0,0,0,0,0,-1,1931,1429,7.40311,-3.83194
714,-405,7.33252,3.47388,0,0,0,0,0,0,0,-1,1938,1429,7.33255,-3.47383
721,-405,9.23523,0.993896,0,0,0,0,0,0,0,-1,1945,1429,9.23523,-0.993884
728,-405,0,0,0,0,0,0,0,0,0,-1,1952,1429,0,0
735,-405,0,0,0,0,0,0,0,0,0,-1,1959,1429,0,0
742,-405,0,0,0,0,0,0,0,0,0,-1,1966,1429,0,0
749,-405,0,0,0,0,0,0,0,0,0,-1,1973,1429,0,0
756,-405,0,0,0,0,0,0,0,0,0,-1,1980,1429,0,0
763,-405,0,0,0,0,0,0,0,0,0,-1,1987,1429,0,0
770,-405,0,0,0,0,0,0,0,0,0,-1,1994,1429,0,0
777,-405,0,0,0,0,0,0,0,0,0,-1,2001,1429,0,0
784,-405,0,0,0,0,0,0,0,0,0,-1,2008,1429,0,0
791,-405,0,0,0,0,0,0,0,0,0,-1,2015,1429,0,0
798,-405,0,0,0,0,0,0,0,0,0,-1,2022,1429,0,0
805,-405,0,0,0,0,0,0,0,0,0,-1,2029,1429,0,0
812,-405,0,0,0,0,0,0,0,0,0,-1,2036,1429,0,0
-700,-412,0,0,0,0,0,0,0,0,0,-1,524,1436,0,0
-693,-412,0,0,0,0,0,0,0,0,0,-1,531,1436,0,0
-686,-412,0,0,0,0,0,0,0,0,0,-1,538,1436,0,0
-679,-412,0,0,0,0,0,0,0,0,0,-1,545,1436,0,0
-672,-412,0,0,0,0,0,0,0,0,0,-1,552,1436,0,0
-665,-412,0,0,0,0,0,0,0,0,0,-1,559,1436,0,0
-658,-412,0,0,0,0,0,0,0,0,0,-1,566,1436,0,0
-651,-412,0,0,0,0,0,0,0,0,0,-1,573,1436,0,0
-644,-412,0,0,0,0,0,0,0,0,0,-1,580,1436,0,0
-637,-412,0,0,0,0,0,0,0,0,0,-1,587,1436,0,0
-630,-412,0,0,0,0,0,0,0,0,0,-1,594,1436,0,0
-623,-412,0,0,0,0,0,0,0,0,0,-1,601,1436,0,0
-616,-412,0,0,0,0,0,0,0,0,0,-1,608,1436,0,0
-609,-412,0,0,0,0,0,0,0,0,0,-1,615,1436,0,0
-602,-412,-3.72766,-3.50012,0,0,0,0,0,0,0,-1,622,1436,-3.72764,3.50017
-595,-412,-10.3706,0.65564,0,0,0,0,0,0,0,-1,629,1436,-10.3706,-0.655672
-588,-412,-8.17957,1.94934,0,0,0,0,0,0,0,-1,636,1436,-8.17956,-1.94939
-581,-412,-6.60065,-0.0554199,0,0,0,0,0,0,0,-1,643,1436,-6.60063,0.0554733
-574,-412,-8.34131,5.25012,0,0,0,0,0,0,0,-1,650,1436,-8.34129,-5.25012
-567,-412,-7.50354,3.65454,0,0,0,0,0,0,0,-1,657,1436,-7.50356,-3.65452
-560,-412,-8.52448,7.39014,0,0,0,0,0,0,0,-1,664,1436,-8.52447,-7.39019
-553,-412,-7.36761,6.54651,0,0,0,0,0,0,0,-1,671,1436,-7.36763,-6.54654
-546,-412,-30.9525,25.4158,0,0,0,0,0,0,0,-1,678,1436,-30.9525,-25.4157
-539,-412,-124.78,56.7965,0,0,0,0,0,0,0,-1,685,1436,-124.78,-56.7965
-532,-412,-125.154,59.9233,0.00806906,0.0424017,-0.0311503,0.0608026,-0.0103318,-1.03723,0.0443817,0.0297022,692,1436,-125.154,-59.9233
-525,-412,-125.715,62.8286,0.00849881,0.0377726,-0.0286799,0.0553347,-0.00906325,-1.02135,0.0402524,0.0220876,699,1436,-125.715,-62.8286
-518,-412,-126.217,65.8359,0.00871373,0.0337982,-0.0258257,0.0499662,-0.00745421,-1.01145,0.0360533,0.0213009,706,1436,-126.217,-65.8359
-511,-412,-126.779,68.9766,0.00864025,0.0306564,-0.0226289,0.0448127,-0.00551606,-1.01178,0.0318733,0.0252384,713,1436,-126.779,-68.9766
-504,-412,-127.467,72.0106,0.00825701,0.028168,-0.0192096,0.0398486,-0.00342361,-1.02447,0.0277774,0.0258836,720,1436,-127.467,-72.0106
-497,-412,-127.994,75.2731,0.00751325,0.0263848,-0.0155926,0.0351744,-0.00127637,-1.05749,0.0238864,0.0425107,727,1436,-127.994,-75.2731
-490,-412,-128.656,78.6644,0,0,0,0,0,0,0,-1,734,1436,-128.656,-78.6644
-483,-412,-129.491,81.7062,0,0,0,0,0,0,0,-1,741,1436,-129.491,-81.7062
-476,-412,-93.595,83.6998,0,0,0,0,0,0,0,-1,748,1436,-93.5949,-83.6999
-469,-412,-12.7646,18.4785,0,0,0,0,0,0,0,-1,755,1436,-12.7647,-18.4785
-462,-412,-8.94659,13.3385,0,0,0,0,0,0,0,-1,762,1436,-8.94657,-13.3385
-455,-412,-8.25006,11.2572,0,0,0,0,0,0,0,-1,769,1436,-8.25007,-11.2572
-448,-412,-7.38086,8.78186,0,0,0,0,0,0,0,-1,776,1436,-7.38088,-8.78183
-441,-412,-8.79523,9.05286,0,0,0,0,0,0,0,-1,783,1436,-8.79521,-9.0529
-434,-412,-10.6305,8.03577,0,0,0,0,0,0,0,-1,790,1436,-10.6305,-8.0358
-427,-412,-10.0004,5.15271,0,0,0,0,0,0,0,-1,797,1436,-10.0004,-5.15266
-420,-412,-10.4468,4.9043,0,0,0,0,0,0,0,-1,804,1436,-10.4468,-4.90429
-413,-412,-11.5704,4.97766,0,0,0,0,0,0,0,-1,811,1436,-11.5704,-4.97771
-406,-412,-13.1968,5.70093,0,0,0,0,0,0,0,-1,818,1436,-13.1968,-5.70096
-399,-412,-10.5506,0.771973,0,0,0,0,0,0,0,-1,825,1436,-10.5506,-0.771954
-392,-412,0,0,0,0,0,0,0,0,0,-1,832,1436,0,0
-385,-412,0,0,0,0,0,0,0,0,0,-1,839,1436,0,0
-378,-412,0,0,0,0,0,0,0,0,0,-1,846,1436,0,0
-371,-412,0,0,0,0,0,0,0,0,0,-1,853,1436,0,0
-364,-412,0,0,0,0,0,0,0,0,0,-1,860,1436,0,0
-357,-412,0,0,0,0,0,0,0,0,0,-1,867,1436,0,0
-350,-412,0,0,0,0,0,0,0,0,0,-1,874,1436,0,0
-343,-412,0,0,0,0,0,0,0,0,0,-1,881,1436,0,0
-336,-412,0,0,0,0,0,0,0,0,0,-1,888,1436,0,0
-329,-412,0,0,0,0,0,0,0,0,0,-1,895,1436,0,0
-322,-412,0,0,0,0,0,0,0,0,0,-1,902,1436,0,0
-315,-412,0,0,0,0,0,0,0,0,0,-1,909,1436,0,0
-308,-412,0,0,0,0,0,0,0,0,0,-1,916,1436,0,0
-301,-412,0,0,0,0,0,0,0,0,0,-1,923,1436,0,0
-294,-412,0,0,0,0,0,0,0,0,0,-1,930,1436,0,0
-287,-412,0,0,0,0,0,0,0,0,0,-1,937,1436,0,0
-280,-412,0,0,0,0,0,0,0,0,0,-1,944,1436,0,0
-273,-412,0,0,0,0,0,0,0,0,0,-1,951,1436,0,0
-266,-412,0,0,0,0,0,0,0,0,0,-1,958,1436,0,0
-259,-412,0,0,0,0,0,0,0,0,0,-1,965,1436,0,0
-252,-412,0,0,0,0,0,0,0,0,0,-1,972,1436,0,0
-245,-412,0,0,0,0,0,0,0,0,0,-1,979,1436,0,0
-238,-412,0,0,0,0,0,0,0,0,0,-1,986,1436,0,0
-231,-412,0,0,0,0,0,0,0,0,0,-1,993,1436,0,0
-224,-412,0,0,0,0,0,0,0,0,0,-1,1000,1436,0,0
-217,-412,0,0,0,0,0,0,0,0,0,-1,1007,1436,0,0
-210,-412,0,0,0,0,0,0,0,0,0,-1,1014,1436,0,0
-203,-412,0,0,0,0,0,0,0,0,0,-1,1021,1436,0,0
-196,-412,0,0,0,0,0,0,0,0,0,-1,1028,1436,0,0
-189,-412,0,0,0,0,0,0,0,0,0,-1,1035,1436,0,0
-182,-412,0,0,0,0,0,0,0,0,0,-1,1042,1436,0,0
-175,-412,0,0,0,0,0,0,0,0,0,-1,1049,1436,0,0
-168,-412,0,0,0,0,0,0,0,0,0,-1,1056,1436,0,0
-161,-412,0,0,0,0,0,0,0,0,0,-1,1063,1436,0,0
-154,-412,0,0,0,0,0,0,0,0,0,-1,1070,1436,0,0
-147,-412,0,0,0,0,0,0,0,0,0,-1,1077,1436,0,0
-140,-412,0,0,0,0,0,0,0,0,0,-1,1084,1436,0,0
-133,-412,0,0,0,0,0,0,0,0,0,-1,1091,1436,0,0
-126,-412,0,0,0,0,0,0,0,0,0,-1,1098,1436,0,0
-119,-412,0,0,0,0,0,0,0,0,0,-1,1105,1436,0,0
-112,-412,0,0,0,0,0,0,0,0,0,-1,1112,1436,0,0
-105,-412,0,0,0,0,0,0,0,0,0,-1,1119,1436,0,0
-98,-412,0,0,0,0,0,0,0,0,0,-1,1126,1436,0,0
-91,-412,0,0,0,0,0,0,0,0,0,-1,1133,1436,0,0
-84,-412,0,0,0,0,0,0,0,0,0,-1,1140,1436,0,0
-77,-412,0,0,0,0,0,0,0,0,0,-1,1147,1436,0,0
-70,-412,0,0,0,0,0,0,0,0,0,-1,1154,1436,0,0
-63,-412,0,0,0,0,0,0,0,0,0,-1,1161,1436,0,0
-56,-412,0,0,0,0,0,0,0,0,0,-1,1168,1436,0,0
-49,-412,0,0,0,0,0,0,0,0,0,-1,1175,1436,0,0
-42,-412,0,0,0,0,0,0,0,0,0,-1,1182,1436,0,0
-35,-412,0,0,0,0,0,0,0,0,0,-1,1189,1436,0,0
-28,-412,0,0,0,0,0,0,0,0,0,-1,1196,1436,0,0
-21,-412,0,0,0,0,0,0,0,0,0,-1,1203,1436,0,0
-14,-412,0,0,0,0,0,0,0,0,0,-1,1210,1436,0,0
-7,-412,0,0,0,0,0,0,0,0,0,-1,1217,1436,0,0
0,-412,0,0,0,0,0,0,0,0,0,-1,1224,1436,0,0
7,-412,0,0,0,0,0,0,0,0,0,-1,1231,1436,0,0
14,-412,0,0,0,0,0,0,0,0,0,-1,1238,1436,0,0
21,-412,0,0,0,0,0,0,0,0,0,-1,1245,1436,0,0
28,-412,0,0,0,0,0,0,0,0,0,-1,1252,1436,0,0
35,-412,0,0,0,0,0,0,0,0,0,-1,1259,1436,0,0
42,-412,0,0,0,0,0,0,0,0,0,-1,1266,1436,0,0
49,-412,0,0,0,0,0,0,0,0,0,-1,1273,1436,0,0
56,-412,0,0,0,0,0,0,0,0,0,-1,1280,1436,0,0
63,-412,0,0,0,0,0,0,0,0,0,-1,1287,1436,0,0
70,-412,0,0,0,0,0,0,0,0,0,-1,1294,1436,0,0
77,-412,0,0,0,0,0,0,0,0,0,-1,1301,1436,0,0
84,-412,0,0,0,0,0,0,0,0,0,-1,1308,1436,0,0
91,-412,0,0,0,0,0,0,0,0,0,-1,1315,1436,0,0
98,-412,0,0,0,0,0,0,0,0,0,-1,1322,1436,0,0
105,-412,0,0,0,0,0,0,0,0,0,-1,1329,1436,0,0
112,-412,0,0,0,0,0,0,0,0,0,-1,1336,1436,0,0
119,-412,0,0,0,0,0,0,0,0,0,-1,1343,1436,0,0
126,-412,0,0,0,0,0,0,0,0,0,-1,1350,1436,0,0
133,-412,0,0,0,0,0,0,0,0,0,-1,1357,1436,0,0
140,-412,0,0,0,0,0,0,0,0,0,-1,1364,1436,0,0
147,-412,0,0,0,0,0,0,0,0,0,-1,1371,1436,0,0
154,-412,0,0,0,0,0,0,0,0,0,-1,1378,1436,0,0
161,-412,0,0,0,0,0,0,0,0,0,-1,1385,1436,0,0
168,-412,0,0,0,0,0,0,0,0,0,-1,1392,1436,0,0
175,-412,0,0,0,0,0,0,0,0,0,-1,1399,1436,0,0
182,-412,0,0,0,0,0,0,0,0,0,-1,1406,1436,0,0
189,-412,0,0,0,0,0,0,0,0,0,-1,1413,1436,0,0
196,-412,0,0,0,0,0,0,0,0,0,-1,1420,1436,0,0
203,-412,0,0,0,0,0,0,0,0,0,-1,1427,1436,0,0
210,-412,0,0,0,0,0,0,0,0,0,-1,1434,1436,0,0
217,-412,0,0,0,0,0,0,0,0,0,-1,1441,1436,0,0
224,-412,0,0,0,0,0,0,0,0,0,-1,1448,1436,0,0
231,-412,0,0,0,0,0,0,0,0,0,-1,1455,1436,0,0
238,-412,0,0,0,0,0,0,0,0,0,-1,1462,1436,0,0
245,-412,0,0,0,0,0,0,0,0,0,-1,1469,1436,0,0
252,-412,0,0,0,0,0,0,0,0,0,-1,1476,1436,0,0
259,-412,0,0,0,0,0,0,0,0,0,-1,1483,1436,0,0
266,-412,0,0,0,0,0,0,0,0,0,-1,1490,1436,0,0
273,-412,0,0,0,0,0,0,0,0,0,-1,1497,1436,0,0
280,-412,0,0,0,0,0,0,0,0,0,-1,1504,1436,0,0
287,-412,0,0,0,0,0,0,0,0,0,-1,1511,1436,0,0
294,-412,0,0,0,0,0,0,0,0,0,-1,1518,1436,0,0
301,-412,0,0,0,0,0,0,0,0,0,-1,1525,1436,0,0
308,-412,0,0,0,0,0,0,0,0,0,-1,1532,1436,0,0
315,-412,0,0,0,0,0,0,0,0,0,-1,1539,1436,0,0
322,-412,0,0,0,0,0,0,0,0,0,-1,1546,1436,0,0
329,-412,0,0,0,0,0,0,0,0,0,-1,1553,1436,0,0
336,-412,0,0,0,0,0,0,0,0,0,-1,1560,1436,0,0
343,-412,0,0,0,0,0,0,0,0,0,-1,1567,1436,0,0
350,-412,0,0,0,0,0,0,0,0,0,-1,1574,1436,0,0
357,-412,0,0,0,0,0,0,0,0,0,-1,1581,1436,0,0
364,-412,0,0,0,0,0,0,0,0,0,-1,1588,1436,0,0
371,-412,0,0,0,0,0,0,0,0,0,-1,1595,1436,0,0
378,-412,0,0,0,0,0,0,0,0,0,-1,1602,1436,0,0
385,-412,0,0,0,0,0,0,0,0,0,-1,1609,1436,0,0
392,-412,0,0,0,0,0,0,0,0,0,-1,1616,1436,0,0
399,-412,0,0,0,0,0,0,0,0,0,-1,1623,1436,0,0
406,-412,0,0,0,0,0,0,0,0,0,-1,1630,1436,0,0
413,-412,0,0,0,0,0,0,0,0,0,-1,1637,1436,0,0
420,-412,0,0,0,0,0,0,0,0,0,-1,1644,1436,0,0
427,-412,0,0,0,0,0,0,0,0,0,-1,1651,1436,0,0
434,-412,0,0,0,0,0,0,0,0,0,-1,1658,1436,0,0
441,-412,0,0,0,0,0,0,0,0,0,-1,1665,1436,0,0
448,-412,0,0,0,0,0,0,0,0,0,-1,1672,1436,0,0
455,-412,0,0,0,0,0,0,0,0,0,-1,1679,1436,0,0
462,-412,0,0,0,0,0,0,0,0,0,-1,1686,1436,0,0
469,-412,0,0,0,0,0,0,0,0,0,-1,1693,1436,0,0
476,-412,0,0,0,0,0,0,0,0,0,-1,1700,1436,0,0
483,-412,0,0,0,0,0,0,0,0,0,-1,1707,1436,0,0
490,-412,0,0,0,0,0,0,0,0,0,-1,1714,1436,0,0
497,-412,0,0,0,0,0,0,0,0,0,-1,1721,1436,0,0
504,-412,0,0,0,0,0,0,0,0,0,-1,1728,1436,0,0
511,-412,0,0,0,0,0,0,0,0,0,-1,1735,1436,0,0
518,-412,30.1038,-2.43384,0,0,0,0,0,0,0,-1,1742,1436,30.1038,2.43383
525,-412,29.5283,-1.42493,0,0,0,0,0,0,0,-1,1749,1436,29.5283,1.42495
532,-412,28.8533,-0.386597,0,0,0,0,0,0,0,-1,1756,1436,28.8533,0.386632
539,-412,25.8654,2.74683,0,0,0,0,0,0,0,-1,1763,1436,25.8654,-2.74685
546,-412,25.4265,2.4342,0,0,0,0,0,0,0,-1,1770,1436,25.4265,-2.4342
553,-412,26.3595,7.49255,0,0,0,0,0,0,0,-1,1777,1436,26.3595,-7.4925
560,-412,24.9116,7.94324,0,0,0,0,0,0,0,-1,1784,1436,24.9116,-7.94327
567,-412,23.668,7.94531,0,0,0,0,0,0,0,-1,1791,1436,23.6679,-7.94534
574,-412,23.0142,9.17236,0,0,0,0,0,0,0,-1,1798,1436,23.0141,-9.17235
581,-412,22.2615,10.0349,0,0,0,0,0,0,0,-1,1805,1436,22.2615,-10.0349
588,-412,21.6893,10.8069,0,0,0,0,0,0,0,-1,1812,1436,21.6893,-10.8069
595,-412,21.5137,14.3157,0,0,0,0,0,0,0,-1,1819,1436,21.5137,-14.3157
602,-412,37.0725,24.8387,0,0,0,0,0,0,0,-1,1826,1436,37.0725,-24.8388
609,-412,80.7455,73.8978,0,0,0,0,0,0,0,-1,1833,1436,80.7455,-73.8979
616,-412,115.253,85.759,0,0,0,0,0,0,0,-1,1840,1436,115.253,-85.759
623,-412,135.474,81.6991,0,0,0,0,0,0,0,-1,1847,1436,135.474,-81.699
630,-412,134.829,78.4679,-0.0232928,0.000522451,0.0315114,0.022301,-0.0450714,0.966046,0.0396311,0.0246965,1854,1436,134.829,-78.4679
637,-412,134.2,75.1783,-0.0137421,0.00872621,0.0289108,0.0285088,-0.0335248,0.97071,0.0358541,0.0211995,1861,1436,134.2,-75.1783
644,-412,133.519,71.9806,-0.00620837,0.0161977,0.0274635,0.0346553,-0.0246659,0.979058,0.0344106,0.0257778,1868,1436,133.519,-71.9806
651,-412,132.328,68.844,0,0,0,0,0,0,0,-1,1875,1436,132.327,-68.844
658,-412,131.937,66.1432,0.00392317,0.0291592,0.0272976,0.046614,-0.0135316,1.00189,0.036434,0.0297978,1882,1436,131.937,-66.1431
665,-412,131.489,63.2566,0.00561243,0.0341797,0.0289892,0.0522132,-0.0124211,1.0143,0.0396038,0.032643,1889,1436,131.488,-63.2565
672,-412,131.046,60.3467,0,0,0,0,0,0,0,-1,1896,1436,131.046,-60.3467
679,-412,40.6736,18.6143,0,0,0,0,0,0,0,-1,1903,1436,40.6736,-18.6142
686,-412,35.3159,15.2073,0,0,0,0,0,0,0,-1,1910,1436,35.3159,-15.2072
693,-412,11.9346,6.02344,0,0,0,0,0,0,0,-1,1917,1436,11.9346,-6.02343
700,-412,8.82764,5.8844,0,0,0,0,0,0,0,-1,1924,1436,8.82761,-5.88444
707,-412,6.59998,1.68994,0,0,0,0,0,0,0,-1,1931,1436,6.60002,-1.68995
714,-412,4.77283,-2.39832,0,0,0,0,0,0,0,-1,1938,1436,4.77288,2.39835
721,-412,0,0,0,0,0,0,0,0,0,-1,1945,1436,0,0
728,-412,0,0,0,0,0,0,0,0,0,-1,1952,1436,0,0
735,-412,0,0,0,0,0,0,0,0,0,-1,1959,1436,0,0
742,-412,0,0,0,0,0,0,0,0,0,-1,1966,1436,0,0
749,-412,0,0,0,0,0,0,0,0,0,-1,1973,1436,0,0
756,-412,0,0,0,0,0,0,0,0,0,-1,1980,1436,0,0
763,-412,0,0,0,0,0,0,0,0,0,-1,1987,1436,0,0
770,-412,0,0,0,0,0,0,0,0,0,-1,1994,1436,0,0
777,-412,0,0,0,0,0,0,0,0,0,-1,2001,1436,0,0
784,-412,0,0,0,0,0,0,0,0,0,-1,2008,1436,0,0
791,-412,0,0,0,0,0,0,0,0,0,-1,2015,1436,0,0
798,-412,0,0,0,0,0,0,0,0,0,-1,2022,1436,0,0
805,-412,0,0,0,0,0,0,0,0,0,-1,2029,1436,0,0
812,-412,0,0,0,0,0,0,0,0,0,-1,2036,1436,0,0
-700,-419,0,0,0,0,0,0,0,0,0,-1,524,1443,0,0
-693,-419,0,0,0,0,0,0,0,0,0,-1,531,1443,0,0
-686,-419,0,0,0,0,0,0,0,0,0,-1,538,1443,0,0
-679,-419,0,0,0,0,0,0,0,0,0,-1,545,1443,0,0
-672,-419,0,0,0,0,0,0,0,0,0,-1,552,1443,0,0
-665,-419,0,0,0,0,0,0,0,0,0,-1,559,1443,0,0
-658,-419,0,0,0,0,0,0,0,0,0,-1,566,1443,0,0
-651,-419,0,0,0,0,0,0,0,0,0,-1,573,1443,0,0
-644,-419,0,0,0,0,0,0,0,0,0,-1,580,1443,0,0
-637,-419,0,0,0,0,0,0,0,0,0,-1,587,1443,0,0
-630,-419,0,0,0,0,0,0,0,0,0,-1,594,1443,0,0
-623,-419,0,0,0,0,0,0,0,0,0,-1,601,1443,0,0
-616,-419,0,0,0,0,0,0,0,0,0,-1,608,1443,0,0
-609,-419,0,0,0,0,0,0,0,0,0,-1,615,1443,0,0
-602,-419,0,0,0,0,0,0,0,0,0,-1,622,1443,0,0
-595,-419,-11.4904,-0.622681,0,0,0,0,0,0,0,-1,629,1443,-11.4903,0.622714
-588,-419,-9.09369,0.742432,0,0,0,0,0,0,0,-1,636,1443,-9.09366,-0.742482
-581,-419,-6.39172,2.14673,0,0,0,0,0,0,0,-1,643,1443,-6.39175,-2.14668
-574,-419,-4.09772,3.54773,0,0,0,0,0,0,0,-1,650,1443,-4.09772,-3.54767
-567,-419,-6.14038,3.22498,0,0,0,0,0,0,0,-1,657,1443,-6.14037,-3.22497
-560,-419,-4.52814,5.22253,0,0,0,0,0,0,0,-1,664,1443,-4.52816,-5.22251
-553,-419,-5.08331,6.11829,0,0,0,0,0,0,0,-1,671,1443,-5.08331,-6.1183
-546,-419,-10.3732,9.23279,0,0,0,0,0,0,0,-1,678,1443,-10.3732,-9.23275
-539,-419,-30.3044,27.1487,0,0,0,0,0,0,0,-1,685,1443,-30.3044,-27.1487
-532,-419,-121.758,60.3837,0,0,0,0,0,0,0,-1,692,1443,-121.758,-60.3836
-525,-419,-122.14,63.4685,0.00839566,0.0397515,-0.0316827,0.0594231,-0.0112759,-1.01515,0.0438599,0.0180272,699,1443,-122.14,-63.4685
-518,-419,-122.738,66.5759,0.0084501,0.035479,-0.0289566,0.0539196,-0.00999049,-1.00373,0.0396978,0.0213159,706,1443,-122.738,-66.576
-511,-419,-123.373,69.7213,0.00805904,0.0322775,-0.0258579,0.0487211,-0.0083846,-1.00438,0.0356062,0.0250776,713,1443,-123.373,-69.7213
-504,-419,-124.078,72.7671,0.00734926,0.0297527,-0.022534,0.0437156,-0.00661368,-1.01606,0.03158,0.0255375,720,1443,-124.078,-72.7671
-497,-419,-124.837,75.8364,0.00626703,0.0279152,-0.0190243,0.0389791,-0.00479691,-1.04404,0.0277237,0.0260823,727,1443,-124.837,-75.8364
-490,-419,-125.609,79.1869,0.00479161,0.0268997,-0.0153181,0.0347357,-0.00304443,-1.09795,0.0242358,0.0464016,734,1443,-125.609,-79.1869
-483,-419,-126.886,82.0942,0,0,0,0,0,0,0,-1,741,1443,-126.886,-82.0942
-476,-419,-127.1,85.7593,0,0,0,0,0,0,0,-1,748,1443,-127.1,-85.7593
-469,-419,-85.6953,85.1677,0,0,0,0,0,0,0,-1,755,1443,-85.6953,-85.1677
-462,-419,-11.5347,18.1563,0,0,0,0,0,0,0,-1,762,1443,-11.5347,-18.1562
-455,-419,-7.35645,11.9451,0,0,0,0,0,0,0,-1,769,1443,-7.35646,-11.9451
-448,-419,-7.49109,9.92444,0,0,0,0,0,0,0,-1,776,1443,-7.49109,-9.92442
-441,-419,-7.65527,8.75574,0,0,0,0,0,0,0,-1,783,1443,-7.65525,-8.75568
-434,-419,-11.3724,12.3643,0,0,0,0,0,0,0,-1,790,1443,-11.3724,-12.3643
-427,-419,-8.23193,7.89404,0,0,0,0,0,0,0,-1,797,1443,-8.23193,-7.89404
-420,-419,-8.74091,6.36597,0,0,0,0,0,0,0,-1,804,1443,-8.74089,-6.366
-413,-419,-9.88391,6.53955,0,0,0,0,0,0,0,-1,811,1443,-9.8839,-6.53955
-406,-419,-10.3372,2.75195,0,0,0,0,0,0,0,-1,818,1443,-10.3372,-2.75201
-399,-419,-11.5999,1.40002,0,0,0,0,0,0,0,-1,825,1443,-11.5999,-1.39998
-392,-419,0,0,0,0,0,0,0,0,0,-1,832,1443,0,0
-385,-419,0,0,0,0,0,0,0,0,0,-1,839,1443,0,0
-378,-419,0,0,0,0,0,0,0,0,0,-1,846,1443,0,0
-371,-419,0,0,0,0,0,0,0,0,0,-1,853,1443,0,0
-364,-419,0,0,0,0,0,0,0,0,0,-1,860,1443,0,0
-357,-419,0,0,0,0,0,0,0,0,0,-1,867,1443,0,0
-350,-419,0,0,0,0,0,0,0,0,0,-1,874,1443,0,0
-343,-419,0,0,0,0,0,0,0,0,0,-1,881,1443,0,0
-336,-419,0,0,0,0,0,0,0,0,0,-1,888,1443,0,0
-329,-419,0,0,0,0,0,0,0,0,0,-1,895,1443,0,0
-322,-419,0,0,0,0,0,0,0,0,0,-1,902,1443,0,0
-315,-419,0,0,0,0,0,0,0,0,0,-1,909,1443,0,0
-308,-419,0,0,0,0,0,0,0,0,0,-1,916,1443,0,0
-301,-419,0,0,0,0,0,0,0,0,0,-1,923,1443,0,0
-294,-419,0,0,0,0,0,0,0,0,0,-1,930,1443,0,0
-287,-419,0,0,0,0,0,0,0,0,0,-1,937,1443,0,0
-280,-419,0,0,0,0,0,0,0,0,0,-1,944,1443,0,0
-273,-419,0,0,0,0,0,0,0,0,0,-1,951,1443,0,0
-266,-419,0,0,0,0,0,0,0,0,0,-1,958,1443,0,0
-259,-419,0,0,0,0,0,0,0,0,0,-1,965,1443,0,0
-252,-419,0,0,0,0,0,0,0,0,0,-1,972,1443,0,0
-245,-419,0,0,0,0,0,0,0,0,0,-1,979,1443,0,0
-238,-419,0,0,0,0,0,0,0,0,0,-1,986,1443,0,0
-231,-419,0,0,0,0,0,0,0,0,0,-1,993,1443,0,0
-224,-419,0,0,0,0,0,0,0,0,0,-1,1000,1443,0,0
-217,-419,0,0,0,0,0,0,0,0,0,-1,1007,1443,0,0
-210,-419,0,0,0,0,0,0,0,0,0,-1,1014,1443,0,0
-203,-419,0,0,0,0,0,0,0,0,0,-1,1021,1443,0,0
-196,-419,0,0,0,0,0,0,0,0,0,-1,1028,1443,0,0
-189,-419,0,0,0,0,0,0,0,0,0,-1,1035,1443,0,0
-182,-419,0,0,0,0,0,0,0,0,0,-1,1042,1443,0,0
-175,-419,0,0,0,0,0,0,0,0,0,-1,1049,1443,0,0
-168,-419,0,0,0,0,0,0,0,0,0,-1,1056,1443,0,0
-161,-419,0,0,0,0,0,0,0,0,0,-1,1063,1443,0,0
-154,-419,0,0,0,0,0,0,0,0,0,-1,1070,1443,0,0
-147,-419,0,0,0,0,0,0,0,0,0,-1,1077,1443,0,0
-140,-419,0,0,0,0,0,0,0,0,0,-1,1084,1443,0,0
-133,-419,0,0,0,0,0,0,0,0,0,-1,1091,1443,0,0
-126,-419,0,0,0,0,0,0,0,0,0,-1,1098,1443,0,0
-119,-419,0,0,0,0,0,0,0,0,0,-1,1105,1443,0,0
-112,-419,0,0,0,0,0,0,0,0,0,-1,1112,1443,0,0
-105,-419,0,0,0,0,0,0,0,0,0,-1,1119,1443,0,0
-98,-419,0,0,0,0,0,0,0,0,0,-1,1126,1443,0,0
-91,-419,0,0,0,0,0,0,0,0,0,-1,1133,1443,0,0
-84,-419,0,0,0,0,0,0,0,0,0,-1,1140,1443,0,0
-77,-419,0,0,0,0,0,0,0,0,0,-1,1147,1443,0,0
-70,-419,0,0,0,0,0,0,0,0,0,-1,1154,1443,0,0
-63,-419,0,0,0,0,0,0,0,0,0,-1,1161,1443,0,0
-56,-419,0,0,0,0,0,0,0,0,0,-1,1168,1443,0,0
-49,-419,0,0,0,0,0,0,0,0,0,-1,1175,1443,0,0
-42,-419,0,0,0,0,0,0,0,0,0,-1,1182,1443,0,0
-35,-419,0,0,0,0,0,0,0,0,0,-1,1189,1443,0,0
-28,-419,0,0,0,0,0,0,0,0,0,-1,1196,1443,0,0
-21,-419,0,0,0,0,0,0,0,0,0,-1,1203,1443,0,0
-14,-419,0,0,0,0,0,0,0,0,0,-1,1210,1443,0,0
-7,-419,0,0,0,0,0,0,0,0,0,-1,1217,1443,0,0
0,-419,0,0,0,0,0,0,0,0,0,-1,1224,1443,0,0
7,-419,0,0,0,0,0,0,0,0,0,-1,1231,1443,0,0
14,-419,0,0,0,0,0,0,0,0,0,-1,1238,1443,0,0
21,-419,0,0,0,0,0,0,0,0,0,-1,1245,1443,0,0
28,-419,0,0,0,0,0,0,0,0,0,-1,1252,1443,0,0
35,-419,0,0,0,0,0,0,0,0,0,-1,1259,1443,0,0
42,-419,0,0,0,0,0,0,0,0,0,-1,1266,1443,0,0
49,-419,0,0,0,0,0,0,0,0,0,-1,1273,1443,0,0
56,-419,0,0,0,0,0,0,0,0,0,-1,1280,1443,0,0
63,-419,0,0,0,0,0,0,0,0,0,-1,1287,1443,0,0
70,-419,0,0,0,0,0,0,0,0,0,-1,1294,1443,0,0
77,-419,0,0,0,0,0,0,0,0,0,-1,1301,1443,0,0
84,-419,0,0,0,0,0,0,0,0,0,-1,1308,1443,0,0
91,-419,0,0,0,0,0,0,0,0,0,-1,1315,1443,0,0
98,-419,0,0,0,0,0,0,0,0,0,-1,1322,1443,0,0
105,-419,0,0,0,0,0,0,0,0,0,-1,1329,1443,0,0
112,-419,0,0,0,0,0,0,0,0,0,-1,1336,1443,0,0
119,-419,0,0,0,0,0,0,0,0,0,-1,1343,1443,0,0
126,-419,0,0,0,0,0,0,0,0,0,-1,1350,1443,0,0
133,-419,0,0,0,0,0,0,0,0,0,-1,1357,1443,0,0
140,-419,0,0,0,0,0,0,0,0,0,-1,1364,1443,0,0
147,-419,0,0,0,0,0,0,0,0,0,-1,1371,1443,0,0
154,-419,0,0,0,0,0,0,0,0,0,-1,1378,1443,0,0
161,-419,0,0,0,0,0,0,0,0,0,-1,1385,1443,0,0
168,-419,0,0,0,0,0,0,0,0,0,-1,1392,1443,0,0
175,-419,0,0,0,0,0,0,0,0,0,-1,1399,1443,0,0
182,-419,0,0,0,0,0,0,0,0,0,-1,1406,1443,0,0
189,-419,0,0,0,0,0,0,0,0,0,-1,1413,1443,0,0
196,-419,0,0,0,0,0,0,0,0,0,-1,1420,1443,0,0
203,-419,0,0,0,0,0,0,0,0,0,-1,1427,1443,0,0
210,-419,0,0,0,0,0,0,0,0,0,-1,1434,1443,0,0
217,-419,0,0,0,0,0,0,0,0,0,-1,1441,1443,0,0
224,-419,0,0,0,0,0,0,0,0,0,-1,1448,1443,0,0
231,-419,0,0,0,0,0,0,0,0,0,-1,1455,1443,0,0
238,-419,0,0,0,0,0,0,0,0,0,-1,1462,1443,0,0
245,-419,0,0,0,0,0,0,0,0,0,-1,1469,1443,0,0
252,-419,0,0,0,0,0,0,0,0,0,-1,1476,1443,0,0
259,-419,0,0,0,0,0,0,0,0,0,-1,1483,1443,0,0
266,-419,0,0,0,0,0,0,0,0,0,-1,1490,1443,0,0
273,-419,0,0,0,0,0,0,0,0,0,-1,1497,1443,0,0
280,-419,0,0,0,0,0,0,0,0,0,-1,1504,1443,0,0
287,-419,0,0,0,0,0,0,0,0,0,-1,1511,1443,0,0
294,-419,0,0,0,0,0,0,0,0,0,-1,1518,1443,0,0
301,-419,0,0,0,0,0,0,0,0,0,-1,1525,1443,0,0
308,-419,0,0,0,0,0,0,0,0,0,-1,1532,1443,0,0
315,-419,0,0,0,0,0,0,0,0,0,-1,1539,1443,0,0
322,-419,0,0,0,0,0,0,0,0,0,-1,1546,1443,0,0
329,-419,0,0,0,0,0,0,0,0,0,-1,1553,1443,0,0
336,-419,0,0,0,0,0,0,0,0,0,-1,1560,1443,0,0
343,-419,0,0,0,0,0,0,0,0,0,-1,1567,1443,0,0
350,-419,0,0,0,0,0,0,0,0,0,-1,1574,1443,0,0
357,-419,0,0,0,0,0,0,0,0,0,-1,1581,1443,0,0
364,-419,0,0,0,0,0,0,0,0,0,-1,1588,1443,0,0
371,-419,0,0,0,0,0,0,0,0,0,-1,1595,1443,0,0
378,-419,0,0,0,0,0,0,0,0,0,-1,1602,1443,0,0
385,-419,0,0,0,0,0,0,0,0,0,-1,1609,1443,0,0
392,-419,0,0,0,0,0,0,0,0,0,-1,1616,1443,0,0
399,-419,0,0,0,0,0,0,0,0,0,-1,1623,1443,0,0
406,-419,0,0,0,0,0,0,0,0,0,-1,1630,1443,0,0
413,-419,0,0,0,0,0,0,0,0,0,-1,1637,1443,0,0
420,-419,0,0,0,0,0,0,0,0,0,-1,1644,1443,0,0
427,-419,0,0,0,0,0,0,0,0,0,-1,1651,1443,0,0
434,-419,0,0,0,0,0,0,0,0,0,-1,1658,1443,0,0
441,-419,0,0,0,0,0,0,0,0,0,-1,1665,1443,0,0
448,-419,0,0,0,0,0,0,0,0,0,-1,1672,1443,0,0
455,-419,0,0,0,0,0,0,0,0,0,-1,1679,1443,0,0
462,-419,0,0,0,0,0,0,0,0,0,-1,1686,1443,0,0
469,-419,0,0,0,0,0,0,0,0,0,-1,1693,1443,0,0
476,-419,0,0,0,0,0,0,0,0,0,-1,1700,1443,0,0
483,-419,0,0,0,0,0,0,0,0,0,-1,1707,1443,0,0
490,-419,0,0,0,0,0,0,0,0,0,-1,1714,1443,0,0
497,-419,0,0,0,0,0,0,0,0,0,-1,1721,1443,0,0
504,-419,0,0,0,0,0,0,0,0,0,-1,1728,1443,0,0
511,-419,20.3005,3.7959,0,0,0,0,0,0,0,-1,1735,1443,20.3005,-3.79584
518,-419,21.3154,2.03027,0,0,0,0,0,0,0,-1,1742,1443,21.3155,-2.03029
525,-419,28.3439,-1.24475,0,0,0,0,0,0,0,-1,1749,1443,28.3438,1.24471
532,-419,27.5902,-0.272583,0,0,0,0,0,0,0,-1,1756,1443,27.5902,0.272526
539,-419,26.5278,1.60583,0,0,0,0,0,0,0,-1,1763,1443,26.5279,-1.60579
546,-419,24.9509,2.77539,0,0,0,0,0,0,0,-1,1770,1443,24.9509,-2.77537
553,-419,24.118,3.75525,0,0,0,0,0,0,0,-1,1777,1443,24.1181,-3.75526
560,-419,11.8199,8.26343,0,0,0,0,0,0,0,-1,1784,1443,11.82,-8.26341
567,-419,21.5143,8.74719,0,0,0,0,0,0,0,-1,1791,1443,21.5143,-8.74722
574,-419,19.5886,6.46155,0,0,0,0,0,0,0,-1,1798,1443,19.5886,-6.46157
581,-419,20.7926,11.4265,0,0,0,0,0,0,0,-1,1805,1443,20.7926,-11.4265
588,-419,19.4242,12.5363,0,0,0,0,0,0,0,-1,1812,1443,19.4242,-12.5362
595,-419,22.9375,16.0151,0,0,0,0,0,0,0,-1,1819,1443,22.9375,-16.0152
602,-419,69.4452,65.303,0,0,0,0,0,0,0,-1,1826,1443,69.4452,-65.3029
609,-419,135.622,86.2025,0,0,0,0,0,0,0,-1,1833,1443,135.622,-86.2025
616,-419,133.758,83.6067,0,0,0,0,0,0,0,-1,1840,1443,133.758,-83.6067
623,-419,132.12,82.402,0,0,0,0,0,0,0,-1,1847,1443,132.12,-82.4019
630,-419,131.433,79.2346,-0.0198375,0.00548908,0.0324152,0.0276267,-0.0419751,0.971613,0.0404682,0.0200163,1854,1443,131.433,-79.2347
637,-419,130.76,76.0757,-0.0104583,0.0133732,0.0299634,0.0337032,-0.0307883,0.974649,0.0372468,0.0208529,1861,1443,130.76,-76.0756
644,-419,130.05,72.9124,-0.0028622,0.0206851,0.028494,0.0397421,-0.0219192,0.981314,0.0360925,0.023167,1868,1443,130.05,-72.9123
651,-419,129.278,69.8645,0.00317699,0.0275354,0.0278477,0.0457507,-0.0150383,0.99154,0.0365592,0.0232189,1875,1443,129.278,-69.8646
658,-419,128.638,66.8274,0.00772602,0.0337251,0.0281575,0.051739,-0.0102879,1.00166,0.0383843,0.0220711,1882,1443,128.638,-66.8274
665,-419,128.14,63.8076,0.00860809,0.0385188,0.0301529,0.0572215,-0.0100946,1.01561,0.0419196,0.0493296,1889,1443,128.14,-63.8076
672,-419,127.766,60.7416,0,0,0,0,0,0,0,-1,1896,1443,127.767,-60.7416
679,-419,35.5436,15.4066,0,0,0,0,0,0,0,-1,1903,1443,35.5436,-15.4067
686,-419,17.4127,8.03076,0,0,0,0,0,0,0,-1,1910,1443,17.4127,-8.03071
693,-419,8.76086,5.60535,0,0,0,0,0,0,0,-1,1917,1443,8.76091,-5.6054
700,-419,11.0498,4.85156,0,0,0,0,0,0,0,-1,1924,1443,11.0498,-4.85153
707,-419,9.5752,1.80042,0,0,0,0,0,0,0,-1,1931,1443,9.57523,-1.80037
714,-419,5.77576,-1.25061,0,0,0,0,0,0,0,-1,1938,1443,5.7757,1.25056
721,-419,0,0,0,0,0,0,0,0,0,-1,1945,1443,0,0
728,-419,0,0,0,0,0,0,0,0,0,-1,1952,1443,0,0
735,-419,0,0,0,0,0,0,0,0,0,-1,1959,1443,0,0
742,-419,0,0,0,0,0,0,0,0,0,-1,1966,1443,0,0
749,-419,0,0,0,0,0,0,0,0,0,-1,1973,1443,0,0
756,-419,0,0,0,0,0,0,0,0,0,-1,1980,1443,0,0
763,-419,0,0,0,0,0,0,0,0,0,-1,1987,1443,0,0
770,-419,0,0,0,0,0,0,0,0,0,-1,1994,1443,0,0
777,-419,0,0,0,0,0,0,0,0,0,-1,2001,1443,0,0
784,-419,0,0,0,0,0,0,0,0,0,-1,2008,1443,0,0
791,-419,0,0,0,0,0,0,0,0,0,-1,2015,1443,0,0
798,-419,0,0,0,0,0,0,0,0,0,-1,2022,1443,0,0
805,-419,0,0,0,0,0,0,0,0,0,-1,2029,1443,0,0
812,-419,0,0,0,0,0,0,0,0,0,-1,2036,1443,0,0
-700,-426,0,0,0,0,0,0,0,0,0,-1,524,1450,0,0
-693,-426,0,0,0,0,0,0,0,0,0,-1,531,1450,0,0
-686,-426,0,0,0,0,0,0,0,0,0,-1,538,1450,0,0
-679,-426,0,0,0,0,0,0,0,0,0,-1,545,1450,0,0
-672,-426,0,0,0,0,0,0,0,0,0,-1,552,1450,0,0
-665,-426,0,0,0,0,0,0,0,0,0,-1,559,1450,0,0
-658,-426,0,0,0,0,0,0,0,0,0,-1,566,1450,0,0
-651,-426,0,0,0,0,0,0,0,0,0,-1,573,1450,0,0
-644,-426,0,0,0,0,0,0,0,0,0,-1,580,1450,0,0
-637,-426,0,0,0,0,0,0,0,0,0,-1,587,1450,0,0
-630,-426,0,0,0,0,0,0,0,0,0,-1,594,1450,0,0
-623,-426,0,0,0,0,0,0,0,0,0,-1,601,1450,0,0
-616,-426,0,0,0,0,0,0,0,0,0,-1,608,1450,0,0
-609,-426,0,0,0,0,0,0,0,0,0,-1,615,1450,0,0
-602,-426,0,0,0,0,0,0,0,0,0,-1,622,1450,0,0
-595,-426,0,0,0,0,0,0,0,0,0,-1,629,1450,0,0
-588,-426,-10.184,-0.554321,0,0,0,0,0,0,0,-1,636,1450,-10.184,0.554321
-581,-426,-7.3349,1.48157,0,0,0,0,0,0,0,-1,643,1450,-7.33491,-1.48152
-574,-426,-5.02856,2.89319,0,0,0,0,0,0,0,-1,650,1450,-5.02858,-2.89319
-567,-426,-3.04797,1.72644,0,0,0,0,0,0,0,-1,657,1450,-3.04797,-1.72639
-560,-426,-5.55682,3.44397,0,0,0,0,0,0,0,-1,664,1450,-5.55684,-3.44399
-553,-426,-4.67017,6.66614,0,0,0,0,0,0,0,-1,671,1450,-4.67015,-6.66619
-546,-426,-7.58752,8.28882,0,0,0,0,0,0,0,-1,678,1450,-7.58752,-8.28878
-539,-426,-10.436,10.7441,0,0,0,0,0,0,0,-1,685,1450,-10.436,-10.7441
-532,-426,-56.7146,50.4419,0,0,0,0,0,0,0,-1,692,1450,-56.7146,-50.4419
-525,-426,-118.559,64.1841,0,0,0,0,0,0,0,-1,699,1450,-118.559,-64.1841
-518,-426,-119.165,67.286,0.00902049,0.0372312,-0.0319009,0.058006,-0.0117543,-0.993557,0.0431261,0.0247354,706,1450,-119.165,-67.2859
-511,-426,-119.791,70.4364,0.0082872,0.0338998,-0.0289846,0.0527812,-0.0105942,-0.993418,0.039199,0.0222393,713,1450,-119.791,-70.4364
-504,-426,-120.486,73.4956,0.00725654,0.0312666,-0.0258398,0.047754,-0.00923086,-1.00286,0.0353173,0.0216802,720,1450,-120.486,-73.4956
-497,-426,-121.285,76.5643,0.00584688,0.0292759,-0.0225416,0.0429652,-0.00784239,-1.02503,0.0315838,0.0184986,727,1450,-121.285,-76.5643
-490,-426,-122.075,79.8246,0.00406266,0.0279099,-0.0191121,0.0385128,-0.00654023,-1.06429,0.02811,0.0280785,734,1450,-122.075,-79.8246
-483,-426,-123.076,82.8558,0.00178158,0.0273764,-0.0154037,0.0346051,-0.00544719,-1.13202,0.0250838,0.0421106,741,1450,-123.076,-82.8558
-476,-426,-124.069,85.9705,0,0,0,0,0,0,0,-1,748,1450,-124.069,-85.9704
-469,-426,-80.6232,84.3521,0,0,0,0,0,0,0,-1,755,1450,-80.6232,-84.3521
-462,-426,-81.7856,86.6661,0,0,0,0,0,0,0,-1,762,1450,-81.7856,-86.6661
-455,-426,-10.215,17.7007,0,0,0,0,0,0,0,-1,769,1450,-10.215,-17.7007
-448,-426,-6.46545,10.1322,0,0,0,0,0,0,0,-1,776,1450,-6.46543,-10.1322
-441,-426,-10.9547,11.4747,0,0,0,0,0,0,0,-1,783,1450,-10.9546,-11.4748
-434,-426,-10.4998,13.6189,0,0,0,0,0,0,0,-1,790,1450,-10.4997,-13.6189
-427,-426,-9.36627,13.7396,0,0,0,0,0,0,0,-1,797,1450,-9.36628,-13.7396
-420,-426,-5.33765,7.95044,0,0,0,0,0,0,0,-1,804,1450,-5.33766,-7.95041
-413,-426,-10.1148,5.0415,0,0,0,0,0,0,0,-1,811,1450,-10.1148,-5.04152
-406,-426,-11.4199,3.6438,0,0,0,0,0,0,0,-1,818,1450,-11.4198,-3.64382
-399,-426,-12.7595,2.29004,0,0,0,0,0,0,0,-1,825,1450,-12.7595,-2.29003
-392,-426,-12.4147,0.537354,0,0,0,0,0,0,0,-1,832,1450,-12.4147,-0.53731
-385,-426,0,0,0,0,0,0,0,0,0,-1,839,1450,0,0
-378,-426,0,0,0,0,0,0,0,0,0,-1,846,1450,0,0
-371,-426,0,0,0,0,0,0,0,0,0,-1,853,1450,0,0
-364,-426,0,0,0,0,0,0,0,0,0,-1,860,1450,0,0
-357,-426,0,0,0,0,0,0,0,0,0,-1,867,1450,0,0
-350,-426,0,0,0,0,0,0,0,0,0,-1,874,1450,0,0
-343,-426,0,0,0,0,0,0,0,0,0,-1,881,1450,0,0
-336,-426,0,0,0,0,0,0,0,0,0,-1,888,1450,0,0
-329,-426,0,0,0,0,0,0,0,0,0,-1,895,1450,0,0
-322,-426,0,0,0,0,0,0,0,0,0,-1,902,1450,0,0
-315,-426,0,0,0,0,0,0,0,0,0,-1,909,1450,0,0
-308,-426,0,0,0,0,0,0,0,0,0,-1,916,1450,0,0
-301,-426,0,0,0,0,0,0,0,0,0,-1,923,1450,0,0
-294,-426,0,0,0,0,0,0,0,0,0,-1,930,1450,0,0
-287,-426,0,0,0,0,0,0,0,0,0,-1,937,1450,0,0
-280,-426,0,0,0,0,0,0,0,0,0,-1,944,1450,0,0
-273,-426,0,0,0,0,0,0,0,0,0,-1,951,1450,0,0
-266,-426,0,0,0,0,0,0,0,0,0,-1,958,1450,0,0
-259,-426,0,0,0,0,0,0,0,0,0,-1,965,1450,0,0
-252,-426,0,0,0,0,0,0,0,0,0,-1,972,1450,0,0
-245,-426,0,0,0,0,0,0,0,0,0,-1,979,1450,0,0
-238,-426,0,0,0,0,0,0,0,0,0,-1,986,1450,0,0
-231,-426,0,0,0,0,0,0,0,0,0,-1,993,1450,0,0
-224,-426,0,0,0,0,0,0,0,0,0,-1,1000,1450,0,0
-217,-426,0,0,0,0,0,0,0,0,0,-1,1007,1450,0,0
-210,-426,0,0,0,0,0,0,0,0,0,-1,1014,1450,0,0
-203,-426,0,0,0,0,0,0,0,0,0,-1,1021,1450,0,0
-196,-426,0,0,0,0,0,0,0,0,0,-1,1028,1450,0,0
-189,-426,0,0,0,0,0,0,0,0,0,-1,1035,1450,0,0
-182,-426,0,0,0,0,0,0,0,0,0,-1,1042,1450,0,0
-175,-426,0,0,0,0,0,0,0,0,0,-1,1049,1450,0,0
-168,-426,0,0,0,0,0,0,0,0,0,-1,1056,1450,0,0
-161,-426,0,0,0,0,0,0,0,0,0,-1,1063,1450,0,0
-154,-426,0,0,0,0,0,0,0,0,0,-1,1070,1450,0,0
-147,-426,0,0,0,0,0,0,0,0,0,-1,1077,1450,0,0
-140,-426,0,0,0,0,0,0,0,0,0,-1,1084,1450,0,0
-133,-426,0,0,0,0,0,0,0,0,0,-1,1091,1450,0,0
-126,-426,0,0,0,0,0,0,0,0,0,-1,1098,1450,0,0
-119,-426,0,0,0,0,0,0,0,0,0,-1,1105,1450,0,0
-112,-426,0,0,0,0,0,0,0,0,0,-1,1112,1450,0,0
-105,-426,0,0,0,0,0,0,0,0,0,-1,1119,1450,0,0
-98,-426,0,0,0,0,0,0,0,0,0,-1,1126,1450,0,0
-91,-426,0,0,0,0,0,0,0,0,0,-1,1133,1450,0,0
-84,-426,0,0,0,0,0,0,0,0,0,-1,1140,1450,0,0
-77,-426,0,0,0,0,0,0,0,0,0,-1,1147,1450,0,0
-70,-426,0,0,0,0,0,0,0,0,0,-1,1154,1450,0,0
-63,-426,0,0,0,0,0,0,0,0,0,-1,1161,1450,0,0
-56,-426,0,0,0,0,0,0,0,0,0,-1,1168,1450,0,0
-49,-426,0,0,0,0,0,0,0,0,0,-1,1175,1450,0,0
-42,-426,0,0,0,0,0,0,0,0,0,-1,1182,1450,0,0
-35,-426,0,0,0,0,0,0,0,0,0,-1,1189,1450,0,0
-28,-426,0,0,0,0,0,0,0,0,0,-1,1196,1450,0,0
-21,-426,0,0,0,0,0,0,0,0,0,-1,1203,1450,0,0
-14,-426,0,0,0,0,0,0,0,0,0,-1,1210,1450,0,0
-7,-426,0,0,0,0,0,0,0,0,0,-1,1217,1450,0,0
0,-426,0,0,0,0,0,0,0,0,0,-1,1224,1450,0,0
7,-426,0,0,0,0,0,0,0,0,0,-1,1231,1450,0,0
14,-426,0,0,0,0,0,0,0,0,0,-1,1238,1450,0,0
21,-426,0,0,0,0,0,0,0,0,0,-1,1245,1450,0,0
28,-426,0,0,0,0,0,0,0,0,0,-1,1252,1450,0,0
35,-426,0,0,0,0,0,0,0,0,0,-1,1259,1450,0,0
42,-426,0,0,0,0,0,0,0,0,0,-1,1266,1450,0,0
49,-426,0,0,0,0,0,0,0,0,0,-1,1273,1450,0,0
56,-426,0,0,0,0,0,0,0,0,0,-1,1280,1450,0,0
63,-426,0,0,0,0,0,0,0,0,0,-1,1287,1450,0,0
70,-426,0,0,0,0,0,0,0,0,0,-1,1294,1450,0,0
77,-426,0,0,0,0,0,0,0,0,0,-1,1301,1450,0,0
84,-426,0,0,0,0,0,0,0,0,0,-1,1308,1450,0,0
91,-426,0,0,0,0,0,0,0,0,0,-1,1315,1450,0,0
98,-426,0,0,0,0,0,0,0,0,0,-1,1322,1450,0,0
105,-426,0,0,0,0,0,0,0,0,0,-1,1329,1450,0,0
112,-426,0,0,0,0,0,0,0,0,0,-1,1336,1450,0,0
119,-426,0,0,0,0,0,0,0,0,0,-1,1343,1450,0,0
126,-426,0,0,0,0,0,0,0,0,0,-1,1350,1450,0,0
133,-426,0,0,0,0,0,0,0,0,0,-1,1357,1450,0,0
140,-426,0,0,0,0,0,0,0,0,0,-1,1364,1450,0,0
147,-426,0,0,0,0,0,0,0,0,0,-1,1371,1450,0,0
154,-426,0,0,0,0,0,0,0,0,0,-1,1378,1450,0,0
161,-426,0,0,0,0,0,0,0,0,0,-1,1385,1450,0,0
168,-426,0,0,0,0,0,0,0,0,0,-1,1392,1450,0,0
175,-426,0,0,0,0,0,0,0,0,0,-1,1399,1450,0,0
182,-426,0,0,0,0,0,0,0,0,0,-1,1406,1450,0,0
189,-426,0,0,0,0,0,0,0,0,0,-1,1413,1450,0,0
196,-426,0,0,0,0,0,0,0,0,0,-1,1420,1450,0,0
203,-426,0,0,0,0,0,0,0,0,0,-1,1427,1450,0,0
210,-426,0,0,0,0,0,0,0,0,0,-1,1434,1450,0,0
217,-426,0,0,0,0,0,0,0,0,0,-1,1441,1450,0,0
224,-426,0,0,0,0,0,0,0,0,0,-1,1448,1450,0,0
231,-426,0,0,0,0,0,0,0,0,0,-1,1455,1450,0,0
238,-426,0,0,0,0,0,0,0,0,0,-1,1462,1450,0,0
245,-426,0,0,0,0,0,0,0,0,0,-1,1469,1450,0,0
252,-426,0,0,0,0,0,0,0,0,0,-1,1476,1450,0,0
259,-426,0,0,0,0,0,0,0,0,0,-1,1483,1450,0,0
266,-426,0,0,0,0,0,0,0,0,0,-1,1490,1450,0,0
273,-426,0,0,0,0,0,0,0,0,0,-1,1497,1450,0,0
280,-426,0,0,0,0,0,0,0,0,0,-1,1504,1450,0,0
287,-426,0,0,0,0,0,0,0,0,0,-1,1511,1450,0,0
294,-426,0,0,0,0,0,0,0,0,0,-1,1518,1450,0,0
301,-426,0,0,0,0,0,0,0,0,0,-1,1525,1450,0,0
308,-426,0,0,0,0,0,0,0,0,0,-1,1532,1450,0,0
315,-426,0,0,0,0,0,0,0,0,0,-1,1539,1450,0,0
322,-426,0,0,0,0,0,0,0,0,0,-1,1546,1450,0,0
329,-426,0,0,0,0,0,0,0,0,0,-1,1553,1450,0,0
336,-426,0,0,0,0,0,0,0,0,0,-1,1560,1450,0,0
343,-426,0,0,0,0,0,0,0,0,0,-1,1567,1450,0,0
350,-426,0,0,0,0,0,0,0,0,0,-1,1574,1450,0,0
357,-426,0,0,0,0,0,0,0,0,0,-1,1581,1450,0,0
364,-426,0,0,0,0,0,0,0,0,0,-1,1588,1450,0,0
371,-426,0,0,0,0,0,0,0,0,0,-1,1595,1450,0,0
378,-426,0,0,0,0,0,0,0,0,0,-1,1602,1450,0,0
385,-426,0,0,0,0,0,0,0,0,0,-1,1609,1450,0,0
392,-426,0,0,0,0,0,0,0,0,0,-1,1616,1450,0,0
399,-426,0,0,0,0,0,0,0,0,0,-1,1623,1450,0,0
406,-426,0,0,0,0,0,0,0,0,0,-1,1630,1450,0,0
413,-426,0,0,0,0,0,0,0,0,0,-1,1637,1450,0,0
420,-426,0,0,0,0,0,0,0,0,0,-1,1644,1450,0,0
427,-426,0,0,0,0,0,0,0,0,0,-1,1651,1450,0,0
434,-426,0,0,0,0,0,0,0,0,0,-1,1658,1450,0,0
441,-426,0,0,0,0,0,0,0,0,0,-1,1665,1450,0,0
448,-426,0,0,0,0,0,0,0,0,0,-1,1672,1450,0,0
455,-426,0,0,0,0,0,0,0,0,0,-1,1679,1450,0,0
462,-426,0,0,0,0,0,0,0,0,0,-1,1686,1450,0,0
469,-426,0,0,0,0,0,0,0,0,0,-1,1693,1450,0,0
476,-426,0,0,0,0,0,0,0,0,0,-1,1700,1450,0,0
483,-426,0,0,0,0,0,0,0,0,0,-1,1707,1450,0,0
490,-426,0,0,0,0,0,0,0,0,0,-1,1714,1450,0,0
497,-426,0,0,0,0,0,0,0,0,0,-1,1721,1450,0,0
504,-426,20.6873,3.38367,0,0,0,0,0,0,0,-1,1728,1450,20.6873,-3.38361
511,-426,19.6676,3.53748,0,0,0,0,0,0,0,-1,1735,1450,19.6676,-3.53749
518,-426,18.6853,3.32288,0,0,0,0,0,0,0,-1,1742,1450,18.6853,-3.3229
525,-426,18.9552,2.71033,0,0,0,0,0,0,0,-1,1749,1450,18.9552,-2.71034
532,-426,19.4333,2.70764,0,0,0,0,0,0,0,-1,1756,1450,19.4334,-2.70764
539,-426,25.1482,2.56287,0,0,0,0,0,0,0,-1,1763,1450,25.1482,-2.56286
546,-426,24.1136,3.75659,0,0,0,0,0,0,0,-1,1770,1450,24.1136,-3.7566
553,-426,23.0791,4.95032,0,0,0,0,0,0,0,-1,1777,1450,23.0791,-4.95034
560,-426,12.9688,11.8289,0,0,0,0,0,0,0,-1,1784,1450,12.9688,-11.8288
567,-426,13.6388,11.5623,0,0,0,0,0,0,0,-1,1791,1450,13.6388,-11.5623
574,-426,14.3943,11.0286,0,0,0,0,0,0,0,-1,1798,1450,14.3942,-11.0285
581,-426,16.3879,11.4653,0,0,0,0,0,0,0,-1,1805,1450,16.3879,-11.4653
588,-426,18.1212,12.5547,0,0,0,0,0,0,0,-1,1812,1450,18.1212,-12.5547
595,-426,30.0474,21.0964,0,0,0,0,0,0,0,-1,1819,1450,30.0474,-21.0965
602,-426,133.408,90.7396,0,0,0,0,0,0,0,-1,1826,1450,133.408,-90.7396
609,-426,131.839,88.1865,-0.050882,-0.0133447,0.0445058,0.016188,-0.0804148,0.98494,0.0597415,0.0431501,1833,1450,131.84,-88.1866
616,-426,130.211,85.5415,-0.0378222,-0.00538523,0.0398771,0.0214453,-0.0646528,0.978538,0.0517532,0.047062,1840,1450,130.211,-85.5415
623,-426,128.792,83.1494,-0.0258672,0.00261563,0.0359962,0.0270852,-0.0503368,0.973768,0.0453666,0.0355544,1847,1450,128.792,-83.1494
630,-426,128.053,80.0114,-0.0152897,0.0105047,0.0328714,0.0329185,-0.0377034,0.972347,0.0408048,0.0186019,1854,1450,128.053,-80.0114
637,-426,127.311,76.8137,-0.0062027,0.0181541,0.0305563,0.0388695,-0.0269181,0.975029,0.0381908,0.020883,1861,1450,127.311,-76.8137
644,-426,126.547,73.6743,0.00144018,0.0254152,0.0290395,0.0448441,-0.0179887,0.981144,0.0373647,0.0222423,1868,1450,126.547,-73.6743
651,-426,125.833,70.6385,0.00773609,0.0324232,0.028239,0.0508986,-0.0107393,0.99144,0.0380211,0.021415,1875,1450,125.833,-70.6386
658,-426,125.083,67.4601,0.0126078,0.0387778,0.0284868,0.057041,-0.00565548,1.00069,0.0400459,0.0239834,1882,1450,125.083,-67.4601
665,-426,124.331,64.1973,0,0,0,0,0,0,0,-1,1889,1450,124.331,-64.1973
672,-426,36.2397,16.927,0,0,0,0,0,0,0,-1,1896,1450,36.2397,-16.9271
679,-426,17.1522,8.15784,0,0,0,0,0,0,0,-1,1903,1450,17.1522,-8.15784
686,-426,13.5326,8.03711,0,0,0,0,0,0,0,-1,1910,1450,13.5326,-8.03717
693,-426,11.8607,6.45215,0,0,0,0,0,0,0,-1,1917,1450,11.8607,-6.45215
700,-426,9.24304,2.95447,0,0,0,0,0,0,0,-1,1924,1450,9.24305,-2.95442
707,-426,8.44519,-1.21448,0,0,0,0,0,0,0,-1,1931,1450,8.44514,1.21454
714,-426,0,0,0,0,0,0,0,0,0,-1,1938,1450,0,0
721,-426,0,0,0,0,0,0,0,0,0,-1,1945,1450,0,0
728,-426,0,0,0,0,0,0,0,0,0,-1,1952,1450,0,0
735,-426,0,0,0,0,0,0,0,0,0,-1,1959,1450,0,0
742,-426,0,0,0,0,0,0,0,0,0,-1,1966,1450,0,0
749,-426,0,0,0,0,0,0,0,0,0,-1,1973,1450,0,0
756,-426,0,0,0,0,0,0,0,0,0,-1,1980,1450,0,0
763,-426,0,0,0,0,0,0,0,0,0,-1,1987,1450,0,0
770,-426,0,0,0,0,0,0,0,0,0,-1,1994,1450,0,0
777,-426,0,0,0,0,0,0,0,0,0,-1,2001,1450,0,0
784,-426,0,0,0,0,0,0,0,0,0,-1,2008,1450,0,0
791,-426,0,0,0,0,0,0,0,0,0,-1,2015,1450,0,0
798,-426,0,0,0,0,0,0,0,0,0,-1,2022,1450,0,0
805,-426,0,0,0,0,0,0,0,0,0,-1,2029,1450,0,0
812,-426,0,0,0,0,0,0,0,0,0,-1,2036,1450,0,0
-700,-433,0,0,0,0,0,0,0,0,0,-1,524,1457,0,0
-693,-433,0,0,0,0,0,0,0,0,0,-1,531,1457,0,0
-686,-433,0,0,0,0,0,0,0,0,0,-1,538,1457,0,0
-679,-433,0,0,0,0,0,0,0,0,0,-1,545,1457,0,0
-672,-433,0,0,0,0,0,0,0,0,0,-1,552,1457,0,0
-665,-433,0,0,0,0,0,0,0,0,0,-1,559,1457,0,0
-658,-433,0,0,0,0,0,0,0,0,0,-1,566,1457,0,0
-651,-433,0,0,0,0,0,0,0,0,0,-1,573,1457,0,0
-644,-433,0,0,0,0,0,0,0,0,0,-1,580,1457,0,0
-637,-433,0,0,0,0,0,0,0,0,0,-1,587,1457,0,0
-630,-433,0,0,0,0,0,0,0,0,0,-1,594,1457,0,0
-623,-433,0,0,0,0,0,0,0,0,0,-1,601,1457,0,0
-616,-433,0,0,0,0,0,0,0,0,0,-1,608,1457,0,0
-609,-433,0,0,0,0,0,0,0,0,0,-1,615,1457,0,0
-602,-433,0,0,0,0,0,0,0,0,0,-1,622,1457,0,0
-595,-433,0,0,0,0,0,0,0,0,0,-1,629,1457,0,0
-588,-433,-10.3756,-0.467041,0,0,0,0,0,0,0,-1,636,1457,-10.3756,0.467081
-581,-433,-8.12201,0.884033,0,0,0,0,0,0,0,-1,643,1457,-8.12204,-0.884056
-574,-433,-5.86847,2.23523,0,0,0,0,0,0,0,-1,650,1457,-5.86844,-2.23519
-567,-433,-5.42255,1.16833,0,0,0,0,0,0,0,-1,657,1457,-5.42254,-1.1683
-560,-433,-6.84027,1.86414,0,0,0,0,0,0,0,-1,664,1457,-6.84026,-1.86412
-553,-433,-5.74017,1.79163,0,0,0,0,0,0,0,-1,671,1457,-5.74015,-1.79166
-546,-433,-8.12451,7.35095,0,0,0,0,0,0,0,-1,678,1457,-8.12451,-7.35097
-539,-433,-7.3136,8.75659,0,0,0,0,0,0,0,-1,685,1457,-7.31362,-8.75659
-532,-433,-14.5645,14.8475,0,0,0,0,0,0,0,-1,692,1457,-14.5645,-14.8475
-525,-433,-115.35,64.8033,0,0,0,0,0,0,0,-1,699,1457,-115.35,-64.8034
-518,-433,-115.552,67.896,0.0104279,0.038792,-0.034855,0.0622398,-0.0130198,-0.978612,0.0464455,0.0407182,706,1457,-115.552,-67.896
-511,-433,-116.138,71.0012,0.00941462,0.0353083,-0.0321157,0.0569886,-0.0122657,-0.977,0.0426727,0.0248115,713,1457,-116.138,-71.0013
-504,-433,-116.852,74.1954,0.00821353,0.0326012,-0.029098,0.051957,-0.0111423,-0.983813,0.0388879,0.0174926,720,1457,-116.852,-74.1954
-497,-433,-117.644,77.3958,0.00665828,0.0305117,-0.0259188,0.0471162,-0.00994624,-1.00103,0.0351978,0.0173059,727,1457,-117.644,-77.3958
-490,-433,-118.468,80.6401,0.00471477,0.0289192,-0.0226198,0.0424708,-0.00883684,-1.03104,0.0316731,0.0225413,734,1457,-118.468,-80.6402
-483,-433,-119.305,83.86,0.00225589,0.0280367,-0.0192281,0.0382955,-0.00800287,-1.08069,0.028574,0.0356464,741,1457,-119.305,-83.86
-476,-433,-120.192,87.072,0,0,0,0,0,0,0,-1,748,1457,-120.192,-87.072
-469,-433,-121.497,90.797,0,0,0,0,0,0,0,-1,755,1457,-121.497,-90.7969
-462,-433,-78.3253,87.6478,0,0,0,0,0,0,0,-1,762,1457,-78.3253,-87.6478
-455,-433,-43.1202,58.5039,0,0,0,0,0,0,0,-1,769,1457,-43.1202,-58.5039
-448,-433,-6.94812,14.5563,0,0,0,0,0,0,0,-1,776,1457,-6.94809,-14.5562
-441,-433,-9.97485,14.0258,0,0,0,0,0,0,0,-1,783,1457,-9.97488,-14.0257
-434,-433,-9.41205,14.2297,0,0,0,0,0,0,0,-1,790,1457,-9.41205,-14.2297
-427,-433,-8.67419,13.6827,0,0,0,0,0,0,0,-1,797,1457,-8.67422,-13.6827
-420,-433,-5.74658,9.49121,0,0,0,0,0,0,0,-1,804,1457,-5.7466,-9.49119
-413,-433,-3.63074,5.5813,0,0,0,0,0,0,0,-1,811,1457,-3.63072,-5.58129
-406,-433,-12.3472,4.69373,0,0,0,0,0,0,0,-1,818,1457,-12.3472,-4.69374
-399,-433,-12.055,2.83594,0,0,0,0,0,0,0,-1,825,1457,-12.055,-2.83594
-392,-433,-12.9772,1.6228,0,0,0,0,0,0,0,-1,832,1457,-12.9772,-1.62282
-385,-433,-13.7999,0.514771,0,0,0,0,0,0,0,-1,839,1457,-13.7999,-0.514788
-378,-433,0,0,0,0,0,0,0,0,0,-1,846,1457,0,0
-371,-433,0,0,0,0,0,0,0,0,0,-1,853,1457,0,0
-364,-433,0,0,0,0,0,0,0,0,0,-1,860,1457,0,0
-357,-433,0,0,0,0,0,0,0,0,0,-1,867,1457,0,0
-350,-433,0,0,0,0,0,0,0,0,0,-1,874,1457,0,0
-343,-433,0,0,0,0,0,0,0,0,0,-1,881,1457,0,0
-336,-433,0,0,0,0,0,0,0,0,0,-1,888,1457,0,0
-329,-433,0,0,0,0,0,0,0,0,0,-1,895,1457,0,0
-322,-433,0,0,0,0,0,0,0,0,0,-1,902,1457,0,0
-315,-433,0,0,0,0,0,0,0,0,0,-1,909,1457,0,0
-308,-433,0,0,0,0,0,0,0,0,0,-1,916,1457,0,0
-301,-433,0,0,0,0,0,0,0,0,0,-1,923,1457,0,0
-294,-433,0,0,0,0,0,0,0,0,0,-1,930,1457,0,0
-287,-433,0,0,0,0,0,0,0,0,0,-1,937,1457,0,0
-280,-433,0,0,0,0,0,0,0,0,0,-1,944,1457,0,0
-273,-433,0,0,0,0,0,0,0,0,0,-1,951,1457,0,0
-266,-433,0,0,0,0,0,0,0,0,0,-1,958,1457,0,0
-259,-433,0,0,0,0,0,0,0,0,0,-1,965,1457,0,0
-252,-433,0,0,0,0,0,0,0,0,0,-1,972,1457,0,0
-245,-433,0,0,0,0,0,0,0,0,0,-1,979,1457,0,0
-238,-433,0,0,0,0,0,0,0,0,0,-1,986,1457,0,0
-231,-433,0,0,0,0,0,0,0,0,0,-1,993,1457,0,0
-224,-433,0,0,0,0,0,0,0,0,0,-1,1000,1457,0,0
-217,-433,0,0,0,0,0,0,0,0,0,-1,1007,1457,0,0
-210,-433,0,0,0,0,0,0,0,0,0,-1,1014,1457,0,0
-203,-433,0,0,0,0,0,0,0,0,0,-1,1021,1457,0,0
-196,-433,0,0,0,0,0,0,0,0,0,-1,1028,1457,0,0
-189,-433,0,0,0,0,0,0,0,0,0,-1,1035,1457,0,0
-182,-433,0,0,0,0,0,0,0,0,0,-1,1042,1457,0,0
-175,-433,0,0,0,0,0,0,0,0,0,-1,1049,1457,0,0
-168,-433,0,0,0,0,0,0,0,0,0,-1,1056,1457,0,0
-161,-433,0,0,0,0,0,0,0,0,0,-1,1063,1457,0,0
-154,-433,0,0,0,0,0,0,0,0,0,-1,1070,1457,0,0
-147,-433,0,0,0,0,0,0,0,0,0,-1,1077,1457,0,0
-140,-433,0,0,0,0,0,0,0,0,0,-1,1084,1457,0,0
-133,-433,0,0,0,0,0,0,0,0,0,-1,1091,1457,0,0
-126,-433,0,0,0,0,0,0,0,0,0,-1,1098,1457,0,0
-119,-433,0,0,0,0,0,0,0,0,0,-1,1105,1457,0,0
-112,-433,0,0,0,0,0,0,0,0,0,-1,1112,1457,0,0
-105,-433,0,0,0,0,0,0,0,0,0,-1,1119,1457,0,0
-98,-433,0,0,0,0,0,0,0,0,0,-1,1126,1457,0,0
-91,-433,0,0,0,0,0,0,0,0,0,-1,1133,1457,0,0
-84,-433,0,0,0,0,0,0,0,0,0,-1,1140,1457,0,0
-77,-433,0,0,0,0,0,0,0,0,0,-1,1147,1457,0,0
-70,-433,0,0,0,0,0,0,0,0,0,-1,1154,1457,0,0
-63,-433,0,0,0,0,0,0,0,0,0,-1,1161,1457,0,0
-56,-433,0,0,0,0,0,0,0,0,0,-1,1168,1457,0,0
-49,-433,0,0,0,0,0,0,0,0,0,-1,1175,1457,0,0
-42,-433,0,0,0,0,0,0,0,0,0,-1,1182,1457,0,0
-35,-433,0,0,0,0,0,0,0,0,0,-1,1189,1457,0,0
-28,-433,0,0,0,0,0,0,0,0,0,-1,1196,1457,0,0
-21,-433,0,0,0,0,0,0,0,0,0,-1,1203,1457,0,0
-14,-433,0,0,0,0,0,0,0,0,0,-1,1210,1457,0,0
-7,-433,0,0,0,0,0,0,0,0,0,-1,1217,1457,0,0
0,-433,0,0,0,0,0,0,0,0,0,-1,1224,1457,0,0
7,-433,0,0,0,0,0,0,0,0,0,-1,1231,1457,0,0
14,-433,0,0,0,0,0,0,0,0,0,-1,1238,1457,0,0
21,-433,0,0,0,0,0,0,0,0,0,-1,1245,1457,0,0
28,-433,0,0,0,0,0,0,0,0,0,-1,1252,1457,0,0
35,-433,0,0,0,0,0,0,0,0,0,-1,1259,1457,0,0
42,-433,0,0,0,0,0,0,0,0,0,-1,1266,1457,0,0
49,-433,0,0,0,0,0,0,0,0,0,-1,1273,1457,0,0
56,-433,0,0,0,0,0,0,0,0,0,-1,1280,1457,0,0
63,-433,0,0,0,0,0,0,0,0,0,-1,1287,1457,0,0
70,-433,0,0,0,0,0,0,0,0,0,-1,1294,1457,0,0
77,-433,0,0,0,0,0,0,0,0,0,-1,1301,1457,0,0
84,-433,0,0,0,0,0,0,0,0,0,-1,1308,1457,0,0
91,-433,0,0,0,0,0,0,0,0,0,-1,1315,1457,0,0
98,-433,0,0,0,0,0,0,0,0,0,-1,1322,1457,0,0
105,-433,0,0,0,0,0,0,0,0,0,-1,1329,1457,0,0
112,-433,0,0,0,0,0,0,0,0,0,-1,1336,1457,0,0
119,-433,0,0,0,0,0,0,0,0,0,-1,1343,1457,0,0
126,-433,0,0,0,0,0,0,0,0,0,-1,1350,1457,0,0
133,-433,0,0,0,0,0,0,0,0,0,-1,1357,1457,0,0
140,-433,0,0,0,0,0,0,0,0,0,-1,1364,1457,0,0
147,-433,0,0,0,0,0,0,0,0,0,-1,1371,1457,0,0
154,-433,0,0,0,0,0,0,0,0,0,-1,1378,1457,0,0
161,-433,0,0,0,0,0,0,0,0,0,-1,1385,1457,0,0
168,-433,0,0,0,0,0,0,0,0,0,-1,1392,1457,0,0
175,-433,0,0,0,0,0,0,0,0,0,-1,1399,1457,0,0
182,-433,0,0,0,0,0,0,0,0,0,-1,1406,1457,0,0
189,-433,0,0,0,0,0,0,0,0,0,-1,1413,1457,0,0
196,-433,0,0,0,0,0,0,0,0,0,-1,1420,1457,0,0
203,-433,0,0,0,0,0,0,0,0,0,-1,1427,1457,0,0
210,-433,0,0,0,0,0,0,0,0,0,-1,1434,1457,0,0
217,-433,0,0,0,0,0,0,0,0,0,-1,1441,1457,0,0
224,-433,0,0,0,0,0,0,0,0,0,-1,1448,1457,0,0
231,-433,0,0,0,0,0,0,0,0,0,-1,1455,1457,0,0
238,-433,0,0,0,0,0,0,0,0,0,-1,1462,1457,0,0
245,-433,0,0,0,0,0,0,0,0,0,-1,1469,1457,0,0
252,-433,0,0,0,0,0,0,0,0,0,-1,1476,1457,0,0
259,-433,0,0,0,0,0,0,0,0,0,-1,1483,1457,0,0
266,-433,0,0,0,0,0,0,0,0,0,-1,1490,1457,0,0
273,-433,0,0,0,0,0,0,0,0,0,-1,1497,1457,0,0
280,-433,0,0,0,0,0,0,0,0,0,-1,1504,1457,0,0
287,-433,0,0,0,0,0,0,0,0,0,-1,1511,1457,0,0
294,-433,0,0,0,0,0,0,0,0,0,-1,1518,1457,0,0
301,-433,0,0,0,0,0,0,0,0,0,-1,1525,1457,0,0
308,-433,0,0,0,0,0,0,0,0,0,-1,1532,1457,0,0
315,-433,0,0,0,0,0,0,0,0,0,-1,1539,1457,0,0
322,-433,0,0,0,0,0,0,0,0,0,-1,1546,1457,0,0
329,-433,0,0,0,0,0,0,0,0,0,-1,1553,1457,0,0
336,-433,0,0,0,0,0,0,0,0,0,-1,1560,1457,0,0
343,-433,0,0,0,0,0,0,0,0,0,-1,1567,1457,0,0
350,-433,0,0,0,0,0,0,0,0,0,-1,1574,1457,0,0
357,-433,0,0,0,0,0,0,0,0,0,-1,1581,1457,0,0
364,-433,0,0,0,0,0,0,0,0,0,-1,1588,1457,0,0
371,-433,0,0,0,0,0,0,0,0,0,-1,1595,1457,0,0
378,-433,0,0,0,0,0,0,0,0,0,-1,1602,1457,0,0
385,-433,0,0,0,0,0,0,0,0,0,-1,1609,1457,0,0
392,-433,0,0,0,0,0,0,0,0,0,-1,1616,1457,0,0
399,-433,0,0,0,0,0,0,0,0,0,-1,1623,1457,0,0
406,-433,0,0,0,0,0,0,0,0,0,-1,1630,1457,0,0
413,-433,0,0,0,0,0,0,0,0,0,-1,1637,1457,0,0
420,-433,0,0,0,0,0,0,0,0,0,-1,1644,1457,0,0
427,-433,0,0,0,0,0,0,0,0,0,-1,1651,1457,0,0
434,-433,0,0,0,0,0,0,0,0,0,-1,1658,1457,0,0
441,-433,0,0,0,0,0,0,0,0,0,-1,1665,1457,0,0
448,-433,0,0,0,0,0,0,0,0,0,-1,1672,1457,0,0
455,-433,0,0,0,0,0,0,0,0,0,-1,1679,1457,0,0
462,-433,0,0,0,0,0,0,0,0,0,-1,1686,1457,0,0
469,-433,0,0,0,0,0,0,0,0,0,-1,1693,1457,0,0
476,-433,0,0,0,0,0,0,0,0,0,-1,1700,1457,0,0
483,-433,0,0,0,0,0,0,0,0,0,-1,1707,1457,0,0
490,-433,0,0,0,0,0,0,0,0,0,-1,1714,1457,0,0
497,-433,0,0,0,0,0,0,0,0,0,-1,1721,1457,0,0
504,-433,19.9058,3.03662,0,0,0,0,0,0,0,-1,1728,1457,19.9058,-3.03656
511,-433,19.0145,3.07837,0,0,0,0,0,0,0,-1,1735,1457,19.0146,-3.07834
518,-433,18.071,3.06433,0,0,0,0,0,0,0,-1,1742,1457,18.071,-3.06432
525,-433,17.2048,3.37085,0,0,0,0,0,0,0,-1,1749,1457,17.2049,-3.37083
532,-433,16.5637,3.36646,0,0,0,0,0,0,0,-1,1756,1457,16.5637,-3.36643
539,-433,15.9193,3.30396,0,0,0,0,0,0,0,-1,1763,1457,15.9193,-3.30394
546,-433,23.1903,4.81775,0,0,0,0,0,0,0,-1,1770,1457,23.1903,-4.81775
553,-433,13.9674,11.5781,0,0,0,0,0,0,0,-1,1777,1457,13.9674,-11.5781
560,-433,13.9855,11.7341,0,0,0,0,0,0,0,-1,1784,1457,13.9855,-11.7341
567,-433,13.9264,11.3364,0,0,0,0,0,0,0,-1,1791,1457,13.9263,-11.3364
574,-433,15.5305,12.3673,0,0,0,0,0,0,0,-1,1798,1457,15.5305,-12.3673
581,-433,16.6405,12.1898,0,0,0,0,0,0,0,-1,1805,1457,16.6405,-12.1898
588,-433,26.4386,19.7478,0,0,0,0,0,0,0,-1,1812,1457,26.4386,-19.7478
595,-433,87.7529,94.8977,0,0,0,0,0,0,0,-1,1819,1457,87.7529,-94.8977
602,-433,129.269,92.7695,0,0,0,0,0,0,0,-1,1826,1457,129.269,-92.7696
609,-433,127.942,89.7119,-0.0422666,-0.00697283,0.04288,0.0217495,-0.0709889,0.980606,0.0560018,0.0440507,1833,1457,127.942,-89.7119
616,-433,126.389,87.1565,-0.0307468,0.000400557,0.0390273,0.0268467,-0.0571929,0.97524,0.0495635,0.0349062,1840,1457,126.389,-87.1565
623,-433,125.329,84.0618,-0.0198762,0.00792802,0.0356645,0.0323041,-0.0442524,0.971241,0.044379,0.0217115,1847,1457,125.329,-84.0618
630,-433,124.493,80.8121,-0.00997198,0.0155127,0.0328347,0.0379909,-0.0324502,0.97049,0.0407111,0.021454,1854,1457,124.493,-80.8122
637,-433,123.756,77.5874,-0.00118652,0.0229329,0.0306803,0.0438386,-0.0220922,0.97266,0.0387492,0.0248757,1861,1457,123.756,-77.5875
644,-433,122.984,74.3447,0.00644936,0.0301982,0.0291462,0.049796,-0.0131485,0.978837,0.0383392,0.0274113,1868,1457,122.984,-74.3447
651,-433,122.239,71.2823,0.0130299,0.0374513,0.0282066,0.0559767,-0.00549555,0.989671,0.039278,0.0214987,1875,1457,122.239,-71.2824
658,-433,121.506,68.0172,0,0,0,0,0,0,0,-1,1882,1457,121.506,-68.0172
665,-433,36.4893,18.9447,0,0,0,0,0,0,0,-1,1889,1457,36.4893,-18.9447
672,-433,18.115,8.7207,0,0,0,0,0,0,0,-1,1896,1457,18.115,-8.72074
679,-433,17.2969,9.6355,0,0,0,0,0,0,0,-1,1903,1457,17.2968,-9.63548
686,-433,13.6356,8.61694,0,0,0,0,0,0,0,-1,1910,1457,13.6356,-8.61694
693,-433,13.4081,8.39624,0,0,0,0,0,0,0,-1,1917,1457,13.4081,-8.39624
700,-433,7.16809,-1.5166,0,0,0,0,0,0,0,-1,1924,1457,7.16806,1.51656
707,-433,8.68359,-2.82202,0,0,0,0,0,0,0,-1,1931,1457,8.68359,2.82197
714,-433,0,0,0,0,0,0,0,0,0,-1,1938,1457,0,0
721,-433,0,0,0,0,0,0,0,0,0,-1,1945,1457,0,0
728,-433,0,0,0,0,0,0,0,0,0,-1,1952,1457,0,0
735,-433,0,0,0,0,0,0,0,0,0,-1,1959,1457,0,0
742,-433,0,0,0,0,0,0,0,0,0,-1,1966,1457,0,0
749,-433,0,0,0,0,0,0,0,0,0,-1,1973,1457,0,0
756,-433,0,0,0,0,0,0,0,0,0,-1,1980,1457,0,0
763,-433,0,0,0,0,0,0,0,0,0,-1,1987,1457,0,0
770,-433,0,0,0,0,0,0,0,0,0,-1,1994,1457,0,0
777,-433,0,0,0,0,0,0,0,0,0,-1,2001,1457,0,0
784,-433,0,0,0,0,0,0,0,0,0,-1,2008,1457,0,0
791,-433,0,0,0,0,0,0,0,0,0,-1,2015,1457,0,0
798,-433,0,0,0,0,0,0,0,0,0,-1,2022,1457,0,0
805,-433,0,0,0,0,0,0,0,0,0,-1,2029,1457,0,0
812,-433,0,0,0,0,0,0,0,0,0,-1,2036,1457,0,0
-700,-440,0,0,0,0,0,0,0,0,0,-1,524,1464,0,0
-693,-440,0,0,0,0,0,0,0,0,0,-1,531,1464,0,0
-686,-440,0,0,0,0,0,0,0,0,0,-1,538,1464,0,0
-679,-440,0,0,0,0,0,0,0,0,0,-1,545,1464,0,0
-672,-440,0,0,0,0,0,0,0,0,0,-1,552,1464,0,0
-665,-440,0,0,0,0,0,0,0,0,0,-1,559,1464,0,0
-658,-440,0,0,0,0,0,0,0,0,0,-1,566,1464,0,0
-651,-440,0,0,0,0,0,0,0,0,0,-1,573,1464,0,0
-644,-440,0,0,0,0,0,0,0,0,0,-1,580,1464,0,0
-637,-440,0,0,0,0,0,0,0,0,0,-1,587,1464,0,0
-630,-440,0,0,0,0,0,0,0,0,0,-1,594,1464,0,0
-623,-440,0,0,0,0,0,0,0,0,0,-1,601,1464,0,0
-616,-440,0,0,0,0,0,0,0,0,0,-1,608,1464,0,0
-609,-440,0,0,0,0,0,0,0,0,0,-1,615,1464,0,0
-602,-440,0,0,0,0,0,0,0,0,0,-1,622,1464,0,0
-595,-440,0,0,0,0,0,0,0,0,0,-1,629,1464,0,0
-588,-440,0,0,0,0,0,0,0,0,0,-1,636,1464,0,0
-581,-440,-8.97278,0.254517,0,0,0,0,0,0,0,-1,643,1464,-8.97276,-0.254526
-574,-440,-7.00818,-0.918579,0,0,0,0,0,0,0,-1,650,1464,-7.00817,0.918538
-567,-440,-6.12152,-0.0766602,0,0,0,0,0,0,0,-1,657,1464,-6.12151,0.0767097
-560,-440,-5.46747,0.82251,0,0,0,0,0,0,0,-1,664,1464,-5.46748,-0.822551
-553,-440,-6.84729,0.0831299,0,0,0,0,0,0,0,-1,671,1464,-6.84732,-0.083136
-546,-440,-5.63446,-0.153198,0,0,0,0,0,0,0,-1,678,1464,-5.63447,0.153147
-539,-440,-6.80017,8.58252,0,0,0,0,0,0,0,-1,685,1464,-6.80015,-8.58257
-532,-440,-9.69647,11.3262,0,0,0,0,0,0,0,-1,692,1464,-9.69649,-11.3262
-525,-440,-34.9579,37.0464,0,0,0,0,0,0,0,-1,699,1464,-34.9579,-37.0464
-518,-440,-111.889,68.4707,0,0,0,0,0,0,0,-1,706,1464,-111.889,-68.4707
-511,-440,-112.569,71.8416,0.0112281,0.036902,-0.0350698,0.0614104,-0.0132803,-0.960844,0.0460104,0.0250877,713,1464,-112.569,-71.8415
-504,-440,-113.273,75.0299,0.00996004,0.0340614,-0.0321932,0.0563854,-0.012364,-0.964487,0.042318,0.025482,720,1464,-113.273,-75.03
-497,-440,-113.983,78.1108,0.00838544,0.0317748,-0.0291484,0.0514871,-0.0113268,-0.976173,0.0386575,0.0274965,727,1464,-113.983,-78.1108
-490,-440,-114.849,81.3684,0.00645928,0.0299122,-0.0260002,0.0467081,-0.0103366,-0.997247,0.0350953,0.0270226,734,1464,-114.849,-81.3685
-483,-440,-115.637,84.7949,0.00406657,0.0285933,-0.0228851,0.0422938,-0.00963388,-1.03136,0.0318959,0.0285914,741,1464,-115.637,-84.7949
-476,-440,-116.469,88.1345,0.0012663,0.0276949,-0.0196412,0.0381532,-0.00919201,-1.08151,0.0289894,0.0262321,748,1464,-116.469,-88.1345
-469,-440,-117.639,91.6729,-0.00204126,0.0271936,-0.0164551,0.0345862,-0.00943383,-1.14856,0.0267622,0.041308,755,1464,-117.639,-91.6729
-462,-440,-118.979,95.2094,0,0,0,0,0,0,0,-1,762,1464,-118.979,-95.2093
-455,-440,-70.0716,85.2322,0,0,0,0,0,0,0,-1,769,1464,-70.0716,-85.2322
-448,-440,-12.8837,23.5623,0,0,0,0,0,0,0,-1,776,1464,-12.8837,-23.5623
-441,-440,-7.28583,14.7465,0,0,0,0,0,0,0,-1,783,1464,-7.28584,-14.7464
-434,-440,-8.33636,14.5024,0,0,0,0,0,0,0,-1,790,1464,-8.33638,-14.5025
-427,-440,-8.28094,14.2512,0,0,0,0,0,0,0,-1,797,1464,-8.28094,-14.2512
-420,-440,-6.86603,8.09216,0,0,0,0,0,0,0,-1,804,1464,-6.86602,-8.09222
-413,-440,-3.46796,5.72278,0,0,0,0,0,0,0,-1,811,1464,-3.46797,-5.72276
-406,-440,-5.2887,5.20264,0,0,0,0,0,0,0,-1,818,1464,-5.2887,-5.20261
-399,-440,-12.7318,3.94421,0,0,0,0,0,0,0,-1,825,1464,-12.7318,-3.94419
-392,-440,-13.5565,2.51855,0,0,0,0,0,0,0,-1,832,1464,-13.5565,-2.51861
-385,-440,-14.6741,1.39795,0,0,0,0,0,0,0,-1,839,1464,-14.6741,-1.39801
-378,-440,-15.8063,0.293457,0,0,0,0,0,0,0,-1,846,1464,-15.8063,-0.293412
-371,-440,0,0,0,0,0,0,0,0,0,-1,853,1464,0,0
-364,-440,0,0,0,0,0,0,0,0,0,-1,860,1464,0,0
-357,-440,0,0,0,0,0,0,0,0,0,-1,867,1464,0,0
-350,-440,0,0,0,0,0,0,0,0,0,-1,874,1464,0,0
-343,-440,0,0,0,0,0,0,0,0,0,-1,881,1464,0,0
-336,-440,0,0,0,0,0,0,0,0,0,-1,888,1464,0,0
-329,-440,0,0,0,0,0,0,0,0,0,-1,895,1464,0,0
-322,-440,0,0,0,0,0,0,0,0,0,-1,902,1464,0,0
-315,-440,0,0,0,0,0,0,0,0,0,-1,909,1464,0,0
-308,-440,0,0,0,0,0,0,0,0,0,-1,916,1464,0,0
-301,-440,0,0,0,0,0,0,0,0,0,-1,923,1464,0,0
-294,-440,0,0,0,0,0,0,0,0,0,-1,930,1464,0,0
-287,-440,0,0,0,0,0,0,0,0,0,-1,937,1464,0,0
-280,-440,0,0,0,0,0,0,0,0,0,-1,944,1464,0,0
-273,-440,0,0,0,0,0,0,0,0,0,-1,951,1464,0,0
-266,-440,0,0,0,0,0,0,0,0,0,-1,958,1464,0,0
-259,-440,0,0,0,0,0,0,0,0,0,-1,965,1464,0,0
-252,-440,0,0,0,0,0,0,0,0,0,-1,972,1464,0,0
-245,-440,0,0,0,0,0,0,0,0,0,-1,979,1464,0,0
-238,-440,0,0,0,0,0,0,0,0,0,-1,986,1464,0,0
-231,-440,0,0,0,0,0,0,0,0,0,-1,993,1464,0,0
-224,-440,0,0,0,0,0,0,0,0,0,-1,1000,1464,0,0
-217,-440,0,0,0,0,0,0,0,0,0,-1,1007,1464,0,0
-210,-440,0,0,0,0,0,0,0,0,0,-1,1014,1464,0,0
-203,-440,0,0,0,0,0,0,0,0,0,-1,1021,1464,0,0
-196,-440,0,0,0,0,0,0,0,0,0,-1,1028,1464,0,0
-189,-440,0,0,0,0,0,0,0,0,0,-1,1035,1464,0,0
-182,-440,0,0,0,0,0,0,0,0,0,-1,1042,1464,0,0
-175,-440,0,0,0,0,0,0,0,0,0,-1,1049,1464,0,0
-168,-440,0,0,0,0,0,0,0,0,0,-1,1056,1464,0,0
-161,-440,0,0,0,0,0,0,0,0,0,-1,1063,1464,0,0
-154,-440,0,0,0,0,0,0,0,0,0,-1,1070,1464,0,0
-147,-440,0,0,0,0,0,0,0,0,0,-1,1077,1464,0,0
-140,-440,0,0,0,0,0,0,0,0,0,-1,1084,1464,0,0
-133,-440,0,0,0,0,0,0,0,0,0,-1,1091,1464,0,0
-126,-440,0,0,0,0,0,0,0,0,0,-1,1098,1464,0,0
-119,-440,0,0,0,0,0,0,0,0,0,-1,1105,1464,0,0
-112,-440,0,0,0,0,0,0,0,0,0,-1,1112,1464,0,0
-105,-440,0,0,0,0,0,0,0,0,0,-1,1119,1464,0,0
-98,-440,0,0,0,0,0,0,0,0,0,-1,1126,1464,0,0
-91,-440,0,0,0,0,0,0,0,0,0,-1,1133,1464,0,0
-84,-440,0,0,0,0,0,0,0,0,0,-1,1140,1464,0,0
-77,-440,0,0,0,0,0,0,0,0,0,-1,1147,1464,0,0
-70,-440,0,0,0,0,0,0,0,0,0,-1,1154,1464,0,0
-63,-440,0,0,0,0,0,0,0,0,0,-1,1161,1464,0,0
-56,-440,0,0,0,0,0,0,0,0,0,-1,1168,1464,0,0
-49,-440,0,0,0,0,0,0,0,0,0,-1,1175,1464,0,0
-42,-440,0,0,0,0,0,0,0,0,0,-1,1182,1464,0,0
-35,-440,0,0,0,0,0,0,0,0,0,-1,1189,1464,0,0
-28,-440,0,0,0,0,0,0,0,0,0,-1,1196,1464,0,0
-21,-440,0,0,0,0,0,0,0,0,0,-1,1203,1464,0,0
-14,-440,0,0,0,0,0,0,0,0,0,-1,1210,1464,0,0
-7,-440,0,0,0,0,0,0,0,0,0,-1,1217,1464,0,0
0,-440,0,0,0,0,0,0,0,0,0,-1,1224,1464,0,0
7,-440,0,0,0,0,0,0,0,0,0,-1,1231,1464,0,0
14,-440,0,0,0,0,0,0,0,0,0,-1,1238,1464,0,0
21,-440,0,0,0,0,0,0,0,0,0,-1,1245,1464,0,0
28,-440,0,0,0,0,0,0,0,0,0,-1,1252,1464,0,0
35,-440,0,0,0,0,0,0,0,0,0,-1,1259,1464,0,0
42,-440,0,0,0,0,0,0,0,0,0,-1,1266,1464,0,0
49,-440,0,0,0,0,0,0,0,0,0,-1,1273,1464,0,0
56,-440,0,0,0,0,0,0,0,0,0,-1,1280,1464,0,0
63,-440,0,0,0,0,0,0,0,0,0,-1,1287,1464,0,0
70,-440,0,0,0,0,0,0,0,0,0,-1,1294,1464,0,0
77,-440,0,0,0,0,0,0,0,0,0,-1,1301,1464,0,0
84,-440,0,0,0,0,0,0,0,0,0,-1,1308,1464,0,0
91,-440,0,0,0,0,0,0,0,0,0,-1,1315,1464,0,0
98,-440,0,0,0,0,0,0,0,0,0,-1,1322,1464,0,0
105,-440,0,0,0,0,0,0,0,0,0,-1,1329,1464,0,0
112,-440,0,0,0,0,0,0,0,0,0,-1,1336,1464,0,0
119,-440,0,0,0,0,0,0,0,0,0,-1,1343,1464,0,0
126,-440,0,0,0,0,0,0,0,0,0,-1,1350,1464,0,0
133,-440,0,0,0,0,0,0,0,0,0,-1,1357,1464,0,0
140,-440,0,0,0,0,0,0,0,0,0,-1,1364,1464,0,0
147,-440,0,0,0,0,0,0,0,0,0,-1,1371,1464,0,0
154,-440,0,0,0,0,0,0,0,0,0,-1,1378,1464,0,0
161,-440,0,0,0,0,0,0,0,0,0,-1,1385,1464,0,0
168,-440,0,0,0,0,0,0,0,0,0,-1,1392,1464,0,0
175,-440,0,0,0,0,0,0,0,0,0,-1,1399,1464,0,0
182,-440,0,0,0,0,0,0,0,0,0,-1,1406,1464,0,0
189,-440,0,0,0,0,0,0,0,0,0,-1,1413,1464,0,0
196,-440,0,0,0,0,0,0,0,0,0,-1,1420,1464,0,0
203,-440,0,0,0,0,0,0,0,0,0,-1,1427,1464,0,0
210,-440,0,0,0,0,0,0,0,0,0,-1,1434,1464,0,0
217,-440,0,0,0,0,0,0,0,0,0,-1,1441,1464,0,0
224,-440,0,0,0,0,0,0,0,0,0,-1,1448,1464,0,0
231,-440,0,0,0,0,0,0,0,0,0,-1,1455,1464,0,0
238,-440,0,0,0,0,0,0,0,0,0,-1,1462,1464,0,0
245,-440,0,0,0,0,0,0,0,0,0,-1,1469,1464,0,0
252,-440,0,0,0,0,0,0,0,0,0,-1,1476,1464,0,0
259,-440,0,0,0,0,0,0,0,0,0,-1,1483,1464,0,0
266,-440,0,0,0,0,0,0,0,0,0,-1,1490,1464,0,0
273,-440,0,0,0,0,0,0,0,0,0,-1,1497,1464,0,0
280,-440,0,0,0,0,0,0,0,0,0,-1,1504,1464,0,0
287,-440,0,0,0,0,0,0,0,0,0,-1,1511,1464,0,0
294,-440,0,0,0,0,0,0,0,0,0,-1,1518,1464,0,0
301,-440,0,0,0,0,0,0,0,0,0,-1,1525,1464,0,0
308,-440,0,0,0,0,0,0,0,0,0,-1,1532,1464,0,0
315,-440,0,0,0,0,0,0,0,0,0,-1,1539,1464,0,0
322,-440,0,0,0,0,0,0,0,0,0,-1,1546,1464,0,0
329,-440,0,0,0,0,0,0,0,0,0,-1,1553,1464,0,0
336,-440,0,0,0,0,0,0,0,0,0,-1,1560,1464,0,0
343,-440,0,0,0,0,0,0,0,0,0,-1,1567,1464,0,0
350,-440,0,0,0,0,0,0,0,0,0,-1,1574,1464,0,0
357,-440,0,0,0,0,0,0,0,0,0,-1,1581,1464,0,0
364,-440,0,0,0,0,0,0,0,0,0,-1,1588,1464,0,0
371,-440,0,0,0,0,0,0,0,0,0,-1,1595,1464,0,0
378,-440,0,0,0,0,0,0,0,0,0,-1,1602,1464,0,0
385,-440,0,0,0,0,0,0,0,0,0,-1,1609,1464,0,0
392,-440,0,0,0,0,0,0,0,0,0,-1,1616,1464,0,0
399,-440,0,0,0,0,0,0,0,0,0,-1,1623,1464,0,0
406,-440,0,0,0,0,0,0,0,0,0,-1,1630,1464,0,0
413,-440,0,0,0,0,0,0,0,0,0,-1,1637,1464,0,0
420,-440,0,0,0,0,0,0,0,0,0,-1,1644,1464,0,0
427,-440,0,0,0,0,0,0,0,0,0,-1,1651,1464,0,0
434,-440,0,0,0,0,0,0,0,0,0,-1,1658,1464,0,0
441,-440,0,0,0,0,0,0,0,0,0,-1,1665,1464,0,0
448,-440,0,0,0,0,0,0,0,0,0,-1,1672,1464,0,0
455,-440,0,0,0,0,0,0,0,0,0,-1,1679,1464,0,0
462,-440,0,0,0,0,0,0,0,0,0,-1,1686,1464,0,0
469,-440,0,0,0,0,0,0,0,0,0,-1,1693,1464,0,0
476,-440,0,0,0,0,0,0,0,0,0,-1,1700,1464,0,0
483,-440,0,0,0,0,0,0,0,0,0,-1,1707,1464,0,0
490,-440,0,0,0,0,0,0,0,0,0,-1,1714,1464,0,0
497,-440,16.965,-0.528442,0,0,0,0,0,0,0,-1,1721,1464,16.965,0.528492
504,-440,15.8052,0.670166,0,0,0,0,0,0,0,-1,1728,1464,15.8052,-0.670145
511,-440,17.5754,2.77832,0,0,0,0,0,0,0,-1,1735,1464,17.5754,-2.77826
518,-440,16.9017,3.07861,0,0,0,0,0,0,0,-1,1742,1464,16.9018,-3.07859
525,-440,18.4495,12.0867,0,0,0,0,0,0,0,-1,1749,1464,18.4495,-12.0867
532,-440,15.4319,3.64392,0,0,0,0,0,0,0,-1,1756,1464,15.4318,-3.64391
539,-440,14.8214,3.41321,0,0,0,0,0,0,0,-1,1763,1464,14.8214,-3.4132
546,-440,14.8651,10.7683,0,0,0,0,0,0,0,-1,1770,1464,14.8651,-10.7683
553,-440,15.1213,11.4121,0,0,0,0,0,0,0,-1,1777,1464,15.1213,-11.4121
560,-440,17.4325,12.5394,0,0,0,0,0,0,0,-1,1784,1464,17.4325,-12.5394
567,-440,16.9025,12.4249,0,0,0,0,0,0,0,-1,1791,1464,16.9025,-12.425
574,-440,19.2841,14.8679,0,0,0,0,0,0,0,-1,1798,1464,19.2841,-14.868
581,-440,26.4432,21.3477,0,0,0,0,0,0,0,-1,1805,1464,26.4432,-21.3476
588,-440,85.571,98.6345,0,0,0,0,0,0,0,-1,1812,1464,85.5711,-98.6345
595,-440,125.805,97.908,0,0,0,0,0,0,0,-1,1819,1464,125.805,-97.9079
602,-440,124.865,94.4839,-0.0425494,-0.0071146,0.044036,0.0226345,-0.0722985,0.976659,0.0572552,0.0414881,1826,1464,124.865,-94.4839
609,-440,123.76,91.3381,-0.0326217,-0.000637408,0.0408594,0.027248,-0.0605071,0.971931,0.0518641,0.0347811,1833,1464,123.76,-91.3381
616,-440,122.481,88.3438,-0.0227597,0.00616644,0.0378276,0.0322017,-0.0487949,0.967994,0.0470894,0.0362314,1840,1464,122.481,-88.3438
623,-440,121.574,84.922,-0.0131102,0.0132697,0.0350066,0.0374888,-0.0373292,0.965566,0.0431962,0.022894,1847,1464,121.574,-84.9221
630,-440,120.774,81.629,-0.00398616,0.0205331,0.0324827,0.0429927,-0.0264457,0.965844,0.040468,0.0162905,1854,1464,120.774,-81.6291
637,-440,120.057,78.3622,0.00441855,0.0277113,0.0304454,0.0486618,-0.016532,0.968077,0.0391337,0.0259154,1861,1464,120.058,-78.3622
644,-440,119.353,75.1099,0.0120647,0.0350183,0.0287665,0.0545129,-0.00742994,0.975205,0.0390549,0.0320885,1868,1464,119.353,-75.1099
651,-440,118.639,71.8516,0,0,0,0,0,0,0,-1,1875,1464,118.639,-71.8515
658,-440,82.9196,69.3716,0,0,0,0,0,0,0,-1,1882,1464,82.9195,-69.3716
665,-440,24.2067,12.5813,0,0,0,0,0,0,0,-1,1889,1464,24.2067,-12.5813
672,-440,18.9385,9.6394,0,0,0,0,0,0,0,-1,1896,1464,18.9384,-9.63939
679,-440,16.9508,10.2336,0,0,0,0,0,0,0,-1,1903,1464,16.9508,-10.2337
686,-440,15.2556,8.44177,0,0,0,0,0,0,0,-1,1910,1464,15.2556,-8.44177
693,-440,9.88635,2.89795,0,0,0,0,0,0,0,-1,1917,1464,9.88638,-2.89798
700,-440,7.07825,-2.62061,0,0,0,0,0,0,0,-1,1924,1464,7.07829,2.62057
707,-440,0,0,0,0,0,0,0,0,0,-1,1931,1464,0,0
714,-440,0,0,0,0,0,0,0,0,0,-1,1938,1464,0,0
721,-440,0,0,0,0,0,0,0,0,0,-1,1945,1464,0,0
728,-440,0,0,0,0,0,0,0,0,0,-1,1952,1464,0,0
735,-440,0,0,0,0,0,0,0,0,0,-1,1959,1464,0,0
742,-440,0,0,0,0,0,0,0,0,0,-1,1966,1464,0,0
749,-440,0,0,0,0,0,0,0,0,0,-1,1973,1464,0,0
756,-440,0,0,0,0,0,0,0,0,0,-1,1980,1464,0,0
763,-440,0,0,0,0,0,0,0,0,0,-1,1987,1464,0,0
770,-440,0,0,0,0,0,0,0,0,0,-1,1994,1464,0,0
777,-440,0,0,0,0,0,0,0,0,0,-1,2001,1464,0,0
784,-440,0,0,0,0,0,0,0,0,0,-1,2008,1464,0,0
791,-440,0,0,0,0,0,0,0,0,0,-1,2015,1464,0,0
798,-440,0,0,0,0,0,0,0,0,0,-1,2022,1464,0,0
805,-440,0,0,0,0,0,0,0,0,0,-1,2029,1464,0,0
812,-440,0,0,0,0,0,0,0,0,0,-1,2036,1464,0,0
-700,-447,0,0,0,0,0,0,0,0,0,-1,524,1471,0,0
-693,-447,0,0,0,0,0,0,0,0,0,-1,531,1471,0,0
-686,-447,0,0,0,0,0,0,0,0,0,-1,538,1471,0,0
-679,-447,0,0,0,0,0,0,0,0,0,-1,545,1471,0,0
-672,-447,0,0,0,0,0,0,0,0,0,-1,552,1471,0,0
-665,-447,0,0,0,0,0,0,0,0,0,-1,559,1471,0,0
-658,-447,0,0,0,0,0,0,0,0,0,-1,566,1471,0,0
-651,-447,0,0,0,0,0,0,0,0,0,-1,573,1471,0,0
-644,-447,0,0,0,0,0,0,0,0,0,-1,580,1471,0,0
-637,-447,0,0,0,0,0,0,0,0,0,-1,587,1471,0,0
-630,-447,0,0,0,0,0,0,0,0,0,-1,594,1471,0,0
-623,-447,0,0,0,0,0,0,0,0,0,-1,601,1471,0,0
-616,-447,0,0,0,0,0,0,0,0,0,-1,608,1471,0,0
-609,-447,0,0,0,0,0,0,0,0,0,-1,615,1471,0,0
-602,-447,0,0,0,0,0,0,0,0,0,-1,622,1471,0,0
-595,-447,0,0,0,0,0,0,0,0,0,-1,629,1471,0,0
-588,-447,0,0,0,0,0,0,0,0,0,-1,636,1471,0,0
-581,-447,-7.06482,-1.50476,0,0,0,0,0,0,0,-1,643,1471,-7.0648,1.50474
-574,-447,-6.88092,-0.00585938,0,0,0,0,0,0,0,-1,650,1471,-6.88095,0.00589852
-567,-447,-6.8205,-1.32178,0,0,0,0,0,0,0,-1,657,1471,-6.82047,1.32172
-560,-447,-8.85748,2.80774,0,0,0,0,0,0,0,-1,664,1471,-8.85748,-2.80775
-553,-447,-7.60486,3.26794,0,0,0,0,0,0,0,-1,671,1471,-7.60487,-3.26799
-546,-447,-3.94501,1.8656,0,0,0,0,0,0,0,-1,678,1471,-3.945,-1.86554
-539,-447,-5.35492,4.50024,0,0,0,0,0,0,0,-1,685,1471,-5.35492,-4.50018
-532,-447,-6.12781,8.81091,0,0,0,0,0,0,0,-1,692,1471,-6.12781,-8.81094
-525,-447,-9.44501,12.098,0,0,0,0,0,0,0,-1,699,1471,-9.44502,-12.098
-518,-447,-53.4653,56.6064,0,0,0,0,0,0,0,-1,706,1471,-53.4653,-56.6064
-511,-447,-108.98,72.7134,0,0,0,0,0,0,0,-1,713,1471,-108.98,-72.7133
-504,-447,-109.67,75.8472,0.0121185,0.0355233,-0.0351496,0.0608673,-0.0132256,-0.946093,0.0456302,0.0266963,720,1471,-109.67,-75.8471
-497,-447,-110.411,78.9966,0.0106206,0.0330517,-0.0322568,0.0559871,-0.0123148,-0.952708,0.0420354,0.0312004,727,1471,-110.411,-78.9966
-490,-447,-111.241,82.2582,0.00887186,0.0309544,-0.0292632,0.05119,-0.0113638,-0.965795,0.0384781,0.030554,734,1471,-111.241,-82.2582
-483,-447,-112.008,85.6089,0.00665226,0.0292196,-0.026359,0.0466086,-0.0107367,-0.987635,0.0352014,0.0300537,741,1471,-112.008,-85.6089
-476,-447,-112.72,88.9467,0.00396404,0.0277699,-0.0233683,0.0420921,-0.0103582,-1.02095,0.0320765,0.0252083,748,1471,-112.72,-88.9467
-469,-447,-113.688,92.3928,0.000614896,0.0265622,-0.0206299,0.0379588,-0.0107817,-1.06609,0.0295626,0.0296518,755,1471,-113.688,-92.3928
-462,-447,-114.792,95.8529,0,0,0,0,0,0,0,-1,762,1471,-114.792,-95.8529
-455,-447,-76.1613,92.892,0,0,0,0,0,0,0,-1,769,1471,-76.1613,-92.892
-448,-447,-64.4352,85.1656,0,0,0,0,0,0,0,-1,776,1471,-64.4352,-85.1656
-441,-447,-8.68506,19.0931,0,0,0,0,0,0,0,-1,783,1471,-8.68504,-19.0932
-434,-447,-7.43402,15.6273,0,0,0,0,0,0,0,-1,790,1471,-7.43404,-15.6274
-427,-447,-7.21832,14.691,0,0,0,0,0,0,0,-1,797,1471,-7.21834,-14.6911
-420,-447,-8.0545,12.8055,0,0,0,0,0,0,0,-1,804,1471,-8.05452,-12.8055
-413,-447,-4.27393,6.59705,0,0,0,0,0,0,0,-1,811,1471,-4.27392,-6.59707
-406,-447,-1.04279,6.18591,0,0,0,0,0,0,0,-1,818,1471,-1.04276,-6.18586
-399,-447,0.0134888,0.687622,0,0,0,0,0,0,0,-1,825,1471,0.0134841,-0.68767
-392,-447,-14.0646,3.76147,0,0,0,0,0,0,0,-1,832,1471,-14.0646,-3.7615
-385,-447,-15.1695,2.61865,0,0,0,0,0,0,0,-1,839,1471,-15.1695,-2.61871
-378,-447,-15.9424,1.49316,0,0,0,0,0,0,0,-1,846,1471,-15.9424,-1.49313
-371,-447,-17.3655,0.73291,0,0,0,0,0,0,0,-1,853,1471,-17.3655,-0.732946
-364,-447,0,0,0,0,0,0,0,0,0,-1,860,1471,0,0
-357,-447,0,0,0,0,0,0,0,0,0,-1,867,1471,0,0
-350,-447,0,0,0,0,0,0,0,0,0,-1,874,1471,0,0
-343,-447,0,0,0,0,0,0,0,0,0,-1,881,1471,0,0
-336,-447,0,0,0,0,0,0,0,0,0,-1,888,1471,0,0
-329,-447,0,0,0,0,0,0,0,0,0,-1,895,1471,0,0
-322,-447,0,0,0,0,0,0,0,0,0,-1,902,1471,0,0
-315,-447,0,0,0,0,0,0,0,0,0,-1,909,1471,0,0
-308,-447,0,0,0,0,0,0,0,0,0,-1,916,1471,0,0
-301,-447,0,0,0,0,0,0,0,0,0,-1,923,1471,0,0
-294,-447,0,0,0,0,0,0,0,0,0,-1,930,1471,0,0
-287,-447,0,0,0,0,0,0,0,0,0,-1,937,1471,0,0
-280,-447,0,0,0,0,0,0,0,0,0,-1,944,1471,0,0
-273,-447,0,0,0,0,0,0,0,0,0,-1,951,1471,0,0
-266,-447,0,0,0,0,0,0,0,0,0,-1,958,1471,0,0
-259,-447,0,0,0,0,0,0,0,0,0,-1,965,1471,0,0
-252,-447,0,0,0,0,0,0,0,0,0,-1,972,1471,0,0
-245,-447,0,0,0,0,0,0,0,0,0,-1,979,1471,0,0
-238,-447,0,0,0,0,0,0,0,0,0,-1,986,1471,0,0
-231,-447,0,0,0,0,0,0,0,0,0,-1,993,1471,0,0
-224,-447,0,0,0,0,0,0,0,0,0,-1,1000,1471,0,0
-217,-447,0,0,0,0,0,0,0,0,0,-1,1007,1471,0,0
-210,-447,0,0,0,0,0,0,0,0,0,-1,1014,1471,0,0
-203,-447,0,0,0,0,0,0,0,0,0,-1,1021,1471,0,0
-196,-447,0,0,0,0,0,0,0,0,0,-1,1028,1471,0,0
-189,-447,0,0,0,0,0,0,0,0,0,-1,1035,1471,0,0
-182,-447,0,0,0,0,0,0,0,0,0,-1,1042,1471,0,0
-175,-447,0,0,0,0,0,0,0,0,0,-1,1049,1471,0,0
-168,-447,0,0,0,0,0,0,0,0,0,-1,1056,1471,0,0
-161,-447,0,0,0,0,0,0,0,0,0,-1,1063,1471,0,0
-154,-447,0,0,0,0,0,0,0,0,0,-1,1070,1471,0,0
-147,-447,0,0,0,0,0,0,0,0,0,-1,1077,1471,0,0
-140,-447,0,0,0,0,0,0,0,0,0,-1,1084,1471,0,0
-133,-447,0,0,0,0,0,0,0,0,0,-1,1091,1471,0,0
-126,-447,0,0,0,0,0,0,0,0,0,-1,1098,1471,0,0
-119,-447,0,0,0,0,0,0,0,0,0,-1,1105,1471,0,0
-112,-447,0,0,0,0,0,0,0,0,0,-1,1112,1471,0,0
-105,-447,0,0,0,0,0,0,0,0,0,-1,1119,1471,0,0
-98,-447,0,0,0,0,0,0,0,0,0,-1,1126,1471,0,0
-91,-447,0,0,0,0,0,0,0,0,0,-1,1133,1471,0,0
-84,-447,0,0,0,0,0,0,0,0,0,-1,1140,1471,0,0
-77,-447,0,0,0,0,0,0,0,0,0,-1,1147,1471,0,0
-70,-447,0,0,0,0,0,0,0,0,0,-1,1154,1471,0,0
-63,-447,0,0,0,0,0,0,0,0,0,-1,1161,1471,0,0
-56,-447,0,0,0,0,0,0,0,0,0,-1,1168,1471,0,0
-49,-447,0,0,0,0,0,0,0,0,0,-1,1175,1471,0,0
-42,-447,0,0,0,0,0,0,0,0,0,-1,1182,1471,0,0
-35,-447,0,0,0,0,0,0,0,0,0,-1,1189,1471,0,0
-28,-447,0,0,0,0,0,0,0,0,0,-1,1196,1471,0,0
-21,-447,0,0,0,0,0,0,0,0,0,-1,1203,1471,0,0
-14,-447,0,0,0,0,0,0,0,0,0,-1,1210,1471,0,0
-7,-447,0,0,0,0,0,0,0,0,0,-1,1217,1471,0,0
0,-447,0,0,0,0,0,0,0,0,0,-1,1224,1471,0,0
7,-447,0,0,0,0,0,0,0,0,0,-1,1231,1471,0,0
14,-447,0,0,0,0,0,0,0,0,0,-1,1238,1471,0,0
21,-447,0,0,0,0,0,0,0,0,0,-1,1245,1471,0,0
28,-447,0,0,0,0,0,0,0,0,0,-1,1252,1471,0,0
35,-447,0,0,0,0,0,0,0,0,0,-1,1259,1471,0,0
42,-447,0,0,0,0,0,0,0,0,0,-1,1266,1471,0,0
49,-447,0,0,0,0,0,0,0,0,0,-1,1273,1471,0,0
56,-447,0,0,0,0,0,0,0,0,0,-1,1280,1471,0,0
63,-447,0,0,0,0,0,0,0,0,0,-1,1287,1471,0,0
70,-447,0,0,0,0,0,0,0,0,0,-1,1294,1471,0,0
77,-447,0,0,0,0,0,0,0,0,0,-1,1301,1471,0,0
84,-447,0,0,0,0,0,0,0,0,0,-1,1308,1471,0,0
91,-447,0,0,0,0,0,0,0,0,0,-1,1315,1471,0,0
98,-447,0,0,0,0,0,0,0,0,0,-1,1322,1471,0,0
105,-447,0,0,0,0,0,0,0,0,0,-1,1329,1471,0,0
112,-447,0,0,0,0,0,0,0,0,0,-1,1336,1471,0,0
119,-447,0,0,0,0,0,0,0,0,0,-1,1343,1471,0,0
126,-447,0,0,0,0,0,0,0,0,0,-1,1350,1471,0,0
133,-447,0,0,0,0,0,0,0,0,0,-1,1357,1471,0,0
140,-447,0,0,0,0,0,0,0,0,0,-1,1364,1471,0,0
147,-447,0,0,0,0,0,0,0,0,0,-1,1371,1471,0,0
154,-447,0,0,0,0,0,0,0,0,0,-1,1378,1471,0,0
161,-447,0,0,0,0,0,0,0,0,0,-1,1385,1471,0,0
168,-447,0,0,0,0,0,0,0,0,0,-1,1392,1471,0,0
175,-447,0,0,0,0,0,0,0,0,0,-1,1399,1471,0,0
182,-447,0,0,0,0,0,0,0,0,0,-1,1406,1471,0,0
189,-447,0,0,0,0,0,0,0,0,0,-1,1413,1471,0,0
196,-447,0,0,0,0,0,0,0,0,0,-1,1420,1471,0,0
203,-447,0,0,0,0,0,0,0,0,0,-1,1427,1471,0,0
210,-447,0,0,0,0,0,0,0,0,0,-1,1434,1471,0,0
217,-447,0,0,0,0,0,0,0,0,0,-1,1441,1471,0,0
224,-447,0,0,0,0,0,0,0,0,0,-1,1448,1471,0,0
231,-447,0,0,0,0,0,0,0,0,0,-1,1455,1471,0,0
238,-447,0,0,0,0,0,0,0,0,0,-1,1462,1471,0,0
245,-447,0,0,0,0,0,0,0,0,0,-1,1469,1471,0,0
252,-447,0,0,0,0,0,0,0,0,0,-1,1476,1471,0,0
259,-447,0,0,0,0,0,0,0,0,0,-1,1483,1471,0,0
266,-447,0,0,0,0,0,0,0,0,0,-1,1490,1471,0,0
273,-447,0,0,0,0,0,0,0,0,0,-1,1497,1471,0,0
280,-447,0,0,0,0,0,0,0,0,0,-1,1504,1471,0,0
287,-447,0,0,0,0,0,0,0,0,0,-1,1511,1471,0,0
294,-447,0,0,0,0,0,0,0,0,0,-1,1518,1471,0,0
301,-447,0,0,0,0,0,0,0,0,0,-1,1525,1471,0,0
308,-447,0,0,0,0,0,0,0,0,0,-1,1532,1471,0,0
315,-447,0,0,0,0,0,0,0,0,0,-1,1539,1471,0,0
322,-447,0,0,0,0,0,0,0,0,0,-1,1546,1471,0,0
329,-447,0,0,0,0,0,0,0,0,0,-1,1553,1471,0,0
336,-447,0,0,0,0,0,0,0,0,0,-1,1560,1471,0,0
343,-447,0,0,0,0,0,0,0,0,0,-1,1567,1471,0,0
350,-447,0,0,0,0,0,0,0,0,0,-1,1574,1471,0,0
357,-447,0,0,0,0,0,0,0,0,0,-1,1581,1471,0,0
364,-447,0,0,0,0,0,0,0,0,0,-1,1588,1471,0,0
371,-447,0,0,0,0,0,0,0,0,0,-1,1595,1471,0,0
378,-447,0,0,0,0,0,0,0,0,0,-1,1602,1471,0,0
385,-447,0,0,0,0,0,0,0,0,0,-1,1609,1471,0,0
392,-447,0,0,0,0,0,0,0,0,0,-1,1616,1471,0,0
399,-447,0,0,0,0,0,0,0,0,0,-1,1623,1471,0,0
406,-447,0,0,0,0,0,0,0,0,0,-1,1630,1471,0,0
413,-447,0,0,0,0,0,0,0,0,0,-1,1637,1471,0,0
420,-447,0,0,0,0,0,0,0,0,0,-1,1644,1471,0,0
427,-447,0,0,0,0,0,0,0,0,0,-1,1651,1471,0,0
434,-447,0,0,0,0,0,0,0,0,0,-1,1658,1471,0,0
441,-447,0,0,0,0,0,0,0,0,0,-1,1665,1471,0,0
448,-447,0,0,0,0,0,0,0,0,0,-1,1672,1471,0,0
455,-447,0,0,0,0,0,0,0,0,0,-1,1679,1471,0,0
462,-447,0,0,0,0,0,0,0,0,0,-1,1686,1471,0,0
469,-447,0,0,0,0,0,0,0,0,0,-1,1693,1471,0,0
476,-447,0,0,0,0,0,0,0,0,0,-1,1700,1471,0,0
483,-447,0,0,0,0,0,0,0,0,0,-1,1707,1471,0,0
490,-447,18.2214,-0.810303,0,0,0,0,0,0,0,-1,1714,1471,18.2215,0.810307
497,-447,17.0237,0.352417,0,0,0,0,0,0,0,-1,1721,1471,17.0237,-0.352442
504,-447,15.8998,1.53479,0,0,0,0,0,0,0,-1,1728,1471,15.8997,-1.53478
511,-447,14.7201,2.76111,0,0,0,0,0,0,0,-1,1735,1471,14.7201,-2.76107
518,-447,17.7618,13.2864,0,0,0,0,0,0,0,-1,1742,1471,17.7619,-13.2863
525,-447,17.1191,11.9014,0,0,0,0,0,0,0,-1,1749,1471,17.1191,-11.9013
532,-447,16.3959,10.0455,0,0,0,0,0,0,0,-1,1756,1471,16.3959,-10.0456
539,-447,14.1699,10.0204,0,0,0,0,0,0,0,-1,1763,1471,14.1699,-10.0204
546,-447,16.3715,11.8046,0,0,0,0,0,0,0,-1,1770,1471,16.3714,-11.8046
553,-447,17.5106,13.4012,0,0,0,0,0,0,0,-1,1777,1471,17.5107,-13.4012
560,-447,17.0187,13.168,0,0,0,0,0,0,0,-1,1784,1471,17.0187,-13.168
567,-447,18.9286,15.1703,0,0,0,0,0,0,0,-1,1791,1471,18.9286,-15.1703
574,-447,32.1848,27.6504,0,0,0,0,0,0,0,-1,1798,1471,32.1848,-27.6503
581,-447,48.0679,47.2927,0,0,0,0,0,0,0,-1,1805,1471,48.0679,-47.2927
588,-447,123.04,102.655,0,0,0,0,0,0,0,-1,1812,1471,123.04,-102.655
595,-447,121.843,99.4376,-0.0393817,-0.00665412,0.0434354,0.0233977,-0.0694335,0.965545,0.0557497,0.0482197,1819,1471,121.843,-99.4376
602,-447,120.661,96.0137,-0.0312155,-0.000830845,0.0411069,0.0278013,-0.0598477,0.962404,0.0517194,0.0294962,1826,1471,120.661,-96.0136
609,-447,119.685,92.5854,-0.0228392,0.00531632,0.0387395,0.0324567,-0.0499795,0.959677,0.0479516,0.0243051,1833,1471,119.685,-92.5855
616,-447,118.641,89.1536,-0.0143242,0.0117469,0.0363948,0.0373702,-0.0399475,0.957366,0.0446477,0.0254207,1840,1471,118.641,-89.1536
623,-447,117.732,85.8014,-0.00583437,0.018515,0.0341159,0.0425635,-0.0298829,0.956786,0.0420399,0.0259715,1847,1471,117.732,-85.8014
630,-447,116.996,82.5076,0.00242109,0.0254719,0.0319967,0.0479557,-0.0200627,0.958267,0.0403561,0.015278,1854,1471,116.996,-82.5075
637,-447,116.316,79.1716,0.0102339,0.032412,0.0302173,0.0535107,-0.0108648,0.961257,0.0397929,0.0178248,1861,1471,116.316,-79.1717
644,-447,115.575,75.9395,0.0176756,0.0398114,0.0285053,0.0593221,-0.00183505,0.970577,0.0401737,0.0308302,1868,1471,115.575,-75.9395
651,-447,114.855,72.7507,0,0,0,0,0,0,0,-1,1875,1471,114.855,-72.7507
658,-447,30.2566,16.5862,0,0,0,0,0,0,0,-1,1882,1471,30.2566,-16.5862
665,-447,18.4946,9.79919,0,0,0,0,0,0,0,-1,1889,1471,18.4946,-9.79922
672,-447,18.9784,9.66077,0,0,0,0,0,0,0,-1,1896,1471,18.9784,-9.66081
679,-447,14.844,7.4248,0,0,0,0,0,0,0,-1,1903,1471,14.844,-7.42477
686,-447,9.81079,4.30859,0,0,0,0,0,0,0,-1,1910,1471,9.8108,-4.30864
693,-447,10.48,2.08643,0,0,0,0,0,0,0,-1,1917,1471,10.48,-2.08642
700,-447,0,0,0,0,0,0,0,0,0,-1,1924,1471,0,0
707,-447,0,0,0,0,0,0,0,0,0,-1,1931,1471,0,0
714,-447,0,0,0,0,0,0,0,0,0,-1,1938,1471,0,0
721,-447,0,0,0,0,0,0,0,0,0,-1,1945,1471,0,0
728,-447,0,0,0,0,0,0,0,0,0,-1,1952,1471,0,0
735,-447,0,0,0,0,0,0,0,0,0,-1,1959,1471,0,0
742,-447,0,0,0,0,0,0,0,0,0,-1,1966,1471,0,0
749,-447,0,0,0,0,0,0,0,0,0,-1,1973,1471,0,0
756,-447,0,0,0,0,0,0,0,0,0,-1,1980,1471,0,0
763,-447,0,0,0,0,0,0,0,0,0,-1,1987,1471,0,0
770,-447,0,0,0,0,0,0,0,0,0,-1,1994,1471,0,0
777,-447,0,0,0,0,0,0,0,0,0,-1,2001,1471,0,0
784,-447,0,0,0,0,0,0,0,0,0,-1,2008,1471,0,0
791,-447,0,0,0,0,0,0,0,0,0,-1,2015,1471,0,0
798,-447,0,0,0,0,0,0,0,0,0,-1,2022,1471,0,0
805,-447,0,0,0,0,0,0,0,0,0,-1,2029,1471,0,0
812,-447,0,0,0,0,0,0,0,0,0,-1,2036,1471,0,0
-700,-454,0,0,0,0,0,0,0,0,0,-1,524,1478,0,0
-693,-454,0,0,0,0,0,0,0,0,0,-1,531,1478,0,0
-686,-454,0,0,0,0,0,0,0,0,0,-1,538,1478,0,0
-679,-454,0,0,0,0,0,0,0,0,0,-1,545,1478,0,0
-672,-454,0,0,0,0,0,0,0,0,0,-1,552,1478,0,0
-665,-454,0,0,0,0,0,0,0,0,0,-1,559,1478,0,0
-658,-454,0,0,0,0,0,0,0,0,0,-1,566,1478,0,0
-651,-454,0,0,0,0,0,0,0,0,0,-1,573,1478,0,0
-644,-454,0,0,0,0,0,0,0,0,0,-1,580,1478,0,0
-637,-454,0,0,0,0,0,0,0,0,0,-1,587,1478,0,0
-630,-454,0,0,0,0,0,0,0,0,0,-1,594,1478,0,0
-623,-454,0,0,0,0,0,0,0,0,0,-1,601,1478,0,0
-616,-454,0,0,0,0,0,0,0,0,0,-1,608,1478,0,0
-609,-454,0,0,0,0,0,0,0,0,0,-1,615,1478,0,0
-602,-454,0,0,0,0,0,0,0,0,0,-1,622,1478,0,0
-595,-454,0,0,0,0,0,0,0,0,0,-1,629,1478,0,0
-588,-454,0,0,0,0,0,0,0,0,0,-1,636,1478,0,0
-581,-454,0,0,0,0,0,0,0,0,0,-1,643,1478,0,0
-574,-454,-8.4881,-0.465942,0,0,0,0,0,0,0,-1,650,1478,-8.4881,0.465885
-567,-454,-8.10046,0.922974,0,0,0,0,0,0,0,-1,657,1478,-8.10047,-0.923034
-560,-454,-10.656,3.51172,0,0,0,0,0,0,0,-1,664,1478,-10.656,-3.51176
-553,-454,-9.01129,3.95251,0,0,0,0,0,0,0,-1,671,1478,-9.0113,-3.95256
-546,-454,-9.61896,6.05237,0,0,0,0,0,0,0,-1,678,1478,-9.61897,-6.05239
-539,-454,-7.72589,4.96533,0,0,0,0,0,0,0,-1,685,1478,-7.72592,-4.96532
-532,-454,-7.03931,7.59985,0,0,0,0,0,0,0,-1,692,1478,-7.03929,-7.59981
-525,-454,-5.78723,9.677,0,0,0,0,0,0,0,-1,699,1478,-5.78722,-9.67703
-518,-454,-9.82098,13.8295,0,0,0,0,0,0,0,-1,706,1478,-9.82098,-13.8295
-511,-454,-105.098,73.1813,0,0,0,0,0,0,0,-1,713,1478,-105.098,-73.1813
-504,-454,-105.819,76.5812,0.0150147,0.0370643,-0.0381206,0.0657223,-0.0136433,-0.926162,0.0489999,0.0348243,720,1478,-105.819,-76.5811
-497,-454,-106.609,79.8572,0.0136175,0.0345001,-0.0353098,0.0608801,-0.0127624,-0.929154,0.0454422,0.027361,727,1478,-106.609,-79.8572
-490,-454,-107.434,83.2073,0.012028,0.0322297,-0.0324041,0.0560708,-0.011813,-0.936483,0.0418774,0.0273209,734,1478,-107.434,-83.2073
-483,-454,-108.208,86.5155,0.00995023,0.0301427,-0.0295894,0.051311,-0.011218,-0.94981,0.0384954,0.0272694,741,1478,-108.208,-86.5155
-476,-454,-109.039,89.6897,0.00735759,0.028246,-0.0267729,0.0465398,-0.0109362,-0.971371,0.0352421,0.0268717,748,1478,-109.039,-89.6898
-469,-454,-109.95,93.134,0.00416668,0.0264941,-0.0243046,0.0420763,-0.0114154,-1.00069,0.0325306,0.0231733,755,1478,-109.95,-93.1341
-462,-454,-111.077,97.0591,0.000321233,0.0249509,-0.0219437,0.0377992,-0.012527,-1.0411,0.0302524,0.0482133,762,1478,-111.077,-97.059
-455,-454,-112.321,101.011,0,0,0,0,0,0,0,-1,769,1478,-112.321,-101.011
-448,-454,-73.93,96.1239,0,0,0,0,0,0,0,-1,776,1478,-73.93,-96.124
-441,-454,-59.8186,85.6444,0,0,0,0,0,0,0,-1,783,1478,-59.8186,-85.6444
-434,-454,-7.55743,19.4857,0,0,0,0,0,0,0,-1,790,1478,-7.55746,-19.4858
-427,-454,-6.00183,15.8636,0,0,0,0,0,0,0,-1,797,1478,-6.00184,-15.8637
-420,-454,-6.28088,15.2135,0,0,0,0,0,0,0,-1,804,1478,-6.28087,-15.2135
-413,-454,-5.4408,13.674,0,0,0,0,0,0,0,-1,811,1478,-5.44079,-13.6739
-406,-454,-2.38208,10.0308,0,0,0,0,0,0,0,-1,818,1478,-2.38209,-10.0308
-399,-454,-1.21033,6.95447,0,0,0,0,0,0,0,-1,825,1478,-1.21035,-6.95452
-392,-454,0.0967407,0.985474,0,0,0,0,0,0,0,-1,832,1478,0.0967364,-0.985529
-385,-454,2.38629,3.297,0,0,0,0,0,0,0,-1,839,1478,2.38629,-3.29702
-378,-454,-15.9756,2.83997,0,0,0,0,0,0,0,-1,846,1478,-15.9756,-2.83994
-371,-454,-17.2753,2.01453,0,0,0,0,0,0,0,-1,853,1478,-17.2753,-2.01455
-364,-454,1.08124,0.819458,0,0,0,0,0,0,0,-1,860,1478,1.08124,-0.819513
-357,-454,0,0,0,0,0,0,0,0,0,-1,867,1478,0,0
-350,-454,0,0,0,0,0,0,0,0,0,-1,874,1478,0,0
-343,-454,0,0,0,0,0,0,0,0,0,-1,881,1478,0,0
-336,-454,0,0,0,0,0,0,0,0,0,-1,888,1478,0,0
-329,-454,0,0,0,0,0,0,0,0,0,-1,895,1478,0,0
-322,-454,0,0,0,0,0,0,0,0,0,-1,902,1478,0,0
-315,-454,0,0,0,0,0,0,0,0,0,-1,909,1478,0,0
-308,-454,0,0,0,0,0,0,0,0,0,-1,916,1478,0,0
-301,-454,0,0,0,0,0,0,0,0,0,-1,923,1478,0,0
-294,-454,0,0,0,0,0,0,0,0,0,-1,930,1478,0,0
-287,-454,0,0,0,0,0,0,0,0,0,-1,937,1478,0,0
-280,-454,0,0,0,0,0,0,0,0,0,-1,944,1478,0,0
-273,-454,0,0,0,0,0,0,0,0,0,-1,951,1478,0,0
-266,-454,0,0,0,0,0,0,0,0,0,-1,958,1478,0,0
-259,-454,0,0,0,0,0,0,0,0,0,-1,965,1478,0,0
-252,-454,0,0,0,0,0,0,0,0,0,-1,972,1478,0,0
-245,-454,0,0,0,0,0,0,0,0,0,-1,979,1478,0,0
-238,-454,0,0,0,0,0,0,0,0,0,-1,986,1478,0,0
-231,-454,0,0,0,0,0,0,0,0,0,-1,993,1478,0,0
-224,-454,0,0,0,0,0,0,0,0,0,-1,1000,1478,0,0
-217,-454,0,0,0,0,0,0,0,0,0,-1,1007,1478,0,0
-210,-454,0,0,0,0,0,0,0,0,0,-1,1014,1478,0,0
-203,-454,0,0,0,0,0,0,0,0,0,-1,1021,1478,0,0
-196,-454,0,0,0,0,0,0,0,0,0,-1,1028,1478,0,0
-189,-454,0,0,0,0,0,0,0,0,0,-1,1035,1478,0,0
-182,-454,0,0,0,0,0,0,0,0,0,-1,1042,1478,0,0
-175,-454,0,0,0,0,0,0,0,0,0,-1,1049,1478,0,0
-168,-454,0,0,0,0,0,0,0,0,0,-1,1056,1478,0,0
-161,-454,0,0,0,0,0,0,0,0,0,-1,1063,1478,0,0
-154,-454,0,0,0,0,0,0,0,0,0,-1,1070,1478,0,0
-147,-454,0,0,0,0,0,0,0,0,0,-1,1077,1478,0,0
-140,-454,0,0,0,0,0,0,0,0,0,-1,1084,1478,0,0
-133,-454,0,0,0,0,0,0,0,0,0,-1,1091,1478,0,0
-126,-454,0,0,0,0,0,0,0,0,0,-1,1098,1478,0,0
-119,-454,0,0,0,0,0,0,0,0,0,-1,1105,1478,0,0
-112,-454,0,0,0,0,0,0,0,0,0,-1,1112,1478,0,0
-105,-454,0,0,0,0,0,0,0,0,0,-1,1119,1478,0,0
-98,-454,0,0,0,0,0,0,0,0,0,-1,1126,1478,0,0
-91,-454,0,0,0,0,0,0,0,0,0,-1,1133,1478,0,0
-84,-454,0,0,0,0,0,0,0,0,0,-1,1140,1478,0,0
-77,-454,0,0,0,0,0,0,0,0,0,-1,1147,1478,0,0
-70,-454,0,0,0,0,0,0,0,0,0,-1,1154,1478,0,0
-63,-454,0,0,0,0,0,0,0,0,0,-1,1161,1478,0,0
-56,-454,0,0,0,0,0,0,0,0,0,-1,1168,1478,0,0
-49,-454,0,0,0,0,0,0,0,0,0,-1,1175,1478,0,0
-42,-454,0,0,0,0,0,0,0,0,0,-1,1182,1478,0,0
-35,-454,0,0,0,0,0,0,0,0,0,-1,1189,1478,0,0
-28,-454,0,0,0,0,0,0,0,0,0,-1,1196,1478,0,0
-21,-454,0,0,0,0,0,0,0,0,0,-1,1203,1478,0,0
-14,-454,0,0,0,0,0,0,0,0,0,-1,1210,1478,0,0
-7,-454,0,0,0,0,0,0,0,0,0,-1,1217,1478,0,0
0,-454,0,0,0,0,0,0,0,0,0,-1,1224,1478,0,0
7,-454,0,0,0,0,0,0,0,0,0,-1,1231,1478,0,0
14,-454,0,0,0,0,0,0,0,0,0,-1,1238,1478,0,0
21,-454,0,0,0,0,0,0,0,0,0,-1,1245,1478,0,0
28,-454,0,0,0,0,0,0,0,0,0,-1,1252,1478,0,0
35,-454,0,0,0,0,0,0,0,0,0,-1,1259,1478,0,0
42,-454,0,0,0,0,0,0,0,0,0,-1,1266,1478,0,0
49,-454,0,0,0,0,0,0,0,0,0,-1,1273,1478,0,0
56,-454,0,0,0,0,0,0,0,0,0,-1,1280,1478,0,0
63,-454,0,0,0,0,0,0,0,0,0,-1,1287,1478,0,0
70,-454,0,0,0,0,0,0,0,0,0,-1,1294,1478,0,0
77,-454,0,0,0,0,0,0,0,0,0,-1,1301,1478,0,0
84,-454,0,0,0,0,0,0,0,0,0,-1,1308,1478,0,0
91,-454,0,0,0,0,0,0,0,0,0,-1,1315,1478,0,0
98,-454,0,0,0,0,0,0,0,0,0,-1,1322,1478,0,0
105,-454,0,0,0,0,0,0,0,0,0,-1,1329,1478,0,0
112,-454,0,0,0,0,0,0,0,0,0,-1,1336,1478,0,0
119,-454,0,0,0,0,0,0,0,0,0,-1,1343,1478,0,0
126,-454,0,0,0,0,0,0,0,0,0,-1,1350,1478,0,0
133,-454,0,0,0,0,0,0,0,0,0,-1,1357,1478,0,0
140,-454,0,0,0,0,0,0,0,0,0,-1,1364,1478,0,0
147,-454,0,0,0,0,0,0,0,0,0,-1,1371,1478,0,0
154,-454,0,0,0,0,0,0,0,0,0,-1,1378,1478,0,0
161,-454,0,0,0,0,0,0,0,0,0,-1,1385,1478,0,0
168,-454,0,0,0,0,0,0,0,0,0,-1,1392,1478,0,0
175,-454,0,0,0,0,0,0,0,0,0,-1,1399,1478,0,0
182,-454,0,0,0,0,0,0,0,0,0,-1,1406,1478,0,0
189,-454,0,0,0,0,0,0,0,0,0,-1,1413,1478,0,0
196,-454,0,0,0,0,0,0,0,0,0,-1,1420,1478,0,0
203,-454,0,0,0,0,0,0,0,0,0,-1,1427,1478,0,0
210,-454,0,0,0,0,0,0,0,0,0,-1,1434,1478,0,0
217,-454,0,0,0,0,0,0,0,0,0,-1,1441,1478,0,0
224,-454,0,0,0,0,0,0,0,0,0,-1,1448,1478,0,0
231,-454,0,0,0,0,0,0,0,0,0,-1,1455,1478,0,0
238,-454,0,0,0,0,0,0,0,0,0,-1,1462,1478,0,0
245,-454,0,0,0,0,0,0,0,0,0,-1,1469,1478,0,0
252,-454,0,0,0,0,0,0,0,0,0,-1,1476,1478,0,0
259,-454,0,0,0,0,0,0,0,0,0,-1,1483,1478,0,0
266,-454,0,0,0,0,0,0,0,0,0,-1,1490,1478,0,0
273,-454,0,0,0,0,0,0,0,0,0,-1,1497,1478,0,0
280,-454,0,0,0,0,0,0,0,0,0,-1,1504,1478,0,0
287,-454,0,0,0,0,0,0,0,0,0,-1,1511,1478,0,0
294,-454,0,0,0,0,0,0,0,0,0,-1,1518,1478,0,0
301,-454,0,0,0,0,0,0,0,0,0,-1,1525,1478,0,0
308,-454,0,0,0,0,0,0,0,0,0,-1,1532,1478,0,0
315,-454,0,0,0,0,0,0,0,0,0,-1,1539,1478,0,0
322,-454,0,0,0,0,0,0,0,0,0,-1,1546,1478,0,0
329,-454,0,0,0,0,0,0,0,0,0,-1,1553,1478,0,0
336,-454,0,0,0,0,0,0,0,0,0,-1,1560,1478,0,0
343,-454,0,0,0,0,0,0,0,0,0,-1,1567,1478,0,0
350,-454,0,0,0,0,0,0,0,0,0,-1,1574,1478,0,0
357,-454,0,0,0,0,0,0,0,0,0,-1,1581,1478,0,0
364,-454,0,0,0,0,0,0,0,0,0,-1,1588,1478,0,0
371,-454,0,0,0,0,0,0,0,0,0,-1,1595,1478,0,0
378,-454,0,0,0,0,0,0,0,0,0,-1,1602,1478,0,0
385,-454,0,0,0,0,0,0,0,0,0,-1,1609,1478,0,0
392,-454,0,0,0,0,0,0,0,0,0,-1,1616,1478,0,0
399,-454,0,0,0,0,0,0,0,0,0,-1,1623,1478,0,0
406,-454,0,0,0,0,0,0,0,0,0,-1,1630,1478,0,0
413,-454,0,0,0,0,0,0,0,0,0,-1,1637,1478,0,0
420,-454,0,0,0,0,0,0,0,0,0,-1,1644,1478,0,0
427,-454,0,0,0,0,0,0,0,0,0,-1,1651,1478,0,0
434,-454,0,0,0,0,0,0,0,0,0,-1,1658,1478,0,0
441,-454,0,0,0,0,0,0,0,0,0,-1,1665,1478,0,0
448,-454,0,0,0,0,0,0,0,0,0,-1,1672,1478,0,0
455,-454,0,0,0,0,0,0,0,0,0,-1,1679,1478,0,0
462,-454,0,0,0,0,0,0,0,0,0,-1,1686,1478,0,0
469,-454,0,0,0,0,0,0,0,0,0,-1,1693,1478,0,0
476,-454,0,0,0,0,0,0,0,0,0,-1,1700,1478,0,0
483,-454,14.2399,3.97498,0,0,0,0,0,0,0,-1,1707,1478,14.2399,-3.97502
490,-454,18.1821,-0.175781,0,0,0,0,0,0,0,-1,1714,1478,18.1821,0.175822
497,-454,16.8854,1.01208,0,0,0,0,0,0,0,-1,1721,1478,16.8854,-1.01209
504,-454,15.587,2.05994,0,0,0,0,0,0,0,-1,1728,1478,15.5871,-2.05998
511,-454,17.0273,14.5258,0,0,0,0,0,0,0,-1,1735,1478,17.0273,-14.5258
518,-454,16.4158,13.1039,0,0,0,0,0,0,0,-1,1742,1478,16.4157,-13.1038
525,-454,15.7842,11.6628,0,0,0,0,0,0,0,-1,1749,1478,15.7841,-11.6629
532,-454,15.1094,10.2476,0,0,0,0,0,0,0,-1,1756,1478,15.1094,-10.2475
539,-454,13.7905,10.9373,0,0,0,0,0,0,0,-1,1763,1478,13.7906,-10.9372
546,-454,16.2002,13.2458,0,0,0,0,0,0,0,-1,1770,1478,16.2002,-13.2459
553,-454,15.6747,12.1868,0,0,0,0,0,0,0,-1,1777,1478,15.6747,-12.1868
560,-454,16.3895,14.0527,0,0,0,0,0,0,0,-1,1784,1478,16.3895,-14.0528
567,-454,38.1984,36.0463,0,0,0,0,0,0,0,-1,1791,1478,38.1983,-36.0463
574,-454,47.4471,49.8385,0,0,0,0,0,0,0,-1,1798,1478,47.4471,-49.8385
581,-454,82.4148,104.029,0,0,0,0,0,0,0,-1,1805,1478,82.4147,-104.029
588,-454,119.409,104.563,0,0,0,0,0,0,0,-1,1812,1478,119.409,-104.563
595,-454,117.706,100.644,-0.0276365,-0.000857788,0.0402469,0.0281685,-0.0566628,0.94598,0.0498899,0.0443997,1819,1478,117.706,-100.644
602,-454,116.737,97.1431,-0.0207522,0.00469845,0.0386144,0.0326303,-0.048684,0.944569,0.0472508,0.0185432,1826,1478,116.737,-97.1431
609,-454,115.847,93.6455,-0.0135751,0.0105578,0.036887,0.0373018,-0.0403191,0.943472,0.0448258,0.0180079,1833,1478,115.847,-93.6455
616,-454,114.93,90.1704,-0.00616892,0.0166952,0.0351168,0.0421939,-0.0316676,0.94276,0.0427881,0.0191786,1840,1478,114.93,-90.1704
623,-454,114.066,86.7762,0.00128434,0.0231812,0.0333209,0.0473063,-0.0228407,0.944129,0.0413123,0.0194682,1847,1478,114.066,-86.7762
630,-454,113.295,83.4209,0.00863106,0.0298367,0.0316369,0.0526003,-0.0141325,0.947087,0.0406059,0.0202955,1854,1478,113.295,-83.4209
637,-454,112.421,80.1272,0.0157349,0.036573,0.0301801,0.0580819,-0.00577399,0.951607,0.0407824,0.0195877,1861,1478,112.421,-80.1272
644,-454,111.712,76.8411,0,0,0,0,0,0,0,-1,1868,1478,111.712,-76.8411
651,-454,54.428,47.5275,0,0,0,0,0,0,0,-1,1875,1478,54.428,-47.5275
658,-454,17.2583,10.0765,0,0,0,0,0,0,0,-1,1882,1478,17.2583,-10.0765
665,-454,17.683,9.67566,0,0,0,0,0,0,0,-1,1889,1478,17.683,-9.67572
672,-454,16.5476,6.41931,0,0,0,0,0,0,0,-1,1896,1478,16.5476,-6.41929
679,-454,14.2161,5.45007,0,0,0,0,0,0,0,-1,1903,1478,14.2161,-5.45013
686,-454,10.3767,2.12842,0,0,0,0,0,0,0,-1,1910,1478,10.3767,-2.12839
693,-454,11.1857,1.48486,0,0,0,0,0,0,0,-1,1917,1478,11.1857,-1.48487
700,-454,0,0,0,0,0,0,0,0,0,-1,1924,1478,0,0
707,-454,0,0,0,0,0,0,0,0,0,-1,1931,1478,0,0
714,-454,0,0,0,0,0,0,0,0,0,-1,1938,1478,0,0
721,-454,0,0,0,0,0,0,0,0,0,-1,1945,1478,0,0
728,-454,0,0,0,0,0,0,0,0,0,-1,1952,1478,0,0
735,-454,0,0,0,0,0,0,0,0,0,-1,1959,1478,0,0
742,-454,0,0,0,0,0,0,0,0,0,-1,1966,1478,0,0
749,-454,0,0,0,0,0,0,0,0,0,-1,1973,1478,0,0
756,-454,0,0,0,0,0,0,0,0,0,-1,1980,1478,0,0
763,-454,0,0,0,0,0,0,0,0,0,-1,1987,1478,0,0
770,-454,0,0,0,0,0,0,0,0,0,-1,1994,1478,0,0
777,-454,0,0,0,0,0,0,0,0,0,-1,2001,1478,0,0
784,-454,0,0,0,0,0,0,0,0,0,-1,2008,1478,0,0
791,-454,0,0,0,0,0,0,0,0,0,-1,2015,1478,0,0
798,-454,0,0,0,0,0,0,0,0,0,-1,2022,1478,0,0
805,-454,0,0,0,0,0,0,0,0,0,-1,2029,1478,0,0
812,-454,0,0,0,0,0,0,0,0,0,-1,2036,1478,0,0
-700,-461,0,0,0,0,0,0,0,0,0,-1,524,1485,0,0
-693,-461,0,0,0,0,0,0,0,0,0,-1,531,1485,0,0
-686,-461,0,0,0,0,0,0,0,0,0,-1,538,1485,0,0
-679,-461,0,0,0,0,0,0,0,0,0,-1,545,1485,0,0
-672,-461,0,0,0,0,0,0,0,0,0,-1,552,1485,0,0
-665,-461,0,0,0,0,0,0,0,0,0,-1,559,1485,0,0
-658,-461,0,0,0,0,0,0,0,0,0,-1,566,1485,0,0
-651,-461,0,0,0,0,0,0,0,0,0,-1,573,1485,0,0
-644,-461,0,0,0,0,0,0,0,0,0,-1,580,1485,0,0
-637,-461,0,0,0,0,0,0,0,0,0,-1,587,1485,0,0
-630,-461,0,0,0,0,0,0,0,0,0,-1,594,1485,0,0
-623,-461,0,0,0,0,0,0,0,0,0,-1,601,1485,0,0
-616,-461,0,0,0,0,0,0,0,0,0,-1,608,1485,0,0
-609,-461,0,0,0,0,0,0,0,0,0,-1,615,1485,0,0
-602,-461,0,0,0,0,0,0,0,0,0,-1,622,1485,0,0
-595,-461,0,0,0,0,0,0,0,0,0,-1,629,1485,0,0
-588,-461,0,0,0,0,0,0,0,0,0,-1,636,1485,0,0
-581,-461,0,0,0,0,0,0,0,0,0,-1,643,1485,0,0
-574,-461,0,0,0,0,0,0,0,0,0,-1,650,1485,0,0
-567,-461,-9.69031,0.513306,0,0,0,0,0,0,0,-1,657,1485,-9.69032,-0.513305
-560,-461,-7.28815,1.54004,0,0,0,0,0,0,0,-1,664,1485,-7.28817,-1.54005
-553,-461,-11.9607,5.27783,0,0,0,0,0,0,0,-1,671,1485,-11.9607,-5.27778
-546,-461,-11.4215,4.44666,0,0,0,0,0,0,0,-1,678,1485,-11.4215,-4.4467
-539,-461,-9.36493,5.23438,0,0,0,0,0,0,0,-1,685,1485,-9.3649,-5.23432
-532,-461,-7.82898,6.78357,0,0,0,0,0,0,0,-1,692,1485,-7.829,-6.78363
-525,-461,-6.37878,8.75659,0,0,0,0,0,0,0,-1,699,1485,-6.3788,-8.75659
-518,-461,-6.49695,10.886,0,0,0,0,0,0,0,-1,706,1485,-6.49696,-10.8859
-511,-461,-15.8618,21.5214,0,0,0,0,0,0,0,-1,713,1485,-15.8617,-21.5213
-504,-461,-101.941,77.2858,0,0,0,0,0,0,0,-1,720,1485,-101.941,-77.2858
-497,-461,-102.719,80.71,0.0172159,0.0363343,-0.0382019,0.0661548,-0.0126046,-0.907995,0.0488498,0.0196063,727,1485,-102.719,-80.71
-490,-461,-103.505,84.0946,0.0155537,0.0337869,-0.035482,0.0613048,-0.0119642,-0.911146,0.0453867,0.0284577,734,1485,-103.505,-84.0946
-483,-461,-104.29,87.4277,0.0134821,0.0312676,-0.0327985,0.0563575,-0.0116078,-0.917782,0.0419794,0.0252462,741,1485,-104.29,-87.4277
-476,-461,-105.168,90.7175,0.0108908,0.028925,-0.0302291,0.0514532,-0.0116374,-0.930342,0.038768,0.0189586,748,1485,-105.168,-90.7175
-469,-461,-106.003,94.2351,0.00785703,0.0266853,-0.0279795,0.0467919,-0.0122496,-0.947681,0.0359798,0.0251341,755,1485,-106.003,-94.2351
-462,-461,-106.963,98.1173,0.00441853,0.0245593,-0.0257794,0.0421655,-0.0131876,-0.971603,0.033386,0.0443948,762,1485,-106.963,-98.1173
-455,-461,-107.999,102.004,0,0,0,0,0,0,0,-1,769,1485,-107.999,-102.004
-448,-461,-88.3078,106.635,0,0,0,0,0,0,0,-1,776,1485,-88.3078,-106.635
-441,-461,-73.679,102.054,0,0,0,0,0,0,0,-1,783,1485,-73.679,-102.054
-434,-461,-26.355,48.8398,0,0,0,0,0,0,0,-1,790,1485,-26.355,-48.8398
-427,-461,-8.26154,21.546,0,0,0,0,0,0,0,-1,797,1485,-8.26153,-21.5461
-420,-461,-5.70355,16.6116,0,0,0,0,0,0,0,-1,804,1485,-5.70353,-16.6115
-413,-461,-5.98798,16.0605,0,0,0,0,0,0,0,-1,811,1485,-5.98796,-16.0605
-406,-461,-5.52667,14.839,0,0,0,0,0,0,0,-1,818,1485,-5.52666,-14.839
-399,-461,-1.93439,9.82849,0,0,0,0,0,0,0,-1,825,1485,-1.9344,-9.82846
-392,-461,-0.357544,5.55225,0,0,0,0,0,0,0,-1,832,1485,-0.357536,-5.55228
-385,-461,1.71509,3.35254,0,0,0,0,0,0,0,-1,839,1485,1.71511,-3.35255
-378,-461,1.95996,3.01111,0,0,0,0,0,0,0,-1,846,1485,1.95993,-3.01111
-371,-461,0.702881,2.33459,0,0,0,0,0,0,0,-1,853,1485,0.702859,-2.33459
-364,-461,-1.93097,2.56458,0,0,0,0,0,0,0,-1,860,1485,-1.93095,-2.56456
-357,-461,-2.41516,3.49487,0,0,0,0,0,0,0,-1,867,1485,-2.41517,-3.49487
-350,-461,0,0,0,0,0,0,0,0,0,-1,874,1485,0,0
-343,-461,0,0,0,0,0,0,0,0,0,-1,881,1485,0,0
-336,-461,0,0,0,0,0,0,0,0,0,-1,888,1485,0,0
-329,-461,0,0,0,0,0,0,0,0,0,-1,895,1485,0,0
-322,-461,0,0,0,0,0,0,0,0,0,-1,902,1485,0,0
-315,-461,0,0,0,0,0,0,0,0,0,-1,909,1485,0,0
-308,-461,0,0,0,0,0,0,0,0,0,-1,916,1485,0,0
-301,-461,0,0,0,0,0,0,0,0,0,-1,923,1485,0,0
-294,-461,0,0,0,0,0,0,0,0,0,-1,930,1485,0,0
-287,-461,0,0,0,0,0,0,0,0,0,-1,937,1485,0,0
-280,-461,0,0,0,0,0,0,0,0,0,-1,944,1485,0,0
-273,-461,0,0,0,0,0,0,0,0,0,-1,951,1485,0,0
-266,-461,0,0,0,0,0,0,0,0,0,-1,958,1485,0,0
-259,-461,0,0,0,0,0,0,0,0,0,-1,965,1485,0,0
-252,-461,0,0,0,0,0,0,0,0,0,-1,972,1485,0,0
-245,-461,0,0,0,0,0,0,0,0,0,-1,979,1485,0,0
-238,-461,0,0,0,0,0,0,0,0,0,-1,986,1485,0,0
-231,-461,0,0,0,0,0,0,0,0,0,-1,993,1485,0,0
-224,-461,0,0,0,0,0,0,0,0,0,-1,1000,1485,0,0
-217,-461,0,0,0,0,0,0,0,0,0,-1,1007,1485,0,0
-210,-461,0,0,0,0,0,0,0,0,0,-1,1014,1485,0,0
-203,-461,0,0,0,0,0,0,0,0,0,-1,1021,1485,0,0
-196,-461,0,0,0,0,0,0,0,0,0,-1,1028,1485,0,0
-189,-461,0,0,0,0,0,0,0,0,0,-1,1035,1485,0,0
-182,-461,0,0,0,0,0,0,0,0,0,-1,1042,1485,0,0
-175,-461,0,0,0,0,0,0,0,0,0,-1,1049,1485,0,0
-168,-461,0,0,0,0,0,0,0,0,0,-1,1056,1485,0,0
-161,-461,0,0,0,0,0,0,0,0,0,-1,1063,1485,0,0
-154,-461,0,0,0,0,0,0,0,0,0,-1,1070,1485,0,0
-147,-461,0,0,0,0,0,0,0,0,0,-1,1077,1485,0,0
-140,-461,0,0,0,0,0,0,0,0,0,-1,1084,1485,0,0
-133,-461,0,0,0,0,0,0,0,0,0,-1,1091,1485,0,0
-126,-461,0,0,0,0,0,0,0,0,0,-1,1098,1485,0,0
-119,-461,0,0,0,0,0,0,0,0,0,-1,1105,1485,0,0
-112,-461,0,0,0,0,0,0,0,0,0,-1,1112,1485,0,0
-105,-461,0,0,0,0,0,0,0,0,0,-1,1119,1485,0,0
-98,-461,0,0,0,0,0,0,0,0,0,-1,1126,1485,0,0
-91,-461,0,0,0,0,0,0,0,0,0,-1,1133,1485,0,0
-84,-461,0,0,0,0,0,0,0,0,0,-1,1140,1485,0,0
-77,-461,0,0,0,0,0,0,0,0,0,-1,1147,1485,0,0
-70,-461,0,0,0,0,0,0,0,0,0,-1,1154,1485,0,0
-63,-461,0,0,0,0,0,0,0,0,0,-1,1161,1485,0,0
-56,-461,0,0,0,0,0,0,0,0,0,-1,1168,1485,0,0
-49,-461,0,0,0,0,0,0,0,0,0,-1,1175,1485,0,0
-42,-461,0,0,0,0,0,0,0,0,0,-1,1182,1485,0,0
-35,-461,0,0,0,0,0,0,0,0,0,-1,1189,1485,0,0
-28,-461,0,0,0,0,0,0,0,0,0,-1,1196,1485,0,0
-21,-461,0,0,0,0,0,0,0,0,0,-1,1203,1485,0,0
-14,-461,0,0,0,0,0,0,0,0,0,-1,1210,1485,0,0
-7,-461,0,0,0,0,0,0,0,0,0,-1,1217,1485,0,0
0,-461,0,0,0,0,0,0,0,0,0,-1,1224,1485,0,0
7,-461,0,0,0,0,0,0,0,0,0,-1,1231,1485,0,0
14,-461,0,0,0,0,0,0,0,0,0,-1,1238,1485,0,0
21,-461,0,0,0,0,0,0,0,0,0,-1,1245,1485,0,0
28,-461,0,0,0,0,0,0,0,0,0,-1,1252,1485,0,0
35,-461,0,0,0,0,0,0,0,0,0,-1,1259,1485,0,0
42,-461,0,0,0,0,0,0,0,0,0,-1,1266,1485,0,0
49,-461,0,0,0,0,0,0,0,0,0,-1,1273,1485,0,0
56,-461,0,0,0,0,0,0,0,0,0,-1,1280,1485,0,0
63,-461,0,0,0,0,0,0,0,0,0,-1,1287,1485,0,0
70,-461,0,0,0,0,0,0,0,0,0,-1,1294,1485,0,0
77,-461,0,0,0,0,0,0,0,0,0,-1,1301,1485,0,0
84,-461,0,0,0,0,0,0,0,0,0,-1,1308,1485,0,0
91,-461,0,0,0,0,0,0,0,0,0,-1,1315,1485,0,0
98,-461,0,0,0,0,0,0,0,0,0,-1,1322,1485,0,0
105,-461,0,0,0,0,0,0,0,0,0,-1,1329,1485,0,0
112,-461,0,0,0,0,0,0,0,0,0,-1,1336,1485,0,0
119,-461,0,0,0,0,0,0,0,0,0,-1,1343,1485,0,0
126,-461,0,0,0,0,0,0,0,0,0,-1,1350,1485,0,0
133,-461,0,0,0,0,0,0,0,0,0,-1,1357,1485,0,0
140,-461,0,0,0,0,0,0,0,0,0,-1,1364,1485,0,0
147,-461,0,0,0,0,0,0,0,0,0,-1,1371,1485,0,0
154,-461,0,0,0,0,0,0,0,0,0,-1,1378,1485,0,0
161,-461,0,0,0,0,0,0,0,0,0,-1,1385,1485,0,0
168,-461,0,0,0,0,0,0,0,0,0,-1,1392,1485,0,0
175,-461,0,0,0,0,0,0,0,0,0,-1,1399,1485,0,0
182,-461,0,0,0,0,0,0,0,0,0,-1,1406,1485,0,0
189,-461,0,0,0,0,0,0,0,0,0,-1,1413,1485,0,0
196,-461,0,0,0,0,0,0,0,0,0,-1,1420,1485,0,0
203,-461,0,0,0,0,0,0,0,0,0,-1,1427,1485,0,0
210,-461,0,0,0,0,0,0,0,0,0,-1,1434,1485,0,0
217,-461,0,0,0,0,0,0,0,0,0,-1,1441,1485,0,0
224,-461,0,0,0,0,0,0,0,0,0,-1,1448,1485,0,0
231,-461,0,0,0,0,0,0,0,0,0,-1,1455,1485,0,0
238,-461,0,0,0,0,0,0,0,0,0,-1,1462,1485,0,0
245,-461,0,0,0,0,0,0,0,0,0,-1,1469,1485,0,0
252,-461,0,0,0,0,0,0,0,0,0,-1,1476,1485,0,0
259,-461,0,0,0,0,0,0,0,0,0,-1,1483,1485,0,0
266,-461,0,0,0,0,0,0,0,0,0,-1,1490,1485,0,0
273,-461,0,0,0,0,0,0,0,0,0,-1,1497,1485,0,0
280,-461,0,0,0,0,0,0,0,0,0,-1,1504,1485,0,0
287,-461,0,0,0,0,0,0,0,0,0,-1,1511,1485,0,0
294,-461,0,0,0,0,0,0,0,0,0,-1,1518,1485,0,0
301,-461,0,0,0,0,0,0,0,0,0,-1,1525,1485,0,0
308,-461,0,0,0,0,0,0,0,0,0,-1,1532,1485,0,0
315,-461,0,0,0,0,0,0,0,0,0,-1,1539,1485,0,0
322,-461,0,0,0,0,0,0,0,0,0,-1,1546,1485,0,0
329,-461,0,0,0,0,0,0,0,0,0,-1,1553,1485,0,0
336,-461,0,0,0,0,0,0,0,0,0,-1,1560,1485,0,0
343,-461,0,0,0,0,0,0,0,0,0,-1,1567,1485,0,0
350,-461,0,0,0,0,0,0,0,0,0,-1,1574,1485,0,0
357,-461,0,0,0,0,0,0,0,0,0,-1,1581,1485,0,0
364,-461,0,0,0,0,0,0,0,0,0,-1,1588,1485,0,0
371,-461,0,0,0,0,0,0,0,0,0,-1,1595,1485,0,0
378,-461,0,0,0,0,0,0,0,0,0,-1,1602,1485,0,0
385,-461,0,0,0,0,0,0,0,0,0,-1,1609,1485,0,0
392,-461,0,0,0,0,0,0,0,0,0,-1,1616,1485,0,0
399,-461,0,0,0,0,0,0,0,0,0,-1,1623,1485,0,0
406,-461,0,0,0,0,0,0,0,0,0,-1,1630,1485,0,0
413,-461,0,0,0,0,0,0,0,0,0,-1,1637,1485,0,0
420,-461,0,0,0,0,0,0,0,0,0,-1,1644,1485,0,0
427,-461,0,0,0,0,0,0,0,0,0,-1,1651,1485,0,0
434,-461,0,0,0,0,0,0,0,0,0,-1,1658,1485,0,0
441,-461,0,0,0,0,0,0,0,0,0,-1,1665,1485,0,0
448,-461,0,0,0,0,0,0,0,0,0,-1,1672,1485,0,0
455,-461,0,0,0,0,0,0,0,0,0,-1,1679,1485,0,0
462,-461,0,0,0,0,0,0,0,0,0,-1,1686,1485,0,0
469,-461,0,0,0,0,0,0,0,0,0,-1,1693,1485,0,0
476,-461,14.1906,0.690552,0,0,0,0,0,0,0,-1,1700,1485,14.1906,-0.690525
483,-461,10.6361,3.09106,0,0,0,0,0,0,0,-1,1707,1485,10.6361,-3.091
490,-461,17.9972,0.665894,0,0,0,0,0,0,0,-1,1714,1485,17.9972,-0.665876
497,-461,16.6829,1.87732,0,0,0,0,0,0,0,-1,1721,1485,16.6828,-1.87736
504,-461,15.3884,3.09216,0,0,0,0,0,0,0,-1,1728,1485,15.3885,-3.09212
511,-461,15.4292,14.3512,0,0,0,0,0,0,0,-1,1735,1485,15.4292,-14.3512
518,-461,14.8081,10.0085,0,0,0,0,0,0,0,-1,1742,1485,14.8081,-10.0086
525,-461,14.0022,10.8033,0,0,0,0,0,0,0,-1,1749,1485,14.0022,-10.8033
532,-461,17.1704,14.077,0,0,0,0,0,0,0,-1,1756,1485,17.1704,-14.077
539,-461,17.0229,14.7386,0,0,0,0,0,0,0,-1,1763,1485,17.0229,-14.7387
546,-461,16.2106,14.1372,0,0,0,0,0,0,0,-1,1770,1485,16.2106,-14.1372
553,-461,25.9354,24.2889,0,0,0,0,0,0,0,-1,1777,1485,25.9354,-24.2889
560,-461,37.0342,37.0962,0,0,0,0,0,0,0,-1,1784,1485,37.0342,-37.0962
567,-461,46.5439,50.9802,0,0,0,0,0,0,0,-1,1791,1485,46.5439,-50.9803
574,-461,79.6387,107.946,0,0,0,0,0,0,0,-1,1798,1485,79.6387,-107.946
581,-461,116.533,109.529,0,0,0,0,0,0,0,-1,1805,1485,116.533,-109.529
588,-461,115.105,105.554,-0.0235083,-0.000928956,0.0388937,0.0282805,-0.0527177,0.926651,0.0474685,0.0469095,1812,1485,115.105,-105.554
595,-461,113.796,101.745,-0.0176974,0.00416578,0.0379065,0.0326855,-0.0462171,0.92578,0.0457772,0.0228765,1819,1485,113.796,-101.744
602,-461,112.853,98.179,-0.0116321,0.00952893,0.0367775,0.0372176,-0.0393208,0.925461,0.044195,0.0154557,1826,1485,112.853,-98.179
609,-461,111.968,94.6831,-0.00526862,0.0151495,0.0355155,0.0418941,-0.0320133,0.925352,0.0427974,0.0185005,1833,1485,111.968,-94.6831
616,-461,111.051,91.2124,0.00134092,0.0210356,0.0341673,0.0467463,-0.0243698,0.925701,0.0417309,0.0191412,1840,1485,111.051,-91.2123
623,-461,110.309,87.7509,0.0080343,0.0272541,0.0327415,0.0517669,-0.0164785,0.928143,0.0411198,0.0233987,1847,1485,110.309,-87.7509
630,-461,109.457,84.4012,0.0146688,0.0334916,0.0314344,0.0568933,-0.00873285,0.930851,0.0411498,0.0243029,1854,1485,109.457,-84.4013
637,-461,108.47,80.989,0.0212417,0.0399068,0.030224,0.0622063,-0.00105781,0.935144,0.0418279,0.0317585,1861,1485,108.47,-80.9891
644,-461,107.586,77.4797,0,0,0,0,0,0,0,-1,1868,1485,107.586,-77.4797
651,-461,35.6685,23.4559,0,0,0,0,0,0,0,-1,1875,1485,35.6684,-23.456
658,-461,16.8987,10.1084,0,0,0,0,0,0,0,-1,1882,1485,16.8986,-10.1084
665,-461,17.2638,9.81384,0,0,0,0,0,0,0,-1,1889,1485,17.2638,-9.81385
672,-461,14.4877,6.89429,0,0,0,0,0,0,0,-1,1896,1485,14.4876,-6.89431
679,-461,10.0535,2.16321,0,0,0,0,0,0,0,-1,1903,1485,10.0535,-2.16317
686,-461,10.8195,1.84192,0,0,0,0,0,0,0,-1,1910,1485,10.8194,-1.84195
693,-461,0,0,0,0,0,0,0,0,0,-1,1917,1485,0,0
700,-461,0,0,0,0,0,0,0,0,0,-1,1924,1485,0,0
707,-461,0,0,0,0,0,0,0,0,0,-1,1931,1485,0,0
714,-461,0,0,0,0,0,0,0,0,0,-1,1938,1485,0,0
721,-461,0,0,0,0,0,0,0,0,0,-1,1945,1485,0,0
728,-461,0,0,0,0,0,0,0,0,0,-1,1952,1485,0,0
735,-461,0,0,0,0,0,0,0,0,0,-1,1959,1485,0,0
742,-461,0,0,0,0,0,0,0,0,0,-1,1966,1485,0,0
749,-461,0,0,0,0,0,0,0,0,0,-1,1973,1485,0,0
756,-461,0,0,0,0,0,0,0,0,0,-1,1980,1485,0,0
763,-461,0,0,0,0,0,0,0,0,0,-1,1987,1485,0,0
770,-461,0,0,0,0,0,0,0,0,0,-1,1994,1485,0,0
777,-461,0,0,0,0,0,0,0,0,0,-1,2001,1485,0,0
784,-461,0,0,0,0,0,0,0,0,0,-1,2008,1485,0,0
791,-461,0,0,0,0,0,0,0,0,0,-1,2015,1485,0,0
798,-461,0,0,0,0,0,0,0,0,0,-1,2022,1485,0,0
805,-461,0,0,0,0,0,0,0,0,0,-1,2029,1485,0,0
812,-461,0,0,0,0,0,0,0,0,0,-1,2036,1485,0,0
-700,-468,0,0,0,0,0,0,0,0,0,-1,524,1492,0,0
-693,-468,0,0,0,0,0,0,0,0,0,-1,531,1492,0,0
-686,-468,0,0,0,0,0,0,0,0,0,-1,538,1492,0,0
-679,-468,0,0,0,0,0,0,0,0,0,-1,545,1492,0,0
-672,-468,0,0,0,0,0,0,0,0,0,-1,552,1492,0,0
-665,-468,0,0,0,0,0,0,0,0,0,-1,559,1492,0,0
-658,-468,0,0,0,0,0,0,0,0,0,-1,566,1492,0,0
-651,-468,0,0,0,0,0,0,0,0,0,-1,573,1492,0,0
-644,-468,0,0,0,0,0,0,0,0,0,-1,580,1492,0,0
-637,-468,0,0,0,0,0,0,0,0,0,-1,587,1492,0,0
-630,-468,0,0,0,0,0,0,0,0,0,-1,594,1492,0,0
-623,-468,0,0,0,0,0,0,0,0,0,-1,601,1492,0,0
-616,-468,0,0,0,0,0,0,0,0,0,-1,608,1492,0,0
-609,-468,0,0,0,0,0,0,0,0,0,-1,615,1492,0,0
-602,-468,0,0,0,0,0,0,0,0,0,-1,622,1492,0,0
-595,-468,0,0,0,0,0,0,0,0,0,-1,629,1492,0,0
-588,-468,0,0,0,0,0,0,0,0,0,-1,636,1492,0,0
-581,-468,0,0,0,0,0,0,0,0,0,-1,643,1492,0,0
-574,-468,0,0,0,0,0,0,0,0,0,-1,650,1492,0,0
-567,-468,-11.2603,1.8042,0,0,0,0,0,0,0,-1,657,1492,-11.2603,-1.80424
-560,-468,-8.77441,2.23694,0,0,0,0,0,0,0,-1,664,1492,-8.77443,-2.23692
-553,-468,-5.94061,9.26318,0,0,0,0,0,0,0,-1,671,1492,-5.94062,-9.26322
-546,-468,-10.47,5.43237,0,0,0,0,0,0,0,-1,678,1492,-10.47,-5.4324
-539,-468,-10.2468,5.45203,0,0,0,0,0,0,0,-1,685,1492,-10.2468,-5.45197
-532,-468,-8.39795,6.02783,0,0,0,0,0,0,0,-1,692,1492,-8.39793,-6.02789
-525,-468,-6.59332,7.15405,0,0,0,0,0,0,0,-1,699,1492,-6.59331,-7.15411
-518,-468,-6.33588,8.65393,0,0,0,0,0,0,0,-1,706,1492,-6.33588,-8.65397
-511,-468,-8.05835,13.8282,0,0,0,0,0,0,0,-1,713,1492,-8.05835,-13.8283
-504,-468,-33.1901,45.7253,0,0,0,0,0,0,0,-1,720,1492,-33.1901,-45.7253
-497,-468,-98.9411,81.6179,0,0,0,0,0,0,0,-1,727,1492,-98.9411,-81.6179
-490,-468,-99.6363,85.0005,0.019603,0.0356768,-0.0382746,0.0667492,-0.0114694,-0.888885,0.0487742,0.019135,734,1492,-99.6363,-85.0005
-483,-468,-100.396,88.3588,0.0177398,0.0326942,-0.0357976,0.0617872,-0.0113532,-0.888355,0.045451,0.0175034,741,1492,-100.396,-88.3588
-476,-468,-101.234,91.7925,0.0151916,0.0299737,-0.0335235,0.0569113,-0.0117459,-0.8939,0.042402,0.0162904,748,1492,-101.235,-91.7925
-469,-468,-102.092,95.3385,0.0122286,0.0273493,-0.0314673,0.0521518,-0.0125738,-0.903293,0.0396297,0.0234121,755,1492,-102.092,-95.3385
-462,-468,-102.883,99.1011,0.00896472,0.0247961,-0.0293939,0.0473215,-0.0135607,-0.916926,0.0369078,0.0397515,762,1492,-102.883,-99.1011
-455,-468,-104.037,102.71,0,0,0,0,0,0,0,-1,769,1492,-104.037,-102.71
-448,-468,-104.819,106.289,0,0,0,0,0,0,0,-1,776,1492,-104.819,-106.289
-441,-468,-105.641,109.794,0,0,0,0,0,0,0,-1,783,1492,-105.64,-109.794
-434,-468,-77.047,111.463,0,0,0,0,0,0,0,-1,790,1492,-77.047,-111.463
-427,-468,-25.4199,50.1571,0,0,0,0,0,0,0,-1,797,1492,-25.4199,-50.1571
-420,-468,-7.57581,22.0538,0,0,0,0,0,0,0,-1,804,1492,-7.57582,-22.0538
-413,-468,-5.30328,17.3519,0,0,0,0,0,0,0,-1,811,1492,-5.30329,-17.352
-406,-468,-2.2356,9.396,0,0,0,0,0,0,0,-1,818,1492,-2.2356,-9.396
-399,-468,-0.940369,8.1936,0,0,0,0,0,0,0,-1,825,1492,-0.940365,-8.19357
-392,-468,-0.35144,8.14673,0,0,0,0,0,0,0,-1,832,1492,-0.351449,-8.14674
-385,-468,0.465759,5.35864,0,0,0,0,0,0,0,-1,839,1492,0.465732,-5.35864
-378,-468,1.99835,3.25391,0,0,0,0,0,0,0,-1,846,1492,1.99837,-3.2539
-371,-468,-0.31842,3.1532,0,0,0,0,0,0,0,-1,853,1492,-0.318441,-3.15324
-364,-468,-0.966736,2.14563,0,0,0,0,0,0,0,-1,860,1492,-0.966735,-2.14557
-357,-468,-3.06787,3.22742,0,0,0,0,0,0,0,-1,867,1492,-3.06784,-3.2274
-350,-468,-3.18658,4.12659,0,0,0,0,0,0,0,-1,874,1492,-3.18659,-4.12658
-343,-468,0,0,0,0,0,0,0,0,0,-1,881,1492,0,0
-336,-468,0,0,0,0,0,0,0,0,0,-1,888,1492,0,0
-329,-468,0,0,0,0,0,0,0,0,0,-1,895,1492,0,0
-322,-468,0,0,0,0,0,0,0,0,0,-1,902,1492,0,0
-315,-468,0,0,0,0,0,0,0,0,0,-1,909,1492,0,0
-308,-468,0,0,0,0,0,0,0,0,0,-1,916,1492,0,0
-301,-468,0,0,0,0,0,0,0,0,0,-1,923,1492,0,0
-294,-468,0,0,0,0,0,0,0,0,0,-1,930,1492,0,0
-287,-468,0,0,0,0,0,0,0,0,0,-1,937,1492,0,0
-280,-468,0,0,0,0,0,0,0,0,0,-1,944,1492,0,0
-273,-468,0,0,0,0,0,0,0,0,0,-1,951,1492,0,0
-266,-468,0,0,0,0,0,0,0,0,0,-1,958,1492,0,0
-259,-468,0,0,0,0,0,0,0,0,0,-1,965,1492,0,0
-252,-468,0,0,0,0,0,0,0,0,0,-1,972,1492,0,0
-245,-468,0,0,0,0,0,0,0,0,0,-1,979,1492,0,0
-238,-468,0,0,0,0,0,0,0,0,0,-1,986,1492,0,0
-231,-468,0,0,0,0,0,0,0,0,0,-1,993,1492,0,0
-224,-468,0,0,0,0,0,0,0,0,0,-1,1000,1492,0,0
-217,-468,0,0,0,0,0,0,0,0,0,-1,1007,1492,0,0
-210,-468,0,0,0,0,0,0,0,0,0,-1,1014,1492,0,0
-203,-468,0,0,0,0,0,0,0,0,0,-1,1021,1492,0,0
-196,-468,0,0,0,0,0,0,0,0,0,-1,1028,1492,0,0
-189,-468,0,0,0,0,0,0,0,0,0,-1,1035,1492,0,0
-182,-468,0,0,0,0,0,0,0,0,0,-1,1042,1492,0,0
-175,-468,0,0,0,0,0,0,0,0,0,-1,1049,1492,0,0
-168,-468,0,0,0,0,0,0,0,0,0,-1,1056,1492,0,0
-161,-468,0,0,0,0,0,0,0,0,0,-1,1063,1492,0,0
-154,-468,0,0,0,0,0,0,0,0,0,-1,1070,1492,0,0
-147,-468,0,0,0,0,0,0,0,0,0,-1,1077,1492,0,0
-140,-468,0,0,0,0,0,0,0,0,0,-1,1084,1492,0,0
-133,-468,0,0,0,0,0,0,0,0,0,-1,1091,1492,0,0
-126,-468,0,0,0,0,0,0,0,0,0,-1,1098,1492,0,0
-119,-468,0,0,0,0,0,0,0,0,0,-1,1105,1492,0,0
-112,-468,0,0,0,0,0,0,0,0,0,-1,1112,1492,0,0
-105,-468,0,0,0,0,0,0,0,0,0,-1,1119,1492,0,0
-98,-468,0,0,0,0,0,0,0,0,0,-1,1126,1492,0,0
-91,-468,0,0,0,0,0,0,0,0,0,-1,1133,1492,0,0
-84,-468,0,0,0,0,0,0,0,0,0,-1,1140,1492,0,0
-77,-468,0,0,0,0,0,0,0,0,0,-1,1147,1492,0,0
-70,-468,0,0,0,0,0,0,0,0,0,-1,1154,1492,0,0
-63,-468,0,0,0,0,0,0,0,0,0,-1,1161,1492,0,0
-56,-468,0,0,0,0,0,0,0,0,0,-1,1168,1492,0,0
-49,-468,0,0,0,0,0,0,0,0,0,-1,1175,1492,0,0
-42,-468,0,0,0,0,0,0,0,0,0,-1,1182,1492,0,0
-35,-468,0,0,0,0,0,0,0,0,0,-1,1189,1492,0,0
-28,-468,0,0,0,0,0,0,0,0,0,-1,1196,1492,0,0
-21,-468,0,0,0,0,0,0,0,0,0,-1,1203,1492,0,0
-14,-468,0,0,0,0,0,0,0,0,0,-1,1210,1492,0,0
-7,-468,0,0,0,0,0,0,0,0,0,-1,1217,1492,0,0
0,-468,0,0,0,0,0,0,0,0,0,-1,1224,1492,0,0
7,-468,0,0,0,0,0,0,0,0,0,-1,1231,1492,0,0
14,-468,0,0,0,0,0,0,0,0,0,-1,1238,1492,0,0
21,-468,0,0,0,0,0,0,0,0,0,-1,1245,1492,0,0
28,-468,0,0,0,0,0,0,0,0,0,-1,1252,1492,0,0
35,-468,0,0,0,0,0,0,0,0,0,-1,1259,1492,0,0
42,-468,0,0,0,0,0,0,0,0,0,-1,1266,1492,0,0
49,-468,0,0,0,0,0,0,0,0,0,-1,1273,1492,0,0
56,-468,0,0,0,0,0,0,0,0,0,-1,1280,1492,0,0
63,-468,0,0,0,0,0,0,0,0,0,-1,1287,1492,0,0
70,-468,0,0,0,0,0,0,0,0,0,-1,1294,1492,0,0
77,-468,0,0,0,0,0,0,0,0,0,-1,1301,1492,0,0
84,-468,0,0,0,0,0,0,0,0,0,-1,1308,1492,0,0
91,-468,0,0,0,0,0,0,0,0,0,-1,1315,1492,0,0
98,-468,0,0,0,0,0,0,0,0,0,-1,1322,1492,0,0
105,-468,0,0,0,0,0,0,0,0,0,-1,1329,1492,0,0
112,-468,0,0,0,0,0,0,0,0,0,-1,1336,1492,0,0
119,-468,0,0,0,0,0,0,0,0,0,-1,1343,1492,0,0
126,-468,0,0,0,0,0,0,0,0,0,-1,1350,1492,0,0
133,-468,0,0,0,0,0,0,0,0,0,-1,1357,1492,0,0
140,-468,0,0,0,0,0,0,0,0,0,-1,1364,1492,0,0
147,-468,0,0,0,0,0,0,0,0,0,-1,1371,1492,0,0
154,-468,0,0,0,0,0,0,0,0,0,-1,1378,1492,0,0
161,-468,0,0,0,0,0,0,0,0,0,-1,1385,1492,0,0
168,-468,0,0,0,0,0,0,0,0,0,-1,1392,1492,0,0
175,-468,0,0,0,0,0,0,0,0,0,-1,1399,1492,0,0
182,-468,0,0,0,0,0,0,0,0,0,-1,1406,1492,0,0
189,-468,0,0,0,0,0,0,0,0,0,-1,1413,1492,0,0
196,-468,0,0,0,0,0,0,0,0,0,-1,1420,1492,0,0
203,-468,0,0,0,0,0,0,0,0,0,-1,1427,1492,0,0
210,-468,0,0,0,0,0,0,0,0,0,-1,1434,1492,0,0
217,-468,0,0,0,0,0,0,0,0,0,-1,1441,1492,0,0
224,-468,0,0,0,0,0,0,0,0,0,-1,1448,1492,0,0
231,-468,0,0,0,0,0,0,0,0,0,-1,1455,1492,0,0
238,-468,0,0,0,0,0,0,0,0,0,-1,1462,1492,0,0
245,-468,0,0,0,0,0,0,0,0,0,-1,1469,1492,0,0
252,-468,0,0,0,0,0,0,0,0,0,-1,1476,1492,0,0
259,-468,0,0,0,0,0,0,0,0,0,-1,1483,1492,0,0
266,-468,0,0,0,0,0,0,0,0,0,-1,1490,1492,0,0
273,-468,0,0,0,0,0,0,0,0,0,-1,1497,1492,0,0
280,-468,0,0,0,0,0,0,0,0,0,-1,1504,1492,0,0
287,-468,0,0,0,0,0,0,0,0,0,-1,1511,1492,0,0
294,-468,0,0,0,0,0,0,0,0,0,-1,1518,1492,0,0
301,-468,0,0,0,0,0,0,0,0,0,-1,1525,1492,0,0
308,-468,0,0,0,0,0,0,0,0,0,-1,1532,1492,0,0
315,-468,0,0,0,0,0,0,0,0,0,-1,1539,1492,0,0
322,-468,0,0,0,0,0,0,0,0,0,-1,1546,1492,0,0
329,-468,0,0,0,0,0,0,0,0,0,-1,1553,1492,0,0
336,-468,0,0,0,0,0,0,0,0,0,-1,1560,1492,0,0
343,-468,0,0,0,0,0,0,0,0,0,-1,1567,1492,0,0
350,-468,0,0,0,0,0,0,0,0,0,-1,1574,1492,0,0
357,-468,0,0,0,0,0,0,0,0,0,-1,1581,1492,0,0
364,-468,0,0,0,0,0,0,0,0,0,-1,1588,1492,0,0
371,-468,0,0,0,0,0,0,0,0,0,-1,1595,1492,0,0
378,-468,0,0,0,0,0,0,0,0,0,-1,1602,1492,0,0
385,-468,0,0,0,0,0,0,0,0,0,-1,1609,1492,0,0
392,-468,0,0,0,0,0,0,0,0,0,-1,1616,1492,0,0
399,-468,0,0,0,0,0,0,0,0,0,-1,1623,1492,0,0
406,-468,0,0,0,0,0,0,0,0,0,-1,1630,1492,0,0
413,-468,0,0,0,0,0,0,0,0,0,-1,1637,1492,0,0
420,-468,0,0,0,0,0,0,0,0,0,-1,1644,1492,0,0
427,-468,0,0,0,0,0,0,0,0,0,-1,1651,1492,0,0
434,-468,0,0,0,0,0,0,0,0,0,-1,1658,1492,0,0
441,-468,0,0,0,0,0,0,0,0,0,-1,1665,1492,0,0
448,-468,0,0,0,0,0,0,0,0,0,-1,1672,1492,0,0
455,-468,0,0,0,0,0,0,0,0,0,-1,1679,1492,0,0
462,-468,0,0,0,0,0,0,0,0,0,-1,1686,1492,0,0
469,-468,15.6879,1.2677,0,0,0,0,0,0,0,-1,1693,1492,15.6879,-1.26772
476,-468,14.9318,1.61865,0,0,0,0,0,0,0,-1,1700,1492,14.9318,-1.61869
483,-468,11.265,4.64795,0,0,0,0,0,0,0,-1,1707,1492,11.265,-4.64798
490,-468,12.1316,3.51624,0,0,0,0,0,0,0,-1,1714,1492,12.1316,-3.51628
497,-468,16.5355,3.14587,0,0,0,0,0,0,0,-1,1721,1492,16.5356,-3.14583
504,-468,15.0642,4.10437,0,0,0,0,0,0,0,-1,1728,1492,15.0643,-4.10431
511,-468,15.6877,9.4801,0,0,0,0,0,0,0,-1,1735,1492,15.6878,-9.48007
518,-468,13.759,11.0887,0,0,0,0,0,0,0,-1,1742,1492,13.759,-11.0887
525,-468,16.6531,14.2238,0,0,0,0,0,0,0,-1,1749,1492,16.653,-14.2237
532,-468,16.9696,15.9641,0,0,0,0,0,0,0,-1,1756,1492,16.9696,-15.9641
539,-468,21.5308,20.7551,0,0,0,0,0,0,0,-1,1763,1492,21.5308,-20.7551
546,-468,25.5796,25.0283,0,0,0,0,0,0,0,-1,1770,1492,25.5796,-25.0284
553,-468,31.8678,31.5677,0,0,0,0,0,0,0,-1,1777,1492,31.8678,-31.5678
560,-468,44.905,52.734,0,0,0,0,0,0,0,-1,1784,1492,44.905,-52.7341
567,-468,113.57,114.545,0,0,0,0,0,0,0,-1,1791,1492,113.57,-114.545
574,-468,110.437,114.191,0,0,0,0,0,0,0,-1,1798,1492,110.437,-114.191
581,-468,111.95,110.067,0,0,0,0,0,0,0,-1,1805,1492,111.95,-110.067
588,-468,110.886,106.594,-0.0140155,0.00311469,0.0368069,0.0323399,-0.0432407,0.899715,0.0437875,0.0205258,1812,1492,110.886,-106.594
595,-468,109.868,102.861,-0.00893316,0.0083109,0.0362825,0.0369818,-0.037604,0.902052,0.0430626,0.0149064,1819,1492,109.868,-102.861
602,-468,108.95,99.2148,-0.00358055,0.0136891,0.0355699,0.0416572,-0.0315486,0.904473,0.0423995,0.0152748,1826,1492,108.95,-99.2148
609,-468,108.027,95.6903,0.00205037,0.019263,0.0346944,0.0464027,-0.0250893,0.906974,0.0418828,0.0175332,1833,1492,108.027,-95.6903
616,-468,107.127,92.1611,0.00794211,0.0250591,0.0336784,0.0512494,-0.0182482,0.909826,0.0416051,0.0165333,1840,1492,107.127,-92.1612
623,-468,106.33,88.7552,0.0140163,0.0311112,0.0325188,0.0561871,-0.0110596,0.913915,0.0416371,0.0200034,1847,1492,106.33,-88.7553
630,-468,105.535,85.3573,0.0200165,0.0369236,0.0315474,0.0611305,-0.00419033,0.916304,0.0422198,0.0246933,1854,1492,105.535,-85.3574
637,-468,104.532,81.7737,0,0,0,0,0,0,0,-1,1861,1492,104.532,-81.7737
644,-468,46.2697,41.3138,0,0,0,0,0,0,0,-1,1868,1492,46.2696,-41.3138
651,-468,33.613,23.1599,0,0,0,0,0,0,0,-1,1875,1492,33.613,-23.1599
658,-468,16.4969,10.0774,0,0,0,0,0,0,0,-1,1882,1492,16.497,-10.0774
665,-468,15.4673,8.59546,0,0,0,0,0,0,0,-1,1889,1492,15.4672,-8.59548
672,-468,9.96814,3.61133,0,0,0,0,0,0,0,-1,1896,1492,9.96817,-3.61139
679,-468,11.2191,1.91968,0,0,0,0,0,0,0,-1,1903,1492,11.2191,-1.91965
686,-468,11.9252,1.42285,0,0,0,0,0,0,0,-1,1910,1492,11.9252,-1.42291
693,-468,0,0,0,0,0,0,0,0,0,-1,1917,1492,0,0
700,-468,0,0,0,0,0,0,0,0,0,-1,1924,1492,0,0
707,-468,0,0,0,0,0,0,0,0,0,-1,1931,1492,0,0
714,-468,0,0,0,0,0,0,0,0,0,-1,1938,1492,0,0
721,-468,0,0,0,0,0,0,0,0,0,-1,1945,1492,0,0
728,-468,0,0,0,0,0,0,0,0,0,-1,1952,1492,0,0
735,-468,0,0,0,0,0,0,0,0,0,-1,1959,1492,0,0
742,-468,0,0,0,0,0,0,0,0,0,-1,1966,1492,0,0
749,-468,0,0,0,0,0,0,0,0,0,-1,1973,1492,0,0
756,-468,0,0,0,0,0,0,0,0,0,-1,1980,1492,0,0
763,-468,0,0,0,0,0,0,0,0,0,-1,1987,1492,0,0
770,-468,0,0,0,0,0,0,0,0,0,-1,1994,1492,0,0
777,-468,0,0,0,0,0,0,0,0,0,-1,2001,1492,0,0
784,-468,0,0,0,0,0,0,0,0,0,-1,2008,1492,0,0
791,-468,0,0,0,0,0,0,0,0,0,-1,2015,1492,0,0
798,-468,0,0,0,0,0,0,0,0,0,-1,2022,1492,0,0
805,-468,0,0,0,0,0,0,0,0,0,-1,2029,1492,0,0
812,-468,0,0,0,0,0,0,0,0,0,-1,2036,1492,0,0
-700,-475,0,0,0,0,0,0,0,0,0,-1,524,1499,0,0
-693,-475,0,0,0,0,0,0,0,0,0,-1,531,1499,0,0
-686,-475,0,0,0,0,0,0,0,0,0,-1,538,1499,0,0
-679,-475,0,0,0,0,0,0,0,0,0,-1,545,1499,0,0
-672,-475,0,0,0,0,0,0,0,0,0,-1,552,1499,0,0
-665,-475,0,0,0,0,0,0,0,0,0,-1,559,1499,0,0
-658,-475,0,0,0,0,0,0,0,0,0,-1,566,1499,0,0
-651,-475,0,0,0,0,0,0,0,0,0,-1,573,1499,0,0
-644,-475,0,0,0,0,0,0,0,0,0,-1,580,1499,0,0
-637,-475,0,0,0,0,0,0,0,0,0,-1,587,1499,0,0
-630,-475,0,0,0,0,0,0,0,0,0,-1,594,1499,0,0
-623,-475,0,0,0,0,0,0,0,0,0,-1,601,1499,0,0
-616,-475,0,0,0,0,0,0,0,0,0,-1,608,1499,0,0
-609,-475,0,0,0,0,0,0,0,0,0,-1,615,1499,0,0
-602,-475,0,0,0,0,0,0,0,0,0,-1,622,1499,0,0
-595,-475,0,0,0,0,0,0,0,0,0,-1,629,1499,0,0
-588,-475,0,0,0,0,0,0,0,0,0,-1,636,1499,0,0
-581,-475,0,0,0,0,0,0,0,0,0,-1,643,1499,0,0
-574,-475,0,0,0,0,0,0,0,0,0,-1,650,1499,0,0
-567,-475,0,0,0,0,0,0,0,0,0,-1,657,1499,0,0
-560,-475,-9.42731,9.29517,0,0,0,0,0,0,0,-1,664,1499,-9.42731,-9.29519
-553,-475,-8.15131,8.78369,0,0,0,0,0,0,0,-1,671,1499,-8.15131,-8.78367
-546,-475,-8.41254,8.20654,0,0,0,0,0,0,0,-1,678,1499,-8.41251,-8.20655
-539,-475,-4.7345,4.17419,0,0,0,0,0,0,0,-1,685,1499,-4.73449,-4.17418
-532,-475,-7.07379,4.25024,0,0,0,0,0,0,0,-1,692,1499,-7.07378,-4.2503
-525,-475,-6.13147,5.82166,0,0,0,0,0,0,0,-1,699,1499,-6.1315,-5.8216
-518,-475,-7.28784,9.31506,0,0,0,0,0,0,0,-1,706,1499,-7.28782,-9.315
-511,-475,-6.84851,12.4244,0,0,0,0,0,0,0,-1,713,1499,-6.84851,-12.4244
-504,-475,-8.80957,16.0863,0,0,0,0,0,0,0,-1,720,1499,-8.80954,-16.0862
-497,-475,-94.9521,81.9426,0,0,0,0,0,0,0,-1,727,1499,-94.9521,-81.9427
-490,-475,-95.6374,85.7327,0.0239613,0.0380759,-0.040883,0.0725063,-0.0104691,-0.870866,0.0521785,0.0428425,734,1499,-95.6374,-85.7327
-483,-475,-96.413,89.3408,0.0223808,0.0345242,-0.0385962,0.0675234,-0.0106184,-0.863416,0.0489406,0.0166937,741,1499,-96.413,-89.3408
-476,-475,-97.298,92.8149,0.019829,0.0313959,-0.0366094,0.0626759,-0.011451,-0.863739,0.0460777,0.0198431,748,1499,-97.298,-92.8149
-469,-475,-97.8674,96.4865,0.0168626,0.0283536,-0.0346958,0.0577764,-0.0125602,-0.867452,0.0433156,0.0344657,755,1499,-97.8673,-96.4864
-462,-475,-98.2006,100.328,0,0,0,0,0,0,0,-1,762,1499,-98.2006,-100.328
-455,-475,-99.8953,103.734,0,0,0,0,0,0,0,-1,769,1499,-99.8953,-103.735
-448,-475,-100.881,107.401,0.00701973,0.0196058,-0.0292513,0.0432333,-0.0166078,-0.891352,0.035671,0.0271359,776,1499,-100.881,-107.401
-441,-475,-101.889,111.051,0.00350947,0.0166362,-0.027743,0.0385816,-0.0184359,-0.901552,0.033597,0.0371626,783,1499,-101.889,-111.051
-434,-475,-103.097,114.669,0,0,0,0,0,0,0,-1,790,1499,-103.097,-114.669
-427,-475,-74.6897,115.516,0,0,0,0,0,0,0,-1,797,1499,-74.6897,-115.516
-420,-475,-14.302,33.4558,0,0,0,0,0,0,0,-1,804,1499,-14.302,-33.4559
-413,-475,-6.46777,20.8481,0,0,0,0,0,0,0,-1,811,1499,-6.46776,-20.8481
-406,-475,-2.56116,12.4956,0,0,0,0,0,0,0,-1,818,1499,-2.56116,-12.4956
-399,-475,-1.39667,6.1615,0,0,0,0,0,0,0,-1,825,1499,-1.39664,-6.16155
-392,-475,0.217163,8.61389,0,0,0,0,0,0,0,-1,832,1499,0.217167,-8.6139
-385,-475,1.18372,2.73999,0,0,0,0,0,0,0,-1,839,1499,1.18372,-2.73995
-378,-475,1.31409,2.90149,0,0,0,0,0,0,0,-1,846,1499,1.31411,-2.90151
-371,-475,2.3476,3.31116,0,0,0,0,0,0,0,-1,853,1499,2.34761,-3.31121
-364,-475,1.04462,9.05823,0,0,0,0,0,0,0,-1,860,1499,1.04461,-9.05825
-357,-475,-0.262756,7.97205,0,0,0,0,0,0,0,-1,867,1499,-0.262784,-7.97205
-350,-475,-5.16473,-1.27881,0,0,0,0,0,0,0,-1,874,1499,-5.16474,1.27884
-343,-475,-5.76923,-0.530518,0,0,0,0,0,0,0,-1,881,1499,-5.76923,0.530526
-336,-475,0,0,0,0,0,0,0,0,0,-1,888,1499,0,0
-329,-475,0,0,0,0,0,0,0,0,0,-1,895,1499,0,0
-322,-475,0,0,0,0,0,0,0,0,0,-1,902,1499,0,0
-315,-475,0,0,0,0,0,0,0,0,0,-1,909,1499,0,0
-308,-475,0,0,0,0,0,0,0,0,0,-1,916,1499,0,0
-301,-475,0,0,0,0,0,0,0,0,0,-1,923,1499,0,0
-294,-475,0,0,0,0,0,0,0,0,0,-1,930,1499,0,0
-287,-475,0,0,0,0,0,0,0,0,0,-1,937,1499,0,0
-280,-475,0,0,0,0,0,0,0,0,0,-1,944,1499,0,0
-273,-475,0,0,0,0,0,0,0,0,0,-1,951,1499,0,0
-266,-475,0,0,0,0,0,0,0,0,0,-1,958,1499,0,0
-259,-475,0,0,0,0,0,0,0,0,0,-1,965,1499,0,0
-252,-475,0,0,0,0,0,0,0,0,0,-1,972,1499,0,0
-245,-475,0,0,0,0,0,0,0,0,0,-1,979,1499,0,0
-238,-475,0,0,0,0,0,0,0,0,0,-1,986,1499,0,0
-231,-475,0,0,0,0,0,0,0,0,0,-1,993,1499,0,0
-224,-475,0,0,0,0,0,0,0,0,0,-1,1000,1499,0,0
-217,-475,0,0,0,0,0,0,0,0,0,-1,1007,1499,0,0
-210,-475,0,0,0,0,0,0,0,0,0,-1,1014,1499,0,0
-203,-475,0,0,0,0,0,0,0,0,0,-1,1021,1499,0,0
-196,-475,0,0,0,0,0,0,0,0,0,-1,1028,1499,0,0
-189,-475,0,0,0,0,0,0,0,0,0,-1,1035,1499,0,0
-182,-475,0,0,0,0,0,0,0,0,0,-1,1042,1499,0,0
-175,-475,0,0,0,0,0,0,0,0,0,-1,1049,1499,0,0
-168,-475,0,0,0,0,0,0,0,0,0,-1,1056,1499,0,0
-161,-475,0,0,0,0,0,0,0,0,0,-1,1063,1499,0,0
-154,-475,0,0,0,0,0,0,0,0,0,-1,1070,1499,0,0
-147,-475,0,0,0,0,0,0,0,0,0,-1,1077,1499,0,0
-140,-475,0,0,0,0,0,0,0,0,0,-1,1084,1499,0,0
-133,-475,0,0,0,0,0,0,0,0,0,-1,1091,1499,0,0
-126,-475,0,0,0,0,0,0,0,0,0,-1,1098,1499,0,0
-119,-475,0,0,0,0,0,0,0,0,0,-1,1105,1499,0,0
-112,-475,0,0,0,0,0,0,0,0,0,-1,1112,1499,0,0
-105,-475,0,0,0,0,0,0,0,0,0,-1,1119,1499,0,0
-98,-475,0,0,0,0,0,0,0,0,0,-1,1126,1499,0,0
-91,-475,0,0,0,0,0,0,0,0,0,-1,1133,1499,0,0
-84,-475,0,0,0,0,0,0,0,0,0,-1,1140,1499,0,0
-77,-475,0,0,0,0,0,0,0,0,0,-1,1147,1499,0,0
-70,-475,0,0,0,0,0,0,0,0,0,-1,1154,1499,0,0
-63,-475,0,0,0,0,0,0,0,0,0,-1,1161,1499,0,0
-56,-475,0,0,0,0,0,0,0,0,0,-1,1168,1499,0,0
-49,-475,0,0,0,0,0,0,0,0,0,-1,1175,1499,0,0
-42,-475,0,0,0,0,0,0,0,0,0,-1,1182,1499,0,0
-35,-475,0,0,0,0,0,0,0,0,0,-1,1189,1499,0,0
-28,-475,0,0,0,0,0,0,0,0,0,-1,1196,1499,0,0
-21,-475,0,0,0,0,0,0,0,0,0,-1,1203,1499,0,0
-14,-475,0,0,0,0,0,0,0,0,0,-1,1210,1499,0,0
-7,-475,0,0,0,0,0,0,0,0,0,-1,1217,1499,0,0
0,-475,0,0,0,0,0,0,0,0,0,-1,1224,1499,0,0
7,-475,0,0,0,0,0,0,0,0,0,-1,1231,1499,0,0
14,-475,0,0,0,0,0,0,0,0,0,-1,1238,1499,0,0
21,-475,0,0,0,0,0,0,0,0,0,-1,1245,1499,0,0
28,-475,0,0,0,0,0,0,0,0,0,-1,1252,1499,0,0
35,-475,0,0,0,0,0,0,0,0,0,-1,1259,1499,0,0
42,-475,0,0,0,0,0,0,0,0,0,-1,1266,1499,0,0
49,-475,0,0,0,0,0,0,0,0,0,-1,1273,1499,0,0
56,-475,0,0,0,0,0,0,0,0,0,-1,1280,1499,0,0
63,-475,0,0,0,0,0,0,0,0,0,-1,1287,1499,0,0
70,-475,0,0,0,0,0,0,0,0,0,-1,1294,1499,0,0
77,-475,0,0,0,0,0,0,0,0,0,-1,1301,1499,0,0
84,-475,0,0,0,0,0,0,0,0,0,-1,1308,1499,0,0
91,-475,0,0,0,0,0,0,0,0,0,-1,1315,1499,0,0
98,-475,0,0,0,0,0,0,0,0,0,-1,1322,1499,0,0
105,-475,0,0,0,0,0,0,0,0,0,-1,1329,1499,0,0
112,-475,0,0,0,0,0,0,0,0,0,-1,1336,1499,0,0
119,-475,0,0,0,0,0,0,0,0,0,-1,1343,1499,0,0
126,-475,0,0,0,0,0,0,0,0,0,-1,1350,1499,0,0
133,-475,0,0,0,0,0,0,0,0,0,-1,1357,1499,0,0
140,-475,0,0,0,0,0,0,0,0,0,-1,1364,1499,0,0
147,-475,0,0,0,0,0,0,0,0,0,-1,1371,1499,0,0
154,-475,0,0,0,0,0,0,0,0,0,-1,1378,1499,0,0
161,-475,0,0,0,0,0,0,0,0,0,-1,1385,1499,0,0
168,-475,0,0,0,0,0,0,0,0,0,-1,1392,1499,0,0
175,-475,0,0,0,0,0,0,0,0,0,-1,1399,1499,0,0
182,-475,0,0,0,0,0,0,0,0,0,-1,1406,1499,0,0
189,-475,0,0,0,0,0,0,0,0,0,-1,1413,1499,0,0
196,-475,0,0,0,0,0,0,0,0,0,-1,1420,1499,0,0
203,-475,0,0,0,0,0,0,0,0,0,-1,1427,1499,0,0
210,-475,0,0,0,0,0,0,0,0,0,-1,1434,1499,0,0
217,-475,0,0,0,0,0,0,0,0,0,-1,1441,1499,0,0
224,-475,0,0,0,0,0,0,0,0,0,-1,1448,1499,0,0
231,-475,0,0,0,0,0,0,0,0,0,-1,1455,1499,0,0
238,-475,0,0,0,0,0,0,0,0,0,-1,1462,1499,0,0
245,-475,0,0,0,0,0,0,0,0,0,-1,1469,1499,0,0
252,-475,0,0,0,0,0,0,0,0,0,-1,1476,1499,0,0
259,-475,0,0,0,0,0,0,0,0,0,-1,1483,1499,0,0
266,-475,0,0,0,0,0,0,0,0,0,-1,1490,1499,0,0
273,-475,0,0,0,0,0,0,0,0,0,-1,1497,1499,0,0
280,-475,0,0,0,0,0,0,0,0,0,-1,1504,1499,0,0
287,-475,0,0,0,0,0,0,0,0,0,-1,1511,1499,0,0
294,-475,0,0,0,0,0,0,0,0,0,-1,1518,1499,0,0
301,-475,0,0,0,0,0,0,0,0,0,-1,1525,1499,0,0
308,-475,0,0,0,0,0,0,0,0,0,-1,1532,1499,0,0
315,-475,0,0,0,0,0,0,0,0,0,-1,1539,1499,0,0
322,-475,0,0,0,0,0,0,0,0,0,-1,1546,1499,0,0
329,-475,0,0,0,0,0,0,0,0,0,-1,1553,1499,0,0
336,-475,0,0,0,0,0,0,0,0,0,-1,1560,1499,0,0
343,-475,0,0,0,0,0,0,0,0,0,-1,1567,1499,0,0
350,-475,0,0,0,0,0,0,0,0,0,-1,1574,1499,0,0
357,-475,0,0,0,0,0,0,0,0,0,-1,1581,1499,0,0
364,-475,0,0,0,0,0,0,0,0,0,-1,1588,1499,0,0
371,-475,0,0,0,0,0,0,0,0,0,-1,1595,1499,0,0
378,-475,0,0,0,0,0,0,0,0,0,-1,1602,1499,0,0
385,-475,0,0,0,0,0,0,0,0,0,-1,1609,1499,0,0
392,-475,0,0,0,0,0,0,0,0,0,-1,1616,1499,0,0
399,-475,0,0,0,0,0,0,0,0,0,-1,1623,1499,0,0
406,-475,0,0,0,0,0,0,0,0,0,-1,1630,1499,0,0
413,-475,0,0,0,0,0,0,0,0,0,-1,1637,1499,0,0
420,-475,0,0,0,0,0,0,0,0,0,-1,1644,1499,0,0
427,-475,0,0,0,0,0,0,0,0,0,-1,1651,1499,0,0
434,-475,0,0,0,0,0,0,0,0,0,-1,1658,1499,0,0
441,-475,0,0,0,0,0,0,0,0,0,-1,1665,1499,0,0
448,-475,0,0,0,0,0,0,0,0,0,-1,1672,1499,0,0
455,-475,0,0,0,0,0,0,0,0,0,-1,1679,1499,0,0
462,-475,12.6372,0.275391,0,0,0,0,0,0,0,-1,1686,1499,12.6372,-0.27536
469,-475,15.6437,2.28296,0,0,0,0,0,0,0,-1,1693,1499,15.6437,-2.28293
476,-475,15.3302,2.71436,0,0,0,0,0,0,0,-1,1700,1499,15.3303,-2.7143
483,-475,10.7461,5.91479,0,0,0,0,0,0,0,-1,1707,1499,10.7461,-5.91476
490,-475,11.9305,4.4364,0,0,0,0,0,0,0,-1,1714,1499,11.9305,-4.43644
497,-475,15.3451,4.3479,0,0,0,0,0,0,0,-1,1721,1499,15.3451,-4.34789
504,-475,16.9646,7.71265,0,0,0,0,0,0,0,-1,1728,1499,16.9646,-7.71265
511,-475,18.941,12.7572,0,0,0,0,0,0,0,-1,1735,1499,18.941,-12.7572
518,-475,17.0021,13.8564,0,0,0,0,0,0,0,-1,1742,1499,17.0021,-13.8564
525,-475,17.5637,15.2103,0,0,0,0,0,0,0,-1,1749,1499,17.5637,-15.2103
532,-475,20.8623,20.8413,0,0,0,0,0,0,0,-1,1756,1499,20.8623,-20.8413
539,-475,20.5494,20.8519,0,0,0,0,0,0,0,-1,1763,1499,20.5494,-20.852
546,-475,20.4524,19.8799,0,0,0,0,0,0,0,-1,1770,1499,20.4524,-19.8798
553,-475,34.2676,37.0474,0,0,0,0,0,0,0,-1,1777,1499,34.2675,-37.0474
560,-475,110.712,121.292,0,0,0,0,0,0,0,-1,1784,1499,110.712,-121.292
567,-475,110.068,117.042,0,0,0,0,0,0,0,-1,1791,1499,110.068,-117.042
574,-475,108.695,114.488,0,0,0,0,0,0,0,-1,1798,1499,108.695,-114.488
581,-475,107.861,111.222,-0.0102048,0.00132926,0.035641,0.0316668,-0.0405423,0.865608,0.0417948,0.0353691,1805,1499,107.861,-111.222
588,-475,106.872,107.715,-0.00580148,0.00656027,0.0355477,0.0364605,-0.0357017,0.871475,0.0416636,0.0219487,1812,1499,106.872,-107.715
595,-475,105.898,103.973,-0.00129253,0.0119307,0.0352785,0.0412118,-0.0305736,0.87803,0.0415967,0.0191932,1819,1499,105.898,-103.973
602,-475,104.945,100.348,0.00345034,0.0173894,0.0348663,0.0459759,-0.0251362,0.884044,0.0416401,0.0196053,1826,1499,104.945,-100.348
609,-475,103.993,96.8044,0.00842287,0.0229926,0.0343007,0.0507735,-0.019358,0.890034,0.0418226,0.0177805,1833,1499,103.993,-96.8045
616,-475,103.105,93.2284,0.0136288,0.0288095,0.0335876,0.0556537,-0.0132154,0.896525,0.0422031,0.0185291,1840,1499,103.105,-93.2284
623,-475,102.293,89.6493,0.0191404,0.0347595,0.0326563,0.060527,-0.00662715,0.902766,0.042732,0.0294038,1847,1499,102.293,-89.6493
630,-475,101.669,86.2921,0,0,0,0,0,0,0,-1,1854,1499,101.669,-86.2921
637,-475,47.9917,48.1105,0,0,0,0,0,0,0,-1,1861,1499,47.9917,-48.1105
644,-475,32.8739,24.0623,0,0,0,0,0,0,0,-1,1868,1499,32.8739,-24.0622
651,-475,29.886,19.2421,0,0,0,0,0,0,0,-1,1875,1499,29.886,-19.242
658,-475,14.6708,8.80322,0,0,0,0,0,0,0,-1,1882,1499,14.6708,-8.8032
665,-475,9.33435,5.43335,0,0,0,0,0,0,0,-1,1889,1499,9.33439,-5.43332
672,-475,9.38635,1.10474,0,0,0,0,0,0,0,-1,1896,1499,9.38629,-1.10475
679,-475,12.2594,1.31079,0,0,0,0,0,0,0,-1,1903,1499,12.2594,-1.31077
686,-475,0,0,0,0,0,0,0,0,0,-1,1910,1499,0,0
693,-475,0,0,0,0,0,0,0,0,0,-1,1917,1499,0,0
700,-475,0,0,0,0,0,0,0,0,0,-1,1924,1499,0,0
707,-475,0,0,0,0,0,0,0,0,0,-1,1931,1499,0,0
714,-475,0,0,0,0,0,0,0,0,0,-1,1938,1499,0,0
721,-475,0,0,0,0,0,0,0,0,0,-1,1945,1499,0,0
728,-475,0,0,0,0,0,0,0,0,0,-1,1952,1499,0,0
735,-475,0,0,0,0,0,0,0,0,0,-1,1959,1499,0,0
742,-475,0,0,0,0,0,0,0,0,0,-1,1966,1499,0,0
749,-475,0,0,0,0,0,0,0,0,0,-1,1973,1499,0,0
756,-475,0,0,0,0,0,0,0,0,0,-1,1980,1499,0,0
763,-475,0,0,0,0,0,0,0,0,0,-1,1987,1499,0,0
770,-475,0,0,0,0,0,0,0,0,0,-1,1994,1499,0,0
777,-475,0,0,0,0,0,0,0,0,0,-1,2001,1499,0,0
784,-475,0,0,0,0,0,0,0,0,0,-1,2008,1499,0,0
791,-475,0,0,0,0,0,0,0,0,0,-1,2015,1499,0,0
798,-475,0,0,0,0,0,0,0,0,0,-1,2022,1499,0,0
805,-475,0,0,0,0,0,0,0,0,0,-1,2029,1499,0,0
812,-475,0,0,0,0,0,0,0,0,0,-1,2036,1499,0,0
-700,-482,0,0,0,0,0,0,0,0,0,-1,524,1506,0,0
-693,-482,0,0,0,0,0,0,0,0,0,-1,531,1506,0,0
-686,-482,0,0,0,0,0,0,0,0,0,-1,538,1506,0,0
-679,-482,0,0,0,0,0,0,0,0,0,-1,545,1506,0,0
-672,-482,0,0,0,0,0,0,0,0,0,-1,552,1506,0,0
-665,-482,0,0,0,0,0,0,0,0,0,-1,559,1506,0,0
-658,-482,0,0,0,0,0,0,0,0,0,-1,566,1506,0,0
-651,-482,0,0,0,0,0,0,0,0,0,-1,573,1506,0,0
-644,-482,0,0,0,0,0,0,0,0,0,-1,580,1506,0,0
-637,-482,0,0,0,0,0,0,0,0,0,-1,587,1506,0,0
-630,-482,0,0,0,0,0,0,0,0,0,-1,594,1506,0,0
-623,-482,0,0,0,0,0,0,0,0,0,-1,601,1506,0,0
-616,-482,0,0,0,0,0,0,0,0,0,-1,608,1506,0,0
-609,-482,0,0,0,0,0,0,0,0,0,-1,615,1506,0,0
-602,-482,0,0,0,0,0,0,0,0,0,-1,622,1506,0,0
-595,-482,0,0,0,0,0,0,0,0,0,-1,629,1506,0,0
-588,-482,0,0,0,0,0,0,0,0,0,-1,636,1506,0,0
-581,-482,0,0,0,0,0,0,0,0,0,-1,643,1506,0,0
-574,-482,0,0,0,0,0,0,0,0,0,-1,650,1506,0,0
-567,-482,0,0,0,0,0,0,0,0,0,-1,657,1506,0,0
-560,-482,0,0,0,0,0,0,0,0,0,-1,664,1506,0,0
-553,-482,-9.06055,9.34314,0,0,0,0,0,0,0,-1,671,1506,-9.06056,-9.34312
-546,-482,-4.08624,8.34241,0,0,0,0,0,0,0,-1,678,1506,-4.08624,-8.3424
-539,-482,-4.29877,2.73499,0,0,0,0,0,0,0,-1,685,1506,-4.29879,-2.73494
-532,-482,-3.63611,4.23987,0,0,0,0,0,0,0,-1,692,1506,-3.63609,-4.23983
-525,-482,-6.19116,5.24927,0,0,0,0,0,0,0,-1,699,1506,-6.19117,-5.24927
-518,-482,-5.92957,6.39807,0,0,0,0,0,0,0,-1,706,1506,-5.92958,-6.39806
-511,-482,-7.74634,11.9137,0,0,0,0,0,0,0,-1,713,1506,-7.74633,-11.9137
-504,-482,-6.42358,13.4211,0,0,0,0,0,0,0,-1,720,1506,-6.42356,-13.4212
-497,-482,-8.86163,17.7108,0,0,0,0,0,0,0,-1,727,1506,-8.86163,-17.7109
-490,-482,-91.5938,86.3696,0,0,0,0,0,0,0,-1,734,1506,-91.5938,-86.3696
-483,-482,-92.4299,90.2892,0.026737,0.0365865,-0.0414455,0.0733988,-0.0100754,-0.844533,0.0526136,0.025548,741,1506,-92.4299,-90.2892
-476,-482,-93.2427,93.9028,0.0243615,0.0331732,-0.0395345,0.0685466,-0.0110119,-0.840891,0.0497761,0.0179474,748,1506,-93.2427,-93.9028
-469,-482,-93.7499,97.5122,0.0214879,0.0297988,-0.0375781,0.0634505,-0.0121638,-0.840465,0.0468839,0.0361156,755,1506,-93.7499,-97.5122
-462,-482,-94.3491,101.12,0.0184297,0.0264969,-0.0357662,0.0584563,-0.0135296,-0.841549,0.0441768,0.0410891,762,1506,-94.3491,-101.12
-455,-482,-95.2885,104.695,0,0,0,0,0,0,0,-1,769,1506,-95.2885,-104.695
-448,-482,-96.8336,108.506,0.0123251,0.0200244,-0.0323691,0.048772,-0.0164225,-0.844585,0.0391542,0.0207299,776,1506,-96.8336,-108.506
-441,-482,-97.9101,112.266,0.00916698,0.0166631,-0.0309054,0.044047,-0.0182168,-0.845741,0.0369647,0.0226686,783,1506,-97.9101,-112.266
-434,-482,-99.1992,115.974,0.00618376,0.0134937,-0.0294694,0.0395339,-0.0198565,-0.847096,0.0349108,0.042216,790,1506,-99.1992,-115.974
-427,-482,-100.692,119.831,0,0,0,0,0,0,0,-1,797,1506,-100.692,-119.831
-420,-482,-77.7971,122.158,0,0,0,0,0,0,0,-1,804,1506,-77.7971,-122.158
-413,-482,-6.56415,22.3163,0,0,0,0,0,0,0,-1,811,1506,-6.56417,-22.3163
-406,-482,-2.51373,12.7556,0,0,0,0,0,0,0,-1,818,1506,-2.51376,-12.7556
-399,-482,-1.3822,9.22595,0,0,0,0,0,0,0,-1,825,1506,-1.38221,-9.22598
-392,-482,-1.06836,9.22729,0,0,0,0,0,0,0,-1,832,1506,-1.06835,-9.2273
-385,-482,0.0647583,8.90649,0,0,0,0,0,0,0,-1,839,1506,0.0647778,-8.90644
-378,-482,0.215698,5.96948,0,0,0,0,0,0,0,-1,846,1506,0.215681,-5.9695
-371,-482,-0.10907,8.10437,0,0,0,0,0,0,0,-1,853,1506,-0.109063,-8.10433
-364,-482,-0.154968,10.5032,0,0,0,0,0,0,0,-1,860,1506,-0.154976,-10.5032
-357,-482,2.14807,4.60144,0,0,0,0,0,0,0,-1,867,1506,2.14807,-4.60144
-350,-482,-7.5813,-1.45935,0,0,0,0,0,0,0,-1,874,1506,-7.58133,1.45937
-343,-482,-5.80902,1.81226,0,0,0,0,0,0,0,-1,881,1506,-5.80903,-1.81221
-336,-482,2.52826,-0.390503,0,0,0,0,0,0,0,-1,888,1506,2.52826,0.390456
-329,-482,0,0,0,0,0,0,0,0,0,-1,895,1506,0,0
-322,-482,0,0,0,0,0,0,0,0,0,-1,902,1506,0,0
-315,-482,0,0,0,0,0,0,0,0,0,-1,909,1506,0,0
-308,-482,0,0,0,0,0,0,0,0,0,-1,916,1506,0,0
-301,-482,0,0,0,0,0,0,0,0,0,-1,923,1506,0,0
-294,-482,0,0,0,0,0,0,0,0,0,-1,930,1506,0,0
-287,-482,0,0,0,0,0,0,0,0,0,-1,937,1506,0,0
-280,-482,0,0,0,0,0,0,0,0,0,-1,944,1506,0,0
-273,-482,0,0,0,0,0,0,0,0,0,-1,951,1506,0,0
-266,-482,0,0,0,0,0,0,0,0,0,-1,958,1506,0,0
-259,-482,0,0,0,0,0,0,0,0,0,-1,965,1506,0,0
-252,-482,0,0,0,0,0,0,0,0,0,-1,972,1506,0,0
-245,-482,0,0,0,0,0,0,0,0,0,-1,979,1506,0,0
-238,-482,0,0,0,0,0,0,0,0,0,-1,986,1506,0,0
-231,-482,0,0,0,0,0,0,0,0,0,-1,993,1506,0,0
-224,-482,0,0,0,0,0,0,0,0,0,-1,1000,1506,0,0
-217,-482,0,0,0,0,0,0,0,0,0,-1,1007,1506,0,0
-210,-482,0,0,0,0,0,0,0,0,0,-1,1014,1506,0,0
-203,-482,0,0,0,0,0,0,0,0,0,-1,1021,1506,0,0
-196,-482,0,0,0,0,0,0,0,0,0,-1,1028,1506,0,0
-189,-482,0,0,0,0,0,0,0,0,0,-1,1035,1506,0,0
-182,-482,0,0,0,0,0,0,0,0,0,-1,1042,1506,0,0
-175,-482,0,0,0,0,0,0,0,0,0,-1,1049,1506,0,0
-168,-482,0,0,0,0,0,0,0,0,0,-1,1056,1506,0,0
-161,-482,0,0,0,0,0,0,0,0,0,-1,1063,1506,0,0
-154,-482,0,0,0,0,0,0,0,0,0,-1,1070,1506,0,0
-147,-482,0,0,0,0,0,0,0,0,0,-1,1077,1506,0,0
-140,-482,0,0,0,0,0,0,0,0,0,-1,1084,1506,0,0
-133,-482,0,0,0,0,0,0,0,0,0,-1,1091,1506,0,0
-126,-482,0,0,0,0,0,0,0,0,0,-1,1098,1506,0,0
-119,-482,0,0,0,0,0,0,0,0,0,-1,1105,1506,0,0
-112,-482,0,0,0,0,0,0,0,0,0,-1,1112,1506,0,0
-105,-482,0,0,0,0,0,0,0,0,0,-1,1119,1506,0,0
-98,-482,0,0,0,0,0,0,0,0,0,-1,1126,1506,0,0
-91,-482,0,0,0,0,0,0,0,0,0,-1,1133,1506,0,0
-84,-482,0,0,0,0,0,0,0,0,0,-1,1140,1506,0,0
-77,-482,0,0,0,0,0,0,0,0,0,-1,1147,1506,0,0
-70,-482,0,0,0,0,0,0,0,0,0,-1,1154,1506,0,0
-63,-482,0,0,0,0,0,0,0,0,0,-1,1161,1506,0,0
-56,-482,0,0,0,0,0,0,0,0,0,-1,1168,1506,0,0
-49,-482,0,0,0,0,0,0,0,0,0,-1,1175,1506,0,0
-42,-482,0,0,0,0,0,0,0,0,0,-1,1182,1506,0,0
-35,-482,0,0,0,0,0,0,0,0,0,-1,1189,1506,0,0
-28,-482,0,0,0,0,0,0,0,0,0,-1,1196,1506,0,0
-21,-482,0,0,0,0,0,0,0,0,0,-1,1203,1506,0,0
-14,-482,0,0,0,0,0,0,0,0,0,-1,1210,1506,0,0
-7,-482,0,0,0,0,0,0,0,0,0,-1,1217,1506,0,0
0,-482,0,0,0,0,0,0,0,0,0,-1,1224,1506,0,0
7,-482,0,0,0,0,0,0,0,0,0,-1,1231,1506,0,0
14,-482,0,0,0,0,0,0,0,0,0,-1,1238,1506,0,0
21,-482,0,0,0,0,0,0,0,0,0,-1,1245,1506,0,0
28,-482,0,0,0,0,0,0,0,0,0,-1,1252,1506,0,0
35,-482,0,0,0,0,0,0,0,0,0,-1,1259,1506,0,0
42,-482,0,0,0,0,0,0,0,0,0,-1,1266,1506,0,0
49,-482,0,0,0,0,0,0,0,0,0,-1,1273,1506,0,0
56,-482,0,0,0,0,0,0,0,0,0,-1,1280,1506,0,0
63,-482,0,0,0,0,0,0,0,0,0,-1,1287,1506,0,0
70,-482,0,0,0,0,0,0,0,0,0,-1,1294,1506,0,0
77,-482,0,0,0,0,0,0,0,0,0,-1,1301,1506,0,0
84,-482,0,0,0,0,0,0,0,0,0,-1,1308,1506,0,0
91,-482,0,0,0,0,0,0,0,0,0,-1,1315,1506,0,0
98,-482,0,0,0,0,0,0,0,0,0,-1,1322,1506,0,0
105,-482,0,0,0,0,0,0,0,0,0,-1,1329,1506,0,0
112,-482,0,0,0,0,0,0,0,0,0,-1,1336,1506,0,0
119,-482,0,0,0,0,0,0,0,0,0,-1,1343,1506,0,0
126,-482,0,0,0,0,0,0,0,0,0,-1,1350,1506,0,0
133,-482,0,0,0,0,0,0,0,0,0,-1,1357,1506,0,0
140,-482,0,0,0,0,0,0,0,0,0,-1,1364,1506,0,0
147,-482,0,0,0,0,0,0,0,0,0,-1,1371,1506,0,0
154,-482,0,0,0,0,0,0,0,0,0,-1,1378,1506,0,0
161,-482,0,0,0,0,0,0,0,0,0,-1,1385,1506,0,0
168,-482,0,0,0,0,0,0,0,0,0,-1,1392,1506,0,0
175,-482,0,0,0,0,0,0,0,0,0,-1,1399,1506,0,0
182,-482,0,0,0,0,0,0,0,0,0,-1,1406,1506,0,0
189,-482,0,0,0,0,0,0,0,0,0,-1,1413,1506,0,0
196,-482,0,0,0,0,0,0,0,0,0,-1,1420,1506,0,0
203,-482,0,0,0,0,0,0,0,0,0,-1,1427,1506,0,0
210,-482,0,0,0,0,0,0,0,0,0,-1,1434,1506,0,0
217,-482,0,0,0,0,0,0,0,0,0,-1,1441,1506,0,0
224,-482,0,0,0,0,0,0,0,0,0,-1,1448,1506,0,0
231,-482,0,0,0,0,0,0,0,0,0,-1,1455,1506,0,0
238,-482,0,0,0,0,0,0,0,0,0,-1,1462,1506,0,0
245,-482,0,0,0,0,0,0,0,0,0,-1,1469,1506,0,0
252,-482,0,0,0,0,0,0,0,0,0,-1,1476,1506,0,0
259,-482,0,0,0,0,0,0,0,0,0,-1,1483,1506,0,0
266,-482,0,0,0,0,0,0,0,0,0,-1,1490,1506,0,0
273,-482,0,0,0,0,0,0,0,0,0,-1,1497,1506,0,0
280,-482,0,0,0,0,0,0,0,0,0,-1,1504,1506,0,0
287,-482,0,0,0,0,0,0,0,0,0,-1,1511,1506,0,0
294,-482,0,0,0,0,0,0,0,0,0,-1,1518,1506,0,0
301,-482,0,0,0,0,0,0,0,0,0,-1,1525,1506,0,0
308,-482,0,0,0,0,0,0,0,0,0,-1,1532,1506,0,0
315,-482,0,0,0,0,0,0,0,0,0,-1,1539,1506,0,0
322,-482,0,0,0,0,0,0,0,0,0,-1,1546,1506,0,0
329,-482,0,0,0,0,0,0,0,0,0,-1,1553,1506,0,0
336,-482,0,0,0,0,0,0,0,0,0,-1,1560,1506,0,0
343,-482,0,0,0,0,0,0,0,0,0,-1,1567,1506,0,0
350,-482,0,0,0,0,0,0,0,0,0,-1,1574,1506,0,0
357,-482,0,0,0,0,0,0,0,0,0,-1,1581,1506,0,0
364,-482,0,0,0,0,0,0,0,0,0,-1,1588,1506,0,0
371,-482,0,0,0,0,0,0,0,0,0,-1,1595,1506,0,0
378,-482,0,0,0,0,0,0,0,0,0,-1,1602,1506,0,0
385,-482,0,0,0,0,0,0,0,0,0,-1,1609,1506,0,0
392,-482,0,0,0,0,0,0,0,0,0,-1,1616,1506,0,0
399,-482,0,0,0,0,0,0,0,0,0,-1,1623,1506,0,0
406,-482,0,0,0,0,0,0,0,0,0,-1,1630,1506,0,0
413,-482,0,0,0,0,0,0,0,0,0,-1,1637,1506,0,0
420,-482,0,0,0,0,0,0,0,0,0,-1,1644,1506,0,0
427,-482,0,0,0,0,0,0,0,0,0,-1,1651,1506,0,0
434,-482,0,0,0,0,0,0,0,0,0,-1,1658,1506,0,0
441,-482,0,0,0,0,0,0,0,0,0,-1,1665,1506,0,0
448,-482,4.85205,1.55896,0,0,0,0,0,0,0,-1,1672,1506,4.85201,-1.5589
455,-482,12.4122,1.09729,0,0,0,0,0,0,0,-1,1679,1506,12.4122,-1.09734
462,-482,15.0673,3.13135,0,0,0,0,0,0,0,-1,1686,1506,15.0672,-3.13134
469,-482,15.3793,3.46301,0,0,0,0,0,0,0,-1,1693,1506,15.3793,-3.46307
476,-482,8.69751,9.18738,0,0,0,0,0,0,0,-1,1700,1506,8.69753,-9.18739
483,-482,10.0902,7.17432,0,0,0,0,0,0,0,-1,1707,1506,10.0902,-7.1743
490,-482,11.6289,5.4928,0,0,0,0,0,0,0,-1,1714,1506,11.6289,-5.49283
497,-482,15.9539,7.40222,0,0,0,0,0,0,0,-1,1721,1506,15.9538,-7.40219
504,-482,20.4233,12.006,0,0,0,0,0,0,0,-1,1728,1506,20.4233,-12.006
511,-482,18.4937,12.9175,0,0,0,0,0,0,0,-1,1735,1506,18.4936,-12.9174
518,-482,16.6002,13.9679,0,0,0,0,0,0,0,-1,1742,1506,16.6003,-13.9679
525,-482,18.495,15.9618,0,0,0,0,0,0,0,-1,1749,1506,18.495,-15.9618
532,-482,19.9375,21.0775,0,0,0,0,0,0,0,-1,1756,1506,19.9375,-21.0775
539,-482,20.2291,20.5577,0,0,0,0,0,0,0,-1,1763,1506,20.2291,-20.5578
546,-482,50.8713,71.6311,0,0,0,0,0,0,0,-1,1770,1506,50.8714,-71.6312
553,-482,85.2159,128.813,0,0,0,0,0,0,0,-1,1777,1506,85.2159,-128.813
560,-482,107.947,123.913,0,0,0,0,0,0,0,-1,1784,1506,107.947,-123.913
567,-482,106.215,118.955,0,0,0,0,0,0,0,-1,1791,1506,106.215,-118.955
574,-482,105.008,115.805,-0.00564297,-0.000280972,0.034405,0.0315474,-0.0374713,0.824282,0.0398968,0.0300265,1798,1506,105.008,-115.805
581,-482,103.839,112.594,-0.0019135,0.00505088,0.0346172,0.0363606,-0.0332232,0.835525,0.0401879,0.0215016,1805,1506,103.839,-112.594
588,-482,102.834,108.866,0.00180629,0.0103405,0.0347618,0.0410961,-0.0289493,0.846469,0.0406429,0.0215083,1812,1506,102.834,-108.866
595,-482,101.837,105.075,0.0055626,0.0156293,0.0348029,0.0457609,-0.024569,0.857212,0.0412149,0.0275551,1819,1506,101.837,-105.075
602,-482,100.874,101.428,0.00936336,0.0208867,0.0347784,0.0503774,-0.0201274,0.867487,0.0419363,0.0288593,1826,1506,100.874,-101.428
609,-482,99.9158,97.9066,0.0131652,0.0261576,0.0346825,0.0549471,-0.0156242,0.877978,0.0428008,0.0211967,1833,1506,99.9157,-97.9067
616,-482,99.0026,94.3569,0.0169664,0.0316412,0.0344563,0.0595327,-0.0109251,0.890305,0.0437869,0.0196477,1840,1506,99.0026,-94.357
623,-482,98.2004,90.5356,0,0,0,0,0,0,0,-1,1847,1506,98.2004,-90.5356
630,-482,48.3544,54.5571,0,0,0,0,0,0,0,-1,1854,1506,48.3544,-54.5571
637,-482,32.1249,25.1031,0,0,0,0,0,0,0,-1,1861,1506,32.1249,-25.1031
644,-482,29.0146,20.1443,0,0,0,0,0,0,0,-1,1868,1506,29.0147,-20.1442
651,-482,4.03845,7.05273,0,0,0,0,0,0,0,-1,1875,1506,4.03843,-7.05279
658,-482,10.0278,5.87903,0,0,0,0,0,0,0,-1,1882,1506,10.0279,-5.87902
665,-482,8.15198,3.22229,0,0,0,0,0,0,0,-1,1889,1506,8.15199,-3.22232
672,-482,9.87415,1.3147,0,0,0,0,0,0,0,-1,1896,1506,9.87416,-1.31473
679,-482,0,0,0,0,0,0,0,0,0,-1,1903,1506,0,0
686,-482,0,0,0,0,0,0,0,0,0,-1,1910,1506,0,0
693,-482,0,0,0,0,0,0,0,0,0,-1,1917,1506,0,0
700,-482,0,0,0,0,0,0,0,0,0,-1,1924,1506,0,0
707,-482,0,0,0,0,0,0,0,0,0,-1,1931,1506,0,0
714,-482,0,0,0,0,0,0,0,0,0,-1,1938,1506,0,0
721,-482,0,0,0,0,0,0,0,0,0,-1,1945,1506,0,0
728,-482,0,0,0,0,0,0,0,0,0,-1,1952,1506,0,0
735,-482,0,0,0,0,0,0,0,0,0,-1,1959,1506,0,0
742,-482,0,0,0,0,0,0,0,0,0,-1,1966,1506,0,0
749,-482,0,0,0,0,0,0,0,0,0,-1,1973,1506,0,0
756,-482,0,0,0,0,0,0,0,0,0,-1,1980,1506,0,0
763,-482,0,0,0,0,0,0,0,0,0,-1,1987,1506,0,0
770,-482,0,0,0,0,0,0,0,0,0,-1,1994,1506,0,0
777,-482,0,0,0,0,0,0,0,0,0,-1,2001,1506,0,0
784,-482,0,0,0,0,0,0,0,0,0,-1,2008,1506,0,0
791,-482,0,0,0,0,0,0,0,0,0,-1,2015,1506,0,0
798,-482,0,0,0,0,0,0,0,0,0,-1,2022,1506,0,0
805,-482,0,0,0,0,0,0,0,0,0,-1,2029,1506,0,0
812,-482,0,0,0,0,0,0,0,0,0,-1,2036,1506,0,0
-700,-489,0,0,0,0,0,0,0,0,0,-1,524,1513,0,0
-693,-489,0,0,0,0,0,0,0,0,0,-1,531,1513,0,0
-686,-489,0,0,0,0,0,0,0,0,0,-1,538,1513,0,0
-679,-489,0,0,0,0,0,0,0,0,0,-1,545,1513,0,0
-672,-489,0,0,0,0,0,0,0,0,0,-1,552,1513,0,0
-665,-489,0,0,0,0,0,0,0,0,0,-1,559,1513,0,0
-658,-489,0,0,0,0,0,0,0,0,0,-1,566,1513,0,0
-651,-489,0,0,0,0,0,0,0,0,0,-1,573,1513,0,0
-644,-489,0,0,0,0,0,0,0,0,0,-1,580,1513,0,0
-637,-489,0,0,0,0,0,0,0,0,0,-1,587,1513,0,0
-630,-489,0,0,0,0,0,0,0,0,0,-1,594,1513,0,0
-623,-489,0,0,0,0,0,0,0,0,0,-1,601,1513,0,0
-616,-489,0,0,0,0,0,0,0,0,0,-1,608,1513,0,0
-609,-489,0,0,0,0,0,0,0,0,0,-1,615,1513,0,0
-602,-489,0,0,0,0,0,0,0,0,0,-1,622,1513,0,0
-595,-489,0,0,0,0,0,0,0,0,0,-1,629,1513,0,0
-588,-489,0,0,0,0,0,0,0,0,0,-1,636,1513,0,0
-581,-489,0,0,0,0,0,0,0,0,0,-1,643,1513,0,0
-574,-489,0,0,0,0,0,0,0,0,0,-1,650,1513,0,0
-567,-489,0,0,0,0,0,0,0,0,0,-1,657,1513,0,0
-560,-489,0,0,0,0,0,0,0,0,0,-1,664,1513,0,0
-553,-489,-9.42206,8.5116,0,0,0,0,0,0,0,-1,671,1513,-9.42205,-8.51158
-546,-489,-7.80951,8.18506,0,0,0,0,0,0,0,-1,678,1513,-7.8095,-8.18503
-539,-489,-3.06879,2.82349,0,0,0,0,0,0,0,-1,685,1513,-3.06881,-2.82354
-532,-489,-3.14215,2.5835,0,0,0,0,0,0,0,-1,692,1513,-3.14213,-2.58353
-525,-489,-2.604,4.06274,0,0,0,0,0,0,0,-1,699,1513,-2.60399,-4.06274
-518,-489,-5.43774,7.48059,0,0,0,0,0,0,0,-1,706,1513,-5.43777,-7.48058
-511,-489,-7.52856,10.951,0,0,0,0,0,0,0,-1,713,1513,-7.52857,-10.951
-504,-489,-7.17352,12.8508,0,0,0,0,0,0,0,-1,720,1513,-7.17352,-12.8508
-497,-489,-5.51678,14.9254,0,0,0,0,0,0,0,-1,727,1513,-5.51681,-14.9254
-490,-489,-15.6675,29.208,0,0,0,0,0,0,0,-1,734,1513,-15.6675,-29.208
-483,-489,-88.544,91.2173,0,0,0,0,0,0,0,-1,741,1513,-88.544,-91.2173
-476,-489,-89.072,94.8767,0.0285985,0.0354456,-0.042228,0.0743886,-0.0103445,-0.825846,0.0533757,0.0226784,748,1513,-89.072,-94.8767
-469,-489,-89.715,98.5081,0.0256251,0.0317349,-0.0402229,0.0690187,-0.0116587,-0.8233,0.0503507,0.0264192,755,1513,-89.715,-98.5081
-462,-489,-90.6395,102.207,0.0225709,0.0281334,-0.0385927,0.0640449,-0.0133406,-0.821369,0.0477685,0.0361818,762,1513,-90.6395,-102.207
-455,-489,-91.6942,105.898,0.0196903,0.0245797,-0.0369584,0.0591742,-0.0149042,-0.818423,0.0452433,0.0302888,769,1513,-91.6942,-105.898
-448,-489,-92.6998,109.671,0.0169128,0.0209683,-0.0354096,0.0544082,-0.0165271,-0.814,0.0428569,0.0253236,776,1513,-92.6998,-109.671
-441,-489,-93.6185,113.474,0.0141318,0.0172569,-0.0340405,0.0497707,-0.0183819,-0.808334,0.0407153,0.021206,783,1513,-93.6185,-113.474
-434,-489,-94.7055,117.309,0.0116126,0.0136042,-0.032719,0.0453425,-0.0201257,-0.800611,0.0387215,0.032757,790,1513,-94.7055,-117.309
-427,-489,-95.905,121.243,0,0,0,0,0,0,0,-1,797,1513,-95.9049,-121.243
-420,-489,-97.4404,124.838,0,0,0,0,0,0,0,-1,804,1513,-97.4405,-124.838
-413,-489,-78.455,127.868,0,0,0,0,0,0,0,-1,811,1513,-78.455,-127.868
-406,-489,-3.10559,15.8143,0,0,0,0,0,0,0,-1,818,1513,-3.10556,-15.8143
-399,-489,-1.41241,9.10718,0,0,0,0,0,0,0,-1,825,1513,-1.41244,-9.10722
-392,-489,-1.0368,9.30469,0,0,0,0,0,0,0,-1,832,1513,-1.03682,-9.30466
-385,-489,-1.75165,10.6559,0,0,0,0,0,0,0,-1,839,1513,-1.75165,-10.6559
-378,-489,-0.401428,9.87048,0,0,0,0,0,0,0,-1,846,1513,-0.401415,-9.87047
-371,-489,-1.11633,10.6606,0,0,0,0,0,0,0,-1,853,1513,-1.11633,-10.6606
-364,-489,-0.503113,8.98486,0,0,0,0,0,0,0,-1,860,1513,-0.503097,-8.98482
-357,-489,-0.609924,10.9606,0,0,0,0,0,0,0,-1,867,1513,-0.609947,-10.9605
-350,-489,-7.94659,-0.358887,0,0,0,0,0,0,0,-1,874,1513,-7.94657,0.358912
-343,-489,-7.49323,-0.437866,0,0,0,0,0,0,0,-1,881,1513,-7.49322,0.437823
-336,-489,-7.02332,-0.53125,0,0,0,0,0,0,0,-1,888,1513,-7.0233,0.531295
-329,-489,-13.2786,4.96082,0,0,0,0,0,0,0,-1,895,1513,-13.2785,-4.96077
-322,-489,0,0,0,0,0,0,0,0,0,-1,902,1513,0,0
-315,-489,0,0,0,0,0,0,0,0,0,-1,909,1513,0,0
-308,-489,0,0,0,0,0,0,0,0,0,-1,916,1513,0,0
-301,-489,0,0,0,0,0,0,0,0,0,-1,923,1513,0,0
-294,-489,0,0,0,0,0,0,0,0,0,-1,930,1513,0,0
-287,-489,0,0,0,0,0,0,0,0,0,-1,937,1513,0,0
-280,-489,0,0,0,0,0,0,0,0,0,-1,944,1513,0,0
-273,-489,0,0,0,0,0,0,0,0,0,-1,951,1513,0,0
-266,-489,0,0,0,0,0,0,0,0,0,-1,958,1513,0,0
-259,-489,0,0,0,0,0,0,0,0,0,-1,965,1513,0,0
-252,-489,0,0,0,0,0,0,0,0,0,-1,972,1513,0,0
-245,-489,0,0,0,0,0,0,0,0,0,-1,979,1513,0,0
-238,-489,0,0,0,0,0,0,0,0,0,-1,986,1513,0,0
-231,-489,0,0,0,0,0,0,0,0,0,-1,993,1513,0,0
-224,-489,0,0,0,0,0,0,0,0,0,-1,1000,1513,0,0
-217,-489,0,0,0,0,0,0,0,0,0,-1,1007,1513,0,0
-210,-489,0,0,0,0,0,0,0,0,0,-1,1014,1513,0,0
-203,-489,0,0,0,0,0,0,0,0,0,-1,1021,1513,0,0
-196,-489,0,0,0,0,0,0,0,0,0,-1,1028,1513,0,0
-189,-489,0,0,0,0,0,0,0,0,0,-1,1035,1513,0,0
-182,-489,0,0,0,0,0,0,0,0,0,-1,1042,1513,0,0
-175,-489,0,0,0,0,0,0,0,0,0,-1,1049,1513,0,0
-168,-489,0,0,0,0,0,0,0,0,0,-1,1056,1513,0,0
-161,-489,0,0,0,0,0,0,0,0,0,-1,1063,1513,0,0
-154,-489,0,0,0,0,0,0,0,0,0,-1,1070,1513,0,0
-147,-489,0,0,0,0,0,0,0,0,0,-1,1077,1513,0,0
-140,-489,0,0,0,0,0,0,0,0,0,-1,1084,1513,0,0
-133,-489,0,0,0,0,0,0,0,0,0,-1,1091,1513,0,0
-126,-489,0,0,0,0,0,0,0,0,0,-1,1098,1513,0,0
-119,-489,0,0,0,0,0,0,0,0,0,-1,1105,1513,0,0
-112,-489,0,0,0,0,0,0,0,0,0,-1,1112,1513,0,0
-105,-489,0,0,0,0,0,0,0,0,0,-1,1119,1513,0,0
-98,-489,0,0,0,0,0,0,0,0,0,-1,1126,1513,0,0
-91,-489,0,0,0,0,0,0,0,0,0,-1,1133,1513,0,0
-84,-489,0,0,0,0,0,0,0,0,0,-1,1140,1513,0,0
-77,-489,0,0,0,0,0,0,0,0,0,-1,1147,1513,0,0
-70,-489,0,0,0,0,0,0,0,0,0,-1,1154,1513,0,0
-63,-489,0,0,0,0,0,0,0,0,0,-1,1161,1513,0,0
-56,-489,0,0,0,0,0,0,0,0,0,-1,1168,1513,0,0
-49,-489,0,0,0,0,0,0,0,0,0,-1,1175,1513,0,0
-42,-489,0,0,0,0,0,0,0,0,0,-1,1182,1513,0,0
-35,-489,0,0,0,0,0,0,0,0,0,-1,1189,1513,0,0
-28,-489,0,0,0,0,0,0,0,0,0,-1,1196,1513,0,0
-21,-489,0,0,0,0,0,0,0,0,0,-1,1203,1513,0,0
-14,-489,0,0,0,0,0,0,0,0,0,-1,1210,1513,0,0
-7,-489,0,0,0,0,0,0,0,0,0,-1,1217,1513,0,0
0,-489,0,0,0,0,0,0,0,0,0,-1,1224,1513,0,0
7,-489,0,0,0,0,0,0,0,0,0,-1,1231,1513,0,0
14,-489,0,0,0,0,0,0,0,0,0,-1,1238,1513,0,0
21,-489,0,0,0,0,0,0,0,0,0,-1,1245,1513,0,0
28,-489,0,0,0,0,0,0,0,0,0,-1,1252,1513,0,0
35,-489,0,0,0,0,0,0,0,0,0,-1,1259,1513,0,0
42,-489,0,0,0,0,0,0,0,0,0,-1,1266,1513,0,0
49,-489,0,0,0,0,0,0,0,0,0,-1,1273,1513,0,0
56,-489,0,0,0,0,0,0,0,0,0,-1,1280,1513,0,0
63,-489,0,0,0,0,0,0,0,0,0,-1,1287,1513,0,0
70,-489,0,0,0,0,0,0,0,0,0,-1,1294,1513,0,0
77,-489,0,0,0,0,0,0,0,0,0,-1,1301,1513,0,0
84,-489,0,0,0,0,0,0,0,0,0,-1,1308,1513,0,0
91,-489,0,0,0,0,0,0,0,0,0,-1,1315,1513,0,0
98,-489,0,0,0,0,0,0,0,0,0,-1,1322,1513,0,0
105,-489,0,0,0,0,0,0,0,0,0,-1,1329,1513,0,0
112,-489,0,0,0,0,0,0,0,0,0,-1,1336,1513,0,0
119,-489,0,0,0,0,0,0,0,0,0,-1,1343,1513,0,0
126,-489,0,0,0,0,0,0,0,0,0,-1,1350,1513,0,0
133,-489,0,0,0,0,0,0,0,0,0,-1,1357,1513,0,0
140,-489,0,0,0,0,0,0,0,0,0,-1,1364,1513,0,0
147,-489,0,0,0,0,0,0,0,0,0,-1,1371,1513,0,0
154,-489,0,0,0,0,0,0,0,0,0,-1,1378,1513,0,0
161,-489,0,0,0,0,0,0,0,0,0,-1,1385,1513,0,0
168,-489,0,0,0,0,0,0,0,0,0,-1,1392,1513,0,0
175,-489,0,0,0,0,0,0,0,0,0,-1,1399,1513,0,0
182,-489,0,0,0,0,0,0,0,0,0,-1,1406,1513,0,0
189,-489,0,0,0,0,0,0,0,0,0,-1,1413,1513,0,0
196,-489,0,0,0,0,0,0,0,0,0,-1,1420,1513,0,0
203,-489,0,0,0,0,0,0,0,0,0,-1,1427,1513,0,0
210,-489,0,0,0,0,0,0,0,0,0,-1,1434,1513,0,0
217,-489,0,0,0,0,0,0,0,0,0,-1,1441,1513,0,0
224,-489,0,0,0,0,0,0,0,0,0,-1,1448,1513,0,0
231,-489,0,0,0,0,0,0,0,0,0,-1,1455,1513,0,0
238,-489,0,0,0,0,0,0,0,0,0,-1,1462,1513,0,0
245,-489,0,0,0,0,0,0,0,0,0,-1,1469,1513,0,0
252,-489,0,0,0,0,0,0,0,0,0,-1,1476,1513,0,0
259,-489,0,0,0,0,0,0,0,0,0,-1,1483,1513,0,0
266,-489,0,0,0,0,0,0,0,0,0,-1,1490,1513,0,0
273,-489,0,0,0,0,0,0,0,0,0,-1,1497,1513,0,0
280,-489,0,0,0,0,0,0,0,0,0,-1,1504,1513,0,0
287,-489,0,0,0,0,0,0,0,0,0,-1,1511,1513,0,0
294,-489,0,0,0,0,0,0,0,0,0,-1,1518,1513,0,0
301,-489,0,0,0,0,0,0,0,0,0,-1,1525,1513,0,0
308,-489,0,0,0,0,0,0,0,0,0,-1,1532,1513,0,0
315,-489,0,0,0,0,0,0,0,0,0,-1,1539,1513,0,0
322,-489,0,0,0,0,0,0,0,0,0,-1,1546,1513,0,0
329,-489,0,0,0,0,0,0,0,0,0,-1,1553,1513,0,0
336,-489,0,0,0,0,0,0,0,0,0,-1,1560,1513,0,0
343,-489,0,0,0,0,0,0,0,0,0,-1,1567,1513,0,0
350,-489,0,0,0,0,0,0,0,0,0,-1,1574,1513,0,0
357,-489,0,0,0,0,0,0,0,0,0,-1,1581,1513,0,0
364,-489,0,0,0,0,0,0,0,0,0,-1,1588,1513,0,0
371,-489,0,0,0,0,0,0,0,0,0,-1,1595,1513,0,0
378,-489,0,0,0,0,0,0,0,0,0,-1,1602,1513,0,0
385,-489,0,0,0,0,0,0,0,0,0,-1,1609,1513,0,0
392,-489,0,0,0,0,0,0,0,0,0,-1,1616,1513,0,0
399,-489,0,0,0,0,0,0,0,0,0,-1,1623,1513,0,0
406,-489,0,0,0,0,0,0,0,0,0,-1,1630,1513,0,0
413,-489,0,0,0,0,0,0,0,0,0,-1,1637,1513,0,0
420,-489,0,0,0,0,0,0,0,0,0,-1,1644,1513,0,0
427,-489,0,0,0,0,0,0,0,0,0,-1,1651,1513,0,0
434,-489,0,0,0,0,0,0,0,0,0,-1,1658,1513,0,0
441,-489,11.4602,2.56787,0,0,0,0,0,0,0,-1,1665,1513,11.4602,-2.56786
448,-489,12.4425,1.72351,0,0,0,0,0,0,0,-1,1672,1513,12.4425,-1.72349
455,-489,12.5575,1.37463,0,0,0,0,0,0,0,-1,1679,1513,12.5575,-1.37469
462,-489,14.9784,3.84888,0,0,0,0,0,0,0,-1,1686,1513,14.9784,-3.84892
469,-489,15.1367,4.53101,0,0,0,0,0,0,0,-1,1693,1513,15.1368,-4.531
476,-489,15.5536,5.09338,0,0,0,0,0,0,0,-1,1700,1513,15.5536,-5.09339
483,-489,8.96912,8.37805,0,0,0,0,0,0,0,-1,1707,1513,8.96909,-8.37809
490,-489,10.5366,7.49561,0,0,0,0,0,0,0,-1,1714,1513,10.5367,-7.49558
497,-489,14.6051,11.8397,0,0,0,0,0,0,0,-1,1721,1513,14.6051,-11.8397
504,-489,16.7527,14.1735,0,0,0,0,0,0,0,-1,1728,1513,16.7527,-14.1735
511,-489,17.83,17.7993,0,0,0,0,0,0,0,-1,1735,1513,17.83,-17.7993
518,-489,16.4751,14.3682,0,0,0,0,0,0,0,-1,1742,1513,16.4751,-14.3682
525,-489,17.2606,17.4949,0,0,0,0,0,0,0,-1,1749,1513,17.2606,-17.4949
532,-489,19.397,21.0182,0,0,0,0,0,0,0,-1,1756,1513,19.397,-21.0182
539,-489,31.8036,37.8446,0,0,0,0,0,0,0,-1,1763,1513,31.8036,-37.8447
546,-489,64.7327,111.969,0,0,0,0,0,0,0,-1,1770,1513,64.7326,-111.969
553,-489,104.464,129.351,0,0,0,0,0,0,0,-1,1777,1513,104.464,-129.351
560,-489,103.315,125.654,-0.00551446,-0.00744002,0.032989,0.0265258,-0.0394803,0.77081,0.0383525,0.0459197,1784,1513,103.315,-125.654
567,-489,101.961,121.665,-0.00226022,-0.00217367,0.0333465,0.0311296,-0.0355635,0.786047,0.0385336,0.0399965,1791,1513,101.961,-121.665
574,-489,100.881,117.74,0.00106236,0.00301012,0.033786,0.0358363,-0.0317638,0.799807,0.0390526,0.0279825,1798,1513,100.881,-117.74
581,-489,99.8026,113.986,0.00438593,0.00837853,0.0342279,0.0406683,-0.0279038,0.814527,0.0398181,0.0208812,1805,1513,99.8027,-113.986
588,-489,98.7825,110.177,0.00759078,0.0137173,0.0346116,0.0454009,-0.0240928,0.829535,0.040746,0.0234331,1812,1513,98.7825,-110.177
595,-489,97.774,106.441,0.0107732,0.0189647,0.0349531,0.0500612,-0.0203233,0.843721,0.041828,0.0290095,1819,1513,97.7741,-106.441
602,-489,96.8065,102.635,0.0138434,0.0240915,0.0353033,0.0546407,-0.0167058,0.857467,0.0430891,0.040154,1826,1513,96.8065,-102.635
609,-489,95.8008,98.9811,0.0166724,0.0291302,0.0356703,0.0591113,-0.0133088,0.871839,0.044512,0.0292125,1833,1513,95.8008,-98.9811
616,-489,94.827,95.4404,0,0,0,0,0,0,0,-1,1840,1513,94.8271,-95.4405
623,-489,74.4036,92.3373,0,0,0,0,0,0,0,-1,1847,1513,74.4036,-92.3373
630,-489,30.3123,23.9675,0,0,0,0,0,0,0,-1,1854,1513,30.3123,-23.9676
637,-489,17.2048,11.8091,0,0,0,0,0,0,0,-1,1861,1513,17.2048,-11.8091
644,-489,9.67578,8.45874,0,0,0,0,0,0,0,-1,1868,1513,9.67576,-8.45879
651,-489,6.13818,6.85095,0,0,0,0,0,0,0,-1,1875,1513,6.13823,-6.85097
658,-489,5.43848,7.75513,0,0,0,0,0,0,0,-1,1882,1513,5.43844,-7.75509
665,-489,5.48438,8.59912,0,0,0,0,0,0,0,-1,1889,1513,5.48434,-8.59907
672,-489,0,0,0,0,0,0,0,0,0,-1,1896,1513,0,0
679,-489,0,0,0,0,0,0,0,0,0,-1,1903,1513,0,0
686,-489,0,0,0,0,0,0,0,0,0,-1,1910,1513,0,0
693,-489,0,0,0,0,0,0,0,0,0,-1,1917,1513,0,0
700,-489,0,0,0,0,0,0,0,0,0,-1,1924,1513,0,0
707,-489,0,0,0,0,0,0,0,0,0,-1,1931,1513,0,0
714,-489,0,0,0,0,0,0,0,0,0,-1,1938,1513,0,0
721,-489,0,0,0,0,0,0,0,0,0,-1,1945,1513,0,0
728,-489,0,0,0,0,0,0,0,0,0,-1,1952,1513,0,0
735,-489,0,0,0,0,0,0,0,0,0,-1,1959,1513,0,0
742,-489,0,0,0,0,0,0,0,0,0,-1,1966,1513,0,0
749,-489,0,0,0,0,0,0,0,0,0,-1,1973,1513,0,0
756,-489,0,0,0,0,0,0,0,0,0,-1,1980,1513,0,0
763,-489,0,0,0,0,0,0,0,0,0,-1,1987,1513,0,0
770,-489,0,0,0,0,0,0,0,0,0,-1,1994,1513,0,0
777,-489,0,0,0,0,0,0,0,0,0,-1,2001,1513,0,0
784,-489,0,0,0,0,0,0,0,0,0,-1,2008,1513,0,0
791,-489,0,0,0,0,0,0,0,0,0,-1,2015,1513,0,0
798,-489,0,0,0,0,0,0,0,0,0,-1,2022,1513,0,0
805,-489,0,0,0,0,0,0,0,0,0,-1,2029,1513,0,0
812,-489,0,0,0,0,0,0,0,0,0,-1,2036,1513,0,0
-700,-496,0,0,0,0,0,0,0,0,0,-1,524,1520,0,0
-693,-496,0,0,0,0,0,0,0,0,0,-1,531,1520,0,0
-686,-496,0,0,0,0,0,0,0,0,0,-1,538,1520,0,0
-679,-496,0,0,0,0,0,0,0,0,0,-1,545,1520,0,0
-672,-496,0,0,0,0,0,0,0,0,0,-1,552,1520,0,0
-665,-496,0,0,0,0,0,0,0,0,0,-1,559,1520,0,0
-658,-496,0,0,0,0,0,0,0,0,0,-1,566,1520,0,0
-651,-496,0,0,0,0,0,0,0,0,0,-1,573,1520,0,0
-644,-496,0,0,0,0,0,0,0,0,0,-1,580,1520,0,0
-637,-496,0,0,0,0,0,0,0,0,0,-1,587,1520,0,0
-630,-496,0,0,0,0,0,0,0,0,0,-1,594,1520,0,0
-623,-496,0,0,0,0,0,0,0,0,0,-1,601,1520,0,0
-616,-496,0,0,0,0,0,0,0,0,0,-1,608,1520,0,0
-609,-496,0,0,0,0,0,0,0,0,0,-1,615,1520,0,0
-602,-496,0,0,0,0,0,0,0,0,0,-1,622,1520,0,0
-595,-496,0,0,0,0,0,0,0,0,0,-1,629,1520,0,0
-588,-496,0,0,0,0,0,0,0,0,0,-1,636,1520,0,0
-581,-496,0,0,0,0,0,0,0,0,0,-1,643,1520,0,0
-574,-496,0,0,0,0,0,0,0,0,0,-1,650,1520,0,0
-567,-496,0,0,0,0,0,0,0,0,0,-1,657,1520,0,0
-560,-496,0,0,0,0,0,0,0,0,0,-1,664,1520,0,0
-553,-496,0,0,0,0,0,0,0,0,0,-1,671,1520,0,0
-546,-496,-8.09711,7.94836,0,0,0,0,0,0,0,-1,678,1520,-8.09712,-7.94842
-539,-496,-3.20129,1.16052,0,0,0,0,0,0,0,-1,685,1520,-3.20131,-1.16054
-532,-496,-2.98279,2.62146,0,0,0,0,0,0,0,-1,692,1520,-2.98278,-2.62151
-525,-496,-2.75201,4.08032,0,0,0,0,0,0,0,-1,699,1520,-2.75201,-4.08031
-518,-496,-2.6333,5.36072,0,0,0,0,0,0,0,-1,706,1520,-2.63328,-5.36077
-511,-496,-7.92126,9.68604,0,0,0,0,0,0,0,-1,713,1520,-7.92127,-9.68598
-504,-496,-7.51044,11.6274,0,0,0,0,0,0,0,-1,720,1520,-7.51042,-11.6275
-497,-496,-5.30933,14.4291,0,0,0,0,0,0,0,-1,727,1520,-5.30932,-14.4291
-490,-496,-8.21246,19.5051,0,0,0,0,0,0,0,-1,734,1520,-8.21243,-19.5051
-483,-496,-20.4368,40.3196,0,0,0,0,0,0,0,-1,741,1520,-20.4368,-40.3195
-476,-496,-84.9056,95.7648,0,0,0,0,0,0,0,-1,748,1520,-84.9056,-95.7648
-469,-496,-85.5803,99.6199,0.0292909,0.0345256,-0.042646,0.0746345,-0.010818,-0.816046,0.0537266,0.0193718,755,1520,-85.5803,-99.6199
-462,-496,-86.4665,103.35,0.0262765,0.0303418,-0.0413153,0.0696744,-0.0130561,-0.809977,0.0513578,0.0292433,762,1520,-86.4665,-103.35
-455,-496,-87.4409,107.278,0.0235319,0.0262675,-0.039824,0.0647472,-0.0149478,-0.802565,0.0489147,0.0368598,769,1520,-87.4409,-107.278
-448,-496,-88.5277,111.061,0.0210386,0.022252,-0.038312,0.0599621,-0.0166715,-0.793316,0.0465382,0.0308022,776,1520,-88.5277,-111.061
-441,-496,-89.3287,114.795,0.0185936,0.0182277,-0.0368963,0.0553074,-0.0184861,-0.782919,0.0443374,0.0195285,783,1520,-89.3287,-114.795
-434,-496,-90.3659,118.708,0.0164306,0.014242,-0.0354911,0.0508442,-0.0201717,-0.769986,0.0422566,0.0198901,790,1520,-90.3659,-118.708
-427,-496,-91.6085,122.661,0.0145662,0.0102943,-0.0340745,0.0465716,-0.0217112,-0.754097,0.0402846,0.0379416,797,1520,-91.6085,-122.661
-420,-496,-92.8618,126.517,0.0132005,0.00643511,-0.0328409,0.0428325,-0.0231968,-0.734078,0.0386799,0.0439984,804,1520,-92.8618,-126.517
-413,-496,-94.2808,130.413,0,0,0,0,0,0,0,-1,811,1520,-94.2808,-130.413
-406,-496,-74.7766,133.159,0,0,0,0,0,0,0,-1,818,1520,-74.7766,-133.159
-399,-496,-11.5063,36.5204,0,0,0,0,0,0,0,-1,825,1520,-11.5063,-36.5204
-392,-496,-1.49786,12.387,0,0,0,0,0,0,0,-1,832,1520,-1.49788,-12.387
-385,-496,-1.72437,11.4985,0,0,0,0,0,0,0,-1,839,1520,-1.72436,-11.4985
-378,-496,-1.45532,14.0719,0,0,0,0,0,0,0,-1,846,1520,-1.45533,-14.0719
-371,-496,0.0877075,12.5299,0,0,0,0,0,0,0,-1,853,1520,0.0876896,-12.5299
-364,-496,0.0881348,10.6422,0,0,0,0,0,0,0,-1,860,1520,0.0881368,-10.6423
-357,-496,0.323792,7.56812,0,0,0,0,0,0,0,-1,867,1520,0.323782,-7.56806
-350,-496,2.1535,7.18945,0,0,0,0,0,0,0,-1,874,1520,2.15348,-7.1894
-343,-496,-7.56244,0.335327,0,0,0,0,0,0,0,-1,881,1520,-7.56242,-0.335322
-336,-496,-3.99249,6.02222,0,0,0,0,0,0,0,-1,888,1520,-3.99246,-6.0222
-329,-496,-6.93689,-0.100342,0,0,0,0,0,0,0,-1,895,1520,-6.93686,0.1003
-322,-496,-6.17505,0.494385,0,0,0,0,0,0,0,-1,902,1520,-6.17507,-0.49437
-315,-496,-7.539,5.78638,0,0,0,0,0,0,0,-1,909,1520,-7.53898,-5.78633
-308,-496,0,0,0,0,0,0,0,0,0,-1,916,1520,0,0
-301,-496,0,0,0,0,0,0,0,0,0,-1,923,1520,0,0
-294,-496,0,0,0,0,0,0,0,0,0,-1,930,1520,0,0
-287,-496,0,0,0,0,0,0,0,0,0,-1,937,1520,0,0
-280,-496,0,0,0,0,0,0,0,0,0,-1,944,1520,0,0
-273,-496,0,0,0,0,0,0,0,0,0,-1,951,1520,0,0
-266,-496,0,0,0,0,0,0,0,0,0,-1,958,1520,0,0
-259,-496,0,0,0,0,0,0,0,0,0,-1,965,1520,0,0
-252,-496,0,0,0,0,0,0,0,0,0,-1,972,1520,0,0
-245,-496,0,0,0,0,0,0,0,0,0,-1,979,1520,0,0
-238,-496,0,0,0,0,0,0,0,0,0,-1,986,1520,0,0
-231,-496,0,0,0,0,0,0,0,0,0,-1,993,1520,0,0
-224,-496,0,0,0,0,0,0,0,0,0,-1,1000,1520,0,0
-217,-496,0,0,0,0,0,0,0,0,0,-1,1007,1520,0,0
-210,-496,0,0,0,0,0,0,0,0,0,-1,1014,1520,0,0
-203,-496,0,0,0,0,0,0,0,0,0,-1,1021,1520,0,0
-196,-496,0,0,0,0,0,0,0,0,0,-1,1028,1520,0,0
-189,-496,0,0,0,0,0,0,0,0,0,-1,1035,1520,0,0
-182,-496,0,0,0,0,0,0,0,0,0,-1,1042,1520,0,0
-175,-496,0,0,0,0,0,0,0,0,0,-1,1049,1520,0,0
-168,-496,0,0,0,0,0,0,0,0,0,-1,1056,1520,0,0
-161,-496,0,0,0,0,0,0,0,0,0,-1,1063,1520,0,0
-154,-496,0,0,0,0,0,0,0,0,0,-1,1070,1520,0,0
-147,-496,0,0,0,0,0,0,0,0,0,-1,1077,1520,0,0
-140,-496,0,0,0,0,0,0,0,0,0,-1,1084,1520,0,0
-133,-496,0,0,0,0,0,0,0,0,0,-1,1091,1520,0,0
-126,-496,0,0,0,0,0,0,0,0,0,-1,1098,1520,0,0
-119,-496,0,0,0,0,0,0,0,0,0,-1,1105,1520,0,0
-112,-496,0,0,0,0,0,0,0,0,0,-1,1112,1520,0,0
-105,-496,0,0,0,0,0,0,0,0,0,-1,1119,1520,0,0
-98,-496,0,0,0,0,0,0,0,0,0,-1,1126,1520,0,0
-91,-496,0,0,0,0,0,0,0,0,0,-1,1133,1520,0,0
-84,-496,0,0,0,0,0,0,0,0,0,-1,1140,1520,0,0
-77,-496,0,0,0,0,0,0,0,0,0,-1,1147,1520,0,0
-70,-496,0,0,0,0,0,0,0,0,0,-1,1154,1520,0,0
-63,-496,0,0,0,0,0,0,0,0,0,-1,1161,1520,0,0
-56,-496,0,0,0,0,0,0,0,0,0,-1,1168,1520,0,0
-49,-496,0,0,0,0,0,0,0,0,0,-1,1175,1520,0,0
-42,-496,0,0,0,0,0,0,0,0,0,-1,1182,1520,0,0
-35,-496,0,0,0,0,0,0,0,0,0,-1,1189,1520,0,0
-28,-496,0,0,0,0,0,0,0,0,0,-1,1196,1520,0,0
-21,-496,0,0,0,0,0,0,0,0,0,-1,1203,1520,0,0
-14,-496,0,0,0,0,0,0,0,0,0,-1,1210,1520,0,0
-7,-496,0,0,0,0,0,0,0,0,0,-1,1217,1520,0,0
0,-496,0,0,0,0,0,0,0,0,0,-1,1224,1520,0,0
7,-496,0,0,0,0,0,0,0,0,0,-1,1231,1520,0,0
14,-496,0,0,0,0,0,0,0,0,0,-1,1238,1520,0,0
21,-496,0,0,0,0,0,0,0,0,0,-1,1245,1520,0,0
28,-496,0,0,0,0,0,0,0,0,0,-1,1252,1520,0,0
35,-496,0,0,0,0,0,0,0,0,0,-1,1259,1520,0,0
42,-496,0,0,0,0,0,0,0,0,0,-1,1266,1520,0,0
49,-496,0,0,0,0,0,0,0,0,0,-1,1273,1520,0,0
56,-496,0,0,0,0,0,0,0,0,0,-1,1280,1520,0,0
63,-496,0,0,0,0,0,0,0,0,0,-1,1287,1520,0,0
70,-496,0,0,0,0,0,0,0,0,0,-1,1294,1520,0,0
77,-496,0,0,0,0,0,0,0,0,0,-1,1301,1520,0,0
84,-496,0,0,0,0,0,0,0,0,0,-1,1308,1520,0,0
91,-496,0,0,0,0,0,0,0,0,0,-1,1315,1520,0,0
98,-496,0,0,0,0,0,0,0,0,0,-1,1322,1520,0,0
105,-496,0,0,0,0,0,0,0,0,0,-1,1329,1520,0,0
112,-496,0,0,0,0,0,0,0,0,0,-1,1336,1520,0,0
119,-496,0,0,0,0,0,0,0,0,0,-1,1343,1520,0,0
126,-496,0,0,0,0,0,0,0,0,0,-1,1350,1520,0,0
133,-496,0,0,0,0,0,0,0,0,0,-1,1357,1520,0,0
140,-496,0,0,0,0,0,0,0,0,0,-1,1364,1520,0,0
147,-496,0,0,0,0,0,0,0,0,0,-1,1371,1520,0,0
154,-496,0,0,0,0,0,0,0,0,0,-1,1378,1520,0,0
161,-496,0,0,0,0,0,0,0,0,0,-1,1385,1520,0,0
168,-496,0,0,0,0,0,0,0,0,0,-1,1392,1520,0,0
175,-496,0,0,0,0,0,0,0,0,0,-1,1399,1520,0,0
182,-496,0,0,0,0,0,0,0,0,0,-1,1406,1520,0,0
189,-496,0,0,0,0,0,0,0,0,0,-1,1413,1520,0,0
196,-496,0,0,0,0,0,0,0,0,0,-1,1420,1520,0,0
203,-496,0,0,0,0,0,0,0,0,0,-1,1427,1520,0,0
210,-496,0,0,0,0,0,0,0,0,0,-1,1434,1520,0,0
217,-496,0,0,0,0,0,0,0,0,0,-1,1441,1520,0,0
224,-496,0,0,0,0,0,0,0,0,0,-1,1448,1520,0,0
231,-496,0,0,0,0,0,0,0,0,0,-1,1455,1520,0,0
238,-496,0,0,0,0,0,0,0,0,0,-1,1462,1520,0,0
245,-496,0,0,0,0,0,0,0,0,0,-1,1469,1520,0,0
252,-496,0,0,0,0,0,0,0,0,0,-1,1476,1520,0,0
259,-496,0,0,0,0,0,0,0,0,0,-1,1483,1520,0,0
266,-496,0,0,0,0,0,0,0,0,0,-1,1490,1520,0,0
273,-496,0,0,0,0,0,0,0,0,0,-1,1497,1520,0,0
280,-496,0,0,0,0,0,0,0,0,0,-1,1504,1520,0,0
287,-496,0,0,0,0,0,0,0,0,0,-1,1511,1520,0,0
294,-496,0,0,0,0,0,0,0,0,0,-1,1518,1520,0,0
301,-496,0,0,0,0,0,0,0,0,0,-1,1525,1520,0,0
308,-496,0,0,0,0,0,0,0,0,0,-1,1532,1520,0,0
315,-496,0,0,0,0,0,0,0,0,0,-1,1539,1520,0,0
322,-496,0,0,0,0,0,0,0,0,0,-1,1546,1520,0,0
329,-496,0,0,0,0,0,0,0,0,0,-1,1553,1520,0,0
336,-496,0,0,0,0,0,0,0,0,0,-1,1560,1520,0,0
343,-496,0,0,0,0,0,0,0,0,0,-1,1567,1520,0,0
350,-496,0,0,0,0,0,0,0,0,0,-1,1574,1520,0,0
357,-496,0,0,0,0,0,0,0,0,0,-1,1581,1520,0,0
364,-496,0,0,0,0,0,0,0,0,0,-1,1588,1520,0,0
371,-496,0,0,0,0,0,0,0,0,0,-1,1595,1520,0,0
378,-496,0,0,0,0,0,0,0,0,0,-1,1602,1520,0,0
385,-496,0,0,0,0,0,0,0,0,0,-1,1609,1520,0,0
392,-496,0,0,0,0,0,0,0,0,0,-1,1616,1520,0,0
399,-496,0,0,0,0,0,0,0,0,0,-1,1623,1520,0,0
406,-496,0,0,0,0,0,0,0,0,0,-1,1630,1520,0,0
413,-496,0,0,0,0,0,0,0,0,0,-1,1637,1520,0,0
420,-496,0,0,0,0,0,0,0,0,0,-1,1644,1520,0,0
427,-496,0,0,0,0,0,0,0,0,0,-1,1651,1520,0,0
434,-496,11.0457,3.37732,0,0,0,0,0,0,0,-1,1658,1520,11.0456,-3.37736
441,-496,11.788,2.75488,0,0,0,0,0,0,0,-1,1665,1520,11.7879,-2.75485
448,-496,12.2146,2.18494,0,0,0,0,0,0,0,-1,1672,1520,12.2146,-2.18489
455,-496,12.3489,1.65173,0,0,0,0,0,0,0,-1,1679,1520,12.3489,-1.65178
462,-496,12.1912,1.32361,0,0,0,0,0,0,0,-1,1686,1520,12.1911,-1.32357
469,-496,14.8138,5.77954,0,0,0,0,0,0,0,-1,1693,1520,14.8138,-5.77958
476,-496,15.2449,6.27942,0,0,0,0,0,0,0,-1,1700,1520,15.2449,-6.27936
483,-496,9.19812,6.88367,0,0,0,0,0,0,0,-1,1707,1520,9.19812,-6.88361
490,-496,10.2123,7.97144,0,0,0,0,0,0,0,-1,1714,1520,10.2122,-7.97145
497,-496,13.9297,12.2981,0,0,0,0,0,0,0,-1,1721,1520,13.9297,-12.2982
504,-496,16.3271,16.6501,0,0,0,0,0,0,0,-1,1728,1520,16.3272,-16.6502
511,-496,17.6753,18.0685,0,0,0,0,0,0,0,-1,1735,1520,17.6753,-18.0685
518,-496,17.0537,17.3118,0,0,0,0,0,0,0,-1,1742,1520,17.0538,-17.3118
525,-496,18.2721,19.3259,0,0,0,0,0,0,0,-1,1749,1520,18.2721,-19.3259
532,-496,31.3234,37.6648,0,0,0,0,0,0,0,-1,1756,1520,31.3234,-37.6648
539,-496,62.3975,115.274,0,0,0,0,0,0,0,-1,1763,1520,62.3974,-115.274
546,-496,101.486,134.853,0,0,0,0,0,0,0,-1,1770,1520,101.486,-134.853
553,-496,100.19,130.946,-0.00235295,-0.00929153,0.0318494,0.0262156,-0.0378601,0.731148,0.0371971,0.0482806,1777,1520,100.19,-130.946
560,-496,98.9155,127.116,0.000706924,-0.00439674,0.0324488,0.0307041,-0.0343939,0.746158,0.0376045,0.0242816,1784,1520,98.9156,-127.116
567,-496,97.7378,123.135,0.00361468,0.000841917,0.0329925,0.0352499,-0.0307933,0.7644,0.0381589,0.0194419,1791,1520,97.7377,-123.135
574,-496,96.662,119.103,0.006569,0.00608009,0.033616,0.0399415,-0.0272924,0.781762,0.0390458,0.0189969,1798,1520,96.662,-119.103
581,-496,95.63,115.203,0.00949128,0.0115132,0.034289,0.0448062,-0.0238017,0.800136,0.0402248,0.0230167,1805,1520,95.63,-115.203
588,-496,94.5537,111.343,0.0122909,0.0169474,0.0349388,0.0496354,-0.0203972,0.818668,0.0415913,0.0221804,1812,1520,94.5538,-111.343
595,-496,93.5809,107.653,0.0150468,0.0222543,0.0356247,0.0544571,-0.017156,0.835806,0.0431749,0.0249025,1819,1520,93.5809,-107.653
602,-496,92.6536,103.833,0,0,0,0,0,0,0,-1,1826,1520,92.6535,-103.833
609,-496,91.6541,100.04,0,0,0,0,0,0,0,-1,1833,1520,91.6541,-100.04
616,-496,90.0308,96.1173,0,0,0,0,0,0,0,-1,1840,1520,90.0307,-96.1173
623,-496,28.9139,24.1847,0,0,0,0,0,0,0,-1,1847,1520,28.9139,-24.1846
630,-496,18.5656,13.8966,0,0,0,0,0,0,0,-1,1854,1520,18.5655,-13.8967
637,-496,14.6411,10.1016,0,0,0,0,0,0,0,-1,1861,1520,14.6411,-10.1016
644,-496,12.4537,10.087,0,0,0,0,0,0,0,-1,1868,1520,12.4537,-10.0871
651,-496,8.18506,5.47803,0,0,0,0,0,0,0,-1,1875,1520,8.18505,-5.47806
658,-496,7.79993,4.02563,0,0,0,0,0,0,0,-1,1882,1520,7.79997,-4.02568
665,-496,5.47583,7.90625,0,0,0,0,0,0,0,-1,1889,1520,5.47581,-7.90628
672,-496,0,0,0,0,0,0,0,0,0,-1,1896,1520,0,0
679,-496,0,0,0,0,0,0,0,0,0,-1,1903,1520,0,0
686,-496,0,0,0,0,0,0,0,0,0,-1,1910,1520,0,0
693,-496,0,0,0,0,0,0,0,0,0,-1,1917,1520,0,0
700,-496,0,0,0,0,0,0,0,0,0,-1,1924,1520,0,0
707,-496,0,0,0,0,0,0,0,0,0,-1,1931,1520,0,0
714,-496,0,0,0,0,0,0,0,0,0,-1,1938,1520,0,0
721,-496,0,0,0,0,0,0,0,0,0,-1,1945,1520,0,0
728,-496,0,0,0,0,0,0,0,0,0,-1,1952,1520,0,0
735,-496,0,0,0,0,0,0,0,0,0,-1,1959,1520,0,0
742,-496,0,0,0,0,0,0,0,0,0,-1,1966,1520,0,0
749,-496,0,0,0,0,0,0,0,0,0,-1,1973,1520,0,0
756,-496,0,0,0,0,0,0,0,0,0,-1,1980,1520,0,0
763,-496,0,0,0,0,0,0,0,0,0,-1,1987,1520,0,0
770,-496,0,0,0,0,0,0,0,0,0,-1,1994,1520,0,0
777,-496,0,0,0,0,0,0,0,0,0,-1,2001,1520,0,0
784,-496,0,0,0,0,0,0,0,0,0,-1,2008,1520,0,0
791,-496,0,0,0,0,0,0,0,0,0,-1,2015,1520,0,0
798,-496,0,0,0,0,0,0,0,0,0,-1,2022,1520,0,0
805,-496,0,0,0,0,0,0,0,0,0,-1,2029,1520,0,0
812,-496,0,0,0,0,0,0,0,0,0,-1,2036,1520,0,0
-700,-503,0,0,0,0,0,0,0,0,0,-1,524,1527,0,0
-693,-503,0,0,0,0,0,0,0,0,0,-1,531,1527,0,0
-686,-503,0,0,0,0,0,0,0,0,0,-1,538,1527,0,0
-679,-503,0,0,0,0,0,0,0,0,0,-1,545,1527,0,0
-672,-503,0,0,0,0,0,0,0,0,0,-1,552,1527,0,0
-665,-503,0,0,0,0,0,0,0,0,0,-1,559,1527,0,0
-658,-503,0,0,0,0,0,0,0,0,0,-1,566,1527,0,0
-651,-503,0,0,0,0,0,0,0,0,0,-1,573,1527,0,0
-644,-503,0,0,0,0,0,0,0,0,0,-1,580,1527,0,0
-637,-503,0,0,0,0,0,0,0,0,0,-1,587,1527,0,0
-630,-503,0,0,0,0,0,0,0,0,0,-1,594,1527,0,0
-623,-503,0,0,0,0,0,0,0,0,0,-1,601,1527,0,0
-616,-503,0,0,0,0,0,0,0,0,0,-1,608,1527,0,0
-609,-503,0,0,0,0,0,0,0,0,0,-1,615,1527,0,0
-602,-503,0,0,0,0,0,0,0,0,0,-1,622,1527,0,0
-595,-503,0,0,0,0,0,0,0,0,0,-1,629,1527,0,0
-588,-503,0,0,0,0,0,0,0,0,0,-1,636,1527,0,0
-581,-503,0,0,0,0,0,0,0,0,0,-1,643,1527,0,0
-574,-503,0,0,0,0,0,0,0,0,0,-1,650,1527,0,0
-567,-503,0,0,0,0,0,0,0,0,0,-1,657,1527,0,0
-560,-503,0,0,0,0,0,0,0,0,0,-1,664,1527,0,0
-553,-503,0,0,0,0,0,0,0,0,0,-1,671,1527,0,0
-546,-503,0,0,0,0,0,0,0,0,0,-1,678,1527,0,0
-539,-503,3.50177,4.26428,0,0,0,0,0,0,0,-1,685,1527,3.50177,-4.26424
-532,-503,-3.13196,1.05298,0,0,0,0,0,0,0,-1,692,1527,-3.13194,-1.05299
-525,-503,-2.94293,2.59314,0,0,0,0,0,0,0,-1,699,1527,-2.94296,-2.59314
-518,-503,-2.7395,4.05872,0,0,0,0,0,0,0,-1,706,1527,-2.73948,-4.05871
-511,-503,-1.60022,7.23877,0,0,0,0,0,0,0,-1,713,1527,-1.60023,-7.23872
-504,-503,-8.1402,10.1541,0,0,0,0,0,0,0,-1,720,1527,-8.14017,-10.1541
-497,-503,-4.51758,14.0781,0,0,0,0,0,0,0,-1,727,1527,-4.5176,-14.0782
-490,-503,-4.24194,16.1982,0,0,0,0,0,0,0,-1,734,1527,-4.24196,-16.1982
-483,-503,-9.55774,23.7681,0,0,0,0,0,0,0,-1,741,1527,-9.55776,-23.7681
-476,-503,-35.8533,66.9409,0,0,0,0,0,0,0,-1,748,1527,-35.8533,-66.9409
-469,-503,-81.3359,100.755,0,0,0,0,0,0,0,-1,755,1527,-81.3359,-100.755
-462,-503,-82.1924,104.619,0.029546,0.0330128,-0.0437513,0.075065,-0.0125063,-0.805198,0.0546909,0.0217561,762,1527,-82.1925,-104.619
-455,-503,-83.0873,108.5,0.0267736,0.028477,-0.0423647,0.0699985,-0.0147479,-0.795449,0.0522797,0.0325977,769,1527,-83.0873,-108.5
-448,-503,-84.1681,112.318,0.024464,0.0240832,-0.0408494,0.0651234,-0.0165762,-0.783068,0.0498679,0.0264624,776,1527,-84.1681,-112.318
-441,-503,-85.116,116.107,0.0223313,0.019746,-0.0393495,0.0604093,-0.0183321,-0.768979,0.0475758,0.0188931,783,1527,-85.1161,-116.107
-434,-503,-86.192,120.064,0.0204818,0.0154528,-0.0378588,0.0559095,-0.0199749,-0.752237,0.0454198,0.0167056,790,1527,-86.192,-120.064
-427,-503,-87.3726,124.087,0.0189905,0.0113241,-0.0363606,0.0517194,-0.0214048,-0.732882,0.0434107,0.0283465,797,1527,-87.3726,-124.087
-420,-503,-88.2989,128.126,0.0178431,0.00728246,-0.0349261,0.0478857,-0.0227602,-0.710374,0.0416384,0.0308028,804,1527,-88.2989,-128.126
-413,-503,-89.3706,132.332,0,0,0,0,0,0,0,-1,811,1527,-89.3706,-132.332
-406,-503,-91.2202,135.291,0,0,0,0,0,0,0,-1,818,1527,-91.2202,-135.291
-399,-503,-72.1955,138.426,0,0,0,0,0,0,0,-1,825,1527,-72.1955,-138.426
-392,-503,-10.7637,37.4486,0,0,0,0,0,0,0,-1,832,1527,-10.7637,-37.4486
-385,-503,-2.00403,14.1218,0,0,0,0,0,0,0,-1,839,1527,-2.00403,-14.1218
-378,-503,-2.07043,13.8632,0,0,0,0,0,0,0,-1,846,1527,-2.07043,-13.8631
-371,-503,-1.67285,13.8081,0,0,0,0,0,0,0,-1,853,1527,-1.67285,-13.8081
-364,-503,0.181396,12.3768,0,0,0,0,0,0,0,-1,860,1527,0.18138,-12.3768
-357,-503,0.558533,9.25452,0,0,0,0,0,0,0,-1,867,1527,0.558542,-9.25446
-350,-503,0.219971,6.84827,0,0,0,0,0,0,0,-1,874,1527,0.21996,-6.84831
-343,-503,-3.5802,4.43274,0,0,0,0,0,0,0,-1,881,1527,-3.58018,-4.43276
-336,-503,-3.2384,6.40637,0,0,0,0,0,0,0,-1,888,1527,-3.2384,-6.40643
-329,-503,-1.70691,11.886,0,0,0,0,0,0,0,-1,895,1527,-1.70689,-11.886
-322,-503,-3.31317,8.81519,0,0,0,0,0,0,0,-1,902,1527,-3.31315,-8.81524
-315,-503,-3.90265,7.73853,0,0,0,0,0,0,0,-1,909,1527,-3.90264,-7.73854
-308,-503,-1.70264,7.35413,0,0,0,0,0,0,0,-1,916,1527,-1.70262,-7.35416
-301,-503,0,0,0,0,0,0,0,0,0,-1,923,1527,0,0
-294,-503,0,0,0,0,0,0,0,0,0,-1,930,1527,0,0
-287,-503,0,0,0,0,0,0,0,0,0,-1,937,1527,0,0
-280,-503,0,0,0,0,0,0,0,0,0,-1,944,1527,0,0
-273,-503,0,0,0,0,0,0,0,0,0,-1,951,1527,0,0
-266,-503,0,0,0,0,0,0,0,0,0,-1,958,1527,0,0
-259,-503,0,0,0,0,0,0,0,0,0,-1,965,1527,0,0
-252,-503,0,0,0,0,0,0,0,0,0,-1,972,1527,0,0
-245,-503,0,0,0,0,0,0,0,0,0,-1,979,1527,0,0
-238,-503,0,0,0,0,0,0,0,0,0,-1,986,1527,0,0
-231,-503,0,0,0,0,0,0,0,0,0,-1,993,1527,0,0
-224,-503,0,0,0,0,0,0,0,0,0,-1,1000,1527,0,0
-217,-503,0,0,0,0,0,0,0,0,0,-1,1007,1527,0,0
-210,-503,0,0,0,0,0,0,0,0,0,-1,1014,1527,0,0
-203,-503,0,0,0,0,0,0,0,0,0,-1,1021,1527,0,0
-196,-503,0,0,0,0,0,0,0,0,0,-1,1028,1527,0,0
-189,-503,0,0,0,0,0,0,0,0,0,-1,1035,1527,0,0
-182,-503,0,0,0,0,0,0,0,0,0,-1,1042,1527,0,0
-175,-503,0,0,0,0,0,0,0,0,0,-1,1049,1527,0,0
-168,-503,0,0,0,0,0,0,0,0,0,-1,1056,1527,0,0
-161,-503,0,0,0,0,0,0,0,0,0,-1,1063,1527,0,0
-154,-503,0,0,0,0,0,0,0,0,0,-1,1070,1527,0,0
-147,-503,0,0,0,0,0,0,0,0,0,-1,1077,1527,0,0
-140,-503,0,0,0,0,0,0,0,0,0,-1,1084,1527,0,0
-133,-503,0,0,0,0,0,0,0,0,0,-1,1091,1527,0,0
-126,-503,0,0,0,0,0,0,0,0,0,-1,1098,1527,0,0
-119,-503,0,0,0,0,0,0,0,0,0,-1,1105,1527,0,0
-112,-503,0,0,0,0,0,0,0,0,0,-1,1112,1527,0,0
-105,-503,0,0,0,0,0,0,0,0,0,-1,1119,1527,0,0
-98,-503,0,0,0,0,0,0,0,0,0,-1,1126,1527,0,0
-91,-503,0,0,0,0,0,0,0,0,0,-1,1133,1527,0,0
-84,-503,0,0,0,0,0,0,0,0,0,-1,1140,1527,0,0
-77,-503,0,0,0,0,0,0,0,0,0,-1,1147,1527,0,0
-70,-503,0,0,0,0,0,0,0,0,0,-1,1154,1527,0,0
-63,-503,0,0,0,0,0,0,0,0,0,-1,1161,1527,0,0
-56,-503,0,0,0,0,0,0,0,0,0,-1,1168,1527,0,0
-49,-503,0,0,0,0,0,0,0,0,0,-1,1175,1527,0,0
-42,-503,0,0,0,0,0,0,0,0,0,-1,1182,1527,0,0
-35,-503,0,0,0,0,0,0,0,0,0,-1,1189,1527,0,0
-28,-503,0,0,0,0,0,0,0,0,0,-1,1196,1527,0,0
-21,-503,0,0,0,0,0,0,0,0,0,-1,1203,1527,0,0
-14,-503,0,0,0,0,0,0,0,0,0,-1,1210,1527,0,0
-7,-503,0,0,0,0,0,0,0,0,0,-1,1217,1527,0,0
0,-503,0,0,0,0,0,0,0,0,0,-1,1224,1527,0,0
7,-503,0,0,0,0,0,0,0,0,0,-1,1231,1527,0,0
14,-503,0,0,0,0,0,0,0,0,0,-1,1238,1527,0,0
21,-503,0,0,0,0,0,0,0,0,0,-1,1245,1527,0,0
28,-503,0,0,0,0,0,0,0,0,0,-1,1252,1527,0,0
35,-503,0,0,0,0,0,0,0,0,0,-1,1259,1527,0,0
42,-503,0,0,0,0,0,0,0,0,0,-1,1266,1527,0,0
49,-503,0,0,0,0,0,0,0,0,0,-1,1273,1527,0,0
56,-503,0,0,0,0,0,0,0,0,0,-1,1280,1527,0,0
63,-503,0,0,0,0,0,0,0,0,0,-1,1287,1527,0,0
70,-503,0,0,0,0,0,0,0,0,0,-1,1294,1527,0,0
77,-503,0,0,0,0,0,0,0,0,0,-1,1301,1527,0,0
84,-503,0,0,0,0,0,0,0,0,0,-1,1308,1527,0,0
91,-503,0,0,0,0,0,0,0,0,0,-1,1315,1527,0,0
98,-503,0,0,0,0,0,0,0,0,0,-1,1322,1527,0,0
105,-503,0,0,0,0,0,0,0,0,0,-1,1329,1527,0,0
112,-503,0,0,0,0,0,0,0,0,0,-1,1336,1527,0,0
119,-503,0,0,0,0,0,0,0,0,0,-1,1343,1527,0,0
126,-503,0,0,0,0,0,0,0,0,0,-1,1350,1527,0,0
133,-503,0,0,0,0,0,0,0,0,0,-1,1357,1527,0,0
140,-503,0,0,0,0,0,0,0,0,0,-1,1364,1527,0,0
147,-503,0,0,0,0,0,0,0,0,0,-1,1371,1527,0,0
154,-503,0,0,0,0,0,0,0,0,0,-1,1378,1527,0,0
161,-503,0,0,0,0,0,0,0,0,0,-1,1385,1527,0,0
168,-503,0,0,0,0,0,0,0,0,0,-1,1392,1527,0,0
175,-503,0,0,0,0,0,0,0,0,0,-1,1399,1527,0,0
182,-503,0,0,0,0,0,0,0,0,0,-1,1406,1527,0,0
189,-503,0,0,0,0,0,0,0,0,0,-1,1413,1527,0,0
196,-503,0,0,0,0,0,0,0,0,0,-1,1420,1527,0,0
203,-503,0,0,0,0,0,0,0,0,0,-1,1427,1527,0,0
210,-503,0,0,0,0,0,0,0,0,0,-1,1434,1527,0,0
217,-503,0,0,0,0,0,0,0,0,0,-1,1441,1527,0,0
224,-503,0,0,0,0,0,0,0,0,0,-1,1448,1527,0,0
231,-503,0,0,0,0,0,0,0,0,0,-1,1455,1527,0,0
238,-503,0,0,0,0,0,0,0,0,0,-1,1462,1527,0,0
245,-503,0,0,0,0,0,0,0,0,0,-1,1469,1527,0,0
252,-503,0,0,0,0,0,0,0,0,0,-1,1476,1527,0,0
259,-503,0,0,0,0,0,0,0,0,0,-1,1483,1527,0,0
266,-503,0,0,0,0,0,0,0,0,0,-1,1490,1527,0,0
273,-503,0,0,0,0,0,0,0,0,0,-1,1497,1527,0,0
280,-503,0,0,0,0,0,0,0,0,0,-1,1504,1527,0,0
287,-503,0,0,0,0,0,0,0,0,0,-1,1511,1527,0,0
294,-503,0,0,0,0,0,0,0,0,0,-1,1518,1527,0,0
301,-503,0,0,0,0,0,0,0,0,0,-1,1525,1527,0,0
308,-503,0,0,0,0,0,0,0,0,0,-1,1532,1527,0,0
315,-503,0,0,0,0,0,0,0,0,0,-1,1539,1527,0,0
322,-503,0,0,0,0,0,0,0,0,0,-1,1546,1527,0,0
329,-503,0,0,0,0,0,0,0,0,0,-1,1553,1527,0,0
336,-503,0,0,0,0,0,0,0,0,0,-1,1560,1527,0,0
343,-503,0,0,0,0,0,0,0,0,0,-1,1567,1527,0,0
350,-503,0,0,0,0,0,0,0,0,0,-1,1574,1527,0,0
357,-503,0,0,0,0,0,0,0,0,0,-1,1581,1527,0,0
364,-503,0,0,0,0,0,0,0,0,0,-1,1588,1527,0,0
371,-503,0,0,0,0,0,0,0,0,0,-1,1595,1527,0,0
378,-503,0,0,0,0,0,0,0,0,0,-1,1602,1527,0,0
385,-503,0,0,0,0,0,0,0,0,0,-1,1609,1527,0,0
392,-503,0,0,0,0,0,0,0,0,0,-1,1616,1527,0,0
399,-503,0,0,0,0,0,0,0,0,0,-1,1623,1527,0,0
406,-503,0,0,0,0,0,0,0,0,0,-1,1630,1527,0,0
413,-503,0,0,0,0,0,0,0,0,0,-1,1637,1527,0,0
420,-503,0,0,0,0,0,0,0,0,0,-1,1644,1527,0,0
427,-503,10.5968,4.9856,0,0,0,0,0,0,0,-1,1651,1527,10.5969,-4.98563
434,-503,11.4329,3.97217,0,0,0,0,0,0,0,-1,1658,1527,11.4328,-3.97222
441,-503,12.0957,2.96509,0,0,0,0,0,0,0,-1,1665,1527,12.0957,-2.96512
448,-503,12.3259,2.53894,0,0,0,0,0,0,0,-1,1672,1527,12.326,-2.53895
455,-503,12.1669,2.18762,0,0,0,0,0,0,0,-1,1679,1527,12.1668,-2.18767
462,-503,11.59,2.60791,0,0,0,0,0,0,0,-1,1686,1527,11.5899,-2.60794
469,-503,11.1625,1.61853,0,0,0,0,0,0,0,-1,1693,1527,11.1625,-1.61856
476,-503,9.07703,5.81042,0,0,0,0,0,0,0,-1,1700,1527,9.07699,-5.81047
483,-503,9.74414,6.92432,0,0,0,0,0,0,0,-1,1707,1527,9.74417,-6.9243
490,-503,10.5033,10.1071,0,0,0,0,0,0,0,-1,1714,1527,10.5032,-10.107
497,-503,15.0057,17.9476,0,0,0,0,0,0,0,-1,1721,1527,15.0058,-17.9476
504,-503,16.4764,18.4486,0,0,0,0,0,0,0,-1,1728,1527,16.4764,-18.4486
511,-503,16.8276,18.3271,0,0,0,0,0,0,0,-1,1735,1527,16.8276,-18.3272
518,-503,17.2533,18.2738,0,0,0,0,0,0,0,-1,1742,1527,17.2533,-18.2738
525,-503,21.2887,26.5785,0,0,0,0,0,0,0,-1,1749,1527,21.2887,-26.5785
532,-503,50.0776,89.5392,0,0,0,0,0,0,0,-1,1756,1527,50.0776,-89.5392
539,-503,73.004,136.88,0,0,0,0,0,0,0,-1,1763,1527,73.004,-136.879
546,-503,96.9548,136.462,0,0,0,0,0,0,0,-1,1770,1527,96.9549,-136.462
553,-503,95.854,132.497,0.00360037,-0.0063965,0.0315892,0.0305842,-0.0333803,0.706933,0.0369417,0.0301589,1777,1527,95.854,-132.497
560,-503,94.6306,128.522,0.00623641,-0.00154336,0.0323409,0.0349205,-0.0302274,0.725547,0.0376457,0.0207884,1784,1527,94.6307,-128.522
567,-503,93.4025,124.446,0.00883707,0.00371399,0.0330876,0.0394622,-0.0269111,0.746767,0.0385483,0.0203586,1791,1527,93.4024,-124.446
574,-503,92.3285,120.453,0.0115127,0.00911646,0.0338576,0.0441933,-0.0235642,0.767712,0.0397196,0.0207448,1798,1527,92.3285,-120.453
581,-503,91.2886,116.567,0.0141172,0.0147443,0.0346783,0.0491105,-0.020249,0.789919,0.0411841,0.0209282,1805,1527,91.2885,-116.567
588,-503,90.2168,112.637,0.0166129,0.0204344,0.0354831,0.0540581,-0.0170109,0.812297,0.0428497,0.0218518,1812,1527,90.2168,-112.637
595,-503,89.2518,108.893,0.019076,0.0260086,0.0363761,0.0590832,-0.0139986,0.8329,0.0447902,0.0196356,1819,1527,89.2518,-108.893
602,-503,88.2509,105.101,0,0,0,0,0,0,0,-1,1826,1527,88.2508,-105.101
609,-503,86.7174,100.75,0,0,0,0,0,0,0,-1,1833,1527,86.7174,-100.75
616,-503,27.9205,24.2308,0,0,0,0,0,0,0,-1,1840,1527,27.9206,-24.2309
623,-503,18.7351,15.5999,0,0,0,0,0,0,0,-1,1847,1527,18.7351,-15.5999
630,-503,20.6721,13.9077,0,0,0,0,0,0,0,-1,1854,1527,20.6721,-13.9077
637,-503,14.5564,9.20496,0,0,0,0,0,0,0,-1,1861,1527,14.5564,-9.2049
644,-503,11.4802,7.57214,0,0,0,0,0,0,0,-1,1868,1527,11.4802,-7.57215
651,-503,11.5718,6.5448,0,0,0,0,0,0,0,-1,1875,1527,11.5718,-6.54476
658,-503,8.25635,3.10498,0,0,0,0,0,0,0,-1,1882,1527,8.2563,-3.10493
665,-503,0,0,0,0,0,0,0,0,0,-1,1889,1527,0,0
672,-503,0,0,0,0,0,0,0,0,0,-1,1896,1527,0,0
679,-503,0,0,0,0,0,0,0,0,0,-1,1903,1527,0,0
686,-503,0,0,0,0,0,0,0,0,0,-1,1910,1527,0,0
693,-503,0,0,0,0,0,0,0,0,0,-1,1917,1527,0,0
700,-503,0,0,0,0,0,0,0,0,0,-1,1924,1527,0,0
707,-503,0,0,0,0,0,0,0,0,0,-1,1931,1527,0,0
714,-503,0,0,0,0,0,0,0,0,0,-1,1938,1527,0,0
721,-503,0,0,0,0,0,0,0,0,0,-1,1945,1527,0,0
728,-503,0,0,0,0,0,0,0,0,0,-1,1952,1527,0,0
735,-503,0,0,0,0,0,0,0,0,0,-1,1959,1527,0,0
742,-503,0,0,0,0,0,0,0,0,0,-1,1966,1527,0,0
749,-503,0,0,0,0,0,0,0,0,0,-1,1973,1527,0,0
756,-503,0,0,0,0,0,0,0,0,0,-1,1980,1527,0,0
763,-503,0,0,0,0,0,0,0,0,0,-1,1987,1527,0,0
770,-503,0,0,0,0,0,0,0,0,0,-1,1994,1527,0,0
777,-503,0,0,0,0,0,0,0,0,0,-1,2001,1527,0,0
784,-503,0,0,0,0,0,0,0,0,0,-1,2008,1527,0,0
791,-503,0,0,0,0,0,0,0,0,0,-1,2015,1527,0,0
798,-503,0,0,0,0,0,0,0,0,0,-1,2022,1527,0,0
805,-503,0,0,0,0,0,0,0,0,0,-1,2029,1527,0,0
812,-503,0,0,0,0,0,0,0,0,0,-1,2036,1527,0,0
-700,-510,0,0,0,0,0,0,0,0,0,-1,524,1534,0,0
-693,-510,0,0,0,0,0,0,0,0,0,-1,531,1534,0,0
-686,-510,0,0,0,0,0,0,0,0,0,-1,538,1534,0,0
-679,-510,0,0,0,0,0,0,0,0,0,-1,545,1534,0,0
-672,-510,0,0,0,0,0,0,0,0,0,-1,552,1534,0,0
-665,-510,0,0,0,0,0,0,0,0,0,-1,559,1534,0,0
-658,-510,0,0,0,0,0,0,0,0,0,-1,566,1534,0,0
-651,-510,0,0,0,0,0,0,0,0,0,-1,573,1534,0,0
-644,-510,0,0,0,0,0,0,0,0,0,-1,580,1534,0,0
-637,-510,0,0,0,0,0,0,0,0,0,-1,587,1534,0,0
-630,-510,0,0,0,0,0,0,0,0,0,-1,594,1534,0,0
-623,-510,0,0,0,0,0,0,0,0,0,-1,601,1534,0,0
-616,-510,0,0,0,0,0,0,0,0,0,-1,608,1534,0,0
-609,-510,0,0,0,0,0,0,0,0,0,-1,615,1534,0,0
-602,-510,0,0,0,0,0,0,0,0,0,-1,622,1534,0,0
-595,-510,0,0,0,0,0,0,0,0,0,-1,629,1534,0,0
-588,-510,0,0,0,0,0,0,0,0,0,-1,636,1534,0,0
-581,-510,0,0,0,0,0,0,0,0,0,-1,643,1534,0,0
-574,-510,0,0,0,0,0,0,0,0,0,-1,650,1534,0,0
-567,-510,0,0,0,0,0,0,0,0,0,-1,657,1534,0,0
-560,-510,0,0,0,0,0,0,0,0,0,-1,664,1534,0,0
-553,-510,0,0,0,0,0,0,0,0,0,-1,671,1534,0,0
-546,-510,0,0,0,0,0,0,0,0,0,-1,678,1534,0,0
-539,-510,0,0,0,0,0,0,0,0,0,-1,685,1534,0,0
-532,-510,-3.95129,4.52014,0,0,0,0,0,0,0,-1,692,1534,-3.95131,-4.5202
-525,-510,-2.77411,0.316772,0,0,0,0,0,0,0,-1,699,1534,-2.77409,-0.3168
-518,-510,-2.86847,2.71423,0,0,0,0,0,0,0,-1,706,1534,-2.86849,-2.71424
-511,-510,-2.28571,4.48083,0,0,0,0,0,0,0,-1,713,1534,-2.28571,-4.48086
-504,-510,-4.86731,10.8224,0,0,0,0,0,0,0,-1,720,1534,-4.8673,-10.8224
-497,-510,-3.42352,15.5178,0,0,0,0,0,0,0,-1,727,1534,-3.42352,-15.5178
-490,-510,-5.9472,18.5184,0,0,0,0,0,0,0,-1,734,1534,-5.94718,-18.5185
-483,-510,-6.79639,20.8453,0,0,0,0,0,0,0,-1,741,1534,-6.79638,-20.8454
-476,-510,-16.0211,37.6001,0,0,0,0,0,0,0,-1,748,1534,-16.021,-37.6001
-469,-510,-76.7733,101.981,0,0,0,0,0,0,0,-1,755,1534,-76.7733,-101.981
-462,-510,-77.7158,105.881,0.0325047,0.0359953,-0.045769,0.0800522,-0.0115522,-0.804456,0.0576063,0.027129,762,1534,-77.7158,-105.881
-455,-510,-78.6517,109.703,0.0295721,0.0309794,-0.0445718,0.0748531,-0.0143015,-0.793291,0.0552893,0.0205877,769,1534,-78.6517,-109.703
-448,-510,-79.7257,113.486,0.0273917,0.0262012,-0.0430912,0.0698918,-0.0162989,-0.778492,0.0528716,0.0187993,776,1534,-79.7257,-113.486
-441,-510,-80.8463,117.474,0.0255662,0.0215328,-0.0415243,0.0651228,-0.0180238,-0.761134,0.0505067,0.0209426,783,1534,-80.8462,-117.474
-434,-510,-81.9479,121.439,0.0239709,0.0169245,-0.0399784,0.060581,-0.0196857,-0.741448,0.0483054,0.0233472,790,1534,-81.9479,-121.439
-427,-510,-82.9231,125.497,0.022731,0.012554,-0.0384237,0.0564017,-0.0211167,-0.719566,0.0462749,0.0380086,797,1534,-82.9231,-125.497
-420,-510,-83.8492,129.57,0.021732,0.00829295,-0.0368724,0.0524921,-0.0224672,-0.695269,0.0444199,0.0337591,804,1534,-83.8492,-129.57
-413,-510,-84.9641,133.881,0.0206155,0.00422914,-0.0355727,0.0489264,-0.0240817,-0.672211,0.0429571,0.0317179,811,1534,-84.964,-133.881
-406,-510,-86.1885,138.18,0,0,0,0,0,0,0,-1,818,1534,-86.1885,-138.18
-399,-510,-81.2313,142.038,0,0,0,0,0,0,0,-1,825,1534,-81.2313,-142.038
-392,-510,-73.9508,144.447,0,0,0,0,0,0,0,-1,832,1534,-73.9508,-144.447
-385,-510,-7.23199,31.704,0,0,0,0,0,0,0,-1,839,1534,-7.23198,-31.704
-378,-510,-1.78308,13.8044,0,0,0,0,0,0,0,-1,846,1534,-1.78309,-13.8044
-371,-510,-1.74982,13.8027,0,0,0,0,0,0,0,-1,853,1534,-1.74981,-13.8028
-364,-510,-1.3479,13.7771,0,0,0,0,0,0,0,-1,860,1534,-1.34791,-13.7771
-357,-510,-0.254395,8.89575,0,0,0,0,0,0,0,-1,867,1534,-0.254397,-8.89569
-350,-510,0.471191,6.06458,0,0,0,0,0,0,0,-1,874,1534,0.47118,-6.06453
-343,-510,-6.96869,26.3074,0,0,0,0,0,0,0,-1,881,1534,-6.9687,-26.3074
-336,-510,-5.60437,29.5996,0,0,0,0,0,0,0,-1,888,1534,-5.60435,-29.5996
-329,-510,-4.87781,20.6893,0,0,0,0,0,0,0,-1,895,1534,-4.87782,-20.6894
-322,-510,-0.251526,11.973,0,0,0,0,0,0,0,-1,902,1534,-0.251497,-11.9731
-315,-510,-1.73047,10.9796,0,0,0,0,0,0,0,-1,909,1534,-1.73049,-10.9796
-308,-510,-2.05328,9.72034,0,0,0,0,0,0,0,-1,916,1534,-2.05327,-9.72036
-301,-510,-1.85437,11.5869,0,0,0,0,0,0,0,-1,923,1534,-1.85437,-11.5869
-294,-510,0,0,0,0,0,0,0,0,0,-1,930,1534,0,0
-287,-510,0,0,0,0,0,0,0,0,0,-1,937,1534,0,0
-280,-510,0,0,0,0,0,0,0,0,0,-1,944,1534,0,0
-273,-510,0,0,0,0,0,0,0,0,0,-1,951,1534,0,0
-266,-510,0,0,0,0,0,0,0,0,0,-1,958,1534,0,0
-259,-510,0,0,0,0,0,0,0,0,0,-1,965,1534,0,0
-252,-510,0,0,0,0,0,0,0,0,0,-1,972,1534,0,0
-245,-510,0,0,0,0,0,0,0,0,0,-1,979,1534,0,0
-238,-510,0,0,0,0,0,0,0,0,0,-1,986,1534,0,0
-231,-510,0,0,0,0,0,0,0,0,0,-1,993,1534,0,0
-224,-510,0,0,0,0,0,0,0,0,0,-1,1000,1534,0,0
-217,-510,0,0,0,0,0,0,0,0,0,-1,1007,1534,0,0
-210,-510,0,0,0,0,0,0,0,0,0,-1,1014,1534,0,0
-203,-510,0,0,0,0,0,0,0,0,0,-1,1021,1534,0,0
-196,-510,0,0,0,0,0,0,0,0,0,-1,1028,1534,0,0
-189,-510,0,0,0,0,0,0,0,0,0,-1,1035,1534,0,0
-182,-510,0,0,0,0,0,0,0,0,0,-1,1042,1534,0,0
-175,-510,0,0,0,0,0,0,0,0,0,-1,1049,1534,0,0
-168,-510,0,0,0,0,0,0,0,0,0,-1,1056,1534,0,0
-161,-510,0,0,0,0,0,0,0,0,0,-1,1063,1534,0,0
-154,-510,0,0,0,0,0,0,0,0,0,-1,1070,1534,0,0
-147,-510,0,0,0,0,0,0,0,0,0,-1,1077,1534,0,0
-140,-510,0,0,0,0,0,0,0,0,0,-1,1084,1534,0,0
-133,-510,0,0,0,0,0,0,0,0,0,-1,1091,1534,0,0
-126,-510,0,0,0,0,0,0,0,0,0,-1,1098,1534,0,0
-119,-510,0,0,0,0,0,0,0,0,0,-1,1105,1534,0,0
-112,-510,0,0,0,0,0,0,0,0,0,-1,1112,1534,0,0
-105,-510,0,0,0,0,0,0,0,0,0,-1,1119,1534,0,0
-98,-510,0,0,0,0,0,0,0,0,0,-1,1126,1534,0,0
-91,-510,0,0,0,0,0,0,0,0,0,-1,1133,1534,0,0
-84,-510,0,0,0,0,0,0,0,0,0,-1,1140,1534,0,0
-77,-510,0,0,0,0,0,0,0,0,0,-1,1147,1534,0,0
-70,-510,0,0,0,0,0,0,0,0,0,-1,1154,1534,0,0
-63,-510,0,0,0,0,0,0,0,0,0,-1,1161,1534,0,0
-56,-510,0,0,0,0,0,0,0,0,0,-1,1168,1534,0,0
-49,-510,0,0,0,0,0,0,0,0,0,-1,1175,1534,0,0
-42,-510,0,0,0,0,0,0,0,0,0,-1,1182,1534,0,0
-35,-510,0,0,0,0,0,0,0,0,0,-1,1189,1534,0,0
-28,-510,0,0,0,0,0,0,0,0,0,-1,1196,1534,0,0
-21,-510,0,0,0,0,0,0,0,0,0,-1,1203,1534,0,0
-14,-510,0,0,0,0,0,0,0,0,0,-1,1210,1534,0,0
-7,-510,0,0,0,0,0,0,0,0,0,-1,1217,1534,0,0
0,-510,0,0,0,0,0,0,0,0,0,-1,1224,1534,0,0
7,-510,0,0,0,0,0,0,0,0,0,-1,1231,1534,0,0
14,-510,0,0,0,0,0,0,0,0,0,-1,1238,1534,0,0
21,-510,0,0,0,0,0,0,0,0,0,-1,1245,1534,0,0
28,-510,0,0,0,0,0,0,0,0,0,-1,1252,1534,0,0
35,-510,0,0,0,0,0,0,0,0,0,-1,1259,1534,0,0
42,-510,0,0,0,0,0,0,0,0,0,-1,1266,1534,0,0
49,-510,0,0,0,0,0,0,0,0,0,-1,1273,1534,0,0
56,-510,0,0,0,0,0,0,0,0,0,-1,1280,1534,0,0
63,-510,0,0,0,0,0,0,0,0,0,-1,1287,1534,0,0
70,-510,0,0,0,0,0,0,0,0,0,-1,1294,1534,0,0
77,-510,0,0,0,0,0,0,0,0,0,-1,1301,1534,0,0
84,-510,0,0,0,0,0,0,0,0,0,-1,1308,1534,0,0
91,-510,0,0,0,0,0,0,0,0,0,-1,1315,1534,0,0
98,-510,0,0,0,0,0,0,0,0,0,-1,1322,1534,0,0
105,-510,0,0,0,0,0,0,0,0,0,-1,1329,1534,0,0
112,-510,0,0,0,0,0,0,0,0,0,-1,1336,1534,0,0
119,-510,0,0,0,0,0,0,0,0,0,-1,1343,1534,0,0
126,-510,0,0,0,0,0,0,0,0,0,-1,1350,1534,0,0
133,-510,0,0,0,0,0,0,0,0,0,-1,1357,1534,0,0
140,-510,0,0,0,0,0,0,0,0,0,-1,1364,1534,0,0
147,-510,0,0,0,0,0,0,0,0,0,-1,1371,1534,0,0
154,-510,0,0,0,0,0,0,0,0,0,-1,1378,1534,0,0
161,-510,0,0,0,0,0,0,0,0,0,-1,1385,1534,0,0
168,-510,0,0,0,0,0,0,0,0,0,-1,1392,1534,0,0
175,-510,0,0,0,0,0,0,0,0,0,-1,1399,1534,0,0
182,-510,0,0,0,0,0,0,0,0,0,-1,1406,1534,0,0
189,-510,0,0,0,0,0,0,0,0,0,-1,1413,1534,0,0
196,-510,0,0,0,0,0,0,0,0,0,-1,1420,1534,0,0
203,-510,0,0,0,0,0,0,0,0,0,-1,1427,1534,0,0
210,-510,0,0,0,0,0,0,0,0,0,-1,1434,1534,0,0
217,-510,0,0,0,0,0,0,0,0,0,-1,1441,1534,0,0
224,-510,0,0,0,0,0,0,0,0,0,-1,1448,1534,0,0
231,-510,0,0,0,0,0,0,0,0,0,-1,1455,1534,0,0
238,-510,0,0,0,0,0,0,0,0,0,-1,1462,1534,0,0
245,-510,0,0,0,0,0,0,0,0,0,-1,1469,1534,0,0
252,-510,0,0,0,0,0,0,0,0,0,-1,1476,1534,0,0
259,-510,0,0,0,0,0,0,0,0,0,-1,1483,1534,0,0
266,-510,0,0,0,0,0,0,0,0,0,-1,1490,1534,0,0
273,-510,0,0,0,0,0,0,0,0,0,-1,1497,1534,0,0
280,-510,0,0,0,0,0,0,0,0,0,-1,1504,1534,0,0
287,-510,0,0,0,0,0,0,0,0,0,-1,1511,1534,0,0
294,-510,0,0,0,0,0,0,0,0,0,-1,1518,1534,0,0
301,-510,0,0,0,0,0,0,0,0,0,-1,1525,1534,0,0
308,-510,0,0,0,0,0,0,0,0,0,-1,1532,1534,0,0
315,-510,0,0,0,0,0,0,0,0,0,-1,1539,1534,0,0
322,-510,0,0,0,0,0,0,0,0,0,-1,1546,1534,0,0
329,-510,0,0,0,0,0,0,0,0,0,-1,1553,1534,0,0
336,-510,0,0,0,0,0,0,0,0,0,-1,1560,1534,0,0
343,-510,0,0,0,0,0,0,0,0,0,-1,1567,1534,0,0
350,-510,0,0,0,0,0,0,0,0,0,-1,1574,1534,0,0
357,-510,0,0,0,0,0,0,0,0,0,-1,1581,1534,0,0
364,-510,0,0,0,0,0,0,0,0,0,-1,1588,1534,0,0
371,-510,0,0,0,0,0,0,0,0,0,-1,1595,1534,0,0
378,-510,0,0,0,0,0,0,0,0,0,-1,1602,1534,0,0
385,-510,0,0,0,0,0,0,0,0,0,-1,1609,1534,0,0
392,-510,0,0,0,0,0,0,0,0,0,-1,1616,1534,0,0
399,-510,0,0,0,0,0,0,0,0,0,-1,1623,1534,0,0
406,-510,0,0,0,0,0,0,0,0,0,-1,1630,1534,0,0
413,-510,0,0,0,0,0,0,0,0,0,-1,1637,1534,0,0
420,-510,14.1888,6.71936,0,0,0,0,0,0,0,-1,1644,1534,14.1889,-6.71939
427,-510,10.2134,5.59485,0,0,0,0,0,0,0,-1,1651,1534,10.2134,-5.59485
434,-510,11.8219,4.07898,0,0,0,0,0,0,0,-1,1658,1534,11.8219,-4.07895
441,-510,12.6812,3.02991,0,0,0,0,0,0,0,-1,1665,1534,12.6811,-3.0299
448,-510,13.2379,2.2804,0,0,0,0,0,0,0,-1,1672,1534,13.2379,-2.28037
455,-510,9.76892,2.20642,0,0,0,0,0,0,0,-1,1679,1534,9.76894,-2.20647
462,-510,9.84692,2.49182,0,0,0,0,0,0,0,-1,1686,1534,9.84695,-2.49185
469,-510,16.6072,7.26941,0,0,0,0,0,0,0,-1,1693,1534,16.6072,-7.26945
476,-510,15.9199,7.8645,0,0,0,0,0,0,0,-1,1700,1534,15.9199,-7.86455
483,-510,13.0833,8.10938,0,0,0,0,0,0,0,-1,1707,1534,13.0833,-8.10932
490,-510,13.0841,15.3286,0,0,0,0,0,0,0,-1,1714,1534,13.0841,-15.3286
497,-510,15.5652,18.823,0,0,0,0,0,0,0,-1,1721,1534,15.5652,-18.823
504,-510,15.998,18.7478,0,0,0,0,0,0,0,-1,1728,1534,15.998,-18.7478
511,-510,15.9443,18.0476,0,0,0,0,0,0,0,-1,1735,1534,15.9443,-18.0476
518,-510,21.5343,27.1368,0,0,0,0,0,0,0,-1,1742,1534,21.5342,-27.1368
525,-510,48.0154,91.9933,0,0,0,0,0,0,0,-1,1749,1534,48.0153,-91.9933
532,-510,72.8895,143.45,0,0,0,0,0,0,0,-1,1756,1534,72.8895,-143.45
539,-510,92.1608,142.172,0,0,0,0,0,0,0,-1,1763,1534,92.1608,-142.172
546,-510,92.7854,137.874,0,0,0,0,0,0,0,-1,1770,1534,92.7855,-137.874
553,-510,91.5242,133.903,0.00917087,-0.00358212,0.0314611,0.0348952,-0.0293065,0.685413,0.0371136,0.0270898,1777,1534,91.5241,-133.903
560,-510,90.2648,129.904,0.0112695,0.0012773,0.0323019,0.0389594,-0.0264126,0.708671,0.0379735,0.0232425,1784,1534,90.2648,-129.904
567,-510,89.0378,125.877,0.0134898,0.0066361,0.033188,0.0434274,-0.0233015,0.733953,0.0391057,0.0224267,1791,1534,89.0378,-125.877
574,-510,87.9196,121.802,0.015873,0.0122883,0.0340821,0.0482099,-0.0200485,0.759128,0.0405116,0.0220668,1798,1534,87.9195,-121.802
581,-510,86.9619,117.951,0.0182704,0.0181949,0.0350083,0.0532409,-0.0167756,0.784859,0.042212,0.0189097,1805,1534,86.962,-117.951
588,-510,85.9355,114.108,0.0207129,0.0242024,0.0359204,0.0584204,-0.0135051,0.809665,0.0441427,0.0197493,1812,1534,85.9356,-114.108
595,-510,85.0009,110.058,0.0232421,0.0301008,0.0369994,0.0638294,-0.0104865,0.831609,0.0464447,0.0412856,1819,1534,85.0009,-110.058
602,-510,84.0123,106.062,0,0,0,0,0,0,0,-1,1826,1534,84.0123,-106.062
609,-510,21.259,19.222,0,0,0,0,0,0,0,-1,1833,1534,21.259,-19.222
616,-510,18.7024,16.2474,0,0,0,0,0,0,0,-1,1840,1534,18.7024,-16.2474
623,-510,19.6013,14.6211,0,0,0,0,0,0,0,-1,1847,1534,19.6013,-14.6211
630,-510,13.7461,9.30334,0,0,0,0,0,0,0,-1,1854,1534,13.7461,-9.30335
637,-510,11.0155,7.38464,0,0,0,0,0,0,0,-1,1861,1534,11.0155,-7.38463
644,-510,11.5809,7.17126,0,0,0,0,0,0,0,-1,1868,1534,11.5809,-7.17123
651,-510,8.70471,3.5061,0,0,0,0,0,0,0,-1,1875,1534,8.70475,-3.50611
658,-510,0,0,0,0,0,0,0,0,0,-1,1882,1534,0,0
665,-510,0,0,0,0,0,0,0,0,0,-1,1889,1534,0,0
672,-510,0,0,0,0,0,0,0,0,0,-1,1896,1534,0,0
679,-510,0,0,0,0,0,0,0,0,0,-1,1903,1534,0,0
686,-510,0,0,0,0,0,0,0,0,0,-1,1910,1534,0,0
693,-510,0,0,0,0,0,0,0,0,0,-1,1917,1534,0,0
700,-510,0,0,0,0,0,0,0,0,0,-1,1924,1534,0,0
707,-510,0,0,0,0,0,0,0,0,0,-1,1931,1534,0,0
714,-510,0,0,0,0,0,0,0,0,0,-1,1938,1534,0,0
721,-510,0,0,0,0,0,0,0,0,0,-1,1945,1534,0,0
728,-510,0,0,0,0,0,0,0,0,0,-1,1952,1534,0,0
735,-510,0,0,0,0,0,0,0,0,0,-1,1959,1534,0,0
742,-510,0,0,0,0,0,0,0,0,0,-1,1966,1534,0,0
749,-510,0,0,0,0,0,0,0,0,0,-1,1973,1534,0,0
756,-510,0,0,0,0,0,0,0,0,0,-1,1980,1534,0,0
763,-510,0,0,0,0,0,0,0,0,0,-1,1987,1534,0,0
770,-510,0,0,0,0,0,0,0,0,0,-1,1994,1534,0,0
777,-510,0,0,0,0,0,0,0,0,0,-1,2001,1534,0,0
784,-510,0,0,0,0,0,0,0,0,0,-1,2008,1534,0,0
791,-510,0,0,0,0,0,0,0,0,0,-1,2015,1534,0,0
798,-510,0,0,0,0,0,0,0,0,0,-1,2022,1534,0,0
805,-510,0,0,0,0,0,0,0,0,0,-1,2029,1534,0,0
812,-510,0,0,0,0,0,0,0,0,0,-1,2036,1534,0,0
-700,-517,0,0,0,0,0,0,0,0,0,-1,524,1541,0,0
-693,-517,0,0,0,0,0,0,0,0,0,-1,531,1541,0,0
-686,-517,0,0,0,0,0,0,0,0,0,-1,538,1541,0,0
-679,-517,0,0,0,0,0,0,0,0,0,-1,545,1541,0,0
-672,-517,0,0,0,0,0,0,0,0,0,-1,552,1541,0,0
-665,-517,0,0,0,0,0,0,0,0,0,-1,559,1541,0,0
-658,-517,0,0,0,0,0,0,0,0,0,-1,566,1541,0,0
-651,-517,0,0,0,0,0,0,0,0,0,-1,573,1541,0,0
-644,-517,0,0,0,0,0,0,0,0,0,-1,580,1541,0,0
-637,-517,0,0,0,0,0,0,0,0,0,-1,587,1541,0,0
-630,-517,0,0,0,0,0,0,0,0,0,-1,594,1541,0,0
-623,-517,0,0,0,0,0,0,0,0,0,-1,601,1541,0,0
-616,-517,0,0,0,0,0,0,0,0,0,-1,608,1541,0,0
-609,-517,0,0,0,0,0,0,0,0,0,-1,615,1541,0,0
-602,-517,0,0,0,0,0,0,0,0,0,-1,622,1541,0,0
-595,-517,0,0,0,0,0,0,0,0,0,-1,629,1541,0,0
-588,-517,0,0,0,0,0,0,0,0,0,-1,636,1541,0,0
-581,-517,0,0,0,0,0,0,0,0,0,-1,643,1541,0,0
-574,-517,0,0,0,0,0,0,0,0,0,-1,650,1541,0,0
-567,-517,0,0,0,0,0,0,0,0,0,-1,657,1541,0,0
-560,-517,0,0,0,0,0,0,0,0,0,-1,664,1541,0,0
-553,-517,0,0,0,0,0,0,0,0,0,-1,671,1541,0,0
-546,-517,0,0,0,0,0,0,0,0,0,-1,678,1541,0,0
-539,-517,0,0,0,0,0,0,0,0,0,-1,685,1541,0,0
-532,-517,0,0,0,0,0,0,0,0,0,-1,692,1541,0,0
-525,-517,-3.62903,4.3606,0,0,0,0,0,0,0,-1,699,1541,-3.62904,-4.36056
-518,-517,-1.664,2.27209,0,0,0,0,0,0,0,-1,706,1541,-1.66399,-2.27207
-511,-517,-0.999146,5.52063,0,0,0,0,0,0,0,-1,713,1541,-0.999126,-5.52059
-504,-517,-1.06946,8.67432,0,0,0,0,0,0,0,-1,720,1541,-1.06947,-8.6743
-497,-517,-5.43036,17.4033,0,0,0,0,0,0,0,-1,727,1541,-5.43033,-17.4034
-490,-517,-6.20526,19.4496,0,0,0,0,0,0,0,-1,734,1541,-6.20526,-19.4495
-483,-517,-6.2254,20.368,0,0,0,0,0,0,0,-1,741,1541,-6.22542,-20.368
-476,-517,-11.8129,32.7147,0,0,0,0,0,0,0,-1,748,1541,-11.8129,-32.7147
-469,-517,-14.6641,38.8503,0,0,0,0,0,0,0,-1,755,1541,-14.6641,-38.8503
-462,-517,-73.1382,107.001,0,0,0,0,0,0,0,-1,762,1541,-73.1382,-107.001
-455,-517,-74.175,110.966,0,0,0,0,0,0,0,-1,769,1541,-74.175,-110.966
-448,-517,-75.1894,114.954,0.0298212,0.0284714,-0.0450622,0.0742136,-0.015921,-0.77791,0.0555485,0.0187215,776,1541,-75.1894,-114.954
-441,-517,-76.2082,118.916,0.0282845,0.0234491,-0.0433304,0.0692647,-0.017531,-0.757529,0.0529956,0.0193919,783,1541,-76.2082,-118.916
-434,-517,-77.2395,122.916,0.0269032,0.0185054,-0.0416886,0.0646038,-0.0191952,-0.735207,0.0506938,0.0251864,790,1541,-77.2395,-122.916
-427,-517,-78.2946,126.961,0.0258554,0.0138454,-0.0400548,0.0603529,-0.020652,-0.710993,0.0486044,0.0226198,797,1541,-78.2945,-126.961
-420,-517,-79.2949,131.071,0.0249883,0.00934371,-0.0384319,0.0563859,-0.0220539,-0.685001,0.0467108,0.032966,804,1541,-79.2949,-131.071
-413,-517,-80.6047,135.318,0.0240293,0.0051598,-0.0371165,0.0528914,-0.0237023,-0.660938,0.0452791,0.0194871,811,1541,-80.6047,-135.319
-406,-517,-81.7669,139.775,0.023033,0.00132914,-0.0361449,0.0499199,-0.0255578,-0.639563,0.0443272,0.0480548,818,1541,-81.7669,-139.775
-399,-517,-82.9279,144.297,0,0,0,0,0,0,0,-1,825,1541,-82.9279,-144.297
-392,-517,-84.6804,148.079,0,0,0,0,0,0,0,-1,832,1541,-84.6804,-148.079
-385,-517,-71.1876,150.088,0,0,0,0,0,0,0,-1,839,1541,-71.1876,-150.088
-378,-517,-6.61444,32.6315,0,0,0,0,0,0,0,-1,846,1541,-6.61445,-32.6315
-371,-517,-1.37585,13.2646,0,0,0,0,0,0,0,-1,853,1541,-1.37586,-13.2647
-364,-517,-1.26245,12.6289,0,0,0,0,0,0,0,-1,860,1541,-1.26243,-12.6289
-357,-517,-1.23889,12.979,0,0,0,0,0,0,0,-1,867,1541,-1.23891,-12.979
-350,-517,-5.40198,23.8954,0,0,0,0,0,0,0,-1,874,1541,-5.40196,-23.8954
-343,-517,-5.45844,29.2598,0,0,0,0,0,0,0,-1,881,1541,-5.45842,-29.2598
-336,-517,-4.53223,29.6708,0,0,0,0,0,0,0,-1,888,1541,-4.53221,-29.6708
-329,-517,-3.60602,30.0817,0,0,0,0,0,0,0,-1,895,1541,-3.60601,-30.0817
-322,-517,-4.21246,19.5819,0,0,0,0,0,0,0,-1,902,1541,-4.21244,-19.5819
-315,-517,-0.987976,7.29749,0,0,0,0,0,0,0,-1,909,1541,-0.987993,-7.29743
-308,-517,3.27911,17.621,0,0,0,0,0,0,0,-1,916,1541,3.27913,-17.621
-301,-517,-1.69141,8.87488,0,0,0,0,0,0,0,-1,923,1541,-1.69141,-8.87485
-294,-517,-1.72583,9.92566,0,0,0,0,0,0,0,-1,930,1541,-1.72584,-9.92571
-287,-517,-3.09045,12.1472,0,0,0,0,0,0,0,-1,937,1541,-3.09043,-12.1472
-280,-517,0,0,0,0,0,0,0,0,0,-1,944,1541,0,0
-273,-517,0,0,0,0,0,0,0,0,0,-1,951,1541,0,0
-266,-517,0,0,0,0,0,0,0,0,0,-1,958,1541,0,0
-259,-517,0,0,0,0,0,0,0,0,0,-1,965,1541,0,0
-252,-517,0,0,0,0,0,0,0,0,0,-1,972,1541,0,0
-245,-517,0,0,0,0,0,0,0,0,0,-1,979,1541,0,0
-238,-517,0,0,0,0,0,0,0,0,0,-1,986,1541,0,0
-231,-517,0,0,0,0,0,0,0,0,0,-1,993,1541,0,0
-224,-517,0,0,0,0,0,0,0,0,0,-1,1000,1541,0,0
-217,-517,0,0,0,0,0,0,0,0,0,-1,1007,1541,0,0
-210,-517,0,0,0,0,0,0,0,0,0,-1,1014,1541,0,0
-203,-517,0,0,0,0,0,0,0,0,0,-1,1021,1541,0,0
-196,-517,0,0,0,0,0,0,0,0,0,-1,1028,1541,0,0
-189,-517,0,0,0,0,0,0,0,0,0,-1,1035,1541,0,0
-182,-517,0,0,0,0,0,0,0,0,0,-1,1042,1541,0,0
-175,-517,0,0,0,0,0,0,0,0,0,-1,1049,1541,0,0
-168,-517,0,0,0,0,0,0,0,0,0,-1,1056,1541,0,0
-161,-517,0,0,0,0,0,0,0,0,0,-1,1063,1541,0,0
-154,-517,0,0,0,0,0,0,0,0,0,-1,1070,1541,0,0
-147,-517,0,0,0,0,0,0,0,0,0,-1,1077,1541,0,0
-140,-517,0,0,0,0,0,0,0,0,0,-1,1084,1541,0,0
-133,-517,0,0,0,0,0,0,0,0,0,-1,1091,1541,0,0
-126,-517,0,0,0,0,0,0,0,0,0,-1,1098,1541,0,0
-119,-517,0,0,0,0,0,0,0,0,0,-1,1105,1541,0,0
-112,-517,0,0,0,0,0,0,0,0,0,-1,1112,1541,0,0
-105,-517,0,0,0,0,0,0,0,0,0,-1,1119,1541,0,0
-98,-517,0,0,0,0,0,0,0,0,0,-1,1126,1541,0,0
-91,-517,0,0,0,0,0,0,0,0,0,-1,1133,1541,0,0
-84,-517,0,0,0,0,0,0,0,0,0,-1,1140,1541,0,0
-77,-517,0,0,0,0,0,0,0,0,0,-1,1147,1541,0,0
-70,-517,0,0,0,0,0,0,0,0,0,-1,1154,1541,0,0
-63,-517,0,0,0,0,0,0,0,0,0,-1,1161,1541,0,0
-56,-517,0,0,0,0,0,0,0,0,0,-1,1168,1541,0,0
-49,-517,0,0,0,0,0,0,0,0,0,-1,1175,1541,0,0
-42,-517,0,0,0,0,0,0,0,0,0,-1,1182,1541,0,0
-35,-517,0,0,0,0,0,0,0,0,0,-1,1189,1541,0,0
-28,-517,0,0,0,0,0,0,0,0,0,-1,1196,1541,0,0
-21,-517,0,0,0,0,0,0,0,0,0,-1,1203,1541,0,0
-14,-517,0,0,0,0,0,0,0,0,0,-1,1210,1541,0,0
-7,-517,0,0,0,0,0,0,0,0,0,-1,1217,1541,0,0
0,-517,0,0,0,0,0,0,0,0,0,-1,1224,1541,0,0
7,-517,0,0,0,0,0,0,0,0,0,-1,1231,1541,0,0
14,-517,0,0,0,0,0,0,0,0,0,-1,1238,1541,0,0
21,-517,0,0,0,0,0,0,0,0,0,-1,1245,1541,0,0
28,-517,0,0,0,0,0,0,0,0,0,-1,1252,1541,0,0
35,-517,0,0,0,0,0,0,0,0,0,-1,1259,1541,0,0
42,-517,0,0,0,0,0,0,0,0,0,-1,1266,1541,0,0
49,-517,0,0,0,0,0,0,0,0,0,-1,1273,1541,0,0
56,-517,0,0,0,0,0,0,0,0,0,-1,1280,1541,0,0
63,-517,0,0,0,0,0,0,0,0,0,-1,1287,1541,0,0
70,-517,0,0,0,0,0,0,0,0,0,-1,1294,1541,0,0
77,-517,0,0,0,0,0,0,0,0,0,-1,1301,1541,0,0
84,-517,0,0,0,0,0,0,0,0,0,-1,1308,1541,0,0
91,-517,0,0,0,0,0,0,0,0,0,-1,1315,1541,0,0
98,-517,0,0,0,0,0,0,0,0,0,-1,1322,1541,0,0
105,-517,0,0,0,0,0,0,0,0,0,-1,1329,1541,0,0
112,-517,0,0,0,0,0,0,0,0,0,-1,1336,1541,0,0
119,-517,0,0,0,0,0,0,0,0,0,-1,1343,1541,0,0
126,-517,0,0,0,0,0,0,0,0,0,-1,1350,1541,0,0
133,-517,0,0,0,0,0,0,0,0,0,-1,1357,1541,0,0
140,-517,0,0,0,0,0,0,0,0,0,-1,1364,1541,0,0
147,-517,0,0,0,0,0,0,0,0,0,-1,1371,1541,0,0
154,-517,0,0,0,0,0,0,0,0,0,-1,1378,1541,0,0
161,-517,0,0,0,0,0,0,0,0,0,-1,1385,1541,0,0
168,-517,0,0,0,0,0,0,0,0,0,-1,1392,1541,0,0
175,-517,0,0,0,0,0,0,0,0,0,-1,1399,1541,0,0
182,-517,0,0,0,0,0,0,0,0,0,-1,1406,1541,0,0
189,-517,0,0,0,0,0,0,0,0,0,-1,1413,1541,0,0
196,-517,0,0,0,0,0,0,0,0,0,-1,1420,1541,0,0
203,-517,0,0,0,0,0,0,0,0,0,-1,1427,1541,0,0
210,-517,0,0,0,0,0,0,0,0,0,-1,1434,1541,0,0
217,-517,0,0,0,0,0,0,0,0,0,-1,1441,1541,0,0
224,-517,0,0,0,0,0,0,0,0,0,-1,1448,1541,0,0
231,-517,0,0,0,0,0,0,0,0,0,-1,1455,1541,0,0
238,-517,0,0,0,0,0,0,0,0,0,-1,1462,1541,0,0
245,-517,0,0,0,0,0,0,0,0,0,-1,1469,1541,0,0
252,-517,0,0,0,0,0,0,0,0,0,-1,1476,1541,0,0
259,-517,0,0,0,0,0,0,0,0,0,-1,1483,1541,0,0
266,-517,0,0,0,0,0,0,0,0,0,-1,1490,1541,0,0
273,-517,0,0,0,0,0,0,0,0,0,-1,1497,1541,0,0
280,-517,0,0,0,0,0,0,0,0,0,-1,1504,1541,0,0
287,-517,0,0,0,0,0,0,0,0,0,-1,1511,1541,0,0
294,-517,0,0,0,0,0,0,0,0,0,-1,1518,1541,0,0
301,-517,0,0,0,0,0,0,0,0,0,-1,1525,1541,0,0
308,-517,0,0,0,0,0,0,0,0,0,-1,1532,1541,0,0
315,-517,0,0,0,0,0,0,0,0,0,-1,1539,1541,0,0
322,-517,0,0,0,0,0,0,0,0,0,-1,1546,1541,0,0
329,-517,0,0,0,0,0,0,0,0,0,-1,1553,1541,0,0
336,-517,0,0,0,0,0,0,0,0,0,-1,1560,1541,0,0
343,-517,0,0,0,0,0,0,0,0,0,-1,1567,1541,0,0
350,-517,0,0,0,0,0,0,0,0,0,-1,1574,1541,0,0
357,-517,0,0,0,0,0,0,0,0,0,-1,1581,1541,0,0
364,-517,0,0,0,0,0,0,0,0,0,-1,1588,1541,0,0
371,-517,0,0,0,0,0,0,0,0,0,-1,1595,1541,0,0
378,-517,0,0,0,0,0,0,0,0,0,-1,1602,1541,0,0
385,-517,0,0,0,0,0,0,0,0,0,-1,1609,1541,0,0
392,-517,0,0,0,0,0,0,0,0,0,-1,1616,1541,0,0
399,-517,0,0,0,0,0,0,0,0,0,-1,1623,1541,0,0
406,-517,13.1395,7.01978,0,0,0,0,0,0,0,-1,1630,1541,13.1396,-7.01981
413,-517,12.8859,6.31592,0,0,0,0,0,0,0,-1,1637,1541,12.8858,-6.31588
420,-517,12.4789,6.20337,0,0,0,0,0,0,0,-1,1644,1541,12.4789,-6.20333
427,-517,11.647,4.66516,0,0,0,0,0,0,0,-1,1651,1541,11.647,-4.66519
434,-517,12.3719,3.92773,0,0,0,0,0,0,0,-1,1658,1541,12.3719,-3.92776
441,-517,13.146,3.14124,0,0,0,0,0,0,0,-1,1665,1541,13.146,-3.14121
448,-517,13.8861,2.36682,0,0,0,0,0,0,0,-1,1672,1541,13.8861,-2.36684
455,-517,13.6012,4.06335,0,0,0,0,0,0,0,-1,1679,1541,13.6012,-4.06335
462,-517,14.8956,7.0752,0,0,0,0,0,0,0,-1,1686,1541,14.8956,-7.07525
469,-517,13.6292,6.87744,0,0,0,0,0,0,0,-1,1693,1541,13.6292,-6.87739
476,-517,17.1632,14.1487,0,0,0,0,0,0,0,-1,1700,1541,17.1632,-14.1487
483,-517,16.5157,15.0776,0,0,0,0,0,0,0,-1,1707,1541,16.5157,-15.0777
490,-517,15.5439,18.0258,0,0,0,0,0,0,0,-1,1714,1541,15.5439,-18.0258
497,-517,16.0292,18.7786,0,0,0,0,0,0,0,-1,1721,1541,16.0291,-18.7786
504,-517,31.0431,47.8639,0,0,0,0,0,0,0,-1,1728,1541,31.0431,-47.8639
511,-517,30.7837,46.1383,0,0,0,0,0,0,0,-1,1735,1541,30.7837,-46.1384
518,-517,58.7113,131.302,0,0,0,0,0,0,0,-1,1742,1541,58.7113,-131.302
525,-517,88.8242,150.176,0,0,0,0,0,0,0,-1,1749,1541,88.8242,-150.176
532,-517,90.2655,146.882,0,0,0,0,0,0,0,-1,1756,1541,90.2655,-146.882
539,-517,89.7307,143.597,0,0,0,0,0,0,0,-1,1763,1541,89.7307,-143.597
546,-517,88.4348,139.55,0,0,0,0,0,0,0,-1,1770,1541,88.4348,-139.55
553,-517,87.1812,135.401,0.0142391,-0.0010383,0.0313686,0.0388856,-0.0256848,0.665965,0.0375386,0.0311949,1777,1541,87.1812,-135.401
560,-517,85.9633,131.226,0.0160744,0.00395228,0.0321812,0.0427603,-0.0227336,0.692318,0.0383977,0.0262593,1784,1541,85.9633,-131.226
567,-517,84.8334,127.258,0.0180334,0.00954184,0.0330811,0.0471401,-0.0195649,0.721575,0.0395938,0.0216915,1791,1541,84.8334,-127.258
574,-517,83.585,123.24,0.0201426,0.0156149,0.0339855,0.0519396,-0.0161821,0.752141,0.0410965,0.0250646,1798,1541,83.585,-123.24
581,-517,82.5234,119.304,0.0223405,0.0219929,0.0348775,0.0570447,-0.0127112,0.782907,0.0428993,0.0291348,1805,1541,82.5234,-119.304
588,-517,81.4951,115.387,0.0247058,0.0285253,0.0357976,0.0624641,-0.00923299,0.812047,0.045037,0.0309138,1812,1541,81.4952,-115.387
595,-517,80.6976,111.191,0,0,0,0,0,0,0,-1,1819,1541,80.6976,-111.191
602,-517,28.1732,28.2633,0,0,0,0,0,0,0,-1,1826,1541,28.1733,-28.2633
609,-517,12.6417,10.8751,0,0,0,0,0,0,0,-1,1833,1541,12.6417,-10.8751
616,-517,14.205,10.3193,0,0,0,0,0,0,0,-1,1840,1541,14.205,-10.3194
623,-517,12.578,10.0779,0,0,0,0,0,0,0,-1,1847,1541,12.578,-10.0779
630,-517,11.7035,7.47815,0,0,0,0,0,0,0,-1,1854,1541,11.7035,-7.47812
637,-517,11.5172,5.79822,0,0,0,0,0,0,0,-1,1861,1541,11.5173,-5.79825
644,-517,11.4232,3.30579,0,0,0,0,0,0,0,-1,1868,1541,11.4232,-3.30574
651,-517,0,0,0,0,0,0,0,0,0,-1,1875,1541,0,0
658,-517,0,0,0,0,0,0,0,0,0,-1,1882,1541,0,0
665,-517,0,0,0,0,0,0,0,0,0,-1,1889,1541,0,0
672,-517,0,0,0,0,0,0,0,0,0,-1,1896,1541,0,0
679,-517,0,0,0,0,0,0,0,0,0,-1,1903,1541,0,0
686,-517,0,0,0,0,0,0,0,0,0,-1,1910,1541,0,0
693,-517,0,0,0,0,0,0,0,0,0,-1,1917,1541,0,0
700,-517,0,0,0,0,0,0,0,0,0,-1,1924,1541,0,0
707,-517,0,0,0,0,0,0,0,0,0,-1,1931,1541,0,0
714,-517,0,0,0,0,0,0,0,0,0,-1,1938,1541,0,0
721,-517,0,0,0,0,0,0,0,0,0,-1,1945,1541,0,0
728,-517,0,0,0,0,0,0,0,0,0,-1,1952,1541,0,0
735,-517,0,0,0,0,0,0,0,0,0,-1,1959,1541,0,0
742,-517,0,0,0,0,0,0,0,0,0,-1,1966,1541,0,0
749,-517,0,0,0,0,0,0,0,0,0,-1,1973,1541,0,0
756,-517,0,0,0,0,0,0,0,0,0,-1,1980,1541,0,0
763,-517,0,0,0,0,0,0,0,0,0,-1,1987,1541,0,0
770,-517,0,0,0,0,0,0,0,0,0,-1,1994,1541,0,0
777,-517,0,0,0,0,0,0,0,0,0,-1,2001,1541,0,0
784,-517,0,0,0,0,0,0,0,0,0,-1,2008,1541,0,0
791,-517,0,0,0,0,0,0,0,0,0,-1,2015,1541,0,0
798,-517,0,0,0,0,0,0,0,0,0,-1,2022,1541,0,0
805,-517,0,0,0,0,0,0,0,0,0,-1,2029,1541,0,0
812,-517,0,0,0,0,0,0,0,0,0,-1,2036,1541,0,0
-700,-524,0,0,0,0,0,0,0,0,0,-1,524,1548,0,0
-693,-524,0,0,0,0,0,0,0,0,0,-1,531,1548,0,0
-686,-524,0,0,0,0,0,0,0,0,0,-1,538,1548,0,0
-679,-524,0,0,0,0,0,0,0,0,0,-1,545,1548,0,0
-672,-524,0,0,0,0,0,0,0,0,0,-1,552,1548,0,0
-665,-524,0,0,0,0,0,0,0,0,0,-1,559,1548,0,0
-658,-524,0,0,0,0,0,0,0,0,0,-1,566,1548,0,0
-651,-524,0,0,0,0,0,0,0,0,0,-1,573,1548,0,0
-644,-524,0,0,0,0,0,0,0,0,0,-1,580,1548,0,0
-637,-524,0,0,0,0,0,0,0,0,0,-1,587,1548,0,0
-630,-524,0,0,0,0,0,0,0,0,0,-1,594,1548,0,0
-623,-524,0,0,0,0,0,0,0,0,0,-1,601,1548,0,0
-616,-524,0,0,0,0,0,0,0,0,0,-1,608,1548,0,0
-609,-524,0,0,0,0,0,0,0,0,0,-1,615,1548,0,0
-602,-524,0,0,0,0,0,0,0,0,0,-1,622,1548,0,0
-595,-524,0,0,0,0,0,0,0,0,0,-1,629,1548,0,0
-588,-524,0,0,0,0,0,0,0,0,0,-1,636,1548,0,0
-581,-524,0,0,0,0,0,0,0,0,0,-1,643,1548,0,0
-574,-524,0,0,0,0,0,0,0,0,0,-1,650,1548,0,0
-567,-524,0,0,0,0,0,0,0,0,0,-1,657,1548,0,0
-560,-524,0,0,0,0,0,0,0,0,0,-1,664,1548,0,0
-553,-524,0,0,0,0,0,0,0,0,0,-1,671,1548,0,0
-546,-524,0,0,0,0,0,0,0,0,0,-1,678,1548,0,0
-539,-524,0,0,0,0,0,0,0,0,0,-1,685,1548,0,0
-532,-524,0,0,0,0,0,0,0,0,0,-1,692,1548,0,0
-525,-524,-0.215515,3.97131,0,0,0,0,0,0,0,-1,699,1548,-0.215501,-3.97136
-518,-524,-0.806274,4.35632,0,0,0,0,0,0,0,-1,706,1548,-0.806259,-4.35633
-511,-524,-1.08301,4.29004,0,0,0,0,0,0,0,-1,713,1548,-1.08301,-4.29006
-504,-524,-1.28821,3.98145,0,0,0,0,0,0,0,-1,720,1548,-1.28822,-3.98151
-497,-524,-0.328491,8.63416,0,0,0,0,0,0,0,-1,727,1548,-0.328487,-8.63411
-490,-524,-6.65582,19.3033,0,0,0,0,0,0,0,-1,734,1548,-6.65583,-19.3034
-483,-524,-7.57153,22.1989,0,0,0,0,0,0,0,-1,741,1548,-7.57151,-22.1988
-476,-524,-8.51898,26.7598,0,0,0,0,0,0,0,-1,748,1548,-8.51897,-26.7597
-469,-524,-11.4355,33.9093,0,0,0,0,0,0,0,-1,755,1548,-11.4355,-33.9093
-462,-524,-12.2963,37.6239,0,0,0,0,0,0,0,-1,762,1548,-12.2963,-37.6238
-455,-524,-47.2639,103.062,0,0,0,0,0,0,0,-1,769,1548,-47.2639,-103.062
-448,-524,-70.6387,116.468,0,0,0,0,0,0,0,-1,776,1548,-70.6387,-116.468
-441,-524,-71.5663,120.402,0.030619,0.025391,-0.0448968,0.0729778,-0.0169678,-0.75632,0.0551843,0.0200509,783,1548,-71.5663,-120.402
-434,-524,-72.5486,124.471,0.0294266,0.0200943,-0.0431096,0.0681218,-0.018601,-0.731488,0.0527203,0.0255648,790,1548,-72.5486,-124.471
-427,-524,-73.5982,128.549,0.0285198,0.0151082,-0.0413484,0.0637026,-0.0200746,-0.705009,0.0505077,0.0247567,797,1548,-73.5982,-128.549
-420,-524,-74.838,132.681,0.0277413,0.0103646,-0.0396382,0.0596322,-0.0215262,-0.677508,0.0485479,0.0425307,804,1548,-74.8379,-132.681
-413,-524,-76.1523,136.945,0.0268958,0.00602772,-0.0382783,0.0561366,-0.0232131,-0.652339,0.0471088,0.0405408,811,1548,-76.1524,-136.945
-406,-524,-77.2533,141.352,0.0259944,0.002138,-0.0372632,0.053192,-0.0250596,-0.630498,0.0461415,0.0211812,818,1548,-77.2533,-141.352
-399,-524,-78.3793,145.721,0.0248205,-0.0013243,-0.0366678,0.0506764,-0.0271802,-0.614167,0.0456278,0.0241062,825,1548,-78.3794,-145.721
-392,-524,-79.7438,149.806,0.0231653,-0.00425416,-0.0368796,0.048801,-0.0298898,-0.607442,0.0458674,0.0298722,832,1548,-79.7438,-149.806
-385,-524,-81.2296,153.849,0,0,0,0,0,0,0,-1,839,1548,-81.2296,-153.849
-378,-524,-66.5356,155.954,0,0,0,0,0,0,0,-1,846,1548,-66.5356,-155.954
-371,-524,-4.20789,29.1592,0,0,0,0,0,0,0,-1,853,1548,-4.2079,-29.1592
-364,-524,-0.712097,14.9871,0,0,0,0,0,0,0,-1,860,1548,-0.712116,-14.9871
-357,-524,-1.34052,14.7448,0,0,0,0,0,0,0,-1,867,1548,-1.34054,-14.7447
-350,-524,-4.31909,25.032,0,0,0,0,0,0,0,-1,874,1548,-4.31906,-25.0319
-343,-524,-3.69696,28.6923,0,0,0,0,0,0,0,-1,881,1548,-3.69694,-28.6922
-336,-524,-3.4873,29.655,0,0,0,0,0,0,0,-1,888,1548,-3.48728,-29.6551
-329,-524,-3.21936,30.5509,0,0,0,0,0,0,0,-1,895,1548,-3.21933,-30.5509
-322,-524,-4.31378,25.6389,0,0,0,0,0,0,0,-1,902,1548,-4.31379,-25.639
-315,-524,-1.90839,19.4824,0,0,0,0,0,0,0,-1,909,1548,-1.90838,-19.4824
-308,-524,-2.36938,19.3059,0,0,0,0,0,0,0,-1,916,1548,-2.3694,-19.3058
-301,-524,2.72394,17.7618,0,0,0,0,0,0,0,-1,923,1548,2.72396,-17.7619
-294,-524,-1.52515,9.05408,0,0,0,0,0,0,0,-1,930,1548,-1.52512,-9.05411
-287,-524,-0.962219,10.3199,0,0,0,0,0,0,0,-1,937,1548,-0.962241,-10.32
-280,-524,-1.36255,10.3859,0,0,0,0,0,0,0,-1,944,1548,-1.36253,-10.3859
-273,-524,0,0,0,0,0,0,0,0,0,-1,951,1548,0,0
-266,-524,0,0,0,0,0,0,0,0,0,-1,958,1548,0,0
-259,-524,0,0,0,0,0,0,0,0,0,-1,965,1548,0,0
-252,-524,0,0,0,0,0,0,0,0,0,-1,972,1548,0,0
-245,-524,0,0,0,0,0,0,0,0,0,-1,979,1548,0,0
-238,-524,0,0,0,0,0,0,0,0,0,-1,986,1548,0,0
-231,-524,0,0,0,0,0,0,0,0,0,-1,993,1548,0,0
-224,-524,0,0,0,0,0,0,0,0,0,-1,1000,1548,0,0
-217,-524,0,0,0,0,0,0,0,0,0,-1,1007,1548,0,0
-210,-524,0,0,0,0,0,0,0,0,0,-1,1014,1548,0,0
-203,-524,0,0,0,0,0,0,0,0,0,-1,1021,1548,0,0
-196,-524,0,0,0,0,0,0,0,0,0,-1,1028,1548,0,0
-189,-524,0,0,0,0,0,0,0,0,0,-1,1035,1548,0,0
-182,-524,0,0,0,0,0,0,0,0,0,-1,1042,1548,0,0
-175,-524,0,0,0,0,0,0,0,0,0,-1,1049,1548,0,0
-168,-524,0,0,0,0,0,0,0,0,0,-1,1056,1548,0,0
-161,-524,0,0,0,0,0,0,0,0,0,-1,1063,1548,0,0
-154,-524,0,0,0,0,0,0,0,0,0,-1,1070,1548,0,0
-147,-524,0,0,0,0,0,0,0,0,0,-1,1077,1548,0,0
-140,-524,0,0,0,0,0,0,0,0,0,-1,1084,1548,0,0
-133,-524,0,0,0,0,0,0,0,0,0,-1,1091,1548,0,0
-126,-524,0,0,0,0,0,0,0,0,0,-1,1098,1548,0,0
-119,-524,0,0,0,0,0,0,0,0,0,-1,1105,1548,0,0
-112,-524,0,0,0,0,0,0,0,0,0,-1,1112,1548,0,0
-105,-524,0,0,0,0,0,0,0,0,0,-1,1119,1548,0,0
-98,-524,0,0,0,0,0,0,0,0,0,-1,1126,1548,0,0
-91,-524,0,0,0,0,0,0,0,0,0,-1,1133,1548,0,0
-84,-524,0,0,0,0,0,0,0,0,0,-1,1140,1548,0,0
-77,-524,0,0,0,0,0,0,0,0,0,-1,1147,1548,0,0
-70,-524,0,0,0,0,0,0,0,0,0,-1,1154,1548,0,0
-63,-524,0,0,0,0,0,0,0,0,0,-1,1161,1548,0,0
-56,-524,0,0,0,0,0,0,0,0,0,-1,1168,1548,0,0
-49,-524,0,0,0,0,0,0,0,0,0,-1,1175,1548,0,0
-42,-524,0,0,0,0,0,0,0,0,0,-1,1182,1548,0,0
-35,-524,0,0,0,0,0,0,0,0,0,-1,1189,1548,0,0
-28,-524,0,0,0,0,0,0,0,0,0,-1,1196,1548,0,0
-21,-524,0,0,0,0,0,0,0,0,0,-1,1203,1548,0,0
-14,-524,0,0,0,0,0,0,0,0,0,-1,1210,1548,0,0
-7,-524,0,0,0,0,0,0,0,0,0,-1,1217,1548,0,0
0,-524,0,0,0,0,0,0,0,0,0,-1,1224,1548,0,0
7,-524,0,0,0,0,0,0,0,0,0,-1,1231,1548,0,0
14,-524,0,0,0,0,0,0,0,0,0,-1,1238,1548,0,0
21,-524,0,0,0,0,0,0,0,0,0,-1,1245,1548,0,0
28,-524,0,0,0,0,0,0,0,0,0,-1,1252,1548,0,0
35,-524,0,0,0,0,0,0,0,0,0,-1,1259,1548,0,0
42,-524,0,0,0,0,0,0,0,0,0,-1,1266,1548,0,0
49,-524,0,0,0,0,0,0,0,0,0,-1,1273,1548,0,0
56,-524,0,0,0,0,0,0,0,0,0,-1,1280,1548,0,0
63,-524,0,0,0,0,0,0,0,0,0,-1,1287,1548,0,0
70,-524,0,0,0,0,0,0,0,0,0,-1,1294,1548,0,0
77,-524,0,0,0,0,0,0,0,0,0,-1,1301,1548,0,0
84,-524,0,0,0,0,0,0,0,0,0,-1,1308,1548,0,0
91,-524,0,0,0,0,0,0,0,0,0,-1,1315,1548,0,0
98,-524,0,0,0,0,0,0,0,0,0,-1,1322,1548,0,0
105,-524,0,0,0,0,0,0,0,0,0,-1,1329,1548,0,0
112,-524,0,0,0,0,0,0,0,0,0,-1,1336,1548,0,0
119,-524,0,0,0,0,0,0,0,0,0,-1,1343,1548,0,0
126,-524,0,0,0,0,0,0,0,0,0,-1,1350,1548,0,0
133,-524,0,0,0,0,0,0,0,0,0,-1,1357,1548,0,0
140,-524,0,0,0,0,0,0,0,0,0,-1,1364,1548,0,0
147,-524,0,0,0,0,0,0,0,0,0,-1,1371,1548,0,0
154,-524,0,0,0,0,0,0,0,0,0,-1,1378,1548,0,0
161,-524,0,0,0,0,0,0,0,0,0,-1,1385,1548,0,0
168,-524,0,0,0,0,0,0,0,0,0,-1,1392,1548,0,0
175,-524,0,0,0,0,0,0,0,0,0,-1,1399,1548,0,0
182,-524,0,0,0,0,0,0,0,0,0,-1,1406,1548,0,0
189,-524,0,0,0,0,0,0,0,0,0,-1,1413,1548,0,0
196,-524,0,0,0,0,0,0,0,0,0,-1,1420,1548,0,0
203,-524,0,0,0,0,0,0,0,0,0,-1,1427,1548,0,0
210,-524,0,0,0,0,0,0,0,0,0,-1,1434,1548,0,0
217,-524,0,0,0,0,0,0,0,0,0,-1,1441,1548,0,0
224,-524,0,0,0,0,0,0,0,0,0,-1,1448,1548,0,0
231,-524,0,0,0,0,0,0,0,0,0,-1,1455,1548,0,0
238,-524,0,0,0,0,0,0,0,0,0,-1,1462,1548,0,0
245,-524,0,0,0,0,0,0,0,0,0,-1,1469,1548,0,0
252,-524,0,0,0,0,0,0,0,0,0,-1,1476,1548,0,0
259,-524,0,0,0,0,0,0,0,0,0,-1,1483,1548,0,0
266,-524,0,0,0,0,0,0,0,0,0,-1,1490,1548,0,0
273,-524,0,0,0,0,0,0,0,0,0,-1,1497,1548,0,0
280,-524,0,0,0,0,0,0,0,0,0,-1,1504,1548,0,0
287,-524,0,0,0,0,0,0,0,0,0,-1,1511,1548,0,0
294,-524,0,0,0,0,0,0,0,0,0,-1,1518,1548,0,0
301,-524,0,0,0,0,0,0,0,0,0,-1,1525,1548,0,0
308,-524,0,0,0,0,0,0,0,0,0,-1,1532,1548,0,0
315,-524,0,0,0,0,0,0,0,0,0,-1,1539,1548,0,0
322,-524,0,0,0,0,0,0,0,0,0,-1,1546,1548,0,0
329,-524,0,0,0,0,0,0,0,0,0,-1,1553,1548,0,0
336,-524,0,0,0,0,0,0,0,0,0,-1,1560,1548,0,0
343,-524,0,0,0,0,0,0,0,0,0,-1,1567,1548,0,0
350,-524,0,0,0,0,0,0,0,0,0,-1,1574,1548,0,0
357,-524,0,0,0,0,0,0,0,0,0,-1,1581,1548,0,0
364,-524,0,0,0,0,0,0,0,0,0,-1,1588,1548,0,0
371,-524,0,0,0,0,0,0,0,0,0,-1,1595,1548,0,0
378,-524,0,0,0,0,0,0,0,0,0,-1,1602,1548,0,0
385,-524,0,0,0,0,0,0,0,0,0,-1,1609,1548,0,0
392,-524,0,0,0,0,0,0,0,0,0,-1,1616,1548,0,0
399,-524,8.81848,5.05774,0,0,0,0,0,0,0,-1,1623,1548,8.81843,-5.05769
406,-524,8.64294,6.06799,0,0,0,0,0,0,0,-1,1630,1548,8.6429,-6.06805
413,-524,11.677,6.41858,0,0,0,0,0,0,0,-1,1637,1548,11.677,-6.41864
420,-524,11.4913,6.36401,0,0,0,0,0,0,0,-1,1644,1548,11.4913,-6.36402
427,-524,7.68335,6.17249,0,0,0,0,0,0,0,-1,1651,1548,7.68341,-6.17245
434,-524,10.432,11.6801,0,0,0,0,0,0,0,-1,1658,1548,10.432,-11.68
441,-524,8.78552,4.12305,0,0,0,0,0,0,0,-1,1665,1548,8.78553,-4.12301
448,-524,14.1854,4.78674,0,0,0,0,0,0,0,-1,1672,1548,14.1854,-4.78674
455,-524,12.4784,3.65576,0,0,0,0,0,0,0,-1,1679,1548,12.4784,-3.65572
462,-524,14.7551,9.29395,0,0,0,0,0,0,0,-1,1686,1548,14.7552,-9.29397
469,-524,16.3314,14.3779,0,0,0,0,0,0,0,-1,1693,1548,16.3314,-14.3779
476,-524,15.9106,15.1875,0,0,0,0,0,0,0,-1,1700,1548,15.9107,-15.1876
483,-524,15.2776,16.2268,0,0,0,0,0,0,0,-1,1707,1548,15.2776,-16.2269
490,-524,15.2563,18.5848,0,0,0,0,0,0,0,-1,1714,1548,15.2564,-18.5848
497,-524,30.566,48.7196,0,0,0,0,0,0,0,-1,1721,1548,30.566,-48.7196
504,-524,33.686,57.3251,0,0,0,0,0,0,0,-1,1728,1548,33.686,-57.3251
511,-524,70.3597,158.365,0,0,0,0,0,0,0,-1,1735,1548,70.3598,-158.365
518,-524,85.4141,156.708,0,0,0,0,0,0,0,-1,1742,1548,85.414,-156.708
525,-524,87.4973,154.122,0,0,0,0,0,0,0,-1,1749,1548,87.4974,-154.122
532,-524,86.5317,149.413,0,0,0,0,0,0,0,-1,1756,1548,86.5318,-149.413
539,-524,85.2042,145.556,0.0158909,-0.00510319,0.0296643,0.0368606,-0.0260729,0.615343,0.0365122,0.0356209,1763,1548,85.2043,-145.556
546,-524,83.9661,141.416,0.0171463,-0.0023761,0.0301447,0.0390709,-0.0243006,0.62882,0.0369173,0.0203109,1770,1548,83.966,-141.416
553,-524,82.8478,137.269,0.0186984,0.00159098,0.0308304,0.0421397,-0.0218503,0.650079,0.0375585,0.0341714,1777,1548,82.8478,-137.269
560,-524,81.7314,132.722,0.0203509,0.00674735,0.0316505,0.0459222,-0.018824,0.679557,0.0384571,0.0474234,1784,1548,81.7315,-132.722
567,-524,80.4258,128.714,0.0221588,0.0125628,0.0325884,0.0503004,-0.0155789,0.712308,0.0397574,0.0305666,1791,1548,80.4258,-128.714
574,-524,79.1854,124.7,0.0241095,0.0190528,0.0335578,0.0552341,-0.0120717,0.747798,0.041437,0.0282378,1798,1548,79.1854,-124.7
581,-524,78.0353,120.584,0.0262646,0.0258515,0.0344732,0.0605319,-0.00841579,0.782403,0.0434325,0.0323606,1805,1548,78.0352,-120.584
588,-524,77.0743,116.619,0,0,0,0,0,0,0,-1,1812,1548,77.0743,-116.619
595,-524,36.1853,49.8848,0,0,0,0,0,0,0,-1,1819,1548,36.1853,-49.8847
602,-524,13.837,12.0682,0,0,0,0,0,0,0,-1,1826,1548,13.837,-12.0683
609,-524,13.0056,10.5138,0,0,0,0,0,0,0,-1,1833,1548,13.0056,-10.5138
616,-524,11.6941,8.65515,0,0,0,0,0,0,0,-1,1840,1548,11.6941,-8.65514
623,-524,9.38452,5.15356,0,0,0,0,0,0,0,-1,1847,1548,9.38456,-5.15359
630,-524,11.0541,3.57434,0,0,0,0,0,0,0,-1,1854,1548,11.0541,-3.57438
637,-524,11.6067,3.20728,0,0,0,0,0,0,0,-1,1861,1548,11.6067,-3.20724
644,-524,12.2134,0.727173,0,0,0,0,0,0,0,-1,1868,1548,12.2134,-0.727222
651,-524,0,0,0,0,0,0,0,0,0,-1,1875,1548,0,0
658,-524,0,0,0,0,0,0,0,0,0,-1,1882,1548,0,0
665,-524,0,0,0,0,0,0,0,0,0,-1,1889,1548,0,0
672,-524,0,0,0,0,0,0,0,0,0,-1,1896,1548,0,0
679,-524,0,0,0,0,0,0,0,0,0,-1,1903,1548,0,0
686,-524,0,0,0,0,0,0,0,0,0,-1,1910,1548,0,0
693,-524,0,0,0,0,0,0,0,0,0,-1,1917,1548,0,0
700,-524,0,0,0,0,0,0,0,0,0,-1,1924,1548,0,0
707,-524,0,0,0,0,0,0,0,0,0,-1,1931,1548,0,0
714,-524,0,0,0,0,0,0,0,0,0,-1,1938,1548,0,0
721,-524,0,0,0,0,0,0,0,0,0,-1,1945,1548,0,0
728,-524,0,0,0,0,0,0,0,0,0,-1,1952,1548,0,0
735,-524,0,0,0,0,0,0,0,0,0,-1,1959,1548,0,0
742,-524,0,0,0,0,0,0,0,0,0,-1,1966,1548,0,0
749,-524,0,0,0,0,0,0,0,0,0,-1,1973,1548,0,0
756,-524,0,0,0,0,0,0,0,0,0,-1,1980,1548,0,0
763,-524,0,0,0,0,0,0,0,0,0,-1,1987,1548,0,0
770,-524,0,0,0,0,0,0,0,0,0,-1,1994,1548,0,0
777,-524,0,0,0,0,0,0,0,0,0,-1,2001,1548,0,0
784,-524,0,0,0,0,0,0,0,0,0,-1,2008,1548,0,0
791,-524,0,0,0,0,0,0,0,0,0,-1,2015,1548,0,0
798,-524,0,0,0,0,0,0,0,0,0,-1,2022,1548,0,0
805,-524,0,0,0,0,0,0,0,0,0,-1,2029,1548,0,0
812,-524,0,0,0,0,0,0,0,0,0,-1,2036,1548,0,0
-700,-531,0,0,0,0,0,0,0,0,0,-1,524,1555,0,0
-693,-531,0,0,0,0,0,0,0,0,0,-1,531,1555,0,0
-686,-531,0,0,0,0,0,0,0,0,0,-1,538,1555,0,0
-679,-531,0,0,0,0,0,0,0,0,0,-1,545,1555,0,0
-672,-531,0,0,0,0,0,0,0,0,0,-1,552,1555,0,0
-665,-531,0,0,0,0,0,0,0,0,0,-1,559,1555,0,0
-658,-531,0,0,0,0,0,0,0,0,0,-1,566,1555,0,0
-651,-531,0,0,0,0,0,0,0,0,0,-1,573,1555,0,0
-644,-531,0,0,0,0,0,0,0,0,0,-1,580,1555,0,0
-637,-531,0,0,0,0,0,0,0,0,0,-1,587,1555,0,0
-630,-531,0,0,0,0,0,0,0,0,0,-1,594,1555,0,0
-623,-531,0,0,0,0,0,0,0,0,0,-1,601,1555,0,0
-616,-531,0,0,0,0,0,0,0,0,0,-1,608,1555,0,0
-609,-531,0,0,0,0,0,0,0,0,0,-1,615,1555,0,0
-602,-531,0,0,0,0,0,0,0,0,0,-1,622,1555,0,0
-595,-531,0,0,0,0,0,0,0,0,0,-1,629,1555,0,0
-588,-531,0,0,0,0,0,0,0,0,0,-1,636,1555,0,0
-581,-531,0,0,0,0,0,0,0,0,0,-1,643,1555,0,0
-574,-531,0,0,0,0,0,0,0,0,0,-1,650,1555,0,0
-567,-531,0,0,0,0,0,0,0,0,0,-1,657,1555,0,0
-560,-531,0,0,0,0,0,0,0,0,0,-1,664,1555,0,0
-553,-531,0,0,0,0,0,0,0,0,0,-1,671,1555,0,0
-546,-531,0,0,0,0,0,0,0,0,0,-1,678,1555,0,0
-539,-531,0,0,0,0,0,0,0,0,0,-1,685,1555,0,0
-532,-531,0,0,0,0,0,0,0,0,0,-1,692,1555,0,0
-525,-531,0,0,0,0,0,0,0,0,0,-1,699,1555,0,0
-518,-531,-1.63983,4.03821,0,0,0,0,0,0,0,-1,706,1555,-1.63982,-4.03821
-511,-531,-2.9682,8.07483,0,0,0,0,0,0,0,-1,713,1555,-2.9682,-8.07479
-504,-531,-2.95978,0.557861,0,0,0,0,0,0,0,-1,720,1555,-2.95978,-0.557917
-497,-531,-2.46039,8.07422,0,0,0,0,0,0,0,-1,727,1555,-2.46039,-8.07423
-490,-531,-0.423462,7.92065,0,0,0,0,0,0,0,-1,734,1555,-0.42344,-7.92066
-483,-531,-7.50745,20.1915,0,0,0,0,0,0,0,-1,741,1555,-7.50744,-20.1915
-476,-531,-7.69647,23.6229,0,0,0,0,0,0,0,-1,748,1555,-7.6965,-23.6229
-469,-531,-8.2475,27.6931,0,0,0,0,0,0,0,-1,755,1555,-8.2475,-27.6931
-462,-531,-7.27551,28.5044,0,0,0,0,0,0,0,-1,762,1555,-7.27551,-28.5044
-455,-531,-11.3782,37.1852,0,0,0,0,0,0,0,-1,769,1555,-11.3782,-37.1852
-448,-531,-66.027,117.613,0,0,0,0,0,0,0,-1,776,1555,-66.027,-117.613
-441,-531,-66.9391,121.831,0.0322284,0.0271615,-0.046129,0.0758935,-0.0165035,-0.757965,0.0569003,0.0367159,783,1555,-66.9392,-121.831
-434,-531,-67.9447,126.043,0.0314072,0.0215417,-0.044178,0.070927,-0.0179781,-0.729801,0.054279,0.0228753,790,1555,-67.9447,-126.043
-427,-531,-69.0422,130.227,0.0307014,0.0162586,-0.0422738,0.0663662,-0.0194061,-0.700803,0.0519358,0.023063,797,1555,-69.0422,-130.227
-420,-531,-70.3432,134.369,0.0300742,0.0113395,-0.0405072,0.0622831,-0.0208694,-0.67177,0.0499534,0.0388856,804,1555,-70.3432,-134.369
-413,-531,-71.5804,138.659,0.0294241,0.00690127,-0.0391095,0.0588612,-0.0225358,-0.645217,0.0485294,0.0373741,811,1555,-71.5805,-138.659
-406,-531,-72.6693,142.996,0.0286416,0.00296847,-0.0380781,0.0559886,-0.0243785,-0.622824,0.0475813,0.0205451,818,1555,-72.6692,-142.996
-399,-531,-73.8065,147.386,0.0276661,-0.000510208,-0.0374929,0.0536303,-0.0264744,-0.605682,0.047126,0.0221019,825,1555,-73.8064,-147.386
-392,-531,-75.1563,151.609,0.0262895,-0.00338847,-0.0376057,0.0518781,-0.028977,-0.597479,0.0473018,0.025653,832,1555,-75.1563,-151.609
-385,-531,-76.7062,155.733,0,0,0,0,0,0,0,-1,839,1555,-76.7062,-155.733
-378,-531,-67.2928,159.884,0,0,0,0,0,0,0,-1,846,1555,-67.2929,-159.884
-371,-531,-68.6048,163.48,0,0,0,0,0,0,0,-1,853,1555,-68.6048,-163.48
-364,-531,-56.2264,150.687,0,0,0,0,0,0,0,-1,860,1555,-56.2264,-150.687
-357,-531,-4.29193,31.5354,0,0,0,0,0,0,0,-1,867,1555,-4.29191,-31.5354
-350,-531,-3.16101,27.5791,0,0,0,0,0,0,0,-1,874,1555,-3.16099,-27.5791
-343,-531,-2.90552,28.561,0,0,0,0,0,0,0,-1,881,1555,-2.90549,-28.5611
-336,-531,-2.6698,29.5398,0,0,0,0,0,0,0,-1,888,1555,-2.66983,-29.5398
-329,-531,-2.45148,30.4781,0,0,0,0,0,0,0,-1,895,1555,-2.45148,-30.4781
-322,-531,-3.25092,28.4921,0,0,0,0,0,0,0,-1,902,1555,-3.25092,-28.4921
-315,-531,-5.51929,31.7814,0,0,0,0,0,0,0,-1,909,1555,-5.51928,-31.7813
-308,-531,-1.66455,19.0624,0,0,0,0,0,0,0,-1,916,1555,-1.66455,-19.0623
-301,-531,-2.02405,18.8912,0,0,0,0,0,0,0,-1,923,1555,-2.02407,-18.8913
-294,-531,-1.3244,8.1825,0,0,0,0,0,0,0,-1,930,1555,-1.3244,-8.18251
-287,-531,-1.78192,10.1661,0,0,0,0,0,0,0,-1,937,1555,-1.78192,-10.1661
-280,-531,-2.14508,10.3945,0,0,0,0,0,0,0,-1,944,1555,-2.14506,-10.3945
-273,-531,-2.50818,10.6229,0,0,0,0,0,0,0,-1,951,1555,-2.5082,-10.6229
-266,-531,-4.97742,17.9215,0,0,0,0,0,0,0,-1,958,1555,-4.97744,-17.9215
-259,-531,0,0,0,0,0,0,0,0,0,-1,965,1555,0,0
-252,-531,0,0,0,0,0,0,0,0,0,-1,972,1555,0,0
-245,-531,0,0,0,0,0,0,0,0,0,-1,979,1555,0,0
-238,-531,0,0,0,0,0,0,0,0,0,-1,986,1555,0,0
-231,-531,0,0,0,0,0,0,0,0,0,-1,993,1555,0,0
-224,-531,0,0,0,0,0,0,0,0,0,-1,1000,1555,0,0
-217,-531,0,0,0,0,0,0,0,0,0,-1,1007,1555,0,0
-210,-531,0,0,0,0,0,0,0,0,0,-1,1014,1555,0,0
-203,-531,0,0,0,0,0,0,0,0,0,-1,1021,1555,0,0
-196,-531,0,0,0,0,0,0,0,0,0,-1,1028,1555,0,0
-189,-531,0,0,0,0,0,0,0,0,0,-1,1035,1555,0,0
-182,-531,0,0,0,0,0,0,0,0,0,-1,1042,1555,0,0
-175,-531,0,0,0,0,0,0,0,0,0,-1,1049,1555,0,0
-168,-531,0,0,0,0,0,0,0,0,0,-1,1056,1555,0,0
-161,-531,0,0,0,0,0,0,0,0,0,-1,1063,1555,0,0
-154,-531,0,0,0,0,0,0,0,0,0,-1,1070,1555,0,0
-147,-531,0,0,0,0,0,0,0,0,0,-1,1077,1555,0,0
-140,-531,0,0,0,0,0,0,0,0,0,-1,1084,1555,0,0
-133,-531,0,0,0,0,0,0,0,0,0,-1,1091,1555,0,0
-126,-531,0,0,0,0,0,0,0,0,0,-1,1098,1555,0,0
-119,-531,0,0,0,0,0,0,0,0,0,-1,1105,1555,0,0
-112,-531,0,0,0,0,0,0,0,0,0,-1,1112,1555,0,0
-105,-531,0,0,0,0,0,0,0,0,0,-1,1119,1555,0,0
-98,-531,0,0,0,0,0,0,0,0,0,-1,1126,1555,0,0
-91,-531,0,0,0,0,0,0,0,0,0,-1,1133,1555,0,0
-84,-531,0,0,0,0,0,0,0,0,0,-1,1140,1555,0,0
-77,-531,0,0,0,0,0,0,0,0,0,-1,1147,1555,0,0
-70,-531,0,0,0,0,0,0,0,0,0,-1,1154,1555,0,0
-63,-531,0,0,0,0,0,0,0,0,0,-1,1161,1555,0,0
-56,-531,0,0,0,0,0,0,0,0,0,-1,1168,1555,0,0
-49,-531,0,0,0,0,0,0,0,0,0,-1,1175,1555,0,0
-42,-531,0,0,0,0,0,0,0,0,0,-1,1182,1555,0,0
-35,-531,0,0,0,0,0,0,0,0,0,-1,1189,1555,0,0
-28,-531,0,0,0,0,0,0,0,0,0,-1,1196,1555,0,0
-21,-531,0,0,0,0,0,0,0,0,0,-1,1203,1555,0,0
-14,-531,0,0,0,0,0,0,0,0,0,-1,1210,1555,0,0
-7,-531,0,0,0,0,0,0,0,0,0,-1,1217,1555,0,0
0,-531,0,0,0,0,0,0,0,0,0,-1,1224,1555,0,0
7,-531,0,0,0,0,0,0,0,0,0,-1,1231,1555,0,0
14,-531,0,0,0,0,0,0,0,0,0,-1,1238,1555,0,0
21,-531,0,0,0,0,0,0,0,0,0,-1,1245,1555,0,0
28,-531,0,0,0,0,0,0,0,0,0,-1,1252,1555,0,0
35,-531,0,0,0,0,0,0,0,0,0,-1,1259,1555,0,0
42,-531,0,0,0,0,0,0,0,0,0,-1,1266,1555,0,0
49,-531,0,0,0,0,0,0,0,0,0,-1,1273,1555,0,0
56,-531,0,0,0,0,0,0,0,0,0,-1,1280,1555,0,0
63,-531,0,0,0,0,0,0,0,0,0,-1,1287,1555,0,0
70,-531,0,0,0,0,0,0,0,0,0,-1,1294,1555,0,0
77,-531,0,0,0,0,0,0,0,0,0,-1,1301,1555,0,0
84,-531,0,0,0,0,0,0,0,0,0,-1,1308,1555,0,0
91,-531,0,0,0,0,0,0,0,0,0,-1,1315,1555,0,0
98,-531,0,0,0,0,0,0,0,0,0,-1,1322,1555,0,0
105,-531,0,0,0,0,0,0,0,0,0,-1,1329,1555,0,0
112,-531,0,0,0,0,0,0,0,0,0,-1,1336,1555,0,0
119,-531,0,0,0,0,0,0,0,0,0,-1,1343,1555,0,0
126,-531,0,0,0,0,0,0,0,0,0,-1,1350,1555,0,0
133,-531,0,0,0,0,0,0,0,0,0,-1,1357,1555,0,0
140,-531,0,0,0,0,0,0,0,0,0,-1,1364,1555,0,0
147,-531,0,0,0,0,0,0,0,0,0,-1,1371,1555,0,0
154,-531,0,0,0,0,0,0,0,0,0,-1,1378,1555,0,0
161,-531,0,0,0,0,0,0,0,0,0,-1,1385,1555,0,0
168,-531,0,0,0,0,0,0,0,0,0,-1,1392,1555,0,0
175,-531,0,0,0,0,0,0,0,0,0,-1,1399,1555,0,0
182,-531,0,0,0,0,0,0,0,0,0,-1,1406,1555,0,0
189,-531,0,0,0,0,0,0,0,0,0,-1,1413,1555,0,0
196,-531,0,0,0,0,0,0,0,0,0,-1,1420,1555,0,0
203,-531,0,0,0,0,0,0,0,0,0,-1,1427,1555,0,0
210,-531,0,0,0,0,0,0,0,0,0,-1,1434,1555,0,0
217,-531,0,0,0,0,0,0,0,0,0,-1,1441,1555,0,0
224,-531,0,0,0,0,0,0,0,0,0,-1,1448,1555,0,0
231,-531,0,0,0,0,0,0,0,0,0,-1,1455,1555,0,0
238,-531,0,0,0,0,0,0,0,0,0,-1,1462,1555,0,0
245,-531,0,0,0,0,0,0,0,0,0,-1,1469,1555,0,0
252,-531,0,0,0,0,0,0,0,0,0,-1,1476,1555,0,0
259,-531,0,0,0,0,0,0,0,0,0,-1,1483,1555,0,0
266,-531,0,0,0,0,0,0,0,0,0,-1,1490,1555,0,0
273,-531,0,0,0,0,0,0,0,0,0,-1,1497,1555,0,0
280,-531,0,0,0,0,0,0,0,0,0,-1,1504,1555,0,0
287,-531,0,0,0,0,0,0,0,0,0,-1,1511,1555,0,0
294,-531,0,0,0,0,0,0,0,0,0,-1,1518,1555,0,0
301,-531,0,0,0,0,0,0,0,0,0,-1,1525,1555,0,0
308,-531,0,0,0,0,0,0,0,0,0,-1,1532,1555,0,0
315,-531,0,0,0,0,0,0,0,0,0,-1,1539,1555,0,0
322,-531,0,0,0,0,0,0,0,0,0,-1,1546,1555,0,0
329,-531,0,0,0,0,0,0,0,0,0,-1,1553,1555,0,0
336,-531,0,0,0,0,0,0,0,0,0,-1,1560,1555,0,0
343,-531,0,0,0,0,0,0,0,0,0,-1,1567,1555,0,0
350,-531,0,0,0,0,0,0,0,0,0,-1,1574,1555,0,0
357,-531,0,0,0,0,0,0,0,0,0,-1,1581,1555,0,0
364,-531,0,0,0,0,0,0,0,0,0,-1,1588,1555,0,0
371,-531,0,0,0,0,0,0,0,0,0,-1,1595,1555,0,0
378,-531,0,0,0,0,0,0,0,0,0,-1,1602,1555,0,0
385,-531,3.48169,1.78625,0,0,0,0,0,0,0,-1,1609,1555,3.48165,-1.78624
392,-531,10.8781,9.09204,0,0,0,0,0,0,0,-1,1616,1555,10.8781,-9.09205
399,-531,8.26306,5.29602,0,0,0,0,0,0,0,-1,1623,1555,8.26302,-5.29607
406,-531,8.26147,5.42712,0,0,0,0,0,0,0,-1,1630,1555,8.26145,-5.42716
413,-531,8.20618,5.75012,0,0,0,0,0,0,0,-1,1637,1555,8.20619,-5.75017
420,-531,7.64868,7.09558,0,0,0,0,0,0,0,-1,1644,1555,7.64867,-7.09564
427,-531,9.93054,11.8412,0,0,0,0,0,0,0,-1,1651,1555,9.93059,-11.8412
434,-531,10.244,11.7072,0,0,0,0,0,0,0,-1,1658,1555,10.244,-11.7071
441,-531,11.4528,12.9397,0,0,0,0,0,0,0,-1,1665,1555,11.4528,-12.9397
448,-531,11.928,18.8029,0,0,0,0,0,0,0,-1,1672,1555,11.928,-18.8028
455,-531,14.4877,9.67065,0,0,0,0,0,0,0,-1,1679,1555,14.4876,-9.67066
462,-531,13.5253,12.2002,0,0,0,0,0,0,0,-1,1686,1555,13.5252,-12.2002
469,-531,15.5087,15.7894,0,0,0,0,0,0,0,-1,1693,1555,15.5086,-15.7895
476,-531,14.6582,16.2264,0,0,0,0,0,0,0,-1,1700,1555,14.6582,-16.2264
483,-531,14.755,18.5994,0,0,0,0,0,0,0,-1,1707,1555,14.7551,-18.5994
490,-531,16.9362,25.4943,0,0,0,0,0,0,0,-1,1714,1555,16.9362,-25.4942
497,-531,32.8171,58.4194,0,0,0,0,0,0,0,-1,1721,1555,32.8171,-58.4195
504,-531,72.2789,166.055,0,0,0,0,0,0,0,-1,1728,1555,72.279,-166.055
511,-531,72.0184,162.966,0,0,0,0,0,0,0,-1,1735,1555,72.0184,-162.966
518,-531,85.6016,160.458,0,0,0,0,0,0,0,-1,1742,1555,85.6015,-160.458
525,-531,83.298,155.947,0,0,0,0,0,0,0,-1,1749,1555,83.298,-155.947
532,-531,81.9399,151.621,0.0196755,-0.00452556,0.0288566,0.038866,-0.023716,0.586868,0.0364829,0.0240046,1756,1555,81.9399,-151.621
539,-531,80.7208,147.38,0.0201261,-0.00306484,0.0288317,0.0396067,-0.0225455,0.594207,0.0363314,0.0226472,1763,1555,80.7208,-147.38
546,-531,79.5724,143.101,0.0212531,-9.54162e-05,0.0292791,0.041743,-0.0205853,0.610601,0.0366698,0.0224408,1770,1555,79.5724,-143.101
553,-531,78.4314,139.104,0.0226686,0.00407617,0.0299807,0.0447612,-0.0180165,0.635062,0.037325,0.0448479,1777,1555,78.4314,-139.104
560,-531,77.4515,134.209,0,0,0,0,0,0,0,-1,1784,1555,77.4515,-134.209
567,-531,75.7952,130.339,0.0259585,0.0154102,0.0318293,0.0529476,-0.011579,0.703293,0.0397246,0.0337284,1791,1555,75.7952,-130.338
574,-531,74.5673,126.168,0.0277621,0.0223047,0.0329621,0.0581083,-0.00804145,0.7441,0.0416787,0.0333247,1798,1555,74.5672,-126.168
581,-531,73.4204,122.026,0,0,0,0,0,0,0,-1,1805,1555,73.4204,-122.026
588,-531,35.8337,54.0994,0,0,0,0,0,0,0,-1,1812,1555,35.8337,-54.0994
595,-531,25.4437,28.0334,0,0,0,0,0,0,0,-1,1819,1555,25.4438,-28.0335
602,-531,13.701,11.8346,0,0,0,0,0,0,0,-1,1826,1555,13.701,-11.8347
609,-531,10.9072,8.50903,0,0,0,0,0,0,0,-1,1833,1555,10.9073,-8.50902
616,-531,10.5723,7.17859,0,0,0,0,0,0,0,-1,1840,1555,10.5723,-7.17855
623,-531,10.0674,5.08984,0,0,0,0,0,0,0,-1,1847,1555,10.0674,-5.08981
630,-531,11.672,3.18909,0,0,0,0,0,0,0,-1,1854,1555,11.672,-3.18904
637,-531,13.2546,1.38965,0,0,0,0,0,0,0,-1,1861,1555,13.2547,-1.3896
644,-531,0,0,0,0,0,0,0,0,0,-1,1868,1555,0,0
651,-531,0,0,0,0,0,0,0,0,0,-1,1875,1555,0,0
658,-531,0,0,0,0,0,0,0,0,0,-1,1882,1555,0,0
665,-531,0,0,0,0,0,0,0,0,0,-1,1889,1555,0,0
672,-531,0,0,0,0,0,0,0,0,0,-1,1896,1555,0,0
679,-531,0,0,0,0,0,0,0,0,0,-1,1903,1555,0,0
686,-531,0,0,0,0,0,0,0,0,0,-1,1910,1555,0,0
693,-531,0,0,0,0,0,0,0,0,0,-1,1917,1555,0,0
700,-531,0,0,0,0,0,0,0,0,0,-1,1924,1555,0,0
707,-531,0,0,0,0,0,0,0,0,0,-1,1931,1555,0,0
714,-531,0,0,0,0,0,0,0,0,0,-1,1938,1555,0,0
721,-531,0,0,0,0,0,0,0,0,0,-1,1945,1555,0,0
728,-531,0,0,0,0,0,0,0,0,0,-1,1952,1555,0,0
735,-531,0,0,0,0,0,0,0,0,0,-1,1959,1555,0,0
742,-531,0,0,0,0,0,0,0,0,0,-1,1966,1555,0,0
749,-531,0,0,0,0,0,0,0,0,0,-1,1973,1555,0,0
756,-531,0,0,0,0,0,0,0,0,0,-1,1980,1555,0,0
763,-531,0,0,0,0,0,0,0,0,0,-1,1987,1555,0,0
770,-531,0,0,0,0,0,0,0,0,0,-1,1994,1555,0,0
777,-531,0,0,0,0,0,0,0,0,0,-1,2001,1555,0,0
784,-531,0,0,0,0,0,0,0,0,0,-1,2008,1555,0,0
791,-531,0,0,0,0,0,0,0,0,0,-1,2015,1555,0,0
798,-531,0,0,0,0,0,0,0,0,0,-1,2022,1555,0,0
805,-531,0,0,0,0,0,0,0,0,0,-1,2029,1555,0,0
812,-531,0,0,0,0,0,0,0,0,0,-1,2036,1555,0,0
-700,-538,0,0,0,0,0,0,0,0,0,-1,524,1562,0,0
-693,-538,0,0,0,0,0,0,0,0,0,-1,531,1562,0,0
-686,-538,0,0,0,0,0,0,0,0,0,-1,538,1562,0,0
-679,-538,0,0,0,0,0,0,0,0,0,-1,545,1562,0,0
-672,-538,0,0,0,0,0,0,0,0,0,-1,552,1562,0,0
-665,-538,0,0,0,0,0,0,0,0,0,-1,559,1562,0,0
-658,-538,0,0,0,0,0,0,0,0,0,-1,566,1562,0,0
-651,-538,0,0,0,0,0,0,0,0,0,-1,573,1562,0,0
-644,-538,0,0,0,0,0,0,0,0,0,-1,580,1562,0,0
-637,-538,0,0,0,0,0,0,0,0,0,-1,587,1562,0,0
-630,-538,0,0,0,0,0,0,0,0,0,-1,594,1562,0,0
-623,-538,0,0,0,0,0,0,0,0,0,-1,601,1562,0,0
-616,-538,0,0,0,0,0,0,0,0,0,-1,608,1562,0,0
-609,-538,0,0,0,0,0,0,0,0,0,-1,615,1562,0,0
-602,-538,0,0,0,0,0,0,0,0,0,-1,622,1562,0,0
-595,-538,0,0,0,0,0,0,0,0,0,-1,629,1562,0,0
-588,-538,0,0,0,0,0,0,0,0,0,-1,636,1562,0,0
-581,-538,0,0,0,0,0,0,0,0,0,-1,643,1562,0,0
-574,-538,0,0,0,0,0,0,0,0,0,-1,650,1562,0,0
-567,-538,0,0,0,0,0,0,0,0,0,-1,657,1562,0,0
-560,-538,0,0,0,0,0,0,0,0,0,-1,664,1562,0,0
-553,-538,0,0,0,0,0,0,0,0,0,-1,671,1562,0,0
-546,-538,0,0,0,0,0,0,0,0,0,-1,678,1562,0,0
-539,-538,0,0,0,0,0,0,0,0,0,-1,685,1562,0,0
-532,-538,0,0,0,0,0,0,0,0,0,-1,692,1562,0,0
-525,-538,0,0,0,0,0,0,0,0,0,-1,699,1562,0,0
-518,-538,0,0,0,0,0,0,0,0,0,-1,706,1562,0,0
-511,-538,-2.6582,-1.54321,0,0,0,0,0,0,0,-1,713,1562,-2.65821,1.54327
-504,-538,-2.66455,-0.71167,0,0,0,0,0,0,0,-1,720,1562,-2.66456,0.711667
-497,-538,-0.763855,6.77747,0,0,0,0,0,0,0,-1,727,1562,-0.76385,-6.77743
-490,-538,-2.70453,8.01465,0,0,0,0,0,0,0,-1,734,1562,-2.70451,-8.0147
-483,-538,-0.933533,7.84644,0,0,0,0,0,0,0,-1,741,1562,-0.933548,-7.84638
-476,-538,-3.29962,15.8307,0,0,0,0,0,0,0,-1,748,1562,-3.29962,-15.8306
-469,-538,-6.44983,24.5707,0,0,0,0,0,0,0,-1,755,1562,-6.4498,-24.5707
-462,-538,-5.75458,25.4069,0,0,0,0,0,0,0,-1,762,1562,-5.7546,-25.4068
-455,-538,-11.161,39.4834,0,0,0,0,0,0,0,-1,769,1562,-11.161,-39.4833
-448,-538,-13.2156,47.0696,0,0,0,0,0,0,0,-1,776,1562,-13.2156,-47.0695
-441,-538,-62.3517,123.225,0,0,0,0,0,0,0,-1,783,1562,-62.3517,-123.225
-434,-538,-63.1657,127.45,0.032252,0.0231766,-0.0449444,0.0728872,-0.0174585,-0.735087,0.0553367,0.040651,790,1562,-63.1657,-127.45
-427,-538,-64.4615,131.875,0.0320921,0.0174887,-0.0427667,0.0681759,-0.0185951,-0.700846,0.052753,0.0189454,797,1562,-64.4615,-131.874
-420,-538,-65.7438,136.154,0.0318668,0.0123493,-0.0409137,0.0641694,-0.0199534,-0.668325,0.0507554,0.0226377,804,1562,-65.7438,-136.154
-413,-538,-66.9468,140.407,0.0316093,0.00775474,-0.0394164,0.0608635,-0.0214994,-0.638479,0.0493294,0.0260538,811,1562,-66.9468,-140.407
-406,-538,-68.1115,144.76,0.031078,0.00368687,-0.0383321,0.0580878,-0.0233229,-0.613822,0.0484099,0.0272872,818,1562,-68.1115,-144.76
-399,-538,-69.2334,149.183,0.03028,0.000137155,-0.037731,0.0558384,-0.0254212,-0.595385,0.0479983,0.0240328,825,1562,-69.2334,-149.183
-392,-538,-70.5219,153.484,0.0290786,-0.00275303,-0.0377715,0.0541506,-0.027825,-0.586001,0.0481352,0.0207442,832,1562,-70.5219,-153.484
-385,-538,-71.9415,157.858,0.0276109,-0.0050207,-0.038543,0.0531492,-0.030559,-0.585177,0.048912,0.0252486,839,1562,-71.9414,-157.858
-378,-538,-73.3855,162.418,0,0,0,0,0,0,0,-1,846,1562,-73.3855,-162.418
-371,-538,-64.7714,165.522,0,0,0,0,0,0,0,-1,853,1562,-64.7714,-165.522
-364,-538,-71.8551,170.528,0,0,0,0,0,0,0,-1,860,1562,-71.8551,-170.528
-357,-538,-53.7414,154.693,0,0,0,0,0,0,0,-1,867,1562,-53.7414,-154.693
-350,-538,-6.37695,40.0256,0,0,0,0,0,0,0,-1,874,1562,-6.37696,-40.0257
-343,-538,-2.47339,28.3082,0,0,0,0,0,0,0,-1,881,1562,-2.47341,-28.3083
-336,-538,-2.40161,28.5409,0,0,0,0,0,0,0,-1,888,1562,-2.40163,-28.541
-329,-538,-2.57159,28.4905,0,0,0,0,0,0,0,-1,895,1562,-2.57161,-28.4905
-322,-538,-2.83783,28.2308,0,0,0,0,0,0,0,-1,902,1562,-2.83783,-28.2308
-315,-538,-2.91827,27.7609,0,0,0,0,0,0,0,-1,909,1562,-2.91829,-27.7608
-308,-538,-4.37433,31.7996,0,0,0,0,0,0,0,-1,916,1562,-4.3743,-31.7995
-301,-538,-0.452393,18.5101,0,0,0,0,0,0,0,-1,923,1562,-0.452367,-18.5102
-294,-538,1.23138,14.0757,0,0,0,0,0,0,0,-1,930,1562,1.23137,-14.0757
-287,-538,-2.60419,10.2361,0,0,0,0,0,0,0,-1,937,1562,-2.6042,-10.2361
-280,-538,-2.93475,10.5106,0,0,0,0,0,0,0,-1,944,1562,-2.93475,-10.5106
-273,-538,-3.26532,10.785,0,0,0,0,0,0,0,-1,951,1562,-3.26531,-10.785
-266,-538,-5.03412,15.9951,0,0,0,0,0,0,0,-1,958,1562,-5.03409,-15.9951
-259,-538,-5.89642,16.5184,0,0,0,0,0,0,0,-1,965,1562,-5.89644,-16.5184
-252,-538,0,0,0,0,0,0,0,0,0,-1,972,1562,0,0
-245,-538,0,0,0,0,0,0,0,0,0,-1,979,1562,0,0
-238,-538,0,0,0,0,0,0,0,0,0,-1,986,1562,0,0
-231,-538,0,0,0,0,0,0,0,0,0,-1,993,1562,0,0
-224,-538,0,0,0,0,0,0,0,0,0,-1,1000,1562,0,0
-217,-538,0,0,0,0,0,0,0,0,0,-1,1007,1562,0,0
-210,-538,0,0,0,0,0,0,0,0,0,-1,1014,1562,0,0
-203,-538,0,0,0,0,0,0,0,0,0,-1,1021,1562,0,0
-196,-538,0,0,0,0,0,0,0,0,0,-1,1028,1562,0,0
-189,-538,0,0,0,0,0,0,0,0,0,-1,1035,1562,0,0
-182,-538,0,0,0,0,0,0,0,0,0,-1,1042,1562,0,0
-175,-538,0,0,0,0,0,0,0,0,0,-1,1049,1562,0,0
-168,-538,0,0,0,0,0,0,0,0,0,-1,1056,1562,0,0
-161,-538,0,0,0,0,0,0,0,0,0,-1,1063,1562,0,0
-154,-538,0,0,0,0,0,0,0,0,0,-1,1070,1562,0,0
-147,-538,0,0,0,0,0,0,0,0,0,-1,1077,1562,0,0
-140,-538,0,0,0,0,0,0,0,0,0,-1,1084,1562,0,0
-133,-538,0,0,0,0,0,0,0,0,0,-1,1091,1562,0,0
-126,-538,0,0,0,0,0,0,0,0,0,-1,1098,1562,0,0
-119,-538,0,0,0,0,0,0,0,0,0,-1,1105,1562,0,0
-112,-538,0,0,0,0,0,0,0,0,0,-1,1112,1562,0,0
-105,-538,0,0,0,0,0,0,0,0,0,-1,1119,1562,0,0
-98,-538,0,0,0,0,0,0,0,0,0,-1,1126,1562,0,0
-91,-538,0,0,0,0,0,0,0,0,0,-1,1133,1562,0,0
-84,-538,0,0,0,0,0,0,0,0,0,-1,1140,1562,0,0
-77,-538,0,0,0,0,0,0,0,0,0,-1,1147,1562,0,0
-70,-538,0,0,0,0,0,0,0,0,0,-1,1154,1562,0,0
-63,-538,0,0,0,0,0,0,0,0,0,-1,1161,1562,0,0
-56,-538,0,0,0,0,0,0,0,0,0,-1,1168,1562,0,0
-49,-538,0,0,0,0,0,0,0,0,0,-1,1175,1562,0,0
-42,-538,0,0,0,0,0,0,0,0,0,-1,1182,1562,0,0
-35,-538,0,0,0,0,0,0,0,0,0,-1,1189,1562,0,0
-28,-538,0,0,0,0,0,0,0,0,0,-1,1196,1562,0,0
-21,-538,0,0,0,0,0,0,0,0,0,-1,1203,1562,0,0
-14,-538,0,0,0,0,0,0,0,0,0,-1,1210,1562,0,0
-7,-538,0,0,0,0,0,0,0,0,0,-1,1217,1562,0,0
0,-538,0,0,0,0,0,0,0,0,0,-1,1224,1562,0,0
7,-538,0,0,0,0,0,0,0,0,0,-1,1231,1562,0,0
14,-538,0,0,0,0,0,0,0,0,0,-1,1238,1562,0,0
21,-538,0,0,0,0,0,0,0,0,0,-1,1245,1562,0,0
28,-538,0,0,0,0,0,0,0,0,0,-1,1252,1562,0,0
35,-538,0,0,0,0,0,0,0,0,0,-1,1259,1562,0,0
42,-538,0,0,0,0,0,0,0,0,0,-1,1266,1562,0,0
49,-538,0,0,0,0,0,0,0,0,0,-1,1273,1562,0,0
56,-538,0,0,0,0,0,0,0,0,0,-1,1280,1562,0,0
63,-538,0,0,0,0,0,0,0,0,0,-1,1287,1562,0,0
70,-538,0,0,0,0,0,0,0,0,0,-1,1294,1562,0,0
77,-538,0,0,0,0,0,0,0,0,0,-1,1301,1562,0,0
84,-538,0,0,0,0,0,0,0,0,0,-1,1308,1562,0,0
91,-538,0,0,0,0,0,0,0,0,0,-1,1315,1562,0,0
98,-538,0,0,0,0,0,0,0,0,0,-1,1322,1562,0,0
105,-538,0,0,0,0,0,0,0,0,0,-1,1329,1562,0,0
112,-538,0,0,0,0,0,0,0,0,0,-1,1336,1562,0,0
119,-538,0,0,0,0,0,0,0,0,0,-1,1343,1562,0,0
126,-538,0,0,0,0,0,0,0,0,0,-1,1350,1562,0,0
133,-538,0,0,0,0,0,0,0,0,0,-1,1357,1562,0,0
140,-538,0,0,0,0,0,0,0,0,0,-1,1364,1562,0,0
147,-538,0,0,0,0,0,0,0,0,0,-1,1371,1562,0,0
154,-538,0,0,0,0,0,0,0,0,0,-1,1378,1562,0,0
161,-538,0,0,0,0,0,0,0,0,0,-1,1385,1562,0,0
168,-538,0,0,0,0,0,0,0,0,0,-1,1392,1562,0,0
175,-538,0,0,0,0,0,0,0,0,0,-1,1399,1562,0,0
182,-538,0,0,0,0,0,0,0,0,0,-1,1406,1562,0,0
189,-538,0,0,0,0,0,0,0,0,0,-1,1413,1562,0,0
196,-538,0,0,0,0,0,0,0,0,0,-1,1420,1562,0,0
203,-538,0,0,0,0,0,0,0,0,0,-1,1427,1562,0,0
210,-538,0,0,0,0,0,0,0,0,0,-1,1434,1562,0,0
217,-538,0,0,0,0,0,0,0,0,0,-1,1441,1562,0,0
224,-538,0,0,0,0,0,0,0,0,0,-1,1448,1562,0,0
231,-538,0,0,0,0,0,0,0,0,0,-1,1455,1562,0,0
238,-538,0,0,0,0,0,0,0,0,0,-1,1462,1562,0,0
245,-538,0,0,0,0,0,0,0,0,0,-1,1469,1562,0,0
252,-538,0,0,0,0,0,0,0,0,0,-1,1476,1562,0,0
259,-538,0,0,0,0,0,0,0,0,0,-1,1483,1562,0,0
266,-538,0,0,0,0,0,0,0,0,0,-1,1490,1562,0,0
273,-538,0,0,0,0,0,0,0,0,0,-1,1497,1562,0,0
280,-538,0,0,0,0,0,0,0,0,0,-1,1504,1562,0,0
287,-538,0,0,0,0,0,0,0,0,0,-1,1511,1562,0,0
294,-538,0,0,0,0,0,0,0,0,0,-1,1518,1562,0,0
301,-538,0,0,0,0,0,0,0,0,0,-1,1525,1562,0,0
308,-538,0,0,0,0,0,0,0,0,0,-1,1532,1562,0,0
315,-538,0,0,0,0,0,0,0,0,0,-1,1539,1562,0,0
322,-538,0,0,0,0,0,0,0,0,0,-1,1546,1562,0,0
329,-538,0,0,0,0,0,0,0,0,0,-1,1553,1562,0,0
336,-538,0,0,0,0,0,0,0,0,0,-1,1560,1562,0,0
343,-538,0,0,0,0,0,0,0,0,0,-1,1567,1562,0,0
350,-538,0,0,0,0,0,0,0,0,0,-1,1574,1562,0,0
357,-538,0,0,0,0,0,0,0,0,0,-1,1581,1562,0,0
364,-538,0,0,0,0,0,0,0,0,0,-1,1588,1562,0,0
371,-538,0,0,0,0,0,0,0,0,0,-1,1595,1562,0,0
378,-538,9.65479,5.82434,0,0,0,0,0,0,0,-1,1602,1562,9.6548,-5.82439
385,-538,10.5449,7.9502,0,0,0,0,0,0,0,-1,1609,1562,10.5449,-7.95014
392,-538,8.20361,7.07214,0,0,0,0,0,0,0,-1,1616,1562,8.20362,-7.07211
399,-538,7.85425,4.70508,0,0,0,0,0,0,0,-1,1623,1562,7.85425,-4.70512
406,-538,7.77734,4.96094,0,0,0,0,0,0,0,-1,1630,1562,7.77729,-4.96097
413,-538,13.0446,13.1765,0,0,0,0,0,0,0,-1,1637,1562,13.0446,-13.1765
420,-538,9.96216,12.7653,0,0,0,0,0,0,0,-1,1644,1562,9.96221,-12.7653
427,-538,10.1732,14.5863,0,0,0,0,0,0,0,-1,1651,1562,10.1732,-14.5863
434,-538,9.64331,14.7745,0,0,0,0,0,0,0,-1,1658,1562,9.64326,-14.7746
441,-538,11.5039,20.5195,0,0,0,0,0,0,0,-1,1665,1562,11.5039,-20.5195
448,-538,12.8766,22.4932,0,0,0,0,0,0,0,-1,1672,1562,12.8766,-22.4932
455,-538,12.5693,17.4128,0,0,0,0,0,0,0,-1,1679,1562,12.5694,-17.4128
462,-538,12.1389,17.017,0,0,0,0,0,0,0,-1,1686,1562,12.1389,-17.017
469,-538,14.3802,16.6945,0,0,0,0,0,0,0,-1,1693,1562,14.3803,-16.6945
476,-538,13.724,19.0608,0,0,0,0,0,0,0,-1,1700,1562,13.724,-19.0608
483,-538,17.088,25.2936,0,0,0,0,0,0,0,-1,1707,1562,17.088,-25.2936
490,-538,38.6315,88.9027,0,0,0,0,0,0,0,-1,1714,1562,38.6315,-88.9028
497,-538,69.8599,171.032,0,0,0,0,0,0,0,-1,1721,1562,69.8598,-171.032
504,-538,71.4562,168.192,0,0,0,0,0,0,0,-1,1728,1562,71.4562,-168.192
511,-538,81.9949,166.759,0,0,0,0,0,0,0,-1,1735,1562,81.9948,-166.759
518,-538,80.3563,162.265,0.0245555,-0.00380181,0.0283367,0.0420629,-0.0213092,0.553429,0.0372361,0.0340233,1742,1562,80.3564,-162.265
525,-538,78.7521,157.86,0.023864,-0.00384114,0.0277003,0.0409824,-0.0209595,0.553539,0.0363797,0.0226954,1749,1562,78.7521,-157.86
532,-538,77.4629,153.329,0.023465,-0.00310635,0.0274729,0.040696,-0.0203374,0.56018,0.0358851,0.0252575,1756,1562,77.4629,-153.329
539,-538,76.1658,149,0.0238027,-0.00130365,0.0275537,0.0415281,-0.019029,0.571652,0.035758,0.0291539,1763,1562,76.1658,-149
546,-538,75.0073,144.754,0.0248371,0.00187767,0.0280312,0.0436481,-0.0169334,0.591049,0.0360925,0.0235781,1770,1562,75.0074,-144.754
553,-538,73.7144,140.351,0.0260989,0.00623629,0.0288125,0.0466437,-0.0143085,0.619431,0.0368044,0.0409585,1777,1562,73.7143,-140.351
560,-538,72.5138,136.175,0,0,0,0,0,0,0,-1,1784,1562,72.5137,-136.175
567,-538,71.2584,131.928,0,0,0,0,0,0,0,-1,1791,1562,71.2584,-131.928
574,-538,69.9542,127.698,0,0,0,0,0,0,0,-1,1798,1562,69.9542,-127.698
581,-538,34.416,55.7428,0,0,0,0,0,0,0,-1,1805,1562,34.4161,-55.7428
588,-538,25.8256,30.7411,0,0,0,0,0,0,0,-1,1812,1562,25.8255,-30.7411
595,-538,15.9808,16.0894,0,0,0,0,0,0,0,-1,1819,1562,15.9808,-16.0893
602,-538,10.314,8.94238,0,0,0,0,0,0,0,-1,1826,1562,10.314,-8.94238
609,-538,10.1046,7.05713,0,0,0,0,0,0,0,-1,1833,1562,10.1046,-7.05719
616,-538,9.92249,5.43506,0,0,0,0,0,0,0,-1,1840,1562,9.92254,-5.43507
623,-538,11.1711,4.31604,0,0,0,0,0,0,0,-1,1847,1562,11.1711,-4.316
630,-538,12.6112,2.61633,0,0,0,0,0,0,0,-1,1854,1562,12.6112,-2.61637
637,-538,0,0,0,0,0,0,0,0,0,-1,1861,1562,0,0
644,-538,0,0,0,0,0,0,0,0,0,-1,1868,1562,0,0
651,-538,0,0,0,0,0,0,0,0,0,-1,1875,1562,0,0
658,-538,0,0,0,0,0,0,0,0,0,-1,1882,1562,0,0
665,-538,0,0,0,0,0,0,0,0,0,-1,1889,1562,0,0
672,-538,0,0,0,0,0,0,0,0,0,-1,1896,1562,0,0
679,-538,0,0,0,0,0,0,0,0,0,-1,1903,1562,0,0
686,-538,0,0,0,0,0,0,0,0,0,-1,1910,1562,0,0
693,-538,0,0,0,0,0,0,0,0,0,-1,1917,1562,0,0
700,-538,0,0,0,0,0,0,0,0,0,-1,1924,1562,0,0
707,-538,0,0,0,0,0,0,0,0,0,-1,1931,1562,0,0
714,-538,0,0,0,0,0,0,0,0,0,-1,1938,1562,0,0
721,-538,0,0,0,0,0,0,0,0,0,-1,1945,1562,0,0
728,-538,0,0,0,0,0,0,0,0,0,-1,1952,1562,0,0
735,-538,0,0,0,0,0,0,0,0,0,-1,1959,1562,0,0
742,-538,0,0,0,0,0,0,0,0,0,-1,1966,1562,0,0
749,-538,0,0,0,0,0,0,0,0,0,-1,1973,1562,0,0
756,-538,0,0,0,0,0,0,0,0,0,-1,1980,1562,0,0
763,-538,0,0,0,0,0,0,0,0,0,-1,1987,1562,0,0
770,-538,0,0,0,0,0,0,0,0,0,-1,1994,1562,0,0
777,-538,0,0,0,0,0,0,0,0,0,-1,2001,1562,0,0
784,-538,0,0,0,0,0,0,0,0,0,-1,2008,1562,0,0
791,-538,0,0,0,0,0,0,0,0,0,-1,2015,1562,0,0
798,-538,0,0,0,0,0,0,0,0,0,-1,2022,1562,0,0
805,-538,0,0,0,0,0,0,0,0,0,-1,2029,1562,0,0
812,-538,0,0,0,0,0,0,0,0,0,-1,2036,1562,0,0
-700,-545,0,0,0,0,0,0,0,0,0,-1,524,1569,0,0
-693,-545,0,0,0,0,0,0,0,0,0,-1,531,1569,0,0
-686,-545,0,0,0,0,0,0,0,0,0,-1,538,1569,0,0
-679,-545,0,0,0,0,0,0,0,0,0,-1,545,1569,0,0
-672,-545,0,0,0,0,0,0,0,0,0,-1,552,1569,0,0
-665,-545,0,0,0,0,0,0,0,0,0,-1,559,1569,0,0
-658,-545,0,0,0,0,0,0,0,0,0,-1,566,1569,0,0
-651,-545,0,0,0,0,0,0,0,0,0,-1,573,1569,0,0
-644,-545,0,0,0,0,0,0,0,0,0,-1,580,1569,0,0
-637,-545,0,0,0,0,0,0,0,0,0,-1,587,1569,0,0
-630,-545,0,0,0,0,0,0,0,0,0,-1,594,1569,0,0
-623,-545,0,0,0,0,0,0,0,0,0,-1,601,1569,0,0
-616,-545,0,0,0,0,0,0,0,0,0,-1,608,1569,0,0
-609,-545,0,0,0,0,0,0,0,0,0,-1,615,1569,0,0
-602,-545,0,0,0,0,0,0,0,0,0,-1,622,1569,0,0
-595,-545,0,0,0,0,0,0,0,0,0,-1,629,1569,0,0
-588,-545,0,0,0,0,0,0,0,0,0,-1,636,1569,0,0
-581,-545,0,0,0,0,0,0,0,0,0,-1,643,1569,0,0
-574,-545,0,0,0,0,0,0,0,0,0,-1,650,1569,0,0
-567,-545,0,0,0,0,0,0,0,0,0,-1,657,1569,0,0
-560,-545,0,0,0,0,0,0,0,0,0,-1,664,1569,0,0
-553,-545,0,0,0,0,0,0,0,0,0,-1,671,1569,0,0
-546,-545,0,0,0,0,0,0,0,0,0,-1,678,1569,0,0
-539,-545,0,0,0,0,0,0,0,0,0,-1,685,1569,0,0
-532,-545,0,0,0,0,0,0,0,0,0,-1,692,1569,0,0
-525,-545,0,0,0,0,0,0,0,0,0,-1,699,1569,0,0
-518,-545,0,0,0,0,0,0,0,0,0,-1,706,1569,0,0
-511,-545,0,0,0,0,0,0,0,0,0,-1,713,1569,0,0
-504,-545,-3.55237,-2.5354,0,0,0,0,0,0,0,-1,720,1569,-3.55236,2.53545
-497,-545,2.26575,5.69214,0,0,0,0,0,0,0,-1,727,1569,2.26573,-5.6922
-490,-545,-2.17334,7.81396,0,0,0,0,0,0,0,-1,734,1569,-2.17334,-7.81399
-483,-545,-1.88336,5.8446,0,0,0,0,0,0,0,-1,741,1569,-1.88334,-5.84466
-476,-545,-1.13147,6.5741,0,0,0,0,0,0,0,-1,748,1569,-1.13149,-6.57405
-469,-545,-1.03412,15.8353,0,0,0,0,0,0,0,-1,755,1569,-1.03414,-15.8353
-462,-545,-4.09772,21.0458,0,0,0,0,0,0,0,-1,762,1569,-4.0977,-21.0458
-455,-545,-8.5816,34.5475,0,0,0,0,0,0,0,-1,769,1569,-8.58159,-34.5475
-448,-545,-9.96466,40.7007,0,0,0,0,0,0,0,-1,776,1569,-9.96466,-40.7007
-441,-545,-11.8745,47.3488,0,0,0,0,0,0,0,-1,783,1569,-11.8745,-47.3487
-434,-545,-58.5198,128.945,0,0,0,0,0,0,0,-1,790,1569,-58.5198,-128.945
-427,-545,-59.786,133.531,0,0,0,0,0,0,0,-1,797,1569,-59.786,-133.531
-420,-545,-61.0354,137.849,0.0334404,0.0132921,-0.0409779,0.0655643,-0.0188318,-0.664866,0.0511556,0.030021,804,1569,-61.0354,-137.849
-413,-545,-62.2573,142.144,0.0333891,0.00861138,-0.0392444,0.0621537,-0.0201532,-0.632506,0.0495393,0.0320916,811,1569,-62.2573,-142.144
-406,-545,-63.4606,146.51,0.0329841,0.00443878,-0.0380315,0.0593329,-0.0219101,-0.605888,0.0485361,0.029264,818,1569,-63.4606,-146.51
-399,-545,-64.6475,150.911,0.0323263,0.000865719,-0.0373605,0.057133,-0.023941,-0.586142,0.0480979,0.0208487,825,1569,-64.6475,-150.911
-392,-545,-65.9267,155.299,0.031351,-0.00197857,-0.0373182,0.0555563,-0.0261838,-0.575403,0.0481976,0.0187785,832,1569,-65.9267,-155.299
-385,-545,-67.2509,159.723,0.0301366,-0.00422027,-0.0379442,0.0546098,-0.0286935,-0.572837,0.0488649,0.0159787,839,1569,-67.2509,-159.723
-378,-545,-68.556,164.06,0.0292269,-0.00550171,-0.0394348,0.0549511,-0.0312259,-0.578006,0.0503789,0.0259563,846,1569,-68.556,-164.06
-371,-545,-69.8203,168.4,0,0,0,0,0,0,0,-1,853,1569,-69.8202,-168.4
-364,-545,-70.6477,172.726,0,0,0,0,0,0,0,-1,860,1569,-70.6477,-172.726
-357,-545,-71.7115,176.571,0,0,0,0,0,0,0,-1,867,1569,-71.7115,-176.571
-350,-545,-62.8481,177.965,0,0,0,0,0,0,0,-1,874,1569,-62.8481,-177.965
-343,-545,-9.54028,53.48,0,0,0,0,0,0,0,-1,881,1569,-9.54026,-53.48
-336,-545,-4.2146,36.9165,0,0,0,0,0,0,0,-1,888,1569,-4.21457,-36.9165
-329,-545,-2.03595,27.8694,0,0,0,0,0,0,0,-1,895,1569,-2.03592,-27.8694
-322,-545,-2.42474,27.9695,0,0,0,0,0,0,0,-1,902,1569,-2.42474,-27.9695
-315,-545,-2.52954,30.1711,0,0,0,0,0,0,0,-1,909,1569,-2.52951,-30.1712
-308,-545,-1.54358,21.4457,0,0,0,0,0,0,0,-1,916,1569,-1.54357,-21.4457
-301,-545,1.52191,17.5009,0,0,0,0,0,0,0,-1,923,1569,1.52192,-17.5008
-294,-545,-2.69287,8.42102,0,0,0,0,0,0,0,-1,930,1569,-2.69287,-8.42097
-287,-545,-3.47784,9.96021,0,0,0,0,0,0,0,-1,937,1569,-3.47785,-9.96021
-280,-545,-3.7879,10.5448,0,0,0,0,0,0,0,-1,944,1569,-3.78793,-10.5448
-273,-545,-5.10333,12.864,0,0,0,0,0,0,0,-1,951,1569,-5.10331,-12.864
-266,-545,-5.78955,13.3704,0,0,0,0,0,0,0,-1,958,1569,-5.78952,-13.3703
-259,-545,-6.32184,13.8101,0,0,0,0,0,0,0,-1,965,1569,-6.32182,-13.81
-252,-545,0.369263,7.54053,0,0,0,0,0,0,0,-1,972,1569,0.369276,-7.54056
-245,-545,-0.236633,6.65564,0,0,0,0,0,0,0,-1,979,1569,-0.236605,-6.65566
-238,-545,0,0,0,0,0,0,0,0,0,-1,986,1569,0,0
-231,-545,0,0,0,0,0,0,0,0,0,-1,993,1569,0,0
-224,-545,0,0,0,0,0,0,0,0,0,-1,1000,1569,0,0
-217,-545,0,0,0,0,0,0,0,0,0,-1,1007,1569,0,0
-210,-545,0,0,0,0,0,0,0,0,0,-1,1014,1569,0,0
-203,-545,0,0,0,0,0,0,0,0,0,-1,1021,1569,0,0
-196,-545,0,0,0,0,0,0,0,0,0,-1,1028,1569,0,0
-189,-545,0,0,0,0,0,0,0,0,0,-1,1035,1569,0,0
-182,-545,0,0,0,0,0,0,0,0,0,-1,1042,1569,0,0
-175,-545,0,0,0,0,0,0,0,0,0,-1,1049,1569,0,0
-168,-545,0,0,0,0,0,0,0,0,0,-1,1056,1569,0,0
-161,-545,0,0,0,0,0,0,0,0,0,-1,1063,1569,0,0
-154,-545,0,0,0,0,0,0,0,0,0,-1,1070,1569,0,0
-147,-545,0,0,0,0,0,0,0,0,0,-1,1077,1569,0,0
-140,-545,0,0,0,0,0,0,0,0,0,-1,1084,1569,0,0
-133,-545,0,0,0,0,0,0,0,0,0,-1,1091,1569,0,0
-126,-545,0,0,0,0,0,0,0,0,0,-1,1098,1569,0,0
-119,-545,0,0,0,0,0,0,0,0,0,-1,1105,1569,0,0
-112,-545,0,0,0,0,0,0,0,0,0,-1,1112,1569,0,0
-105,-545,0,0,0,0,0,0,0,0,0,-1,1119,1569,0,0
-98,-545,0,0,0,0,0,0,0,0,0,-1,1126,1569,0,0
-91,-545,0,0,0,0,0,0,0,0,0,-1,1133,1569,0,0
-84,-545,0,0,0,0,0,0,0,0,0,-1,1140,1569,0,0
-77,-545,0,0,0,0,0,0,0,0,0,-1,1147,1569,0,0
-70,-545,0,0,0,0,0,0,0,0,0,-1,1154,1569,0,0
-63,-545,0,0,0,0,0,0,0,0,0,-1,1161,1569,0,0
-56,-545,0,0,0,0,0,0,0,0,0,-1,1168,1569,0,0
-49,-545,0,0,0,0,0,0,0,0,0,-1,1175,1569,0,0
-42,-545,0,0,0,0,0,0,0,0,0,-1,1182,1569,0,0
-35,-545,0,0,0,0,0,0,0,0,0,-1,1189,1569,0,0
-28,-545,0,0,0,0,0,0,0,0,0,-1,1196,1569,0,0
-21,-545,0,0,0,0,0,0,0,0,0,-1,1203,1569,0,0
-14,-545,0,0,0,0,0,0,0,0,0,-1,1210,1569,0,0
-7,-545,0,0,0,0,0,0,0,0,0,-1,1217,1569,0,0
0,-545,0,0,0,0,0,0,0,0,0,-1,1224,1569,0,0
7,-545,0,0,0,0,0,0,0,0,0,-1,1231,1569,0,0
14,-545,0,0,0,0,0,0,0,0,0,-1,1238,1569,0,0
21,-545,0,0,0,0,0,0,0,0,0,-1,1245,1569,0,0
28,-545,0,0,0,0,0,0,0,0,0,-1,1252,1569,0,0
35,-545,0,0,0,0,0,0,0,0,0,-1,1259,1569,0,0
42,-545,0,0,0,0,0,0,0,0,0,-1,1266,1569,0,0
49,-545,0,0,0,0,0,0,0,0,0,-1,1273,1569,0,0
56,-545,0,0,0,0,0,0,0,0,0,-1,1280,1569,0,0
63,-545,0,0,0,0,0,0,0,0,0,-1,1287,1569,0,0
70,-545,0,0,0,0,0,0,0,0,0,-1,1294,1569,0,0
77,-545,0,0,0,0,0,0,0,0,0,-1,1301,1569,0,0
84,-545,0,0,0,0,0,0,0,0,0,-1,1308,1569,0,0
91,-545,0,0,0,0,0,0,0,0,0,-1,1315,1569,0,0
98,-545,0,0,0,0,0,0,0,0,0,-1,1322,1569,0,0
105,-545,0,0,0,0,0,0,0,0,0,-1,1329,1569,0,0
112,-545,0,0,0,0,0,0,0,0,0,-1,1336,1569,0,0
119,-545,0,0,0,0,0,0,0,0,0,-1,1343,1569,0,0
126,-545,0,0,0,0,0,0,0,0,0,-1,1350,1569,0,0
133,-545,0,0,0,0,0,0,0,0,0,-1,1357,1569,0,0
140,-545,0,0,0,0,0,0,0,0,0,-1,1364,1569,0,0
147,-545,0,0,0,0,0,0,0,0,0,-1,1371,1569,0,0
154,-545,0,0,0,0,0,0,0,0,0,-1,1378,1569,0,0
161,-545,0,0,0,0,0,0,0,0,0,-1,1385,1569,0,0
168,-545,0,0,0,0,0,0,0,0,0,-1,1392,1569,0,0
175,-545,0,0,0,0,0,0,0,0,0,-1,1399,1569,0,0
182,-545,0,0,0,0,0,0,0,0,0,-1,1406,1569,0,0
189,-545,0,0,0,0,0,0,0,0,0,-1,1413,1569,0,0
196,-545,0,0,0,0,0,0,0,0,0,-1,1420,1569,0,0
203,-545,0,0,0,0,0,0,0,0,0,-1,1427,1569,0,0
210,-545,0,0,0,0,0,0,0,0,0,-1,1434,1569,0,0
217,-545,0,0,0,0,0,0,0,0,0,-1,1441,1569,0,0
224,-545,0,0,0,0,0,0,0,0,0,-1,1448,1569,0,0
231,-545,0,0,0,0,0,0,0,0,0,-1,1455,1569,0,0
238,-545,0,0,0,0,0,0,0,0,0,-1,1462,1569,0,0
245,-545,0,0,0,0,0,0,0,0,0,-1,1469,1569,0,0
252,-545,0,0,0,0,0,0,0,0,0,-1,1476,1569,0,0
259,-545,0,0,0,0,0,0,0,0,0,-1,1483,1569,0,0
266,-545,0,0,0,0,0,0,0,0,0,-1,1490,1569,0,0
273,-545,0,0,0,0,0,0,0,0,0,-1,1497,1569,0,0
280,-545,0,0,0,0,0,0,0,0,0,-1,1504,1569,0,0
287,-545,0,0,0,0,0,0,0,0,0,-1,1511,1569,0,0
294,-545,0,0,0,0,0,0,0,0,0,-1,1518,1569,0,0
301,-545,0,0,0,0,0,0,0,0,0,-1,1525,1569,0,0
308,-545,0,0,0,0,0,0,0,0,0,-1,1532,1569,0,0
315,-545,0,0,0,0,0,0,0,0,0,-1,1539,1569,0,0
322,-545,0,0,0,0,0,0,0,0,0,-1,1546,1569,0,0
329,-545,0,0,0,0,0,0,0,0,0,-1,1553,1569,0,0
336,-545,0,0,0,0,0,0,0,0,0,-1,1560,1569,0,0
343,-545,0,0,0,0,0,0,0,0,0,-1,1567,1569,0,0
350,-545,0,0,0,0,0,0,0,0,0,-1,1574,1569,0,0
357,-545,0,0,0,0,0,0,0,0,0,-1,1581,1569,0,0
364,-545,7.19495,4.88098,0,0,0,0,0,0,0,-1,1588,1569,7.19497,-4.88095
371,-545,7.82324,3.84302,0,0,0,0,0,0,0,-1,1595,1569,7.82324,-3.84307
378,-545,7.65674,5.52673,0,0,0,0,0,0,0,-1,1602,1569,7.6567,-5.52667
385,-545,8.58447,1.16125,0,0,0,0,0,0,0,-1,1609,1569,8.5845,-1.1612
392,-545,12.5654,3.89526,0,0,0,0,0,0,0,-1,1616,1569,12.5655,-3.89532
399,-545,11.5869,5.6333,0,0,0,0,0,0,0,-1,1623,1569,11.5869,-5.63326
406,-545,11.234,6.36414,0,0,0,0,0,0,0,-1,1630,1569,11.234,-6.3641
413,-545,12.1521,13.4817,0,0,0,0,0,0,0,-1,1637,1569,12.1521,-13.4817
420,-545,11.1954,13.6047,0,0,0,0,0,0,0,-1,1644,1569,11.1954,-13.6047
427,-545,9.61072,14.9135,0,0,0,0,0,0,0,-1,1651,1569,9.61076,-14.9134
434,-545,13.1598,23.9921,0,0,0,0,0,0,0,-1,1658,1569,13.1598,-23.992
441,-545,12.2833,22.2238,0,0,0,0,0,0,0,-1,1665,1569,12.2833,-22.2237
448,-545,13.0082,21.941,0,0,0,0,0,0,0,-1,1672,1569,13.0082,-21.941
455,-545,13.733,21.6583,0,0,0,0,0,0,0,-1,1679,1569,13.733,-21.6583
462,-545,12.449,20.7413,0,0,0,0,0,0,0,-1,1686,1569,12.4489,-20.7413
469,-545,12.7837,17.7919,0,0,0,0,0,0,0,-1,1693,1569,12.7837,-17.7919
476,-545,15.7562,24.8708,0,0,0,0,0,0,0,-1,1700,1569,15.7563,-24.8709
483,-545,37.3098,90.5648,0,0,0,0,0,0,0,-1,1707,1569,37.3098,-90.5648
490,-545,67.9878,179.796,0,0,0,0,0,0,0,-1,1714,1569,67.9878,-179.796
497,-545,79.4517,177.523,0,0,0,0,0,0,0,-1,1721,1569,79.4516,-177.523
504,-545,78.0287,173.079,0,0,0,0,0,0,0,-1,1728,1569,78.0287,-173.079
511,-545,76.8917,168.584,0,0,0,0,0,0,0,-1,1735,1569,76.8917,-168.584
518,-545,75.569,164.084,0.0273246,-0.0037482,0.0267133,0.0426909,-0.0191146,0.522009,0.0365386,0.0211338,1742,1569,75.569,-164.084
525,-545,74.2566,159.579,0.026533,-0.00339381,0.0261686,0.0417143,-0.0185751,0.525682,0.0356524,0.022464,1749,1569,74.2566,-159.579
532,-545,72.9702,155.006,0.0261551,-0.00229242,0.0259934,0.0415619,-0.0176993,0.53505,0.0351269,0.0248517,1756,1569,72.9702,-155.006
539,-545,71.6199,150.675,0.0265373,-0.000167227,0.0261163,0.0425167,-0.0161466,0.54909,0.0349913,0.0277248,1763,1569,71.6199,-150.675
546,-545,70.446,146.435,0.0275746,0.00328658,0.0265254,0.0446038,-0.0137426,0.570727,0.035222,0.0231297,1770,1569,70.4461,-146.435
553,-545,69.24,141.998,0.0288057,0.00803167,0.0272176,0.0475509,-0.0107135,0.603113,0.0358101,0.0366937,1777,1569,69.24,-141.998
560,-545,67.9226,137.386,0,0,0,0,0,0,0,-1,1784,1569,67.9226,-137.386
567,-545,66.6951,133.274,0,0,0,0,0,0,0,-1,1791,1569,66.695,-133.274
574,-545,27.1798,38.2062,0,0,0,0,0,0,0,-1,1798,1569,27.1798,-38.2062
581,-545,24.7096,31.5568,0,0,0,0,0,0,0,-1,1805,1569,24.7096,-31.5568
588,-545,15.4786,16.7035,0,0,0,0,0,0,0,-1,1812,1569,15.4786,-16.7035
595,-545,10.2859,9.11218,0,0,0,0,0,0,0,-1,1819,1569,10.2858,-9.11215
602,-545,8.82117,6.32214,0,0,0,0,0,0,0,-1,1826,1569,8.82121,-6.32217
609,-545,10.2406,5.22351,0,0,0,0,0,0,0,-1,1833,1569,10.2406,-5.22353
616,-545,11.701,3.93188,0,0,0,0,0,0,0,-1,1840,1569,11.701,-3.93191
623,-545,13.2139,2.32043,0,0,0,0,0,0,0,-1,1847,1569,13.2139,-2.32042
630,-545,0,0,0,0,0,0,0,0,0,-1,1854,1569,0,0
637,-545,0,0,0,0,0,0,0,0,0,-1,1861,1569,0,0
644,-545,0,0,0,0,0,0,0,0,0,-1,1868,1569,0,0
651,-545,0,0,0,0,0,0,0,0,0,-1,1875,1569,0,0
658,-545,0,0,0,0,0,0,0,0,0,-1,1882,1569,0,0
665,-545,0,0,0,0,0,0,0,0,0,-1,1889,1569,0,0
672,-545,0,0,0,0,0,0,0,0,0,-1,1896,1569,0,0
679,-545,0,0,0,0,0,0,0,0,0,-1,1903,1569,0,0
686,-545,0,0,0,0,0,0,0,0,0,-1,1910,1569,0,0
693,-545,0,0,0,0,0,0,0,0,0,-1,1917,1569,0,0
700,-545,0,0,0,0,0,0,0,0,0,-1,1924,1569,0,0
707,-545,0,0,0,0,0,0,0,0,0,-1,1931,1569,0,0
714,-545,0,0,0,0,0,0,0,0,0,-1,1938,1569,0,0
721,-545,0,0,0,0,0,0,0,0,0,-1,1945,1569,0,0
728,-545,0,0,0,0,0,0,0,0,0,-1,1952,1569,0,0
735,-545,0,0,0,0,0,0,0,0,0,-1,1959,1569,0,0
742,-545,0,0,0,0,0,0,0,0,0,-1,1966,1569,0,0
749,-545,0,0,0,0,0,0,0,0,0,-1,1973,1569,0,0
756,-545,0,0,0,0,0,0,0,0,0,-1,1980,1569,0,0
763,-545,0,0,0,0,0,0,0,0,0,-1,1987,1569,0,0
770,-545,0,0,0,0,0,0,0,0,0,-1,1994,1569,0,0
777,-545,0,0,0,0,0,0,0,0,0,-1,2001,1569,0,0
784,-545,0,0,0,0,0,0,0,0,0,-1,2008,1569,0,0
791,-545,0,0,0,0,0,0,0,0,0,-1,2015,1569,0,0
798,-545,0,0,0,0,0,0,0,0,0,-1,2022,1569,0,0
805,-545,0,0,0,0,0,0,0,0,0,-1,2029,1569,0,0
812,-545,0,0,0,0,0,0,0,0,0,-1,2036,1569,0,0
-700,-552,0,0,0,0,0,0,0,0,0,-1,524,1576,0,0
-693,-552,0,0,0,0,0,0,0,0,0,-1,531,1576,0,0
-686,-552,0,0,0,0,0,0,0,0,0,-1,538,1576,0,0
-679,-552,0,0,0,0,0,0,0,0,0,-1,545,1576,0,0
-672,-552,0,0,0,0,0,0,0,0,0,-1,552,1576,0,0
-665,-552,0,0,0,0,0,0,0,0,0,-1,559,1576,0,0
-658,-552,0,0,0,0,0,0,0,0,0,-1,566,1576,0,0
-651,-552,0,0,0,0,0,0,0,0,0,-1,573,1576,0,0
-644,-552,0,0,0,0,0,0,0,0,0,-1,580,1576,0,0
-637,-552,0,0,0,0,0,0,0,0,0,-1,587,1576,0,0
-630,-552,0,0,0,0,0,0,0,0,0,-1,594,1576,0,0
-623,-552,0,0,0,0,0,0,0,0,0,-1,601,1576,0,0
-616,-552,0,0,0,0,0,0,0,0,0,-1,608,1576,0,0
-609,-552,0,0,0,0,0,0,0,0,0,-1,615,1576,0,0
-602,-552,0,0,0,0,0,0,0,0,0,-1,622,1576,0,0
-595,-552,0,0,0,0,0,0,0,0,0,-1,629,1576,0,0
-588,-552,0,0,0,0,0,0,0,0,0,-1,636,1576,0,0
-581,-552,0,0,0,0,0,0,0,0,0,-1,643,1576,0,0
-574,-552,0,0,0,0,0,0,0,0,0,-1,650,1576,0,0
-567,-552,0,0,0,0,0,0,0,0,0,-1,657,1576,0,0
-560,-552,0,0,0,0,0,0,0,0,0,-1,664,1576,0,0
-553,-552,0,0,0,0,0,0,0,0,0,-1,671,1576,0,0
-546,-552,0,0,0,0,0,0,0,0,0,-1,678,1576,0,0
-539,-552,0,0,0,0,0,0,0,0,0,-1,685,1576,0,0
-532,-552,0,0,0,0,0,0,0,0,0,-1,692,1576,0,0
-525,-552,0,0,0,0,0,0,0,0,0,-1,699,1576,0,0
-518,-552,0,0,0,0,0,0,0,0,0,-1,706,1576,0,0
-511,-552,0,0,0,0,0,0,0,0,0,-1,713,1576,0,0
-504,-552,0,0,0,0,0,0,0,0,0,-1,720,1576,0,0
-497,-552,1.51282,3.96924,0,0,0,0,0,0,0,-1,727,1576,1.5128,-3.96924
-490,-552,-3.82312,6.32104,0,0,0,0,0,0,0,-1,734,1576,-3.82314,-6.3211
-483,-552,-3.50586,6.47986,0,0,0,0,0,0,0,-1,741,1576,-3.50587,-6.47983
-476,-552,-1.95129,4.43054,0,0,0,0,0,0,0,-1,748,1576,-1.95128,-4.43054
-469,-552,-1.40491,7.9895,0,0,0,0,0,0,0,-1,755,1576,-1.40491,-7.98947
-462,-552,0.0459595,16.3469,0,0,0,0,0,0,0,-1,762,1576,0.0459611,-16.3469
-455,-552,-3.21484,22.3766,0,0,0,0,0,0,0,-1,769,1576,-3.21487,-22.3766
-448,-552,-7.5672,35.5388,0,0,0,0,0,0,0,-1,776,1576,-7.56718,-35.5388
-441,-552,-6.46014,37.4419,0,0,0,0,0,0,0,-1,783,1576,-6.46013,-37.4419
-434,-552,-10.2953,45.2994,0,0,0,0,0,0,0,-1,790,1576,-10.2954,-45.2994
-427,-552,-38.4799,117.692,0,0,0,0,0,0,0,-1,797,1576,-38.4799,-117.691
-420,-552,-56.3555,139.577,0,0,0,0,0,0,0,-1,804,1576,-56.3555,-139.577
-413,-552,-57.6075,143.91,0.0346402,0.00934452,-0.0385658,0.0625792,-0.0185945,-0.626947,0.0491055,0.0258297,811,1576,-57.6075,-143.91
-406,-552,-58.8313,148.228,0.0346507,0.00517076,-0.0372492,0.0599703,-0.0201489,-0.596996,0.0481237,0.0207621,818,1576,-58.8313,-148.228
-399,-552,-60.0702,152.554,0.0342841,0.0016689,-0.0365159,0.0579683,-0.0220154,-0.575392,0.0477084,0.0219505,825,1576,-60.0702,-152.554
-392,-552,-61.341,156.991,0.0335587,-0.00113916,-0.0363938,0.0565272,-0.0241077,-0.562981,0.0477923,0.0248578,832,1576,-61.341,-156.991
-385,-552,-62.6257,161.5,0.0325454,-0.00340684,-0.0368684,0.0555865,-0.026448,-0.558569,0.0483483,0.0241099,839,1576,-62.6257,-161.501
-378,-552,-63.8632,165.882,0.031836,-0.00489676,-0.0381221,0.0557854,-0.0288461,-0.560916,0.0496803,0.024979,846,1576,-63.8632,-165.882
-371,-552,-64.978,170.339,0.0318648,-0.00617668,-0.0397902,0.0569468,-0.0312587,-0.562441,0.0516403,0.0309674,853,1576,-64.978,-170.339
-364,-552,-66.2341,174.681,0.0321121,-0.00707154,-0.0421144,0.0589688,-0.0339282,-0.567685,0.0542797,0.0262493,860,1576,-66.2341,-174.681
-357,-552,-67.5272,178.564,0,0,0,0,0,0,0,-1,867,1576,-67.5272,-178.564
-350,-552,-68.6769,182.283,0,0,0,0,0,0,0,-1,874,1576,-68.677,-182.283
-343,-552,-59.9205,182.345,0,0,0,0,0,0,0,-1,881,1576,-59.9205,-182.345
-336,-552,-12.1249,66.1841,0,0,0,0,0,0,0,-1,888,1576,-12.1249,-66.184
-329,-552,-3.68982,37.6417,0,0,0,0,0,0,0,-1,895,1576,-3.68984,-37.6417
-322,-552,-1.23962,28.5371,0,0,0,0,0,0,0,-1,902,1576,-1.23964,-28.5371
-315,-552,-0.605347,28.994,0,0,0,0,0,0,0,-1,909,1576,-0.605331,-28.9941
-308,-552,-1.01624,30.3169,0,0,0,0,0,0,0,-1,916,1576,-1.01624,-30.3169
-301,-552,1.39453,18.4995,0,0,0,0,0,0,0,-1,923,1576,1.3945,-18.4995
-294,-552,0.842163,13.7863,0,0,0,0,0,0,0,-1,930,1576,0.842149,-13.7863
-287,-552,-0.663757,13.3474,0,0,0,0,0,0,0,-1,937,1576,-0.663744,-13.3474
-280,-552,-5.47241,8.96765,0,0,0,0,0,0,0,-1,944,1576,-5.47239,-8.96766
-273,-552,1.64587,10.6685,0,0,0,0,0,0,0,-1,951,1576,1.6459,-10.6685
-266,-552,-1.32678,8.05688,0,0,0,0,0,0,0,-1,958,1576,-1.32677,-8.05683
-259,-552,-5.54321,8.31213,0,0,0,0,0,0,0,-1,965,1576,-5.54324,-8.31214
-252,-552,-1.93445,7.81543,0,0,0,0,0,0,0,-1,972,1576,-1.93445,-7.81546
-245,-552,-2.53613,6.92212,0,0,0,0,0,0,0,-1,979,1576,-2.53614,-6.92216
-238,-552,-6.5365,2.81885,0,0,0,0,0,0,0,-1,986,1576,-6.53649,-2.8188
-231,-552,-4.32239,4.34583,0,0,0,0,0,0,0,-1,993,1576,-4.32239,-4.34587
-224,-552,0,0,0,0,0,0,0,0,0,-1,1000,1576,0,0
-217,-552,0,0,0,0,0,0,0,0,0,-1,1007,1576,0,0
-210,-552,0,0,0,0,0,0,0,0,0,-1,1014,1576,0,0
-203,-552,0,0,0,0,0,0,0,0,0,-1,1021,1576,0,0
-196,-552,0,0,0,0,0,0,0,0,0,-1,1028,1576,0,0
-189,-552,0,0,0,0,0,0,0,0,0,-1,1035,1576,0,0
-182,-552,0,0,0,0,0,0,0,0,0,-1,1042,1576,0,0
-175,-552,0,0,0,0,0,0,0,0,0,-1,1049,1576,0,0
-168,-552,0,0,0,0,0,0,0,0,0,-1,1056,1576,0,0
-161,-552,0,0,0,0,0,0,0,0,0,-1,1063,1576,0,0
-154,-552,0,0,0,0,0,0,0,0,0,-1,1070,1576,0,0
-147,-552,0,0,0,0,0,0,0,0,0,-1,1077,1576,0,0
-140,-552,0,0,0,0,0,0,0,0,0,-1,1084,1576,0,0
-133,-552,0,0,0,0,0,0,0,0,0,-1,1091,1576,0,0
-126,-552,0,0,0,0,0,0,0,0,0,-1,1098,1576,0,0
-119,-552,0,0,0,0,0,0,0,0,0,-1,1105,1576,0,0
-112,-552,0,0,0,0,0,0,0,0,0,-1,1112,1576,0,0
-105,-552,0,0,0,0,0,0,0,0,0,-1,1119,1576,0,0
-98,-552,0,0,0,0,0,0,0,0,0,-1,1126,1576,0,0
-91,-552,0,0,0,0,0,0,0,0,0,-1,1133,1576,0,0
-84,-552,0,0,0,0,0,0,0,0,0,-1,1140,1576,0,0
-77,-552,0,0,0,0,0,0,0,0,0,-1,1147,1576,0,0
-70,-552,0,0,0,0,0,0,0,0,0,-1,1154,1576,0,0
-63,-552,0,0,0,0,0,0,0,0,0,-1,1161,1576,0,0
-56,-552,0,0,0,0,0,0,0,0,0,-1,1168,1576,0,0
-49,-552,0,0,0,0,0,0,0,0,0,-1,1175,1576,0,0
-42,-552,0,0,0,0,0,0,0,0,0,-1,1182,1576,0,0
-35,-552,0,0,0,0,0,0,0,0,0,-1,1189,1576,0,0
-28,-552,0,0,0,0,0,0,0,0,0,-1,1196,1576,0,0
-21,-552,0,0,0,0,0,0,0,0,0,-1,1203,1576,0,0
-14,-552,0,0,0,0,0,0,0,0,0,-1,1210,1576,0,0
-7,-552,0,0,0,0,0,0,0,0,0,-1,1217,1576,0,0
0,-552,0,0,0,0,0,0,0,0,0,-1,1224,1576,0,0
7,-552,0,0,0,0,0,0,0,0,0,-1,1231,1576,0,0
14,-552,0,0,0,0,0,0,0,0,0,-1,1238,1576,0,0
21,-552,0,0,0,0,0,0,0,0,0,-1,1245,1576,0,0
28,-552,0,0,0,0,0,0,0,0,0,-1,1252,1576,0,0
35,-552,0,0,0,0,0,0,0,0,0,-1,1259,1576,0,0
42,-552,0,0,0,0,0,0,0,0,0,-1,1266,1576,0,0
49,-552,0,0,0,0,0,0,0,0,0,-1,1273,1576,0,0
56,-552,0,0,0,0,0,0,0,0,0,-1,1280,1576,0,0
63,-552,0,0,0,0,0,0,0,0,0,-1,1287,1576,0,0
70,-552,0,0,0,0,0,0,0,0,0,-1,1294,1576,0,0
77,-552,0,0,0,0,0,0,0,0,0,-1,1301,1576,0,0
84,-552,0,0,0,0,0,0,0,0,0,-1,1308,1576,0,0
91,-552,0,0,0,0,0,0,0,0,0,-1,1315,1576,0,0
98,-552,0,0,0,0,0,0,0,0,0,-1,1322,1576,0,0
105,-552,0,0,0,0,0,0,0,0,0,-1,1329,1576,0,0
112,-552,0,0,0,0,0,0,0,0,0,-1,1336,1576,0,0
119,-552,0,0,0,0,0,0,0,0,0,-1,1343,1576,0,0
126,-552,0,0,0,0,0,0,0,0,0,-1,1350,1576,0,0
133,-552,0,0,0,0,0,0,0,0,0,-1,1357,1576,0,0
140,-552,0,0,0,0,0,0,0,0,0,-1,1364,1576,0,0
147,-552,0,0,0,0,0,0,0,0,0,-1,1371,1576,0,0
154,-552,0,0,0,0,0,0,0,0,0,-1,1378,1576,0,0
161,-552,0,0,0,0,0,0,0,0,0,-1,1385,1576,0,0
168,-552,0,0,0,0,0,0,0,0,0,-1,1392,1576,0,0
175,-552,0,0,0,0,0,0,0,0,0,-1,1399,1576,0,0
182,-552,0,0,0,0,0,0,0,0,0,-1,1406,1576,0,0
189,-552,0,0,0,0,0,0,0,0,0,-1,1413,1576,0,0
196,-552,0,0,0,0,0,0,0,0,0,-1,1420,1576,0,0
203,-552,0,0,0,0,0,0,0,0,0,-1,1427,1576,0,0
210,-552,0,0,0,0,0,0,0,0,0,-1,1434,1576,0,0
217,-552,0,0,0,0,0,0,0,0,0,-1,1441,1576,0,0
224,-552,0,0,0,0,0,0,0,0,0,-1,1448,1576,0,0
231,-552,0,0,0,0,0,0,0,0,0,-1,1455,1576,0,0
238,-552,0,0,0,0,0,0,0,0,0,-1,1462,1576,0,0
245,-552,0,0,0,0,0,0,0,0,0,-1,1469,1576,0,0
252,-552,0,0,0,0,0,0,0,0,0,-1,1476,1576,0,0
259,-552,0,0,0,0,0,0,0,0,0,-1,1483,1576,0,0
266,-552,0,0,0,0,0,0,0,0,0,-1,1490,1576,0,0
273,-552,0,0,0,0,0,0,0,0,0,-1,1497,1576,0,0
280,-552,0,0,0,0,0,0,0,0,0,-1,1504,1576,0,0
287,-552,0,0,0,0,0,0,0,0,0,-1,1511,1576,0,0
294,-552,0,0,0,0,0,0,0,0,0,-1,1518,1576,0,0
301,-552,0,0,0,0,0,0,0,0,0,-1,1525,1576,0,0
308,-552,0,0,0,0,0,0,0,0,0,-1,1532,1576,0,0
315,-552,0,0,0,0,0,0,0,0,0,-1,1539,1576,0,0
322,-552,0,0,0,0,0,0,0,0,0,-1,1546,1576,0,0
329,-552,0,0,0,0,0,0,0,0,0,-1,1553,1576,0,0
336,-552,0,0,0,0,0,0,0,0,0,-1,1560,1576,0,0
343,-552,0,0,0,0,0,0,0,0,0,-1,1567,1576,0,0
350,-552,4.97876,4.09888,0,0,0,0,0,0,0,-1,1574,1576,4.97875,-4.09883
357,-552,5.18469,4.10706,0,0,0,0,0,0,0,-1,1581,1576,5.1847,-4.10702
364,-552,5.80872,5.07031,0,0,0,0,0,0,0,-1,1588,1576,5.80874,-5.07037
371,-552,7.10657,5.64783,0,0,0,0,0,0,0,-1,1595,1576,7.10651,-5.64786
378,-552,6.44446,4.91492,0,0,0,0,0,0,0,-1,1602,1576,6.44448,-4.91496
385,-552,12.8276,3.16504,0,0,0,0,0,0,0,-1,1609,1576,12.8276,-3.16503
392,-552,12.1301,4.3363,0,0,0,0,0,0,0,-1,1616,1576,12.1302,-4.33631
399,-552,11.3486,5.6012,0,0,0,0,0,0,0,-1,1623,1576,11.3486,-5.60115
406,-552,10.7863,6.42542,0,0,0,0,0,0,0,-1,1630,1576,10.7863,-6.42536
413,-552,8.39307,10.365,0,0,0,0,0,0,0,-1,1637,1576,8.3931,-10.365
420,-552,10.2306,12.7225,0,0,0,0,0,0,0,-1,1644,1576,10.2305,-12.7226
427,-552,9.73267,14.783,0,0,0,0,0,0,0,-1,1651,1576,9.73269,-14.783
434,-552,12.0377,20.1364,0,0,0,0,0,0,0,-1,1658,1576,12.0377,-20.1364
441,-552,12.4963,21.5277,0,0,0,0,0,0,0,-1,1665,1576,12.4964,-21.5277
448,-552,12.9141,21.5482,0,0,0,0,0,0,0,-1,1672,1576,12.9141,-21.5482
455,-552,13.3318,21.5687,0,0,0,0,0,0,0,-1,1679,1576,13.3317,-21.5687
462,-552,12.745,20.5947,0,0,0,0,0,0,0,-1,1686,1576,12.745,-20.5947
469,-552,17.7067,29.6902,0,0,0,0,0,0,0,-1,1693,1576,17.7067,-29.6902
476,-552,42.0524,124.612,0,0,0,0,0,0,0,-1,1700,1576,42.0523,-124.612
483,-552,77.4824,187.76,0,0,0,0,0,0,0,-1,1707,1576,77.4824,-187.76
490,-552,76.2828,183.586,0,0,0,0,0,0,0,-1,1714,1576,76.2829,-183.586
497,-552,75.0472,179.151,0.0346525,-0.00171685,0.0277751,0.0496663,-0.0167307,0.495558,0.0398754,0.0449004,1721,1576,75.0473,-179.151
504,-552,73.7172,174.727,0.0320783,-0.00268903,0.0267288,0.0465792,-0.0171899,0.49708,0.0380981,0.0406611,1728,1576,73.7172,-174.727
511,-552,72.4264,170.291,0.0302862,-0.00339295,0.0254895,0.0439963,-0.0171031,0.493486,0.036397,0.0270052,1735,1576,72.4264,-170.291
518,-552,71.0273,165.701,0.0288755,-0.00356564,0.0247072,0.0422108,-0.016901,0.494928,0.0351555,0.0230495,1742,1576,71.0274,-165.701
525,-552,69.714,161.25,0.0280804,-0.00302296,0.0242169,0.0413092,-0.0162517,0.499968,0.0342663,0.023666,1749,1576,69.714,-161.25
532,-552,68.4685,156.894,0.0278272,-0.00167639,0.024043,0.0412833,-0.0151324,0.510233,0.0337179,0.0206669,1756,1576,68.4685,-156.894
539,-552,67.1486,152.546,0.0283588,0.000732183,0.024181,0.0423937,-0.0133028,0.525894,0.0335867,0.0230827,1763,1576,67.1485,-152.546
546,-552,65.8163,148.169,0.0294633,0.00444701,0.024511,0.0444732,-0.0105629,0.549468,0.0337257,0.026445,1770,1576,65.8163,-148.169
553,-552,64.6375,143.581,0.030722,0.00967204,0.025029,0.0473489,-0.00695489,0.586367,0.0341213,0.038668,1777,1576,64.6375,-143.581
560,-552,63.5048,138.883,0,0,0,0,0,0,0,-1,1784,1576,63.5047,-138.883
567,-552,26.8342,55.0354,0,0,0,0,0,0,0,-1,1791,1576,26.8342,-55.0354
574,-552,12.8835,14.8463,0,0,0,0,0,0,0,-1,1798,1576,12.8836,-14.8463
581,-552,9.74841,9.98645,0,0,0,0,0,0,0,-1,1805,1576,9.74847,-9.9864
588,-552,10.5619,9.34924,0,0,0,0,0,0,0,-1,1812,1576,10.5619,-9.34921
595,-552,5.36194,6.62744,0,0,0,0,0,0,0,-1,1819,1576,5.36193,-6.62742
602,-552,10.6863,4.31616,0,0,0,0,0,0,0,-1,1826,1576,10.6862,-4.31619
609,-552,12.146,3.18286,0,0,0,0,0,0,0,-1,1833,1576,12.1459,-3.18281
616,-552,13.8762,2.08167,0,0,0,0,0,0,0,-1,1840,1576,13.8763,-2.08167
623,-552,0,0,0,0,0,0,0,0,0,-1,1847,1576,0,0
630,-552,0,0,0,0,0,0,0,0,0,-1,1854,1576,0,0
637,-552,0,0,0,0,0,0,0,0,0,-1,1861,1576,0,0
644,-552,0,0,0,0,0,0,0,0,0,-1,1868,1576,0,0
651,-552,0,0,0,0,0,0,0,0,0,-1,1875,1576,0,0
658,-552,0,0,0,0,0,0,0,0,0,-1,1882,1576,0,0
665,-552,0,0,0,0,0,0,0,0,0,-1,1889,1576,0,0
672,-552,0,0,0,0,0,0,0,0,0,-1,1896,1576,0,0
679,-552,0,0,0,0,0,0,0,0,0,-1,1903,1576,0,0
686,-552,0,0,0,0,0,0,0,0,0,-1,1910,1576,0,0
693,-552,0,0,0,0,0,0,0,0,0,-1,1917,1576,0,0
700,-552,0,0,0,0,0,0,0,0,0,-1,1924,1576,0,0
707,-552,0,0,0,0,0,0,0,0,0,-1,1931,1576,0,0
714,-552,0,0,0,0,0,0,0,0,0,-1,1938,1576,0,0
721,-552,0,0,0,0,0,0,0,0,0,-1,1945,1576,0,0
728,-552,0,0,0,0,0,0,0,0,0,-1,1952,1576,0,0
735,-552,0,0,0,0,0,0,0,0,0,-1,1959,1576,0,0
742,-552,0,0,0,0,0,0,0,0,0,-1,1966,1576,0,0
749,-552,0,0,0,0,0,0,0,0,0,-1,1973,1576,0,0
756,-552,0,0,0,0,0,0,0,0,0,-1,1980,1576,0,0
763,-552,0,0,0,0,0,0,0,0,0,-1,1987,1576,0,0
770,-552,0,0,0,0,0,0,0,0,0,-1,1994,1576,0,0
777,-552,0,0,0,0,0,0,0,0,0,-1,2001,1576,0,0
784,-552,0,0,0,0,0,0,0,0,0,-1,2008,1576,0,0
791,-552,0,0,0,0,0,0,0,0,0,-1,2015,1576,0,0
798,-552,0,0,0,0,0,0,0,0,0,-1,2022,1576,0,0
805,-552,0,0,0,0,0,0,0,0,0,-1,2029,1576,0,0
812,-552,0,0,0,0,0,0,0,0,0,-1,2036,1576,0,0
-700,-559,0,0,0,0,0,0,0,0,0,-1,524,1583,0,0
-693,-559,0,0,0,0,0,0,0,0,0,-1,531,1583,0,0
-686,-559,0,0,0,0,0,0,0,0,0,-1,538,1583,0,0
-679,-559,0,0,0,0,0,0,0,0,0,-1,545,1583,0,0
-672,-559,0,0,0,0,0,0,0,0,0,-1,552,1583,0,0
-665,-559,0,0,0,0,0,0,0,0,0,-1,559,1583,0,0
-658,-559,0,0,0,0,0,0,0,0,0,-1,566,1583,0,0
-651,-559,0,0,0,0,0,0,0,0,0,-1,573,1583,0,0
-644,-559,0,0,0,0,0,0,0,0,0,-1,580,1583,0,0
-637,-559,0,0,0,0,0,0,0,0,0,-1,587,1583,0,0
-630,-559,0,0,0,0,0,0,0,0,0,-1,594,1583,0,0
-623,-559,0,0,0,0,0,0,0,0,0,-1,601,1583,0,0
-616,-559,0,0,0,0,0,0,0,0,0,-1,608,1583,0,0
-609,-559,0,0,0,0,0,0,0,0,0,-1,615,1583,0,0
-602,-559,0,0,0,0,0,0,0,0,0,-1,622,1583,0,0
-595,-559,0,0,0,0,0,0,0,0,0,-1,629,1583,0,0
-588,-559,0,0,0,0,0,0,0,0,0,-1,636,1583,0,0
-581,-559,0,0,0,0,0,0,0,0,0,-1,643,1583,0,0
-574,-559,0,0,0,0,0,0,0,0,0,-1,650,1583,0,0
-567,-559,0,0,0,0,0,0,0,0,0,-1,657,1583,0,0
-560,-559,0,0,0,0,0,0,0,0,0,-1,664,1583,0,0
-553,-559,0,0,0,0,0,0,0,0,0,-1,671,1583,0,0
-546,-559,0,0,0,0,0,0,0,0,0,-1,678,1583,0,0
-539,-559,0,0,0,0,0,0,0,0,0,-1,685,1583,0,0
-532,-559,0,0,0,0,0,0,0,0,0,-1,692,1583,0,0
-525,-559,0,0,0,0,0,0,0,0,0,-1,699,1583,0,0
-518,-559,0,0,0,0,0,0,0,0,0,-1,706,1583,0,0
-511,-559,0,0,0,0,0,0,0,0,0,-1,713,1583,0,0
-504,-559,0,0,0,0,0,0,0,0,0,-1,720,1583,0,0
-497,-559,0,0,0,0,0,0,0,0,0,-1,727,1583,0,0
-490,-559,-5.49835,4.47424,0,0,0,0,0,0,0,-1,734,1583,-5.49833,-4.4743
-483,-559,-5.24078,4.74561,0,0,0,0,0,0,0,-1,741,1583,-5.24079,-4.74563
-476,-559,-4.98022,4.99316,0,0,0,0,0,0,0,-1,748,1583,-4.98024,-4.99321
-469,-559,-4.6424,5.38062,0,0,0,0,0,0,0,-1,755,1583,-4.64237,-5.38058
-462,-559,-0.161865,6.49438,0,0,0,0,0,0,0,-1,762,1583,-0.161835,-6.49444
-455,-559,1.08826,7.02527,0,0,0,0,0,0,0,-1,769,1583,1.08823,-7.02529
-448,-559,-2.86023,20.0852,0,0,0,0,0,0,0,-1,776,1583,-2.86025,-20.0852
-441,-559,-4.58539,35.9545,0,0,0,0,0,0,0,-1,783,1583,-4.58539,-35.9545
-434,-559,-5.80078,38.0879,0,0,0,0,0,0,0,-1,790,1583,-5.80078,-38.0879
-427,-559,-8.86206,45.5948,0,0,0,0,0,0,0,-1,797,1583,-8.86204,-45.5949
-420,-559,-35.1311,118.731,0,0,0,0,0,0,0,-1,804,1583,-35.1311,-118.731
-413,-559,-52.9871,145.652,0,0,0,0,0,0,0,-1,811,1583,-52.9871,-145.652
-406,-559,-54.2004,150,0.0364506,0.00588749,-0.0359033,0.0601892,-0.0178511,-0.584196,0.0472151,0.0163663,818,1583,-54.2004,-150
-399,-559,-55.4657,154.34,0.0360772,0.00245358,-0.0350969,0.0581811,-0.0196503,-0.56204,0.0467354,0.0207182,825,1583,-55.4657,-154.34
-392,-559,-56.7389,158.786,0.0353555,-0.000356525,-0.0348998,0.056702,-0.021703,-0.548941,0.0467463,0.0234011,832,1583,-56.7389,-158.786
-385,-559,-58.0017,163.255,0.0343911,-0.00264318,-0.0352673,0.0557069,-0.023959,-0.543655,0.0471969,0.0246675,839,1583,-58.0017,-163.255
-378,-559,-59.2216,167.738,0.0337545,-0.00426776,-0.0363542,0.0557684,-0.0262817,-0.544482,0.0483806,0.0211983,846,1583,-59.2216,-167.738
-371,-559,-60.4468,172.218,0.0339033,-0.00535172,-0.0378852,0.0569434,-0.0283918,-0.546395,0.0501791,0.0298674,853,1583,-60.4468,-172.218
-364,-559,-61.6504,176.567,0.0344804,-0.00595905,-0.039992,0.0590736,-0.0305523,-0.551342,0.0526116,0.029649,860,1583,-61.6504,-176.567
-357,-559,-62.8538,180.881,0,0,0,0,0,0,0,-1,867,1583,-62.8538,-180.881
-350,-559,-59.7941,183.534,0,0,0,0,0,0,0,-1,874,1583,-59.7941,-183.534
-343,-559,-56.7291,184.945,0,0,0,0,0,0,0,-1,881,1583,-56.729,-184.945
-336,-559,-56.8704,188.49,0,0,0,0,0,0,0,-1,888,1583,-56.8704,-188.489
-329,-559,-12.5913,70.7823,0,0,0,0,0,0,0,-1,895,1583,-12.5913,-70.7824
-322,-559,-6.67694,51.8236,0,0,0,0,0,0,0,-1,902,1583,-6.67692,-51.8236
-315,-559,-0.659607,29.1698,0,0,0,0,0,0,0,-1,909,1583,-0.659577,-29.1698
-308,-559,-0.755493,30.4624,0,0,0,0,0,0,0,-1,916,1583,-0.755509,-30.4625
-301,-559,-1.22174,31.0372,0,0,0,0,0,0,0,-1,923,1583,-1.22176,-31.0372
-294,-559,0.945129,18.5165,0,0,0,0,0,0,0,-1,930,1583,0.945117,-18.5165
-287,-559,-0.11792,15.4912,0,0,0,0,0,0,0,-1,937,1583,-0.117939,-15.4912
-280,-559,0.191467,13.5093,0,0,0,0,0,0,0,-1,944,1583,0.191441,-13.5093
-273,-559,2.12836,10.3059,0,0,0,0,0,0,0,-1,951,1583,2.12839,-10.3059
-266,-559,-0.597046,6.68933,0,0,0,0,0,0,0,-1,958,1583,-0.597031,-6.68937
-259,-559,-7.00311,8.62756,0,0,0,0,0,0,0,-1,965,1583,-7.00312,-8.6275
-252,-559,-9.4483,2.87805,0,0,0,0,0,0,0,-1,972,1583,-9.44829,-2.87805
-245,-559,-4.80804,7.1803,0,0,0,0,0,0,0,-1,979,1583,-4.80804,-7.18027
-238,-559,-8.45764,2.54858,0,0,0,0,0,0,0,-1,986,1583,-8.45763,-2.54862
-231,-559,-5.86914,4.34021,0,0,0,0,0,0,0,-1,993,1583,-5.86914,-4.34019
-224,-559,-3.30505,6.22864,0,0,0,0,0,0,0,-1,1000,1583,-3.30505,-6.22859
-217,-559,0,0,0,0,0,0,0,0,0,-1,1007,1583,0,0
-210,-559,0,0,0,0,0,0,0,0,0,-1,1014,1583,0,0
-203,-559,0,0,0,0,0,0,0,0,0,-1,1021,1583,0,0
-196,-559,0,0,0,0,0,0,0,0,0,-1,1028,1583,0,0
-189,-559,0,0,0,0,0,0,0,0,0,-1,1035,1583,0,0
-182,-559,0,0,0,0,0,0,0,0,0,-1,1042,1583,0,0
-175,-559,0,0,0,0,0,0,0,0,0,-1,1049,1583,0,0
-168,-559,0,0,0,0,0,0,0,0,0,-1,1056,1583,0,0
-161,-559,0,0,0,0,0,0,0,0,0,-1,1063,1583,0,0
-154,-559,0,0,0,0,0,0,0,0,0,-1,1070,1583,0,0
-147,-559,0,0,0,0,0,0,0,0,0,-1,1077,1583,0,0
-140,-559,0,0,0,0,0,0,0,0,0,-1,1084,1583,0,0
-133,-559,0,0,0,0,0,0,0,0,0,-1,1091,1583,0,0
-126,-559,0,0,0,0,0,0,0,0,0,-1,1098,1583,0,0
-119,-559,0,0,0,0,0,0,0,0,0,-1,1105,1583,0,0
-112,-559,0,0,0,0,0,0,0,0,0,-1,1112,1583,0,0
-105,-559,0,0,0,0,0,0,0,0,0,-1,1119,1583,0,0
-98,-559,0,0,0,0,0,0,0,0,0,-1,1126,1583,0,0
-91,-559,0,0,0,0,0,0,0,0,0,-1,1133,1583,0,0
-84,-559,0,0,0,0,0,0,0,0,0,-1,1140,1583,0,0
-77,-559,0,0,0,0,0,0,0,0,0,-1,1147,1583,0,0
-70,-559,0,0,0,0,0,0,0,0,0,-1,1154,1583,0,0
-63,-559,0,0,0,0,0,0,0,0,0,-1,1161,1583,0,0
-56,-559,0,0,0,0,0,0,0,0,0,-1,1168,1583,0,0
-49,-559,0,0,0,0,0,0,0,0,0,-1,1175,1583,0,0
-42,-559,0,0,0,0,0,0,0,0,0,-1,1182,1583,0,0
-35,-559,0,0,0,0,0,0,0,0,0,-1,1189,1583,0,0
-28,-559,0,0,0,0,0,0,0,0,0,-1,1196,1583,0,0
-21,-559,0,0,0,0,0,0,0,0,0,-1,1203,1583,0,0
-14,-559,0,0,0,0,0,0,0,0,0,-1,1210,1583,0,0
-7,-559,0,0,0,0,0,0,0,0,0,-1,1217,1583,0,0
0,-559,0,0,0,0,0,0,0,0,0,-1,1224,1583,0,0
7,-559,0,0,0,0,0,0,0,0,0,-1,1231,1583,0,0
14,-559,0,0,0,0,0,0,0,0,0,-1,1238,1583,0,0
21,-559,0,0,0,0,0,0,0,0,0,-1,1245,1583,0,0
28,-559,0,0,0,0,0,0,0,0,0,-1,1252,1583,0,0
35,-559,0,0,0,0,0,0,0,0,0,-1,1259,1583,0,0
42,-559,0,0,0,0,0,0,0,0,0,-1,1266,1583,0,0
49,-559,0,0,0,0,0,0,0,0,0,-1,1273,1583,0,0
56,-559,0,0,0,0,0,0,0,0,0,-1,1280,1583,0,0
63,-559,0,0,0,0,0,0,0,0,0,-1,1287,1583,0,0
70,-559,0,0,0,0,0,0,0,0,0,-1,1294,1583,0,0
77,-559,0,0,0,0,0,0,0,0,0,-1,1301,1583,0,0
84,-559,0,0,0,0,0,0,0,0,0,-1,1308,1583,0,0
91,-559,0,0,0,0,0,0,0,0,0,-1,1315,1583,0,0
98,-559,0,0,0,0,0,0,0,0,0,-1,1322,1583,0,0
105,-559,0,0,0,0,0,0,0,0,0,-1,1329,1583,0,0
112,-559,0,0,0,0,0,0,0,0,0,-1,1336,1583,0,0
119,-559,0,0,0,0,0,0,0,0,0,-1,1343,1583,0,0
126,-559,0,0,0,0,0,0,0,0,0,-1,1350,1583,0,0
133,-559,0,0,0,0,0,0,0,0,0,-1,1357,1583,0,0
140,-559,0,0,0,0,0,0,0,0,0,-1,1364,1583,0,0
147,-559,0,0,0,0,0,0,0,0,0,-1,1371,1583,0,0
154,-559,0,0,0,0,0,0,0,0,0,-1,1378,1583,0,0
161,-559,0,0,0,0,0,0,0,0,0,-1,1385,1583,0,0
168,-559,0,0,0,0,0,0,0,0,0,-1,1392,1583,0,0
175,-559,0,0,0,0,0,0,0,0,0,-1,1399,1583,0,0
182,-559,0,0,0,0,0,0,0,0,0,-1,1406,1583,0,0
189,-559,0,0,0,0,0,0,0,0,0,-1,1413,1583,0,0
196,-559,0,0,0,0,0,0,0,0,0,-1,1420,1583,0,0
203,-559,0,0,0,0,0,0,0,0,0,-1,1427,1583,0,0
210,-559,0,0,0,0,0,0,0,0,0,-1,1434,1583,0,0
217,-559,0,0,0,0,0,0,0,0,0,-1,1441,1583,0,0
224,-559,0,0,0,0,0,0,0,0,0,-1,1448,1583,0,0
231,-559,0,0,0,0,0,0,0,0,0,-1,1455,1583,0,0
238,-559,0,0,0,0,0,0,0,0,0,-1,1462,1583,0,0
245,-559,0,0,0,0,0,0,0,0,0,-1,1469,1583,0,0
252,-559,0,0,0,0,0,0,0,0,0,-1,1476,1583,0,0
259,-559,0,0,0,0,0,0,0,0,0,-1,1483,1583,0,0
266,-559,0,0,0,0,0,0,0,0,0,-1,1490,1583,0,0
273,-559,0,0,0,0,0,0,0,0,0,-1,1497,1583,0,0
280,-559,0,0,0,0,0,0,0,0,0,-1,1504,1583,0,0
287,-559,0,0,0,0,0,0,0,0,0,-1,1511,1583,0,0
294,-559,0,0,0,0,0,0,0,0,0,-1,1518,1583,0,0
301,-559,0,0,0,0,0,0,0,0,0,-1,1525,1583,0,0
308,-559,0,0,0,0,0,0,0,0,0,-1,1532,1583,0,0
315,-559,0,0,0,0,0,0,0,0,0,-1,1539,1583,0,0
322,-559,0,0,0,0,0,0,0,0,0,-1,1546,1583,0,0
329,-559,0,0,0,0,0,0,0,0,0,-1,1553,1583,0,0
336,-559,5.97668,3.09827,0,0,0,0,0,0,0,-1,1560,1583,5.97667,-3.09824
343,-559,5.44824,2.88696,0,0,0,0,0,0,0,-1,1567,1583,5.44819,-2.88693
350,-559,4.69775,3.27051,0,0,0,0,0,0,0,-1,1574,1583,4.69771,-3.27048
357,-559,3.88025,3.60999,0,0,0,0,0,0,0,-1,1581,1583,3.88027,-3.60998
364,-559,5.00928,5.32605,0,0,0,0,0,0,0,-1,1588,1583,5.00928,-5.32607
371,-559,21.0801,52.1865,0,0,0,0,0,0,0,-1,1595,1583,21.0801,-52.1865
378,-559,6.34753,1.53137,0,0,0,0,0,0,0,-1,1602,1583,6.34752,-1.53139
385,-559,6.95911,1.48181,0,0,0,0,0,0,0,-1,1609,1583,6.95916,-1.48175
392,-559,11.6949,4.77734,0,0,0,0,0,0,0,-1,1616,1583,11.6949,-4.77731
399,-559,11.1104,5.56909,0,0,0,0,0,0,0,-1,1623,1583,11.1103,-5.56905
406,-559,10.3385,6.48657,0,0,0,0,0,0,0,-1,1630,1583,10.3385,-6.48661
413,-559,9.76147,6.97571,0,0,0,0,0,0,0,-1,1637,1583,9.76143,-6.97574
420,-559,7.77124,10.5851,0,0,0,0,0,0,0,-1,1644,1583,7.77128,-10.585
427,-559,10.1022,12.5565,0,0,0,0,0,0,0,-1,1651,1583,10.1021,-12.5565
434,-559,9.62769,14.6309,0,0,0,0,0,0,0,-1,1658,1583,9.62771,-14.6309
441,-559,12.6149,21.3678,0,0,0,0,0,0,0,-1,1665,1583,12.6149,-21.3678
448,-559,13.7046,22.6677,0,0,0,0,0,0,0,-1,1672,1583,13.7046,-22.6677
455,-559,13.9427,23.0509,0,0,0,0,0,0,0,-1,1679,1583,13.9427,-23.0509
462,-559,21.9476,42.0568,0,0,0,0,0,0,0,-1,1686,1583,21.9477,-42.0568
469,-559,59.7739,192.254,0,0,0,0,0,0,0,-1,1693,1583,59.7739,-192.254
476,-559,74.1273,193.691,0,0,0,0,0,0,0,-1,1700,1583,74.1273,-193.691
483,-559,72.9225,189.405,0.0386989,0.000763013,0.0288413,0.0542505,-0.0147887,0.494526,0.0419742,0.0417567,1707,1583,72.9225,-189.405
490,-559,71.7559,185.095,0.0360561,-0.000582128,0.0272922,0.0506073,-0.0151333,0.489824,0.0397547,0.0265607,1714,1583,71.7558,-185.095
497,-559,70.5144,180.777,0.0337437,-0.00167847,0.0258574,0.0473741,-0.0153088,0.48512,0.0377354,0.026907,1721,1583,70.5144,-180.777
504,-559,69.2527,176.432,0.031695,-0.0024312,0.0246319,0.0445966,-0.0153328,0.482486,0.035949,0.0311756,1728,1583,69.2526,-176.432
511,-559,67.9646,171.964,0.0302042,-0.00311143,0.023367,0.0422431,-0.0151503,0.47574,0.0343447,0.0270104,1735,1583,67.9646,-171.964
518,-559,66.5601,167.418,0.0290186,-0.00320523,0.022534,0.0406083,-0.0147949,0.475035,0.0331241,0.0199669,1742,1583,66.56,-167.418
525,-559,65.2384,162.948,0.0283837,-0.00254933,0.0219988,0.0398088,-0.0139744,0.479009,0.0322237,0.0221626,1749,1583,65.2384,-162.948
532,-559,64.0177,158.611,0.0284552,-0.00102129,0.0217317,0.039975,-0.0125411,0.487429,0.0316692,0.022988,1756,1583,64.0177,-158.611
539,-559,62.6781,154.25,0.0293567,0.00169366,0.0217964,0.0413398,-0.0102894,0.502669,0.0315539,0.0269514,1763,1583,62.6781,-154.25
546,-559,61.2743,149.872,0.0307268,0.00568295,0.0219705,0.0434932,-0.0070835,0.526386,0.0316222,0.0267454,1770,1583,61.2743,-149.872
553,-559,59.8789,145.281,0,0,0,0,0,0,0,-1,1777,1583,59.8789,-145.281
560,-559,35.3595,88.3951,0,0,0,0,0,0,0,-1,1784,1583,35.3595,-88.3951
567,-559,21.7423,29.5544,0,0,0,0,0,0,0,-1,1791,1583,21.7423,-29.5544
574,-559,10.5109,10.7317,0,0,0,0,0,0,0,-1,1798,1583,10.5108,-10.7317
581,-559,5.97095,5.96179,0,0,0,0,0,0,0,-1,1805,1583,5.97093,-5.96181
588,-559,5.79102,5.89954,0,0,0,0,0,0,0,-1,1812,1583,5.79098,-5.89949
595,-559,5.79089,6.24231,0,0,0,0,0,0,0,-1,1819,1583,5.7909,-6.24227
602,-559,12.478,2.35669,0,0,0,0,0,0,0,-1,1826,1583,12.4781,-2.35675
609,-559,14.0479,1.22681,0,0,0,0,0,0,0,-1,1833,1583,14.0479,-1.22681
616,-559,0,0,0,0,0,0,0,0,0,-1,1840,1583,0,0
623,-559,0,0,0,0,0,0,0,0,0,-1,1847,1583,0,0
630,-559,0,0,0,0,0,0,0,0,0,-1,1854,1583,0,0
637,-559,0,0,0,0,0,0,0,0,0,-1,1861,1583,0,0
644,-559,0,0,0,0,0,0,0,0,0,-1,1868,1583,0,0
651,-559,0,0,0,0,0,0,0,0,0,-1,1875,1583,0,0
658,-559,0,0,0,0,0,0,0,0,0,-1,1882,1583,0,0
665,-559,0,0,0,0,0,0,0,0,0,-1,1889,1583,0,0
672,-559,0,0,0,0,0,0,0,0,0,-1,1896,1583,0,0
679,-559,0,0,0,0,0,0,0,0,0,-1,1903,1583,0,0
686,-559,0,0,0,0,0,0,0,0,0,-1,1910,1583,0,0
693,-559,0,0,0,0,0,0,0,0,0,-1,1917,1583,0,0
700,-559,0,0,0,0,0,0,0,0,0,-1,1924,1583,0,0
707,-559,0,0,0,0,0,0,0,0,0,-1,1931,1583,0,0
714,-559,0,0,0,0,0,0,0,0,0,-1,1938,1583,0,0
721,-559,0,0,0,0,0,0,0,0,0,-1,1945,1583,0,0
728,-559,0,0,0,0,0,0,0,0,0,-1,1952,1583,0,0
735,-559,0,0,0,0,0,0,0,0,0,-1,1959,1583,0,0
742,-559,0,0,0,0,0,0,0,0,0,-1,1966,1583,0,0
749,-559,0,0,0,0,0,0,0,0,0,-1,1973,1583,0,0
756,-559,0,0,0,0,0,0,0,0,0,-1,1980,1583,0,0
763,-559,0,0,0,0,0,0,0,0,0,-1,1987,1583,0,0
770,-559,0,0,0,0,0,0,0,0,0,-1,1994,1583,0,0
777,-559,0,0,0,0,0,0,0,0,0,-1,2001,1583,0,0
784,-559,0,0,0,0,0,0,0,0,0,-1,2008,1583,0,0
791,-559,0,0,0,0,0,0,0,0,0,-1,2015,1583,0,0
798,-559,0,0,0,0,0,0,0,0,0,-1,2022,1583,0,0
805,-559,0,0,0,0,0,0,0,0,0,-1,2029,1583,0,0
812,-559,0,0,0,0,0,0,0,0,0,-1,2036,1583,0,0
-700,-566,0,0,0,0,0,0,0,0,0,-1,524,1590,0,0
-693,-566,0,0,0,0,0,0,0,0,0,-1,531,1590,0,0
-686,-566,0,0,0,0,0,0,0,0,0,-1,538,1590,0,0
-679,-566,0,0,0,0,0,0,0,0,0,-1,545,1590,0,0
-672,-566,0,0,0,0,0,0,0,0,0,-1,552,1590,0,0
-665,-566,0,0,0,0,0,0,0,0,0,-1,559,1590,0,0
-658,-566,0,0,0,0,0,0,0,0,0,-1,566,1590,0,0
-651,-566,0,0,0,0,0,0,0,0,0,-1,573,1590,0,0
-644,-566,0,0,0,0,0,0,0,0,0,-1,580,1590,0,0
-637,-566,0,0,0,0,0,0,0,0,0,-1,587,1590,0,0
-630,-566,0,0,0,0,0,0,0,0,0,-1,594,1590,0,0
-623,-566,0,0,0,0,0,0,0,0,0,-1,601,1590,0,0
-616,-566,0,0,0,0,0,0,0,0,0,-1,608,1590,0,0
-609,-566,0,0,0,0,0,0,0,0,0,-1,615,1590,0,0
-602,-566,0,0,0,0,0,0,0,0,0,-1,622,1590,0,0
-595,-566,0,0,0,0,0,0,0,0,0,-1,629,1590,0,0
-588,-566,0,0,0,0,0,0,0,0,0,-1,636,1590,0,0
-581,-566,0,0,0,0,0,0,0,0,0,-1,643,1590,0,0
-574,-566,0,0,0,0,0,0,0,0,0,-1,650,1590,0,0
-567,-566,0,0,0,0,0,0,0,0,0,-1,657,1590,0,0
-560,-566,0,0,0,0,0,0,0,0,0,-1,664,1590,0,0
-553,-566,0,0,0,0,0,0,0,0,0,-1,671,1590,0,0
-546,-566,0,0,0,0,0,0,0,0,0,-1,678,1590,0,0
-539,-566,0,0,0,0,0,0,0,0,0,-1,685,1590,0,0
-532,-566,0,0,0,0,0,0,0,0,0,-1,692,1590,0,0
-525,-566,0,0,0,0,0,0,0,0,0,-1,699,1590,0,0
-518,-566,0,0,0,0,0,0,0,0,0,-1,706,1590,0,0
-511,-566,0,0,0,0,0,0,0,0,0,-1,713,1590,0,0
-504,-566,0,0,0,0,0,0,0,0,0,-1,720,1590,0,0
-497,-566,0,0,0,0,0,0,0,0,0,-1,727,1590,0,0
-490,-566,0,0,0,0,0,0,0,0,0,-1,734,1590,0,0
-483,-566,-7.17084,2.78613,0,0,0,0,0,0,0,-1,741,1590,-7.17083,-2.78618
-476,-566,-7.13971,2.87183,0,0,0,0,0,0,0,-1,748,1590,-7.13971,-2.87184
-469,-566,-6.43829,3.2998,0,0,0,0,0,0,0,-1,755,1590,-6.43829,-3.2998
-462,-566,-0.459106,3.89343,0,0,0,0,0,0,0,-1,762,1590,-0.459095,-3.89341
-455,-566,0.280212,4.74023,0,0,0,0,0,0,0,-1,769,1590,0.280207,-4.74023
-448,-566,0.436951,5.51306,0,0,0,0,0,0,0,-1,776,1590,0.436971,-5.51301
-441,-566,-0.440735,12.4063,0,0,0,0,0,0,0,-1,783,1590,-0.440753,-12.4062
-434,-566,-4.50739,36.9485,0,0,0,0,0,0,0,-1,790,1590,-4.50737,-36.9485
-427,-566,-5.04791,38.1658,0,0,0,0,0,0,0,-1,797,1590,-5.04793,-38.1658
-420,-566,-7.9455,47.2288,0,0,0,0,0,0,0,-1,804,1590,-7.94552,-47.2288
-413,-566,-33.1661,122.841,0,0,0,0,0,0,0,-1,811,1590,-33.1661,-122.841
-406,-566,-49.509,151.731,0,0,0,0,0,0,0,-1,818,1590,-49.509,-151.731
-399,-566,-50.8571,156.128,0.038005,0.00334696,-0.0328965,0.0578576,-0.0165056,-0.54298,0.0450921,0.0173265,825,1590,-50.8571,-156.128
-392,-566,-52.2014,160.542,0.0371071,0.000428564,-0.0327519,0.0563046,-0.018769,-0.530175,0.0451135,0.0197649,832,1590,-52.2013,-160.541
-385,-566,-53.3868,165.053,0.0360314,-0.00190656,-0.0331599,0.0552646,-0.0211397,-0.525593,0.045555,0.0226433,839,1590,-53.3868,-165.053
-378,-566,-54.5634,169.613,0.0352769,-0.00364533,-0.0341884,0.0551551,-0.0235235,-0.526654,0.0466328,0.0214977,846,1590,-54.5634,-169.613
-371,-566,-55.7821,174.008,0.0352856,-0.00462142,-0.0356834,0.0562155,-0.0255513,-0.530466,0.0483019,0.0279775,853,1590,-55.7821,-174.008
-364,-566,-57.0189,178.37,0.0358867,-0.00514263,-0.0376138,0.0582165,-0.0274724,-0.535745,0.0505228,0.0288592,860,1590,-57.0189,-178.37
-357,-566,-58.3228,182.615,0.0373493,-0.00512399,-0.0400682,0.0614608,-0.0292355,-0.541714,0.0534539,0.0358089,867,1590,-58.3228,-182.615
-350,-566,-59.3875,186.881,0,0,0,0,0,0,0,-1,874,1590,-59.3875,-186.881
-343,-566,-60.4344,191.348,0,0,0,0,0,0,0,-1,881,1590,-60.4345,-191.348
-336,-566,-52.5401,191.728,0,0,0,0,0,0,0,-1,888,1590,-52.5401,-191.728
-329,-566,-52.4686,193.77,0,0,0,0,0,0,0,-1,895,1590,-52.4686,-193.77
-322,-566,-50.5175,191.926,0,0,0,0,0,0,0,-1,902,1590,-50.5175,-191.926
-315,-566,-5.8877,52.3676,0,0,0,0,0,0,0,-1,909,1590,-5.88771,-52.3675
-308,-566,-0.127258,29.7607,0,0,0,0,0,0,0,-1,916,1590,-0.12725,-29.7608
-301,-566,0.424011,30.6545,0,0,0,0,0,0,0,-1,923,1590,0.424036,-30.6546
-294,-566,-2.54523,43.1459,0,0,0,0,0,0,0,-1,930,1590,-2.54522,-43.1458
-287,-566,1.25391,23.4589,0,0,0,0,0,0,0,-1,937,1590,1.2539,-23.4589
-280,-566,1.59406,17.8762,0,0,0,0,0,0,0,-1,944,1590,1.59405,-17.8762
-273,-566,0.49762,11.2427,0,0,0,0,0,0,0,-1,951,1590,0.497591,-11.2426
-266,-566,0.392151,6.90295,0,0,0,0,0,0,0,-1,958,1590,0.392151,-6.90294
-259,-566,0.343628,6.47437,0,0,0,0,0,0,0,-1,965,1590,0.34363,-6.47438
-252,-566,-7.68311,1.01343,0,0,0,0,0,0,0,-1,972,1590,-7.68308,-1.01348
-245,-566,-11.1835,1.97522,0,0,0,0,0,0,0,-1,979,1590,-11.1835,-1.97527
-238,-566,-10.4883,2.40491,0,0,0,0,0,0,0,-1,986,1590,-10.4883,-2.40487
-231,-566,-7.41827,4.22803,0,0,0,0,0,0,0,-1,993,1590,-7.41827,-4.22803
-224,-566,-4.67188,6.30859,0,0,0,0,0,0,0,-1,1000,1590,-4.67185,-6.30853
-217,-566,-2.82867,7.52527,0,0,0,0,0,0,0,-1,1007,1590,-2.82869,-7.52531
-210,-566,-1.03436,8.67737,0,0,0,0,0,0,0,-1,1014,1590,-1.03439,-8.67733
-203,-566,0,0,0,0,0,0,0,0,0,-1,1021,1590,0,0
-196,-566,0,0,0,0,0,0,0,0,0,-1,1028,1590,0,0
-189,-566,0,0,0,0,0,0,0,0,0,-1,1035,1590,0,0
-182,-566,0,0,0,0,0,0,0,0,0,-1,1042,1590,0,0
-175,-566,0,0,0,0,0,0,0,0,0,-1,1049,1590,0,0
-168,-566,0,0,0,0,0,0,0,0,0,-1,1056,1590,0,0
-161,-566,0,0,0,0,0,0,0,0,0,-1,1063,1590,0,0
-154,-566,0,0,0,0,0,0,0,0,0,-1,1070,1590,0,0
-147,-566,0,0,0,0,0,0,0,0,0,-1,1077,1590,0,0
-140,-566,0,0,0,0,0,0,0,0,0,-1,1084,1590,0,0
-133,-566,0,0,0,0,0,0,0,0,0,-1,1091,1590,0,0
-126,-566,0,0,0,0,0,0,0,0,0,-1,1098,1590,0,0
-119,-566,0,0,0,0,0,0,0,0,0,-1,1105,1590,0,0
-112,-566,0,0,0,0,0,0,0,0,0,-1,1112,1590,0,0
-105,-566,0,0,0,0,0,0,0,0,0,-1,1119,1590,0,0
-98,-566,0,0,0,0,0,0,0,0,0,-1,1126,1590,0,0
-91,-566,0,0,0,0,0,0,0,0,0,-1,1133,1590,0,0
-84,-566,0,0,0,0,0,0,0,0,0,-1,1140,1590,0,0
-77,-566,0,0,0,0,0,0,0,0,0,-1,1147,1590,0,0
-70,-566,0,0,0,0,0,0,0,0,0,-1,1154,1590,0,0
-63,-566,0,0,0,0,0,0,0,0,0,-1,1161,1590,0,0
-56,-566,0,0,0,0,0,0,0,0,0,-1,1168,1590,0,0
-49,-566,0,0,0,0,0,0,0,0,0,-1,1175,1590,0,0
-42,-566,0,0,0,0,0,0,0,0,0,-1,1182,1590,0,0
-35,-566,0,0,0,0,0,0,0,0,0,-1,1189,1590,0,0
-28,-566,0,0,0,0,0,0,0,0,0,-1,1196,1590,0,0
-21,-566,0,0,0,0,0,0,0,0,0,-1,1203,1590,0,0
-14,-566,0,0,0,0,0,0,0,0,0,-1,1210,1590,0,0
-7,-566,0,0,0,0,0,0,0,0,0,-1,1217,1590,0,0
0,-566,0,0,0,0,0,0,0,0,0,-1,1224,1590,0,0
7,-566,0,0,0,0,0,0,0,0,0,-1,1231,1590,0,0
14,-566,0,0,0,0,0,0,0,0,0,-1,1238,1590,0,0
21,-566,0,0,0,0,0,0,0,0,0,-1,1245,1590,0,0
28,-566,0,0,0,0,0,0,0,0,0,-1,1252,1590,0,0
35,-566,0,0,0,0,0,0,0,0,0,-1,1259,1590,0,0
42,-566,0,0,0,0,0,0,0,0,0,-1,1266,1590,0,0
49,-566,0,0,0,0,0,0,0,0,0,-1,1273,1590,0,0
56,-566,0,0,0,0,0,0,0,0,0,-1,1280,1590,0,0
63,-566,0,0,0,0,0,0,0,0,0,-1,1287,1590,0,0
70,-566,0,0,0,0,0,0,0,0,0,-1,1294,1590,0,0
77,-566,0,0,0,0,0,0,0,0,0,-1,1301,1590,0,0
84,-566,0,0,0,0,0,0,0,0,0,-1,1308,1590,0,0
91,-566,0,0,0,0,0,0,0,0,0,-1,1315,1590,0,0
98,-566,0,0,0,0,0,0,0,0,0,-1,1322,1590,0,0
105,-566,0,0,0,0,0,0,0,0,0,-1,1329,1590,0,0
112,-566,0,0,0,0,0,0,0,0,0,-1,1336,1590,0,0
119,-566,0,0,0,0,0,0,0,0,0,-1,1343,1590,0,0
126,-566,0,0,0,0,0,0,0,0,0,-1,1350,1590,0,0
133,-566,0,0,0,0,0,0,0,0,0,-1,1357,1590,0,0
140,-566,0,0,0,0,0,0,0,0,0,-1,1364,1590,0,0
147,-566,0,0,0,0,0,0,0,0,0,-1,1371,1590,0,0
154,-566,0,0,0,0,0,0,0,0,0,-1,1378,1590,0,0
161,-566,0,0,0,0,0,0,0,0,0,-1,1385,1590,0,0
168,-566,0,0,0,0,0,0,0,0,0,-1,1392,1590,0,0
175,-566,0,0,0,0,0,0,0,0,0,-1,1399,1590,0,0
182,-566,0,0,0,0,0,0,0,0,0,-1,1406,1590,0,0
189,-566,0,0,0,0,0,0,0,0,0,-1,1413,1590,0,0
196,-566,0,0,0,0,0,0,0,0,0,-1,1420,1590,0,0
203,-566,0,0,0,0,0,0,0,0,0,-1,1427,1590,0,0
210,-566,0,0,0,0,0,0,0,0,0,-1,1434,1590,0,0
217,-566,0,0,0,0,0,0,0,0,0,-1,1441,1590,0,0
224,-566,0,0,0,0,0,0,0,0,0,-1,1448,1590,0,0
231,-566,0,0,0,0,0,0,0,0,0,-1,1455,1590,0,0
238,-566,0,0,0,0,0,0,0,0,0,-1,1462,1590,0,0
245,-566,0,0,0,0,0,0,0,0,0,-1,1469,1590,0,0
252,-566,0,0,0,0,0,0,0,0,0,-1,1476,1590,0,0
259,-566,0,0,0,0,0,0,0,0,0,-1,1483,1590,0,0
266,-566,0,0,0,0,0,0,0,0,0,-1,1490,1590,0,0
273,-566,0,0,0,0,0,0,0,0,0,-1,1497,1590,0,0
280,-566,0,0,0,0,0,0,0,0,0,-1,1504,1590,0,0
287,-566,0,0,0,0,0,0,0,0,0,-1,1511,1590,0,0
294,-566,0,0,0,0,0,0,0,0,0,-1,1518,1590,0,0
301,-566,0,0,0,0,0,0,0,0,0,-1,1525,1590,0,0
308,-566,0,0,0,0,0,0,0,0,0,-1,1532,1590,0,0
315,-566,0,0,0,0,0,0,0,0,0,-1,1539,1590,0,0
322,-566,6.07983,4.44873,0,0,0,0,0,0,0,-1,1546,1590,6.07983,-4.44873
329,-566,5.77026,3.47534,0,0,0,0,0,0,0,-1,1553,1590,5.77026,-3.47535
336,-566,5.41138,2.62915,0,0,0,0,0,0,0,-1,1560,1590,5.41138,-2.62909
343,-566,4.81873,1.79089,0,0,0,0,0,0,0,-1,1567,1590,4.81878,-1.79095
350,-566,24.2104,52.894,0,0,0,0,0,0,0,-1,1574,1590,24.2105,-52.8941
357,-566,25.1531,51.6272,0,0,0,0,0,0,0,-1,1581,1590,25.153,-51.6272
364,-566,24.3885,51.1313,0,0,0,0,0,0,0,-1,1588,1590,24.3886,-51.1314
371,-566,21.1536,52.8204,0,0,0,0,0,0,0,-1,1595,1590,21.1535,-52.8205
378,-566,22.0442,54.6259,0,0,0,0,0,0,0,-1,1602,1590,22.0442,-54.6259
385,-566,5.67615,-0.573975,0,0,0,0,0,0,0,-1,1609,1590,5.67612,0.573956
392,-566,5.78638,1.82434,0,0,0,0,0,0,0,-1,1616,1590,5.78637,-1.82439
399,-566,18.6853,38.6455,0,0,0,0,0,0,0,-1,1623,1590,18.6853,-38.6456
406,-566,4.30359,5.26868,0,0,0,0,0,0,0,-1,1630,1590,4.30364,-5.26867
413,-566,4.27124,5.79492,0,0,0,0,0,0,0,-1,1637,1590,4.27123,-5.7949
420,-566,18.0121,32.5314,0,0,0,0,0,0,0,-1,1644,1590,18.0121,-32.5313
427,-566,19.4491,36.9315,0,0,0,0,0,0,0,-1,1651,1590,19.4491,-36.9315
434,-566,19.338,36.7385,0,0,0,0,0,0,0,-1,1658,1590,19.338,-36.7386
441,-566,15.5841,27.5869,0,0,0,0,0,0,0,-1,1665,1590,15.5842,-27.587
448,-566,21.8796,45.052,0,0,0,0,0,0,0,-1,1672,1590,21.8797,-45.052
455,-566,24.4391,53.7858,0,0,0,0,0,0,0,-1,1679,1590,24.4391,-53.7858
462,-566,68.9885,203.06,0,0,0,0,0,0,0,-1,1686,1590,68.9886,-203.06
469,-566,70.4531,199.744,0,0,0,0,0,0,0,-1,1693,1590,70.4532,-199.744
476,-566,69.4071,195.414,0.0393771,0.00161264,0.0294089,0.0554437,-0.014454,0.500012,0.0426057,0.0238623,1700,1590,69.4071,-195.414
483,-566,68.3785,191.025,0.0367733,0.000502374,0.0271155,0.0512591,-0.0139834,0.490651,0.0396642,0.0197435,1707,1590,68.3785,-191.025
490,-566,67.2495,186.67,0.0343597,-0.000621376,0.0253152,0.0476389,-0.0139006,0.483098,0.0372672,0.0220604,1714,1590,67.2496,-186.67
497,-566,66.0498,182.377,0.0321843,-0.00154172,0.0237571,0.0444548,-0.0138122,0.476759,0.035157,0.0247115,1721,1590,66.0497,-182.377
504,-566,64.7526,178.101,0.0304501,-0.00210194,0.0224028,0.0418651,-0.013517,0.471247,0.0333419,0.0274738,1728,1590,64.7526,-178.101
511,-566,63.4639,173.683,0.0291569,-0.00267138,0.0210973,0.0396691,-0.0131836,0.462267,0.031766,0.0250205,1735,1590,63.4639,-173.684
518,-566,62.174,169.2,0.0281751,-0.00263391,0.0201876,0.0381642,-0.012623,0.459492,0.030533,0.0168707,1742,1590,62.174,-169.2
525,-566,60.839,164.791,0.0277218,-0.00188033,0.0195884,0.0374723,-0.0116308,0.461859,0.0296294,0.018585,1749,1590,60.8389,-164.791
532,-566,59.5291,160.333,0.0282031,-0.000249874,0.0191861,0.0378617,-0.00990852,0.466379,0.0291116,0.0242782,1756,1590,59.529,-160.333
539,-566,58.2355,155.76,0.0295284,0.00272761,0.0191348,0.0394884,-0.00723242,0.479929,0.0290382,0.0411177,1763,1590,58.2355,-155.76
546,-566,56.7898,151.299,0,0,0,0,0,0,0,-1,1770,1590,56.7898,-151.299
553,-566,31.3649,70.2271,0,0,0,0,0,0,0,-1,1777,1590,31.3648,-70.2271
560,-566,28.2495,53.7024,0,0,0,0,0,0,0,-1,1784,1590,28.2495,-53.7024
567,-566,22.297,34.7642,0,0,0,0,0,0,0,-1,1791,1590,22.2969,-34.7641
574,-566,7.99548,3.14514,0,0,0,0,0,0,0,-1,1798,1590,7.99543,-3.14511
581,-566,2.54102,5.1311,0,0,0,0,0,0,0,-1,1805,1590,2.54099,-5.13111
588,-566,-1.91321,8.39197,0,0,0,0,0,0,0,-1,1812,1590,-1.91316,-8.39199
595,-566,9.0271,4.66467,0,0,0,0,0,0,0,-1,1819,1590,9.02705,-4.66468
602,-566,9.953,3.54895,0,0,0,0,0,0,0,-1,1826,1590,9.953,-3.54898
609,-566,0,0,0,0,0,0,0,0,0,-1,1833,1590,0,0
616,-566,0,0,0,0,0,0,0,0,0,-1,1840,1590,0,0
623,-566,0,0,0,0,0,0,0,0,0,-1,1847,1590,0,0
630,-566,0,0,0,0,0,0,0,0,0,-1,1854,1590,0,0
637,-566,0,0,0,0,0,0,0,0,0,-1,1861,1590,0,0
644,-566,0,0,0,0,0,0,0,0,0,-1,1868,1590,0,0
651,-566,0,0,0,0,0,0,0,0,0,-1,1875,1590,0,0
658,-566,0,0,0,0,0,0,0,0,0,-1,1882,1590,0,0
665,-566,0,0,0,0,0,0,0,0,0,-1,1889,1590,0,0
672,-566,0,0,0,0,0,0,0,0,0,-1,1896,1590,0,0
679,-566,0,0,0,0,0,0,0,0,0,-1,1903,1590,0,0
686,-566,0,0,0,0,0,0,0,0,0,-1,1910,1590,0,0
693,-566,0,0,0,0,0,0,0,0,0,-1,1917,1590,0,0
700,-566,0,0,0,0,0,0,0,0,0,-1,1924,1590,0,0
707,-566,0,0,0,0,0,0,0,0,0,-1,1931,1590,0,0
714,-566,0,0,0,0,0,0,0,0,0,-1,1938,1590,0,0
721,-566,0,0,0,0,0,0,0,0,0,-1,1945,1590,0,0
728,-566,0,0,0,0,0,0,0,0,0,-1,1952,1590,0,0
735,-566,0,0,0,0,0,0,0,0,0,-1,1959,1590,0,0
742,-566,0,0,0,0,0,0,0,0,0,-1,1966,1590,0,0
749,-566,0,0,0,0,0,0,0,0,0,-1,1973,1590,0,0
756,-566,0,0,0,0,0,0,0,0,0,-1,1980,1590,0,0
763,-566,0,0,0,0,0,0,0,0,0,-1,1987,1590,0,0
770,-566,0,0,0,0,0,0,0,0,0,-1,1994,1590,0,0
777,-566,0,0,0,0,0,0,0,0,0,-1,2001,1590,0,0
784,-566,0,0,0,0,0,0,0,0,0,-1,2008,1590,0,0
791,-566,0,0,0,0,0,0,0,0,0,-1,2015,1590,0,0
798,-566,0,0,0,0,0,0,0,0,0,-1,2022,1590,0,0
805,-566,0,0,0,0,0,0,0,0,0,-1,2029,1590,0,0
812,-566,0,0,0,0,0,0,0,0,0,-1,2036,1590,0,0
-700,-573,0,0,0,0,0,0,0,0,0,-1,524,1597,0,0
-693,-573,0,0,0,0,0,0,0,0,0,-1,531,1597,0,0
-686,-573,0,0,0,0,0,0,0,0,0,-1,538,1597,0,0
-679,-573,0,0,0,0,0,0,0,0,0,-1,545,1597,0,0
-672,-573,0,0,0,0,0,0,0,0,0,-1,552,1597,0,0
-665,-573,0,0,0,0,0,0,0,0,0,-1,559,1597,0,0
-658,-573,0,0,0,0,0,0,0,0,0,-1,566,1597,0,0
-651,-573,0,0,0,0,0,0,0,0,0,-1,573,1597,0,0
-644,-573,0,0,0,0,0,0,0,0,0,-1,580,1597,0,0
-637,-573,0,0,0,0,0,0,0,0,0,-1,587,1597,0,0
-630,-573,0,0,0,0,0,0,0,0,0,-1,594,1597,0,0
-623,-573,0,0,0,0,0,0,0,0,0,-1,601,1597,0,0
-616,-573,0,0,0,0,0,0,0,0,0,-1,608,1597,0,0
-609,-573,0,0,0,0,0,0,0,0,0,-1,615,1597,0,0
-602,-573,0,0,0,0,0,0,0,0,0,-1,622,1597,0,0
-595,-573,0,0,0,0,0,0,0,0,0,-1,629,1597,0,0
-588,-573,0,0,0,0,0,0,0,0,0,-1,636,1597,0,0
-581,-573,0,0,0,0,0,0,0,0,0,-1,643,1597,0,0
-574,-573,0,0,0,0,0,0,0,0,0,-1,650,1597,0,0
-567,-573,0,0,0,0,0,0,0,0,0,-1,657,1597,0,0
-560,-573,0,0,0,0,0,0,0,0,0,-1,664,1597,0,0
-553,-573,0,0,0,0,0,0,0,0,0,-1,671,1597,0,0
-546,-573,0,0,0,0,0,0,0,0,0,-1,678,1597,0,0
-539,-573,0,0,0,0,0,0,0,0,0,-1,685,1597,0,0
-532,-573,0,0,0,0,0,0,0,0,0,-1,692,1597,0,0
-525,-573,0,0,0,0,0,0,0,0,0,-1,699,1597,0,0
-518,-573,0,0,0,0,0,0,0,0,0,-1,706,1597,0,0
-511,-573,0,0,0,0,0,0,0,0,0,-1,713,1597,0,0
-504,-573,0,0,0,0,0,0,0,0,0,-1,720,1597,0,0
-497,-573,0,0,0,0,0,0,0,0,0,-1,727,1597,0,0
-490,-573,0,0,0,0,0,0,0,0,0,-1,734,1597,0,0
-483,-573,0,0,0,0,0,0,0,0,0,-1,741,1597,0,0
-476,-573,-9.3327,0.972778,0,0,0,0,0,0,0,-1,748,1597,-9.33268,-0.972776
-469,-573,-1.41681,1.13379,0,0,0,0,0,0,0,-1,755,1597,-1.41681,-1.13382
-462,-573,-0.748535,2.02588,0,0,0,0,0,0,0,-1,762,1597,-0.748533,-2.02584
-455,-573,-0.112976,2.70703,0,0,0,0,0,0,0,-1,769,1597,-0.112988,-2.70697
-448,-573,-1.26172,3.33252,0,0,0,0,0,0,0,-1,776,1597,-1.26173,-3.33248
-441,-573,0.108582,5.06726,0,0,0,0,0,0,0,-1,783,1597,0.108584,-5.06721
-434,-573,1.61768,7.05444,0,0,0,0,0,0,0,-1,790,1597,1.61767,-7.05446
-427,-573,-1.37927,24.4124,0,0,0,0,0,0,0,-1,797,1597,-1.37928,-24.4124
-420,-573,-1.15186,28.0936,0,0,0,0,0,0,0,-1,804,1597,-1.15185,-28.0936
-413,-573,-6.24719,44.6611,0,0,0,0,0,0,0,-1,811,1597,-6.24719,-44.6612
-406,-573,-31.0344,126.064,0,0,0,0,0,0,0,-1,818,1597,-31.0344,-126.064
-399,-573,-46.3,157.835,0,0,0,0,0,0,0,-1,825,1597,-46.3,-157.835
-392,-573,-47.4816,162.328,0.0387963,0.00118114,-0.0297949,0.0552231,-0.0152457,-0.503863,0.0428119,0.0203763,832,1597,-47.4816,-162.328
-385,-573,-48.7136,166.834,0.0374859,-0.00121839,-0.0304368,0.0542018,-0.0179342,-0.502229,0.0433668,0.0211831,839,1597,-48.7135,-166.834
-378,-573,-49.9902,171.356,0.0363897,-0.00305158,-0.0315145,0.0538452,-0.0205071,-0.505824,0.0443424,0.0221134,846,1597,-49.9902,-171.356
-371,-573,-51.2224,175.74,0.0359743,-0.00395883,-0.0330666,0.054635,-0.0226195,-0.513783,0.0458618,0.0227153,853,1597,-51.2224,-175.74
-364,-573,-52.5035,180.036,0.0363887,-0.00448763,-0.0349402,0.0564294,-0.0245283,-0.520759,0.0479353,0.024441,860,1597,-52.5035,-180.036
-357,-573,-53.7573,184.379,0.0376742,-0.00451255,-0.0372299,0.059371,-0.0262093,-0.52766,0.0506312,0.0296026,867,1597,-53.7573,-184.379
-350,-573,-54.7941,188.722,0.0398619,-0.00418577,-0.0398346,0.0633556,-0.0276795,-0.532872,0.0538877,0.0272403,874,1597,-54.7941,-188.722
-343,-573,-55.8595,192.973,0.0433301,-0.00363132,-0.042323,0.0682496,-0.0285508,-0.532138,0.057433,0.0370248,881,1597,-55.8595,-192.973
-336,-573,-56.4031,197.429,0,0,0,0,0,0,0,-1,888,1597,-56.4031,-197.429
-329,-573,-57.7758,201.395,0,0,0,0,0,0,0,-1,895,1597,-57.7758,-201.395
-322,-573,-58.3127,205.553,0,0,0,0,0,0,0,-1,902,1597,-58.3127,-205.553
-315,-573,-47.4592,197.085,0,0,0,0,0,0,0,-1,909,1597,-47.4593,-197.085
-308,-573,-5.80212,56.1248,0,0,0,0,0,0,0,-1,916,1597,-5.80211,-56.1248
-301,-573,-5.52454,56.47,0,0,0,0,0,0,0,-1,923,1597,-5.52453,-56.47
-294,-573,-3.89948,50.4868,0,0,0,0,0,0,0,-1,930,1597,-3.89947,-50.4868
-287,-573,-2.00739,43.4723,0,0,0,0,0,0,0,-1,937,1597,-2.00739,-43.4723
-280,-573,1.19684,26.4906,0,0,0,0,0,0,0,-1,944,1597,1.19685,-26.4906
-273,-573,2.24805,25.4375,0,0,0,0,0,0,0,-1,951,1597,2.24803,-25.4374
-266,-573,1.31116,7.1814,0,0,0,0,0,0,0,-1,958,1597,1.31118,-7.18142
-259,-573,1.2514,6.70959,0,0,0,0,0,0,0,-1,965,1597,1.25137,-6.70965
-252,-573,2.07874,5.27161,0,0,0,0,0,0,0,-1,972,1597,2.07875,-5.27157
-245,-573,-10.2592,1.09827,0,0,0,0,0,0,0,-1,979,1597,-10.2592,-1.09823
-238,-573,-11.5463,4.44141,0,0,0,0,0,0,0,-1,986,1597,-11.5463,-4.44146
-231,-573,-9.23431,4.14539,0,0,0,0,0,0,0,-1,993,1597,-9.23431,-4.14534
-224,-573,-6.70044,7.40857,0,0,0,0,0,0,0,-1,1000,1597,-6.70045,-7.40851
-217,-573,-4.25824,8.59119,0,0,0,0,0,0,0,-1,1007,1597,-4.25824,-8.59122
-210,-573,-2.39661,9.73914,0,0,0,0,0,0,0,-1,1014,1597,-2.39658,-9.73915
-203,-573,-0.557373,10.9005,0,0,0,0,0,0,0,-1,1021,1597,-0.557387,-10.9006
-196,-573,-1.65344,9.02246,0,0,0,0,0,0,0,-1,1028,1597,-1.65349,-9.02241
-189,-573,-6.12915,6.66882,0,0,0,0,0,0,0,-1,1035,1597,-6.12913,-6.66884
-182,-573,0,0,0,0,0,0,0,0,0,-1,1042,1597,0,0
-175,-573,0,0,0,0,0,0,0,0,0,-1,1049,1597,0,0
-168,-573,0,0,0,0,0,0,0,0,0,-1,1056,1597,0,0
-161,-573,0,0,0,0,0,0,0,0,0,-1,1063,1597,0,0
-154,-573,0,0,0,0,0,0,0,0,0,-1,1070,1597,0,0
-147,-573,0,0,0,0,0,0,0,0,0,-1,1077,1597,0,0
-140,-573,0,0,0,0,0,0,0,0,0,-1,1084,1597,0,0
-133,-573,0,0,0,0,0,0,0,0,0,-1,1091,1597,0,0
-126,-573,0,0,0,0,0,0,0,0,0,-1,1098,1597,0,0
-119,-573,0,0,0,0,0,0,0,0,0,-1,1105,1597,0,0
-112,-573,0,0,0,0,0,0,0,0,0,-1,1112,1597,0,0
-105,-573,0,0,0,0,0,0,0,0,0,-1,1119,1597,0,0
-98,-573,0,0,0,0,0,0,0,0,0,-1,1126,1597,0,0
-91,-573,0,0,0,0,0,0,0,0,0,-1,1133,1597,0,0
-84,-573,0,0,0,0,0,0,0,0,0,-1,1140,1597,0,0
-77,-573,0,0,0,0,0,0,0,0,0,-1,1147,1597,0,0
-70,-573,0,0,0,0,0,0,0,0,0,-1,1154,1597,0,0
-63,-573,0,0,0,0,0,0,0,0,0,-1,1161,1597,0,0
-56,-573,0,0,0,0,0,0,0,0,0,-1,1168,1597,0,0
-49,-573,0,0,0,0,0,0,0,0,0,-1,1175,1597,0,0
-42,-573,0,0,0,0,0,0,0,0,0,-1,1182,1597,0,0
-35,-573,0,0,0,0,0,0,0,0,0,-1,1189,1597,0,0
-28,-573,0,0,0,0,0,0,0,0,0,-1,1196,1597,0,0
-21,-573,0,0,0,0,0,0,0,0,0,-1,1203,1597,0,0
-14,-573,0,0,0,0,0,0,0,0,0,-1,1210,1597,0,0
-7,-573,0,0,0,0,0,0,0,0,0,-1,1217,1597,0,0
0,-573,0,0,0,0,0,0,0,0,0,-1,1224,1597,0,0
7,-573,0,0,0,0,0,0,0,0,0,-1,1231,1597,0,0
14,-573,0,0,0,0,0,0,0,0,0,-1,1238,1597,0,0
21,-573,0,0,0,0,0,0,0,0,0,-1,1245,1597,0,0
28,-573,0,0,0,0,0,0,0,0,0,-1,1252,1597,0,0
35,-573,0,0,0,0,0,0,0,0,0,-1,1259,1597,0,0
42,-573,0,0,0,0,0,0,0,0,0,-1,1266,1597,0,0
49,-573,0,0,0,0,0,0,0,0,0,-1,1273,1597,0,0
56,-573,0,0,0,0,0,0,0,0,0,-1,1280,1597,0,0
63,-573,0,0,0,0,0,0,0,0,0,-1,1287,1597,0,0
70,-573,0,0,0,0,0,0,0,0,0,-1,1294,1597,0,0
77,-573,0,0,0,0,0,0,0,0,0,-1,1301,1597,0,0
84,-573,0,0,0,0,0,0,0,0,0,-1,1308,1597,0,0
91,-573,0,0,0,0,0,0,0,0,0,-1,1315,1597,0,0
98,-573,0,0,0,0,0,0,0,0,0,-1,1322,1597,0,0
105,-573,0,0,0,0,0,0,0,0,0,-1,1329,1597,0,0
112,-573,0,0,0,0,0,0,0,0,0,-1,1336,1597,0,0
119,-573,0,0,0,0,0,0,0,0,0,-1,1343,1597,0,0
126,-573,0,0,0,0,0,0,0,0,0,-1,1350,1597,0,0
133,-573,0,0,0,0,0,0,0,0,0,-1,1357,1597,0,0
140,-573,0,0,0,0,0,0,0,0,0,-1,1364,1597,0,0
147,-573,0,0,0,0,0,0,0,0,0,-1,1371,1597,0,0
154,-573,0,0,0,0,0,0,0,0,0,-1,1378,1597,0,0
161,-573,0,0,0,0,0,0,0,0,0,-1,1385,1597,0,0
168,-573,0,0,0,0,0,0,0,0,0,-1,1392,1597,0,0
175,-573,0,0,0,0,0,0,0,0,0,-1,1399,1597,0,0
182,-573,0,0,0,0,0,0,0,0,0,-1,1406,1597,0,0
189,-573,0,0,0,0,0,0,0,0,0,-1,1413,1597,0,0
196,-573,0,0,0,0,0,0,0,0,0,-1,1420,1597,0,0
203,-573,0,0,0,0,0,0,0,0,0,-1,1427,1597,0,0
210,-573,0,0,0,0,0,0,0,0,0,-1,1434,1597,0,0
217,-573,0,0,0,0,0,0,0,0,0,-1,1441,1597,0,0
224,-573,0,0,0,0,0,0,0,0,0,-1,1448,1597,0,0
231,-573,0,0,0,0,0,0,0,0,0,-1,1455,1597,0,0
238,-573,0,0,0,0,0,0,0,0,0,-1,1462,1597,0,0
245,-573,0,0,0,0,0,0,0,0,0,-1,1469,1597,0,0
252,-573,0,0,0,0,0,0,0,0,0,-1,1476,1597,0,0
259,-573,0,0,0,0,0,0,0,0,0,-1,1483,1597,0,0
266,-573,0,0,0,0,0,0,0,0,0,-1,1490,1597,0,0
273,-573,0,0,0,0,0,0,0,0,0,-1,1497,1597,0,0
280,-573,0,0,0,0,0,0,0,0,0,-1,1504,1597,0,0
287,-573,0,0,0,0,0,0,0,0,0,-1,1511,1597,0,0
294,-573,0,0,0,0,0,0,0,0,0,-1,1518,1597,0,0
301,-573,0,0,0,0,0,0,0,0,0,-1,1525,1597,0,0
308,-573,5.93042,9.71143,0,0,0,0,0,0,0,-1,1532,1597,5.93046,-9.71144
315,-573,4.34204,11.719,0,0,0,0,0,0,0,-1,1539,1597,4.34205,-11.719
322,-573,10.3269,7.77563,0,0,0,0,0,0,0,-1,1546,1597,10.327,-7.77565
329,-573,4.99573,3.80273,0,0,0,0,0,0,0,-1,1553,1597,4.9957,-3.80273
336,-573,4.85693,2.53455,0,0,0,0,0,0,0,-1,1560,1597,4.8569,-2.53459
343,-573,21.4159,52.1832,0,0,0,0,0,0,0,-1,1567,1597,21.4159,-52.1833
350,-573,24.5242,53.5112,0,0,0,0,0,0,0,-1,1574,1597,24.5242,-53.5112
357,-573,23.7375,52.9818,0,0,0,0,0,0,0,-1,1581,1597,23.7376,-52.9818
364,-573,22.9738,52.4512,0,0,0,0,0,0,0,-1,1588,1597,22.9738,-52.4511
371,-573,22.2067,51.9435,0,0,0,0,0,0,0,-1,1595,1597,22.2066,-51.9435
378,-573,22.1105,55.1304,0,0,0,0,0,0,0,-1,1602,1597,22.1104,-55.1304
385,-573,6.54346,-0.951904,0,0,0,0,0,0,0,-1,1609,1597,6.54349,0.951901
392,-573,17.5164,38.3645,0,0,0,0,0,0,0,-1,1616,1597,17.5164,-38.3645
399,-573,20.5255,42.9893,0,0,0,0,0,0,0,-1,1623,1597,20.5255,-42.9893
406,-573,22.5132,48.6315,0,0,0,0,0,0,0,-1,1630,1597,22.5132,-48.6315
413,-573,27.5349,77.4857,0,0,0,0,0,0,0,-1,1637,1597,27.5349,-77.4857
420,-573,28.8744,81.4833,0,0,0,0,0,0,0,-1,1644,1597,28.8743,-81.4833
427,-573,20.4286,42.2079,0,0,0,0,0,0,0,-1,1651,1597,20.4285,-42.2079
434,-573,22.8055,51.4678,0,0,0,0,0,0,0,-1,1658,1597,22.8056,-51.4678
441,-573,22.8397,52.2052,0,0,0,0,0,0,0,-1,1665,1597,22.8397,-52.2051
448,-573,59.6241,210.824,0,0,0,0,0,0,0,-1,1672,1597,59.6242,-210.824
455,-573,68.1283,209.307,0,0,0,0,0,0,0,-1,1679,1597,68.1283,-209.307
462,-573,67.2213,205.105,0,0,0,0,0,0,0,-1,1686,1597,67.2213,-205.105
469,-573,66.1091,201.105,0.0398612,0.00203735,0.0300076,0.0564192,-0.0145207,0.50422,0.0432729,0.0256093,1693,1597,66.1091,-201.105
476,-573,64.98,196.959,0.0369768,0.0013256,0.0273772,0.0518202,-0.0135178,0.49682,0.039825,0.0213113,1700,1597,64.98,-196.959
483,-573,63.9987,192.568,0.0344648,0.000407399,0.0250725,0.0477446,-0.0128724,0.48709,0.0368772,0.0246588,1707,1597,63.9986,-192.568
490,-573,62.8671,188.25,0.0321855,-0.00054507,0.0231429,0.0441648,-0.0125244,0.477648,0.0343869,0.0288326,1714,1597,62.8671,-188.25
497,-573,61.6151,183.947,0.030097,-0.0013302,0.0215152,0.0410259,-0.0122591,0.469995,0.0322238,0.0395406,1721,1597,61.6151,-183.947
504,-573,60.3154,179.704,0.0285227,-0.00172537,0.0200723,0.038531,-0.0117336,0.462536,0.0303639,0.0256088,1728,1597,60.3154,-179.704
511,-573,59.0525,175.363,0.0273189,-0.00212278,0.0187393,0.036428,-0.0112319,0.452462,0.0287696,0.026237,1735,1597,59.0525,-175.363
518,-573,57.6803,170.905,0.0265017,-0.00193222,0.0177477,0.0350247,-0.0104552,0.447705,0.0275054,0.0209627,1742,1597,57.6803,-170.905
525,-573,56.3282,166.459,0.0262634,-0.00111992,0.017082,0.0344637,-0.00932017,0.447563,0.0266318,0.0248546,1749,1597,56.3283,-166.459
532,-573,54.9495,161.908,0.0272567,0.000500595,0.0165466,0.0351569,-0.00739959,0.445445,0.0262543,0.0362344,1756,1597,54.9495,-161.908
539,-573,53.7703,157.101,0,0,0,0,0,0,0,-1,1763,1597,53.7702,-157.101
546,-573,29.525,73.3749,0,0,0,0,0,0,0,-1,1770,1597,29.525,-73.3749
553,-573,28.2662,57.49,0,0,0,0,0,0,0,-1,1777,1597,28.2663,-57.49
560,-573,25.194,47.3386,0,0,0,0,0,0,0,-1,1784,1597,25.194,-47.3386
567,-573,23.1487,41.1044,0,0,0,0,0,0,0,-1,1791,1597,23.1486,-41.1043
574,-573,0.83374,5.7041,0,0,0,0,0,0,0,-1,1798,1597,0.833718,-5.70405
581,-573,-0.224854,7.41602,0,0,0,0,0,0,0,-1,1805,1597,-0.224904,-7.41596
588,-573,-0.134033,7.67065,0,0,0,0,0,0,0,-1,1812,1597,-0.134037,-7.67063
595,-573,-0.0825195,8.35083,0,0,0,0,0,0,0,-1,1819,1597,-0.0824684,-8.35088
602,-573,0,0,0,0,0,0,0,0,0,-1,1826,1597,0,0
609,-573,0,0,0,0,0,0,0,0,0,-1,1833,1597,0,0
616,-573,0,0,0,0,0,0,0,0,0,-1,1840,1597,0,0
623,-573,0,0,0,0,0,0,0,0,0,-1,1847,1597,0,0
630,-573,0,0,0,0,0,0,0,0,0,-1,1854,1597,0,0
637,-573,0,0,0,0,0,0,0,0,0,-1,1861,1597,0,0
644,-573,0,0,0,0,0,0,0,0,0,-1,1868,1597,0,0
651,-573,0,0,0,0,0,0,0,0,0,-1,1875,1597,0,0
658,-573,0,0,0,0,0,0,0,0,0,-1,1882,1597,0,0
665,-573,0,0,0,0,0,0,0,0,0,-1,1889,1597,0,0
672,-573,0,0,0,0,0,0,0,0,0,-1,1896,1597,0,0
679,-573,0,0,0,0,0,0,0,0,0,-1,1903,1597,0,0
686,-573,0,0,0,0,0,0,0,0,0,-1,1910,1597,0,0
693,-573,0,0,0,0,0,0,0,0,0,-1,1917,1597,0,0
700,-573,0,0,0,0,0,0,0,0,0,-1,1924,1597,0,0
707,-573,0,0,0,0,0,0,0,0,0,-1,1931,1597,0,0
714,-573,0,0,0,0,0,0,0,0,0,-1,1938,1597,0,0
721,-573,0,0,0,0,0,0,0,0,0,-1,1945,1597,0,0
728,-573,0,0,0,0,0,0,0,0,0,-1,1952,1597,0,0
735,-573,0,0,0,0,0,0,0,0,0,-1,1959,1597,0,0
742,-573,0,0,0,0,0,0,0,0,0,-1,1966,1597,0,0
749,-573,0,0,0,0,0,0,0,0,0,-1,1973,1597,0,0
756,-573,0,0,0,0,0,0,0,0,0,-1,1980,1597,0,0
763,-573,0,0,0,0,0,0,0,0,0,-1,1987,1597,0,0
770,-573,0,0,0,0,0,0,0,0,0,-1,1994,1597,0,0
777,-573,0,0,0,0,0,0,0,0,0,-1,2001,1597,0,0
784,-573,0,0,0,0,0,0,0,0,0,-1,2008,1597,0,0
791,-573,0,0,0,0,0,0,0,0,0,-1,2015,1597,0,0
798,-573,0,0,0,0,0,0,0,0,0,-1,2022,1597,0,0
805,-573,0,0,0,0,0,0,0,0,0,-1,2029,1597,0,0
812,-573,0,0,0,0,0,0,0,0,0,-1,2036,1597,0,0
-700,-580,0,0,0,0,0,0,0,0,0,-1,524,1604,0,0
-693,-580,0,0,0,0,0,0,0,0,0,-1,531,1604,0,0
-686,-580,0,0,0,0,0,0,0,0,0,-1,538,1604,0,0
-679,-580,0,0,0,0,0,0,0,0,0,-1,545,1604,0,0
-672,-580,0,0,0,0,0,0,0,0,0,-1,552,1604,0,0
-665,-580,0,0,0,0,0,0,0,0,0,-1,559,1604,0,0
-658,-580,0,0,0,0,0,0,0,0,0,-1,566,1604,0,0
-651,-580,0,0,0,0,0,0,0,0,0,-1,573,1604,0,0
-644,-580,0,0,0,0,0,0,0,0,0,-1,580,1604,0,0
-637,-580,0,0,0,0,0,0,0,0,0,-1,587,1604,0,0
-630,-580,0,0,0,0,0,0,0,0,0,-1,594,1604,0,0
-623,-580,0,0,0,0,0,0,0,0,0,-1,601,1604,0,0
-616,-580,0,0,0,0,0,0,0,0,0,-1,608,1604,0,0
-609,-580,0,0,0,0,0,0,0,0,0,-1,615,1604,0,0
-602,-580,0,0,0,0,0,0,0,0,0,-1,622,1604,0,0
-595,-580,0,0,0,0,0,0,0,0,0,-1,629,1604,0,0
-588,-580,0,0,0,0,0,0,0,0,0,-1,636,1604,0,0
-581,-580,0,0,0,0,0,0,0,0,0,-1,643,1604,0,0
-574,-580,0,0,0,0,0,0,0,0,0,-1,650,1604,0,0
-567,-580,0,0,0,0,0,0,0,0,0,-1,657,1604,0,0
-560,-580,0,0,0,0,0,0,0,0,0,-1,664,1604,0,0
-553,-580,0,0,0,0,0,0,0,0,0,-1,671,1604,0,0
-546,-580,0,0,0,0,0,0,0,0,0,-1,678,1604,0,0
-539,-580,0,0,0,0,0,0,0,0,0,-1,685,1604,0,0
-532,-580,0,0,0,0,0,0,0,0,0,-1,692,1604,0,0
-525,-580,0,0,0,0,0,0,0,0,0,-1,699,1604,0,0
-518,-580,0,0,0,0,0,0,0,0,0,-1,706,1604,0,0
-511,-580,0,0,0,0,0,0,0,0,0,-1,713,1604,0,0
-504,-580,0,0,0,0,0,0,0,0,0,-1,720,1604,0,0
-497,-580,0,0,0,0,0,0,0,0,0,-1,727,1604,0,0
-490,-580,0,0,0,0,0,0,0,0,0,-1,734,1604,0,0
-483,-580,0,0,0,0,0,0,0,0,0,-1,741,1604,0,0
-476,-580,0,0,0,0,0,0,0,0,0,-1,748,1604,0,0
-469,-580,-1.69189,-0.38916,0,0,0,0,0,0,0,-1,755,1604,-1.69192,0.389188
-462,-580,-0.859863,0.675293,0,0,0,0,0,0,0,-1,762,1604,-0.859834,-0.675245
-455,-580,-0.730164,0.651978,0,0,0,0,0,0,0,-1,769,1604,-0.730153,-0.651957
-448,-580,-3.31891,2.07544,0,0,0,0,0,0,0,-1,776,1604,-3.3189,-2.07539
-441,-580,-1.63843,3.9469,0,0,0,0,0,0,0,-1,783,1604,-1.63842,-3.94695
-434,-580,0.23291,5.97876,0,0,0,0,0,0,0,-1,790,1604,0.232901,-5.97878
-427,-580,1.62756,8.05493,0,0,0,0,0,0,0,-1,797,1604,1.62758,-8.05488
-420,-580,0.986572,11.2383,0,0,0,0,0,0,0,-1,804,1604,0.986544,-11.2382
-413,-580,0.922913,21.5701,0,0,0,0,0,0,0,-1,811,1604,0.922905,-21.5701
-406,-580,-3.00854,38.0941,0,0,0,0,0,0,0,-1,818,1604,-3.00852,-38.0941
-399,-580,-26.7425,119.551,0,0,0,0,0,0,0,-1,825,1604,-26.7425,-119.551
-392,-580,-42.7417,164.133,0,0,0,0,0,0,0,-1,832,1604,-42.7417,-164.133
-385,-580,-44.0677,168.619,0,0,0,0,0,0,0,-1,839,1604,-44.0677,-168.619
-378,-580,-45.5109,173.051,0.0366875,-0.00262717,-0.0284307,0.0515948,-0.0175345,-0.482928,0.0414952,0.0203383,846,1604,-45.5108,-173.051
-371,-580,-46.7656,177.448,0.0357834,-0.00340042,-0.0300956,0.0521023,-0.0197193,-0.496863,0.0428482,0.0199346,853,1604,-46.7656,-177.448
-364,-580,-48.0184,181.797,0.036026,-0.00392282,-0.0319775,0.0537548,-0.0216517,-0.506228,0.0448318,0.0291535,860,1604,-48.0184,-181.797
-357,-580,-49.1456,186.05,0.0371218,-0.00404318,-0.034191,0.0564475,-0.0233689,-0.514459,0.0473828,0.0230729,867,1604,-49.1457,-186.05
-350,-580,-50.2227,190.398,0.0390858,-0.0037816,-0.0367546,0.0601998,-0.0248955,-0.521426,0.0505195,0.0190122,874,1604,-50.2227,-190.398
-343,-580,-51.3163,194.599,0.0420669,-0.00326645,-0.0393245,0.0647896,-0.0259892,-0.523955,0.0539834,0.0191738,881,1604,-51.3163,-194.599
-336,-580,-52.2952,198.787,0.0457467,-0.00236283,-0.0421025,0.0701817,-0.0267978,-0.525859,0.0578285,0.035086,888,1604,-52.2952,-198.787
-329,-580,-53.2482,202.791,0.0498576,-0.00178059,-0.0448532,0.0757921,-0.0277151,-0.524242,0.0618714,0.0320746,895,1604,-53.2483,-202.791
-322,-580,-53.9214,206.941,0.054286,-0.00105304,-0.0472993,0.0814145,-0.0281816,-0.520744,0.0657163,0.0380618,902,1604,-53.9214,-206.941
-315,-580,-54.8649,210.963,0,0,0,0,0,0,0,-1,909,1604,-54.8649,-210.963
-308,-580,-55.8929,215.059,0,0,0,0,0,0,0,-1,916,1604,-55.8929,-215.059
-301,-580,-49.9667,215.782,0,0,0,0,0,0,0,-1,923,1604,-49.9667,-215.783
-294,-580,-6.49896,66.3197,0,0,0,0,0,0,0,-1,930,1604,-6.49896,-66.3196
-287,-580,-3.76239,54.9144,0,0,0,0,0,0,0,-1,937,1604,-3.76236,-54.9144
-280,-580,-2.74774,52.328,0,0,0,0,0,0,0,-1,944,1604,-2.74776,-52.328
-273,-580,-2.96637,52.8284,0,0,0,0,0,0,0,-1,951,1604,-2.96637,-52.8283
-266,-580,-1.22644,48.4485,0,0,0,0,0,0,0,-1,958,1604,-1.22644,-48.4485
-259,-580,1.31091,9.11536,0,0,0,0,0,0,0,-1,965,1604,1.31092,-9.11539
-252,-580,1.07629,7.74097,0,0,0,0,0,0,0,-1,972,1604,1.07627,-7.74101
-245,-580,3.80304,9.16028,0,0,0,0,0,0,0,-1,979,1604,3.80306,-9.16034
-238,-580,-10.3588,1.57556,0,0,0,0,0,0,0,-1,986,1604,-10.3588,-1.5755
-231,-580,-10.576,6.43787,0,0,0,0,0,0,0,-1,993,1604,-10.576,-6.43783
-224,-580,-8.27435,7.58972,0,0,0,0,0,0,0,-1,1000,1604,-8.27435,-7.5897
-217,-580,-5.85632,9.51221,0,0,0,0,0,0,0,-1,1007,1604,-5.85632,-9.5122
-210,-580,-3.6684,11.1569,0,0,0,0,0,0,0,-1,1014,1604,-3.66839,-11.1569
-203,-580,-1.92474,12.7845,0,0,0,0,0,0,0,-1,1021,1604,-1.92477,-12.7845
-196,-580,-2.28552,10.3289,0,0,0,0,0,0,0,-1,1028,1604,-2.28552,-10.3288
-189,-580,-4.58252,7.59058,0,0,0,0,0,0,0,-1,1035,1604,-4.58256,-7.59057
-182,-580,-5.45874,7.65942,0,0,0,0,0,0,0,-1,1042,1604,-5.45876,-7.65939
-175,-580,-6.38977,7.55005,0,0,0,0,0,0,0,-1,1049,1604,-6.38981,-7.5501
-168,-580,0,0,0,0,0,0,0,0,0,-1,1056,1604,0,0
-161,-580,0,0,0,0,0,0,0,0,0,-1,1063,1604,0,0
-154,-580,0,0,0,0,0,0,0,0,0,-1,1070,1604,0,0
-147,-580,0,0,0,0,0,0,0,0,0,-1,1077,1604,0,0
-140,-580,0,0,0,0,0,0,0,0,0,-1,1084,1604,0,0
-133,-580,0,0,0,0,0,0,0,0,0,-1,1091,1604,0,0
-126,-580,0,0,0,0,0,0,0,0,0,-1,1098,1604,0,0
-119,-580,0,0,0,0,0,0,0,0,0,-1,1105,1604,0,0
-112,-580,0,0,0,0,0,0,0,0,0,-1,1112,1604,0,0
-105,-580,0,0,0,0,0,0,0,0,0,-1,1119,1604,0,0
-98,-580,0,0,0,0,0,0,0,0,0,-1,1126,1604,0,0
-91,-580,0,0,0,0,0,0,0,0,0,-1,1133,1604,0,0
-84,-580,0,0,0,0,0,0,0,0,0,-1,1140,1604,0,0
-77,-580,0,0,0,0,0,0,0,0,0,-1,1147,1604,0,0
-70,-580,0,0,0,0,0,0,0,0,0,-1,1154,1604,0,0
-63,-580,0,0,0,0,0,0,0,0,0,-1,1161,1604,0,0
-56,-580,0,0,0,0,0,0,0,0,0,-1,1168,1604,0,0
-49,-580,0,0,0,0,0,0,0,0,0,-1,1175,1604,0,0
-42,-580,0,0,0,0,0,0,0,0,0,-1,1182,1604,0,0
-35,-580,0,0,0,0,0,0,0,0,0,-1,1189,1604,0,0
-28,-580,0,0,0,0,0,0,0,0,0,-1,1196,1604,0,0
-21,-580,0,0,0,0,0,0,0,0,0,-1,1203,1604,0,0
-14,-580,0,0,0,0,0,0,0,0,0,-1,1210,1604,0,0
-7,-580,0,0,0,0,0,0,0,0,0,-1,1217,1604,0,0
0,-580,0,0,0,0,0,0,0,0,0,-1,1224,1604,0,0
7,-580,0,0,0,0,0,0,0,0,0,-1,1231,1604,0,0
14,-580,0,0,0,0,0,0,0,0,0,-1,1238,1604,0,0
21,-580,0,0,0,0,0,0,0,0,0,-1,1245,1604,0,0
28,-580,0,0,0,0,0,0,0,0,0,-1,1252,1604,0,0
35,-580,0,0,0,0,0,0,0,0,0,-1,1259,1604,0,0
42,-580,0,0,0,0,0,0,0,0,0,-1,1266,1604,0,0
49,-580,0,0,0,0,0,0,0,0,0,-1,1273,1604,0,0
56,-580,0,0,0,0,0,0,0,0,0,-1,1280,1604,0,0
63,-580,0,0,0,0,0,0,0,0,0,-1,1287,1604,0,0
70,-580,0,0,0,0,0,0,0,0,0,-1,1294,1604,0,0
77,-580,0,0,0,0,0,0,0,0,0,-1,1301,1604,0,0
84,-580,0,0,0,0,0,0,0,0,0,-1,1308,1604,0,0
91,-580,0,0,0,0,0,0,0,0,0,-1,1315,1604,0,0
98,-580,0,0,0,0,0,0,0,0,0,-1,1322,1604,0,0
105,-580,0,0,0,0,0,0,0,0,0,-1,1329,1604,0,0
112,-580,0,0,0,0,0,0,0,0,0,-1,1336,1604,0,0
119,-580,0,0,0,0,0,0,0,0,0,-1,1343,1604,0,0
126,-580,0,0,0,0,0,0,0,0,0,-1,1350,1604,0,0
133,-580,0,0,0,0,0,0,0,0,0,-1,1357,1604,0,0
140,-580,0,0,0,0,0,0,0,0,0,-1,1364,1604,0,0
147,-580,0,0,0,0,0,0,0,0,0,-1,1371,1604,0,0
154,-580,0,0,0,0,0,0,0,0,0,-1,1378,1604,0,0
161,-580,0,0,0,0,0,0,0,0,0,-1,1385,1604,0,0
168,-580,0,0,0,0,0,0,0,0,0,-1,1392,1604,0,0
175,-580,0,0,0,0,0,0,0,0,0,-1,1399,1604,0,0
182,-580,0,0,0,0,0,0,0,0,0,-1,1406,1604,0,0
189,-580,0,0,0,0,0,0,0,0,0,-1,1413,1604,0,0
196,-580,0,0,0,0,0,0,0,0,0,-1,1420,1604,0,0
203,-580,0,0,0,0,0,0,0,0,0,-1,1427,1604,0,0
210,-580,0,0,0,0,0,0,0,0,0,-1,1434,1604,0,0
217,-580,0,0,0,0,0,0,0,0,0,-1,1441,1604,0,0
224,-580,0,0,0,0,0,0,0,0,0,-1,1448,1604,0,0
231,-580,0,0,0,0,0,0,0,0,0,-1,1455,1604,0,0
238,-580,0,0,0,0,0,0,0,0,0,-1,1462,1604,0,0
245,-580,0,0,0,0,0,0,0,0,0,-1,1469,1604,0,0
252,-580,0,0,0,0,0,0,0,0,0,-1,1476,1604,0,0
259,-580,0,0,0,0,0,0,0,0,0,-1,1483,1604,0,0
266,-580,0,0,0,0,0,0,0,0,0,-1,1490,1604,0,0
273,-580,0,0,0,0,0,0,0,0,0,-1,1497,1604,0,0
280,-580,0,0,0,0,0,0,0,0,0,-1,1504,1604,0,0
287,-580,0,0,0,0,0,0,0,0,0,-1,1511,1604,0,0
294,-580,4.0437,0.177368,0,0,0,0,0,0,0,-1,1518,1604,4.04369,-0.177371
301,-580,7.55164,8.05798,0,0,0,0,0,0,0,-1,1525,1604,7.55158,-8.05802
308,-580,5.9126,9.99341,0,0,0,0,0,0,0,-1,1532,1604,5.91255,-9.99337
315,-580,4.27356,11.9287,0,0,0,0,0,0,0,-1,1539,1604,4.27352,-11.9287
322,-580,10.2366,7.50281,0,0,0,0,0,0,0,-1,1546,1604,10.2366,-7.50282
329,-580,10.5962,8.69641,0,0,0,0,0,0,0,-1,1553,1604,10.5962,-8.69642
336,-580,3.66431,1.58862,0,0,0,0,0,0,0,-1,1560,1604,3.6643,-1.58864
343,-580,19.0659,51.8346,0,0,0,0,0,0,0,-1,1567,1604,19.0659,-51.8346
350,-580,22.8734,54.9255,0,0,0,0,0,0,0,-1,1574,1604,22.8734,-54.9255
357,-580,22.1614,54.3809,0,0,0,0,0,0,0,-1,1581,1604,22.1614,-54.3809
364,-580,21.4701,53.8442,0,0,0,0,0,0,0,-1,1588,1604,21.4701,-53.8442
371,-580,22.0861,57.5294,0,0,0,0,0,0,0,-1,1595,1604,22.0861,-57.5294
378,-580,23.1404,53.2659,0,0,0,0,0,0,0,-1,1602,1604,23.1404,-53.2659
385,-580,23.9454,66.333,0,0,0,0,0,0,0,-1,1609,1604,23.9455,-66.3331
392,-580,19.1388,46.7451,0,0,0,0,0,0,0,-1,1616,1604,19.1388,-46.7452
399,-580,21.1744,50.241,0,0,0,0,0,0,0,-1,1623,1604,21.1744,-50.241
406,-580,29.3561,99.2605,0,0,0,0,0,0,0,-1,1630,1604,29.3561,-99.2605
413,-580,29.0001,93.5648,0,0,0,0,0,0,0,-1,1637,1604,29.0001,-93.5648
420,-580,27.9183,81.3159,0,0,0,0,0,0,0,-1,1644,1604,27.9184,-81.3159
427,-580,28.2332,86.6798,0,0,0,0,0,0,0,-1,1651,1604,28.2332,-86.6798
434,-580,27.2424,77.8894,0,0,0,0,0,0,0,-1,1658,1604,27.2424,-77.8894
441,-580,55.8358,216.058,0,0,0,0,0,0,0,-1,1665,1604,55.8359,-216.058
448,-580,64.8149,214.906,0,0,0,0,0,0,0,-1,1672,1604,64.8149,-214.906
455,-580,63.8347,210.841,0.043188,0.00242486,0.0334351,0.061964,-0.0163512,0.511679,0.0477031,0.0373734,1679,1604,63.8347,-210.841
462,-580,62.7742,206.832,0.0401454,0.00214132,0.030536,0.057109,-0.0148222,0.507076,0.0438564,0.032684,1686,1604,62.7742,-206.832
469,-580,61.7438,202.733,0.0371462,0.00173105,0.0277346,0.052344,-0.0134668,0.501286,0.040145,0.0272681,1693,1604,61.7438,-202.733
476,-580,60.6453,198.476,0.0342898,0.00110327,0.0251087,0.0477928,-0.0123997,0.493413,0.0367001,0.0204158,1700,1604,60.6453,-198.476
483,-580,59.5685,194.147,0.0318477,0.000375461,0.0228029,0.0438171,-0.011594,0.483375,0.0337466,0.0233293,1707,1604,59.5685,-194.147
490,-580,58.4164,189.935,0.0296761,-0.000394145,0.0207786,0.0402887,-0.0110067,0.472207,0.0311824,0.0366648,1714,1604,58.4164,-189.935
497,-580,57.1543,185.526,0.0276552,-0.00104658,0.0190934,0.0371896,-0.010581,0.463131,0.0289715,0.0274482,1721,1604,57.1543,-185.526
504,-580,55.9034,181.172,0.0261479,-0.00133817,0.0176039,0.0347379,-0.00992824,0.453973,0.0270816,0.0235039,1728,1604,55.9035,-181.173
511,-580,54.5686,176.911,0.0249293,-0.0015389,0.0162878,0.0326817,-0.0092913,0.444235,0.0254565,0.0230831,1735,1604,54.5686,-176.911
518,-580,53.1152,172.513,0.0241668,-0.00121508,0.0152597,0.0313233,-0.00837154,0.438522,0.0241611,0.0221278,1742,1604,53.1153,-172.513
525,-580,51.7584,168.081,0,0,0,0,0,0,0,-1,1749,1604,51.7585,-168.081
532,-580,50.3075,163.385,0,0,0,0,0,0,0,-1,1756,1604,50.3076,-163.385
539,-580,26.9873,63.3041,0,0,0,0,0,0,0,-1,1763,1604,26.9873,-63.3041
546,-580,26.3485,55.9186,0,0,0,0,0,0,0,-1,1770,1604,26.3486,-55.9186
553,-580,24.7284,48.406,0,0,0,0,0,0,0,-1,1777,1604,24.7284,-48.406
560,-580,22.035,41.963,0,0,0,0,0,0,0,-1,1784,1604,22.035,-41.963
567,-580,21.5164,41.0686,0,0,0,0,0,0,0,-1,1791,1604,21.5163,-41.0687
574,-580,2.31653,5.62952,0,0,0,0,0,0,0,-1,1798,1604,2.31654,-5.62947
581,-580,1.60876,6.67664,0,0,0,0,0,0,0,-1,1805,1604,1.60873,-6.67667
588,-580,1.38684,7.14441,0,0,0,0,0,0,0,-1,1812,1604,1.38689,-7.14443
595,-580,0,0,0,0,0,0,0,0,0,-1,1819,1604,0,0
602,-580,0,0,0,0,0,0,0,0,0,-1,1826,1604,0,0
609,-580,0,0,0,0,0,0,0,0,0,-1,1833,1604,0,0
616,-580,0,0,0,0,0,0,0,0,0,-1,1840,1604,0,0
623,-580,0,0,0,0,0,0,0,0,0,-1,1847,1604,0,0
630,-580,0,0,0,0,0,0,0,0,0,-1,1854,1604,0,0
637,-580,0,0,0,0,0,0,0,0,0,-1,1861,1604,0,0
644,-580,0,0,0,0,0,0,0,0,0,-1,1868,1604,0,0
651,-580,0,0,0,0,0,0,0,0,0,-1,1875,1604,0,0
658,-580,0,0,0,0,0,0,0,0,0,-1,1882,1604,0,0
665,-580,0,0,0,0,0,0,0,0,0,-1,1889,1604,0,0
672,-580,0,0,0,0,0,0,0,0,0,-1,1896,1604,0,0
679,-580,0,0,0,0,0,0,0,0,0,-1,1903,1604,0,0
686,-580,0,0,0,0,0,0,0,0,0,-1,1910,1604,0,0
693,-580,0,0,0,0,0,0,0,0,0,-1,1917,1604,0,0
700,-580,0,0,0,0,0,0,0,0,0,-1,1924,1604,0,0
707,-580,0,0,0,0,0,0,0,0,0,-1,1931,1604,0,0
714,-580,0,0,0,0,0,0,0,0,0,-1,1938,1604,0,0
721,-580,0,0,0,0,0,0,0,0,0,-1,1945,1604,0,0
728,-580,0,0,0,0,0,0,0,0,0,-1,1952,1604,0,0
735,-580,0,0,0,0,0,0,0,0,0,-1,1959,1604,0,0
742,-580,0,0,0,0,0,0,0,0,0,-1,1966,1604,0,0
749,-580,0,0,0,0,0,0,0,0,0,-1,1973,1604,0,0
756,-580,0,0,0,0,0,0,0,0,0,-1,1980,1604,0,0
763,-580,0,0,0,0,0,0,0,0,0,-1,1987,1604,0,0
770,-580,0,0,0,0,0,0,0,0,0,-1,1994,1604,0,0
777,-580,0,0,0,0,0,0,0,0,0,-1,2001,1604,0,0
784,-580,0,0,0,0,0,0,0,0,0,-1,2008,1604,0,0
791,-580,0,0,0,0,0,0,0,0,0,-1,2015,1604,0,0
798,-580,0,0,0,0,0,0,0,0,0,-1,2022,1604,0,0
805,-580,0,0,0,0,0,0,0,0,0,-1,2029,1604,0,0
812,-580,0,0,0,0,0,0,0,0,0,-1,2036,1604,0,0
-700,-587,0,0,0,0,0,0,0,0,0,-1,524,1611,0,0
-693,-587,0,0,0,0,0,0,0,0,0,-1,531,1611,0,0
-686,-587,0,0,0,0,0,0,0,0,0,-1,538,1611,0,0
-679,-587,0,0,0,0,0,0,0,0,0,-1,545,1611,0,0
-672,-587,0,0,0,0,0,0,0,0,0,-1,552,1611,0,0
-665,-587,0,0,0,0,0,0,0,0,0,-1,559,1611,0,0
-658,-587,0,0,0,0,0,0,0,0,0,-1,566,1611,0,0
-651,-587,0,0,0,0,0,0,0,0,0,-1,573,1611,0,0
-644,-587,0,0,0,0,0,0,0,0,0,-1,580,1611,0,0
-637,-587,0,0,0,0,0,0,0,0,0,-1,587,1611,0,0
-630,-587,0,0,0,0,0,0,0,0,0,-1,594,1611,0,0
-623,-587,0,0,0,0,0,0,0,0,0,-1,601,1611,0,0
-616,-587,0,0,0,0,0,0,0,0,0,-1,608,1611,0,0
-609,-587,0,0,0,0,0,0,0,0,0,-1,615,1611,0,0
-602,-587,0,0,0,0,0,0,0,0,0,-1,622,1611,0,0
-595,-587,0,0,0,0,0,0,0,0,0,-1,629,1611,0,0
-588,-587,0,0,0,0,0,0,0,0,0,-1,636,1611,0,0
-581,-587,0,0,0,0,0,0,0,0,0,-1,643,1611,0,0
-574,-587,0,0,0,0,0,0,0,0,0,-1,650,1611,0,0
-567,-587,0,0,0,0,0,0,0,0,0,-1,657,1611,0,0
-560,-587,0,0,0,0,0,0,0,0,0,-1,664,1611,0,0
-553,-587,0,0,0,0,0,0,0,0,0,-1,671,1611,0,0
-546,-587,0,0,0,0,0,0,0,0,0,-1,678,1611,0,0
-539,-587,0,0,0,0,0,0,0,0,0,-1,685,1611,0,0
-532,-587,0,0,0,0,0,0,0,0,0,-1,692,1611,0,0
-525,-587,0,0,0,0,0,0,0,0,0,-1,699,1611,0,0
-518,-587,0,0,0,0,0,0,0,0,0,-1,706,1611,0,0
-511,-587,0,0,0,0,0,0,0,0,0,-1,713,1611,0,0
-504,-587,0,0,0,0,0,0,0,0,0,-1,720,1611,0,0
-497,-587,0,0,0,0,0,0,0,0,0,-1,727,1611,0,0
-490,-587,0,0,0,0,0,0,0,0,0,-1,734,1611,0,0
-483,-587,0,0,0,0,0,0,0,0,0,-1,741,1611,0,0
-476,-587,0,0,0,0,0,0,0,0,0,-1,748,1611,0,0
-469,-587,0,0,0,0,0,0,0,0,0,-1,755,1611,0,0
-462,-587,-0.714355,-0.418457,0,0,0,0,0,0,0,-1,762,1611,-0.714359,0.418483
-455,-587,-0.619812,-0.522461,0,0,0,0,0,0,0,-1,769,1611,-0.619802,0.522515
-448,-587,-0.461731,-0.686523,0,0,0,0,0,0,0,-1,776,1611,-0.461739,0.686559
-441,-587,-3.56555,2.72253,0,0,0,0,0,0,0,-1,783,1611,-3.56555,-2.72259
-434,-587,-1.77319,4.76318,0,0,0,0,0,0,0,-1,790,1611,-1.77318,-4.76323
-427,-587,0.0346069,6.92944,0,0,0,0,0,0,0,-1,797,1611,0.034587,-6.92941
-420,-587,-0.647156,10.1157,0,0,0,0,0,0,0,-1,804,1611,-0.647128,-10.1158
-413,-587,2.13971,10.3901,0,0,0,0,0,0,0,-1,811,1611,2.13971,-10.3902
-406,-587,2.2525,19.7814,0,0,0,0,0,0,0,-1,818,1611,2.25253,-19.7814
-399,-587,-1.7851,36.6587,0,0,0,0,0,0,0,-1,825,1611,-1.78511,-36.6587
-392,-587,-17.8898,94.8955,0,0,0,0,0,0,0,-1,832,1611,-17.8898,-94.8955
-385,-587,-39.7522,169.978,0,0,0,0,0,0,0,-1,839,1611,-39.7522,-169.978
-378,-587,-41.0566,174.595,0.0362667,-0.00260899,-0.0251204,0.0485915,-0.0149338,-0.456122,0.038354,0.0320329,846,1611,-41.0566,-174.595
-371,-587,-42.2617,179.102,0.0346813,-0.00315683,-0.0269631,0.0487007,-0.0171762,-0.479477,0.039459,0.0198461,853,1611,-42.2617,-179.102
-364,-587,-43.4412,183.44,0.0346867,-0.00361874,-0.028906,0.0502094,-0.0191414,-0.492812,0.0413573,0.0280819,860,1611,-43.4411,-183.44
-357,-587,-44.5483,187.665,0.0355526,-0.00378221,-0.0310615,0.0526496,-0.0208792,-0.503169,0.0437529,0.0263173,867,1611,-44.5483,-187.665
-350,-587,-45.8321,191.943,0.0372216,-0.00352867,-0.0335814,0.0561256,-0.0224327,-0.512718,0.0467255,0.0170466,874,1611,-45.8321,-191.943
-343,-587,-47.0495,196.139,0.0397363,-0.00294277,-0.0362045,0.0604222,-0.0236287,-0.519097,0.0500527,0.0232946,881,1611,-47.0495,-196.139
-336,-587,-48.0729,200.257,0.0428203,-0.00205041,-0.0389802,0.0653605,-0.0245907,-0.524272,0.053682,0.0223817,888,1611,-48.073,-200.257
-329,-587,-48.875,204.311,0.0464214,-0.00135391,-0.0418109,0.0706874,-0.0256199,-0.525864,0.0575966,0.02259,895,1611,-48.875,-204.311
-322,-587,-49.7023,208.486,0.0503254,-0.000594583,-0.0444821,0.0761184,-0.0263876,-0.525472,0.0614596,0.024003,902,1611,-49.7023,-208.486
-315,-587,-50.6833,212.489,0.0545465,8.9897e-05,-0.0473894,0.0819729,-0.0273365,-0.524644,0.065685,0.0205922,909,1611,-50.6833,-212.489
-308,-587,-51.5338,216.438,0.0595481,0.000550081,-0.0501251,0.0882102,-0.028112,-0.519435,0.0700828,0.0331854,916,1611,-51.5338,-216.438
-301,-587,-52.3032,220.451,0,0,0,0,0,0,0,-1,923,1611,-52.3032,-220.451
-294,-587,-52.1658,224.612,0,0,0,0,0,0,0,-1,930,1611,-52.1658,-224.612
-287,-587,-6.83337,72.7224,0,0,0,0,0,0,0,-1,937,1611,-6.83338,-72.7224
-280,-587,-5.36652,67.5034,0,0,0,0,0,0,0,-1,944,1611,-5.36649,-67.5034
-273,-587,-5.27942,66.161,0,0,0,0,0,0,0,-1,951,1611,-5.27943,-66.161
-266,-587,-4.93909,64.3071,0,0,0,0,0,0,0,-1,958,1611,-4.93907,-64.3071
-259,-587,-4.64594,61.301,0,0,0,0,0,0,0,-1,965,1611,-4.64594,-61.301
-252,-587,1.30188,10.3103,0,0,0,0,0,0,0,-1,972,1611,1.30188,-10.3104
-245,-587,1.52075,27.4791,0,0,0,0,0,0,0,-1,979,1611,1.52076,-27.4791
-238,-587,-1.50494,61.2449,0,0,0,0,0,0,0,-1,986,1611,-1.50494,-61.2449
-231,-587,-2.15942,62.5487,0,0,0,0,0,0,0,-1,993,1611,-2.1594,-62.5488
-224,-587,-3.16583,63.6151,0,0,0,0,0,0,0,-1,1000,1611,-3.16585,-63.6151
-217,-587,-7.07495,10.7847,0,0,0,0,0,0,0,-1,1007,1611,-7.07495,-10.7847
-210,-587,-4.72308,12.5889,0,0,0,0,0,0,0,-1,1014,1611,-4.72307,-12.5888
-203,-587,-3.2583,13.7289,0,0,0,0,0,0,0,-1,1021,1611,-3.25828,-13.7289
-196,-587,-1.953,14.8145,0,0,0,0,0,0,0,-1,1028,1611,-1.95302,-14.8144
-189,-587,-3.04138,8.66638,0,0,0,0,0,0,0,-1,1035,1611,-3.04136,-8.66635
-182,-587,-3.97095,9.7146,0,0,0,0,0,0,0,-1,1042,1611,-3.97093,-9.71461
-175,-587,-4.80969,8.37878,0,0,0,0,0,0,0,-1,1049,1611,-4.80964,-8.37883
-168,-587,-5.91394,8.72546,0,0,0,0,0,0,0,-1,1056,1611,-5.91398,-8.72542
-161,-587,-7.06946,8.88501,0,0,0,0,0,0,0,-1,1063,1611,-7.06947,-8.885
-154,-587,-2.24731,6.56519,0,0,0,0,0,0,0,-1,1070,1611,-2.24728,-6.56517
-147,-587,0,0,0,0,0,0,0,0,0,-1,1077,1611,0,0
-140,-587,0,0,0,0,0,0,0,0,0,-1,1084,1611,0,0
-133,-587,0,0,0,0,0,0,0,0,0,-1,1091,1611,0,0
-126,-587,0,0,0,0,0,0,0,0,0,-1,1098,1611,0,0
-119,-587,0,0,0,0,0,0,0,0,0,-1,1105,1611,0,0
-112,-587,0,0,0,0,0,0,0,0,0,-1,1112,1611,0,0
-105,-587,0,0,0,0,0,0,0,0,0,-1,1119,1611,0,0
-98,-587,0,0,0,0,0,0,0,0,0,-1,1126,1611,0,0
-91,-587,0,0,0,0,0,0,0,0,0,-1,1133,1611,0,0
-84,-587,0,0,0,0,0,0,0,0,0,-1,1140,1611,0,0
-77,-587,0,0,0,0,0,0,0,0,0,-1,1147,1611,0,0
-70,-587,0,0,0,0,0,0,0,0,0,-1,1154,1611,0,0
-63,-587,0,0,0,0,0,0,0,0,0,-1,1161,1611,0,0
-56,-587,0,0,0,0,0,0,0,0,0,-1,1168,1611,0,0
-49,-587,0,0,0,0,0,0,0,0,0,-1,1175,1611,0,0
-42,-587,0,0,0,0,0,0,0,0,0,-1,1182,1611,0,0
-35,-587,0,0,0,0,0,0,0,0,0,-1,1189,1611,0,0
-28,-587,0,0,0,0,0,0,0,0,0,-1,1196,1611,0,0
-21,-587,0,0,0,0,0,0,0,0,0,-1,1203,1611,0,0
-14,-587,0,0,0,0,0,0,0,0,0,-1,1210,1611,0,0
-7,-587,0,0,0,0,0,0,0,0,0,-1,1217,1611,0,0
0,-587,0,0,0,0,0,0,0,0,0,-1,1224,1611,0,0
7,-587,0,0,0,0,0,0,0,0,0,-1,1231,1611,0,0
14,-587,0,0,0,0,0,0,0,0,0,-1,1238,1611,0,0
21,-587,0,0,0,0,0,0,0,0,0,-1,1245,1611,0,0
28,-587,0,0,0,0,0,0,0,0,0,-1,1252,1611,0,0
35,-587,0,0,0,0,0,0,0,0,0,-1,1259,1611,0,0
42,-587,0,0,0,0,0,0,0,0,0,-1,1266,1611,0,0
49,-587,0,0,0,0,0,0,0,0,0,-1,1273,1611,0,0
56,-587,0,0,0,0,0,0,0,0,0,-1,1280,1611,0,0
63,-587,0,0,0,0,0,0,0,0,0,-1,1287,1611,0,0
70,-587,0,0,0,0,0,0,0,0,0,-1,1294,1611,0,0
77,-587,0,0,0,0,0,0,0,0,0,-1,1301,1611,0,0
84,-587,0,0,0,0,0,0,0,0,0,-1,1308,1611,0,0
91,-587,0,0,0,0,0,0,0,0,0,-1,1315,1611,0,0
98,-587,0,0,0,0,0,0,0,0,0,-1,1322,1611,0,0
105,-587,0,0,0,0,0,0,0,0,0,-1,1329,1611,0,0
112,-587,0,0,0,0,0,0,0,0,0,-1,1336,1611,0,0
119,-587,0,0,0,0,0,0,0,0,0,-1,1343,1611,0,0
126,-587,0,0,0,0,0,0,0,0,0,-1,1350,1611,0,0
133,-587,0,0,0,0,0,0,0,0,0,-1,1357,1611,0,0
140,-587,0,0,0,0,0,0,0,0,0,-1,1364,1611,0,0
147,-587,0,0,0,0,0,0,0,0,0,-1,1371,1611,0,0
154,-587,0,0,0,0,0,0,0,0,0,-1,1378,1611,0,0
161,-587,0,0,0,0,0,0,0,0,0,-1,1385,1611,0,0
168,-587,0,0,0,0,0,0,0,0,0,-1,1392,1611,0,0
175,-587,0,0,0,0,0,0,0,0,0,-1,1399,1611,0,0
182,-587,0,0,0,0,0,0,0,0,0,-1,1406,1611,0,0
189,-587,0,0,0,0,0,0,0,0,0,-1,1413,1611,0,0
196,-587,0,0,0,0,0,0,0,0,0,-1,1420,1611,0,0
203,-587,0,0,0,0,0,0,0,0,0,-1,1427,1611,0,0
210,-587,0,0,0,0,0,0,0,0,0,-1,1434,1611,0,0
217,-587,0,0,0,0,0,0,0,0,0,-1,1441,1611,0,0
224,-587,0,0,0,0,0,0,0,0,0,-1,1448,1611,0,0
231,-587,0,0,0,0,0,0,0,0,0,-1,1455,1611,0,0
238,-587,0,0,0,0,0,0,0,0,0,-1,1462,1611,0,0
245,-587,0,0,0,0,0,0,0,0,0,-1,1469,1611,0,0
252,-587,0,0,0,0,0,0,0,0,0,-1,1476,1611,0,0
259,-587,0,0,0,0,0,0,0,0,0,-1,1483,1611,0,0
266,-587,0,0,0,0,0,0,0,0,0,-1,1490,1611,0,0
273,-587,10.2936,6.35083,0,0,0,0,0,0,0,-1,1497,1611,10.2936,-6.35087
280,-587,2.09204,1.1217,0,0,0,0,0,0,0,-1,1504,1611,2.092,-1.12176
287,-587,3.2865,0.671509,0,0,0,0,0,0,0,-1,1511,1611,3.28656,-0.671538
294,-587,4.24646,1.58765,0,0,0,0,0,0,0,-1,1518,1611,4.24648,-1.58761
301,-587,7.60474,8.37085,0,0,0,0,0,0,0,-1,1525,1611,7.60478,-8.37084
308,-587,5.99316,10.2291,0,0,0,0,0,0,0,-1,1532,1611,5.99315,-10.2291
315,-587,4.34558,12.3289,0,0,0,0,0,0,0,-1,1539,1611,4.34556,-12.3288
322,-587,10.4526,6.38245,0,0,0,0,0,0,0,-1,1546,1611,10.4526,-6.38245
329,-587,10.7738,8.42444,0,0,0,0,0,0,0,-1,1553,1611,10.7738,-8.42438
336,-587,7.5531,5.96619,0,0,0,0,0,0,0,-1,1560,1611,7.55311,-5.96617
343,-587,20.0991,54.4835,0,0,0,0,0,0,0,-1,1567,1611,20.0991,-54.4835
350,-587,21.0448,56.5502,0,0,0,0,0,0,0,-1,1574,1611,21.0448,-56.5501
357,-587,26.1832,62.3915,0,0,0,0,0,0,0,-1,1581,1611,26.1832,-62.3915
364,-587,20.2296,58.4607,0,0,0,0,0,0,0,-1,1588,1611,20.2296,-58.4607
371,-587,22.5784,60.5015,0,0,0,0,0,0,0,-1,1595,1611,22.5784,-60.5014
378,-587,22.5558,66.4056,0,0,0,0,0,0,0,-1,1602,1611,22.5558,-66.4056
385,-587,22.582,66.9934,0,0,0,0,0,0,0,-1,1609,1611,22.582,-66.9934
392,-587,25.6912,75.1815,0,0,0,0,0,0,0,-1,1616,1611,25.6912,-75.1815
399,-587,28.3593,100.695,0,0,0,0,0,0,0,-1,1623,1611,28.3593,-100.695
406,-587,28.3816,99.4526,0,0,0,0,0,0,0,-1,1630,1611,28.3816,-99.4527
413,-587,28.9996,101.258,0,0,0,0,0,0,0,-1,1637,1611,28.9997,-101.258
420,-587,34.3275,147.889,0,0,0,0,0,0,0,-1,1644,1611,34.3275,-147.889
427,-587,42.4089,200.49,0,0,0,0,0,0,0,-1,1651,1611,42.4089,-200.49
434,-587,41.6301,197.067,0,0,0,0,0,0,0,-1,1658,1611,41.6301,-197.067
441,-587,60.6168,220.309,0,0,0,0,0,0,0,-1,1665,1611,60.6168,-220.309
448,-587,60.2673,216.226,0,0,0,0,0,0,0,-1,1672,1611,60.2673,-216.226
455,-587,59.6024,212.264,0.0403075,0.0019787,0.0310206,0.0576061,-0.0153199,0.508697,0.0444006,0.038601,1679,1611,59.6024,-212.264
462,-587,58.5359,208.245,0.0372132,0.00187646,0.0280417,0.0526885,-0.0135989,0.504278,0.0404284,0.0297267,1686,1611,58.5359,-208.245
469,-587,57.4641,204.153,0.0342736,0.00158877,0.0251871,0.0479556,-0.0120932,0.497618,0.0366722,0.0251474,1693,1611,57.4641,-204.153
476,-587,56.3352,200,0.0314823,0.00104703,0.0225602,0.0434775,-0.0109481,0.488683,0.0332409,0.0162585,1700,1611,56.3352,-200
483,-587,55.2045,195.719,0.0290939,0.000468479,0.0202553,0.039583,-0.0100206,0.477822,0.0302866,0.0212311,1707,1611,55.2045,-195.719
490,-587,53.9857,191.472,0.0269375,-0.000175325,0.0181938,0.0360701,-0.00930793,0.465216,0.0276761,0.0272338,1714,1611,53.9857,-191.472
497,-587,52.77,187.109,0.0249237,-0.000740536,0.01648,0.0329782,-0.00879508,0.454605,0.0254293,0.0213971,1721,1611,52.77,-187.109
504,-587,51.5463,182.808,0.0234231,-0.00105563,0.0149962,0.0305406,-0.00817313,0.443138,0.0235621,0.0173859,1728,1611,51.5463,-182.808
511,-587,50.1357,178.503,0.0221108,-0.00103042,0.0137223,0.0284896,-0.0074092,0.435132,0.0218849,0.0210316,1735,1611,50.1358,-178.503
518,-587,48.6322,174.049,0,0,0,0,0,0,0,-1,1742,1611,48.6322,-174.049
525,-587,46.3445,169.498,0,0,0,0,0,0,0,-1,1749,1611,46.3445,-169.498
532,-587,25.6605,64.9603,0,0,0,0,0,0,0,-1,1756,1611,25.6606,-64.9604
539,-587,24.8812,57.923,0,0,0,0,0,0,0,-1,1763,1611,24.8812,-57.923
546,-587,24.2523,48.2316,0,0,0,0,0,0,0,-1,1770,1611,24.2523,-48.2315
553,-587,20.7854,42.3828,0,0,0,0,0,0,0,-1,1777,1611,20.7854,-42.3828
560,-587,20.7347,41.9242,0,0,0,0,0,0,0,-1,1784,1611,20.7347,-41.9241
567,-587,4.03711,5.46387,0,0,0,0,0,0,0,-1,1791,1611,4.03715,-5.46382
574,-587,3.83142,5.68884,0,0,0,0,0,0,0,-1,1798,1611,3.83141,-5.68881
581,-587,3.47168,6.00977,0,0,0,0,0,0,0,-1,1805,1611,3.47167,-6.00983
588,-587,0,0,0,0,0,0,0,0,0,-1,1812,1611,0,0
595,-587,0,0,0,0,0,0,0,0,0,-1,1819,1611,0,0
602,-587,0,0,0,0,0,0,0,0,0,-1,1826,1611,0,0
609,-587,0,0,0,0,0,0,0,0,0,-1,1833,1611,0,0
616,-587,0,0,0,0,0,0,0,0,0,-1,1840,1611,0,0
623,-587,0,0,0,0,0,0,0,0,0,-1,1847,1611,0,0
630,-587,0,0,0,0,0,0,0,0,0,-1,1854,1611,0,0
637,-587,0,0,0,0,0,0,0,0,0,-1,1861,1611,0,0
644,-587,0,0,0,0,0,0,0,0,0,-1,1868,1611,0,0
651,-587,0,0,0,0,0,0,0,0,0,-1,1875,1611,0,0
658,-587,0,0,0,0,0,0,0,0,0,-1,1882,1611,0,0
665,-587,0,0,0,0,0,0,0,0,0,-1,1889,1611,0,0
672,-587,0,0,0,0,0,0,0,0,0,-1,1896,1611,0,0
679,-587,0,0,0,0,0,0,0,0,0,-1,1903,1611,0,0
686,-587,0,0,0,0,0,0,0,0,0,-1,1910,1611,0,0
693,-587,0,0,0,0,0,0,0,0,0,-1,1917,1611,0,0
700,-587,0,0,0,0,0,0,0,0,0,-1,1924,1611,0,0
707,-587,0,0,0,0,0,0,0,0,0,-1,1931,1611,0,0
714,-587,0,0,0,0,0,0,0,0,0,-1,1938,1611,0,0
721,-587,0,0,0,0,0,0,0,0,0,-1,1945,1611,0,0
728,-587,0,0,0,0,0,0,0,0,0,-1,1952,1611,0,0
735,-587,0,0,0,0,0,0,0,0,0,-1,1959,1611,0,0
742,-587,0,0,0,0,0,0,0,0,0,-1,1966,1611,0,0
749,-587,0,0,0,0,0,0,0,0,0,-1,1973,1611,0,0
756,-587,0,0,0,0,0,0,0,0,0,-1,1980,1611,0,0
763,-587,0,0,0,0,0,0,0,0,0,-1,1987,1611,0,0
770,-587,0,0,0,0,0,0,0,0,0,-1,1994,1611,0,0
777,-587,0,0,0,0,0,0,0,0,0,-1,2001,1611,0,0
784,-587,0,0,0,0,0,0,0,0,0,-1,2008,1611,0,0
791,-587,0,0,0,0,0,0,0,0,0,-1,2015,1611,0,0
798,-587,0,0,0,0,0,0,0,0,0,-1,2022,1611,0,0
805,-587,0,0,0,0,0,0,0,0,0,-1,2029,1611,0,0
812,-587,0,0,0,0,0,0,0,0,0,-1,2036,1611,0,0
-700,-594,0,0,0,0,0,0,0,0,0,-1,524,1618,0,0
-693,-594,0,0,0,0,0,0,0,0,0,-1,531,1618,0,0
-686,-594,0,0,0,0,0,0,0,0,0,-1,538,1618,0,0
-679,-594,0,0,0,0,0,0,0,0,0,-1,545,1618,0,0
-672,-594,0,0,0,0,0,0,0,0,0,-1,552,1618,0,0
-665,-594,0,0,0,0,0,0,0,0,0,-1,559,1618,0,0
-658,-594,0,0,0,0,0,0,0,0,0,-1,566,1618,0,0
-651,-594,0,0,0,0,0,0,0,0,0,-1,573,1618,0,0
-644,-594,0,0,0,0,0,0,0,0,0,-1,580,1618,0,0
-637,-594,0,0,0,0,0,0,0,0,0,-1,587,1618,0,0
-630,-594,0,0,0,0,0,0,0,0,0,-1,594,1618,0,0
-623,-594,0,0,0,0,0,0,0,0,0,-1,601,1618,0,0
-616,-594,0,0,0,0,0,0,0,0,0,-1,608,1618,0,0
-609,-594,0,0,0,0,0,0,0,0,0,-1,615,1618,0,0
-602,-594,0,0,0,0,0,0,0,0,0,-1,622,1618,0,0
-595,-594,0,0,0,0,0,0,0,0,0,-1,629,1618,0,0
-588,-594,0,0,0,0,0,0,0,0,0,-1,636,1618,0,0
-581,-594,0,0,0,0,0,0,0,0,0,-1,643,1618,0,0
-574,-594,0,0,0,0,0,0,0,0,0,-1,650,1618,0,0
-567,-594,0,0,0,0,0,0,0,0,0,-1,657,1618,0,0
-560,-594,0,0,0,0,0,0,0,0,0,-1,664,1618,0,0
-553,-594,0,0,0,0,0,0,0,0,0,-1,671,1618,0,0
-546,-594,0,0,0,0,0,0,0,0,0,-1,678,1618,0,0
-539,-594,0,0,0,0,0,0,0,0,0,-1,685,1618,0,0
-532,-594,0,0,0,0,0,0,0,0,0,-1,692,1618,0,0
-525,-594,0,0,0,0,0,0,0,0,0,-1,699,1618,0,0
-518,-594,0,0,0,0,0,0,0,0,0,-1,706,1618,0,0
-511,-594,0,0,0,0,0,0,0,0,0,-1,713,1618,0,0
-504,-594,0,0,0,0,0,0,0,0,0,-1,720,1618,0,0
-497,-594,0,0,0,0,0,0,0,0,0,-1,727,1618,0,0
-490,-594,0,0,0,0,0,0,0,0,0,-1,734,1618,0,0
-483,-594,0,0,0,0,0,0,0,0,0,-1,741,1618,0,0
-476,-594,0,0,0,0,0,0,0,0,0,-1,748,1618,0,0
-469,-594,0,0,0,0,0,0,0,0,0,-1,755,1618,0,0
-462,-594,0,0,0,0,0,0,0,0,0,-1,762,1618,0,0
-455,-594,-0.509216,-1.58411,0,0,0,0,0,0,0,-1,769,1618,-0.509245,1.58415
-448,-594,-7.71887,-0.0559082,0,0,0,0,0,0,0,-1,776,1618,-7.71885,0.055939
-441,-594,-5.78473,1.18298,0,0,0,0,0,0,0,-1,783,1618,-5.78474,-1.18295
-434,-594,-3.93628,3.06213,0,0,0,0,0,0,0,-1,790,1618,-3.93631,-3.06208
-427,-594,-3.97693,6.77759,0,0,0,0,0,0,0,-1,797,1618,-3.97695,-6.77764
-420,-594,-2.53046,7.71606,0,0,0,0,0,0,0,-1,804,1618,-2.53047,-7.71609
-413,-594,-0.860413,8.00391,0,0,0,0,0,0,0,-1,811,1618,-0.860423,-8.00389
-406,-594,2.45746,13.6218,0,0,0,0,0,0,0,-1,818,1618,2.45747,-13.6218
-399,-594,1.30414,24.9963,0,0,0,0,0,0,0,-1,825,1618,1.30415,-24.9963
-392,-594,-0.504883,35.921,0,0,0,0,0,0,0,-1,832,1618,-0.50491,-35.921
-385,-594,-10.3674,76.0038,0,0,0,0,0,0,0,-1,839,1618,-10.3675,-76.0038
-378,-594,-36.5453,175.962,0,0,0,0,0,0,0,-1,846,1618,-36.5453,-175.962
-371,-594,-37.7667,180.652,0,0,0,0,0,0,0,-1,853,1618,-37.7668,-180.652
-364,-594,-39.0114,185.045,0.0324456,-0.00354984,-0.0257525,0.0458662,-0.0169704,-0.480413,0.0375356,0.0179624,860,1618,-39.0113,-185.045
-357,-594,-40.3427,189.381,0.033175,-0.00371174,-0.0278418,0.0481281,-0.0186648,-0.492865,0.0397938,0.0167612,867,1618,-40.3427,-189.381
-350,-594,-41.5644,193.543,0.0346146,-0.0034395,-0.0303028,0.0513686,-0.0201935,-0.505058,0.0426032,0.0272667,874,1618,-41.5644,-193.543
-343,-594,-42.5605,197.59,0.0367661,-0.00274406,-0.0329919,0.0554653,-0.0214433,-0.515636,0.0458285,0.033745,881,1618,-42.5606,-197.59
-336,-594,-43.6649,201.745,0.039445,-0.00184306,-0.0357322,0.060068,-0.022466,-0.523451,0.0492719,0.0280602,888,1618,-43.6649,-201.745
-329,-594,-44.6089,205.845,0.0426215,-0.000979915,-0.0386069,0.0651577,-0.0235162,-0.528375,0.0530442,0.0233359,895,1618,-44.6089,-205.845
-322,-594,-45.4636,210,0.0461344,-0.000140606,-0.0414477,0.0704654,-0.0244715,-0.530826,0.0569156,0.021366,902,1618,-45.4636,-210
-315,-594,-46.415,214.01,0.0500225,0.000620696,-0.0444431,0.0761677,-0.0255245,-0.531761,0.0610907,0.0211845,909,1618,-46.415,-214.01
-308,-594,-47.174,217.882,0.0544618,0.00116104,-0.0473629,0.0821574,-0.0265346,-0.529133,0.0654351,0.01978,916,1618,-47.1739,-217.882
-301,-594,-47.9346,221.734,0.0587356,0.00149197,-0.0502998,0.0879867,-0.0277592,-0.526732,0.0697764,0.023989,923,1618,-47.9346,-221.733
-294,-594,-48.4531,225.63,0.0630717,0.00180606,-0.0531242,0.0937622,-0.0288845,-0.52387,0.0740388,0.0472643,930,1618,-48.4531,-225.63
-287,-594,-49.4561,229.469,0,0,0,0,0,0,0,-1,937,1618,-49.4561,-229.468
-280,-594,-26.5746,151.363,0,0,0,0,0,0,0,-1,944,1618,-26.5747,-151.363
-273,-594,-7.12677,80.9253,0,0,0,0,0,0,0,-1,951,1618,-7.12675,-80.9253
-266,-594,-6.24011,77.041,0,0,0,0,0,0,0,-1,958,1618,-6.24012,-77.041
-259,-594,-5.43719,73.2439,0,0,0,0,0,0,0,-1,965,1618,-5.43718,-73.2438
-252,-594,-3.87189,67.4364,0,0,0,0,0,0,0,-1,972,1618,-3.87187,-67.4365
-245,-594,-4.10248,71.0682,0,0,0,0,0,0,0,-1,979,1618,-4.10248,-71.0683
-238,-594,-3.80469,71.3663,0,0,0,0,0,0,0,-1,986,1618,-3.80466,-71.3663
-231,-594,-2.14069,63.0621,0,0,0,0,0,0,0,-1,993,1618,-2.14071,-63.0621
-224,-594,-3.09943,64.4106,0,0,0,0,0,0,0,-1,1000,1618,-3.09942,-64.4107
-217,-594,-3.96979,66.0715,0,0,0,0,0,0,0,-1,1007,1618,-3.96979,-66.0715
-210,-594,-5.61438,14.2119,0,0,0,0,0,0,0,-1,1014,1618,-5.6144,-14.212
-203,-594,-3.94507,15.5768,0,0,0,0,0,0,0,-1,1021,1618,-3.94506,-15.5768
-196,-594,2.78613,10.5815,0,0,0,0,0,0,0,-1,1028,1618,2.78612,-10.5815
-189,-594,2.60913,9.48865,0,0,0,0,0,0,0,-1,1035,1618,2.6091,-9.48871
-182,-594,1.2395,9.38806,0,0,0,0,0,0,0,-1,1042,1618,1.23951,-9.38804
-175,-594,0.234863,8.73792,0,0,0,0,0,0,0,-1,1049,1618,0.234812,-8.73786
-168,-594,-0.495483,8.46289,0,0,0,0,0,0,0,-1,1056,1618,-0.495513,-8.46285
-161,-594,-1.39734,8.28699,0,0,0,0,0,0,0,-1,1063,1618,-1.39729,-8.28699
-154,-594,-0.000854492,7.68445,0,0,0,0,0,0,0,-1,1070,1618,-0.000805755,-7.6845
-147,-594,0.348267,9.3385,0,0,0,0,0,0,0,-1,1077,1618,0.348237,-9.33849
-140,-594,0.675171,11.5884,0,0,0,0,0,0,0,-1,1084,1618,0.675204,-11.5884
-133,-594,0,0,0,0,0,0,0,0,0,-1,1091,1618,0,0
-126,-594,0,0,0,0,0,0,0,0,0,-1,1098,1618,0,0
-119,-594,0,0,0,0,0,0,0,0,0,-1,1105,1618,0,0
-112,-594,0,0,0,0,0,0,0,0,0,-1,1112,1618,0,0
-105,-594,0,0,0,0,0,0,0,0,0,-1,1119,1618,0,0
-98,-594,0,0,0,0,0,0,0,0,0,-1,1126,1618,0,0
-91,-594,0,0,0,0,0,0,0,0,0,-1,1133,1618,0,0
-84,-594,0,0,0,0,0,0,0,0,0,-1,1140,1618,0,0
-77,-594,0,0,0,0,0,0,0,0,0,-1,1147,1618,0,0
-70,-594,0,0,0,0,0,0,0,0,0,-1,1154,1618,0,0
-63,-594,0,0,0,0,0,0,0,0,0,-1,1161,1618,0,0
-56,-594,0,0,0,0,0,0,0,0,0,-1,1168,1618,0,0
-49,-594,0,0,0,0,0,0,0,0,0,-1,1175,1618,0,0
-42,-594,0,0,0,0,0,0,0,0,0,-1,1182,1618,0,0
-35,-594,0,0,0,0,0,0,0,0,0,-1,1189,1618,0,0
-28,-594,0,0,0,0,0,0,0,0,0,-1,1196,1618,0,0
-21,-594,0,0,0,0,0,0,0,0,0,-1,1203,1618,0,0
-14,-594,0,0,0,0,0,0,0,0,0,-1,1210,1618,0,0
-7,-594,0,0,0,0,0,0,0,0,0,-1,1217,1618,0,0
0,-594,0,0,0,0,0,0,0,0,0,-1,1224,1618,0,0
7,-594,0,0,0,0,0,0,0,0,0,-1,1231,1618,0,0
14,-594,0,0,0,0,0,0,0,0,0,-1,1238,1618,0,0
21,-594,0,0,0,0,0,0,0,0,0,-1,1245,1618,0,0
28,-594,0,0,0,0,0,0,0,0,0,-1,1252,1618,0,0
35,-594,0,0,0,0,0,0,0,0,0,-1,1259,1618,0,0
42,-594,0,0,0,0,0,0,0,0,0,-1,1266,1618,0,0
49,-594,0,0,0,0,0,0,0,0,0,-1,1273,1618,0,0
56,-594,0,0,0,0,0,0,0,0,0,-1,1280,1618,0,0
63,-594,0,0,0,0,0,0,0,0,0,-1,1287,1618,0,0
70,-594,0,0,0,0,0,0,0,0,0,-1,1294,1618,0,0
77,-594,0,0,0,0,0,0,0,0,0,-1,1301,1618,0,0
84,-594,0,0,0,0,0,0,0,0,0,-1,1308,1618,0,0
91,-594,0,0,0,0,0,0,0,0,0,-1,1315,1618,0,0
98,-594,0,0,0,0,0,0,0,0,0,-1,1322,1618,0,0
105,-594,0,0,0,0,0,0,0,0,0,-1,1329,1618,0,0
112,-594,0,0,0,0,0,0,0,0,0,-1,1336,1618,0,0
119,-594,0,0,0,0,0,0,0,0,0,-1,1343,1618,0,0
126,-594,0,0,0,0,0,0,0,0,0,-1,1350,1618,0,0
133,-594,0,0,0,0,0,0,0,0,0,-1,1357,1618,0,0
140,-594,0,0,0,0,0,0,0,0,0,-1,1364,1618,0,0
147,-594,0,0,0,0,0,0,0,0,0,-1,1371,1618,0,0
154,-594,0,0,0,0,0,0,0,0,0,-1,1378,1618,0,0
161,-594,0,0,0,0,0,0,0,0,0,-1,1385,1618,0,0
168,-594,0,0,0,0,0,0,0,0,0,-1,1392,1618,0,0
175,-594,0,0,0,0,0,0,0,0,0,-1,1399,1618,0,0
182,-594,0,0,0,0,0,0,0,0,0,-1,1406,1618,0,0
189,-594,0,0,0,0,0,0,0,0,0,-1,1413,1618,0,0
196,-594,0,0,0,0,0,0,0,0,0,-1,1420,1618,0,0
203,-594,0,0,0,0,0,0,0,0,0,-1,1427,1618,0,0
210,-594,0,0,0,0,0,0,0,0,0,-1,1434,1618,0,0
217,-594,0,0,0,0,0,0,0,0,0,-1,1441,1618,0,0
224,-594,0,0,0,0,0,0,0,0,0,-1,1448,1618,0,0
231,-594,0,0,0,0,0,0,0,0,0,-1,1455,1618,0,0
238,-594,0,0,0,0,0,0,0,0,0,-1,1462,1618,0,0
245,-594,0,0,0,0,0,0,0,0,0,-1,1469,1618,0,0
252,-594,3.03674,1.20996,0,0,0,0,0,0,0,-1,1476,1618,3.0368,-1.20999
259,-594,4.79834,1.53113,0,0,0,0,0,0,0,-1,1483,1618,4.79837,-1.53118
266,-594,3.71606,2.68152,0,0,0,0,0,0,0,-1,1490,1618,3.71609,-2.68149
273,-594,9.7655,6.33557,0,0,0,0,0,0,0,-1,1497,1618,9.76555,-6.33554
280,-594,3.13281,0.911255,0,0,0,0,0,0,0,-1,1504,1618,3.13277,-0.911207
287,-594,4.42749,1.51563,0,0,0,0,0,0,0,-1,1511,1618,4.42747,-1.51564
294,-594,5.36475,3.34937,0,0,0,0,0,0,0,-1,1518,1618,5.36475,-3.3494
301,-594,7.97144,9.04333,0,0,0,0,0,0,0,-1,1525,1618,7.9714,-9.04328
308,-594,6.30347,10.4633,0,0,0,0,0,0,0,-1,1532,1618,6.30351,-10.4633
315,-594,4.62012,11.934,0,0,0,0,0,0,0,-1,1539,1618,4.62006,-11.934
322,-594,2.91528,13.3134,0,0,0,0,0,0,0,-1,1546,1618,2.91523,-13.3133
329,-594,4.19861,9.77258,0,0,0,0,0,0,0,-1,1553,1618,4.19865,-9.77264
336,-594,10.1353,4.66528,0,0,0,0,0,0,0,-1,1560,1618,10.1353,-4.66533
343,-594,18.0483,57.3796,0,0,0,0,0,0,0,-1,1567,1618,18.0484,-57.3796
350,-594,24.8807,64.2565,0,0,0,0,0,0,0,-1,1574,1618,24.8807,-64.2565
357,-594,24.1903,62.9299,0,0,0,0,0,0,0,-1,1581,1618,24.1903,-62.93
364,-594,20.7518,62.6091,0,0,0,0,0,0,0,-1,1588,1618,20.7519,-62.6092
371,-594,22.4775,64.7457,0,0,0,0,0,0,0,-1,1595,1618,22.4775,-64.7457
378,-594,22.6462,69.2249,0,0,0,0,0,0,0,-1,1602,1618,22.6462,-69.2248
385,-594,25.8207,82.2562,0,0,0,0,0,0,0,-1,1609,1618,25.8207,-82.2562
392,-594,26.0084,90.6113,0,0,0,0,0,0,0,-1,1616,1618,26.0085,-90.6113
399,-594,29.077,116.162,0,0,0,0,0,0,0,-1,1623,1618,29.077,-116.162
406,-594,32.7993,154.188,0,0,0,0,0,0,0,-1,1630,1618,32.7993,-154.188
413,-594,50.204,233.488,0,0,0,0,0,0,0,-1,1637,1618,50.204,-233.488
420,-594,58.7172,233.074,0,0,0,0,0,0,0,-1,1644,1618,58.7172,-233.074
427,-594,58.1644,229.069,0,0,0,0,0,0,0,-1,1651,1618,58.1645,-229.069
434,-594,57.3633,225.383,0,0,0,0,0,0,0,-1,1658,1618,57.3633,-225.383
441,-594,56.5308,221.649,0,0,0,0,0,0,0,-1,1665,1618,56.5307,-221.649
448,-594,55.7573,217.174,0,0,0,0,0,0,0,-1,1672,1618,55.7574,-217.174
455,-594,55.2102,213.396,0.0373664,0.0018989,0.0281077,0.0528671,-0.0136018,0.503975,0.0405464,0.0477676,1679,1618,55.2102,-213.396
462,-594,54.2791,209.501,0.0341969,0.00185283,0.0251547,0.0479297,-0.0118799,0.499713,0.0365622,0.0269038,1686,1618,54.2791,-209.501
469,-594,53.198,205.534,0.0313111,0.00160642,0.0223321,0.0432789,-0.0103613,0.491951,0.0328555,0.0196066,1693,1618,53.198,-205.534
476,-594,52.1056,201.44,0.0285972,0.00111904,0.0197569,0.0389226,-0.0092063,0.481579,0.0294999,0.02051,1700,1618,52.1056,-201.44
483,-594,50.88,197.207,0.0262118,0.000631794,0.0174956,0.0350939,-0.00825032,0.46977,0.0265764,0.0252351,1707,1618,50.88,-197.207
490,-594,49.7136,192.946,0.0239918,8.01217e-05,0.0154303,0.0315561,-0.00748417,0.455796,0.0239255,0.0231035,1714,1618,49.7137,-192.946
497,-594,48.4524,188.721,0.0218874,-0.000412875,0.0136771,0.0283834,-0.00690891,0.443414,0.0215968,0.0175131,1721,1618,48.4524,-188.721
504,-594,47.1678,184.399,0.0202067,-0.000793316,0.0122057,0.0258073,-0.00639392,0.43019,0.0196854,0.0247439,1728,1618,47.1679,-184.398
511,-594,45.7131,180.11,0,0,0,0,0,0,0,-1,1735,1618,45.7131,-180.11
518,-594,43.1877,175.364,0,0,0,0,0,0,0,-1,1742,1618,43.1878,-175.364
525,-594,22.6301,74.267,0,0,0,0,0,0,0,-1,1749,1618,22.6301,-74.267
532,-594,23.9922,59.0367,0,0,0,0,0,0,0,-1,1756,1618,23.9921,-59.0367
539,-594,22.6456,47.21,0,0,0,0,0,0,0,-1,1763,1618,22.6457,-47.2099
546,-594,7.48645,8.54785,0,0,0,0,0,0,0,-1,1770,1618,7.48639,-8.54789
553,-594,3.69714,5.68762,0,0,0,0,0,0,0,-1,1777,1618,3.69715,-5.68764
560,-594,6.06616,4.44482,0,0,0,0,0,0,0,-1,1784,1618,6.06621,-4.44477
567,-594,5.97266,4.73303,0,0,0,0,0,0,0,-1,1791,1618,5.97271,-4.73309
574,-594,5.9906,4.96326,0,0,0,0,0,0,0,-1,1798,1618,5.99065,-4.96326
581,-594,0,0,0,0,0,0,0,0,0,-1,1805,1618,0,0
588,-594,0,0,0,0,0,0,0,0,0,-1,1812,1618,0,0
595,-594,0,0,0,0,0,0,0,0,0,-1,1819,1618,0,0
602,-594,0,0,0,0,0,0,0,0,0,-1,1826,1618,0,0
609,-594,0,0,0,0,0,0,0,0,0,-1,1833,1618,0,0
616,-594,0,0,0,0,0,0,0,0,0,-1,1840,1618,0,0
623,-594,0,0,0,0,0,0,0,0,0,-1,1847,1618,0,0
630,-594,0,0,0,0,0,0,0,0,0,-1,1854,1618,0,0
637,-594,0,0,0,0,0,0,0,0,0,-1,1861,1618,0,0
644,-594,0,0,0,0,0,0,0,0,0,-1,1868,1618,0,0
651,-594,0,0,0,0,0,0,0,0,0,-1,1875,1618,0,0
658,-594,0,0,0,0,0,0,0,0,0,-1,1882,1618,0,0
665,-594,0,0,0,0,0,0,0,0,0,-1,1889,1618,0,0
672,-594,0,0,0,0,0,0,0,0,0,-1,1896,1618,0,0
679,-594,0,0,0,0,0,0,0,0,0,-1,1903,1618,0,0
686,-594,0,0,0,0,0,0,0,0,0,-1,1910,1618,0,0
693,-594,0,0,0,0,0,0,0,0,0,-1,1917,1618,0,0
700,-594,0,0,0,0,0,0,0,0,0,-1,1924,1618,0,0
707,-594,0,0,0,0,0,0,0,0,0,-1,1931,1618,0,0
714,-594,0,0,0,0,0,0,0,0,0,-1,1938,1618,0,0
721,-594,0,0,0,0,0,0,0,0,0,-1,1945,1618,0,0
728,-594,0,0,0,0,0,0,0,0,0,-1,1952,1618,0,0
735,-594,0,0,0,0,0,0,0,0,0,-1,1959,1618,0,0
742,-594,0,0,0,0,0,0,0,0,0,-1,1966,1618,0,0
749,-594,0,0,0,0,0,0,0,0,0,-1,1973,1618,0,0
756,-594,0,0,0,0,0,0,0,0,0,-1,1980,1618,0,0
763,-594,0,0,0,0,0,0,0,0,0,-1,1987,1618,0,0
770,-594,0,0,0,0,0,0,0,0,0,-1,1994,1618,0,0
777,-594,0,0,0,0,0,0,0,0,0,-1,2001,1618,0,0
784,-594,0,0,0,0,0,0,0,0,0,-1,2008,1618,0,0
791,-594,0,0,0,0,0,0,0,0,0,-1,2015,1618,0,0
798,-594,0,0,0,0,0,0,0,0,0,-1,2022,1618,0,0
805,-594,0,0,0,0,0,0,0,0,0,-1,2029,1618,0,0
812,-594,0,0,0,0,0,0,0,0,0,-1,2036,1618,0,0
-700,-601,0,0,0,0,0,0,0,0,0,-1,524,1625,0,0
-693,-601,0,0,0,0,0,0,0,0,0,-1,531,1625,0,0
-686,-601,0,0,0,0,0,0,0,0,0,-1,538,1625,0,0
-679,-601,0,0,0,0,0,0,0,0,0,-1,545,1625,0,0
-672,-601,0,0,0,0,0,0,0,0,0,-1,552,1625,0,0
-665,-601,0,0,0,0,0,0,0,0,0,-1,559,1625,0,0
-658,-601,0,0,0,0,0,0,0,0,0,-1,566,1625,0,0
-651,-601,0,0,0,0,0,0,0,0,0,-1,573,1625,0,0
-644,-601,0,0,0,0,0,0,0,0,0,-1,580,1625,0,0
-637,-601,0,0,0,0,0,0,0,0,0,-1,587,1625,0,0
-630,-601,0,0,0,0,0,0,0,0,0,-1,594,1625,0,0
-623,-601,0,0,0,0,0,0,0,0,0,-1,601,1625,0,0
-616,-601,0,0,0,0,0,0,0,0,0,-1,608,1625,0,0
-609,-601,0,0,0,0,0,0,0,0,0,-1,615,1625,0,0
-602,-601,0,0,0,0,0,0,0,0,0,-1,622,1625,0,0
-595,-601,0,0,0,0,0,0,0,0,0,-1,629,1625,0,0
-588,-601,0,0,0,0,0,0,0,0,0,-1,636,1625,0,0
-581,-601,0,0,0,0,0,0,0,0,0,-1,643,1625,0,0
-574,-601,0,0,0,0,0,0,0,0,0,-1,650,1625,0,0
-567,-601,0,0,0,0,0,0,0,0,0,-1,657,1625,0,0
-560,-601,0,0,0,0,0,0,0,0,0,-1,664,1625,0,0
-553,-601,0,0,0,0,0,0,0,0,0,-1,671,1625,0,0
-546,-601,0,0,0,0,0,0,0,0,0,-1,678,1625,0,0
-539,-601,0,0,0,0,0,0,0,0,0,-1,685,1625,0,0
-532,-601,0,0,0,0,0,0,0,0,0,-1,692,1625,0,0
-525,-601,0,0,0,0,0,0,0,0,0,-1,699,1625,0,0
-518,-601,0,0,0,0,0,0,0,0,0,-1,706,1625,0,0
-511,-601,0,0,0,0,0,0,0,0,0,-1,713,1625,0,0
-504,-601,0,0,0,0,0,0,0,0,0,-1,720,1625,0,0
-497,-601,0,0,0,0,0,0,0,0,0,-1,727,1625,0,0
-490,-601,0,0,0,0,0,0,0,0,0,-1,734,1625,0,0
-483,-601,0,0,0,0,0,0,0,0,0,-1,741,1625,0,0
-476,-601,0,0,0,0,0,0,0,0,0,-1,748,1625,0,0
-469,-601,0,0,0,0,0,0,0,0,0,-1,755,1625,0,0
-462,-601,0,0,0,0,0,0,0,0,0,-1,762,1625,0,0
-455,-601,0,0,0,0,0,0,0,0,0,-1,769,1625,0,0
-448,-601,-7.07623,2.7616,0,0,0,0,0,0,0,-1,776,1625,-7.07626,-2.76161
-441,-601,-6.06689,3.33447,0,0,0,0,0,0,0,-1,783,1625,-6.06691,-3.33448
-434,-601,-5.02655,3.8468,0,0,0,0,0,0,0,-1,790,1625,-5.02657,-3.84674
-427,-601,-5.78601,4.2406,0,0,0,0,0,0,0,-1,797,1625,-5.786,-4.24058
-420,-601,-5.5191,5.60364,0,0,0,0,0,0,0,-1,804,1625,-5.51907,-5.60368
-413,-601,-4.30756,5.86047,0,0,0,0,0,0,0,-1,811,1625,-4.30757,-5.86046
-406,-601,-1.67493,7.20422,0,0,0,0,0,0,0,-1,818,1625,-1.67493,-7.20428
-399,-601,1.40094,15.3108,0,0,0,0,0,0,0,-1,825,1625,1.40096,-15.3107
-392,-601,0.678833,30.98,0,0,0,0,0,0,0,-1,832,1625,0.678827,-30.98
-385,-601,-0.0147095,37.3687,0,0,0,0,0,0,0,-1,839,1625,-0.0147267,-37.3687
-378,-601,-9.49316,77.9558,0,0,0,0,0,0,0,-1,846,1625,-9.49313,-77.9558
-371,-601,-24.0523,163.544,0,0,0,0,0,0,0,-1,853,1625,-24.0523,-163.544
-364,-601,-34.6274,186.582,0,0,0,0,0,0,0,-1,860,1625,-34.6274,-186.582
-357,-601,-36.2396,190.876,0,0,0,0,0,0,0,-1,867,1625,-36.2396,-190.877
-350,-601,-37.2349,195.05,0.0314046,-0.00340421,-0.0268579,0.0460043,-0.0180038,-0.497907,0.0381155,0.0377559,874,1625,-37.235,-195.05
-343,-601,-38.1551,199.11,0.0332843,-0.00256074,-0.0295985,0.0499637,-0.0192401,-0.513164,0.0412465,0.0479629,881,1625,-38.1551,-199.11
-336,-601,-39.2737,203.203,0.0356702,-0.00169131,-0.0322743,0.0542802,-0.0203013,-0.523051,0.0445244,0.0417131,888,1625,-39.2738,-203.203
-329,-601,-40.2901,207.337,0.0385411,-0.000658928,-0.035132,0.0591706,-0.0212885,-0.530956,0.0481388,0.0309155,895,1625,-40.2901,-207.337
-322,-601,-41.2682,211.509,0.0417007,0.000252659,-0.0380441,0.0642992,-0.0223458,-0.536001,0.0519425,0.0184402,902,1625,-41.2682,-211.509
-315,-601,-42.2015,215.473,0.045279,0.00107001,-0.0410192,0.0697705,-0.0234214,-0.538264,0.0559786,0.0181245,909,1625,-42.2015,-215.473
-308,-601,-42.9809,219.34,0.0492847,0.00165293,-0.0439693,0.0754738,-0.0245362,-0.537194,0.0601855,0.0171813,916,1625,-42.9809,-219.34
-301,-601,-43.7086,223.113,0.0533058,0.00209396,-0.046939,0.0811689,-0.0257691,-0.535701,0.0644432,0.0207671,923,1625,-43.7086,-223.113
-294,-601,-44.4485,226.952,0.057448,0.00245384,-0.0497568,0.0868001,-0.0268982,-0.532968,0.0686134,0.0267353,930,1625,-44.4485,-226.952
-287,-601,-45.0488,230.767,0.0618895,0.0023687,-0.0525438,0.0925156,-0.0282575,-0.527728,0.0729441,0.0361108,937,1625,-45.0488,-230.767
-280,-601,-45.5727,234.369,0,0,0,0,0,0,0,-1,944,1625,-45.5727,-234.369
-273,-601,-45.5385,238.392,0,0,0,0,0,0,0,-1,951,1625,-45.5385,-238.392
-266,-601,-40.8055,236.129,0,0,0,0,0,0,0,-1,958,1625,-40.8055,-236.129
-259,-601,-18.8072,134.813,0,0,0,0,0,0,0,-1,965,1625,-18.8072,-134.813
-252,-601,-5.5199,84.9717,0,0,0,0,0,0,0,-1,972,1625,-5.51992,-84.9717
-245,-601,-5.19122,85.542,0,0,0,0,0,0,0,-1,979,1625,-5.19122,-85.542
-238,-601,-4.50085,79.6481,0,0,0,0,0,0,0,-1,986,1625,-4.50088,-79.648
-231,-601,-3.33917,71.8477,0,0,0,0,0,0,0,-1,993,1625,-3.33918,-71.8476
-224,-601,-3.03302,65.2062,0,0,0,0,0,0,0,-1,1000,1625,-3.033,-65.2062
-217,-601,3.39429,10.3898,0,0,0,0,0,0,0,-1,1007,1625,3.39431,-10.3898
-210,-601,-6.53699,15.7931,0,0,0,0,0,0,0,-1,1014,1625,-6.53697,-15.7931
-203,-601,2.69348,15.9099,0,0,0,0,0,0,0,-1,1021,1625,2.69351,-15.91
-196,-601,2.66992,16.1815,0,0,0,0,0,0,0,-1,1028,1625,2.66995,-16.1815
-189,-601,2.849,16.6105,0,0,0,0,0,0,0,-1,1035,1625,2.84902,-16.6104
-182,-601,1.82153,13.9752,0,0,0,0,0,0,0,-1,1042,1625,1.82155,-13.9752
-175,-601,0.544922,9.28687,0,0,0,0,0,0,0,-1,1049,1625,0.544879,-9.28685
-168,-601,-0.247559,8.97461,0,0,0,0,0,0,0,-1,1056,1625,-0.247598,-8.97466
-161,-601,-1.16833,8.80078,0,0,0,0,0,0,0,-1,1063,1625,-1.16837,-8.80081
-154,-601,1.12756,7.94861,0,0,0,0,0,0,0,-1,1070,1625,1.12762,-7.94855
-147,-601,1.35352,9.55432,0,0,0,0,0,0,0,-1,1077,1625,1.35351,-9.55429
-140,-601,1.72437,11.1498,0,0,0,0,0,0,0,-1,1084,1625,1.72432,-11.1498
-133,-601,2.13281,12.8347,0,0,0,0,0,0,0,-1,1091,1625,2.13287,-12.8348
-126,-601,3.09534,15.427,0,0,0,0,0,0,0,-1,1098,1625,3.0953,-15.4271
-119,-601,1.22485,9.43457,0,0,0,0,0,0,0,-1,1105,1625,1.22489,-9.43456
-112,-601,0,0,0,0,0,0,0,0,0,-1,1112,1625,0,0
-105,-601,0,0,0,0,0,0,0,0,0,-1,1119,1625,0,0
-98,-601,0,0,0,0,0,0,0,0,0,-1,1126,1625,0,0
-91,-601,0,0,0,0,0,0,0,0,0,-1,1133,1625,0,0
-84,-601,0,0,0,0,0,0,0,0,0,-1,1140,1625,0,0
-77,-601,0,0,0,0,0,0,0,0,0,-1,1147,1625,0,0
-70,-601,0,0,0,0,0,0,0,0,0,-1,1154,1625,0,0
-63,-601,0,0,0,0,0,0,0,0,0,-1,1161,1625,0,0
-56,-601,0,0,0,0,0,0,0,0,0,-1,1168,1625,0,0
-49,-601,0,0,0,0,0,0,0,0,0,-1,1175,1625,0,0
-42,-601,0,0,0,0,0,0,0,0,0,-1,1182,1625,0,0
-35,-601,0,0,0,0,0,0,0,0,0,-1,1189,1625,0,0
-28,-601,0,0,0,0,0,0,0,0,0,-1,1196,1625,0,0
-21,-601,0,0,0,0,0,0,0,0,0,-1,1203,1625,0,0
-14,-601,0,0,0,0,0,0,0,0,0,-1,1210,1625,0,0
-7,-601,0,0,0,0,0,0,0,0,0,-1,1217,1625,0,0
0,-601,0,0,0,0,0,0,0,0,0,-1,1224,1625,0,0
7,-601,0,0,0,0,0,0,0,0,0,-1,1231,1625,0,0
14,-601,0,0,0,0,0,0,0,0,0,-1,1238,1625,0,0
21,-601,0,0,0,0,0,0,0,0,0,-1,1245,1625,0,0
28,-601,0,0,0,0,0,0,0,0,0,-1,1252,1625,0,0
35,-601,0,0,0,0,0,0,0,0,0,-1,1259,1625,0,0
42,-601,0,0,0,0,0,0,0,0,0,-1,1266,1625,0,0
49,-601,0,0,0,0,0,0,0,0,0,-1,1273,1625,0,0
56,-601,0,0,0,0,0,0,0,0,0,-1,1280,1625,0,0
63,-601,0,0,0,0,0,0,0,0,0,-1,1287,1625,0,0
70,-601,0,0,0,0,0,0,0,0,0,-1,1294,1625,0,0
77,-601,0,0,0,0,0,0,0,0,0,-1,1301,1625,0,0
84,-601,0,0,0,0,0,0,0,0,0,-1,1308,1625,0,0
91,-601,0,0,0,0,0,0,0,0,0,-1,1315,1625,0,0
98,-601,0,0,0,0,0,0,0,0,0,-1,1322,1625,0,0
105,-601,0,0,0,0,0,0,0,0,0,-1,1329,1625,0,0
112,-601,0,0,0,0,0,0,0,0,0,-1,1336,1625,0,0
119,-601,0,0,0,0,0,0,0,0,0,-1,1343,1625,0,0
126,-601,0,0,0,0,0,0,0,0,0,-1,1350,1625,0,0
133,-601,0,0,0,0,0,0,0,0,0,-1,1357,1625,0,0
140,-601,0,0,0,0,0,0,0,0,0,-1,1364,1625,0,0
147,-601,0,0,0,0,0,0,0,0,0,-1,1371,1625,0,0
154,-601,0,0,0,0,0,0,0,0,0,-1,1378,1625,0,0
161,-601,0,0,0,0,0,0,0,0,0,-1,1385,1625,0,0
168,-601,0,0,0,0,0,0,0,0,0,-1,1392,1625,0,0
175,-601,0,0,0,0,0,0,0,0,0,-1,1399,1625,0,0
182,-601,0,0,0,0,0,0,0,0,0,-1,1406,1625,0,0
189,-601,0,0,0,0,0,0,0,0,0,-1,1413,1625,0,0
196,-601,0,0,0,0,0,0,0,0,0,-1,1420,1625,0,0
203,-601,0,0,0,0,0,0,0,0,0,-1,1427,1625,0,0
210,-601,0,0,0,0,0,0,0,0,0,-1,1434,1625,0,0
217,-601,0,0,0,0,0,0,0,0,0,-1,1441,1625,0,0
224,-601,0,0,0,0,0,0,0,0,0,-1,1448,1625,0,0
231,-601,-0.0371094,0.525879,0,0,0,0,0,0,0,-1,1455,1625,-0.0371518,-0.525824
238,-601,2.03369,-1.32861,0,0,0,0,0,0,0,-1,1462,1625,2.03364,1.32858
245,-601,2.71375,2.44983,0,0,0,0,0,0,0,-1,1469,1625,2.71371,-2.44979
252,-601,4.66943,2.28381,0,0,0,0,0,0,0,-1,1476,1625,4.66947,-2.28376
259,-601,6.42712,2.61987,0,0,0,0,0,0,0,-1,1483,1625,6.42711,-2.61985
266,-601,6.75317,1.68701,0,0,0,0,0,0,0,-1,1490,1625,6.75323,-1.687
273,-601,5.4314,2.92053,0,0,0,0,0,0,0,-1,1497,1625,5.43144,-2.92051
280,-601,4.64722,1.17786,0,0,0,0,0,0,0,-1,1504,1625,4.64722,-1.1779
287,-601,5.32532,2.6217,0,0,0,0,0,0,0,-1,1511,1625,5.32535,-2.62171
294,-601,5.97693,4.22693,0,0,0,0,0,0,0,-1,1518,1625,5.97697,-4.22694
301,-601,7.28162,9.50024,0,0,0,0,0,0,0,-1,1525,1625,7.28162,-9.50025
308,-601,6.53528,10.3927,0,0,0,0,0,0,0,-1,1532,1625,6.53529,-10.3927
315,-601,4.88013,11.7184,0,0,0,0,0,0,0,-1,1539,1625,4.88015,-11.7184
322,-601,3.38098,12.7864,0,0,0,0,0,0,0,-1,1546,1625,3.38104,-12.7864
329,-601,1.8772,13.8768,0,0,0,0,0,0,0,-1,1553,1625,1.87716,-13.8768
336,-601,4.67847,9.53308,0,0,0,0,0,0,0,-1,1560,1625,4.67848,-9.53309
343,-601,11.1404,3.14575,0,0,0,0,0,0,0,-1,1567,1625,11.1404,-3.1458
350,-601,22.2609,65.0352,0,0,0,0,0,0,0,-1,1574,1625,22.2608,-65.0352
357,-601,22.0867,63.3602,0,0,0,0,0,0,0,-1,1581,1625,22.0867,-63.3603
364,-601,20.9148,63.1563,0,0,0,0,0,0,0,-1,1588,1625,20.9148,-63.1563
371,-601,25.7045,110.517,0,0,0,0,0,0,0,-1,1595,1625,25.7044,-110.517
378,-601,26.113,103.917,0,0,0,0,0,0,0,-1,1602,1625,26.113,-103.918
385,-601,25.7329,93.0115,0,0,0,0,0,0,0,-1,1609,1625,25.7329,-93.0114
392,-601,27.6798,117.651,0,0,0,0,0,0,0,-1,1616,1625,27.6798,-117.651
399,-601,30.7197,156.291,0,0,0,0,0,0,0,-1,1623,1625,30.7197,-156.291
406,-601,55.4237,241.505,0,0,0,0,0,0,0,-1,1630,1625,55.4237,-241.505
413,-601,55.207,237.789,0,0,0,0,0,0,0,-1,1637,1625,55.207,-237.789
420,-601,54.7578,234.189,0.0542249,0.000541328,0.0400233,0.0755738,-0.0208076,0.490019,0.0585638,0.0231589,1644,1625,54.7578,-234.189
427,-601,54.1698,230.371,0.0495347,0.00095778,0.036998,0.0695043,-0.0190118,0.494939,0.053805,0.0226382,1651,1625,54.1698,-230.372
434,-601,53.3607,226.676,0.0453394,0.00137542,0.0339647,0.0638149,-0.0171001,0.498196,0.0492431,0.0206174,1658,1625,53.3607,-226.676
441,-601,52.5134,222.833,0.0413469,0.00177179,0.0310097,0.0583445,-0.0152258,0.501413,0.0448417,0.0239343,1665,1625,52.5134,-222.833
448,-601,51.7578,218.673,0.0375298,0.00197482,0.0279316,0.0528615,-0.0133569,0.501998,0.0404354,0.0432854,1672,1625,51.7578,-218.673
455,-601,50.8531,214.739,0.0341244,0.00202442,0.0248719,0.0476753,-0.0115265,0.498863,0.0362419,0.0389402,1679,1625,50.8532,-214.738
462,-601,49.9453,210.866,0.0309375,0.00199552,0.0219724,0.0427762,-0.00984312,0.4942,0.0323023,0.0214194,1686,1625,49.9453,-210.866
469,-601,48.9802,206.902,0.0280737,0.00178184,0.0192144,0.0382088,-0.00835327,0.485386,0.0286656,0.0175333,1693,1625,48.9802,-206.902
476,-601,47.8318,202.781,0.0254798,0.00134298,0.016694,0.0340108,-0.00718802,0.472427,0.025411,0.0197887,1700,1625,47.8318,-202.781
483,-601,46.6207,198.605,0.0231497,0.000911656,0.014463,0.0302738,-0.00621246,0.457689,0.0225405,0.0233611,1707,1625,46.6207,-198.605
490,-601,45.3878,194.395,0.0208805,0.000440725,0.0123985,0.0267283,-0.00540704,0.440711,0.019868,0.0202841,1714,1625,45.3878,-194.395
497,-601,44.1281,190.203,0.0187756,-1.38358e-05,0.0105905,0.0235379,-0.0047761,0.422581,0.0175026,0.0331135,1721,1625,44.128,-190.203
504,-601,42.7914,185.913,0,0,0,0,0,0,0,-1,1728,1625,42.7914,-185.913
511,-601,24.7172,89.2206,0,0,0,0,0,0,0,-1,1735,1625,24.7171,-89.2206
518,-601,22.5652,60.4095,0,0,0,0,0,0,0,-1,1742,1625,22.5652,-60.4096
525,-601,21.0905,50.1962,0,0,0,0,0,0,0,-1,1749,1625,21.0905,-50.1961
532,-601,15.9053,24.3068,0,0,0,0,0,0,0,-1,1756,1625,15.9053,-24.3067
539,-601,7.77112,11.4299,0,0,0,0,0,0,0,-1,1763,1625,7.77116,-11.4299
546,-601,6.56873,3.62354,0,0,0,0,0,0,0,-1,1770,1625,6.56867,-3.62352
553,-601,7.03015,4.25049,0,0,0,0,0,0,0,-1,1777,1625,7.03011,-4.25048
560,-601,7.50745,4.83374,0,0,0,0,0,0,0,-1,1784,1625,7.50744,-4.83376
567,-601,7.82043,3.83301,0,0,0,0,0,0,0,-1,1791,1625,7.82041,-3.83303
574,-601,0,0,0,0,0,0,0,0,0,-1,1798,1625,0,0
581,-601,0,0,0,0,0,0,0,0,0,-1,1805,1625,0,0
588,-601,0,0,0,0,0,0,0,0,0,-1,1812,1625,0,0
595,-601,0,0,0,0,0,0,0,0,0,-1,1819,1625,0,0
602,-601,0,0,0,0,0,0,0,0,0,-1,1826,1625,0,0
609,-601,0,0,0,0,0,0,0,0,0,-1,1833,1625,0,0
616,-601,0,0,0,0,0,0,0,0,0,-1,1840,1625,0,0
623,-601,0,0,0,0,0,0,0,0,0,-1,1847,1625,0,0
630,-601,0,0,0,0,0,0,0,0,0,-1,1854,1625,0,0
637,-601,0,0,0,0,0,0,0,0,0,-1,1861,1625,0,0
644,-601,0,0,0,0,0,0,0,0,0,-1,1868,1625,0,0
651,-601,0,0,0,0,0,0,0,0,0,-1,1875,1625,0,0
658,-601,0,0,0,0,0,0,0,0,0,-1,1882,1625,0,0
665,-601,0,0,0,0,0,0,0,0,0,-1,1889,1625,0,0
672,-601,0,0,0,0,0,0,0,0,0,-1,1896,1625,0,0
679,-601,0,0,0,0,0,0,0,0,0,-1,1903,1625,0,0
686,-601,0,0,0,0,0,0,0,0,0,-1,1910,1625,0,0
693,-601,0,0,0,0,0,0,0,0,0,-1,1917,1625,0,0
700,-601,0,0,0,0,0,0,0,0,0,-1,1924,1625,0,0
707,-601,0,0,0,0,0,0,0,0,0,-1,1931,1625,0,0
714,-601,0,0,0,0,0,0,0,0,0,-1,1938,1625,0,0
721,-601,0,0,0,0,0,0,0,0,0,-1,1945,1625,0,0
728,-601,0,0,0,0,0,0,0,0,0,-1,1952,1625,0,0
735,-601,0,0,0,0,0,0,0,0,0,-1,1959,1625,0,0
742,-601,0,0,0,0,0,0,0,0,0,-1,1966,1625,0,0
749,-601,0,0,0,0,0,0,0,0,0,-1,1973,1625,0,0
756,-601,0,0,0,0,0,0,0,0,0,-1,1980,1625,0,0
763,-601,0,0,0,0,0,0,0,0,0,-1,1987,1625,0,0
770,-601,0,0,0,0,0,0,0,0,0,-1,1994,1625,0,0
777,-601,0,0,0,0,0,0,0,0,0,-1,2001,1625,0,0
784,-601,0,0,0,0,0,0,0,0,0,-1,2008,1625,0,0
791,-601,0,0,0,0,0,0,0,0,0,-1,2015,1625,0,0
798,-601,0,0,0,0,0,0,0,0,0,-1,2022,1625,0,0
805,-601,0,0,0,0,0,0,0,0,0,-1,2029,1625,0,0
812,-601,0,0,0,0,0,0,0,0,0,-1,2036,1625,0,0
-700,-608,0,0,0,0,0,0,0,0,0,-1,524,1632,0,0
-693,-608,0,0,0,0,0,0,0,0,0,-1,531,1632,0,0
-686,-608,0,0,0,0,0,0,0,0,0,-1,538,1632,0,0
-679,-608,0,0,0,0,0,0,0,0,0,-1,545,1632,0,0
-672,-608,0,0,0,0,0,0,0,0,0,-1,552,1632,0,0
-665,-608,0,0,0,0,0,0,0,0,0,-1,559,1632,0,0
-658,-608,0,0,0,0,0,0,0,0,0,-1,566,1632,0,0
-651,-608,0,0,0,0,0,0,0,0,0,-1,573,1632,0,0
-644,-608,0,0,0,0,0,0,0,0,0,-1,580,1632,0,0
-637,-608,0,0,0,0,0,0,0,0,0,-1,587,1632,0,0
-630,-608,0,0,0,0,0,0,0,0,0,-1,594,1632,0,0
-623,-608,0,0,0,0,0,0,0,0,0,-1,601,1632,0,0
-616,-608,0,0,0,0,0,0,0,0,0,-1,608,1632,0,0
-609,-608,0,0,0,0,0,0,0,0,0,-1,615,1632,0,0
-602,-608,0,0,0,0,0,0,0,0,0,-1,622,1632,0,0
-595,-608,0,0,0,0,0,0,0,0,0,-1,629,1632,0,0
-588,-608,0,0,0,0,0,0,0,0,0,-1,636,1632,0,0
-581,-608,0,0,0,0,0,0,0,0,0,-1,643,1632,0,0
-574,-608,0,0,0,0,0,0,0,0,0,-1,650,1632,0,0
-567,-608,0,0,0,0,0,0,0,0,0,-1,657,1632,0,0
-560,-608,0,0,0,0,0,0,0,0,0,-1,664,1632,0,0
-553,-608,0,0,0,0,0,0,0,0,0,-1,671,1632,0,0
-546,-608,0,0,0,0,0,0,0,0,0,-1,678,1632,0,0
-539,-608,0,0,0,0,0,0,0,0,0,-1,685,1632,0,0
-532,-608,0,0,0,0,0,0,0,0,0,-1,692,1632,0,0
-525,-608,0,0,0,0,0,0,0,0,0,-1,699,1632,0,0
-518,-608,0,0,0,0,0,0,0,0,0,-1,706,1632,0,0
-511,-608,0,0,0,0,0,0,0,0,0,-1,713,1632,0,0
-504,-608,0,0,0,0,0,0,0,0,0,-1,720,1632,0,0
-497,-608,0,0,0,0,0,0,0,0,0,-1,727,1632,0,0
-490,-608,0,0,0,0,0,0,0,0,0,-1,734,1632,0,0
-483,-608,0,0,0,0,0,0,0,0,0,-1,741,1632,0,0
-476,-608,0,0,0,0,0,0,0,0,0,-1,748,1632,0,0
-469,-608,0,0,0,0,0,0,0,0,0,-1,755,1632,0,0
-462,-608,0,0,0,0,0,0,0,0,0,-1,762,1632,0,0
-455,-608,0,0,0,0,0,0,0,0,0,-1,769,1632,0,0
-448,-608,0,0,0,0,0,0,0,0,0,-1,776,1632,0,0
-441,-608,-7.34601,2.78052,0,0,0,0,0,0,0,-1,783,1632,-7.346,-2.78056
-434,-608,-6.34558,3.27405,0,0,0,0,0,0,0,-1,790,1632,-6.34555,-3.27406
-427,-608,-7.74335,4.17688,0,0,0,0,0,0,0,-1,797,1632,-7.74334,-4.17693
-420,-608,-6.82794,4.34839,0,0,0,0,0,0,0,-1,804,1632,-6.82794,-4.34838
-413,-608,-5.41919,5.66138,0,0,0,0,0,0,0,-1,811,1632,-5.41917,-5.66133
-406,-608,-4.79681,4.98999,0,0,0,0,0,0,0,-1,818,1632,-4.79684,-4.98997
-399,-608,-2.60645,6.34167,0,0,0,0,0,0,0,-1,825,1632,-2.60643,-6.34169
-392,-608,2.08356,15.437,0,0,0,0,0,0,0,-1,832,1632,2.08354,-15.437
-385,-608,1.51526,31.5153,0,0,0,0,0,0,0,-1,839,1632,1.51527,-31.5153
-378,-608,0.340515,38.2742,0,0,0,0,0,0,0,-1,846,1632,0.340526,-38.2742
-371,-608,-2.89227,60.2308,0,0,0,0,0,0,0,-1,853,1632,-2.89227,-60.2308
-364,-608,-21.5961,167.835,0,0,0,0,0,0,0,-1,860,1632,-21.5962,-167.835
-357,-608,-31.3414,192.251,0,0,0,0,0,0,0,-1,867,1632,-31.3414,-192.251
-350,-608,-32.9384,196.502,0,0,0,0,0,0,0,-1,874,1632,-32.9383,-196.502
-343,-608,-33.9159,200.749,0.0293068,-0.00237394,-0.0259902,0.0439034,-0.0169705,-0.51172,0.0362741,0.0471589,881,1632,-33.9159,-200.749
-336,-608,-35.0008,204.843,0.0315597,-0.00149878,-0.0285539,0.0480236,-0.0179626,-0.523026,0.0393929,0.0345799,888,1632,-35.0008,-204.843
-329,-608,-36.0369,208.891,0.0342666,-0.000267701,-0.0312748,0.0527243,-0.0187255,-0.533167,0.04278,0.0292453,895,1632,-36.0369,-208.891
-322,-608,-36.9675,212.953,0.0371815,0.000659838,-0.0341685,0.0576626,-0.0198213,-0.539991,0.0464797,0.0314049,902,1632,-36.9674,-212.953
-315,-608,-37.8448,216.8,0.0404612,0.00145634,-0.0370538,0.0628315,-0.020914,-0.543155,0.0503289,0.0333502,909,1632,-37.8448,-216.8
-308,-608,-38.5639,220.808,0.0440655,0.00200641,-0.0399813,0.0682106,-0.0221387,-0.543289,0.0543769,0.0373762,916,1632,-38.5639,-220.808
-301,-608,-39.2997,224.553,0.0478324,0.00241827,-0.0429607,0.0737178,-0.0234672,-0.542284,0.0585566,0.0270343,923,1632,-39.2998,-224.553
-294,-608,-39.9918,228.215,0.0517306,0.0026793,-0.0457955,0.0791544,-0.0247444,-0.539559,0.0626678,0.0240238,930,1632,-39.9918,-228.215
-287,-608,-40.7737,232.022,0.0558837,0.00255927,-0.0486056,0.0846596,-0.0262166,-0.534537,0.066913,0.0232685,937,1632,-40.7737,-232.022
-280,-608,-41.246,235.583,0.0605319,0.00213118,-0.0513636,0.0904152,-0.0277521,-0.526929,0.0713499,0.0219029,944,1632,-41.246,-235.583
-273,-608,-41.7248,239.192,0.0658807,0.00166168,-0.0537208,0.0963567,-0.0288143,-0.516031,0.0756933,0.0425003,951,1632,-41.7248,-239.192
-266,-608,-42.2397,242.588,0,0,0,0,0,0,0,-1,958,1632,-42.2397,-242.587
-259,-608,-42.459,246.161,0,0,0,0,0,0,0,-1,965,1632,-42.459,-246.161
-252,-608,-19.696,147.72,0,0,0,0,0,0,0,-1,972,1632,-19.6961,-147.72
-245,-608,-6.69507,93.6216,0,0,0,0,0,0,0,-1,979,1632,-6.69507,-93.6216
-238,-608,-4.35168,86.9574,0,0,0,0,0,0,0,-1,986,1632,-4.35168,-86.9574
-231,-608,-3.63574,80.2905,0,0,0,0,0,0,0,-1,993,1632,-3.63575,-80.2905
-224,-608,-5.05853,91.6997,0,0,0,0,0,0,0,-1,1000,1632,-5.0585,-91.6998
-217,-608,1.04419,12.8451,0,0,0,0,0,0,0,-1,1007,1632,1.04418,-12.8451
-210,-608,2.75903,15.9414,0,0,0,0,0,0,0,-1,1014,1632,2.75903,-15.9414
-203,-608,2.76776,16.217,0,0,0,0,0,0,0,-1,1021,1632,2.76773,-16.217
-196,-608,1.53955,18.6058,0,0,0,0,0,0,0,-1,1028,1632,1.53959,-18.6058
-189,-608,1.37634,19.119,0,0,0,0,0,0,0,-1,1035,1632,1.37634,-19.1191
-182,-608,2.89221,16.7092,0,0,0,0,0,0,0,-1,1042,1632,2.89224,-16.7093
-175,-608,0.219116,15.1643,0,0,0,0,0,0,0,-1,1049,1632,0.219173,-15.1644
-168,-608,0.000366211,9.48645,0,0,0,0,0,0,0,-1,1056,1632,0.000317105,-9.48648
-161,-608,2.27832,15.4423,0,0,0,0,0,0,0,-1,1063,1632,2.27826,-15.4423
-154,-608,1.3999,16.4037,0,0,0,0,0,0,0,-1,1070,1632,1.39987,-16.4037
-147,-608,2.4386,9.50317,0,0,0,0,0,0,0,-1,1077,1632,2.43858,-9.50313
-140,-608,2.60132,10.8401,0,0,0,0,0,0,0,-1,1084,1632,2.60134,-10.8401
-133,-608,3.2312,12.4738,0,0,0,0,0,0,0,-1,1091,1632,3.23116,-12.4738
-126,-608,3.76465,13.9644,0,0,0,0,0,0,0,-1,1098,1632,3.76466,-13.9644
-119,-608,4.28906,15.4196,0,0,0,0,0,0,0,-1,1105,1632,4.28911,-15.4195
-112,-608,0.745117,10.5587,0,0,0,0,0,0,0,-1,1112,1632,0.745145,-10.5587
-105,-608,-0.252319,1.42419,0,0,0,0,0,0,0,-1,1119,1632,-0.252331,-1.42418
-98,-608,-2.8595,3.0863,0,0,0,0,0,0,0,-1,1126,1632,-2.85948,-3.08625
-91,-608,-3.71948,1.73608,0,0,0,0,0,0,0,-1,1133,1632,-3.7195,-1.73607
-84,-608,0,0,0,0,0,0,0,0,0,-1,1140,1632,0,0
-77,-608,0,0,0,0,0,0,0,0,0,-1,1147,1632,0,0
-70,-608,0,0,0,0,0,0,0,0,0,-1,1154,1632,0,0
-63,-608,0,0,0,0,0,0,0,0,0,-1,1161,1632,0,0
-56,-608,0,0,0,0,0,0,0,0,0,-1,1168,1632,0,0
-49,-608,0,0,0,0,0,0,0,0,0,-1,1175,1632,0,0
-42,-608,0,0,0,0,0,0,0,0,0,-1,1182,1632,0,0
-35,-608,0,0,0,0,0,0,0,0,0,-1,1189,1632,0,0
-28,-608,0,0,0,0,0,0,0,0,0,-1,1196,1632,0,0
-21,-608,0,0,0,0,0,0,0,0,0,-1,1203,1632,0,0
-14,-608,0,0,0,0,0,0,0,0,0,-1,1210,1632,0,0
-7,-608,0,0,0,0,0,0,0,0,0,-1,1217,1632,0,0
0,-608,0,0,0,0,0,0,0,0,0,-1,1224,1632,0,0
7,-608,0,0,0,0,0,0,0,0,0,-1,1231,1632,0,0
14,-608,0,0,0,0,0,0,0,0,0,-1,1238,1632,0,0
21,-608,0,0,0,0,0,0,0,0,0,-1,1245,1632,0,0
28,-608,0,0,0,0,0,0,0,0,0,-1,1252,1632,0,0
35,-608,0,0,0,0,0,0,0,0,0,-1,1259,1632,0,0
42,-608,0,0,0,0,0,0,0,0,0,-1,1266,1632,0,0
49,-608,0,0,0,0,0,0,0,0,0,-1,1273,1632,0,0
56,-608,0,0,0,0,0,0,0,0,0,-1,1280,1632,0,0
63,-608,0,0,0,0,0,0,0,0,0,-1,1287,1632,0,0
70,-608,0,0,0,0,0,0,0,0,0,-1,1294,1632,0,0
77,-608,0,0,0,0,0,0,0,0,0,-1,1301,1632,0,0
84,-608,0,0,0,0,0,0,0,0,0,-1,1308,1632,0,0
91,-608,0,0,0,0,0,0,0,0,0,-1,1315,1632,0,0
98,-608,0,0,0,0,0,0,0,0,0,-1,1322,1632,0,0
105,-608,0,0,0,0,0,0,0,0,0,-1,1329,1632,0,0
112,-608,0,0,0,0,0,0,0,0,0,-1,1336,1632,0,0
119,-608,0,0,0,0,0,0,0,0,0,-1,1343,1632,0,0
126,-608,0,0,0,0,0,0,0,0,0,-1,1350,1632,0,0
133,-608,0,0,0,0,0,0,0,0,0,-1,1357,1632,0,0
140,-608,0,0,0,0,0,0,0,0,0,-1,1364,1632,0,0
147,-608,0,0,0,0,0,0,0,0,0,-1,1371,1632,0,0
154,-608,0,0,0,0,0,0,0,0,0,-1,1378,1632,0,0
161,-608,0,0,0,0,0,0,0,0,0,-1,1385,1632,0,0
168,-608,0,0,0,0,0,0,0,0,0,-1,1392,1632,0,0
175,-608,0,0,0,0,0,0,0,0,0,-1,1399,1632,0,0
182,-608,0,0,0,0,0,0,0,0,0,-1,1406,1632,0,0
189,-608,0,0,0,0,0,0,0,0,0,-1,1413,1632,0,0
196,-608,0,0,0,0,0,0,0,0,0,-1,1420,1632,0,0
203,-608,0,0,0,0,0,0,0,0,0,-1,1427,1632,0,0
210,-608,5.7157,-0.333008,0,0,0,0,0,0,0,-1,1434,1632,5.71566,0.333004
217,-608,4.49402,-0.831787,0,0,0,0,0,0,0,-1,1441,1632,4.49396,0.831738
224,-608,4.18018,-1.11792,0,0,0,0,0,0,0,-1,1448,1632,4.1802,1.11796
231,-608,0.361816,0.825195,0,0,0,0,0,0,0,-1,1455,1632,0.36185,-0.825226
238,-608,2.85388,-0.28833,0,0,0,0,0,0,0,-1,1462,1632,2.85391,0.288282
245,-608,3.87537,4.02173,0,0,0,0,0,0,0,-1,1469,1632,3.87538,-4.02168
252,-608,5.66956,3.5282,0,0,0,0,0,0,0,-1,1476,1632,5.6696,-3.52815
259,-608,7.47437,3.07178,0,0,0,0,0,0,0,-1,1483,1632,7.4744,-3.07172
266,-608,9.46936,2.34766,0,0,0,0,0,0,0,-1,1490,1632,9.46932,-2.34764
273,-608,6.03003,3.34241,0,0,0,0,0,0,0,-1,1497,1632,6.02997,-3.34245
280,-608,5.72461,2.0769,0,0,0,0,0,0,0,-1,1504,1632,5.72457,-2.07688
287,-608,6.20581,3.59338,0,0,0,0,0,0,0,-1,1511,1632,6.20585,-3.59341
294,-608,6.94922,5.17151,0,0,0,0,0,0,0,-1,1518,1632,6.94925,-5.17151
301,-608,7.60083,6.68018,0,0,0,0,0,0,0,-1,1525,1632,7.60086,-6.68013
308,-608,7.64746,9.93848,0,0,0,0,0,0,0,-1,1532,1632,7.64745,-9.93842
315,-608,5.30688,11.2054,0,0,0,0,0,0,0,-1,1539,1632,5.30694,-11.2054
322,-608,5.32617,13.7581,0,0,0,0,0,0,0,-1,1546,1632,5.32613,-13.758
329,-608,7.12231,13.9607,0,0,0,0,0,0,0,-1,1553,1632,7.12231,-13.9607
336,-608,5.48633,7.82446,0,0,0,0,0,0,0,-1,1560,1632,5.48634,-7.82446
343,-608,5.47192,5.61047,0,0,0,0,0,0,0,-1,1567,1632,5.47192,-5.61045
350,-608,20.215,64.3408,0,0,0,0,0,0,0,-1,1574,1632,20.2149,-64.3408
357,-608,20.1851,63.2336,0,0,0,0,0,0,0,-1,1581,1632,20.1851,-63.2337
364,-608,24.6505,112.798,0,0,0,0,0,0,0,-1,1588,1632,24.6505,-112.798
371,-608,24.809,112.369,0,0,0,0,0,0,0,-1,1595,1632,24.809,-112.369
378,-608,29.3972,162.128,0,0,0,0,0,0,0,-1,1602,1632,29.3973,-162.128
385,-608,30.738,173.629,0,0,0,0,0,0,0,-1,1609,1632,30.738,-173.629
392,-608,32.4698,196.609,0,0,0,0,0,0,0,-1,1616,1632,32.4698,-196.609
399,-608,52.4922,246.139,0,0,0,0,0,0,0,-1,1623,1632,52.4921,-246.139
406,-608,51.7795,242.508,0.059195,0.00017719,0.0413055,0.0804495,-0.0210773,0.475234,0.0618673,0.031867,1630,1632,51.7795,-242.508
413,-608,51.2966,238.974,0.0546344,0.000487888,0.0388861,0.0749435,-0.0198213,0.481306,0.0577153,0.0178386,1637,1632,51.2967,-238.973
420,-608,50.7507,235.395,0.0498103,0.00100204,0.0361961,0.0690607,-0.0182483,0.488791,0.0531774,0.031493,1644,1632,50.7507,-235.395
427,-608,50.1633,231.645,0.045308,0.00141792,0.0332868,0.0632327,-0.0165068,0.493965,0.0486009,0.0281546,1651,1632,50.1633,-231.645
434,-608,49.3646,227.909,0.0412645,0.00176877,0.0302937,0.0576785,-0.0146453,0.49655,0.0441513,0.0194501,1658,1632,49.3646,-227.909
441,-608,48.5654,224.086,0.0374887,0.00214182,0.0273306,0.0523623,-0.0127319,0.498389,0.0398362,0.0181408,1665,1632,48.5654,-224.086
448,-608,47.7706,220.212,0.0339031,0.00231727,0.0243252,0.0471125,-0.0108921,0.497478,0.0355989,0.0189167,1672,1632,47.7706,-220.212
455,-608,46.8005,216.225,0.0306245,0.0023752,0.0213345,0.0420863,-0.00908659,0.492996,0.031526,0.015584,1679,1632,46.8005,-216.225
462,-608,45.8015,212.245,0.0275069,0.00235528,0.0184907,0.037293,-0.00743083,0.48677,0.0276735,0.0170069,1686,1632,45.8015,-212.245
469,-608,44.7645,208.235,0.0247089,0.00216872,0.0158009,0.0328472,-0.00596955,0.475615,0.0241353,0.0134728,1693,1632,44.7645,-208.235
476,-608,43.634,204.161,0.0222665,0.00176567,0.013306,0.0288126,-0.00478037,0.457196,0.0209841,0.0126214,1700,1632,43.634,-204.161
483,-608,42.4254,200.031,0.0199725,0.00134059,0.0110457,0.0251063,-0.00379318,0.435073,0.0181346,0.0121775,1707,1632,42.4254,-200.032
490,-608,41.199,195.756,0.0175816,0.000907272,0.00890081,0.02144,-0.00295116,0.409042,0.0153718,0.0277332,1714,1632,41.199,-195.756
497,-608,39.8944,191.529,0,0,0,0,0,0,0,-1,1721,1632,39.8944,-191.529
504,-608,23.4728,87.6309,0,0,0,0,0,0,0,-1,1728,1632,23.4728,-87.6308
511,-608,19.2942,47.2458,0,0,0,0,0,0,0,-1,1735,1632,19.2942,-47.2458
518,-608,18.8019,37.4651,0,0,0,0,0,0,0,-1,1742,1632,18.8019,-37.4651
525,-608,11.2109,16.2579,0,0,0,0,0,0,0,-1,1749,1632,11.2109,-16.2579
532,-608,8.27917,11.6693,0,0,0,0,0,0,0,-1,1756,1632,8.27919,-11.6694
539,-608,9.40796,1.43457,0,0,0,0,0,0,0,-1,1763,1632,9.40801,-1.43463
546,-608,9.94031,2.1134,0,0,0,0,0,0,0,-1,1770,1632,9.94031,-2.11346
553,-608,10.363,2.81335,0,0,0,0,0,0,0,-1,1777,1632,10.3631,-2.81333
560,-608,9.23999,4.5636,0,0,0,0,0,0,0,-1,1784,1632,9.24,-4.56354
567,-608,0,0,0,0,0,0,0,0,0,-1,1791,1632,0,0
574,-608,0,0,0,0,0,0,0,0,0,-1,1798,1632,0,0
581,-608,0,0,0,0,0,0,0,0,0,-1,1805,1632,0,0
588,-608,0,0,0,0,0,0,0,0,0,-1,1812,1632,0,0
595,-608,0,0,0,0,0,0,0,0,0,-1,1819,1632,0,0
602,-608,0,0,0,0,0,0,0,0,0,-1,1826,1632,0,0
609,-608,0,0,0,0,0,0,0,0,0,-1,1833,1632,0,0
616,-608,0,0,0,0,0,0,0,0,0,-1,1840,1632,0,0
623,-608,0,0,0,0,0,0,0,0,0,-1,1847,1632,0,0
630,-608,0,0,0,0,0,0,0,0,0,-1,1854,1632,0,0
637,-608,0,0,0,0,0,0,0,0,0,-1,1861,1632,0,0
644,-608,0,0,0,0,0,0,0,0,0,-1,1868,1632,0,0
651,-608,0,0,0,0,0,0,0,0,0,-1,1875,1632,0,0
658,-608,0,0,0,0,0,0,0,0,0,-1,1882,1632,0,0
665,-608,0,0,0,0,0,0,0,0,0,-1,1889,1632,0,0
672,-608,0,0,0,0,0,0,0,0,0,-1,1896,1632,0,0
679,-608,0,0,0,0,0,0,0,0,0,-1,1903,1632,0,0
686,-608,0,0,0,0,0,0,0,0,0,-1,1910,1632,0,0
693,-608,0,0,0,0,0,0,0,0,0,-1,1917,1632,0,0
700,-608,0,0,0,0,0,0,0,0,0,-1,1924,1632,0,0
707,-608,0,0,0,0,0,0,0,0,0,-1,1931,1632,0,0
714,-608,0,0,0,0,0,0,0,0,0,-1,1938,1632,0,0
721,-608,0,0,0,0,0,0,0,0,0,-1,1945,1632,0,0
728,-608,0,0,0,0,0,0,0,0,0,-1,1952,1632,0,0
735,-608,0,0,0,0,0,0,0,0,0,-1,1959,1632,0,0
742,-608,0,0,0,0,0,0,0,0,0,-1,1966,1632,0,0
749,-608,0,0,0,0,0,0,0,0,0,-1,1973,1632,0,0
756,-608,0,0,0,0,0,0,0,0,0,-1,1980,1632,0,0
763,-608,0,0,0,0,0,0,0,0,0,-1,1987,1632,0,0
770,-608,0,0,0,0,0,0,0,0,0,-1,1994,1632,0,0
777,-608,0,0,0,0,0,0,0,0,0,-1,2001,1632,0,0
784,-608,0,0,0,0,0,0,0,0,0,-1,2008,1632,0,0
791,-608,0,0,0,0,0,0,0,0,0,-1,2015,1632,0,0
798,-608,0,0,0,0,0,0,0,0,0,-1,2022,1632,0,0
805,-608,0,0,0,0,0,0,0,0,0,-1,2029,1632,0,0
812,-608,0,0,0,0,0,0,0,0,0,-1,2036,1632,0,0
-700,-615,0,0,0,0,0,0,0,0,0,-1,524,1639,0,0
-693,-615,0,0,0,0,0,0,0,0,0,-1,531,1639,0,0
-686,-615,0,0,0,0,0,0,0,0,0,-1,538,1639,0,0
-679,-615,0,0,0,0,0,0,0,0,0,-1,545,1639,0,0
-672,-615,0,0,0,0,0,0,0,0,0,-1,552,1639,0,0
-665,-615,0,0,0,0,0,0,0,0,0,-1,559,1639,0,0
-658,-615,0,0,0,0,0,0,0,0,0,-1,566,1639,0,0
-651,-615,0,0,0,0,0,0,0,0,0,-1,573,1639,0,0
-644,-615,0,0,0,0,0,0,0,0,0,-1,580,1639,0,0
-637,-615,0,0,0,0,0,0,0,0,0,-1,587,1639,0,0
-630,-615,0,0,0,0,0,0,0,0,0,-1,594,1639,0,0
-623,-615,0,0,0,0,0,0,0,0,0,-1,601,1639,0,0
-616,-615,0,0,0,0,0,0,0,0,0,-1,608,1639,0,0
-609,-615,0,0,0,0,0,0,0,0,0,-1,615,1639,0,0
-602,-615,0,0,0,0,0,0,0,0,0,-1,622,1639,0,0
-595,-615,0,0,0,0,0,0,0,0,0,-1,629,1639,0,0
-588,-615,0,0,0,0,0,0,0,0,0,-1,636,1639,0,0
-581,-615,0,0,0,0,0,0,0,0,0,-1,643,1639,0,0
-574,-615,0,0,0,0,0,0,0,0,0,-1,650,1639,0,0
-567,-615,0,0,0,0,0,0,0,0,0,-1,657,1639,0,0
-560,-615,0,0,0,0,0,0,0,0,0,-1,664,1639,0,0
-553,-615,0,0,0,0,0,0,0,0,0,-1,671,1639,0,0
-546,-615,0,0,0,0,0,0,0,0,0,-1,678,1639,0,0
-539,-615,0,0,0,0,0,0,0,0,0,-1,685,1639,0,0
-532,-615,0,0,0,0,0,0,0,0,0,-1,692,1639,0,0
-525,-615,0,0,0,0,0,0,0,0,0,-1,699,1639,0,0
-518,-615,0,0,0,0,0,0,0,0,0,-1,706,1639,0,0
-511,-615,0,0,0,0,0,0,0,0,0,-1,713,1639,0,0
-504,-615,0,0,0,0,0,0,0,0,0,-1,720,1639,0,0
-497,-615,0,0,0,0,0,0,0,0,0,-1,727,1639,0,0
-490,-615,0,0,0,0,0,0,0,0,0,-1,734,1639,0,0
-483,-615,0,0,0,0,0,0,0,0,0,-1,741,1639,0,0
-476,-615,0,0,0,0,0,0,0,0,0,-1,748,1639,0,0
-469,-615,0,0,0,0,0,0,0,0,0,-1,755,1639,0,0
-462,-615,0,0,0,0,0,0,0,0,0,-1,762,1639,0,0
-455,-615,0,0,0,0,0,0,0,0,0,-1,769,1639,0,0
-448,-615,0,0,0,0,0,0,0,0,0,-1,776,1639,0,0
-441,-615,0,0,0,0,0,0,0,0,0,-1,783,1639,0,0
-434,-615,-7.64508,2.98596,0,0,0,0,0,0,0,-1,790,1639,-7.64505,-2.98594
-427,-615,-9.0011,2.89404,0,0,0,0,0,0,0,-1,797,1639,-9.00107,-2.89399
-420,-615,-8.07568,3.0752,0,0,0,0,0,0,0,-1,804,1639,-8.07569,-3.07514
-413,-615,-7.09149,3.396,0,0,0,0,0,0,0,-1,811,1639,-7.09147,-3.39599
-406,-615,-6.21368,3.7312,0,0,0,0,0,0,0,-1,818,1639,-6.21366,-3.73114
-399,-615,-4.84875,3.91907,0,0,0,0,0,0,0,-1,825,1639,-4.84877,-3.91901
-392,-615,1.7395,13.3127,0,0,0,0,0,0,0,-1,832,1639,1.73953,-13.3128
-385,-615,3.42297,14.9401,0,0,0,0,0,0,0,-1,839,1639,3.42296,-14.94
-378,-615,1.50134,37.1793,0,0,0,0,0,0,0,-1,846,1639,1.50132,-37.1793
-371,-615,-0.743164,48.5927,0,0,0,0,0,0,0,-1,853,1639,-0.743134,-48.5926
-364,-615,-2.22162,61.8123,0,0,0,0,0,0,0,-1,860,1639,-2.22161,-61.8122
-357,-615,-14.6611,120.546,0,0,0,0,0,0,0,-1,867,1639,-14.661,-120.546
-350,-615,-19.8453,174.03,0,0,0,0,0,0,0,-1,874,1639,-19.8453,-174.03
-343,-615,-29.6469,202.297,0,0,0,0,0,0,0,-1,881,1639,-29.6469,-202.297
-336,-615,-30.7892,206.331,0.0273156,-0.00122555,-0.0244857,0.0413857,-0.0152957,-0.521555,0.0338609,0.0207007,888,1639,-30.7893,-206.331
-329,-615,-31.8018,210.359,0.0298401,0.000177807,-0.0270533,0.0458609,-0.015843,-0.534661,0.0370033,0.0198648,895,1639,-31.8018,-210.359
-322,-615,-32.7386,214.358,0.0325266,0.00109516,-0.0299046,0.0505936,-0.0169718,-0.543468,0.0405869,0.0262173,902,1639,-32.7386,-214.358
-315,-615,-33.5858,218.152,0.0355362,0.00185018,-0.0326589,0.0554395,-0.0180531,-0.547324,0.0442232,0.0338787,909,1639,-33.5858,-218.152
-308,-615,-33.9955,222.35,0,0,0,0,0,0,0,-1,916,1639,-33.9956,-222.35
-301,-615,-34.8314,225.937,0,0,0,0,0,0,0,-1,923,1639,-34.8313,-225.937
-294,-615,-35.9521,229.544,0.0461469,0.00283703,-0.0411389,0.0709823,-0.0219983,-0.543132,0.0561106,0.0184556,930,1639,-35.9522,-229.544
-287,-615,-36.7624,233.209,0.0500548,0.00263643,-0.0438917,0.0762316,-0.0235403,-0.537764,0.0602215,0.0178027,937,1639,-36.7624,-233.209
-280,-615,-37.3774,236.786,0.0544119,0.00211698,-0.0466182,0.0817148,-0.0251859,-0.529817,0.0645315,0.0222835,944,1639,-37.3774,-236.786
-273,-615,-37.881,240.238,0.0593555,0.00148235,-0.0490611,0.0873778,-0.02654,-0.518953,0.0688259,0.0260256,951,1639,-37.881,-240.238
-266,-615,-38.4166,243.731,0.0643671,0.000891103,-0.0513984,0.0930369,-0.0277787,-0.508808,0.073066,0.0279793,958,1639,-38.4167,-243.731
-259,-615,-38.764,247.238,0.0697224,0.000320358,-0.0534269,0.0987284,-0.0286857,-0.497385,0.0771788,0.0480262,965,1639,-38.764,-247.238
-252,-615,-39.0472,250.546,0,0,0,0,0,0,0,-1,972,1639,-39.0473,-250.546
-245,-615,-25.5729,191.425,0,0,0,0,0,0,0,-1,979,1639,-25.5729,-191.425
-238,-615,-19.7418,158.524,0,0,0,0,0,0,0,-1,986,1639,-19.7418,-158.524
-231,-615,-11.2592,120.892,0,0,0,0,0,0,0,-1,993,1639,-11.2592,-120.892
-224,-615,-14.0591,136.41,0,0,0,0,0,0,0,-1,1000,1639,-14.0591,-136.41
-217,-615,-4.28967,93.3335,0,0,0,0,0,0,0,-1,1007,1639,-4.28968,-93.3335
-210,-615,2.48901,18.9324,0,0,0,0,0,0,0,-1,1014,1639,2.48902,-18.9323
-203,-615,2.13684,18.6173,0,0,0,0,0,0,0,-1,1021,1639,2.13683,-18.6173
-196,-615,4.27161,21.3264,0,0,0,0,0,0,0,-1,1028,1639,4.27165,-21.3264
-189,-615,0.55249,62.4188,0,0,0,0,0,0,0,-1,1035,1639,0.55247,-62.4188
-182,-615,2.98364,52.7119,0,0,0,0,0,0,0,-1,1042,1639,2.9836,-52.7119
-175,-615,2.25159,49.2682,0,0,0,0,0,0,0,-1,1049,1639,2.25158,-49.2682
-168,-615,3.85754,15.472,0,0,0,0,0,0,0,-1,1056,1639,3.85757,-15.472
-161,-615,2.14307,46.5156,0,0,0,0,0,0,0,-1,1063,1639,2.14303,-46.5156
-154,-615,1.37329,47.9545,0,0,0,0,0,0,0,-1,1070,1639,1.37327,-47.9545
-147,-615,0.0180664,48.1396,0,0,0,0,0,0,0,-1,1077,1639,0.0180157,-48.1397
-140,-615,3.73401,10.2349,0,0,0,0,0,0,0,-1,1084,1639,3.73402,-10.2348
-133,-615,2.6178,17.45,0,0,0,0,0,0,0,-1,1091,1639,2.61776,-17.4499
-126,-615,4.43408,12.5017,0,0,0,0,0,0,0,-1,1098,1639,4.43403,-12.5018
-119,-615,4.82983,13.9279,0,0,0,0,0,0,0,-1,1105,1639,4.82986,-13.9278
-112,-615,3.65698,14.4874,0,0,0,0,0,0,0,-1,1112,1639,3.65695,-14.4875
-105,-615,0.958496,2.45398,0,0,0,0,0,0,0,-1,1119,1639,0.958452,-2.45398
-98,-615,-0.647705,2.12109,0,0,0,0,0,0,0,-1,1126,1639,-0.647756,-2.12105
-91,-615,-3.07983,2.97375,0,0,0,0,0,0,0,-1,1133,1639,-3.07989,-2.97376
-84,-615,-2.46509,0.703247,0,0,0,0,0,0,0,-1,1140,1639,-2.46505,-0.703273
-77,-615,-3.17859,1.23755,0,0,0,0,0,0,0,-1,1147,1639,-3.17865,-1.23752
-70,-615,-4.03943,1.43335,0,0,0,0,0,0,0,-1,1154,1639,-4.03942,-1.43339
-63,-615,-4.8877,1.45544,0,0,0,0,0,0,0,-1,1161,1639,-4.88766,-1.45549
-56,-615,0,0,0,0,0,0,0,0,0,-1,1168,1639,0,0
-49,-615,0,0,0,0,0,0,0,0,0,-1,1175,1639,0,0
-42,-615,0,0,0,0,0,0,0,0,0,-1,1182,1639,0,0
-35,-615,0,0,0,0,0,0,0,0,0,-1,1189,1639,0,0
-28,-615,0,0,0,0,0,0,0,0,0,-1,1196,1639,0,0
-21,-615,0,0,0,0,0,0,0,0,0,-1,1203,1639,0,0
-14,-615,0,0,0,0,0,0,0,0,0,-1,1210,1639,0,0
-7,-615,0,0,0,0,0,0,0,0,0,-1,1217,1639,0,0
0,-615,0,0,0,0,0,0,0,0,0,-1,1224,1639,0,0
7,-615,0,0,0,0,0,0,0,0,0,-1,1231,1639,0,0
14,-615,0,0,0,0,0,0,0,0,0,-1,1238,1639,0,0
21,-615,0,0,0,0,0,0,0,0,0,-1,1245,1639,0,0
28,-615,0,0,0,0,0,0,0,0,0,-1,1252,1639,0,0
35,-615,0,0,0,0,0,0,0,0,0,-1,1259,1639,0,0
42,-615,0,0,0,0,0,0,0,0,0,-1,1266,1639,0,0
49,-615,0,0,0,0,0,0,0,0,0,-1,1273,1639,0,0
56,-615,0,0,0,0,0,0,0,0,0,-1,1280,1639,0,0
63,-615,0,0,0,0,0,0,0,0,0,-1,1287,1639,0,0
70,-615,0,0,0,0,0,0,0,0,0,-1,1294,1639,0,0
77,-615,0,0,0,0,0,0,0,0,0,-1,1301,1639,0,0
84,-615,0,0,0,0,0,0,0,0,0,-1,1308,1639,0,0
91,-615,0,0,0,0,0,0,0,0,0,-1,1315,1639,0,0
98,-615,0,0,0,0,0,0,0,0,0,-1,1322,1639,0,0
105,-615,0,0,0,0,0,0,0,0,0,-1,1329,1639,0,0
112,-615,0,0,0,0,0,0,0,0,0,-1,1336,1639,0,0
119,-615,0,0,0,0,0,0,0,0,0,-1,1343,1639,0,0
126,-615,0,0,0,0,0,0,0,0,0,-1,1350,1639,0,0
133,-615,0,0,0,0,0,0,0,0,0,-1,1357,1639,0,0
140,-615,0,0,0,0,0,0,0,0,0,-1,1364,1639,0,0
147,-615,0,0,0,0,0,0,0,0,0,-1,1371,1639,0,0
154,-615,0,0,0,0,0,0,0,0,0,-1,1378,1639,0,0
161,-615,0,0,0,0,0,0,0,0,0,-1,1385,1639,0,0
168,-615,0,0,0,0,0,0,0,0,0,-1,1392,1639,0,0
175,-615,5.39648,-2.00879,0,0,0,0,0,0,0,-1,1399,1639,5.3965,2.00881
182,-615,5.65393,-1.51025,0,0,0,0,0,0,0,-1,1406,1639,5.65388,1.51028
189,-615,5.58972,-1.35608,0,0,0,0,0,0,0,-1,1413,1639,5.58967,1.35607
196,-615,5.49915,-0.693604,0,0,0,0,0,0,0,-1,1420,1639,5.4991,0.693602
203,-615,5.33411,-0.226685,0,0,0,0,0,0,0,-1,1427,1639,5.33414,0.226689
210,-615,5.60278,0.108276,0,0,0,0,0,0,0,-1,1434,1639,5.60284,-0.10831
217,-615,6.26331,-0.307373,0,0,0,0,0,0,0,-1,1441,1639,6.26331,0.307372
224,-615,5.45422,-0.333984,0,0,0,0,0,0,0,-1,1448,1639,5.45422,0.333992
231,-615,4.92542,1.80298,0,0,0,0,0,0,0,-1,1455,1639,4.92537,-1.80297
238,-615,4.76355,1.96729,0,0,0,0,0,0,0,-1,1462,1639,4.76357,-1.96734
245,-615,4.08643,3.15906,0,0,0,0,0,0,0,-1,1469,1639,4.08638,-3.159
252,-615,6.37805,3.73889,0,0,0,0,0,0,0,-1,1476,1639,6.37806,-3.73891
259,-615,8.35974,3.16443,0,0,0,0,0,0,0,-1,1483,1639,8.35975,-3.16444
266,-615,10.3414,2.58997,0,0,0,0,0,0,0,-1,1490,1639,10.3414,-2.58996
273,-615,6.57043,1.84766,0,0,0,0,0,0,0,-1,1497,1639,6.5704,-1.84771
280,-615,7.10449,3.23438,0,0,0,0,0,0,0,-1,1504,1639,7.10447,-3.23435
287,-615,7.35779,4.68542,0,0,0,0,0,0,0,-1,1511,1639,7.35776,-4.68546
294,-615,7.63733,6.29114,0,0,0,0,0,0,0,-1,1518,1639,7.63735,-6.29109
301,-615,8.47925,11.452,0,0,0,0,0,0,0,-1,1525,1639,8.47922,-11.452
308,-615,6.8114,10.9059,0,0,0,0,0,0,0,-1,1532,1639,6.81137,-10.9058
315,-615,5.1427,14.7251,0,0,0,0,0,0,0,-1,1539,1639,5.14269,-14.7251
322,-615,7.17981,17.6864,0,0,0,0,0,0,0,-1,1546,1639,7.17985,-17.6864
329,-615,7.62134,20.4354,0,0,0,0,0,0,0,-1,1553,1639,7.62139,-20.4354
336,-615,6.45007,14.1138,0,0,0,0,0,0,0,-1,1560,1639,6.45011,-14.1138
343,-615,2.40491,6.50134,0,0,0,0,0,0,0,-1,1567,1639,2.40489,-6.50137
350,-615,22.3712,92.9357,0,0,0,0,0,0,0,-1,1574,1639,22.3712,-92.9357
357,-615,24.0944,105.165,0,0,0,0,0,0,0,-1,1581,1639,24.0943,-105.165
364,-615,23.6659,113.769,0,0,0,0,0,0,0,-1,1588,1639,23.666,-113.769
371,-615,27.1198,170.181,0,0,0,0,0,0,0,-1,1595,1639,27.1197,-170.181
378,-615,33.9603,228.618,0,0,0,0,0,0,0,-1,1602,1639,33.9604,-228.618
385,-615,48.8619,254.115,0,0,0,0,0,0,0,-1,1609,1639,48.8619,-254.115
392,-615,48.8394,250.643,0,0,0,0,0,0,0,-1,1616,1639,48.8394,-250.643
399,-615,48.616,247.114,0.0579409,0.00054868,0.0391883,0.0778163,-0.0193267,0.469372,0.0593776,0.035413,1623,1639,48.6159,-247.114
406,-615,47.9938,243.646,0.0535718,0.000844782,0.0370268,0.0726618,-0.0182452,0.476027,0.0555312,0.0171495,1630,1639,47.9938,-243.646
413,-615,47.4578,240.139,0.0493804,0.00106146,0.0346824,0.0674885,-0.0170466,0.48118,0.0516214,0.0198109,1637,1639,47.4577,-240.139
420,-615,46.8197,236.62,0.0449388,0.00157271,0.032073,0.0619705,-0.015459,0.488162,0.0473161,0.0220343,1644,1639,46.8197,-236.62
427,-615,46.1686,232.893,0.0406763,0.00202275,0.0292486,0.0564067,-0.0137077,0.493442,0.0429099,0.0215106,1651,1639,46.1686,-232.893
434,-615,45.3588,229.097,0.0368453,0.00234884,0.0263141,0.0510603,-0.0118661,0.495291,0.0386083,0.0179885,1658,1639,45.3587,-229.097
441,-615,44.5944,225.322,0.0333124,0.00270062,0.0233594,0.0459338,-0.00992079,0.495376,0.0344095,0.0192887,1665,1639,44.5944,-225.322
448,-615,43.7294,221.467,0.0299626,0.00289748,0.0203947,0.040906,-0.00804591,0.492483,0.0303107,0.0183608,1672,1639,43.7294,-221.467
455,-615,42.7207,217.556,0.026821,0.0029825,0.0174602,0.0360424,-0.00623887,0.485903,0.0263552,0.0171557,1679,1639,42.7207,-217.556
462,-615,41.7167,213.633,0.0237939,0.00298542,0.0146441,0.0313535,-0.00457413,0.476538,0.022582,0.019157,1686,1639,41.7167,-213.633
469,-615,40.6539,209.621,0.0210784,0.00285099,0.0120181,0.0270476,-0.00311822,0.460992,0.0191559,0.0173729,1693,1639,40.654,-209.621
476,-615,39.4185,205.441,0.0188341,0.0025392,0.00956134,0.0232485,-0.0018752,0.432534,0.0161604,0.0205472,1700,1639,39.4185,-205.441
483,-615,38.2234,201.272,0,0,0,0,0,0,0,-1,1707,1639,38.2234,-201.272
490,-615,37.0973,196.913,0,0,0,0,0,0,0,-1,1714,1639,37.0973,-196.913
497,-615,21.8047,89.4543,0,0,0,0,0,0,0,-1,1721,1639,21.8047,-89.4543
504,-615,16.4989,34.738,0,0,0,0,0,0,0,-1,1728,1639,16.4989,-34.738
511,-615,15.2349,30.2052,0,0,0,0,0,0,0,-1,1735,1639,15.2348,-30.2052
518,-615,13.2416,9.81812,0,0,0,0,0,0,0,-1,1742,1639,13.2416,-9.81813
525,-615,4.37524,3.90491,0,0,0,0,0,0,0,-1,1749,1639,4.37518,-3.90495
532,-615,7.3645,0.848145,0,0,0,0,0,0,0,-1,1756,1639,7.36451,-0.848093
539,-615,12.8112,-0.0476074,0,0,0,0,0,0,0,-1,1763,1639,12.8111,0.0475553
546,-615,8.33813,2.94556,0,0,0,0,0,0,0,-1,1770,1639,8.33813,-2.9455
553,-615,5.82532,-2.04199,0,0,0,0,0,0,0,-1,1777,1639,5.82534,2.04195
560,-615,0,0,0,0,0,0,0,0,0,-1,1784,1639,0,0
567,-615,0,0,0,0,0,0,0,0,0,-1,1791,1639,0,0
574,-615,0,0,0,0,0,0,0,0,0,-1,1798,1639,0,0
581,-615,0,0,0,0,0,0,0,0,0,-1,1805,1639,0,0
588,-615,0,0,0,0,0,0,0,0,0,-1,1812,1639,0,0
595,-615,0,0,0,0,0,0,0,0,0,-1,1819,1639,0,0
602,-615,0,0,0,0,0,0,0,0,0,-1,1826,1639,0,0
609,-615,0,0,0,0,0,0,0,0,0,-1,1833,1639,0,0
616,-615,0,0,0,0,0,0,0,0,0,-1,1840,1639,0,0
623,-615,0,0,0,0,0,0,0,0,0,-1,1847,1639,0,0
630,-615,0,0,0,0,0,0,0,0,0,-1,1854,1639,0,0
637,-615,0,0,0,0,0,0,0,0,0,-1,1861,1639,0,0
644,-615,0,0,0,0,0,0,0,0,0,-1,1868,1639,0,0
651,-615,0,0,0,0,0,0,0,0,0,-1,1875,1639,0,0
658,-615,0,0,0,0,0,0,0,0,0,-1,1882,1639,0,0
665,-615,0,0,0,0,0,0,0,0,0,-1,1889,1639,0,0
672,-615,0,0,0,0,0,0,0,0,0,-1,1896,1639,0,0
679,-615,0,0,0,0,0,0,0,0,0,-1,1903,1639,0,0
686,-615,0,0,0,0,0,0,0,0,0,-1,1910,1639,0,0
693,-615,0,0,0,0,0,0,0,0,0,-1,1917,1639,0,0
700,-615,0,0,0,0,0,0,0,0,0,-1,1924,1639,0,0
707,-615,0,0,0,0,0,0,0,0,0,-1,1931,1639,0,0
714,-615,0,0,0,0,0,0,0,0,0,-1,1938,1639,0,0
721,-615,0,0,0,0,0,0,0,0,0,-1,1945,1639,0,0
728,-615,0,0,0,0,0,0,0,0,0,-1,1952,1639,0,0
735,-615,0,0,0,0,0,0,0,0,0,-1,1959,1639,0,0
742,-615,0,0,0,0,0,0,0,0,0,-1,1966,1639,0,0
749,-615,0,0,0,0,0,0,0,0,0,-1,1973,1639,0,0
756,-615,0,0,0,0,0,0,0,0,0,-1,1980,1639,0,0
763,-615,0,0,0,0,0,0,0,0,0,-1,1987,1639,0,0
770,-615,0,0,0,0,0,0,0,0,0,-1,1994,1639,0,0
777,-615,0,0,0,0,0,0,0,0,0,-1,2001,1639,0,0
784,-615,0,0,0,0,0,0,0,0,0,-1,2008,1639,0,0
791,-615,0,0,0,0,0,0,0,0,0,-1,2015,1639,0,0
798,-615,0,0,0,0,0,0,0,0,0,-1,2022,1639,0,0
805,-615,0,0,0,0,0,0,0,0,0,-1,2029,1639,0,0
812,-615,0,0,0,0,0,0,0,0,0,-1,2036,1639,0,0
-700,-622,0,0,0,0,0,0,0,0,0,-1,524,1646,0,0
-693,-622,0,0,0,0,0,0,0,0,0,-1,531,1646,0,0
-686,-622,0,0,0,0,0,0,0,0,0,-1,538,1646,0,0
-679,-622,0,0,0,0,0,0,0,0,0,-1,545,1646,0,0
-672,-622,0,0,0,0,0,0,0,0,0,-1,552,1646,0,0
-665,-622,0,0,0,0,0,0,0,0,0,-1,559,1646,0,0
-658,-622,0,0,0,0,0,0,0,0,0,-1,566,1646,0,0
-651,-622,0,0,0,0,0,0,0,0,0,-1,573,1646,0,0
-644,-622,0,0,0,0,0,0,0,0,0,-1,580,1646,0,0
-637,-622,0,0,0,0,0,0,0,0,0,-1,587,1646,0,0
-630,-622,0,0,0,0,0,0,0,0,0,-1,594,1646,0,0
-623,-622,0,0,0,0,0,0,0,0,0,-1,601,1646,0,0
-616,-622,0,0,0,0,0,0,0,0,0,-1,608,1646,0,0
-609,-622,0,0,0,0,0,0,0,0,0,-1,615,1646,0,0
-602,-622,0,0,0,0,0,0,0,0,0,-1,622,1646,0,0
-595,-622,0,0,0,0,0,0,0,0,0,-1,629,1646,0,0
-588,-622,0,0,0,0,0,0,0,0,0,-1,636,1646,0,0
-581,-622,0,0,0,0,0,0,0,0,0,-1,643,1646,0,0
-574,-622,0,0,0,0,0,0,0,0,0,-1,650,1646,0,0
-567,-622,0,0,0,0,0,0,0,0,0,-1,657,1646,0,0
-560,-622,0,0,0,0,0,0,0,0,0,-1,664,1646,0,0
-553,-622,0,0,0,0,0,0,0,0,0,-1,671,1646,0,0
-546,-622,0,0,0,0,0,0,0,0,0,-1,678,1646,0,0
-539,-622,0,0,0,0,0,0,0,0,0,-1,685,1646,0,0
-532,-622,0,0,0,0,0,0,0,0,0,-1,692,1646,0,0
-525,-622,0,0,0,0,0,0,0,0,0,-1,699,1646,0,0
-518,-622,0,0,0,0,0,0,0,0,0,-1,706,1646,0,0
-511,-622,0,0,0,0,0,0,0,0,0,-1,713,1646,0,0
-504,-622,0,0,0,0,0,0,0,0,0,-1,720,1646,0,0
-497,-622,0,0,0,0,0,0,0,0,0,-1,727,1646,0,0
-490,-622,0,0,0,0,0,0,0,0,0,-1,734,1646,0,0
-483,-622,0,0,0,0,0,0,0,0,0,-1,741,1646,0,0
-476,-622,0,0,0,0,0,0,0,0,0,-1,748,1646,0,0
-469,-622,0,0,0,0,0,0,0,0,0,-1,755,1646,0,0
-462,-622,0,0,0,0,0,0,0,0,0,-1,762,1646,0,0
-455,-622,0,0,0,0,0,0,0,0,0,-1,769,1646,0,0
-448,-622,0,0,0,0,0,0,0,0,0,-1,776,1646,0,0
-441,-622,0,0,0,0,0,0,0,0,0,-1,783,1646,0,0
-434,-622,0,0,0,0,0,0,0,0,0,-1,790,1646,0,0
-427,-622,-7.62891,3.48096,0,0,0,0,0,0,0,-1,797,1646,-7.62892,-3.48092
-420,-622,-9.35791,1.77185,0,0,0,0,0,0,0,-1,804,1646,-9.35789,-1.77183
-413,-622,-8.46075,1.96777,0,0,0,0,0,0,0,-1,811,1646,-8.46074,-1.96774
-406,-622,-4.44318,2.16858,0,0,0,0,0,0,0,-1,818,1646,-4.44315,-2.16859
-399,-622,-7.06976,1.51001,0,0,0,0,0,0,0,-1,825,1646,-7.06976,-1.51005
-392,-622,3.89551,5.85376,0,0,0,0,0,0,0,-1,832,1646,3.8955,-5.85379
-385,-622,2.00543,14.0448,0,0,0,0,0,0,0,-1,839,1646,2.00544,-14.0448
-378,-622,1.49036,15.3436,0,0,0,0,0,0,0,-1,846,1646,1.49033,-15.3436
-371,-622,1.5274,38.0657,0,0,0,0,0,0,0,-1,853,1646,1.5274,-38.0657
-364,-622,-0.301086,49.736,0,0,0,0,0,0,0,-1,860,1646,-0.301086,-49.736
-357,-622,0.0578003,53.6583,0,0,0,0,0,0,0,-1,867,1646,0.0578109,-53.6584
-350,-622,-10.2404,105.288,0,0,0,0,0,0,0,-1,874,1646,-10.2404,-105.288
-343,-622,-20.3385,199.722,0,0,0,0,0,0,0,-1,881,1646,-20.3385,-199.722
-336,-622,-26.6318,207.682,0,0,0,0,0,0,0,-1,888,1646,-26.6318,-207.682
-329,-622,-27.6479,211.696,0.0252811,0.000719746,-0.0223726,0.038522,-0.0125211,-0.534393,0.0307178,0.0190389,895,1646,-27.6479,-211.696
-322,-622,-28.6552,215.751,0.0278123,0.00157019,-0.0251809,0.0430856,-0.0137031,-0.545217,0.0342186,0.018496,902,1646,-28.6552,-215.751
-315,-622,-29.6522,219.514,0.0305793,0.00223787,-0.0277943,0.0476069,-0.0147896,-0.549652,0.0376489,0.0246422,909,1646,-29.6522,-219.514
-308,-622,-30.4651,223.35,0.0337427,0.00278398,-0.0304681,0.0524381,-0.0159114,-0.550364,0.0412973,0.0269052,916,1646,-30.4651,-223.35
-301,-622,-31.2426,227.056,0.0371133,0.00300781,-0.0332681,0.0574445,-0.0173234,-0.548565,0.0451915,0.0219921,923,1646,-31.2426,-227.056
-294,-622,-32.0811,230.752,0.0406057,0.00294921,-0.0360138,0.0624161,-0.0188612,-0.544535,0.04912,0.0153389,930,1646,-32.0811,-230.752
-287,-622,-32.7776,234.367,0.0443202,0.00269208,-0.0387188,0.0674649,-0.0204526,-0.538774,0.0531231,0.015549,937,1646,-32.7776,-234.367
-280,-622,-33.4529,237.948,0.0484396,0.00216655,-0.0414061,0.0727348,-0.0221286,-0.530622,0.0573083,0.0186658,944,1646,-33.4529,-237.948
-273,-622,-34.0368,241.492,0.053075,0.00148784,-0.0438976,0.0781962,-0.0236333,-0.519777,0.0615402,0.0306757,951,1646,-34.0368,-241.492
-266,-622,-34.5238,245.007,0.0578912,0.000701225,-0.0462553,0.0836766,-0.0250842,-0.508552,0.0657604,0.0309454,958,1646,-34.5238,-245.007
-259,-622,-34.9722,248.463,0.062954,-4.46871e-05,-0.0482903,0.0891102,-0.0262008,-0.496406,0.0697993,0.0237668,965,1646,-34.9722,-248.463
-252,-622,-35.2877,251.758,0.0679568,-0.00115733,-0.0497481,0.0939726,-0.0271731,-0.481838,0.0734022,0.0327306,972,1646,-35.2876,-251.758
-245,-622,-35.5345,255.147,0,0,0,0,0,0,0,-1,979,1646,-35.5346,-255.147
-238,-622,-22.9348,195.524,0,0,0,0,0,0,0,-1,986,1646,-22.9348,-195.524
-231,-622,-24.0745,197.491,0,0,0,0,0,0,0,-1,993,1646,-24.0745,-197.491
-224,-622,-24.2548,200.049,0,0,0,0,0,0,0,-1,1000,1646,-24.2548,-200.049
-217,-622,-22.9724,193.496,0,0,0,0,0,0,0,-1,1007,1646,-22.9723,-193.496
-210,-622,0.891846,61.1121,0,0,0,0,0,0,0,-1,1014,1646,0.89187,-61.112
-203,-622,4.21375,20.9574,0,0,0,0,0,0,0,-1,1021,1646,4.21375,-20.9574
-196,-622,1.65784,62.3484,0,0,0,0,0,0,0,-1,1028,1646,1.65785,-62.3484
-189,-622,-7.52905,121.878,0,0,0,0,0,0,0,-1,1035,1646,-7.52904,-121.878
-182,-622,0.0473633,63.868,0,0,0,0,0,0,0,-1,1042,1646,0.0473535,-63.8681
-175,-622,3.61438,53.5428,0,0,0,0,0,0,0,-1,1049,1646,3.61438,-53.5428
-168,-622,3.44849,53.4453,0,0,0,0,0,0,0,-1,1056,1646,3.44848,-53.4453
-161,-622,2.79761,52.5291,0,0,0,0,0,0,0,-1,1063,1646,2.79756,-52.529
-154,-622,2.00879,52.2384,0,0,0,0,0,0,0,-1,1070,1646,2.00874,-52.2384
-147,-622,0.939453,52.2694,0,0,0,0,0,0,0,-1,1077,1646,0.939511,-52.2694
-140,-622,0.546997,48.6783,0,0,0,0,0,0,0,-1,1084,1646,0.547022,-48.6784
-133,-622,3.09644,17.677,0,0,0,0,0,0,0,-1,1091,1646,3.09638,-17.677
-126,-622,3.5061,19.5251,0,0,0,0,0,0,0,-1,1098,1646,3.50616,-19.5252
-119,-622,4.06384,13.1715,0,0,0,0,0,0,0,-1,1105,1646,4.06379,-13.1716
-112,-622,4.33276,14.6605,0,0,0,0,0,0,0,-1,1112,1646,4.33281,-14.6605
-105,-622,0.306519,4.38159,0,0,0,0,0,0,0,-1,1119,1646,0.306536,-4.38159
-98,-622,-0.510376,3.5033,0,0,0,0,0,0,0,-1,1126,1646,-0.510393,-3.50324
-91,-622,-1.146,0.975952,0,0,0,0,0,0,0,-1,1133,1646,-1.14599,-0.97597
-84,-622,-2.04895,1.31787,0,0,0,0,0,0,0,-1,1140,1646,-2.0489,-1.31781
-77,-622,-1.80627,0.332275,0,0,0,0,0,0,0,-1,1147,1646,-1.80622,-0.33223
-70,-622,-3.65588,2.28149,0,0,0,0,0,0,0,-1,1154,1646,-3.65589,-2.28155
-63,-622,-2.49683,1.27087,0,0,0,0,0,0,0,-1,1161,1646,-2.49679,-1.27093
-56,-622,-2.44238,-0.575562,0,0,0,0,0,0,0,-1,1168,1646,-2.44242,0.575508
-49,-622,-2.41089,1.38818,0,0,0,0,0,0,0,-1,1175,1646,-2.41088,-1.38815
-42,-622,-2.71497,2.85242,0,0,0,0,0,0,0,-1,1182,1646,-2.71491,-2.85247
-35,-622,-3.0177,4.25842,0,0,0,0,0,0,0,-1,1189,1646,-3.01773,-4.25838
-28,-622,-0.896606,0.678833,0,0,0,0,0,0,0,-1,1196,1646,-0.89661,-0.678835
-21,-622,-6.8219,165.735,0,0,0,0,0,0,0,-1,1203,1646,-6.82187,-165.735
-14,-622,25.6946,320.219,0,0,0,0,0,0,0,-1,1210,1646,25.6945,-320.219
-7,-622,25.1777,320.412,0,0,0,0,0,0,0,-1,1217,1646,25.1777,-320.412
0,-622,0,0,0,0,0,0,0,0,0,-1,1224,1646,0,0
7,-622,0,0,0,0,0,0,0,0,0,-1,1231,1646,0,0
14,-622,0,0,0,0,0,0,0,0,0,-1,1238,1646,0,0
21,-622,0,0,0,0,0,0,0,0,0,-1,1245,1646,0,0
28,-622,0,0,0,0,0,0,0,0,0,-1,1252,1646,0,0
35,-622,0,0,0,0,0,0,0,0,0,-1,1259,1646,0,0
42,-622,0,0,0,0,0,0,0,0,0,-1,1266,1646,0,0
49,-622,0,0,0,0,0,0,0,0,0,-1,1273,1646,0,0
56,-622,0,0,0,0,0,0,0,0,0,-1,1280,1646,0,0
63,-622,0,0,0,0,0,0,0,0,0,-1,1287,1646,0,0
70,-622,0,0,0,0,0,0,0,0,0,-1,1294,1646,0,0
77,-622,0,0,0,0,0,0,0,0,0,-1,1301,1646,0,0
84,-622,0,0,0,0,0,0,0,0,0,-1,1308,1646,0,0
91,-622,0,0,0,0,0,0,0,0,0,-1,1315,1646,0,0
98,-622,0,0,0,0,0,0,0,0,0,-1,1322,1646,0,0
105,-622,0,0,0,0,0,0,0,0,0,-1,1329,1646,0,0
112,-622,0,0,0,0,0,0,0,0,0,-1,1336,1646,0,0
119,-622,0,0,0,0,0,0,0,0,0,-1,1343,1646,0,0
126,-622,5.73328,328.889,0,0,0,0,0,0,0,-1,1350,1646,5.73331,-328.889
133,-622,4.44604,329.487,0,0,0,0,0,0,0,-1,1357,1646,4.44604,-329.487
140,-622,3.67639,329.936,0,0,0,0,0,0,0,-1,1364,1646,3.67639,-329.936
147,-622,11.7339,332.825,0,0,0,0,0,0,0,-1,1371,1646,11.7339,-332.825
154,-622,12.0699,333.393,0,0,0,0,0,0,0,-1,1378,1646,12.07,-333.393
161,-622,10.6884,6.46448,0,0,0,0,0,0,0,-1,1385,1646,10.6883,-6.46442
168,-622,12.2402,5.18091,0,0,0,0,0,0,0,-1,1392,1646,12.2403,-5.1809
175,-622,5.64355,-1.77075,0,0,0,0,0,0,0,-1,1399,1646,5.64351,1.77077
182,-622,5.88586,-1.32251,0,0,0,0,0,0,0,-1,1406,1646,5.88587,1.32256
189,-622,5.97986,-1.18005,0,0,0,0,0,0,0,-1,1413,1646,5.97986,1.18003
196,-622,5.85022,-0.244507,0,0,0,0,0,0,0,-1,1420,1646,5.85026,0.244478
203,-622,5.25159,0.138794,0,0,0,0,0,0,0,-1,1427,1646,5.25162,-0.138822
210,-622,6.66833,0.0397949,0,0,0,0,0,0,0,-1,1434,1646,6.6684,-0.0398278
217,-622,6.12061,0.0506592,0,0,0,0,0,0,0,-1,1441,1646,6.12058,-0.0507181
224,-622,5.57275,0.0616455,0,0,0,0,0,0,0,-1,1448,1646,5.57276,-0.0616084
231,-622,5.31348,1.3949,0,0,0,0,0,0,0,-1,1455,1646,5.31342,-1.39495
238,-622,3.76477,2.90686,0,0,0,0,0,0,0,-1,1462,1646,3.7648,-2.90686
245,-622,5.13794,2.67993,0,0,0,0,0,0,0,-1,1469,1646,5.13796,-2.67992
252,-622,6.66528,2.53992,0,0,0,0,0,0,0,-1,1476,1646,6.66522,-2.53991
259,-622,8.93787,3.31458,0,0,0,0,0,0,0,-1,1483,1646,8.93791,-3.31454
266,-622,5.72644,3.11926,0,0,0,0,0,0,0,-1,1490,1646,5.72647,-3.1192
273,-622,7.28076,3.61218,0,0,0,0,0,0,0,-1,1497,1646,7.28071,-3.61212
280,-622,8.43127,4.4447,0,0,0,0,0,0,0,-1,1504,1646,8.43123,-4.44467
287,-622,8.60315,5.94617,0,0,0,0,0,0,0,-1,1511,1646,8.60319,-5.94622
294,-622,7.62756,11.5143,0,0,0,0,0,0,0,-1,1518,1646,7.62762,-11.5143
301,-622,7.36548,11.6569,0,0,0,0,0,0,0,-1,1525,1646,7.36549,-11.6569
308,-622,7.10339,11.7994,0,0,0,0,0,0,0,-1,1532,1646,7.10335,-11.7995
315,-622,8.28687,16.5842,0,0,0,0,0,0,0,-1,1539,1646,8.28689,-16.5843
322,-622,7.43689,20.5786,0,0,0,0,0,0,0,-1,1546,1646,7.43685,-20.5786
329,-622,9.76477,26.4202,0,0,0,0,0,0,0,-1,1553,1646,9.7648,-26.4202
336,-622,21.3851,107.279,0,0,0,0,0,0,0,-1,1560,1646,21.3852,-107.279
343,-622,22.0696,109.882,0,0,0,0,0,0,0,-1,1567,1646,22.0696,-109.882
350,-622,26.6602,170.982,0,0,0,0,0,0,0,-1,1574,1646,26.6602,-170.982
357,-622,26.6694,174.602,0,0,0,0,0,0,0,-1,1581,1646,26.6695,-174.602
364,-622,26.9443,184.704,0,0,0,0,0,0,0,-1,1588,1646,26.9443,-184.704
371,-622,45.7913,261.886,0,0,0,0,0,0,0,-1,1595,1646,45.7912,-261.886
378,-622,45.8202,258.564,0,0,0,0,0,0,0,-1,1602,1646,45.8202,-258.564
385,-622,45.4308,255.067,0.0593475,0.001595,0.0389279,0.07894,-0.0179975,0.466286,0.0595396,0.0266971,1609,1646,45.4308,-255.067
392,-622,45.0673,251.755,0.0555559,0.00143196,0.036933,0.0742804,-0.0172925,0.469219,0.0561787,0.0245013,1616,1646,45.0673,-251.755
399,-622,44.7709,248.264,0.0517536,0.00121327,0.0349367,0.0696013,-0.0166345,0.472297,0.052826,0.0196676,1623,1646,44.7709,-248.264
406,-622,44.1637,244.718,0.0477221,0.00151665,0.0327184,0.0646723,-0.0154335,0.477992,0.0490751,0.0214855,1630,1646,44.1637,-244.718
413,-622,43.5967,241.202,0.0437895,0.00176429,0.0303587,0.0596982,-0.0141444,0.482682,0.0452565,0.0222754,1637,1646,43.5967,-241.202
420,-622,42.9354,237.759,0.0396686,0.00229896,0.0277673,0.0544524,-0.0124848,0.489242,0.0411002,0.02109,1644,1646,42.9354,-237.759
427,-622,42.1949,234.116,0.0356824,0.00279371,0.0249897,0.049153,-0.0106768,0.494393,0.0368469,0.0171273,1651,1646,42.195,-234.116
434,-622,41.4117,230.315,0.0320629,0.00314127,0.0220921,0.0440062,-0.00880205,0.495608,0.0326692,0.0169243,1658,1646,41.4117,-230.315
441,-622,40.6229,226.552,0.0287629,0.00348097,0.0191276,0.0390492,-0.0068053,0.493406,0.0285726,0.0192592,1665,1646,40.6229,-226.552
448,-622,39.7329,222.709,0.0256802,0.00375109,0.0161561,0.0342411,-0.00480975,0.487267,0.0245879,0.0193546,1672,1646,39.7329,-222.709
455,-622,38.7277,218.802,0.0227463,0.0039049,0.0132391,0.0295744,-0.00292322,0.47617,0.0207594,0.0221128,1679,1646,38.7277,-218.802
462,-622,37.7101,214.936,0.0199282,0.00395546,0.0103989,0.0250536,-0.00116998,0.457937,0.0171058,0.0232297,1686,1646,37.7101,-214.936
469,-622,36.5693,210.937,0.0174615,0.00388553,0.00778765,0.0210043,0.000342778,0.426938,0.01389,0.0328755,1693,1646,36.5693,-210.937
476,-622,35.2787,206.79,0,0,0,0,0,0,0,-1,1700,1646,35.2787,-206.79
483,-622,20.1239,187.51,0,0,0,0,0,0,0,-1,1707,1646,20.1239,-187.509
490,-622,20.0802,71.223,0,0,0,0,0,0,0,-1,1714,1646,20.0802,-71.223
497,-622,20.1091,60.8011,0,0,0,0,0,0,0,-1,1721,1646,20.1091,-60.8012
504,-622,10.8306,19.8021,0,0,0,0,0,0,0,-1,1728,1646,10.8306,-19.8022
511,-622,5.29004,4.14587,0,0,0,0,0,0,0,-1,1735,1646,5.29008,-4.14589
518,-622,5.6001,1.55359,0,0,0,0,0,0,0,-1,1742,1646,5.60015,-1.5536
525,-622,5.83093,2.01807,0,0,0,0,0,0,0,-1,1749,1646,5.83097,-2.01802
532,-622,5.44202,0.57373,0,0,0,0,0,0,0,-1,1756,1646,5.44196,-0.573705
539,-622,9.32129,1.06116,0,0,0,0,0,0,0,-1,1763,1646,9.32131,-1.0612
546,-622,6.50977,-3.45618,0,0,0,0,0,0,0,-1,1770,1646,6.50981,3.4562
553,-622,0,0,0,0,0,0,0,0,0,-1,1777,1646,0,0
560,-622,0,0,0,0,0,0,0,0,0,-1,1784,1646,0,0
567,-622,0,0,0,0,0,0,0,0,0,-1,1791,1646,0,0
574,-622,0,0,0,0,0,0,0,0,0,-1,1798,1646,0,0
581,-622,0,0,0,0,0,0,0,0,0,-1,1805,1646,0,0
588,-622,0,0,0,0,0,0,0,0,0,-1,1812,1646,0,0
595,-622,0,0,0,0,0,0,0,0,0,-1,1819,1646,0,0
602,-622,0,0,0,0,0,0,0,0,0,-1,1826,1646,0,0
609,-622,0,0,0,0,0,0,0,0,0,-1,1833,1646,0,0
616,-622,0,0,0,0,0,0,0,0,0,-1,1840,1646,0,0
623,-622,0,0,0,0,0,0,0,0,0,-1,1847,1646,0,0
630,-622,0,0,0,0,0,0,0,0,0,-1,1854,1646,0,0
637,-622,0,0,0,0,0,0,0,0,0,-1,1861,1646,0,0
644,-622,0,0,0,0,0,0,0,0,0,-1,1868,1646,0,0
651,-622,0,0,0,0,0,0,0,0,0,-1,1875,1646,0,0
658,-622,0,0,0,0,0,0,0,0,0,-1,1882,1646,0,0
665,-622,0,0,0,0,0,0,0,0,0,-1,1889,1646,0,0
672,-622,0,0,0,0,0,0,0,0,0,-1,1896,1646,0,0
679,-622,0,0,0,0,0,0,0,0,0,-1,1903,1646,0,0
686,-622,0,0,0,0,0,0,0,0,0,-1,1910,1646,0,0
693,-622,0,0,0,0,0,0,0,0,0,-1,1917,1646,0,0
700,-622,0,0,0,0,0,0,0,0,0,-1,1924,1646,0,0
707,-622,0,0,0,0,0,0,0,0,0,-1,1931,1646,0,0
714,-622,0,0,0,0,0,0,0,0,0,-1,1938,1646,0,0
721,-622,0,0,0,0,0,0,0,0,0,-1,1945,1646,0,0
728,-622,0,0,0,0,0,0,0,0,0,-1,1952,1646,0,0
735,-622,0,0,0,0,0,0,0,0,0,-1,1959,1646,0,0
742,-622,0,0,0,0,0,0,0,0,0,-1,1966,1646,0,0
749,-622,0,0,0,0,0,0,0,0,0,-1,1973,1646,0,0
756,-622,0,0,0,0,0,0,0,0,0,-1,1980,1646,0,0
763,-622,0,0,0,0,0,0,0,0,0,-1,1987,1646,0,0
770,-622,0,0,0,0,0,0,0,0,0,-1,1994,1646,0,0
777,-622,0,0,0,0,0,0,0,0,0,-1,2001,1646,0,0
784,-622,0,0,0,0,0,0,0,0,0,-1,2008,1646,0,0
791,-622,0,0,0,0,0,0,0,0,0,-1,2015,1646,0,0
798,-622,0,0,0,0,0,0,0,0,0,-1,2022,1646,0,0
805,-622,0,0,0,0,0,0,0,0,0,-1,2029,1646,0,0
812,-622,0,0,0,0,0,0,0,0,0,-1,2036,1646,0,0
-700,-629,0,0,0,0,0,0,0,0,0,-1,524,1653,0,0
-693,-629,0,0,0,0,0,0,0,0,0,-1,531,1653,0,0
-686,-629,0,0,0,0,0,0,0,0,0,-1,538,1653,0,0
-679,-629,0,0,0,0,0,0,0,0,0,-1,545,1653,0,0
-672,-629,0,0,0,0,0,0,0,0,0,-1,552,1653,0,0
-665,-629,0,0,0,0,0,0,0,0,0,-1,559,1653,0,0
-658,-629,0,0,0,0,0,0,0,0,0,-1,566,1653,0,0
-651,-629,0,0,0,0,0,0,0,0,0,-1,573,1653,0,0
-644,-629,0,0,0,0,0,0,0,0,0,-1,580,1653,0,0
-637,-629,0,0,0,0,0,0,0,0,0,-1,587,1653,0,0
-630,-629,0,0,0,0,0,0,0,0,0,-1,594,1653,0,0
-623,-629,0,0,0,0,0,0,0,0,0,-1,601,1653,0,0
-616,-629,0,0,0,0,0,0,0,0,0,-1,608,1653,0,0
-609,-629,0,0,0,0,0,0,0,0,0,-1,615,1653,0,0
-602,-629,0,0,0,0,0,0,0,0,0,-1,622,1653,0,0
-595,-629,0,0,0,0,0,0,0,0,0,-1,629,1653,0,0
-588,-629,0,0,0,0,0,0,0,0,0,-1,636,1653,0,0
-581,-629,0,0,0,0,0,0,0,0,0,-1,643,1653,0,0
-574,-629,0,0,0,0,0,0,0,0,0,-1,650,1653,0,0
-567,-629,0,0,0,0,0,0,0,0,0,-1,657,1653,0,0
-560,-629,0,0,0,0,0,0,0,0,0,-1,664,1653,0,0
-553,-629,0,0,0,0,0,0,0,0,0,-1,671,1653,0,0
-546,-629,0,0,0,0,0,0,0,0,0,-1,678,1653,0,0
-539,-629,0,0,0,0,0,0,0,0,0,-1,685,1653,0,0
-532,-629,0,0,0,0,0,0,0,0,0,-1,692,1653,0,0
-525,-629,0,0,0,0,0,0,0,0,0,-1,699,1653,0,0
-518,-629,0,0,0,0,0,0,0,0,0,-1,706,1653,0,0
-511,-629,0,0,0,0,0,0,0,0,0,-1,713,1653,0,0
-504,-629,0,0,0,0,0,0,0,0,0,-1,720,1653,0,0
-497,-629,0,0,0,0,0,0,0,0,0,-1,727,1653,0,0
-490,-629,0,0,0,0,0,0,0,0,0,-1,734,1653,0,0
-483,-629,0,0,0,0,0,0,0,0,0,-1,741,1653,0,0
-476,-629,0,0,0,0,0,0,0,0,0,-1,748,1653,0,0
-469,-629,0,0,0,0,0,0,0,0,0,-1,755,1653,0,0
-462,-629,0,0,0,0,0,0,0,0,0,-1,762,1653,0,0
-455,-629,0,0,0,0,0,0,0,0,0,-1,769,1653,0,0
-448,-629,0,0,0,0,0,0,0,0,0,-1,776,1653,0,0
-441,-629,0,0,0,0,0,0,0,0,0,-1,783,1653,0,0
-434,-629,0,0,0,0,0,0,0,0,0,-1,790,1653,0,0
-427,-629,0,0,0,0,0,0,0,0,0,-1,797,1653,0,0
-420,-629,-3.87103,3.37634,0,0,0,0,0,0,0,-1,804,1653,-3.87101,-3.37633
-413,-629,-5.69751,1.33582,0,0,0,0,0,0,0,-1,811,1653,-5.69754,-1.3358
-406,-629,2.85406,6.01501,0,0,0,0,0,0,0,-1,818,1653,2.85405,-6.01507
-399,-629,-0.455627,10.8687,0,0,0,0,0,0,0,-1,825,1653,-0.455625,-10.8687
-392,-629,1.15369,11.1295,0,0,0,0,0,0,0,-1,832,1653,1.1537,-11.1295
-385,-629,1.81976,11.6935,0,0,0,0,0,0,0,-1,839,1653,1.81975,-11.6935
-378,-629,2.19452,14.7941,0,0,0,0,0,0,0,-1,846,1653,2.19451,-14.7941
-371,-629,3.60114,14.7299,0,0,0,0,0,0,0,-1,853,1653,3.60113,-14.7299
-364,-629,3.26898,21.0801,0,0,0,0,0,0,0,-1,860,1653,3.26895,-21.08
-357,-629,4.38782,16.3444,0,0,0,0,0,0,0,-1,867,1653,4.38783,-16.3443
-350,-629,-0.262939,58.4408,0,0,0,0,0,0,0,-1,874,1653,-0.26293,-58.4408
-343,-629,-9.90247,117.128,0,0,0,0,0,0,0,-1,881,1653,-9.9025,-117.128
-336,-629,-17.2164,204.846,0,0,0,0,0,0,0,-1,888,1653,-17.2164,-204.846
-329,-629,-23.6871,212.957,0,0,0,0,0,0,0,-1,895,1653,-23.6871,-212.957
-322,-629,-24.6533,216.798,0.0230876,0.00213732,-0.0199783,0.0351704,-0.00994547,-0.543939,0.0273712,0.0284517,902,1653,-24.6533,-216.798
-315,-629,-25.6144,220.636,0.0255782,0.00262636,-0.0224521,0.0393172,-0.0111127,-0.549142,0.030596,0.028758,909,1653,-25.6144,-220.636
-308,-629,-26.4872,224.528,0.0285758,0.00317086,-0.0250089,0.0439232,-0.0121766,-0.550418,0.0340741,0.0228793,916,1653,-26.4872,-224.528
-301,-629,-27.2874,228.263,0.0317988,0.00328905,-0.027743,0.0487349,-0.0136471,-0.548078,0.0378677,0.0338041,923,1653,-27.2874,-228.263
-294,-629,-28.0294,231.801,0.0351175,0.00305207,-0.0304941,0.0535368,-0.0153672,-0.543375,0.0417668,0.0411907,930,1653,-28.0293,-231.801
-287,-629,-28.861,235.541,0.0386548,0.00273653,-0.033182,0.0584259,-0.0170346,-0.537355,0.0456997,0.0255043,937,1653,-28.861,-235.541
-280,-629,-29.566,239.19,0.0425199,0.00223143,-0.0358612,0.0635074,-0.0187561,-0.529497,0.0497823,0.0162583,944,1653,-29.566,-239.19
-273,-629,-30.2155,242.745,0.046815,0.00151983,-0.0384228,0.0687682,-0.0204333,-0.519092,0.0539619,0.025875,951,1653,-30.2154,-242.745
-266,-629,-30.6754,246.171,0.051398,0.000588867,-0.0408281,0.0740801,-0.0220932,-0.507095,0.058167,0.0268487,958,1653,-30.6754,-246.171
-259,-629,-31.0956,249.517,0.0561699,-0.000306861,-0.0428996,0.0792909,-0.0234278,-0.494324,0.0621593,0.0227973,965,1653,-31.0956,-249.517
-252,-629,-31.493,252.856,0.0608619,-0.00151192,-0.0444308,0.0839587,-0.0246087,-0.479391,0.0657293,0.0216314,972,1653,-31.493,-252.856
-245,-629,-31.8388,256.274,0.0651773,-0.00277876,-0.0455898,0.0880582,-0.0256596,-0.465155,0.0688709,0.0346946,979,1653,-31.8388,-256.274
-238,-629,-32.2416,259.842,0,0,0,0,0,0,0,-1,986,1653,-32.2416,-259.842
-231,-629,-32.4777,262.608,0,0,0,0,0,0,0,-1,993,1653,-32.4777,-262.608
-224,-629,-32.2726,266.013,0,0,0,0,0,0,0,-1,1000,1653,-32.2726,-266.013
-217,-629,-25.8033,228.033,0,0,0,0,0,0,0,-1,1007,1653,-25.8033,-228.033
-210,-629,-21.9907,197.991,0,0,0,0,0,0,0,-1,1014,1653,-21.9907,-197.991
-203,-629,-21.242,189.528,0,0,0,0,0,0,0,-1,1021,1653,-21.242,-189.528
-196,-629,-18.1288,182.756,0,0,0,0,0,0,0,-1,1028,1653,-18.1288,-182.756
-189,-629,-8.75793,131.552,0,0,0,0,0,0,0,-1,1035,1653,-8.75788,-131.552
-182,-629,-7.33752,126.11,0,0,0,0,0,0,0,-1,1042,1653,-7.33758,-126.11
-175,-629,-0.0251465,65.663,0,0,0,0,0,0,0,-1,1049,1653,-0.025117,-65.663
-168,-629,3.94775,55.7037,0,0,0,0,0,0,0,-1,1056,1653,3.94774,-55.7038
-161,-629,3.2146,53.0543,0,0,0,0,0,0,0,-1,1063,1653,3.21462,-53.0543
-154,-629,2.30042,52.7101,0,0,0,0,0,0,0,-1,1070,1653,2.30043,-52.7101
-147,-629,1.22363,52.6086,0,0,0,0,0,0,0,-1,1077,1653,1.22368,-52.6087
-140,-629,3.68201,55.7941,0,0,0,0,0,0,0,-1,1084,1653,3.68206,-55.7941
-133,-629,1.99792,57.769,0,0,0,0,0,0,0,-1,1091,1653,1.99792,-57.769
-126,-629,4.01025,19.5328,0,0,0,0,0,0,0,-1,1098,1653,4.01022,-19.5328
-119,-629,4.94177,13.5525,0,0,0,0,0,0,0,-1,1105,1653,4.94172,-13.5525
-112,-629,5.63123,15.9187,0,0,0,0,0,0,0,-1,1112,1653,5.63118,-15.9187
-105,-629,2.15881,4.38342,0,0,0,0,0,0,0,-1,1119,1653,2.15878,-4.38347
-98,-629,0.825806,4.19385,0,0,0,0,0,0,0,-1,1126,1653,0.825779,-4.1939
-91,-629,-0.452271,3.64465,0,0,0,0,0,0,0,-1,1133,1653,-0.452278,-3.6446
-84,-629,-2.6084,0.466797,0,0,0,0,0,0,0,-1,1140,1653,-2.6084,-0.466786
-77,-629,-3.50903,2.10706,0,0,0,0,0,0,0,-1,1147,1653,-3.509,-2.10707
-70,-629,-1.20886,2.52502,0,0,0,0,0,0,0,-1,1154,1653,-1.20886,-2.525
-63,-629,-0.960693,4.30212,0,0,0,0,0,0,0,-1,1161,1653,-0.960691,-4.30215
-56,-629,-1.31934,5.64343,0,0,0,0,0,0,0,-1,1168,1653,-1.31928,-5.6434
-49,-629,-2.15662,2.57458,0,0,0,0,0,0,0,-1,1175,1653,-2.15656,-2.57459
-42,-629,-2.46326,3.91467,0,0,0,0,0,0,0,-1,1182,1653,-2.4633,-3.91466
-35,-629,-2.67261,5.24292,0,0,0,0,0,0,0,-1,1189,1653,-2.67257,-5.24298
-28,-629,-0.402954,-0.866577,0,0,0,0,0,0,0,-1,1196,1653,-0.402943,0.866612
-21,-629,26.6219,233.525,0,0,0,0,0,0,0,-1,1203,1653,26.6219,-233.525
-14,-629,25.7856,321.742,0,0,0,0,0,0,0,-1,1210,1653,25.7857,-321.742
-7,-629,25.2657,321.947,0,0,0,0,0,0,0,-1,1217,1653,25.2658,-321.947
0,-629,24.7458,322.152,0,0,0,0,0,0,0,-1,1224,1653,24.7459,-322.152
7,-629,26.4351,323.144,0,0,0,0,0,0,0,-1,1231,1653,26.435,-323.144
14,-629,27.2253,323.324,0,0,0,0,0,0,0,-1,1238,1653,27.2254,-323.324
21,-629,18.298,324.944,0,0,0,0,0,0,0,-1,1245,1653,18.2979,-324.944
28,-629,17.5162,325.432,0,0,0,0,0,0,0,-1,1252,1653,17.5162,-325.432
35,-629,16.2672,325.885,0,0,0,0,0,0,0,-1,1259,1653,16.2673,-325.885
42,-629,15.3052,326.005,0,0,0,0,0,0,0,-1,1266,1653,15.3051,-326.005
49,-629,13.8448,326.188,0,0,0,0,0,0,0,-1,1273,1653,13.8449,-326.188
56,-629,9.39429,324.53,0,0,0,0,0,0,0,-1,1280,1653,9.39427,-324.53
63,-629,8.18408,325.208,0,0,0,0,0,0,0,-1,1287,1653,8.18402,-325.208
70,-629,7.51685,325.548,0,0,0,0,0,0,0,-1,1294,1653,7.51682,-325.548
77,-629,6.13831,325.724,0,0,0,0,0,0,0,-1,1301,1653,6.13829,-325.724
84,-629,4.85278,325.763,0,0,0,0,0,0,0,-1,1308,1653,4.85275,-325.763
91,-629,3.61816,325.737,0,0,0,0,0,0,0,-1,1315,1653,3.6182,-325.737
98,-629,2.94141,326.832,0,0,0,0,0,0,0,-1,1322,1653,2.94143,-326.832
105,-629,1.9408,328.089,0,0,0,0,0,0,0,-1,1329,1653,1.94077,-328.088
112,-629,8.00537,329.86,0,0,0,0,0,0,0,-1,1336,1653,8.00543,-329.86
119,-629,7.43604,328.848,0,0,0,0,0,0,0,-1,1343,1653,7.43608,-328.848
126,-629,5.72607,328.891,0,0,0,0,0,0,0,-1,1350,1653,5.72613,-328.892
133,-629,4.95593,328.985,0,0,0,0,0,0,0,-1,1357,1653,4.95588,-328.985
140,-629,3.01208,329.316,0,0,0,0,0,0,0,-1,1364,1653,3.01204,-329.316
147,-629,3.21912,328.44,0,0,0,0,0,0,0,-1,1371,1653,3.21908,-328.44
154,-629,10.6215,333.891,0,0,0,0,0,0,0,-1,1378,1653,10.6215,-333.891
161,-629,10.5461,6.83752,0,0,0,0,0,0,0,-1,1385,1653,10.5461,-6.83758
168,-629,12.0059,5.56348,0,0,0,0,0,0,0,-1,1392,1653,12.0059,-5.56352
175,-629,5.84485,-1.78845,0,0,0,0,0,0,0,-1,1399,1653,5.84479,1.7884
182,-629,5.99036,-1.27783,0,0,0,0,0,0,0,-1,1406,1653,5.99041,1.27778
189,-629,5.97668,-0.748535,0,0,0,0,0,0,0,-1,1413,1653,5.97671,0.748544
196,-629,4.52869,9.24695,0,0,0,0,0,0,0,-1,1420,1653,4.52869,-9.2469
203,-629,3.75085,6.88037,0,0,0,0,0,0,0,-1,1427,1653,3.75087,-6.88032
210,-629,3.5907,6.52637,0,0,0,0,0,0,0,-1,1434,1653,3.59067,-6.52642
217,-629,2.4585,4.84448,0,0,0,0,0,0,0,-1,1441,1653,2.45855,-4.84448
224,-629,1.31982,3.68481,0,0,0,0,0,0,0,-1,1448,1653,1.31986,-3.68487
231,-629,3.63025,1.73499,0,0,0,0,0,0,0,-1,1455,1653,3.6303,-1.735
238,-629,4.26428,2.11255,0,0,0,0,0,0,0,-1,1462,1653,4.26429,-2.11253
245,-629,5.61816,1.95361,0,0,0,0,0,0,0,-1,1469,1653,5.61815,-1.95359
252,-629,7.27136,2.18982,0,0,0,0,0,0,0,-1,1476,1653,7.27131,-2.18985
259,-629,8.67334,2.18628,0,0,0,0,0,0,0,-1,1483,1653,8.6733,-2.18633
266,-629,6.86475,3.72058,0,0,0,0,0,0,0,-1,1490,1653,6.86479,-3.72063
273,-629,7.9021,3.8717,0,0,0,0,0,0,0,-1,1497,1653,7.90205,-3.87171
280,-629,9.70837,4.39087,0,0,0,0,0,0,0,-1,1504,1653,9.7084,-4.39082
287,-629,9.82947,7.19348,0,0,0,0,0,0,0,-1,1511,1653,9.8295,-7.19347
294,-629,6.56555,11.6359,0,0,0,0,0,0,0,-1,1518,1653,6.5656,-11.6358
301,-629,13.903,44.4862,0,0,0,0,0,0,0,-1,1525,1653,13.903,-44.4862
308,-629,6.08264,12.1423,0,0,0,0,0,0,0,-1,1532,1653,6.08263,-12.1423
315,-629,6.82043,18.2764,0,0,0,0,0,0,0,-1,1539,1653,6.82049,-18.2764
322,-629,20.8529,106.778,0,0,0,0,0,0,0,-1,1546,1653,20.8529,-106.778
329,-629,24.0797,173.373,0,0,0,0,0,0,0,-1,1553,1653,24.0797,-173.373
336,-629,26.7036,213.631,0,0,0,0,0,0,0,-1,1560,1653,26.7036,-213.631
343,-629,26.4363,210.164,0,0,0,0,0,0,0,-1,1567,1653,26.4363,-210.164
350,-629,28.7261,235.718,0,0,0,0,0,0,0,-1,1574,1653,28.7261,-235.718
357,-629,43.6652,269.084,0,0,0,0,0,0,0,-1,1581,1653,43.6651,-269.084
364,-629,42.6659,265.76,0,0,0,0,0,0,0,-1,1588,1653,42.6659,-265.76
371,-629,42.5219,262.574,0.0599553,0.00219917,0.0383471,0.0790818,-0.0169274,0.462667,0.0591763,0.0495281,1595,1653,42.5218,-262.574
378,-629,42.3712,259.358,0.0567398,0.00196171,0.0365144,0.0749957,-0.0162942,0.463619,0.0562212,0.0202186,1602,1653,42.3713,-259.358
385,-629,41.9395,256.055,0.0529832,0.00204269,0.0347703,0.070614,-0.0155882,0.469285,0.0530412,0.0194648,1609,1653,41.9394,-256.055
392,-629,41.4515,252.732,0.0492691,0.00200197,0.0326874,0.0659717,-0.0147007,0.472394,0.0496128,0.0183384,1616,1653,41.4515,-252.732
399,-629,40.9888,249.245,0.0455575,0.00199966,0.0305523,0.0612988,-0.0137417,0.475753,0.0461337,0.0175626,1623,1653,40.9887,-249.245
406,-629,40.4788,245.76,0.0417329,0.00231669,0.0282898,0.0565026,-0.0124531,0.481161,0.042433,0.0198212,1630,1653,40.4787,-245.76
413,-629,39.827,242.294,0.037961,0.00261587,0.0259083,0.0516502,-0.0110733,0.486086,0.0386569,0.0285458,1637,1653,39.827,-242.294
420,-629,39.0994,238.865,0.0341197,0.00316377,0.0233299,0.0466391,-0.00935562,0.492516,0.034635,0.0261641,1644,1653,39.0994,-238.865
427,-629,38.3888,235.247,0.0304354,0.00368941,0.0205597,0.0415887,-0.00746382,0.497053,0.0305195,0.0191993,1651,1653,38.3888,-235.247
434,-629,37.5455,231.511,0.0270264,0.0040892,0.0176666,0.0366205,-0.00550495,0.497504,0.0264404,0.0169931,1658,1653,37.5455,-231.511
441,-629,36.6865,227.762,0.0239236,0.00442676,0.0146503,0.0317725,-0.00342209,0.491833,0.0224096,0.0215077,1665,1653,36.6866,-227.762
448,-629,35.7726,223.877,0.0210789,0.00480641,0.0116269,0.0271337,-0.00124833,0.48011,0.0185193,0.0208244,1672,1653,35.7726,-223.877
455,-629,34.728,219.988,0.01831,0.00504454,0.00870904,0.0226245,0.000730111,0.459958,0.0148456,0.0222847,1679,1653,34.7281,-219.988
462,-629,33.6611,216.111,0,0,0,0,0,0,0,-1,1686,1653,33.6611,-216.111
469,-629,32.4543,212.145,0,0,0,0,0,0,0,-1,1693,1653,32.4544,-212.145
476,-629,18.8602,112.477,0,0,0,0,0,0,0,-1,1700,1653,18.8602,-112.477
483,-629,18.7847,67.8679,0,0,0,0,0,0,0,-1,1707,1653,18.7847,-67.8679
490,-629,19.1938,61.9336,0,0,0,0,0,0,0,-1,1714,1653,19.1938,-61.9336
497,-629,10.3662,19.8605,0,0,0,0,0,0,0,-1,1721,1653,10.3662,-19.8605
504,-629,7.89453,15.5316,0,0,0,0,0,0,0,-1,1728,1653,7.89447,-15.5316
511,-629,6.29138,3.40295,0,0,0,0,0,0,0,-1,1735,1653,6.29137,-3.403
518,-629,5.84387,1.41858,0,0,0,0,0,0,0,-1,1742,1653,5.84391,-1.4186
525,-629,6.4729,1.02319,0,0,0,0,0,0,0,-1,1749,1653,6.47284,-1.02316
532,-629,6.86511,0.903687,0,0,0,0,0,0,0,-1,1756,1653,6.86514,-0.903691
539,-629,6.60803,0.746704,0,0,0,0,0,0,0,-1,1763,1653,6.60809,-0.746691
546,-629,0,0,0,0,0,0,0,0,0,-1,1770,1653,0,0
553,-629,0,0,0,0,0,0,0,0,0,-1,1777,1653,0,0
560,-629,0,0,0,0,0,0,0,0,0,-1,1784,1653,0,0
567,-629,0,0,0,0,0,0,0,0,0,-1,1791,1653,0,0
574,-629,0,0,0,0,0,0,0,0,0,-1,1798,1653,0,0
581,-629,0,0,0,0,0,0,0,0,0,-1,1805,1653,0,0
588,-629,0,0,0,0,0,0,0,0,0,-1,1812,1653,0,0
595,-629,0,0,0,0,0,0,0,0,0,-1,1819,1653,0,0
602,-629,0,0,0,0,0,0,0,0,0,-1,1826,1653,0,0
609,-629,0,0,0,0,0,0,0,0,0,-1,1833,1653,0,0
616,-629,0,0,0,0,0,0,0,0,0,-1,1840,1653,0,0
623,-629,0,0,0,0,0,0,0,0,0,-1,1847,1653,0,0
630,-629,0,0,0,0,0,0,0,0,0,-1,1854,1653,0,0
637,-629,0,0,0,0,0,0,0,0,0,-1,1861,1653,0,0
644,-629,0,0,0,0,0,0,0,0,0,-1,1868,1653,0,0
651,-629,0,0,0,0,0,0,0,0,0,-1,1875,1653,0,0
658,-629,0,0,0,0,0,0,0,0,0,-1,1882,1653,0,0
665,-629,0,0,0,0,0,0,0,0,0,-1,1889,1653,0,0
672,-629,0,0,0,0,0,0,0,0,0,-1,1896,1653,0,0
679,-629,0,0,0,0,0,0,0,0,0,-1,1903,1653,0,0
686,-629,0,0,0,0,0,0,0,0,0,-1,1910,1653,0,0
693,-629,0,0,0,0,0,0,0,0,0,-1,1917,1653,0,0
700,-629,0,0,0,0,0,0,0,0,0,-1,1924,1653,0,0
707,-629,0,0,0,0,0,0,0,0,0,-1,1931,1653,0,0
714,-629,0,0,0,0,0,0,0,0,0,-1,1938,1653,0,0
721,-629,0,0,0,0,0,0,0,0,0,-1,1945,1653,0,0
728,-629,0,0,0,0,0,0,0,0,0,-1,1952,1653,0,0
735,-629,0,0,0,0,0,0,0,0,0,-1,1959,1653,0,0
742,-629,0,0,0,0,0,0,0,0,0,-1,1966,1653,0,0
749,-629,0,0,0,0,0,0,0,0,0,-1,1973,1653,0,0
756,-629,0,0,0,0,0,0,0,0,0,-1,1980,1653,0,0
763,-629,0,0,0,0,0,0,0,0,0,-1,1987,1653,0,0
770,-629,0,0,0,0,0,0,0,0,0,-1,1994,1653,0,0
777,-629,0,0,0,0,0,0,0,0,0,-1,2001,1653,0,0
784,-629,0,0,0,0,0,0,0,0,0,-1,2008,1653,0,0
791,-629,0,0,0,0,0,0,0,0,0,-1,2015,1653,0,0
798,-629,0,0,0,0,0,0,0,0,0,-1,2022,1653,0,0
805,-629,0,0,0,0,0,0,0,0,0,-1,2029,1653,0,0
812,-629,0,0,0,0,0,0,0,0,0,-1,2036,1653,0,0
-700,-636,0,0,0,0,0,0,0,0,0,-1,524,1660,0,0
-693,-636,0,0,0,0,0,0,0,0,0,-1,531,1660,0,0
-686,-636,0,0,0,0,0,0,0,0,0,-1,538,1660,0,0
-679,-636,0,0,0,0,0,0,0,0,0,-1,545,1660,0,0
-672,-636,0,0,0,0,0,0,0,0,0,-1,552,1660,0,0
-665,-636,0,0,0,0,0,0,0,0,0,-1,559,1660,0,0
-658,-636,0,0,0,0,0,0,0,0,0,-1,566,1660,0,0
-651,-636,0,0,0,0,0,0,0,0,0,-1,573,1660,0,0
-644,-636,0,0,0,0,0,0,0,0,0,-1,580,1660,0,0
-637,-636,0,0,0,0,0,0,0,0,0,-1,587,1660,0,0
-630,-636,0,0,0,0,0,0,0,0,0,-1,594,1660,0,0
-623,-636,0,0,0,0,0,0,0,0,0,-1,601,1660,0,0
-616,-636,0,0,0,0,0,0,0,0,0,-1,608,1660,0,0
-609,-636,0,0,0,0,0,0,0,0,0,-1,615,1660,0,0
-602,-636,0,0,0,0,0,0,0,0,0,-1,622,1660,0,0
-595,-636,0,0,0,0,0,0,0,0,0,-1,629,1660,0,0
-588,-636,0,0,0,0,0,0,0,0,0,-1,636,1660,0,0
-581,-636,0,0,0,0,0,0,0,0,0,-1,643,1660,0,0
-574,-636,0,0,0,0,0,0,0,0,0,-1,650,1660,0,0
-567,-636,0,0,0,0,0,0,0,0,0,-1,657,1660,0,0
-560,-636,0,0,0,0,0,0,0,0,0,-1,664,1660,0,0
-553,-636,0,0,0,0,0,0,0,0,0,-1,671,1660,0,0
-546,-636,0,0,0,0,0,0,0,0,0,-1,678,1660,0,0
-539,-636,0,0,0,0,0,0,0,0,0,-1,685,1660,0,0
-532,-636,0,0,0,0,0,0,0,0,0,-1,692,1660,0,0
-525,-636,0,0,0,0,0,0,0,0,0,-1,699,1660,0,0
-518,-636,0,0,0,0,0,0,0,0,0,-1,706,1660,0,0
-511,-636,0,0,0,0,0,0,0,0,0,-1,713,1660,0,0
-504,-636,0,0,0,0,0,0,0,0,0,-1,720,1660,0,0
-497,-636,0,0,0,0,0,0,0,0,0,-1,727,1660,0,0
-490,-636,0,0,0,0,0,0,0,0,0,-1,734,1660,0,0
-483,-636,0,0,0,0,0,0,0,0,0,-1,741,1660,0,0
-476,-636,0,0,0,0,0,0,0,0,0,-1,748,1660,0,0
-469,-636,0,0,0,0,0,0,0,0,0,-1,755,1660,0,0
-462,-636,0,0,0,0,0,0,0,0,0,-1,762,1660,0,0
-455,-636,0,0,0,0,0,0,0,0,0,-1,769,1660,0,0
-448,-636,0,0,0,0,0,0,0,0,0,-1,776,1660,0,0
-441,-636,0,0,0,0,0,0,0,0,0,-1,783,1660,0,0
-434,-636,0,0,0,0,0,0,0,0,0,-1,790,1660,0,0
-427,-636,0,0,0,0,0,0,0,0,0,-1,797,1660,0,0
-420,-636,0,0,0,0,0,0,0,0,0,-1,804,1660,0,0
-413,-636,0,0,0,0,0,0,0,0,0,-1,811,1660,0,0
-406,-636,-0.591125,10.6943,0,0,0,0,0,0,0,-1,818,1660,-0.59115,-10.6943
-399,-636,0.0766602,11.2408,0,0,0,0,0,0,0,-1,825,1660,0.076685,-11.2409
-392,-636,0.75946,11.9233,0,0,0,0,0,0,0,-1,832,1660,0.759481,-11.9233
-385,-636,1.68878,12.517,0,0,0,0,0,0,0,-1,839,1660,1.6888,-12.5169
-378,-636,2.22107,13.0013,0,0,0,0,0,0,0,-1,846,1660,2.22107,-13.0014
-371,-636,2.52185,11.9684,0,0,0,0,0,0,0,-1,853,1660,2.52184,-11.9684
-364,-636,4.51947,14.8503,0,0,0,0,0,0,0,-1,860,1660,4.51949,-14.8504
-357,-636,4.55682,15.8809,0,0,0,0,0,0,0,-1,867,1660,4.55681,-15.8808
-350,-636,2.57788,36.7095,0,0,0,0,0,0,0,-1,874,1660,2.57785,-36.7094
-343,-636,-5.8728,103.424,0,0,0,0,0,0,0,-1,881,1660,-5.87281,-103.424
-336,-636,-8.47229,124.221,0,0,0,0,0,0,0,-1,888,1660,-8.4723,-124.221
-329,-636,-14.2931,209.027,0,0,0,0,0,0,0,-1,895,1660,-14.2931,-209.027
-322,-636,-20.6364,217.706,0,0,0,0,0,0,0,-1,902,1660,-20.6364,-217.706
-315,-636,-21.6096,221.872,0,0,0,0,0,0,0,-1,909,1660,-21.6096,-221.872
-308,-636,-22.6025,225.721,0,0,0,0,0,0,0,-1,916,1660,-22.6026,-225.721
-301,-636,-23.5955,229.571,0,0,0,0,0,0,0,-1,923,1660,-23.5955,-229.571
-294,-636,-23.5845,231.964,0,0,0,0,0,0,0,-1,930,1660,-23.5845,-231.965
-287,-636,-24.8577,236.356,0,0,0,0,0,0,0,-1,937,1660,-24.8577,-236.356
-280,-636,-26.131,240.747,0,0,0,0,0,0,0,-1,944,1660,-26.131,-240.747
-273,-636,-26.4134,243.892,0.0405886,0.00161619,-0.0327148,0.0591809,-0.0169761,-0.516795,0.046165,0.0202119,951,1660,-26.4134,-243.892
-266,-636,-26.8882,247.305,0.04495,0.000589082,-0.0351864,0.0643635,-0.0188244,-0.504172,0.0503703,0.0235597,958,1660,-26.8882,-247.305
-259,-636,-27.334,250.62,0.0494514,-0.000388654,-0.0373331,0.0694175,-0.0203548,-0.491107,0.054349,0.031004,965,1660,-27.3341,-250.619
-252,-636,-27.802,253.908,0.0538647,-0.00156853,-0.0390011,0.0739947,-0.0216985,-0.476475,0.0579334,0.0269298,972,1660,-27.802,-253.908
-245,-636,-28.1813,257.12,0.0580236,-0.00282598,-0.040306,0.0780987,-0.0229011,-0.462101,0.0611461,0.0229874,979,1660,-28.1813,-257.12
-238,-636,-28.5732,260.312,0.062524,-0.0041736,-0.041667,0.0825445,-0.0241941,-0.447917,0.0646221,0.0202058,986,1660,-28.5733,-260.312
-231,-636,-28.8773,263.522,0.066802,-0.0059084,-0.042506,0.0863795,-0.0254859,-0.431618,0.0677,0.0245978,993,1660,-28.8773,-263.522
-224,-636,-28.8263,266.763,0.0706983,-0.0068354,-0.0426885,0.0895958,-0.0257329,-0.416753,0.0699052,0.0306601,1000,1660,-28.8263,-266.763
-217,-636,-28.6575,269.929,0,0,0,0,0,0,0,-1,1007,1660,-28.6575,-269.929
-210,-636,-29.34,272.714,0,0,0,0,0,0,0,-1,1014,1660,-29.34,-272.714
-203,-636,-24.7884,239.89,0,0,0,0,0,0,0,-1,1021,1660,-24.7884,-239.89
-196,-636,-21.7733,219.773,0,0,0,0,0,0,0,-1,1028,1660,-21.7733,-219.773
-189,-636,-17.9448,192.633,0,0,0,0,0,0,0,-1,1035,1660,-17.9448,-192.633
-182,-636,-7.71545,133.33,0,0,0,0,0,0,0,-1,1042,1660,-7.71542,-133.33
-175,-636,-6.10059,127.683,0,0,0,0,0,0,0,-1,1049,1660,-6.10056,-127.683
-168,-636,-1.64722,104.298,0,0,0,0,0,0,0,-1,1056,1660,-1.64726,-104.298
-161,-636,4.54553,56.2565,0,0,0,0,0,0,0,-1,1063,1660,4.5455,-56.2564
-154,-636,2.33289,62.5505,0,0,0,0,0,0,0,-1,1070,1660,2.33283,-62.5505
-147,-636,4.22656,55.8413,0,0,0,0,0,0,0,-1,1077,1660,4.22662,-55.8413
-140,-636,3.20886,57.1307,0,0,0,0,0,0,0,-1,1084,1660,3.20882,-57.1307
-133,-636,2.82764,57.9807,0,0,0,0,0,0,0,-1,1091,1660,2.82766,-57.9807
-126,-636,2.44653,58.8307,0,0,0,0,0,0,0,-1,1098,1660,2.44649,-58.8307
-119,-636,1.8667,13.8916,0,0,0,0,0,0,0,-1,1105,1660,1.86668,-13.8916
-112,-636,-1.24963,9.7998,0,0,0,0,0,0,0,-1,1112,1660,-1.24968,-9.79978
-105,-636,3.51624,4.72791,0,0,0,0,0,0,0,-1,1119,1660,3.51618,-4.7279
-98,-636,1.54504,5.11914,0,0,0,0,0,0,0,-1,1126,1660,1.54503,-5.11912
-91,-636,-1.87964,-2.25012,0,0,0,0,0,0,0,-1,1133,1660,-1.87966,2.25016
-84,-636,-2.84143,0.133667,0,0,0,0,0,0,0,-1,1140,1660,-2.84144,-0.133701
-77,-636,-3.57349,2.45935,0,0,0,0,0,0,0,-1,1147,1660,-3.57345,-2.45939
-70,-636,-4.23682,4.82312,0,0,0,0,0,0,0,-1,1154,1660,-4.23681,-4.82307
-63,-636,-2.21033,6.97168,0,0,0,0,0,0,0,-1,1161,1660,-2.21034,-6.97165
-56,-636,-2.51917,8.80359,0,0,0,0,0,0,0,-1,1168,1660,-2.51916,-8.80361
-49,-636,-3.13,10.4113,0,0,0,0,0,0,0,-1,1175,1660,-3.12996,-10.4112
-42,-636,-2.27771,4.90173,0,0,0,0,0,0,0,-1,1182,1660,-2.27775,-4.90173
-35,-636,-2.27698,5.89685,0,0,0,0,0,0,0,-1,1189,1660,-2.27695,-5.89686
-28,-636,-1.70654,4.83936,0,0,0,0,0,0,0,-1,1196,1660,-1.70656,-4.8393
-21,-636,12.8972,207.317,0,0,0,0,0,0,0,-1,1203,1660,12.8972,-207.317
-14,-636,25.8885,323.272,0,0,0,0,0,0,0,-1,1210,1660,25.8886,-323.272
-7,-636,25.3795,323.509,0,0,0,0,0,0,0,-1,1217,1660,25.3795,-323.509
0,-636,24.8314,323.928,0,0,0,0,0,0,0,-1,1224,1660,24.8314,-323.928
7,-636,25.7876,324.365,0,0,0,0,0,0,0,-1,1231,1660,25.7876,-324.365
14,-636,27.0117,324.53,0,0,0,0,0,0,0,-1,1238,1660,27.0117,-324.53
21,-636,18.8715,325.914,0,0,0,0,0,0,0,-1,1245,1660,18.8715,-325.914
28,-636,17.7657,326.243,0,0,0,0,0,0,0,-1,1252,1660,17.7657,-326.243
35,-636,16.6373,326.542,0,0,0,0,0,0,0,-1,1259,1660,16.6374,-326.542
42,-636,15.4961,326.818,0,0,0,0,0,0,0,-1,1266,1660,15.4961,-326.818
49,-636,14.3064,327.122,0,0,0,0,0,0,0,-1,1273,1660,14.3064,-327.122
56,-636,10.7836,325.12,0,0,0,0,0,0,0,-1,1280,1660,10.7836,-325.12
63,-636,9.61768,325.996,0,0,0,0,0,0,0,-1,1287,1660,9.61762,-325.996
70,-636,8.54456,326.375,0,0,0,0,0,0,0,-1,1294,1660,8.54462,-326.375
77,-636,7.45972,326.688,0,0,0,0,0,0,0,-1,1301,1660,7.45976,-326.688
84,-636,6.23132,326.901,0,0,0,0,0,0,0,-1,1308,1660,6.23127,-326.901
91,-636,5.41394,327.377,0,0,0,0,0,0,0,-1,1315,1660,5.41399,-327.377
98,-636,4.16553,327.808,0,0,0,0,0,0,0,-1,1322,1660,4.16547,-327.808
105,-636,3.2915,328.779,0,0,0,0,0,0,0,-1,1329,1660,3.29154,-328.779
112,-636,7.72949,330.071,0,0,0,0,0,0,0,-1,1336,1660,7.7295,-330.071
119,-636,7.33167,329.445,0,0,0,0,0,0,0,-1,1343,1660,7.33172,-329.445
126,-636,5.4176,329.066,0,0,0,0,0,0,0,-1,1350,1660,5.41761,-329.066
133,-636,4.32458,329.096,0,0,0,0,0,0,0,-1,1357,1660,4.32455,-329.096
140,-636,2.30359,328.723,0,0,0,0,0,0,0,-1,1364,1660,2.30363,-328.723
147,-636,2.80188,328.179,0,0,0,0,0,0,0,-1,1371,1660,2.80184,-328.179
154,-636,3.34351,327.669,0,0,0,0,0,0,0,-1,1378,1660,3.34356,-327.669
161,-636,10.2961,7.13025,0,0,0,0,0,0,0,-1,1385,1660,10.2961,-7.13021
168,-636,11.7659,5.83899,0,0,0,0,0,0,0,-1,1392,1660,11.7658,-5.83899
175,-636,5.94592,-1.72888,0,0,0,0,0,0,0,-1,1399,1660,5.94598,1.72886
182,-636,5.93994,-1.11938,0,0,0,0,0,0,0,-1,1406,1660,5.93998,1.11936
189,-636,5.32544,11.9595,0,0,0,0,0,0,0,-1,1413,1660,5.32542,-11.9595
196,-636,5.3623,9.38025,0,0,0,0,0,0,0,-1,1420,1660,5.36225,-9.38027
203,-636,5.18542,9.02429,0,0,0,0,0,0,0,-1,1427,1660,5.18547,-9.0243
210,-636,4.09167,7.17041,0,0,0,0,0,0,0,-1,1434,1660,4.09173,-7.17041
217,-636,2.94897,5.28992,0,0,0,0,0,0,0,-1,1441,1660,2.94899,-5.28991
224,-636,1.49194,3.63916,0,0,0,0,0,0,0,-1,1448,1660,1.49197,-3.63918
231,-636,0.17749,2.24854,0,0,0,0,0,0,0,-1,1455,1660,0.177501,-2.24855
238,-636,-0.764648,1.00598,0,0,0,0,0,0,0,-1,1462,1660,-0.764704,-1.00595
245,-636,6.21204,1.18005,0,0,0,0,0,0,0,-1,1469,1660,6.21206,-1.18001
252,-636,7.70251,0.865723,0,0,0,0,0,0,0,-1,1476,1660,7.7025,-0.865692
259,-636,9.03601,0.787231,0,0,0,0,0,0,0,-1,1483,1660,9.03598,-0.787243
266,-636,10.1071,3.24109,0,0,0,0,0,0,0,-1,1490,1660,10.1071,-3.24103
273,-636,8.48535,5.02466,0,0,0,0,0,0,0,-1,1497,1660,8.48533,-5.02472
280,-636,11.908,32.0698,0,0,0,0,0,0,0,-1,1504,1660,11.9079,-32.0698
287,-636,12.1218,36.4158,0,0,0,0,0,0,0,-1,1511,1660,12.1218,-36.4158
294,-636,13.3706,44.9711,0,0,0,0,0,0,0,-1,1518,1660,13.3706,-44.9711
301,-636,19.6848,107.288,0,0,0,0,0,0,0,-1,1525,1660,19.6848,-107.288
308,-636,20.512,112.991,0,0,0,0,0,0,0,-1,1532,1660,20.512,-112.991
315,-636,19.869,115.303,0,0,0,0,0,0,0,-1,1539,1660,19.869,-115.303
322,-636,22.5635,175.394,0,0,0,0,0,0,0,-1,1546,1660,22.5634,-175.394
329,-636,24.3379,216.24,0,0,0,0,0,0,0,-1,1553,1660,24.3379,-216.24
336,-636,24.4642,224.183,0,0,0,0,0,0,0,-1,1560,1660,24.4642,-224.183
343,-636,32.3832,272.048,0,0,0,0,0,0,0,-1,1567,1660,32.3832,-272.048
350,-636,40.5563,272.729,0,0,0,0,0,0,0,-1,1574,1660,40.5563,-272.729
357,-636,40.0092,269.66,0.0605007,0.00300092,0.0375654,0.0790553,-0.0155537,0.458778,0.0585805,0.0471136,1581,1660,40.0092,-269.66
364,-636,39.4451,266.447,0.0567852,0.00287507,0.03606,0.0748512,-0.015191,0.464447,0.0556598,0.0187009,1588,1660,39.445,-266.447
371,-636,39.2426,263.406,0.0535291,0.00237678,0.0342967,0.0707362,-0.0148303,0.465016,0.0527997,0.0147563,1595,1660,39.2425,-263.406
378,-636,38.9227,260.256,0.0502797,0.00234579,0.0323449,0.0665695,-0.0139441,0.466547,0.0496843,0.0139214,1602,1660,38.9227,-260.256
385,-636,38.4468,256.963,0.0466281,0.00255146,0.0304831,0.062205,-0.0130255,0.472411,0.046425,0.0226592,1609,1660,38.4468,-256.963
392,-636,37.9454,253.633,0.04298,0.00263036,0.0283477,0.0575991,-0.0119887,0.476133,0.042957,0.0237092,1616,1660,37.9454,-253.633
399,-636,37.3676,250.235,0.0393504,0.00280281,0.0261175,0.0529522,-0.0107991,0.480144,0.0393977,0.0181694,1623,1660,37.3675,-250.235
406,-636,36.8489,246.814,0.0356725,0.00316755,0.023824,0.0482597,-0.00941965,0.486062,0.0357293,0.021517,1630,1660,36.8489,-246.814
413,-636,36.1753,243.348,0.0319939,0.00354392,0.021414,0.0434771,-0.00793923,0.492222,0.0319615,0.0274982,1637,1660,36.1754,-243.348
420,-636,35.3398,239.871,0.0283344,0.00409277,0.0188157,0.0385954,-0.00616821,0.499259,0.0280136,0.027387,1644,1660,35.3399,-239.871
427,-636,34.5681,236.293,0.0249009,0.00465124,0.0160053,0.033715,-0.00416281,0.503377,0.023985,0.0192758,1651,1660,34.5681,-236.293
434,-636,33.7191,232.568,0.0216343,0.00513954,0.0130592,0.0288324,-0.00205852,0.503754,0.0199432,0.0183006,1658,1660,33.7191,-232.568
441,-636,32.8695,228.808,0.0185998,0.00548372,0.00990736,0.023923,0.000160527,0.493038,0.0158954,0.0179711,1665,1660,32.8694,-228.808
448,-636,31.9089,224.858,0.0158597,0.00606514,0.00670225,0.0192632,0.0026616,0.469885,0.0120533,0.0349196,1672,1660,31.909,-224.858
455,-636,30.8394,221.21,0,0,0,0,0,0,0,-1,1679,1660,30.8394,-221.21
462,-636,19.5168,211.472,0,0,0,0,0,0,0,-1,1686,1660,19.5168,-211.472
469,-636,16.0038,141.557,0,0,0,0,0,0,0,-1,1693,1660,16.0038,-141.557
476,-636,17.6901,99.8433,0,0,0,0,0,0,0,-1,1700,1660,17.69,-99.8432
483,-636,11.3833,24.3958,0,0,0,0,0,0,0,-1,1707,1660,11.3833,-24.3957
490,-636,10.8951,23.9569,0,0,0,0,0,0,0,-1,1714,1660,10.8951,-23.9569
497,-636,9.55579,18.0111,0,0,0,0,0,0,0,-1,1721,1660,9.55574,-18.0111
504,-636,6.26428,19.4268,0,0,0,0,0,0,0,-1,1728,1660,6.26433,-19.4268
511,-636,5.65466,9.23218,0,0,0,0,0,0,0,-1,1735,1660,5.65461,-9.23216
518,-636,6.72791,1.07605,0,0,0,0,0,0,0,-1,1742,1660,6.7279,-1.0761
525,-636,7.04309,0.93335,0,0,0,0,0,0,0,-1,1749,1660,7.04308,-0.933298
532,-636,0,0,0,0,0,0,0,0,0,-1,1756,1660,0,0
539,-636,0,0,0,0,0,0,0,0,0,-1,1763,1660,0,0
546,-636,0,0,0,0,0,0,0,0,0,-1,1770,1660,0,0
553,-636,0,0,0,0,0,0,0,0,0,-1,1777,1660,0,0
560,-636,0,0,0,0,0,0,0,0,0,-1,1784,1660,0,0
567,-636,0,0,0,0,0,0,0,0,0,-1,1791,1660,0,0
574,-636,0,0,0,0,0,0,0,0,0,-1,1798,1660,0,0
581,-636,0,0,0,0,0,0,0,0,0,-1,1805,1660,0,0
588,-636,0,0,0,0,0,0,0,0,0,-1,1812,1660,0,0
595,-636,0,0,0,0,0,0,0,0,0,-1,1819,1660,0,0
602,-636,0,0,0,0,0,0,0,0,0,-1,1826,1660,0,0
609,-636,0,0,0,0,0,0,0,0,0,-1,1833,1660,0,0
616,-636,0,0,0,0,0,0,0,0,0,-1,1840,1660,0,0
623,-636,0,0,0,0,0,0,0,0,0,-1,1847,1660,0,0
630,-636,0,0,0,0,0,0,0,0,0,-1,1854,1660,0,0
637,-636,0,0,0,0,0,0,0,0,0,-1,1861,1660,0,0
644,-636,0,0,0,0,0,0,0,0,0,-1,1868,1660,0,0
651,-636,0,0,0,0,0,0,0,0,0,-1,1875,1660,0,0
658,-636,0,0,0,0,0,0,0,0,0,-1,1882,1660,0,0
665,-636,0,0,0,0,0,0,0,0,0,-1,1889,1660,0,0
672,-636,0,0,0,0,0,0,0,0,0,-1,1896,1660,0,0
679,-636,0,0,0,0,0,0,0,0,0,-1,1903,1660,0,0
686,-636,0,0,0,0,0,0,0,0,0,-1,1910,1660,0,0
693,-636,0,0,0,0,0,0,0,0,0,-1,1917,1660,0,0
700,-636,0,0,0,0,0,0,0,0,0,-1,1924,1660,0,0
707,-636,0,0,0,0,0,0,0,0,0,-1,1931,1660,0,0
714,-636,0,0,0,0,0,0,0,0,0,-1,1938,1660,0,0
721,-636,0,0,0,0,0,0,0,0,0,-1,1945,1660,0,0
728,-636,0,0,0,0,0,0,0,0,0,-1,1952,1660,0,0
735,-636,0,0,0,0,0,0,0,0,0,-1,1959,1660,0,0
742,-636,0,0,0,0,0,0,0,0,0,-1,1966,1660,0,0
749,-636,0,0,0,0,0,0,0,0,0,-1,1973,1660,0,0
756,-636,0,0,0,0,0,0,0,0,0,-1,1980,1660,0,0
763,-636,0,0,0,0,0,0,0,0,0,-1,1987,1660,0,0
770,-636,0,0,0,0,0,0,0,0,0,-1,1994,1660,0,0
777,-636,0,0,0,0,0,0,0,0,0,-1,2001,1660,0,0
784,-636,0,0,0,0,0,0,0,0,0,-1,2008,1660,0,0
791,-636,0,0,0,0,0,0,0,0,0,-1,2015,1660,0,0
798,-636,0,0,0,0,0,0,0,0,0,-1,2022,1660,0,0
805,-636,0,0,0,0,0,0,0,0,0,-1,2029,1660,0,0
812,-636,0,0,0,0,0,0,0,0,0,-1,2036,1660,0,0
-700,-643,0,0,0,0,0,0,0,0,0,-1,524,1667,0,0
-693,-643,0,0,0,0,0,0,0,0,0,-1,531,1667,0,0
-686,-643,0,0,0,0,0,0,0,0,0,-1,538,1667,0,0
-679,-643,0,0,0,0,0,0,0,0,0,-1,545,1667,0,0
-672,-643,0,0,0,0,0,0,0,0,0,-1,552,1667,0,0
-665,-643,0,0,0,0,0,0,0,0,0,-1,559,1667,0,0
-658,-643,0,0,0,0,0,0,0,0,0,-1,566,1667,0,0
-651,-643,0,0,0,0,0,0,0,0,0,-1,573,1667,0,0
-644,-643,0,0,0,0,0,0,0,0,0,-1,580,1667,0,0
-637,-643,0,0,0,0,0,0,0,0,0,-1,587,1667,0,0
-630,-643,0,0,0,0,0,0,0,0,0,-1,594,1667,0,0
-623,-643,0,0,0,0,0,0,0,0,0,-1,601,1667,0,0
-616,-643,0,0,0,0,0,0,0,0,0,-1,608,1667,0,0
-609,-643,0,0,0,0,0,0,0,0,0,-1,615,1667,0,0
-602,-643,0,0,0,0,0,0,0,0,0,-1,622,1667,0,0
-595,-643,0,0,0,0,0,0,0,0,0,-1,629,1667,0,0
-588,-643,0,0,0,0,0,0,0,0,0,-1,636,1667,0,0
-581,-643,0,0,0,0,0,0,0,0,0,-1,643,1667,0,0
-574,-643,0,0,0,0,0,0,0,0,0,-1,650,1667,0,0
-567,-643,0,0,0,0,0,0,0,0,0,-1,657,1667,0,0
-560,-643,0,0,0,0,0,0,0,0,0,-1,664,1667,0,0
-553,-643,0,0,0,0,0,0,0,0,0,-1,671,1667,0,0
-546,-643,0,0,0,0,0,0,0,0,0,-1,678,1667,0,0
-539,-643,0,0,0,0,0,0,0,0,0,-1,685,1667,0,0
-532,-643,0,0,0,0,0,0,0,0,0,-1,692,1667,0,0
-525,-643,0,0,0,0,0,0,0,0,0,-1,699,1667,0,0
-518,-643,0,0,0,0,0,0,0,0,0,-1,706,1667,0,0
-511,-643,0,0,0,0,0,0,0,0,0,-1,713,1667,0,0
-504,-643,0,0,0,0,0,0,0,0,0,-1,720,1667,0,0
-497,-643,0,0,0,0,0,0,0,0,0,-1,727,1667,0,0
-490,-643,0,0,0,0,0,0,0,0,0,-1,734,1667,0,0
-483,-643,0,0,0,0,0,0,0,0,0,-1,741,1667,0,0
-476,-643,0,0,0,0,0,0,0,0,0,-1,748,1667,0,0
-469,-643,0,0,0,0,0,0,0,0,0,-1,755,1667,0,0
-462,-643,0,0,0,0,0,0,0,0,0,-1,762,1667,0,0
-455,-643,0,0,0,0,0,0,0,0,0,-1,769,1667,0,0
-448,-643,0,0,0,0,0,0,0,0,0,-1,776,1667,0,0
-441,-643,0,0,0,0,0,0,0,0,0,-1,783,1667,0,0
-434,-643,0,0,0,0,0,0,0,0,0,-1,790,1667,0,0
-427,-643,0,0,0,0,0,0,0,0,0,-1,797,1667,0,0
-420,-643,0,0,0,0,0,0,0,0,0,-1,804,1667,0,0
-413,-643,0,0,0,0,0,0,0,0,0,-1,811,1667,0,0
-406,-643,0,0,0,0,0,0,0,0,0,-1,818,1667,0,0
-399,-643,0.589417,11.6465,0,0,0,0,0,0,0,-1,825,1667,0.58939,-11.6465
-392,-643,0.865295,12.6523,0,0,0,0,0,0,0,-1,832,1667,0.865315,-12.6523
-385,-643,1.72968,13.2692,0,0,0,0,0,0,0,-1,839,1667,1.72967,-13.2692
-378,-643,2.66522,13.8193,0,0,0,0,0,0,0,-1,846,1667,2.66524,-13.8193
-371,-643,0.466125,3.35095,0,0,0,0,0,0,0,-1,853,1667,0.466148,-3.351
-364,-643,1.69513,9.922,0,0,0,0,0,0,0,-1,860,1667,1.69511,-9.92205
-357,-643,1.14227,10.8429,0,0,0,0,0,0,0,-1,867,1667,1.14228,-10.8429
-350,-643,4.48804,36.1799,0,0,0,0,0,0,0,-1,874,1667,4.48801,-36.1799
-343,-643,2.32159,48.7034,0,0,0,0,0,0,0,-1,881,1667,2.3216,-48.7034
-336,-643,-4.51129,105.569,0,0,0,0,0,0,0,-1,888,1667,-4.51131,-105.569
-329,-643,-6.68561,126.295,0,0,0,0,0,0,0,-1,895,1667,-6.68564,-126.295
-322,-643,-9.97827,200.169,0,0,0,0,0,0,0,-1,902,1667,-9.97827,-200.169
-315,-643,-12.7295,218.084,0,0,0,0,0,0,0,-1,909,1667,-12.7295,-218.084
-308,-643,-18.6798,226.895,0,0,0,0,0,0,0,-1,916,1667,-18.6798,-226.895
-301,-643,-16.4598,228.431,0,0,0,0,0,0,0,-1,923,1667,-16.4598,-228.431
-294,-643,-19.9393,233.806,0,0,0,0,0,0,0,-1,930,1667,-19.9394,-233.806
-287,-643,-21.2357,237.879,0.0274959,0.00286996,-0.0211632,0.0396674,-0.00930162,-0.52193,0.0300296,0.0294494,937,1667,-21.2357,-237.879
-280,-643,-22.0638,241.436,0.0308518,0.00250485,-0.0240031,0.0445537,-0.0111971,-0.518702,0.0340541,0.0233554,944,1667,-22.0638,-241.436
-273,-643,-22.7385,244.903,0.0344577,0.00180167,-0.0268184,0.0495276,-0.0132682,-0.511952,0.0382168,0.0207229,951,1667,-22.7385,-244.903
-266,-643,-23.2568,248.311,0.0385757,0.000750164,-0.0294027,0.0546231,-0.0152972,-0.499597,0.0424435,0.022573,958,1667,-23.2568,-248.311
-259,-643,-23.7502,251.607,0.0428097,-0.000289352,-0.0316416,0.059543,-0.0170226,-0.486451,0.0464218,0.0282284,965,1667,-23.7502,-251.607
-252,-643,-24.2898,254.872,0.0469523,-0.00136012,-0.0334706,0.0640733,-0.0184811,-0.472823,0.050027,0.0358719,972,1667,-24.2898,-254.872
-245,-643,-24.6776,258.044,0.0509328,-0.00256777,-0.0349756,0.0682151,-0.0198501,-0.458937,0.0533392,0.0298043,979,1667,-24.6776,-258.044
-238,-643,-25.0755,261.236,0.0551362,-0.00392843,-0.0364413,0.0725094,-0.0213016,-0.444871,0.0567879,0.0236733,986,1667,-25.0755,-261.236
-231,-643,-25.3871,264.501,0.0591436,-0.00550898,-0.0375084,0.0763337,-0.022699,-0.429734,0.0599065,0.0196078,993,1667,-25.3871,-264.501
-224,-643,-25.4541,267.566,0.0627898,-0.00666981,-0.0380636,0.0795866,-0.0234666,-0.415582,0.0623693,0.0211348,1000,1667,-25.4541,-267.566
-217,-643,-25.7084,270.528,0.0662195,-0.0081534,-0.0385381,0.0825869,-0.0245208,-0.401623,0.064797,0.0194113,1007,1667,-25.7085,-270.528
-210,-643,-25.9727,273.492,0.0706815,-0.00923724,-0.0392786,0.0867539,-0.0253096,-0.388403,0.0678643,0.0326564,1014,1667,-25.9727,-273.492
-203,-643,-26.1198,276.317,0,0,0,0,0,0,0,-1,1021,1667,-26.1198,-276.317
-196,-643,-25.8453,279.172,0,0,0,0,0,0,0,-1,1028,1667,-25.8453,-279.172
-189,-643,-25.3441,281.526,0,0,0,0,0,0,0,-1,1035,1667,-25.3441,-281.526
-182,-643,-16.009,195.212,0,0,0,0,0,0,0,-1,1042,1667,-16.009,-195.212
-175,-643,-7.11316,138.679,0,0,0,0,0,0,0,-1,1049,1667,-7.11322,-138.679
-168,-643,-5.92041,131.39,0,0,0,0,0,0,0,-1,1056,1667,-5.92042,-131.39
-161,-643,-2.19751,109.358,0,0,0,0,0,0,0,-1,1063,1667,-2.19756,-109.358
-154,-643,-0.143555,99.9445,0,0,0,0,0,0,0,-1,1070,1667,-0.143534,-99.9445
-147,-643,2.29285,74.679,0,0,0,0,0,0,0,-1,1077,1667,2.2928,-74.6789
-140,-643,2.17468,70.4902,0,0,0,0,0,0,0,-1,1084,1667,2.17471,-70.4902
-133,-643,2.32495,61.5938,0,0,0,0,0,0,0,-1,1091,1667,2.32497,-61.5937
-126,-643,3.28662,58.6659,0,0,0,0,0,0,0,-1,1098,1667,3.28657,-58.6658
-119,-643,3.76282,14.1458,0,0,0,0,0,0,0,-1,1105,1667,3.76283,-14.1458
-112,-643,3.81458,16.2069,0,0,0,0,0,0,0,-1,1112,1667,3.81463,-16.2069
-105,-643,-2.23413,10.0996,0,0,0,0,0,0,0,-1,1119,1667,-2.23415,-10.0996
-98,-643,3.11035,4.68066,0,0,0,0,0,0,0,-1,1126,1667,3.11041,-4.68071
-91,-643,-1.74146,-2.5885,0,0,0,0,0,0,0,-1,1133,1667,-1.74146,2.58856
-84,-643,-3.07446,-0.199341,0,0,0,0,0,0,0,-1,1140,1667,-3.07449,0.199383
-77,-643,-3.63794,2.81165,0,0,0,0,0,0,0,-1,1147,1667,-3.63791,-2.8117
-70,-643,-3.36938,4.45203,0,0,0,0,0,0,0,-1,1154,1667,-3.36941,-4.452
-63,-643,-3.67822,6.26855,0,0,0,0,0,0,0,-1,1161,1667,-3.67823,-6.26856
-56,-643,-3.95142,8.1073,0,0,0,0,0,0,0,-1,1168,1667,-3.95139,-8.10732
-49,-643,-4.23535,9.90552,0,0,0,0,0,0,0,-1,1175,1667,-4.23537,-9.90557
-42,-643,-4.25195,10.7059,0,0,0,0,0,0,0,-1,1182,1667,-4.25192,-10.706
-35,-643,-4.10986,11.6588,0,0,0,0,0,0,0,-1,1189,1667,-4.10982,-11.6589
-28,-643,-1.38513,5.604,0,0,0,0,0,0,0,-1,1196,1667,-1.3851,-5.60403
-21,-643,24.1896,250.931,0,0,0,0,0,0,0,-1,1203,1667,24.1896,-250.931
-14,-643,25.9877,324.95,0,0,0,0,0,0,0,-1,1210,1667,25.9877,-324.95
-7,-643,25.3632,325.169,0,0,0,0,0,0,0,-1,1217,1667,25.3632,-325.169
0,-643,24.7651,325.406,0,0,0,0,0,0,0,-1,1224,1667,24.7652,-325.406
7,-643,25.3921,325.517,0,0,0,0,0,0,0,-1,1231,1667,25.392,-325.517
14,-643,26.2269,325.738,0,0,0,0,0,0,0,-1,1238,1667,26.2269,-325.738
21,-643,26.7966,325.943,0,0,0,0,0,0,0,-1,1245,1667,26.7966,-325.943
28,-643,18.22,327.046,0,0,0,0,0,0,0,-1,1252,1667,18.22,-327.046
35,-643,17.0532,327.322,0,0,0,0,0,0,0,-1,1259,1667,17.0533,-327.322
42,-643,15.8542,327.67,0,0,0,0,0,0,0,-1,1266,1667,15.8542,-327.67
49,-643,14.7491,328.063,0,0,0,0,0,0,0,-1,1273,1667,14.7492,-328.063
56,-643,13.7053,328.498,0,0,0,0,0,0,0,-1,1280,1667,13.7054,-328.498
63,-643,11.0254,326.781,0,0,0,0,0,0,0,-1,1287,1667,11.0254,-326.781
70,-643,9.60535,327.142,0,0,0,0,0,0,0,-1,1294,1667,9.6053,-327.142
77,-643,8.54773,327.51,0,0,0,0,0,0,0,-1,1301,1667,8.54774,-327.51
84,-643,7.5061,327.869,0,0,0,0,0,0,0,-1,1308,1667,7.50614,-327.869
91,-643,6.43738,328.274,0,0,0,0,0,0,0,-1,1315,1667,6.43741,-328.274
98,-643,5.47119,328.65,0,0,0,0,0,0,0,-1,1322,1667,5.4712,-328.65
105,-643,4.51025,329.128,0,0,0,0,0,0,0,-1,1329,1667,4.5103,-329.128
112,-643,7.474,330.142,0,0,0,0,0,0,0,-1,1336,1667,7.47405,-330.142
119,-643,7.00842,329.65,0,0,0,0,0,0,0,-1,1343,1667,7.00839,-329.65
126,-643,5.22522,329.247,0,0,0,0,0,0,0,-1,1350,1667,5.22519,-329.247
133,-643,4.36499,328.846,0,0,0,0,0,0,0,-1,1357,1667,4.36502,-328.846
140,-643,3.24866,328.352,0,0,0,0,0,0,0,-1,1364,1667,3.24861,-328.352
147,-643,2.48901,328.003,0,0,0,0,0,0,0,-1,1371,1667,2.48907,-328.003
154,-643,2.08276,327.557,0,0,0,0,0,0,0,-1,1378,1667,2.08273,-327.557
161,-643,5.57935,26.2754,0,0,0,0,0,0,0,-1,1385,1667,5.57931,-26.2754
168,-643,10.5563,10.9818,0,0,0,0,0,0,0,-1,1392,1667,10.5562,-10.9819
175,-643,5.88525,-1.1698,0,0,0,0,0,0,0,-1,1399,1667,5.88526,1.16977
182,-643,5.80945,-0.418701,0,0,0,0,0,0,0,-1,1406,1667,5.80949,0.418712
189,-643,5.42297,12.9208,0,0,0,0,0,0,0,-1,1413,1667,5.42298,-12.9208
196,-643,5.51953,11.2415,0,0,0,0,0,0,0,-1,1420,1667,5.51948,-11.2414
203,-643,5.60828,9.82153,0,0,0,0,0,0,0,-1,1427,1667,5.60833,-9.82148
210,-643,4.73218,7.58728,0,0,0,0,0,0,0,-1,1434,1667,4.73222,-7.58728
217,-643,3.8031,5.28955,0,0,0,0,0,0,0,-1,1441,1667,3.80305,-5.28955
224,-643,2.96436,2.97095,0,0,0,0,0,0,0,-1,1448,1667,2.96432,-2.97095
231,-643,2.13403,1.08472,0,0,0,0,0,0,0,-1,1455,1667,2.13403,-1.08467
238,-643,1.18152,-0.261963,0,0,0,0,0,0,0,-1,1462,1667,1.18152,0.26192
245,-643,-0.157471,-1.79016,0,0,0,0,0,0,0,-1,1469,1667,-0.157517,1.7901
252,-643,8.08789,0.0202637,0,0,0,0,0,0,0,-1,1476,1667,8.08791,-0.0203056
259,-643,9.02979,-0.46936,0,0,0,0,0,0,0,-1,1483,1667,9.02974,0.46933
266,-643,4.55066,5.17554,0,0,0,0,0,0,0,-1,1490,1667,4.55063,-5.17556
273,-643,10.74,31.432,0,0,0,0,0,0,0,-1,1497,1667,10.7399,-31.4319
280,-643,12.1675,42.5023,0,0,0,0,0,0,0,-1,1504,1667,12.1675,-42.5023
287,-643,12.9725,46.299,0,0,0,0,0,0,0,-1,1511,1667,12.9725,-46.299
294,-643,18.1219,108.518,0,0,0,0,0,0,0,-1,1518,1667,18.122,-108.518
301,-643,18.713,120.823,0,0,0,0,0,0,0,-1,1525,1667,18.713,-120.823
308,-643,19.4183,137.233,0,0,0,0,0,0,0,-1,1532,1667,19.4183,-137.233
315,-643,20.1995,171.383,0,0,0,0,0,0,0,-1,1539,1667,20.1995,-171.383
322,-643,22.1925,213.886,0,0,0,0,0,0,0,-1,1546,1667,22.1925,-213.886
329,-643,36.4418,282.311,0,0,0,0,0,0,0,-1,1553,1667,36.4418,-282.311
336,-643,36.8234,279.304,0,0,0,0,0,0,0,-1,1560,1667,36.8234,-279.304
343,-643,37.2993,276.518,0,0,0,0,0,0,0,-1,1567,1667,37.2994,-276.518
350,-643,36.8315,273.44,0.0579825,0.00248099,0.0351061,0.0749816,-0.0145181,0.450943,0.0554641,0.0244341,1574,1667,36.8315,-273.44
357,-643,36.4015,270.405,0.0540739,0.00293937,0.0336359,0.0707567,-0.0137433,0.460426,0.052357,0.0190454,1581,1667,36.4015,-270.405
364,-643,36.0878,267.384,0.0504795,0.00307494,0.0319271,0.0665408,-0.0129863,0.466093,0.0492632,0.0161809,1588,1667,36.0878,-267.384
371,-643,35.8921,264.352,0.0471729,0.00280543,0.0300201,0.0623165,-0.0123381,0.467199,0.0462094,0.014117,1595,1667,35.8921,-264.352
378,-643,35.4976,261.208,0.0439055,0.00291018,0.0279949,0.0581047,-0.011289,0.469395,0.0429963,0.0148713,1602,1667,35.4976,-261.208
385,-643,35.0298,257.883,0.0403419,0.0031859,0.0260419,0.0537533,-0.0102255,0.47557,0.0396856,0.0223013,1609,1667,35.0298,-257.883
392,-643,34.4241,254.551,0.0367417,0.00335427,0.0238933,0.0491954,-0.0090994,0.480479,0.0362132,0.0229664,1616,1667,34.4241,-254.551
399,-643,33.7632,251.262,0.0331561,0.00363087,0.0216374,0.0445872,-0.00780028,0.486034,0.0326371,0.0203545,1623,1667,33.7632,-251.262
406,-643,33.1683,247.796,0.0295248,0.00405559,0.019304,0.0399163,-0.00633588,0.493821,0.0289548,0.0211359,1630,1667,33.1684,-247.796
413,-643,32.5349,244.264,0.0258447,0.0045423,0.0168476,0.0351257,-0.00473866,0.503515,0.025146,0.0245946,1637,1667,32.535,-244.264
420,-643,31.6565,240.822,0.0223165,0.0051044,0.0142137,0.0303265,-0.00290559,0.51318,0.0212525,0.0217452,1644,1667,31.6565,-240.822
427,-643,30.8477,237.305,0.0191157,0.00571504,0.0113453,0.0255915,-0.000760774,0.518666,0.0173202,0.0207803,1651,1667,30.8477,-237.305
434,-643,29.9257,233.587,0.0159554,0.0063782,0.00832854,0.0207739,0.00155976,0.524495,0.0133597,0.0330083,1658,1667,29.9257,-233.587
441,-643,28.9746,229.76,0,0,0,0,0,0,0,-1,1665,1667,28.9746,-229.76
448,-643,28.0953,225.715,0,0,0,0,0,0,0,-1,1672,1667,28.0953,-225.715
455,-643,15.6519,213.655,0,0,0,0,0,0,0,-1,1679,1667,15.6519,-213.655
462,-643,14.2635,144.444,0,0,0,0,0,0,0,-1,1686,1667,14.2636,-144.444
469,-643,15.6941,107.608,0,0,0,0,0,0,0,-1,1693,1667,15.6941,-107.608
476,-643,16.5469,79.5991,0,0,0,0,0,0,0,-1,1700,1667,16.5469,-79.5992
483,-643,16.2855,58.1313,0,0,0,0,0,0,0,-1,1707,1667,16.2855,-58.1313
490,-643,10.6885,24.1522,0,0,0,0,0,0,0,-1,1714,1667,10.6884,-24.1522
497,-643,10.9073,23.9465,0,0,0,0,0,0,0,-1,1721,1667,10.9074,-23.9465
504,-643,8.05591,19.0656,0,0,0,0,0,0,0,-1,1728,1667,8.0559,-19.0655
511,-643,7.74719,18.1564,0,0,0,0,0,0,0,-1,1735,1667,7.74724,-18.1563
518,-643,7.40564,0.922607,0,0,0,0,0,0,0,-1,1742,1667,7.4057,-0.922598
525,-643,0,0,0,0,0,0,0,0,0,-1,1749,1667,0,0
532,-643,0,0,0,0,0,0,0,0,0,-1,1756,1667,0,0
539,-643,0,0,0,0,0,0,0,0,0,-1,1763,1667,0,0
546,-643,0,0,0,0,0,0,0,0,0,-1,1770,1667,0,0
553,-643,0,0,0,0,0,0,0,0,0,-1,1777,1667,0,0
560,-643,0,0,0,0,0,0,0,0,0,-1,1784,1667,0,0
567,-643,0,0,0,0,0,0,0,0,0,-1,1791,1667,0,0
574,-643,0,0,0,0,0,0,0,0,0,-1,1798,1667,0,0
581,-643,0,0,0,0,0,0,0,0,0,-1,1805,1667,0,0
588,-643,0,0,0,0,0,0,0,0,0,-1,1812,1667,0,0
595,-643,0,0,0,0,0,0,0,0,0,-1,1819,1667,0,0
602,-643,0,0,0,0,0,0,0,0,0,-1,1826,1667,0,0
609,-643,0,0,0,0,0,0,0,0,0,-1,1833,1667,0,0
616,-643,0,0,0,0,0,0,0,0,0,-1,1840,1667,0,0
623,-643,0,0,0,0,0,0,0,0,0,-1,1847,1667,0,0
630,-643,0,0,0,0,0,0,0,0,0,-1,1854,1667,0,0
637,-643,0,0,0,0,0,0,0,0,0,-1,1861,1667,0,0
644,-643,0,0,0,0,0,0,0,0,0,-1,1868,1667,0,0
651,-643,0,0,0,0,0,0,0,0,0,-1,1875,1667,0,0
658,-643,0,0,0,0,0,0,0,0,0,-1,1882,1667,0,0
665,-643,0,0,0,0,0,0,0,0,0,-1,1889,1667,0,0
672,-643,0,0,0,0,0,0,0,0,0,-1,1896,1667,0,0
679,-643,0,0,0,0,0,0,0,0,0,-1,1903,1667,0,0
686,-643,0,0,0,0,0,0,0,0,0,-1,1910,1667,0,0
693,-643,0,0,0,0,0,0,0,0,0,-1,1917,1667,0,0
700,-643,0,0,0,0,0,0,0,0,0,-1,1924,1667,0,0
707,-643,0,0,0,0,0,0,0,0,0,-1,1931,1667,0,0
714,-643,0,0,0,0,0,0,0,0,0,-1,1938,1667,0,0
721,-643,0,0,0,0,0,0,0,0,0,-1,1945,1667,0,0
728,-643,0,0,0,0,0,0,0,0,0,-1,1952,1667,0,0
735,-643,0,0,0,0,0,0,0,0,0,-1,1959,1667,0,0
742,-643,0,0,0,0,0,0,0,0,0,-1,1966,1667,0,0
749,-643,0,0,0,0,0,0,0,0,0,-1,1973,1667,0,0
756,-643,0,0,0,0,0,0,0,0,0,-1,1980,1667,0,0
763,-643,0,0,0,0,0,0,0,0,0,-1,1987,1667,0,0
770,-643,0,0,0,0,0,0,0,0,0,-1,1994,1667,0,0
777,-643,0,0,0,0,0,0,0,0,0,-1,2001,1667,0,0
784,-643,0,0,0,0,0,0,0,0,0,-1,2008,1667,0,0
791,-643,0,0,0,0,0,0,0,0,0,-1,2015,1667,0,0
798,-643,0,0,0,0,0,0,0,0,0,-1,2022,1667,0,0
805,-643,0,0,0,0,0,0,0,0,0,-1,2029,1667,0,0
812,-643,0,0,0,0,0,0,0,0,0,-1,2036,1667,0,0
-700,-650,0,0,0,0,0,0,0,0,0,-1,524,1674,0,0
-693,-650,0,0,0,0,0,0,0,0,0,-1,531,1674,0,0
-686,-650,0,0,0,0,0,0,0,0,0,-1,538,1674,0,0
-679,-650,0,0,0,0,0,0,0,0,0,-1,545,1674,0,0
-672,-650,0,0,0,0,0,0,0,0,0,-1,552,1674,0,0
-665,-650,0,0,0,0,0,0,0,0,0,-1,559,1674,0,0
-658,-650,0,0,0,0,0,0,0,0,0,-1,566,1674,0,0
-651,-650,0,0,0,0,0,0,0,0,0,-1,573,1674,0,0
-644,-650,0,0,0,0,0,0,0,0,0,-1,580,1674,0,0
-637,-650,0,0,0,0,0,0,0,0,0,-1,587,1674,0,0
-630,-650,0,0,0,0,0,0,0,0,0,-1,594,1674,0,0
-623,-650,0,0,0,0,0,0,0,0,0,-1,601,1674,0,0
-616,-650,0,0,0,0,0,0,0,0,0,-1,608,1674,0,0
-609,-650,0,0,0,0,0,0,0,0,0,-1,615,1674,0,0
-602,-650,0,0,0,0,0,0,0,0,0,-1,622,1674,0,0
-595,-650,0,0,0,0,0,0,0,0,0,-1,629,1674,0,0
-588,-650,0,0,0,0,0,0,0,0,0,-1,636,1674,0,0
-581,-650,0,0,0,0,0,0,0,0,0,-1,643,1674,0,0
-574,-650,0,0,0,0,0,0,0,0,0,-1,650,1674,0,0
-567,-650,0,0,0,0,0,0,0,0,0,-1,657,1674,0,0
-560,-650,0,0,0,0,0,0,0,0,0,-1,664,1674,0,0
-553,-650,0,0,0,0,0,0,0,0,0,-1,671,1674,0,0
-546,-650,0,0,0,0,0,0,0,0,0,-1,678,1674,0,0
-539,-650,0,0,0,0,0,0,0,0,0,-1,685,1674,0,0
-532,-650,0,0,0,0,0,0,0,0,0,-1,692,1674,0,0
-525,-650,0,0,0,0,0,0,0,0,0,-1,699,1674,0,0
-518,-650,0,0,0,0,0,0,0,0,0,-1,706,1674,0,0
-511,-650,0,0,0,0,0,0,0,0,0,-1,713,1674,0,0
-504,-650,0,0,0,0,0,0,0,0,0,-1,720,1674,0,0
-497,-650,0,0,0,0,0,0,0,0,0,-1,727,1674,0,0
-490,-650,0,0,0,0,0,0,0,0,0,-1,734,1674,0,0
-483,-650,0,0,0,0,0,0,0,0,0,-1,741,1674,0,0
-476,-650,0,0,0,0,0,0,0,0,0,-1,748,1674,0,0
-469,-650,0,0,0,0,0,0,0,0,0,-1,755,1674,0,0
-462,-650,0,0,0,0,0,0,0,0,0,-1,762,1674,0,0
-455,-650,0,0,0,0,0,0,0,0,0,-1,769,1674,0,0
-448,-650,0,0,0,0,0,0,0,0,0,-1,776,1674,0,0
-441,-650,0,0,0,0,0,0,0,0,0,-1,783,1674,0,0
-434,-650,0,0,0,0,0,0,0,0,0,-1,790,1674,0,0
-427,-650,0,0,0,0,0,0,0,0,0,-1,797,1674,0,0
-420,-650,0,0,0,0,0,0,0,0,0,-1,804,1674,0,0
-413,-650,0,0,0,0,0,0,0,0,0,-1,811,1674,0,0
-406,-650,0,0,0,0,0,0,0,0,0,-1,818,1674,0,0
-399,-650,0,0,0,0,0,0,0,0,0,-1,825,1674,0,0
-392,-650,5.44415,6.85669,0,0,0,0,0,0,0,-1,832,1674,5.44414,-6.85674
-385,-650,1.74451,14.0183,0,0,0,0,0,0,0,-1,839,1674,1.74453,-14.0183
-378,-650,0.997986,4.11108,0,0,0,0,0,0,0,-1,846,1674,0.998006,-4.11113
-371,-650,-1.80096,3.78625,0,0,0,0,0,0,0,-1,853,1674,-1.80094,-3.78625
-364,-650,-2.95679,2.57507,0,0,0,0,0,0,0,-1,860,1674,-2.95681,-2.57506
-357,-650,5.76074,34.531,0,0,0,0,0,0,0,-1,867,1674,5.76077,-34.531
-350,-650,5.11011,35.4972,0,0,0,0,0,0,0,-1,874,1674,5.1101,-35.4971
-343,-650,5.20538,37.4165,0,0,0,0,0,0,0,-1,881,1674,5.20538,-37.4166
-336,-650,-1.81726,96.24,0,0,0,0,0,0,0,-1,888,1674,-1.81727,-96.24
-329,-650,-3.37445,103.583,0,0,0,0,0,0,0,-1,895,1674,-3.37446,-103.583
-322,-650,-4.90698,122.366,0,0,0,0,0,0,0,-1,902,1674,-4.90696,-122.366
-315,-650,-6.50775,137.28,0,0,0,0,0,0,0,-1,909,1674,-6.50778,-137.28
-308,-650,-8.39423,205.689,0,0,0,0,0,0,0,-1,916,1674,-8.39424,-205.689
-301,-650,-15.8268,231.197,0,0,0,0,0,0,0,-1,923,1674,-15.8268,-231.197
-294,-650,-16.7564,235.264,0,0,0,0,0,0,0,-1,930,1674,-16.7564,-235.264
-287,-650,-17.608,239.027,0.0222345,0.00288489,-0.0145537,0.0300358,-0.00491633,-0.492055,0.0218478,0.0268459,937,1674,-17.6079,-239.027
-280,-650,-18.3397,242.44,0.0252194,0.0027125,-0.017642,0.0348916,-0.00695967,-0.501495,0.0258946,0.0231135,944,1674,-18.3397,-242.44
-273,-650,-19.0061,245.893,0.0283917,0.00209916,-0.0207021,0.0397689,-0.00927806,-0.502512,0.030086,0.021312,951,1674,-19.0061,-245.893
-266,-650,-19.7623,249.254,0.0322256,0.00109746,-0.0234678,0.0448214,-0.0114984,-0.492596,0.0343611,0.0185552,958,1674,-19.7623,-249.254
-259,-650,-20.3629,252.57,0.0361919,4.39485e-05,-0.0258652,0.0496723,-0.0134364,-0.480446,0.0383857,0.0267053,965,1674,-20.3629,-252.57
-252,-650,-20.8469,255.883,0.0401042,-0.000862562,-0.0279191,0.054248,-0.0150064,-0.468914,0.0420693,0.0266787,972,1674,-20.8469,-255.883
-245,-650,-21.3,259.111,0.0438997,-0.00196691,-0.029652,0.058452,-0.0165193,-0.456239,0.0454856,0.0208635,979,1674,-21.3,-259.111
-238,-650,-21.7538,262.278,0.047776,-0.00325133,-0.0312314,0.0625903,-0.0180656,-0.44291,0.0488747,0.0173951,986,1674,-21.7538,-262.278
-231,-650,-22.2109,265.474,0.0515184,-0.00461054,-0.0325103,0.066402,-0.0194941,-0.42933,0.0519987,0.0244889,993,1674,-22.2109,-265.474
-224,-650,-22.4213,268.503,0.0549512,-0.00585634,-0.0333996,0.0697129,-0.0206181,-0.416159,0.0546599,0.0256704,1000,1674,-22.4213,-268.503
-217,-650,-22.5466,271.334,0.0582263,-0.00727444,-0.0341274,0.0727756,-0.0218238,-0.402993,0.0571968,0.0219703,1007,1674,-22.5466,-271.334
-210,-650,-22.5994,274.263,0.0624216,-0.00836198,-0.0351515,0.0769118,-0.0228521,-0.390996,0.0603517,0.0221943,1014,1674,-22.5994,-274.263
-203,-650,-22.6728,277.142,0.0676725,-0.00974686,-0.0356885,0.0816136,-0.023688,-0.372406,0.0637884,0.021833,1021,1674,-22.6728,-277.142
-196,-650,-23.012,279.9,0.0727668,-0.0113303,-0.0363299,0.0862875,-0.024851,-0.356283,0.0673546,0.0232164,1028,1674,-23.012,-279.9
-189,-650,-23.1523,282.734,0,0,0,0,0,0,0,-1,1035,1674,-23.1523,-282.734
-182,-650,-22.8719,285.549,0,0,0,0,0,0,0,-1,1042,1674,-22.8719,-285.549
-175,-650,-22.6342,288.338,0,0,0,0,0,0,0,-1,1049,1674,-22.6342,-288.338
-168,-650,-7.99158,155.667,0,0,0,0,0,0,0,-1,1056,1674,-7.99163,-155.667
-161,-650,-5.98145,140.817,0,0,0,0,0,0,0,-1,1063,1674,-5.98139,-140.817
-154,-650,-2.67444,122.398,0,0,0,0,0,0,0,-1,1070,1674,-2.67445,-122.398
-147,-650,1.06372,101.053,0,0,0,0,0,0,0,-1,1077,1674,1.06373,-101.053
-140,-650,3.01062,75.6625,0,0,0,0,0,0,0,-1,1084,1674,3.01057,-75.6625
-133,-650,3.06543,72.1895,0,0,0,0,0,0,0,-1,1091,1674,3.06545,-72.1895
-126,-650,3.67334,62.924,0,0,0,0,0,0,0,-1,1098,1674,3.67329,-62.924
-119,-650,5.16663,20.6232,0,0,0,0,0,0,0,-1,1105,1674,5.16665,-20.6232
-112,-650,3.86292,14.4513,0,0,0,0,0,0,0,-1,1112,1674,3.8629,-14.4513
-105,-650,7.92102,38.1313,0,0,0,0,0,0,0,-1,1119,1674,7.92104,-38.1314
-98,-650,3.3761,6.78003,0,0,0,0,0,0,0,-1,1126,1674,3.37611,-6.78009
-91,-650,3.66809,7.04443,0,0,0,0,0,0,0,-1,1133,1674,3.66806,-7.04439
-84,-650,-3.82666,-1.59521,0,0,0,0,0,0,0,-1,1140,1674,-3.82661,1.59517
-77,-650,-4.70557,1.90198,0,0,0,0,0,0,0,-1,1147,1674,-4.7056,-1.90194
-70,-650,-4.88171,3.81653,0,0,0,0,0,0,0,-1,1154,1674,-4.88176,-3.81651
-63,-650,-5.14612,5.56543,0,0,0,0,0,0,0,-1,1161,1674,-5.14612,-5.56547
-56,-650,-5.38367,7.41101,0,0,0,0,0,0,0,-1,1168,1674,-5.38361,-7.41102
-49,-650,-5.11316,8.23706,0,0,0,0,0,0,0,-1,1175,1674,-5.11317,-8.23708
-42,-650,-4.99487,9.6792,0,0,0,0,0,0,0,-1,1182,1674,-4.99484,-9.67921
-35,-650,-4.77771,11.3369,0,0,0,0,0,0,0,-1,1189,1674,-4.77769,-11.3369
-28,-650,-4.1936,13.1501,0,0,0,0,0,0,0,-1,1196,1674,-4.19358,-13.1501
-21,-650,16.578,325.926,0,0,0,0,0,0,0,-1,1203,1674,16.578,-325.926
-14,-650,26.0601,326.56,0,0,0,0,0,0,0,-1,1210,1674,26.0601,-326.56
-7,-650,25.1459,326.511,0,0,0,0,0,0,0,-1,1217,1674,25.1459,-326.511
0,-650,25.1625,326.895,0,0,0,0,0,0,0,-1,1224,1674,25.1624,-326.895
7,-650,25.0283,326.605,0,0,0,0,0,0,0,-1,1231,1674,25.0283,-326.605
14,-650,24.9514,326.504,0,0,0,0,0,0,0,-1,1238,1674,24.9515,-326.504
21,-650,24.4523,326.83,0,0,0,0,0,0,0,-1,1245,1674,24.4523,-326.83
28,-650,18.6965,327.881,0,0,0,0,0,0,0,-1,1252,1674,18.6965,-327.881
35,-650,17.5111,328.142,0,0,0,0,0,0,0,-1,1259,1674,17.5111,-328.142
42,-650,16.3856,328.404,0,0,0,0,0,0,0,-1,1266,1674,16.3856,-328.404
49,-650,15.3425,328.812,0,0,0,0,0,0,0,-1,1273,1674,15.3425,-328.812
56,-650,12.9613,328.81,0,0,0,0,0,0,0,-1,1280,1674,12.9613,-328.81
63,-650,11.4994,328.957,0,0,0,0,0,0,0,-1,1287,1674,11.4994,-328.957
70,-650,11.0079,329.384,0,0,0,0,0,0,0,-1,1294,1674,11.0079,-329.384
77,-650,9.97229,328.812,0,0,0,0,0,0,0,-1,1301,1674,9.97225,-328.812
84,-650,8.56409,328.715,0,0,0,0,0,0,0,-1,1308,1674,8.56406,-328.715
91,-650,7.79529,328.822,0,0,0,0,0,0,0,-1,1315,1674,7.79532,-328.822
98,-650,6.80688,329.58,0,0,0,0,0,0,0,-1,1322,1674,6.80694,-329.58
105,-650,7.63062,331.046,0,0,0,0,0,0,0,-1,1329,1674,7.63058,-331.046
112,-650,7.30005,330.364,0,0,0,0,0,0,0,-1,1336,1674,7.30003,-330.364
119,-650,6.28088,329.69,0,0,0,0,0,0,0,-1,1343,1674,6.28089,-329.69
126,-650,5.22327,329.129,0,0,0,0,0,0,0,-1,1350,1674,5.22324,-329.129
133,-650,4.1781,328.767,0,0,0,0,0,0,0,-1,1357,1674,4.17811,-328.767
140,-650,3.15662,328.474,0,0,0,0,0,0,0,-1,1364,1674,3.15659,-328.473
147,-650,2.64209,328.002,0,0,0,0,0,0,0,-1,1371,1674,2.64206,-328.002
154,-650,2.18481,327.573,0,0,0,0,0,0,0,-1,1378,1674,2.18478,-327.573
161,-650,-1.18494,102.822,0,0,0,0,0,0,0,-1,1385,1674,-1.18498,-102.822
168,-650,11.2113,7.87231,0,0,0,0,0,0,0,-1,1392,1674,11.2113,-7.87236
175,-650,5.62537,-0.230713,0,0,0,0,0,0,0,-1,1399,1674,5.62538,0.230745
182,-650,5.56006,0.421631,0,0,0,0,0,0,0,-1,1406,1674,5.56,-0.421652
189,-650,4.81543,11.0654,0,0,0,0,0,0,0,-1,1413,1674,4.81542,-11.0654
196,-650,5.39575,11.9077,0,0,0,0,0,0,0,-1,1420,1674,5.39575,-11.9078
203,-650,3.93628,11.8215,0,0,0,0,0,0,0,-1,1427,1674,3.93624,-11.8216
210,-650,5.40955,8.08594,0,0,0,0,0,0,0,-1,1434,1674,5.40958,-8.086
217,-650,5.12451,4.69739,0,0,0,0,0,0,0,-1,1441,1674,5.12451,-4.69738
224,-650,4.79041,1.45813,0,0,0,0,0,0,0,-1,1448,1674,4.79046,-1.45816
231,-650,4.04102,-0.642212,0,0,0,0,0,0,0,-1,1455,1674,4.04101,0.642209
238,-650,3.23022,-1.43396,0,0,0,0,0,0,0,-1,1462,1674,3.23023,1.43394
245,-650,1.65894,-2.55042,0,0,0,0,0,0,0,-1,1469,1674,1.65889,2.55036
252,-650,8.75342,0.355103,0,0,0,0,0,0,0,-1,1476,1674,8.75337,-0.355147
259,-650,5.61255,3.17566,0,0,0,0,0,0,0,-1,1483,1674,5.61257,-3.17572
266,-650,4.00403,6.10229,0,0,0,0,0,0,0,-1,1490,1674,4.00401,-6.10225
273,-650,11.9524,42.7109,0,0,0,0,0,0,0,-1,1497,1674,11.9524,-42.7109
280,-650,12.3011,46.7283,0,0,0,0,0,0,0,-1,1504,1674,12.3011,-46.7283
287,-650,14.0593,62.3341,0,0,0,0,0,0,0,-1,1511,1674,14.0593,-62.334
294,-650,17.2339,122.499,0,0,0,0,0,0,0,-1,1518,1674,17.2339,-122.499
301,-650,17.9724,139.27,0,0,0,0,0,0,0,-1,1525,1674,17.9724,-139.27
308,-650,18.6383,183.018,0,0,0,0,0,0,0,-1,1532,1674,18.6382,-183.018
315,-650,34.4039,288.571,0,0,0,0,0,0,0,-1,1539,1674,34.4039,-288.571
322,-650,34.074,285.503,0,0,0,0,0,0,0,-1,1546,1674,34.0739,-285.503
329,-650,33.7203,282.782,0.0630384,0.0032692,0.0328674,0.0775762,-0.0112686,0.416448,0.0558539,0.0480245,1553,1674,33.7203,-282.782
336,-650,33.7677,280.005,0.0591826,0.00277563,0.0324697,0.0739874,-0.0120292,0.427798,0.053785,0.0296405,1560,1674,33.7677,-280.005
343,-650,33.6589,277.161,0.0554543,0.00254156,0.0317743,0.0703446,-0.0123487,0.438236,0.0515084,0.0227675,1567,1674,33.659,-277.161
350,-650,33.4078,274.181,0.0515457,0.00273693,0.0307549,0.0664025,-0.0121198,0.450012,0.0488124,0.0223225,1574,1674,33.4079,-274.181
357,-650,33.0509,271.237,0.0477819,0.00329267,0.0292056,0.0622496,-0.011175,0.459938,0.0456826,0.0189663,1581,1674,33.0509,-271.237
364,-650,32.7733,268.24,0.0442762,0.00355336,0.0274231,0.0580705,-0.010241,0.466059,0.0425402,0.0144709,1588,1674,32.7734,-268.24
371,-650,32.4128,265.18,0.0409355,0.00346216,0.0254762,0.0538232,-0.00942556,0.468334,0.0394016,0.0182965,1595,1674,32.4128,-265.18
378,-650,31.9983,261.997,0.0376273,0.003649,0.0234567,0.049601,-0.0083247,0.471981,0.036163,0.0200069,1602,1674,31.9982,-261.997
385,-650,31.5968,258.785,0.0341167,0.00394868,0.0214529,0.0452578,-0.00719237,0.478989,0.032833,0.0213901,1609,1674,31.5968,-258.785
392,-650,30.9507,255.5,0.0305487,0.00418492,0.01933,0.0407636,-0.00603001,0.486147,0.0293927,0.0249519,1616,1674,30.9507,-255.5
399,-650,30.2993,252.205,0.0269955,0.00452152,0.017094,0.0362152,-0.00469814,0.494631,0.0258522,0.0231461,1623,1674,30.2993,-252.205
406,-650,29.5967,248.811,0.023355,0.00503029,0.0147346,0.0315437,-0.00315837,0.507242,0.0221571,0.0239142,1630,1674,29.5966,-248.811
413,-650,28.9399,245.258,0.0196135,0.00564499,0.0122436,0.0267248,-0.0014663,0.526196,0.0183249,0.0199851,1637,1674,28.9399,-245.258
420,-650,28.0511,241.821,0.0161936,0.00622468,0.00959583,0.0220223,0.000395973,0.545858,0.0145514,0.0204412,1644,1674,28.0511,-241.821
427,-650,27.108,238.345,0.01323,0.00688243,0.00671691,0.0174852,0.00262723,0.564692,0.0108872,0.0290337,1651,1674,27.1081,-238.345
434,-650,26.1591,234.77,0,0,0,0,0,0,0,-1,1658,1674,26.1591,-234.77
441,-650,12.1941,215.891,0,0,0,0,0,0,0,-1,1665,1674,12.194,-215.891
448,-650,10.5579,177.179,0,0,0,0,0,0,0,-1,1672,1674,10.5579,-177.179
455,-650,12.1978,141.432,0,0,0,0,0,0,0,-1,1679,1674,12.1977,-141.432
462,-650,13.7844,109.635,0,0,0,0,0,0,0,-1,1686,1674,13.7845,-109.635
469,-650,16.0024,83.395,0,0,0,0,0,0,0,-1,1693,1674,16.0025,-83.395
476,-650,15.3911,81.0083,0,0,0,0,0,0,0,-1,1700,1674,15.3911,-81.0082
483,-650,14.676,57.1664,0,0,0,0,0,0,0,-1,1707,1674,14.676,-57.1664
490,-650,14.6292,56.9932,0,0,0,0,0,0,0,-1,1714,1674,14.6292,-56.9932
497,-650,10.4985,20.1362,0,0,0,0,0,0,0,-1,1721,1674,10.4986,-20.1362
504,-650,9.69458,18.7721,0,0,0,0,0,0,0,-1,1728,1674,9.6946,-18.772
511,-650,9.37158,17.7506,0,0,0,0,0,0,0,-1,1735,1674,9.37159,-17.7506
518,-650,0,0,0,0,0,0,0,0,0,-1,1742,1674,0,0
525,-650,0,0,0,0,0,0,0,0,0,-1,1749,1674,0,0
532,-650,0,0,0,0,0,0,0,0,0,-1,1756,1674,0,0
539,-650,0,0,0,0,0,0,0,0,0,-1,1763,1674,0,0
546,-650,0,0,0,0,0,0,0,0,0,-1,1770,1674,0,0
553,-650,0,0,0,0,0,0,0,0,0,-1,1777,1674,0,0
560,-650,0,0,0,0,0,0,0,0,0,-1,1784,1674,0,0
567,-650,0,0,0,0,0,0,0,0,0,-1,1791,1674,0,0
574,-650,0,0,0,0,0,0,0,0,0,-1,1798,1674,0,0
581,-650,0,0,0,0,0,0,0,0,0,-1,1805,1674,0,0
588,-650,0,0,0,0,0,0,0,0,0,-1,1812,1674,0,0
595,-650,0,0,0,0,0,0,0,0,0,-1,1819,1674,0,0
602,-650,0,0,0,0,0,0,0,0,0,-1,1826,1674,0,0
609,-650,0,0,0,0,0,0,0,0,0,-1,1833,1674,0,0
616,-650,0,0,0,0,0,0,0,0,0,-1,1840,1674,0,0
623,-650,0,0,0,0,0,0,0,0,0,-1,1847,1674,0,0
630,-650,0,0,0,0,0,0,0,0,0,-1,1854,1674,0,0
637,-650,0,0,0,0,0,0,0,0,0,-1,1861,1674,0,0
644,-650,0,0,0,0,0,0,0,0,0,-1,1868,1674,0,0
651,-650,0,0,0,0,0,0,0,0,0,-1,1875,1674,0,0
658,-650,0,0,0,0,0,0,0,0,0,-1,1882,1674,0,0
665,-650,0,0,0,0,0,0,0,0,0,-1,1889,1674,0,0
672,-650,0,0,0,0,0,0,0,0,0,-1,1896,1674,0,0
679,-650,0,0,0,0,0,0,0,0,0,-1,1903,1674,0,0
686,-650,0,0,0,0,0,0,0,0,0,-1,1910,1674,0,0
693,-650,0,0,0,0,0,0,0,0,0,-1,1917,1674,0,0
700,-650,0,0,0,0,0,0,0,0,0,-1,1924,1674,0,0
707,-650,0,0,0,0,0,0,0,0,0,-1,1931,1674,0,0
714,-650,0,0,0,0,0,0,0,0,0,-1,1938,1674,0,0
721,-650,0,0,0,0,0,0,0,0,0,-1,1945,1674,0,0
728,-650,0,0,0,0,0,0,0,0,0,-1,1952,1674,0,0
735,-650,0,0,0,0,0,0,0,0,0,-1,1959,1674,0,0
742,-650,0,0,0,0,0,0,0,0,0,-1,1966,1674,0,0
749,-650,0,0,0,0,0,0,0,0,0,-1,1973,1674,0,0
756,-650,0,0,0,0,0,0,0,0,0,-1,1980,1674,0,0
763,-650,0,0,0,0,0,0,0,0,0,-1,1987,1674,0,0
770,-650,0,0,0,0,0,0,0,0,0,-1,1994,1674,0,0
777,-650,0,0,0,0,0,0,0,0,0,-1,2001,1674,0,0
784,-650,0,0,0,0,0,0,0,0,0,-1,2008,1674,0,0
791,-650,0,0,0,0,0,0,0,0,0,-1,2015,1674,0,0
798,-650,0,0,0,0,0,0,0,0,0,-1,2022,1674,0,0
805,-650,0,0,0,0,0,0,0,0,0,-1,2029,1674,0,0
812,-650,0,0,0,0,0,0,0,0,0,-1,2036,1674,0,0
-700,-657,0,0,0,0,0,0,0,0,0,-1,524,1681,0,0
-693,-657,0,0,0,0,0,0,0,0,0,-1,531,1681,0,0
-686,-657,0,0,0,0,0,0,0,0,0,-1,538,1681,0,0
-679,-657,0,0,0,0,0,0,0,0,0,-1,545,1681,0,0
-672,-657,0,0,0,0,0,0,0,0,0,-1,552,1681,0,0
-665,-657,0,0,0,0,0,0,0,0,0,-1,559,1681,0,0
-658,-657,0,0,0,0,0,0,0,0,0,-1,566,1681,0,0
-651,-657,0,0,0,0,0,0,0,0,0,-1,573,1681,0,0
-644,-657,0,0,0,0,0,0,0,0,0,-1,580,1681,0,0
-637,-657,0,0,0,0,0,0,0,0,0,-1,587,1681,0,0
-630,-657,0,0,0,0,0,0,0,0,0,-1,594,1681,0,0
-623,-657,0,0,0,0,0,0,0,0,0,-1,601,1681,0,0
-616,-657,0,0,0,0,0,0,0,0,0,-1,608,1681,0,0
-609,-657,0,0,0,0,0,0,0,0,0,-1,615,1681,0,0
-602,-657,0,0,0,0,0,0,0,0,0,-1,622,1681,0,0
-595,-657,0,0,0,0,0,0,0,0,0,-1,629,1681,0,0
-588,-657,0,0,0,0,0,0,0,0,0,-1,636,1681,0,0
-581,-657,0,0,0,0,0,0,0,0,0,-1,643,1681,0,0
-574,-657,0,0,0,0,0,0,0,0,0,-1,650,1681,0,0
-567,-657,0,0,0,0,0,0,0,0,0,-1,657,1681,0,0
-560,-657,0,0,0,0,0,0,0,0,0,-1,664,1681,0,0
-553,-657,0,0,0,0,0,0,0,0,0,-1,671,1681,0,0
-546,-657,0,0,0,0,0,0,0,0,0,-1,678,1681,0,0
-539,-657,0,0,0,0,0,0,0,0,0,-1,685,1681,0,0
-532,-657,0,0,0,0,0,0,0,0,0,-1,692,1681,0,0
-525,-657,0,0,0,0,0,0,0,0,0,-1,699,1681,0,0
-518,-657,0,0,0,0,0,0,0,0,0,-1,706,1681,0,0
-511,-657,0,0,0,0,0,0,0,0,0,-1,713,1681,0,0
-504,-657,0,0,0,0,0,0,0,0,0,-1,720,1681,0,0
-497,-657,0,0,0,0,0,0,0,0,0,-1,727,1681,0,0
-490,-657,0,0,0,0,0,0,0,0,0,-1,734,1681,0,0
-483,-657,0,0,0,0,0,0,0,0,0,-1,741,1681,0,0
-476,-657,0,0,0,0,0,0,0,0,0,-1,748,1681,0,0
-469,-657,0,0,0,0,0,0,0,0,0,-1,755,1681,0,0
-462,-657,0,0,0,0,0,0,0,0,0,-1,762,1681,0,0
-455,-657,0,0,0,0,0,0,0,0,0,-1,769,1681,0,0
-448,-657,0,0,0,0,0,0,0,0,0,-1,776,1681,0,0
-441,-657,0,0,0,0,0,0,0,0,0,-1,783,1681,0,0
-434,-657,0,0,0,0,0,0,0,0,0,-1,790,1681,0,0
-427,-657,0,0,0,0,0,0,0,0,0,-1,797,1681,0,0
-420,-657,0,0,0,0,0,0,0,0,0,-1,804,1681,0,0
-413,-657,0,0,0,0,0,0,0,0,0,-1,811,1681,0,0
-406,-657,0,0,0,0,0,0,0,0,0,-1,818,1681,0,0
-399,-657,0,0,0,0,0,0,0,0,0,-1,825,1681,0,0
-392,-657,0,0,0,0,0,0,0,0,0,-1,832,1681,0,0
-385,-657,1.09814,6.18896,0,0,0,0,0,0,0,-1,839,1681,1.09814,-6.18894
-378,-657,0.31488,4.46753,0,0,0,0,0,0,0,-1,846,1681,0.31487,-4.46755
-371,-657,-0.519043,2.69421,0,0,0,0,0,0,0,-1,853,1681,-0.519064,-2.69422
-364,-657,-3.42017,4.18323,0,0,0,0,0,0,0,-1,860,1681,-3.42019,-4.18319
-357,-657,5.03418,34.7598,0,0,0,0,0,0,0,-1,867,1681,5.03417,-34.7597
-350,-657,4.23431,35.8203,0,0,0,0,0,0,0,-1,874,1681,4.23429,-35.8203
-343,-657,3.60156,36.754,0,0,0,0,0,0,0,-1,881,1681,3.60154,-36.754
-336,-657,-0.500366,95.6331,0,0,0,0,0,0,0,-1,888,1681,-0.500383,-95.633
-329,-657,-0.586609,97.8975,0,0,0,0,0,0,0,-1,895,1681,-0.586639,-97.8975
-322,-657,-0.0598145,99.087,0,0,0,0,0,0,0,-1,902,1681,-0.0598425,-99.087
-315,-657,-2.04041,116.249,0,0,0,0,0,0,0,-1,909,1681,-2.04041,-116.249
-308,-657,-4.58478,139.846,0,0,0,0,0,0,0,-1,916,1681,-4.5848,-139.846
-301,-657,-6.65668,198.948,0,0,0,0,0,0,0,-1,923,1681,-6.65668,-198.948
-294,-657,-13.0037,236.044,0,0,0,0,0,0,0,-1,930,1681,-13.0037,-236.044
-287,-657,-14.0012,239.928,0,0,0,0,0,0,0,-1,937,1681,-14.0013,-239.928
-280,-657,-14.8161,243.291,0.0196552,0.00339687,-0.0112275,0.0253875,-0.00233546,-0.47206,0.0177548,0.0432095,944,1681,-14.8161,-243.291
-273,-657,-15.5173,246.863,0.0223956,0.00275667,-0.0145038,0.0300914,-0.00493905,-0.487827,0.0218938,0.015636,951,1681,-15.5173,-246.863
-266,-657,-16.3293,250.238,0.0259384,0.00175437,-0.0174428,0.0350706,-0.00737785,-0.482312,0.0261884,0.020215,958,1681,-16.3294,-250.238
-259,-657,-16.95,253.56,0.029631,0.000664396,-0.0200258,0.0398621,-0.00956666,-0.472324,0.0302718,0.029867,965,1681,-16.95,-253.56
-252,-657,-17.4384,256.779,0.0333356,-2.97961e-05,-0.0223383,0.0445332,-0.0112275,-0.464667,0.0340539,0.0195417,972,1681,-17.4384,-256.779
-245,-657,-17.865,259.983,0.0369387,-0.00101437,-0.0243365,0.0488227,-0.0128984,-0.454261,0.0375929,0.0185205,979,1681,-17.865,-259.983
-238,-657,-18.3242,263.138,0.0404554,-0.00217215,-0.0260793,0.0528226,-0.0145393,-0.442807,0.0409315,0.022912,986,1681,-18.3242,-263.138
-231,-657,-18.889,266.329,0.0439457,-0.00330679,-0.0275707,0.0566284,-0.0159895,-0.431146,0.0440601,0.0253627,993,1681,-18.889,-266.329
-224,-657,-19.2308,269.361,0.0471969,-0.00460709,-0.0287883,0.0600206,-0.0174308,-0.419062,0.046916,0.0252978,1000,1681,-19.2308,-269.361
-217,-657,-19.3597,272.295,0.050374,-0.00594645,-0.029763,0.0631873,-0.0187598,-0.40653,0.0495757,0.0188147,1007,1681,-19.3597,-272.295
-210,-657,-19.57,275.151,0.0542546,-0.00704895,-0.0309805,0.067184,-0.0199784,-0.395366,0.0527259,0.0200358,1014,1681,-19.57,-275.151
-203,-657,-19.8182,277.91,0.0588724,-0.00847197,-0.031818,0.0715273,-0.0211269,-0.378547,0.05607,0.0208568,1021,1681,-19.8182,-277.91
-196,-657,-20.1528,280.62,0.0634823,-0.00993336,-0.0326722,0.0759164,-0.0223675,-0.363648,0.0594855,0.0218541,1028,1681,-20.1528,-280.62
-189,-657,-20.1418,283.419,0.0686711,-0.0116893,-0.0337698,0.0809776,-0.0239957,-0.349464,0.063513,0.0233247,1035,1681,-20.1418,-283.419
-182,-657,-20.0183,286.168,0.0743188,-0.0128809,-0.0350412,0.0866549,-0.025217,-0.338497,0.0677582,0.0224782,1042,1681,-20.0183,-286.168
-175,-657,-20.0439,288.833,0.0798493,-0.0135714,-0.0363771,0.0923432,-0.0260654,-0.330834,0.0718444,0.0478452,1049,1681,-20.0439,-288.834
-168,-657,-20.1814,291.445,0,0,0,0,0,0,0,-1,1056,1681,-20.1814,-291.445
-161,-657,-20.5615,293.918,0,0,0,0,0,0,0,-1,1063,1681,-20.5616,-293.918
-154,-657,-19.2717,296.242,0,0,0,0,0,0,0,-1,1070,1681,-19.2718,-296.242
-147,-657,-1.66064,123.423,0,0,0,0,0,0,0,-1,1077,1681,-1.6607,-123.423
-140,-657,1.80237,101.693,0,0,0,0,0,0,0,-1,1084,1681,1.80231,-101.693
-133,-657,2.60046,87.6388,0,0,0,0,0,0,0,-1,1091,1681,2.60048,-87.6388
-126,-657,3.6051,70.6309,0,0,0,0,0,0,0,-1,1098,1681,3.60516,-70.6309
-119,-657,5.64758,54.4952,0,0,0,0,0,0,0,-1,1105,1681,5.64753,-54.4952
-112,-657,6.24219,42.9092,0,0,0,0,0,0,0,-1,1112,1681,6.24217,-42.9092
-105,-657,7.37256,41.0361,0,0,0,0,0,0,0,-1,1119,1681,7.37254,-41.0362
-98,-657,8.14404,38.4435,0,0,0,0,0,0,0,-1,1126,1681,8.14405,-38.4435
-91,-657,3.6521,16.6017,0,0,0,0,0,0,0,-1,1133,1681,3.65215,-16.6017
-84,-657,4.08008,10.4579,0,0,0,0,0,0,0,-1,1140,1681,4.08006,-10.4579
-77,-657,-5.29846,0.396606,0,0,0,0,0,0,0,-1,1147,1681,-5.29842,-0.396573
-70,-657,-4.14893,2.14575,0,0,0,0,0,0,0,-1,1154,1681,-4.14893,-2.1458
-63,-657,-4.1239,3.177,0,0,0,0,0,0,0,-1,1161,1681,-4.12391,-3.17698
-56,-657,-6.40576,5.73987,0,0,0,0,0,0,0,-1,1168,1681,-6.40577,-5.7399
-49,-657,-5.98462,7.54053,0,0,0,0,0,0,0,-1,1175,1681,-5.98466,-7.5405
-42,-657,-5.71948,9.28955,0,0,0,0,0,0,0,-1,1182,1681,-5.71951,-9.2895
-35,-657,-5.44556,11.015,0,0,0,0,0,0,0,-1,1189,1681,-5.44555,-11.015
-28,-657,-1.3446,8.92847,0,0,0,0,0,0,0,-1,1196,1681,-1.34459,-8.92848
-21,-657,4.8689,320.152,0,0,0,0,0,0,0,-1,1203,1681,4.86884,-320.152
-14,-657,25.9653,327.776,0,0,0,0,0,0,0,-1,1210,1681,25.9653,-327.776
-7,-657,25.059,327.728,0,0,0,0,0,0,0,-1,1217,1681,25.059,-327.728
0,-657,24.897,327.858,0,0,0,0,0,0,0,-1,1224,1681,24.897,-327.858
7,-657,24.5337,327.733,0,0,0,0,0,0,0,-1,1231,1681,24.5337,-327.733
14,-657,24.0052,327.593,0,0,0,0,0,0,0,-1,1238,1681,24.0052,-327.593
21,-657,19.8701,329.033,0,0,0,0,0,0,0,-1,1245,1681,19.8702,-329.033
28,-657,19.0298,328.535,0,0,0,0,0,0,0,-1,1252,1681,19.0298,-328.535
35,-657,17.9381,328.731,0,0,0,0,0,0,0,-1,1259,1681,17.9381,-328.731
42,-657,16.8661,328.923,0,0,0,0,0,0,0,-1,1266,1681,16.8661,-328.923
49,-657,14.7659,329.083,0,0,0,0,0,0,0,-1,1273,1681,14.7659,-329.083
56,-657,13.4332,329.35,0,0,0,0,0,0,0,-1,1280,1681,13.4333,-329.35
63,-657,12.5785,329.638,0,0,0,0,0,0,0,-1,1287,1681,12.5785,-329.638
70,-657,11.8959,329.616,0,0,0,0,0,0,0,-1,1294,1681,11.8958,-329.616
77,-657,10.6411,329.672,0,0,0,0,0,0,0,-1,1301,1681,10.6411,-329.672
84,-657,9.28967,329.686,0,0,0,0,0,0,0,-1,1308,1681,9.28971,-329.686
91,-657,8.16211,329.759,0,0,0,0,0,0,0,-1,1315,1681,8.16205,-329.759
98,-657,10.4958,329.191,0,0,0,0,0,0,0,-1,1322,1681,10.4958,-329.191
105,-657,7.86414,331.37,0,0,0,0,0,0,0,-1,1329,1681,7.8641,-331.37
112,-657,7.18103,330.927,0,0,0,0,0,0,0,-1,1336,1681,7.18107,-330.927
119,-657,6.45142,330.268,0,0,0,0,0,0,0,-1,1343,1681,6.45141,-330.268
126,-657,5.82764,329.591,0,0,0,0,0,0,0,-1,1350,1681,5.82768,-329.591
133,-657,3.85632,328.863,0,0,0,0,0,0,0,-1,1357,1681,3.85638,-328.863
140,-657,2.88672,328.521,0,0,0,0,0,0,0,-1,1364,1681,2.88671,-328.522
147,-657,2.80847,328.009,0,0,0,0,0,0,0,-1,1371,1681,2.80843,-328.009
154,-657,8.29797,326.473,0,0,0,0,0,0,0,-1,1378,1681,8.29801,-326.473
161,-657,4.2926,24.9226,0,0,0,0,0,0,0,-1,1385,1681,4.29264,-24.9226
168,-657,5.21643,0.70105,0,0,0,0,0,0,0,-1,1392,1681,5.21648,-0.7011
175,-657,5.52771,0.649048,0,0,0,0,0,0,0,-1,1399,1681,5.52774,-0.649019
182,-657,5.73999,1.02612,0,0,0,0,0,0,0,-1,1406,1681,5.73995,-1.02611
189,-657,5.92126,1.44116,0,0,0,0,0,0,0,-1,1413,1681,5.92126,-1.44115
196,-657,4.92834,9.59021,0,0,0,0,0,0,0,-1,1420,1681,4.9284,-9.59018
203,-657,6.26343,5.16492,0,0,0,0,0,0,0,-1,1427,1681,6.26345,-5.16488
210,-657,3.9856,5.28088,0,0,0,0,0,0,0,-1,1434,1681,3.98555,-5.28084
217,-657,3.95178,5.2843,0,0,0,0,0,0,0,-1,1441,1681,3.95174,-5.28431
224,-657,6.66736,-0.250244,0,0,0,0,0,0,0,-1,1448,1681,6.66737,0.250229
231,-657,6.85498,-1.70752,0,0,0,0,0,0,0,-1,1455,1681,6.855,1.70758
238,-657,5.34143,-2.89819,0,0,0,0,0,0,0,-1,1462,1681,5.34143,2.89813
245,-657,8.66003,-0.102783,0,0,0,0,0,0,0,-1,1469,1681,8.66,0.102824
252,-657,4.78955,0.623779,0,0,0,0,0,0,0,-1,1476,1681,4.7895,-0.623826
259,-657,2.61523,4.31909,0,0,0,0,0,0,0,-1,1483,1681,2.61523,-4.31908
266,-657,5.35437,11.4742,0,0,0,0,0,0,0,-1,1490,1681,5.35441,-11.4742
273,-657,14.0199,72.9027,0,0,0,0,0,0,0,-1,1497,1681,14.0199,-72.9028
280,-657,14.3578,78.1829,0,0,0,0,0,0,0,-1,1504,1681,14.3578,-78.1828
287,-657,14.3231,79.979,0,0,0,0,0,0,0,-1,1511,1681,14.3232,-79.979
294,-657,16.139,139.461,0,0,0,0,0,0,0,-1,1518,1681,16.1391,-139.461
301,-657,30.4285,293.79,0,0,0,0,0,0,0,-1,1525,1681,30.4285,-293.79
308,-657,30.3676,291.547,0,0,0,0,0,0,0,-1,1532,1681,30.3676,-291.547
315,-657,31.2509,288.925,0.0642832,0.00318921,0.0281154,0.0752524,-0.00777999,0.371986,0.0529524,0.0315744,1539,1681,31.2508,-288.925
322,-657,31.1567,286.135,0.059991,0.00308899,0.0285724,0.0718617,-0.00878171,0.393763,0.0510873,0.022898,1546,1681,31.1567,-286.135
329,-657,30.8854,283.454,0.0558957,0.00310363,0.0285523,0.0683839,-0.00938457,0.41231,0.0490178,0.0284549,1553,1681,30.8854,-283.454
336,-657,30.6018,280.618,0.05228,0.00300023,0.0280324,0.0649622,-0.00968202,0.424859,0.04687,0.028434,1560,1681,30.6018,-280.618
343,-657,30.4438,277.848,0.048696,0.0029646,0.0272312,0.0613884,-0.00972781,0.43616,0.0445238,0.0230114,1567,1681,30.4438,-277.848
350,-657,30.2389,274.905,0.0450097,0.00330636,0.0261009,0.0575654,-0.0092493,0.448367,0.0418025,0.0233611,1574,1681,30.2389,-274.905
357,-657,29.889,271.974,0.0414512,0.00391466,0.0244898,0.0535374,-0.00817152,0.45845,0.038704,0.0237163,1581,1681,29.889,-271.975
364,-657,29.6111,269.003,0.038096,0.0042593,0.0226575,0.0494547,-0.0070994,0.464705,0.0355732,0.0174333,1588,1681,29.6111,-269.003
371,-657,29.1365,265.957,0.0347817,0.00435396,0.0207066,0.0452627,-0.00612702,0.468568,0.0324111,0.0214926,1595,1681,29.1365,-265.957
378,-657,28.6171,262.805,0.0314409,0.00460237,0.0187223,0.0410564,-0.00501315,0.474458,0.0291858,0.0264216,1602,1681,28.617,-262.805
385,-657,28.1273,259.682,0.0279714,0.00489746,0.0166804,0.0367159,-0.00384702,0.482849,0.0258551,0.0222087,1609,1681,28.1273,-259.682
392,-657,27.4554,256.423,0.0244287,0.00518986,0.0146048,0.0322974,-0.00267885,0.494183,0.0224778,0.0185832,1616,1681,27.4555,-256.423
399,-657,26.837,253.106,0.0208867,0.00553396,0.0124269,0.027817,-0.00139635,0.508725,0.0190272,0.019425,1623,1681,26.837,-253.106
406,-657,26.151,249.701,0.0172074,0.00613312,0.010033,0.0231298,0.000210729,0.533251,0.0153501,0.0224244,1630,1681,26.151,-249.701
413,-657,25.4097,246.196,0.013354,0.00685283,0.00746579,0.0182462,0.00196067,0.580075,0.0115661,0.0327898,1637,1681,25.4096,-246.196
420,-657,24.4701,242.787,0,0,0,0,0,0,0,-1,1644,1681,24.4701,-242.787
427,-657,23.467,239.32,0,0,0,0,0,0,0,-1,1651,1681,23.467,-239.32
434,-657,9.1781,208.291,0,0,0,0,0,0,0,-1,1658,1681,9.17815,-208.291
441,-657,10.9042,153.156,0,0,0,0,0,0,0,-1,1665,1681,10.9042,-153.156
448,-657,12.9525,108.331,0,0,0,0,0,0,0,-1,1672,1681,12.9525,-108.331
455,-657,12.2253,107.353,0,0,0,0,0,0,0,-1,1679,1681,12.2253,-107.353
462,-657,14.8794,84.5696,0,0,0,0,0,0,0,-1,1686,1681,14.8794,-84.5695
469,-657,16.2104,82.9287,0,0,0,0,0,0,0,-1,1693,1681,16.2105,-82.9287
476,-657,13.2048,56.4302,0,0,0,0,0,0,0,-1,1700,1681,13.2048,-56.4302
483,-657,13.0665,56.2015,0,0,0,0,0,0,0,-1,1707,1681,13.0666,-56.2016
490,-657,11.6039,21.2185,0,0,0,0,0,0,0,-1,1714,1681,11.6038,-21.2185
497,-657,9.20862,17.8127,0,0,0,0,0,0,0,-1,1721,1681,9.2086,-17.8127
504,-657,0,0,0,0,0,0,0,0,0,-1,1728,1681,0,0
511,-657,0,0,0,0,0,0,0,0,0,-1,1735,1681,0,0
518,-657,0,0,0,0,0,0,0,0,0,-1,1742,1681,0,0
525,-657,0,0,0,0,0,0,0,0,0,-1,1749,1681,0,0
532,-657,0,0,0,0,0,0,0,0,0,-1,1756,1681,0,0
539,-657,0,0,0,0,0,0,0,0,0,-1,1763,1681,0,0
546,-657,0,0,0,0,0,0,0,0,0,-1,1770,1681,0,0
553,-657,0,0,0,0,0,0,0,0,0,-1,1777,1681,0,0
560,-657,0,0,0,0,0,0,0,0,0,-1,1784,1681,0,0
567,-657,0,0,0,0,0,0,0,0,0,-1,1791,1681,0,0
574,-657,0,0,0,0,0,0,0,0,0,-1,1798,1681,0,0
581,-657,0,0,0,0,0,0,0,0,0,-1,1805,1681,0,0
588,-657,0,0,0,0,0,0,0,0,0,-1,1812,1681,0,0
595,-657,0,0,0,0,0,0,0,0,0,-1,1819,1681,0,0
602,-657,0,0,0,0,0,0,0,0,0,-1,1826,1681,0,0
609,-657,0,0,0,0,0,0,0,0,0,-1,1833,1681,0,0
616,-657,0,0,0,0,0,0,0,0,0,-1,1840,1681,0,0
623,-657,0,0,0,0,0,0,0,0,0,-1,1847,1681,0,0
630,-657,0,0,0,0,0,0,0,0,0,-1,1854,1681,0,0
637,-657,0,0,0,0,0,0,0,0,0,-1,1861,1681,0,0
644,-657,0,0,0,0,0,0,0,0,0,-1,1868,1681,0,0
651,-657,0,0,0,0,0,0,0,0,0,-1,1875,1681,0,0
658,-657,0,0,0,0,0,0,0,0,0,-1,1882,1681,0,0
665,-657,0,0,0,0,0,0,0,0,0,-1,1889,1681,0,0
672,-657,0,0,0,0,0,0,0,0,0,-1,1896,1681,0,0
679,-657,0,0,0,0,0,0,0,0,0,-1,1903,1681,0,0
686,-657,0,0,0,0,0,0,0,0,0,-1,1910,1681,0,0
693,-657,0,0,0,0,0,0,0,0,0,-1,1917,1681,0,0
700,-657,0,0,0,0,0,0,0,0,0,-1,1924,1681,0,0
707,-657,0,0,0,0,0,0,0,0,0,-1,1931,1681,0,0
714,-657,0,0,0,0,0,0,0,0,0,-1,1938,1681,0,0
721,-657,0,0,0,0,0,0,0,0,0,-1,1945,1681,0,0
728,-657,0,0,0,0,0,0,0,0,0,-1,1952,1681,0,0
735,-657,0,0,0,0,0,0,0,0,0,-1,1959,1681,0,0
742,-657,0,0,0,0,0,0,0,0,0,-1,1966,1681,0,0
749,-657,0,0,0,0,0,0,0,0,0,-1,1973,1681,0,0
756,-657,0,0,0,0,0,0,0,0,0,-1,1980,1681,0,0
763,-657,0,0,0,0,0,0,0,0,0,-1,1987,1681,0,0
770,-657,0,0,0,0,0,0,0,0,0,-1,1994,1681,0,0
777,-657,0,0,0,0,0,0,0,0,0,-1,2001,1681,0,0
784,-657,0,0,0,0,0,0,0,0,0,-1,2008,1681,0,0
791,-657,0,0,0,0,0,0,0,0,0,-1,2015,1681,0,0
798,-657,0,0,0,0,0,0,0,0,0,-1,2022,1681,0,0
805,-657,0,0,0,0,0,0,0,0,0,-1,2029,1681,0,0
812,-657,0,0,0,0,0,0,0,0,0,-1,2036,1681,0,0
-700,-664,0,0,0,0,0,0,0,0,0,-1,524,1688,0,0
-693,-664,0,0,0,0,0,0,0,0,0,-1,531,1688,0,0
-686,-664,0,0,0,0,0,0,0,0,0,-1,538,1688,0,0
-679,-664,0,0,0,0,0,0,0,0,0,-1,545,1688,0,0
-672,-664,0,0,0,0,0,0,0,0,0,-1,552,1688,0,0
-665,-664,0,0,0,0,0,0,0,0,0,-1,559,1688,0,0
-658,-664,0,0,0,0,0,0,0,0,0,-1,566,1688,0,0
-651,-664,0,0,0,0,0,0,0,0,0,-1,573,1688,0,0
-644,-664,0,0,0,0,0,0,0,0,0,-1,580,1688,0,0
-637,-664,0,0,0,0,0,0,0,0,0,-1,587,1688,0,0
-630,-664,0,0,0,0,0,0,0,0,0,-1,594,1688,0,0
-623,-664,0,0,0,0,0,0,0,0,0,-1,601,1688,0,0
-616,-664,0,0,0,0,0,0,0,0,0,-1,608,1688,0,0
-609,-664,0,0,0,0,0,0,0,0,0,-1,615,1688,0,0
-602,-664,0,0,0,0,0,0,0,0,0,-1,622,1688,0,0
-595,-664,0,0,0,0,0,0,0,0,0,-1,629,1688,0,0
-588,-664,0,0,0,0,0,0,0,0,0,-1,636,1688,0,0
-581,-664,0,0,0,0,0,0,0,0,0,-1,643,1688,0,0
-574,-664,0,0,0,0,0,0,0,0,0,-1,650,1688,0,0
-567,-664,0,0,0,0,0,0,0,0,0,-1,657,1688,0,0
-560,-664,0,0,0,0,0,0,0,0,0,-1,664,1688,0,0
-553,-664,0,0,0,0,0,0,0,0,0,-1,671,1688,0,0
-546,-664,0,0,0,0,0,0,0,0,0,-1,678,1688,0,0
-539,-664,0,0,0,0,0,0,0,0,0,-1,685,1688,0,0
-532,-664,0,0,0,0,0,0,0,0,0,-1,692,1688,0,0
-525,-664,0,0,0,0,0,0,0,0,0,-1,699,1688,0,0
-518,-664,0,0,0,0,0,0,0,0,0,-1,706,1688,0,0
-511,-664,0,0,0,0,0,0,0,0,0,-1,713,1688,0,0
-504,-664,0,0,0,0,0,0,0,0,0,-1,720,1688,0,0
-497,-664,0,0,0,0,0,0,0,0,0,-1,727,1688,0,0
-490,-664,0,0,0,0,0,0,0,0,0,-1,734,1688,0,0
-483,-664,0,0,0,0,0,0,0,0,0,-1,741,1688,0,0
-476,-664,0,0,0,0,0,0,0,0,0,-1,748,1688,0,0
-469,-664,0,0,0,0,0,0,0,0,0,-1,755,1688,0,0
-462,-664,0,0,0,0,0,0,0,0,0,-1,762,1688,0,0
-455,-664,0,0,0,0,0,0,0,0,0,-1,769,1688,0,0
-448,-664,0,0,0,0,0,0,0,0,0,-1,776,1688,0,0
-441,-664,0,0,0,0,0,0,0,0,0,-1,783,1688,0,0
-434,-664,0,0,0,0,0,0,0,0,0,-1,790,1688,0,0
-427,-664,0,0,0,0,0,0,0,0,0,-1,797,1688,0,0
-420,-664,0,0,0,0,0,0,0,0,0,-1,804,1688,0,0
-413,-664,0,0,0,0,0,0,0,0,0,-1,811,1688,0,0
-406,-664,0,0,0,0,0,0,0,0,0,-1,818,1688,0,0
-399,-664,0,0,0,0,0,0,0,0,0,-1,825,1688,0,0
-392,-664,0,0,0,0,0,0,0,0,0,-1,832,1688,0,0
-385,-664,0,0,0,0,0,0,0,0,0,-1,839,1688,0,0
-378,-664,0,0,0,0,0,0,0,0,0,-1,846,1688,0,0
-371,-664,-1.61676,5.92737,0,0,0,0,0,0,0,-1,853,1688,-1.61675,-5.92735
-364,-664,-3.901,5.87024,0,0,0,0,0,0,0,-1,860,1688,-3.90097,-5.87027
-357,-664,-4.81012,4.53479,0,0,0,0,0,0,0,-1,867,1688,-4.81012,-4.5348
-350,-664,3.26105,36.0225,0,0,0,0,0,0,0,-1,874,1688,3.26104,-36.0224
-343,-664,3.36761,61.1754,0,0,0,0,0,0,0,-1,881,1688,3.36762,-61.1755
-336,-664,3.50519,61.7698,0,0,0,0,0,0,0,-1,888,1688,3.50521,-61.7698
-329,-664,0.881653,98.2546,0,0,0,0,0,0,0,-1,895,1688,0.881656,-98.2546
-322,-664,4.09424,63.087,0,0,0,0,0,0,0,-1,902,1688,4.09425,-63.087
-315,-664,5.4184,55.4478,0,0,0,0,0,0,0,-1,909,1688,5.41837,-55.4477
-308,-664,-0.557312,118.209,0,0,0,0,0,0,0,-1,916,1688,-0.557291,-118.209
-301,-664,-1.91498,130.912,0,0,0,0,0,0,0,-1,923,1688,-1.91496,-130.912
-294,-664,-3.83344,202.808,0,0,0,0,0,0,0,-1,930,1688,-3.83344,-202.808
-287,-664,-4.513,218.413,0,0,0,0,0,0,0,-1,937,1688,-4.51303,-218.413
-280,-664,-11.2236,244.044,0,0,0,0,0,0,0,-1,944,1688,-11.2237,-244.044
-273,-664,-12.0622,247.814,0,0,0,0,0,0,0,-1,951,1688,-12.0622,-247.814
-266,-664,-12.8781,251.265,0,0,0,0,0,0,0,-1,958,1688,-12.8781,-251.265
-259,-664,-13.465,254.213,0.0230441,0.00172001,-0.0141008,0.03006,-0.00529599,-0.461693,0.0220187,0.0359256,965,1688,-13.465,-254.213
-252,-664,-13.9865,257.688,0.0265749,0.00128695,-0.0167418,0.0349108,-0.00704901,-0.461977,0.0259447,0.0230228,972,1688,-13.9865,-257.688
-245,-664,-14.5381,260.859,0.0300006,0.0004045,-0.0190485,0.0393236,-0.00891853,-0.455162,0.0296393,0.0237667,979,1688,-14.5381,-260.859
-238,-664,-15.014,264.001,0.0331638,-0.000637606,-0.0209786,0.0432025,-0.0106763,-0.44632,0.0329423,0.0264103,986,1688,-15.0139,-264.001
-231,-664,-15.571,267.132,0.0364368,-0.00160422,-0.0226874,0.047022,-0.0121894,-0.436545,0.0361037,0.0253714,993,1688,-15.571,-267.132
-224,-664,-16.0359,270.159,0.0395395,-0.00295448,-0.0242154,0.0505078,-0.0139227,-0.425299,0.0391469,0.0234503,1000,1688,-16.036,-270.159
-217,-664,-16.3412,273.067,0.0426563,-0.00421162,-0.025404,0.0537841,-0.0153394,-0.412857,0.0419155,0.0186278,1007,1688,-16.3412,-273.067
-210,-664,-16.5627,275.874,0.0461894,-0.0053461,-0.026727,0.0575473,-0.016704,-0.401835,0.0449789,0.0200447,1014,1688,-16.5627,-275.874
-203,-664,-16.8652,278.75,0.0501645,-0.00680825,-0.0278039,0.0614844,-0.0181281,-0.386638,0.0481827,0.0215705,1021,1688,-16.8652,-278.75
-196,-664,-17.0606,281.523,0.0543283,-0.00817909,-0.02881,0.0655812,-0.019432,-0.372368,0.0514365,0.0258658,1028,1688,-17.0606,-281.523
-189,-664,-17.1506,284.17,0.0590562,-0.0097545,-0.0299519,0.0702671,-0.0209654,-0.358155,0.0551773,0.0223817,1035,1688,-17.1506,-284.17
-182,-664,-17.2001,286.847,0.0641771,-0.0109593,-0.0312606,0.0754822,-0.0222643,-0.347006,0.0591564,0.0212761,1042,1688,-17.2001,-286.847
-175,-664,-17.3224,289.345,0.0691607,-0.0118036,-0.0326196,0.0806674,-0.0233103,-0.339127,0.0630026,0.0230514,1049,1688,-17.3224,-289.345
-168,-664,-17.4922,291.882,0,0,0,0,0,0,0,-1,1056,1688,-17.4922,-291.882
-161,-664,-17.6483,294.38,0.0787644,-0.0138217,-0.0350783,0.0905535,-0.0256108,-0.32422,0.0704746,0.0329606,1063,1688,-17.6483,-294.38
-154,-664,-16.9061,296.728,0.0828031,-0.0149019,-0.036198,0.0947524,-0.0268512,-0.318847,0.0737661,0.0473319,1070,1688,-16.9061,-296.728
-147,-664,-16.5869,299.115,0,0,0,0,0,0,0,-1,1077,1688,-16.5869,-299.115
-140,-664,-16.4082,301.079,0,0,0,0,0,0,0,-1,1084,1688,-16.4083,-301.079
-133,-664,-7.02014,177.951,0,0,0,0,0,0,0,-1,1091,1688,-7.0202,-177.951
-126,-664,3.53955,87.8251,0,0,0,0,0,0,0,-1,1098,1688,3.53951,-87.8251
-119,-664,5.36035,67.1663,0,0,0,0,0,0,0,-1,1105,1688,5.36031,-67.1663
-112,-664,6.3916,51.1235,0,0,0,0,0,0,0,-1,1112,1688,6.39161,-51.1236
-105,-664,6.87256,43.2527,0,0,0,0,0,0,0,-1,1119,1688,6.87258,-43.2527
-98,-664,7.69324,41.3359,0,0,0,0,0,0,0,-1,1126,1688,7.69321,-41.3359
-91,-664,5.41931,25.6302,0,0,0,0,0,0,0,-1,1133,1688,5.41932,-25.6302
-84,-664,3.48389,16.6913,0,0,0,0,0,0,0,-1,1140,1688,3.4839,-16.6913
-77,-664,4.52014,11.2122,0,0,0,0,0,0,0,-1,1147,1688,4.5202,-11.2122
-70,-664,4.20374,8.24524,0,0,0,0,0,0,0,-1,1154,1688,4.20379,-8.24519
-63,-664,-4.677,2.40503,0,0,0,0,0,0,0,-1,1161,1688,-4.67702,-2.40498
-56,-664,-4.66504,3.32727,0,0,0,0,0,0,0,-1,1168,1688,-4.6651,-3.32724
-49,-664,-2.54297,3.31848,0,0,0,0,0,0,0,-1,1175,1688,-2.54297,-3.31852
-42,-664,-0.359253,4.38684,0,0,0,0,0,0,0,-1,1182,1688,-0.359261,-4.38685
-35,-664,-0.705566,3.55017,0,0,0,0,0,0,0,-1,1189,1688,-0.705567,-3.55023
-28,-664,-1.54236,10.2538,0,0,0,0,0,0,0,-1,1196,1688,-1.54236,-10.2538
-21,-664,26.5171,328.877,0,0,0,0,0,0,0,-1,1203,1688,26.517,-328.877
-14,-664,25.8774,328.925,0,0,0,0,0,0,0,-1,1210,1688,25.8775,-328.925
-7,-664,25.0049,328.908,0,0,0,0,0,0,0,-1,1217,1688,25.0049,-328.908
0,-664,24.411,328.833,0,0,0,0,0,0,0,-1,1224,1688,24.411,-328.834
7,-664,23.9473,328.795,0,0,0,0,0,0,0,-1,1231,1688,23.9472,-328.795
14,-664,21.3717,329.321,0,0,0,0,0,0,0,-1,1238,1688,21.3717,-329.321
21,-664,20.4895,329.409,0,0,0,0,0,0,0,-1,1245,1688,20.4895,-329.409
28,-664,19.5715,329.569,0,0,0,0,0,0,0,-1,1252,1688,19.5715,-329.569
35,-664,18.4136,329.429,0,0,0,0,0,0,0,-1,1259,1688,18.4136,-329.429
42,-664,17.2535,329.39,0,0,0,0,0,0,0,-1,1266,1688,17.2535,-329.39
49,-664,15.6136,329.592,0,0,0,0,0,0,0,-1,1273,1688,15.6136,-329.592
56,-664,14.0646,329.855,0,0,0,0,0,0,0,-1,1280,1688,14.0646,-329.855
63,-664,13.8145,329.842,0,0,0,0,0,0,0,-1,1287,1688,13.8145,-329.842
70,-664,12.4744,330.165,0,0,0,0,0,0,0,-1,1294,1688,12.4744,-330.165
77,-664,11.1021,330.475,0,0,0,0,0,0,0,-1,1301,1688,11.1021,-330.475
84,-664,9.7926,330.538,0,0,0,0,0,0,0,-1,1308,1688,9.79265,-330.538
91,-664,11.1351,330.698,0,0,0,0,0,0,0,-1,1315,1688,11.1351,-330.698
98,-664,10.0111,330.404,0,0,0,0,0,0,0,-1,1322,1688,10.0111,-330.404
105,-664,8.8761,330.125,0,0,0,0,0,0,0,-1,1329,1688,8.87608,-330.125
112,-664,7.06262,331.447,0,0,0,0,0,0,0,-1,1336,1688,7.06262,-331.447
119,-664,6.33569,331.135,0,0,0,0,0,0,0,-1,1343,1688,6.33571,-331.135
126,-664,3.60657,330.013,0,0,0,0,0,0,0,-1,1350,1688,3.60663,-330.013
133,-664,3.72217,329.053,0,0,0,0,0,0,0,-1,1357,1688,3.72214,-329.053
140,-664,3.87988,328.066,0,0,0,0,0,0,0,-1,1364,1688,3.87985,-328.066
147,-664,4.00464,327.053,0,0,0,0,0,0,0,-1,1371,1688,4.0046,-327.053
154,-664,0.946533,335.315,0,0,0,0,0,0,0,-1,1378,1688,0.946588,-335.315
161,-664,4.60132,1.56238,0,0,0,0,0,0,0,-1,1385,1688,4.60134,-1.56233
168,-664,5.172,1.25488,0,0,0,0,0,0,0,-1,1392,1688,5.17203,-1.25484
175,-664,5.58313,1.16467,0,0,0,0,0,0,0,-1,1399,1688,5.58317,-1.16466
182,-664,5.74268,1.41113,0,0,0,0,0,0,0,-1,1406,1688,5.74263,-1.41115
189,-664,5.87744,1.87061,0,0,0,0,0,0,0,-1,1413,1688,5.87745,-1.87065
196,-664,6.7594,5.97473,0,0,0,0,0,0,0,-1,1420,1688,6.75943,-5.97478
203,-664,5.38452,5.22034,0,0,0,0,0,0,0,-1,1427,1688,5.38453,-5.2203
210,-664,5.25549,6.45715,0,0,0,0,0,0,0,-1,1434,1688,5.25549,-6.45721
217,-664,5.72009,6.73975,0,0,0,0,0,0,0,-1,1441,1688,5.72014,-6.73972
224,-664,5.05725,7.42908,0,0,0,0,0,0,0,-1,1448,1688,5.05723,-7.42912
231,-664,5.13318,7.60864,0,0,0,0,0,0,0,-1,1455,1688,5.13313,-7.60862
238,-664,4.23193,6.45471,0,0,0,0,0,0,0,-1,1462,1688,4.23197,-6.45476
245,-664,4.42004,6.80896,0,0,0,0,0,0,0,-1,1469,1688,4.4201,-6.80901
252,-664,3.67346,6.85461,0,0,0,0,0,0,0,-1,1476,1688,3.6734,-6.85462
259,-664,4.55823,11.7435,0,0,0,0,0,0,0,-1,1483,1688,4.55826,-11.7435
266,-664,13.2228,73.7821,0,0,0,0,0,0,0,-1,1490,1688,13.2228,-73.7821
273,-664,15.088,112.14,0,0,0,0,0,0,0,-1,1497,1688,15.088,-112.14
280,-664,27.7089,302.218,0,0,0,0,0,0,0,-1,1504,1688,27.7089,-302.218
287,-664,27.2742,300.213,0,0,0,0,0,0,0,-1,1511,1688,27.2742,-300.213
294,-664,27.4027,297.48,0,0,0,0,0,0,0,-1,1518,1688,27.4027,-297.48
301,-664,27.9517,294.293,0.0656917,0.00253865,0.0230045,0.0731828,-0.00495249,0.314809,0.0505204,0.0405912,1525,1688,27.9517,-294.293
308,-664,28.0538,291.829,0.0608326,0.00289829,0.0237877,0.0693481,-0.00561723,0.343766,0.0482137,0.0370079,1532,1688,28.0539,-291.829
315,-664,28.2438,289.318,0.0564002,0.0031723,0.0244518,0.0659276,-0.00635502,0.371541,0.0462159,0.0304037,1539,1688,28.2437,-289.318
322,-664,28.1782,286.8,0.0523808,0.0032853,0.0245526,0.0625522,-0.00688614,0.392749,0.0441761,0.0239307,1546,1688,28.1783,-286.8
329,-664,27.9528,284.127,0.0485926,0.00344591,0.0242239,0.0591305,-0.00709196,0.410327,0.0419844,0.0248617,1553,1688,27.9528,-284.127
336,-664,27.6812,281.412,0.0452303,0.00363417,0.023472,0.055793,-0.00692851,0.422863,0.0397068,0.0219553,1560,1688,27.6811,-281.412
343,-664,27.4042,278.57,0.0418522,0.00378592,0.0224816,0.0522755,-0.0066374,0.434137,0.0372604,0.0210523,1567,1688,27.4042,-278.57
350,-664,27.1334,275.686,0.0384351,0.00424348,0.0211939,0.0485688,-0.00589023,0.44601,0.0345106,0.0250006,1574,1688,27.1334,-275.686
357,-664,26.7716,272.743,0.0351237,0.00484611,0.0194991,0.0446709,-0.0047011,0.455311,0.0314649,0.0236277,1581,1688,26.7716,-272.743
364,-664,26.4193,269.761,0.0319618,0.00523537,0.017618,0.0407113,-0.0035141,0.46094,0.0283848,0.0175117,1588,1688,26.4193,-269.761
371,-664,25.9341,266.761,0.0287329,0.00553836,0.0156756,0.0366348,-0.00236361,0.466918,0.025248,0.0187685,1595,1688,25.9341,-266.761
378,-664,25.3439,263.675,0.0253656,0.00583577,0.0137482,0.0324638,-0.00126245,0.476605,0.0220754,0.0209499,1602,1688,25.3439,-263.675
385,-664,24.739,260.487,0.021922,0.00609465,0.011676,0.0281135,-9.67942e-05,0.487571,0.0187747,0.0231043,1609,1688,24.7391,-260.487
392,-664,24.0758,257.306,0.0184149,0.00641721,0.00968337,0.023807,0.0010251,0.508082,0.0155409,0.02241,1616,1688,24.0758,-257.306
399,-664,23.4105,253.949,0.0148788,0.00667316,0.00767096,0.0194752,0.00207674,0.539829,0.0123496,0.0274698,1623,1688,23.4105,-253.949
406,-664,22.717,250.5,0,0,0,0,0,0,0,-1,1630,1688,22.717,-250.5
413,-664,21.9148,246.933,0,0,0,0,0,0,0,-1,1637,1688,21.9148,-246.933
420,-664,9.7854,231.423,0,0,0,0,0,0,0,-1,1644,1688,9.78542,-231.423
427,-664,6.96497,211.559,0,0,0,0,0,0,0,-1,1651,1688,6.96493,-211.559
434,-664,8.73584,155.847,0,0,0,0,0,0,0,-1,1658,1688,8.73585,-155.847
441,-664,11.7097,109.925,0,0,0,0,0,0,0,-1,1665,1688,11.7097,-109.925
448,-664,14.7797,87.4095,0,0,0,0,0,0,0,-1,1672,1688,14.7797,-87.4095
455,-664,12.8,86.4729,0,0,0,0,0,0,0,-1,1679,1688,12.8,-86.4729
462,-664,14.3168,84.5027,0,0,0,0,0,0,0,-1,1686,1688,14.3168,-84.5026
469,-664,6.05469,7.49341,0,0,0,0,0,0,0,-1,1693,1688,6.05474,-7.49339
476,-664,10.2377,22.7128,0,0,0,0,0,0,0,-1,1700,1688,10.2377,-22.7128
483,-664,8.41895,10.9768,0,0,0,0,0,0,0,-1,1707,1688,8.41897,-10.9769
490,-664,3.90771,13.2842,0,0,0,0,0,0,0,-1,1714,1688,3.90776,-13.2841
497,-664,0,0,0,0,0,0,0,0,0,-1,1721,1688,0,0
504,-664,0,0,0,0,0,0,0,0,0,-1,1728,1688,0,0
511,-664,0,0,0,0,0,0,0,0,0,-1,1735,1688,0,0
518,-664,0,0,0,0,0,0,0,0,0,-1,1742,1688,0,0
525,-664,0,0,0,0,0,0,0,0,0,-1,1749,1688,0,0
532,-664,0,0,0,0,0,0,0,0,0,-1,1756,1688,0,0
539,-664,0,0,0,0,0,0,0,0,0,-1,1763,1688,0,0
546,-664,0,0,0,0,0,0,0,0,0,-1,1770,1688,0,0
553,-664,0,0,0,0,0,0,0,0,0,-1,1777,1688,0,0
560,-664,0,0,0,0,0,0,0,0,0,-1,1784,1688,0,0
567,-664,0,0,0,0,0,0,0,0,0,-1,1791,1688,0,0
574,-664,0,0,0,0,0,0,0,0,0,-1,1798,1688,0,0
581,-664,0,0,0,0,0,0,0,0,0,-1,1805,1688,0,0
588,-664,0,0,0,0,0,0,0,0,0,-1,1812,1688,0,0
595,-664,0,0,0,0,0,0,0,0,0,-1,1819,1688,0,0
602,-664,0,0,0,0,0,0,0,0,0,-1,1826,1688,0,0
609,-664,0,0,0,0,0,0,0,0,0,-1,1833,1688,0,0
616,-664,0,0,0,0,0,0,0,0,0,-1,1840,1688,0,0
623,-664,0,0,0,0,0,0,0,0,0,-1,1847,1688,0,0
630,-664,0,0,0,0,0,0,0,0,0,-1,1854,1688,0,0
637,-664,0,0,0,0,0,0,0,0,0,-1,1861,1688,0,0
644,-664,0,0,0,0,0,0,0,0,0,-1,1868,1688,0,0
651,-664,0,0,0,0,0,0,0,0,0,-1,1875,1688,0,0
658,-664,0,0,0,0,0,0,0,0,0,-1,1882,1688,0,0
665,-664,0,0,0,0,0,0,0,0,0,-1,1889,1688,0,0
672,-664,0,0,0,0,0,0,0,0,0,-1,1896,1688,0,0
679,-664,0,0,0,0,0,0,0,0,0,-1,1903,1688,0,0
686,-664,0,0,0,0,0,0,0,0,0,-1,1910,1688,0,0
693,-664,0,0,0,0,0,0,0,0,0,-1,1917,1688,0,0
700,-664,0,0,0,0,0,0,0,0,0,-1,1924,1688,0,0
707,-664,0,0,0,0,0,0,0,0,0,-1,1931,1688,0,0
714,-664,0,0,0,0,0,0,0,0,0,-1,1938,1688,0,0
721,-664,0,0,0,0,0,0,0,0,0,-1,1945,1688,0,0
728,-664,0,0,0,0,0,0,0,0,0,-1,1952,1688,0,0
735,-664,0,0,0,0,0,0,0,0,0,-1,1959,1688,0,0
742,-664,0,0,0,0,0,0,0,0,0,-1,1966,1688,0,0
749,-664,0,0,0,0,0,0,0,0,0,-1,1973,1688,0,0
756,-664,0,0,0,0,0,0,0,0,0,-1,1980,1688,0,0
763,-664,0,0,0,0,0,0,0,0,0,-1,1987,1688,0,0
770,-664,0,0,0,0,0,0,0,0,0,-1,1994,1688,0,0
777,-664,0,0,0,0,0,0,0,0,0,-1,2001,1688,0,0
784,-664,0,0,0,0,0,0,0,0,0,-1,2008,1688,0,0
791,-664,0,0,0,0,0,0,0,0,0,-1,2015,1688,0,0
798,-664,0,0,0,0,0,0,0,0,0,-1,2022,1688,0,0
805,-664,0,0,0,0,0,0,0,0,0,-1,2029,1688,0,0
812,-664,0,0,0,0,0,0,0,0,0,-1,2036,1688,0,0
-700,-671,0,0,0,0,0,0,0,0,0,-1,524,1695,0,0
-693,-671,0,0,0,0,0,0,0,0,0,-1,531,1695,0,0
-686,-671,0,0,0,0,0,0,0,0,0,-1,538,1695,0,0
-679,-671,0,0,0,0,0,0,0,0,0,-1,545,1695,0,0
-672,-671,0,0,0,0,0,0,0,0,0,-1,552,1695,0,0
-665,-671,0,0,0,0,0,0,0,0,0,-1,559,1695,0,0
-658,-671,0,0,0,0,0,0,0,0,0,-1,566,1695,0,0
-651,-671,0,0,0,0,0,0,0,0,0,-1,573,1695,0,0
-644,-671,0,0,0,0,0,0,0,0,0,-1,580,1695,0,0
-637,-671,0,0,0,0,0,0,0,0,0,-1,587,1695,0,0
-630,-671,0,0,0,0,0,0,0,0,0,-1,594,1695,0,0
-623,-671,0,0,0,0,0,0,0,0,0,-1,601,1695,0,0
-616,-671,0,0,0,0,0,0,0,0,0,-1,608,1695,0,0
-609,-671,0,0,0,0,0,0,0,0,0,-1,615,1695,0,0
-602,-671,0,0,0,0,0,0,0,0,0,-1,622,1695,0,0
-595,-671,0,0,0,0,0,0,0,0,0,-1,629,1695,0,0
-588,-671,0,0,0,0,0,0,0,0,0,-1,636,1695,0,0
-581,-671,0,0,0,0,0,0,0,0,0,-1,643,1695,0,0
-574,-671,0,0,0,0,0,0,0,0,0,-1,650,1695,0,0
-567,-671,0,0,0,0,0,0,0,0,0,-1,657,1695,0,0
-560,-671,0,0,0,0,0,0,0,0,0,-1,664,1695,0,0
-553,-671,0,0,0,0,0,0,0,0,0,-1,671,1695,0,0
-546,-671,0,0,0,0,0,0,0,0,0,-1,678,1695,0,0
-539,-671,0,0,0,0,0,0,0,0,0,-1,685,1695,0,0
-532,-671,0,0,0,0,0,0,0,0,0,-1,692,1695,0,0
-525,-671,0,0,0,0,0,0,0,0,0,-1,699,1695,0,0
-518,-671,0,0,0,0,0,0,0,0,0,-1,706,1695,0,0
-511,-671,0,0,0,0,0,0,0,0,0,-1,713,1695,0,0
-504,-671,0,0,0,0,0,0,0,0,0,-1,720,1695,0,0
-497,-671,0,0,0,0,0,0,0,0,0,-1,727,1695,0,0
-490,-671,0,0,0,0,0,0,0,0,0,-1,734,1695,0,0
-483,-671,0,0,0,0,0,0,0,0,0,-1,741,1695,0,0
-476,-671,0,0,0,0,0,0,0,0,0,-1,748,1695,0,0
-469,-671,0,0,0,0,0,0,0,0,0,-1,755,1695,0,0
-462,-671,0,0,0,0,0,0,0,0,0,-1,762,1695,0,0
-455,-671,0,0,0,0,0,0,0,0,0,-1,769,1695,0,0
-448,-671,0,0,0,0,0,0,0,0,0,-1,776,1695,0,0
-441,-671,0,0,0,0,0,0,0,0,0,-1,783,1695,0,0
-434,-671,0,0,0,0,0,0,0,0,0,-1,790,1695,0,0
-427,-671,0,0,0,0,0,0,0,0,0,-1,797,1695,0,0
-420,-671,0,0,0,0,0,0,0,0,0,-1,804,1695,0,0
-413,-671,0,0,0,0,0,0,0,0,0,-1,811,1695,0,0
-406,-671,0,0,0,0,0,0,0,0,0,-1,818,1695,0,0
-399,-671,0,0,0,0,0,0,0,0,0,-1,825,1695,0,0
-392,-671,0,0,0,0,0,0,0,0,0,-1,832,1695,0,0
-385,-671,0,0,0,0,0,0,0,0,0,-1,839,1695,0,0
-378,-671,0,0,0,0,0,0,0,0,0,-1,846,1695,0,0
-371,-671,0,0,0,0,0,0,0,0,0,-1,853,1695,0,0
-364,-671,-4.18738,7.51416,0,0,0,0,0,0,0,-1,860,1695,-4.18739,-7.51419
-357,-671,-5.02393,6.07129,0,0,0,0,0,0,0,-1,867,1695,-5.0239,-6.07135
-350,-671,8.03021,46.2139,0,0,0,0,0,0,0,-1,874,1695,8.03024,-46.2139
-343,-671,7.2002,45.9105,0,0,0,0,0,0,0,-1,881,1695,7.20021,-45.9105
-336,-671,3.61957,62.0797,0,0,0,0,0,0,0,-1,888,1695,3.61955,-62.0797
-329,-671,3.79718,62.5812,0,0,0,0,0,0,0,-1,895,1695,3.79718,-62.5812
-322,-671,5.74951,47.1416,0,0,0,0,0,0,0,-1,902,1695,5.74954,-47.1416
-315,-671,6.55444,54.9858,0,0,0,0,0,0,0,-1,909,1695,6.55444,-54.9858
-308,-671,5.88354,55.9731,0,0,0,0,0,0,0,-1,916,1695,5.88355,-55.9731
-301,-671,4.41486,57.2842,0,0,0,0,0,0,0,-1,923,1695,4.41487,-57.2842
-294,-671,1.25769,113.784,0,0,0,0,0,0,0,-1,930,1695,1.25769,-113.784
-287,-671,-1.98596,183.505,0,0,0,0,0,0,0,-1,937,1695,-1.98599,-183.505
-280,-671,-2.64355,204.505,0,0,0,0,0,0,0,-1,944,1695,-2.64353,-204.505
-273,-671,-2.99951,219.975,0,0,0,0,0,0,0,-1,951,1695,-2.99951,-219.975
-266,-671,-4.0329,228.571,0,0,0,0,0,0,0,-1,958,1695,-4.03289,-228.571
-259,-671,-10.0388,254.771,0,0,0,0,0,0,0,-1,965,1695,-10.0388,-254.771
-252,-671,-10.6486,258.51,0.019737,0.00289611,-0.0112786,0.0253917,-0.00275861,-0.464742,0.0179183,0.0438792,972,1695,-10.6486,-258.51
-245,-671,-11.2814,261.747,0.023022,0.00218004,-0.0138661,0.0299465,-0.00474446,-0.463154,0.0217193,0.0279737,979,1695,-11.2814,-261.747
-238,-671,-11.8145,264.869,0.0258528,0.0012986,-0.0159489,0.0337026,-0.00655129,-0.45738,0.0249407,0.024889,986,1695,-11.8145,-264.869
-231,-671,-12.3934,267.915,0.0289591,0.000483713,-0.01784,0.0375463,-0.00810352,-0.448615,0.0281239,0.021633,993,1695,-12.3934,-267.915
-224,-671,-12.8033,270.811,0.0319627,-0.000917461,-0.0196399,0.0411352,-0.0100899,-0.436926,0.0313331,0.020583,1000,1695,-12.8033,-270.811
-217,-671,-13.1842,273.729,0.0350706,-0.00211943,-0.0210114,0.0445336,-0.0115824,-0.423166,0.0342098,0.0196438,1007,1695,-13.1842,-273.729
-210,-671,-13.5469,276.58,0.0382114,-0.00332299,-0.0223569,0.0479582,-0.0130698,-0.411122,0.0371041,0.0175522,1014,1695,-13.5469,-276.58
-203,-671,-13.8933,279.48,0.0415174,-0.00484394,-0.0236272,0.0514364,-0.0147629,-0.397469,0.0401275,0.0283271,1021,1695,-13.8933,-279.48
-196,-671,-14.0969,282.158,0.0452436,-0.00615292,-0.0247373,0.0552152,-0.0161245,-0.383174,0.0431999,0.028878,1028,1695,-14.0968,-282.158
-189,-671,-14.245,284.992,0.0495206,-0.00762042,-0.0259121,0.0595209,-0.0176208,-0.368322,0.0466764,0.0248291,1035,1695,-14.245,-284.992
-182,-671,-14.4738,287.531,0.0541533,-0.00887399,-0.0272384,0.0642934,-0.0190142,-0.35638,0.0504102,0.0194266,1042,1695,-14.4737,-287.531
-175,-671,-14.5844,290.038,0.0586616,-0.00990085,-0.0285829,0.0690142,-0.0202535,-0.3475,0.0540409,0.0232271,1049,1695,-14.5843,-290.038
-168,-671,-14.6317,292.535,0.0629893,-0.0109675,-0.0298233,0.073517,-0.0214952,-0.339348,0.0575309,0.0288538,1056,1695,-14.6317,-292.535
-161,-671,-14.7576,294.937,0.0670717,-0.0119422,-0.030986,0.0777736,-0.0226442,-0.332553,0.0608189,0.0231683,1063,1695,-14.7575,-294.937
-154,-671,-14.5494,297.315,0.0705304,-0.0128573,-0.032141,0.0814808,-0.0238077,-0.328366,0.0637558,0.0232335,1070,1695,-14.5495,-297.315
-147,-671,-14.4595,299.598,0.0740263,-0.0132815,-0.0335477,0.0854279,-0.0246831,-0.327616,0.0667194,0.0209129,1077,1695,-14.4594,-299.598
-140,-671,-14.2676,301.808,0.076946,-0.0142874,-0.034623,0.0885974,-0.0259388,-0.324618,0.0693475,0.0393018,1084,1695,-14.2675,-301.808
-133,-671,-14.4115,304.116,0,0,0,0,0,0,0,-1,1091,1695,-14.4114,-304.116
-126,-671,-14.4186,306.538,0,0,0,0,0,0,0,-1,1098,1695,-14.4186,-306.538
-119,-671,5.2262,74.2942,0,0,0,0,0,0,0,-1,1105,1695,5.22624,-74.2942
-112,-671,6.58704,44.6255,0,0,0,0,0,0,0,-1,1112,1695,6.58701,-44.6255
-105,-671,7.33252,41.3418,0,0,0,0,0,0,0,-1,1119,1695,7.33247,-41.3418
-98,-671,6.34534,45.6299,0,0,0,0,0,0,0,-1,1126,1695,6.34533,-45.6299
-91,-671,6.40063,38.2443,0,0,0,0,0,0,0,-1,1133,1695,6.40059,-38.2442
-84,-671,5.4209,26.2415,0,0,0,0,0,0,0,-1,1140,1695,5.42096,-26.2414
-77,-671,4.31763,16.489,0,0,0,0,0,0,0,-1,1147,1695,4.31757,-16.489
-70,-671,3.06067,10.7737,0,0,0,0,0,0,0,-1,1154,1695,3.0607,-10.7737
-63,-671,2.94592,6.90198,0,0,0,0,0,0,0,-1,1161,1695,2.94594,-6.90198
-56,-671,-3.07678,2.87976,0,0,0,0,0,0,0,-1,1168,1695,-3.07675,-2.87979
-49,-671,-1.05957,4.76917,0,0,0,0,0,0,0,-1,1175,1695,-1.05958,-4.76921
-42,-671,0.539307,3.7865,0,0,0,0,0,0,0,-1,1182,1695,0.539266,-3.78648
-35,-671,-0.272461,0.347534,0,0,0,0,0,0,0,-1,1189,1695,-0.272434,-0.347569
-28,-671,-10.4878,17.2009,0,0,0,0,0,0,0,-1,1196,1695,-10.4878,-17.2009
-21,-671,26.4985,330.171,0,0,0,0,0,0,0,-1,1203,1695,26.4985,-330.171
-14,-671,25.7826,330.145,0,0,0,0,0,0,0,-1,1210,1695,25.7826,-330.145
-7,-671,24.9868,330.103,0,0,0,0,0,0,0,-1,1217,1695,24.9869,-330.103
0,-671,24.1536,330.017,0,0,0,0,0,0,0,-1,1224,1695,24.1536,-330.017
7,-671,23.5344,330.074,0,0,0,0,0,0,0,-1,1231,1695,23.5345,-330.074
14,-671,22.5813,330.112,0,0,0,0,0,0,0,-1,1238,1695,22.5813,-330.112
21,-671,21.2909,330.099,0,0,0,0,0,0,0,-1,1245,1695,21.2909,-330.099
28,-671,19.964,330.193,0,0,0,0,0,0,0,-1,1252,1695,19.964,-330.193
35,-671,18.7203,329.98,0,0,0,0,0,0,0,-1,1259,1695,18.7204,-329.98
42,-671,17.5306,330.035,0,0,0,0,0,0,0,-1,1266,1695,17.5306,-330.035
49,-671,16.2233,330.387,0,0,0,0,0,0,0,-1,1273,1695,16.2233,-330.387
56,-671,14.858,330.637,0,0,0,0,0,0,0,-1,1280,1695,14.858,-330.637
63,-671,13.5571,331,0,0,0,0,0,0,0,-1,1287,1695,13.5572,-331
70,-671,12.201,331.176,0,0,0,0,0,0,0,-1,1294,1695,12.2011,-331.176
77,-671,11.1721,331.078,0,0,0,0,0,0,0,-1,1301,1695,11.1721,-331.078
84,-671,10.3329,331.368,0,0,0,0,0,0,0,-1,1308,1695,10.3329,-331.368
91,-671,10.2109,331.694,0,0,0,0,0,0,0,-1,1315,1695,10.2109,-331.694
98,-671,9.35522,331.737,0,0,0,0,0,0,0,-1,1322,1695,9.3552,-331.737
105,-671,8.33337,331.719,0,0,0,0,0,0,0,-1,1329,1695,8.33332,-331.719
112,-671,7.0072,332.108,0,0,0,0,0,0,0,-1,1336,1695,7.00721,-332.108
119,-671,6.12598,332.117,0,0,0,0,0,0,0,-1,1343,1695,6.126,-332.117
126,-671,5.22083,332.154,0,0,0,0,0,0,0,-1,1350,1695,5.22077,-332.154
133,-671,3.69116,329.105,0,0,0,0,0,0,0,-1,1357,1695,3.69119,-329.105
140,-671,3.90625,327.944,0,0,0,0,0,0,0,-1,1364,1695,3.90621,-327.944
147,-671,4.42554,326.413,0,0,0,0,0,0,0,-1,1371,1695,4.42553,-326.413
154,-671,5.1687,325.039,0,0,0,0,0,0,0,-1,1378,1695,5.16868,-325.039
161,-671,4.49292,4.91272,0,0,0,0,0,0,0,-1,1385,1695,4.49297,-4.91273
168,-671,5.17639,6.1416,0,0,0,0,0,0,0,-1,1392,1695,5.1764,-6.14164
175,-671,5.6731,1.64685,0,0,0,0,0,0,0,-1,1399,1695,5.67313,-1.64691
182,-671,5.56812,1.71692,0,0,0,0,0,0,0,-1,1406,1695,5.56809,-1.71686
189,-671,6.98315,6.36169,0,0,0,0,0,0,0,-1,1413,1695,6.98312,-6.36175
196,-671,5.38123,5.69775,0,0,0,0,0,0,0,-1,1420,1695,5.38125,-5.69769
203,-671,5.95117,8.11658,0,0,0,0,0,0,0,-1,1427,1695,5.9512,-8.11662
210,-671,4.73596,8.39624,0,0,0,0,0,0,0,-1,1434,1695,4.736,-8.39618
217,-671,5.37097,11.863,0,0,0,0,0,0,0,-1,1441,1695,5.37094,-11.863
224,-671,5.08167,13.6694,0,0,0,0,0,0,0,-1,1448,1695,5.08165,-13.6695
231,-671,5.66663,15.3348,0,0,0,0,0,0,0,-1,1455,1695,5.66667,-15.3349
238,-671,6.32959,16.2036,0,0,0,0,0,0,0,-1,1462,1695,6.32961,-16.2037
245,-671,11.9244,57.5367,0,0,0,0,0,0,0,-1,1469,1695,11.9245,-57.5367
252,-671,14.2122,112.518,0,0,0,0,0,0,0,-1,1476,1695,14.2122,-112.518
259,-671,24.5594,308.517,0,0,0,0,0,0,0,-1,1483,1695,24.5595,-308.517
266,-671,24.8871,306.341,0,0,0,0,0,0,0,-1,1490,1695,24.8871,-306.341
273,-671,25.2065,304.203,0,0,0,0,0,0,0,-1,1497,1695,25.2065,-304.203
280,-671,25.4027,302.196,0.0689507,0.000488167,0.0191569,0.0739466,-0.00450766,0.255104,0.0508669,0.042067,1504,1695,25.4027,-302.196
287,-671,25.3197,300.274,0.0648393,0.00168839,0.0195295,0.0703908,-0.0038631,0.276956,0.0482665,0.0376425,1511,1695,25.3198,-300.274
294,-671,25.3088,297.757,0.0607593,0.00228158,0.0199906,0.0669398,-0.00389896,0.299851,0.0459814,0.0381652,1518,1695,25.3088,-297.757
301,-671,25.4906,294.961,0.0565652,0.00278665,0.0202907,0.0633619,-0.00401003,0.323219,0.0436394,0.0292101,1525,1695,25.4907,-294.961
308,-671,25.5785,292.43,0.0523441,0.00316898,0.0205532,0.0598031,-0.00428999,0.348131,0.0413729,0.0236751,1532,1695,25.5784,-292.43
315,-671,25.4628,289.894,0.0483846,0.00353476,0.0207523,0.0565135,-0.00459412,0.37334,0.0392966,0.0223236,1539,1695,25.4627,-289.894
322,-671,25.2561,287.378,0.0446922,0.00382258,0.0204681,0.0531801,-0.00466532,0.393106,0.0371064,0.0210335,1546,1695,25.2561,-287.378
329,-671,24.9968,284.809,0.0412254,0.00414191,0.0197991,0.0498093,-0.00444197,0.40909,0.0347815,0.0205801,1553,1695,24.9968,-284.809
336,-671,24.7438,282.073,0.038106,0.00460363,0.0187657,0.0465094,-0.0037998,0.421029,0.0323474,0.0181052,1560,1695,24.7438,-282.072
343,-671,24.4333,279.284,0.0349598,0.00498514,0.0175293,0.0430354,-0.00309043,0.431707,0.0297739,0.0293644,1567,1695,24.4334,-279.284
350,-671,23.983,276.364,0.0318466,0.00556552,0.0160405,0.0394419,-0.00202972,0.442226,0.0269966,0.0314466,1574,1695,23.983,-276.364
357,-671,23.7351,273.403,0.028815,0.00611773,0.0142248,0.0356635,-0.000730747,0.448696,0.024023,0.0229409,1581,1695,23.7351,-273.403
364,-671,23.2668,270.459,0.0258689,0.00651925,0.0122807,0.0318279,0.00056025,0.451766,0.0210344,0.0178917,1588,1695,23.2669,-270.459
371,-671,22.7212,267.491,0.0227402,0.00706662,0.0103727,0.0279038,0.00190311,0.461885,0.0180017,0.0186387,1595,1695,22.7212,-267.491
378,-671,22.1177,264.376,0.0192988,0.00743276,0.0085333,0.0237589,0.00297261,0.481624,0.0149473,0.0168333,1602,1695,22.1177,-264.376
385,-671,21.4711,261.078,0.015788,0.00765638,0.00644929,0.0193461,0.00409826,0.504153,0.0117715,0.0263281,1609,1695,21.4711,-261.078
392,-671,20.804,257.69,0,0,0,0,0,0,0,-1,1616,1695,20.8039,-257.69
399,-671,20.0292,254.713,0,0,0,0,0,0,0,-1,1623,1695,20.0292,-254.713
406,-671,10.4132,246.211,0,0,0,0,0,0,0,-1,1630,1695,10.4132,-246.211
413,-671,7.39368,235.727,0,0,0,0,0,0,0,-1,1637,1695,7.39365,-235.727
420,-671,7.49219,164.415,0,0,0,0,0,0,0,-1,1644,1695,7.49214,-164.415
427,-671,12.4595,89.1311,0,0,0,0,0,0,0,-1,1651,1695,12.4595,-89.1311
434,-671,12.6877,85.8525,0,0,0,0,0,0,0,-1,1658,1695,12.6877,-85.8525
441,-671,12.4281,77.4683,0,0,0,0,0,0,0,-1,1665,1695,12.4281,-77.4682
448,-671,11.6979,39.1995,0,0,0,0,0,0,0,-1,1672,1695,11.6979,-39.1994
455,-671,11.5221,39.0929,0,0,0,0,0,0,0,-1,1679,1695,11.5221,-39.0929
462,-671,5.86255,4.47961,0,0,0,0,0,0,0,-1,1686,1695,5.8625,-4.4796
469,-671,3.71301,3.76978,0,0,0,0,0,0,0,-1,1693,1695,3.71297,-3.76974
476,-671,3.75574,3.18848,0,0,0,0,0,0,0,-1,1700,1695,3.7558,-3.18847
483,-671,7.81824,12.1041,0,0,0,0,0,0,0,-1,1707,1695,7.81826,-12.1041
490,-671,0,0,0,0,0,0,0,0,0,-1,1714,1695,0,0
497,-671,0,0,0,0,0,0,0,0,0,-1,1721,1695,0,0
504,-671,0,0,0,0,0,0,0,0,0,-1,1728,1695,0,0
511,-671,0,0,0,0,0,0,0,0,0,-1,1735,1695,0,0
518,-671,0,0,0,0,0,0,0,0,0,-1,1742,1695,0,0
525,-671,0,0,0,0,0,0,0,0,0,-1,1749,1695,0,0
532,-671,0,0,0,0,0,0,0,0,0,-1,1756,1695,0,0
539,-671,0,0,0,0,0,0,0,0,0,-1,1763,1695,0,0
546,-671,0,0,0,0,0,0,0,0,0,-1,1770,1695,0,0
553,-671,0,0,0,0,0,0,0,0,0,-1,1777,1695,0,0
560,-671,0,0,0,0,0,0,0,0,0,-1,1784,1695,0,0
567,-671,0,0,0,0,0,0,0,0,0,-1,1791,1695,0,0
574,-671,0,0,0,0,0,0,0,0,0,-1,1798,1695,0,0
581,-671,0,0,0,0,0,0,0,0,0,-1,1805,1695,0,0
588,-671,0,0,0,0,0,0,0,0,0,-1,1812,1695,0,0
595,-671,0,0,0,0,0,0,0,0,0,-1,1819,1695,0,0
602,-671,0,0,0,0,0,0,0,0,0,-1,1826,1695,0,0
609,-671,0,0,0,0,0,0,0,0,0,-1,1833,1695,0,0
616,-671,0,0,0,0,0,0,0,0,0,-1,1840,1695,0,0
623,-671,0,0,0,0,0,0,0,0,0,-1,1847,1695,0,0
630,-671,0,0,0,0,0,0,0,0,0,-1,1854,1695,0,0
637,-671,0,0,0,0,0,0,0,0,0,-1,1861,1695,0,0
644,-671,0,0,0,0,0,0,0,0,0,-1,1868,1695,0,0
651,-671,0,0,0,0,0,0,0,0,0,-1,1875,1695,0,0
658,-671,0,0,0,0,0,0,0,0,0,-1,1882,1695,0,0
665,-671,0,0,0,0,0,0,0,0,0,-1,1889,1695,0,0
672,-671,0,0,0,0,0,0,0,0,0,-1,1896,1695,0,0
679,-671,0,0,0,0,0,0,0,0,0,-1,1903,1695,0,0
686,-671,0,0,0,0,0,0,0,0,0,-1,1910,1695,0,0
693,-671,0,0,0,0,0,0,0,0,0,-1,1917,1695,0,0
700,-671,0,0,0,0,0,0,0,0,0,-1,1924,1695,0,0
707,-671,0,0,0,0,0,0,0,0,0,-1,1931,1695,0,0
714,-671,0,0,0,0,0,0,0,0,0,-1,1938,1695,0,0
721,-671,0,0,0,0,0,0,0,0,0,-1,1945,1695,0,0
728,-671,0,0,0,0,0,0,0,0,0,-1,1952,1695,0,0
735,-671,0,0,0,0,0,0,0,0,0,-1,1959,1695,0,0
742,-671,0,0,0,0,0,0,0,0,0,-1,1966,1695,0,0
749,-671,0,0,0,0,0,0,0,0,0,-1,1973,1695,0,0
756,-671,0,0,0,0,0,0,0,0,0,-1,1980,1695,0,0
763,-671,0,0,0,0,0,0,0,0,0,-1,1987,1695,0,0
770,-671,0,0,0,0,0,0,0,0,0,-1,1994,1695,0,0
777,-671,0,0,0,0,0,0,0,0,0,-1,2001,1695,0,0
784,-671,0,0,0,0,0,0,0,0,0,-1,2008,1695,0,0
791,-671,0,0,0,0,0,0,0,0,0,-1,2015,1695,0,0
798,-671,0,0,0,0,0,0,0,0,0,-1,2022,1695,0,0
805,-671,0,0,0,0,0,0,0,0,0,-1,2029,1695,0,0
812,-671,0,0,0,0,0,0,0,0,0,-1,2036,1695,0,0
-700,-678,0,0,0,0,0,0,0,0,0,-1,524,1702,0,0
-693,-678,0,0,0,0,0,0,0,0,0,-1,531,1702,0,0
-686,-678,0,0,0,0,0,0,0,0,0,-1,538,1702,0,0
-679,-678,0,0,0,0,0,0,0,0,0,-1,545,1702,0,0
-672,-678,0,0,0,0,0,0,0,0,0,-1,552,1702,0,0
-665,-678,0,0,0,0,0,0,0,0,0,-1,559,1702,0,0
-658,-678,0,0,0,0,0,0,0,0,0,-1,566,1702,0,0
-651,-678,0,0,0,0,0,0,0,0,0,-1,573,1702,0,0
-644,-678,0,0,0,0,0,0,0,0,0,-1,580,1702,0,0
-637,-678,0,0,0,0,0,0,0,0,0,-1,587,1702,0,0
-630,-678,0,0,0,0,0,0,0,0,0,-1,594,1702,0,0
-623,-678,0,0,0,0,0,0,0,0,0,-1,601,1702,0,0
-616,-678,0,0,0,0,0,0,0,0,0,-1,608,1702,0,0
-609,-678,0,0,0,0,0,0,0,0,0,-1,615,1702,0,0
-602,-678,0,0,0,0,0,0,0,0,0,-1,622,1702,0,0
-595,-678,0,0,0,0,0,0,0,0,0,-1,629,1702,0,0
-588,-678,0,0,0,0,0,0,0,0,0,-1,636,1702,0,0
-581,-678,0,0,0,0,0,0,0,0,0,-1,643,1702,0,0
-574,-678,0,0,0,0,0,0,0,0,0,-1,650,1702,0,0
-567,-678,0,0,0,0,0,0,0,0,0,-1,657,1702,0,0
-560,-678,0,0,0,0,0,0,0,0,0,-1,664,1702,0,0
-553,-678,0,0,0,0,0,0,0,0,0,-1,671,1702,0,0
-546,-678,0,0,0,0,0,0,0,0,0,-1,678,1702,0,0
-539,-678,0,0,0,0,0,0,0,0,0,-1,685,1702,0,0
-532,-678,0,0,0,0,0,0,0,0,0,-1,692,1702,0,0
-525,-678,0,0,0,0,0,0,0,0,0,-1,699,1702,0,0
-518,-678,0,0,0,0,0,0,0,0,0,-1,706,1702,0,0
-511,-678,0,0,0,0,0,0,0,0,0,-1,713,1702,0,0
-504,-678,0,0,0,0,0,0,0,0,0,-1,720,1702,0,0
-497,-678,0,0,0,0,0,0,0,0,0,-1,727,1702,0,0
-490,-678,0,0,0,0,0,0,0,0,0,-1,734,1702,0,0
-483,-678,0,0,0,0,0,0,0,0,0,-1,741,1702,0,0
-476,-678,0,0,0,0,0,0,0,0,0,-1,748,1702,0,0
-469,-678,0,0,0,0,0,0,0,0,0,-1,755,1702,0,0
-462,-678,0,0,0,0,0,0,0,0,0,-1,762,1702,0,0
-455,-678,0,0,0,0,0,0,0,0,0,-1,769,1702,0,0
-448,-678,0,0,0,0,0,0,0,0,0,-1,776,1702,0,0
-441,-678,0,0,0,0,0,0,0,0,0,-1,783,1702,0,0
-434,-678,0,0,0,0,0,0,0,0,0,-1,790,1702,0,0
-427,-678,0,0,0,0,0,0,0,0,0,-1,797,1702,0,0
-420,-678,0,0,0,0,0,0,0,0,0,-1,804,1702,0,0
-413,-678,0,0,0,0,0,0,0,0,0,-1,811,1702,0,0
-406,-678,0,0,0,0,0,0,0,0,0,-1,818,1702,0,0
-399,-678,0,0,0,0,0,0,0,0,0,-1,825,1702,0,0
-392,-678,0,0,0,0,0,0,0,0,0,-1,832,1702,0,0
-385,-678,0,0,0,0,0,0,0,0,0,-1,839,1702,0,0
-378,-678,0,0,0,0,0,0,0,0,0,-1,846,1702,0,0
-371,-678,0,0,0,0,0,0,0,0,0,-1,853,1702,0,0
-364,-678,0,0,0,0,0,0,0,0,0,-1,860,1702,0,0
-357,-678,0,0,0,0,0,0,0,0,0,-1,867,1702,0,0
-350,-678,-5.79944,6.11865,0,0,0,0,0,0,0,-1,874,1702,-5.79942,-6.11864
-343,-678,8.83331,46.1378,0,0,0,0,0,0,0,-1,881,1702,8.83334,-46.1378
-336,-678,7.73517,46.2286,0,0,0,0,0,0,0,-1,888,1702,7.73516,-46.2286
-329,-678,6.11768,46.3923,0,0,0,0,0,0,0,-1,895,1702,6.11768,-46.3923
-322,-678,8.50494,35.5048,0,0,0,0,0,0,0,-1,902,1702,8.50495,-35.5047
-315,-678,6.45313,55.4424,0,0,0,0,0,0,0,-1,909,1702,6.45314,-55.4424
-308,-678,6.78906,55.7052,0,0,0,0,0,0,0,-1,916,1702,6.78906,-55.7052
-301,-678,4.56702,57.2437,0,0,0,0,0,0,0,-1,923,1702,4.56702,-57.2436
-294,-678,4.51898,57.8069,0,0,0,0,0,0,0,-1,930,1702,4.51898,-57.8069
-287,-678,3.15588,110.075,0,0,0,0,0,0,0,-1,937,1702,3.15587,-110.075
-280,-678,2.88605,111.566,0,0,0,0,0,0,0,-1,944,1702,2.88607,-111.566
-273,-678,2.45282,112.753,0,0,0,0,0,0,0,-1,951,1702,2.45283,-112.753
-266,-678,-1.01245,201.942,0,0,0,0,0,0,0,-1,958,1702,-1.01246,-201.942
-259,-678,-1.6123,227.005,0,0,0,0,0,0,0,-1,965,1702,-1.61228,-227.005
-252,-678,-7.34998,259.24,0,0,0,0,0,0,0,-1,972,1702,-7.34997,-259.24
-245,-678,-8.06305,262.474,0,0,0,0,0,0,0,-1,979,1702,-8.06308,-262.474
-238,-678,-8.62341,265.595,0,0,0,0,0,0,0,-1,986,1702,-8.62339,-265.595
-231,-678,-9.25757,268.548,0.0214874,0.00302595,-0.0131614,0.0283324,-0.00381907,-0.479584,0.0202815,0.0206032,993,1702,-9.25756,-268.548
-224,-678,-9.69305,271.486,0.0244427,0.00150542,-0.0151242,0.0319549,-0.00600673,-0.461003,0.0235621,0.0184178,1000,1702,-9.69308,-271.486
-217,-678,-10.1066,274.414,0.027593,0.000314715,-0.0165859,0.0354275,-0.00751978,-0.441292,0.0264832,0.0194422,1007,1702,-10.1066,-274.414
-210,-678,-10.6039,277.347,0.0303176,-0.00102169,-0.0178532,0.0384024,-0.00910653,-0.425222,0.0291157,0.0215049,1014,1702,-10.6039,-277.347
-203,-678,-10.9196,280.107,0.0329479,-0.00263606,-0.0192748,0.041387,-0.0110752,-0.41269,0.0319299,0.0310908,1021,1702,-10.9196,-280.107
-196,-678,-11.1614,282.87,0.036253,-0.0039184,-0.0204612,0.0448396,-0.0125049,-0.39733,0.0348181,0.0295656,1028,1702,-11.1614,-282.87
-189,-678,-11.4075,285.534,0.0400978,-0.00534588,-0.0216792,0.0487809,-0.014029,-0.38096,0.0380685,0.0170026,1035,1702,-11.4075,-285.534
-182,-678,-11.697,288.135,0.0442872,-0.00668713,-0.0230322,0.0531523,-0.0155522,-0.367421,0.0415995,0.0156875,1042,1702,-11.6971,-288.135
-175,-678,-11.8719,290.667,0.0483914,-0.00793711,-0.0243681,0.05747,-0.0170157,-0.35663,0.045069,0.0177759,1049,1702,-11.872,-290.667
-168,-678,-11.9683,293.135,0.0523114,-0.00911933,-0.0255863,0.0615721,-0.0183801,-0.347275,0.0483536,0.0174777,1056,1702,-11.9683,-293.135
-161,-678,-12.0806,295.548,0.0559395,-0.0101475,-0.0267622,0.0654176,-0.0196256,-0.340376,0.0514176,0.0174816,1063,1702,-12.0805,-295.548
-154,-678,-12.0759,297.937,0.0590947,-0.0110609,-0.0279434,0.0688643,-0.0208305,-0.336336,0.054204,0.0183591,1070,1702,-12.0759,-297.937
-147,-678,-12.109,300.294,0.062277,-0.0117413,-0.0292807,0.0724594,-0.0219236,-0.334669,0.0570364,0.021765,1077,1702,-12.109,-300.294
-140,-678,-11.9259,302.5,0.0650646,-0.0127341,-0.0303064,0.0754769,-0.0231464,-0.330933,0.0595522,0.0209329,1084,1702,-11.9259,-302.5
-133,-678,-11.8513,304.601,0.0663817,-0.0134782,-0.0311202,0.0770765,-0.024173,-0.331017,0.0610584,0.024666,1091,1702,-11.8513,-304.601
-126,-678,-11.8002,306.735,0.0675062,-0.0143609,-0.0320376,0.078553,-0.0254077,-0.332043,0.0625814,0.0326136,1098,1702,-11.8002,-306.735
-119,-678,-11.7909,309.226,0,0,0,0,0,0,0,-1,1105,1702,-11.7909,-309.226
-112,-678,-11.1415,310.545,0,0,0,0,0,0,0,-1,1112,1702,-11.1415,-310.545
-105,-678,-11.2284,312.622,0,0,0,0,0,0,0,-1,1119,1702,-11.2283,-312.622
-98,-678,-10.3281,314.796,0,0,0,0,0,0,0,-1,1126,1702,-10.3281,-314.796
-91,-678,1.9314,131.293,0,0,0,0,0,0,0,-1,1133,1702,1.93142,-131.293
-84,-678,6.58545,36.5073,0,0,0,0,0,0,0,-1,1140,1702,6.58544,-36.5073
-77,-678,5.95154,29.1879,0,0,0,0,0,0,0,-1,1147,1702,5.95156,-29.1878
-70,-678,4.75891,19.6552,0,0,0,0,0,0,0,-1,1154,1702,4.75895,-19.6551
-63,-678,3.41687,11.0365,0,0,0,0,0,0,0,-1,1161,1702,3.41682,-11.0365
-56,-678,1.72388,6.13159,0,0,0,0,0,0,0,-1,1168,1702,1.72388,-6.13157
-49,-678,-0.241699,5.29895,0,0,0,0,0,0,0,-1,1175,1702,-0.241682,-5.29897
-42,-678,0.297119,3.90649,0,0,0,0,0,0,0,-1,1182,1702,0.297139,-3.90655
-35,-678,0.498413,3.64038,0,0,0,0,0,0,0,-1,1189,1702,0.498471,-3.64038
-28,-678,0.132446,3.55994,0,0,0,0,0,0,0,-1,1196,1702,0.132432,-3.55993
-21,-678,5.26782,127.536,0,0,0,0,0,0,0,-1,1203,1702,5.26788,-127.536
-14,-678,25.7504,331.365,0,0,0,0,0,0,0,-1,1210,1702,25.7504,-331.365
-7,-678,24.9701,331.302,0,0,0,0,0,0,0,-1,1217,1702,24.9701,-331.302
0,-678,24.1486,331.237,0,0,0,0,0,0,0,-1,1224,1702,24.1485,-331.237
7,-678,23.1318,331.332,0,0,0,0,0,0,0,-1,1231,1702,23.1318,-331.332
14,-678,22.3223,331.245,0,0,0,0,0,0,0,-1,1238,1702,22.3223,-331.246
21,-678,21.2775,330.975,0,0,0,0,0,0,0,-1,1245,1702,21.2774,-330.975
28,-678,19.9208,330.97,0,0,0,0,0,0,0,-1,1252,1702,19.9208,-330.97
35,-678,18.843,330.652,0,0,0,0,0,0,0,-1,1259,1702,18.843,-330.653
42,-678,17.798,330.786,0,0,0,0,0,0,0,-1,1266,1702,17.798,-330.786
49,-678,16.5013,331.197,0,0,0,0,0,0,0,-1,1273,1702,16.5014,-331.196
56,-678,15.4933,331.385,0,0,0,0,0,0,0,-1,1280,1702,15.4933,-331.385
63,-678,13.448,331.743,0,0,0,0,0,0,0,-1,1287,1702,13.448,-331.743
70,-678,12.4371,331.84,0,0,0,0,0,0,0,-1,1294,1702,12.4372,-331.84
77,-678,11.6049,332.014,0,0,0,0,0,0,0,-1,1301,1702,11.6048,-332.014
84,-678,10.802,332.32,0,0,0,0,0,0,0,-1,1308,1702,10.802,-332.32
91,-678,9.78723,332.708,0,0,0,0,0,0,0,-1,1315,1702,9.78722,-332.708
98,-678,8.85803,332.815,0,0,0,0,0,0,0,-1,1322,1702,8.85808,-332.815
105,-678,7.82336,332.839,0,0,0,0,0,0,0,-1,1329,1702,7.82332,-332.839
112,-678,6.86206,333.061,0,0,0,0,0,0,0,-1,1336,1702,6.8621,-333.061
119,-678,5.90198,333.269,0,0,0,0,0,0,0,-1,1343,1702,5.90199,-333.269
126,-678,4.38867,336.248,0,0,0,0,0,0,0,-1,1350,1702,4.38863,-336.248
133,-678,3.66479,329.082,0,0,0,0,0,0,0,-1,1357,1702,3.66485,-329.082
140,-678,3.9657,327.628,0,0,0,0,0,0,0,-1,1364,1702,3.96565,-327.628
147,-678,4.59619,326.271,0,0,0,0,0,0,0,-1,1371,1702,4.5962,-326.271
154,-678,-0.324707,336.655,0,0,0,0,0,0,0,-1,1378,1702,-0.324709,-336.655
161,-678,8.81226,34.8624,0,0,0,0,0,0,0,-1,1385,1702,8.81229,-34.8624
168,-678,4.21863,5.25781,0,0,0,0,0,0,0,-1,1392,1702,4.21865,-5.25781
175,-678,5.21899,5.9635,0,0,0,0,0,0,0,-1,1399,1702,5.21894,-5.96346
182,-678,7.31262,6.75122,0,0,0,0,0,0,0,-1,1406,1702,7.3126,-6.75123
189,-678,5.96021,6.36853,0,0,0,0,0,0,0,-1,1413,1702,5.96018,-6.36851
196,-678,5.01599,8.15771,0,0,0,0,0,0,0,-1,1420,1702,5.01596,-8.15767
203,-678,4.64771,13.0559,0,0,0,0,0,0,0,-1,1427,1702,4.64766,-13.0559
210,-678,5.6532,18.5957,0,0,0,0,0,0,0,-1,1434,1702,5.65318,-18.5958
217,-678,6.88049,23.4835,0,0,0,0,0,0,0,-1,1441,1702,6.88047,-23.4835
224,-678,8.521,32.0977,0,0,0,0,0,0,0,-1,1448,1702,8.52098,-32.0977
231,-678,9.96838,42.3734,0,0,0,0,0,0,0,-1,1455,1702,9.96844,-42.3734
238,-678,21.3693,314.635,0,0,0,0,0,0,0,-1,1462,1702,21.3693,-314.636
245,-678,22.0234,312.703,0,0,0,0,0,0,0,-1,1469,1702,22.0234,-312.703
252,-678,22.3206,311.067,0,0,0,0,0,0,0,-1,1476,1702,22.3205,-311.067
259,-678,22.4911,308.853,0.0687877,-0.00718759,0.0180226,0.0728462,-0.0112461,0.221493,0.0527142,0.0467296,1483,1702,22.491,-308.853
266,-678,22.7856,306.783,0.066098,-0.00349031,0.0179852,0.0704714,-0.00786375,0.238539,0.0498095,0.040699,1490,1702,22.7856,-306.783
273,-678,23.0997,304.742,0.0627922,-0.000785693,0.0179238,0.0674971,-0.00549056,0.256702,0.0469354,0.0411012,1497,1702,23.0997,-304.742
280,-678,23.2271,302.452,0.0591367,0.000912075,0.0176695,0.0640793,-0.00403051,0.272754,0.0441244,0.0366753,1504,1702,23.227,-302.452
287,-678,23.1765,300.286,0.0552429,0.00207332,0.0176571,0.0605725,-0.00325619,0.293139,0.0415096,0.0340641,1511,1702,23.1765,-300.286
294,-678,23.0485,297.955,0.0514452,0.00281622,0.0176098,0.0571524,-0.00289097,0.313409,0.0391009,0.0384271,1518,1702,23.0485,-297.955
301,-678,22.9597,295.504,0.0475978,0.0033724,0.0174607,0.0536604,-0.00269021,0.334191,0.0367032,0.0268491,1525,1702,22.9597,-295.504
308,-678,22.9054,293.018,0.0438624,0.00378767,0.0172583,0.0502702,-0.00262013,0.355511,0.0344201,0.0201505,1532,1702,22.9054,-293.018
315,-678,22.7415,290.459,0.0403265,0.00421108,0.0169972,0.0470677,-0.00253009,0.377576,0.0322549,0.0197818,1539,1702,22.7415,-290.459
322,-678,22.4519,288.009,0.0369756,0.00464947,0.0163267,0.0437866,-0.00216153,0.395218,0.0299376,0.0215131,1546,1702,22.452,-288.008
329,-678,22.1228,285.415,0.0338365,0.00516117,0.0152967,0.0404644,-0.00146681,0.408875,0.0274783,0.020393,1553,1702,22.1227,-285.415
336,-678,21.8203,282.694,0.0309456,0.00589804,0.0139382,0.0371599,-0.000316327,0.419399,0.0248794,0.019456,1560,1702,21.8203,-282.694
343,-678,21.4792,279.795,0.0280453,0.00656489,0.0123917,0.0337035,0.000906745,0.428335,0.0221729,0.0393872,1567,1702,21.4792,-279.795
350,-678,21.0281,277.044,0.0252582,0.00728967,0.0106363,0.0301968,0.00235101,0.4347,0.0193951,0.0370132,1574,1702,21.0281,-277.044
357,-678,20.6754,274.195,0.0225764,0.00776202,0.00864001,0.0265497,0.00378869,0.431036,0.0165818,0.0218361,1581,1702,20.6754,-274.195
364,-678,20.1863,271.195,0.0199442,0.00815711,0.00657863,0.0228831,0.00521821,0.420136,0.0138477,0.0192346,1588,1702,20.1862,-271.195
371,-678,19.5723,268.101,0.0170513,0.00901446,0.00469256,0.0192109,0.00685486,0.431318,0.011242,0.0316494,1595,1702,19.5723,-268.101
378,-678,18.8853,265.058,0,0,0,0,0,0,0,-1,1602,1702,18.8853,-265.058
385,-678,18.1774,261.733,0,0,0,0,0,0,0,-1,1609,1702,18.1774,-261.733
392,-678,5.26355,239.621,0,0,0,0,0,0,0,-1,1616,1702,5.26353,-239.621
399,-678,4.25818,230.565,0,0,0,0,0,0,0,-1,1623,1702,4.25819,-230.565
406,-678,3.48706,226.056,0,0,0,0,0,0,0,-1,1630,1702,3.48708,-226.056
413,-678,8.50085,130.524,0,0,0,0,0,0,0,-1,1637,1702,8.50083,-130.524
420,-678,11.8315,90.0081,0,0,0,0,0,0,0,-1,1644,1702,11.8316,-90.008
427,-678,10.0541,38.9548,0,0,0,0,0,0,0,-1,1651,1702,10.0541,-38.9548
434,-678,10.1094,38.722,0,0,0,0,0,0,0,-1,1658,1702,10.1094,-38.7221
441,-678,11.6007,39.4658,0,0,0,0,0,0,0,-1,1665,1702,11.6007,-39.4658
448,-678,11.344,38.9084,0,0,0,0,0,0,0,-1,1672,1702,11.344,-38.9084
455,-678,5.44678,5.54297,0,0,0,0,0,0,0,-1,1679,1702,5.44676,-5.54294
462,-678,3.86792,2.87402,0,0,0,0,0,0,0,-1,1686,1702,3.86796,-2.87406
469,-678,2.26587,1.98755,0,0,0,0,0,0,0,-1,1693,1702,2.26592,-1.98755
476,-678,0,0,0,0,0,0,0,0,0,-1,1700,1702,0,0
483,-678,0,0,0,0,0,0,0,0,0,-1,1707,1702,0,0
490,-678,0,0,0,0,0,0,0,0,0,-1,1714,1702,0,0
497,-678,0,0,0,0,0,0,0,0,0,-1,1721,1702,0,0
504,-678,0,0,0,0,0,0,0,0,0,-1,1728,1702,0,0
511,-678,0,0,0,0,0,0,0,0,0,-1,1735,1702,0,0
518,-678,0,0,0,0,0,0,0,0,0,-1,1742,1702,0,0
525,-678,0,0,0,0,0,0,0,0,0,-1,1749,1702,0,0
532,-678,0,0,0,0,0,0,0,0,0,-1,1756,1702,0,0
539,-678,0,0,0,0,0,0,0,0,0,-1,1763,1702,0,0
546,-678,0,0,0,0,0,0,0,0,0,-1,1770,1702,0,0
553,-678,0,0,0,0,0,0,0,0,0,-1,1777,1702,0,0
560,-678,0,0,0,0,0,0,0,0,0,-1,1784,1702,0,0
567,-678,0,0,0,0,0,0,0,0,0,-1,1791,1702,0,0
574,-678,0,0,0,0,0,0,0,0,0,-1,1798,1702,0,0
581,-678,0,0,0,0,0,0,0,0,0,-1,1805,1702,0,0
588,-678,0,0,0,0,0,0,0,0,0,-1,1812,1702,0,0
595,-678,0,0,0,0,0,0,0,0,0,-1,1819,1702,0,0
602,-678,0,0,0,0,0,0,0,0,0,-1,1826,1702,0,0
609,-678,0,0,0,0,0,0,0,0,0,-1,1833,1702,0,0
616,-678,0,0,0,0,0,0,0,0,0,-1,1840,1702,0,0
623,-678,0,0,0,0,0,0,0,0,0,-1,1847,1702,0,0
630,-678,0,0,0,0,0,0,0,0,0,-1,1854,1702,0,0
637,-678,0,0,0,0,0,0,0,0,0,-1,1861,1702,0,0
644,-678,0,0,0,0,0,0,0,0,0,-1,1868,1702,0,0
651,-678,0,0,0,0,0,0,0,0,0,-1,1875,1702,0,0
658,-678,0,0,0,0,0,0,0,0,0,-1,1882,1702,0,0
665,-678,0,0,0,0,0,0,0,0,0,-1,1889,1702,0,0
672,-678,0,0,0,0,0,0,0,0,0,-1,1896,1702,0,0
679,-678,0,0,0,0,0,0,0,0,0,-1,1903,1702,0,0
686,-678,0,0,0,0,0,0,0,0,0,-1,1910,1702,0,0
693,-678,0,0,0,0,0,0,0,0,0,-1,1917,1702,0,0
700,-678,0,0,0,0,0,0,0,0,0,-1,1924,1702,0,0
707,-678,0,0,0,0,0,0,0,0,0,-1,1931,1702,0,0
714,-678,0,0,0,0,0,0,0,0,0,-1,1938,1702,0,0
721,-678,0,0,0,0,0,0,0,0,0,-1,1945,1702,0,0
728,-678,0,0,0,0,0,0,0,0,0,-1,1952,1702,0,0
735,-678,0,0,0,0,0,0,0,0,0,-1,1959,1702,0,0
742,-678,0,0,0,0,0,0,0,0,0,-1,1966,1702,0,0
749,-678,0,0,0,0,0,0,0,0,0,-1,1973,1702,0,0
756,-678,0,0,0,0,0,0,0,0,0,-1,1980,1702,0,0
763,-678,0,0,0,0,0,0,0,0,0,-1,1987,1702,0,0
770,-678,0,0,0,0,0,0,0,0,0,-1,1994,1702,0,0
777,-678,0,0,0,0,0,0,0,0,0,-1,2001,1702,0,0
784,-678,0,0,0,0,0,0,0,0,0,-1,2008,1702,0,0
791,-678,0,0,0,0,0,0,0,0,0,-1,2015,1702,0,0
798,-678,0,0,0,0,0,0,0,0,0,-1,2022,1702,0,0
805,-678,0,0,0,0,0,0,0,0,0,-1,2029,1702,0,0
812,-678,0,0,0,0,0,0,0,0,0,-1,2036,1702,0,0
-700,-685,0,0,0,0,0,0,0,0,0,-1,524,1709,0,0
-693,-685,0,0,0,0,0,0,0,0,0,-1,531,1709,0,0
-686,-685,0,0,0,0,0,0,0,0,0,-1,538,1709,0,0
-679,-685,0,0,0,0,0,0,0,0,0,-1,545,1709,0,0
-672,-685,0,0,0,0,0,0,0,0,0,-1,552,1709,0,0
-665,-685,0,0,0,0,0,0,0,0,0,-1,559,1709,0,0
-658,-685,0,0,0,0,0,0,0,0,0,-1,566,1709,0,0
-651,-685,0,0,0,0,0,0,0,0,0,-1,573,1709,0,0
-644,-685,0,0,0,0,0,0,0,0,0,-1,580,1709,0,0
-637,-685,0,0,0,0,0,0,0,0,0,-1,587,1709,0,0
-630,-685,0,0,0,0,0,0,0,0,0,-1,594,1709,0,0
-623,-685,0,0,0,0,0,0,0,0,0,-1,601,1709,0,0
-616,-685,0,0,0,0,0,0,0,0,0,-1,608,1709,0,0
-609,-685,0,0,0,0,0,0,0,0,0,-1,615,1709,0,0
-602,-685,0,0,0,0,0,0,0,0,0,-1,622,1709,0,0
-595,-685,0,0,0,0,0,0,0,0,0,-1,629,1709,0,0
-588,-685,0,0,0,0,0,0,0,0,0,-1,636,1709,0,0
-581,-685,0,0,0,0,0,0,0,0,0,-1,643,1709,0,0
-574,-685,0,0,0,0,0,0,0,0,0,-1,650,1709,0,0
-567,-685,0,0,0,0,0,0,0,0,0,-1,657,1709,0,0
-560,-685,0,0,0,0,0,0,0,0,0,-1,664,1709,0,0
-553,-685,0,0,0,0,0,0,0,0,0,-1,671,1709,0,0
-546,-685,0,0,0,0,0,0,0,0,0,-1,678,1709,0,0
-539,-685,0,0,0,0,0,0,0,0,0,-1,685,1709,0,0
-532,-685,0,0,0,0,0,0,0,0,0,-1,692,1709,0,0
-525,-685,0,0,0,0,0,0,0,0,0,-1,699,1709,0,0
-518,-685,0,0,0,0,0,0,0,0,0,-1,706,1709,0,0
-511,-685,0,0,0,0,0,0,0,0,0,-1,713,1709,0,0
-504,-685,0,0,0,0,0,0,0,0,0,-1,720,1709,0,0
-497,-685,0,0,0,0,0,0,0,0,0,-1,727,1709,0,0
-490,-685,0,0,0,0,0,0,0,0,0,-1,734,1709,0,0
-483,-685,0,0,0,0,0,0,0,0,0,-1,741,1709,0,0
-476,-685,0,0,0,0,0,0,0,0,0,-1,748,1709,0,0
-469,-685,0,0,0,0,0,0,0,0,0,-1,755,1709,0,0
-462,-685,0,0,0,0,0,0,0,0,0,-1,762,1709,0,0
-455,-685,0,0,0,0,0,0,0,0,0,-1,769,1709,0,0
-448,-685,0,0,0,0,0,0,0,0,0,-1,776,1709,0,0
-441,-685,0,0,0,0,0,0,0,0,0,-1,783,1709,0,0
-434,-685,0,0,0,0,0,0,0,0,0,-1,790,1709,0,0
-427,-685,0,0,0,0,0,0,0,0,0,-1,797,1709,0,0
-420,-685,0,0,0,0,0,0,0,0,0,-1,804,1709,0,0
-413,-685,0,0,0,0,0,0,0,0,0,-1,811,1709,0,0
-406,-685,0,0,0,0,0,0,0,0,0,-1,818,1709,0,0
-399,-685,0,0,0,0,0,0,0,0,0,-1,825,1709,0,0
-392,-685,0,0,0,0,0,0,0,0,0,-1,832,1709,0,0
-385,-685,0,0,0,0,0,0,0,0,0,-1,839,1709,0,0
-378,-685,0,0,0,0,0,0,0,0,0,-1,846,1709,0,0
-371,-685,0,0,0,0,0,0,0,0,0,-1,853,1709,0,0
-364,-685,0,0,0,0,0,0,0,0,0,-1,860,1709,0,0
-357,-685,0,0,0,0,0,0,0,0,0,-1,867,1709,0,0
-350,-685,0,0,0,0,0,0,0,0,0,-1,874,1709,0,0
-343,-685,-5.98505,6.56335,0,0,0,0,0,0,0,-1,881,1709,-5.98505,-6.56329
-336,-685,-6.51312,5.10571,0,0,0,0,0,0,0,-1,888,1709,-6.51311,-5.10575
-329,-685,9.98907,36.2474,0,0,0,0,0,0,0,-1,895,1709,9.98909,-36.2475
-322,-685,3.83191,16.7219,0,0,0,0,0,0,0,-1,902,1709,3.8319,-16.7219
-315,-685,5.15784,21.4388,0,0,0,0,0,0,0,-1,909,1709,5.15783,-21.4389
-308,-685,6.64496,56.2472,0,0,0,0,0,0,0,-1,916,1709,6.64498,-56.2472
-301,-685,4.73218,57.2266,0,0,0,0,0,0,0,-1,923,1709,4.73221,-57.2266
-294,-685,4.73169,57.9741,0,0,0,0,0,0,0,-1,930,1709,4.7317,-57.9741
-287,-685,4.45001,58.1342,0,0,0,0,0,0,0,-1,937,1709,4.45004,-58.1341
-280,-685,5.01813,109.848,0,0,0,0,0,0,0,-1,944,1709,5.01814,-109.848
-273,-685,3.51721,109.913,0,0,0,0,0,0,0,-1,951,1709,3.51719,-109.913
-266,-685,4.68628,111.404,0,0,0,0,0,0,0,-1,958,1709,4.68625,-111.404
-259,-685,1.22443,205.263,0,0,0,0,0,0,0,-1,965,1709,1.22445,-205.263
-252,-685,0.608032,230.387,0,0,0,0,0,0,0,-1,972,1709,0.608013,-230.387
-245,-685,-0.362732,238.152,0,0,0,0,0,0,0,-1,979,1709,-0.362705,-238.152
-238,-685,-4.53711,264.765,0,0,0,0,0,0,0,-1,986,1709,-4.53711,-264.765
-231,-685,-6.15302,269.192,0,0,0,0,0,0,0,-1,993,1709,-6.15303,-269.192
-224,-685,-6.68488,272.235,0,0,0,0,0,0,0,-1,1000,1709,-6.68487,-272.235
-217,-685,-7.17566,275.15,0.0202693,0.00320231,-0.0120311,0.0264859,-0.00301435,-0.476932,0.018743,0.02449,1007,1709,-7.17565,-275.15
-210,-685,-7.61646,278.031,0.0225312,0.00160666,-0.0131668,0.0288863,-0.00474844,-0.44968,0.0210199,0.0270735,1014,1709,-7.61648,-278.031
-203,-685,-7.94452,280.795,0.024482,-0.000186441,-0.0147318,0.0313613,-0.00706573,-0.436875,0.0236178,0.0312642,1021,1709,-7.94455,-280.795
-196,-685,-8.26141,283.505,0.0273915,-0.00150563,-0.0159818,0.0344877,-0.00860186,-0.41787,0.0263317,0.0215668,1028,1709,-8.26143,-283.505
-189,-685,-8.724,286.126,0.0308276,-0.00297176,-0.0172667,0.0380886,-0.0102327,-0.39807,0.0294029,0.0145821,1035,1709,-8.72398,-286.126
-182,-685,-8.98059,288.751,0.0346228,-0.00444,-0.0186649,0.0421072,-0.0119244,-0.381359,0.0327774,0.0222956,1042,1709,-8.98059,-288.751
-175,-685,-9.20251,291.283,0.0384015,-0.00595248,-0.0200097,0.0460943,-0.0136453,-0.367035,0.0361469,0.0220976,1049,1709,-9.20255,-291.283
-168,-685,-9.34375,293.731,0.0420244,-0.00729852,-0.0212406,0.0499106,-0.0151847,-0.355505,0.039325,0.0165272,1056,1709,-9.3437,-293.732
-161,-685,-9.45129,296.157,0.0453798,-0.00841996,-0.0224567,0.0535214,-0.0165616,-0.347809,0.0422965,0.0173005,1063,1709,-9.45134,-296.157
-154,-685,-9.55359,298.507,0.0483992,-0.0094122,-0.0236727,0.0568557,-0.0178687,-0.343098,0.045057,0.018402,1070,1709,-9.55363,-298.507
-147,-685,-9.53125,300.784,0.0514078,-0.0103466,-0.024964,0.0602371,-0.0191759,-0.339949,0.0478484,0.0183505,1077,1709,-9.53122,-300.784
-140,-685,-9.46155,302.969,0.0541885,-0.0113123,-0.0259577,0.063228,-0.0203518,-0.335103,0.0503268,0.0221455,1084,1709,-9.46153,-302.969
-133,-685,-9.4032,305.103,0.0559353,-0.0120394,-0.0267905,0.0652247,-0.0213288,-0.333767,0.0520698,0.0231795,1091,1709,-9.40326,-305.103
-126,-685,-9.29883,307.178,0.0574595,-0.0128662,-0.0276582,0.0670337,-0.0224404,-0.333251,0.053754,0.0192383,1098,1709,-9.29882,-307.178
-119,-685,-9.26526,309.153,0.0590672,-0.0142739,-0.028412,0.068786,-0.0239927,-0.32959,0.0556078,0.0265386,1105,1709,-9.26531,-309.153
-112,-685,-9.25146,310.97,0.0606015,-0.0158507,-0.028742,0.0702015,-0.0254507,-0.322357,0.057204,0.0249707,1112,1709,-9.25149,-310.97
-105,-685,-9.36426,312.833,0.0613717,-0.0180746,-0.028499,0.0705374,-0.0272403,-0.311168,0.0582677,0.0260935,1119,1709,-9.36428,-312.833
-98,-685,-9.19275,314.542,0,0,0,0,0,0,0,-1,1126,1709,-9.19278,-314.542
-91,-685,-7.87378,316.419,0,0,0,0,0,0,0,-1,1133,1709,-7.87381,-316.419
-84,-685,-7.74854,318.169,0,0,0,0,0,0,0,-1,1140,1709,-7.74848,-318.169
-77,-685,-7.8031,320.152,0,0,0,0,0,0,0,-1,1147,1709,-7.80311,-320.152
-70,-685,-8.31042,298.491,0,0,0,0,0,0,0,-1,1154,1709,-8.31037,-298.491
-63,-685,6.03015,29.7728,0,0,0,0,0,0,0,-1,1161,1709,6.0302,-29.7728
-56,-685,3.93909,15.8704,0,0,0,0,0,0,0,-1,1168,1709,3.93905,-15.8704
-49,-685,3.07471,9.86011,0,0,0,0,0,0,0,-1,1175,1709,3.07467,-9.86009
-42,-685,2.70618,7.54504,0,0,0,0,0,0,0,-1,1182,1709,2.7062,-7.54504
-35,-685,2.95264,7.91516,0,0,0,0,0,0,0,-1,1189,1709,2.95262,-7.91517
-28,-685,8.11353,52.4509,0,0,0,0,0,0,0,-1,1196,1709,8.1135,-52.451
-21,-685,-5.25513,292.447,0,0,0,0,0,0,0,-1,1203,1709,-5.2551,-292.447
-14,-685,-3.75427,328.212,0,0,0,0,0,0,0,-1,1210,1709,-3.75424,-328.212
-7,-685,-1.65625,224.8,0,0,0,0,0,0,0,-1,1217,1709,-1.65629,-224.8
0,-685,-3.12146,330.119,0,0,0,0,0,0,0,-1,1224,1709,-3.12149,-330.119
7,-685,-5.18311,340.308,0,0,0,0,0,0,0,-1,1231,1709,-5.18314,-340.308
14,-685,-2.70935,262.626,0,0,0,0,0,0,0,-1,1238,1709,-2.7094,-262.626
21,-685,-1.57166,262.929,0,0,0,0,0,0,0,-1,1245,1709,-1.57164,-262.929
28,-685,3.16797,186.33,0,0,0,0,0,0,0,-1,1252,1709,3.16803,-186.33
35,-685,2.40808,332.328,0,0,0,0,0,0,0,-1,1259,1709,2.40807,-332.328
42,-685,12.5433,339.063,0,0,0,0,0,0,0,-1,1266,1709,12.5433,-339.063
49,-685,16.6481,331.912,0,0,0,0,0,0,0,-1,1273,1709,16.6481,-331.912
56,-685,8.86401,338.947,0,0,0,0,0,0,0,-1,1280,1709,8.86396,-338.947
63,-685,8.13867,337.918,0,0,0,0,0,0,0,-1,1287,1709,8.13863,-337.918
70,-685,12.9562,332.688,0,0,0,0,0,0,0,-1,1294,1709,12.9561,-332.688
77,-685,12.1317,332.855,0,0,0,0,0,0,0,-1,1301,1709,12.1317,-332.855
84,-685,11.2546,333.278,0,0,0,0,0,0,0,-1,1308,1709,11.2546,-333.278
91,-685,9.24463,334.08,0,0,0,0,0,0,0,-1,1315,1709,9.24466,-334.08
98,-685,8.41321,334.18,0,0,0,0,0,0,0,-1,1322,1709,8.41322,-334.18
105,-685,7.58179,334.281,0,0,0,0,0,0,0,-1,1329,1709,7.58179,-334.281
112,-685,6.62512,334.008,0,0,0,0,0,0,0,-1,1336,1709,6.6251,-334.008
119,-685,7.20288,332.913,0,0,0,0,0,0,0,-1,1343,1709,7.2029,-332.913
126,-685,7.07239,332.569,0,0,0,0,0,0,0,-1,1350,1709,7.0724,-332.569
133,-685,2.08105,337.038,0,0,0,0,0,0,0,-1,1357,1709,2.08106,-337.038
140,-685,0.741943,336.626,0,0,0,0,0,0,0,-1,1364,1709,0.741972,-336.626
147,-685,-0.00524902,336.918,0,0,0,0,0,0,0,-1,1371,1709,-0.0052286,-336.918
154,-685,10.0796,56.0078,0,0,0,0,0,0,0,-1,1378,1709,10.0796,-56.0079
161,-685,10.4932,55.8827,0,0,0,0,0,0,0,-1,1385,1709,10.4932,-55.8827
168,-685,4.37524,10.8778,0,0,0,0,0,0,0,-1,1392,1709,4.37525,-10.8778
175,-685,3.97522,8.94324,0,0,0,0,0,0,0,-1,1399,1709,3.97519,-8.94328
182,-685,3.98218,9.19739,0,0,0,0,0,0,0,-1,1406,1709,3.98221,-9.1974
189,-685,4.53479,15.2343,0,0,0,0,0,0,0,-1,1413,1709,4.53474,-15.2343
196,-685,9.96204,198.586,0,0,0,0,0,0,0,-1,1420,1709,9.96199,-198.586
203,-685,10.2123,197.143,0,0,0,0,0,0,0,-1,1427,1709,10.2123,-197.143
210,-685,18.8938,321.256,0,0,0,0,0,0,0,-1,1434,1709,18.8938,-321.256
217,-685,18.8649,319.599,0,0,0,0,0,0,0,-1,1441,1709,18.8648,-319.599
224,-685,18.8104,318.144,0,0,0,0,0,0,0,-1,1448,1709,18.8104,-318.144
231,-685,19.2723,316.565,0,0,0,0,0,0,0,-1,1455,1709,19.2723,-316.565
238,-685,19.7976,314.608,0,0,0,0,0,0,0,-1,1462,1709,19.7976,-314.608
245,-685,20.0654,312.975,0,0,0,0,0,0,0,-1,1469,1709,20.0654,-312.975
252,-685,20.3333,311.342,0,0,0,0,0,0,0,-1,1476,1709,20.3332,-311.342
259,-685,20.4834,309.275,0.0588944,-0.00485074,0.016652,0.0629822,-0.00893857,0.240725,0.0452628,0.0233679,1483,1709,20.4835,-309.275
266,-685,20.6998,307.187,0.056134,-0.00193635,0.0164528,0.0604715,-0.00627385,0.257768,0.04256,0.0425424,1490,1709,20.6999,-307.187
273,-685,20.8381,305.117,0.0529434,0.000303064,0.0161869,0.0575225,-0.00427608,0.275688,0.0398502,0.0473097,1497,1709,20.8381,-305.117
280,-685,20.7511,302.867,0.0494587,0.00180124,0.0157871,0.0542139,-0.00295397,0.292565,0.0371664,0.0447301,1504,1709,20.7511,-302.867
287,-685,20.6786,300.588,0.0458005,0.00281534,0.0154967,0.0508047,-0.00218883,0.312348,0.0346225,0.0235647,1511,1709,20.6786,-300.587
294,-685,20.4753,298.395,0.0422984,0.00359732,0.015046,0.0474596,-0.00156387,0.33045,0.0321737,0.0177971,1518,1709,20.4753,-298.395
301,-685,20.349,296.025,0.038753,0.00420214,0.0145189,0.0440439,-0.00108875,0.349458,0.0297321,0.0214602,1525,1709,20.3489,-296.025
308,-685,20.2383,293.534,0.0354074,0.0046868,0.0139025,0.0407647,-0.0006705,0.367811,0.0274027,0.0220083,1532,1709,20.2382,-293.534
315,-685,20.0195,290.995,0.0322642,0.00516038,0.0131877,0.0376218,-0.000197258,0.38589,0.0251472,0.0184902,1539,1709,20.0195,-290.995
322,-685,19.6176,288.48,0.0292681,0.00573361,0.0121373,0.0344059,0.000595754,0.400439,0.0227413,0.0276975,1546,1709,19.6176,-288.48
329,-685,19.3623,285.901,0.0264747,0.00647736,0.0107218,0.0311365,0.00181554,0.410141,0.0201797,0.025707,1553,1709,19.3624,-285.901
336,-685,19.0132,283.219,0.0238117,0.00749552,0.00896957,0.0277783,0.00352894,0.416371,0.0174618,0.0180981,1560,1709,19.0132,-283.219
343,-685,18.5656,280.411,0.0211998,0.00852513,0.00701117,0.0243133,0.00541162,0.417919,0.0147399,0.0237664,1567,1709,18.5656,-280.411
350,-685,18.1633,277.601,0.0188327,0.00944838,0.00486678,0.0209008,0.00738022,0.401833,0.0122394,0.0278091,1574,1709,18.1633,-277.601
357,-685,17.6842,274.706,0.0166542,0.0098281,0.00254423,0.0174981,0.00898415,0.32029,0.0101038,0.0260633,1581,1709,17.6842,-274.706
364,-685,17.1398,271.977,0,0,0,0,0,0,0,-1,1588,1709,17.1398,-271.977
371,-685,16.5282,268.57,0,0,0,0,0,0,0,-1,1595,1709,16.5283,-268.57
378,-685,10.4257,263.164,0,0,0,0,0,0,0,-1,1602,1709,10.4257,-263.164
385,-685,2.73474,237.233,0,0,0,0,0,0,0,-1,1609,1709,2.73471,-237.233
392,-685,1.42883,224.293,0,0,0,0,0,0,0,-1,1616,1709,1.42881,-224.293
399,-685,10.0272,109.278,0,0,0,0,0,0,0,-1,1623,1709,10.0272,-109.278
406,-685,9.95215,102.469,0,0,0,0,0,0,0,-1,1630,1709,9.95218,-102.469
413,-685,10.7178,91.3489,0,0,0,0,0,0,0,-1,1637,1709,10.7178,-91.3488
420,-685,10.3047,40.3569,0,0,0,0,0,0,0,-1,1644,1709,10.3047,-40.3569
427,-685,10.7286,38.6702,0,0,0,0,0,0,0,-1,1651,1709,10.7286,-38.6702
434,-685,4.87769,8.91418,0,0,0,0,0,0,0,-1,1658,1709,4.87768,-8.91413
441,-685,5.62,8.75549,0,0,0,0,0,0,0,-1,1665,1709,5.61996,-8.75545
448,-685,6.4043,8.58972,0,0,0,0,0,0,0,-1,1672,1709,6.40435,-8.58971
455,-685,2.31958,4.09802,0,0,0,0,0,0,0,-1,1679,1709,2.31957,-4.09803
462,-685,0,0,0,0,0,0,0,0,0,-1,1686,1709,0,0
469,-685,0,0,0,0,0,0,0,0,0,-1,1693,1709,0,0
476,-685,0,0,0,0,0,0,0,0,0,-1,1700,1709,0,0
483,-685,0,0,0,0,0,0,0,0,0,-1,1707,1709,0,0
490,-685,0,0,0,0,0,0,0,0,0,-1,1714,1709,0,0
497,-685,0,0,0,0,0,0,0,0,0,-1,1721,1709,0,0
504,-685,0,0,0,0,0,0,0,0,0,-1,1728,1709,0,0
511,-685,0,0,0,0,0,0,0,0,0,-1,1735,1709,0,0
518,-685,0,0,0,0,0,0,0,0,0,-1,1742,1709,0,0
525,-685,0,0,0,0,0,0,0,0,0,-1,1749,1709,0,0
532,-685,0,0,0,0,0,0,0,0,0,-1,1756,1709,0,0
539,-685,0,0,0,0,0,0,0,0,0,-1,1763,1709,0,0
546,-685,0,0,0,0,0,0,0,0,0,-1,1770,1709,0,0
553,-685,0,0,0,0,0,0,0,0,0,-1,1777,1709,0,0
560,-685,0,0,0,0,0,0,0,0,0,-1,1784,1709,0,0
567,-685,0,0,0,0,0,0,0,0,0,-1,1791,1709,0,0
574,-685,0,0,0,0,0,0,0,0,0,-1,1798,1709,0,0
581,-685,0,0,0,0,0,0,0,0,0,-1,1805,1709,0,0
588,-685,0,0,0,0,0,0,0,0,0,-1,1812,1709,0,0
595,-685,0,0,0,0,0,0,0,0,0,-1,1819,1709,0,0
602,-685,0,0,0,0,0,0,0,0,0,-1,1826,1709,0,0
609,-685,0,0,0,0,0,0,0,0,0,-1,1833,1709,0,0
616,-685,0,0,0,0,0,0,0,0,0,-1,1840,1709,0,0
623,-685,0,0,0,0,0,0,0,0,0,-1,1847,1709,0,0
630,-685,0,0,0,0,0,0,0,0,0,-1,1854,1709,0,0
637,-685,0,0,0,0,0,0,0,0,0,-1,1861,1709,0,0
644,-685,0,0,0,0,0,0,0,0,0,-1,1868,1709,0,0
651,-685,0,0,0,0,0,0,0,0,0,-1,1875,1709,0,0
658,-685,0,0,0,0,0,0,0,0,0,-1,1882,1709,0,0
665,-685,0,0,0,0,0,0,0,0,0,-1,1889,1709,0,0
672,-685,0,0,0,0,0,0,0,0,0,-1,1896,1709,0,0
679,-685,0,0,0,0,0,0,0,0,0,-1,1903,1709,0,0
686,-685,0,0,0,0,0,0,0,0,0,-1,1910,1709,0,0
693,-685,0,0,0,0,0,0,0,0,0,-1,1917,1709,0,0
700,-685,0,0,0,0,0,0,0,0,0,-1,1924,1709,0,0
707,-685,0,0,0,0,0,0,0,0,0,-1,1931,1709,0,0
714,-685,0,0,0,0,0,0,0,0,0,-1,1938,1709,0,0
721,-685,0,0,0,0,0,0,0,0,0,-1,1945,1709,0,0
728,-685,0,0,0,0,0,0,0,0,0,-1,1952,1709,0,0
735,-685,0,0,0,0,0,0,0,0,0,-1,1959,1709,0,0
742,-685,0,0,0,0,0,0,0,0,0,-1,1966,1709,0,0
749,-685,0,0,0,0,0,0,0,0,0,-1,1973,1709,0,0
756,-685,0,0,0,0,0,0,0,0,0,-1,1980,1709,0,0
763,-685,0,0,0,0,0,0,0,0,0,-1,1987,1709,0,0
770,-685,0,0,0,0,0,0,0,0,0,-1,1994,1709,0,0
777,-685,0,0,0,0,0,0,0,0,0,-1,2001,1709,0,0
784,-685,0,0,0,0,0,0,0,0,0,-1,2008,1709,0,0
791,-685,0,0,0,0,0,0,0,0,0,-1,2015,1709,0,0
798,-685,0,0,0,0,0,0,0,0,0,-1,2022,1709,0,0
805,-685,0,0,0,0,0,0,0,0,0,-1,2029,1709,0,0
812,-685,0,0,0,0,0,0,0,0,0,-1,2036,1709,0,0
-700,-692,0,0,0,0,0,0,0,0,0,-1,524,1716,0,0
-693,-692,0,0,0,0,0,0,0,0,0,-1,531,1716,0,0
-686,-692,0,0,0,0,0,0,0,0,0,-1,538,1716,0,0
-679,-692,0,0,0,0,0,0,0,0,0,-1,545,1716,0,0
-672,-692,0,0,0,0,0,0,0,0,0,-1,552,1716,0,0
-665,-692,0,0,0,0,0,0,0,0,0,-1,559,1716,0,0
-658,-692,0,0,0,0,0,0,0,0,0,-1,566,1716,0,0
-651,-692,0,0,0,0,0,0,0,0,0,-1,573,1716,0,0
-644,-692,0,0,0,0,0,0,0,0,0,-1,580,1716,0,0
-637,-692,0,0,0,0,0,0,0,0,0,-1,587,1716,0,0
-630,-692,0,0,0,0,0,0,0,0,0,-1,594,1716,0,0
-623,-692,0,0,0,0,0,0,0,0,0,-1,601,1716,0,0
-616,-692,0,0,0,0,0,0,0,0,0,-1,608,1716,0,0
-609,-692,0,0,0,0,0,0,0,0,0,-1,615,1716,0,0
-602,-692,0,0,0,0,0,0,0,0,0,-1,622,1716,0,0
-595,-692,0,0,0,0,0,0,0,0,0,-1,629,1716,0,0
-588,-692,0,0,0,0,0,0,0,0,0,-1,636,1716,0,0
-581,-692,0,0,0,0,0,0,0,0,0,-1,643,1716,0,0
-574,-692,0,0,0,0,0,0,0,0,0,-1,650,1716,0,0
-567,-692,0,0,0,0,0,0,0,0,0,-1,657,1716,0,0
-560,-692,0,0,0,0,0,0,0,0,0,-1,664,1716,0,0
-553,-692,0,0,0,0,0,0,0,0,0,-1,671,1716,0,0
-546,-692,0,0,0,0,0,0,0,0,0,-1,678,1716,0,0
-539,-692,0,0,0,0,0,0,0,0,0,-1,685,1716,0,0
-532,-692,0,0,0,0,0,0,0,0,0,-1,692,1716,0,0
-525,-692,0,0,0,0,0,0,0,0,0,-1,699,1716,0,0
-518,-692,0,0,0,0,0,0,0,0,0,-1,706,1716,0,0
-511,-692,0,0,0,0,0,0,0,0,0,-1,713,1716,0,0
-504,-692,0,0,0,0,0,0,0,0,0,-1,720,1716,0,0
-497,-692,0,0,0,0,0,0,0,0,0,-1,727,1716,0,0
-490,-692,0,0,0,0,0,0,0,0,0,-1,734,1716,0,0
-483,-692,0,0,0,0,0,0,0,0,0,-1,741,1716,0,0
-476,-692,0,0,0,0,0,0,0,0,0,-1,748,1716,0,0
-469,-692,0,0,0,0,0,0,0,0,0,-1,755,1716,0,0
-462,-692,0,0,0,0,0,0,0,0,0,-1,762,1716,0,0
-455,-692,0,0,0,0,0,0,0,0,0,-1,769,1716,0,0
-448,-692,0,0,0,0,0,0,0,0,0,-1,776,1716,0,0
-441,-692,0,0,0,0,0,0,0,0,0,-1,783,1716,0,0
-434,-692,0,0,0,0,0,0,0,0,0,-1,790,1716,0,0
-427,-692,0,0,0,0,0,0,0,0,0,-1,797,1716,0,0
-420,-692,0,0,0,0,0,0,0,0,0,-1,804,1716,0,0
-413,-692,0,0,0,0,0,0,0,0,0,-1,811,1716,0,0
-406,-692,0,0,0,0,0,0,0,0,0,-1,818,1716,0,0
-399,-692,0,0,0,0,0,0,0,0,0,-1,825,1716,0,0
-392,-692,0,0,0,0,0,0,0,0,0,-1,832,1716,0,0
-385,-692,0,0,0,0,0,0,0,0,0,-1,839,1716,0,0
-378,-692,0,0,0,0,0,0,0,0,0,-1,846,1716,0,0
-371,-692,0,0,0,0,0,0,0,0,0,-1,853,1716,0,0
-364,-692,0,0,0,0,0,0,0,0,0,-1,860,1716,0,0
-357,-692,0,0,0,0,0,0,0,0,0,-1,867,1716,0,0
-350,-692,0,0,0,0,0,0,0,0,0,-1,874,1716,0,0
-343,-692,0,0,0,0,0,0,0,0,0,-1,881,1716,0,0
-336,-692,0,0,0,0,0,0,0,0,0,-1,888,1716,0,0
-329,-692,3.03107,4.10266,0,0,0,0,0,0,0,-1,895,1716,3.03105,-4.10267
-322,-692,4.43713,18.5242,0,0,0,0,0,0,0,-1,902,1716,4.43711,-18.5241
-315,-692,5.38965,17.975,0,0,0,0,0,0,0,-1,909,1716,5.38963,-17.975
-308,-692,5.86938,17.4392,0,0,0,0,0,0,0,-1,916,1716,5.86937,-17.4392
-301,-692,12.015,41.2892,0,0,0,0,0,0,0,-1,923,1716,12.015,-41.2892
-294,-692,7.742,56.2694,0,0,0,0,0,0,0,-1,930,1716,7.74201,-56.2694
-287,-692,7.85974,56.4567,0,0,0,0,0,0,0,-1,937,1716,7.85974,-56.4566
-280,-692,7.31812,56.6891,0,0,0,0,0,0,0,-1,944,1716,7.3181,-56.689
-273,-692,9.02203,54.5182,0,0,0,0,0,0,0,-1,951,1716,9.02205,-54.5182
-266,-692,7.52716,51.7593,0,0,0,0,0,0,0,-1,958,1716,7.52717,-51.7593
-259,-692,7.95398,56.1954,0,0,0,0,0,0,0,-1,965,1716,7.954,-56.1954
-252,-692,7.40607,71.83,0,0,0,0,0,0,0,-1,972,1716,7.40609,-71.8299
-245,-692,2.81268,159.774,0,0,0,0,0,0,0,-1,979,1716,2.81271,-159.774
-238,-692,1.57861,229.509,0,0,0,0,0,0,0,-1,986,1716,1.57864,-229.509
-231,-692,0.823975,246.298,0,0,0,0,0,0,0,-1,993,1716,0.823964,-246.298
-224,-692,0.0288086,258.48,0,0,0,0,0,0,0,-1,1000,1716,0.0288177,-258.48
-217,-692,-4.30908,275.882,0,0,0,0,0,0,0,-1,1007,1716,-4.30911,-275.882
-210,-692,-4.66986,278.682,0,0,0,0,0,0,0,-1,1014,1716,-4.66984,-278.682
-203,-692,-5.08051,281.165,0.0164751,0.00263885,-0.00999881,0.0217158,-0.00260184,-0.482766,0.0154178,0.0463344,1021,1716,-5.0805,-281.165
-196,-692,-5.51929,284.106,0.0188877,0.00116835,-0.0113105,0.0243954,-0.00433937,-0.453157,0.0178864,0.027927,1028,1716,-5.5193,-284.106
-189,-692,-6.02148,286.698,0.0218578,-0.00047234,-0.0126898,0.027595,-0.00620963,-0.424614,0.0207782,0.0148984,1035,1716,-6.02147,-286.698
-182,-692,-6.27966,289.307,0.025256,-0.00214151,-0.0141595,0.0312587,-0.00814421,-0.400968,0.0240187,0.0251848,1042,1716,-6.27966,-289.307
-175,-692,-6.54895,291.884,0.028753,-0.0039786,-0.0155356,0.0349526,-0.0101782,-0.37969,0.0273336,0.0251683,1049,1716,-6.54892,-291.884
-168,-692,-6.74854,294.3,0.0321707,-0.0055495,-0.0168138,0.0385773,-0.0119561,-0.36405,0.0304951,0.0185153,1056,1716,-6.74854,-294.3
-161,-692,-6.89014,296.704,0.0354031,-0.00680322,-0.0180918,0.0420966,-0.0134968,-0.35436,0.0334827,0.0209144,1063,1716,-6.89019,-296.704
-154,-692,-7.14368,298.954,0.0384104,-0.00794272,-0.0193478,0.0454247,-0.0149571,-0.347802,0.0363106,0.027667,1070,1716,-7.14364,-298.954
-147,-692,-7.3042,301.127,0.0413259,-0.00912787,-0.0206062,0.0486722,-0.0164742,-0.342461,0.0391136,0.0341136,1077,1716,-7.30425,-301.127
-140,-692,-7.24744,303.397,0.0441318,-0.0100655,-0.0215789,0.051674,-0.0176076,-0.336244,0.0415804,0.0222227,1084,1716,-7.2474,-303.397
-133,-692,-7.15002,305.502,0.0462211,-0.0107741,-0.0224082,0.053976,-0.0185289,-0.333172,0.0434963,0.0161551,1091,1716,-7.15,-305.502
-126,-692,-7.02783,307.554,0.0480538,-0.0115163,-0.0232216,0.0560364,-0.0194988,-0.331101,0.045279,0.0150695,1098,1716,-7.02786,-307.554
-119,-692,-7.21021,309.543,0.0499168,-0.0126316,-0.0238739,0.0579877,-0.0207025,-0.326003,0.0471011,0.0196978,1105,1716,-7.21016,-309.543
-112,-692,-7.25208,311.337,0.0516976,-0.0139461,-0.0242627,0.0596918,-0.0219404,-0.318285,0.0487814,0.0188834,1112,1716,-7.25209,-311.337
-105,-692,-7.26563,313.188,0.0530967,-0.0156984,-0.0242539,0.0607877,-0.0233893,-0.307072,0.050173,0.0273912,1119,1716,-7.26563,-313.188
-98,-692,-6.94824,315.056,0.0548385,-0.0173991,-0.0247701,0.0625161,-0.0250767,-0.300564,0.0520888,0.0352414,1126,1716,-6.94829,-315.056
-91,-692,-6.42334,316.729,0.0577523,-0.0194025,-0.0248704,0.0650743,-0.0267245,-0.286316,0.0545199,0.0441905,1133,1716,-6.42338,-316.729
-84,-692,-6.15662,318.551,0,0,0,0,0,0,0,-1,1140,1716,-6.15658,-318.551
-77,-692,-5.95361,320.278,0,0,0,0,0,0,0,-1,1147,1716,-5.95365,-320.278
-70,-692,-5.5426,321.487,0,0,0,0,0,0,0,-1,1154,1716,-5.54266,-321.487
-63,-692,-4.97546,323.13,0,0,0,0,0,0,0,-1,1161,1716,-4.97545,-323.129
-56,-692,-4.76184,324.548,0,0,0,0,0,0,0,-1,1168,1716,-4.76184,-324.548
-49,-692,-5.05493,325.587,0,0,0,0,0,0,0,-1,1175,1716,-5.05492,-325.587
-42,-692,-4.74829,326.782,0,0,0,0,0,0,0,-1,1182,1716,-4.7483,-326.782
-35,-692,-3.6217,328.17,0,0,0,0,0,0,0,-1,1189,1716,-3.62171,-328.17
-28,-692,-2.38696,329.308,0,0,0,0,0,0,0,-1,1196,1716,-2.38691,-329.308
-21,-692,-2.11646,330.149,0,0,0,0,0,0,0,-1,1203,1716,-2.1164,-330.149
-14,-692,-1.74292,331.175,0,0,0,0,0,0,0,-1,1210,1716,-1.74288,-331.175
-7,-692,-1.17566,332.059,0,0,0,0,0,0,0,-1,1217,1716,-1.17563,-332.059
0,-692,-0.681274,332.82,0,0,0,0,0,0,0,-1,1224,1716,-0.681228,-332.82
7,-692,0.153442,333.545,0,0,0,0,0,0,0,-1,1231,1716,0.153474,-333.545
14,-692,0.854126,334.073,0,0,0,0,0,0,0,-1,1238,1716,0.854086,-334.073
21,-692,1.34839,334.44,0,0,0,0,0,0,0,-1,1245,1716,1.34841,-334.44
28,-692,1.98083,334.681,0,0,0,0,0,0,0,-1,1252,1716,1.98083,-334.681
35,-692,2.57568,335.145,0,0,0,0,0,0,0,-1,1259,1716,2.57573,-335.145
42,-692,3.02466,334.992,0,0,0,0,0,0,0,-1,1266,1716,3.02468,-334.992
49,-692,3.3988,334.899,0,0,0,0,0,0,0,-1,1273,1716,3.39882,-334.899
56,-692,5.13818,335.832,0,0,0,0,0,0,0,-1,1280,1716,5.13824,-335.832
63,-692,5.72949,335.798,0,0,0,0,0,0,0,-1,1287,1716,5.72946,-335.798
70,-692,5.8396,335.763,0,0,0,0,0,0,0,-1,1294,1716,5.83958,-335.763
77,-692,6.30164,336.081,0,0,0,0,0,0,0,-1,1301,1716,6.30158,-336.081
84,-692,6.60632,336.337,0,0,0,0,0,0,0,-1,1308,1716,6.60631,-336.337
91,-692,7.70105,336.32,0,0,0,0,0,0,0,-1,1315,1716,7.70108,-336.32
98,-692,8.53381,336.14,0,0,0,0,0,0,0,-1,1322,1716,8.53385,-336.14
105,-692,8.56262,336.05,0,0,0,0,0,0,0,-1,1329,1716,8.56259,-336.05
112,-692,7.79163,332.673,0,0,0,0,0,0,0,-1,1336,1716,7.79163,-332.673
119,-692,6.20337,330.886,0,0,0,0,0,0,0,-1,1343,1716,6.20336,-330.886
126,-692,6.69409,242.54,0,0,0,0,0,0,0,-1,1350,1716,6.69404,-242.54
133,-692,6.73096,324.392,0,0,0,0,0,0,0,-1,1357,1716,6.7309,-324.392
140,-692,11.9421,332.685,0,0,0,0,0,0,0,-1,1364,1716,11.9421,-332.685
147,-692,12.4152,331.56,0,0,0,0,0,0,0,-1,1371,1716,12.4151,-331.56
154,-692,9.92883,56.0276,0,0,0,0,0,0,0,-1,1378,1716,9.92887,-56.0276
161,-692,13.9248,330.519,0,0,0,0,0,0,0,-1,1385,1716,13.9248,-330.519
168,-692,15.0331,329.793,0,0,0,0,0,0,0,-1,1392,1716,15.0331,-329.793
175,-692,15.911,328.971,0,0,0,0,0,0,0,-1,1399,1716,15.911,-328.971
182,-692,15.9641,327.359,0,0,0,0,0,0,0,-1,1406,1716,15.9642,-327.359
189,-692,15.8258,325.898,0,0,0,0,0,0,0,-1,1413,1716,15.8258,-325.898
196,-692,8.89429,198.411,0,0,0,0,0,0,0,-1,1420,1716,8.89427,-198.411
203,-692,16.6749,323.372,0,0,0,0,0,0,0,-1,1427,1716,16.6749,-323.372
210,-692,17.0984,321.724,0.061023,-0.014474,0.0192519,0.0656488,-0.0190998,0.235809,0.051331,0.0437506,1434,1716,17.0984,-321.724
217,-692,17.2272,320.101,0.0589281,-0.0148009,0.0185017,0.0633104,-0.0191833,0.232576,0.0498474,0.0229564,1441,1716,17.2272,-320.101
224,-692,17.3083,318.582,0.0573609,-0.0143471,0.0174127,0.0613655,-0.0183517,0.226053,0.0482064,0.0209527,1448,1716,17.3083,-318.582
231,-692,17.6079,316.971,0.0562473,-0.0121248,0.017181,0.0603218,-0.0161994,0.232853,0.0465633,0.02471,1455,1716,17.6079,-316.971
238,-692,17.8981,315.099,0.0550654,-0.00945319,0.0166433,0.0591058,-0.0134935,0.238152,0.0445875,0.0320547,1462,1716,17.8981,-315.099
245,-692,18.0607,313.351,0.0536835,-0.00647729,0.0159873,0.0576681,-0.0104619,0.244259,0.0423655,0.0330352,1469,1716,18.0607,-313.351
252,-692,18.3209,311.656,0.0516804,-0.00416617,0.01533,0.0556118,-0.00809756,0.25104,0.0400475,0.0337173,1476,1716,18.3209,-311.656
259,-692,18.4213,309.716,0.0491792,-0.0020049,0.014808,0.0531545,-0.00598021,0.262274,0.0375887,0.0175454,1483,1716,18.4212,-309.716
266,-692,18.3033,307.58,0.046354,0.000183895,0.0144874,0.0505234,-0.0039855,0.280221,0.0350863,0.021377,1490,1716,18.3033,-307.58
273,-692,18.285,305.402,0.0432659,0.00192127,0.0140467,0.0475867,-0.00239947,0.298414,0.0325538,0.0333455,1497,1716,18.285,-305.402
280,-692,18.249,303.134,0.0399423,0.00312736,0.0135306,0.0443802,-0.00131057,0.316935,0.0300332,0.0301626,1504,1716,18.249,-303.134
287,-692,18.1885,301.046,0.0365222,0.00393546,0.0130355,0.0410951,-0.00063738,0.337386,0.0276116,0.0176493,1511,1716,18.1885,-301.046
294,-692,18.027,298.869,0.0333193,0.00466264,0.0122754,0.0378586,0.000123354,0.354192,0.025198,0.0167218,1518,1716,18.027,-298.868
301,-692,17.865,296.475,0.030042,0.00529763,0.0114462,0.0345247,0.00081493,0.373271,0.0227497,0.0205445,1525,1716,17.8649,-296.475
308,-692,17.681,294.061,0.0269966,0.00587365,0.0104739,0.0313095,0.00156071,0.390619,0.0203727,0.0231746,1532,1716,17.681,-294.061
315,-692,17.3115,291.514,0.0241839,0.00639499,0.00931441,0.0281685,0.00241042,0.404228,0.0180293,0.0209732,1539,1716,17.3115,-291.514
322,-692,16.9249,288.922,0.021502,0.00709362,0.00789011,0.0249821,0.00361352,0.415404,0.0155905,0.0274675,1546,1716,16.925,-288.922
329,-692,16.6595,286.371,0.0189886,0.0081461,0.00605867,0.0216973,0.00543731,0.420434,0.0130361,0.0257521,1553,1716,16.6595,-286.371
336,-692,16.2194,283.726,0.0164231,0.00951184,0.00384441,0.0181367,0.00779824,0.419304,0.0105054,0.0202116,1560,1716,16.2194,-283.726
343,-692,15.8582,280.721,0.0139488,0.0110674,0.00136041,0.0144896,0.0105266,0.378371,0.00864692,0.0474322,1567,1716,15.8582,-280.721
350,-692,15.436,277.833,0,0,0,0,0,0,0,-1,1574,1716,15.436,-277.833
357,-692,14.7102,275.175,0,0,0,0,0,0,0,-1,1581,1716,14.7102,-275.175
364,-692,3.35181,258.277,0,0,0,0,0,0,0,-1,1588,1716,3.35179,-258.277
371,-692,0.813965,235.919,0,0,0,0,0,0,0,-1,1595,1716,0.813994,-235.919
378,-692,-0.036499,231.754,0,0,0,0,0,0,0,-1,1602,1716,-0.0365284,-231.754
385,-692,5.94177,139.693,0,0,0,0,0,0,0,-1,1609,1716,5.94181,-139.693
392,-692,9.34058,106.317,0,0,0,0,0,0,0,-1,1616,1716,9.34055,-106.317
399,-692,9.19458,104.242,0,0,0,0,0,0,0,-1,1623,1716,9.19457,-104.242
406,-692,11.3221,42.7773,0,0,0,0,0,0,0,-1,1630,1716,11.3222,-42.7773
413,-692,11.4845,42.9004,0,0,0,0,0,0,0,-1,1637,1716,11.4845,-42.9004
420,-692,9.65894,40.2512,0,0,0,0,0,0,0,-1,1644,1716,9.65889,-40.2513
427,-692,3.79578,8.60339,0,0,0,0,0,0,0,-1,1651,1716,3.79577,-8.6034
434,-692,4.78516,8.64636,0,0,0,0,0,0,0,-1,1658,1716,4.78512,-8.64634
441,-692,5.8208,8.74036,0,0,0,0,0,0,0,-1,1665,1716,5.82084,-8.7404
448,-692,6.73792,8.51013,0,0,0,0,0,0,0,-1,1672,1716,6.73793,-8.5101
455,-692,0,0,0,0,0,0,0,0,0,-1,1679,1716,0,0
462,-692,0,0,0,0,0,0,0,0,0,-1,1686,1716,0,0
469,-692,0,0,0,0,0,0,0,0,0,-1,1693,1716,0,0
476,-692,0,0,0,0,0,0,0,0,0,-1,1700,1716,0,0
483,-692,0,0,0,0,0,0,0,0,0,-1,1707,1716,0,0
490,-692,0,0,0,0,0,0,0,0,0,-1,1714,1716,0,0
497,-692,0,0,0,0,0,0,0,0,0,-1,1721,1716,0,0
504,-692,0,0,0,0,0,0,0,0,0,-1,1728,1716,0,0
511,-692,0,0,0,0,0,0,0,0,0,-1,1735,1716,0,0
518,-692,0,0,0,0,0,0,0,0,0,-1,1742,1716,0,0
525,-692,0,0,0,0,0,0,0,0,0,-1,1749,1716,0,0
532,-692,0,0,0,0,0,0,0,0,0,-1,1756,1716,0,0
539,-692,0,0,0,0,0,0,0,0,0,-1,1763,1716,0,0
546,-692,0,0,0,0,0,0,0,0,0,-1,1770,1716,0,0
553,-692,0,0,0,0,0,0,0,0,0,-1,1777,1716,0,0
560,-692,0,0,0,0,0,0,0,0,0,-1,1784,1716,0,0
567,-692,0,0,0,0,0,0,0,0,0,-1,1791,1716,0,0
574,-692,0,0,0,0,0,0,0,0,0,-1,1798,1716,0,0
581,-692,0,0,0,0,0,0,0,0,0,-1,1805,1716,0,0
588,-692,0,0,0,0,0,0,0,0,0,-1,1812,1716,0,0
595,-692,0,0,0,0,0,0,0,0,0,-1,1819,1716,0,0
602,-692,0,0,0,0,0,0,0,0,0,-1,1826,1716,0,0
609,-692,0,0,0,0,0,0,0,0,0,-1,1833,1716,0,0
616,-692,0,0,0,0,0,0,0,0,0,-1,1840,1716,0,0
623,-692,0,0,0,0,0,0,0,0,0,-1,1847,1716,0,0
630,-692,0,0,0,0,0,0,0,0,0,-1,1854,1716,0,0
637,-692,0,0,0,0,0,0,0,0,0,-1,1861,1716,0,0
644,-692,0,0,0,0,0,0,0,0,0,-1,1868,1716,0,0
651,-692,0,0,0,0,0,0,0,0,0,-1,1875,1716,0,0
658,-692,0,0,0,0,0,0,0,0,0,-1,1882,1716,0,0
665,-692,0,0,0,0,0,0,0,0,0,-1,1889,1716,0,0
672,-692,0,0,0,0,0,0,0,0,0,-1,1896,1716,0,0
679,-692,0,0,0,0,0,0,0,0,0,-1,1903,1716,0,0
686,-692,0,0,0,0,0,0,0,0,0,-1,1910,1716,0,0
693,-692,0,0,0,0,0,0,0,0,0,-1,1917,1716,0,0
700,-692,0,0,0,0,0,0,0,0,0,-1,1924,1716,0,0
707,-692,0,0,0,0,0,0,0,0,0,-1,1931,1716,0,0
714,-692,0,0,0,0,0,0,0,0,0,-1,1938,1716,0,0
721,-692,0,0,0,0,0,0,0,0,0,-1,1945,1716,0,0
728,-692,0,0,0,0,0,0,0,0,0,-1,1952,1716,0,0
735,-692,0,0,0,0,0,0,0,0,0,-1,1959,1716,0,0
742,-692,0,0,0,0,0,0,0,0,0,-1,1966,1716,0,0
749,-692,0,0,0,0,0,0,0,0,0,-1,1973,1716,0,0
756,-692,0,0,0,0,0,0,0,0,0,-1,1980,1716,0,0
763,-692,0,0,0,0,0,0,0,0,0,-1,1987,1716,0,0
770,-692,0,0,0,0,0,0,0,0,0,-1,1994,1716,0,0
777,-692,0,0,0,0,0,0,0,0,0,-1,2001,1716,0,0
784,-692,0,0,0,0,0,0,0,0,0,-1,2008,1716,0,0
791,-692,0,0,0,0,0,0,0,0,0,-1,2015,1716,0,0
798,-692,0,0,0,0,0,0,0,0,0,-1,2022,1716,0,0
805,-692,0,0,0,0,0,0,0,0,0,-1,2029,1716,0,0
812,-692,0,0,0,0,0,0,0,0,0,-1,2036,1716,0,0
-700,-699,0,0,0,0,0,0,0,0,0,-1,524,1723,0,0
-693,-699,0,0,0,0,0,0,0,0,0,-1,531,1723,0,0
-686,-699,0,0,0,0,0,0,0,0,0,-1,538,1723,0,0
-679,-699,0,0,0,0,0,0,0,0,0,-1,545,1723,0,0
-672,-699,0,0,0,0,0,0,0,0,0,-1,552,1723,0,0
-665,-699,0,0,0,0,0,0,0,0,0,-1,559,1723,0,0
-658,-699,0,0,0,0,0,0,0,0,0,-1,566,1723,0,0
-651,-699,0,0,0,0,0,0,0,0,0,-1,573,1723,0,0
-644,-699,0,0,0,0,0,0,0,0,0,-1,580,1723,0,0
-637,-699,0,0,0,0,0,0,0,0,0,-1,587,1723,0,0
-630,-699,0,0,0,0,0,0,0,0,0,-1,594,1723,0,0
-623,-699,0,0,0,0,0,0,0,0,0,-1,601,1723,0,0
-616,-699,0,0,0,0,0,0,0,0,0,-1,608,1723,0,0
-609,-699,0,0,0,0,0,0,0,0,0,-1,615,1723,0,0
-602,-699,0,0,0,0,0,0,0,0,0,-1,622,1723,0,0
-595,-699,0,0,0,0,0,0,0,0,0,-1,629,1723,0,0
-588,-699,0,0,0,0,0,0,0,0,0,-1,636,1723,0,0
-581,-699,0,0,0,0,0,0,0,0,0,-1,643,1723,0,0
-574,-699,0,0,0,0,0,0,0,0,0,-1,650,1723,0,0
-567,-699,0,0,0,0,0,0,0,0,0,-1,657,1723,0,0
-560,-699,0,0,0,0,0,0,0,0,0,-1,664,1723,0,0
-553,-699,0,0,0,0,0,0,0,0,0,-1,671,1723,0,0
-546,-699,0,0,0,0,0,0,0,0,0,-1,678,1723,0,0
-539,-699,0,0,0,0,0,0,0,0,0,-1,685,1723,0,0
-532,-699,0,0,0,0,0,0,0,0,0,-1,692,1723,0,0
-525,-699,0,0,0,0,0,0,0,0,0,-1,699,1723,0,0
-518,-699,0,0,0,0,0,0,0,0,0,-1,706,1723,0,0
-511,-699,0,0,0,0,0,0,0,0,0,-1,713,1723,0,0
-504,-699,0,0,0,0,0,0,0,0,0,-1,720,1723,0,0
-497,-699,0,0,0,0,0,0,0,0,0,-1,727,1723,0,0
-490,-699,0,0,0,0,0,0,0,0,0,-1,734,1723,0,0
-483,-699,0,0,0,0,0,0,0,0,0,-1,741,1723,0,0
-476,-699,0,0,0,0,0,0,0,0,0,-1,748,1723,0,0
-469,-699,0,0,0,0,0,0,0,0,0,-1,755,1723,0,0
-462,-699,0,0,0,0,0,0,0,0,0,-1,762,1723,0,0
-455,-699,0,0,0,0,0,0,0,0,0,-1,769,1723,0,0
-448,-699,0,0,0,0,0,0,0,0,0,-1,776,1723,0,0
-441,-699,0,0,0,0,0,0,0,0,0,-1,783,1723,0,0
-434,-699,0,0,0,0,0,0,0,0,0,-1,790,1723,0,0
-427,-699,0,0,0,0,0,0,0,0,0,-1,797,1723,0,0
-420,-699,0,0,0,0,0,0,0,0,0,-1,804,1723,0,0
-413,-699,0,0,0,0,0,0,0,0,0,-1,811,1723,0,0
-406,-699,0,0,0,0,0,0,0,0,0,-1,818,1723,0,0
-399,-699,0,0,0,0,0,0,0,0,0,-1,825,1723,0,0
-392,-699,0,0,0,0,0,0,0,0,0,-1,832,1723,0,0
-385,-699,0,0,0,0,0,0,0,0,0,-1,839,1723,0,0
-378,-699,0,0,0,0,0,0,0,0,0,-1,846,1723,0,0
-371,-699,0,0,0,0,0,0,0,0,0,-1,853,1723,0,0
-364,-699,0,0,0,0,0,0,0,0,0,-1,860,1723,0,0
-357,-699,0,0,0,0,0,0,0,0,0,-1,867,1723,0,0
-350,-699,0,0,0,0,0,0,0,0,0,-1,874,1723,0,0
-343,-699,0,0,0,0,0,0,0,0,0,-1,881,1723,0,0
-336,-699,0,0,0,0,0,0,0,0,0,-1,888,1723,0,0
-329,-699,0,0,0,0,0,0,0,0,0,-1,895,1723,0,0
-322,-699,0,0,0,0,0,0,0,0,0,-1,902,1723,0,0
-315,-699,6.20001,19.5193,0,0,0,0,0,0,0,-1,909,1723,6.20001,-19.5193
-308,-699,6.98151,18.9218,0,0,0,0,0,0,0,-1,916,1723,6.98151,-18.9217
-301,-699,4.72729,12.8752,0,0,0,0,0,0,0,-1,923,1723,4.72732,-12.8752
-294,-699,6.90332,19.8601,0,0,0,0,0,0,0,-1,930,1723,6.90332,-19.8601
-287,-699,9.0968,36.3315,0,0,0,0,0,0,0,-1,937,1723,9.09678,-36.3315
-280,-699,9.53729,45.2391,0,0,0,0,0,0,0,-1,944,1723,9.53728,-45.2391
-273,-699,8.216,48.0923,0,0,0,0,0,0,0,-1,951,1723,8.21601,-48.0923
-266,-699,6.81915,20.8951,0,0,0,0,0,0,0,-1,958,1723,6.81914,-20.8952
-259,-699,5.39758,14.5466,0,0,0,0,0,0,0,-1,965,1723,5.39759,-14.5466
-252,-699,8.3866,31.6284,0,0,0,0,0,0,0,-1,972,1723,8.38657,-31.6284
-245,-699,7.94281,50.88,0,0,0,0,0,0,0,-1,979,1723,7.9428,-50.88
-238,-699,8.49646,67.9598,0,0,0,0,0,0,0,-1,986,1723,8.49646,-67.9598
-231,-699,4.8941,142.621,0,0,0,0,0,0,0,-1,993,1723,4.89409,-142.621
-224,-699,2.16638,228.467,0,0,0,0,0,0,0,-1,1000,1723,2.16636,-228.467
-217,-699,1.97803,240.932,0,0,0,0,0,0,0,-1,1007,1723,1.97804,-240.932
-210,-699,1.34998,249.174,0,0,0,0,0,0,0,-1,1014,1723,1.34999,-249.174
-203,-699,-2.22559,281.426,0,0,0,0,0,0,0,-1,1021,1723,-2.2256,-281.426
-196,-699,-2.75269,284.701,0,0,0,0,0,0,0,-1,1028,1723,-2.75272,-284.701
-189,-699,-3.29187,287.219,0,0,0,0,0,0,0,-1,1035,1723,-3.29184,-287.22
-182,-699,-3.64868,289.846,0.0160161,0.000258407,-0.00952638,0.0204996,-0.00422512,-0.439888,0.0152709,0.0268394,1042,1723,-3.64872,-289.846
-175,-699,-3.98206,292.442,0.0193779,-0.001992,-0.0109674,0.0240048,-0.0066189,-0.399222,0.0186062,0.0269157,1049,1723,-3.98202,-292.442
-168,-699,-4.23914,294.854,0.0227276,-0.00387686,-0.0123257,0.0275602,-0.00870943,-0.373655,0.0218627,0.0281596,1056,1723,-4.23909,-294.854
-161,-699,-4.45471,297.16,0.0259889,-0.00531899,-0.0136851,0.0311274,-0.0104575,-0.359196,0.0249781,0.021759,1063,1723,-4.45466,-297.16
-154,-699,-4.73279,299.296,0.0290854,-0.00667671,-0.0149795,0.0345306,-0.012122,-0.348664,0.0279514,0.0242652,1070,1723,-4.7328,-299.296
-147,-699,-4.95386,301.473,0.0319481,-0.00810076,-0.0162062,0.0376845,-0.0138371,-0.3402,0.0307898,0.0364779,1077,1723,-4.95381,-301.473
-140,-699,-4.97937,303.813,0.0347657,-0.0089983,-0.0171579,0.0406904,-0.014923,-0.332488,0.0332374,0.0217327,1084,1723,-4.97942,-303.813
-133,-699,-4.922,305.97,0.0371016,-0.00967336,-0.0179649,0.043205,-0.0157767,-0.327505,0.0352591,0.0146135,1091,1723,-4.92199,-305.97
-126,-699,-4.88562,307.961,0.0391498,-0.0102859,-0.0187214,0.0454394,-0.0165755,-0.324112,0.0370745,0.0203617,1098,1723,-4.88561,-307.961
-119,-699,-4.94702,309.964,0.041182,-0.0110719,-0.0192907,0.0475319,-0.0174218,-0.318,0.0388209,0.0270161,1105,1723,-4.94703,-309.964
-112,-699,-5.03406,311.898,0.043075,-0.0120443,-0.0197319,0.0494105,-0.0183798,-0.310682,0.0404825,0.019994,1112,1723,-5.03405,-311.898
-105,-699,-5.04395,313.781,0.0448624,-0.0132652,-0.0199059,0.0510257,-0.0194285,-0.300261,0.0420182,0.022117,1119,1723,-5.04394,-313.78
-98,-699,-4.86096,315.56,0.0469692,-0.0144864,-0.0203071,0.0530731,-0.0205904,-0.291989,0.0438863,0.0292224,1126,1723,-4.86098,-315.56
-91,-699,-4.67981,317.247,0.0496257,-0.0160645,-0.0204792,0.0554871,-0.0219259,-0.278763,0.0460733,0.0415608,1133,1723,-4.67981,-317.247
-84,-699,-4.5498,319.02,0,0,0,0,0,0,0,-1,1140,1723,-4.54986,-319.02
-77,-699,-4.12866,320.523,0.0564952,-0.0196763,-0.0197736,0.0613224,-0.0245035,-0.23944,0.0510489,0.035886,1147,1723,-4.12868,-320.523
-70,-699,-3.89624,321.934,0.0596496,-0.0220076,-0.0188204,0.0637786,-0.0261366,-0.215965,0.0534074,0.0348668,1154,1723,-3.8962,-321.934
-63,-699,-3.6366,323.45,0.0632489,-0.0232891,-0.0178843,0.0667993,-0.0268395,-0.195972,0.0556791,0.0286756,1161,1723,-3.63656,-323.45
-56,-699,-3.37634,324.808,0.0670322,-0.023903,-0.0167738,0.0700276,-0.0268984,-0.176714,0.0577774,0.0221308,1168,1723,-3.3763,-324.808
-49,-699,-2.97119,325.976,0,0,0,0,0,0,0,-1,1175,1723,-2.97118,-325.976
-42,-699,-2.58545,327.193,0,0,0,0,0,0,0,-1,1182,1723,-2.58551,-327.193
-35,-699,-2.25134,328.416,0.0729228,-0.025948,-0.0124555,0.0744678,-0.027493,-0.123409,0.060914,0.049576,1189,1723,-2.25129,-328.416
-28,-699,-1.53284,329.494,0.0748144,-0.0271575,-0.0114444,0.076083,-0.0284261,-0.110401,0.0623945,0.0301806,1196,1723,-1.53281,-329.494
-21,-699,-1.25146,330.421,0.0766066,-0.0287444,-0.0101612,0.0775777,-0.0297155,-0.095281,0.0639673,0.0187686,1203,1723,-1.25145,-330.421
-14,-699,-0.893311,331.408,0.0779936,-0.0301071,-0.0088246,0.0787092,-0.0308228,-0.0809192,0.0652218,0.0311406,1210,1723,-0.893321,-331.408
-7,-699,-0.390015,332.33,0.0792876,-0.0315231,-0.00763848,0.0798117,-0.0320472,-0.0685008,0.0665154,0.030533,1217,1723,-0.390027,-332.33
0,-699,0.157837,333.129,0.080426,-0.0331037,-0.00638516,0.080784,-0.0334617,-0.0560068,0.0678197,0.0261422,1224,1723,0.157882,-333.129
7,-699,0.71875,333.794,0.0810575,-0.0346595,-0.00476671,0.0812536,-0.0348555,-0.0411,0.0687966,0.0322781,1231,1723,0.718736,-333.794
14,-699,1.29797,334.403,0.0813888,-0.0364944,-0.00322037,0.0814767,-0.0365823,-0.0272911,0.0697848,0.0374729,1238,1723,1.29794,-334.403
21,-699,1.78296,334.889,0.0811253,-0.0389201,-0.00184449,0.0811536,-0.0389485,-0.0153601,0.0707537,0.0328291,1245,1723,1.78295,-334.889
28,-699,2.35266,335.269,0.0814608,-0.0410514,-0.000743932,0.0814653,-0.0410559,-0.00607201,0.0720087,0.0314328,1252,1723,2.35266,-335.269
35,-699,2.922,335.743,0.0821059,-0.0424725,0.000125972,0.0821061,-0.0424726,0.00101119,0.0731288,0.0298419,1259,1723,2.92194,-335.743
42,-699,3.32751,336.15,0,0,0,0,0,0,0,-1,1266,1723,3.32746,-336.15
49,-699,4.04333,336.486,0,0,0,0,0,0,0,-1,1273,1723,4.04335,-336.486
56,-699,4.91736,336.517,0.0770085,-0.044427,0.00365165,0.0771182,-0.0445368,0.0300345,0.0710722,0.0430865,1280,1723,4.91741,-336.517
63,-699,5.39868,336.477,0.0740736,-0.0439517,0.00440429,0.0742378,-0.0441158,0.0372474,0.0690652,0.0323235,1287,1723,5.39874,-336.477
70,-699,5.63879,336.374,0.0708409,-0.0425229,0.00506374,0.0710666,-0.0427486,0.0445498,0.0663858,0.0259634,1294,1723,5.6388,-336.374
77,-699,6.16003,336.497,0.0670601,-0.0402609,0.00556467,0.0673478,-0.0405487,0.051666,0.0629313,0.0259652,1301,1723,6.16003,-336.497
84,-699,6.68115,336.611,0.0624897,-0.0366758,0.00599594,0.0628509,-0.037037,0.0601718,0.0583087,0.0353111,1308,1723,6.68113,-336.611
91,-699,7.43127,336.546,0.0588104,-0.0328633,0.00626453,0.0592365,-0.0332894,0.0679144,0.0541155,0.0334223,1315,1723,7.43131,-336.546
98,-699,7.8866,336.38,0.0558493,-0.0287784,0.00684709,0.0563997,-0.0293288,0.0802131,0.0503112,0.0209209,1322,1723,7.8866,-336.38
105,-699,7.9646,336.29,0.0539075,-0.0253056,0.00771461,0.0546518,-0.02605,0.0961862,0.0475586,0.0307278,1329,1723,7.96462,-336.29
112,-699,7.44177,336.214,0,0,0,0,0,0,0,-1,1336,1723,7.44183,-336.215
119,-699,5.63745,334.407,0,0,0,0,0,0,0,-1,1343,1723,5.63739,-334.407
126,-699,5.05969,331.137,0,0,0,0,0,0,0,-1,1350,1723,5.05974,-331.137
133,-699,10.7693,333.915,0,0,0,0,0,0,0,-1,1357,1723,10.7692,-333.915
140,-699,11.2924,333.091,0,0,0,0,0,0,0,-1,1364,1723,11.2923,-333.091
147,-699,11.7957,332.395,0,0,0,0,0,0,0,-1,1371,1723,11.7956,-332.395
154,-699,12.5817,331.586,0,0,0,0,0,0,0,-1,1378,1723,12.5817,-331.586
161,-699,12.8097,330.632,0.0726562,-0.00547536,0.0188042,0.0769463,-0.00976546,0.224307,0.0548433,0.0335094,1385,1723,12.8097,-330.632
168,-699,13.5381,329.724,0.0717689,-0.00624612,0.0199515,0.0765752,-0.0110524,0.236394,0.055105,0.022479,1392,1723,13.5381,-329.724
175,-699,14.2815,328.832,0,0,0,0,0,0,0,-1,1399,1723,14.2815,-328.832
182,-699,14.4675,327.48,0.0634955,-0.00823775,0.0197528,0.068575,-0.0133173,0.251702,0.0507417,0.0266733,1406,1723,14.4675,-327.48
189,-699,14.5259,326.097,0.0599272,-0.0087906,0.0188611,0.0647636,-0.0136271,0.251016,0.0483623,0.0243477,1413,1723,14.5259,-326.097
196,-699,14.7151,324.788,0,0,0,0,0,0,0,-1,1420,1723,14.7151,-324.788
203,-699,14.9122,323.673,0,0,0,0,0,0,0,-1,1427,1723,14.9122,-323.673
210,-699,15.3645,322.09,0.0525066,-0.00941991,0.016505,0.0566309,-0.0135442,0.244868,0.0429859,0.0379498,1434,1723,15.3645,-322.09
217,-699,15.6249,320.505,0.0503808,-0.00923996,0.0158216,0.0543192,-0.0131784,0.243968,0.0413123,0.0221945,1441,1723,15.6248,-320.505
224,-699,15.7418,318.935,0.0486714,-0.00857746,0.0149068,0.0523203,-0.0122264,0.240063,0.0395901,0.025588,1448,1723,15.7418,-318.935
231,-699,15.8781,317.308,0.0473721,-0.00668098,0.0146069,0.0510668,-0.0103757,0.247746,0.0379785,0.0212434,1455,1723,15.878,-317.308
238,-699,15.9646,315.471,0.045954,-0.00457885,0.0141547,0.0496487,-0.00827356,0.255327,0.0361737,0.0175949,1462,1723,15.9646,-315.471
245,-699,16.079,313.699,0.0443146,-0.00223948,0.0135894,0.0479911,-0.00591599,0.264216,0.0341374,0.0202297,1469,1723,16.079,-313.699
252,-699,16.2731,311.98,0.0422028,-0.000340894,0.0130011,0.0458613,-0.00399933,0.274302,0.0319907,0.0196577,1476,1723,16.273,-311.98
259,-699,16.2008,310.078,0.0396513,0.00137388,0.0125272,0.0433866,-0.00236143,0.289783,0.0297428,0.0197684,1483,1723,16.2008,-310.078
266,-699,16.0746,307.971,0.0367803,0.00290677,0.0120961,0.0406563,-0.000969192,0.310094,0.027433,0.0216685,1490,1723,16.0746,-307.971
273,-699,16.0726,305.896,0.0337826,0.00412166,0.0115015,0.0377198,0.000184396,0.329821,0.0250853,0.0221573,1497,1723,16.0726,-305.896
280,-699,16.0109,303.702,0.0306034,0.00495688,0.0108912,0.0346044,0.000955945,0.352052,0.0227576,0.021219,1504,1723,16.0109,-303.702
287,-699,15.8082,301.461,0.0274171,0.00549656,0.0102535,0.0314655,0.00144811,0.376047,0.0205113,0.0169347,1511,1723,15.8082,-301.461
294,-699,15.6234,299.182,0.024511,0.00606016,0.0092758,0.028368,0.00220319,0.394061,0.018222,0.0169219,1518,1723,15.6235,-299.182
301,-699,15.4556,296.883,0.0214527,0.00670766,0.00822816,0.0251281,0.00303226,0.420095,0.0158384,0.019595,1525,1723,15.4556,-296.883
308,-699,15.2416,294.53,0.0185969,0.00740088,0.00697944,0.021946,0.0040518,0.447397,0.0134845,0.0230229,1532,1723,15.2415,-294.53
315,-699,14.8075,291.969,0.0160487,0.00796445,0.00541739,0.0187658,0.00524737,0.464885,0.0111797,0.0270198,1539,1723,14.8075,-291.969
322,-699,14.4073,289.392,0.0136385,0.00877274,0.00370062,0.0156344,0.00677692,0.494608,0.0090531,0.0347543,1546,1723,14.4074,-289.392
329,-699,13.9434,286.814,0,0,0,0,0,0,0,-1,1553,1723,13.9433,-286.814
336,-699,13.4711,284.27,0,0,0,0,0,0,0,-1,1560,1723,13.471,-284.27
343,-699,13.1276,281.021,0,0,0,0,0,0,0,-1,1567,1723,13.1276,-281.021
350,-699,0.331909,223.11,0,0,0,0,0,0,0,-1,1574,1723,0.331862,-223.11
357,-699,0.303711,217.913,0,0,0,0,0,0,0,-1,1581,1723,0.303652,-217.913
364,-699,0.180664,204.805,0,0,0,0,0,0,0,-1,1588,1723,0.180709,-204.805
371,-699,6.60791,123.792,0,0,0,0,0,0,0,-1,1595,1723,6.6079,-123.792
378,-699,9.63354,70.7234,0,0,0,0,0,0,0,-1,1602,1723,9.63356,-70.7234
385,-699,8.04944,42.8464,0,0,0,0,0,0,0,-1,1609,1723,8.04943,-42.8464
392,-699,8.04492,42.0624,0,0,0,0,0,0,0,-1,1616,1723,8.04492,-42.0623
399,-699,8.49963,41.4828,0,0,0,0,0,0,0,-1,1623,1723,8.49961,-41.4828
406,-699,11.7264,44.1525,0,0,0,0,0,0,0,-1,1630,1723,11.7264,-44.1525
413,-699,12.3215,44.3011,0,0,0,0,0,0,0,-1,1637,1723,12.3215,-44.3011
420,-699,8.41907,38.2246,0,0,0,0,0,0,0,-1,1644,1723,8.41902,-38.2247
427,-699,2.98743,11.8593,0,0,0,0,0,0,0,-1,1651,1723,2.98746,-11.8592
434,-699,4.66455,8.90222,0,0,0,0,0,0,0,-1,1658,1723,4.66456,-8.90223
441,-699,0,0,0,0,0,0,0,0,0,-1,1665,1723,0,0
448,-699,0,0,0,0,0,0,0,0,0,-1,1672,1723,0,0
455,-699,0,0,0,0,0,0,0,0,0,-1,1679,1723,0,0
462,-699,0,0,0,0,0,0,0,0,0,-1,1686,1723,0,0
469,-699,0,0,0,0,0,0,0,0,0,-1,1693,1723,0,0
476,-699,0,0,0,0,0,0,0,0,0,-1,1700,1723,0,0
483,-699,0,0,0,0,0,0,0,0,0,-1,1707,1723,0,0
490,-699,0,0,0,0,0,0,0,0,0,-1,1714,1723,0,0
497,-699,0,0,0,0,0,0,0,0,0,-1,1721,1723,0,0
504,-699,0,0,0,0,0,0,0,0,0,-1,1728,1723,0,0
511,-699,0,0,0,0,0,0,0,0,0,-1,1735,1723,0,0
518,-699,0,0,0,0,0,0,0,0,0,-1,1742,1723,0,0
525,-699,0,0,0,0,0,0,0,0,0,-1,1749,1723,0,0
532,-699,0,0,0,0,0,0,0,0,0,-1,1756,1723,0,0
539,-699,0,0,0,0,0,0,0,0,0,-1,1763,1723,0,0
546,-699,0,0,0,0,0,0,0,0,0,-1,1770,1723,0,0
553,-699,0,0,0,0,0,0,0,0,0,-1,1777,1723,0,0
560,-699,0,0,0,0,0,0,0,0,0,-1,1784,1723,0,0
567,-699,0,0,0,0,0,0,0,0,0,-1,1791,1723,0,0
574,-699,0,0,0,0,0,0,0,0,0,-1,1798,1723,0,0
581,-699,0,0,0,0,0,0,0,0,0,-1,1805,1723,0,0
588,-699,0,0,0,0,0,0,0,0,0,-1,1812,1723,0,0
595,-699,0,0,0,0,0,0,0,0,0,-1,1819,1723,0,0
602,-699,0,0,0,0,0,0,0,0,0,-1,1826,1723,0,0
609,-699,0,0,0,0,0,0,0,0,0,-1,1833,1723,0,0
616,-699,0,0,0,0,0,0,0,0,0,-1,1840,1723,0,0
623,-699,0,0,0,0,0,0,0,0,0,-1,1847,1723,0,0
630,-699,0,0,0,0,0,0,0,0,0,-1,1854,1723,0,0
637,-699,0,0,0,0,0,0,0,0,0,-1,1861,1723,0,0
644,-699,0,0,0,0,0,0,0,0,0,-1,1868,1723,0,0
651,-699,0,0,0,0,0,0,0,0,0,-1,1875,1723,0,0
658,-699,0,0,0,0,0,0,0,0,0,-1,1882,1723,0,0
665,-699,0,0,0,0,0,0,0,0,0,-1,1889,1723,0,0
672,-699,0,0,0,0,0,0,0,0,0,-1,1896,1723,0,0
679,-699,0,0,0,0,0,0,0,0,0,-1,1903,1723,0,0
686,-699,0,0,0,0,0,0,0,0,0,-1,1910,1723,0,0
693,-699,0,0,0,0,0,0,0,0,0,-1,1917,1723,0,0
700,-699,0,0,0,0,0,0,0,0,0,-1,1924,1723,0,0
707,-699,0,0,0,0,0,0,0,0,0,-1,1931,1723,0,0
714,-699,0,0,0,0,0,0,0,0,0,-1,1938,1723,0,0
721,-699,0,0,0,0,0,0,0,0,0,-1,1945,1723,0,0
728,-699,0,0,0,0,0,0,0,0,0,-1,1952,1723,0,0
735,-699,0,0,0,0,0,0,0,0,0,-1,1959,1723,0,0
742,-699,0,0,0,0,0,0,0,0,0,-1,1966,1723,0,0
749,-699,0,0,0,0,0,0,0,0,0,-1,1973,1723,0,0
756,-699,0,0,0,0,0,0,0,0,0,-1,1980,1723,0,0
763,-699,0,0,0,0,0,0,0,0,0,-1,1987,1723,0,0
770,-699,0,0,0,0,0,0,0,0,0,-1,1994,1723,0,0
777,-699,0,0,0,0,0,0,0,0,0,-1,2001,1723,0,0
784,-699,0,0,0,0,0,0,0,0,0,-1,2008,1723,0,0
791,-699,0,0,0,0,0,0,0,0,0,-1,2015,1723,0,0
798,-699,0,0,0,0,0,0,0,0,0,-1,2022,1723,0,0
805,-699,0,0,0,0,0,0,0,0,0,-1,2029,1723,0,0
812,-699,0,0,0,0,0,0,0,0,0,-1,2036,1723,0,0
-700,-706,0,0,0,0,0,0,0,0,0,-1,524,1730,0,0
-693,-706,0,0,0,0,0,0,0,0,0,-1,531,1730,0,0
-686,-706,0,0,0,0,0,0,0,0,0,-1,538,1730,0,0
-679,-706,0,0,0,0,0,0,0,0,0,-1,545,1730,0,0
-672,-706,0,0,0,0,0,0,0,0,0,-1,552,1730,0,0
-665,-706,0,0,0,0,0,0,0,0,0,-1,559,1730,0,0
-658,-706,0,0,0,0,0,0,0,0,0,-1,566,1730,0,0
-651,-706,0,0,0,0,0,0,0,0,0,-1,573,1730,0,0
-644,-706,0,0,0,0,0,0,0,0,0,-1,580,1730,0,0
-637,-706,0,0,0,0,0,0,0,0,0,-1,587,1730,0,0
-630,-706,0,0,0,0,0,0,0,0,0,-1,594,1730,0,0
-623,-706,0,0,0,0,0,0,0,0,0,-1,601,1730,0,0
-616,-706,0,0,0,0,0,0,0,0,0,-1,608,1730,0,0
-609,-706,0,0,0,0,0,0,0,0,0,-1,615,1730,0,0
-602,-706,0,0,0,0,0,0,0,0,0,-1,622,1730,0,0
-595,-706,0,0,0,0,0,0,0,0,0,-1,629,1730,0,0
-588,-706,0,0,0,0,0,0,0,0,0,-1,636,1730,0,0
-581,-706,0,0,0,0,0,0,0,0,0,-1,643,1730,0,0
-574,-706,0,0,0,0,0,0,0,0,0,-1,650,1730,0,0
-567,-706,0,0,0,0,0,0,0,0,0,-1,657,1730,0,0
-560,-706,0,0,0,0,0,0,0,0,0,-1,664,1730,0,0
-553,-706,0,0,0,0,0,0,0,0,0,-1,671,1730,0,0
-546,-706,0,0,0,0,0,0,0,0,0,-1,678,1730,0,0
-539,-706,0,0,0,0,0,0,0,0,0,-1,685,1730,0,0
-532,-706,0,0,0,0,0,0,0,0,0,-1,692,1730,0,0
-525,-706,0,0,0,0,0,0,0,0,0,-1,699,1730,0,0
-518,-706,0,0,0,0,0,0,0,0,0,-1,706,1730,0,0
-511,-706,0,0,0,0,0,0,0,0,0,-1,713,1730,0,0
-504,-706,0,0,0,0,0,0,0,0,0,-1,720,1730,0,0
-497,-706,0,0,0,0,0,0,0,0,0,-1,727,1730,0,0
-490,-706,0,0,0,0,0,0,0,0,0,-1,734,1730,0,0
-483,-706,0,0,0,0,0,0,0,0,0,-1,741,1730,0,0
-476,-706,0,0,0,0,0,0,0,0,0,-1,748,1730,0,0
-469,-706,0,0,0,0,0,0,0,0,0,-1,755,1730,0,0
-462,-706,0,0,0,0,0,0,0,0,0,-1,762,1730,0,0
-455,-706,0,0,0,0,0,0,0,0,0,-1,769,1730,0,0
-448,-706,0,0,0,0,0,0,0,0,0,-1,776,1730,0,0
-441,-706,0,0,0,0,0,0,0,0,0,-1,783,1730,0,0
-434,-706,0,0,0,0,0,0,0,0,0,-1,790,1730,0,0
-427,-706,0,0,0,0,0,0,0,0,0,-1,797,1730,0,0
-420,-706,0,0,0,0,0,0,0,0,0,-1,804,1730,0,0
-413,-706,0,0,0,0,0,0,0,0,0,-1,811,1730,0,0
-406,-706,0,0,0,0,0,0,0,0,0,-1,818,1730,0,0
-399,-706,0,0,0,0,0,0,0,0,0,-1,825,1730,0,0
-392,-706,0,0,0,0,0,0,0,0,0,-1,832,1730,0,0
-385,-706,0,0,0,0,0,0,0,0,0,-1,839,1730,0,0
-378,-706,0,0,0,0,0,0,0,0,0,-1,846,1730,0,0
-371,-706,0,0,0,0,0,0,0,0,0,-1,853,1730,0,0
-364,-706,0,0,0,0,0,0,0,0,0,-1,860,1730,0,0
-357,-706,0,0,0,0,0,0,0,0,0,-1,867,1730,0,0
-350,-706,0,0,0,0,0,0,0,0,0,-1,874,1730,0,0
-343,-706,0,0,0,0,0,0,0,0,0,-1,881,1730,0,0
-336,-706,0,0,0,0,0,0,0,0,0,-1,888,1730,0,0
-329,-706,0,0,0,0,0,0,0,0,0,-1,895,1730,0,0
-322,-706,0,0,0,0,0,0,0,0,0,-1,902,1730,0,0
-315,-706,0,0,0,0,0,0,0,0,0,-1,909,1730,0,0
-308,-706,5.08191,14.6245,0,0,0,0,0,0,0,-1,916,1730,5.08188,-14.6245
-301,-706,7.45007,21.1975,0,0,0,0,0,0,0,-1,923,1730,7.45005,-21.1976
-294,-706,11.8603,21.026,0,0,0,0,0,0,0,-1,930,1730,11.8603,-21.026
-287,-706,10.3292,20.8425,0,0,0,0,0,0,0,-1,937,1730,10.3292,-20.8425
-280,-706,7.9162,21.8951,0,0,0,0,0,0,0,-1,944,1730,7.9162,-21.8952
-273,-706,7.38953,20.6355,0,0,0,0,0,0,0,-1,951,1730,7.38955,-20.6355
-266,-706,9.66724,22.8231,0,0,0,0,0,0,0,-1,958,1730,9.66722,-22.8231
-259,-706,3.47852,20.7363,0,0,0,0,0,0,0,-1,965,1730,3.47851,-20.7364
-252,-706,3.84259,20.1979,0,0,0,0,0,0,0,-1,972,1730,3.84256,-20.1979
-245,-706,4.698,19.2992,0,0,0,0,0,0,0,-1,979,1730,4.69799,-19.2991
-238,-706,8.26819,61.1252,0,0,0,0,0,0,0,-1,986,1730,8.26817,-61.1253
-231,-706,6.17877,146.635,0,0,0,0,0,0,0,-1,993,1730,6.17878,-146.635
-224,-706,5.86743,147.823,0,0,0,0,0,0,0,-1,1000,1730,5.86742,-147.822
-217,-706,4.07013,186.369,0,0,0,0,0,0,0,-1,1007,1730,4.07013,-186.369
-210,-706,3.89636,188.171,0,0,0,0,0,0,0,-1,1014,1730,3.89636,-188.171
-203,-706,4.05615,187.254,0,0,0,0,0,0,0,-1,1021,1730,4.05613,-187.254
-196,-706,3.61365,188.147,0,0,0,0,0,0,0,-1,1028,1730,3.6136,-188.147
-189,-706,-0.166138,287.657,0,0,0,0,0,0,0,-1,1035,1730,-0.16614,-287.657
-182,-706,-1.06128,290.34,0,0,0,0,0,0,0,-1,1042,1730,-1.06134,-290.34
-175,-706,-1.42297,293.051,0,0,0,0,0,0,0,-1,1049,1730,-1.42295,-293.051
-168,-706,-1.85547,295.211,0.0135173,-0.00242681,-0.00765062,0.0165945,-0.005504,-0.382413,0.0132833,0.0415302,1056,1730,-1.85545,-295.211
-161,-706,-2.03113,297.593,0.0169672,-0.00404882,-0.00914976,0.0203925,-0.0074741,-0.358207,0.0166551,0.0242783,1063,1730,-2.03113,-297.593
-154,-706,-2.25476,299.91,0.0202631,-0.00565435,-0.0105139,0.0239918,-0.00938304,-0.340807,0.0198748,0.0207598,1070,1730,-2.25471,-299.91
-147,-706,-2.51001,302.159,0.0231449,-0.00727828,-0.0117374,0.0271468,-0.0112802,-0.328594,0.0228075,0.0167938,1077,1730,-2.50998,-302.159
-140,-706,-2.65674,304.314,0.0259711,-0.0081081,-0.0126803,0.0301715,-0.0123085,-0.319878,0.0252383,0.019657,1084,1730,-2.65679,-304.314
-133,-706,-2.71301,306.363,0.0284542,-0.00872205,-0.0134527,0.0328115,-0.0130794,-0.313236,0.0272993,0.0161291,1091,1730,-2.713,-306.363
-126,-706,-2.78442,308.324,0.0306276,-0.00914502,-0.0141538,0.0351502,-0.0136676,-0.309279,0.0290804,0.0209614,1098,1730,-2.78438,-308.324
-119,-706,-2.86035,310.316,0.0327446,-0.00954846,-0.0146583,0.0373282,-0.0141321,-0.303066,0.0307003,0.0297737,1105,1730,-2.8603,-310.316
-112,-706,-2.87268,312.337,0.0346392,-0.0100942,-0.0151562,0.0392907,-0.0147457,-0.297775,0.0322529,0.0217277,1112,1730,-2.8727,-312.337
-105,-706,-2.93713,314.174,0.0366199,-0.0107204,-0.0154829,0.0412339,-0.0153344,-0.289629,0.0337815,0.0160883,1119,1730,-2.93709,-314.174
-98,-706,-2.90796,315.906,0.0388729,-0.0113722,-0.0158115,0.0434345,-0.0159338,-0.28087,0.0354809,0.0194904,1126,1730,-2.90799,-315.906
-91,-706,-2.74023,317.662,0.0412602,-0.0124736,-0.0160819,0.0457055,-0.016919,-0.269686,0.0374079,0.0282471,1133,1730,-2.74017,-317.662
-84,-706,-2.5509,319.384,0.044097,-0.0136298,-0.0162453,0.0483547,-0.0178875,-0.256322,0.0395704,0.0371532,1140,1730,-2.5509,-319.384
-77,-706,-2.46863,320.879,0.0469547,-0.0150989,-0.0158193,0.0507547,-0.018899,-0.235752,0.0415929,0.030499,1147,1730,-2.46858,-320.879
-70,-706,-2.34668,322.425,0.0496877,-0.0167844,-0.0153089,0.053044,-0.0201407,-0.215821,0.0436535,0.0330692,1154,1730,-2.34664,-322.425
-63,-706,-2.18433,323.866,0.052756,-0.017942,-0.0147568,0.0557126,-0.0208986,-0.197734,0.0457285,0.0297951,1161,1730,-2.18438,-323.866
-56,-706,-1.9873,325.12,0.0559103,-0.0187029,-0.0140082,0.0584536,-0.0212462,-0.1796,0.0476568,0.0297234,1168,1730,-1.98731,-325.119
-49,-706,-1.66418,326.399,0.0586091,-0.0197531,-0.0129543,0.0606951,-0.0218391,-0.159656,0.04938,0.0311928,1175,1730,-1.66417,-326.399
-42,-706,-1.26025,327.529,0.0600533,-0.020785,-0.0118425,0.0617525,-0.0224841,-0.142508,0.0503647,0.0412993,1182,1730,-1.26028,-327.529
-35,-706,-0.876831,328.634,0.0613589,-0.0217376,-0.010907,0.0627666,-0.0231453,-0.12836,0.0513295,0.0324767,1189,1730,-0.876839,-328.634
-28,-706,-0.560303,329.75,0.0630832,-0.0229822,-0.0101248,0.0642583,-0.0241572,-0.115539,0.0527678,0.0181403,1196,1730,-0.560307,-329.75
-21,-706,-0.274414,330.736,0.0647226,-0.0244237,-0.00909794,0.0656416,-0.0253427,-0.100673,0.0542202,0.0197136,1203,1730,-0.274391,-330.736
-14,-706,0.0734863,331.659,0.0660221,-0.0256317,-0.00801936,0.0667185,-0.0263281,-0.0866191,0.0553819,0.0191848,1210,1730,0.0735371,-331.659
-7,-706,0.517334,332.541,0.0672554,-0.0268095,-0.00704619,0.0677802,-0.0273344,-0.0743548,0.0565452,0.0167944,1217,1730,0.51731,-332.541
0,-706,0.99292,333.347,0.068298,-0.0280853,-0.00600435,0.0686706,-0.0284579,-0.0619771,0.057657,0.0204897,1224,1730,0.992954,-333.347
7,-706,1.30957,334.04,0.068968,-0.0293129,-0.00470616,0.0691929,-0.0295378,-0.0477392,0.0585147,0.0202161,1231,1730,1.3096,-334.04
14,-706,1.72644,334.643,0.0695757,-0.0306756,-0.00344338,0.0696938,-0.0307938,-0.0342936,0.0594479,0.0253974,1238,1730,1.72639,-334.643
21,-706,2.25403,335.161,0.0698752,-0.0324411,-0.00230991,0.0699273,-0.0324932,-0.0225609,0.0604347,0.0219975,1245,1730,2.25398,-335.161
28,-706,2.72473,335.689,0.0705218,-0.0340967,-0.00137764,0.0705399,-0.0341148,-0.0131652,0.0616303,0.0194054,1252,1730,2.72469,-335.689
35,-706,3.16943,336.081,0.0713657,-0.0351833,-0.000596442,0.071369,-0.0351867,-0.00559759,0.062691,0.0240111,1259,1730,3.16949,-336.081
42,-706,3.67432,336.352,0.0713253,-0.0359315,0.000236727,0.0713258,-0.035932,0.00220709,0.0630392,0.0202387,1266,1730,3.67426,-336.352
49,-706,4.19714,336.585,0.0700426,-0.0362873,0.00122478,0.0700567,-0.0363014,0.0115166,0.0624282,0.030432,1273,1730,4.19714,-336.585
56,-706,4.79858,336.789,0.0678149,-0.036075,0.0022265,0.0678626,-0.0361227,0.0214182,0.0609611,0.0334352,1280,1730,4.79856,-336.789
63,-706,5.25635,336.93,0.0653842,-0.0353093,0.00281801,0.065463,-0.0353881,0.0279569,0.0590831,0.0272648,1287,1730,5.25634,-336.93
70,-706,5.61792,336.965,0.0628253,-0.0336154,0.00323578,0.0629338,-0.0337239,0.0335018,0.0566484,0.0241814,1294,1730,5.61792,-336.965
77,-706,6.07373,336.917,0.059908,-0.0313848,0.00341057,0.0600352,-0.0315121,0.0372893,0.0537032,0.0222445,1301,1730,6.07372,-336.917
84,-706,6.69934,336.862,0.0563058,-0.0282474,0.00358054,0.0564572,-0.0283987,0.0422458,0.0498763,0.0175397,1308,1730,6.69938,-336.862
91,-706,7.17993,336.745,0.0533968,-0.0249145,0.00365306,0.0535668,-0.0250845,0.0465133,0.0463912,0.0169612,1315,1730,7.1799,-336.745
98,-706,7.37512,336.574,0.0510161,-0.0214065,0.00402402,0.0512391,-0.0216294,0.055336,0.0432128,0.0214664,1322,1730,7.37513,-336.574
105,-706,7.46985,336.466,0.0493848,-0.0183313,0.00460497,0.0496965,-0.0186431,0.0675893,0.0407911,0.024077,1329,1730,7.46983,-336.466
112,-706,7.4469,336.358,0.0498674,-0.0157792,0.00528438,0.05029,-0.0162019,0.0798126,0.0400355,0.0234251,1336,1730,7.44694,-336.358
119,-706,7.72656,336.463,0,0,0,0,0,0,0,-1,1343,1730,7.72659,-336.463
126,-706,5.89673,334.557,0,0,0,0,0,0,0,-1,1350,1730,5.89674,-334.557
133,-706,9.78137,334.117,0,0,0,0,0,0,0,-1,1357,1730,9.78141,-334.117
140,-706,10.5305,333.366,0.0545831,-0.0058321,0.0108458,0.0564712,-0.00772016,0.172354,0.0404671,0.0208384,1364,1730,10.5305,-333.366
147,-706,11.0236,332.6,0.0563312,-0.00464579,0.0122884,0.0587145,-0.00702908,0.191567,0.041684,0.0350734,1371,1730,11.0236,-332.6
154,-706,11.4316,331.747,0.0593343,-0.00398846,0.0134831,0.0620856,-0.00673982,0.201296,0.0438102,0.0339752,1378,1730,11.4317,-331.747
161,-706,11.7029,330.724,0.0614081,-0.00367894,0.014267,0.064398,-0.00666888,0.206581,0.0453188,0.0186625,1385,1730,11.7029,-330.724
168,-706,12.1559,329.772,0.060515,-0.00431219,0.0154458,0.064007,-0.00780421,0.222345,0.0454964,0.0206302,1392,1730,12.1559,-329.772
175,-706,12.6956,328.885,0,0,0,0,0,0,0,-1,1399,1730,12.6956,-328.885
182,-706,12.9465,327.624,0.0536338,-0.00558629,0.015859,0.0576134,-0.00956588,0.245859,0.0419626,0.0194719,1406,1730,12.9466,-327.624
189,-706,13.0891,326.307,0.0506372,-0.00554508,0.0152154,0.0544932,-0.00940109,0.248203,0.039834,0.0248835,1413,1730,13.0891,-326.306
196,-706,13.2715,325.181,0.0480111,-0.00539604,0.0148872,0.0518805,-0.00926549,0.254291,0.0380534,0.0307124,1420,1730,13.2715,-325.181
203,-706,13.4763,323.983,0,0,0,0,0,0,0,-1,1427,1730,13.4763,-323.983
210,-706,13.7504,322.328,0.0440313,-0.00462717,0.0134644,0.0475086,-0.00810446,0.252735,0.0346909,0.0303725,1434,1730,13.7504,-322.328
217,-706,13.9446,320.679,0.0419708,-0.00388755,0.0128531,0.0453275,-0.00724432,0.255457,0.0329001,0.030997,1441,1730,13.9446,-320.679
224,-706,14.0181,319.184,0.0401955,-0.00291888,0.0121165,0.0433673,-0.00609066,0.256028,0.0311409,0.0336408,1448,1730,14.0181,-319.184
231,-706,14.1251,317.54,0.0386733,-0.00116104,0.0117619,0.041887,-0.00437474,0.266718,0.0294913,0.0201653,1455,1730,14.1251,-317.54
238,-706,14.1351,315.816,0.0370016,0.000598907,0.0113479,0.0402494,-0.00264884,0.278747,0.027758,0.0135211,1462,1730,14.1351,-315.816
245,-706,14.1272,314.057,0.0351258,0.00245239,0.010819,0.0383834,-0.000805257,0.29247,0.0258615,0.0182568,1469,1730,14.1272,-314.057
252,-706,14.2032,312.245,0.0329181,0.003998,0.0102799,0.0361998,0.000716301,0.309008,0.023898,0.0196756,1476,1730,14.2032,-312.245
259,-706,14.1702,310.324,0.0303297,0.00530785,0.00983595,0.0337332,0.00190434,0.333131,0.0218817,0.020515,1483,1730,14.1702,-310.324
266,-706,14.0018,308.33,0.0274321,0.00626386,0.00929044,0.0309311,0.00276479,0.360199,0.0197637,0.0205837,1490,1730,14.0019,-308.33
273,-706,13.8846,306.282,0.0245143,0.00695503,0.00855448,0.0279928,0.00347657,0.386204,0.0176177,0.0231318,1497,1730,13.8847,-306.282
280,-706,13.7507,304.144,0.0214711,0.00735187,0.00786302,0.0249787,0.00384432,0.419591,0.0155304,0.0177123,1504,1730,13.7508,-304.144
287,-706,13.5048,301.889,0.018533,0.00757576,0.00714746,0.02206,0.00404874,0.458406,0.0135601,0.0176779,1511,1730,13.5047,-301.889
294,-706,13.3102,299.584,0.015951,0.0078693,0.00606623,0.019199,0.00462128,0.491585,0.0115707,0.0192175,1518,1730,13.3102,-299.584
301,-706,12.9835,297.191,0.0131389,0.00852129,0.00490999,0.0162558,0.00540435,0.565626,0.00955932,0.0216908,1525,1730,12.9835,-297.191
308,-706,12.6665,294.834,0.0105142,0.00933072,0.00348663,0.0134589,0.00638597,0.701342,0.0077739,0.0431613,1532,1730,12.6665,-294.834
315,-706,12.3704,292.342,0,0,0,0,0,0,0,-1,1539,1730,12.3703,-292.342
322,-706,11.9734,289.782,0,0,0,0,0,0,0,-1,1546,1730,11.9733,-289.782
329,-706,0.559692,212.981,0,0,0,0,0,0,0,-1,1553,1730,0.559734,-212.981
336,-706,1.07117,189.828,0,0,0,0,0,0,0,-1,1560,1730,1.07116,-189.828
343,-706,7.05652,116.713,0,0,0,0,0,0,0,-1,1567,1730,7.05648,-116.713
350,-706,7.62781,110.214,0,0,0,0,0,0,0,-1,1574,1730,7.62775,-110.214
357,-706,9.70593,74.0184,0,0,0,0,0,0,0,-1,1581,1730,9.70594,-74.0184
364,-706,8.48877,66.5104,0,0,0,0,0,0,0,-1,1588,1730,8.48882,-66.5104
371,-706,8.6084,48.7302,0,0,0,0,0,0,0,-1,1595,1730,8.60844,-48.7303
378,-706,7.63867,44.0519,0,0,0,0,0,0,0,-1,1602,1730,7.63863,-44.0519
385,-706,7.3186,43.2451,0,0,0,0,0,0,0,-1,1609,1730,7.31862,-43.2451
392,-706,7.33728,42.4652,0,0,0,0,0,0,0,-1,1616,1730,7.3373,-42.4651
399,-706,7.51855,41.7692,0,0,0,0,0,0,0,-1,1623,1730,7.51855,-41.7691
406,-706,7.46301,40.9797,0,0,0,0,0,0,0,-1,1630,1730,7.46301,-40.9797
413,-706,8.43433,40.3345,0,0,0,0,0,0,0,-1,1637,1730,8.43428,-40.3344
420,-706,8.0636,39.6101,0,0,0,0,0,0,0,-1,1644,1730,8.06362,-39.6101
427,-706,0,0,0,0,0,0,0,0,0,-1,1651,1730,0,0
434,-706,0,0,0,0,0,0,0,0,0,-1,1658,1730,0,0
441,-706,0,0,0,0,0,0,0,0,0,-1,1665,1730,0,0
448,-706,0,0,0,0,0,0,0,0,0,-1,1672,1730,0,0
455,-706,0,0,0,0,0,0,0,0,0,-1,1679,1730,0,0
462,-706,0,0,0,0,0,0,0,0,0,-1,1686,1730,0,0
469,-706,0,0,0,0,0,0,0,0,0,-1,1693,1730,0,0
476,-706,0,0,0,0,0,0,0,0,0,-1,1700,1730,0,0
483,-706,0,0,0,0,0,0,0,0,0,-1,1707,1730,0,0
490,-706,0,0,0,0,0,0,0,0,0,-1,1714,1730,0,0
497,-706,0,0,0,0,0,0,0,0,0,-1,1721,1730,0,0
504,-706,0,0,0,0,0,0,0,0,0,-1,1728,1730,0,0
511,-706,0,0,0,0,0,0,0,0,0,-1,1735,1730,0,0
518,-706,0,0,0,0,0,0,0,0,0,-1,1742,1730,0,0
525,-706,0,0,0,0,0,0,0,0,0,-1,1749,1730,0,0
532,-706,0,0,0,0,0,0,0,0,0,-1,1756,1730,0,0
539,-706,0,0,0,0,0,0,0,0,0,-1,1763,1730,0,0
546,-706,0,0,0,0,0,0,0,0,0,-1,1770,1730,0,0
553,-706,0,0,0,0,0,0,0,0,0,-1,1777,1730,0,0
560,-706,0,0,0,0,0,0,0,0,0,-1,1784,1730,0,0
567,-706,0,0,0,0,0,0,0,0,0,-1,1791,1730,0,0
574,-706,0,0,0,0,0,0,0,0,0,-1,1798,1730,0,0
581,-706,0,0,0,0,0,0,0,0,0,-1,1805,1730,0,0
588,-706,0,0,0,0,0,0,0,0,0,-1,1812,1730,0,0
595,-706,0,0,0,0,0,0,0,0,0,-1,1819,1730,0,0
602,-706,0,0,0,0,0,0,0,0,0,-1,1826,1730,0,0
609,-706,0,0,0,0,0,0,0,0,0,-1,1833,1730,0,0
616,-706,0,0,0,0,0,0,0,0,0,-1,1840,1730,0,0
623,-706,0,0,0,0,0,0,0,0,0,-1,1847,1730,0,0
630,-706,0,0,0,0,0,0,0,0,0,-1,1854,1730,0,0
637,-706,0,0,0,0,0,0,0,0,0,-1,1861,1730,0,0
644,-706,0,0,0,0,0,0,0,0,0,-1,1868,1730,0,0
651,-706,0,0,0,0,0,0,0,0,0,-1,1875,1730,0,0
658,-706,0,0,0,0,0,0,0,0,0,-1,1882,1730,0,0
665,-706,0,0,0,0,0,0,0,0,0,-1,1889,1730,0,0
672,-706,0,0,0,0,0,0,0,0,0,-1,1896,1730,0,0
679,-706,0,0,0,0,0,0,0,0,0,-1,1903,1730,0,0
686,-706,0,0,0,0,0,0,0,0,0,-1,1910,1730,0,0
693,-706,0,0,0,0,0,0,0,0,0,-1,1917,1730,0,0
700,-706,0,0,0,0,0,0,0,0,0,-1,1924,1730,0,0
707,-706,0,0,0,0,0,0,0,0,0,-1,1931,1730,0,0
714,-706,0,0,0,0,0,0,0,0,0,-1,1938,1730,0,0
721,-706,0,0,0,0,0,0,0,0,0,-1,1945,1730,0,0
728,-706,0,0,0,0,0,0,0,0,0,-1,1952,1730,0,0
735,-706,0,0,0,0,0,0,0,0,0,-1,1959,1730,0,0
742,-706,0,0,0,0,0,0,0,0,0,-1,1966,1730,0,0
749,-706,0,0,0,0,0,0,0,0,0,-1,1973,1730,0,0
756,-706,0,0,0,0,0,0,0,0,0,-1,1980,1730,0,0
763,-706,0,0,0,0,0,0,0,0,0,-1,1987,1730,0,0
770,-706,0,0,0,0,0,0,0,0,0,-1,1994,1730,0,0
777,-706,0,0,0,0,0,0,0,0,0,-1,2001,1730,0,0
784,-706,0,0,0,0,0,0,0,0,0,-1,2008,1730,0,0
791,-706,0,0,0,0,0,0,0,0,0,-1,2015,1730,0,0
798,-706,0,0,0,0,0,0,0,0,0,-1,2022,1730,0,0
805,-706,0,0,0,0,0,0,0,0,0,-1,2029,1730,0,0
812,-706,0,0,0,0,0,0,0,0,0,-1,2036,1730,0,0
-700,-713,0,0,0,0,0,0,0,0,0,-1,524,1737,0,0
-693,-713,0,0,0,0,0,0,0,0,0,-1,531,1737,0,0
-686,-713,0,0,0,0,0,0,0,0,0,-1,538,1737,0,0
-679,-713,0,0,0,0,0,0,0,0,0,-1,545,1737,0,0
-672,-713,0,0,0,0,0,0,0,0,0,-1,552,1737,0,0
-665,-713,0,0,0,0,0,0,0,0,0,-1,559,1737,0,0
-658,-713,0,0,0,0,0,0,0,0,0,-1,566,1737,0,0
-651,-713,0,0,0,0,0,0,0,0,0,-1,573,1737,0,0
-644,-713,0,0,0,0,0,0,0,0,0,-1,580,1737,0,0
-637,-713,0,0,0,0,0,0,0,0,0,-1,587,1737,0,0
-630,-713,0,0,0,0,0,0,0,0,0,-1,594,1737,0,0
-623,-713,0,0,0,0,0,0,0,0,0,-1,601,1737,0,0
-616,-713,0,0,0,0,0,0,0,0,0,-1,608,1737,0,0
-609,-713,0,0,0,0,0,0,0,0,0,-1,615,1737,0,0
-602,-713,0,0,0,0,0,0,0,0,0,-1,622,1737,0,0
-595,-713,0,0,0,0,0,0,0,0,0,-1,629,1737,0,0
-588,-713,0,0,0,0,0,0,0,0,0,-1,636,1737,0,0
-581,-713,0,0,0,0,0,0,0,0,0,-1,643,1737,0,0
-574,-713,0,0,0,0,0,0,0,0,0,-1,650,1737,0,0
-567,-713,0,0,0,0,0,0,0,0,0,-1,657,1737,0,0
-560,-713,0,0,0,0,0,0,0,0,0,-1,664,1737,0,0
-553,-713,0,0,0,0,0,0,0,0,0,-1,671,1737,0,0
-546,-713,0,0,0,0,0,0,0,0,0,-1,678,1737,0,0
-539,-713,0,0,0,0,0,0,0,0,0,-1,685,1737,0,0
-532,-713,0,0,0,0,0,0,0,0,0,-1,692,1737,0,0
-525,-713,0,0,0,0,0,0,0,0,0,-1,699,1737,0,0
-518,-713,0,0,0,0,0,0,0,0,0,-1,706,1737,0,0
-511,-713,0,0,0,0,0,0,0,0,0,-1,713,1737,0,0
-504,-713,0,0,0,0,0,0,0,0,0,-1,720,1737,0,0
-497,-713,0,0,0,0,0,0,0,0,0,-1,727,1737,0,0
-490,-713,0,0,0,0,0,0,0,0,0,-1,734,1737,0,0
-483,-713,0,0,0,0,0,0,0,0,0,-1,741,1737,0,0
-476,-713,0,0,0,0,0,0,0,0,0,-1,748,1737,0,0
-469,-713,0,0,0,0,0,0,0,0,0,-1,755,1737,0,0
-462,-713,0,0,0,0,0,0,0,0,0,-1,762,1737,0,0
-455,-713,0,0,0,0,0,0,0,0,0,-1,769,1737,0,0
-448,-713,0,0,0,0,0,0,0,0,0,-1,776,1737,0,0
-441,-713,0,0,0,0,0,0,0,0,0,-1,783,1737,0,0
-434,-713,0,0,0,0,0,0,0,0,0,-1,790,1737,0,0
-427,-713,0,0,0,0,0,0,0,0,0,-1,797,1737,0,0
-420,-713,0,0,0,0,0,0,0,0,0,-1,804,1737,0,0
-413,-713,0,0,0,0,0,0,0,0,0,-1,811,1737,0,0
-406,-713,0,0,0,0,0,0,0,0,0,-1,818,1737,0,0
-399,-713,0,0,0,0,0,0,0,0,0,-1,825,1737,0,0
-392,-713,0,0,0,0,0,0,0,0,0,-1,832,1737,0,0
-385,-713,0,0,0,0,0,0,0,0,0,-1,839,1737,0,0
-378,-713,0,0,0,0,0,0,0,0,0,-1,846,1737,0,0
-371,-713,0,0,0,0,0,0,0,0,0,-1,853,1737,0,0
-364,-713,0,0,0,0,0,0,0,0,0,-1,860,1737,0,0
-357,-713,0,0,0,0,0,0,0,0,0,-1,867,1737,0,0
-350,-713,0,0,0,0,0,0,0,0,0,-1,874,1737,0,0
-343,-713,0,0,0,0,0,0,0,0,0,-1,881,1737,0,0
-336,-713,0,0,0,0,0,0,0,0,0,-1,888,1737,0,0
-329,-713,0,0,0,0,0,0,0,0,0,-1,895,1737,0,0
-322,-713,0,0,0,0,0,0,0,0,0,-1,902,1737,0,0
-315,-713,0,0,0,0,0,0,0,0,0,-1,909,1737,0,0
-308,-713,0,0,0,0,0,0,0,0,0,-1,916,1737,0,0
-301,-713,0,0,0,0,0,0,0,0,0,-1,923,1737,0,0
-294,-713,7.17883,22.0453,0,0,0,0,0,0,0,-1,930,1737,7.17881,-22.0453
-287,-713,11.8916,21.5834,0,0,0,0,0,0,0,-1,937,1737,11.8916,-21.5833
-280,-713,10.2786,21.3551,0,0,0,0,0,0,0,-1,944,1737,10.2787,-21.3551
-273,-713,11.1981,23.8683,0,0,0,0,0,0,0,-1,951,1737,11.198,-23.8683
-266,-713,3.17981,19.8851,0,0,0,0,0,0,0,-1,958,1737,3.17983,-19.8851
-259,-713,3.5921,19.6868,0,0,0,0,0,0,0,-1,965,1737,3.59207,-19.6868
-252,-713,4.55469,20.5758,0,0,0,0,0,0,0,-1,972,1737,4.55466,-20.5758
-245,-713,3.89014,25.9825,0,0,0,0,0,0,0,-1,979,1737,3.89013,-25.9826
-238,-713,6.62506,30.5463,0,0,0,0,0,0,0,-1,986,1737,6.62509,-30.5462
-231,-713,7.21271,66.0579,0,0,0,0,0,0,0,-1,993,1737,7.21272,-66.0579
-224,-713,7.43347,148.356,0,0,0,0,0,0,0,-1,1000,1737,7.43345,-148.356
-217,-713,6.81628,149.384,0,0,0,0,0,0,0,-1,1007,1737,6.81631,-149.384
-210,-713,7.06372,144.959,0,0,0,0,0,0,0,-1,1014,1737,7.06371,-144.959
-203,-713,6.74292,153.564,0,0,0,0,0,0,0,-1,1021,1737,6.74291,-153.564
-196,-713,6.07056,163.059,0,0,0,0,0,0,0,-1,1028,1737,6.0706,-163.059
-189,-713,5.66797,170.009,0,0,0,0,0,0,0,-1,1035,1737,5.66795,-170.009
-182,-713,5.18567,174.156,0,0,0,0,0,0,0,-1,1042,1737,5.18571,-174.156
-175,-713,4.99878,173.626,0,0,0,0,0,0,0,-1,1049,1737,4.99883,-173.626
-168,-713,0.484253,295.396,0,0,0,0,0,0,0,-1,1056,1737,0.484223,-295.396
-161,-713,0.390381,297.968,0,0,0,0,0,0,0,-1,1063,1737,0.3904,-297.968
-154,-713,0.0705566,300.374,0,0,0,0,0,0,0,-1,1070,1737,0.0706105,-300.374
-147,-713,-0.236084,302.454,0.0149015,-0.00660389,-0.00706149,0.0170129,-0.0087153,-0.290541,0.0151095,0.0471702,1077,1737,-0.236121,-302.454
-140,-713,-0.488647,304.798,0.017647,-0.00734076,-0.0080295,0.0200047,-0.00969847,-0.285604,0.0174899,0.0321528,1084,1737,-0.488698,-304.798
-133,-713,-0.610596,306.767,0.0201627,-0.00786665,-0.00879994,0.0226964,-0.0104004,-0.280344,0.0195431,0.0220448,1091,1737,-0.610589,-306.767
-126,-713,-0.708008,308.746,0.0223771,-0.00803838,-0.00948851,0.0250944,-0.0107557,-0.278913,0.0212428,0.0291474,1098,1737,-0.707963,-308.746
-119,-713,-0.762939,310.682,0.0245101,-0.00801555,-0.00997857,0.0273274,-0.0108329,-0.275173,0.0227075,0.0413225,1105,1737,-0.76297,-310.682
-112,-713,-0.967163,312.735,0.0263168,-0.00804822,-0.0105486,0.0292964,-0.0110279,-0.275295,0.0240645,0.0209375,1112,1737,-0.967191,-312.735
-105,-713,-1.05469,314.472,0.0283373,-0.00801753,-0.0110163,0.031415,-0.0110952,-0.272426,0.0254607,0.0197131,1119,1737,-1.0547,-314.472
-98,-713,-1.09814,316.206,0.0305748,-0.00803287,-0.0113184,0.0336483,-0.0111064,-0.265154,0.0269095,0.0178079,1126,1737,-1.09815,-316.206
-91,-713,-1.01086,317.91,0.0326905,-0.00863655,-0.0117155,0.0357805,-0.0117266,-0.257888,0.0285762,0.0185703,1133,1737,-1.01087,-317.91
-84,-713,-0.935181,319.572,0.0349128,-0.00939665,-0.01203,0.0379682,-0.0124521,-0.248725,0.0303273,0.0194464,1140,1737,-0.935152,-319.572
-77,-713,-0.91272,321.117,0.0373021,-0.0104038,-0.0120109,0.0401554,-0.0132571,-0.233238,0.0321148,0.0290613,1147,1737,-0.912671,-321.117
-70,-713,-0.790527,322.666,0.039673,-0.0115919,-0.0119619,0.0423267,-0.0142457,-0.218315,0.0339769,0.0314865,1154,1737,-0.790507,-322.666
-63,-713,-0.657959,324.161,0.0422747,-0.0127044,-0.0118111,0.0447047,-0.0151344,-0.202905,0.0359267,0.0283283,1161,1737,-0.657898,-324.161
-56,-713,-0.574341,325.388,0.0449117,-0.0136621,-0.011434,0.0470646,-0.015815,-0.186107,0.0377684,0.0261431,1168,1737,-0.574329,-325.388
-49,-713,-0.309326,326.568,0.0471113,-0.0146168,-0.0108316,0.0489568,-0.0164623,-0.168759,0.0392921,0.0245595,1175,1737,-0.309317,-326.568
-42,-713,-0.0429688,327.74,0.0485329,-0.0155179,-0.0101808,0.0501122,-0.0170972,-0.153897,0.0403338,0.0330632,1182,1737,-0.0430018,-327.74
-35,-713,0.23291,328.886,0.0498435,-0.0163551,-0.00960469,0.0512089,-0.0177205,-0.141211,0.0413323,0.0280503,1189,1737,0.232885,-328.886
-28,-713,0.571777,330.034,0.0514225,-0.0173732,-0.00905077,0.0525933,-0.018544,-0.128644,0.0426105,0.0226914,1196,1737,0.571799,-330.034
-21,-713,0.772949,331.004,0.0529339,-0.0184375,-0.00824985,0.0538751,-0.0193787,-0.113595,0.0438284,0.016506,1203,1737,0.772917,-331.004
-14,-713,0.999634,331.868,0.0541794,-0.0192488,-0.00741876,0.0549215,-0.0199908,-0.0996917,0.0447905,0.0183509,1210,1737,0.999646,-331.868
-7,-713,1.38489,332.753,0.0553875,-0.0200384,-0.0066054,0.0559616,-0.0206125,-0.0866952,0.0457534,0.0156988,1217,1737,1.38485,-332.753
0,-713,1.7041,333.51,0.0563925,-0.0209418,-0.005714,0.0568125,-0.0213617,-0.073356,0.0466552,0.0205955,1224,1737,1.70412,-333.51
7,-713,1.97449,334.21,0.0571071,-0.0218717,-0.0046483,0.0573798,-0.0221444,-0.0585854,0.0473917,0.0234988,1231,1737,1.97454,-334.21
14,-713,2.24487,334.837,0.0579099,-0.0229302,-0.00359147,0.0580691,-0.0230894,-0.0443105,0.0482859,0.02035,1238,1737,2.24489,-334.837
21,-713,2.64917,335.362,0.0586002,-0.0242835,-0.00262865,0.0586834,-0.0243668,-0.0316726,0.0492946,0.0230508,1245,1737,2.64918,-335.362
28,-713,3.14307,335.9,0.0594487,-0.0257065,-0.00181153,0.0594872,-0.025745,-0.0212604,0.0504779,0.0217056,1252,1737,3.14302,-335.9
35,-713,3.58728,336.23,0.0604098,-0.0267216,-0.00107845,0.0604232,-0.0267349,-0.0123748,0.0515585,0.020178,1259,1737,3.5873,-336.23
42,-713,4.02368,336.539,0.0606323,-0.0273986,-0.000348434,0.0606337,-0.0274,-0.003958,0.0520195,0.0154852,1266,1737,4.02368,-336.539
49,-713,4.40173,336.723,0.0598154,-0.0277492,0.000459998,0.0598178,-0.0277516,0.00525305,0.0516758,0.0321563,1273,1737,4.40174,-336.723
56,-713,4.71765,336.864,0.0581783,-0.0276152,0.0012634,0.0581969,-0.0276338,0.0147219,0.0505907,0.0432416,1280,1737,4.71769,-336.864
63,-713,5.2699,337.073,0.0562678,-0.0269154,0.0017085,0.0563029,-0.0269504,0.0205274,0.049052,0.0355675,1287,1737,5.26985,-337.073
70,-713,5.75671,337.23,0.0542782,-0.0252847,0.00192713,0.0543248,-0.0253314,0.0242025,0.046994,0.0256971,1294,1737,5.75667,-337.23
77,-713,6.13904,337.276,0.0520169,-0.02324,0.00189492,0.0520646,-0.0232877,0.0251581,0.0445496,0.0280816,1301,1737,6.13903,-337.276
84,-713,6.62891,337.149,0.0491417,-0.0205544,0.00189938,0.0491934,-0.0206061,0.0272255,0.0414101,0.0217745,1308,1737,6.62892,-337.149
91,-713,7.0332,336.945,0.0468303,-0.0177083,0.00184841,0.0468832,-0.0177612,0.0286091,0.0385642,0.0170762,1315,1737,7.03325,-336.945
98,-713,7.23254,336.73,0.0449217,-0.0147607,0.00206781,0.0449932,-0.0148322,0.0345917,0.0359737,0.0163501,1322,1737,7.23249,-336.73
105,-713,7.3302,336.538,0.0435595,-0.012179,0.00245122,0.043667,-0.0122866,0.0438642,0.0339561,0.0189115,1329,1737,7.33024,-336.538
112,-713,7.41687,336.391,0.0435923,-0.00996525,0.00291913,0.043751,-0.0101239,0.0542901,0.0330627,0.0181215,1336,1737,7.41692,-336.391
119,-713,7.57813,336.431,0.0444428,-0.00760543,0.00403401,0.0447536,-0.00791623,0.0768932,0.0327945,0.0499011,1343,1737,7.57817,-336.431
126,-713,8.00305,336.718,0,0,0,0,0,0,0,-1,1350,1737,8.00302,-336.718
133,-713,9.09412,334.243,0,0,0,0,0,0,0,-1,1357,1737,9.09415,-334.243
140,-713,9.73291,333.536,0.0465387,-0.002788,0.00764651,0.0476969,-0.00394615,0.150319,0.0331916,0.0238857,1364,1737,9.73291,-333.536
147,-713,10.0802,332.735,0.0477156,-0.00224553,0.00896781,0.0492765,-0.00380644,0.172331,0.0341905,0.022243,1371,1737,10.0802,-332.735
154,-713,10.281,331.97,0.049621,-0.00206068,0.0100791,0.0515171,-0.00395678,0.185948,0.0357367,0.0211475,1378,1737,10.281,-331.97
161,-713,10.5961,330.957,0.0506849,-0.00200996,0.0108151,0.0528182,-0.00414329,0.194755,0.0366713,0.0185989,1385,1737,10.5961,-330.957
168,-713,10.9073,329.881,0.0495911,-0.00254777,0.0117907,0.0521335,-0.00509016,0.212375,0.0365707,0.0186066,1392,1737,10.9074,-329.881
175,-713,11.1945,328.846,0.0468372,-0.00333523,0.0122793,0.0496812,-0.00617927,0.227599,0.035361,0.0206286,1399,1737,11.1945,-328.846
182,-713,11.4442,327.754,0.0438957,-0.00315304,0.0122387,0.0468889,-0.00614622,0.23986,0.0334965,0.0211906,1406,1737,11.4442,-327.754
189,-713,11.6619,326.554,0.0414403,-0.0025932,0.011663,0.0443386,-0.00549158,0.243576,0.0315493,0.0217964,1413,1737,11.6619,-326.554
196,-713,11.8115,325.395,0.039237,-0.00201549,0.0113343,0.042146,-0.00492451,0.251233,0.0298745,0.0371892,1420,1737,11.8115,-325.395
203,-713,11.8702,324.374,0,0,0,0,0,0,0,-1,1427,1737,11.8702,-324.374
210,-713,12.2078,322.378,0.035586,-8.25775e-05,0.0101496,0.0382718,-0.00276845,0.258697,0.0264856,0.0388257,1434,1737,12.2078,-322.378
217,-713,12.2528,320.825,0.0336755,0.00124221,0.00960361,0.0363059,-0.00138813,0.267334,0.0246796,0.0290121,1441,1737,12.2528,-320.825
224,-713,12.3369,319.406,0.0319057,0.002601,0.0090469,0.0344737,3.30843e-05,0.276571,0.0229714,0.0232614,1448,1737,12.337,-319.406
231,-713,12.3182,317.803,0.0301525,0.00438858,0.00865316,0.032789,0.00175209,0.295749,0.0212993,0.0159311,1455,1737,12.3183,-317.803
238,-713,12.2749,316.101,0.0282243,0.0060246,0.00824294,0.0309503,0.00329865,0.31938,0.0196266,0.0121387,1462,1737,12.2749,-316.101
245,-713,12.2012,314.332,0.0261332,0.00755216,0.00770591,0.0289131,0.00477227,0.346217,0.017898,0.0176183,1469,1737,12.2012,-314.332
252,-713,12.2021,312.456,0.0238426,0.00883498,0.00719768,0.0267366,0.00594102,0.382289,0.0162111,0.0205102,1476,1737,12.2022,-312.456
259,-713,12.1659,310.525,0.0212315,0.0098082,0.00676204,0.0243713,0.0066684,0.434704,0.0145436,0.0201267,1483,1737,12.1659,-310.525
266,-713,11.9775,308.636,0.0183178,0.010339,0.00608412,0.0216038,0.00705298,0.495209,0.0127209,0.0188626,1490,1737,11.9776,-308.636
273,-713,11.7233,306.596,0.0154489,0.0105779,0.00521726,0.0187711,0.00725563,0.567024,0.0109301,0.016759,1497,1737,11.7233,-306.596
280,-713,11.4799,304.373,0.0124665,0.0105585,0.00444682,0.0160605,0.00696448,0.679733,0.00929971,0.0257257,1504,1737,11.4799,-304.373
287,-713,11.2172,302.247,0,0,0,0,0,0,0,-1,1511,1737,11.2172,-302.247
294,-713,11.0581,300.05,0,0,0,0,0,0,0,-1,1518,1737,11.0581,-300.05
301,-713,10.5636,297.484,0,0,0,0,0,0,0,-1,1525,1737,10.5635,-297.484
308,-713,10.0701,294.755,0,0,0,0,0,0,0,-1,1532,1737,10.0701,-294.755
315,-713,4.76782,141.305,0,0,0,0,0,0,0,-1,1539,1737,4.76787,-141.305
322,-713,4.67871,138.236,0,0,0,0,0,0,0,-1,1546,1737,4.67868,-138.236
329,-713,7.14905,111.23,0,0,0,0,0,0,0,-1,1553,1737,7.14908,-111.23
336,-713,8.6969,74.4496,0,0,0,0,0,0,0,-1,1560,1737,8.69687,-74.4496
343,-713,7.68018,74.9004,0,0,0,0,0,0,0,-1,1567,1737,7.68017,-74.9004
350,-713,7.80676,74.0605,0,0,0,0,0,0,0,-1,1574,1737,7.8068,-74.0605
357,-713,8.38928,70.3881,0,0,0,0,0,0,0,-1,1581,1737,8.38932,-70.3881
364,-713,7.52661,46.5348,0,0,0,0,0,0,0,-1,1588,1737,7.52664,-46.5347
371,-713,7.3302,45.0861,0,0,0,0,0,0,0,-1,1595,1737,7.33021,-45.0861
378,-713,6.73975,44.3853,0,0,0,0,0,0,0,-1,1602,1737,6.7397,-44.3853
385,-713,6.58777,43.6438,0,0,0,0,0,0,0,-1,1609,1737,6.58781,-43.6438
392,-713,6.62964,42.8679,0,0,0,0,0,0,0,-1,1616,1737,6.62968,-42.868
399,-713,6.53748,42.0555,0,0,0,0,0,0,0,-1,1623,1737,6.53749,-42.0555
406,-713,2.49878,27.8931,0,0,0,0,0,0,0,-1,1630,1737,2.49884,-27.893
413,-713,1.36597,29.459,0,0,0,0,0,0,0,-1,1637,1737,1.36593,-29.459
420,-713,0,0,0,0,0,0,0,0,0,-1,1644,1737,0,0
427,-713,0,0,0,0,0,0,0,0,0,-1,1651,1737,0,0
434,-713,0,0,0,0,0,0,0,0,0,-1,1658,1737,0,0
441,-713,0,0,0,0,0,0,0,0,0,-1,1665,1737,0,0
448,-713,0,0,0,0,0,0,0,0,0,-1,1672,1737,0,0
455,-713,0,0,0,0,0,0,0,0,0,-1,1679,1737,0,0
462,-713,0,0,0,0,0,0,0,0,0,-1,1686,1737,0,0
469,-713,0,0,0,0,0,0,0,0,0,-1,1693,1737,0,0
476,-713,0,0,0,0,0,0,0,0,0,-1,1700,1737,0,0
483,-713,0,0,0,0,0,0,0,0,0,-1,1707,1737,0,0
490,-713,0,0,0,0,0,0,0,0,0,-1,1714,1737,0,0
497,-713,0,0,0,0,0,0,0,0,0,-1,1721,1737,0,0
504,-713,0,0,0,0,0,0,0,0,0,-1,1728,1737,0,0
511,-713,0,0,0,0,0,0,0,0,0,-1,1735,1737,0,0
518,-713,0,0,0,0,0,0,0,0,0,-1,1742,1737,0,0
525,-713,0,0,0,0,0,0,0,0,0,-1,1749,1737,0,0
532,-713,0,0,0,0,0,0,0,0,0,-1,1756,1737,0,0
539,-713,0,0,0,0,0,0,0,0,0,-1,1763,1737,0,0
546,-713,0,0,0,0,0,0,0,0,0,-1,1770,1737,0,0
553,-713,0,0,0,0,0,0,0,0,0,-1,1777,1737,0,0
560,-713,0,0,0,0,0,0,0,0,0,-1,1784,1737,0,0
567,-713,0,0,0,0,0,0,0,0,0,-1,1791,1737,0,0
574,-713,0,0,0,0,0,0,0,0,0,-1,1798,1737,0,0
581,-713,0,0,0,0,0,0,0,0,0,-1,1805,1737,0,0
588,-713,0,0,0,0,0,0,0,0,0,-1,1812,1737,0,0
595,-713,0,0,0,0,0,0,0,0,0,-1,1819,1737,0,0
602,-713,0,0,0,0,0,0,0,0,0,-1,1826,1737,0,0
609,-713,0,0,0,0,0,0,0,0,0,-1,1833,1737,0,0
616,-713,0,0,0,0,0,0,0,0,0,-1,1840,1737,0,0
623,-713,0,0,0,0,0,0,0,0,0,-1,1847,1737,0,0
630,-713,0,0,0,0,0,0,0,0,0,-1,1854,1737,0,0
637,-713,0,0,0,0,0,0,0,0,0,-1,1861,1737,0,0
644,-713,0,0,0,0,0,0,0,0,0,-1,1868,1737,0,0
651,-713,0,0,0,0,0,0,0,0,0,-1,1875,1737,0,0
658,-713,0,0,0,0,0,0,0,0,0,-1,1882,1737,0,0
665,-713,0,0,0,0,0,0,0,0,0,-1,1889,1737,0,0
672,-713,0,0,0,0,0,0,0,0,0,-1,1896,1737,0,0
679,-713,0,0,0,0,0,0,0,0,0,-1,1903,1737,0,0
686,-713,0,0,0,0,0,0,0,0,0,-1,1910,1737,0,0
693,-713,0,0,0,0,0,0,0,0,0,-1,1917,1737,0,0
700,-713,0,0,0,0,0,0,0,0,0,-1,1924,1737,0,0
707,-713,0,0,0,0,0,0,0,0,0,-1,1931,1737,0,0
714,-713,0,0,0,0,0,0,0,0,0,-1,1938,1737,0,0
721,-713,0,0,0,0,0,0,0,0,0,-1,1945,1737,0,0
728,-713,0,0,0,0,0,0,0,0,0,-1,1952,1737,0,0
735,-713,0,0,0,0,0,0,0,0,0,-1,1959,1737,0,0
742,-713,0,0,0,0,0,0,0,0,0,-1,1966,1737,0,0
749,-713,0,0,0,0,0,0,0,0,0,-1,1973,1737,0,0
756,-713,0,0,0,0,0,0,0,0,0,-1,1980,1737,0,0
763,-713,0,0,0,0,0,0,0,0,0,-1,1987,1737,0,0
770,-713,0,0,0,0,0,0,0,0,0,-1,1994,1737,0,0
777,-713,0,0,0,0,0,0,0,0,0,-1,2001,1737,0,0
784,-713,0,0,0,0,0,0,0,0,0,-1,2008,1737,0,0
791,-713,0,0,0,0,0,0,0,0,0,-1,2015,1737,0,0
798,-713,0,0,0,0,0,0,0,0,0,-1,2022,1737,0,0
805,-713,0,0,0,0,0,0,0,0,0,-1,2029,1737,0,0
812,-713,0,0,0,0,0,0,0,0,0,-1,2036,1737,0,0
-700,-720,0,0,0,0,0,0,0,0,0,-1,524,1744,0,0
-693,-720,0,0,0,0,0,0,0,0,0,-1,531,1744,0,0
-686,-720,0,0,0,0,0,0,0,0,0,-1,538,1744,0,0
-679,-720,0,0,0,0,0,0,0,0,0,-1,545,1744,0,0
-672,-720,0,0,0,0,0,0,0,0,0,-1,552,1744,0,0
-665,-720,0,0,0,0,0,0,0,0,0,-1,559,1744,0,0
-658,-720,0,0,0,0,0,0,0,0,0,-1,566,1744,0,0
-651,-720,0,0,0,0,0,0,0,0,0,-1,573,1744,0,0
-644,-720,0,0,0,0,0,0,0,0,0,-1,580,1744,0,0
-637,-720,0,0,0,0,0,0,0,0,0,-1,587,1744,0,0
-630,-720,0,0,0,0,0,0,0,0,0,-1,594,1744,0,0
-623,-720,0,0,0,0,0,0,0,0,0,-1,601,1744,0,0
-616,-720,0,0,0,0,0,0,0,0,0,-1,608,1744,0,0
-609,-720,0,0,0,0,0,0,0,0,0,-1,615,1744,0,0
-602,-720,0,0,0,0,0,0,0,0,0,-1,622,1744,0,0
-595,-720,0,0,0,0,0,0,0,0,0,-1,629,1744,0,0
-588,-720,0,0,0,0,0,0,0,0,0,-1,636,1744,0,0
-581,-720,0,0,0,0,0,0,0,0,0,-1,643,1744,0,0
-574,-720,0,0,0,0,0,0,0,0,0,-1,650,1744,0,0
-567,-720,0,0,0,0,0,0,0,0,0,-1,657,1744,0,0
-560,-720,0,0,0,0,0,0,0,0,0,-1,664,1744,0,0
-553,-720,0,0,0,0,0,0,0,0,0,-1,671,1744,0,0
-546,-720,0,0,0,0,0,0,0,0,0,-1,678,1744,0,0
-539,-720,0,0,0,0,0,0,0,0,0,-1,685,1744,0,0
-532,-720,0,0,0,0,0,0,0,0,0,-1,692,1744,0,0
-525,-720,0,0,0,0,0,0,0,0,0,-1,699,1744,0,0
-518,-720,0,0,0,0,0,0,0,0,0,-1,706,1744,0,0
-511,-720,0,0,0,0,0,0,0,0,0,-1,713,1744,0,0
-504,-720,0,0,0,0,0,0,0,0,0,-1,720,1744,0,0
-497,-720,0,0,0,0,0,0,0,0,0,-1,727,1744,0,0
-490,-720,0,0,0,0,0,0,0,0,0,-1,734,1744,0,0
-483,-720,0,0,0,0,0,0,0,0,0,-1,741,1744,0,0
-476,-720,0,0,0,0,0,0,0,0,0,-1,748,1744,0,0
-469,-720,0,0,0,0,0,0,0,0,0,-1,755,1744,0,0
-462,-720,0,0,0,0,0,0,0,0,0,-1,762,1744,0,0
-455,-720,0,0,0,0,0,0,0,0,0,-1,769,1744,0,0
-448,-720,0,0,0,0,0,0,0,0,0,-1,776,1744,0,0
-441,-720,0,0,0,0,0,0,0,0,0,-1,783,1744,0,0
-434,-720,0,0,0,0,0,0,0,0,0,-1,790,1744,0,0
-427,-720,0,0,0,0,0,0,0,0,0,-1,797,1744,0,0
-420,-720,0,0,0,0,0,0,0,0,0,-1,804,1744,0,0
-413,-720,0,0,0,0,0,0,0,0,0,-1,811,1744,0,0
-406,-720,0,0,0,0,0,0,0,0,0,-1,818,1744,0,0
-399,-720,0,0,0,0,0,0,0,0,0,-1,825,1744,0,0
-392,-720,0,0,0,0,0,0,0,0,0,-1,832,1744,0,0
-385,-720,0,0,0,0,0,0,0,0,0,-1,839,1744,0,0
-378,-720,0,0,0,0,0,0,0,0,0,-1,846,1744,0,0
-371,-720,0,0,0,0,0,0,0,0,0,-1,853,1744,0,0
-364,-720,0,0,0,0,0,0,0,0,0,-1,860,1744,0,0
-357,-720,0,0,0,0,0,0,0,0,0,-1,867,1744,0,0
-350,-720,0,0,0,0,0,0,0,0,0,-1,874,1744,0,0
-343,-720,0,0,0,0,0,0,0,0,0,-1,881,1744,0,0
-336,-720,0,0,0,0,0,0,0,0,0,-1,888,1744,0,0
-329,-720,0,0,0,0,0,0,0,0,0,-1,895,1744,0,0
-322,-720,0,0,0,0,0,0,0,0,0,-1,902,1744,0,0
-315,-720,0,0,0,0,0,0,0,0,0,-1,909,1744,0,0
-308,-720,0,0,0,0,0,0,0,0,0,-1,916,1744,0,0
-301,-720,0,0,0,0,0,0,0,0,0,-1,923,1744,0,0
-294,-720,0,0,0,0,0,0,0,0,0,-1,930,1744,0,0
-287,-720,0,0,0,0,0,0,0,0,0,-1,937,1744,0,0
-280,-720,6.46796,22.6417,0,0,0,0,0,0,0,-1,944,1744,6.46793,-22.6417
-273,-720,8.54633,13.262,0,0,0,0,0,0,0,-1,951,1744,8.54636,-13.2619
-266,-720,7.28027,13.3165,0,0,0,0,0,0,0,-1,958,1744,7.28026,-13.3166
-259,-720,3.70563,18.6372,0,0,0,0,0,0,0,-1,965,1744,3.70564,-18.6372
-252,-720,4.00989,18.5059,0,0,0,0,0,0,0,-1,972,1744,4.00988,-18.5058
-245,-720,7.05634,33.8489,0,0,0,0,0,0,0,-1,979,1744,7.05634,-33.8489
-238,-720,5.02216,24.1455,0,0,0,0,0,0,0,-1,986,1744,5.02217,-24.1455
-231,-720,6.70276,67.9242,0,0,0,0,0,0,0,-1,993,1744,6.70275,-67.9241
-224,-720,6.97144,68.5684,0,0,0,0,0,0,0,-1,1000,1744,6.97145,-68.5683
-217,-720,7.24011,69.2125,0,0,0,0,0,0,0,-1,1007,1744,7.24014,-69.2125
-210,-720,10.3088,111.446,0,0,0,0,0,0,0,-1,1014,1744,10.3088,-111.446
-203,-720,9.59778,112.807,0,0,0,0,0,0,0,-1,1021,1744,9.59784,-112.807
-196,-720,8.09326,115.036,0,0,0,0,0,0,0,-1,1028,1744,8.0932,-115.036
-189,-720,8.34021,119.394,0,0,0,0,0,0,0,-1,1035,1744,8.34021,-119.394
-182,-720,7.50964,146.051,0,0,0,0,0,0,0,-1,1042,1744,7.50961,-146.051
-175,-720,7.68542,137.635,0,0,0,0,0,0,0,-1,1049,1744,7.68541,-137.635
-168,-720,7.77344,132.664,0,0,0,0,0,0,0,-1,1056,1744,7.77339,-132.664
-161,-720,7.3114,137.663,0,0,0,0,0,0,0,-1,1063,1744,7.31145,-137.663
-154,-720,7.31335,137.407,0,0,0,0,0,0,0,-1,1070,1744,7.31335,-137.407
-147,-720,2.01392,302.529,0,0,0,0,0,0,0,-1,1077,1744,2.01394,-302.529
-140,-720,1.62219,305.232,0,0,0,0,0,0,0,-1,1084,1744,1.62221,-305.232
-133,-720,1.43787,307.174,0,0,0,0,0,0,0,-1,1091,1744,1.43791,-307.174
-126,-720,1.27686,309.158,0.0154292,-0.00690983,-0.00487975,0.0164486,-0.00792925,-0.205945,0.0143582,0.0283085,1098,1744,1.27681,-309.158
-119,-720,1.13672,311.131,0.0171645,-0.00638437,-0.00532872,0.0183142,-0.00753404,-0.212493,0.01535,0.0271284,1105,1744,1.13673,-311.131
-112,-720,0.93335,313.045,0.0185201,-0.00582135,-0.00596596,0.0199037,-0.00720493,-0.227884,0.0162135,0.0210017,1112,1744,0.933409,-313.045
-105,-720,0.784424,314.814,0.0201661,-0.00511804,-0.00652758,0.0217518,-0.0067038,-0.238316,0.0171776,0.0213221,1119,1744,0.784403,-314.815
-98,-720,0.695313,316.548,0.0221027,-0.00445379,-0.00686397,0.0237719,-0.00612298,-0.238551,0.0182349,0.0182232,1126,1744,0.695345,-316.548
-91,-720,0.684082,318.195,0.0239518,-0.00456641,-0.00741572,0.0257649,-0.00637949,-0.239787,0.0196513,0.0162946,1133,1744,0.684065,-318.195
-84,-720,0.570557,319.9,0.0255934,-0.00500356,-0.00794975,0.0275357,-0.00694578,-0.239619,0.0210577,0.023859,1140,1744,0.570578,-319.9
-77,-720,0.551147,321.45,0.0275753,-0.00564715,-0.00838598,0.0295721,-0.00764392,-0.233755,0.0226959,0.0370671,1147,1744,0.551199,-321.45
-70,-720,0.724609,322.825,0.0296404,-0.00647331,-0.00881251,0.0316761,-0.008509,-0.227018,0.0244523,0.0259552,1154,1744,0.724639,-322.825
-63,-720,0.774902,324.283,0.031829,-0.00760838,-0.00906961,0.0338148,-0.00959418,-0.215549,0.0263305,0.0194938,1161,1744,0.774896,-324.283
-56,-720,0.859741,325.529,0.0340405,-0.00879328,-0.00906472,0.0358798,-0.0106326,-0.200194,0.0281418,0.0229798,1168,1744,0.859776,-325.529
-49,-720,0.994507,326.81,0.0357817,-0.00950925,-0.0089248,0.037477,-0.0112045,-0.187709,0.029439,0.0265638,1175,1744,0.994488,-326.81
-42,-720,1.19641,327.888,0.0371799,-0.0100159,-0.00864728,0.0387143,-0.0115504,-0.175624,0.0304001,0.0314851,1182,1744,1.19641,-327.888
-35,-720,1.32556,329.014,0.0385116,-0.0104834,-0.00836928,0.0399018,-0.0118736,-0.164603,0.0313185,0.0332927,1189,1744,1.32562,-329.014
-28,-720,1.58472,330.241,0.0399639,-0.0111417,-0.00800444,0.0411882,-0.012366,-0.151785,0.0323778,0.0200898,1196,1744,1.58477,-330.242
-21,-720,1.75806,331.243,0.0413535,-0.011753,-0.00738703,0.0423619,-0.0127613,-0.135668,0.0333199,0.0145842,1203,1744,1.75811,-331.243
-14,-720,2.00317,332.113,0.0425547,-0.0121005,-0.00676077,0.0433785,-0.0129243,-0.121264,0.0340547,0.0173702,1210,1744,2.00314,-332.113
-7,-720,2.30017,332.984,0.0437436,-0.0124723,-0.00607117,0.0443918,-0.0131205,-0.106363,0.0348025,0.0196912,1217,1744,2.30012,-332.984
0,-720,2.40479,333.75,0.0447195,-0.0130103,-0.00530496,0.045203,-0.0134937,-0.0908788,0.0354986,0.0195048,1224,1744,2.40481,-333.75
7,-720,2.65112,334.374,0.0454618,-0.0136739,-0.00444218,0.0457937,-0.0140057,-0.0745607,0.0361146,0.0229222,1231,1744,2.65113,-334.374
14,-720,2.91565,334.991,0.0463877,-0.0145153,-0.00357615,0.0465969,-0.0147245,-0.0584511,0.0369637,0.0228831,1238,1744,2.91563,-334.991
21,-720,3.21887,335.546,0.0473395,-0.0156116,-0.00279601,0.0474634,-0.0157356,-0.0442993,0.0379897,0.0227044,1245,1744,3.21885,-335.546
28,-720,3.62085,336.044,0.0482931,-0.0169509,-0.00211602,0.0483617,-0.0170194,-0.032387,0.0391669,0.0220275,1252,1744,3.62087,-336.044
35,-720,3.97473,336.358,0.0493087,-0.018018,-0.00145399,0.0493401,-0.0180493,-0.0215827,0.0402811,0.0187004,1259,1744,3.9747,-336.358
42,-720,4.30774,336.714,0.0497389,-0.0187677,-0.000834901,0.0497491,-0.0187778,-0.0121847,0.0408888,0.015511,1266,1744,4.30779,-336.714
49,-720,4.65222,336.99,0.0493294,-0.0192633,-0.000195997,0.04933,-0.0192639,-0.00285737,0.0408511,0.0324301,1273,1744,4.65221,-336.99
56,-720,4.81848,337.154,0.0482501,-0.0193497,0.000432966,0.0482529,-0.0193525,0.00640449,0.0402032,0.0350676,1280,1744,4.81845,-337.154
63,-720,5.28406,337.296,0.046858,-0.0188183,0.000688231,0.0468652,-0.0188256,0.0104776,0.0390613,0.0370679,1287,1744,5.28411,-337.296
70,-720,5.86206,337.39,0.0453999,-0.0173594,0.000675633,0.0454072,-0.0173667,0.0107638,0.0374284,0.0458906,1294,1744,5.86205,-337.389
77,-720,6.32373,337.354,0,0,0,0,0,0,0,-1,1301,1744,6.32372,-337.354
84,-720,6.58423,337.202,0.0415024,-0.0132511,0.000235409,0.0415035,-0.0132521,0.00429933,0.0329859,0.0430621,1308,1744,6.58419,-337.202
91,-720,6.85754,336.983,0.0396974,-0.0108777,0.000106182,0.0396976,-0.0108779,0.00209947,0.0307394,0.0272777,1315,1744,6.85759,-336.983
98,-720,7.11145,336.779,0.0381936,-0.00849879,0.000305069,0.0381956,-0.00850078,0.00653322,0.0287198,0.0247251,1322,1744,7.11144,-336.779
105,-720,7.18835,336.57,0.0370752,-0.00652351,0.000746674,0.037088,-0.0065363,0.0171194,0.0271674,0.0200054,1329,1744,7.18836,-336.57
112,-720,7.24451,336.34,0.0368309,-0.00480793,0.00130766,0.0368719,-0.00484895,0.0313636,0.0263467,0.0174555,1336,1744,7.24456,-336.34
119,-720,7.42236,336.11,0.0370744,-0.00304018,0.00230855,0.0372068,-0.0031726,0.0572968,0.0259269,0.0287952,1343,1744,7.42239,-336.11
126,-720,8.03064,335.267,0.03741,-0.00172575,0.00336918,0.0376979,-0.00201368,0.0852537,0.0258293,0.0380927,1350,1744,8.03062,-335.267
133,-720,8.92627,334.312,0,0,0,0,0,0,0,-1,1357,1744,8.92633,-334.312
140,-720,8.97681,333.694,0.0383335,-0.000165883,0.00538017,0.0390712,-0.00090361,0.13627,0.0263538,0.0299398,1364,1744,8.97675,-333.694
147,-720,9.18933,332.837,0.039011,-7.97075e-05,0.0063856,0.0400277,-0.00109637,0.157887,0.027058,0.0278821,1371,1744,9.18928,-332.837
154,-720,9.34863,332.007,0.0399756,-0.000203179,0.00724775,0.041243,-0.0014706,0.173121,0.0279984,0.0186042,1378,1744,9.34863,-332.007
161,-720,9.61987,331.102,0.0401931,-0.000261364,0.00768036,0.0416022,-0.00167042,0.181444,0.028308,0.0162725,1385,1744,9.61993,-331.102
168,-720,9.82007,330.103,0.0388827,-0.00069391,0.00830998,0.0405567,-0.00236796,0.19879,0.0278607,0.0171753,1392,1744,9.82001,-330.103
175,-720,9.91431,328.989,0.036566,-0.0011289,0.00869723,0.0384759,-0.00303882,0.216169,0.0267212,0.0232954,1399,1744,9.91432,-328.989
182,-720,10.144,327.861,0.0342263,-0.000761566,0.00867331,0.0362584,-0.00279361,0.230137,0.0251552,0.0235076,1406,1744,10.144,-327.861
189,-720,10.3124,326.672,0.0322682,0.000227305,0.00808175,0.0341912,-0.00169575,0.233607,0.0233799,0.0215419,1413,1744,10.3123,-326.672
196,-720,10.4243,325.4,0.030456,0.00117227,0.00767805,0.032347,-0.000718756,0.241484,0.0218082,0.0336184,1420,1744,10.4243,-325.4
203,-720,10.498,324.081,0.0288469,0.00245737,0.00710489,0.0306382,0.000666101,0.246971,0.0202071,0.0411266,1427,1744,10.4981,-324.081
210,-720,10.6776,322.525,0.027164,0.00422564,0.00657207,0.0289135,0.00247611,0.260173,0.0185056,0.036986,1434,1744,10.6777,-322.525
217,-720,10.6152,320.983,0.0254768,0.00613875,0.00607933,0.0272292,0.00438638,0.280643,0.0168817,0.0273946,1441,1744,10.6152,-320.983
224,-720,10.595,319.539,0.023778,0.00795635,0.00570109,0.0256183,0.0061161,0.312232,0.0154491,0.0159843,1448,1744,10.595,-319.539
231,-720,10.6053,317.953,0.0218072,0.00992325,0.0052847,0.0238173,0.00791317,0.36346,0.0140065,0.0141424,1455,1744,10.6053,-317.953
238,-720,10.5089,316.271,0.0196334,0.0116416,0.00485529,0.0219257,0.00934936,0.441095,0.0127044,0.0132223,1462,1744,10.5089,-316.271
245,-720,10.3672,314.545,0.0173501,0.0130089,0.00427583,0.0199748,0.0103843,0.550527,0.0115355,0.0178443,1469,1744,10.3672,-314.545
252,-720,10.2714,312.66,0.015,0.0141197,0.00377253,0.018358,0.0107617,0.727325,0.0106514,0.0215247,1476,1744,10.2714,-312.66
259,-720,10.1332,310.742,0.0124208,0.0148098,0.00330667,0.0171311,0.0100995,0.958727,0.00994338,0.0288456,1483,1744,10.1332,-310.742
266,-720,10.0005,308.65,0.00958261,0.0149872,0.0024889,0.0159587,0.00861107,1.19864,0.00922337,0.0489339,1490,1744,10.0005,-308.65
273,-720,9.60645,306.821,0,0,0,0,0,0,0,-1,1497,1744,9.60643,-306.821
280,-720,9.24829,304.517,0,0,0,0,0,0,0,-1,1504,1744,9.24829,-304.517
287,-720,5.17542,134.649,0,0,0,0,0,0,0,-1,1511,1744,5.17542,-134.649
294,-720,6.99695,110.857,0,0,0,0,0,0,0,-1,1518,1744,6.99699,-110.857
301,-720,6.64636,110.967,0,0,0,0,0,0,0,-1,1525,1744,6.64634,-110.967
308,-720,6.44629,112.353,0,0,0,0,0,0,0,-1,1532,1744,6.44625,-112.353
315,-720,8.33508,80.2484,0,0,0,0,0,0,0,-1,1539,1744,8.33509,-80.2484
322,-720,8.98181,43.5223,0,0,0,0,0,0,0,-1,1546,1744,8.98176,-43.5223
329,-720,9.15906,34.7668,0,0,0,0,0,0,0,-1,1553,1744,9.1591,-34.7669
336,-720,6.14148,26.5682,0,0,0,0,0,0,0,-1,1560,1744,6.14151,-26.5683
343,-720,6.78552,21.3625,0,0,0,0,0,0,0,-1,1567,1744,6.78551,-21.3625
350,-720,7.53918,71.5569,0,0,0,0,0,0,0,-1,1574,1744,7.53914,-71.5568
357,-720,6.90833,21.4504,0,0,0,0,0,0,0,-1,1581,1744,6.90827,-21.4505
364,-720,6.59497,44.1384,0,0,0,0,0,0,0,-1,1588,1744,6.59492,-44.1385
371,-720,6.67773,45.2386,0,0,0,0,0,0,0,-1,1595,1744,6.67779,-45.2386
378,-720,3.88257,25.5404,0,0,0,0,0,0,0,-1,1602,1744,3.88262,-25.5404
385,-720,4.672,37.3854,0,0,0,0,0,0,0,-1,1609,1744,4.67202,-37.3854
392,-720,4.89319,36.2684,0,0,0,0,0,0,0,-1,1616,1744,4.89323,-36.2684
399,-720,2.37317,24.7166,0,0,0,0,0,0,0,-1,1623,1744,2.37317,-24.7166
406,-720,0,0,0,0,0,0,0,0,0,-1,1630,1744,0,0
413,-720,0,0,0,0,0,0,0,0,0,-1,1637,1744,0,0
420,-720,0,0,0,0,0,0,0,0,0,-1,1644,1744,0,0
427,-720,0,0,0,0,0,0,0,0,0,-1,1651,1744,0,0
434,-720,0,0,0,0,0,0,0,0,0,-1,1658,1744,0,0
441,-720,0,0,0,0,0,0,0,0,0,-1,1665,1744,0,0
448,-720,0,0,0,0,0,0,0,0,0,-1,1672,1744,0,0
455,-720,0,0,0,0,0,0,0,0,0,-1,1679,1744,0,0
462,-720,0,0,0,0,0,0,0,0,0,-1,1686,1744,0,0
469,-720,0,0,0,0,0,0,0,0,0,-1,1693,1744,0,0
476,-720,0,0,0,0,0,0,0,0,0,-1,1700,1744,0,0
483,-720,0,0,0,0,0,0,0,0,0,-1,1707,1744,0,0
490,-720,0,0,0,0,0,0,0,0,0,-1,1714,1744,0,0
497,-720,0,0,0,0,0,0,0,0,0,-1,1721,1744,0,0
504,-720,0,0,0,0,0,0,0,0,0,-1,1728,1744,0,0
511,-720,0,0,0,0,0,0,0,0,0,-1,1735,1744,0,0
518,-720,0,0,0,0,0,0,0,0,0,-1,1742,1744,0,0
525,-720,0,0,0,0,0,0,0,0,0,-1,1749,1744,0,0
532,-720,0,0,0,0,0,0,0,0,0,-1,1756,1744,0,0
539,-720,0,0,0,0,0,0,0,0,0,-1,1763,1744,0,0
546,-720,0,0,0,0,0,0,0,0,0,-1,1770,1744,0,0
553,-720,0,0,0,0,0,0,0,0,0,-1,1777,1744,0,0
560,-720,0,0,0,0,0,0,0,0,0,-1,1784,1744,0,0
567,-720,0,0,0,0,0,0,0,0,0,-1,1791,1744,0,0
574,-720,0,0,0,0,0,0,0,0,0,-1,1798,1744,0,0
581,-720,0,0,0,0,0,0,0,0,0,-1,1805,1744,0,0
588,-720,0,0,0,0,0,0,0,0,0,-1,1812,1744,0,0
595,-720,0,0,0,0,0,0,0,0,0,-1,1819,1744,0,0
602,-720,0,0,0,0,0,0,0,0,0,-1,1826,1744,0,0
609,-720,0,0,0,0,0,0,0,0,0,-1,1833,1744,0,0
616,-720,0,0,0,0,0,0,0,0,0,-1,1840,1744,0,0
623,-720,0,0,0,0,0,0,0,0,0,-1,1847,1744,0,0
630,-720,0,0,0,0,0,0,0,0,0,-1,1854,1744,0,0
637,-720,0,0,0,0,0,0,0,0,0,-1,1861,1744,0,0
644,-720,0,0,0,0,0,0,0,0,0,-1,1868,1744,0,0
651,-720,0,0,0,0,0,0,0,0,0,-1,1875,1744,0,0
658,-720,0,0,0,0,0,0,0,0,0,-1,1882,1744,0,0
665,-720,0,0,0,0,0,0,0,0,0,-1,1889,1744,0,0
672,-720,0,0,0,0,0,0,0,0,0,-1,1896,1744,0,0
679,-720,0,0,0,0,0,0,0,0,0,-1,1903,1744,0,0
686,-720,0,0,0,0,0,0,0,0,0,-1,1910,1744,0,0
693,-720,0,0,0,0,0,0,0,0,0,-1,1917,1744,0,0
700,-720,0,0,0,0,0,0,0,0,0,-1,1924,1744,0,0
707,-720,0,0,0,0,0,0,0,0,0,-1,1931,1744,0,0
714,-720,0,0,0,0,0,0,0,0,0,-1,1938,1744,0,0
721,-720,0,0,0,0,0,0,0,0,0,-1,1945,1744,0,0
728,-720,0,0,0,0,0,0,0,0,0,-1,1952,1744,0,0
735,-720,0,0,0,0,0,0,0,0,0,-1,1959,1744,0,0
742,-720,0,0,0,0,0,0,0,0,0,-1,1966,1744,0,0
749,-720,0,0,0,0,0,0,0,0,0,-1,1973,1744,0,0
756,-720,0,0,0,0,0,0,0,0,0,-1,1980,1744,0,0
763,-720,0,0,0,0,0,0,0,0,0,-1,1987,1744,0,0
770,-720,0,0,0,0,0,0,0,0,0,-1,1994,1744,0,0
777,-720,0,0,0,0,0,0,0,0,0,-1,2001,1744,0,0
784,-720,0,0,0,0,0,0,0,0,0,-1,2008,1744,0,0
791,-720,0,0,0,0,0,0,0,0,0,-1,2015,1744,0,0
798,-720,0,0,0,0,0,0,0,0,0,-1,2022,1744,0,0
805,-720,0,0,0,0,0,0,0,0,0,-1,2029,1744,0,0
812,-720,0,0,0,0,0,0,0,0,0,-1,2036,1744,0,0
-700,-727,0,0,0,0,0,0,0,0,0,-1,524,1751,0,0
-693,-727,0,0,0,0,0,0,0,0,0,-1,531,1751,0,0
-686,-727,0,0,0,0,0,0,0,0,0,-1,538,1751,0,0
-679,-727,0,0,0,0,0,0,0,0,0,-1,545,1751,0,0
-672,-727,0,0,0,0,0,0,0,0,0,-1,552,1751,0,0
-665,-727,0,0,0,0,0,0,0,0,0,-1,559,1751,0,0
-658,-727,0,0,0,0,0,0,0,0,0,-1,566,1751,0,0
-651,-727,0,0,0,0,0,0,0,0,0,-1,573,1751,0,0
-644,-727,0,0,0,0,0,0,0,0,0,-1,580,1751,0,0
-637,-727,0,0,0,0,0,0,0,0,0,-1,587,1751,0,0
-630,-727,0,0,0,0,0,0,0,0,0,-1,594,1751,0,0
-623,-727,0,0,0,0,0,0,0,0,0,-1,601,1751,0,0
-616,-727,0,0,0,0,0,0,0,0,0,-1,608,1751,0,0
-609,-727,0,0,0,0,0,0,0,0,0,-1,615,1751,0,0
-602,-727,0,0,0,0,0,0,0,0,0,-1,622,1751,0,0
-595,-727,0,0,0,0,0,0,0,0,0,-1,629,1751,0,0
-588,-727,0,0,0,0,0,0,0,0,0,-1,636,1751,0,0
-581,-727,0,0,0,0,0,0,0,0,0,-1,643,1751,0,0
-574,-727,0,0,0,0,0,0,0,0,0,-1,650,1751,0,0
-567,-727,0,0,0,0,0,0,0,0,0,-1,657,1751,0,0
-560,-727,0,0,0,0,0,0,0,0,0,-1,664,1751,0,0
-553,-727,0,0,0,0,0,0,0,0,0,-1,671,1751,0,0
-546,-727,0,0,0,0,0,0,0,0,0,-1,678,1751,0,0
-539,-727,0,0,0,0,0,0,0,0,0,-1,685,1751,0,0
-532,-727,0,0,0,0,0,0,0,0,0,-1,692,1751,0,0
-525,-727,0,0,0,0,0,0,0,0,0,-1,699,1751,0,0
-518,-727,0,0,0,0,0,0,0,0,0,-1,706,1751,0,0
-511,-727,0,0,0,0,0,0,0,0,0,-1,713,1751,0,0
-504,-727,0,0,0,0,0,0,0,0,0,-1,720,1751,0,0
-497,-727,0,0,0,0,0,0,0,0,0,-1,727,1751,0,0
-490,-727,0,0,0,0,0,0,0,0,0,-1,734,1751,0,0
-483,-727,0,0,0,0,0,0,0,0,0,-1,741,1751,0,0
-476,-727,0,0,0,0,0,0,0,0,0,-1,748,1751,0,0
-469,-727,0,0,0,0,0,0,0,0,0,-1,755,1751,0,0
-462,-727,0,0,0,0,0,0,0,0,0,-1,762,1751,0,0
-455,-727,0,0,0,0,0,0,0,0,0,-1,769,1751,0,0
-448,-727,0,0,0,0,0,0,0,0,0,-1,776,1751,0,0
-441,-727,0,0,0,0,0,0,0,0,0,-1,783,1751,0,0
-434,-727,0,0,0,0,0,0,0,0,0,-1,790,1751,0,0
-427,-727,0,0,0,0,0,0,0,0,0,-1,797,1751,0,0
-420,-727,0,0,0,0,0,0,0,0,0,-1,804,1751,0,0
-413,-727,0,0,0,0,0,0,0,0,0,-1,811,1751,0,0
-406,-727,0,0,0,0,0,0,0,0,0,-1,818,1751,0,0
-399,-727,0,0,0,0,0,0,0,0,0,-1,825,1751,0,0
-392,-727,0,0,0,0,0,0,0,0,0,-1,832,1751,0,0
-385,-727,0,0,0,0,0,0,0,0,0,-1,839,1751,0,0
-378,-727,0,0,0,0,0,0,0,0,0,-1,846,1751,0,0
-371,-727,0,0,0,0,0,0,0,0,0,-1,853,1751,0,0
-364,-727,0,0,0,0,0,0,0,0,0,-1,860,1751,0,0
-357,-727,0,0,0,0,0,0,0,0,0,-1,867,1751,0,0
-350,-727,0,0,0,0,0,0,0,0,0,-1,874,1751,0,0
-343,-727,0,0,0,0,0,0,0,0,0,-1,881,1751,0,0
-336,-727,0,0,0,0,0,0,0,0,0,-1,888,1751,0,0
-329,-727,0,0,0,0,0,0,0,0,0,-1,895,1751,0,0
-322,-727,0,0,0,0,0,0,0,0,0,-1,902,1751,0,0
-315,-727,0,0,0,0,0,0,0,0,0,-1,909,1751,0,0
-308,-727,0,0,0,0,0,0,0,0,0,-1,916,1751,0,0
-301,-727,0,0,0,0,0,0,0,0,0,-1,923,1751,0,0
-294,-727,0,0,0,0,0,0,0,0,0,-1,930,1751,0,0
-287,-727,0,0,0,0,0,0,0,0,0,-1,937,1751,0,0
-280,-727,0,0,0,0,0,0,0,0,0,-1,944,1751,0,0
-273,-727,0,0,0,0,0,0,0,0,0,-1,951,1751,0,0
-266,-727,4.24805,7.61145,0,0,0,0,0,0,0,-1,958,1751,4.24802,-7.6115
-259,-727,3.65228,5.4082,0,0,0,0,0,0,0,-1,965,1751,3.65229,-5.40818
-252,-727,5.8797,32.9292,0,0,0,0,0,0,0,-1,972,1751,5.87972,-32.9292
-245,-727,6.59198,32.2588,0,0,0,0,0,0,0,-1,979,1751,6.59195,-32.2587
-238,-727,6.6189,30.4597,0,0,0,0,0,0,0,-1,986,1751,6.61889,-30.4598
-231,-727,10.3705,65.6537,0,0,0,0,0,0,0,-1,993,1751,10.3706,-65.6537
-224,-727,6.64417,70.2582,0,0,0,0,0,0,0,-1,1000,1751,6.64418,-70.2582
-217,-727,11.5642,66.4852,0,0,0,0,0,0,0,-1,1007,1751,11.5642,-66.4853
-210,-727,11.9247,66.7097,0,0,0,0,0,0,0,-1,1014,1751,11.9246,-66.7097
-203,-727,10.2913,113.322,0,0,0,0,0,0,0,-1,1021,1751,10.2912,-113.322
-196,-727,9.95496,113.302,0,0,0,0,0,0,0,-1,1028,1751,9.95494,-113.302
-189,-727,9.26709,79.3872,0,0,0,0,0,0,0,-1,1035,1751,9.26713,-79.3872
-182,-727,9.896,114.416,0,0,0,0,0,0,0,-1,1042,1751,9.89605,-114.416
-175,-727,9.45593,123.651,0,0,0,0,0,0,0,-1,1049,1751,9.45591,-123.651
-168,-727,8.81592,119.119,0,0,0,0,0,0,0,-1,1056,1751,8.81591,-119.119
-161,-727,9.19238,116.507,0,0,0,0,0,0,0,-1,1063,1751,9.19233,-116.507
-154,-727,9.53088,111.789,0,0,0,0,0,0,0,-1,1070,1751,9.53087,-111.789
-147,-727,9.88684,103.831,0,0,0,0,0,0,0,-1,1077,1751,9.88688,-103.831
-140,-727,9.77563,100.047,0,0,0,0,0,0,0,-1,1084,1751,9.77561,-100.047
-133,-727,9.11511,111.783,0,0,0,0,0,0,0,-1,1091,1751,9.11513,-111.783
-126,-727,3.21057,309.411,0,0,0,0,0,0,0,-1,1098,1751,3.21056,-309.411
-119,-727,3.00732,311.623,0,0,0,0,0,0,0,-1,1105,1751,3.00738,-311.623
-112,-727,2.80457,313.49,0,0,0,0,0,0,0,-1,1112,1751,2.80456,-313.49
-105,-727,2.6748,315.19,0,0,0,0,0,0,0,-1,1119,1751,2.67475,-315.19
-98,-727,2.31946,316.743,0.0135417,-0.000707251,-0.00243112,0.0139451,-0.00111062,-0.164423,0.00968816,0.028221,1126,1751,2.31948,-316.743
-91,-727,2.27539,318.35,0.0151022,-0.00030545,-0.00319924,0.0157401,-0.000943328,-0.196804,0.0108216,0.0191833,1133,1751,2.27543,-318.35
-84,-727,2.24426,319.961,0.0161748,-0.000499263,-0.00403949,0.0171019,-0.00142633,-0.225595,0.0119052,0.0237109,1140,1751,2.24424,-319.961
-77,-727,2.18994,321.442,0.0178079,-0.000881156,-0.00497786,0.0190511,-0.00212432,-0.244733,0.0134648,0.0342139,1147,1751,2.18992,-321.442
-70,-727,2.21179,322.983,0.0196186,-0.00146567,-0.00588945,0.0211521,-0.00299923,-0.254734,0.0152001,0.0272617,1154,1751,2.21178,-322.983
-63,-727,2.20166,324.465,0.0214362,-0.00267845,-0.00655208,0.0231015,-0.00434369,-0.248885,0.0170345,0.0189723,1161,1751,2.2016,-324.465
-56,-727,2.19763,325.715,0.0232978,-0.00410427,-0.00691436,0.0249437,-0.00575012,-0.233684,0.0188406,0.0197314,1168,1751,2.19762,-325.715
-49,-727,2.27991,326.957,0.0245809,-0.0043748,-0.00725241,0.0262958,-0.00608972,-0.232196,0.0198739,0.018999,1175,1751,2.27987,-326.957
-42,-727,2.41785,328.103,0.0261107,-0.00407038,-0.00719513,0.0277382,-0.00569792,-0.222457,0.0206551,0.023371,1182,1751,2.4178,-328.103
-35,-727,2.50623,329.25,0.0275903,-0.00379753,-0.00704872,0.0291005,-0.00530779,-0.211068,0.0213903,0.0222849,1189,1751,2.50618,-329.25
-28,-727,2.57117,330.378,0.0289421,-0.00394641,-0.00674454,0.0302715,-0.0052758,-0.194611,0.02215,0.0159192,1196,1751,2.57115,-330.378
-21,-727,2.71692,331.395,0.0301999,-0.00412656,-0.00623208,0.0312963,-0.005223,-0.174152,0.0228054,0.0162259,1203,1751,2.71695,-331.395
-14,-727,2.93506,332.257,0.0313376,-0.00412097,-0.00571423,0.0322357,-0.00501909,-0.155896,0.023344,0.0169707,1210,1751,2.93508,-332.257
-7,-727,3.11609,333.117,0.032484,-0.00423743,-0.00504436,0.0331643,-0.00491777,-0.134061,0.0239179,0.0211773,1217,1751,3.11612,-333.117
0,-727,3.17371,333.934,0.0334141,-0.00460751,-0.0043,0.0338943,-0.00508775,-0.111222,0.0244691,0.0203246,1224,1751,3.17373,-333.934
7,-727,3.38977,334.525,0.0341353,-0.00516793,-0.00355942,0.0344551,-0.00548768,-0.0895916,0.0250009,0.0229608,1231,1751,3.38976,-334.525
14,-727,3.6217,335.069,0.0350672,-0.00598089,-0.00282285,0.0352605,-0.0061741,-0.0683405,0.0258123,0.0246773,1238,1751,3.62165,-335.069
21,-727,3.82886,335.633,0.0361093,-0.00703415,-0.00219063,0.0362202,-0.0071451,-0.050602,0.0268473,0.022868,1245,1751,3.82892,-335.633
28,-727,4.13367,336.122,0.0370576,-0.00845354,-0.00165346,0.0371176,-0.00851354,-0.0362671,0.0280174,0.023817,1252,1751,4.13367,-336.122
35,-727,4.42517,336.5,0.0380425,-0.00968878,-0.00110949,0.0380683,-0.00971455,-0.0232278,0.0291615,0.0213577,1259,1751,4.42521,-336.5
42,-727,4.56567,336.859,0.0385854,-0.0106109,-0.000652344,0.0385941,-0.0106196,-0.0132569,0.0299045,0.0169466,1266,1751,4.56565,-336.859
49,-727,4.79419,337.2,0.0384802,-0.0112808,-0.00034112,0.0384826,-0.0112831,-0.00685474,0.0301288,0.0219372,1273,1751,4.79422,-337.2
56,-727,4.92859,337.429,0.0378696,-0.0115824,-7.6876e-05,0.0378698,-0.0115825,-0.00155455,0.0298656,0.02267,1280,1751,4.92861,-337.429
63,-727,5.19397,337.5,0.0370155,-0.0110335,-0.00046536,0.03702,-0.011038,-0.0096839,0.0290666,0.0266936,1287,1751,5.19403,-337.5
70,-727,5.85669,337.324,0.0361782,-0.00961243,-0.00121387,0.0362104,-0.00964459,-0.0264843,0.0279161,0.0443746,1294,1751,5.85673,-337.324
77,-727,6.21802,337.344,0,0,0,0,0,0,0,-1,1301,1751,6.21803,-337.344
84,-727,6.43042,337.154,0,0,0,0,0,0,0,-1,1308,1751,6.43047,-337.154
91,-727,6.75964,336.921,0.0324665,-0.00339665,-0.00362548,0.0328294,-0.00375948,-0.0997473,0.023241,0.0478675,1315,1751,6.75963,-336.921
98,-727,6.90454,336.702,0.0314213,-0.00127003,-0.00386117,0.0318712,-0.00171988,-0.115984,0.0218433,0.0364617,1322,1751,6.90459,-336.702
105,-727,6.89526,336.543,0.0306244,0.000390659,-0.00374746,0.0310819,-6.69137e-05,-0.1215,0.0207436,0.0214854,1329,1751,6.89523,-336.543
112,-727,7.04419,336.249,0.0303057,0.00182942,-0.00341061,0.0307085,0.00142663,-0.117555,0.0200137,0.0191981,1336,1751,7.04416,-336.249
119,-727,7.3269,335.809,0.0302181,0.0031996,-0.0026821,0.0304817,0.00293593,-0.0979948,0.0194166,0.0198972,1343,1751,7.3269,-335.809
126,-727,7.77673,335.076,0.0302661,0.00398707,-0.0017548,0.0303827,0.00387041,-0.0663829,0.0190962,0.0231016,1350,1751,7.77673,-335.076
133,-727,7.99365,334.398,0.0306689,0.00443413,-0.000822855,0.0306947,0.00440834,-0.0313241,0.0191634,0.0230667,1357,1751,7.99367,-334.398
140,-727,8.13489,333.667,0.0307934,0.00425766,0.000179675,0.0307946,0.00425645,0.00677065,0.0192683,0.0341735,1364,1751,8.13485,-333.667
147,-727,8.36694,332.894,0.0309529,0.00375585,0.00126097,0.0310112,0.00369752,0.046232,0.0195585,0.0278813,1371,1751,8.36696,-332.894
154,-727,8.52258,332.043,0.0310267,0.00313087,0.00234146,0.0312218,0.00293571,0.0831604,0.0199083,0.0175035,1378,1751,8.52262,-332.043
161,-727,8.66443,331.17,0.0303937,0.00269472,0.00296897,0.0307084,0.00238006,0.105589,0.0197268,0.0139115,1385,1751,8.66444,-331.17
168,-727,8.7345,330.274,0.0286731,0.00182527,0.00393764,0.0292387,0.00125967,0.142663,0.0190864,0.0171324,1392,1751,8.73454,-330.274
175,-727,8.80481,329.211,0.0265588,0.00139326,0.00475076,0.0274258,0.000526278,0.180506,0.018111,0.0246389,1399,1751,8.80476,-329.211
182,-727,8.98035,328.04,0.0246537,0.00160071,0.00521745,0.0257795,0.000474856,0.212527,0.0170303,0.0268274,1406,1751,8.98029,-328.04
189,-727,9.0011,326.831,0.0231483,0.00293812,0.00452624,0.0241157,0.00197073,0.21056,0.0154622,0.018266,1413,1751,9.00113,-326.831
196,-727,9.01855,325.496,0.0216907,0.0041899,0.00396766,0.0225482,0.0033324,0.212849,0.0140537,0.0272786,1420,1751,9.0186,-325.496
203,-727,9.0094,324.097,0.020336,0.00585575,0.00323962,0.0210277,0.00516401,0.210367,0.0126534,0.0382709,1427,1751,9.00942,-324.097
210,-727,9.09778,322.645,0.0187613,0.00831403,0.00274418,0.0194383,0.00763708,0.241856,0.0113082,0.0370777,1434,1751,9.09783,-322.645
217,-727,9.01672,321.172,0.0173602,0.0107948,0.00228629,0.0180779,0.0100771,0.304175,0.0104602,0.0225014,1441,1751,9.01671,-321.172
224,-727,8.94434,319.638,0.0157922,0.0131232,0.00208078,0.0169297,0.0119858,0.500265,0.0100523,0.0191823,1448,1751,8.94438,-319.638
231,-727,8.88037,318.053,0.0135345,0.0154677,0.00164737,0.0164111,0.0125911,1.05072,0.0099158,0.0160461,1455,1751,8.88035,-318.053
238,-727,8.7085,316.192,0.0110237,0.0176468,0.00110483,0.0178263,0.0108443,1.40979,0.0103722,0.0420548,1462,1751,8.70849,-316.192
245,-727,8.63123,314.297,0,0,0,0,0,0,0,-1,1469,1751,8.63127,-314.297
252,-727,8.40442,312.813,0,0,0,0,0,0,0,-1,1476,1751,8.40443,-312.813
259,-727,8.10498,310.773,0,0,0,0,0,0,0,-1,1483,1751,8.10494,-310.773
266,-727,7.9812,308.525,0,0,0,0,0,0,0,-1,1490,1751,7.9812,-308.525
273,-727,8.31946,82.3387,0,0,0,0,0,0,0,-1,1497,1751,8.31948,-82.3387
280,-727,8.28369,85.8636,0,0,0,0,0,0,0,-1,1504,1751,8.28373,-85.8636
287,-727,7.65161,81.5585,0,0,0,0,0,0,0,-1,1511,1751,7.65165,-81.5585
294,-727,7.47607,71.4724,0,0,0,0,0,0,0,-1,1518,1751,7.47602,-71.4724
301,-727,8.44385,46.1619,0,0,0,0,0,0,0,-1,1525,1751,8.4439,-46.1619
308,-727,8.77002,44.8007,0,0,0,0,0,0,0,-1,1532,1751,8.76996,-44.8006
315,-727,8.10571,41.24,0,0,0,0,0,0,0,-1,1539,1751,8.10567,-41.2399
322,-727,8.24133,40.2081,0,0,0,0,0,0,0,-1,1546,1751,8.24136,-40.2082
329,-727,5.54419,31.0325,0,0,0,0,0,0,0,-1,1553,1751,5.54425,-31.0325
336,-727,5.55823,20.2439,0,0,0,0,0,0,0,-1,1560,1751,5.55829,-20.2438
343,-727,2.41699,8.72095,0,0,0,0,0,0,0,-1,1567,1751,2.41702,-8.72098
350,-727,3.89783,7.50195,0,0,0,0,0,0,0,-1,1574,1751,3.89782,-7.50193
357,-727,4.48462,10.2948,0,0,0,0,0,0,0,-1,1581,1751,4.48464,-10.2948
364,-727,6.96729,17.2365,0,0,0,0,0,0,0,-1,1588,1751,6.96732,-17.2365
371,-727,5.04565,23.2227,0,0,0,0,0,0,0,-1,1595,1751,5.04564,-23.2227
378,-727,4.56726,23.0574,0,0,0,0,0,0,0,-1,1602,1751,4.56727,-23.0574
385,-727,3.52307,22.6431,0,0,0,0,0,0,0,-1,1609,1751,3.52303,-22.643
392,-727,0,0,0,0,0,0,0,0,0,-1,1616,1751,0,0
399,-727,0,0,0,0,0,0,0,0,0,-1,1623,1751,0,0
406,-727,0,0,0,0,0,0,0,0,0,-1,1630,1751,0,0
413,-727,0,0,0,0,0,0,0,0,0,-1,1637,1751,0,0
420,-727,0,0,0,0,0,0,0,0,0,-1,1644,1751,0,0
427,-727,0,0,0,0,0,0,0,0,0,-1,1651,1751,0,0
434,-727,0,0,0,0,0,0,0,0,0,-1,1658,1751,0,0
441,-727,0,0,0,0,0,0,0,0,0,-1,1665,1751,0,0
448,-727,0,0,0,0,0,0,0,0,0,-1,1672,1751,0,0
455,-727,0,0,0,0,0,0,0,0,0,-1,1679,1751,0,0
462,-727,0,0,0,0,0,0,0,0,0,-1,1686,1751,0,0
469,-727,0,0,0,0,0,0,0,0,0,-1,1693,1751,0,0
476,-727,0,0,0,0,0,0,0,0,0,-1,1700,1751,0,0
483,-727,0,0,0,0,0,0,0,0,0,-1,1707,1751,0,0
490,-727,0,0,0,0,0,0,0,0,0,-1,1714,1751,0,0
497,-727,0,0,0,0,0,0,0,0,0,-1,1721,1751,0,0
504,-727,0,0,0,0,0,0,0,0,0,-1,1728,1751,0,0
511,-727,0,0,0,0,0,0,0,0,0,-1,1735,1751,0,0
518,-727,0,0,0,0,0,0,0,0,0,-1,1742,1751,0,0
525,-727,0,0,0,0,0,0,0,0,0,-1,1749,1751,0,0
532,-727,0,0,0,0,0,0,0,0,0,-1,1756,1751,0,0
539,-727,0,0,0,0,0,0,0,0,0,-1,1763,1751,0,0
546,-727,0,0,0,0,0,0,0,0,0,-1,1770,1751,0,0
553,-727,0,0,0,0,0,0,0,0,0,-1,1777,1751,0,0
560,-727,0,0,0,0,0,0,0,0,0,-1,1784,1751,0,0
567,-727,0,0,0,0,0,0,0,0,0,-1,1791,1751,0,0
574,-727,0,0,0,0,0,0,0,0,0,-1,1798,1751,0,0
581,-727,0,0,0,0,0,0,0,0,0,-1,1805,1751,0,0
588,-727,0,0,0,0,0,0,0,0,0,-1,1812,1751,0,0
595,-727,0,0,0,0,0,0,0,0,0,-1,1819,1751,0,0
602,-727,0,0,0,0,0,0,0,0,0,-1,1826,1751,0,0
609,-727,0,0,0,0,0,0,0,0,0,-1,1833,1751,0,0
616,-727,0,0,0,0,0,0,0,0,0,-1,1840,1751,0,0
623,-727,0,0,0,0,0,0,0,0,0,-1,1847,1751,0,0
630,-727,0,0,0,0,0,0,0,0,0,-1,1854,1751,0,0
637,-727,0,0,0,0,0,0,0,0,0,-1,1861,1751,0,0
644,-727,0,0,0,0,0,0,0,0,0,-1,1868,1751,0,0
651,-727,0,0,0,0,0,0,0,0,0,-1,1875,1751,0,0
658,-727,0,0,0,0,0,0,0,0,0,-1,1882,1751,0,0
665,-727,0,0,0,0,0,0,0,0,0,-1,1889,1751,0,0
672,-727,0,0,0,0,0,0,0,0,0,-1,1896,1751,0,0
679,-727,0,0,0,0,0,0,0,0,0,-1,1903,1751,0,0
686,-727,0,0,0,0,0,0,0,0,0,-1,1910,1751,0,0
693,-727,0,0,0,0,0,0,0,0,0,-1,1917,1751,0,0
700,-727,0,0,0,0,0,0,0,0,0,-1,1924,1751,0,0
707,-727,0,0,0,0,0,0,0,0,0,-1,1931,1751,0,0
714,-727,0,0,0,0,0,0,0,0,0,-1,1938,1751,0,0
721,-727,0,0,0,0,0,0,0,0,0,-1,1945,1751,0,0
728,-727,0,0,0,0,0,0,0,0,0,-1,1952,1751,0,0
735,-727,0,0,0,0,0,0,0,0,0,-1,1959,1751,0,0
742,-727,0,0,0,0,0,0,0,0,0,-1,1966,1751,0,0
749,-727,0,0,0,0,0,0,0,0,0,-1,1973,1751,0,0
756,-727,0,0,0,0,0,0,0,0,0,-1,1980,1751,0,0
763,-727,0,0,0,0,0,0,0,0,0,-1,1987,1751,0,0
770,-727,0,0,0,0,0,0,0,0,0,-1,1994,1751,0,0
777,-727,0,0,0,0,0,0,0,0,0,-1,2001,1751,0,0
784,-727,0,0,0,0,0,0,0,0,0,-1,2008,1751,0,0
791,-727,0,0,0,0,0,0,0,0,0,-1,2015,1751,0,0
798,-727,0,0,0,0,0,0,0,0,0,-1,2022,1751,0,0
805,-727,0,0,0,0,0,0,0,0,0,-1,2029,1751,0,0
812,-727,0,0,0,0,0,0,0,0,0,-1,2036,1751,0,0
-700,-734,0,0,0,0,0,0,0,0,0,-1,524,1758,0,0
-693,-734,0,0,0,0,0,0,0,0,0,-1,531,1758,0,0
-686,-734,0,0,0,0,0,0,0,0,0,-1,538,1758,0,0
-679,-734,0,0,0,0,0,0,0,0,0,-1,545,1758,0,0
-672,-734,0,0,0,0,0,0,0,0,0,-1,552,1758,0,0
-665,-734,0,0,0,0,0,0,0,0,0,-1,559,1758,0,0
-658,-734,0,0,0,0,0,0,0,0,0,-1,566,1758,0,0
-651,-734,0,0,0,0,0,0,0,0,0,-1,573,1758,0,0
-644,-734,0,0,0,0,0,0,0,0,0,-1,580,1758,0,0
-637,-734,0,0,0,0,0,0,0,0,0,-1,587,1758,0,0
-630,-734,0,0,0,0,0,0,0,0,0,-1,594,1758,0,0
-623,-734,0,0,0,0,0,0,0,0,0,-1,601,1758,0,0
-616,-734,0,0,0,0,0,0,0,0,0,-1,608,1758,0,0
-609,-734,0,0,0,0,0,0,0,0,0,-1,615,1758,0,0
-602,-734,0,0,0,0,0,0,0,0,0,-1,622,1758,0,0
-595,-734,0,0,0,0,0,0,0,0,0,-1,629,1758,0,0
-588,-734,0,0,0,0,0,0,0,0,0,-1,636,1758,0,0
-581,-734,0,0,0,0,0,0,0,0,0,-1,643,1758,0,0
-574,-734,0,0,0,0,0,0,0,0,0,-1,650,1758,0,0
-567,-734,0,0,0,0,0,0,0,0,0,-1,657,1758,0,0
-560,-734,0,0,0,0,0,0,0,0,0,-1,664,1758,0,0
-553,-734,0,0,0,0,0,0,0,0,0,-1,671,1758,0,0
-546,-734,0,0,0,0,0,0,0,0,0,-1,678,1758,0,0
-539,-734,0,0,0,0,0,0,0,0,0,-1,685,1758,0,0
-532,-734,0,0,0,0,0,0,0,0,0,-1,692,1758,0,0
-525,-734,0,0,0,0,0,0,0,0,0,-1,699,1758,0,0
-518,-734,0,0,0,0,0,0,0,0,0,-1,706,1758,0,0
-511,-734,0,0,0,0,0,0,0,0,0,-1,713,1758,0,0
-504,-734,0,0,0,0,0,0,0,0,0,-1,720,1758,0,0
-497,-734,0,0,0,0,0,0,0,0,0,-1,727,1758,0,0
-490,-734,0,0,0,0,0,0,0,0,0,-1,734,1758,0,0
-483,-734,0,0,0,0,0,0,0,0,0,-1,741,1758,0,0
-476,-734,0,0,0,0,0,0,0,0,0,-1,748,1758,0,0
-469,-734,0,0,0,0,0,0,0,0,0,-1,755,1758,0,0
-462,-734,0,0,0,0,0,0,0,0,0,-1,762,1758,0,0
-455,-734,0,0,0,0,0,0,0,0,0,-1,769,1758,0,0
-448,-734,0,0,0,0,0,0,0,0,0,-1,776,1758,0,0
-441,-734,0,0,0,0,0,0,0,0,0,-1,783,1758,0,0
-434,-734,0,0,0,0,0,0,0,0,0,-1,790,1758,0,0
-427,-734,0,0,0,0,0,0,0,0,0,-1,797,1758,0,0
-420,-734,0,0,0,0,0,0,0,0,0,-1,804,1758,0,0
-413,-734,0,0,0,0,0,0,0,0,0,-1,811,1758,0,0
-406,-734,0,0,0,0,0,0,0,0,0,-1,818,1758,0,0
-399,-734,0,0,0,0,0,0,0,0,0,-1,825,1758,0,0
-392,-734,0,0,0,0,0,0,0,0,0,-1,832,1758,0,0
-385,-734,0,0,0,0,0,0,0,0,0,-1,839,1758,0,0
-378,-734,0,0,0,0,0,0,0,0,0,-1,846,1758,0,0
-371,-734,0,0,0,0,0,0,0,0,0,-1,853,1758,0,0
-364,-734,0,0,0,0,0,0,0,0,0,-1,860,1758,0,0
-357,-734,0,0,0,0,0,0,0,0,0,-1,867,1758,0,0
-350,-734,0,0,0,0,0,0,0,0,0,-1,874,1758,0,0
-343,-734,0,0,0,0,0,0,0,0,0,-1,881,1758,0,0
-336,-734,0,0,0,0,0,0,0,0,0,-1,888,1758,0,0
-329,-734,0,0,0,0,0,0,0,0,0,-1,895,1758,0,0
-322,-734,0,0,0,0,0,0,0,0,0,-1,902,1758,0,0
-315,-734,0,0,0,0,0,0,0,0,0,-1,909,1758,0,0
-308,-734,0,0,0,0,0,0,0,0,0,-1,916,1758,0,0
-301,-734,0,0,0,0,0,0,0,0,0,-1,923,1758,0,0
-294,-734,0,0,0,0,0,0,0,0,0,-1,930,1758,0,0
-287,-734,0,0,0,0,0,0,0,0,0,-1,937,1758,0,0
-280,-734,0,0,0,0,0,0,0,0,0,-1,944,1758,0,0
-273,-734,0,0,0,0,0,0,0,0,0,-1,951,1758,0,0
-266,-734,0,0,0,0,0,0,0,0,0,-1,958,1758,0,0
-259,-734,0,0,0,0,0,0,0,0,0,-1,965,1758,0,0
-252,-734,5.73883,31.5245,0,0,0,0,0,0,0,-1,972,1758,5.73884,-31.5246
-245,-734,6.32513,30.9761,0,0,0,0,0,0,0,-1,979,1758,6.32511,-30.9761
-238,-734,6.82385,30.0449,0,0,0,0,0,0,0,-1,986,1758,6.82387,-30.0449
-231,-734,7.1958,29.1666,0,0,0,0,0,0,0,-1,993,1758,7.19578,-29.1666
-224,-734,11.9083,67.6753,0,0,0,0,0,0,0,-1,1000,1758,11.9083,-67.6753
-217,-734,12.5489,68.1686,0,0,0,0,0,0,0,-1,1007,1758,12.5489,-68.1685
-210,-734,12.8944,68.743,0,0,0,0,0,0,0,-1,1014,1758,12.8944,-68.7431
-203,-734,13.1958,69.3351,0,0,0,0,0,0,0,-1,1021,1758,13.1958,-69.3351
-196,-734,13.0366,49.6821,0,0,0,0,0,0,0,-1,1028,1758,13.0366,-49.6822
-189,-734,12.1746,77.9988,0,0,0,0,0,0,0,-1,1035,1758,12.1746,-77.9987
-182,-734,10.0289,81.2341,0,0,0,0,0,0,0,-1,1042,1758,10.0289,-81.2341
-175,-734,10.8186,80.3762,0,0,0,0,0,0,0,-1,1049,1758,10.8186,-80.3762
-168,-734,10.7595,63.7695,0,0,0,0,0,0,0,-1,1056,1758,10.7595,-63.7695
-161,-734,10.8724,64.5072,0,0,0,0,0,0,0,-1,1063,1758,10.8724,-64.5072
-154,-734,10.3014,52.4893,0,0,0,0,0,0,0,-1,1070,1758,10.3014,-52.4893
-147,-734,10.325,56.6101,0,0,0,0,0,0,0,-1,1077,1758,10.3249,-56.6101
-140,-734,9.97607,77.6641,0,0,0,0,0,0,0,-1,1084,1758,9.97611,-77.6641
-133,-734,9.90125,75.2577,0,0,0,0,0,0,0,-1,1091,1758,9.90126,-75.2577
-126,-734,9.74487,71.7767,0,0,0,0,0,0,0,-1,1098,1758,9.74489,-71.7767
-119,-734,9.82996,66.3767,0,0,0,0,0,0,0,-1,1105,1758,9.82997,-66.3767
-112,-734,9.52307,61.2794,0,0,0,0,0,0,0,-1,1112,1758,9.52313,-61.2794
-105,-734,9.39783,63.9799,0,0,0,0,0,0,0,-1,1119,1758,9.39786,-63.9798
-98,-734,3.80127,316.841,0,0,0,0,0,0,0,-1,1126,1758,3.80124,-316.841
-91,-734,3.85364,318.49,0,0,0,0,0,0,0,-1,1133,1758,3.85368,-318.49
-84,-734,3.91895,320.015,0,0,0,0,0,0,0,-1,1140,1758,3.91891,-320.015
-77,-734,3.8053,321.619,0,0,0,0,0,0,0,-1,1147,1758,3.80536,-321.619
-70,-734,3.65332,323.242,0,0,0,0,0,0,0,-1,1154,1758,3.65336,-323.242
-63,-734,3.56909,324.61,0.0111089,0.00206747,-0.00427673,0.0128113,0.000365064,-0.378835,0.00842183,0.0322642,1161,1758,3.56912,-324.61
-56,-734,3.50562,325.84,0.0126838,0.000400179,-0.00499801,0.0144605,-0.00137646,-0.341539,0.0101304,0.0242041,1168,1758,3.50565,-325.84
-49,-734,3.50073,327.066,0.0134685,0.000852433,-0.00583708,0.0157548,-0.00143388,-0.37332,0.0110123,0.0194288,1175,1758,3.50073,-327.066
-42,-734,3.57605,328.382,0.0153816,0.00245365,-0.00569435,0.017532,0.000303183,-0.361092,0.0115883,0.0193737,1182,1758,3.57603,-328.382
-35,-734,3.65234,329.564,0.0171967,0.0035313,-0.00538857,0.0190659,0.00166213,-0.333889,0.0121944,0.0194514,1189,1758,3.65235,-329.564
-28,-734,3.61804,330.47,0.0185583,0.00368701,-0.004962,0.0200619,0.0021834,-0.29423,0.0127095,0.0157344,1196,1758,3.61802,-330.47
-21,-734,3.72986,331.423,0.0197144,0.00363378,-0.00446566,0.0208713,0.00247688,-0.253493,0.0131665,0.0224694,1203,1758,3.72984,-331.423
-14,-734,3.77026,332.375,0.020739,0.00363488,-0.00395555,0.0216095,0.00276441,-0.216611,0.013579,0.0225115,1210,1758,3.77032,-332.375
-7,-734,3.86438,333.18,0.0217894,0.00341658,-0.00322512,0.022339,0.00286689,-0.168817,0.014035,0.0250604,1217,1758,3.86444,-333.18
0,-734,3.97717,333.993,0.0226228,0.00286112,-0.00241568,0.0229138,0.00257012,-0.119889,0.0144953,0.0236318,1224,1758,3.97712,-333.993
7,-734,4.0863,334.691,0.0232294,0.00206288,-0.00166431,0.0233595,0.00193281,-0.0779904,0.0149704,0.0191295,1231,1758,4.08625,-334.691
14,-734,4.20435,335.169,0.0240046,0.000984575,-0.000924604,0.0240417,0.000947498,-0.0400791,0.0157215,0.0209832,1238,1758,4.20436,-335.169
21,-734,4.28784,335.661,0.0249142,-0.000315956,-0.000313871,0.0249181,-0.000319861,-0.0124378,0.0167197,0.0212422,1245,1758,4.28782,-335.661
28,-734,4.55078,336.171,0.0257017,-0.00201141,0.000168742,0.0257027,-0.00201244,0.00608858,0.0178438,0.0234535,1252,1758,4.55079,-336.171
35,-734,4.797,336.658,0.0265179,-0.00354889,0.000663086,0.0265325,-0.00356351,0.0220395,0.018988,0.0246058,1259,1758,4.797,-336.658
42,-734,4.92151,336.995,0.0270155,-0.00472248,0.00102931,0.0270488,-0.00475583,0.0323861,0.019809,0.0166093,1266,1758,4.92149,-336.995
49,-734,5.02795,337.282,0.027063,-0.00547478,0.000894155,0.0270876,-0.00549933,0.0274529,0.0201433,0.0189228,1273,1758,5.0279,-337.283
56,-734,5.15442,337.48,0.0267975,-0.00580433,0.000566871,0.0268073,-0.00581418,0.0173807,0.020092,0.019595,1280,1758,5.15447,-337.48
63,-734,5.32043,337.498,0.026439,-0.00495512,-0.000878944,0.0264636,-0.00497971,-0.0279679,0.0195152,0.0214419,1287,1758,5.32049,-337.498
70,-734,5.65881,337.522,0.0262504,-0.00320284,-0.00290856,0.0265348,-0.00348732,-0.097497,0.0189595,0.02158,1294,1758,5.65887,-337.522
77,-734,5.90283,337.392,0.0260513,-0.000933747,-0.00521255,0.0270232,-0.00190562,-0.184333,0.0186831,0.0354951,1301,1758,5.90283,-337.392
84,-734,6.11072,337.263,0.0253625,0.00159433,-0.00711184,0.0273279,-0.000371129,-0.269634,0.0183436,0.0360935,1308,1758,6.11071,-337.263
91,-734,6.26721,337.163,0,0,0,0,0,0,0,-1,1315,1758,6.26718,-337.164
98,-734,6.47693,336.896,0,0,0,0,0,0,0,-1,1322,1758,6.47694,-336.896
105,-734,6.59546,336.611,0.0240416,0.00826797,-0.0110175,0.0297042,0.00260531,-0.474759,0.018994,0.0221654,1329,1758,6.59545,-336.611
112,-734,6.74841,336.217,0.0238597,0.0097152,-0.0113239,0.0301384,0.00343649,-0.506264,0.0190504,0.0180803,1336,1758,6.74847,-336.217
119,-734,6.98608,335.735,0.0237125,0.0108853,-0.0110723,0.0300946,0.00450317,-0.522889,0.0187432,0.0212796,1343,1758,6.98603,-335.735
126,-734,7.16675,335.106,0.0236896,0.0113111,-0.0103874,0.0295918,0.00540887,-0.51672,0.0181949,0.0254124,1350,1758,7.16674,-335.106
133,-734,7.24036,334.417,0.0239453,0.0111573,-0.00937335,0.0288978,0.00620476,-0.486076,0.0175661,0.0247497,1357,1758,7.24033,-334.416
140,-734,7.36377,333.63,0.023856,0.0103193,-0.00806701,0.0276179,0.00655737,-0.436358,0.016662,0.0377238,1364,1758,7.36373,-333.63
147,-734,7.49438,332.907,0.0235333,0.00915933,-0.00655832,0.0260759,0.00661677,-0.369846,0.0156517,0.0266995,1371,1758,7.49443,-332.907
154,-734,7.62073,332.196,0.022811,0.00788288,-0.00479383,0.0242178,0.00647603,-0.285456,0.0144777,0.0160339,1378,1758,7.62074,-332.196
161,-734,7.67566,331.312,0.0213486,0.00685188,-0.00343499,0.0221213,0.00607914,-0.221276,0.0131964,0.0137415,1385,1758,7.67565,-331.312
168,-734,7.70605,330.32,0.0190216,0.00505901,-0.0013772,0.0191562,0.00492447,-0.0973843,0.0114867,0.0217273,1392,1758,7.70607,-330.32
175,-734,7.76001,329.304,0.0168056,0.0041184,0.000649903,0.0168388,0.00408519,0.0510471,0.0101422,0.027622,1399,1758,7.76006,-329.304
182,-734,7.8446,328.163,0.0152123,0.00393725,0.0019275,0.0155327,0.00361684,0.164722,0.00938481,0.0240532,1406,1758,7.84464,-328.163
189,-734,7.75842,326.955,0.0141163,0.0055564,0.00105676,0.0142448,0.00542787,0.121033,0.00830149,0.0176463,1413,1758,7.75843,-326.955
196,-734,7.74927,325.616,0.0129704,0.00705947,0.000260687,0.0129819,0.007048,0.0439889,0.00750427,0.0222054,1420,1758,7.74929,-325.616
203,-734,7.69482,324.192,0.0118333,0.00902187,-0.000741739,0.012017,0.00883817,-0.242768,0.00718989,0.0286867,1427,1758,7.69483,-324.192
210,-734,7.67749,322.73,0.0104356,0.0121855,-0.00136286,0.0129301,0.00969098,-1.07076,0.00776878,0.045297,1434,1758,7.67745,-322.73
217,-734,7.49805,321.41,0,0,0,0,0,0,0,-1,1441,1758,7.49803,-321.41
224,-734,7.38379,319.91,0,0,0,0,0,0,0,-1,1448,1758,7.38381,-319.91
231,-734,7.10425,318.18,0,0,0,0,0,0,0,-1,1455,1758,7.10428,-318.18
238,-734,6.88989,315.868,0,0,0,0,0,0,0,-1,1462,1758,6.88993,-315.868
245,-734,8.29065,60.4988,0,0,0,0,0,0,0,-1,1469,1758,8.29062,-60.4987
252,-734,8.17517,58.5679,0,0,0,0,0,0,0,-1,1476,1758,8.1752,-58.5678
259,-734,8.07666,59.5597,0,0,0,0,0,0,0,-1,1483,1758,8.07667,-59.5597
266,-734,7.97253,63.3893,0,0,0,0,0,0,0,-1,1490,1758,7.97259,-63.3893
273,-734,8.22437,62.0486,0,0,0,0,0,0,0,-1,1497,1758,8.22438,-62.0485
280,-734,7.90149,52.7294,0,0,0,0,0,0,0,-1,1504,1758,7.90153,-52.7294
287,-734,7.56177,50.5933,0,0,0,0,0,0,0,-1,1511,1758,7.56172,-50.5933
294,-734,7.42676,47.7545,0,0,0,0,0,0,0,-1,1518,1758,7.4268,-47.7545
301,-734,7.21814,42.6078,0,0,0,0,0,0,0,-1,1525,1758,7.21809,-42.6078
308,-734,8.0509,41.5156,0,0,0,0,0,0,0,-1,1532,1758,8.05087,-41.5157
315,-734,7.93787,40.8274,0,0,0,0,0,0,0,-1,1539,1758,7.93784,-40.8273
322,-734,7.82483,40.139,0,0,0,0,0,0,0,-1,1546,1758,7.82481,-40.139
329,-734,5.73267,19.656,0,0,0,0,0,0,0,-1,1553,1758,5.73262,-19.656
336,-734,6.71375,23.7469,0,0,0,0,0,0,0,-1,1560,1758,6.71372,-23.7469
343,-734,5.54968,5.14221,0,0,0,0,0,0,0,-1,1567,1758,5.54973,-5.14225
350,-734,5.07397,6.73242,0,0,0,0,0,0,0,-1,1574,1758,5.07402,-6.73243
357,-734,5.05542,7.19189,0,0,0,0,0,0,0,-1,1581,1758,5.05541,-7.19184
364,-734,4.43896,10.4904,0,0,0,0,0,0,0,-1,1588,1758,4.43893,-10.4904
371,-734,7.36975,17.4751,0,0,0,0,0,0,0,-1,1595,1758,7.36972,-17.4752
378,-734,0,0,0,0,0,0,0,0,0,-1,1602,1758,0,0
385,-734,0,0,0,0,0,0,0,0,0,-1,1609,1758,0,0
392,-734,0,0,0,0,0,0,0,0,0,-1,1616,1758,0,0
399,-734,0,0,0,0,0,0,0,0,0,-1,1623,1758,0,0
406,-734,0,0,0,0,0,0,0,0,0,-1,1630,1758,0,0
413,-734,0,0,0,0,0,0,0,0,0,-1,1637,1758,0,0
420,-734,0,0,0,0,0,0,0,0,0,-1,1644,1758,0,0
427,-734,0,0,0,0,0,0,0,0,0,-1,1651,1758,0,0
434,-734,0,0,0,0,0,0,0,0,0,-1,1658,1758,0,0
441,-734,0,0,0,0,0,0,0,0,0,-1,1665,1758,0,0
448,-734,0,0,0,0,0,0,0,0,0,-1,1672,1758,0,0
455,-734,0,0,0,0,0,0,0,0,0,-1,1679,1758,0,0
462,-734,0,0,0,0,0,0,0,0,0,-1,1686,1758,0,0
469,-734,0,0,0,0,0,0,0,0,0,-1,1693,1758,0,0
476,-734,0,0,0,0,0,0,0,0,0,-1,1700,1758,0,0
483,-734,0,0,0,0,0,0,0,0,0,-1,1707,1758,0,0
490,-734,0,0,0,0,0,0,0,0,0,-1,1714,1758,0,0
497,-734,0,0,0,0,0,0,0,0,0,-1,1721,1758,0,0
504,-734,0,0,0,0,0,0,0,0,0,-1,1728,1758,0,0
511,-734,0,0,0,0,0,0,0,0,0,-1,1735,1758,0,0
518,-734,0,0,0,0,0,0,0,0,0,-1,1742,1758,0,0
525,-734,0,0,0,0,0,0,0,0,0,-1,1749,1758,0,0
532,-734,0,0,0,0,0,0,0,0,0,-1,1756,1758,0,0
539,-734,0,0,0,0,0,0,0,0,0,-1,1763,1758,0,0
546,-734,0,0,0,0,0,0,0,0,0,-1,1770,1758,0,0
553,-734,0,0,0,0,0,0,0,0,0,-1,1777,1758,0,0
560,-734,0,0,0,0,0,0,0,0,0,-1,1784,1758,0,0
567,-734,0,0,0,0,0,0,0,0,0,-1,1791,1758,0,0
574,-734,0,0,0,0,0,0,0,0,0,-1,1798,1758,0,0
581,-734,0,0,0,0,0,0,0,0,0,-1,1805,1758,0,0
588,-734,0,0,0,0,0,0,0,0,0,-1,1812,1758,0,0
595,-734,0,0,0,0,0,0,0,0,0,-1,1819,1758,0,0
602,-734,0,0,0,0,0,0,0,0,0,-1,1826,1758,0,0
609,-734,0,0,0,0,0,0,0,0,0,-1,1833,1758,0,0
616,-734,0,0,0,0,0,0,0,0,0,-1,1840,1758,0,0
623,-734,0,0,0,0,0,0,0,0,0,-1,1847,1758,0,0
630,-734,0,0,0,0,0,0,0,0,0,-1,1854,1758,0,0
637,-734,0,0,0,0,0,0,0,0,0,-1,1861,1758,0,0
644,-734,0,0,0,0,0,0,0,0,0,-1,1868,1758,0,0
651,-734,0,0,0,0,0,0,0,0,0,-1,1875,1758,0,0
658,-734,0,0,0,0,0,0,0,0,0,-1,1882,1758,0,0
665,-734,0,0,0,0,0,0,0,0,0,-1,1889,1758,0,0
672,-734,0,0,0,0,0,0,0,0,0,-1,1896,1758,0,0
679,-734,0,0,0,0,0,0,0,0,0,-1,1903,1758,0,0
686,-734,0,0,0,0,0,0,0,0,0,-1,1910,1758,0,0
693,-734,0,0,0,0,0,0,0,0,0,-1,1917,1758,0,0
700,-734,0,0,0,0,0,0,0,0,0,-1,1924,1758,0,0
707,-734,0,0,0,0,0,0,0,0,0,-1,1931,1758,0,0
714,-734,0,0,0,0,0,0,0,0,0,-1,1938,1758,0,0
721,-734,0,0,0,0,0,0,0,0,0,-1,1945,1758,0,0
728,-734,0,0,0,0,0,0,0,0,0,-1,1952,1758,0,0
735,-734,0,0,0,0,0,0,0,0,0,-1,1959,1758,0,0
742,-734,0,0,0,0,0,0,0,0,0,-1,1966,1758,0,0
749,-734,0,0,0,0,0,0,0,0,0,-1,1973,1758,0,0
756,-734,0,0,0,0,0,0,0,0,0,-1,1980,1758,0,0
763,-734,0,0,0,0,0,0,0,0,0,-1,1987,1758,0,0
770,-734,0,0,0,0,0,0,0,0,0,-1,1994,1758,0,0
777,-734,0,0,0,0,0,0,0,0,0,-1,2001,1758,0,0
784,-734,0,0,0,0,0,0,0,0,0,-1,2008,1758,0,0
791,-734,0,0,0,0,0,0,0,0,0,-1,2015,1758,0,0
798,-734,0,0,0,0,0,0,0,0,0,-1,2022,1758,0,0
805,-734,0,0,0,0,0,0,0,0,0,-1,2029,1758,0,0
812,-734,0,0,0,0,0,0,0,0,0,-1,2036,1758,0,0
-700,-741,0,0,0,0,0,0,0,0,0,-1,524,1765,0,0
-693,-741,0,0,0,0,0,0,0,0,0,-1,531,1765,0,0
-686,-741,0,0,0,0,0,0,0,0,0,-1,538,1765,0,0
-679,-741,0,0,0,0,0,0,0,0,0,-1,545,1765,0,0
-672,-741,0,0,0,0,0,0,0,0,0,-1,552,1765,0,0
-665,-741,0,0,0,0,0,0,0,0,0,-1,559,1765,0,0
-658,-741,0,0,0,0,0,0,0,0,0,-1,566,1765,0,0
-651,-741,0,0,0,0,0,0,0,0,0,-1,573,1765,0,0
-644,-741,0,0,0,0,0,0,0,0,0,-1,580,1765,0,0
-637,-741,0,0,0,0,0,0,0,0,0,-1,587,1765,0,0
-630,-741,0,0,0,0,0,0,0,0,0,-1,594,1765,0,0
-623,-741,0,0,0,0,0,0,0,0,0,-1,601,1765,0,0
-616,-741,0,0,0,0,0,0,0,0,0,-1,608,1765,0,0
-609,-741,0,0,0,0,0,0,0,0,0,-1,615,1765,0,0
-602,-741,0,0,0,0,0,0,0,0,0,-1,622,1765,0,0
-595,-741,0,0,0,0,0,0,0,0,0,-1,629,1765,0,0
-588,-741,0,0,0,0,0,0,0,0,0,-1,636,1765,0,0
-581,-741,0,0,0,0,0,0,0,0,0,-1,643,1765,0,0
-574,-741,0,0,0,0,0,0,0,0,0,-1,650,1765,0,0
-567,-741,0,0,0,0,0,0,0,0,0,-1,657,1765,0,0
-560,-741,0,0,0,0,0,0,0,0,0,-1,664,1765,0,0
-553,-741,0,0,0,0,0,0,0,0,0,-1,671,1765,0,0
-546,-741,0,0,0,0,0,0,0,0,0,-1,678,1765,0,0
-539,-741,0,0,0,0,0,0,0,0,0,-1,685,1765,0,0
-532,-741,0,0,0,0,0,0,0,0,0,-1,692,1765,0,0
-525,-741,0,0,0,0,0,0,0,0,0,-1,699,1765,0,0
-518,-741,0,0,0,0,0,0,0,0,0,-1,706,1765,0,0
-511,-741,0,0,0,0,0,0,0,0,0,-1,713,1765,0,0
-504,-741,0,0,0,0,0,0,0,0,0,-1,720,1765,0,0
-497,-741,0,0,0,0,0,0,0,0,0,-1,727,1765,0,0
-490,-741,0,0,0,0,0,0,0,0,0,-1,734,1765,0,0
-483,-741,0,0,0,0,0,0,0,0,0,-1,741,1765,0,0
-476,-741,0,0,0,0,0,0,0,0,0,-1,748,1765,0,0
-469,-741,0,0,0,0,0,0,0,0,0,-1,755,1765,0,0
-462,-741,0,0,0,0,0,0,0,0,0,-1,762,1765,0,0
-455,-741,0,0,0,0,0,0,0,0,0,-1,769,1765,0,0
-448,-741,0,0,0,0,0,0,0,0,0,-1,776,1765,0,0
-441,-741,0,0,0,0,0,0,0,0,0,-1,783,1765,0,0
-434,-741,0,0,0,0,0,0,0,0,0,-1,790,1765,0,0
-427,-741,0,0,0,0,0,0,0,0,0,-1,797,1765,0,0
-420,-741,0,0,0,0,0,0,0,0,0,-1,804,1765,0,0
-413,-741,0,0,0,0,0,0,0,0,0,-1,811,1765,0,0
-406,-741,0,0,0,0,0,0,0,0,0,-1,818,1765,0,0
-399,-741,0,0,0,0,0,0,0,0,0,-1,825,1765,0,0
-392,-741,0,0,0,0,0,0,0,0,0,-1,832,1765,0,0
-385,-741,0,0,0,0,0,0,0,0,0,-1,839,1765,0,0
-378,-741,0,0,0,0,0,0,0,0,0,-1,846,1765,0,0
-371,-741,0,0,0,0,0,0,0,0,0,-1,853,1765,0,0
-364,-741,0,0,0,0,0,0,0,0,0,-1,860,1765,0,0
-357,-741,0,0,0,0,0,0,0,0,0,-1,867,1765,0,0
-350,-741,0,0,0,0,0,0,0,0,0,-1,874,1765,0,0
-343,-741,0,0,0,0,0,0,0,0,0,-1,881,1765,0,0
-336,-741,0,0,0,0,0,0,0,0,0,-1,888,1765,0,0
-329,-741,0,0,0,0,0,0,0,0,0,-1,895,1765,0,0
-322,-741,0,0,0,0,0,0,0,0,0,-1,902,1765,0,0
-315,-741,0,0,0,0,0,0,0,0,0,-1,909,1765,0,0
-308,-741,0,0,0,0,0,0,0,0,0,-1,916,1765,0,0
-301,-741,0,0,0,0,0,0,0,0,0,-1,923,1765,0,0
-294,-741,0,0,0,0,0,0,0,0,0,-1,930,1765,0,0
-287,-741,0,0,0,0,0,0,0,0,0,-1,937,1765,0,0
-280,-741,0,0,0,0,0,0,0,0,0,-1,944,1765,0,0
-273,-741,0,0,0,0,0,0,0,0,0,-1,951,1765,0,0
-266,-741,0,0,0,0,0,0,0,0,0,-1,958,1765,0,0
-259,-741,0,0,0,0,0,0,0,0,0,-1,965,1765,0,0
-252,-741,0,0,0,0,0,0,0,0,0,-1,972,1765,0,0
-245,-741,0,0,0,0,0,0,0,0,0,-1,979,1765,0,0
-238,-741,7.13855,29.8348,0,0,0,0,0,0,0,-1,986,1765,7.13856,-29.8348
-231,-741,7.74182,29.3066,0,0,0,0,0,0,0,-1,993,1765,7.74183,-29.3066
-224,-741,7.80078,29.0964,0,0,0,0,0,0,0,-1,1000,1765,7.80079,-29.0964
-217,-741,8.15863,29.113,0,0,0,0,0,0,0,-1,1007,1765,8.15863,-29.1131
-210,-741,8.37024,29.3896,0,0,0,0,0,0,0,-1,1014,1765,8.37022,-29.3896
-203,-741,7.703,44.0701,0,0,0,0,0,0,0,-1,1021,1765,7.70306,-44.0701
-196,-741,13.1698,50.7012,0,0,0,0,0,0,0,-1,1028,1765,13.1698,-50.7012
-189,-741,13.6135,77.9425,0,0,0,0,0,0,0,-1,1035,1765,13.6135,-77.9425
-182,-741,12.7972,79.3372,0,0,0,0,0,0,0,-1,1042,1765,12.7972,-79.3372
-175,-741,11.981,80.7318,0,0,0,0,0,0,0,-1,1049,1765,11.981,-80.7318
-168,-741,11.5565,64.798,0,0,0,0,0,0,0,-1,1056,1765,11.5566,-64.798
-161,-741,11.5831,65.5651,0,0,0,0,0,0,0,-1,1063,1765,11.5832,-65.5651
-154,-741,7.93201,50.9395,0,0,0,0,0,0,0,-1,1070,1765,7.93195,-50.9395
-147,-741,10.9515,48.8568,0,0,0,0,0,0,0,-1,1077,1765,10.9515,-48.8569
-140,-741,10.5068,51.2876,0,0,0,0,0,0,0,-1,1084,1765,10.5068,-51.2876
-133,-741,10.6208,54.5072,0,0,0,0,0,0,0,-1,1091,1765,10.6208,-54.5072
-126,-741,9.89746,52.7167,0,0,0,0,0,0,0,-1,1098,1765,9.8975,-52.7167
-119,-741,9.33801,50.1482,0,0,0,0,0,0,0,-1,1105,1765,9.33802,-50.1482
-112,-741,9.6283,47.2815,0,0,0,0,0,0,0,-1,1112,1765,9.62827,-47.2815
-105,-741,9.61792,45.9158,0,0,0,0,0,0,0,-1,1119,1765,9.61797,-45.9158
-98,-741,9.19971,40.25,0,0,0,0,0,0,0,-1,1126,1765,9.19971,-40.25
-91,-741,8.40002,36.3687,0,0,0,0,0,0,0,-1,1133,1765,8.40002,-36.3687
-84,-741,7.8877,35.0892,0,0,0,0,0,0,0,-1,1140,1765,7.88776,-35.0892
-77,-741,7.73303,34.1174,0,0,0,0,0,0,0,-1,1147,1765,7.73304,-34.1174
-70,-741,7.5437,32.0275,0,0,0,0,0,0,0,-1,1154,1765,7.5437,-32.0275
-63,-741,4.89026,324.696,0,0,0,0,0,0,0,-1,1161,1765,4.89024,-324.696
-56,-741,4.76489,325.881,0,0,0,0,0,0,0,-1,1168,1765,4.76489,-325.881
-49,-741,4.66248,327.283,0,0,0,0,0,0,0,-1,1175,1765,4.66244,-327.283
-42,-741,4.60583,328.728,0,0,0,0,0,0,0,-1,1182,1765,4.60577,-328.728
-35,-741,4.64624,329.739,0.00769052,0.0110554,-0.00284787,0.0126807,0.00606524,-1.0522,0.00732348,0.0253625,1189,1765,4.64622,-329.739
-28,-741,4.67664,330.53,0.0093518,0.0109296,-0.00220256,0.0124803,0.00780111,-0.957365,0.00728024,0.0252764,1196,1765,4.67667,-330.53
-21,-741,4.82764,331.495,0.0106486,0.0105329,-0.00179043,0.0123821,0.00879939,-0.769239,0.00735726,0.0305191,1203,1765,4.82763,-331.495
-14,-741,4.67188,332.432,0.0115896,0.0104102,-0.00129492,0.0124228,0.00957703,-0.571727,0.00751507,0.026944,1210,1765,4.67182,-332.432
-7,-741,4.69482,333.198,0.0124776,0.00982619,-0.000514954,0.0125741,0.00972969,-0.185252,0.00761379,0.0221625,1217,1765,4.6948,-333.198
0,-741,4.75623,333.954,0.0131384,0.00889324,0.000322636,0.0131627,0.00886886,0.0754243,0.00775101,0.0210388,1224,1765,4.75623,-333.954
7,-741,4.75781,334.654,0.0135441,0.00772986,0.00106482,0.0137329,0.00754098,0.175554,0.00794146,0.0236043,1231,1765,4.75785,-334.654
14,-741,4.77148,335.229,0.0140489,0.00629949,0.00182534,0.0144573,0.00589106,0.220128,0.00839442,0.029415,1238,1765,4.77146,-335.229
21,-741,4.81519,335.689,0.0146643,0.0047108,0.00250509,0.0152592,0.00411588,0.233166,0.009116,0.0285439,1245,1765,4.81513,-335.689
28,-741,4.90881,336.271,0.015142,0.00299375,0.0031914,0.0159294,0.00220639,0.241884,0.00996586,0.0256082,1252,1765,4.9088,-336.271
35,-741,5.10999,336.659,0.0156555,0.00190584,0.0040536,0.0167615,0.000799754,0.26638,0.0109175,0.0222354,1259,1765,5.11,-336.659
42,-741,5.22876,337.005,0.0159518,0.00100118,0.00468958,0.017301,-0.000348044,0.280141,0.0116518,0.0243049,1266,1765,5.22881,-337.005
49,-741,5.27527,337.246,0.0160147,0.000853224,0.00437244,0.0171853,-0.000317371,0.261587,0.0115641,0.0157796,1273,1765,5.27527,-337.246
56,-741,5.38684,337.395,0.0159649,0.00125188,0.00363191,0.0168126,0.00040418,0.229297,0.0110761,0.0154549,1280,1765,5.38684,-337.395
63,-741,5.4751,337.513,0.0159209,0.00302113,0.00141725,0.0160747,0.00286726,0.108148,0.00990012,0.0201003,1287,1765,5.47509,-337.513
70,-741,5.6228,337.557,0.0161684,0.005649,-0.00169216,0.0164339,0.0053835,-0.155633,0.00967431,0.0227929,1294,1765,5.62281,-337.557
77,-741,5.74878,337.464,0.0165208,0.00874661,-0.00530644,0.0192115,0.00605589,-0.469286,0.0113415,0.0184004,1301,1765,5.74876,-337.464
84,-741,5.8772,337.346,0.0164956,0.0119171,-0.00863346,0.0231382,0.00527457,-0.655801,0.0140024,0.02297,1308,1765,5.87717,-337.346
91,-741,6.04028,337.196,0.0166387,0.0148897,-0.0120629,0.0278588,0.00366966,-0.749213,0.0174782,0.0242422,1315,1765,6.04031,-337.196
98,-741,6.12524,336.922,0.0168765,0.0175232,-0.0151226,0.0323259,0.00207371,-0.796087,0.0208937,0.0184597,1322,1765,6.12526,-336.922
105,-741,6.23254,336.587,0.0171057,0.0193251,-0.0176382,0.0358884,0.000542324,-0.816814,0.0237469,0.0167986,1329,1765,6.23257,-336.587
112,-741,6.34253,336.202,0.0172578,0.0205413,-0.0194096,0.0383785,-0.00057932,-0.82759,0.0257809,0.0157458,1336,1765,6.34253,-336.202
119,-741,6.36829,335.662,0.0172726,0.0212349,-0.0203426,0.0396925,-0.00118506,-0.83394,0.0268654,0.0195351,1343,1765,6.36832,-335.662
126,-741,6.4425,335.042,0.0173637,0.0210188,-0.020518,0.0397904,-0.001408,-0.829816,0.0270085,0.0281753,1350,1765,6.44254,-335.042
133,-741,6.55969,334.435,0.0175457,0.0198208,-0.019926,0.0386417,-0.00127519,-0.813911,0.0261965,0.0267204,1357,1765,6.55968,-334.435
140,-741,6.63208,333.713,0.0172838,0.0175994,-0.0186896,0.0361319,-0.00124867,-0.789619,0.0245147,0.0251499,1364,1765,6.63205,-333.713
147,-741,6.66528,332.985,0.0165335,0.0157747,-0.0165563,0.0327148,-0.000406619,-0.773943,0.0219466,0.0257525,1371,1765,6.66528,-332.985
154,-741,6.7052,332.256,0.0151376,0.0138038,-0.0138466,0.0283333,0.000608027,-0.761336,0.0186895,0.0178044,1378,1765,6.70517,-332.256
161,-741,6.70691,331.299,0.0129278,0.0120247,-0.0113303,0.0238156,0.00113693,-0.765481,0.015512,0.0174502,1385,1765,6.70685,-331.299
168,-741,6.68335,330.273,0.00992791,0.00895462,-0.00768777,0.0171444,0.00173811,-0.75379,0.0108966,0.0310062,1392,1765,6.68331,-330.273
175,-741,6.64441,329.284,0,0,0,0,0,0,0,-1,1399,1765,6.64445,-329.284
182,-741,6.65149,328.201,0,0,0,0,0,0,0,-1,1406,1765,6.65153,-328.201
189,-741,6.51013,327.004,0,0,0,0,0,0,0,-1,1413,1765,6.51013,-327.004
196,-741,6.46228,325.738,0,0,0,0,0,0,0,-1,1420,1765,6.46226,-325.738
203,-741,6.35376,324.413,0,0,0,0,0,0,0,-1,1427,1765,6.35375,-324.413
210,-741,6.09351,322.731,0,0,0,0,0,0,0,-1,1434,1765,6.09348,-322.731
217,-741,8.4032,40.1213,0,0,0,0,0,0,0,-1,1441,1765,8.40325,-40.1214
224,-741,8.0719,38.4249,0,0,0,0,0,0,0,-1,1448,1765,8.07187,-38.4249
231,-741,7.95923,39.0671,0,0,0,0,0,0,0,-1,1455,1765,7.9592,-39.0671
238,-741,7.96619,42.4865,0,0,0,0,0,0,0,-1,1462,1765,7.96621,-42.4864
245,-741,8.53577,45.7744,0,0,0,0,0,0,0,-1,1469,1765,8.53581,-45.7744
252,-741,8.59167,47.473,0,0,0,0,0,0,0,-1,1476,1765,8.59162,-47.473
259,-741,8.47412,48.5269,0,0,0,0,0,0,0,-1,1483,1765,8.47412,-48.5269
266,-741,8.50134,48.3838,0,0,0,0,0,0,0,-1,1490,1765,8.50132,-48.3838
273,-741,8.81421,49.1227,0,0,0,0,0,0,0,-1,1497,1765,8.81426,-49.1227
280,-741,7.33093,51.4729,0,0,0,0,0,0,0,-1,1504,1765,7.33092,-51.4729
287,-741,7.52783,49.7068,0,0,0,0,0,0,0,-1,1511,1765,7.52783,-49.7068
294,-741,5.91187,43.7742,0,0,0,0,0,0,0,-1,1518,1765,5.91188,-43.7742
301,-741,6.20667,38.5165,0,0,0,0,0,0,0,-1,1525,1765,6.20667,-38.5165
308,-741,7.99036,42.5969,0,0,0,0,0,0,0,-1,1532,1765,7.99037,-42.5969
315,-741,7.83838,41.6693,0,0,0,0,0,0,0,-1,1539,1765,7.83835,-41.6694
322,-741,7.68628,40.7418,0,0,0,0,0,0,0,-1,1546,1765,7.68633,-40.7418
329,-741,4.74414,17.928,0,0,0,0,0,0,0,-1,1553,1765,4.74414,-17.928
336,-741,5.74304,22.0945,0,0,0,0,0,0,0,-1,1560,1765,5.74306,-22.0945
343,-741,7.09888,26.501,0,0,0,0,0,0,0,-1,1567,1765,7.09885,-26.501
350,-741,4.90369,5.44666,0,0,0,0,0,0,0,-1,1574,1765,4.90368,-5.44664
357,-741,4.02063,5.16626,0,0,0,0,0,0,0,-1,1581,1765,4.02058,-5.1662
364,-741,0,0,0,0,0,0,0,0,0,-1,1588,1765,0,0
371,-741,0,0,0,0,0,0,0,0,0,-1,1595,1765,0,0
378,-741,0,0,0,0,0,0,0,0,0,-1,1602,1765,0,0
385,-741,0,0,0,0,0,0,0,0,0,-1,1609,1765,0,0
392,-741,0,0,0,0,0,0,0,0,0,-1,1616,1765,0,0
399,-741,0,0,0,0,0,0,0,0,0,-1,1623,1765,0,0
406,-741,0,0,0,0,0,0,0,0,0,-1,1630,1765,0,0
413,-741,0,0,0,0,0,0,0,0,0,-1,1637,1765,0,0
420,-741,0,0,0,0,0,0,0,0,0,-1,1644,1765,0,0
427,-741,0,0,0,0,0,0,0,0,0,-1,1651,1765,0,0
434,-741,0,0,0,0,0,0,0,0,0,-1,1658,1765,0,0
441,-741,0,0,0,0,0,0,0,0,0,-1,1665,1765,0,0
448,-741,0,0,0,0,0,0,0,0,0,-1,1672,1765,0,0
455,-741,0,0,0,0,0,0,0,0,0,-1,1679,1765,0,0
462,-741,0,0,0,0,0,0,0,0,0,-1,1686,1765,0,0
469,-741,0,0,0,0,0,0,0,0,0,-1,1693,1765,0,0
476,-741,0,0,0,0,0,0,0,0,0,-1,1700,1765,0,0
483,-741,0,0,0,0,0,0,0,0,0,-1,1707,1765,0,0
490,-741,0,0,0,0,0,0,0,0,0,-1,1714,1765,0,0
497,-741,0,0,0,0,0,0,0,0,0,-1,1721,1765,0,0
504,-741,0,0,0,0,0,0,0,0,0,-1,1728,1765,0,0
511,-741,0,0,0,0,0,0,0,0,0,-1,1735,1765,0,0
518,-741,0,0,0,0,0,0,0,0,0,-1,1742,1765,0,0
525,-741,0,0,0,0,0,0,0,0,0,-1,1749,1765,0,0
532,-741,0,0,0,0,0,0,0,0,0,-1,1756,1765,0,0
539,-741,0,0,0,0,0,0,0,0,0,-1,1763,1765,0,0
546,-741,0,0,0,0,0,0,0,0,0,-1,1770,1765,0,0
553,-741,0,0,0,0,0,0,0,0,0,-1,1777,1765,0,0
560,-741,0,0,0,0,0,0,0,0,0,-1,1784,1765,0,0
567,-741,0,0,0,0,0,0,0,0,0,-1,1791,1765,0,0
574,-741,0,0,0,0,0,0,0,0,0,-1,1798,1765,0,0
581,-741,0,0,0,0,0,0,0,0,0,-1,1805,1765,0,0
588,-741,0,0,0,0,0,0,0,0,0,-1,1812,1765,0,0
595,-741,0,0,0,0,0,0,0,0,0,-1,1819,1765,0,0
602,-741,0,0,0,0,0,0,0,0,0,-1,1826,1765,0,0
609,-741,0,0,0,0,0,0,0,0,0,-1,1833,1765,0,0
616,-741,0,0,0,0,0,0,0,0,0,-1,1840,1765,0,0
623,-741,0,0,0,0,0,0,0,0,0,-1,1847,1765,0,0
630,-741,0,0,0,0,0,0,0,0,0,-1,1854,1765,0,0
637,-741,0,0,0,0,0,0,0,0,0,-1,1861,1765,0,0
644,-741,0,0,0,0,0,0,0,0,0,-1,1868,1765,0,0
651,-741,0,0,0,0,0,0,0,0,0,-1,1875,1765,0,0
658,-741,0,0,0,0,0,0,0,0,0,-1,1882,1765,0,0
665,-741,0,0,0,0,0,0,0,0,0,-1,1889,1765,0,0
672,-741,0,0,0,0,0,0,0,0,0,-1,1896,1765,0,0
679,-741,0,0,0,0,0,0,0,0,0,-1,1903,1765,0,0
686,-741,0,0,0,0,0,0,0,0,0,-1,1910,1765,0,0
693,-741,0,0,0,0,0,0,0,0,0,-1,1917,1765,0,0
700,-741,0,0,0,0,0,0,0,0,0,-1,1924,1765,0,0
707,-741,0,0,0,0,0,0,0,0,0,-1,1931,1765,0,0
714,-741,0,0,0,0,0,0,0,0,0,-1,1938,1765,0,0
721,-741,0,0,0,0,0,0,0,0,0,-1,1945,1765,0,0
728,-741,0,0,0,0,0,0,0,0,0,-1,1952,1765,0,0
735,-741,0,0,0,0,0,0,0,0,0,-1,1959,1765,0,0
742,-741,0,0,0,0,0,0,0,0,0,-1,1966,1765,0,0
749,-741,0,0,0,0,0,0,0,0,0,-1,1973,1765,0,0
756,-741,0,0,0,0,0,0,0,0,0,-1,1980,1765,0,0
763,-741,0,0,0,0,0,0,0,0,0,-1,1987,1765,0,0
770,-741,0,0,0,0,0,0,0,0,0,-1,1994,1765,0,0
777,-741,0,0,0,0,0,0,0,0,0,-1,2001,1765,0,0
784,-741,0,0,0,0,0,0,0,0,0,-1,2008,1765,0,0
791,-741,0,0,0,0,0,0,0,0,0,-1,2015,1765,0,0
798,-741,0,0,0,0,0,0,0,0,0,-1,2022,1765,0,0
805,-741,0,0,0,0,0,0,0,0,0,-1,2029,1765,0,0
812,-741,0,0,0,0,0,0,0,0,0,-1,2036,1765,0,0
-700,-748,0,0,0,0,0,0,0,0,0,-1,524,1772,0,0
-693,-748,0,0,0,0,0,0,0,0,0,-1,531,1772,0,0
-686,-748,0,0,0,0,0,0,0,0,0,-1,538,1772,0,0
-679,-748,0,0,0,0,0,0,0,0,0,-1,545,1772,0,0
-672,-748,0,0,0,0,0,0,0,0,0,-1,552,1772,0,0
-665,-748,0,0,0,0,0,0,0,0,0,-1,559,1772,0,0
-658,-748,0,0,0,0,0,0,0,0,0,-1,566,1772,0,0
-651,-748,0,0,0,0,0,0,0,0,0,-1,573,1772,0,0
-644,-748,0,0,0,0,0,0,0,0,0,-1,580,1772,0,0
-637,-748,0,0,0,0,0,0,0,0,0,-1,587,1772,0,0
-630,-748,0,0,0,0,0,0,0,0,0,-1,594,1772,0,0
-623,-748,0,0,0,0,0,0,0,0,0,-1,601,1772,0,0
-616,-748,0,0,0,0,0,0,0,0,0,-1,608,1772,0,0
-609,-748,0,0,0,0,0,0,0,0,0,-1,615,1772,0,0
-602,-748,0,0,0,0,0,0,0,0,0,-1,622,1772,0,0
-595,-748,0,0,0,0,0,0,0,0,0,-1,629,1772,0,0
-588,-748,0,0,0,0,0,0,0,0,0,-1,636,1772,0,0
-581,-748,0,0,0,0,0,0,0,0,0,-1,643,1772,0,0
-574,-748,0,0,0,0,0,0,0,0,0,-1,650,1772,0,0
-567,-748,0,0,0,0,0,0,0,0,0,-1,657,1772,0,0
-560,-748,0,0,0,0,0,0,0,0,0,-1,664,1772,0,0
-553,-748,0,0,0,0,0,0,0,0,0,-1,671,1772,0,0
-546,-748,0,0,0,0,0,0,0,0,0,-1,678,1772,0,0
-539,-748,0,0,0,0,0,0,0,0,0,-1,685,1772,0,0
-532,-748,0,0,0,0,0,0,0,0,0,-1,692,1772,0,0
-525,-748,0,0,0,0,0,0,0,0,0,-1,699,1772,0,0
-518,-748,0,0,0,0,0,0,0,0,0,-1,706,1772,0,0
-511,-748,0,0,0,0,0,0,0,0,0,-1,713,1772,0,0
-504,-748,0,0,0,0,0,0,0,0,0,-1,720,1772,0,0
-497,-748,0,0,0,0,0,0,0,0,0,-1,727,1772,0,0
-490,-748,0,0,0,0,0,0,0,0,0,-1,734,1772,0,0
-483,-748,0,0,0,0,0,0,0,0,0,-1,741,1772,0,0
-476,-748,0,0,0,0,0,0,0,0,0,-1,748,1772,0,0
-469,-748,0,0,0,0,0,0,0,0,0,-1,755,1772,0,0
-462,-748,0,0,0,0,0,0,0,0,0,-1,762,1772,0,0
-455,-748,0,0,0,0,0,0,0,0,0,-1,769,1772,0,0
-448,-748,0,0,0,0,0,0,0,0,0,-1,776,1772,0,0
-441,-748,0,0,0,0,0,0,0,0,0,-1,783,1772,0,0
-434,-748,0,0,0,0,0,0,0,0,0,-1,790,1772,0,0
-427,-748,0,0,0,0,0,0,0,0,0,-1,797,1772,0,0
-420,-748,0,0,0,0,0,0,0,0,0,-1,804,1772,0,0
-413,-748,0,0,0,0,0,0,0,0,0,-1,811,1772,0,0
-406,-748,0,0,0,0,0,0,0,0,0,-1,818,1772,0,0
-399,-748,0,0,0,0,0,0,0,0,0,-1,825,1772,0,0
-392,-748,0,0,0,0,0,0,0,0,0,-1,832,1772,0,0
-385,-748,0,0,0,0,0,0,0,0,0,-1,839,1772,0,0
-378,-748,0,0,0,0,0,0,0,0,0,-1,846,1772,0,0
-371,-748,0,0,0,0,0,0,0,0,0,-1,853,1772,0,0
-364,-748,0,0,0,0,0,0,0,0,0,-1,860,1772,0,0
-357,-748,0,0,0,0,0,0,0,0,0,-1,867,1772,0,0
-350,-748,0,0,0,0,0,0,0,0,0,-1,874,1772,0,0
-343,-748,0,0,0,0,0,0,0,0,0,-1,881,1772,0,0
-336,-748,0,0,0,0,0,0,0,0,0,-1,888,1772,0,0
-329,-748,0,0,0,0,0,0,0,0,0,-1,895,1772,0,0
-322,-748,0,0,0,0,0,0,0,0,0,-1,902,1772,0,0
-315,-748,0,0,0,0,0,0,0,0,0,-1,909,1772,0,0
-308,-748,0,0,0,0,0,0,0,0,0,-1,916,1772,0,0
-301,-748,0,0,0,0,0,0,0,0,0,-1,923,1772,0,0
-294,-748,0,0,0,0,0,0,0,0,0,-1,930,1772,0,0
-287,-748,0,0,0,0,0,0,0,0,0,-1,937,1772,0,0
-280,-748,0,0,0,0,0,0,0,0,0,-1,944,1772,0,0
-273,-748,0,0,0,0,0,0,0,0,0,-1,951,1772,0,0
-266,-748,0,0,0,0,0,0,0,0,0,-1,958,1772,0,0
-259,-748,0,0,0,0,0,0,0,0,0,-1,965,1772,0,0
-252,-748,0,0,0,0,0,0,0,0,0,-1,972,1772,0,0
-245,-748,0,0,0,0,0,0,0,0,0,-1,979,1772,0,0
-238,-748,0,0,0,0,0,0,0,0,0,-1,986,1772,0,0
-231,-748,0,0,0,0,0,0,0,0,0,-1,993,1772,0,0
-224,-748,0,0,0,0,0,0,0,0,0,-1,1000,1772,0,0
-217,-748,8.97742,29.9884,0,0,0,0,0,0,0,-1,1007,1772,8.97744,-29.9884
-210,-748,8.8941,30.14,0,0,0,0,0,0,0,-1,1014,1772,8.8941,-30.14
-203,-748,7.88,43.3942,0,0,0,0,0,0,0,-1,1021,1772,7.87999,-43.3941
-196,-748,7.95483,43.9952,0,0,0,0,0,0,0,-1,1028,1772,7.95478,-43.9953
-189,-748,14.6794,78.3651,0,0,0,0,0,0,0,-1,1035,1772,14.6794,-78.3652
-182,-748,13.9248,79.833,0,0,0,0,0,0,0,-1,1042,1772,13.9248,-79.833
-175,-748,13.17,81.3008,0,0,0,0,0,0,0,-1,1049,1772,13.1701,-81.3008
-168,-748,12.4545,65.7625,0,0,0,0,0,0,0,-1,1056,1772,12.4545,-65.7625
-161,-748,12.5651,66.1248,0,0,0,0,0,0,0,-1,1063,1772,12.565,-66.1247
-154,-748,11.4552,48.7113,0,0,0,0,0,0,0,-1,1070,1772,11.4552,-48.7113
-147,-748,11.7789,49.4792,0,0,0,0,0,0,0,-1,1077,1772,11.7789,-49.4793
-140,-748,10.4108,44.9001,0,0,0,0,0,0,0,-1,1084,1772,10.4107,-44.9001
-133,-748,7.44727,22.0308,0,0,0,0,0,0,0,-1,1091,1772,7.44728,-22.0308
-126,-748,5.98035,22.6067,0,0,0,0,0,0,0,-1,1098,1772,5.9803,-22.6067
-119,-748,6.63342,26.309,0,0,0,0,0,0,0,-1,1105,1772,6.6334,-26.3089
-112,-748,6.91333,24.923,0,0,0,0,0,0,0,-1,1112,1772,6.91339,-24.923
-105,-748,6.83313,25.0537,0,0,0,0,0,0,0,-1,1119,1772,6.83311,-25.0537
-98,-748,8.13623,30.8743,0,0,0,0,0,0,0,-1,1126,1772,8.13628,-30.8742
-91,-748,4.85352,15.3033,0,0,0,0,0,0,0,-1,1133,1772,4.85351,-15.3033
-84,-748,-0.192017,7.26196,0,0,0,0,0,0,0,-1,1140,1772,-0.192047,-7.26201
-77,-748,4.42615,13.5537,0,0,0,0,0,0,0,-1,1147,1772,4.4261,-13.5538
-70,-748,4.46191,13.7446,0,0,0,0,0,0,0,-1,1154,1772,4.4619,-13.7446
-63,-748,4.49768,13.9355,0,0,0,0,0,0,0,-1,1161,1772,4.49769,-13.9355
-56,-748,3.05762,7.87817,0,0,0,0,0,0,0,-1,1168,1772,3.05768,-7.87822
-49,-748,3.04102,7.82471,0,0,0,0,0,0,0,-1,1175,1772,3.04096,-7.82468
-42,-748,0.793457,14.9474,0,0,0,0,0,0,0,-1,1182,1772,0.793413,-14.9474
-35,-748,5.66077,329.782,0,0,0,0,0,0,0,-1,1189,1772,5.6608,-329.782
-28,-748,5.76086,330.588,0,0,0,0,0,0,0,-1,1196,1772,5.76088,-330.588
-21,-748,5.98169,331.57,0,0,0,0,0,0,0,-1,1203,1772,5.98164,-331.57
-14,-748,5.53064,332.5,0,0,0,0,0,0,0,-1,1210,1772,5.53063,-332.5
-7,-748,5.49988,333.21,0,0,0,0,0,0,0,-1,1217,1772,5.49983,-333.21
0,-748,5.47839,333.866,0.00587101,0.0134543,0.00293545,0.0144578,0.0048675,1.24139,0.00849436,0.0319464,1224,1772,5.47845,-333.866
7,-748,5.36914,334.515,0.00587333,0.0119114,0.00359078,0.0135836,0.00420106,1.13495,0.00803045,0.0260627,1231,1772,5.36908,-334.515
14,-748,5.38806,335.163,0.00580324,0.0101104,0.00431691,0.0127811,0.00313253,1.01677,0.00769217,0.0346171,1238,1772,5.38807,-335.163
21,-748,5.41272,335.713,0.00575257,0.00831436,0.00510628,0.0122979,0.00176898,0.908286,0.00767721,0.0259441,1245,1772,5.41273,-335.713
28,-748,5.36328,336.193,0.0055247,0.00658063,0.00593537,0.0120115,9.38643e-05,0.829758,0.00797654,0.0260633,1252,1772,5.36334,-336.193
35,-748,5.33911,336.559,0.00529624,0.00595989,0.00704561,0.0126815,-0.00142535,0.808929,0.00896728,0.0268885,1259,1772,5.33908,-336.559
42,-748,5.5874,336.859,0.00494322,0.00541208,0.00792974,0.0131109,-0.00275555,0.800175,0.00978923,0.0250334,1266,1772,5.58735,-336.859
49,-748,5.57275,337.132,0.00471065,0.00600259,0.00728285,0.0126681,-0.00195483,0.829631,0.00916673,0.0181491,1273,1772,5.57279,-337.132
56,-748,5.56702,337.356,0.00456964,0.00729921,0.00589618,0.0119865,-0.000117645,0.89913,0.0080305,0.0171406,1280,1772,5.567,-337.356
63,-748,5.53992,337.515,0.00460219,0.0100648,0.00286643,0.0112929,0.00337415,1.16603,0.00669362,0.0186534,1287,1772,5.53994,-337.515
70,-748,5.62927,337.513,0.00503546,0.0137006,-0.00133661,0.0139021,0.00483397,-1.42118,0.00814952,0.0235964,1294,1772,5.62923,-337.513
77,-748,5.69507,337.385,0.00577266,0.0178332,-0.0062357,0.0204775,0.00312837,-1.16972,0.0127376,0.0213209,1301,1772,5.69504,-337.385
84,-748,5.70483,337.265,0.00633569,0.0219627,-0.0109987,0.0276408,0.000657641,-1.09424,0.0182119,0.0236533,1308,1772,5.70484,-337.265
91,-748,5.77405,337.163,0.00731407,0.0256679,-0.0162197,0.0351268,-0.00214487,-1.04284,0.0241646,0.0198671,1315,1772,5.77408,-337.164
98,-748,5.81079,336.904,0.00837435,0.028866,-0.0211683,0.0421377,-0.00489736,-1.01079,0.0298584,0.0202696,1322,1772,5.81077,-336.904
105,-748,5.92126,336.47,0.00943619,0.0311092,-0.0256106,0.0480815,-0.00753611,-0.98554,0.0348392,0.020967,1329,1772,5.92126,-336.47
112,-748,5.83557,336.049,0.0102513,0.0324139,-0.0291878,0.0525532,-0.00988795,-0.966821,0.0387542,0.028586,1336,1772,5.83552,-336.049
119,-748,5.92175,335.544,0.0107812,0.0328555,-0.0316896,0.055375,-0.0117383,-0.952973,0.041388,0.0299888,1343,1772,5.9217,-335.544
126,-748,5.90942,334.977,0.011279,0.032059,-0.0331583,0.0564171,-0.0130791,-0.937226,0.0426449,0.0267957,1350,1772,5.90938,-334.977
133,-748,5.90479,334.411,0.0115709,0.0299366,-0.0332339,0.055233,-0.0137255,-0.920189,0.0421488,0.0169805,1357,1772,5.90477,-334.411
140,-748,5.91577,333.678,0.0112994,0.0263035,-0.0322766,0.0519384,-0.0143355,-0.899586,0.040264,0.0237967,1364,1772,5.91575,-333.678
147,-748,5.83655,332.971,0.0101864,0.023872,-0.0294252,0.0472396,-0.0131812,-0.899642,0.0366848,0.0290018,1371,1772,5.83656,-332.971
154,-748,5.80701,332.223,0.00810735,0.0213046,-0.0256715,0.041212,-0.0118,-0.911195,0.0321384,0.0240913,1378,1772,5.80698,-332.222
161,-748,5.77979,331.25,0.00535439,0.0186531,-0.0215837,0.0345885,-0.010581,-0.934821,0.0272788,0.0248889,1385,1772,5.77979,-331.25
168,-748,5.70972,330.196,0,0,0,0,0,0,0,-1,1392,1772,5.70972,-330.196
175,-748,11.6235,16.8242,0,0,0,0,0,0,0,-1,1399,1772,11.6236,-16.8242
182,-748,7.62476,10.3058,0,0,0,0,0,0,0,-1,1406,1772,7.62476,-10.3058
189,-748,6.15857,6.95898,0,0,0,0,0,0,0,-1,1413,1772,6.15862,-6.95896
196,-748,3.9425,8.46021,0,0,0,0,0,0,0,-1,1420,1772,3.9425,-8.46026
203,-748,3.9668,12.9835,0,0,0,0,0,0,0,-1,1427,1772,3.96678,-12.9836
210,-748,4.71472,16.8318,0,0,0,0,0,0,0,-1,1434,1772,4.71471,-16.8317
217,-748,5.38452,21.5551,0,0,0,0,0,0,0,-1,1441,1772,5.38455,-21.555
224,-748,6.14258,25.2345,0,0,0,0,0,0,0,-1,1448,1772,6.14263,-25.2345
231,-748,6.46045,29.7867,0,0,0,0,0,0,0,-1,1455,1772,6.46049,-29.7867
238,-748,7.41565,32.8574,0,0,0,0,0,0,0,-1,1462,1772,7.41562,-32.8574
245,-748,7.84912,32.0914,0,0,0,0,0,0,0,-1,1469,1772,7.84914,-32.0914
252,-748,7.57336,29.4369,0,0,0,0,0,0,0,-1,1476,1772,7.57337,-29.4369
259,-748,9.47351,46.1896,0,0,0,0,0,0,0,-1,1483,1772,9.4735,-46.1895
266,-748,8.36536,48.6908,0,0,0,0,0,0,0,-1,1490,1772,8.36541,-48.6909
273,-748,7.31421,46.6743,0,0,0,0,0,0,0,-1,1497,1772,7.31415,-46.6743
280,-748,8.76538,40.4501,0,0,0,0,0,0,0,-1,1504,1772,8.76537,-40.45
287,-748,14.161,8.32813,0,0,0,0,0,0,0,-1,1511,1772,14.161,-8.32808
294,-748,6.38525,32.4724,0,0,0,0,0,0,0,-1,1518,1772,6.38521,-32.4725
301,-748,5.40393,38.9807,0,0,0,0,0,0,0,-1,1525,1772,5.40397,-38.9807
308,-748,5.95227,37.1827,0,0,0,0,0,0,0,-1,1532,1772,5.95229,-37.1827
315,-748,7.71741,42.637,0,0,0,0,0,0,0,-1,1539,1772,7.71738,-42.637
322,-748,4.26538,29.0557,0,0,0,0,0,0,0,-1,1546,1772,4.26537,-29.0556
329,-748,3.87256,16.1473,0,0,0,0,0,0,0,-1,1553,1772,3.87259,-16.1474
336,-748,4.81006,19.6141,0,0,0,0,0,0,0,-1,1560,1772,4.81011,-19.6141
343,-748,0,0,0,0,0,0,0,0,0,-1,1567,1772,0,0
350,-748,0,0,0,0,0,0,0,0,0,-1,1574,1772,0,0
357,-748,0,0,0,0,0,0,0,0,0,-1,1581,1772,0,0
364,-748,0,0,0,0,0,0,0,0,0,-1,1588,1772,0,0
371,-748,0,0,0,0,0,0,0,0,0,-1,1595,1772,0,0
378,-748,0,0,0,0,0,0,0,0,0,-1,1602,1772,0,0
385,-748,0,0,0,0,0,0,0,0,0,-1,1609,1772,0,0
392,-748,0,0,0,0,0,0,0,0,0,-1,1616,1772,0,0
399,-748,0,0,0,0,0,0,0,0,0,-1,1623,1772,0,0
406,-748,0,0,0,0,0,0,0,0,0,-1,1630,1772,0,0
413,-748,0,0,0,0,0,0,0,0,0,-1,1637,1772,0,0
420,-748,0,0,0,0,0,0,0,0,0,-1,1644,1772,0,0
427,-748,0,0,0,0,0,0,0,0,0,-1,1651,1772,0,0
434,-748,0,0,0,0,0,0,0,0,0,-1,1658,1772,0,0
441,-748,0,0,0,0,0,0,0,0,0,-1,1665,1772,0,0
448,-748,0,0,0,0,0,0,0,0,0,-1,1672,1772,0,0
455,-748,0,0,0,0,0,0,0,0,0,-1,1679,1772,0,0
462,-748,0,0,0,0,0,0,0,0,0,-1,1686,1772,0,0
469,-748,0,0,0,0,0,0,0,0,0,-1,1693,1772,0,0
476,-748,0,0,0,0,0,0,0,0,0,-1,1700,1772,0,0
483,-748,0,0,0,0,0,0,0,0,0,-1,1707,1772,0,0
490,-748,0,0,0,0,0,0,0,0,0,-1,1714,1772,0,0
497,-748,0,0,0,0,0,0,0,0,0,-1,1721,1772,0,0
504,-748,0,0,0,0,0,0,0,0,0,-1,1728,1772,0,0
511,-748,0,0,0,0,0,0,0,0,0,-1,1735,1772,0,0
518,-748,0,0,0,0,0,0,0,0,0,-1,1742,1772,0,0
525,-748,0,0,0,0,0,0,0,0,0,-1,1749,1772,0,0
532,-748,0,0,0,0,0,0,0,0,0,-1,1756,1772,0,0
539,-748,0,0,0,0,0,0,0,0,0,-1,1763,1772,0,0
546,-748,0,0,0,0,0,0,0,0,0,-1,1770,1772,0,0
553,-748,0,0,0,0,0,0,0,0,0,-1,1777,1772,0,0
560,-748,0,0,0,0,0,0,0,0,0,-1,1784,1772,0,0
567,-748,0,0,0,0,0,0,0,0,0,-1,1791,1772,0,0
574,-748,0,0,0,0,0,0,0,0,0,-1,1798,1772,0,0
581,-748,0,0,0,0,0,0,0,0,0,-1,1805,1772,0,0
588,-748,0,0,0,0,0,0,0,0,0,-1,1812,1772,0,0
595,-748,0,0,0,0,0,0,0,0,0,-1,1819,1772,0,0
602,-748,0,0,0,0,0,0,0,0,0,-1,1826,1772,0,0
609,-748,0,0,0,0,0,0,0,0,0,-1,1833,1772,0,0
616,-748,0,0,0,0,0,0,0,0,0,-1,1840,1772,0,0
623,-748,0,0,0,0,0,0,0,0,0,-1,1847,1772,0,0
630,-748,0,0,0,0,0,0,0,0,0,-1,1854,1772,0,0
637,-748,0,0,0,0,0,0,0,0,0,-1,1861,1772,0,0
644,-748,0,0,0,0,0,0,0,0,0,-1,1868,1772,0,0
651,-748,0,0,0,0,0,0,0,0,0,-1,1875,1772,0,0
658,-748,0,0,0,0,0,0,0,0,0,-1,1882,1772,0,0
665,-748,0,0,0,0,0,0,0,0,0,-1,1889,1772,0,0
672,-748,0,0,0,0,0,0,0,0,0,-1,1896,1772,0,0
679,-748,0,0,0,0,0,0,0,0,0,-1,1903,1772,0,0
686,-748,0,0,0,0,0,0,0,0,0,-1,1910,1772,0,0
693,-748,0,0,0,0,0,0,0,0,0,-1,1917,1772,0,0
700,-748,0,0,0,0,0,0,0,0,0,-1,1924,1772,0,0
707,-748,0,0,0,0,0,0,0,0,0,-1,1931,1772,0,0
714,-748,0,0,0,0,0,0,0,0,0,-1,1938,1772,0,0
721,-748,0,0,0,0,0,0,0,0,0,-1,1945,1772,0,0
728,-748,0,0,0,0,0,0,0,0,0,-1,1952,1772,0,0
735,-748,0,0,0,0,0,0,0,0,0,-1,1959,1772,0,0
742,-748,0,0,0,0,0,0,0,0,0,-1,1966,1772,0,0
749,-748,0,0,0,0,0,0,0,0,0,-1,1973,1772,0,0
756,-748,0,0,0,0,0,0,0,0,0,-1,1980,1772,0,0
763,-748,0,0,0,0,0,0,0,0,0,-1,1987,1772,0,0
770,-748,0,0,0,0,0,0,0,0,0,-1,1994,1772,0,0
777,-748,0,0,0,0,0,0,0,0,0,-1,2001,1772,0,0
784,-748,0,0,0,0,0,0,0,0,0,-1,2008,1772,0,0
791,-748,0,0,0,0,0,0,0,0,0,-1,2015,1772,0,0
798,-748,0,0,0,0,0,0,0,0,0,-1,2022,1772,0,0
805,-748,0,0,0,0,0,0,0,0,0,-1,2029,1772,0,0
812,-748,0,0,0,0,0,0,0,0,0,-1,2036,1772,0,0
-700,-755,0,0,0,0,0,0,0,0,0,-1,524,1779,0,0
-693,-755,0,0,0,0,0,0,0,0,0,-1,531,1779,0,0
-686,-755,0,0,0,0,0,0,0,0,0,-1,538,1779,0,0
-679,-755,0,0,0,0,0,0,0,0,0,-1,545,1779,0,0
-672,-755,0,0,0,0,0,0,0,0,0,-1,552,1779,0,0
-665,-755,0,0,0,0,0,0,0,0,0,-1,559,1779,0,0
-658,-755,0,0,0,0,0,0,0,0,0,-1,566,1779,0,0
-651,-755,0,0,0,0,0,0,0,0,0,-1,573,1779,0,0
-644,-755,0,0,0,0,0,0,0,0,0,-1,580,1779,0,0
-637,-755,0,0,0,0,0,0,0,0,0,-1,587,1779,0,0
-630,-755,0,0,0,0,0,0,0,0,0,-1,594,1779,0,0
-623,-755,0,0,0,0,0,0,0,0,0,-1,601,1779,0,0
-616,-755,0,0,0,0,0,0,0,0,0,-1,608,1779,0,0
-609,-755,0,0,0,0,0,0,0,0,0,-1,615,1779,0,0
-602,-755,0,0,0,0,0,0,0,0,0,-1,622,1779,0,0
-595,-755,0,0,0,0,0,0,0,0,0,-1,629,1779,0,0
-588,-755,0,0,0,0,0,0,0,0,0,-1,636,1779,0,0
-581,-755,0,0,0,0,0,0,0,0,0,-1,643,1779,0,0
-574,-755,0,0,0,0,0,0,0,0,0,-1,650,1779,0,0
-567,-755,0,0,0,0,0,0,0,0,0,-1,657,1779,0,0
-560,-755,0,0,0,0,0,0,0,0,0,-1,664,1779,0,0
-553,-755,0,0,0,0,0,0,0,0,0,-1,671,1779,0,0
-546,-755,0,0,0,0,0,0,0,0,0,-1,678,1779,0,0
-539,-755,0,0,0,0,0,0,0,0,0,-1,685,1779,0,0
-532,-755,0,0,0,0,0,0,0,0,0,-1,692,1779,0,0
-525,-755,0,0,0,0,0,0,0,0,0,-1,699,1779,0,0
-518,-755,0,0,0,0,0,0,0,0,0,-1,706,1779,0,0
-511,-755,0,0,0,0,0,0,0,0,0,-1,713,1779,0,0
-504,-755,0,0,0,0,0,0,0,0,0,-1,720,1779,0,0
-497,-755,0,0,0,0,0,0,0,0,0,-1,727,1779,0,0
-490,-755,0,0,0,0,0,0,0,0,0,-1,734,1779,0,0
-483,-755,0,0,0,0,0,0,0,0,0,-1,741,1779,0,0
-476,-755,0,0,0,0,0,0,0,0,0,-1,748,1779,0,0
-469,-755,0,0,0,0,0,0,0,0,0,-1,755,1779,0,0
-462,-755,0,0,0,0,0,0,0,0,0,-1,762,1779,0,0
-455,-755,0,0,0,0,0,0,0,0,0,-1,769,1779,0,0
-448,-755,0,0,0,0,0,0,0,0,0,-1,776,1779,0,0
-441,-755,0,0,0,0,0,0,0,0,0,-1,783,1779,0,0
-434,-755,0,0,0,0,0,0,0,0,0,-1,790,1779,0,0
-427,-755,0,0,0,0,0,0,0,0,0,-1,797,1779,0,0
-420,-755,0,0,0,0,0,0,0,0,0,-1,804,1779,0,0
-413,-755,0,0,0,0,0,0,0,0,0,-1,811,1779,0,0
-406,-755,0,0,0,0,0,0,0,0,0,-1,818,1779,0,0
-399,-755,0,0,0,0,0,0,0,0,0,-1,825,1779,0,0
-392,-755,0,0,0,0,0,0,0,0,0,-1,832,1779,0,0
-385,-755,0,0,0,0,0,0,0,0,0,-1,839,1779,0,0
-378,-755,0,0,0,0,0,0,0,0,0,-1,846,1779,0,0
-371,-755,0,0,0,0,0,0,0,0,0,-1,853,1779,0,0
-364,-755,0,0,0,0,0,0,0,0,0,-1,860,1779,0,0
-357,-755,0,0,0,0,0,0,0,0,0,-1,867,1779,0,0
-350,-755,0,0,0,0,0,0,0,0,0,-1,874,1779,0,0
-343,-755,0,0,0,0,0,0,0,0,0,-1,881,1779,0,0
-336,-755,0,0,0,0,0,0,0,0,0,-1,888,1779,0,0
-329,-755,0,0,0,0,0,0,0,0,0,-1,895,1779,0,0
-322,-755,0,0,0,0,0,0,0,0,0,-1,902,1779,0,0
-315,-755,0,0,0,0,0,0,0,0,0,-1,909,1779,0,0
-308,-755,0,0,0,0,0,0,0,0,0,-1,916,1779,0,0
-301,-755,0,0,0,0,0,0,0,0,0,-1,923,1779,0,0
-294,-755,0,0,0,0,0,0,0,0,0,-1,930,1779,0,0
-287,-755,0,0,0,0,0,0,0,0,0,-1,937,1779,0,0
-280,-755,0,0,0,0,0,0,0,0,0,-1,944,1779,0,0
-273,-755,0,0,0,0,0,0,0,0,0,-1,951,1779,0,0
-266,-755,0,0,0,0,0,0,0,0,0,-1,958,1779,0,0
-259,-755,0,0,0,0,0,0,0,0,0,-1,965,1779,0,0
-252,-755,0,0,0,0,0,0,0,0,0,-1,972,1779,0,0
-245,-755,0,0,0,0,0,0,0,0,0,-1,979,1779,0,0
-238,-755,0,0,0,0,0,0,0,0,0,-1,986,1779,0,0
-231,-755,0,0,0,0,0,0,0,0,0,-1,993,1779,0,0
-224,-755,0,0,0,0,0,0,0,0,0,-1,1000,1779,0,0
-217,-755,0,0,0,0,0,0,0,0,0,-1,1007,1779,0,0
-210,-755,0,0,0,0,0,0,0,0,0,-1,1014,1779,0,0
-203,-755,8.97363,30.5414,0,0,0,0,0,0,0,-1,1021,1779,8.97362,-30.5414
-196,-755,8.08667,43.2203,0,0,0,0,0,0,0,-1,1028,1779,8.08666,-43.2204
-189,-755,0.725098,39.8892,0,0,0,0,0,0,0,-1,1035,1779,0.725055,-39.8891
-182,-755,14.9128,80.5583,0,0,0,0,0,0,0,-1,1042,1779,14.9128,-80.5583
-175,-755,13.1752,66.5742,0,0,0,0,0,0,0,-1,1049,1779,13.1752,-66.5742
-168,-755,13.4839,66.8397,0,0,0,0,0,0,0,-1,1056,1779,13.4839,-66.8397
-161,-755,13.7926,67.1051,0,0,0,0,0,0,0,-1,1063,1779,13.7926,-67.1051
-154,-755,7.71094,44.9023,0,0,0,0,0,0,0,-1,1070,1779,7.71089,-44.9023
-147,-755,-6.45593,10.2422,0,0,0,0,0,0,0,-1,1077,1779,-6.45594,-10.2422
-140,-755,1.33521,21.3856,0,0,0,0,0,0,0,-1,1084,1779,1.33522,-21.3857
-133,-755,2.89417,21.0964,0,0,0,0,0,0,0,-1,1091,1779,2.89422,-21.0964
-126,-755,3.26404,20.9304,0,0,0,0,0,0,0,-1,1098,1779,3.26399,-20.9305
-119,-755,5.17761,21.9325,0,0,0,0,0,0,0,-1,1105,1779,5.17761,-21.9325
-112,-755,5.40247,24.5646,0,0,0,0,0,0,0,-1,1112,1779,5.40244,-24.5646
-105,-755,7.01294,20.1539,0,0,0,0,0,0,0,-1,1119,1779,7.01295,-20.154
-98,-755,5.50708,16.9628,0,0,0,0,0,0,0,-1,1126,1779,5.5071,-16.9628
-91,-755,5.51025,12.0438,0,0,0,0,0,0,0,-1,1133,1779,5.51022,-12.0439
-84,-755,0.169312,8.66443,0,0,0,0,0,0,0,-1,1140,1779,0.16932,-8.66446
-77,-755,-0.0491943,6.87439,0,0,0,0,0,0,0,-1,1147,1779,-0.0491385,-6.87443
-70,-755,4.5686,13.2169,0,0,0,0,0,0,0,-1,1154,1779,4.56865,-13.2169
-63,-755,-1.36316,7.3147,0,0,0,0,0,0,0,-1,1161,1779,-1.36312,-7.31473
-56,-755,0.0483398,5.06079,0,0,0,0,0,0,0,-1,1168,1779,0.0483138,-5.06084
-49,-755,-1.32263,5.33716,0,0,0,0,0,0,0,-1,1175,1779,-1.32264,-5.33718
-42,-755,-2.03613,4.01672,0,0,0,0,0,0,0,-1,1182,1779,-2.0361,-4.01671
-35,-755,-2.72498,2.37476,0,0,0,0,0,0,0,-1,1189,1779,-2.72502,-2.37473
-28,-755,7.69934,180.947,0,0,0,0,0,0,0,-1,1196,1779,7.69932,-180.947
-21,-755,5.64893,256.527,0,0,0,0,0,0,0,-1,1203,1779,5.64887,-256.527
-14,-755,5.25928,330.363,0,0,0,0,0,0,0,-1,1210,1779,5.25925,-330.363
-7,-755,6.79272,332.832,0,0,0,0,0,0,0,-1,1217,1779,6.79278,-332.832
0,-755,6.37573,333.385,-0.00168241,0.0178987,0.00622653,0.0197109,-0.00349465,1.28757,0.0144471,0.0388312,1224,1779,6.37574,-333.385
7,-755,6.0564,333.931,-0.00234427,0.0158699,0.00660253,0.0180114,-0.00448585,1.25715,0.013749,0.0262669,1231,1779,6.05635,-333.931
14,-755,6.14514,334.771,-0.00319667,0.0135414,0.00709336,0.0161431,-0.00579834,1.21926,0.0131288,0.0296217,1238,1779,6.14512,-334.771
21,-755,6.07727,335.654,0,0,0,0,0,0,0,-1,1245,1779,6.07726,-335.654
28,-755,5.88379,336.173,0,0,0,0,0,0,0,-1,1252,1779,5.88382,-336.173
35,-755,5.90234,336.3,-0.00592325,0.00855012,0.00978326,0.0134823,-0.0108554,1.10384,0.0140787,0.04159,1259,1779,5.90232,-336.3
42,-755,5.83447,336.636,-0.00689638,0.00800401,0.0107554,0.0136376,-0.0125299,1.0883,0.0151123,0.0242879,1266,1779,5.83451,-336.636
49,-755,5.78577,336.931,-0.00738861,0.00901948,0.00975405,0.0135609,-0.0119301,1.13505,0.0147273,0.015575,1273,1779,5.78578,-336.931
56,-755,5.76147,337.202,-0.00754539,0.010939,0.00776301,0.0137667,-0.0103731,1.22148,0.0139829,0.0216529,1280,1779,5.76151,-337.202
63,-755,5.61536,337.547,-0.00741204,0.0144373,0.003969,0.0151359,-0.00811068,1.39656,0.0136242,0.0204396,1287,1779,5.6154,-337.547
70,-755,5.66016,337.398,-0.0067508,0.0189058,-0.00121496,0.0189632,-0.00680821,-1.52358,0.0154209,0.025891,1294,1779,5.66018,-337.398
77,-755,5.62585,337.196,-0.00562467,0.024032,-0.007278,0.0257218,-0.00731447,-1.34266,0.0200361,0.0215671,1301,1779,5.6258,-337.195
84,-755,5.5564,337.116,-0.0044752,0.0292787,-0.0134184,0.0339629,-0.00915947,-1.23493,0.0262336,0.0215761,1308,1779,5.55638,-337.116
91,-755,5.56995,337.011,-0.00267616,0.0340843,-0.0204572,0.0432055,-0.0117974,-1.15138,0.0334372,0.022628,1315,1779,5.56989,-337.011
98,-755,5.52161,336.884,-0.000778322,0.0383143,-0.0274148,0.0524373,-0.0149014,-1.09509,0.0408418,0.0237508,1322,1779,5.52156,-336.884
105,-755,5.49866,336.339,0.00120726,0.0416531,-0.0340677,0.061048,-0.0181877,-1.05325,0.0479258,0.026238,1329,1779,5.49861,-336.339
112,-755,5.58704,335.836,0.00285804,0.0437294,-0.0399621,0.0681778,-0.0215904,-1.02175,0.0541042,0.0455045,1336,1779,5.58701,-335.836
119,-755,5.67627,335.33,0.00412705,0.0445044,-0.0446241,0.0732942,-0.0246628,-0.997829,0.0588329,0.0494285,1343,1779,5.67628,-335.331
126,-755,5.56323,334.931,0.00515562,0.0434714,-0.0477504,0.0757638,-0.0271367,-0.976173,0.0615811,0.0458469,1350,1779,5.56324,-334.931
133,-755,5.31848,334.377,0.00579828,0.0409447,-0.0490248,0.0754508,-0.0287078,-0.957492,0.0621217,0.0416234,1357,1779,5.31852,-334.377
140,-755,5.22961,333.747,0,0,0,0,0,0,0,-1,1364,1779,5.22967,-333.747
147,-755,5.11145,332.891,0.00447103,0.0335933,-0.0453291,0.0666426,-0.0285783,-0.940808,0.056421,0.0498015,1371,1779,5.11149,-332.891
154,-755,5.16003,332.394,0.00224712,0.0308446,-0.0408426,0.0598191,-0.0267274,-0.953777,0.0511707,0.0456644,1378,1779,5.15999,-332.394
161,-755,5.10913,331.595,0,0,0,0,0,0,0,-1,1385,1779,5.10916,-331.595
168,-755,3.98181,7.35901,0,0,0,0,0,0,0,-1,1392,1779,3.98184,-7.35904
175,-755,8.17065,1.34363,0,0,0,0,0,0,0,-1,1399,1779,8.1706,-1.34368
182,-755,8.09216,2.96924,0,0,0,0,0,0,0,-1,1406,1779,8.09213,-2.9693
189,-755,8.04419,4.68042,0,0,0,0,0,0,0,-1,1413,1779,8.04419,-4.68046
196,-755,7.74841,7.4541,0,0,0,0,0,0,0,-1,1420,1779,7.74842,-7.45405
203,-755,4.80554,6.88696,0,0,0,0,0,0,0,-1,1427,1779,4.80554,-6.88697
210,-755,25.1694,7.35693,0,0,0,0,0,0,0,-1,1434,1779,25.1694,-7.35688
217,-755,5.01648,16.411,0,0,0,0,0,0,0,-1,1441,1779,5.01646,-16.411
224,-755,5.18103,22.6283,0,0,0,0,0,0,0,-1,1448,1779,5.18101,-22.6283
231,-755,5.7489,30.15,0,0,0,0,0,0,0,-1,1455,1779,5.74885,-30.15
238,-755,6.56323,29.2726,0,0,0,0,0,0,0,-1,1462,1779,6.56327,-29.2726
245,-755,8.29639,28.2113,0,0,0,0,0,0,0,-1,1469,1779,8.29639,-28.2113
252,-755,6.8877,28.8699,0,0,0,0,0,0,0,-1,1476,1779,6.88774,-28.8698
259,-755,6.42676,30.8574,0,0,0,0,0,0,0,-1,1483,1779,6.42677,-30.8575
266,-755,17.255,7.86096,0,0,0,0,0,0,0,-1,1490,1779,17.255,-7.86092
273,-755,15.7932,7.59778,0,0,0,0,0,0,0,-1,1497,1779,15.7932,-7.59777
280,-755,14.6255,7.34802,0,0,0,0,0,0,0,-1,1504,1779,14.6254,-7.34806
287,-755,13.8279,7.83105,0,0,0,0,0,0,0,-1,1511,1779,13.8279,-7.83104
294,-755,12.5695,7.96814,0,0,0,0,0,0,0,-1,1518,1779,12.5694,-7.9682
301,-755,11.2659,8.27087,0,0,0,0,0,0,0,-1,1525,1779,11.2658,-8.27087
308,-755,5.17737,37.2896,0,0,0,0,0,0,0,-1,1532,1779,5.17742,-37.2896
315,-755,0.828613,31.032,0,0,0,0,0,0,0,-1,1539,1779,0.828668,-31.032
322,-755,0,0,0,0,0,0,0,0,0,-1,1546,1779,0,0
329,-755,0,0,0,0,0,0,0,0,0,-1,1553,1779,0,0
336,-755,0,0,0,0,0,0,0,0,0,-1,1560,1779,0,0
343,-755,0,0,0,0,0,0,0,0,0,-1,1567,1779,0,0
350,-755,0,0,0,0,0,0,0,0,0,-1,1574,1779,0,0
357,-755,0,0,0,0,0,0,0,0,0,-1,1581,1779,0,0
364,-755,0,0,0,0,0,0,0,0,0,-1,1588,1779,0,0
371,-755,0,0,0,0,0,0,0,0,0,-1,1595,1779,0,0
378,-755,0,0,0,0,0,0,0,0,0,-1,1602,1779,0,0
385,-755,0,0,0,0,0,0,0,0,0,-1,1609,1779,0,0
392,-755,0,0,0,0,0,0,0,0,0,-1,1616,1779,0,0
399,-755,0,0,0,0,0,0,0,0,0,-1,1623,1779,0,0
406,-755,0,0,0,0,0,0,0,0,0,-1,1630,1779,0,0
413,-755,0,0,0,0,0,0,0,0,0,-1,1637,1779,0,0
420,-755,0,0,0,0,0,0,0,0,0,-1,1644,1779,0,0
427,-755,0,0,0,0,0,0,0,0,0,-1,1651,1779,0,0
434,-755,0,0,0,0,0,0,0,0,0,-1,1658,1779,0,0
441,-755,0,0,0,0,0,0,0,0,0,-1,1665,1779,0,0
448,-755,0,0,0,0,0,0,0,0,0,-1,1672,1779,0,0
455,-755,0,0,0,0,0,0,0,0,0,-1,1679,1779,0,0
462,-755,0,0,0,0,0,0,0,0,0,-1,1686,1779,0,0
469,-755,0,0,0,0,0,0,0,0,0,-1,1693,1779,0,0
476,-755,0,0,0,0,0,0,0,0,0,-1,1700,1779,0,0
483,-755,0,0,0,0,0,0,0,0,0,-1,1707,1779,0,0
490,-755,0,0,0,0,0,0,0,0,0,-1,1714,1779,0,0
497,-755,0,0,0,0,0,0,0,0,0,-1,1721,1779,0,0
504,-755,0,0,0,0,0,0,0,0,0,-1,1728,1779,0,0
511,-755,0,0,0,0,0,0,0,0,0,-1,1735,1779,0,0
518,-755,0,0,0,0,0,0,0,0,0,-1,1742,1779,0,0
525,-755,0,0,0,0,0,0,0,0,0,-1,1749,1779,0,0
532,-755,0,0,0,0,0,0,0,0,0,-1,1756,1779,0,0
539,-755,0,0,0,0,0,0,0,0,0,-1,1763,1779,0,0
546,-755,0,0,0,0,0,0,0,0,0,-1,1770,1779,0,0
553,-755,0,0,0,0,0,0,0,0,0,-1,1777,1779,0,0
560,-755,0,0,0,0,0,0,0,0,0,-1,1784,1779,0,0
567,-755,0,0,0,0,0,0,0,0,0,-1,1791,1779,0,0
574,-755,0,0,0,0,0,0,0,0,0,-1,1798,1779,0,0
581,-755,0,0,0,0,0,0,0,0,0,-1,1805,1779,0,0
588,-755,0,0,0,0,0,0,0,0,0,-1,1812,1779,0,0
595,-755,0,0,0,0,0,0,0,0,0,-1,1819,1779,0,0
602,-755,0,0,0,0,0,0,0,0,0,-1,1826,1779,0,0
609,-755,0,0,0,0,0,0,0,0,0,-1,1833,1779,0,0
616,-755,0,0,0,0,0,0,0,0,0,-1,1840,1779,0,0
623,-755,0,0,0,0,0,0,0,0,0,-1,1847,1779,0,0
630,-755,0,0,0,0,0,0,0,0,0,-1,1854,1779,0,0
637,-755,0,0,0,0,0,0,0,0,0,-1,1861,1779,0,0
644,-755,0,0,0,0,0,0,0,0,0,-1,1868,1779,0,0
651,-755,0,0,0,0,0,0,0,0,0,-1,1875,1779,0,0
658,-755,0,0,0,0,0,0,0,0,0,-1,1882,1779,0,0
665,-755,0,0,0,0,0,0,0,0,0,-1,1889,1779,0,0
672,-755,0,0,0,0,0,0,0,0,0,-1,1896,1779,0,0
679,-755,0,0,0,0,0,0,0,0,0,-1,1903,1779,0,0
686,-755,0,0,0,0,0,0,0,0,0,-1,1910,1779,0,0
693,-755,0,0,0,0,0,0,0,0,0,-1,1917,1779,0,0
700,-755,0,0,0,0,0,0,0,0,0,-1,1924,1779,0,0
707,-755,0,0,0,0,0,0,0,0,0,-1,1931,1779,0,0
714,-755,0,0,0,0,0,0,0,0,0,-1,1938,1779,0,0
721,-755,0,0,0,0,0,0,0,0,0,-1,1945,1779,0,0
728,-755,0,0,0,0,0,0,0,0,0,-1,1952,1779,0,0
735,-755,0,0,0,0,0,0,0,0,0,-1,1959,1779,0,0
742,-755,0,0,0,0,0,0,0,0,0,-1,1966,1779,0,0
749,-755,0,0,0,0,0,0,0,0,0,-1,1973,1779,0,0
756,-755,0,0,0,0,0,0,0,0,0,-1,1980,1779,0,0
763,-755,0,0,0,0,0,0,0,0,0,-1,1987,1779,0,0
770,-755,0,0,0,0,0,0,0,0,0,-1,1994,1779,0,0
777,-755,0,0,0,0,0,0,0,0,0,-1,2001,1779,0,0
784,-755,0,0,0,0,0,0,0,0,0,-1,2008,1779,0,0
791,-755,0,0,0,0,0,0,0,0,0,-1,2015,1779,0,0
798,-755,0,0,0,0,0,0,0,0,0,-1,2022,1779,0,0
805,-755,0,0,0,0,0,0,0,0,0,-1,2029,1779,0,0
812,-755,0,0,0,0,0,0,0,0,0,-1,2036,1779,0,0
-700,-762,0,0,0,0,0,0,0,0,0,-1,524,1786,0,0
-693,-762,0,0,0,0,0,0,0,0,0,-1,531,1786,0,0
-686,-762,0,0,0,0,0,0,0,0,0,-1,538,1786,0,0
-679,-762,0,0,0,0,0,0,0,0,0,-1,545,1786,0,0
-672,-762,0,0,0,0,0,0,0,0,0,-1,552,1786,0,0
-665,-762,0,0,0,0,0,0,0,0,0,-1,559,1786,0,0
-658,-762,0,0,0,0,0,0,0,0,0,-1,566,1786,0,0
-651,-762,0,0,0,0,0,0,0,0,0,-1,573,1786,0,0
-644,-762,0,0,0,0,0,0,0,0,0,-1,580,1786,0,0
-637,-762,0,0,0,0,0,0,0,0,0,-1,587,1786,0,0
-630,-762,0,0,0,0,0,0,0,0,0,-1,594,1786,0,0
-623,-762,0,0,0,0,0,0,0,0,0,-1,601,1786,0,0
-616,-762,0,0,0,0,0,0,0,0,0,-1,608,1786,0,0
-609,-762,0,0,0,0,0,0,0,0,0,-1,615,1786,0,0
-602,-762,0,0,0,0,0,0,0,0,0,-1,622,1786,0,0
-595,-762,0,0,0,0,0,0,0,0,0,-1,629,1786,0,0
-588,-762,0,0,0,0,0,0,0,0,0,-1,636,1786,0,0
-581,-762,0,0,0,0,0,0,0,0,0,-1,643,1786,0,0
-574,-762,0,0,0,0,0,0,0,0,0,-1,650,1786,0,0
-567,-762,0,0,0,0,0,0,0,0,0,-1,657,1786,0,0
-560,-762,0,0,0,0,0,0,0,0,0,-1,664,1786,0,0
-553,-762,0,0,0,0,0,0,0,0,0,-1,671,1786,0,0
-546,-762,0,0,0,0,0,0,0,0,0,-1,678,1786,0,0
-539,-762,0,0,0,0,0,0,0,0,0,-1,685,1786,0,0
-532,-762,0,0,0,0,0,0,0,0,0,-1,692,1786,0,0
-525,-762,0,0,0,0,0,0,0,0,0,-1,699,1786,0,0
-518,-762,0,0,0,0,0,0,0,0,0,-1,706,1786,0,0
-511,-762,0,0,0,0,0,0,0,0,0,-1,713,1786,0,0
-504,-762,0,0,0,0,0,0,0,0,0,-1,720,1786,0,0
-497,-762,0,0,0,0,0,0,0,0,0,-1,727,1786,0,0
-490,-762,0,0,0,0,0,0,0,0,0,-1,734,1786,0,0
-483,-762,0,0,0,0,0,0,0,0,0,-1,741,1786,0,0
-476,-762,0,0,0,0,0,0,0,0,0,-1,748,1786,0,0
-469,-762,0,0,0,0,0,0,0,0,0,-1,755,1786,0,0
-462,-762,0,0,0,0,0,0,0,0,0,-1,762,1786,0,0
-455,-762,0,0,0,0,0,0,0,0,0,-1,769,1786,0,0
-448,-762,0,0,0,0,0,0,0,0,0,-1,776,1786,0,0
-441,-762,0,0,0,0,0,0,0,0,0,-1,783,1786,0,0
-434,-762,0,0,0,0,0,0,0,0,0,-1,790,1786,0,0
-427,-762,0,0,0,0,0,0,0,0,0,-1,797,1786,0,0
-420,-762,0,0,0,0,0,0,0,0,0,-1,804,1786,0,0
-413,-762,0,0,0,0,0,0,0,0,0,-1,811,1786,0,0
-406,-762,0,0,0,0,0,0,0,0,0,-1,818,1786,0,0
-399,-762,0,0,0,0,0,0,0,0,0,-1,825,1786,0,0
-392,-762,0,0,0,0,0,0,0,0,0,-1,832,1786,0,0
-385,-762,0,0,0,0,0,0,0,0,0,-1,839,1786,0,0
-378,-762,0,0,0,0,0,0,0,0,0,-1,846,1786,0,0
-371,-762,0,0,0,0,0,0,0,0,0,-1,853,1786,0,0
-364,-762,0,0,0,0,0,0,0,0,0,-1,860,1786,0,0
-357,-762,0,0,0,0,0,0,0,0,0,-1,867,1786,0,0
-350,-762,0,0,0,0,0,0,0,0,0,-1,874,1786,0,0
-343,-762,0,0,0,0,0,0,0,0,0,-1,881,1786,0,0
-336,-762,0,0,0,0,0,0,0,0,0,-1,888,1786,0,0
-329,-762,0,0,0,0,0,0,0,0,0,-1,895,1786,0,0
-322,-762,0,0,0,0,0,0,0,0,0,-1,902,1786,0,0
-315,-762,0,0,0,0,0,0,0,0,0,-1,909,1786,0,0
-308,-762,0,0,0,0,0,0,0,0,0,-1,916,1786,0,0
-301,-762,0,0,0,0,0,0,0,0,0,-1,923,1786,0,0
-294,-762,0,0,0,0,0,0,0,0,0,-1,930,1786,0,0
-287,-762,0,0,0,0,0,0,0,0,0,-1,937,1786,0,0
-280,-762,0,0,0,0,0,0,0,0,0,-1,944,1786,0,0
-273,-762,0,0,0,0,0,0,0,0,0,-1,951,1786,0,0
-266,-762,0,0,0,0,0,0,0,0,0,-1,958,1786,0,0
-259,-762,0,0,0,0,0,0,0,0,0,-1,965,1786,0,0
-252,-762,0,0,0,0,0,0,0,0,0,-1,972,1786,0,0
-245,-762,0,0,0,0,0,0,0,0,0,-1,979,1786,0,0
-238,-762,0,0,0,0,0,0,0,0,0,-1,986,1786,0,0
-231,-762,0,0,0,0,0,0,0,0,0,-1,993,1786,0,0
-224,-762,0,0,0,0,0,0,0,0,0,-1,1000,1786,0,0
-217,-762,0,0,0,0,0,0,0,0,0,-1,1007,1786,0,0
-210,-762,0,0,0,0,0,0,0,0,0,-1,1014,1786,0,0
-203,-762,0,0,0,0,0,0,0,0,0,-1,1021,1786,0,0
-196,-762,0,0,0,0,0,0,0,0,0,-1,1028,1786,0,0
-189,-762,0,0,0,0,0,0,0,0,0,-1,1035,1786,0,0
-182,-762,4.44226,13.2462,0,0,0,0,0,0,0,-1,1042,1786,4.44227,-13.2462
-175,-762,2.39929,44.7904,0,0,0,0,0,0,0,-1,1049,1786,2.39932,-44.7903
-168,-762,14.4796,67.9244,0,0,0,0,0,0,0,-1,1056,1786,14.4797,-67.9245
-161,-762,-3.29077,11.9508,0,0,0,0,0,0,0,-1,1063,1786,-3.29076,-11.9508
-154,-762,-4.55823,11.1176,0,0,0,0,0,0,0,-1,1070,1786,-4.55828,-11.1175
-147,-762,-6.52454,9.41418,0,0,0,0,0,0,0,-1,1077,1786,-6.52458,-9.41419
-140,-762,4.99792,5.28589,0,0,0,0,0,0,0,-1,1084,1786,4.99793,-5.28587
-133,-762,0.689819,19.2172,0,0,0,0,0,0,0,-1,1091,1786,0.689867,-19.2171
-126,-762,1.48743,19.9288,0,0,0,0,0,0,0,-1,1098,1786,1.48738,-19.9289
-119,-762,2.65637,20.208,0,0,0,0,0,0,0,-1,1105,1786,2.65632,-20.208
-112,-762,6.84705,25.5554,0,0,0,0,0,0,0,-1,1112,1786,6.84706,-25.5554
-105,-762,5.57947,21.618,0,0,0,0,0,0,0,-1,1119,1786,5.57948,-21.618
-98,-762,5.0636,17.9901,0,0,0,0,0,0,0,-1,1126,1786,5.06361,-17.9901
-91,-762,4.54773,14.3622,0,0,0,0,0,0,0,-1,1133,1786,4.54774,-14.3622
-84,-762,3.96375,10.4547,0,0,0,0,0,0,0,-1,1140,1786,3.96371,-10.4548
-77,-762,0.305054,8.49365,0,0,0,0,0,0,0,-1,1147,1786,0.305008,-8.49362
-70,-762,0.183716,6.74622,0,0,0,0,0,0,0,-1,1154,1786,0.183696,-6.74621
-63,-762,-0.883057,9.08813,0,0,0,0,0,0,0,-1,1161,1786,-0.88311,-9.08808
-56,-762,-0.578979,5.10254,0,0,0,0,0,0,0,-1,1168,1786,-0.578951,-5.10249
-49,-762,-2.04541,3.66321,0,0,0,0,0,0,0,-1,1175,1786,-2.0454,-3.66319
-42,-762,-2.23462,3.474,0,0,0,0,0,0,0,-1,1182,1786,-2.23459,-3.47399
-35,-762,-3.28992,1.68164,0,0,0,0,0,0,0,-1,1189,1786,-3.28998,-1.68164
-28,-762,-3.75378,1.37769,0,0,0,0,0,0,0,-1,1196,1786,-3.75373,-1.37767
-21,-762,9.78528,125.281,0,0,0,0,0,0,0,-1,1203,1786,9.78533,-125.281
-14,-762,7.86621,329.48,0,0,0,0,0,0,0,-1,1210,1786,7.8662,-329.48
-7,-762,6.47607,329.949,0,0,0,0,0,0,0,-1,1217,1786,6.47608,-329.949
0,-762,7.46265,332.766,0,0,0,0,0,0,0,-1,1224,1786,7.46268,-332.766
7,-762,7.01111,333.404,0,0,0,0,0,0,0,-1,1231,1786,7.01113,-333.404
14,-762,6.65723,334.162,0,0,0,0,0,0,0,-1,1238,1786,6.65729,-334.162
21,-762,6.93811,336.164,0,0,0,0,0,0,0,-1,1245,1786,6.93808,-336.164
28,-762,6.26245,335.729,0,0,0,0,0,0,0,-1,1252,1786,6.26248,-335.729
35,-762,6.34863,335.968,0,0,0,0,0,0,0,-1,1259,1786,6.34867,-335.968
42,-762,5.84265,336.339,0,0,0,0,0,0,0,-1,1266,1786,5.84271,-336.339
49,-762,5.93335,336.621,0,0,0,0,0,0,0,-1,1273,1786,5.93336,-336.621
56,-762,5.99841,337.068,0,0,0,0,0,0,0,-1,1280,1786,5.9984,-337.068
63,-762,5.70544,337.539,0,0,0,0,0,0,0,-1,1287,1786,5.70545,-337.539
70,-762,5.69238,337.347,-0.0183392,0.0256849,-0.000379603,0.0256882,-0.0183425,-1.56217,0.0255387,0.0430376,1294,1786,5.69239,-337.347
77,-762,5.52832,337.18,-0.0168288,0.0320707,-0.00782088,0.0332911,-0.0180492,-1.416,0.0300736,0.0406212,1301,1786,5.52832,-337.18
84,-762,5.51379,337.167,0,0,0,0,0,0,0,-1,1308,1786,5.51378,-337.167
91,-762,5.4928,336.825,0,0,0,0,0,0,0,-1,1315,1786,5.49274,-336.825
98,-762,5.05322,336.778,0,0,0,0,0,0,0,-1,1322,1786,5.05328,-336.778
105,-762,5.06738,336.234,0,0,0,0,0,0,0,-1,1329,1786,5.06743,-336.234
112,-762,5.42371,335.559,0,0,0,0,0,0,0,-1,1336,1786,5.42376,-335.559
119,-762,5.51563,334.678,0,0,0,0,0,0,0,-1,1343,1786,5.51567,-334.678
126,-762,5.16272,334.881,0,0,0,0,0,0,0,-1,1350,1786,5.16271,-334.881
133,-762,4.78271,334.356,0,0,0,0,0,0,0,-1,1357,1786,4.78267,-334.356
140,-762,4.42676,333.538,0,0,0,0,0,0,0,-1,1364,1786,4.42674,-333.538
147,-762,4.38989,332.811,0,0,0,0,0,0,0,-1,1371,1786,4.38991,-332.811
154,-762,4.47681,332.718,0,0,0,0,0,0,0,-1,1378,1786,4.47683,-332.718
161,-762,8.65051,34.8102,0,0,0,0,0,0,0,-1,1385,1786,8.65054,-34.8101
168,-762,8.19287,0.880615,0,0,0,0,0,0,0,-1,1392,1786,8.19291,-0.880603
175,-762,8.33997,1.95947,0,0,0,0,0,0,0,-1,1399,1786,8.33997,-1.95942
182,-762,8.28418,3.56482,0,0,0,0,0,0,0,-1,1406,1786,8.28415,-3.56485
189,-762,8.21179,5.23389,0,0,0,0,0,0,0,-1,1413,1786,8.21183,-5.23383
196,-762,8.05969,6.95483,0,0,0,0,0,0,0,-1,1420,1786,8.05972,-6.9548
203,-762,24.0077,7.10425,0,0,0,0,0,0,0,-1,1427,1786,24.0077,-7.10426
210,-762,23.8073,7.6499,0,0,0,0,0,0,0,-1,1434,1786,23.8073,-7.64987
217,-762,23.3193,8.24426,0,0,0,0,0,0,0,-1,1441,1786,23.3194,-8.2442
224,-762,2.65149,20.6106,0,0,0,0,0,0,0,-1,1448,1786,2.65153,-20.6106
231,-762,5.46655,23.521,0,0,0,0,0,0,0,-1,1455,1786,5.46653,-23.521
238,-762,5.35632,29.7203,0,0,0,0,0,0,0,-1,1462,1786,5.35629,-29.7203
245,-762,6.93054,27.8312,0,0,0,0,0,0,0,-1,1469,1786,6.93058,-27.8312
252,-762,6.20215,28.3027,0,0,0,0,0,0,0,-1,1476,1786,6.20211,-28.3027
259,-762,5.46472,28.8762,0,0,0,0,0,0,0,-1,1483,1786,5.46476,-28.8762
266,-762,16.451,7.67773,0,0,0,0,0,0,0,-1,1490,1786,16.4511,-7.67773
273,-762,15.287,7.5304,0,0,0,0,0,0,0,-1,1497,1786,15.2869,-7.53044
280,-762,14.1501,7.38379,0,0,0,0,0,0,0,-1,1504,1786,14.1502,-7.38376
287,-762,12.6891,7.99133,0,0,0,0,0,0,0,-1,1511,1786,12.6891,-7.99135
294,-762,12.6959,8.30371,0,0,0,0,0,0,0,-1,1518,1786,12.6959,-8.30368
301,-762,11.4222,8.84143,0,0,0,0,0,0,0,-1,1525,1786,11.4223,-8.84149
308,-762,0,0,0,0,0,0,0,0,0,-1,1532,1786,0,0
315,-762,0,0,0,0,0,0,0,0,0,-1,1539,1786,0,0
322,-762,0,0,0,0,0,0,0,0,0,-1,1546,1786,0,0
329,-762,0,0,0,0,0,0,0,0,0,-1,1553,1786,0,0
336,-762,0,0,0,0,0,0,0,0,0,-1,1560,1786,0,0
343,-762,0,0,0,0,0,0,0,0,0,-1,1567,1786,0,0
350,-762,0,0,0,0,0,0,0,0,0,-1,1574,1786,0,0
357,-762,0,0,0,0,0,0,0,0,0,-1,1581,1786,0,0
364,-762,0,0,0,0,0,0,0,0,0,-1,1588,1786,0,0
371,-762,0,0,0,0,0,0,0,0,0,-1,1595,1786,0,0
378,-762,0,0,0,0,0,0,0,0,0,-1,1602,1786,0,0
385,-762,0,0,0,0,0,0,0,0,0,-1,1609,1786,0,0
392,-762,0,0,0,0,0,0,0,0,0,-1,1616,1786,0,0
399,-762,0,0,0,0,0,0,0,0,0,-1,1623,1786,0,0
406,-762,0,0,0,0,0,0,0,0,0,-1,1630,1786,0,0
413,-762,0,0,0,0,0,0,0,0,0,-1,1637,1786,0,0
420,-762,0,0,0,0,0,0,0,0,0,-1,1644,1786,0,0
427,-762,0,0,0,0,0,0,0,0,0,-1,1651,1786,0,0
434,-762,0,0,0,0,0,0,0,0,0,-1,1658,1786,0,0
441,-762,0,0,0,0,0,0,0,0,0,-1,1665,1786,0,0
448,-762,0,0,0,0,0,0,0,0,0,-1,1672,1786,0,0
455,-762,0,0,0,0,0,0,0,0,0,-1,1679,1786,0,0
462,-762,0,0,0,0,0,0,0,0,0,-1,1686,1786,0,0
469,-762,0,0,0,0,0,0,0,0,0,-1,1693,1786,0,0
476,-762,0,0,0,0,0,0,0,0,0,-1,1700,1786,0,0
483,-762,0,0,0,0,0,0,0,0,0,-1,1707,1786,0,0
490,-762,0,0,0,0,0,0,0,0,0,-1,1714,1786,0,0
497,-762,0,0,0,0,0,0,0,0,0,-1,1721,1786,0,0
504,-762,0,0,0,0,0,0,0,0,0,-1,1728,1786,0,0
511,-762,0,0,0,0,0,0,0,0,0,-1,1735,1786,0,0
518,-762,0,0,0,0,0,0,0,0,0,-1,1742,1786,0,0
525,-762,0,0,0,0,0,0,0,0,0,-1,1749,1786,0,0
532,-762,0,0,0,0,0,0,0,0,0,-1,1756,1786,0,0
539,-762,0,0,0,0,0,0,0,0,0,-1,1763,1786,0,0
546,-762,0,0,0,0,0,0,0,0,0,-1,1770,1786,0,0
553,-762,0,0,0,0,0,0,0,0,0,-1,1777,1786,0,0
560,-762,0,0,0,0,0,0,0,0,0,-1,1784,1786,0,0
567,-762,0,0,0,0,0,0,0,0,0,-1,1791,1786,0,0
574,-762,0,0,0,0,0,0,0,0,0,-1,1798,1786,0,0
581,-762,0,0,0,0,0,0,0,0,0,-1,1805,1786,0,0
588,-762,0,0,0,0,0,0,0,0,0,-1,1812,1786,0,0
595,-762,0,0,0,0,0,0,0,0,0,-1,1819,1786,0,0
602,-762,0,0,0,0,0,0,0,0,0,-1,1826,1786,0,0
609,-762,0,0,0,0,0,0,0,0,0,-1,1833,1786,0,0
616,-762,0,0,0,0,0,0,0,0,0,-1,1840,1786,0,0
623,-762,0,0,0,0,0,0,0,0,0,-1,1847,1786,0,0
630,-762,0,0,0,0,0,0,0,0,0,-1,1854,1786,0,0
637,-762,0,0,0,0,0,0,0,0,0,-1,1861,1786,0,0
644,-762,0,0,0,0,0,0,0,0,0,-1,1868,1786,0,0
651,-762,0,0,0,0,0,0,0,0,0,-1,1875,1786,0,0
658,-762,0,0,0,0,0,0,0,0,0,-1,1882,1786,0,0
665,-762,0,0,0,0,0,0,0,0,0,-1,1889,1786,0,0
672,-762,0,0,0,0,0,0,0,0,0,-1,1896,1786,0,0
679,-762,0,0,0,0,0,0,0,0,0,-1,1903,1786,0,0
686,-762,0,0,0,0,0,0,0,0,0,-1,1910,1786,0,0
693,-762,0,0,0,0,0,0,0,0,0,-1,1917,1786,0,0
700,-762,0,0,0,0,0,0,0,0,0,-1,1924,1786,0,0
707,-762,0,0,0,0,0,0,0,0,0,-1,1931,1786,0,0
714,-762,0,0,0,0,0,0,0,0,0,-1,1938,1786,0,0
721,-762,0,0,0,0,0,0,0,0,0,-1,1945,1786,0,0
728,-762,0,0,0,0,0,0,0,0,0,-1,1952,1786,0,0
735,-762,0,0,0,0,0,0,0,0,0,-1,1959,1786,0,0
742,-762,0,0,0,0,0,0,0,0,0,-1,1966,1786,0,0
749,-762,0,0,0,0,0,0,0,0,0,-1,1973,1786,0,0
756,-762,0,0,0,0,0,0,0,0,0,-1,1980,1786,0,0
763,-762,0,0,0,0,0,0,0,0,0,-1,1987,1786,0,0
770,-762,0,0,0,0,0,0,0,0,0,-1,1994,1786,0,0
777,-762,0,0,0,0,0,0,0,0,0,-1,2001,1786,0,0
784,-762,0,0,0,0,0,0,0,0,0,-1,2008,1786,0,0
791,-762,0,0,0,0,0,0,0,0,0,-1,2015,1786,0,0
798,-762,0,0,0,0,0,0,0,0,0,-1,2022,1786,0,0
805,-762,0,0,0,0,0,0,0,0,0,-1,2029,1786,0,0
812,-762,0,0,0,0,0,0,0,0,0,-1,2036,1786,0,0
-700,-769,0,0,0,0,0,0,0,0,0,-1,524,1793,0,0
-693,-769,0,0,0,0,0,0,0,0,0,-1,531,1793,0,0
-686,-769,0,0,0,0,0,0,0,0,0,-1,538,1793,0,0
-679,-769,0,0,0,0,0,0,0,0,0,-1,545,1793,0,0
-672,-769,0,0,0,0,0,0,0,0,0,-1,552,1793,0,0
-665,-769,0,0,0,0,0,0,0,0,0,-1,559,1793,0,0
-658,-769,0,0,0,0,0,0,0,0,0,-1,566,1793,0,0
-651,-769,0,0,0,0,0,0,0,0,0,-1,573,1793,0,0
-644,-769,0,0,0,0,0,0,0,0,0,-1,580,1793,0,0
-637,-769,0,0,0,0,0,0,0,0,0,-1,587,1793,0,0
-630,-769,0,0,0,0,0,0,0,0,0,-1,594,1793,0,0
-623,-769,0,0,0,0,0,0,0,0,0,-1,601,1793,0,0
-616,-769,0,0,0,0,0,0,0,0,0,-1,608,1793,0,0
-609,-769,0,0,0,0,0,0,0,0,0,-1,615,1793,0,0
-602,-769,0,0,0,0,0,0,0,0,0,-1,622,1793,0,0
-595,-769,0,0,0,0,0,0,0,0,0,-1,629,1793,0,0
-588,-769,0,0,0,0,0,0,0,0,0,-1,636,1793,0,0
-581,-769,0,0,0,0,0,0,0,0,0,-1,643,1793,0,0
-574,-769,0,0,0,0,0,0,0,0,0,-1,650,1793,0,0
-567,-769,0,0,0,0,0,0,0,0,0,-1,657,1793,0,0
-560,-769,0,0,0,0,0,0,0,0,0,-1,664,1793,0,0
-553,-769,0,0,0,0,0,0,0,0,0,-1,671,1793,0,0
-546,-769,0,0,0,0,0,0,0,0,0,-1,678,1793,0,0
-539,-769,0,0,0,0,0,0,0,0,0,-1,685,1793,0,0
-532,-769,0,0,0,0,0,0,0,0,0,-1,692,1793,0,0
-525,-769,0,0,0,0,0,0,0,0,0,-1,699,1793,0,0
-518,-769,0,0,0,0,0,0,0,0,0,-1,706,1793,0,0
-511,-769,0,0,0,0,0,0,0,0,0,-1,713,1793,0,0
-504,-769,0,0,0,0,0,0,0,0,0,-1,720,1793,0,0
-497,-769,0,0,0,0,0,0,0,0,0,-1,727,1793,0,0
-490,-769,0,0,0,0,0,0,0,0,0,-1,734,1793,0,0
-483,-769,0,0,0,0,0,0,0,0,0,-1,741,1793,0,0
-476,-769,0,0,0,0,0,0,0,0,0,-1,748,1793,0,0
-469,-769,0,0,0,0,0,0,0,0,0,-1,755,1793,0,0
-462,-769,0,0,0,0,0,0,0,0,0,-1,762,1793,0,0
-455,-769,0,0,0,0,0,0,0,0,0,-1,769,1793,0,0
-448,-769,0,0,0,0,0,0,0,0,0,-1,776,1793,0,0
-441,-769,0,0,0,0,0,0,0,0,0,-1,783,1793,0,0
-434,-769,0,0,0,0,0,0,0,0,0,-1,790,1793,0,0
-427,-769,0,0,0,0,0,0,0,0,0,-1,797,1793,0,0
-420,-769,0,0,0,0,0,0,0,0,0,-1,804,1793,0,0
-413,-769,0,0,0,0,0,0,0,0,0,-1,811,1793,0,0
-406,-769,0,0,0,0,0,0,0,0,0,-1,818,1793,0,0
-399,-769,0,0,0,0,0,0,0,0,0,-1,825,1793,0,0
-392,-769,0,0,0,0,0,0,0,0,0,-1,832,1793,0,0
-385,-769,0,0,0,0,0,0,0,0,0,-1,839,1793,0,0
-378,-769,0,0,0,0,0,0,0,0,0,-1,846,1793,0,0
-371,-769,0,0,0,0,0,0,0,0,0,-1,853,1793,0,0
-364,-769,0,0,0,0,0,0,0,0,0,-1,860,1793,0,0
-357,-769,0,0,0,0,0,0,0,0,0,-1,867,1793,0,0
-350,-769,0,0,0,0,0,0,0,0,0,-1,874,1793,0,0
-343,-769,0,0,0,0,0,0,0,0,0,-1,881,1793,0,0
-336,-769,0,0,0,0,0,0,0,0,0,-1,888,1793,0,0
-329,-769,0,0,0,0,0,0,0,0,0,-1,895,1793,0,0
-322,-769,0,0,0,0,0,0,0,0,0,-1,902,1793,0,0
-315,-769,0,0,0,0,0,0,0,0,0,-1,909,1793,0,0
-308,-769,0,0,0,0,0,0,0,0,0,-1,916,1793,0,0
-301,-769,0,0,0,0,0,0,0,0,0,-1,923,1793,0,0
-294,-769,0,0,0,0,0,0,0,0,0,-1,930,1793,0,0
-287,-769,0,0,0,0,0,0,0,0,0,-1,937,1793,0,0
-280,-769,0,0,0,0,0,0,0,0,0,-1,944,1793,0,0
-273,-769,0,0,0,0,0,0,0,0,0,-1,951,1793,0,0
-266,-769,0,0,0,0,0,0,0,0,0,-1,958,1793,0,0
-259,-769,0,0,0,0,0,0,0,0,0,-1,965,1793,0,0
-252,-769,0,0,0,0,0,0,0,0,0,-1,972,1793,0,0
-245,-769,0,0,0,0,0,0,0,0,0,-1,979,1793,0,0
-238,-769,0,0,0,0,0,0,0,0,0,-1,986,1793,0,0
-231,-769,0,0,0,0,0,0,0,0,0,-1,993,1793,0,0
-224,-769,0,0,0,0,0,0,0,0,0,-1,1000,1793,0,0
-217,-769,0,0,0,0,0,0,0,0,0,-1,1007,1793,0,0
-210,-769,0,0,0,0,0,0,0,0,0,-1,1014,1793,0,0
-203,-769,0,0,0,0,0,0,0,0,0,-1,1021,1793,0,0
-196,-769,0,0,0,0,0,0,0,0,0,-1,1028,1793,0,0
-189,-769,0,0,0,0,0,0,0,0,0,-1,1035,1793,0,0
-182,-769,0,0,0,0,0,0,0,0,0,-1,1042,1793,0,0
-175,-769,0,0,0,0,0,0,0,0,0,-1,1049,1793,0,0
-168,-769,0,0,0,0,0,0,0,0,0,-1,1056,1793,0,0
-161,-769,-3.61145,12.4761,0,0,0,0,0,0,0,-1,1063,1793,-3.6114,-12.476
-154,-769,-0.813232,5.32874,0,0,0,0,0,0,0,-1,1070,1793,-0.813269,-5.32872
-147,-769,4.26587,4.7002,0,0,0,0,0,0,0,-1,1077,1793,4.26593,-4.70022
-140,-769,4.10376,5.28589,0,0,0,0,0,0,0,-1,1084,1793,4.10371,-5.28584
-133,-769,6.422,8.21777,0,0,0,0,0,0,0,-1,1091,1793,6.42198,-8.21773
-126,-769,-0.352295,19.326,0,0,0,0,0,0,0,-1,1098,1793,-0.352235,-19.326
-119,-769,6.01685,16.2577,0,0,0,0,0,0,0,-1,1105,1793,6.01689,-16.2576
-112,-769,5.76416,27.2615,0,0,0,0,0,0,0,-1,1112,1793,5.7642,-27.2615
-105,-769,4.97009,22.8479,0,0,0,0,0,0,0,-1,1119,1793,4.97006,-22.8479
-98,-769,4.69373,18.9142,0,0,0,0,0,0,0,-1,1126,1793,4.69376,-18.9142
-91,-769,4.41748,14.9805,0,0,0,0,0,0,0,-1,1133,1793,4.41746,-14.9805
-84,-769,3.2207,12.4565,0,0,0,0,0,0,0,-1,1140,1793,3.22066,-12.4565
-77,-769,2.48816,8.98486,0,0,0,0,0,0,0,-1,1147,1793,2.48815,-8.98489
-70,-769,1.04944,11.9852,0,0,0,0,0,0,0,-1,1154,1793,1.04947,-11.9852
-63,-769,-2.39709,9.60339,0,0,0,0,0,0,0,-1,1161,1793,-2.39706,-9.6034
-56,-769,-5.84363,7.22156,0,0,0,0,0,0,0,-1,1168,1793,-5.84359,-7.22157
-49,-769,-2.41443,3.95471,0,0,0,0,0,0,0,-1,1175,1793,-2.41446,-3.95471
-42,-769,-3.1991,2.64941,0,0,0,0,0,0,0,-1,1182,1793,-3.19914,-2.64944
-35,-769,-3.50183,1.73389,0,0,0,0,0,0,0,-1,1189,1793,-3.50189,-1.7339
-28,-769,-3.96985,1.14075,0,0,0,0,0,0,0,-1,1196,1793,-3.96985,-1.14078
-21,-769,8.72485,328.511,0,0,0,0,0,0,0,-1,1203,1793,8.7249,-328.511
-14,-769,9.29126,328.348,0,0,0,0,0,0,0,-1,1210,1793,9.29122,-328.348
-7,-769,8.69922,330.434,0,0,0,0,0,0,0,-1,1217,1793,8.69916,-330.434
0,-769,8.45959,331.803,0,0,0,0,0,0,0,-1,1224,1793,8.45959,-331.803
7,-769,8.2384,333.246,-0.0139609,0.0219912,0.0138953,0.0267356,-0.0187052,1.24177,0.0263715,0.0452618,1231,1793,8.23844,-333.246
14,-769,8.07544,334.744,-0.0170699,0.0182837,0.0138664,0.0230734,-0.0218597,1.23821,0.0259453,0.040871,1238,1793,8.07546,-334.744
21,-769,7.80847,335.861,-0.020285,0.0146065,0.0145193,0.019858,-0.0255365,1.22374,0.0262768,0.0463832,1245,1793,7.80842,-335.861
28,-769,6.44604,336.728,0,0,0,0,0,0,0,-1,1252,1793,6.4461,-336.728
35,-769,6.45068,337.092,0,0,0,0,0,0,0,-1,1259,1793,6.4507,-337.092
42,-769,6.0531,338.933,0,0,0,0,0,0,0,-1,1266,1793,6.05315,-338.933
49,-769,5.479,340.486,0,0,0,0,0,0,0,-1,1273,1793,5.47899,-340.486
56,-769,4.80591,337.948,0,0,0,0,0,0,0,-1,1280,1793,4.80588,-337.948
63,-769,5.04016,337.295,0,0,0,0,0,0,0,-1,1287,1793,5.04014,-337.295
70,-769,5.79346,337.422,0,0,0,0,0,0,0,-1,1294,1793,5.79343,-337.422
77,-769,5.45764,337.217,0,0,0,0,0,0,0,-1,1301,1793,5.45759,-337.217
84,-769,4.69116,334.653,0,0,0,0,0,0,0,-1,1308,1793,4.69112,-334.653
91,-769,4.33484,333.578,0,0,0,0,0,0,0,-1,1315,1793,4.3348,-333.577
98,-769,3.69995,332.793,0,0,0,0,0,0,0,-1,1322,1793,3.6999,-332.793
105,-769,3.42273,330.642,0,0,0,0,0,0,0,-1,1329,1793,3.42272,-330.642
112,-769,2.61914,330.129,-0.0111806,0.071624,-0.0674111,0.109332,-0.0488883,-1.06079,0.0935439,0.0465008,1336,1793,2.61911,-330.129
119,-769,2.60547,328.177,-0.0083134,0.0730251,-0.0781085,0.120418,-0.0557062,-1.02542,0.103948,0.048251,1343,1793,2.60544,-328.177
126,-769,2.54138,326.609,-0.00609959,0.0714339,-0.0861875,0.127172,-0.0618376,-0.99674,0.111277,0.0480987,1350,1793,2.5414,-326.609
133,-769,2.49939,325.045,0,0,0,0,0,0,0,-1,1357,1793,2.49943,-325.045
140,-769,3.67358,333.144,0,0,0,0,0,0,0,-1,1364,1793,3.67353,-333.144
147,-769,3.99536,332.926,0,0,0,0,0,0,0,-1,1371,1793,3.99531,-332.926
154,-769,0.304077,329.875,0,0,0,0,0,0,0,-1,1378,1793,0.304114,-329.875
161,-769,6.57019,1.53223,0,0,0,0,0,0,0,-1,1385,1793,6.57019,-1.53226
168,-769,8.27637,0.756958,0,0,0,0,0,0,0,-1,1392,1793,8.27639,-0.756944
175,-769,8.47144,2.41174,0,0,0,0,0,0,0,-1,1399,1793,8.47147,-2.4118
182,-769,8.41479,4.05994,0,0,0,0,0,0,0,-1,1406,1793,8.41479,-4.05997
189,-769,8.25049,5.68433,0,0,0,0,0,0,0,-1,1413,1793,8.25054,-5.68428
196,-769,7.97729,7.42847,0,0,0,0,0,0,0,-1,1420,1793,7.9773,-7.42848
203,-769,22.0977,6.73889,0,0,0,0,0,0,0,-1,1427,1793,22.0977,-6.7389
210,-769,22.1115,7.77246,0,0,0,0,0,0,0,-1,1434,1793,22.1115,-7.77248
217,-769,22.4723,8.79102,0,0,0,0,0,0,0,-1,1441,1793,22.4723,-8.79099
224,-769,22.1348,9.35278,0,0,0,0,0,0,0,-1,1448,1793,22.1348,-9.35283
231,-769,3.13318,19.7184,0,0,0,0,0,0,0,-1,1455,1793,3.13323,-19.7184
238,-769,5.74512,18.6597,0,0,0,0,0,0,0,-1,1462,1793,5.74512,-18.6596
245,-769,5.80798,22.87,0,0,0,0,0,0,0,-1,1469,1793,5.80796,-22.87
252,-769,6.20837,28.394,0,0,0,0,0,0,0,-1,1476,1793,6.20833,-28.3941
259,-769,10.974,17.7698,0,0,0,0,0,0,0,-1,1483,1793,10.974,-17.7698
266,-769,15.8488,7.3905,0,0,0,0,0,0,0,-1,1490,1793,15.8488,-7.39046
273,-769,14.8075,7.56152,0,0,0,0,0,0,0,-1,1497,1793,14.8075,-7.56152
280,-769,13.6519,7.43054,0,0,0,0,0,0,0,-1,1504,1793,13.6518,-7.43058
287,-769,0,0,0,0,0,0,0,0,0,-1,1511,1793,0,0
294,-769,0,0,0,0,0,0,0,0,0,-1,1518,1793,0,0
301,-769,0,0,0,0,0,0,0,0,0,-1,1525,1793,0,0
308,-769,0,0,0,0,0,0,0,0,0,-1,1532,1793,0,0
315,-769,0,0,0,0,0,0,0,0,0,-1,1539,1793,0,0
322,-769,0,0,0,0,0,0,0,0,0,-1,1546,1793,0,0
329,-769,0,0,0,0,0,0,0,0,0,-1,1553,1793,0,0
336,-769,0,0,0,0,0,0,0,0,0,-1,1560,1793,0,0
343,-769,0,0,0,0,0,0,0,0,0,-1,1567,1793,0,0
350,-769,0,0,0,0,0,0,0,0,0,-1,1574,1793,0,0
357,-769,0,0,0,0,0,0,0,0,0,-1,1581,1793,0,0
364,-769,0,0,0,0,0,0,0,0,0,-1,1588,1793,0,0
371,-769,0,0,0,0,0,0,0,0,0,-1,1595,1793,0,0
378,-769,0,0,0,0,0,0,0,0,0,-1,1602,1793,0,0
385,-769,0,0,0,0,0,0,0,0,0,-1,1609,1793,0,0
392,-769,0,0,0,0,0,0,0,0,0,-1,1616,1793,0,0
399,-769,0,0,0,0,0,0,0,0,0,-1,1623,1793,0,0
406,-769,0,0,0,0,0,0,0,0,0,-1,1630,1793,0,0
413,-769,0,0,0,0,0,0,0,0,0,-1,1637,1793,0,0
420,-769,0,0,0,0,0,0,0,0,0,-1,1644,1793,0,0
427,-769,0,0,0,0,0,0,0,0,0,-1,1651,1793,0,0
434,-769,0,0,0,0,0,0,0,0,0,-1,1658,1793,0,0
441,-769,0,0,0,0,0,0,0,0,0,-1,1665,1793,0,0
448,-769,0,0,0,0,0,0,0,0,0,-1,1672,1793,0,0
455,-769,0,0,0,0,0,0,0,0,0,-1,1679,1793,0,0
462,-769,0,0,0,0,0,0,0,0,0,-1,1686,1793,0,0
469,-769,0,0,0,0,0,0,0,0,0,-1,1693,1793,0,0
476,-769,0,0,0,0,0,0,0,0,0,-1,1700,1793,0,0
483,-769,0,0,0,0,0,0,0,0,0,-1,1707,1793,0,0
490,-769,0,0,0,0,0,0,0,0,0,-1,1714,1793,0,0
497,-769,0,0,0,0,0,0,0,0,0,-1,1721,1793,0,0
504,-769,0,0,0,0,0,0,0,0,0,-1,1728,1793,0,0
511,-769,0,0,0,0,0,0,0,0,0,-1,1735,1793,0,0
518,-769,0,0,0,0,0,0,0,0,0,-1,1742,1793,0,0
525,-769,0,0,0,0,0,0,0,0,0,-1,1749,1793,0,0
532,-769,0,0,0,0,0,0,0,0,0,-1,1756,1793,0,0
539,-769,0,0,0,0,0,0,0,0,0,-1,1763,1793,0,0
546,-769,0,0,0,0,0,0,0,0,0,-1,1770,1793,0,0
553,-769,0,0,0,0,0,0,0,0,0,-1,1777,1793,0,0
560,-769,0,0,0,0,0,0,0,0,0,-1,1784,1793,0,0
567,-769,0,0,0,0,0,0,0,0,0,-1,1791,1793,0,0
574,-769,0,0,0,0,0,0,0,0,0,-1,1798,1793,0,0
581,-769,0,0,0,0,0,0,0,0,0,-1,1805,1793,0,0
588,-769,0,0,0,0,0,0,0,0,0,-1,1812,1793,0,0
595,-769,0,0,0,0,0,0,0,0,0,-1,1819,1793,0,0
602,-769,0,0,0,0,0,0,0,0,0,-1,1826,1793,0,0
609,-769,0,0,0,0,0,0,0,0,0,-1,1833,1793,0,0
616,-769,0,0,0,0,0,0,0,0,0,-1,1840,1793,0,0
623,-769,0,0,0,0,0,0,0,0,0,-1,1847,1793,0,0
630,-769,0,0,0,0,0,0,0,0,0,-1,1854,1793,0,0
637,-769,0,0,0,0,0,0,0,0,0,-1,1861,1793,0,0
644,-769,0,0,0,0,0,0,0,0,0,-1,1868,1793,0,0
651,-769,0,0,0,0,0,0,0,0,0,-1,1875,1793,0,0
658,-769,0,0,0,0,0,0,0,0,0,-1,1882,1793,0,0
665,-769,0,0,0,0,0,0,0,0,0,-1,1889,1793,0,0
672,-769,0,0,0,0,0,0,0,0,0,-1,1896,1793,0,0
679,-769,0,0,0,0,0,0,0,0,0,-1,1903,1793,0,0
686,-769,0,0,0,0,0,0,0,0,0,-1,1910,1793,0,0
693,-769,0,0,0,0,0,0,0,0,0,-1,1917,1793,0,0
700,-769,0,0,0,0,0,0,0,0,0,-1,1924,1793,0,0
707,-769,0,0,0,0,0,0,0,0,0,-1,1931,1793,0,0
714,-769,0,0,0,0,0,0,0,0,0,-1,1938,1793,0,0
721,-769,0,0,0,0,0,0,0,0,0,-1,1945,1793,0,0
728,-769,0,0,0,0,0,0,0,0,0,-1,1952,1793,0,0
735,-769,0,0,0,0,0,0,0,0,0,-1,1959,1793,0,0
742,-769,0,0,0,0,0,0,0,0,0,-1,1966,1793,0,0
749,-769,0,0,0,0,0,0,0,0,0,-1,1973,1793,0,0
756,-769,0,0,0,0,0,0,0,0,0,-1,1980,1793,0,0
763,-769,0,0,0,0,0,0,0,0,0,-1,1987,1793,0,0
770,-769,0,0,0,0,0,0,0,0,0,-1,1994,1793,0,0
777,-769,0,0,0,0,0,0,0,0,0,-1,2001,1793,0,0
784,-769,0,0,0,0,0,0,0,0,0,-1,2008,1793,0,0
791,-769,0,0,0,0,0,0,0,0,0,-1,2015,1793,0,0
798,-769,0,0,0,0,0,0,0,0,0,-1,2022,1793,0,0
805,-769,0,0,0,0,0,0,0,0,0,-1,2029,1793,0,0
812,-769,0,0,0,0,0,0,0,0,0,-1,2036,1793,0,0
-700,-776,0,0,0,0,0,0,0,0,0,-1,524,1800,0,0
-693,-776,0,0,0,0,0,0,0,0,0,-1,531,1800,0,0
-686,-776,0,0,0,0,0,0,0,0,0,-1,538,1800,0,0
-679,-776,0,0,0,0,0,0,0,0,0,-1,545,1800,0,0
-672,-776,0,0,0,0,0,0,0,0,0,-1,552,1800,0,0
-665,-776,0,0,0,0,0,0,0,0,0,-1,559,1800,0,0
-658,-776,0,0,0,0,0,0,0,0,0,-1,566,1800,0,0
-651,-776,0,0,0,0,0,0,0,0,0,-1,573,1800,0,0
-644,-776,0,0,0,0,0,0,0,0,0,-1,580,1800,0,0
-637,-776,0,0,0,0,0,0,0,0,0,-1,587,1800,0,0
-630,-776,0,0,0,0,0,0,0,0,0,-1,594,1800,0,0
-623,-776,0,0,0,0,0,0,0,0,0,-1,601,1800,0,0
-616,-776,0,0,0,0,0,0,0,0,0,-1,608,1800,0,0
-609,-776,0,0,0,0,0,0,0,0,0,-1,615,1800,0,0
-602,-776,0,0,0,0,0,0,0,0,0,-1,622,1800,0,0
-595,-776,0,0,0,0,0,0,0,0,0,-1,629,1800,0,0
-588,-776,0,0,0,0,0,0,0,0,0,-1,636,1800,0,0
-581,-776,0,0,0,0,0,0,0,0,0,-1,643,1800,0,0
-574,-776,0,0,0,0,0,0,0,0,0,-1,650,1800,0,0
-567,-776,0,0,0,0,0,0,0,0,0,-1,657,1800,0,0
-560,-776,0,0,0,0,0,0,0,0,0,-1,664,1800,0,0
-553,-776,0,0,0,0,0,0,0,0,0,-1,671,1800,0,0
-546,-776,0,0,0,0,0,0,0,0,0,-1,678,1800,0,0
-539,-776,0,0,0,0,0,0,0,0,0,-1,685,1800,0,0
-532,-776,0,0,0,0,0,0,0,0,0,-1,692,1800,0,0
-525,-776,0,0,0,0,0,0,0,0,0,-1,699,1800,0,0
-518,-776,0,0,0,0,0,0,0,0,0,-1,706,1800,0,0
-511,-776,0,0,0,0,0,0,0,0,0,-1,713,1800,0,0
-504,-776,0,0,0,0,0,0,0,0,0,-1,720,1800,0,0
-497,-776,0,0,0,0,0,0,0,0,0,-1,727,1800,0,0
-490,-776,0,0,0,0,0,0,0,0,0,-1,734,1800,0,0
-483,-776,0,0,0,0,0,0,0,0,0,-1,741,1800,0,0
-476,-776,0,0,0,0,0,0,0,0,0,-1,748,1800,0,0
-469,-776,0,0,0,0,0,0,0,0,0,-1,755,1800,0,0
-462,-776,0,0,0,0,0,0,0,0,0,-1,762,1800,0,0
-455,-776,0,0,0,0,0,0,0,0,0,-1,769,1800,0,0
-448,-776,0,0,0,0,0,0,0,0,0,-1,776,1800,0,0
-441,-776,0,0,0,0,0,0,0,0,0,-1,783,1800,0,0
-434,-776,0,0,0,0,0,0,0,0,0,-1,790,1800,0,0
-427,-776,0,0,0,0,0,0,0,0,0,-1,797,1800,0,0
-420,-776,0,0,0,0,0,0,0,0,0,-1,804,1800,0,0
-413,-776,0,0,0,0,0,0,0,0,0,-1,811,1800,0,0
-406,-776,0,0,0,0,0,0,0,0,0,-1,818,1800,0,0
-399,-776,0,0,0,0,0,0,0,0,0,-1,825,1800,0,0
-392,-776,0,0,0,0,0,0,0,0,0,-1,832,1800,0,0
-385,-776,0,0,0,0,0,0,0,0,0,-1,839,1800,0,0
-378,-776,0,0,0,0,0,0,0,0,0,-1,846,1800,0,0
-371,-776,0,0,0,0,0,0,0,0,0,-1,853,1800,0,0
-364,-776,0,0,0,0,0,0,0,0,0,-1,860,1800,0,0
-357,-776,0,0,0,0,0,0,0,0,0,-1,867,1800,0,0
-350,-776,0,0,0,0,0,0,0,0,0,-1,874,1800,0,0
-343,-776,0,0,0,0,0,0,0,0,0,-1,881,1800,0,0
-336,-776,0,0,0,0,0,0,0,0,0,-1,888,1800,0,0
-329,-776,0,0,0,0,0,0,0,0,0,-1,895,1800,0,0
-322,-776,0,0,0,0,0,0,0,0,0,-1,902,1800,0,0
-315,-776,0,0,0,0,0,0,0,0,0,-1,909,1800,0,0
-308,-776,0,0,0,0,0,0,0,0,0,-1,916,1800,0,0
-301,-776,0,0,0,0,0,0,0,0,0,-1,923,1800,0,0
-294,-776,0,0,0,0,0,0,0,0,0,-1,930,1800,0,0
-287,-776,0,0,0,0,0,0,0,0,0,-1,937,1800,0,0
-280,-776,0,0,0,0,0,0,0,0,0,-1,944,1800,0,0
-273,-776,0,0,0,0,0,0,0,0,0,-1,951,1800,0,0
-266,-776,0,0,0,0,0,0,0,0,0,-1,958,1800,0,0
-259,-776,0,0,0,0,0,0,0,0,0,-1,965,1800,0,0
-252,-776,0,0,0,0,0,0,0,0,0,-1,972,1800,0,0
-245,-776,0,0,0,0,0,0,0,0,0,-1,979,1800,0,0
-238,-776,0,0,0,0,0,0,0,0,0,-1,986,1800,0,0
-231,-776,0,0,0,0,0,0,0,0,0,-1,993,1800,0,0
-224,-776,0,0,0,0,0,0,0,0,0,-1,1000,1800,0,0
-217,-776,0,0,0,0,0,0,0,0,0,-1,1007,1800,0,0
-210,-776,0,0,0,0,0,0,0,0,0,-1,1014,1800,0,0
-203,-776,0,0,0,0,0,0,0,0,0,-1,1021,1800,0,0
-196,-776,0,0,0,0,0,0,0,0,0,-1,1028,1800,0,0
-189,-776,0,0,0,0,0,0,0,0,0,-1,1035,1800,0,0
-182,-776,0,0,0,0,0,0,0,0,0,-1,1042,1800,0,0
-175,-776,0,0,0,0,0,0,0,0,0,-1,1049,1800,0,0
-168,-776,0,0,0,0,0,0,0,0,0,-1,1056,1800,0,0
-161,-776,0,0,0,0,0,0,0,0,0,-1,1063,1800,0,0
-154,-776,0,0,0,0,0,0,0,0,0,-1,1070,1800,0,0
-147,-776,0,0,0,0,0,0,0,0,0,-1,1077,1800,0,0
-140,-776,2.98499,5.20911,0,0,0,0,0,0,0,-1,1084,1800,2.98493,-5.2091
-133,-776,6.72363,9.35828,0,0,0,0,0,0,0,-1,1091,1800,6.72358,-9.35824
-126,-776,6.55029,13.7832,0,0,0,0,0,0,0,-1,1098,1800,6.55029,-13.7832
-119,-776,5.72107,13.7787,0,0,0,0,0,0,0,-1,1105,1800,5.72106,-13.7787
-112,-776,6.84998,20.4421,0,0,0,0,0,0,0,-1,1112,1800,6.84993,-20.4421
-105,-776,4.46863,24.6742,0,0,0,0,0,0,0,-1,1119,1800,4.46868,-24.6742
-98,-776,4.31616,19.7659,0,0,0,0,0,0,0,-1,1126,1800,4.31619,-19.7659
-91,-776,3.30225,18.134,0,0,0,0,0,0,0,-1,1133,1800,3.30222,-18.134
-84,-776,2.67932,14.3162,0,0,0,0,0,0,0,-1,1140,1800,2.67926,-14.3161
-77,-776,0.580078,11.1272,0,0,0,0,0,0,0,-1,1147,1800,0.58002,-11.1272
-70,-776,-0.562866,12.3163,0,0,0,0,0,0,0,-1,1154,1800,-0.562897,-12.3163
-63,-776,-3.96106,9.97656,0,0,0,0,0,0,0,-1,1161,1800,-3.961,-9.97654
-56,-776,-7.35913,7.63672,0,0,0,0,0,0,0,-1,1168,1800,-7.3591,-7.63676
-49,-776,-7.62952,3.1908,0,0,0,0,0,0,0,-1,1175,1800,-7.62955,-3.19076
-42,-776,-3.41272,3.0249,0,0,0,0,0,0,0,-1,1182,1800,-3.41269,-3.02488
-35,-776,-3.71753,1.63635,0,0,0,0,0,0,0,-1,1189,1800,-3.71755,-1.63631
-28,-776,-4.03979,0.716064,0,0,0,0,0,0,0,-1,1196,1800,-4.03977,-0.716055
-21,-776,10.4283,326.71,0,0,0,0,0,0,0,-1,1203,1800,10.4283,-326.71
-14,-776,11.2041,336.422,0,0,0,0,0,0,0,-1,1210,1800,11.2042,-336.422
-7,-776,10.3046,336.36,0,0,0,0,0,0,0,-1,1217,1800,10.3045,-336.36
0,-776,9.51868,331.443,0,0,0,0,0,0,0,-1,1224,1800,9.51871,-331.443
7,-776,9.34094,332.925,-0.0167479,0.0240195,0.017828,0.0307159,-0.0234443,1.21149,0.0313632,0.0467938,1231,1800,9.34095,-332.925
14,-776,9.18762,334.153,-0.0215677,0.0190316,0.0174119,0.0254761,-0.0280123,1.21631,0.0308931,0.0436556,1238,1800,9.18765,-334.153
21,-776,8.78613,335.427,-0.0266783,0.01423,0.0179681,0.0210013,-0.0334496,1.2104,0.0317099,0.0430991,1245,1800,8.78611,-335.427
28,-776,8.06323,336.531,-0.0318139,0.0109348,0.0189957,0.0181559,-0.039035,1.20752,0.0337447,0.042561,1252,1800,8.06326,-336.531
35,-776,7.55273,337.685,-0.0366391,0.011417,0.0208806,0.0192221,-0.0444442,1.21308,0.0377069,0.0429348,1259,1800,7.55276,-337.685
42,-776,6.87634,339.134,-0.0410035,0.0125182,0.0229072,0.0209835,-0.0494688,1.21681,0.0417692,0.0429524,1266,1800,6.8763,-339.134
49,-776,6.30444,340.702,-0.0432116,0.0166958,0.0212079,0.0234435,-0.0499594,1.26275,0.0432911,0.0454544,1273,1800,6.30442,-340.702
56,-776,5.20703,342.768,0,0,0,0,0,0,0,-1,1280,1800,5.20709,-342.768
63,-776,4.34924,344.588,0,0,0,0,0,0,0,-1,1287,1800,4.34928,-344.588
70,-776,3.67749,346.408,0,0,0,0,0,0,0,-1,1294,1800,3.67752,-346.408
77,-776,5.53992,335.556,0,0,0,0,0,0,0,-1,1301,1800,5.53989,-335.556
84,-776,6.15564,334.247,0,0,0,0,0,0,0,-1,1308,1800,6.15563,-334.247
91,-776,5.38586,333.184,0,0,0,0,0,0,0,-1,1315,1800,5.3859,-333.184
98,-776,4.26245,331.466,-0.0277281,0.0753715,-0.0510664,0.0963831,-0.0487396,-1.18045,0.0852784,0.0453515,1322,1800,4.26248,-331.466
105,-776,3.95447,330.077,-0.0226182,0.082224,-0.0674041,0.115192,-0.0555861,-1.1159,0.100581,0.0452005,1329,1800,3.95447,-330.077
112,-776,3.53223,328.874,-0.0180055,0.0867995,-0.0837474,0.133188,-0.0643939,-1.06496,0.116356,0.0463055,1336,1800,3.53219,-328.874
119,-776,3.4342,327.492,-0.0140057,0.0887774,-0.0985242,0.148508,-0.0737362,-1.02579,0.130711,0.0445654,1343,1800,3.4342,-327.492
126,-776,3.33142,326.002,-0.0108787,0.0870276,-0.110174,0.158634,-0.0824853,-0.994462,0.141506,0.046697,1350,1800,3.33139,-326.002
133,-776,3.41455,324.527,0,0,0,0,0,0,0,-1,1357,1800,3.41456,-324.527
140,-776,4.33044,330.692,0,0,0,0,0,0,0,-1,1364,1800,4.33044,-330.692
147,-776,0.229126,331.547,0,0,0,0,0,0,0,-1,1371,1800,0.22915,-331.547
154,-776,38.4338,21.854,0,0,0,0,0,0,0,-1,1378,1800,38.4339,-21.854
161,-776,6.50293,1.1731,0,0,0,0,0,0,0,-1,1385,1800,6.5029,-1.17313
168,-776,8.44971,1.22913,0,0,0,0,0,0,0,-1,1392,1800,8.44974,-1.22915
175,-776,8.61523,2.87061,0,0,0,0,0,0,0,-1,1399,1800,8.6152,-2.87063
182,-776,8.54065,4.60645,0,0,0,0,0,0,0,-1,1406,1800,8.5407,-4.60643
189,-776,8.35303,6.28223,0,0,0,0,0,0,0,-1,1413,1800,8.35297,-6.28225
196,-776,8.0387,8.21704,0,0,0,0,0,0,0,-1,1420,1800,8.03865,-8.217
203,-776,7.91736,9.79919,0,0,0,0,0,0,0,-1,1427,1800,7.91735,-9.79922
210,-776,20.2479,7.85718,0,0,0,0,0,0,0,-1,1434,1800,20.248,-7.85719
217,-776,21.5171,9.3418,0,0,0,0,0,0,0,-1,1441,1800,21.5171,-9.34182
224,-776,3.09253,14.9313,0,0,0,0,0,0,0,-1,1448,1800,3.09254,-14.9313
231,-776,20.8671,9.21057,0,0,0,0,0,0,0,-1,1455,1800,20.867,-9.21054
238,-776,20.7511,9.05847,0,0,0,0,0,0,0,-1,1462,1800,20.7511,-9.05848
245,-776,3.80823,15.4108,0,0,0,0,0,0,0,-1,1469,1800,3.80826,-15.4108
252,-776,8.57837,20.2009,0,0,0,0,0,0,0,-1,1476,1800,8.57841,-20.2009
259,-776,14.1882,7.69055,0,0,0,0,0,0,0,-1,1483,1800,14.1882,-7.69061
266,-776,0,0,0,0,0,0,0,0,0,-1,1490,1800,0,0
273,-776,0,0,0,0,0,0,0,0,0,-1,1497,1800,0,0
280,-776,0,0,0,0,0,0,0,0,0,-1,1504,1800,0,0
287,-776,0,0,0,0,0,0,0,0,0,-1,1511,1800,0,0
294,-776,0,0,0,0,0,0,0,0,0,-1,1518,1800,0,0
301,-776,0,0,0,0,0,0,0,0,0,-1,1525,1800,0,0
308,-776,0,0,0,0,0,0,0,0,0,-1,1532,1800,0,0
315,-776,0,0,0,0,0,0,0,0,0,-1,1539,1800,0,0
322,-776,0,0,0,0,0,0,0,0,0,-1,1546,1800,0,0
329,-776,0,0,0,0,0,0,0,0,0,-1,1553,1800,0,0
336,-776,0,0,0,0,0,0,0,0,0,-1,1560,1800,0,0
343,-776,0,0,0,0,0,0,0,0,0,-1,1567,1800,0,0
350,-776,0,0,0,0,0,0,0,0,0,-1,1574,1800,0,0
357,-776,0,0,0,0,0,0,0,0,0,-1,1581,1800,0,0
364,-776,0,0,0,0,0,0,0,0,0,-1,1588,1800,0,0
371,-776,0,0,0,0,0,0,0,0,0,-1,1595,1800,0,0
378,-776,0,0,0,0,0,0,0,0,0,-1,1602,1800,0,0
385,-776,0,0,0,0,0,0,0,0,0,-1,1609,1800,0,0
392,-776,0,0,0,0,0,0,0,0,0,-1,1616,1800,0,0
399,-776,0,0,0,0,0,0,0,0,0,-1,1623,1800,0,0
406,-776,0,0,0,0,0,0,0,0,0,-1,1630,1800,0,0
413,-776,0,0,0,0,0,0,0,0,0,-1,1637,1800,0,0
420,-776,0,0,0,0,0,0,0,0,0,-1,1644,1800,0,0
427,-776,0,0,0,0,0,0,0,0,0,-1,1651,1800,0,0
434,-776,0,0,0,0,0,0,0,0,0,-1,1658,1800,0,0
441,-776,0,0,0,0,0,0,0,0,0,-1,1665,1800,0,0
448,-776,0,0,0,0,0,0,0,0,0,-1,1672,1800,0,0
455,-776,0,0,0,0,0,0,0,0,0,-1,1679,1800,0,0
462,-776,0,0,0,0,0,0,0,0,0,-1,1686,1800,0,0
469,-776,0,0,0,0,0,0,0,0,0,-1,1693,1800,0,0
476,-776,0,0,0,0,0,0,0,0,0,-1,1700,1800,0,0
483,-776,0,0,0,0,0,0,0,0,0,-1,1707,1800,0,0
490,-776,0,0,0,0,0,0,0,0,0,-1,1714,1800,0,0
497,-776,0,0,0,0,0,0,0,0,0,-1,1721,1800,0,0
504,-776,0,0,0,0,0,0,0,0,0,-1,1728,1800,0,0
511,-776,0,0,0,0,0,0,0,0,0,-1,1735,1800,0,0
518,-776,0,0,0,0,0,0,0,0,0,-1,1742,1800,0,0
525,-776,0,0,0,0,0,0,0,0,0,-1,1749,1800,0,0
532,-776,0,0,0,0,0,0,0,0,0,-1,1756,1800,0,0
539,-776,0,0,0,0,0,0,0,0,0,-1,1763,1800,0,0
546,-776,0,0,0,0,0,0,0,0,0,-1,1770,1800,0,0
553,-776,0,0,0,0,0,0,0,0,0,-1,1777,1800,0,0
560,-776,0,0,0,0,0,0,0,0,0,-1,1784,1800,0,0
567,-776,0,0,0,0,0,0,0,0,0,-1,1791,1800,0,0
574,-776,0,0,0,0,0,0,0,0,0,-1,1798,1800,0,0
581,-776,0,0,0,0,0,0,0,0,0,-1,1805,1800,0,0
588,-776,0,0,0,0,0,0,0,0,0,-1,1812,1800,0,0
595,-776,0,0,0,0,0,0,0,0,0,-1,1819,1800,0,0
602,-776,0,0,0,0,0,0,0,0,0,-1,1826,1800,0,0
609,-776,0,0,0,0,0,0,0,0,0,-1,1833,1800,0,0
616,-776,0,0,0,0,0,0,0,0,0,-1,1840,1800,0,0
623,-776,0,0,0,0,0,0,0,0,0,-1,1847,1800,0,0
630,-776,0,0,0,0,0,0,0,0,0,-1,1854,1800,0,0
637,-776,0,0,0,0,0,0,0,0,0,-1,1861,1800,0,0
644,-776,0,0,0,0,0,0,0,0,0,-1,1868,1800,0,0
651,-776,0,0,0,0,0,0,0,0,0,-1,1875,1800,0,0
658,-776,0,0,0,0,0,0,0,0,0,-1,1882,1800,0,0
665,-776,0,0,0,0,0,0,0,0,0,-1,1889,1800,0,0
672,-776,0,0,0,0,0,0,0,0,0,-1,1896,1800,0,0
679,-776,0,0,0,0,0,0,0,0,0,-1,1903,1800,0,0
686,-776,0,0,0,0,0,0,0,0,0,-1,1910,1800,0,0
693,-776,0,0,0,0,0,0,0,0,0,-1,1917,1800,0,0
700,-776,0,0,0,0,0,0,0,0,0,-1,1924,1800,0,0
707,-776,0,0,0,0,0,0,0,0,0,-1,1931,1800,0,0
714,-776,0,0,0,0,0,0,0,0,0,-1,1938,1800,0,0
721,-776,0,0,0,0,0,0,0,0,0,-1,1945,1800,0,0
728,-776,0,0,0,0,0,0,0,0,0,-1,1952,1800,0,0
735,-776,0,0,0,0,0,0,0,0,0,-1,1959,1800,0,0
742,-776,0,0,0,0,0,0,0,0,0,-1,1966,1800,0,0
749,-776,0,0,0,0,0,0,0,0,0,-1,1973,1800,0,0
756,-776,0,0,0,0,0,0,0,0,0,-1,1980,1800,0,0
763,-776,0,0,0,0,0,0,0,0,0,-1,1987,1800,0,0
770,-776,0,0,0,0,0,0,0,0,0,-1,1994,1800,0,0
777,-776,0,0,0,0,0,0,0,0,0,-1,2001,1800,0,0
784,-776,0,0,0,0,0,0,0,0,0,-1,2008,1800,0,0
791,-776,0,0,0,0,0,0,0,0,0,-1,2015,1800,0,0
798,-776,0,0,0,0,0,0,0,0,0,-1,2022,1800,0,0
805,-776,0,0,0,0,0,0,0,0,0,-1,2029,1800,0,0
812,-776,0,0,0,0,0,0,0,0,0,-1,2036,1800,0,0
-700,-783,0,0,0,0,0,0,0,0,0,-1,524,1807,0,0
-693,-783,0,0,0,0,0,0,0,0,0,-1,531,1807,0,0
-686,-783,0,0,0,0,0,0,0,0,0,-1,538,1807,0,0
-679,-783,0,0,0,0,0,0,0,0,0,-1,545,1807,0,0
-672,-783,0,0,0,0,0,0,0,0,0,-1,552,1807,0,0
-665,-783,0,0,0,0,0,0,0,0,0,-1,559,1807,0,0
-658,-783,0,0,0,0,0,0,0,0,0,-1,566,1807,0,0
-651,-783,0,0,0,0,0,0,0,0,0,-1,573,1807,0,0
-644,-783,0,0,0,0,0,0,0,0,0,-1,580,1807,0,0
-637,-783,0,0,0,0,0,0,0,0,0,-1,587,1807,0,0
-630,-783,0,0,0,0,0,0,0,0,0,-1,594,1807,0,0
-623,-783,0,0,0,0,0,0,0,0,0,-1,601,1807,0,0
-616,-783,0,0,0,0,0,0,0,0,0,-1,608,1807,0,0
-609,-783,0,0,0,0,0,0,0,0,0,-1,615,1807,0,0
-602,-783,0,0,0,0,0,0,0,0,0,-1,622,1807,0,0
-595,-783,0,0,0,0,0,0,0,0,0,-1,629,1807,0,0
-588,-783,0,0,0,0,0,0,0,0,0,-1,636,1807,0,0
-581,-783,0,0,0,0,0,0,0,0,0,-1,643,1807,0,0
-574,-783,0,0,0,0,0,0,0,0,0,-1,650,1807,0,0
-567,-783,0,0,0,0,0,0,0,0,0,-1,657,1807,0,0
-560,-783,0,0,0,0,0,0,0,0,0,-1,664,1807,0,0
-553,-783,0,0,0,0,0,0,0,0,0,-1,671,1807,0,0
-546,-783,0,0,0,0,0,0,0,0,0,-1,678,1807,0,0
-539,-783,0,0,0,0,0,0,0,0,0,-1,685,1807,0,0
-532,-783,0,0,0,0,0,0,0,0,0,-1,692,1807,0,0
-525,-783,0,0,0,0,0,0,0,0,0,-1,699,1807,0,0
-518,-783,0,0,0,0,0,0,0,0,0,-1,706,1807,0,0
-511,-783,0,0,0,0,0,0,0,0,0,-1,713,1807,0,0
-504,-783,0,0,0,0,0,0,0,0,0,-1,720,1807,0,0
-497,-783,0,0,0,0,0,0,0,0,0,-1,727,1807,0,0
-490,-783,0,0,0,0,0,0,0,0,0,-1,734,1807,0,0
-483,-783,0,0,0,0,0,0,0,0,0,-1,741,1807,0,0
-476,-783,0,0,0,0,0,0,0,0,0,-1,748,1807,0,0
-469,-783,0,0,0,0,0,0,0,0,0,-1,755,1807,0,0
-462,-783,0,0,0,0,0,0,0,0,0,-1,762,1807,0,0
-455,-783,0,0,0,0,0,0,0,0,0,-1,769,1807,0,0
-448,-783,0,0,0,0,0,0,0,0,0,-1,776,1807,0,0
-441,-783,0,0,0,0,0,0,0,0,0,-1,783,1807,0,0
-434,-783,0,0,0,0,0,0,0,0,0,-1,790,1807,0,0
-427,-783,0,0,0,0,0,0,0,0,0,-1,797,1807,0,0
-420,-783,0,0,0,0,0,0,0,0,0,-1,804,1807,0,0
-413,-783,0,0,0,0,0,0,0,0,0,-1,811,1807,0,0
-406,-783,0,0,0,0,0,0,0,0,0,-1,818,1807,0,0
-399,-783,0,0,0,0,0,0,0,0,0,-1,825,1807,0,0
-392,-783,0,0,0,0,0,0,0,0,0,-1,832,1807,0,0
-385,-783,0,0,0,0,0,0,0,0,0,-1,839,1807,0,0
-378,-783,0,0,0,0,0,0,0,0,0,-1,846,1807,0,0
-371,-783,0,0,0,0,0,0,0,0,0,-1,853,1807,0,0
-364,-783,0,0,0,0,0,0,0,0,0,-1,860,1807,0,0
-357,-783,0,0,0,0,0,0,0,0,0,-1,867,1807,0,0
-350,-783,0,0,0,0,0,0,0,0,0,-1,874,1807,0,0
-343,-783,0,0,0,0,0,0,0,0,0,-1,881,1807,0,0
-336,-783,0,0,0,0,0,0,0,0,0,-1,888,1807,0,0
-329,-783,0,0,0,0,0,0,0,0,0,-1,895,1807,0,0
-322,-783,0,0,0,0,0,0,0,0,0,-1,902,1807,0,0
-315,-783,0,0,0,0,0,0,0,0,0,-1,909,1807,0,0
-308,-783,0,0,0,0,0,0,0,0,0,-1,916,1807,0,0
-301,-783,0,0,0,0,0,0,0,0,0,-1,923,1807,0,0
-294,-783,0,0,0,0,0,0,0,0,0,-1,930,1807,0,0
-287,-783,0,0,0,0,0,0,0,0,0,-1,937,1807,0,0
-280,-783,0,0,0,0,0,0,0,0,0,-1,944,1807,0,0
-273,-783,0,0,0,0,0,0,0,0,0,-1,951,1807,0,0
-266,-783,0,0,0,0,0,0,0,0,0,-1,958,1807,0,0
-259,-783,0,0,0,0,0,0,0,0,0,-1,965,1807,0,0
-252,-783,0,0,0,0,0,0,0,0,0,-1,972,1807,0,0
-245,-783,0,0,0,0,0,0,0,0,0,-1,979,1807,0,0
-238,-783,0,0,0,0,0,0,0,0,0,-1,986,1807,0,0
-231,-783,0,0,0,0,0,0,0,0,0,-1,993,1807,0,0
-224,-783,0,0,0,0,0,0,0,0,0,-1,1000,1807,0,0
-217,-783,0,0,0,0,0,0,0,0,0,-1,1007,1807,0,0
-210,-783,0,0,0,0,0,0,0,0,0,-1,1014,1807,0,0
-203,-783,0,0,0,0,0,0,0,0,0,-1,1021,1807,0,0
-196,-783,0,0,0,0,0,0,0,0,0,-1,1028,1807,0,0
-189,-783,0,0,0,0,0,0,0,0,0,-1,1035,1807,0,0
-182,-783,0,0,0,0,0,0,0,0,0,-1,1042,1807,0,0
-175,-783,0,0,0,0,0,0,0,0,0,-1,1049,1807,0,0
-168,-783,0,0,0,0,0,0,0,0,0,-1,1056,1807,0,0
-161,-783,0,0,0,0,0,0,0,0,0,-1,1063,1807,0,0
-154,-783,0,0,0,0,0,0,0,0,0,-1,1070,1807,0,0
-147,-783,0,0,0,0,0,0,0,0,0,-1,1077,1807,0,0
-140,-783,0,0,0,0,0,0,0,0,0,-1,1084,1807,0,0
-133,-783,0,0,0,0,0,0,0,0,0,-1,1091,1807,0,0
-126,-783,0,0,0,0,0,0,0,0,0,-1,1098,1807,0,0
-119,-783,0,0,0,0,0,0,0,0,0,-1,1105,1807,0,0
-112,-783,5.33936,14.7699,0,0,0,0,0,0,0,-1,1112,1807,5.33931,-14.7699
-105,-783,6.44263,21.2224,0,0,0,0,0,0,0,-1,1119,1807,6.44263,-21.2224
-98,-783,5.54773,20.5695,0,0,0,0,0,0,0,-1,1126,1807,5.54772,-20.5695
-91,-783,2.6106,20.2491,0,0,0,0,0,0,0,-1,1133,1807,2.61056,-20.2492
-84,-783,-0.0491943,14.5743,0,0,0,0,0,0,0,-1,1140,1807,-0.0491562,-14.5743
-77,-783,0.332764,12.7788,0,0,0,0,0,0,0,-1,1147,1807,0.332743,-12.7788
-70,-783,-1.93176,5.12817,0,0,0,0,0,0,0,-1,1154,1807,-1.93171,-5.12813
-63,-783,-5.31702,10.54,0,0,0,0,0,0,0,-1,1161,1807,-5.31703,-10.54
-56,-783,-6.26135,6.9679,0,0,0,0,0,0,0,-1,1168,1807,-6.26136,-6.96785
-49,-783,-3.17688,4.59705,0,0,0,0,0,0,0,-1,1175,1807,-3.17685,-4.5971
-42,-783,-3.72876,3.1405,0,0,0,0,0,0,0,-1,1182,1807,-3.72874,-3.14055
-35,-783,-3.97046,1.59399,0,0,0,0,0,0,0,-1,1189,1807,-3.97041,-1.59401
-28,-783,-4.12195,0.270386,0,0,0,0,0,0,0,-1,1196,1807,-4.12197,-0.270408
-21,-783,12.2783,335.835,0,0,0,0,0,0,0,-1,1203,1807,12.2783,-335.835
-14,-783,11.4941,335.899,0,0,0,0,0,0,0,-1,1210,1807,11.4941,-335.899
-7,-783,10.84,335.708,0,0,0,0,0,0,0,-1,1217,1807,10.84,-335.708
0,-783,10.6636,331.187,0,0,0,0,0,0,0,-1,1224,1807,10.6636,-331.187
7,-783,10.4022,332.559,-0.0166636,0.0253835,0.0219173,0.0347303,-0.0260104,1.16769,0.0351889,0.0456701,1231,1807,10.4022,-332.559
14,-783,10.0732,333.888,-0.0238268,0.0182525,0.0208282,0.0268182,-0.0323926,1.18062,0.0342359,0.0482645,1238,1807,10.0732,-333.888
21,-783,9.7168,335.29,-0.0314678,0.0119084,0.0211234,0.0204953,-0.0400546,1.18469,0.0355613,0.0486091,1245,1807,9.71678,-335.29
28,-783,9.34094,336.653,-0.0389892,0.00816877,0.0221688,0.0169537,-0.0477741,1.1935,0.0387571,0.0465768,1252,1807,9.34096,-336.653
35,-783,8.72668,338.049,-0.0458315,0.00928618,0.0242832,0.0184583,-0.0550036,1.20965,0.044128,0.0463204,1259,1807,8.72672,-338.049
42,-783,7.9292,339.523,-0.0519813,0.0114518,0.0267539,0.0212287,-0.0617583,1.22043,0.0497808,0.0436447,1266,1807,7.9292,-339.523
49,-783,7.24316,341.032,-0.055236,0.0171132,0.0250841,0.0249592,-0.063082,1.26765,0.052395,0.0433517,1273,1807,7.24318,-341.032
56,-783,6.45166,342.785,-0.0567916,0.0248215,0.0206748,0.0297601,-0.0617302,1.33632,0.0538862,0.044545,1280,1807,6.45167,-342.785
63,-783,5.62952,344.605,-0.0570021,0.0340075,0.0140304,0.0361214,-0.0591159,1.42126,0.055517,0.0477015,1287,1807,5.62948,-344.605
70,-783,4.92627,346.381,-0.0558491,0.0445628,0.00447459,0.0447618,-0.0560481,1.52635,0.0583241,0.0485458,1294,1807,4.92623,-346.381
77,-783,4.20203,348.16,0,0,0,0,0,0,0,-1,1301,1807,4.20203,-348.16
84,-783,3.59814,350.044,0,0,0,0,0,0,0,-1,1308,1807,3.59817,-350.044
91,-783,5.11536,332.087,0,0,0,0,0,0,0,-1,1315,1807,5.11536,-332.087
98,-783,4.79712,330.927,-0.0368789,0.0885699,-0.0603863,0.112914,-0.0612226,-1.18759,0.102003,0.0437825,1322,1807,4.79718,-330.927
105,-783,4.45508,329.603,-0.0304091,0.0965511,-0.0809055,0.135908,-0.0697659,-1.11804,0.120775,0.0465348,1329,1807,4.45507,-329.603
112,-783,4.32117,328.25,-0.0244351,0.10191,-0.101837,0.158577,-0.0811022,-1.06302,0.140768,0.046075,1336,1807,4.32115,-328.25
119,-783,4.21814,326.776,-0.0191701,0.104168,-0.12116,0.178451,-0.0934526,-1.0208,0.15952,0.0442128,1343,1807,4.21817,-326.776
126,-783,4.02197,325.372,0,0,0,0,0,0,0,-1,1350,1807,4.02199,-325.372
133,-783,11.3547,337.61,0,0,0,0,0,0,0,-1,1357,1807,11.3547,-337.61
140,-783,1.30151,325.153,0,0,0,0,0,0,0,-1,1364,1807,1.30147,-325.153
147,-783,0.589355,330.637,0,0,0,0,0,0,0,-1,1371,1807,0.589331,-330.637
154,-783,38.2109,17.545,0,0,0,0,0,0,0,-1,1378,1807,38.2109,-17.545
161,-783,39.5087,17.5449,0,0,0,0,0,0,0,-1,1385,1807,39.5087,-17.545
168,-783,8.62561,1.79944,0,0,0,0,0,0,0,-1,1392,1807,8.62561,-1.79946
175,-783,8.78699,3.40857,0,0,0,0,0,0,0,-1,1399,1807,8.78697,-3.40854
182,-783,8.70984,5.14661,0,0,0,0,0,0,0,-1,1406,1807,8.70989,-5.14666
189,-783,8.55762,6.79871,0,0,0,0,0,0,0,-1,1413,1807,8.55766,-6.79872
196,-783,8.25488,8.66626,0,0,0,0,0,0,0,-1,1420,1807,8.25492,-8.66628
203,-783,7.86755,10.5735,0,0,0,0,0,0,0,-1,1427,1807,7.8676,-10.5734
210,-783,5.6969,8.99231,0,0,0,0,0,0,0,-1,1434,1807,5.69693,-8.99234
217,-783,5.28503,3.80872,0,0,0,0,0,0,0,-1,1441,1807,5.285,-3.80868
224,-783,3.22571,6.62903,0,0,0,0,0,0,0,-1,1448,1807,3.2257,-6.62907
231,-783,4.27942,4.56262,0,0,0,0,0,0,0,-1,1455,1807,4.27948,-4.56267
238,-783,0,0,0,0,0,0,0,0,0,-1,1462,1807,0,0
245,-783,0,0,0,0,0,0,0,0,0,-1,1469,1807,0,0
252,-783,0,0,0,0,0,0,0,0,0,-1,1476,1807,0,0
259,-783,0,0,0,0,0,0,0,0,0,-1,1483,1807,0,0
266,-783,0,0,0,0,0,0,0,0,0,-1,1490,1807,0,0
273,-783,0,0,0,0,0,0,0,0,0,-1,1497,1807,0,0
280,-783,0,0,0,0,0,0,0,0,0,-1,1504,1807,0,0
287,-783,0,0,0,0,0,0,0,0,0,-1,1511,1807,0,0
294,-783,0,0,0,0,0,0,0,0,0,-1,1518,1807,0,0
301,-783,0,0,0,0,0,0,0,0,0,-1,1525,1807,0,0
308,-783,0,0,0,0,0,0,0,0,0,-1,1532,1807,0,0
315,-783,0,0,0,0,0,0,0,0,0,-1,1539,1807,0,0
322,-783,0,0,0,0,0,0,0,0,0,-1,1546,1807,0,0
329,-783,0,0,0,0,0,0,0,0,0,-1,1553,1807,0,0
336,-783,0,0,0,0,0,0,0,0,0,-1,1560,1807,0,0
343,-783,0,0,0,0,0,0,0,0,0,-1,1567,1807,0,0
350,-783,0,0,0,0,0,0,0,0,0,-1,1574,1807,0,0
357,-783,0,0,0,0,0,0,0,0,0,-1,1581,1807,0,0
364,-783,0,0,0,0,0,0,0,0,0,-1,1588,1807,0,0
371,-783,0,0,0,0,0,0,0,0,0,-1,1595,1807,0,0
378,-783,0,0,0,0,0,0,0,0,0,-1,1602,1807,0,0
385,-783,0,0,0,0,0,0,0,0,0,-1,1609,1807,0,0
392,-783,0,0,0,0,0,0,0,0,0,-1,1616,1807,0,0
399,-783,0,0,0,0,0,0,0,0,0,-1,1623,1807,0,0
406,-783,0,0,0,0,0,0,0,0,0,-1,1630,1807,0,0
413,-783,0,0,0,0,0,0,0,0,0,-1,1637,1807,0,0
420,-783,0,0,0,0,0,0,0,0,0,-1,1644,1807,0,0
427,-783,0,0,0,0,0,0,0,0,0,-1,1651,1807,0,0
434,-783,0,0,0,0,0,0,0,0,0,-1,1658,1807,0,0
441,-783,0,0,0,0,0,0,0,0,0,-1,1665,1807,0,0
448,-783,0,0,0,0,0,0,0,0,0,-1,1672,1807,0,0
455,-783,0,0,0,0,0,0,0,0,0,-1,1679,1807,0,0
462,-783,0,0,0,0,0,0,0,0,0,-1,1686,1807,0,0
469,-783,0,0,0,0,0,0,0,0,0,-1,1693,1807,0,0
476,-783,0,0,0,0,0,0,0,0,0,-1,1700,1807,0,0
483,-783,0,0,0,0,0,0,0,0,0,-1,1707,1807,0,0
490,-783,0,0,0,0,0,0,0,0,0,-1,1714,1807,0,0
497,-783,0,0,0,0,0,0,0,0,0,-1,1721,1807,0,0
504,-783,0,0,0,0,0,0,0,0,0,-1,1728,1807,0,0
511,-783,0,0,0,0,0,0,0,0,0,-1,1735,1807,0,0
518,-783,0,0,0,0,0,0,0,0,0,-1,1742,1807,0,0
525,-783,0,0,0,0,0,0,0,0,0,-1,1749,1807,0,0
532,-783,0,0,0,0,0,0,0,0,0,-1,1756,1807,0,0
539,-783,0,0,0,0,0,0,0,0,0,-1,1763,1807,0,0
546,-783,0,0,0,0,0,0,0,0,0,-1,1770,1807,0,0
553,-783,0,0,0,0,0,0,0,0,0,-1,1777,1807,0,0
560,-783,0,0,0,0,0,0,0,0,0,-1,1784,1807,0,0
567,-783,0,0,0,0,0,0,0,0,0,-1,1791,1807,0,0
574,-783,0,0,0,0,0,0,0,0,0,-1,1798,1807,0,0
581,-783,0,0,0,0,0,0,0,0,0,-1,1805,1807,0,0
588,-783,0,0,0,0,0,0,0,0,0,-1,1812,1807,0,0
595,-783,0,0,0,0,0,0,0,0,0,-1,1819,1807,0,0
602,-783,0,0,0,0,0,0,0,0,0,-1,1826,1807,0,0
609,-783,0,0,0,0,0,0,0,0,0,-1,1833,1807,0,0
616,-783,0,0,0,0,0,0,0,0,0,-1,1840,1807,0,0
623,-783,0,0,0,0,0,0,0,0,0,-1,1847,1807,0,0
630,-783,0,0,0,0,0,0,0,0,0,-1,1854,1807,0,0
637,-783,0,0,0,0,0,0,0,0,0,-1,1861,1807,0,0
644,-783,0,0,0,0,0,0,0,0,0,-1,1868,1807,0,0
651,-783,0,0,0,0,0,0,0,0,0,-1,1875,1807,0,0
658,-783,0,0,0,0,0,0,0,0,0,-1,1882,1807,0,0
665,-783,0,0,0,0,0,0,0,0,0,-1,1889,1807,0,0
672,-783,0,0,0,0,0,0,0,0,0,-1,1896,1807,0,0
679,-783,0,0,0,0,0,0,0,0,0,-1,1903,1807,0,0
686,-783,0,0,0,0,0,0,0,0,0,-1,1910,1807,0,0
693,-783,0,0,0,0,0,0,0,0,0,-1,1917,1807,0,0
700,-783,0,0,0,0,0,0,0,0,0,-1,1924,1807,0,0
707,-783,0,0,0,0,0,0,0,0,0,-1,1931,1807,0,0
714,-783,0,0,0,0,0,0,0,0,0,-1,1938,1807,0,0
721,-783,0,0,0,0,0,0,0,0,0,-1,1945,1807,0,0
728,-783,0,0,0,0,0,0,0,0,0,-1,1952,1807,0,0
735,-783,0,0,0,0,0,0,0,0,0,-1,1959,1807,0,0
742,-783,0,0,0,0,0,0,0,0,0,-1,1966,1807,0,0
749,-783,0,0,0,0,0,0,0,0,0,-1,1973,1807,0,0
756,-783,0,0,0,0,0,0,0,0,0,-1,1980,1807,0,0
763,-783,0,0,0,0,0,0,0,0,0,-1,1987,1807,0,0
770,-783,0,0,0,0,0,0,0,0,0,-1,1994,1807,0,0
777,-783,0,0,0,0,0,0,0,0,0,-1,2001,1807,0,0
784,-783,0,0,0,0,0,0,0,0,0,-1,2008,1807,0,0
791,-783,0,0,0,0,0,0,0,0,0,-1,2015,1807,0,0
798,-783,0,0,0,0,0,0,0,0,0,-1,2022,1807,0,0
805,-783,0,0,0,0,0,0,0,0,0,-1,2029,1807,0,0
812,-783,0,0,0,0,0,0,0,0,0,-1,2036,1807,0,0
-700,-790,0,0,0,0,0,0,0,0,0,-1,524,1814,0,0
-693,-790,0,0,0,0,0,0,0,0,0,-1,531,1814,0,0
-686,-790,0,0,0,0,0,0,0,0,0,-1,538,1814,0,0
-679,-790,0,0,0,0,0,0,0,0,0,-1,545,1814,0,0
-672,-790,0,0,0,0,0,0,0,0,0,-1,552,1814,0,0
-665,-790,0,0,0,0,0,0,0,0,0,-1,559,1814,0,0
-658,-790,0,0,0,0,0,0,0,0,0,-1,566,1814,0,0
-651,-790,0,0,0,0,0,0,0,0,0,-1,573,1814,0,0
-644,-790,0,0,0,0,0,0,0,0,0,-1,580,1814,0,0
-637,-790,0,0,0,0,0,0,0,0,0,-1,587,1814,0,0
-630,-790,0,0,0,0,0,0,0,0,0,-1,594,1814,0,0
-623,-790,0,0,0,0,0,0,0,0,0,-1,601,1814,0,0
-616,-790,0,0,0,0,0,0,0,0,0,-1,608,1814,0,0
-609,-790,0,0,0,0,0,0,0,0,0,-1,615,1814,0,0
-602,-790,0,0,0,0,0,0,0,0,0,-1,622,1814,0,0
-595,-790,0,0,0,0,0,0,0,0,0,-1,629,1814,0,0
-588,-790,0,0,0,0,0,0,0,0,0,-1,636,1814,0,0
-581,-790,0,0,0,0,0,0,0,0,0,-1,643,1814,0,0
-574,-790,0,0,0,0,0,0,0,0,0,-1,650,1814,0,0
-567,-790,0,0,0,0,0,0,0,0,0,-1,657,1814,0,0
-560,-790,0,0,0,0,0,0,0,0,0,-1,664,1814,0,0
-553,-790,0,0,0,0,0,0,0,0,0,-1,671,1814,0,0
-546,-790,0,0,0,0,0,0,0,0,0,-1,678,1814,0,0
-539,-790,0,0,0,0,0,0,0,0,0,-1,685,1814,0,0
-532,-790,0,0,0,0,0,0,0,0,0,-1,692,1814,0,0
-525,-790,0,0,0,0,0,0,0,0,0,-1,699,1814,0,0
-518,-790,0,0,0,0,0,0,0,0,0,-1,706,1814,0,0
-511,-790,0,0,0,0,0,0,0,0,0,-1,713,1814,0,0
-504,-790,0,0,0,0,0,0,0,0,0,-1,720,1814,0,0
-497,-790,0,0,0,0,0,0,0,0,0,-1,727,1814,0,0
-490,-790,0,0,0,0,0,0,0,0,0,-1,734,1814,0,0
-483,-790,0,0,0,0,0,0,0,0,0,-1,741,1814,0,0
-476,-790,0,0,0,0,0,0,0,0,0,-1,748,1814,0,0
-469,-790,0,0,0,0,0,0,0,0,0,-1,755,1814,0,0
-462,-790,0,0,0,0,0,0,0,0,0,-1,762,1814,0,0
-455,-790,0,0,0,0,0,0,0,0,0,-1,769,1814,0,0
-448,-790,0,0,0,0,0,0,0,0,0,-1,776,1814,0,0
-441,-790,0,0,0,0,0,0,0,0,0,-1,783,1814,0,0
-434,-790,0,0,0,0,0,0,0,0,0,-1,790,1814,0,0
-427,-790,0,0,0,0,0,0,0,0,0,-1,797,1814,0,0
-420,-790,0,0,0,0,0,0,0,0,0,-1,804,1814,0,0
-413,-790,0,0,0,0,0,0,0,0,0,-1,811,1814,0,0
-406,-790,0,0,0,0,0,0,0,0,0,-1,818,1814,0,0
-399,-790,0,0,0,0,0,0,0,0,0,-1,825,1814,0,0
-392,-790,0,0,0,0,0,0,0,0,0,-1,832,1814,0,0
-385,-790,0,0,0,0,0,0,0,0,0,-1,839,1814,0,0
-378,-790,0,0,0,0,0,0,0,0,0,-1,846,1814,0,0
-371,-790,0,0,0,0,0,0,0,0,0,-1,853,1814,0,0
-364,-790,0,0,0,0,0,0,0,0,0,-1,860,1814,0,0
-357,-790,0,0,0,0,0,0,0,0,0,-1,867,1814,0,0
-350,-790,0,0,0,0,0,0,0,0,0,-1,874,1814,0,0
-343,-790,0,0,0,0,0,0,0,0,0,-1,881,1814,0,0
-336,-790,0,0,0,0,0,0,0,0,0,-1,888,1814,0,0
-329,-790,0,0,0,0,0,0,0,0,0,-1,895,1814,0,0
-322,-790,0,0,0,0,0,0,0,0,0,-1,902,1814,0,0
-315,-790,0,0,0,0,0,0,0,0,0,-1,909,1814,0,0
-308,-790,0,0,0,0,0,0,0,0,0,-1,916,1814,0,0
-301,-790,0,0,0,0,0,0,0,0,0,-1,923,1814,0,0
-294,-790,0,0,0,0,0,0,0,0,0,-1,930,1814,0,0
-287,-790,0,0,0,0,0,0,0,0,0,-1,937,1814,0,0
-280,-790,0,0,0,0,0,0,0,0,0,-1,944,1814,0,0
-273,-790,0,0,0,0,0,0,0,0,0,-1,951,1814,0,0
-266,-790,0,0,0,0,0,0,0,0,0,-1,958,1814,0,0
-259,-790,0,0,0,0,0,0,0,0,0,-1,965,1814,0,0
-252,-790,0,0,0,0,0,0,0,0,0,-1,972,1814,0,0
-245,-790,0,0,0,0,0,0,0,0,0,-1,979,1814,0,0
-238,-790,0,0,0,0,0,0,0,0,0,-1,986,1814,0,0
-231,-790,0,0,0,0,0,0,0,0,0,-1,993,1814,0,0
-224,-790,0,0,0,0,0,0,0,0,0,-1,1000,1814,0,0
-217,-790,0,0,0,0,0,0,0,0,0,-1,1007,1814,0,0
-210,-790,0,0,0,0,0,0,0,0,0,-1,1014,1814,0,0
-203,-790,0,0,0,0,0,0,0,0,0,-1,1021,1814,0,0
-196,-790,0,0,0,0,0,0,0,0,0,-1,1028,1814,0,0
-189,-790,0,0,0,0,0,0,0,0,0,-1,1035,1814,0,0
-182,-790,0,0,0,0,0,0,0,0,0,-1,1042,1814,0,0
-175,-790,0,0,0,0,0,0,0,0,0,-1,1049,1814,0,0
-168,-790,0,0,0,0,0,0,0,0,0,-1,1056,1814,0,0
-161,-790,0,0,0,0,0,0,0,0,0,-1,1063,1814,0,0
-154,-790,0,0,0,0,0,0,0,0,0,-1,1070,1814,0,0
-147,-790,0,0,0,0,0,0,0,0,0,-1,1077,1814,0,0
-140,-790,0,0,0,0,0,0,0,0,0,-1,1084,1814,0,0
-133,-790,0,0,0,0,0,0,0,0,0,-1,1091,1814,0,0
-126,-790,0,0,0,0,0,0,0,0,0,-1,1098,1814,0,0
-119,-790,0,0,0,0,0,0,0,0,0,-1,1105,1814,0,0
-112,-790,0,0,0,0,0,0,0,0,0,-1,1112,1814,0,0
-105,-790,0,0,0,0,0,0,0,0,0,-1,1119,1814,0,0
-98,-790,0,0,0,0,0,0,0,0,0,-1,1126,1814,0,0
-91,-790,0,0,0,0,0,0,0,0,0,-1,1133,1814,0,0
-84,-790,0,0,0,0,0,0,0,0,0,-1,1140,1814,0,0
-77,-790,-0.969238,5.30847,0,0,0,0,0,0,0,-1,1147,1814,-0.969277,-5.3085
-70,-790,-1.23169,4.98914,0,0,0,0,0,0,0,-1,1154,1814,-1.23163,-4.98916
-63,-790,-1.69128,4.32263,0,0,0,0,0,0,0,-1,1161,1814,-1.69128,-4.32258
-56,-790,-2.24756,3.75305,0,0,0,0,0,0,0,-1,1168,1814,-2.24758,-3.75302
-49,-790,-3.11011,3.35779,0,0,0,0,0,0,0,-1,1175,1814,-3.11006,-3.35781
-42,-790,0.593262,1.19165,0,0,0,0,0,0,0,-1,1182,1814,0.593225,-1.19165
-35,-790,0.307129,-0.20105,0,0,0,0,0,0,0,-1,1189,1814,0.307178,0.201006
-28,-790,-2.78467,0.785156,0,0,0,0,0,0,0,-1,1196,1814,-2.78471,-0.785183
-21,-790,12.5262,334.778,0,0,0,0,0,0,0,-1,1203,1814,12.5263,-334.778
-14,-790,11.8977,334.968,0,0,0,0,0,0,0,-1,1210,1814,11.8976,-334.967
-7,-790,11.2151,335.165,0,0,0,0,0,0,0,-1,1217,1814,11.2151,-335.165
0,-790,11.709,330.799,0,0,0,0,0,0,0,-1,1224,1814,11.709,-330.799
7,-790,11.3953,332.239,-0.0124018,0.0256271,0.02609,0.0388964,-0.025671,1.1003,0.0375378,0.0440394,1231,1814,11.3952,-332.239
14,-790,10.9348,333.902,-0.0230416,0.0150125,0.0238125,0.026466,-0.0344951,1.12247,0.0352975,0.044898,1238,1814,10.9348,-333.902
21,-790,10.7281,335.486,-0.0342466,0.00677485,0.0236031,0.0175339,-0.0450056,1.1431,0.0372503,0.0469085,1245,1814,10.7281,-335.486
28,-790,10.6681,336.88,-0.0448006,0.00276136,0.0245166,0.0131359,-0.0551751,1.17048,0.0418549,0.0475729,1252,1814,10.6681,-336.88
35,-790,9.81787,338.375,0,0,0,0,0,0,0,-1,1259,1814,9.81785,-338.375
42,-790,9.078,339.992,-0.0625432,0.00831318,0.0296678,0.0190947,-0.0733246,1.22223,0.0563372,0.0459169,1266,1814,9.07805,-339.992
49,-790,8.11499,341.607,-0.0672325,0.015761,0.0283229,0.0245054,-0.0759769,1.27134,0.0604974,0.0456028,1273,1814,8.11493,-341.607
56,-790,7.2218,343.096,-0.0697441,0.0256315,0.0237297,0.0312093,-0.075322,1.33993,0.0632391,0.0450414,1280,1814,7.22177,-343.096
63,-790,6.62976,344.568,-0.0705023,0.0368671,0.017002,0.039495,-0.0731303,1.41744,0.0659838,0.0430741,1287,1814,6.62977,-344.568
70,-790,6.18481,346.326,-0.0694406,0.0497387,0.00673651,0.0501183,-0.0698202,1.51451,0.0695572,0.042401,1294,1814,6.18476,-346.326
77,-790,5.52551,348.113,-0.0665124,0.0635391,-0.00659955,0.0638731,-0.0668465,-1.52022,0.0754775,0.042462,1301,1814,5.52546,-348.113
84,-790,4.90063,350.015,-0.061837,0.0774903,-0.0231683,0.0812418,-0.0655885,-1.41026,0.084933,0.0442189,1308,1814,4.90061,-350.015
91,-790,4.45337,352.053,0,0,0,0,0,0,0,-1,1315,1814,4.45334,-352.053
98,-790,5.32935,330.423,-0.0459904,0.101347,-0.0704488,0.12961,-0.0742536,-1.18927,0.119138,0.0452617,1322,1814,5.32936,-330.423
105,-790,5.01038,329.232,-0.0378436,0.109982,-0.0959174,0.157161,-0.0850228,-1.11367,0.141878,0.0497047,1329,1814,5.01032,-329.232
112,-790,4.66821,328.025,0,0,0,0,0,0,0,-1,1336,1814,4.66827,-328.025
119,-790,5.02185,326.018,0,0,0,0,0,0,0,-1,1343,1814,5.02187,-326.018
126,-790,4.23132,325.167,0,0,0,0,0,0,0,-1,1350,1814,4.23133,-325.167
133,-790,3.91309,325.175,0,0,0,0,0,0,0,-1,1357,1814,3.91314,-325.175
140,-790,2.67065,324.056,0,0,0,0,0,0,0,-1,1364,1814,2.67066,-324.056
147,-790,1.53589,323.54,0,0,0,0,0,0,0,-1,1371,1814,1.53588,-323.54
154,-790,40.215,13.2396,0,0,0,0,0,0,0,-1,1378,1814,40.2149,-13.2396
161,-790,39.3429,13.0336,0,0,0,0,0,0,0,-1,1385,1814,39.3429,-13.0336
168,-790,7.04077,2.23279,0,0,0,0,0,0,0,-1,1392,1814,7.04082,-2.23275
175,-790,9.03918,3.98535,0,0,0,0,0,0,0,-1,1399,1814,9.0392,-3.98535
182,-790,8.96997,5.67896,0,0,0,0,0,0,0,-1,1406,1814,8.97001,-5.6789
189,-790,8.59729,6.86975,0,0,0,0,0,0,0,-1,1413,1814,8.59728,-6.86972
196,-790,8.21924,9.29053,0,0,0,0,0,0,0,-1,1420,1814,8.21924,-9.29048
203,-790,0,0,0,0,0,0,0,0,0,-1,1427,1814,0,0
210,-790,0,0,0,0,0,0,0,0,0,-1,1434,1814,0,0
217,-790,0,0,0,0,0,0,0,0,0,-1,1441,1814,0,0
224,-790,0,0,0,0,0,0,0,0,0,-1,1448,1814,0,0
231,-790,0,0,0,0,0,0,0,0,0,-1,1455,1814,0,0
238,-790,0,0,0,0,0,0,0,0,0,-1,1462,1814,0,0
245,-790,0,0,0,0,0,0,0,0,0,-1,1469,1814,0,0
252,-790,0,0,0,0,0,0,0,0,0,-1,1476,1814,0,0
259,-790,0,0,0,0,0,0,0,0,0,-1,1483,1814,0,0
266,-790,0,0,0,0,0,0,0,0,0,-1,1490,1814,0,0
273,-790,0,0,0,0,0,0,0,0,0,-1,1497,1814,0,0
280,-790,0,0,0,0,0,0,0,0,0,-1,1504,1814,0,0
287,-790,0,0,0,0,0,0,0,0,0,-1,1511,1814,0,0
294,-790,0,0,0,0,0,0,0,0,0,-1,1518,1814,0,0
301,-790,0,0,0,0,0,0,0,0,0,-1,1525,1814,0,0
308,-790,0,0,0,0,0,0,0,0,0,-1,1532,1814,0,0
315,-790,0,0,0,0,0,0,0,0,0,-1,1539,1814,0,0
322,-790,0,0,0,0,0,0,0,0,0,-1,1546,1814,0,0
329,-790,0,0,0,0,0,0,0,0,0,-1,1553,1814,0,0
336,-790,0,0,0,0,0,0,0,0,0,-1,1560,1814,0,0
343,-790,0,0,0,0,0,0,0,0,0,-1,1567,1814,0,0
350,-790,0,0,0,0,0,0,0,0,0,-1,1574,1814,0,0
357,-790,0,0,0,0,0,0,0,0,0,-1,1581,1814,0,0
364,-790,0,0,0,0,0,0,0,0,0,-1,1588,1814,0,0
371,-790,0,0,0,0,0,0,0,0,0,-1,1595,1814,0,0
378,-790,0,0,0,0,0,0,0,0,0,-1,1602,1814,0,0
385,-790,0,0,0,0,0,0,0,0,0,-1,1609,1814,0,0
392,-790,0,0,0,0,0,0,0,0,0,-1,1616,1814,0,0
399,-790,0,0,0,0,0,0,0,0,0,-1,1623,1814,0,0
406,-790,0,0,0,0,0,0,0,0,0,-1,1630,1814,0,0
413,-790,0,0,0,0,0,0,0,0,0,-1,1637,1814,0,0
420,-790,0,0,0,0,0,0,0,0,0,-1,1644,1814,0,0
427,-790,0,0,0,0,0,0,0,0,0,-1,1651,1814,0,0
434,-790,0,0,0,0,0,0,0,0,0,-1,1658,1814,0,0
441,-790,0,0,0,0,0,0,0,0,0,-1,1665,1814,0,0
448,-790,0,0,0,0,0,0,0,0,0,-1,1672,1814,0,0
455,-790,0,0,0,0,0,0,0,0,0,-1,1679,1814,0,0
462,-790,0,0,0,0,0,0,0,0,0,-1,1686,1814,0,0
469,-790,0,0,0,0,0,0,0,0,0,-1,1693,1814,0,0
476,-790,0,0,0,0,0,0,0,0,0,-1,1700,1814,0,0
483,-790,0,0,0,0,0,0,0,0,0,-1,1707,1814,0,0
490,-790,0,0,0,0,0,0,0,0,0,-1,1714,1814,0,0
497,-790,0,0,0,0,0,0,0,0,0,-1,1721,1814,0,0
504,-790,0,0,0,0,0,0,0,0,0,-1,1728,1814,0,0
511,-790,0,0,0,0,0,0,0,0,0,-1,1735,1814,0,0
518,-790,0,0,0,0,0,0,0,0,0,-1,1742,1814,0,0
525,-790,0,0,0,0,0,0,0,0,0,-1,1749,1814,0,0
532,-790,0,0,0,0,0,0,0,0,0,-1,1756,1814,0,0
539,-790,0,0,0,0,0,0,0,0,0,-1,1763,1814,0,0
546,-790,0,0,0,0,0,0,0,0,0,-1,1770,1814,0,0
553,-790,0,0,0,0,0,0,0,0,0,-1,1777,1814,0,0
560,-790,0,0,0,0,0,0,0,0,0,-1,1784,1814,0,0
567,-790,0,0,0,0,0,0,0,0,0,-1,1791,1814,0,0
574,-790,0,0,0,0,0,0,0,0,0,-1,1798,1814,0,0
581,-790,0,0,0,0,0,0,0,0,0,-1,1805,1814,0,0
588,-790,0,0,0,0,0,0,0,0,0,-1,1812,1814,0,0
595,-790,0,0,0,0,0,0,0,0,0,-1,1819,1814,0,0
602,-790,0,0,0,0,0,0,0,0,0,-1,1826,1814,0,0
609,-790,0,0,0,0,0,0,0,0,0,-1,1833,1814,0,0
616,-790,0,0,0,0,0,0,0,0,0,-1,1840,1814,0,0
623,-790,0,0,0,0,0,0,0,0,0,-1,1847,1814,0,0
630,-790,0,0,0,0,0,0,0,0,0,-1,1854,1814,0,0
637,-790,0,0,0,0,0,0,0,0,0,-1,1861,1814,0,0
644,-790,0,0,0,0,0,0,0,0,0,-1,1868,1814,0,0
651,-790,0,0,0,0,0,0,0,0,0,-1,1875,1814,0,0
658,-790,0,0,0,0,0,0,0,0,0,-1,1882,1814,0,0
665,-790,0,0,0,0,0,0,0,0,0,-1,1889,1814,0,0
672,-790,0,0,0,0,0,0,0,0,0,-1,1896,1814,0,0
679,-790,0,0,0,0,0,0,0,0,0,-1,1903,1814,0,0
686,-790,0,0,0,0,0,0,0,0,0,-1,1910,1814,0,0
693,-790,0,0,0,0,0,0,0,0,0,-1,1917,1814,0,0
700,-790,0,0,0,0,0,0,0,0,0,-1,1924,1814,0,0
707,-790,0,0,0,0,0,0,0,0,0,-1,1931,1814,0,0
714,-790,0,0,0,0,0,0,0,0,0,-1,1938,1814,0,0
721,-790,0,0,0,0,0,0,0,0,0,-1,1945,1814,0,0
728,-790,0,0,0,0,0,0,0,0,0,-1,1952,1814,0,0
735,-790,0,0,0,0,0,0,0,0,0,-1,1959,1814,0,0
742,-790,0,0,0,0,0,0,0,0,0,-1,1966,1814,0,0
749,-790,0,0,0,0,0,0,0,0,0,-1,1973,1814,0,0
756,-790,0,0,0,0,0,0,0,0,0,-1,1980,1814,0,0
763,-790,0,0,0,0,0,0,0,0,0,-1,1987,1814,0,0
770,-790,0,0,0,0,0,0,0,0,0,-1,1994,1814,0,0
777,-790,0,0,0,0,0,0,0,0,0,-1,2001,1814,0,0
784,-790,0,0,0,0,0,0,0,0,0,-1,2008,1814,0,0
791,-790,0,0,0,0,0,0,0,0,0,-1,2015,1814,0,0
798,-790,0,0,0,0,0,0,0,0,0,-1,2022,1814,0,0
805,-790,0,0,0,0,0,0,0,0,0,-1,2029,1814,0,0
812,-790,0,0,0,0,0,0,0,0,0,-1,2036,1814,0,0
-700,-797,0,0,0,0,0,0,0,0,0,-1,524,1821,0,0
-693,-797,0,0,0,0,0,0,0,0,0,-1,531,1821,0,0
-686,-797,0,0,0,0,0,0,0,0,0,-1,538,1821,0,0
-679,-797,0,0,0,0,0,0,0,0,0,-1,545,1821,0,0
-672,-797,0,0,0,0,0,0,0,0,0,-1,552,1821,0,0
-665,-797,0,0,0,0,0,0,0,0,0,-1,559,1821,0,0
-658,-797,0,0,0,0,0,0,0,0,0,-1,566,1821,0,0
-651,-797,0,0,0,0,0,0,0,0,0,-1,573,1821,0,0
-644,-797,0,0,0,0,0,0,0,0,0,-1,580,1821,0,0
-637,-797,0,0,0,0,0,0,0,0,0,-1,587,1821,0,0
-630,-797,0,0,0,0,0,0,0,0,0,-1,594,1821,0,0
-623,-797,0,0,0,0,0,0,0,0,0,-1,601,1821,0,0
-616,-797,0,0,0,0,0,0,0,0,0,-1,608,1821,0,0
-609,-797,0,0,0,0,0,0,0,0,0,-1,615,1821,0,0
-602,-797,0,0,0,0,0,0,0,0,0,-1,622,1821,0,0
-595,-797,0,0,0,0,0,0,0,0,0,-1,629,1821,0,0
-588,-797,0,0,0,0,0,0,0,0,0,-1,636,1821,0,0
-581,-797,0,0,0,0,0,0,0,0,0,-1,643,1821,0,0
-574,-797,0,0,0,0,0,0,0,0,0,-1,650,1821,0,0
-567,-797,0,0,0,0,0,0,0,0,0,-1,657,1821,0,0
-560,-797,0,0,0,0,0,0,0,0,0,-1,664,1821,0,0
-553,-797,0,0,0,0,0,0,0,0,0,-1,671,1821,0,0
-546,-797,0,0,0,0,0,0,0,0,0,-1,678,1821,0,0
-539,-797,0,0,0,0,0,0,0,0,0,-1,685,1821,0,0
-532,-797,0,0,0,0,0,0,0,0,0,-1,692,1821,0,0
-525,-797,0,0,0,0,0,0,0,0,0,-1,699,1821,0,0
-518,-797,0,0,0,0,0,0,0,0,0,-1,706,1821,0,0
-511,-797,0,0,0,0,0,0,0,0,0,-1,713,1821,0,0
-504,-797,0,0,0,0,0,0,0,0,0,-1,720,1821,0,0
-497,-797,0,0,0,0,0,0,0,0,0,-1,727,1821,0,0
-490,-797,0,0,0,0,0,0,0,0,0,-1,734,1821,0,0
-483,-797,0,0,0,0,0,0,0,0,0,-1,741,1821,0,0
-476,-797,0,0,0,0,0,0,0,0,0,-1,748,1821,0,0
-469,-797,0,0,0,0,0,0,0,0,0,-1,755,1821,0,0
-462,-797,0,0,0,0,0,0,0,0,0,-1,762,1821,0,0
-455,-797,0,0,0,0,0,0,0,0,0,-1,769,1821,0,0
-448,-797,0,0,0,0,0,0,0,0,0,-1,776,1821,0,0
-441,-797,0,0,0,0,0,0,0,0,0,-1,783,1821,0,0
-434,-797,0,0,0,0,0,0,0,0,0,-1,790,1821,0,0
-427,-797,0,0,0,0,0,0,0,0,0,-1,797,1821,0,0
-420,-797,0,0,0,0,0,0,0,0,0,-1,804,1821,0,0
-413,-797,0,0,0,0,0,0,0,0,0,-1,811,1821,0,0
-406,-797,0,0,0,0,0,0,0,0,0,-1,818,1821,0,0
-399,-797,0,0,0,0,0,0,0,0,0,-1,825,1821,0,0
-392,-797,0,0,0,0,0,0,0,0,0,-1,832,1821,0,0
-385,-797,0,0,0,0,0,0,0,0,0,-1,839,1821,0,0
-378,-797,0,0,0,0,0,0,0,0,0,-1,846,1821,0,0
-371,-797,0,0,0,0,0,0,0,0,0,-1,853,1821,0,0
-364,-797,0,0,0,0,0,0,0,0,0,-1,860,1821,0,0
-357,-797,0,0,0,0,0,0,0,0,0,-1,867,1821,0,0
-350,-797,0,0,0,0,0,0,0,0,0,-1,874,1821,0,0
-343,-797,0,0,0,0,0,0,0,0,0,-1,881,1821,0,0
-336,-797,0,0,0,0,0,0,0,0,0,-1,888,1821,0,0
-329,-797,0,0,0,0,0,0,0,0,0,-1,895,1821,0,0
-322,-797,0,0,0,0,0,0,0,0,0,-1,902,1821,0,0
-315,-797,0,0,0,0,0,0,0,0,0,-1,909,1821,0,0
-308,-797,0,0,0,0,0,0,0,0,0,-1,916,1821,0,0
-301,-797,0,0,0,0,0,0,0,0,0,-1,923,1821,0,0
-294,-797,0,0,0,0,0,0,0,0,0,-1,930,1821,0,0
-287,-797,0,0,0,0,0,0,0,0,0,-1,937,1821,0,0
-280,-797,0,0,0,0,0,0,0,0,0,-1,944,1821,0,0
-273,-797,0,0,0,0,0,0,0,0,0,-1,951,1821,0,0
-266,-797,0,0,0,0,0,0,0,0,0,-1,958,1821,0,0
-259,-797,0,0,0,0,0,0,0,0,0,-1,965,1821,0,0
-252,-797,0,0,0,0,0,0,0,0,0,-1,972,1821,0,0
-245,-797,0,0,0,0,0,0,0,0,0,-1,979,1821,0,0
-238,-797,0,0,0,0,0,0,0,0,0,-1,986,1821,0,0
-231,-797,0,0,0,0,0,0,0,0,0,-1,993,1821,0,0
-224,-797,0,0,0,0,0,0,0,0,0,-1,1000,1821,0,0
-217,-797,0,0,0,0,0,0,0,0,0,-1,1007,1821,0,0
-210,-797,0,0,0,0,0,0,0,0,0,-1,1014,1821,0,0
-203,-797,0,0,0,0,0,0,0,0,0,-1,1021,1821,0,0
-196,-797,0,0,0,0,0,0,0,0,0,-1,1028,1821,0,0
-189,-797,0,0,0,0,0,0,0,0,0,-1,1035,1821,0,0
-182,-797,0,0,0,0,0,0,0,0,0,-1,1042,1821,0,0
-175,-797,0,0,0,0,0,0,0,0,0,-1,1049,1821,0,0
-168,-797,0,0,0,0,0,0,0,0,0,-1,1056,1821,0,0
-161,-797,0,0,0,0,0,0,0,0,0,-1,1063,1821,0,0
-154,-797,0,0,0,0,0,0,0,0,0,-1,1070,1821,0,0
-147,-797,0,0,0,0,0,0,0,0,0,-1,1077,1821,0,0
-140,-797,0,0,0,0,0,0,0,0,0,-1,1084,1821,0,0
-133,-797,0,0,0,0,0,0,0,0,0,-1,1091,1821,0,0
-126,-797,0,0,0,0,0,0,0,0,0,-1,1098,1821,0,0
-119,-797,0,0,0,0,0,0,0,0,0,-1,1105,1821,0,0
-112,-797,0,0,0,0,0,0,0,0,0,-1,1112,1821,0,0
-105,-797,0,0,0,0,0,0,0,0,0,-1,1119,1821,0,0
-98,-797,0,0,0,0,0,0,0,0,0,-1,1126,1821,0,0
-91,-797,0,0,0,0,0,0,0,0,0,-1,1133,1821,0,0
-84,-797,0,0,0,0,0,0,0,0,0,-1,1140,1821,0,0
-77,-797,0,0,0,0,0,0,0,0,0,-1,1147,1821,0,0
-70,-797,0,0,0,0,0,0,0,0,0,-1,1154,1821,0,0
-63,-797,0,0,0,0,0,0,0,0,0,-1,1161,1821,0,0
-56,-797,0,0,0,0,0,0,0,0,0,-1,1168,1821,0,0
-49,-797,0,0,0,0,0,0,0,0,0,-1,1175,1821,0,0
-42,-797,0.579834,0.692871,0,0,0,0,0,0,0,-1,1182,1821,0.579856,-0.692816
-35,-797,-0.185425,5.55396,0,0,0,0,0,0,0,-1,1189,1821,-0.18542,-5.55396
-28,-797,-0.310181,4.71509,0,0,0,0,0,0,0,-1,1196,1821,-0.310228,-4.71503
-21,-797,12.4612,332.293,0,0,0,0,0,0,0,-1,1203,1821,12.4612,-332.293
-14,-797,12.8611,333.001,0,0,0,0,0,0,0,-1,1210,1821,12.8611,-333.001
-7,-797,11.9131,334.626,0,0,0,0,0,0,0,-1,1217,1821,11.9131,-334.626
0,-797,10.9983,334.543,0,0,0,0,0,0,0,-1,1224,1821,10.9983,-334.543
7,-797,12.4164,331.981,0,0,0,0,0,0,0,-1,1231,1821,12.4164,-331.981
14,-797,12.092,334.09,-0.018072,0.00689158,0.025329,0.0226473,-0.0338277,1.01433,0.0328181,0.0438592,1238,1821,12.092,-334.09
21,-797,12.0273,335.813,-0.0341095,-0.00289416,0.0242436,0.0103313,-0.047335,1.0714,0.0355051,0.044939,1245,1821,12.0274,-335.813
28,-797,12.3137,337.157,-0.0485382,-0.00647819,0.0247846,0.00499621,-0.0600126,1.13721,0.0417735,0.0438511,1252,1821,12.3138,-337.157
35,-797,12.8611,338.216,0,0,0,0,0,0,0,-1,1259,1821,12.8611,-338.216
42,-797,10.2894,340.32,0,0,0,0,0,0,0,-1,1266,1821,10.2895,-340.32
49,-797,9.25073,341.929,-0.0791171,0.0112912,0.0298707,0.0202689,-0.0880948,1.27883,0.0665235,0.0467679,1273,1821,9.25076,-341.929
56,-797,8.12695,343.023,-0.0831961,0.0236653,0.0257952,0.0295661,-0.0890969,1.34591,0.071326,0.0453041,1280,1821,8.12695,-343.023
63,-797,7.01282,344.177,-0.0849375,0.0373185,0.0198084,0.0404478,-0.0880668,1.41411,0.0758768,0.0447251,1287,1821,7.0128,-344.177
70,-797,5.92749,345.408,-0.0841785,0.0530241,0.00945917,0.0536732,-0.0848276,1.50229,0.080635,0.0430608,1294,1821,5.92746,-345.408
77,-797,5.02893,346.338,-0.0807846,0.0694953,-0.00504132,0.0696642,-0.0809536,-1.5373,0.0870406,0.0428132,1301,1821,5.02894,-346.338
84,-797,4.28284,346.896,-0.0749724,0.0855584,-0.024127,0.0891062,-0.0785202,-1.4248,0.0968434,0.0464087,1308,1821,4.28286,-346.896
91,-797,3.17029,347.485,0,0,0,0,0,0,0,-1,1315,1821,3.17024,-347.485
98,-797,5.69641,329.976,-0.0554778,0.112239,-0.0805516,0.14466,-0.0878983,-1.18815,0.135594,0.045379,1322,1821,5.69647,-329.976
105,-797,5.70752,328.568,-0.0452393,0.120831,-0.112273,0.177438,-0.101846,-1.1038,0.163202,0.0489145,1329,1821,5.70752,-328.568
112,-797,4.53894,327.049,0,0,0,0,0,0,0,-1,1336,1821,4.53892,-327.049
119,-797,5.96521,325.065,0,0,0,0,0,0,0,-1,1343,1821,5.96525,-325.065
126,-797,5.44238,324.441,0,0,0,0,0,0,0,-1,1350,1821,5.4424,-324.441
133,-797,4.96692,323.786,0,0,0,0,0,0,0,-1,1357,1821,4.96691,-323.786
140,-797,4.06909,323.019,0,0,0,0,0,0,0,-1,1364,1821,4.0691,-323.019
147,-797,2.96399,322.448,0,0,0,0,0,0,0,-1,1371,1821,2.96402,-322.448
154,-797,40.2623,8.88733,0,0,0,0,0,0,0,-1,1378,1821,40.2623,-8.88731
161,-797,42.2798,8.17371,0,0,0,0,0,0,0,-1,1385,1821,42.2798,-8.17367
168,-797,0,0,0,0,0,0,0,0,0,-1,1392,1821,0,0
175,-797,0,0,0,0,0,0,0,0,0,-1,1399,1821,0,0
182,-797,0,0,0,0,0,0,0,0,0,-1,1406,1821,0,0
189,-797,0,0,0,0,0,0,0,0,0,-1,1413,1821,0,0
196,-797,0,0,0,0,0,0,0,0,0,-1,1420,1821,0,0
203,-797,0,0,0,0,0,0,0,0,0,-1,1427,1821,0,0
210,-797,0,0,0,0,0,0,0,0,0,-1,1434,1821,0,0
217,-797,0,0,0,0,0,0,0,0,0,-1,1441,1821,0,0
224,-797,0,0,0,0,0,0,0,0,0,-1,1448,1821,0,0
231,-797,0,0,0,0,0,0,0,0,0,-1,1455,1821,0,0
238,-797,0,0,0,0,0,0,0,0,0,-1,1462,1821,0,0
245,-797,0,0,0,0,0,0,0,0,0,-1,1469,1821,0,0
252,-797,0,0,0,0,0,0,0,0,0,-1,1476,1821,0,0
259,-797,0,0,0,0,0,0,0,0,0,-1,1483,1821,0,0
266,-797,0,0,0,0,0,0,0,0,0,-1,1490,1821,0,0
273,-797,0,0,0,0,0,0,0,0,0,-1,1497,1821,0,0
280,-797,0,0,0,0,0,0,0,0,0,-1,1504,1821,0,0
287,-797,0,0,0,0,0,0,0,0,0,-1,1511,1821,0,0
294,-797,0,0,0,0,0,0,0,0,0,-1,1518,1821,0,0
301,-797,0,0,0,0,0,0,0,0,0,-1,1525,1821,0,0
308,-797,0,0,0,0,0,0,0,0,0,-1,1532,1821,0,0
315,-797,0,0,0,0,0,0,0,0,0,-1,1539,1821,0,0
322,-797,0,0,0,0,0,0,0,0,0,-1,1546,1821,0,0
329,-797,0,0,0,0,0,0,0,0,0,-1,1553,1821,0,0
336,-797,0,0,0,0,0,0,0,0,0,-1,1560,1821,0,0
343,-797,0,0,0,0,0,0,0,0,0,-1,1567,1821,0,0
350,-797,0,0,0,0,0,0,0,0,0,-1,1574,1821,0,0
357,-797,0,0,0,0,0,0,0,0,0,-1,1581,1821,0,0
364,-797,0,0,0,0,0,0,0,0,0,-1,1588,1821,0,0
371,-797,0,0,0,0,0,0,0,0,0,-1,1595,1821,0,0
378,-797,0,0,0,0,0,0,0,0,0,-1,1602,1821,0,0
385,-797,0,0,0,0,0,0,0,0,0,-1,1609,1821,0,0
392,-797,0,0,0,0,0,0,0,0,0,-1,1616,1821,0,0
399,-797,0,0,0,0,0,0,0,0,0,-1,1623,1821,0,0
406,-797,0,0,0,0,0,0,0,0,0,-1,1630,1821,0,0
413,-797,0,0,0,0,0,0,0,0,0,-1,1637,1821,0,0
420,-797,0,0,0,0,0,0,0,0,0,-1,1644,1821,0,0
427,-797,0,0,0,0,0,0,0,0,0,-1,1651,1821,0,0
434,-797,0,0,0,0,0,0,0,0,0,-1,1658,1821,0,0
441,-797,0,0,0,0,0,0,0,0,0,-1,1665,1821,0,0
448,-797,0,0,0,0,0,0,0,0,0,-1,1672,1821,0,0
455,-797,0,0,0,0,0,0,0,0,0,-1,1679,1821,0,0
462,-797,0,0,0,0,0,0,0,0,0,-1,1686,1821,0,0
469,-797,0,0,0,0,0,0,0,0,0,-1,1693,1821,0,0
476,-797,0,0,0,0,0,0,0,0,0,-1,1700,1821,0,0
483,-797,0,0,0,0,0,0,0,0,0,-1,1707,1821,0,0
490,-797,0,0,0,0,0,0,0,0,0,-1,1714,1821,0,0
497,-797,0,0,0,0,0,0,0,0,0,-1,1721,1821,0,0
504,-797,0,0,0,0,0,0,0,0,0,-1,1728,1821,0,0
511,-797,0,0,0,0,0,0,0,0,0,-1,1735,1821,0,0
518,-797,0,0,0,0,0,0,0,0,0,-1,1742,1821,0,0
525,-797,0,0,0,0,0,0,0,0,0,-1,1749,1821,0,0
532,-797,0,0,0,0,0,0,0,0,0,-1,1756,1821,0,0
539,-797,0,0,0,0,0,0,0,0,0,-1,1763,1821,0,0
546,-797,0,0,0,0,0,0,0,0,0,-1,1770,1821,0,0
553,-797,0,0,0,0,0,0,0,0,0,-1,1777,1821,0,0
560,-797,0,0,0,0,0,0,0,0,0,-1,1784,1821,0,0
567,-797,0,0,0,0,0,0,0,0,0,-1,1791,1821,0,0
574,-797,0,0,0,0,0,0,0,0,0,-1,1798,1821,0,0
581,-797,0,0,0,0,0,0,0,0,0,-1,1805,1821,0,0
588,-797,0,0,0,0,0,0,0,0,0,-1,1812,1821,0,0
595,-797,0,0,0,0,0,0,0,0,0,-1,1819,1821,0,0
602,-797,0,0,0,0,0,0,0,0,0,-1,1826,1821,0,0
609,-797,0,0,0,0,0,0,0,0,0,-1,1833,1821,0,0
616,-797,0,0,0,0,0,0,0,0,0,-1,1840,1821,0,0
623,-797,0,0,0,0,0,0,0,0,0,-1,1847,1821,0,0
630,-797,0,0,0,0,0,0,0,0,0,-1,1854,1821,0,0
637,-797,0,0,0,0,0,0,0,0,0,-1,1861,1821,0,0
644,-797,0,0,0,0,0,0,0,0,0,-1,1868,1821,0,0
651,-797,0,0,0,0,0,0,0,0,0,-1,1875,1821,0,0
658,-797,0,0,0,0,0,0,0,0,0,-1,1882,1821,0,0
665,-797,0,0,0,0,0,0,0,0,0,-1,1889,1821,0,0
672,-797,0,0,0,0,0,0,0,0,0,-1,1896,1821,0,0
679,-797,0,0,0,0,0,0,0,0,0,-1,1903,1821,0,0
686,-797,0,0,0,0,0,0,0,0,0,-1,1910,1821,0,0
693,-797,0,0,0,0,0,0,0,0,0,-1,1917,1821,0,0
700,-797,0,0,0,0,0,0,0,0,0,-1,1924,1821,0,0
707,-797,0,0,0,0,0,0,0,0,0,-1,1931,1821,0,0
714,-797,0,0,0,0,0,0,0,0,0,-1,1938,1821,0,0
721,-797,0,0,0,0,0,0,0,0,0,-1,1945,1821,0,0
728,-797,0,0,0,0,0,0,0,0,0,-1,1952,1821,0,0
735,-797,0,0,0,0,0,0,0,0,0,-1,1959,1821,0,0
742,-797,0,0,0,0,0,0,0,0,0,-1,1966,1821,0,0
749,-797,0,0,0,0,0,0,0,0,0,-1,1973,1821,0,0
756,-797,0,0,0,0,0,0,0,0,0,-1,1980,1821,0,0
763,-797,0,0,0,0,0,0,0,0,0,-1,1987,1821,0,0
770,-797,0,0,0,0,0,0,0,0,0,-1,1994,1821,0,0
777,-797,0,0,0,0,0,0,0,0,0,-1,2001,1821,0,0
784,-797,0,0,0,0,0,0,0,0,0,-1,2008,1821,0,0
791,-797,0,0,0,0,0,0,0,0,0,-1,2015,1821,0,0
798,-797,0,0,0,0,0,0,0,0,0,-1,2022,1821,0,0
805,-797,0,0,0,0,0,0,0,0,0,-1,2029,1821,0,0
812,-797,0,0,0,0,0,0,0,0,0,-1,2036,1821,0,0
-700,-804,0,0,0,0,0,0,0,0,0,-1,524,1828,0,0
-693,-804,0,0,0,0,0,0,0,0,0,-1,531,1828,0,0
-686,-804,0,0,0,0,0,0,0,0,0,-1,538,1828,0,0
-679,-804,0,0,0,0,0,0,0,0,0,-1,545,1828,0,0
-672,-804,0,0,0,0,0,0,0,0,0,-1,552,1828,0,0
-665,-804,0,0,0,0,0,0,0,0,0,-1,559,1828,0,0
-658,-804,0,0,0,0,0,0,0,0,0,-1,566,1828,0,0
-651,-804,0,0,0,0,0,0,0,0,0,-1,573,1828,0,0
-644,-804,0,0,0,0,0,0,0,0,0,-1,580,1828,0,0
-637,-804,0,0,0,0,0,0,0,0,0,-1,587,1828,0,0
-630,-804,0,0,0,0,0,0,0,0,0,-1,594,1828,0,0
-623,-804,0,0,0,0,0,0,0,0,0,-1,601,1828,0,0
-616,-804,0,0,0,0,0,0,0,0,0,-1,608,1828,0,0
-609,-804,0,0,0,0,0,0,0,0,0,-1,615,1828,0,0
-602,-804,0,0,0,0,0,0,0,0,0,-1,622,1828,0,0
-595,-804,0,0,0,0,0,0,0,0,0,-1,629,1828,0,0
-588,-804,0,0,0,0,0,0,0,0,0,-1,636,1828,0,0
-581,-804,0,0,0,0,0,0,0,0,0,-1,643,1828,0,0
-574,-804,0,0,0,0,0,0,0,0,0,-1,650,1828,0,0
-567,-804,0,0,0,0,0,0,0,0,0,-1,657,1828,0,0
-560,-804,0,0,0,0,0,0,0,0,0,-1,664,1828,0,0
-553,-804,0,0,0,0,0,0,0,0,0,-1,671,1828,0,0
-546,-804,0,0,0,0,0,0,0,0,0,-1,678,1828,0,0
-539,-804,0,0,0,0,0,0,0,0,0,-1,685,1828,0,0
-532,-804,0,0,0,0,0,0,0,0,0,-1,692,1828,0,0
-525,-804,0,0,0,0,0,0,0,0,0,-1,699,1828,0,0
-518,-804,0,0,0,0,0,0,0,0,0,-1,706,1828,0,0
-511,-804,0,0,0,0,0,0,0,0,0,-1,713,1828,0,0
-504,-804,0,0,0,0,0,0,0,0,0,-1,720,1828,0,0
-497,-804,0,0,0,0,0,0,0,0,0,-1,727,1828,0,0
-490,-804,0,0,0,0,0,0,0,0,0,-1,734,1828,0,0
-483,-804,0,0,0,0,0,0,0,0,0,-1,741,1828,0,0
-476,-804,0,0,0,0,0,0,0,0,0,-1,748,1828,0,0
-469,-804,0,0,0,0,0,0,0,0,0,-1,755,1828,0,0
-462,-804,0,0,0,0,0,0,0,0,0,-1,762,1828,0,0
-455,-804,0,0,0,0,0,0,0,0,0,-1,769,1828,0,0
-448,-804,0,0,0,0,0,0,0,0,0,-1,776,1828,0,0
-441,-804,0,0,0,0,0,0,0,0,0,-1,783,1828,0,0
-434,-804,0,0,0,0,0,0,0,0,0,-1,790,1828,0,0
-427,-804,0,0,0,0,0,0,0,0,0,-1,797,1828,0,0
-420,-804,0,0,0,0,0,0,0,0,0,-1,804,1828,0,0
-413,-804,0,0,0,0,0,0,0,0,0,-1,811,1828,0,0
-406,-804,0,0,0,0,0,0,0,0,0,-1,818,1828,0,0
-399,-804,0,0,0,0,0,0,0,0,0,-1,825,1828,0,0
-392,-804,0,0,0,0,0,0,0,0,0,-1,832,1828,0,0
-385,-804,0,0,0,0,0,0,0,0,0,-1,839,1828,0,0
-378,-804,0,0,0,0,0,0,0,0,0,-1,846,1828,0,0
-371,-804,0,0,0,0,0,0,0,0,0,-1,853,1828,0,0
-364,-804,0,0,0,0,0,0,0,0,0,-1,860,1828,0,0
-357,-804,0,0,0,0,0,0,0,0,0,-1,867,1828,0,0
-350,-804,0,0,0,0,0,0,0,0,0,-1,874,1828,0,0
-343,-804,0,0,0,0,0,0,0,0,0,-1,881,1828,0,0
-336,-804,0,0,0,0,0,0,0,0,0,-1,888,1828,0,0
-329,-804,0,0,0,0,0,0,0,0,0,-1,895,1828,0,0
-322,-804,0,0,0,0,0,0,0,0,0,-1,902,1828,0,0
-315,-804,0,0,0,0,0,0,0,0,0,-1,909,1828,0,0
-308,-804,0,0,0,0,0,0,0,0,0,-1,916,1828,0,0
-301,-804,0,0,0,0,0,0,0,0,0,-1,923,1828,0,0
-294,-804,0,0,0,0,0,0,0,0,0,-1,930,1828,0,0
-287,-804,0,0,0,0,0,0,0,0,0,-1,937,1828,0,0
-280,-804,0,0,0,0,0,0,0,0,0,-1,944,1828,0,0
-273,-804,0,0,0,0,0,0,0,0,0,-1,951,1828,0,0
-266,-804,0,0,0,0,0,0,0,0,0,-1,958,1828,0,0
-259,-804,0,0,0,0,0,0,0,0,0,-1,965,1828,0,0
-252,-804,0,0,0,0,0,0,0,0,0,-1,972,1828,0,0
-245,-804,0,0,0,0,0,0,0,0,0,-1,979,1828,0,0
-238,-804,0,0,0,0,0,0,0,0,0,-1,986,1828,0,0
-231,-804,0,0,0,0,0,0,0,0,0,-1,993,1828,0,0
-224,-804,0,0,0,0,0,0,0,0,0,-1,1000,1828,0,0
-217,-804,0,0,0,0,0,0,0,0,0,-1,1007,1828,0,0
-210,-804,0,0,0,0,0,0,0,0,0,-1,1014,1828,0,0
-203,-804,0,0,0,0,0,0,0,0,0,-1,1021,1828,0,0
-196,-804,0,0,0,0,0,0,0,0,0,-1,1028,1828,0,0
-189,-804,0,0,0,0,0,0,0,0,0,-1,1035,1828,0,0
-182,-804,0,0,0,0,0,0,0,0,0,-1,1042,1828,0,0
-175,-804,0,0,0,0,0,0,0,0,0,-1,1049,1828,0,0
-168,-804,0,0,0,0,0,0,0,0,0,-1,1056,1828,0,0
-161,-804,0,0,0,0,0,0,0,0,0,-1,1063,1828,0,0
-154,-804,0,0,0,0,0,0,0,0,0,-1,1070,1828,0,0
-147,-804,0,0,0,0,0,0,0,0,0,-1,1077,1828,0,0
-140,-804,0,0,0,0,0,0,0,0,0,-1,1084,1828,0,0
-133,-804,0,0,0,0,0,0,0,0,0,-1,1091,1828,0,0
-126,-804,0,0,0,0,0,0,0,0,0,-1,1098,1828,0,0
-119,-804,0,0,0,0,0,0,0,0,0,-1,1105,1828,0,0
-112,-804,0,0,0,0,0,0,0,0,0,-1,1112,1828,0,0
-105,-804,0,0,0,0,0,0,0,0,0,-1,1119,1828,0,0
-98,-804,0,0,0,0,0,0,0,0,0,-1,1126,1828,0,0
-91,-804,0,0,0,0,0,0,0,0,0,-1,1133,1828,0,0
-84,-804,0,0,0,0,0,0,0,0,0,-1,1140,1828,0,0
-77,-804,0,0,0,0,0,0,0,0,0,-1,1147,1828,0,0
-70,-804,0,0,0,0,0,0,0,0,0,-1,1154,1828,0,0
-63,-804,0,0,0,0,0,0,0,0,0,-1,1161,1828,0,0
-56,-804,0,0,0,0,0,0,0,0,0,-1,1168,1828,0,0
-49,-804,0,0,0,0,0,0,0,0,0,-1,1175,1828,0,0
-42,-804,0,0,0,0,0,0,0,0,0,-1,1182,1828,0,0
-35,-804,0,0,0,0,0,0,0,0,0,-1,1189,1828,0,0
-28,-804,0,0,0,0,0,0,0,0,0,-1,1196,1828,0,0
-21,-804,0,0,0,0,0,0,0,0,0,-1,1203,1828,0,0
-14,-804,0,0,0,0,0,0,0,0,0,-1,1210,1828,0,0
-7,-804,0,0,0,0,0,0,0,0,0,-1,1217,1828,0,0
0,-804,0,0,0,0,0,0,0,0,0,-1,1224,1828,0,0
7,-804,0,0,0,0,0,0,0,0,0,-1,1231,1828,0,0
14,-804,0,0,0,0,0,0,0,0,0,-1,1238,1828,0,0
21,-804,0,0,0,0,0,0,0,0,0,-1,1245,1828,0,0
28,-804,0,0,0,0,0,0,0,0,0,-1,1252,1828,0,0
35,-804,12.483,339.901,0,0,0,0,0,0,0,-1,1259,1828,12.483,-339.9
42,-804,11.5223,341.232,0,0,0,0,0,0,0,-1,1266,1828,11.5223,-341.232
49,-804,10.5487,342.449,-0.090469,0.0010202,0.0261592,0.00797165,-0.0974205,1.31106,0.0677607,0.0455006,1273,1828,10.5487,-342.449
56,-804,9.48181,343.509,-0.0975258,0.0160096,0.0245846,0.0211044,-0.102621,1.36645,0.0764262,0.0470832,1280,1828,9.4818,-343.509
63,-804,8.43567,344.486,-0.101317,0.032411,0.02151,0.0357857,-0.104692,1.41518,0.0842944,0.0481912,1287,1828,8.43568,-344.486
70,-804,7.34595,345.467,0,0,0,0,0,0,0,-1,1294,1828,7.34592,-345.467
77,-804,6.18848,346.659,-0.0975373,0.0714663,-0.00188102,0.0714872,-0.0975582,-1.55967,0.0979846,0.0476623,1301,1828,6.18847,-346.659
84,-804,5.28113,347.572,-0.0901337,0.0893637,-0.0231342,0.0922974,-0.0930674,-1.44466,0.107021,0.0473397,1308,1828,5.28113,-347.572
91,-804,0,0,0,0,0,0,0,0,0,-1,1315,1828,0,0
98,-804,0,0,0,0,0,0,0,0,0,-1,1322,1828,0,0
105,-804,0,0,0,0,0,0,0,0,0,-1,1329,1828,0,0
112,-804,0,0,0,0,0,0,0,0,0,-1,1336,1828,0,0
119,-804,0,0,0,0,0,0,0,0,0,-1,1343,1828,0,0
126,-804,0,0,0,0,0,0,0,0,0,-1,1350,1828,0,0
133,-804,0,0,0,0,0,0,0,0,0,-1,1357,1828,0,0
140,-804,0,0,0,0,0,0,0,0,0,-1,1364,1828,0,0
147,-804,0,0,0,0,0,0,0,0,0,-1,1371,1828,0,0
154,-804,0,0,0,0,0,0,0,0,0,-1,1378,1828,0,0
161,-804,0,0,0,0,0,0,0,0,0,-1,1385,1828,0,0
168,-804,0,0,0,0,0,0,0,0,0,-1,1392,1828,0,0
175,-804,0,0,0,0,0,0,0,0,0,-1,1399,1828,0,0
182,-804,0,0,0,0,0,0,0,0,0,-1,1406,1828,0,0
189,-804,0,0,0,0,0,0,0,0,0,-1,1413,1828,0,0
196,-804,0,0,0,0,0,0,0,0,0,-1,1420,1828,0,0
203,-804,0,0,0,0,0,0,0,0,0,-1,1427,1828,0,0
210,-804,0,0,0,0,0,0,0,0,0,-1,1434,1828,0,0
217,-804,0,0,0,0,0,0,0,0,0,-1,1441,1828,0,0
224,-804,0,0,0,0,0,0,0,0,0,-1,1448,1828,0,0
231,-804,0,0,0,0,0,0,0,0,0,-1,1455,1828,0,0
238,-804,0,0,0,0,0,0,0,0,0,-1,1462,1828,0,0
245,-804,0,0,0,0,0,0,0,0,0,-1,1469,1828,0,0
252,-804,0,0,0,0,0,0,0,0,0,-1,1476,1828,0,0
259,-804,0,0,0,0,0,0,0,0,0,-1,1483,1828,0,0
266,-804,0,0,0,0,0,0,0,0,0,-1,1490,1828,0,0
273,-804,0,0,0,0,0,0,0,0,0,-1,1497,1828,0,0
280,-804,0,0,0,0,0,0,0,0,0,-1,1504,1828,0,0
287,-804,0,0,0,0,0,0,0,0,0,-1,1511,1828,0,0
294,-804,0,0,0,0,0,0,0,0,0,-1,1518,1828,0,0
301,-804,0,0,0,0,0,0,0,0,0,-1,1525,1828,0,0
308,-804,0,0,0,0,0,0,0,0,0,-1,1532,1828,0,0
315,-804,0,0,0,0,0,0,0,0,0,-1,1539,1828,0,0
322,-804,0,0,0,0,0,0,0,0,0,-1,1546,1828,0,0
329,-804,0,0,0,0,0,0,0,0,0,-1,1553,1828,0,0
336,-804,0,0,0,0,0,0,0,0,0,-1,1560,1828,0,0
343,-804,0,0,0,0,0,0,0,0,0,-1,1567,1828,0,0
350,-804,0,0,0,0,0,0,0,0,0,-1,1574,1828,0,0
357,-804,0,0,0,0,0,0,0,0,0,-1,1581,1828,0,0
364,-804,0,0,0,0,0,0,0,0,0,-1,1588,1828,0,0
371,-804,0,0,0,0,0,0,0,0,0,-1,1595,1828,0,0
378,-804,0,0,0,0,0,0,0,0,0,-1,1602,1828,0,0
385,-804,0,0,0,0,0,0,0,0,0,-1,1609,1828,0,0
392,-804,0,0,0,0,0,0,0,0,0,-1,1616,1828,0,0
399,-804,0,0,0,0,0,0,0,0,0,-1,1623,1828,0,0
406,-804,0,0,0,0,0,0,0,0,0,-1,1630,1828,0,0
413,-804,0,0,0,0,0,0,0,0,0,-1,1637,1828,0,0
420,-804,0,0,0,0,0,0,0,0,0,-1,1644,1828,0,0
427,-804,0,0,0,0,0,0,0,0,0,-1,1651,1828,0,0
434,-804,0,0,0,0,0,0,0,0,0,-1,1658,1828,0,0
441,-804,0,0,0,0,0,0,0,0,0,-1,1665,1828,0,0
448,-804,0,0,0,0,0,0,0,0,0,-1,1672,1828,0,0
455,-804,0,0,0,0,0,0,0,0,0,-1,1679,1828,0,0
462,-804,0,0,0,0,0,0,0,0,0,-1,1686,1828,0,0
469,-804,0,0,0,0,0,0,0,0,0,-1,1693,1828,0,0
476,-804,0,0,0,0,0,0,0,0,0,-1,1700,1828,0,0
483,-804,0,0,0,0,0,0,0,0,0,-1,1707,1828,0,0
490,-804,0,0,0,0,0,0,0,0,0,-1,1714,1828,0,0
497,-804,0,0,0,0,0,0,0,0,0,-1,1721,1828,0,0
504,-804,0,0,0,0,0,0,0,0,0,-1,1728,1828,0,0
511,-804,0,0,0,0,0,0,0,0,0,-1,1735,1828,0,0
518,-804,0,0,0,0,0,0,0,0,0,-1,1742,1828,0,0
525,-804,0,0,0,0,0,0,0,0,0,-1,1749,1828,0,0
532,-804,0,0,0,0,0,0,0,0,0,-1,1756,1828,0,0
539,-804,0,0,0,0,0,0,0,0,0,-1,1763,1828,0,0
546,-804,0,0,0,0,0,0,0,0,0,-1,1770,1828,0,0
553,-804,0,0,0,0,0,0,0,0,0,-1,1777,1828,0,0
560,-804,0,0,0,0,0,0,0,0,0,-1,1784,1828,0,0
567,-804,0,0,0,0,0,0,0,0,0,-1,1791,1828,0,0
574,-804,0,0,0,0,0,0,0,0,0,-1,1798,1828,0,0
581,-804,0,0,0,0,0,0,0,0,0,-1,1805,1828,0,0
588,-804,0,0,0,0,0,0,0,0,0,-1,1812,1828,0,0
595,-804,0,0,0,0,0,0,0,0,0,-1,1819,1828,0,0
602,-804,0,0,0,0,0,0,0,0,0,-1,1826,1828,0,0
609,-804,0,0,0,0,0,0,0,0,0,-1,1833,1828,0,0
616,-804,0,0,0,0,0,0,0,0,0,-1,1840,1828,0,0
623,-804,0,0,0,0,0,0,0,0,0,-1,1847,1828,0,0
630,-804,0,0,0,0,0,0,0,0,0,-1,1854,1828,0,0
637,-804,0,0,0,0,0,0,0,0,0,-1,1861,1828,0,0
644,-804,0,0,0,0,0,0,0,0,0,-1,1868,1828,0,0
651,-804,0,0,0,0,0,0,0,0,0,-1,1875,1828,0,0
658,-804,0,0,0,0,0,0,0,0,0,-1,1882,1828,0,0
665,-804,0,0,0,0,0,0,0,0,0,-1,1889,1828,0,0
672,-804,0,0,0,0,0,0,0,0,0,-1,1896,1828,0,0
679,-804,0,0,0,0,0,0,0,0,0,-1,1903,1828,0,0
686,-804,0,0,0,0,0,0,0,0,0,-1,1910,1828,0,0
693,-804,0,0,0,0,0,0,0,0,0,-1,1917,1828,0,0
700,-804,0,0,0,0,0,0,0,0,0,-1,1924,1828,0,0
707,-804,0,0,0,0,0,0,0,0,0,-1,1931,1828,0,0
714,-804,0,0,0,0,0,0,0,0,0,-1,1938,1828,0,0
721,-804,0,0,0,0,0,0,0,0,0,-1,1945,1828,0,0
728,-804,0,0,0,0,0,0,0,0,0,-1,1952,1828,0,0
735,-804,0,0,0,0,0,0,0,0,0,-1,1959,1828,0,0
742,-804,0,0,0,0,0,0,0,0,0,-1,1966,1828,0,0
749,-804,0,0,0,0,0,0,0,0,0,-1,1973,1828,0,0
756,-804,0,0,0,0,0,0,0,0,0,-1,1980,1828,0,0
763,-804,0,0,0,0,0,0,0,0,0,-1,1987,1828,0,0
770,-804,0,0,0,0,0,0,0,0,0,-1,1994,1828,0,0
777,-804,0,0,0,0,0,0,0,0,0,-1,2001,1828,0,0
784,-804,0,0,0,0,0,0,0,0,0,-1,2008,1828,0,0
791,-804,0,0,0,0,0,0,0,0,0,-1,2015,1828,0,0
798,-804,0,0,0,0,0,0,0,0,0,-1,2022,1828,0,0
805,-804,0,0,0,0,0,0,0,0,0,-1,2029,1828,0,0
812,-804,0,0,0,0,0,0,0,0,0,-1,2036,1828,0,0

