 "x_c",  "y_c",  "u_c",  "v_c",  "exx",  "eyy",  "exy",  "e1",  "e2",  "gamma",  "e_vonmises",  "sigma",  "x",  "y",  "u",  "v"
-700,715,0,0,0,0,0,0,0,0,0,-1,524,309,0,0
-693,715,0,0,0,0,0,0,0,0,0,-1,531,309,0,0
-686,715,0,0,0,0,0,0,0,0,0,-1,538,309,0,0
-679,715,0,0,0,0,0,0,0,0,0,-1,545,309,0,0
-672,715,0,0,0,0,0,0,0,0,0,-1,552,309,0,0
-665,715,0,0,0,0,0,0,0,0,0,-1,559,309,0,0
-658,715,0,0,0,0,0,0,0,0,0,-1,566,309,0,0
-651,715,0,0,0,0,0,0,0,0,0,-1,573,309,0,0
-644,715,0,0,0,0,0,0,0,0,0,-1,580,309,0,0
-637,715,0,0,0,0,0,0,0,0,0,-1,587,309,0,0
-630,715,0,0,0,0,0,0,0,0,0,-1,594,309,0,0
-623,715,0,0,0,0,0,0,0,0,0,-1,601,309,0,0
-616,715,0,0,0,0,0,0,0,0,0,-1,608,309,0,0
-609,715,0,0,0,0,0,0,0,0,0,-1,615,309,0,0
-602,715,0,0,0,0,0,0,0,0,0,-1,622,309,0,0
-595,715,0,0,0,0,0,0,0,0,0,-1,629,309,0,0
-588,715,0,0,0,0,0,0,0,0,0,-1,636,309,0,0
-581,715,0,0,0,0,0,0,0,0,0,-1,643,309,0,0
-574,715,0,0,0,0,0,0,0,0,0,-1,650,309,0,0
-567,715,0,0,0,0,0,0,0,0,0,-1,657,309,0,0
-560,715,0,0,0,0,0,0,0,0,0,-1,664,309,0,0
-553,715,0,0,0,0,0,0,0,0,0,-1,671,309,0,0
-546,715,0,0,0,0,0,0,0,0,0,-1,678,309,0,0
-539,715,0,0,0,0,0,0,0,0,0,-1,685,309,0,0
-532,715,0,0,0,0,0,0,0,0,0,-1,692,309,0,0
-525,715,0,0,0,0,0,0,0,0,0,-1,699,309,0,0
-518,715,0,0,0,0,0,0,0,0,0,-1,706,309,0,0
-511,715,0,0,0,0,0,0,0,0,0,-1,713,309,0,0
-504,715,0,0,0,0,0,0,0,0,0,-1,720,309,0,0
-497,715,0,0,0,0,0,0,0,0,0,-1,727,309,0,0
-490,715,0,0,0,0,0,0,0,0,0,-1,734,309,0,0
-483,715,0,0,0,0,0,0,0,0,0,-1,741,309,0,0
-476,715,0,0,0,0,0,0,0,0,0,-1,748,309,0,0
-469,715,0,0,0,0,0,0,0,0,0,-1,755,309,0,0
-462,715,0,0,0,0,0,0,0,0,0,-1,762,309,0,0
-455,715,0,0,0,0,0,0,0,0,0,-1,769,309,0,0
-448,715,0,0,0,0,0,0,0,0,0,-1,776,309,0,0
-441,715,0,0,0,0,0,0,0,0,0,-1,783,309,0,0
-434,715,0,0,0,0,0,0,0,0,0,-1,790,309,0,0
-427,715,0,0,0,0,0,0,0,0,0,-1,797,309,0,0
-420,715,0,0,0,0,0,0,0,0,0,-1,804,309,0,0
-413,715,0,0,0,0,0,0,0,0,0,-1,811,309,0,0
-406,715,0,0,0,0,0,0,0,0,0,-1,818,309,0,0
-399,715,0,0,0,0,0,0,0,0,0,-1,825,309,0,0
-392,715,0,0,0,0,0,0,0,0,0,-1,832,309,0,0
-385,715,0,0,0,0,0,0,0,0,0,-1,839,309,0,0
-378,715,0,0,0,0,0,0,0,0,0,-1,846,309,0,0
-371,715,0,0,0,0,0,0,0,0,0,-1,853,309,0,0
-364,715,0,0,0,0,0,0,0,0,0,-1,860,309,0,0
-357,715,0,0,0,0,0,0,0,0,0,-1,867,309,0,0
-350,715,0,0,0,0,0,0,0,0,0,-1,874,309,0,0
-343,715,0,0,0,0,0,0,0,0,0,-1,881,309,0,0
-336,715,0,0,0,0,0,0,0,0,0,-1,888,309,0,0
-329,715,0,0,0,0,0,0,0,0,0,-1,895,309,0,0
-322,715,0,0,0,0,0,0,0,0,0,-1,902,309,0,0
-315,715,0,0,0,0,0,0,0,0,0,-1,909,309,0,0
-308,715,0,0,0,0,0,0,0,0,0,-1,916,309,0,0
-301,715,0,0,0,0,0,0,0,0,0,-1,923,309,0,0
-294,715,0,0,0,0,0,0,0,0,0,-1,930,309,0,0
-287,715,0,0,0,0,0,0,0,0,0,-1,937,309,0,0
-280,715,0,0,0,0,0,0,0,0,0,-1,944,309,0,0
-273,715,0,0,0,0,0,0,0,0,0,-1,951,309,0,0
-266,715,0,0,0,0,0,0,0,0,0,-1,958,309,0,0
-259,715,0,0,0,0,0,0,0,0,0,-1,965,309,0,0
-252,715,0,0,0,0,0,0,0,0,0,-1,972,309,0,0
-245,715,0,0,0,0,0,0,0,0,0,-1,979,309,0,0
-238,715,0,0,0,0,0,0,0,0,0,-1,986,309,0,0
-231,715,0,0,0,0,0,0,0,0,0,-1,993,309,0,0
-224,715,0,0,0,0,0,0,0,0,0,-1,1000,309,0,0
-217,715,0,0,0,0,0,0,0,0,0,-1,1007,309,0,0
-210,715,0,0,0,0,0,0,0,0,0,-1,1014,309,0,0
-203,715,0,0,0,0,0,0,0,0,0,-1,1021,309,0,0
-196,715,0,0,0,0,0,0,0,0,0,-1,1028,309,0,0
-189,715,0,0,0,0,0,0,0,0,0,-1,1035,309,0,0
-182,715,0,0,0,0,0,0,0,0,0,-1,1042,309,0,0
-175,715,0,0,0,0,0,0,0,0,0,-1,1049,309,0,0
-168,715,0,0,0,0,0,0,0,0,0,-1,1056,309,0,0
-161,715,0,0,0,0,0,0,0,0,0,-1,1063,309,0,0
-154,715,0,0,0,0,0,0,0,0,0,-1,1070,309,0,0
-147,715,0,0,0,0,0,0,0,0,0,-1,1077,309,0,0
-140,715,0,0,0,0,0,0,0,0,0,-1,1084,309,0,0
-133,715,0,0,0,0,0,0,0,0,0,-1,1091,309,0,0
-126,715,0,0,0,0,0,0,0,0,0,-1,1098,309,0,0
-119,715,0,0,0,0,0,0,0,0,0,-1,1105,309,0,0
-112,715,0,0,0,0,0,0,0,0,0,-1,1112,309,0,0
-105,715,0,0,0,0,0,0,0,0,0,-1,1119,309,0,0
-98,715,0,0,0,0,0,0,0,0,0,-1,1126,309,0,0
-91,715,0,0,0,0,0,0,0,0,0,-1,1133,309,0,0
-84,715,0,0,0,0,0,0,0,0,0,-1,1140,309,0,0
-77,715,0,0,0,0,0,0,0,0,0,-1,1147,309,0,0
-70,715,0,0,0,0,0,0,0,0,0,-1,1154,309,0,0
-63,715,0,0,0,0,0,0,0,0,0,-1,1161,309,0,0
-56,715,0,0,0,0,0,0,0,0,0,-1,1168,309,0,0
-49,715,0,0,0,0,0,0,0,0,0,-1,1175,309,0,0
-42,715,0,0,0,0,0,0,0,0,0,-1,1182,309,0,0
-35,715,0,0,0,0,0,0,0,0,0,-1,1189,309,0,0
-28,715,0,0,0,0,0,0,0,0,0,-1,1196,309,0,0
-21,715,0,0,0,0,0,0,0,0,0,-1,1203,309,0,0
-14,715,0,0,0,0,0,0,0,0,0,-1,1210,309,0,0
-7,715,0,0,0,0,0,0,0,0,0,-1,1217,309,0,0
0,715,0,0,0,0,0,0,0,0,0,-1,1224,309,0,0
7,715,0,0,0,0,0,0,0,0,0,-1,1231,309,0,0
14,715,0,0,0,0,0,0,0,0,0,-1,1238,309,0,0
21,715,0,0,0,0,0,0,0,0,0,-1,1245,309,0,0
28,715,0,0,0,0,0,0,0,0,0,-1,1252,309,0,0
35,715,0,0,0,0,0,0,0,0,0,-1,1259,309,0,0
42,715,0,0,0,0,0,0,0,0,0,-1,1266,309,0,0
49,715,0,0,0,0,0,0,0,0,0,-1,1273,309,0,0
56,715,0,0,0,0,0,0,0,0,0,-1,1280,309,0,0
63,715,2.3479,-11.3253,0,0,0,0,0,0,0,-1,1287,309,2.34785,11.3253
70,715,2.19458,-10.7763,0,0,0,0,0,0,0,-1,1294,309,2.19462,10.7764
77,715,0,0,0,0,0,0,0,0,0,-1,1301,309,0,0
84,715,0,0,0,0,0,0,0,0,0,-1,1308,309,0,0
91,715,0,0,0,0,0,0,0,0,0,-1,1315,309,0,0
98,715,0,0,0,0,0,0,0,0,0,-1,1322,309,0,0
105,715,0,0,0,0,0,0,0,0,0,-1,1329,309,0,0
112,715,0,0,0,0,0,0,0,0,0,-1,1336,309,0,0
119,715,0,0,0,0,0,0,0,0,0,-1,1343,309,0,0
126,715,0,0,0,0,0,0,0,0,0,-1,1350,309,0,0
133,715,0,0,0,0,0,0,0,0,0,-1,1357,309,0,0
140,715,0,0,0,0,0,0,0,0,0,-1,1364,309,0,0
147,715,0,0,0,0,0,0,0,0,0,-1,1371,309,0,0
154,715,0,0,0,0,0,0,0,0,0,-1,1378,309,0,0
161,715,0,0,0,0,0,0,0,0,0,-1,1385,309,0,0
168,715,0,0,0,0,0,0,0,0,0,-1,1392,309,0,0
175,715,0,0,0,0,0,0,0,0,0,-1,1399,309,0,0
182,715,0,0,0,0,0,0,0,0,0,-1,1406,309,0,0
189,715,0,0,0,0,0,0,0,0,0,-1,1413,309,0,0
196,715,0,0,0,0,0,0,0,0,0,-1,1420,309,0,0
203,715,0,0,0,0,0,0,0,0,0,-1,1427,309,0,0
210,715,0,0,0,0,0,0,0,0,0,-1,1434,309,0,0
217,715,0,0,0,0,0,0,0,0,0,-1,1441,309,0,0
224,715,0,0,0,0,0,0,0,0,0,-1,1448,309,0,0
231,715,0,0,0,0,0,0,0,0,0,-1,1455,309,0,0
238,715,0,0,0,0,0,0,0,0,0,-1,1462,309,0,0
245,715,0,0,0,0,0,0,0,0,0,-1,1469,309,0,0
252,715,0,0,0,0,0,0,0,0,0,-1,1476,309,0,0
259,715,0,0,0,0,0,0,0,0,0,-1,1483,309,0,0
266,715,0,0,0,0,0,0,0,0,0,-1,1490,309,0,0
273,715,0,0,0,0,0,0,0,0,0,-1,1497,309,0,0
280,715,0,0,0,0,0,0,0,0,0,-1,1504,309,0,0
287,715,0,0,0,0,0,0,0,0,0,-1,1511,309,0,0
294,715,0,0,0,0,0,0,0,0,0,-1,1518,309,0,0
301,715,0,0,0,0,0,0,0,0,0,-1,1525,309,0,0
308,715,0,0,0,0,0,0,0,0,0,-1,1532,309,0,0
315,715,0,0,0,0,0,0,0,0,0,-1,1539,309,0,0
322,715,0,0,0,0,0,0,0,0,0,-1,1546,309,0,0
329,715,0,0,0,0,0,0,0,0,0,-1,1553,309,0,0
336,715,0,0,0,0,0,0,0,0,0,-1,1560,309,0,0
343,715,0,0,0,0,0,0,0,0,0,-1,1567,309,0,0
350,715,0,0,0,0,0,0,0,0,0,-1,1574,309,0,0
357,715,0,0,0,0,0,0,0,0,0,-1,1581,309,0,0
364,715,0,0,0,0,0,0,0,0,0,-1,1588,309,0,0
371,715,0,0,0,0,0,0,0,0,0,-1,1595,309,0,0
378,715,0,0,0,0,0,0,0,0,0,-1,1602,309,0,0
385,715,0,0,0,0,0,0,0,0,0,-1,1609,309,0,0
392,715,0,0,0,0,0,0,0,0,0,-1,1616,309,0,0
399,715,0,0,0,0,0,0,0,0,0,-1,1623,309,0,0
406,715,0,0,0,0,0,0,0,0,0,-1,1630,309,0,0
413,715,0,0,0,0,0,0,0,0,0,-1,1637,309,0,0
420,715,0,0,0,0,0,0,0,0,0,-1,1644,309,0,0
427,715,0,0,0,0,0,0,0,0,0,-1,1651,309,0,0
434,715,0,0,0,0,0,0,0,0,0,-1,1658,309,0,0
441,715,0,0,0,0,0,0,0,0,0,-1,1665,309,0,0
448,715,0,0,0,0,0,0,0,0,0,-1,1672,309,0,0
455,715,0,0,0,0,0,0,0,0,0,-1,1679,309,0,0
462,715,0,0,0,0,0,0,0,0,0,-1,1686,309,0,0
469,715,0,0,0,0,0,0,0,0,0,-1,1693,309,0,0
476,715,0,0,0,0,0,0,0,0,0,-1,1700,309,0,0
483,715,0,0,0,0,0,0,0,0,0,-1,1707,309,0,0
490,715,0,0,0,0,0,0,0,0,0,-1,1714,309,0,0
497,715,0,0,0,0,0,0,0,0,0,-1,1721,309,0,0
504,715,0,0,0,0,0,0,0,0,0,-1,1728,309,0,0
511,715,0,0,0,0,0,0,0,0,0,-1,1735,309,0,0
518,715,0,0,0,0,0,0,0,0,0,-1,1742,309,0,0
525,715,0,0,0,0,0,0,0,0,0,-1,1749,309,0,0
532,715,0,0,0,0,0,0,0,0,0,-1,1756,309,0,0
539,715,0,0,0,0,0,0,0,0,0,-1,1763,309,0,0
546,715,0,0,0,0,0,0,0,0,0,-1,1770,309,0,0
553,715,0,0,0,0,0,0,0,0,0,-1,1777,309,0,0
560,715,0,0,0,0,0,0,0,0,0,-1,1784,309,0,0
567,715,0,0,0,0,0,0,0,0,0,-1,1791,309,0,0
574,715,0,0,0,0,0,0,0,0,0,-1,1798,309,0,0
581,715,0,0,0,0,0,0,0,0,0,-1,1805,309,0,0
588,715,0,0,0,0,0,0,0,0,0,-1,1812,309,0,0
595,715,0,0,0,0,0,0,0,0,0,-1,1819,309,0,0
602,715,0,0,0,0,0,0,0,0,0,-1,1826,309,0,0
609,715,0,0,0,0,0,0,0,0,0,-1,1833,309,0,0
616,715,0,0,0,0,0,0,0,0,0,-1,1840,309,0,0
623,715,0,0,0,0,0,0,0,0,0,-1,1847,309,0,0
630,715,0,0,0,0,0,0,0,0,0,-1,1854,309,0,0
637,715,0,0,0,0,0,0,0,0,0,-1,1861,309,0,0
644,715,0,0,0,0,0,0,0,0,0,-1,1868,309,0,0
651,715,0,0,0,0,0,0,0,0,0,-1,1875,309,0,0
658,715,0,0,0,0,0,0,0,0,0,-1,1882,309,0,0
665,715,0,0,0,0,0,0,0,0,0,-1,1889,309,0,0
672,715,0,0,0,0,0,0,0,0,0,-1,1896,309,0,0
679,715,0,0,0,0,0,0,0,0,0,-1,1903,309,0,0
686,715,0,0,0,0,0,0,0,0,0,-1,1910,309,0,0
693,715,0,0,0,0,0,0,0,0,0,-1,1917,309,0,0
700,715,0,0,0,0,0,0,0,0,0,-1,1924,309,0,0
707,715,0,0,0,0,0,0,0,0,0,-1,1931,309,0,0
714,715,0,0,0,0,0,0,0,0,0,-1,1938,309,0,0
721,715,0,0,0,0,0,0,0,0,0,-1,1945,309,0,0
728,715,0,0,0,0,0,0,0,0,0,-1,1952,309,0,0
735,715,0,0,0,0,0,0,0,0,0,-1,1959,309,0,0
742,715,0,0,0,0,0,0,0,0,0,-1,1966,309,0,0
749,715,0,0,0,0,0,0,0,0,0,-1,1973,309,0,0
756,715,0,0,0,0,0,0,0,0,0,-1,1980,309,0,0
763,715,0,0,0,0,0,0,0,0,0,-1,1987,309,0,0
770,715,0,0,0,0,0,0,0,0,0,-1,1994,309,0,0
777,715,0,0,0,0,0,0,0,0,0,-1,2001,309,0,0
784,715,0,0,0,0,0,0,0,0,0,-1,2008,309,0,0
791,715,0,0,0,0,0,0,0,0,0,-1,2015,309,0,0
798,715,0,0,0,0,0,0,0,0,0,-1,2022,309,0,0
805,715,0,0,0,0,0,0,0,0,0,-1,2029,309,0,0
812,715,0,0,0,0,0,0,0,0,0,-1,2036,309,0,0
-700,708,0,0,0,0,0,0,0,0,0,-1,524,316,0,0
-693,708,0,0,0,0,0,0,0,0,0,-1,531,316,0,0
-686,708,0,0,0,0,0,0,0,0,0,-1,538,316,0,0
-679,708,0,0,0,0,0,0,0,0,0,-1,545,316,0,0
-672,708,0,0,0,0,0,0,0,0,0,-1,552,316,0,0
-665,708,0,0,0,0,0,0,0,0,0,-1,559,316,0,0
-658,708,0,0,0,0,0,0,0,0,0,-1,566,316,0,0
-651,708,0,0,0,0,0,0,0,0,0,-1,573,316,0,0
-644,708,0,0,0,0,0,0,0,0,0,-1,580,316,0,0
-637,708,0,0,0,0,0,0,0,0,0,-1,587,316,0,0
-630,708,0,0,0,0,0,0,0,0,0,-1,594,316,0,0
-623,708,0,0,0,0,0,0,0,0,0,-1,601,316,0,0
-616,708,0,0,0,0,0,0,0,0,0,-1,608,316,0,0
-609,708,0,0,0,0,0,0,0,0,0,-1,615,316,0,0
-602,708,0,0,0,0,0,0,0,0,0,-1,622,316,0,0
-595,708,0,0,0,0,0,0,0,0,0,-1,629,316,0,0
-588,708,0,0,0,0,0,0,0,0,0,-1,636,316,0,0
-581,708,0,0,0,0,0,0,0,0,0,-1,643,316,0,0
-574,708,0,0,0,0,0,0,0,0,0,-1,650,316,0,0
-567,708,0,0,0,0,0,0,0,0,0,-1,657,316,0,0
-560,708,0,0,0,0,0,0,0,0,0,-1,664,316,0,0
-553,708,0,0,0,0,0,0,0,0,0,-1,671,316,0,0
-546,708,0,0,0,0,0,0,0,0,0,-1,678,316,0,0
-539,708,0,0,0,0,0,0,0,0,0,-1,685,316,0,0
-532,708,0,0,0,0,0,0,0,0,0,-1,692,316,0,0
-525,708,0,0,0,0,0,0,0,0,0,-1,699,316,0,0
-518,708,0,0,0,0,0,0,0,0,0,-1,706,316,0,0
-511,708,0,0,0,0,0,0,0,0,0,-1,713,316,0,0
-504,708,0,0,0,0,0,0,0,0,0,-1,720,316,0,0
-497,708,0,0,0,0,0,0,0,0,0,-1,727,316,0,0
-490,708,0,0,0,0,0,0,0,0,0,-1,734,316,0,0
-483,708,0,0,0,0,0,0,0,0,0,-1,741,316,0,0
-476,708,0,0,0,0,0,0,0,0,0,-1,748,316,0,0
-469,708,0,0,0,0,0,0,0,0,0,-1,755,316,0,0
-462,708,0,0,0,0,0,0,0,0,0,-1,762,316,0,0
-455,708,0,0,0,0,0,0,0,0,0,-1,769,316,0,0
-448,708,0,0,0,0,0,0,0,0,0,-1,776,316,0,0
-441,708,0,0,0,0,0,0,0,0,0,-1,783,316,0,0
-434,708,0,0,0,0,0,0,0,0,0,-1,790,316,0,0
-427,708,0,0,0,0,0,0,0,0,0,-1,797,316,0,0
-420,708,0,0,0,0,0,0,0,0,0,-1,804,316,0,0
-413,708,0,0,0,0,0,0,0,0,0,-1,811,316,0,0
-406,708,0,0,0,0,0,0,0,0,0,-1,818,316,0,0
-399,708,0,0,0,0,0,0,0,0,0,-1,825,316,0,0
-392,708,0,0,0,0,0,0,0,0,0,-1,832,316,0,0
-385,708,0,0,0,0,0,0,0,0,0,-1,839,316,0,0
-378,708,0,0,0,0,0,0,0,0,0,-1,846,316,0,0
-371,708,0,0,0,0,0,0,0,0,0,-1,853,316,0,0
-364,708,0,0,0,0,0,0,0,0,0,-1,860,316,0,0
-357,708,0,0,0,0,0,0,0,0,0,-1,867,316,0,0
-350,708,0,0,0,0,0,0,0,0,0,-1,874,316,0,0
-343,708,0,0,0,0,0,0,0,0,0,-1,881,316,0,0
-336,708,0,0,0,0,0,0,0,0,0,-1,888,316,0,0
-329,708,0,0,0,0,0,0,0,0,0,-1,895,316,0,0
-322,708,0,0,0,0,0,0,0,0,0,-1,902,316,0,0
-315,708,0,0,0,0,0,0,0,0,0,-1,909,316,0,0
-308,708,0,0,0,0,0,0,0,0,0,-1,916,316,0,0
-301,708,0,0,0,0,0,0,0,0,0,-1,923,316,0,0
-294,708,0,0,0,0,0,0,0,0,0,-1,930,316,0,0
-287,708,0,0,0,0,0,0,0,0,0,-1,937,316,0,0
-280,708,0,0,0,0,0,0,0,0,0,-1,944,316,0,0
-273,708,0,0,0,0,0,0,0,0,0,-1,951,316,0,0
-266,708,0,0,0,0,0,0,0,0,0,-1,958,316,0,0
-259,708,0,0,0,0,0,0,0,0,0,-1,965,316,0,0
-252,708,0,0,0,0,0,0,0,0,0,-1,972,316,0,0
-245,708,0,0,0,0,0,0,0,0,0,-1,979,316,0,0
-238,708,0,0,0,0,0,0,0,0,0,-1,986,316,0,0
-231,708,0,0,0,0,0,0,0,0,0,-1,993,316,0,0
-224,708,0,0,0,0,0,0,0,0,0,-1,1000,316,0,0
-217,708,0,0,0,0,0,0,0,0,0,-1,1007,316,0,0
-210,708,0,0,0,0,0,0,0,0,0,-1,1014,316,0,0
-203,708,0,0,0,0,0,0,0,0,0,-1,1021,316,0,0
-196,708,0,0,0,0,0,0,0,0,0,-1,1028,316,0,0
-189,708,0,0,0,0,0,0,0,0,0,-1,1035,316,0,0
-182,708,0,0,0,0,0,0,0,0,0,-1,1042,316,0,0
-175,708,0,0,0,0,0,0,0,0,0,-1,1049,316,0,0
-168,708,0,0,0,0,0,0,0,0,0,-1,1056,316,0,0
-161,708,0,0,0,0,0,0,0,0,0,-1,1063,316,0,0
-154,708,0,0,0,0,0,0,0,0,0,-1,1070,316,0,0
-147,708,0,0,0,0,0,0,0,0,0,-1,1077,316,0,0
-140,708,0,0,0,0,0,0,0,0,0,-1,1084,316,0,0
-133,708,0,0,0,0,0,0,0,0,0,-1,1091,316,0,0
-126,708,0,0,0,0,0,0,0,0,0,-1,1098,316,0,0
-119,708,0,0,0,0,0,0,0,0,0,-1,1105,316,0,0
-112,708,0,0,0,0,0,0,0,0,0,-1,1112,316,0,0
-105,708,0,0,0,0,0,0,0,0,0,-1,1119,316,0,0
-98,708,0,0,0,0,0,0,0,0,0,-1,1126,316,0,0
-91,708,0,0,0,0,0,0,0,0,0,-1,1133,316,0,0
-84,708,0,0,0,0,0,0,0,0,0,-1,1140,316,0,0
-77,708,0,0,0,0,0,0,0,0,0,-1,1147,316,0,0
-70,708,0,0,0,0,0,0,0,0,0,-1,1154,316,0,0
-63,708,0,0,0,0,0,0,0,0,0,-1,1161,316,0,0
-56,708,0,0,0,0,0,0,0,0,0,-1,1168,316,0,0
-49,708,0,0,0,0,0,0,0,0,0,-1,1175,316,0,0
-42,708,0,0,0,0,0,0,0,0,0,-1,1182,316,0,0
-35,708,-2.71204,-6.31558,0,0,0,0,0,0,0,-1,1189,316,-2.712,6.3156
-28,708,-2.92371,-5.53253,0,0,0,0,0,0,0,-1,1196,316,-2.92375,5.53254
-21,708,-5.32227,-7.36841,0,0,0,0,0,0,0,-1,1203,316,-5.32232,7.3684
-14,708,-1.11047,-13.4866,0,0,0,0,0,0,0,-1,1210,316,-1.11043,13.4866
-7,708,-0.717041,-13.5523,0.0498728,-0.0943802,-0.0212411,0.0529355,-0.0974429,-0.1432,0.0880794,0.0482623,1217,316,-0.716997,13.5523
0,708,-0.319092,-13.5416,0.0517871,-0.105569,-0.0248856,0.0556289,-0.109411,-0.15317,0.0969577,0.049561,1224,316,-0.319121,13.5416
7,708,-0.0203857,-13.8937,0.0512042,-0.114643,-0.0266759,0.0553893,-0.118828,-0.155618,0.102783,0.0455202,1231,316,-0.0203645,13.8937
14,708,0.334961,-14.3321,0.0489697,-0.121971,-0.0268924,0.0531006,-0.126102,-0.152416,0.106286,0.0446391,1238,316,0.334989,14.3321
21,708,0.89978,-14.7922,0.045316,-0.127122,-0.0256203,0.0490421,-0.130848,-0.144422,0.10738,0.0430156,1245,316,0.899752,14.7922
28,708,1.30225,-15.1721,0.0405618,-0.130489,-0.0232119,0.0436557,-0.133583,-0.13251,0.106629,0.0432639,1252,316,1.30227,15.1721
35,708,1.57593,-15.7175,0.0349245,-0.132057,-0.0199698,0.0372796,-0.134412,-0.117388,0.10428,0.0439017,1259,316,1.57588,15.7175
42,708,1.48596,-16.1582,0.0277545,-0.131107,-0.0158219,0.029315,-0.132668,-0.0983088,0.0996643,0.0420255,1266,316,1.486,16.1582
49,708,3.29919,-12.1183,0,0,0,0,0,0,0,-1,1273,316,3.29921,12.1183
56,708,2.88916,-11.7295,0,0,0,0,0,0,0,-1,1280,316,2.88912,11.7295
63,708,2.54102,-11.2821,0,0,0,0,0,0,0,-1,1287,316,2.54106,11.2821
70,708,2.16321,-10.8134,0,0,0,0,0,0,0,-1,1294,316,2.16316,10.8134
77,708,2.79395,-10.4502,0,0,0,0,0,0,0,-1,1301,316,2.79394,10.4502
84,708,3.0625,-10.5313,0,0,0,0,0,0,0,-1,1308,316,3.0625,10.5313
91,708,1.80566,-11.7596,0,0,0,0,0,0,0,-1,1315,316,1.80567,11.7596
98,708,1.80042,-11.3742,0,0,0,0,0,0,0,-1,1322,316,1.80038,11.3742
105,708,2.4978,-10.2678,0,0,0,0,0,0,0,-1,1329,316,2.49778,10.2678
112,708,2.39136,-9.1944,0,0,0,0,0,0,0,-1,1336,316,2.39133,9.1944
119,708,-0.690552,-12.9892,0,0,0,0,0,0,0,-1,1343,316,-0.690587,12.9892
126,708,1.03931,-11.9692,0,0,0,0,0,0,0,-1,1350,316,1.03931,11.9692
133,708,1.18091,-10.9359,0,0,0,0,0,0,0,-1,1357,316,1.18088,10.9359
140,708,1.32239,-9.90256,0,0,0,0,0,0,0,-1,1364,316,1.32245,9.90256
147,708,1.67053,-5.44888,0,0,0,0,0,0,0,-1,1371,316,1.67051,5.44888
154,708,0,0,0,0,0,0,0,0,0,-1,1378,316,0,0
161,708,0,0,0,0,0,0,0,0,0,-1,1385,316,0,0
168,708,0,0,0,0,0,0,0,0,0,-1,1392,316,0,0
175,708,0,0,0,0,0,0,0,0,0,-1,1399,316,0,0
182,708,0,0,0,0,0,0,0,0,0,-1,1406,316,0,0
189,708,0,0,0,0,0,0,0,0,0,-1,1413,316,0,0
196,708,0,0,0,0,0,0,0,0,0,-1,1420,316,0,0
203,708,0,0,0,0,0,0,0,0,0,-1,1427,316,0,0
210,708,0,0,0,0,0,0,0,0,0,-1,1434,316,0,0
217,708,0,0,0,0,0,0,0,0,0,-1,1441,316,0,0
224,708,0,0,0,0,0,0,0,0,0,-1,1448,316,0,0
231,708,0,0,0,0,0,0,0,0,0,-1,1455,316,0,0
238,708,0,0,0,0,0,0,0,0,0,-1,1462,316,0,0
245,708,0,0,0,0,0,0,0,0,0,-1,1469,316,0,0
252,708,0,0,0,0,0,0,0,0,0,-1,1476,316,0,0
259,708,0,0,0,0,0,0,0,0,0,-1,1483,316,0,0
266,708,0,0,0,0,0,0,0,0,0,-1,1490,316,0,0
273,708,0,0,0,0,0,0,0,0,0,-1,1497,316,0,0
280,708,0,0,0,0,0,0,0,0,0,-1,1504,316,0,0
287,708,0,0,0,0,0,0,0,0,0,-1,1511,316,0,0
294,708,0,0,0,0,0,0,0,0,0,-1,1518,316,0,0
301,708,0,0,0,0,0,0,0,0,0,-1,1525,316,0,0
308,708,0,0,0,0,0,0,0,0,0,-1,1532,316,0,0
315,708,0,0,0,0,0,0,0,0,0,-1,1539,316,0,0
322,708,0,0,0,0,0,0,0,0,0,-1,1546,316,0,0
329,708,0,0,0,0,0,0,0,0,0,-1,1553,316,0,0
336,708,0,0,0,0,0,0,0,0,0,-1,1560,316,0,0
343,708,0,0,0,0,0,0,0,0,0,-1,1567,316,0,0
350,708,0,0,0,0,0,0,0,0,0,-1,1574,316,0,0
357,708,0,0,0,0,0,0,0,0,0,-1,1581,316,0,0
364,708,0,0,0,0,0,0,0,0,0,-1,1588,316,0,0
371,708,0,0,0,0,0,0,0,0,0,-1,1595,316,0,0
378,708,0,0,0,0,0,0,0,0,0,-1,1602,316,0,0
385,708,0,0,0,0,0,0,0,0,0,-1,1609,316,0,0
392,708,0,0,0,0,0,0,0,0,0,-1,1616,316,0,0
399,708,0,0,0,0,0,0,0,0,0,-1,1623,316,0,0
406,708,0,0,0,0,0,0,0,0,0,-1,1630,316,0,0
413,708,0,0,0,0,0,0,0,0,0,-1,1637,316,0,0
420,708,0,0,0,0,0,0,0,0,0,-1,1644,316,0,0
427,708,0,0,0,0,0,0,0,0,0,-1,1651,316,0,0
434,708,0,0,0,0,0,0,0,0,0,-1,1658,316,0,0
441,708,0,0,0,0,0,0,0,0,0,-1,1665,316,0,0
448,708,0,0,0,0,0,0,0,0,0,-1,1672,316,0,0
455,708,0,0,0,0,0,0,0,0,0,-1,1679,316,0,0
462,708,0,0,0,0,0,0,0,0,0,-1,1686,316,0,0
469,708,0,0,0,0,0,0,0,0,0,-1,1693,316,0,0
476,708,0,0,0,0,0,0,0,0,0,-1,1700,316,0,0
483,708,0,0,0,0,0,0,0,0,0,-1,1707,316,0,0
490,708,0,0,0,0,0,0,0,0,0,-1,1714,316,0,0
497,708,0,0,0,0,0,0,0,0,0,-1,1721,316,0,0
504,708,0,0,0,0,0,0,0,0,0,-1,1728,316,0,0
511,708,0,0,0,0,0,0,0,0,0,-1,1735,316,0,0
518,708,0,0,0,0,0,0,0,0,0,-1,1742,316,0,0
525,708,0,0,0,0,0,0,0,0,0,-1,1749,316,0,0
532,708,0,0,0,0,0,0,0,0,0,-1,1756,316,0,0
539,708,0,0,0,0,0,0,0,0,0,-1,1763,316,0,0
546,708,0,0,0,0,0,0,0,0,0,-1,1770,316,0,0
553,708,0,0,0,0,0,0,0,0,0,-1,1777,316,0,0
560,708,0,0,0,0,0,0,0,0,0,-1,1784,316,0,0
567,708,0,0,0,0,0,0,0,0,0,-1,1791,316,0,0
574,708,0,0,0,0,0,0,0,0,0,-1,1798,316,0,0
581,708,0,0,0,0,0,0,0,0,0,-1,1805,316,0,0
588,708,0,0,0,0,0,0,0,0,0,-1,1812,316,0,0
595,708,0,0,0,0,0,0,0,0,0,-1,1819,316,0,0
602,708,0,0,0,0,0,0,0,0,0,-1,1826,316,0,0
609,708,0,0,0,0,0,0,0,0,0,-1,1833,316,0,0
616,708,0,0,0,0,0,0,0,0,0,-1,1840,316,0,0
623,708,0,0,0,0,0,0,0,0,0,-1,1847,316,0,0
630,708,0,0,0,0,0,0,0,0,0,-1,1854,316,0,0
637,708,0,0,0,0,0,0,0,0,0,-1,1861,316,0,0
644,708,0,0,0,0,0,0,0,0,0,-1,1868,316,0,0
651,708,0,0,0,0,0,0,0,0,0,-1,1875,316,0,0
658,708,0,0,0,0,0,0,0,0,0,-1,1882,316,0,0
665,708,0,0,0,0,0,0,0,0,0,-1,1889,316,0,0
672,708,0,0,0,0,0,0,0,0,0,-1,1896,316,0,0
679,708,0,0,0,0,0,0,0,0,0,-1,1903,316,0,0
686,708,0,0,0,0,0,0,0,0,0,-1,1910,316,0,0
693,708,0,0,0,0,0,0,0,0,0,-1,1917,316,0,0
700,708,0,0,0,0,0,0,0,0,0,-1,1924,316,0,0
707,708,0,0,0,0,0,0,0,0,0,-1,1931,316,0,0
714,708,0,0,0,0,0,0,0,0,0,-1,1938,316,0,0
721,708,0,0,0,0,0,0,0,0,0,-1,1945,316,0,0
728,708,0,0,0,0,0,0,0,0,0,-1,1952,316,0,0
735,708,0,0,0,0,0,0,0,0,0,-1,1959,316,0,0
742,708,0,0,0,0,0,0,0,0,0,-1,1966,316,0,0
749,708,0,0,0,0,0,0,0,0,0,-1,1973,316,0,0
756,708,0,0,0,0,0,0,0,0,0,-1,1980,316,0,0
763,708,0,0,0,0,0,0,0,0,0,-1,1987,316,0,0
770,708,0,0,0,0,0,0,0,0,0,-1,1994,316,0,0
777,708,0,0,0,0,0,0,0,0,0,-1,2001,316,0,0
784,708,0,0,0,0,0,0,0,0,0,-1,2008,316,0,0
791,708,0,0,0,0,0,0,0,0,0,-1,2015,316,0,0
798,708,0,0,0,0,0,0,0,0,0,-1,2022,316,0,0
805,708,0,0,0,0,0,0,0,0,0,-1,2029,316,0,0
812,708,0,0,0,0,0,0,0,0,0,-1,2036,316,0,0
-700,701,0,0,0,0,0,0,0,0,0,-1,524,323,0,0
-693,701,0,0,0,0,0,0,0,0,0,-1,531,323,0,0
-686,701,0,0,0,0,0,0,0,0,0,-1,538,323,0,0
-679,701,0,0,0,0,0,0,0,0,0,-1,545,323,0,0
-672,701,0,0,0,0,0,0,0,0,0,-1,552,323,0,0
-665,701,0,0,0,0,0,0,0,0,0,-1,559,323,0,0
-658,701,0,0,0,0,0,0,0,0,0,-1,566,323,0,0
-651,701,0,0,0,0,0,0,0,0,0,-1,573,323,0,0
-644,701,0,0,0,0,0,0,0,0,0,-1,580,323,0,0
-637,701,0,0,0,0,0,0,0,0,0,-1,587,323,0,0
-630,701,0,0,0,0,0,0,0,0,0,-1,594,323,0,0
-623,701,0,0,0,0,0,0,0,0,0,-1,601,323,0,0
-616,701,0,0,0,0,0,0,0,0,0,-1,608,323,0,0
-609,701,0,0,0,0,0,0,0,0,0,-1,615,323,0,0
-602,701,0,0,0,0,0,0,0,0,0,-1,622,323,0,0
-595,701,0,0,0,0,0,0,0,0,0,-1,629,323,0,0
-588,701,0,0,0,0,0,0,0,0,0,-1,636,323,0,0
-581,701,0,0,0,0,0,0,0,0,0,-1,643,323,0,0
-574,701,0,0,0,0,0,0,0,0,0,-1,650,323,0,0
-567,701,0,0,0,0,0,0,0,0,0,-1,657,323,0,0
-560,701,0,0,0,0,0,0,0,0,0,-1,664,323,0,0
-553,701,0,0,0,0,0,0,0,0,0,-1,671,323,0,0
-546,701,0,0,0,0,0,0,0,0,0,-1,678,323,0,0
-539,701,0,0,0,0,0,0,0,0,0,-1,685,323,0,0
-532,701,0,0,0,0,0,0,0,0,0,-1,692,323,0,0
-525,701,0,0,0,0,0,0,0,0,0,-1,699,323,0,0
-518,701,0,0,0,0,0,0,0,0,0,-1,706,323,0,0
-511,701,0,0,0,0,0,0,0,0,0,-1,713,323,0,0
-504,701,0,0,0,0,0,0,0,0,0,-1,720,323,0,0
-497,701,0,0,0,0,0,0,0,0,0,-1,727,323,0,0
-490,701,0,0,0,0,0,0,0,0,0,-1,734,323,0,0
-483,701,0,0,0,0,0,0,0,0,0,-1,741,323,0,0
-476,701,0,0,0,0,0,0,0,0,0,-1,748,323,0,0
-469,701,0,0,0,0,0,0,0,0,0,-1,755,323,0,0
-462,701,0,0,0,0,0,0,0,0,0,-1,762,323,0,0
-455,701,0,0,0,0,0,0,0,0,0,-1,769,323,0,0
-448,701,0,0,0,0,0,0,0,0,0,-1,776,323,0,0
-441,701,0,0,0,0,0,0,0,0,0,-1,783,323,0,0
-434,701,0,0,0,0,0,0,0,0,0,-1,790,323,0,0
-427,701,0,0,0,0,0,0,0,0,0,-1,797,323,0,0
-420,701,0,0,0,0,0,0,0,0,0,-1,804,323,0,0
-413,701,0,0,0,0,0,0,0,0,0,-1,811,323,0,0
-406,701,0,0,0,0,0,0,0,0,0,-1,818,323,0,0
-399,701,0,0,0,0,0,0,0,0,0,-1,825,323,0,0
-392,701,0,0,0,0,0,0,0,0,0,-1,832,323,0,0
-385,701,0,0,0,0,0,0,0,0,0,-1,839,323,0,0
-378,701,0,0,0,0,0,0,0,0,0,-1,846,323,0,0
-371,701,0,0,0,0,0,0,0,0,0,-1,853,323,0,0
-364,701,0,0,0,0,0,0,0,0,0,-1,860,323,0,0
-357,701,0,0,0,0,0,0,0,0,0,-1,867,323,0,0
-350,701,0,0,0,0,0,0,0,0,0,-1,874,323,0,0
-343,701,0,0,0,0,0,0,0,0,0,-1,881,323,0,0
-336,701,0,0,0,0,0,0,0,0,0,-1,888,323,0,0
-329,701,0,0,0,0,0,0,0,0,0,-1,895,323,0,0
-322,701,0,0,0,0,0,0,0,0,0,-1,902,323,0,0
-315,701,0,0,0,0,0,0,0,0,0,-1,909,323,0,0
-308,701,0,0,0,0,0,0,0,0,0,-1,916,323,0,0
-301,701,0,0,0,0,0,0,0,0,0,-1,923,323,0,0
-294,701,0,0,0,0,0,0,0,0,0,-1,930,323,0,0
-287,701,0,0,0,0,0,0,0,0,0,-1,937,323,0,0
-280,701,0,0,0,0,0,0,0,0,0,-1,944,323,0,0
-273,701,0,0,0,0,0,0,0,0,0,-1,951,323,0,0
-266,701,0,0,0,0,0,0,0,0,0,-1,958,323,0,0
-259,701,0,0,0,0,0,0,0,0,0,-1,965,323,0,0
-252,701,0,0,0,0,0,0,0,0,0,-1,972,323,0,0
-245,701,0,0,0,0,0,0,0,0,0,-1,979,323,0,0
-238,701,0,0,0,0,0,0,0,0,0,-1,986,323,0,0
-231,701,0,0,0,0,0,0,0,0,0,-1,993,323,0,0
-224,701,0,0,0,0,0,0,0,0,0,-1,1000,323,0,0
-217,701,0,0,0,0,0,0,0,0,0,-1,1007,323,0,0
-210,701,0,0,0,0,0,0,0,0,0,-1,1014,323,0,0
-203,701,0,0,0,0,0,0,0,0,0,-1,1021,323,0,0
-196,701,0,0,0,0,0,0,0,0,0,-1,1028,323,0,0
-189,701,0,0,0,0,0,0,0,0,0,-1,1035,323,0,0
-182,701,0,0,0,0,0,0,0,0,0,-1,1042,323,0,0
-175,701,0,0,0,0,0,0,0,0,0,-1,1049,323,0,0
-168,701,0,0,0,0,0,0,0,0,0,-1,1056,323,0,0
-161,701,0,0,0,0,0,0,0,0,0,-1,1063,323,0,0
-154,701,0,0,0,0,0,0,0,0,0,-1,1070,323,0,0
-147,701,0,0,0,0,0,0,0,0,0,-1,1077,323,0,0
-140,701,0,0,0,0,0,0,0,0,0,-1,1084,323,0,0
-133,701,0,0,0,0,0,0,0,0,0,-1,1091,323,0,0
-126,701,0,0,0,0,0,0,0,0,0,-1,1098,323,0,0
-119,701,0,0,0,0,0,0,0,0,0,-1,1105,323,0,0
-112,701,0,0,0,0,0,0,0,0,0,-1,1112,323,0,0
-105,701,0,0,0,0,0,0,0,0,0,-1,1119,323,0,0
-98,701,0,0,0,0,0,0,0,0,0,-1,1126,323,0,0
-91,701,0,0,0,0,0,0,0,0,0,-1,1133,323,0,0
-84,701,0,0,0,0,0,0,0,0,0,-1,1140,323,0,0
-77,701,0,0,0,0,0,0,0,0,0,-1,1147,323,0,0
-70,701,-2.36731,-1.49271,0,0,0,0,0,0,0,-1,1154,323,-2.36729,1.4927
-63,701,-2.479,-0.295959,0,0,0,0,0,0,0,-1,1161,323,-2.47895,0.295961
-56,701,-0.420166,-0.101776,0,0,0,0,0,0,0,-1,1168,323,-0.420119,0.101777
-49,701,-1.09021,-0.155762,0,0,0,0,0,0,0,-1,1175,323,-1.09024,0.155768
-42,701,-0.210327,-0.299133,0,0,0,0,0,0,0,-1,1182,323,-0.210379,0.29914
-35,701,-2.9635,-7.98676,0,0,0,0,0,0,0,-1,1189,323,-2.9635,7.98676
-28,701,-6.64417,-5.4917,0,0,0,0,0,0,0,-1,1196,323,-6.64411,5.4917
-21,701,3.47998,-4.31433,0,0,0,0,0,0,0,-1,1203,323,3.48,4.31434
-14,701,-1.13586,-12.985,0,0,0,0,0,0,0,-1,1210,323,-1.13582,12.9849
-7,701,-0.710938,-13.0802,0.0380321,-0.0787454,-0.0204945,0.0415244,-0.0822378,-0.168783,0.0727315,0.0465007,1217,323,-0.71094,13.0802
0,701,-0.250122,-13.0891,0.0398086,-0.0870677,-0.0232922,0.0439495,-0.0912086,-0.175942,0.0796078,0.0476881,1224,323,-0.250142,13.0891
7,701,0.0822754,-13.0533,0.0398435,-0.0940744,-0.024656,0.0442387,-0.0984696,-0.176409,0.0843524,0.0446432,1231,323,0.0823325,13.0534
14,701,0.396973,-13.4734,0.0385607,-0.0998393,-0.0246998,0.0428367,-0.104115,-0.171419,0.087267,0.0435509,1238,323,0.39696,13.4734
21,701,0.832642,-13.9385,0.0360559,-0.103662,-0.0234775,0.0398954,-0.107501,-0.162106,0.0880329,0.0425574,1245,323,0.832702,13.9385
28,701,0.976074,-14.2484,0.0326176,-0.106095,-0.021293,0.0358126,-0.10929,-0.148937,0.0872821,0.0440278,1252,323,0.976118,14.2483
35,701,1.44519,-14.6393,0.0284112,-0.106915,-0.0184523,0.0308821,-0.109386,-0.133117,0.0851067,0.0444689,1259,323,1.44523,14.6393
42,701,1.60229,-14.7354,0.0233677,-0.105976,-0.015071,0.0251006,-0.107709,-0.114476,0.0814719,0.0439417,1266,323,1.60227,14.7354
49,701,1.48718,-14.9754,0.0207434,-0.109612,-0.0151631,0.022484,-0.111353,-0.114289,0.0827542,0.0430898,1273,323,1.4872,14.9754
56,701,3.10449,-11.9527,0,0,0,0,0,0,0,-1,1280,323,3.10446,11.9527
63,701,2.69629,-11.4834,0,0,0,0,0,0,0,-1,1287,323,2.69633,11.4834
70,701,2.25488,-11.0528,0,0,0,0,0,0,0,-1,1294,323,2.25486,11.0528
77,701,1.82813,-10.6013,0,0,0,0,0,0,0,-1,1301,323,1.82812,10.6012
84,701,1.7561,-12.9289,0,0,0,0,0,0,0,-1,1308,323,1.75608,12.9289
91,701,1.79419,-12.1542,0,0,0,0,0,0,0,-1,1315,323,1.79422,12.1542
98,701,1.83606,-11.5806,0,0,0,0,0,0,0,-1,1322,323,1.83606,11.5806
105,701,2.69128,-10.7445,0,0,0,0,0,0,0,-1,1329,323,2.69123,10.7445
112,701,0.623413,-14.0507,0,0,0,0,0,0,0,-1,1336,323,0.623363,14.0507
119,701,0.14917,-13.0344,0,0,0,0,0,0,0,-1,1343,323,0.149134,13.0344
126,701,0.971069,-12.1102,0,0,0,0,0,0,0,-1,1350,323,0.971125,12.1102
133,701,1.11902,-11.0737,0.0332856,-0.0227107,0.0559732,0.0678726,-0.0572977,0.553492,0.072353,0.047653,1357,323,1.11898,11.0737
140,701,1.14624,-9.96725,0.0325834,-0.00829289,0.0605248,0.0760277,-0.0517372,0.622568,0.0742082,0.0461258,1364,323,1.14625,9.96725
147,701,1.08459,-8.86658,0,0,0,0,0,0,0,-1,1371,323,1.08463,8.86657
154,701,2.01648,-4.89157,0,0,0,0,0,0,0,-1,1378,323,2.01649,4.89157
161,701,2.00525,-3.9213,0,0,0,0,0,0,0,-1,1385,323,2.0052,3.92129
168,701,6.88513,-0.0237427,0,0,0,0,0,0,0,-1,1392,323,6.88517,0.0237498
175,701,6.94556,0.0693054,0,0,0,0,0,0,0,-1,1399,323,6.94555,-0.0692958
182,701,8.80652,5.42807,0,0,0,0,0,0,0,-1,1406,323,8.8065,-5.42808
189,701,8.58081,4.24493,0,0,0,0,0,0,0,-1,1413,323,8.58082,-4.24494
196,701,0,0,0,0,0,0,0,0,0,-1,1420,323,0,0
203,701,0,0,0,0,0,0,0,0,0,-1,1427,323,0,0
210,701,0,0,0,0,0,0,0,0,0,-1,1434,323,0,0
217,701,0,0,0,0,0,0,0,0,0,-1,1441,323,0,0
224,701,0,0,0,0,0,0,0,0,0,-1,1448,323,0,0
231,701,0,0,0,0,0,0,0,0,0,-1,1455,323,0,0
238,701,0,0,0,0,0,0,0,0,0,-1,1462,323,0,0
245,701,0,0,0,0,0,0,0,0,0,-1,1469,323,0,0
252,701,0,0,0,0,0,0,0,0,0,-1,1476,323,0,0
259,701,0,0,0,0,0,0,0,0,0,-1,1483,323,0,0
266,701,0,0,0,0,0,0,0,0,0,-1,1490,323,0,0
273,701,0,0,0,0,0,0,0,0,0,-1,1497,323,0,0
280,701,0,0,0,0,0,0,0,0,0,-1,1504,323,0,0
287,701,0,0,0,0,0,0,0,0,0,-1,1511,323,0,0
294,701,0,0,0,0,0,0,0,0,0,-1,1518,323,0,0
301,701,0,0,0,0,0,0,0,0,0,-1,1525,323,0,0
308,701,0,0,0,0,0,0,0,0,0,-1,1532,323,0,0
315,701,0,0,0,0,0,0,0,0,0,-1,1539,323,0,0
322,701,0,0,0,0,0,0,0,0,0,-1,1546,323,0,0
329,701,0,0,0,0,0,0,0,0,0,-1,1553,323,0,0
336,701,0,0,0,0,0,0,0,0,0,-1,1560,323,0,0
343,701,0,0,0,0,0,0,0,0,0,-1,1567,323,0,0
350,701,0,0,0,0,0,0,0,0,0,-1,1574,323,0,0
357,701,0,0,0,0,0,0,0,0,0,-1,1581,323,0,0
364,701,0,0,0,0,0,0,0,0,0,-1,1588,323,0,0
371,701,0,0,0,0,0,0,0,0,0,-1,1595,323,0,0
378,701,0,0,0,0,0,0,0,0,0,-1,1602,323,0,0
385,701,0,0,0,0,0,0,0,0,0,-1,1609,323,0,0
392,701,0,0,0,0,0,0,0,0,0,-1,1616,323,0,0
399,701,0,0,0,0,0,0,0,0,0,-1,1623,323,0,0
406,701,0,0,0,0,0,0,0,0,0,-1,1630,323,0,0
413,701,0,0,0,0,0,0,0,0,0,-1,1637,323,0,0
420,701,0,0,0,0,0,0,0,0,0,-1,1644,323,0,0
427,701,0,0,0,0,0,0,0,0,0,-1,1651,323,0,0
434,701,0,0,0,0,0,0,0,0,0,-1,1658,323,0,0
441,701,0,0,0,0,0,0,0,0,0,-1,1665,323,0,0
448,701,0,0,0,0,0,0,0,0,0,-1,1672,323,0,0
455,701,0,0,0,0,0,0,0,0,0,-1,1679,323,0,0
462,701,0,0,0,0,0,0,0,0,0,-1,1686,323,0,0
469,701,0,0,0,0,0,0,0,0,0,-1,1693,323,0,0
476,701,0,0,0,0,0,0,0,0,0,-1,1700,323,0,0
483,701,0,0,0,0,0,0,0,0,0,-1,1707,323,0,0
490,701,0,0,0,0,0,0,0,0,0,-1,1714,323,0,0
497,701,0,0,0,0,0,0,0,0,0,-1,1721,323,0,0
504,701,0,0,0,0,0,0,0,0,0,-1,1728,323,0,0
511,701,0,0,0,0,0,0,0,0,0,-1,1735,323,0,0
518,701,0,0,0,0,0,0,0,0,0,-1,1742,323,0,0
525,701,0,0,0,0,0,0,0,0,0,-1,1749,323,0,0
532,701,0,0,0,0,0,0,0,0,0,-1,1756,323,0,0
539,701,0,0,0,0,0,0,0,0,0,-1,1763,323,0,0
546,701,0,0,0,0,0,0,0,0,0,-1,1770,323,0,0
553,701,0,0,0,0,0,0,0,0,0,-1,1777,323,0,0
560,701,0,0,0,0,0,0,0,0,0,-1,1784,323,0,0
567,701,0,0,0,0,0,0,0,0,0,-1,1791,323,0,0
574,701,0,0,0,0,0,0,0,0,0,-1,1798,323,0,0
581,701,0,0,0,0,0,0,0,0,0,-1,1805,323,0,0
588,701,0,0,0,0,0,0,0,0,0,-1,1812,323,0,0
595,701,0,0,0,0,0,0,0,0,0,-1,1819,323,0,0
602,701,0,0,0,0,0,0,0,0,0,-1,1826,323,0,0
609,701,0,0,0,0,0,0,0,0,0,-1,1833,323,0,0
616,701,0,0,0,0,0,0,0,0,0,-1,1840,323,0,0
623,701,0,0,0,0,0,0,0,0,0,-1,1847,323,0,0
630,701,0,0,0,0,0,0,0,0,0,-1,1854,323,0,0
637,701,0,0,0,0,0,0,0,0,0,-1,1861,323,0,0
644,701,0,0,0,0,0,0,0,0,0,-1,1868,323,0,0
651,701,0,0,0,0,0,0,0,0,0,-1,1875,323,0,0
658,701,0,0,0,0,0,0,0,0,0,-1,1882,323,0,0
665,701,0,0,0,0,0,0,0,0,0,-1,1889,323,0,0
672,701,0,0,0,0,0,0,0,0,0,-1,1896,323,0,0
679,701,0,0,0,0,0,0,0,0,0,-1,1903,323,0,0
686,701,0,0,0,0,0,0,0,0,0,-1,1910,323,0,0
693,701,0,0,0,0,0,0,0,0,0,-1,1917,323,0,0
700,701,0,0,0,0,0,0,0,0,0,-1,1924,323,0,0
707,701,0,0,0,0,0,0,0,0,0,-1,1931,323,0,0
714,701,0,0,0,0,0,0,0,0,0,-1,1938,323,0,0
721,701,0,0,0,0,0,0,0,0,0,-1,1945,323,0,0
728,701,0,0,0,0,0,0,0,0,0,-1,1952,323,0,0
735,701,0,0,0,0,0,0,0,0,0,-1,1959,323,0,0
742,701,0,0,0,0,0,0,0,0,0,-1,1966,323,0,0
749,701,0,0,0,0,0,0,0,0,0,-1,1973,323,0,0
756,701,0,0,0,0,0,0,0,0,0,-1,1980,323,0,0
763,701,0,0,0,0,0,0,0,0,0,-1,1987,323,0,0
770,701,0,0,0,0,0,0,0,0,0,-1,1994,323,0,0
777,701,0,0,0,0,0,0,0,0,0,-1,2001,323,0,0
784,701,0,0,0,0,0,0,0,0,0,-1,2008,323,0,0
791,701,0,0,0,0,0,0,0,0,0,-1,2015,323,0,0
798,701,0,0,0,0,0,0,0,0,0,-1,2022,323,0,0
805,701,0,0,0,0,0,0,0,0,0,-1,2029,323,0,0
812,701,0,0,0,0,0,0,0,0,0,-1,2036,323,0,0
-700,694,0,0,0,0,0,0,0,0,0,-1,524,330,0,0
-693,694,0,0,0,0,0,0,0,0,0,-1,531,330,0,0
-686,694,0,0,0,0,0,0,0,0,0,-1,538,330,0,0
-679,694,0,0,0,0,0,0,0,0,0,-1,545,330,0,0
-672,694,0,0,0,0,0,0,0,0,0,-1,552,330,0,0
-665,694,0,0,0,0,0,0,0,0,0,-1,559,330,0,0
-658,694,0,0,0,0,0,0,0,0,0,-1,566,330,0,0
-651,694,0,0,0,0,0,0,0,0,0,-1,573,330,0,0
-644,694,0,0,0,0,0,0,0,0,0,-1,580,330,0,0
-637,694,0,0,0,0,0,0,0,0,0,-1,587,330,0,0
-630,694,0,0,0,0,0,0,0,0,0,-1,594,330,0,0
-623,694,0,0,0,0,0,0,0,0,0,-1,601,330,0,0
-616,694,0,0,0,0,0,0,0,0,0,-1,608,330,0,0
-609,694,0,0,0,0,0,0,0,0,0,-1,615,330,0,0
-602,694,0,0,0,0,0,0,0,0,0,-1,622,330,0,0
-595,694,0,0,0,0,0,0,0,0,0,-1,629,330,0,0
-588,694,0,0,0,0,0,0,0,0,0,-1,636,330,0,0
-581,694,0,0,0,0,0,0,0,0,0,-1,643,330,0,0
-574,694,0,0,0,0,0,0,0,0,0,-1,650,330,0,0
-567,694,0,0,0,0,0,0,0,0,0,-1,657,330,0,0
-560,694,0,0,0,0,0,0,0,0,0,-1,664,330,0,0
-553,694,0,0,0,0,0,0,0,0,0,-1,671,330,0,0
-546,694,0,0,0,0,0,0,0,0,0,-1,678,330,0,0
-539,694,0,0,0,0,0,0,0,0,0,-1,685,330,0,0
-532,694,0,0,0,0,0,0,0,0,0,-1,692,330,0,0
-525,694,0,0,0,0,0,0,0,0,0,-1,699,330,0,0
-518,694,0,0,0,0,0,0,0,0,0,-1,706,330,0,0
-511,694,0,0,0,0,0,0,0,0,0,-1,713,330,0,0
-504,694,0,0,0,0,0,0,0,0,0,-1,720,330,0,0
-497,694,0,0,0,0,0,0,0,0,0,-1,727,330,0,0
-490,694,0,0,0,0,0,0,0,0,0,-1,734,330,0,0
-483,694,0,0,0,0,0,0,0,0,0,-1,741,330,0,0
-476,694,0,0,0,0,0,0,0,0,0,-1,748,330,0,0
-469,694,0,0,0,0,0,0,0,0,0,-1,755,330,0,0
-462,694,0,0,0,0,0,0,0,0,0,-1,762,330,0,0
-455,694,0,0,0,0,0,0,0,0,0,-1,769,330,0,0
-448,694,0,0,0,0,0,0,0,0,0,-1,776,330,0,0
-441,694,0,0,0,0,0,0,0,0,0,-1,783,330,0,0
-434,694,0,0,0,0,0,0,0,0,0,-1,790,330,0,0
-427,694,0,0,0,0,0,0,0,0,0,-1,797,330,0,0
-420,694,0,0,0,0,0,0,0,0,0,-1,804,330,0,0
-413,694,0,0,0,0,0,0,0,0,0,-1,811,330,0,0
-406,694,0,0,0,0,0,0,0,0,0,-1,818,330,0,0
-399,694,0,0,0,0,0,0,0,0,0,-1,825,330,0,0
-392,694,0,0,0,0,0,0,0,0,0,-1,832,330,0,0
-385,694,0,0,0,0,0,0,0,0,0,-1,839,330,0,0
-378,694,0,0,0,0,0,0,0,0,0,-1,846,330,0,0
-371,694,0,0,0,0,0,0,0,0,0,-1,853,330,0,0
-364,694,0,0,0,0,0,0,0,0,0,-1,860,330,0,0
-357,694,0,0,0,0,0,0,0,0,0,-1,867,330,0,0
-350,694,0,0,0,0,0,0,0,0,0,-1,874,330,0,0
-343,694,0,0,0,0,0,0,0,0,0,-1,881,330,0,0
-336,694,0,0,0,0,0,0,0,0,0,-1,888,330,0,0
-329,694,0,0,0,0,0,0,0,0,0,-1,895,330,0,0
-322,694,0,0,0,0,0,0,0,0,0,-1,902,330,0,0
-315,694,0,0,0,0,0,0,0,0,0,-1,909,330,0,0
-308,694,0,0,0,0,0,0,0,0,0,-1,916,330,0,0
-301,694,0,0,0,0,0,0,0,0,0,-1,923,330,0,0
-294,694,0,0,0,0,0,0,0,0,0,-1,930,330,0,0
-287,694,0,0,0,0,0,0,0,0,0,-1,937,330,0,0
-280,694,0,0,0,0,0,0,0,0,0,-1,944,330,0,0
-273,694,0,0,0,0,0,0,0,0,0,-1,951,330,0,0
-266,694,0,0,0,0,0,0,0,0,0,-1,958,330,0,0
-259,694,0,0,0,0,0,0,0,0,0,-1,965,330,0,0
-252,694,0,0,0,0,0,0,0,0,0,-1,972,330,0,0
-245,694,0,0,0,0,0,0,0,0,0,-1,979,330,0,0
-238,694,0,0,0,0,0,0,0,0,0,-1,986,330,0,0
-231,694,0,0,0,0,0,0,0,0,0,-1,993,330,0,0
-224,694,0,0,0,0,0,0,0,0,0,-1,1000,330,0,0
-217,694,0,0,0,0,0,0,0,0,0,-1,1007,330,0,0
-210,694,0,0,0,0,0,0,0,0,0,-1,1014,330,0,0
-203,694,0,0,0,0,0,0,0,0,0,-1,1021,330,0,0
-196,694,0,0,0,0,0,0,0,0,0,-1,1028,330,0,0
-189,694,0,0,0,0,0,0,0,0,0,-1,1035,330,0,0
-182,694,0,0,0,0,0,0,0,0,0,-1,1042,330,0,0
-175,694,0,0,0,0,0,0,0,0,0,-1,1049,330,0,0
-168,694,0,0,0,0,0,0,0,0,0,-1,1056,330,0,0
-161,694,0,0,0,0,0,0,0,0,0,-1,1063,330,0,0
-154,694,0,0,0,0,0,0,0,0,0,-1,1070,330,0,0
-147,694,0,0,0,0,0,0,0,0,0,-1,1077,330,0,0
-140,694,0,0,0,0,0,0,0,0,0,-1,1084,330,0,0
-133,694,0,0,0,0,0,0,0,0,0,-1,1091,330,0,0
-126,694,0,0,0,0,0,0,0,0,0,-1,1098,330,0,0
-119,694,0,0,0,0,0,0,0,0,0,-1,1105,330,0,0
-112,694,0,0,0,0,0,0,0,0,0,-1,1112,330,0,0
-105,694,-1.35962,-7.57141,0,0,0,0,0,0,0,-1,1119,330,-1.3596,7.57142
-98,694,1.34875,-10.1051,0,0,0,0,0,0,0,-1,1126,330,1.34874,10.1051
-91,694,1.35474,-9.22229,0,0,0,0,0,0,0,-1,1133,330,1.35476,9.22229
-84,694,-4.39136,-4.62332,0,0,0,0,0,0,0,-1,1140,330,-4.3914,4.62331
-77,694,-4.93396,-10.2672,0,0,0,0,0,0,0,-1,1147,330,-4.9339,10.2672
-70,694,-6.49402,-10.0714,0,0,0,0,0,0,0,-1,1154,330,-6.49399,10.0714
-63,694,-5.80835,-4.75275,0,0,0,0,0,0,0,-1,1161,330,-5.80834,4.75274
-56,694,-6.50623,-0.649139,0,0,0,0,0,0,0,-1,1168,330,-6.5062,0.649126
-49,694,-1.11426,0.0341797,0,0,0,0,0,0,0,-1,1175,330,-1.11424,-0.0341846
-42,694,-0.346313,-0.709595,0,0,0,0,0,0,0,-1,1182,330,-0.346298,0.709581
-35,694,-0.459106,-1.24713,0,0,0,0,0,0,0,-1,1189,330,-0.459142,1.24714
-28,694,-6.48413,-3.95972,0,0,0,0,0,0,0,-1,1196,330,-6.48414,3.9597
-21,694,-5.01636,-4.28162,0,0,0,0,0,0,0,-1,1203,330,-5.01641,4.28162
-14,694,2.30859,-10.684,0,0,0,0,0,0,0,-1,1210,330,2.30862,10.684
-7,694,1.87,-11.251,0,0,0,0,0,0,0,-1,1217,330,1.86994,11.251
0,694,-0.233643,-11.8447,0.02997,-0.0702349,-0.0207603,0.0341008,-0.0743656,-0.19641,0.0640453,0.048554,1224,330,-0.23367,11.8447
7,694,0.227661,-12.0395,0.0303328,-0.0754702,-0.0217376,0.0346248,-0.0797621,-0.194937,0.0677336,0.0465041,1231,330,0.227659,12.0395
14,694,0.633301,-12.571,0.0296723,-0.0798317,-0.0216564,0.0337997,-0.0839591,-0.188326,0.0700138,0.0442684,1238,330,0.633338,12.571
21,694,1.01953,-13.1519,0.0279847,-0.0825416,-0.0205295,0.0316747,-0.0862316,-0.177843,0.0704605,0.0453313,1245,330,1.0195,13.152
28,694,1.57434,-13.685,0.0255325,-0.0841827,-0.0186193,0.0286062,-0.0872564,-0.163605,0.0696916,0.0460504,1252,330,1.57435,13.685
35,694,0.570313,-13.6022,0.0224233,-0.0844268,-0.0161985,0.024825,-0.0868285,-0.147195,0.0676954,0.0464881,1259,330,0.570274,13.6022
42,694,0.830811,-14.0886,0.0189078,-0.0834962,-0.0134658,0.0206489,-0.0852373,-0.128585,0.0648137,0.0479334,1266,330,0.830823,14.0886
49,694,0.851929,-14.9689,0.0169602,-0.0858797,-0.0132993,0.0186523,-0.0875717,-0.126547,0.06549,0.0457821,1273,330,0.851875,14.9689
56,694,0.72998,-15.0424,0,0,0,0,0,0,0,-1,1280,330,0.729979,15.0425
63,694,2.18481,-11.4925,0,0,0,0,0,0,0,-1,1287,330,2.18486,11.4925
70,694,2.099,-11.3342,0,0,0,0,0,0,0,-1,1294,330,2.09903,11.3342
77,694,2.01318,-11.1759,0,0,0,0,0,0,0,-1,1301,330,2.0132,11.1759
84,694,1.41113,-12.8959,0,0,0,0,0,0,0,-1,1308,330,1.41118,12.8959
91,694,1.4823,-12.2679,0,0,0,0,0,0,0,-1,1315,330,1.48229,12.2679
98,694,-1.74646,-14.7957,0,0,0,0,0,0,0,-1,1322,330,-1.74646,14.7957
105,694,0.39917,-15.1153,0,0,0,0,0,0,0,-1,1329,330,0.399175,15.1153
112,694,0.599121,-14.1459,0.0258921,-0.0455282,0.027433,0.0352129,-0.054849,0.327528,0.0524076,0.0446728,1336,330,0.599136,14.1459
119,694,0.774048,-13.1927,0.0260418,-0.0387193,0.0317485,0.0390095,-0.0516871,0.387771,0.052534,0.043778,1343,330,0.774023,13.1927
126,694,0.896729,-12.2426,0.026089,-0.0307431,0.0360065,0.0435416,-0.0481957,0.45134,0.0529873,0.0448967,1350,330,0.896745,12.2426
133,694,1.06702,-11.2363,0.0256213,-0.0202834,0.0397755,0.0485917,-0.0432538,0.523712,0.0530569,0.0465558,1357,330,1.06703,11.2363
140,694,1.23743,-10.0346,0.0253488,-0.00983894,0.0430765,0.0542859,-0.038776,0.591521,0.0539775,0.0450653,1364,330,1.23745,10.0346
147,694,1.56689,-8.99121,0,0,0,0,0,0,0,-1,1371,330,1.56687,8.99122
154,694,1.90002,-8.23224,0,0,0,0,0,0,0,-1,1378,330,1.90005,8.23223
161,694,1.6925,-10.4743,0,0,0,0,0,0,0,-1,1385,330,1.69248,10.4743
168,694,6.77161,1.01288,0,0,0,0,0,0,0,-1,1392,330,6.77156,-1.01287
175,694,6.72839,0.473175,0,0,0,0,0,0,0,-1,1399,330,6.72838,-0.473182
182,694,8.29028,5.75238,0,0,0,0,0,0,0,-1,1406,330,8.29034,-5.75237
189,694,7.9801,4.46118,0,0,0,0,0,0,0,-1,1413,330,7.9801,-4.46118
196,694,7.39331,3.32632,0,0,0,0,0,0,0,-1,1420,330,7.39329,-3.32633
203,694,7.04492,2.20529,0,0,0,0,0,0,0,-1,1427,330,7.04496,-2.20529
210,694,6.44714,0.646912,0,0,0,0,0,0,0,-1,1434,330,6.44717,-0.646903
217,694,7.12061,-0.644958,0,0,0,0,0,0,0,-1,1441,330,7.12059,0.644961
224,694,6.74011,-1.70544,0,0,0,0,0,0,0,-1,1448,330,6.74013,1.70546
231,694,0,0,0,0,0,0,0,0,0,-1,1455,330,0,0
238,694,0,0,0,0,0,0,0,0,0,-1,1462,330,0,0
245,694,0,0,0,0,0,0,0,0,0,-1,1469,330,0,0
252,694,0,0,0,0,0,0,0,0,0,-1,1476,330,0,0
259,694,0,0,0,0,0,0,0,0,0,-1,1483,330,0,0
266,694,0,0,0,0,0,0,0,0,0,-1,1490,330,0,0
273,694,0,0,0,0,0,0,0,0,0,-1,1497,330,0,0
280,694,0,0,0,0,0,0,0,0,0,-1,1504,330,0,0
287,694,0,0,0,0,0,0,0,0,0,-1,1511,330,0,0
294,694,0,0,0,0,0,0,0,0,0,-1,1518,330,0,0
301,694,0,0,0,0,0,0,0,0,0,-1,1525,330,0,0
308,694,0,0,0,0,0,0,0,0,0,-1,1532,330,0,0
315,694,0,0,0,0,0,0,0,0,0,-1,1539,330,0,0
322,694,0,0,0,0,0,0,0,0,0,-1,1546,330,0,0
329,694,0,0,0,0,0,0,0,0,0,-1,1553,330,0,0
336,694,0,0,0,0,0,0,0,0,0,-1,1560,330,0,0
343,694,0,0,0,0,0,0,0,0,0,-1,1567,330,0,0
350,694,0,0,0,0,0,0,0,0,0,-1,1574,330,0,0
357,694,0,0,0,0,0,0,0,0,0,-1,1581,330,0,0
364,694,0,0,0,0,0,0,0,0,0,-1,1588,330,0,0
371,694,0,0,0,0,0,0,0,0,0,-1,1595,330,0,0
378,694,0,0,0,0,0,0,0,0,0,-1,1602,330,0,0
385,694,0,0,0,0,0,0,0,0,0,-1,1609,330,0,0
392,694,0,0,0,0,0,0,0,0,0,-1,1616,330,0,0
399,694,0,0,0,0,0,0,0,0,0,-1,1623,330,0,0
406,694,0,0,0,0,0,0,0,0,0,-1,1630,330,0,0
413,694,0,0,0,0,0,0,0,0,0,-1,1637,330,0,0
420,694,0,0,0,0,0,0,0,0,0,-1,1644,330,0,0
427,694,0,0,0,0,0,0,0,0,0,-1,1651,330,0,0
434,694,0,0,0,0,0,0,0,0,0,-1,1658,330,0,0
441,694,0,0,0,0,0,0,0,0,0,-1,1665,330,0,0
448,694,0,0,0,0,0,0,0,0,0,-1,1672,330,0,0
455,694,0,0,0,0,0,0,0,0,0,-1,1679,330,0,0
462,694,0,0,0,0,0,0,0,0,0,-1,1686,330,0,0
469,694,0,0,0,0,0,0,0,0,0,-1,1693,330,0,0
476,694,0,0,0,0,0,0,0,0,0,-1,1700,330,0,0
483,694,0,0,0,0,0,0,0,0,0,-1,1707,330,0,0
490,694,0,0,0,0,0,0,0,0,0,-1,1714,330,0,0
497,694,0,0,0,0,0,0,0,0,0,-1,1721,330,0,0
504,694,0,0,0,0,0,0,0,0,0,-1,1728,330,0,0
511,694,0,0,0,0,0,0,0,0,0,-1,1735,330,0,0
518,694,0,0,0,0,0,0,0,0,0,-1,1742,330,0,0
525,694,0,0,0,0,0,0,0,0,0,-1,1749,330,0,0
532,694,0,0,0,0,0,0,0,0,0,-1,1756,330,0,0
539,694,0,0,0,0,0,0,0,0,0,-1,1763,330,0,0
546,694,0,0,0,0,0,0,0,0,0,-1,1770,330,0,0
553,694,0,0,0,0,0,0,0,0,0,-1,1777,330,0,0
560,694,0,0,0,0,0,0,0,0,0,-1,1784,330,0,0
567,694,0,0,0,0,0,0,0,0,0,-1,1791,330,0,0
574,694,0,0,0,0,0,0,0,0,0,-1,1798,330,0,0
581,694,0,0,0,0,0,0,0,0,0,-1,1805,330,0,0
588,694,0,0,0,0,0,0,0,0,0,-1,1812,330,0,0
595,694,0,0,0,0,0,0,0,0,0,-1,1819,330,0,0
602,694,0,0,0,0,0,0,0,0,0,-1,1826,330,0,0
609,694,0,0,0,0,0,0,0,0,0,-1,1833,330,0,0
616,694,0,0,0,0,0,0,0,0,0,-1,1840,330,0,0
623,694,0,0,0,0,0,0,0,0,0,-1,1847,330,0,0
630,694,0,0,0,0,0,0,0,0,0,-1,1854,330,0,0
637,694,0,0,0,0,0,0,0,0,0,-1,1861,330,0,0
644,694,0,0,0,0,0,0,0,0,0,-1,1868,330,0,0
651,694,0,0,0,0,0,0,0,0,0,-1,1875,330,0,0
658,694,0,0,0,0,0,0,0,0,0,-1,1882,330,0,0
665,694,0,0,0,0,0,0,0,0,0,-1,1889,330,0,0
672,694,0,0,0,0,0,0,0,0,0,-1,1896,330,0,0
679,694,0,0,0,0,0,0,0,0,0,-1,1903,330,0,0
686,694,0,0,0,0,0,0,0,0,0,-1,1910,330,0,0
693,694,0,0,0,0,0,0,0,0,0,-1,1917,330,0,0
700,694,0,0,0,0,0,0,0,0,0,-1,1924,330,0,0
707,694,0,0,0,0,0,0,0,0,0,-1,1931,330,0,0
714,694,0,0,0,0,0,0,0,0,0,-1,1938,330,0,0
721,694,0,0,0,0,0,0,0,0,0,-1,1945,330,0,0
728,694,0,0,0,0,0,0,0,0,0,-1,1952,330,0,0
735,694,0,0,0,0,0,0,0,0,0,-1,1959,330,0,0
742,694,0,0,0,0,0,0,0,0,0,-1,1966,330,0,0
749,694,0,0,0,0,0,0,0,0,0,-1,1973,330,0,0
756,694,0,0,0,0,0,0,0,0,0,-1,1980,330,0,0
763,694,0,0,0,0,0,0,0,0,0,-1,1987,330,0,0
770,694,0,0,0,0,0,0,0,0,0,-1,1994,330,0,0
777,694,0,0,0,0,0,0,0,0,0,-1,2001,330,0,0
784,694,0,0,0,0,0,0,0,0,0,-1,2008,330,0,0
791,694,0,0,0,0,0,0,0,0,0,-1,2015,330,0,0
798,694,0,0,0,0,0,0,0,0,0,-1,2022,330,0,0
805,694,0,0,0,0,0,0,0,0,0,-1,2029,330,0,0
812,694,0,0,0,0,0,0,0,0,0,-1,2036,330,0,0
-700,687,0,0,0,0,0,0,0,0,0,-1,524,337,0,0
-693,687,0,0,0,0,0,0,0,0,0,-1,531,337,0,0
-686,687,0,0,0,0,0,0,0,0,0,-1,538,337,0,0
-679,687,0,0,0,0,0,0,0,0,0,-1,545,337,0,0
-672,687,0,0,0,0,0,0,0,0,0,-1,552,337,0,0
-665,687,0,0,0,0,0,0,0,0,0,-1,559,337,0,0
-658,687,0,0,0,0,0,0,0,0,0,-1,566,337,0,0
-651,687,0,0,0,0,0,0,0,0,0,-1,573,337,0,0
-644,687,0,0,0,0,0,0,0,0,0,-1,580,337,0,0
-637,687,0,0,0,0,0,0,0,0,0,-1,587,337,0,0
-630,687,0,0,0,0,0,0,0,0,0,-1,594,337,0,0
-623,687,0,0,0,0,0,0,0,0,0,-1,601,337,0,0
-616,687,0,0,0,0,0,0,0,0,0,-1,608,337,0,0
-609,687,0,0,0,0,0,0,0,0,0,-1,615,337,0,0
-602,687,0,0,0,0,0,0,0,0,0,-1,622,337,0,0
-595,687,0,0,0,0,0,0,0,0,0,-1,629,337,0,0
-588,687,0,0,0,0,0,0,0,0,0,-1,636,337,0,0
-581,687,0,0,0,0,0,0,0,0,0,-1,643,337,0,0
-574,687,0,0,0,0,0,0,0,0,0,-1,650,337,0,0
-567,687,0,0,0,0,0,0,0,0,0,-1,657,337,0,0
-560,687,0,0,0,0,0,0,0,0,0,-1,664,337,0,0
-553,687,0,0,0,0,0,0,0,0,0,-1,671,337,0,0
-546,687,0,0,0,0,0,0,0,0,0,-1,678,337,0,0
-539,687,0,0,0,0,0,0,0,0,0,-1,685,337,0,0
-532,687,0,0,0,0,0,0,0,0,0,-1,692,337,0,0
-525,687,0,0,0,0,0,0,0,0,0,-1,699,337,0,0
-518,687,0,0,0,0,0,0,0,0,0,-1,706,337,0,0
-511,687,0,0,0,0,0,0,0,0,0,-1,713,337,0,0
-504,687,0,0,0,0,0,0,0,0,0,-1,720,337,0,0
-497,687,0,0,0,0,0,0,0,0,0,-1,727,337,0,0
-490,687,0,0,0,0,0,0,0,0,0,-1,734,337,0,0
-483,687,0,0,0,0,0,0,0,0,0,-1,741,337,0,0
-476,687,0,0,0,0,0,0,0,0,0,-1,748,337,0,0
-469,687,0,0,0,0,0,0,0,0,0,-1,755,337,0,0
-462,687,0,0,0,0,0,0,0,0,0,-1,762,337,0,0
-455,687,0,0,0,0,0,0,0,0,0,-1,769,337,0,0
-448,687,0,0,0,0,0,0,0,0,0,-1,776,337,0,0
-441,687,0,0,0,0,0,0,0,0,0,-1,783,337,0,0
-434,687,0,0,0,0,0,0,0,0,0,-1,790,337,0,0
-427,687,0,0,0,0,0,0,0,0,0,-1,797,337,0,0
-420,687,0,0,0,0,0,0,0,0,0,-1,804,337,0,0
-413,687,0,0,0,0,0,0,0,0,0,-1,811,337,0,0
-406,687,0,0,0,0,0,0,0,0,0,-1,818,337,0,0
-399,687,0,0,0,0,0,0,0,0,0,-1,825,337,0,0
-392,687,0,0,0,0,0,0,0,0,0,-1,832,337,0,0
-385,687,0,0,0,0,0,0,0,0,0,-1,839,337,0,0
-378,687,0,0,0,0,0,0,0,0,0,-1,846,337,0,0
-371,687,0,0,0,0,0,0,0,0,0,-1,853,337,0,0
-364,687,0,0,0,0,0,0,0,0,0,-1,860,337,0,0
-357,687,0,0,0,0,0,0,0,0,0,-1,867,337,0,0
-350,687,0,0,0,0,0,0,0,0,0,-1,874,337,0,0
-343,687,0,0,0,0,0,0,0,0,0,-1,881,337,0,0
-336,687,0,0,0,0,0,0,0,0,0,-1,888,337,0,0
-329,687,0,0,0,0,0,0,0,0,0,-1,895,337,0,0
-322,687,0,0,0,0,0,0,0,0,0,-1,902,337,0,0
-315,687,0,0,0,0,0,0,0,0,0,-1,909,337,0,0
-308,687,0,0,0,0,0,0,0,0,0,-1,916,337,0,0
-301,687,0,0,0,0,0,0,0,0,0,-1,923,337,0,0
-294,687,0,0,0,0,0,0,0,0,0,-1,930,337,0,0
-287,687,0,0,0,0,0,0,0,0,0,-1,937,337,0,0
-280,687,0,0,0,0,0,0,0,0,0,-1,944,337,0,0
-273,687,0,0,0,0,0,0,0,0,0,-1,951,337,0,0
-266,687,0,0,0,0,0,0,0,0,0,-1,958,337,0,0
-259,687,0,0,0,0,0,0,0,0,0,-1,965,337,0,0
-252,687,0,0,0,0,0,0,0,0,0,-1,972,337,0,0
-245,687,0,0,0,0,0,0,0,0,0,-1,979,337,0,0
-238,687,0,0,0,0,0,0,0,0,0,-1,986,337,0,0
-231,687,0,0,0,0,0,0,0,0,0,-1,993,337,0,0
-224,687,0,0,0,0,0,0,0,0,0,-1,1000,337,0,0
-217,687,0,0,0,0,0,0,0,0,0,-1,1007,337,0,0
-210,687,0,0,0,0,0,0,0,0,0,-1,1014,337,0,0
-203,687,0,0,0,0,0,0,0,0,0,-1,1021,337,0,0
-196,687,0,0,0,0,0,0,0,0,0,-1,1028,337,0,0
-189,687,0,0,0,0,0,0,0,0,0,-1,1035,337,0,0
-182,687,0,0,0,0,0,0,0,0,0,-1,1042,337,0,0
-175,687,0,0,0,0,0,0,0,0,0,-1,1049,337,0,0
-168,687,0,0,0,0,0,0,0,0,0,-1,1056,337,0,0
-161,687,0,0,0,0,0,0,0,0,0,-1,1063,337,0,0
-154,687,0,0,0,0,0,0,0,0,0,-1,1070,337,0,0
-147,687,0,0,0,0,0,0,0,0,0,-1,1077,337,0,0
-140,687,0,0,0,0,0,0,0,0,0,-1,1084,337,0,0
-133,687,1.63049,-10.3847,0,0,0,0,0,0,0,-1,1091,337,1.63044,10.3847
-126,687,0.941284,-10.8708,0,0,0,0,0,0,0,-1,1098,337,0.941263,10.8708
-119,687,0.577881,-11.4252,0,0,0,0,0,0,0,-1,1105,337,0.57784,11.4252
-112,687,0.14917,-11.9645,0,0,0,0,0,0,0,-1,1112,337,0.149153,11.9645
-105,687,-0.227173,-12.5151,0,0,0,0,0,0,0,-1,1119,337,-0.227166,12.5151
-98,687,-1.97437,-6.83603,0,0,0,0,0,0,0,-1,1126,337,-1.97434,6.83603
-91,687,2.28162,-7.72437,0,0,0,0,0,0,0,-1,1133,337,2.28167,7.72437
-84,687,-0.867676,-5.7392,0,0,0,0,0,0,0,-1,1140,337,-0.867619,5.73919
-77,687,-3.63806,-12.9185,0,0,0,0,0,0,0,-1,1147,337,-3.6381,12.9185
-70,687,-5.26892,-13.0977,0,0,0,0,0,0,0,-1,1154,337,-5.26893,13.0977
-63,687,-7.70837,-12.9269,0,0,0,0,0,0,0,-1,1161,337,-7.70833,12.9269
-56,687,-7.86511,-5.93417,0,0,0,0,0,0,0,-1,1168,337,-7.86511,5.93419
-49,687,-7.44934,-0.550262,0,0,0,0,0,0,0,-1,1175,337,-7.44938,0.550261
-42,687,-4.2019,-0.405609,0,0,0,0,0,0,0,-1,1182,337,-4.20192,0.405614
-35,687,-4.42273,-0.688171,0,0,0,0,0,0,0,-1,1189,337,-4.42276,0.688178
-28,687,-1.14038,-1.39072,0,0,0,0,0,0,0,-1,1196,337,-1.14035,1.3907
-21,687,2.81799,-11.3545,0,0,0,0,0,0,0,-1,1203,337,2.81801,11.3544
-14,687,2.35095,-10.9723,0.0189578,-0.0469176,-0.0142064,0.0218909,-0.0498507,-0.203603,0.0424556,0.0475544,1210,337,2.351,10.9723
-7,687,1.92688,-11.2538,0.0207632,-0.0509097,-0.0163799,0.0243292,-0.0544757,-0.21436,0.0465945,0.0475027,1217,337,1.92691,11.2538
0,687,1.96863,-11.2039,0,0,0,0,0,0,0,-1,1224,337,1.96866,11.204
7,687,0.698242,-11.5454,0.0224966,-0.058986,-0.0184446,0.0264773,-0.0629667,-0.212559,0.0530536,0.0472077,1231,337,0.698266,11.5454
14,687,0.993774,-11.8945,0.0222273,-0.0621898,-0.0182791,0.0260154,-0.0659778,-0.204342,0.0547573,0.0439145,1238,337,0.993826,11.8945
21,687,1.37341,-12.3715,0.0211161,-0.0640296,-0.0172699,0.0244856,-0.067399,-0.192686,0.0549443,0.0466321,1245,337,1.37337,12.3715
28,687,1.24841,-11.7846,0,0,0,0,0,0,0,-1,1252,337,1.24837,11.7846
35,687,1.8363,-11.5814,0,0,0,0,0,0,0,-1,1259,337,1.8363,11.5814
42,687,0.163208,-13.5193,0,0,0,0,0,0,0,-1,1266,337,0.163245,13.5193
49,687,2.46851,-10.844,0,0,0,0,0,0,0,-1,1273,337,2.46853,10.844
56,687,2.2168,-11.6241,0,0,0,0,0,0,0,-1,1280,337,2.21676,11.6241
63,687,2.15063,-11.5139,0,0,0,0,0,0,0,-1,1287,337,2.15062,11.5139
70,687,2.08044,-11.4418,0.00943229,-0.063304,-0.00629902,0.00997376,-0.0638454,-0.0857501,0.0462481,0.041512,1294,337,2.0804,11.4418
77,687,2.08435,-11.4263,0,0,0,0,0,0,0,-1,1301,337,2.08429,11.4263
84,687,2.18225,-11.4786,0,0,0,0,0,0,0,-1,1308,337,2.18231,11.4786
91,687,-1.28857,-15.9683,0,0,0,0,0,0,0,-1,1315,337,-1.28862,15.9683
98,687,-0.378418,-15.0498,0.0152467,-0.0412613,0.0113362,0.017436,-0.0434507,0.19078,0.0362067,0.0461501,1322,337,-0.37843,15.0498
105,687,0.369507,-14.1585,0,0,0,0,0,0,0,-1,1329,337,0.369481,14.1585
112,687,0.893311,-13.3891,0.0184859,-0.0352436,0.0184962,0.0242375,-0.0409952,0.301481,0.0380741,0.0448107,1336,337,0.893341,13.3891
119,687,1.02722,-12.7175,0.0189047,-0.0304427,0.0217168,0.0271006,-0.0386386,0.360873,0.0381489,0.0419509,1343,337,1.0272,12.7175
126,687,0.922729,-12.1283,0.0192068,-0.0247193,0.0248704,0.0304238,-0.0359363,0.423698,0.038357,0.0422663,1350,337,0.922783,12.1283
133,687,1.10742,-11.3623,0.0191109,-0.0172379,0.027599,0.0339821,-0.0321092,0.494229,0.038163,0.0461111,1357,337,1.1074,11.3623
140,687,1.31177,-10.7361,0,0,0,0,0,0,0,-1,1364,337,1.31179,10.7361
147,687,1.27893,-10.2865,0,0,0,0,0,0,0,-1,1371,337,1.2789,10.2865
154,687,1.86877,-10.5416,0,0,0,0,0,0,0,-1,1378,337,1.86878,10.5416
161,687,6.5564,1.68158,0,0,0,0,0,0,0,-1,1385,337,6.55636,-1.68157
168,687,6.66968,1.37039,0,0,0,0,0,0,0,-1,1392,337,6.6697,-1.37039
175,687,6.64075,0.771606,0,0,0,0,0,0,0,-1,1399,337,6.64073,-0.771595
182,687,6.67249,0.289917,0,0,0,0,0,0,0,-1,1406,337,6.67247,-0.289916
189,687,7.76062,4.53635,0,0,0,0,0,0,0,-1,1413,337,7.76064,-4.53636
196,687,6.99048,3.2966,0,0,0,0,0,0,0,-1,1420,337,6.99046,-3.2966
203,687,6.36499,2.1445,0,0,0,0,0,0,0,-1,1427,337,6.36499,-2.14451
210,687,6.68066,0.674652,0,0,0,0,0,0,0,-1,1434,337,6.68062,-0.674655
217,687,5.99683,-0.630493,0,0,0,0,0,0,0,-1,1441,337,5.99684,0.630497
224,687,5.52917,0.524902,0,0,0,0,0,0,0,-1,1448,337,5.5292,-0.524915
231,687,5.85583,-1.73651,0,0,0,0,0,0,0,-1,1455,337,5.85577,1.73651
238,687,5.96582,-2.96774,0,0,0,0,0,0,0,-1,1462,337,5.96577,2.96773
245,687,1.28259,2.32211,0,0,0,0,0,0,0,-1,1469,337,1.28258,-2.32211
252,687,1.97278,3.88422,0,0,0,0,0,0,0,-1,1476,337,1.97281,-3.88421
259,687,0,0,0,0,0,0,0,0,0,-1,1483,337,0,0
266,687,0,0,0,0,0,0,0,0,0,-1,1490,337,0,0
273,687,0,0,0,0,0,0,0,0,0,-1,1497,337,0,0
280,687,0,0,0,0,0,0,0,0,0,-1,1504,337,0,0
287,687,0,0,0,0,0,0,0,0,0,-1,1511,337,0,0
294,687,0,0,0,0,0,0,0,0,0,-1,1518,337,0,0
301,687,0,0,0,0,0,0,0,0,0,-1,1525,337,0,0
308,687,0,0,0,0,0,0,0,0,0,-1,1532,337,0,0
315,687,0,0,0,0,0,0,0,0,0,-1,1539,337,0,0
322,687,0,0,0,0,0,0,0,0,0,-1,1546,337,0,0
329,687,0,0,0,0,0,0,0,0,0,-1,1553,337,0,0
336,687,0,0,0,0,0,0,0,0,0,-1,1560,337,0,0
343,687,0,0,0,0,0,0,0,0,0,-1,1567,337,0,0
350,687,0,0,0,0,0,0,0,0,0,-1,1574,337,0,0
357,687,0,0,0,0,0,0,0,0,0,-1,1581,337,0,0
364,687,0,0,0,0,0,0,0,0,0,-1,1588,337,0,0
371,687,0,0,0,0,0,0,0,0,0,-1,1595,337,0,0
378,687,0,0,0,0,0,0,0,0,0,-1,1602,337,0,0
385,687,0,0,0,0,0,0,0,0,0,-1,1609,337,0,0
392,687,0,0,0,0,0,0,0,0,0,-1,1616,337,0,0
399,687,0,0,0,0,0,0,0,0,0,-1,1623,337,0,0
406,687,0,0,0,0,0,0,0,0,0,-1,1630,337,0,0
413,687,0,0,0,0,0,0,0,0,0,-1,1637,337,0,0
420,687,0,0,0,0,0,0,0,0,0,-1,1644,337,0,0
427,687,0,0,0,0,0,0,0,0,0,-1,1651,337,0,0
434,687,0,0,0,0,0,0,0,0,0,-1,1658,337,0,0
441,687,0,0,0,0,0,0,0,0,0,-1,1665,337,0,0
448,687,0,0,0,0,0,0,0,0,0,-1,1672,337,0,0
455,687,0,0,0,0,0,0,0,0,0,-1,1679,337,0,0
462,687,0,0,0,0,0,0,0,0,0,-1,1686,337,0,0
469,687,0,0,0,0,0,0,0,0,0,-1,1693,337,0,0
476,687,0,0,0,0,0,0,0,0,0,-1,1700,337,0,0
483,687,0,0,0,0,0,0,0,0,0,-1,1707,337,0,0
490,687,0,0,0,0,0,0,0,0,0,-1,1714,337,0,0
497,687,0,0,0,0,0,0,0,0,0,-1,1721,337,0,0
504,687,0,0,0,0,0,0,0,0,0,-1,1728,337,0,0
511,687,0,0,0,0,0,0,0,0,0,-1,1735,337,0,0
518,687,0,0,0,0,0,0,0,0,0,-1,1742,337,0,0
525,687,0,0,0,0,0,0,0,0,0,-1,1749,337,0,0
532,687,0,0,0,0,0,0,0,0,0,-1,1756,337,0,0
539,687,0,0,0,0,0,0,0,0,0,-1,1763,337,0,0
546,687,0,0,0,0,0,0,0,0,0,-1,1770,337,0,0
553,687,0,0,0,0,0,0,0,0,0,-1,1777,337,0,0
560,687,0,0,0,0,0,0,0,0,0,-1,1784,337,0,0
567,687,0,0,0,0,0,0,0,0,0,-1,1791,337,0,0
574,687,0,0,0,0,0,0,0,0,0,-1,1798,337,0,0
581,687,0,0,0,0,0,0,0,0,0,-1,1805,337,0,0
588,687,0,0,0,0,0,0,0,0,0,-1,1812,337,0,0
595,687,0,0,0,0,0,0,0,0,0,-1,1819,337,0,0
602,687,0,0,0,0,0,0,0,0,0,-1,1826,337,0,0
609,687,0,0,0,0,0,0,0,0,0,-1,1833,337,0,0
616,687,0,0,0,0,0,0,0,0,0,-1,1840,337,0,0
623,687,0,0,0,0,0,0,0,0,0,-1,1847,337,0,0
630,687,0,0,0,0,0,0,0,0,0,-1,1854,337,0,0
637,687,0,0,0,0,0,0,0,0,0,-1,1861,337,0,0
644,687,0,0,0,0,0,0,0,0,0,-1,1868,337,0,0
651,687,0,0,0,0,0,0,0,0,0,-1,1875,337,0,0
658,687,0,0,0,0,0,0,0,0,0,-1,1882,337,0,0
665,687,0,0,0,0,0,0,0,0,0,-1,1889,337,0,0
672,687,0,0,0,0,0,0,0,0,0,-1,1896,337,0,0
679,687,0,0,0,0,0,0,0,0,0,-1,1903,337,0,0
686,687,0,0,0,0,0,0,0,0,0,-1,1910,337,0,0
693,687,0,0,0,0,0,0,0,0,0,-1,1917,337,0,0
700,687,0,0,0,0,0,0,0,0,0,-1,1924,337,0,0
707,687,0,0,0,0,0,0,0,0,0,-1,1931,337,0,0
714,687,0,0,0,0,0,0,0,0,0,-1,1938,337,0,0
721,687,0,0,0,0,0,0,0,0,0,-1,1945,337,0,0
728,687,0,0,0,0,0,0,0,0,0,-1,1952,337,0,0
735,687,0,0,0,0,0,0,0,0,0,-1,1959,337,0,0
742,687,0,0,0,0,0,0,0,0,0,-1,1966,337,0,0
749,687,0,0,0,0,0,0,0,0,0,-1,1973,337,0,0
756,687,0,0,0,0,0,0,0,0,0,-1,1980,337,0,0
763,687,0,0,0,0,0,0,0,0,0,-1,1987,337,0,0
770,687,0,0,0,0,0,0,0,0,0,-1,1994,337,0,0
777,687,0,0,0,0,0,0,0,0,0,-1,2001,337,0,0
784,687,0,0,0,0,0,0,0,0,0,-1,2008,337,0,0
791,687,0,0,0,0,0,0,0,0,0,-1,2015,337,0,0
798,687,0,0,0,0,0,0,0,0,0,-1,2022,337,0,0
805,687,0,0,0,0,0,0,0,0,0,-1,2029,337,0,0
812,687,0,0,0,0,0,0,0,0,0,-1,2036,337,0,0
-700,680,0,0,0,0,0,0,0,0,0,-1,524,344,0,0
-693,680,0,0,0,0,0,0,0,0,0,-1,531,344,0,0
-686,680,0,0,0,0,0,0,0,0,0,-1,538,344,0,0
-679,680,0,0,0,0,0,0,0,0,0,-1,545,344,0,0
-672,680,0,0,0,0,0,0,0,0,0,-1,552,344,0,0
-665,680,0,0,0,0,0,0,0,0,0,-1,559,344,0,0
-658,680,0,0,0,0,0,0,0,0,0,-1,566,344,0,0
-651,680,0,0,0,0,0,0,0,0,0,-1,573,344,0,0
-644,680,0,0,0,0,0,0,0,0,0,-1,580,344,0,0
-637,680,0,0,0,0,0,0,0,0,0,-1,587,344,0,0
-630,680,0,0,0,0,0,0,0,0,0,-1,594,344,0,0
-623,680,0,0,0,0,0,0,0,0,0,-1,601,344,0,0
-616,680,0,0,0,0,0,0,0,0,0,-1,608,344,0,0
-609,680,0,0,0,0,0,0,0,0,0,-1,615,344,0,0
-602,680,0,0,0,0,0,0,0,0,0,-1,622,344,0,0
-595,680,0,0,0,0,0,0,0,0,0,-1,629,344,0,0
-588,680,0,0,0,0,0,0,0,0,0,-1,636,344,0,0
-581,680,0,0,0,0,0,0,0,0,0,-1,643,344,0,0
-574,680,0,0,0,0,0,0,0,0,0,-1,650,344,0,0
-567,680,0,0,0,0,0,0,0,0,0,-1,657,344,0,0
-560,680,0,0,0,0,0,0,0,0,0,-1,664,344,0,0
-553,680,0,0,0,0,0,0,0,0,0,-1,671,344,0,0
-546,680,0,0,0,0,0,0,0,0,0,-1,678,344,0,0
-539,680,0,0,0,0,0,0,0,0,0,-1,685,344,0,0
-532,680,0,0,0,0,0,0,0,0,0,-1,692,344,0,0
-525,680,0,0,0,0,0,0,0,0,0,-1,699,344,0,0
-518,680,0,0,0,0,0,0,0,0,0,-1,706,344,0,0
-511,680,0,0,0,0,0,0,0,0,0,-1,713,344,0,0
-504,680,0,0,0,0,0,0,0,0,0,-1,720,344,0,0
-497,680,0,0,0,0,0,0,0,0,0,-1,727,344,0,0
-490,680,0,0,0,0,0,0,0,0,0,-1,734,344,0,0
-483,680,0,0,0,0,0,0,0,0,0,-1,741,344,0,0
-476,680,0,0,0,0,0,0,0,0,0,-1,748,344,0,0
-469,680,0,0,0,0,0,0,0,0,0,-1,755,344,0,0
-462,680,0,0,0,0,0,0,0,0,0,-1,762,344,0,0
-455,680,0,0,0,0,0,0,0,0,0,-1,769,344,0,0
-448,680,0,0,0,0,0,0,0,0,0,-1,776,344,0,0
-441,680,0,0,0,0,0,0,0,0,0,-1,783,344,0,0
-434,680,0,0,0,0,0,0,0,0,0,-1,790,344,0,0
-427,680,0,0,0,0,0,0,0,0,0,-1,797,344,0,0
-420,680,0,0,0,0,0,0,0,0,0,-1,804,344,0,0
-413,680,0,0,0,0,0,0,0,0,0,-1,811,344,0,0
-406,680,0,0,0,0,0,0,0,0,0,-1,818,344,0,0
-399,680,0,0,0,0,0,0,0,0,0,-1,825,344,0,0
-392,680,0,0,0,0,0,0,0,0,0,-1,832,344,0,0
-385,680,0,0,0,0,0,0,0,0,0,-1,839,344,0,0
-378,680,0,0,0,0,0,0,0,0,0,-1,846,344,0,0
-371,680,0,0,0,0,0,0,0,0,0,-1,853,344,0,0
-364,680,0,0,0,0,0,0,0,0,0,-1,860,344,0,0
-357,680,0,0,0,0,0,0,0,0,0,-1,867,344,0,0
-350,680,0,0,0,0,0,0,0,0,0,-1,874,344,0,0
-343,680,0,0,0,0,0,0,0,0,0,-1,881,344,0,0
-336,680,0,0,0,0,0,0,0,0,0,-1,888,344,0,0
-329,680,0,0,0,0,0,0,0,0,0,-1,895,344,0,0
-322,680,0,0,0,0,0,0,0,0,0,-1,902,344,0,0
-315,680,0,0,0,0,0,0,0,0,0,-1,909,344,0,0
-308,680,0,0,0,0,0,0,0,0,0,-1,916,344,0,0
-301,680,0,0,0,0,0,0,0,0,0,-1,923,344,0,0
-294,680,0,0,0,0,0,0,0,0,0,-1,930,344,0,0
-287,680,0,0,0,0,0,0,0,0,0,-1,937,344,0,0
-280,680,0,0,0,0,0,0,0,0,0,-1,944,344,0,0
-273,680,0,0,0,0,0,0,0,0,0,-1,951,344,0,0
-266,680,0,0,0,0,0,0,0,0,0,-1,958,344,0,0
-259,680,0,0,0,0,0,0,0,0,0,-1,965,344,0,0
-252,680,0,0,0,0,0,0,0,0,0,-1,972,344,0,0
-245,680,0,0,0,0,0,0,0,0,0,-1,979,344,0,0
-238,680,0,0,0,0,0,0,0,0,0,-1,986,344,0,0
-231,680,0,0,0,0,0,0,0,0,0,-1,993,344,0,0
-224,680,0,0,0,0,0,0,0,0,0,-1,1000,344,0,0
-217,680,0,0,0,0,0,0,0,0,0,-1,1007,344,0,0
-210,680,0,0,0,0,0,0,0,0,0,-1,1014,344,0,0
-203,680,0,0,0,0,0,0,0,0,0,-1,1021,344,0,0
-196,680,0,0,0,0,0,0,0,0,0,-1,1028,344,0,0
-189,680,0,0,0,0,0,0,0,0,0,-1,1035,344,0,0
-182,680,0,0,0,0,0,0,0,0,0,-1,1042,344,0,0
-175,680,0,0,0,0,0,0,0,0,0,-1,1049,344,0,0
-168,680,0,0,0,0,0,0,0,0,0,-1,1056,344,0,0
-161,680,0,0,0,0,0,0,0,0,0,-1,1063,344,0,0
-154,680,-1.22534,-3.19229,0,0,0,0,0,0,0,-1,1070,344,-1.22529,3.1923
-147,680,-1.80957,-11.6711,0,0,0,0,0,0,0,-1,1077,344,-1.8096,11.6711
-140,680,-0.929688,-12.2493,0,0,0,0,0,0,0,-1,1084,344,-0.929724,12.2493
-133,680,3.11047,-11.7595,0,0,0,0,0,0,0,-1,1091,344,3.11044,11.7595
-126,680,1.31165,-10.1951,0,0,0,0,0,0,0,-1,1098,344,1.31166,10.1951
-119,680,1.04834,-10.3552,0,0,0,0,0,0,0,-1,1105,344,1.04835,10.3552
-112,680,0.719482,-10.732,0,0,0,0,0,0,0,-1,1112,344,0.719423,10.732
-105,680,1.61389,-10.9674,0,0,0,0,0,0,0,-1,1119,344,1.61384,10.9674
-98,680,1.66772,-10.0811,0,0,0,0,0,0,0,-1,1126,344,1.66776,10.0811
-91,680,1.99731,-10.0314,0,0,0,0,0,0,0,-1,1133,344,1.99732,10.0314
-84,680,1.13232,-9.39075,0,0,0,0,0,0,0,-1,1140,344,1.13233,9.39075
-77,680,-0.118652,-5.75586,0,0,0,0,0,0,0,-1,1147,344,-0.118628,5.75586
-70,680,-4.04382,-16.124,0,0,0,0,0,0,0,-1,1154,344,-4.04388,16.124
-63,680,-5.41333,-13.0013,0,0,0,0,0,0,0,-1,1161,344,-5.41332,13.0013
-56,680,-6.96912,-8.83356,0,0,0,0,0,0,0,-1,1168,344,-6.96907,8.83354
-49,680,-6.7677,-2.24063,0,0,0,0,0,0,0,-1,1175,344,-6.76772,2.24063
-42,680,-1.02368,0.618805,0,0,0,0,0,0,0,-1,1182,344,-1.0237,-0.618797
-35,680,-0.947876,-0.942719,0,0,0,0,0,0,0,-1,1189,344,-0.947842,0.942731
-28,680,-1.46118,-1.10574,0,0,0,0,0,0,0,-1,1196,344,-1.4612,1.10575
-21,680,2.84839,-11.6936,0,0,0,0,0,0,0,-1,1203,344,2.84841,11.6936
-14,680,2.35144,-11.2884,0.0132336,-0.0359061,-0.0123352,0.0161562,-0.0388287,-0.232642,0.0326327,0.0461257,1210,344,2.3515,11.2884
-7,680,1.93591,-11.251,0.0145973,-0.0388936,-0.0137147,0.0179087,-0.042205,-0.236912,0.035639,0.046415,1217,344,1.93594,11.251
0,680,1.94312,-11.3954,0.0156,-0.0419664,-0.0146623,0.0191194,-0.0454858,-0.235572,0.0383212,0.0486473,1224,344,1.94308,11.3954
7,680,1.96533,-11.138,0,0,0,0,0,0,0,-1,1231,344,1.96532,11.138
14,680,1.5083,-11.426,0.0161302,-0.0470468,-0.0148729,0.0194564,-0.050373,-0.220022,0.0416123,0.0442107,1238,344,1.50828,11.426
21,680,1.58582,-11.6332,0.0154205,-0.0482403,-0.0139975,0.0183623,-0.051182,-0.20715,0.0416151,0.0440317,1245,344,1.58582,11.6332
28,680,1.62939,-11.6165,0.0142456,-0.0487925,-0.0126473,0.0166883,-0.0512353,-0.190796,0.0408715,0.0422632,1252,344,1.62944,11.6165
35,680,2.12317,-11.6928,0.012619,-0.0484036,-0.0110055,0.0145432,-0.0503278,-0.173089,0.0393069,0.0429815,1259,344,2.12311,11.6928
42,680,2.10291,-11.855,0.0109797,-0.0475976,-0.00927707,0.0124139,-0.0490317,-0.153374,0.0375167,0.043747,1266,344,2.10296,11.855
49,680,2.06824,-11.4186,0.00986642,-0.0482989,-0.00877193,0.0111605,-0.049593,-0.146471,0.0373423,0.0434817,1273,344,2.06822,11.4186
56,680,2.12122,-11.5287,0.00790032,-0.0468565,-0.0078655,0.00900775,-0.0479639,-0.139877,0.035363,0.0410375,1280,344,2.12119,11.5287
63,680,2.0979,-11.464,0.00697767,-0.0460792,-0.00626897,0.00770833,-0.0468099,-0.116027,0.0340679,0.0395724,1287,344,2.09788,11.464
70,680,2.07227,-11.3916,0.00612296,-0.0450397,-0.00451551,0.00651844,-0.0454352,-0.0873581,0.0326803,0.0396685,1294,344,2.07223,11.3916
77,680,2.0614,-11.3326,0,0,0,0,0,0,0,-1,1301,344,2.0614,11.3326
84,680,1.95569,-11.4521,0,0,0,0,0,0,0,-1,1308,344,1.95567,11.4521
91,680,1.82678,-11.7455,0,0,0,0,0,0,0,-1,1315,344,1.82676,11.7455
98,680,1.74463,-11.731,0,0,0,0,0,0,0,-1,1322,344,1.74465,11.731
105,680,0.999756,-13.8529,0,0,0,0,0,0,0,-1,1329,344,0.9997,13.8529
112,680,1.26611,-13.1925,0,0,0,0,0,0,0,-1,1336,344,1.26605,13.1925
119,680,1.27917,-12.2383,0,0,0,0,0,0,0,-1,1343,344,1.27915,12.2383
126,680,1.29712,-11.8792,0.0136442,-0.0192305,0.0166383,0.0205953,-0.0261816,0.395737,0.0270708,0.042886,1350,344,1.29718,11.8792
133,680,1.40198,-11.4586,0.0137524,-0.0139981,0.0185675,0.0230563,-0.0233021,0.464517,0.0267652,0.0440018,1357,344,1.40193,11.4585
140,680,1.42603,-11.063,0.0138378,-0.00874189,0.0202114,0.0256988,-0.0206029,0.530692,0.0267862,0.0488737,1364,344,1.42606,11.063
147,680,1.41455,-10.692,0.0138805,-0.00406495,0.0213823,0.0280964,-0.0182808,0.58674,0.026975,0.0478006,1371,344,1.41454,10.692
154,680,1.64185,-10.6691,0.0136678,-2.10202e-05,0.0225193,0.0303598,-0.016713,0.637866,0.0275556,0.0474585,1378,344,1.64183,10.6691
161,680,1.63928,-10.5886,0,0,0,0,0,0,0,-1,1385,344,1.63924,10.5886
168,680,6.85046,1.69257,0,0,0,0,0,0,0,-1,1392,344,6.85045,-1.69257
175,680,6.66541,0.942078,0,0,0,0,0,0,0,-1,1399,344,6.66538,-0.942088
182,680,6.52917,0.532379,0,0,0,0,0,0,0,-1,1406,344,6.52922,-0.532385
189,680,7.55884,4.77695,0,0,0,0,0,0,0,-1,1413,344,7.55886,-4.77694
196,680,6.55627,3.35254,0,0,0,0,0,0,0,-1,1420,344,6.55622,-3.35255
203,680,5.7334,1.90753,0,0,0,0,0,0,0,-1,1427,344,5.73341,-1.90754
210,680,5.27515,0.493622,0,0,0,0,0,0,0,-1,1434,344,5.27514,-0.493632
217,680,3.96936,1.3656,0,0,0,0,0,0,0,-1,1441,344,3.96942,-1.36559
224,680,3.9491,-0.640228,0,0,0,0,0,0,0,-1,1448,344,3.94908,0.64024
231,680,4.24866,-1.96881,0,0,0,0,0,0,0,-1,1455,344,4.2486,1.96882
238,680,4.29333,-3.23984,0,0,0,0,0,0,0,-1,1462,344,4.29332,3.23984
245,680,2.44397,0.985382,0,0,0,0,0,0,0,-1,1469,344,2.44402,-0.985394
252,680,3.07349,2.18951,0,0,0,0,0,0,0,-1,1476,344,3.0735,-2.18952
259,680,2.82971,1.30682,0,0,0,0,0,0,0,-1,1483,344,2.82972,-1.30684
266,680,2.67554,1.44067,0,0,0,0,0,0,0,-1,1490,344,2.67551,-1.44066
273,680,2.46411,1.54666,0,0,0,0,0,0,0,-1,1497,344,2.46407,-1.54666
280,680,0,0,0,0,0,0,0,0,0,-1,1504,344,0,0
287,680,0,0,0,0,0,0,0,0,0,-1,1511,344,0,0
294,680,0,0,0,0,0,0,0,0,0,-1,1518,344,0,0
301,680,0,0,0,0,0,0,0,0,0,-1,1525,344,0,0
308,680,0,0,0,0,0,0,0,0,0,-1,1532,344,0,0
315,680,0,0,0,0,0,0,0,0,0,-1,1539,344,0,0
322,680,0,0,0,0,0,0,0,0,0,-1,1546,344,0,0
329,680,0,0,0,0,0,0,0,0,0,-1,1553,344,0,0
336,680,0,0,0,0,0,0,0,0,0,-1,1560,344,0,0
343,680,0,0,0,0,0,0,0,0,0,-1,1567,344,0,0
350,680,0,0,0,0,0,0,0,0,0,-1,1574,344,0,0
357,680,0,0,0,0,0,0,0,0,0,-1,1581,344,0,0
364,680,0,0,0,0,0,0,0,0,0,-1,1588,344,0,0
371,680,0,0,0,0,0,0,0,0,0,-1,1595,344,0,0
378,680,0,0,0,0,0,0,0,0,0,-1,1602,344,0,0
385,680,0,0,0,0,0,0,0,0,0,-1,1609,344,0,0
392,680,0,0,0,0,0,0,0,0,0,-1,1616,344,0,0
399,680,0,0,0,0,0,0,0,0,0,-1,1623,344,0,0
406,680,0,0,0,0,0,0,0,0,0,-1,1630,344,0,0
413,680,0,0,0,0,0,0,0,0,0,-1,1637,344,0,0
420,680,0,0,0,0,0,0,0,0,0,-1,1644,344,0,0
427,680,0,0,0,0,0,0,0,0,0,-1,1651,344,0,0
434,680,0,0,0,0,0,0,0,0,0,-1,1658,344,0,0
441,680,0,0,0,0,0,0,0,0,0,-1,1665,344,0,0
448,680,0,0,0,0,0,0,0,0,0,-1,1672,344,0,0
455,680,0,0,0,0,0,0,0,0,0,-1,1679,344,0,0
462,680,0,0,0,0,0,0,0,0,0,-1,1686,344,0,0
469,680,0,0,0,0,0,0,0,0,0,-1,1693,344,0,0
476,680,0,0,0,0,0,0,0,0,0,-1,1700,344,0,0
483,680,0,0,0,0,0,0,0,0,0,-1,1707,344,0,0
490,680,0,0,0,0,0,0,0,0,0,-1,1714,344,0,0
497,680,0,0,0,0,0,0,0,0,0,-1,1721,344,0,0
504,680,0,0,0,0,0,0,0,0,0,-1,1728,344,0,0
511,680,0,0,0,0,0,0,0,0,0,-1,1735,344,0,0
518,680,0,0,0,0,0,0,0,0,0,-1,1742,344,0,0
525,680,0,0,0,0,0,0,0,0,0,-1,1749,344,0,0
532,680,0,0,0,0,0,0,0,0,0,-1,1756,344,0,0
539,680,0,0,0,0,0,0,0,0,0,-1,1763,344,0,0
546,680,0,0,0,0,0,0,0,0,0,-1,1770,344,0,0
553,680,0,0,0,0,0,0,0,0,0,-1,1777,344,0,0
560,680,0,0,0,0,0,0,0,0,0,-1,1784,344,0,0
567,680,0,0,0,0,0,0,0,0,0,-1,1791,344,0,0
574,680,0,0,0,0,0,0,0,0,0,-1,1798,344,0,0
581,680,0,0,0,0,0,0,0,0,0,-1,1805,344,0,0
588,680,0,0,0,0,0,0,0,0,0,-1,1812,344,0,0
595,680,0,0,0,0,0,0,0,0,0,-1,1819,344,0,0
602,680,0,0,0,0,0,0,0,0,0,-1,1826,344,0,0
609,680,0,0,0,0,0,0,0,0,0,-1,1833,344,0,0
616,680,0,0,0,0,0,0,0,0,0,-1,1840,344,0,0
623,680,0,0,0,0,0,0,0,0,0,-1,1847,344,0,0
630,680,0,0,0,0,0,0,0,0,0,-1,1854,344,0,0
637,680,0,0,0,0,0,0,0,0,0,-1,1861,344,0,0
644,680,0,0,0,0,0,0,0,0,0,-1,1868,344,0,0
651,680,0,0,0,0,0,0,0,0,0,-1,1875,344,0,0
658,680,0,0,0,0,0,0,0,0,0,-1,1882,344,0,0
665,680,0,0,0,0,0,0,0,0,0,-1,1889,344,0,0
672,680,0,0,0,0,0,0,0,0,0,-1,1896,344,0,0
679,680,0,0,0,0,0,0,0,0,0,-1,1903,344,0,0
686,680,0,0,0,0,0,0,0,0,0,-1,1910,344,0,0
693,680,0,0,0,0,0,0,0,0,0,-1,1917,344,0,0
700,680,0,0,0,0,0,0,0,0,0,-1,1924,344,0,0
707,680,0,0,0,0,0,0,0,0,0,-1,1931,344,0,0
714,680,0,0,0,0,0,0,0,0,0,-1,1938,344,0,0
721,680,0,0,0,0,0,0,0,0,0,-1,1945,344,0,0
728,680,0,0,0,0,0,0,0,0,0,-1,1952,344,0,0
735,680,0,0,0,0,0,0,0,0,0,-1,1959,344,0,0
742,680,0,0,0,0,0,0,0,0,0,-1,1966,344,0,0
749,680,0,0,0,0,0,0,0,0,0,-1,1973,344,0,0
756,680,0,0,0,0,0,0,0,0,0,-1,1980,344,0,0
763,680,0,0,0,0,0,0,0,0,0,-1,1987,344,0,0
770,680,0,0,0,0,0,0,0,0,0,-1,1994,344,0,0
777,680,0,0,0,0,0,0,0,0,0,-1,2001,344,0,0
784,680,0,0,0,0,0,0,0,0,0,-1,2008,344,0,0
791,680,0,0,0,0,0,0,0,0,0,-1,2015,344,0,0
798,680,0,0,0,0,0,0,0,0,0,-1,2022,344,0,0
805,680,0,0,0,0,0,0,0,0,0,-1,2029,344,0,0
812,680,0,0,0,0,0,0,0,0,0,-1,2036,344,0,0
-700,673,0,0,0,0,0,0,0,0,0,-1,524,351,0,0
-693,673,0,0,0,0,0,0,0,0,0,-1,531,351,0,0
-686,673,0,0,0,0,0,0,0,0,0,-1,538,351,0,0
-679,673,0,0,0,0,0,0,0,0,0,-1,545,351,0,0
-672,673,0,0,0,0,0,0,0,0,0,-1,552,351,0,0
-665,673,0,0,0,0,0,0,0,0,0,-1,559,351,0,0
-658,673,0,0,0,0,0,0,0,0,0,-1,566,351,0,0
-651,673,0,0,0,0,0,0,0,0,0,-1,573,351,0,0
-644,673,0,0,0,0,0,0,0,0,0,-1,580,351,0,0
-637,673,0,0,0,0,0,0,0,0,0,-1,587,351,0,0
-630,673,0,0,0,0,0,0,0,0,0,-1,594,351,0,0
-623,673,0,0,0,0,0,0,0,0,0,-1,601,351,0,0
-616,673,0,0,0,0,0,0,0,0,0,-1,608,351,0,0
-609,673,0,0,0,0,0,0,0,0,0,-1,615,351,0,0
-602,673,0,0,0,0,0,0,0,0,0,-1,622,351,0,0
-595,673,0,0,0,0,0,0,0,0,0,-1,629,351,0,0
-588,673,0,0,0,0,0,0,0,0,0,-1,636,351,0,0
-581,673,0,0,0,0,0,0,0,0,0,-1,643,351,0,0
-574,673,0,0,0,0,0,0,0,0,0,-1,650,351,0,0
-567,673,0,0,0,0,0,0,0,0,0,-1,657,351,0,0
-560,673,0,0,0,0,0,0,0,0,0,-1,664,351,0,0
-553,673,0,0,0,0,0,0,0,0,0,-1,671,351,0,0
-546,673,0,0,0,0,0,0,0,0,0,-1,678,351,0,0
-539,673,0,0,0,0,0,0,0,0,0,-1,685,351,0,0
-532,673,0,0,0,0,0,0,0,0,0,-1,692,351,0,0
-525,673,0,0,0,0,0,0,0,0,0,-1,699,351,0,0
-518,673,0,0,0,0,0,0,0,0,0,-1,706,351,0,0
-511,673,0,0,0,0,0,0,0,0,0,-1,713,351,0,0
-504,673,0,0,0,0,0,0,0,0,0,-1,720,351,0,0
-497,673,0,0,0,0,0,0,0,0,0,-1,727,351,0,0
-490,673,0,0,0,0,0,0,0,0,0,-1,734,351,0,0
-483,673,0,0,0,0,0,0,0,0,0,-1,741,351,0,0
-476,673,0,0,0,0,0,0,0,0,0,-1,748,351,0,0
-469,673,0,0,0,0,0,0,0,0,0,-1,755,351,0,0
-462,673,0,0,0,0,0,0,0,0,0,-1,762,351,0,0
-455,673,0,0,0,0,0,0,0,0,0,-1,769,351,0,0
-448,673,0,0,0,0,0,0,0,0,0,-1,776,351,0,0
-441,673,0,0,0,0,0,0,0,0,0,-1,783,351,0,0
-434,673,0,0,0,0,0,0,0,0,0,-1,790,351,0,0
-427,673,0,0,0,0,0,0,0,0,0,-1,797,351,0,0
-420,673,0,0,0,0,0,0,0,0,0,-1,804,351,0,0
-413,673,0,0,0,0,0,0,0,0,0,-1,811,351,0,0
-406,673,0,0,0,0,0,0,0,0,0,-1,818,351,0,0
-399,673,0,0,0,0,0,0,0,0,0,-1,825,351,0,0
-392,673,0,0,0,0,0,0,0,0,0,-1,832,351,0,0
-385,673,0,0,0,0,0,0,0,0,0,-1,839,351,0,0
-378,673,0,0,0,0,0,0,0,0,0,-1,846,351,0,0
-371,673,0,0,0,0,0,0,0,0,0,-1,853,351,0,0
-364,673,0,0,0,0,0,0,0,0,0,-1,860,351,0,0
-357,673,0,0,0,0,0,0,0,0,0,-1,867,351,0,0
-350,673,0,0,0,0,0,0,0,0,0,-1,874,351,0,0
-343,673,0,0,0,0,0,0,0,0,0,-1,881,351,0,0
-336,673,0,0,0,0,0,0,0,0,0,-1,888,351,0,0
-329,673,0,0,0,0,0,0,0,0,0,-1,895,351,0,0
-322,673,0,0,0,0,0,0,0,0,0,-1,902,351,0,0
-315,673,0,0,0,0,0,0,0,0,0,-1,909,351,0,0
-308,673,0,0,0,0,0,0,0,0,0,-1,916,351,0,0
-301,673,0,0,0,0,0,0,0,0,0,-1,923,351,0,0
-294,673,0,0,0,0,0,0,0,0,0,-1,930,351,0,0
-287,673,0,0,0,0,0,0,0,0,0,-1,937,351,0,0
-280,673,0,0,0,0,0,0,0,0,0,-1,944,351,0,0
-273,673,0,0,0,0,0,0,0,0,0,-1,951,351,0,0
-266,673,0,0,0,0,0,0,0,0,0,-1,958,351,0,0
-259,673,0,0,0,0,0,0,0,0,0,-1,965,351,0,0
-252,673,0,0,0,0,0,0,0,0,0,-1,972,351,0,0
-245,673,0,0,0,0,0,0,0,0,0,-1,979,351,0,0
-238,673,0,0,0,0,0,0,0,0,0,-1,986,351,0,0
-231,673,0,0,0,0,0,0,0,0,0,-1,993,351,0,0
-224,673,0,0,0,0,0,0,0,0,0,-1,1000,351,0,0
-217,673,0,0,0,0,0,0,0,0,0,-1,1007,351,0,0
-210,673,0,0,0,0,0,0,0,0,0,-1,1014,351,0,0
-203,673,0,0,0,0,0,0,0,0,0,-1,1021,351,0,0
-196,673,0,0,0,0,0,0,0,0,0,-1,1028,351,0,0
-189,673,0,0,0,0,0,0,0,0,0,-1,1035,351,0,0
-182,673,0,0,0,0,0,0,0,0,0,-1,1042,351,0,0
-175,673,5.71729,-7.07901,0,0,0,0,0,0,0,-1,1049,351,5.71723,7.079
-168,673,-2.26758,-11.4204,0,0,0,0,0,0,0,-1,1056,351,-2.26762,11.4204
-161,673,3.87073,-11.1271,0,0,0,0,0,0,0,-1,1063,351,3.87074,11.1271
-154,673,-0.579224,-11.8973,0,0,0,0,0,0,0,-1,1070,351,-0.579216,11.8973
-147,673,-0.547607,-11.6821,0.0878791,-0.0360527,-0.0890508,0.134402,-0.0825756,-0.481431,0.126458,0.0448441,1077,351,-0.547623,11.6821
-140,673,0.244385,-11.9825,0,0,0,0,0,0,0,-1,1084,351,0.244353,11.9825
-133,673,1.14063,-12.0141,0,0,0,0,0,0,0,-1,1091,351,1.14067,12.0141
-126,673,3.91003,-10.2144,0,0,0,0,0,0,0,-1,1098,351,3.91004,10.2144
-119,673,2.2644,-9.51627,0,0,0,0,0,0,0,-1,1105,351,2.26435,9.51626
-112,673,0.687378,-10.8992,0,0,0,0,0,0,0,-1,1112,351,0.687331,10.8992
-105,673,1.22803,-10.4231,0,0,0,0,0,0,0,-1,1119,351,1.22806,10.4231
-98,673,1.73792,-10.1299,-0.00394213,0.0224371,-0.0129134,0.0277061,-0.00921116,-1.18339,0.0221879,0.0481216,1126,351,1.73797,10.1299
-91,673,2.20154,-10.2565,-0.0146247,0.0270764,-0.00822527,0.0286402,-0.0161884,-1.38292,0.0262125,0.0463593,1133,351,2.20158,10.2565
-84,673,1.45215,-10.0541,-0.0181506,0.0281055,-0.00855053,0.0296354,-0.0196806,-1.39374,0.0286653,0.0453305,1140,351,1.45214,10.0541
-77,673,0.616333,-9.72266,0,0,0,0,0,0,0,-1,1147,351,0.616302,9.72266
-70,673,1.88684,-4.7381,0,0,0,0,0,0,0,-1,1154,351,1.88682,4.73809
-63,673,1.11719,-2.95016,0,0,0,0,0,0,0,-1,1161,351,1.11724,2.95016
-56,673,-6.18872,-9.52338,0,0,0,0,0,0,0,-1,1168,351,-6.18874,9.52336
-49,673,-0.926758,-0.115448,0,0,0,0,0,0,0,-1,1175,351,-0.926732,0.115444
-42,673,-1.15015,0.289917,0,0,0,0,0,0,0,-1,1182,351,-1.15017,-0.289932
-35,673,-0.919556,-1.00711,0,0,0,0,0,0,0,-1,1189,351,-0.919514,1.00711
-28,673,1.03564,-2.58228,0,0,0,0,0,0,0,-1,1196,351,1.0356,2.58229
-21,673,2.15161,-11.2668,0,0,0,0,0,0,0,-1,1203,351,2.15163,11.2668
-14,673,2.11987,-11.3318,0.00875085,-0.0262105,-0.0101065,0.0114621,-0.0289218,-0.2621,0.024031,0.0463896,1210,351,2.11986,11.3318
-7,673,2.01184,-11.3066,0.00982405,-0.0285604,-0.0109818,0.0127439,-0.0314802,-0.259865,0.0262855,0.0414419,1217,351,2.01183,11.3067
0,673,2.03809,-11.2494,0.010652,-0.0308244,-0.0116115,0.0136814,-0.0338538,-0.255209,0.0282562,0.0435089,1224,351,2.03809,11.2493
7,673,2.02869,-11.2572,0.0111994,-0.0328329,-0.0118691,0.0141949,-0.0358285,-0.247221,0.0297677,0.0453357,1231,351,2.02864,11.2572
14,673,2.08386,-11.3317,0.01129,-0.0344362,-0.0116497,0.0140869,-0.0372331,-0.235625,0.0306177,0.0399019,1238,351,2.08392,11.3317
21,673,2.0957,-11.4143,0.0108576,-0.035177,-0.0109174,0.0133155,-0.0376349,-0.221444,0.0305128,0.0243192,1245,351,2.0957,11.4143
28,673,2.073,-11.427,0.010078,-0.035417,-0.00982989,0.012111,-0.0374501,-0.203947,0.0298347,0.0169152,1252,351,2.07303,11.427
35,673,2.0957,-11.4724,0.00894053,-0.0349324,-0.00852896,0.0105402,-0.0365321,-0.185408,0.0285248,0.0237741,1259,351,2.09576,11.4724
42,673,2.07202,-11.4909,0.00784916,-0.0342382,-0.00718442,0.00904176,-0.0354308,-0.164499,0.0271412,0.0267123,1266,351,2.07199,11.491
49,673,2.03162,-11.433,0.00700801,-0.0344936,-0.00662884,0.00804109,-0.0355267,-0.154602,0.0267705,0.0169702,1273,351,2.03162,11.433
56,673,2.02063,-11.416,0.00541406,-0.0330043,-0.00576263,0.00625981,-0.03385,-0.145726,0.0249168,0.0135461,1280,351,2.0206,11.416
63,673,2.03333,-11.3795,0.00450895,-0.0320383,-0.00442749,0.00503766,-0.032567,-0.118854,0.0235707,0.016689,1287,351,2.03332,11.3795
70,673,2.0332,-11.3478,0.00369429,-0.0309762,-0.00306675,0.00396347,-0.0312454,-0.0875484,0.0222693,0.0280825,1294,351,2.03315,11.3478
77,673,2.04126,-11.3025,0.0034041,-0.0297457,-0.00140299,0.00346337,-0.029805,-0.0422221,0.0211193,0.0374567,1301,351,2.04129,11.3025
84,673,1.92358,-11.3642,0.00422096,-0.027517,0.0011799,0.00426476,-0.0275608,0.037108,0.019948,0.0392382,1308,351,1.92356,11.3642
91,673,1.86707,-11.5584,0.00527678,-0.0244819,0.00313475,0.0056034,-0.0248085,0.103821,0.018689,0.0432606,1315,351,1.86712,11.5584
98,673,1.82202,-11.518,0.00642504,-0.0220407,0.00440664,0.00709161,-0.0227072,0.150125,0.0179745,0.0438798,1322,351,1.82203,11.518
105,673,1.72766,-11.4322,0.00767197,-0.0206527,0.00603775,0.00890529,-0.021886,0.201496,0.0182963,0.0397485,1329,351,1.72765,11.4322
112,673,1.61682,-12.994,0,0,0,0,0,0,0,-1,1336,351,1.61677,12.994
119,673,1.69531,-11.1642,0.00889578,-0.0171338,0.00917399,0.0118041,-0.0200422,0.307,0.0185904,0.0409428,1343,351,1.6953,11.1642
126,673,1.5564,-11.627,0.00932198,-0.0144118,0.0107178,0.0134456,-0.0185353,0.367283,0.018542,0.0378816,1350,351,1.55635,11.627
133,673,1.71814,-11.1764,0.00952042,-0.0108425,0.0120412,0.0151077,-0.0164298,0.434444,0.0182135,0.0387587,1357,351,1.71815,11.1764
140,673,1.65393,-11.0648,0.00964906,-0.00720779,0.013167,0.0168542,-0.0144129,0.5007,0.0180704,0.0402895,1364,351,1.65389,11.0648
147,673,1.62048,-10.9156,0.00967506,-0.00392849,0.013893,0.018342,-0.0125954,0.557759,0.0179641,0.0380592,1371,351,1.62051,10.9156
154,673,1.63232,-10.8403,0.00934962,-0.000834253,0.0146794,0.0197952,-0.0112798,0.618454,0.0181643,0.037584,1378,351,1.63233,10.8403
161,673,1.61951,-10.7776,0,0,0,0,0,0,0,-1,1385,351,1.61949,10.7776
168,673,6.87061,1.83954,0,0,0,0,0,0,0,-1,1392,351,6.87063,-1.83953
175,673,6.6228,1.1459,0,0,0,0,0,0,0,-1,1399,351,6.62276,-1.14591
182,673,6.37244,0.796112,0,0,0,0,0,0,0,-1,1406,351,6.3724,-0.796102
189,673,6.12097,0.265472,0,0,0,0,0,0,0,-1,1413,351,6.121,-0.265482
196,673,6.02173,3.12717,0,0,0,0,0,0,0,-1,1420,351,6.02176,-3.12717
203,673,5.04456,1.6351,0,0,0,0,0,0,0,-1,1427,351,5.04455,-1.63509
210,673,4.79224,0.447479,0,0,0,0,0,0,0,-1,1434,351,4.79229,-0.447469
217,673,2.01648,0.972687,0,0,0,0,0,0,0,-1,1441,351,2.01644,-0.972691
224,673,2.3689,-1.80539,0,0,0,0,0,0,0,-1,1448,351,2.36896,1.80539
231,673,2.65857,-2.18497,0,0,0,0,0,0,0,-1,1455,351,2.65852,2.18496
238,673,3.24146,-1.01593,0,0,0,0,0,0,0,-1,1462,351,3.24142,1.01593
245,673,3.5376,-0.190399,0,0,0,0,0,0,0,-1,1469,351,3.53759,0.1904
252,673,3.80518,0.55603,0,0,0,0,0,0,0,-1,1476,351,3.80519,-0.556022
259,673,3.88562,1.29617,0,0,0,0,0,0,0,-1,1483,351,3.88562,-1.29618
266,673,4.22424,2.04834,0,0,0,0,0,0,0,-1,1490,351,4.22429,-2.04834
273,673,6.07886,0.385895,0,0,0,0,0,0,0,-1,1497,351,6.0789,-0.385906
280,673,6.97534,-0.0820007,0,0,0,0,0,0,0,-1,1504,351,6.97536,0.0820122
287,673,7.66968,-0.348541,0,0,0,0,0,0,0,-1,1511,351,7.66969,0.348534
294,673,8.20996,0.28537,0,0,0,0,0,0,0,-1,1518,351,8.20993,-0.28536
301,673,0,0,0,0,0,0,0,0,0,-1,1525,351,0,0
308,673,0,0,0,0,0,0,0,0,0,-1,1532,351,0,0
315,673,0,0,0,0,0,0,0,0,0,-1,1539,351,0,0
322,673,0,0,0,0,0,0,0,0,0,-1,1546,351,0,0
329,673,0,0,0,0,0,0,0,0,0,-1,1553,351,0,0
336,673,0,0,0,0,0,0,0,0,0,-1,1560,351,0,0
343,673,0,0,0,0,0,0,0,0,0,-1,1567,351,0,0
350,673,0,0,0,0,0,0,0,0,0,-1,1574,351,0,0
357,673,0,0,0,0,0,0,0,0,0,-1,1581,351,0,0
364,673,0,0,0,0,0,0,0,0,0,-1,1588,351,0,0
371,673,0,0,0,0,0,0,0,0,0,-1,1595,351,0,0
378,673,0,0,0,0,0,0,0,0,0,-1,1602,351,0,0
385,673,0,0,0,0,0,0,0,0,0,-1,1609,351,0,0
392,673,0,0,0,0,0,0,0,0,0,-1,1616,351,0,0
399,673,0,0,0,0,0,0,0,0,0,-1,1623,351,0,0
406,673,0,0,0,0,0,0,0,0,0,-1,1630,351,0,0
413,673,0,0,0,0,0,0,0,0,0,-1,1637,351,0,0
420,673,0,0,0,0,0,0,0,0,0,-1,1644,351,0,0
427,673,0,0,0,0,0,0,0,0,0,-1,1651,351,0,0
434,673,0,0,0,0,0,0,0,0,0,-1,1658,351,0,0
441,673,0,0,0,0,0,0,0,0,0,-1,1665,351,0,0
448,673,0,0,0,0,0,0,0,0,0,-1,1672,351,0,0
455,673,0,0,0,0,0,0,0,0,0,-1,1679,351,0,0
462,673,0,0,0,0,0,0,0,0,0,-1,1686,351,0,0
469,673,0,0,0,0,0,0,0,0,0,-1,1693,351,0,0
476,673,0,0,0,0,0,0,0,0,0,-1,1700,351,0,0
483,673,0,0,0,0,0,0,0,0,0,-1,1707,351,0,0
490,673,0,0,0,0,0,0,0,0,0,-1,1714,351,0,0
497,673,0,0,0,0,0,0,0,0,0,-1,1721,351,0,0
504,673,0,0,0,0,0,0,0,0,0,-1,1728,351,0,0
511,673,0,0,0,0,0,0,0,0,0,-1,1735,351,0,0
518,673,0,0,0,0,0,0,0,0,0,-1,1742,351,0,0
525,673,0,0,0,0,0,0,0,0,0,-1,1749,351,0,0
532,673,0,0,0,0,0,0,0,0,0,-1,1756,351,0,0
539,673,0,0,0,0,0,0,0,0,0,-1,1763,351,0,0
546,673,0,0,0,0,0,0,0,0,0,-1,1770,351,0,0
553,673,0,0,0,0,0,0,0,0,0,-1,1777,351,0,0
560,673,0,0,0,0,0,0,0,0,0,-1,1784,351,0,0
567,673,0,0,0,0,0,0,0,0,0,-1,1791,351,0,0
574,673,0,0,0,0,0,0,0,0,0,-1,1798,351,0,0
581,673,0,0,0,0,0,0,0,0,0,-1,1805,351,0,0
588,673,0,0,0,0,0,0,0,0,0,-1,1812,351,0,0
595,673,0,0,0,0,0,0,0,0,0,-1,1819,351,0,0
602,673,0,0,0,0,0,0,0,0,0,-1,1826,351,0,0
609,673,0,0,0,0,0,0,0,0,0,-1,1833,351,0,0
616,673,0,0,0,0,0,0,0,0,0,-1,1840,351,0,0
623,673,0,0,0,0,0,0,0,0,0,-1,1847,351,0,0
630,673,0,0,0,0,0,0,0,0,0,-1,1854,351,0,0
637,673,0,0,0,0,0,0,0,0,0,-1,1861,351,0,0
644,673,0,0,0,0,0,0,0,0,0,-1,1868,351,0,0
651,673,0,0,0,0,0,0,0,0,0,-1,1875,351,0,0
658,673,0,0,0,0,0,0,0,0,0,-1,1882,351,0,0
665,673,0,0,0,0,0,0,0,0,0,-1,1889,351,0,0
672,673,0,0,0,0,0,0,0,0,0,-1,1896,351,0,0
679,673,0,0,0,0,0,0,0,0,0,-1,1903,351,0,0
686,673,0,0,0,0,0,0,0,0,0,-1,1910,351,0,0
693,673,0,0,0,0,0,0,0,0,0,-1,1917,351,0,0
700,673,0,0,0,0,0,0,0,0,0,-1,1924,351,0,0
707,673,0,0,0,0,0,0,0,0,0,-1,1931,351,0,0
714,673,0,0,0,0,0,0,0,0,0,-1,1938,351,0,0
721,673,0,0,0,0,0,0,0,0,0,-1,1945,351,0,0
728,673,0,0,0,0,0,0,0,0,0,-1,1952,351,0,0
735,673,0,0,0,0,0,0,0,0,0,-1,1959,351,0,0
742,673,0,0,0,0,0,0,0,0,0,-1,1966,351,0,0
749,673,0,0,0,0,0,0,0,0,0,-1,1973,351,0,0
756,673,0,0,0,0,0,0,0,0,0,-1,1980,351,0,0
763,673,0,0,0,0,0,0,0,0,0,-1,1987,351,0,0
770,673,0,0,0,0,0,0,0,0,0,-1,1994,351,0,0
777,673,0,0,0,0,0,0,0,0,0,-1,2001,351,0,0
784,673,0,0,0,0,0,0,0,0,0,-1,2008,351,0,0
791,673,0,0,0,0,0,0,0,0,0,-1,2015,351,0,0
798,673,0,0,0,0,0,0,0,0,0,-1,2022,351,0,0
805,673,0,0,0,0,0,0,0,0,0,-1,2029,351,0,0
812,673,0,0,0,0,0,0,0,0,0,-1,2036,351,0,0
-700,666,0,0,0,0,0,0,0,0,0,-1,524,358,0,0
-693,666,0,0,0,0,0,0,0,0,0,-1,531,358,0,0
-686,666,0,0,0,0,0,0,0,0,0,-1,538,358,0,0
-679,666,0,0,0,0,0,0,0,0,0,-1,545,358,0,0
-672,666,0,0,0,0,0,0,0,0,0,-1,552,358,0,0
-665,666,0,0,0,0,0,0,0,0,0,-1,559,358,0,0
-658,666,0,0,0,0,0,0,0,0,0,-1,566,358,0,0
-651,666,0,0,0,0,0,0,0,0,0,-1,573,358,0,0
-644,666,0,0,0,0,0,0,0,0,0,-1,580,358,0,0
-637,666,0,0,0,0,0,0,0,0,0,-1,587,358,0,0
-630,666,0,0,0,0,0,0,0,0,0,-1,594,358,0,0
-623,666,0,0,0,0,0,0,0,0,0,-1,601,358,0,0
-616,666,0,0,0,0,0,0,0,0,0,-1,608,358,0,0
-609,666,0,0,0,0,0,0,0,0,0,-1,615,358,0,0
-602,666,0,0,0,0,0,0,0,0,0,-1,622,358,0,0
-595,666,0,0,0,0,0,0,0,0,0,-1,629,358,0,0
-588,666,0,0,0,0,0,0,0,0,0,-1,636,358,0,0
-581,666,0,0,0,0,0,0,0,0,0,-1,643,358,0,0
-574,666,0,0,0,0,0,0,0,0,0,-1,650,358,0,0
-567,666,0,0,0,0,0,0,0,0,0,-1,657,358,0,0
-560,666,0,0,0,0,0,0,0,0,0,-1,664,358,0,0
-553,666,0,0,0,0,0,0,0,0,0,-1,671,358,0,0
-546,666,0,0,0,0,0,0,0,0,0,-1,678,358,0,0
-539,666,0,0,0,0,0,0,0,0,0,-1,685,358,0,0
-532,666,0,0,0,0,0,0,0,0,0,-1,692,358,0,0
-525,666,0,0,0,0,0,0,0,0,0,-1,699,358,0,0
-518,666,0,0,0,0,0,0,0,0,0,-1,706,358,0,0
-511,666,0,0,0,0,0,0,0,0,0,-1,713,358,0,0
-504,666,0,0,0,0,0,0,0,0,0,-1,720,358,0,0
-497,666,0,0,0,0,0,0,0,0,0,-1,727,358,0,0
-490,666,0,0,0,0,0,0,0,0,0,-1,734,358,0,0
-483,666,0,0,0,0,0,0,0,0,0,-1,741,358,0,0
-476,666,0,0,0,0,0,0,0,0,0,-1,748,358,0,0
-469,666,0,0,0,0,0,0,0,0,0,-1,755,358,0,0
-462,666,0,0,0,0,0,0,0,0,0,-1,762,358,0,0
-455,666,0,0,0,0,0,0,0,0,0,-1,769,358,0,0
-448,666,0,0,0,0,0,0,0,0,0,-1,776,358,0,0
-441,666,0,0,0,0,0,0,0,0,0,-1,783,358,0,0
-434,666,0,0,0,0,0,0,0,0,0,-1,790,358,0,0
-427,666,0,0,0,0,0,0,0,0,0,-1,797,358,0,0
-420,666,0,0,0,0,0,0,0,0,0,-1,804,358,0,0
-413,666,0,0,0,0,0,0,0,0,0,-1,811,358,0,0
-406,666,0,0,0,0,0,0,0,0,0,-1,818,358,0,0
-399,666,0,0,0,0,0,0,0,0,0,-1,825,358,0,0
-392,666,0,0,0,0,0,0,0,0,0,-1,832,358,0,0
-385,666,0,0,0,0,0,0,0,0,0,-1,839,358,0,0
-378,666,0,0,0,0,0,0,0,0,0,-1,846,358,0,0
-371,666,0,0,0,0,0,0,0,0,0,-1,853,358,0,0
-364,666,0,0,0,0,0,0,0,0,0,-1,860,358,0,0
-357,666,0,0,0,0,0,0,0,0,0,-1,867,358,0,0
-350,666,0,0,0,0,0,0,0,0,0,-1,874,358,0,0
-343,666,0,0,0,0,0,0,0,0,0,-1,881,358,0,0
-336,666,0,0,0,0,0,0,0,0,0,-1,888,358,0,0
-329,666,0,0,0,0,0,0,0,0,0,-1,895,358,0,0
-322,666,0,0,0,0,0,0,0,0,0,-1,902,358,0,0
-315,666,0,0,0,0,0,0,0,0,0,-1,909,358,0,0
-308,666,0,0,0,0,0,0,0,0,0,-1,916,358,0,0
-301,666,0,0,0,0,0,0,0,0,0,-1,923,358,0,0
-294,666,0,0,0,0,0,0,0,0,0,-1,930,358,0,0
-287,666,0,0,0,0,0,0,0,0,0,-1,937,358,0,0
-280,666,0,0,0,0,0,0,0,0,0,-1,944,358,0,0
-273,666,0,0,0,0,0,0,0,0,0,-1,951,358,0,0
-266,666,0,0,0,0,0,0,0,0,0,-1,958,358,0,0
-259,666,0,0,0,0,0,0,0,0,0,-1,965,358,0,0
-252,666,0,0,0,0,0,0,0,0,0,-1,972,358,0,0
-245,666,0,0,0,0,0,0,0,0,0,-1,979,358,0,0
-238,666,0,0,0,0,0,0,0,0,0,-1,986,358,0,0
-231,666,0,0,0,0,0,0,0,0,0,-1,993,358,0,0
-224,666,0,0,0,0,0,0,0,0,0,-1,1000,358,0,0
-217,666,0,0,0,0,0,0,0,0,0,-1,1007,358,0,0
-210,666,0,0,0,0,0,0,0,0,0,-1,1014,358,0,0
-203,666,0,0,0,0,0,0,0,0,0,-1,1021,358,0,0
-196,666,1.68958,-9.41406,0,0,0,0,0,0,0,-1,1028,358,1.68961,9.41406
-189,666,1.56323,-9.65897,0,0,0,0,0,0,0,-1,1035,358,1.56321,9.65897
-182,666,6.93665,-11.2356,0,0,0,0,0,0,0,-1,1042,358,6.93664,11.2356
-175,666,-2.5144,-11.3974,0,0,0,0,0,0,0,-1,1049,358,-2.51444,11.3974
-168,666,-1.61462,-11.4616,0,0,0,0,0,0,0,-1,1056,358,-1.61459,11.4616
-161,666,-0.601318,-11.2038,0,0,0,0,0,0,0,-1,1063,358,-0.601302,11.2038
-154,666,-0.0412598,-11.5161,0.0661981,-0.04062,-0.0754606,0.105238,-0.07966,-0.477436,0.107091,0.0461225,1070,358,-0.0413195,11.516
-147,666,0.532227,-11.7066,0.0618736,-0.0331883,-0.0653611,0.0951589,-0.0664735,-0.471022,0.0938071,0.0442885,1077,358,0.532187,11.7066
-140,666,1.15991,-11.8622,0,0,0,0,0,0,0,-1,1084,358,1.15996,11.8622
-133,666,2.51575,-9.9046,0,0,0,0,0,0,0,-1,1091,358,2.5158,9.9046
-126,666,2.40015,-10.2454,0,0,0,0,0,0,0,-1,1098,358,2.40017,10.2454
-119,666,2.53772,-10.3093,0,0,0,0,0,0,0,-1,1105,358,2.53773,10.3093
-112,666,2.61353,-10.2322,0,0,0,0,0,0,0,-1,1112,358,2.61348,10.2322
-105,666,2.46643,-10.2734,0,0,0,0,0,0,0,-1,1119,358,2.46638,10.2734
-98,666,1.90735,-10.2978,-0.00331498,0.0166884,-0.00933441,0.0203676,-0.00699411,-1.19535,0.0164142,0.0485044,1126,358,1.90739,10.2978
-91,666,2.10547,-10.3548,-0.0108364,0.0202533,-0.0061845,0.0214384,-0.0120215,-1.38147,0.0195714,0.0437804,1133,358,2.10544,10.3548
-84,666,1.54602,-10.5009,-0.0132447,0.0211463,-0.00654904,0.0223512,-0.0144496,-1.38885,0.0214096,0.044066,1140,358,1.54608,10.5009
-77,666,0.964722,-10.3601,0,0,0,0,0,0,0,-1,1147,358,0.964669,10.3601
-70,666,2.05957,-6.51086,0,0,0,0,0,0,0,-1,1154,358,2.05959,6.51088
-63,666,1.47485,-3.79593,0,0,0,0,0,0,0,-1,1161,358,1.47481,3.79593
-56,666,0.424683,-2.04132,0,0,0,0,0,0,0,-1,1168,358,0.424665,2.04132
-49,666,0.754395,-2.23169,0,0,0,0,0,0,0,-1,1175,358,0.754383,2.23169
-42,666,1.34473,-3.53897,0,0,0,0,0,0,0,-1,1182,358,1.34476,3.53896
-35,666,1.87659,-11.4565,0,0,0,0,0,0,0,-1,1189,358,1.87653,11.4565
-28,666,2.09973,-11.2648,0,0,0,0,0,0,0,-1,1196,358,2.09975,11.2648
-21,666,2.07471,-11.2849,0.00456059,-0.0162043,-0.00712179,0.00676843,-0.0184121,-0.300616,0.0150472,0.0336494,1203,358,2.07471,11.2849
-14,666,2.07898,-11.3345,0.00541642,-0.0181899,-0.0078033,0.00776268,-0.0205362,-0.292076,0.016884,0.0258141,1210,358,2.07893,11.3345
-7,666,2.10437,-11.331,0.00627729,-0.0200616,-0.00838067,0.00871778,-0.0225021,-0.283368,0.0186012,0.0174218,1217,358,2.10443,11.331
0,666,2.11877,-11.3167,0.00696189,-0.0217466,-0.00880653,0.00944805,-0.0242328,-0.275148,0.0200604,0.0114898,1224,358,2.11875,11.3167
7,666,2.09094,-11.3534,0.00745552,-0.0231899,-0.00896554,0.00988573,-0.0256201,-0.264701,0.0211596,0.0150069,1231,358,2.09099,11.3534
14,666,2.0946,-11.3645,0.00760395,-0.0242985,-0.0087696,0.00985568,-0.0265502,-0.251335,0.0217432,0.0159325,1238,358,2.09464,11.3645
21,666,2.06128,-11.3828,0.00735847,-0.0247514,-0.00818551,0.00932473,-0.0267176,-0.235746,0.0216016,0.0115516,1245,358,2.06129,11.3828
28,666,2.03162,-11.3989,0.00686394,-0.0248134,-0.0073408,0.00848238,-0.0264318,-0.217001,0.0210269,0.0113677,1252,358,2.03157,11.3989
35,666,2.03174,-11.3991,0.00609317,-0.0243407,-0.00634258,0.00736209,-0.0256097,-0.197457,0.0199844,0.0102998,1259,358,2.03175,11.3991
42,666,2.01453,-11.415,0.00537964,-0.0237735,-0.00531862,0.00631965,-0.0247135,-0.174932,0.018937,0.0112613,1266,358,2.01449,11.415
49,666,1.99487,-11.4193,0.00475553,-0.0237767,-0.00478146,0.00553549,-0.0245567,-0.161697,0.0184945,0.00975597,1273,358,1.99483,11.4192
56,666,1.97546,-11.4139,0.00352163,-0.0224478,-0.0040235,0.00413071,-0.0230569,-0.150241,0.0169171,0.0109312,1280,358,1.97551,11.4139
63,666,1.95313,-11.4088,0.00274148,-0.0215132,-0.00297281,0.00310054,-0.0218723,-0.120196,0.0157173,0.0129857,1287,358,1.95316,11.4088
70,666,1.95618,-11.3992,0.00204431,-0.0205684,-0.00196748,0.00221422,-0.0207383,-0.0861449,0.0146196,0.0142518,1294,358,1.9562,11.3992
77,666,1.94971,-11.371,0.00179369,-0.0197404,-0.000888398,0.00183028,-0.019777,-0.0411622,0.0138351,0.0174277,1301,358,1.9497,11.371
84,666,1.93726,-11.3593,0.00234482,-0.0185196,0.000695741,0.00236799,-0.0185428,0.0332964,0.0132221,0.0224639,1308,358,1.93729,11.3593
91,666,1.91211,-11.3591,0.00304243,-0.0167985,0.00184884,0.00321324,-0.0169693,0.092126,0.0125222,0.0213641,1315,358,1.91208,11.3591
98,666,1.88513,-11.3389,0.00381438,-0.015324,0.00256761,0.00415287,-0.0156625,0.131073,0.0120665,0.0182342,1322,358,1.88515,11.3389
105,666,1.82471,-11.2569,0.00469507,-0.014428,0.00356112,0.0053367,-0.0150696,0.178263,0.0122201,0.0195321,1329,358,1.82467,11.2569
112,666,1.77502,-11.2084,0.00526841,-0.0135962,0.00455334,0.00630994,-0.0146377,0.224872,0.0124086,0.024331,1336,358,1.77506,11.2084
119,666,1.78345,-11.1815,0.00574205,-0.0121899,0.00559962,0.007347,-0.0137948,0.279134,0.012394,0.0246711,1343,358,1.78347,11.1815
126,666,1.80261,-11.0934,0.00612475,-0.0103893,0.00661284,0.0084464,-0.0127109,0.337638,0.0122976,0.0228963,1350,358,1.80265,11.0934
133,666,1.81702,-11.0492,0.00634137,-0.0080203,0.00748884,0.00953585,-0.0112148,0.403196,0.0119934,0.0207075,1357,358,1.81706,11.0492
140,666,1.79187,-11.0378,0.00647087,-0.00555952,0.00824405,0.0106609,-0.00974957,0.470226,0.0117879,0.0192139,1364,358,1.79181,11.0378
147,666,1.76831,-10.9701,0.00648048,-0.00329007,0.00868249,0.0115577,-0.0083673,0.529144,0.0115528,0.0180573,1371,358,1.76833,10.9701
154,666,1.75024,-10.8965,0.0061459,-0.00100823,0.00920406,0.0124436,-0.00730589,0.600061,0.0115302,0.0169559,1378,358,1.75026,10.8964
161,666,1.79089,-10.8628,0.00604446,-0.00034788,0.00904007,0.0124367,-0.00674016,0.615479,0.0112334,0.024779,1385,358,1.79088,10.8628
168,666,1.9054,-10.9302,0,0,0,0,0,0,0,-1,1392,358,1.90539,10.9302
175,666,2.03735,-11.0137,0,0,0,0,0,0,0,-1,1399,358,2.03741,11.0137
182,666,2.60876,-5.17068,0,0,0,0,0,0,0,-1,1406,358,2.6088,5.17068
189,666,2.46973,-5.49979,0,0,0,0,0,0,0,-1,1413,358,2.46975,5.49979
196,666,2.32458,-5.23651,0,0,0,0,0,0,0,-1,1420,358,2.32461,5.23653
203,666,2.28064,-3.88004,0,0,0,0,0,0,0,-1,1427,358,2.28059,3.88003
210,666,3.02576,-5.83548,0,0,0,0,0,0,0,-1,1434,358,3.02581,5.83547
217,666,2.30444,-5.36011,0,0,0,0,0,0,0,-1,1441,358,2.30447,5.3601
224,666,1.82324,-6.03101,0,0,0,0,0,0,0,-1,1448,358,1.82322,6.031
231,666,2.29797,-10.1093,0,0,0,0,0,0,0,-1,1455,358,2.29801,10.1093
238,666,2.52429,-6.10568,0,0,0,0,0,0,0,-1,1462,358,2.52423,6.10567
245,666,4.53345,-1.38205,0,0,0,0,0,0,0,-1,1469,358,4.53349,1.38204
252,666,4.77405,-0.246979,0,0,0,0,0,0,0,-1,1476,358,4.77405,0.246993
259,666,4.83655,1.14087,0,0,0,0,0,0,0,-1,1483,358,4.83652,-1.14087
266,666,6.14148,0.749512,0,0,0,0,0,0,0,-1,1490,358,6.14144,-0.749519
273,666,2.61304,-1.53772,0,0,0,0,0,0,0,-1,1497,358,2.613,1.53773
280,666,8.70898,-0.836975,0,0,0,0,0,0,0,-1,1504,358,8.70894,0.836988
287,666,2.27039,-4.09058,0,0,0,0,0,0,0,-1,1511,358,2.27042,4.09059
294,666,9.87,-1.10745,0,0,0,0,0,0,0,-1,1518,358,9.87,1.10745
301,666,3.61511,-3.23752,0,0,0,0,0,0,0,-1,1525,358,3.61511,3.23753
308,666,1.08496,-1.87576,0,0,0,0,0,0,0,-1,1532,358,1.08491,1.87575
315,666,1.76294,-0.284027,0,0,0,0,0,0,0,-1,1539,358,1.76291,0.284016
322,666,0,0,0,0,0,0,0,0,0,-1,1546,358,0,0
329,666,0,0,0,0,0,0,0,0,0,-1,1553,358,0,0
336,666,0,0,0,0,0,0,0,0,0,-1,1560,358,0,0
343,666,0,0,0,0,0,0,0,0,0,-1,1567,358,0,0
350,666,0,0,0,0,0,0,0,0,0,-1,1574,358,0,0
357,666,0,0,0,0,0,0,0,0,0,-1,1581,358,0,0
364,666,0,0,0,0,0,0,0,0,0,-1,1588,358,0,0
371,666,0,0,0,0,0,0,0,0,0,-1,1595,358,0,0
378,666,0,0,0,0,0,0,0,0,0,-1,1602,358,0,0
385,666,0,0,0,0,0,0,0,0,0,-1,1609,358,0,0
392,666,0,0,0,0,0,0,0,0,0,-1,1616,358,0,0
399,666,0,0,0,0,0,0,0,0,0,-1,1623,358,0,0
406,666,0,0,0,0,0,0,0,0,0,-1,1630,358,0,0
413,666,0,0,0,0,0,0,0,0,0,-1,1637,358,0,0
420,666,0,0,0,0,0,0,0,0,0,-1,1644,358,0,0
427,666,0,0,0,0,0,0,0,0,0,-1,1651,358,0,0
434,666,0,0,0,0,0,0,0,0,0,-1,1658,358,0,0
441,666,0,0,0,0,0,0,0,0,0,-1,1665,358,0,0
448,666,0,0,0,0,0,0,0,0,0,-1,1672,358,0,0
455,666,0,0,0,0,0,0,0,0,0,-1,1679,358,0,0
462,666,0,0,0,0,0,0,0,0,0,-1,1686,358,0,0
469,666,0,0,0,0,0,0,0,0,0,-1,1693,358,0,0
476,666,0,0,0,0,0,0,0,0,0,-1,1700,358,0,0
483,666,0,0,0,0,0,0,0,0,0,-1,1707,358,0,0
490,666,0,0,0,0,0,0,0,0,0,-1,1714,358,0,0
497,666,0,0,0,0,0,0,0,0,0,-1,1721,358,0,0
504,666,0,0,0,0,0,0,0,0,0,-1,1728,358,0,0
511,666,0,0,0,0,0,0,0,0,0,-1,1735,358,0,0
518,666,0,0,0,0,0,0,0,0,0,-1,1742,358,0,0
525,666,0,0,0,0,0,0,0,0,0,-1,1749,358,0,0
532,666,0,0,0,0,0,0,0,0,0,-1,1756,358,0,0
539,666,0,0,0,0,0,0,0,0,0,-1,1763,358,0,0
546,666,0,0,0,0,0,0,0,0,0,-1,1770,358,0,0
553,666,0,0,0,0,0,0,0,0,0,-1,1777,358,0,0
560,666,0,0,0,0,0,0,0,0,0,-1,1784,358,0,0
567,666,0,0,0,0,0,0,0,0,0,-1,1791,358,0,0
574,666,0,0,0,0,0,0,0,0,0,-1,1798,358,0,0
581,666,0,0,0,0,0,0,0,0,0,-1,1805,358,0,0
588,666,0,0,0,0,0,0,0,0,0,-1,1812,358,0,0
595,666,0,0,0,0,0,0,0,0,0,-1,1819,358,0,0
602,666,0,0,0,0,0,0,0,0,0,-1,1826,358,0,0
609,666,0,0,0,0,0,0,0,0,0,-1,1833,358,0,0
616,666,0,0,0,0,0,0,0,0,0,-1,1840,358,0,0
623,666,0,0,0,0,0,0,0,0,0,-1,1847,358,0,0
630,666,0,0,0,0,0,0,0,0,0,-1,1854,358,0,0
637,666,0,0,0,0,0,0,0,0,0,-1,1861,358,0,0
644,666,0,0,0,0,0,0,0,0,0,-1,1868,358,0,0
651,666,0,0,0,0,0,0,0,0,0,-1,1875,358,0,0
658,666,0,0,0,0,0,0,0,0,0,-1,1882,358,0,0
665,666,0,0,0,0,0,0,0,0,0,-1,1889,358,0,0
672,666,0,0,0,0,0,0,0,0,0,-1,1896,358,0,0
679,666,0,0,0,0,0,0,0,0,0,-1,1903,358,0,0
686,666,0,0,0,0,0,0,0,0,0,-1,1910,358,0,0
693,666,0,0,0,0,0,0,0,0,0,-1,1917,358,0,0
700,666,0,0,0,0,0,0,0,0,0,-1,1924,358,0,0
707,666,0,0,0,0,0,0,0,0,0,-1,1931,358,0,0
714,666,0,0,0,0,0,0,0,0,0,-1,1938,358,0,0
721,666,0,0,0,0,0,0,0,0,0,-1,1945,358,0,0
728,666,0,0,0,0,0,0,0,0,0,-1,1952,358,0,0
735,666,0,0,0,0,0,0,0,0,0,-1,1959,358,0,0
742,666,0,0,0,0,0,0,0,0,0,-1,1966,358,0,0
749,666,0,0,0,0,0,0,0,0,0,-1,1973,358,0,0
756,666,0,0,0,0,0,0,0,0,0,-1,1980,358,0,0
763,666,0,0,0,0,0,0,0,0,0,-1,1987,358,0,0
770,666,0,0,0,0,0,0,0,0,0,-1,1994,358,0,0
777,666,0,0,0,0,0,0,0,0,0,-1,2001,358,0,0
784,666,0,0,0,0,0,0,0,0,0,-1,2008,358,0,0
791,666,0,0,0,0,0,0,0,0,0,-1,2015,358,0,0
798,666,0,0,0,0,0,0,0,0,0,-1,2022,358,0,0
805,666,0,0,0,0,0,0,0,0,0,-1,2029,358,0,0
812,666,0,0,0,0,0,0,0,0,0,-1,2036,358,0,0
-700,659,0,0,0,0,0,0,0,0,0,-1,524,365,0,0
-693,659,0,0,0,0,0,0,0,0,0,-1,531,365,0,0
-686,659,0,0,0,0,0,0,0,0,0,-1,538,365,0,0
-679,659,0,0,0,0,0,0,0,0,0,-1,545,365,0,0
-672,659,0,0,0,0,0,0,0,0,0,-1,552,365,0,0
-665,659,0,0,0,0,0,0,0,0,0,-1,559,365,0,0
-658,659,0,0,0,0,0,0,0,0,0,-1,566,365,0,0
-651,659,0,0,0,0,0,0,0,0,0,-1,573,365,0,0
-644,659,0,0,0,0,0,0,0,0,0,-1,580,365,0,0
-637,659,0,0,0,0,0,0,0,0,0,-1,587,365,0,0
-630,659,0,0,0,0,0,0,0,0,0,-1,594,365,0,0
-623,659,0,0,0,0,0,0,0,0,0,-1,601,365,0,0
-616,659,0,0,0,0,0,0,0,0,0,-1,608,365,0,0
-609,659,0,0,0,0,0,0,0,0,0,-1,615,365,0,0
-602,659,0,0,0,0,0,0,0,0,0,-1,622,365,0,0
-595,659,0,0,0,0,0,0,0,0,0,-1,629,365,0,0
-588,659,0,0,0,0,0,0,0,0,0,-1,636,365,0,0
-581,659,0,0,0,0,0,0,0,0,0,-1,643,365,0,0
-574,659,0,0,0,0,0,0,0,0,0,-1,650,365,0,0
-567,659,0,0,0,0,0,0,0,0,0,-1,657,365,0,0
-560,659,0,0,0,0,0,0,0,0,0,-1,664,365,0,0
-553,659,0,0,0,0,0,0,0,0,0,-1,671,365,0,0
-546,659,0,0,0,0,0,0,0,0,0,-1,678,365,0,0
-539,659,0,0,0,0,0,0,0,0,0,-1,685,365,0,0
-532,659,0,0,0,0,0,0,0,0,0,-1,692,365,0,0
-525,659,0,0,0,0,0,0,0,0,0,-1,699,365,0,0
-518,659,0,0,0,0,0,0,0,0,0,-1,706,365,0,0
-511,659,0,0,0,0,0,0,0,0,0,-1,713,365,0,0
-504,659,0,0,0,0,0,0,0,0,0,-1,720,365,0,0
-497,659,0,0,0,0,0,0,0,0,0,-1,727,365,0,0
-490,659,0,0,0,0,0,0,0,0,0,-1,734,365,0,0
-483,659,0,0,0,0,0,0,0,0,0,-1,741,365,0,0
-476,659,0,0,0,0,0,0,0,0,0,-1,748,365,0,0
-469,659,0,0,0,0,0,0,0,0,0,-1,755,365,0,0
-462,659,0,0,0,0,0,0,0,0,0,-1,762,365,0,0
-455,659,0,0,0,0,0,0,0,0,0,-1,769,365,0,0
-448,659,0,0,0,0,0,0,0,0,0,-1,776,365,0,0
-441,659,0,0,0,0,0,0,0,0,0,-1,783,365,0,0
-434,659,0,0,0,0,0,0,0,0,0,-1,790,365,0,0
-427,659,0,0,0,0,0,0,0,0,0,-1,797,365,0,0
-420,659,0,0,0,0,0,0,0,0,0,-1,804,365,0,0
-413,659,0,0,0,0,0,0,0,0,0,-1,811,365,0,0
-406,659,0,0,0,0,0,0,0,0,0,-1,818,365,0,0
-399,659,0,0,0,0,0,0,0,0,0,-1,825,365,0,0
-392,659,0,0,0,0,0,0,0,0,0,-1,832,365,0,0
-385,659,0,0,0,0,0,0,0,0,0,-1,839,365,0,0
-378,659,0,0,0,0,0,0,0,0,0,-1,846,365,0,0
-371,659,0,0,0,0,0,0,0,0,0,-1,853,365,0,0
-364,659,0,0,0,0,0,0,0,0,0,-1,860,365,0,0
-357,659,0,0,0,0,0,0,0,0,0,-1,867,365,0,0
-350,659,0,0,0,0,0,0,0,0,0,-1,874,365,0,0
-343,659,0,0,0,0,0,0,0,0,0,-1,881,365,0,0
-336,659,0,0,0,0,0,0,0,0,0,-1,888,365,0,0
-329,659,0,0,0,0,0,0,0,0,0,-1,895,365,0,0
-322,659,0,0,0,0,0,0,0,0,0,-1,902,365,0,0
-315,659,0,0,0,0,0,0,0,0,0,-1,909,365,0,0
-308,659,0,0,0,0,0,0,0,0,0,-1,916,365,0,0
-301,659,0,0,0,0,0,0,0,0,0,-1,923,365,0,0
-294,659,0,0,0,0,0,0,0,0,0,-1,930,365,0,0
-287,659,0,0,0,0,0,0,0,0,0,-1,937,365,0,0
-280,659,0,0,0,0,0,0,0,0,0,-1,944,365,0,0
-273,659,0,0,0,0,0,0,0,0,0,-1,951,365,0,0
-266,659,0,0,0,0,0,0,0,0,0,-1,958,365,0,0
-259,659,0,0,0,0,0,0,0,0,0,-1,965,365,0,0
-252,659,0,0,0,0,0,0,0,0,0,-1,972,365,0,0
-245,659,0,0,0,0,0,0,0,0,0,-1,979,365,0,0
-238,659,0,0,0,0,0,0,0,0,0,-1,986,365,0,0
-231,659,0,0,0,0,0,0,0,0,0,-1,993,365,0,0
-224,659,0,0,0,0,0,0,0,0,0,-1,1000,365,0,0
-217,659,1.62122,-1.10727,0,0,0,0,0,0,0,-1,1007,365,1.62123,1.10728
-210,659,0.368042,-7.90527,0,0,0,0,0,0,0,-1,1014,365,0.368058,7.90528
-203,659,2.09253,-9.38916,0,0,0,0,0,0,0,-1,1021,365,2.09255,9.38917
-196,659,-0.828369,-10.2602,0,0,0,0,0,0,0,-1,1028,365,-0.828398,10.2602
-189,659,6.19006,-10.8313,0,0,0,0,0,0,0,-1,1035,365,6.19,10.8313
-182,659,6.17236,-10.318,0,0,0,0,0,0,0,-1,1042,365,6.17233,10.318
-175,659,-1.75366,-11.2016,0,0,0,0,0,0,0,-1,1049,365,-1.75363,11.2016
-168,659,-0.876709,-11.1565,0.0456341,-0.045173,-0.0620592,0.0771254,-0.0766644,-0.469582,0.0887907,0.044981,1056,365,-0.876672,11.1565
-161,659,0.012085,-11.1099,0.0467276,-0.040236,-0.0593862,0.0768487,-0.0703571,-0.469397,0.0850169,0.0473655,1063,365,0.0121456,11.1099
-154,659,0.734619,-11.0583,0.0456582,-0.035115,-0.0541816,0.0728491,-0.062306,-0.465125,0.0781109,0.0459299,1070,365,0.734595,11.0584
-147,659,1.54761,-11.0418,0.0428351,-0.0287255,-0.0471304,0.0662283,-0.0521187,-0.460724,0.0684894,0.0455649,1077,365,1.54756,11.0418
-140,659,2.47034,-10.8956,0.0374893,-0.0223244,-0.0401186,0.0576217,-0.0424568,-0.465103,0.058001,0.0476336,1084,365,2.47033,10.8956
-133,659,2.20593,-10.301,0,0,0,0,0,0,0,-1,1091,365,2.20593,10.301
-126,659,2.27258,-10.383,0.023598,-0.00829427,-0.0261386,0.0382706,-0.0229669,-0.511506,0.0357216,0.0435696,1098,365,2.27262,10.383
-119,659,2.32275,-10.4639,0.0162291,-0.00250545,-0.019671,0.0286493,-0.0149256,-0.563185,0.0255705,0.0440366,1105,365,2.32274,10.4639
-112,659,2.44348,-10.3633,0.00929672,0.00272638,-0.0124348,0.018873,-0.0068499,-0.656253,0.0153824,0.0407869,1112,365,2.44348,10.3633
-105,659,2.3374,-10.3932,0.00302271,0.00784679,-0.00885066,0.0146082,-0.00373869,-0.918431,0.0111951,0.0421025,1119,365,2.33744,10.3932
-98,659,2.29016,-10.4047,-0.00268983,0.0122364,-0.00662002,0.0147494,-0.00520283,-1.20799,0.0119509,0.0437233,1126,365,2.29015,10.4047
-91,659,2.1969,-10.4915,-0.00790629,0.014913,-0.0045322,0.0157802,-0.00877348,-1.38174,0.0143672,0.0398573,1133,365,2.19696,10.4915
-84,659,2.05737,-10.6243,-0.00952554,0.0156523,-0.00488549,0.0165671,-0.0104403,-1.3857,0.0157259,0.0399833,1140,365,2.0574,10.6243
-77,659,2.05823,-10.5891,0,0,0,0,0,0,0,-1,1147,365,2.05817,10.5891
-70,659,2.22754,-10.5452,0,0,0,0,0,0,0,-1,1154,365,2.22757,10.5452
-63,659,2.11267,-9.7796,0,0,0,0,0,0,0,-1,1161,365,2.11266,9.7796
-56,659,2.11182,-9.91541,0,0,0,0,0,0,0,-1,1168,365,2.11178,9.91541
-49,659,2.10071,-11.0739,0,0,0,0,0,0,0,-1,1175,365,2.10076,11.0739
-42,659,2.13574,-11.1888,0,0,0,0,0,0,0,-1,1182,365,2.13578,11.1887
-35,659,2.07227,-11.3099,-0.0021885,-0.00449063,-0.0042753,0.00108798,-0.00776711,-0.653898,0.00557623,0.0435936,1189,365,2.07227,11.3099
-28,659,2.12354,-11.2774,0.00159807,-0.00877411,-0.00448173,0.00326628,-0.0104423,-0.356335,0.00826823,0.0163121,1196,365,2.12348,11.2774
-21,659,2.09851,-11.2873,0.00240654,-0.0103086,-0.00516276,0.00423877,-0.0121408,-0.341028,0.00981673,0.0104347,1203,365,2.09856,11.2873
-14,659,2.0791,-11.3264,0.00311541,-0.0119554,-0.00567439,0.00501298,-0.013853,-0.322719,0.0112838,0.0088173,1210,365,2.07908,11.3264
-7,659,2.08154,-11.3454,0.00380446,-0.0134392,-0.00607713,0.00573097,-0.0153657,-0.306989,0.0125965,0.00903185,1217,365,2.08151,11.3454
0,659,2.06604,-11.3555,0.00436402,-0.0146968,-0.0063803,0.00630257,-0.0166354,-0.294969,0.0136838,0.00786254,1224,365,2.06599,11.3555
7,659,2.03784,-11.368,0.00478797,-0.0157381,-0.00649134,0.00666855,-0.0176187,-0.281986,0.0144895,0.00750521,1231,365,2.03781,11.368
14,659,2.04688,-11.3768,0.00495354,-0.0165138,-0.00634437,0.00668834,-0.0182486,-0.266914,0.0149041,0.0110608,1238,365,2.04692,11.3768
21,659,2.03943,-11.3875,0.00483074,-0.0168086,-0.00591484,0.00634195,-0.0183198,-0.250143,0.0147877,0.0118124,1245,365,2.03943,11.3875
28,659,2.01636,-11.4011,0.00453515,-0.0167969,-0.00530194,0.00578024,-0.018042,-0.230657,0.0143482,0.0100783,1252,365,2.0163,11.4011
35,659,2.02551,-11.4165,0.00403116,-0.0164065,-0.00457314,0.00500778,-0.0173831,-0.210395,0.0135696,0.0101217,1259,365,2.02556,11.4165
42,659,2.00244,-11.434,0.00357287,-0.0159648,-0.00381833,0.00429259,-0.0166845,-0.186305,0.0127962,0.0106855,1266,365,2.00243,11.434
49,659,1.98315,-11.4314,0.00311989,-0.015851,-0.00334693,0.00369306,-0.0164242,-0.169605,0.0123657,0.0105298,1273,365,1.98312,11.4314
56,659,1.96045,-11.4304,0.00220557,-0.0147794,-0.00273518,0.00263516,-0.015209,-0.155789,0.0111223,0.0137177,1280,365,1.96048,11.4304
63,659,1.96326,-11.4439,0.00158885,-0.0139917,-0.00195098,0.00182944,-0.0142323,-0.122696,0.0101531,0.0157664,1287,365,1.96325,11.4439
70,659,1.98376,-11.4473,0.00103586,-0.0132294,-0.00123461,0.00114192,-0.0133355,-0.0856976,0.00929439,0.0163222,1294,365,1.98373,11.4473
77,659,1.92871,-11.3787,0.00083682,-0.012708,-0.000555937,0.0008596,-0.0127308,-0.0409525,0.00878774,0.0169347,1301,365,1.92873,11.3787
84,659,1.927,-11.3669,0.00118658,-0.0120977,0.000375319,0.00119718,-0.0121083,0.0282229,0.00849939,0.0125972,1308,365,1.92694,11.3669
91,659,1.92053,-11.3523,0.00161938,-0.0111844,0.00101368,0.00169913,-0.0112641,0.0785183,0.00813517,0.0105621,1315,365,1.92053,11.3523
98,659,1.91235,-11.3291,0.00212727,-0.0103258,0.00139273,0.00228113,-0.0104796,0.110028,0.00785794,0.00771836,1322,365,1.9123,11.3291
105,659,1.88525,-11.2779,0.00274332,-0.00977025,0.00197103,0.00304644,-0.0100734,0.152591,0.00792861,0.00951661,1329,365,1.88531,11.2779
112,659,1.86401,-11.2279,0.00319302,-0.00925814,0.00258233,0.00370734,-0.00977246,0.196597,0.00804087,0.0111357,1336,365,1.86403,11.2279
119,659,1.88416,-11.1945,0.00358231,-0.0083707,0.00324739,0.00440758,-0.00919597,0.248865,0.00801456,0.0116994,1343,365,1.88416,11.1945
126,659,1.88281,-11.1563,0.00389797,-0.00721244,0.00388919,0.00512407,-0.00843854,0.305396,0.00790793,0.0118047,1350,365,1.88282,11.1562
133,659,1.8479,-11.1076,0.00409361,-0.00569145,0.00444941,0.00581426,-0.0074121,0.369,0.0076548,0.0104492,1357,365,1.84792,11.1076
140,659,1.83423,-11.06,0.00420264,-0.00407225,0.0049447,0.00651256,-0.00638217,0.437025,0.0074449,0.00819631,1364,365,1.83427,11.06
147,659,1.83081,-11.0009,0.00420031,-0.00253774,0.00520608,0.00703238,-0.00536981,0.498219,0.00718182,0.00764717,1371,365,1.83085,11.0009
154,659,1.80713,-10.9387,0.00390761,-0.000930989,0.00554702,0.00753995,-0.00456334,0.579762,0.00705793,0.00845134,1378,365,1.8071,10.9387
161,659,1.80957,-10.8871,0.00377953,-0.000510871,0.00539283,0.00743817,-0.00416951,0.596099,0.00678968,0.00995106,1385,365,1.80953,10.8871
168,659,1.86194,-10.8445,0.00334554,0.000248916,0.00515732,0.00718195,-0.00358749,0.63957,0.00633213,0.0178377,1392,365,1.86189,10.8444
175,659,1.86694,-10.8156,0.00302721,0.000959634,0.005039,0.00713737,-0.00315053,0.684223,0.00608657,0.0421453,1399,365,1.86689,10.8156
182,659,1.73499,-10.8068,0,0,0,0,0,0,0,-1,1406,365,1.73501,10.8068
189,659,1.79431,-10.5597,0,0,0,0,0,0,0,-1,1413,365,1.79433,10.5597
196,659,1.87927,-10.194,0,0,0,0,0,0,0,-1,1420,365,1.8793,10.194
203,659,1.78149,-10.3592,0,0,0,0,0,0,0,-1,1427,365,1.78147,10.3592
210,659,1.74438,-10.4686,0,0,0,0,0,0,0,-1,1434,365,1.74441,10.4686
217,659,1.79614,-10.0901,0,0,0,0,0,0,0,-1,1441,365,1.79611,10.0901
224,659,1.83228,-10.073,0,0,0,0,0,0,0,-1,1448,365,1.83226,10.073
231,659,2.14587,-9.952,0,0,0,0,0,0,0,-1,1455,365,2.14584,9.95201
238,659,2.59937,-9.75397,0,0,0,0,0,0,0,-1,1462,365,2.59936,9.75395
245,659,1.68787,-10.3787,0,0,0,0,0,0,0,-1,1469,365,1.68786,10.3787
252,659,1.22705,-10.7067,0,0,0,0,0,0,0,-1,1476,365,1.22707,10.7067
259,659,2.33069,-3.36703,0,0,0,0,0,0,0,-1,1483,365,2.33073,3.36702
266,659,1.24609,-8.93732,0,0,0,0,0,0,0,-1,1490,365,1.24613,8.93732
273,659,1.59216,-8.69092,0,0,0,0,0,0,0,-1,1497,365,1.59212,8.69091
280,659,1.70947,-9.4129,0,0,0,0,0,0,0,-1,1504,365,1.70952,9.4129
287,659,2.19702,-8.34235,0,0,0,0,0,0,0,-1,1511,365,2.19698,8.34235
294,659,0.483398,-9.42966,0,0,0,0,0,0,0,-1,1518,365,0.483458,9.42967
301,659,0.770874,-5.72247,0,0,0,0,0,0,0,-1,1525,365,0.770867,5.72248
308,659,1.16272,-5.28073,0,0,0,0,0,0,0,-1,1532,365,1.16275,5.28074
315,659,2.89124,-1.09567,0,0,0,0,0,0,0,-1,1539,365,2.89121,1.09566
322,659,2.88672,-0.266174,0,0,0,0,0,0,0,-1,1546,365,2.88671,0.266163
329,659,5.20154,-4.3071,0,0,0,0,0,0,0,-1,1553,365,5.20158,4.3071
336,659,2.09851,-1.17941,0,0,0,0,0,0,0,-1,1560,365,2.09857,1.17942
343,659,0,0,0,0,0,0,0,0,0,-1,1567,365,0,0
350,659,0,0,0,0,0,0,0,0,0,-1,1574,365,0,0
357,659,0,0,0,0,0,0,0,0,0,-1,1581,365,0,0
364,659,0,0,0,0,0,0,0,0,0,-1,1588,365,0,0
371,659,0,0,0,0,0,0,0,0,0,-1,1595,365,0,0
378,659,0,0,0,0,0,0,0,0,0,-1,1602,365,0,0
385,659,0,0,0,0,0,0,0,0,0,-1,1609,365,0,0
392,659,0,0,0,0,0,0,0,0,0,-1,1616,365,0,0
399,659,0,0,0,0,0,0,0,0,0,-1,1623,365,0,0
406,659,0,0,0,0,0,0,0,0,0,-1,1630,365,0,0
413,659,0,0,0,0,0,0,0,0,0,-1,1637,365,0,0
420,659,0,0,0,0,0,0,0,0,0,-1,1644,365,0,0
427,659,0,0,0,0,0,0,0,0,0,-1,1651,365,0,0
434,659,0,0,0,0,0,0,0,0,0,-1,1658,365,0,0
441,659,0,0,0,0,0,0,0,0,0,-1,1665,365,0,0
448,659,0,0,0,0,0,0,0,0,0,-1,1672,365,0,0
455,659,0,0,0,0,0,0,0,0,0,-1,1679,365,0,0
462,659,0,0,0,0,0,0,0,0,0,-1,1686,365,0,0
469,659,0,0,0,0,0,0,0,0,0,-1,1693,365,0,0
476,659,0,0,0,0,0,0,0,0,0,-1,1700,365,0,0
483,659,0,0,0,0,0,0,0,0,0,-1,1707,365,0,0
490,659,0,0,0,0,0,0,0,0,0,-1,1714,365,0,0
497,659,0,0,0,0,0,0,0,0,0,-1,1721,365,0,0
504,659,0,0,0,0,0,0,0,0,0,-1,1728,365,0,0
511,659,0,0,0,0,0,0,0,0,0,-1,1735,365,0,0
518,659,0,0,0,0,0,0,0,0,0,-1,1742,365,0,0
525,659,0,0,0,0,0,0,0,0,0,-1,1749,365,0,0
532,659,0,0,0,0,0,0,0,0,0,-1,1756,365,0,0
539,659,0,0,0,0,0,0,0,0,0,-1,1763,365,0,0
546,659,0,0,0,0,0,0,0,0,0,-1,1770,365,0,0
553,659,0,0,0,0,0,0,0,0,0,-1,1777,365,0,0
560,659,0,0,0,0,0,0,0,0,0,-1,1784,365,0,0
567,659,0,0,0,0,0,0,0,0,0,-1,1791,365,0,0
574,659,0,0,0,0,0,0,0,0,0,-1,1798,365,0,0
581,659,0,0,0,0,0,0,0,0,0,-1,1805,365,0,0
588,659,0,0,0,0,0,0,0,0,0,-1,1812,365,0,0
595,659,0,0,0,0,0,0,0,0,0,-1,1819,365,0,0
602,659,0,0,0,0,0,0,0,0,0,-1,1826,365,0,0
609,659,0,0,0,0,0,0,0,0,0,-1,1833,365,0,0
616,659,0,0,0,0,0,0,0,0,0,-1,1840,365,0,0
623,659,0,0,0,0,0,0,0,0,0,-1,1847,365,0,0
630,659,0,0,0,0,0,0,0,0,0,-1,1854,365,0,0
637,659,0,0,0,0,0,0,0,0,0,-1,1861,365,0,0
644,659,0,0,0,0,0,0,0,0,0,-1,1868,365,0,0
651,659,0,0,0,0,0,0,0,0,0,-1,1875,365,0,0
658,659,0,0,0,0,0,0,0,0,0,-1,1882,365,0,0
665,659,0,0,0,0,0,0,0,0,0,-1,1889,365,0,0
672,659,0,0,0,0,0,0,0,0,0,-1,1896,365,0,0
679,659,0,0,0,0,0,0,0,0,0,-1,1903,365,0,0
686,659,0,0,0,0,0,0,0,0,0,-1,1910,365,0,0
693,659,0,0,0,0,0,0,0,0,0,-1,1917,365,0,0
700,659,0,0,0,0,0,0,0,0,0,-1,1924,365,0,0
707,659,0,0,0,0,0,0,0,0,0,-1,1931,365,0,0
714,659,0,0,0,0,0,0,0,0,0,-1,1938,365,0,0
721,659,0,0,0,0,0,0,0,0,0,-1,1945,365,0,0
728,659,0,0,0,0,0,0,0,0,0,-1,1952,365,0,0
735,659,0,0,0,0,0,0,0,0,0,-1,1959,365,0,0
742,659,0,0,0,0,0,0,0,0,0,-1,1966,365,0,0
749,659,0,0,0,0,0,0,0,0,0,-1,1973,365,0,0
756,659,0,0,0,0,0,0,0,0,0,-1,1980,365,0,0
763,659,0,0,0,0,0,0,0,0,0,-1,1987,365,0,0
770,659,0,0,0,0,0,0,0,0,0,-1,1994,365,0,0
777,659,0,0,0,0,0,0,0,0,0,-1,2001,365,0,0
784,659,0,0,0,0,0,0,0,0,0,-1,2008,365,0,0
791,659,0,0,0,0,0,0,0,0,0,-1,2015,365,0,0
798,659,0,0,0,0,0,0,0,0,0,-1,2022,365,0,0
805,659,0,0,0,0,0,0,0,0,0,-1,2029,365,0,0
812,659,0,0,0,0,0,0,0,0,0,-1,2036,365,0,0
-700,652,0,0,0,0,0,0,0,0,0,-1,524,372,0,0
-693,652,0,0,0,0,0,0,0,0,0,-1,531,372,0,0
-686,652,0,0,0,0,0,0,0,0,0,-1,538,372,0,0
-679,652,0,0,0,0,0,0,0,0,0,-1,545,372,0,0
-672,652,0,0,0,0,0,0,0,0,0,-1,552,372,0,0
-665,652,0,0,0,0,0,0,0,0,0,-1,559,372,0,0
-658,652,0,0,0,0,0,0,0,0,0,-1,566,372,0,0
-651,652,0,0,0,0,0,0,0,0,0,-1,573,372,0,0
-644,652,0,0,0,0,0,0,0,0,0,-1,580,372,0,0
-637,652,0,0,0,0,0,0,0,0,0,-1,587,372,0,0
-630,652,0,0,0,0,0,0,0,0,0,-1,594,372,0,0
-623,652,0,0,0,0,0,0,0,0,0,-1,601,372,0,0
-616,652,0,0,0,0,0,0,0,0,0,-1,608,372,0,0
-609,652,0,0,0,0,0,0,0,0,0,-1,615,372,0,0
-602,652,0,0,0,0,0,0,0,0,0,-1,622,372,0,0
-595,652,0,0,0,0,0,0,0,0,0,-1,629,372,0,0
-588,652,0,0,0,0,0,0,0,0,0,-1,636,372,0,0
-581,652,0,0,0,0,0,0,0,0,0,-1,643,372,0,0
-574,652,0,0,0,0,0,0,0,0,0,-1,650,372,0,0
-567,652,0,0,0,0,0,0,0,0,0,-1,657,372,0,0
-560,652,0,0,0,0,0,0,0,0,0,-1,664,372,0,0
-553,652,0,0,0,0,0,0,0,0,0,-1,671,372,0,0
-546,652,0,0,0,0,0,0,0,0,0,-1,678,372,0,0
-539,652,0,0,0,0,0,0,0,0,0,-1,685,372,0,0
-532,652,0,0,0,0,0,0,0,0,0,-1,692,372,0,0
-525,652,0,0,0,0,0,0,0,0,0,-1,699,372,0,0
-518,652,0,0,0,0,0,0,0,0,0,-1,706,372,0,0
-511,652,0,0,0,0,0,0,0,0,0,-1,713,372,0,0
-504,652,0,0,0,0,0,0,0,0,0,-1,720,372,0,0
-497,652,0,0,0,0,0,0,0,0,0,-1,727,372,0,0
-490,652,0,0,0,0,0,0,0,0,0,-1,734,372,0,0
-483,652,0,0,0,0,0,0,0,0,0,-1,741,372,0,0
-476,652,0,0,0,0,0,0,0,0,0,-1,748,372,0,0
-469,652,0,0,0,0,0,0,0,0,0,-1,755,372,0,0
-462,652,0,0,0,0,0,0,0,0,0,-1,762,372,0,0
-455,652,0,0,0,0,0,0,0,0,0,-1,769,372,0,0
-448,652,0,0,0,0,0,0,0,0,0,-1,776,372,0,0
-441,652,0,0,0,0,0,0,0,0,0,-1,783,372,0,0
-434,652,0,0,0,0,0,0,0,0,0,-1,790,372,0,0
-427,652,0,0,0,0,0,0,0,0,0,-1,797,372,0,0
-420,652,0,0,0,0,0,0,0,0,0,-1,804,372,0,0
-413,652,0,0,0,0,0,0,0,0,0,-1,811,372,0,0
-406,652,0,0,0,0,0,0,0,0,0,-1,818,372,0,0
-399,652,0,0,0,0,0,0,0,0,0,-1,825,372,0,0
-392,652,0,0,0,0,0,0,0,0,0,-1,832,372,0,0
-385,652,0,0,0,0,0,0,0,0,0,-1,839,372,0,0
-378,652,0,0,0,0,0,0,0,0,0,-1,846,372,0,0
-371,652,0,0,0,0,0,0,0,0,0,-1,853,372,0,0
-364,652,0,0,0,0,0,0,0,0,0,-1,860,372,0,0
-357,652,0,0,0,0,0,0,0,0,0,-1,867,372,0,0
-350,652,0,0,0,0,0,0,0,0,0,-1,874,372,0,0
-343,652,0,0,0,0,0,0,0,0,0,-1,881,372,0,0
-336,652,0,0,0,0,0,0,0,0,0,-1,888,372,0,0
-329,652,0,0,0,0,0,0,0,0,0,-1,895,372,0,0
-322,652,0,0,0,0,0,0,0,0,0,-1,902,372,0,0
-315,652,0,0,0,0,0,0,0,0,0,-1,909,372,0,0
-308,652,0,0,0,0,0,0,0,0,0,-1,916,372,0,0
-301,652,0,0,0,0,0,0,0,0,0,-1,923,372,0,0
-294,652,0,0,0,0,0,0,0,0,0,-1,930,372,0,0
-287,652,0,0,0,0,0,0,0,0,0,-1,937,372,0,0
-280,652,0,0,0,0,0,0,0,0,0,-1,944,372,0,0
-273,652,0,0,0,0,0,0,0,0,0,-1,951,372,0,0
-266,652,0,0,0,0,0,0,0,0,0,-1,958,372,0,0
-259,652,0,0,0,0,0,0,0,0,0,-1,965,372,0,0
-252,652,0,0,0,0,0,0,0,0,0,-1,972,372,0,0
-245,652,0,0,0,0,0,0,0,0,0,-1,979,372,0,0
-238,652,0,0,0,0,0,0,0,0,0,-1,986,372,0,0
-231,652,-3.17596,-5.87796,0,0,0,0,0,0,0,-1,993,372,-3.17597,5.87796
-224,652,-3.74396,-5.71695,0,0,0,0,0,0,0,-1,1000,372,-3.74397,5.71694
-217,652,-4.52545,-5.19208,0,0,0,0,0,0,0,-1,1007,372,-4.52543,5.19207
-210,652,2.33746,-9.61121,0,0,0,0,0,0,0,-1,1014,372,2.33747,9.61121
-203,652,-2.37793,-10.4327,0,0,0,0,0,0,0,-1,1021,372,-2.37792,10.4327
-196,652,2.53687,-12.4586,0,0,0,0,0,0,0,-1,1028,372,2.53688,12.4586
-189,652,2.7843,-11.977,0,0,0,0,0,0,0,-1,1035,372,2.78433,11.977
-182,652,1.97473,-11.8764,0,0,0,0,0,0,0,-1,1042,372,1.97473,11.8764
-175,652,0.844971,-11.4736,0,0,0,0,0,0,0,-1,1049,372,0.844918,11.4736
-168,652,2.05469,-10.3894,0.030379,-0.0376245,-0.0428452,0.0510749,-0.0583204,-0.449986,0.0632055,0.0426951,1056,372,2.05469,10.3894
-161,652,1.55603,-10.8196,0.031385,-0.0334161,-0.0414084,0.0515625,-0.0535936,-0.45342,0.0607157,0.0442875,1063,372,1.55605,10.8196
-154,652,1.51172,-10.6799,0.030821,-0.0291202,-0.0380394,0.049278,-0.0475772,-0.451744,0.0559222,0.0459479,1070,372,1.51176,10.6799
-147,652,2.66272,-10.5148,0,0,0,0,0,0,0,-1,1077,372,2.66276,10.5148
-140,652,2.52527,-10.3712,0.0254899,-0.0184955,-0.0285776,0.0395577,-0.0325632,-0.457441,0.0417043,0.0439453,1084,372,2.52531,10.3712
-133,652,2.2644,-10.1896,0.0203985,-0.0124646,-0.0236316,0.0327497,-0.0248159,-0.481609,0.0333406,0.0401794,1091,372,2.26441,10.1896
-126,652,2.28845,-10.3121,0.016204,-0.00695234,-0.0187753,0.0266841,-0.0174324,-0.509105,0.0256567,0.0385242,1098,372,2.2885,10.3121
-119,652,2.2522,-10.4159,0.0110138,-0.00246255,-0.0140823,0.019887,-0.0113357,-0.562254,0.0182504,0.0346228,1105,372,2.25214,10.4159
-112,652,2.22449,-10.4666,0.00620798,0.00153651,-0.00870199,0.0128823,-0.00513776,-0.654282,0.0107194,0.0247774,1112,372,2.22453,10.4666
-105,652,2.19873,-10.5063,0.00187412,0.00550501,-0.00613057,0.0100833,-0.00270416,-0.929349,0.00778181,0.0216382,1119,372,2.19877,10.5063
-98,652,2.17834,-10.6088,-0.00211455,0.00884144,-0.00457401,0.0105,-0.00377308,-1.22294,0.00854018,0.0233633,1126,372,2.17835,10.6088
-91,652,2.19983,-10.694,-0.00567668,0.0108229,-0.00320803,0.0114247,-0.00627847,-1.38536,0.0103639,0.0215763,1133,372,2.19982,10.694
-84,652,2.19604,-10.7757,-0.00674514,0.0114288,-0.00351077,0.0120834,-0.00739975,-1.38645,0.0113565,0.0182477,1140,372,2.19611,10.7757
-77,652,2.16174,-10.8318,-0.00683653,0.010683,-0.00339252,0.011317,-0.00747052,-1.38605,0.0109225,0.0189541,1147,372,2.16177,10.8318
-70,652,2.16235,-10.9006,-0.00669242,0.00963218,-0.00308569,0.010196,-0.00725621,-1.39008,0.0101236,0.0266041,1154,372,2.16237,10.9006
-63,652,2.1593,-10.9101,0,0,0,0,0,0,0,-1,1161,372,2.1593,10.9101
-56,652,2.12109,-11.0492,0,0,0,0,0,0,0,-1,1168,372,2.12113,11.0492
-49,652,2.1084,-11.1002,-0.00528762,0.00412221,-0.00237876,0.00468937,-0.00585478,-1.33674,0.00610005,0.0269155,1175,372,2.10841,11.1002
-42,652,2.08911,-11.1592,-0.00463986,0.00140035,-0.00218919,0.00211033,-0.00534985,-1.25718,0.00444044,0.0110239,1182,372,2.08914,11.1592
-35,652,2.09448,-11.2079,-0.00275851,-0.00123898,-0.00279885,0.000901394,-0.00489889,-0.917933,0.00360416,0.00931744,1189,372,2.09446,11.2079
-28,652,2.08838,-11.2519,-0.000276822,-0.00407582,-0.00294524,0.00132832,-0.00568097,-0.498993,0.00429904,0.00779566,1196,372,2.0884,11.2519
-21,652,2.05969,-11.2869,0.000317494,-0.00516945,-0.00347226,0.00199931,-0.00685127,-0.451057,0.00535973,0.00712158,1203,372,2.05963,11.2869
-14,652,2.05945,-11.3134,0.000901941,-0.00640582,-0.00384838,0.00255474,-0.00805862,-0.405659,0.00639638,0.00923477,1210,372,2.05942,11.3134
-7,652,2.07056,-11.3607,0.00150376,-0.00750275,-0.00412377,0.00310664,-0.00910562,-0.370719,0.00732883,0.0122805,1217,372,2.07055,11.3607
0,652,2.03418,-11.3799,0.00201461,-0.00844899,-0.00435785,0.00359182,-0.0100262,-0.347257,0.00814966,0.0115371,1224,372,2.03417,11.3799
7,652,2.01526,-11.3718,0.00242469,-0.00920661,-0.00445421,0.00393446,-0.0107164,-0.3268,0.00875555,0.012614,1231,372,2.01524,11.3718
14,652,2.01184,-11.3997,0.00265156,-0.00976943,-0.00436431,0.00403168,-0.0111495,-0.306278,0.00908034,0.0116948,1238,372,2.0119,11.3997
21,652,2.02283,-11.4101,0.00267504,-0.0099798,-0.00407936,0.00387607,-0.0111808,-0.286324,0.00902767,0.0112476,1245,372,2.02277,11.4101
28,652,2.02161,-11.4212,0.00258854,-0.00996664,-0.00368974,0.00359259,-0.0109707,-0.265687,0.00876042,0.00992075,1252,372,2.02163,11.4212
35,652,2.0116,-11.4349,0.00233608,-0.0096918,-0.0031928,0.00313106,-0.0104868,-0.24403,0.00823572,0.00904936,1259,372,2.01164,11.4349
42,652,1.99329,-11.4464,0.00211617,-0.00939773,-0.00266495,0.00270307,-0.00998463,-0.216769,0.00771689,0.0107376,1266,372,1.99329,11.4464
49,652,1.99304,-11.4467,0.00189744,-0.00933281,-0.00228718,0.00234539,-0.00978076,-0.193402,0.00742679,0.0127902,1273,372,1.99307,11.4468
56,652,1.97229,-11.4422,0.00132193,-0.00860558,-0.00185073,0.00165572,-0.00893937,-0.178441,0.00658128,0.0143942,1280,372,1.97225,11.4422
63,652,1.96826,-11.4537,0.000913046,-0.0081249,-0.00133291,0.00110552,-0.00831737,-0.143412,0.00594777,0.0191328,1287,372,1.96822,11.4537
70,652,1.98328,-11.4239,0.000551504,-0.00768476,-0.000863946,0.000641153,-0.00777441,-0.103396,0.00540934,0.0162557,1294,372,1.98327,11.4239
77,652,1.95313,-11.3636,0.000450227,-0.00750585,-0.000466175,0.000477448,-0.00753307,-0.0583275,0.00518852,0.0152407,1301,372,1.95307,11.3636
84,652,1.94568,-11.3632,0.000690066,-0.00736925,4.67121e-05,0.000690337,-0.00736952,0.00579578,0.00515854,0.0133762,1308,372,1.94566,11.3632
91,652,1.92603,-11.366,0.000933835,-0.00704203,0.000347177,0.000948918,-0.00705712,0.043419,0.00505085,0.0154358,1315,372,1.92599,11.366
98,652,1.92285,-11.3223,0.00123072,-0.00666952,0.000508771,0.00126335,-0.00670215,0.0640469,0.00494332,0.0118565,1322,372,1.92287,11.3223
105,652,1.91382,-11.272,0.00164045,-0.00632613,0.000842675,0.00172861,-0.00641429,0.104239,0.00495397,0.0109767,1329,372,1.91386,11.272
112,652,1.91418,-11.2393,0.00195543,-0.00601114,0.00121952,0.00213793,-0.00619364,0.148549,0.0049966,0.0090024,1336,372,1.9142,11.2393
119,652,1.93237,-11.2027,0.00222983,-0.0054715,0.00164527,0.00256659,-0.00580826,0.201895,0.00495449,0.00961482,1343,372,1.93242,11.2027
126,652,1.90796,-11.167,0.00245818,-0.00477814,0.00206185,0.00300443,-0.00532439,0.258982,0.00487043,0.0122466,1350,372,1.90793,11.167
133,652,1.86914,-11.1101,0.00261091,-0.00387547,0.0024374,0.00342471,-0.00468928,0.322244,0.00470354,0.0129885,1357,372,1.86915,11.1101
140,652,1.86694,-11.0495,0.0026972,-0.00287729,0.00277548,0.0038434,-0.0040235,0.391642,0.00454235,0.00942684,1364,372,1.86692,11.0495
147,652,1.86377,-10.9908,0.00269273,-0.00189468,0.00295414,0.00413908,-0.00334103,0.455294,0.00432683,0.00850467,1371,372,1.86375,10.9908
154,652,1.86572,-10.9424,0.00247554,-0.000824445,0.00319783,0.00442397,-0.00277287,0.547226,0.00419138,0.0086714,1378,372,1.86577,10.9424
161,652,1.85181,-10.9003,0.00235609,-0.000549109,0.00310605,0.00433243,-0.00252545,0.566674,0.00400495,0.00963725,1385,372,1.85179,10.9003
168,652,1.84192,-10.8324,0.00195124,-2.93268e-05,0.00296336,0.0040854,-0.00216349,0.624144,0.00366424,0.00971626,1392,372,1.84193,10.8324
175,652,1.84424,-10.7435,0.00166182,0.000463947,0.00296942,0.00409211,-0.00196634,0.685882,0.0035689,0.0105143,1399,372,1.84427,10.7435
182,652,1.82336,-10.6787,0.00132689,0.00113117,0.00282836,0.00405909,-0.00160102,0.768106,0.00336902,0.0169662,1406,372,1.8234,10.6787
189,652,1.84436,-10.5763,0.000715187,0.000933458,0.00229499,0.0031219,-0.00147326,0.809157,0.00270934,0.0227456,1413,372,1.84434,10.5763
196,652,1.80347,-10.5291,4.05484e-06,0.000330103,0.001895,0.00206908,-0.00173492,0.828307,0.00219906,0.0357605,1420,372,1.80343,10.529
203,652,1.82483,-10.5748,-0.000783614,-0.00127325,0.00199677,0.000983287,-0.00304015,0.7244,0.002422,0.0409744,1427,372,1.82487,10.5748
210,652,1.79419,-10.4446,-0.00166023,-0.00208437,0.00227346,0.000411027,-0.00415563,0.738893,0.0029171,0.0284923,1434,372,1.79422,10.4446
217,652,1.81848,-10.179,-0.00230181,-0.00222029,0.00234445,8.37552e-05,-0.00460586,0.79409,0.00309887,0.0278168,1441,372,1.8185,10.179
224,652,1.84473,-10.0088,-0.00281942,-0.00216353,0.00219836,-0.00026879,-0.00471416,0.859441,0.00305712,0.0279186,1448,372,1.84478,10.0088
231,652,1.89453,-9.93985,-0.00312098,-0.00240725,0.00201364,-0.000719101,-0.00480913,0.8731,0.0029953,0.033638,1455,372,1.89456,9.93985
238,652,1.9519,-9.98444,-0.00351638,-0.0026683,0.00174063,-0.0013008,-0.00488387,0.904877,0.00292053,0.0371955,1462,372,1.95185,9.98444
245,652,1.74829,-9.9906,-0.00381126,-0.00283958,0.0014083,-0.00183568,-0.00481517,0.951498,0.00280606,0.0380289,1469,372,1.74828,9.9906
252,652,1.52197,-10.0312,-0.00374356,-0.0027772,0.00118068,-0.00198466,-0.0045361,0.979621,0.00262573,0.045176,1476,372,1.52193,10.0312
259,652,1.3446,-9.96774,0,0,0,0,0,0,0,-1,1483,372,1.34458,9.96775
266,652,1.5144,-9.1059,0,0,0,0,0,0,0,-1,1490,372,1.51436,9.1059
273,652,1.65784,-8.86099,0,0,0,0,0,0,0,-1,1497,372,1.65786,8.861
280,652,1.85193,-9.49307,0,0,0,0,0,0,0,-1,1504,372,1.85197,9.49308
287,652,1.97437,-9.77625,0,0,0,0,0,0,0,-1,1511,372,1.97437,9.77625
294,652,1.67505,-9.62146,0,0,0,0,0,0,0,-1,1518,372,1.67509,9.62145
301,652,1.72546,-6.46445,0,0,0,0,0,0,0,-1,1525,372,1.72551,6.46445
308,652,2.52637,-5.0748,0,0,0,0,0,0,0,-1,1532,372,2.52637,5.0748
315,652,2.41602,-8.69672,0,0,0,0,0,0,0,-1,1539,372,2.41599,8.69671
322,652,1.30774,-9.2442,0,0,0,0,0,0,0,-1,1546,372,1.30777,9.24419
329,652,0.594604,-8.61166,0,0,0,0,0,0,0,-1,1553,372,0.594565,8.61167
336,652,4.32825,-3.46991,0,0,0,0,0,0,0,-1,1560,372,4.3282,3.46991
343,652,4.18225,-6.7092,0,0,0,0,0,0,0,-1,1567,372,4.18231,6.70921
350,652,4.64563,-7.2074,0,0,0,0,0,0,0,-1,1574,372,4.6456,7.2074
357,652,0,0,0,0,0,0,0,0,0,-1,1581,372,0,0
364,652,0,0,0,0,0,0,0,0,0,-1,1588,372,0,0
371,652,0,0,0,0,0,0,0,0,0,-1,1595,372,0,0
378,652,0,0,0,0,0,0,0,0,0,-1,1602,372,0,0
385,652,0,0,0,0,0,0,0,0,0,-1,1609,372,0,0
392,652,0,0,0,0,0,0,0,0,0,-1,1616,372,0,0
399,652,0,0,0,0,0,0,0,0,0,-1,1623,372,0,0
406,652,0,0,0,0,0,0,0,0,0,-1,1630,372,0,0
413,652,0,0,0,0,0,0,0,0,0,-1,1637,372,0,0
420,652,0,0,0,0,0,0,0,0,0,-1,1644,372,0,0
427,652,0,0,0,0,0,0,0,0,0,-1,1651,372,0,0
434,652,0,0,0,0,0,0,0,0,0,-1,1658,372,0,0
441,652,0,0,0,0,0,0,0,0,0,-1,1665,372,0,0
448,652,0,0,0,0,0,0,0,0,0,-1,1672,372,0,0
455,652,0,0,0,0,0,0,0,0,0,-1,1679,372,0,0
462,652,0,0,0,0,0,0,0,0,0,-1,1686,372,0,0
469,652,0,0,0,0,0,0,0,0,0,-1,1693,372,0,0
476,652,0,0,0,0,0,0,0,0,0,-1,1700,372,0,0
483,652,0,0,0,0,0,0,0,0,0,-1,1707,372,0,0
490,652,0,0,0,0,0,0,0,0,0,-1,1714,372,0,0
497,652,0,0,0,0,0,0,0,0,0,-1,1721,372,0,0
504,652,0,0,0,0,0,0,0,0,0,-1,1728,372,0,0
511,652,0,0,0,0,0,0,0,0,0,-1,1735,372,0,0
518,652,0,0,0,0,0,0,0,0,0,-1,1742,372,0,0
525,652,0,0,0,0,0,0,0,0,0,-1,1749,372,0,0
532,652,0,0,0,0,0,0,0,0,0,-1,1756,372,0,0
539,652,0,0,0,0,0,0,0,0,0,-1,1763,372,0,0
546,652,0,0,0,0,0,0,0,0,0,-1,1770,372,0,0
553,652,0,0,0,0,0,0,0,0,0,-1,1777,372,0,0
560,652,0,0,0,0,0,0,0,0,0,-1,1784,372,0,0
567,652,0,0,0,0,0,0,0,0,0,-1,1791,372,0,0
574,652,0,0,0,0,0,0,0,0,0,-1,1798,372,0,0
581,652,0,0,0,0,0,0,0,0,0,-1,1805,372,0,0
588,652,0,0,0,0,0,0,0,0,0,-1,1812,372,0,0
595,652,0,0,0,0,0,0,0,0,0,-1,1819,372,0,0
602,652,0,0,0,0,0,0,0,0,0,-1,1826,372,0,0
609,652,0,0,0,0,0,0,0,0,0,-1,1833,372,0,0
616,652,0,0,0,0,0,0,0,0,0,-1,1840,372,0,0
623,652,0,0,0,0,0,0,0,0,0,-1,1847,372,0,0
630,652,0,0,0,0,0,0,0,0,0,-1,1854,372,0,0
637,652,0,0,0,0,0,0,0,0,0,-1,1861,372,0,0
644,652,0,0,0,0,0,0,0,0,0,-1,1868,372,0,0
651,652,0,0,0,0,0,0,0,0,0,-1,1875,372,0,0
658,652,0,0,0,0,0,0,0,0,0,-1,1882,372,0,0
665,652,0,0,0,0,0,0,0,0,0,-1,1889,372,0,0
672,652,0,0,0,0,0,0,0,0,0,-1,1896,372,0,0
679,652,0,0,0,0,0,0,0,0,0,-1,1903,372,0,0
686,652,0,0,0,0,0,0,0,0,0,-1,1910,372,0,0
693,652,0,0,0,0,0,0,0,0,0,-1,1917,372,0,0
700,652,0,0,0,0,0,0,0,0,0,-1,1924,372,0,0
707,652,0,0,0,0,0,0,0,0,0,-1,1931,372,0,0
714,652,0,0,0,0,0,0,0,0,0,-1,1938,372,0,0
721,652,0,0,0,0,0,0,0,0,0,-1,1945,372,0,0
728,652,0,0,0,0,0,0,0,0,0,-1,1952,372,0,0
735,652,0,0,0,0,0,0,0,0,0,-1,1959,372,0,0
742,652,0,0,0,0,0,0,0,0,0,-1,1966,372,0,0
749,652,0,0,0,0,0,0,0,0,0,-1,1973,372,0,0
756,652,0,0,0,0,0,0,0,0,0,-1,1980,372,0,0
763,652,0,0,0,0,0,0,0,0,0,-1,1987,372,0,0
770,652,0,0,0,0,0,0,0,0,0,-1,1994,372,0,0
777,652,0,0,0,0,0,0,0,0,0,-1,2001,372,0,0
784,652,0,0,0,0,0,0,0,0,0,-1,2008,372,0,0
791,652,0,0,0,0,0,0,0,0,0,-1,2015,372,0,0
798,652,0,0,0,0,0,0,0,0,0,-1,2022,372,0,0
805,652,0,0,0,0,0,0,0,0,0,-1,2029,372,0,0
812,652,0,0,0,0,0,0,0,0,0,-1,2036,372,0,0
-700,645,0,0,0,0,0,0,0,0,0,-1,524,379,0,0
-693,645,0,0,0,0,0,0,0,0,0,-1,531,379,0,0
-686,645,0,0,0,0,0,0,0,0,0,-1,538,379,0,0
-679,645,0,0,0,0,0,0,0,0,0,-1,545,379,0,0
-672,645,0,0,0,0,0,0,0,0,0,-1,552,379,0,0
-665,645,0,0,0,0,0,0,0,0,0,-1,559,379,0,0
-658,645,0,0,0,0,0,0,0,0,0,-1,566,379,0,0
-651,645,0,0,0,0,0,0,0,0,0,-1,573,379,0,0
-644,645,0,0,0,0,0,0,0,0,0,-1,580,379,0,0
-637,645,0,0,0,0,0,0,0,0,0,-1,587,379,0,0
-630,645,0,0,0,0,0,0,0,0,0,-1,594,379,0,0
-623,645,0,0,0,0,0,0,0,0,0,-1,601,379,0,0
-616,645,0,0,0,0,0,0,0,0,0,-1,608,379,0,0
-609,645,0,0,0,0,0,0,0,0,0,-1,615,379,0,0
-602,645,0,0,0,0,0,0,0,0,0,-1,622,379,0,0
-595,645,0,0,0,0,0,0,0,0,0,-1,629,379,0,0
-588,645,0,0,0,0,0,0,0,0,0,-1,636,379,0,0
-581,645,0,0,0,0,0,0,0,0,0,-1,643,379,0,0
-574,645,0,0,0,0,0,0,0,0,0,-1,650,379,0,0
-567,645,0,0,0,0,0,0,0,0,0,-1,657,379,0,0
-560,645,0,0,0,0,0,0,0,0,0,-1,664,379,0,0
-553,645,0,0,0,0,0,0,0,0,0,-1,671,379,0,0
-546,645,0,0,0,0,0,0,0,0,0,-1,678,379,0,0
-539,645,0,0,0,0,0,0,0,0,0,-1,685,379,0,0
-532,645,0,0,0,0,0,0,0,0,0,-1,692,379,0,0
-525,645,0,0,0,0,0,0,0,0,0,-1,699,379,0,0
-518,645,0,0,0,0,0,0,0,0,0,-1,706,379,0,0
-511,645,0,0,0,0,0,0,0,0,0,-1,713,379,0,0
-504,645,0,0,0,0,0,0,0,0,0,-1,720,379,0,0
-497,645,0,0,0,0,0,0,0,0,0,-1,727,379,0,0
-490,645,0,0,0,0,0,0,0,0,0,-1,734,379,0,0
-483,645,0,0,0,0,0,0,0,0,0,-1,741,379,0,0
-476,645,0,0,0,0,0,0,0,0,0,-1,748,379,0,0
-469,645,0,0,0,0,0,0,0,0,0,-1,755,379,0,0
-462,645,0,0,0,0,0,0,0,0,0,-1,762,379,0,0
-455,645,0,0,0,0,0,0,0,0,0,-1,769,379,0,0
-448,645,0,0,0,0,0,0,0,0,0,-1,776,379,0,0
-441,645,0,0,0,0,0,0,0,0,0,-1,783,379,0,0
-434,645,0,0,0,0,0,0,0,0,0,-1,790,379,0,0
-427,645,0,0,0,0,0,0,0,0,0,-1,797,379,0,0
-420,645,0,0,0,0,0,0,0,0,0,-1,804,379,0,0
-413,645,0,0,0,0,0,0,0,0,0,-1,811,379,0,0
-406,645,0,0,0,0,0,0,0,0,0,-1,818,379,0,0
-399,645,0,0,0,0,0,0,0,0,0,-1,825,379,0,0
-392,645,0,0,0,0,0,0,0,0,0,-1,832,379,0,0
-385,645,0,0,0,0,0,0,0,0,0,-1,839,379,0,0
-378,645,0,0,0,0,0,0,0,0,0,-1,846,379,0,0
-371,645,0,0,0,0,0,0,0,0,0,-1,853,379,0,0
-364,645,0,0,0,0,0,0,0,0,0,-1,860,379,0,0
-357,645,0,0,0,0,0,0,0,0,0,-1,867,379,0,0
-350,645,0,0,0,0,0,0,0,0,0,-1,874,379,0,0
-343,645,0,0,0,0,0,0,0,0,0,-1,881,379,0,0
-336,645,0,0,0,0,0,0,0,0,0,-1,888,379,0,0
-329,645,0,0,0,0,0,0,0,0,0,-1,895,379,0,0
-322,645,0,0,0,0,0,0,0,0,0,-1,902,379,0,0
-315,645,0,0,0,0,0,0,0,0,0,-1,909,379,0,0
-308,645,0,0,0,0,0,0,0,0,0,-1,916,379,0,0
-301,645,0,0,0,0,0,0,0,0,0,-1,923,379,0,0
-294,645,0,0,0,0,0,0,0,0,0,-1,930,379,0,0
-287,645,0,0,0,0,0,0,0,0,0,-1,937,379,0,0
-280,645,0,0,0,0,0,0,0,0,0,-1,944,379,0,0
-273,645,0,0,0,0,0,0,0,0,0,-1,951,379,0,0
-266,645,0,0,0,0,0,0,0,0,0,-1,958,379,0,0
-259,645,0,0,0,0,0,0,0,0,0,-1,965,379,0,0
-252,645,0.0778198,-6.9191,0,0,0,0,0,0,0,-1,972,379,0.0778175,6.9191
-245,645,0.52948,-6.83511,0,0,0,0,0,0,0,-1,979,379,0.529504,6.83511
-238,645,0.53125,-7.3454,0,0,0,0,0,0,0,-1,986,379,0.531259,7.34541
-231,645,1.97729,-7.08783,0,0,0,0,0,0,0,-1,993,379,1.97729,7.08784
-224,645,-2.62988,-5.69568,0,0,0,0,0,0,0,-1,1000,379,-2.62987,5.69567
-217,645,-3.33527,-5.9166,0,0,0,0,0,0,0,-1,1007,379,-3.33529,5.91658
-210,645,2.55573,-13.5182,0,0,0,0,0,0,0,-1,1014,379,2.55572,13.5182
-203,645,2.59467,-12.8821,0,0,0,0,0,0,0,-1,1021,379,2.59469,12.8821
-196,645,2.57666,-12.4496,0.00903046,-0.037636,-0.0142132,0.0130186,-0.0416241,-0.273557,0.0329574,0.0419996,1028,379,2.57661,12.4497
-189,645,2.67126,-11.7241,0.0126627,-0.0372552,-0.0198769,0.0196105,-0.044203,-0.336267,0.0377437,0.0412402,1035,379,2.67126,11.7241
-182,645,2.1803,-11.3343,0.0156123,-0.0355134,-0.0246648,0.0255714,-0.0454725,-0.38376,0.0415502,0.0419818,1042,379,2.18029,11.3343
-175,645,1.14197,-11.0862,0,0,0,0,0,0,0,-1,1049,379,1.14195,11.0862
-168,645,0.293823,-10.8895,0,0,0,0,0,0,0,-1,1056,379,0.29383,10.8895
-161,645,1.92627,-10.3163,0.0205014,-0.0268181,-0.0281129,0.0335856,-0.0399023,-0.4356,0.0424805,0.0440806,1063,379,1.92632,10.3163
-154,645,2.08276,-10.3785,0.0202703,-0.023363,-0.0260319,0.0324187,-0.0355114,-0.436634,0.039233,0.0403253,1070,379,2.08277,10.3785
-147,645,2.43518,-10.2496,0.019191,-0.0191616,-0.022906,0.029888,-0.0298586,-0.436899,0.0344948,0.0396472,1077,379,2.43513,10.2496
-140,645,2.34229,-10.2767,0.0169028,-0.0148374,-0.0198846,0.026474,-0.0244085,-0.448604,0.0293851,0.0354861,1084,379,2.34224,10.2767
-133,645,2.17773,-10.2618,0.0136006,-0.0100385,-0.016529,0.0221012,-0.0185391,-0.47501,0.0234937,0.0290525,1091,379,2.17768,10.2618
-126,645,2.23193,-10.3238,0.0108803,-0.00558148,-0.0132246,0.0182262,-0.0129274,-0.507037,0.018073,0.0229537,1098,379,2.23192,10.3238
-119,645,2.19568,-10.4107,0.00732467,-0.00217904,-0.00992294,0.0135749,-0.00842923,-0.562095,0.0128193,0.0158525,1105,379,2.19572,10.4107
-112,645,2.17627,-10.5035,0.00408006,0.00084114,-0.00601808,0.00869277,-0.00377157,-0.653962,0.00738089,0.0114821,1112,379,2.17626,10.5035
-105,645,2.15527,-10.5831,0.00113541,0.00388049,-0.00419189,0.00691882,-0.00190292,-0.943611,0.00536064,0.0113644,1119,379,2.15525,10.5831
-98,645,2.13257,-10.6622,-0.00159731,0.006385,-0.00312642,0.00746374,-0.00267605,-1.23855,0.00606784,0.0123691,1126,379,2.13251,10.6622
-91,645,2.13708,-10.7395,-0.00395445,0.00783504,-0.00227476,0.00825873,-0.00437814,-1.38665,0.00740968,0.0125851,1133,379,2.13708,10.7395
-84,645,2.11621,-10.8133,-0.00461521,0.00831994,-0.00251735,0.00879258,-0.00508785,-1.3852,0.00810846,0.0120497,1140,379,2.1162,10.8133
-77,645,2.09229,-10.9012,-0.00461657,0.00776255,-0.00243027,0.00822257,-0.00507658,-1.38372,0.00774955,0.01049,1147,379,2.09228,10.9012
-70,645,2.09167,-10.9839,-0.00450474,0.00702129,-0.00219408,0.00742482,-0.00490827,-1.38891,0.00716976,0.0096719,1154,379,2.09167,10.9839
-63,645,2.0918,-11.0147,-0.00458482,0.00625684,-0.0019085,0.00658299,-0.00491097,-1.40154,0.0066594,0.0100507,1161,379,2.09175,11.0147
-56,645,2.08398,-11.0421,-0.00445766,0.00515217,-0.00182395,0.00548671,-0.0047922,-1.3894,0.00593905,0.0111931,1168,379,2.08397,11.0421
-49,645,2.06421,-11.0918,-0.00384812,0.00362444,-0.00164109,0.00396897,-0.00419265,-1.36386,0.0047127,0.00966603,1175,379,2.06417,11.0918
-42,645,2.05017,-11.1536,-0.00360015,0.00211413,-0.00139273,0.00243551,-0.00392152,-1.34401,0.00370351,0.00956023,1182,379,2.05022,11.1536
-35,645,2.05127,-11.2174,-0.00253085,0.000607509,-0.00170141,0.00135287,-0.00327621,-1.15789,0.00274842,0.0105342,1189,379,2.05129,11.2174
-28,645,2.03894,-11.2856,-0.000995371,-0.00107743,-0.00173859,0.000702669,-0.00277547,-0.7736,0.00212365,0.0091649,1196,379,2.039,11.2857
-21,645,2.01697,-11.2979,-0.000557933,-0.00170795,-0.00204616,0.00099248,-0.00325836,-0.648422,0.00256782,0.00984496,1203,379,2.01702,11.2979
-14,645,2.0304,-11.3079,-0.000101054,-0.00243702,-0.00229536,0.00130639,-0.00384446,-0.550049,0.00309185,0.00979384,1210,379,2.03042,11.3079
-7,645,2.05359,-11.3717,0.00040818,-0.00305098,-0.00249389,0.00171355,-0.00435635,-0.482214,0.00361349,0.0131553,1217,379,2.05355,11.3717
0,645,2.00989,-11.3987,0.000878482,-0.00359172,-0.00271511,0.00216012,-0.00487336,-0.441031,0.00416028,0.0227459,1224,379,2.00984,11.3987
7,645,1.99365,-11.4122,0.00126215,-0.0040222,-0.00285823,0.00251235,-0.0052724,-0.412328,0.00458772,0.015752,1231,379,1.99363,11.4122
14,645,1.9989,-11.421,0.0015273,-0.00438241,-0.0029035,0.00271508,-0.0055702,-0.388317,0.00487726,0.0157572,1238,379,1.99888,11.421
21,645,2.00403,-11.4419,0.00167496,-0.00454419,-0.00283992,0.00277664,-0.00564587,-0.370053,0.0049559,0.0111295,1245,379,2.00403,11.4419
28,645,1.99353,-11.4424,0.00177709,-0.00461486,-0.00275059,0.00279775,-0.00563552,-0.35532,0.00495999,0.00932902,1252,379,1.9935,11.4424
35,645,1.98657,-11.4444,0.00177493,-0.00460086,-0.00253421,0.00265948,-0.00548542,-0.335826,0.00479588,0.00823141,1259,379,1.98659,11.4444
42,645,1.99451,-11.4513,0.00173608,-0.00457392,-0.00226443,0.00246459,-0.00530243,-0.311262,0.00458298,0.00902217,1266,379,1.9945,11.4513
49,645,2.00684,-11.4503,0.00179109,-0.00475123,-0.00205553,0.00238331,-0.00534345,-0.280514,0.00456887,0.0117783,1273,379,2.0068,11.4503
56,645,1.99536,-11.4438,0.00159073,-0.00450578,-0.00181963,0.00209253,-0.00500759,-0.269084,0.00421285,0.0113021,1280,379,1.99539,11.4438
63,645,1.99622,-11.4363,0.00144189,-0.00438892,-0.00154399,0.0018255,-0.00477253,-0.243522,0.00393399,0.0117694,1287,379,1.99617,11.4363
70,645,1.97546,-11.416,0.00127432,-0.00421641,-0.00129452,0.00156422,-0.00450631,-0.220307,0.00363944,0.0153495,1294,379,1.97541,11.416
77,645,1.96338,-11.3865,0.00126419,-0.00421155,-0.00108644,0.00147188,-0.00441923,-0.18888,0.00354028,0.0181634,1301,379,1.96336,11.3865
84,645,1.99023,-11.3751,0.0014553,-0.00426827,-0.000859988,0.00158172,-0.0043947,-0.145961,0.00357562,0.0134678,1308,379,1.99025,11.3751
91,645,1.95251,-11.3664,0.0015683,-0.00423783,-0.000754136,0.00166465,-0.00433418,-0.127077,0.00357591,0.0140147,1315,379,1.95253,11.3664
98,645,1.95251,-11.3189,0.00166783,-0.00411486,-0.000679728,0.00174665,-0.00419369,-0.115449,0.00352532,0.0127836,1322,379,1.95253,11.3189
105,645,1.94751,-11.278,0.00184151,-0.00386186,-0.000497712,0.00188462,-0.00390497,-0.0863961,0.00340979,0.0104845,1329,379,1.94752,11.278
112,645,1.93994,-11.2545,0.00194516,-0.00365274,-0.00028287,0.00195942,-0.003667,-0.0503604,0.0032979,0.00824598,1336,379,1.93993,11.2545
119,645,1.95923,-11.2053,0.00197659,-0.00333021,-2.20887e-05,0.00197668,-0.0033303,-0.00416226,0.00309703,0.00820521,1343,379,1.95928,11.2053
126,645,1.95349,-11.176,0.00195439,-0.00297943,0.000254498,0.00196749,-0.00299252,0.0514004,0.00288398,0.0112977,1350,379,1.95347,11.176
133,645,1.93164,-11.1189,0.0018791,-0.0025378,0.000545579,0.00194549,-0.0026042,0.121096,0.00263592,0.0124472,1357,379,1.9316,11.1189
140,645,1.92151,-11.0442,0.0017871,-0.00202689,0.000805723,0.00195033,-0.00219012,0.199879,0.00239182,0.0116443,1364,379,1.92154,11.0442
147,645,1.91479,-10.9814,0.00169197,-0.00152397,0.000981788,0.00196801,-0.0018,0.27408,0.00217618,0.0117139,1371,379,1.91481,10.9815
154,645,1.93323,-10.9375,0.00148375,-0.000920488,0.00121008,0.00198732,-0.00142406,0.39435,0.00197849,0.0104703,1378,379,1.9332,10.9375
161,645,1.92224,-10.8964,0.00139718,-0.000774324,0.00124818,0.00196576,-0.0013429,0.42744,0.00192151,0.0125907,1385,379,1.9222,10.8964
168,645,1.90466,-10.8268,0.0011212,-0.000415524,0.00125426,0.00182374,-0.00111806,0.51058,0.00171466,0.0147592,1392,379,1.9047,10.8268
175,645,1.9325,-10.7562,0.000924954,1.20726e-05,0.00136548,0.00190826,-0.000971231,0.624101,0.00169156,0.0129464,1399,379,1.93254,10.7562
182,645,1.92432,-10.6759,0.000697463,0.000564321,0.00138378,0.00201627,-0.000754487,0.761363,0.00165407,0.00977865,1406,379,1.92427,10.6759
189,645,1.91248,-10.5738,0.000324745,0.000509156,0.00135257,0.00177266,-0.000938761,0.819431,0.00158993,0.0108307,1413,379,1.91246,10.5737
196,645,1.89026,-10.4988,-0.000128175,0.000108115,0.00139978,0.00139473,-0.00141479,0.8275,0.00162209,0.0113776,1420,379,1.89023,10.4988
203,645,1.86401,-10.4107,-0.000716998,-0.000956065,0.00148853,0.000656792,-0.00232985,0.745333,0.00181228,0.0108784,1427,379,1.86396,10.4107
210,645,1.89246,-10.3339,-0.00131775,-0.00140649,0.0017091,0.000347555,-0.00307179,0.772421,0.002173,0.0139658,1434,379,1.89249,10.3339
217,645,1.86682,-10.2521,-0.00177977,-0.00141406,0.00179653,0.000208904,-0.00340272,0.836115,0.00234123,0.0134961,1441,379,1.86677,10.2521
224,645,1.84668,-10.127,-0.0021269,-0.00126996,0.00173703,9.06647e-05,-0.00348753,0.906317,0.00235582,0.0121508,1448,379,1.84664,10.127
231,645,1.84485,-10.0108,-0.00229297,-0.00136601,0.00167027,-9.61039e-05,-0.00356287,0.920737,0.00234387,0.0129952,1455,379,1.84482,10.0108
238,645,1.83215,-9.91663,-0.00252915,-0.00145955,0.00153899,-0.000365084,-0.00362361,0.952621,0.00230371,0.0106583,1462,379,1.83221,9.91663
245,645,1.83411,-9.8204,-0.00269892,-0.00148038,0.00136333,-0.000596367,-0.00358293,0.995534,0.00221673,0.0117628,1469,379,1.83405,9.8204
252,645,1.84534,-9.64178,-0.00259871,-0.00132204,0.00126672,-0.000541904,-0.00337885,1.01879,0.00209542,0.0184585,1476,379,1.84531,9.64177
259,645,1.82202,-9.46567,-0.00163812,-0.00106104,0.00146902,0.000147509,-0.00284667,0.882372,0.00194881,0.028766,1483,379,1.82197,9.46568
266,645,1.77942,-9.33878,-0.000652721,-0.00103979,0.00268337,0.00184409,-0.0035366,0.749399,0.00315735,0.0263309,1490,379,1.7794,9.33879
273,645,1.78967,-9.24203,0.000141496,-0.000286563,0.00503686,0.00496887,-0.00511394,0.764165,0.00582152,0.0253464,1497,379,1.78966,9.24203
280,645,1.92188,-9.29037,0.00170787,-0.000111548,0.00728184,0.0081366,-0.00654029,0.723256,0.0084904,0.0432254,1504,379,1.92191,9.29038
287,645,2.01038,-9.32101,0,0,0,0,0,0,0,-1,1511,379,2.01037,9.32102
294,645,1.80579,-9.27985,0,0,0,0,0,0,0,-1,1518,379,1.80583,9.27983
301,645,1.52039,-9.09027,0,0,0,0,0,0,0,-1,1525,379,1.52032,9.09027
308,645,2.27869,-8.79224,0,0,0,0,0,0,0,-1,1532,379,2.27865,8.79225
315,645,2.50012,-8.56598,0,0,0,0,0,0,0,-1,1539,379,2.50011,8.56599
322,645,2.6637,-7.98309,0,0,0,0,0,0,0,-1,1546,379,2.66367,7.98311
329,645,1.23096,-7.2207,0,0,0,0,0,0,0,-1,1553,379,1.23091,7.22072
336,645,0.61792,-6.51047,0,0,0,0,0,0,0,-1,1560,379,0.617879,6.51047
343,645,3.48962,-5.22675,0,0,0,0,0,0,0,-1,1567,379,3.48959,5.22675
350,645,3.93213,-5.72198,0,0,0,0,0,0,0,-1,1574,379,3.9321,5.72198
357,645,1.63928,-6.465,0,0,0,0,0,0,0,-1,1581,379,1.63926,6.46499
364,645,-0.0794678,-3.22021,0,0,0,0,0,0,0,-1,1588,379,-0.0794987,3.22021
371,645,0,0,0,0,0,0,0,0,0,-1,1595,379,0,0
378,645,0,0,0,0,0,0,0,0,0,-1,1602,379,0,0
385,645,0,0,0,0,0,0,0,0,0,-1,1609,379,0,0
392,645,0,0,0,0,0,0,0,0,0,-1,1616,379,0,0
399,645,0,0,0,0,0,0,0,0,0,-1,1623,379,0,0
406,645,0,0,0,0,0,0,0,0,0,-1,1630,379,0,0
413,645,0,0,0,0,0,0,0,0,0,-1,1637,379,0,0
420,645,0,0,0,0,0,0,0,0,0,-1,1644,379,0,0
427,645,0,0,0,0,0,0,0,0,0,-1,1651,379,0,0
434,645,0,0,0,0,0,0,0,0,0,-1,1658,379,0,0
441,645,0,0,0,0,0,0,0,0,0,-1,1665,379,0,0
448,645,0,0,0,0,0,0,0,0,0,-1,1672,379,0,0
455,645,0,0,0,0,0,0,0,0,0,-1,1679,379,0,0
462,645,0,0,0,0,0,0,0,0,0,-1,1686,379,0,0
469,645,0,0,0,0,0,0,0,0,0,-1,1693,379,0,0
476,645,0,0,0,0,0,0,0,0,0,-1,1700,379,0,0
483,645,0,0,0,0,0,0,0,0,0,-1,1707,379,0,0
490,645,0,0,0,0,0,0,0,0,0,-1,1714,379,0,0
497,645,0,0,0,0,0,0,0,0,0,-1,1721,379,0,0
504,645,0,0,0,0,0,0,0,0,0,-1,1728,379,0,0
511,645,0,0,0,0,0,0,0,0,0,-1,1735,379,0,0
518,645,0,0,0,0,0,0,0,0,0,-1,1742,379,0,0
525,645,0,0,0,0,0,0,0,0,0,-1,1749,379,0,0
532,645,0,0,0,0,0,0,0,0,0,-1,1756,379,0,0
539,645,0,0,0,0,0,0,0,0,0,-1,1763,379,0,0
546,645,0,0,0,0,0,0,0,0,0,-1,1770,379,0,0
553,645,0,0,0,0,0,0,0,0,0,-1,1777,379,0,0
560,645,0,0,0,0,0,0,0,0,0,-1,1784,379,0,0
567,645,0,0,0,0,0,0,0,0,0,-1,1791,379,0,0
574,645,0,0,0,0,0,0,0,0,0,-1,1798,379,0,0
581,645,0,0,0,0,0,0,0,0,0,-1,1805,379,0,0
588,645,0,0,0,0,0,0,0,0,0,-1,1812,379,0,0
595,645,0,0,0,0,0,0,0,0,0,-1,1819,379,0,0
602,645,0,0,0,0,0,0,0,0,0,-1,1826,379,0,0
609,645,0,0,0,0,0,0,0,0,0,-1,1833,379,0,0
616,645,0,0,0,0,0,0,0,0,0,-1,1840,379,0,0
623,645,0,0,0,0,0,0,0,0,0,-1,1847,379,0,0
630,645,0,0,0,0,0,0,0,0,0,-1,1854,379,0,0
637,645,0,0,0,0,0,0,0,0,0,-1,1861,379,0,0
644,645,0,0,0,0,0,0,0,0,0,-1,1868,379,0,0
651,645,0,0,0,0,0,0,0,0,0,-1,1875,379,0,0
658,645,0,0,0,0,0,0,0,0,0,-1,1882,379,0,0
665,645,0,0,0,0,0,0,0,0,0,-1,1889,379,0,0
672,645,0,0,0,0,0,0,0,0,0,-1,1896,379,0,0
679,645,0,0,0,0,0,0,0,0,0,-1,1903,379,0,0
686,645,0,0,0,0,0,0,0,0,0,-1,1910,379,0,0
693,645,0,0,0,0,0,0,0,0,0,-1,1917,379,0,0
700,645,0,0,0,0,0,0,0,0,0,-1,1924,379,0,0
707,645,0,0,0,0,0,0,0,0,0,-1,1931,379,0,0
714,645,0,0,0,0,0,0,0,0,0,-1,1938,379,0,0
721,645,0,0,0,0,0,0,0,0,0,-1,1945,379,0,0
728,645,0,0,0,0,0,0,0,0,0,-1,1952,379,0,0
735,645,0,0,0,0,0,0,0,0,0,-1,1959,379,0,0
742,645,0,0,0,0,0,0,0,0,0,-1,1966,379,0,0
749,645,0,0,0,0,0,0,0,0,0,-1,1973,379,0,0
756,645,0,0,0,0,0,0,0,0,0,-1,1980,379,0,0
763,645,0,0,0,0,0,0,0,0,0,-1,1987,379,0,0
770,645,0,0,0,0,0,0,0,0,0,-1,1994,379,0,0
777,645,0,0,0,0,0,0,0,0,0,-1,2001,379,0,0
784,645,0,0,0,0,0,0,0,0,0,-1,2008,379,0,0
791,645,0,0,0,0,0,0,0,0,0,-1,2015,379,0,0
798,645,0,0,0,0,0,0,0,0,0,-1,2022,379,0,0
805,645,0,0,0,0,0,0,0,0,0,-1,2029,379,0,0
812,645,0,0,0,0,0,0,0,0,0,-1,2036,379,0,0
-700,638,0,0,0,0,0,0,0,0,0,-1,524,386,0,0
-693,638,0,0,0,0,0,0,0,0,0,-1,531,386,0,0
-686,638,0,0,0,0,0,0,0,0,0,-1,538,386,0,0
-679,638,0,0,0,0,0,0,0,0,0,-1,545,386,0,0
-672,638,0,0,0,0,0,0,0,0,0,-1,552,386,0,0
-665,638,0,0,0,0,0,0,0,0,0,-1,559,386,0,0
-658,638,0,0,0,0,0,0,0,0,0,-1,566,386,0,0
-651,638,0,0,0,0,0,0,0,0,0,-1,573,386,0,0
-644,638,0,0,0,0,0,0,0,0,0,-1,580,386,0,0
-637,638,0,0,0,0,0,0,0,0,0,-1,587,386,0,0
-630,638,0,0,0,0,0,0,0,0,0,-1,594,386,0,0
-623,638,0,0,0,0,0,0,0,0,0,-1,601,386,0,0
-616,638,0,0,0,0,0,0,0,0,0,-1,608,386,0,0
-609,638,0,0,0,0,0,0,0,0,0,-1,615,386,0,0
-602,638,0,0,0,0,0,0,0,0,0,-1,622,386,0,0
-595,638,0,0,0,0,0,0,0,0,0,-1,629,386,0,0
-588,638,0,0,0,0,0,0,0,0,0,-1,636,386,0,0
-581,638,0,0,0,0,0,0,0,0,0,-1,643,386,0,0
-574,638,0,0,0,0,0,0,0,0,0,-1,650,386,0,0
-567,638,0,0,0,0,0,0,0,0,0,-1,657,386,0,0
-560,638,0,0,0,0,0,0,0,0,0,-1,664,386,0,0
-553,638,0,0,0,0,0,0,0,0,0,-1,671,386,0,0
-546,638,0,0,0,0,0,0,0,0,0,-1,678,386,0,0
-539,638,0,0,0,0,0,0,0,0,0,-1,685,386,0,0
-532,638,0,0,0,0,0,0,0,0,0,-1,692,386,0,0
-525,638,0,0,0,0,0,0,0,0,0,-1,699,386,0,0
-518,638,0,0,0,0,0,0,0,0,0,-1,706,386,0,0
-511,638,0,0,0,0,0,0,0,0,0,-1,713,386,0,0
-504,638,0,0,0,0,0,0,0,0,0,-1,720,386,0,0
-497,638,0,0,0,0,0,0,0,0,0,-1,727,386,0,0
-490,638,0,0,0,0,0,0,0,0,0,-1,734,386,0,0
-483,638,0,0,0,0,0,0,0,0,0,-1,741,386,0,0
-476,638,0,0,0,0,0,0,0,0,0,-1,748,386,0,0
-469,638,0,0,0,0,0,0,0,0,0,-1,755,386,0,0
-462,638,0,0,0,0,0,0,0,0,0,-1,762,386,0,0
-455,638,0,0,0,0,0,0,0,0,0,-1,769,386,0,0
-448,638,0,0,0,0,0,0,0,0,0,-1,776,386,0,0
-441,638,0,0,0,0,0,0,0,0,0,-1,783,386,0,0
-434,638,0,0,0,0,0,0,0,0,0,-1,790,386,0,0
-427,638,0,0,0,0,0,0,0,0,0,-1,797,386,0,0
-420,638,0,0,0,0,0,0,0,0,0,-1,804,386,0,0
-413,638,0,0,0,0,0,0,0,0,0,-1,811,386,0,0
-406,638,0,0,0,0,0,0,0,0,0,-1,818,386,0,0
-399,638,0,0,0,0,0,0,0,0,0,-1,825,386,0,0
-392,638,0,0,0,0,0,0,0,0,0,-1,832,386,0,0
-385,638,0,0,0,0,0,0,0,0,0,-1,839,386,0,0
-378,638,0,0,0,0,0,0,0,0,0,-1,846,386,0,0
-371,638,0,0,0,0,0,0,0,0,0,-1,853,386,0,0
-364,638,0,0,0,0,0,0,0,0,0,-1,860,386,0,0
-357,638,0,0,0,0,0,0,0,0,0,-1,867,386,0,0
-350,638,0,0,0,0,0,0,0,0,0,-1,874,386,0,0
-343,638,0,0,0,0,0,0,0,0,0,-1,881,386,0,0
-336,638,0,0,0,0,0,0,0,0,0,-1,888,386,0,0
-329,638,0,0,0,0,0,0,0,0,0,-1,895,386,0,0
-322,638,0,0,0,0,0,0,0,0,0,-1,902,386,0,0
-315,638,0,0,0,0,0,0,0,0,0,-1,909,386,0,0
-308,638,0,0,0,0,0,0,0,0,0,-1,916,386,0,0
-301,638,0,0,0,0,0,0,0,0,0,-1,923,386,0,0
-294,638,0,0,0,0,0,0,0,0,0,-1,930,386,0,0
-287,638,0,0,0,0,0,0,0,0,0,-1,937,386,0,0
-280,638,0,0,0,0,0,0,0,0,0,-1,944,386,0,0
-273,638,0,0,0,0,0,0,0,0,0,-1,951,386,0,0
-266,638,0.603821,-10.3962,0,0,0,0,0,0,0,-1,958,386,0.603829,10.3962
-259,638,0.491272,-10.2385,0,0,0,0,0,0,0,-1,965,386,0.491282,10.2385
-252,638,0.300537,-6.37717,0,0,0,0,0,0,0,-1,972,386,0.300563,6.37716
-245,638,1.41455,-7.90482,0,0,0,0,0,0,0,-1,979,386,1.41455,7.90482
-238,638,0.552917,-6.91696,0,0,0,0,0,0,0,-1,986,386,0.552911,6.91695
-231,638,0.577515,-7.05582,0,0,0,0,0,0,0,-1,993,386,0.577542,7.05582
-224,638,4.00739,-9.50662,0,0,0,0,0,0,0,-1,1000,386,4.00739,9.50661
-217,638,2.72388,-14.4252,0,0,0,0,0,0,0,-1,1007,386,2.72386,14.4252
-210,638,2.64087,-13.6581,0,0,0,0,0,0,0,-1,1014,386,2.64086,13.658
-203,638,2.5658,-12.8549,0,0,0,0,0,0,0,-1,1021,386,2.56579,12.8549
-196,638,2.48828,-12.1541,0.0046901,-0.028338,-0.00789746,0.00648135,-0.0301292,-0.223039,0.0225591,0.0410883,1028,386,2.4883,12.1542
-189,638,2.51208,-11.2455,0.00725271,-0.0284796,-0.0119403,0.0108754,-0.0321023,-0.294574,0.0258023,0.040863,1035,386,2.51212,11.2456
-182,638,2.22632,-10.7417,0.00933032,-0.0273582,-0.015404,0.0149401,-0.032968,-0.349247,0.028305,0.0439513,1042,386,2.22636,10.7417
-175,638,2.05945,-9.72391,0,0,0,0,0,0,0,-1,1049,386,2.05946,9.72391
-168,638,2.10571,-9.67743,0.0122434,-0.023477,-0.0187397,0.0202707,-0.0315043,-0.404712,0.0301259,0.034767,1056,386,2.10574,9.67743
-161,638,2.14709,-9.81393,0.0129636,-0.0208185,-0.018533,0.021148,-0.0290029,-0.415858,0.0290727,0.0292118,1063,386,2.14715,9.81395
-154,638,2.19299,-9.95511,0.0129435,-0.0181543,-0.017325,0.0206739,-0.0258846,-0.419687,0.0269367,0.0218739,1070,386,2.19293,9.95512
-147,638,2.17981,-10.0706,0.0123417,-0.0149241,-0.0153637,0.019249,-0.0218314,-0.422508,0.0237334,0.0176251,1077,386,2.17981,10.0706
-140,638,2.13818,-10.1477,0.0109207,-0.0115396,-0.0134988,0.01725,-0.0178689,-0.438442,0.020277,0.0138765,1084,386,2.13815,10.1477
-133,638,2.13123,-10.2718,0.00886015,-0.00781762,-0.011301,0.0145658,-0.0135233,-0.467546,0.016221,0.0112722,1091,386,2.13118,10.2718
-126,638,2.1427,-10.3351,0.00715982,-0.00428533,-0.0091353,0.0122169,-0.00934243,-0.505587,0.0124841,0.0131924,1098,386,2.14268,10.3351
-119,638,2.12549,-10.4127,0.00477741,-0.00174484,-0.00686839,0.00911955,-0.00608698,-0.563755,0.0088375,0.0152627,1105,386,2.12546,10.4127
-112,638,2.10352,-10.5089,0.00264095,0.000516009,-0.00410521,0.00581895,-0.00266199,-0.658772,0.00500828,0.0145054,1112,386,2.10347,10.5089
-105,638,2.07471,-10.599,0.000688387,0.00280833,-0.00283808,0.00477792,-0.0012812,-0.964118,0.00368731,0.0158629,1119,386,2.07471,10.599
-98,638,2.05859,-10.6916,-0.00112545,0.00464818,-0.00214035,0.00535509,-0.00183235,-1.2518,0.00431261,0.0145885,1126,386,2.05865,10.6916
-91,638,2.05054,-10.7788,-0.00260207,0.00567722,-0.00165529,0.0059959,-0.00292074,-1.3806,0.00524909,0.0122289,1133,386,2.05058,10.7788
-84,638,2.03333,-10.8325,-0.0029546,0.00602275,-0.0018308,0.00638176,-0.00331361,-1.37716,0.00569028,0.0143726,1140,386,2.03333,10.8324
-77,638,2.02808,-10.9056,-0.00289262,0.00560178,-0.00175139,0.00594872,-0.00323956,-1.37524,0.00538117,0.0109823,1147,386,2.02807,10.9056
-70,638,2.0354,-10.9807,-0.00277617,0.00506419,-0.0015519,0.0053602,-0.00307217,-1.38232,0.00492781,0.00946873,1154,386,2.03534,10.9807
-63,638,2.03735,-11.0275,-0.00270113,0.00447961,-0.00132965,0.00471792,-0.00293944,-1.39346,0.00446054,0.00998405,1161,386,2.03741,11.0275
-56,638,2.03857,-11.0739,-0.00250632,0.00368852,-0.00124474,0.00392927,-0.00274707,-1.37974,0.00387468,0.0135276,1168,386,2.03861,11.0739
-49,638,2.00354,-11.1197,-0.00217519,0.00287988,-0.00106276,0.00309422,-0.00238954,-1.37178,0.00317475,0.0119642,1175,386,2.00354,11.1197
-42,638,1.9967,-11.155,-0.00205603,0.00206918,-0.00078515,0.00221357,-0.00220041,-1.38893,0.00254841,0.0107153,1182,386,1.99675,11.155
-35,638,2.01685,-11.2159,-0.00143,0.00131571,-0.000806294,0.00153498,-0.00164926,-1.30528,0.00183882,0.0103268,1189,386,2.01683,11.2159
-28,638,2.021,-11.2754,-0.000513439,0.000439312,-0.000696454,0.000806727,-0.000880854,-1.08535,0.000974638,0.0104491,1196,386,2.02103,11.2754
-21,638,1.98767,-11.2892,-0.000127036,0.000188492,-0.000825909,0.00087157,-0.000810115,-0.879771,0.000971137,0.011072,1203,386,1.98772,11.2892
-14,638,1.98938,-11.3083,0.000358516,4.39398e-05,-0.00100513,0.00121859,-0.000816135,-0.707785,0.00118238,0.01105,1210,386,1.98941,11.3083
-7,638,1.98633,-11.4037,0.000951697,5.05368e-05,-0.001263,0.00184208,-0.000839849,-0.614059,0.00158404,0.0161934,1217,386,1.98637,11.4037
0,638,2.02905,-11.4327,0.00151053,0.000118981,-0.00152711,0.0024929,-0.000863391,-0.571642,0.00201244,0.0284768,1224,386,2.02909,11.4327
7,638,1.98938,-11.4389,0.00196464,0.000133853,-0.00180192,0.00307036,-0.000971858,-0.55038,0.00243635,0.0230579,1231,386,1.98934,11.4389
14,638,1.9884,-11.4129,0.0023188,9.0151e-05,-0.00204137,0.00353018,-0.00112123,-0.535564,0.00280297,0.0123025,1238,386,1.9884,11.4129
21,638,1.98987,-11.4383,0.00257241,9.92613e-05,-0.00223395,0.0038892,-0.00121752,-0.53262,0.00307993,0.0104286,1245,386,1.98986,11.4383
28,638,1.97668,-11.4401,0.00277141,6.1259e-05,-0.00243063,0.00419917,-0.00136651,-0.531107,0.0033492,0.00858615,1252,386,1.97668,11.4401
35,638,1.9718,-11.4512,0.00285062,-6.67645e-05,-0.00246943,0.00426,-0.00147615,-0.518622,0.00343932,0.010408,1259,386,1.97183,11.4512
42,638,1.99414,-11.458,0.00280934,-0.000248379,-0.00242363,0.00414603,-0.00158507,-0.504014,0.0034172,0.0102792,1266,386,1.99416,11.458
49,638,2.0094,-11.4334,0.00290222,-0.00064958,-0.00239659,0.00410918,-0.00185654,-0.466536,0.00352521,0.00859091,1273,386,2.00946,11.4334
56,638,2.00049,-11.4188,0.00286087,-0.000867112,-0.002361,0.004005,-0.00201124,-0.451248,0.00353648,0.010588,1280,386,2.00053,11.4188
63,638,1.99731,-11.4274,0.00276292,-0.00109614,-0.00231824,0.00384956,-0.00218278,-0.438327,0.00352681,0.0126615,1287,386,1.99732,11.4274
70,638,1.96631,-11.4192,0.00264325,-0.00107246,-0.00238862,0.00381147,-0.00224068,-0.454872,0.00353322,0.0169384,1294,386,1.96626,11.4192
77,638,1.98157,-11.4081,0.00264824,-0.00115136,-0.00243116,0.00383385,-0.00233698,-0.453738,0.0035975,0.0181141,1301,386,1.98151,11.4081
84,638,2.03455,-11.3714,0.00272405,-0.00124407,-0.00242151,0.00387052,-0.00239054,-0.442185,0.00364833,0.0128901,1308,386,2.03456,11.3714
91,638,2.0127,-11.3404,0.00260253,-0.00139348,-0.00242981,0.00375032,-0.00254127,-0.441306,0.00365474,0.0126361,1315,386,2.01271,11.3404
98,638,2.00757,-11.3085,0.00248097,-0.00140427,-0.00239616,0.00362305,-0.00254635,-0.444775,0.00357994,0.0124449,1322,386,2.00761,11.3085
105,638,1.98169,-11.2984,0.00246961,-0.00125026,-0.00235892,0.00361365,-0.0023943,-0.451563,0.00349242,0.00995277,1329,386,1.98166,11.2984
112,638,1.96289,-11.2608,0.00240019,-0.00105752,-0.00220863,0.00347615,-0.00213348,-0.453323,0.0032695,0.00908103,1336,386,1.9629,11.2608
119,638,1.97498,-11.2171,0.00220889,-0.000880823,-0.00198852,0.00318212,-0.00185406,-0.455154,0.00294115,0.0111389,1343,386,1.97495,11.2171
126,638,1.98962,-11.1819,0.00194013,-0.000830983,-0.00170171,0.00274901,-0.00163987,-0.443724,0.00256075,0.0147774,1350,386,1.98957,11.1819
133,638,1.98462,-11.1229,0.00161851,-0.000822372,-0.00133412,0.00220621,-0.00141007,-0.414934,0.00210466,0.0145005,1357,386,1.98465,11.1229
140,638,1.97156,-11.0569,0.00130939,-0.000795128,-0.000991235,0.00170275,-0.00118848,-0.377772,0.00167803,0.0148709,1364,386,1.9715,11.0569
147,638,1.98877,-11.0007,0.00107874,-0.000804359,-0.000675777,0.00129615,-0.00102177,-0.311263,0.00134137,0.0175868,1371,386,1.98879,11.0007
154,638,2.00781,-10.9512,0.000774927,-0.00071574,-0.000318973,0.000840313,-0.000781126,-0.202188,0.000936346,0.0156822,1378,386,2.00786,10.9512
161,638,1.9884,-10.8709,0.000635281,-0.000822752,-7.56017e-05,0.000639191,-0.000826661,-0.0516672,0.000848614,0.0177137,1385,386,1.98835,10.8709
168,638,1.99683,-10.7906,0.000460495,-0.000756924,0.000144273,0.000477359,-0.000773788,0.11636,0.000729077,0.0225588,1392,386,1.99685,10.7905
175,638,2.01648,-10.7683,0.000369394,-0.00054219,0.000377559,0.000505461,-0.000678257,0.345898,0.000685843,0.0185285,1399,386,2.01643,10.7683
182,638,1.9884,-10.6917,0.000286812,-0.000111674,0.000560303,0.000682243,-0.000507105,0.614571,0.000689147,0.0127124,1406,386,1.98842,10.6917
189,638,1.97192,-10.5871,0.000111178,-3.47335e-05,0.00074027,0.000782079,-0.000705634,0.73628,0.000859309,0.0109822,1413,386,1.97191,10.5871
196,638,1.98303,-10.4893,-0.000110399,-0.000209902,0.000951259,0.000792408,-0.00111271,0.759272,0.00110509,0.0133929,1420,386,1.98306,10.4893
203,638,1.95288,-10.4129,-0.00052161,-0.00082339,0.00104241,0.000380778,-0.00172578,0.713522,0.00129622,0.0189641,1427,386,1.95294,10.4129
210,638,1.96057,-10.3415,-0.000936459,-0.00101027,0.00122847,0.000255664,-0.00220239,0.770382,0.00156048,0.0162434,1434,386,1.96052,10.3415
217,638,1.94507,-10.2567,-0.00126434,-0.000932867,0.00132605,0.000237762,-0.00243497,0.847568,0.00170809,0.0123763,1441,386,1.94504,10.2568
224,638,1.92554,-10.1452,-0.00149956,-0.000766487,0.00133456,0.000250957,-0.002517,0.919418,0.0017676,0.010474,1448,386,1.9256,10.1452
231,638,1.92297,-10.0294,-0.0015934,-0.000781358,0.00135026,0.000222604,-0.00259736,0.931447,0.00181035,0.0107011,1455,386,1.92297,10.0294
238,638,1.91724,-9.93539,-0.00173893,-0.000787914,0.00131416,0.000134123,-0.00266096,0.958986,0.00182033,0.0113378,1462,386,1.91725,9.93539
245,638,1.92505,-9.82233,-0.00184311,-0.000745662,0.00123579,5.77564e-05,-0.00264652,0.994335,0.00178391,0.0136608,1469,386,1.92503,9.82234
252,638,1.90991,-9.69742,-0.00174932,-0.000574714,0.00121012,0.000183092,-0.00250713,1.01132,0.00173567,0.0152278,1476,386,1.90995,9.69742
259,638,1.90479,-9.57523,-0.00102653,-0.000362644,0.00142734,0.000770843,-0.00216001,0.899647,0.00175435,0.0141689,1483,386,1.90476,9.57522
266,638,1.87952,-9.46432,-0.000327085,-0.00035182,0.00240398,0.00206456,-0.00274346,0.782826,0.00278512,0.0110933,1490,386,1.87956,9.46433
273,638,1.86169,-9.35489,0.000257364,0.000262676,0.00419576,0.00445578,-0.00393574,0.785715,0.00484794,0.0112023,1497,386,1.86167,9.35488
280,638,1.90857,-9.16061,0.00141651,0.000380859,0.00589852,0.00681989,-0.00502252,0.741616,0.00686341,0.0223879,1504,386,1.90862,9.16061
287,638,2.14038,-9.22128,0,0,0,0,0,0,0,-1,1511,386,2.14041,9.22128
294,638,1.90271,-9.01196,0,0,0,0,0,0,0,-1,1518,386,1.90268,9.01195
301,638,1.99463,-8.80334,0,0,0,0,0,0,0,-1,1525,386,1.99467,8.80333
308,638,2.27539,-8.72568,0.00668799,0.003127,0.01837,0.0233635,-0.0135486,0.737087,0.0215609,0.0472714,1532,386,2.27537,8.72567
315,638,2.56348,-8.67896,0.00741912,0.00312182,0.0219914,0.0273665,-0.0168256,0.736701,0.0257552,0.0434487,1539,386,2.56353,8.67895
322,638,2.41785,-8.00119,0.00796616,0.00331068,0.0256193,0.0313632,-0.0200864,0.740093,0.0299413,0.046931,1546,386,2.41781,8.00119
329,638,2.51086,-7.04312,0,0,0,0,0,0,0,-1,1553,386,2.51089,7.04312
336,638,2.75012,-8.26135,0,0,0,0,0,0,0,-1,1560,386,2.75016,8.26134
343,638,1.04028,-10.3387,0,0,0,0,0,0,0,-1,1567,386,1.04031,10.3387
350,638,2.3783,-11.33,0,0,0,0,0,0,0,-1,1574,386,2.37831,11.33
357,638,0.130371,-3.02618,0,0,0,0,0,0,0,-1,1581,386,0.130345,3.0262
364,638,3.78149,-6.45215,0,0,0,0,0,0,0,-1,1588,386,3.78155,6.45216
371,638,4.18604,-6.71164,0,0,0,0,0,0,0,-1,1595,386,4.18598,6.71164
378,638,4.59045,-6.97113,0,0,0,0,0,0,0,-1,1602,386,4.5904,6.97112
385,638,0,0,0,0,0,0,0,0,0,-1,1609,386,0,0
392,638,0,0,0,0,0,0,0,0,0,-1,1616,386,0,0
399,638,0,0,0,0,0,0,0,0,0,-1,1623,386,0,0
406,638,0,0,0,0,0,0,0,0,0,-1,1630,386,0,0
413,638,0,0,0,0,0,0,0,0,0,-1,1637,386,0,0
420,638,0,0,0,0,0,0,0,0,0,-1,1644,386,0,0
427,638,0,0,0,0,0,0,0,0,0,-1,1651,386,0,0
434,638,0,0,0,0,0,0,0,0,0,-1,1658,386,0,0
441,638,0,0,0,0,0,0,0,0,0,-1,1665,386,0,0
448,638,0,0,0,0,0,0,0,0,0,-1,1672,386,0,0
455,638,0,0,0,0,0,0,0,0,0,-1,1679,386,0,0
462,638,0,0,0,0,0,0,0,0,0,-1,1686,386,0,0
469,638,0,0,0,0,0,0,0,0,0,-1,1693,386,0,0
476,638,0,0,0,0,0,0,0,0,0,-1,1700,386,0,0
483,638,0,0,0,0,0,0,0,0,0,-1,1707,386,0,0
490,638,0,0,0,0,0,0,0,0,0,-1,1714,386,0,0
497,638,0,0,0,0,0,0,0,0,0,-1,1721,386,0,0
504,638,0,0,0,0,0,0,0,0,0,-1,1728,386,0,0
511,638,0,0,0,0,0,0,0,0,0,-1,1735,386,0,0
518,638,0,0,0,0,0,0,0,0,0,-1,1742,386,0,0
525,638,0,0,0,0,0,0,0,0,0,-1,1749,386,0,0
532,638,0,0,0,0,0,0,0,0,0,-1,1756,386,0,0
539,638,0,0,0,0,0,0,0,0,0,-1,1763,386,0,0
546,638,0,0,0,0,0,0,0,0,0,-1,1770,386,0,0
553,638,0,0,0,0,0,0,0,0,0,-1,1777,386,0,0
560,638,0,0,0,0,0,0,0,0,0,-1,1784,386,0,0
567,638,0,0,0,0,0,0,0,0,0,-1,1791,386,0,0
574,638,0,0,0,0,0,0,0,0,0,-1,1798,386,0,0
581,638,0,0,0,0,0,0,0,0,0,-1,1805,386,0,0
588,638,0,0,0,0,0,0,0,0,0,-1,1812,386,0,0
595,638,0,0,0,0,0,0,0,0,0,-1,1819,386,0,0
602,638,0,0,0,0,0,0,0,0,0,-1,1826,386,0,0
609,638,0,0,0,0,0,0,0,0,0,-1,1833,386,0,0
616,638,0,0,0,0,0,0,0,0,0,-1,1840,386,0,0
623,638,0,0,0,0,0,0,0,0,0,-1,1847,386,0,0
630,638,0,0,0,0,0,0,0,0,0,-1,1854,386,0,0
637,638,0,0,0,0,0,0,0,0,0,-1,1861,386,0,0
644,638,0,0,0,0,0,0,0,0,0,-1,1868,386,0,0
651,638,0,0,0,0,0,0,0,0,0,-1,1875,386,0,0
658,638,0,0,0,0,0,0,0,0,0,-1,1882,386,0,0
665,638,0,0,0,0,0,0,0,0,0,-1,1889,386,0,0
672,638,0,0,0,0,0,0,0,0,0,-1,1896,386,0,0
679,638,0,0,0,0,0,0,0,0,0,-1,1903,386,0,0
686,638,0,0,0,0,0,0,0,0,0,-1,1910,386,0,0
693,638,0,0,0,0,0,0,0,0,0,-1,1917,386,0,0
700,638,0,0,0,0,0,0,0,0,0,-1,1924,386,0,0
707,638,0,0,0,0,0,0,0,0,0,-1,1931,386,0,0
714,638,0,0,0,0,0,0,0,0,0,-1,1938,386,0,0
721,638,0,0,0,0,0,0,0,0,0,-1,1945,386,0,0
728,638,0,0,0,0,0,0,0,0,0,-1,1952,386,0,0
735,638,0,0,0,0,0,0,0,0,0,-1,1959,386,0,0
742,638,0,0,0,0,0,0,0,0,0,-1,1966,386,0,0
749,638,0,0,0,0,0,0,0,0,0,-1,1973,386,0,0
756,638,0,0,0,0,0,0,0,0,0,-1,1980,386,0,0
763,638,0,0,0,0,0,0,0,0,0,-1,1987,386,0,0
770,638,0,0,0,0,0,0,0,0,0,-1,1994,386,0,0
777,638,0,0,0,0,0,0,0,0,0,-1,2001,386,0,0
784,638,0,0,0,0,0,0,0,0,0,-1,2008,386,0,0
791,638,0,0,0,0,0,0,0,0,0,-1,2015,386,0,0
798,638,0,0,0,0,0,0,0,0,0,-1,2022,386,0,0
805,638,0,0,0,0,0,0,0,0,0,-1,2029,386,0,0
812,638,0,0,0,0,0,0,0,0,0,-1,2036,386,0,0
-700,631,0,0,0,0,0,0,0,0,0,-1,524,393,0,0
-693,631,0,0,0,0,0,0,0,0,0,-1,531,393,0,0
-686,631,0,0,0,0,0,0,0,0,0,-1,538,393,0,0
-679,631,0,0,0,0,0,0,0,0,0,-1,545,393,0,0
-672,631,0,0,0,0,0,0,0,0,0,-1,552,393,0,0
-665,631,0,0,0,0,0,0,0,0,0,-1,559,393,0,0
-658,631,0,0,0,0,0,0,0,0,0,-1,566,393,0,0
-651,631,0,0,0,0,0,0,0,0,0,-1,573,393,0,0
-644,631,0,0,0,0,0,0,0,0,0,-1,580,393,0,0
-637,631,0,0,0,0,0,0,0,0,0,-1,587,393,0,0
-630,631,0,0,0,0,0,0,0,0,0,-1,594,393,0,0
-623,631,0,0,0,0,0,0,0,0,0,-1,601,393,0,0
-616,631,0,0,0,0,0,0,0,0,0,-1,608,393,0,0
-609,631,0,0,0,0,0,0,0,0,0,-1,615,393,0,0
-602,631,0,0,0,0,0,0,0,0,0,-1,622,393,0,0
-595,631,0,0,0,0,0,0,0,0,0,-1,629,393,0,0
-588,631,0,0,0,0,0,0,0,0,0,-1,636,393,0,0
-581,631,0,0,0,0,0,0,0,0,0,-1,643,393,0,0
-574,631,0,0,0,0,0,0,0,0,0,-1,650,393,0,0
-567,631,0,0,0,0,0,0,0,0,0,-1,657,393,0,0
-560,631,0,0,0,0,0,0,0,0,0,-1,664,393,0,0
-553,631,0,0,0,0,0,0,0,0,0,-1,671,393,0,0
-546,631,0,0,0,0,0,0,0,0,0,-1,678,393,0,0
-539,631,0,0,0,0,0,0,0,0,0,-1,685,393,0,0
-532,631,0,0,0,0,0,0,0,0,0,-1,692,393,0,0
-525,631,0,0,0,0,0,0,0,0,0,-1,699,393,0,0
-518,631,0,0,0,0,0,0,0,0,0,-1,706,393,0,0
-511,631,0,0,0,0,0,0,0,0,0,-1,713,393,0,0
-504,631,0,0,0,0,0,0,0,0,0,-1,720,393,0,0
-497,631,0,0,0,0,0,0,0,0,0,-1,727,393,0,0
-490,631,0,0,0,0,0,0,0,0,0,-1,734,393,0,0
-483,631,0,0,0,0,0,0,0,0,0,-1,741,393,0,0
-476,631,0,0,0,0,0,0,0,0,0,-1,748,393,0,0
-469,631,0,0,0,0,0,0,0,0,0,-1,755,393,0,0
-462,631,0,0,0,0,0,0,0,0,0,-1,762,393,0,0
-455,631,0,0,0,0,0,0,0,0,0,-1,769,393,0,0
-448,631,0,0,0,0,0,0,0,0,0,-1,776,393,0,0
-441,631,0,0,0,0,0,0,0,0,0,-1,783,393,0,0
-434,631,0,0,0,0,0,0,0,0,0,-1,790,393,0,0
-427,631,0,0,0,0,0,0,0,0,0,-1,797,393,0,0
-420,631,0,0,0,0,0,0,0,0,0,-1,804,393,0,0
-413,631,0,0,0,0,0,0,0,0,0,-1,811,393,0,0
-406,631,0,0,0,0,0,0,0,0,0,-1,818,393,0,0
-399,631,0,0,0,0,0,0,0,0,0,-1,825,393,0,0
-392,631,0,0,0,0,0,0,0,0,0,-1,832,393,0,0
-385,631,0,0,0,0,0,0,0,0,0,-1,839,393,0,0
-378,631,0,0,0,0,0,0,0,0,0,-1,846,393,0,0
-371,631,0,0,0,0,0,0,0,0,0,-1,853,393,0,0
-364,631,0,0,0,0,0,0,0,0,0,-1,860,393,0,0
-357,631,0,0,0,0,0,0,0,0,0,-1,867,393,0,0
-350,631,0,0,0,0,0,0,0,0,0,-1,874,393,0,0
-343,631,0,0,0,0,0,0,0,0,0,-1,881,393,0,0
-336,631,0,0,0,0,0,0,0,0,0,-1,888,393,0,0
-329,631,0,0,0,0,0,0,0,0,0,-1,895,393,0,0
-322,631,0,0,0,0,0,0,0,0,0,-1,902,393,0,0
-315,631,0,0,0,0,0,0,0,0,0,-1,909,393,0,0
-308,631,0,0,0,0,0,0,0,0,0,-1,916,393,0,0
-301,631,0,0,0,0,0,0,0,0,0,-1,923,393,0,0
-294,631,0,0,0,0,0,0,0,0,0,-1,930,393,0,0
-287,631,0,0,0,0,0,0,0,0,0,-1,937,393,0,0
-280,631,1.12305,-12.4633,0,0,0,0,0,0,0,-1,944,393,1.12305,12.4633
-273,631,1.05743,-9.98688,0,0,0,0,0,0,0,-1,951,393,1.05741,9.98687
-266,631,0.616394,-9.4404,0,0,0,0,0,0,0,-1,958,393,0.616411,9.4404
-259,631,1.97864,-10.1057,0,0,0,0,0,0,0,-1,965,393,1.97865,10.1056
-252,631,1.40961,-9.8642,0,0,0,0,0,0,0,-1,972,393,1.40963,9.86421
-245,631,2.88428,-6.70004,0,0,0,0,0,0,0,-1,979,393,2.88426,6.70004
-238,631,2.55652,-7.30154,0,0,0,0,0,0,0,-1,986,393,2.5565,7.30155
-231,631,2.87714,-9.04184,0,0,0,0,0,0,0,-1,993,393,2.87715,9.04184
-224,631,3.31604,-9.39151,0,0,0,0,0,0,0,-1,1000,393,3.31604,9.39152
-217,631,3.75494,-9.74118,0,0,0,0,0,0,0,-1,1007,393,3.75493,9.74119
-210,631,2.14301,-8.67328,0,0,0,0,0,0,0,-1,1014,393,2.14298,8.67329
-203,631,2.12811,-8.87607,0,0,0,0,0,0,0,-1,1021,393,2.12814,8.87607
-196,631,2.1051,-9.15799,0,0,0,0,0,0,0,-1,1028,393,2.10515,9.158
-189,631,1.64148,-9.55066,0,0,0,0,0,0,0,-1,1035,393,1.64151,9.55066
-182,631,1.9563,-10.1771,0.00525705,-0.0203032,-0.00924453,0.00825009,-0.0232963,-0.313113,0.0188912,0.0446235,1042,393,1.9563,10.1771
-175,631,2.04773,-9.6904,0.00643473,-0.0190693,-0.0108629,0.0104343,-0.0230689,-0.352787,0.0197963,0.0353036,1049,393,2.04771,9.6904
-168,631,2.07141,-9.73267,0.0073385,-0.0176188,-0.0118095,0.0120407,-0.022321,-0.378927,0.0201325,0.0174839,1056,393,2.07141,9.73268
-161,631,2.0614,-9.84229,0.00792142,-0.01565,-0.0118413,0.0128425,-0.0205712,-0.393874,0.0194627,0.00920369,1063,393,2.06138,9.84227
-154,631,2.06262,-9.96167,0.00802406,-0.0136952,-0.0111922,0.0127592,-0.0184304,-0.40024,0.0181063,0.00877841,1070,393,2.06266,9.96165
-147,631,2.06006,-10.0591,0.00773332,-0.0113128,-0.0100135,0.012029,-0.0156085,-0.405247,0.0160011,0.00943671,1077,393,2.06,10.0591
-140,631,2.0437,-10.1704,0.00689971,-0.00875325,-0.0089185,0.0109389,-0.0127924,-0.42526,0.0137152,0.00947243,1084,393,2.04366,10.1704
-133,631,2.03223,-10.269,0.00568361,-0.00594943,-0.00753375,0.00938493,-0.00965075,-0.456662,0.0109906,0.00842877,1091,393,2.0322,10.269
-126,631,2.04614,-10.3287,0.00466326,-0.00320335,-0.00615903,0.00803779,-0.00657788,-0.50123,0.00845238,0.0129026,1098,393,2.04609,10.3287
-119,631,2.03796,-10.4115,0.0031186,-0.00132961,-0.00464322,0.0060429,-0.00425391,-0.562045,0.0059747,0.016846,1105,393,2.03796,10.4115
-112,631,2.00403,-10.5135,0.00176667,0.000366247,-0.00274855,0.0039028,-0.00176988,-0.660673,0.00335141,0.0150647,1112,393,2.00402,10.5135
-105,631,1.99475,-10.6094,0.000525684,0.00208452,-0.00190076,0.00335946,-0.000749256,-0.97997,0.0025267,0.0185816,1119,393,1.99469,10.6094
-98,631,1.9801,-10.7096,-0.000616067,0.00342481,-0.0014792,0.00390841,-0.00109967,-1.25482,0.00303922,0.0161856,1126,393,1.98011,10.7096
-91,631,1.97913,-10.8025,-0.0014597,0.00415259,-0.00124991,0.00441837,-0.00172548,-1.36128,0.00365897,0.0178401,1133,393,1.97913,10.8025
-84,631,1.99146,-10.8543,-0.00158753,0.00437889,-0.0013661,0.0046768,-0.00188545,-1.35608,0.0039013,0.016766,1140,393,1.99144,10.8543
-77,631,1.97546,-10.8999,-0.00148406,0.00406495,-0.0012843,0.00434778,-0.00176689,-1.35403,0.00363362,0.0104529,1147,393,1.97541,10.8999
-70,631,1.97791,-10.9587,-0.00134791,0.00366801,-0.00110287,0.00389979,-0.00157969,-1.36365,0.00325674,0.0100626,1154,393,1.97792,10.9587
-63,631,1.98193,-11.03,-0.00111891,0.00319617,-0.000887758,0.00337168,-0.00129442,-1.37562,0.00278153,0.0095899,1161,393,1.98191,11.03
-56,631,1.96936,-11.1062,-0.000817348,0.00265875,-0.000780042,0.00282576,-0.000984366,-1.35987,0.00228381,0.0118109,1168,393,1.96938,11.1062
-49,631,1.95825,-11.1393,-0.000522748,0.00209626,-0.000615001,0.00223349,-0.000659973,-1.35126,0.00175095,0.0110243,1175,393,1.95822,11.1393
-42,631,1.94885,-11.1659,-0.000273074,0.00171413,-0.000414026,0.00179694,-0.000355884,-1.37339,0.00133253,0.00854095,1182,393,1.94886,11.1659
-35,631,1.96191,-11.2106,0.000270946,0.00133536,-0.000231467,0.00138351,0.00022279,-1.36567,0.000857778,0.00959869,1189,393,1.96193,11.2106
-28,631,1.96716,-11.2579,0.000935249,0.000845557,3.44864e-05,0.000946976,0.00083383,0.327773,0.000597186,0.0126612,1196,393,1.96716,11.2579
-21,631,1.95349,-11.2889,0.00134794,0.000701577,2.97732e-05,0.00134931,0.000700208,0.0459332,0.000779208,0.0112027,1203,393,1.95344,11.2889
-14,631,1.9447,-11.3324,0.0018747,0.000823623,-0.000105197,0.00188512,0.000813197,-0.098779,0.00109179,0.0128993,1210,393,1.94466,11.3324
-7,631,1.95642,-11.4155,0.00252992,0.00118533,-0.000372376,0.00262616,0.00108909,-0.252911,0.00152355,0.0190976,1217,393,1.95638,11.4155
0,631,1.98706,-11.4453,0.00306383,0.00149437,-0.000649254,0.0032976,0.0012606,-0.3456,0.00192138,0.0211859,1224,393,1.98707,11.4452
7,631,1.98145,-11.4203,0.00336574,0.00172878,-0.00102553,0.00385936,0.00123515,-0.448607,0.00227581,0.0178348,1231,393,1.98142,11.4203
14,631,1.97095,-11.4011,0.00354005,0.00182267,-0.00142703,0.00434682,0.0010159,-0.514552,0.0026256,0.0101165,1238,393,1.97096,11.4011
21,631,1.98694,-11.4255,0.00368328,0.00192644,-0.00186441,0.00486584,0.000743873,-0.565246,0.00302656,0.0120855,1245,393,1.98691,11.4255
28,631,1.9718,-11.4411,0.00382253,0.00183974,-0.00235832,0.00538937,0.000272903,-0.586422,0.00350549,0.0139012,1252,393,1.97181,11.4411
35,631,1.97559,-11.4366,0.00381562,0.00157175,-0.00270146,0.00561885,-0.000231483,-0.588583,0.0038254,0.0134225,1259,393,1.97557,11.4366
42,631,1.99585,-11.4465,0.00363667,0.00127881,-0.00298778,0.0056697,-0.000754219,-0.597484,0.00405466,0.012116,1266,393,1.99589,11.4465
49,631,2.01514,-11.4356,0.00369924,0.000913292,-0.00317997,0.00577796,-0.00116542,-0.578964,0.0042935,0.010732,1273,393,2.0152,11.4356
56,631,2.02075,-11.4261,0.00380056,0.000617036,-0.0033854,0.00594974,-0.00153214,-0.565642,0.00456376,0.011815,1280,393,2.02077,11.4261
63,631,2.00037,-11.4328,0.00400052,0.000367819,-0.00361756,0.00623211,-0.00186377,-0.552738,0.00489572,0.0137789,1287,393,2.00041,11.4328
70,631,1.99158,-11.4243,0.004486,0.000621527,-0.00406639,0.00705588,-0.00194836,-0.563604,0.00547028,0.0136478,1294,393,1.99163,11.4243
77,631,1.99524,-11.4034,0.00489882,0.000805054,-0.00433527,0.00764614,-0.00194226,-0.56484,0.00585326,0.0137124,1301,393,1.99525,11.4034
84,631,2.03076,-11.3745,0.00537064,0.00101413,-0.00444635,0.00814362,-0.00175886,-0.557632,0.00610048,0.0117203,1308,393,2.0308,11.3746
91,631,2.04126,-11.3365,0.00554625,0.00105988,-0.0044852,0.00831793,-0.00171181,-0.553522,0.00619523,0.0141751,1315,393,2.04129,11.3365
98,631,2.02844,-11.3223,0.00561473,0.00114474,-0.00445314,0.00836227,-0.0016028,-0.552818,0.0061788,0.0124506,1322,393,2.02848,11.3223
105,631,2.00452,-11.3066,0.00573501,0.00142943,-0.00441567,0.00849472,-0.00133028,-0.558585,0.00615468,0.0106107,1329,393,2.00456,11.3066
112,631,2.0094,-11.2587,0.00578231,0.00163702,-0.00423664,0.00842612,-0.00100679,-0.557905,0.00598132,0.0108082,1336,393,2.00942,11.2587
119,631,2.00073,-11.2247,0.00551233,0.00171547,-0.00395756,0.00800324,-0.000775449,-0.561761,0.00561186,0.0120413,1343,393,2.00075,11.2247
126,631,2.01294,-11.1754,0.00491271,0.00148227,-0.0035349,0.00712655,-0.000731572,-0.559519,0.00501272,0.016893,1350,393,2.01292,11.1754
133,631,2.05273,-11.1375,0.00409359,0.00112069,-0.0029726,0.00593067,-0.000716396,-0.553555,0.00421293,0.0168402,1357,393,2.05274,11.1375
140,631,2.0437,-11.1093,0.00324442,0.00066333,-0.00241672,0.00469359,-0.000785843,-0.540158,0.00342123,0.0173364,1364,393,2.04374,11.1093
147,631,2.05261,-11.0533,0.00249337,9.28495e-05,-0.00184628,0.00349524,-0.000909021,-0.497177,0.00268496,0.0221703,1371,393,2.05257,11.0533
154,631,2.05237,-10.9258,0.00167929,-0.000454096,-0.00131031,0.0023022,-0.001077,-0.443765,0.00199327,0.0207672,1378,393,2.05241,10.9257
161,631,2.07349,-10.8445,0.00107204,-0.000880151,-0.000815793,0.00136806,-0.00117617,-0.348087,0.00147031,0.0222416,1385,393,2.07351,10.8445
168,631,2.0874,-10.7684,0.00054345,-0.00107313,-0.000374717,0.000626084,-0.00115577,-0.217049,0.00104379,0.0267602,1392,393,2.0874,10.7684
175,631,2.07153,-10.7372,0.000161834,-0.00113957,1.82868e-05,0.000162091,-0.00113982,0.0140479,0.000819274,0.020094,1399,393,2.0715,10.7372
182,631,2.04346,-10.6981,0.000123858,-0.000799769,0.000205292,0.000167432,-0.000843343,0.209149,0.000625553,0.0115534,1406,393,2.04349,10.6981
189,631,2.03882,-10.6006,4.4715e-05,-0.000579617,0.000382879,0.000226557,-0.000761459,0.443394,0.000597648,0.0107096,1413,393,2.03881,10.6007
196,631,2.04163,-10.5046,-4.00317e-05,-0.000490212,0.000558278,0.000336825,-0.000867068,0.593773,0.000717188,0.0110425,1420,393,2.04169,10.5046
203,631,2.05859,-10.4238,-0.000269067,-0.000686277,0.00064011,0.000195571,-0.00115092,0.62788,0.00084009,0.0125695,1427,393,2.05865,10.4238
210,631,2.04456,-10.3363,-0.00053482,-0.000618519,0.000790644,0.000215081,-0.00136842,0.758958,0.000991778,0.0147284,1434,393,2.04459,10.3363
217,631,2.02271,-10.2706,-0.0007606,-0.00046917,0.000903529,0.000300319,-0.00153009,0.865346,0.00113351,0.0162618,1441,393,2.02271,10.2706
224,631,2.00208,-10.1653,-0.000916516,-0.000294214,0.000970931,0.000414205,-0.00162493,0.940461,0.00124455,0.0128784,1448,393,2.00205,10.1653
231,631,2.00415,-10.0329,-0.000970017,-0.000252627,0.00105077,0.00049898,-0.00172162,0.949879,0.00134528,0.0110115,1455,393,2.00416,10.0329
238,631,2.01086,-9.93387,-0.00105679,-0.000215109,0.00108349,0.000526404,-0.00179831,0.970637,0.00140754,0.0150785,1462,393,2.01089,9.93385
245,631,2.02405,-9.83371,-0.00111981,-0.000158143,0.00106778,0.000532074,-0.00181003,0.996954,0.00141772,0.0166139,1469,393,2.02399,9.83372
252,631,2.02893,-9.72742,-0.00104533,-1.91676e-05,0.0010783,0.000661898,-0.0017264,1.00746,0.00142381,0.0168336,1476,393,2.02892,9.72743
259,631,1.99353,-9.60928,-0.000527738,0.000122328,0.00127769,0.00111568,-0.00152109,0.909951,0.00152833,0.0129663,1483,393,1.99351,9.60929
266,631,1.99426,-9.49576,-5.67216e-05,9.87388e-05,0.00203552,0.00205801,-0.00201599,0.804482,0.00235217,0.0115188,1490,393,1.99427,9.49577
273,631,1.98352,-9.36209,0.000336788,0.000575998,0.00337367,0.00383219,-0.0029194,0.803117,0.00390989,0.013796,1497,393,1.98353,9.36209
280,631,1.94836,-9.26642,0.0011618,0.00063893,0.00464722,0.00555493,-0.0037542,0.7573,0.00540804,0.0130919,1504,393,1.94841,9.26642
287,631,1.97498,-9.1095,0.00194616,0.000782515,0.00627168,0.00766295,-0.00493427,0.739145,0.00732966,0.0143721,1511,393,1.97499,9.10951
294,631,1.96094,-8.94409,0.00285704,0.00119813,0.00827973,0.0103488,-0.00629358,0.735475,0.00970307,0.0177768,1518,393,1.96091,8.94408
301,631,1.9613,-8.77557,0.00386741,0.00169422,0.010669,0.013505,-0.00794334,0.73465,0.0125212,0.0252922,1525,393,1.96134,8.77557
308,631,2.16211,-8.6813,0.00482407,0.00239476,0.0134143,0.0170786,-0.00985975,0.740247,0.0157379,0.0302751,1532,393,2.16216,8.68131
315,631,2.25977,-8.59244,0.0053658,0.00242372,0.0158727,0.0198354,-0.0120459,0.739191,0.0185889,0.0348129,1539,393,2.25974,8.59243
322,631,2.12061,-8.16812,0.00580568,0.00260777,0.018277,0.0225535,-0.0141401,0.741767,0.0213699,0.0430862,1546,393,2.12063,8.16812
329,631,1.99194,-7.79495,0,0,0,0,0,0,0,-1,1553,393,1.99191,7.79495
336,631,2.17493,-7.47534,0,0,0,0,0,0,0,-1,1560,393,2.1749,7.47534
343,631,2.39612,-6.96481,0,0,0,0,0,0,0,-1,1567,393,2.39608,6.96482
350,631,2.1344,-9.23401,0,0,0,0,0,0,0,-1,1574,393,2.13439,9.23401
357,631,2.6449,-9.60303,0,0,0,0,0,0,0,-1,1581,393,2.64491,9.60304
364,631,3.39136,-5.7594,0,0,0,0,0,0,0,-1,1588,393,3.39137,5.75939
371,631,3.72839,-6.0574,0,0,0,0,0,0,0,-1,1595,393,3.72845,6.05742
378,631,4.06555,-6.35544,0,0,0,0,0,0,0,-1,1602,393,4.06553,6.35544
385,631,3.90442,-3.58298,0,0,0,0,0,0,0,-1,1609,393,3.90437,3.58299
392,631,0.352295,-2.21301,0,0,0,0,0,0,0,-1,1616,393,0.352345,2.213
399,631,0,0,0,0,0,0,0,0,0,-1,1623,393,0,0
406,631,0,0,0,0,0,0,0,0,0,-1,1630,393,0,0
413,631,0,0,0,0,0,0,0,0,0,-1,1637,393,0,0
420,631,0,0,0,0,0,0,0,0,0,-1,1644,393,0,0
427,631,0,0,0,0,0,0,0,0,0,-1,1651,393,0,0
434,631,0,0,0,0,0,0,0,0,0,-1,1658,393,0,0
441,631,0,0,0,0,0,0,0,0,0,-1,1665,393,0,0
448,631,0,0,0,0,0,0,0,0,0,-1,1672,393,0,0
455,631,0,0,0,0,0,0,0,0,0,-1,1679,393,0,0
462,631,0,0,0,0,0,0,0,0,0,-1,1686,393,0,0
469,631,0,0,0,0,0,0,0,0,0,-1,1693,393,0,0
476,631,0,0,0,0,0,0,0,0,0,-1,1700,393,0,0
483,631,0,0,0,0,0,0,0,0,0,-1,1707,393,0,0
490,631,0,0,0,0,0,0,0,0,0,-1,1714,393,0,0
497,631,0,0,0,0,0,0,0,0,0,-1,1721,393,0,0
504,631,0,0,0,0,0,0,0,0,0,-1,1728,393,0,0
511,631,0,0,0,0,0,0,0,0,0,-1,1735,393,0,0
518,631,0,0,0,0,0,0,0,0,0,-1,1742,393,0,0
525,631,0,0,0,0,0,0,0,0,0,-1,1749,393,0,0
532,631,0,0,0,0,0,0,0,0,0,-1,1756,393,0,0
539,631,0,0,0,0,0,0,0,0,0,-1,1763,393,0,0
546,631,0,0,0,0,0,0,0,0,0,-1,1770,393,0,0
553,631,0,0,0,0,0,0,0,0,0,-1,1777,393,0,0
560,631,0,0,0,0,0,0,0,0,0,-1,1784,393,0,0
567,631,0,0,0,0,0,0,0,0,0,-1,1791,393,0,0
574,631,0,0,0,0,0,0,0,0,0,-1,1798,393,0,0
581,631,0,0,0,0,0,0,0,0,0,-1,1805,393,0,0
588,631,0,0,0,0,0,0,0,0,0,-1,1812,393,0,0
595,631,0,0,0,0,0,0,0,0,0,-1,1819,393,0,0
602,631,0,0,0,0,0,0,0,0,0,-1,1826,393,0,0
609,631,0,0,0,0,0,0,0,0,0,-1,1833,393,0,0
616,631,0,0,0,0,0,0,0,0,0,-1,1840,393,0,0
623,631,0,0,0,0,0,0,0,0,0,-1,1847,393,0,0
630,631,0,0,0,0,0,0,0,0,0,-1,1854,393,0,0
637,631,0,0,0,0,0,0,0,0,0,-1,1861,393,0,0
644,631,0,0,0,0,0,0,0,0,0,-1,1868,393,0,0
651,631,0,0,0,0,0,0,0,0,0,-1,1875,393,0,0
658,631,0,0,0,0,0,0,0,0,0,-1,1882,393,0,0
665,631,0,0,0,0,0,0,0,0,0,-1,1889,393,0,0
672,631,0,0,0,0,0,0,0,0,0,-1,1896,393,0,0
679,631,0,0,0,0,0,0,0,0,0,-1,1903,393,0,0
686,631,0,0,0,0,0,0,0,0,0,-1,1910,393,0,0
693,631,0,0,0,0,0,0,0,0,0,-1,1917,393,0,0
700,631,0,0,0,0,0,0,0,0,0,-1,1924,393,0,0
707,631,0,0,0,0,0,0,0,0,0,-1,1931,393,0,0
714,631,0,0,0,0,0,0,0,0,0,-1,1938,393,0,0
721,631,0,0,0,0,0,0,0,0,0,-1,1945,393,0,0
728,631,0,0,0,0,0,0,0,0,0,-1,1952,393,0,0
735,631,0,0,0,0,0,0,0,0,0,-1,1959,393,0,0
742,631,0,0,0,0,0,0,0,0,0,-1,1966,393,0,0
749,631,0,0,0,0,0,0,0,0,0,-1,1973,393,0,0
756,631,0,0,0,0,0,0,0,0,0,-1,1980,393,0,0
763,631,0,0,0,0,0,0,0,0,0,-1,1987,393,0,0
770,631,0,0,0,0,0,0,0,0,0,-1,1994,393,0,0
777,631,0,0,0,0,0,0,0,0,0,-1,2001,393,0,0
784,631,0,0,0,0,0,0,0,0,0,-1,2008,393,0,0
791,631,0,0,0,0,0,0,0,0,0,-1,2015,393,0,0
798,631,0,0,0,0,0,0,0,0,0,-1,2022,393,0,0
805,631,0,0,0,0,0,0,0,0,0,-1,2029,393,0,0
812,631,0,0,0,0,0,0,0,0,0,-1,2036,393,0,0
-700,624,0,0,0,0,0,0,0,0,0,-1,524,400,0,0
-693,624,0,0,0,0,0,0,0,0,0,-1,531,400,0,0
-686,624,0,0,0,0,0,0,0,0,0,-1,538,400,0,0
-679,624,0,0,0,0,0,0,0,0,0,-1,545,400,0,0
-672,624,0,0,0,0,0,0,0,0,0,-1,552,400,0,0
-665,624,0,0,0,0,0,0,0,0,0,-1,559,400,0,0
-658,624,0,0,0,0,0,0,0,0,0,-1,566,400,0,0
-651,624,0,0,0,0,0,0,0,0,0,-1,573,400,0,0
-644,624,0,0,0,0,0,0,0,0,0,-1,580,400,0,0
-637,624,0,0,0,0,0,0,0,0,0,-1,587,400,0,0
-630,624,0,0,0,0,0,0,0,0,0,-1,594,400,0,0
-623,624,0,0,0,0,0,0,0,0,0,-1,601,400,0,0
-616,624,0,0,0,0,0,0,0,0,0,-1,608,400,0,0
-609,624,0,0,0,0,0,0,0,0,0,-1,615,400,0,0
-602,624,0,0,0,0,0,0,0,0,0,-1,622,400,0,0
-595,624,0,0,0,0,0,0,0,0,0,-1,629,400,0,0
-588,624,0,0,0,0,0,0,0,0,0,-1,636,400,0,0
-581,624,0,0,0,0,0,0,0,0,0,-1,643,400,0,0
-574,624,0,0,0,0,0,0,0,0,0,-1,650,400,0,0
-567,624,0,0,0,0,0,0,0,0,0,-1,657,400,0,0
-560,624,0,0,0,0,0,0,0,0,0,-1,664,400,0,0
-553,624,0,0,0,0,0,0,0,0,0,-1,671,400,0,0
-546,624,0,0,0,0,0,0,0,0,0,-1,678,400,0,0
-539,624,0,0,0,0,0,0,0,0,0,-1,685,400,0,0
-532,624,0,0,0,0,0,0,0,0,0,-1,692,400,0,0
-525,624,0,0,0,0,0,0,0,0,0,-1,699,400,0,0
-518,624,0,0,0,0,0,0,0,0,0,-1,706,400,0,0
-511,624,0,0,0,0,0,0,0,0,0,-1,713,400,0,0
-504,624,0,0,0,0,0,0,0,0,0,-1,720,400,0,0
-497,624,0,0,0,0,0,0,0,0,0,-1,727,400,0,0
-490,624,0,0,0,0,0,0,0,0,0,-1,734,400,0,0
-483,624,0,0,0,0,0,0,0,0,0,-1,741,400,0,0
-476,624,0,0,0,0,0,0,0,0,0,-1,748,400,0,0
-469,624,0,0,0,0,0,0,0,0,0,-1,755,400,0,0
-462,624,0,0,0,0,0,0,0,0,0,-1,762,400,0,0
-455,624,0,0,0,0,0,0,0,0,0,-1,769,400,0,0
-448,624,0,0,0,0,0,0,0,0,0,-1,776,400,0,0
-441,624,0,0,0,0,0,0,0,0,0,-1,783,400,0,0
-434,624,0,0,0,0,0,0,0,0,0,-1,790,400,0,0
-427,624,0,0,0,0,0,0,0,0,0,-1,797,400,0,0
-420,624,0,0,0,0,0,0,0,0,0,-1,804,400,0,0
-413,624,0,0,0,0,0,0,0,0,0,-1,811,400,0,0
-406,624,0,0,0,0,0,0,0,0,0,-1,818,400,0,0
-399,624,0,0,0,0,0,0,0,0,0,-1,825,400,0,0
-392,624,0,0,0,0,0,0,0,0,0,-1,832,400,0,0
-385,624,0,0,0,0,0,0,0,0,0,-1,839,400,0,0
-378,624,0,0,0,0,0,0,0,0,0,-1,846,400,0,0
-371,624,0,0,0,0,0,0,0,0,0,-1,853,400,0,0
-364,624,0,0,0,0,0,0,0,0,0,-1,860,400,0,0
-357,624,0,0,0,0,0,0,0,0,0,-1,867,400,0,0
-350,624,0,0,0,0,0,0,0,0,0,-1,874,400,0,0
-343,624,0,0,0,0,0,0,0,0,0,-1,881,400,0,0
-336,624,0,0,0,0,0,0,0,0,0,-1,888,400,0,0
-329,624,0,0,0,0,0,0,0,0,0,-1,895,400,0,0
-322,624,0,0,0,0,0,0,0,0,0,-1,902,400,0,0
-315,624,0,0,0,0,0,0,0,0,0,-1,909,400,0,0
-308,624,0,0,0,0,0,0,0,0,0,-1,916,400,0,0
-301,624,0,0,0,0,0,0,0,0,0,-1,923,400,0,0
-294,624,1.59058,-11.9451,0,0,0,0,0,0,0,-1,930,400,1.59057,11.9451
-287,624,1.05115,-11.63,0,0,0,0,0,0,0,-1,937,400,1.05116,11.63
-280,624,1.66888,-10.3219,0,0,0,0,0,0,0,-1,944,400,1.66888,10.3219
-273,624,1.08618,-9.31528,0,0,0,0,0,0,0,-1,951,400,1.0862,9.31527
-266,624,2.53687,-9.28403,0,0,0,0,0,0,0,-1,958,400,2.53687,9.28403
-259,624,1.90283,-9.51407,-0.0385005,-0.02201,0.000293259,-0.0220048,-0.0385058,1.55302,0.0223069,0.044612,965,400,1.90284,9.51406
-252,624,1.44214,-9.82388,0,0,0,0,0,0,0,-1,972,400,1.44217,9.82389
-245,624,2.41241,-7.50885,0,0,0,0,0,0,0,-1,979,400,2.41241,7.50885
-238,624,2.50812,-7.49622,0,0,0,0,0,0,0,-1,986,400,2.50811,7.49622
-231,624,1.9502,-8.73428,0,0,0,0,0,0,0,-1,993,400,1.95018,8.73428
-224,624,2.75146,-8.9361,0,0,0,0,0,0,0,-1,1000,400,2.75148,8.93611
-217,624,2.22485,-8.8129,0,0,0,0,0,0,0,-1,1007,400,2.22488,8.81289
-210,624,2.05756,-8.84598,-0.00505624,-0.0137243,0.00314934,-0.00403283,-0.0147477,0.314196,0.00880109,0.0486071,1014,400,2.05758,8.84599
-203,624,2.02728,-8.98959,-0.00123498,-0.0133823,0.000962109,-0.00115925,-0.013458,0.0785508,0.00861164,0.0403164,1021,400,2.02731,8.9896
-196,624,2.02271,-9.19223,0.000559961,-0.0140886,-0.00171339,0.000757702,-0.0142863,-0.1149,0.00978658,0.0401323,1028,400,2.02269,9.19223
-189,624,1.79053,-9.41925,0.00176495,-0.014759,-0.00366252,0.00254035,-0.0155344,-0.208633,0.0112987,0.0382792,1035,400,1.79048,9.41926
-182,624,1.82373,-9.54916,0.00276602,-0.0145345,-0.005326,0.00427416,-0.0160427,-0.275943,0.0123685,0.0309579,1042,400,1.82378,9.54917
-175,624,1.99451,-9.63995,0.0035894,-0.0137642,-0.0064542,0.00572664,-0.0159015,-0.319775,0.0129394,0.0192512,1049,400,1.99448,9.63996
-168,624,1.99951,-9.75244,0.0042236,-0.0128269,-0.00718961,0.0068505,-0.0154538,-0.350305,0.0131928,0.0114078,1056,400,1.99953,9.75245
-161,624,1.97168,-9.86072,0.00467291,-0.0114571,-0.00732069,0.00749996,-0.0142841,-0.368529,0.0127787,0.00958339,1063,400,1.97163,9.86071
-154,624,1.96252,-9.95599,0.00481009,-0.0101072,-0.00700066,0.00758085,-0.0128779,-0.376868,0.0119431,0.00955171,1070,400,1.96256,9.956
-147,624,1.95215,-10.0574,0.00468016,-0.00843432,-0.00631854,0.00722904,-0.0109832,-0.383431,0.010589,0.010848,1077,400,1.95221,10.0574
-140,624,1.93555,-10.1696,0.00419258,-0.00657154,-0.0057075,0.0066554,-0.00903436,-0.407368,0.00909313,0.0099647,1084,400,1.93549,10.1696
-133,624,1.92578,-10.2614,0.00348667,-0.00453123,-0.00486869,0.00578453,-0.00682909,-0.44097,0.0072908,0.0110402,1091,400,1.92573,10.2614
-126,624,1.94067,-10.3369,0.00286719,-0.00245755,-0.00403276,0.00503714,-0.0046275,-0.493647,0.00558156,0.0131637,1098,400,1.94062,10.3369
-119,624,1.9314,-10.4326,0.00187517,-0.00110561,-0.00306157,0.00378985,-0.00302029,-0.55888,0.0039402,0.0156009,1105,400,1.9314,10.4326
-112,624,1.92383,-10.519,0.00105439,0.000166074,-0.00183384,0.00249709,-0.00127663,-0.666585,0.00221641,0.0161046,1112,400,1.92385,10.519
-105,624,1.91821,-10.5973,0.000317578,0.00144115,-0.00130889,0.00230372,-0.000544991,-0.988113,0.00174606,0.0116908,1119,400,1.91822,10.5973
-98,624,1.90601,-10.7028,-0.000322994,0.00241094,-0.00109667,0.00279648,-0.000708534,-1.23274,0.00213996,0.01376,1126,400,1.90604,10.7028
-91,624,1.91077,-10.7779,-0.000692659,0.002942,-0.00103689,0.003217,-0.000967653,-1.31155,0.00252968,0.0189915,1133,400,1.91077,10.7779
-84,624,1.93896,-10.836,-0.000631735,0.00310426,-0.00109463,0.00340135,-0.000928829,-1.30577,0.00263238,0.0165508,1140,400,1.939,10.836
-77,624,1.94019,-10.906,-0.000469889,0.00290358,-0.00100051,0.00317799,-0.000744302,-1.30311,0.00240546,0.0122093,1147,400,1.94017,10.906
-70,624,1.93213,-10.9669,-0.000278023,0.00264486,-0.000824829,0.00286155,-0.000494722,-1.31388,0.0020922,0.0113062,1154,400,1.93208,10.967
-63,624,1.93811,-11.0216,6.86705e-05,0.00232575,-0.000619306,0.00248451,-9.00901e-05,-1.31985,0.00168717,0.0103402,1161,400,1.93809,11.0216
-56,624,1.92493,-11.0957,0.000486336,0.00207495,-0.000488079,0.00221292,0.000348364,-1.2953,0.00137396,0.00971376,1168,400,1.92498,11.0957
-49,624,1.91467,-11.1376,0.000803011,0.00165738,-0.0003682,0.00179416,0.000666229,-1.21511,0.00104723,0.0100378,1175,400,1.91468,11.1376
-42,624,1.91589,-11.1666,0.00133461,0.00147776,-0.000336514,0.00175023,0.00106214,-0.890187,0.00101816,0.00909032,1182,400,1.91595,11.1666
-35,624,1.91675,-11.201,0.00201809,0.00110735,-1.2047e-05,0.00201825,0.00110719,-0.0132247,0.00116707,0.0135423,1189,400,1.91679,11.2011
-28,624,1.89551,-11.2581,0.00259437,0.000607953,0.000403293,0.00267313,0.000529197,0.192856,0.00163449,0.0179979,1196,400,1.89554,11.2581
-21,624,1.9071,-11.2953,0.00303384,0.000351006,0.000538691,0.00313797,0.000246883,0.190935,0.00201473,0.0135534,1203,400,1.90704,11.2953
-14,624,1.96484,-11.3286,0.00366586,0.000557161,0.000408511,0.00371864,0.000504375,0.128503,0.00232925,0.0145762,1210,400,1.96485,11.3286
-7,624,1.93433,-11.3491,0.00442702,0.00113011,0.000110605,0.00443073,0.0011264,0.033498,0.0026591,0.0180671,1217,400,1.93438,11.3491
0,624,1.96777,-11.3759,0.00482958,0.00169819,-0.000239603,0.00484781,0.00167996,-0.0759273,0.00284248,0.0188029,1224,400,1.96774,11.3759
7,624,1.95752,-11.4002,0.00483714,0.00223596,-0.000754563,0.00504018,0.00203292,-0.262855,0.00292802,0.0144011,1231,400,1.95755,11.4002
14,624,1.96069,-11.4141,0.0047469,0.00261081,-0.00132612,0.0053816,0.00197612,-0.446389,0.00314339,0.0118392,1238,400,1.96071,11.4141
21,624,1.95691,-11.4255,0.00467359,0.00317472,-0.00194449,0.00600807,0.00184024,-0.601464,0.00355447,0.0115146,1245,400,1.95686,11.4255
28,624,1.94971,-11.4348,0.00466883,0.00331229,-0.00264909,0.0067251,0.00125602,-0.66007,0.00412891,0.0107455,1252,400,1.94973,11.4347
35,624,1.96692,-11.4424,0.00452341,0.00333624,-0.00326062,0.00724404,0.000615614,-0.695361,0.0046378,0.0141349,1259,400,1.96687,11.4424
42,624,2.00012,-11.4439,0.00422155,0.00329773,-0.00386703,0.00765416,-0.000134874,-0.725956,0.00514832,0.0163891,1266,400,2.00009,11.4439
49,624,2.02356,-11.4468,0.00444152,0.00307873,-0.00436629,0.00817927,-0.000659005,-0.707993,0.00568526,0.0176869,1273,400,2.02351,11.4468
56,624,2.03992,-11.4352,0.00484218,0.00292891,-0.00486893,0.00884757,-0.00107648,-0.688395,0.006288,0.0168983,1280,400,2.03994,11.4352
63,624,2.03564,-11.4375,0.00551918,0.00277045,-0.0054136,0.00973015,-0.00144052,-0.661088,0.0070164,0.0126766,1287,400,2.03565,11.4375
70,624,2.01331,-11.4462,0.00681339,0.00314597,-0.00619441,0.0114398,-0.00148044,-0.641494,0.00816488,0.0112046,1294,400,2.01336,11.4462
77,624,2.00598,-11.4292,0.00794064,0.00341129,-0.00672804,0.0127749,-0.001423,-0.623053,0.00902841,0.0117561,1301,400,2.00603,11.4292
84,624,2.02747,-11.4053,0.0091932,0.0036704,-0.00703495,0.0139893,-0.00112571,-0.598375,0.00972319,0.0112939,1308,400,2.02741,11.4053
91,624,2.0437,-11.3715,0.00990572,0.00363589,-0.00710059,0.0145326,-0.000991031,-0.577516,0.0100351,0.0122271,1315,400,2.04366,11.3715
98,624,2.04932,-11.3445,0.0102751,0.00355721,-0.00701912,0.0146976,-0.000865261,-0.56223,0.0100992,0.0126284,1322,400,2.04928,11.3445
105,624,2.04749,-11.323,0.0105997,0.00374559,-0.0068698,0.0148498,-0.000504523,-0.554032,0.0100723,0.0135671,1329,400,2.04745,11.323
112,624,2.06799,-11.2715,0.0107666,0.00385389,-0.00657318,0.0147367,-0.000116269,-0.543351,0.00986348,0.0135801,1336,400,2.06795,11.2715
119,624,2.0647,-11.2241,0.0102604,0.00379965,-0.00613421,0.0139629,9.72222e-05,-0.543041,0.00927633,0.0142402,1343,400,2.0647,11.2241
126,624,2.06653,-11.154,0.00918176,0.00319356,-0.00552798,0.0124744,-9.90881e-05,-0.537202,0.0083495,0.0177649,1350,400,2.06658,11.154
133,624,2.11316,-11.1245,0.00769987,0.00260961,-0.00471976,0.010517,-0.000207515,-0.538122,0.00708152,0.0172437,1357,400,2.11313,11.1245
140,624,2.10229,-11.1213,0.00616146,0.00172009,-0.0038639,0.00839736,-0.000515809,-0.524584,0.00577785,0.0163185,1364,400,2.10228,11.1213
147,624,2.06921,-11.0543,0.00475977,0.000706064,-0.00297013,0.00632872,-0.000862883,-0.485986,0.00453422,0.0208284,1371,400,2.06925,11.0543
154,624,2.10999,-10.9628,0.00323213,-0.00020243,-0.00216595,0.00427897,-0.00124927,-0.450214,0.00334769,0.0228396,1378,400,2.10999,10.9628
161,624,2.15356,-10.8694,0.00203015,-0.000955299,-0.00144146,0.00261253,-0.00153767,-0.383964,0.00242276,0.0210394,1385,400,2.15355,10.8694
168,624,2.15723,-10.7862,0.000918441,-0.00139437,-0.00076996,0.00115132,-0.00162725,-0.293709,0.00161203,0.0208625,1392,400,2.15726,10.7862
175,624,2.13281,-10.741,-6.28798e-05,-0.00172645,-0.000226594,-3.25677e-05,-0.00175676,-0.132983,0.00116047,0.0165881,1399,400,2.13282,10.741
182,624,2.13513,-10.6853,-5.59231e-05,-0.00144296,-5.57249e-05,-5.3688e-05,-0.0014452,-0.0400893,0.000946078,0.0106291,1406,400,2.13519,10.6853
189,624,2.11523,-10.608,-6.96348e-05,-0.00108682,7.19552e-05,-6.45699e-05,-0.00109188,0.0702733,0.000707381,0.010425,1413,400,2.11519,10.608
196,624,2.10864,-10.5243,1.14621e-06,-0.000712834,0.000222746,6.49382e-05,-0.000776626,0.278924,0.000540698,0.0108829,1420,400,2.10859,10.5242
203,624,2.12939,-10.4442,-3.6741e-05,-0.000506915,0.000288512,0.000100335,-0.000643991,0.44354,0.000466384,0.0130342,1427,400,2.12937,10.4441
210,624,2.1582,-10.3512,-0.000165651,-0.000197842,0.000398264,0.000216842,-0.000580336,0.765202,0.000475932,0.0170753,1434,400,2.15826,10.3512
217,624,2.11938,-10.2617,-0.000320829,4.71105e-05,0.000534279,0.000428206,-0.000701925,0.951207,0.000658829,0.020124,1441,400,2.11942,10.2618
224,624,2.08899,-10.156,-0.0004198,0.000245263,0.000662344,0.000653864,-0.0008284,1.01804,0.000857761,0.0163078,1448,400,2.08905,10.156
231,624,2.10815,-10.0546,-0.000450572,0.000339208,0.000800082,0.000836546,-0.000947909,1.01464,0.00103092,0.0122518,1455,400,2.10811,10.0546
238,624,2.11316,-9.96729,-0.000497942,0.000411289,0.00088981,0.000955892,-0.00104254,1.02157,0.00115416,0.015705,1462,400,2.11311,9.96729
245,624,2.13196,-9.88205,-0.000532192,0.000474664,0.000920744,0.00102062,-0.00107815,1.03557,0.00121188,0.0161231,1469,400,2.13201,9.88206
252,624,2.12671,-9.74106,-0.000477307,0.000581445,0.000953982,0.00114309,-0.00103895,1.0387,0.00126028,0.0122116,1476,400,2.1267,9.74105
259,624,2.10681,-9.61426,-0.000120115,0.000660953,0.00112659,0.00146278,-0.000921942,0.952242,0.00138857,0.00946003,1483,400,2.10677,9.61427
266,624,2.1123,-9.49042,0.000188766,0.00060208,0.00170124,0.00210917,-0.00131833,0.845839,0.00199635,0.0135717,1490,400,2.11225,9.4904
273,624,2.09839,-9.35144,0.00045471,0.000928388,0.00269052,0.00339248,-0.00200938,0.829299,0.00315265,0.0166892,1497,400,2.09843,9.35144
280,624,2.07483,-9.24704,0.00103626,0.000927471,0.00363438,0.00461665,-0.00265292,0.777915,0.00424782,0.0148663,1504,400,2.07488,9.24705
287,624,2.07068,-9.12735,0.00157065,0.000979177,0.00480652,0.00609052,-0.00354069,0.754673,0.00562516,0.0107285,1511,400,2.07069,9.12734
294,624,2.05872,-8.97876,0.00218223,0.00123037,0.00621973,0.00794422,-0.00453161,0.747213,0.00729219,0.00896494,1518,400,2.05867,8.97876
301,624,2.04285,-8.83096,0.00284666,0.00150006,0.00785362,0.0100558,-0.00570906,0.742637,0.00921644,0.0102273,1525,400,2.04281,8.83096
308,624,2.04675,-8.6618,0.00348435,0.00191732,0.00970419,0.0124366,-0.00703494,0.745116,0.0113852,0.013225,1532,400,2.04671,8.66179
315,624,2.0553,-8.49646,0.00387069,0.00193323,0.0113278,0.0142711,-0.0084672,0.742743,0.0132698,0.0159203,1539,400,2.0553,8.49647
322,624,2.05933,-8.38431,0.00418572,0.00206912,0.0128561,0.016027,-0.00977216,0.744331,0.0150404,0.0233246,1546,400,2.05936,8.38431
329,624,2.29492,-8.35428,0.00430349,0.00229605,0.0142354,0.0175705,-0.0109709,0.750202,0.0166246,0.0363316,1553,400,2.29489,8.35428
336,624,2.46973,-8.16129,0,0,0,0,0,0,0,-1,1560,400,2.4697,8.16127
343,624,2.30334,-6.85135,0,0,0,0,0,0,0,-1,1567,400,2.3033,6.85134
350,624,1.99194,-7.29742,0,0,0,0,0,0,0,-1,1574,400,1.99198,7.29741
357,624,2.64075,-3.13092,0,0,0,0,0,0,0,-1,1581,400,2.64076,3.13091
364,624,3.16565,-4.9458,0,0,0,0,0,0,0,-1,1588,400,3.16564,4.94579
371,624,3.37561,-5.23529,0,0,0,0,0,0,0,-1,1595,400,3.37563,5.23529
378,624,1.50439,-5.22165,0,0,0,0,0,0,0,-1,1602,400,1.50438,5.22164
385,624,0.724731,-2.43875,0,0,0,0,0,0,0,-1,1609,400,0.724746,2.43875
392,624,4.26819,-5.14236,0,0,0,0,0,0,0,-1,1616,400,4.26818,5.14236
399,624,3.86841,-2.36917,0,0,0,0,0,0,0,-1,1623,400,3.86838,2.36916
406,624,4.35376,-2.6962,0,0,0,0,0,0,0,-1,1630,400,4.35373,2.69619
413,624,0,0,0,0,0,0,0,0,0,-1,1637,400,0,0
420,624,0,0,0,0,0,0,0,0,0,-1,1644,400,0,0
427,624,0,0,0,0,0,0,0,0,0,-1,1651,400,0,0
434,624,0,0,0,0,0,0,0,0,0,-1,1658,400,0,0
441,624,0,0,0,0,0,0,0,0,0,-1,1665,400,0,0
448,624,0,0,0,0,0,0,0,0,0,-1,1672,400,0,0
455,624,0,0,0,0,0,0,0,0,0,-1,1679,400,0,0
462,624,0,0,0,0,0,0,0,0,0,-1,1686,400,0,0
469,624,0,0,0,0,0,0,0,0,0,-1,1693,400,0,0
476,624,0,0,0,0,0,0,0,0,0,-1,1700,400,0,0
483,624,0,0,0,0,0,0,0,0,0,-1,1707,400,0,0
490,624,0,0,0,0,0,0,0,0,0,-1,1714,400,0,0
497,624,0,0,0,0,0,0,0,0,0,-1,1721,400,0,0
504,624,0,0,0,0,0,0,0,0,0,-1,1728,400,0,0
511,624,0,0,0,0,0,0,0,0,0,-1,1735,400,0,0
518,624,0,0,0,0,0,0,0,0,0,-1,1742,400,0,0
525,624,0,0,0,0,0,0,0,0,0,-1,1749,400,0,0
532,624,0,0,0,0,0,0,0,0,0,-1,1756,400,0,0
539,624,0,0,0,0,0,0,0,0,0,-1,1763,400,0,0
546,624,0,0,0,0,0,0,0,0,0,-1,1770,400,0,0
553,624,0,0,0,0,0,0,0,0,0,-1,1777,400,0,0
560,624,0,0,0,0,0,0,0,0,0,-1,1784,400,0,0
567,624,0,0,0,0,0,0,0,0,0,-1,1791,400,0,0
574,624,0,0,0,0,0,0,0,0,0,-1,1798,400,0,0
581,624,0,0,0,0,0,0,0,0,0,-1,1805,400,0,0
588,624,0,0,0,0,0,0,0,0,0,-1,1812,400,0,0
595,624,0,0,0,0,0,0,0,0,0,-1,1819,400,0,0
602,624,0,0,0,0,0,0,0,0,0,-1,1826,400,0,0
609,624,0,0,0,0,0,0,0,0,0,-1,1833,400,0,0
616,624,0,0,0,0,0,0,0,0,0,-1,1840,400,0,0
623,624,0,0,0,0,0,0,0,0,0,-1,1847,400,0,0
630,624,0,0,0,0,0,0,0,0,0,-1,1854,400,0,0
637,624,0,0,0,0,0,0,0,0,0,-1,1861,400,0,0
644,624,0,0,0,0,0,0,0,0,0,-1,1868,400,0,0
651,624,0,0,0,0,0,0,0,0,0,-1,1875,400,0,0
658,624,0,0,0,0,0,0,0,0,0,-1,1882,400,0,0
665,624,0,0,0,0,0,0,0,0,0,-1,1889,400,0,0
672,624,0,0,0,0,0,0,0,0,0,-1,1896,400,0,0
679,624,0,0,0,0,0,0,0,0,0,-1,1903,400,0,0
686,624,0,0,0,0,0,0,0,0,0,-1,1910,400,0,0
693,624,0,0,0,0,0,0,0,0,0,-1,1917,400,0,0
700,624,0,0,0,0,0,0,0,0,0,-1,1924,400,0,0
707,624,0,0,0,0,0,0,0,0,0,-1,1931,400,0,0
714,624,0,0,0,0,0,0,0,0,0,-1,1938,400,0,0
721,624,0,0,0,0,0,0,0,0,0,-1,1945,400,0,0
728,624,0,0,0,0,0,0,0,0,0,-1,1952,400,0,0
735,624,0,0,0,0,0,0,0,0,0,-1,1959,400,0,0
742,624,0,0,0,0,0,0,0,0,0,-1,1966,400,0,0
749,624,0,0,0,0,0,0,0,0,0,-1,1973,400,0,0
756,624,0,0,0,0,0,0,0,0,0,-1,1980,400,0,0
763,624,0,0,0,0,0,0,0,0,0,-1,1987,400,0,0
770,624,0,0,0,0,0,0,0,0,0,-1,1994,400,0,0
777,624,0,0,0,0,0,0,0,0,0,-1,2001,400,0,0
784,624,0,0,0,0,0,0,0,0,0,-1,2008,400,0,0
791,624,0,0,0,0,0,0,0,0,0,-1,2015,400,0,0
798,624,0,0,0,0,0,0,0,0,0,-1,2022,400,0,0
805,624,0,0,0,0,0,0,0,0,0,-1,2029,400,0,0
812,624,0,0,0,0,0,0,0,0,0,-1,2036,400,0,0
-700,617,0,0,0,0,0,0,0,0,0,-1,524,407,0,0
-693,617,0,0,0,0,0,0,0,0,0,-1,531,407,0,0
-686,617,0,0,0,0,0,0,0,0,0,-1,538,407,0,0
-679,617,0,0,0,0,0,0,0,0,0,-1,545,407,0,0
-672,617,0,0,0,0,0,0,0,0,0,-1,552,407,0,0
-665,617,0,0,0,0,0,0,0,0,0,-1,559,407,0,0
-658,617,0,0,0,0,0,0,0,0,0,-1,566,407,0,0
-651,617,0,0,0,0,0,0,0,0,0,-1,573,407,0,0
-644,617,0,0,0,0,0,0,0,0,0,-1,580,407,0,0
-637,617,0,0,0,0,0,0,0,0,0,-1,587,407,0,0
-630,617,0,0,0,0,0,0,0,0,0,-1,594,407,0,0
-623,617,0,0,0,0,0,0,0,0,0,-1,601,407,0,0
-616,617,0,0,0,0,0,0,0,0,0,-1,608,407,0,0
-609,617,0,0,0,0,0,0,0,0,0,-1,615,407,0,0
-602,617,0,0,0,0,0,0,0,0,0,-1,622,407,0,0
-595,617,0,0,0,0,0,0,0,0,0,-1,629,407,0,0
-588,617,0,0,0,0,0,0,0,0,0,-1,636,407,0,0
-581,617,0,0,0,0,0,0,0,0,0,-1,643,407,0,0
-574,617,0,0,0,0,0,0,0,0,0,-1,650,407,0,0
-567,617,0,0,0,0,0,0,0,0,0,-1,657,407,0,0
-560,617,0,0,0,0,0,0,0,0,0,-1,664,407,0,0
-553,617,0,0,0,0,0,0,0,0,0,-1,671,407,0,0
-546,617,0,0,0,0,0,0,0,0,0,-1,678,407,0,0
-539,617,0,0,0,0,0,0,0,0,0,-1,685,407,0,0
-532,617,0,0,0,0,0,0,0,0,0,-1,692,407,0,0
-525,617,0,0,0,0,0,0,0,0,0,-1,699,407,0,0
-518,617,0,0,0,0,0,0,0,0,0,-1,706,407,0,0
-511,617,0,0,0,0,0,0,0,0,0,-1,713,407,0,0
-504,617,0,0,0,0,0,0,0,0,0,-1,720,407,0,0
-497,617,0,0,0,0,0,0,0,0,0,-1,727,407,0,0
-490,617,0,0,0,0,0,0,0,0,0,-1,734,407,0,0
-483,617,0,0,0,0,0,0,0,0,0,-1,741,407,0,0
-476,617,0,0,0,0,0,0,0,0,0,-1,748,407,0,0
-469,617,0,0,0,0,0,0,0,0,0,-1,755,407,0,0
-462,617,0,0,0,0,0,0,0,0,0,-1,762,407,0,0
-455,617,0,0,0,0,0,0,0,0,0,-1,769,407,0,0
-448,617,0,0,0,0,0,0,0,0,0,-1,776,407,0,0
-441,617,0,0,0,0,0,0,0,0,0,-1,783,407,0,0
-434,617,0,0,0,0,0,0,0,0,0,-1,790,407,0,0
-427,617,0,0,0,0,0,0,0,0,0,-1,797,407,0,0
-420,617,0,0,0,0,0,0,0,0,0,-1,804,407,0,0
-413,617,0,0,0,0,0,0,0,0,0,-1,811,407,0,0
-406,617,0,0,0,0,0,0,0,0,0,-1,818,407,0,0
-399,617,0,0,0,0,0,0,0,0,0,-1,825,407,0,0
-392,617,0,0,0,0,0,0,0,0,0,-1,832,407,0,0
-385,617,0,0,0,0,0,0,0,0,0,-1,839,407,0,0
-378,617,0,0,0,0,0,0,0,0,0,-1,846,407,0,0
-371,617,0,0,0,0,0,0,0,0,0,-1,853,407,0,0
-364,617,0,0,0,0,0,0,0,0,0,-1,860,407,0,0
-357,617,0,0,0,0,0,0,0,0,0,-1,867,407,0,0
-350,617,0,0,0,0,0,0,0,0,0,-1,874,407,0,0
-343,617,0,0,0,0,0,0,0,0,0,-1,881,407,0,0
-336,617,0,0,0,0,0,0,0,0,0,-1,888,407,0,0
-329,617,0,0,0,0,0,0,0,0,0,-1,895,407,0,0
-322,617,0,0,0,0,0,0,0,0,0,-1,902,407,0,0
-315,617,0,0,0,0,0,0,0,0,0,-1,909,407,0,0
-308,617,0,0,0,0,0,0,0,0,0,-1,916,407,0,0
-301,617,6.54834,-7.83475,0,0,0,0,0,0,0,-1,923,407,6.54833,7.83475
-294,617,0.739624,-10.7959,0,0,0,0,0,0,0,-1,930,407,0.739635,10.7959
-287,617,0.250366,-10.4579,0,0,0,0,0,0,0,-1,937,407,0.250386,10.4578
-280,617,1.40863,-9.25067,0,0,0,0,0,0,0,-1,944,407,1.40864,9.25066
-273,617,1.00061,-8.57419,0,0,0,0,0,0,0,-1,951,407,1.00064,8.57419
-266,617,2.50708,-8.93878,0,0,0,0,0,0,0,-1,958,407,2.5071,8.93879
-259,617,1.88312,-9.24066,0,0,0,0,0,0,0,-1,965,407,1.88312,9.24066
-252,617,1.25916,-9.54251,0,0,0,0,0,0,0,-1,972,407,1.25915,9.54252
-245,617,2.26117,-7.84979,0,0,0,0,0,0,0,-1,979,407,2.26117,7.8498
-238,617,1.71661,-8.68988,0,0,0,0,0,0,0,-1,986,407,1.71658,8.68988
-231,617,1.8194,-8.67227,-0.0127714,-0.0100978,0.0073803,-0.00393421,-0.018935,0.874993,0.0115377,0.0481267,993,407,1.81939,8.67228
-224,617,1.97253,-8.70114,-0.00960451,-0.00940673,0.00754004,-0.00196493,-0.0170463,0.791955,0.0107692,0.0450399,1000,407,1.97251,8.70113
-217,617,2.14032,-8.71204,0,0,0,0,0,0,0,-1,1007,407,2.14031,8.71204
-210,617,1.98309,-9.04266,-0.00400831,-0.00875686,0.0024068,-0.00300178,-0.00976339,0.3961,0.00577454,0.0244455,1014,407,1.98306,9.04266
-203,617,1.9505,-9.13354,-0.001291,-0.00856646,0.0010387,-0.00114561,-0.00871185,0.139068,0.00546619,0.0182466,1021,407,1.95049,9.13353
-196,617,1.91809,-9.24811,-0.000309137,-0.00939006,-0.00047239,-0.000284629,-0.00941457,-0.0518336,0.00618369,0.0161135,1028,407,1.91814,9.24811
-189,617,1.90527,-9.36978,0.000473339,-0.0101031,-0.00173838,0.000751738,-0.0103815,-0.1588,0.00718469,0.0134247,1035,407,1.90531,9.36978
-182,617,1.90796,-9.49368,0.00114022,-0.010133,-0.00278074,0.00178882,-0.0107816,-0.229151,0.00785224,0.0140029,1042,407,1.9079,9.4937
-175,617,1.9093,-9.61691,0.00169252,-0.00971351,-0.00347112,0.00266581,-0.0106868,-0.273376,0.00815961,0.0120205,1049,407,1.90925,9.61693
-168,617,1.89453,-9.75134,0.00211001,-0.00914584,-0.00395069,0.00335824,-0.0103941,-0.306027,0.00827902,0.00961229,1056,407,1.89455,9.75133
-161,617,1.86768,-9.87881,0.00240904,-0.00825598,-0.0040667,0.00378277,-0.00962971,-0.325766,0.0079852,0.0106645,1063,407,1.8677,9.87882
-154,617,1.84668,-9.97543,0.00252828,-0.00735894,-0.0038797,0.00386888,-0.00869955,-0.332699,0.0074329,0.0109621,1070,407,1.84669,9.97544
-147,617,1.83936,-10.0626,0.0024532,-0.00623149,-0.0034607,0.00366355,-0.00744184,-0.336444,0.00653422,0.0154353,1077,407,1.83935,10.0626
-140,617,1.83459,-10.1753,0.00218747,-0.0049205,-0.00313592,0.00337319,-0.00610622,-0.361494,0.00554825,0.0114484,1084,407,1.83463,10.1753
-133,617,1.84094,-10.2738,0.00186678,-0.00351483,-0.00267867,0.00297278,-0.00462083,-0.391569,0.00441846,0.0129753,1091,407,1.841,10.2738
-126,617,1.84387,-10.3508,0.00154244,-0.002013,-0.00223798,0.00262284,-0.0030934,-0.449758,0.003304,0.0133136,1098,407,1.84391,10.3508
-119,617,1.82983,-10.4481,0.000998947,-0.00106566,-0.00171034,0.00196437,-0.00203108,-0.513879,0.00230688,0.0136529,1105,407,1.8298,10.4481
-112,617,1.82922,-10.5269,0.000612904,-0.000120288,-0.00104963,0.00135812,-0.000865503,-0.61739,0.00129427,0.0145681,1112,407,1.82923,10.527
-105,617,1.85022,-10.5955,0.000297628,0.000806789,-0.000829519,0.00141991,-0.000315497,-0.934286,0.00106743,0.0149816,1119,407,1.85027,10.5955
-98,617,1.84216,-10.702,6.3392e-05,0.00151108,-0.000825532,0.00188517,-0.000310695,-1.14533,0.00137212,0.0125305,1126,407,1.84221,10.702
-91,617,1.83545,-10.7849,6.04444e-05,0.00193885,-0.000930362,0.00232164,-0.00032235,-1.18046,0.00166564,0.017026,1133,407,1.83545,10.7849
-84,617,1.85706,-10.8501,0.000252092,0.00212575,-0.000966316,0.00253481,-0.000156968,-1.17035,0.00174455,0.0172685,1140,407,1.85705,10.8501
-77,617,1.88757,-10.9149,0.000439563,0.00207459,-0.000862358,0.00244535,6.88049e-05,-1.16475,0.00160779,0.0134103,1147,407,1.8876,10.9149
-70,617,1.88916,-10.9866,0.000658673,0.00198613,-0.000682964,0.00227475,0.000370049,-1.17096,0.00140944,0.0120468,1154,407,1.88913,10.9866
-63,617,1.89038,-11.0324,0.00116841,0.00162659,-0.000381904,0.00184285,0.000952152,-1.05556,0.00106417,0.0121763,1161,407,1.89035,11.0324
-56,617,1.88098,-11.0721,0.00178834,0.00133852,-8.24809e-05,0.00180298,0.00132387,-0.175751,0.00107837,0.00973747,1168,407,1.88101,11.0721
-49,617,1.86914,-11.1248,0.00220806,0.000618318,0.000142547,0.00222074,0.000605637,0.0887241,0.00132556,0.00877106,1175,407,1.86918,11.1248
-42,617,1.86047,-11.1867,0.00315418,0.000103228,0.000153003,0.00316183,9.55742e-05,0.0499822,0.00207676,0.0107608,1182,407,1.86048,11.1867
-35,617,1.87915,-11.2173,0.00420391,-0.000835004,0.000738582,0.00430994,-0.000941031,0.142581,0.00323295,0.0156038,1189,407,1.87921,11.2173
-28,617,1.86865,-11.2492,0.00482769,-0.00168425,0.00139701,0.00511473,-0.00197129,0.202653,0.00422317,0.0174946,1196,407,1.86861,11.2492
-21,617,1.8916,-11.2847,0.00770946,-0.00216885,0.00148715,0.00792849,-0.00238788,0.14623,0.00623592,0.0130059,1203,407,1.89162,11.2847
-14,617,1.9082,-11.2949,0.00921883,-0.00195506,0.00128123,0.00936385,-0.00210009,0.112714,0.00704768,0.0149162,1210,407,1.90822,11.2948
-7,617,1.88965,-11.2986,0.0108067,-0.000921649,0.000747891,0.0108542,-0.000969148,0.0634254,0.00757986,0.0175497,1217,407,1.88963,11.2986
0,617,1.90649,-11.3295,0.0118116,0.000222538,0.000113911,0.0118128,0.000221419,0.00982788,0.00780241,0.0153292,1224,407,1.9065,11.3295
7,617,1.93896,-11.3952,0.0120329,0.00146851,-0.000767709,0.0120884,0.00141302,-0.0721645,0.00763163,0.0117328,1231,407,1.93892,11.3952
14,617,1.9491,-11.4146,0.0119257,0.00260521,-0.00174702,0.0122424,0.00228851,-0.179331,0.00751581,0.0133254,1238,407,1.94907,11.4146
21,617,1.94568,-11.4294,0.0115645,0.00415394,-0.00279243,0.0124989,0.00321953,-0.322912,0.00749362,0.0112125,1245,407,1.94565,11.4294
28,617,1.9458,-11.4488,0.0110938,0.00500843,-0.00390157,0.0129989,0.00310338,-0.454227,0.00783897,0.00979765,1252,407,1.9458,11.4488
35,617,1.95984,-11.4514,0.0102548,0.00589928,-0.00490258,0.0134415,0.00271253,-0.576386,0.00820764,0.0126276,1259,407,1.95989,11.4514
42,617,2.00916,-11.4416,0.00910869,0.00672492,-0.00594236,0.0139775,0.0018561,-0.686424,0.0087654,0.0191209,1266,407,2.00914,11.4416
49,617,2.01465,-11.4381,0.00853805,0.00706901,-0.00676701,0.0146103,0.00099677,-0.731338,0.00942552,0.0194011,1273,407,2.01467,11.4381
56,617,2.02869,-11.4327,0.00827828,0.00733228,-0.00750627,0.0153264,0.000284115,-0.753933,0.0101242,0.0136105,1280,407,2.02874,11.4327
63,617,2.02515,-11.4421,0.00858427,0.00746234,-0.00826587,0.0163082,-0.000261577,-0.751517,0.0109604,0.00870297,1287,407,2.02519,11.4421
70,617,2.02026,-11.4495,0.0101078,0.00808626,-0.00922973,0.0183819,-0.000187869,-0.730859,0.0123177,0.0122052,1294,407,2.02024,11.4495
77,617,2.03906,-11.4235,0.0116617,0.00835635,-0.00979612,0.0199436,7.44853e-05,-0.701831,0.013271,0.0124921,1301,407,2.03909,11.4235
84,617,2.05493,-11.41,0.0126076,0.00854945,-0.0100548,0.020836,0.000320978,-0.685835,0.0137849,0.0100323,1308,407,2.05495,11.41
91,617,2.07385,-11.3895,0.0142863,0.0082024,-0.0100041,0.0217007,0.000788036,-0.637804,0.0142117,0.00963584,1315,407,2.0738,11.3895
98,617,2.08899,-11.3472,0.0154867,0.00759187,-0.00972929,0.0220389,0.00103972,-0.592681,0.0143586,0.0110024,1322,407,2.089,11.3472
105,617,2.1062,-11.3159,0.016496,0.00740104,-0.00939187,0.0223834,0.00151364,-0.559937,0.0144442,0.0126425,1329,407,2.10615,11.3159
112,617,2.11621,-11.2724,0.0172489,0.00717147,-0.00891634,0.0224518,0.00196862,-0.528213,0.0143567,0.0153975,1336,407,2.11619,11.2724
119,617,2.12048,-11.1953,0.0169186,0.00674101,-0.00827234,0.021542,0.00211757,-0.509654,0.0137101,0.0188259,1343,407,2.12052,11.1953
126,617,2.11841,-11.1369,0.0156186,0.0055046,-0.00743176,0.0195507,0.00157248,-0.486653,0.0125426,0.0214817,1350,407,2.11837,11.1369
133,617,2.13428,-11.1085,0.0134637,0.0045376,-0.00637186,0.0167801,0.00122123,-0.47989,0.0108027,0.0178943,1357,407,2.13428,11.1085
140,617,2.15417,-11.0925,0.0110965,0.00296806,-0.00524045,0.0136641,0.000400523,-0.455571,0.00897884,0.0148161,1364,407,2.15412,11.0925
147,617,2.13049,-11.0469,0.00882593,0.00133125,-0.00400136,0.0105607,-0.000403515,-0.409084,0.00717874,0.0171138,1371,407,2.13053,11.0469
154,617,2.16846,-10.9919,0.00637279,2.5658e-05,-0.00293544,0.00752222,-0.00112378,-0.373219,0.00542832,0.020108,1378,407,2.16845,10.9919
161,617,2.21082,-10.9005,0.00431841,-0.00107791,-0.00198814,0.00497178,-0.00173128,-0.317516,0.00401793,0.0214621,1385,407,2.21083,10.9006
168,617,2.22375,-10.8197,0.00228576,-0.00175424,-0.00107303,0.00255307,-0.00202155,-0.244149,0.00264709,0.0190099,1392,407,2.22377,10.8197
175,617,2.20203,-10.7529,0.000103942,-0.00238123,-0.000362126,0.000155634,-0.00243292,-0.141788,0.00167623,0.0160975,1399,407,2.20202,10.7529
182,617,2.21619,-10.681,-0.000177814,-0.00208001,-0.000261368,-0.000142555,-0.00211527,-0.134093,0.00136515,0.0112305,1406,407,2.21622,10.681
189,617,2.19653,-10.6119,-0.000138013,-0.00153643,-0.000183548,-0.000114323,-0.00156012,-0.128358,0.00100414,0.0109451,1413,407,2.19656,10.6119
196,617,2.19067,-10.5403,9.2412e-05,-0.000848583,-5.87359e-05,9.6064e-05,-0.000852235,-0.0620976,0.000602736,0.0147894,1420,407,2.1907,10.5403
203,617,2.20056,-10.4614,0.000223702,-0.000284132,-1.74377e-05,0.0002243,-0.00028473,-0.0342836,0.000294578,0.0151701,1427,407,2.20054,10.4614
210,617,2.22986,-10.3667,0.000181231,0.000241847,4.10114e-05,0.000262534,0.000160543,1.10361,0.000152825,0.0144244,1434,407,2.22984,10.3667
217,617,2.20557,-10.2456,7.7842e-05,0.000594831,0.000200405,0.000663417,9.25586e-06,1.24105,0.000439225,0.0186264,1441,407,2.20563,10.2456
224,617,2.18579,-10.1495,2.38547e-05,0.000818353,0.000386264,0.000975185,-0.000132978,1.18511,0.000698681,0.0189798,1448,407,2.1858,10.1495
231,617,2.22681,-10.0751,9.24733e-06,0.00095327,0.000575833,0.00122582,-0.000263307,1.12872,0.000917665,0.0146421,1455,407,2.22685,10.0751
238,617,2.23645,-9.97787,-2.95073e-06,0.00103973,0.00070954,0.00139887,-0.00036209,1.10224,0.00107382,0.0143922,1462,407,2.23645,9.97788
245,617,2.23267,-9.87943,-1.17517e-05,0.00107987,0.000770389,0.0014782,-0.000410085,1.0936,0.00114687,0.0126057,1469,407,2.23261,9.87942
252,617,2.21741,-9.72192,2.14485e-05,0.00113171,0.000811886,0.00156011,-0.00040695,1.08527,0.00119897,0.0135719,1476,407,2.21747,9.72191
259,617,2.20886,-9.60132,0.000236776,0.00113178,0.000946668,0.00173139,-0.00036283,1.00619,0.0012923,0.0116917,1483,407,2.20888,9.60131
266,617,2.21509,-9.47134,0.000412074,0.00101935,0.00134756,0.00209705,-0.000665629,0.89621,0.00166487,0.0144133,1490,407,2.21508,9.47134
273,617,2.2052,-9.33765,0.000574844,0.00118208,0.0020352,0.00293619,-0.00117926,0.859444,0.00244717,0.0147076,1497,407,2.20522,9.33765
280,617,2.19165,-9.24146,0.000954686,0.0011137,0.00270767,0.00374303,-0.00167464,0.800076,0.00320298,0.012936,1504,407,2.19168,9.24144
287,617,2.18591,-9.1167,0.0012995,0.00109136,0.00353486,0.00473182,-0.00234096,0.770682,0.00416052,0.0120978,1511,407,2.18588,9.11669
294,617,2.1875,-8.98123,0.00169593,0.00121913,0.00451366,0.00597748,-0.00306243,0.759014,0.00530888,0.00938798,1518,407,2.18744,8.98125
301,617,2.1803,-8.84866,0.00211547,0.00133345,0.00562621,0.00736424,-0.00391532,0.750705,0.00661295,0.00749027,1525,407,2.18027,8.84866
308,617,2.17749,-8.71002,0.00253238,0.00157444,0.00688711,0.00895716,-0.00485033,0.750681,0.00808845,0.00790201,1532,407,2.17746,8.71002
315,617,2.17285,-8.56198,0.00280588,0.0015879,0.00797174,0.0101919,-0.00579808,0.747276,0.00934725,0.00882689,1539,407,2.17279,8.56199
322,617,2.1665,-8.41174,0.00302362,0.00169786,0.00895422,0.0113395,-0.00661798,0.748451,0.0104865,0.0111726,1546,407,2.1665,8.41174
329,617,2.17273,-8.28043,0.00308481,0.00186408,0.00980825,0.0123017,-0.00735277,0.754323,0.0114668,0.0118386,1553,407,2.17268,8.28043
336,617,2.20215,-8.15115,0.00287801,0.00220208,0.0103332,0.0128788,-0.00779869,0.769051,0.0120576,0.0274573,1560,407,2.2021,8.15114
343,617,2.28613,-7.89734,0,0,0,0,0,0,0,-1,1567,407,2.28609,7.89735
350,617,2.26721,-7.75693,0,0,0,0,0,0,0,-1,1574,407,2.26725,7.75694
357,617,2.1748,-7.16504,0,0,0,0,0,0,0,-1,1581,407,2.1748,7.16505
364,617,2.35583,-7.1788,0,0,0,0,0,0,0,-1,1588,407,2.35582,7.1788
371,617,2.60266,-6.20667,0,0,0,0,0,0,0,-1,1595,407,2.60261,6.20668
378,617,2.27588,-7.47134,0,0,0,0,0,0,0,-1,1602,407,2.27582,7.47136
385,617,1.37012,-5.41284,0,0,0,0,0,0,0,-1,1609,407,1.37016,5.41286
392,617,3.40723,-2.54929,0,0,0,0,0,0,0,-1,1616,407,3.40725,2.54929
399,617,3.25,-2.14835,0,0,0,0,0,0,0,-1,1623,407,3.25006,2.14836
406,617,3.02429,-3.19577,0,0,0,0,0,0,0,-1,1630,407,3.02431,3.19577
413,617,2.92786,-3.80649,0,0,0,0,0,0,0,-1,1637,407,2.92788,3.8065
420,617,3.42737,-4.47391,0,0,0,0,0,0,0,-1,1644,407,3.42737,4.47391
427,617,0,0,0,0,0,0,0,0,0,-1,1651,407,0,0
434,617,0,0,0,0,0,0,0,0,0,-1,1658,407,0,0
441,617,0,0,0,0,0,0,0,0,0,-1,1665,407,0,0
448,617,0,0,0,0,0,0,0,0,0,-1,1672,407,0,0
455,617,0,0,0,0,0,0,0,0,0,-1,1679,407,0,0
462,617,0,0,0,0,0,0,0,0,0,-1,1686,407,0,0
469,617,0,0,0,0,0,0,0,0,0,-1,1693,407,0,0
476,617,0,0,0,0,0,0,0,0,0,-1,1700,407,0,0
483,617,0,0,0,0,0,0,0,0,0,-1,1707,407,0,0
490,617,0,0,0,0,0,0,0,0,0,-1,1714,407,0,0
497,617,0,0,0,0,0,0,0,0,0,-1,1721,407,0,0
504,617,0,0,0,0,0,0,0,0,0,-1,1728,407,0,0
511,617,0,0,0,0,0,0,0,0,0,-1,1735,407,0,0
518,617,0,0,0,0,0,0,0,0,0,-1,1742,407,0,0
525,617,0,0,0,0,0,0,0,0,0,-1,1749,407,0,0
532,617,0,0,0,0,0,0,0,0,0,-1,1756,407,0,0
539,617,0,0,0,0,0,0,0,0,0,-1,1763,407,0,0
546,617,0,0,0,0,0,0,0,0,0,-1,1770,407,0,0
553,617,0,0,0,0,0,0,0,0,0,-1,1777,407,0,0
560,617,0,0,0,0,0,0,0,0,0,-1,1784,407,0,0
567,617,0,0,0,0,0,0,0,0,0,-1,1791,407,0,0
574,617,0,0,0,0,0,0,0,0,0,-1,1798,407,0,0
581,617,0,0,0,0,0,0,0,0,0,-1,1805,407,0,0
588,617,0,0,0,0,0,0,0,0,0,-1,1812,407,0,0
595,617,0,0,0,0,0,0,0,0,0,-1,1819,407,0,0
602,617,0,0,0,0,0,0,0,0,0,-1,1826,407,0,0
609,617,0,0,0,0,0,0,0,0,0,-1,1833,407,0,0
616,617,0,0,0,0,0,0,0,0,0,-1,1840,407,0,0
623,617,0,0,0,0,0,0,0,0,0,-1,1847,407,0,0
630,617,0,0,0,0,0,0,0,0,0,-1,1854,407,0,0
637,617,0,0,0,0,0,0,0,0,0,-1,1861,407,0,0
644,617,0,0,0,0,0,0,0,0,0,-1,1868,407,0,0
651,617,0,0,0,0,0,0,0,0,0,-1,1875,407,0,0
658,617,0,0,0,0,0,0,0,0,0,-1,1882,407,0,0
665,617,0,0,0,0,0,0,0,0,0,-1,1889,407,0,0
672,617,0,0,0,0,0,0,0,0,0,-1,1896,407,0,0
679,617,0,0,0,0,0,0,0,0,0,-1,1903,407,0,0
686,617,0,0,0,0,0,0,0,0,0,-1,1910,407,0,0
693,617,0,0,0,0,0,0,0,0,0,-1,1917,407,0,0
700,617,0,0,0,0,0,0,0,0,0,-1,1924,407,0,0
707,617,0,0,0,0,0,0,0,0,0,-1,1931,407,0,0
714,617,0,0,0,0,0,0,0,0,0,-1,1938,407,0,0
721,617,0,0,0,0,0,0,0,0,0,-1,1945,407,0,0
728,617,0,0,0,0,0,0,0,0,0,-1,1952,407,0,0
735,617,0,0,0,0,0,0,0,0,0,-1,1959,407,0,0
742,617,0,0,0,0,0,0,0,0,0,-1,1966,407,0,0
749,617,0,0,0,0,0,0,0,0,0,-1,1973,407,0,0
756,617,0,0,0,0,0,0,0,0,0,-1,1980,407,0,0
763,617,0,0,0,0,0,0,0,0,0,-1,1987,407,0,0
770,617,0,0,0,0,0,0,0,0,0,-1,1994,407,0,0
777,617,0,0,0,0,0,0,0,0,0,-1,2001,407,0,0
784,617,0,0,0,0,0,0,0,0,0,-1,2008,407,0,0
791,617,0,0,0,0,0,0,0,0,0,-1,2015,407,0,0
798,617,0,0,0,0,0,0,0,0,0,-1,2022,407,0,0
805,617,0,0,0,0,0,0,0,0,0,-1,2029,407,0,0
812,617,0,0,0,0,0,0,0,0,0,-1,2036,407,0,0
-700,610,0,0,0,0,0,0,0,0,0,-1,524,414,0,0
-693,610,0,0,0,0,0,0,0,0,0,-1,531,414,0,0
-686,610,0,0,0,0,0,0,0,0,0,-1,538,414,0,0
-679,610,0,0,0,0,0,0,0,0,0,-1,545,414,0,0
-672,610,0,0,0,0,0,0,0,0,0,-1,552,414,0,0
-665,610,0,0,0,0,0,0,0,0,0,-1,559,414,0,0
-658,610,0,0,0,0,0,0,0,0,0,-1,566,414,0,0
-651,610,0,0,0,0,0,0,0,0,0,-1,573,414,0,0
-644,610,0,0,0,0,0,0,0,0,0,-1,580,414,0,0
-637,610,0,0,0,0,0,0,0,0,0,-1,587,414,0,0
-630,610,0,0,0,0,0,0,0,0,0,-1,594,414,0,0
-623,610,0,0,0,0,0,0,0,0,0,-1,601,414,0,0
-616,610,0,0,0,0,0,0,0,0,0,-1,608,414,0,0
-609,610,0,0,0,0,0,0,0,0,0,-1,615,414,0,0
-602,610,0,0,0,0,0,0,0,0,0,-1,622,414,0,0
-595,610,0,0,0,0,0,0,0,0,0,-1,629,414,0,0
-588,610,0,0,0,0,0,0,0,0,0,-1,636,414,0,0
-581,610,0,0,0,0,0,0,0,0,0,-1,643,414,0,0
-574,610,0,0,0,0,0,0,0,0,0,-1,650,414,0,0
-567,610,0,0,0,0,0,0,0,0,0,-1,657,414,0,0
-560,610,0,0,0,0,0,0,0,0,0,-1,664,414,0,0
-553,610,0,0,0,0,0,0,0,0,0,-1,671,414,0,0
-546,610,0,0,0,0,0,0,0,0,0,-1,678,414,0,0
-539,610,0,0,0,0,0,0,0,0,0,-1,685,414,0,0
-532,610,0,0,0,0,0,0,0,0,0,-1,692,414,0,0
-525,610,0,0,0,0,0,0,0,0,0,-1,699,414,0,0
-518,610,0,0,0,0,0,0,0,0,0,-1,706,414,0,0
-511,610,0,0,0,0,0,0,0,0,0,-1,713,414,0,0
-504,610,0,0,0,0,0,0,0,0,0,-1,720,414,0,0
-497,610,0,0,0,0,0,0,0,0,0,-1,727,414,0,0
-490,610,0,0,0,0,0,0,0,0,0,-1,734,414,0,0
-483,610,0,0,0,0,0,0,0,0,0,-1,741,414,0,0
-476,610,0,0,0,0,0,0,0,0,0,-1,748,414,0,0
-469,610,0,0,0,0,0,0,0,0,0,-1,755,414,0,0
-462,610,0,0,0,0,0,0,0,0,0,-1,762,414,0,0
-455,610,0,0,0,0,0,0,0,0,0,-1,769,414,0,0
-448,610,0,0,0,0,0,0,0,0,0,-1,776,414,0,0
-441,610,0,0,0,0,0,0,0,0,0,-1,783,414,0,0
-434,610,0,0,0,0,0,0,0,0,0,-1,790,414,0,0
-427,610,0,0,0,0,0,0,0,0,0,-1,797,414,0,0
-420,610,0,0,0,0,0,0,0,0,0,-1,804,414,0,0
-413,610,0,0,0,0,0,0,0,0,0,-1,811,414,0,0
-406,610,0,0,0,0,0,0,0,0,0,-1,818,414,0,0
-399,610,0,0,0,0,0,0,0,0,0,-1,825,414,0,0
-392,610,0,0,0,0,0,0,0,0,0,-1,832,414,0,0
-385,610,0,0,0,0,0,0,0,0,0,-1,839,414,0,0
-378,610,0,0,0,0,0,0,0,0,0,-1,846,414,0,0
-371,610,0,0,0,0,0,0,0,0,0,-1,853,414,0,0
-364,610,0,0,0,0,0,0,0,0,0,-1,860,414,0,0
-357,610,0,0,0,0,0,0,0,0,0,-1,867,414,0,0
-350,610,0,0,0,0,0,0,0,0,0,-1,874,414,0,0
-343,610,0,0,0,0,0,0,0,0,0,-1,881,414,0,0
-336,610,0,0,0,0,0,0,0,0,0,-1,888,414,0,0
-329,610,0,0,0,0,0,0,0,0,0,-1,895,414,0,0
-322,610,0,0,0,0,0,0,0,0,0,-1,902,414,0,0
-315,610,5.08582,-8.12537,0,0,0,0,0,0,0,-1,909,414,5.0858,8.12536
-308,610,5.10077,-7.96866,0,0,0,0,0,0,0,-1,916,414,5.10077,7.96864
-301,610,4.89014,-7.88992,0,0,0,0,0,0,0,-1,923,414,4.89014,7.88993
-294,610,2.96265,-8.92026,0,0,0,0,0,0,0,-1,930,414,2.96264,8.92027
-287,610,1.91785,-9.43823,0,0,0,0,0,0,0,-1,937,414,1.91787,9.43822
-280,610,0.260254,-8.42371,0,0,0,0,0,0,0,-1,944,414,0.260239,8.4237
-273,610,3.42914,-8.40988,0,0,0,0,0,0,0,-1,951,414,3.42914,8.40987
-266,610,2.71216,-8.57318,-0.0165751,-0.0119036,-0.00484407,-0.00886151,-0.0196171,-1.01005,0.0113435,0.0445938,958,414,2.71215,8.57317
-259,610,1.96387,-8.76172,-0.016318,-0.0102505,-0.0020232,-0.00963773,-0.0169307,-1.27672,0.00980615,0.0420373,965,414,1.96387,8.76173
-252,610,1.79144,-8.32339,0,0,0,0,0,0,0,-1,972,414,1.79142,8.32338
-245,610,2.19788,-8.18906,-0.0122473,-0.00649094,0.00171825,-0.00601706,-0.0127212,1.3017,0.00734817,0.0466094,979,414,2.1979,8.18905
-238,610,2.0365,-8.36099,-0.0107657,-0.00606025,0.0036144,-0.0041003,-0.0127257,1.07391,0.00750041,0.0407256,986,414,2.03649,8.36098
-231,610,1.85504,-8.49084,-0.00940017,-0.00651295,0.00471937,-0.00302134,-0.0128918,0.933824,0.00778535,0.0340331,993,414,1.85506,8.49085
-224,610,1.81512,-8.71216,-0.00708944,-0.00590339,0.00473069,-0.0017287,-0.0112641,0.847751,0.00700465,0.0252746,1000,414,1.81515,8.71214
-217,610,1.84332,-8.87399,-0.00511922,-0.00555885,0.00318751,-0.00214396,-0.00853411,0.750972,0.00512644,0.0158375,1007,414,1.84332,8.87399
-210,610,1.82428,-9.00137,-0.0030111,-0.00538261,0.00167331,-0.002146,-0.0062477,0.477152,0.00366555,0.0103849,1014,414,1.82427,9.00138
-203,610,1.80072,-9.12399,-0.00118229,-0.00517473,0.000932485,-0.000975235,-0.00538179,0.218502,0.00331101,0.0126492,1021,414,1.80072,9.124
-196,610,1.80359,-9.28128,-0.000657062,-0.00583647,0.000151584,-0.000652629,-0.00584091,0.0292333,0.00369565,0.0138138,1028,414,1.8036,9.28129
-189,610,1.80688,-9.39703,-0.000185431,-0.00648271,-0.000594311,-0.000129833,-0.0065383,-0.0932784,0.00431624,0.0108378,1035,414,1.80684,9.39704
-182,610,1.79578,-9.51654,0.000238717,-0.00660518,-0.00115372,0.000427973,-0.00679443,-0.162592,0.00467881,0.0107915,1042,414,1.79575,9.51654
-175,610,1.78394,-9.6239,0.000595273,-0.0063855,-0.00146796,0.000891401,-0.00668163,-0.199057,0.00477934,0.0107032,1049,414,1.78397,9.62389
-168,610,1.77222,-9.73557,0.00084549,-0.00607633,-0.0016953,0.0012384,-0.00646924,-0.227744,0.00477941,0.0105384,1056,414,1.77224,9.73555
-161,610,1.74805,-9.89508,0.000989874,-0.00559337,-0.00178189,0.00144123,-0.00604473,-0.248086,0.00458634,0.010984,1063,414,1.7481,9.89507
-154,610,1.74414,-9.99133,0.00105622,-0.00508809,-0.00166019,0.00147611,-0.00550798,-0.247721,0.00425034,0.0129776,1070,414,1.74413,9.99134
-147,610,1.76416,-10.0786,0.00100247,-0.00443479,-0.00141826,0.00135017,-0.0047825,-0.240421,0.00372096,0.0137394,1077,414,1.76413,10.0786
-140,610,1.7594,-10.1721,0.000849838,-0.00363079,-0.00130462,0.00120202,-0.00398297,-0.263666,0.0031338,0.0107403,1084,414,1.75937,10.1721
-133,610,1.75854,-10.2556,0.000717247,-0.00278195,-0.00114285,0.00105743,-0.00312214,-0.289313,0.00250931,0.011911,1091,414,1.75857,10.2556
-126,610,1.75793,-10.3508,0.00053677,-0.00182418,-0.00103378,0.000925443,-0.00221285,-0.359623,0.00186202,0.0117112,1098,414,1.75799,10.3508
-119,610,1.72852,-10.4528,0.000253546,-0.00124737,-0.000893147,0.000669664,-0.00166349,-0.435998,0.00138718,0.0108041,1105,414,1.72855,10.4528
-112,610,1.74622,-10.5282,0.0001296,-0.000577165,-0.000717271,0.000575815,-0.00102338,-0.556512,0.000935272,0.017415,1112,414,1.74623,10.5282
-105,610,1.77795,-10.6158,8.21174e-05,7.86754e-05,-0.0007939,0.000874298,-0.000713505,-0.784314,0.000918284,0.016869,1119,414,1.77795,10.6158
-98,610,1.77124,-10.6953,0.000107034,0.000619634,-0.00100057,0.00139621,-0.000669544,-0.910779,0.00121701,0.0116737,1126,414,1.77125,10.6954
-91,610,1.76672,-10.7622,0.000284503,0.00104271,-0.00123332,0.00195388,-0.000626662,-0.934508,0.00155417,0.0126315,1133,414,1.76668,10.7622
-84,610,1.78418,-10.8418,0.000548733,0.00131928,-0.00131782,0.00230699,-0.00043898,-0.927612,0.00170328,0.0144495,1140,414,1.7842,10.8418
-77,610,1.79858,-10.9223,0.000768903,0.00146061,-0.00119671,0.00236044,-0.000130925,-0.926068,0.00161903,0.010592,1147,414,1.79859,10.9223
-70,610,1.81177,-10.9925,0.00104212,0.00157447,-0.000993261,0.00233661,0.00027999,-0.916313,0.0014733,0.0112058,1154,414,1.81176,10.9925
-63,610,1.80481,-11.037,0.00199107,0.000895191,-0.000379643,0.00210974,0.000776523,-0.302957,0.00123212,0.0107639,1161,414,1.80482,11.0371
-56,610,1.83069,-11.0665,0.00318326,0.000128622,0.000466191,0.00325282,5.90577e-05,0.148126,0.00214913,0.00914086,1168,414,1.83067,11.0665
-49,610,1.82874,-11.1237,0.00389637,-0.00130733,0.000888055,0.00404375,-0.00145471,0.164459,0.00328976,0.0100975,1175,414,1.82876,11.1237
-42,610,1.8075,-11.1962,0.00540463,-0.00242004,0.000957999,0.00552021,-0.00253562,0.120071,0.00475625,0.0143235,1182,414,1.80745,11.1962
-35,610,1.8197,-11.2267,0.00690257,-0.00410586,0.00185774,0.00720762,-0.00441091,0.162754,0.00677243,0.0146368,1189,414,1.81973,11.2267
-28,610,1.83936,-11.2628,0.00717177,-0.00543249,0.00301802,0.00785715,-0.00611787,0.223309,0.00808928,0.0121605,1196,414,1.83932,11.2628
-21,610,1.85779,-11.2881,0.0112163,-0.00598903,0.00325576,0.0118117,-0.0065845,0.1809,0.0107631,0.010526,1203,414,1.8578,11.2881
-14,610,1.86365,-11.2913,0.0130163,-0.00564524,0.00304074,0.0134993,-0.00612821,0.157515,0.0115952,0.0119052,1210,414,1.86363,11.2913
-7,610,1.88159,-11.292,0.0145517,-0.00379474,0.0023331,0.0148438,-0.00408679,0.124529,0.0115027,0.0131828,1217,414,1.88156,11.292
0,610,1.9054,-11.334,0.0152702,-0.00171773,0.00144163,0.0153917,-0.0018392,0.0840606,0.0109259,0.0103782,1224,414,1.9054,11.3339
7,610,1.91064,-11.3708,0.0149438,0.000597713,0.000167037,0.0149458,0.000595769,0.0116412,0.00977131,0.0113795,1231,414,1.91068,11.3708
14,610,1.92883,-11.3954,0.0141433,0.00281543,-0.00126959,0.0142839,0.00267489,-0.110254,0.00876802,0.0133088,1238,414,1.92887,11.3954
21,610,1.95288,-11.4158,0.0131431,0.0055271,-0.00276236,0.0140395,0.00463069,-0.313788,0.00826073,0.0113136,1245,414,1.95283,11.4158
28,610,1.96655,-11.4366,0.0120814,0.00724446,-0.00433806,0.0146296,0.00469625,-0.531108,0.0086249,0.0111789,1252,414,1.96649,11.4366
35,610,2.00903,-11.4377,0.0106693,0.00909092,-0.00585992,0.0157929,0.00396728,-0.718463,0.00948686,0.0147286,1259,414,2.00899,11.4377
42,610,2.02234,-11.424,0.00903726,0.0109869,-0.00748581,0.0175611,0.00246306,-0.850144,0.0109789,0.0143349,1266,414,2.02231,11.4241
49,610,2.01208,-11.4381,0.00830548,0.0120067,-0.00880208,0.0191506,0.00116158,-0.889013,0.012398,0.0147698,1273,414,2.01209,11.4381
56,610,2.02393,-11.44,0.00820536,0.0126924,-0.00989236,0.0205925,0.000305325,-0.89691,0.0136277,0.013275,1280,414,2.02391,11.44
63,610,2.05237,-11.419,0.00894213,0.0130584,-0.010962,0.0221538,-0.000153262,-0.878194,0.0148206,0.0144268,1287,414,2.05237,11.419
70,610,2.10571,-11.3915,0.0114307,0.0138503,-0.0121331,0.0248338,0.000447182,-0.83509,0.0164088,0.0193299,1294,414,2.10573,11.3915
77,610,2.12012,-11.4028,0.014311,0.0141197,-0.0128587,0.0270744,0.00135623,-0.781679,0.017615,0.02747,1301,414,2.1201,11.4028
84,610,2.07373,-11.3679,0.0161864,0.0142274,-0.0131602,0.0284036,0.00201027,-0.748254,0.0183024,0.0293125,1308,414,2.07371,11.3679
91,610,2.09998,-11.3597,0.0191101,0.013535,-0.0129562,0.0295752,0.00306986,-0.679439,0.0187774,0.0243092,1315,414,2.09994,11.3597
98,610,2.13245,-11.3427,0.02144,0.0123529,-0.0124846,0.0301822,0.00361081,-0.610882,0.0190324,0.0228004,1322,414,2.13247,11.3427
105,610,2.13513,-11.3091,0.0233584,0.0117465,-0.0119291,0.0308194,0.0042855,-0.558919,0.0192772,0.0179683,1329,414,2.13515,11.309
112,610,2.14575,-11.2766,0.0248745,0.0111035,-0.0111993,0.0311357,0.00484231,-0.509777,0.0193461,0.0121813,1336,414,2.14579,11.2766
119,610,2.12805,-11.1983,0.0248959,0.0102128,-0.0102728,0.0301809,0.00492789,-0.47515,0.0186957,0.017818,1343,414,2.12809,11.1983
126,610,2.125,-11.131,0.0233672,0.00832857,-0.00915163,0.0276924,0.00400337,-0.441501,0.0172824,0.0253933,1350,414,2.125,11.131
133,610,2.1842,-11.0929,0.0206171,0.00689161,-0.00780718,0.024149,0.00335967,-0.424845,0.0151045,0.0195233,1357,414,2.18416,11.0929
140,610,2.22095,-11.0685,0.0174802,0.00454052,-0.00633392,0.0200645,0.00195623,-0.387392,0.0127743,0.0146812,1364,414,2.22094,11.0685
147,610,2.19629,-11.0154,0.0143114,0.0020527,-0.00470938,0.0159117,0.000452423,-0.327565,0.0104603,0.0155214,1371,414,2.19626,11.0154
154,610,2.21362,-10.9573,0.0108434,0.000247149,-0.00337723,0.0118283,-0.000737704,-0.283747,0.00814255,0.0210376,1378,414,2.21363,10.9573
161,610,2.26294,-10.8828,0.00773996,-0.00127514,-0.00225959,0.00827461,-0.00180979,-0.23234,0.00620823,0.025653,1385,414,2.26295,10.8828
168,610,2.27905,-10.8075,0.00454342,-0.00215175,-0.00114609,0.00473417,-0.00234251,-0.164928,0.00416277,0.0245659,1392,414,2.27907,10.8075
175,610,2.26318,-10.7311,0.000672188,-0.00304896,-0.000382333,0.000711065,-0.00308783,-0.101335,0.002332,0.0199406,1399,414,2.26323,10.7311
182,610,2.27686,-10.6704,-0.000422085,-0.00266669,-0.000422434,-0.000345216,-0.00274356,-0.179998,0.00172552,0.0149509,1406,414,2.2769,10.6704
189,610,2.29333,-10.5949,-0.000307111,-0.00190293,-0.000384632,-0.000219243,-0.0019908,-0.224593,0.00126049,0.0134908,1413,414,2.29338,10.5949
196,610,2.2937,-10.5267,0.000119391,-0.000877463,-0.00027258,0.000189057,-0.000947129,-0.250222,0.000702964,0.0140636,1420,414,2.29371,10.5267
203,610,2.29712,-10.4425,0.000443882,2.64198e-05,-0.000265574,0.000572935,-0.000102634,-0.452338,0.000420365,0.0148757,1427,414,2.29716,10.4425
210,610,2.2959,-10.3587,0.000493598,0.000757817,-0.00027709,0.000932679,0.000318736,-1.00785,0.0005474,0.0106128,1434,414,2.2959,10.3587
217,610,2.28137,-10.2344,0.000429312,0.00123811,-9.36919e-05,0.00124883,0.0004186,-1.45696,0.000733949,0.0158966,1441,414,2.28135,10.2344
224,610,2.27466,-10.1519,0.000414059,0.00148976,0.000149592,0.00151018,0.000393644,1.43516,0.000904584,0.0194962,1448,414,2.27466,10.1519
231,610,2.31458,-10.0819,0.000414977,0.00165207,0.000386961,0.00176314,0.000303908,1.29128,0.00108836,0.0154766,1455,414,2.31455,10.0819
238,610,2.3396,-9.96387,0.000436542,0.00173629,0.000556377,0.00194192,0.000230909,1.21677,0.00122492,0.0110495,1462,414,2.33965,9.96386
245,610,2.33667,-9.83279,0.000448209,0.0017027,0.000622401,0.00195909,0.000191814,1.18003,0.00124705,0.0124508,1469,414,2.33668,9.8328
252,610,2.3219,-9.7276,0.000455824,0.00166604,0.000651108,0.00194981,0.000172059,1.1598,0.00124648,0.0141645,1476,414,2.32188,9.72761
259,610,2.32361,-9.60532,0.000543474,0.00155589,0.000733949,0.00194127,0.000158095,1.08729,0.00124483,0.0127201,1483,414,2.32361,9.60531
266,610,2.32898,-9.48416,0.000607638,0.00136153,0.000965829,0.00202137,-5.21953e-05,0.97145,0.00136531,0.0130508,1490,414,2.32896,9.48417
273,610,2.32153,-9.36981,0.000685942,0.00133184,0.00138717,0.00243315,-0.000415377,0.899766,0.00177682,0.00990098,1497,414,2.32148,9.3698
280,610,2.31519,-9.24277,0.000896994,0.00117769,0.00183118,0.00287389,-0.000799214,0.823645,0.00223058,0.00949196,1504,414,2.31513,9.24278
287,610,2.31384,-9.10443,0.00109669,0.00108378,0.00239177,0.00348201,-0.00130154,0.784049,0.00285582,0.0129807,1511,414,2.31387,9.10444
294,610,2.33057,-8.98203,0.00133736,0.00110984,0.00305289,0.0042786,-0.00183141,0.766775,0.0036207,0.0107171,1518,414,2.33055,8.98204
301,610,2.34021,-8.86664,0.00158265,0.00111384,0.00381045,0.00516589,-0.00246941,0.754678,0.00449895,0.00968525,1525,414,2.34021,8.86662
308,610,2.34558,-8.71597,0.0018511,0.00124967,0.00469306,0.00625306,-0.0031523,0.753404,0.00552768,0.0115769,1532,414,2.34556,8.71597
315,610,2.3114,-8.55936,0.00205173,0.00127457,0.00544495,0.00712195,-0.00379565,0.749776,0.00640006,0.0128985,1539,414,2.31144,8.55935
322,610,2.27502,-8.42615,0.00220315,0.00138551,0.0061058,0.0079138,-0.00432513,0.75197,0.00716669,0.0130377,1546,414,2.27497,8.42616
329,610,2.27319,-8.26837,0.00222634,0.00153452,0.00666524,0.00855463,-0.00479378,0.759473,0.007808,0.011488,1553,414,2.27318,8.26836
336,610,2.31079,-8.06897,0.00203819,0.0017966,0.00697976,0.0088982,-0.00506341,0.776746,0.00816146,0.0125415,1560,414,2.31075,8.06897
343,610,2.31653,-7.91678,0.00179726,0.0021424,0.00709345,0.00906538,-0.00512572,0.79756,0.00829781,0.0248341,1567,414,2.31647,7.91678
350,610,2.30762,-7.85852,0.00148852,0.00244621,0.00706676,0.00905033,-0.0051156,0.819227,0.0082832,0.0426943,1574,414,2.30765,7.85851
357,610,2.44031,-7.4444,0,0,0,0,0,0,0,-1,1581,414,2.4403,7.4444
364,610,2.3313,-7.42169,0,0,0,0,0,0,0,-1,1588,414,2.33133,7.4217
371,610,2.45178,-7.16864,0,0,0,0,0,0,0,-1,1595,414,2.45175,7.16864
378,610,2.34436,-7.36685,0,0,0,0,0,0,0,-1,1602,414,2.34438,7.36686
385,610,2.23279,-6.93307,0,0,0,0,0,0,0,-1,1609,414,2.23276,6.93308
392,610,2.54626,0.0437622,0,0,0,0,0,0,0,-1,1616,414,2.54632,-0.0437683
399,610,3.03833,-2.82547,0,0,0,0,0,0,0,-1,1623,414,3.03827,2.82546
406,610,2.91687,-2.9166,0,0,0,0,0,0,0,-1,1630,414,2.91688,2.91659
413,610,3.01929,-3.20306,0,0,0,0,0,0,0,-1,1637,414,3.01929,3.20306
420,610,4.78149,-3.64041,0,0,0,0,0,0,0,-1,1644,414,4.78152,3.64042
427,610,5.20764,-4.67545,0,0,0,0,0,0,0,-1,1651,414,5.20759,4.67545
434,610,5.39233,-5.45441,0,0,0,0,0,0,0,-1,1658,414,5.39228,5.4544
441,610,0,0,0,0,0,0,0,0,0,-1,1665,414,0,0
448,610,0,0,0,0,0,0,0,0,0,-1,1672,414,0,0
455,610,0,0,0,0,0,0,0,0,0,-1,1679,414,0,0
462,610,0,0,0,0,0,0,0,0,0,-1,1686,414,0,0
469,610,0,0,0,0,0,0,0,0,0,-1,1693,414,0,0
476,610,0,0,0,0,0,0,0,0,0,-1,1700,414,0,0
483,610,0,0,0,0,0,0,0,0,0,-1,1707,414,0,0
490,610,0,0,0,0,0,0,0,0,0,-1,1714,414,0,0
497,610,0,0,0,0,0,0,0,0,0,-1,1721,414,0,0
504,610,0,0,0,0,0,0,0,0,0,-1,1728,414,0,0
511,610,0,0,0,0,0,0,0,0,0,-1,1735,414,0,0
518,610,0,0,0,0,0,0,0,0,0,-1,1742,414,0,0
525,610,0,0,0,0,0,0,0,0,0,-1,1749,414,0,0
532,610,0,0,0,0,0,0,0,0,0,-1,1756,414,0,0
539,610,0,0,0,0,0,0,0,0,0,-1,1763,414,0,0
546,610,0,0,0,0,0,0,0,0,0,-1,1770,414,0,0
553,610,0,0,0,0,0,0,0,0,0,-1,1777,414,0,0
560,610,0,0,0,0,0,0,0,0,0,-1,1784,414,0,0
567,610,0,0,0,0,0,0,0,0,0,-1,1791,414,0,0
574,610,0,0,0,0,0,0,0,0,0,-1,1798,414,0,0
581,610,0,0,0,0,0,0,0,0,0,-1,1805,414,0,0
588,610,0,0,0,0,0,0,0,0,0,-1,1812,414,0,0
595,610,0,0,0,0,0,0,0,0,0,-1,1819,414,0,0
602,610,0,0,0,0,0,0,0,0,0,-1,1826,414,0,0
609,610,0,0,0,0,0,0,0,0,0,-1,1833,414,0,0
616,610,0,0,0,0,0,0,0,0,0,-1,1840,414,0,0
623,610,0,0,0,0,0,0,0,0,0,-1,1847,414,0,0
630,610,0,0,0,0,0,0,0,0,0,-1,1854,414,0,0
637,610,0,0,0,0,0,0,0,0,0,-1,1861,414,0,0
644,610,0,0,0,0,0,0,0,0,0,-1,1868,414,0,0
651,610,0,0,0,0,0,0,0,0,0,-1,1875,414,0,0
658,610,0,0,0,0,0,0,0,0,0,-1,1882,414,0,0
665,610,0,0,0,0,0,0,0,0,0,-1,1889,414,0,0
672,610,0,0,0,0,0,0,0,0,0,-1,1896,414,0,0
679,610,0,0,0,0,0,0,0,0,0,-1,1903,414,0,0
686,610,0,0,0,0,0,0,0,0,0,-1,1910,414,0,0
693,610,0,0,0,0,0,0,0,0,0,-1,1917,414,0,0
700,610,0,0,0,0,0,0,0,0,0,-1,1924,414,0,0
707,610,0,0,0,0,0,0,0,0,0,-1,1931,414,0,0
714,610,0,0,0,0,0,0,0,0,0,-1,1938,414,0,0
721,610,0,0,0,0,0,0,0,0,0,-1,1945,414,0,0
728,610,0,0,0,0,0,0,0,0,0,-1,1952,414,0,0
735,610,0,0,0,0,0,0,0,0,0,-1,1959,414,0,0
742,610,0,0,0,0,0,0,0,0,0,-1,1966,414,0,0
749,610,0,0,0,0,0,0,0,0,0,-1,1973,414,0,0
756,610,0,0,0,0,0,0,0,0,0,-1,1980,414,0,0
763,610,0,0,0,0,0,0,0,0,0,-1,1987,414,0,0
770,610,0,0,0,0,0,0,0,0,0,-1,1994,414,0,0
777,610,0,0,0,0,0,0,0,0,0,-1,2001,414,0,0
784,610,0,0,0,0,0,0,0,0,0,-1,2008,414,0,0
791,610,0,0,0,0,0,0,0,0,0,-1,2015,414,0,0
798,610,0,0,0,0,0,0,0,0,0,-1,2022,414,0,0
805,610,0,0,0,0,0,0,0,0,0,-1,2029,414,0,0
812,610,0,0,0,0,0,0,0,0,0,-1,2036,414,0,0
-700,603,0,0,0,0,0,0,0,0,0,-1,524,421,0,0
-693,603,0,0,0,0,0,0,0,0,0,-1,531,421,0,0
-686,603,0,0,0,0,0,0,0,0,0,-1,538,421,0,0
-679,603,0,0,0,0,0,0,0,0,0,-1,545,421,0,0
-672,603,0,0,0,0,0,0,0,0,0,-1,552,421,0,0
-665,603,0,0,0,0,0,0,0,0,0,-1,559,421,0,0
-658,603,0,0,0,0,0,0,0,0,0,-1,566,421,0,0
-651,603,0,0,0,0,0,0,0,0,0,-1,573,421,0,0
-644,603,0,0,0,0,0,0,0,0,0,-1,580,421,0,0
-637,603,0,0,0,0,0,0,0,0,0,-1,587,421,0,0
-630,603,0,0,0,0,0,0,0,0,0,-1,594,421,0,0
-623,603,0,0,0,0,0,0,0,0,0,-1,601,421,0,0
-616,603,0,0,0,0,0,0,0,0,0,-1,608,421,0,0
-609,603,0,0,0,0,0,0,0,0,0,-1,615,421,0,0
-602,603,0,0,0,0,0,0,0,0,0,-1,622,421,0,0
-595,603,0,0,0,0,0,0,0,0,0,-1,629,421,0,0
-588,603,0,0,0,0,0,0,0,0,0,-1,636,421,0,0
-581,603,0,0,0,0,0,0,0,0,0,-1,643,421,0,0
-574,603,0,0,0,0,0,0,0,0,0,-1,650,421,0,0
-567,603,0,0,0,0,0,0,0,0,0,-1,657,421,0,0
-560,603,0,0,0,0,0,0,0,0,0,-1,664,421,0,0
-553,603,0,0,0,0,0,0,0,0,0,-1,671,421,0,0
-546,603,0,0,0,0,0,0,0,0,0,-1,678,421,0,0
-539,603,0,0,0,0,0,0,0,0,0,-1,685,421,0,0
-532,603,0,0,0,0,0,0,0,0,0,-1,692,421,0,0
-525,603,0,0,0,0,0,0,0,0,0,-1,699,421,0,0
-518,603,0,0,0,0,0,0,0,0,0,-1,706,421,0,0
-511,603,0,0,0,0,0,0,0,0,0,-1,713,421,0,0
-504,603,0,0,0,0,0,0,0,0,0,-1,720,421,0,0
-497,603,0,0,0,0,0,0,0,0,0,-1,727,421,0,0
-490,603,0,0,0,0,0,0,0,0,0,-1,734,421,0,0
-483,603,0,0,0,0,0,0,0,0,0,-1,741,421,0,0
-476,603,0,0,0,0,0,0,0,0,0,-1,748,421,0,0
-469,603,0,0,0,0,0,0,0,0,0,-1,755,421,0,0
-462,603,0,0,0,0,0,0,0,0,0,-1,762,421,0,0
-455,603,0,0,0,0,0,0,0,0,0,-1,769,421,0,0
-448,603,0,0,0,0,0,0,0,0,0,-1,776,421,0,0
-441,603,0,0,0,0,0,0,0,0,0,-1,783,421,0,0
-434,603,0,0,0,0,0,0,0,0,0,-1,790,421,0,0
-427,603,0,0,0,0,0,0,0,0,0,-1,797,421,0,0
-420,603,0,0,0,0,0,0,0,0,0,-1,804,421,0,0
-413,603,0,0,0,0,0,0,0,0,0,-1,811,421,0,0
-406,603,0,0,0,0,0,0,0,0,0,-1,818,421,0,0
-399,603,0,0,0,0,0,0,0,0,0,-1,825,421,0,0
-392,603,0,0,0,0,0,0,0,0,0,-1,832,421,0,0
-385,603,0,0,0,0,0,0,0,0,0,-1,839,421,0,0
-378,603,0,0,0,0,0,0,0,0,0,-1,846,421,0,0
-371,603,0,0,0,0,0,0,0,0,0,-1,853,421,0,0
-364,603,0,0,0,0,0,0,0,0,0,-1,860,421,0,0
-357,603,0,0,0,0,0,0,0,0,0,-1,867,421,0,0
-350,603,0,0,0,0,0,0,0,0,0,-1,874,421,0,0
-343,603,0,0,0,0,0,0,0,0,0,-1,881,421,0,0
-336,603,0,0,0,0,0,0,0,0,0,-1,888,421,0,0
-329,603,-0.281372,-9.72894,0,0,0,0,0,0,0,-1,895,421,-0.281389,9.72894
-322,603,3.12054,-8.90198,0,0,0,0,0,0,0,-1,902,421,3.12057,8.90198
-315,603,3.60059,-8.64035,0,0,0,0,0,0,0,-1,909,421,3.60056,8.64036
-308,603,3.69904,-8.42126,0,0,0,0,0,0,0,-1,916,421,3.69901,8.42128
-301,603,3.51367,-8.64993,0,0,0,0,0,0,0,-1,923,421,3.51368,8.64993
-294,603,0.227234,-6.6185,0,0,0,0,0,0,0,-1,930,421,0.227213,6.61849
-287,603,0.729309,-7.06635,0,0,0,0,0,0,0,-1,937,421,0.729318,7.06635
-280,603,0.57959,-8.59814,0,0,0,0,0,0,0,-1,944,421,0.579607,8.59814
-273,603,1.745,-7.60077,0,0,0,0,0,0,0,-1,951,421,1.74501,7.60076
-266,603,2.04132,-8.4537,-0.00976452,-0.00761781,-0.00498696,-0.00359001,-0.0137923,-0.891397,0.00826241,0.0446276,958,421,2.0413,8.4537
-259,603,1.92279,-8.31198,-0.0101834,-0.00681837,-0.00254908,-0.0054466,-0.0115552,-1.0771,0.00667504,0.042246,965,421,1.9228,8.31198
-252,603,1.68103,-8.23395,-0.0096856,-0.00548183,-0.000872598,-0.0053079,-0.00985953,-1.37405,0.00569798,0.0380226,972,421,1.68105,8.23396
-245,603,1.67676,-8.41171,-0.00834173,-0.0044189,0.000661609,-0.00431033,-0.00845031,1.40813,0.00487912,0.030234,979,421,1.67676,8.41171
-238,603,1.74176,-8.44357,-0.00765281,-0.00403132,0.00220296,-0.00299043,-0.0086937,1.12939,0.00510011,0.0188114,986,421,1.74176,8.44358
-231,603,1.71588,-8.59113,-0.00678273,-0.00414967,0.00302812,-0.00216427,-0.00876813,0.990455,0.00527416,0.013427,993,421,1.71591,8.59114
-224,603,1.68323,-8.76242,-0.00512345,-0.0036176,0.00295845,-0.00131777,-0.00742329,0.910003,0.00457333,0.0134362,1000,421,1.68325,8.76241
-217,603,1.68768,-8.87521,-0.00388265,-0.00333232,0.00239296,-0.00119876,-0.00601621,0.842642,0.00367695,0.0116944,1007,421,1.68768,8.87522
-210,603,1.69208,-9.00281,-0.00251424,-0.0031198,0.00158079,-0.00120749,-0.00442655,0.690777,0.00264216,0.00984686,1014,421,1.69206,9.00281
-203,603,1.68909,-9.14905,-0.00136428,-0.00291019,0.00127324,-0.00064774,-0.00362673,0.512596,0.00223344,0.015333,1021,421,1.68907,9.14903
-196,603,1.7124,-9.31122,-0.00119928,-0.00338434,0.00100431,-0.000807808,-0.00377581,0.371676,0.00229581,0.0176342,1028,421,1.71241,9.31122
-189,603,1.7074,-9.42456,-0.0010901,-0.0038918,0.000695871,-0.000926783,-0.00405511,0.230522,0.00245354,0.0141802,1035,421,1.70744,9.42457
-182,603,1.67554,-9.54376,-0.000911005,-0.00401519,0.000503847,-0.000831273,-0.00409492,0.156946,0.00249937,0.0102843,1042,421,1.67557,9.54375
-175,603,1.65845,-9.65167,-0.000748443,-0.00388965,0.000472557,-0.000678892,-0.0039592,0.14613,0.00244479,0.0105074,1049,421,1.65848,9.65167
-168,603,1.6438,-9.71725,-0.000621195,-0.00376017,0.000389161,-0.000573668,-0.00380769,0.121526,0.00237049,0.0135211,1056,421,1.64382,9.71726
-161,603,1.63855,-9.85236,-0.000538324,-0.00358026,0.000170363,-0.000528813,-0.00358977,0.0557723,0.00223783,0.0136164,1063,421,1.6385,9.85235
-154,603,1.64795,-10.0032,-0.000422899,-0.00337234,0.0001278,-0.000417372,-0.00337787,0.0432222,0.00212648,0.0124371,1070,421,1.6479,10.0032
-147,603,1.66248,-10.0912,-0.000307334,-0.00307186,9.97096e-05,-0.000303743,-0.00307545,0.0360052,0.00195693,0.0124891,1077,421,1.66252,10.0912
-140,603,1.68042,-10.1675,-0.000213358,-0.00267945,-0.000106521,-0.000208765,-0.00268404,-0.0430875,0.00172399,0.0106711,1084,421,1.68043,10.1675
-133,603,1.66516,-10.2445,-5.90948e-05,-0.0022586,-0.000320078,-1.34627e-05,-0.00230423,-0.141611,0.00153169,0.0114441,1091,421,1.66512,10.2445
-126,603,1.65588,-10.3299,4.71805e-05,-0.00178891,-0.000627376,0.000241075,-0.0019828,-0.299744,0.00140912,0.0110369,1098,421,1.65589,10.3299
-119,603,1.66626,-10.4431,0.000123912,-0.00155408,-0.000937919,0.000543331,-0.0019735,-0.420506,0.00152929,0.0114387,1105,421,1.66627,10.4431
-112,603,1.66113,-10.5352,0.000314278,-0.00112479,-0.00126029,0.00104598,-0.00185649,-0.526015,0.00169738,0.0156064,1112,421,1.6611,10.5352
-105,603,1.68945,-10.6277,0.00052753,-0.000688353,-0.00164982,0.00167786,-0.00183868,-0.608873,0.00203098,0.0148562,1119,421,1.68941,10.6278
-98,603,1.68665,-10.6848,0.000737838,-0.000233664,-0.00207355,0.00238177,-0.0018776,-0.670342,0.00246488,0.0116585,1126,421,1.68668,10.6848
-91,603,1.6853,-10.7413,0.000995008,0.000262815,-0.00242473,0.00308113,-0.00182331,-0.710472,0.00286245,0.00830829,1133,421,1.68527,10.7413
-84,603,1.71643,-10.8373,0.00120649,0.000661075,-0.00259695,0.00354501,-0.00167745,-0.733084,0.00307878,0.00887412,1140,421,1.71641,10.8373
-77,603,1.72473,-10.925,0.00140756,0.00103294,-0.00240109,0.00362863,-0.00118813,-0.746472,0.0028975,0.0102234,1147,421,1.72469,10.925
-70,603,1.75903,-11.0758,0.00168551,0.00137083,-0.00208483,0.00361893,-0.000562584,-0.747735,0.00262036,0.022609,1154,421,1.75905,11.0758
-63,603,1.78174,-11.2373,0.00302003,0.000227702,-0.000877007,0.00327263,-2.48959e-05,-0.280432,0.0021901,0.0428123,1161,421,1.78173,11.2373
-56,603,1.80188,-11.4277,0,0,0,0,0,0,0,-1,1168,421,1.80187,11.4277
-49,603,1.79126,-11.1193,0,0,0,0,0,0,0,-1,1175,421,1.79124,11.1193
-42,603,1.77686,-11.1676,0,0,0,0,0,0,0,-1,1182,421,1.77689,11.1676
-35,603,1.71533,-11.2209,0.010348,-0.00901758,0.00412109,0.0111885,-0.0098581,0.201194,0.0121593,0.0388247,1189,421,1.71537,11.2209
-28,603,1.72046,-11.246,0.00987983,-0.0109415,0.00608972,0.0115301,-0.0125918,0.26464,0.0139313,0.0235124,1196,421,1.72042,11.246
-21,603,1.76086,-11.2842,0.0151647,-0.0114411,0.00653065,0.0166813,-0.0129576,0.228179,0.017157,0.0201611,1203,421,1.76092,11.2842
-14,603,1.84766,-11.2812,0.0171748,-0.010969,0.00634509,0.0185391,-0.0123334,0.211804,0.0179439,0.0199622,1210,421,1.8476,11.2812
-7,603,1.91699,-11.3139,0.0187043,-0.00841507,0.00545856,0.0197618,-0.00947253,0.191355,0.0172234,0.021547,1217,421,1.91699,11.3139
0,603,1.88831,-11.364,0.019039,-0.00519851,0.00412659,0.0197223,-0.00588183,0.164099,0.0154857,0.0252807,1224,421,1.88835,11.364
7,603,1.87427,-11.3714,0.0181105,-0.00153611,0.00226502,0.0183683,-0.00179386,0.113308,0.0128851,0.0313166,1231,421,1.8743,11.3714
14,603,1.93518,-11.3358,0.0164982,0.0020593,0.000143194,0.0164996,0.00205788,0.0099159,0.010382,0.0287396,1238,421,1.93513,11.3357
21,603,1.95276,-11.3494,0.0147038,0.00623637,-0.00201719,0.0151598,0.00578037,-0.222318,0.00883437,0.0206837,1245,421,1.95274,11.3494
28,603,2.02576,-11.412,0.0128959,0.00909696,-0.00427958,0.0156786,0.00631425,-0.576538,0.00910895,0.0232187,1252,421,2.02581,11.412
35,603,2.05408,-11.4036,0.0107849,0.0121126,-0.00652116,0.0180036,0.00489386,-0.836123,0.0107491,0.0318516,1259,421,2.0541,11.4036
42,603,2.06653,-11.3873,0.00851509,0.0151518,-0.00887901,0.0213123,0.00235462,-0.964227,0.013492,0.0272032,1266,421,2.06648,11.3873
49,603,2.01917,-11.4202,0.00753392,0.0169644,-0.0107832,0.0240182,0.00048007,-0.991508,0.0158545,0.0148537,1273,421,2.01913,11.4202
56,603,2.02722,-11.3965,0.00757072,0.0182925,-0.0123791,0.0264217,-0.000558446,-0.989737,0.0178035,0.026842,1280,421,2.0272,11.3965
63,603,2.16418,-11.2992,0.00870783,0.0188864,-0.0137106,0.0284217,-0.000827538,-0.963113,0.0192296,0.0356926,1287,421,2.16417,11.2992
70,603,2.39648,-11.2746,0.0121649,0.0197677,-0.0150126,0.0314527,0.000479817,-0.909399,0.0208104,0.0400614,1294,421,2.39644,11.2746
77,603,2.51196,-11.4151,0.016523,0.0199454,-0.0158344,0.0341607,0.00230762,-0.839223,0.0220449,0.0447262,1301,421,2.51193,11.4151
84,603,3.65601,-11.3471,0,0,0,0,0,0,0,-1,1308,421,3.65602,11.3471
91,603,2.01709,-11.4684,0.0239202,0.0186479,-0.0155283,0.0370345,0.00553359,-0.701319,0.0230674,0.0452314,1315,421,2.0171,11.4684
98,603,2.04504,-11.4134,0.0275555,0.0169077,-0.0147399,0.0379035,0.00655977,-0.612094,0.0233911,0.0457663,1322,421,2.045,11.4134
105,603,2.41077,-11.3051,0.0306893,0.0158419,-0.0138517,0.0389812,0.00754997,-0.539405,0.0238721,0.0370576,1329,421,2.41079,11.3052
112,603,2.23596,-11.2691,0.0332376,0.0147249,-0.0127605,0.0397455,0.00821705,-0.471617,0.024227,0.0315295,1336,421,2.23601,11.2691
119,603,2.51929,-11.1894,0,0,0,0,0,0,0,-1,1343,421,2.51924,11.1894
126,603,2.41138,-11.1404,0,0,0,0,0,0,0,-1,1350,421,2.41135,11.1404
133,603,2.27673,-11.0998,0.0291332,0.00895091,-0.00825671,0.0320807,0.00600349,-0.342874,0.0196934,0.0351271,1357,421,2.27671,11.0998
140,603,2.33533,-11.0401,0.025477,0.00593795,-0.00640332,0.0273885,0.00402646,-0.290094,0.0170758,0.0216381,1364,421,2.3353,11.0401
147,603,2.27441,-10.9917,0.0215796,0.0027692,-0.0044147,0.0225642,0.00178462,-0.219431,0.0144846,0.0171214,1371,421,2.27447,10.9917
154,603,2.27393,-10.9583,0.0173236,0.000450613,-0.00288515,0.0178033,-2.90852e-05,-0.164758,0.0118786,0.0266966,1378,421,2.27396,10.9583
161,603,2.30188,-10.8799,0.0132007,-0.00147283,-0.00174931,0.0134063,-0.00167849,-0.117031,0.00954637,0.0295524,1385,421,2.3019,10.8799
168,603,2.33826,-10.7984,0.00885194,-0.00243025,-0.000650913,0.00888937,-0.00246768,-0.0574398,0.00689755,0.0278488,1392,421,2.33822,10.7984
175,603,2.42627,-10.7126,0.00280334,-0.0035375,-1.53002e-05,0.00280337,-0.00353754,-0.00241294,0.0036691,0.0303538,1399,421,2.42625,10.7126
182,603,2.49316,-10.6327,-0.000138237,-0.00310712,-0.000367978,-9.33078e-05,-0.00315205,-0.121496,0.00207097,0.0350359,1406,421,2.49312,10.6327
189,603,2.46753,-10.5441,-0.000603306,-0.00213544,-0.000492077,-0.000458879,-0.00227986,-0.285487,0.00139239,0.0300471,1413,421,2.46757,10.5441
196,603,2.39929,-10.4453,5.85098e-05,-0.000745533,-0.000390086,0.000216656,-0.00090368,-0.385166,0.00068617,0.0220152,1420,421,2.39934,10.4453
203,603,2.38831,-10.4008,0.000608427,0.000493497,-0.000438087,0.000992801,0.000109122,-0.720184,0.000628658,0.0118088,1427,421,2.38834,10.4008
210,603,2.38586,-10.3613,0.000763776,0.00141869,-0.000549581,0.00173097,0.000451493,-1.05407,0.00103679,0.00984921,1434,421,2.38592,10.3613
217,603,2.38232,-10.2461,0.000724818,0.00204447,-0.000343264,0.00212842,0.000640869,-1.33094,0.00126083,0.0128438,1441,421,2.38231,10.2461
224,603,2.37866,-10.1469,0.000747193,0.0023257,-4.10747e-05,0.00232677,0.000746125,-1.5448,0.00137186,0.016372,1448,421,2.37862,10.1469
231,603,2.40051,-10.0641,0.000768658,0.00249716,0.000241999,0.0025304,0.000735416,1.43429,0.00150301,0.0143158,1455,421,2.40046,10.0641
238,603,2.43433,-9.94647,0.00082893,0.00255552,0.000438203,0.00266037,0.000724083,1.33594,0.00158823,0.0104603,1462,421,2.43436,9.94647
245,603,2.44666,-9.82874,0.00086607,0.00241918,0.000498133,0.00256521,0.000720034,1.28562,0.00152778,0.0109735,1469,421,2.44662,9.82875
252,603,2.44116,-9.73471,0.00085547,0.00227009,0.000504678,0.00243168,0.00069388,1.26093,0.00144641,0.0101694,1476,421,2.44119,9.7347
259,603,2.43762,-9.6218,0.000840558,0.00202732,0.000530194,0.00222968,0.000638197,1.20619,0.00132595,0.0106962,1483,421,2.43758,9.6218
266,603,2.42664,-9.49689,0.000818554,0.00172561,0.000606488,0.00202939,0.000514775,1.10644,0.00121815,0.0118652,1490,421,2.42658,9.4969
273,603,2.44287,-9.3862,0.000809429,0.00145982,0.000786811,0.00198599,0.000283258,0.98136,0.0012404,0.010646,1497,421,2.44289,9.3862
280,603,2.453,-9.24109,0.000861424,0.00118246,0.00102451,0.00205895,-1.50702e-05,0.863105,0.00137768,0.0119485,1504,421,2.45298,9.2411
287,603,2.46692,-9.08755,0.000935286,0.000997614,0.00136193,0.00232873,-0.000395834,0.796837,0.00169987,0.0115705,1511,421,2.46693,9.08754
294,603,2.46704,-8.9809,0.00104783,0.000912821,0.00177304,0.00275465,-0.000793997,0.766371,0.00215052,0.00979723,1518,421,2.46705,8.9809
301,603,2.46667,-8.84717,0.00115333,0.00081214,0.00227428,0.00326341,-0.00129794,0.747963,0.00271376,0.0115458,1525,421,2.46664,8.84716
308,603,2.47742,-8.70724,0.00131383,0.000865688,0.00290962,0.00400799,-0.00182847,0.746969,0.00344711,0.0170925,1532,421,2.47741,8.70726
315,603,2.46204,-8.5719,0.00147021,0.00089137,0.00346368,0.00465654,-0.00229496,0.743716,0.00408992,0.0161136,1539,421,2.46201,8.5719
322,603,2.41748,-8.42511,0.00158777,0.00100508,0.0039551,0.00526224,-0.00266939,0.748633,0.00466018,0.0156793,1546,421,2.41754,8.4251
329,603,2.41101,-8.26062,0.00160566,0.00115616,0.00438073,0.0057674,-0.00300558,0.759768,0.00514807,0.0111947,1553,421,2.41102,8.26063
336,603,2.43506,-8.11063,0.00146241,0.00139261,0.00463569,0.00606333,-0.00320831,0.781634,0.00543692,0.00951589,1560,421,2.43508,8.11063
343,603,2.44434,-7.96835,0.00126068,0.00170106,0.00475473,0.00624069,-0.00327896,0.808536,0.00558413,0.011704,1567,421,2.44439,7.96836
350,603,2.42297,-7.82779,0.00101168,0.00197763,0.00477369,0.00629272,-0.00330341,0.835814,0.00562922,0.0183927,1574,421,2.423,7.8278
357,603,2.43066,-7.59961,0.000601056,0.00231797,0.00470309,0.00624031,-0.00332128,0.87567,0.00560548,0.0212631,1581,421,2.43063,7.59962
364,603,2.41125,-7.40683,-0.000109975,0.0028022,0.00450132,0.00607708,-0.00338486,0.941827,0.00553607,0.0198953,1588,421,2.41131,7.40684
371,603,2.47595,-7.24088,-0.000602118,0.00342798,0.00385953,0.00576682,-0.00294096,1.02598,0.00511492,0.022249,1595,421,2.47598,7.24089
378,603,2.49536,-7.10965,-0.00109564,0.00319388,0.00286066,0.00462451,-0.00252627,1.10707,0.00418733,0.0326629,1602,421,2.49539,7.10966
385,603,2.40833,-6.92242,-0.00228454,0.00373712,0.0026121,0.00471228,-0.0032597,1.21349,0.00462803,0.04536,1609,421,2.4083,6.92242
392,603,2.34912,-6.64026,0,0,0,0,0,0,0,-1,1616,421,2.34909,6.64027
399,603,2.38013,-5.37076,0,0,0,0,0,0,0,-1,1623,421,2.38016,5.37075
406,603,3.01917,-2.37219,0,0,0,0,0,0,0,-1,1630,421,3.01915,2.37219
413,603,2.38928,-2.41275,0,0,0,0,0,0,0,-1,1637,421,2.38926,2.41274
420,603,2.74866,-2.30066,0,0,0,0,0,0,0,-1,1644,421,2.74867,2.30065
427,603,7.11548,-3.35352,0,0,0,0,0,0,0,-1,1651,421,7.11549,3.35351
434,603,7.32153,-4.50525,0,0,0,0,0,0,0,-1,1658,421,7.32149,4.50525
441,603,3.18213,-0.250946,0,0,0,0,0,0,0,-1,1665,421,3.18212,0.250944
448,603,2.95667,-0.066925,0,0,0,0,0,0,0,-1,1672,421,2.95662,0.0669226
455,603,0,0,0,0,0,0,0,0,0,-1,1679,421,0,0
462,603,0,0,0,0,0,0,0,0,0,-1,1686,421,0,0
469,603,0,0,0,0,0,0,0,0,0,-1,1693,421,0,0
476,603,0,0,0,0,0,0,0,0,0,-1,1700,421,0,0
483,603,0,0,0,0,0,0,0,0,0,-1,1707,421,0,0
490,603,0,0,0,0,0,0,0,0,0,-1,1714,421,0,0
497,603,0,0,0,0,0,0,0,0,0,-1,1721,421,0,0
504,603,0,0,0,0,0,0,0,0,0,-1,1728,421,0,0
511,603,0,0,0,0,0,0,0,0,0,-1,1735,421,0,0
518,603,0,0,0,0,0,0,0,0,0,-1,1742,421,0,0
525,603,0,0,0,0,0,0,0,0,0,-1,1749,421,0,0
532,603,0,0,0,0,0,0,0,0,0,-1,1756,421,0,0
539,603,0,0,0,0,0,0,0,0,0,-1,1763,421,0,0
546,603,0,0,0,0,0,0,0,0,0,-1,1770,421,0,0
553,603,0,0,0,0,0,0,0,0,0,-1,1777,421,0,0
560,603,0,0,0,0,0,0,0,0,0,-1,1784,421,0,0
567,603,0,0,0,0,0,0,0,0,0,-1,1791,421,0,0
574,603,0,0,0,0,0,0,0,0,0,-1,1798,421,0,0
581,603,0,0,0,0,0,0,0,0,0,-1,1805,421,0,0
588,603,0,0,0,0,0,0,0,0,0,-1,1812,421,0,0
595,603,0,0,0,0,0,0,0,0,0,-1,1819,421,0,0
602,603,0,0,0,0,0,0,0,0,0,-1,1826,421,0,0
609,603,0,0,0,0,0,0,0,0,0,-1,1833,421,0,0
616,603,0,0,0,0,0,0,0,0,0,-1,1840,421,0,0
623,603,0,0,0,0,0,0,0,0,0,-1,1847,421,0,0
630,603,0,0,0,0,0,0,0,0,0,-1,1854,421,0,0
637,603,0,0,0,0,0,0,0,0,0,-1,1861,421,0,0
644,603,0,0,0,0,0,0,0,0,0,-1,1868,421,0,0
651,603,0,0,0,0,0,0,0,0,0,-1,1875,421,0,0
658,603,0,0,0,0,0,0,0,0,0,-1,1882,421,0,0
665,603,0,0,0,0,0,0,0,0,0,-1,1889,421,0,0
672,603,0,0,0,0,0,0,0,0,0,-1,1896,421,0,0
679,603,0,0,0,0,0,0,0,0,0,-1,1903,421,0,0
686,603,0,0,0,0,0,0,0,0,0,-1,1910,421,0,0
693,603,0,0,0,0,0,0,0,0,0,-1,1917,421,0,0
700,603,0,0,0,0,0,0,0,0,0,-1,1924,421,0,0
707,603,0,0,0,0,0,0,0,0,0,-1,1931,421,0,0
714,603,0,0,0,0,0,0,0,0,0,-1,1938,421,0,0
721,603,0,0,0,0,0,0,0,0,0,-1,1945,421,0,0
728,603,0,0,0,0,0,0,0,0,0,-1,1952,421,0,0
735,603,0,0,0,0,0,0,0,0,0,-1,1959,421,0,0
742,603,0,0,0,0,0,0,0,0,0,-1,1966,421,0,0
749,603,0,0,0,0,0,0,0,0,0,-1,1973,421,0,0
756,603,0,0,0,0,0,0,0,0,0,-1,1980,421,0,0
763,603,0,0,0,0,0,0,0,0,0,-1,1987,421,0,0
770,603,0,0,0,0,0,0,0,0,0,-1,1994,421,0,0
777,603,0,0,0,0,0,0,0,0,0,-1,2001,421,0,0
784,603,0,0,0,0,0,0,0,0,0,-1,2008,421,0,0
791,603,0,0,0,0,0,0,0,0,0,-1,2015,421,0,0
798,603,0,0,0,0,0,0,0,0,0,-1,2022,421,0,0
805,603,0,0,0,0,0,0,0,0,0,-1,2029,421,0,0
812,603,0,0,0,0,0,0,0,0,0,-1,2036,421,0,0
-700,596,0,0,0,0,0,0,0,0,0,-1,524,428,0,0
-693,596,0,0,0,0,0,0,0,0,0,-1,531,428,0,0
-686,596,0,0,0,0,0,0,0,0,0,-1,538,428,0,0
-679,596,0,0,0,0,0,0,0,0,0,-1,545,428,0,0
-672,596,0,0,0,0,0,0,0,0,0,-1,552,428,0,0
-665,596,0,0,0,0,0,0,0,0,0,-1,559,428,0,0
-658,596,0,0,0,0,0,0,0,0,0,-1,566,428,0,0
-651,596,0,0,0,0,0,0,0,0,0,-1,573,428,0,0
-644,596,0,0,0,0,0,0,0,0,0,-1,580,428,0,0
-637,596,0,0,0,0,0,0,0,0,0,-1,587,428,0,0
-630,596,0,0,0,0,0,0,0,0,0,-1,594,428,0,0
-623,596,0,0,0,0,0,0,0,0,0,-1,601,428,0,0
-616,596,0,0,0,0,0,0,0,0,0,-1,608,428,0,0
-609,596,0,0,0,0,0,0,0,0,0,-1,615,428,0,0
-602,596,0,0,0,0,0,0,0,0,0,-1,622,428,0,0
-595,596,0,0,0,0,0,0,0,0,0,-1,629,428,0,0
-588,596,0,0,0,0,0,0,0,0,0,-1,636,428,0,0
-581,596,0,0,0,0,0,0,0,0,0,-1,643,428,0,0
-574,596,0,0,0,0,0,0,0,0,0,-1,650,428,0,0
-567,596,0,0,0,0,0,0,0,0,0,-1,657,428,0,0
-560,596,0,0,0,0,0,0,0,0,0,-1,664,428,0,0
-553,596,0,0,0,0,0,0,0,0,0,-1,671,428,0,0
-546,596,0,0,0,0,0,0,0,0,0,-1,678,428,0,0
-539,596,0,0,0,0,0,0,0,0,0,-1,685,428,0,0
-532,596,0,0,0,0,0,0,0,0,0,-1,692,428,0,0
-525,596,0,0,0,0,0,0,0,0,0,-1,699,428,0,0
-518,596,0,0,0,0,0,0,0,0,0,-1,706,428,0,0
-511,596,0,0,0,0,0,0,0,0,0,-1,713,428,0,0
-504,596,0,0,0,0,0,0,0,0,0,-1,720,428,0,0
-497,596,0,0,0,0,0,0,0,0,0,-1,727,428,0,0
-490,596,0,0,0,0,0,0,0,0,0,-1,734,428,0,0
-483,596,0,0,0,0,0,0,0,0,0,-1,741,428,0,0
-476,596,0,0,0,0,0,0,0,0,0,-1,748,428,0,0
-469,596,0,0,0,0,0,0,0,0,0,-1,755,428,0,0
-462,596,0,0,0,0,0,0,0,0,0,-1,762,428,0,0
-455,596,0,0,0,0,0,0,0,0,0,-1,769,428,0,0
-448,596,0,0,0,0,0,0,0,0,0,-1,776,428,0,0
-441,596,0,0,0,0,0,0,0,0,0,-1,783,428,0,0
-434,596,0,0,0,0,0,0,0,0,0,-1,790,428,0,0
-427,596,0,0,0,0,0,0,0,0,0,-1,797,428,0,0
-420,596,0,0,0,0,0,0,0,0,0,-1,804,428,0,0
-413,596,0,0,0,0,0,0,0,0,0,-1,811,428,0,0
-406,596,0,0,0,0,0,0,0,0,0,-1,818,428,0,0
-399,596,0,0,0,0,0,0,0,0,0,-1,825,428,0,0
-392,596,0,0,0,0,0,0,0,0,0,-1,832,428,0,0
-385,596,0,0,0,0,0,0,0,0,0,-1,839,428,0,0
-378,596,0,0,0,0,0,0,0,0,0,-1,846,428,0,0
-371,596,0,0,0,0,0,0,0,0,0,-1,853,428,0,0
-364,596,0,0,0,0,0,0,0,0,0,-1,860,428,0,0
-357,596,0,0,0,0,0,0,0,0,0,-1,867,428,0,0
-350,596,0,0,0,0,0,0,0,0,0,-1,874,428,0,0
-343,596,0,0,0,0,0,0,0,0,0,-1,881,428,0,0
-336,596,1.89813,-9.66019,0,0,0,0,0,0,0,-1,888,428,1.89813,9.6602
-329,596,1.54865,-9.16202,0,0,0,0,0,0,0,-1,895,428,1.54866,9.16203
-322,596,1.10236,-8.44147,0,0,0,0,0,0,0,-1,902,428,1.10236,8.44147
-315,596,3.0094,-6.54013,0,0,0,0,0,0,0,-1,909,428,3.00938,6.54014
-308,596,1.93823,-8.72583,0,0,0,0,0,0,0,-1,916,428,1.93824,8.72582
-301,596,0.0245972,-5.97961,0,0,0,0,0,0,0,-1,923,428,0.0245914,5.97963
-294,596,0.379517,-6.58954,0.00522387,-0.000251715,-0.0157094,0.0184322,-0.0134601,-0.699126,0.0184875,0.0440468,930,428,0.379536,6.58955
-287,596,0.842468,-7.08838,0.00168345,-0.00135586,-0.012997,0.0132493,-0.0129217,-0.727201,0.0151103,0.0483155,937,428,0.842495,7.08838
-280,596,1.66364,-7.45224,0,0,0,0,0,0,0,-1,944,428,1.66362,7.45225
-273,596,1.6203,-7.63425,-0.00370852,-0.00395027,-0.00687385,0.00304552,-0.0107043,-0.776607,0.00833887,0.0440925,951,428,1.62027,7.63424
-266,596,1.56836,-7.88766,-0.00544351,-0.00469211,-0.0046924,-0.000360389,-0.00977523,-0.825346,0.00640007,0.0404447,958,428,1.56835,7.88766
-259,596,1.49921,-8.07001,-0.00611637,-0.00439849,-0.0027184,-0.00240656,-0.0081083,-0.93842,0.00480847,0.0329662,965,428,1.49921,8.07002
-252,596,1.58948,-8.19476,-0.00611329,-0.00364591,-0.00125854,-0.00311723,-0.00664196,-1.17311,0.00383714,0.0160283,972,428,1.5895,8.19476
-245,596,1.60516,-8.3288,-0.00548421,-0.00296842,-3.33302e-05,-0.00296798,-0.00548466,-1.55755,0.00317014,0.0119304,979,428,1.60516,8.32881
-238,596,1.59302,-8.46136,-0.00525508,-0.00274734,0.00120864,-0.00225965,-0.00574276,1.18728,0.00334057,0.011186,986,428,1.59301,8.46138
-231,596,1.5863,-8.60254,-0.00473683,-0.00270698,0.0018403,-0.00162029,-0.00582352,1.0374,0.0034707,0.0128179,993,428,1.5863,8.60255
-224,596,1.58167,-8.76346,-0.00355045,-0.00224822,0.00175128,-0.00103093,-0.00476773,0.963377,0.00289666,0.0131175,1000,428,1.58164,8.76344
-217,596,1.57281,-8.91418,-0.00253091,-0.00197571,0.00160567,-0.000623825,-0.0038828,0.870995,0.00240768,0.0136169,1007,428,1.57279,8.91418
-210,596,1.58618,-9.03275,-0.00143914,-0.0016877,0.00115642,-0.000400346,-0.0027265,0.731869,0.0017,0.0111194,1014,428,1.58619,9.03275
-203,596,1.56757,-9.1499,-0.000539954,-0.00145544,0.00108769,0.000182388,-0.00217778,0.586228,0.00151631,0.0130897,1021,428,1.56758,9.1499
-196,596,1.57813,-9.30151,-0.000349379,-0.00176752,0.00108871,0.000240809,-0.00235771,0.496756,0.00165792,0.0142002,1028,428,1.57807,9.30153
-189,596,1.5614,-9.41614,-0.000204534,-0.00211082,0.00109248,0.00029215,-0.00260751,0.426704,0.00184345,0.0120609,1035,428,1.56139,9.41613
-182,596,1.55139,-9.53351,-2.95432e-05,-0.00220531,0.00114423,0.000461417,-0.00269627,0.405318,0.00196942,0.0118567,1042,428,1.55143,9.5335
-175,596,1.55957,-9.64359,0.000119873,-0.00214681,0.00132051,0.000726702,-0.00275364,0.430762,0.00211993,0.0144197,1049,428,1.55957,9.64357
-168,596,1.56042,-9.72577,0.000215016,-0.00219226,0.00136497,0.000831236,-0.00280848,0.424062,0.00220232,0.0176146,1056,428,1.56041,9.72576
-161,596,1.54578,-9.85168,0.00017876,-0.00230559,0.00105598,0.000566948,-0.00269378,0.352277,0.00201165,0.0164073,1063,428,1.54572,9.85168
-154,596,1.54944,-9.99808,0.00018455,-0.00237878,0.000951251,0.000498988,-0.00269321,0.319245,0.00198285,0.0132189,1070,428,1.54946,9.99807
-147,596,1.57935,-10.0812,0.000201219,-0.00239997,0.00078174,0.000418077,-0.00261683,0.2706,0.00189931,0.0129606,1077,428,1.57937,10.0812
-140,596,1.59253,-10.1509,0.000220574,-0.00237736,0.000393715,0.00027893,-0.00243572,0.147148,0.00172433,0.0133495,1084,428,1.59252,10.1509
-133,596,1.55139,-10.2509,0.000286097,-0.00232944,-7.18825e-05,0.000288071,-0.00233141,-0.0274553,0.00165866,0.0141131,1091,428,1.55137,10.2509
-126,596,1.55896,-10.3304,0.000288814,-0.00228846,-0.000668262,0.000451782,-0.00245143,-0.2392,0.00180384,0.0112278,1098,428,1.55897,10.3304
-119,596,1.59106,-10.4512,0.000319631,-0.00230955,-0.00131423,0.000863896,-0.00285381,-0.39263,0.00224657,0.0139637,1105,428,1.5911,10.4512
-112,596,1.58862,-10.5287,0.000471455,-0.0020323,-0.00197796,0.00156041,-0.00312126,-0.503263,0.00275258,0.0144246,1112,428,1.58859,10.5287
-105,596,1.59949,-10.6132,0.000693151,-0.00170121,-0.00263567,0.00239079,-0.00339885,-0.572218,0.0033595,0.0141421,1119,428,1.59943,10.6132
-98,596,1.61914,-10.6639,0.000938523,-0.00120386,-0.00327899,0.00331685,-0.00358219,-0.627521,0.00398415,0.00984293,1126,428,1.61915,10.6639
-91,596,1.62964,-10.743,0.0012406,-0.00054598,-0.0038078,0.00425849,-0.00356387,-0.670185,0.00452217,0.0098108,1133,428,1.62968,10.743
-84,596,1.67432,-10.8802,0.00151033,7.5783e-05,-0.00413351,0.00498834,-0.00340222,-0.69949,0.00487306,0.0148987,1140,428,1.67436,10.8803
-77,596,1.6792,-10.9894,0.00179681,0.000710809,-0.00386084,0.00515265,-0.00264503,-0.715535,0.00457893,0.0282824,1147,428,1.67919,10.9894
-70,596,1.70776,-11.1845,0,0,0,0,0,0,0,-1,1154,428,1.70772,11.1846
-63,596,1.74414,-11.4966,0,0,0,0,0,0,0,-1,1161,428,1.74418,11.4966
-56,596,1.60107,-10.5827,0,0,0,0,0,0,0,-1,1168,428,1.60108,10.5827
-49,596,1.59473,-10.0393,0,0,0,0,0,0,0,-1,1175,428,1.59472,10.0393
-42,596,1.99585,-6.6246,0,0,0,0,0,0,0,-1,1182,428,1.99586,6.62459
-35,596,1.46143,-11.1465,0,0,0,0,0,0,0,-1,1189,428,1.46142,11.1465
-28,596,1.58069,-11.2224,0,0,0,0,0,0,0,-1,1196,428,1.58072,11.2224
-21,596,1.63574,-11.2445,0,0,0,0,0,0,0,-1,1203,428,1.63572,11.2445
-14,596,1.72461,-11.3056,0.0223351,-0.0183601,0.0100381,0.0246764,-0.0207015,0.22915,0.0262324,0.0456916,1210,428,1.7246,11.3056
-7,596,1.97034,-11.391,0.0239499,-0.0149187,0.0089351,0.0259055,-0.0168743,0.21547,0.0248817,0.0486225,1217,428,1.97036,11.391
0,596,2.06482,-11.4418,0,0,0,0,0,0,0,-1,1224,428,2.06488,11.4418
7,596,1.58862,-11.5783,0,0,0,0,0,0,0,-1,1231,428,1.58857,11.5783
14,596,1.67615,-11.5709,0.0204685,0.000620297,0.00165951,0.0206063,0.000482501,0.0828435,0.0135796,0.0416301,1238,428,1.67619,11.5709
21,596,2.0282,-11.2661,0.0177177,0.00677274,-0.00127156,0.0178634,0.00662695,-0.114153,0.0104273,0.0414748,1245,428,2.0282,11.2661
28,596,2.07129,-11.3763,0.0149329,0.0111876,-0.00428592,0.0177374,0.00838304,-0.579432,0.0102458,0.0425268,1252,428,2.07123,11.3763
35,596,1.78955,-11.5184,0.0118723,0.0157977,-0.0073141,0.0214078,0.00626211,-0.916481,0.0127096,0.0447502,1259,428,1.78959,11.5184
42,596,2.02832,-11.3,0.00874235,0.0204084,-0.0104934,0.026581,0.00256971,-1.03907,0.0169292,0.0446591,1266,428,2.02829,11.3
49,596,2.37268,-11.3809,0.00726225,0.0232995,-0.0130643,0.0306097,-4.79957e-05,-1.06064,0.0204225,0.0417029,1273,428,2.3727,11.3808
56,596,2.41248,-11.3094,0.00722039,0.0254343,-0.0151871,0.0340356,-0.00138096,-1.05548,0.0231645,0.0394091,1280,428,2.41245,11.3094
63,596,2.44934,-11.1139,0.00867284,0.0264088,-0.0168642,0.0365945,-0.00151284,-1.02745,0.0249159,0.0421719,1287,428,2.44929,11.1139
70,596,2.74731,-11.2623,0.0132139,0.0273654,-0.0183508,0.0399573,0.000622012,-0.969406,0.0264333,0.0438671,1294,428,2.74731,11.2623
77,596,3.15063,-11.2193,0.0192083,0.0273169,-0.0192385,0.0429237,0.00360152,-0.889248,0.027494,0.0456872,1301,428,3.15058,11.2193
84,596,3.67285,-11.0334,0.0232029,0.0267071,-0.0192523,0.0442869,0.00562312,-0.830777,0.0278402,0.0456558,1308,428,3.67279,11.0334
91,596,3.98218,-11.0154,0,0,0,0,0,0,0,-1,1315,428,3.98221,11.0154
98,596,1.95227,-11.4014,0.0349005,0.0223155,-0.0172761,0.0469944,0.0102216,-0.61075,0.0285393,0.0444909,1322,428,1.95229,11.4014
105,596,2.74805,-11.4587,0.0394754,0.0206156,-0.0159846,0.0486043,0.0114867,-0.518905,0.0293335,0.0428206,1329,428,2.74805,11.4587
112,596,3.07483,-11.4366,0.0432235,0.0188561,-0.0144308,0.0499261,0.0121536,-0.434815,0.0300632,0.0373165,1336,428,3.07488,11.4366
119,596,3.27722,-11.3819,0.0444622,0.016778,-0.0125797,0.0493244,0.0119158,-0.368829,0.0297183,0.0412513,1343,428,3.2772,11.3819
126,596,3.19763,-11.294,0.0427889,0.0134259,-0.0105362,0.0461783,0.0100365,-0.311238,0.0280452,0.04637,1350,428,3.19757,11.294
133,596,2.92493,-11.2547,0,0,0,0,0,0,0,-1,1357,428,2.9249,11.2547
140,596,2.49426,-10.9418,0.0350679,0.00711521,-0.00585783,0.0362458,0.00593727,-0.198442,0.0224481,0.041987,1364,428,2.49422,10.9418
147,596,2.37585,-10.8512,0.0304344,0.00325488,-0.00336449,0.0308447,0.00284459,-0.121348,0.0196836,0.0383841,1371,428,2.37584,10.8512
154,596,2.32422,-10.7937,0.025557,0.000521504,-0.00157195,0.0256553,0.000423188,-0.0624619,0.0169643,0.044283,1378,428,2.32417,10.7937
161,596,2.31018,-10.7437,0.0207288,-0.00161135,-0.000451444,0.0207379,-0.00162048,-0.0201967,0.0143959,0.0455504,1385,428,2.31016,10.7437
168,596,2.33057,-10.6403,0,0,0,0,0,0,0,-1,1392,428,2.33061,10.6403
175,596,2.59119,-10.5659,0,0,0,0,0,0,0,-1,1399,428,2.59124,10.5659
182,596,2.64832,-10.5276,0,0,0,0,0,0,0,-1,1406,428,2.64832,10.5277
189,596,2.54602,-10.5385,0,0,0,0,0,0,0,-1,1413,428,2.54607,10.5385
196,596,2.52124,-10.3151,0,0,0,0,0,0,0,-1,1420,428,2.52129,10.3151
203,596,2.479,-10.6462,0,0,0,0,0,0,0,-1,1427,428,2.47899,10.6462
210,596,2.47144,-10.3875,0.000876237,0.00217544,-0.0007644,0.00252898,0.000522699,-1.13759,0.00154158,0.0280542,1434,428,2.47148,10.3874
217,596,2.48071,-10.2682,0.000841686,0.00297286,-0.000549277,0.00310609,0.000708448,-1.33282,0.00187962,0.0113225,1441,428,2.48067,10.2682
224,596,2.50879,-10.165,0.00090374,0.00327884,-0.00019462,0.00329468,0.000887898,-1.48958,0.00196841,0.0112166,1448,428,2.50884,10.165
231,596,2.53271,-10.0594,0.000963225,0.00344359,0.000124317,0.00344981,0.000957009,1.52084,0.00205648,0.0117745,1455,428,2.53269,10.0595
238,596,2.54309,-9.93814,0.0010891,0.00345426,0.000334049,0.00350053,0.00104283,1.43314,0.00207533,0.0141335,1462,428,2.54308,9.93816
245,596,2.5603,-9.83701,0.00117672,0.00317238,0.000367569,0.00323793,0.00111117,1.39432,0.00189983,0.0126864,1469,428,2.56033,9.83701
252,596,2.55933,-9.7345,0.00117371,0.00289511,0.00034167,0.00296044,0.00110837,1.38185,0.0017271,0.0099404,1476,428,2.55933,9.73448
259,596,2.55725,-9.61633,0.00109912,0.00251015,0.000311556,0.00257588,0.00103339,1.36287,0.00149684,0.00893299,1483,428,2.55723,9.61635
266,596,2.54468,-9.49854,0.00103493,0.00209432,0.000254421,0.00215225,0.000976995,1.34691,0.00124436,0.0100537,1490,428,2.54471,9.49852
273,596,2.55591,-9.38074,0.00097674,0.00159769,0.000242754,0.00168132,0.000893102,1.239,0.000971342,0.0120584,1497,428,2.55592,9.38073
280,596,2.57544,-9.24625,0.000911923,0.00118093,0.000299102,0.00137438,0.000718473,0.996696,0.000793772,0.0129632,1504,428,2.57545,9.24625
287,596,2.59045,-9.10809,0.000890586,0.000902186,0.000447056,0.00134348,0.000449293,0.791885,0.000789708,0.0115367,1511,428,2.59046,9.10808
294,596,2.58069,-8.98203,0.000895274,0.000702115,0.000656544,0.0014623,0.000135086,0.71237,0.000933106,0.0086894,1518,428,2.58066,8.98203
301,596,2.58533,-8.84363,0.000868973,0.000472085,0.000948852,0.00163991,-0.000298853,0.682313,0.0012053,0.00999316,1525,428,2.58536,8.84363
308,596,2.60132,-8.69864,0.000925466,0.000421164,0.0013965,0.0020924,-0.000745767,0.696081,0.00169898,0.0163317,1532,428,2.60131,8.69865
315,596,2.58142,-8.56357,0.00104254,0.000428351,0.00182441,0.00258552,-0.00111463,0.702017,0.00219183,0.016541,1539,428,2.58145,8.56358
322,596,2.56543,-8.41061,0.00112401,0.0005299,0.00222164,0.00306837,-0.00141446,0.718938,0.00264623,0.0138415,1546,428,2.56545,8.41062
329,596,2.56299,-8.26953,0.00112639,0.000678328,0.00258967,0.0035017,-0.00169698,0.742251,0.00306115,0.0104545,1553,428,2.56298,8.26954
336,596,2.56738,-8.13507,0.0010128,0.000911425,0.00285795,0.00382051,-0.00189629,0.776531,0.00336234,0.00926111,1560,428,2.56741,8.13506
343,596,2.57434,-7.99344,0.000839617,0.00120826,0.00304018,0.0040697,-0.00202182,0.815676,0.00358258,0.0119246,1567,428,2.57429,7.99343
350,596,2.56274,-7.83365,0.000641301,0.00150382,0.00315975,0.0042616,-0.00211648,0.853222,0.00375117,0.0120288,1574,428,2.56271,7.83365
357,596,2.5498,-7.65555,0.000333038,0.00183256,0.00320737,0.00437663,-0.00221104,0.900217,0.00387129,0.00919594,1581,428,2.54986,7.65554
364,596,2.55383,-7.46225,-0.00015728,0.00225338,0.00316375,0.00443362,-0.00233752,0.9674,0.00397127,0.00868473,1588,428,2.55378,7.46225
371,596,2.56348,-7.29834,-0.000532947,0.00273018,0.00287464,0.00440399,-0.00220676,1.04351,0.00388636,0.00928716,1595,428,2.56342,7.29834
378,596,2.55615,-7.12247,-0.000965443,0.00269144,0.00238845,0.00387097,-0.00214497,1.11208,0.00352063,0.0139129,1602,428,2.55615,7.12246
385,596,2.59277,-6.91031,-0.00175136,0.00295191,0.00217219,0.00380162,-0.00260106,1.19792,0.00371819,0.024276,1609,428,2.59279,6.91032
392,596,2.52905,-6.70352,-0.00223282,0.00301955,0.00202839,0.00371168,-0.00292495,1.24196,0.00384063,0.0356955,1616,428,2.52906,6.70353
399,596,2.4574,-6.50226,0,0,0,0,0,0,0,-1,1623,428,2.45744,6.50224
406,596,2.42261,-6.35526,0,0,0,0,0,0,0,-1,1630,428,2.42257,6.35526
413,596,3.39124,-2.63528,0,0,0,0,0,0,0,-1,1637,428,3.39122,2.6353
420,596,2.6344,-3.06308,0,0,0,0,0,0,0,-1,1644,428,2.63439,3.06308
427,596,2.99329,-1.90512,0,0,0,0,0,0,0,-1,1651,428,2.99327,1.90512
434,596,3.80896,-0.253998,0,0,0,0,0,0,0,-1,1658,428,3.80902,0.254004
441,596,3.86401,-0.131622,0,0,0,0,0,0,0,-1,1665,428,3.86406,0.131613
448,596,1.0769,0.0083313,0,0,0,0,0,0,0,-1,1672,428,1.07684,-0.00832231
455,596,2.00769,-1.43329,0,0,0,0,0,0,0,-1,1679,428,2.00765,1.4333
462,596,0,0,0,0,0,0,0,0,0,-1,1686,428,0,0
469,596,0,0,0,0,0,0,0,0,0,-1,1693,428,0,0
476,596,0,0,0,0,0,0,0,0,0,-1,1700,428,0,0
483,596,0,0,0,0,0,0,0,0,0,-1,1707,428,0,0
490,596,0,0,0,0,0,0,0,0,0,-1,1714,428,0,0
497,596,0,0,0,0,0,0,0,0,0,-1,1721,428,0,0
504,596,0,0,0,0,0,0,0,0,0,-1,1728,428,0,0
511,596,0,0,0,0,0,0,0,0,0,-1,1735,428,0,0
518,596,0,0,0,0,0,0,0,0,0,-1,1742,428,0,0
525,596,0,0,0,0,0,0,0,0,0,-1,1749,428,0,0
532,596,0,0,0,0,0,0,0,0,0,-1,1756,428,0,0
539,596,0,0,0,0,0,0,0,0,0,-1,1763,428,0,0
546,596,0,0,0,0,0,0,0,0,0,-1,1770,428,0,0
553,596,0,0,0,0,0,0,0,0,0,-1,1777,428,0,0
560,596,0,0,0,0,0,0,0,0,0,-1,1784,428,0,0
567,596,0,0,0,0,0,0,0,0,0,-1,1791,428,0,0
574,596,0,0,0,0,0,0,0,0,0,-1,1798,428,0,0
581,596,0,0,0,0,0,0,0,0,0,-1,1805,428,0,0
588,596,0,0,0,0,0,0,0,0,0,-1,1812,428,0,0
595,596,0,0,0,0,0,0,0,0,0,-1,1819,428,0,0
602,596,0,0,0,0,0,0,0,0,0,-1,1826,428,0,0
609,596,0,0,0,0,0,0,0,0,0,-1,1833,428,0,0
616,596,0,0,0,0,0,0,0,0,0,-1,1840,428,0,0
623,596,0,0,0,0,0,0,0,0,0,-1,1847,428,0,0
630,596,0,0,0,0,0,0,0,0,0,-1,1854,428,0,0
637,596,0,0,0,0,0,0,0,0,0,-1,1861,428,0,0
644,596,0,0,0,0,0,0,0,0,0,-1,1868,428,0,0
651,596,0,0,0,0,0,0,0,0,0,-1,1875,428,0,0
658,596,0,0,0,0,0,0,0,0,0,-1,1882,428,0,0
665,596,0,0,0,0,0,0,0,0,0,-1,1889,428,0,0
672,596,0,0,0,0,0,0,0,0,0,-1,1896,428,0,0
679,596,0,0,0,0,0,0,0,0,0,-1,1903,428,0,0
686,596,0,0,0,0,0,0,0,0,0,-1,1910,428,0,0
693,596,0,0,0,0,0,0,0,0,0,-1,1917,428,0,0
700,596,0,0,0,0,0,0,0,0,0,-1,1924,428,0,0
707,596,0,0,0,0,0,0,0,0,0,-1,1931,428,0,0
714,596,0,0,0,0,0,0,0,0,0,-1,1938,428,0,0
721,596,0,0,0,0,0,0,0,0,0,-1,1945,428,0,0
728,596,0,0,0,0,0,0,0,0,0,-1,1952,428,0,0
735,596,0,0,0,0,0,0,0,0,0,-1,1959,428,0,0
742,596,0,0,0,0,0,0,0,0,0,-1,1966,428,0,0
749,596,0,0,0,0,0,0,0,0,0,-1,1973,428,0,0
756,596,0,0,0,0,0,0,0,0,0,-1,1980,428,0,0
763,596,0,0,0,0,0,0,0,0,0,-1,1987,428,0,0
770,596,0,0,0,0,0,0,0,0,0,-1,1994,428,0,0
777,596,0,0,0,0,0,0,0,0,0,-1,2001,428,0,0
784,596,0,0,0,0,0,0,0,0,0,-1,2008,428,0,0
791,596,0,0,0,0,0,0,0,0,0,-1,2015,428,0,0
798,596,0,0,0,0,0,0,0,0,0,-1,2022,428,0,0
805,596,0,0,0,0,0,0,0,0,0,-1,2029,428,0,0
812,596,0,0,0,0,0,0,0,0,0,-1,2036,428,0,0
-700,589,0,0,0,0,0,0,0,0,0,-1,524,435,0,0
-693,589,0,0,0,0,0,0,0,0,0,-1,531,435,0,0
-686,589,0,0,0,0,0,0,0,0,0,-1,538,435,0,0
-679,589,0,0,0,0,0,0,0,0,0,-1,545,435,0,0
-672,589,0,0,0,0,0,0,0,0,0,-1,552,435,0,0
-665,589,0,0,0,0,0,0,0,0,0,-1,559,435,0,0
-658,589,0,0,0,0,0,0,0,0,0,-1,566,435,0,0
-651,589,0,0,0,0,0,0,0,0,0,-1,573,435,0,0
-644,589,0,0,0,0,0,0,0,0,0,-1,580,435,0,0
-637,589,0,0,0,0,0,0,0,0,0,-1,587,435,0,0
-630,589,0,0,0,0,0,0,0,0,0,-1,594,435,0,0
-623,589,0,0,0,0,0,0,0,0,0,-1,601,435,0,0
-616,589,0,0,0,0,0,0,0,0,0,-1,608,435,0,0
-609,589,0,0,0,0,0,0,0,0,0,-1,615,435,0,0
-602,589,0,0,0,0,0,0,0,0,0,-1,622,435,0,0
-595,589,0,0,0,0,0,0,0,0,0,-1,629,435,0,0
-588,589,0,0,0,0,0,0,0,0,0,-1,636,435,0,0
-581,589,0,0,0,0,0,0,0,0,0,-1,643,435,0,0
-574,589,0,0,0,0,0,0,0,0,0,-1,650,435,0,0
-567,589,0,0,0,0,0,0,0,0,0,-1,657,435,0,0
-560,589,0,0,0,0,0,0,0,0,0,-1,664,435,0,0
-553,589,0,0,0,0,0,0,0,0,0,-1,671,435,0,0
-546,589,0,0,0,0,0,0,0,0,0,-1,678,435,0,0
-539,589,0,0,0,0,0,0,0,0,0,-1,685,435,0,0
-532,589,0,0,0,0,0,0,0,0,0,-1,692,435,0,0
-525,589,0,0,0,0,0,0,0,0,0,-1,699,435,0,0
-518,589,0,0,0,0,0,0,0,0,0,-1,706,435,0,0
-511,589,0,0,0,0,0,0,0,0,0,-1,713,435,0,0
-504,589,0,0,0,0,0,0,0,0,0,-1,720,435,0,0
-497,589,0,0,0,0,0,0,0,0,0,-1,727,435,0,0
-490,589,0,0,0,0,0,0,0,0,0,-1,734,435,0,0
-483,589,0,0,0,0,0,0,0,0,0,-1,741,435,0,0
-476,589,0,0,0,0,0,0,0,0,0,-1,748,435,0,0
-469,589,0,0,0,0,0,0,0,0,0,-1,755,435,0,0
-462,589,0,0,0,0,0,0,0,0,0,-1,762,435,0,0
-455,589,0,0,0,0,0,0,0,0,0,-1,769,435,0,0
-448,589,0,0,0,0,0,0,0,0,0,-1,776,435,0,0
-441,589,0,0,0,0,0,0,0,0,0,-1,783,435,0,0
-434,589,0,0,0,0,0,0,0,0,0,-1,790,435,0,0
-427,589,0,0,0,0,0,0,0,0,0,-1,797,435,0,0
-420,589,0,0,0,0,0,0,0,0,0,-1,804,435,0,0
-413,589,0,0,0,0,0,0,0,0,0,-1,811,435,0,0
-406,589,0,0,0,0,0,0,0,0,0,-1,818,435,0,0
-399,589,0,0,0,0,0,0,0,0,0,-1,825,435,0,0
-392,589,0,0,0,0,0,0,0,0,0,-1,832,435,0,0
-385,589,0,0,0,0,0,0,0,0,0,-1,839,435,0,0
-378,589,0,0,0,0,0,0,0,0,0,-1,846,435,0,0
-371,589,0,0,0,0,0,0,0,0,0,-1,853,435,0,0
-364,589,0,0,0,0,0,0,0,0,0,-1,860,435,0,0
-357,589,0,0,0,0,0,0,0,0,0,-1,867,435,0,0
-350,589,-0.262695,-13.5742,0,0,0,0,0,0,0,-1,874,435,-0.262715,13.5742
-343,589,0.187195,-13.2853,0,0,0,0,0,0,0,-1,881,435,0.187181,13.2853
-336,589,0.677856,-12.7685,0,0,0,0,0,0,0,-1,888,435,0.677838,12.7685
-329,589,-0.00494385,-7.86029,0,0,0,0,0,0,0,-1,895,435,-0.00491452,7.86029
-322,589,2.62915,-6.81024,0,0,0,0,0,0,0,-1,902,435,2.62917,6.81025
-315,589,2.45123,-6.57489,0,0,0,0,0,0,0,-1,909,435,2.45126,6.57489
-308,589,0.44989,-6.53186,0,0,0,0,0,0,0,-1,916,435,0.449907,6.53185
-301,589,0.583191,-5.95877,0,0,0,0,0,0,0,-1,923,435,0.583216,5.95878
-294,589,0.875916,-6.5683,0.00477608,0.000724685,-0.0114286,0.0143571,-0.00885637,-0.697685,0.0135272,0.0447845,930,435,0.875895,6.56829
-287,589,1.1568,-7.06848,0.00252064,0.000124581,-0.00989297,0.0112879,-0.00864263,-0.725142,0.0115406,0.0402302,937,435,1.15678,7.0685
-280,589,1.46924,-7.48141,0.000418515,-0.00101934,-0.00788559,0.00761788,-0.0082187,-0.739939,0.00914545,0.031219,944,435,1.46924,7.48143
-273,589,1.48389,-7.67419,-0.00137661,-0.00192053,-0.0057046,0.00406251,-0.00735965,-0.761579,0.00668554,0.0192368,951,435,1.48387,7.67421
-266,589,1.45129,-7.86487,-0.0027969,-0.00267274,-0.00417986,0.0014455,-0.00691514,-0.792824,0.00515986,0.0172783,958,435,1.45128,7.86487
-259,589,1.43616,-8.01874,-0.00346625,-0.00267643,-0.00264908,-0.000392978,-0.00574969,-0.859391,0.00370908,0.0156367,965,435,1.43617,8.01873
-252,589,1.46124,-8.17569,-0.00363667,-0.00232135,-0.00142476,-0.00140979,-0.00454823,-1.00163,0.0026884,0.0103086,972,435,1.46123,8.17568
-245,589,1.47119,-8.31607,-0.00339757,-0.00189266,-0.00048623,-0.00174923,-0.00354099,-1.28395,0.00204444,0.0103918,979,435,1.47121,8.31608
-238,589,1.466,-8.46289,-0.00337896,-0.00175734,0.000450299,-0.00164069,-0.00349561,1.31732,0.00201945,0.01414,986,435,1.46602,8.46289
-231,589,1.46405,-8.60733,-0.00299402,-0.00157476,0.000895847,-0.00114153,-0.00342724,1.12036,0.00201514,0.0147008,993,435,1.46404,8.60732
-224,589,1.45032,-8.77417,-0.00211556,-0.00114604,0.000777449,-0.000714604,-0.002547,1.06417,0.00151698,0.0139426,1000,435,1.45029,8.77416
-217,589,1.44531,-8.92053,-0.00132288,-0.000855411,0.000622434,-0.000424271,-0.00175402,0.965008,0.0010567,0.0149875,1007,435,1.44529,8.92054
-210,589,1.45325,-9.04791,-0.000511636,-0.000495201,0.000286619,-0.000216682,-0.000790156,0.799729,0.000471444,0.0137299,1014,435,1.45327,9.04793
-203,589,1.42871,-9.17648,0.000136327,-0.000236755,0.000273623,0.000280947,-0.000381374,0.486214,0.000383854,0.00986805,1021,435,1.42873,9.17649
-196,589,1.4093,-9.29709,0.000289401,-0.000402281,0.000396613,0.000469781,-0.000582661,0.426838,0.000608791,0.0128829,1028,435,1.40926,9.29709
-189,589,1.4104,-9.43597,0.000392701,-0.00061015,0.000617088,0.000686401,-0.00090385,0.44422,0.000920989,0.0161655,1035,435,1.4104,9.43598
-182,589,1.42627,-9.52124,0.000500291,-0.000679274,0.000863681,0.000956352,-0.00113533,0.48583,0.00120911,0.0129827,1042,435,1.42621,9.52124
-175,589,1.44141,-9.61871,0.000588937,-0.000699687,0.001251,0.0013518,-0.00146255,0.547595,0.00162528,0.0170221,1049,435,1.44141,9.61871
-168,589,1.46997,-9.74304,0.000630316,-0.000960677,0.00147126,0.00150737,-0.00183773,0.537564,0.00193443,0.0145058,1056,435,1.46999,9.74303
-161,589,1.45471,-9.86142,0.00047836,-0.00138051,0.00112663,0.00100945,-0.0019116,0.440507,0.00171307,0.0130116,1063,435,1.45466,9.86141
-154,589,1.45288,-9.9751,0.000389184,-0.00175143,0.00107694,0.000837214,-0.00219946,0.394243,0.00181107,0.012635,1070,435,1.45293,9.97511
-147,589,1.47913,-10.0787,0.000345894,-0.00211939,0.000889153,0.00063312,-0.00240662,0.312452,0.00185188,0.0125674,1077,435,1.47908,10.0787
-140,589,1.48682,-10.1604,0.000342363,-0.00246857,0.000402396,0.000398833,-0.00252504,0.139424,0.00183084,0.0138633,1084,435,1.4868,10.1604
-133,589,1.47083,-10.2436,0.000383533,-0.00277812,-0.000260223,0.000404807,-0.0027994,-0.0815743,0.0020148,0.0138693,1091,435,1.47077,10.2436
-126,589,1.48218,-10.3622,0.000367618,-0.00316447,-0.00113253,0.000699559,-0.00349641,-0.285111,0.00259574,0.0109043,1098,435,1.48216,10.3622
-119,589,1.51147,-10.4671,0.000418583,-0.00345642,-0.00213381,0.00136328,-0.00440111,-0.416789,0.00347871,0.0170257,1105,435,1.51152,10.4671
-112,589,1.51184,-10.5369,0.000590263,-0.00334556,-0.00318729,0.00236821,-0.00512351,-0.508832,0.00442178,0.0171742,1112,435,1.51182,10.5369
-105,589,1.52478,-10.6216,0.00083907,-0.00307629,-0.00422269,0.00353581,-0.00577303,-0.568341,0.00542595,0.0162664,1119,435,1.52477,10.6216
-98,589,1.57971,-10.6787,0.00110766,-0.00250117,-0.00520416,0.00481135,-0.00620485,-0.61852,0.00637715,0.0177554,1126,435,1.57977,10.6787
-91,589,1.60742,-10.7502,0.00144804,-0.00165786,-0.00606079,0.00615168,-0.0063615,-0.659982,0.00722482,0.02297,1133,435,1.60748,10.7502
-84,589,1.61816,-10.9116,0.00178918,-0.000884512,-0.0066641,0.0072492,-0.00634454,-0.68641,0.00785414,0.0309174,1140,435,1.6182,10.9116
-77,589,1.65356,-11.0066,0,0,0,0,0,0,0,-1,1147,435,1.65356,11.0066
-70,589,1.48267,-9.90961,0,0,0,0,0,0,0,-1,1154,435,1.48264,9.9096
-63,589,0.880127,-5.50586,0,0,0,0,0,0,0,-1,1161,435,0.880186,5.50587
-56,589,-2.78052,-7.28082,0,0,0,0,0,0,0,-1,1168,435,-2.78053,7.28082
-49,589,-0.525757,-2.76703,0,0,0,0,0,0,0,-1,1175,435,-0.525771,2.76702
-42,589,-2.7738,-2.87921,0,0,0,0,0,0,0,-1,1182,435,-2.77383,2.87922
-35,589,-2.55225,-3.27551,0,0,0,0,0,0,0,-1,1189,435,-2.55223,3.27552
-28,589,-0.0632324,-3.42938,0,0,0,0,0,0,0,-1,1196,435,-0.063241,3.42938
-21,589,1.13721,-10.2825,0,0,0,0,0,0,0,-1,1203,435,1.13723,10.2825
-14,589,1.61389,-11.3241,0,0,0,0,0,0,0,-1,1210,435,1.61387,11.3241
-7,589,2.01355,-11.4423,0,0,0,0,0,0,0,-1,1217,435,2.01356,11.4423
0,589,0.540894,-10.9789,0,0,0,0,0,0,0,-1,1224,435,0.540847,10.9788
7,589,0.792603,-11.3914,0.0274811,-0.00989497,0.00804683,0.0291399,-0.0115538,0.203297,0.0242148,0.0463272,1231,435,0.792617,11.3914
14,589,1.36365,-11.8697,0.0241377,-0.00202689,0.00415991,0.0247832,-0.00267235,0.153935,0.0174811,0.0481267,1238,435,1.36364,11.8697
21,589,1.78015,-11.2479,0.0201312,0.00669058,0.000270283,0.0201367,0.00668515,0.0200986,0.0118427,0.0437524,1245,435,1.7802,11.2479
28,589,1.85889,-11.4558,0.0160898,0.0131846,-0.0036725,0.0185865,0.0106879,-0.597071,0.0107711,0.0451804,1252,435,1.8589,11.4558
35,589,2.47668,-12.4632,0.0119073,0.019853,-0.00765902,0.0245083,0.00725209,-1.02465,0.0145375,0.0449195,1259,435,2.47668,12.4632
42,589,3.45081,-13.3448,0.00780741,0.0264883,-0.0118182,0.0322115,0.00208423,-1.11981,0.0208144,0.0444665,1266,435,3.45083,13.3448
49,589,2.65125,-11.3723,0,0,0,0,0,0,0,-1,1273,435,2.6512,11.3722
56,589,3.04993,-11.0697,0.00561511,0.0340515,-0.0179669,0.0427454,-0.00307882,-1.12012,0.0295767,0.0430514,1280,435,3.04997,11.0697
63,589,2.78003,-10.9043,0.00742633,0.0355333,-0.0200214,0.0459412,-0.00298155,-1.09141,0.0316681,0.0444319,1287,435,2.77999,10.9043
70,589,2.70483,-11.239,0.0131562,0.036539,-0.0216217,0.0494278,0.000267414,-1.03325,0.0328631,0.041983,1294,435,2.70486,11.239
77,589,3.37585,-11.1985,0,0,0,0,0,0,0,-1,1301,435,3.37583,11.1984
84,589,3.65125,-10.6115,0,0,0,0,0,0,0,-1,1308,435,3.6513,10.6115
91,589,3.97461,-10.5946,0,0,0,0,0,0,0,-1,1315,435,3.97458,10.5946
98,589,2.60229,-11.4583,0.0425509,0.0287774,-0.0195551,0.0563965,0.0149319,-0.616094,0.0337403,0.0439796,1322,435,2.60233,11.4584
105,589,2.97119,-11.5732,0.0489384,0.0262526,-0.0177518,0.0586618,0.0165292,-0.501107,0.0349271,0.0428083,1329,435,2.97117,11.5732
112,589,3.3606,-11.651,0.0541668,0.0236163,-0.0156115,0.0607331,0.01705,-0.398141,0.0361707,0.0397899,1336,435,3.36061,11.651
119,589,3.78613,-12.0931,0.0562092,0.0205997,-0.013081,0.060498,0.016311,-0.316815,0.0361434,0.0402385,1343,435,3.7861,12.0931
126,589,3.96851,-11.48,0.054481,0.016202,-0.0103327,0.0570921,0.013591,-0.247514,0.0344369,0.0480278,1350,435,3.96846,11.48
133,589,3.65076,-11.4736,0,0,0,0,0,0,0,-1,1357,435,3.65078,11.4736
140,589,2.62439,-10.7092,0.0456945,0.00806961,-0.00420487,0.0461587,0.0076054,-0.109951,0.0285767,0.0461957,1364,435,2.62444,10.7092
147,589,2.50488,-10.5599,0.0402174,0.00343143,-0.0011221,0.0402516,0.00339723,-0.0304656,0.0257767,0.0456282,1371,435,2.50484,10.5599
154,589,2.40613,-10.312,0.0347886,0.00024426,0.000958686,0.0348152,0.000217674,0.0277239,0.0231379,0.0454005,1378,435,2.40611,10.312
161,589,2.3175,-10.6598,0,0,0,0,0,0,0,-1,1385,435,2.31746,10.6598
168,589,2.98206,-10.2466,0,0,0,0,0,0,0,-1,1392,435,2.98202,10.2466
175,589,8.66992,-7.65527,0,0,0,0,0,0,0,-1,1399,435,8.66994,7.65528
182,589,3.8136,-2.45389,0,0,0,0,0,0,0,-1,1406,435,3.81363,2.4539
189,589,3.69983,-3.68149,0,0,0,0,0,0,0,-1,1413,435,3.69987,3.68147
196,589,3.31055,-5.31677,0,0,0,0,0,0,0,-1,1420,435,3.31059,5.31678
203,589,2.72559,-8.84338,0,0,0,0,0,0,0,-1,1427,435,2.72558,8.84338
210,589,2.50879,-10.3198,0,0,0,0,0,0,0,-1,1434,435,2.50878,10.3198
217,589,2.57507,-10.2018,0.000920545,0.00452189,-0.000552572,0.00460477,0.000837669,-1.42192,0.00283222,0.0260642,1441,435,2.57503,10.2018
224,589,2.61377,-10.1241,0.00106648,0.00484117,-0.000151709,0.00484725,0.00106039,-1.53069,0.00294243,0.0208641,1448,435,2.61371,10.1241
231,589,2.62183,-10.0761,0.00120223,0.00488956,0.00017913,0.00489824,0.00119355,1.52237,0.00294928,0.0196353,1455,435,2.62188,10.0761
238,589,2.61914,-9.98813,0.00140194,0.00474805,0.000363494,0.00478708,0.0013629,1.46383,0.00284795,0.0217183,1462,435,2.6192,9.98813
245,589,2.64417,-9.82883,0.001523,0.00415716,0.000304053,0.0041918,0.00148836,1.45736,0.00245379,0.0195047,1469,435,2.64418,9.82884
252,589,2.67737,-9.7207,0.00149576,0.00363144,0.000191848,0.00364854,0.00147866,1.48191,0.00211905,0.0130866,1476,435,2.67739,9.7207
259,589,2.6864,-9.61929,0.00133893,0.00300596,6.66153e-05,0.00300862,0.00133628,1.53092,0.00174064,0.00933793,1483,435,2.68635,9.6193
266,589,2.69141,-9.48932,0.00122395,0.0024028,-0.000140811,0.00241939,0.00120736,-1.45355,0.00139683,0.00919311,1490,435,2.69141,9.48932
273,589,2.69226,-9.38162,0.00110042,0.00160507,-0.000334367,0.00177163,0.000933854,-1.10863,0.00102335,0.0116998,1497,435,2.69229,9.38163
280,589,2.69983,-9.2623,0.000917246,0.00101478,-0.000429924,0.0013987,0.000533334,-0.841875,0.000815087,0.0129862,1504,435,2.69984,9.26229
287,589,2.70923,-9.1395,0.000812049,0.000641289,-0.000418959,0.00115424,0.000299099,-0.684879,0.000691696,0.0113918,1511,435,2.70927,9.1395
294,589,2.71436,-8.99658,0.000738348,0.000348639,-0.000347427,0.000941832,0.000145155,-0.52983,0.000585532,0.00937855,1518,435,2.7143,8.9966
301,589,2.72327,-8.84445,0.000580381,-1.85066e-05,-0.000225335,0.000655694,-9.3819e-05,-0.322553,0.000471524,0.00976677,1525,435,2.72333,8.84444
308,589,2.73474,-8.7023,0.000533989,-0.000151758,9.09624e-05,0.00054585,-0.000163619,0.12966,0.00042897,0.0100571,1532,435,2.73473,8.70231
315,589,2.73096,-8.56339,0.000592124,-0.000177344,0.000414848,0.00077318,-0.000358401,0.411521,0.000667788,0.0103999,1539,435,2.73093,8.56339
322,589,2.7301,-8.4252,0.000631216,-9.5405e-05,0.000739147,0.00109151,-0.000555704,0.556975,0.000967648,0.0113247,1546,435,2.73008,8.42521
329,589,2.73975,-8.27066,0.00062649,4.66525e-05,0.00106542,0.00144073,-0.000767587,0.652556,0.00129457,0.0104365,1553,435,2.73975,8.27067
336,589,2.73792,-8.12643,0.000563276,0.000274559,0.00135736,0.00178393,-0.000946093,0.732421,0.00160073,0.00960521,1560,435,2.73786,8.12644
343,589,2.72815,-7.98306,0.000449879,0.000574273,0.00161274,0.00212601,-0.00110186,0.804672,0.00189463,0.0111444,1567,435,2.72817,7.98307
350,589,2.70911,-7.84134,0.000347809,0.000915205,0.00184213,0.00249535,-0.00123234,0.861801,0.00219297,0.0165019,1574,435,2.70907,7.84134
357,589,2.71411,-7.66977,0.000185115,0.0012661,0.00201841,0.00281513,-0.00136392,0.916219,0.00246079,0.0125035,1581,435,2.71408,7.66977
364,589,2.73438,-7.47543,-8.92479e-05,0.00168398,0.00213462,0.00310879,-0.00151406,0.982233,0.00272142,0.00997084,1588,435,2.73433,7.47543
371,589,2.74133,-7.30103,-0.000314199,0.00210936,0.00210961,0.00333045,-0.00153529,1.04609,0.00287226,0.0104116,1595,435,2.74139,7.30104
378,589,2.72913,-7.14148,-0.000609012,0.00220734,0.00195235,0.00320636,-0.00160804,1.09783,0.0028302,0.0122691,1602,435,2.72909,7.14148
385,589,2.73169,-6.96954,-0.00109716,0.00236249,0.00183988,0.00315803,-0.00189269,1.16269,0.00294638,0.0150572,1609,435,2.73172,6.96954
392,589,2.70984,-6.77435,-0.00141982,0.00232345,0.00175029,0.00301434,-0.0021107,1.19484,0.00297424,0.0154281,1616,435,2.70985,6.77434
399,589,2.66064,-6.56989,-0.00169045,0.00246074,0.00165153,0.00303762,-0.00226733,1.23474,0.00307356,0.0198346,1623,435,2.66065,6.5699
406,589,2.63135,-6.36359,-0.00209225,0.00286092,0.0013706,0.00321489,-0.00244621,1.31806,0.00327847,0.0464905,1630,435,2.63139,6.36357
413,589,2.66455,-6.14639,0,0,0,0,0,0,0,-1,1637,435,2.66456,6.14638
420,589,2.79724,-5.79956,0,0,0,0,0,0,0,-1,1644,435,2.7973,5.79955
427,589,2.87976,-5.28177,0,0,0,0,0,0,0,-1,1651,435,2.87972,5.28177
434,589,2.52734,-2.73029,0,0,0,0,0,0,0,-1,1658,435,2.52736,2.73029
441,589,3.17639,-2.02435,0,0,0,0,0,0,0,-1,1665,435,3.17643,2.02435
448,589,0.453735,-3.2868,0,0,0,0,0,0,0,-1,1672,435,0.453701,3.28681
455,589,0.664307,-3.46848,0,0,0,0,0,0,0,-1,1679,435,0.66425,3.46846
462,589,3.46716,-4.41891,0,0,0,0,0,0,0,-1,1686,435,3.4672,4.41891
469,589,3.20557,-4.54208,0,0,0,0,0,0,0,-1,1693,435,3.20556,4.54207
476,589,0,0,0,0,0,0,0,0,0,-1,1700,435,0,0
483,589,0,0,0,0,0,0,0,0,0,-1,1707,435,0,0
490,589,0,0,0,0,0,0,0,0,0,-1,1714,435,0,0
497,589,0,0,0,0,0,0,0,0,0,-1,1721,435,0,0
504,589,0,0,0,0,0,0,0,0,0,-1,1728,435,0,0
511,589,0,0,0,0,0,0,0,0,0,-1,1735,435,0,0
518,589,0,0,0,0,0,0,0,0,0,-1,1742,435,0,0
525,589,0,0,0,0,0,0,0,0,0,-1,1749,435,0,0
532,589,0,0,0,0,0,0,0,0,0,-1,1756,435,0,0
539,589,0,0,0,0,0,0,0,0,0,-1,1763,435,0,0
546,589,0,0,0,0,0,0,0,0,0,-1,1770,435,0,0
553,589,0,0,0,0,0,0,0,0,0,-1,1777,435,0,0
560,589,0,0,0,0,0,0,0,0,0,-1,1784,435,0,0
567,589,0,0,0,0,0,0,0,0,0,-1,1791,435,0,0
574,589,0,0,0,0,0,0,0,0,0,-1,1798,435,0,0
581,589,0,0,0,0,0,0,0,0,0,-1,1805,435,0,0
588,589,0,0,0,0,0,0,0,0,0,-1,1812,435,0,0
595,589,0,0,0,0,0,0,0,0,0,-1,1819,435,0,0
602,589,0,0,0,0,0,0,0,0,0,-1,1826,435,0,0
609,589,0,0,0,0,0,0,0,0,0,-1,1833,435,0,0
616,589,0,0,0,0,0,0,0,0,0,-1,1840,435,0,0
623,589,0,0,0,0,0,0,0,0,0,-1,1847,435,0,0
630,589,0,0,0,0,0,0,0,0,0,-1,1854,435,0,0
637,589,0,0,0,0,0,0,0,0,0,-1,1861,435,0,0
644,589,0,0,0,0,0,0,0,0,0,-1,1868,435,0,0
651,589,0,0,0,0,0,0,0,0,0,-1,1875,435,0,0
658,589,0,0,0,0,0,0,0,0,0,-1,1882,435,0,0
665,589,0,0,0,0,0,0,0,0,0,-1,1889,435,0,0
672,589,0,0,0,0,0,0,0,0,0,-1,1896,435,0,0
679,589,0,0,0,0,0,0,0,0,0,-1,1903,435,0,0
686,589,0,0,0,0,0,0,0,0,0,-1,1910,435,0,0
693,589,0,0,0,0,0,0,0,0,0,-1,1917,435,0,0
700,589,0,0,0,0,0,0,0,0,0,-1,1924,435,0,0
707,589,0,0,0,0,0,0,0,0,0,-1,1931,435,0,0
714,589,0,0,0,0,0,0,0,0,0,-1,1938,435,0,0
721,589,0,0,0,0,0,0,0,0,0,-1,1945,435,0,0
728,589,0,0,0,0,0,0,0,0,0,-1,1952,435,0,0
735,589,0,0,0,0,0,0,0,0,0,-1,1959,435,0,0
742,589,0,0,0,0,0,0,0,0,0,-1,1966,435,0,0
749,589,0,0,0,0,0,0,0,0,0,-1,1973,435,0,0
756,589,0,0,0,0,0,0,0,0,0,-1,1980,435,0,0
763,589,0,0,0,0,0,0,0,0,0,-1,1987,435,0,0
770,589,0,0,0,0,0,0,0,0,0,-1,1994,435,0,0
777,589,0,0,0,0,0,0,0,0,0,-1,2001,435,0,0
784,589,0,0,0,0,0,0,0,0,0,-1,2008,435,0,0
791,589,0,0,0,0,0,0,0,0,0,-1,2015,435,0,0
798,589,0,0,0,0,0,0,0,0,0,-1,2022,435,0,0
805,589,0,0,0,0,0,0,0,0,0,-1,2029,435,0,0
812,589,0,0,0,0,0,0,0,0,0,-1,2036,435,0,0
-700,582,0,0,0,0,0,0,0,0,0,-1,524,442,0,0
-693,582,0,0,0,0,0,0,0,0,0,-1,531,442,0,0
-686,582,0,0,0,0,0,0,0,0,0,-1,538,442,0,0
-679,582,0,0,0,0,0,0,0,0,0,-1,545,442,0,0
-672,582,0,0,0,0,0,0,0,0,0,-1,552,442,0,0
-665,582,0,0,0,0,0,0,0,0,0,-1,559,442,0,0
-658,582,0,0,0,0,0,0,0,0,0,-1,566,442,0,0
-651,582,0,0,0,0,0,0,0,0,0,-1,573,442,0,0
-644,582,0,0,0,0,0,0,0,0,0,-1,580,442,0,0
-637,582,0,0,0,0,0,0,0,0,0,-1,587,442,0,0
-630,582,0,0,0,0,0,0,0,0,0,-1,594,442,0,0
-623,582,0,0,0,0,0,0,0,0,0,-1,601,442,0,0
-616,582,0,0,0,0,0,0,0,0,0,-1,608,442,0,0
-609,582,0,0,0,0,0,0,0,0,0,-1,615,442,0,0
-602,582,0,0,0,0,0,0,0,0,0,-1,622,442,0,0
-595,582,0,0,0,0,0,0,0,0,0,-1,629,442,0,0
-588,582,0,0,0,0,0,0,0,0,0,-1,636,442,0,0
-581,582,0,0,0,0,0,0,0,0,0,-1,643,442,0,0
-574,582,0,0,0,0,0,0,0,0,0,-1,650,442,0,0
-567,582,0,0,0,0,0,0,0,0,0,-1,657,442,0,0
-560,582,0,0,0,0,0,0,0,0,0,-1,664,442,0,0
-553,582,0,0,0,0,0,0,0,0,0,-1,671,442,0,0
-546,582,0,0,0,0,0,0,0,0,0,-1,678,442,0,0
-539,582,0,0,0,0,0,0,0,0,0,-1,685,442,0,0
-532,582,0,0,0,0,0,0,0,0,0,-1,692,442,0,0
-525,582,0,0,0,0,0,0,0,0,0,-1,699,442,0,0
-518,582,0,0,0,0,0,0,0,0,0,-1,706,442,0,0
-511,582,0,0,0,0,0,0,0,0,0,-1,713,442,0,0
-504,582,0,0,0,0,0,0,0,0,0,-1,720,442,0,0
-497,582,0,0,0,0,0,0,0,0,0,-1,727,442,0,0
-490,582,0,0,0,0,0,0,0,0,0,-1,734,442,0,0
-483,582,0,0,0,0,0,0,0,0,0,-1,741,442,0,0
-476,582,0,0,0,0,0,0,0,0,0,-1,748,442,0,0
-469,582,0,0,0,0,0,0,0,0,0,-1,755,442,0,0
-462,582,0,0,0,0,0,0,0,0,0,-1,762,442,0,0
-455,582,0,0,0,0,0,0,0,0,0,-1,769,442,0,0
-448,582,0,0,0,0,0,0,0,0,0,-1,776,442,0,0
-441,582,0,0,0,0,0,0,0,0,0,-1,783,442,0,0
-434,582,0,0,0,0,0,0,0,0,0,-1,790,442,0,0
-427,582,0,0,0,0,0,0,0,0,0,-1,797,442,0,0
-420,582,0,0,0,0,0,0,0,0,0,-1,804,442,0,0
-413,582,0,0,0,0,0,0,0,0,0,-1,811,442,0,0
-406,582,0,0,0,0,0,0,0,0,0,-1,818,442,0,0
-399,582,0,0,0,0,0,0,0,0,0,-1,825,442,0,0
-392,582,0,0,0,0,0,0,0,0,0,-1,832,442,0,0
-385,582,0,0,0,0,0,0,0,0,0,-1,839,442,0,0
-378,582,0,0,0,0,0,0,0,0,0,-1,846,442,0,0
-371,582,0,0,0,0,0,0,0,0,0,-1,853,442,0,0
-364,582,0,0,0,0,0,0,0,0,0,-1,860,442,0,0
-357,582,6.4043,-4.18127,0,0,0,0,0,0,0,-1,867,442,6.40427,4.18126
-350,582,-1.12933,-15.713,0,0,0,0,0,0,0,-1,874,442,-1.12935,15.713
-343,582,-0.551086,-15.4312,0,0,0,0,0,0,0,-1,881,442,-0.5511,15.4311
-336,582,0.0556641,-4.78558,0,0,0,0,0,0,0,-1,888,442,0.0556634,4.78559
-329,582,2.43567,-6.53082,0,0,0,0,0,0,0,-1,895,442,2.43569,6.53083
-322,582,2.34753,-6.77551,0,0,0,0,0,0,0,-1,902,442,2.34754,6.77551
-315,582,1.91162,-6.66904,0,0,0,0,0,0,0,-1,909,442,1.91162,6.66904
-308,582,0.708801,-6.51678,0,0,0,0,0,0,0,-1,916,442,0.708797,6.51679
-301,582,1.11633,-7.03345,0.00510947,0.00134303,-0.00852249,0.0119543,-0.00550182,-0.67666,0.0103053,0.0430548,923,442,1.11632,7.03345
-294,582,1.16748,-7.1745,0.00380081,0.00102001,-0.00807072,0.0106,-0.0057792,-0.700097,0.00959211,0.0429595,930,442,1.16747,7.1745
-287,582,1.28503,-7.31876,0.00246897,0.000802537,-0.00733671,0.00901963,-0.00574812,-0.728856,0.00859562,0.0320635,937,442,1.285,7.31874
-280,582,1.36206,-7.4967,0.00111051,3.09796e-05,-0.00608302,0.00667766,-0.00553618,-0.741148,0.00706192,0.0148587,944,442,1.36204,7.4967
-273,582,1.35107,-7.68082,-0.000149017,-0.000696839,-0.00458518,0.00417043,-0.00501628,-0.755564,0.00531144,0.0102171,951,442,1.3511,7.68083
-266,582,1.33588,-7.85437,-0.00123419,-0.00137935,-0.00356702,0.00226099,-0.00487453,-0.775226,0.0042108,0.00988465,958,442,1.33589,7.85438
-259,582,1.32874,-8.01581,-0.00177655,-0.00153971,-0.00242283,0.000767589,-0.00408385,-0.809817,0.00301122,0.00924589,965,442,1.32876,8.01581
-252,582,1.32648,-8.17752,-0.00194953,-0.0014127,-0.00142929,-0.000226842,-0.00313539,-0.878216,0.0020189,0.00870254,972,442,1.32649,8.17752
-245,582,1.34027,-8.3215,-0.00185471,-0.00117244,-0.000695861,-0.000738594,-0.00228856,-1.0133,0.0013487,0.0114773,979,442,1.34026,8.3215
-238,582,1.33521,-8.44455,-0.0019006,-0.00114398,9.61871e-07,-0.00114398,-0.0019006,1.56953,0.00110488,0.0156837,986,442,1.33523,8.44455
-231,582,1.33124,-8.59482,-0.00163662,-0.000938594,0.000291759,-0.000832708,-0.00174251,1.22266,0.00100636,0.0124992,993,442,1.33122,8.59482
-224,582,1.32343,-8.75461,-0.000987257,-0.00057594,0.000160505,-0.000520721,-0.00104248,1.23945,0.000601874,0.0104442,1000,442,1.32344,8.75462
-217,582,1.31494,-8.89655,-0.000394005,-0.000311148,7.80957e-06,-0.000310418,-0.000394734,1.47764,0.000240039,0.012517,1007,442,1.31494,8.89654
-210,582,1.31683,-9.02747,0.000173658,1.64578e-05,-0.000235934,0.00034374,-0.000153624,-0.624607,0.000294063,0.0124113,1014,442,1.31682,9.02746
-203,582,1.31329,-9.16794,0.000617188,0.000217622,-0.000200107,0.00070017,0.00013464,-0.393104,0.000429001,0.00986443,1021,442,1.31331,9.16794
-196,582,1.30872,-9.29578,0.000747305,0.000131377,5.41494e-05,0.000752029,0.000126652,0.0870256,0.000464922,0.0148214,1028,442,1.30876,9.29578
-189,582,1.29651,-9.42764,0.000814122,3.60711e-05,0.000507868,0.00106484,-0.000214646,0.458568,0.000791207,0.0204182,1035,442,1.29653,9.42764
-182,582,1.30469,-9.53854,0.000876875,1.06237e-06,0.000953923,0.0014886,-0.000610665,0.570217,0.00124684,0.0150476,1042,442,1.30474,9.53853
-175,582,1.33081,-9.61093,0.000941767,-5.67142e-05,0.00157335,0.00209319,-0.00120813,0.631768,0.00192871,0.0134155,1049,442,1.3308,9.61094
-168,582,1.34412,-9.73376,0.000979366,-0.000506557,0.00194959,0.00232276,-0.00184995,0.60335,0.00241427,0.0109708,1056,442,1.34407,9.73377
-161,582,1.35876,-9.85873,0.000755189,-0.00115848,0.00147204,0.00155404,-0.00195733,0.497209,0.00203174,0.0121542,1063,442,1.35879,9.85872
-154,582,1.36597,-9.95657,0.00060095,-0.00176638,0.00142268,0.00126798,-0.00243341,0.438424,0.00217202,0.0120789,1070,442,1.36594,9.95656
-147,582,1.37329,-10.0595,0.000515531,-0.00241389,0.00113504,0.000903842,-0.0028022,0.329631,0.00223129,0.0114813,1077,442,1.37328,10.0595
-140,582,1.37634,-10.1449,0.000495815,-0.00307697,0.000406438,0.000541468,-0.00312262,0.111855,0.00228374,0.0121626,1084,442,1.37636,10.1449
-133,582,1.40454,-10.2494,0.000525045,-0.00368255,-0.00060546,0.000610435,-0.00376794,-0.140111,0.00273822,0.0150703,1091,442,1.4045,10.2493
-126,582,1.41492,-10.3267,0.000509059,-0.00446739,-0.00194217,0.0011773,-0.00513563,-0.331382,0.00387625,0.0134778,1098,442,1.4149,10.3267
-119,582,1.40344,-10.4124,0.00055587,-0.00507489,-0.00349801,0.00223075,-0.00674978,-0.446552,0.00539929,0.0175253,1105,442,1.4035,10.4124
-112,582,1.36353,-10.5475,0.00072368,-0.00518185,-0.00514491,0.00370294,-0.00816111,-0.524887,0.00700906,0.0251114,1112,442,1.36351,10.5476
-105,582,1.35779,-10.6192,0.000988464,-0.00499153,-0.00676234,0.00539234,-0.00939541,-0.577243,0.00864135,0.0316677,1119,442,1.35783,10.6192
-98,582,1.46509,-10.739,0.00130575,-0.00435536,-0.00829115,0.0072362,-0.0102858,-0.620904,0.0101673,0.0342337,1126,442,1.46513,10.739
-91,582,1.53528,-10.8571,0.00173235,-0.00335157,-0.0096567,0.00917604,-0.0107953,-0.656701,0.0115431,0.0375692,1133,442,1.53532,10.8571
-84,582,1.63477,-10.9153,0.00213921,-0.00253594,-0.0107087,0.0107625,-0.0111593,-0.677941,0.0126573,0.0445318,1140,442,1.63472,10.9153
-77,582,1.71484,-11.1515,0,0,0,0,0,0,0,-1,1147,442,1.71484,11.1515
-70,582,1.49255,-6.36548,0,0,0,0,0,0,0,-1,1154,442,1.49251,6.36549
-63,582,-4.62915,-4.0347,0,0,0,0,0,0,0,-1,1161,442,-4.6292,4.03471
-56,582,-5.81714,-5.24149,0,0,0,0,0,0,0,-1,1168,442,-5.81718,5.24149
-49,582,-3.88672,-10.1064,0,0,0,0,0,0,0,-1,1175,442,-3.88678,10.1064
-42,582,-0.948975,1.13968,0,0,0,0,0,0,0,-1,1182,442,-0.949003,-1.13969
-35,582,-2.58435,-3.86911,0,0,0,0,0,0,0,-1,1189,442,-2.58437,3.86912
-28,582,-0.825317,-3.45941,0,0,0,0,0,0,0,-1,1196,442,-0.825377,3.45942
-21,582,0.670166,-15.7239,0,0,0,0,0,0,0,-1,1203,442,0.670205,15.7239
-14,582,1.11206,-14.8384,0,0,0,0,0,0,0,-1,1210,442,1.11203,14.8385
-7,582,1.55383,-13.953,0,0,0,0,0,0,0,-1,1217,442,1.55386,13.953
0,582,1.22681,-12.5591,0,0,0,0,0,0,0,-1,1224,442,1.22681,12.5591
7,582,1.23083,-12.166,0.0314503,-0.017036,0.0129121,0.0346745,-0.0202602,0.244696,0.0320784,0.0484369,1231,442,1.23088,12.166
14,582,1.46655,-11.7469,0.0269488,-0.00609493,0.00787178,0.0287282,-0.00787435,0.222314,0.0222464,0.049383,1238,442,1.46654,11.747
21,582,1.4231,-11.1189,0.021333,0.00579781,0.00282466,0.0218306,0.00530016,0.174391,0.0131481,0.0441981,1245,442,1.42307,11.1189
28,582,1.36072,-10.4988,0,0,0,0,0,0,0,-1,1252,442,1.36076,10.4988
35,582,2.2561,-12.2648,0,0,0,0,0,0,0,-1,1259,442,2.25613,12.2648
42,582,3.05066,-13.2703,0,0,0,0,0,0,0,-1,1266,442,3.05071,13.2703
49,582,4.24866,-14.2008,0,0,0,0,0,0,0,-1,1273,442,4.24869,14.2008
56,582,3.79761,-10.9788,0.0023298,0.0440201,-0.020531,0.0524331,-0.00608325,-1.18189,0.0371495,0.0456129,1280,442,3.79759,10.9788
63,582,3.08655,-10.8167,0.00456124,0.0461465,-0.0229896,0.0563515,-0.00564378,-1.15303,0.0395833,0.0470081,1287,442,3.08655,10.8167
70,582,3.00769,-10.951,0,0,0,0,0,0,0,-1,1294,442,3.00774,10.9509
77,582,2.97998,-9.98557,0.0217868,0.0464428,-0.0255861,0.062516,0.00571365,-1.0099,0.0399093,0.0430784,1301,442,2.97996,9.98558
84,582,3.4137,-10.2531,0.0281763,0.0445096,-0.0251097,0.0627473,0.0099386,-0.942622,0.0389437,0.0454483,1308,442,3.41367,10.2531
91,582,2.53174,-11.2759,0.0401104,0.0406661,-0.0233055,0.0636954,0.017081,-0.791359,0.0380694,0.0460847,1315,442,2.53174,11.276
98,582,2.98608,-11.6525,0.0501682,0.0358586,-0.0210631,0.0652585,0.0207683,-0.621671,0.0384978,0.041996,1322,442,2.98613,11.6525
105,582,3.45239,-11.9518,0.0587735,0.0322723,-0.0185777,0.068342,0.0227039,-0.475616,0.040191,0.040938,1329,442,3.45234,11.9518
112,582,3.97705,-12.0295,0.0657583,0.028466,-0.0156649,0.0714651,0.0227592,-0.349363,0.0421572,0.0442252,1336,442,3.9771,12.0295
119,582,6.91138,-12.7962,0.0687823,0.0242224,-0.0122546,0.0719301,0.0210746,-0.251432,0.0426989,0.0454403,1343,442,6.91139,12.7962
126,582,4.77722,-11.7016,0,0,0,0,0,0,0,-1,1350,442,4.77719,11.7016
133,582,2.83459,-10.7249,0,0,0,0,0,0,0,-1,1357,442,2.83459,10.7249
140,582,2.74475,-10.6283,0.0572777,0.00828647,-0.000628157,0.0572857,0.00827842,-0.012819,0.0357519,0.0489392,1364,442,2.74472,10.6283
147,582,2.66797,-10.5086,0.0509211,0.00294793,0.00307692,0.0511177,0.00275139,0.0637899,0.0331994,0.0487665,1371,442,2.66791,10.5087
154,582,2.67065,-10.1404,0.0451677,-0.000645125,0.00546697,0.045811,-0.00128848,0.117141,0.0309791,0.0468152,1378,442,2.67063,10.1404
161,582,2.92273,-9.8765,0,0,0,0,0,0,0,-1,1385,442,2.92279,9.87648
168,582,2.99744,-9.47592,0,0,0,0,0,0,0,-1,1392,442,2.99746,9.47593
175,582,6.50549,-2.00424,0,0,0,0,0,0,0,-1,1399,442,6.50546,2.00425
182,582,5.18958,-2.18652,0,0,0,0,0,0,0,-1,1406,442,5.1896,2.18652
189,582,6.19751,-0.880951,0,0,0,0,0,0,0,-1,1413,442,6.19754,0.88096
196,582,4.87354,-2.22327,0,0,0,0,0,0,0,-1,1420,442,4.87348,2.22325
203,582,3.11401,-4.48257,0,0,0,0,0,0,0,-1,1427,442,3.11404,4.48259
210,582,2.74146,-10.5561,0,0,0,0,0,0,0,-1,1434,442,2.74149,10.5561
217,582,2.77271,-10.3877,0.000792128,0.00720444,-0.00049553,0.00724251,0.00075406,-1.49413,0.00459765,0.0444366,1441,442,2.77273,10.3877
224,582,2.70544,-10.2571,0.00106599,0.00744793,5.01227e-06,0.00744793,0.00106599,1.57001,0.00465086,0.0443766,1448,442,2.70544,10.2571
231,582,2.72717,-10.0932,0.00133063,0.00727089,0.000404464,0.0072983,0.00130322,1.50312,0.00449455,0.0435502,1455,442,2.7272,10.0932
238,582,2.61572,-10.0215,0.00166014,0.00681534,0.000551001,0.00687357,0.00160191,1.4655,0.00415271,0.0393941,1462,442,2.61567,10.0215
245,582,2.63245,-9.99759,0.00183446,0.00566288,0.000346112,0.00569392,0.00180342,1.48136,0.00336019,0.0370029,1469,442,2.63249,9.99759
252,582,2.84851,-9.78925,0.0017864,0.00471935,0.000111442,0.00472358,0.00178217,1.53287,0.0027544,0.0241723,1476,442,2.84854,9.78923
259,582,2.80237,-9.68982,0.00163088,0.00370496,-0.000114255,0.00371123,0.0016246,-1.51593,0.00214821,0.0182597,1483,442,2.80235,9.68982
266,582,2.78577,-9.56204,0.00151709,0.00279434,-0.000424345,0.00292246,0.00138896,-1.27756,0.00168797,0.013223,1490,442,2.78576,9.56205
273,582,2.82654,-9.40094,0.00132444,0.00160814,-0.000722434,0.00220252,0.000730064,-0.88234,0.00129548,0.0117866,1497,442,2.8266,9.40095
280,582,2.82605,-9.27118,0.00103132,0.000764488,-0.000977006,0.00188397,-8.81712e-05,-0.717541,0.00128638,0.0110289,1504,442,2.826,9.27117
287,582,2.84705,-9.1377,0.000844077,0.000262983,-0.00111566,0.0017064,-0.000599344,-0.658015,0.00138142,0.0105949,1511,442,2.84708,9.1377
294,582,2.85181,-9.00137,0.000684745,-0.000129933,-0.00119634,0.00154119,-0.000986377,-0.62131,0.00147096,0.00865907,1518,442,2.85175,9.00137
301,582,2.86609,-8.85016,0.000386864,-0.000622698,-0.00126129,0.00124064,-0.00147647,-0.595055,0.00157069,0.00916781,1525,442,2.86613,8.85015
308,582,2.88904,-8.71484,0.000232244,-0.000813006,-0.00109422,0.000922245,-0.00150301,-0.562605,0.00141354,0.0119178,1532,442,2.88909,8.71483
315,582,2.89331,-8.56915,0.000194658,-0.00086223,-0.000911119,0.00071949,-0.00138706,-0.522608,0.00123641,0.0129252,1539,442,2.89335,8.56915
322,582,2.8949,-8.41962,0.000161575,-0.000787608,-0.00067891,0.000515329,-0.00114136,-0.480354,0.00097899,0.0100897,1546,442,2.89484,8.41962
329,582,2.90125,-8.26859,0.000127518,-0.000648407,-0.000403917,0.000299612,-0.000820501,-0.402771,0.000669601,0.0100729,1553,442,2.90125,8.26858
336,582,2.88806,-8.11542,8.39371e-05,-0.000394765,-0.000102427,0.000104932,-0.00041576,-0.202178,0.000317976,0.0103651,1560,442,2.88802,8.11541
343,582,2.88599,-7.94965,3.55065e-06,-0.000100885,0.000197427,0.000155549,-0.000252884,0.656113,0.00023803,0.0125663,1567,442,2.88595,7.94965
350,582,2.87378,-7.8179,-3.59148e-05,0.000262963,0.000510758,0.000645695,-0.000418647,0.927717,0.000619141,0.0153015,1574,442,2.8738,7.81791
357,582,2.87659,-7.65872,-9.83476e-05,0.00059996,0.000792413,0.00111673,-0.000615119,0.992912,0.00101377,0.0124727,1581,442,2.87654,7.65872
364,582,2.88342,-7.47028,-0.000207742,0.000983038,0.00104077,0.00158668,-0.000811386,1.04521,0.00140844,0.00999262,1588,442,2.88339,7.47029
371,582,2.89185,-7.30203,-0.000320994,0.0013438,0.00123444,0.00200027,-0.000977461,1.08204,0.00175267,0.0138578,1595,442,2.89188,7.30203
378,582,2.87561,-7.15173,-0.000510997,0.00152089,0.00134401,0.00218973,-0.00117984,1.10903,0.00197433,0.0151186,1602,442,2.87563,7.15174
385,582,2.86328,-6.97623,-0.000787816,0.00160803,0.00132353,0.00219526,-0.00137504,1.15321,0.00207937,0.0112388,1609,442,2.86332,6.97622
392,582,2.85083,-6.78738,-0.000977714,0.00150701,0.00130404,0.00206576,-0.00153646,1.16599,0.00208721,0.0100044,1616,442,2.85084,6.78739
399,582,2.83984,-6.61429,-0.00113821,0.00160818,0.00126855,0.00210444,-0.00163447,1.19789,0.00216434,0.012431,1623,442,2.83986,6.6143
406,582,2.84363,-6.38602,-0.00141337,0.0019605,0.00110448,0.0022899,-0.00174277,1.28095,0.0023354,0.0186188,1630,442,2.84367,6.38602
413,582,2.8313,-6.19434,-0.00196938,0.00263581,0.000703903,0.002741,-0.00207457,1.42246,0.00278913,0.0386484,1637,442,2.83133,6.19434
420,582,2.85901,-5.9324,0,0,0,0,0,0,0,-1,1644,442,2.85904,5.93241
427,582,2.71912,-5.89737,0,0,0,0,0,0,0,-1,1651,442,2.71917,5.89736
434,582,2.50317,-5.75226,0,0,0,0,0,0,0,-1,1658,442,2.50319,5.75225
441,582,2.57825,-5.59723,0,0,0,0,0,0,0,-1,1665,442,2.57829,5.59723
448,582,1.52722,-2.85928,0,0,0,0,0,0,0,-1,1672,442,1.52724,2.85927
455,582,3.6698,-4.4032,0,0,0,0,0,0,0,-1,1679,442,3.66983,4.40319
462,582,2.52869,-3.50668,0,0,0,0,0,0,0,-1,1686,442,2.52868,3.5067
469,582,2.05164,-3.24896,0,0,0,0,0,0,0,-1,1693,442,2.05162,3.24897
476,582,0.503418,-3.24838,0,0,0,0,0,0,0,-1,1700,442,0.503396,3.24837
483,582,0,0,0,0,0,0,0,0,0,-1,1707,442,0,0
490,582,0,0,0,0,0,0,0,0,0,-1,1714,442,0,0
497,582,0,0,0,0,0,0,0,0,0,-1,1721,442,0,0
504,582,0,0,0,0,0,0,0,0,0,-1,1728,442,0,0
511,582,0,0,0,0,0,0,0,0,0,-1,1735,442,0,0
518,582,0,0,0,0,0,0,0,0,0,-1,1742,442,0,0
525,582,0,0,0,0,0,0,0,0,0,-1,1749,442,0,0
532,582,0,0,0,0,0,0,0,0,0,-1,1756,442,0,0
539,582,0,0,0,0,0,0,0,0,0,-1,1763,442,0,0
546,582,0,0,0,0,0,0,0,0,0,-1,1770,442,0,0
553,582,0,0,0,0,0,0,0,0,0,-1,1777,442,0,0
560,582,0,0,0,0,0,0,0,0,0,-1,1784,442,0,0
567,582,0,0,0,0,0,0,0,0,0,-1,1791,442,0,0
574,582,0,0,0,0,0,0,0,0,0,-1,1798,442,0,0
581,582,0,0,0,0,0,0,0,0,0,-1,1805,442,0,0
588,582,0,0,0,0,0,0,0,0,0,-1,1812,442,0,0
595,582,0,0,0,0,0,0,0,0,0,-1,1819,442,0,0
602,582,0,0,0,0,0,0,0,0,0,-1,1826,442,0,0
609,582,0,0,0,0,0,0,0,0,0,-1,1833,442,0,0
616,582,0,0,0,0,0,0,0,0,0,-1,1840,442,0,0
623,582,0,0,0,0,0,0,0,0,0,-1,1847,442,0,0
630,582,0,0,0,0,0,0,0,0,0,-1,1854,442,0,0
637,582,0,0,0,0,0,0,0,0,0,-1,1861,442,0,0
644,582,0,0,0,0,0,0,0,0,0,-1,1868,442,0,0
651,582,0,0,0,0,0,0,0,0,0,-1,1875,442,0,0
658,582,0,0,0,0,0,0,0,0,0,-1,1882,442,0,0
665,582,0,0,0,0,0,0,0,0,0,-1,1889,442,0,0
672,582,0,0,0,0,0,0,0,0,0,-1,1896,442,0,0
679,582,0,0,0,0,0,0,0,0,0,-1,1903,442,0,0
686,582,0,0,0,0,0,0,0,0,0,-1,1910,442,0,0
693,582,0,0,0,0,0,0,0,0,0,-1,1917,442,0,0
700,582,0,0,0,0,0,0,0,0,0,-1,1924,442,0,0
707,582,0,0,0,0,0,0,0,0,0,-1,1931,442,0,0
714,582,0,0,0,0,0,0,0,0,0,-1,1938,442,0,0
721,582,0,0,0,0,0,0,0,0,0,-1,1945,442,0,0
728,582,0,0,0,0,0,0,0,0,0,-1,1952,442,0,0
735,582,0,0,0,0,0,0,0,0,0,-1,1959,442,0,0
742,582,0,0,0,0,0,0,0,0,0,-1,1966,442,0,0
749,582,0,0,0,0,0,0,0,0,0,-1,1973,442,0,0
756,582,0,0,0,0,0,0,0,0,0,-1,1980,442,0,0
763,582,0,0,0,0,0,0,0,0,0,-1,1987,442,0,0
770,582,0,0,0,0,0,0,0,0,0,-1,1994,442,0,0
777,582,0,0,0,0,0,0,0,0,0,-1,2001,442,0,0
784,582,0,0,0,0,0,0,0,0,0,-1,2008,442,0,0
791,582,0,0,0,0,0,0,0,0,0,-1,2015,442,0,0
798,582,0,0,0,0,0,0,0,0,0,-1,2022,442,0,0
805,582,0,0,0,0,0,0,0,0,0,-1,2029,442,0,0
812,582,0,0,0,0,0,0,0,0,0,-1,2036,442,0,0
-700,575,0,0,0,0,0,0,0,0,0,-1,524,449,0,0
-693,575,0,0,0,0,0,0,0,0,0,-1,531,449,0,0
-686,575,0,0,0,0,0,0,0,0,0,-1,538,449,0,0
-679,575,0,0,0,0,0,0,0,0,0,-1,545,449,0,0
-672,575,0,0,0,0,0,0,0,0,0,-1,552,449,0,0
-665,575,0,0,0,0,0,0,0,0,0,-1,559,449,0,0
-658,575,0,0,0,0,0,0,0,0,0,-1,566,449,0,0
-651,575,0,0,0,0,0,0,0,0,0,-1,573,449,0,0
-644,575,0,0,0,0,0,0,0,0,0,-1,580,449,0,0
-637,575,0,0,0,0,0,0,0,0,0,-1,587,449,0,0
-630,575,0,0,0,0,0,0,0,0,0,-1,594,449,0,0
-623,575,0,0,0,0,0,0,0,0,0,-1,601,449,0,0
-616,575,0,0,0,0,0,0,0,0,0,-1,608,449,0,0
-609,575,0,0,0,0,0,0,0,0,0,-1,615,449,0,0
-602,575,0,0,0,0,0,0,0,0,0,-1,622,449,0,0
-595,575,0,0,0,0,0,0,0,0,0,-1,629,449,0,0
-588,575,0,0,0,0,0,0,0,0,0,-1,636,449,0,0
-581,575,0,0,0,0,0,0,0,0,0,-1,643,449,0,0
-574,575,0,0,0,0,0,0,0,0,0,-1,650,449,0,0
-567,575,0,0,0,0,0,0,0,0,0,-1,657,449,0,0
-560,575,0,0,0,0,0,0,0,0,0,-1,664,449,0,0
-553,575,0,0,0,0,0,0,0,0,0,-1,671,449,0,0
-546,575,0,0,0,0,0,0,0,0,0,-1,678,449,0,0
-539,575,0,0,0,0,0,0,0,0,0,-1,685,449,0,0
-532,575,0,0,0,0,0,0,0,0,0,-1,692,449,0,0
-525,575,0,0,0,0,0,0,0,0,0,-1,699,449,0,0
-518,575,0,0,0,0,0,0,0,0,0,-1,706,449,0,0
-511,575,0,0,0,0,0,0,0,0,0,-1,713,449,0,0
-504,575,0,0,0,0,0,0,0,0,0,-1,720,449,0,0
-497,575,0,0,0,0,0,0,0,0,0,-1,727,449,0,0
-490,575,0,0,0,0,0,0,0,0,0,-1,734,449,0,0
-483,575,0,0,0,0,0,0,0,0,0,-1,741,449,0,0
-476,575,0,0,0,0,0,0,0,0,0,-1,748,449,0,0
-469,575,0,0,0,0,0,0,0,0,0,-1,755,449,0,0
-462,575,0,0,0,0,0,0,0,0,0,-1,762,449,0,0
-455,575,0,0,0,0,0,0,0,0,0,-1,769,449,0,0
-448,575,0,0,0,0,0,0,0,0,0,-1,776,449,0,0
-441,575,0,0,0,0,0,0,0,0,0,-1,783,449,0,0
-434,575,0,0,0,0,0,0,0,0,0,-1,790,449,0,0
-427,575,0,0,0,0,0,0,0,0,0,-1,797,449,0,0
-420,575,0,0,0,0,0,0,0,0,0,-1,804,449,0,0
-413,575,0,0,0,0,0,0,0,0,0,-1,811,449,0,0
-406,575,0,0,0,0,0,0,0,0,0,-1,818,449,0,0
-399,575,0,0,0,0,0,0,0,0,0,-1,825,449,0,0
-392,575,0,0,0,0,0,0,0,0,0,-1,832,449,0,0
-385,575,0,0,0,0,0,0,0,0,0,-1,839,449,0,0
-378,575,0,0,0,0,0,0,0,0,0,-1,846,449,0,0
-371,575,0.56897,-3.52304,0,0,0,0,0,0,0,-1,853,449,0.568955,3.52306
-364,575,1.49805,-4.67191,0,0,0,0,0,0,0,-1,860,449,1.49803,4.6719
-357,575,7.00562,-3.99518,0,0,0,0,0,0,0,-1,867,449,7.0056,3.99517
-350,575,1.67273,-7.16425,0,0,0,0,0,0,0,-1,874,449,1.67271,7.16423
-343,575,0.29834,-5.3349,0,0,0,0,0,0,0,-1,881,449,0.298367,5.33489
-336,575,0.982788,-6.95386,0,0,0,0,0,0,0,-1,888,449,0.982787,6.95386
-329,575,2.20996,-6.49072,0,0,0,0,0,0,0,-1,895,449,2.20996,6.49073
-322,575,1.83093,-6.51334,0.00356332,-0.000647104,-0.00145575,0.00401762,-0.00110141,-0.302499,0.00311123,0.0463728,902,449,1.83095,6.51333
-315,575,1.66455,-6.6727,0.003939,0.000585169,-0.00327775,0.00594389,-0.00141972,-0.548954,0.00451093,0.0467289,909,449,1.66453,6.6727
-308,575,1.50427,-6.84149,0,0,0,0,0,0,0,-1,916,449,1.50429,6.84148
-301,575,1.33527,-7.05847,0.00342,0.000947467,-0.00546543,0.00778724,-0.00341977,-0.674171,0.00663213,0.0297454,923,449,1.33524,7.05846
-294,575,1.23126,-7.22766,0.00279107,0.000943458,-0.0054772,0.00742182,-0.0036873,-0.701853,0.00653354,0.0230534,930,449,1.23128,7.22767
-287,575,1.21979,-7.35773,0.00206926,0.00100379,-0.00525224,0.00681572,-0.00374267,-0.734856,0.00618135,0.0159794,937,449,1.2198,7.35773
-280,575,1.23413,-7.52762,0.00124293,0.000542161,-0.00452964,0.00543572,-0.00365063,-0.746798,0.00527964,0.0115712,944,449,1.23414,7.52762
-273,575,1.22461,-7.70752,0.0004315,1.69955e-06,-0.00353553,0.00375865,-0.00332545,-0.755044,0.00409256,0.0104676,951,449,1.22462,7.70753
-266,575,1.21222,-7.88882,-0.00033054,-0.000568828,-0.00288549,0.00243827,-0.00333763,-0.764764,0.00334817,0.0121022,958,449,1.2122,7.88883
-259,575,1.20905,-8.04895,-0.000685358,-0.000781043,-0.00204704,0.0013144,-0.0027808,-0.773715,0.00241437,0.0128876,965,449,1.20906,8.04894
-252,575,1.18738,-8.18335,-0.000749204,-0.000765955,-0.0012568,0.000499248,-0.00201441,-0.782066,0.00153663,0.0112849,972,449,1.18736,8.18335
-245,575,1.18561,-8.32593,-0.000636279,-0.000667407,-0.00063446,-1.71918e-05,-0.00128649,-0.773135,0.00085199,0.0138142,979,449,1.18563,8.32594
-238,575,1.18652,-8.45496,-0.000623687,-0.000766512,-8.58001e-05,-0.000583469,-0.00080673,-0.438331,0.000480993,0.0137094,986,449,1.18653,8.45496
-231,575,1.17993,-8.59921,-0.00039465,-0.000606733,0.00011625,-0.000343342,-0.000658041,0.415645,0.00038004,0.0117235,993,449,1.17992,8.59922
-224,575,1.17865,-8.7532,0.000114228,-0.000338024,5.63733e-06,0.000114298,-0.000338095,0.0124624,0.000271633,0.0119625,1000,449,1.17868,8.75319
-217,575,1.18805,-8.89279,0.000565853,-0.000133812,-0.00012016,0.000585914,-0.000153873,-0.165426,0.000450742,0.0103022,1007,449,1.18806,8.89278
-210,575,1.1969,-9.02713,0.000932001,9.25455e-05,-0.000270676,0.00101171,1.28368e-05,-0.286385,0.000670235,0.00887443,1014,449,1.19692,9.02713
-203,575,1.19885,-9.15024,0.00119492,0.000179688,-0.000177913,0.0012252,0.000149413,-0.168555,0.000771829,0.0104131,1021,449,1.19884,9.15023
-196,575,1.2063,-9.27216,0.0012904,0.000124765,0.000203411,0.00132488,9.02887e-05,0.167897,0.000854748,0.0129509,1028,449,1.20625,9.27216
-189,575,1.20911,-9.39551,0.00131353,0.000134841,0.000886491,0.0017887,-0.000340331,0.492042,0.00132061,0.0152125,1035,449,1.20906,9.39552
-182,575,1.21277,-9.51718,0.00130373,0.000150882,0.00149879,0.00233312,-0.000878503,0.60182,0.00191658,0.0141507,1042,449,1.21275,9.51718
-175,575,1.2207,-9.61563,0.00129384,0.000122513,0.00234556,0.00312575,-0.00170939,0.663054,0.00283121,0.0121027,1049,449,1.22066,9.61562
-168,575,1.22192,-9.72937,0.00134719,-0.00049308,0.00283791,0.00341041,-0.0025563,0.628631,0.00345663,0.0104507,1056,449,1.22198,9.72936
-161,575,1.25537,-9.86008,0.00108039,-0.0013135,0.00210244,0.00230273,-0.00253584,0.526624,0.00279463,0.0139329,1063,449,1.25541,9.86006
-154,575,1.26123,-9.95856,0.000873895,-0.00210243,0.00198169,0.00186398,-0.00309252,0.463341,0.00289079,0.0153144,1070,449,1.26127,9.95857
-147,575,1.28162,-10.0188,0.000749519,-0.00300295,0.00148965,0.00126897,-0.0035224,0.335522,0.00286646,0.015599,1077,449,1.28157,10.0188
-140,575,1.25562,-10.0838,0.000738412,-0.00397398,0.000357684,0.000765406,-0.00400098,0.0753277,0.00295568,0.0271353,1084,449,1.25565,10.0838
-133,575,1.27771,-10.2397,0.000778698,-0.00488627,-0.0011836,0.00101605,-0.00512362,-0.197907,0.00379998,0.0379765,1091,449,1.27772,10.2397
-126,575,1.29797,-10.211,0.000768971,-0.0060726,-0.00325214,0.00206816,-0.00737179,-0.380066,0.00572972,0.0419581,1098,449,1.29798,10.211
-119,575,1.30811,-10.317,0,0,0,0,0,0,0,-1,1105,449,1.30814,10.317
-112,575,1.49963,-10.2392,0.00100528,-0.00749816,-0.00818647,0.00597828,-0.0124712,-0.545891,0.0108694,0.0417294,1112,449,1.49965,10.2392
-105,575,1.04138,-10.5488,0.0013126,-0.00749397,-0.0106966,0.00847678,-0.0146582,-0.590143,0.013515,0.044337,1119,449,1.04144,10.5488
-98,575,1.08984,-10.7643,0.00171913,-0.00689962,-0.0130892,0.0111901,-0.0163706,-0.626371,0.0160056,0.0468475,1126,449,1.08987,10.7642
-91,575,1.47192,-10.8822,0,0,0,0,0,0,0,-1,1133,449,1.47196,10.8822
-84,575,1.65735,-10.8252,0,0,0,0,0,0,0,-1,1140,449,1.65737,10.8252
-77,575,0.205078,-11.2584,0,0,0,0,0,0,0,-1,1147,449,0.205117,11.2584
-70,575,-4.2467,-1.78738,0,0,0,0,0,0,0,-1,1154,449,-4.24674,1.78739
-63,575,-4.52209,-3.48798,0,0,0,0,0,0,0,-1,1161,449,-4.5221,3.48796
-56,575,-5.5968,-5.4928,0,0,0,0,0,0,0,-1,1168,449,-5.59683,5.49281
-49,575,-5.96863,-7.17612,0,0,0,0,0,0,0,-1,1175,449,-5.96868,7.1761
-42,575,-0.830322,0.773499,0,0,0,0,0,0,0,-1,1182,449,-0.83038,-0.77351
-35,575,-0.62085,0.205139,0,0,0,0,0,0,0,-1,1189,449,-0.620855,-0.205126
-28,575,0.49292,-3.87988,0,0,0,0,0,0,0,-1,1196,449,0.492941,3.87989
-21,575,0.585571,-15.0371,0,0,0,0,0,0,0,-1,1203,449,0.585571,15.0371
-14,575,0.994263,-14.2385,0,0,0,0,0,0,0,-1,1210,449,0.994316,14.2385
-7,575,0.943726,-12.4335,0,0,0,0,0,0,0,-1,1217,449,0.94374,12.4335
0,575,1.06531,-11.9716,0.0362715,-0.0402886,0.02457,0.0434782,-0.0474953,0.285312,0.0525407,0.0475002,1224,449,1.06525,11.9716
7,575,1.30518,-11.5573,0.0340878,-0.0263524,0.019393,0.0397751,-0.0320397,0.285268,0.0415424,0.045333,1231,449,1.30512,11.5574
14,575,1.86206,-11.1182,0.0281255,-0.0117,0.0130305,0.03201,-0.0155846,0.289723,0.0280189,0.0459813,1238,449,1.86204,11.1182
21,575,1.45654,-10.9433,0.0204729,0.00396336,0.00662654,0.0228036,0.00163266,0.338209,0.0146884,0.0450667,1245,449,1.45653,10.9433
28,575,0.912842,-10.451,0.0131043,0.0162215,0.000262046,0.0162434,0.0130825,1.48751,0.00994419,0.0428433,1252,449,0.912852,10.4511
35,575,0.197021,-10.1757,0,0,0,0,0,0,0,-1,1259,449,0.19707,10.1757
42,575,2.52344,-13.1353,0,0,0,0,0,0,0,-1,1266,449,2.52343,13.1353
49,575,5.21167,-11.3535,-0.0030293,0.048739,-0.0181693,0.0544794,-0.00876973,-1.26478,0.0395682,0.0442332,1273,449,5.2117,11.3536
56,575,4.50793,-11.2997,-0.00316756,0.0551299,-0.0226585,0.0629007,-0.0109384,-1.24041,0.0460154,0.0430537,1280,449,4.50794,11.2998
63,575,3.3551,-10.7653,0,0,0,0,0,0,0,-1,1287,449,3.35506,10.7652
70,575,2.47119,-10.7575,0.00801063,0.0588816,-0.0270602,0.0705839,-0.00369168,-1.16263,0.0483335,0.0437465,1294,449,2.4712,10.7575
77,575,2.51062,-9.38351,0.0208016,0.0577623,-0.0279661,0.0728025,0.00576144,-1.07737,0.0467331,0.0454578,1301,449,2.51062,9.38351
84,575,3.13843,-10.0655,0.0284738,0.0548956,-0.027068,0.0718045,0.0115648,-1.01242,0.0445183,0.0480008,1308,449,3.13844,10.0655
91,575,2.68469,-11.4302,0.0440178,0.0496211,-0.0244857,0.0714649,0.0221741,-0.84236,0.0422388,0.0458105,1315,449,2.68472,11.4302
98,575,3.35608,-11.8881,0.0572085,0.0432844,-0.0214326,0.0727815,0.0277114,-0.628358,0.0424169,0.0406412,1322,449,3.35606,11.8881
105,575,3.8988,-12.3531,0.0684692,0.038372,-0.0180702,0.0769364,0.0299048,-0.438191,0.0447846,0.0421984,1329,449,3.89886,12.3531
112,575,4.70227,-12.4122,0.0775027,0.0330661,-0.0141842,0.0816443,0.0289245,-0.28409,0.0478,0.0449062,1336,449,4.70225,12.4122
119,575,6.13159,-12.4832,0.0817033,0.0272847,-0.00969129,0.0833777,0.0256103,-0.171083,0.0493171,0.0436782,1343,449,6.13162,12.4832
126,575,7.32678,-12.687,0,0,0,0,0,0,0,-1,1350,449,7.32683,12.687
133,575,2.48071,-11.6344,0,0,0,0,0,0,0,-1,1357,449,2.48066,11.6344
140,575,2.85754,-10.5647,0,0,0,0,0,0,0,-1,1364,449,2.85753,10.5647
147,575,2.77783,-10.5246,0.0619452,0.00144521,0.00963142,0.0634415,-5.10775e-05,0.154123,0.0423114,0.0498017,1371,449,2.77783,10.5246
154,575,2.70911,-10.4748,0.0559271,-0.0025025,0.0123851,0.0584439,-0.00501931,0.200483,0.0407389,0.0488643,1378,449,2.70915,10.4748
161,575,2.71118,-10.3687,0,0,0,0,0,0,0,-1,1385,449,2.71122,10.3686
168,575,9.2522,-0.307129,0,0,0,0,0,0,0,-1,1392,449,9.25225,0.307127
175,575,4.32617,1.93634,0,0,0,0,0,0,0,-1,1399,449,4.32612,-1.93634
182,575,6.3147,-2.88345,0,0,0,0,0,0,0,-1,1406,449,6.31466,2.88346
189,575,6.10449,-1.30817,0,0,0,0,0,0,0,-1,1413,449,6.10455,1.30817
196,575,5.79895,0.818359,0,0,0,0,0,0,0,-1,1420,449,5.79895,-0.81837
203,575,3.29724,-1.46378,0,0,0,0,0,0,0,-1,1427,449,3.29722,1.46377
210,575,2.32739,-7.74503,0,0,0,0,0,0,0,-1,1434,449,2.32741,7.74502
217,575,2.94006,-10.5331,0,0,0,0,0,0,0,-1,1441,449,2.94011,10.5331
224,575,2.83301,-10.4605,0,0,0,0,0,0,0,-1,1448,449,2.83298,10.4605
231,575,2.85901,-10.2614,0,0,0,0,0,0,0,-1,1455,449,2.85899,10.2614
238,575,2.76807,-10.1716,0,0,0,0,0,0,0,-1,1462,449,2.76808,10.1716
245,575,2.72437,-10.2744,0,0,0,0,0,0,0,-1,1469,449,2.72431,10.2744
252,575,3.01501,-9.95264,0,0,0,0,0,0,0,-1,1476,449,3.015,9.95262
259,575,2.94788,-9.88431,0,0,0,0,0,0,0,-1,1483,449,2.94792,9.8843
266,575,2.87524,-9.72403,0,0,0,0,0,0,0,-1,1490,449,2.87528,9.72402
273,575,2.97046,-9.44321,0.00152419,0.00158022,-0.00102548,0.00257807,0.000526342,-0.799054,0.0015729,0.0344368,1497,449,2.97042,9.44322
280,575,2.99792,-9.23434,0.00113051,0.000406471,-0.00142303,0.00223685,-0.000699864,-0.660839,0.00177123,0.021883,1504,449,2.99789,9.23433
287,575,2.97791,-9.15121,0.000879156,-0.000245271,-0.00168127,0.00208972,-0.00145584,-0.624044,0.00205791,0.013582,1511,449,2.97787,9.15122
294,575,2.99548,-9.00156,0.000654519,-0.000744651,-0.00186714,0.00194883,-0.00203897,-0.606152,0.00230255,0.0100995,1518,449,2.9955,9.00156
301,575,2.99707,-8.8696,0.000215997,-0.00139465,-0.00209627,0.00165631,-0.00283497,-0.602005,0.00262264,0.00909974,1525,449,2.99704,8.86961
308,575,3.01843,-8.72479,-4.12564e-05,-0.0016534,-0.00204195,0.00134797,-0.00304262,-0.59741,0.00259709,0.0102907,1532,449,3.01842,8.72478
315,575,3.02466,-8.57791,-0.000161733,-0.00172773,-0.00196243,0.00116814,-0.0030576,-0.595579,0.00251972,0.0112094,1539,449,3.02464,8.5779
322,575,3.04785,-8.41879,-0.000255053,-0.00165625,-0.00179499,0.000971214,-0.00288252,-0.599336,0.00231437,0.00996151,1546,449,3.04788,8.4188
329,575,3.03455,-8.28497,-0.000318779,-0.0015089,-0.00156302,0.000758621,-0.0025863,-0.603514,0.00202501,0.0102955,1553,449,3.03458,8.28497
336,575,3.01611,-8.1301,-0.000346843,-0.00116992,-0.0012451,0.000552964,-0.00206973,-0.625786,0.00159639,0.0118175,1560,449,3.01611,8.1301
343,575,3.04395,-7.95193,-0.000407355,-0.000854236,-0.000910406,0.000306629,-0.00156822,-0.665062,0.00116126,0.0111164,1567,449,3.04397,7.95192
350,575,3.04675,-7.79214,-0.000405306,-0.000431419,-0.000531656,0.000113453,-0.000950179,-0.773122,0.000674459,0.00988449,1574,449,3.04673,7.79216
357,575,3.03357,-7.63858,-0.000388494,-6.87236e-05,-0.000171833,6.10363e-06,-0.000463321,-1.1601,0.000310935,0.00960927,1581,449,3.03353,7.63859
364,575,3.03052,-7.4646,-0.000408544,0.000332824,0.000168816,0.000369455,-0.000445175,1.35712,0.000471004,0.00986098,1588,449,3.03055,7.4646
371,575,3.05078,-7.32108,-0.000448263,0.000693557,0.000484979,0.000871742,-0.000626448,1.2187,0.000868836,0.0179669,1595,449,3.05084,7.32109
378,575,3.04736,-7.1456,-0.000535469,0.000951975,0.000728007,0.00124898,-0.000832475,1.18344,0.00120972,0.0170243,1602,449,3.04737,7.1456
385,575,3.01367,-6.94669,-0.000667723,0.00104484,0.000798267,0.00135922,-0.000982103,1.19562,0.0013576,0.0107923,1609,449,3.01371,6.9467
392,575,3.01038,-6.7764,-0.000760609,0.000944263,0.00084837,0.00129448,-0.00111083,1.17929,0.00139005,0.00904772,1616,449,3.01042,6.77641
399,575,3.00891,-6.61392,-0.000837412,0.00103246,0.00086815,0.00137337,-0.00117832,1.19661,0.00147466,0.00950287,1623,449,3.00889,6.61393
406,575,3.01111,-6.41669,-0.00100728,0.0013648,0.000806327,0.00161293,-0.00125542,1.27226,0.00166032,0.010779,1630,449,3.01111,6.41669
413,575,3.00464,-6.23364,-0.0014351,0.00194685,0.000527415,0.00202719,-0.00151545,1.41963,0.00205244,0.0125356,1637,449,3.00465,6.23365
420,575,2.97766,-6.05319,-0.00184215,0.00258176,8.57069e-05,0.00258342,-0.00184381,1.55143,0.00256793,0.0139037,1644,449,2.97761,6.0532
427,575,2.94006,-5.92953,-0.00196423,0.00363465,-0.0003753,0.00365969,-0.00198927,-1.50416,0.00330862,0.0197598,1651,449,2.9401,5.92953
434,575,2.87048,-5.8129,-0.00214973,0.00497257,-0.000884007,0.00508065,-0.00225781,-1.44914,0.00434009,0.0278906,1658,449,2.87053,5.8129
441,575,2.91907,-5.61505,-0.00228949,0.00695727,-0.00146473,0.00718374,-0.00251597,-1.41739,0.00581226,0.0442395,1665,449,2.91907,5.61506
448,575,2.82837,-4.8801,0,0,0,0,0,0,0,-1,1672,449,2.82834,4.88008
455,575,2.88135,-4.53244,0,0,0,0,0,0,0,-1,1679,449,2.8814,4.53243
462,575,2.62134,-4.25568,0,0,0,0,0,0,0,-1,1686,449,2.62129,4.25568
469,575,2.5498,-4.47568,0,0,0,0,0,0,0,-1,1693,449,2.54983,4.47566
476,575,2.54614,-4.21341,0,0,0,0,0,0,0,-1,1700,449,2.54617,4.21341
483,575,1.51794,-3.79193,0,0,0,0,0,0,0,-1,1707,449,1.51794,3.79193
490,575,1.07385,-3.62668,0,0,0,0,0,0,0,-1,1714,449,1.07384,3.62667
497,575,0,0,0,0,0,0,0,0,0,-1,1721,449,0,0
504,575,0,0,0,0,0,0,0,0,0,-1,1728,449,0,0
511,575,0,0,0,0,0,0,0,0,0,-1,1735,449,0,0
518,575,0,0,0,0,0,0,0,0,0,-1,1742,449,0,0
525,575,0,0,0,0,0,0,0,0,0,-1,1749,449,0,0
532,575,0,0,0,0,0,0,0,0,0,-1,1756,449,0,0
539,575,0,0,0,0,0,0,0,0,0,-1,1763,449,0,0
546,575,0,0,0,0,0,0,0,0,0,-1,1770,449,0,0
553,575,0,0,0,0,0,0,0,0,0,-1,1777,449,0,0
560,575,0,0,0,0,0,0,0,0,0,-1,1784,449,0,0
567,575,0,0,0,0,0,0,0,0,0,-1,1791,449,0,0
574,575,0,0,0,0,0,0,0,0,0,-1,1798,449,0,0
581,575,0,0,0,0,0,0,0,0,0,-1,1805,449,0,0
588,575,0,0,0,0,0,0,0,0,0,-1,1812,449,0,0
595,575,0,0,0,0,0,0,0,0,0,-1,1819,449,0,0
602,575,0,0,0,0,0,0,0,0,0,-1,1826,449,0,0
609,575,0,0,0,0,0,0,0,0,0,-1,1833,449,0,0
616,575,0,0,0,0,0,0,0,0,0,-1,1840,449,0,0
623,575,0,0,0,0,0,0,0,0,0,-1,1847,449,0,0
630,575,0,0,0,0,0,0,0,0,0,-1,1854,449,0,0
637,575,0,0,0,0,0,0,0,0,0,-1,1861,449,0,0
644,575,0,0,0,0,0,0,0,0,0,-1,1868,449,0,0
651,575,0,0,0,0,0,0,0,0,0,-1,1875,449,0,0
658,575,0,0,0,0,0,0,0,0,0,-1,1882,449,0,0
665,575,0,0,0,0,0,0,0,0,0,-1,1889,449,0,0
672,575,0,0,0,0,0,0,0,0,0,-1,1896,449,0,0
679,575,0,0,0,0,0,0,0,0,0,-1,1903,449,0,0
686,575,0,0,0,0,0,0,0,0,0,-1,1910,449,0,0
693,575,0,0,0,0,0,0,0,0,0,-1,1917,449,0,0
700,575,0,0,0,0,0,0,0,0,0,-1,1924,449,0,0
707,575,0,0,0,0,0,0,0,0,0,-1,1931,449,0,0
714,575,0,0,0,0,0,0,0,0,0,-1,1938,449,0,0
721,575,0,0,0,0,0,0,0,0,0,-1,1945,449,0,0
728,575,0,0,0,0,0,0,0,0,0,-1,1952,449,0,0
735,575,0,0,0,0,0,0,0,0,0,-1,1959,449,0,0
742,575,0,0,0,0,0,0,0,0,0,-1,1966,449,0,0
749,575,0,0,0,0,0,0,0,0,0,-1,1973,449,0,0
756,575,0,0,0,0,0,0,0,0,0,-1,1980,449,0,0
763,575,0,0,0,0,0,0,0,0,0,-1,1987,449,0,0
770,575,0,0,0,0,0,0,0,0,0,-1,1994,449,0,0
777,575,0,0,0,0,0,0,0,0,0,-1,2001,449,0,0
784,575,0,0,0,0,0,0,0,0,0,-1,2008,449,0,0
791,575,0,0,0,0,0,0,0,0,0,-1,2015,449,0,0
798,575,0,0,0,0,0,0,0,0,0,-1,2022,449,0,0
805,575,0,0,0,0,0,0,0,0,0,-1,2029,449,0,0
812,575,0,0,0,0,0,0,0,0,0,-1,2036,449,0,0
-700,568,0,0,0,0,0,0,0,0,0,-1,524,456,0,0
-693,568,0,0,0,0,0,0,0,0,0,-1,531,456,0,0
-686,568,0,0,0,0,0,0,0,0,0,-1,538,456,0,0
-679,568,0,0,0,0,0,0,0,0,0,-1,545,456,0,0
-672,568,0,0,0,0,0,0,0,0,0,-1,552,456,0,0
-665,568,0,0,0,0,0,0,0,0,0,-1,559,456,0,0
-658,568,0,0,0,0,0,0,0,0,0,-1,566,456,0,0
-651,568,0,0,0,0,0,0,0,0,0,-1,573,456,0,0
-644,568,0,0,0,0,0,0,0,0,0,-1,580,456,0,0
-637,568,0,0,0,0,0,0,0,0,0,-1,587,456,0,0
-630,568,0,0,0,0,0,0,0,0,0,-1,594,456,0,0
-623,568,0,0,0,0,0,0,0,0,0,-1,601,456,0,0
-616,568,0,0,0,0,0,0,0,0,0,-1,608,456,0,0
-609,568,0,0,0,0,0,0,0,0,0,-1,615,456,0,0
-602,568,0,0,0,0,0,0,0,0,0,-1,622,456,0,0
-595,568,0,0,0,0,0,0,0,0,0,-1,629,456,0,0
-588,568,0,0,0,0,0,0,0,0,0,-1,636,456,0,0
-581,568,0,0,0,0,0,0,0,0,0,-1,643,456,0,0
-574,568,0,0,0,0,0,0,0,0,0,-1,650,456,0,0
-567,568,0,0,0,0,0,0,0,0,0,-1,657,456,0,0
-560,568,0,0,0,0,0,0,0,0,0,-1,664,456,0,0
-553,568,0,0,0,0,0,0,0,0,0,-1,671,456,0,0
-546,568,0,0,0,0,0,0,0,0,0,-1,678,456,0,0
-539,568,0,0,0,0,0,0,0,0,0,-1,685,456,0,0
-532,568,0,0,0,0,0,0,0,0,0,-1,692,456,0,0
-525,568,0,0,0,0,0,0,0,0,0,-1,699,456,0,0
-518,568,0,0,0,0,0,0,0,0,0,-1,706,456,0,0
-511,568,0,0,0,0,0,0,0,0,0,-1,713,456,0,0
-504,568,0,0,0,0,0,0,0,0,0,-1,720,456,0,0
-497,568,0,0,0,0,0,0,0,0,0,-1,727,456,0,0
-490,568,0,0,0,0,0,0,0,0,0,-1,734,456,0,0
-483,568,0,0,0,0,0,0,0,0,0,-1,741,456,0,0
-476,568,0,0,0,0,0,0,0,0,0,-1,748,456,0,0
-469,568,0,0,0,0,0,0,0,0,0,-1,755,456,0,0
-462,568,0,0,0,0,0,0,0,0,0,-1,762,456,0,0
-455,568,0,0,0,0,0,0,0,0,0,-1,769,456,0,0
-448,568,0,0,0,0,0,0,0,0,0,-1,776,456,0,0
-441,568,0,0,0,0,0,0,0,0,0,-1,783,456,0,0
-434,568,0,0,0,0,0,0,0,0,0,-1,790,456,0,0
-427,568,0,0,0,0,0,0,0,0,0,-1,797,456,0,0
-420,568,0,0,0,0,0,0,0,0,0,-1,804,456,0,0
-413,568,0,0,0,0,0,0,0,0,0,-1,811,456,0,0
-406,568,0,0,0,0,0,0,0,0,0,-1,818,456,0,0
-399,568,0,0,0,0,0,0,0,0,0,-1,825,456,0,0
-392,568,0,0,0,0,0,0,0,0,0,-1,832,456,0,0
-385,568,0,0,0,0,0,0,0,0,0,-1,839,456,0,0
-378,568,0.0559082,-3.97311,0,0,0,0,0,0,0,-1,846,456,0.0559355,3.97311
-371,568,0.428345,-4.25775,0,0,0,0,0,0,0,-1,853,456,0.428339,4.25776
-364,568,1.06445,-4.49878,0,0,0,0,0,0,0,-1,860,456,1.06443,4.49877
-357,568,1.72162,-7.40503,0,0,0,0,0,0,0,-1,867,456,1.72162,7.40502
-350,568,1.60864,-7.03442,0,0,0,0,0,0,0,-1,874,456,1.60864,7.03443
-343,568,1.43097,-6.68365,0,0,0,0,0,0,0,-1,881,456,1.43099,6.68364
-336,568,1.00311,-6.66382,0,0,0,0,0,0,0,-1,888,456,1.00314,6.66383
-329,568,0.575256,-6.64401,0,0,0,0,0,0,0,-1,895,456,0.575284,6.64402
-322,568,1.00171,-6.72165,0.00133708,-0.00152812,0.000197586,0.00135064,-0.00154168,0.0685283,0.0016711,0.0394592,902,456,1.00171,6.72164
-315,568,1.34796,-6.68594,0.00187396,-0.000275875,-0.00129709,0.00248364,-0.000885562,-0.439395,0.00201683,0.0369426,909,456,1.34796,6.68596
-308,568,1.17444,-6.90506,0.00202951,0.000146584,-0.00245859,0.00372072,-0.00154463,-0.602547,0.0031253,0.0265863,916,456,1.17446,6.90506
-301,568,1.15381,-7.05838,0.002253,0.000673971,-0.0032872,0.00484417,-0.0019172,-0.667542,0.00402375,0.014115,923,456,1.15382,7.05839
-294,568,1.11115,-7.19226,0.00205914,0.000874934,-0.00352786,0.00504424,-0.00211016,-0.702255,0.0042448,0.011102,930,456,1.11117,7.19225
-287,568,1.08685,-7.35577,0.00176671,0.00111358,-0.0035782,0.00503321,-0.00215293,-0.739891,0.00425856,0.0102053,937,456,1.08688,7.35577
-280,568,1.08759,-7.54172,0.00135831,0.000861576,-0.00319892,0.00431849,-0.0020986,-0.746655,0.00377808,0.0104198,944,456,1.08759,7.54171
-273,568,1.07507,-7.72229,0.000890044,0.000468636,-0.00255127,0.00323929,-0.00188061,-0.744198,0.00299047,0.0109111,951,456,1.0751,7.7223
-266,568,1.06018,-7.89297,0.000399553,5.98093e-06,-0.00215346,0.0023652,-0.00195967,-0.739834,0.00250062,0.0107787,958,456,1.0602,7.89296
-259,568,1.05499,-8.03384,0.000218155,-0.000238746,-0.00155702,0.0015634,-0.00158399,-0.712557,0.00181716,0.0114444,965,456,1.05502,8.03385
-252,568,1.03223,-8.16095,0.00027559,-0.000303234,-0.000951815,0.00098102,-0.00100866,-0.637808,0.00114878,0.0111707,972,456,1.03225,8.16095
-245,568,1.04077,-8.315,0.000435714,-0.000315358,-0.000450676,0.000646809,-0.000526454,-0.438047,0.00067857,0.013081,979,456,1.04075,8.31499
-238,568,1.06342,-8.466,0.000532535,-0.000511271,-6.03859e-05,0.000536016,-0.000514753,-0.0575956,0.000606703,0.011856,986,456,1.06342,8.466
-231,568,1.05005,-8.5993,0.000773275,-0.000437236,7.39209e-05,0.000777772,-0.000441733,0.0607649,0.000712936,0.01057,993,456,1.05003,8.59932
-224,568,1.04736,-8.75067,0.00118655,-0.000268247,-7.6878e-06,0.00118659,-0.000268287,-0.00528425,0.000894011,0.0123271,1000,456,1.04736,8.75068
-217,568,1.07013,-8.88223,0.00153091,-0.000120134,-0.000105446,0.00153762,-0.000126842,-0.0635223,0.00106987,0.0106752,1007,456,1.07016,8.88225
-210,568,1.07068,-9.01645,0.00173928,1.87799e-05,-0.000177476,0.0017574,6.63393e-07,-0.101727,0.00117138,0.0107663,1014,456,1.07067,9.01645
-203,568,1.06073,-9.1431,0.00186331,1.58774e-05,-2.5422e-05,0.00186366,1.55277e-05,-0.0137572,0.0012373,0.00915194,1021,456,1.06071,9.1431
-196,568,1.09473,-9.25217,0.00192879,-1.4604e-05,0.00048229,0.0020419,-0.00012771,0.230356,0.00140577,0.0116251,1028,456,1.09467,9.25216
-189,568,1.09644,-9.37872,0.00191269,0.000126466,0.00140737,0.00268641,-0.000647258,0.502663,0.00204119,0.0126467,1035,456,1.09647,9.37872
-182,568,1.10437,-9.49799,0.00182721,0.000224439,0.00219818,0.00336552,-0.00131388,0.610601,0.00278687,0.0136059,1042,456,1.10441,9.49799
-175,568,1.10913,-9.6174,0.00172776,0.000278102,0.00331,0.00439137,-0.00238551,0.677609,0.00396935,0.0119384,1049,456,1.10908,9.61741
-168,568,1.12146,-9.71463,0.00179773,-0.000527208,0.00391471,0.00471892,-0.0034484,0.641071,0.00473439,0.0159505,1056,456,1.12151,9.71464
-161,568,1.09595,-9.8114,0.00150976,-0.00149688,0.00280618,0.00318993,-0.00317705,0.539492,0.00367598,0.0246525,1063,456,1.09592,9.81139
-154,568,1.13416,-10.0102,0.00125568,-0.00247945,0.00255442,0.00255242,-0.0037762,0.469747,0.00367653,0.0323188,1070,456,1.13417,10.0102
-147,568,1.23889,-10.0983,0.00108955,-0.00368388,0.00175037,0.0016626,-0.00425693,0.316389,0.00352535,0.0396316,1077,456,1.23895,10.0983
-140,568,1.22632,-9.95142,0.00114368,-0.00503064,3.06437e-05,0.00114383,-0.00503079,0.00496294,0.00379307,0.0475653,1084,456,1.2263,9.95142
-133,568,1.09863,-10.0728,0,0,0,0,0,0,0,-1,1091,456,1.09862,10.0728
-126,568,1.13586,-9.98923,0,0,0,0,0,0,0,-1,1098,456,1.13592,9.98922
-119,568,2.22009,-9.45648,0,0,0,0,0,0,0,-1,1105,456,2.22008,9.45648
-112,568,1.9408,-9.77853,0,0,0,0,0,0,0,-1,1112,456,1.94086,9.77854
-105,568,1.66162,-10.1006,0,0,0,0,0,0,0,-1,1119,456,1.66163,10.1006
-98,568,0.421509,-10.6339,0,0,0,0,0,0,0,-1,1126,456,0.421478,10.6339
-91,568,1.52979,-6.79303,0,0,0,0,0,0,0,-1,1133,456,1.52976,6.79303
-84,568,0.461792,-9.7959,0,0,0,0,0,0,0,-1,1140,456,0.461793,9.7959
-77,568,-1.13806,-8.57822,0,0,0,0,0,0,0,-1,1147,456,-1.13807,8.57821
-70,568,-4.09766,-1.42911,0,0,0,0,0,0,0,-1,1154,456,-4.09767,1.4291
-63,568,-5.92273,-3.70752,0,0,0,0,0,0,0,-1,1161,456,-5.92272,3.70751
-56,568,-5.24158,-6.01385,0,0,0,0,0,0,0,-1,1168,456,-5.24161,6.01386
-49,568,-5.24365,-8.33557,0,0,0,0,0,0,0,-1,1175,456,-5.24371,8.33557
-42,568,-0.664795,0.521973,0,0,0,0,0,0,0,-1,1182,456,-0.664829,-0.521984
-35,568,-0.153076,-1.67731,0,0,0,0,0,0,0,-1,1189,456,-0.153068,1.67731
-28,568,1.25439,-4.48798,0,0,0,0,0,0,0,-1,1196,456,1.2544,4.48797
-21,568,1.12305,-14.462,0,0,0,0,0,0,0,-1,1203,456,1.12301,14.462
-14,568,1.26465,-13.602,0.0315077,-0.0762551,0.0391632,0.0442368,-0.0889843,0.314257,0.0783482,0.0470307,1210,456,1.26463,13.602
-7,568,1.54333,-12.6114,0.0351395,-0.0699598,0.038202,0.047558,-0.0823782,0.314299,0.0759113,0.0457771,1217,456,1.54328,12.6114
0,568,1.48279,-11.4922,0.0370214,-0.0558283,0.0340017,0.0481411,-0.066948,0.316072,0.0667418,0.0476401,1224,456,1.48276,11.4922
7,568,1.46606,-10.7597,0.0343433,-0.0378174,0.0277705,0.0437931,-0.0472671,0.32799,0.0525864,0.0442333,1231,456,1.46608,10.7597
14,568,1.88477,-10.2974,0.0264673,-0.0188586,0.0199424,0.0339922,-0.0263836,0.360815,0.0349501,0.0424736,1238,456,1.88479,10.2974
21,568,1.32605,-10.7793,0,0,0,0,0,0,0,-1,1245,456,1.3261,10.7793
28,568,0.486084,-10.5184,0.00695496,0.0169377,0.00412586,0.0184221,0.00547048,1.22542,0.0109244,0.0422285,1252,456,0.48612,10.5184
35,568,7.69336,-13.1748,0,0,0,0,0,0,0,-1,1259,456,7.69336,13.1748
42,568,6.96216,-12.3929,-0.00786344,0.0474503,-0.0117008,0.0498236,-0.0102367,-1.37068,0.0371017,0.0429057,1266,456,6.9621,12.3929
49,568,6.38989,-12.1047,-0.011699,0.0585761,-0.0184484,0.0631247,-0.0162476,-1.32906,0.0484164,0.044595,1273,456,6.38983,12.1047
56,568,5.30042,-11.8723,-0.0116155,0.067077,-0.0240602,0.0738504,-0.0183889,-1.29638,0.056372,0.0430309,1280,456,5.30045,11.8724
63,568,4.22534,-11.9687,-0.00810165,0.0708964,-0.0273764,0.0794561,-0.0166613,-1.26776,0.0593098,0.0441957,1287,456,4.2253,11.9687
70,568,3.20618,-12.0568,0.00182622,0.0714226,-0.0286291,0.0816859,-0.00843708,-1.22658,0.0574764,0.0465372,1294,456,3.20622,12.0568
77,568,2.29688,-12.0587,0,0,0,0,0,0,0,-1,1301,456,2.29686,12.0587
84,568,2.64697,-11.6481,0.0264144,0.0658504,-0.0278928,0.080291,0.0119738,-1.09308,0.0500161,0.0484764,1308,456,2.647,11.6481
91,568,3.42151,-11.9509,0.0460525,0.0588386,-0.0243019,0.0775743,0.0273167,-0.914018,0.0454357,0.0441365,1315,456,3.42152,11.9509
98,568,3.44373,-12.6291,0,0,0,0,0,0,0,-1,1322,456,3.44378,12.6291
105,568,4.13074,-12.7376,0,0,0,0,0,0,0,-1,1329,456,4.13074,12.7376
112,568,4.81775,-12.846,0,0,0,0,0,0,0,-1,1336,456,4.8177,12.8461
119,568,5.52148,-12.4334,0.0943439,0.0293666,-0.00499158,0.0947251,0.0289854,-0.0762243,0.0560451,0.0453612,1343,456,5.52143,12.4334
126,568,6.80896,-12.6898,0.0930257,0.0208183,0.00114801,0.0930439,0.0208001,0.0158935,0.0563895,0.0491691,1350,456,6.80902,12.6898
133,568,8.02356,-12.961,0,0,0,0,0,0,0,-1,1357,456,8.02357,12.961
140,568,4.44031,-12.3176,0,0,0,0,0,0,0,-1,1364,456,4.44033,12.3176
147,568,2.854,-10.5493,0,0,0,0,0,0,0,-1,1371,456,2.85398,10.5493
154,568,2.78784,-10.5252,0,0,0,0,0,0,0,-1,1378,456,2.78785,10.5252
161,568,4.83813,-10.4826,0,0,0,0,0,0,0,-1,1385,456,4.8381,10.4826
168,568,9.09583,-0.563782,0,0,0,0,0,0,0,-1,1392,456,9.09586,0.563788
175,568,10.5151,0.747498,0,0,0,0,0,0,0,-1,1399,456,10.5152,-0.747501
182,568,6.35095,-3.63361,0,0,0,0,0,0,0,-1,1406,456,6.35093,3.63359
189,568,6.17493,-1.70911,0,0,0,0,0,0,0,-1,1413,456,6.17497,1.70911
196,568,6.04724,0.200836,0,0,0,0,0,0,0,-1,1420,456,6.04724,-0.200835
203,568,5.9281,2.08649,0,0,0,0,0,0,0,-1,1427,456,5.92812,-2.08648
210,568,1.46216,-2.50446,0,0,0,0,0,0,0,-1,1434,456,1.46219,2.50446
217,568,2.62366,-7.86703,0,0,0,0,0,0,0,-1,1441,456,2.62365,7.86704
224,568,1.89819,-7.62418,0,0,0,0,0,0,0,-1,1448,456,1.89817,7.62418
231,568,4.38245,-9.3205,0,0,0,0,0,0,0,-1,1455,456,4.38244,9.32048
238,568,3.88123,-9.43616,0,0,0,0,0,0,0,-1,1462,456,3.88117,9.43617
245,568,3.55066,-8.6441,0,0,0,0,0,0,0,-1,1469,456,3.55063,8.6441
252,568,3.55286,-8.37546,0,0,0,0,0,0,0,-1,1476,456,3.5529,8.37544
259,568,3.38843,-8.73068,0,0,0,0,0,0,0,-1,1483,456,3.38842,8.73068
266,568,3.104,-9.16876,0,0,0,0,0,0,0,-1,1490,456,3.10397,9.16876
273,568,2.98389,-9.58627,0,0,0,0,0,0,0,-1,1497,456,2.98393,9.58629
280,568,3.00281,-9.3934,0,0,0,0,0,0,0,-1,1504,456,3.00278,9.39339
287,568,3.17078,-9.14227,0.000955144,-0.00109803,-0.00242794,0.0025646,-0.00270749,-0.585385,0.00304422,0.0357067,1511,456,3.17077,9.14229
294,568,3.21826,-9.01263,0.00070536,-0.001663,-0.0026827,0.00245361,-0.00341125,-0.577553,0.00340109,0.026009,1518,456,3.21827,9.01264
301,568,3.1759,-8.883,0.000108669,-0.0024812,-0.00306529,0.00214133,-0.00451386,-0.585544,0.00392292,0.0193967,1525,456,3.17587,8.88299
308,568,3.15088,-8.70941,-0.00027613,-0.00279008,-0.00308351,0.00179676,-0.00486297,-0.591859,0.00397852,0.0117886,1532,456,3.15091,8.70942
315,568,3.15454,-8.55661,-0.000530466,-0.00285211,-0.00306704,0.00158808,-0.00497065,-0.604488,0.00395099,0.0083091,1539,456,3.15451,8.5566
322,568,3.18127,-8.42853,-0.000728825,-0.00274168,-0.00291668,0.00135018,-0.00482069,-0.619265,0.00374586,0.0100134,1546,456,3.1813,8.42851
329,568,3.1908,-8.2814,-0.000854659,-0.002548,-0.00269037,0.00111912,-0.00452179,-0.632952,0.00344863,0.0108199,1553,456,3.19083,8.28141
336,568,3.18835,-8.11716,-0.000899947,-0.00209095,-0.0023388,0.000917977,-0.00390887,-0.660738,0.00295974,0.0116111,1560,456,3.1884,8.11717
343,568,3.21533,-7.94943,-0.000989208,-0.00174244,-0.00198125,0.000650906,-0.00338256,-0.691474,0.00250041,0.0106732,1567,456,3.21537,7.94943
350,568,3.21069,-7.80252,-0.000975414,-0.00125958,-0.00156344,0.000452393,-0.00268738,-0.740084,0.00195987,0.00931718,1574,456,3.21064,7.80251
357,568,3.20691,-7.62888,-0.000900348,-0.000857292,-0.00114516,0.000266539,-0.00202418,-0.794797,0.00144651,0.00881012,1581,456,3.20686,7.62888
364,568,3.21411,-7.47336,-0.000844302,-0.000403925,-0.00073341,0.000141637,-0.00138986,-0.93123,0.000977216,0.0110175,1588,456,3.21416,7.47337
371,568,3.21814,-7.29599,-0.000789278,1.65e-06,-0.000332151,0.000122632,-0.000910259,-1.2215,0.000651575,0.0198804,1595,456,3.21818,7.29599
378,568,3.21619,-7.09888,-0.000728901,0.000355122,1.25347e-05,0.000355267,-0.000729046,1.55924,0.000638306,0.0177746,1602,456,3.21623,7.09889
385,568,3.1886,-6.9306,-0.000702869,0.000524981,0.00021336,0.000561,-0.000738887,1.40356,0.000752829,0.00849191,1609,456,3.18859,6.93061
392,568,3.17395,-6.77313,-0.000681973,0.000508618,0.000377175,0.000618048,-0.000791403,1.28842,0.000815796,0.00946217,1616,456,3.17397,6.77312
399,568,3.14661,-6.62955,-0.000650314,0.000647605,0.000499431,0.000817535,-0.000820243,1.24284,0.000945572,0.0153143,1623,456,3.14665,6.62955
406,568,3.17871,-6.44009,-0.000686289,0.00102849,0.000584539,0.00120879,-0.00086659,1.27161,0.00120364,0.0142521,1630,456,3.17874,6.44008
413,568,3.18506,-6.23904,-0.000959374,0.00157054,0.000454408,0.00164968,-0.00103852,1.39836,0.00156535,0.011665,1637,456,3.18503,6.23905
420,568,3.17664,-6.05637,-0.00120316,0.00211649,0.00017669,0.00212586,-0.00121254,1.51777,0.00195132,0.0101777,1644,456,3.17661,6.05635
427,568,3.1687,-5.86499,-0.00121827,0.00297617,-0.000137601,0.00298068,-0.00122278,-1.53804,0.00249661,0.0118031,1651,456,3.16873,5.86499
434,568,3.172,-5.70703,-0.00131029,0.00400606,-0.000486424,0.0040502,-0.00135443,-1.4803,0.00324717,0.0146733,1658,456,3.17204,5.70702
441,568,3.15833,-5.56281,-0.00136588,0.00545154,-0.000895946,0.00556732,-0.00148166,-1.44228,0.00429156,0.0221535,1665,456,3.15834,5.5628
448,568,3.06018,-5.06827,-0.00150508,0.00704208,-0.00144151,0.00727865,-0.00174164,-1.40814,0.00552525,0.0391577,1672,456,3.06017,5.06826
455,568,3.15613,-4.7222,-0.00160844,0.00897702,-0.00206404,0.00936525,-0.00199666,-1.38488,0.00700456,0.0480455,1679,456,3.15617,4.72218
462,568,3.03955,-4.5322,-0.00140693,0.0112204,-0.00277939,0.0118051,-0.00199162,-1.36345,0.00861103,0.046008,1686,456,3.0395,4.53218
469,568,2.87097,-4.56195,-0.000630103,0.0135681,-0.00341933,0.0143487,-0.00141066,-1.34636,0.010069,0.0429607,1693,456,2.87099,4.56195
476,568,2.8479,-4.30042,0.00054046,0.0159097,-0.00413617,0.0169521,-0.000501968,-1.32391,0.0114724,0.0489342,1700,456,2.84792,4.30042
483,568,2.82935,-4.01709,0,0,0,0,0,0,0,-1,1707,456,2.82933,4.01708
490,568,5.52991,-3.68573,0,0,0,0,0,0,0,-1,1714,456,5.52992,3.68573
497,568,6.58289,-3.47745,0,0,0,0,0,0,0,-1,1721,456,6.58294,3.47744
504,568,0,0,0,0,0,0,0,0,0,-1,1728,456,0,0
511,568,0,0,0,0,0,0,0,0,0,-1,1735,456,0,0
518,568,0,0,0,0,0,0,0,0,0,-1,1742,456,0,0
525,568,0,0,0,0,0,0,0,0,0,-1,1749,456,0,0
532,568,0,0,0,0,0,0,0,0,0,-1,1756,456,0,0
539,568,0,0,0,0,0,0,0,0,0,-1,1763,456,0,0
546,568,0,0,0,0,0,0,0,0,0,-1,1770,456,0,0
553,568,0,0,0,0,0,0,0,0,0,-1,1777,456,0,0
560,568,0,0,0,0,0,0,0,0,0,-1,1784,456,0,0
567,568,0,0,0,0,0,0,0,0,0,-1,1791,456,0,0
574,568,0,0,0,0,0,0,0,0,0,-1,1798,456,0,0
581,568,0,0,0,0,0,0,0,0,0,-1,1805,456,0,0
588,568,0,0,0,0,0,0,0,0,0,-1,1812,456,0,0
595,568,0,0,0,0,0,0,0,0,0,-1,1819,456,0,0
602,568,0,0,0,0,0,0,0,0,0,-1,1826,456,0,0
609,568,0,0,0,0,0,0,0,0,0,-1,1833,456,0,0
616,568,0,0,0,0,0,0,0,0,0,-1,1840,456,0,0
623,568,0,0,0,0,0,0,0,0,0,-1,1847,456,0,0
630,568,0,0,0,0,0,0,0,0,0,-1,1854,456,0,0
637,568,0,0,0,0,0,0,0,0,0,-1,1861,456,0,0
644,568,0,0,0,0,0,0,0,0,0,-1,1868,456,0,0
651,568,0,0,0,0,0,0,0,0,0,-1,1875,456,0,0
658,568,0,0,0,0,0,0,0,0,0,-1,1882,456,0,0
665,568,0,0,0,0,0,0,0,0,0,-1,1889,456,0,0
672,568,0,0,0,0,0,0,0,0,0,-1,1896,456,0,0
679,568,0,0,0,0,0,0,0,0,0,-1,1903,456,0,0
686,568,0,0,0,0,0,0,0,0,0,-1,1910,456,0,0
693,568,0,0,0,0,0,0,0,0,0,-1,1917,456,0,0
700,568,0,0,0,0,0,0,0,0,0,-1,1924,456,0,0
707,568,0,0,0,0,0,0,0,0,0,-1,1931,456,0,0
714,568,0,0,0,0,0,0,0,0,0,-1,1938,456,0,0
721,568,0,0,0,0,0,0,0,0,0,-1,1945,456,0,0
728,568,0,0,0,0,0,0,0,0,0,-1,1952,456,0,0
735,568,0,0,0,0,0,0,0,0,0,-1,1959,456,0,0
742,568,0,0,0,0,0,0,0,0,0,-1,1966,456,0,0
749,568,0,0,0,0,0,0,0,0,0,-1,1973,456,0,0
756,568,0,0,0,0,0,0,0,0,0,-1,1980,456,0,0
763,568,0,0,0,0,0,0,0,0,0,-1,1987,456,0,0
770,568,0,0,0,0,0,0,0,0,0,-1,1994,456,0,0
777,568,0,0,0,0,0,0,0,0,0,-1,2001,456,0,0
784,568,0,0,0,0,0,0,0,0,0,-1,2008,456,0,0
791,568,0,0,0,0,0,0,0,0,0,-1,2015,456,0,0
798,568,0,0,0,0,0,0,0,0,0,-1,2022,456,0,0
805,568,0,0,0,0,0,0,0,0,0,-1,2029,456,0,0
812,568,0,0,0,0,0,0,0,0,0,-1,2036,456,0,0
-700,561,0,0,0,0,0,0,0,0,0,-1,524,463,0,0
-693,561,0,0,0,0,0,0,0,0,0,-1,531,463,0,0
-686,561,0,0,0,0,0,0,0,0,0,-1,538,463,0,0
-679,561,0,0,0,0,0,0,0,0,0,-1,545,463,0,0
-672,561,0,0,0,0,0,0,0,0,0,-1,552,463,0,0
-665,561,0,0,0,0,0,0,0,0,0,-1,559,463,0,0
-658,561,0,0,0,0,0,0,0,0,0,-1,566,463,0,0
-651,561,0,0,0,0,0,0,0,0,0,-1,573,463,0,0
-644,561,0,0,0,0,0,0,0,0,0,-1,580,463,0,0
-637,561,0,0,0,0,0,0,0,0,0,-1,587,463,0,0
-630,561,0,0,0,0,0,0,0,0,0,-1,594,463,0,0
-623,561,0,0,0,0,0,0,0,0,0,-1,601,463,0,0
-616,561,0,0,0,0,0,0,0,0,0,-1,608,463,0,0
-609,561,0,0,0,0,0,0,0,0,0,-1,615,463,0,0
-602,561,0,0,0,0,0,0,0,0,0,-1,622,463,0,0
-595,561,0,0,0,0,0,0,0,0,0,-1,629,463,0,0
-588,561,0,0,0,0,0,0,0,0,0,-1,636,463,0,0
-581,561,0,0,0,0,0,0,0,0,0,-1,643,463,0,0
-574,561,0,0,0,0,0,0,0,0,0,-1,650,463,0,0
-567,561,0,0,0,0,0,0,0,0,0,-1,657,463,0,0
-560,561,0,0,0,0,0,0,0,0,0,-1,664,463,0,0
-553,561,0,0,0,0,0,0,0,0,0,-1,671,463,0,0
-546,561,0,0,0,0,0,0,0,0,0,-1,678,463,0,0
-539,561,0,0,0,0,0,0,0,0,0,-1,685,463,0,0
-532,561,0,0,0,0,0,0,0,0,0,-1,692,463,0,0
-525,561,0,0,0,0,0,0,0,0,0,-1,699,463,0,0
-518,561,0,0,0,0,0,0,0,0,0,-1,706,463,0,0
-511,561,0,0,0,0,0,0,0,0,0,-1,713,463,0,0
-504,561,0,0,0,0,0,0,0,0,0,-1,720,463,0,0
-497,561,0,0,0,0,0,0,0,0,0,-1,727,463,0,0
-490,561,0,0,0,0,0,0,0,0,0,-1,734,463,0,0
-483,561,0,0,0,0,0,0,0,0,0,-1,741,463,0,0
-476,561,0,0,0,0,0,0,0,0,0,-1,748,463,0,0
-469,561,0,0,0,0,0,0,0,0,0,-1,755,463,0,0
-462,561,0,0,0,0,0,0,0,0,0,-1,762,463,0,0
-455,561,0,0,0,0,0,0,0,0,0,-1,769,463,0,0
-448,561,0,0,0,0,0,0,0,0,0,-1,776,463,0,0
-441,561,0,0,0,0,0,0,0,0,0,-1,783,463,0,0
-434,561,0,0,0,0,0,0,0,0,0,-1,790,463,0,0
-427,561,0,0,0,0,0,0,0,0,0,-1,797,463,0,0
-420,561,0,0,0,0,0,0,0,0,0,-1,804,463,0,0
-413,561,0,0,0,0,0,0,0,0,0,-1,811,463,0,0
-406,561,0,0,0,0,0,0,0,0,0,-1,818,463,0,0
-399,561,0,0,0,0,0,0,0,0,0,-1,825,463,0,0
-392,561,-0.498413,-4.28265,0,0,0,0,0,0,0,-1,832,463,-0.49843,4.28265
-385,561,-0.50647,-4.17508,0,0,0,0,0,0,0,-1,839,463,-0.506441,4.17507
-378,561,-0.194885,-3.97186,0,0,0,0,0,0,0,-1,846,463,-0.194871,3.97187
-371,561,0.185974,-4.26169,0,0,0,0,0,0,0,-1,853,463,0.185967,4.2617
-364,561,0.57135,-4.56784,0,0,0,0,0,0,0,-1,860,463,0.571359,4.56785
-357,561,1.92657,-6.90161,0,0,0,0,0,0,0,-1,867,463,1.92656,6.90162
-350,561,1.71393,-6.76147,0,0,0,0,0,0,0,-1,874,463,1.71395,6.76146
-343,561,1.34088,-6.46243,-0.00432353,-0.00704018,0.00504853,-0.00045379,-0.0109099,0.653983,0.00712684,0.0466992,881,463,1.34089,6.46242
-336,561,1.08722,-6.43866,-0.00236632,-0.00535205,0.00387477,0.00029322,-0.0080116,0.601523,0.00544144,0.0446461,888,463,1.08719,6.43865
-329,561,0.816772,-6.47198,-0.00101282,-0.00356816,0.00239865,0.000427217,-0.0050082,0.540681,0.00348993,0.0326533,895,463,0.816769,6.47198
-322,561,0.895325,-6.59229,0.000124152,-0.00176607,0.000841114,0.000444232,-0.00208615,0.363621,0.00156007,0.0260054,902,463,0.895323,6.59228
-315,561,0.998657,-6.68021,0.000642714,-0.000672798,-0.000224522,0.000679978,-0.000710062,-0.164472,0.000802603,0.0198315,909,463,0.998627,6.6802
-308,561,0.961426,-6.84152,0.000928001,-0.000240492,-0.00110889,0.00159715,-0.000909637,-0.542941,0.00146532,0.0151109,916,463,0.961443,6.84153
-301,561,0.958679,-7.04031,0.00128304,0.000324709,-0.00183792,0.00270323,-0.00109548,-0.657881,0.00225771,0.0113871,923,463,0.958671,7.0403
-294,561,0.925598,-7.20041,0.00132282,0.000606382,-0.00216222,0.00315629,-0.00122709,-0.703307,0.00261117,0.0103042,930,463,0.925588,7.20041
-287,561,0.914917,-7.35678,0.0012861,0.000912923,-0.00234325,0.00345018,-0.00125115,-0.745668,0.00281155,0.0091486,937,463,0.914942,7.35677
-280,561,0.922974,-7.52399,0.00115198,0.000798247,-0.0021822,0.00316447,-0.00121424,-0.744961,0.00261029,0.0116013,944,463,0.923003,7.52398
-273,561,0.920471,-7.702,0.000923908,0.000517635,-0.00178401,0.00251631,-0.00107477,-0.72871,0.00212827,0.0138252,951,463,0.920454,7.702
-266,561,0.911682,-7.86533,0.000660928,0.000164362,-0.0015511,0.00198349,-0.0011582,-0.706037,0.0018346,0.00893281,958,463,0.911683,7.86532
-259,561,0.886658,-7.99084,0.000648758,-4.98815e-05,-0.00114099,0.0014927,-0.000893826,-0.636851,0.00139225,0.00946888,965,463,0.886683,7.99085
-252,561,0.860962,-8.13092,0.000862392,-0.000108083,-0.000693461,0.00122353,-0.000469216,-0.480125,0.00100913,0.013213,972,463,0.86098,8.13091
-245,561,0.88501,-8.30963,0.00112219,-0.000144432,-0.000305762,0.00119213,-0.00021438,-0.224896,0.000875015,0.0158059,979,463,0.885011,8.30965
-238,561,0.921509,-8.47318,0.00136598,-0.000359536,-7.35816e-05,0.00136912,-0.000362669,-0.0425402,0.00105463,0.0125722,986,463,0.92153,8.47318
-231,561,0.914185,-8.61389,0.00171483,-0.000331771,-8.48621e-06,0.00171486,-0.000331807,-0.0041464,0.00126839,0.00995392,993,463,0.914178,8.61388
-224,561,0.921997,-8.75491,0.00213605,-0.00022218,-6.86763e-05,0.00213805,-0.000224178,-0.0290891,0.00150566,0.0103567,1000,463,0.921994,8.75492
-217,561,0.945435,-8.88312,0.00247386,-9.24625e-05,-0.000142992,0.0024818,-0.000100405,-0.0554895,0.001689,0.010799,1007,463,0.945435,8.88313
-210,561,0.937988,-9.01541,0.00263329,-2.06391e-05,-0.000136608,0.0026403,-2.76522e-05,-0.0512931,0.00176949,0.0115543,1014,463,0.937997,9.01541
-203,561,0.931152,-9.15488,0.00269005,-0.000106503,8.64268e-05,0.00269271,-0.000109172,0.0308655,0.00183262,0.0129183,1021,463,0.931147,9.15486
-196,561,0.946899,-9.27115,0.00274084,-0.000129302,0.000744245,0.00292235,-0.000310811,0.239213,0.00205967,0.0133238,1028,463,0.946939,9.27115
-189,561,0.947998,-9.38544,0.00269044,0.000174654,0.00196089,0.00376222,-0.000897128,0.500213,0.00285458,0.0153251,1035,463,0.94794,9.38543
-182,561,0.957275,-9.52869,0.00250392,0.000383525,0.00298061,0.00460727,-0.00171982,0.614527,0.00377762,0.0167635,1042,463,0.957299,9.52868
-175,561,0.991821,-9.65628,0.00222784,0.000619173,0.00444946,0.00594509,-0.00309807,0.695978,0.00530662,0.025072,1049,463,0.991763,9.65628
-168,561,0.98877,-9.7977,0.00229758,-0.000415527,0.00516212,0.00627842,-0.00439636,0.656908,0.00619493,0.0403002,1056,463,0.98883,9.79771
-161,561,0.841675,-9.86362,0.00203585,-0.00150422,0.00354273,0.00422611,-0.00369449,0.553725,0.00457639,0.0445409,1063,463,0.841725,9.86362
-154,561,0.811768,-9.9776,0.00176185,-0.00267308,0.00309647,0.00335296,-0.00426419,0.474665,0.00440824,0.0447738,1070,463,0.811724,9.9776
-147,561,0.859985,-10.0685,0.00157113,-0.00424295,0.00184899,0.00210932,-0.00478115,0.283249,0.00407669,0.0477575,1077,463,0.860039,10.0686
-140,561,0.965576,-9.69626,0.00177751,-0.00606271,-0.000698435,0.00183925,-0.00612444,-0.0881585,0.00481461,0.049469,1084,463,0.965595,9.69625
-133,561,0.930176,-9.27509,0,0,0,0,0,0,0,-1,1091,463,0.930125,9.27508
-126,561,2.62805,-8.48868,0,0,0,0,0,0,0,-1,1098,463,2.628,8.48869
-119,561,2.43787,-9.03772,0.00255661,-0.012422,-0.0138271,0.0107924,-0.0206578,-0.537197,0.0184531,0.0455825,1105,463,2.43791,9.03773
-112,561,2.11707,-9.38669,0.00301106,-0.0139268,-0.0195361,0.0158349,-0.0267506,-0.580873,0.0248545,0.0495485,1112,463,2.11703,9.38668
-105,561,1.80505,-9.72626,0,0,0,0,0,0,0,-1,1119,463,1.80507,9.72625
-98,561,1.5387,-7.54352,0,0,0,0,0,0,0,-1,1126,463,1.53871,7.54351
-91,561,1.29553,-6.57968,0,0,0,0,0,0,0,-1,1133,463,1.29549,6.5797
-84,561,1.23364,-5.84555,0,0,0,0,0,0,0,-1,1140,463,1.23363,5.84556
-77,561,-2.36023,1.00204,0,0,0,0,0,0,0,-1,1147,463,-2.3602,-1.00205
-70,561,-3.90015,-1.41541,0,0,0,0,0,0,0,-1,1154,463,-3.90009,1.4154
-63,561,-6.95691,-4.02756,0,0,0,0,0,0,0,-1,1161,463,-6.95696,4.02756
-56,561,-5.37988,-6.66855,0,0,0,0,0,0,0,-1,1168,463,-5.37988,6.66854
-49,561,-5.7439,-9.11029,0,0,0,0,0,0,0,-1,1175,463,-5.74387,9.1103
-42,561,-1.72644,-5.63065,0,0,0,0,0,0,0,-1,1182,463,-1.72648,5.63064
-35,561,-1.65674,-4.87994,0,0,0,0,0,0,0,-1,1189,463,-1.6567,4.87993
-28,561,-1.91418,-3.86896,0,0,0,0,0,0,0,-1,1196,463,-1.91414,3.86895
-21,561,1.52771,-13.6237,0,0,0,0,0,0,0,-1,1203,463,1.52765,13.6238
-14,561,1.66089,-12.8464,0.0265738,-0.0980039,0.0506119,0.0445437,-0.115974,0.341169,0.0956846,0.047116,1210,463,1.66089,12.8464
-7,561,1.8429,-11.9066,0.0317914,-0.0914928,0.0503843,0.0497629,-0.109464,0.342621,0.0940592,0.0474953,1217,463,1.84289,11.9066
0,561,1.95874,-10.7411,0,0,0,0,0,0,0,-1,1224,463,1.95877,10.7411
7,561,1.87048,-9.83618,0,0,0,0,0,0,0,-1,1231,463,1.8705,9.83619
14,561,2.19824,-9.53625,0,0,0,0,0,0,0,-1,1238,463,2.19825,9.53625
21,561,1.08179,-10.897,0.00659119,-0.00288641,0.0194032,0.0218259,-0.0181211,0.665629,0.0230964,0.0400137,1245,463,1.08179,10.897
28,561,-0.192871,-10.5994,-0.00462066,0.0167764,0.00983222,0.0206082,-0.00845249,1.19918,0.0172605,0.0413226,1252,463,-0.192904,10.5994
35,561,9.08752,-14.0658,0,0,0,0,0,0,0,-1,1259,463,9.08755,14.0658
42,561,8.57642,-13.6519,-0.0208183,0.0540773,-0.00912262,0.0551725,-0.0219134,-1.45132,0.0458656,0.0421735,1266,463,8.57646,13.6519
49,561,7.36694,-12.7382,-0.0248268,0.0682653,-0.0173462,0.0713925,-0.0279539,-1.39243,0.0591571,0.0450935,1273,463,7.3669,12.7382
56,561,6.05591,-12.5699,-0.0241538,0.0792127,-0.0243023,0.0846412,-0.0295824,-1.35103,0.0684532,0.0441626,1280,463,6.05588,12.5699
63,561,4.82495,-12.5794,-0.0194956,0.0840178,-0.028036,0.0911234,-0.0266012,-1.32258,0.0712899,0.047873,1287,463,4.82493,12.5794
70,561,3.54443,-12.8424,0,0,0,0,0,0,0,-1,1294,463,3.54444,12.8424
77,561,2.37976,-12.4776,0.0109502,0.081715,-0.0291289,0.0921627,0.000502381,-1.22641,0.0612751,0.0477826,1301,463,2.37974,12.4776
84,561,3.02417,-12.8649,0.0209234,0.076621,-0.0269861,0.0875511,0.00999327,-1.18596,0.0553379,0.0429021,1308,463,3.02412,12.8649
91,561,3.77917,-13.4741,0.0449832,0.0676047,-0.0221446,0.0811599,0.031428,-1.02151,0.0472532,0.0415926,1315,463,3.77912,13.4741
98,561,4.19678,-13.6641,0.0659561,0.0573514,-0.0168568,0.0790509,0.0442566,-0.660451,0.0457489,0.0432573,1322,463,4.19679,13.6641
105,561,4.70471,-13.5136,0.0840773,0.0489485,-0.0111705,0.0873285,0.0456973,-0.283226,0.0504373,0.0471755,1329,463,4.7047,13.5136
112,561,5.39233,-13.2593,0.0982985,0.0396253,-0.00481771,0.0986915,0.0392323,-0.0813845,0.0573771,0.0459691,1336,463,5.39232,13.2593
119,561,4.6228,-12.3205,0.105745,0.0298907,0.00230005,0.105815,0.029821,0.0302847,0.0630012,0.0437807,1343,463,4.62275,12.3205
126,561,6.10986,-12.5715,0.105061,0.0197339,0.00990459,0.106196,0.0185993,0.114057,0.065484,0.0444561,1350,463,6.10984,12.5715
133,561,7.30054,-12.8911,0,0,0,0,0,0,0,-1,1357,463,7.3006,12.8911
140,561,5.87488,-11.5816,0,0,0,0,0,0,0,-1,1364,463,5.8749,11.5816
147,561,5.74475,-11.0649,0,0,0,0,0,0,0,-1,1371,463,5.74469,11.065
154,561,5.64124,-10.649,0,0,0,0,0,0,0,-1,1378,463,5.64118,10.649
161,561,5.8053,-10.0399,0,0,0,0,0,0,0,-1,1385,463,5.80535,10.0399
168,561,6.14331,-9.40823,0,0,0,0,0,0,0,-1,1392,463,6.14337,9.40823
175,561,10.4185,0.276398,0,0,0,0,0,0,0,-1,1399,463,10.4185,-0.276394
182,561,6.45703,-4.02127,0,0,0,0,0,0,0,-1,1406,463,6.45704,4.02127
189,561,6.50854,-2.08685,0,0,0,0,0,0,0,-1,1413,463,6.50851,2.08686
196,561,6.44775,-0.27182,0,0,0,0,0,0,0,-1,1420,463,6.44773,0.271814
203,561,6.18591,1.1301,0,0,0,0,0,0,0,-1,1427,463,6.18592,-1.13009
210,561,5.68713,2.68427,0,0,0,0,0,0,0,-1,1434,463,5.6871,-2.68425
217,561,3.61743,-7.33582,0,0,0,0,0,0,0,-1,1441,463,3.61738,7.33581
224,561,4.27466,-8.59171,0,0,0,0,0,0,0,-1,1448,463,4.27466,8.59171
231,561,4.93188,-9.8476,0,0,0,0,0,0,0,-1,1455,463,4.93193,9.84761
238,561,2.18018,-5.18359,0,0,0,0,0,0,0,-1,1462,463,2.18023,5.18359
245,561,3.07568,-3.50238,0,0,0,0,0,0,0,-1,1469,463,3.0757,3.50238
252,561,3.47412,-3.71109,0,0,0,0,0,0,0,-1,1476,463,3.47413,3.71109
259,561,3.42212,-3.2334,0,0,0,0,0,0,0,-1,1483,463,3.42214,3.2334
266,561,4.44373,-5.90027,0,0,0,0,0,0,0,-1,1490,463,4.44372,5.90026
273,561,2.59485,-3.65268,0,0,0,0,0,0,0,-1,1497,463,2.5948,3.65268
280,561,3.10767,-6.38235,0,0,0,0,0,0,0,-1,1504,463,3.10766,6.38235
287,561,3.40894,-9.06653,0,0,0,0,0,0,0,-1,1511,463,3.40889,9.06654
294,561,3.3877,-8.84857,0.000467963,-0.00312726,-0.00391341,0.00297688,-0.00563618,-0.570098,0.00505114,0.0487669,1518,463,3.3877,8.84856
301,561,3.36804,-8.86392,-0.000298704,-0.00412661,-0.0044469,0.00262864,-0.00705395,-0.58218,0.00578159,0.0406406,1525,463,3.36802,8.86391
308,561,3.31519,-8.67847,-0.000794358,-0.00444691,-0.00449742,0.00223345,-0.00747471,-0.592533,0.00587098,0.0301557,1532,463,3.31514,8.67847
315,561,3.30542,-8.56461,-0.00117016,-0.00442294,-0.00450295,0.00199111,-0.00758421,-0.612097,0.00583422,0.0205102,1539,463,3.30537,8.56462
322,561,3.3324,-8.46216,-0.00143263,-0.00419574,-0.00431335,0.00171501,-0.00734338,-0.630412,0.0055562,0.020915,1546,463,3.3324,8.46216
329,561,3.34253,-8.28647,-0.00156655,-0.00388847,-0.00404134,0.00147727,-0.0069323,-0.645529,0.00518459,0.0143541,1553,463,3.34257,8.28646
336,561,3.37,-8.10214,-0.00157969,-0.00322001,-0.00360403,0.00129632,-0.00609602,-0.67352,0.00455799,0.0115637,1560,463,3.36996,8.10216
343,561,3.36816,-7.9682,-0.00166019,-0.00277376,-0.00318363,0.00101498,-0.00544893,-0.698829,0.00401395,0.00972983,1567,463,3.3681,7.96819
350,561,3.35095,-7.80334,-0.00165906,-0.00223326,-0.00275373,0.000822495,-0.00471482,-0.733456,0.00345021,0.00912799,1574,463,3.35095,7.80335
357,561,3.35925,-7.61774,-0.00156261,-0.00177912,-0.00231062,0.000642287,-0.00398402,-0.76199,0.00289396,0.00957678,1581,463,3.35931,7.61773
364,561,3.38428,-7.47272,-0.00145667,-0.00125951,-0.00185255,0.000497078,-0.00321326,-0.811979,0.00232564,0.00936373,1588,463,3.38425,7.47273
371,561,3.37268,-7.30081,-0.00132765,-0.000788673,-0.00138286,0.000350707,-0.00246704,-0.881632,0.00177319,0.0156997,1595,463,3.37271,7.30082
378,561,3.35278,-7.11963,-0.00115998,-0.000344128,-0.000943236,0.000275614,-0.00177972,-0.98949,0.00128821,0.0113556,1602,463,3.35277,7.11962
385,561,3.35583,-6.93991,-0.00103047,-7.37182e-05,-0.000619798,0.000230844,-0.00133503,-1.11406,0.000976113,0.00926639,1609,463,3.35579,6.93992
392,561,3.34766,-6.76205,-0.000897971,1.04563e-06,-0.000337815,0.000113833,-0.00101076,-1.24856,0.000714811,0.012981,1616,463,3.3477,6.76205
399,561,3.3429,-6.61679,-0.000751071,0.000189781,-9.82202e-05,0.000199925,-0.000761216,-1.46788,0.000585607,0.0193888,1623,463,3.34289,6.61679
406,561,3.37769,-6.4325,-0.000637484,0.00062398,0.000152674,0.000642195,-0.000655699,1.45205,0.000749353,0.0174161,1630,463,3.37766,6.4325
413,561,3.36865,-6.24161,-0.000735583,0.00113868,0.000193307,0.00115841,-0.000755312,1.46909,0.00111303,0.0155415,1637,463,3.36865,6.24161
420,561,3.34558,-6.04926,-0.000807544,0.00162836,0.00010219,0.00163264,-0.000811824,1.52894,0.00143759,0.0121673,1644,463,3.34557,6.04926
427,561,3.35242,-5.84448,-0.000717077,0.00234892,-5.02461e-05,0.00234974,-0.0007179,-1.55441,0.00185275,0.0100777,1651,463,3.35242,5.84448
434,561,3.35791,-5.65515,-0.000709421,0.00316077,-0.000231914,0.00317462,-0.000723269,-1.51116,0.0023942,0.0114734,1658,463,3.3579,5.65515
441,561,3.35669,-5.47455,-0.000674446,0.00420537,-0.000471412,0.00425049,-0.000719569,-1.47537,0.00310147,0.013865,1665,463,3.35674,5.47456
448,561,3.33582,-5.27539,-0.000688384,0.00537556,-0.000808425,0.00548149,-0.00079431,-1.44051,0.00394583,0.0177848,1672,463,3.33586,5.27538
455,561,3.33374,-5.01044,-0.00071576,0.0067277,-0.00128489,0.00694326,-0.000931316,-1.40458,0.00496846,0.0336314,1679,463,3.33376,5.01044
462,561,3.27002,-4.80908,-0.000430102,0.00831499,-0.00188718,0.00870486,-0.000819971,-1.36707,0.00609498,0.0352082,1686,463,3.26996,4.80908
469,561,3.18164,-4.63129,0.000470212,0.00999357,-0.0023646,0.0105484,-8.45869e-05,-1.34034,0.00706061,0.0242548,1693,463,3.18169,4.63128
476,561,3.21082,-4.39755,0.00168485,0.0117269,-0.00286583,0.0124872,0.000924554,-1.31147,0.00803439,0.0418566,1700,463,3.21078,4.39755
483,561,3.27197,-4.16574,0,0,0,0,0,0,0,-1,1707,463,3.27199,4.16573
490,561,6.13135,-2.58374,0,0,0,0,0,0,0,-1,1714,463,6.13139,2.58373
497,561,7.30652,-2.46649,0,0,0,0,0,0,0,-1,1721,463,7.30649,2.4665
504,561,6.45044,-2.35263,0,0,0,0,0,0,0,-1,1728,463,6.4504,2.35263
511,561,0,0,0,0,0,0,0,0,0,-1,1735,463,0,0
518,561,0,0,0,0,0,0,0,0,0,-1,1742,463,0,0
525,561,0,0,0,0,0,0,0,0,0,-1,1749,463,0,0
532,561,0,0,0,0,0,0,0,0,0,-1,1756,463,0,0
539,561,0,0,0,0,0,0,0,0,0,-1,1763,463,0,0
546,561,0,0,0,0,0,0,0,0,0,-1,1770,463,0,0
553,561,0,0,0,0,0,0,0,0,0,-1,1777,463,0,0
560,561,0,0,0,0,0,0,0,0,0,-1,1784,463,0,0
567,561,0,0,0,0,0,0,0,0,0,-1,1791,463,0,0
574,561,0,0,0,0,0,0,0,0,0,-1,1798,463,0,0
581,561,0,0,0,0,0,0,0,0,0,-1,1805,463,0,0
588,561,0,0,0,0,0,0,0,0,0,-1,1812,463,0,0
595,561,0,0,0,0,0,0,0,0,0,-1,1819,463,0,0
602,561,0,0,0,0,0,0,0,0,0,-1,1826,463,0,0
609,561,0,0,0,0,0,0,0,0,0,-1,1833,463,0,0
616,561,0,0,0,0,0,0,0,0,0,-1,1840,463,0,0
623,561,0,0,0,0,0,0,0,0,0,-1,1847,463,0,0
630,561,0,0,0,0,0,0,0,0,0,-1,1854,463,0,0
637,561,0,0,0,0,0,0,0,0,0,-1,1861,463,0,0
644,561,0,0,0,0,0,0,0,0,0,-1,1868,463,0,0
651,561,0,0,0,0,0,0,0,0,0,-1,1875,463,0,0
658,561,0,0,0,0,0,0,0,0,0,-1,1882,463,0,0
665,561,0,0,0,0,0,0,0,0,0,-1,1889,463,0,0
672,561,0,0,0,0,0,0,0,0,0,-1,1896,463,0,0
679,561,0,0,0,0,0,0,0,0,0,-1,1903,463,0,0
686,561,0,0,0,0,0,0,0,0,0,-1,1910,463,0,0
693,561,0,0,0,0,0,0,0,0,0,-1,1917,463,0,0
700,561,0,0,0,0,0,0,0,0,0,-1,1924,463,0,0
707,561,0,0,0,0,0,0,0,0,0,-1,1931,463,0,0
714,561,0,0,0,0,0,0,0,0,0,-1,1938,463,0,0
721,561,0,0,0,0,0,0,0,0,0,-1,1945,463,0,0
728,561,0,0,0,0,0,0,0,0,0,-1,1952,463,0,0
735,561,0,0,0,0,0,0,0,0,0,-1,1959,463,0,0
742,561,0,0,0,0,0,0,0,0,0,-1,1966,463,0,0
749,561,0,0,0,0,0,0,0,0,0,-1,1973,463,0,0
756,561,0,0,0,0,0,0,0,0,0,-1,1980,463,0,0
763,561,0,0,0,0,0,0,0,0,0,-1,1987,463,0,0
770,561,0,0,0,0,0,0,0,0,0,-1,1994,463,0,0
777,561,0,0,0,0,0,0,0,0,0,-1,2001,463,0,0
784,561,0,0,0,0,0,0,0,0,0,-1,2008,463,0,0
791,561,0,0,0,0,0,0,0,0,0,-1,2015,463,0,0
798,561,0,0,0,0,0,0,0,0,0,-1,2022,463,0,0
805,561,0,0,0,0,0,0,0,0,0,-1,2029,463,0,0
812,561,0,0,0,0,0,0,0,0,0,-1,2036,463,0,0
-700,554,0,0,0,0,0,0,0,0,0,-1,524,470,0,0
-693,554,0,0,0,0,0,0,0,0,0,-1,531,470,0,0
-686,554,0,0,0,0,0,0,0,0,0,-1,538,470,0,0
-679,554,0,0,0,0,0,0,0,0,0,-1,545,470,0,0
-672,554,0,0,0,0,0,0,0,0,0,-1,552,470,0,0
-665,554,0,0,0,0,0,0,0,0,0,-1,559,470,0,0
-658,554,0,0,0,0,0,0,0,0,0,-1,566,470,0,0
-651,554,0,0,0,0,0,0,0,0,0,-1,573,470,0,0
-644,554,0,0,0,0,0,0,0,0,0,-1,580,470,0,0
-637,554,0,0,0,0,0,0,0,0,0,-1,587,470,0,0
-630,554,0,0,0,0,0,0,0,0,0,-1,594,470,0,0
-623,554,0,0,0,0,0,0,0,0,0,-1,601,470,0,0
-616,554,0,0,0,0,0,0,0,0,0,-1,608,470,0,0
-609,554,0,0,0,0,0,0,0,0,0,-1,615,470,0,0
-602,554,0,0,0,0,0,0,0,0,0,-1,622,470,0,0
-595,554,0,0,0,0,0,0,0,0,0,-1,629,470,0,0
-588,554,0,0,0,0,0,0,0,0,0,-1,636,470,0,0
-581,554,0,0,0,0,0,0,0,0,0,-1,643,470,0,0
-574,554,0,0,0,0,0,0,0,0,0,-1,650,470,0,0
-567,554,0,0,0,0,0,0,0,0,0,-1,657,470,0,0
-560,554,0,0,0,0,0,0,0,0,0,-1,664,470,0,0
-553,554,0,0,0,0,0,0,0,0,0,-1,671,470,0,0
-546,554,0,0,0,0,0,0,0,0,0,-1,678,470,0,0
-539,554,0,0,0,0,0,0,0,0,0,-1,685,470,0,0
-532,554,0,0,0,0,0,0,0,0,0,-1,692,470,0,0
-525,554,0,0,0,0,0,0,0,0,0,-1,699,470,0,0
-518,554,0,0,0,0,0,0,0,0,0,-1,706,470,0,0
-511,554,0,0,0,0,0,0,0,0,0,-1,713,470,0,0
-504,554,0,0,0,0,0,0,0,0,0,-1,720,470,0,0
-497,554,0,0,0,0,0,0,0,0,0,-1,727,470,0,0
-490,554,0,0,0,0,0,0,0,0,0,-1,734,470,0,0
-483,554,0,0,0,0,0,0,0,0,0,-1,741,470,0,0
-476,554,0,0,0,0,0,0,0,0,0,-1,748,470,0,0
-469,554,0,0,0,0,0,0,0,0,0,-1,755,470,0,0
-462,554,0,0,0,0,0,0,0,0,0,-1,762,470,0,0
-455,554,0,0,0,0,0,0,0,0,0,-1,769,470,0,0
-448,554,0,0,0,0,0,0,0,0,0,-1,776,470,0,0
-441,554,0,0,0,0,0,0,0,0,0,-1,783,470,0,0
-434,554,0,0,0,0,0,0,0,0,0,-1,790,470,0,0
-427,554,0,0,0,0,0,0,0,0,0,-1,797,470,0,0
-420,554,0,0,0,0,0,0,0,0,0,-1,804,470,0,0
-413,554,0,0,0,0,0,0,0,0,0,-1,811,470,0,0
-406,554,0,0,0,0,0,0,0,0,0,-1,818,470,0,0
-399,554,1.22241,-4.88776,0,0,0,0,0,0,0,-1,825,470,1.2224,4.88775
-392,554,-0.667969,-3.71759,0,0,0,0,0,0,0,-1,832,470,-0.667998,3.71759
-385,554,-0.377991,-4.06265,0,0,0,0,0,0,0,-1,839,470,-0.37801,4.06266
-378,554,-0.0618286,-4.44217,0,0,0,0,0,0,0,-1,846,470,-0.0618537,4.44217
-371,554,0.0684204,-4.48541,0,0,0,0,0,0,0,-1,853,470,0.0684178,4.4854
-364,554,0.372986,-4.60822,0,0,0,0,0,0,0,-1,860,470,0.372991,4.60821
-357,554,1.0163,-5.8754,0,0,0,0,0,0,0,-1,867,470,1.01628,5.87539
-350,554,0.903442,-5.80695,0,0,0,0,0,0,0,-1,874,470,0.903456,5.80695
-343,554,0.878174,-5.98938,-0.00293455,-0.00485089,0.00271587,-0.00101278,-0.00677265,0.615813,0.00421823,0.0477711,881,470,0.878203,5.98937
-336,554,0.844116,-6.16034,-0.0019529,-0.0040737,0.00256991,-0.000233212,-0.00579339,0.589728,0.00378692,0.033151,888,470,0.844113,6.16035
-329,554,0.788879,-6.35974,-0.00116857,-0.00300891,0.00187049,-4.16674e-06,-0.00417332,0.556809,0.00278083,0.0152481,895,470,0.788895,6.35974
-322,554,0.7677,-6.54025,-0.000401758,-0.00174355,0.000948849,8.94186e-05,-0.00223473,0.477672,0.0015205,0.00983769,902,470,0.767719,6.54025
-315,554,0.776978,-6.70996,0.000131569,-0.000844604,0.000216352,0.00017737,-0.000890406,0.20862,0.000660711,0.0103209,909,470,0.777006,6.70995
-308,554,0.776367,-6.87912,0.00055655,-0.0004135,-0.000408596,0.000705717,-0.000562667,-0.35004,0.000733853,0.0126345,916,470,0.776347,6.87912
-301,554,0.786621,-7.04077,0.000996242,0.000150529,-0.00099942,0.00165858,-0.000511809,-0.585267,0.00131008,0.0131801,923,470,0.786621,7.04078
-294,554,0.7547,-7.20779,0.00120683,0.000460054,-0.00132363,0.00220873,-0.000541848,-0.647924,0.00168244,0.0112513,930,470,0.75471,7.20779
-287,554,0.739868,-7.37024,0.00136078,0.000784197,-0.0015257,0.00262519,-0.000480211,-0.692021,0.00193021,0.0112666,937,470,0.739859,7.37025
-280,554,0.749451,-7.51855,0.00145594,0.000741182,-0.00146898,0.00261038,-0.000413264,-0.666074,0.00189311,0.0113985,944,470,0.749464,7.51854
-273,554,0.749512,-7.69159,0.00142508,0.000540113,-0.00121264,0.00227345,-0.000308252,-0.610458,0.00162814,0.014449,951,470,0.749489,7.6916
-266,554,0.74585,-7.8671,0.00134397,0.000268054,-0.00106388,0.00199817,-0.000386145,-0.551317,0.00147774,0.0123482,958,470,0.745829,7.86709
-259,554,0.726379,-7.98465,0.00144278,7.67252e-05,-0.000769243,0.00178847,-0.000268966,-0.422348,0.00129134,0.0120422,965,470,0.72639,7.98466
-252,554,0.701904,-8.11685,0.00174325,2.37919e-05,-0.000423696,0.00184199,-7.49424e-05,-0.228945,0.00125372,0.0135697,972,470,0.701919,8.11686
-245,554,0.690796,-8.28177,0.002032,-4.01348e-05,-0.000106919,0.0020375,-4.5637e-05,-0.0514164,0.0013738,0.0152901,979,470,0.690776,8.28176
-238,554,0.74469,-8.46094,0.00234083,-0.000266288,6.95425e-06,0.00234085,-0.000266307,0.00266738,0.00165649,0.0115318,986,470,0.744661,8.46093
-231,554,0.762573,-8.61478,0.00273018,-0.000264748,1.73812e-05,0.00273028,-0.000264849,0.00580328,0.00191459,0.00954755,993,470,0.762559,8.61478
-224,554,0.774475,-8.74823,0.0031158,-0.00018468,-2.56722e-05,0.003116,-0.00018488,-0.00777771,0.00214162,0.00976523,1000,470,0.774446,8.74822
-217,554,0.786682,-8.87723,0.00340615,-4.23772e-05,-8.48763e-05,0.00340823,-4.44649e-05,-0.0245925,0.00228712,0.0098373,1007,470,0.7867,8.87723
-210,554,0.806763,-9.03928,0.00354738,9.65501e-06,-3.5977e-05,0.00354775,9.28913e-06,-0.0101681,0.00236207,0.0120296,1014,470,0.806761,9.03928
-203,554,0.821777,-9.19028,0.00359752,-8.49603e-05,0.000269124,0.00361709,-0.000104525,0.0725683,0.00244698,0.0182628,1021,470,0.821751,9.19027
-196,554,0.891968,-9.16617,0,0,0,0,0,0,0,-1,1028,470,0.891917,9.16615
-189,554,0.858398,-9.38739,0.00357784,0.000369005,0.00264134,0.00506386,-0.00111702,0.512467,0.00380332,0.0309638,1035,470,0.858366,9.38739
-182,554,0.849365,-9.57291,0.00329763,0.000699118,0.00392375,0.00613164,-0.00213489,0.625517,0.00495514,0.0370113,1042,470,0.849339,9.57291
-175,554,0.843018,-9.74091,0.00280062,0.00120416,0.00587292,0.00792931,-0.00392453,0.717854,0.0069728,0.0442665,1049,470,0.842962,9.74091
-168,554,0.883789,-9.90094,0,0,0,0,0,0,0,-1,1056,470,0.883736,9.90093
-161,554,0.589478,-9.87091,0,0,0,0,0,0,0,-1,1063,470,0.589439,9.87092
-154,554,0.531006,-9.93497,0.00253955,-0.00259721,0.00358388,0.00438034,-0.004438,0.474492,0.0050913,0.0479343,1070,470,0.53096,9.93496
-147,554,0.518066,-10.0127,0.00235357,-0.00460572,0.00172313,0.00275686,-0.005009,0.229902,0.00454603,0.0480707,1077,470,0.518064,10.0127
-140,554,0.495361,-10.0527,0.0028631,-0.00702658,-0.00196547,0.0032394,-0.00740288,-0.189166,0.00629911,0.04858,1084,470,0.4954,10.0527
-133,554,0.436768,-10.0913,0,0,0,0,0,0,0,-1,1091,470,0.436741,10.0913
-126,554,2.10938,-7.76959,0,0,0,0,0,0,0,-1,1098,470,2.1094,7.76959
-119,554,2.47974,-8.63269,0.00474667,-0.0158106,-0.0208391,0.0177042,-0.0287682,-0.556287,0.0270831,0.0451211,1105,470,2.47976,8.6327
-112,554,2.85962,-9.12958,0.00556844,-0.0181516,-0.0291524,0.025181,-0.0377642,-0.592209,0.0365827,0.0452223,1112,470,2.85958,9.12957
-105,554,2.82129,-9.46112,0,0,0,0,0,0,0,-1,1119,470,2.82127,9.46112
-98,554,1.51929,-7.3624,0,0,0,0,0,0,0,-1,1126,470,1.51928,7.36241
-91,554,1.41089,-6.5864,0,0,0,0,0,0,0,-1,1133,470,1.41093,6.58638
-84,554,1.62305,-5.87186,0,0,0,0,0,0,0,-1,1140,470,1.62299,5.87186
-77,554,-2.56958,1.33258,0,0,0,0,0,0,0,-1,1147,470,-2.56959,-1.33257
-70,554,-3.68164,-1.18332,0,0,0,0,0,0,0,-1,1154,470,-3.68158,1.18331
-63,554,-4.86853,-3.88708,0,0,0,0,0,0,0,-1,1161,470,-4.86853,3.88708
-56,554,-5.69958,-6.45422,0,0,0,0,0,0,0,-1,1168,470,-5.69955,6.45422
-49,554,-6.23645,-8.8569,0,0,0,0,0,0,0,-1,1175,470,-6.23643,8.85689
-42,554,-6.62524,-11.5382,0,0,0,0,0,0,0,-1,1182,470,-6.62522,11.5382
-35,554,-2.40173,-4.59482,0,0,0,0,0,0,0,-1,1189,470,-2.40169,4.59481
-28,554,-0.760132,-1.65555,0,0,0,0,0,0,0,-1,1196,470,-0.760095,1.65556
-21,554,6.67249,-10.1976,0,0,0,0,0,0,0,-1,1203,470,6.67249,10.1976
-14,554,2.21301,-12.0997,0,0,0,0,0,0,0,-1,1210,470,2.21299,12.0997
-7,554,2.19116,-11.1935,0,0,0,0,0,0,0,-1,1217,470,2.19113,11.1935
0,554,1.74451,-10.5679,0.0236207,-0.0942181,0.0607928,0.049361,-0.119958,0.400523,0.100549,0.0494612,1224,470,1.74453,10.5679
7,554,1.99084,-9.07361,0,0,0,0,0,0,0,-1,1231,470,1.99085,9.0736
14,554,1.93481,-7.78745,0,0,0,0,0,0,0,-1,1238,470,1.93478,7.78746
21,554,-0.227783,-10.4813,-0.0128252,-0.00840347,0.0296779,0.0191458,-0.0403745,0.822578,0.035085,0.0411375,1245,470,-0.227732,10.4813
28,554,-1.13342,-10.4958,-0.0252429,0.0149616,0.0181354,0.0219332,-0.0322145,1.20379,0.0314494,0.0400934,1252,470,-1.1334,10.4958
35,554,-2.24268,-10.4774,0,0,0,0,0,0,0,-1,1259,470,-2.24264,10.4774
42,554,10.1636,-14.8351,0,0,0,0,0,0,0,-1,1266,470,10.1636,14.8352
49,554,8.05957,-13.2481,-0.0447989,0.0764024,-0.0141364,0.0780294,-0.0464259,-1.45621,0.0726224,0.0470004,1273,470,8.05953,13.2481
56,554,6.94934,-13.366,-0.0428232,0.0901125,-0.0227452,0.0938965,-0.0466071,-1.40594,0.0826371,0.0461791,1280,470,6.94934,13.366
63,554,6.00098,-13.0731,-0.0363058,0.0959165,-0.026837,0.101156,-0.0415452,-1.37799,0.0847509,0.0485044,1287,470,6.00102,13.0731
70,554,4.67847,-12.7577,0,0,0,0,0,0,0,-1,1294,470,4.67849,12.7577
77,554,2.51428,-12.4373,-0.000651146,0.0918958,-0.026393,0.0988935,-0.00764893,-1.31162,0.0686209,0.0454136,1301,470,2.51432,12.4373
84,554,3.08435,-12.8329,0.00998724,0.0857363,-0.0234009,0.0923823,0.00334117,-1.29407,0.0605053,0.0444464,1308,470,3.08437,12.8329
91,554,4.33313,-13.9915,0,0,0,0,0,0,0,-1,1315,470,4.33312,13.9915
98,554,4.61572,-14.2744,0.0640661,0.0621646,-0.0104225,0.0735811,0.0526495,-0.739913,0.0437779,0.0429196,1322,470,4.61571,14.2744
105,554,4.96387,-14.0039,0.0866271,0.0517545,-0.00340386,0.0869563,0.0514253,-0.0963961,0.050483,0.044789,1329,470,4.96385,14.0039
112,554,5.97974,-13.2899,0.104186,0.0400641,0.00430895,0.104474,0.0397758,0.0667992,0.0608876,0.0429212,1336,470,5.97974,13.2899
119,554,3.81079,-12.1465,0.114071,0.0281407,0.012783,0.115933,0.0262794,0.144589,0.0701881,0.042705,1343,470,3.81076,12.1465
126,554,5.43042,-12.3855,0.114685,0.0164878,0.0218611,0.119332,0.0118409,0.209448,0.075916,0.042687,1350,470,5.43045,12.3855
133,554,6.5863,-12.7618,0.11145,0.00318951,0.0316626,0.12003,-0.00539068,0.264633,0.0818764,0.0466469,1357,470,6.58633,12.7618
140,554,7.75928,-13.0995,0,0,0,0,0,0,0,-1,1364,470,7.75929,13.0995
147,554,6.56396,-10.7626,0,0,0,0,0,0,0,-1,1371,470,6.56394,10.7626
154,554,6.68494,-11.3695,0,0,0,0,0,0,0,-1,1378,470,6.68494,11.3695
161,554,6.68738,-10.667,0,0,0,0,0,0,0,-1,1385,470,6.68734,10.667
168,554,7.00391,-9.96918,0,0,0,0,0,0,0,-1,1392,470,7.00395,9.96916
175,554,10.663,0.286957,0,0,0,0,0,0,0,-1,1399,470,10.663,-0.286966
182,554,6.71106,-4.50217,0,0,0,0,0,0,0,-1,1406,470,6.71107,4.50215
189,554,6.90479,-2.50348,0,0,0,0,0,0,0,-1,1413,470,6.90477,2.50348
196,554,6.96216,-0.740906,0,0,0,0,0,0,0,-1,1420,470,6.96214,0.740912
203,554,6.43518,0.414154,0,0,0,0,0,0,0,-1,1427,470,6.43523,-0.414141
210,554,6.21167,1.96707,0,0,0,0,0,0,0,-1,1434,470,6.21165,-1.96706
217,554,5.64551,3.4989,0,0,0,0,0,0,0,-1,1441,470,5.64555,-3.49891
224,554,4.85144,-8.85172,0,0,0,0,0,0,0,-1,1448,470,4.85146,8.85173
231,554,3.25073,-5.29642,0,0,0,0,0,0,0,-1,1455,470,3.25078,5.29642
238,554,4.28625,-3.25253,0,0,0,0,0,0,0,-1,1462,470,4.28622,3.25252
245,554,4.0752,-2.90033,0,0,0,0,0,0,0,-1,1469,470,4.07515,2.90032
252,554,3.52112,-0.934998,0,0,0,0,0,0,0,-1,1476,470,3.52113,0.934996
259,554,3.96448,-2.16425,0,0,0,0,0,0,0,-1,1483,470,3.96446,2.16424
266,554,3.0592,-2.71716,0,0,0,0,0,0,0,-1,1490,470,3.05923,2.71718
273,554,2.58521,-3.06876,0,0,0,0,0,0,0,-1,1497,470,2.58524,3.06874
280,554,2.83301,-0.991699,0,0,0,0,0,0,0,-1,1504,470,2.83303,0.991704
287,554,3.54126,-4.12277,0,0,0,0,0,0,0,-1,1511,470,3.54123,4.12277
294,554,3.62036,-8.50146,0,0,0,0,0,0,0,-1,1518,470,3.62031,8.50145
301,554,3.50757,-8.74008,0,0,0,0,0,0,0,-1,1525,470,3.50751,8.74008
308,554,3.5061,-8.72009,0,0,0,0,0,0,0,-1,1532,470,3.50608,8.72008
315,554,3.4635,-8.59338,0,0,0,0,0,0,0,-1,1539,470,3.4635,8.5934
322,554,3.58923,-8.29312,-0.00255961,-0.00611548,-0.00622135,0.00213287,-0.010808,-0.646218,0.00801147,0.0446339,1546,470,3.58925,8.29313
329,554,3.47046,-8.22272,-0.00265553,-0.00561017,-0.00582327,0.00187489,-0.0101406,-0.661173,0.00746426,0.0237564,1553,470,3.4705,8.22273
336,554,3.49182,-8.09763,-0.00257923,-0.00460521,-0.00520531,0.00171075,-0.00889518,-0.689296,0.00657498,0.0113815,1560,470,3.49184,8.09762
343,554,3.49866,-7.98035,-0.00261667,-0.00400682,-0.00465714,0.00139698,-0.00802047,-0.71132,0.00586833,0.00936536,1567,470,3.49869,7.98034
350,554,3.50977,-7.81073,-0.0025878,-0.00336156,-0.00415544,0.00119874,-0.00714809,-0.738981,0.00521114,0.00877806,1574,470,3.50972,7.81074
357,554,3.52722,-7.63931,-0.00251026,-0.00281803,-0.00370992,0.00104897,-0.00637726,-0.76467,0.00464085,0.0100732,1581,470,3.52727,7.63932
364,554,3.53894,-7.47513,-0.00239783,-0.00221124,-0.00322243,0.000919247,-0.00552831,-0.79987,0.00402708,0.00863711,1588,470,3.53895,7.47513
371,554,3.53796,-7.31598,-0.00222714,-0.00163726,-0.00268376,0.000767714,-0.00463212,-0.840127,0.00337323,0.00852721,1595,470,3.53794,7.31597
378,554,3.53271,-7.12991,-0.00197715,-0.00108091,-0.00215175,0.000668892,-0.00372694,-0.88806,0.002735,0.00977524,1602,470,3.53275,7.12992
385,554,3.54211,-6.94897,-0.00177285,-0.000693897,-0.0017228,0.000571914,-0.00303866,-0.937132,0.00224087,0.00890283,1609,470,3.54208,6.94899
392,554,3.53955,-6.76398,-0.00155012,-0.000519531,-0.00133681,0.00039786,-0.00246751,-0.969355,0.00179241,0.0122755,1616,470,3.53955,6.76398
399,554,3.5354,-6.59055,-0.00129475,-0.000299143,-0.0009978,0.000318138,-0.00191203,-1.01678,0.0013929,0.0172708,1623,470,3.53539,6.59055
406,554,3.53528,-6.42618,-0.00102642,0.000161574,-0.000601419,0.00041288,-0.00127772,-1.17499,0.00101775,0.0159999,1630,470,3.53532,6.42619
413,554,3.53564,-6.21576,-0.000931834,0.000633091,-0.00039938,0.000729123,-0.00102787,-1.33482,0.00101927,0.0148631,1637,470,3.53568,6.21577
420,554,3.53394,-6.01819,-0.000814408,0.00106754,-0.000306175,0.0011161,-0.000862966,-1.41351,0.00114572,0.0149622,1644,470,3.53396,6.01818
427,554,3.5271,-5.84253,-0.000594749,0.00167182,-0.000290337,0.00170842,-0.000631349,-1.4454,0.00139776,0.0110277,1651,470,3.52704,5.84252
434,554,3.51868,-5.6644,-0.000449394,0.00231752,-0.000295742,0.00234877,-0.000480651,-1.4655,0.00174823,0.00994711,1658,470,3.5187,5.6644
441,554,3.52942,-5.45599,-0.000283658,0.00305791,-0.000353512,0.0030949,-0.000320647,-1.46654,0.00217803,0.0100212,1665,470,3.52946,5.45601
448,554,3.53699,-5.2594,-0.000148139,0.00391779,-0.000474909,0.00397253,-0.000202872,-1.45605,0.0027185,0.0116227,1672,470,3.53693,5.25939
455,554,3.52722,-5.0719,-2.31354e-05,0.00489835,-0.000709539,0.0049986,-0.000123389,-1.43043,0.00337428,0.013767,1679,470,3.52727,5.07189
462,554,3.49756,-4.8772,0.000327627,0.0060163,-0.00116468,0.00624552,9.84101e-05,-1.37647,0.00413126,0.0175715,1686,470,3.49755,4.87718
469,554,3.46375,-4.66754,0.00118964,0.00717928,-0.00152679,0.00754601,0.000822901,-1.33506,0.00478005,0.0238377,1693,470,3.4638,4.66755
476,554,3.59143,-4.41769,0.00221408,0.00844597,-0.00186558,0.00896176,0.00169829,-1.30106,0.00549657,0.0466553,1700,470,3.59145,4.41768
483,554,3.73254,-4.18353,0,0,0,0,0,0,0,-1,1707,470,3.73251,4.18354
490,554,7.31543,-3.51794,0,0,0,0,0,0,0,-1,1714,470,7.3154,3.51794
497,554,7.9751,-2.43454,0,0,0,0,0,0,0,-1,1721,470,7.97505,2.43453
504,554,2.13257,-3.81628,0,0,0,0,0,0,0,-1,1728,470,2.1326,3.8163
511,554,1.31396,-4.02713,0,0,0,0,0,0,0,-1,1735,470,1.31398,4.02712
518,554,-1.15686,-2.436,0,0,0,0,0,0,0,-1,1742,470,-1.15691,2.43599
525,554,0,0,0,0,0,0,0,0,0,-1,1749,470,0,0
532,554,0,0,0,0,0,0,0,0,0,-1,1756,470,0,0
539,554,0,0,0,0,0,0,0,0,0,-1,1763,470,0,0
546,554,0,0,0,0,0,0,0,0,0,-1,1770,470,0,0
553,554,0,0,0,0,0,0,0,0,0,-1,1777,470,0,0
560,554,0,0,0,0,0,0,0,0,0,-1,1784,470,0,0
567,554,0,0,0,0,0,0,0,0,0,-1,1791,470,0,0
574,554,0,0,0,0,0,0,0,0,0,-1,1798,470,0,0
581,554,0,0,0,0,0,0,0,0,0,-1,1805,470,0,0
588,554,0,0,0,0,0,0,0,0,0,-1,1812,470,0,0
595,554,0,0,0,0,0,0,0,0,0,-1,1819,470,0,0
602,554,0,0,0,0,0,0,0,0,0,-1,1826,470,0,0
609,554,0,0,0,0,0,0,0,0,0,-1,1833,470,0,0
616,554,0,0,0,0,0,0,0,0,0,-1,1840,470,0,0
623,554,0,0,0,0,0,0,0,0,0,-1,1847,470,0,0
630,554,0,0,0,0,0,0,0,0,0,-1,1854,470,0,0
637,554,0,0,0,0,0,0,0,0,0,-1,1861,470,0,0
644,554,0,0,0,0,0,0,0,0,0,-1,1868,470,0,0
651,554,0,0,0,0,0,0,0,0,0,-1,1875,470,0,0
658,554,0,0,0,0,0,0,0,0,0,-1,1882,470,0,0
665,554,0,0,0,0,0,0,0,0,0,-1,1889,470,0,0
672,554,0,0,0,0,0,0,0,0,0,-1,1896,470,0,0
679,554,0,0,0,0,0,0,0,0,0,-1,1903,470,0,0
686,554,0,0,0,0,0,0,0,0,0,-1,1910,470,0,0
693,554,0,0,0,0,0,0,0,0,0,-1,1917,470,0,0
700,554,0,0,0,0,0,0,0,0,0,-1,1924,470,0,0
707,554,0,0,0,0,0,0,0,0,0,-1,1931,470,0,0
714,554,0,0,0,0,0,0,0,0,0,-1,1938,470,0,0
721,554,0,0,0,0,0,0,0,0,0,-1,1945,470,0,0
728,554,0,0,0,0,0,0,0,0,0,-1,1952,470,0,0
735,554,0,0,0,0,0,0,0,0,0,-1,1959,470,0,0
742,554,0,0,0,0,0,0,0,0,0,-1,1966,470,0,0
749,554,0,0,0,0,0,0,0,0,0,-1,1973,470,0,0
756,554,0,0,0,0,0,0,0,0,0,-1,1980,470,0,0
763,554,0,0,0,0,0,0,0,0,0,-1,1987,470,0,0
770,554,0,0,0,0,0,0,0,0,0,-1,1994,470,0,0
777,554,0,0,0,0,0,0,0,0,0,-1,2001,470,0,0
784,554,0,0,0,0,0,0,0,0,0,-1,2008,470,0,0
791,554,0,0,0,0,0,0,0,0,0,-1,2015,470,0,0
798,554,0,0,0,0,0,0,0,0,0,-1,2022,470,0,0
805,554,0,0,0,0,0,0,0,0,0,-1,2029,470,0,0
812,554,0,0,0,0,0,0,0,0,0,-1,2036,470,0,0
-700,547,0,0,0,0,0,0,0,0,0,-1,524,477,0,0
-693,547,0,0,0,0,0,0,0,0,0,-1,531,477,0,0
-686,547,0,0,0,0,0,0,0,0,0,-1,538,477,0,0
-679,547,0,0,0,0,0,0,0,0,0,-1,545,477,0,0
-672,547,0,0,0,0,0,0,0,0,0,-1,552,477,0,0
-665,547,0,0,0,0,0,0,0,0,0,-1,559,477,0,0
-658,547,0,0,0,0,0,0,0,0,0,-1,566,477,0,0
-651,547,0,0,0,0,0,0,0,0,0,-1,573,477,0,0
-644,547,0,0,0,0,0,0,0,0,0,-1,580,477,0,0
-637,547,0,0,0,0,0,0,0,0,0,-1,587,477,0,0
-630,547,0,0,0,0,0,0,0,0,0,-1,594,477,0,0
-623,547,0,0,0,0,0,0,0,0,0,-1,601,477,0,0
-616,547,0,0,0,0,0,0,0,0,0,-1,608,477,0,0
-609,547,0,0,0,0,0,0,0,0,0,-1,615,477,0,0
-602,547,0,0,0,0,0,0,0,0,0,-1,622,477,0,0
-595,547,0,0,0,0,0,0,0,0,0,-1,629,477,0,0
-588,547,0,0,0,0,0,0,0,0,0,-1,636,477,0,0
-581,547,0,0,0,0,0,0,0,0,0,-1,643,477,0,0
-574,547,0,0,0,0,0,0,0,0,0,-1,650,477,0,0
-567,547,0,0,0,0,0,0,0,0,0,-1,657,477,0,0
-560,547,0,0,0,0,0,0,0,0,0,-1,664,477,0,0
-553,547,0,0,0,0,0,0,0,0,0,-1,671,477,0,0
-546,547,0,0,0,0,0,0,0,0,0,-1,678,477,0,0
-539,547,0,0,0,0,0,0,0,0,0,-1,685,477,0,0
-532,547,0,0,0,0,0,0,0,0,0,-1,692,477,0,0
-525,547,0,0,0,0,0,0,0,0,0,-1,699,477,0,0
-518,547,0,0,0,0,0,0,0,0,0,-1,706,477,0,0
-511,547,0,0,0,0,0,0,0,0,0,-1,713,477,0,0
-504,547,0,0,0,0,0,0,0,0,0,-1,720,477,0,0
-497,547,0,0,0,0,0,0,0,0,0,-1,727,477,0,0
-490,547,0,0,0,0,0,0,0,0,0,-1,734,477,0,0
-483,547,0,0,0,0,0,0,0,0,0,-1,741,477,0,0
-476,547,0,0,0,0,0,0,0,0,0,-1,748,477,0,0
-469,547,0,0,0,0,0,0,0,0,0,-1,755,477,0,0
-462,547,0,0,0,0,0,0,0,0,0,-1,762,477,0,0
-455,547,0,0,0,0,0,0,0,0,0,-1,769,477,0,0
-448,547,0,0,0,0,0,0,0,0,0,-1,776,477,0,0
-441,547,0,0,0,0,0,0,0,0,0,-1,783,477,0,0
-434,547,0,0,0,0,0,0,0,0,0,-1,790,477,0,0
-427,547,0,0,0,0,0,0,0,0,0,-1,797,477,0,0
-420,547,0,0,0,0,0,0,0,0,0,-1,804,477,0,0
-413,547,0,0,0,0,0,0,0,0,0,-1,811,477,0,0
-406,547,2.01758,-0.958649,0,0,0,0,0,0,0,-1,818,477,2.01755,0.958642
-399,547,1.61487,-2.37161,0,0,0,0,0,0,0,-1,825,477,1.61489,2.37162
-392,547,1.35889,-1.38098,0,0,0,0,0,0,0,-1,832,477,1.35886,1.38098
-385,547,-0.308533,-4.51331,0,0,0,0,0,0,0,-1,839,477,-0.308519,4.51331
-378,547,-0.17926,-4.71603,0,0,0,0,0,0,0,-1,846,477,-0.179287,4.71602
-371,547,-0.116943,-4.61679,0,0,0,0,0,0,0,-1,853,477,-0.116958,4.61679
-364,547,0.271729,-4.58582,0,0,0,0,0,0,0,-1,860,477,0.271753,4.5858
-357,547,0.863831,-5.85013,0,0,0,0,0,0,0,-1,867,477,0.863806,5.85012
-350,547,0.533997,-5.73846,0,0,0,0,0,0,0,-1,874,477,0.53399,5.73848
-343,547,0.576538,-5.95978,-0.00180405,-0.00314218,0.000900898,-0.00135094,-0.00359529,0.466002,0.00209699,0.0369058,881,477,0.576551,5.95978
-336,547,0.618408,-6.17096,-0.00142902,-0.00295782,0.00134952,-0.000642443,-0.00374439,0.527716,0.00231206,0.0154626,888,477,0.618421,6.17096
-329,547,0.611511,-6.35672,-0.00102261,-0.0023849,0.00118156,-0.000339918,-0.00306759,0.523925,0.0019417,0.00869336,895,477,0.611523,6.35672
-322,547,0.610352,-6.5365,-0.000520296,-0.00151476,0.000741766,-0.000124524,-0.00191053,0.490129,0.00123428,0.0106014,902,477,0.61038,6.5365
-315,547,0.611816,-6.71002,-0.000130765,-0.000767731,0.000326358,6.75683e-06,-0.000905253,0.398805,0.000605767,0.0109831,909,477,0.611812,6.71003
-308,547,0.612488,-6.86987,0.000249153,-0.000382938,-6.26998e-05,0.000255312,-0.000389097,-0.0979229,0.000374713,0.0120243,916,477,0.612506,6.86988
-301,547,0.618408,-7.03363,0.000688218,0.00017001,-0.000497533,0.000990072,-0.000131844,-0.545332,0.0007081,0.0112603,923,477,0.618421,7.03364
-294,547,0.599731,-7.19861,0.000934392,0.000507493,-0.000748851,0.00149962,-5.77345e-05,-0.646562,0.00101954,0.0096641,930,477,0.599746,7.19862
-287,547,0.584595,-7.36716,0.00114936,0.000820518,-0.000893352,0.00189329,7.65805e-05,-0.694393,0.00123746,0.0117567,937,477,0.584572,7.36716
-280,547,0.582458,-7.53052,0.00136423,0.000796534,-0.00086811,0.00199372,0.000167046,-0.62739,0.00127711,0.0134779,944,477,0.582459,7.53051
-273,547,0.575134,-7.68594,0.0014544,0.000631203,-0.000683148,0.00184036,0.000245239,-0.51427,0.00115388,0.012098,951,477,0.575145,7.68594
-266,547,0.575317,-7.86359,0.00152543,0.000398046,-0.000549824,0.00174917,0.000174302,-0.386473,0.00111257,0.0117502,958,477,0.575348,7.8636
-259,547,0.574524,-8.01062,0.00174441,0.000198514,-0.000306659,0.00180302,0.000139904,-0.188846,0.0011582,0.0111922,965,477,0.574553,8.01062
-252,547,0.586182,-8.15826,0.00217714,0.000127732,-1.10795e-05,0.0021772,0.000127672,-0.00540599,0.00141083,0.0107623,972,477,0.586195,8.15825
-245,547,0.59198,-8.31714,0.00258838,1.36491e-05,0.000261685,0.0026147,-1.26784e-05,0.10027,0.00174738,0.0120027,979,477,0.591992,8.31713
-238,547,0.600281,-8.45389,0.00307127,-0.000265705,0.000253866,0.00309047,-0.000284908,0.0754977,0.00216155,0.00857435,986,477,0.600286,8.45389
-231,547,0.61731,-8.61386,0.00364192,-0.000265197,0.000235785,0.0036561,-0.000279375,0.060057,0.00253566,0.00796599,993,477,0.617325,8.61385
-224,547,0.625,-8.74185,0.00413096,-0.000187732,0.000221333,0.00414227,-0.000199045,0.0510717,0.0028302,0.0100625,1000,477,0.624983,8.74185
-217,547,0.635437,-8.89038,0.00450427,8.46266e-06,0.000182606,0.00451168,1.05775e-06,0.040528,0.00300743,0.0123348,1007,477,0.635431,8.89038
-210,547,0.667664,-9.04294,0.00472067,0.000131988,0.000223254,0.0047315,0.000121152,0.0485004,0.00311474,0.0197405,1014,477,0.667672,9.04295
-203,547,0.805176,-9.00388,0.00479323,9.67701e-05,0.000574102,0.00486239,2.76093e-05,0.11989,0.00323243,0.0328243,1021,477,0.805194,9.00388
-196,547,1.1001,-8.87207,0,0,0,0,0,0,0,-1,1028,477,1.10006,8.87206
-189,547,1.33826,-8.7789,0,0,0,0,0,0,0,-1,1035,477,1.33826,8.77891
-182,547,0.765015,-9.67053,0,0,0,0,0,0,0,-1,1042,477,0.765014,9.67054
-175,547,0.713623,-9.88284,0,0,0,0,0,0,0,-1,1049,477,0.713563,9.88285
-168,547,1.12463,-8.66785,0,0,0,0,0,0,0,-1,1056,477,1.12461,8.66786
-161,547,0.172852,-10.2466,0,0,0,0,0,0,0,-1,1063,477,0.172848,10.2466
-154,547,0.142334,-9.77972,0,0,0,0,0,0,0,-1,1070,477,0.142356,9.77971
-147,547,0.24939,-9.93164,0,0,0,0,0,0,0,-1,1077,477,0.249388,9.93163
-140,547,0.236328,-9.97873,0,0,0,0,0,0,0,-1,1084,477,0.236345,9.97873
-133,547,0.376709,-8.79092,0,0,0,0,0,0,0,-1,1091,477,0.376746,8.79092
-126,547,0.784302,-9.76431,0,0,0,0,0,0,0,-1,1098,477,0.78428,9.76432
-119,547,2.66589,-8.30411,0,0,0,0,0,0,0,-1,1105,477,2.66592,8.3041
-112,547,4.36194,-9.23029,0,0,0,0,0,0,0,-1,1112,477,4.36195,9.23029
-105,547,4.448,-9.17819,0,0,0,0,0,0,0,-1,1119,477,4.44799,9.1782
-98,547,1.50391,-7.20621,0,0,0,0,0,0,0,-1,1126,477,1.50395,7.20621
-91,547,1.37805,-7.12024,0,0,0,0,0,0,0,-1,1133,477,1.37804,7.12025
-84,547,1.94202,-6.66241,0,0,0,0,0,0,0,-1,1140,477,1.94201,6.66241
-77,547,-2.28357,1.8588,0,0,0,0,0,0,0,-1,1147,477,-2.28356,-1.85879
-70,547,-3.70178,-0.874908,0,0,0,0,0,0,0,-1,1154,477,-3.70182,0.874918
-63,547,-5.12012,-3.60861,0,0,0,0,0,0,0,-1,1161,477,-5.12009,3.60862
-56,547,-6.01917,-6.2399,0,0,0,0,0,0,0,-1,1168,477,-6.01921,6.23991
-49,547,-6.729,-8.60349,0,0,0,0,0,0,0,-1,1175,477,-6.72899,8.60348
-42,547,-2.41736,-5.53012,0,0,0,0,0,0,0,-1,1182,477,-2.41734,5.53011
-35,547,-2.96838,-4.45734,0,0,0,0,0,0,0,-1,1189,477,-2.96839,4.45734
-28,547,-0.869141,-1.29901,0,0,0,0,0,0,0,-1,1196,477,-0.869135,1.29901
-21,547,7.02197,-10.6903,0,0,0,0,0,0,0,-1,1203,477,7.02195,10.6903
-14,547,1.01721,-13.8526,0,0,0,0,0,0,0,-1,1210,477,1.01719,13.8526
-7,547,1.21802,-11.6566,0,0,0,0,0,0,0,-1,1217,477,1.21807,11.6567
0,547,1.34045,-9.83615,0,0,0,0,0,0,0,-1,1224,477,1.34047,9.83614
7,547,1.92285,-8.45636,0,0,0,0,0,0,0,-1,1231,477,1.92288,8.45635
14,547,0,0,0,0,0,0,0,0,0,-1,1238,477,0,0
21,547,0,0,0,0,0,0,0,0,0,-1,1245,477,0,0
28,547,0,0,0,0,0,0,0,0,0,-1,1252,477,0,0
35,547,0,0,0,0,0,0,0,0,0,-1,1259,477,0,0
42,547,0,0,0,0,0,0,0,0,0,-1,1266,477,0,0
49,547,0,0,0,0,0,0,0,0,0,-1,1273,477,0,0
56,547,0,0,0,0,0,0,0,0,0,-1,1280,477,0,0
63,547,0,0,0,0,0,0,0,0,0,-1,1287,477,0,0
70,547,0,0,0,0,0,0,0,0,0,-1,1294,477,0,0
77,547,0,0,0,0,0,0,0,0,0,-1,1301,477,0,0
84,547,0,0,0,0,0,0,0,0,0,-1,1308,477,0,0
91,547,0,0,0,0,0,0,0,0,0,-1,1315,477,0,0
98,547,0,0,0,0,0,0,0,0,0,-1,1322,477,0,0
105,547,4.96729,-14.3407,0,0,0,0,0,0,0,-1,1329,477,4.96724,14.3407
112,547,6.56567,-13.3295,0,0,0,0,0,0,0,-1,1336,477,6.5657,13.3295
119,547,4.32373,-12.2987,0.117549,0.0242632,0.0250406,0.123846,0.0179666,0.246348,0.0772745,0.0434841,1343,477,4.32372,12.2987
126,547,4.82886,-12.4969,0.120581,0.011723,0.0351178,0.130927,0.00137722,0.286498,0.0868292,0.0455416,1350,477,4.82885,12.4969
133,547,5.88721,-12.6905,0.120007,-0.00401763,0.046098,0.135264,-0.0192747,0.319623,0.0972395,0.0482325,1357,477,5.88721,12.6905
140,547,7.01074,-13.1729,0,0,0,0,0,0,0,-1,1364,477,7.01076,13.1729
147,547,8.33264,-13.5351,0,0,0,0,0,0,0,-1,1371,477,8.33259,13.5351
154,547,7.93311,-12.0421,0,0,0,0,0,0,0,-1,1378,477,7.9331,12.0421
161,547,7.54163,-11.2094,0,0,0,0,0,0,0,-1,1385,477,7.5416,11.2094
168,547,-6.75854,-16.465,0,0,0,0,0,0,0,-1,1392,477,-6.75852,16.465
175,547,3.35034,-0.26532,0,0,0,0,0,0,0,-1,1399,477,3.3503,0.265306
182,547,4.26038,3.72672,0,0,0,0,0,0,0,-1,1406,477,4.26039,-3.7267
189,547,3.40454,1.28671,0,0,0,0,0,0,0,-1,1413,477,3.40457,-1.28673
196,547,3.53931,1.87793,0,0,0,0,0,0,0,-1,1420,477,3.53928,-1.87794
203,547,6.49414,-0.425842,0,0,0,0,0,0,0,-1,1427,477,6.4941,0.425844
210,547,4.82092,0.53595,0,0,0,0,0,0,0,-1,1434,477,4.82096,-0.535942
217,547,4.68579,0.480072,0,0,0,0,0,0,0,-1,1441,477,4.68577,-0.480069
224,547,4.55615,0.739807,0,0,0,0,0,0,0,-1,1448,477,4.55613,-0.73981
231,547,5.90869,-3.57721,0,0,0,0,0,0,0,-1,1455,477,5.90871,3.57722
238,547,5.50049,-3.15356,0,0,0,0,0,0,0,-1,1462,477,5.50045,3.15356
245,547,5.13708,-2.65213,0,0,0,0,0,0,0,-1,1469,477,5.13708,2.65212
252,547,3.73511,-0.645233,0,0,0,0,0,0,0,-1,1476,477,3.73515,0.645237
259,547,5.86816,-3.20816,0,0,0,0,0,0,0,-1,1483,477,5.86815,3.20816
266,547,5.40222,-2.45731,0,0,0,0,0,0,0,-1,1490,477,5.40221,2.45732
273,547,3.05737,0.495789,0,0,0,0,0,0,0,-1,1497,477,3.05742,-0.49578
280,547,2.0885,1.47797,0,0,0,0,0,0,0,-1,1504,477,2.08848,-1.47795
287,547,2.31177,-2.21716,0,0,0,0,0,0,0,-1,1511,477,2.31174,2.21717
294,547,2.4823,-3.03659,0,0,0,0,0,0,0,-1,1518,477,2.48229,3.0366
301,547,4.72119,-3.93454,0,0,0,0,0,0,0,-1,1525,477,4.72119,3.93453
308,547,4.07471,-5.42175,0,0,0,0,0,0,0,-1,1532,477,4.07468,5.42174
315,547,3.58496,-6.62112,0,0,0,0,0,0,0,-1,1539,477,3.58497,6.62113
322,547,3.81677,-8.24533,0,0,0,0,0,0,0,-1,1546,477,3.81683,8.24533
329,547,3.70166,-8.1098,-0.0043313,-0.00775214,-0.00814394,0.0022799,-0.0143633,-0.681891,0.010419,0.0468652,1553,477,3.70167,8.10979
336,547,3.73804,-8.07867,-0.00411798,-0.00625056,-0.00724546,0.00213923,-0.0125078,-0.71234,0.00913547,0.0302748,1560,477,3.73803,8.07868
343,547,3.71216,-8.0065,-0.00405606,-0.00544067,-0.00649295,0.00178139,-0.0112781,-0.732287,0.00817748,0.0239844,1567,477,3.71219,8.00651
350,547,3.71838,-7.86343,-0.00397307,-0.00469179,-0.00590156,0.00158007,-0.0102449,-0.75499,0.00741298,0.0181027,1574,477,3.71843,7.86342
357,547,3.698,-7.67255,-0.0038648,-0.00402952,-0.00541845,0.00147191,-0.00936623,-0.777799,0.0067882,0.0133881,1581,477,3.69795,7.67253
364,547,3.69714,-7.47388,-0.00367645,-0.00330285,-0.00485102,0.00136497,-0.00834427,-0.804642,0.00606922,0.0105683,1588,477,3.69714,7.47387
371,547,3.71277,-7.3009,-0.00339561,-0.0026007,-0.00420029,0.0012209,-0.00721721,-0.83257,0.00526583,0.00965313,1595,477,3.71281,7.30089
378,547,3.7168,-7.14429,-0.00299253,-0.00191495,-0.00353426,0.00112135,-0.00602884,-0.86104,0.00444046,0.00991156,1602,477,3.71675,7.14429
385,547,3.71838,-6.9657,-0.00267187,-0.00139624,-0.00298012,0.00101356,-0.00508167,-0.89082,0.00377131,0.00948741,1609,477,3.71836,6.96568
392,547,3.71814,-6.77786,-0.00233417,-0.00110189,-0.0024792,0.000836582,-0.00427264,-0.907192,0.00316437,0.0104673,1616,477,3.71809,6.77788
399,547,3.69373,-6.5802,-0.00196358,-0.000841848,-0.00203802,0.000711073,-0.0035165,-0.919675,0.0026138,0.0125212,1623,477,3.69378,6.5802
406,547,3.70581,-6.38852,-0.00155176,-0.000341823,-0.0015058,0.000675989,-0.00256957,-0.976409,0.00197728,0.0128508,1630,477,3.70579,6.38851
413,547,3.72412,-6.2034,-0.00129535,0.000101043,-0.0011653,0.000761301,-0.00195561,-1.0553,0.00161834,0.0124739,1637,477,3.72416,6.2034
420,547,3.73181,-6.03482,-0.00103367,0.000501331,-0.000910927,0.000924984,-0.00145732,-1.13547,0.00138682,0.0139371,1644,477,3.73181,6.03482
427,547,3.73499,-5.85101,-0.000728495,0.00102026,-0.000744898,0.00129454,-0.00100277,-1.21799,0.00132991,0.0133734,1651,477,3.73499,5.85102
434,547,3.70251,-5.66168,-0.000493877,0.00154749,-0.000595559,0.00170853,-0.000654923,-1.3067,0.00140901,0.00915366,1658,477,3.70247,5.66169
441,547,3.7063,-5.45499,-0.000243852,0.0020625,-0.000496382,0.0021648,-0.000346148,-1.36756,0.00157134,0.00973252,1665,477,3.70633,5.45498
448,547,3.71643,-5.26529,-8.15954e-07,0.00270439,-0.000430527,0.00277126,-6.76805e-05,-1.41672,0.00187047,0.0107446,1672,477,3.71645,5.26528
455,547,3.71851,-5.06403,0.000228814,0.00343178,-0.000456709,0.00349563,0.000164965,-1.43189,0.00227742,0.010911,1679,477,3.7185,5.06403
462,547,3.68652,-4.87503,0.000669876,0.00421927,-0.000704292,0.00435391,0.000535233,-1.3819,0.00274167,0.0111211,1686,477,3.68658,4.87502
469,547,3.70947,-4.70355,0.00152006,0.00500956,-0.000896162,0.00522625,0.00130336,-1.33355,0.00314118,0.0193568,1693,477,3.70945,4.70356
476,547,3.82007,-4.45309,0.00238924,0.005872,-0.00109555,0.00618796,0.00207328,-1.29001,0.00363684,0.0415602,1700,477,3.82006,4.4531
483,547,3.95679,-4.12613,0,0,0,0,0,0,0,-1,1707,477,3.95674,4.12613
490,547,3.65271,-3.71707,0,0,0,0,0,0,0,-1,1714,477,3.65277,3.71708
497,547,2.55481,-3.81421,0,0,0,0,0,0,0,-1,1721,477,2.55476,3.8142
504,547,4.01953,-2.22714,0,0,0,0,0,0,0,-1,1728,477,4.0195,2.22713
511,547,3.96277,-2.31235,0,0,0,0,0,0,0,-1,1735,477,3.96282,2.31235
518,547,4.39844,-1.88782,0,0,0,0,0,0,0,-1,1742,477,4.39839,1.8878
525,547,0.781616,-3.76355,0,0,0,0,0,0,0,-1,1749,477,0.781645,3.76354
532,547,0,0,0,0,0,0,0,0,0,-1,1756,477,0,0
539,547,0,0,0,0,0,0,0,0,0,-1,1763,477,0,0
546,547,0,0,0,0,0,0,0,0,0,-1,1770,477,0,0
553,547,0,0,0,0,0,0,0,0,0,-1,1777,477,0,0
560,547,0,0,0,0,0,0,0,0,0,-1,1784,477,0,0
567,547,0,0,0,0,0,0,0,0,0,-1,1791,477,0,0
574,547,0,0,0,0,0,0,0,0,0,-1,1798,477,0,0
581,547,0,0,0,0,0,0,0,0,0,-1,1805,477,0,0
588,547,0,0,0,0,0,0,0,0,0,-1,1812,477,0,0
595,547,0,0,0,0,0,0,0,0,0,-1,1819,477,0,0
602,547,0,0,0,0,0,0,0,0,0,-1,1826,477,0,0
609,547,0,0,0,0,0,0,0,0,0,-1,1833,477,0,0
616,547,0,0,0,0,0,0,0,0,0,-1,1840,477,0,0
623,547,0,0,0,0,0,0,0,0,0,-1,1847,477,0,0
630,547,0,0,0,0,0,0,0,0,0,-1,1854,477,0,0
637,547,0,0,0,0,0,0,0,0,0,-1,1861,477,0,0
644,547,0,0,0,0,0,0,0,0,0,-1,1868,477,0,0
651,547,0,0,0,0,0,0,0,0,0,-1,1875,477,0,0
658,547,0,0,0,0,0,0,0,0,0,-1,1882,477,0,0
665,547,0,0,0,0,0,0,0,0,0,-1,1889,477,0,0
672,547,0,0,0,0,0,0,0,0,0,-1,1896,477,0,0
679,547,0,0,0,0,0,0,0,0,0,-1,1903,477,0,0
686,547,0,0,0,0,0,0,0,0,0,-1,1910,477,0,0
693,547,0,0,0,0,0,0,0,0,0,-1,1917,477,0,0
700,547,0,0,0,0,0,0,0,0,0,-1,1924,477,0,0
707,547,0,0,0,0,0,0,0,0,0,-1,1931,477,0,0
714,547,0,0,0,0,0,0,0,0,0,-1,1938,477,0,0
721,547,0,0,0,0,0,0,0,0,0,-1,1945,477,0,0
728,547,0,0,0,0,0,0,0,0,0,-1,1952,477,0,0
735,547,0,0,0,0,0,0,0,0,0,-1,1959,477,0,0
742,547,0,0,0,0,0,0,0,0,0,-1,1966,477,0,0
749,547,0,0,0,0,0,0,0,0,0,-1,1973,477,0,0
756,547,0,0,0,0,0,0,0,0,0,-1,1980,477,0,0
763,547,0,0,0,0,0,0,0,0,0,-1,1987,477,0,0
770,547,0,0,0,0,0,0,0,0,0,-1,1994,477,0,0
777,547,0,0,0,0,0,0,0,0,0,-1,2001,477,0,0
784,547,0,0,0,0,0,0,0,0,0,-1,2008,477,0,0
791,547,0,0,0,0,0,0,0,0,0,-1,2015,477,0,0
798,547,0,0,0,0,0,0,0,0,0,-1,2022,477,0,0
805,547,0,0,0,0,0,0,0,0,0,-1,2029,477,0,0
812,547,0,0,0,0,0,0,0,0,0,-1,2036,477,0,0
-700,540,0,0,0,0,0,0,0,0,0,-1,524,484,0,0
-693,540,0,0,0,0,0,0,0,0,0,-1,531,484,0,0
-686,540,0,0,0,0,0,0,0,0,0,-1,538,484,0,0
-679,540,0,0,0,0,0,0,0,0,0,-1,545,484,0,0
-672,540,0,0,0,0,0,0,0,0,0,-1,552,484,0,0
-665,540,0,0,0,0,0,0,0,0,0,-1,559,484,0,0
-658,540,0,0,0,0,0,0,0,0,0,-1,566,484,0,0
-651,540,0,0,0,0,0,0,0,0,0,-1,573,484,0,0
-644,540,0,0,0,0,0,0,0,0,0,-1,580,484,0,0
-637,540,0,0,0,0,0,0,0,0,0,-1,587,484,0,0
-630,540,0,0,0,0,0,0,0,0,0,-1,594,484,0,0
-623,540,0,0,0,0,0,0,0,0,0,-1,601,484,0,0
-616,540,0,0,0,0,0,0,0,0,0,-1,608,484,0,0
-609,540,0,0,0,0,0,0,0,0,0,-1,615,484,0,0
-602,540,0,0,0,0,0,0,0,0,0,-1,622,484,0,0
-595,540,0,0,0,0,0,0,0,0,0,-1,629,484,0,0
-588,540,0,0,0,0,0,0,0,0,0,-1,636,484,0,0
-581,540,0,0,0,0,0,0,0,0,0,-1,643,484,0,0
-574,540,0,0,0,0,0,0,0,0,0,-1,650,484,0,0
-567,540,0,0,0,0,0,0,0,0,0,-1,657,484,0,0
-560,540,0,0,0,0,0,0,0,0,0,-1,664,484,0,0
-553,540,0,0,0,0,0,0,0,0,0,-1,671,484,0,0
-546,540,0,0,0,0,0,0,0,0,0,-1,678,484,0,0
-539,540,0,0,0,0,0,0,0,0,0,-1,685,484,0,0
-532,540,0,0,0,0,0,0,0,0,0,-1,692,484,0,0
-525,540,0,0,0,0,0,0,0,0,0,-1,699,484,0,0
-518,540,0,0,0,0,0,0,0,0,0,-1,706,484,0,0
-511,540,0,0,0,0,0,0,0,0,0,-1,713,484,0,0
-504,540,0,0,0,0,0,0,0,0,0,-1,720,484,0,0
-497,540,0,0,0,0,0,0,0,0,0,-1,727,484,0,0
-490,540,0,0,0,0,0,0,0,0,0,-1,734,484,0,0
-483,540,0,0,0,0,0,0,0,0,0,-1,741,484,0,0
-476,540,0,0,0,0,0,0,0,0,0,-1,748,484,0,0
-469,540,0,0,0,0,0,0,0,0,0,-1,755,484,0,0
-462,540,0,0,0,0,0,0,0,0,0,-1,762,484,0,0
-455,540,0,0,0,0,0,0,0,0,0,-1,769,484,0,0
-448,540,0,0,0,0,0,0,0,0,0,-1,776,484,0,0
-441,540,0,0,0,0,0,0,0,0,0,-1,783,484,0,0
-434,540,0,0,0,0,0,0,0,0,0,-1,790,484,0,0
-427,540,0,0,0,0,0,0,0,0,0,-1,797,484,0,0
-420,540,0.975037,-1.45935,0,0,0,0,0,0,0,-1,804,484,0.975043,1.45934
-413,540,1.38025,-1.57584,-0.0395963,0.106297,0.0284559,0.11165,-0.04495,1.38483,0.0931068,0.0467021,811,484,1.38022,1.57583
-406,540,1.28436,-1.63843,-0.030218,0.099561,0.0206073,0.102755,-0.0334116,1.41705,0.0819432,0.0477179,818,484,1.28439,1.63842
-399,540,1.51007,-2.50653,0,0,0,0,0,0,0,-1,825,484,1.51008,2.50653
-392,540,0.883789,-2.51743,0,0,0,0,0,0,0,-1,832,484,0.883774,2.51744
-385,540,0.769104,-2.28012,0,0,0,0,0,0,0,-1,839,484,0.769126,2.28011
-378,540,-3.828,-3.2016,0,0,0,0,0,0,0,-1,846,484,-3.82798,3.20159
-371,540,-0.0177002,-4.21246,0,0,0,0,0,0,0,-1,853,484,-0.0176722,4.21247
-364,540,0.330505,-4.58722,0,0,0,0,0,0,0,-1,860,484,0.330482,4.58722
-357,540,0.62323,-5.6716,0.00285622,0.00989092,0.000829005,0.00998729,0.00275985,1.45506,0.00595537,0.0491794,867,484,0.623227,5.67159
-350,540,0.412903,-5.84189,0.000461604,0.0013796,-0.000326409,0.00148383,0.000357377,-1.26172,0.000894222,0.0305597,874,484,0.412917,5.84189
-343,540,0.45282,-5.99072,-0.00105015,-0.00170318,-7.48456e-05,-0.00104168,-0.00171165,-0.112667,0.000995957,0.0132499,881,484,0.452823,5.99072
-336,540,0.446289,-6.18695,-0.00111138,-0.00187951,0.000733186,-0.000667761,-0.00232314,0.544134,0.00138107,0.0114501,888,484,0.446309,6.18694
-329,540,0.435303,-6.35333,-0.000945229,-0.0016378,0.000878015,-0.000347681,-0.00223535,0.597565,0.00138892,0.00971723,895,484,0.435323,6.35334
-322,540,0.434021,-6.53195,-0.000618385,-0.00108138,0.000744366,-7.03477e-05,-0.00162941,0.634641,0.0010636,0.0136334,902,484,0.434036,6.53194
-315,540,0.43634,-6.71713,-0.000340332,-0.000514935,0.000572953,0.000151933,-0.0010072,0.709794,0.000727419,0.0131686,909,484,0.436361,6.71713
-308,540,0.434143,-6.86652,-1.02221e-05,-0.000239539,0.000361339,0.000254214,-0.000503975,0.631765,0.000445587,0.012573,916,484,0.434149,6.86653
-301,540,0.426819,-7.01129,0.00040639,0.000226848,4.79832e-05,0.000418409,0.000214829,0.245435,0.000241598,0.011766,923,484,0.426791,7.01128
-294,540,0.449158,-7.18857,0.000685663,0.000527164,-0.000138083,0.000765622,0.000447205,-0.524883,0.000444112,0.0110845,930,484,0.449142,7.18856
-287,540,0.454651,-7.36829,0.000969909,0.000769114,-0.000220591,0.00111188,0.000627147,-0.571842,0.000643695,0.00865839,937,484,0.454626,7.3683
-280,540,0.43335,-7.53571,0.00131871,0.000711503,-0.000222277,0.00139138,0.000638833,-0.315982,0.000804208,0.00961187,944,484,0.433336,7.5357
-273,540,0.42865,-7.7066,0.00154592,0.000547344,-0.000108871,0.00155766,0.000535612,-0.107346,0.000913813,0.0113271,951,484,0.42862,7.70661
-266,540,0.434937,-7.86667,0.00179931,0.000326177,1.2206e-05,0.00179941,0.000326076,0.00828498,0.00110704,0.0117154,958,484,0.434933,7.86668
-259,540,0.441772,-8.01132,0.00217242,0.000119319,0.000202698,0.00219224,9.94985e-05,0.0974736,0.00142948,0.0110043,965,484,0.441786,8.01132
-252,540,0.455383,-8.17804,0.00275896,3.64769e-05,0.000449767,0.00283134,-3.59025e-05,0.159558,0.00189964,0.011692,972,484,0.45537,8.17804
-245,540,0.461182,-8.3432,0.00335311,-0.000108544,0.000648918,0.00347075,-0.000226191,0.179349,0.0023928,0.0120525,979,484,0.46116,8.34322
-238,540,0.458191,-8.45059,0.00402472,-0.000405532,0.000541304,0.0040899,-0.000470712,0.119835,0.00289628,0.00873067,986,484,0.458205,8.45059
-231,540,0.470947,-8.59036,0.00477421,-0.000374054,0.00050983,0.00482422,-0.000424057,0.0977641,0.00336641,0.0112496,993,484,0.470955,8.59037
-224,540,0.497498,-8.73877,0.0054267,-0.000277695,0.000494085,0.00546918,-0.000320174,0.0857638,0.00375739,0.0169102,1000,484,0.497478,8.73878
-217,540,0.519592,-8.92029,0.00595084,-1.26138e-06,0.000466764,0.00598722,-3.76427e-05,0.0777864,0.00400409,0.0254984,1007,484,0.51957,8.92028
-210,540,0.529846,-9.01535,0.00630436,0.000269133,0.000520495,0.00634892,0.000224573,0.0854024,0.00415978,0.0394307,1014,484,0.529842,9.01535
-203,540,0.617981,-9.17734,0.00636861,0.000306798,0.000939866,0.00651099,0.000164418,0.150346,0.00428691,0.0457988,1021,484,0.617982,9.17733
-196,540,0.759766,-9.31073,0,0,0,0,0,0,0,-1,1028,484,0.759733,9.31074
-189,540,1.57434,-8.36887,0,0,0,0,0,0,0,-1,1035,484,1.57428,8.36887
-182,540,0.889893,-7.7973,0,0,0,0,0,0,0,-1,1042,484,0.889893,7.79729
-175,540,1.02588,-7.74042,0,0,0,0,0,0,0,-1,1049,484,1.02589,7.74043
-168,540,1.18164,-7.65347,0,0,0,0,0,0,0,-1,1056,484,1.18163,7.65347
-161,540,-1.31653,-9.93869,0,0,0,0,0,0,0,-1,1063,484,-1.31651,9.93868
-154,540,-0.348145,-9.39148,0,0,0,0,0,0,0,-1,1070,484,-0.348166,9.39148
-147,540,1.22168,-8.1449,0,0,0,0,0,0,0,-1,1077,484,1.22172,8.14489
-140,540,0.466797,-8.22092,0,0,0,0,0,0,0,-1,1084,484,0.466834,8.22091
-133,540,0.733276,-8.80582,0,0,0,0,0,0,0,-1,1091,484,0.733219,8.80582
-126,540,1.06201,-9.57385,0,0,0,0,0,0,0,-1,1098,484,1.06204,9.57385
-119,540,6.18579,-10.4846,0,0,0,0,0,0,0,-1,1105,484,6.18582,10.4846
-112,540,5.8468,-9.65106,0,0,0,0,0,0,0,-1,1112,484,5.84681,9.65106
-105,540,5.50781,-8.81754,0,0,0,0,0,0,0,-1,1119,484,5.5078,8.81753
-98,540,0.73877,-3.08093,0,0,0,0,0,0,0,-1,1126,484,0.738754,3.08092
-91,540,1.56519,-7.48666,0,0,0,0,0,0,0,-1,1133,484,1.56514,7.48667
-84,540,-0.945923,4.43073,0,0,0,0,0,0,0,-1,1140,484,-0.945891,-4.43074
-77,540,-2.28894,2.14368,0,0,0,0,0,0,0,-1,1147,484,-2.28894,-2.14368
-70,540,-3.75244,-0.452576,0,0,0,0,0,0,0,-1,1154,484,-3.75244,0.452576
-63,540,-5.26257,-3.04767,0,0,0,0,0,0,0,-1,1161,484,-5.26262,3.04766
-56,540,-5.19055,-6.12595,0,0,0,0,0,0,0,-1,1168,484,-5.19057,6.12595
-49,540,-5.63867,-8.52298,0,0,0,0,0,0,0,-1,1175,484,-5.63871,8.52298
-42,540,0,0,0,0,0,0,0,0,0,-1,1182,484,0,0
-35,540,0,0,0,0,0,0,0,0,0,-1,1189,484,0,0
-28,540,0,0,0,0,0,0,0,0,0,-1,1196,484,0,0
-21,540,0,0,0,0,0,0,0,0,0,-1,1203,484,0,0
-14,540,0,0,0,0,0,0,0,0,0,-1,1210,484,0,0
-7,540,0,0,0,0,0,0,0,0,0,-1,1217,484,0,0
0,540,0,0,0,0,0,0,0,0,0,-1,1224,484,0,0
7,540,0,0,0,0,0,0,0,0,0,-1,1231,484,0,0
14,540,0,0,0,0,0,0,0,0,0,-1,1238,484,0,0
21,540,0,0,0,0,0,0,0,0,0,-1,1245,484,0,0
28,540,0,0,0,0,0,0,0,0,0,-1,1252,484,0,0
35,540,0,0,0,0,0,0,0,0,0,-1,1259,484,0,0
42,540,0,0,0,0,0,0,0,0,0,-1,1266,484,0,0
49,540,0,0,0,0,0,0,0,0,0,-1,1273,484,0,0
56,540,0,0,0,0,0,0,0,0,0,-1,1280,484,0,0
63,540,0,0,0,0,0,0,0,0,0,-1,1287,484,0,0
70,540,0,0,0,0,0,0,0,0,0,-1,1294,484,0,0
77,540,0,0,0,0,0,0,0,0,0,-1,1301,484,0,0
84,540,0,0,0,0,0,0,0,0,0,-1,1308,484,0,0
91,540,0,0,0,0,0,0,0,0,0,-1,1315,484,0,0
98,540,0,0,0,0,0,0,0,0,0,-1,1322,484,0,0
105,540,0,0,0,0,0,0,0,0,0,-1,1329,484,0,0
112,540,0,0,0,0,0,0,0,0,0,-1,1336,484,0,0
119,540,0,0,0,0,0,0,0,0,0,-1,1343,484,0,0
126,540,0,0,0,0,0,0,0,0,0,-1,1350,484,0,0
133,540,0,0,0,0,0,0,0,0,0,-1,1357,484,0,0
140,540,0,0,0,0,0,0,0,0,0,-1,1364,484,0,0
147,540,0,0,0,0,0,0,0,0,0,-1,1371,484,0,0
154,540,0,0,0,0,0,0,0,0,0,-1,1378,484,0,0
161,540,0,0,0,0,0,0,0,0,0,-1,1385,484,0,0
168,540,3.05078,-0.0010376,0,0,0,0,0,0,0,-1,1392,484,3.05084,0.00102554
175,540,3.37708,0.617035,0,0,0,0,0,0,0,-1,1399,484,3.37707,-0.617046
182,540,3.32678,1.23267,0,0,0,0,0,0,0,-1,1406,484,3.32678,-1.23266
189,540,3.5813,2.15619,0,0,0,0,0,0,0,-1,1413,484,3.58129,-2.1562
196,540,1.84448,-0.801483,0,0,0,0,0,0,0,-1,1420,484,1.84446,0.80148
203,540,4.14648,0.702087,0,0,0,0,0,0,0,-1,1427,484,4.14645,-0.702089
210,540,4.50671,-0.56076,0,0,0,0,0,0,0,-1,1434,484,4.50667,0.560771
217,540,5.00452,-0.278717,0,0,0,0,0,0,0,-1,1441,484,5.00452,0.278709
224,540,6.44458,-2.83527,0,0,0,0,0,0,0,-1,1448,484,6.44457,2.83525
231,540,6.9231,-3.10504,0,0,0,0,0,0,0,-1,1455,484,6.92307,3.10505
238,540,6.4823,-2.58365,0,0,0,0,0,0,0,-1,1462,484,6.48225,2.58363
245,540,6.02087,-1.97916,0,0,0,0,0,0,0,-1,1469,484,6.02088,1.97915
252,540,6.50647,-3.56006,0,0,0,0,0,0,0,-1,1476,484,6.50649,3.56006
259,540,6.01941,-2.798,0,0,0,0,0,0,0,-1,1483,484,6.01941,2.79801
266,540,5.5332,-2.02853,0,0,0,0,0,0,0,-1,1490,484,5.53323,2.02855
273,540,5.06787,-1.28137,0,0,0,0,0,0,0,-1,1497,484,5.06786,1.28136
280,540,1.62903,-2.14609,0,0,0,0,0,0,0,-1,1504,484,1.62906,2.1461
287,540,1.97156,-2.45053,0,0,0,0,0,0,0,-1,1511,484,1.97159,2.45053
294,540,2.44165,-2.6185,0,0,0,0,0,0,0,-1,1518,484,2.44167,2.6185
301,540,4.36169,-2.54272,0,0,0,0,0,0,0,-1,1525,484,4.36165,2.54272
308,540,4.2019,-4.30469,0,0,0,0,0,0,0,-1,1532,484,4.20193,4.3047
315,540,4.45923,-5.32101,0,0,0,0,0,0,0,-1,1539,484,4.45923,5.32103
322,540,4.71655,-6.33737,0,0,0,0,0,0,0,-1,1546,484,4.71653,6.33736
329,540,3.99658,-8.06485,0,0,0,0,0,0,0,-1,1553,484,3.99657,8.06484
336,540,4.03052,-8.12387,0,0,0,0,0,0,0,-1,1560,484,4.03048,8.12386
343,540,3.93042,-8.08331,0,0,0,0,0,0,0,-1,1567,484,3.93044,8.0833
350,540,4.24634,-7.52423,-0.00599461,-0.00630739,-0.00817934,0.00202983,-0.0143318,-0.775839,0.0102981,0.0479095,1574,484,4.24634,7.52423
357,540,3.98804,-7.52664,-0.00585441,-0.00547915,-0.00765964,0.00199516,-0.0133287,-0.797644,0.00962008,0.0370518,1581,484,3.98806,7.52664
364,540,3.85901,-7.42343,-0.00555419,-0.00459394,-0.00697428,0.00191672,-0.0120649,-0.819765,0.00875238,0.0209258,1588,484,3.85906,7.42344
371,540,3.86523,-7.29224,-0.00511314,-0.00372075,-0.00615875,0.00178103,-0.0106149,-0.84168,0.00773891,0.0149581,1595,484,3.86529,7.29224
378,540,3.88574,-7.13406,-0.00450863,-0.00288627,-0.00531237,0.0016765,-0.0090714,-0.861161,0.00667696,0.0121764,1602,484,3.88575,7.13407
385,540,3.88782,-6.96777,-0.00405772,-0.00222002,-0.00460898,0.00156081,-0.00783855,-0.883788,0.0058162,0.0129274,1609,484,3.88786,6.96777
392,540,3.87122,-6.78156,-0.00358002,-0.00178422,-0.00396194,0.00138029,-0.00674453,-0.896831,0.00502011,0.012152,1616,484,3.87119,6.78155
399,540,3.86877,-6.59229,-0.00306051,-0.00146948,-0.00338465,0.00121189,-0.00574188,-0.900821,0.00428933,0.0164806,1623,484,3.86875,6.5923
406,540,3.90356,-6.4162,-0.00247059,-0.00091121,-0.00269015,0.00110996,-0.00449177,-0.926449,0.00342499,0.015776,1630,484,3.90352,6.4162
413,540,3.90259,-6.216,-0.00201886,-0.000471776,-0.00218244,0.00107016,-0.00356079,-0.95571,0.00279961,0.0122914,1637,484,3.90255,6.216
420,540,3.90649,-6.02283,-0.0015841,-7.49418e-05,-0.0017356,0.00106302,-0.00272206,-0.990454,0.00225421,0.0111394,1644,484,3.90651,6.02283
427,540,3.9032,-5.85547,-0.00116339,0.000396675,-0.0013907,0.00121116,-0.00197788,-1.04098,0.00185884,0.0119229,1651,484,3.90322,5.85548
434,540,3.90063,-5.67941,-0.000799905,0.000862622,-0.0010676,0.00138442,-0.0013217,-1.11618,0.00156252,0.0149441,1658,484,3.90059,5.6794
441,540,3.91858,-5.45197,-0.000427491,0.0012346,-0.000798258,0.00155588,-0.000748771,-1.18816,0.00135751,0.018596,1665,484,3.91862,5.45196
448,540,3.90869,-5.27652,-5.86069e-05,0.00174178,-0.000544101,0.00189344,-0.000210266,-1.29896,0.0013379,0.0112569,1672,484,3.90873,5.27652
455,540,3.90295,-5.06693,0.000291794,0.00230706,-0.000371907,0.0023735,0.000225351,-1.39401,0.00151282,0.0101774,1679,484,3.9029,5.06693
462,540,3.86768,-4.85342,0.000825493,0.00286652,-0.000422306,0.00295044,0.000741565,-1.37462,0.00177227,0.0105662,1686,484,3.86768,4.85342
469,540,3.87451,-4.69812,0.00165554,0.00339316,-0.000468747,0.00351155,0.00153716,-1.32341,0.00203262,0.0137147,1693,484,3.87449,4.69811
476,540,3.87939,-4.57144,0.00240031,0.00396023,-0.000556197,0.00413823,0.0022223,-1.26106,0.00239139,0.0205027,1700,484,3.87935,4.57143
483,540,3.90332,-4.37506,0.00338768,0.00488834,-0.000619714,0.00511117,0.00316485,-1.22562,0.00297876,0.0341239,1707,484,3.90329,4.37507
490,540,4.06006,-4.10843,0,0,0,0,0,0,0,-1,1714,484,4.06008,4.10842
497,540,4.27393,-2.67752,0,0,0,0,0,0,0,-1,1721,484,4.27395,2.67751
504,540,3.92505,-3.28204,0,0,0,0,0,0,0,-1,1728,484,3.92505,3.28203
511,540,3.92615,-2.97449,0,0,0,0,0,0,0,-1,1735,484,3.92612,2.97449
518,540,4.44312,-2.54877,0,0,0,0,0,0,0,-1,1742,484,4.44308,2.54877
525,540,4.59082,-2.73288,0,0,0,0,0,0,0,-1,1749,484,4.59084,2.73289
532,540,2.84265,-1.07925,0,0,0,0,0,0,0,-1,1756,484,2.84269,1.07927
539,540,0,0,0,0,0,0,0,0,0,-1,1763,484,0,0
546,540,0,0,0,0,0,0,0,0,0,-1,1770,484,0,0
553,540,0,0,0,0,0,0,0,0,0,-1,1777,484,0,0
560,540,0,0,0,0,0,0,0,0,0,-1,1784,484,0,0
567,540,0,0,0,0,0,0,0,0,0,-1,1791,484,0,0
574,540,0,0,0,0,0,0,0,0,0,-1,1798,484,0,0
581,540,0,0,0,0,0,0,0,0,0,-1,1805,484,0,0
588,540,0,0,0,0,0,0,0,0,0,-1,1812,484,0,0
595,540,0,0,0,0,0,0,0,0,0,-1,1819,484,0,0
602,540,0,0,0,0,0,0,0,0,0,-1,1826,484,0,0
609,540,0,0,0,0,0,0,0,0,0,-1,1833,484,0,0
616,540,0,0,0,0,0,0,0,0,0,-1,1840,484,0,0
623,540,0,0,0,0,0,0,0,0,0,-1,1847,484,0,0
630,540,0,0,0,0,0,0,0,0,0,-1,1854,484,0,0
637,540,0,0,0,0,0,0,0,0,0,-1,1861,484,0,0
644,540,0,0,0,0,0,0,0,0,0,-1,1868,484,0,0
651,540,0,0,0,0,0,0,0,0,0,-1,1875,484,0,0
658,540,0,0,0,0,0,0,0,0,0,-1,1882,484,0,0
665,540,0,0,0,0,0,0,0,0,0,-1,1889,484,0,0
672,540,0,0,0,0,0,0,0,0,0,-1,1896,484,0,0
679,540,0,0,0,0,0,0,0,0,0,-1,1903,484,0,0
686,540,0,0,0,0,0,0,0,0,0,-1,1910,484,0,0
693,540,0,0,0,0,0,0,0,0,0,-1,1917,484,0,0
700,540,0,0,0,0,0,0,0,0,0,-1,1924,484,0,0
707,540,0,0,0,0,0,0,0,0,0,-1,1931,484,0,0
714,540,0,0,0,0,0,0,0,0,0,-1,1938,484,0,0
721,540,0,0,0,0,0,0,0,0,0,-1,1945,484,0,0
728,540,0,0,0,0,0,0,0,0,0,-1,1952,484,0,0
735,540,0,0,0,0,0,0,0,0,0,-1,1959,484,0,0
742,540,0,0,0,0,0,0,0,0,0,-1,1966,484,0,0
749,540,0,0,0,0,0,0,0,0,0,-1,1973,484,0,0
756,540,0,0,0,0,0,0,0,0,0,-1,1980,484,0,0
763,540,0,0,0,0,0,0,0,0,0,-1,1987,484,0,0
770,540,0,0,0,0,0,0,0,0,0,-1,1994,484,0,0
777,540,0,0,0,0,0,0,0,0,0,-1,2001,484,0,0
784,540,0,0,0,0,0,0,0,0,0,-1,2008,484,0,0
791,540,0,0,0,0,0,0,0,0,0,-1,2015,484,0,0
798,540,0,0,0,0,0,0,0,0,0,-1,2022,484,0,0
805,540,0,0,0,0,0,0,0,0,0,-1,2029,484,0,0
812,540,0,0,0,0,0,0,0,0,0,-1,2036,484,0,0
-700,533,0,0,0,0,0,0,0,0,0,-1,524,491,0,0
-693,533,0,0,0,0,0,0,0,0,0,-1,531,491,0,0
-686,533,0,0,0,0,0,0,0,0,0,-1,538,491,0,0
-679,533,0,0,0,0,0,0,0,0,0,-1,545,491,0,0
-672,533,0,0,0,0,0,0,0,0,0,-1,552,491,0,0
-665,533,0,0,0,0,0,0,0,0,0,-1,559,491,0,0
-658,533,0,0,0,0,0,0,0,0,0,-1,566,491,0,0
-651,533,0,0,0,0,0,0,0,0,0,-1,573,491,0,0
-644,533,0,0,0,0,0,0,0,0,0,-1,580,491,0,0
-637,533,0,0,0,0,0,0,0,0,0,-1,587,491,0,0
-630,533,0,0,0,0,0,0,0,0,0,-1,594,491,0,0
-623,533,0,0,0,0,0,0,0,0,0,-1,601,491,0,0
-616,533,0,0,0,0,0,0,0,0,0,-1,608,491,0,0
-609,533,0,0,0,0,0,0,0,0,0,-1,615,491,0,0
-602,533,0,0,0,0,0,0,0,0,0,-1,622,491,0,0
-595,533,0,0,0,0,0,0,0,0,0,-1,629,491,0,0
-588,533,0,0,0,0,0,0,0,0,0,-1,636,491,0,0
-581,533,0,0,0,0,0,0,0,0,0,-1,643,491,0,0
-574,533,0,0,0,0,0,0,0,0,0,-1,650,491,0,0
-567,533,0,0,0,0,0,0,0,0,0,-1,657,491,0,0
-560,533,0,0,0,0,0,0,0,0,0,-1,664,491,0,0
-553,533,0,0,0,0,0,0,0,0,0,-1,671,491,0,0
-546,533,0,0,0,0,0,0,0,0,0,-1,678,491,0,0
-539,533,0,0,0,0,0,0,0,0,0,-1,685,491,0,0
-532,533,0,0,0,0,0,0,0,0,0,-1,692,491,0,0
-525,533,0,0,0,0,0,0,0,0,0,-1,699,491,0,0
-518,533,0,0,0,0,0,0,0,0,0,-1,706,491,0,0
-511,533,0,0,0,0,0,0,0,0,0,-1,713,491,0,0
-504,533,0,0,0,0,0,0,0,0,0,-1,720,491,0,0
-497,533,0,0,0,0,0,0,0,0,0,-1,727,491,0,0
-490,533,0,0,0,0,0,0,0,0,0,-1,734,491,0,0
-483,533,0,0,0,0,0,0,0,0,0,-1,741,491,0,0
-476,533,0,0,0,0,0,0,0,0,0,-1,748,491,0,0
-469,533,0,0,0,0,0,0,0,0,0,-1,755,491,0,0
-462,533,0,0,0,0,0,0,0,0,0,-1,762,491,0,0
-455,533,0,0,0,0,0,0,0,0,0,-1,769,491,0,0
-448,533,0,0,0,0,0,0,0,0,0,-1,776,491,0,0
-441,533,0,0,0,0,0,0,0,0,0,-1,783,491,0,0
-434,533,0,0,0,0,0,0,0,0,0,-1,790,491,0,0
-427,533,1.93567,-3.11438,0,0,0,0,0,0,0,-1,797,491,1.93568,3.11438
-420,533,3.91669,-1.00497,0,0,0,0,0,0,0,-1,804,491,3.9167,1.00496
-413,533,0.209167,-2.00861,-0.033219,0.0874193,0.025779,0.0926971,-0.0384967,1.36886,0.0778696,0.0449165,811,491,0.209185,2.0086
-406,533,0.532837,-2.31833,-0.0253242,0.0822785,0.0179333,0.0851886,-0.0282343,1.40992,0.0681812,0.0435009,818,491,0.532854,2.31832
-399,533,0.794861,-2.87234,-0.0183743,0.0743191,0.0117977,0.0757971,-0.0198523,1.44617,0.0582869,0.0426321,825,491,0.79488,2.87234
-392,533,-0.0529785,-4.45773,0,0,0,0,0,0,0,-1,832,491,-0.0530024,4.45772
-385,533,0.109924,-4.41916,0,0,0,0,0,0,0,-1,839,491,0.109918,4.41915
-378,533,-0.761414,-5.15549,0,0,0,0,0,0,0,-1,846,491,-0.761387,5.15549
-371,533,-0.308594,-5.07498,0,0,0,0,0,0,0,-1,853,491,-0.308575,5.07499
-364,533,0.265259,-5.01062,0.00235068,0.0195453,-7.35654e-05,0.0195456,0.00235036,-1.56652,0.0123219,0.0398662,860,491,0.265284,5.01061
-357,533,0.350342,-5.61273,0.00331293,0.00911205,-0.000576348,0.00916878,0.00325621,-1.47269,0.00536714,0.0254594,867,491,0.350315,5.61272
-350,533,0.289368,-5.77347,0.00115975,0.00212189,-0.00123559,0.00296676,0.000314879,-0.97104,0.00188168,0.0117931,874,491,0.289347,5.77346
-343,533,0.316895,-5.99112,-0.000339052,-0.000692023,-0.000738669,0.000243923,-0.001275,-0.668135,0.000941894,0.0100945,881,491,0.316895,5.99112
-336,533,0.281738,-6.198,-0.000591264,-0.00105925,0.000178678,-0.000530845,-0.00111967,0.326077,0.000646728,0.0144302,888,491,0.281719,6.198
-329,533,0.280518,-6.35666,-0.000564336,-0.00101563,0.000503898,-0.00023787,-0.0013421,0.574884,0.000826927,0.0138564,895,491,0.280536,6.35666
-322,533,0.267151,-6.5264,-0.000346196,-0.000678296,0.000557329,6.92933e-05,-0.00109379,0.640616,0.000753351,0.010925,902,491,0.267152,6.52639
-315,533,0.258179,-6.72253,-0.000139132,-0.000278318,0.000548789,0.00034446,-0.000761909,0.722329,0.000653743,0.0119008,909,491,0.258157,6.72252
-308,533,0.259583,-6.87918,0.000161877,-9.21322e-05,0.000466329,0.000518187,-0.000448442,0.652448,0.000558567,0.0116469,916,491,0.25956,6.87918
-301,533,0.24292,-7.0126,0.000552309,0.000280863,0.000253481,0.000704116,0.000129056,0.539602,0.000432853,0.012793,923,491,0.242904,7.01262
-294,533,0.260742,-7.18097,0.000850337,0.000533367,0.00012627,0.000894489,0.000489215,0.336373,0.000517191,0.0121857,930,491,0.260721,7.18098
-287,533,0.287842,-7.36401,0.00119429,0.000702688,0.000112877,0.00121897,0.000678009,0.215249,0.000705251,0.00951071,937,491,0.287863,7.36402
-280,533,0.296387,-7.53888,0.00166676,0.000606666,0.000104484,0.00167696,0.000596466,0.0973131,0.000981546,0.00803801,944,491,0.296407,7.53889
-273,533,0.281433,-7.70514,0.00200731,0.000440483,0.000175876,0.00202681,0.000420984,0.110419,0.00123503,0.010896,951,491,0.281423,7.70514
-266,533,0.287659,-7.86594,0.00244421,0.000247979,0.000296343,0.00248349,0.000208696,0.131793,0.00159067,0.0110526,958,491,0.287645,7.86593
-259,533,0.299744,-8.01138,0.00299972,6.31046e-05,0.000461805,0.00307063,-7.80565e-06,0.15236,0.00204969,0.0111103,965,491,0.299759,8.01137
-252,533,0.302002,-8.17572,0.00372343,-1.33993e-05,0.000701033,0.00385062,-0.000140585,0.179474,0.0026152,0.0131276,972,491,0.301995,8.17572
-245,533,0.355713,-8.32312,0.00449806,-0.00018034,0.000861987,0.00465183,-0.000334106,0.176528,0.00321837,0.0173067,979,491,0.355739,8.32313
-238,533,0.344666,-8.39047,0.0053304,-0.00055157,0.000718443,0.00541689,-0.000638051,0.119797,0.00384164,0.0194967,986,491,0.344665,8.39047
-231,533,0.391113,-8.51733,0.00624902,-0.000473075,0.000745851,0.00633078,-0.000554837,0.109186,0.0044171,0.0296438,993,491,0.391126,8.51732
-224,533,0.336853,-8.70956,0.00703521,-0.00033621,0.000777842,0.00711639,-0.000417394,0.103995,0.00488933,0.0385225,1000,491,0.336843,8.70957
-217,533,0.379456,-8.86682,0.00775467,6.78412e-05,0.00078929,0.00783488,-1.2367e-05,0.101273,0.00522738,0.043698,1007,491,0.37946,8.86683
-210,533,0.393188,-8.96616,0,0,0,0,0,0,0,-1,1014,491,0.393164,8.96616
-203,533,0.447021,-9.32333,0,0,0,0,0,0,0,-1,1021,491,0.447007,9.32334
-196,533,-0.0411377,-8.76099,0,0,0,0,0,0,0,-1,1028,491,-0.0411046,8.76098
-189,533,0.377808,-8.96536,0,0,0,0,0,0,0,-1,1035,491,0.37775,8.96535
-182,533,0.805786,-7.42383,0,0,0,0,0,0,0,-1,1042,491,0.805827,7.42383
-175,533,0.937744,-7.36966,0,0,0,0,0,0,0,-1,1049,491,0.937769,7.36965
-168,533,2.64807,-2.7543,0,0,0,0,0,0,0,-1,1056,491,2.64812,2.7543
-161,533,1.91833,-1.76553,0,0,0,0,0,0,0,-1,1063,491,1.91836,1.76554
-154,533,-1.24805,-5.92294,0,0,0,0,0,0,0,-1,1070,491,-1.24806,5.92295
-147,533,-0.449951,-7.10913,0,0,0,0,0,0,0,-1,1077,491,-0.449921,7.10912
-140,533,0.481812,-8.27359,0,0,0,0,0,0,0,-1,1084,491,0.481827,8.2736
-133,533,1.23474,-8.92532,0,0,0,0,0,0,0,-1,1091,491,1.2347,8.92532
-126,533,2.89612,-2.59003,0,0,0,0,0,0,0,-1,1098,491,2.89608,2.59003
-119,533,3.00842,-12.8239,0,0,0,0,0,0,0,-1,1105,491,3.00841,12.8239
-112,533,7.05884,-10.21,0,0,0,0,0,0,0,-1,1112,491,7.0588,10.21
-105,533,3.84839,1.12769,0,0,0,0,0,0,0,-1,1119,491,3.84843,-1.12769
-98,533,-1.39392,-5.16367,0,0,0,0,0,0,0,-1,1126,491,-1.39394,5.16367
-91,533,0.367432,4.49753,0,0,0,0,0,0,0,-1,1133,491,0.367468,-4.49754
-84,533,-0.88623,3.03604,0,0,0,0,0,0,0,-1,1140,491,-0.886288,-3.03605
-77,533,0,0,0,0,0,0,0,0,0,-1,1147,491,0,0
-70,533,0,0,0,0,0,0,0,0,0,-1,1154,491,0,0
-63,533,0,0,0,0,0,0,0,0,0,-1,1161,491,0,0
-56,533,0,0,0,0,0,0,0,0,0,-1,1168,491,0,0
-49,533,0,0,0,0,0,0,0,0,0,-1,1175,491,0,0
-42,533,0,0,0,0,0,0,0,0,0,-1,1182,491,0,0
-35,533,0,0,0,0,0,0,0,0,0,-1,1189,491,0,0
-28,533,0,0,0,0,0,0,0,0,0,-1,1196,491,0,0
-21,533,0,0,0,0,0,0,0,0,0,-1,1203,491,0,0
-14,533,0,0,0,0,0,0,0,0,0,-1,1210,491,0,0
-7,533,0,0,0,0,0,0,0,0,0,-1,1217,491,0,0
0,533,0,0,0,0,0,0,0,0,0,-1,1224,491,0,0
7,533,0,0,0,0,0,0,0,0,0,-1,1231,491,0,0
14,533,0,0,0,0,0,0,0,0,0,-1,1238,491,0,0
21,533,0,0,0,0,0,0,0,0,0,-1,1245,491,0,0
28,533,0,0,0,0,0,0,0,0,0,-1,1252,491,0,0
35,533,0,0,0,0,0,0,0,0,0,-1,1259,491,0,0
42,533,0,0,0,0,0,0,0,0,0,-1,1266,491,0,0
49,533,0,0,0,0,0,0,0,0,0,-1,1273,491,0,0
56,533,0,0,0,0,0,0,0,0,0,-1,1280,491,0,0
63,533,0,0,0,0,0,0,0,0,0,-1,1287,491,0,0
70,533,0,0,0,0,0,0,0,0,0,-1,1294,491,0,0
77,533,0,0,0,0,0,0,0,0,0,-1,1301,491,0,0
84,533,0,0,0,0,0,0,0,0,0,-1,1308,491,0,0
91,533,0,0,0,0,0,0,0,0,0,-1,1315,491,0,0
98,533,0,0,0,0,0,0,0,0,0,-1,1322,491,0,0
105,533,0,0,0,0,0,0,0,0,0,-1,1329,491,0,0
112,533,0,0,0,0,0,0,0,0,0,-1,1336,491,0,0
119,533,0,0,0,0,0,0,0,0,0,-1,1343,491,0,0
126,533,0,0,0,0,0,0,0,0,0,-1,1350,491,0,0
133,533,0,0,0,0,0,0,0,0,0,-1,1357,491,0,0
140,533,0,0,0,0,0,0,0,0,0,-1,1364,491,0,0
147,533,0,0,0,0,0,0,0,0,0,-1,1371,491,0,0
154,533,0,0,0,0,0,0,0,0,0,-1,1378,491,0,0
161,533,0,0,0,0,0,0,0,0,0,-1,1385,491,0,0
168,533,0,0,0,0,0,0,0,0,0,-1,1392,491,0,0
175,533,0,0,0,0,0,0,0,0,0,-1,1399,491,0,0
182,533,0,0,0,0,0,0,0,0,0,-1,1406,491,0,0
189,533,0,0,0,0,0,0,0,0,0,-1,1413,491,0,0
196,533,0,0,0,0,0,0,0,0,0,-1,1420,491,0,0
203,533,3.7887,1.16193,0,0,0,0,0,0,0,-1,1427,491,3.78872,-1.16193
210,533,5.09558,-0.216034,0,0,0,0,0,0,0,-1,1434,491,5.09559,0.216028
217,533,6.91614,-2.46814,0,0,0,0,0,0,0,-1,1441,491,6.91618,2.46814
224,533,7.23621,-2.1857,0,0,0,0,0,0,0,-1,1448,491,7.23621,2.1857
231,533,7.23474,-1.92282,0,0,0,0,0,0,0,-1,1455,491,7.2347,1.92282
238,533,7.23535,-1.67258,0,0,0,0,0,0,0,-1,1462,491,7.23539,1.67258
245,533,6.86682,-1.2301,0,0,0,0,0,0,0,-1,1469,491,6.86686,1.23011
252,533,6.63354,-3.07825,0,0,0,0,0,0,0,-1,1476,491,6.6335,3.07824
259,533,6.16431,-2.35037,0,0,0,0,0,0,0,-1,1483,491,6.1643,2.35037
266,533,5.68884,-1.6214,0,0,0,0,0,0,0,-1,1490,491,5.68885,1.6214
273,533,5.21399,-0.864227,0,0,0,0,0,0,0,-1,1497,491,5.21403,0.864227
280,533,1.41089,-1.97946,0,0,0,0,0,0,0,-1,1504,491,1.41087,1.97946
287,533,1.6814,-2.44443,0,0,0,0,0,0,0,-1,1511,491,1.6814,2.44444
294,533,2.2384,-2.57626,0,0,0,0,0,0,0,-1,1518,491,2.23839,2.57625
301,533,3.39941,-4.0817,0,0,0,0,0,0,0,-1,1525,491,3.3994,4.08171
308,533,4.13733,-4.14752,0,0,0,0,0,0,0,-1,1532,491,4.13727,4.14752
315,533,4.80762,-5.29349,0,0,0,0,0,0,0,-1,1539,491,4.80762,5.29347
322,533,5.47803,-6.43942,0,0,0,0,0,0,0,-1,1546,491,5.47798,6.43943
329,533,3.88477,-3.86301,0,0,0,0,0,0,0,-1,1553,491,3.88475,3.86299
336,533,2.52332,-7.37228,0,0,0,0,0,0,0,-1,1560,491,2.52334,7.37227
343,533,5.87952,-6.38858,0,0,0,0,0,0,0,-1,1567,491,5.87953,6.38857
350,533,4.6626,-7.07101,0,0,0,0,0,0,0,-1,1574,491,4.66258,7.07102
357,533,4.22693,-7.41528,0,0,0,0,0,0,0,-1,1581,491,4.22692,7.41528
364,533,4.22522,-7.41397,-0.00835173,-0.00631595,-0.00993095,0.00264913,-0.0173168,-0.836468,0.0125214,0.0395821,1588,491,4.22518,7.41396
371,533,4.02502,-7.31628,-0.00765798,-0.00516366,-0.0088446,0.00252128,-0.0153429,-0.855441,0.0111643,0.0324788,1595,491,4.02498,7.31628
378,533,4.01013,-7.11499,-0.00673682,-0.00411042,-0.00770627,0.00239374,-0.013241,-0.869791,0.00972394,0.0240411,1602,491,4.01013,7.115
385,533,4.08325,-6.93326,-0.00604936,-0.00324635,-0.00676196,0.00225782,-0.0115535,-0.887583,0.00855486,0.0214024,1609,491,4.08331,6.93327
392,533,4.05579,-6.76825,-0.00533346,-0.00263513,-0.00588983,0.00205808,-0.0100267,-0.897989,0.00746564,0.0140589,1616,491,4.05583,6.76826
399,533,4.07239,-6.61478,-0.00457695,-0.00222739,-0.00509474,0.00182626,-0.0086306,-0.898711,0.00644926,0.0126596,1623,491,4.07236,6.61477
406,533,4.09106,-6.44193,-0.00373024,-0.00158146,-0.00417469,0.00165487,-0.00696658,-0.911344,0.00528312,0.0146114,1630,491,4.09107,6.44191
413,533,4.0791,-6.22913,-0.00301764,-0.00110284,-0.00344056,0.00151105,-0.00563152,-0.921099,0.00434648,0.0129478,1637,491,4.07909,6.22914
420,533,4.06384,-6.02734,-0.00236365,-0.000671187,-0.00275277,0.00136249,-0.00439733,-0.934519,0.0034759,0.0114899,1644,491,4.06382,6.02734
427,533,4.09497,-5.8353,-0.00179121,-0.00020183,-0.00219209,0.00133518,-0.00332821,-0.959292,0.00277316,0.012425,1651,491,4.09499,5.83531
434,533,4.08923,-5.65179,-0.00128065,0.000258838,-0.00167523,0.0013327,-0.00235452,-1.00076,0.00215589,0.0133561,1658,491,4.08924,5.65181
441,533,4.1051,-5.44247,-0.000781361,0.000559942,-0.00122886,0.00128924,-0.00151066,-1.03519,0.00161821,0.0149497,1665,491,4.10505,5.44248
448,533,4.10925,-5.2749,-0.000288998,0.00100323,-0.000794105,0.00138087,-0.000666635,-1.1269,0.00120586,0.015726,1672,491,4.10928,5.2749
455,533,4.08569,-5.07321,0.000164251,0.00148519,-0.000440054,0.00161836,3.10785e-05,-1.27693,0.0010687,0.0154646,1679,491,4.08571,5.07322
462,533,4.06091,-4.82526,0.00076238,0.00190092,-0.000312939,0.00198127,0.000682036,-1.31948,0.00116224,0.0149785,1686,491,4.06093,4.82526
469,533,4.07495,-4.66074,0.0015426,0.00225251,-0.00024586,0.00232934,0.00146577,-1.26791,0.00135975,0.0100559,1693,491,4.07499,4.66074
476,533,4.0968,-4.47293,0.00216117,0.00261315,-0.000254341,0.0027274,0.00204692,-1.14862,0.00163922,0.0110266,1700,491,4.09683,4.47293
483,533,4.12573,-4.24625,0.00291988,0.00333553,-0.000258767,0.00345959,0.00279581,-1.12372,0.00212006,0.0181924,1707,491,4.12573,4.24626
490,533,4.19043,-4.1709,0.00378942,0.00415114,-0.000337195,0.00435292,0.00358764,-1.03156,0.00268348,0.0392967,1714,491,4.19043,4.1709
497,533,4.27734,-4.11981,0,0,0,0,0,0,0,-1,1721,491,4.27736,4.11982
504,533,4.08728,-3.42819,0.0060261,0.0072705,-0.000408691,0.00739272,0.00590388,-1.28021,0.00451478,0.047255,1728,491,4.08731,3.42819
511,533,4.11145,-3.1976,0.00776287,0.00945143,-0.000314536,0.00950811,0.00770618,-1.39249,0.00583165,0.0484946,1735,491,4.11139,3.19759
518,533,4.45911,-3.12387,0.009938,0.0125886,-1.92244e-05,0.0125887,0.00993786,-1.56354,0.00766324,0.0485132,1742,491,4.45916,3.12387
525,533,4.64038,-3.38199,0,0,0,0,0,0,0,-1,1749,491,4.64033,3.38198
532,533,3.24243,0.0737,0,0,0,0,0,0,0,-1,1756,491,3.24239,-0.0737072
539,533,3.61609,1.62427,0,0,0,0,0,0,0,-1,1763,491,3.61606,-1.62426
546,533,3.59607,1.65799,0,0,0,0,0,0,0,-1,1770,491,3.59605,-1.658
553,533,0,0,0,0,0,0,0,0,0,-1,1777,491,0,0
560,533,0,0,0,0,0,0,0,0,0,-1,1784,491,0,0
567,533,0,0,0,0,0,0,0,0,0,-1,1791,491,0,0
574,533,0,0,0,0,0,0,0,0,0,-1,1798,491,0,0
581,533,0,0,0,0,0,0,0,0,0,-1,1805,491,0,0
588,533,0,0,0,0,0,0,0,0,0,-1,1812,491,0,0
595,533,0,0,0,0,0,0,0,0,0,-1,1819,491,0,0
602,533,0,0,0,0,0,0,0,0,0,-1,1826,491,0,0
609,533,0,0,0,0,0,0,0,0,0,-1,1833,491,0,0
616,533,0,0,0,0,0,0,0,0,0,-1,1840,491,0,0
623,533,0,0,0,0,0,0,0,0,0,-1,1847,491,0,0
630,533,0,0,0,0,0,0,0,0,0,-1,1854,491,0,0
637,533,0,0,0,0,0,0,0,0,0,-1,1861,491,0,0
644,533,0,0,0,0,0,0,0,0,0,-1,1868,491,0,0
651,533,0,0,0,0,0,0,0,0,0,-1,1875,491,0,0
658,533,0,0,0,0,0,0,0,0,0,-1,1882,491,0,0
665,533,0,0,0,0,0,0,0,0,0,-1,1889,491,0,0
672,533,0,0,0,0,0,0,0,0,0,-1,1896,491,0,0
679,533,0,0,0,0,0,0,0,0,0,-1,1903,491,0,0
686,533,0,0,0,0,0,0,0,0,0,-1,1910,491,0,0
693,533,0,0,0,0,0,0,0,0,0,-1,1917,491,0,0
700,533,0,0,0,0,0,0,0,0,0,-1,1924,491,0,0
707,533,0,0,0,0,0,0,0,0,0,-1,1931,491,0,0
714,533,0,0,0,0,0,0,0,0,0,-1,1938,491,0,0
721,533,0,0,0,0,0,0,0,0,0,-1,1945,491,0,0
728,533,0,0,0,0,0,0,0,0,0,-1,1952,491,0,0
735,533,0,0,0,0,0,0,0,0,0,-1,1959,491,0,0
742,533,0,0,0,0,0,0,0,0,0,-1,1966,491,0,0
749,533,0,0,0,0,0,0,0,0,0,-1,1973,491,0,0
756,533,0,0,0,0,0,0,0,0,0,-1,1980,491,0,0
763,533,0,0,0,0,0,0,0,0,0,-1,1987,491,0,0
770,533,0,0,0,0,0,0,0,0,0,-1,1994,491,0,0
777,533,0,0,0,0,0,0,0,0,0,-1,2001,491,0,0
784,533,0,0,0,0,0,0,0,0,0,-1,2008,491,0,0
791,533,0,0,0,0,0,0,0,0,0,-1,2015,491,0,0
798,533,0,0,0,0,0,0,0,0,0,-1,2022,491,0,0
805,533,0,0,0,0,0,0,0,0,0,-1,2029,491,0,0
812,533,0,0,0,0,0,0,0,0,0,-1,2036,491,0,0
-700,526,0,0,0,0,0,0,0,0,0,-1,524,498,0,0
-693,526,0,0,0,0,0,0,0,0,0,-1,531,498,0,0
-686,526,0,0,0,0,0,0,0,0,0,-1,538,498,0,0
-679,526,0,0,0,0,0,0,0,0,0,-1,545,498,0,0
-672,526,0,0,0,0,0,0,0,0,0,-1,552,498,0,0
-665,526,0,0,0,0,0,0,0,0,0,-1,559,498,0,0
-658,526,0,0,0,0,0,0,0,0,0,-1,566,498,0,0
-651,526,0,0,0,0,0,0,0,0,0,-1,573,498,0,0
-644,526,0,0,0,0,0,0,0,0,0,-1,580,498,0,0
-637,526,0,0,0,0,0,0,0,0,0,-1,587,498,0,0
-630,526,0,0,0,0,0,0,0,0,0,-1,594,498,0,0
-623,526,0,0,0,0,0,0,0,0,0,-1,601,498,0,0
-616,526,0,0,0,0,0,0,0,0,0,-1,608,498,0,0
-609,526,0,0,0,0,0,0,0,0,0,-1,615,498,0,0
-602,526,0,0,0,0,0,0,0,0,0,-1,622,498,0,0
-595,526,0,0,0,0,0,0,0,0,0,-1,629,498,0,0
-588,526,0,0,0,0,0,0,0,0,0,-1,636,498,0,0
-581,526,0,0,0,0,0,0,0,0,0,-1,643,498,0,0
-574,526,0,0,0,0,0,0,0,0,0,-1,650,498,0,0
-567,526,0,0,0,0,0,0,0,0,0,-1,657,498,0,0
-560,526,0,0,0,0,0,0,0,0,0,-1,664,498,0,0
-553,526,0,0,0,0,0,0,0,0,0,-1,671,498,0,0
-546,526,0,0,0,0,0,0,0,0,0,-1,678,498,0,0
-539,526,0,0,0,0,0,0,0,0,0,-1,685,498,0,0
-532,526,0,0,0,0,0,0,0,0,0,-1,692,498,0,0
-525,526,0,0,0,0,0,0,0,0,0,-1,699,498,0,0
-518,526,0,0,0,0,0,0,0,0,0,-1,706,498,0,0
-511,526,0,0,0,0,0,0,0,0,0,-1,713,498,0,0
-504,526,0,0,0,0,0,0,0,0,0,-1,720,498,0,0
-497,526,0,0,0,0,0,0,0,0,0,-1,727,498,0,0
-490,526,0,0,0,0,0,0,0,0,0,-1,734,498,0,0
-483,526,0,0,0,0,0,0,0,0,0,-1,741,498,0,0
-476,526,0,0,0,0,0,0,0,0,0,-1,748,498,0,0
-469,526,0,0,0,0,0,0,0,0,0,-1,755,498,0,0
-462,526,0,0,0,0,0,0,0,0,0,-1,762,498,0,0
-455,526,0,0,0,0,0,0,0,0,0,-1,769,498,0,0
-448,526,0,0,0,0,0,0,0,0,0,-1,776,498,0,0
-441,526,0,0,0,0,0,0,0,0,0,-1,783,498,0,0
-434,526,3.09534,-1.64438,0,0,0,0,0,0,0,-1,790,498,3.09534,1.64436
-427,526,3.20795,-0.557831,0,0,0,0,0,0,0,-1,797,498,3.20794,0.557835
-420,526,3.03705,-1.32764,-0.0315008,0.0697303,0.0346661,0.0804635,-0.042234,1.27054,0.0719765,0.0462599,804,498,3.03707,1.32764
-413,526,-0.755554,-2.56274,-0.0254511,0.0713473,0.0231101,0.0765817,-0.0306854,1.34806,0.0637923,0.0423968,811,498,-0.755565,2.56274
-406,526,-0.286804,-2.99112,-0.0195357,0.0675814,0.0152355,0.070169,-0.0221233,1.40256,0.0556397,0.0417758,818,498,-0.286823,2.99111
-399,526,0.00408936,-3.27106,-0.0140623,0.0614243,0.00908192,0.0625016,-0.0151396,1.45273,0.047525,0.0477244,825,498,0.00409304,3.27106
-392,526,-0.212158,-4.29779,-0.00961273,0.052113,0.00469539,0.0524682,-0.00996786,1.49531,0.0387313,0.0499191,832,498,-0.212188,4.29778
-385,526,-0.368713,-4.33286,0,0,0,0,0,0,0,-1,839,498,-0.368699,4.33284
-378,526,-0.310791,-4.98325,0,0,0,0,0,0,0,-1,846,498,-0.310762,4.98325
-371,526,-0.133789,-5.17654,-0.00155569,0.025104,-0.00194084,0.0252445,-0.00169624,-1.4985,0.0174227,0.0429228,853,498,-0.133817,5.17654
-364,526,0.171936,-5.44852,0.00275257,0.0166185,-0.00124719,0.0167298,0.00264129,-1.4818,0.0103853,0.0226755,860,498,0.171952,5.44853
-357,526,0.0953369,-5.59106,0.00343455,0.00794354,-0.00129801,0.00829051,0.00308759,-1.3096,0.00483818,0.0149443,867,498,0.0953309,5.59107
-350,526,0.105164,-5.78357,0.00154627,0.00237524,-0.00161917,0.00363213,0.00028938,-0.910701,0.00233096,0.0111683,874,498,0.105139,5.78358
-343,526,0.118408,-5.9729,0.000174641,2.67728e-05,-0.00107234,0.0011756,-0.000974183,-0.750979,0.00124299,0.0144308,881,498,0.118406,5.97291
-336,526,0.105347,-6.16431,-0.000166833,-0.00034388,-0.000209825,-2.76222e-05,-0.000483092,-0.585781,0.00031326,0.0144868,888,498,0.10533,6.1643
-329,526,0.112549,-6.33542,-0.000208112,-0.00033259,0.000172069,-8.73713e-05,-0.000453331,0.611865,0.000277716,0.0153734,895,498,0.112539,6.33541
-322,526,0.0973511,-6.52295,-5.04114e-05,-8.27549e-05,0.000311587,0.000245423,-0.000378589,0.759471,0.000362998,0.010089,902,498,0.0973503,6.52294
-315,526,0.0917969,-6.71817,0.000135483,0.000241716,0.000373875,0.000566229,-0.00018903,0.855961,0.000453814,0.00851679,909,498,0.0917711,6.71817
-308,526,0.101074,-6.89261,0.000451968,0.000414064,0.000351508,0.000785035,8.09975e-05,0.758466,0.000498555,0.00817592,916,498,0.101094,6.89262
-301,526,0.0790405,-7.04144,0.00084266,0.000723548,0.000201711,0.000993423,0.000572784,0.64185,0.000575791,0.00969785,923,498,0.0790526,7.04145
-294,526,0.0749512,-7.21405,0.00117503,0.000938036,0.000114791,0.00122152,0.000891553,0.384752,0.000729664,0.00973839,930,498,0.0749538,7.21405
-287,526,0.0956421,-7.37122,0.00159164,0.00103743,0.00017174,0.00164054,0.000988527,0.277414,0.000953786,0.00983774,937,498,0.0956641,7.37123
-280,526,0.0939331,-7.5307,0.0021936,0.000891552,0.000180636,0.0022182,0.000866956,0.135328,0.00129081,0.0114189,944,498,0.0939183,7.5307
-273,526,0.110962,-7.69882,0.0026835,0.000665053,0.000252277,0.00271456,0.000634,0.122476,0.00163975,0.00953903,951,498,0.11094,7.69882
-266,526,0.120117,-7.86044,0.00339731,0.000423122,0.000371837,0.00344309,0.000377339,0.12251,0.00218052,0.00964881,958,498,0.120138,7.86044
-259,526,0.145813,-8.0079,0.00412069,0.000252355,0.000569805,0.00420288,0.000170169,0.143247,0.00274695,0.0166111,965,498,0.145783,8.0079
-252,526,0.137573,-8.16235,0.00495047,0.000150062,0.000876583,0.00510554,-4.99771e-06,0.175081,0.00340536,0.0313718,972,498,0.137586,8.16237
-245,526,0.0947876,-8.37149,0.0058842,-9.33612e-05,0.00109251,0.00607762,-0.00028678,0.175225,0.00415065,0.0386023,979,498,0.0947639,8.3715
-238,526,0.0521851,-8.48187,0.0069001,-0.000690046,0.000904724,0.00700645,-0.000796397,0.117013,0.0049578,0.0377655,986,498,0.0521802,8.48187
-231,526,0.346802,-8.49097,0.00804381,-0.000583864,0.00101729,0.00816214,-0.000702189,0.115794,0.00568995,0.0458362,993,498,0.346783,8.49097
-224,526,0.111023,-8.62051,0,0,0,0,0,0,0,-1,1000,498,0.111003,8.6205
-217,526,0.0791626,-8.7417,0,0,0,0,0,0,0,-1,1007,498,0.0791391,8.74169
-210,526,0.171021,-8.39801,0,0,0,0,0,0,0,-1,1014,498,0.170997,8.398
-203,526,0.151733,-8.55411,0,0,0,0,0,0,0,-1,1021,498,0.151747,8.5541
-196,526,-0.391235,-8.80576,0,0,0,0,0,0,0,-1,1028,498,-0.391266,8.80575
-189,526,0.401245,-5.96826,0,0,0,0,0,0,0,-1,1035,498,0.401197,5.96826
-182,526,1.7323,-2.99405,0,0,0,0,0,0,0,-1,1042,498,1.73226,2.99404
-175,526,2.27637,-2.07983,0,0,0,0,0,0,0,-1,1049,498,2.27639,2.07984
-168,526,2.12036,-1.66049,0,0,0,0,0,0,0,-1,1056,498,2.12035,1.66048
-161,526,2.09082,-1.20572,0,0,0,0,0,0,0,-1,1063,498,2.09086,1.2057
-154,526,-1.3446,-5.37799,0,0,0,0,0,0,0,-1,1070,498,-1.34457,5.37799
-147,526,-0.472656,-6.64996,0,0,0,0,0,0,0,-1,1077,498,-0.472659,6.64997
-140,526,0.422852,-8.03339,0,0,0,0,0,0,0,-1,1084,498,0.422844,8.0334
-133,526,1.09583,-9.2215,0,0,0,0,0,0,0,-1,1091,498,1.09581,9.2215
-126,526,3.42529,-2.36053,0,0,0,0,0,0,0,-1,1098,498,3.42523,2.36052
-119,526,2.7771,-0.764099,0,0,0,0,0,0,0,-1,1105,498,2.7771,0.764107
-112,526,2.57715,-1.1893,0,0,0,0,0,0,0,-1,1112,498,2.57718,1.1893
-105,526,0,0,0,0,0,0,0,0,0,-1,1119,498,0,0
-98,526,0,0,0,0,0,0,0,0,0,-1,1126,498,0,0
-91,526,0,0,0,0,0,0,0,0,0,-1,1133,498,0,0
-84,526,0,0,0,0,0,0,0,0,0,-1,1140,498,0,0
-77,526,0,0,0,0,0,0,0,0,0,-1,1147,498,0,0
-70,526,0,0,0,0,0,0,0,0,0,-1,1154,498,0,0
-63,526,0,0,0,0,0,0,0,0,0,-1,1161,498,0,0
-56,526,0,0,0,0,0,0,0,0,0,-1,1168,498,0,0
-49,526,0,0,0,0,0,0,0,0,0,-1,1175,498,0,0
-42,526,0,0,0,0,0,0,0,0,0,-1,1182,498,0,0
-35,526,0,0,0,0,0,0,0,0,0,-1,1189,498,0,0
-28,526,0,0,0,0,0,0,0,0,0,-1,1196,498,0,0
-21,526,0,0,0,0,0,0,0,0,0,-1,1203,498,0,0
-14,526,0,0,0,0,0,0,0,0,0,-1,1210,498,0,0
-7,526,0,0,0,0,0,0,0,0,0,-1,1217,498,0,0
0,526,0,0,0,0,0,0,0,0,0,-1,1224,498,0,0
7,526,0,0,0,0,0,0,0,0,0,-1,1231,498,0,0
14,526,0,0,0,0,0,0,0,0,0,-1,1238,498,0,0
21,526,0,0,0,0,0,0,0,0,0,-1,1245,498,0,0
28,526,0,0,0,0,0,0,0,0,0,-1,1252,498,0,0
35,526,0,0,0,0,0,0,0,0,0,-1,1259,498,0,0
42,526,0,0,0,0,0,0,0,0,0,-1,1266,498,0,0
49,526,0,0,0,0,0,0,0,0,0,-1,1273,498,0,0
56,526,0,0,0,0,0,0,0,0,0,-1,1280,498,0,0
63,526,0,0,0,0,0,0,0,0,0,-1,1287,498,0,0
70,526,0,0,0,0,0,0,0,0,0,-1,1294,498,0,0
77,526,0,0,0,0,0,0,0,0,0,-1,1301,498,0,0
84,526,0,0,0,0,0,0,0,0,0,-1,1308,498,0,0
91,526,0,0,0,0,0,0,0,0,0,-1,1315,498,0,0
98,526,0,0,0,0,0,0,0,0,0,-1,1322,498,0,0
105,526,0,0,0,0,0,0,0,0,0,-1,1329,498,0,0
112,526,0,0,0,0,0,0,0,0,0,-1,1336,498,0,0
119,526,0,0,0,0,0,0,0,0,0,-1,1343,498,0,0
126,526,0,0,0,0,0,0,0,0,0,-1,1350,498,0,0
133,526,0,0,0,0,0,0,0,0,0,-1,1357,498,0,0
140,526,0,0,0,0,0,0,0,0,0,-1,1364,498,0,0
147,526,0,0,0,0,0,0,0,0,0,-1,1371,498,0,0
154,526,0,0,0,0,0,0,0,0,0,-1,1378,498,0,0
161,526,0,0,0,0,0,0,0,0,0,-1,1385,498,0,0
168,526,0,0,0,0,0,0,0,0,0,-1,1392,498,0,0
175,526,0,0,0,0,0,0,0,0,0,-1,1399,498,0,0
182,526,0,0,0,0,0,0,0,0,0,-1,1406,498,0,0
189,526,0,0,0,0,0,0,0,0,0,-1,1413,498,0,0
196,526,0,0,0,0,0,0,0,0,0,-1,1420,498,0,0
203,526,0,0,0,0,0,0,0,0,0,-1,1427,498,0,0
210,526,0,0,0,0,0,0,0,0,0,-1,1434,498,0,0
217,526,0,0,0,0,0,0,0,0,0,-1,1441,498,0,0
224,526,0,0,0,0,0,0,0,0,0,-1,1448,498,0,0
231,526,7.93237,-1.30618,0,0,0,0,0,0,0,-1,1455,498,7.93238,1.30618
238,526,7.97717,-1.08197,0,0,0,0,0,0,0,-1,1462,498,7.97723,1.08196
245,526,7.2793,-0.792938,0,0,0,0,0,0,0,-1,1469,498,7.27931,0.792926
252,526,6.73523,-2.23608,0,0,0,0,0,0,0,-1,1476,498,6.73525,2.23608
259,526,6.22949,-1.84967,0,0,0,0,0,0,0,-1,1483,498,6.22953,1.84968
266,526,5.72375,-1.46329,0,0,0,0,0,0,0,-1,1490,498,5.72381,1.46328
273,526,4.33984,0.49173,0,0,0,0,0,0,0,-1,1497,498,4.33979,-0.491727
280,526,1.4585,-1.59897,0,0,0,0,0,0,0,-1,1504,498,1.45846,1.59895
287,526,1.46411,-2.40134,0,0,0,0,0,0,0,-1,1511,498,1.46406,2.40133
294,526,5.57471,-4.59085,0,0,0,0,0,0,0,-1,1518,498,5.57466,4.59084
301,526,4.42786,-3.99677,0,0,0,0,0,0,0,-1,1525,498,4.42788,3.99676
308,526,5.79529,-4.19366,0,0,0,0,0,0,0,-1,1532,498,5.79528,4.19368
315,526,5.09851,-5.20068,0,0,0,0,0,0,0,-1,1539,498,5.09851,5.20068
322,526,5.50708,-4.72348,0,0,0,0,0,0,0,-1,1546,498,5.50713,4.72347
329,526,3.88672,-4.345,0,0,0,0,0,0,0,-1,1553,498,3.88674,4.34501
336,526,4.97876,-2.23828,0,0,0,0,0,0,0,-1,1560,498,4.97877,2.23828
343,526,3.31665,-2.69696,0,0,0,0,0,0,0,-1,1567,498,3.31667,2.69696
350,526,6.06287,-6.12015,0,0,0,0,0,0,0,-1,1574,498,6.06286,6.12014
357,526,4.70313,-7.03238,0,0,0,0,0,0,0,-1,1581,498,4.70315,7.03237
364,526,4.57422,-7.63245,0,0,0,0,0,0,0,-1,1588,498,4.57423,7.63244
371,526,4.25525,-7.66562,0,0,0,0,0,0,0,-1,1595,498,4.25522,7.66561
378,526,4.08765,-7.35995,0,0,0,0,0,0,0,-1,1602,498,4.0876,7.35996
385,526,4.29614,-7.1488,-0.00882518,-0.00464323,-0.00964183,0.00313175,-0.0166002,-0.892177,0.0122449,0.0484156,1609,498,4.29612,7.14881
392,526,4.31677,-6.80487,-0.00775161,-0.00375865,-0.00842564,0.00290381,-0.0144141,-0.901729,0.0107094,0.0268297,1616,498,4.3168,6.80488
399,526,4.25366,-6.61658,-0.00664577,-0.00318343,-0.0073055,0.00259322,-0.0124224,-0.901736,0.00926775,0.0162228,1623,498,4.25369,6.61658
406,526,4.28931,-6.40652,-0.00544643,-0.00238732,-0.00607721,0.00234986,-0.0101836,-0.908681,0.00769294,0.0127541,1630,498,4.28932,6.40653
413,526,4.27087,-6.22726,-0.0043952,-0.0017951,-0.00503093,0.00210104,-0.00829134,-0.911838,0.00634494,0.0136831,1637,498,4.27089,6.22725
420,526,4.25659,-6.05347,-0.00345913,-0.00127392,-0.00403095,0.00180987,-0.00654292,-0.917745,0.005074,0.0131647,1644,498,4.25661,6.05348
427,526,4.29248,-5.84653,-0.00267861,-0.000751525,-0.00319807,0.001625,-0.00505513,-0.931718,0.00402269,0.0130058,1651,498,4.29244,5.84653
434,526,4.30249,-5.61777,-0.00198173,-0.000245071,-0.00244889,0.00148488,-0.00371168,-0.955772,0.00309069,0.0125014,1658,498,4.30244,5.61778
441,526,4.29285,-5.43585,-0.00133142,4.46226e-05,-0.00180338,0.00128677,-0.00257357,-0.967635,0.00226966,0.0114427,1665,498,4.2928,5.43586
448,526,4.29602,-5.26706,-0.000697968,0.00047866,-0.00118143,0.00121015,-0.00142946,-1.01641,0.00152574,0.0105246,1672,498,4.29601,5.26706
455,526,4.26868,-5.06934,-0.000127035,0.000930775,-0.000648635,0.00123881,-0.000435069,-1.12743,0.00100286,0.0132312,1679,498,4.26864,5.06933
462,526,4.27954,-4.83871,0.000541114,0.00126205,-0.000345631,0.00140098,0.000402184,-1.1886,0.000832945,0.0103595,1686,498,4.2796,4.83873
469,526,4.29163,-4.6528,0.00127221,0.00149843,-0.000175415,0.00159404,0.0011766,-1.07175,0.000954476,0.00777434,1693,498,4.29162,4.65279
476,526,4.28613,-4.46652,0.00178777,0.00171091,-0.000121521,0.00187679,0.00162189,-0.632249,0.00117548,0.00978984,1700,498,4.28616,4.46651
483,526,4.302,-4.2341,0.00235742,0.00227984,-8.62321e-05,0.00241318,0.00222408,-0.574056,0.0015496,0.0112824,1707,498,4.30204,4.2341
490,526,4.33826,-3.99762,0.00295623,0.00287947,-0.000122727,0.00304644,0.00278926,-0.633848,0.00195089,0.0188202,1714,498,4.33831,3.99761
497,526,4.31287,-3.8671,0.00357225,0.00379154,-0.000136833,0.00385723,0.00350655,-1.12317,0.00246293,0.0246225,1721,498,4.31283,3.86711
504,526,4.25134,-3.58542,0.0042669,0.00548399,-0.000164824,0.00550592,0.00424498,-1.43854,0.00333083,0.0285124,1728,498,4.25134,3.58541
511,526,4.33838,-3.39212,0.00539966,0.00736174,-6.40672e-05,0.00736383,0.00539757,-1.53819,0.00440267,0.0380926,1735,498,4.33832,3.39212
518,526,4.43457,-3.22171,0.00693302,0.0102119,0.000359781,0.0102509,0.00689401,1.46278,0.00603466,0.0474738,1742,498,4.43459,3.22173
525,526,4.53967,-3.04932,0,0,0,0,0,0,0,-1,1749,498,4.53965,3.04931
532,526,3.54285,-2.81274,0,0,0,0,0,0,0,-1,1756,498,3.54284,2.81273
539,526,3.29407,0.932312,0,0,0,0,0,0,0,-1,1763,498,3.2941,-0.93232
546,526,3.36731,1.07721,0,0,0,0,0,0,0,-1,1770,498,3.36735,-1.07719
553,526,3.40796,1.37137,0,0,0,0,0,0,0,-1,1777,498,3.40792,-1.37138
560,526,0,0,0,0,0,0,0,0,0,-1,1784,498,0,0
567,526,0,0,0,0,0,0,0,0,0,-1,1791,498,0,0
574,526,0,0,0,0,0,0,0,0,0,-1,1798,498,0,0
581,526,0,0,0,0,0,0,0,0,0,-1,1805,498,0,0
588,526,0,0,0,0,0,0,0,0,0,-1,1812,498,0,0
595,526,0,0,0,0,0,0,0,0,0,-1,1819,498,0,0
602,526,0,0,0,0,0,0,0,0,0,-1,1826,498,0,0
609,526,0,0,0,0,0,0,0,0,0,-1,1833,498,0,0
616,526,0,0,0,0,0,0,0,0,0,-1,1840,498,0,0
623,526,0,0,0,0,0,0,0,0,0,-1,1847,498,0,0
630,526,0,0,0,0,0,0,0,0,0,-1,1854,498,0,0
637,526,0,0,0,0,0,0,0,0,0,-1,1861,498,0,0
644,526,0,0,0,0,0,0,0,0,0,-1,1868,498,0,0
651,526,0,0,0,0,0,0,0,0,0,-1,1875,498,0,0
658,526,0,0,0,0,0,0,0,0,0,-1,1882,498,0,0
665,526,0,0,0,0,0,0,0,0,0,-1,1889,498,0,0
672,526,0,0,0,0,0,0,0,0,0,-1,1896,498,0,0
679,526,0,0,0,0,0,0,0,0,0,-1,1903,498,0,0
686,526,0,0,0,0,0,0,0,0,0,-1,1910,498,0,0
693,526,0,0,0,0,0,0,0,0,0,-1,1917,498,0,0
700,526,0,0,0,0,0,0,0,0,0,-1,1924,498,0,0
707,526,0,0,0,0,0,0,0,0,0,-1,1931,498,0,0
714,526,0,0,0,0,0,0,0,0,0,-1,1938,498,0,0
721,526,0,0,0,0,0,0,0,0,0,-1,1945,498,0,0
728,526,0,0,0,0,0,0,0,0,0,-1,1952,498,0,0
735,526,0,0,0,0,0,0,0,0,0,-1,1959,498,0,0
742,526,0,0,0,0,0,0,0,0,0,-1,1966,498,0,0
749,526,0,0,0,0,0,0,0,0,0,-1,1973,498,0,0
756,526,0,0,0,0,0,0,0,0,0,-1,1980,498,0,0
763,526,0,0,0,0,0,0,0,0,0,-1,1987,498,0,0
770,526,0,0,0,0,0,0,0,0,0,-1,1994,498,0,0
777,526,0,0,0,0,0,0,0,0,0,-1,2001,498,0,0
784,526,0,0,0,0,0,0,0,0,0,-1,2008,498,0,0
791,526,0,0,0,0,0,0,0,0,0,-1,2015,498,0,0
798,526,0,0,0,0,0,0,0,0,0,-1,2022,498,0,0
805,526,0,0,0,0,0,0,0,0,0,-1,2029,498,0,0
812,526,0,0,0,0,0,0,0,0,0,-1,2036,498,0,0
-700,519,0,0,0,0,0,0,0,0,0,-1,524,505,0,0
-693,519,0,0,0,0,0,0,0,0,0,-1,531,505,0,0
-686,519,0,0,0,0,0,0,0,0,0,-1,538,505,0,0
-679,519,0,0,0,0,0,0,0,0,0,-1,545,505,0,0
-672,519,0,0,0,0,0,0,0,0,0,-1,552,505,0,0
-665,519,0,0,0,0,0,0,0,0,0,-1,559,505,0,0
-658,519,0,0,0,0,0,0,0,0,0,-1,566,505,0,0
-651,519,0,0,0,0,0,0,0,0,0,-1,573,505,0,0
-644,519,0,0,0,0,0,0,0,0,0,-1,580,505,0,0
-637,519,0,0,0,0,0,0,0,0,0,-1,587,505,0,0
-630,519,0,0,0,0,0,0,0,0,0,-1,594,505,0,0
-623,519,0,0,0,0,0,0,0,0,0,-1,601,505,0,0
-616,519,0,0,0,0,0,0,0,0,0,-1,608,505,0,0
-609,519,0,0,0,0,0,0,0,0,0,-1,615,505,0,0
-602,519,0,0,0,0,0,0,0,0,0,-1,622,505,0,0
-595,519,0,0,0,0,0,0,0,0,0,-1,629,505,0,0
-588,519,0,0,0,0,0,0,0,0,0,-1,636,505,0,0
-581,519,0,0,0,0,0,0,0,0,0,-1,643,505,0,0
-574,519,0,0,0,0,0,0,0,0,0,-1,650,505,0,0
-567,519,0,0,0,0,0,0,0,0,0,-1,657,505,0,0
-560,519,0,0,0,0,0,0,0,0,0,-1,664,505,0,0
-553,519,0,0,0,0,0,0,0,0,0,-1,671,505,0,0
-546,519,0,0,0,0,0,0,0,0,0,-1,678,505,0,0
-539,519,0,0,0,0,0,0,0,0,0,-1,685,505,0,0
-532,519,0,0,0,0,0,0,0,0,0,-1,692,505,0,0
-525,519,0,0,0,0,0,0,0,0,0,-1,699,505,0,0
-518,519,0,0,0,0,0,0,0,0,0,-1,706,505,0,0
-511,519,0,0,0,0,0,0,0,0,0,-1,713,505,0,0
-504,519,0,0,0,0,0,0,0,0,0,-1,720,505,0,0
-497,519,0,0,0,0,0,0,0,0,0,-1,727,505,0,0
-490,519,0,0,0,0,0,0,0,0,0,-1,734,505,0,0
-483,519,0,0,0,0,0,0,0,0,0,-1,741,505,0,0
-476,519,0,0,0,0,0,0,0,0,0,-1,748,505,0,0
-469,519,0,0,0,0,0,0,0,0,0,-1,755,505,0,0
-462,519,0,0,0,0,0,0,0,0,0,-1,762,505,0,0
-455,519,0,0,0,0,0,0,0,0,0,-1,769,505,0,0
-448,519,0,0,0,0,0,0,0,0,0,-1,776,505,0,0
-441,519,2.4259,-1.74661,-0.0242277,0.0247968,0.0885549,0.0921694,-0.0916003,0.920419,0.1061,0.0463453,783,505,2.4259,1.74661
-434,519,2.48926,-1.67221,-0.0255155,0.0400345,0.064704,0.0797909,-0.065272,1.01983,0.0838918,0.0476762,790,505,2.48928,1.6722
-427,519,2.3974,-1.53381,-0.0247312,0.05054,0.0457409,0.0721384,-0.0463296,1.12964,0.0689365,0.0497779,797,505,2.39739,1.53381
-420,519,2.16797,-1.81787,-0.0220454,0.0561227,0.031175,0.0670331,-0.0329558,1.23415,0.0588356,0.0480375,804,505,2.168,1.81786
-413,519,-1.00555,-4.00214,-0.0180769,0.0575943,0.0203877,0.0627377,-0.0232202,1.32367,0.0513462,0.0468602,811,505,-1.00558,4.00213
-406,519,-0.830566,-4.06729,-0.0139901,0.0548609,0.0127598,0.0571495,-0.0162787,1.39332,0.0445291,0.0426156,818,505,-0.83058,4.06731
-399,519,-0.581482,-4.10483,-0.00994412,0.0500427,0.00688831,0.0508235,-0.0107249,1.45792,0.0379657,0.0486174,825,505,-0.581495,4.10482
-392,519,-0.428345,-4.35345,-0.00656871,0.0430174,0.00264193,0.0431577,-0.00670907,1.51772,0.0312492,0.0478524,832,505,-0.428335,4.35346
-385,519,-0.287537,-4.5715,-0.0041878,0.036218,-0.000484535,0.0362238,-0.00419361,-1.55881,0.0256615,0.0415576,839,505,-0.28754,4.57151
-378,519,-0.0631714,-4.91345,-0.00210468,0.0285811,-0.00245251,0.0287759,-0.00229946,-1.49154,0.0199945,0.0323439,846,505,-0.0631991,4.91346
-371,519,-0.0441284,-5.19525,-0.000501033,0.0207816,-0.00261819,0.021099,-0.000818389,-1.45017,0.0143466,0.0201021,853,505,-0.0441189,5.19525
-364,519,-0.0664063,-5.37549,0.00279965,0.0136794,-0.00187877,0.0139947,0.00248435,-1.40452,0.00862186,0.0122674,860,505,-0.066395,5.3755
-357,519,-0.0543213,-5.59198,0.00326248,0.00662215,-0.00167852,0.00731703,0.0025676,-1.17829,0.00428663,0.00972202,867,505,-0.0543443,5.59198
-350,519,-0.0669556,-5.78412,0.00170178,0.00232104,-0.00181326,0.00385091,0.000171907,-0.869962,0.00251193,0.0119027,874,505,-0.0669855,5.78412
-343,519,-0.0795288,-5.95883,0.0005544,0.000510671,-0.00128591,0.00181864,-0.000753565,-0.776897,0.00152691,0.0143188,881,505,-0.0795228,5.95884
-336,519,-0.0847778,-6.13757,0.000236076,0.000222752,-0.000537546,0.000767002,-0.000308174,-0.779202,0.000639316,0.0136075,888,505,-0.0848017,6.13757
-329,519,-0.0779419,-6.3222,0.000215631,0.000283923,-0.00015246,0.000406014,9.35396e-05,-0.895562,0.00024551,0.0124462,895,505,-0.0779365,6.32221
-322,519,-0.0772705,-6.52066,0.00037467,0.000529523,3.491e-05,0.000537029,0.000367164,1.359,0.000316952,0.0102242,902,505,-0.0772435,6.52067
-315,519,-0.0648193,-6.71671,0.000576311,0.000854688,0.00013864,0.000911954,0.000519045,1.17908,0.000528193,0.00800943,909,505,-0.0648365,6.7167
-308,519,-0.0651245,-6.89505,0.000916804,0.00109802,0.000168643,0.00119885,0.000815969,1.03191,0.000707053,0.00701952,916,505,-0.0651414,6.89504
-301,519,-0.0941162,-7.07037,0.00128419,0.00139509,9.82933e-05,0.00145249,0.00122679,1.0422,0.000902551,0.0109243,923,505,-0.0941383,7.07037
-294,519,-0.0841675,-7.22266,0.00160474,0.00159546,7.74373e-05,0.00167768,0.00152252,0.755465,0.00107049,0.0136289,930,505,-0.0841945,7.22265
-287,519,-0.0970459,-7.38782,0.00205368,0.00163504,0.000231208,0.00215624,0.00153247,0.417522,0.00128123,0.0102232,937,505,-0.0970175,7.38783
-280,519,-0.100525,-7.55347,0.00277084,0.00141053,0.000276073,0.00282473,0.00135663,0.19279,0.00163128,0.0141261,944,505,-0.100504,7.55349
-273,519,-0.0532227,-7.73816,0.00336822,0.00108236,0.00037506,0.00342819,0.00102239,0.158542,0.00203227,0.0197399,951,505,-0.0531996,7.73817
-266,519,-0.0595703,-7.90399,0.00438152,0.000689947,0.000437842,0.00443274,0.000638727,0.116454,0.00276693,0.0268757,958,505,-0.0595491,7.90401
-259,519,0.027771,-7.99445,0.00534699,0.000502783,0.000671049,0.00543823,0.000411544,0.135137,0.00349639,0.0455511,965,505,0.0277944,7.99448
-252,519,-0.0230713,-8.25153,0,0,0,0,0,0,0,-1,972,505,-0.0230474,8.25151
-245,519,-0.224609,-8.48895,0,0,0,0,0,0,0,-1,979,505,-0.224582,8.48894
-238,519,-0.249878,-8.57806,0,0,0,0,0,0,0,-1,986,505,-0.249884,8.57809
-231,519,0.213989,-8.43762,0,0,0,0,0,0,0,-1,993,505,0.214,8.43763
-224,519,-0.0494995,-7.97394,0,0,0,0,0,0,0,-1,1000,505,-0.0495123,7.97392
-217,519,-2.97125,-4.84393,0,0,0,0,0,0,0,-1,1007,505,-2.97128,4.84393
-210,519,-2.14398,-4.74774,0,0,0,0,0,0,0,-1,1014,505,-2.14397,4.74775
-203,519,-0.513611,-5.39017,0,0,0,0,0,0,0,-1,1021,505,-0.513585,5.39017
-196,519,-0.374023,-5.41635,0,0,0,0,0,0,0,-1,1028,505,-0.374047,5.41635
-189,519,-0.234497,-5.44254,0,0,0,0,0,0,0,-1,1035,505,-0.234508,5.44253
-182,519,2.76697,-1.19659,0,0,0,0,0,0,0,-1,1042,505,2.76696,1.19661
-175,519,2.31323,-0.960938,0,0,0,0,0,0,0,-1,1049,505,2.31319,0.960941
-168,519,2.01074,-0.721405,0,0,0,0,0,0,0,-1,1056,505,2.01072,0.721407
-161,519,2.32056,-0.522339,0,0,0,0,0,0,0,-1,1063,505,2.32057,0.522328
-154,519,2.55566,0.116669,0,0,0,0,0,0,0,-1,1070,505,2.55563,-0.116661
-147,519,-0.55127,-6.14001,0,0,0,0,0,0,0,-1,1077,505,-0.551252,6.14001
-140,519,0.240601,-7.53503,0,0,0,0,0,0,0,-1,1084,505,0.240653,7.53501
-133,519,2.70911,-4.4516,0,0,0,0,0,0,0,-1,1091,505,2.70915,4.45161
-126,519,0,0,0,0,0,0,0,0,0,-1,1098,505,0,0
-119,519,0,0,0,0,0,0,0,0,0,-1,1105,505,0,0
-112,519,0,0,0,0,0,0,0,0,0,-1,1112,505,0,0
-105,519,0,0,0,0,0,0,0,0,0,-1,1119,505,0,0
-98,519,0,0,0,0,0,0,0,0,0,-1,1126,505,0,0
-91,519,0,0,0,0,0,0,0,0,0,-1,1133,505,0,0
-84,519,0,0,0,0,0,0,0,0,0,-1,1140,505,0,0
-77,519,0,0,0,0,0,0,0,0,0,-1,1147,505,0,0
-70,519,0,0,0,0,0,0,0,0,0,-1,1154,505,0,0
-63,519,0,0,0,0,0,0,0,0,0,-1,1161,505,0,0
-56,519,0,0,0,0,0,0,0,0,0,-1,1168,505,0,0
-49,519,0,0,0,0,0,0,0,0,0,-1,1175,505,0,0
-42,519,0,0,0,0,0,0,0,0,0,-1,1182,505,0,0
-35,519,0,0,0,0,0,0,0,0,0,-1,1189,505,0,0
-28,519,0,0,0,0,0,0,0,0,0,-1,1196,505,0,0
-21,519,0,0,0,0,0,0,0,0,0,-1,1203,505,0,0
-14,519,0,0,0,0,0,0,0,0,0,-1,1210,505,0,0
-7,519,0,0,0,0,0,0,0,0,0,-1,1217,505,0,0
0,519,0,0,0,0,0,0,0,0,0,-1,1224,505,0,0
7,519,0,0,0,0,0,0,0,0,0,-1,1231,505,0,0
14,519,0,0,0,0,0,0,0,0,0,-1,1238,505,0,0
21,519,0,0,0,0,0,0,0,0,0,-1,1245,505,0,0
28,519,0,0,0,0,0,0,0,0,0,-1,1252,505,0,0
35,519,0,0,0,0,0,0,0,0,0,-1,1259,505,0,0
42,519,0,0,0,0,0,0,0,0,0,-1,1266,505,0,0
49,519,0,0,0,0,0,0,0,0,0,-1,1273,505,0,0
56,519,0,0,0,0,0,0,0,0,0,-1,1280,505,0,0
63,519,0,0,0,0,0,0,0,0,0,-1,1287,505,0,0
70,519,0,0,0,0,0,0,0,0,0,-1,1294,505,0,0
77,519,0,0,0,0,0,0,0,0,0,-1,1301,505,0,0
84,519,0,0,0,0,0,0,0,0,0,-1,1308,505,0,0
91,519,0,0,0,0,0,0,0,0,0,-1,1315,505,0,0
98,519,0,0,0,0,0,0,0,0,0,-1,1322,505,0,0
105,519,0,0,0,0,0,0,0,0,0,-1,1329,505,0,0
112,519,0,0,0,0,0,0,0,0,0,-1,1336,505,0,0
119,519,0,0,0,0,0,0,0,0,0,-1,1343,505,0,0
126,519,0,0,0,0,0,0,0,0,0,-1,1350,505,0,0
133,519,0,0,0,0,0,0,0,0,0,-1,1357,505,0,0
140,519,0,0,0,0,0,0,0,0,0,-1,1364,505,0,0
147,519,0,0,0,0,0,0,0,0,0,-1,1371,505,0,0
154,519,0,0,0,0,0,0,0,0,0,-1,1378,505,0,0
161,519,0,0,0,0,0,0,0,0,0,-1,1385,505,0,0
168,519,0,0,0,0,0,0,0,0,0,-1,1392,505,0,0
175,519,0,0,0,0,0,0,0,0,0,-1,1399,505,0,0
182,519,0,0,0,0,0,0,0,0,0,-1,1406,505,0,0
189,519,0,0,0,0,0,0,0,0,0,-1,1413,505,0,0
196,519,0,0,0,0,0,0,0,0,0,-1,1420,505,0,0
203,519,0,0,0,0,0,0,0,0,0,-1,1427,505,0,0
210,519,0,0,0,0,0,0,0,0,0,-1,1434,505,0,0
217,519,0,0,0,0,0,0,0,0,0,-1,1441,505,0,0
224,519,0,0,0,0,0,0,0,0,0,-1,1448,505,0,0
231,519,0,0,0,0,0,0,0,0,0,-1,1455,505,0,0
238,519,0,0,0,0,0,0,0,0,0,-1,1462,505,0,0
245,519,0,0,0,0,0,0,0,0,0,-1,1469,505,0,0
252,519,5.26208,0.0938416,0,0,0,0,0,0,0,-1,1476,505,5.26207,-0.0938493
259,519,6.14246,-1.36441,0,0,0,0,0,0,0,-1,1483,505,6.14241,1.36441
266,519,5.31909,-0.400787,0,0,0,0,0,0,0,-1,1490,505,5.31912,0.400773
273,519,4.02393,0.325531,0,0,0,0,0,0,0,-1,1497,505,4.0239,-0.325522
280,519,4.68848,0.53006,0,0,0,0,0,0,0,-1,1504,505,4.68842,-0.530073
287,519,7.9519,-3.80801,0,0,0,0,0,0,0,-1,1511,505,7.95193,3.808
294,519,6.92273,-3.38889,0,0,0,0,0,0,0,-1,1518,505,6.92268,3.38888
301,519,5.35669,-2.92661,0,0,0,0,0,0,0,-1,1525,505,5.35675,2.9266
308,519,7.37549,-5.64529,0,0,0,0,0,0,0,-1,1532,505,7.3755,5.64529
315,519,6.30029,-4.53754,0,0,0,0,0,0,0,-1,1539,505,6.30024,4.53753
322,519,5.84302,-5.45117,0,0,0,0,0,0,0,-1,1546,505,5.84303,5.45116
329,519,4.92407,0.62384,0,0,0,0,0,0,0,-1,1553,505,4.92403,-0.623832
336,519,3.10095,-0.329285,0,0,0,0,0,0,0,-1,1560,505,3.1009,0.329283
343,519,2.49146,-2.31119,0,0,0,0,0,0,0,-1,1567,505,2.49145,2.31119
350,519,3.47729,-2.22516,0,0,0,0,0,0,0,-1,1574,505,3.47726,2.22515
357,519,4.51917,-4.51691,0,0,0,0,0,0,0,-1,1581,505,4.51914,4.51691
364,519,3.54626,-7.20673,0,0,0,0,0,0,0,-1,1588,505,3.54622,7.20675
371,519,4.98901,-6.8652,0,0,0,0,0,0,0,-1,1595,505,4.98897,6.8652
378,519,4.81213,-6.69592,0,0,0,0,0,0,0,-1,1602,505,4.81218,6.69591
385,519,4.47278,-7.45471,0,0,0,0,0,0,0,-1,1609,505,4.47279,7.45471
392,519,4.68274,-6.61566,-0.0112343,-0.00549038,-0.0120305,0.00400622,-0.0207309,-0.902567,0.0153315,0.040767,1616,505,4.68275,6.61567
399,519,4.52002,-6.54959,-0.00954541,-0.00458458,-0.0103479,0.00357608,-0.0177061,-0.903029,0.0131591,0.0315009,1623,505,4.51999,6.5496
406,519,4.49011,-6.42606,-0.00778966,-0.00350272,-0.00860691,0.00322361,-0.014516,-0.907436,0.0109118,0.020305,1630,505,4.49009,6.42604
413,519,4.4939,-6.25034,-0.00624012,-0.00267331,-0.00706909,0.00283387,-0.0117473,-0.908961,0.00892737,0.0150736,1637,505,4.49392,6.25033
420,519,4.4624,-6.04544,-0.00490291,-0.00195632,-0.00561635,0.00237676,-0.00923599,-0.913669,0.00708376,0.0156753,1644,505,4.46244,6.04545
427,519,4.48071,-5.86639,-0.00380324,-0.00128872,-0.00439109,0.00202155,-0.00711351,-0.924829,0.00554052,0.0135556,1651,505,4.48072,5.86641
434,519,4.4884,-5.65353,-0.00284908,-0.000653527,-0.00332825,0.00175332,-0.00525593,-0.944698,0.00421184,0.012754,1658,505,4.48837,5.65354
441,519,4.48401,-5.44785,-0.00200403,-0.000299945,-0.00243965,0.00143217,-0.00373615,-0.9534,0.00308118,0.0125872,1665,505,4.48403,5.44785
448,519,4.48462,-5.2634,-0.00120067,0.0001836,-0.00161445,0.00124802,-0.0022651,-0.987904,0.00205644,0.00982226,1672,505,4.48456,5.26339
455,519,4.46057,-5.06195,-0.00049369,0.000653148,-0.000901879,0.00114846,-0.000989007,-1.06856,0.00123521,0.0108232,1679,505,4.46063,5.06194
462,519,4.47693,-4.85989,0.000254573,0.00093883,-0.000425686,0.00114283,5.0569e-05,-1.1239,0.000745605,0.00996139,1686,505,4.47697,4.85988
469,519,4.51062,-4.65048,0.000942462,0.00109528,-0.00016832,0.00120372,0.000834021,-0.99847,0.000711996,0.0101487,1693,505,4.5106,4.65048
476,519,4.51282,-4.46536,0.00136998,0.00119688,-7.70607e-05,0.00139931,0.00116754,-0.363733,0.00086602,0.0131063,1700,505,4.51276,4.46537
483,519,4.49731,-4.27414,0.00177646,0.00163548,-3.4323e-05,0.00178438,0.00162757,-0.226564,0.00114091,0.0153282,1707,505,4.4973,4.27413
490,519,4.48181,-4.01993,0.00215552,0.00205936,-6.15074e-05,0.00218551,0.00202937,-0.453679,0.00140785,0.0127645,1714,505,4.48185,4.01992
497,519,4.47205,-3.81302,0.00246134,0.00274782,-8.46209e-05,0.00277095,0.00243821,-1.304,0.00174698,0.0140022,1721,505,4.47199,3.81303
504,519,4.45239,-3.61212,0.00276134,0.00426795,-0.000131043,0.00427927,0.00275003,-1.48468,0.00250392,0.0136088,1728,505,4.45236,3.61211
511,519,4.50867,-3.42654,0.00341409,0.0058771,-2.88792e-05,0.00587744,0.00341375,-1.55907,0.00340809,0.0193746,1735,505,4.50872,3.42654
518,519,4.52759,-3.41144,0.00429487,0.00835751,0.000397029,0.00839595,0.00425643,1.47429,0.00484756,0.0401077,1742,505,4.52753,3.41144
525,519,4.59888,-3.3717,0,0,0,0,0,0,0,-1,1749,505,4.59886,3.37169
532,519,3.5155,-2.86511,0,0,0,0,0,0,0,-1,1756,505,3.51554,2.8651
539,519,3.30005,0.0229797,0,0,0,0,0,0,0,-1,1763,505,3.30008,-0.0229869
546,519,4.62024,-2.89774,0,0,0,0,0,0,0,-1,1770,505,4.62023,2.89775
553,519,4.14136,0.0667419,0,0,0,0,0,0,0,-1,1777,505,4.14141,-0.0667503
560,519,3.77856,0.279724,0,0,0,0,0,0,0,-1,1784,505,3.77861,-0.279731
567,519,0,0,0,0,0,0,0,0,0,-1,1791,505,0,0
574,519,0,0,0,0,0,0,0,0,0,-1,1798,505,0,0
581,519,0,0,0,0,0,0,0,0,0,-1,1805,505,0,0
588,519,0,0,0,0,0,0,0,0,0,-1,1812,505,0,0
595,519,0,0,0,0,0,0,0,0,0,-1,1819,505,0,0
602,519,0,0,0,0,0,0,0,0,0,-1,1826,505,0,0
609,519,0,0,0,0,0,0,0,0,0,-1,1833,505,0,0
616,519,0,0,0,0,0,0,0,0,0,-1,1840,505,0,0
623,519,0,0,0,0,0,0,0,0,0,-1,1847,505,0,0
630,519,0,0,0,0,0,0,0,0,0,-1,1854,505,0,0
637,519,0,0,0,0,0,0,0,0,0,-1,1861,505,0,0
644,519,0,0,0,0,0,0,0,0,0,-1,1868,505,0,0
651,519,0,0,0,0,0,0,0,0,0,-1,1875,505,0,0
658,519,0,0,0,0,0,0,0,0,0,-1,1882,505,0,0
665,519,0,0,0,0,0,0,0,0,0,-1,1889,505,0,0
672,519,0,0,0,0,0,0,0,0,0,-1,1896,505,0,0
679,519,0,0,0,0,0,0,0,0,0,-1,1903,505,0,0
686,519,0,0,0,0,0,0,0,0,0,-1,1910,505,0,0
693,519,0,0,0,0,0,0,0,0,0,-1,1917,505,0,0
700,519,0,0,0,0,0,0,0,0,0,-1,1924,505,0,0
707,519,0,0,0,0,0,0,0,0,0,-1,1931,505,0,0
714,519,0,0,0,0,0,0,0,0,0,-1,1938,505,0,0
721,519,0,0,0,0,0,0,0,0,0,-1,1945,505,0,0
728,519,0,0,0,0,0,0,0,0,0,-1,1952,505,0,0
735,519,0,0,0,0,0,0,0,0,0,-1,1959,505,0,0
742,519,0,0,0,0,0,0,0,0,0,-1,1966,505,0,0
749,519,0,0,0,0,0,0,0,0,0,-1,1973,505,0,0
756,519,0,0,0,0,0,0,0,0,0,-1,1980,505,0,0
763,519,0,0,0,0,0,0,0,0,0,-1,1987,505,0,0
770,519,0,0,0,0,0,0,0,0,0,-1,1994,505,0,0
777,519,0,0,0,0,0,0,0,0,0,-1,2001,505,0,0
784,519,0,0,0,0,0,0,0,0,0,-1,2008,505,0,0
791,519,0,0,0,0,0,0,0,0,0,-1,2015,505,0,0
798,519,0,0,0,0,0,0,0,0,0,-1,2022,505,0,0
805,519,0,0,0,0,0,0,0,0,0,-1,2029,505,0,0
812,519,0,0,0,0,0,0,0,0,0,-1,2036,505,0,0
-700,512,0,0,0,0,0,0,0,0,0,-1,524,512,0,0
-693,512,0,0,0,0,0,0,0,0,0,-1,531,512,0,0
-686,512,0,0,0,0,0,0,0,0,0,-1,538,512,0,0
-679,512,0,0,0,0,0,0,0,0,0,-1,545,512,0,0
-672,512,0,0,0,0,0,0,0,0,0,-1,552,512,0,0
-665,512,0,0,0,0,0,0,0,0,0,-1,559,512,0,0
-658,512,0,0,0,0,0,0,0,0,0,-1,566,512,0,0
-651,512,0,0,0,0,0,0,0,0,0,-1,573,512,0,0
-644,512,0,0,0,0,0,0,0,0,0,-1,580,512,0,0
-637,512,0,0,0,0,0,0,0,0,0,-1,587,512,0,0
-630,512,0,0,0,0,0,0,0,0,0,-1,594,512,0,0
-623,512,0,0,0,0,0,0,0,0,0,-1,601,512,0,0
-616,512,0,0,0,0,0,0,0,0,0,-1,608,512,0,0
-609,512,0,0,0,0,0,0,0,0,0,-1,615,512,0,0
-602,512,0,0,0,0,0,0,0,0,0,-1,622,512,0,0
-595,512,0,0,0,0,0,0,0,0,0,-1,629,512,0,0
-588,512,0,0,0,0,0,0,0,0,0,-1,636,512,0,0
-581,512,0,0,0,0,0,0,0,0,0,-1,643,512,0,0
-574,512,0,0,0,0,0,0,0,0,0,-1,650,512,0,0
-567,512,0,0,0,0,0,0,0,0,0,-1,657,512,0,0
-560,512,0,0,0,0,0,0,0,0,0,-1,664,512,0,0
-553,512,0,0,0,0,0,0,0,0,0,-1,671,512,0,0
-546,512,0,0,0,0,0,0,0,0,0,-1,678,512,0,0
-539,512,0,0,0,0,0,0,0,0,0,-1,685,512,0,0
-532,512,0,0,0,0,0,0,0,0,0,-1,692,512,0,0
-525,512,0,0,0,0,0,0,0,0,0,-1,699,512,0,0
-518,512,0,0,0,0,0,0,0,0,0,-1,706,512,0,0
-511,512,0,0,0,0,0,0,0,0,0,-1,713,512,0,0
-504,512,0,0,0,0,0,0,0,0,0,-1,720,512,0,0
-497,512,0,0,0,0,0,0,0,0,0,-1,727,512,0,0
-490,512,0,0,0,0,0,0,0,0,0,-1,734,512,0,0
-483,512,0,0,0,0,0,0,0,0,0,-1,741,512,0,0
-476,512,0,0,0,0,0,0,0,0,0,-1,748,512,0,0
-469,512,0,0,0,0,0,0,0,0,0,-1,755,512,0,0
-462,512,0,0,0,0,0,0,0,0,0,-1,762,512,0,0
-455,512,0,0,0,0,0,0,0,0,0,-1,769,512,0,0
-448,512,1.53192,-1.96631,-0.00644454,-0.00152302,0.108845,0.104889,-0.112856,0.7967,0.125743,0.0421292,776,512,1.53192,1.9663
-441,512,1.46838,-1.48798,-0.0119565,0.0171179,0.0810159,0.0848906,-0.0797291,0.874171,0.0950588,0.0453056,783,512,1.46841,1.488
-434,512,1.57928,-1.50909,-0.0146336,0.0305845,0.0586346,0.070818,-0.0548671,0.96941,0.0727588,0.0449421,790,512,1.5793,1.50909
-427,512,1.56995,-1.55389,-0.0152712,0.0397433,0.0410249,0.0616293,-0.0371571,1.08072,0.0576148,0.045997,797,512,1.56996,1.55391
-420,512,1.30225,-2.21564,-0.0141472,0.0446138,0.0275915,0.0555385,-0.0250718,1.19379,0.0476355,0.0477891,804,512,1.30225,2.21567
-413,512,0.731384,-2.76904,0,0,0,0,0,0,0,-1,811,512,0.731408,2.76904
-406,512,-1.02252,-4.71722,0,0,0,0,0,0,0,-1,818,512,-1.02253,4.71724
-399,512,-0.695801,-4.65045,-0.00641313,0.0401545,0.00511448,0.0407096,-0.00696823,1.46268,0.0297359,0.0418038,825,512,-0.695816,4.65047
-392,512,-0.232483,-4.66235,-0.00403202,0.0347422,0.0012452,0.0347822,-0.00407197,1.53873,0.0246578,0.0350587,832,512,-0.232508,4.66237
-385,512,-0.197571,-4.80945,-0.00238267,0.0294275,-0.00142152,0.0294909,-0.00244607,-1.52623,0.0205246,0.0182785,839,512,-0.197588,4.80944
-378,512,-0.198364,-5.00098,-0.000865951,0.0231401,-0.00289133,0.0234835,-0.00120928,-1.45261,0.0160739,0.0144888,846,512,-0.198368,5.00099
-371,512,-0.220276,-5.20581,9.68177e-05,0.0166745,-0.0027534,0.0171198,-0.000348534,-1.41044,0.0115311,0.0116596,853,512,-0.220292,5.20578
-364,512,-0.216187,-5.41064,0.00244648,0.0108625,-0.00204271,0.0113321,0.00197689,-1.34483,0.00698961,0.00908765,860,512,-0.216179,5.41064
-357,512,-0.218506,-5.59753,0.00270204,0.00529212,-0.00173337,0.00616081,0.00183336,-1.10623,0.00365281,0.0102899,867,512,-0.218506,5.59756
-350,512,-0.229248,-5.79199,0.001427,0.00210221,-0.00178373,0.00358001,-5.07972e-05,-0.878927,0.00240378,0.0110914,874,512,-0.229228,5.79196
-343,512,-0.253906,-5.9679,0.000497695,0.000799387,-0.00132784,0.00198492,-0.000687839,-0.841957,0.00160255,0.0117024,881,512,-0.253909,5.96788
-336,512,-0.256042,-6.14185,0.00022813,0.000605188,-0.000738938,0.00117927,-0.00034595,-0.910301,0.000923357,0.0113749,888,512,-0.256026,6.14186
-329,512,-0.240723,-6.32697,0.000266641,0.000739462,-0.000397306,0.000965374,4.07299e-05,-1.05378,0.000630445,0.0117452,895,512,-0.240706,6.32698
-322,512,-0.246582,-6.53003,0.000484171,0.00101193,-0.000194587,0.00107591,0.000420183,-1.2531,0.000626121,0.00977156,902,512,-0.24661,6.53
-315,512,-0.236694,-6.72076,0.000778993,0.00137091,-7.37309e-05,0.00137995,0.000769947,-1.44872,0.000798499,0.00904957,909,512,-0.236683,6.72075
-308,512,-0.234802,-6.88989,0.00123346,0.00173656,3.69819e-06,0.00173659,0.00123343,1.56345,0.00103175,0.00991017,916,512,-0.234833,6.88989
-301,512,-0.232605,-7.05408,0.00166502,0.00205197,3.67476e-05,0.00205542,0.00166156,1.47695,0.00125969,0.0145403,923,512,-0.232634,7.0541
-294,512,-0.232239,-7.22131,0.00205035,0.00227205,0.000125851,0.00232891,0.00199349,1.14645,0.00145375,0.0138871,930,512,-0.232237,7.22133
-287,512,-0.324158,-7.34772,0.00261144,0.00232884,0.000441645,0.00293384,0.00200644,0.630571,0.00173162,0.0185055,937,512,-0.324168,7.34769
-280,512,-0.210022,-7.56512,0.00353626,0.00209643,0.000618259,0.0037653,0.00186739,0.354789,0.00217392,0.0251774,944,512,-0.21002,7.5651
-273,512,-0.0834961,-7.61792,0.00430495,0.00158284,0.000791166,0.0045182,0.0013696,0.263274,0.00267513,0.0429226,951,512,-0.0834847,7.61792
-266,512,-0.119019,-7.84497,0.00558991,0.00094315,0.000715743,0.00569765,0.000835402,0.149418,0.00355286,0.0443099,958,512,-0.119016,7.84495
-259,512,-0.145813,-8.14667,0,0,0,0,0,0,0,-1,965,512,-0.145804,8.14667
-252,512,1.45941,-3.43475,0,0,0,0,0,0,0,-1,972,512,1.45938,3.43475
-245,512,4.12927,-11.272,0,0,0,0,0,0,0,-1,979,512,4.1293,11.272
-238,512,0.182556,-8.05957,0,0,0,0,0,0,0,-1,986,512,0.18258,8.05957
-231,512,-2.54437,-10.169,0,0,0,0,0,0,0,-1,993,512,-2.54439,10.169
-224,512,-4.84601,-7.52783,0,0,0,0,0,0,0,-1,1000,512,-4.84602,7.52786
-217,512,-7.37274,-3.89563,0,0,0,0,0,0,0,-1,1007,512,-7.37274,3.89561
-210,512,-3.76642,-1.94702,0,0,0,0,0,0,0,-1,1014,512,-3.76641,1.94702
-203,512,-2.48328,-5.19061,0,0,0,0,0,0,0,-1,1021,512,-2.48328,5.19059
-196,512,-1.14929,-4.63202,0,0,0,0,0,0,0,-1,1028,512,-1.14934,4.632
-189,512,0.197998,4.55505,0,0,0,0,0,0,0,-1,1035,512,0.197996,-4.55506
-182,512,2.73938,0.0778503,0,0,0,0,0,0,0,-1,1042,512,2.73944,-0.077852
-175,512,2.29565,0.209808,0,0,0,0,0,0,0,-1,1049,512,2.29565,-0.209813
-168,512,2.09399,-0.302856,0,0,0,0,0,0,0,-1,1056,512,2.09403,0.302826
-161,512,2.76636,0.0921021,0,0,0,0,0,0,0,-1,1063,512,2.76633,-0.0921104
-154,512,3.41382,0.466187,0,0,0,0,0,0,0,-1,1070,512,3.41382,-0.466178
-147,512,0,0,0,0,0,0,0,0,0,-1,1077,512,0,0
-140,512,0,0,0,0,0,0,0,0,0,-1,1084,512,0,0
-133,512,0,0,0,0,0,0,0,0,0,-1,1091,512,0,0
-126,512,0,0,0,0,0,0,0,0,0,-1,1098,512,0,0
-119,512,0,0,0,0,0,0,0,0,0,-1,1105,512,0,0
-112,512,0,0,0,0,0,0,0,0,0,-1,1112,512,0,0
-105,512,0,0,0,0,0,0,0,0,0,-1,1119,512,0,0
-98,512,0,0,0,0,0,0,0,0,0,-1,1126,512,0,0
-91,512,0,0,0,0,0,0,0,0,0,-1,1133,512,0,0
-84,512,0,0,0,0,0,0,0,0,0,-1,1140,512,0,0
-77,512,0,0,0,0,0,0,0,0,0,-1,1147,512,0,0
-70,512,0,0,0,0,0,0,0,0,0,-1,1154,512,0,0
-63,512,0,0,0,0,0,0,0,0,0,-1,1161,512,0,0
-56,512,0,0,0,0,0,0,0,0,0,-1,1168,512,0,0
-49,512,0,0,0,0,0,0,0,0,0,-1,1175,512,0,0
-42,512,0,0,0,0,0,0,0,0,0,-1,1182,512,0,0
-35,512,0,0,0,0,0,0,0,0,0,-1,1189,512,0,0
-28,512,0,0,0,0,0,0,0,0,0,-1,1196,512,0,0
-21,512,0,0,0,0,0,0,0,0,0,-1,1203,512,0,0
-14,512,0,0,0,0,0,0,0,0,0,-1,1210,512,0,0
-7,512,0,0,0,0,0,0,0,0,0,-1,1217,512,0,0
0,512,0,0,0,0,0,0,0,0,0,-1,1224,512,0,0
7,512,0,0,0,0,0,0,0,0,0,-1,1231,512,0,0
14,512,0,0,0,0,0,0,0,0,0,-1,1238,512,0,0
21,512,0,0,0,0,0,0,0,0,0,-1,1245,512,0,0
28,512,0,0,0,0,0,0,0,0,0,-1,1252,512,0,0
35,512,0,0,0,0,0,0,0,0,0,-1,1259,512,0,0
42,512,0,0,0,0,0,0,0,0,0,-1,1266,512,0,0
49,512,0,0,0,0,0,0,0,0,0,-1,1273,512,0,0
56,512,0,0,0,0,0,0,0,0,0,-1,1280,512,0,0
63,512,0,0,0,0,0,0,0,0,0,-1,1287,512,0,0
70,512,0,0,0,0,0,0,0,0,0,-1,1294,512,0,0
77,512,0,0,0,0,0,0,0,0,0,-1,1301,512,0,0
84,512,0,0,0,0,0,0,0,0,0,-1,1308,512,0,0
91,512,0,0,0,0,0,0,0,0,0,-1,1315,512,0,0
98,512,0,0,0,0,0,0,0,0,0,-1,1322,512,0,0
105,512,0,0,0,0,0,0,0,0,0,-1,1329,512,0,0
112,512,0,0,0,0,0,0,0,0,0,-1,1336,512,0,0
119,512,0,0,0,0,0,0,0,0,0,-1,1343,512,0,0
126,512,0,0,0,0,0,0,0,0,0,-1,1350,512,0,0
133,512,0,0,0,0,0,0,0,0,0,-1,1357,512,0,0
140,512,0,0,0,0,0,0,0,0,0,-1,1364,512,0,0
147,512,0,0,0,0,0,0,0,0,0,-1,1371,512,0,0
154,512,0,0,0,0,0,0,0,0,0,-1,1378,512,0,0
161,512,0,0,0,0,0,0,0,0,0,-1,1385,512,0,0
168,512,0,0,0,0,0,0,0,0,0,-1,1392,512,0,0
175,512,0,0,0,0,0,0,0,0,0,-1,1399,512,0,0
182,512,0,0,0,0,0,0,0,0,0,-1,1406,512,0,0
189,512,0,0,0,0,0,0,0,0,0,-1,1413,512,0,0
196,512,0,0,0,0,0,0,0,0,0,-1,1420,512,0,0
203,512,0,0,0,0,0,0,0,0,0,-1,1427,512,0,0
210,512,0,0,0,0,0,0,0,0,0,-1,1434,512,0,0
217,512,0,0,0,0,0,0,0,0,0,-1,1441,512,0,0
224,512,0,0,0,0,0,0,0,0,0,-1,1448,512,0,0
231,512,0,0,0,0,0,0,0,0,0,-1,1455,512,0,0
238,512,0,0,0,0,0,0,0,0,0,-1,1462,512,0,0
245,512,0,0,0,0,0,0,0,0,0,-1,1469,512,0,0
252,512,0,0,0,0,0,0,0,0,0,-1,1476,512,0,0
259,512,0,0,0,0,0,0,0,0,0,-1,1483,512,0,0
266,512,0,0,0,0,0,0,0,0,0,-1,1490,512,0,0
273,512,4.00745,0.618622,0,0,0,0,0,0,0,-1,1497,512,4.00747,-0.618611
280,512,4.49609,0.649841,0,0,0,0,0,0,0,-1,1504,512,4.49612,-0.649834
287,512,4.77234,0.458069,0,0,0,0,0,0,0,-1,1511,512,4.77233,-0.458083
294,512,8.54956,-2.36273,0,0,0,0,0,0,0,-1,1518,512,8.54952,2.36274
301,512,6.302,-1.69092,0,0,0,0,0,0,0,-1,1525,512,6.30196,1.69093
308,512,8.2439,-6.22754,0,0,0,0,0,0,0,-1,1532,512,8.24394,6.22757
315,512,7.53687,-6.04211,0,0,0,0,0,0,0,-1,1539,512,7.53691,6.04211
322,512,6.82983,-5.85663,0,0,0,0,0,0,0,-1,1546,512,6.82988,5.85666
329,512,4.38147,-0.329651,0,0,0,0,0,0,0,-1,1553,512,4.38144,0.329662
336,512,4.41467,-0.741455,0,0,0,0,0,0,0,-1,1560,512,4.41467,0.741442
343,512,4.44727,-1.21667,0,0,0,0,0,0,0,-1,1567,512,4.44732,1.21666
350,512,4.55469,-1.65082,0,0,0,0,0,0,0,-1,1574,512,4.5547,1.65083
357,512,5.79993,-2.67456,0,0,0,0,0,0,0,-1,1581,512,5.79991,2.67454
364,512,5.18298,-6.80133,0,0,0,0,0,0,0,-1,1588,512,5.18296,6.80132
371,512,5.06628,-6.83221,0,0,0,0,0,0,0,-1,1595,512,5.06627,6.83222
378,512,4.69849,-6.34399,0,0,0,0,0,0,0,-1,1602,512,4.69846,6.34402
385,512,4.66479,-6.17712,0,0,0,0,0,0,0,-1,1609,512,4.66474,6.1771
392,512,4.92285,-6.39404,0,0,0,0,0,0,0,-1,1616,512,4.92287,6.39404
399,512,5.07251,-6.2243,-0.0134607,-0.00641991,-0.0142766,0.00476395,-0.0246446,-0.906279,0.0182264,0.0479562,1623,512,5.07254,6.22428
406,512,4.81311,-6.32813,-0.0109403,-0.00481115,-0.0118161,0.00433126,-0.0200828,-0.912282,0.0150416,0.0358329,1630,512,4.81315,6.32813
413,512,4.64026,-6.28754,-0.00875256,-0.00356395,-0.00964046,0.00382517,-0.0161417,-0.916837,0.0122371,0.0286713,1637,512,4.64025,6.28753
420,512,4.69385,-6.06464,-0.00688502,-0.00257874,-0.00761936,0.00318586,-0.0126496,-0.923102,0.00967155,0.0183291,1644,512,4.69382,6.06462
427,512,4.67957,-5.85938,-0.00533856,-0.00172788,-0.00590578,0.00264234,-0.00970877,-0.933732,0.00750988,0.0147663,1651,512,4.67952,5.8594
434,512,4.67517,-5.67413,-0.00397943,-0.000926883,-0.00441992,0.00222287,-0.00712918,-0.951647,0.00564166,0.0116248,1658,512,4.67514,5.67413
441,512,4.67139,-5.46466,-0.00282679,-0.000504558,-0.00322149,0.00175868,-0.00509003,-0.958365,0.00410707,0.0133501,1665,512,4.67138,5.46467
448,512,4.66296,-5.25842,-0.00176862,5.97666e-06,-0.00215284,0.0014472,-0.00320984,-0.980868,0.00275219,0.00984078,1672,512,4.6629,5.2584
455,512,4.66748,-5.05615,-0.00085372,0.000454655,-0.00123039,0.00119396,-0.00159302,-1.02974,0.00161456,0.00912214,1679,512,4.66751,5.05613
462,512,4.68835,-4.85901,3.358e-05,0.000662991,-0.000553782,0.000985242,-0.000288671,-1.04378,0.000771274,0.00924133,1686,512,4.68838,4.85901
469,512,4.69373,-4.64154,0.000734329,0.000728185,-0.000185893,0.000917175,0.000545339,-0.777136,0.00053268,0.0105197,1693,512,4.6937,4.64155
476,512,4.68848,-4.45514,0.00113259,0.000721832,-3.80762e-05,0.00113609,0.000718332,-0.0916578,0.000663527,0.0136084,1700,512,4.68853,4.45516
483,512,4.67969,-4.26129,0.0014356,0.00104327,2.86347e-05,0.00143768,0.00104119,0.0724732,0.000857413,0.0135381,1707,512,4.67974,4.26129
490,512,4.68237,-4.02673,0.00165767,0.00133106,2.27358e-05,0.00165925,0.00132949,0.0691669,0.00101427,0.0105317,1714,512,4.68232,4.02673
497,512,4.67603,-3.79895,0.00172237,0.00184308,-1.32864e-05,0.00184452,0.00172093,-1.46245,0.00119062,0.0113272,1721,512,4.67602,3.79895
504,512,4.66455,-3.57489,0.00172793,0.00321988,-8.78329e-05,0.00322503,0.00172277,-1.5122,0.00186342,0.0119378,1728,512,4.66454,3.57486
511,512,4.64929,-3.35565,0.00202724,0.004631,-2.66684e-06,0.00463101,0.00202723,-1.56977,0.00268061,0.0129664,1735,512,4.64929,3.35567
518,512,4.69763,-3.18915,0.00244649,0.00680574,0.000346404,0.0068331,0.00241913,1.49199,0.00400074,0.0204061,1742,512,4.69763,3.18917
525,512,4.81042,-2.99896,0,0,0,0,0,0,0,-1,1749,512,4.81038,2.99895
532,512,4.24609,-2.12531,0,0,0,0,0,0,0,-1,1756,512,4.24603,2.12528
539,512,4.39929,-3.11737,0,0,0,0,0,0,0,-1,1763,512,4.3993,3.11735
546,512,2.77551,-0.66449,0,0,0,0,0,0,0,-1,1770,512,2.77548,0.664503
553,512,3.927,-0.448853,0,0,0,0,0,0,0,-1,1777,512,3.92704,0.448843
560,512,3.55762,-0.201233,0,0,0,0,0,0,0,-1,1784,512,3.55768,0.201259
567,512,3.09045,0.191193,0,0,0,0,0,0,0,-1,1791,512,3.09045,-0.191203
574,512,0,0,0,0,0,0,0,0,0,-1,1798,512,0,0
581,512,0,0,0,0,0,0,0,0,0,-1,1805,512,0,0
588,512,0,0,0,0,0,0,0,0,0,-1,1812,512,0,0
595,512,0,0,0,0,0,0,0,0,0,-1,1819,512,0,0
602,512,0,0,0,0,0,0,0,0,0,-1,1826,512,0,0
609,512,0,0,0,0,0,0,0,0,0,-1,1833,512,0,0
616,512,0,0,0,0,0,0,0,0,0,-1,1840,512,0,0
623,512,0,0,0,0,0,0,0,0,0,-1,1847,512,0,0
630,512,0,0,0,0,0,0,0,0,0,-1,1854,512,0,0
637,512,0,0,0,0,0,0,0,0,0,-1,1861,512,0,0
644,512,0,0,0,0,0,0,0,0,0,-1,1868,512,0,0
651,512,0,0,0,0,0,0,0,0,0,-1,1875,512,0,0
658,512,0,0,0,0,0,0,0,0,0,-1,1882,512,0,0
665,512,0,0,0,0,0,0,0,0,0,-1,1889,512,0,0
672,512,0,0,0,0,0,0,0,0,0,-1,1896,512,0,0
679,512,0,0,0,0,0,0,0,0,0,-1,1903,512,0,0
686,512,0,0,0,0,0,0,0,0,0,-1,1910,512,0,0
693,512,0,0,0,0,0,0,0,0,0,-1,1917,512,0,0
700,512,0,0,0,0,0,0,0,0,0,-1,1924,512,0,0
707,512,0,0,0,0,0,0,0,0,0,-1,1931,512,0,0
714,512,0,0,0,0,0,0,0,0,0,-1,1938,512,0,0
721,512,0,0,0,0,0,0,0,0,0,-1,1945,512,0,0
728,512,0,0,0,0,0,0,0,0,0,-1,1952,512,0,0
735,512,0,0,0,0,0,0,0,0,0,-1,1959,512,0,0
742,512,0,0,0,0,0,0,0,0,0,-1,1966,512,0,0
749,512,0,0,0,0,0,0,0,0,0,-1,1973,512,0,0
756,512,0,0,0,0,0,0,0,0,0,-1,1980,512,0,0
763,512,0,0,0,0,0,0,0,0,0,-1,1987,512,0,0
770,512,0,0,0,0,0,0,0,0,0,-1,1994,512,0,0
777,512,0,0,0,0,0,0,0,0,0,-1,2001,512,0,0
784,512,0,0,0,0,0,0,0,0,0,-1,2008,512,0,0
791,512,0,0,0,0,0,0,0,0,0,-1,2015,512,0,0
798,512,0,0,0,0,0,0,0,0,0,-1,2022,512,0,0
805,512,0,0,0,0,0,0,0,0,0,-1,2029,512,0,0
812,512,0,0,0,0,0,0,0,0,0,-1,2036,512,0,0
-700,505,0,0,0,0,0,0,0,0,0,-1,524,519,0,0
-693,505,0,0,0,0,0,0,0,0,0,-1,531,519,0,0
-686,505,0,0,0,0,0,0,0,0,0,-1,538,519,0,0
-679,505,0,0,0,0,0,0,0,0,0,-1,545,519,0,0
-672,505,0,0,0,0,0,0,0,0,0,-1,552,519,0,0
-665,505,0,0,0,0,0,0,0,0,0,-1,559,519,0,0
-658,505,0,0,0,0,0,0,0,0,0,-1,566,519,0,0
-651,505,0,0,0,0,0,0,0,0,0,-1,573,519,0,0
-644,505,0,0,0,0,0,0,0,0,0,-1,580,519,0,0
-637,505,0,0,0,0,0,0,0,0,0,-1,587,519,0,0
-630,505,0,0,0,0,0,0,0,0,0,-1,594,519,0,0
-623,505,0,0,0,0,0,0,0,0,0,-1,601,519,0,0
-616,505,0,0,0,0,0,0,0,0,0,-1,608,519,0,0
-609,505,0,0,0,0,0,0,0,0,0,-1,615,519,0,0
-602,505,0,0,0,0,0,0,0,0,0,-1,622,519,0,0
-595,505,0,0,0,0,0,0,0,0,0,-1,629,519,0,0
-588,505,0,0,0,0,0,0,0,0,0,-1,636,519,0,0
-581,505,0,0,0,0,0,0,0,0,0,-1,643,519,0,0
-574,505,0,0,0,0,0,0,0,0,0,-1,650,519,0,0
-567,505,0,0,0,0,0,0,0,0,0,-1,657,519,0,0
-560,505,0,0,0,0,0,0,0,0,0,-1,664,519,0,0
-553,505,0,0,0,0,0,0,0,0,0,-1,671,519,0,0
-546,505,0,0,0,0,0,0,0,0,0,-1,678,519,0,0
-539,505,0,0,0,0,0,0,0,0,0,-1,685,519,0,0
-532,505,0,0,0,0,0,0,0,0,0,-1,692,519,0,0
-525,505,0,0,0,0,0,0,0,0,0,-1,699,519,0,0
-518,505,0,0,0,0,0,0,0,0,0,-1,706,519,0,0
-511,505,0,0,0,0,0,0,0,0,0,-1,713,519,0,0
-504,505,0,0,0,0,0,0,0,0,0,-1,720,519,0,0
-497,505,0,0,0,0,0,0,0,0,0,-1,727,519,0,0
-490,505,0,0,0,0,0,0,0,0,0,-1,734,519,0,0
-483,505,0,0,0,0,0,0,0,0,0,-1,741,519,0,0
-476,505,0,0,0,0,0,0,0,0,0,-1,748,519,0,0
-469,505,0,0,0,0,0,0,0,0,0,-1,755,519,0,0
-462,505,0,0,0,0,0,0,0,0,0,-1,762,519,0,0
-455,505,0.193237,-2.25824,0.0135151,-0.0270293,0.132316,0.127103,-0.140617,0.709384,0.154634,0.0482977,769,519,0.19323,2.25826
-448,505,0.0878906,-1.76788,0.00255358,-0.00539876,0.098992,0.0976492,-0.100494,0.765326,0.114402,0.0452228,776,519,0.0879101,1.7679
-441,505,0.241638,-1.56067,-0.00339076,0.0113044,0.0728427,0.0771691,-0.0692555,0.835663,0.0845795,0.0463987,783,519,0.241656,1.56064
-434,505,0.43512,-1.97675,-0.00669064,0.0231492,0.0520822,0.0624064,-0.0459479,0.924896,0.0627985,0.0473986,790,519,0.435108,1.97674
-427,505,0.582336,-1.8877,0,0,0,0,0,0,0,-1,797,519,0.582364,1.88771
-420,505,0.288696,-2.4256,-0.00801018,0.0351971,0.0237911,0.0457296,-0.0185427,1.15402,0.0381982,0.0448227,804,519,0.288704,2.42561
-413,505,0.0166626,-2.97937,-0.00682896,0.0362859,0.0149138,0.0409419,-0.011485,1.26819,0.0318215,0.0462734,811,519,0.0166598,2.97938
-406,505,-0.314453,-4.30719,0,0,0,0,0,0,0,-1,818,519,-0.314433,4.30719
-399,505,-0.521423,-4.53577,-0.0035631,0.0317159,0.00361461,0.0320825,-0.00392964,1.46974,0.0228113,0.0380842,825,519,-0.521395,4.53576
-392,505,-0.360474,-4.65277,-0.00197245,0.0275422,0.000239233,0.0275441,-0.00197439,1.56269,0.019055,0.019704,832,519,-0.360496,4.65275
-385,505,-0.376953,-4.81366,-0.000905568,0.0234487,-0.00199438,0.0236109,-0.00106781,-1.48963,0.0161083,0.00902911,839,519,-0.376931,4.81367
-378,505,-0.40625,-5.01349,0.000158854,0.0183387,-0.00306658,0.0188421,-0.000344481,-1.40811,0.0126778,0.0107464,846,519,-0.406231,5.01347
-371,505,-0.409607,-5.23541,0.000700671,0.0130471,-0.0027058,0.013614,0.000133712,-1.36425,0.00903177,0.0139223,853,519,-0.409605,5.23543
-364,505,-0.419495,-5.42468,0.00233142,0.00833743,-0.00205935,0.00897571,0.00169314,-1.27024,0.00550688,0.0150157,860,519,-0.41947,5.42467
-357,505,-0.400757,-5.60071,0.00246369,0.00398461,-0.00172857,0.0051126,0.0013357,-0.992625,0.00306187,0.0117125,867,519,-0.400746,5.6007
-350,505,-0.412903,-5.78973,0.00147307,0.00160358,-0.00172173,0.00326129,-0.000184644,-0.804338,0.00223828,0.0108767,874,519,-0.412901,5.78976
-343,505,-0.434143,-5.9657,0.000749844,0.000625189,-0.00131117,0.00200017,-0.000625138,-0.761648,0.00158351,0.00922918,881,519,-0.434156,5.96571
-336,505,-0.441589,-6.13708,0.000504847,0.000399146,-0.000838384,0.00129204,-0.000388051,-0.753921,0.00101573,0.010421,888,519,-0.441612,6.13707
-329,505,-0.433655,-6.32605,0.000534965,0.000495021,-0.000516249,0.00103163,-1.64245e-06,-0.766065,0.0006883,0.0126215,895,519,-0.433636,6.32604
-322,505,-0.447021,-6.52094,0.000721025,0.000713521,-0.000284376,0.00100167,0.000432872,-0.778801,0.000580089,0.01356,902,519,-0.447022,6.52091
-315,505,-0.442139,-6.70856,0.00101406,0.00105559,-0.000149473,0.00118573,0.000883916,-0.854411,0.00071155,0.0115334,909,519,-0.442131,6.70855
-308,505,-0.419495,-6.8822,0.00148924,0.0015348,-3.20242e-05,0.00155132,0.00147272,-1.09456,0.00100903,0.0118396,916,519,-0.419496,6.88222
-301,505,-0.37854,-7.07385,0.00188272,0.00189285,0.000107067,0.00199497,0.0017806,0.809042,0.0012646,0.0175878,923,519,-0.378565,7.07385
-294,505,-0.382263,-7.21075,0,0,0,0,0,0,0,-1,930,519,-0.38225,7.21072
-287,505,-0.489197,-7.31805,0,0,0,0,0,0,0,-1,937,519,-0.48919,7.31808
-280,505,-0.316528,-7.74738,0,0,0,0,0,0,0,-1,944,519,-0.316542,7.7474
-273,505,-0.239746,-7.46594,0,0,0,0,0,0,0,-1,951,519,-0.239741,7.46594
-266,505,0.0427246,-7.92871,0,0,0,0,0,0,0,-1,958,519,0.0426962,7.92869
-259,505,0.10321,-6.69824,0,0,0,0,0,0,0,-1,965,519,0.103235,6.69826
-252,505,6.82312,-15.6972,0,0,0,0,0,0,0,-1,972,519,6.82314,15.6972
-245,505,4.26727,-12.9861,0,0,0,0,0,0,0,-1,979,519,4.2673,12.9861
-238,505,1.67432,-11.2307,0,0,0,0,0,0,0,-1,986,519,1.67429,11.2307
-231,505,-0.958435,-8.3075,0,0,0,0,0,0,0,-1,993,519,-0.958421,8.30751
-224,505,-3.69653,-5.12732,0,0,0,0,0,0,0,-1,1000,519,-3.69653,5.12733
-217,505,-6.34302,-1.65533,0,0,0,0,0,0,0,-1,1007,519,-6.34299,1.65535
-210,505,-3.06128,-0.396301,0,0,0,0,0,0,0,-1,1014,519,-3.06129,0.396294
-203,505,-4.26465,2.03607,0,0,0,0,0,0,0,-1,1021,519,-4.26462,-2.03606
-196,505,-5.47595,4.27295,0,0,0,0,0,0,0,-1,1028,519,-5.47597,-4.27292
-189,505,1.51526,5.56207,0,0,0,0,0,0,0,-1,1035,519,1.51523,-5.56209
-182,505,2.97815,7.5097,0,0,0,0,0,0,0,-1,1042,519,2.97812,-7.5097
-175,505,-2.38416,-2.17548,0,0,0,0,0,0,0,-1,1049,519,-2.38411,2.1755
-168,505,0,0,0,0,0,0,0,0,0,-1,1056,519,0,0
-161,505,0,0,0,0,0,0,0,0,0,-1,1063,519,0,0
-154,505,0,0,0,0,0,0,0,0,0,-1,1070,519,0,0
-147,505,0,0,0,0,0,0,0,0,0,-1,1077,519,0,0
-140,505,0,0,0,0,0,0,0,0,0,-1,1084,519,0,0
-133,505,0,0,0,0,0,0,0,0,0,-1,1091,519,0,0
-126,505,0,0,0,0,0,0,0,0,0,-1,1098,519,0,0
-119,505,0,0,0,0,0,0,0,0,0,-1,1105,519,0,0
-112,505,0,0,0,0,0,0,0,0,0,-1,1112,519,0,0
-105,505,0,0,0,0,0,0,0,0,0,-1,1119,519,0,0
-98,505,0,0,0,0,0,0,0,0,0,-1,1126,519,0,0
-91,505,0,0,0,0,0,0,0,0,0,-1,1133,519,0,0
-84,505,0,0,0,0,0,0,0,0,0,-1,1140,519,0,0
-77,505,0,0,0,0,0,0,0,0,0,-1,1147,519,0,0
-70,505,0,0,0,0,0,0,0,0,0,-1,1154,519,0,0
-63,505,0,0,0,0,0,0,0,0,0,-1,1161,519,0,0
-56,505,0,0,0,0,0,0,0,0,0,-1,1168,519,0,0
-49,505,0,0,0,0,0,0,0,0,0,-1,1175,519,0,0
-42,505,0,0,0,0,0,0,0,0,0,-1,1182,519,0,0
-35,505,0,0,0,0,0,0,0,0,0,-1,1189,519,0,0
-28,505,0,0,0,0,0,0,0,0,0,-1,1196,519,0,0
-21,505,0,0,0,0,0,0,0,0,0,-1,1203,519,0,0
-14,505,0,0,0,0,0,0,0,0,0,-1,1210,519,0,0
-7,505,0,0,0,0,0,0,0,0,0,-1,1217,519,0,0
0,505,0,0,0,0,0,0,0,0,0,-1,1224,519,0,0
7,505,0,0,0,0,0,0,0,0,0,-1,1231,519,0,0
14,505,0,0,0,0,0,0,0,0,0,-1,1238,519,0,0
21,505,0,0,0,0,0,0,0,0,0,-1,1245,519,0,0
28,505,0,0,0,0,0,0,0,0,0,-1,1252,519,0,0
35,505,0,0,0,0,0,0,0,0,0,-1,1259,519,0,0
42,505,0,0,0,0,0,0,0,0,0,-1,1266,519,0,0
49,505,0,0,0,0,0,0,0,0,0,-1,1273,519,0,0
56,505,0,0,0,0,0,0,0,0,0,-1,1280,519,0,0
63,505,0,0,0,0,0,0,0,0,0,-1,1287,519,0,0
70,505,0,0,0,0,0,0,0,0,0,-1,1294,519,0,0
77,505,0,0,0,0,0,0,0,0,0,-1,1301,519,0,0
84,505,0,0,0,0,0,0,0,0,0,-1,1308,519,0,0
91,505,0,0,0,0,0,0,0,0,0,-1,1315,519,0,0
98,505,0,0,0,0,0,0,0,0,0,-1,1322,519,0,0
105,505,0,0,0,0,0,0,0,0,0,-1,1329,519,0,0
112,505,0,0,0,0,0,0,0,0,0,-1,1336,519,0,0
119,505,0,0,0,0,0,0,0,0,0,-1,1343,519,0,0
126,505,0,0,0,0,0,0,0,0,0,-1,1350,519,0,0
133,505,0,0,0,0,0,0,0,0,0,-1,1357,519,0,0
140,505,0,0,0,0,0,0,0,0,0,-1,1364,519,0,0
147,505,0,0,0,0,0,0,0,0,0,-1,1371,519,0,0
154,505,0,0,0,0,0,0,0,0,0,-1,1378,519,0,0
161,505,0,0,0,0,0,0,0,0,0,-1,1385,519,0,0
168,505,0,0,0,0,0,0,0,0,0,-1,1392,519,0,0
175,505,0,0,0,0,0,0,0,0,0,-1,1399,519,0,0
182,505,0,0,0,0,0,0,0,0,0,-1,1406,519,0,0
189,505,0,0,0,0,0,0,0,0,0,-1,1413,519,0,0
196,505,0,0,0,0,0,0,0,0,0,-1,1420,519,0,0
203,505,0,0,0,0,0,0,0,0,0,-1,1427,519,0,0
210,505,0,0,0,0,0,0,0,0,0,-1,1434,519,0,0
217,505,0,0,0,0,0,0,0,0,0,-1,1441,519,0,0
224,505,0,0,0,0,0,0,0,0,0,-1,1448,519,0,0
231,505,0,0,0,0,0,0,0,0,0,-1,1455,519,0,0
238,505,0,0,0,0,0,0,0,0,0,-1,1462,519,0,0
245,505,0,0,0,0,0,0,0,0,0,-1,1469,519,0,0
252,505,0,0,0,0,0,0,0,0,0,-1,1476,519,0,0
259,505,0,0,0,0,0,0,0,0,0,-1,1483,519,0,0
266,505,0,0,0,0,0,0,0,0,0,-1,1490,519,0,0
273,505,0,0,0,0,0,0,0,0,0,-1,1497,519,0,0
280,505,0,0,0,0,0,0,0,0,0,-1,1504,519,0,0
287,505,4.39478,0.499512,0,0,0,0,0,0,0,-1,1511,519,4.39476,-0.499506
294,505,4.88867,0.0822754,0,0,0,0,0,0,0,-1,1518,519,4.88871,-0.0822748
301,505,4.82153,-0.0704346,0,0,0,0,0,0,0,-1,1525,519,4.82156,0.0704312
308,505,4.67761,-0.29187,0,0,0,0,0,0,0,-1,1532,519,4.67762,0.291845
315,505,8.44055,-6.54352,0,0,0,0,0,0,0,-1,1539,519,8.44059,6.54349
322,505,4.78955,-0.594116,0,0,0,0,0,0,0,-1,1546,519,4.78957,0.594096
329,505,5.16321,0.434631,0,0,0,0,0,0,0,-1,1553,519,5.16316,-0.434614
336,505,4.94495,-0.920471,0,0,0,0,0,0,0,-1,1560,519,4.945,0.920495
343,505,5.01855,-1.4823,0,0,0,0,0,0,0,-1,1567,519,5.01851,1.48227
350,505,5.33154,-1.77838,0,0,0,0,0,0,0,-1,1574,519,5.33152,1.77838
357,505,5.56567,-1.9425,0,0,0,0,0,0,0,-1,1581,519,5.56562,1.94248
364,505,5.85205,-2.6579,0,0,0,0,0,0,0,-1,1588,519,5.85211,2.65788
371,505,5.88477,-7.00922,0,0,0,0,0,0,0,-1,1595,519,5.88473,7.00924
378,505,4.90271,-6.53369,0,0,0,0,0,0,0,-1,1602,519,4.90273,6.53369
385,505,4.61255,-5.71558,0,0,0,0,0,0,0,-1,1609,519,4.61252,5.71559
392,505,4.62109,-5.58307,0,0,0,0,0,0,0,-1,1616,519,4.62107,5.58307
399,505,6.13135,-6.30792,0,0,0,0,0,0,0,-1,1623,519,6.13135,6.30795
406,505,5.53064,-6.13409,-0.0150315,-0.00648351,-0.0158868,0.00569412,-0.0272092,-0.916802,0.0203054,0.0420078,1630,519,5.5306,6.1341
413,505,5.17578,-6.1582,-0.0119882,-0.00461514,-0.0128332,0.00505051,-0.0216539,-0.925265,0.016381,0.0467774,1637,519,5.17574,6.15819
420,505,4.94397,-6.11603,-0.0094236,-0.00322438,-0.010071,0.0042132,-0.0168612,-0.934686,0.012877,0.0333426,1644,519,4.94394,6.11603
427,505,4.88159,-5.85419,-0.00728671,-0.00206967,-0.00774648,0.00349569,-0.0128521,-0.947803,0.00994032,0.0145393,1651,519,4.88157,5.85421
434,505,4.87329,-5.66943,-0.00542927,-0.00100748,-0.00574459,0.00293697,-0.00937373,-0.969094,0.00742438,0.0104093,1658,519,4.87334,5.66945
441,505,4.87341,-5.453,-0.00391298,-0.000434445,-0.00418002,0.00235371,-0.00670114,-0.982549,0.00542496,0.0107369,1665,519,4.87341,5.45298
448,505,4.86841,-5.2403,-0.00256996,0.000170397,-0.00283641,0.00195024,-0.00434979,-1.0104,0.00372423,0.0113046,1672,519,4.8684,5.24033
455,505,4.87927,-5.04895,-0.00142819,0.000629843,-0.00168414,0.00157445,-0.0023728,-1.05963,0.00229443,0.0111795,1679,519,4.87923,5.04894
462,505,4.87976,-4.85474,-0.000393451,0.000786501,-0.000792515,0.00118453,-0.000791478,-1.10536,0.00114835,0.010401,1686,519,4.87973,4.85476
469,505,4.87805,-4.64264,0.000335369,0.000786613,-0.000303881,0.000939473,0.000182508,-1.10473,0.000575213,0.0104424,1693,519,4.87801,4.64266
476,505,4.87036,-4.44189,0.000737213,0.000697658,-8.93203e-05,0.000808919,0.000625952,-0.676446,0.000489817,0.0111338,1700,519,4.87032,4.44191
483,505,4.87231,-4.25671,0.000988425,0.000909607,1.90352e-05,0.000992782,0.000905251,0.224985,0.000634693,0.0117222,1707,519,4.87234,4.2567
490,505,4.88098,-4.0332,0.00113677,0.0010833,6.29032e-05,0.00117838,0.00104169,0.584448,0.00074422,0.0111921,1714,519,4.88101,4.03322
497,505,4.88147,-3.79932,0.00108213,0.00143274,2.99105e-05,0.00143528,0.0010796,1.4863,0.000863077,0.0116128,1721,519,4.88146,3.79934
504,505,4.87012,-3.5733,0.000943827,0.00262426,-5.51685e-05,0.00262607,0.000942018,-1.53801,0.0015362,0.0121929,1728,519,4.87012,3.57331
511,505,4.85913,-3.367,0.00108379,0.00381181,3.85516e-05,0.00381236,0.00108324,1.55667,0.00226841,0.0135478,1735,519,4.85918,3.36699
518,505,4.94189,-3.21002,0.00132268,0.00566744,0.000364355,0.00569778,0.00129234,1.48771,0.00344941,0.0257605,1742,519,4.94189,3.21
525,505,4.66296,-2.966,0.00145203,0.0079514,0.000686882,0.0080232,0.00138023,1.46664,0.00495324,0.0337023,1749,519,4.66291,2.96598
532,505,4.53589,-2.49243,0.00186885,0.011098,0.00138632,0.0113017,0.00166511,1.42487,0.00704533,0.0462986,1756,519,4.53592,2.49246
539,505,4.4021,-2.0752,0,0,0,0,0,0,0,-1,1763,519,4.40212,2.07517
546,505,4.69727,-1.47705,0,0,0,0,0,0,0,-1,1770,519,4.69723,1.47703
553,505,2.82837,0.162659,0,0,0,0,0,0,0,-1,1777,519,2.82841,-0.162672
560,505,3.66223,-0.479797,0,0,0,0,0,0,0,-1,1784,519,3.66219,0.47982
567,505,4.65271,-0.950256,0,0,0,0,0,0,0,-1,1791,519,4.65274,0.95028
574,505,5.54443,-1.19977,0,0,0,0,0,0,0,-1,1798,519,5.54443,1.19974
581,505,0,0,0,0,0,0,0,0,0,-1,1805,519,0,0
588,505,0,0,0,0,0,0,0,0,0,-1,1812,519,0,0
595,505,0,0,0,0,0,0,0,0,0,-1,1819,519,0,0
602,505,0,0,0,0,0,0,0,0,0,-1,1826,519,0,0
609,505,0,0,0,0,0,0,0,0,0,-1,1833,519,0,0
616,505,0,0,0,0,0,0,0,0,0,-1,1840,519,0,0
623,505,0,0,0,0,0,0,0,0,0,-1,1847,519,0,0
630,505,0,0,0,0,0,0,0,0,0,-1,1854,519,0,0
637,505,0,0,0,0,0,0,0,0,0,-1,1861,519,0,0
644,505,0,0,0,0,0,0,0,0,0,-1,1868,519,0,0
651,505,0,0,0,0,0,0,0,0,0,-1,1875,519,0,0
658,505,0,0,0,0,0,0,0,0,0,-1,1882,519,0,0
665,505,0,0,0,0,0,0,0,0,0,-1,1889,519,0,0
672,505,0,0,0,0,0,0,0,0,0,-1,1896,519,0,0
679,505,0,0,0,0,0,0,0,0,0,-1,1903,519,0,0
686,505,0,0,0,0,0,0,0,0,0,-1,1910,519,0,0
693,505,0,0,0,0,0,0,0,0,0,-1,1917,519,0,0
700,505,0,0,0,0,0,0,0,0,0,-1,1924,519,0,0
707,505,0,0,0,0,0,0,0,0,0,-1,1931,519,0,0
714,505,0,0,0,0,0,0,0,0,0,-1,1938,519,0,0
721,505,0,0,0,0,0,0,0,0,0,-1,1945,519,0,0
728,505,0,0,0,0,0,0,0,0,0,-1,1952,519,0,0
735,505,0,0,0,0,0,0,0,0,0,-1,1959,519,0,0
742,505,0,0,0,0,0,0,0,0,0,-1,1966,519,0,0
749,505,0,0,0,0,0,0,0,0,0,-1,1973,519,0,0
756,505,0,0,0,0,0,0,0,0,0,-1,1980,519,0,0
763,505,0,0,0,0,0,0,0,0,0,-1,1987,519,0,0
770,505,0,0,0,0,0,0,0,0,0,-1,1994,519,0,0
777,505,0,0,0,0,0,0,0,0,0,-1,2001,519,0,0
784,505,0,0,0,0,0,0,0,0,0,-1,2008,519,0,0
791,505,0,0,0,0,0,0,0,0,0,-1,2015,519,0,0
798,505,0,0,0,0,0,0,0,0,0,-1,2022,519,0,0
805,505,0,0,0,0,0,0,0,0,0,-1,2029,519,0,0
812,505,0,0,0,0,0,0,0,0,0,-1,2036,519,0,0
-700,498,0,0,0,0,0,0,0,0,0,-1,524,526,0,0
-693,498,0,0,0,0,0,0,0,0,0,-1,531,526,0,0
-686,498,0,0,0,0,0,0,0,0,0,-1,538,526,0,0
-679,498,0,0,0,0,0,0,0,0,0,-1,545,526,0,0
-672,498,0,0,0,0,0,0,0,0,0,-1,552,526,0,0
-665,498,0,0,0,0,0,0,0,0,0,-1,559,526,0,0
-658,498,0,0,0,0,0,0,0,0,0,-1,566,526,0,0
-651,498,0,0,0,0,0,0,0,0,0,-1,573,526,0,0
-644,498,0,0,0,0,0,0,0,0,0,-1,580,526,0,0
-637,498,0,0,0,0,0,0,0,0,0,-1,587,526,0,0
-630,498,0,0,0,0,0,0,0,0,0,-1,594,526,0,0
-623,498,0,0,0,0,0,0,0,0,0,-1,601,526,0,0
-616,498,0,0,0,0,0,0,0,0,0,-1,608,526,0,0
-609,498,0,0,0,0,0,0,0,0,0,-1,615,526,0,0
-602,498,0,0,0,0,0,0,0,0,0,-1,622,526,0,0
-595,498,0,0,0,0,0,0,0,0,0,-1,629,526,0,0
-588,498,0,0,0,0,0,0,0,0,0,-1,636,526,0,0
-581,498,0,0,0,0,0,0,0,0,0,-1,643,526,0,0
-574,498,0,0,0,0,0,0,0,0,0,-1,650,526,0,0
-567,498,0,0,0,0,0,0,0,0,0,-1,657,526,0,0
-560,498,0,0,0,0,0,0,0,0,0,-1,664,526,0,0
-553,498,0,0,0,0,0,0,0,0,0,-1,671,526,0,0
-546,498,0,0,0,0,0,0,0,0,0,-1,678,526,0,0
-539,498,0,0,0,0,0,0,0,0,0,-1,685,526,0,0
-532,498,0,0,0,0,0,0,0,0,0,-1,692,526,0,0
-525,498,0,0,0,0,0,0,0,0,0,-1,699,526,0,0
-518,498,0,0,0,0,0,0,0,0,0,-1,706,526,0,0
-511,498,0,0,0,0,0,0,0,0,0,-1,713,526,0,0
-504,498,0,0,0,0,0,0,0,0,0,-1,720,526,0,0
-497,498,0,0,0,0,0,0,0,0,0,-1,727,526,0,0
-490,498,0,0,0,0,0,0,0,0,0,-1,734,526,0,0
-483,498,0,0,0,0,0,0,0,0,0,-1,741,526,0,0
-476,498,0,0,0,0,0,0,0,0,0,-1,748,526,0,0
-469,498,0,0,0,0,0,0,0,0,0,-1,755,526,0,0
-462,498,-1.22064,-2.52124,0,0,0,0,0,0,0,-1,762,526,-1.22062,2.52126
-455,498,-1.2782,-2.0274,0.0164473,-0.0227057,0.115497,0.114016,-0.120274,0.701447,0.135283,0.0478389,769,526,-1.2782,2.02738
-448,498,-1.32996,-1.53931,0.00723577,-0.00498717,0.0859946,0.0873358,-0.0850872,0.749924,0.0995512,0.0493555,776,526,-1.32993,1.53929
-441,498,-0.904541,-1.69336,0.00189589,0.00870928,0.0627592,0.0681542,-0.057549,0.812513,0.0726608,0.0461613,783,526,-0.904534,1.69338
-434,498,-1.72729,-0.977844,-0.00131519,0.0183314,0.0444113,0.0539928,-0.0369766,0.89424,0.0528266,0.041967,790,526,-1.72731,0.977855
-427,498,-1.24493,-1.9624,0,0,0,0,0,0,0,-1,797,526,-1.24491,1.96239
-420,498,-0.603027,-2.90723,-0.00346815,0.0277988,0.0196931,0.0373094,-0.0129787,1.12089,0.0301453,0.0455787,804,526,-0.603008,2.90721
-413,498,-0.638184,-3.77356,-0.00306682,0.0284864,0.0120461,0.0325595,-0.00713991,1.24474,0.0244365,0.0457286,811,526,-0.638174,3.77359
-406,498,-0.551331,-4.28027,-0.00249824,0.0272247,0.00636265,0.0285295,-0.00380299,1.36854,0.0204058,0.0398207,818,526,-0.551333,4.28029
-399,498,-0.574829,-4.46478,-0.00135142,0.0246191,0.00235052,0.0248301,-0.00156245,1.48126,0.017098,0.0237257,825,526,-0.574817,4.46476
-392,498,-0.586792,-4.6358,-0.000397886,0.0212063,-0.000406639,0.021214,-0.000405536,-1.55198,0.0142798,0.0119241,832,526,-0.586799,4.63582
-385,498,-0.59314,-4.81305,0.000174773,0.0179242,-0.00217976,0.0181879,-8.8999e-05,-1.45037,0.0121551,0.00798798,839,526,-0.593117,4.81303
-378,498,-0.597412,-4.99713,0.000848367,0.0136989,-0.00289002,0.0143189,0.000228333,-1.35946,0.00947074,0.00963824,846,526,-0.597394,4.99713
-371,498,-0.58252,-5.19501,0.00106095,0.00931244,-0.0023651,0.00994227,0.000431126,-1.31054,0.00648925,0.0157212,853,526,-0.582536,5.19501
-364,498,-0.590637,-5.39441,0.00209853,0.00547374,-0.00177237,0.00623344,0.00133883,-1.16585,0.00378903,0.0164861,860,526,-0.590653,5.39439
-357,498,-0.596558,-5.58606,0.00212238,0.00209448,-0.00144869,0.00355719,0.000659675,-0.780583,0.00218502,0.0113312,867,526,-0.59654,5.58604
-350,498,-0.600586,-5.78174,0.00138063,0.000321118,-0.00138892,0.00233739,-0.000635644,-0.603206,0.00180779,0.0108216,874,526,-0.600597,5.78173
-343,498,-0.611877,-5.94885,0.000854831,-0.000390362,-0.00100661,0.00141583,-0.000951359,-0.50844,0.00137544,0.0117339,881,526,-0.611888,5.94885
-336,498,-0.633911,-6.12579,0.000654683,-0.000617517,-0.000635534,0.000917764,-0.000880598,-0.392477,0.00103836,0.0152764,888,526,-0.633924,6.12582
-329,498,-0.629395,-6.33105,0.000698873,-0.000501972,-0.000347769,0.000792316,-0.000595415,-0.262495,0.000803891,0.0191615,895,526,-0.62941,6.33108
-322,498,-0.609863,-6.52509,0.000878484,-0.000263141,-0.000113959,0.000889749,-0.000274406,-0.0985266,0.000702726,0.0168353,902,526,-0.609841,6.52511
-315,498,-0.618164,-6.6958,0.00118525,0.000130323,-3.0147e-07,0.00118525,0.000130323,-0.000285773,0.000750508,0.0147587,909,526,-0.61817,6.69581
-308,498,-0.595337,-6.8844,0.0016662,0.000792389,0.00012005,0.00168239,0.000776196,0.134078,0.000972297,0.0169582,916,526,-0.595343,6.88442
-301,498,-0.524902,-7.1554,0.00195462,0.00129132,0.00032595,0.00208798,0.00115796,0.388368,0.00120789,0.0290881,923,526,-0.524927,7.15537
-294,498,-0.54303,-7.12585,0.0022295,0.00207694,0.000616625,0.00277454,0.00153189,0.723857,0.00160478,0.0467481,930,526,-0.543033,7.12584
-287,498,-0.369812,-7.25714,0,0,0,0,0,0,0,-1,937,526,-0.369823,7.25716
-280,498,-0.2099,-7.44434,0,0,0,0,0,0,0,-1,944,526,-0.209875,7.44432
-273,498,-0.485535,-7.39661,0,0,0,0,0,0,0,-1,951,526,-0.485538,7.39663
-266,498,0.362488,-6.33545,0,0,0,0,0,0,0,-1,958,526,0.362478,6.33547
-259,498,10.9454,-17.3615,0,0,0,0,0,0,0,-1,965,526,10.9454,17.3614
-252,498,8.56586,-14.6886,0,0,0,0,0,0,0,-1,972,526,8.56584,14.6886
-245,498,5.97382,-11.928,0,0,0,0,0,0,0,-1,979,526,5.97381,11.928
-238,498,3.31403,-9.40442,0,0,0,0,0,0,0,-1,986,526,3.31405,9.40443
-231,498,0.675598,-6.60547,0,0,0,0,0,0,0,-1,993,526,0.675587,6.60545
-224,498,-2.11243,-4.76312,0,0,0,0,0,0,0,-1,1000,526,-2.11245,4.76314
-217,498,-3.82239,-1.42841,0,0,0,0,0,0,0,-1,1007,526,-3.82241,1.42843
-210,498,-1.80591,-0.358215,0,0,0,0,0,0,0,-1,1014,526,-1.8059,0.3582
-203,498,-3.17316,1.06641,0,0,0,0,0,0,0,-1,1021,526,-3.17313,-1.0664
-196,498,-0.103271,5.40527,0,0,0,0,0,0,0,-1,1028,526,-0.103285,-5.40528
-189,498,3.00256,6.47137,0,0,0,0,0,0,0,-1,1035,526,3.00256,-6.47139
-182,498,0,0,0,0,0,0,0,0,0,-1,1042,526,0,0
-175,498,0,0,0,0,0,0,0,0,0,-1,1049,526,0,0
-168,498,0,0,0,0,0,0,0,0,0,-1,1056,526,0,0
-161,498,0,0,0,0,0,0,0,0,0,-1,1063,526,0,0
-154,498,0,0,0,0,0,0,0,0,0,-1,1070,526,0,0
-147,498,0,0,0,0,0,0,0,0,0,-1,1077,526,0,0
-140,498,0,0,0,0,0,0,0,0,0,-1,1084,526,0,0
-133,498,0,0,0,0,0,0,0,0,0,-1,1091,526,0,0
-126,498,0,0,0,0,0,0,0,0,0,-1,1098,526,0,0
-119,498,0,0,0,0,0,0,0,0,0,-1,1105,526,0,0
-112,498,0,0,0,0,0,0,0,0,0,-1,1112,526,0,0
-105,498,0,0,0,0,0,0,0,0,0,-1,1119,526,0,0
-98,498,0,0,0,0,0,0,0,0,0,-1,1126,526,0,0
-91,498,0,0,0,0,0,0,0,0,0,-1,1133,526,0,0
-84,498,0,0,0,0,0,0,0,0,0,-1,1140,526,0,0
-77,498,0,0,0,0,0,0,0,0,0,-1,1147,526,0,0
-70,498,0,0,0,0,0,0,0,0,0,-1,1154,526,0,0
-63,498,0,0,0,0,0,0,0,0,0,-1,1161,526,0,0
-56,498,0,0,0,0,0,0,0,0,0,-1,1168,526,0,0
-49,498,0,0,0,0,0,0,0,0,0,-1,1175,526,0,0
-42,498,0,0,0,0,0,0,0,0,0,-1,1182,526,0,0
-35,498,0,0,0,0,0,0,0,0,0,-1,1189,526,0,0
-28,498,0,0,0,0,0,0,0,0,0,-1,1196,526,0,0
-21,498,0,0,0,0,0,0,0,0,0,-1,1203,526,0,0
-14,498,0,0,0,0,0,0,0,0,0,-1,1210,526,0,0
-7,498,0,0,0,0,0,0,0,0,0,-1,1217,526,0,0
0,498,0,0,0,0,0,0,0,0,0,-1,1224,526,0,0
7,498,0,0,0,0,0,0,0,0,0,-1,1231,526,0,0
14,498,0,0,0,0,0,0,0,0,0,-1,1238,526,0,0
21,498,0,0,0,0,0,0,0,0,0,-1,1245,526,0,0
28,498,0,0,0,0,0,0,0,0,0,-1,1252,526,0,0
35,498,0,0,0,0,0,0,0,0,0,-1,1259,526,0,0
42,498,0,0,0,0,0,0,0,0,0,-1,1266,526,0,0
49,498,0,0,0,0,0,0,0,0,0,-1,1273,526,0,0
56,498,0,0,0,0,0,0,0,0,0,-1,1280,526,0,0
63,498,0,0,0,0,0,0,0,0,0,-1,1287,526,0,0
70,498,0,0,0,0,0,0,0,0,0,-1,1294,526,0,0
77,498,0,0,0,0,0,0,0,0,0,-1,1301,526,0,0
84,498,0,0,0,0,0,0,0,0,0,-1,1308,526,0,0
91,498,0,0,0,0,0,0,0,0,0,-1,1315,526,0,0
98,498,0,0,0,0,0,0,0,0,0,-1,1322,526,0,0
105,498,0,0,0,0,0,0,0,0,0,-1,1329,526,0,0
112,498,0,0,0,0,0,0,0,0,0,-1,1336,526,0,0
119,498,0,0,0,0,0,0,0,0,0,-1,1343,526,0,0
126,498,0,0,0,0,0,0,0,0,0,-1,1350,526,0,0
133,498,0,0,0,0,0,0,0,0,0,-1,1357,526,0,0
140,498,0,0,0,0,0,0,0,0,0,-1,1364,526,0,0
147,498,0,0,0,0,0,0,0,0,0,-1,1371,526,0,0
154,498,0,0,0,0,0,0,0,0,0,-1,1378,526,0,0
161,498,0,0,0,0,0,0,0,0,0,-1,1385,526,0,0
168,498,0,0,0,0,0,0,0,0,0,-1,1392,526,0,0
175,498,0,0,0,0,0,0,0,0,0,-1,1399,526,0,0
182,498,0,0,0,0,0,0,0,0,0,-1,1406,526,0,0
189,498,0,0,0,0,0,0,0,0,0,-1,1413,526,0,0
196,498,0,0,0,0,0,0,0,0,0,-1,1420,526,0,0
203,498,0,0,0,0,0,0,0,0,0,-1,1427,526,0,0
210,498,0,0,0,0,0,0,0,0,0,-1,1434,526,0,0
217,498,0,0,0,0,0,0,0,0,0,-1,1441,526,0,0
224,498,0,0,0,0,0,0,0,0,0,-1,1448,526,0,0
231,498,0,0,0,0,0,0,0,0,0,-1,1455,526,0,0
238,498,0,0,0,0,0,0,0,0,0,-1,1462,526,0,0
245,498,0,0,0,0,0,0,0,0,0,-1,1469,526,0,0
252,498,0,0,0,0,0,0,0,0,0,-1,1476,526,0,0
259,498,0,0,0,0,0,0,0,0,0,-1,1483,526,0,0
266,498,0,0,0,0,0,0,0,0,0,-1,1490,526,0,0
273,498,0,0,0,0,0,0,0,0,0,-1,1497,526,0,0
280,498,0,0,0,0,0,0,0,0,0,-1,1504,526,0,0
287,498,0,0,0,0,0,0,0,0,0,-1,1511,526,0,0
294,498,0,0,0,0,0,0,0,0,0,-1,1518,526,0,0
301,498,0,0,0,0,0,0,0,0,0,-1,1525,526,0,0
308,498,4.77942,-0.293884,0,0,0,0,0,0,0,-1,1532,526,4.77939,0.293899
315,498,4.56091,-0.564148,0,0,0,0,0,0,0,-1,1539,526,4.56097,0.564142
322,498,4.52344,-0.447266,0,0,0,0,0,0,0,-1,1546,526,4.52341,0.447295
329,498,4.63232,-0.156982,0,0,0,0,0,0,0,-1,1553,526,4.63238,0.156991
336,498,5.22644,0.0925903,0,0,0,0,0,0,0,-1,1560,526,5.22648,-0.0926188
343,498,6.22607,-1.67615,0,0,0,0,0,0,0,-1,1567,526,6.22605,1.67617
350,498,6.19373,-1.59906,0,0,0,0,0,0,0,-1,1574,526,6.19367,1.59906
357,498,6.21472,-1.58929,0,0,0,0,0,0,0,-1,1581,526,6.21476,1.58927
364,498,5.73547,-1.2019,0,0,0,0,0,0,0,-1,1588,526,5.73547,1.20192
371,498,3.27087,-4.55334,0,0,0,0,0,0,0,-1,1595,526,3.27089,4.55332
378,498,8.42944,-4.70624,0,0,0,0,0,0,0,-1,1602,526,8.42942,4.70624
385,498,4.7793,-5.15314,0,0,0,0,0,0,0,-1,1609,526,4.77935,5.15311
392,498,3.44421,-4.27454,0,0,0,0,0,0,0,-1,1616,526,3.44416,4.27456
399,498,7.29773,-6.33337,0,0,0,0,0,0,0,-1,1623,526,7.29771,6.33335
406,498,6.27332,-6.07855,0,0,0,0,0,0,0,-1,1630,526,6.27327,6.07855
413,498,5.88171,-6.0166,0,0,0,0,0,0,0,-1,1637,526,5.8817,6.01658
420,498,5.21729,-6.07416,0,0,0,0,0,0,0,-1,1644,526,5.21729,6.07418
427,498,5.10425,-5.82855,-0.00957272,-0.00245139,-0.00991167,0.00451978,-0.0165439,-0.957839,0.0128046,0.0378632,1651,526,5.10423,5.82853
434,498,5.13684,-5.63104,-0.00706531,-0.00100499,-0.00725291,0.00382529,-0.0118956,-0.98327,0.00946672,0.0187433,1658,526,5.13687,5.63106
441,498,5.07825,-5.43323,-0.00509917,-0.000191936,-0.00524594,0.00314583,-0.00843694,-1.00414,0.00691598,0.0103138,1665,526,5.07823,5.43326
448,498,5.08643,-5.23584,-0.00342533,0.00056143,-0.00359449,0.00267828,-0.00554217,-1.03857,0.00484113,0.0104425,1672,526,5.08641,5.23581
455,498,5.07471,-5.04535,-0.00201736,0.00105415,-0.00219262,0.00219536,-0.00315857,-1.0909,0.00310772,0.0137852,1679,526,5.07473,5.04538
462,498,5.07837,-4.8692,-0.000819125,0.00117771,-0.0010745,0.00164605,-0.00128747,-1.15975,0.00169788,0.0153923,1686,526,5.0784,4.86923
469,498,5.08545,-4.66406,-4.26641e-05,0.00112847,-0.000458627,0.00128669,-0.00020089,-1.23858,0.000932004,0.0131712,1693,526,5.08546,4.66406
476,498,5.08215,-4.43591,0.000390969,0.000970728,-0.0001712,0.00101751,0.000344189,-1.30406,0.000597615,0.00957192,1700,526,5.08213,4.43592
483,498,5.07739,-4.21252,0.000626164,0.00105827,-1.38113e-05,0.00105871,0.000625723,-1.53888,0.000614616,0.0077421,1707,526,5.07741,4.21251
490,498,5.07935,-4.02161,0.000753805,0.00111621,8.9529e-05,0.00113712,0.000732894,1.34134,0.000665594,0.00979774,1714,526,5.07935,4.02158
497,498,5.08679,-3.80835,0.000649039,0.0013021,6.87902e-05,0.00130927,0.000641872,1.46698,0.000755956,0.0116196,1721,526,5.08684,3.80836
504,498,5.08008,-3.586,0.000447008,0.00225914,-1.34325e-05,0.00225924,0.000446908,-1.56338,0.0013815,0.0132487,1728,526,5.08003,3.58598
511,498,5.07434,-3.37646,0.000506601,0.00319974,9.22214e-05,0.00320289,0.000503447,1.53661,0.0019888,0.0145695,1735,526,5.0743,3.37648
518,498,5.1366,-3.15271,0.000662318,0.00472423,0.000409214,0.00476505,0.000621502,1.47138,0.00299113,0.0178978,1742,526,5.13655,3.15271
525,498,5.02271,-2.94305,0.000737405,0.00656762,0.000676866,0.00664517,0.000659855,1.45672,0.00422736,0.0291221,1749,526,5.02267,2.94306
532,498,4.92114,-2.79852,0.00111622,0.00910366,0.00127732,0.00930295,0.000916931,1.41602,0.00592004,0.0387793,1756,526,4.92114,2.79852
539,498,4.85364,-2.55896,0.0021067,0.0125865,0.00242298,0.0131196,0.00157362,1.35423,0.0082719,0.0458183,1763,526,4.85367,2.55898
546,498,4.55957,-2.07117,0,0,0,0,0,0,0,-1,1770,526,4.55962,2.07117
553,498,4.36548,-1.17236,0,0,0,0,0,0,0,-1,1777,526,4.36552,1.17238
560,498,3.69385,-0.615112,0,0,0,0,0,0,0,-1,1784,526,3.69381,0.615118
567,498,5.12695,-0.581604,0,0,0,0,0,0,0,-1,1791,526,5.12699,0.58159
574,498,3.88,0.0286255,0,0,0,0,0,0,0,-1,1798,526,3.87999,-0.0286535
581,498,10.8722,2.58551,0,0,0,0,0,0,0,-1,1805,526,10.8723,-2.58551
588,498,0,0,0,0,0,0,0,0,0,-1,1812,526,0,0
595,498,0,0,0,0,0,0,0,0,0,-1,1819,526,0,0
602,498,0,0,0,0,0,0,0,0,0,-1,1826,526,0,0
609,498,0,0,0,0,0,0,0,0,0,-1,1833,526,0,0
616,498,0,0,0,0,0,0,0,0,0,-1,1840,526,0,0
623,498,0,0,0,0,0,0,0,0,0,-1,1847,526,0,0
630,498,0,0,0,0,0,0,0,0,0,-1,1854,526,0,0
637,498,0,0,0,0,0,0,0,0,0,-1,1861,526,0,0
644,498,0,0,0,0,0,0,0,0,0,-1,1868,526,0,0
651,498,0,0,0,0,0,0,0,0,0,-1,1875,526,0,0
658,498,0,0,0,0,0,0,0,0,0,-1,1882,526,0,0
665,498,0,0,0,0,0,0,0,0,0,-1,1889,526,0,0
672,498,0,0,0,0,0,0,0,0,0,-1,1896,526,0,0
679,498,0,0,0,0,0,0,0,0,0,-1,1903,526,0,0
686,498,0,0,0,0,0,0,0,0,0,-1,1910,526,0,0
693,498,0,0,0,0,0,0,0,0,0,-1,1917,526,0,0
700,498,0,0,0,0,0,0,0,0,0,-1,1924,526,0,0
707,498,0,0,0,0,0,0,0,0,0,-1,1931,526,0,0
714,498,0,0,0,0,0,0,0,0,0,-1,1938,526,0,0
721,498,0,0,0,0,0,0,0,0,0,-1,1945,526,0,0
728,498,0,0,0,0,0,0,0,0,0,-1,1952,526,0,0
735,498,0,0,0,0,0,0,0,0,0,-1,1959,526,0,0
742,498,0,0,0,0,0,0,0,0,0,-1,1966,526,0,0
749,498,0,0,0,0,0,0,0,0,0,-1,1973,526,0,0
756,498,0,0,0,0,0,0,0,0,0,-1,1980,526,0,0
763,498,0,0,0,0,0,0,0,0,0,-1,1987,526,0,0
770,498,0,0,0,0,0,0,0,0,0,-1,1994,526,0,0
777,498,0,0,0,0,0,0,0,0,0,-1,2001,526,0,0
784,498,0,0,0,0,0,0,0,0,0,-1,2008,526,0,0
791,498,0,0,0,0,0,0,0,0,0,-1,2015,526,0,0
798,498,0,0,0,0,0,0,0,0,0,-1,2022,526,0,0
805,498,0,0,0,0,0,0,0,0,0,-1,2029,526,0,0
812,498,0,0,0,0,0,0,0,0,0,-1,2036,526,0,0
-700,491,0,0,0,0,0,0,0,0,0,-1,524,533,0,0
-693,491,0,0,0,0,0,0,0,0,0,-1,531,533,0,0
-686,491,0,0,0,0,0,0,0,0,0,-1,538,533,0,0
-679,491,0,0,0,0,0,0,0,0,0,-1,545,533,0,0
-672,491,0,0,0,0,0,0,0,0,0,-1,552,533,0,0
-665,491,0,0,0,0,0,0,0,0,0,-1,559,533,0,0
-658,491,0,0,0,0,0,0,0,0,0,-1,566,533,0,0
-651,491,0,0,0,0,0,0,0,0,0,-1,573,533,0,0
-644,491,0,0,0,0,0,0,0,0,0,-1,580,533,0,0
-637,491,0,0,0,0,0,0,0,0,0,-1,587,533,0,0
-630,491,0,0,0,0,0,0,0,0,0,-1,594,533,0,0
-623,491,0,0,0,0,0,0,0,0,0,-1,601,533,0,0
-616,491,0,0,0,0,0,0,0,0,0,-1,608,533,0,0
-609,491,0,0,0,0,0,0,0,0,0,-1,615,533,0,0
-602,491,0,0,0,0,0,0,0,0,0,-1,622,533,0,0
-595,491,0,0,0,0,0,0,0,0,0,-1,629,533,0,0
-588,491,0,0,0,0,0,0,0,0,0,-1,636,533,0,0
-581,491,0,0,0,0,0,0,0,0,0,-1,643,533,0,0
-574,491,0,0,0,0,0,0,0,0,0,-1,650,533,0,0
-567,491,0,0,0,0,0,0,0,0,0,-1,657,533,0,0
-560,491,0,0,0,0,0,0,0,0,0,-1,664,533,0,0
-553,491,0,0,0,0,0,0,0,0,0,-1,671,533,0,0
-546,491,0,0,0,0,0,0,0,0,0,-1,678,533,0,0
-539,491,0,0,0,0,0,0,0,0,0,-1,685,533,0,0
-532,491,0,0,0,0,0,0,0,0,0,-1,692,533,0,0
-525,491,0,0,0,0,0,0,0,0,0,-1,699,533,0,0
-518,491,0,0,0,0,0,0,0,0,0,-1,706,533,0,0
-511,491,0,0,0,0,0,0,0,0,0,-1,713,533,0,0
-504,491,0,0,0,0,0,0,0,0,0,-1,720,533,0,0
-497,491,0,0,0,0,0,0,0,0,0,-1,727,533,0,0
-490,491,0,0,0,0,0,0,0,0,0,-1,734,533,0,0
-483,491,0,0,0,0,0,0,0,0,0,-1,741,533,0,0
-476,491,0,0,0,0,0,0,0,0,0,-1,748,533,0,0
-469,491,-5.84094,3.46936,0,0,0,0,0,0,0,-1,755,533,-5.84097,-3.46934
-462,491,-2.62854,-2.38416,0,0,0,0,0,0,0,-1,762,533,-2.62852,2.38416
-455,491,-2.69427,-1.86346,0,0,0,0,0,0,0,-1,769,533,-2.6943,1.86349
-448,491,-2.72424,-1.32776,0,0,0,0,0,0,0,-1,776,533,-2.72426,1.32775
-441,491,-2.51495,-0.302673,0.00567461,0.00765067,0.0515778,0.0582499,-0.0449246,0.794975,0.0597332,0.0428496,783,533,-2.51494,0.30265
-434,491,-1.91431,-1.44031,0.00252384,0.0149855,0.0361778,0.0454652,-0.0279558,0.870676,0.0427895,0.0430849,790,533,-1.91433,1.44033
-427,491,-1.49841,-2.29828,0.000659697,0.0196474,0.0243425,0.036282,-0.0159748,0.971331,0.0309205,0.0476992,797,533,-1.49842,2.29827
-420,491,-1.1712,-3.14954,-0.00020563,0.0218773,0.0155333,0.0298936,-0.00822191,1.09438,0.0231614,0.0455721,804,533,-1.17122,3.14951
-413,491,-0.853882,-3.95605,-0.000408907,0.0221488,0.00927881,0.0254751,-0.00373514,1.22659,0.0183556,0.0372692,811,533,-0.853902,3.95603
-406,491,-0.772583,-4.26074,-0.000411267,0.0209827,0.00452901,0.0219019,-0.00133054,1.37054,0.0150644,0.0205861,818,533,-0.772604,4.26073
-399,491,-0.786682,-4.42645,0.000242261,0.0186978,0.00130082,0.018789,0.000151024,1.50077,0.012476,0.0110178,825,533,-0.786662,4.42648
-392,491,-0.815918,-4.61389,0.000748741,0.015774,-0.000818321,0.0158184,0.000704303,-1.51655,0.0103189,0.00952698,832,533,-0.815943,4.61389
-385,491,-0.801453,-4.80145,0.000974666,0.013024,-0.00214978,0.013396,0.000602601,-1.39942,0.00873675,0.00828472,839,533,-0.801442,4.80147
-378,491,-0.780701,-4.99042,0.00134875,0.00947642,-0.00255724,0.0102141,0.000611106,-1.28997,0.00661509,0.0122806,846,533,-0.780687,4.99044
-371,491,-0.788025,-5.19391,0.00131568,0.00581327,-0.00195428,0.00654378,0.000585165,-1.21308,0.00418114,0.014094,853,533,-0.788051,5.19389
-364,491,-0.781067,-5.38995,0.00186643,0.00267813,-0.00144629,0.00377443,0.000770128,-0.922187,0.00230291,0.0132146,860,533,-0.781047,5.38994
-357,491,-0.797241,-5.57629,0.00179188,9.31005e-05,-0.00118626,0.00240149,-0.000516508,-0.474699,0.00179806,0.0115838,867,533,-0.797243,5.57628
-350,491,-0.802734,-5.77289,0.00125315,-0.00122387,-0.00111777,0.00168297,-0.00165369,-0.3671,0.00192645,0.0145069,874,533,-0.802739,5.77288
-343,491,-0.800415,-5.94617,0.000895863,-0.00172081,-0.000789654,0.00111569,-0.00194064,-0.271515,0.00178587,0.0238109,881,533,-0.800395,5.94617
-336,491,-0.847717,-6.09955,0.000734883,-0.00192841,-0.000531417,0.000837003,-0.00203053,-0.189851,0.0017027,0.0244147,888,533,-0.847731,6.09954
-329,491,-0.876221,-6.31195,0.000788346,-0.00175922,-0.000295207,0.000822107,-0.00179298,-0.113868,0.00154411,0.024375,895,533,-0.876203,6.31193
-322,491,-0.800293,-6.52081,0.00096231,-0.00146053,-6.66451e-05,0.000964142,-0.00146237,-0.0274793,0.00141075,0.021756,902,533,-0.800319,6.52081
-315,491,-0.804504,-6.67621,0.00127545,-0.000992379,2.86212e-05,0.00127581,-0.00099274,0.0126179,0.00131314,0.0176098,909,533,-0.804521,6.67622
-308,491,-0.68158,-6.93042,0.00174463,-9.8096e-05,0.000167913,0.0017598,-0.000113272,0.0901331,0.00121272,0.0383887,916,533,-0.681583,6.93043
-301,491,-1.50323,-7.5047,0,0,0,0,0,0,0,-1,923,533,-1.50321,7.50467
-294,491,-1.08246,-7.4176,0,0,0,0,0,0,0,-1,930,533,-1.08247,7.41759
-287,491,-0.141663,-7.37488,0,0,0,0,0,0,0,-1,937,533,-0.141661,7.37485
-280,491,0.2948,-5.99219,0,0,0,0,0,0,0,-1,944,533,0.294811,5.99221
-273,491,0.369995,-5.33691,0,0,0,0,0,0,0,-1,951,533,0.369985,5.33693
-266,491,1.1167,-5.0321,0,0,0,0,0,0,0,-1,958,533,1.11668,5.0321
-259,491,12.0862,-16.9615,0,0,0,0,0,0,0,-1,965,533,12.0862,16.9615
-252,491,9.72443,-13.8417,0,0,0,0,0,0,0,-1,972,533,9.72444,13.8418
-245,491,7.36926,-10.7169,0,0,0,0,0,0,0,-1,979,533,7.36924,10.7169
-238,491,4.84167,-7.53986,0,0,0,0,0,0,0,-1,986,533,4.84169,7.53984
-231,491,2.15582,-5.05225,0,0,0,0,0,0,0,-1,993,533,2.1558,5.05223
-224,491,-0.429749,-3.09216,0,0,0,0,0,0,0,-1,1000,533,-0.429743,3.09215
-217,491,-2.92743,-1.0766,0,0,0,0,0,0,0,-1,1007,533,-2.92743,1.07659
-210,491,-0.92395,0.374512,0,0,0,0,0,0,0,-1,1014,533,-0.923959,-0.374531
-203,491,0.417419,4.77161,0,0,0,0,0,0,0,-1,1021,533,0.417446,-4.77162
-196,491,0,0,0,0,0,0,0,0,0,-1,1028,533,0,0
-189,491,0,0,0,0,0,0,0,0,0,-1,1035,533,0,0
-182,491,0,0,0,0,0,0,0,0,0,-1,1042,533,0,0
-175,491,0,0,0,0,0,0,0,0,0,-1,1049,533,0,0
-168,491,0,0,0,0,0,0,0,0,0,-1,1056,533,0,0
-161,491,0,0,0,0,0,0,0,0,0,-1,1063,533,0,0
-154,491,0,0,0,0,0,0,0,0,0,-1,1070,533,0,0
-147,491,0,0,0,0,0,0,0,0,0,-1,1077,533,0,0
-140,491,0,0,0,0,0,0,0,0,0,-1,1084,533,0,0
-133,491,0,0,0,0,0,0,0,0,0,-1,1091,533,0,0
-126,491,0,0,0,0,0,0,0,0,0,-1,1098,533,0,0
-119,491,0,0,0,0,0,0,0,0,0,-1,1105,533,0,0
-112,491,0,0,0,0,0,0,0,0,0,-1,1112,533,0,0
-105,491,0,0,0,0,0,0,0,0,0,-1,1119,533,0,0
-98,491,0,0,0,0,0,0,0,0,0,-1,1126,533,0,0
-91,491,0,0,0,0,0,0,0,0,0,-1,1133,533,0,0
-84,491,0,0,0,0,0,0,0,0,0,-1,1140,533,0,0
-77,491,0,0,0,0,0,0,0,0,0,-1,1147,533,0,0
-70,491,0,0,0,0,0,0,0,0,0,-1,1154,533,0,0
-63,491,0,0,0,0,0,0,0,0,0,-1,1161,533,0,0
-56,491,0,0,0,0,0,0,0,0,0,-1,1168,533,0,0
-49,491,0,0,0,0,0,0,0,0,0,-1,1175,533,0,0
-42,491,0,0,0,0,0,0,0,0,0,-1,1182,533,0,0
-35,491,0,0,0,0,0,0,0,0,0,-1,1189,533,0,0
-28,491,0,0,0,0,0,0,0,0,0,-1,1196,533,0,0
-21,491,0,0,0,0,0,0,0,0,0,-1,1203,533,0,0
-14,491,0,0,0,0,0,0,0,0,0,-1,1210,533,0,0
-7,491,0,0,0,0,0,0,0,0,0,-1,1217,533,0,0
0,491,0,0,0,0,0,0,0,0,0,-1,1224,533,0,0
7,491,0,0,0,0,0,0,0,0,0,-1,1231,533,0,0
14,491,0,0,0,0,0,0,0,0,0,-1,1238,533,0,0
21,491,0,0,0,0,0,0,0,0,0,-1,1245,533,0,0
28,491,0,0,0,0,0,0,0,0,0,-1,1252,533,0,0
35,491,0,0,0,0,0,0,0,0,0,-1,1259,533,0,0
42,491,0,0,0,0,0,0,0,0,0,-1,1266,533,0,0
49,491,0,0,0,0,0,0,0,0,0,-1,1273,533,0,0
56,491,0,0,0,0,0,0,0,0,0,-1,1280,533,0,0
63,491,0,0,0,0,0,0,0,0,0,-1,1287,533,0,0
70,491,0,0,0,0,0,0,0,0,0,-1,1294,533,0,0
77,491,0,0,0,0,0,0,0,0,0,-1,1301,533,0,0
84,491,0,0,0,0,0,0,0,0,0,-1,1308,533,0,0
91,491,0,0,0,0,0,0,0,0,0,-1,1315,533,0,0
98,491,0,0,0,0,0,0,0,0,0,-1,1322,533,0,0
105,491,0,0,0,0,0,0,0,0,0,-1,1329,533,0,0
112,491,0,0,0,0,0,0,0,0,0,-1,1336,533,0,0
119,491,0,0,0,0,0,0,0,0,0,-1,1343,533,0,0
126,491,0,0,0,0,0,0,0,0,0,-1,1350,533,0,0
133,491,0,0,0,0,0,0,0,0,0,-1,1357,533,0,0
140,491,0,0,0,0,0,0,0,0,0,-1,1364,533,0,0
147,491,0,0,0,0,0,0,0,0,0,-1,1371,533,0,0
154,491,0,0,0,0,0,0,0,0,0,-1,1378,533,0,0
161,491,0,0,0,0,0,0,0,0,0,-1,1385,533,0,0
168,491,0,0,0,0,0,0,0,0,0,-1,1392,533,0,0
175,491,0,0,0,0,0,0,0,0,0,-1,1399,533,0,0
182,491,0,0,0,0,0,0,0,0,0,-1,1406,533,0,0
189,491,0,0,0,0,0,0,0,0,0,-1,1413,533,0,0
196,491,0,0,0,0,0,0,0,0,0,-1,1420,533,0,0
203,491,0,0,0,0,0,0,0,0,0,-1,1427,533,0,0
210,491,0,0,0,0,0,0,0,0,0,-1,1434,533,0,0
217,491,0,0,0,0,0,0,0,0,0,-1,1441,533,0,0
224,491,0,0,0,0,0,0,0,0,0,-1,1448,533,0,0
231,491,0,0,0,0,0,0,0,0,0,-1,1455,533,0,0
238,491,0,0,0,0,0,0,0,0,0,-1,1462,533,0,0
245,491,0,0,0,0,0,0,0,0,0,-1,1469,533,0,0
252,491,0,0,0,0,0,0,0,0,0,-1,1476,533,0,0
259,491,0,0,0,0,0,0,0,0,0,-1,1483,533,0,0
266,491,0,0,0,0,0,0,0,0,0,-1,1490,533,0,0
273,491,0,0,0,0,0,0,0,0,0,-1,1497,533,0,0
280,491,0,0,0,0,0,0,0,0,0,-1,1504,533,0,0
287,491,0,0,0,0,0,0,0,0,0,-1,1511,533,0,0
294,491,0,0,0,0,0,0,0,0,0,-1,1518,533,0,0
301,491,0,0,0,0,0,0,0,0,0,-1,1525,533,0,0
308,491,0,0,0,0,0,0,0,0,0,-1,1532,533,0,0
315,491,0,0,0,0,0,0,0,0,0,-1,1539,533,0,0
322,491,4.26331,-0.734314,0,0,0,0,0,0,0,-1,1546,533,4.26326,0.734324
329,491,4.25354,-0.783752,0,0,0,0,0,0,0,-1,1553,533,4.25359,0.783734
336,491,4.81604,-0.722107,0,0,0,0,0,0,0,-1,1560,533,4.81605,0.722115
343,491,6.14478,-1.44281,0,0,0,0,0,0,0,-1,1567,533,6.14474,1.44281
350,491,6.36353,-1.30792,0,0,0,0,0,0,0,-1,1574,533,6.36352,1.3079
357,491,6.69482,-1.06018,0,0,0,0,0,0,0,-1,1581,533,6.69489,1.06018
364,491,8.01086,-1.69604,0,0,0,0,0,0,0,-1,1588,533,8.01087,1.69607
371,491,8.2135,-0.539307,0,0,0,0,0,0,0,-1,1595,533,8.21348,0.53929
378,491,13.3589,2.17267,0,0,0,0,0,0,0,-1,1602,533,13.3589,-2.17264
385,491,8.08228,-4.95471,0,0,0,0,0,0,0,-1,1609,533,8.08227,4.95474
392,491,2.88721,-4.30988,0,0,0,0,0,0,0,-1,1616,533,2.88716,4.30986
399,491,7.08691,-4.86603,0,0,0,0,0,0,0,-1,1623,533,7.08696,4.86606
406,491,7.21936,-6.05463,0,0,0,0,0,0,0,-1,1630,533,7.21938,6.05463
413,491,5.31848,-3.7124,0,0,0,0,0,0,0,-1,1637,533,5.31849,3.7124
420,491,4.86389,-3.95892,0,0,0,0,0,0,0,-1,1644,533,4.86387,3.95893
427,491,5.42786,-5.67786,0,0,0,0,0,0,0,-1,1651,533,5.42781,5.67783
434,491,5.51025,-5.6062,-0.00885087,-0.000814019,-0.00886294,0.00489892,-0.0145638,-0.998236,0.0116895,0.0382665,1658,533,5.51023,5.60621
441,491,5.34033,-5.48602,-0.0063134,0.000265964,-0.00632351,0.00410431,-0.0101517,-1.02525,0.008474,0.0238643,1665,533,5.34033,5.48601
448,491,5.31152,-5.23883,-0.00424282,0.00116962,-0.00432734,0.00356727,-0.00664047,-1.06483,0.00598181,0.0127122,1672,533,5.31157,5.23885
455,491,5.29236,-5.04358,-0.00253369,0.00166643,-0.00266747,0.00296131,-0.00382857,-1.11887,0.00393079,0.0111042,1679,533,5.29237,5.04358
462,491,5.28821,-4.87604,-0.00113789,0.0017162,-0.00131165,0.00222742,-0.00164911,-1.19915,0.0022464,0.0147889,1686,533,5.28823,4.87606
469,491,5.28381,-4.69037,-0.000279469,0.00160109,-0.000570772,0.00176077,-0.000439147,-1.29801,0.00134435,0.0139501,1693,533,5.28382,4.69035
476,491,5.29712,-4.44623,0.000222818,0.00136475,-0.000208744,0.00140171,0.000185856,-1.39554,0.000879095,0.0095229,1700,533,5.29709,4.44622
483,491,5.29968,-4.21039,0.000482129,0.00130111,2.08538e-06,0.00130112,0.000482124,1.56825,0.000759546,0.0108531,1707,533,5.29968,4.21038
490,491,5.29858,-4.02148,0.000636256,0.00123955,0.000164917,0.00128168,0.000594117,1.32063,0.000740636,0.0100086,1714,533,5.29864,4.02147
497,491,5.29663,-3.81732,0.00053338,0.00126261,0.000154903,0.00129415,0.00050184,1.36993,0.000753427,0.0114447,1721,533,5.29667,3.81735
504,491,5.30005,-3.604,0.000319528,0.00195262,7.83792e-05,0.00195637,0.000315775,1.52295,0.00121277,0.0125238,1728,533,5.29999,3.60403
511,491,5.29858,-3.3764,0.000331442,0.00265266,0.000185985,0.00266747,0.000316635,1.49135,0.00168273,0.0123341,1735,533,5.29857,3.37639
518,491,5.29541,-3.16254,0.000433701,0.00386046,0.000475191,0.00392514,0.000369026,1.43553,0.00250283,0.00969773,1742,533,5.29539,3.16251
525,491,5.31042,-2.94342,0.0004834,0.0053193,0.000690479,0.00541596,0.000386744,1.43172,0.00348888,0.00920373,1749,533,5.31038,2.9434
532,491,5.33508,-2.75385,0.000829243,0.00734407,0.00120144,0.00755857,0.000614741,1.39412,0.00484715,0.0163409,1756,533,5.33504,2.75385
539,491,5.28137,-2.60651,0.00171182,0.0100396,0.00213929,0.010557,0.00119442,1.33349,0.00667559,0.0243572,1763,533,5.2814,2.60651
546,491,4.97864,-2.19055,0.00329533,0.0132504,0.00353576,0.0143784,0.00216734,1.26198,0.00895102,0.0372588,1770,533,4.97865,2.19055
553,491,4.71741,-1.33514,0.00578529,0.0170928,0.00546124,0.0192998,0.00357838,1.18676,0.0118551,0.0479801,1777,533,4.71738,1.33515
560,491,4.38892,-0.575989,0,0,0,0,0,0,0,-1,1784,533,4.38894,0.576002
567,491,5.67651,-1.3562,0,0,0,0,0,0,0,-1,1791,533,5.67649,1.3562
574,491,8.0719,1.58325,0,0,0,0,0,0,0,-1,1798,533,8.07195,-1.58326
581,491,9.44812,1.60931,0,0,0,0,0,0,0,-1,1805,533,9.44808,-1.60933
588,491,11.0497,1.54962,0,0,0,0,0,0,0,-1,1812,533,11.0496,-1.54963
595,491,0,0,0,0,0,0,0,0,0,-1,1819,533,0,0
602,491,0,0,0,0,0,0,0,0,0,-1,1826,533,0,0
609,491,0,0,0,0,0,0,0,0,0,-1,1833,533,0,0
616,491,0,0,0,0,0,0,0,0,0,-1,1840,533,0,0
623,491,0,0,0,0,0,0,0,0,0,-1,1847,533,0,0
630,491,0,0,0,0,0,0,0,0,0,-1,1854,533,0,0
637,491,0,0,0,0,0,0,0,0,0,-1,1861,533,0,0
644,491,0,0,0,0,0,0,0,0,0,-1,1868,533,0,0
651,491,0,0,0,0,0,0,0,0,0,-1,1875,533,0,0
658,491,0,0,0,0,0,0,0,0,0,-1,1882,533,0,0
665,491,0,0,0,0,0,0,0,0,0,-1,1889,533,0,0
672,491,0,0,0,0,0,0,0,0,0,-1,1896,533,0,0
679,491,0,0,0,0,0,0,0,0,0,-1,1903,533,0,0
686,491,0,0,0,0,0,0,0,0,0,-1,1910,533,0,0
693,491,0,0,0,0,0,0,0,0,0,-1,1917,533,0,0
700,491,0,0,0,0,0,0,0,0,0,-1,1924,533,0,0
707,491,0,0,0,0,0,0,0,0,0,-1,1931,533,0,0
714,491,0,0,0,0,0,0,0,0,0,-1,1938,533,0,0
721,491,0,0,0,0,0,0,0,0,0,-1,1945,533,0,0
728,491,0,0,0,0,0,0,0,0,0,-1,1952,533,0,0
735,491,0,0,0,0,0,0,0,0,0,-1,1959,533,0,0
742,491,0,0,0,0,0,0,0,0,0,-1,1966,533,0,0
749,491,0,0,0,0,0,0,0,0,0,-1,1973,533,0,0
756,491,0,0,0,0,0,0,0,0,0,-1,1980,533,0,0
763,491,0,0,0,0,0,0,0,0,0,-1,1987,533,0,0
770,491,0,0,0,0,0,0,0,0,0,-1,1994,533,0,0
777,491,0,0,0,0,0,0,0,0,0,-1,2001,533,0,0
784,491,0,0,0,0,0,0,0,0,0,-1,2008,533,0,0
791,491,0,0,0,0,0,0,0,0,0,-1,2015,533,0,0
798,491,0,0,0,0,0,0,0,0,0,-1,2022,533,0,0
805,491,0,0,0,0,0,0,0,0,0,-1,2029,533,0,0
812,491,0,0,0,0,0,0,0,0,0,-1,2036,533,0,0
-700,484,0,0,0,0,0,0,0,0,0,-1,524,540,0,0
-693,484,0,0,0,0,0,0,0,0,0,-1,531,540,0,0
-686,484,0,0,0,0,0,0,0,0,0,-1,538,540,0,0
-679,484,0,0,0,0,0,0,0,0,0,-1,545,540,0,0
-672,484,0,0,0,0,0,0,0,0,0,-1,552,540,0,0
-665,484,0,0,0,0,0,0,0,0,0,-1,559,540,0,0
-658,484,0,0,0,0,0,0,0,0,0,-1,566,540,0,0
-651,484,0,0,0,0,0,0,0,0,0,-1,573,540,0,0
-644,484,0,0,0,0,0,0,0,0,0,-1,580,540,0,0
-637,484,0,0,0,0,0,0,0,0,0,-1,587,540,0,0
-630,484,0,0,0,0,0,0,0,0,0,-1,594,540,0,0
-623,484,0,0,0,0,0,0,0,0,0,-1,601,540,0,0
-616,484,0,0,0,0,0,0,0,0,0,-1,608,540,0,0
-609,484,0,0,0,0,0,0,0,0,0,-1,615,540,0,0
-602,484,0,0,0,0,0,0,0,0,0,-1,622,540,0,0
-595,484,0,0,0,0,0,0,0,0,0,-1,629,540,0,0
-588,484,0,0,0,0,0,0,0,0,0,-1,636,540,0,0
-581,484,0,0,0,0,0,0,0,0,0,-1,643,540,0,0
-574,484,0,0,0,0,0,0,0,0,0,-1,650,540,0,0
-567,484,0,0,0,0,0,0,0,0,0,-1,657,540,0,0
-560,484,0,0,0,0,0,0,0,0,0,-1,664,540,0,0
-553,484,0,0,0,0,0,0,0,0,0,-1,671,540,0,0
-546,484,0,0,0,0,0,0,0,0,0,-1,678,540,0,0
-539,484,0,0,0,0,0,0,0,0,0,-1,685,540,0,0
-532,484,0,0,0,0,0,0,0,0,0,-1,692,540,0,0
-525,484,0,0,0,0,0,0,0,0,0,-1,699,540,0,0
-518,484,0,0,0,0,0,0,0,0,0,-1,706,540,0,0
-511,484,0,0,0,0,0,0,0,0,0,-1,713,540,0,0
-504,484,0,0,0,0,0,0,0,0,0,-1,720,540,0,0
-497,484,0,0,0,0,0,0,0,0,0,-1,727,540,0,0
-490,484,0,0,0,0,0,0,0,0,0,-1,734,540,0,0
-483,484,0,0,0,0,0,0,0,0,0,-1,741,540,0,0
-476,484,-5.57245,3.58289,0,0,0,0,0,0,0,-1,748,540,-5.57242,-3.58286
-469,484,-5.64154,-3.27643,0,0,0,0,0,0,0,-1,755,540,-5.64156,3.27646
-462,484,-4.82855,-2.47888,0.0270154,-0.0211894,0.0939034,0.0998603,-0.0940343,0.659774,0.111962,0.0459314,762,540,-4.82858,2.4789
-455,484,-4.21735,-1.75372,0,0,0,0,0,0,0,-1,769,540,-4.21732,1.75375
-448,484,-3.82416,-1.1795,0,0,0,0,0,0,0,-1,776,540,-3.82413,1.17951
-441,484,-2.7218,-0.728943,0,0,0,0,0,0,0,-1,783,540,-2.72183,0.728948
-434,484,-2.14008,-1.92749,0,0,0,0,0,0,0,-1,790,540,-2.14005,1.92747
-427,484,-1.37048,-3.08069,0.00319627,0.0155153,0.0183377,0.0287004,-0.00998878,0.947425,0.0231916,0.0411379,797,540,-1.37048,3.08068
-420,484,-0.990662,-3.73584,0.00189168,0.0168903,0.0114183,0.0230519,-0.00426983,1.07596,0.0169712,0.0319404,804,540,-0.990684,3.73584
-413,484,-0.9599,-3.9613,0.0012799,0.0167958,0.00653028,0.0191783,-0.00110268,1.22095,0.0131685,0.0190992,811,540,-0.959876,3.9613
-406,484,-0.935608,-4.229,0.0009627,0.0156944,0.00273011,0.0161841,0.000473029,1.39332,0.0106352,0.0125779,818,540,-0.935628,4.22902
-399,484,-0.985413,-4.43512,0.00131497,0.0136752,0.000286467,0.0136818,0.00130833,1.54764,0.00871787,0.0154687,825,540,-0.9854,4.43513
-392,484,-0.995667,-4.60095,0.0015555,0.0111186,-0.00120008,0.0112669,0.0014072,-1.44785,0.00708888,0.0172045,832,540,-0.995675,4.60095
-385,484,-0.996887,-4.78772,0.00159039,0.00874541,-0.00208672,0.00930951,0.00102629,-1.30678,0.0058941,0.0119283,839,540,-0.996887,4.78771
-378,484,-0.970398,-5.00354,0.0017818,0.00573097,-0.00218763,0.00670336,0.0008094,-1.15253,0.00422503,0.0135281,846,540,-0.970427,5.00356
-371,484,-0.998657,-5.20227,0.0016128,0.00263649,-0.0015023,0.00371175,0.000537542,-0.949585,0.0023162,0.015893,853,540,-0.998627,5.20229
-364,484,-1.01147,-5.38995,0.00183053,1.75028e-05,-0.0010313,0.0022971,-0.000449065,-0.424853,0.00170096,0.0115636,860,540,-1.01149,5.38997
-357,484,-1.00861,-5.58221,0.0016839,-0.00202613,-0.000804985,0.00185103,-0.00219326,-0.204714,0.00233776,0.0117447,867,540,-1.00862,5.58221
-350,484,-1.01367,-5.76062,0.00128258,-0.00314976,-0.000733662,0.00140087,-0.00326804,-0.159847,0.00276652,0.0141139,874,540,-1.01365,5.76065
-343,484,-1.02026,-5.93768,0.00102238,-0.00364676,-0.000462494,0.00106775,-0.00369213,-0.0977873,0.00288399,0.0221374,881,540,-1.02029,5.93767
-336,484,-1.01172,-6.11505,0.000833672,-0.00398947,-0.000302425,0.000852561,-0.00400836,-0.0623774,0.00299712,0.0246768,888,540,-1.01172,6.11505
-329,484,-1.03552,-6.27136,0.000810504,-0.0039087,-0.000120896,0.000813599,-0.0039118,-0.0255956,0.00291713,0.0288869,895,540,-1.03551,6.27139
-322,484,-0.86438,-6.5675,0.000894895,-0.00365556,9.53687e-05,0.000896893,-0.00365755,0.0209458,0.00278588,0.0350078,902,540,-0.864361,6.56749
-315,484,-0.962524,-6.65405,0.00112656,-0.00320071,0.000134654,0.00113074,-0.0032049,0.0310775,0.00259691,0.0387665,909,540,-0.962502,6.65408
-308,484,-0.557617,-6.91162,0,0,0,0,0,0,0,-1,916,540,-0.5576,6.91163
-301,484,-1.33453,-6.52667,0,0,0,0,0,0,0,-1,923,540,-1.33454,6.5267
-294,484,-1.90045,-7.95844,0,0,0,0,0,0,0,-1,930,540,-1.90047,7.95842
-287,484,-0.715759,-5.62103,0,0,0,0,0,0,0,-1,937,540,-0.715772,5.62105
-280,484,2.66742,-1.6795,0,0,0,0,0,0,0,-1,944,540,2.6674,1.67949
-273,484,2.53125,-2.22296,0,0,0,0,0,0,0,-1,951,540,2.53128,2.22295
-266,484,2.6778,-2.72058,0,0,0,0,0,0,0,-1,958,540,2.6778,2.72061
-259,484,2.41718,-2.59894,0,0,0,0,0,0,0,-1,965,540,2.41717,2.59892
-252,484,10.6069,-11.696,0,0,0,0,0,0,0,-1,972,540,10.6069,11.696
-245,484,8.0415,-9.22931,0,0,0,0,0,0,0,-1,979,540,8.0415,9.2293
-238,484,5.56836,-6.82672,0,0,0,0,0,0,0,-1,986,540,5.56834,6.82672
-231,484,3.39185,-3.8576,0,0,0,0,0,0,0,-1,993,540,3.39183,3.85763
-224,484,1.14313,-1.21228,0,0,0,0,0,0,0,-1,1000,540,1.14312,1.21226
-217,484,-0.745056,1.17358,0,0,0,0,0,0,0,-1,1007,540,-0.745043,-1.17359
-210,484,0,0,0,0,0,0,0,0,0,-1,1014,540,0,0
-203,484,0,0,0,0,0,0,0,0,0,-1,1021,540,0,0
-196,484,0,0,0,0,0,0,0,0,0,-1,1028,540,0,0
-189,484,0,0,0,0,0,0,0,0,0,-1,1035,540,0,0
-182,484,0,0,0,0,0,0,0,0,0,-1,1042,540,0,0
-175,484,0,0,0,0,0,0,0,0,0,-1,1049,540,0,0
-168,484,0,0,0,0,0,0,0,0,0,-1,1056,540,0,0
-161,484,0,0,0,0,0,0,0,0,0,-1,1063,540,0,0
-154,484,0,0,0,0,0,0,0,0,0,-1,1070,540,0,0
-147,484,0,0,0,0,0,0,0,0,0,-1,1077,540,0,0
-140,484,0,0,0,0,0,0,0,0,0,-1,1084,540,0,0
-133,484,0,0,0,0,0,0,0,0,0,-1,1091,540,0,0
-126,484,0,0,0,0,0,0,0,0,0,-1,1098,540,0,0
-119,484,0,0,0,0,0,0,0,0,0,-1,1105,540,0,0
-112,484,0,0,0,0,0,0,0,0,0,-1,1112,540,0,0
-105,484,0,0,0,0,0,0,0,0,0,-1,1119,540,0,0
-98,484,0,0,0,0,0,0,0,0,0,-1,1126,540,0,0
-91,484,0,0,0,0,0,0,0,0,0,-1,1133,540,0,0
-84,484,0,0,0,0,0,0,0,0,0,-1,1140,540,0,0
-77,484,0,0,0,0,0,0,0,0,0,-1,1147,540,0,0
-70,484,0,0,0,0,0,0,0,0,0,-1,1154,540,0,0
-63,484,0,0,0,0,0,0,0,0,0,-1,1161,540,0,0
-56,484,0,0,0,0,0,0,0,0,0,-1,1168,540,0,0
-49,484,0,0,0,0,0,0,0,0,0,-1,1175,540,0,0
-42,484,0,0,0,0,0,0,0,0,0,-1,1182,540,0,0
-35,484,0,0,0,0,0,0,0,0,0,-1,1189,540,0,0
-28,484,0,0,0,0,0,0,0,0,0,-1,1196,540,0,0
-21,484,0,0,0,0,0,0,0,0,0,-1,1203,540,0,0
-14,484,0,0,0,0,0,0,0,0,0,-1,1210,540,0,0
-7,484,0,0,0,0,0,0,0,0,0,-1,1217,540,0,0
0,484,0,0,0,0,0,0,0,0,0,-1,1224,540,0,0
7,484,0,0,0,0,0,0,0,0,0,-1,1231,540,0,0
14,484,0,0,0,0,0,0,0,0,0,-1,1238,540,0,0
21,484,0,0,0,0,0,0,0,0,0,-1,1245,540,0,0
28,484,0,0,0,0,0,0,0,0,0,-1,1252,540,0,0
35,484,0,0,0,0,0,0,0,0,0,-1,1259,540,0,0
42,484,0,0,0,0,0,0,0,0,0,-1,1266,540,0,0
49,484,0,0,0,0,0,0,0,0,0,-1,1273,540,0,0
56,484,0,0,0,0,0,0,0,0,0,-1,1280,540,0,0
63,484,0,0,0,0,0,0,0,0,0,-1,1287,540,0,0
70,484,0,0,0,0,0,0,0,0,0,-1,1294,540,0,0
77,484,0,0,0,0,0,0,0,0,0,-1,1301,540,0,0
84,484,0,0,0,0,0,0,0,0,0,-1,1308,540,0,0
91,484,0,0,0,0,0,0,0,0,0,-1,1315,540,0,0
98,484,0,0,0,0,0,0,0,0,0,-1,1322,540,0,0
105,484,0,0,0,0,0,0,0,0,0,-1,1329,540,0,0
112,484,0,0,0,0,0,0,0,0,0,-1,1336,540,0,0
119,484,0,0,0,0,0,0,0,0,0,-1,1343,540,0,0
126,484,0,0,0,0,0,0,0,0,0,-1,1350,540,0,0
133,484,0,0,0,0,0,0,0,0,0,-1,1357,540,0,0
140,484,0,0,0,0,0,0,0,0,0,-1,1364,540,0,0
147,484,0,0,0,0,0,0,0,0,0,-1,1371,540,0,0
154,484,0,0,0,0,0,0,0,0,0,-1,1378,540,0,0
161,484,0,0,0,0,0,0,0,0,0,-1,1385,540,0,0
168,484,0,0,0,0,0,0,0,0,0,-1,1392,540,0,0
175,484,0,0,0,0,0,0,0,0,0,-1,1399,540,0,0
182,484,0,0,0,0,0,0,0,0,0,-1,1406,540,0,0
189,484,0,0,0,0,0,0,0,0,0,-1,1413,540,0,0
196,484,0,0,0,0,0,0,0,0,0,-1,1420,540,0,0
203,484,0,0,0,0,0,0,0,0,0,-1,1427,540,0,0
210,484,0,0,0,0,0,0,0,0,0,-1,1434,540,0,0
217,484,0,0,0,0,0,0,0,0,0,-1,1441,540,0,0
224,484,0,0,0,0,0,0,0,0,0,-1,1448,540,0,0
231,484,0,0,0,0,0,0,0,0,0,-1,1455,540,0,0
238,484,0,0,0,0,0,0,0,0,0,-1,1462,540,0,0
245,484,0,0,0,0,0,0,0,0,0,-1,1469,540,0,0
252,484,0,0,0,0,0,0,0,0,0,-1,1476,540,0,0
259,484,0,0,0,0,0,0,0,0,0,-1,1483,540,0,0
266,484,0,0,0,0,0,0,0,0,0,-1,1490,540,0,0
273,484,0,0,0,0,0,0,0,0,0,-1,1497,540,0,0
280,484,0,0,0,0,0,0,0,0,0,-1,1504,540,0,0
287,484,0,0,0,0,0,0,0,0,0,-1,1511,540,0,0
294,484,0,0,0,0,0,0,0,0,0,-1,1518,540,0,0
301,484,0,0,0,0,0,0,0,0,0,-1,1525,540,0,0
308,484,0,0,0,0,0,0,0,0,0,-1,1532,540,0,0
315,484,0,0,0,0,0,0,0,0,0,-1,1539,540,0,0
322,484,0,0,0,0,0,0,0,0,0,-1,1546,540,0,0
329,484,0,0,0,0,0,0,0,0,0,-1,1553,540,0,0
336,484,4.38708,-1.64136,0,0,0,0,0,0,0,-1,1560,540,4.38704,1.64138
343,484,7.57996,-1.05457,0,0,0,0,0,0,0,-1,1567,540,7.57995,1.05454
350,484,8.10425,-1.18878,0,0,0,0,0,0,0,-1,1574,540,8.1043,1.18877
357,484,7.74902,-3.80286,0,0,0,0,0,0,0,-1,1581,540,7.74901,3.80287
364,484,6.31262,-3.87213,0,0,0,0,0,0,0,-1,1588,540,6.31263,3.87215
371,484,7.21008,0.973511,0,0,0,0,0,0,0,-1,1595,540,7.21014,-0.973541
378,484,11.0563,1.5014,0,0,0,0,0,0,0,-1,1602,540,11.0563,-1.5014
385,484,14.3469,2.5545,0,0,0,0,0,0,0,-1,1609,540,14.3469,-2.55453
392,484,7.39453,-4.95026,0,0,0,0,0,0,0,-1,1616,540,7.39448,4.95023
399,484,7.14417,-2.5639,0,0,0,0,0,0,0,-1,1623,540,7.14417,2.56391
406,484,7.88953,-2.47321,0,0,0,0,0,0,0,-1,1630,540,7.88954,2.47323
413,484,4.4895,-1.08673,0,0,0,0,0,0,0,-1,1637,540,4.48952,1.08674
420,484,4.50012,-2.11255,0,0,0,0,0,0,0,-1,1644,540,4.50012,2.11256
427,484,5.28601,-3.54053,0,0,0,0,0,0,0,-1,1651,540,5.28599,3.54051
434,484,6.02771,-5.57666,0,0,0,0,0,0,0,-1,1658,540,6.02769,5.57665
441,484,5.62195,-5.43018,0,0,0,0,0,0,0,-1,1665,540,5.62197,5.4302
448,484,5.5708,-5.258,-0.00511601,0.00187569,-0.00506862,0.0045371,-0.00777742,-1.08729,0.00719137,0.0400586,1672,540,5.57075,5.25799
455,484,5.50378,-5.05304,-0.00302025,0.00235586,-0.0031117,0.00377978,-0.00444417,-1.14164,0.00475326,0.0194017,1679,540,5.50384,5.05306
462,484,5.50769,-4.8634,-0.00129387,0.00227833,-0.0014859,0.0028156,-0.00183114,-1.22384,0.00270279,0.0138514,1686,540,5.50774,4.86339
469,484,5.52136,-4.6665,-0.000260521,0.00210439,-0.000610791,0.00225283,-0.000408954,-1.3324,0.00165513,0.0155306,1693,540,5.52133,4.66649
476,484,5.51135,-4.44507,0.000371892,0.00180372,-0.000153609,0.00182002,0.000355598,-1.46512,0.00111389,0.0148674,1700,540,5.51137,4.44504
483,484,5.5177,-4.23279,0.000707658,0.00158664,0.000123978,0.0016038,0.000690505,1.43332,0.000928925,0.0113672,1707,540,5.51767,4.23278
490,484,5.51709,-4.02899,0.00093466,0.00142758,0.000349188,0.00160852,0.000753715,1.09271,0.000929293,0.0116966,1714,540,5.5171,4.02898
497,484,5.50391,-3.82861,0.000864257,0.00130723,0.000348985,0.00149908,0.000672406,1.06815,0.000867019,0.0138457,1721,540,5.50385,3.82863
504,484,5.50305,-3.62158,0.000644529,0.00171037,0.000274387,0.00177686,0.00057804,1.33306,0.00104653,0.0156828,1728,540,5.50304,3.62158
511,484,5.51294,-3.39557,0.000578173,0.00218923,0.000361247,0.00226652,0.000500878,1.36001,0.00137481,0.0183557,1735,540,5.51296,3.3956
518,484,5.50427,-3.16827,0.000581594,0.0030987,0.000591705,0.00323085,0.000449438,1.35106,0.00202082,0.0154217,1742,540,5.50425,3.16828
525,484,5.51392,-2.95148,0.000551125,0.00421167,0.000739128,0.00435528,0.000407516,1.37889,0.00277766,0.0129266,1749,540,5.51395,2.9515
532,484,5.54443,-2.74359,0.000789003,0.00577442,0.00113799,0.0060219,0.000541528,1.35666,0.00384682,0.0146016,1756,540,5.54446,2.74357
539,484,5.51636,-2.48358,0.00149316,0.00777722,0.00186531,0.0082892,0.000981187,1.30292,0.00522984,0.0190586,1763,540,5.51637,2.4836
546,484,5.45618,-2.27637,0.00280052,0.0101679,0.00298812,0.0112275,0.00174096,1.23004,0.00697745,0.0221041,1770,540,5.45615,2.27634
553,484,5.48706,-1.98541,0.00478058,0.0129146,0.00446865,0.0148899,0.0028053,1.15459,0.00913623,0.035455,1777,540,5.48707,1.98543
560,484,5.87415,-1.68127,0.0150201,0.017746,0.00957126,0.0260509,0.00671523,0.856123,0.0156177,0.0466607,1784,540,5.87409,1.68127
567,484,6.16943,-1.31586,0,0,0,0,0,0,0,-1,1791,540,6.16947,1.31585
574,484,5.74463,1.50922,0,0,0,0,0,0,0,-1,1798,540,5.74463,-1.50924
581,484,10.34,2.9491,0,0,0,0,0,0,0,-1,1805,540,10.34,-2.94912
588,484,10.6669,2.88568,0,0,0,0,0,0,0,-1,1812,540,10.6669,-2.88567
595,484,10.7233,1.04767,0,0,0,0,0,0,0,-1,1819,540,10.7233,-1.04766
602,484,0,0,0,0,0,0,0,0,0,-1,1826,540,0,0
609,484,0,0,0,0,0,0,0,0,0,-1,1833,540,0,0
616,484,0,0,0,0,0,0,0,0,0,-1,1840,540,0,0
623,484,0,0,0,0,0,0,0,0,0,-1,1847,540,0,0
630,484,0,0,0,0,0,0,0,0,0,-1,1854,540,0,0
637,484,0,0,0,0,0,0,0,0,0,-1,1861,540,0,0
644,484,0,0,0,0,0,0,0,0,0,-1,1868,540,0,0
651,484,0,0,0,0,0,0,0,0,0,-1,1875,540,0,0
658,484,0,0,0,0,0,0,0,0,0,-1,1882,540,0,0
665,484,0,0,0,0,0,0,0,0,0,-1,1889,540,0,0
672,484,0,0,0,0,0,0,0,0,0,-1,1896,540,0,0
679,484,0,0,0,0,0,0,0,0,0,-1,1903,540,0,0
686,484,0,0,0,0,0,0,0,0,0,-1,1910,540,0,0
693,484,0,0,0,0,0,0,0,0,0,-1,1917,540,0,0
700,484,0,0,0,0,0,0,0,0,0,-1,1924,540,0,0
707,484,0,0,0,0,0,0,0,0,0,-1,1931,540,0,0
714,484,0,0,0,0,0,0,0,0,0,-1,1938,540,0,0
721,484,0,0,0,0,0,0,0,0,0,-1,1945,540,0,0
728,484,0,0,0,0,0,0,0,0,0,-1,1952,540,0,0
735,484,0,0,0,0,0,0,0,0,0,-1,1959,540,0,0
742,484,0,0,0,0,0,0,0,0,0,-1,1966,540,0,0
749,484,0,0,0,0,0,0,0,0,0,-1,1973,540,0,0
756,484,0,0,0,0,0,0,0,0,0,-1,1980,540,0,0
763,484,0,0,0,0,0,0,0,0,0,-1,1987,540,0,0
770,484,0,0,0,0,0,0,0,0,0,-1,1994,540,0,0
777,484,0,0,0,0,0,0,0,0,0,-1,2001,540,0,0
784,484,0,0,0,0,0,0,0,0,0,-1,2008,540,0,0
791,484,0,0,0,0,0,0,0,0,0,-1,2015,540,0,0
798,484,0,0,0,0,0,0,0,0,0,-1,2022,540,0,0
805,484,0,0,0,0,0,0,0,0,0,-1,2029,540,0,0
812,484,0,0,0,0,0,0,0,0,0,-1,2036,540,0,0
-700,477,0,0,0,0,0,0,0,0,0,-1,524,547,0,0
-693,477,0,0,0,0,0,0,0,0,0,-1,531,547,0,0
-686,477,0,0,0,0,0,0,0,0,0,-1,538,547,0,0
-679,477,0,0,0,0,0,0,0,0,0,-1,545,547,0,0
-672,477,0,0,0,0,0,0,0,0,0,-1,552,547,0,0
-665,477,0,0,0,0,0,0,0,0,0,-1,559,547,0,0
-658,477,0,0,0,0,0,0,0,0,0,-1,566,547,0,0
-651,477,0,0,0,0,0,0,0,0,0,-1,573,547,0,0
-644,477,0,0,0,0,0,0,0,0,0,-1,580,547,0,0
-637,477,0,0,0,0,0,0,0,0,0,-1,587,547,0,0
-630,477,0,0,0,0,0,0,0,0,0,-1,594,547,0,0
-623,477,0,0,0,0,0,0,0,0,0,-1,601,547,0,0
-616,477,0,0,0,0,0,0,0,0,0,-1,608,547,0,0
-609,477,0,0,0,0,0,0,0,0,0,-1,615,547,0,0
-602,477,0,0,0,0,0,0,0,0,0,-1,622,547,0,0
-595,477,0,0,0,0,0,0,0,0,0,-1,629,547,0,0
-588,477,0,0,0,0,0,0,0,0,0,-1,636,547,0,0
-581,477,0,0,0,0,0,0,0,0,0,-1,643,547,0,0
-574,477,0,0,0,0,0,0,0,0,0,-1,650,547,0,0
-567,477,0,0,0,0,0,0,0,0,0,-1,657,547,0,0
-560,477,0,0,0,0,0,0,0,0,0,-1,664,547,0,0
-553,477,0,0,0,0,0,0,0,0,0,-1,671,547,0,0
-546,477,0,0,0,0,0,0,0,0,0,-1,678,547,0,0
-539,477,0,0,0,0,0,0,0,0,0,-1,685,547,0,0
-532,477,0,0,0,0,0,0,0,0,0,-1,692,547,0,0
-525,477,0,0,0,0,0,0,0,0,0,-1,699,547,0,0
-518,477,0,0,0,0,0,0,0,0,0,-1,706,547,0,0
-511,477,0,0,0,0,0,0,0,0,0,-1,713,547,0,0
-504,477,0,0,0,0,0,0,0,0,0,-1,720,547,0,0
-497,477,0,0,0,0,0,0,0,0,0,-1,727,547,0,0
-490,477,0,0,0,0,0,0,0,0,0,-1,734,547,0,0
-483,477,-5.02893,2.836,0,0,0,0,0,0,0,-1,741,547,-5.02894,-2.83599
-476,477,-8.85168,-3.39087,0,0,0,0,0,0,0,-1,748,547,-8.85166,3.39085
-469,477,-7.64825,-2.60547,0,0,0,0,0,0,0,-1,755,547,-7.64824,2.60549
-462,477,-6.76202,-1.80042,0,0,0,0,0,0,0,-1,762,547,-6.76202,1.80042
-455,477,-5.86725,-1.63379,0,0,0,0,0,0,0,-1,769,547,-5.86725,1.63377
-448,477,-2.61957,-0.672974,0,0,0,0,0,0,0,-1,776,547,-2.61958,0.673001
-441,477,-1.60999,-2.98273,0,0,0,0,0,0,0,-1,783,547,-1.61,2.98275
-434,477,-1.362,-3.32471,0.00638862,0.0101062,0.0201989,0.0285317,-0.0120368,0.831281,0.024059,0.0398093,790,547,-1.36198,3.32473
-427,477,-1.13507,-3.60663,0.00421636,0.0121132,0.0130597,0.0218084,-0.00547878,0.932198,0.0166681,0.0211573,797,547,-1.13509,3.60665
-420,477,-1.18127,-3.73914,0.00266025,0.0127892,0.00795589,0.0171558,-0.00170635,1.06884,0.0120463,0.0177464,804,547,-1.18128,3.73912
-413,477,-1.18329,-3.97876,0.00177521,0.0123879,0.00437475,0.0139587,0.000204365,1.22606,0.00923845,0.0154939,811,547,-1.18328,3.97876
-406,477,-1.15802,-4.21161,0.00127372,0.0112978,0.00151203,0.0115209,0.00105062,1.4243,0.00735546,0.011093,818,547,-1.15804,4.21161
-399,477,-1.16541,-4.4386,0.0014381,0.00945332,-0.000194299,0.00945803,0.00143339,-1.54657,0.00588602,0.0177256,825,547,-1.1654,4.43859
-392,477,-1.18634,-4.61902,0.00153885,0.00714084,-0.00111513,0.00735466,0.00132503,-1.38135,0.00452654,0.0168663,832,547,-1.18631,4.61902
-385,477,-1.18494,-4.776,0.00150727,0.00498461,-0.00161802,0.00562102,0.000870871,-1.19606,0.00349343,0.0148442,839,547,-1.18495,4.77603
-378,477,-1.15173,-4.99042,0.00163079,0.00235201,-0.00148747,0.00352195,0.000460843,-0.90432,0.00221042,0.0136068,846,547,-1.15171,4.99044
-371,477,-1.17273,-5.1889,0.00145725,-0.000322076,-0.000802539,0.00176574,-0.000630566,-0.36698,0.00143432,0.0135441,853,547,-1.17271,5.18889
-364,477,-1.19855,-5.37262,0.00151322,-0.00259594,-0.00040906,0.00155355,-0.00263626,-0.0982636,0.00244576,0.0131433,860,547,-1.19855,5.37264
-357,477,-1.20856,-5.573,0.00139494,-0.0043296,-0.000291979,0.00140979,-0.00434446,-0.050829,0.00346324,0.0101213,867,547,-1.20858,5.573
-350,477,-1.2182,-5.76007,0.0011561,-0.00549123,-0.000287897,0.00116855,-0.00550367,-0.0432024,0.00411432,0.0096794,874,547,-1.21822,5.76006
-343,477,-1.18304,-5.94623,0.00100606,-0.00618089,-0.000137413,0.00100868,-0.00618352,-0.0191105,0.00449644,0.0179261,881,547,-1.18302,5.94623
-336,477,-1.10266,-6.16589,0.000833856,-0.00680133,-0.000126796,0.000835961,-0.00680344,-0.0166007,0.00483841,0.0255858,888,547,-1.10268,6.1659
-329,477,-1.05634,-6.46063,0.000771396,-0.00696279,-7.43444e-05,0.000772111,-0.0069635,-0.00961126,0.00491994,0.0462627,895,547,-1.05634,6.46064
-322,477,-1.37793,-6.48724,0.000812511,-0.00688041,3.8783e-05,0.000812707,-0.00688061,0.00504121,0.00488058,0.0498745,902,547,-1.37794,6.48721
-315,477,-1.70325,-6.47015,0,0,0,0,0,0,0,-1,909,547,-1.70326,6.47018
-308,477,-1.30127,-6.55188,0,0,0,0,0,0,0,-1,916,547,-1.30128,6.55185
-301,477,-1.21185,-6.28351,0,0,0,0,0,0,0,-1,923,547,-1.21184,6.28352
-294,477,-0.352905,3.27142,0,0,0,0,0,0,0,-1,930,547,-0.35292,-3.27144
-287,477,3.54364,2.15399,0,0,0,0,0,0,0,-1,937,547,3.54362,-2.15396
-280,477,1.97308,-0.954163,0,0,0,0,0,0,0,-1,944,547,1.9731,0.954178
-273,477,2.11621,-3.76709,0,0,0,0,0,0,0,-1,951,547,2.11619,3.76706
-266,477,2.04669,-3.42389,0,0,0,0,0,0,0,-1,958,547,2.04671,3.42391
-259,477,-1.33478,-3.41205,0,0,0,0,0,0,0,-1,965,547,-1.3348,3.41206
-252,477,0.597168,-5.32922,0,0,0,0,0,0,0,-1,972,547,0.597144,5.32924
-245,477,2.27161,-7.02875,0,0,0,0,0,0,0,-1,979,547,2.27158,7.02873
-238,477,7.29095,-4.50336,0,0,0,0,0,0,0,-1,986,547,7.29093,4.50335
-231,477,4.88141,-2.23413,0,0,0,0,0,0,0,-1,993,547,4.88143,2.23413
-224,477,0,0,0,0,0,0,0,0,0,-1,1000,547,0,0
-217,477,0,0,0,0,0,0,0,0,0,-1,1007,547,0,0
-210,477,0,0,0,0,0,0,0,0,0,-1,1014,547,0,0
-203,477,0,0,0,0,0,0,0,0,0,-1,1021,547,0,0
-196,477,0,0,0,0,0,0,0,0,0,-1,1028,547,0,0
-189,477,0,0,0,0,0,0,0,0,0,-1,1035,547,0,0
-182,477,0,0,0,0,0,0,0,0,0,-1,1042,547,0,0
-175,477,0,0,0,0,0,0,0,0,0,-1,1049,547,0,0
-168,477,0,0,0,0,0,0,0,0,0,-1,1056,547,0,0
-161,477,0,0,0,0,0,0,0,0,0,-1,1063,547,0,0
-154,477,0,0,0,0,0,0,0,0,0,-1,1070,547,0,0
-147,477,0,0,0,0,0,0,0,0,0,-1,1077,547,0,0
-140,477,0,0,0,0,0,0,0,0,0,-1,1084,547,0,0
-133,477,0,0,0,0,0,0,0,0,0,-1,1091,547,0,0
-126,477,0,0,0,0,0,0,0,0,0,-1,1098,547,0,0
-119,477,0,0,0,0,0,0,0,0,0,-1,1105,547,0,0
-112,477,0,0,0,0,0,0,0,0,0,-1,1112,547,0,0
-105,477,0,0,0,0,0,0,0,0,0,-1,1119,547,0,0
-98,477,0,0,0,0,0,0,0,0,0,-1,1126,547,0,0
-91,477,0,0,0,0,0,0,0,0,0,-1,1133,547,0,0
-84,477,0,0,0,0,0,0,0,0,0,-1,1140,547,0,0
-77,477,0,0,0,0,0,0,0,0,0,-1,1147,547,0,0
-70,477,0,0,0,0,0,0,0,0,0,-1,1154,547,0,0
-63,477,0,0,0,0,0,0,0,0,0,-1,1161,547,0,0
-56,477,0,0,0,0,0,0,0,0,0,-1,1168,547,0,0
-49,477,0,0,0,0,0,0,0,0,0,-1,1175,547,0,0
-42,477,0,0,0,0,0,0,0,0,0,-1,1182,547,0,0
-35,477,0,0,0,0,0,0,0,0,0,-1,1189,547,0,0
-28,477,0,0,0,0,0,0,0,0,0,-1,1196,547,0,0
-21,477,0,0,0,0,0,0,0,0,0,-1,1203,547,0,0
-14,477,0,0,0,0,0,0,0,0,0,-1,1210,547,0,0
-7,477,0,0,0,0,0,0,0,0,0,-1,1217,547,0,0
0,477,0,0,0,0,0,0,0,0,0,-1,1224,547,0,0
7,477,0,0,0,0,0,0,0,0,0,-1,1231,547,0,0
14,477,0,0,0,0,0,0,0,0,0,-1,1238,547,0,0
21,477,0,0,0,0,0,0,0,0,0,-1,1245,547,0,0
28,477,0,0,0,0,0,0,0,0,0,-1,1252,547,0,0
35,477,0,0,0,0,0,0,0,0,0,-1,1259,547,0,0
42,477,0,0,0,0,0,0,0,0,0,-1,1266,547,0,0
49,477,0,0,0,0,0,0,0,0,0,-1,1273,547,0,0
56,477,0,0,0,0,0,0,0,0,0,-1,1280,547,0,0
63,477,0,0,0,0,0,0,0,0,0,-1,1287,547,0,0
70,477,0,0,0,0,0,0,0,0,0,-1,1294,547,0,0
77,477,0,0,0,0,0,0,0,0,0,-1,1301,547,0,0
84,477,0,0,0,0,0,0,0,0,0,-1,1308,547,0,0
91,477,0,0,0,0,0,0,0,0,0,-1,1315,547,0,0
98,477,0,0,0,0,0,0,0,0,0,-1,1322,547,0,0
105,477,0,0,0,0,0,0,0,0,0,-1,1329,547,0,0
112,477,0,0,0,0,0,0,0,0,0,-1,1336,547,0,0
119,477,0,0,0,0,0,0,0,0,0,-1,1343,547,0,0
126,477,0,0,0,0,0,0,0,0,0,-1,1350,547,0,0
133,477,0,0,0,0,0,0,0,0,0,-1,1357,547,0,0
140,477,0,0,0,0,0,0,0,0,0,-1,1364,547,0,0
147,477,0,0,0,0,0,0,0,0,0,-1,1371,547,0,0
154,477,0,0,0,0,0,0,0,0,0,-1,1378,547,0,0
161,477,0,0,0,0,0,0,0,0,0,-1,1385,547,0,0
168,477,0,0,0,0,0,0,0,0,0,-1,1392,547,0,0
175,477,0,0,0,0,0,0,0,0,0,-1,1399,547,0,0
182,477,0,0,0,0,0,0,0,0,0,-1,1406,547,0,0
189,477,0,0,0,0,0,0,0,0,0,-1,1413,547,0,0
196,477,0,0,0,0,0,0,0,0,0,-1,1420,547,0,0
203,477,0,0,0,0,0,0,0,0,0,-1,1427,547,0,0
210,477,0,0,0,0,0,0,0,0,0,-1,1434,547,0,0
217,477,0,0,0,0,0,0,0,0,0,-1,1441,547,0,0
224,477,0,0,0,0,0,0,0,0,0,-1,1448,547,0,0
231,477,0,0,0,0,0,0,0,0,0,-1,1455,547,0,0
238,477,0,0,0,0,0,0,0,0,0,-1,1462,547,0,0
245,477,0,0,0,0,0,0,0,0,0,-1,1469,547,0,0
252,477,0,0,0,0,0,0,0,0,0,-1,1476,547,0,0
259,477,0,0,0,0,0,0,0,0,0,-1,1483,547,0,0
266,477,0,0,0,0,0,0,0,0,0,-1,1490,547,0,0
273,477,0,0,0,0,0,0,0,0,0,-1,1497,547,0,0
280,477,0,0,0,0,0,0,0,0,0,-1,1504,547,0,0
287,477,0,0,0,0,0,0,0,0,0,-1,1511,547,0,0
294,477,0,0,0,0,0,0,0,0,0,-1,1518,547,0,0
301,477,0,0,0,0,0,0,0,0,0,-1,1525,547,0,0
308,477,0,0,0,0,0,0,0,0,0,-1,1532,547,0,0
315,477,0,0,0,0,0,0,0,0,0,-1,1539,547,0,0
322,477,0,0,0,0,0,0,0,0,0,-1,1546,547,0,0
329,477,0,0,0,0,0,0,0,0,0,-1,1553,547,0,0
336,477,0,0,0,0,0,0,0,0,0,-1,1560,547,0,0
343,477,0,0,0,0,0,0,0,0,0,-1,1567,547,0,0
350,477,1.7699,-3.32275,0,0,0,0,0,0,0,-1,1574,547,1.7699,3.32272
357,477,3.073,-4.83313,0,0,0,0,0,0,0,-1,1581,547,3.07303,4.83316
364,477,4.30127,-4.22864,0,0,0,0,0,0,0,-1,1588,547,4.30125,4.22865
371,477,4.57703,0.283264,0,0,0,0,0,0,0,-1,1595,547,4.57706,-0.283262
378,477,8.57947,1.05969,0,0,0,0,0,0,0,-1,1602,547,8.5795,-1.05972
385,477,12.3726,2.02356,0,0,0,0,0,0,0,-1,1609,547,12.3725,-2.02355
392,477,16.4678,2.76843,0,0,0,0,0,0,0,-1,1616,547,16.4678,-2.76845
399,477,8.00037,-2.29523,0,0,0,0,0,0,0,-1,1623,547,8.00031,2.2952
406,477,4.82495,2.7475,0,0,0,0,0,0,0,-1,1630,547,4.825,-2.74752
413,477,4.88171,-0.336426,0,0,0,0,0,0,0,-1,1637,547,4.88169,0.336398
420,477,3.34875,0.102722,0,0,0,0,0,0,0,-1,1644,547,3.34871,-0.1027
427,477,1.66772,-0.373108,0,0,0,0,0,0,0,-1,1651,547,1.66768,0.373104
434,477,3.76978,-2.30798,0,0,0,0,0,0,0,-1,1658,547,3.76974,2.30801
441,477,4.05444,-2.80402,0,0,0,0,0,0,0,-1,1665,547,4.05444,2.804
448,477,5.81421,-5.30524,0,0,0,0,0,0,0,-1,1672,547,5.81422,5.30523
455,477,5.81226,-5.05389,-0.00328658,0.00313315,-0.00351001,0.00467969,-0.00483312,-1.15578,0.00549246,0.0492385,1679,547,5.81227,5.05387
462,477,5.7478,-4.93835,-0.00116339,0.00296935,-0.00160544,0.00351971,-0.00171376,-1.24054,0.00308093,0.0337326,1686,547,5.74781,4.93836
469,477,5.75818,-4.6521,0.000126087,0.00276332,-0.000572151,0.0028821,7.30774e-06,-1.3661,0.00191897,0.0214996,1693,547,5.75812,4.6521
476,477,5.72754,-4.46234,0.000880489,0.00239319,1.77711e-05,0.0023934,0.00088028,1.55905,0.00139784,0.0173452,1700,547,5.72748,4.46232
483,477,5.73657,-4.2439,0.00126202,0.00198675,0.000379917,0.00214941,0.00109936,1.16628,0.00124107,0.0111946,1707,547,5.73657,4.24389
490,477,5.72705,-4.01343,0.00151678,0.00170875,0.000663118,0.00228279,0.000942738,0.85727,0.00132461,0.0110844,1714,547,5.72704,4.01345
497,477,5.7074,-3.79102,0.00141487,0.00141351,0.000663401,0.0020776,0.000750793,0.784885,0.00121477,0.0129088,1721,547,5.7074,3.791
504,477,5.70923,-3.60242,0.00111399,0.0014718,0.000577412,0.00189739,0.000688403,0.935627,0.00110912,0.0174696,1728,547,5.70929,3.60242
511,477,5.75037,-3.44354,0.000886905,0.00171427,0.000610678,0.0020382,0.000562984,1.0831,0.0012154,0.0219682,1735,547,5.75036,3.44356
518,477,5.74536,-3.20624,0.000726335,0.00232555,0.000745443,0.00261913,0.000432756,1.19562,0.0016212,0.019617,1742,547,5.7453,3.20626
525,477,5.72461,-2.9361,0.000579003,0.00313353,0.00081008,0.00336876,0.000343774,1.28819,0.00214047,0.0167969,1749,547,5.7246,2.93607
532,477,5.73743,-2.74622,0.000686667,0.00430324,0.0010803,0.00460135,0.000388547,1.30154,0.00294661,0.0188146,1756,547,5.73739,2.74619
539,477,5.70313,-2.4541,0.00120833,0.00577091,0.00159825,0.00627506,0.000704174,1.26524,0.00396952,0.0167463,1763,547,5.70313,2.45412
546,477,5.68152,-2.23798,0.00227382,0.00752427,0.00245942,0.00849635,0.00130174,1.1944,0.00528404,0.0188691,1770,547,5.68154,2.23796
553,477,5.6969,-2.02228,0.00384243,0.00949671,0.00356309,0.011218,0.00212113,1.12077,0.00688148,0.0185478,1777,547,5.69687,2.02231
560,477,5.7113,-1.73785,0.0128309,0.0133022,0.00790178,0.0209719,0.00516127,0.800307,0.0126177,0.0344311,1784,547,5.71129,1.73784
567,477,6.26477,-1.302,0.0228737,0.0171884,0.012779,0.0331224,0.00693972,0.675955,0.0201703,0.0498734,1791,547,6.2648,1.30203
574,477,6.57092,-0.905701,0,0,0,0,0,0,0,-1,1798,547,6.57095,0.90571
581,477,9.29321,-0.557007,0,0,0,0,0,0,0,-1,1805,547,9.29324,0.55703
588,477,9.75195,0.422729,0,0,0,0,0,0,0,-1,1812,547,9.75198,-0.42273
595,477,9.89172,1.21326,0,0,0,0,0,0,0,-1,1819,547,9.89174,-1.21328
602,477,6.5271,-0.964417,0,0,0,0,0,0,0,-1,1826,547,6.52706,0.964427
609,477,0,0,0,0,0,0,0,0,0,-1,1833,547,0,0
616,477,0,0,0,0,0,0,0,0,0,-1,1840,547,0,0
623,477,0,0,0,0,0,0,0,0,0,-1,1847,547,0,0
630,477,0,0,0,0,0,0,0,0,0,-1,1854,547,0,0
637,477,0,0,0,0,0,0,0,0,0,-1,1861,547,0,0
644,477,0,0,0,0,0,0,0,0,0,-1,1868,547,0,0
651,477,0,0,0,0,0,0,0,0,0,-1,1875,547,0,0
658,477,0,0,0,0,0,0,0,0,0,-1,1882,547,0,0
665,477,0,0,0,0,0,0,0,0,0,-1,1889,547,0,0
672,477,0,0,0,0,0,0,0,0,0,-1,1896,547,0,0
679,477,0,0,0,0,0,0,0,0,0,-1,1903,547,0,0
686,477,0,0,0,0,0,0,0,0,0,-1,1910,547,0,0
693,477,0,0,0,0,0,0,0,0,0,-1,1917,547,0,0
700,477,0,0,0,0,0,0,0,0,0,-1,1924,547,0,0
707,477,0,0,0,0,0,0,0,0,0,-1,1931,547,0,0
714,477,0,0,0,0,0,0,0,0,0,-1,1938,547,0,0
721,477,0,0,0,0,0,0,0,0,0,-1,1945,547,0,0
728,477,0,0,0,0,0,0,0,0,0,-1,1952,547,0,0
735,477,0,0,0,0,0,0,0,0,0,-1,1959,547,0,0
742,477,0,0,0,0,0,0,0,0,0,-1,1966,547,0,0
749,477,0,0,0,0,0,0,0,0,0,-1,1973,547,0,0
756,477,0,0,0,0,0,0,0,0,0,-1,1980,547,0,0
763,477,0,0,0,0,0,0,0,0,0,-1,1987,547,0,0
770,477,0,0,0,0,0,0,0,0,0,-1,1994,547,0,0
777,477,0,0,0,0,0,0,0,0,0,-1,2001,547,0,0
784,477,0,0,0,0,0,0,0,0,0,-1,2008,547,0,0
791,477,0,0,0,0,0,0,0,0,0,-1,2015,547,0,0
798,477,0,0,0,0,0,0,0,0,0,-1,2022,547,0,0
805,477,0,0,0,0,0,0,0,0,0,-1,2029,547,0,0
812,477,0,0,0,0,0,0,0,0,0,-1,2036,547,0,0
-700,470,0,0,0,0,0,0,0,0,0,-1,524,554,0,0
-693,470,0,0,0,0,0,0,0,0,0,-1,531,554,0,0
-686,470,0,0,0,0,0,0,0,0,0,-1,538,554,0,0
-679,470,0,0,0,0,0,0,0,0,0,-1,545,554,0,0
-672,470,0,0,0,0,0,0,0,0,0,-1,552,554,0,0
-665,470,0,0,0,0,0,0,0,0,0,-1,559,554,0,0
-658,470,0,0,0,0,0,0,0,0,0,-1,566,554,0,0
-651,470,0,0,0,0,0,0,0,0,0,-1,573,554,0,0
-644,470,0,0,0,0,0,0,0,0,0,-1,580,554,0,0
-637,470,0,0,0,0,0,0,0,0,0,-1,587,554,0,0
-630,470,0,0,0,0,0,0,0,0,0,-1,594,554,0,0
-623,470,0,0,0,0,0,0,0,0,0,-1,601,554,0,0
-616,470,0,0,0,0,0,0,0,0,0,-1,608,554,0,0
-609,470,0,0,0,0,0,0,0,0,0,-1,615,554,0,0
-602,470,0,0,0,0,0,0,0,0,0,-1,622,554,0,0
-595,470,0,0,0,0,0,0,0,0,0,-1,629,554,0,0
-588,470,0,0,0,0,0,0,0,0,0,-1,636,554,0,0
-581,470,0,0,0,0,0,0,0,0,0,-1,643,554,0,0
-574,470,0,0,0,0,0,0,0,0,0,-1,650,554,0,0
-567,470,0,0,0,0,0,0,0,0,0,-1,657,554,0,0
-560,470,0,0,0,0,0,0,0,0,0,-1,664,554,0,0
-553,470,0,0,0,0,0,0,0,0,0,-1,671,554,0,0
-546,470,0,0,0,0,0,0,0,0,0,-1,678,554,0,0
-539,470,0,0,0,0,0,0,0,0,0,-1,685,554,0,0
-532,470,0,0,0,0,0,0,0,0,0,-1,692,554,0,0
-525,470,0,0,0,0,0,0,0,0,0,-1,699,554,0,0
-518,470,0,0,0,0,0,0,0,0,0,-1,706,554,0,0
-511,470,0,0,0,0,0,0,0,0,0,-1,713,554,0,0
-504,470,0,0,0,0,0,0,0,0,0,-1,720,554,0,0
-497,470,0,0,0,0,0,0,0,0,0,-1,727,554,0,0
-490,470,-4.36005,2.89722,0,0,0,0,0,0,0,-1,734,554,-4.36007,-2.8972
-483,470,-4.34045,1.8327,0,0,0,0,0,0,0,-1,741,554,-4.34045,-1.83271
-476,470,-4.24176,0.641296,0,0,0,0,0,0,0,-1,748,554,-4.24175,-0.641299
-469,470,-9.53339,-2.1098,0,0,0,0,0,0,0,-1,755,554,-9.53339,2.1098
-462,470,-8.6355,-1.16931,0,0,0,0,0,0,0,-1,762,554,-8.63548,1.16933
-455,470,-5.36963,-3.09192,0,0,0,0,0,0,0,-1,769,554,-5.36963,3.0919
-448,470,-1.18188,-2.71991,0,0,0,0,0,0,0,-1,776,554,-1.18189,2.7199
-441,470,-0.989136,-3.1059,0,0,0,0,0,0,0,-1,783,554,-0.98913,3.1059
-434,470,-1.28271,-3.42542,0.00840018,0.00777997,0.0142487,0.0223421,-0.00616198,0.774518,0.0173181,0.0249875,790,554,-1.28273,3.42543
-427,470,-1.35114,-3.60522,0.00629684,0.00883228,0.00918444,0.0168361,-0.00170696,0.85398,0.0118341,0.0122078,797,554,-1.35112,3.60523
-420,470,-1.35065,-3.81146,0.0044916,0.00902809,0.0056921,0.0128872,0.000632453,0.975,0.00838862,0.0127166,804,554,-1.35066,3.81149
-413,470,-1.36987,-4.0155,0.00326856,0.00847739,0.00323763,0.0100281,0.00171783,1.12411,0.00619274,0.0130534,811,554,-1.3699,4.0155
-406,470,-1.38641,-4.20007,0.00246568,0.00746571,0.00118678,0.0077331,0.00219829,1.34919,0.00460114,0.00938221,818,554,-1.3864,4.20004
-399,470,-1.36359,-4.41351,0.00226322,0.00584041,6.88641e-05,0.00584173,0.00226189,1.55155,0.00340122,0.0119964,825,554,-1.36358,4.41353
-392,470,-1.37164,-4.60919,0.00203637,0.00377924,-0.000439955,0.003884,0.00193161,-1.33703,0.00224244,0.013665,832,554,-1.37163,4.60918
-385,470,-1.35236,-4.78162,0.00175622,0.00181086,-0.000693211,0.00247729,0.00108979,-0.805091,0.0014337,0.0111291,839,554,-1.35237,4.7816
-378,470,-1.33612,-5.01086,0.0016415,-0.000499499,-0.000463917,0.0017377,-0.000595699,-0.204467,0.00139994,0.0155328,846,554,-1.33612,5.01089
-371,470,-1.34985,-5.19189,0.00134241,-0.00284712,0.000104555,0.00134502,-0.00284973,0.0249355,0.00247323,0.013152,853,554,-1.34986,5.1919
-364,470,-1.35382,-5.36383,0.00122783,-0.00493841,0.000355433,0.00124825,-0.00495883,0.0573884,0.0037911,0.0127057,860,554,-1.35382,5.36384
-357,470,-1.36511,-5.55585,0.00117099,-0.00665308,0.000326374,0.00118458,-0.00666667,0.0416177,0.0048874,0.0125581,867,554,-1.36511,5.55584
-350,470,-1.37158,-5.76074,0.00107472,-0.00819052,0.00023694,0.00108078,-0.00819657,0.0255507,0.00585797,0.00970754,874,554,-1.37157,5.76074
-343,470,-1.29749,-5.95966,0.00105552,-0.00943941,0.000268399,0.00106238,-0.00944627,0.0255518,0.00667986,0.019622,881,554,-1.29746,5.95968
-336,470,-1.35504,-6.10071,0.000970452,-0.0106575,0.000224251,0.000974775,-0.0106619,0.0192759,0.00745411,0.0301214,888,554,-1.35502,6.10071
-329,470,-1.27173,-6.34528,0,0,0,0,0,0,0,-1,895,554,-1.27173,6.34528
-322,470,-1.52979,-6.97113,0,0,0,0,0,0,0,-1,902,554,-1.52977,6.97114
-315,470,-1.38586,-7.2218,0,0,0,0,0,0,0,-1,909,554,-1.38584,7.22178
-308,470,-1.39368,-6.68152,0,0,0,0,0,0,0,-1,916,554,-1.39369,6.68149
-301,470,-0.0340576,3.34888,0,0,0,0,0,0,0,-1,923,554,-0.0340496,-3.3489
-294,470,-1.18378,3.22266,0,0,0,0,0,0,0,-1,930,554,-1.18376,-3.22268
-287,470,-2.15454,3.2204,0,0,0,0,0,0,0,-1,937,554,-2.15452,-3.22037
-280,470,-3.00537,3.099,0,0,0,0,0,0,0,-1,944,554,-3.00536,-3.09898
-273,470,1.05981,-2.39728,0,0,0,0,0,0,0,-1,951,554,1.05983,2.39727
-266,470,-3.55084,-1.16742,0,0,0,0,0,0,0,-1,958,554,-3.55086,1.16744
-259,470,-2.06311,-2.73199,0,0,0,0,0,0,0,-1,965,554,-2.0631,2.732
-252,470,-0.369019,-4.24976,0,0,0,0,0,0,0,-1,972,554,-0.36901,4.24977
-245,470,1.01324,-5.88599,0,0,0,0,0,0,0,-1,979,554,1.01325,5.88597
-238,470,0,0,0,0,0,0,0,0,0,-1,986,554,0,0
-231,470,0,0,0,0,0,0,0,0,0,-1,993,554,0,0
-224,470,0,0,0,0,0,0,0,0,0,-1,1000,554,0,0
-217,470,0,0,0,0,0,0,0,0,0,-1,1007,554,0,0
-210,470,0,0,0,0,0,0,0,0,0,-1,1014,554,0,0
-203,470,0,0,0,0,0,0,0,0,0,-1,1021,554,0,0
-196,470,0,0,0,0,0,0,0,0,0,-1,1028,554,0,0
-189,470,0,0,0,0,0,0,0,0,0,-1,1035,554,0,0
-182,470,0,0,0,0,0,0,0,0,0,-1,1042,554,0,0
-175,470,0,0,0,0,0,0,0,0,0,-1,1049,554,0,0
-168,470,0,0,0,0,0,0,0,0,0,-1,1056,554,0,0
-161,470,0,0,0,0,0,0,0,0,0,-1,1063,554,0,0
-154,470,0,0,0,0,0,0,0,0,0,-1,1070,554,0,0
-147,470,0,0,0,0,0,0,0,0,0,-1,1077,554,0,0
-140,470,0,0,0,0,0,0,0,0,0,-1,1084,554,0,0
-133,470,0,0,0,0,0,0,0,0,0,-1,1091,554,0,0
-126,470,0,0,0,0,0,0,0,0,0,-1,1098,554,0,0
-119,470,0,0,0,0,0,0,0,0,0,-1,1105,554,0,0
-112,470,0,0,0,0,0,0,0,0,0,-1,1112,554,0,0
-105,470,0,0,0,0,0,0,0,0,0,-1,1119,554,0,0
-98,470,0,0,0,0,0,0,0,0,0,-1,1126,554,0,0
-91,470,0,0,0,0,0,0,0,0,0,-1,1133,554,0,0
-84,470,0,0,0,0,0,0,0,0,0,-1,1140,554,0,0
-77,470,0,0,0,0,0,0,0,0,0,-1,1147,554,0,0
-70,470,0,0,0,0,0,0,0,0,0,-1,1154,554,0,0
-63,470,0,0,0,0,0,0,0,0,0,-1,1161,554,0,0
-56,470,0,0,0,0,0,0,0,0,0,-1,1168,554,0,0
-49,470,0,0,0,0,0,0,0,0,0,-1,1175,554,0,0
-42,470,0,0,0,0,0,0,0,0,0,-1,1182,554,0,0
-35,470,0,0,0,0,0,0,0,0,0,-1,1189,554,0,0
-28,470,0,0,0,0,0,0,0,0,0,-1,1196,554,0,0
-21,470,0,0,0,0,0,0,0,0,0,-1,1203,554,0,0
-14,470,0,0,0,0,0,0,0,0,0,-1,1210,554,0,0
-7,470,0,0,0,0,0,0,0,0,0,-1,1217,554,0,0
0,470,0,0,0,0,0,0,0,0,0,-1,1224,554,0,0
7,470,0,0,0,0,0,0,0,0,0,-1,1231,554,0,0
14,470,0,0,0,0,0,0,0,0,0,-1,1238,554,0,0
21,470,0,0,0,0,0,0,0,0,0,-1,1245,554,0,0
28,470,0,0,0,0,0,0,0,0,0,-1,1252,554,0,0
35,470,0,0,0,0,0,0,0,0,0,-1,1259,554,0,0
42,470,0,0,0,0,0,0,0,0,0,-1,1266,554,0,0
49,470,0,0,0,0,0,0,0,0,0,-1,1273,554,0,0
56,470,0,0,0,0,0,0,0,0,0,-1,1280,554,0,0
63,470,0,0,0,0,0,0,0,0,0,-1,1287,554,0,0
70,470,0,0,0,0,0,0,0,0,0,-1,1294,554,0,0
77,470,0,0,0,0,0,0,0,0,0,-1,1301,554,0,0
84,470,0,0,0,0,0,0,0,0,0,-1,1308,554,0,0
91,470,0,0,0,0,0,0,0,0,0,-1,1315,554,0,0
98,470,0,0,0,0,0,0,0,0,0,-1,1322,554,0,0
105,470,0,0,0,0,0,0,0,0,0,-1,1329,554,0,0
112,470,0,0,0,0,0,0,0,0,0,-1,1336,554,0,0
119,470,0,0,0,0,0,0,0,0,0,-1,1343,554,0,0
126,470,0,0,0,0,0,0,0,0,0,-1,1350,554,0,0
133,470,0,0,0,0,0,0,0,0,0,-1,1357,554,0,0
140,470,0,0,0,0,0,0,0,0,0,-1,1364,554,0,0
147,470,0,0,0,0,0,0,0,0,0,-1,1371,554,0,0
154,470,0,0,0,0,0,0,0,0,0,-1,1378,554,0,0
161,470,0,0,0,0,0,0,0,0,0,-1,1385,554,0,0
168,470,0,0,0,0,0,0,0,0,0,-1,1392,554,0,0
175,470,0,0,0,0,0,0,0,0,0,-1,1399,554,0,0
182,470,0,0,0,0,0,0,0,0,0,-1,1406,554,0,0
189,470,0,0,0,0,0,0,0,0,0,-1,1413,554,0,0
196,470,0,0,0,0,0,0,0,0,0,-1,1420,554,0,0
203,470,0,0,0,0,0,0,0,0,0,-1,1427,554,0,0
210,470,0,0,0,0,0,0,0,0,0,-1,1434,554,0,0
217,470,0,0,0,0,0,0,0,0,0,-1,1441,554,0,0
224,470,0,0,0,0,0,0,0,0,0,-1,1448,554,0,0
231,470,0,0,0,0,0,0,0,0,0,-1,1455,554,0,0
238,470,0,0,0,0,0,0,0,0,0,-1,1462,554,0,0
245,470,0,0,0,0,0,0,0,0,0,-1,1469,554,0,0
252,470,0,0,0,0,0,0,0,0,0,-1,1476,554,0,0
259,470,0,0,0,0,0,0,0,0,0,-1,1483,554,0,0
266,470,0,0,0,0,0,0,0,0,0,-1,1490,554,0,0
273,470,0,0,0,0,0,0,0,0,0,-1,1497,554,0,0
280,470,0,0,0,0,0,0,0,0,0,-1,1504,554,0,0
287,470,0,0,0,0,0,0,0,0,0,-1,1511,554,0,0
294,470,0,0,0,0,0,0,0,0,0,-1,1518,554,0,0
301,470,0,0,0,0,0,0,0,0,0,-1,1525,554,0,0
308,470,0,0,0,0,0,0,0,0,0,-1,1532,554,0,0
315,470,0,0,0,0,0,0,0,0,0,-1,1539,554,0,0
322,470,0,0,0,0,0,0,0,0,0,-1,1546,554,0,0
329,470,0,0,0,0,0,0,0,0,0,-1,1553,554,0,0
336,470,0,0,0,0,0,0,0,0,0,-1,1560,554,0,0
343,470,0,0,0,0,0,0,0,0,0,-1,1567,554,0,0
350,470,0,0,0,0,0,0,0,0,0,-1,1574,554,0,0
357,470,0,0,0,0,0,0,0,0,0,-1,1581,554,0,0
364,470,1.33423,0.293335,0,0,0,0,0,0,0,-1,1588,554,1.33422,-0.293348
371,470,2.22498,-0.0305176,0,0,0,0,0,0,0,-1,1595,554,2.22494,0.0305046
378,470,6.27051,0.710083,0,0,0,0,0,0,0,-1,1602,554,6.27054,-0.710093
385,470,10.3657,1.47296,0,0,0,0,0,0,0,-1,1609,554,10.3657,-1.47299
392,470,14.4915,2.24756,0,0,0,0,0,0,0,-1,1616,554,14.4915,-2.24757
399,470,18.4479,2.93793,0,0,0,0,0,0,0,-1,1623,554,18.4479,-2.93792
406,470,15.1896,1.36676,0,0,0,0,0,0,0,-1,1630,554,15.1896,-1.36679
413,470,6.55383,1.99207,0,0,0,0,0,0,0,-1,1637,554,6.5538,-1.99208
420,470,4.47095,0.845703,0,0,0,0,0,0,0,-1,1644,554,4.47098,-0.845718
427,470,3.51038,1.19684,0,0,0,0,0,0,0,-1,1651,554,3.51039,-1.19684
434,470,3.31775,-1.37427,0,0,0,0,0,0,0,-1,1658,554,3.31781,1.37426
441,470,2.55457,-2.05902,0,0,0,0,0,0,0,-1,1665,554,2.55461,2.05904
448,470,3.27258,-2.64032,0,0,0,0,0,0,0,-1,1672,554,3.27257,2.64029
455,470,6.18335,-5.14209,0,0,0,0,0,0,0,-1,1679,554,6.18337,5.14209
462,470,5.99084,-4.97565,0,0,0,0,0,0,0,-1,1686,554,5.99079,4.97563
469,470,5.86572,-4.76923,0,0,0,0,0,0,0,-1,1693,554,5.86568,4.76923
476,470,5.90039,-4.47955,0.00164304,0.0031354,0.000443545,0.00325727,0.00152117,1.30264,0.00188195,0.0289017,1700,554,5.9004,4.47957
483,470,5.94043,-4.23651,0.00214254,0.00248483,0.000852032,0.00318274,0.00144464,0.884512,0.00184016,0.0136658,1707,554,5.94048,4.23648
490,470,5.93457,-4.00177,0.00248391,0.00208563,0.0011434,0.00344538,0.00112416,0.69918,0.00202882,0.0111463,1714,554,5.93454,4.00175
497,470,5.94324,-3.784,0.00239245,0.00161229,0.00110139,0.0031708,0.000833938,0.615206,0.00189797,0.0116458,1721,554,5.94322,3.784
504,470,5.95251,-3.6394,0.00203677,0.00130539,0.000968518,0.00270634,0.000635822,0.604884,0.00163405,0.017854,1728,554,5.95248,3.6394
511,470,5.9646,-3.50726,0.00165403,0.00133765,0.000902309,0.00241191,0.000579773,0.698622,0.00145375,0.0256693,1735,554,5.96458,3.50726
518,470,6.01819,-3.23975,0.00133352,0.00167787,0.000903522,0.00242548,0.000585913,0.879551,0.00146137,0.0250025,1742,554,6.01817,3.23976
525,470,5.9751,-2.93408,0.00107894,0.00223616,0.000883155,0.00271337,0.000601734,1.0754,0.00164543,0.0152093,1749,554,5.97511,2.93406
532,470,5.95898,-2.67773,0.00104731,0.00307948,0.00102737,0.00350836,0.000618437,1.17534,0.00216244,0.0134105,1756,554,5.95896,2.67772
539,470,5.94604,-2.47192,0.0013622,0.00410892,0.00135596,0.00466552,0.000805604,1.18128,0.00287962,0.0152743,1763,554,5.94604,2.47194
546,470,5.93408,-2.26111,0.00215084,0.00536258,0.00199065,0.00631435,0.00119908,1.12481,0.00387226,0.0141688,1770,554,5.93406,2.26114
553,470,5.94653,-2.03882,0.00329791,0.00670966,0.00277675,0.00826268,0.0017449,1.06085,0.00502876,0.0116572,1777,554,5.94659,2.03882
560,470,5.95276,-1.78357,0.0109467,0.00967009,0.00638746,0.0167277,0.00388913,0.735597,0.010108,0.0149802,1784,554,5.95272,1.78356
567,470,5.94592,-1.57678,0.019117,0.0124984,0.0102334,0.0265629,0.00505247,0.629014,0.0162878,0.0198798,1791,554,5.9459,1.57675
574,470,6.09326,-1.30219,0,0,0,0,0,0,0,-1,1798,554,6.09328,1.30219
581,470,8.24646,-4.06317,0,0,0,0,0,0,0,-1,1805,554,8.24648,4.06318
588,470,8.83704,-2.04022,0,0,0,0,0,0,0,-1,1812,554,8.83707,2.04021
595,470,4.72192,3.44116,0,0,0,0,0,0,0,-1,1819,554,4.72191,-3.44116
602,470,14.4307,2.76141,0,0,0,0,0,0,0,-1,1826,554,14.4306,-2.76139
609,470,20.9181,4.41058,0,0,0,0,0,0,0,-1,1833,554,20.9181,-4.4106
616,470,0,0,0,0,0,0,0,0,0,-1,1840,554,0,0
623,470,0,0,0,0,0,0,0,0,0,-1,1847,554,0,0
630,470,0,0,0,0,0,0,0,0,0,-1,1854,554,0,0
637,470,0,0,0,0,0,0,0,0,0,-1,1861,554,0,0
644,470,0,0,0,0,0,0,0,0,0,-1,1868,554,0,0
651,470,0,0,0,0,0,0,0,0,0,-1,1875,554,0,0
658,470,0,0,0,0,0,0,0,0,0,-1,1882,554,0,0
665,470,0,0,0,0,0,0,0,0,0,-1,1889,554,0,0
672,470,0,0,0,0,0,0,0,0,0,-1,1896,554,0,0
679,470,0,0,0,0,0,0,0,0,0,-1,1903,554,0,0
686,470,0,0,0,0,0,0,0,0,0,-1,1910,554,0,0
693,470,0,0,0,0,0,0,0,0,0,-1,1917,554,0,0
700,470,0,0,0,0,0,0,0,0,0,-1,1924,554,0,0
707,470,0,0,0,0,0,0,0,0,0,-1,1931,554,0,0
714,470,0,0,0,0,0,0,0,0,0,-1,1938,554,0,0
721,470,0,0,0,0,0,0,0,0,0,-1,1945,554,0,0
728,470,0,0,0,0,0,0,0,0,0,-1,1952,554,0,0
735,470,0,0,0,0,0,0,0,0,0,-1,1959,554,0,0
742,470,0,0,0,0,0,0,0,0,0,-1,1966,554,0,0
749,470,0,0,0,0,0,0,0,0,0,-1,1973,554,0,0
756,470,0,0,0,0,0,0,0,0,0,-1,1980,554,0,0
763,470,0,0,0,0,0,0,0,0,0,-1,1987,554,0,0
770,470,0,0,0,0,0,0,0,0,0,-1,1994,554,0,0
777,470,0,0,0,0,0,0,0,0,0,-1,2001,554,0,0
784,470,0,0,0,0,0,0,0,0,0,-1,2008,554,0,0
791,470,0,0,0,0,0,0,0,0,0,-1,2015,554,0,0
798,470,0,0,0,0,0,0,0,0,0,-1,2022,554,0,0
805,470,0,0,0,0,0,0,0,0,0,-1,2029,554,0,0
812,470,0,0,0,0,0,0,0,0,0,-1,2036,554,0,0
-700,463,0,0,0,0,0,0,0,0,0,-1,524,561,0,0
-693,463,0,0,0,0,0,0,0,0,0,-1,531,561,0,0
-686,463,0,0,0,0,0,0,0,0,0,-1,538,561,0,0
-679,463,0,0,0,0,0,0,0,0,0,-1,545,561,0,0
-672,463,0,0,0,0,0,0,0,0,0,-1,552,561,0,0
-665,463,0,0,0,0,0,0,0,0,0,-1,559,561,0,0
-658,463,0,0,0,0,0,0,0,0,0,-1,566,561,0,0
-651,463,0,0,0,0,0,0,0,0,0,-1,573,561,0,0
-644,463,0,0,0,0,0,0,0,0,0,-1,580,561,0,0
-637,463,0,0,0,0,0,0,0,0,0,-1,587,561,0,0
-630,463,0,0,0,0,0,0,0,0,0,-1,594,561,0,0
-623,463,0,0,0,0,0,0,0,0,0,-1,601,561,0,0
-616,463,0,0,0,0,0,0,0,0,0,-1,608,561,0,0
-609,463,0,0,0,0,0,0,0,0,0,-1,615,561,0,0
-602,463,0,0,0,0,0,0,0,0,0,-1,622,561,0,0
-595,463,0,0,0,0,0,0,0,0,0,-1,629,561,0,0
-588,463,0,0,0,0,0,0,0,0,0,-1,636,561,0,0
-581,463,0,0,0,0,0,0,0,0,0,-1,643,561,0,0
-574,463,0,0,0,0,0,0,0,0,0,-1,650,561,0,0
-567,463,0,0,0,0,0,0,0,0,0,-1,657,561,0,0
-560,463,0,0,0,0,0,0,0,0,0,-1,664,561,0,0
-553,463,0,0,0,0,0,0,0,0,0,-1,671,561,0,0
-546,463,0,0,0,0,0,0,0,0,0,-1,678,561,0,0
-539,463,0,0,0,0,0,0,0,0,0,-1,685,561,0,0
-532,463,0,0,0,0,0,0,0,0,0,-1,692,561,0,0
-525,463,0,0,0,0,0,0,0,0,0,-1,699,561,0,0
-518,463,0,0,0,0,0,0,0,0,0,-1,706,561,0,0
-511,463,0,0,0,0,0,0,0,0,0,-1,713,561,0,0
-504,463,0,0,0,0,0,0,0,0,0,-1,720,561,0,0
-497,463,-3.89935,2.79175,0,0,0,0,0,0,0,-1,727,561,-3.89933,-2.79177
-490,463,-3.61798,1.99011,0,0,0,0,0,0,0,-1,734,561,-3.61801,-1.9901
-483,463,-3.70703,1.14771,0,0,0,0,0,0,0,-1,741,561,-3.70705,-1.14769
-476,463,-3.57037,-0.149292,0,0,0,0,0,0,0,-1,748,561,-3.57037,0.149293
-469,463,-3.07709,-1.4928,0,0,0,0,0,0,0,-1,755,561,-3.07709,1.49279
-462,463,-1.36017,-1.14777,0,0,0,0,0,0,0,-1,762,561,-1.36016,1.14774
-455,463,-1.25275,-2.50958,0,0,0,0,0,0,0,-1,769,561,-1.25273,2.50956
-448,463,-1.35419,-2.80804,0.0153603,0.00278023,0.0188377,0.0289304,-0.0107899,0.624265,0.0237163,0.045105,776,561,-1.35416,2.80804
-441,463,-1.35907,-3.13269,0.011557,0.00465093,0.0133017,0.0218466,-0.00563864,0.658404,0.0167631,0.0321134,783,561,-1.35909,3.13266
-434,463,-1.52338,-3.38525,0.00881682,0.00579248,0.00885124,0.0162841,-0.00167483,0.700794,0.0114552,0.0132696,790,561,-1.52338,3.38526
-427,463,-1.54803,-3.59698,0.00668805,0.00612745,0.00553212,0.011947,0.000868531,0.760086,0.0076915,0.00983905,797,561,-1.54804,3.597
-420,463,-1.5332,-3.80695,0.00470103,0.00595756,0.00342122,0.00880772,0.00185086,0.876205,0.00536241,0.0103423,804,561,-1.5332,3.80693
-413,463,-1.55969,-4.0105,0.00328174,0.00529689,0.00197813,0.00650928,0.00206936,1.02095,0.00384031,0.00904073,811,561,-1.55968,4.01047
-406,463,-1.58838,-4.20026,0.00235239,0.00434528,0.000710301,0.00457253,0.00212514,1.26115,0.00264214,0.00800352,818,561,-1.58836,4.20025
-399,463,-1.57355,-4.39276,0.00197673,0.00291478,0.000169606,0.00294451,0.001947,1.39731,0.00172922,0.0090906,825,561,-1.57355,4.39278
-392,463,-1.56586,-4.60333,0.00161393,0.00106869,7.97216e-05,0.00162535,0.00105727,0.142247,0.000952457,0.0095373,832,561,-1.56585,4.6033
-385,463,-1.56445,-4.80988,0.00126332,-0.000762517,0.000128979,0.0012715,-0.000770695,0.063326,0.00119082,0.0104797,839,561,-1.56442,4.80985
-378,463,-1.55908,-5.01819,0.00108323,-0.00281727,0.000502239,0.00114686,-0.0028809,0.126024,0.00239619,0.0110107,846,561,-1.55905,5.01817
-371,463,-1.55286,-5.22162,0.000824694,-0.0049176,0.000999593,0.000993723,-0.00508663,0.167513,0.00376628,0.0110247,853,561,-1.55289,5.22162
-364,463,-1.53076,-5.36584,0.000779844,-0.00697587,0.00118218,0.000956036,-0.00715206,0.147952,0.00511658,0.0125517,860,561,-1.53074,5.36583
-357,463,-1.54236,-5.53894,0.000881569,-0.00897321,0.00110329,0.00100358,-0.00909522,0.110138,0.00642419,0.0153602,867,561,-1.54237,5.53894
-350,463,-1.52069,-5.79767,0.000905249,-0.0112231,0.000937089,0.000977225,-0.011295,0.0766582,0.007876,0.0169076,874,561,-1.5207,5.79769
-343,463,-1.46564,-5.97235,0.000969089,-0.0134123,0.00084937,0.00101908,-0.0134623,0.0587881,0.0093331,0.028772,881,561,-1.46566,5.97237
-336,463,-1.52692,-6.25763,0.000893574,-0.0156505,0.000723946,0.000925193,-0.0156821,0.0436474,0.0107764,0.0379672,888,561,-1.52693,6.25763
-329,463,-1.42163,-6.55542,0,0,0,0,0,0,0,-1,895,561,-1.4216,6.55543
-322,463,-1.63849,-7.22174,0,0,0,0,0,0,0,-1,902,561,-1.63848,7.22173
-315,463,-0.944763,-5.96234,0,0,0,0,0,0,0,-1,909,561,-0.94479,5.96237
-308,463,-1.1535,-3.17889,0,0,0,0,0,0,0,-1,916,561,-1.15352,3.17889
-301,463,-1.50366,-3.15338,0,0,0,0,0,0,0,-1,923,561,-1.50364,3.15341
-294,463,-2.35889,-3.93463,0,0,0,0,0,0,0,-1,930,561,-2.35886,3.93465
-287,463,-2.80322,2.73999,0,0,0,0,0,0,0,-1,937,561,-2.80322,-2.74
-280,463,-3.29858,2.24219,0,0,0,0,0,0,0,-1,944,561,-3.29859,-2.24221
-273,463,-5.54578,0.486755,0,0,0,0,0,0,0,-1,951,561,-5.54576,-0.486736
-266,463,-3.96259,-0.93335,0,0,0,0,0,0,0,-1,958,561,-3.96258,0.933349
-259,463,-2.54156,-2.28058,0,0,0,0,0,0,0,-1,965,561,-2.54159,2.28059
-252,463,0,0,0,0,0,0,0,0,0,-1,972,561,0,0
-245,463,0,0,0,0,0,0,0,0,0,-1,979,561,0,0
-238,463,0,0,0,0,0,0,0,0,0,-1,986,561,0,0
-231,463,0,0,0,0,0,0,0,0,0,-1,993,561,0,0
-224,463,0,0,0,0,0,0,0,0,0,-1,1000,561,0,0
-217,463,0,0,0,0,0,0,0,0,0,-1,1007,561,0,0
-210,463,0,0,0,0,0,0,0,0,0,-1,1014,561,0,0
-203,463,0,0,0,0,0,0,0,0,0,-1,1021,561,0,0
-196,463,0,0,0,0,0,0,0,0,0,-1,1028,561,0,0
-189,463,0,0,0,0,0,0,0,0,0,-1,1035,561,0,0
-182,463,0,0,0,0,0,0,0,0,0,-1,1042,561,0,0
-175,463,0,0,0,0,0,0,0,0,0,-1,1049,561,0,0
-168,463,0,0,0,0,0,0,0,0,0,-1,1056,561,0,0
-161,463,0,0,0,0,0,0,0,0,0,-1,1063,561,0,0
-154,463,0,0,0,0,0,0,0,0,0,-1,1070,561,0,0
-147,463,0,0,0,0,0,0,0,0,0,-1,1077,561,0,0
-140,463,0,0,0,0,0,0,0,0,0,-1,1084,561,0,0
-133,463,0,0,0,0,0,0,0,0,0,-1,1091,561,0,0
-126,463,0,0,0,0,0,0,0,0,0,-1,1098,561,0,0
-119,463,0,0,0,0,0,0,0,0,0,-1,1105,561,0,0
-112,463,0,0,0,0,0,0,0,0,0,-1,1112,561,0,0
-105,463,0,0,0,0,0,0,0,0,0,-1,1119,561,0,0
-98,463,0,0,0,0,0,0,0,0,0,-1,1126,561,0,0
-91,463,0,0,0,0,0,0,0,0,0,-1,1133,561,0,0
-84,463,0,0,0,0,0,0,0,0,0,-1,1140,561,0,0
-77,463,0,0,0,0,0,0,0,0,0,-1,1147,561,0,0
-70,463,0,0,0,0,0,0,0,0,0,-1,1154,561,0,0
-63,463,0,0,0,0,0,0,0,0,0,-1,1161,561,0,0
-56,463,0,0,0,0,0,0,0,0,0,-1,1168,561,0,0
-49,463,0,0,0,0,0,0,0,0,0,-1,1175,561,0,0
-42,463,0,0,0,0,0,0,0,0,0,-1,1182,561,0,0
-35,463,0,0,0,0,0,0,0,0,0,-1,1189,561,0,0
-28,463,0,0,0,0,0,0,0,0,0,-1,1196,561,0,0
-21,463,0,0,0,0,0,0,0,0,0,-1,1203,561,0,0
-14,463,0,0,0,0,0,0,0,0,0,-1,1210,561,0,0
-7,463,0,0,0,0,0,0,0,0,0,-1,1217,561,0,0
0,463,0,0,0,0,0,0,0,0,0,-1,1224,561,0,0
7,463,0,0,0,0,0,0,0,0,0,-1,1231,561,0,0
14,463,0,0,0,0,0,0,0,0,0,-1,1238,561,0,0
21,463,0,0,0,0,0,0,0,0,0,-1,1245,561,0,0
28,463,0,0,0,0,0,0,0,0,0,-1,1252,561,0,0
35,463,0,0,0,0,0,0,0,0,0,-1,1259,561,0,0
42,463,0,0,0,0,0,0,0,0,0,-1,1266,561,0,0
49,463,0,0,0,0,0,0,0,0,0,-1,1273,561,0,0
56,463,0,0,0,0,0,0,0,0,0,-1,1280,561,0,0
63,463,0,0,0,0,0,0,0,0,0,-1,1287,561,0,0
70,463,0,0,0,0,0,0,0,0,0,-1,1294,561,0,0
77,463,0,0,0,0,0,0,0,0,0,-1,1301,561,0,0
84,463,0,0,0,0,0,0,0,0,0,-1,1308,561,0,0
91,463,0,0,0,0,0,0,0,0,0,-1,1315,561,0,0
98,463,0,0,0,0,0,0,0,0,0,-1,1322,561,0,0
105,463,0,0,0,0,0,0,0,0,0,-1,1329,561,0,0
112,463,0,0,0,0,0,0,0,0,0,-1,1336,561,0,0
119,463,0,0,0,0,0,0,0,0,0,-1,1343,561,0,0
126,463,0,0,0,0,0,0,0,0,0,-1,1350,561,0,0
133,463,0,0,0,0,0,0,0,0,0,-1,1357,561,0,0
140,463,0,0,0,0,0,0,0,0,0,-1,1364,561,0,0
147,463,0,0,0,0,0,0,0,0,0,-1,1371,561,0,0
154,463,0,0,0,0,0,0,0,0,0,-1,1378,561,0,0
161,463,0,0,0,0,0,0,0,0,0,-1,1385,561,0,0
168,463,0,0,0,0,0,0,0,0,0,-1,1392,561,0,0
175,463,0,0,0,0,0,0,0,0,0,-1,1399,561,0,0
182,463,0,0,0,0,0,0,0,0,0,-1,1406,561,0,0
189,463,0,0,0,0,0,0,0,0,0,-1,1413,561,0,0
196,463,0,0,0,0,0,0,0,0,0,-1,1420,561,0,0
203,463,0,0,0,0,0,0,0,0,0,-1,1427,561,0,0
210,463,0,0,0,0,0,0,0,0,0,-1,1434,561,0,0
217,463,0,0,0,0,0,0,0,0,0,-1,1441,561,0,0
224,463,0,0,0,0,0,0,0,0,0,-1,1448,561,0,0
231,463,0,0,0,0,0,0,0,0,0,-1,1455,561,0,0
238,463,0,0,0,0,0,0,0,0,0,-1,1462,561,0,0
245,463,0,0,0,0,0,0,0,0,0,-1,1469,561,0,0
252,463,0,0,0,0,0,0,0,0,0,-1,1476,561,0,0
259,463,0,0,0,0,0,0,0,0,0,-1,1483,561,0,0
266,463,0,0,0,0,0,0,0,0,0,-1,1490,561,0,0
273,463,0,0,0,0,0,0,0,0,0,-1,1497,561,0,0
280,463,0,0,0,0,0,0,0,0,0,-1,1504,561,0,0
287,463,0,0,0,0,0,0,0,0,0,-1,1511,561,0,0
294,463,0,0,0,0,0,0,0,0,0,-1,1518,561,0,0
301,463,0,0,0,0,0,0,0,0,0,-1,1525,561,0,0
308,463,0,0,0,0,0,0,0,0,0,-1,1532,561,0,0
315,463,0,0,0,0,0,0,0,0,0,-1,1539,561,0,0
322,463,0,0,0,0,0,0,0,0,0,-1,1546,561,0,0
329,463,0,0,0,0,0,0,0,0,0,-1,1553,561,0,0
336,463,0,0,0,0,0,0,0,0,0,-1,1560,561,0,0
343,463,0,0,0,0,0,0,0,0,0,-1,1567,561,0,0
350,463,0,0,0,0,0,0,0,0,0,-1,1574,561,0,0
357,463,0,0,0,0,0,0,0,0,0,-1,1581,561,0,0
364,463,0,0,0,0,0,0,0,0,0,-1,1588,561,0,0
371,463,1.75842,0.152588,0,0,0,0,0,0,0,-1,1595,561,1.75844,-0.152558
378,463,4.30493,0.169861,0,0,0,0,0,0,0,-1,1602,561,4.30489,-0.169877
385,463,8.76331,1.01813,0,0,0,0,0,0,0,-1,1609,561,8.7633,-1.01813
392,463,12.6002,1.78589,0,0,0,0,0,0,0,-1,1616,561,12.6002,-1.78588
399,463,14.4622,3.409,0,0,0,0,0,0,0,-1,1623,561,14.4622,-3.409
406,463,7.28088,1.38538,0,0,0,0,0,0,0,-1,1630,561,7.28091,-1.38537
413,463,8.05847,1.82239,0,0,0,0,0,0,0,-1,1637,561,8.05851,-1.82241
420,463,8.849,2.26611,0,0,0,0,0,0,0,-1,1644,561,8.84899,-2.26613
427,463,5.12207,1.69183,0,0,0,0,0,0,0,-1,1651,561,5.12206,-1.69184
434,463,4.59814,1.81995,0,0,0,0,0,0,0,-1,1658,561,4.59812,-1.81994
441,463,1.76392,-5.99225,0,0,0,0,0,0,0,-1,1665,561,1.7639,5.99225
448,463,2.49939,-4.30536,0,0,0,0,0,0,0,-1,1672,561,2.49941,4.30536
455,463,4.40295,-3.02557,0,0,0,0,0,0,0,-1,1679,561,4.40299,3.02558
462,463,5.38293,-4.06445,0,0,0,0,0,0,0,-1,1686,561,5.38289,4.06444
469,463,5.94373,-4.50647,0,0,0,0,0,0,0,-1,1693,561,5.94368,4.50646
476,463,6.00671,-4.71655,0,0,0,0,0,0,0,-1,1700,561,6.00671,4.71658
483,463,6.02563,-4.39856,0.00332468,0.00289715,0.00144459,0.00457124,0.00165059,0.711942,0.00267295,0.0341486,1707,561,6.02566,4.39858
490,463,6.15271,-4.04956,0.00371341,0.00243335,0.00174106,0.00492836,0.0012184,0.609261,0.00296412,0.0174817,1714,561,6.15271,4.04955
497,463,6.15662,-3.7876,0.00359762,0.00182196,0.00166148,0.0045936,0.00082597,0.54002,0.00282758,0.011876,1721,561,6.15663,3.78758
504,463,6.1637,-3.60114,0.00314247,0.00118552,0.00148437,0.00394185,0.000386147,0.493995,0.00250911,0.015298,1728,561,6.16369,3.60112
511,463,6.17749,-3.42542,0.00255291,0.00106976,0.00130767,0.00331464,0.000308019,0.527462,0.00211458,0.0229756,1735,561,6.17755,3.42544
518,463,6.23511,-3.16699,0.00203316,0.0011941,0.00116575,0.00285257,0.000374689,0.612674,0.00178994,0.0232296,1742,561,6.23513,3.16701
525,463,6.22107,-2.94458,0.00165186,0.00157851,0.00107207,0.00268789,0.000542489,0.768299,0.00164126,0.0173568,1749,561,6.22111,2.9446
532,463,6.20251,-2.69708,0.00146535,0.00216981,0.00109578,0.00296858,0.000666581,0.940903,0.00179852,0.0151108,1756,561,6.20249,2.69707
539,463,6.18335,-2.44745,0.00156567,0.00285323,0.00124564,0.00361162,0.000807281,1.02391,0.00218885,0.0157391,1763,561,6.18333,2.44742
546,463,6.16272,-2.26697,0.00209008,0.00372258,0.00167125,0.00476627,0.0010464,1.01256,0.00289251,0.0128166,1770,561,6.16277,2.26698
553,463,6.16089,-2.03595,0.00288598,0.00459273,0.00218493,0.00608503,0.00139369,0.971575,0.00368114,0.0111329,1777,561,6.1609,2.03592
560,463,6.16321,-1.76727,0.00918665,0.00683264,0.00508383,0.0132279,0.00279135,0.671643,0.00805112,0.0122835,1784,561,6.16322,1.76727
567,463,6.12097,-1.5484,0.0156948,0.00884289,0.00805056,0.0210181,0.00351964,0.584227,0.0129987,0.0171261,1791,561,6.12103,1.54841
574,463,6.14685,-1.51453,0.0261595,0.0117633,0.0127053,0.0335641,0.00435881,0.52767,0.0210739,0.0451713,1798,561,6.14691,1.51454
581,463,6.36523,-1.45819,0,0,0,0,0,0,0,-1,1805,561,6.36525,1.4582
588,463,1.97424,2.16016,0,0,0,0,0,0,0,-1,1812,561,1.97422,-2.16013
595,463,9.98657,2.99854,0,0,0,0,0,0,0,-1,1819,561,9.98662,-2.99856
602,463,15.0848,4.91132,0,0,0,0,0,0,0,-1,1826,561,15.0848,-4.91134
609,463,17.96,4.03131,0,0,0,0,0,0,0,-1,1833,561,17.96,-4.03132
616,463,20.8352,3.15131,0,0,0,0,0,0,0,-1,1840,561,20.8352,-3.1513
623,463,0,0,0,0,0,0,0,0,0,-1,1847,561,0,0
630,463,0,0,0,0,0,0,0,0,0,-1,1854,561,0,0
637,463,0,0,0,0,0,0,0,0,0,-1,1861,561,0,0
644,463,0,0,0,0,0,0,0,0,0,-1,1868,561,0,0
651,463,0,0,0,0,0,0,0,0,0,-1,1875,561,0,0
658,463,0,0,0,0,0,0,0,0,0,-1,1882,561,0,0
665,463,0,0,0,0,0,0,0,0,0,-1,1889,561,0,0
672,463,0,0,0,0,0,0,0,0,0,-1,1896,561,0,0
679,463,0,0,0,0,0,0,0,0,0,-1,1903,561,0,0
686,463,0,0,0,0,0,0,0,0,0,-1,1910,561,0,0
693,463,0,0,0,0,0,0,0,0,0,-1,1917,561,0,0
700,463,0,0,0,0,0,0,0,0,0,-1,1924,561,0,0
707,463,0,0,0,0,0,0,0,0,0,-1,1931,561,0,0
714,463,0,0,0,0,0,0,0,0,0,-1,1938,561,0,0
721,463,0,0,0,0,0,0,0,0,0,-1,1945,561,0,0
728,463,0,0,0,0,0,0,0,0,0,-1,1952,561,0,0
735,463,0,0,0,0,0,0,0,0,0,-1,1959,561,0,0
742,463,0,0,0,0,0,0,0,0,0,-1,1966,561,0,0
749,463,0,0,0,0,0,0,0,0,0,-1,1973,561,0,0
756,463,0,0,0,0,0,0,0,0,0,-1,1980,561,0,0
763,463,0,0,0,0,0,0,0,0,0,-1,1987,561,0,0
770,463,0,0,0,0,0,0,0,0,0,-1,1994,561,0,0
777,463,0,0,0,0,0,0,0,0,0,-1,2001,561,0,0
784,463,0,0,0,0,0,0,0,0,0,-1,2008,561,0,0
791,463,0,0,0,0,0,0,0,0,0,-1,2015,561,0,0
798,463,0,0,0,0,0,0,0,0,0,-1,2022,561,0,0
805,463,0,0,0,0,0,0,0,0,0,-1,2029,561,0,0
812,463,0,0,0,0,0,0,0,0,0,-1,2036,561,0,0
-700,456,0,0,0,0,0,0,0,0,0,-1,524,568,0,0
-693,456,0,0,0,0,0,0,0,0,0,-1,531,568,0,0
-686,456,0,0,0,0,0,0,0,0,0,-1,538,568,0,0
-679,456,0,0,0,0,0,0,0,0,0,-1,545,568,0,0
-672,456,0,0,0,0,0,0,0,0,0,-1,552,568,0,0
-665,456,0,0,0,0,0,0,0,0,0,-1,559,568,0,0
-658,456,0,0,0,0,0,0,0,0,0,-1,566,568,0,0
-651,456,0,0,0,0,0,0,0,0,0,-1,573,568,0,0
-644,456,0,0,0,0,0,0,0,0,0,-1,580,568,0,0
-637,456,0,0,0,0,0,0,0,0,0,-1,587,568,0,0
-630,456,0,0,0,0,0,0,0,0,0,-1,594,568,0,0
-623,456,0,0,0,0,0,0,0,0,0,-1,601,568,0,0
-616,456,0,0,0,0,0,0,0,0,0,-1,608,568,0,0
-609,456,0,0,0,0,0,0,0,0,0,-1,615,568,0,0
-602,456,0,0,0,0,0,0,0,0,0,-1,622,568,0,0
-595,456,0,0,0,0,0,0,0,0,0,-1,629,568,0,0
-588,456,0,0,0,0,0,0,0,0,0,-1,636,568,0,0
-581,456,0,0,0,0,0,0,0,0,0,-1,643,568,0,0
-574,456,0,0,0,0,0,0,0,0,0,-1,650,568,0,0
-567,456,0,0,0,0,0,0,0,0,0,-1,657,568,0,0
-560,456,0,0,0,0,0,0,0,0,0,-1,664,568,0,0
-553,456,0,0,0,0,0,0,0,0,0,-1,671,568,0,0
-546,456,0,0,0,0,0,0,0,0,0,-1,678,568,0,0
-539,456,0,0,0,0,0,0,0,0,0,-1,685,568,0,0
-532,456,0,0,0,0,0,0,0,0,0,-1,692,568,0,0
-525,456,0,0,0,0,0,0,0,0,0,-1,699,568,0,0
-518,456,0,0,0,0,0,0,0,0,0,-1,706,568,0,0
-511,456,0,0,0,0,0,0,0,0,0,-1,713,568,0,0
-504,456,-1.43451,-1.86499,0,0,0,0,0,0,0,-1,720,568,-1.43452,1.86499
-497,456,-3.49609,2.13831,0,0,0,0,0,0,0,-1,727,568,-3.49611,-2.13831
-490,456,-3.24377,1.26471,0,0,0,0,0,0,0,-1,734,568,-3.24377,-1.2647
-483,456,-3.01416,0.376221,0,0,0,0,0,0,0,-1,741,568,-3.01418,-0.376224
-476,456,-2.79028,-0.512268,0,0,0,0,0,0,0,-1,748,568,-2.79029,0.512242
-469,456,-2.81238,-3.51501,0,0,0,0,0,0,0,-1,755,568,-2.81237,3.51501
-462,456,-1.86768,-2.05573,0,0,0,0,0,0,0,-1,762,568,-1.86765,2.05572
-455,456,-1.70618,-2.43146,0,0,0,0,0,0,0,-1,769,568,-1.70618,2.43148
-448,456,-1.57288,-2.8349,0.0140213,0.00275767,0.00951693,0.0194479,-0.00266896,0.518226,0.0139404,0.03338,776,568,-1.57288,2.83489
-441,456,-1.69031,-3.15106,0.0104876,0.00399161,0.00625166,0.0142847,0.000194562,0.545819,0.00945892,0.0152953,783,568,-1.6903,3.15109
-434,456,-1.76752,-3.3717,0.00786937,0.00461921,0.00372175,0.0103054,0.00218322,0.579552,0.00627049,0.00961615,790,568,-1.76749,3.37171
-427,456,-1.76288,-3.57819,0.00573072,0.00462396,0.00199662,0.00724923,0.00310545,0.650212,0.00419963,0.00897891,797,568,-1.76287,3.57816
-420,456,-1.7522,-3.79523,0.0036508,0.00431151,0.00114928,0.00517697,0.00278534,0.925349,0.0029918,0.00913893,804,568,-1.75222,3.79523
-413,456,-1.7652,-4.00079,0.00217352,0.00362426,0.000647979,0.00387154,0.00192624,1.20624,0.00223524,0.00824729,811,568,-1.76521,4.00079
-406,456,-1.78601,-4.19214,0.00127586,0.00270623,0.000144403,0.00272066,0.00126143,1.47118,0.00157216,0.00817689,818,568,-1.78604,4.19216
-399,456,-1.77588,-4.38123,0.000884269,0.00135229,0.000163197,0.00140358,0.000832983,1.26631,0.000815062,0.00955579,825,568,-1.7759,4.38121
-392,456,-1.76056,-4.59338,0.000528513,-0.000478317,0.000512412,0.000743425,-0.000693228,0.397128,0.000829621,0.00935286,832,568,-1.76055,4.59336
-385,456,-1.75922,-4.79968,0.000241115,-0.00240059,0.000843838,0.000487654,-0.00264713,0.284252,0.00194776,0.00970801,839,568,-1.75919,4.79966
-378,456,-1.76978,-5.01813,0.000117478,-0.00449492,0.00135654,0.000486865,-0.00486431,0.265854,0.00341674,0.0100822,846,568,-1.76976,5.01811
-371,456,-1.76288,-5.22241,4.66483e-06,-0.00667744,0.00182472,0.000470479,-0.00714325,0.249942,0.00492649,0.0106458,853,568,-1.76288,5.22238
-364,456,-1.73645,-5.37567,0.000101709,-0.00906934,0.00201504,0.00052492,-0.00949256,0.207017,0.0065104,0.0142768,860,568,-1.73646,5.37568
-357,456,-1.69574,-5.56573,0.000316616,-0.0116587,0.00195722,0.000628384,-0.0119705,0.157964,0.00819781,0.0166178,867,568,-1.69574,5.56572
-350,456,-1.52563,-5.6911,0.000432214,-0.0148516,0.00181178,0.000644052,-0.0150634,0.116394,0.0102637,0.0299585,874,568,-1.52562,5.6911
-343,456,-1.39557,-5.57532,0.000440198,-0.018291,0.00172068,0.000596951,-0.0184477,0.0908489,0.0125022,0.0398225,881,568,-1.39554,5.57533
-336,456,-1.4104,-5.68976,0.000315526,-0.0220472,0.00163357,0.000434226,-0.0221659,0.0725354,0.0149241,0.0473614,888,568,-1.4104,5.68976
-329,456,-1.3111,-5.7384,0,0,0,0,0,0,0,-1,895,568,-1.31112,5.73839
-322,456,-1.53802,-4.8894,0,0,0,0,0,0,0,-1,902,568,-1.53801,4.8894
-315,456,-0.675476,-3.38397,0,0,0,0,0,0,0,-1,909,568,-0.675473,3.38399
-308,456,-1.1618,-3.15314,0,0,0,0,0,0,0,-1,916,568,-1.16178,3.15314
-301,456,-1.83551,-3.26447,0,0,0,0,0,0,0,-1,923,568,-1.8355,3.26449
-294,456,-2.93414,-3.35449,0,0,0,0,0,0,0,-1,930,568,-2.93413,3.35451
-287,456,-3.7569,-3.53101,0,0,0,0,0,0,0,-1,937,568,-3.75692,3.53101
-280,456,-3.58478,1.37744,0,0,0,0,0,0,0,-1,944,568,-3.58476,-1.37746
-273,456,-5.48199,0.679199,0,0,0,0,0,0,0,-1,951,568,-5.482,-0.679176
-266,456,-3.95667,-0.68927,0,0,0,0,0,0,0,-1,958,568,-3.95667,0.689273
-259,456,0,0,0,0,0,0,0,0,0,-1,965,568,0,0
-252,456,0,0,0,0,0,0,0,0,0,-1,972,568,0,0
-245,456,0,0,0,0,0,0,0,0,0,-1,979,568,0,0
-238,456,0,0,0,0,0,0,0,0,0,-1,986,568,0,0
-231,456,0,0,0,0,0,0,0,0,0,-1,993,568,0,0
-224,456,0,0,0,0,0,0,0,0,0,-1,1000,568,0,0
-217,456,0,0,0,0,0,0,0,0,0,-1,1007,568,0,0
-210,456,0,0,0,0,0,0,0,0,0,-1,1014,568,0,0
-203,456,0,0,0,0,0,0,0,0,0,-1,1021,568,0,0
-196,456,0,0,0,0,0,0,0,0,0,-1,1028,568,0,0
-189,456,0,0,0,0,0,0,0,0,0,-1,1035,568,0,0
-182,456,0,0,0,0,0,0,0,0,0,-1,1042,568,0,0
-175,456,0,0,0,0,0,0,0,0,0,-1,1049,568,0,0
-168,456,0,0,0,0,0,0,0,0,0,-1,1056,568,0,0
-161,456,0,0,0,0,0,0,0,0,0,-1,1063,568,0,0
-154,456,0,0,0,0,0,0,0,0,0,-1,1070,568,0,0
-147,456,0,0,0,0,0,0,0,0,0,-1,1077,568,0,0
-140,456,0,0,0,0,0,0,0,0,0,-1,1084,568,0,0
-133,456,0,0,0,0,0,0,0,0,0,-1,1091,568,0,0
-126,456,0,0,0,0,0,0,0,0,0,-1,1098,568,0,0
-119,456,0,0,0,0,0,0,0,0,0,-1,1105,568,0,0
-112,456,0,0,0,0,0,0,0,0,0,-1,1112,568,0,0
-105,456,0,0,0,0,0,0,0,0,0,-1,1119,568,0,0
-98,456,0,0,0,0,0,0,0,0,0,-1,1126,568,0,0
-91,456,0,0,0,0,0,0,0,0,0,-1,1133,568,0,0
-84,456,0,0,0,0,0,0,0,0,0,-1,1140,568,0,0
-77,456,0,0,0,0,0,0,0,0,0,-1,1147,568,0,0
-70,456,0,0,0,0,0,0,0,0,0,-1,1154,568,0,0
-63,456,0,0,0,0,0,0,0,0,0,-1,1161,568,0,0
-56,456,0,0,0,0,0,0,0,0,0,-1,1168,568,0,0
-49,456,0,0,0,0,0,0,0,0,0,-1,1175,568,0,0
-42,456,0,0,0,0,0,0,0,0,0,-1,1182,568,0,0
-35,456,0,0,0,0,0,0,0,0,0,-1,1189,568,0,0
-28,456,0,0,0,0,0,0,0,0,0,-1,1196,568,0,0
-21,456,0,0,0,0,0,0,0,0,0,-1,1203,568,0,0
-14,456,0,0,0,0,0,0,0,0,0,-1,1210,568,0,0
-7,456,0,0,0,0,0,0,0,0,0,-1,1217,568,0,0
0,456,0,0,0,0,0,0,0,0,0,-1,1224,568,0,0
7,456,0,0,0,0,0,0,0,0,0,-1,1231,568,0,0
14,456,0,0,0,0,0,0,0,0,0,-1,1238,568,0,0
21,456,0,0,0,0,0,0,0,0,0,-1,1245,568,0,0
28,456,0,0,0,0,0,0,0,0,0,-1,1252,568,0,0
35,456,0,0,0,0,0,0,0,0,0,-1,1259,568,0,0
42,456,0,0,0,0,0,0,0,0,0,-1,1266,568,0,0
49,456,0,0,0,0,0,0,0,0,0,-1,1273,568,0,0
56,456,0,0,0,0,0,0,0,0,0,-1,1280,568,0,0
63,456,0,0,0,0,0,0,0,0,0,-1,1287,568,0,0
70,456,0,0,0,0,0,0,0,0,0,-1,1294,568,0,0
77,456,0,0,0,0,0,0,0,0,0,-1,1301,568,0,0
84,456,0,0,0,0,0,0,0,0,0,-1,1308,568,0,0
91,456,0,0,0,0,0,0,0,0,0,-1,1315,568,0,0
98,456,0,0,0,0,0,0,0,0,0,-1,1322,568,0,0
105,456,0,0,0,0,0,0,0,0,0,-1,1329,568,0,0
112,456,0,0,0,0,0,0,0,0,0,-1,1336,568,0,0
119,456,0,0,0,0,0,0,0,0,0,-1,1343,568,0,0
126,456,0,0,0,0,0,0,0,0,0,-1,1350,568,0,0
133,456,0,0,0,0,0,0,0,0,0,-1,1357,568,0,0
140,456,0,0,0,0,0,0,0,0,0,-1,1364,568,0,0
147,456,0,0,0,0,0,0,0,0,0,-1,1371,568,0,0
154,456,0,0,0,0,0,0,0,0,0,-1,1378,568,0,0
161,456,0,0,0,0,0,0,0,0,0,-1,1385,568,0,0
168,456,0,0,0,0,0,0,0,0,0,-1,1392,568,0,0
175,456,0,0,0,0,0,0,0,0,0,-1,1399,568,0,0
182,456,0,0,0,0,0,0,0,0,0,-1,1406,568,0,0
189,456,0,0,0,0,0,0,0,0,0,-1,1413,568,0,0
196,456,0,0,0,0,0,0,0,0,0,-1,1420,568,0,0
203,456,0,0,0,0,0,0,0,0,0,-1,1427,568,0,0
210,456,0,0,0,0,0,0,0,0,0,-1,1434,568,0,0
217,456,0,0,0,0,0,0,0,0,0,-1,1441,568,0,0
224,456,0,0,0,0,0,0,0,0,0,-1,1448,568,0,0
231,456,0,0,0,0,0,0,0,0,0,-1,1455,568,0,0
238,456,0,0,0,0,0,0,0,0,0,-1,1462,568,0,0
245,456,0,0,0,0,0,0,0,0,0,-1,1469,568,0,0
252,456,0,0,0,0,0,0,0,0,0,-1,1476,568,0,0
259,456,0,0,0,0,0,0,0,0,0,-1,1483,568,0,0
266,456,0,0,0,0,0,0,0,0,0,-1,1490,568,0,0
273,456,0,0,0,0,0,0,0,0,0,-1,1497,568,0,0
280,456,0,0,0,0,0,0,0,0,0,-1,1504,568,0,0
287,456,0,0,0,0,0,0,0,0,0,-1,1511,568,0,0
294,456,0,0,0,0,0,0,0,0,0,-1,1518,568,0,0
301,456,0,0,0,0,0,0,0,0,0,-1,1525,568,0,0
308,456,0,0,0,0,0,0,0,0,0,-1,1532,568,0,0
315,456,0,0,0,0,0,0,0,0,0,-1,1539,568,0,0
322,456,0,0,0,0,0,0,0,0,0,-1,1546,568,0,0
329,456,0,0,0,0,0,0,0,0,0,-1,1553,568,0,0
336,456,0,0,0,0,0,0,0,0,0,-1,1560,568,0,0
343,456,0,0,0,0,0,0,0,0,0,-1,1567,568,0,0
350,456,0,0,0,0,0,0,0,0,0,-1,1574,568,0,0
357,456,0,0,0,0,0,0,0,0,0,-1,1581,568,0,0
364,456,0,0,0,0,0,0,0,0,0,-1,1588,568,0,0
371,456,0,0,0,0,0,0,0,0,0,-1,1595,568,0,0
378,456,0,0,0,0,0,0,0,0,0,-1,1602,568,0,0
385,456,5.66284,0.660645,0,0,0,0,0,0,0,-1,1609,568,5.66285,-0.660615
392,456,11.1426,3.43079,0,0,0,0,0,0,0,-1,1616,568,11.1425,-3.43079
399,456,13.5647,3.49213,0,0,0,0,0,0,0,-1,1623,568,13.5647,-3.49213
406,456,15.9868,3.55347,0,0,0,0,0,0,0,-1,1630,568,15.9868,-3.55348
413,456,9.55115,1.49933,0,0,0,0,0,0,0,-1,1637,568,9.55119,-1.49933
420,456,6.33875,1.88824,0,0,0,0,0,0,0,-1,1644,568,6.33876,-1.88827
427,456,6.21375,2.02905,0,0,0,0,0,0,0,-1,1651,568,6.21372,-2.02904
434,456,3.0719,-4.86285,0,0,0,0,0,0,0,-1,1658,568,3.07184,4.86287
441,456,2.90344,-4.70459,0,0,0,0,0,0,0,-1,1665,568,2.90346,4.7046
448,456,3.06995,-4.93689,0,0,0,0,0,0,0,-1,1672,568,3.06991,4.93687
455,456,3.46582,-3.43701,0,0,0,0,0,0,0,-1,1679,568,3.46585,3.43698
462,456,4.68445,-4.45831,0,0,0,0,0,0,0,-1,1686,568,4.68439,4.45833
469,456,4.93201,-2.289,0,0,0,0,0,0,0,-1,1693,568,4.93197,2.28903
476,456,4.8363,-2.79364,0,0,0,0,0,0,0,-1,1700,568,4.83636,2.79363
483,456,6.00391,-4.74609,0,0,0,0,0,0,0,-1,1707,568,6.00387,4.7461
490,456,6.28186,-4.2395,0,0,0,0,0,0,0,-1,1714,568,6.28184,4.23953
497,456,6.40161,-3.86981,0.00506784,0.00197463,0.00233788,0.00632439,0.000718078,0.493175,0.00399845,0.0311936,1721,568,6.40157,3.86981
504,456,6.37292,-3.59265,0.00442862,0.00104066,0.00206077,0.00540229,6.69917e-05,0.441389,0.0035794,0.0114314,1728,568,6.37289,3.59263
511,456,6.38416,-3.35681,0.00356172,0.000811052,0.00172108,0.00438949,-1.67163e-05,0.448299,0.00293191,0.0142441,1735,568,6.38412,3.35681
518,456,6.41565,-3.13782,0.00278528,0.000755278,0.00139805,0.00349792,4.26301e-05,0.471413,0.00231787,0.0160192,1742,568,6.41559,3.13781
525,456,6.42676,-2.92834,0.00223795,0.00102647,0.00122366,0.00299758,0.00026683,0.555569,0.00191565,0.0150763,1749,568,6.42677,2.92836
532,456,6.40515,-2.69647,0.00187048,0.00143056,0.00113208,0.00280377,0.000497274,0.689446,0.00172744,0.0148492,1756,568,6.40511,2.69647
539,456,6.38794,-2.43805,0.00174655,0.00186002,0.00112725,0.00293196,0.000674611,0.810543,0.00177308,0.0177102,1763,568,6.38789,2.43805
546,456,6.39661,-2.23615,0.00200933,0.00245379,0.00137913,0.00362848,0.000834647,0.86528,0.00219433,0.0196084,1770,568,6.39663,2.23616
553,456,6.38049,-2.00934,0.00248976,0.00300052,0.00169127,0.00445558,0.0010347,0.860331,0.00269259,0.0122904,1777,568,6.38048,2.00932
560,456,6.38135,-1.79376,0.00741542,0.00465975,0.00393447,0.0102063,0.00186884,0.616973,0.00627474,0.00994853,1784,568,6.38137,1.79378
567,456,6.39832,-1.55066,0.0123986,0.00609912,0.00618936,0.0161936,0.00230415,0.550027,0.0101155,0.0129287,1791,568,6.39833,1.55067
574,456,6.38696,-1.4389,0.0204443,0.00818821,0.00973517,0.0258196,0.00281294,0.504492,0.0163562,0.0338169,1798,568,6.38696,1.43888
581,456,6.43823,-1.31982,0,0,0,0,0,0,0,-1,1805,568,6.43828,1.31985
588,456,5.23901,-0.0901489,0,0,0,0,0,0,0,-1,1812,568,5.23906,0.0901656
595,456,6.90063,3.14886,0,0,0,0,0,0,0,-1,1819,568,6.90066,-3.14887
602,456,12.1459,4.55469,0,0,0,0,0,0,0,-1,1826,568,12.1459,-4.55466
609,456,14.9966,3.5708,0.184877,0.0501875,0.0827233,0.224202,0.0108624,0.443759,0.145982,0.0442293,1833,568,14.9966,-3.57083
616,456,17.7407,2.6579,0,0,0,0,0,0,0,-1,1840,568,17.7408,-2.6579
623,456,20.6838,1.7121,0,0,0,0,0,0,0,-1,1847,568,20.6838,-1.71208
630,456,0,0,0,0,0,0,0,0,0,-1,1854,568,0,0
637,456,0,0,0,0,0,0,0,0,0,-1,1861,568,0,0
644,456,0,0,0,0,0,0,0,0,0,-1,1868,568,0,0
651,456,0,0,0,0,0,0,0,0,0,-1,1875,568,0,0
658,456,0,0,0,0,0,0,0,0,0,-1,1882,568,0,0
665,456,0,0,0,0,0,0,0,0,0,-1,1889,568,0,0
672,456,0,0,0,0,0,0,0,0,0,-1,1896,568,0,0
679,456,0,0,0,0,0,0,0,0,0,-1,1903,568,0,0
686,456,0,0,0,0,0,0,0,0,0,-1,1910,568,0,0
693,456,0,0,0,0,0,0,0,0,0,-1,1917,568,0,0
700,456,0,0,0,0,0,0,0,0,0,-1,1924,568,0,0
707,456,0,0,0,0,0,0,0,0,0,-1,1931,568,0,0
714,456,0,0,0,0,0,0,0,0,0,-1,1938,568,0,0
721,456,0,0,0,0,0,0,0,0,0,-1,1945,568,0,0
728,456,0,0,0,0,0,0,0,0,0,-1,1952,568,0,0
735,456,0,0,0,0,0,0,0,0,0,-1,1959,568,0,0
742,456,0,0,0,0,0,0,0,0,0,-1,1966,568,0,0
749,456,0,0,0,0,0,0,0,0,0,-1,1973,568,0,0
756,456,0,0,0,0,0,0,0,0,0,-1,1980,568,0,0
763,456,0,0,0,0,0,0,0,0,0,-1,1987,568,0,0
770,456,0,0,0,0,0,0,0,0,0,-1,1994,568,0,0
777,456,0,0,0,0,0,0,0,0,0,-1,2001,568,0,0
784,456,0,0,0,0,0,0,0,0,0,-1,2008,568,0,0
791,456,0,0,0,0,0,0,0,0,0,-1,2015,568,0,0
798,456,0,0,0,0,0,0,0,0,0,-1,2022,568,0,0
805,456,0,0,0,0,0,0,0,0,0,-1,2029,568,0,0
812,456,0,0,0,0,0,0,0,0,0,-1,2036,568,0,0
-700,449,0,0,0,0,0,0,0,0,0,-1,524,575,0,0
-693,449,0,0,0,0,0,0,0,0,0,-1,531,575,0,0
-686,449,0,0,0,0,0,0,0,0,0,-1,538,575,0,0
-679,449,0,0,0,0,0,0,0,0,0,-1,545,575,0,0
-672,449,0,0,0,0,0,0,0,0,0,-1,552,575,0,0
-665,449,0,0,0,0,0,0,0,0,0,-1,559,575,0,0
-658,449,0,0,0,0,0,0,0,0,0,-1,566,575,0,0
-651,449,0,0,0,0,0,0,0,0,0,-1,573,575,0,0
-644,449,0,0,0,0,0,0,0,0,0,-1,580,575,0,0
-637,449,0,0,0,0,0,0,0,0,0,-1,587,575,0,0
-630,449,0,0,0,0,0,0,0,0,0,-1,594,575,0,0
-623,449,0,0,0,0,0,0,0,0,0,-1,601,575,0,0
-616,449,0,0,0,0,0,0,0,0,0,-1,608,575,0,0
-609,449,0,0,0,0,0,0,0,0,0,-1,615,575,0,0
-602,449,0,0,0,0,0,0,0,0,0,-1,622,575,0,0
-595,449,0,0,0,0,0,0,0,0,0,-1,629,575,0,0
-588,449,0,0,0,0,0,0,0,0,0,-1,636,575,0,0
-581,449,0,0,0,0,0,0,0,0,0,-1,643,575,0,0
-574,449,0,0,0,0,0,0,0,0,0,-1,650,575,0,0
-567,449,0,0,0,0,0,0,0,0,0,-1,657,575,0,0
-560,449,0,0,0,0,0,0,0,0,0,-1,664,575,0,0
-553,449,0,0,0,0,0,0,0,0,0,-1,671,575,0,0
-546,449,0,0,0,0,0,0,0,0,0,-1,678,575,0,0
-539,449,0,0,0,0,0,0,0,0,0,-1,685,575,0,0
-532,449,0,0,0,0,0,0,0,0,0,-1,692,575,0,0
-525,449,0,0,0,0,0,0,0,0,0,-1,699,575,0,0
-518,449,0,0,0,0,0,0,0,0,0,-1,706,575,0,0
-511,449,-0.941345,-4.4519,0,0,0,0,0,0,0,-1,713,575,-0.941356,4.45191
-504,449,-0.813354,-1.30457,0,0,0,0,0,0,0,-1,720,575,-0.813353,1.30454
-497,449,-1.06378,-0.79657,0,0,0,0,0,0,0,-1,727,575,-1.06381,0.796591
-490,449,-3.24335,0.601135,0,0,0,0,0,0,0,-1,734,575,-3.24333,-0.601148
-483,449,-2.80957,-0.204163,0,0,0,0,0,0,0,-1,741,575,-2.80955,0.204142
-476,449,-2.15967,-1.25562,0,0,0,0,0,0,0,-1,748,575,-2.15967,1.2556
-469,449,-2.83618,-2.29596,0,0,0,0,0,0,0,-1,755,575,-2.83615,2.29599
-462,449,-2.07922,-2.37445,0.0142696,-0.00322708,0.00655121,0.0164507,-0.00540814,0.321382,0.013146,0.0481639,762,575,-2.07922,2.37445
-455,449,-1.98853,-2.71271,0.016193,0.000776351,0.00377142,0.0170662,-9.68063e-05,0.227512,0.0114098,0.0449802,769,575,-1.9885,2.71269
-448,449,-1.90686,-2.94318,0.0121122,0.0022888,0.00198672,0.0124988,0.00190222,0.192184,0.00777638,0.0225137,776,575,-1.90689,2.94317
-441,449,-1.9422,-3.19183,0.0090172,0.00304901,0.000728601,0.00910487,0.00296135,0.119738,0.00536265,0.0138763,783,575,-1.94222,3.19183
-434,449,-1.97284,-3.40009,0.00668162,0.0033281,-0.000133406,0.00668692,0.00332281,-0.0396972,0.00386072,0.012585,790,575,-1.97286,3.40008
-427,449,-1.97473,-3.58472,0.0047021,0.00310286,-0.000508905,0.00485031,0.00295465,-0.283389,0.00282249,0.0126775,797,575,-1.97472,3.5847
-420,449,-1.95862,-3.78113,0.00269441,0.00270364,-0.00031121,0.00301027,0.00238778,-0.792811,0.00183489,0.0123337,804,575,-1.9586,3.7811
-413,449,-1.96417,-4.00464,0.00128941,0.00202025,-4.27604e-05,0.00202274,0.00128692,-1.51255,0.00118219,0.00979956,811,575,-1.9642,4.00461
-406,449,-1.98254,-4.20313,0.000488256,0.00116264,0.00010006,0.00117718,0.000473723,1.42656,0.000683944,0.00877195,818,575,-1.98257,4.20313
-399,449,-1.98297,-4.38983,9.00431e-05,-0.000101638,0.000609687,0.000611376,-0.000622971,0.707438,0.000712661,0.00855182,825,575,-1.98298,4.38983
-392,449,-1.96674,-4.60468,-0.000286315,-0.00189375,0.00127955,0.000420996,-0.00260106,0.504976,0.00189007,0.00935341,832,575,-1.96674,4.60469
-385,449,-1.95721,-4.79755,-0.000590747,-0.00390503,0.00184308,0.000230633,-0.00472641,0.419235,0.00323056,0.00974079,839,575,-1.95719,4.79758
-378,449,-1.97321,-4.97955,-0.000768601,-0.00610008,0.00248649,0.000211042,-0.00707972,0.375311,0.00479171,0.00892952,846,575,-1.97322,4.97956
-371,449,-1.96869,-5.19067,-0.000863317,-0.00847869,0.00299333,0.000172392,-0.0095144,0.333112,0.00640117,0.00998574,853,575,-1.96871,5.19069
-364,449,-1.92731,-5.39111,-0.000740125,-0.0114071,0.00325767,0.000176064,-0.0123233,0.274159,0.00827485,0.0197116,860,575,-1.92732,5.39114
-357,449,-1.68469,-5.47534,-0.000498007,-0.01498,0.00329586,0.000216797,-0.0156948,0.213572,0.0105362,0.0322156,867,575,-1.68472,5.47536
-350,449,-1.37836,-5.23236,-0.000437135,-0.019496,0.00325734,0.0001042,-0.0200373,0.164684,0.0133931,0.0471347,874,575,-1.37833,5.23236
-343,449,-1.48022,-4.98444,-0.000648811,-0.024563,0.00331326,-0.000198255,-0.0250136,0.135157,0.01661,0.0495768,881,575,-1.48021,4.98444
-336,449,-1.29724,-4.74359,0,0,0,0,0,0,0,-1,888,575,-1.29725,4.74358
-329,449,-1.21906,-3.34039,0,0,0,0,0,0,0,-1,895,575,-1.21906,3.34039
-322,449,-0.628845,-3.16669,0,0,0,0,0,0,0,-1,902,575,-0.628861,3.16667
-315,449,-0.540344,-3.21918,0,0,0,0,0,0,0,-1,909,575,-0.540336,3.21917
-308,449,-1.04413,-2.99341,0,0,0,0,0,0,0,-1,916,575,-1.04415,2.99338
-301,449,-1.58691,-2.80725,0,0,0,0,0,0,0,-1,923,575,-1.58692,2.80728
-294,449,-3.71118,-2.76086,0,0,0,0,0,0,0,-1,930,575,-3.71119,2.76087
-287,449,-4.4082,-2.69525,0,0,0,0,0,0,0,-1,937,575,-4.40822,2.69526
-280,449,-5.09955,-2.96295,0,0,0,0,0,0,0,-1,944,575,-5.09953,2.96297
-273,449,0,0,0,0,0,0,0,0,0,-1,951,575,0,0
-266,449,0,0,0,0,0,0,0,0,0,-1,958,575,0,0
-259,449,0,0,0,0,0,0,0,0,0,-1,965,575,0,0
-252,449,0,0,0,0,0,0,0,0,0,-1,972,575,0,0
-245,449,0,0,0,0,0,0,0,0,0,-1,979,575,0,0
-238,449,0,0,0,0,0,0,0,0,0,-1,986,575,0,0
-231,449,0,0,0,0,0,0,0,0,0,-1,993,575,0,0
-224,449,0,0,0,0,0,0,0,0,0,-1,1000,575,0,0
-217,449,0,0,0,0,0,0,0,0,0,-1,1007,575,0,0
-210,449,0,0,0,0,0,0,0,0,0,-1,1014,575,0,0
-203,449,0,0,0,0,0,0,0,0,0,-1,1021,575,0,0
-196,449,0,0,0,0,0,0,0,0,0,-1,1028,575,0,0
-189,449,0,0,0,0,0,0,0,0,0,-1,1035,575,0,0
-182,449,0,0,0,0,0,0,0,0,0,-1,1042,575,0,0
-175,449,0,0,0,0,0,0,0,0,0,-1,1049,575,0,0
-168,449,0,0,0,0,0,0,0,0,0,-1,1056,575,0,0
-161,449,0,0,0,0,0,0,0,0,0,-1,1063,575,0,0
-154,449,0,0,0,0,0,0,0,0,0,-1,1070,575,0,0
-147,449,0,0,0,0,0,0,0,0,0,-1,1077,575,0,0
-140,449,0,0,0,0,0,0,0,0,0,-1,1084,575,0,0
-133,449,0,0,0,0,0,0,0,0,0,-1,1091,575,0,0
-126,449,0,0,0,0,0,0,0,0,0,-1,1098,575,0,0
-119,449,0,0,0,0,0,0,0,0,0,-1,1105,575,0,0
-112,449,0,0,0,0,0,0,0,0,0,-1,1112,575,0,0
-105,449,0,0,0,0,0,0,0,0,0,-1,1119,575,0,0
-98,449,0,0,0,0,0,0,0,0,0,-1,1126,575,0,0
-91,449,0,0,0,0,0,0,0,0,0,-1,1133,575,0,0
-84,449,0,0,0,0,0,0,0,0,0,-1,1140,575,0,0
-77,449,0,0,0,0,0,0,0,0,0,-1,1147,575,0,0
-70,449,0,0,0,0,0,0,0,0,0,-1,1154,575,0,0
-63,449,0,0,0,0,0,0,0,0,0,-1,1161,575,0,0
-56,449,0,0,0,0,0,0,0,0,0,-1,1168,575,0,0
-49,449,0,0,0,0,0,0,0,0,0,-1,1175,575,0,0
-42,449,0,0,0,0,0,0,0,0,0,-1,1182,575,0,0
-35,449,0,0,0,0,0,0,0,0,0,-1,1189,575,0,0
-28,449,0,0,0,0,0,0,0,0,0,-1,1196,575,0,0
-21,449,0,0,0,0,0,0,0,0,0,-1,1203,575,0,0
-14,449,0,0,0,0,0,0,0,0,0,-1,1210,575,0,0
-7,449,0,0,0,0,0,0,0,0,0,-1,1217,575,0,0
0,449,0,0,0,0,0,0,0,0,0,-1,1224,575,0,0
7,449,0,0,0,0,0,0,0,0,0,-1,1231,575,0,0
14,449,0,0,0,0,0,0,0,0,0,-1,1238,575,0,0
21,449,0,0,0,0,0,0,0,0,0,-1,1245,575,0,0
28,449,0,0,0,0,0,0,0,0,0,-1,1252,575,0,0
35,449,0,0,0,0,0,0,0,0,0,-1,1259,575,0,0
42,449,0,0,0,0,0,0,0,0,0,-1,1266,575,0,0
49,449,0,0,0,0,0,0,0,0,0,-1,1273,575,0,0
56,449,0,0,0,0,0,0,0,0,0,-1,1280,575,0,0
63,449,0,0,0,0,0,0,0,0,0,-1,1287,575,0,0
70,449,0,0,0,0,0,0,0,0,0,-1,1294,575,0,0
77,449,0,0,0,0,0,0,0,0,0,-1,1301,575,0,0
84,449,0,0,0,0,0,0,0,0,0,-1,1308,575,0,0
91,449,0,0,0,0,0,0,0,0,0,-1,1315,575,0,0
98,449,0,0,0,0,0,0,0,0,0,-1,1322,575,0,0
105,449,0,0,0,0,0,0,0,0,0,-1,1329,575,0,0
112,449,0,0,0,0,0,0,0,0,0,-1,1336,575,0,0
119,449,0,0,0,0,0,0,0,0,0,-1,1343,575,0,0
126,449,0,0,0,0,0,0,0,0,0,-1,1350,575,0,0
133,449,0,0,0,0,0,0,0,0,0,-1,1357,575,0,0
140,449,0,0,0,0,0,0,0,0,0,-1,1364,575,0,0
147,449,0,0,0,0,0,0,0,0,0,-1,1371,575,0,0
154,449,0,0,0,0,0,0,0,0,0,-1,1378,575,0,0
161,449,0,0,0,0,0,0,0,0,0,-1,1385,575,0,0
168,449,0,0,0,0,0,0,0,0,0,-1,1392,575,0,0
175,449,0,0,0,0,0,0,0,0,0,-1,1399,575,0,0
182,449,0,0,0,0,0,0,0,0,0,-1,1406,575,0,0
189,449,0,0,0,0,0,0,0,0,0,-1,1413,575,0,0
196,449,0,0,0,0,0,0,0,0,0,-1,1420,575,0,0
203,449,0,0,0,0,0,0,0,0,0,-1,1427,575,0,0
210,449,0,0,0,0,0,0,0,0,0,-1,1434,575,0,0
217,449,0,0,0,0,0,0,0,0,0,-1,1441,575,0,0
224,449,0,0,0,0,0,0,0,0,0,-1,1448,575,0,0
231,449,0,0,0,0,0,0,0,0,0,-1,1455,575,0,0
238,449,0,0,0,0,0,0,0,0,0,-1,1462,575,0,0
245,449,0,0,0,0,0,0,0,0,0,-1,1469,575,0,0
252,449,0,0,0,0,0,0,0,0,0,-1,1476,575,0,0
259,449,0,0,0,0,0,0,0,0,0,-1,1483,575,0,0
266,449,0,0,0,0,0,0,0,0,0,-1,1490,575,0,0
273,449,0,0,0,0,0,0,0,0,0,-1,1497,575,0,0
280,449,0,0,0,0,0,0,0,0,0,-1,1504,575,0,0
287,449,0,0,0,0,0,0,0,0,0,-1,1511,575,0,0
294,449,0,0,0,0,0,0,0,0,0,-1,1518,575,0,0
301,449,0,0,0,0,0,0,0,0,0,-1,1525,575,0,0
308,449,0,0,0,0,0,0,0,0,0,-1,1532,575,0,0
315,449,0,0,0,0,0,0,0,0,0,-1,1539,575,0,0
322,449,0,0,0,0,0,0,0,0,0,-1,1546,575,0,0
329,449,0,0,0,0,0,0,0,0,0,-1,1553,575,0,0
336,449,0,0,0,0,0,0,0,0,0,-1,1560,575,0,0
343,449,0,0,0,0,0,0,0,0,0,-1,1567,575,0,0
350,449,0,0,0,0,0,0,0,0,0,-1,1574,575,0,0
357,449,0,0,0,0,0,0,0,0,0,-1,1581,575,0,0
364,449,0,0,0,0,0,0,0,0,0,-1,1588,575,0,0
371,449,0,0,0,0,0,0,0,0,0,-1,1595,575,0,0
378,449,0,0,0,0,0,0,0,0,0,-1,1602,575,0,0
385,449,0,0,0,0,0,0,0,0,0,-1,1609,575,0,0
392,449,7.95471,3.66217,0,0,0,0,0,0,0,-1,1616,575,7.95471,-3.66218
399,449,12.6671,3.57526,0,0,0,0,0,0,0,-1,1623,575,12.6672,-3.57527
406,449,13.342,2.82446,0,0,0,0,0,0,0,-1,1630,575,13.342,-2.82445
413,449,13.4187,1.65594,0,0,0,0,0,0,0,-1,1637,575,13.4187,-1.65591
420,449,4.70264,2.21893,0,0,0,0,0,0,0,-1,1644,575,4.70263,-2.21894
427,449,8.96924,-4.53351,0,0,0,0,0,0,0,-1,1651,575,8.96925,4.53353
434,449,4.12927,-7.06952,0,0,0,0,0,0,0,-1,1658,575,4.12932,7.06952
441,449,3.89856,-6.06458,0,0,0,0,0,0,0,-1,1665,575,3.89855,6.06459
448,449,4.03198,-5.18207,0,0,0,0,0,0,0,-1,1672,575,4.03197,5.18207
455,449,4.21948,-4.09467,0,0,0,0,0,0,0,-1,1679,575,4.21952,4.09465
462,449,4.23181,-2.96924,0,0,0,0,0,0,0,-1,1686,575,4.23185,2.96926
469,449,4.51672,-2.95135,0,0,0,0,0,0,0,-1,1693,575,4.51672,2.95135
476,449,4.71838,-1.86688,0,0,0,0,0,0,0,-1,1700,575,4.71842,1.86689
483,449,4.87878,-1.73126,0,0,0,0,0,0,0,-1,1707,575,4.87875,1.73128
490,449,5.73279,-2.74573,0,0,0,0,0,0,0,-1,1714,575,5.73282,2.74575
497,449,6.59705,-4.03284,0,0,0,0,0,0,0,-1,1721,575,6.59704,4.03283
504,449,6.55261,-3.59387,0.00560544,0.00111781,0.002731,0.00689618,-0.000172926,0.441508,0.00465616,0.0337575,1728,575,6.55265,3.59385
511,449,6.61206,-3.36285,0.00446386,0.000706577,0.00217461,0.00545893,-0.00028849,0.429144,0.00373916,0.0103565,1735,575,6.61207,3.36285
518,449,6.62439,-3.13898,0.00345915,0.000422876,0.00163667,0.00417337,-0.000291345,0.411476,0.00288427,0.0122472,1742,575,6.62439,3.13901
525,449,6.6123,-2.91333,0.00277901,0.000575724,0.00137526,0.00343945,-8.47196e-05,0.447709,0.00232172,0.0116355,1749,575,6.61236,2.91334
532,449,6.58911,-2.69788,0.00227071,0.000806769,0.00117354,0.00292184,0.000155637,0.506556,0.00189814,0.00985104,1756,575,6.58912,2.69786
539,449,6.57312,-2.46783,0.00196881,0.00103638,0.00103571,0.0026384,0.000366787,0.573912,0.00165032,0.0124439,1763,575,6.57312,2.46785
546,449,6.60425,-2.23785,0.00201508,0.0014265,0.0011389,0.0028971,0.000544483,0.658965,0.00177792,0.0207604,1770,575,6.60424,2.23784
553,449,6.59949,-2.02972,0.00224628,0.00175533,0.0012983,0.00332211,0.000679499,0.691965,0.00202658,0.0142451,1777,575,6.59952,2.0297
560,449,6.62268,-1.82971,0.00586043,0.00294803,0.00293836,0.00768363,0.00112483,0.555344,0.00479169,0.0129324,1784,575,6.62265,1.82969
567,449,6.61841,-1.58209,0.00953518,0.00398377,0.00460195,0.0121337,0.00138523,0.514029,0.00766922,0.010041,1791,575,6.61838,1.5821
574,449,6.62683,-1.31891,0.0155243,0.0054879,0.00726435,0.0193352,0.00167701,0.483135,0.0123691,0.0177421,1798,575,6.6268,1.31889
581,449,6.61255,-1.11041,0.024776,0.00778161,0.0114531,0.0305398,0.00201781,0.466246,0.0197217,0.0401074,1805,575,6.61253,1.11042
588,449,6.64673,-0.710022,0,0,0,0,0,0,0,-1,1812,575,6.64679,0.710002
595,449,7.05945,-0.487549,0,0,0,0,0,0,0,-1,1819,575,7.05942,0.48756
602,449,9.46167,4.17444,0,0,0,0,0,0,0,-1,1826,575,9.46164,-4.17442
609,449,12.2028,3.18652,0,0,0,0,0,0,0,-1,1833,575,12.2027,-3.18655
616,449,14.9438,2.19867,0,0,0,0,0,0,0,-1,1840,575,14.9438,-2.19867
623,449,9.83789,-0.0820313,0,0,0,0,0,0,0,-1,1847,575,9.83794,0.0820443
630,449,8.90686,4.99329,0,0,0,0,0,0,0,-1,1854,575,8.90685,-4.99327
637,449,0,0,0,0,0,0,0,0,0,-1,1861,575,0,0
644,449,0,0,0,0,0,0,0,0,0,-1,1868,575,0,0
651,449,0,0,0,0,0,0,0,0,0,-1,1875,575,0,0
658,449,0,0,0,0,0,0,0,0,0,-1,1882,575,0,0
665,449,0,0,0,0,0,0,0,0,0,-1,1889,575,0,0
672,449,0,0,0,0,0,0,0,0,0,-1,1896,575,0,0
679,449,0,0,0,0,0,0,0,0,0,-1,1903,575,0,0
686,449,0,0,0,0,0,0,0,0,0,-1,1910,575,0,0
693,449,0,0,0,0,0,0,0,0,0,-1,1917,575,0,0
700,449,0,0,0,0,0,0,0,0,0,-1,1924,575,0,0
707,449,0,0,0,0,0,0,0,0,0,-1,1931,575,0,0
714,449,0,0,0,0,0,0,0,0,0,-1,1938,575,0,0
721,449,0,0,0,0,0,0,0,0,0,-1,1945,575,0,0
728,449,0,0,0,0,0,0,0,0,0,-1,1952,575,0,0
735,449,0,0,0,0,0,0,0,0,0,-1,1959,575,0,0
742,449,0,0,0,0,0,0,0,0,0,-1,1966,575,0,0
749,449,0,0,0,0,0,0,0,0,0,-1,1973,575,0,0
756,449,0,0,0,0,0,0,0,0,0,-1,1980,575,0,0
763,449,0,0,0,0,0,0,0,0,0,-1,1987,575,0,0
770,449,0,0,0,0,0,0,0,0,0,-1,1994,575,0,0
777,449,0,0,0,0,0,0,0,0,0,-1,2001,575,0,0
784,449,0,0,0,0,0,0,0,0,0,-1,2008,575,0,0
791,449,0,0,0,0,0,0,0,0,0,-1,2015,575,0,0
798,449,0,0,0,0,0,0,0,0,0,-1,2022,575,0,0
805,449,0,0,0,0,0,0,0,0,0,-1,2029,575,0,0
812,449,0,0,0,0,0,0,0,0,0,-1,2036,575,0,0
-700,442,0,0,0,0,0,0,0,0,0,-1,524,582,0,0
-693,442,0,0,0,0,0,0,0,0,0,-1,531,582,0,0
-686,442,0,0,0,0,0,0,0,0,0,-1,538,582,0,0
-679,442,0,0,0,0,0,0,0,0,0,-1,545,582,0,0
-672,442,0,0,0,0,0,0,0,0,0,-1,552,582,0,0
-665,442,0,0,0,0,0,0,0,0,0,-1,559,582,0,0
-658,442,0,0,0,0,0,0,0,0,0,-1,566,582,0,0
-651,442,0,0,0,0,0,0,0,0,0,-1,573,582,0,0
-644,442,0,0,0,0,0,0,0,0,0,-1,580,582,0,0
-637,442,0,0,0,0,0,0,0,0,0,-1,587,582,0,0
-630,442,0,0,0,0,0,0,0,0,0,-1,594,582,0,0
-623,442,0,0,0,0,0,0,0,0,0,-1,601,582,0,0
-616,442,0,0,0,0,0,0,0,0,0,-1,608,582,0,0
-609,442,0,0,0,0,0,0,0,0,0,-1,615,582,0,0
-602,442,0,0,0,0,0,0,0,0,0,-1,622,582,0,0
-595,442,0,0,0,0,0,0,0,0,0,-1,629,582,0,0
-588,442,0,0,0,0,0,0,0,0,0,-1,636,582,0,0
-581,442,0,0,0,0,0,0,0,0,0,-1,643,582,0,0
-574,442,0,0,0,0,0,0,0,0,0,-1,650,582,0,0
-567,442,0,0,0,0,0,0,0,0,0,-1,657,582,0,0
-560,442,0,0,0,0,0,0,0,0,0,-1,664,582,0,0
-553,442,0,0,0,0,0,0,0,0,0,-1,671,582,0,0
-546,442,0,0,0,0,0,0,0,0,0,-1,678,582,0,0
-539,442,0,0,0,0,0,0,0,0,0,-1,685,582,0,0
-532,442,0,0,0,0,0,0,0,0,0,-1,692,582,0,0
-525,442,0,0,0,0,0,0,0,0,0,-1,699,582,0,0
-518,442,-0.493774,-5.72943,0,0,0,0,0,0,0,-1,706,582,-0.493791,5.72946
-511,442,-1.68738,-5.91357,0,0,0,0,0,0,0,-1,713,582,-1.68736,5.91359
-504,442,-3.20807,-6.34082,0,0,0,0,0,0,0,-1,720,582,-3.2081,6.34083
-497,442,-4.27875,-4.42181,0,0,0,0,0,0,0,-1,727,582,-4.27876,4.42182
-490,442,-3.33893,-0.272705,0,0,0,0,0,0,0,-1,734,582,-3.33895,0.272695
-483,442,-2.92401,-0.862793,0,0,0,0,0,0,0,-1,741,582,-2.92402,0.862785
-476,442,-3.17719,-2.38403,0,0,0,0,0,0,0,-1,748,582,-3.17716,2.38406
-469,442,-2.71564,-2.38586,0.00405089,-0.00709095,0.00135982,0.00421445,-0.0072545,0.119705,0.0066987,0.045799,755,582,-2.71567,2.38586
-462,442,-2.10706,-2.59314,0.0120692,-0.00235664,-0.00142921,0.0122094,-0.00249688,-0.097806,0.00908699,0.0342376,762,582,-2.10708,2.59315
-455,442,-2.17755,-2.78625,0.0139976,0.00103946,-0.00255412,0.0144828,0.000554201,-0.187753,0.0094759,0.0239177,769,582,-2.17754,2.78624
-448,442,-2.15033,-2.98456,0.0106103,0.00224344,-0.00271274,0.0114128,0.00144089,-0.287642,0.00717664,0.0134978,776,582,-2.15031,2.98454
-441,442,-2.15948,-3.1842,0.00791194,0.00260334,-0.0026043,0.00897619,0.00153908,-0.387945,0.00554279,0.0139096,783,582,-2.15951,3.18422
-434,442,-2.16559,-3.38275,0.00576311,0.00259417,-0.00233123,0.00699736,0.00135991,-0.486923,0.00428416,0.0127807,790,582,-2.16561,3.38277
-427,442,-2.18707,-3.59088,0.00383584,0.00214414,-0.00177005,0.00495176,0.00102823,-0.562505,0.0030174,0.0127103,797,582,-2.18709,3.59088
-420,442,-2.16235,-3.78638,0.0018187,0.0016128,-0.000851739,0.00257369,0.000857811,-0.725255,0.0015132,0.0134358,804,582,-2.16233,3.78639
-413,442,-2.15057,-3.99609,0.00039677,0.000859033,-4.29532e-05,0.000862991,0.000392813,-1.47893,0.000498915,0.0112662,811,582,-2.15056,3.99609
-406,442,-2.16724,-4.20386,-0.000433503,-1.21423e-05,0.000586731,0.000400587,-0.000846233,0.957766,0.000735019,0.00905186,818,582,-2.16725,4.20383
-399,442,-2.1673,-4.39557,-0.000955524,-0.00125955,0.00143283,0.000333336,-0.00254841,0.732549,0.00182026,0.0082726,825,582,-2.1673,4.39559
-392,442,-2.16852,-4.60199,-0.00147171,-0.00307274,0.00233215,0.000193496,-0.00473794,0.620073,0.00322506,0.0105789,832,582,-2.16853,4.60196
-385,442,-2.16351,-4.78271,-0.00191042,-0.00521362,0.00308314,-6.43712e-05,-0.00705967,0.539504,0.00468513,0.0116872,839,582,-2.16349,4.78272
-378,442,-2.16064,-4.9693,-0.00220256,-0.00758163,0.00383044,-0.000211721,-0.00957247,0.479316,0.00631225,0.0112815,846,582,-2.16066,4.9693
-371,442,-2.1485,-5.19946,-0.00237218,-0.01028,0.00444878,-0.000374197,-0.012278,0.422112,0.0080635,0.021805,853,582,-2.14853,5.19945
-364,442,-2.08337,-5.40845,-0.00231988,-0.0139138,0.00488361,-0.000536977,-0.0156967,0.350045,0.0102902,0.0390981,860,582,-2.08338,5.40846
-357,442,-2.00159,-5.63196,0,0,0,0,0,0,0,-1,867,582,-2.00157,5.63198
-350,442,-1.27777,-4.94824,0,0,0,0,0,0,0,-1,874,582,-1.27777,4.94823
-343,442,-1.57098,-4.42352,0,0,0,0,0,0,0,-1,881,582,-1.57096,4.42353
-336,442,-1.4054,-2.64313,0,0,0,0,0,0,0,-1,888,582,-1.40539,2.64315
-329,442,-0.952576,-2.76923,0,0,0,0,0,0,0,-1,895,582,-0.952571,2.7692
-322,442,-0.972534,-2.63208,0,0,0,0,0,0,0,-1,902,582,-0.972512,2.6321
-315,442,-0.445557,-2.89764,0,0,0,0,0,0,0,-1,909,582,-0.445582,2.89765
-308,442,-0.654175,-3.07831,0,0,0,0,0,0,0,-1,916,582,-0.654145,3.07832
-301,442,-1.37427,-2.41455,0,0,0,0,0,0,0,-1,923,582,-1.37425,2.41453
-294,442,-2.99963,-2.07855,0,0,0,0,0,0,0,-1,930,582,-2.99964,2.07857
-287,442,-5.00836,-2.38507,0,0,0,0,0,0,0,-1,937,582,-5.00839,2.38506
-280,442,0,0,0,0,0,0,0,0,0,-1,944,582,0,0
-273,442,0,0,0,0,0,0,0,0,0,-1,951,582,0,0
-266,442,0,0,0,0,0,0,0,0,0,-1,958,582,0,0
-259,442,0,0,0,0,0,0,0,0,0,-1,965,582,0,0
-252,442,0,0,0,0,0,0,0,0,0,-1,972,582,0,0
-245,442,0,0,0,0,0,0,0,0,0,-1,979,582,0,0
-238,442,0,0,0,0,0,0,0,0,0,-1,986,582,0,0
-231,442,0,0,0,0,0,0,0,0,0,-1,993,582,0,0
-224,442,0,0,0,0,0,0,0,0,0,-1,1000,582,0,0
-217,442,0,0,0,0,0,0,0,0,0,-1,1007,582,0,0
-210,442,0,0,0,0,0,0,0,0,0,-1,1014,582,0,0
-203,442,0,0,0,0,0,0,0,0,0,-1,1021,582,0,0
-196,442,0,0,0,0,0,0,0,0,0,-1,1028,582,0,0
-189,442,0,0,0,0,0,0,0,0,0,-1,1035,582,0,0
-182,442,0,0,0,0,0,0,0,0,0,-1,1042,582,0,0
-175,442,0,0,0,0,0,0,0,0,0,-1,1049,582,0,0
-168,442,0,0,0,0,0,0,0,0,0,-1,1056,582,0,0
-161,442,0,0,0,0,0,0,0,0,0,-1,1063,582,0,0
-154,442,0,0,0,0,0,0,0,0,0,-1,1070,582,0,0
-147,442,0,0,0,0,0,0,0,0,0,-1,1077,582,0,0
-140,442,0,0,0,0,0,0,0,0,0,-1,1084,582,0,0
-133,442,0,0,0,0,0,0,0,0,0,-1,1091,582,0,0
-126,442,0,0,0,0,0,0,0,0,0,-1,1098,582,0,0
-119,442,0,0,0,0,0,0,0,0,0,-1,1105,582,0,0
-112,442,0,0,0,0,0,0,0,0,0,-1,1112,582,0,0
-105,442,0,0,0,0,0,0,0,0,0,-1,1119,582,0,0
-98,442,0,0,0,0,0,0,0,0,0,-1,1126,582,0,0
-91,442,0,0,0,0,0,0,0,0,0,-1,1133,582,0,0
-84,442,0,0,0,0,0,0,0,0,0,-1,1140,582,0,0
-77,442,0,0,0,0,0,0,0,0,0,-1,1147,582,0,0
-70,442,0,0,0,0,0,0,0,0,0,-1,1154,582,0,0
-63,442,0,0,0,0,0,0,0,0,0,-1,1161,582,0,0
-56,442,0,0,0,0,0,0,0,0,0,-1,1168,582,0,0
-49,442,0,0,0,0,0,0,0,0,0,-1,1175,582,0,0
-42,442,0,0,0,0,0,0,0,0,0,-1,1182,582,0,0
-35,442,0,0,0,0,0,0,0,0,0,-1,1189,582,0,0
-28,442,0,0,0,0,0,0,0,0,0,-1,1196,582,0,0
-21,442,0,0,0,0,0,0,0,0,0,-1,1203,582,0,0
-14,442,0,0,0,0,0,0,0,0,0,-1,1210,582,0,0
-7,442,0,0,0,0,0,0,0,0,0,-1,1217,582,0,0
0,442,0,0,0,0,0,0,0,0,0,-1,1224,582,0,0
7,442,0,0,0,0,0,0,0,0,0,-1,1231,582,0,0
14,442,0,0,0,0,0,0,0,0,0,-1,1238,582,0,0
21,442,0,0,0,0,0,0,0,0,0,-1,1245,582,0,0
28,442,0,0,0,0,0,0,0,0,0,-1,1252,582,0,0
35,442,0,0,0,0,0,0,0,0,0,-1,1259,582,0,0
42,442,0,0,0,0,0,0,0,0,0,-1,1266,582,0,0
49,442,0,0,0,0,0,0,0,0,0,-1,1273,582,0,0
56,442,0,0,0,0,0,0,0,0,0,-1,1280,582,0,0
63,442,0,0,0,0,0,0,0,0,0,-1,1287,582,0,0
70,442,0,0,0,0,0,0,0,0,0,-1,1294,582,0,0
77,442,0,0,0,0,0,0,0,0,0,-1,1301,582,0,0
84,442,0,0,0,0,0,0,0,0,0,-1,1308,582,0,0
91,442,0,0,0,0,0,0,0,0,0,-1,1315,582,0,0
98,442,0,0,0,0,0,0,0,0,0,-1,1322,582,0,0
105,442,0,0,0,0,0,0,0,0,0,-1,1329,582,0,0
112,442,0,0,0,0,0,0,0,0,0,-1,1336,582,0,0
119,442,0,0,0,0,0,0,0,0,0,-1,1343,582,0,0
126,442,0,0,0,0,0,0,0,0,0,-1,1350,582,0,0
133,442,0,0,0,0,0,0,0,0,0,-1,1357,582,0,0
140,442,0,0,0,0,0,0,0,0,0,-1,1364,582,0,0
147,442,0,0,0,0,0,0,0,0,0,-1,1371,582,0,0
154,442,0,0,0,0,0,0,0,0,0,-1,1378,582,0,0
161,442,0,0,0,0,0,0,0,0,0,-1,1385,582,0,0
168,442,0,0,0,0,0,0,0,0,0,-1,1392,582,0,0
175,442,0,0,0,0,0,0,0,0,0,-1,1399,582,0,0
182,442,0,0,0,0,0,0,0,0,0,-1,1406,582,0,0
189,442,0,0,0,0,0,0,0,0,0,-1,1413,582,0,0
196,442,0,0,0,0,0,0,0,0,0,-1,1420,582,0,0
203,442,0,0,0,0,0,0,0,0,0,-1,1427,582,0,0
210,442,0,0,0,0,0,0,0,0,0,-1,1434,582,0,0
217,442,0,0,0,0,0,0,0,0,0,-1,1441,582,0,0
224,442,0,0,0,0,0,0,0,0,0,-1,1448,582,0,0
231,442,0,0,0,0,0,0,0,0,0,-1,1455,582,0,0
238,442,0,0,0,0,0,0,0,0,0,-1,1462,582,0,0
245,442,0,0,0,0,0,0,0,0,0,-1,1469,582,0,0
252,442,0,0,0,0,0,0,0,0,0,-1,1476,582,0,0
259,442,0,0,0,0,0,0,0,0,0,-1,1483,582,0,0
266,442,0,0,0,0,0,0,0,0,0,-1,1490,582,0,0
273,442,0,0,0,0,0,0,0,0,0,-1,1497,582,0,0
280,442,0,0,0,0,0,0,0,0,0,-1,1504,582,0,0
287,442,0,0,0,0,0,0,0,0,0,-1,1511,582,0,0
294,442,0,0,0,0,0,0,0,0,0,-1,1518,582,0,0
301,442,0,0,0,0,0,0,0,0,0,-1,1525,582,0,0
308,442,0,0,0,0,0,0,0,0,0,-1,1532,582,0,0
315,442,0,0,0,0,0,0,0,0,0,-1,1539,582,0,0
322,442,0,0,0,0,0,0,0,0,0,-1,1546,582,0,0
329,442,0,0,0,0,0,0,0,0,0,-1,1553,582,0,0
336,442,0,0,0,0,0,0,0,0,0,-1,1560,582,0,0
343,442,0,0,0,0,0,0,0,0,0,-1,1567,582,0,0
350,442,0,0,0,0,0,0,0,0,0,-1,1574,582,0,0
357,442,0,0,0,0,0,0,0,0,0,-1,1581,582,0,0
364,442,0,0,0,0,0,0,0,0,0,-1,1588,582,0,0
371,442,0,0,0,0,0,0,0,0,0,-1,1595,582,0,0
378,442,0,0,0,0,0,0,0,0,0,-1,1602,582,0,0
385,442,0,0,0,0,0,0,0,0,0,-1,1609,582,0,0
392,442,0,0,0,0,0,0,0,0,0,-1,1616,582,0,0
399,442,0,0,0,0,0,0,0,0,0,-1,1623,582,0,0
406,442,11.4988,3.2121,0,0,0,0,0,0,0,-1,1630,582,11.4988,-3.21209
413,442,3.66699,2.87408,0,0,0,0,0,0,0,-1,1637,582,3.66703,-2.87408
420,442,4.69055,3.09448,0,0,0,0,0,0,0,-1,1644,582,4.69054,-3.0945
427,442,2.44519,-1.35358,0,0,0,0,0,0,0,-1,1651,582,2.44514,1.35361
434,442,8.45898,-3.86719,0,0,0,0,0,0,0,-1,1658,582,8.45904,3.86719
441,442,4.89368,-7.42456,0,0,0,0,0,0,0,-1,1665,582,4.89365,7.42457
448,442,4.7749,-5.88562,0,0,0,0,0,0,0,-1,1672,582,4.7749,5.8856
455,442,4.87024,-4.60687,0,0,0,0,0,0,0,-1,1679,582,4.87019,4.60686
462,442,5.02307,-3.72821,0,0,0,0,0,0,0,-1,1686,582,5.02311,3.7282
469,442,5.12976,-2.98834,0,0,0,0,0,0,0,-1,1693,582,5.12971,2.98834
476,442,5.4624,1.76947,0,0,0,0,0,0,0,-1,1700,582,5.46234,-1.76944
483,442,5.98486,1.87042,0,0,0,0,0,0,0,-1,1707,582,5.98492,-1.87045
490,442,5.04407,-2.35834,0,0,0,0,0,0,0,-1,1714,582,5.04411,2.35837
497,442,6.20984,-3.07831,0,0,0,0,0,0,0,-1,1721,582,6.2098,3.07833
504,442,6.64673,-3.58252,0,0,0,0,0,0,0,-1,1728,582,6.64673,3.58255
511,442,6.77014,-3.36938,0.00507574,0.00050739,0.00223238,0.00598547,-0.000402332,0.386965,0.00413096,0.0215917,1735,582,6.77008,3.36938
518,442,6.8374,-3.1275,0.00379155,4.00656e-05,0.00155343,0.00435129,-0.000519672,0.345842,0.00308869,0.0101131,1742,582,6.83736,3.12753
525,442,6.82239,-2.91888,0.00295514,0.000138728,0.00128405,0.00345267,-0.000358802,0.369658,0.00243022,0.00936546,1749,582,6.82239,2.91885
532,442,6.82642,-2.69983,0.00231585,0.000266948,0.00105112,0.00275917,-0.000176374,0.399124,0.00190097,0.00998499,1756,582,6.82637,2.69982
539,442,6.82361,-2.46405,0.00187675,0.000389646,0.000863456,0.00227268,-6.28736e-06,0.429937,0.00151722,0.0110482,1763,582,6.82357,2.46406
546,442,6.83069,-2.23987,0.00177185,0.000666847,0.000892271,0.00226883,0.000169869,0.508187,0.00145923,0.0136605,1770,582,6.83073,2.23988
553,442,6.81287,-2.03412,0.00185861,0.000883991,0.000987812,0.00247278,0.000269829,0.556252,0.00156634,0.0144243,1777,582,6.81284,2.0341
560,442,6.84204,-1.81763,0.00435513,0.0017272,0.00213924,0.00555172,0.000530616,0.509993,0.00353756,0.0149986,1784,582,6.84204,1.81763
567,442,6.82263,-1.57593,0.0070091,0.00250252,0.00336661,0.0088069,0.000704715,0.490484,0.00565103,0.01031,1791,582,6.82258,1.57595
574,442,6.8125,-1.33423,0.0113947,0.00360891,0.00535813,0.0141248,0.000878806,0.471239,0.00913771,0.011639,1798,582,6.81251,1.33426
581,442,6.8418,-1.0871,0.0180453,0.00528878,0.00839209,0.0222079,0.00112621,0.460452,0.0144445,0.0168668,1805,582,6.8418,1.08712
588,442,6.82996,-0.979065,0.0279775,0.00781558,0.0129183,0.0342827,0.00151035,0.454072,0.0223687,0.0235992,1812,582,6.8299,0.979059
595,442,6.99658,-0.685608,0.0422752,0.0116863,0.0192719,0.0515841,0.00237737,0.44998,0.033625,0.0383973,1819,582,6.99652,0.685588
602,442,7.21118,-0.315002,0,0,0,0,0,0,0,-1,1826,582,7.21121,0.314976
609,442,9.38428,2.86908,0,0,0,0,0,0,0,-1,1833,582,9.38429,-2.86906
616,442,7.16003,-1.18372,0,0,0,0,0,0,0,-1,1840,582,7.16,1.18373
623,442,9.23828,0.326721,0,0,0,0,0,0,0,-1,1847,582,9.23829,-0.326727
630,442,7.74304,2.3924,0,0,0,0,0,0,0,-1,1854,582,7.7431,-2.39238
637,442,5.87805,1.84027,0,0,0,0,0,0,0,-1,1861,582,5.87807,-1.84025
644,442,0,0,0,0,0,0,0,0,0,-1,1868,582,0,0
651,442,0,0,0,0,0,0,0,0,0,-1,1875,582,0,0
658,442,0,0,0,0,0,0,0,0,0,-1,1882,582,0,0
665,442,0,0,0,0,0,0,0,0,0,-1,1889,582,0,0
672,442,0,0,0,0,0,0,0,0,0,-1,1896,582,0,0
679,442,0,0,0,0,0,0,0,0,0,-1,1903,582,0,0
686,442,0,0,0,0,0,0,0,0,0,-1,1910,582,0,0
693,442,0,0,0,0,0,0,0,0,0,-1,1917,582,0,0
700,442,0,0,0,0,0,0,0,0,0,-1,1924,582,0,0
707,442,0,0,0,0,0,0,0,0,0,-1,1931,582,0,0
714,442,0,0,0,0,0,0,0,0,0,-1,1938,582,0,0
721,442,0,0,0,0,0,0,0,0,0,-1,1945,582,0,0
728,442,0,0,0,0,0,0,0,0,0,-1,1952,582,0,0
735,442,0,0,0,0,0,0,0,0,0,-1,1959,582,0,0
742,442,0,0,0,0,0,0,0,0,0,-1,1966,582,0,0
749,442,0,0,0,0,0,0,0,0,0,-1,1973,582,0,0
756,442,0,0,0,0,0,0,0,0,0,-1,1980,582,0,0
763,442,0,0,0,0,0,0,0,0,0,-1,1987,582,0,0
770,442,0,0,0,0,0,0,0,0,0,-1,1994,582,0,0
777,442,0,0,0,0,0,0,0,0,0,-1,2001,582,0,0
784,442,0,0,0,0,0,0,0,0,0,-1,2008,582,0,0
791,442,0,0,0,0,0,0,0,0,0,-1,2015,582,0,0
798,442,0,0,0,0,0,0,0,0,0,-1,2022,582,0,0
805,442,0,0,0,0,0,0,0,0,0,-1,2029,582,0,0
812,442,0,0,0,0,0,0,0,0,0,-1,2036,582,0,0
-700,435,0,0,0,0,0,0,0,0,0,-1,524,589,0,0
-693,435,0,0,0,0,0,0,0,0,0,-1,531,589,0,0
-686,435,0,0,0,0,0,0,0,0,0,-1,538,589,0,0
-679,435,0,0,0,0,0,0,0,0,0,-1,545,589,0,0
-672,435,0,0,0,0,0,0,0,0,0,-1,552,589,0,0
-665,435,0,0,0,0,0,0,0,0,0,-1,559,589,0,0
-658,435,0,0,0,0,0,0,0,0,0,-1,566,589,0,0
-651,435,0,0,0,0,0,0,0,0,0,-1,573,589,0,0
-644,435,0,0,0,0,0,0,0,0,0,-1,580,589,0,0
-637,435,0,0,0,0,0,0,0,0,0,-1,587,589,0,0
-630,435,0,0,0,0,0,0,0,0,0,-1,594,589,0,0
-623,435,0,0,0,0,0,0,0,0,0,-1,601,589,0,0
-616,435,0,0,0,0,0,0,0,0,0,-1,608,589,0,0
-609,435,0,0,0,0,0,0,0,0,0,-1,615,589,0,0
-602,435,0,0,0,0,0,0,0,0,0,-1,622,589,0,0
-595,435,0,0,0,0,0,0,0,0,0,-1,629,589,0,0
-588,435,0,0,0,0,0,0,0,0,0,-1,636,589,0,0
-581,435,0,0,0,0,0,0,0,0,0,-1,643,589,0,0
-574,435,0,0,0,0,0,0,0,0,0,-1,650,589,0,0
-567,435,0,0,0,0,0,0,0,0,0,-1,657,589,0,0
-560,435,0,0,0,0,0,0,0,0,0,-1,664,589,0,0
-553,435,0,0,0,0,0,0,0,0,0,-1,671,589,0,0
-546,435,0,0,0,0,0,0,0,0,0,-1,678,589,0,0
-539,435,0,0,0,0,0,0,0,0,0,-1,685,589,0,0
-532,435,0,0,0,0,0,0,0,0,0,-1,692,589,0,0
-525,435,0.57843,-4.4433,0,0,0,0,0,0,0,-1,699,589,0.578429,4.44331
-518,435,-0.928711,-4.91492,-0.159815,-0.0559306,0.0309063,-0.0474312,-0.168315,1.30242,0.100213,0.0474236,706,589,-0.928723,4.91489
-511,435,-2.43555,-5.38599,-0.125988,-0.0502749,0.0274262,-0.0413841,-0.134879,1.25731,0.0797861,0.0482837,713,589,-2.43553,5.38597
-504,435,-3.89355,-5.72308,0,0,0,0,0,0,0,-1,720,589,-3.89353,5.72309
-497,435,-5.18701,-5.97711,0,0,0,0,0,0,0,-1,727,589,-5.18703,5.97714
-490,435,-3.56757,-1.71149,0,0,0,0,0,0,0,-1,734,589,-3.56754,1.71148
-483,435,-4.26788,-2.06433,0,0,0,0,0,0,0,-1,741,589,-4.26791,2.06432
-476,435,-3.37305,-2.17389,-0.00711213,-0.011583,0.00287836,-0.0057031,-0.012992,0.455234,0.00751954,0.0446746,748,589,-3.37303,2.1739
-469,435,-2.41626,-2.31421,0.000954569,-0.00629033,0.000396584,0.000976213,-0.00631198,0.0545226,0.00456829,0.0294815,755,589,-2.41624,2.3142
-462,435,-2.29834,-2.56915,0.00767314,-0.00229244,-0.00163368,0.00793412,-0.00255342,-0.15841,0.00631504,0.014812,762,589,-2.29836,2.56917
-455,435,-2.36041,-2.76428,0.00950844,0.000477785,-0.00226855,0.0100463,-6.0054e-05,-0.232787,0.00671762,0.0131208,769,589,-2.36042,2.76427
-448,435,-2.36432,-2.98743,0.00704206,0.00141561,-0.00214421,0.00776605,0.000691623,-0.325628,0.00496291,0.0125001,776,589,-2.36433,2.98742
-441,435,-2.35687,-3.17242,0.00500577,0.00154175,-0.00183897,0.00579996,0.00074756,-0.407671,0.00364311,0.0105077,783,589,-2.35687,3.17244
-434,435,-2.35608,-3.35083,0.00330599,0.00140313,-0.00140619,0.00405238,0.000656739,-0.487973,0.00251146,0.0111845,790,589,-2.35605,3.35081
-427,435,-2.37823,-3.58026,0.00170502,0.000859779,-0.000720776,0.00211794,0.00044686,-0.520241,0.00128909,0.00979237,797,589,-2.37825,3.58026
-420,435,-2.36029,-3.78003,-2.31573e-05,0.000286355,0.000241076,0.000418072,-0.000154875,1.07074,0.000342228,0.0103999,804,589,-2.36032,3.78004
-413,435,-2.35547,-3.99255,-0.00119815,-0.000465558,0.00105352,0.000283526,-0.00194724,0.952706,0.00140225,0.0109541,811,589,-2.35547,3.99256
-406,435,-2.35846,-4.20844,-0.00186724,-0.00127941,0.00174034,0.000191657,-0.00333831,0.869051,0.0022921,0.0111223,818,589,-2.35848,4.20842
-399,435,-2.36975,-4.40271,-0.00235383,-0.00244381,0.0025637,0.00016528,-0.00496292,0.776624,0.00336506,0.00941163,825,589,-2.36975,4.40268
-392,435,-2.37903,-4.58643,-0.0029194,-0.00421603,0.00349605,-1.20611e-05,-0.00712337,0.693718,0.0047449,0.0105676,832,589,-2.37904,4.58641
-385,435,-2.36041,-4.7879,-0.00349841,-0.00636663,0.00432465,-0.000376286,-0.00948875,0.625297,0.00620421,0.0128005,839,589,-2.3604,4.78789
-378,435,-2.34589,-4.9809,-0.00403138,-0.00894083,0.00524746,-0.000692875,-0.0122793,0.566622,0.00796531,0.0186847,846,589,-2.34592,4.98088
-371,435,-2.43347,-5.21851,-0.00443635,-0.0121047,0.00613307,-0.00103759,-0.0155035,0.506039,0.0100077,0.0357598,853,589,-2.4335,5.21852
-364,435,-2.39545,-5.08893,-0.00465747,-0.0165342,0.00691387,-0.00148179,-0.0197099,0.430577,0.0126749,0.0479092,860,589,-2.39546,5.08893
-357,435,-2.02197,-4.98987,0,0,0,0,0,0,0,-1,867,589,-2.02196,4.9899
-350,435,-0.86676,-3.69836,0,0,0,0,0,0,0,-1,874,589,-0.866784,3.69834
-343,435,-1.60706,-2.36835,0,0,0,0,0,0,0,-1,881,589,-1.60706,2.36838
-336,435,-2.07263,-1.94012,0,0,0,0,0,0,0,-1,888,589,-2.07265,1.94014
-329,435,-2.55963,-1.5517,0,0,0,0,0,0,0,-1,895,589,-2.5596,1.55168
-322,435,-3.08545,-1.55255,0,0,0,0,0,0,0,-1,902,589,-3.08544,1.55254
-315,435,-0.404297,-2.63763,0,0,0,0,0,0,0,-1,909,589,-0.404276,2.63761
-308,435,-1.70056,-1.90369,0,0,0,0,0,0,0,-1,916,589,-1.70056,1.90367
-301,435,-1.25232,-2.05511,0,0,0,0,0,0,0,-1,923,589,-1.25234,2.05514
-294,435,-1.79974,-1.97321,0,0,0,0,0,0,0,-1,930,589,-1.79973,1.97322
-287,435,0,0,0,0,0,0,0,0,0,-1,937,589,0,0
-280,435,0,0,0,0,0,0,0,0,0,-1,944,589,0,0
-273,435,0,0,0,0,0,0,0,0,0,-1,951,589,0,0
-266,435,0,0,0,0,0,0,0,0,0,-1,958,589,0,0
-259,435,0,0,0,0,0,0,0,0,0,-1,965,589,0,0
-252,435,0,0,0,0,0,0,0,0,0,-1,972,589,0,0
-245,435,0,0,0,0,0,0,0,0,0,-1,979,589,0,0
-238,435,0,0,0,0,0,0,0,0,0,-1,986,589,0,0
-231,435,0,0,0,0,0,0,0,0,0,-1,993,589,0,0
-224,435,0,0,0,0,0,0,0,0,0,-1,1000,589,0,0
-217,435,0,0,0,0,0,0,0,0,0,-1,1007,589,0,0
-210,435,0,0,0,0,0,0,0,0,0,-1,1014,589,0,0
-203,435,0,0,0,0,0,0,0,0,0,-1,1021,589,0,0
-196,435,0,0,0,0,0,0,0,0,0,-1,1028,589,0,0
-189,435,0,0,0,0,0,0,0,0,0,-1,1035,589,0,0
-182,435,0,0,0,0,0,0,0,0,0,-1,1042,589,0,0
-175,435,0,0,0,0,0,0,0,0,0,-1,1049,589,0,0
-168,435,0,0,0,0,0,0,0,0,0,-1,1056,589,0,0
-161,435,0,0,0,0,0,0,0,0,0,-1,1063,589,0,0
-154,435,0,0,0,0,0,0,0,0,0,-1,1070,589,0,0
-147,435,0,0,0,0,0,0,0,0,0,-1,1077,589,0,0
-140,435,0,0,0,0,0,0,0,0,0,-1,1084,589,0,0
-133,435,0,0,0,0,0,0,0,0,0,-1,1091,589,0,0
-126,435,0,0,0,0,0,0,0,0,0,-1,1098,589,0,0
-119,435,0,0,0,0,0,0,0,0,0,-1,1105,589,0,0
-112,435,0,0,0,0,0,0,0,0,0,-1,1112,589,0,0
-105,435,0,0,0,0,0,0,0,0,0,-1,1119,589,0,0
-98,435,0,0,0,0,0,0,0,0,0,-1,1126,589,0,0
-91,435,0,0,0,0,0,0,0,0,0,-1,1133,589,0,0
-84,435,0,0,0,0,0,0,0,0,0,-1,1140,589,0,0
-77,435,0,0,0,0,0,0,0,0,0,-1,1147,589,0,0
-70,435,0,0,0,0,0,0,0,0,0,-1,1154,589,0,0
-63,435,0,0,0,0,0,0,0,0,0,-1,1161,589,0,0
-56,435,0,0,0,0,0,0,0,0,0,-1,1168,589,0,0
-49,435,0,0,0,0,0,0,0,0,0,-1,1175,589,0,0
-42,435,0,0,0,0,0,0,0,0,0,-1,1182,589,0,0
-35,435,0,0,0,0,0,0,0,0,0,-1,1189,589,0,0
-28,435,0,0,0,0,0,0,0,0,0,-1,1196,589,0,0
-21,435,0,0,0,0,0,0,0,0,0,-1,1203,589,0,0
-14,435,0,0,0,0,0,0,0,0,0,-1,1210,589,0,0
-7,435,0,0,0,0,0,0,0,0,0,-1,1217,589,0,0
0,435,0,0,0,0,0,0,0,0,0,-1,1224,589,0,0
7,435,0,0,0,0,0,0,0,0,0,-1,1231,589,0,0
14,435,0,0,0,0,0,0,0,0,0,-1,1238,589,0,0
21,435,0,0,0,0,0,0,0,0,0,-1,1245,589,0,0
28,435,0,0,0,0,0,0,0,0,0,-1,1252,589,0,0
35,435,0,0,0,0,0,0,0,0,0,-1,1259,589,0,0
42,435,0,0,0,0,0,0,0,0,0,-1,1266,589,0,0
49,435,0,0,0,0,0,0,0,0,0,-1,1273,589,0,0
56,435,0,0,0,0,0,0,0,0,0,-1,1280,589,0,0
63,435,0,0,0,0,0,0,0,0,0,-1,1287,589,0,0
70,435,0,0,0,0,0,0,0,0,0,-1,1294,589,0,0
77,435,0,0,0,0,0,0,0,0,0,-1,1301,589,0,0
84,435,0,0,0,0,0,0,0,0,0,-1,1308,589,0,0
91,435,0,0,0,0,0,0,0,0,0,-1,1315,589,0,0
98,435,0,0,0,0,0,0,0,0,0,-1,1322,589,0,0
105,435,0,0,0,0,0,0,0,0,0,-1,1329,589,0,0
112,435,0,0,0,0,0,0,0,0,0,-1,1336,589,0,0
119,435,0,0,0,0,0,0,0,0,0,-1,1343,589,0,0
126,435,0,0,0,0,0,0,0,0,0,-1,1350,589,0,0
133,435,0,0,0,0,0,0,0,0,0,-1,1357,589,0,0
140,435,0,0,0,0,0,0,0,0,0,-1,1364,589,0,0
147,435,0,0,0,0,0,0,0,0,0,-1,1371,589,0,0
154,435,0,0,0,0,0,0,0,0,0,-1,1378,589,0,0
161,435,0,0,0,0,0,0,0,0,0,-1,1385,589,0,0
168,435,0,0,0,0,0,0,0,0,0,-1,1392,589,0,0
175,435,0,0,0,0,0,0,0,0,0,-1,1399,589,0,0
182,435,0,0,0,0,0,0,0,0,0,-1,1406,589,0,0
189,435,0,0,0,0,0,0,0,0,0,-1,1413,589,0,0
196,435,0,0,0,0,0,0,0,0,0,-1,1420,589,0,0
203,435,0,0,0,0,0,0,0,0,0,-1,1427,589,0,0
210,435,0,0,0,0,0,0,0,0,0,-1,1434,589,0,0
217,435,0,0,0,0,0,0,0,0,0,-1,1441,589,0,0
224,435,0,0,0,0,0,0,0,0,0,-1,1448,589,0,0
231,435,0,0,0,0,0,0,0,0,0,-1,1455,589,0,0
238,435,0,0,0,0,0,0,0,0,0,-1,1462,589,0,0
245,435,0,0,0,0,0,0,0,0,0,-1,1469,589,0,0
252,435,0,0,0,0,0,0,0,0,0,-1,1476,589,0,0
259,435,0,0,0,0,0,0,0,0,0,-1,1483,589,0,0
266,435,0,0,0,0,0,0,0,0,0,-1,1490,589,0,0
273,435,0,0,0,0,0,0,0,0,0,-1,1497,589,0,0
280,435,0,0,0,0,0,0,0,0,0,-1,1504,589,0,0
287,435,0,0,0,0,0,0,0,0,0,-1,1511,589,0,0
294,435,0,0,0,0,0,0,0,0,0,-1,1518,589,0,0
301,435,0,0,0,0,0,0,0,0,0,-1,1525,589,0,0
308,435,0,0,0,0,0,0,0,0,0,-1,1532,589,0,0
315,435,0,0,0,0,0,0,0,0,0,-1,1539,589,0,0
322,435,0,0,0,0,0,0,0,0,0,-1,1546,589,0,0
329,435,0,0,0,0,0,0,0,0,0,-1,1553,589,0,0
336,435,0,0,0,0,0,0,0,0,0,-1,1560,589,0,0
343,435,0,0,0,0,0,0,0,0,0,-1,1567,589,0,0
350,435,0,0,0,0,0,0,0,0,0,-1,1574,589,0,0
357,435,0,0,0,0,0,0,0,0,0,-1,1581,589,0,0
364,435,0,0,0,0,0,0,0,0,0,-1,1588,589,0,0
371,435,0,0,0,0,0,0,0,0,0,-1,1595,589,0,0
378,435,0,0,0,0,0,0,0,0,0,-1,1602,589,0,0
385,435,0,0,0,0,0,0,0,0,0,-1,1609,589,0,0
392,435,0,0,0,0,0,0,0,0,0,-1,1616,589,0,0
399,435,0,0,0,0,0,0,0,0,0,-1,1623,589,0,0
406,435,0,0,0,0,0,0,0,0,0,-1,1630,589,0,0
413,435,3.62073,3.42682,0,0,0,0,0,0,0,-1,1637,589,3.62069,-3.4268
420,435,3.6062,3.71564,0,0,0,0,0,0,0,-1,1644,589,3.60616,-3.71562
427,435,3.11963,0.640198,0,0,0,0,0,0,0,-1,1651,589,3.11967,-0.640192
434,435,2.72107,-1.34802,0,0,0,0,0,0,0,-1,1658,589,2.7211,1.34803
441,435,7.33191,-1.57452,0,0,0,0,0,0,0,-1,1665,589,7.33193,1.57452
448,435,7.4585,-0.00292969,0,0,0,0,0,0,0,-1,1672,589,7.45848,0.00294131
455,435,5.49915,-5.047,0,0,0,0,0,0,0,-1,1679,589,5.49914,5.04703
462,435,5.60669,-4.71466,0,0,0,0,0,0,0,-1,1686,589,5.60675,4.71469
469,435,5.87708,1.22351,0,0,0,0,0,0,0,-1,1693,589,5.87703,-1.22351
476,435,6.14136,1.37714,0,0,0,0,0,0,0,-1,1700,589,6.14138,-1.37712
483,435,6.49243,1.36169,0,0,0,0,0,0,0,-1,1707,589,6.49242,-1.36171
490,435,4.38391,-1.36218,0,0,0,0,0,0,0,-1,1714,589,4.38389,1.3622
497,435,7.23499,-3.64551,0,0,0,0,0,0,0,-1,1721,589,7.23495,3.64551
504,435,6.54053,-3.42755,0,0,0,0,0,0,0,-1,1728,589,6.54056,3.42753
511,435,6.84229,-3.30188,0.00538142,0.000726521,0.00242841,0.00641763,-0.000309691,0.403312,0.0043853,0.0457781,1735,589,6.84224,3.30191
518,435,7.04785,-3.1496,0.00382612,-8.79467e-06,0.00154265,0.00436964,-0.000552318,0.338749,0.00311357,0.0153097,1742,589,7.0478,3.1496
525,435,7.04846,-2.92188,0.00288498,-2.88987e-05,0.00120848,0.00332094,-0.000464864,0.346225,0.00238407,0.0111493,1749,589,7.04847,2.9219
532,435,7.05249,-2.70111,0.00218753,-6.69266e-05,0.00089763,0.00250127,-0.000380664,0.336245,0.00180781,0.0135145,1756,589,7.05254,2.7011
539,435,7.06555,-2.4668,0.00169074,-9.79837e-05,0.000628676,0.00188959,-0.000296836,0.306346,0.00136944,0.0146373,1763,589,7.0655,2.46679
546,435,7.05725,-2.23224,0.00151155,1.4618e-05,0.000557352,0.00169627,-0.000170106,0.320037,0.00119161,0.0132306,1770,589,7.05726,2.23223
553,435,7.05371,-2.01398,0.00154154,9.11326e-05,0.000587422,0.0017496,-0.00011693,0.340408,0.00120727,0.0102332,1777,589,7.05365,2.01396
560,435,7.05164,-1.80347,0.00314161,0.000604212,0.00132478,0.00370721,3.86133e-05,0.40351,0.0024587,0.00988639,1784,589,7.0516,1.80346
567,435,7.04724,-1.57208,0.00503564,0.00116804,0.00222205,0.00604754,0.000156153,0.427324,0.00398066,0.00897066,1791,589,7.04721,1.5721
574,435,7.02771,-1.33752,0.00822298,0.0019847,0.00371351,0.0099535,0.000254177,0.436085,0.00655258,0.00957913,1798,589,7.02768,1.33754
581,435,7.01221,-1.13812,0.0129484,0.00323748,0.00590956,0.0157413,0.000444512,0.441504,0.0103492,0.0168174,1805,589,7.01215,1.13813
588,435,7.03174,-0.931641,0.0197226,0.00506293,0.00906604,0.0240512,0.000734309,0.445449,0.0157951,0.0193974,1812,589,7.03174,0.931622
595,435,7.03076,-0.714294,0.0291519,0.00771824,0.0132377,0.0354671,0.00140312,0.445124,0.0231912,0.0215693,1819,589,7.03073,0.714298
602,435,7.02405,-0.473633,0.0422053,0.0112794,0.0188858,0.0511509,0.00233383,0.44236,0.0333499,0.0415679,1826,589,7.02402,0.473657
609,435,7.03418,-0.278503,0,0,0,0,0,0,0,-1,1833,589,7.03414,0.278533
616,435,5.05151,-2.75269,0,0,0,0,0,0,0,-1,1840,589,5.05157,2.7527
623,435,10.2273,3.77734,0,0,0,0,0,0,0,-1,1847,589,10.2273,-3.77732
630,435,4.72742,-0.87561,0,0,0,0,0,0,0,-1,1854,589,4.7274,0.875636
637,435,5.05286,1.48792,0,0,0,0,0,0,0,-1,1861,589,5.05291,-1.48792
644,435,0,0,0,0,0,0,0,0,0,-1,1868,589,0,0
651,435,0,0,0,0,0,0,0,0,0,-1,1875,589,0,0
658,435,0,0,0,0,0,0,0,0,0,-1,1882,589,0,0
665,435,0,0,0,0,0,0,0,0,0,-1,1889,589,0,0
672,435,0,0,0,0,0,0,0,0,0,-1,1896,589,0,0
679,435,0,0,0,0,0,0,0,0,0,-1,1903,589,0,0
686,435,0,0,0,0,0,0,0,0,0,-1,1910,589,0,0
693,435,0,0,0,0,0,0,0,0,0,-1,1917,589,0,0
700,435,0,0,0,0,0,0,0,0,0,-1,1924,589,0,0
707,435,0,0,0,0,0,0,0,0,0,-1,1931,589,0,0
714,435,0,0,0,0,0,0,0,0,0,-1,1938,589,0,0
721,435,0,0,0,0,0,0,0,0,0,-1,1945,589,0,0
728,435,0,0,0,0,0,0,0,0,0,-1,1952,589,0,0
735,435,0,0,0,0,0,0,0,0,0,-1,1959,589,0,0
742,435,0,0,0,0,0,0,0,0,0,-1,1966,589,0,0
749,435,0,0,0,0,0,0,0,0,0,-1,1973,589,0,0
756,435,0,0,0,0,0,0,0,0,0,-1,1980,589,0,0
763,435,0,0,0,0,0,0,0,0,0,-1,1987,589,0,0
770,435,0,0,0,0,0,0,0,0,0,-1,1994,589,0,0
777,435,0,0,0,0,0,0,0,0,0,-1,2001,589,0,0
784,435,0,0,0,0,0,0,0,0,0,-1,2008,589,0,0
791,435,0,0,0,0,0,0,0,0,0,-1,2015,589,0,0
798,435,0,0,0,0,0,0,0,0,0,-1,2022,589,0,0
805,435,0,0,0,0,0,0,0,0,0,-1,2029,589,0,0
812,435,0,0,0,0,0,0,0,0,0,-1,2036,589,0,0
-700,428,0,0,0,0,0,0,0,0,0,-1,524,596,0,0
-693,428,0,0,0,0,0,0,0,0,0,-1,531,596,0,0
-686,428,0,0,0,0,0,0,0,0,0,-1,538,596,0,0
-679,428,0,0,0,0,0,0,0,0,0,-1,545,596,0,0
-672,428,0,0,0,0,0,0,0,0,0,-1,552,596,0,0
-665,428,0,0,0,0,0,0,0,0,0,-1,559,596,0,0
-658,428,0,0,0,0,0,0,0,0,0,-1,566,596,0,0
-651,428,0,0,0,0,0,0,0,0,0,-1,573,596,0,0
-644,428,0,0,0,0,0,0,0,0,0,-1,580,596,0,0
-637,428,0,0,0,0,0,0,0,0,0,-1,587,596,0,0
-630,428,0,0,0,0,0,0,0,0,0,-1,594,596,0,0
-623,428,0,0,0,0,0,0,0,0,0,-1,601,596,0,0
-616,428,0,0,0,0,0,0,0,0,0,-1,608,596,0,0
-609,428,0,0,0,0,0,0,0,0,0,-1,615,596,0,0
-602,428,0,0,0,0,0,0,0,0,0,-1,622,596,0,0
-595,428,0,0,0,0,0,0,0,0,0,-1,629,596,0,0
-588,428,0,0,0,0,0,0,0,0,0,-1,636,596,0,0
-581,428,0,0,0,0,0,0,0,0,0,-1,643,596,0,0
-574,428,0,0,0,0,0,0,0,0,0,-1,650,596,0,0
-567,428,0,0,0,0,0,0,0,0,0,-1,657,596,0,0
-560,428,0,0,0,0,0,0,0,0,0,-1,664,596,0,0
-553,428,0,0,0,0,0,0,0,0,0,-1,671,596,0,0
-546,428,0,0,0,0,0,0,0,0,0,-1,678,596,0,0
-539,428,0,0,0,0,0,0,0,0,0,-1,685,596,0,0
-532,428,0,0,0,0,0,0,0,0,0,-1,692,596,0,0
-525,428,-0.880249,-4.03839,0,0,0,0,0,0,0,-1,699,596,-0.880228,4.03838
-518,428,-2.09711,-4.5094,-0.126286,-0.0469968,0.0263553,-0.0390358,-0.134247,1.27745,0.0797376,0.0470772,706,596,-2.09711,4.50942
-511,428,-3.32758,-4.85852,-0.102726,-0.0435621,0.022032,-0.0362591,-0.110029,1.25072,0.0647442,0.0474373,713,596,-3.32759,4.85853
-504,428,-4.19916,-4.97797,0,0,0,0,0,0,0,-1,720,596,-4.19918,4.97795
-497,428,-2.85516,-3.52179,0,0,0,0,0,0,0,-1,727,596,-2.85517,3.52181
-490,428,-3.16364,-1.86224,0,0,0,0,0,0,0,-1,734,596,-3.16362,1.86221
-483,428,-3.0827,-1.77332,0,0,0,0,0,0,0,-1,741,596,-3.08271,1.77331
-476,428,-2.81396,-2.03003,-0.00721417,-0.0103529,0.000436356,-0.00715464,-0.0104124,0.1356,0.00615033,0.0370354,748,596,-2.81394,2.03003
-469,428,-2.52106,-2.31927,-0.000681509,-0.00580283,-0.0012724,-0.000382802,-0.00610153,-0.230583,0.00394628,0.0185297,755,596,-2.52108,2.31925
-462,428,-2.54846,-2.52795,0.0048026,-0.00248883,-0.00260618,0.00563834,-0.00332457,-0.310315,0.0052319,0.0162271,762,596,-2.54846,2.52797
-455,428,-2.57233,-2.75244,0.0065191,-0.000284391,-0.00274266,0.00748703,-0.00125232,-0.33927,0.00545691,0.0119795,769,596,-2.57234,2.75244
-448,428,-2.58441,-2.9765,0.0048582,0.00046925,-0.00226137,0.00581484,-0.000487386,-0.400204,0.00404881,0.0102376,776,596,-2.58439,2.97648
-441,428,-2.5697,-3.1864,0.00333304,0.000422533,-0.00165825,0.00408403,-0.000328465,-0.425252,0.00283852,0.0123621,783,596,-2.56968,3.18641
-434,428,-2.56268,-3.39734,0.00190462,0.000188557,-0.000954884,0.00233034,-0.000237164,-0.419386,0.00163835,0.00943589,790,596,-2.56268,3.39736
-427,428,-2.56641,-3.6153,0.000449104,-0.000419956,-3.85527e-05,0.00045081,-0.000421662,-0.0442455,0.000503816,0.0101632,797,596,-2.56642,3.61528
-420,428,-2.55432,-3.78369,-0.00114453,-0.00103473,0.00104558,-4.26113e-05,-0.00213665,0.811628,0.00141044,0.0108934,804,596,-2.5543,3.78372
-413,428,-2.5415,-3.97821,-0.00225215,-0.00179386,0.00195094,-5.86472e-05,-0.00398736,0.843857,0.00263891,0.0133,811,596,-2.54153,3.97824
-406,428,-2.56036,-4.21069,-0.00299857,-0.00255498,0.00276374,-4.1537e-06,-0.0055494,0.825438,0.00369822,0.0162754,818,596,-2.56037,4.21066
-399,428,-2.57916,-4.40948,-0.00370378,-0.00363774,0.00363658,-3.40303e-05,-0.00730749,0.789938,0.00486036,0.0143107,825,596,-2.57913,4.40948
-392,428,-2.55774,-4.60449,-0.00456333,-0.00534812,0.00467896,-0.000260342,-0.00965111,0.743564,0.00634907,0.0123161,832,596,-2.55772,4.60447
-385,428,-2.55725,-4.81378,-0.00552394,-0.00753083,0.00569805,-0.00074165,-0.0123131,0.69824,0.00797303,0.019416,839,596,-2.55724,4.81376
-378,428,-2.59088,-4.88031,-0.00651402,-0.0102867,0.00687454,-0.00127172,-0.015529,0.651496,0.00995588,0.0353163,846,596,-2.59088,4.8803
-371,428,-2.88324,-5.00787,-0.00744192,-0.0139481,0.0081605,-0.00191002,-0.01948,0.595731,0.0123992,0.0458337,853,596,-2.88324,5.00789
-364,428,-2.88141,-4.93121,0,0,0,0,0,0,0,-1,860,596,-2.88141,4.93124
-357,428,-3.20996,-4.70966,0,0,0,0,0,0,0,-1,867,596,-3.20997,4.70965
-350,428,-1.62793,-3.94055,0,0,0,0,0,0,0,-1,874,596,-1.62794,3.94055
-343,428,-0.0567017,-4.80994,0,0,0,0,0,0,0,-1,881,596,-0.0567096,4.80996
-336,428,-3.29175,-1.39569,0,0,0,0,0,0,0,-1,888,596,-3.29172,1.39568
-329,428,-3.71564,-0.791321,0,0,0,0,0,0,0,-1,895,596,-3.71564,0.791299
-322,428,-5.52863,-3.59827,0,0,0,0,0,0,0,-1,902,596,-5.52865,3.59829
-315,428,-4.57172,-1.22052,0,0,0,0,0,0,0,-1,909,596,-4.57171,1.22052
-308,428,-5.26538,-1.1521,0,0,0,0,0,0,0,-1,916,596,-5.26539,1.15209
-301,428,0,0,0,0,0,0,0,0,0,-1,923,596,0,0
-294,428,0,0,0,0,0,0,0,0,0,-1,930,596,0,0
-287,428,0,0,0,0,0,0,0,0,0,-1,937,596,0,0
-280,428,0,0,0,0,0,0,0,0,0,-1,944,596,0,0
-273,428,0,0,0,0,0,0,0,0,0,-1,951,596,0,0
-266,428,0,0,0,0,0,0,0,0,0,-1,958,596,0,0
-259,428,0,0,0,0,0,0,0,0,0,-1,965,596,0,0
-252,428,0,0,0,0,0,0,0,0,0,-1,972,596,0,0
-245,428,0,0,0,0,0,0,0,0,0,-1,979,596,0,0
-238,428,0,0,0,0,0,0,0,0,0,-1,986,596,0,0
-231,428,0,0,0,0,0,0,0,0,0,-1,993,596,0,0
-224,428,0,0,0,0,0,0,0,0,0,-1,1000,596,0,0
-217,428,0,0,0,0,0,0,0,0,0,-1,1007,596,0,0
-210,428,0,0,0,0,0,0,0,0,0,-1,1014,596,0,0
-203,428,0,0,0,0,0,0,0,0,0,-1,1021,596,0,0
-196,428,0,0,0,0,0,0,0,0,0,-1,1028,596,0,0
-189,428,0,0,0,0,0,0,0,0,0,-1,1035,596,0,0
-182,428,0,0,0,0,0,0,0,0,0,-1,1042,596,0,0
-175,428,0,0,0,0,0,0,0,0,0,-1,1049,596,0,0
-168,428,0,0,0,0,0,0,0,0,0,-1,1056,596,0,0
-161,428,0,0,0,0,0,0,0,0,0,-1,1063,596,0,0
-154,428,0,0,0,0,0,0,0,0,0,-1,1070,596,0,0
-147,428,0,0,0,0,0,0,0,0,0,-1,1077,596,0,0
-140,428,0,0,0,0,0,0,0,0,0,-1,1084,596,0,0
-133,428,0,0,0,0,0,0,0,0,0,-1,1091,596,0,0
-126,428,0,0,0,0,0,0,0,0,0,-1,1098,596,0,0
-119,428,0,0,0,0,0,0,0,0,0,-1,1105,596,0,0
-112,428,0,0,0,0,0,0,0,0,0,-1,1112,596,0,0
-105,428,0,0,0,0,0,0,0,0,0,-1,1119,596,0,0
-98,428,0,0,0,0,0,0,0,0,0,-1,1126,596,0,0
-91,428,0,0,0,0,0,0,0,0,0,-1,1133,596,0,0
-84,428,0,0,0,0,0,0,0,0,0,-1,1140,596,0,0
-77,428,0,0,0,0,0,0,0,0,0,-1,1147,596,0,0
-70,428,0,0,0,0,0,0,0,0,0,-1,1154,596,0,0
-63,428,0,0,0,0,0,0,0,0,0,-1,1161,596,0,0
-56,428,0,0,0,0,0,0,0,0,0,-1,1168,596,0,0
-49,428,0,0,0,0,0,0,0,0,0,-1,1175,596,0,0
-42,428,0,0,0,0,0,0,0,0,0,-1,1182,596,0,0
-35,428,0,0,0,0,0,0,0,0,0,-1,1189,596,0,0
-28,428,0,0,0,0,0,0,0,0,0,-1,1196,596,0,0
-21,428,0,0,0,0,0,0,0,0,0,-1,1203,596,0,0
-14,428,0,0,0,0,0,0,0,0,0,-1,1210,596,0,0
-7,428,0,0,0,0,0,0,0,0,0,-1,1217,596,0,0
0,428,0,0,0,0,0,0,0,0,0,-1,1224,596,0,0
7,428,0,0,0,0,0,0,0,0,0,-1,1231,596,0,0
14,428,0,0,0,0,0,0,0,0,0,-1,1238,596,0,0
21,428,0,0,0,0,0,0,0,0,0,-1,1245,596,0,0
28,428,0,0,0,0,0,0,0,0,0,-1,1252,596,0,0
35,428,0,0,0,0,0,0,0,0,0,-1,1259,596,0,0
42,428,0,0,0,0,0,0,0,0,0,-1,1266,596,0,0
49,428,0,0,0,0,0,0,0,0,0,-1,1273,596,0,0
56,428,0,0,0,0,0,0,0,0,0,-1,1280,596,0,0
63,428,0,0,0,0,0,0,0,0,0,-1,1287,596,0,0
70,428,0,0,0,0,0,0,0,0,0,-1,1294,596,0,0
77,428,0,0,0,0,0,0,0,0,0,-1,1301,596,0,0
84,428,0,0,0,0,0,0,0,0,0,-1,1308,596,0,0
91,428,0,0,0,0,0,0,0,0,0,-1,1315,596,0,0
98,428,0,0,0,0,0,0,0,0,0,-1,1322,596,0,0
105,428,0,0,0,0,0,0,0,0,0,-1,1329,596,0,0
112,428,0,0,0,0,0,0,0,0,0,-1,1336,596,0,0
119,428,0,0,0,0,0,0,0,0,0,-1,1343,596,0,0
126,428,0,0,0,0,0,0,0,0,0,-1,1350,596,0,0
133,428,0,0,0,0,0,0,0,0,0,-1,1357,596,0,0
140,428,0,0,0,0,0,0,0,0,0,-1,1364,596,0,0
147,428,0,0,0,0,0,0,0,0,0,-1,1371,596,0,0
154,428,0,0,0,0,0,0,0,0,0,-1,1378,596,0,0
161,428,0,0,0,0,0,0,0,0,0,-1,1385,596,0,0
168,428,0,0,0,0,0,0,0,0,0,-1,1392,596,0,0
175,428,0,0,0,0,0,0,0,0,0,-1,1399,596,0,0
182,428,0,0,0,0,0,0,0,0,0,-1,1406,596,0,0
189,428,0,0,0,0,0,0,0,0,0,-1,1413,596,0,0
196,428,0,0,0,0,0,0,0,0,0,-1,1420,596,0,0
203,428,0,0,0,0,0,0,0,0,0,-1,1427,596,0,0
210,428,0,0,0,0,0,0,0,0,0,-1,1434,596,0,0
217,428,0,0,0,0,0,0,0,0,0,-1,1441,596,0,0
224,428,0,0,0,0,0,0,0,0,0,-1,1448,596,0,0
231,428,0,0,0,0,0,0,0,0,0,-1,1455,596,0,0
238,428,0,0,0,0,0,0,0,0,0,-1,1462,596,0,0
245,428,0,0,0,0,0,0,0,0,0,-1,1469,596,0,0
252,428,0,0,0,0,0,0,0,0,0,-1,1476,596,0,0
259,428,0,0,0,0,0,0,0,0,0,-1,1483,596,0,0
266,428,0,0,0,0,0,0,0,0,0,-1,1490,596,0,0
273,428,0,0,0,0,0,0,0,0,0,-1,1497,596,0,0
280,428,0,0,0,0,0,0,0,0,0,-1,1504,596,0,0
287,428,0,0,0,0,0,0,0,0,0,-1,1511,596,0,0
294,428,0,0,0,0,0,0,0,0,0,-1,1518,596,0,0
301,428,0,0,0,0,0,0,0,0,0,-1,1525,596,0,0
308,428,0,0,0,0,0,0,0,0,0,-1,1532,596,0,0
315,428,0,0,0,0,0,0,0,0,0,-1,1539,596,0,0
322,428,0,0,0,0,0,0,0,0,0,-1,1546,596,0,0
329,428,0,0,0,0,0,0,0,0,0,-1,1553,596,0,0
336,428,0,0,0,0,0,0,0,0,0,-1,1560,596,0,0
343,428,0,0,0,0,0,0,0,0,0,-1,1567,596,0,0
350,428,0,0,0,0,0,0,0,0,0,-1,1574,596,0,0
357,428,0,0,0,0,0,0,0,0,0,-1,1581,596,0,0
364,428,0,0,0,0,0,0,0,0,0,-1,1588,596,0,0
371,428,0,0,0,0,0,0,0,0,0,-1,1595,596,0,0
378,428,0,0,0,0,0,0,0,0,0,-1,1602,596,0,0
385,428,0,0,0,0,0,0,0,0,0,-1,1609,596,0,0
392,428,0,0,0,0,0,0,0,0,0,-1,1616,596,0,0
399,428,0,0,0,0,0,0,0,0,0,-1,1623,596,0,0
406,428,0,0,0,0,0,0,0,0,0,-1,1630,596,0,0
413,428,0,0,0,0,0,0,0,0,0,-1,1637,596,0,0
420,428,2.95886,0.551819,0,0,0,0,0,0,0,-1,1644,596,2.9589,-0.551797
427,428,3.19385,0.384705,0,0,0,0,0,0,0,-1,1651,596,3.19383,-0.384692
434,428,8.18152,1.80432,0,0,0,0,0,0,0,-1,1658,596,8.18148,-1.80434
441,428,8.17993,0.607483,0,0,0,0,0,0,0,-1,1665,596,8.17997,-0.607513
448,428,7.84338,-0.385986,0,0,0,0,0,0,0,-1,1672,596,7.84336,0.385978
455,428,6.64038,2.1123,0,0,0,0,0,0,0,-1,1679,596,6.64037,-2.11229
462,428,4.84106,4.12341,0,0,0,0,0,0,0,-1,1686,596,4.84107,-4.12339
469,428,7.83789,3.10083,0,0,0,0,0,0,0,-1,1693,596,7.83785,-3.10086
476,428,7.61255,1.73956,0,0,0,0,0,0,0,-1,1700,596,7.61252,-1.73958
483,428,7.22766,1.05121,0,0,0,0,0,0,0,-1,1707,596,7.2277,-1.05121
490,428,5.4071,-3.2793,0,0,0,0,0,0,0,-1,1714,596,5.40707,3.27929
497,428,7.84106,-3.65491,0,0,0,0,0,0,0,-1,1721,596,7.84107,3.65491
504,428,6.92139,-2.83356,0,0,0,0,0,0,0,-1,1728,596,6.92137,2.83353
511,428,7.00488,-3.41779,0,0,0,0,0,0,0,-1,1735,596,7.00489,3.41776
518,428,7.23547,-3.20599,0,0,0,0,0,0,0,-1,1742,596,7.23553,3.206
525,428,7.18799,-2.95532,0.00311516,-0.000189715,0.00107505,0.00343409,-0.000508642,0.288392,0.00247642,0.0308304,1749,596,7.188,2.9553
532,428,7.24146,-2.67841,0.00213238,-0.000299107,0.000702844,0.00232093,-0.00048765,0.262087,0.00173286,0.017808,1756,596,7.2415,2.67842
539,428,7.29724,-2.4693,0.00137554,-0.000374306,0.000379227,0.00145419,-0.000452957,0.204499,0.00115056,0.019204,1763,596,7.29718,2.4693
546,428,7.28857,-2.24194,0.000957466,-0.000331231,0.000227728,0.000996524,-0.000370289,0.169861,0.000816273,0.0151158,1770,596,7.28857,2.24195
553,428,7.27283,-2.00769,0.000823809,-0.000303991,0.000216835,0.000864062,-0.000344244,0.183548,0.000718812,0.0108618,1777,596,7.27278,2.00772
560,428,7.27869,-1.79413,0.00161232,-1.45413e-05,0.000623394,0.00182373,-0.000225947,0.32695,0.00129771,0.0123303,1784,596,7.27864,1.7941
567,428,7.29077,-1.57813,0.00289605,0.000422323,0.00127693,0.00343693,-0.000118561,0.400668,0.00233181,0.0114915,1791,596,7.29074,1.57813
574,428,7.27429,-1.34314,0.00519131,0.00104108,0.00240043,0.00628923,-5.68391e-05,0.428979,0.00421189,0.0127692,1798,596,7.27427,1.34313
581,428,7.25403,-1.1167,0.0085529,0.00198001,0.00399294,0.0104379,9.49674e-05,0.441075,0.00692719,0.0112552,1805,596,7.25406,1.11669
588,428,7.24573,-0.887085,0.0131793,0.00329677,0.00620554,0.0161706,0.000305519,0.449168,0.01068,0.0148404,1812,596,7.24576,0.88706
595,428,7.2345,-0.671387,0.0194279,0.00506675,0.00893437,0.0237096,0.000785064,0.446901,0.0155513,0.00943561,1819,596,7.23447,0.671383
602,428,7.24414,-0.447266,0.0278169,0.00738077,0.012485,0.0337322,0.00146547,0.442461,0.0220159,0.0197017,1826,596,7.24408,0.447289
609,428,7.2561,-0.180359,0,0,0,0,0,0,0,-1,1833,596,7.25613,0.180348
616,428,5.88977,-0.239319,0,0,0,0,0,0,0,-1,1840,596,5.88983,0.239293
623,428,6.41541,0.466675,0,0,0,0,0,0,0,-1,1847,596,6.41543,-0.466696
630,428,4.94434,0.773193,0,0,0,0,0,0,0,-1,1854,596,4.9443,-0.773171
637,428,3.95435,1.90857,0,0,0,0,0,0,0,-1,1861,596,3.95439,-1.90858
644,428,5.75476,0.888977,0,0,0,0,0,0,0,-1,1868,596,5.75472,-0.888955
651,428,0,0,0,0,0,0,0,0,0,-1,1875,596,0,0
658,428,0,0,0,0,0,0,0,0,0,-1,1882,596,0,0
665,428,0,0,0,0,0,0,0,0,0,-1,1889,596,0,0
672,428,0,0,0,0,0,0,0,0,0,-1,1896,596,0,0
679,428,0,0,0,0,0,0,0,0,0,-1,1903,596,0,0
686,428,0,0,0,0,0,0,0,0,0,-1,1910,596,0,0
693,428,0,0,0,0,0,0,0,0,0,-1,1917,596,0,0
700,428,0,0,0,0,0,0,0,0,0,-1,1924,596,0,0
707,428,0,0,0,0,0,0,0,0,0,-1,1931,596,0,0
714,428,0,0,0,0,0,0,0,0,0,-1,1938,596,0,0
721,428,0,0,0,0,0,0,0,0,0,-1,1945,596,0,0
728,428,0,0,0,0,0,0,0,0,0,-1,1952,596,0,0
735,428,0,0,0,0,0,0,0,0,0,-1,1959,596,0,0
742,428,0,0,0,0,0,0,0,0,0,-1,1966,596,0,0
749,428,0,0,0,0,0,0,0,0,0,-1,1973,596,0,0
756,428,0,0,0,0,0,0,0,0,0,-1,1980,596,0,0
763,428,0,0,0,0,0,0,0,0,0,-1,1987,596,0,0
770,428,0,0,0,0,0,0,0,0,0,-1,1994,596,0,0
777,428,0,0,0,0,0,0,0,0,0,-1,2001,596,0,0
784,428,0,0,0,0,0,0,0,0,0,-1,2008,596,0,0
791,428,0,0,0,0,0,0,0,0,0,-1,2015,596,0,0
798,428,0,0,0,0,0,0,0,0,0,-1,2022,596,0,0
805,428,0,0,0,0,0,0,0,0,0,-1,2029,596,0,0
812,428,0,0,0,0,0,0,0,0,0,-1,2036,596,0,0
-700,421,0,0,0,0,0,0,0,0,0,-1,524,603,0,0
-693,421,0,0,0,0,0,0,0,0,0,-1,531,603,0,0
-686,421,0,0,0,0,0,0,0,0,0,-1,538,603,0,0
-679,421,0,0,0,0,0,0,0,0,0,-1,545,603,0,0
-672,421,0,0,0,0,0,0,0,0,0,-1,552,603,0,0
-665,421,0,0,0,0,0,0,0,0,0,-1,559,603,0,0
-658,421,0,0,0,0,0,0,0,0,0,-1,566,603,0,0
-651,421,0,0,0,0,0,0,0,0,0,-1,573,603,0,0
-644,421,0,0,0,0,0,0,0,0,0,-1,580,603,0,0
-637,421,0,0,0,0,0,0,0,0,0,-1,587,603,0,0
-630,421,0,0,0,0,0,0,0,0,0,-1,594,603,0,0
-623,421,0,0,0,0,0,0,0,0,0,-1,601,603,0,0
-616,421,0,0,0,0,0,0,0,0,0,-1,608,603,0,0
-609,421,0,0,0,0,0,0,0,0,0,-1,615,603,0,0
-602,421,0,0,0,0,0,0,0,0,0,-1,622,603,0,0
-595,421,0,0,0,0,0,0,0,0,0,-1,629,603,0,0
-588,421,0,0,0,0,0,0,0,0,0,-1,636,603,0,0
-581,421,0,0,0,0,0,0,0,0,0,-1,643,603,0,0
-574,421,0,0,0,0,0,0,0,0,0,-1,650,603,0,0
-567,421,0,0,0,0,0,0,0,0,0,-1,657,603,0,0
-560,421,0,0,0,0,0,0,0,0,0,-1,664,603,0,0
-553,421,0,0,0,0,0,0,0,0,0,-1,671,603,0,0
-546,421,0,0,0,0,0,0,0,0,0,-1,678,603,0,0
-539,421,0,0,0,0,0,0,0,0,0,-1,685,603,0,0
-532,421,-9.85718,5.32794,0,0,0,0,0,0,0,-1,692,603,-9.85718,-5.32797
-525,421,-10.3297,5.08777,0,0,0,0,0,0,0,-1,699,603,-10.3297,-5.08777
-518,421,-3.18958,-4.09619,0,0,0,0,0,0,0,-1,706,603,-3.1896,4.09622
-511,421,-4.08118,-4.24005,0,0,0,0,0,0,0,-1,713,603,-4.08115,4.24002
-504,421,-4.97272,-4.38385,0,0,0,0,0,0,0,-1,720,603,-4.9727,4.38383
-497,421,-2.38947,-2.39032,0,0,0,0,0,0,0,-1,727,603,-2.38947,2.39029
-490,421,-2.63654,-2.04108,-0.0268222,-0.0213033,0.00697782,-0.0165591,-0.0315664,0.973693,0.0182322,0.0471846,734,603,-2.63655,2.04107
-483,421,-2.75262,-1.87128,-0.0141556,-0.014792,0.0035298,-0.0109297,-0.0180179,0.740451,0.0104812,0.0361883,741,603,-2.75264,1.87128
-476,421,-2.76117,-2.12415,-0.00578674,-0.00959879,0.00115163,-0.00546585,-0.00991969,0.271752,0.00573706,0.0196698,748,603,-2.76115,2.12417
-469,421,-2.76917,-2.3335,-0.000939815,-0.0057338,-0.000255685,-0.000926217,-0.0057474,-0.0531336,0.00356322,0.0162072,755,603,-2.76915,2.3335
-462,421,-2.77673,-2.54694,0.00322608,-0.0029363,-0.00137188,0.00351769,-0.00322791,-0.209445,0.00389577,0.0185237,762,603,-2.77671,2.54694
-455,421,-2.77368,-2.75256,0.00461407,-0.00110146,-0.00154794,0.00500637,-0.00149376,-0.24821,0.00393127,0.0174747,769,603,-2.77371,2.75258
-448,421,-2.7691,-2.97632,0.00348869,-0.000363722,-0.00123617,0.00385123,-0.000726267,-0.285281,0.0028407,0.0166742,776,603,-2.76912,2.97632
-441,421,-2.78577,-3.20551,0.00227676,-0.000455484,-0.000743193,0.00246583,-0.000644555,-0.249119,0.00189562,0.0142179,783,603,-2.78579,3.2055
-434,421,-2.78351,-3.41272,0.000973727,-0.000715895,-6.41885e-05,0.000976162,-0.00071833,-0.037917,0.000982083,0.0106533,790,603,-2.78348,3.41274
-427,421,-2.76825,-3.61267,-0.00044421,-0.00135443,0.000871883,8.41961e-05,-0.00188284,0.544857,0.00128421,0.0099412,797,603,-2.76822,3.61267
-420,421,-2.75641,-3.78918,-0.00197286,-0.00202905,0.00193522,-6.55289e-05,-0.00393638,0.778139,0.00260269,0.0112908,804,603,-2.75639,3.78917
-413,421,-2.75684,-3.96552,-0.00309777,-0.00284835,0.00287163,-9.87262e-05,-0.0058474,0.807099,0.00386578,0.0135148,811,603,-2.75686,3.96551
-406,421,-2.79529,-4.21759,-0.00406024,-0.00362517,0.0037703,-6.61321e-05,-0.00761928,0.814214,0.00505762,0.0175877,818,603,-2.7953,4.21759
-399,421,-2.7655,-4.45422,-0.00511956,-0.00472338,0.00477483,-0.00014254,-0.0097004,0.806129,0.00641995,0.0162996,825,603,-2.76548,4.4542
-392,421,-2.77948,-4.61725,-0.00646285,-0.00644114,0.00602349,-0.000428488,-0.0124755,0.786299,0.00817791,0.0176906,832,603,-2.77946,4.61724
-385,421,-2.83936,-4.83545,-0.00803443,-0.0086883,0.00733129,-0.0010228,-0.0156999,0.763116,0.0101429,0.0372731,839,603,-2.83934,4.83547
-378,421,-3.1062,-4.69043,-0.00977459,-0.0116966,0.00888553,-0.00179826,-0.019673,0.73153,0.0125589,0.0487413,846,603,-3.10619,4.69044
-371,421,-3.11255,-4.76331,0,0,0,0,0,0,0,-1,853,603,-3.11255,4.76329
-364,421,-4.06537,-3.64362,0,0,0,0,0,0,0,-1,860,603,-4.06539,3.64362
-357,421,-4.77606,-3.73309,0,0,0,0,0,0,0,-1,867,603,-4.77604,3.73312
-350,421,-5.38019,-3.75024,0,0,0,0,0,0,0,-1,874,603,-5.38017,3.75026
-343,421,-6.22797,-2.57123,0,0,0,0,0,0,0,-1,881,603,-6.22798,2.57121
-336,421,-6.22882,-2.59369,0,0,0,0,0,0,0,-1,888,603,-6.22883,2.5937
-329,421,-4.50134,-1.49469,0,0,0,0,0,0,0,-1,895,603,-4.50137,1.49468
-322,421,-6.30377,-0.285339,0,0,0,0,0,0,0,-1,902,603,-6.30379,0.285355
-315,421,-4.47821,-1.26733,0,0,0,0,0,0,0,-1,909,603,-4.47824,1.26732
-308,421,0,0,0,0,0,0,0,0,0,-1,916,603,0,0
-301,421,0,0,0,0,0,0,0,0,0,-1,923,603,0,0
-294,421,0,0,0,0,0,0,0,0,0,-1,930,603,0,0
-287,421,0,0,0,0,0,0,0,0,0,-1,937,603,0,0
-280,421,0,0,0,0,0,0,0,0,0,-1,944,603,0,0
-273,421,0,0,0,0,0,0,0,0,0,-1,951,603,0,0
-266,421,0,0,0,0,0,0,0,0,0,-1,958,603,0,0
-259,421,0,0,0,0,0,0,0,0,0,-1,965,603,0,0
-252,421,0,0,0,0,0,0,0,0,0,-1,972,603,0,0
-245,421,0,0,0,0,0,0,0,0,0,-1,979,603,0,0
-238,421,0,0,0,0,0,0,0,0,0,-1,986,603,0,0
-231,421,0,0,0,0,0,0,0,0,0,-1,993,603,0,0
-224,421,0,0,0,0,0,0,0,0,0,-1,1000,603,0,0
-217,421,0,0,0,0,0,0,0,0,0,-1,1007,603,0,0
-210,421,0,0,0,0,0,0,0,0,0,-1,1014,603,0,0
-203,421,0,0,0,0,0,0,0,0,0,-1,1021,603,0,0
-196,421,0,0,0,0,0,0,0,0,0,-1,1028,603,0,0
-189,421,0,0,0,0,0,0,0,0,0,-1,1035,603,0,0
-182,421,0,0,0,0,0,0,0,0,0,-1,1042,603,0,0
-175,421,0,0,0,0,0,0,0,0,0,-1,1049,603,0,0
-168,421,0,0,0,0,0,0,0,0,0,-1,1056,603,0,0
-161,421,0,0,0,0,0,0,0,0,0,-1,1063,603,0,0
-154,421,0,0,0,0,0,0,0,0,0,-1,1070,603,0,0
-147,421,0,0,0,0,0,0,0,0,0,-1,1077,603,0,0
-140,421,0,0,0,0,0,0,0,0,0,-1,1084,603,0,0
-133,421,0,0,0,0,0,0,0,0,0,-1,1091,603,0,0
-126,421,0,0,0,0,0,0,0,0,0,-1,1098,603,0,0
-119,421,0,0,0,0,0,0,0,0,0,-1,1105,603,0,0
-112,421,0,0,0,0,0,0,0,0,0,-1,1112,603,0,0
-105,421,0,0,0,0,0,0,0,0,0,-1,1119,603,0,0
-98,421,0,0,0,0,0,0,0,0,0,-1,1126,603,0,0
-91,421,0,0,0,0,0,0,0,0,0,-1,1133,603,0,0
-84,421,0,0,0,0,0,0,0,0,0,-1,1140,603,0,0
-77,421,0,0,0,0,0,0,0,0,0,-1,1147,603,0,0
-70,421,0,0,0,0,0,0,0,0,0,-1,1154,603,0,0
-63,421,0,0,0,0,0,0,0,0,0,-1,1161,603,0,0
-56,421,0,0,0,0,0,0,0,0,0,-1,1168,603,0,0
-49,421,0,0,0,0,0,0,0,0,0,-1,1175,603,0,0
-42,421,0,0,0,0,0,0,0,0,0,-1,1182,603,0,0
-35,421,0,0,0,0,0,0,0,0,0,-1,1189,603,0,0
-28,421,0,0,0,0,0,0,0,0,0,-1,1196,603,0,0
-21,421,0,0,0,0,0,0,0,0,0,-1,1203,603,0,0
-14,421,0,0,0,0,0,0,0,0,0,-1,1210,603,0,0
-7,421,0,0,0,0,0,0,0,0,0,-1,1217,603,0,0
0,421,0,0,0,0,0,0,0,0,0,-1,1224,603,0,0
7,421,0,0,0,0,0,0,0,0,0,-1,1231,603,0,0
14,421,0,0,0,0,0,0,0,0,0,-1,1238,603,0,0
21,421,0,0,0,0,0,0,0,0,0,-1,1245,603,0,0
28,421,0,0,0,0,0,0,0,0,0,-1,1252,603,0,0
35,421,0,0,0,0,0,0,0,0,0,-1,1259,603,0,0
42,421,0,0,0,0,0,0,0,0,0,-1,1266,603,0,0
49,421,0,0,0,0,0,0,0,0,0,-1,1273,603,0,0
56,421,0,0,0,0,0,0,0,0,0,-1,1280,603,0,0
63,421,0,0,0,0,0,0,0,0,0,-1,1287,603,0,0
70,421,0,0,0,0,0,0,0,0,0,-1,1294,603,0,0
77,421,0,0,0,0,0,0,0,0,0,-1,1301,603,0,0
84,421,0,0,0,0,0,0,0,0,0,-1,1308,603,0,0
91,421,0,0,0,0,0,0,0,0,0,-1,1315,603,0,0
98,421,0,0,0,0,0,0,0,0,0,-1,1322,603,0,0
105,421,0,0,0,0,0,0,0,0,0,-1,1329,603,0,0
112,421,0,0,0,0,0,0,0,0,0,-1,1336,603,0,0
119,421,0,0,0,0,0,0,0,0,0,-1,1343,603,0,0
126,421,0,0,0,0,0,0,0,0,0,-1,1350,603,0,0
133,421,0,0,0,0,0,0,0,0,0,-1,1357,603,0,0
140,421,0,0,0,0,0,0,0,0,0,-1,1364,603,0,0
147,421,0,0,0,0,0,0,0,0,0,-1,1371,603,0,0
154,421,0,0,0,0,0,0,0,0,0,-1,1378,603,0,0
161,421,0,0,0,0,0,0,0,0,0,-1,1385,603,0,0
168,421,0,0,0,0,0,0,0,0,0,-1,1392,603,0,0
175,421,0,0,0,0,0,0,0,0,0,-1,1399,603,0,0
182,421,0,0,0,0,0,0,0,0,0,-1,1406,603,0,0
189,421,0,0,0,0,0,0,0,0,0,-1,1413,603,0,0
196,421,0,0,0,0,0,0,0,0,0,-1,1420,603,0,0
203,421,0,0,0,0,0,0,0,0,0,-1,1427,603,0,0
210,421,0,0,0,0,0,0,0,0,0,-1,1434,603,0,0
217,421,0,0,0,0,0,0,0,0,0,-1,1441,603,0,0
224,421,0,0,0,0,0,0,0,0,0,-1,1448,603,0,0
231,421,0,0,0,0,0,0,0,0,0,-1,1455,603,0,0
238,421,0,0,0,0,0,0,0,0,0,-1,1462,603,0,0
245,421,0,0,0,0,0,0,0,0,0,-1,1469,603,0,0
252,421,0,0,0,0,0,0,0,0,0,-1,1476,603,0,0
259,421,0,0,0,0,0,0,0,0,0,-1,1483,603,0,0
266,421,0,0,0,0,0,0,0,0,0,-1,1490,603,0,0
273,421,0,0,0,0,0,0,0,0,0,-1,1497,603,0,0
280,421,0,0,0,0,0,0,0,0,0,-1,1504,603,0,0
287,421,0,0,0,0,0,0,0,0,0,-1,1511,603,0,0
294,421,0,0,0,0,0,0,0,0,0,-1,1518,603,0,0
301,421,0,0,0,0,0,0,0,0,0,-1,1525,603,0,0
308,421,0,0,0,0,0,0,0,0,0,-1,1532,603,0,0
315,421,0,0,0,0,0,0,0,0,0,-1,1539,603,0,0
322,421,0,0,0,0,0,0,0,0,0,-1,1546,603,0,0
329,421,0,0,0,0,0,0,0,0,0,-1,1553,603,0,0
336,421,0,0,0,0,0,0,0,0,0,-1,1560,603,0,0
343,421,0,0,0,0,0,0,0,0,0,-1,1567,603,0,0
350,421,0,0,0,0,0,0,0,0,0,-1,1574,603,0,0
357,421,0,0,0,0,0,0,0,0,0,-1,1581,603,0,0
364,421,0,0,0,0,0,0,0,0,0,-1,1588,603,0,0
371,421,0,0,0,0,0,0,0,0,0,-1,1595,603,0,0
378,421,0,0,0,0,0,0,0,0,0,-1,1602,603,0,0
385,421,0,0,0,0,0,0,0,0,0,-1,1609,603,0,0
392,421,0,0,0,0,0,0,0,0,0,-1,1616,603,0,0
399,421,0,0,0,0,0,0,0,0,0,-1,1623,603,0,0
406,421,0,0,0,0,0,0,0,0,0,-1,1630,603,0,0
413,421,0,0,0,0,0,0,0,0,0,-1,1637,603,0,0
420,421,0,0,0,0,0,0,0,0,0,-1,1644,603,0,0
427,421,0,0,0,0,0,0,0,0,0,-1,1651,603,0,0
434,421,3.68176,-0.0327759,0,0,0,0,0,0,0,-1,1658,603,3.6818,0.0328037
441,421,8.06689,0.527832,0,0,0,0,0,0,0,-1,1665,603,8.06693,-0.527851
448,421,6.93921,0.802246,0,0,0,0,0,0,0,-1,1672,603,6.93923,-0.802251
455,421,7.29456,2.14825,0,0,0,0,0,0,0,-1,1679,603,7.29461,-2.14827
462,421,7.86902,3.53174,0,0,0,0,0,0,0,-1,1686,603,7.869,-3.53173
469,421,8.06604,2.81213,0,0,0,0,0,0,0,-1,1693,603,8.06606,-2.81212
476,421,8.26306,2.09253,0,0,0,0,0,0,0,-1,1700,603,8.26312,-2.09251
483,421,8.05322,0.798096,0,0,0,0,0,0,0,-1,1707,603,8.05323,-0.7981
490,421,7.51233,0.213074,0,0,0,0,0,0,0,-1,1714,603,7.51235,-0.213043
497,421,7.49634,-2.86688,0,0,0,0,0,0,0,-1,1721,603,7.4963,2.86688
504,421,6.90491,-2.18671,0,0,0,0,0,0,0,-1,1728,603,6.90491,2.18669
511,421,6.31348,-1.50653,0,0,0,0,0,0,0,-1,1735,603,6.31353,1.5065
518,421,6.27588,-2.49878,0,0,0,0,0,0,0,-1,1742,603,6.2759,2.4988
525,421,7.28088,-3.11395,0,0,0,0,0,0,0,-1,1749,603,7.2809,3.11393
532,421,7.40356,-2.71027,0.00233536,-0.000528272,0.000607451,0.00245889,-0.000651799,0.200619,0.00189428,0.0319171,1756,603,7.4035,2.71026
539,421,7.52417,-2.46423,0.0013052,-0.000579536,0.000167708,0.00132001,-0.000594343,0.0880601,0.00113141,0.0187354,1763,603,7.52415,2.46423
546,421,7.50403,-2.23206,0.000635188,-0.000556636,-0.000123417,0.000647834,-0.000569282,-0.102109,0.00070319,0.0119181,1770,603,7.50398,2.23207
553,421,7.48022,-1.98505,0.000330502,-0.000538416,-0.000217186,0.000381763,-0.000589678,-0.231784,0.000565128,0.011564,1777,603,7.4802,1.98502
560,421,7.4873,-1.75409,0.000449839,-0.000407926,-0.000103612,0.000462177,-0.000420264,-0.118522,0.000509669,0.0142333,1784,603,7.48728,1.7541
567,421,7.51086,-1.56696,0.00123913,-6.52838e-05,0.000346995,0.00132569,-0.000151846,0.244472,0.000938513,0.016887,1791,603,7.51092,1.56696
574,421,7.51526,-1.34644,0.00283492,0.000404705,0.00119295,0.00332264,-8.30168e-05,0.3881,0.00224328,0.0180801,1798,603,7.5152,1.34641
581,421,7.50256,-1.10437,0.00517985,0.00111088,0.00235785,0.00625962,3.11071e-05,0.429442,0.00416275,0.0151332,1805,603,7.50251,1.1044
588,421,7.47253,-0.883911,0.00828186,0.00206278,0.00392824,0.0101823,0.000162298,0.450604,0.00673478,0.0109696,1812,603,7.47247,0.883887
595,421,7.48389,-0.648987,0.0124009,0.0032692,0.00572144,0.015155,0.000515075,0.448632,0.00993608,0.0135,1819,603,7.48383,0.649013
602,421,7.47925,-0.456787,0.0177621,0.00483492,0.00795584,0.021549,0.00104798,0.44426,0.0140298,0.0149376,1826,603,7.47922,0.456803
609,421,7.40991,-0.25885,0,0,0,0,0,0,0,-1,1833,603,7.40994,0.258873
616,421,7.60852,0.0250244,0,0,0,0,0,0,0,-1,1840,603,7.60855,-0.0250043
623,421,6.19885,0.376648,0,0,0,0,0,0,0,-1,1847,603,6.19881,-0.376624
630,421,6.54993,0.778748,0,0,0,0,0,0,0,-1,1854,603,6.54991,-0.778744
637,421,3.74512,1.65405,0,0,0,0,0,0,0,-1,1861,603,3.74517,-1.65407
644,421,3.58081,0.354675,0,0,0,0,0,0,0,-1,1868,603,3.58082,-0.354704
651,421,3.28687,3.66351,0,0,0,0,0,0,0,-1,1875,603,3.28688,-3.66353
658,421,0,0,0,0,0,0,0,0,0,-1,1882,603,0,0
665,421,0,0,0,0,0,0,0,0,0,-1,1889,603,0,0
672,421,0,0,0,0,0,0,0,0,0,-1,1896,603,0,0
679,421,0,0,0,0,0,0,0,0,0,-1,1903,603,0,0
686,421,0,0,0,0,0,0,0,0,0,-1,1910,603,0,0
693,421,0,0,0,0,0,0,0,0,0,-1,1917,603,0,0
700,421,0,0,0,0,0,0,0,0,0,-1,1924,603,0,0
707,421,0,0,0,0,0,0,0,0,0,-1,1931,603,0,0
714,421,0,0,0,0,0,0,0,0,0,-1,1938,603,0,0
721,421,0,0,0,0,0,0,0,0,0,-1,1945,603,0,0
728,421,0,0,0,0,0,0,0,0,0,-1,1952,603,0,0
735,421,0,0,0,0,0,0,0,0,0,-1,1959,603,0,0
742,421,0,0,0,0,0,0,0,0,0,-1,1966,603,0,0
749,421,0,0,0,0,0,0,0,0,0,-1,1973,603,0,0
756,421,0,0,0,0,0,0,0,0,0,-1,1980,603,0,0
763,421,0,0,0,0,0,0,0,0,0,-1,1987,603,0,0
770,421,0,0,0,0,0,0,0,0,0,-1,1994,603,0,0
777,421,0,0,0,0,0,0,0,0,0,-1,2001,603,0,0
784,421,0,0,0,0,0,0,0,0,0,-1,2008,603,0,0
791,421,0,0,0,0,0,0,0,0,0,-1,2015,603,0,0
798,421,0,0,0,0,0,0,0,0,0,-1,2022,603,0,0
805,421,0,0,0,0,0,0,0,0,0,-1,2029,603,0,0
812,421,0,0,0,0,0,0,0,0,0,-1,2036,603,0,0
-700,414,0,0,0,0,0,0,0,0,0,-1,524,610,0,0
-693,414,0,0,0,0,0,0,0,0,0,-1,531,610,0,0
-686,414,0,0,0,0,0,0,0,0,0,-1,538,610,0,0
-679,414,0,0,0,0,0,0,0,0,0,-1,545,610,0,0
-672,414,0,0,0,0,0,0,0,0,0,-1,552,610,0,0
-665,414,0,0,0,0,0,0,0,0,0,-1,559,610,0,0
-658,414,0,0,0,0,0,0,0,0,0,-1,566,610,0,0
-651,414,0,0,0,0,0,0,0,0,0,-1,573,610,0,0
-644,414,0,0,0,0,0,0,0,0,0,-1,580,610,0,0
-637,414,0,0,0,0,0,0,0,0,0,-1,587,610,0,0
-630,414,0,0,0,0,0,0,0,0,0,-1,594,610,0,0
-623,414,0,0,0,0,0,0,0,0,0,-1,601,610,0,0
-616,414,0,0,0,0,0,0,0,0,0,-1,608,610,0,0
-609,414,0,0,0,0,0,0,0,0,0,-1,615,610,0,0
-602,414,0,0,0,0,0,0,0,0,0,-1,622,610,0,0
-595,414,0,0,0,0,0,0,0,0,0,-1,629,610,0,0
-588,414,0,0,0,0,0,0,0,0,0,-1,636,610,0,0
-581,414,0,0,0,0,0,0,0,0,0,-1,643,610,0,0
-574,414,0,0,0,0,0,0,0,0,0,-1,650,610,0,0
-567,414,0,0,0,0,0,0,0,0,0,-1,657,610,0,0
-560,414,0,0,0,0,0,0,0,0,0,-1,664,610,0,0
-553,414,0,0,0,0,0,0,0,0,0,-1,671,610,0,0
-546,414,0,0,0,0,0,0,0,0,0,-1,678,610,0,0
-539,414,-6.50098,-0.528992,0,0,0,0,0,0,0,-1,685,610,-6.501,0.528994
-532,414,-3.95496,-0.877441,0,0,0,0,0,0,0,-1,692,610,-3.95493,0.877472
-525,414,-9.23834,3.88635,0,0,0,0,0,0,0,-1,699,610,-9.23831,-3.88637
-518,414,-1.50458,-1.36444,0,0,0,0,0,0,0,-1,706,610,-1.50459,1.36443
-511,414,-4.86432,-3.59082,0,0,0,0,0,0,0,-1,713,610,-4.86433,3.59081
-504,414,-2.26416,-2.87775,0,0,0,0,0,0,0,-1,720,610,-2.26415,2.87776
-497,414,-2.71448,-2.22321,0,0,0,0,0,0,0,-1,727,610,-2.71445,2.22323
-490,414,-2.86511,-1.72729,-0.0195719,-0.017886,0.00617935,-0.0124924,-0.0249655,0.853184,0.0144138,0.0379725,734,610,-2.86514,1.72727
-483,414,-2.90668,-1.90186,-0.0103692,-0.0126686,0.00346443,-0.00786869,-0.0151691,0.625188,0.00875995,0.0160287,741,610,-2.90666,1.90189
-476,414,-2.96106,-2.12531,-0.00444055,-0.0085659,0.00160026,-0.00389258,-0.00911387,0.329911,0.0052805,0.0106748,748,610,-2.96108,2.12529
-469,414,-2.97528,-2.34088,-0.00106919,-0.00538403,0.000498606,-0.00101233,-0.0054409,0.113562,0.00334134,0.0110668,755,610,-2.97527,2.34091
-462,414,-2.96674,-2.55383,0.00199981,-0.00303761,-0.000439105,0.0020378,-0.0030756,-0.0863012,0.00297242,0.0202892,762,610,-2.96673,2.55382
-455,414,-2.95587,-2.79346,0.00308692,-0.00152916,-0.00065604,0.00317834,-0.00162058,-0.138469,0.0028189,0.0216667,769,610,-2.95585,2.79343
-448,414,-2.94867,-2.98315,0.00236441,-0.000836874,-0.000486684,0.00243676,-0.000909228,-0.147587,0.00199779,0.0210109,776,610,-2.94867,2.98318
-441,414,-2.96533,-3.18811,0.00137508,-0.000995479,-8.10241e-05,0.00137784,-0.000998245,-0.0341263,0.00137766,0.0167003,783,610,-2.96533,3.18813
-434,414,-2.9809,-3.4021,0.000129724,-0.00132064,0.000592695,0.000341119,-0.00153204,0.342602,0.00115202,0.0102755,790,610,-2.98091,3.4021
-427,414,-2.96918,-3.60449,-0.0013057,-0.00202209,0.00156599,-5.74643e-05,-0.00327033,0.672965,0.00216132,0.0104841,797,610,-2.96917,3.6045
-420,414,-2.96967,-3.79395,-0.00281242,-0.00281167,0.00262507,-0.000186979,-0.00543711,0.78547,0.00356405,0.00973623,804,610,-2.96966,3.79397
-413,414,-2.98187,-3.99683,-0.00402039,-0.00375911,0.00363596,-0.000251445,-0.00752806,0.803355,0.00493702,0.01023,811,610,-2.98187,3.99684
-406,414,-2.97852,-4.27063,-0.00529823,-0.00463678,0.00468497,-0.000270872,-0.00966414,0.820636,0.00635439,0.0149089,818,610,-2.97849,4.27064
-399,414,-2.97357,-4.43359,-0.0068449,-0.00582756,0.00589757,-0.000416766,-0.0122557,0.828417,0.00803514,0.0212914,825,610,-2.97358,4.4336
-392,414,-3.01855,-4.55884,-0.00883175,-0.00760016,0.00743913,-0.000751383,-0.0156805,0.826693,0.0102124,0.0271399,832,610,-3.01856,4.55886
-385,414,-3.17456,-4.76624,-0.0112253,-0.00991369,0.0091185,-0.00142742,-0.0197115,0.821296,0.012692,0.0416222,839,610,-3.17459,4.76625
-378,414,-3.43036,-4.7439,-0.0139473,-0.0131806,0.011154,-0.00240337,-0.0247246,0.802575,0.0157432,0.0470821,846,610,-3.43034,4.74389
-371,414,-3.6344,-4.93201,0,0,0,0,0,0,0,-1,853,610,-3.63437,4.93199
-364,414,-3.85767,-5.12946,0,0,0,0,0,0,0,-1,860,610,-3.85768,5.12944
-357,414,-5.95874,-2.51605,0,0,0,0,0,0,0,-1,867,610,-5.95872,2.51603
-350,414,-6.4502,-2.41821,0,0,0,0,0,0,0,-1,874,610,-6.45021,2.41822
-343,414,-6.80249,-2.32117,0,0,0,0,0,0,0,-1,881,610,-6.80252,2.32116
-336,414,-7.11017,-2.52026,0,0,0,0,0,0,0,-1,888,610,-7.11016,2.52026
-329,414,-7.59747,-2.70313,0,0,0,0,0,0,0,-1,895,610,-7.59747,2.70315
-322,414,-4.42236,-1.29163,0,0,0,0,0,0,0,-1,902,610,-4.42238,1.2916
-315,414,0,0,0,0,0,0,0,0,0,-1,909,610,0,0
-308,414,0,0,0,0,0,0,0,0,0,-1,916,610,0,0
-301,414,0,0,0,0,0,0,0,0,0,-1,923,610,0,0
-294,414,0,0,0,0,0,0,0,0,0,-1,930,610,0,0
-287,414,0,0,0,0,0,0,0,0,0,-1,937,610,0,0
-280,414,0,0,0,0,0,0,0,0,0,-1,944,610,0,0
-273,414,0,0,0,0,0,0,0,0,0,-1,951,610,0,0
-266,414,0,0,0,0,0,0,0,0,0,-1,958,610,0,0
-259,414,0,0,0,0,0,0,0,0,0,-1,965,610,0,0
-252,414,0,0,0,0,0,0,0,0,0,-1,972,610,0,0
-245,414,0,0,0,0,0,0,0,0,0,-1,979,610,0,0
-238,414,0,0,0,0,0,0,0,0,0,-1,986,610,0,0
-231,414,0,0,0,0,0,0,0,0,0,-1,993,610,0,0
-224,414,0,0,0,0,0,0,0,0,0,-1,1000,610,0,0
-217,414,0,0,0,0,0,0,0,0,0,-1,1007,610,0,0
-210,414,0,0,0,0,0,0,0,0,0,-1,1014,610,0,0
-203,414,0,0,0,0,0,0,0,0,0,-1,1021,610,0,0
-196,414,0,0,0,0,0,0,0,0,0,-1,1028,610,0,0
-189,414,0,0,0,0,0,0,0,0,0,-1,1035,610,0,0
-182,414,0,0,0,0,0,0,0,0,0,-1,1042,610,0,0
-175,414,0,0,0,0,0,0,0,0,0,-1,1049,610,0,0
-168,414,0,0,0,0,0,0,0,0,0,-1,1056,610,0,0
-161,414,0,0,0,0,0,0,0,0,0,-1,1063,610,0,0
-154,414,0,0,0,0,0,0,0,0,0,-1,1070,610,0,0
-147,414,0,0,0,0,0,0,0,0,0,-1,1077,610,0,0
-140,414,0,0,0,0,0,0,0,0,0,-1,1084,610,0,0
-133,414,0,0,0,0,0,0,0,0,0,-1,1091,610,0,0
-126,414,0,0,0,0,0,0,0,0,0,-1,1098,610,0,0
-119,414,0,0,0,0,0,0,0,0,0,-1,1105,610,0,0
-112,414,0,0,0,0,0,0,0,0,0,-1,1112,610,0,0
-105,414,0,0,0,0,0,0,0,0,0,-1,1119,610,0,0
-98,414,0,0,0,0,0,0,0,0,0,-1,1126,610,0,0
-91,414,0,0,0,0,0,0,0,0,0,-1,1133,610,0,0
-84,414,0,0,0,0,0,0,0,0,0,-1,1140,610,0,0
-77,414,0,0,0,0,0,0,0,0,0,-1,1147,610,0,0
-70,414,0,0,0,0,0,0,0,0,0,-1,1154,610,0,0
-63,414,0,0,0,0,0,0,0,0,0,-1,1161,610,0,0
-56,414,0,0,0,0,0,0,0,0,0,-1,1168,610,0,0
-49,414,0,0,0,0,0,0,0,0,0,-1,1175,610,0,0
-42,414,0,0,0,0,0,0,0,0,0,-1,1182,610,0,0
-35,414,0,0,0,0,0,0,0,0,0,-1,1189,610,0,0
-28,414,0,0,0,0,0,0,0,0,0,-1,1196,610,0,0
-21,414,0,0,0,0,0,0,0,0,0,-1,1203,610,0,0
-14,414,0,0,0,0,0,0,0,0,0,-1,1210,610,0,0
-7,414,0,0,0,0,0,0,0,0,0,-1,1217,610,0,0
0,414,0,0,0,0,0,0,0,0,0,-1,1224,610,0,0
7,414,0,0,0,0,0,0,0,0,0,-1,1231,610,0,0
14,414,0,0,0,0,0,0,0,0,0,-1,1238,610,0,0
21,414,0,0,0,0,0,0,0,0,0,-1,1245,610,0,0
28,414,0,0,0,0,0,0,0,0,0,-1,1252,610,0,0
35,414,0,0,0,0,0,0,0,0,0,-1,1259,610,0,0
42,414,0,0,0,0,0,0,0,0,0,-1,1266,610,0,0
49,414,0,0,0,0,0,0,0,0,0,-1,1273,610,0,0
56,414,0,0,0,0,0,0,0,0,0,-1,1280,610,0,0
63,414,0,0,0,0,0,0,0,0,0,-1,1287,610,0,0
70,414,0,0,0,0,0,0,0,0,0,-1,1294,610,0,0
77,414,0,0,0,0,0,0,0,0,0,-1,1301,610,0,0
84,414,0,0,0,0,0,0,0,0,0,-1,1308,610,0,0
91,414,0,0,0,0,0,0,0,0,0,-1,1315,610,0,0
98,414,0,0,0,0,0,0,0,0,0,-1,1322,610,0,0
105,414,0,0,0,0,0,0,0,0,0,-1,1329,610,0,0
112,414,0,0,0,0,0,0,0,0,0,-1,1336,610,0,0
119,414,0,0,0,0,0,0,0,0,0,-1,1343,610,0,0
126,414,0,0,0,0,0,0,0,0,0,-1,1350,610,0,0
133,414,0,0,0,0,0,0,0,0,0,-1,1357,610,0,0
140,414,0,0,0,0,0,0,0,0,0,-1,1364,610,0,0
147,414,0,0,0,0,0,0,0,0,0,-1,1371,610,0,0
154,414,0,0,0,0,0,0,0,0,0,-1,1378,610,0,0
161,414,0,0,0,0,0,0,0,0,0,-1,1385,610,0,0
168,414,0,0,0,0,0,0,0,0,0,-1,1392,610,0,0
175,414,0,0,0,0,0,0,0,0,0,-1,1399,610,0,0
182,414,0,0,0,0,0,0,0,0,0,-1,1406,610,0,0
189,414,0,0,0,0,0,0,0,0,0,-1,1413,610,0,0
196,414,0,0,0,0,0,0,0,0,0,-1,1420,610,0,0
203,414,0,0,0,0,0,0,0,0,0,-1,1427,610,0,0
210,414,0,0,0,0,0,0,0,0,0,-1,1434,610,0,0
217,414,0,0,0,0,0,0,0,0,0,-1,1441,610,0,0
224,414,0,0,0,0,0,0,0,0,0,-1,1448,610,0,0
231,414,0,0,0,0,0,0,0,0,0,-1,1455,610,0,0
238,414,0,0,0,0,0,0,0,0,0,-1,1462,610,0,0
245,414,0,0,0,0,0,0,0,0,0,-1,1469,610,0,0
252,414,0,0,0,0,0,0,0,0,0,-1,1476,610,0,0
259,414,0,0,0,0,0,0,0,0,0,-1,1483,610,0,0
266,414,0,0,0,0,0,0,0,0,0,-1,1490,610,0,0
273,414,0,0,0,0,0,0,0,0,0,-1,1497,610,0,0
280,414,0,0,0,0,0,0,0,0,0,-1,1504,610,0,0
287,414,0,0,0,0,0,0,0,0,0,-1,1511,610,0,0
294,414,0,0,0,0,0,0,0,0,0,-1,1518,610,0,0
301,414,0,0,0,0,0,0,0,0,0,-1,1525,610,0,0
308,414,0,0,0,0,0,0,0,0,0,-1,1532,610,0,0
315,414,0,0,0,0,0,0,0,0,0,-1,1539,610,0,0
322,414,0,0,0,0,0,0,0,0,0,-1,1546,610,0,0
329,414,0,0,0,0,0,0,0,0,0,-1,1553,610,0,0
336,414,0,0,0,0,0,0,0,0,0,-1,1560,610,0,0
343,414,0,0,0,0,0,0,0,0,0,-1,1567,610,0,0
350,414,0,0,0,0,0,0,0,0,0,-1,1574,610,0,0
357,414,0,0,0,0,0,0,0,0,0,-1,1581,610,0,0
364,414,0,0,0,0,0,0,0,0,0,-1,1588,610,0,0
371,414,0,0,0,0,0,0,0,0,0,-1,1595,610,0,0
378,414,0,0,0,0,0,0,0,0,0,-1,1602,610,0,0
385,414,0,0,0,0,0,0,0,0,0,-1,1609,610,0,0
392,414,0,0,0,0,0,0,0,0,0,-1,1616,610,0,0
399,414,0,0,0,0,0,0,0,0,0,-1,1623,610,0,0
406,414,0,0,0,0,0,0,0,0,0,-1,1630,610,0,0
413,414,0,0,0,0,0,0,0,0,0,-1,1637,610,0,0
420,414,0,0,0,0,0,0,0,0,0,-1,1644,610,0,0
427,414,0,0,0,0,0,0,0,0,0,-1,1651,610,0,0
434,414,0,0,0,0,0,0,0,0,0,-1,1658,610,0,0
441,414,7.84375,0.584412,0,0,0,0,0,0,0,-1,1665,610,7.84379,-0.584394
448,414,7.40808,1.25446,0,0,0,0,0,0,0,-1,1672,610,7.40807,-1.25446
455,414,6.3512,1.73846,0,0,0,0,0,0,0,-1,1679,610,6.3512,-1.73847
462,414,8.18103,3.22113,0,0,0,0,0,0,0,-1,1686,610,8.18108,-3.22112
469,414,8.38513,2.49579,0,0,0,0,0,0,0,-1,1693,610,8.38516,-2.49576
476,414,8.64099,1.71161,0,0,0,0,0,0,0,-1,1700,610,8.64097,-1.71164
483,414,8.62744,0.687622,0,0,0,0,0,0,0,-1,1707,610,8.62749,-0.687615
490,414,8.38831,-0.0302734,0,0,0,0,0,0,0,-1,1714,610,8.38835,0.0302913
497,414,4.71094,-0.110046,0,0,0,0,0,0,0,-1,1721,610,4.71089,0.110024
504,414,7.19568,-1.43835,0,0,0,0,0,0,0,-1,1728,610,7.19563,1.43836
511,414,5.94153,-1.28772,0,0,0,0,0,0,0,-1,1735,610,5.94151,1.28769
518,414,4.53381,-0.0996704,0,0,0,0,0,0,0,-1,1742,610,4.53378,0.0996819
525,414,6.18811,-1.64056,0,0,0,0,0,0,0,-1,1749,610,6.18814,1.64055
532,414,7.62512,-2.94586,0,0,0,0,0,0,0,-1,1756,610,7.62517,2.94585
539,414,7.70789,-2.54449,0.000532759,-0.00093705,-0.00034879,0.000611328,-0.00101562,-0.221563,0.000948936,0.0351457,1763,610,7.70786,2.54448
546,414,7.70898,-2.22504,-0.000129555,-0.000853564,-0.000634788,0.000239196,-0.00122231,-0.52626,0.000905205,0.0121818,1770,610,7.709,2.22505
553,414,7.71411,-1.99982,-0.000357988,-0.000773521,-0.000679781,0.000145068,-0.00127658,-0.637088,0.000903299,0.0114506,1777,610,7.71408,1.99983
560,414,7.7157,-1.76489,-0.000532704,-0.000699403,-0.000678504,6.75507e-05,-0.00129966,-0.724283,0.00088981,0.0134079,1784,610,7.71568,1.76489
567,414,7.74622,-1.52844,6.3225e-05,-0.00038244,-0.00029306,0.000208548,-0.000527763,-0.460347,0.000438223,0.02281,1791,610,7.74618,1.52843
574,414,7.72949,-1.32263,0.00129245,2.44423e-05,0.00041581,0.00141664,-9.9748e-05,0.290237,0.000979373,0.0204452,1798,610,7.72947,1.32266
581,414,7.72498,-1.09229,0.00303288,0.000610788,0.00132766,0.00361886,2.48076e-05,0.41565,0.00240434,0.0151155,1805,610,7.72497,1.09229
588,414,7.70166,-0.872131,0.00518241,0.00134826,0.00248341,0.00640261,0.000128055,0.456696,0.00422637,0.0148975,1812,610,7.70161,0.872161
595,414,7.71472,-0.616211,0.00797626,0.00221154,0.00367141,0.00976158,0.000426215,0.452609,0.00637041,0.0204732,1819,610,7.71468,0.616215
602,414,7.74561,-0.378601,0.0114645,0.00334993,0.0050789,0.0139077,0.000906694,0.448379,0.00898485,0.0240827,1826,610,7.7456,0.378575
609,414,7.71558,-0.214172,0,0,0,0,0,0,0,-1,1833,610,7.71559,0.214197
616,414,7.7262,-0.265076,0,0,0,0,0,0,0,-1,1840,610,7.72622,0.265097
623,414,8.05164,-0.0302124,0,0,0,0,0,0,0,-1,1847,610,8.05161,0.0302357
630,414,5.47144,0.499329,0,0,0,0,0,0,0,-1,1854,610,5.47142,-0.499303
637,414,6.57898,2.38019,0,0,0,0,0,0,0,-1,1861,610,6.579,-2.38019
644,414,5.87073,1.51422,0,0,0,0,0,0,0,-1,1868,610,5.87076,-1.51424
651,414,3.6377,0.820557,0,0,0,0,0,0,0,-1,1875,610,3.6377,-0.820543
658,414,2.29761,3.87323,0,0,0,0,0,0,0,-1,1882,610,2.29758,-3.87325
665,414,0,0,0,0,0,0,0,0,0,-1,1889,610,0,0
672,414,0,0,0,0,0,0,0,0,0,-1,1896,610,0,0
679,414,0,0,0,0,0,0,0,0,0,-1,1903,610,0,0
686,414,0,0,0,0,0,0,0,0,0,-1,1910,610,0,0
693,414,0,0,0,0,0,0,0,0,0,-1,1917,610,0,0
700,414,0,0,0,0,0,0,0,0,0,-1,1924,610,0,0
707,414,0,0,0,0,0,0,0,0,0,-1,1931,610,0,0
714,414,0,0,0,0,0,0,0,0,0,-1,1938,610,0,0
721,414,0,0,0,0,0,0,0,0,0,-1,1945,610,0,0
728,414,0,0,0,0,0,0,0,0,0,-1,1952,610,0,0
735,414,0,0,0,0,0,0,0,0,0,-1,1959,610,0,0
742,414,0,0,0,0,0,0,0,0,0,-1,1966,610,0,0
749,414,0,0,0,0,0,0,0,0,0,-1,1973,610,0,0
756,414,0,0,0,0,0,0,0,0,0,-1,1980,610,0,0
763,414,0,0,0,0,0,0,0,0,0,-1,1987,610,0,0
770,414,0,0,0,0,0,0,0,0,0,-1,1994,610,0,0
777,414,0,0,0,0,0,0,0,0,0,-1,2001,610,0,0
784,414,0,0,0,0,0,0,0,0,0,-1,2008,610,0,0
791,414,0,0,0,0,0,0,0,0,0,-1,2015,610,0,0
798,414,0,0,0,0,0,0,0,0,0,-1,2022,610,0,0
805,414,0,0,0,0,0,0,0,0,0,-1,2029,610,0,0
812,414,0,0,0,0,0,0,0,0,0,-1,2036,610,0,0
-700,407,0,0,0,0,0,0,0,0,0,-1,524,617,0,0
-693,407,0,0,0,0,0,0,0,0,0,-1,531,617,0,0
-686,407,0,0,0,0,0,0,0,0,0,-1,538,617,0,0
-679,407,0,0,0,0,0,0,0,0,0,-1,545,617,0,0
-672,407,0,0,0,0,0,0,0,0,0,-1,552,617,0,0
-665,407,0,0,0,0,0,0,0,0,0,-1,559,617,0,0
-658,407,0,0,0,0,0,0,0,0,0,-1,566,617,0,0
-651,407,0,0,0,0,0,0,0,0,0,-1,573,617,0,0
-644,407,0,0,0,0,0,0,0,0,0,-1,580,617,0,0
-637,407,0,0,0,0,0,0,0,0,0,-1,587,617,0,0
-630,407,0,0,0,0,0,0,0,0,0,-1,594,617,0,0
-623,407,0,0,0,0,0,0,0,0,0,-1,601,617,0,0
-616,407,0,0,0,0,0,0,0,0,0,-1,608,617,0,0
-609,407,0,0,0,0,0,0,0,0,0,-1,615,617,0,0
-602,407,0,0,0,0,0,0,0,0,0,-1,622,617,0,0
-595,407,0,0,0,0,0,0,0,0,0,-1,629,617,0,0
-588,407,0,0,0,0,0,0,0,0,0,-1,636,617,0,0
-581,407,0,0,0,0,0,0,0,0,0,-1,643,617,0,0
-574,407,0,0,0,0,0,0,0,0,0,-1,650,617,0,0
-567,407,0,0,0,0,0,0,0,0,0,-1,657,617,0,0
-560,407,0,0,0,0,0,0,0,0,0,-1,664,617,0,0
-553,407,0,0,0,0,0,0,0,0,0,-1,671,617,0,0
-546,407,-8.54517,-0.658142,0,0,0,0,0,0,0,-1,678,617,-8.54515,0.658112
-539,407,-6.09442,-1.01154,0,0,0,0,0,0,0,-1,685,617,-6.09441,1.01155
-532,407,-3.51044,-1.34229,0,0,0,0,0,0,0,-1,692,617,-3.51045,1.34226
-525,407,-1.84094,0.627808,0,0,0,0,0,0,0,-1,699,617,-1.84093,-0.627793
-518,407,-1.79602,-0.880981,0,0,0,0,0,0,0,-1,706,617,-1.796,0.880991
-511,407,-1.7511,-2.38977,0,0,0,0,0,0,0,-1,713,617,-1.75107,2.38978
-504,407,-2.85254,-2.28748,0,0,0,0,0,0,0,-1,720,617,-2.85256,2.28746
-497,407,-2.95404,-2.01416,-0.021777,-0.0193334,0.00749078,-0.0129654,-0.028145,0.866238,0.0162662,0.0440218,727,617,-2.95406,2.01417
-490,407,-3.10333,-1.71448,-0.0135457,-0.0146407,0.00515969,-0.00890455,-0.0192819,0.732543,0.0111432,0.0208658,734,617,-3.10334,1.71445
-483,407,-3.15607,-1.90826,-0.00725706,-0.0105362,0.00313051,-0.00536276,-0.0124305,0.544167,0.00719924,0.0118339,741,617,-3.15609,1.90827
-476,407,-3.17212,-2.11493,-0.00326293,-0.00743006,0.00177583,-0.00260883,-0.00808416,0.352914,0.0047642,0.010314,748,617,-3.17212,2.11491
-469,407,-3.16864,-2.33118,-0.0010509,-0.00488005,0.000962732,-0.000822475,-0.00510848,0.23296,0.00316729,0.011508,755,617,-3.16862,2.33116
-462,407,-3.17212,-2.55609,0.00112462,-0.00296599,0.000217628,0.00113616,-0.00297754,0.0530023,0.00245308,0.0180971,762,617,-3.17215,2.55608
-455,407,-3.16315,-2.789,0.00193689,-0.00179642,2.88754e-05,0.00193711,-0.00179665,0.00773391,0.0021562,0.0195862,769,617,-3.16314,2.789
-448,407,-3.13129,-2.97955,0.00148632,-0.00124599,0.000155366,0.00149513,-0.00125479,0.0566192,0.00158969,0.0171614,776,617,-3.13129,2.97958
-441,407,-3.15216,-3.15454,0.000628428,-0.00154436,0.00055875,0.000763694,-0.00167963,0.237517,0.00144331,0.0135846,783,617,-3.15218,3.15454
-434,407,-3.17633,-3.3667,-0.000624893,-0.00200481,0.00128983,0.000147922,-0.00277763,0.539801,0.00190298,0.010132,790,617,-3.17635,3.36669
-427,407,-3.15393,-3.58508,-0.00213262,-0.00282504,0.00234697,-0.000106457,-0.00485119,0.712169,0.00319923,0.00996043,797,617,-3.15396,3.5851
-420,407,-3.15717,-3.78088,-0.0036699,-0.00379286,0.00343876,-0.000292076,-0.00717069,0.776459,0.00468613,0.00912102,804,617,-3.15718,3.78091
-413,407,-3.15369,-3.98767,-0.00503105,-0.00493298,0.00456893,-0.00041282,-0.0095512,0.790764,0.00623442,0.0102778,811,617,-3.15368,3.98765
-406,407,-3.16034,-4.18732,-0.00672777,-0.00598759,0.00582091,-0.000525021,-0.0121903,0.817145,0.00795766,0.0207129,818,617,-3.16037,4.18731
-399,407,-3.12219,-4.26636,-0.00891876,-0.00732926,0.00730066,-0.000780217,-0.0154678,0.839615,0.0100619,0.0355063,825,617,-3.12219,4.26634
-392,407,-3.17316,-4.48309,-0.0117616,-0.00912537,0.00922997,-0.00111989,-0.0197671,0.856324,0.0128211,0.0438801,832,617,-3.17316,4.4831
-385,407,-3.54382,-4.92859,-0.0151113,-0.0113483,0.0113407,-0.00173407,-0.0247255,0.867604,0.0159371,0.0492321,839,617,-3.54385,4.92862
-378,407,-3.8728,-5.19482,0,0,0,0,0,0,0,-1,846,617,-3.87282,5.19484
-371,407,-5.03748,-4.89868,0,0,0,0,0,0,0,-1,853,617,-5.03747,4.89867
-364,407,-6.26666,-1.91302,0,0,0,0,0,0,0,-1,860,617,-6.26669,1.91305
-357,407,-6.64447,-1.83337,0,0,0,0,0,0,0,-1,867,617,-6.64446,1.8334
-350,407,-7.03351,-1.77551,0,0,0,0,0,0,0,-1,874,617,-7.03349,1.77551
-343,407,-7.40967,-1.95026,0,0,0,0,0,0,0,-1,881,617,-7.40969,1.95026
-336,407,-8.10229,-2.40662,0,0,0,0,0,0,0,-1,888,617,-8.10229,2.40664
-329,407,-8.81232,-2.76331,0,0,0,0,0,0,0,-1,895,617,-8.81235,2.76331
-322,407,0,0,0,0,0,0,0,0,0,-1,902,617,0,0
-315,407,0,0,0,0,0,0,0,0,0,-1,909,617,0,0
-308,407,0,0,0,0,0,0,0,0,0,-1,916,617,0,0
-301,407,0,0,0,0,0,0,0,0,0,-1,923,617,0,0
-294,407,0,0,0,0,0,0,0,0,0,-1,930,617,0,0
-287,407,0,0,0,0,0,0,0,0,0,-1,937,617,0,0
-280,407,0,0,0,0,0,0,0,0,0,-1,944,617,0,0
-273,407,0,0,0,0,0,0,0,0,0,-1,951,617,0,0
-266,407,0,0,0,0,0,0,0,0,0,-1,958,617,0,0
-259,407,0,0,0,0,0,0,0,0,0,-1,965,617,0,0
-252,407,0,0,0,0,0,0,0,0,0,-1,972,617,0,0
-245,407,0,0,0,0,0,0,0,0,0,-1,979,617,0,0
-238,407,0,0,0,0,0,0,0,0,0,-1,986,617,0,0
-231,407,0,0,0,0,0,0,0,0,0,-1,993,617,0,0
-224,407,0,0,0,0,0,0,0,0,0,-1,1000,617,0,0
-217,407,0,0,0,0,0,0,0,0,0,-1,1007,617,0,0
-210,407,0,0,0,0,0,0,0,0,0,-1,1014,617,0,0
-203,407,0,0,0,0,0,0,0,0,0,-1,1021,617,0,0
-196,407,0,0,0,0,0,0,0,0,0,-1,1028,617,0,0
-189,407,0,0,0,0,0,0,0,0,0,-1,1035,617,0,0
-182,407,0,0,0,0,0,0,0,0,0,-1,1042,617,0,0
-175,407,0,0,0,0,0,0,0,0,0,-1,1049,617,0,0
-168,407,0,0,0,0,0,0,0,0,0,-1,1056,617,0,0
-161,407,0,0,0,0,0,0,0,0,0,-1,1063,617,0,0
-154,407,0,0,0,0,0,0,0,0,0,-1,1070,617,0,0
-147,407,0,0,0,0,0,0,0,0,0,-1,1077,617,0,0
-140,407,0,0,0,0,0,0,0,0,0,-1,1084,617,0,0
-133,407,0,0,0,0,0,0,0,0,0,-1,1091,617,0,0
-126,407,0,0,0,0,0,0,0,0,0,-1,1098,617,0,0
-119,407,0,0,0,0,0,0,0,0,0,-1,1105,617,0,0
-112,407,0,0,0,0,0,0,0,0,0,-1,1112,617,0,0
-105,407,0,0,0,0,0,0,0,0,0,-1,1119,617,0,0
-98,407,0,0,0,0,0,0,0,0,0,-1,1126,617,0,0
-91,407,0,0,0,0,0,0,0,0,0,-1,1133,617,0,0
-84,407,0,0,0,0,0,0,0,0,0,-1,1140,617,0,0
-77,407,0,0,0,0,0,0,0,0,0,-1,1147,617,0,0
-70,407,0,0,0,0,0,0,0,0,0,-1,1154,617,0,0
-63,407,0,0,0,0,0,0,0,0,0,-1,1161,617,0,0
-56,407,0,0,0,0,0,0,0,0,0,-1,1168,617,0,0
-49,407,0,0,0,0,0,0,0,0,0,-1,1175,617,0,0
-42,407,0,0,0,0,0,0,0,0,0,-1,1182,617,0,0
-35,407,0,0,0,0,0,0,0,0,0,-1,1189,617,0,0
-28,407,0,0,0,0,0,0,0,0,0,-1,1196,617,0,0
-21,407,0,0,0,0,0,0,0,0,0,-1,1203,617,0,0
-14,407,0,0,0,0,0,0,0,0,0,-1,1210,617,0,0
-7,407,0,0,0,0,0,0,0,0,0,-1,1217,617,0,0
0,407,0,0,0,0,0,0,0,0,0,-1,1224,617,0,0
7,407,0,0,0,0,0,0,0,0,0,-1,1231,617,0,0
14,407,0,0,0,0,0,0,0,0,0,-1,1238,617,0,0
21,407,0,0,0,0,0,0,0,0,0,-1,1245,617,0,0
28,407,0,0,0,0,0,0,0,0,0,-1,1252,617,0,0
35,407,0,0,0,0,0,0,0,0,0,-1,1259,617,0,0
42,407,0,0,0,0,0,0,0,0,0,-1,1266,617,0,0
49,407,0,0,0,0,0,0,0,0,0,-1,1273,617,0,0
56,407,0,0,0,0,0,0,0,0,0,-1,1280,617,0,0
63,407,0,0,0,0,0,0,0,0,0,-1,1287,617,0,0
70,407,0,0,0,0,0,0,0,0,0,-1,1294,617,0,0
77,407,0,0,0,0,0,0,0,0,0,-1,1301,617,0,0
84,407,0,0,0,0,0,0,0,0,0,-1,1308,617,0,0
91,407,0,0,0,0,0,0,0,0,0,-1,1315,617,0,0
98,407,0,0,0,0,0,0,0,0,0,-1,1322,617,0,0
105,407,0,0,0,0,0,0,0,0,0,-1,1329,617,0,0
112,407,0,0,0,0,0,0,0,0,0,-1,1336,617,0,0
119,407,0,0,0,0,0,0,0,0,0,-1,1343,617,0,0
126,407,0,0,0,0,0,0,0,0,0,-1,1350,617,0,0
133,407,0,0,0,0,0,0,0,0,0,-1,1357,617,0,0
140,407,0,0,0,0,0,0,0,0,0,-1,1364,617,0,0
147,407,0,0,0,0,0,0,0,0,0,-1,1371,617,0,0
154,407,0,0,0,0,0,0,0,0,0,-1,1378,617,0,0
161,407,0,0,0,0,0,0,0,0,0,-1,1385,617,0,0
168,407,0,0,0,0,0,0,0,0,0,-1,1392,617,0,0
175,407,0,0,0,0,0,0,0,0,0,-1,1399,617,0,0
182,407,0,0,0,0,0,0,0,0,0,-1,1406,617,0,0
189,407,0,0,0,0,0,0,0,0,0,-1,1413,617,0,0
196,407,0,0,0,0,0,0,0,0,0,-1,1420,617,0,0
203,407,0,0,0,0,0,0,0,0,0,-1,1427,617,0,0
210,407,0,0,0,0,0,0,0,0,0,-1,1434,617,0,0
217,407,0,0,0,0,0,0,0,0,0,-1,1441,617,0,0
224,407,0,0,0,0,0,0,0,0,0,-1,1448,617,0,0
231,407,0,0,0,0,0,0,0,0,0,-1,1455,617,0,0
238,407,0,0,0,0,0,0,0,0,0,-1,1462,617,0,0
245,407,0,0,0,0,0,0,0,0,0,-1,1469,617,0,0
252,407,0,0,0,0,0,0,0,0,0,-1,1476,617,0,0
259,407,0,0,0,0,0,0,0,0,0,-1,1483,617,0,0
266,407,0,0,0,0,0,0,0,0,0,-1,1490,617,0,0
273,407,0,0,0,0,0,0,0,0,0,-1,1497,617,0,0
280,407,0,0,0,0,0,0,0,0,0,-1,1504,617,0,0
287,407,0,0,0,0,0,0,0,0,0,-1,1511,617,0,0
294,407,0,0,0,0,0,0,0,0,0,-1,1518,617,0,0
301,407,0,0,0,0,0,0,0,0,0,-1,1525,617,0,0
308,407,0,0,0,0,0,0,0,0,0,-1,1532,617,0,0
315,407,0,0,0,0,0,0,0,0,0,-1,1539,617,0,0
322,407,0,0,0,0,0,0,0,0,0,-1,1546,617,0,0
329,407,0,0,0,0,0,0,0,0,0,-1,1553,617,0,0
336,407,0,0,0,0,0,0,0,0,0,-1,1560,617,0,0
343,407,0,0,0,0,0,0,0,0,0,-1,1567,617,0,0
350,407,0,0,0,0,0,0,0,0,0,-1,1574,617,0,0
357,407,0,0,0,0,0,0,0,0,0,-1,1581,617,0,0
364,407,0,0,0,0,0,0,0,0,0,-1,1588,617,0,0
371,407,0,0,0,0,0,0,0,0,0,-1,1595,617,0,0
378,407,0,0,0,0,0,0,0,0,0,-1,1602,617,0,0
385,407,0,0,0,0,0,0,0,0,0,-1,1609,617,0,0
392,407,0,0,0,0,0,0,0,0,0,-1,1616,617,0,0
399,407,0,0,0,0,0,0,0,0,0,-1,1623,617,0,0
406,407,0,0,0,0,0,0,0,0,0,-1,1630,617,0,0
413,407,0,0,0,0,0,0,0,0,0,-1,1637,617,0,0
420,407,0,0,0,0,0,0,0,0,0,-1,1644,617,0,0
427,407,0,0,0,0,0,0,0,0,0,-1,1651,617,0,0
434,407,0,0,0,0,0,0,0,0,0,-1,1658,617,0,0
441,407,0,0,0,0,0,0,0,0,0,-1,1665,617,0,0
448,407,7.02893,2.13843,0,0,0,0,0,0,0,-1,1672,617,7.02899,-2.13844
455,407,7.55237,2.29242,0,0,0,0,0,0,0,-1,1679,617,7.55236,-2.29244
462,407,8.2926,2.46173,0,0,0,0,0,0,0,-1,1686,617,8.29261,-2.46174
469,407,8.71509,2.22681,0,0,0,0,0,0,0,-1,1693,617,8.71511,-2.22681
476,407,8.89917,1.47766,0,0,0,0,0,0,0,-1,1700,617,8.89914,-1.47768
483,407,9.02612,0.682983,0,0,0,0,0,0,0,-1,1707,617,9.02608,-0.683004
490,407,9.12659,0.000671387,0,0,0,0,0,0,0,-1,1714,617,9.12653,-0.000675931
497,407,7.76819,0.855835,0,0,0,0,0,0,0,-1,1721,617,7.7682,-0.855865
504,407,4.69336,0.160706,0,0,0,0,0,0,0,-1,1728,617,4.69337,-0.1607
511,407,4.07104,-0.00140381,0,0,0,0,0,0,0,-1,1735,617,4.07109,0.00141425
518,407,6.09534,1.9411,0,0,0,0,0,0,0,-1,1742,617,6.09532,-1.94113
525,407,5.72534,-1.35986,0,0,0,0,0,0,0,-1,1749,617,5.72529,1.35988
532,407,7.31763,-2.34937,0,0,0,0,0,0,0,-1,1756,617,7.31766,2.34937
539,407,7.8595,-2.617,0,0,0,0,0,0,0,-1,1763,617,7.85947,2.61703
546,407,7.93091,-2.22437,-0.00123307,-0.00150072,-0.00152875,0.000167704,-0.0029015,-0.741739,0.00199259,0.0135269,1770,617,7.93095,2.22438
553,407,7.92822,-2.00806,-0.00130174,-0.00125459,-0.00140758,0.000129607,-0.00268594,-0.793772,0.00183535,0.013228,1777,617,7.92824,2.00804
560,407,7.95361,-1.75537,-0.00156726,-0.00112201,-0.00136485,3.82484e-05,-0.00272752,-0.866242,0.00183123,0.0146665,1784,617,7.9536,1.7554
567,407,7.96472,-1.5332,-0.00103424,-0.000750696,-0.000936332,5.45359e-05,-0.00183947,-0.860534,0.00124489,0.0269398,1791,617,7.9647,1.53323
574,407,7.95459,-1.32477,-7.09186e-06,-0.000315275,-0.000252997,0.000135046,-0.000457412,-0.511869,0.000358537,0.023963,1798,617,7.95456,1.32479
581,407,7.93604,-1.08777,0.00136935,0.000259605,0.000548553,0.00159473,3.42255e-05,0.389835,0.00105193,0.0156288,1805,617,7.93599,1.08777
588,407,7.92078,-0.867371,0.00293568,0.000922207,0.00148084,0.00371959,0.000138305,0.486863,0.00243493,0.0109147,1812,617,7.92081,0.867351
595,407,7.94519,-0.629761,0.00491822,0.0016164,0.00233093,0.00612366,0.000410963,0.477273,0.00395258,0.0212793,1819,617,7.94516,0.629754
602,407,7.93835,-0.391663,0.00730012,0.0025475,0.00330195,0.00899194,0.000855674,0.473496,0.00573074,0.0176262,1826,617,7.93835,0.391666
609,407,7.91931,-0.167419,0.00974088,0.00336866,0.00416671,0.0118,0.0013095,0.45899,0.00746855,0.0144192,1833,617,7.91926,0.167413
616,407,7.9729,0.136047,0.012528,0.00436654,0.00496647,0.0148752,0.00201934,0.441495,0.0093169,0.0237899,1840,617,7.97285,-0.136058
623,407,8.21191,0.529114,0,0,0,0,0,0,0,-1,1847,617,8.21189,-0.529138
630,407,7.06177,0.814575,0,0,0,0,0,0,0,-1,1854,617,7.06178,-0.814579
637,407,6.27808,1.17114,0,0,0,0,0,0,0,-1,1861,617,6.27803,-1.17116
644,407,5.09766,2.27747,0,0,0,0,0,0,0,-1,1868,617,5.09764,-2.27746
651,407,7.81775,1.59814,0,0,0,0,0,0,0,-1,1875,617,7.8178,-1.59817
658,407,3.76685,0.594177,0,0,0,0,0,0,0,-1,1882,617,3.76683,-0.594184
665,407,5.76123,0.375061,0,0,0,0,0,0,0,-1,1889,617,5.76118,-0.37509
672,407,0,0,0,0,0,0,0,0,0,-1,1896,617,0,0
679,407,0,0,0,0,0,0,0,0,0,-1,1903,617,0,0
686,407,0,0,0,0,0,0,0,0,0,-1,1910,617,0,0
693,407,0,0,0,0,0,0,0,0,0,-1,1917,617,0,0
700,407,0,0,0,0,0,0,0,0,0,-1,1924,617,0,0
707,407,0,0,0,0,0,0,0,0,0,-1,1931,617,0,0
714,407,0,0,0,0,0,0,0,0,0,-1,1938,617,0,0
721,407,0,0,0,0,0,0,0,0,0,-1,1945,617,0,0
728,407,0,0,0,0,0,0,0,0,0,-1,1952,617,0,0
735,407,0,0,0,0,0,0,0,0,0,-1,1959,617,0,0
742,407,0,0,0,0,0,0,0,0,0,-1,1966,617,0,0
749,407,0,0,0,0,0,0,0,0,0,-1,1973,617,0,0
756,407,0,0,0,0,0,0,0,0,0,-1,1980,617,0,0
763,407,0,0,0,0,0,0,0,0,0,-1,1987,617,0,0
770,407,0,0,0,0,0,0,0,0,0,-1,1994,617,0,0
777,407,0,0,0,0,0,0,0,0,0,-1,2001,617,0,0
784,407,0,0,0,0,0,0,0,0,0,-1,2008,617,0,0
791,407,0,0,0,0,0,0,0,0,0,-1,2015,617,0,0
798,407,0,0,0,0,0,0,0,0,0,-1,2022,617,0,0
805,407,0,0,0,0,0,0,0,0,0,-1,2029,617,0,0
812,407,0,0,0,0,0,0,0,0,0,-1,2036,617,0,0
-700,400,0,0,0,0,0,0,0,0,0,-1,524,624,0,0
-693,400,0,0,0,0,0,0,0,0,0,-1,531,624,0,0
-686,400,0,0,0,0,0,0,0,0,0,-1,538,624,0,0
-679,400,0,0,0,0,0,0,0,0,0,-1,545,624,0,0
-672,400,0,0,0,0,0,0,0,0,0,-1,552,624,0,0
-665,400,0,0,0,0,0,0,0,0,0,-1,559,624,0,0
-658,400,0,0,0,0,0,0,0,0,0,-1,566,624,0,0
-651,400,0,0,0,0,0,0,0,0,0,-1,573,624,0,0
-644,400,0,0,0,0,0,0,0,0,0,-1,580,624,0,0
-637,400,0,0,0,0,0,0,0,0,0,-1,587,624,0,0
-630,400,0,0,0,0,0,0,0,0,0,-1,594,624,0,0
-623,400,0,0,0,0,0,0,0,0,0,-1,601,624,0,0
-616,400,0,0,0,0,0,0,0,0,0,-1,608,624,0,0
-609,400,0,0,0,0,0,0,0,0,0,-1,615,624,0,0
-602,400,0,0,0,0,0,0,0,0,0,-1,622,624,0,0
-595,400,0,0,0,0,0,0,0,0,0,-1,629,624,0,0
-588,400,0,0,0,0,0,0,0,0,0,-1,636,624,0,0
-581,400,0,0,0,0,0,0,0,0,0,-1,643,624,0,0
-574,400,0,0,0,0,0,0,0,0,0,-1,650,624,0,0
-567,400,0,0,0,0,0,0,0,0,0,-1,657,624,0,0
-560,400,0,0,0,0,0,0,0,0,0,-1,664,624,0,0
-553,400,0,0,0,0,0,0,0,0,0,-1,671,624,0,0
-546,400,-8.41174,-1.4599,0,0,0,0,0,0,0,-1,678,624,-8.41173,1.45989
-539,400,-5.69104,-1.7337,0,0,0,0,0,0,0,-1,685,624,-5.69103,1.7337
-532,400,-3.03632,-2.03912,0,0,0,0,0,0,0,-1,692,624,-3.03632,2.03909
-525,400,-0.330627,-2.44366,0,0,0,0,0,0,0,-1,699,624,-0.330601,2.44365
-518,400,-2.65259,-0.450928,0,0,0,0,0,0,0,-1,706,624,-2.65262,0.45091
-511,400,-2.71826,-2.89178,0,0,0,0,0,0,0,-1,713,624,-2.71828,2.89181
-504,400,-2.87384,-2.25824,-0.018067,-0.0165439,0.00644683,-0.0108138,-0.0237971,0.844189,0.0137583,0.046218,720,624,-2.87385,2.25823
-497,400,-3.21985,-1.60596,-0.0134041,-0.0151794,0.00573455,-0.00848892,-0.0200946,0.708613,0.011648,0.0321398,727,624,-3.21985,1.60597
-490,400,-3.34528,-1.68097,-0.00853468,-0.0116465,0.00406728,-0.00573585,-0.0144453,0.602715,0.00839869,0.0149269,734,624,-3.34525,1.68097
-483,400,-3.39185,-1.89746,-0.00459428,-0.00848634,0.00260003,-0.00329267,-0.00978795,0.464139,0.00575103,0.0145035,741,624,-3.39187,1.89746
-476,400,-3.38281,-2.11505,-0.00214139,-0.00622987,0.00170487,-0.00152377,-0.00684749,0.347561,0.00415136,0.0129868,748,624,-3.38282,2.11503
-469,400,-3.37665,-2.31879,-0.000892887,-0.00426874,0.00119134,-0.000514809,-0.00464682,0.307303,0.00294133,0.0136135,755,624,-3.37663,2.3188
-462,400,-3.36951,-2.52502,0.000510372,-0.0027784,0.000657142,0.000636816,-0.00290484,0.190093,0.00218006,0.0184208,762,624,-3.36952,2.52505
-455,400,-3.36224,-2.74591,0.00103129,-0.00194421,0.000544959,0.00112796,-0.00204088,0.175559,0.00185467,0.0189945,769,624,-3.36223,2.7459
-448,400,-3.36481,-2.95752,0.000716052,-0.00160334,0.00070846,0.000915329,-0.00180262,0.274198,0.00159684,0.0149018,776,624,-3.36481,2.95749
-441,400,-3.37939,-3.14001,-0.000106029,-0.00207858,0.00117914,0.000444933,-0.00262954,0.437114,0.00191862,0.0140363,783,624,-3.37938,3.14001
-434,400,-3.39288,-3.34161,-0.00142984,-0.00270613,0.00201748,4.80111e-05,-0.00418398,0.632222,0.00280546,0.0107272,790,624,-3.39289,3.34161
-427,400,-3.37061,-3.55511,-0.00305299,-0.00366235,0.00319543,-0.000147744,-0.00656759,0.737868,0.00432999,0.00971098,797,624,-3.37058,3.55514
-420,400,-3.33832,-3.78851,-0.00466355,-0.00483105,0.00435595,-0.000390542,-0.00910406,0.775786,0.00594347,0.0111905,804,624,-3.33831,3.78851
-413,400,-3.35223,-3.95081,-0.00623729,-0.00619773,0.00565375,-0.000563719,-0.0118713,0.787147,0.00773314,0.0228402,811,624,-3.35226,3.95084
-406,400,-3.48206,-4.02844,-0.00843809,-0.00748152,0.0071714,-0.000772472,-0.0151471,0.818696,0.0098507,0.0355821,818,624,-3.48204,4.02842
-399,400,-3.28461,-4.1499,-0.011418,-0.00895135,0.0089743,-0.00112602,-0.0192433,0.853685,0.0124705,0.045281,825,624,-3.28461,4.14987
-392,400,-3.15997,-4.33905,0,0,0,0,0,0,0,-1,832,624,-3.15996,4.33905
-385,400,-3.68738,-5.04205,0,0,0,0,0,0,0,-1,839,624,-3.68736,5.04207
-378,400,-6.84064,-1.28662,0,0,0,0,0,0,0,-1,846,624,-6.84062,1.28662
-371,400,-6.98865,-1.2572,0,0,0,0,0,0,0,-1,853,624,-6.98865,1.25721
-364,400,-6.97247,-1.24133,0,0,0,0,0,0,0,-1,860,624,-6.97249,1.24135
-357,400,-7.18329,-1.23218,0,0,0,0,0,0,0,-1,867,624,-7.18327,1.2322
-350,400,-7.40186,-1.19409,0,0,0,0,0,0,0,-1,874,624,-7.40187,1.19407
-343,400,-8.09357,-1.51147,0,0,0,0,0,0,0,-1,881,624,-8.09355,1.51148
-336,400,0,0,0,0,0,0,0,0,0,-1,888,624,0,0
-329,400,0,0,0,0,0,0,0,0,0,-1,895,624,0,0
-322,400,0,0,0,0,0,0,0,0,0,-1,902,624,0,0
-315,400,0,0,0,0,0,0,0,0,0,-1,909,624,0,0
-308,400,0,0,0,0,0,0,0,0,0,-1,916,624,0,0
-301,400,0,0,0,0,0,0,0,0,0,-1,923,624,0,0
-294,400,0,0,0,0,0,0,0,0,0,-1,930,624,0,0
-287,400,0,0,0,0,0,0,0,0,0,-1,937,624,0,0
-280,400,0,0,0,0,0,0,0,0,0,-1,944,624,0,0
-273,400,0,0,0,0,0,0,0,0,0,-1,951,624,0,0
-266,400,0,0,0,0,0,0,0,0,0,-1,958,624,0,0
-259,400,0,0,0,0,0,0,0,0,0,-1,965,624,0,0
-252,400,0,0,0,0,0,0,0,0,0,-1,972,624,0,0
-245,400,0,0,0,0,0,0,0,0,0,-1,979,624,0,0
-238,400,0,0,0,0,0,0,0,0,0,-1,986,624,0,0
-231,400,0,0,0,0,0,0,0,0,0,-1,993,624,0,0
-224,400,0,0,0,0,0,0,0,0,0,-1,1000,624,0,0
-217,400,0,0,0,0,0,0,0,0,0,-1,1007,624,0,0
-210,400,0,0,0,0,0,0,0,0,0,-1,1014,624,0,0
-203,400,0,0,0,0,0,0,0,0,0,-1,1021,624,0,0
-196,400,0,0,0,0,0,0,0,0,0,-1,1028,624,0,0
-189,400,0,0,0,0,0,0,0,0,0,-1,1035,624,0,0
-182,400,0,0,0,0,0,0,0,0,0,-1,1042,624,0,0
-175,400,0,0,0,0,0,0,0,0,0,-1,1049,624,0,0
-168,400,0,0,0,0,0,0,0,0,0,-1,1056,624,0,0
-161,400,0,0,0,0,0,0,0,0,0,-1,1063,624,0,0
-154,400,0,0,0,0,0,0,0,0,0,-1,1070,624,0,0
-147,400,0,0,0,0,0,0,0,0,0,-1,1077,624,0,0
-140,400,0,0,0,0,0,0,0,0,0,-1,1084,624,0,0
-133,400,0,0,0,0,0,0,0,0,0,-1,1091,624,0,0
-126,400,0,0,0,0,0,0,0,0,0,-1,1098,624,0,0
-119,400,0,0,0,0,0,0,0,0,0,-1,1105,624,0,0
-112,400,0,0,0,0,0,0,0,0,0,-1,1112,624,0,0
-105,400,0,0,0,0,0,0,0,0,0,-1,1119,624,0,0
-98,400,0,0,0,0,0,0,0,0,0,-1,1126,624,0,0
-91,400,0,0,0,0,0,0,0,0,0,-1,1133,624,0,0
-84,400,0,0,0,0,0,0,0,0,0,-1,1140,624,0,0
-77,400,0,0,0,0,0,0,0,0,0,-1,1147,624,0,0
-70,400,0,0,0,0,0,0,0,0,0,-1,1154,624,0,0
-63,400,0,0,0,0,0,0,0,0,0,-1,1161,624,0,0
-56,400,0,0,0,0,0,0,0,0,0,-1,1168,624,0,0
-49,400,0,0,0,0,0,0,0,0,0,-1,1175,624,0,0
-42,400,0,0,0,0,0,0,0,0,0,-1,1182,624,0,0
-35,400,0,0,0,0,0,0,0,0,0,-1,1189,624,0,0
-28,400,0,0,0,0,0,0,0,0,0,-1,1196,624,0,0
-21,400,0,0,0,0,0,0,0,0,0,-1,1203,624,0,0
-14,400,0,0,0,0,0,0,0,0,0,-1,1210,624,0,0
-7,400,0,0,0,0,0,0,0,0,0,-1,1217,624,0,0
0,400,0,0,0,0,0,0,0,0,0,-1,1224,624,0,0
7,400,0,0,0,0,0,0,0,0,0,-1,1231,624,0,0
14,400,0,0,0,0,0,0,0,0,0,-1,1238,624,0,0
21,400,0,0,0,0,0,0,0,0,0,-1,1245,624,0,0
28,400,0,0,0,0,0,0,0,0,0,-1,1252,624,0,0
35,400,0,0,0,0,0,0,0,0,0,-1,1259,624,0,0
42,400,0,0,0,0,0,0,0,0,0,-1,1266,624,0,0
49,400,0,0,0,0,0,0,0,0,0,-1,1273,624,0,0
56,400,0,0,0,0,0,0,0,0,0,-1,1280,624,0,0
63,400,0,0,0,0,0,0,0,0,0,-1,1287,624,0,0
70,400,0,0,0,0,0,0,0,0,0,-1,1294,624,0,0
77,400,0,0,0,0,0,0,0,0,0,-1,1301,624,0,0
84,400,0,0,0,0,0,0,0,0,0,-1,1308,624,0,0
91,400,0,0,0,0,0,0,0,0,0,-1,1315,624,0,0
98,400,0,0,0,0,0,0,0,0,0,-1,1322,624,0,0
105,400,0,0,0,0,0,0,0,0,0,-1,1329,624,0,0
112,400,0,0,0,0,0,0,0,0,0,-1,1336,624,0,0
119,400,0,0,0,0,0,0,0,0,0,-1,1343,624,0,0
126,400,0,0,0,0,0,0,0,0,0,-1,1350,624,0,0
133,400,0,0,0,0,0,0,0,0,0,-1,1357,624,0,0
140,400,0,0,0,0,0,0,0,0,0,-1,1364,624,0,0
147,400,0,0,0,0,0,0,0,0,0,-1,1371,624,0,0
154,400,0,0,0,0,0,0,0,0,0,-1,1378,624,0,0
161,400,0,0,0,0,0,0,0,0,0,-1,1385,624,0,0
168,400,0,0,0,0,0,0,0,0,0,-1,1392,624,0,0
175,400,0,0,0,0,0,0,0,0,0,-1,1399,624,0,0
182,400,0,0,0,0,0,0,0,0,0,-1,1406,624,0,0
189,400,0,0,0,0,0,0,0,0,0,-1,1413,624,0,0
196,400,0,0,0,0,0,0,0,0,0,-1,1420,624,0,0
203,400,0,0,0,0,0,0,0,0,0,-1,1427,624,0,0
210,400,0,0,0,0,0,0,0,0,0,-1,1434,624,0,0
217,400,0,0,0,0,0,0,0,0,0,-1,1441,624,0,0
224,400,0,0,0,0,0,0,0,0,0,-1,1448,624,0,0
231,400,0,0,0,0,0,0,0,0,0,-1,1455,624,0,0
238,400,0,0,0,0,0,0,0,0,0,-1,1462,624,0,0
245,400,0,0,0,0,0,0,0,0,0,-1,1469,624,0,0
252,400,0,0,0,0,0,0,0,0,0,-1,1476,624,0,0
259,400,0,0,0,0,0,0,0,0,0,-1,1483,624,0,0
266,400,0,0,0,0,0,0,0,0,0,-1,1490,624,0,0
273,400,0,0,0,0,0,0,0,0,0,-1,1497,624,0,0
280,400,0,0,0,0,0,0,0,0,0,-1,1504,624,0,0
287,400,0,0,0,0,0,0,0,0,0,-1,1511,624,0,0
294,400,0,0,0,0,0,0,0,0,0,-1,1518,624,0,0
301,400,0,0,0,0,0,0,0,0,0,-1,1525,624,0,0
308,400,0,0,0,0,0,0,0,0,0,-1,1532,624,0,0
315,400,0,0,0,0,0,0,0,0,0,-1,1539,624,0,0
322,400,0,0,0,0,0,0,0,0,0,-1,1546,624,0,0
329,400,0,0,0,0,0,0,0,0,0,-1,1553,624,0,0
336,400,0,0,0,0,0,0,0,0,0,-1,1560,624,0,0
343,400,0,0,0,0,0,0,0,0,0,-1,1567,624,0,0
350,400,0,0,0,0,0,0,0,0,0,-1,1574,624,0,0
357,400,0,0,0,0,0,0,0,0,0,-1,1581,624,0,0
364,400,0,0,0,0,0,0,0,0,0,-1,1588,624,0,0
371,400,0,0,0,0,0,0,0,0,0,-1,1595,624,0,0
378,400,0,0,0,0,0,0,0,0,0,-1,1602,624,0,0
385,400,0,0,0,0,0,0,0,0,0,-1,1609,624,0,0
392,400,0,0,0,0,0,0,0,0,0,-1,1616,624,0,0
399,400,0,0,0,0,0,0,0,0,0,-1,1623,624,0,0
406,400,0,0,0,0,0,0,0,0,0,-1,1630,624,0,0
413,400,0,0,0,0,0,0,0,0,0,-1,1637,624,0,0
420,400,0,0,0,0,0,0,0,0,0,-1,1644,624,0,0
427,400,0,0,0,0,0,0,0,0,0,-1,1651,624,0,0
434,400,0,0,0,0,0,0,0,0,0,-1,1658,624,0,0
441,400,0,0,0,0,0,0,0,0,0,-1,1665,624,0,0
448,400,0,0,0,0,0,0,0,0,0,-1,1672,624,0,0
455,400,8.91309,2.75885,0,0,0,0,0,0,0,-1,1679,624,8.91312,-2.75885
462,400,8.90356,2.37878,0,0,0,0,0,0,0,-1,1686,624,8.90353,-2.37878
469,400,9.14429,1.76849,0,0,0,0,0,0,0,-1,1693,624,9.14432,-1.76847
476,400,9.23254,1.25995,0,0,0,0,0,0,0,-1,1700,624,9.23252,-1.25994
483,400,9.59766,0.562439,0,0,0,0,0,0,0,-1,1707,624,9.59771,-0.56242
490,400,9.92578,-0.213745,0,0,0,0,0,0,0,-1,1714,624,9.92579,0.21376
497,400,9.19141,0.175232,0,0,0,0,0,0,0,-1,1721,624,9.19138,-0.175209
504,400,9.23438,0.00823975,0,0,0,0,0,0,0,-1,1728,624,9.23436,-0.00823766
511,400,6.16687,3.3501,0,0,0,0,0,0,0,-1,1735,624,6.16682,-3.35007
518,400,6.55237,1.74994,0,0,0,0,0,0,0,-1,1742,624,6.55236,-1.74993
525,400,6.99731,1.08783,0,0,0,0,0,0,0,-1,1749,624,6.99736,-1.08785
532,400,6.96582,-1.74982,0,0,0,0,0,0,0,-1,1756,624,6.96585,1.74983
539,400,8.22253,-2.44556,0,0,0,0,0,0,0,-1,1763,624,8.22255,2.44558
546,400,8.20764,-2.25507,-0.00305466,-0.00262169,-0.00298932,0.000158974,-0.00583533,-0.821545,0.00394428,0.0215485,1770,624,8.20763,2.25507
553,400,8.1488,-1.99719,-0.002896,-0.00214408,-0.00264455,0.000151107,-0.00519118,-0.856006,0.00351224,0.0129327,1777,624,8.14879,1.99721
560,400,8.16846,-1.73621,-0.00260045,-0.00175136,-0.00226839,0.000131871,-0.00448369,-0.877906,0.00303404,0.0124438,1784,624,8.1685,1.73624
567,400,8.20239,-1.53516,-0.00222035,-0.00134163,-0.00183409,0.000104989,-0.00366697,-0.902959,0.00248039,0.0173792,1791,624,8.20242,1.53513
574,400,8.20068,-1.33527,-0.00154841,-0.000916995,-0.00124187,4.86735e-05,-0.00251407,-0.90987,0.00169251,0.0202285,1798,624,8.20063,1.33525
581,400,8.14514,-1.08368,-0.000728185,-0.000411303,-0.000619788,6.99753e-05,-0.00120946,-0.910537,0.000830617,0.0178707,1805,624,8.14517,1.08366
588,400,8.15112,-0.859375,3.86516e-05,0.000114753,1.53255e-05,0.000117724,3.56813e-05,1.37935,6.97025e-05,0.0134422,1812,624,8.15115,0.859378
595,400,8.16882,-0.64679,0.000994952,0.000592217,0.000477413,0.00131173,0.000275442,0.585824,0.000798663,0.0130642,1819,624,8.16885,0.646762
602,400,8.17322,-0.413269,0.00212409,0.00126805,0.000983277,0.00276847,0.000623673,0.580116,0.00167687,0.0123779,1826,624,8.17319,0.413252
609,400,8.1344,-0.164429,0.00290957,0.00169581,0.00120784,0.00365442,0.000950953,0.552595,0.00218926,0.0125451,1833,624,8.13443,0.164454
616,400,8.13281,0.0761719,0.00371304,0.0021901,0.00123366,0.00440131,0.00150183,0.508898,0.00258345,0.0159611,1840,624,8.13281,-0.0761911
623,400,8.29419,0.420776,0.00481928,0.00275632,0.00107735,0.00527933,0.00229628,0.403574,0.0030566,0.0351092,1847,624,8.29423,-0.420786
630,400,8.51831,0.705872,0,0,0,0,0,0,0,-1,1854,624,8.51831,-0.705887
637,400,6.92896,1.01917,0,0,0,0,0,0,0,-1,1861,624,6.92899,-1.01918
644,400,7.84827,1.02887,0,0,0,0,0,0,0,-1,1868,624,7.84823,-1.02887
651,400,8.09106,1.40491,0,0,0,0,0,0,0,-1,1875,624,8.0911,-1.40491
658,400,8.65027,1.97607,0,0,0,0,0,0,0,-1,1882,624,8.65022,-1.97606
665,400,5.98438,0.522522,0,0,0,0,0,0,0,-1,1889,624,5.98442,-0.522552
672,400,0,0,0,0,0,0,0,0,0,-1,1896,624,0,0
679,400,0,0,0,0,0,0,0,0,0,-1,1903,624,0,0
686,400,0,0,0,0,0,0,0,0,0,-1,1910,624,0,0
693,400,0,0,0,0,0,0,0,0,0,-1,1917,624,0,0
700,400,0,0,0,0,0,0,0,0,0,-1,1924,624,0,0
707,400,0,0,0,0,0,0,0,0,0,-1,1931,624,0,0
714,400,0,0,0,0,0,0,0,0,0,-1,1938,624,0,0
721,400,0,0,0,0,0,0,0,0,0,-1,1945,624,0,0
728,400,0,0,0,0,0,0,0,0,0,-1,1952,624,0,0
735,400,0,0,0,0,0,0,0,0,0,-1,1959,624,0,0
742,400,0,0,0,0,0,0,0,0,0,-1,1966,624,0,0
749,400,0,0,0,0,0,0,0,0,0,-1,1973,624,0,0
756,400,0,0,0,0,0,0,0,0,0,-1,1980,624,0,0
763,400,0,0,0,0,0,0,0,0,0,-1,1987,624,0,0
770,400,0,0,0,0,0,0,0,0,0,-1,1994,624,0,0
777,400,0,0,0,0,0,0,0,0,0,-1,2001,624,0,0
784,400,0,0,0,0,0,0,0,0,0,-1,2008,624,0,0
791,400,0,0,0,0,0,0,0,0,0,-1,2015,624,0,0
798,400,0,0,0,0,0,0,0,0,0,-1,2022,624,0,0
805,400,0,0,0,0,0,0,0,0,0,-1,2029,624,0,0
812,400,0,0,0,0,0,0,0,0,0,-1,2036,624,0,0
-700,393,0,0,0,0,0,0,0,0,0,-1,524,631,0,0
-693,393,0,0,0,0,0,0,0,0,0,-1,531,631,0,0
-686,393,0,0,0,0,0,0,0,0,0,-1,538,631,0,0
-679,393,0,0,0,0,0,0,0,0,0,-1,545,631,0,0
-672,393,0,0,0,0,0,0,0,0,0,-1,552,631,0,0
-665,393,0,0,0,0,0,0,0,0,0,-1,559,631,0,0
-658,393,0,0,0,0,0,0,0,0,0,-1,566,631,0,0
-651,393,0,0,0,0,0,0,0,0,0,-1,573,631,0,0
-644,393,0,0,0,0,0,0,0,0,0,-1,580,631,0,0
-637,393,0,0,0,0,0,0,0,0,0,-1,587,631,0,0
-630,393,0,0,0,0,0,0,0,0,0,-1,594,631,0,0
-623,393,0,0,0,0,0,0,0,0,0,-1,601,631,0,0
-616,393,0,0,0,0,0,0,0,0,0,-1,608,631,0,0
-609,393,0,0,0,0,0,0,0,0,0,-1,615,631,0,0
-602,393,0,0,0,0,0,0,0,0,0,-1,622,631,0,0
-595,393,0,0,0,0,0,0,0,0,0,-1,629,631,0,0
-588,393,0,0,0,0,0,0,0,0,0,-1,636,631,0,0
-581,393,0,0,0,0,0,0,0,0,0,-1,643,631,0,0
-574,393,0,0,0,0,0,0,0,0,0,-1,650,631,0,0
-567,393,0,0,0,0,0,0,0,0,0,-1,657,631,0,0
-560,393,0,0,0,0,0,0,0,0,0,-1,664,631,0,0
-553,393,-5.00073,0.92218,0,0,0,0,0,0,0,-1,671,631,-5.00076,-0.922168
-546,393,-4.91742,1.02753,0,0,0,0,0,0,0,-1,678,631,-4.91745,-1.0275
-539,393,-5.2113,-2.20245,0,0,0,0,0,0,0,-1,685,631,-5.21128,2.20247
-532,393,-2.83643,-2.01624,0,0,0,0,0,0,0,-1,692,631,-2.83642,2.01626
-525,393,-3.02795,0.58905,0,0,0,0,0,0,0,-1,699,631,-3.02794,-0.589026
-518,393,-2.94037,-0.140625,0,0,0,0,0,0,0,-1,706,631,-2.94036,0.1406
-511,393,-2.91003,-1.32648,0,0,0,0,0,0,0,-1,713,631,-2.91001,1.32647
-504,393,-3.25281,-1.41522,-0.00953484,-0.0124082,0.00427537,-0.00646123,-0.0154818,0.623305,0.00897907,0.0436913,720,631,-3.2528,1.4152
-497,393,-3.58582,-1.42761,-0.00733508,-0.011592,0.00407562,-0.00486559,-0.0140615,0.544758,0.00824571,0.0223621,727,631,-3.5858,1.42763
-490,393,-3.59735,-1.71698,-0.00480862,-0.00897265,0.00302119,-0.00322152,-0.0105597,0.483699,0.00624919,0.0135673,734,631,-3.59733,1.717
-483,393,-3.59546,-1.91095,-0.00257404,-0.00663463,0.00205044,-0.00171879,-0.00748989,0.395167,0.00453035,0.0184949,741,631,-3.59547,1.91094
-476,393,-3.5675,-2.11511,-0.00127513,-0.00513525,0.00156875,-0.000718002,-0.00569238,0.341248,0.00357967,0.0150271,748,631,-3.56753,2.1151
-469,393,-3.57727,-2.32068,-0.000768602,-0.00371437,0.00134698,-0.000245554,-0.00423742,0.370389,0.00274676,0.011926,755,631,-3.57726,2.32066
-462,393,-3.59064,-2.52875,3.56785e-05,-0.00260457,0.00102543,0.00038715,-0.00295604,0.330207,0.00211161,0.0151872,762,631,-3.59062,2.52872
-455,393,-3.5863,-2.75775,0.000311421,-0.00206222,0.00101698,0.000687541,-0.00243834,0.354241,0.00189674,0.0137119,769,631,-3.58633,2.75777
-448,393,-3.58875,-2.979,4.34824e-05,-0.0019585,0.00127477,0.000663302,-0.00257832,0.452563,0.00197742,0.0132459,776,631,-3.58876,2.97902
-441,393,-3.61127,-3.16766,-0.000789868,-0.0026102,0.00186336,0.000373739,-0.0037738,0.558215,0.00264925,0.0124755,783,631,-3.61125,3.16767
-434,393,-3.60822,-3.33569,-0.0021995,-0.00340332,0.002841,0.000102653,-0.00570548,0.681009,0.00383833,0.0110806,790,631,-3.60822,3.33567
-427,393,-3.55859,-3.56848,-0.00394591,-0.0044931,0.00416685,-4.36818e-05,-0.00839533,0.752615,0.00558238,0.0152408,797,631,-3.55858,3.56847
-420,393,-3.54578,-3.78131,-0.00565046,-0.00587375,0.00543768,-0.00032328,-0.0112009,0.775134,0.00736189,0.0287264,804,631,-3.54576,3.78134
-413,393,-3.73828,-3.77563,-0.00749162,-0.00750638,0.00695737,-0.000541631,-0.0144564,0.784868,0.00946221,0.0420233,811,631,-3.73826,3.77562
-406,393,-3.74878,-3.97223,0,0,0,0,0,0,0,-1,818,631,-3.7488,3.97222
-399,393,-3.49622,-4.02313,0,0,0,0,0,0,0,-1,825,631,-3.49619,4.02314
-392,393,-2.08063,-3.02386,0,0,0,0,0,0,0,-1,832,631,-2.08063,3.02384
-385,393,-3.16931,-0.624756,0,0,0,0,0,0,0,-1,839,631,-3.16928,0.624764
-378,393,-7.33081,-0.872314,0,0,0,0,0,0,0,-1,846,631,-7.33081,0.872325
-371,393,-7.47858,-0.811096,0,0,0,0,0,0,0,-1,853,631,-7.47859,0.811075
-364,393,-7.64917,-0.662415,0,0,0,0,0,0,0,-1,860,631,-7.64917,0.662406
-357,393,-8.09686,-0.726013,0,0,0,0,0,0,0,-1,867,631,-8.09689,0.726029
-350,393,-8.38788,-0.511841,0,0,0,0,0,0,0,-1,874,631,-8.38785,0.511811
-343,393,0,0,0,0,0,0,0,0,0,-1,881,631,0,0
-336,393,0,0,0,0,0,0,0,0,0,-1,888,631,0,0
-329,393,0,0,0,0,0,0,0,0,0,-1,895,631,0,0
-322,393,0,0,0,0,0,0,0,0,0,-1,902,631,0,0
-315,393,0,0,0,0,0,0,0,0,0,-1,909,631,0,0
-308,393,0,0,0,0,0,0,0,0,0,-1,916,631,0,0
-301,393,0,0,0,0,0,0,0,0,0,-1,923,631,0,0
-294,393,0,0,0,0,0,0,0,0,0,-1,930,631,0,0
-287,393,0,0,0,0,0,0,0,0,0,-1,937,631,0,0
-280,393,0,0,0,0,0,0,0,0,0,-1,944,631,0,0
-273,393,0,0,0,0,0,0,0,0,0,-1,951,631,0,0
-266,393,0,0,0,0,0,0,0,0,0,-1,958,631,0,0
-259,393,0,0,0,0,0,0,0,0,0,-1,965,631,0,0
-252,393,0,0,0,0,0,0,0,0,0,-1,972,631,0,0
-245,393,0,0,0,0,0,0,0,0,0,-1,979,631,0,0
-238,393,0,0,0,0,0,0,0,0,0,-1,986,631,0,0
-231,393,0,0,0,0,0,0,0,0,0,-1,993,631,0,0
-224,393,0,0,0,0,0,0,0,0,0,-1,1000,631,0,0
-217,393,0,0,0,0,0,0,0,0,0,-1,1007,631,0,0
-210,393,0,0,0,0,0,0,0,0,0,-1,1014,631,0,0
-203,393,0,0,0,0,0,0,0,0,0,-1,1021,631,0,0
-196,393,0,0,0,0,0,0,0,0,0,-1,1028,631,0,0
-189,393,0,0,0,0,0,0,0,0,0,-1,1035,631,0,0
-182,393,0,0,0,0,0,0,0,0,0,-1,1042,631,0,0
-175,393,0,0,0,0,0,0,0,0,0,-1,1049,631,0,0
-168,393,0,0,0,0,0,0,0,0,0,-1,1056,631,0,0
-161,393,0,0,0,0,0,0,0,0,0,-1,1063,631,0,0
-154,393,0,0,0,0,0,0,0,0,0,-1,1070,631,0,0
-147,393,0,0,0,0,0,0,0,0,0,-1,1077,631,0,0
-140,393,0,0,0,0,0,0,0,0,0,-1,1084,631,0,0
-133,393,0,0,0,0,0,0,0,0,0,-1,1091,631,0,0
-126,393,0,0,0,0,0,0,0,0,0,-1,1098,631,0,0
-119,393,0,0,0,0,0,0,0,0,0,-1,1105,631,0,0
-112,393,0,0,0,0,0,0,0,0,0,-1,1112,631,0,0
-105,393,0,0,0,0,0,0,0,0,0,-1,1119,631,0,0
-98,393,0,0,0,0,0,0,0,0,0,-1,1126,631,0,0
-91,393,0,0,0,0,0,0,0,0,0,-1,1133,631,0,0
-84,393,0,0,0,0,0,0,0,0,0,-1,1140,631,0,0
-77,393,0,0,0,0,0,0,0,0,0,-1,1147,631,0,0
-70,393,0,0,0,0,0,0,0,0,0,-1,1154,631,0,0
-63,393,0,0,0,0,0,0,0,0,0,-1,1161,631,0,0
-56,393,0,0,0,0,0,0,0,0,0,-1,1168,631,0,0
-49,393,0,0,0,0,0,0,0,0,0,-1,1175,631,0,0
-42,393,0,0,0,0,0,0,0,0,0,-1,1182,631,0,0
-35,393,0,0,0,0,0,0,0,0,0,-1,1189,631,0,0
-28,393,0,0,0,0,0,0,0,0,0,-1,1196,631,0,0
-21,393,0,0,0,0,0,0,0,0,0,-1,1203,631,0,0
-14,393,0,0,0,0,0,0,0,0,0,-1,1210,631,0,0
-7,393,0,0,0,0,0,0,0,0,0,-1,1217,631,0,0
0,393,0,0,0,0,0,0,0,0,0,-1,1224,631,0,0
7,393,0,0,0,0,0,0,0,0,0,-1,1231,631,0,0
14,393,0,0,0,0,0,0,0,0,0,-1,1238,631,0,0
21,393,0,0,0,0,0,0,0,0,0,-1,1245,631,0,0
28,393,0,0,0,0,0,0,0,0,0,-1,1252,631,0,0
35,393,0,0,0,0,0,0,0,0,0,-1,1259,631,0,0
42,393,0,0,0,0,0,0,0,0,0,-1,1266,631,0,0
49,393,0,0,0,0,0,0,0,0,0,-1,1273,631,0,0
56,393,0,0,0,0,0,0,0,0,0,-1,1280,631,0,0
63,393,0,0,0,0,0,0,0,0,0,-1,1287,631,0,0
70,393,0,0,0,0,0,0,0,0,0,-1,1294,631,0,0
77,393,0,0,0,0,0,0,0,0,0,-1,1301,631,0,0
84,393,0,0,0,0,0,0,0,0,0,-1,1308,631,0,0
91,393,0,0,0,0,0,0,0,0,0,-1,1315,631,0,0
98,393,0,0,0,0,0,0,0,0,0,-1,1322,631,0,0
105,393,0,0,0,0,0,0,0,0,0,-1,1329,631,0,0
112,393,0,0,0,0,0,0,0,0,0,-1,1336,631,0,0
119,393,0,0,0,0,0,0,0,0,0,-1,1343,631,0,0
126,393,0,0,0,0,0,0,0,0,0,-1,1350,631,0,0
133,393,0,0,0,0,0,0,0,0,0,-1,1357,631,0,0
140,393,0,0,0,0,0,0,0,0,0,-1,1364,631,0,0
147,393,0,0,0,0,0,0,0,0,0,-1,1371,631,0,0
154,393,0,0,0,0,0,0,0,0,0,-1,1378,631,0,0
161,393,0,0,0,0,0,0,0,0,0,-1,1385,631,0,0
168,393,0,0,0,0,0,0,0,0,0,-1,1392,631,0,0
175,393,0,0,0,0,0,0,0,0,0,-1,1399,631,0,0
182,393,0,0,0,0,0,0,0,0,0,-1,1406,631,0,0
189,393,0,0,0,0,0,0,0,0,0,-1,1413,631,0,0
196,393,0,0,0,0,0,0,0,0,0,-1,1420,631,0,0
203,393,0,0,0,0,0,0,0,0,0,-1,1427,631,0,0
210,393,0,0,0,0,0,0,0,0,0,-1,1434,631,0,0
217,393,0,0,0,0,0,0,0,0,0,-1,1441,631,0,0
224,393,0,0,0,0,0,0,0,0,0,-1,1448,631,0,0
231,393,0,0,0,0,0,0,0,0,0,-1,1455,631,0,0
238,393,0,0,0,0,0,0,0,0,0,-1,1462,631,0,0
245,393,0,0,0,0,0,0,0,0,0,-1,1469,631,0,0
252,393,0,0,0,0,0,0,0,0,0,-1,1476,631,0,0
259,393,0,0,0,0,0,0,0,0,0,-1,1483,631,0,0
266,393,0,0,0,0,0,0,0,0,0,-1,1490,631,0,0
273,393,0,0,0,0,0,0,0,0,0,-1,1497,631,0,0
280,393,0,0,0,0,0,0,0,0,0,-1,1504,631,0,0
287,393,0,0,0,0,0,0,0,0,0,-1,1511,631,0,0
294,393,0,0,0,0,0,0,0,0,0,-1,1518,631,0,0
301,393,0,0,0,0,0,0,0,0,0,-1,1525,631,0,0
308,393,0,0,0,0,0,0,0,0,0,-1,1532,631,0,0
315,393,0,0,0,0,0,0,0,0,0,-1,1539,631,0,0
322,393,0,0,0,0,0,0,0,0,0,-1,1546,631,0,0
329,393,0,0,0,0,0,0,0,0,0,-1,1553,631,0,0
336,393,0,0,0,0,0,0,0,0,0,-1,1560,631,0,0
343,393,0,0,0,0,0,0,0,0,0,-1,1567,631,0,0
350,393,0,0,0,0,0,0,0,0,0,-1,1574,631,0,0
357,393,0,0,0,0,0,0,0,0,0,-1,1581,631,0,0
364,393,0,0,0,0,0,0,0,0,0,-1,1588,631,0,0
371,393,0,0,0,0,0,0,0,0,0,-1,1595,631,0,0
378,393,0,0,0,0,0,0,0,0,0,-1,1602,631,0,0
385,393,0,0,0,0,0,0,0,0,0,-1,1609,631,0,0
392,393,0,0,0,0,0,0,0,0,0,-1,1616,631,0,0
399,393,0,0,0,0,0,0,0,0,0,-1,1623,631,0,0
406,393,0,0,0,0,0,0,0,0,0,-1,1630,631,0,0
413,393,0,0,0,0,0,0,0,0,0,-1,1637,631,0,0
420,393,0,0,0,0,0,0,0,0,0,-1,1644,631,0,0
427,393,0,0,0,0,0,0,0,0,0,-1,1651,631,0,0
434,393,0,0,0,0,0,0,0,0,0,-1,1658,631,0,0
441,393,0,0,0,0,0,0,0,0,0,-1,1665,631,0,0
448,393,0,0,0,0,0,0,0,0,0,-1,1672,631,0,0
455,393,0,0,0,0,0,0,0,0,0,-1,1679,631,0,0
462,393,8.51099,1.89502,0,0,0,0,0,0,0,-1,1686,631,8.51103,-1.89504
469,393,9.39465,1.51703,0,0,0,0,0,0,0,-1,1693,631,9.39465,-1.51703
476,393,9.95569,1.185,0,0,0,0,0,0,0,-1,1700,631,9.95575,-1.18497
483,393,10.5267,0.887329,0,0,0,0,0,0,0,-1,1707,631,10.5267,-0.887321
490,393,10.9303,0.761414,0,0,0,0,0,0,0,-1,1714,631,10.9303,-0.761386
497,393,8.32153,1.88104,0,0,0,0,0,0,0,-1,1721,631,8.32148,-1.88103
504,393,9.46985,1.78711,0,0,0,0,0,0,0,-1,1728,631,9.46986,-1.78713
511,393,9.66565,-0.375977,0,0,0,0,0,0,0,-1,1735,631,9.66571,0.375949
518,393,7.01599,1.62482,0,0,0,0,0,0,0,-1,1742,631,7.01597,-1.62483
525,393,7.88245,-1.13422,0,0,0,0,0,0,0,-1,1749,631,7.88246,1.13423
532,393,7.06335,-1.18103,0,0,0,0,0,0,0,-1,1756,631,7.06332,1.18101
539,393,8.81299,-2.15869,0,0,0,0,0,0,0,-1,1763,631,8.81298,2.15869
546,393,8.64392,-2.05322,-0.00520311,-0.00394104,-0.00460077,7.17654e-05,-0.00921592,-0.853552,0.006168,0.0449002,1770,631,8.64393,2.0532
553,393,8.42175,-2.01288,-0.00464538,-0.00317498,-0.00396859,0.000125941,-0.0079463,-0.876987,0.00534001,0.0190943,1777,631,8.42173,2.01287
560,393,8.40686,-1.7782,-0.00405491,-0.00258014,-0.00338679,0.000148611,-0.00678366,-0.892587,0.00457278,0.0130892,1784,631,8.40683,1.7782
567,393,8.41516,-1.5484,-0.00344931,-0.00201821,-0.00278849,0.000145075,-0.0056126,-0.910993,0.00379101,0.0138957,1791,631,8.41522,1.54842
574,393,8.41321,-1.33075,-0.00262158,-0.00146946,-0.00207858,0.000111409,-0.00420245,-0.920577,0.0028395,0.0157461,1798,631,8.41322,1.33077
581,393,8.37708,-1.08032,-0.00166428,-0.000860631,-0.0013468,0.000143015,-0.00266792,-0.930371,0.00182815,0.0144512,1805,631,8.37707,1.08031
588,393,8.37878,-0.853455,-0.000774258,-0.000241214,-0.000626695,0.000173279,-0.00118875,-0.986453,0.000856125,0.0154797,1812,631,8.3788,0.853455
595,393,8.39966,-0.655701,0.000232377,0.000305697,-8.39289e-05,0.000360623,0.000177451,-0.991309,0.000208215,0.0137184,1819,631,8.39962,0.655684
602,393,8.3988,-0.429016,0.00135055,0.00104322,0.00048831,0.0017088,0.000684967,0.632957,0.000993024,0.0151975,1826,631,8.39876,0.429001
609,393,8.39001,-0.177002,0.00205657,0.00149558,0.000747332,0.00257431,0.00097784,0.605872,0.00150052,0.0152162,1833,631,8.39003,0.176993
616,393,8.36768,0.06604,0.00270256,0.00196536,0.00076893,0.00318667,0.00148125,0.561897,0.00184134,0.0153756,1840,631,8.3677,-0.0660343
623,393,8.36475,0.334778,0.00354509,0.00247751,0.0005851,0.00380331,0.00221929,0.415611,0.00220603,0.0193383,1847,631,8.3648,-0.334752
630,393,8.46204,0.610107,0.00475034,0.00296923,4.93682e-05,0.00475171,0.00296787,0.0276894,0.00277164,0.0361722,1854,631,8.46199,-0.610093
637,393,8.49658,0.93811,0,0,0,0,0,0,0,-1,1861,631,8.49664,-0.93811
644,393,7.98938,0.798401,0.00659292,0.00328394,-0.00247395,0.00791463,0.00196223,-0.490671,0.00475915,0.0488833,1868,631,7.98936,-0.798389
651,393,8.26733,1.02325,0.00862485,0.00339175,-0.00438699,0.0111163,0.000900266,-0.516501,0.00712977,0.0454766,1875,631,8.26734,-1.02328
658,393,8.69812,1.24292,0,0,0,0,0,0,0,-1,1882,631,8.69814,-1.24289
665,393,6.1001,2.32129,0,0,0,0,0,0,0,-1,1889,631,6.10012,-2.3213
672,393,7.14575,2.43225,0,0,0,0,0,0,0,-1,1896,631,7.14572,-2.43222
679,393,0,0,0,0,0,0,0,0,0,-1,1903,631,0,0
686,393,0,0,0,0,0,0,0,0,0,-1,1910,631,0,0
693,393,0,0,0,0,0,0,0,0,0,-1,1917,631,0,0
700,393,0,0,0,0,0,0,0,0,0,-1,1924,631,0,0
707,393,0,0,0,0,0,0,0,0,0,-1,1931,631,0,0
714,393,0,0,0,0,0,0,0,0,0,-1,1938,631,0,0
721,393,0,0,0,0,0,0,0,0,0,-1,1945,631,0,0
728,393,0,0,0,0,0,0,0,0,0,-1,1952,631,0,0
735,393,0,0,0,0,0,0,0,0,0,-1,1959,631,0,0
742,393,0,0,0,0,0,0,0,0,0,-1,1966,631,0,0
749,393,0,0,0,0,0,0,0,0,0,-1,1973,631,0,0
756,393,0,0,0,0,0,0,0,0,0,-1,1980,631,0,0
763,393,0,0,0,0,0,0,0,0,0,-1,1987,631,0,0
770,393,0,0,0,0,0,0,0,0,0,-1,1994,631,0,0
777,393,0,0,0,0,0,0,0,0,0,-1,2001,631,0,0
784,393,0,0,0,0,0,0,0,0,0,-1,2008,631,0,0
791,393,0,0,0,0,0,0,0,0,0,-1,2015,631,0,0
798,393,0,0,0,0,0,0,0,0,0,-1,2022,631,0,0
805,393,0,0,0,0,0,0,0,0,0,-1,2029,631,0,0
812,393,0,0,0,0,0,0,0,0,0,-1,2036,631,0,0
-700,386,0,0,0,0,0,0,0,0,0,-1,524,638,0,0
-693,386,0,0,0,0,0,0,0,0,0,-1,531,638,0,0
-686,386,0,0,0,0,0,0,0,0,0,-1,538,638,0,0
-679,386,0,0,0,0,0,0,0,0,0,-1,545,638,0,0
-672,386,0,0,0,0,0,0,0,0,0,-1,552,638,0,0
-665,386,0,0,0,0,0,0,0,0,0,-1,559,638,0,0
-658,386,0,0,0,0,0,0,0,0,0,-1,566,638,0,0
-651,386,0,0,0,0,0,0,0,0,0,-1,573,638,0,0
-644,386,0,0,0,0,0,0,0,0,0,-1,580,638,0,0
-637,386,0,0,0,0,0,0,0,0,0,-1,587,638,0,0
-630,386,0,0,0,0,0,0,0,0,0,-1,594,638,0,0
-623,386,0,0,0,0,0,0,0,0,0,-1,601,638,0,0
-616,386,0,0,0,0,0,0,0,0,0,-1,608,638,0,0
-609,386,0,0,0,0,0,0,0,0,0,-1,615,638,0,0
-602,386,0,0,0,0,0,0,0,0,0,-1,622,638,0,0
-595,386,0,0,0,0,0,0,0,0,0,-1,629,638,0,0
-588,386,0,0,0,0,0,0,0,0,0,-1,636,638,0,0
-581,386,0,0,0,0,0,0,0,0,0,-1,643,638,0,0
-574,386,0,0,0,0,0,0,0,0,0,-1,650,638,0,0
-567,386,0,0,0,0,0,0,0,0,0,-1,657,638,0,0
-560,386,-4.46454,-0.139709,0.00288475,0.0287828,-0.00894974,0.0315746,9.28938e-05,-1.26841,0.0210189,0.0478785,664,638,-4.46455,0.13972
-553,386,-4.44788,0.0686035,-0.00201847,0.0166187,-0.00605603,0.0184137,-0.00381346,-1.28265,0.0137247,0.0490551,671,638,-4.44786,-0.0686325
-546,386,-4.2533,0.0962524,0,0,0,0,0,0,0,-1,678,638,-4.25328,-0.0962342
-539,386,-4.55408,-1.92218,0,0,0,0,0,0,0,-1,685,638,-4.55405,1.92218
-532,386,-4.69666,1.55145,0,0,0,0,0,0,0,-1,692,638,-4.69665,-1.55145
-525,386,-4.53961,-0.653076,0,0,0,0,0,0,0,-1,699,638,-4.5396,0.65307
-518,386,-3.80914,-0.862305,0,0,0,0,0,0,0,-1,706,638,-3.80917,0.862314
-511,386,-3.66681,-1.07751,0,0,0,0,0,0,0,-1,713,638,-3.66678,1.07753
-504,386,-3.72333,-1.37445,0,0,0,0,0,0,0,-1,720,638,-3.72334,1.37444
-497,386,-3.82227,-1.49963,-0.0034021,-0.00837753,0.00274613,-0.00218441,-0.00959521,0.417366,0.00580727,0.0113777,727,638,-3.82226,1.49966
-490,386,-3.80536,-1.73413,-0.00239621,-0.00654259,0.0021298,-0.00149717,-0.00744163,0.399433,0.00454498,0.0123213,734,638,-3.80539,1.73413
-483,386,-3.76935,-1.93787,-0.00127375,-0.00485501,0.0015255,-0.00071204,-0.00541672,0.352807,0.00339875,0.0162025,741,638,-3.76935,1.93785
-476,386,-3.74939,-2.14563,-0.000722347,-0.00397896,0.00134503,-0.000238667,-0.00446264,0.345206,0.00289882,0.0145067,748,638,-3.74937,2.14561
-469,386,-3.78198,-2.33911,-0.00067795,-0.00303402,0.00133067,-7.87847e-05,-0.00363318,0.423082,0.00239629,0.0105117,755,638,-3.78196,2.33912
-462,386,-3.78595,-2.5354,-0.000245667,-0.00226845,0.00116495,0.000285675,-0.00279979,0.42792,0.00196867,0.0102448,762,638,-3.78594,2.53538
-455,386,-3.78918,-2.75714,-0.000100643,-0.00200168,0.00124288,0.000513526,-0.00261584,0.458956,0.00193789,0.011158,769,638,-3.7892,2.75713
-448,386,-3.79523,-2.96936,-0.000323668,-0.002198,0.00161646,0.000607647,-0.00312932,0.522694,0.00231549,0.0114501,776,638,-3.79524,2.96938
-441,386,-3.81635,-3.1626,-0.00115038,-0.00306621,0.00235249,0.000431751,-0.00464834,0.592053,0.00325237,0.0124091,783,638,-3.81636,3.16261
-434,386,-3.77545,-3.38092,-0.00261441,-0.00407036,0.00349811,0.000230667,-0.00691544,0.68281,0.00468908,0.0181567,790,638,-3.77547,3.38091
-427,386,-3.71832,-3.58374,-0.00447156,-0.00535021,0.00501198,0.000120314,-0.00994209,0.741683,0.00666852,0.0420964,797,638,-3.71831,3.58375
-420,386,-3.98737,-3.52826,-0.00630181,-0.00701939,0.00646064,-0.000190005,-0.0131312,0.757659,0.00869149,0.0461793,804,638,-3.98739,3.52824
-413,386,-3.97693,-3.76685,0,0,0,0,0,0,0,-1,811,638,-3.97691,3.76685
-406,386,-4.51135,-4.10999,0,0,0,0,0,0,0,-1,818,638,-4.51135,4.10996
-399,386,-3.57117,-3.42126,0,0,0,0,0,0,0,-1,825,638,-3.57116,3.42129
-392,386,-4.00977,0.403625,0,0,0,0,0,0,0,-1,832,638,-4.0098,-0.403616
-385,386,-3.2406,-0.118469,0,0,0,0,0,0,0,-1,839,638,-3.24058,0.118485
-378,386,-2.55243,-1.22748,0,0,0,0,0,0,0,-1,846,638,-2.55243,1.22748
-371,386,-7.95807,-0.330261,0,0,0,0,0,0,0,-1,853,638,-7.95806,0.330284
-364,386,-8.90637,-0.665955,0,0,0,0,0,0,0,-1,860,638,-8.90635,0.665951
-357,386,-9.10364,-0.388733,0,0,0,0,0,0,0,-1,867,638,-9.10364,0.388744
-350,386,0,0,0,0,0,0,0,0,0,-1,874,638,0,0
-343,386,0,0,0,0,0,0,0,0,0,-1,881,638,0,0
-336,386,0,0,0,0,0,0,0,0,0,-1,888,638,0,0
-329,386,0,0,0,0,0,0,0,0,0,-1,895,638,0,0
-322,386,0,0,0,0,0,0,0,0,0,-1,902,638,0,0
-315,386,0,0,0,0,0,0,0,0,0,-1,909,638,0,0
-308,386,0,0,0,0,0,0,0,0,0,-1,916,638,0,0
-301,386,0,0,0,0,0,0,0,0,0,-1,923,638,0,0
-294,386,0,0,0,0,0,0,0,0,0,-1,930,638,0,0
-287,386,0,0,0,0,0,0,0,0,0,-1,937,638,0,0
-280,386,0,0,0,0,0,0,0,0,0,-1,944,638,0,0
-273,386,0,0,0,0,0,0,0,0,0,-1,951,638,0,0
-266,386,0,0,0,0,0,0,0,0,0,-1,958,638,0,0
-259,386,0,0,0,0,0,0,0,0,0,-1,965,638,0,0
-252,386,0,0,0,0,0,0,0,0,0,-1,972,638,0,0
-245,386,0,0,0,0,0,0,0,0,0,-1,979,638,0,0
-238,386,0,0,0,0,0,0,0,0,0,-1,986,638,0,0
-231,386,0,0,0,0,0,0,0,0,0,-1,993,638,0,0
-224,386,0,0,0,0,0,0,0,0,0,-1,1000,638,0,0
-217,386,0,0,0,0,0,0,0,0,0,-1,1007,638,0,0
-210,386,0,0,0,0,0,0,0,0,0,-1,1014,638,0,0
-203,386,0,0,0,0,0,0,0,0,0,-1,1021,638,0,0
-196,386,0,0,0,0,0,0,0,0,0,-1,1028,638,0,0
-189,386,0,0,0,0,0,0,0,0,0,-1,1035,638,0,0
-182,386,0,0,0,0,0,0,0,0,0,-1,1042,638,0,0
-175,386,0,0,0,0,0,0,0,0,0,-1,1049,638,0,0
-168,386,0,0,0,0,0,0,0,0,0,-1,1056,638,0,0
-161,386,0,0,0,0,0,0,0,0,0,-1,1063,638,0,0
-154,386,0,0,0,0,0,0,0,0,0,-1,1070,638,0,0
-147,386,0,0,0,0,0,0,0,0,0,-1,1077,638,0,0
-140,386,0,0,0,0,0,0,0,0,0,-1,1084,638,0,0
-133,386,0,0,0,0,0,0,0,0,0,-1,1091,638,0,0
-126,386,0,0,0,0,0,0,0,0,0,-1,1098,638,0,0
-119,386,0,0,0,0,0,0,0,0,0,-1,1105,638,0,0
-112,386,0,0,0,0,0,0,0,0,0,-1,1112,638,0,0
-105,386,0,0,0,0,0,0,0,0,0,-1,1119,638,0,0
-98,386,0,0,0,0,0,0,0,0,0,-1,1126,638,0,0
-91,386,0,0,0,0,0,0,0,0,0,-1,1133,638,0,0
-84,386,0,0,0,0,0,0,0,0,0,-1,1140,638,0,0
-77,386,0,0,0,0,0,0,0,0,0,-1,1147,638,0,0
-70,386,0,0,0,0,0,0,0,0,0,-1,1154,638,0,0
-63,386,0,0,0,0,0,0,0,0,0,-1,1161,638,0,0
-56,386,0,0,0,0,0,0,0,0,0,-1,1168,638,0,0
-49,386,0,0,0,0,0,0,0,0,0,-1,1175,638,0,0
-42,386,0,0,0,0,0,0,0,0,0,-1,1182,638,0,0
-35,386,0,0,0,0,0,0,0,0,0,-1,1189,638,0,0
-28,386,0,0,0,0,0,0,0,0,0,-1,1196,638,0,0
-21,386,0,0,0,0,0,0,0,0,0,-1,1203,638,0,0
-14,386,0,0,0,0,0,0,0,0,0,-1,1210,638,0,0
-7,386,0,0,0,0,0,0,0,0,0,-1,1217,638,0,0
0,386,0,0,0,0,0,0,0,0,0,-1,1224,638,0,0
7,386,0,0,0,0,0,0,0,0,0,-1,1231,638,0,0
14,386,0,0,0,0,0,0,0,0,0,-1,1238,638,0,0
21,386,0,0,0,0,0,0,0,0,0,-1,1245,638,0,0
28,386,0,0,0,0,0,0,0,0,0,-1,1252,638,0,0
35,386,0,0,0,0,0,0,0,0,0,-1,1259,638,0,0
42,386,0,0,0,0,0,0,0,0,0,-1,1266,638,0,0
49,386,0,0,0,0,0,0,0,0,0,-1,1273,638,0,0
56,386,0,0,0,0,0,0,0,0,0,-1,1280,638,0,0
63,386,0,0,0,0,0,0,0,0,0,-1,1287,638,0,0
70,386,0,0,0,0,0,0,0,0,0,-1,1294,638,0,0
77,386,0,0,0,0,0,0,0,0,0,-1,1301,638,0,0
84,386,0,0,0,0,0,0,0,0,0,-1,1308,638,0,0
91,386,0,0,0,0,0,0,0,0,0,-1,1315,638,0,0
98,386,0,0,0,0,0,0,0,0,0,-1,1322,638,0,0
105,386,0,0,0,0,0,0,0,0,0,-1,1329,638,0,0
112,386,0,0,0,0,0,0,0,0,0,-1,1336,638,0,0
119,386,0,0,0,0,0,0,0,0,0,-1,1343,638,0,0
126,386,0,0,0,0,0,0,0,0,0,-1,1350,638,0,0
133,386,0,0,0,0,0,0,0,0,0,-1,1357,638,0,0
140,386,0,0,0,0,0,0,0,0,0,-1,1364,638,0,0
147,386,0,0,0,0,0,0,0,0,0,-1,1371,638,0,0
154,386,0,0,0,0,0,0,0,0,0,-1,1378,638,0,0
161,386,0,0,0,0,0,0,0,0,0,-1,1385,638,0,0
168,386,0,0,0,0,0,0,0,0,0,-1,1392,638,0,0
175,386,0,0,0,0,0,0,0,0,0,-1,1399,638,0,0
182,386,0,0,0,0,0,0,0,0,0,-1,1406,638,0,0
189,386,0,0,0,0,0,0,0,0,0,-1,1413,638,0,0
196,386,0,0,0,0,0,0,0,0,0,-1,1420,638,0,0
203,386,0,0,0,0,0,0,0,0,0,-1,1427,638,0,0
210,386,0,0,0,0,0,0,0,0,0,-1,1434,638,0,0
217,386,0,0,0,0,0,0,0,0,0,-1,1441,638,0,0
224,386,0,0,0,0,0,0,0,0,0,-1,1448,638,0,0
231,386,0,0,0,0,0,0,0,0,0,-1,1455,638,0,0
238,386,0,0,0,0,0,0,0,0,0,-1,1462,638,0,0
245,386,0,0,0,0,0,0,0,0,0,-1,1469,638,0,0
252,386,0,0,0,0,0,0,0,0,0,-1,1476,638,0,0
259,386,0,0,0,0,0,0,0,0,0,-1,1483,638,0,0
266,386,0,0,0,0,0,0,0,0,0,-1,1490,638,0,0
273,386,0,0,0,0,0,0,0,0,0,-1,1497,638,0,0
280,386,0,0,0,0,0,0,0,0,0,-1,1504,638,0,0
287,386,0,0,0,0,0,0,0,0,0,-1,1511,638,0,0
294,386,0,0,0,0,0,0,0,0,0,-1,1518,638,0,0
301,386,0,0,0,0,0,0,0,0,0,-1,1525,638,0,0
308,386,0,0,0,0,0,0,0,0,0,-1,1532,638,0,0
315,386,0,0,0,0,0,0,0,0,0,-1,1539,638,0,0
322,386,0,0,0,0,0,0,0,0,0,-1,1546,638,0,0
329,386,0,0,0,0,0,0,0,0,0,-1,1553,638,0,0
336,386,0,0,0,0,0,0,0,0,0,-1,1560,638,0,0
343,386,0,0,0,0,0,0,0,0,0,-1,1567,638,0,0
350,386,0,0,0,0,0,0,0,0,0,-1,1574,638,0,0
357,386,0,0,0,0,0,0,0,0,0,-1,1581,638,0,0
364,386,0,0,0,0,0,0,0,0,0,-1,1588,638,0,0
371,386,0,0,0,0,0,0,0,0,0,-1,1595,638,0,0
378,386,0,0,0,0,0,0,0,0,0,-1,1602,638,0,0
385,386,0,0,0,0,0,0,0,0,0,-1,1609,638,0,0
392,386,0,0,0,0,0,0,0,0,0,-1,1616,638,0,0
399,386,0,0,0,0,0,0,0,0,0,-1,1623,638,0,0
406,386,0,0,0,0,0,0,0,0,0,-1,1630,638,0,0
413,386,0,0,0,0,0,0,0,0,0,-1,1637,638,0,0
420,386,0,0,0,0,0,0,0,0,0,-1,1644,638,0,0
427,386,0,0,0,0,0,0,0,0,0,-1,1651,638,0,0
434,386,0,0,0,0,0,0,0,0,0,-1,1658,638,0,0
441,386,0,0,0,0,0,0,0,0,0,-1,1665,638,0,0
448,386,0,0,0,0,0,0,0,0,0,-1,1672,638,0,0
455,386,0,0,0,0,0,0,0,0,0,-1,1679,638,0,0
462,386,0,0,0,0,0,0,0,0,0,-1,1686,638,0,0
469,386,9.84692,1.55804,0,0,0,0,0,0,0,-1,1693,638,9.84691,-1.55807
476,386,10.6145,0.986511,0,0,0,0,0,0,0,-1,1700,638,10.6145,-0.986529
483,386,11.4113,0.732971,0,0,0,0,0,0,0,-1,1707,638,11.4112,-0.732958
490,386,7.79785,1.79572,0,0,0,0,0,0,0,-1,1714,638,7.79788,-1.7957
497,386,8.96362,1.77081,0,0,0,0,0,0,0,-1,1721,638,8.96357,-1.77081
504,386,10.0555,1.69427,0,0,0,0,0,0,0,-1,1728,638,10.0555,-1.69426
511,386,11.2172,1.534,0,0,0,0,0,0,0,-1,1735,638,11.2172,-1.53398
518,386,7.41553,1.75238,0,0,0,0,0,0,0,-1,1742,638,7.41547,-1.75238
525,386,8.82422,-1.1449,0,0,0,0,0,0,0,-1,1749,638,8.82426,1.14492
532,386,10.6432,0.617371,0,0,0,0,0,0,0,-1,1756,638,10.6432,-0.617359
539,386,9.62061,-0.393616,0,0,0,0,0,0,0,-1,1763,638,9.62059,0.393634
546,386,9.05347,-1.86682,0,0,0,0,0,0,0,-1,1770,638,9.0535,1.8668
553,386,8.78003,-1.85663,-0.0088703,0.0043327,-0.00392093,0.00540932,-0.00994691,-1.30282,0.00899402,0.0414843,1777,638,8.78,1.85661
560,386,8.69409,-1.7146,-0.00713103,0.00182076,-0.00370527,0.00315543,-0.0084657,-1.22506,0.00693903,0.0297822,1784,638,8.69406,1.71458
567,386,8.6272,-1.52264,-0.00569033,0.000333994,-0.00329323,0.00178485,-0.00714118,-1.15582,0.00545397,0.0188735,1791,638,8.62723,1.52267
574,386,8.62817,-1.30811,-0.00432546,-0.000380781,-0.0026916,0.00098377,-0.00569001,-1.10159,0.00416022,0.0137102,1798,638,8.62822,1.3081
581,386,8.60046,-1.09796,-0.00300165,-0.000515104,-0.00198502,0.000583848,-0.0041006,-1.06518,0.00294769,0.0131903,1805,638,8.6005,1.09795
588,386,8.60828,-0.885803,-0.00180111,-0.000443805,-0.00128446,0.000330271,-0.00257518,-1.02843,0.0018368,0.0122484,1812,638,8.60822,0.885788
595,386,8.59534,-0.683411,-0.000668916,-8.92216e-05,-0.000687799,0.000367309,-0.00112545,-0.984812,0.000898129,0.0137582,1819,638,8.59537,0.68338
602,386,8.59351,-0.447083,0.000440303,0.000686274,-5.9134e-05,0.000699752,0.000426825,-1.3467,0.000407246,0.0150509,1826,638,8.59357,0.447083
609,386,8.62183,-0.192627,0.00109547,0.0011483,0.000226331,0.00134975,0.000894015,0.843492,0.000792854,0.0147322,1833,638,8.62183,0.192636
616,386,8.625,0.050293,0.00162732,0.00157742,0.000242745,0.00184639,0.00135834,0.734179,0.00110478,0.0122837,1840,638,8.62498,-0.0502743
623,386,8.60608,0.276123,0.00225101,0.00200491,3.59538e-05,0.00225616,0.00199976,0.142134,0.00142634,0.0107677,1847,638,8.60611,-0.276119
630,386,8.6676,0.494324,0.0032627,0.00236372,-0.000441989,0.0034436,0.00218282,-0.388492,0.00201178,0.0194931,1854,638,8.66755,-0.494344
637,386,8.6156,0.69989,0.00386884,0.00245751,-0.00135833,0.00469386,0.00163248,-0.545832,0.00275154,0.0350109,1861,638,8.61555,-0.699919
644,386,8.36975,0.733521,0.00467048,0.00260643,-0.00252615,0.00636729,0.00090963,-0.591477,0.00397648,0.0434657,1868,638,8.36977,-0.733542
651,386,8.43677,0.966736,0.00626953,0.00266472,-0.00402089,0.00887351,6.07357e-05,-0.574695,0.00589553,0.047651,1875,638,8.43676,-0.966763
658,386,8.62537,1.17133,0,0,0,0,0,0,0,-1,1882,638,8.62541,-1.17133
665,386,6.33167,1.78601,0,0,0,0,0,0,0,-1,1889,638,6.33171,-1.78601
672,386,7.23352,2.14435,0,0,0,0,0,0,0,-1,1896,638,7.23353,-2.14433
679,386,8.07764,2.57104,0,0,0,0,0,0,0,-1,1903,638,8.07758,-2.57103
686,386,0,0,0,0,0,0,0,0,0,-1,1910,638,0,0
693,386,0,0,0,0,0,0,0,0,0,-1,1917,638,0,0
700,386,0,0,0,0,0,0,0,0,0,-1,1924,638,0,0
707,386,0,0,0,0,0,0,0,0,0,-1,1931,638,0,0
714,386,0,0,0,0,0,0,0,0,0,-1,1938,638,0,0
721,386,0,0,0,0,0,0,0,0,0,-1,1945,638,0,0
728,386,0,0,0,0,0,0,0,0,0,-1,1952,638,0,0
735,386,0,0,0,0,0,0,0,0,0,-1,1959,638,0,0
742,386,0,0,0,0,0,0,0,0,0,-1,1966,638,0,0
749,386,0,0,0,0,0,0,0,0,0,-1,1973,638,0,0
756,386,0,0,0,0,0,0,0,0,0,-1,1980,638,0,0
763,386,0,0,0,0,0,0,0,0,0,-1,1987,638,0,0
770,386,0,0,0,0,0,0,0,0,0,-1,1994,638,0,0
777,386,0,0,0,0,0,0,0,0,0,-1,2001,638,0,0
784,386,0,0,0,0,0,0,0,0,0,-1,2008,638,0,0
791,386,0,0,0,0,0,0,0,0,0,-1,2015,638,0,0
798,386,0,0,0,0,0,0,0,0,0,-1,2022,638,0,0
805,386,0,0,0,0,0,0,0,0,0,-1,2029,638,0,0
812,386,0,0,0,0,0,0,0,0,0,-1,2036,638,0,0
-700,379,0,0,0,0,0,0,0,0,0,-1,524,645,0,0
-693,379,0,0,0,0,0,0,0,0,0,-1,531,645,0,0
-686,379,0,0,0,0,0,0,0,0,0,-1,538,645,0,0
-679,379,0,0,0,0,0,0,0,0,0,-1,545,645,0,0
-672,379,0,0,0,0,0,0,0,0,0,-1,552,645,0,0
-665,379,0,0,0,0,0,0,0,0,0,-1,559,645,0,0
-658,379,0,0,0,0,0,0,0,0,0,-1,566,645,0,0
-651,379,0,0,0,0,0,0,0,0,0,-1,573,645,0,0
-644,379,0,0,0,0,0,0,0,0,0,-1,580,645,0,0
-637,379,0,0,0,0,0,0,0,0,0,-1,587,645,0,0
-630,379,0,0,0,0,0,0,0,0,0,-1,594,645,0,0
-623,379,0,0,0,0,0,0,0,0,0,-1,601,645,0,0
-616,379,0,0,0,0,0,0,0,0,0,-1,608,645,0,0
-609,379,0,0,0,0,0,0,0,0,0,-1,615,645,0,0
-602,379,0,0,0,0,0,0,0,0,0,-1,622,645,0,0
-595,379,0,0,0,0,0,0,0,0,0,-1,629,645,0,0
-588,379,0,0,0,0,0,0,0,0,0,-1,636,645,0,0
-581,379,0,0,0,0,0,0,0,0,0,-1,643,645,0,0
-574,379,0,0,0,0,0,0,0,0,0,-1,650,645,0,0
-567,379,-4.32123,-0.771301,0,0,0,0,0,0,0,-1,657,645,-4.32123,0.77132
-560,379,-4.29102,-0.430481,0.00876517,0.0207849,-0.0119926,0.0281892,0.00136084,-1.01767,0.018356,0.0491366,664,645,-4.29105,0.43051
-553,379,-4.0083,-0.312927,0.00784915,0.0132862,-0.0093607,0.0203152,0.000820226,-0.926721,0.0132785,0.0484458,671,645,-4.00832,0.312951
-546,379,-3.55505,-0.347412,0,0,0,0,0,0,0,-1,678,645,-3.55506,0.347428
-539,379,-4.17548,-1.83258,0,0,0,0,0,0,0,-1,685,645,-4.17549,1.83255
-532,379,-5.2511,0.587769,0,0,0,0,0,0,0,-1,692,645,-5.2511,-0.587757
-525,379,-4.6322,-0.320435,0.00189669,-0.00439308,-0.00147852,0.00222691,-0.0047233,-0.219736,0.00409808,0.0467195,699,645,-4.6322,0.32041
-518,379,-4.04218,-0.93103,0.00114957,-0.00583743,-0.000256077,0.00115895,-0.0058468,-0.0365851,0.00433612,0.0433105,706,645,-4.04215,0.931041
-511,379,-3.90735,-1.14746,0.0013686,-0.00587237,0.000821797,0.0014607,-0.00596447,0.111602,0.00454218,0.0289723,713,645,-3.90732,1.14745
-504,379,-3.96582,-1.32495,0.00117321,-0.00527666,0.0012308,0.0014001,-0.00550355,0.182294,0.00421399,0.0158832,720,645,-3.96584,1.32497
-497,379,-4.00043,-1.50531,0.000432793,-0.0053923,0.00162974,0.000857754,-0.00581727,0.255075,0.00419344,0.0101583,727,645,-4.00045,1.50533
-490,379,-3.99945,-1.72888,6.26827e-05,-0.00434332,0.00135301,0.000444993,-0.00472563,0.275385,0.00330874,0.0109356,734,645,-3.99946,1.72887
-483,379,-3.98328,-1.94214,0.000182514,-0.00332739,0.00105303,0.000474198,-0.00361908,0.270221,0.00258532,0.0125458,741,645,-3.98326,1.94211
-476,379,-3.97412,-2.1239,9.30047e-05,-0.003103,0.00113147,0.000453023,-0.00346302,0.308056,0.00247355,0.0122818,748,645,-3.97415,2.12389
-469,379,-4.00354,-2.30566,-0.000199744,-0.00270493,0.00128545,0.000342482,-0.00324716,0.399172,0.0022875,0.0104818,755,645,-4.00351,2.30566
-462,379,-4.01398,-2.51666,2.35163e-06,-0.00238447,0.00125356,0.000539732,-0.00292185,0.404987,0.00215051,0.00828202,762,645,-4.01395,2.51668
-455,379,-4.00647,-2.71326,0.000169636,-0.0024753,0.00141243,0.000782082,-0.00308775,0.409141,0.00236274,0.0085801,769,645,-4.00648,2.71325
-448,379,-3.97552,-2.92712,5.88974e-05,-0.00308897,0.00191386,0.00096289,-0.00399296,0.441276,0.0030343,0.0107927,776,645,-3.97553,2.92711
-441,379,-3.97119,-3.16772,-0.000690758,-0.00426089,0.0028117,0.000854656,-0.0058063,0.502565,0.00418495,0.0145665,783,645,-3.97118,3.16773
-434,379,-3.81982,-3.40338,-0.0021358,-0.00555331,0.00413525,0.000629833,-0.00831894,0.589474,0.00576738,0.0407242,790,645,-3.81981,3.40339
-427,379,-4.09369,-3.25867,-0.00405697,-0.00708254,0.00586172,0.000484034,-0.0116235,0.659114,0.00791531,0.0499268,797,645,-4.09369,3.25865
-420,379,-4.24591,-3.24927,-0.00636551,-0.00900318,0.00763286,6.16089e-05,-0.0154303,0.699851,0.0103075,0.0492698,804,645,-4.24594,3.2493
-413,379,-4.39758,-3.4035,0,0,0,0,0,0,0,-1,811,645,-4.3976,3.4035
-406,379,-4.64063,-4.38489,0,0,0,0,0,0,0,-1,818,645,-4.64065,4.3849
-399,379,-2.93536,-1.40118,0,0,0,0,0,0,0,-1,825,645,-2.93534,1.40119
-392,379,-4.16711,-0.466003,0,0,0,0,0,0,0,-1,832,645,-4.16714,0.465992
-385,379,-3.51862,0.441101,0,0,0,0,0,0,0,-1,839,645,-3.51859,-0.441072
-378,379,-5.3504,0.212219,0,0,0,0,0,0,0,-1,846,645,-5.35038,-0.212241
-371,379,-4.32092,-0.186707,0,0,0,0,0,0,0,-1,853,645,-4.3209,0.186707
-364,379,-3.40887,-0.549805,0,0,0,0,0,0,0,-1,860,645,-3.4089,0.549802
-357,379,0,0,0,0,0,0,0,0,0,-1,867,645,0,0
-350,379,0,0,0,0,0,0,0,0,0,-1,874,645,0,0
-343,379,0,0,0,0,0,0,0,0,0,-1,881,645,0,0
-336,379,0,0,0,0,0,0,0,0,0,-1,888,645,0,0
-329,379,0,0,0,0,0,0,0,0,0,-1,895,645,0,0
-322,379,0,0,0,0,0,0,0,0,0,-1,902,645,0,0
-315,379,0,0,0,0,0,0,0,0,0,-1,909,645,0,0
-308,379,0,0,0,0,0,0,0,0,0,-1,916,645,0,0
-301,379,0,0,0,0,0,0,0,0,0,-1,923,645,0,0
-294,379,0,0,0,0,0,0,0,0,0,-1,930,645,0,0
-287,379,0,0,0,0,0,0,0,0,0,-1,937,645,0,0
-280,379,0,0,0,0,0,0,0,0,0,-1,944,645,0,0
-273,379,0,0,0,0,0,0,0,0,0,-1,951,645,0,0
-266,379,0,0,0,0,0,0,0,0,0,-1,958,645,0,0
-259,379,0,0,0,0,0,0,0,0,0,-1,965,645,0,0
-252,379,0,0,0,0,0,0,0,0,0,-1,972,645,0,0
-245,379,0,0,0,0,0,0,0,0,0,-1,979,645,0,0
-238,379,0,0,0,0,0,0,0,0,0,-1,986,645,0,0
-231,379,0,0,0,0,0,0,0,0,0,-1,993,645,0,0
-224,379,0,0,0,0,0,0,0,0,0,-1,1000,645,0,0
-217,379,0,0,0,0,0,0,0,0,0,-1,1007,645,0,0
-210,379,0,0,0,0,0,0,0,0,0,-1,1014,645,0,0
-203,379,0,0,0,0,0,0,0,0,0,-1,1021,645,0,0
-196,379,0,0,0,0,0,0,0,0,0,-1,1028,645,0,0
-189,379,0,0,0,0,0,0,0,0,0,-1,1035,645,0,0
-182,379,0,0,0,0,0,0,0,0,0,-1,1042,645,0,0
-175,379,0,0,0,0,0,0,0,0,0,-1,1049,645,0,0
-168,379,0,0,0,0,0,0,0,0,0,-1,1056,645,0,0
-161,379,0,0,0,0,0,0,0,0,0,-1,1063,645,0,0
-154,379,0,0,0,0,0,0,0,0,0,-1,1070,645,0,0
-147,379,0,0,0,0,0,0,0,0,0,-1,1077,645,0,0
-140,379,0,0,0,0,0,0,0,0,0,-1,1084,645,0,0
-133,379,0,0,0,0,0,0,0,0,0,-1,1091,645,0,0
-126,379,0,0,0,0,0,0,0,0,0,-1,1098,645,0,0
-119,379,0,0,0,0,0,0,0,0,0,-1,1105,645,0,0
-112,379,0,0,0,0,0,0,0,0,0,-1,1112,645,0,0
-105,379,0,0,0,0,0,0,0,0,0,-1,1119,645,0,0
-98,379,0,0,0,0,0,0,0,0,0,-1,1126,645,0,0
-91,379,0,0,0,0,0,0,0,0,0,-1,1133,645,0,0
-84,379,0,0,0,0,0,0,0,0,0,-1,1140,645,0,0
-77,379,0,0,0,0,0,0,0,0,0,-1,1147,645,0,0
-70,379,0,0,0,0,0,0,0,0,0,-1,1154,645,0,0
-63,379,0,0,0,0,0,0,0,0,0,-1,1161,645,0,0
-56,379,0,0,0,0,0,0,0,0,0,-1,1168,645,0,0
-49,379,0,0,0,0,0,0,0,0,0,-1,1175,645,0,0
-42,379,0,0,0,0,0,0,0,0,0,-1,1182,645,0,0
-35,379,0,0,0,0,0,0,0,0,0,-1,1189,645,0,0
-28,379,0,0,0,0,0,0,0,0,0,-1,1196,645,0,0
-21,379,0,0,0,0,0,0,0,0,0,-1,1203,645,0,0
-14,379,0,0,0,0,0,0,0,0,0,-1,1210,645,0,0
-7,379,0,0,0,0,0,0,0,0,0,-1,1217,645,0,0
0,379,0,0,0,0,0,0,0,0,0,-1,1224,645,0,0
7,379,0,0,0,0,0,0,0,0,0,-1,1231,645,0,0
14,379,0,0,0,0,0,0,0,0,0,-1,1238,645,0,0
21,379,0,0,0,0,0,0,0,0,0,-1,1245,645,0,0
28,379,0,0,0,0,0,0,0,0,0,-1,1252,645,0,0
35,379,0,0,0,0,0,0,0,0,0,-1,1259,645,0,0
42,379,0,0,0,0,0,0,0,0,0,-1,1266,645,0,0
49,379,0,0,0,0,0,0,0,0,0,-1,1273,645,0,0
56,379,0,0,0,0,0,0,0,0,0,-1,1280,645,0,0
63,379,0,0,0,0,0,0,0,0,0,-1,1287,645,0,0
70,379,0,0,0,0,0,0,0,0,0,-1,1294,645,0,0
77,379,0,0,0,0,0,0,0,0,0,-1,1301,645,0,0
84,379,0,0,0,0,0,0,0,0,0,-1,1308,645,0,0
91,379,0,0,0,0,0,0,0,0,0,-1,1315,645,0,0
98,379,0,0,0,0,0,0,0,0,0,-1,1322,645,0,0
105,379,0,0,0,0,0,0,0,0,0,-1,1329,645,0,0
112,379,0,0,0,0,0,0,0,0,0,-1,1336,645,0,0
119,379,0,0,0,0,0,0,0,0,0,-1,1343,645,0,0
126,379,0,0,0,0,0,0,0,0,0,-1,1350,645,0,0
133,379,0,0,0,0,0,0,0,0,0,-1,1357,645,0,0
140,379,0,0,0,0,0,0,0,0,0,-1,1364,645,0,0
147,379,0,0,0,0,0,0,0,0,0,-1,1371,645,0,0
154,379,0,0,0,0,0,0,0,0,0,-1,1378,645,0,0
161,379,0,0,0,0,0,0,0,0,0,-1,1385,645,0,0
168,379,0,0,0,0,0,0,0,0,0,-1,1392,645,0,0
175,379,0,0,0,0,0,0,0,0,0,-1,1399,645,0,0
182,379,0,0,0,0,0,0,0,0,0,-1,1406,645,0,0
189,379,0,0,0,0,0,0,0,0,0,-1,1413,645,0,0
196,379,0,0,0,0,0,0,0,0,0,-1,1420,645,0,0
203,379,0,0,0,0,0,0,0,0,0,-1,1427,645,0,0
210,379,0,0,0,0,0,0,0,0,0,-1,1434,645,0,0
217,379,0,0,0,0,0,0,0,0,0,-1,1441,645,0,0
224,379,0,0,0,0,0,0,0,0,0,-1,1448,645,0,0
231,379,0,0,0,0,0,0,0,0,0,-1,1455,645,0,0
238,379,0,0,0,0,0,0,0,0,0,-1,1462,645,0,0
245,379,0,0,0,0,0,0,0,0,0,-1,1469,645,0,0
252,379,0,0,0,0,0,0,0,0,0,-1,1476,645,0,0
259,379,0,0,0,0,0,0,0,0,0,-1,1483,645,0,0
266,379,0,0,0,0,0,0,0,0,0,-1,1490,645,0,0
273,379,0,0,0,0,0,0,0,0,0,-1,1497,645,0,0
280,379,0,0,0,0,0,0,0,0,0,-1,1504,645,0,0
287,379,0,0,0,0,0,0,0,0,0,-1,1511,645,0,0
294,379,0,0,0,0,0,0,0,0,0,-1,1518,645,0,0
301,379,0,0,0,0,0,0,0,0,0,-1,1525,645,0,0
308,379,0,0,0,0,0,0,0,0,0,-1,1532,645,0,0
315,379,0,0,0,0,0,0,0,0,0,-1,1539,645,0,0
322,379,0,0,0,0,0,0,0,0,0,-1,1546,645,0,0
329,379,0,0,0,0,0,0,0,0,0,-1,1553,645,0,0
336,379,0,0,0,0,0,0,0,0,0,-1,1560,645,0,0
343,379,0,0,0,0,0,0,0,0,0,-1,1567,645,0,0
350,379,0,0,0,0,0,0,0,0,0,-1,1574,645,0,0
357,379,0,0,0,0,0,0,0,0,0,-1,1581,645,0,0
364,379,0,0,0,0,0,0,0,0,0,-1,1588,645,0,0
371,379,0,0,0,0,0,0,0,0,0,-1,1595,645,0,0
378,379,0,0,0,0,0,0,0,0,0,-1,1602,645,0,0
385,379,0,0,0,0,0,0,0,0,0,-1,1609,645,0,0
392,379,0,0,0,0,0,0,0,0,0,-1,1616,645,0,0
399,379,0,0,0,0,0,0,0,0,0,-1,1623,645,0,0
406,379,0,0,0,0,0,0,0,0,0,-1,1630,645,0,0
413,379,0,0,0,0,0,0,0,0,0,-1,1637,645,0,0
420,379,0,0,0,0,0,0,0,0,0,-1,1644,645,0,0
427,379,0,0,0,0,0,0,0,0,0,-1,1651,645,0,0
434,379,0,0,0,0,0,0,0,0,0,-1,1658,645,0,0
441,379,0,0,0,0,0,0,0,0,0,-1,1665,645,0,0
448,379,0,0,0,0,0,0,0,0,0,-1,1672,645,0,0
455,379,0,0,0,0,0,0,0,0,0,-1,1679,645,0,0
462,379,0,0,0,0,0,0,0,0,0,-1,1686,645,0,0
469,379,0,0,0,0,0,0,0,0,0,-1,1693,645,0,0
476,379,11.1787,0.830383,0,0,0,0,0,0,0,-1,1700,645,11.1787,-0.830365
483,379,7.4231,1.54321,0,0,0,0,0,0,0,-1,1707,645,7.42314,-1.54324
490,379,8.52881,1.56677,0,0,0,0,0,0,0,-1,1714,645,8.52878,-1.56677
497,379,9.63599,1.49573,0,0,0,0,0,0,0,-1,1721,645,9.63604,-1.4957
504,379,10.0833,1.35229,0,0,0,0,0,0,0,-1,1728,645,10.0832,-1.35227
511,379,8.14343,1.59912,0,0,0,0,0,0,0,-1,1735,645,8.14347,-1.59912
518,379,12.7955,-0.324097,0,0,0,0,0,0,0,-1,1742,645,12.7955,0.324101
525,379,6.03711,1.10352,0,0,0,0,0,0,0,-1,1749,645,6.03711,-1.10351
532,379,8.70947,0.887817,0,0,0,0,0,0,0,-1,1756,645,8.70953,-0.887808
539,379,9.87097,0.111389,0,0,0,0,0,0,0,-1,1763,645,9.87095,-0.111395
546,379,8.42383,-0.730652,0,0,0,0,0,0,0,-1,1770,645,8.42378,0.730638
553,379,9.0636,-1.72845,0,0,0,0,0,0,0,-1,1777,645,9.0636,1.72843
560,379,8.95337,-1.67328,-0.0113759,0.0105223,-0.00384179,0.0111768,-0.0120303,-1.40207,0.0134016,0.0378174,1784,645,8.95334,1.67326
567,379,8.77258,-1.47638,-0.00875646,0.00549782,-0.00371001,0.00640563,-0.00966426,-1.33082,0.00934132,0.0226224,1791,645,8.77259,1.47639
574,379,8.85278,-1.30078,-0.00656096,0.00237812,-0.00327834,0.00345153,-0.00763437,-1.25437,0.00655055,0.012912,1798,645,8.85281,1.30075
581,379,8.84949,-1.11072,-0.00463989,0.000717925,-0.0026209,0.00178677,-0.00570873,-1.18357,0.00452069,0.014735,1805,645,8.84947,1.11074
588,379,8.8241,-0.9021,-0.00290105,-0.0004628,-0.00196563,0.000631073,-0.00399492,-1.06298,0.00289665,0.0177553,1812,645,8.82405,0.902074
595,379,8.81042,-0.688232,-0.0014839,-0.000651317,-0.00129184,0.000289646,-0.00242486,-0.941269,0.00172127,0.0154843,1819,645,8.81038,0.688238
602,379,8.81738,-0.449646,-0.000325779,0.000182681,-0.000571986,0.000554391,-0.000697489,-0.994521,0.000724345,0.014491,1826,645,8.81733,0.449653
609,379,8.8186,-0.203613,0.000339161,0.00069049,-0.000220353,0.000796629,0.000233021,-1.12191,0.000472951,0.0137929,1833,645,8.8186,0.20361
616,379,8.82385,0.0335083,0.000808134,0.00111378,-0.000171647,0.00119077,0.000731136,-1.14912,0.000693425,0.0118198,1840,645,8.82386,-0.0334939
623,379,8.84229,0.286438,0.00126503,0.00149859,-0.000365666,0.00176567,0.000997948,-0.939959,0.00102229,0.0120236,1847,645,8.84228,-0.286418
630,379,8.86096,0.497375,0.00210667,0.00177518,-0.00078779,0.00274596,0.00113588,-0.681714,0.00159324,0.0132264,1854,645,8.86095,-0.497355
637,379,8.87646,0.718018,0.00259575,0.00194432,-0.00151219,0.0038169,0.000723166,-0.679322,0.00234108,0.0159156,1861,645,8.87641,-0.718046
644,379,8.80798,1.00427,0.00314432,0.00203853,-0.0025383,0.00518924,-6.38887e-06,-0.678163,0.00346162,0.0277953,1868,645,8.80796,-1.00429
651,379,8.90686,1.32562,0,0,0,0,0,0,0,-1,1875,645,8.90685,-1.32564
658,379,9.17346,0.527832,0,0,0,0,0,0,0,-1,1882,645,9.17341,-0.527807
665,379,9.6123,0.683533,0,0,0,0,0,0,0,-1,1889,645,9.61227,-0.683557
672,379,7.57605,2.15326,0,0,0,0,0,0,0,-1,1896,645,7.57599,-2.15326
679,379,8.55078,2.50409,0,0,0,0,0,0,0,-1,1903,645,8.55073,-2.50406
686,379,0,0,0,0,0,0,0,0,0,-1,1910,645,0,0
693,379,0,0,0,0,0,0,0,0,0,-1,1917,645,0,0
700,379,0,0,0,0,0,0,0,0,0,-1,1924,645,0,0
707,379,0,0,0,0,0,0,0,0,0,-1,1931,645,0,0
714,379,0,0,0,0,0,0,0,0,0,-1,1938,645,0,0
721,379,0,0,0,0,0,0,0,0,0,-1,1945,645,0,0
728,379,0,0,0,0,0,0,0,0,0,-1,1952,645,0,0
735,379,0,0,0,0,0,0,0,0,0,-1,1959,645,0,0
742,379,0,0,0,0,0,0,0,0,0,-1,1966,645,0,0
749,379,0,0,0,0,0,0,0,0,0,-1,1973,645,0,0
756,379,0,0,0,0,0,0,0,0,0,-1,1980,645,0,0
763,379,0,0,0,0,0,0,0,0,0,-1,1987,645,0,0
770,379,0,0,0,0,0,0,0,0,0,-1,1994,645,0,0
777,379,0,0,0,0,0,0,0,0,0,-1,2001,645,0,0
784,379,0,0,0,0,0,0,0,0,0,-1,2008,645,0,0
791,379,0,0,0,0,0,0,0,0,0,-1,2015,645,0,0
798,379,0,0,0,0,0,0,0,0,0,-1,2022,645,0,0
805,379,0,0,0,0,0,0,0,0,0,-1,2029,645,0,0
812,379,0,0,0,0,0,0,0,0,0,-1,2036,645,0,0
-700,372,0,0,0,0,0,0,0,0,0,-1,524,652,0,0
-693,372,0,0,0,0,0,0,0,0,0,-1,531,652,0,0
-686,372,0,0,0,0,0,0,0,0,0,-1,538,652,0,0
-679,372,0,0,0,0,0,0,0,0,0,-1,545,652,0,0
-672,372,0,0,0,0,0,0,0,0,0,-1,552,652,0,0
-665,372,0,0,0,0,0,0,0,0,0,-1,559,652,0,0
-658,372,0,0,0,0,0,0,0,0,0,-1,566,652,0,0
-651,372,0,0,0,0,0,0,0,0,0,-1,573,652,0,0
-644,372,0,0,0,0,0,0,0,0,0,-1,580,652,0,0
-637,372,0,0,0,0,0,0,0,0,0,-1,587,652,0,0
-630,372,0,0,0,0,0,0,0,0,0,-1,594,652,0,0
-623,372,0,0,0,0,0,0,0,0,0,-1,601,652,0,0
-616,372,0,0,0,0,0,0,0,0,0,-1,608,652,0,0
-609,372,0,0,0,0,0,0,0,0,0,-1,615,652,0,0
-602,372,0,0,0,0,0,0,0,0,0,-1,622,652,0,0
-595,372,0,0,0,0,0,0,0,0,0,-1,629,652,0,0
-588,372,0,0,0,0,0,0,0,0,0,-1,636,652,0,0
-581,372,0,0,0,0,0,0,0,0,0,-1,643,652,0,0
-574,372,0,0,0,0,0,0,0,0,0,-1,650,652,0,0
-567,372,-4.612,-0.462158,0,0,0,0,0,0,0,-1,657,652,-4.61199,0.462181
-560,372,-4.40265,-0.646179,0,0,0,0,0,0,0,-1,664,652,-4.40266,0.64617
-553,372,-4.22278,-0.579834,0,0,0,0,0,0,0,-1,671,652,-4.22276,0.579807
-546,372,-4.10931,-0.568665,0,0,0,0,0,0,0,-1,678,652,-4.1093,0.568689
-539,372,-5.83368,1.12195,0,0,0,0,0,0,0,-1,685,652,-5.83368,-1.12193
-532,372,-5.24658,0.442322,0.00663651,-0.00140089,-0.00443843,0.00860527,-0.00336964,-0.417494,0.00713059,0.0489378,692,652,-5.24658,-0.442335
-525,372,-4.67993,-0.152222,0.0059384,-0.00267184,-0.00296793,0.00686231,-0.00359574,-0.301787,0.00613535,0.0421127,699,652,-4.67995,0.152217
-518,372,-4.198,-0.868652,0.00487978,-0.00364901,-0.00163031,0.0051808,-0.00395003,-0.182581,0.00528762,0.0276119,706,652,-4.19798,0.868633
-511,372,-4.19354,-1.12964,0.00462389,-0.00349413,-0.000406737,0.00464422,-0.00351446,-0.0499362,0.00472544,0.0168612,713,652,-4.19355,1.12965
-504,372,-4.21222,-1.29633,0.00397824,-0.00292572,0.00018563,0.00398323,-0.00293071,0.0268616,0.00400715,0.0119037,720,652,-4.21221,1.29632
-497,372,-4.19226,-1.50659,0.00273856,-0.003325,0.000702852,0.00281897,-0.00340541,0.113902,0.00359896,0.0114745,727,652,-4.19227,1.50657
-490,372,-4.19934,-1.71661,0.00181888,-0.00286783,0.000673216,0.00191367,-0.00296261,0.139877,0.00283695,0.0120868,734,652,-4.19934,1.71663
-483,372,-4.20776,-1.92078,0.00152019,-0.0023727,0.000618187,0.001616,-0.00246851,0.153761,0.00237525,0.012172,741,652,-4.20779,1.92078
-476,372,-4.20099,-2.08679,0.00119118,-0.00263484,0.000907967,0.00139572,-0.00283938,0.221572,0.00249204,0.0123211,748,652,-4.20101,2.08679
-469,372,-4.1983,-2.27655,0.000828115,-0.0026688,0.0012045,0.00120284,-0.00304352,0.301616,0.00252725,0.0102975,755,652,-4.19833,2.27656
-462,372,-4.19965,-2.50317,0.00100706,-0.00270488,0.00130847,0.00142193,-0.00311976,0.30704,0.00268252,0.00965621,762,652,-4.19966,2.50315
-455,372,-4.21887,-2.71362,0.00125449,-0.00305673,0.00158134,0.00177232,-0.00357456,0.316458,0.00314494,0.00996703,769,652,-4.21885,2.71363
-448,372,-4.19458,-2.93054,0.00119083,-0.00402596,0.00224967,0.00202696,-0.00486208,0.355845,0.00408812,0.0108079,776,652,-4.19459,2.93056
-441,372,-4.07654,-3.27191,0.000490286,-0.00543707,0.00333796,0.0019904,-0.00693718,0.422362,0.00541167,0.0281285,783,652,-4.07651,3.2719
-434,372,-4.28644,-3.22797,-0.000908628,-0.00696393,0.00485022,0.00178135,-0.00965392,0.506376,0.00710456,0.0450709,790,652,-4.28645,3.228
-427,372,-4.22809,-3.14758,-0.00281874,-0.00869522,0.00679409,0.00164524,-0.0131592,0.581308,0.00936949,0.0470829,797,652,-4.22808,3.14756
-420,372,-4.20428,-3.14337,0,0,0,0,0,0,0,-1,804,652,-4.20426,3.14337
-413,372,-4.74762,-3.29541,0,0,0,0,0,0,0,-1,811,652,-4.74763,3.29542
-406,372,-0.885437,-0.583923,0,0,0,0,0,0,0,-1,818,652,-0.885437,0.5839
-399,372,-3.97357,-0.825012,0,0,0,0,0,0,0,-1,825,652,-3.97359,0.825037
-392,372,-7.64337,0.173035,0,0,0,0,0,0,0,-1,832,652,-7.64337,-0.173019
-385,372,-6.48871,-0.0271606,0,0,0,0,0,0,0,-1,839,652,-6.48874,0.0271353
-378,372,-5.33044,-0.242432,0,0,0,0,0,0,0,-1,846,652,-5.33042,0.242457
-371,372,-4.40802,-0.495667,0,0,0,0,0,0,0,-1,853,652,-4.40802,0.495661
-364,372,0,0,0,0,0,0,0,0,0,-1,860,652,0,0
-357,372,0,0,0,0,0,0,0,0,0,-1,867,652,0,0
-350,372,0,0,0,0,0,0,0,0,0,-1,874,652,0,0
-343,372,0,0,0,0,0,0,0,0,0,-1,881,652,0,0
-336,372,0,0,0,0,0,0,0,0,0,-1,888,652,0,0
-329,372,0,0,0,0,0,0,0,0,0,-1,895,652,0,0
-322,372,0,0,0,0,0,0,0,0,0,-1,902,652,0,0
-315,372,0,0,0,0,0,0,0,0,0,-1,909,652,0,0
-308,372,0,0,0,0,0,0,0,0,0,-1,916,652,0,0
-301,372,0,0,0,0,0,0,0,0,0,-1,923,652,0,0
-294,372,0,0,0,0,0,0,0,0,0,-1,930,652,0,0
-287,372,0,0,0,0,0,0,0,0,0,-1,937,652,0,0
-280,372,0,0,0,0,0,0,0,0,0,-1,944,652,0,0
-273,372,0,0,0,0,0,0,0,0,0,-1,951,652,0,0
-266,372,0,0,0,0,0,0,0,0,0,-1,958,652,0,0
-259,372,0,0,0,0,0,0,0,0,0,-1,965,652,0,0
-252,372,0,0,0,0,0,0,0,0,0,-1,972,652,0,0
-245,372,0,0,0,0,0,0,0,0,0,-1,979,652,0,0
-238,372,0,0,0,0,0,0,0,0,0,-1,986,652,0,0
-231,372,0,0,0,0,0,0,0,0,0,-1,993,652,0,0
-224,372,0,0,0,0,0,0,0,0,0,-1,1000,652,0,0
-217,372,0,0,0,0,0,0,0,0,0,-1,1007,652,0,0
-210,372,0,0,0,0,0,0,0,0,0,-1,1014,652,0,0
-203,372,0,0,0,0,0,0,0,0,0,-1,1021,652,0,0
-196,372,0,0,0,0,0,0,0,0,0,-1,1028,652,0,0
-189,372,0,0,0,0,0,0,0,0,0,-1,1035,652,0,0
-182,372,0,0,0,0,0,0,0,0,0,-1,1042,652,0,0
-175,372,0,0,0,0,0,0,0,0,0,-1,1049,652,0,0
-168,372,0,0,0,0,0,0,0,0,0,-1,1056,652,0,0
-161,372,0,0,0,0,0,0,0,0,0,-1,1063,652,0,0
-154,372,0,0,0,0,0,0,0,0,0,-1,1070,652,0,0
-147,372,0,0,0,0,0,0,0,0,0,-1,1077,652,0,0
-140,372,0,0,0,0,0,0,0,0,0,-1,1084,652,0,0
-133,372,0,0,0,0,0,0,0,0,0,-1,1091,652,0,0
-126,372,0,0,0,0,0,0,0,0,0,-1,1098,652,0,0
-119,372,0,0,0,0,0,0,0,0,0,-1,1105,652,0,0
-112,372,0,0,0,0,0,0,0,0,0,-1,1112,652,0,0
-105,372,0,0,0,0,0,0,0,0,0,-1,1119,652,0,0
-98,372,0,0,0,0,0,0,0,0,0,-1,1126,652,0,0
-91,372,0,0,0,0,0,0,0,0,0,-1,1133,652,0,0
-84,372,0,0,0,0,0,0,0,0,0,-1,1140,652,0,0
-77,372,0,0,0,0,0,0,0,0,0,-1,1147,652,0,0
-70,372,0,0,0,0,0,0,0,0,0,-1,1154,652,0,0
-63,372,0,0,0,0,0,0,0,0,0,-1,1161,652,0,0
-56,372,0,0,0,0,0,0,0,0,0,-1,1168,652,0,0
-49,372,0,0,0,0,0,0,0,0,0,-1,1175,652,0,0
-42,372,0,0,0,0,0,0,0,0,0,-1,1182,652,0,0
-35,372,0,0,0,0,0,0,0,0,0,-1,1189,652,0,0
-28,372,0,0,0,0,0,0,0,0,0,-1,1196,652,0,0
-21,372,0,0,0,0,0,0,0,0,0,-1,1203,652,0,0
-14,372,0,0,0,0,0,0,0,0,0,-1,1210,652,0,0
-7,372,0,0,0,0,0,0,0,0,0,-1,1217,652,0,0
0,372,0,0,0,0,0,0,0,0,0,-1,1224,652,0,0
7,372,0,0,0,0,0,0,0,0,0,-1,1231,652,0,0
14,372,0,0,0,0,0,0,0,0,0,-1,1238,652,0,0
21,372,0,0,0,0,0,0,0,0,0,-1,1245,652,0,0
28,372,0,0,0,0,0,0,0,0,0,-1,1252,652,0,0
35,372,0,0,0,0,0,0,0,0,0,-1,1259,652,0,0
42,372,0,0,0,0,0,0,0,0,0,-1,1266,652,0,0
49,372,0,0,0,0,0,0,0,0,0,-1,1273,652,0,0
56,372,0,0,0,0,0,0,0,0,0,-1,1280,652,0,0
63,372,0,0,0,0,0,0,0,0,0,-1,1287,652,0,0
70,372,0,0,0,0,0,0,0,0,0,-1,1294,652,0,0
77,372,0,0,0,0,0,0,0,0,0,-1,1301,652,0,0
84,372,0,0,0,0,0,0,0,0,0,-1,1308,652,0,0
91,372,0,0,0,0,0,0,0,0,0,-1,1315,652,0,0
98,372,0,0,0,0,0,0,0,0,0,-1,1322,652,0,0
105,372,0,0,0,0,0,0,0,0,0,-1,1329,652,0,0
112,372,0,0,0,0,0,0,0,0,0,-1,1336,652,0,0
119,372,0,0,0,0,0,0,0,0,0,-1,1343,652,0,0
126,372,0,0,0,0,0,0,0,0,0,-1,1350,652,0,0
133,372,0,0,0,0,0,0,0,0,0,-1,1357,652,0,0
140,372,0,0,0,0,0,0,0,0,0,-1,1364,652,0,0
147,372,0,0,0,0,0,0,0,0,0,-1,1371,652,0,0
154,372,0,0,0,0,0,0,0,0,0,-1,1378,652,0,0
161,372,0,0,0,0,0,0,0,0,0,-1,1385,652,0,0
168,372,0,0,0,0,0,0,0,0,0,-1,1392,652,0,0
175,372,0,0,0,0,0,0,0,0,0,-1,1399,652,0,0
182,372,0,0,0,0,0,0,0,0,0,-1,1406,652,0,0
189,372,0,0,0,0,0,0,0,0,0,-1,1413,652,0,0
196,372,0,0,0,0,0,0,0,0,0,-1,1420,652,0,0
203,372,0,0,0,0,0,0,0,0,0,-1,1427,652,0,0
210,372,0,0,0,0,0,0,0,0,0,-1,1434,652,0,0
217,372,0,0,0,0,0,0,0,0,0,-1,1441,652,0,0
224,372,0,0,0,0,0,0,0,0,0,-1,1448,652,0,0
231,372,0,0,0,0,0,0,0,0,0,-1,1455,652,0,0
238,372,0,0,0,0,0,0,0,0,0,-1,1462,652,0,0
245,372,0,0,0,0,0,0,0,0,0,-1,1469,652,0,0
252,372,0,0,0,0,0,0,0,0,0,-1,1476,652,0,0
259,372,0,0,0,0,0,0,0,0,0,-1,1483,652,0,0
266,372,0,0,0,0,0,0,0,0,0,-1,1490,652,0,0
273,372,0,0,0,0,0,0,0,0,0,-1,1497,652,0,0
280,372,0,0,0,0,0,0,0,0,0,-1,1504,652,0,0
287,372,0,0,0,0,0,0,0,0,0,-1,1511,652,0,0
294,372,0,0,0,0,0,0,0,0,0,-1,1518,652,0,0
301,372,0,0,0,0,0,0,0,0,0,-1,1525,652,0,0
308,372,0,0,0,0,0,0,0,0,0,-1,1532,652,0,0
315,372,0,0,0,0,0,0,0,0,0,-1,1539,652,0,0
322,372,0,0,0,0,0,0,0,0,0,-1,1546,652,0,0
329,372,0,0,0,0,0,0,0,0,0,-1,1553,652,0,0
336,372,0,0,0,0,0,0,0,0,0,-1,1560,652,0,0
343,372,0,0,0,0,0,0,0,0,0,-1,1567,652,0,0
350,372,0,0,0,0,0,0,0,0,0,-1,1574,652,0,0
357,372,0,0,0,0,0,0,0,0,0,-1,1581,652,0,0
364,372,0,0,0,0,0,0,0,0,0,-1,1588,652,0,0
371,372,0,0,0,0,0,0,0,0,0,-1,1595,652,0,0
378,372,0,0,0,0,0,0,0,0,0,-1,1602,652,0,0
385,372,0,0,0,0,0,0,0,0,0,-1,1609,652,0,0
392,372,0,0,0,0,0,0,0,0,0,-1,1616,652,0,0
399,372,0,0,0,0,0,0,0,0,0,-1,1623,652,0,0
406,372,0,0,0,0,0,0,0,0,0,-1,1630,652,0,0
413,372,0,0,0,0,0,0,0,0,0,-1,1637,652,0,0
420,372,0,0,0,0,0,0,0,0,0,-1,1644,652,0,0
427,372,0,0,0,0,0,0,0,0,0,-1,1651,652,0,0
434,372,0,0,0,0,0,0,0,0,0,-1,1658,652,0,0
441,372,0,0,0,0,0,0,0,0,0,-1,1665,652,0,0
448,372,0,0,0,0,0,0,0,0,0,-1,1672,652,0,0
455,372,0,0,0,0,0,0,0,0,0,-1,1679,652,0,0
462,372,0,0,0,0,0,0,0,0,0,-1,1686,652,0,0
469,372,0,0,0,0,0,0,0,0,0,-1,1693,652,0,0
476,372,0,0,0,0,0,0,0,0,0,-1,1700,652,0,0
483,372,8.74182,1.53125,0,0,0,0,0,0,0,-1,1707,652,8.74186,-1.53126
490,372,9.78455,1.67096,0,0,0,0,0,0,0,-1,1714,652,9.7846,-1.67093
497,372,9.97644,1.46069,0,0,0,0,0,0,0,-1,1721,652,9.97647,-1.46071
504,372,10.1216,1.28375,0,0,0,0,0,0,0,-1,1728,652,10.1216,-1.28376
511,372,11.7367,-0.0272217,0,0,0,0,0,0,0,-1,1735,652,11.7367,0.0272326
518,372,12.0657,-0.0995483,0,0,0,0,0,0,0,-1,1742,652,12.0657,0.0995285
525,372,12.3947,-0.171814,0,0,0,0,0,0,0,-1,1749,652,12.3946,0.171824
532,372,9.36597,1.72034,0,0,0,0,0,0,0,-1,1756,652,9.36597,-1.72036
539,372,7.82886,-0.0865479,0,0,0,0,0,0,0,-1,1763,652,7.82882,0.0865771
546,372,10.953,-0.187195,0,0,0,0,0,0,0,-1,1770,652,10.953,0.187181
553,372,8.30579,-2.68207,0,0,0,0,0,0,0,-1,1777,652,8.30576,2.68209
560,372,9.0365,-1.72205,0,0,0,0,0,0,0,-1,1784,652,9.03653,1.72203
567,372,9.02441,-1.53021,-0.012037,0.0139601,-0.00379921,0.0145039,-0.0125809,-1.42862,0.0156505,0.0232241,1791,652,9.02439,1.5302
574,372,9.10205,-1.2851,-0.00906359,0.00746795,-0.0036742,0.00824777,-0.00984341,-1.36166,0.0104585,0.0165133,1798,652,9.10211,1.28508
581,372,9.09302,-1.11517,-0.00646957,0.00335734,-0.00317035,0.00429138,-0.00740361,-1.28429,0.00683133,0.0158513,1805,652,9.09307,1.11518
588,372,9.07617,-0.890259,-0.00405803,-0.000102506,-0.00268526,0.00125472,-0.00541526,-1.10281,0.00409303,0.0169608,1812,652,9.07623,0.890258
595,372,9.06409,-0.662415,-0.00224347,-0.00143111,-0.00194781,0.00015242,-0.003827,-0.888191,0.00260363,0.014845,1819,652,9.06408,0.662406
602,372,9.06885,-0.452576,-0.00101103,-0.000522655,-0.00110429,0.000364124,-0.00189781,-0.894209,0.00140242,0.0133717,1826,652,9.06886,0.452577
609,372,9.01892,-0.216919,-0.000299497,6.89739e-05,-0.000645324,0.000555847,-0.00078637,-0.924446,0.000778729,0.0123139,1833,652,9.0189,0.21692
616,372,9.03687,0.0278931,0.000136284,0.000520817,-0.000526168,0.000888746,-0.000231645,-0.960566,0.000682936,0.0117437,1840,652,9.03681,-0.0279175
623,372,9.06421,0.28186,0.000467094,0.000905205,-0.000669387,0.00139047,-1.81688e-05,-0.94353,0.000933094,0.0125634,1847,652,9.06422,-0.281867
630,372,9.09814,0.505005,0.00117249,0.00115252,-0.00100885,0.0021714,0.000153607,-0.780448,0.00139921,0.0172897,1854,652,9.09811,-0.505029
637,372,9.12903,0.704468,0.00159129,0.00141628,-0.00152867,0.00303495,-2.73909e-05,-0.756808,0.00203249,0.0197314,1861,652,9.12901,-0.704448
644,372,9.13074,0.992676,0.00198092,0.00150974,-0.00239847,0.00415535,-0.000664679,-0.736443,0.0030163,0.0204231,1868,652,9.13074,-0.992699
651,372,9.13562,1.26465,0.00292807,0.00159458,-0.00344075,0.00576607,-0.00124343,-0.689694,0.00431861,0.0447695,1875,652,9.13566,-1.26463
658,372,9.11511,1.44421,0,0,0,0,0,0,0,-1,1882,652,9.11508,-1.44421
665,372,8.57397,2.42328,0,0,0,0,0,0,0,-1,1889,652,8.57392,-2.42327
672,372,8.09216,1.5365,0,0,0,0,0,0,0,-1,1896,652,8.0922,-1.53653
679,372,8.78052,2.13696,0,0,0,0,0,0,0,-1,1903,652,8.78057,-2.13695
686,372,8.96912,2.44781,0,0,0,0,0,0,0,-1,1910,652,8.96913,-2.44781
693,372,0,0,0,0,0,0,0,0,0,-1,1917,652,0,0
700,372,0,0,0,0,0,0,0,0,0,-1,1924,652,0,0
707,372,0,0,0,0,0,0,0,0,0,-1,1931,652,0,0
714,372,0,0,0,0,0,0,0,0,0,-1,1938,652,0,0
721,372,0,0,0,0,0,0,0,0,0,-1,1945,652,0,0
728,372,0,0,0,0,0,0,0,0,0,-1,1952,652,0,0
735,372,0,0,0,0,0,0,0,0,0,-1,1959,652,0,0
742,372,0,0,0,0,0,0,0,0,0,-1,1966,652,0,0
749,372,0,0,0,0,0,0,0,0,0,-1,1973,652,0,0
756,372,0,0,0,0,0,0,0,0,0,-1,1980,652,0,0
763,372,0,0,0,0,0,0,0,0,0,-1,1987,652,0,0
770,372,0,0,0,0,0,0,0,0,0,-1,1994,652,0,0
777,372,0,0,0,0,0,0,0,0,0,-1,2001,652,0,0
784,372,0,0,0,0,0,0,0,0,0,-1,2008,652,0,0
791,372,0,0,0,0,0,0,0,0,0,-1,2015,652,0,0
798,372,0,0,0,0,0,0,0,0,0,-1,2022,652,0,0
805,372,0,0,0,0,0,0,0,0,0,-1,2029,652,0,0
812,372,0,0,0,0,0,0,0,0,0,-1,2036,652,0,0
-700,365,0,0,0,0,0,0,0,0,0,-1,524,659,0,0
-693,365,0,0,0,0,0,0,0,0,0,-1,531,659,0,0
-686,365,0,0,0,0,0,0,0,0,0,-1,538,659,0,0
-679,365,0,0,0,0,0,0,0,0,0,-1,545,659,0,0
-672,365,0,0,0,0,0,0,0,0,0,-1,552,659,0,0
-665,365,0,0,0,0,0,0,0,0,0,-1,559,659,0,0
-658,365,0,0,0,0,0,0,0,0,0,-1,566,659,0,0
-651,365,0,0,0,0,0,0,0,0,0,-1,573,659,0,0
-644,365,0,0,0,0,0,0,0,0,0,-1,580,659,0,0
-637,365,0,0,0,0,0,0,0,0,0,-1,587,659,0,0
-630,365,0,0,0,0,0,0,0,0,0,-1,594,659,0,0
-623,365,0,0,0,0,0,0,0,0,0,-1,601,659,0,0
-616,365,0,0,0,0,0,0,0,0,0,-1,608,659,0,0
-609,365,0,0,0,0,0,0,0,0,0,-1,615,659,0,0
-602,365,0,0,0,0,0,0,0,0,0,-1,622,659,0,0
-595,365,0,0,0,0,0,0,0,0,0,-1,629,659,0,0
-588,365,0,0,0,0,0,0,0,0,0,-1,636,659,0,0
-581,365,0,0,0,0,0,0,0,0,0,-1,643,659,0,0
-574,365,-4.67975,-0.313477,-0.0233282,-0.0106577,-0.016026,0.000239797,-0.0342256,-0.973627,0.0228974,0.0446817,650,659,-4.67975,0.31349
-567,365,-4.52765,-0.478271,-0.014492,-0.00650361,-0.0129424,0.0030469,-0.0240425,-0.935068,0.0171345,0.0481996,657,659,-4.52767,0.478288
-560,365,-4.33923,-0.690674,0,0,0,0,0,0,0,-1,664,659,-4.33924,0.690659
-553,365,-4.29187,-0.816589,0,0,0,0,0,0,0,-1,671,659,-4.29186,0.816559
-546,365,-4.29492,-0.711487,0.00118767,-0.00253039,-0.00730703,0.00686844,-0.00821116,-0.660832,0.00871771,0.0481398,678,659,-4.29494,0.711495
-539,365,-4.42377,-0.774048,0.00295885,-0.00264942,-0.00574278,0.00654555,-0.00623611,-0.558281,0.00738021,0.0443264,685,659,-4.42378,0.774018
-532,365,-5.24097,0.13385,0.00390082,-0.00276944,-0.0043378,0.0060374,-0.00490602,-0.457669,0.00632943,0.0428331,692,659,-5.24099,-0.13387
-525,365,-4.53644,-0.53894,0.00418389,-0.00282366,-0.00308118,0.00534596,-0.00398573,-0.360655,0.0054067,0.0385601,699,659,-4.53641,0.538951
-518,365,-4.28693,-0.9729,0.00380534,-0.00302592,-0.00194241,0.00431902,-0.0035396,-0.258537,0.00454461,0.0242987,706,659,-4.28691,0.972876
-511,365,-4.40466,-1.10846,0.00408644,-0.00249909,-0.00083448,0.00419053,-0.00260318,-0.124101,0.00395788,0.0190376,713,659,-4.40467,1.10847
-504,365,-4.40686,-1.30914,0.00392637,-0.00184478,-0.000258894,0.00393796,-0.00185637,-0.0447402,0.00341656,0.0125922,720,659,-4.40686,1.30915
-497,365,-4.39471,-1.51288,0.00310389,-0.00225476,0.000201725,0.00311147,-0.00226234,0.0375738,0.00311546,0.0127832,727,659,-4.3947,1.51287
-490,365,-4.4024,-1.71869,0.00242492,-0.00212265,0.000286403,0.00244288,-0.00214062,0.0626495,0.0026482,0.0128394,734,659,-4.40242,1.71872
-483,365,-4.40771,-1.91895,0.00231348,-0.0019323,0.000387072,0.00234848,-0.0019673,0.0901756,0.00249495,0.0116331,741,659,-4.40771,1.91897
-476,365,-4.38525,-2.0932,0.00221777,-0.00247368,0.000825028,0.00235863,-0.00261453,0.169101,0.00287253,0.011681,748,659,-4.38527,2.09318
-469,365,-4.38678,-2.29132,0.00215418,-0.0028064,0.00124729,0.00245014,-0.00310236,0.232976,0.0032131,0.012087,755,659,-4.38677,2.29134
-462,365,-4.39038,-2.51508,0.00259506,-0.00311545,0.00151332,0.00297131,-0.0034917,0.243685,0.00373545,0.0138517,762,659,-4.39041,2.51505
-455,365,-4.41614,-2.72864,0.00305003,-0.003687,0.00196745,0.00358251,-0.00421948,0.264312,0.00450948,0.0155791,769,659,-4.41616,2.72863
-448,365,-4.35254,-2.99506,0.00314534,-0.00494797,0.00285421,0.00405065,-0.00585328,0.307146,0.00574952,0.0185417,776,659,-4.35253,2.99505
-441,365,-4.40009,-3.18683,0.00264152,-0.00653547,0.00416917,0.00425272,-0.00814668,0.368777,0.00727552,0.0422529,783,659,-4.40008,3.18681
-434,365,-4.39191,-3.62921,0.0015183,-0.00812772,0.00581005,0.00424632,-0.0108557,0.43898,0.00899322,0.0450692,790,659,-4.39189,3.62922
-427,365,-4.24066,-4.25409,0,0,0,0,0,0,0,-1,797,659,-4.24069,4.25411
-420,365,-4.58813,-3.16376,0,0,0,0,0,0,0,-1,804,659,-4.58816,3.16374
-413,365,0.141357,0.672729,0,0,0,0,0,0,0,-1,811,659,0.141365,-0.672714
-406,365,-1.75067,-0.934448,0,0,0,0,0,0,0,-1,818,659,-1.7507,0.934424
-399,365,-4.10242,-1.25439,0,0,0,0,0,0,0,-1,825,659,-4.10244,1.25438
-392,365,-7.46545,-0.779724,0,0,0,0,0,0,0,-1,832,659,-7.46543,0.779744
-385,365,-6.27875,-0.887573,0,0,0,0,0,0,0,-1,839,659,-6.27874,0.887545
-378,365,-5.34503,-0.263306,0,0,0,0,0,0,0,-1,846,659,-5.34504,0.263275
-371,365,0,0,0,0,0,0,0,0,0,-1,853,659,0,0
-364,365,0,0,0,0,0,0,0,0,0,-1,860,659,0,0
-357,365,0,0,0,0,0,0,0,0,0,-1,867,659,0,0
-350,365,0,0,0,0,0,0,0,0,0,-1,874,659,0,0
-343,365,0,0,0,0,0,0,0,0,0,-1,881,659,0,0
-336,365,0,0,0,0,0,0,0,0,0,-1,888,659,0,0
-329,365,0,0,0,0,0,0,0,0,0,-1,895,659,0,0
-322,365,0,0,0,0,0,0,0,0,0,-1,902,659,0,0
-315,365,0,0,0,0,0,0,0,0,0,-1,909,659,0,0
-308,365,0,0,0,0,0,0,0,0,0,-1,916,659,0,0
-301,365,0,0,0,0,0,0,0,0,0,-1,923,659,0,0
-294,365,0,0,0,0,0,0,0,0,0,-1,930,659,0,0
-287,365,0,0,0,0,0,0,0,0,0,-1,937,659,0,0
-280,365,0,0,0,0,0,0,0,0,0,-1,944,659,0,0
-273,365,0,0,0,0,0,0,0,0,0,-1,951,659,0,0
-266,365,0,0,0,0,0,0,0,0,0,-1,958,659,0,0
-259,365,0,0,0,0,0,0,0,0,0,-1,965,659,0,0
-252,365,0,0,0,0,0,0,0,0,0,-1,972,659,0,0
-245,365,0,0,0,0,0,0,0,0,0,-1,979,659,0,0
-238,365,0,0,0,0,0,0,0,0,0,-1,986,659,0,0
-231,365,0,0,0,0,0,0,0,0,0,-1,993,659,0,0
-224,365,0,0,0,0,0,0,0,0,0,-1,1000,659,0,0
-217,365,0,0,0,0,0,0,0,0,0,-1,1007,659,0,0
-210,365,0,0,0,0,0,0,0,0,0,-1,1014,659,0,0
-203,365,0,0,0,0,0,0,0,0,0,-1,1021,659,0,0
-196,365,0,0,0,0,0,0,0,0,0,-1,1028,659,0,0
-189,365,0,0,0,0,0,0,0,0,0,-1,1035,659,0,0
-182,365,0,0,0,0,0,0,0,0,0,-1,1042,659,0,0
-175,365,0,0,0,0,0,0,0,0,0,-1,1049,659,0,0
-168,365,0,0,0,0,0,0,0,0,0,-1,1056,659,0,0
-161,365,0,0,0,0,0,0,0,0,0,-1,1063,659,0,0
-154,365,0,0,0,0,0,0,0,0,0,-1,1070,659,0,0
-147,365,0,0,0,0,0,0,0,0,0,-1,1077,659,0,0
-140,365,0,0,0,0,0,0,0,0,0,-1,1084,659,0,0
-133,365,0,0,0,0,0,0,0,0,0,-1,1091,659,0,0
-126,365,0,0,0,0,0,0,0,0,0,-1,1098,659,0,0
-119,365,0,0,0,0,0,0,0,0,0,-1,1105,659,0,0
-112,365,0,0,0,0,0,0,0,0,0,-1,1112,659,0,0
-105,365,0,0,0,0,0,0,0,0,0,-1,1119,659,0,0
-98,365,0,0,0,0,0,0,0,0,0,-1,1126,659,0,0
-91,365,0,0,0,0,0,0,0,0,0,-1,1133,659,0,0
-84,365,0,0,0,0,0,0,0,0,0,-1,1140,659,0,0
-77,365,0,0,0,0,0,0,0,0,0,-1,1147,659,0,0
-70,365,0,0,0,0,0,0,0,0,0,-1,1154,659,0,0
-63,365,0,0,0,0,0,0,0,0,0,-1,1161,659,0,0
-56,365,0,0,0,0,0,0,0,0,0,-1,1168,659,0,0
-49,365,0,0,0,0,0,0,0,0,0,-1,1175,659,0,0
-42,365,0,0,0,0,0,0,0,0,0,-1,1182,659,0,0
-35,365,0,0,0,0,0,0,0,0,0,-1,1189,659,0,0
-28,365,0,0,0,0,0,0,0,0,0,-1,1196,659,0,0
-21,365,0,0,0,0,0,0,0,0,0,-1,1203,659,0,0
-14,365,0,0,0,0,0,0,0,0,0,-1,1210,659,0,0
-7,365,0,0,0,0,0,0,0,0,0,-1,1217,659,0,0
0,365,0,0,0,0,0,0,0,0,0,-1,1224,659,0,0
7,365,0,0,0,0,0,0,0,0,0,-1,1231,659,0,0
14,365,0,0,0,0,0,0,0,0,0,-1,1238,659,0,0
21,365,0,0,0,0,0,0,0,0,0,-1,1245,659,0,0
28,365,0,0,0,0,0,0,0,0,0,-1,1252,659,0,0
35,365,0,0,0,0,0,0,0,0,0,-1,1259,659,0,0
42,365,0,0,0,0,0,0,0,0,0,-1,1266,659,0,0
49,365,0,0,0,0,0,0,0,0,0,-1,1273,659,0,0
56,365,0,0,0,0,0,0,0,0,0,-1,1280,659,0,0
63,365,0,0,0,0,0,0,0,0,0,-1,1287,659,0,0
70,365,0,0,0,0,0,0,0,0,0,-1,1294,659,0,0
77,365,0,0,0,0,0,0,0,0,0,-1,1301,659,0,0
84,365,0,0,0,0,0,0,0,0,0,-1,1308,659,0,0
91,365,0,0,0,0,0,0,0,0,0,-1,1315,659,0,0
98,365,0,0,0,0,0,0,0,0,0,-1,1322,659,0,0
105,365,0,0,0,0,0,0,0,0,0,-1,1329,659,0,0
112,365,0,0,0,0,0,0,0,0,0,-1,1336,659,0,0
119,365,0,0,0,0,0,0,0,0,0,-1,1343,659,0,0
126,365,0,0,0,0,0,0,0,0,0,-1,1350,659,0,0
133,365,0,0,0,0,0,0,0,0,0,-1,1357,659,0,0
140,365,0,0,0,0,0,0,0,0,0,-1,1364,659,0,0
147,365,0,0,0,0,0,0,0,0,0,-1,1371,659,0,0
154,365,0,0,0,0,0,0,0,0,0,-1,1378,659,0,0
161,365,0,0,0,0,0,0,0,0,0,-1,1385,659,0,0
168,365,0,0,0,0,0,0,0,0,0,-1,1392,659,0,0
175,365,0,0,0,0,0,0,0,0,0,-1,1399,659,0,0
182,365,0,0,0,0,0,0,0,0,0,-1,1406,659,0,0
189,365,0,0,0,0,0,0,0,0,0,-1,1413,659,0,0
196,365,0,0,0,0,0,0,0,0,0,-1,1420,659,0,0
203,365,0,0,0,0,0,0,0,0,0,-1,1427,659,0,0
210,365,0,0,0,0,0,0,0,0,0,-1,1434,659,0,0
217,365,0,0,0,0,0,0,0,0,0,-1,1441,659,0,0
224,365,0,0,0,0,0,0,0,0,0,-1,1448,659,0,0
231,365,0,0,0,0,0,0,0,0,0,-1,1455,659,0,0
238,365,0,0,0,0,0,0,0,0,0,-1,1462,659,0,0
245,365,0,0,0,0,0,0,0,0,0,-1,1469,659,0,0
252,365,0,0,0,0,0,0,0,0,0,-1,1476,659,0,0
259,365,0,0,0,0,0,0,0,0,0,-1,1483,659,0,0
266,365,0,0,0,0,0,0,0,0,0,-1,1490,659,0,0
273,365,0,0,0,0,0,0,0,0,0,-1,1497,659,0,0
280,365,0,0,0,0,0,0,0,0,0,-1,1504,659,0,0
287,365,0,0,0,0,0,0,0,0,0,-1,1511,659,0,0
294,365,0,0,0,0,0,0,0,0,0,-1,1518,659,0,0
301,365,0,0,0,0,0,0,0,0,0,-1,1525,659,0,0
308,365,0,0,0,0,0,0,0,0,0,-1,1532,659,0,0
315,365,0,0,0,0,0,0,0,0,0,-1,1539,659,0,0
322,365,0,0,0,0,0,0,0,0,0,-1,1546,659,0,0
329,365,0,0,0,0,0,0,0,0,0,-1,1553,659,0,0
336,365,0,0,0,0,0,0,0,0,0,-1,1560,659,0,0
343,365,0,0,0,0,0,0,0,0,0,-1,1567,659,0,0
350,365,0,0,0,0,0,0,0,0,0,-1,1574,659,0,0
357,365,0,0,0,0,0,0,0,0,0,-1,1581,659,0,0
364,365,0,0,0,0,0,0,0,0,0,-1,1588,659,0,0
371,365,0,0,0,0,0,0,0,0,0,-1,1595,659,0,0
378,365,0,0,0,0,0,0,0,0,0,-1,1602,659,0,0
385,365,0,0,0,0,0,0,0,0,0,-1,1609,659,0,0
392,365,0,0,0,0,0,0,0,0,0,-1,1616,659,0,0
399,365,0,0,0,0,0,0,0,0,0,-1,1623,659,0,0
406,365,0,0,0,0,0,0,0,0,0,-1,1630,659,0,0
413,365,0,0,0,0,0,0,0,0,0,-1,1637,659,0,0
420,365,0,0,0,0,0,0,0,0,0,-1,1644,659,0,0
427,365,0,0,0,0,0,0,0,0,0,-1,1651,659,0,0
434,365,0,0,0,0,0,0,0,0,0,-1,1658,659,0,0
441,365,0,0,0,0,0,0,0,0,0,-1,1665,659,0,0
448,365,0,0,0,0,0,0,0,0,0,-1,1672,659,0,0
455,365,0,0,0,0,0,0,0,0,0,-1,1679,659,0,0
462,365,0,0,0,0,0,0,0,0,0,-1,1686,659,0,0
469,365,0,0,0,0,0,0,0,0,0,-1,1693,659,0,0
476,365,0,0,0,0,0,0,0,0,0,-1,1700,659,0,0
483,365,0,0,0,0,0,0,0,0,0,-1,1707,659,0,0
490,365,8.39551,0.471252,0,0,0,0,0,0,0,-1,1714,659,8.39551,-0.471241
497,365,9.89233,1.35394,0,0,0,0,0,0,0,-1,1721,659,9.89237,-1.35396
504,365,10.1414,1.18005,0,0,0,0,0,0,0,-1,1728,659,10.1413,-1.18004
511,365,10.5151,0.993896,0,0,0,0,0,0,0,-1,1735,659,10.5152,-0.993894
518,365,11.2029,0.398132,0,0,0,0,0,0,0,-1,1742,659,11.2029,-0.398136
525,365,11.3424,0.597229,0,0,0,0,0,0,0,-1,1749,659,11.3424,-0.597203
532,365,11.2446,1.00629,0,0,0,0,0,0,0,-1,1756,659,11.2446,-1.00631
539,365,12.6301,1.03204,0,0,0,0,0,0,0,-1,1763,659,12.6302,-1.03204
546,365,11.647,0.84198,0,0,0,0,0,0,0,-1,1770,659,11.6469,-0.841955
553,365,12.028,-0.558899,0,0,0,0,0,0,0,-1,1777,659,12.028,0.558873
560,365,8.70642,-2.69946,0,0,0,0,0,0,0,-1,1784,659,8.70638,2.69948
567,365,9.47742,-1.58612,0,0,0,0,0,0,0,-1,1791,659,9.47739,1.58609
574,365,9.46216,-1.34918,-0.0119242,0.0132864,-0.00395341,0.0138919,-0.0125296,-1.41884,0.0152612,0.0346129,1798,659,9.46219,1.3492
581,365,9.31934,-1.12457,-0.00862231,0.00662632,-0.00365619,0.00745765,-0.00945363,-1.34722,0.00978638,0.0181172,1805,659,9.31938,1.12459
588,365,9.28772,-0.880249,-0.00541617,0.000559731,-0.00338996,0.00209059,-0.00694704,-1.14662,0.00546322,0.0123791,1812,659,9.28772,0.880235
595,365,9.28857,-0.623291,-0.00306268,-0.00226875,-0.0026031,-3.25255e-05,-0.00529891,-0.861064,0.00352181,0.0130796,1819,659,9.28854,0.62331
602,365,9.28003,-0.410767,-0.00168872,-0.00127454,-0.00160957,0.000141209,-0.00310447,-0.849378,0.00211829,0.0139951,1826,659,9.28007,0.410759
609,365,9.23706,-0.197144,-0.00084352,-0.000571385,-0.00101158,0.000313238,-0.00172814,-0.852252,0.00126946,0.013516,1833,659,9.23707,0.197142
616,365,9.26025,0.0339355,-0.00036044,-7.50234e-05,-0.00079679,0.000591737,-0.0010272,-0.874011,0.000945898,0.013919,1840,659,9.2602,-0.0339589
623,365,9.30261,0.270691,-6.85868e-05,0.000317279,-0.000871784,0.00101722,-0.000768532,-0.894297,0.00103433,0.0115319,1847,659,9.30259,-0.270685
630,365,9.31152,0.498779,0.000570672,0.000549073,-0.00112312,0.00168304,-0.000563297,-0.780591,0.00134957,0.0165881,1854,659,9.31156,-0.498809
637,365,9.32886,0.69519,0.00100668,0.000907672,-0.00145458,0.00241259,-0.000498245,-0.768389,0.00179764,0.0217329,1861,659,9.32891,-0.695198
644,365,9.32068,0.908752,0.00135029,0.00101563,-0.00218027,0.00336965,-0.00100372,-0.7471,0.00264526,0.0149242,1868,659,9.32069,-0.908773
651,365,9.39587,1.18146,0.00216411,0.0011397,-0.00303054,0.00472543,-0.00142162,-0.701682,0.00371594,0.0267104,1875,659,9.39587,-1.18144
658,365,8.9845,1.08484,0.00375426,0.00144231,-0.00387646,0.00664343,-0.00144687,-0.640494,0.00498178,0.0433098,1882,659,8.98455,-1.08486
665,365,8.70068,1.12616,0,0,0,0,0,0,0,-1,1889,659,8.70072,-1.12618
672,365,9.08179,1.95148,0,0,0,0,0,0,0,-1,1896,659,9.08183,-1.95146
679,365,8.83984,2.01807,0,0,0,0,0,0,0,-1,1903,659,8.83989,-2.01806
686,365,9.10181,2.29803,0,0,0,0,0,0,0,-1,1910,659,9.10176,-2.29803
693,365,15.7997,-3.09222,0,0,0,0,0,0,0,-1,1917,659,15.7997,3.09224
700,365,0,0,0,0,0,0,0,0,0,-1,1924,659,0,0
707,365,0,0,0,0,0,0,0,0,0,-1,1931,659,0,0
714,365,0,0,0,0,0,0,0,0,0,-1,1938,659,0,0
721,365,0,0,0,0,0,0,0,0,0,-1,1945,659,0,0
728,365,0,0,0,0,0,0,0,0,0,-1,1952,659,0,0
735,365,0,0,0,0,0,0,0,0,0,-1,1959,659,0,0
742,365,0,0,0,0,0,0,0,0,0,-1,1966,659,0,0
749,365,0,0,0,0,0,0,0,0,0,-1,1973,659,0,0
756,365,0,0,0,0,0,0,0,0,0,-1,1980,659,0,0
763,365,0,0,0,0,0,0,0,0,0,-1,1987,659,0,0
770,365,0,0,0,0,0,0,0,0,0,-1,1994,659,0,0
777,365,0,0,0,0,0,0,0,0,0,-1,2001,659,0,0
784,365,0,0,0,0,0,0,0,0,0,-1,2008,659,0,0
791,365,0,0,0,0,0,0,0,0,0,-1,2015,659,0,0
798,365,0,0,0,0,0,0,0,0,0,-1,2022,659,0,0
805,365,0,0,0,0,0,0,0,0,0,-1,2029,659,0,0
812,365,0,0,0,0,0,0,0,0,0,-1,2036,659,0,0
-700,358,0,0,0,0,0,0,0,0,0,-1,524,666,0,0
-693,358,0,0,0,0,0,0,0,0,0,-1,531,666,0,0
-686,358,0,0,0,0,0,0,0,0,0,-1,538,666,0,0
-679,358,0,0,0,0,0,0,0,0,0,-1,545,666,0,0
-672,358,0,0,0,0,0,0,0,0,0,-1,552,666,0,0
-665,358,0,0,0,0,0,0,0,0,0,-1,559,666,0,0
-658,358,0,0,0,0,0,0,0,0,0,-1,566,666,0,0
-651,358,0,0,0,0,0,0,0,0,0,-1,573,666,0,0
-644,358,0,0,0,0,0,0,0,0,0,-1,580,666,0,0
-637,358,0,0,0,0,0,0,0,0,0,-1,587,666,0,0
-630,358,0,0,0,0,0,0,0,0,0,-1,594,666,0,0
-623,358,0,0,0,0,0,0,0,0,0,-1,601,666,0,0
-616,358,0,0,0,0,0,0,0,0,0,-1,608,666,0,0
-609,358,0,0,0,0,0,0,0,0,0,-1,615,666,0,0
-602,358,0,0,0,0,0,0,0,0,0,-1,622,666,0,0
-595,358,0,0,0,0,0,0,0,0,0,-1,629,666,0,0
-588,358,0,0,0,0,0,0,0,0,0,-1,636,666,0,0
-581,358,-4.70679,-0.406494,0,0,0,0,0,0,0,-1,643,666,-4.7068,0.406489
-574,358,-4.56714,-0.447571,-0.0332358,-0.0216933,-0.0159813,-0.0104731,-0.0444561,-0.958675,0.0268364,0.0466875,650,666,-4.56711,0.447566
-567,358,-4.42725,-0.480042,-0.0235367,-0.0164372,-0.0123467,-0.00714008,-0.0328339,-0.925375,0.01994,0.0469142,657,666,-4.42725,0.480037
-560,358,-4.27063,-0.750183,0,0,0,0,0,0,0,-1,664,666,-4.27064,0.750202
-553,358,-4.5332,-0.381897,0,0,0,0,0,0,0,-1,671,666,-4.53322,0.381888
-546,358,-4.56433,-0.512024,-0.00414622,-0.00690324,-0.00637738,0.00099994,-0.0120494,-0.678957,0.00838614,0.0450884,678,666,-4.56432,0.51202
-539,358,-4.59436,-0.596008,-0.00103058,-0.00526366,-0.00498622,0.00226972,-0.00856396,-0.584684,0.00659733,0.0388274,685,666,-4.59437,0.596004
-532,358,-4.6582,-0.637756,0.00100166,-0.00405895,-0.00379398,0.0030317,-0.00608898,-0.491307,0.00536354,0.0370517,692,666,-4.65822,0.637738
-525,358,-4.58655,-0.804443,0.00214848,-0.00316847,-0.00276055,0.00332251,-0.0043425,-0.402116,0.00443844,0.0270762,699,666,-4.58654,0.804471
-518,358,-4.52789,-0.869324,0.00243717,-0.00271733,-0.00183008,0.00302084,-0.003301,-0.308733,0.00365111,0.0224639,706,666,-4.52792,0.869295
-511,358,-4.60077,-1.09259,0.00327629,-0.00191139,-0.00084186,0.00340948,-0.00204459,-0.156918,0.00318161,0.0149347,713,666,-4.60074,1.0926
-504,358,-4.61053,-1.30206,0.00361904,-0.00126925,-0.000317672,0.0036396,-0.00128981,-0.064624,0.00295181,0.0112476,720,666,-4.61055,1.30206
-497,358,-4.59613,-1.513,0.00324195,-0.00166268,5.08181e-05,0.00324248,-0.0016632,0.0103598,0.0028808,0.0112292,727,666,-4.59612,1.51299
-490,358,-4.59094,-1.70825,0.00283336,-0.00179979,0.000196641,0.00284169,-0.00180812,0.0423407,0.00270659,0.0103681,734,666,-4.59095,1.70828
-483,358,-4.60626,-1.90027,0.00293724,-0.00188308,0.000391331,0.00296881,-0.00191465,0.0804812,0.00284127,0.00980385,741,666,-4.60629,1.90028
-476,358,-4.59296,-2.0838,0.00312971,-0.00264326,0.000894468,0.00326512,-0.00277867,0.150249,0.00349315,0.0108091,748,666,-4.59297,2.08381
-469,358,-4.59991,-2.28735,0.00344987,-0.00327116,0.00137034,0.00371852,-0.00353982,0.193596,0.00419103,0.0126803,755,666,-4.59989,2.28738
-462,358,-4.61157,-2.51105,0.00420333,-0.00389504,0.00176351,0.00457069,-0.0042624,0.205374,0.00510082,0.0162208,762,666,-4.61156,2.51107
-455,358,-4.57318,-2.73865,0.00490154,-0.00473717,0.00238596,0.00545982,-0.00529545,0.229852,0.0062098,0.0202051,769,666,-4.57315,2.73862
-448,358,-4.38525,-2.97913,0.00521609,-0.00631541,0.00348568,0.00618783,-0.00728716,0.271879,0.00778841,0.0455191,776,666,-4.38523,2.97911
-441,358,-4.72095,-3.42737,0,0,0,0,0,0,0,-1,783,666,-4.72097,3.42737
-434,358,-4.49786,-4.1051,0,0,0,0,0,0,0,-1,790,666,-4.49784,4.10509
-427,358,-3.56189,-3.15729,0,0,0,0,0,0,0,-1,797,666,-3.56192,3.15729
-420,358,0.200195,1.08234,0,0,0,0,0,0,0,-1,804,666,0.200174,-1.08231
-413,358,0.0325317,0.161072,0,0,0,0,0,0,0,-1,811,666,0.0325501,-0.161098
-406,358,-3.85846,0.753113,0,0,0,0,0,0,0,-1,818,666,-3.85846,-0.753129
-399,358,-1.31213,0.190735,0,0,0,0,0,0,0,-1,825,666,-1.31215,-0.190763
-392,358,-3.73914,-0.832214,0,0,0,0,0,0,0,-1,832,666,-3.73915,0.832202
-385,358,-5.95178,-1.69141,0,0,0,0,0,0,0,-1,839,666,-5.9518,1.69143
-378,358,0,0,0,0,0,0,0,0,0,-1,846,666,0,0
-371,358,0,0,0,0,0,0,0,0,0,-1,853,666,0,0
-364,358,0,0,0,0,0,0,0,0,0,-1,860,666,0,0
-357,358,0,0,0,0,0,0,0,0,0,-1,867,666,0,0
-350,358,0,0,0,0,0,0,0,0,0,-1,874,666,0,0
-343,358,0,0,0,0,0,0,0,0,0,-1,881,666,0,0
-336,358,0,0,0,0,0,0,0,0,0,-1,888,666,0,0
-329,358,0,0,0,0,0,0,0,0,0,-1,895,666,0,0
-322,358,0,0,0,0,0,0,0,0,0,-1,902,666,0,0
-315,358,0,0,0,0,0,0,0,0,0,-1,909,666,0,0
-308,358,0,0,0,0,0,0,0,0,0,-1,916,666,0,0
-301,358,0,0,0,0,0,0,0,0,0,-1,923,666,0,0
-294,358,0,0,0,0,0,0,0,0,0,-1,930,666,0,0
-287,358,0,0,0,0,0,0,0,0,0,-1,937,666,0,0
-280,358,0,0,0,0,0,0,0,0,0,-1,944,666,0,0
-273,358,0,0,0,0,0,0,0,0,0,-1,951,666,0,0
-266,358,0,0,0,0,0,0,0,0,0,-1,958,666,0,0
-259,358,0,0,0,0,0,0,0,0,0,-1,965,666,0,0
-252,358,0,0,0,0,0,0,0,0,0,-1,972,666,0,0
-245,358,0,0,0,0,0,0,0,0,0,-1,979,666,0,0
-238,358,0,0,0,0,0,0,0,0,0,-1,986,666,0,0
-231,358,0,0,0,0,0,0,0,0,0,-1,993,666,0,0
-224,358,0,0,0,0,0,0,0,0,0,-1,1000,666,0,0
-217,358,0,0,0,0,0,0,0,0,0,-1,1007,666,0,0
-210,358,0,0,0,0,0,0,0,0,0,-1,1014,666,0,0
-203,358,0,0,0,0,0,0,0,0,0,-1,1021,666,0,0
-196,358,0,0,0,0,0,0,0,0,0,-1,1028,666,0,0
-189,358,0,0,0,0,0,0,0,0,0,-1,1035,666,0,0
-182,358,0,0,0,0,0,0,0,0,0,-1,1042,666,0,0
-175,358,0,0,0,0,0,0,0,0,0,-1,1049,666,0,0
-168,358,0,0,0,0,0,0,0,0,0,-1,1056,666,0,0
-161,358,0,0,0,0,0,0,0,0,0,-1,1063,666,0,0
-154,358,0,0,0,0,0,0,0,0,0,-1,1070,666,0,0
-147,358,0,0,0,0,0,0,0,0,0,-1,1077,666,0,0
-140,358,0,0,0,0,0,0,0,0,0,-1,1084,666,0,0
-133,358,0,0,0,0,0,0,0,0,0,-1,1091,666,0,0
-126,358,0,0,0,0,0,0,0,0,0,-1,1098,666,0,0
-119,358,0,0,0,0,0,0,0,0,0,-1,1105,666,0,0
-112,358,0,0,0,0,0,0,0,0,0,-1,1112,666,0,0
-105,358,0,0,0,0,0,0,0,0,0,-1,1119,666,0,0
-98,358,0,0,0,0,0,0,0,0,0,-1,1126,666,0,0
-91,358,0,0,0,0,0,0,0,0,0,-1,1133,666,0,0
-84,358,0,0,0,0,0,0,0,0,0,-1,1140,666,0,0
-77,358,0,0,0,0,0,0,0,0,0,-1,1147,666,0,0
-70,358,0,0,0,0,0,0,0,0,0,-1,1154,666,0,0
-63,358,0,0,0,0,0,0,0,0,0,-1,1161,666,0,0
-56,358,0,0,0,0,0,0,0,0,0,-1,1168,666,0,0
-49,358,0,0,0,0,0,0,0,0,0,-1,1175,666,0,0
-42,358,0,0,0,0,0,0,0,0,0,-1,1182,666,0,0
-35,358,0,0,0,0,0,0,0,0,0,-1,1189,666,0,0
-28,358,0,0,0,0,0,0,0,0,0,-1,1196,666,0,0
-21,358,0,0,0,0,0,0,0,0,0,-1,1203,666,0,0
-14,358,0,0,0,0,0,0,0,0,0,-1,1210,666,0,0
-7,358,0,0,0,0,0,0,0,0,0,-1,1217,666,0,0
0,358,0,0,0,0,0,0,0,0,0,-1,1224,666,0,0
7,358,0,0,0,0,0,0,0,0,0,-1,1231,666,0,0
14,358,0,0,0,0,0,0,0,0,0,-1,1238,666,0,0
21,358,0,0,0,0,0,0,0,0,0,-1,1245,666,0,0
28,358,0,0,0,0,0,0,0,0,0,-1,1252,666,0,0
35,358,0,0,0,0,0,0,0,0,0,-1,1259,666,0,0
42,358,0,0,0,0,0,0,0,0,0,-1,1266,666,0,0
49,358,0,0,0,0,0,0,0,0,0,-1,1273,666,0,0
56,358,0,0,0,0,0,0,0,0,0,-1,1280,666,0,0
63,358,0,0,0,0,0,0,0,0,0,-1,1287,666,0,0
70,358,0,0,0,0,0,0,0,0,0,-1,1294,666,0,0
77,358,0,0,0,0,0,0,0,0,0,-1,1301,666,0,0
84,358,0,0,0,0,0,0,0,0,0,-1,1308,666,0,0
91,358,0,0,0,0,0,0,0,0,0,-1,1315,666,0,0
98,358,0,0,0,0,0,0,0,0,0,-1,1322,666,0,0
105,358,0,0,0,0,0,0,0,0,0,-1,1329,666,0,0
112,358,0,0,0,0,0,0,0,0,0,-1,1336,666,0,0
119,358,0,0,0,0,0,0,0,0,0,-1,1343,666,0,0
126,358,0,0,0,0,0,0,0,0,0,-1,1350,666,0,0
133,358,0,0,0,0,0,0,0,0,0,-1,1357,666,0,0
140,358,0,0,0,0,0,0,0,0,0,-1,1364,666,0,0
147,358,0,0,0,0,0,0,0,0,0,-1,1371,666,0,0
154,358,0,0,0,0,0,0,0,0,0,-1,1378,666,0,0
161,358,0,0,0,0,0,0,0,0,0,-1,1385,666,0,0
168,358,0,0,0,0,0,0,0,0,0,-1,1392,666,0,0
175,358,0,0,0,0,0,0,0,0,0,-1,1399,666,0,0
182,358,0,0,0,0,0,0,0,0,0,-1,1406,666,0,0
189,358,0,0,0,0,0,0,0,0,0,-1,1413,666,0,0
196,358,0,0,0,0,0,0,0,0,0,-1,1420,666,0,0
203,358,0,0,0,0,0,0,0,0,0,-1,1427,666,0,0
210,358,0,0,0,0,0,0,0,0,0,-1,1434,666,0,0
217,358,0,0,0,0,0,0,0,0,0,-1,1441,666,0,0
224,358,0,0,0,0,0,0,0,0,0,-1,1448,666,0,0
231,358,0,0,0,0,0,0,0,0,0,-1,1455,666,0,0
238,358,0,0,0,0,0,0,0,0,0,-1,1462,666,0,0
245,358,0,0,0,0,0,0,0,0,0,-1,1469,666,0,0
252,358,0,0,0,0,0,0,0,0,0,-1,1476,666,0,0
259,358,0,0,0,0,0,0,0,0,0,-1,1483,666,0,0
266,358,0,0,0,0,0,0,0,0,0,-1,1490,666,0,0
273,358,0,0,0,0,0,0,0,0,0,-1,1497,666,0,0
280,358,0,0,0,0,0,0,0,0,0,-1,1504,666,0,0
287,358,0,0,0,0,0,0,0,0,0,-1,1511,666,0,0
294,358,0,0,0,0,0,0,0,0,0,-1,1518,666,0,0
301,358,0,0,0,0,0,0,0,0,0,-1,1525,666,0,0
308,358,0,0,0,0,0,0,0,0,0,-1,1532,666,0,0
315,358,0,0,0,0,0,0,0,0,0,-1,1539,666,0,0
322,358,0,0,0,0,0,0,0,0,0,-1,1546,666,0,0
329,358,0,0,0,0,0,0,0,0,0,-1,1553,666,0,0
336,358,0,0,0,0,0,0,0,0,0,-1,1560,666,0,0
343,358,0,0,0,0,0,0,0,0,0,-1,1567,666,0,0
350,358,0,0,0,0,0,0,0,0,0,-1,1574,666,0,0
357,358,0,0,0,0,0,0,0,0,0,-1,1581,666,0,0
364,358,0,0,0,0,0,0,0,0,0,-1,1588,666,0,0
371,358,0,0,0,0,0,0,0,0,0,-1,1595,666,0,0
378,358,0,0,0,0,0,0,0,0,0,-1,1602,666,0,0
385,358,0,0,0,0,0,0,0,0,0,-1,1609,666,0,0
392,358,0,0,0,0,0,0,0,0,0,-1,1616,666,0,0
399,358,0,0,0,0,0,0,0,0,0,-1,1623,666,0,0
406,358,0,0,0,0,0,0,0,0,0,-1,1630,666,0,0
413,358,0,0,0,0,0,0,0,0,0,-1,1637,666,0,0
420,358,0,0,0,0,0,0,0,0,0,-1,1644,666,0,0
427,358,0,0,0,0,0,0,0,0,0,-1,1651,666,0,0
434,358,0,0,0,0,0,0,0,0,0,-1,1658,666,0,0
441,358,0,0,0,0,0,0,0,0,0,-1,1665,666,0,0
448,358,0,0,0,0,0,0,0,0,0,-1,1672,666,0,0
455,358,0,0,0,0,0,0,0,0,0,-1,1679,666,0,0
462,358,0,0,0,0,0,0,0,0,0,-1,1686,666,0,0
469,358,0,0,0,0,0,0,0,0,0,-1,1693,666,0,0
476,358,0,0,0,0,0,0,0,0,0,-1,1700,666,0,0
483,358,0,0,0,0,0,0,0,0,0,-1,1707,666,0,0
490,358,0,0,0,0,0,0,0,0,0,-1,1714,666,0,0
497,358,8.57239,1.1322,0,0,0,0,0,0,0,-1,1721,666,8.57234,-1.13219
504,358,10.5972,0.832947,0,0,0,0,0,0,0,-1,1728,666,10.5972,-0.832968
511,358,10.6873,0.868469,0,0,0,0,0,0,0,-1,1735,666,10.6872,-0.868484
518,358,10.7079,0.866211,0,0,0,0,0,0,0,-1,1742,666,10.7079,-0.8662
525,358,10.797,0.692993,0,0,0,0,0,0,0,-1,1749,666,10.797,-0.693009
532,358,13.5295,1.88013,0,0,0,0,0,0,0,-1,1756,666,13.5296,-1.88011
539,358,12.9438,1.70734,0,0,0,0,0,0,0,-1,1763,666,12.9438,-1.70732
546,358,12.3792,1.53558,0,0,0,0,0,0,0,-1,1770,666,12.3792,-1.5356
553,358,11.6584,1.26172,0,0,0,0,0,0,0,-1,1777,666,11.6585,-1.26175
560,358,10.8234,1.43042,0,0,0,0,0,0,0,-1,1784,666,10.8233,-1.43041
567,358,10.1333,-0.955139,0,0,0,0,0,0,0,-1,1791,666,10.1333,0.955132
574,358,9.83289,-1.47272,0,0,0,0,0,0,0,-1,1798,666,9.83283,1.47271
581,358,9.60388,-1.04608,-0.00461234,0.0104719,-0.00418145,0.0115534,-0.00569392,-1.31768,0.0101475,0.0281089,1805,666,9.60388,1.04605
588,358,9.46826,-0.885193,-0.00222807,0.00245968,-0.00386057,0.00463219,-0.00440059,-1.05822,0.00521565,0.0148791,1812,666,9.46826,0.885223
595,358,9.49438,-0.612,-0.000812062,-0.00213187,-0.00298663,0.00158669,-0.00453063,-0.676668,0.00366563,0.0116756,1819,666,9.49435,0.612001
602,358,9.495,-0.374756,-0.000453294,-0.0017303,-0.00185461,0.000869646,-0.00305324,-0.619614,0.00237896,0.0126135,1826,666,9.49503,0.374743
609,358,9.474,-0.187012,-0.000403267,-0.00120693,-0.00101639,0.000287838,-0.00189804,-0.597151,0.00137141,0.0153172,1833,666,9.47404,0.187003
616,358,9.47253,0.0383911,-0.000392908,-0.000552365,-0.0007841,0.000315507,-0.00126078,-0.734732,0.000963072,0.0147788,1840,666,9.47258,-0.0384058
623,358,9.50134,0.263245,-0.000299353,-0.000171853,-0.000914271,0.000680887,-0.00115209,-0.820206,0.00106986,0.0137392,1847,666,9.50135,-0.26324
630,358,9.49023,0.471863,0.000212853,3.24317e-05,-0.0011326,0.00125883,-0.00101354,-0.745657,0.0013145,0.0169818,1854,666,9.4902,-0.471893
637,358,9.49524,0.667908,0.000686282,0.000487236,-0.00130029,0.00189085,-0.00071733,-0.747203,0.00155581,0.0239995,1861,666,9.49527,-0.667907
644,358,9.50623,0.873901,0.000996719,0.000645039,-0.00189186,0.00272089,-0.00107914,-0.739058,0.00226117,0.0191679,1868,666,9.50618,-0.873924
651,358,9.56934,1.17035,0.0017003,0.000836001,-0.00256502,0.00386932,-0.00133302,-0.701943,0.00312029,0.0195927,1875,666,9.56932,-1.17037
658,358,9.33643,1.36243,0.00309798,0.00119842,-0.00320054,0.00548669,-0.0011903,-0.641159,0.00411238,0.0319737,1882,666,9.33645,-1.36241
665,358,9.02368,1.45007,0.0056606,0.00174176,-0.00370009,0.00788807,-0.000485707,-0.541891,0.00542786,0.0435156,1889,666,9.02368,-1.45007
672,358,8.82959,1.63184,0,0,0,0,0,0,0,-1,1896,666,8.82959,-1.63181
679,358,9.63855,2.05609,0,0,0,0,0,0,0,-1,1903,666,9.63859,-2.05612
686,358,10.7699,2.43762,0,0,0,0,0,0,0,-1,1910,666,10.7699,-2.43763
693,358,14.6539,-2.62823,0,0,0,0,0,0,0,-1,1917,666,14.6539,2.62825
700,358,0,0,0,0,0,0,0,0,0,-1,1924,666,0,0
707,358,0,0,0,0,0,0,0,0,0,-1,1931,666,0,0
714,358,0,0,0,0,0,0,0,0,0,-1,1938,666,0,0
721,358,0,0,0,0,0,0,0,0,0,-1,1945,666,0,0
728,358,0,0,0,0,0,0,0,0,0,-1,1952,666,0,0
735,358,0,0,0,0,0,0,0,0,0,-1,1959,666,0,0
742,358,0,0,0,0,0,0,0,0,0,-1,1966,666,0,0
749,358,0,0,0,0,0,0,0,0,0,-1,1973,666,0,0
756,358,0,0,0,0,0,0,0,0,0,-1,1980,666,0,0
763,358,0,0,0,0,0,0,0,0,0,-1,1987,666,0,0
770,358,0,0,0,0,0,0,0,0,0,-1,1994,666,0,0
777,358,0,0,0,0,0,0,0,0,0,-1,2001,666,0,0
784,358,0,0,0,0,0,0,0,0,0,-1,2008,666,0,0
791,358,0,0,0,0,0,0,0,0,0,-1,2015,666,0,0
798,358,0,0,0,0,0,0,0,0,0,-1,2022,666,0,0
805,358,0,0,0,0,0,0,0,0,0,-1,2029,666,0,0
812,358,0,0,0,0,0,0,0,0,0,-1,2036,666,0,0
-700,351,0,0,0,0,0,0,0,0,0,-1,524,673,0,0
-693,351,0,0,0,0,0,0,0,0,0,-1,531,673,0,0
-686,351,0,0,0,0,0,0,0,0,0,-1,538,673,0,0
-679,351,0,0,0,0,0,0,0,0,0,-1,545,673,0,0
-672,351,0,0,0,0,0,0,0,0,0,-1,552,673,0,0
-665,351,0,0,0,0,0,0,0,0,0,-1,559,673,0,0
-658,351,0,0,0,0,0,0,0,0,0,-1,566,673,0,0
-651,351,0,0,0,0,0,0,0,0,0,-1,573,673,0,0
-644,351,0,0,0,0,0,0,0,0,0,-1,580,673,0,0
-637,351,0,0,0,0,0,0,0,0,0,-1,587,673,0,0
-630,351,0,0,0,0,0,0,0,0,0,-1,594,673,0,0
-623,351,0,0,0,0,0,0,0,0,0,-1,601,673,0,0
-616,351,0,0,0,0,0,0,0,0,0,-1,608,673,0,0
-609,351,0,0,0,0,0,0,0,0,0,-1,615,673,0,0
-602,351,0,0,0,0,0,0,0,0,0,-1,622,673,0,0
-595,351,0,0,0,0,0,0,0,0,0,-1,629,673,0,0
-588,351,0,0,0,0,0,0,0,0,0,-1,636,673,0,0
-581,351,-7.97516,-0.949097,0,0,0,0,0,0,0,-1,643,673,-7.97516,0.949095
-574,351,-4.52863,-0.418213,0,0,0,0,0,0,0,-1,650,673,-4.5286,0.418234
-567,351,-4.32166,-1.91803,-0.0277952,-0.0214603,-0.0112514,-0.012939,-0.0363165,-0.922607,0.0212541,0.0473549,657,673,-4.32164,1.91803
-560,351,-5.15485,-1.86505,-0.0195169,-0.0166476,-0.00877849,-0.00918731,-0.0269772,-0.866394,0.0158371,0.0448913,664,673,-5.15487,1.86502
-553,351,-5.46527,-1.03009,0,0,0,0,0,0,0,-1,671,673,-5.46526,1.03011
-546,351,-5.21375,-0.710571,-0.00777988,-0.00940229,-0.00531682,-0.00321274,-0.0139694,-0.709695,0.00844818,0.0406862,678,673,-5.21374,0.710562
-539,351,-4.73279,-0.409119,-0.00395963,-0.00677985,-0.00412225,-0.00101298,-0.0097265,-0.620601,0.00617443,0.0381783,685,673,-4.73281,0.409118
-532,351,-4.68396,-0.546509,-0.0012624,-0.00478595,-0.00315956,0.000593383,-0.00664172,-0.531068,0.00463828,0.02751,692,673,-4.68394,0.546487
-525,351,-4.7699,-0.733765,0.000478698,-0.00330937,-0.0023658,0.00161524,-0.00444591,-0.447848,0.00362438,0.0177684,699,673,-4.76987,0.733765
-518,351,-4.80573,-0.862976,0.00126307,-0.00242548,-0.00166436,0.00190303,-0.00306544,-0.367083,0.0028946,0.0114415,706,673,-4.80572,0.862994
-511,351,-4.79974,-1.06476,0.00253033,-0.00149975,-0.000810803,0.00268734,-0.00165676,-0.191276,0.00253148,0.0111983,713,673,-4.79976,1.06476
-504,351,-4.81775,-1.29333,0.00330643,-0.000987984,-0.000343693,0.00333376,-0.00101532,-0.0793595,0.00262718,0.0104286,720,673,-4.81775,1.29335
-497,351,-4.8089,-1.48859,0.00337074,-0.00139545,-4.06565e-05,0.00337108,-0.0013958,-0.00852936,0.00282983,0.0104339,727,673,-4.80887,1.48857
-490,351,-4.80463,-1.68896,0.00327956,-0.00179824,0.000185984,0.00328636,-0.00180505,0.0365616,0.00298071,0.00991915,734,673,-4.80461,1.68897
-483,351,-4.81451,-1.88885,0.00365229,-0.00218226,0.000505465,0.00369575,-0.00222572,0.0857814,0.0034537,0.0115984,741,673,-4.81452,1.88884
-476,351,-4.82477,-2.08398,0.00420744,-0.00316062,0.00110032,0.00436825,-0.00332143,0.14512,0.00445333,0.0111499,748,673,-4.82478,2.08399
-469,351,-4.81256,-2.25989,0.00501618,-0.00411145,0.00167309,0.00531319,-0.00440846,0.175693,0.0056209,0.0126691,755,673,-4.81258,2.25988
-462,351,-4.80603,-2.50208,0.00619194,-0.00510127,0.00225457,0.0066254,-0.00553473,0.189942,0.00703006,0.0162759,762,673,-4.80601,2.50206
-455,351,-4.74878,-2.79785,0.00725459,-0.00625129,0.00309691,0.00793085,-0.00692756,0.214992,0.00858502,0.0272674,769,673,-4.74877,2.79787
-448,351,-4.50024,-2.90063,0,0,0,0,0,0,0,-1,776,673,-4.50024,2.90066
-441,351,-4.31567,-2.3009,0,0,0,0,0,0,0,-1,783,673,-4.31565,2.30089
-434,351,-3.81708,-2.28003,0,0,0,0,0,0,0,-1,790,673,-3.81706,2.28006
-427,351,-2.05157,-2.7785,0,0,0,0,0,0,0,-1,797,673,-2.05157,2.77848
-420,351,-1.06989,-2.43665,0,0,0,0,0,0,0,-1,804,673,-1.06991,2.43663
-413,351,-0.392334,-2.06671,0,0,0,0,0,0,0,-1,811,673,-0.392363,2.06672
-406,351,-1.86316,-2.58105,0,0,0,0,0,0,0,-1,818,673,-1.86313,2.58106
-399,351,1.00952,-1.53455,0,0,0,0,0,0,0,-1,825,673,1.00954,1.53457
-392,351,-1.02197,0.877136,0,0,0,0,0,0,0,-1,832,673,-1.02195,-0.877143
-385,351,-1.47205,1.04437,0,0,0,0,0,0,0,-1,839,673,-1.47207,-1.04435
-378,351,0,0,0,0,0,0,0,0,0,-1,846,673,0,0
-371,351,0,0,0,0,0,0,0,0,0,-1,853,673,0,0
-364,351,0,0,0,0,0,0,0,0,0,-1,860,673,0,0
-357,351,0,0,0,0,0,0,0,0,0,-1,867,673,0,0
-350,351,0,0,0,0,0,0,0,0,0,-1,874,673,0,0
-343,351,0,0,0,0,0,0,0,0,0,-1,881,673,0,0
-336,351,0,0,0,0,0,0,0,0,0,-1,888,673,0,0
-329,351,0,0,0,0,0,0,0,0,0,-1,895,673,0,0
-322,351,0,0,0,0,0,0,0,0,0,-1,902,673,0,0
-315,351,0,0,0,0,0,0,0,0,0,-1,909,673,0,0
-308,351,0,0,0,0,0,0,0,0,0,-1,916,673,0,0
-301,351,0,0,0,0,0,0,0,0,0,-1,923,673,0,0
-294,351,0,0,0,0,0,0,0,0,0,-1,930,673,0,0
-287,351,0,0,0,0,0,0,0,0,0,-1,937,673,0,0
-280,351,0,0,0,0,0,0,0,0,0,-1,944,673,0,0
-273,351,0,0,0,0,0,0,0,0,0,-1,951,673,0,0
-266,351,0,0,0,0,0,0,0,0,0,-1,958,673,0,0
-259,351,0,0,0,0,0,0,0,0,0,-1,965,673,0,0
-252,351,0,0,0,0,0,0,0,0,0,-1,972,673,0,0
-245,351,0,0,0,0,0,0,0,0,0,-1,979,673,0,0
-238,351,0,0,0,0,0,0,0,0,0,-1,986,673,0,0
-231,351,0,0,0,0,0,0,0,0,0,-1,993,673,0,0
-224,351,0,0,0,0,0,0,0,0,0,-1,1000,673,0,0
-217,351,0,0,0,0,0,0,0,0,0,-1,1007,673,0,0
-210,351,0,0,0,0,0,0,0,0,0,-1,1014,673,0,0
-203,351,0,0,0,0,0,0,0,0,0,-1,1021,673,0,0
-196,351,0,0,0,0,0,0,0,0,0,-1,1028,673,0,0
-189,351,0,0,0,0,0,0,0,0,0,-1,1035,673,0,0
-182,351,0,0,0,0,0,0,0,0,0,-1,1042,673,0,0
-175,351,0,0,0,0,0,0,0,0,0,-1,1049,673,0,0
-168,351,0,0,0,0,0,0,0,0,0,-1,1056,673,0,0
-161,351,0,0,0,0,0,0,0,0,0,-1,1063,673,0,0
-154,351,0,0,0,0,0,0,0,0,0,-1,1070,673,0,0
-147,351,0,0,0,0,0,0,0,0,0,-1,1077,673,0,0
-140,351,0,0,0,0,0,0,0,0,0,-1,1084,673,0,0
-133,351,0,0,0,0,0,0,0,0,0,-1,1091,673,0,0
-126,351,0,0,0,0,0,0,0,0,0,-1,1098,673,0,0
-119,351,0,0,0,0,0,0,0,0,0,-1,1105,673,0,0
-112,351,0,0,0,0,0,0,0,0,0,-1,1112,673,0,0
-105,351,0,0,0,0,0,0,0,0,0,-1,1119,673,0,0
-98,351,0,0,0,0,0,0,0,0,0,-1,1126,673,0,0
-91,351,0,0,0,0,0,0,0,0,0,-1,1133,673,0,0
-84,351,0,0,0,0,0,0,0,0,0,-1,1140,673,0,0
-77,351,0,0,0,0,0,0,0,0,0,-1,1147,673,0,0
-70,351,0,0,0,0,0,0,0,0,0,-1,1154,673,0,0
-63,351,0,0,0,0,0,0,0,0,0,-1,1161,673,0,0
-56,351,0,0,0,0,0,0,0,0,0,-1,1168,673,0,0
-49,351,0,0,0,0,0,0,0,0,0,-1,1175,673,0,0
-42,351,0,0,0,0,0,0,0,0,0,-1,1182,673,0,0
-35,351,0,0,0,0,0,0,0,0,0,-1,1189,673,0,0
-28,351,0,0,0,0,0,0,0,0,0,-1,1196,673,0,0
-21,351,0,0,0,0,0,0,0,0,0,-1,1203,673,0,0
-14,351,0,0,0,0,0,0,0,0,0,-1,1210,673,0,0
-7,351,0,0,0,0,0,0,0,0,0,-1,1217,673,0,0
0,351,0,0,0,0,0,0,0,0,0,-1,1224,673,0,0
7,351,0,0,0,0,0,0,0,0,0,-1,1231,673,0,0
14,351,0,0,0,0,0,0,0,0,0,-1,1238,673,0,0
21,351,0,0,0,0,0,0,0,0,0,-1,1245,673,0,0
28,351,0,0,0,0,0,0,0,0,0,-1,1252,673,0,0
35,351,0,0,0,0,0,0,0,0,0,-1,1259,673,0,0
42,351,0,0,0,0,0,0,0,0,0,-1,1266,673,0,0
49,351,0,0,0,0,0,0,0,0,0,-1,1273,673,0,0
56,351,0,0,0,0,0,0,0,0,0,-1,1280,673,0,0
63,351,0,0,0,0,0,0,0,0,0,-1,1287,673,0,0
70,351,0,0,0,0,0,0,0,0,0,-1,1294,673,0,0
77,351,0,0,0,0,0,0,0,0,0,-1,1301,673,0,0
84,351,0,0,0,0,0,0,0,0,0,-1,1308,673,0,0
91,351,0,0,0,0,0,0,0,0,0,-1,1315,673,0,0
98,351,0,0,0,0,0,0,0,0,0,-1,1322,673,0,0
105,351,0,0,0,0,0,0,0,0,0,-1,1329,673,0,0
112,351,0,0,0,0,0,0,0,0,0,-1,1336,673,0,0
119,351,0,0,0,0,0,0,0,0,0,-1,1343,673,0,0
126,351,0,0,0,0,0,0,0,0,0,-1,1350,673,0,0
133,351,0,0,0,0,0,0,0,0,0,-1,1357,673,0,0
140,351,0,0,0,0,0,0,0,0,0,-1,1364,673,0,0
147,351,0,0,0,0,0,0,0,0,0,-1,1371,673,0,0
154,351,0,0,0,0,0,0,0,0,0,-1,1378,673,0,0
161,351,0,0,0,0,0,0,0,0,0,-1,1385,673,0,0
168,351,0,0,0,0,0,0,0,0,0,-1,1392,673,0,0
175,351,0,0,0,0,0,0,0,0,0,-1,1399,673,0,0
182,351,0,0,0,0,0,0,0,0,0,-1,1406,673,0,0
189,351,0,0,0,0,0,0,0,0,0,-1,1413,673,0,0
196,351,0,0,0,0,0,0,0,0,0,-1,1420,673,0,0
203,351,0,0,0,0,0,0,0,0,0,-1,1427,673,0,0
210,351,0,0,0,0,0,0,0,0,0,-1,1434,673,0,0
217,351,0,0,0,0,0,0,0,0,0,-1,1441,673,0,0
224,351,0,0,0,0,0,0,0,0,0,-1,1448,673,0,0
231,351,0,0,0,0,0,0,0,0,0,-1,1455,673,0,0
238,351,0,0,0,0,0,0,0,0,0,-1,1462,673,0,0
245,351,0,0,0,0,0,0,0,0,0,-1,1469,673,0,0
252,351,0,0,0,0,0,0,0,0,0,-1,1476,673,0,0
259,351,0,0,0,0,0,0,0,0,0,-1,1483,673,0,0
266,351,0,0,0,0,0,0,0,0,0,-1,1490,673,0,0
273,351,0,0,0,0,0,0,0,0,0,-1,1497,673,0,0
280,351,0,0,0,0,0,0,0,0,0,-1,1504,673,0,0
287,351,0,0,0,0,0,0,0,0,0,-1,1511,673,0,0
294,351,0,0,0,0,0,0,0,0,0,-1,1518,673,0,0
301,351,0,0,0,0,0,0,0,0,0,-1,1525,673,0,0
308,351,0,0,0,0,0,0,0,0,0,-1,1532,673,0,0
315,351,0,0,0,0,0,0,0,0,0,-1,1539,673,0,0
322,351,0,0,0,0,0,0,0,0,0,-1,1546,673,0,0
329,351,0,0,0,0,0,0,0,0,0,-1,1553,673,0,0
336,351,0,0,0,0,0,0,0,0,0,-1,1560,673,0,0
343,351,0,0,0,0,0,0,0,0,0,-1,1567,673,0,0
350,351,0,0,0,0,0,0,0,0,0,-1,1574,673,0,0
357,351,0,0,0,0,0,0,0,0,0,-1,1581,673,0,0
364,351,0,0,0,0,0,0,0,0,0,-1,1588,673,0,0
371,351,0,0,0,0,0,0,0,0,0,-1,1595,673,0,0
378,351,0,0,0,0,0,0,0,0,0,-1,1602,673,0,0
385,351,0,0,0,0,0,0,0,0,0,-1,1609,673,0,0
392,351,0,0,0,0,0,0,0,0,0,-1,1616,673,0,0
399,351,0,0,0,0,0,0,0,0,0,-1,1623,673,0,0
406,351,0,0,0,0,0,0,0,0,0,-1,1630,673,0,0
413,351,0,0,0,0,0,0,0,0,0,-1,1637,673,0,0
420,351,0,0,0,0,0,0,0,0,0,-1,1644,673,0,0
427,351,0,0,0,0,0,0,0,0,0,-1,1651,673,0,0
434,351,0,0,0,0,0,0,0,0,0,-1,1658,673,0,0
441,351,0,0,0,0,0,0,0,0,0,-1,1665,673,0,0
448,351,0,0,0,0,0,0,0,0,0,-1,1672,673,0,0
455,351,0,0,0,0,0,0,0,0,0,-1,1679,673,0,0
462,351,0,0,0,0,0,0,0,0,0,-1,1686,673,0,0
469,351,0,0,0,0,0,0,0,0,0,-1,1693,673,0,0
476,351,0,0,0,0,0,0,0,0,0,-1,1700,673,0,0
483,351,0,0,0,0,0,0,0,0,0,-1,1707,673,0,0
490,351,0,0,0,0,0,0,0,0,0,-1,1714,673,0,0
497,351,0,0,0,0,0,0,0,0,0,-1,1721,673,0,0
504,351,10.8842,1.61615,0,0,0,0,0,0,0,-1,1728,673,10.8842,-1.61618
511,351,15.4548,0.0236816,0,0,0,0,0,0,0,-1,1735,673,15.4549,-0.0236664
518,351,15.4282,0.152954,0,0,0,0,0,0,0,-1,1742,673,15.4282,-0.152972
525,351,15.4595,0.39502,0,0,0,0,0,0,0,-1,1749,673,15.4595,-0.395007
532,351,13.8259,2.63629,0,0,0,0,0,0,0,-1,1756,673,13.8259,-2.63632
539,351,13.2594,2.43634,0,0,0,0,0,0,0,-1,1763,673,13.2594,-2.43634
546,351,12.6396,2.22565,0,0,0,0,0,0,0,-1,1770,673,12.6396,-2.22564
553,351,12.0682,2.02832,0,0,0,0,0,0,0,-1,1777,673,12.0683,-2.02831
560,351,12.0173,0.55304,0,0,0,0,0,0,0,-1,1784,673,12.0174,-0.553028
567,351,10.7827,0.130188,0,0,0,0,0,0,0,-1,1791,673,10.7827,-0.130183
574,351,10.5862,-0.57373,0,0,0,0,0,0,0,-1,1798,673,10.5862,0.573748
581,351,10.1765,-0.677185,-0.00172238,0.0143807,-0.00446719,0.0155369,-0.00287861,-1.31753,0.0114389,0.0453542,1805,673,10.1765,0.677161
588,351,9.71167,-0.833252,0.000553222,0.00515767,-0.00409143,0.00755013,-0.00183924,-1.04167,0.00574548,0.0287025,1812,673,9.71166,0.833237
595,351,9.71301,-0.657959,0.00158651,-0.00108218,-0.0031949,0.00371452,-0.00321018,-0.587585,0.00400151,0.0171055,1819,673,9.71304,0.65796
602,351,9.74329,-0.398071,0.00134331,-0.00166843,-0.00197391,0.00232017,-0.0026453,-0.45955,0.00286886,0.0171666,1826,673,9.74331,0.398086
609,351,9.75269,-0.193298,0.000599774,-0.00169537,-0.000837696,0.000872996,-0.00196859,-0.31528,0.00168075,0.0161132,1833,673,9.75265,0.19329
616,351,9.73804,0.0334473,-2.49124e-05,-0.000888027,-0.000576136,0.000263374,-0.00117631,-0.46395,0.000885159,0.0140723,1840,673,9.73802,-0.0334602
623,351,9.71436,0.271973,-0.000234273,-0.000554047,-0.000815365,0.000436733,-0.00122505,-0.688581,0.000994767,0.0145631,1847,673,9.71431,-0.271982
630,351,9.72974,0.465088,6.37175e-05,-0.000404805,-0.00106846,0.000923299,-0.00126439,-0.677481,0.00126817,0.0226365,1854,673,9.72968,-0.465105
637,351,9.72498,0.672974,0.000555229,0.000131427,-0.00110946,0.00147284,-0.000786183,-0.691037,0.00132418,0.0264914,1861,673,9.72498,-0.672963
644,351,9.72107,0.89624,0.000878893,0.000345835,-0.00158864,0.00222321,-0.000998479,-0.702286,0.00190431,0.0200971,1868,673,9.7211,-0.896218
651,351,9.74316,1.14703,0.00160228,0.000600196,-0.00208354,0.00324418,-0.0010417,-0.6674,0.00258106,0.0149891,1875,673,9.74321,-1.14704
658,351,9.7323,1.38873,0.00292546,0.00101074,-0.00253039,0.00467354,-0.000737339,-0.604548,0.00338832,0.0222029,1882,673,9.73226,-1.38875
665,351,9.5282,1.50952,0.00526477,0.00160118,-0.00280849,0.00678605,7.99017e-05,-0.496426,0.00449764,0.0297006,1889,673,9.5282,-1.50954
672,351,9.56335,1.85297,0.00903742,0.00269883,-0.00281658,0.0101081,0.00162813,-0.363271,0.00626694,0.0413304,1896,673,9.56338,-1.85295
679,351,9.92285,1.93829,0.0147521,0.00447425,-0.00232514,0.0152536,0.00397271,-0.212448,0.00913741,0.0469405,1903,673,9.92281,-1.93828
686,351,10.9839,2.20209,0,0,0,0,0,0,0,-1,1910,673,10.9839,-2.20209
693,351,12.0637,2.77539,0,0,0,0,0,0,0,-1,1917,673,12.0637,-2.77538
700,351,14.5629,-2.40173,0,0,0,0,0,0,0,-1,1924,673,14.5629,2.40172
707,351,0,0,0,0,0,0,0,0,0,-1,1931,673,0,0
714,351,0,0,0,0,0,0,0,0,0,-1,1938,673,0,0
721,351,0,0,0,0,0,0,0,0,0,-1,1945,673,0,0
728,351,0,0,0,0,0,0,0,0,0,-1,1952,673,0,0
735,351,0,0,0,0,0,0,0,0,0,-1,1959,673,0,0
742,351,0,0,0,0,0,0,0,0,0,-1,1966,673,0,0
749,351,0,0,0,0,0,0,0,0,0,-1,1973,673,0,0
756,351,0,0,0,0,0,0,0,0,0,-1,1980,673,0,0
763,351,0,0,0,0,0,0,0,0,0,-1,1987,673,0,0
770,351,0,0,0,0,0,0,0,0,0,-1,1994,673,0,0
777,351,0,0,0,0,0,0,0,0,0,-1,2001,673,0,0
784,351,0,0,0,0,0,0,0,0,0,-1,2008,673,0,0
791,351,0,0,0,0,0,0,0,0,0,-1,2015,673,0,0
798,351,0,0,0,0,0,0,0,0,0,-1,2022,673,0,0
805,351,0,0,0,0,0,0,0,0,0,-1,2029,673,0,0
812,351,0,0,0,0,0,0,0,0,0,-1,2036,673,0,0
-700,344,0,0,0,0,0,0,0,0,0,-1,524,680,0,0
-693,344,0,0,0,0,0,0,0,0,0,-1,531,680,0,0
-686,344,0,0,0,0,0,0,0,0,0,-1,538,680,0,0
-679,344,0,0,0,0,0,0,0,0,0,-1,545,680,0,0
-672,344,0,0,0,0,0,0,0,0,0,-1,552,680,0,0
-665,344,0,0,0,0,0,0,0,0,0,-1,559,680,0,0
-658,344,0,0,0,0,0,0,0,0,0,-1,566,680,0,0
-651,344,0,0,0,0,0,0,0,0,0,-1,573,680,0,0
-644,344,0,0,0,0,0,0,0,0,0,-1,580,680,0,0
-637,344,0,0,0,0,0,0,0,0,0,-1,587,680,0,0
-630,344,0,0,0,0,0,0,0,0,0,-1,594,680,0,0
-623,344,0,0,0,0,0,0,0,0,0,-1,601,680,0,0
-616,344,0,0,0,0,0,0,0,0,0,-1,608,680,0,0
-609,344,0,0,0,0,0,0,0,0,0,-1,615,680,0,0
-602,344,0,0,0,0,0,0,0,0,0,-1,622,680,0,0
-595,344,0,0,0,0,0,0,0,0,0,-1,629,680,0,0
-588,344,-8.7923,-1.1908,0,0,0,0,0,0,0,-1,636,680,-8.79228,1.19078
-581,344,-8.20551,-0.296204,0,0,0,0,0,0,0,-1,643,680,-8.20552,0.296182
-574,344,-2.98486,-0.517151,0,0,0,0,0,0,0,-1,650,680,-2.98486,0.517167
-567,344,-3.7074,-0.454773,-0.0288263,-0.0231978,-0.0101115,-0.0155161,-0.0365079,-0.921124,0.0211567,0.0466901,657,680,-3.70738,0.454761
-560,344,-4.52814,-0.361206,-0.0213498,-0.0183695,-0.00757819,-0.0121363,-0.0275829,-0.882478,0.0159632,0.0410905,664,680,-4.52814,0.361229
-553,344,-5.02222,-0.14325,-0.0149924,-0.0140097,-0.00570995,-0.00877001,-0.0202321,-0.828321,0.0117154,0.0452732,671,680,-5.0222,0.143243
-546,344,-5.00867,-0.174316,-0.00980719,-0.0102832,-0.00434432,-0.00569435,-0.014396,-0.758034,0.00837178,0.0460548,678,680,-5.00867,0.174305
-539,344,-4.94983,-0.361267,-0.00576364,-0.00722907,-0.00333839,-0.0030785,-0.00991421,-0.67737,0.00585938,0.0350677,685,680,-4.94985,0.361275
-532,344,-4.92377,-0.500122,-0.00275687,-0.00487425,-0.00257985,-0.00102693,-0.00660419,-0.590692,0.00410354,0.0187748,692,680,-4.92377,0.500128
-525,344,-5.0014,-0.661499,-0.000667882,-0.0031215,-0.00198978,0.000442893,-0.00423227,-0.509147,0.00298014,0.0169001,699,680,-5.00142,0.661494
-518,344,-5.02686,-0.882446,0.000442099,-0.00201643,-0.00147118,0.00112998,-0.00270432,-0.437371,0.00227509,0.0187397,706,680,-5.02687,0.882434
-511,344,-5.026,-1.07239,0.00200536,-0.00114143,-0.000717558,0.00216126,-0.00129733,-0.21394,0.00201748,0.0170714,713,680,-5.02598,1.07241
-504,344,-5.02179,-1.30029,0.00305949,-0.000883113,-0.000213588,0.00307103,-0.000894651,-0.0539637,0.00240177,0.0173478,720,680,-5.02179,1.3003
-497,344,-5.01477,-1.49414,0.00346264,-0.00136972,0.000134107,0.00346636,-0.00137344,0.0277233,0.00288004,0.0144891,727,680,-5.01478,1.49412
-490,344,-5.0376,-1.69452,0.0036152,-0.00206065,0.000558958,0.00366973,-0.00211517,0.0972353,0.00337987,0.0128329,734,680,-5.03759,1.69453
-483,344,-5.01831,-1.89844,0.00415216,-0.00278731,0.00115413,0.00433907,-0.00297422,0.160557,0.00424677,0.0124514,741,680,-5.0183,1.89841
-476,344,-5.02014,-2.08606,0.0049201,-0.00400063,0.00202567,0.00535853,-0.00443906,0.21315,0.00566494,0.0132562,748,680,-5.02012,2.08608
-469,344,-5.02429,-2.28668,0.00601244,-0.00527293,0.00293037,0.00672798,-0.00598847,0.239493,0.00734598,0.0118444,755,680,-5.02432,2.28669
-462,344,-5.00696,-2.54364,0.00737295,-0.0065949,0.00395654,0.00841582,-0.00763777,0.257719,0.00927217,0.0194985,762,680,-5.00699,2.54363
-455,344,-5.09192,-2.53363,0.008526,-0.00797514,0.00528299,0.0100725,-0.00952161,0.284769,0.0113141,0.0422619,769,680,-5.09193,2.53364
-448,344,-5.08746,-2.37427,0,0,0,0,0,0,0,-1,776,680,-5.08745,2.37425
-441,344,-5.09229,-2.34167,0,0,0,0,0,0,0,-1,783,680,-5.09229,2.34168
-434,344,-4.28778,-2.08807,0,0,0,0,0,0,0,-1,790,680,-4.28778,2.08809
-427,344,-3.06506,-1.45404,0,0,0,0,0,0,0,-1,797,680,-3.06505,1.45402
-420,344,-1.96582,-1.57574,0,0,0,0,0,0,0,-1,804,680,-1.96579,1.57574
-413,344,-0.817993,-1.4751,0,0,0,0,0,0,0,-1,811,680,-0.818017,1.47511
-406,344,-0.00714111,-1.25189,0,0,0,0,0,0,0,-1,818,680,-0.00714956,1.25191
-399,344,0.240051,-1.75769,0,0,0,0,0,0,0,-1,825,680,0.240079,1.75767
-392,344,1.11353,-2.05615,0,0,0,0,0,0,0,-1,832,680,1.11351,2.05616
-385,344,0,0,0,0,0,0,0,0,0,-1,839,680,0,0
-378,344,0,0,0,0,0,0,0,0,0,-1,846,680,0,0
-371,344,0,0,0,0,0,0,0,0,0,-1,853,680,0,0
-364,344,0,0,0,0,0,0,0,0,0,-1,860,680,0,0
-357,344,0,0,0,0,0,0,0,0,0,-1,867,680,0,0
-350,344,0,0,0,0,0,0,0,0,0,-1,874,680,0,0
-343,344,0,0,0,0,0,0,0,0,0,-1,881,680,0,0
-336,344,0,0,0,0,0,0,0,0,0,-1,888,680,0,0
-329,344,0,0,0,0,0,0,0,0,0,-1,895,680,0,0
-322,344,0,0,0,0,0,0,0,0,0,-1,902,680,0,0
-315,344,0,0,0,0,0,0,0,0,0,-1,909,680,0,0
-308,344,0,0,0,0,0,0,0,0,0,-1,916,680,0,0
-301,344,0,0,0,0,0,0,0,0,0,-1,923,680,0,0
-294,344,0,0,0,0,0,0,0,0,0,-1,930,680,0,0
-287,344,0,0,0,0,0,0,0,0,0,-1,937,680,0,0
-280,344,0,0,0,0,0,0,0,0,0,-1,944,680,0,0
-273,344,0,0,0,0,0,0,0,0,0,-1,951,680,0,0
-266,344,0,0,0,0,0,0,0,0,0,-1,958,680,0,0
-259,344,0,0,0,0,0,0,0,0,0,-1,965,680,0,0
-252,344,0,0,0,0,0,0,0,0,0,-1,972,680,0,0
-245,344,0,0,0,0,0,0,0,0,0,-1,979,680,0,0
-238,344,0,0,0,0,0,0,0,0,0,-1,986,680,0,0
-231,344,0,0,0,0,0,0,0,0,0,-1,993,680,0,0
-224,344,0,0,0,0,0,0,0,0,0,-1,1000,680,0,0
-217,344,0,0,0,0,0,0,0,0,0,-1,1007,680,0,0
-210,344,0,0,0,0,0,0,0,0,0,-1,1014,680,0,0
-203,344,0,0,0,0,0,0,0,0,0,-1,1021,680,0,0
-196,344,0,0,0,0,0,0,0,0,0,-1,1028,680,0,0
-189,344,0,0,0,0,0,0,0,0,0,-1,1035,680,0,0
-182,344,0,0,0,0,0,0,0,0,0,-1,1042,680,0,0
-175,344,0,0,0,0,0,0,0,0,0,-1,1049,680,0,0
-168,344,0,0,0,0,0,0,0,0,0,-1,1056,680,0,0
-161,344,0,0,0,0,0,0,0,0,0,-1,1063,680,0,0
-154,344,0,0,0,0,0,0,0,0,0,-1,1070,680,0,0
-147,344,0,0,0,0,0,0,0,0,0,-1,1077,680,0,0
-140,344,0,0,0,0,0,0,0,0,0,-1,1084,680,0,0
-133,344,0,0,0,0,0,0,0,0,0,-1,1091,680,0,0
-126,344,0,0,0,0,0,0,0,0,0,-1,1098,680,0,0
-119,344,0,0,0,0,0,0,0,0,0,-1,1105,680,0,0
-112,344,0,0,0,0,0,0,0,0,0,-1,1112,680,0,0
-105,344,0,0,0,0,0,0,0,0,0,-1,1119,680,0,0
-98,344,0,0,0,0,0,0,0,0,0,-1,1126,680,0,0
-91,344,0,0,0,0,0,0,0,0,0,-1,1133,680,0,0
-84,344,0,0,0,0,0,0,0,0,0,-1,1140,680,0,0
-77,344,0,0,0,0,0,0,0,0,0,-1,1147,680,0,0
-70,344,0,0,0,0,0,0,0,0,0,-1,1154,680,0,0
-63,344,0,0,0,0,0,0,0,0,0,-1,1161,680,0,0
-56,344,0,0,0,0,0,0,0,0,0,-1,1168,680,0,0
-49,344,0,0,0,0,0,0,0,0,0,-1,1175,680,0,0
-42,344,0,0,0,0,0,0,0,0,0,-1,1182,680,0,0
-35,344,0,0,0,0,0,0,0,0,0,-1,1189,680,0,0
-28,344,0,0,0,0,0,0,0,0,0,-1,1196,680,0,0
-21,344,0,0,0,0,0,0,0,0,0,-1,1203,680,0,0
-14,344,0,0,0,0,0,0,0,0,0,-1,1210,680,0,0
-7,344,0,0,0,0,0,0,0,0,0,-1,1217,680,0,0
0,344,0,0,0,0,0,0,0,0,0,-1,1224,680,0,0
7,344,0,0,0,0,0,0,0,0,0,-1,1231,680,0,0
14,344,0,0,0,0,0,0,0,0,0,-1,1238,680,0,0
21,344,0,0,0,0,0,0,0,0,0,-1,1245,680,0,0
28,344,0,0,0,0,0,0,0,0,0,-1,1252,680,0,0
35,344,0,0,0,0,0,0,0,0,0,-1,1259,680,0,0
42,344,0,0,0,0,0,0,0,0,0,-1,1266,680,0,0
49,344,0,0,0,0,0,0,0,0,0,-1,1273,680,0,0
56,344,0,0,0,0,0,0,0,0,0,-1,1280,680,0,0
63,344,0,0,0,0,0,0,0,0,0,-1,1287,680,0,0
70,344,0,0,0,0,0,0,0,0,0,-1,1294,680,0,0
77,344,0,0,0,0,0,0,0,0,0,-1,1301,680,0,0
84,344,0,0,0,0,0,0,0,0,0,-1,1308,680,0,0
91,344,0,0,0,0,0,0,0,0,0,-1,1315,680,0,0
98,344,0,0,0,0,0,0,0,0,0,-1,1322,680,0,0
105,344,0,0,0,0,0,0,0,0,0,-1,1329,680,0,0
112,344,0,0,0,0,0,0,0,0,0,-1,1336,680,0,0
119,344,0,0,0,0,0,0,0,0,0,-1,1343,680,0,0
126,344,0,0,0,0,0,0,0,0,0,-1,1350,680,0,0
133,344,0,0,0,0,0,0,0,0,0,-1,1357,680,0,0
140,344,0,0,0,0,0,0,0,0,0,-1,1364,680,0,0
147,344,0,0,0,0,0,0,0,0,0,-1,1371,680,0,0
154,344,0,0,0,0,0,0,0,0,0,-1,1378,680,0,0
161,344,0,0,0,0,0,0,0,0,0,-1,1385,680,0,0
168,344,0,0,0,0,0,0,0,0,0,-1,1392,680,0,0
175,344,0,0,0,0,0,0,0,0,0,-1,1399,680,0,0
182,344,0,0,0,0,0,0,0,0,0,-1,1406,680,0,0
189,344,0,0,0,0,0,0,0,0,0,-1,1413,680,0,0
196,344,0,0,0,0,0,0,0,0,0,-1,1420,680,0,0
203,344,0,0,0,0,0,0,0,0,0,-1,1427,680,0,0
210,344,0,0,0,0,0,0,0,0,0,-1,1434,680,0,0
217,344,0,0,0,0,0,0,0,0,0,-1,1441,680,0,0
224,344,0,0,0,0,0,0,0,0,0,-1,1448,680,0,0
231,344,0,0,0,0,0,0,0,0,0,-1,1455,680,0,0
238,344,0,0,0,0,0,0,0,0,0,-1,1462,680,0,0
245,344,0,0,0,0,0,0,0,0,0,-1,1469,680,0,0
252,344,0,0,0,0,0,0,0,0,0,-1,1476,680,0,0
259,344,0,0,0,0,0,0,0,0,0,-1,1483,680,0,0
266,344,0,0,0,0,0,0,0,0,0,-1,1490,680,0,0
273,344,0,0,0,0,0,0,0,0,0,-1,1497,680,0,0
280,344,0,0,0,0,0,0,0,0,0,-1,1504,680,0,0
287,344,0,0,0,0,0,0,0,0,0,-1,1511,680,0,0
294,344,0,0,0,0,0,0,0,0,0,-1,1518,680,0,0
301,344,0,0,0,0,0,0,0,0,0,-1,1525,680,0,0
308,344,0,0,0,0,0,0,0,0,0,-1,1532,680,0,0
315,344,0,0,0,0,0,0,0,0,0,-1,1539,680,0,0
322,344,0,0,0,0,0,0,0,0,0,-1,1546,680,0,0
329,344,0,0,0,0,0,0,0,0,0,-1,1553,680,0,0
336,344,0,0,0,0,0,0,0,0,0,-1,1560,680,0,0
343,344,0,0,0,0,0,0,0,0,0,-1,1567,680,0,0
350,344,0,0,0,0,0,0,0,0,0,-1,1574,680,0,0
357,344,0,0,0,0,0,0,0,0,0,-1,1581,680,0,0
364,344,0,0,0,0,0,0,0,0,0,-1,1588,680,0,0
371,344,0,0,0,0,0,0,0,0,0,-1,1595,680,0,0
378,344,0,0,0,0,0,0,0,0,0,-1,1602,680,0,0
385,344,0,0,0,0,0,0,0,0,0,-1,1609,680,0,0
392,344,0,0,0,0,0,0,0,0,0,-1,1616,680,0,0
399,344,0,0,0,0,0,0,0,0,0,-1,1623,680,0,0
406,344,0,0,0,0,0,0,0,0,0,-1,1630,680,0,0
413,344,0,0,0,0,0,0,0,0,0,-1,1637,680,0,0
420,344,0,0,0,0,0,0,0,0,0,-1,1644,680,0,0
427,344,0,0,0,0,0,0,0,0,0,-1,1651,680,0,0
434,344,0,0,0,0,0,0,0,0,0,-1,1658,680,0,0
441,344,0,0,0,0,0,0,0,0,0,-1,1665,680,0,0
448,344,0,0,0,0,0,0,0,0,0,-1,1672,680,0,0
455,344,0,0,0,0,0,0,0,0,0,-1,1679,680,0,0
462,344,0,0,0,0,0,0,0,0,0,-1,1686,680,0,0
469,344,0,0,0,0,0,0,0,0,0,-1,1693,680,0,0
476,344,0,0,0,0,0,0,0,0,0,-1,1700,680,0,0
483,344,0,0,0,0,0,0,0,0,0,-1,1707,680,0,0
490,344,0,0,0,0,0,0,0,0,0,-1,1714,680,0,0
497,344,0,0,0,0,0,0,0,0,0,-1,1721,680,0,0
504,344,0,0,0,0,0,0,0,0,0,-1,1728,680,0,0
511,344,15.4819,0.452637,0,0,0,0,0,0,0,-1,1735,680,15.4819,-0.452656
518,344,15.4491,0.723633,0,0,0,0,0,0,0,-1,1742,680,15.4491,-0.723644
525,344,10.8253,3.3877,0,0,0,0,0,0,0,-1,1749,680,10.8253,-3.38772
532,344,11.3533,6.41516,0,0,0,0,0,0,0,-1,1756,680,11.3533,-6.41519
539,344,11.2638,7.75342,0,0,0,0,0,0,0,-1,1763,680,11.2638,-7.75344
546,344,13.3718,1.66003,0,0,0,0,0,0,0,-1,1770,680,13.3718,-1.66001
553,344,12.5339,2.20245,0,0,0,0,0,0,0,-1,1777,680,12.5339,-2.20245
560,344,11.9363,2.14185,0,0,0,0,0,0,0,-1,1784,680,11.9362,-2.14182
567,344,11.397,0.925842,0,0,0,0,0,0,0,-1,1791,680,11.397,-0.92583
574,344,10.0004,0.504639,0,0,0,0,0,0,0,-1,1798,680,10.0004,-0.504645
581,344,10.7603,-0.429138,0,0,0,0,0,0,0,-1,1805,680,10.7603,0.42915
588,344,10.0399,-0.881531,0,0,0,0,0,0,0,-1,1812,680,10.0399,0.881557
595,344,10.0414,-0.581177,0.00407454,0.000648077,-0.00330387,0.00608296,-0.00136035,-0.546209,0.00457665,0.0372333,1819,680,10.0414,0.581197
602,344,10.0752,-0.34729,0.003523,-0.00104888,-0.00193363,0.00423112,-0.001757,-0.351049,0.00355425,0.0271269,1826,680,10.0752,0.347306
609,344,9.99719,-0.174133,0.00206309,-0.00201648,-0.000416354,0.00210515,-0.00205854,-0.100675,0.00240396,0.014539,1833,680,9.9972,0.174107
616,344,9.96875,0.0651245,0.000726357,-0.00111165,-0.000147691,0.000738149,-0.00112344,-0.0796725,0.00108244,0.020406,1840,680,9.96878,-0.0651261
623,344,9.93066,0.292175,8.83139e-05,-0.000861269,-0.000591697,0.000372161,-0.00114512,-0.44729,0.000913105,0.0181393,1847,680,9.93071,-0.292204
630,344,9.92627,0.466003,3.78119e-05,-0.000795637,-0.000970388,0.000677171,-0.001435,-0.582585,0.00124535,0.0228674,1854,680,9.92625,-0.46599
637,344,9.95837,0.666199,0.000501609,-0.000198827,-0.000929415,0.0011446,-0.000841818,-0.605217,0.00115129,0.0225141,1861,680,9.95842,-0.666173
644,344,9.96094,0.915344,0.000801451,7.61551e-05,-0.00131137,0.00179939,-0.000921788,-0.650499,0.00159808,0.0162461,1868,680,9.96092,-0.915347
651,344,9.9679,1.15491,0.00147,0.000383469,-0.001657,0.00267052,-0.000817053,-0.62699,0.0021062,0.01178,1875,680,9.96787,-1.1549
658,344,9.94836,1.42645,0.0026578,0.000824546,-0.00195288,0.00389847,-0.000416127,-0.565975,0.00274821,0.0176583,1882,680,9.94838,-1.42643
665,344,9.90967,1.62732,0.00466921,0.00143223,-0.00207444,0.00568184,0.000419597,-0.454122,0.00365606,0.0252235,1889,680,9.90964,-1.62733
672,344,9.93799,1.77216,0.0078191,0.00242772,-0.00193678,0.00844272,0.00180409,-0.311508,0.00513389,0.0199597,1896,680,9.93799,-1.77216
679,344,10.152,1.84644,0.0124916,0.00389658,-0.00138939,0.0127106,0.00367757,-0.156348,0.00755246,0.0382371,1903,680,10.152,-1.84642
686,344,10.5887,2.69916,0,0,0,0,0,0,0,-1,1910,680,10.5887,-2.69914
693,344,12.4362,-1.42346,0,0,0,0,0,0,0,-1,1917,680,12.4361,1.42348
700,344,14.0134,-1.63721,0,0,0,0,0,0,0,-1,1924,680,14.0135,1.63722
707,344,14.8154,-1.64838,0,0,0,0,0,0,0,-1,1931,680,14.8155,1.64837
714,344,0,0,0,0,0,0,0,0,0,-1,1938,680,0,0
721,344,0,0,0,0,0,0,0,0,0,-1,1945,680,0,0
728,344,0,0,0,0,0,0,0,0,0,-1,1952,680,0,0
735,344,0,0,0,0,0,0,0,0,0,-1,1959,680,0,0
742,344,0,0,0,0,0,0,0,0,0,-1,1966,680,0,0
749,344,0,0,0,0,0,0,0,0,0,-1,1973,680,0,0
756,344,0,0,0,0,0,0,0,0,0,-1,1980,680,0,0
763,344,0,0,0,0,0,0,0,0,0,-1,1987,680,0,0
770,344,0,0,0,0,0,0,0,0,0,-1,1994,680,0,0
777,344,0,0,0,0,0,0,0,0,0,-1,2001,680,0,0
784,344,0,0,0,0,0,0,0,0,0,-1,2008,680,0,0
791,344,0,0,0,0,0,0,0,0,0,-1,2015,680,0,0
798,344,0,0,0,0,0,0,0,0,0,-1,2022,680,0,0
805,344,0,0,0,0,0,0,0,0,0,-1,2029,680,0,0
812,344,0,0,0,0,0,0,0,0,0,-1,2036,680,0,0
-700,337,0,0,0,0,0,0,0,0,0,-1,524,687,0,0
-693,337,0,0,0,0,0,0,0,0,0,-1,531,687,0,0
-686,337,0,0,0,0,0,0,0,0,0,-1,538,687,0,0
-679,337,0,0,0,0,0,0,0,0,0,-1,545,687,0,0
-672,337,0,0,0,0,0,0,0,0,0,-1,552,687,0,0
-665,337,0,0,0,0,0,0,0,0,0,-1,559,687,0,0
-658,337,0,0,0,0,0,0,0,0,0,-1,566,687,0,0
-651,337,0,0,0,0,0,0,0,0,0,-1,573,687,0,0
-644,337,0,0,0,0,0,0,0,0,0,-1,580,687,0,0
-637,337,0,0,0,0,0,0,0,0,0,-1,587,687,0,0
-630,337,0,0,0,0,0,0,0,0,0,-1,594,687,0,0
-623,337,0,0,0,0,0,0,0,0,0,-1,601,687,0,0
-616,337,0,0,0,0,0,0,0,0,0,-1,608,687,0,0
-609,337,0,0,0,0,0,0,0,0,0,-1,615,687,0,0
-602,337,0,0,0,0,0,0,0,0,0,-1,622,687,0,0
-595,337,0,0,0,0,0,0,0,0,0,-1,629,687,0,0
-588,337,-9.06604,-0.400452,0,0,0,0,0,0,0,-1,636,687,-9.06606,0.400475
-581,337,-4.935,1.62006,0,0,0,0,0,0,0,-1,643,687,-4.93499,-1.62007
-574,337,-2.35016,0.820862,0,0,0,0,0,0,0,-1,650,687,-2.35018,-0.820889
-567,337,-3.08948,0.922913,-0.0245228,-0.0215811,-0.00898776,-0.0139447,-0.0321593,-0.866503,0.0186216,0.0489217,657,687,-3.08951,-0.922899
-560,337,-3.69519,0.796692,-0.0192935,-0.0173732,-0.00649064,-0.0117721,-0.0248946,-0.85883,0.01438,0.0486008,664,687,-3.69517,-0.796663
-553,337,-5.08685,0.440674,-0.0143251,-0.0133725,-0.00468998,-0.00913469,-0.0185629,-0.835999,0.0107177,0.0472857,671,687,-5.08686,-0.440654
-546,337,-5.04333,0.212891,-0.00993611,-0.0098368,-0.00341889,-0.0064672,-0.0133057,-0.792659,0.00768305,0.0401091,678,687,-5.04335,-0.212873
-539,337,-5.15289,-0.316223,-0.00631108,-0.00691034,-0.00252067,-0.0040723,-0.00914912,-0.726241,0.00529285,0.0236651,685,687,-5.15291,0.316221
-532,337,-5.18475,-0.493652,-0.00345603,-0.00460368,-0.00188378,-0.00206061,-0.00599909,-0.637557,0.00351969,0.0127086,692,687,-5.18477,0.493664
-525,337,-5.21564,-0.690552,-0.00143165,-0.00289658,-0.00142119,-0.00056527,-0.00376296,-0.547457,0.00234305,0.0138806,699,687,-5.21561,0.69053
-518,337,-5.24384,-0.90863,-0.000187697,-0.00174989,-0.00102461,0.000319594,-0.00225718,-0.459724,0.00162185,0.0214969,706,687,-5.24385,0.908605
-511,337,-5.27057,-1.10352,0.00154082,-0.00104381,-0.00035732,0.00158931,-0.0010923,-0.134879,0.00155706,0.0227386,713,687,-5.27058,1.10351
-504,337,-5.25568,-1.31537,0.00277005,-0.00110417,0.00018065,0.00277846,-0.00111257,0.0464943,0.0023141,0.0229189,720,687,-5.25569,1.31538
-497,337,-5.23462,-1.50269,0.00348924,-0.00166792,0.00054894,0.00354702,-0.0017257,0.104877,0.00310415,0.0157544,727,687,-5.23463,1.5027
-490,337,-5.25232,-1.69354,0.00395238,-0.00260914,0.00111634,0.0041371,-0.00279386,0.16399,0.00402657,0.0129858,734,687,-5.25232,1.69355
-483,337,-5.22784,-1.90674,0.00475573,-0.00365385,0.00191596,0.00517167,-0.00406979,0.213776,0.00534819,0.0130113,741,687,-5.22787,1.90672
-476,337,-5.21021,-2.11176,0.00587717,-0.00507041,0.0029803,0.00663592,-0.00582916,0.249293,0.00720174,0.0117636,748,687,-5.21019,2.11176
-469,337,-5.21356,-2.34924,0.00745011,-0.00663014,0.00411922,0.00856666,-0.00774669,0.264698,0.00942248,0.0172673,755,687,-5.21354,2.34926
-462,337,-5.18481,-2.47064,0.00926298,-0.00826448,0.00547265,0.0108314,-0.00983288,0.279107,0.0119352,0.0379699,762,687,-5.18479,2.47066
-455,337,-5.07788,-2.62738,0,0,0,0,0,0,0,-1,769,687,-5.07788,2.62736
-448,337,-5.30627,-2.07202,0,0,0,0,0,0,0,-1,776,687,-5.30628,2.07205
-441,337,-4.24762,-1.49597,0,0,0,0,0,0,0,-1,783,687,-4.24762,1.49598
-434,337,-6.86908,1.37531,0,0,0,0,0,0,0,-1,790,687,-6.86908,-1.3753
-427,337,-9.92004,2.487,0,0,0,0,0,0,0,-1,797,687,-9.92002,-2.48701
-420,337,-2.95996,-1.76697,0,0,0,0,0,0,0,-1,804,687,-2.95998,1.76696
-413,337,-1.29169,-1.99487,0,0,0,0,0,0,0,-1,811,687,-1.29171,1.9949
-406,337,-1.02356,-1.89563,0,0,0,0,0,0,0,-1,818,687,-1.02357,1.89564
-399,337,-0.472839,-2.21338,0,0,0,0,0,0,0,-1,825,687,-0.472837,2.2134
-392,337,0,0,0,0,0,0,0,0,0,-1,832,687,0,0
-385,337,0,0,0,0,0,0,0,0,0,-1,839,687,0,0
-378,337,0,0,0,0,0,0,0,0,0,-1,846,687,0,0
-371,337,0,0,0,0,0,0,0,0,0,-1,853,687,0,0
-364,337,0,0,0,0,0,0,0,0,0,-1,860,687,0,0
-357,337,0,0,0,0,0,0,0,0,0,-1,867,687,0,0
-350,337,0,0,0,0,0,0,0,0,0,-1,874,687,0,0
-343,337,0,0,0,0,0,0,0,0,0,-1,881,687,0,0
-336,337,0,0,0,0,0,0,0,0,0,-1,888,687,0,0
-329,337,0,0,0,0,0,0,0,0,0,-1,895,687,0,0
-322,337,0,0,0,0,0,0,0,0,0,-1,902,687,0,0
-315,337,0,0,0,0,0,0,0,0,0,-1,909,687,0,0
-308,337,0,0,0,0,0,0,0,0,0,-1,916,687,0,0
-301,337,0,0,0,0,0,0,0,0,0,-1,923,687,0,0
-294,337,0,0,0,0,0,0,0,0,0,-1,930,687,0,0
-287,337,0,0,0,0,0,0,0,0,0,-1,937,687,0,0
-280,337,0,0,0,0,0,0,0,0,0,-1,944,687,0,0
-273,337,0,0,0,0,0,0,0,0,0,-1,951,687,0,0
-266,337,0,0,0,0,0,0,0,0,0,-1,958,687,0,0
-259,337,0,0,0,0,0,0,0,0,0,-1,965,687,0,0
-252,337,0,0,0,0,0,0,0,0,0,-1,972,687,0,0
-245,337,0,0,0,0,0,0,0,0,0,-1,979,687,0,0
-238,337,0,0,0,0,0,0,0,0,0,-1,986,687,0,0
-231,337,0,0,0,0,0,0,0,0,0,-1,993,687,0,0
-224,337,0,0,0,0,0,0,0,0,0,-1,1000,687,0,0
-217,337,0,0,0,0,0,0,0,0,0,-1,1007,687,0,0
-210,337,0,0,0,0,0,0,0,0,0,-1,1014,687,0,0
-203,337,0,0,0,0,0,0,0,0,0,-1,1021,687,0,0
-196,337,0,0,0,0,0,0,0,0,0,-1,1028,687,0,0
-189,337,0,0,0,0,0,0,0,0,0,-1,1035,687,0,0
-182,337,0,0,0,0,0,0,0,0,0,-1,1042,687,0,0
-175,337,0,0,0,0,0,0,0,0,0,-1,1049,687,0,0
-168,337,0,0,0,0,0,0,0,0,0,-1,1056,687,0,0
-161,337,0,0,0,0,0,0,0,0,0,-1,1063,687,0,0
-154,337,0,0,0,0,0,0,0,0,0,-1,1070,687,0,0
-147,337,0,0,0,0,0,0,0,0,0,-1,1077,687,0,0
-140,337,0,0,0,0,0,0,0,0,0,-1,1084,687,0,0
-133,337,0,0,0,0,0,0,0,0,0,-1,1091,687,0,0
-126,337,0,0,0,0,0,0,0,0,0,-1,1098,687,0,0
-119,337,0,0,0,0,0,0,0,0,0,-1,1105,687,0,0
-112,337,0,0,0,0,0,0,0,0,0,-1,1112,687,0,0
-105,337,0,0,0,0,0,0,0,0,0,-1,1119,687,0,0
-98,337,0,0,0,0,0,0,0,0,0,-1,1126,687,0,0
-91,337,0,0,0,0,0,0,0,0,0,-1,1133,687,0,0
-84,337,0,0,0,0,0,0,0,0,0,-1,1140,687,0,0
-77,337,0,0,0,0,0,0,0,0,0,-1,1147,687,0,0
-70,337,0,0,0,0,0,0,0,0,0,-1,1154,687,0,0
-63,337,0,0,0,0,0,0,0,0,0,-1,1161,687,0,0
-56,337,0,0,0,0,0,0,0,0,0,-1,1168,687,0,0
-49,337,0,0,0,0,0,0,0,0,0,-1,1175,687,0,0
-42,337,0,0,0,0,0,0,0,0,0,-1,1182,687,0,0
-35,337,0,0,0,0,0,0,0,0,0,-1,1189,687,0,0
-28,337,0,0,0,0,0,0,0,0,0,-1,1196,687,0,0
-21,337,0,0,0,0,0,0,0,0,0,-1,1203,687,0,0
-14,337,0,0,0,0,0,0,0,0,0,-1,1210,687,0,0
-7,337,0,0,0,0,0,0,0,0,0,-1,1217,687,0,0
0,337,0,0,0,0,0,0,0,0,0,-1,1224,687,0,0
7,337,0,0,0,0,0,0,0,0,0,-1,1231,687,0,0
14,337,0,0,0,0,0,0,0,0,0,-1,1238,687,0,0
21,337,0,0,0,0,0,0,0,0,0,-1,1245,687,0,0
28,337,0,0,0,0,0,0,0,0,0,-1,1252,687,0,0
35,337,0,0,0,0,0,0,0,0,0,-1,1259,687,0,0
42,337,0,0,0,0,0,0,0,0,0,-1,1266,687,0,0
49,337,0,0,0,0,0,0,0,0,0,-1,1273,687,0,0
56,337,0,0,0,0,0,0,0,0,0,-1,1280,687,0,0
63,337,0,0,0,0,0,0,0,0,0,-1,1287,687,0,0
70,337,0,0,0,0,0,0,0,0,0,-1,1294,687,0,0
77,337,0,0,0,0,0,0,0,0,0,-1,1301,687,0,0
84,337,0,0,0,0,0,0,0,0,0,-1,1308,687,0,0
91,337,0,0,0,0,0,0,0,0,0,-1,1315,687,0,0
98,337,0,0,0,0,0,0,0,0,0,-1,1322,687,0,0
105,337,0,0,0,0,0,0,0,0,0,-1,1329,687,0,0
112,337,0,0,0,0,0,0,0,0,0,-1,1336,687,0,0
119,337,0,0,0,0,0,0,0,0,0,-1,1343,687,0,0
126,337,0,0,0,0,0,0,0,0,0,-1,1350,687,0,0
133,337,0,0,0,0,0,0,0,0,0,-1,1357,687,0,0
140,337,0,0,0,0,0,0,0,0,0,-1,1364,687,0,0
147,337,0,0,0,0,0,0,0,0,0,-1,1371,687,0,0
154,337,0,0,0,0,0,0,0,0,0,-1,1378,687,0,0
161,337,0,0,0,0,0,0,0,0,0,-1,1385,687,0,0
168,337,0,0,0,0,0,0,0,0,0,-1,1392,687,0,0
175,337,0,0,0,0,0,0,0,0,0,-1,1399,687,0,0
182,337,0,0,0,0,0,0,0,0,0,-1,1406,687,0,0
189,337,0,0,0,0,0,0,0,0,0,-1,1413,687,0,0
196,337,0,0,0,0,0,0,0,0,0,-1,1420,687,0,0
203,337,0,0,0,0,0,0,0,0,0,-1,1427,687,0,0
210,337,0,0,0,0,0,0,0,0,0,-1,1434,687,0,0
217,337,0,0,0,0,0,0,0,0,0,-1,1441,687,0,0
224,337,0,0,0,0,0,0,0,0,0,-1,1448,687,0,0
231,337,0,0,0,0,0,0,0,0,0,-1,1455,687,0,0
238,337,0,0,0,0,0,0,0,0,0,-1,1462,687,0,0
245,337,0,0,0,0,0,0,0,0,0,-1,1469,687,0,0
252,337,0,0,0,0,0,0,0,0,0,-1,1476,687,0,0
259,337,0,0,0,0,0,0,0,0,0,-1,1483,687,0,0
266,337,0,0,0,0,0,0,0,0,0,-1,1490,687,0,0
273,337,0,0,0,0,0,0,0,0,0,-1,1497,687,0,0
280,337,0,0,0,0,0,0,0,0,0,-1,1504,687,0,0
287,337,0,0,0,0,0,0,0,0,0,-1,1511,687,0,0
294,337,0,0,0,0,0,0,0,0,0,-1,1518,687,0,0
301,337,0,0,0,0,0,0,0,0,0,-1,1525,687,0,0
308,337,0,0,0,0,0,0,0,0,0,-1,1532,687,0,0
315,337,0,0,0,0,0,0,0,0,0,-1,1539,687,0,0
322,337,0,0,0,0,0,0,0,0,0,-1,1546,687,0,0
329,337,0,0,0,0,0,0,0,0,0,-1,1553,687,0,0
336,337,0,0,0,0,0,0,0,0,0,-1,1560,687,0,0
343,337,0,0,0,0,0,0,0,0,0,-1,1567,687,0,0
350,337,0,0,0,0,0,0,0,0,0,-1,1574,687,0,0
357,337,0,0,0,0,0,0,0,0,0,-1,1581,687,0,0
364,337,0,0,0,0,0,0,0,0,0,-1,1588,687,0,0
371,337,0,0,0,0,0,0,0,0,0,-1,1595,687,0,0
378,337,0,0,0,0,0,0,0,0,0,-1,1602,687,0,0
385,337,0,0,0,0,0,0,0,0,0,-1,1609,687,0,0
392,337,0,0,0,0,0,0,0,0,0,-1,1616,687,0,0
399,337,0,0,0,0,0,0,0,0,0,-1,1623,687,0,0
406,337,0,0,0,0,0,0,0,0,0,-1,1630,687,0,0
413,337,0,0,0,0,0,0,0,0,0,-1,1637,687,0,0
420,337,0,0,0,0,0,0,0,0,0,-1,1644,687,0,0
427,337,0,0,0,0,0,0,0,0,0,-1,1651,687,0,0
434,337,0,0,0,0,0,0,0,0,0,-1,1658,687,0,0
441,337,0,0,0,0,0,0,0,0,0,-1,1665,687,0,0
448,337,0,0,0,0,0,0,0,0,0,-1,1672,687,0,0
455,337,0,0,0,0,0,0,0,0,0,-1,1679,687,0,0
462,337,0,0,0,0,0,0,0,0,0,-1,1686,687,0,0
469,337,0,0,0,0,0,0,0,0,0,-1,1693,687,0,0
476,337,0,0,0,0,0,0,0,0,0,-1,1700,687,0,0
483,337,0,0,0,0,0,0,0,0,0,-1,1707,687,0,0
490,337,0,0,0,0,0,0,0,0,0,-1,1714,687,0,0
497,337,0,0,0,0,0,0,0,0,0,-1,1721,687,0,0
504,337,0,0,0,0,0,0,0,0,0,-1,1728,687,0,0
511,337,0,0,0,0,0,0,0,0,0,-1,1735,687,0,0
518,337,9.59888,2.56732,0,0,0,0,0,0,0,-1,1742,687,9.59894,-2.56731
525,337,13.1426,5.1731,0,0,0,0,0,0,0,-1,1749,687,13.1425,-5.17309
532,337,12.7551,5.6452,-0.0618567,0.16463,0.000615766,0.164631,-0.0618583,1.56808,0.135177,0.0460083,1756,687,12.7551,-5.64518
539,337,12.251,6.63104,-0.0447447,0.131115,-0.00382542,0.131198,-0.0448279,-1.54906,0.105628,0.0495241,1763,687,12.2509,-6.63105
546,337,11.8409,7.45319,0,0,0,0,0,0,0,-1,1770,687,11.8409,-7.4532
553,337,17.7928,0.383362,0,0,0,0,0,0,0,-1,1777,687,17.7929,-0.38339
560,337,12.347,2.23297,0,0,0,0,0,0,0,-1,1784,687,12.3471,-2.23299
567,337,11.9288,1.38776,0,0,0,0,0,0,0,-1,1791,687,11.9288,-1.38777
574,337,10.704,1.19476,0,0,0,0,0,0,0,-1,1798,687,10.704,-1.19478
581,337,8.50427,0.561768,0,0,0,0,0,0,0,-1,1805,687,8.5043,-0.561754
588,337,8.5885,-0.0536499,0,0,0,0,0,0,0,-1,1812,687,8.58844,0.0536788
595,337,9.96838,-0.782898,0,0,0,0,0,0,0,-1,1819,687,9.96833,0.782889
602,337,10.1842,-0.395874,0.00622815,-3.85643e-05,-0.00151333,0.00657446,-0.000384874,-0.224967,0.00451673,0.0364718,1826,687,10.1842,0.395866
609,337,10.1996,-0.138184,0.00396661,-0.00180745,0.000151642,0.00397059,-0.00181143,0.0262386,0.00341495,0.0196719,1833,687,10.1995,0.138183
616,337,10.1812,0.0669556,0.00174585,-0.000949614,0.000340949,0.00178831,-0.000992072,0.123891,0.00162705,0.0158524,1840,687,10.1812,-0.066982
623,337,10.1694,0.287476,0.000498044,-0.000891468,-0.000377496,0.000593977,-0.000987401,-0.248862,0.000922379,0.0143237,1847,687,10.1694,-0.287454
630,337,10.1619,0.478943,-4.43434e-05,-0.00105678,-0.00092912,0.000507512,-0.00160864,-0.535963,0.0012757,0.018002,1854,687,10.1618,-0.478945
637,337,10.1865,0.698853,0.000266897,-0.000526114,-0.000813891,0.000775728,-0.00103495,-0.558732,0.00104896,0.0167264,1861,687,10.1866,-0.698869
644,337,10.1926,0.930908,0.000492569,-0.000250559,-0.00108849,0.00127116,-0.00102915,-0.620921,0.00133054,0.0114715,1868,687,10.1926,-0.930912
651,337,10.1696,1.15936,0.00110177,9.99331e-05,-0.00129816,0.0019923,-0.000790597,-0.601265,0.00165589,0.0101551,1875,687,10.1696,-1.15937
658,337,10.1573,1.37903,0.00216935,0.000553647,-0.00149032,0.0030567,-0.000333698,-0.537033,0.00215765,0.0117036,1882,687,10.1573,-1.379
665,337,10.1796,1.57959,0.00389113,0.00115886,-0.00152374,0.00457148,0.000478507,-0.41994,0.00290133,0.0136481,1889,687,10.1796,-1.57959
672,337,10.1836,1.77539,0.00651915,0.00203371,-0.00134696,0.00689255,0.00166031,-0.270428,0.00415372,0.0161902,1896,687,10.1836,-1.77539
679,337,10.1984,1.92346,0.0102515,0.00316328,-0.000944881,0.0103753,0.00303949,-0.130272,0.00615901,0.0336662,1903,687,10.1984,-1.92348
686,337,10.5997,2.52643,0.0155528,0.00485787,3.16567e-05,0.0155529,0.00485778,0.00295994,0.00918786,0.0467187,1910,687,10.5997,-2.52645
693,337,10.9507,2.82916,0,0,0,0,0,0,0,-1,1917,687,10.9507,-2.82918
700,337,13.4678,-0.972046,0,0,0,0,0,0,0,-1,1924,687,13.4677,0.972062
707,337,14.9698,-0.898987,0,0,0,0,0,0,0,-1,1931,687,14.9698,0.898974
714,337,0,0,0,0,0,0,0,0,0,-1,1938,687,0,0
721,337,0,0,0,0,0,0,0,0,0,-1,1945,687,0,0
728,337,0,0,0,0,0,0,0,0,0,-1,1952,687,0,0
735,337,0,0,0,0,0,0,0,0,0,-1,1959,687,0,0
742,337,0,0,0,0,0,0,0,0,0,-1,1966,687,0,0
749,337,0,0,0,0,0,0,0,0,0,-1,1973,687,0,0
756,337,0,0,0,0,0,0,0,0,0,-1,1980,687,0,0
763,337,0,0,0,0,0,0,0,0,0,-1,1987,687,0,0
770,337,0,0,0,0,0,0,0,0,0,-1,1994,687,0,0
777,337,0,0,0,0,0,0,0,0,0,-1,2001,687,0,0
784,337,0,0,0,0,0,0,0,0,0,-1,2008,687,0,0
791,337,0,0,0,0,0,0,0,0,0,-1,2015,687,0,0
798,337,0,0,0,0,0,0,0,0,0,-1,2022,687,0,0
805,337,0,0,0,0,0,0,0,0,0,-1,2029,687,0,0
812,337,0,0,0,0,0,0,0,0,0,-1,2036,687,0,0
-700,330,0,0,0,0,0,0,0,0,0,-1,524,694,0,0
-693,330,0,0,0,0,0,0,0,0,0,-1,531,694,0,0
-686,330,0,0,0,0,0,0,0,0,0,-1,538,694,0,0
-679,330,0,0,0,0,0,0,0,0,0,-1,545,694,0,0
-672,330,0,0,0,0,0,0,0,0,0,-1,552,694,0,0
-665,330,0,0,0,0,0,0,0,0,0,-1,559,694,0,0
-658,330,0,0,0,0,0,0,0,0,0,-1,566,694,0,0
-651,330,0,0,0,0,0,0,0,0,0,-1,573,694,0,0
-644,330,0,0,0,0,0,0,0,0,0,-1,580,694,0,0
-637,330,0,0,0,0,0,0,0,0,0,-1,587,694,0,0
-630,330,0,0,0,0,0,0,0,0,0,-1,594,694,0,0
-623,330,0,0,0,0,0,0,0,0,0,-1,601,694,0,0
-616,330,0,0,0,0,0,0,0,0,0,-1,608,694,0,0
-609,330,0,0,0,0,0,0,0,0,0,-1,615,694,0,0
-602,330,0,0,0,0,0,0,0,0,0,-1,622,694,0,0
-595,330,-4.67883,1.65515,0,0,0,0,0,0,0,-1,629,694,-4.67881,-1.65515
-588,330,-4.70923,1.38007,0,0,0,0,0,0,0,-1,636,694,-4.70922,-1.38007
-581,330,-5.1795,0.640747,0,0,0,0,0,0,0,-1,643,694,-5.17952,-0.640773
-574,330,-6.62891,0.268494,0,0,0,0,0,0,0,-1,650,694,-6.6289,-0.268481
-567,330,-2.46576,2.31342,0,0,0,0,0,0,0,-1,657,694,-2.46577,-2.31344
-560,330,-5.56403,0.353516,-0.01518,-0.0156124,-0.00551306,-0.00987892,-0.0209135,-0.7658,0.0120806,0.0449964,664,694,-5.564,-0.353545
-553,330,-5.40308,0.137939,-0.0119226,-0.012243,-0.0039539,-0.00812565,-0.0160399,-0.765154,0.00926093,0.0400972,671,694,-5.40307,-0.13793
-546,330,-5.32422,-0.116272,-0.00875699,-0.00907506,-0.00271715,-0.00619423,-0.0116378,-0.756166,0.00672375,0.0251359,678,694,-5.32419,0.116298
-539,330,-5.37109,-0.309265,-0.00592461,-0.00645808,-0.00185955,-0.00431276,-0.00806993,-0.714164,0.00466286,0.0105376,685,694,-5.37108,0.309238
-532,330,-5.42047,-0.496338,-0.00353093,-0.00436194,-0.00126598,-0.00261401,-0.00527886,-0.626832,0.0030478,0.00927936,692,694,-5.42044,0.496331
-525,330,-5.42377,-0.719055,-0.00186699,-0.00282956,-0.000827964,-0.00139059,-0.00330596,-0.522126,0.00191669,0.0108414,699,694,-5.42375,0.719063
-518,330,-5.43585,-0.905762,-0.000654733,-0.0017302,-0.00049239,-0.000463355,-0.00192158,-0.370704,0.00115793,0.0141464,706,694,-5.43587,0.905778
-511,330,-5.47778,-1.10303,0.00105038,-0.00123491,0.000247228,0.00107682,-0.00126135,0.10654,0.00135134,0.0187941,713,694,-5.4778,1.10304
-504,330,-5.45746,-1.30127,0.00228799,-0.00156001,0.000957547,0.0025131,-0.00178512,0.230897,0.00249341,0.0176727,720,694,-5.45749,1.30129
-497,330,-5.43341,-1.49097,0.00315568,-0.00215988,0.00153147,0.00356534,-0.00256954,0.261375,0.00355749,0.0127651,727,694,-5.43344,1.49099
-490,330,-5.42456,-1.69812,0.00376364,-0.00325541,0.00246864,0.00454491,-0.00403669,0.306506,0.00495749,0.0122653,734,694,-5.42456,1.69815
-483,330,-5.42743,-1.9162,0.00462037,-0.00450387,0.00375778,0.00596874,-0.00585224,0.344511,0.00682495,0.012552,741,694,-5.42741,1.91622
-476,330,-5.42621,-2.11591,0.00579924,-0.00600521,0.00536599,0.00787386,-0.00807983,0.368923,0.00921112,0.0194534,748,694,-5.42624,2.11592
-469,330,-5.40344,-2.08765,0,0,0,0,0,0,0,-1,755,694,-5.40347,2.08763
-462,330,-5.23212,-1.94904,0.00923145,-0.00947774,0.00931924,0.0130813,-0.0133276,0.391752,0.0152474,0.0476175,762,694,-5.23209,1.94901
-455,330,-5.04254,-1.79303,0.0107834,-0.0111672,0.0118297,0.015945,-0.0163287,0.411423,0.0186337,0.0420136,769,694,-5.04252,1.79305
-448,330,-4.89886,-1.66156,0,0,0,0,0,0,0,-1,776,694,-4.89886,1.66157
-441,330,-5.30676,-2.34045,0,0,0,0,0,0,0,-1,783,694,-5.30679,2.34048
-434,330,-7.20428,1.00024,0,0,0,0,0,0,0,-1,790,694,-7.20431,-1.00027
-427,330,-7.67114,0.451782,0,0,0,0,0,0,0,-1,797,694,-7.67116,-0.451789
-420,330,-9.80774,2.9187,0,0,0,0,0,0,0,-1,804,694,-9.80774,-2.91868
-413,330,-10.4567,2.56183,0,0,0,0,0,0,0,-1,811,694,-10.4567,-2.56182
-406,330,-1.65375,-1.74371,0,0,0,0,0,0,0,-1,818,694,-1.65375,1.74371
-399,330,0,0,0,0,0,0,0,0,0,-1,825,694,0,0
-392,330,0,0,0,0,0,0,0,0,0,-1,832,694,0,0
-385,330,0,0,0,0,0,0,0,0,0,-1,839,694,0,0
-378,330,0,0,0,0,0,0,0,0,0,-1,846,694,0,0
-371,330,0,0,0,0,0,0,0,0,0,-1,853,694,0,0
-364,330,0,0,0,0,0,0,0,0,0,-1,860,694,0,0
-357,330,0,0,0,0,0,0,0,0,0,-1,867,694,0,0
-350,330,0,0,0,0,0,0,0,0,0,-1,874,694,0,0
-343,330,0,0,0,0,0,0,0,0,0,-1,881,694,0,0
-336,330,0,0,0,0,0,0,0,0,0,-1,888,694,0,0
-329,330,0,0,0,0,0,0,0,0,0,-1,895,694,0,0
-322,330,0,0,0,0,0,0,0,0,0,-1,902,694,0,0
-315,330,0,0,0,0,0,0,0,0,0,-1,909,694,0,0
-308,330,0,0,0,0,0,0,0,0,0,-1,916,694,0,0
-301,330,0,0,0,0,0,0,0,0,0,-1,923,694,0,0
-294,330,0,0,0,0,0,0,0,0,0,-1,930,694,0,0
-287,330,0,0,0,0,0,0,0,0,0,-1,937,694,0,0
-280,330,0,0,0,0,0,0,0,0,0,-1,944,694,0,0
-273,330,0,0,0,0,0,0,0,0,0,-1,951,694,0,0
-266,330,0,0,0,0,0,0,0,0,0,-1,958,694,0,0
-259,330,0,0,0,0,0,0,0,0,0,-1,965,694,0,0
-252,330,0,0,0,0,0,0,0,0,0,-1,972,694,0,0
-245,330,0,0,0,0,0,0,0,0,0,-1,979,694,0,0
-238,330,0,0,0,0,0,0,0,0,0,-1,986,694,0,0
-231,330,0,0,0,0,0,0,0,0,0,-1,993,694,0,0
-224,330,0,0,0,0,0,0,0,0,0,-1,1000,694,0,0
-217,330,0,0,0,0,0,0,0,0,0,-1,1007,694,0,0
-210,330,0,0,0,0,0,0,0,0,0,-1,1014,694,0,0
-203,330,0,0,0,0,0,0,0,0,0,-1,1021,694,0,0
-196,330,0,0,0,0,0,0,0,0,0,-1,1028,694,0,0
-189,330,0,0,0,0,0,0,0,0,0,-1,1035,694,0,0
-182,330,0,0,0,0,0,0,0,0,0,-1,1042,694,0,0
-175,330,0,0,0,0,0,0,0,0,0,-1,1049,694,0,0
-168,330,0,0,0,0,0,0,0,0,0,-1,1056,694,0,0
-161,330,0,0,0,0,0,0,0,0,0,-1,1063,694,0,0
-154,330,0,0,0,0,0,0,0,0,0,-1,1070,694,0,0
-147,330,0,0,0,0,0,0,0,0,0,-1,1077,694,0,0
-140,330,0,0,0,0,0,0,0,0,0,-1,1084,694,0,0
-133,330,0,0,0,0,0,0,0,0,0,-1,1091,694,0,0
-126,330,0,0,0,0,0,0,0,0,0,-1,1098,694,0,0
-119,330,0,0,0,0,0,0,0,0,0,-1,1105,694,0,0
-112,330,0,0,0,0,0,0,0,0,0,-1,1112,694,0,0
-105,330,0,0,0,0,0,0,0,0,0,-1,1119,694,0,0
-98,330,0,0,0,0,0,0,0,0,0,-1,1126,694,0,0
-91,330,0,0,0,0,0,0,0,0,0,-1,1133,694,0,0
-84,330,0,0,0,0,0,0,0,0,0,-1,1140,694,0,0
-77,330,0,0,0,0,0,0,0,0,0,-1,1147,694,0,0
-70,330,0,0,0,0,0,0,0,0,0,-1,1154,694,0,0
-63,330,0,0,0,0,0,0,0,0,0,-1,1161,694,0,0
-56,330,0,0,0,0,0,0,0,0,0,-1,1168,694,0,0
-49,330,0,0,0,0,0,0,0,0,0,-1,1175,694,0,0
-42,330,0,0,0,0,0,0,0,0,0,-1,1182,694,0,0
-35,330,0,0,0,0,0,0,0,0,0,-1,1189,694,0,0
-28,330,0,0,0,0,0,0,0,0,0,-1,1196,694,0,0
-21,330,0,0,0,0,0,0,0,0,0,-1,1203,694,0,0
-14,330,0,0,0,0,0,0,0,0,0,-1,1210,694,0,0
-7,330,0,0,0,0,0,0,0,0,0,-1,1217,694,0,0
0,330,0,0,0,0,0,0,0,0,0,-1,1224,694,0,0
7,330,0,0,0,0,0,0,0,0,0,-1,1231,694,0,0
14,330,0,0,0,0,0,0,0,0,0,-1,1238,694,0,0
21,330,0,0,0,0,0,0,0,0,0,-1,1245,694,0,0
28,330,0,0,0,0,0,0,0,0,0,-1,1252,694,0,0
35,330,0,0,0,0,0,0,0,0,0,-1,1259,694,0,0
42,330,0,0,0,0,0,0,0,0,0,-1,1266,694,0,0
49,330,0,0,0,0,0,0,0,0,0,-1,1273,694,0,0
56,330,0,0,0,0,0,0,0,0,0,-1,1280,694,0,0
63,330,0,0,0,0,0,0,0,0,0,-1,1287,694,0,0
70,330,0,0,0,0,0,0,0,0,0,-1,1294,694,0,0
77,330,0,0,0,0,0,0,0,0,0,-1,1301,694,0,0
84,330,0,0,0,0,0,0,0,0,0,-1,1308,694,0,0
91,330,0,0,0,0,0,0,0,0,0,-1,1315,694,0,0
98,330,0,0,0,0,0,0,0,0,0,-1,1322,694,0,0
105,330,0,0,0,0,0,0,0,0,0,-1,1329,694,0,0
112,330,0,0,0,0,0,0,0,0,0,-1,1336,694,0,0
119,330,0,0,0,0,0,0,0,0,0,-1,1343,694,0,0
126,330,0,0,0,0,0,0,0,0,0,-1,1350,694,0,0
133,330,0,0,0,0,0,0,0,0,0,-1,1357,694,0,0
140,330,0,0,0,0,0,0,0,0,0,-1,1364,694,0,0
147,330,0,0,0,0,0,0,0,0,0,-1,1371,694,0,0
154,330,0,0,0,0,0,0,0,0,0,-1,1378,694,0,0
161,330,0,0,0,0,0,0,0,0,0,-1,1385,694,0,0
168,330,0,0,0,0,0,0,0,0,0,-1,1392,694,0,0
175,330,0,0,0,0,0,0,0,0,0,-1,1399,694,0,0
182,330,0,0,0,0,0,0,0,0,0,-1,1406,694,0,0
189,330,0,0,0,0,0,0,0,0,0,-1,1413,694,0,0
196,330,0,0,0,0,0,0,0,0,0,-1,1420,694,0,0
203,330,0,0,0,0,0,0,0,0,0,-1,1427,694,0,0
210,330,0,0,0,0,0,0,0,0,0,-1,1434,694,0,0
217,330,0,0,0,0,0,0,0,0,0,-1,1441,694,0,0
224,330,0,0,0,0,0,0,0,0,0,-1,1448,694,0,0
231,330,0,0,0,0,0,0,0,0,0,-1,1455,694,0,0
238,330,0,0,0,0,0,0,0,0,0,-1,1462,694,0,0
245,330,0,0,0,0,0,0,0,0,0,-1,1469,694,0,0
252,330,0,0,0,0,0,0,0,0,0,-1,1476,694,0,0
259,330,0,0,0,0,0,0,0,0,0,-1,1483,694,0,0
266,330,0,0,0,0,0,0,0,0,0,-1,1490,694,0,0
273,330,0,0,0,0,0,0,0,0,0,-1,1497,694,0,0
280,330,0,0,0,0,0,0,0,0,0,-1,1504,694,0,0
287,330,0,0,0,0,0,0,0,0,0,-1,1511,694,0,0
294,330,0,0,0,0,0,0,0,0,0,-1,1518,694,0,0
301,330,0,0,0,0,0,0,0,0,0,-1,1525,694,0,0
308,330,0,0,0,0,0,0,0,0,0,-1,1532,694,0,0
315,330,0,0,0,0,0,0,0,0,0,-1,1539,694,0,0
322,330,0,0,0,0,0,0,0,0,0,-1,1546,694,0,0
329,330,0,0,0,0,0,0,0,0,0,-1,1553,694,0,0
336,330,0,0,0,0,0,0,0,0,0,-1,1560,694,0,0
343,330,0,0,0,0,0,0,0,0,0,-1,1567,694,0,0
350,330,0,0,0,0,0,0,0,0,0,-1,1574,694,0,0
357,330,0,0,0,0,0,0,0,0,0,-1,1581,694,0,0
364,330,0,0,0,0,0,0,0,0,0,-1,1588,694,0,0
371,330,0,0,0,0,0,0,0,0,0,-1,1595,694,0,0
378,330,0,0,0,0,0,0,0,0,0,-1,1602,694,0,0
385,330,0,0,0,0,0,0,0,0,0,-1,1609,694,0,0
392,330,0,0,0,0,0,0,0,0,0,-1,1616,694,0,0
399,330,0,0,0,0,0,0,0,0,0,-1,1623,694,0,0
406,330,0,0,0,0,0,0,0,0,0,-1,1630,694,0,0
413,330,0,0,0,0,0,0,0,0,0,-1,1637,694,0,0
420,330,0,0,0,0,0,0,0,0,0,-1,1644,694,0,0
427,330,0,0,0,0,0,0,0,0,0,-1,1651,694,0,0
434,330,0,0,0,0,0,0,0,0,0,-1,1658,694,0,0
441,330,0,0,0,0,0,0,0,0,0,-1,1665,694,0,0
448,330,0,0,0,0,0,0,0,0,0,-1,1672,694,0,0
455,330,0,0,0,0,0,0,0,0,0,-1,1679,694,0,0
462,330,0,0,0,0,0,0,0,0,0,-1,1686,694,0,0
469,330,0,0,0,0,0,0,0,0,0,-1,1693,694,0,0
476,330,0,0,0,0,0,0,0,0,0,-1,1700,694,0,0
483,330,0,0,0,0,0,0,0,0,0,-1,1707,694,0,0
490,330,0,0,0,0,0,0,0,0,0,-1,1714,694,0,0
497,330,0,0,0,0,0,0,0,0,0,-1,1721,694,0,0
504,330,0,0,0,0,0,0,0,0,0,-1,1728,694,0,0
511,330,0,0,0,0,0,0,0,0,0,-1,1735,694,0,0
518,330,0,0,0,0,0,0,0,0,0,-1,1742,694,0,0
525,330,14.1016,4.02991,0,0,0,0,0,0,0,-1,1749,694,14.1016,-4.02988
532,330,13.688,4.75732,-0.0580772,0.167083,-0.00340682,0.167135,-0.0581287,-1.55567,0.135036,0.0466044,1756,694,13.688,-4.7573
539,330,13.2433,5.58923,-0.0418566,0.134113,-0.00669279,0.134367,-0.0421108,-1.53284,0.106429,0.0465727,1763,694,13.2433,-5.58924
546,330,12.8429,6.3847,0,0,0,0,0,0,0,-1,1770,694,12.8429,-6.38473
553,330,14.5492,3.03198,0,0,0,0,0,0,0,-1,1777,694,14.5491,-3.03198
560,330,14.9954,2.69727,0,0,0,0,0,0,0,-1,1784,694,14.9953,-2.69727
567,330,15.6969,2.73596,0,0,0,0,0,0,0,-1,1791,694,15.6969,-2.73596
574,330,12.0454,2.1662,0,0,0,0,0,0,0,-1,1798,694,12.0455,-2.16618
581,330,12.7212,1.9704,0,0,0,0,0,0,0,-1,1805,694,12.7212,-1.97041
588,330,6.45667,-0.0630493,0,0,0,0,0,0,0,-1,1812,694,6.45661,0.0630695
595,330,8.23193,-0.258484,0,0,0,0,0,0,0,-1,1819,694,8.23188,0.258459
602,330,10.1428,-0.567627,0,0,0,0,0,0,0,-1,1826,694,10.1428,0.567616
609,330,10.3226,-0.203552,0.00633619,-0.00128234,0.000156932,0.00633942,-0.00128557,0.020587,0.00471361,0.0273228,1833,694,10.3227,0.203556
616,330,10.3904,0.052124,0.00350542,-0.000568956,0.00063817,0.00360303,-0.000666574,0.151789,0.00265228,0.0107069,1840,694,10.3904,-0.0521121
623,330,10.4093,0.27063,0.00164754,-0.000599998,-0.000166287,0.00165977,-0.000612234,-0.0734535,0.00135742,0.0130273,1847,694,10.4093,-0.27066
630,330,10.4286,0.502869,0.000470974,-0.00102226,-0.000850521,0.000856091,-0.00140738,-0.425181,0.00131967,0.0135593,1854,694,10.4286,-0.502899
637,330,10.4294,0.733276,0.000532801,-0.000617064,-0.000652156,0.000827267,-0.000911531,-0.424124,0.00100429,0.0127135,1861,694,10.4294,-0.733304
644,330,10.4121,0.946289,0.000642349,-0.000395575,-0.00083158,0.00110362,-0.000856841,-0.506434,0.00113486,0.00834789,1868,694,10.4121,-0.946259
651,330,10.3857,1.15747,0.00119087,-2.0657e-05,-0.000958443,0.00171893,-0.00054872,-0.50358,0.0013661,0.0111947,1875,694,10.3857,-1.15745
658,330,10.3619,1.36047,0.00210525,0.000408645,-0.00109942,0.0026456,-0.000131703,-0.456811,0.00180923,0.0117252,1882,694,10.3619,-1.36046
665,330,10.3751,1.573,0.00350781,0.000970182,-0.00110842,0.00392378,0.000554214,-0.359015,0.00245208,0.0103401,1889,694,10.3751,-1.57302
672,330,10.4152,1.81146,0.0055991,0.00168832,-0.000956796,0.00582064,0.00146679,-0.227531,0.00349562,0.0135234,1896,694,10.4152,-1.81148
679,330,10.3411,2.01758,0.00848402,0.00253018,-0.000665496,0.0085575,0.0024567,-0.109968,0.00508781,0.0253714,1903,694,10.341,-2.01759
686,330,10.4646,2.15192,0.0125668,0.00375191,4.63735e-05,0.012567,0.00375166,0.00526065,0.0074493,0.0415492,1910,694,10.4647,-2.15193
693,330,10.5752,2.17322,0,0,0,0,0,0,0,-1,1917,694,10.5752,-2.17322
700,330,12.2338,-0.0736084,0,0,0,0,0,0,0,-1,1924,694,12.2338,0.0736035
707,330,13.4666,-0.003479,0,0,0,0,0,0,0,-1,1931,694,13.4665,0.00345908
714,330,14.6604,0.0909424,0,0,0,0,0,0,0,-1,1938,694,14.6604,-0.0909463
721,330,0,0,0,0,0,0,0,0,0,-1,1945,694,0,0
728,330,0,0,0,0,0,0,0,0,0,-1,1952,694,0,0
735,330,0,0,0,0,0,0,0,0,0,-1,1959,694,0,0
742,330,0,0,0,0,0,0,0,0,0,-1,1966,694,0,0
749,330,0,0,0,0,0,0,0,0,0,-1,1973,694,0,0
756,330,0,0,0,0,0,0,0,0,0,-1,1980,694,0,0
763,330,0,0,0,0,0,0,0,0,0,-1,1987,694,0,0
770,330,0,0,0,0,0,0,0,0,0,-1,1994,694,0,0
777,330,0,0,0,0,0,0,0,0,0,-1,2001,694,0,0
784,330,0,0,0,0,0,0,0,0,0,-1,2008,694,0,0
791,330,0,0,0,0,0,0,0,0,0,-1,2015,694,0,0
798,330,0,0,0,0,0,0,0,0,0,-1,2022,694,0,0
805,330,0,0,0,0,0,0,0,0,0,-1,2029,694,0,0
812,330,0,0,0,0,0,0,0,0,0,-1,2036,694,0,0
-700,323,0,0,0,0,0,0,0,0,0,-1,524,701,0,0
-693,323,0,0,0,0,0,0,0,0,0,-1,531,701,0,0
-686,323,0,0,0,0,0,0,0,0,0,-1,538,701,0,0
-679,323,0,0,0,0,0,0,0,0,0,-1,545,701,0,0
-672,323,0,0,0,0,0,0,0,0,0,-1,552,701,0,0
-665,323,0,0,0,0,0,0,0,0,0,-1,559,701,0,0
-658,323,0,0,0,0,0,0,0,0,0,-1,566,701,0,0
-651,323,0,0,0,0,0,0,0,0,0,-1,573,701,0,0
-644,323,0,0,0,0,0,0,0,0,0,-1,580,701,0,0
-637,323,0,0,0,0,0,0,0,0,0,-1,587,701,0,0
-630,323,0,0,0,0,0,0,0,0,0,-1,594,701,0,0
-623,323,0,0,0,0,0,0,0,0,0,-1,601,701,0,0
-616,323,0,0,0,0,0,0,0,0,0,-1,608,701,0,0
-609,323,0,0,0,0,0,0,0,0,0,-1,615,701,0,0
-602,323,-4.15833,2.12256,0,0,0,0,0,0,0,-1,622,701,-4.1583,-2.12257
-595,323,-4.052,1.79156,0,0,0,0,0,0,0,-1,629,701,-4.05198,-1.79158
-588,323,-4.07019,1.94543,0,0,0,0,0,0,0,-1,636,701,-4.07019,-1.94542
-581,323,-6.63727,0.562805,0,0,0,0,0,0,0,-1,643,701,-6.63728,-0.56279
-574,323,-6.15887,0.426697,0,0,0,0,0,0,0,-1,650,701,-6.15887,-0.426727
-567,323,-5.92792,0.455811,0,0,0,0,0,0,0,-1,657,701,-5.92793,-0.455806
-560,323,-5.80017,0.199646,-0.0118339,-0.0122351,-0.00426523,-0.00776459,-0.0163045,-0.761898,0.00941694,0.0497579,664,701,-5.80019,-0.199621
-553,323,-5.64014,0.00860596,-0.00979991,-0.009815,-0.00317104,-0.0066364,-0.0129785,-0.784208,0.00749379,0.0307552,671,701,-5.64013,-0.00858501
-546,323,-5.60767,-0.142822,-0.00769384,-0.00739364,-0.00208825,-0.0054501,-0.00963738,-0.821276,0.00558004,0.0117626,678,701,-5.60769,0.142794
-539,323,-5.62219,-0.298462,-0.00562312,-0.00533049,-0.00126231,-0.00420604,-0.00674757,-0.843096,0.00393502,0.00951871,685,701,-5.62222,0.298478
-532,323,-5.6344,-0.496765,-0.0037854,-0.00366815,-0.000691073,-0.00303322,-0.00442033,-0.827711,0.0026104,0.00959339,692,701,-5.63441,0.496741
-525,323,-5.63654,-0.712402,-0.00250165,-0.00243625,-0.000250403,-0.00221642,-0.00272148,-0.850333,0.0016716,0.00843576,699,701,-5.63651,0.712394
-518,323,-5.62329,-0.881165,-0.00149415,-0.00150215,0.000184157,-0.00131395,-0.00168235,0.774533,0.00102116,0.00997675,706,701,-5.62332,0.881191
-511,323,-5.64838,-1.07343,-3.7443e-05,-0.00122647,0.00122476,0.000729476,-0.00199338,0.559445,0.00162752,0.0129559,713,701,-5.64837,1.07343
-504,323,-5.64661,-1.27545,0.000964372,-0.00174163,0.00232553,0.00230185,-0.00307911,0.521932,0.00311749,0.013648,720,701,-5.64661,1.27546
-497,323,-5.61877,-1.48254,0.00163418,-0.00236059,0.00343392,0.00360937,-0.00433578,0.521984,0.00459352,0.0114356,727,701,-5.61877,1.48252
-490,323,-5.62915,-1.6886,0.00196133,-0.00351837,0.00518191,0.00508313,-0.00664018,0.542213,0.00678833,0.0128184,734,701,-5.62915,1.68861
-483,323,-5.63684,-1.89252,0.0024182,-0.00483691,0.00750612,0.00712737,-0.00954608,0.560307,0.00966013,0.0162456,741,701,-5.63683,1.89254
-476,323,-5.52344,-2.11554,0.00313093,-0.00631215,0.0103599,0.00979446,-0.0129757,0.571584,0.013189,0.0317352,748,701,-5.52345,2.11553
-469,323,-5.58478,-1.69891,0,0,0,0,0,0,0,-1,755,701,-5.58475,1.69892
-462,323,-5.29431,-1.45697,0.00535017,-0.00956578,0.0173734,0.0167987,-0.0210143,0.582654,0.0218765,0.04783,762,701,-5.29431,1.45699
-455,323,-5.0658,-1.36639,0.00655614,-0.0110118,0.0213125,0.0208239,-0.0252796,0.58993,0.0266593,0.0432948,769,701,-5.06578,1.3664
-448,323,-4.91608,-1.59601,0.00811968,-0.0118099,0.0250433,0.0251079,-0.0287981,0.59605,0.031147,0.0482699,776,701,-4.91606,1.59604
-441,323,-4.66174,-2.02039,0,0,0,0,0,0,0,-1,783,701,-4.66175,2.02036
-434,323,-7.5022,0.849731,0,0,0,0,0,0,0,-1,790,701,-7.50219,-0.849752
-427,323,-7.61346,-0.0681763,0,0,0,0,0,0,0,-1,797,701,-7.61345,0.0681943
-420,323,-10.3256,2.65674,0,0,0,0,0,0,0,-1,804,701,-10.3256,-2.65675
-413,323,-10.202,3.21863,0,0,0,0,0,0,0,-1,811,701,-10.202,-3.21863
-406,323,0,0,0,0,0,0,0,0,0,-1,818,701,0,0
-399,323,0,0,0,0,0,0,0,0,0,-1,825,701,0,0
-392,323,0,0,0,0,0,0,0,0,0,-1,832,701,0,0
-385,323,0,0,0,0,0,0,0,0,0,-1,839,701,0,0
-378,323,0,0,0,0,0,0,0,0,0,-1,846,701,0,0
-371,323,0,0,0,0,0,0,0,0,0,-1,853,701,0,0
-364,323,0,0,0,0,0,0,0,0,0,-1,860,701,0,0
-357,323,0,0,0,0,0,0,0,0,0,-1,867,701,0,0
-350,323,0,0,0,0,0,0,0,0,0,-1,874,701,0,0
-343,323,0,0,0,0,0,0,0,0,0,-1,881,701,0,0
-336,323,0,0,0,0,0,0,0,0,0,-1,888,701,0,0
-329,323,0,0,0,0,0,0,0,0,0,-1,895,701,0,0
-322,323,0,0,0,0,0,0,0,0,0,-1,902,701,0,0
-315,323,0,0,0,0,0,0,0,0,0,-1,909,701,0,0
-308,323,0,0,0,0,0,0,0,0,0,-1,916,701,0,0
-301,323,0,0,0,0,0,0,0,0,0,-1,923,701,0,0
-294,323,0,0,0,0,0,0,0,0,0,-1,930,701,0,0
-287,323,0,0,0,0,0,0,0,0,0,-1,937,701,0,0
-280,323,0,0,0,0,0,0,0,0,0,-1,944,701,0,0
-273,323,0,0,0,0,0,0,0,0,0,-1,951,701,0,0
-266,323,0,0,0,0,0,0,0,0,0,-1,958,701,0,0
-259,323,0,0,0,0,0,0,0,0,0,-1,965,701,0,0
-252,323,0,0,0,0,0,0,0,0,0,-1,972,701,0,0
-245,323,0,0,0,0,0,0,0,0,0,-1,979,701,0,0
-238,323,0,0,0,0,0,0,0,0,0,-1,986,701,0,0
-231,323,0,0,0,0,0,0,0,0,0,-1,993,701,0,0
-224,323,0,0,0,0,0,0,0,0,0,-1,1000,701,0,0
-217,323,0,0,0,0,0,0,0,0,0,-1,1007,701,0,0
-210,323,0,0,0,0,0,0,0,0,0,-1,1014,701,0,0
-203,323,0,0,0,0,0,0,0,0,0,-1,1021,701,0,0
-196,323,0,0,0,0,0,0,0,0,0,-1,1028,701,0,0
-189,323,0,0,0,0,0,0,0,0,0,-1,1035,701,0,0
-182,323,0,0,0,0,0,0,0,0,0,-1,1042,701,0,0
-175,323,0,0,0,0,0,0,0,0,0,-1,1049,701,0,0
-168,323,0,0,0,0,0,0,0,0,0,-1,1056,701,0,0
-161,323,0,0,0,0,0,0,0,0,0,-1,1063,701,0,0
-154,323,0,0,0,0,0,0,0,0,0,-1,1070,701,0,0
-147,323,0,0,0,0,0,0,0,0,0,-1,1077,701,0,0
-140,323,0,0,0,0,0,0,0,0,0,-1,1084,701,0,0
-133,323,0,0,0,0,0,0,0,0,0,-1,1091,701,0,0
-126,323,0,0,0,0,0,0,0,0,0,-1,1098,701,0,0
-119,323,0,0,0,0,0,0,0,0,0,-1,1105,701,0,0
-112,323,0,0,0,0,0,0,0,0,0,-1,1112,701,0,0
-105,323,0,0,0,0,0,0,0,0,0,-1,1119,701,0,0
-98,323,0,0,0,0,0,0,0,0,0,-1,1126,701,0,0
-91,323,0,0,0,0,0,0,0,0,0,-1,1133,701,0,0
-84,323,0,0,0,0,0,0,0,0,0,-1,1140,701,0,0
-77,323,0,0,0,0,0,0,0,0,0,-1,1147,701,0,0
-70,323,0,0,0,0,0,0,0,0,0,-1,1154,701,0,0
-63,323,0,0,0,0,0,0,0,0,0,-1,1161,701,0,0
-56,323,0,0,0,0,0,0,0,0,0,-1,1168,701,0,0
-49,323,0,0,0,0,0,0,0,0,0,-1,1175,701,0,0
-42,323,0,0,0,0,0,0,0,0,0,-1,1182,701,0,0
-35,323,0,0,0,0,0,0,0,0,0,-1,1189,701,0,0
-28,323,0,0,0,0,0,0,0,0,0,-1,1196,701,0,0
-21,323,0,0,0,0,0,0,0,0,0,-1,1203,701,0,0
-14,323,0,0,0,0,0,0,0,0,0,-1,1210,701,0,0
-7,323,0,0,0,0,0,0,0,0,0,-1,1217,701,0,0
0,323,0,0,0,0,0,0,0,0,0,-1,1224,701,0,0
7,323,0,0,0,0,0,0,0,0,0,-1,1231,701,0,0
14,323,0,0,0,0,0,0,0,0,0,-1,1238,701,0,0
21,323,0,0,0,0,0,0,0,0,0,-1,1245,701,0,0
28,323,0,0,0,0,0,0,0,0,0,-1,1252,701,0,0
35,323,0,0,0,0,0,0,0,0,0,-1,1259,701,0,0
42,323,0,0,0,0,0,0,0,0,0,-1,1266,701,0,0
49,323,0,0,0,0,0,0,0,0,0,-1,1273,701,0,0
56,323,0,0,0,0,0,0,0,0,0,-1,1280,701,0,0
63,323,0,0,0,0,0,0,0,0,0,-1,1287,701,0,0
70,323,0,0,0,0,0,0,0,0,0,-1,1294,701,0,0
77,323,0,0,0,0,0,0,0,0,0,-1,1301,701,0,0
84,323,0,0,0,0,0,0,0,0,0,-1,1308,701,0,0
91,323,0,0,0,0,0,0,0,0,0,-1,1315,701,0,0
98,323,0,0,0,0,0,0,0,0,0,-1,1322,701,0,0
105,323,0,0,0,0,0,0,0,0,0,-1,1329,701,0,0
112,323,0,0,0,0,0,0,0,0,0,-1,1336,701,0,0
119,323,0,0,0,0,0,0,0,0,0,-1,1343,701,0,0
126,323,0,0,0,0,0,0,0,0,0,-1,1350,701,0,0
133,323,0,0,0,0,0,0,0,0,0,-1,1357,701,0,0
140,323,0,0,0,0,0,0,0,0,0,-1,1364,701,0,0
147,323,0,0,0,0,0,0,0,0,0,-1,1371,701,0,0
154,323,0,0,0,0,0,0,0,0,0,-1,1378,701,0,0
161,323,0,0,0,0,0,0,0,0,0,-1,1385,701,0,0
168,323,0,0,0,0,0,0,0,0,0,-1,1392,701,0,0
175,323,0,0,0,0,0,0,0,0,0,-1,1399,701,0,0
182,323,0,0,0,0,0,0,0,0,0,-1,1406,701,0,0
189,323,0,0,0,0,0,0,0,0,0,-1,1413,701,0,0
196,323,0,0,0,0,0,0,0,0,0,-1,1420,701,0,0
203,323,0,0,0,0,0,0,0,0,0,-1,1427,701,0,0
210,323,0,0,0,0,0,0,0,0,0,-1,1434,701,0,0
217,323,0,0,0,0,0,0,0,0,0,-1,1441,701,0,0
224,323,0,0,0,0,0,0,0,0,0,-1,1448,701,0,0
231,323,0,0,0,0,0,0,0,0,0,-1,1455,701,0,0
238,323,0,0,0,0,0,0,0,0,0,-1,1462,701,0,0
245,323,0,0,0,0,0,0,0,0,0,-1,1469,701,0,0
252,323,0,0,0,0,0,0,0,0,0,-1,1476,701,0,0
259,323,0,0,0,0,0,0,0,0,0,-1,1483,701,0,0
266,323,0,0,0,0,0,0,0,0,0,-1,1490,701,0,0
273,323,0,0,0,0,0,0,0,0,0,-1,1497,701,0,0
280,323,0,0,0,0,0,0,0,0,0,-1,1504,701,0,0
287,323,0,0,0,0,0,0,0,0,0,-1,1511,701,0,0
294,323,0,0,0,0,0,0,0,0,0,-1,1518,701,0,0
301,323,0,0,0,0,0,0,0,0,0,-1,1525,701,0,0
308,323,0,0,0,0,0,0,0,0,0,-1,1532,701,0,0
315,323,0,0,0,0,0,0,0,0,0,-1,1539,701,0,0
322,323,0,0,0,0,0,0,0,0,0,-1,1546,701,0,0
329,323,0,0,0,0,0,0,0,0,0,-1,1553,701,0,0
336,323,0,0,0,0,0,0,0,0,0,-1,1560,701,0,0
343,323,0,0,0,0,0,0,0,0,0,-1,1567,701,0,0
350,323,0,0,0,0,0,0,0,0,0,-1,1574,701,0,0
357,323,0,0,0,0,0,0,0,0,0,-1,1581,701,0,0
364,323,0,0,0,0,0,0,0,0,0,-1,1588,701,0,0
371,323,0,0,0,0,0,0,0,0,0,-1,1595,701,0,0
378,323,0,0,0,0,0,0,0,0,0,-1,1602,701,0,0
385,323,0,0,0,0,0,0,0,0,0,-1,1609,701,0,0
392,323,0,0,0,0,0,0,0,0,0,-1,1616,701,0,0
399,323,0,0,0,0,0,0,0,0,0,-1,1623,701,0,0
406,323,0,0,0,0,0,0,0,0,0,-1,1630,701,0,0
413,323,0,0,0,0,0,0,0,0,0,-1,1637,701,0,0
420,323,0,0,0,0,0,0,0,0,0,-1,1644,701,0,0
427,323,0,0,0,0,0,0,0,0,0,-1,1651,701,0,0
434,323,0,0,0,0,0,0,0,0,0,-1,1658,701,0,0
441,323,0,0,0,0,0,0,0,0,0,-1,1665,701,0,0
448,323,0,0,0,0,0,0,0,0,0,-1,1672,701,0,0
455,323,0,0,0,0,0,0,0,0,0,-1,1679,701,0,0
462,323,0,0,0,0,0,0,0,0,0,-1,1686,701,0,0
469,323,0,0,0,0,0,0,0,0,0,-1,1693,701,0,0
476,323,0,0,0,0,0,0,0,0,0,-1,1700,701,0,0
483,323,0,0,0,0,0,0,0,0,0,-1,1707,701,0,0
490,323,0,0,0,0,0,0,0,0,0,-1,1714,701,0,0
497,323,0,0,0,0,0,0,0,0,0,-1,1721,701,0,0
504,323,0,0,0,0,0,0,0,0,0,-1,1728,701,0,0
511,323,0,0,0,0,0,0,0,0,0,-1,1735,701,0,0
518,323,0,0,0,0,0,0,0,0,0,-1,1742,701,0,0
525,323,0,0,0,0,0,0,0,0,0,-1,1749,701,0,0
532,323,14.585,3.70465,-0.0544582,0.163451,-0.00962271,0.163876,-0.0548823,-1.52675,0.131422,0.0449724,1756,701,14.585,-3.70463
539,323,14.2086,4.578,-0.0369688,0.131236,-0.0106567,0.131909,-0.0376412,-1.50778,0.102809,0.0462137,1763,701,14.2086,-4.578
546,323,13.9825,5.3158,0,0,0,0,0,0,0,-1,1770,701,13.9825,-5.31578
553,323,13.8573,6.26532,0,0,0,0,0,0,0,-1,1777,701,13.8573,-6.26529
560,323,17.0847,1.88177,0,0,0,0,0,0,0,-1,1784,701,17.0847,-1.88176
567,323,15.3374,2.57843,0,0,0,0,0,0,0,-1,1791,701,15.3374,-2.57844
574,323,16.1412,2.82092,0,0,0,0,0,0,0,-1,1798,701,16.1412,-2.82094
581,323,12.8182,1.75861,0,0,0,0,0,0,0,-1,1805,701,12.8182,-1.75861
588,323,13.5166,1.58954,0,0,0,0,0,0,0,-1,1812,701,13.5166,-1.58954
595,323,6.67847,0.06604,0,0,0,0,0,0,0,-1,1819,701,6.67841,-0.0660418
602,323,10.1775,-0.129333,0,0,0,0,0,0,0,-1,1826,701,10.1775,0.129312
609,323,10.4689,-0.0578003,0.00841127,-0.000555208,-0.000175291,0.0084147,-0.000558633,-0.0195396,0.00580497,0.0447581,1833,701,10.4689,0.0577955
616,323,10.6178,0.0633545,0.00528634,-4.1424e-05,0.000561016,0.00534477,-9.98583e-05,0.103784,0.00359693,0.0134393,1840,701,10.6178,-0.0633556
623,323,10.6487,0.285156,0.00291711,-0.000167421,-0.000208074,0.00293108,-0.000181394,-0.0670525,0.00201724,0.0131744,1847,701,10.6487,-0.285128
630,323,10.649,0.525635,0.00105369,-0.00083401,-0.000947462,0.00144721,-0.00122752,-0.393653,0.00154599,0.0137208,1854,701,10.6491,-0.525612
637,323,10.6466,0.755676,0.000760236,-0.00059793,-0.000630651,0.00100791,-0.000845602,-0.374218,0.00107149,0.0103091,1861,701,10.6466,-0.755705
644,323,10.6425,0.946594,0.000681169,-0.000477037,-0.000692104,0.00100449,-0.000800357,-0.437029,0.00104425,0.00771081,1868,701,10.6425,-0.946567
651,323,10.6305,1.16351,0.00115356,-8.93946e-05,-0.000759975,0.00151382,-0.000449648,-0.442659,0.00118781,0.00934504,1875,701,10.6305,-1.16354
658,323,10.5808,1.38086,0.00191212,0.000306015,-0.000869332,0.00229255,-7.44155e-05,-0.412504,0.00155377,0.0128885,1882,701,10.5808,-1.38086
665,323,10.5756,1.58209,0.0030426,0.000816532,-0.000870741,0.00334273,0.000516401,-0.331932,0.00207785,0.0113611,1889,701,10.5756,-1.58207
672,323,10.6053,1.81305,0.00478273,0.00144432,-0.000725749,0.00493368,0.00129337,-0.205066,0.00295393,0.00963434,1896,701,10.6053,-1.81306
679,323,10.5818,2.07385,0.00725143,0.00219706,-0.000418202,0.0072858,0.00216269,-0.0819977,0.00432065,0.0189848,1903,701,10.5818,-2.07386
686,323,10.4979,2.16083,0.0107047,0.00324774,0.000205646,0.0107104,0.00324208,0.0275498,0.00634208,0.0423263,1910,701,10.4979,-2.16081
693,323,10.4435,2.25262,0,0,0,0,0,0,0,-1,1917,701,10.4435,-2.25262
700,323,10.7705,0.828613,0,0,0,0,0,0,0,-1,1924,701,10.7705,-0.828591
707,323,12.7253,0.564026,0,0,0,0,0,0,0,-1,1931,701,12.7254,-0.564037
714,323,13.9398,0.620789,0,0,0,0,0,0,0,-1,1938,701,13.9399,-0.620761
721,323,0,0,0,0,0,0,0,0,0,-1,1945,701,0,0
728,323,0,0,0,0,0,0,0,0,0,-1,1952,701,0,0
735,323,0,0,0,0,0,0,0,0,0,-1,1959,701,0,0
742,323,0,0,0,0,0,0,0,0,0,-1,1966,701,0,0
749,323,0,0,0,0,0,0,0,0,0,-1,1973,701,0,0
756,323,0,0,0,0,0,0,0,0,0,-1,1980,701,0,0
763,323,0,0,0,0,0,0,0,0,0,-1,1987,701,0,0
770,323,0,0,0,0,0,0,0,0,0,-1,1994,701,0,0
777,323,0,0,0,0,0,0,0,0,0,-1,2001,701,0,0
784,323,0,0,0,0,0,0,0,0,0,-1,2008,701,0,0
791,323,0,0,0,0,0,0,0,0,0,-1,2015,701,0,0
798,323,0,0,0,0,0,0,0,0,0,-1,2022,701,0,0
805,323,0,0,0,0,0,0,0,0,0,-1,2029,701,0,0
812,323,0,0,0,0,0,0,0,0,0,-1,2036,701,0,0
-700,316,0,0,0,0,0,0,0,0,0,-1,524,708,0,0
-693,316,0,0,0,0,0,0,0,0,0,-1,531,708,0,0
-686,316,0,0,0,0,0,0,0,0,0,-1,538,708,0,0
-679,316,0,0,0,0,0,0,0,0,0,-1,545,708,0,0
-672,316,0,0,0,0,0,0,0,0,0,-1,552,708,0,0
-665,316,0,0,0,0,0,0,0,0,0,-1,559,708,0,0
-658,316,0,0,0,0,0,0,0,0,0,-1,566,708,0,0
-651,316,0,0,0,0,0,0,0,0,0,-1,573,708,0,0
-644,316,0,0,0,0,0,0,0,0,0,-1,580,708,0,0
-637,316,0,0,0,0,0,0,0,0,0,-1,587,708,0,0
-630,316,0,0,0,0,0,0,0,0,0,-1,594,708,0,0
-623,316,0,0,0,0,0,0,0,0,0,-1,601,708,0,0
-616,316,0,0,0,0,0,0,0,0,0,-1,608,708,0,0
-609,316,0,0,0,0,0,0,0,0,0,-1,615,708,0,0
-602,316,-0.451782,-0.0494995,0,0,0,0,0,0,0,-1,622,708,-0.451768,0.0495022
-595,316,-3.3761,2.17188,0,0,0,0,0,0,0,-1,629,708,-3.37609,-2.17189
-588,316,-5.00177,2.60675,0,0,0,0,0,0,0,-1,636,708,-5.00175,-2.60676
-581,316,-3.94653,0.393433,0,0,0,0,0,0,0,-1,643,708,-3.94655,-0.39342
-574,316,-4.85834,1.0636,0,0,0,0,0,0,0,-1,650,708,-4.85831,-1.06361
-567,316,-5.17499,0.640137,-0.00695077,-0.00817714,-0.00150611,-0.0059378,-0.00919011,-0.592078,0.00538089,0.0485478,657,708,-5.17497,-0.640128
-560,316,-5.47998,0.25354,-0.00701628,-0.0078342,-0.00218637,-0.00520094,-0.00964953,-0.692942,0.0055768,0.0442457,664,708,-5.48001,-0.253558
-553,316,-5.71185,0.0427856,-0.00644831,-0.00655644,-0.00194807,-0.00455356,-0.00845119,-0.771525,0.00488419,0.029056,671,708,-5.71185,-0.0427885
-546,316,-5.83698,-0.104248,-0.00566353,-0.00516662,-0.00127436,-0.00411672,-0.00671343,-0.881674,0.00390898,0.0169819,678,708,-5.83698,0.104235
-539,316,-5.81537,-0.320007,-0.00458626,-0.00393603,-0.000624327,-0.00355724,-0.00496505,-1.02545,0.00295475,0.0115223,685,708,-5.81538,0.319991
-532,316,-5.83374,-0.497009,-0.00350335,-0.00288497,-9.77463e-05,-0.00286988,-0.00351844,-1.4177,0.00216211,0.00998784,692,708,-5.83372,0.497017
-525,316,-5.82477,-0.655884,-0.00283181,-0.00210489,0.000389596,-0.00193554,-0.00300116,1.16075,0.00175682,0.0095687,699,708,-5.82479,0.655862
-518,316,-5.81396,-0.857361,-0.00228385,-0.00144564,0.00105903,-0.000725804,-0.00300369,0.973815,0.00180971,0.00935007,706,708,-5.81396,0.857366
-511,316,-5.82874,-1.0636,-0.00137791,-0.00137007,0.00261249,0.0012385,-0.00398648,0.786149,0.00315265,0.00969024,713,708,-5.82873,1.06361
-504,316,-5.85034,-1.27563,-0.000901374,-0.00198945,0.0042871,0.00287607,-0.0057669,0.722285,0.00508221,0.0122483,720,708,-5.85033,1.27561
-497,316,-5.82153,-1.47662,-0.0007957,-0.00255954,0.00618365,0.0045686,-0.00792384,0.714565,0.00729871,0.0120178,727,708,-5.82154,1.47663
-490,316,-5.82867,-1.69611,-0.0011826,-0.00362294,0.00903057,0.00670986,-0.0115154,0.718247,0.0106436,0.0142738,734,708,-5.82865,1.69613
-483,316,-5.74371,-1.9588,-0.0016201,-0.00484962,0.0127059,0.00957322,-0.0160429,0.722193,0.0149459,0.0332793,741,708,-5.74371,1.9588
-476,316,-5.56604,-2.19501,0,0,0,0,0,0,0,-1,748,708,-5.56606,2.19504
-469,316,-6.24194,-1.42725,0,0,0,0,0,0,0,-1,755,708,-6.24192,1.42725
-462,316,-5.74237,-1.40039,-0.00218466,-0.00903323,0.0277702,0.0223716,-0.0335895,0.724054,0.0325248,0.0464792,762,708,-5.74238,1.40039
-455,316,-5.44745,-1.21899,-0.00172445,-0.0102383,0.0332306,0.0275208,-0.0394835,0.721694,0.0388899,0.0469464,769,708,-5.44746,1.21898
-448,316,-5.21997,-1.72546,-0.00017697,-0.0108443,0.0378366,0.0327,-0.0437213,0.715376,0.0442746,0.0463908,776,708,-5.22,1.72546
-441,316,-4.64679,-2.33038,0,0,0,0,0,0,0,-1,783,708,-4.64677,2.33039
-434,316,-7.45673,0.935486,0,0,0,0,0,0,0,-1,790,708,-7.45674,-0.935479
-427,316,-7.84717,0.0581055,0,0,0,0,0,0,0,-1,797,708,-7.84716,-0.0581049
-420,316,-8.02203,-0.534973,0,0,0,0,0,0,0,-1,804,708,-8.02205,0.534991
-413,316,0,0,0,0,0,0,0,0,0,-1,811,708,0,0
-406,316,0,0,0,0,0,0,0,0,0,-1,818,708,0,0
-399,316,0,0,0,0,0,0,0,0,0,-1,825,708,0,0
-392,316,0,0,0,0,0,0,0,0,0,-1,832,708,0,0
-385,316,0,0,0,0,0,0,0,0,0,-1,839,708,0,0
-378,316,0,0,0,0,0,0,0,0,0,-1,846,708,0,0
-371,316,0,0,0,0,0,0,0,0,0,-1,853,708,0,0
-364,316,0,0,0,0,0,0,0,0,0,-1,860,708,0,0
-357,316,0,0,0,0,0,0,0,0,0,-1,867,708,0,0
-350,316,0,0,0,0,0,0,0,0,0,-1,874,708,0,0
-343,316,0,0,0,0,0,0,0,0,0,-1,881,708,0,0
-336,316,0,0,0,0,0,0,0,0,0,-1,888,708,0,0
-329,316,0,0,0,0,0,0,0,0,0,-1,895,708,0,0
-322,316,0,0,0,0,0,0,0,0,0,-1,902,708,0,0
-315,316,0,0,0,0,0,0,0,0,0,-1,909,708,0,0
-308,316,0,0,0,0,0,0,0,0,0,-1,916,708,0,0
-301,316,0,0,0,0,0,0,0,0,0,-1,923,708,0,0
-294,316,0,0,0,0,0,0,0,0,0,-1,930,708,0,0
-287,316,0,0,0,0,0,0,0,0,0,-1,937,708,0,0
-280,316,0,0,0,0,0,0,0,0,0,-1,944,708,0,0
-273,316,0,0,0,0,0,0,0,0,0,-1,951,708,0,0
-266,316,0,0,0,0,0,0,0,0,0,-1,958,708,0,0
-259,316,0,0,0,0,0,0,0,0,0,-1,965,708,0,0
-252,316,0,0,0,0,0,0,0,0,0,-1,972,708,0,0
-245,316,0,0,0,0,0,0,0,0,0,-1,979,708,0,0
-238,316,0,0,0,0,0,0,0,0,0,-1,986,708,0,0
-231,316,0,0,0,0,0,0,0,0,0,-1,993,708,0,0
-224,316,0,0,0,0,0,0,0,0,0,-1,1000,708,0,0
-217,316,0,0,0,0,0,0,0,0,0,-1,1007,708,0,0
-210,316,0,0,0,0,0,0,0,0,0,-1,1014,708,0,0
-203,316,0,0,0,0,0,0,0,0,0,-1,1021,708,0,0
-196,316,0,0,0,0,0,0,0,0,0,-1,1028,708,0,0
-189,316,0,0,0,0,0,0,0,0,0,-1,1035,708,0,0
-182,316,0,0,0,0,0,0,0,0,0,-1,1042,708,0,0
-175,316,0,0,0,0,0,0,0,0,0,-1,1049,708,0,0
-168,316,0,0,0,0,0,0,0,0,0,-1,1056,708,0,0
-161,316,0,0,0,0,0,0,0,0,0,-1,1063,708,0,0
-154,316,0,0,0,0,0,0,0,0,0,-1,1070,708,0,0
-147,316,0,0,0,0,0,0,0,0,0,-1,1077,708,0,0
-140,316,0,0,0,0,0,0,0,0,0,-1,1084,708,0,0
-133,316,0,0,0,0,0,0,0,0,0,-1,1091,708,0,0
-126,316,0,0,0,0,0,0,0,0,0,-1,1098,708,0,0
-119,316,0,0,0,0,0,0,0,0,0,-1,1105,708,0,0
-112,316,0,0,0,0,0,0,0,0,0,-1,1112,708,0,0
-105,316,0,0,0,0,0,0,0,0,0,-1,1119,708,0,0
-98,316,0,0,0,0,0,0,0,0,0,-1,1126,708,0,0
-91,316,0,0,0,0,0,0,0,0,0,-1,1133,708,0,0
-84,316,0,0,0,0,0,0,0,0,0,-1,1140,708,0,0
-77,316,0,0,0,0,0,0,0,0,0,-1,1147,708,0,0
-70,316,0,0,0,0,0,0,0,0,0,-1,1154,708,0,0
-63,316,0,0,0,0,0,0,0,0,0,-1,1161,708,0,0
-56,316,0,0,0,0,0,0,0,0,0,-1,1168,708,0,0
-49,316,0,0,0,0,0,0,0,0,0,-1,1175,708,0,0
-42,316,0,0,0,0,0,0,0,0,0,-1,1182,708,0,0
-35,316,0,0,0,0,0,0,0,0,0,-1,1189,708,0,0
-28,316,0,0,0,0,0,0,0,0,0,-1,1196,708,0,0
-21,316,0,0,0,0,0,0,0,0,0,-1,1203,708,0,0
-14,316,0,0,0,0,0,0,0,0,0,-1,1210,708,0,0
-7,316,0,0,0,0,0,0,0,0,0,-1,1217,708,0,0
0,316,0,0,0,0,0,0,0,0,0,-1,1224,708,0,0
7,316,0,0,0,0,0,0,0,0,0,-1,1231,708,0,0
14,316,0,0,0,0,0,0,0,0,0,-1,1238,708,0,0
21,316,0,0,0,0,0,0,0,0,0,-1,1245,708,0,0
28,316,0,0,0,0,0,0,0,0,0,-1,1252,708,0,0
35,316,0,0,0,0,0,0,0,0,0,-1,1259,708,0,0
42,316,0,0,0,0,0,0,0,0,0,-1,1266,708,0,0
49,316,0,0,0,0,0,0,0,0,0,-1,1273,708,0,0
56,316,0,0,0,0,0,0,0,0,0,-1,1280,708,0,0
63,316,0,0,0,0,0,0,0,0,0,-1,1287,708,0,0
70,316,0,0,0,0,0,0,0,0,0,-1,1294,708,0,0
77,316,0,0,0,0,0,0,0,0,0,-1,1301,708,0,0
84,316,0,0,0,0,0,0,0,0,0,-1,1308,708,0,0
91,316,0,0,0,0,0,0,0,0,0,-1,1315,708,0,0
98,316,0,0,0,0,0,0,0,0,0,-1,1322,708,0,0
105,316,0,0,0,0,0,0,0,0,0,-1,1329,708,0,0
112,316,0,0,0,0,0,0,0,0,0,-1,1336,708,0,0
119,316,0,0,0,0,0,0,0,0,0,-1,1343,708,0,0
126,316,0,0,0,0,0,0,0,0,0,-1,1350,708,0,0
133,316,0,0,0,0,0,0,0,0,0,-1,1357,708,0,0
140,316,0,0,0,0,0,0,0,0,0,-1,1364,708,0,0
147,316,0,0,0,0,0,0,0,0,0,-1,1371,708,0,0
154,316,0,0,0,0,0,0,0,0,0,-1,1378,708,0,0
161,316,0,0,0,0,0,0,0,0,0,-1,1385,708,0,0
168,316,0,0,0,0,0,0,0,0,0,-1,1392,708,0,0
175,316,0,0,0,0,0,0,0,0,0,-1,1399,708,0,0
182,316,0,0,0,0,0,0,0,0,0,-1,1406,708,0,0
189,316,0,0,0,0,0,0,0,0,0,-1,1413,708,0,0
196,316,0,0,0,0,0,0,0,0,0,-1,1420,708,0,0
203,316,0,0,0,0,0,0,0,0,0,-1,1427,708,0,0
210,316,0,0,0,0,0,0,0,0,0,-1,1434,708,0,0
217,316,0,0,0,0,0,0,0,0,0,-1,1441,708,0,0
224,316,0,0,0,0,0,0,0,0,0,-1,1448,708,0,0
231,316,0,0,0,0,0,0,0,0,0,-1,1455,708,0,0
238,316,0,0,0,0,0,0,0,0,0,-1,1462,708,0,0
245,316,0,0,0,0,0,0,0,0,0,-1,1469,708,0,0
252,316,0,0,0,0,0,0,0,0,0,-1,1476,708,0,0
259,316,0,0,0,0,0,0,0,0,0,-1,1483,708,0,0
266,316,0,0,0,0,0,0,0,0,0,-1,1490,708,0,0
273,316,0,0,0,0,0,0,0,0,0,-1,1497,708,0,0
280,316,0,0,0,0,0,0,0,0,0,-1,1504,708,0,0
287,316,0,0,0,0,0,0,0,0,0,-1,1511,708,0,0
294,316,0,0,0,0,0,0,0,0,0,-1,1518,708,0,0
301,316,0,0,0,0,0,0,0,0,0,-1,1525,708,0,0
308,316,0,0,0,0,0,0,0,0,0,-1,1532,708,0,0
315,316,0,0,0,0,0,0,0,0,0,-1,1539,708,0,0
322,316,0,0,0,0,0,0,0,0,0,-1,1546,708,0,0
329,316,0,0,0,0,0,0,0,0,0,-1,1553,708,0,0
336,316,0,0,0,0,0,0,0,0,0,-1,1560,708,0,0
343,316,0,0,0,0,0,0,0,0,0,-1,1567,708,0,0
350,316,0,0,0,0,0,0,0,0,0,-1,1574,708,0,0
357,316,0,0,0,0,0,0,0,0,0,-1,1581,708,0,0
364,316,0,0,0,0,0,0,0,0,0,-1,1588,708,0,0
371,316,0,0,0,0,0,0,0,0,0,-1,1595,708,0,0
378,316,0,0,0,0,0,0,0,0,0,-1,1602,708,0,0
385,316,0,0,0,0,0,0,0,0,0,-1,1609,708,0,0
392,316,0,0,0,0,0,0,0,0,0,-1,1616,708,0,0
399,316,0,0,0,0,0,0,0,0,0,-1,1623,708,0,0
406,316,0,0,0,0,0,0,0,0,0,-1,1630,708,0,0
413,316,0,0,0,0,0,0,0,0,0,-1,1637,708,0,0
420,316,0,0,0,0,0,0,0,0,0,-1,1644,708,0,0
427,316,0,0,0,0,0,0,0,0,0,-1,1651,708,0,0
434,316,0,0,0,0,0,0,0,0,0,-1,1658,708,0,0
441,316,0,0,0,0,0,0,0,0,0,-1,1665,708,0,0
448,316,0,0,0,0,0,0,0,0,0,-1,1672,708,0,0
455,316,0,0,0,0,0,0,0,0,0,-1,1679,708,0,0
462,316,0,0,0,0,0,0,0,0,0,-1,1686,708,0,0
469,316,0,0,0,0,0,0,0,0,0,-1,1693,708,0,0
476,316,0,0,0,0,0,0,0,0,0,-1,1700,708,0,0
483,316,0,0,0,0,0,0,0,0,0,-1,1707,708,0,0
490,316,0,0,0,0,0,0,0,0,0,-1,1714,708,0,0
497,316,0,0,0,0,0,0,0,0,0,-1,1721,708,0,0
504,316,0,0,0,0,0,0,0,0,0,-1,1728,708,0,0
511,316,0,0,0,0,0,0,0,0,0,-1,1735,708,0,0
518,316,0,0,0,0,0,0,0,0,0,-1,1742,708,0,0
525,316,0,0,0,0,0,0,0,0,0,-1,1749,708,0,0
532,316,15.7045,2.95337,0,0,0,0,0,0,0,-1,1756,708,15.7044,-2.95335
539,316,15.2457,3.69299,0,0,0,0,0,0,0,-1,1763,708,15.2457,-3.69297
546,316,14.8387,4.44543,0,0,0,0,0,0,0,-1,1770,708,14.8387,-4.44545
553,316,14.7609,4.89703,0,0,0,0,0,0,0,-1,1777,708,14.7609,-4.89703
560,316,16.9044,1.85028,0,0,0,0,0,0,0,-1,1784,708,16.9045,-1.85026
567,316,17.0917,2.57599,0,0,0,0,0,0,0,-1,1791,708,17.0916,-2.576
574,316,17.7281,3.55981,0,0,0,0,0,0,0,-1,1798,708,17.7282,-3.55983
581,316,13.3721,3.98071,0,0,0,0,0,0,0,-1,1805,708,13.3721,-3.9807
588,316,14.0342,4.33374,0,0,0,0,0,0,0,-1,1812,708,14.0342,-4.33372
595,316,12.5363,1.50702,0,0,0,0,0,0,0,-1,1819,708,12.5363,-1.50701
602,316,7.79919,0.0422363,0,0,0,0,0,0,0,-1,1826,708,7.79923,-0.0422066
609,316,10.6255,0.107117,0,0,0,0,0,0,0,-1,1833,708,10.6255,-0.107103
616,316,10.8398,0.088623,0.00884088,0.00162145,-0.00102251,0.00898291,0.00147942,-0.138018,0.00556145,0.0164272,1840,708,10.8399,-0.0886125
623,316,10.8593,0.30835,0.00604432,0.00125627,-0.00160183,0.00653078,0.000769802,-0.294841,0.00412129,0.0105798,1847,708,10.8592,-0.308377
630,316,10.8468,0.500854,0.00325118,0.000169846,-0.00214301,0.00434986,-0.000928834,-0.473741,0.00325401,0.0119036,1854,708,10.8469,-0.500847
637,316,10.8392,0.737915,0.0019881,-6.05542e-05,-0.00136516,0.00267049,-0.000742948,-0.46354,0.00207284,0.0112408,1861,708,10.8392,-0.737891
644,316,10.8456,0.960449,0.001206,-0.000291432,-0.00102428,0.00172603,-0.000811463,-0.469793,0.00149641,0.0115224,1868,708,10.8456,-0.960465
651,316,10.8513,1.17877,0.00129576,-7.66193e-05,-0.000851065,0.0017028,-0.000483667,-0.446122,0.00132616,0.012772,1875,708,10.8513,-1.17879
658,316,10.8246,1.39343,0.0016927,0.000154561,-0.000794561,0.00202943,-0.000182171,-0.40085,0.00141758,0.0217838,1882,708,10.8246,-1.39346
665,316,10.7865,1.6051,0.00254039,0.000577901,-0.000770007,0.00280644,0.000311848,-0.332679,0.00177616,0.0165165,1889,708,10.7865,-1.60508
672,316,10.8336,1.80139,0.00399039,0.00114961,-0.000664007,0.00413794,0.00100207,-0.218648,0.00249267,0.0120799,1896,708,10.8336,-1.8014
679,316,10.8418,2.07153,0.006089,0.00194259,-0.000404624,0.00612812,0.00190347,-0.0963726,0.00362168,0.0181635,1903,708,10.8418,-2.07156
686,316,10.7181,2.25439,0.00892426,0.00294324,4.59024e-05,0.00892462,0.00294289,0.00767407,0.00525125,0.0333492,1910,708,10.7181,-2.2544
693,316,10.5719,2.41644,0,0,0,0,0,0,0,-1,1917,708,10.5719,-2.41644
700,316,10.2693,1.54047,0,0,0,0,0,0,0,-1,1924,708,10.2693,-1.54045
707,316,11.7877,1.08746,0,0,0,0,0,0,0,-1,1931,708,11.7877,-1.08746
714,316,11.557,3.63324,0,0,0,0,0,0,0,-1,1938,708,11.557,-3.63323
721,316,11.964,1.98126,0,0,0,0,0,0,0,-1,1945,708,11.964,-1.98124
728,316,0,0,0,0,0,0,0,0,0,-1,1952,708,0,0
735,316,0,0,0,0,0,0,0,0,0,-1,1959,708,0,0
742,316,0,0,0,0,0,0,0,0,0,-1,1966,708,0,0
749,316,0,0,0,0,0,0,0,0,0,-1,1973,708,0,0
756,316,0,0,0,0,0,0,0,0,0,-1,1980,708,0,0
763,316,0,0,0,0,0,0,0,0,0,-1,1987,708,0,0
770,316,0,0,0,0,0,0,0,0,0,-1,1994,708,0,0
777,316,0,0,0,0,0,0,0,0,0,-1,2001,708,0,0
784,316,0,0,0,0,0,0,0,0,0,-1,2008,708,0,0
791,316,0,0,0,0,0,0,0,0,0,-1,2015,708,0,0
798,316,0,0,0,0,0,0,0,0,0,-1,2022,708,0,0
805,316,0,0,0,0,0,0,0,0,0,-1,2029,708,0,0
812,316,0,0,0,0,0,0,0,0,0,-1,2036,708,0,0
-700,309,0,0,0,0,0,0,0,0,0,-1,524,715,0,0
-693,309,0,0,0,0,0,0,0,0,0,-1,531,715,0,0
-686,309,0,0,0,0,0,0,0,0,0,-1,538,715,0,0
-679,309,0,0,0,0,0,0,0,0,0,-1,545,715,0,0
-672,309,0,0,0,0,0,0,0,0,0,-1,552,715,0,0
-665,309,0,0,0,0,0,0,0,0,0,-1,559,715,0,0
-658,309,0,0,0,0,0,0,0,0,0,-1,566,715,0,0
-651,309,0,0,0,0,0,0,0,0,0,-1,573,715,0,0
-644,309,0,0,0,0,0,0,0,0,0,-1,580,715,0,0
-637,309,0,0,0,0,0,0,0,0,0,-1,587,715,0,0
-630,309,0,0,0,0,0,0,0,0,0,-1,594,715,0,0
-623,309,0,0,0,0,0,0,0,0,0,-1,601,715,0,0
-616,309,0,0,0,0,0,0,0,0,0,-1,608,715,0,0
-609,309,-5.95392,-3.93689,0,0,0,0,0,0,0,-1,615,715,-5.95392,3.93686
-602,309,-4.99786,-3.31287,0,0,0,0,0,0,0,-1,622,715,-4.99786,3.31284
-595,309,-6.80847,2.4046,0,0,0,0,0,0,0,-1,629,715,-6.80845,-2.40458
-588,309,-6.08795,2.19324,0,0,0,0,0,0,0,-1,636,715,-6.08793,-2.19325
-581,309,-5.97552,1.3277,0,0,0,0,0,0,0,-1,643,715,-5.97552,-1.32769
-574,309,-5.19531,1.0141,0,0,0,0,0,0,0,-1,650,715,-5.19534,-1.0141
-567,309,-5.20197,0.584045,-0.00125521,-0.0049066,0.00157832,-0.000667549,-0.00549426,0.356427,0.00346184,0.0438814,657,715,-5.20195,-0.584045
-560,309,-5.53845,0.223572,-0.0024464,-0.00487165,-0.000379831,-0.0023883,-0.00492974,-0.151775,0.00284665,0.0437979,664,715,-5.53846,-0.223576
-553,309,-5.96027,0.0427856,-0.0029607,-0.00416483,-0.00101721,-0.00238073,-0.00474479,-0.518183,0.00273941,0.0280184,671,715,-5.96025,-0.0427821
-546,309,-6.02094,-0.0930786,-0.00325439,-0.00344889,-0.000791794,-0.0025539,-0.00414938,-0.724291,0.00241686,0.0159318,678,715,-6.02092,0.0930884
-539,309,-6.01007,-0.296692,-0.00311593,-0.00286238,-0.000321533,-0.00264353,-0.00333478,-0.973181,0.00203234,0.0144025,685,715,-6.01009,0.296706
-532,309,-6.02032,-0.491577,-0.00286388,-0.00236918,0.000190159,-0.00230453,-0.00292853,1.24309,0.00178117,0.0117072,692,715,-6.02035,0.491583
-525,309,-6.01141,-0.6745,-0.00299341,-0.00206172,0.000807299,-0.0015955,-0.00345963,1.04708,0.00199942,0.0144548,699,715,-6.01141,0.674507
-518,309,-6.00427,-0.876099,-0.00320812,-0.00171733,0.00182269,-0.00049351,-0.00443194,0.979498,0.00280463,0.0143755,706,715,-6.00426,0.876085
-511,309,-6.00122,-1.07288,-0.00309511,-0.00185584,0.003899,0.00147245,-0.00642341,0.8642,0.00484821,0.0107294,713,715,-6.00125,1.07285
-504,309,-6.03876,-1.27332,-0.00345064,-0.00256478,0.00617762,0.00318577,-0.00920119,0.821187,0.00742739,0.00853744,720,715,-6.03875,1.27333
-497,309,-6.0271,-1.4726,-0.00424074,-0.00313664,0.008868,0.00519648,-0.0125739,0.816484,0.0105503,0.0130021,727,715,-6.02711,1.47261
-490,309,-6.00092,-1.67169,-0.00565811,-0.00411509,0.0127421,0.00787884,-0.017652,0.815635,0.015096,0.0230337,734,715,-6.0009,1.67169
-483,309,-5.84894,-2.00427,0,0,0,0,0,0,0,-1,741,715,-5.84895,2.00429
-476,309,-5.29486,-1.2262,0,0,0,0,0,0,0,-1,748,715,-5.29484,1.22622
-469,309,-4.22717,-0.592896,0,0,0,0,0,0,0,-1,755,715,-4.2272,0.592905
-462,309,-6.40387,-1.17444,0,0,0,0,0,0,0,-1,762,715,-6.40388,1.17442
-455,309,-5.70184,-1.18042,0,0,0,0,0,0,0,-1,769,715,-5.70185,1.18044
-448,309,-5.56927,-2.21387,0,0,0,0,0,0,0,-1,776,715,-5.56928,2.21385
-441,309,-7.34198,1.73737,0,0,0,0,0,0,0,-1,783,715,-7.34199,-1.73737
-434,309,-7.58209,1.37335,0,0,0,0,0,0,0,-1,790,715,-7.58208,-1.37335
-427,309,-7.76324,1.12799,0,0,0,0,0,0,0,-1,797,715,-7.76323,-1.12801
-420,309,-11.6252,2.34113,0,0,0,0,0,0,0,-1,804,715,-11.6252,-2.34114
-413,309,0,0,0,0,0,0,0,0,0,-1,811,715,0,0
-406,309,0,0,0,0,0,0,0,0,0,-1,818,715,0,0
-399,309,0,0,0,0,0,0,0,0,0,-1,825,715,0,0
-392,309,0,0,0,0,0,0,0,0,0,-1,832,715,0,0
-385,309,0,0,0,0,0,0,0,0,0,-1,839,715,0,0
-378,309,0,0,0,0,0,0,0,0,0,-1,846,715,0,0
-371,309,0,0,0,0,0,0,0,0,0,-1,853,715,0,0
-364,309,0,0,0,0,0,0,0,0,0,-1,860,715,0,0
-357,309,0,0,0,0,0,0,0,0,0,-1,867,715,0,0
-350,309,0,0,0,0,0,0,0,0,0,-1,874,715,0,0
-343,309,0,0,0,0,0,0,0,0,0,-1,881,715,0,0
-336,309,0,0,0,0,0,0,0,0,0,-1,888,715,0,0
-329,309,0,0,0,0,0,0,0,0,0,-1,895,715,0,0
-322,309,0,0,0,0,0,0,0,0,0,-1,902,715,0,0
-315,309,0,0,0,0,0,0,0,0,0,-1,909,715,0,0
-308,309,0,0,0,0,0,0,0,0,0,-1,916,715,0,0
-301,309,0,0,0,0,0,0,0,0,0,-1,923,715,0,0
-294,309,0,0,0,0,0,0,0,0,0,-1,930,715,0,0
-287,309,0,0,0,0,0,0,0,0,0,-1,937,715,0,0
-280,309,0,0,0,0,0,0,0,0,0,-1,944,715,0,0
-273,309,0,0,0,0,0,0,0,0,0,-1,951,715,0,0
-266,309,0,0,0,0,0,0,0,0,0,-1,958,715,0,0
-259,309,0,0,0,0,0,0,0,0,0,-1,965,715,0,0
-252,309,0,0,0,0,0,0,0,0,0,-1,972,715,0,0
-245,309,0,0,0,0,0,0,0,0,0,-1,979,715,0,0
-238,309,0,0,0,0,0,0,0,0,0,-1,986,715,0,0
-231,309,0,0,0,0,0,0,0,0,0,-1,993,715,0,0
-224,309,0,0,0,0,0,0,0,0,0,-1,1000,715,0,0
-217,309,0,0,0,0,0,0,0,0,0,-1,1007,715,0,0
-210,309,0,0,0,0,0,0,0,0,0,-1,1014,715,0,0
-203,309,0,0,0,0,0,0,0,0,0,-1,1021,715,0,0
-196,309,0,0,0,0,0,0,0,0,0,-1,1028,715,0,0
-189,309,0,0,0,0,0,0,0,0,0,-1,1035,715,0,0
-182,309,0,0,0,0,0,0,0,0,0,-1,1042,715,0,0
-175,309,0,0,0,0,0,0,0,0,0,-1,1049,715,0,0
-168,309,0,0,0,0,0,0,0,0,0,-1,1056,715,0,0
-161,309,0,0,0,0,0,0,0,0,0,-1,1063,715,0,0
-154,309,0,0,0,0,0,0,0,0,0,-1,1070,715,0,0
-147,309,0,0,0,0,0,0,0,0,0,-1,1077,715,0,0
-140,309,0,0,0,0,0,0,0,0,0,-1,1084,715,0,0
-133,309,0,0,0,0,0,0,0,0,0,-1,1091,715,0,0
-126,309,0,0,0,0,0,0,0,0,0,-1,1098,715,0,0
-119,309,0,0,0,0,0,0,0,0,0,-1,1105,715,0,0
-112,309,0,0,0,0,0,0,0,0,0,-1,1112,715,0,0
-105,309,0,0,0,0,0,0,0,0,0,-1,1119,715,0,0
-98,309,0,0,0,0,0,0,0,0,0,-1,1126,715,0,0
-91,309,0,0,0,0,0,0,0,0,0,-1,1133,715,0,0
-84,309,0,0,0,0,0,0,0,0,0,-1,1140,715,0,0
-77,309,0,0,0,0,0,0,0,0,0,-1,1147,715,0,0
-70,309,0,0,0,0,0,0,0,0,0,-1,1154,715,0,0
-63,309,0,0,0,0,0,0,0,0,0,-1,1161,715,0,0
-56,309,0,0,0,0,0,0,0,0,0,-1,1168,715,0,0
-49,309,0,0,0,0,0,0,0,0,0,-1,1175,715,0,0
-42,309,0,0,0,0,0,0,0,0,0,-1,1182,715,0,0
-35,309,0,0,0,0,0,0,0,0,0,-1,1189,715,0,0
-28,309,0,0,0,0,0,0,0,0,0,-1,1196,715,0,0
-21,309,0,0,0,0,0,0,0,0,0,-1,1203,715,0,0
-14,309,0,0,0,0,0,0,0,0,0,-1,1210,715,0,0
-7,309,0,0,0,0,0,0,0,0,0,-1,1217,715,0,0
0,309,0,0,0,0,0,0,0,0,0,-1,1224,715,0,0
7,309,0,0,0,0,0,0,0,0,0,-1,1231,715,0,0
14,309,0,0,0,0,0,0,0,0,0,-1,1238,715,0,0
21,309,0,0,0,0,0,0,0,0,0,-1,1245,715,0,0
28,309,0,0,0,0,0,0,0,0,0,-1,1252,715,0,0
35,309,0,0,0,0,0,0,0,0,0,-1,1259,715,0,0
42,309,0,0,0,0,0,0,0,0,0,-1,1266,715,0,0
49,309,0,0,0,0,0,0,0,0,0,-1,1273,715,0,0
56,309,0,0,0,0,0,0,0,0,0,-1,1280,715,0,0
63,309,0,0,0,0,0,0,0,0,0,-1,1287,715,0,0
70,309,0,0,0,0,0,0,0,0,0,-1,1294,715,0,0
77,309,0,0,0,0,0,0,0,0,0,-1,1301,715,0,0
84,309,0,0,0,0,0,0,0,0,0,-1,1308,715,0,0
91,309,0,0,0,0,0,0,0,0,0,-1,1315,715,0,0
98,309,0,0,0,0,0,0,0,0,0,-1,1322,715,0,0
105,309,0,0,0,0,0,0,0,0,0,-1,1329,715,0,0
112,309,0,0,0,0,0,0,0,0,0,-1,1336,715,0,0
119,309,0,0,0,0,0,0,0,0,0,-1,1343,715,0,0
126,309,0,0,0,0,0,0,0,0,0,-1,1350,715,0,0
133,309,0,0,0,0,0,0,0,0,0,-1,1357,715,0,0
140,309,0,0,0,0,0,0,0,0,0,-1,1364,715,0,0
147,309,0,0,0,0,0,0,0,0,0,-1,1371,715,0,0
154,309,0,0,0,0,0,0,0,0,0,-1,1378,715,0,0
161,309,0,0,0,0,0,0,0,0,0,-1,1385,715,0,0
168,309,0,0,0,0,0,0,0,0,0,-1,1392,715,0,0
175,309,0,0,0,0,0,0,0,0,0,-1,1399,715,0,0
182,309,0,0,0,0,0,0,0,0,0,-1,1406,715,0,0
189,309,0,0,0,0,0,0,0,0,0,-1,1413,715,0,0
196,309,0,0,0,0,0,0,0,0,0,-1,1420,715,0,0
203,309,0,0,0,0,0,0,0,0,0,-1,1427,715,0,0
210,309,0,0,0,0,0,0,0,0,0,-1,1434,715,0,0
217,309,0,0,0,0,0,0,0,0,0,-1,1441,715,0,0
224,309,0,0,0,0,0,0,0,0,0,-1,1448,715,0,0
231,309,0,0,0,0,0,0,0,0,0,-1,1455,715,0,0
238,309,0,0,0,0,0,0,0,0,0,-1,1462,715,0,0
245,309,0,0,0,0,0,0,0,0,0,-1,1469,715,0,0
252,309,0,0,0,0,0,0,0,0,0,-1,1476,715,0,0
259,309,0,0,0,0,0,0,0,0,0,-1,1483,715,0,0
266,309,0,0,0,0,0,0,0,0,0,-1,1490,715,0,0
273,309,0,0,0,0,0,0,0,0,0,-1,1497,715,0,0
280,309,0,0,0,0,0,0,0,0,0,-1,1504,715,0,0
287,309,0,0,0,0,0,0,0,0,0,-1,1511,715,0,0
294,309,0,0,0,0,0,0,0,0,0,-1,1518,715,0,0
301,309,0,0,0,0,0,0,0,0,0,-1,1525,715,0,0
308,309,0,0,0,0,0,0,0,0,0,-1,1532,715,0,0
315,309,0,0,0,0,0,0,0,0,0,-1,1539,715,0,0
322,309,0,0,0,0,0,0,0,0,0,-1,1546,715,0,0
329,309,0,0,0,0,0,0,0,0,0,-1,1553,715,0,0
336,309,0,0,0,0,0,0,0,0,0,-1,1560,715,0,0
343,309,0,0,0,0,0,0,0,0,0,-1,1567,715,0,0
350,309,0,0,0,0,0,0,0,0,0,-1,1574,715,0,0
357,309,0,0,0,0,0,0,0,0,0,-1,1581,715,0,0
364,309,0,0,0,0,0,0,0,0,0,-1,1588,715,0,0
371,309,0,0,0,0,0,0,0,0,0,-1,1595,715,0,0
378,309,0,0,0,0,0,0,0,0,0,-1,1602,715,0,0
385,309,0,0,0,0,0,0,0,0,0,-1,1609,715,0,0
392,309,0,0,0,0,0,0,0,0,0,-1,1616,715,0,0
399,309,0,0,0,0,0,0,0,0,0,-1,1623,715,0,0
406,309,0,0,0,0,0,0,0,0,0,-1,1630,715,0,0
413,309,0,0,0,0,0,0,0,0,0,-1,1637,715,0,0
420,309,0,0,0,0,0,0,0,0,0,-1,1644,715,0,0
427,309,0,0,0,0,0,0,0,0,0,-1,1651,715,0,0
434,309,0,0,0,0,0,0,0,0,0,-1,1658,715,0,0
441,309,0,0,0,0,0,0,0,0,0,-1,1665,715,0,0
448,309,0,0,0,0,0,0,0,0,0,-1,1672,715,0,0
455,309,0,0,0,0,0,0,0,0,0,-1,1679,715,0,0
462,309,0,0,0,0,0,0,0,0,0,-1,1686,715,0,0
469,309,0,0,0,0,0,0,0,0,0,-1,1693,715,0,0
476,309,0,0,0,0,0,0,0,0,0,-1,1700,715,0,0
483,309,0,0,0,0,0,0,0,0,0,-1,1707,715,0,0
490,309,0,0,0,0,0,0,0,0,0,-1,1714,715,0,0
497,309,0,0,0,0,0,0,0,0,0,-1,1721,715,0,0
504,309,0,0,0,0,0,0,0,0,0,-1,1728,715,0,0
511,309,0,0,0,0,0,0,0,0,0,-1,1735,715,0,0
518,309,0,0,0,0,0,0,0,0,0,-1,1742,715,0,0
525,309,0,0,0,0,0,0,0,0,0,-1,1749,715,0,0
532,309,0,0,0,0,0,0,0,0,0,-1,1756,715,0,0
539,309,16.3621,2.79657,0,0,0,0,0,0,0,-1,1763,715,16.362,-2.79659
546,309,15.9531,3.59576,-0.0179042,0.094594,-0.0193132,0.0978172,-0.0211274,-1.40543,0.0732764,0.0419048,1770,715,15.9531,-3.59575
553,309,15.5435,4.12616,-0.00394056,0.0715678,-0.0154555,0.0746088,-0.00698159,-1.37652,0.0522222,0.0420249,1777,715,15.5434,-4.12618
560,309,16.7249,1.83112,0.00542844,0.0531662,-0.0127769,0.0563708,0.00222384,-1.32505,0.0368616,0.0476522,1784,715,16.7248,-1.83111
567,309,17.1082,2.5307,0.0112156,0.0392766,-0.0107132,0.0428991,0.00759316,-1.24473,0.0264344,0.0492558,1791,715,17.1082,-2.53067
574,309,17.6216,3.31171,0.014145,0.0288673,-0.00896012,0.0331023,0.00990998,-1.12927,0.0196177,0.0494857,1798,715,17.6215,-3.3117
581,309,17.9397,3.73804,0,0,0,0,0,0,0,-1,1805,715,17.9396,-3.73802
588,309,14.443,3.78363,0,0,0,0,0,0,0,-1,1812,715,14.443,-3.78363
595,309,15.082,4.23108,0,0,0,0,0,0,0,-1,1819,715,15.0821,-4.2311
602,309,10.7278,3.23444,0,0,0,0,0,0,0,-1,1826,715,10.7278,-3.23443
609,309,11.0383,-0.211304,0,0,0,0,0,0,0,-1,1833,715,11.0383,0.2113
616,309,11.0554,0.0739746,0.00960908,0.0028422,-0.000358217,0.00962798,0.00282329,-0.0527403,0.00571495,0.0246565,1840,715,11.0554,-0.0739801
623,309,11.063,0.310364,0.00655344,0.00250956,-0.000824479,0.00671508,0.00234792,-0.193592,0.00393494,0.0106872,1847,715,11.063,-0.310359
630,309,11.045,0.518127,0.00338506,0.00126756,-0.00142906,0.00410485,0.000547782,-0.466582,0.00257348,0.00970548,1854,715,11.045,-0.51814
637,309,11.01,0.740173,0.00177892,0.000697991,-0.000718992,0.00213793,0.000338984,-0.463104,0.00132681,0.0128302,1861,715,11.0101,-0.740167
644,309,11.0079,0.96521,0.000835423,0.000171357,-0.000445706,0.00105918,-5.2397e-05,-0.465264,0.000724216,0.0140917,1868,715,11.0079,-0.965192
651,309,11.0553,1.19415,0.0010063,0.000216305,-0.000415893,0.00118488,3.77268e-05,-0.40558,0.00077765,0.0140223,1875,715,11.0553,-1.19415
658,309,11.0504,1.40533,0.00139093,0.000229455,-0.000452066,0.00154614,7.42442e-05,-0.330727,0.00100692,0.0203831,1882,715,11.0504,-1.40534
665,309,11.0563,1.60809,0.00223677,0.000494654,-0.000576716,0.00241039,0.000321038,-0.292412,0.00151132,0.0173515,1889,715,11.0563,-1.60808
672,309,11.0674,1.80981,0.00356919,0.000978751,-0.000601212,0.00370193,0.000846018,-0.21729,0.00223985,0.0147871,1896,715,11.0674,-1.80982
679,309,11.0779,2.06744,0.00546708,0.00170193,-0.000486239,0.00552886,0.00164015,-0.12638,0.0032789,0.0151172,1903,715,11.0778,-2.06743
686,309,11.0503,2.27606,0.00791247,0.0025285,-0.000305011,0.0079297,0.00251127,-0.056411,0.00467965,0.021749,1910,715,11.0503,-2.27603
693,309,10.8882,2.44641,0.0115157,0.00379185,8.49607e-05,0.0115167,0.00379091,0.010998,0.00677728,0.0367874,1917,715,10.8882,-2.44643
700,309,10.8101,2.68365,0,0,0,0,0,0,0,-1,1924,715,10.81,-2.68365
707,309,11.4117,3.73376,0,0,0,0,0,0,0,-1,1931,715,11.4118,-3.73377
714,309,10.6967,3.09259,0,0,0,0,0,0,0,-1,1938,715,10.6967,-3.09261
721,309,11.6661,3.68695,0,0,0,0,0,0,0,-1,1945,715,11.6662,-3.68696
728,309,0,0,0,0,0,0,0,0,0,-1,1952,715,0,0
735,309,0,0,0,0,0,0,0,0,0,-1,1959,715,0,0
742,309,0,0,0,0,0,0,0,0,0,-1,1966,715,0,0
749,309,0,0,0,0,0,0,0,0,0,-1,1973,715,0,0
756,309,0,0,0,0,0,0,0,0,0,-1,1980,715,0,0
763,309,0,0,0,0,0,0,0,0,0,-1,1987,715,0,0
770,309,0,0,0,0,0,0,0,0,0,-1,1994,715,0,0
777,309,0,0,0,0,0,0,0,0,0,-1,2001,715,0,0
784,309,0,0,0,0,0,0,0,0,0,-1,2008,715,0,0
791,309,0,0,0,0,0,0,0,0,0,-1,2015,715,0,0
798,309,0,0,0,0,0,0,0,0,0,-1,2022,715,0,0
805,309,0,0,0,0,0,0,0,0,0,-1,2029,715,0,0
812,309,0,0,0,0,0,0,0,0,0,-1,2036,715,0,0
-700,302,0,0,0,0,0,0,0,0,0,-1,524,722,0,0
-693,302,0,0,0,0,0,0,0,0,0,-1,531,722,0,0
-686,302,0,0,0,0,0,0,0,0,0,-1,538,722,0,0
-679,302,0,0,0,0,0,0,0,0,0,-1,545,722,0,0
-672,302,0,0,0,0,0,0,0,0,0,-1,552,722,0,0
-665,302,0,0,0,0,0,0,0,0,0,-1,559,722,0,0
-658,302,0,0,0,0,0,0,0,0,0,-1,566,722,0,0
-651,302,0,0,0,0,0,0,0,0,0,-1,573,722,0,0
-644,302,0,0,0,0,0,0,0,0,0,-1,580,722,0,0
-637,302,0,0,0,0,0,0,0,0,0,-1,587,722,0,0
-630,302,0,0,0,0,0,0,0,0,0,-1,594,722,0,0
-623,302,0,0,0,0,0,0,0,0,0,-1,601,722,0,0
-616,302,0,0,0,0,0,0,0,0,0,-1,608,722,0,0
-609,302,-6.14014,-3.6167,0,0,0,0,0,0,0,-1,615,722,-6.14016,3.61669
-602,302,-5.40784,-2.83258,0,0,0,0,0,0,0,-1,622,722,-5.40785,2.83259
-595,302,-7.89941,2.13641,0,0,0,0,0,0,0,-1,629,722,-7.89939,-2.13639
-588,302,-7.10895,1.79163,0,0,0,0,0,0,0,-1,636,722,-7.10896,-1.79163
-581,302,-6.57001,1.16486,0,0,0,0,0,0,0,-1,643,722,-6.56999,-1.16486
-574,302,-6.23291,0.822021,0.00831757,-0.00494901,0.00935342,0.0131511,-0.0097825,0.476967,0.0132882,0.0443776,650,722,-6.23289,-0.822042
-567,302,-5.86987,0.577637,0.00443049,-0.00303402,0.00375451,0.0059922,-0.00459573,0.394185,0.00613064,0.0454416,657,722,-5.86989,-0.577615
-560,302,-5.92889,0.205872,0.00213044,-0.00308022,0.00094142,0.00229531,-0.00324509,0.173372,0.00321438,0.0396942,664,722,-5.92892,-0.205894
-553,302,-6.2149,0.105347,0.000510879,-0.00260792,-0.000354124,0.000550583,-0.00264762,-0.111652,0.00197437,0.0161547,671,722,-6.21492,-0.105324
-546,302,-6.21973,-0.0878906,-0.000901945,-0.0022543,-0.000445301,-0.000768487,-0.00238775,-0.291184,0.00140744,0.0146582,678,722,-6.21973,0.0879202
-539,302,-6.22522,-0.257141,-0.00174524,-0.00206827,-6.10836e-05,-0.00173408,-0.00207944,-0.180784,0.00128671,0.014387,685,722,-6.22519,0.257118
-532,302,-6.20837,-0.473389,-0.00237757,-0.00199066,0.000501838,-0.00164628,-0.00272195,0.969369,0.00158299,0.0138258,692,722,-6.20838,0.47337
-525,302,-6.21021,-0.688538,-0.00329969,-0.00206657,0.00127505,-0.00126683,-0.00409942,1.0106,0.00242367,0.0187277,699,722,-6.2102,0.688533
-518,302,-6.21869,-0.884399,-0.00425198,-0.00200708,0.00263929,-0.000261473,-0.00599759,0.986453,0.00391415,0.0189749,706,722,-6.21869,0.884429
-511,302,-6.21863,-1.07031,-0.00495768,-0.00230816,0.00522039,0.00175294,-0.00901878,0.909658,0.00667401,0.00947831,713,722,-6.21865,1.07029
-504,302,-6.21594,-1.26959,-0.00615891,-0.00310179,0.00805579,0.00356918,-0.0128299,0.879157,0.00995852,0.00854995,720,722,-6.21595,1.26958
-497,302,-6.22552,-1.46057,-0.00787093,-0.00370453,0.0114823,0.00588198,-0.0174574,0.875136,0.0140166,0.01303,727,722,-6.22554,1.46059
-490,302,-6.13458,-1.63153,-0.0103007,-0.00462164,0.016246,0.00903105,-0.0239534,0.871917,0.0196825,0.0302649,734,722,-6.13457,1.63151
-483,302,-5.78839,-1.65894,0,0,0,0,0,0,0,-1,741,722,-5.78839,1.65891
-476,302,-4.29749,-0.203491,0,0,0,0,0,0,0,-1,748,722,-4.29751,0.203464
-469,302,-7.24707,1.70551,0,0,0,0,0,0,0,-1,755,722,-7.24706,-1.7055
-462,302,-7.28357,1.84735,0,0,0,0,0,0,0,-1,762,722,-7.28354,-1.84733
-455,302,-7.31958,2.04907,0,0,0,0,0,0,0,-1,769,722,-7.31957,-2.04908
-448,302,-7.46857,2.26135,0,0,0,0,0,0,0,-1,776,722,-7.46855,-2.26136
-441,302,-7.73749,2.30029,0,0,0,0,0,0,0,-1,783,722,-7.73751,-2.30028
-434,302,-6.26172,2.93329,0,0,0,0,0,0,0,-1,790,722,-6.2617,-2.93328
-427,302,-7.91388,1.72229,0,0,0,0,0,0,0,-1,797,722,-7.91388,-1.72227
-420,302,0,0,0,0,0,0,0,0,0,-1,804,722,0,0
-413,302,0,0,0,0,0,0,0,0,0,-1,811,722,0,0
-406,302,0,0,0,0,0,0,0,0,0,-1,818,722,0,0
-399,302,0,0,0,0,0,0,0,0,0,-1,825,722,0,0
-392,302,0,0,0,0,0,0,0,0,0,-1,832,722,0,0
-385,302,0,0,0,0,0,0,0,0,0,-1,839,722,0,0
-378,302,0,0,0,0,0,0,0,0,0,-1,846,722,0,0
-371,302,0,0,0,0,0,0,0,0,0,-1,853,722,0,0
-364,302,0,0,0,0,0,0,0,0,0,-1,860,722,0,0
-357,302,0,0,0,0,0,0,0,0,0,-1,867,722,0,0
-350,302,0,0,0,0,0,0,0,0,0,-1,874,722,0,0
-343,302,0,0,0,0,0,0,0,0,0,-1,881,722,0,0
-336,302,0,0,0,0,0,0,0,0,0,-1,888,722,0,0
-329,302,0,0,0,0,0,0,0,0,0,-1,895,722,0,0
-322,302,0,0,0,0,0,0,0,0,0,-1,902,722,0,0
-315,302,0,0,0,0,0,0,0,0,0,-1,909,722,0,0
-308,302,0,0,0,0,0,0,0,0,0,-1,916,722,0,0
-301,302,0,0,0,0,0,0,0,0,0,-1,923,722,0,0
-294,302,0,0,0,0,0,0,0,0,0,-1,930,722,0,0
-287,302,0,0,0,0,0,0,0,0,0,-1,937,722,0,0
-280,302,0,0,0,0,0,0,0,0,0,-1,944,722,0,0
-273,302,0,0,0,0,0,0,0,0,0,-1,951,722,0,0
-266,302,0,0,0,0,0,0,0,0,0,-1,958,722,0,0
-259,302,0,0,0,0,0,0,0,0,0,-1,965,722,0,0
-252,302,0,0,0,0,0,0,0,0,0,-1,972,722,0,0
-245,302,0,0,0,0,0,0,0,0,0,-1,979,722,0,0
-238,302,0,0,0,0,0,0,0,0,0,-1,986,722,0,0
-231,302,0,0,0,0,0,0,0,0,0,-1,993,722,0,0
-224,302,0,0,0,0,0,0,0,0,0,-1,1000,722,0,0
-217,302,0,0,0,0,0,0,0,0,0,-1,1007,722,0,0
-210,302,0,0,0,0,0,0,0,0,0,-1,1014,722,0,0
-203,302,0,0,0,0,0,0,0,0,0,-1,1021,722,0,0
-196,302,0,0,0,0,0,0,0,0,0,-1,1028,722,0,0
-189,302,0,0,0,0,0,0,0,0,0,-1,1035,722,0,0
-182,302,0,0,0,0,0,0,0,0,0,-1,1042,722,0,0
-175,302,0,0,0,0,0,0,0,0,0,-1,1049,722,0,0
-168,302,0,0,0,0,0,0,0,0,0,-1,1056,722,0,0
-161,302,0,0,0,0,0,0,0,0,0,-1,1063,722,0,0
-154,302,0,0,0,0,0,0,0,0,0,-1,1070,722,0,0
-147,302,0,0,0,0,0,0,0,0,0,-1,1077,722,0,0
-140,302,0,0,0,0,0,0,0,0,0,-1,1084,722,0,0
-133,302,0,0,0,0,0,0,0,0,0,-1,1091,722,0,0
-126,302,0,0,0,0,0,0,0,0,0,-1,1098,722,0,0
-119,302,0,0,0,0,0,0,0,0,0,-1,1105,722,0,0
-112,302,0,0,0,0,0,0,0,0,0,-1,1112,722,0,0
-105,302,0,0,0,0,0,0,0,0,0,-1,1119,722,0,0
-98,302,0,0,0,0,0,0,0,0,0,-1,1126,722,0,0
-91,302,0,0,0,0,0,0,0,0,0,-1,1133,722,0,0
-84,302,0,0,0,0,0,0,0,0,0,-1,1140,722,0,0
-77,302,0,0,0,0,0,0,0,0,0,-1,1147,722,0,0
-70,302,0,0,0,0,0,0,0,0,0,-1,1154,722,0,0
-63,302,0,0,0,0,0,0,0,0,0,-1,1161,722,0,0
-56,302,0,0,0,0,0,0,0,0,0,-1,1168,722,0,0
-49,302,0,0,0,0,0,0,0,0,0,-1,1175,722,0,0
-42,302,0,0,0,0,0,0,0,0,0,-1,1182,722,0,0
-35,302,0,0,0,0,0,0,0,0,0,-1,1189,722,0,0
-28,302,0,0,0,0,0,0,0,0,0,-1,1196,722,0,0
-21,302,0,0,0,0,0,0,0,0,0,-1,1203,722,0,0
-14,302,0,0,0,0,0,0,0,0,0,-1,1210,722,0,0
-7,302,0,0,0,0,0,0,0,0,0,-1,1217,722,0,0
0,302,0,0,0,0,0,0,0,0,0,-1,1224,722,0,0
7,302,0,0,0,0,0,0,0,0,0,-1,1231,722,0,0
14,302,0,0,0,0,0,0,0,0,0,-1,1238,722,0,0
21,302,0,0,0,0,0,0,0,0,0,-1,1245,722,0,0
28,302,0,0,0,0,0,0,0,0,0,-1,1252,722,0,0
35,302,0,0,0,0,0,0,0,0,0,-1,1259,722,0,0
42,302,0,0,0,0,0,0,0,0,0,-1,1266,722,0,0
49,302,0,0,0,0,0,0,0,0,0,-1,1273,722,0,0
56,302,0,0,0,0,0,0,0,0,0,-1,1280,722,0,0
63,302,0,0,0,0,0,0,0,0,0,-1,1287,722,0,0
70,302,0,0,0,0,0,0,0,0,0,-1,1294,722,0,0
77,302,0,0,0,0,0,0,0,0,0,-1,1301,722,0,0
84,302,0,0,0,0,0,0,0,0,0,-1,1308,722,0,0
91,302,0,0,0,0,0,0,0,0,0,-1,1315,722,0,0
98,302,0,0,0,0,0,0,0,0,0,-1,1322,722,0,0
105,302,0,0,0,0,0,0,0,0,0,-1,1329,722,0,0
112,302,0,0,0,0,0,0,0,0,0,-1,1336,722,0,0
119,302,0,0,0,0,0,0,0,0,0,-1,1343,722,0,0
126,302,0,0,0,0,0,0,0,0,0,-1,1350,722,0,0
133,302,0,0,0,0,0,0,0,0,0,-1,1357,722,0,0
140,302,0,0,0,0,0,0,0,0,0,-1,1364,722,0,0
147,302,0,0,0,0,0,0,0,0,0,-1,1371,722,0,0
154,302,0,0,0,0,0,0,0,0,0,-1,1378,722,0,0
161,302,0,0,0,0,0,0,0,0,0,-1,1385,722,0,0
168,302,0,0,0,0,0,0,0,0,0,-1,1392,722,0,0
175,302,0,0,0,0,0,0,0,0,0,-1,1399,722,0,0
182,302,0,0,0,0,0,0,0,0,0,-1,1406,722,0,0
189,302,0,0,0,0,0,0,0,0,0,-1,1413,722,0,0
196,302,0,0,0,0,0,0,0,0,0,-1,1420,722,0,0
203,302,0,0,0,0,0,0,0,0,0,-1,1427,722,0,0
210,302,0,0,0,0,0,0,0,0,0,-1,1434,722,0,0
217,302,0,0,0,0,0,0,0,0,0,-1,1441,722,0,0
224,302,0,0,0,0,0,0,0,0,0,-1,1448,722,0,0
231,302,0,0,0,0,0,0,0,0,0,-1,1455,722,0,0
238,302,0,0,0,0,0,0,0,0,0,-1,1462,722,0,0
245,302,0,0,0,0,0,0,0,0,0,-1,1469,722,0,0
252,302,0,0,0,0,0,0,0,0,0,-1,1476,722,0,0
259,302,0,0,0,0,0,0,0,0,0,-1,1483,722,0,0
266,302,0,0,0,0,0,0,0,0,0,-1,1490,722,0,0
273,302,0,0,0,0,0,0,0,0,0,-1,1497,722,0,0
280,302,0,0,0,0,0,0,0,0,0,-1,1504,722,0,0
287,302,0,0,0,0,0,0,0,0,0,-1,1511,722,0,0
294,302,0,0,0,0,0,0,0,0,0,-1,1518,722,0,0
301,302,0,0,0,0,0,0,0,0,0,-1,1525,722,0,0
308,302,0,0,0,0,0,0,0,0,0,-1,1532,722,0,0
315,302,0,0,0,0,0,0,0,0,0,-1,1539,722,0,0
322,302,0,0,0,0,0,0,0,0,0,-1,1546,722,0,0
329,302,0,0,0,0,0,0,0,0,0,-1,1553,722,0,0
336,302,0,0,0,0,0,0,0,0,0,-1,1560,722,0,0
343,302,0,0,0,0,0,0,0,0,0,-1,1567,722,0,0
350,302,0,0,0,0,0,0,0,0,0,-1,1574,722,0,0
357,302,0,0,0,0,0,0,0,0,0,-1,1581,722,0,0
364,302,0,0,0,0,0,0,0,0,0,-1,1588,722,0,0
371,302,0,0,0,0,0,0,0,0,0,-1,1595,722,0,0
378,302,0,0,0,0,0,0,0,0,0,-1,1602,722,0,0
385,302,0,0,0,0,0,0,0,0,0,-1,1609,722,0,0
392,302,0,0,0,0,0,0,0,0,0,-1,1616,722,0,0
399,302,0,0,0,0,0,0,0,0,0,-1,1623,722,0,0
406,302,0,0,0,0,0,0,0,0,0,-1,1630,722,0,0
413,302,0,0,0,0,0,0,0,0,0,-1,1637,722,0,0
420,302,0,0,0,0,0,0,0,0,0,-1,1644,722,0,0
427,302,0,0,0,0,0,0,0,0,0,-1,1651,722,0,0
434,302,0,0,0,0,0,0,0,0,0,-1,1658,722,0,0
441,302,0,0,0,0,0,0,0,0,0,-1,1665,722,0,0
448,302,0,0,0,0,0,0,0,0,0,-1,1672,722,0,0
455,302,0,0,0,0,0,0,0,0,0,-1,1679,722,0,0
462,302,0,0,0,0,0,0,0,0,0,-1,1686,722,0,0
469,302,0,0,0,0,0,0,0,0,0,-1,1693,722,0,0
476,302,0,0,0,0,0,0,0,0,0,-1,1700,722,0,0
483,302,0,0,0,0,0,0,0,0,0,-1,1707,722,0,0
490,302,0,0,0,0,0,0,0,0,0,-1,1714,722,0,0
497,302,0,0,0,0,0,0,0,0,0,-1,1721,722,0,0
504,302,0,0,0,0,0,0,0,0,0,-1,1728,722,0,0
511,302,0,0,0,0,0,0,0,0,0,-1,1735,722,0,0
518,302,0,0,0,0,0,0,0,0,0,-1,1742,722,0,0
525,302,0,0,0,0,0,0,0,0,0,-1,1749,722,0,0
532,302,0,0,0,0,0,0,0,0,0,-1,1756,722,0,0
539,302,0,0,0,0,0,0,0,0,0,-1,1763,722,0,0
546,302,16.957,2.9433,-0.0236502,0.0900968,-0.0261397,0.0958162,-0.0293697,-1.35539,0.0755937,0.0442354,1770,722,16.957,-2.94328
553,302,16.3344,3.39648,-0.00375148,0.0669426,-0.0190266,0.0717381,-0.00854698,-1.3239,0.0509141,0.0423677,1777,722,16.3344,-3.39647
560,302,16.7997,2.53711,0.00888407,0.0492255,-0.0143844,0.0538292,0.00428042,-1.26105,0.0345478,0.0455044,1784,722,16.7997,-2.5371
567,302,17.181,2.63031,0.0153764,0.0364486,-0.0113536,0.0414017,0.0104233,-1.15943,0.0248659,0.0473781,1791,722,17.181,-2.63032
574,302,17.5344,3.06384,0.0177984,0.0271152,-0.00929777,0.0328563,0.0120573,-1.01763,0.0191921,0.0479529,1798,722,17.5344,-3.06385
581,302,17.8162,3.60748,0,0,0,0,0,0,0,-1,1805,722,17.8162,-3.60751
588,302,18.0562,4.34235,0,0,0,0,0,0,0,-1,1812,722,18.0561,-4.34236
595,302,15.5348,3.97906,0,0,0,0,0,0,0,-1,1819,722,15.5348,-3.97909
602,302,15.9238,4.92664,0,0,0,0,0,0,0,-1,1826,722,15.9238,-4.92664
609,302,11.1578,-0.125854,0,0,0,0,0,0,0,-1,1833,722,11.1579,0.125839
616,302,11.2515,0.0796509,0,0,0,0,0,0,0,-1,1840,722,11.2515,-0.0796762
623,302,11.2649,0.310486,0.00796489,0.0029826,-0.000952135,0.00814065,0.00280684,-0.182537,0.00477489,0.0144635,1847,722,11.2649,-0.310474
630,302,11.2451,0.534241,0.00452356,0.00171019,-0.00148292,0.00516084,0.00107291,-0.405887,0.00314454,0.010732,1854,722,11.2452,-0.534261
637,302,11.2072,0.7547,0.00235061,0.000960549,-0.00067068,0.00262144,0.000689722,-0.383785,0.00156909,0.0141831,1861,722,11.2071,-0.754729
644,302,11.2242,0.967773,0.000929452,0.000268644,-0.000268673,0.0010249,0.000173193,-0.341358,0.000633479,0.0142453,1868,722,11.2242,-0.967774
651,302,11.2765,1.20306,0.00093723,0.000288944,-0.000211416,0.00100008,0.000226091,-0.28897,0.000605593,0.0138488,1875,722,11.2765,-1.20303
658,302,11.2972,1.40472,0.00114989,0.000194126,-0.000208213,0.00119328,0.000150736,-0.205449,0.00075034,0.0154474,1882,722,11.2973,-1.40472
665,302,11.2758,1.60144,0.00191148,0.000342416,-0.00039477,0.0020052,0.000248691,-0.233099,0.0012621,0.0145577,1889,722,11.2758,-1.60143
672,302,11.2738,1.79913,0.00323633,0.000758413,-0.000540795,0.00334922,0.000645529,-0.205782,0.00205177,0.0109536,1896,722,11.2738,-1.79916
679,302,11.2843,2.04474,0.00519565,0.00133184,-0.000507366,0.00526116,0.00126633,-0.128413,0.00317077,0.00859886,1903,722,11.2844,-2.04477
686,302,11.2952,2.2417,0.00751768,0.00194037,-0.000483426,0.00755928,0.00189878,-0.0858242,0.00454091,0.0122766,1910,722,11.2951,-2.24168
693,302,11.1857,2.3703,0.0109426,0.00286513,-0.000334172,0.0109564,0.00285132,-0.0412768,0.00656363,0.0274197,1917,722,11.1856,-2.37027
700,302,11.6635,2.4624,0.0159197,0.00416403,3.22512e-05,0.0159198,0.00416394,0.00274344,0.0095333,0.0467359,1924,722,11.6635,-2.46238
707,302,11.4951,2.64764,0,0,0,0,0,0,0,-1,1931,722,11.4951,-2.64767
714,302,11.0779,2.83307,0,0,0,0,0,0,0,-1,1938,722,11.0779,-2.83307
721,302,11.271,2.78351,0,0,0,0,0,0,0,-1,1945,722,11.2709,-2.78351
728,302,11.9117,3.16602,0,0,0,0,0,0,0,-1,1952,722,11.9117,-3.16604
735,302,0,0,0,0,0,0,0,0,0,-1,1959,722,0,0
742,302,0,0,0,0,0,0,0,0,0,-1,1966,722,0,0
749,302,0,0,0,0,0,0,0,0,0,-1,1973,722,0,0
756,302,0,0,0,0,0,0,0,0,0,-1,1980,722,0,0
763,302,0,0,0,0,0,0,0,0,0,-1,1987,722,0,0
770,302,0,0,0,0,0,0,0,0,0,-1,1994,722,0,0
777,302,0,0,0,0,0,0,0,0,0,-1,2001,722,0,0
784,302,0,0,0,0,0,0,0,0,0,-1,2008,722,0,0
791,302,0,0,0,0,0,0,0,0,0,-1,2015,722,0,0
798,302,0,0,0,0,0,0,0,0,0,-1,2022,722,0,0
805,302,0,0,0,0,0,0,0,0,0,-1,2029,722,0,0
812,302,0,0,0,0,0,0,0,0,0,-1,2036,722,0,0
-700,295,0,0,0,0,0,0,0,0,0,-1,524,729,0,0
-693,295,0,0,0,0,0,0,0,0,0,-1,531,729,0,0
-686,295,0,0,0,0,0,0,0,0,0,-1,538,729,0,0
-679,295,0,0,0,0,0,0,0,0,0,-1,545,729,0,0
-672,295,0,0,0,0,0,0,0,0,0,-1,552,729,0,0
-665,295,0,0,0,0,0,0,0,0,0,-1,559,729,0,0
-658,295,0,0,0,0,0,0,0,0,0,-1,566,729,0,0
-651,295,0,0,0,0,0,0,0,0,0,-1,573,729,0,0
-644,295,0,0,0,0,0,0,0,0,0,-1,580,729,0,0
-637,295,0,0,0,0,0,0,0,0,0,-1,587,729,0,0
-630,295,0,0,0,0,0,0,0,0,0,-1,594,729,0,0
-623,295,0,0,0,0,0,0,0,0,0,-1,601,729,0,0
-616,295,-6.39587,-4.52765,0,0,0,0,0,0,0,-1,608,729,-6.3959,4.52767
-609,295,-5.22925,0.719055,0,0,0,0,0,0,0,-1,615,729,-5.22923,-0.719043
-602,295,-5.61359,-2.48157,0,0,0,0,0,0,0,-1,622,729,-5.61359,2.48156
-595,295,-5.30798,-1.24542,0,0,0,0,0,0,0,-1,629,729,-5.30801,1.24542
-588,295,-7.98999,1.56903,0,0,0,0,0,0,0,-1,636,729,-7.98997,-1.56905
-581,295,-6.83075,0.957214,0,0,0,0,0,0,0,-1,643,729,-6.83076,-0.957216
-574,295,-6.5528,0.690002,0.0150515,-0.000315856,0.0107751,0.0206019,-0.00586628,0.475668,0.0160514,0.0436445,650,729,-6.55282,-0.69001
-567,295,-6.12622,0.376831,0.00995197,0.00087338,0.00491366,0.0121022,-0.00127681,0.41249,0.00852564,0.0417051,657,729,-6.1262,-0.376814
-560,295,-6.3446,0.254883,0.00649041,0.000157374,0.0016114,0.00687684,-0.000229057,0.235366,0.00466279,0.0231364,664,729,-6.3446,-0.254874
-553,295,-6.40973,0.0835571,0.00376634,-1.60948e-05,5.58656e-05,0.00376717,-1.69198e-05,0.0147654,0.00251711,0.0159806,671,729,-6.40972,-0.0835697
-546,295,-6.4408,-0.065979,0.00131708,-0.000275749,-0.000133538,0.0013282,-0.000286867,-0.0830643,0.000994968,0.0196081,678,729,-6.44082,0.0659799
-539,295,-6.43604,-0.231262,-0.000348817,-0.000665894,0.000240947,-0.000218929,-0.000795782,0.494416,0.000474683,0.0175254,685,729,-6.43604,0.231277
-532,295,-6.41632,-0.473083,-0.00174904,-0.00108574,0.000935352,-0.000424982,-0.0024098,0.955769,0.00148528,0.01536,692,729,-6.41631,0.473107
-525,295,-6.41003,-0.694641,-0.00336672,-0.00160396,0.0019589,-0.000337286,-0.0046334,0.996799,0.00298286,0.0147647,699,729,-6.41003,0.694659
-518,295,-6.42084,-0.8703,-0.00497871,-0.0018586,0.00377258,0.000663761,-0.00750107,0.981453,0.00523601,0.0104284,706,729,-6.42084,0.87029
-511,295,-6.40375,-1.06641,-0.00644616,-0.00233322,0.00693145,0.00284039,-0.0116198,0.929606,0.00884663,0.00828475,713,729,-6.40375,1.0664
-504,295,-6.4043,-1.25995,-0.00840853,-0.00317484,0.0103936,0.00492624,-0.0165096,0.908723,0.0129643,0.00983447,720,729,-6.40432,1.25993
-497,295,-6.4223,-1.44263,-0.0108933,-0.00374399,0.014566,0.00767959,-0.0223168,0.905725,0.0179926,0.0144291,727,729,-6.42227,1.44266
-490,295,-6.31964,-1.4007,-0.0141689,-0.00450877,0.0201454,0.0113775,-0.0300552,0.903057,0.0247181,0.0463354,734,729,-6.31962,1.40071
-483,295,-6.12952,-1.04413,0,0,0,0,0,0,0,-1,741,729,-6.1295,1.04411
-476,295,-8.06445,2.0451,0,0,0,0,0,0,0,-1,748,729,-8.06444,-2.04513
-469,295,-8.32892,2.57825,0,0,0,0,0,0,0,-1,755,729,-8.32893,-2.57826
-462,295,-7.36829,0.776062,0,0,0,0,0,0,0,-1,762,729,-7.3683,-0.776067
-455,295,-7.73401,1.76038,-0.0279814,-0.00640265,0.0617246,0.0454684,-0.0798525,0.871923,0.0732562,0.0476366,769,729,-7.73403,-1.76036
-448,295,-8.35065,2.42969,0,0,0,0,0,0,0,-1,776,729,-8.35066,-2.42969
-441,295,-8.99945,2.95154,0,0,0,0,0,0,0,-1,783,729,-8.99946,-2.95152
-434,295,-7.61621,2.62933,0,0,0,0,0,0,0,-1,790,729,-7.61619,-2.62935
-427,295,0,0,0,0,0,0,0,0,0,-1,797,729,0,0
-420,295,0,0,0,0,0,0,0,0,0,-1,804,729,0,0
-413,295,0,0,0,0,0,0,0,0,0,-1,811,729,0,0
-406,295,0,0,0,0,0,0,0,0,0,-1,818,729,0,0
-399,295,0,0,0,0,0,0,0,0,0,-1,825,729,0,0
-392,295,0,0,0,0,0,0,0,0,0,-1,832,729,0,0
-385,295,0,0,0,0,0,0,0,0,0,-1,839,729,0,0
-378,295,0,0,0,0,0,0,0,0,0,-1,846,729,0,0
-371,295,0,0,0,0,0,0,0,0,0,-1,853,729,0,0
-364,295,0,0,0,0,0,0,0,0,0,-1,860,729,0,0
-357,295,0,0,0,0,0,0,0,0,0,-1,867,729,0,0
-350,295,0,0,0,0,0,0,0,0,0,-1,874,729,0,0
-343,295,0,0,0,0,0,0,0,0,0,-1,881,729,0,0
-336,295,0,0,0,0,0,0,0,0,0,-1,888,729,0,0
-329,295,0,0,0,0,0,0,0,0,0,-1,895,729,0,0
-322,295,0,0,0,0,0,0,0,0,0,-1,902,729,0,0
-315,295,0,0,0,0,0,0,0,0,0,-1,909,729,0,0
-308,295,0,0,0,0,0,0,0,0,0,-1,916,729,0,0
-301,295,0,0,0,0,0,0,0,0,0,-1,923,729,0,0
-294,295,0,0,0,0,0,0,0,0,0,-1,930,729,0,0
-287,295,0,0,0,0,0,0,0,0,0,-1,937,729,0,0
-280,295,0,0,0,0,0,0,0,0,0,-1,944,729,0,0
-273,295,0,0,0,0,0,0,0,0,0,-1,951,729,0,0
-266,295,0,0,0,0,0,0,0,0,0,-1,958,729,0,0
-259,295,0,0,0,0,0,0,0,0,0,-1,965,729,0,0
-252,295,0,0,0,0,0,0,0,0,0,-1,972,729,0,0
-245,295,0,0,0,0,0,0,0,0,0,-1,979,729,0,0
-238,295,0,0,0,0,0,0,0,0,0,-1,986,729,0,0
-231,295,0,0,0,0,0,0,0,0,0,-1,993,729,0,0
-224,295,0,0,0,0,0,0,0,0,0,-1,1000,729,0,0
-217,295,0,0,0,0,0,0,0,0,0,-1,1007,729,0,0
-210,295,0,0,0,0,0,0,0,0,0,-1,1014,729,0,0
-203,295,0,0,0,0,0,0,0,0,0,-1,1021,729,0,0
-196,295,0,0,0,0,0,0,0,0,0,-1,1028,729,0,0
-189,295,0,0,0,0,0,0,0,0,0,-1,1035,729,0,0
-182,295,0,0,0,0,0,0,0,0,0,-1,1042,729,0,0
-175,295,0,0,0,0,0,0,0,0,0,-1,1049,729,0,0
-168,295,0,0,0,0,0,0,0,0,0,-1,1056,729,0,0
-161,295,0,0,0,0,0,0,0,0,0,-1,1063,729,0,0
-154,295,0,0,0,0,0,0,0,0,0,-1,1070,729,0,0
-147,295,0,0,0,0,0,0,0,0,0,-1,1077,729,0,0
-140,295,0,0,0,0,0,0,0,0,0,-1,1084,729,0,0
-133,295,0,0,0,0,0,0,0,0,0,-1,1091,729,0,0
-126,295,0,0,0,0,0,0,0,0,0,-1,1098,729,0,0
-119,295,0,0,0,0,0,0,0,0,0,-1,1105,729,0,0
-112,295,0,0,0,0,0,0,0,0,0,-1,1112,729,0,0
-105,295,0,0,0,0,0,0,0,0,0,-1,1119,729,0,0
-98,295,0,0,0,0,0,0,0,0,0,-1,1126,729,0,0
-91,295,0,0,0,0,0,0,0,0,0,-1,1133,729,0,0
-84,295,0,0,0,0,0,0,0,0,0,-1,1140,729,0,0
-77,295,0,0,0,0,0,0,0,0,0,-1,1147,729,0,0
-70,295,0,0,0,0,0,0,0,0,0,-1,1154,729,0,0
-63,295,0,0,0,0,0,0,0,0,0,-1,1161,729,0,0
-56,295,0,0,0,0,0,0,0,0,0,-1,1168,729,0,0
-49,295,0,0,0,0,0,0,0,0,0,-1,1175,729,0,0
-42,295,0,0,0,0,0,0,0,0,0,-1,1182,729,0,0
-35,295,0,0,0,0,0,0,0,0,0,-1,1189,729,0,0
-28,295,0,0,0,0,0,0,0,0,0,-1,1196,729,0,0
-21,295,0,0,0,0,0,0,0,0,0,-1,1203,729,0,0
-14,295,0,0,0,0,0,0,0,0,0,-1,1210,729,0,0
-7,295,0,0,0,0,0,0,0,0,0,-1,1217,729,0,0
0,295,0,0,0,0,0,0,0,0,0,-1,1224,729,0,0
7,295,0,0,0,0,0,0,0,0,0,-1,1231,729,0,0
14,295,0,0,0,0,0,0,0,0,0,-1,1238,729,0,0
21,295,0,0,0,0,0,0,0,0,0,-1,1245,729,0,0
28,295,0,0,0,0,0,0,0,0,0,-1,1252,729,0,0
35,295,0,0,0,0,0,0,0,0,0,-1,1259,729,0,0
42,295,0,0,0,0,0,0,0,0,0,-1,1266,729,0,0
49,295,0,0,0,0,0,0,0,0,0,-1,1273,729,0,0
56,295,0,0,0,0,0,0,0,0,0,-1,1280,729,0,0
63,295,0,0,0,0,0,0,0,0,0,-1,1287,729,0,0
70,295,0,0,0,0,0,0,0,0,0,-1,1294,729,0,0
77,295,0,0,0,0,0,0,0,0,0,-1,1301,729,0,0
84,295,0,0,0,0,0,0,0,0,0,-1,1308,729,0,0
91,295,0,0,0,0,0,0,0,0,0,-1,1315,729,0,0
98,295,0,0,0,0,0,0,0,0,0,-1,1322,729,0,0
105,295,0,0,0,0,0,0,0,0,0,-1,1329,729,0,0
112,295,0,0,0,0,0,0,0,0,0,-1,1336,729,0,0
119,295,0,0,0,0,0,0,0,0,0,-1,1343,729,0,0
126,295,0,0,0,0,0,0,0,0,0,-1,1350,729,0,0
133,295,0,0,0,0,0,0,0,0,0,-1,1357,729,0,0
140,295,0,0,0,0,0,0,0,0,0,-1,1364,729,0,0
147,295,0,0,0,0,0,0,0,0,0,-1,1371,729,0,0
154,295,0,0,0,0,0,0,0,0,0,-1,1378,729,0,0
161,295,0,0,0,0,0,0,0,0,0,-1,1385,729,0,0
168,295,0,0,0,0,0,0,0,0,0,-1,1392,729,0,0
175,295,0,0,0,0,0,0,0,0,0,-1,1399,729,0,0
182,295,0,0,0,0,0,0,0,0,0,-1,1406,729,0,0
189,295,0,0,0,0,0,0,0,0,0,-1,1413,729,0,0
196,295,0,0,0,0,0,0,0,0,0,-1,1420,729,0,0
203,295,0,0,0,0,0,0,0,0,0,-1,1427,729,0,0
210,295,0,0,0,0,0,0,0,0,0,-1,1434,729,0,0
217,295,0,0,0,0,0,0,0,0,0,-1,1441,729,0,0
224,295,0,0,0,0,0,0,0,0,0,-1,1448,729,0,0
231,295,0,0,0,0,0,0,0,0,0,-1,1455,729,0,0
238,295,0,0,0,0,0,0,0,0,0,-1,1462,729,0,0
245,295,0,0,0,0,0,0,0,0,0,-1,1469,729,0,0
252,295,0,0,0,0,0,0,0,0,0,-1,1476,729,0,0
259,295,0,0,0,0,0,0,0,0,0,-1,1483,729,0,0
266,295,0,0,0,0,0,0,0,0,0,-1,1490,729,0,0
273,295,0,0,0,0,0,0,0,0,0,-1,1497,729,0,0
280,295,0,0,0,0,0,0,0,0,0,-1,1504,729,0,0
287,295,0,0,0,0,0,0,0,0,0,-1,1511,729,0,0
294,295,0,0,0,0,0,0,0,0,0,-1,1518,729,0,0
301,295,0,0,0,0,0,0,0,0,0,-1,1525,729,0,0
308,295,0,0,0,0,0,0,0,0,0,-1,1532,729,0,0
315,295,0,0,0,0,0,0,0,0,0,-1,1539,729,0,0
322,295,0,0,0,0,0,0,0,0,0,-1,1546,729,0,0
329,295,0,0,0,0,0,0,0,0,0,-1,1553,729,0,0
336,295,0,0,0,0,0,0,0,0,0,-1,1560,729,0,0
343,295,0,0,0,0,0,0,0,0,0,-1,1567,729,0,0
350,295,0,0,0,0,0,0,0,0,0,-1,1574,729,0,0
357,295,0,0,0,0,0,0,0,0,0,-1,1581,729,0,0
364,295,0,0,0,0,0,0,0,0,0,-1,1588,729,0,0
371,295,0,0,0,0,0,0,0,0,0,-1,1595,729,0,0
378,295,0,0,0,0,0,0,0,0,0,-1,1602,729,0,0
385,295,0,0,0,0,0,0,0,0,0,-1,1609,729,0,0
392,295,0,0,0,0,0,0,0,0,0,-1,1616,729,0,0
399,295,0,0,0,0,0,0,0,0,0,-1,1623,729,0,0
406,295,0,0,0,0,0,0,0,0,0,-1,1630,729,0,0
413,295,0,0,0,0,0,0,0,0,0,-1,1637,729,0,0
420,295,0,0,0,0,0,0,0,0,0,-1,1644,729,0,0
427,295,0,0,0,0,0,0,0,0,0,-1,1651,729,0,0
434,295,0,0,0,0,0,0,0,0,0,-1,1658,729,0,0
441,295,0,0,0,0,0,0,0,0,0,-1,1665,729,0,0
448,295,0,0,0,0,0,0,0,0,0,-1,1672,729,0,0
455,295,0,0,0,0,0,0,0,0,0,-1,1679,729,0,0
462,295,0,0,0,0,0,0,0,0,0,-1,1686,729,0,0
469,295,0,0,0,0,0,0,0,0,0,-1,1693,729,0,0
476,295,0,0,0,0,0,0,0,0,0,-1,1700,729,0,0
483,295,0,0,0,0,0,0,0,0,0,-1,1707,729,0,0
490,295,0,0,0,0,0,0,0,0,0,-1,1714,729,0,0
497,295,0,0,0,0,0,0,0,0,0,-1,1721,729,0,0
504,295,0,0,0,0,0,0,0,0,0,-1,1728,729,0,0
511,295,0,0,0,0,0,0,0,0,0,-1,1735,729,0,0
518,295,0,0,0,0,0,0,0,0,0,-1,1742,729,0,0
525,295,0,0,0,0,0,0,0,0,0,-1,1749,729,0,0
532,295,0,0,0,0,0,0,0,0,0,-1,1756,729,0,0
539,295,0,0,0,0,0,0,0,0,0,-1,1763,729,0,0
546,295,17.3387,2.68481,-0.0409999,0.0860021,-0.0362509,0.095621,-0.0506187,-1.31143,0.0857537,0.0417136,1770,729,17.3387,-2.6848
553,295,17.2018,2.66364,-0.0119911,0.0624855,-0.0247008,0.069933,-0.0194386,-1.27796,0.0542745,0.0428148,1777,729,17.2017,-2.66363
560,295,17.0968,2.54486,0.00851434,0.0453222,-0.0167147,0.0517796,0.00205693,-1.20213,0.0338549,0.0422522,1784,729,17.0968,-2.54488
567,295,17.1572,2.49524,0.0182032,0.0336957,-0.0120385,0.0402648,0.0116341,-1.07128,0.0239273,0.0447811,1791,729,17.1572,-2.49525
574,295,17.4426,2.86108,0.0210117,0.0253836,-0.00938809,0.0328369,0.0135584,-0.899779,0.019054,0.0490678,1798,729,17.4427,-2.86106
581,295,17.5278,3.18378,0,0,0,0,0,0,0,-1,1805,729,17.5279,-3.1838
588,295,18.1438,3.48804,0,0,0,0,0,0,0,-1,1812,729,18.1438,-3.48806
595,295,18.2699,4.62604,0,0,0,0,0,0,0,-1,1819,729,18.2698,-4.62604
602,295,16.7006,5.01886,0,0,0,0,0,0,0,-1,1826,729,16.7005,-5.01888
609,295,11.7737,2.19989,0,0,0,0,0,0,0,-1,1833,729,11.7736,-2.19988
616,295,11.4833,0.0656128,0,0,0,0,0,0,0,-1,1840,729,11.4833,-0.0656355
623,295,11.4659,0.312439,0.00872327,0.00316454,-0.000870826,0.0088565,0.00303131,-0.151815,0.00519742,0.0279163,1847,729,11.466,-0.312429
630,295,11.4547,0.552551,0.00515376,0.00188304,-0.00133852,0.0056317,0.0014051,-0.342957,0.00338475,0.0115797,1854,729,11.4547,-0.552547
637,295,11.4546,0.771667,0.00252797,0.00101321,-0.000574414,0.00272116,0.000820025,-0.324435,0.00161186,0.0131819,1861,729,11.4546,-0.771666
644,295,11.4729,0.986816,0.000658316,0.000181594,-0.000135128,0.000693954,0.000145956,-0.257864,0.000422474,0.0121351,1868,729,11.4729,-0.986833
651,295,11.4912,1.20837,0.000458198,0.000180374,-0.000107424,0.000494889,0.000143683,-0.329131,0.000293979,0.0116614,1875,729,11.4912,-1.20837
658,295,11.489,1.40295,0.000453298,-3.66228e-06,-6.59983e-05,0.00046264,-1.30034e-05,-0.140602,0.000312851,0.0120749,1882,729,11.489,-1.40297
665,295,11.4764,1.58868,0.00109586,3.42123e-05,-0.000293399,0.00117155,-4.14756e-05,-0.252465,0.00079522,0.0118288,1889,729,11.4765,-1.58867
672,295,11.4763,1.79877,0.00236683,0.000423395,-0.000541409,0.00250748,0.000282747,-0.254164,0.00158583,0.0118556,1896,729,11.4764,-1.79876
679,295,11.4823,2.03583,0.0041791,0.00099494,-0.000511637,0.00425929,0.000914749,-0.15547,0.00258905,0.00867002,1903,729,11.4823,-2.03585
686,295,11.4907,2.21918,0.00622386,0.00154526,-0.000547504,0.00628708,0.00148204,-0.114954,0.00379509,0.00887095,1910,729,11.4907,-2.21915
693,295,11.4937,2.36566,0.00925696,0.00237299,-0.000504562,0.00929375,0.0023362,-0.0727769,0.00558249,0.0204632,1917,729,11.4936,-2.36566
700,295,11.5321,2.48236,0.0136892,0.00342111,-0.000358876,0.0137018,0.00340858,-0.0348938,0.00823686,0.0334664,1924,729,11.5321,-2.48234
707,295,11.6329,2.64569,0.0199559,0.00519183,5.71358e-05,0.0199561,0.0051916,0.00386985,0.0119554,0.0414094,1931,729,11.6329,-2.64569
714,295,11.7476,2.755,0,0,0,0,0,0,0,-1,1938,729,11.7476,-2.75502
721,295,12.4316,1.96307,0,0,0,0,0,0,0,-1,1945,729,12.4316,-1.96309
728,295,12.022,2.81757,0,0,0,0,0,0,0,-1,1952,729,12.022,-2.81756
735,295,0,0,0,0,0,0,0,0,0,-1,1959,729,0,0
742,295,0,0,0,0,0,0,0,0,0,-1,1966,729,0,0
749,295,0,0,0,0,0,0,0,0,0,-1,1973,729,0,0
756,295,0,0,0,0,0,0,0,0,0,-1,1980,729,0,0
763,295,0,0,0,0,0,0,0,0,0,-1,1987,729,0,0
770,295,0,0,0,0,0,0,0,0,0,-1,1994,729,0,0
777,295,0,0,0,0,0,0,0,0,0,-1,2001,729,0,0
784,295,0,0,0,0,0,0,0,0,0,-1,2008,729,0,0
791,295,0,0,0,0,0,0,0,0,0,-1,2015,729,0,0
798,295,0,0,0,0,0,0,0,0,0,-1,2022,729,0,0
805,295,0,0,0,0,0,0,0,0,0,-1,2029,729,0,0
812,295,0,0,0,0,0,0,0,0,0,-1,2036,729,0,0
-700,288,0,0,0,0,0,0,0,0,0,-1,524,736,0,0
-693,288,0,0,0,0,0,0,0,0,0,-1,531,736,0,0
-686,288,0,0,0,0,0,0,0,0,0,-1,538,736,0,0
-679,288,0,0,0,0,0,0,0,0,0,-1,545,736,0,0
-672,288,0,0,0,0,0,0,0,0,0,-1,552,736,0,0
-665,288,0,0,0,0,0,0,0,0,0,-1,559,736,0,0
-658,288,0,0,0,0,0,0,0,0,0,-1,566,736,0,0
-651,288,0,0,0,0,0,0,0,0,0,-1,573,736,0,0
-644,288,0,0,0,0,0,0,0,0,0,-1,580,736,0,0
-637,288,0,0,0,0,0,0,0,0,0,-1,587,736,0,0
-630,288,0,0,0,0,0,0,0,0,0,-1,594,736,0,0
-623,288,0,0,0,0,0,0,0,0,0,-1,601,736,0,0
-616,288,-5.71643,1.04651,0,0,0,0,0,0,0,-1,608,736,-5.71645,-1.0465
-609,288,-5.96265,0.715088,0,0,0,0,0,0,0,-1,615,736,-5.96266,-0.71509
-602,288,-6.20886,0.383667,0,0,0,0,0,0,0,-1,622,736,-6.20887,-0.383678
-595,288,-5.7287,2.38434,0,0,0,0,0,0,0,-1,629,736,-5.72871,-2.38432
-588,288,-8.48981,1.67902,0,0,0,0,0,0,0,-1,636,736,-8.48981,-1.67903
-581,288,-7.48547,1.25842,0.0251386,0.00367326,0.0180276,0.0353866,-0.00657466,0.516903,0.0260605,0.0491878,643,736,-7.48545,-1.25842
-574,288,-6.53296,0.69928,0.0200071,0.00441398,0.010957,0.0256583,-0.00123723,0.476178,0.0175325,0.0377824,650,736,-6.53298,-0.699287
-567,288,-6.45007,0.408997,0.014787,0.00476554,0.00531209,0.0170787,0.00247383,0.407291,0.0106573,0.0233536,657,736,-6.45007,-0.409003
-560,288,-6.60059,0.243896,0.0102204,0.00324581,0.00208447,0.0107959,0.00267032,0.269376,0.00649284,0.0129604,664,736,-6.60061,-0.243921
-553,288,-6.60846,0.117981,0.0063472,0.00241329,0.000540257,0.00642004,0.00234044,0.134028,0.00375168,0.0171697,671,736,-6.60846,-0.117964
-546,288,-6.63531,-0.0253906,0.00307914,0.00152917,0.000354249,0.00315627,0.00145204,0.214373,0.00182421,0.0185807,678,736,-6.63534,0.0253952
-539,288,-6.61591,-0.243164,0.000568948,0.000522006,0.000751567,0.00129741,-0.000206457,0.769788,0.000941336,0.0158832,685,736,-6.61591,0.243155
-532,288,-6.57831,-0.479675,-0.00168459,-0.000477433,0.00157338,0.000604163,-0.00276619,0.968552,0.00207504,0.0133585,692,736,-6.57829,0.479672
-525,288,-6.5816,-0.683594,-0.00412743,-0.00151546,0.0028369,0.000301628,-0.00594452,1.00111,0.00406729,0.0126534,699,736,-6.58161,0.683603
-518,288,-6.60461,-0.873657,-0.00656109,-0.002156,0.00506143,0.00116135,-0.00987844,0.990622,0.00700491,0.0115218,706,736,-6.60461,0.873643
-511,288,-6.60938,-1.07147,-0.00886453,-0.00287722,0.00865156,0.00328398,-0.0150257,0.951963,0.0112724,0.00817529,713,736,-6.60937,1.0715
-504,288,-6.60504,-1.25574,-0.0116311,-0.00378391,0.0125401,0.00543203,-0.0208471,0.937016,0.0160187,0.00972859,720,736,-6.60503,1.25572
-497,288,-6.59186,-1.38281,-0.0148164,-0.00435859,0.017201,0.00839066,-0.0275657,0.932955,0.0217211,0.0202411,727,736,-6.59186,1.38283
-490,288,-6.48505,-1.25763,0,0,0,0,0,0,0,-1,734,736,-6.48505,1.25763
-483,288,-6.32233,-0.240845,0,0,0,0,0,0,0,-1,741,736,-6.32234,0.240838
-476,288,-8.38318,1.95898,0,0,0,0,0,0,0,-1,748,736,-8.38317,-1.95898
-469,288,-8.71753,2.72607,0,0,0,0,0,0,0,-1,755,736,-8.7175,-2.72604
-462,288,-7.42029,0.701294,0,0,0,0,0,0,0,-1,762,736,-7.4203,-0.701265
-455,288,-8.23401,1.71796,0,0,0,0,0,0,0,-1,769,736,-8.23403,-1.71793
-448,288,-8.86658,2.85425,0,0,0,0,0,0,0,-1,776,736,-8.86657,-2.85426
-441,288,-9.15564,2.72253,0,0,0,0,0,0,0,-1,783,736,-9.15563,-2.72251
-434,288,-8.97516,2.36206,0,0,0,0,0,0,0,-1,790,736,-8.97518,-2.36207
-427,288,0,0,0,0,0,0,0,0,0,-1,797,736,0,0
-420,288,0,0,0,0,0,0,0,0,0,-1,804,736,0,0
-413,288,0,0,0,0,0,0,0,0,0,-1,811,736,0,0
-406,288,0,0,0,0,0,0,0,0,0,-1,818,736,0,0
-399,288,0,0,0,0,0,0,0,0,0,-1,825,736,0,0
-392,288,0,0,0,0,0,0,0,0,0,-1,832,736,0,0
-385,288,0,0,0,0,0,0,0,0,0,-1,839,736,0,0
-378,288,0,0,0,0,0,0,0,0,0,-1,846,736,0,0
-371,288,0,0,0,0,0,0,0,0,0,-1,853,736,0,0
-364,288,0,0,0,0,0,0,0,0,0,-1,860,736,0,0
-357,288,0,0,0,0,0,0,0,0,0,-1,867,736,0,0
-350,288,0,0,0,0,0,0,0,0,0,-1,874,736,0,0
-343,288,0,0,0,0,0,0,0,0,0,-1,881,736,0,0
-336,288,0,0,0,0,0,0,0,0,0,-1,888,736,0,0
-329,288,0,0,0,0,0,0,0,0,0,-1,895,736,0,0
-322,288,0,0,0,0,0,0,0,0,0,-1,902,736,0,0
-315,288,0,0,0,0,0,0,0,0,0,-1,909,736,0,0
-308,288,0,0,0,0,0,0,0,0,0,-1,916,736,0,0
-301,288,0,0,0,0,0,0,0,0,0,-1,923,736,0,0
-294,288,0,0,0,0,0,0,0,0,0,-1,930,736,0,0
-287,288,0,0,0,0,0,0,0,0,0,-1,937,736,0,0
-280,288,0,0,0,0,0,0,0,0,0,-1,944,736,0,0
-273,288,0,0,0,0,0,0,0,0,0,-1,951,736,0,0
-266,288,0,0,0,0,0,0,0,0,0,-1,958,736,0,0
-259,288,0,0,0,0,0,0,0,0,0,-1,965,736,0,0
-252,288,0,0,0,0,0,0,0,0,0,-1,972,736,0,0
-245,288,0,0,0,0,0,0,0,0,0,-1,979,736,0,0
-238,288,0,0,0,0,0,0,0,0,0,-1,986,736,0,0
-231,288,0,0,0,0,0,0,0,0,0,-1,993,736,0,0
-224,288,0,0,0,0,0,0,0,0,0,-1,1000,736,0,0
-217,288,0,0,0,0,0,0,0,0,0,-1,1007,736,0,0
-210,288,0,0,0,0,0,0,0,0,0,-1,1014,736,0,0
-203,288,0,0,0,0,0,0,0,0,0,-1,1021,736,0,0
-196,288,0,0,0,0,0,0,0,0,0,-1,1028,736,0,0
-189,288,0,0,0,0,0,0,0,0,0,-1,1035,736,0,0
-182,288,0,0,0,0,0,0,0,0,0,-1,1042,736,0,0
-175,288,0,0,0,0,0,0,0,0,0,-1,1049,736,0,0
-168,288,0,0,0,0,0,0,0,0,0,-1,1056,736,0,0
-161,288,0,0,0,0,0,0,0,0,0,-1,1063,736,0,0
-154,288,0,0,0,0,0,0,0,0,0,-1,1070,736,0,0
-147,288,0,0,0,0,0,0,0,0,0,-1,1077,736,0,0
-140,288,0,0,0,0,0,0,0,0,0,-1,1084,736,0,0
-133,288,0,0,0,0,0,0,0,0,0,-1,1091,736,0,0
-126,288,0,0,0,0,0,0,0,0,0,-1,1098,736,0,0
-119,288,0,0,0,0,0,0,0,0,0,-1,1105,736,0,0
-112,288,0,0,0,0,0,0,0,0,0,-1,1112,736,0,0
-105,288,0,0,0,0,0,0,0,0,0,-1,1119,736,0,0
-98,288,0,0,0,0,0,0,0,0,0,-1,1126,736,0,0
-91,288,0,0,0,0,0,0,0,0,0,-1,1133,736,0,0
-84,288,0,0,0,0,0,0,0,0,0,-1,1140,736,0,0
-77,288,0,0,0,0,0,0,0,0,0,-1,1147,736,0,0
-70,288,0,0,0,0,0,0,0,0,0,-1,1154,736,0,0
-63,288,0,0,0,0,0,0,0,0,0,-1,1161,736,0,0
-56,288,0,0,0,0,0,0,0,0,0,-1,1168,736,0,0
-49,288,0,0,0,0,0,0,0,0,0,-1,1175,736,0,0
-42,288,0,0,0,0,0,0,0,0,0,-1,1182,736,0,0
-35,288,0,0,0,0,0,0,0,0,0,-1,1189,736,0,0
-28,288,0,0,0,0,0,0,0,0,0,-1,1196,736,0,0
-21,288,0,0,0,0,0,0,0,0,0,-1,1203,736,0,0
-14,288,0,0,0,0,0,0,0,0,0,-1,1210,736,0,0
-7,288,0,0,0,0,0,0,0,0,0,-1,1217,736,0,0
0,288,0,0,0,0,0,0,0,0,0,-1,1224,736,0,0
7,288,0,0,0,0,0,0,0,0,0,-1,1231,736,0,0
14,288,0,0,0,0,0,0,0,0,0,-1,1238,736,0,0
21,288,0,0,0,0,0,0,0,0,0,-1,1245,736,0,0
28,288,0,0,0,0,0,0,0,0,0,-1,1252,736,0,0
35,288,0,0,0,0,0,0,0,0,0,-1,1259,736,0,0
42,288,0,0,0,0,0,0,0,0,0,-1,1266,736,0,0
49,288,0,0,0,0,0,0,0,0,0,-1,1273,736,0,0
56,288,0,0,0,0,0,0,0,0,0,-1,1280,736,0,0
63,288,0,0,0,0,0,0,0,0,0,-1,1287,736,0,0
70,288,0,0,0,0,0,0,0,0,0,-1,1294,736,0,0
77,288,0,0,0,0,0,0,0,0,0,-1,1301,736,0,0
84,288,0,0,0,0,0,0,0,0,0,-1,1308,736,0,0
91,288,0,0,0,0,0,0,0,0,0,-1,1315,736,0,0
98,288,0,0,0,0,0,0,0,0,0,-1,1322,736,0,0
105,288,0,0,0,0,0,0,0,0,0,-1,1329,736,0,0
112,288,0,0,0,0,0,0,0,0,0,-1,1336,736,0,0
119,288,0,0,0,0,0,0,0,0,0,-1,1343,736,0,0
126,288,0,0,0,0,0,0,0,0,0,-1,1350,736,0,0
133,288,0,0,0,0,0,0,0,0,0,-1,1357,736,0,0
140,288,0,0,0,0,0,0,0,0,0,-1,1364,736,0,0
147,288,0,0,0,0,0,0,0,0,0,-1,1371,736,0,0
154,288,0,0,0,0,0,0,0,0,0,-1,1378,736,0,0
161,288,0,0,0,0,0,0,0,0,0,-1,1385,736,0,0
168,288,0,0,0,0,0,0,0,0,0,-1,1392,736,0,0
175,288,0,0,0,0,0,0,0,0,0,-1,1399,736,0,0
182,288,0,0,0,0,0,0,0,0,0,-1,1406,736,0,0
189,288,0,0,0,0,0,0,0,0,0,-1,1413,736,0,0
196,288,0,0,0,0,0,0,0,0,0,-1,1420,736,0,0
203,288,0,0,0,0,0,0,0,0,0,-1,1427,736,0,0
210,288,0,0,0,0,0,0,0,0,0,-1,1434,736,0,0
217,288,0,0,0,0,0,0,0,0,0,-1,1441,736,0,0
224,288,0,0,0,0,0,0,0,0,0,-1,1448,736,0,0
231,288,0,0,0,0,0,0,0,0,0,-1,1455,736,0,0
238,288,0,0,0,0,0,0,0,0,0,-1,1462,736,0,0
245,288,0,0,0,0,0,0,0,0,0,-1,1469,736,0,0
252,288,0,0,0,0,0,0,0,0,0,-1,1476,736,0,0
259,288,0,0,0,0,0,0,0,0,0,-1,1483,736,0,0
266,288,0,0,0,0,0,0,0,0,0,-1,1490,736,0,0
273,288,0,0,0,0,0,0,0,0,0,-1,1497,736,0,0
280,288,0,0,0,0,0,0,0,0,0,-1,1504,736,0,0
287,288,0,0,0,0,0,0,0,0,0,-1,1511,736,0,0
294,288,0,0,0,0,0,0,0,0,0,-1,1518,736,0,0
301,288,0,0,0,0,0,0,0,0,0,-1,1525,736,0,0
308,288,0,0,0,0,0,0,0,0,0,-1,1532,736,0,0
315,288,0,0,0,0,0,0,0,0,0,-1,1539,736,0,0
322,288,0,0,0,0,0,0,0,0,0,-1,1546,736,0,0
329,288,0,0,0,0,0,0,0,0,0,-1,1553,736,0,0
336,288,0,0,0,0,0,0,0,0,0,-1,1560,736,0,0
343,288,0,0,0,0,0,0,0,0,0,-1,1567,736,0,0
350,288,0,0,0,0,0,0,0,0,0,-1,1574,736,0,0
357,288,0,0,0,0,0,0,0,0,0,-1,1581,736,0,0
364,288,0,0,0,0,0,0,0,0,0,-1,1588,736,0,0
371,288,0,0,0,0,0,0,0,0,0,-1,1595,736,0,0
378,288,0,0,0,0,0,0,0,0,0,-1,1602,736,0,0
385,288,0,0,0,0,0,0,0,0,0,-1,1609,736,0,0
392,288,0,0,0,0,0,0,0,0,0,-1,1616,736,0,0
399,288,0,0,0,0,0,0,0,0,0,-1,1623,736,0,0
406,288,0,0,0,0,0,0,0,0,0,-1,1630,736,0,0
413,288,0,0,0,0,0,0,0,0,0,-1,1637,736,0,0
420,288,0,0,0,0,0,0,0,0,0,-1,1644,736,0,0
427,288,0,0,0,0,0,0,0,0,0,-1,1651,736,0,0
434,288,0,0,0,0,0,0,0,0,0,-1,1658,736,0,0
441,288,0,0,0,0,0,0,0,0,0,-1,1665,736,0,0
448,288,0,0,0,0,0,0,0,0,0,-1,1672,736,0,0
455,288,0,0,0,0,0,0,0,0,0,-1,1679,736,0,0
462,288,0,0,0,0,0,0,0,0,0,-1,1686,736,0,0
469,288,0,0,0,0,0,0,0,0,0,-1,1693,736,0,0
476,288,0,0,0,0,0,0,0,0,0,-1,1700,736,0,0
483,288,0,0,0,0,0,0,0,0,0,-1,1707,736,0,0
490,288,0,0,0,0,0,0,0,0,0,-1,1714,736,0,0
497,288,0,0,0,0,0,0,0,0,0,-1,1721,736,0,0
504,288,0,0,0,0,0,0,0,0,0,-1,1728,736,0,0
511,288,0,0,0,0,0,0,0,0,0,-1,1735,736,0,0
518,288,0,0,0,0,0,0,0,0,0,-1,1742,736,0,0
525,288,0,0,0,0,0,0,0,0,0,-1,1749,736,0,0
532,288,0,0,0,0,0,0,0,0,0,-1,1756,736,0,0
539,288,0,0,0,0,0,0,0,0,0,-1,1763,736,0,0
546,288,0,0,0,0,0,0,0,0,0,-1,1770,736,0,0
553,288,18.047,1.76001,0,0,0,0,0,0,0,-1,1777,736,18.047,-1.75999
560,288,16.978,3.67285,0,0,0,0,0,0,0,-1,1784,736,16.978,-3.67284
567,288,17.0891,2.53345,0.0169282,0.0300493,-0.0138496,0.0388136,0.0081639,-1.00659,0.0236293,0.0453122,1791,736,17.0891,-2.53344
574,288,17.2621,2.80676,0.0217861,0.0226293,-0.0102406,0.032457,0.0119585,-0.805972,0.018954,0.047067,1798,736,17.2621,-2.80675
581,288,17.35,2.94165,0.0221938,0.0174583,-0.00800911,0.0281778,0.0114743,-0.641674,0.0163616,0.048443,1805,736,17.35,-2.94163
588,288,17.7864,3.06555,0.0214897,0.0129448,-0.00657303,0.0250568,0.00937773,-0.497211,0.0146183,0.0487416,1812,736,17.7863,-3.06558
595,288,17.8455,3.37854,0,0,0,0,0,0,0,-1,1819,736,17.8454,-3.37855
602,288,17.8647,3.80774,0,0,0,0,0,0,0,-1,1826,736,17.8647,-3.80773
609,288,17.6804,2.49548,0,0,0,0,0,0,0,-1,1833,736,17.6805,-2.49546
616,288,12.2759,0.423157,0,0,0,0,0,0,0,-1,1840,736,12.2759,-0.423153
623,288,11.9449,0.558838,0.00914042,0.0032492,-0.000837841,0.00925726,0.00313236,-0.138559,0.00543697,0.0496363,1847,736,11.9449,-0.558858
630,288,11.6552,0.566101,0.00569134,0.00207434,-0.00109891,0.00599903,0.00176665,-0.273007,0.00355973,0.0193976,1854,736,11.6551,-0.566126
637,288,11.6898,0.773987,0.00292757,0.00125484,-0.000306005,0.00298179,0.00120062,-0.175374,0.00173238,0.00991001,1861,736,11.6898,-0.773977
644,288,11.7103,0.990723,0.00070724,0.000327489,0.000181962,0.000780352,0.000254376,0.382059,0.000459543,0.00983569,1868,736,11.7103,-0.990692
651,288,11.7173,1.20496,0.000276078,0.000267318,0.000140303,0.00041207,0.000131327,0.769794,0.000243066,0.0110588,1875,736,11.7173,-1.20495
658,288,11.7025,1.40271,3.87634e-05,-5.28422e-05,0.00018361,0.000182197,-0.000196276,0.663164,0.000218562,0.0161241,1882,736,11.7026,-1.40269
665,288,11.6958,1.59076,0.00062837,-0.000181694,-0.000129088,0.000648443,-0.000201768,-0.154267,0.000512954,0.0174981,1889,736,11.6958,-1.59079
672,288,11.6925,1.79321,0.00199089,0.000162866,-0.000550423,0.00214383,9.9279e-06,-0.271019,0.00142592,0.0142792,1896,736,11.6925,-1.79324
679,288,11.7015,2.02246,0.00375026,0.000714977,-0.000560445,0.00385043,0.000614801,-0.176876,0.00238854,0.0114182,1903,736,11.7016,-2.02247
686,288,11.6971,2.19006,0.00564388,0.00120956,-0.000674516,0.00574422,0.00110922,-0.147664,0.00351851,0.00917389,1910,736,11.6971,-2.19007
693,288,11.7115,2.39764,0.00843515,0.00194442,-0.000747793,0.00852019,0.00185938,-0.113233,0.00517295,0.0116495,1917,736,11.7115,-2.39763
700,288,11.7042,2.59485,0.0124919,0.00286721,-0.000773314,0.0125536,0.00280547,-0.079666,0.00760833,0.0219613,1924,736,11.7042,-2.59485
707,288,11.8036,2.64136,0.0182865,0.00441597,-0.000599104,0.0183124,0.00439014,-0.0430855,0.0110398,0.0361762,1931,736,11.8036,-2.64137
714,288,12.021,2.3913,0,0,0,0,0,0,0,-1,1938,736,12.021,-2.39128
721,288,12.8732,1.92072,0,0,0,0,0,0,0,-1,1945,736,12.8732,-1.9207
728,288,13.7018,1.70667,0,0,0,0,0,0,0,-1,1952,736,13.7018,-1.70667
735,288,14.1078,2.97913,0,0,0,0,0,0,0,-1,1959,736,14.1078,-2.97914
742,288,0,0,0,0,0,0,0,0,0,-1,1966,736,0,0
749,288,0,0,0,0,0,0,0,0,0,-1,1973,736,0,0
756,288,0,0,0,0,0,0,0,0,0,-1,1980,736,0,0
763,288,0,0,0,0,0,0,0,0,0,-1,1987,736,0,0
770,288,0,0,0,0,0,0,0,0,0,-1,1994,736,0,0
777,288,0,0,0,0,0,0,0,0,0,-1,2001,736,0,0
784,288,0,0,0,0,0,0,0,0,0,-1,2008,736,0,0
791,288,0,0,0,0,0,0,0,0,0,-1,2015,736,0,0
798,288,0,0,0,0,0,0,0,0,0,-1,2022,736,0,0
805,288,0,0,0,0,0,0,0,0,0,-1,2029,736,0,0
812,288,0,0,0,0,0,0,0,0,0,-1,2036,736,0,0
-700,281,0,0,0,0,0,0,0,0,0,-1,524,743,0,0
-693,281,0,0,0,0,0,0,0,0,0,-1,531,743,0,0
-686,281,0,0,0,0,0,0,0,0,0,-1,538,743,0,0
-679,281,0,0,0,0,0,0,0,0,0,-1,545,743,0,0
-672,281,0,0,0,0,0,0,0,0,0,-1,552,743,0,0
-665,281,0,0,0,0,0,0,0,0,0,-1,559,743,0,0
-658,281,0,0,0,0,0,0,0,0,0,-1,566,743,0,0
-651,281,0,0,0,0,0,0,0,0,0,-1,573,743,0,0
-644,281,0,0,0,0,0,0,0,0,0,-1,580,743,0,0
-637,281,0,0,0,0,0,0,0,0,0,-1,587,743,0,0
-630,281,0,0,0,0,0,0,0,0,0,-1,594,743,0,0
-623,281,-6.97223,-1.43005,0,0,0,0,0,0,0,-1,601,743,-6.9722,1.43002
-616,281,-6.39777,0.591125,0.046628,-0.0120112,0.0863625,0.108512,-0.0738953,0.621755,0.105943,0.0468394,608,743,-6.39779,-0.591142
-609,281,-6.71674,0.592224,0.0441283,-0.00512426,0.066811,0.0907071,-0.051703,0.608826,0.0832421,0.0460305,615,743,-6.71676,-0.592226
-602,281,-7.1803,0.956177,0,0,0,0,0,0,0,-1,622,743,-7.18027,-0.956157
-595,281,-5.39661,1.9082,0,0,0,0,0,0,0,-1,629,743,-5.3966,-1.9082
-588,281,-6.96643,1.47455,0,0,0,0,0,0,0,-1,636,743,-6.96642,-1.47455
-581,281,-7.94354,0.972961,0.028252,0.00521546,0.0170214,0.0372861,-0.0038186,0.487942,0.0262231,0.0464429,643,743,-7.94354,-0.972982
-574,281,-6.68689,0.643982,0.0226751,0.00570005,0.0104441,0.0276456,0.000729586,0.444191,0.0181921,0.0259994,650,743,-6.68689,-0.643988
-567,281,-6.77228,0.431946,0.017409,0.00574552,0.00520151,0.0193917,0.00376286,0.36417,0.0118739,0.0125202,657,743,-6.77231,-0.431924
-560,281,-6.8042,0.247131,0.0124792,0.00383334,0.00242284,0.0131119,0.00320069,0.25542,0.00789371,0.00855524,664,743,-6.80419,-0.247149
-553,281,-6.79242,0.0889893,0.00815523,0.00285003,0.0009219,0.00831086,0.0026944,0.167243,0.00489614,0.0131353,671,743,-6.79242,-0.0889615
-546,281,-6.80219,-0.0632935,0.00430371,0.00178092,0.000801469,0.00453679,0.00154784,0.283016,0.002663,0.015134,678,743,-6.80218,0.0633118
-539,281,-6.78308,-0.267761,0.00116109,0.000556567,0.00125571,0.00215041,-0.000432751,0.667291,0.00159751,0.0137584,685,743,-6.78306,0.267736
-532,281,-6.76489,-0.464294,-0.00170162,-0.000663399,0.0021953,0.00107333,-0.00343834,0.901498,0.0027215,0.0126757,692,743,-6.76491,0.46428
-525,281,-6.7757,-0.667847,-0.00470984,-0.00189977,0.00364896,0.000605314,-0.00721492,0.969174,0.00502389,0.0138164,699,743,-6.77569,0.667832
-518,281,-6.79364,-0.882507,-0.00771882,-0.00265601,0.0061845,0.00149511,-0.0118699,0.979653,0.00845583,0.0119673,706,743,-6.79363,0.882524
-511,281,-6.80505,-1.08417,-0.0106962,-0.00339779,0.010076,0.00366951,-0.0177635,0.959134,0.0132361,0.0108427,713,743,-6.80507,1.08416
-504,281,-6.80688,-1.2619,-0.0141381,-0.00423206,0.014249,0.00590021,-0.0242704,0.952669,0.018464,0.0128694,720,743,-6.80687,1.26192
-497,281,-6.74365,-1.43579,-0.0179408,-0.00472266,0.0192292,0.0090015,-0.031665,0.950924,0.0246643,0.0351639,727,743,-6.74367,1.43577
-490,281,-6.79785,-1.4104,-0.0222396,-0.00507206,0.0255281,0.0132768,-0.0405884,0.947584,0.0324042,0.0478928,734,743,-6.79784,1.41039
-483,281,-6.79694,-1.29871,0,0,0,0,0,0,0,-1,741,743,-6.79692,1.2987
-476,281,-9.01056,2.13123,0,0,0,0,0,0,0,-1,748,743,-9.01054,-2.13122
-469,281,-7.61462,-0.363159,0,0,0,0,0,0,0,-1,755,743,-7.61464,0.363137
-462,281,-8.21814,0.905273,-0.035055,-0.00273316,0.0600954,0.0433364,-0.0811246,0.916751,0.0729532,0.047515,762,743,-8.21817,-0.905273
-455,281,-8.95117,1.94861,0,0,0,0,0,0,0,-1,769,743,-8.95117,-1.94859
-448,281,-9.92712,2.74493,0,0,0,0,0,0,0,-1,776,743,-9.92714,-2.7449
-441,281,-10.9891,3.49957,0,0,0,0,0,0,0,-1,783,743,-10.9891,-3.49957
-434,281,0,0,0,0,0,0,0,0,0,-1,790,743,0,0
-427,281,0,0,0,0,0,0,0,0,0,-1,797,743,0,0
-420,281,0,0,0,0,0,0,0,0,0,-1,804,743,0,0
-413,281,0,0,0,0,0,0,0,0,0,-1,811,743,0,0
-406,281,0,0,0,0,0,0,0,0,0,-1,818,743,0,0
-399,281,0,0,0,0,0,0,0,0,0,-1,825,743,0,0
-392,281,0,0,0,0,0,0,0,0,0,-1,832,743,0,0
-385,281,0,0,0,0,0,0,0,0,0,-1,839,743,0,0
-378,281,0,0,0,0,0,0,0,0,0,-1,846,743,0,0
-371,281,0,0,0,0,0,0,0,0,0,-1,853,743,0,0
-364,281,0,0,0,0,0,0,0,0,0,-1,860,743,0,0
-357,281,0,0,0,0,0,0,0,0,0,-1,867,743,0,0
-350,281,0,0,0,0,0,0,0,0,0,-1,874,743,0,0
-343,281,0,0,0,0,0,0,0,0,0,-1,881,743,0,0
-336,281,0,0,0,0,0,0,0,0,0,-1,888,743,0,0
-329,281,0,0,0,0,0,0,0,0,0,-1,895,743,0,0
-322,281,0,0,0,0,0,0,0,0,0,-1,902,743,0,0
-315,281,0,0,0,0,0,0,0,0,0,-1,909,743,0,0
-308,281,0,0,0,0,0,0,0,0,0,-1,916,743,0,0
-301,281,0,0,0,0,0,0,0,0,0,-1,923,743,0,0
-294,281,0,0,0,0,0,0,0,0,0,-1,930,743,0,0
-287,281,0,0,0,0,0,0,0,0,0,-1,937,743,0,0
-280,281,0,0,0,0,0,0,0,0,0,-1,944,743,0,0
-273,281,0,0,0,0,0,0,0,0,0,-1,951,743,0,0
-266,281,0,0,0,0,0,0,0,0,0,-1,958,743,0,0
-259,281,0,0,0,0,0,0,0,0,0,-1,965,743,0,0
-252,281,0,0,0,0,0,0,0,0,0,-1,972,743,0,0
-245,281,0,0,0,0,0,0,0,0,0,-1,979,743,0,0
-238,281,0,0,0,0,0,0,0,0,0,-1,986,743,0,0
-231,281,0,0,0,0,0,0,0,0,0,-1,993,743,0,0
-224,281,0,0,0,0,0,0,0,0,0,-1,1000,743,0,0
-217,281,0,0,0,0,0,0,0,0,0,-1,1007,743,0,0
-210,281,0,0,0,0,0,0,0,0,0,-1,1014,743,0,0
-203,281,0,0,0,0,0,0,0,0,0,-1,1021,743,0,0
-196,281,0,0,0,0,0,0,0,0,0,-1,1028,743,0,0
-189,281,0,0,0,0,0,0,0,0,0,-1,1035,743,0,0
-182,281,0,0,0,0,0,0,0,0,0,-1,1042,743,0,0
-175,281,0,0,0,0,0,0,0,0,0,-1,1049,743,0,0
-168,281,0,0,0,0,0,0,0,0,0,-1,1056,743,0,0
-161,281,0,0,0,0,0,0,0,0,0,-1,1063,743,0,0
-154,281,0,0,0,0,0,0,0,0,0,-1,1070,743,0,0
-147,281,0,0,0,0,0,0,0,0,0,-1,1077,743,0,0
-140,281,0,0,0,0,0,0,0,0,0,-1,1084,743,0,0
-133,281,0,0,0,0,0,0,0,0,0,-1,1091,743,0,0
-126,281,0,0,0,0,0,0,0,0,0,-1,1098,743,0,0
-119,281,0,0,0,0,0,0,0,0,0,-1,1105,743,0,0
-112,281,0,0,0,0,0,0,0,0,0,-1,1112,743,0,0
-105,281,0,0,0,0,0,0,0,0,0,-1,1119,743,0,0
-98,281,0,0,0,0,0,0,0,0,0,-1,1126,743,0,0
-91,281,0,0,0,0,0,0,0,0,0,-1,1133,743,0,0
-84,281,0,0,0,0,0,0,0,0,0,-1,1140,743,0,0
-77,281,0,0,0,0,0,0,0,0,0,-1,1147,743,0,0
-70,281,0,0,0,0,0,0,0,0,0,-1,1154,743,0,0
-63,281,0,0,0,0,0,0,0,0,0,-1,1161,743,0,0
-56,281,0,0,0,0,0,0,0,0,0,-1,1168,743,0,0
-49,281,0,0,0,0,0,0,0,0,0,-1,1175,743,0,0
-42,281,0,0,0,0,0,0,0,0,0,-1,1182,743,0,0
-35,281,0,0,0,0,0,0,0,0,0,-1,1189,743,0,0
-28,281,0,0,0,0,0,0,0,0,0,-1,1196,743,0,0
-21,281,0,0,0,0,0,0,0,0,0,-1,1203,743,0,0
-14,281,0,0,0,0,0,0,0,0,0,-1,1210,743,0,0
-7,281,0,0,0,0,0,0,0,0,0,-1,1217,743,0,0
0,281,0,0,0,0,0,0,0,0,0,-1,1224,743,0,0
7,281,0,0,0,0,0,0,0,0,0,-1,1231,743,0,0
14,281,0,0,0,0,0,0,0,0,0,-1,1238,743,0,0
21,281,0,0,0,0,0,0,0,0,0,-1,1245,743,0,0
28,281,0,0,0,0,0,0,0,0,0,-1,1252,743,0,0
35,281,0,0,0,0,0,0,0,0,0,-1,1259,743,0,0
42,281,0,0,0,0,0,0,0,0,0,-1,1266,743,0,0
49,281,0,0,0,0,0,0,0,0,0,-1,1273,743,0,0
56,281,0,0,0,0,0,0,0,0,0,-1,1280,743,0,0
63,281,0,0,0,0,0,0,0,0,0,-1,1287,743,0,0
70,281,0,0,0,0,0,0,0,0,0,-1,1294,743,0,0
77,281,0,0,0,0,0,0,0,0,0,-1,1301,743,0,0
84,281,0,0,0,0,0,0,0,0,0,-1,1308,743,0,0
91,281,0,0,0,0,0,0,0,0,0,-1,1315,743,0,0
98,281,0,0,0,0,0,0,0,0,0,-1,1322,743,0,0
105,281,0,0,0,0,0,0,0,0,0,-1,1329,743,0,0
112,281,0,0,0,0,0,0,0,0,0,-1,1336,743,0,0
119,281,0,0,0,0,0,0,0,0,0,-1,1343,743,0,0
126,281,0,0,0,0,0,0,0,0,0,-1,1350,743,0,0
133,281,0,0,0,0,0,0,0,0,0,-1,1357,743,0,0
140,281,0,0,0,0,0,0,0,0,0,-1,1364,743,0,0
147,281,0,0,0,0,0,0,0,0,0,-1,1371,743,0,0
154,281,0,0,0,0,0,0,0,0,0,-1,1378,743,0,0
161,281,0,0,0,0,0,0,0,0,0,-1,1385,743,0,0
168,281,0,0,0,0,0,0,0,0,0,-1,1392,743,0,0
175,281,0,0,0,0,0,0,0,0,0,-1,1399,743,0,0
182,281,0,0,0,0,0,0,0,0,0,-1,1406,743,0,0
189,281,0,0,0,0,0,0,0,0,0,-1,1413,743,0,0
196,281,0,0,0,0,0,0,0,0,0,-1,1420,743,0,0
203,281,0,0,0,0,0,0,0,0,0,-1,1427,743,0,0
210,281,0,0,0,0,0,0,0,0,0,-1,1434,743,0,0
217,281,0,0,0,0,0,0,0,0,0,-1,1441,743,0,0
224,281,0,0,0,0,0,0,0,0,0,-1,1448,743,0,0
231,281,0,0,0,0,0,0,0,0,0,-1,1455,743,0,0
238,281,0,0,0,0,0,0,0,0,0,-1,1462,743,0,0
245,281,0,0,0,0,0,0,0,0,0,-1,1469,743,0,0
252,281,0,0,0,0,0,0,0,0,0,-1,1476,743,0,0
259,281,0,0,0,0,0,0,0,0,0,-1,1483,743,0,0
266,281,0,0,0,0,0,0,0,0,0,-1,1490,743,0,0
273,281,0,0,0,0,0,0,0,0,0,-1,1497,743,0,0
280,281,0,0,0,0,0,0,0,0,0,-1,1504,743,0,0
287,281,0,0,0,0,0,0,0,0,0,-1,1511,743,0,0
294,281,0,0,0,0,0,0,0,0,0,-1,1518,743,0,0
301,281,0,0,0,0,0,0,0,0,0,-1,1525,743,0,0
308,281,0,0,0,0,0,0,0,0,0,-1,1532,743,0,0
315,281,0,0,0,0,0,0,0,0,0,-1,1539,743,0,0
322,281,0,0,0,0,0,0,0,0,0,-1,1546,743,0,0
329,281,0,0,0,0,0,0,0,0,0,-1,1553,743,0,0
336,281,0,0,0,0,0,0,0,0,0,-1,1560,743,0,0
343,281,0,0,0,0,0,0,0,0,0,-1,1567,743,0,0
350,281,0,0,0,0,0,0,0,0,0,-1,1574,743,0,0
357,281,0,0,0,0,0,0,0,0,0,-1,1581,743,0,0
364,281,0,0,0,0,0,0,0,0,0,-1,1588,743,0,0
371,281,0,0,0,0,0,0,0,0,0,-1,1595,743,0,0
378,281,0,0,0,0,0,0,0,0,0,-1,1602,743,0,0
385,281,0,0,0,0,0,0,0,0,0,-1,1609,743,0,0
392,281,0,0,0,0,0,0,0,0,0,-1,1616,743,0,0
399,281,0,0,0,0,0,0,0,0,0,-1,1623,743,0,0
406,281,0,0,0,0,0,0,0,0,0,-1,1630,743,0,0
413,281,0,0,0,0,0,0,0,0,0,-1,1637,743,0,0
420,281,0,0,0,0,0,0,0,0,0,-1,1644,743,0,0
427,281,0,0,0,0,0,0,0,0,0,-1,1651,743,0,0
434,281,0,0,0,0,0,0,0,0,0,-1,1658,743,0,0
441,281,0,0,0,0,0,0,0,0,0,-1,1665,743,0,0
448,281,0,0,0,0,0,0,0,0,0,-1,1672,743,0,0
455,281,0,0,0,0,0,0,0,0,0,-1,1679,743,0,0
462,281,0,0,0,0,0,0,0,0,0,-1,1686,743,0,0
469,281,0,0,0,0,0,0,0,0,0,-1,1693,743,0,0
476,281,0,0,0,0,0,0,0,0,0,-1,1700,743,0,0
483,281,0,0,0,0,0,0,0,0,0,-1,1707,743,0,0
490,281,0,0,0,0,0,0,0,0,0,-1,1714,743,0,0
497,281,0,0,0,0,0,0,0,0,0,-1,1721,743,0,0
504,281,0,0,0,0,0,0,0,0,0,-1,1728,743,0,0
511,281,0,0,0,0,0,0,0,0,0,-1,1735,743,0,0
518,281,0,0,0,0,0,0,0,0,0,-1,1742,743,0,0
525,281,0,0,0,0,0,0,0,0,0,-1,1749,743,0,0
532,281,0,0,0,0,0,0,0,0,0,-1,1756,743,0,0
539,281,0,0,0,0,0,0,0,0,0,-1,1763,743,0,0
546,281,0,0,0,0,0,0,0,0,0,-1,1770,743,0,0
553,281,0,0,0,0,0,0,0,0,0,-1,1777,743,0,0
560,281,17.3096,3.29993,-0.00818946,0.0363873,-0.0223044,0.0456308,-0.0174329,-1.17792,0.0376035,0.0486213,1784,743,17.3095,-3.29993
567,281,16.9985,2.88196,0.0130558,0.0258027,-0.0161166,0.0367604,0.00209819,-0.973691,0.0238383,0.0419846,1791,743,16.9985,-2.88198
574,281,17.1624,2.76593,0.0211463,0.0194143,-0.0113472,0.0316605,0.00890016,-0.747314,0.018854,0.0442186,1798,743,17.1623,-2.76592
581,281,17.5048,2.81171,0.0225363,0.015102,-0.00858012,0.0281698,0.00946847,-0.58099,0.0165525,0.0424657,1805,743,17.5048,-2.81173
588,281,17.8623,2.65997,0.0216371,0.0116666,-0.00676611,0.0250562,0.00824753,-0.467899,0.014745,0.0422933,1812,743,17.8624,-2.65998
595,281,18.4636,2.41333,0,0,0,0,0,0,0,-1,1819,743,18.4636,-2.41335
602,281,16.0502,3.49261,0,0,0,0,0,0,0,-1,1826,743,16.0502,-3.4926
609,281,15.8187,3.76251,0,0,0,0,0,0,0,-1,1833,743,15.8187,-3.76251
616,281,16.0756,3.79248,0,0,0,0,0,0,0,-1,1840,743,16.0755,-3.79247
623,281,12.2069,0.765808,0,0,0,0,0,0,0,-1,1847,743,12.2069,-0.765803
630,281,11.7848,0.560547,0.00629805,0.00218711,-0.00068226,0.00640832,0.00207684,-0.160241,0.0037754,0.0352633,1854,743,11.7848,-0.560535
637,281,11.8822,0.77063,0.00361754,0.00141622,0.000106606,0.0036227,0.00141107,0.0482778,0.00210852,0.0124847,1861,743,11.8822,-0.770624
644,281,11.9186,0.992676,0.00125572,0.000473409,0.000606829,0.00158654,0.000142592,0.499117,0.00101351,0.00999513,1868,743,11.9185,-0.992683
651,281,11.9406,1.20477,0.000561732,0.000364182,0.000463848,0.000937205,-1.12912e-05,0.680492,0.000628601,0.0113666,1875,743,11.9405,-1.2048
658,281,11.9185,1.41479,-6.55838e-06,-8.45875e-05,0.000448428,0.000404549,-0.000495695,0.742006,0.000520643,0.019326,1882,743,11.9184,-1.41479
665,281,11.9014,1.60291,0.0003989,-0.000413028,-3.2311e-05,0.000400184,-0.000414312,-0.0397117,0.000470273,0.0212429,1889,743,11.9013,-1.60289
672,281,11.9028,1.79681,0.00173549,-0.000164455,-0.000719276,0.00197707,-0.000406038,-0.324032,0.00147218,0.0127882,1896,743,11.9028,-1.7968
679,281,11.9065,1.99384,0.00335263,0.000325335,-0.000835269,0.0035678,0.000110167,-0.252121,0.00234268,0.0180656,1903,743,11.9065,-1.99385
686,281,11.8975,2.17371,0.00508789,0.000721506,-0.00102977,0.00531856,0.000490832,-0.220368,0.00339395,0.013372,1910,743,11.8975,-2.17371
693,281,11.9041,2.38776,0.00767055,0.00131163,-0.00121163,0.00789359,0.00108859,-0.182046,0.00493968,0.0102897,1917,743,11.9041,-2.38776
700,281,11.8993,2.63605,0.0114187,0.00206505,-0.00135737,0.0116117,0.00187206,-0.141237,0.00719869,0.01762,1924,743,11.8993,-2.63608
707,281,11.8881,2.70428,0.0168212,0.00335435,-0.00133189,0.0169516,0.00322389,-0.0976415,0.0103945,0.0343275,1931,743,11.888,-2.70427
714,281,11.8514,3.05939,0,0,0,0,0,0,0,-1,1938,743,11.8514,-3.0594
721,281,12.0803,3.48981,0,0,0,0,0,0,0,-1,1945,743,12.0803,-3.48981
728,281,12.7452,3.61176,0,0,0,0,0,0,0,-1,1952,743,12.7452,-3.61173
735,281,14.3514,2.78046,0,0,0,0,0,0,0,-1,1959,743,14.3514,-2.78045
742,281,0,0,0,0,0,0,0,0,0,-1,1966,743,0,0
749,281,0,0,0,0,0,0,0,0,0,-1,1973,743,0,0
756,281,0,0,0,0,0,0,0,0,0,-1,1980,743,0,0
763,281,0,0,0,0,0,0,0,0,0,-1,1987,743,0,0
770,281,0,0,0,0,0,0,0,0,0,-1,1994,743,0,0
777,281,0,0,0,0,0,0,0,0,0,-1,2001,743,0,0
784,281,0,0,0,0,0,0,0,0,0,-1,2008,743,0,0
791,281,0,0,0,0,0,0,0,0,0,-1,2015,743,0,0
798,281,0,0,0,0,0,0,0,0,0,-1,2022,743,0,0
805,281,0,0,0,0,0,0,0,0,0,-1,2029,743,0,0
812,281,0,0,0,0,0,0,0,0,0,-1,2036,743,0,0
-700,274,0,0,0,0,0,0,0,0,0,-1,524,750,0,0
-693,274,0,0,0,0,0,0,0,0,0,-1,531,750,0,0
-686,274,0,0,0,0,0,0,0,0,0,-1,538,750,0,0
-679,274,0,0,0,0,0,0,0,0,0,-1,545,750,0,0
-672,274,0,0,0,0,0,0,0,0,0,-1,552,750,0,0
-665,274,0,0,0,0,0,0,0,0,0,-1,559,750,0,0
-658,274,0,0,0,0,0,0,0,0,0,-1,566,750,0,0
-651,274,0,0,0,0,0,0,0,0,0,-1,573,750,0,0
-644,274,0,0,0,0,0,0,0,0,0,-1,580,750,0,0
-637,274,0,0,0,0,0,0,0,0,0,-1,587,750,0,0
-630,274,0,0,0,0,0,0,0,0,0,-1,594,750,0,0
-623,274,-8.10529,-0.865417,0.0498559,-0.0228113,0.0948878,0.115129,-0.088084,0.602554,0.117671,0.0479224,601,750,-8.10529,0.865399
-616,274,-7.21173,0.24585,0.0491994,-0.0131846,0.0761264,0.100276,-0.0642615,0.590961,0.0957514,0.0484583,608,750,-7.21175,-0.245869
-609,274,-7.44617,0.460754,0.046603,-0.00647147,0.0591704,0.0849145,-0.044783,0.5746,0.0760664,0.0453051,615,750,-7.44618,-0.460782
-602,274,-7.5459,0.770386,0.0431539,-0.00186358,0.0446777,0.0706725,-0.0293823,0.552056,0.0593837,0.0453475,622,750,-7.54592,-0.770386
-595,274,-7.13361,0.907043,0,0,0,0,0,0,0,-1,629,750,-7.13363,-0.907017
-588,274,-7.13275,1.12006,0.0338401,0.00280542,0.0227738,0.0458806,-0.00923511,0.486343,0.034085,0.0495575,636,750,-7.13273,-1.12006
-581,274,-6.90485,0.835999,0.0281956,0.00381562,0.0151079,0.0354181,-0.00340687,0.445943,0.0248257,0.0378436,643,750,-6.90483,-0.836015
-574,274,-6.90302,0.629456,0.022491,0.00437588,0.00921423,0.026354,0.000512857,0.396986,0.0174009,0.0184722,650,750,-6.903,-0.629461
-567,274,-6.9765,0.44043,0.0174513,0.00450331,0.00452361,0.0188752,0.00307949,0.304937,0.0116929,0.0168186,657,750,-6.97648,-0.440406
-560,274,-6.9873,0.270203,0.012438,0.00277211,0.0021256,0.0128848,0.00232532,0.207176,0.00792922,0.0145039,664,750,-6.98732,-0.2702
-553,274,-6.97644,0.0823364,0.00801298,0.00200658,0.000870775,0.00813667,0.00188288,0.141105,0.00491846,0.00936521,671,750,-6.97643,-0.0823644
-546,274,-6.98926,-0.105774,0.003987,0.00106843,0.000997252,0.00429521,0.000760225,0.299743,0.00264671,0.0110151,678,750,-6.98928,0.105746
-539,274,-6.97559,-0.291504,0.000633528,-7.09662e-05,0.00161248,0.00193179,-0.00136922,0.677862,0.00191504,0.0117638,685,750,-6.97558,0.291495
-532,274,-6.96863,-0.466675,-0.00247526,-0.00124859,0.00272935,0.000935489,-0.00465934,0.895922,0.00346046,0.012048,692,750,-6.9686,0.466697
-525,274,-6.97931,-0.651428,-0.0057044,-0.00245547,0.00439561,0.000606247,-0.00876611,0.962397,0.00605628,0.0116178,699,750,-6.97932,0.651452
-518,274,-6.98383,-0.862122,-0.00898117,-0.00315426,0.00717288,0.00167427,-0.0138097,0.978308,0.0098123,0.0120286,706,750,-6.9838,0.862118
-511,274,-6.98749,-1.07928,-0.0123588,-0.00377374,0.0111986,0.00392683,-0.0200593,0.968416,0.0148559,0.0122664,713,750,-6.98748,1.0793
-504,274,-6.98792,-1.27313,-0.0162686,-0.00442482,0.0154763,0.00622393,-0.0269173,0.968125,0.0203395,0.0211624,720,750,-6.98794,1.27313
-497,274,-7.07111,-1.37543,-0.0205232,-0.00475515,0.0205278,0.00935057,-0.0346289,0.968745,0.0267531,0.0452305,727,750,-7.07113,1.37543
-490,274,-7.34619,-1.41992,-0.0252283,-0.00478812,0.0268285,0.013701,-0.0437175,0.967383,0.0346276,0.0482327,734,750,-7.34618,1.41991
-483,274,-7.99811,-1.43567,-0.0298646,-0.0043397,0.0343033,0.0194983,-0.0537026,0.963488,0.0437735,0.0438617,741,750,-7.99811,1.43564
-476,274,-8.53436,-1.36865,0,0,0,0,0,0,0,-1,748,750,-8.53438,1.36867
-469,274,-8.4035,-0.224976,-0.0374475,-0.00163258,0.0525485,0.0359759,-0.075056,0.949617,0.0654145,0.0478717,755,750,-8.4035,0.224962
-462,274,-9.01337,1.09772,-0.0392582,0.000982859,0.0627014,0.0467129,-0.0849882,0.940655,0.0771007,0.0452502,762,750,-9.01338,-1.09771
-455,274,-9.76666,2.16162,0,0,0,0,0,0,0,-1,769,750,-9.76667,-2.16161
-448,274,-10.3863,2.6131,0,0,0,0,0,0,0,-1,776,750,-10.3863,-2.6131
-441,274,0,0,0,0,0,0,0,0,0,-1,783,750,0,0
-434,274,0,0,0,0,0,0,0,0,0,-1,790,750,0,0
-427,274,0,0,0,0,0,0,0,0,0,-1,797,750,0,0
-420,274,0,0,0,0,0,0,0,0,0,-1,804,750,0,0
-413,274,0,0,0,0,0,0,0,0,0,-1,811,750,0,0
-406,274,0,0,0,0,0,0,0,0,0,-1,818,750,0,0
-399,274,0,0,0,0,0,0,0,0,0,-1,825,750,0,0
-392,274,0,0,0,0,0,0,0,0,0,-1,832,750,0,0
-385,274,0,0,0,0,0,0,0,0,0,-1,839,750,0,0
-378,274,0,0,0,0,0,0,0,0,0,-1,846,750,0,0
-371,274,0,0,0,0,0,0,0,0,0,-1,853,750,0,0
-364,274,0,0,0,0,0,0,0,0,0,-1,860,750,0,0
-357,274,0,0,0,0,0,0,0,0,0,-1,867,750,0,0
-350,274,0,0,0,0,0,0,0,0,0,-1,874,750,0,0
-343,274,0,0,0,0,0,0,0,0,0,-1,881,750,0,0
-336,274,0,0,0,0,0,0,0,0,0,-1,888,750,0,0
-329,274,0,0,0,0,0,0,0,0,0,-1,895,750,0,0
-322,274,0,0,0,0,0,0,0,0,0,-1,902,750,0,0
-315,274,0,0,0,0,0,0,0,0,0,-1,909,750,0,0
-308,274,0,0,0,0,0,0,0,0,0,-1,916,750,0,0
-301,274,0,0,0,0,0,0,0,0,0,-1,923,750,0,0
-294,274,0,0,0,0,0,0,0,0,0,-1,930,750,0,0
-287,274,0,0,0,0,0,0,0,0,0,-1,937,750,0,0
-280,274,0,0,0,0,0,0,0,0,0,-1,944,750,0,0
-273,274,0,0,0,0,0,0,0,0,0,-1,951,750,0,0
-266,274,0,0,0,0,0,0,0,0,0,-1,958,750,0,0
-259,274,0,0,0,0,0,0,0,0,0,-1,965,750,0,0
-252,274,0,0,0,0,0,0,0,0,0,-1,972,750,0,0
-245,274,0,0,0,0,0,0,0,0,0,-1,979,750,0,0
-238,274,0,0,0,0,0,0,0,0,0,-1,986,750,0,0
-231,274,0,0,0,0,0,0,0,0,0,-1,993,750,0,0
-224,274,0,0,0,0,0,0,0,0,0,-1,1000,750,0,0
-217,274,0,0,0,0,0,0,0,0,0,-1,1007,750,0,0
-210,274,0,0,0,0,0,0,0,0,0,-1,1014,750,0,0
-203,274,0,0,0,0,0,0,0,0,0,-1,1021,750,0,0
-196,274,0,0,0,0,0,0,0,0,0,-1,1028,750,0,0
-189,274,0,0,0,0,0,0,0,0,0,-1,1035,750,0,0
-182,274,0,0,0,0,0,0,0,0,0,-1,1042,750,0,0
-175,274,0,0,0,0,0,0,0,0,0,-1,1049,750,0,0
-168,274,0,0,0,0,0,0,0,0,0,-1,1056,750,0,0
-161,274,0,0,0,0,0,0,0,0,0,-1,1063,750,0,0
-154,274,0,0,0,0,0,0,0,0,0,-1,1070,750,0,0
-147,274,0,0,0,0,0,0,0,0,0,-1,1077,750,0,0
-140,274,0,0,0,0,0,0,0,0,0,-1,1084,750,0,0
-133,274,0,0,0,0,0,0,0,0,0,-1,1091,750,0,0
-126,274,0,0,0,0,0,0,0,0,0,-1,1098,750,0,0
-119,274,0,0,0,0,0,0,0,0,0,-1,1105,750,0,0
-112,274,0,0,0,0,0,0,0,0,0,-1,1112,750,0,0
-105,274,0,0,0,0,0,0,0,0,0,-1,1119,750,0,0
-98,274,0,0,0,0,0,0,0,0,0,-1,1126,750,0,0
-91,274,0,0,0,0,0,0,0,0,0,-1,1133,750,0,0
-84,274,0,0,0,0,0,0,0,0,0,-1,1140,750,0,0
-77,274,0,0,0,0,0,0,0,0,0,-1,1147,750,0,0
-70,274,0,0,0,0,0,0,0,0,0,-1,1154,750,0,0
-63,274,0,0,0,0,0,0,0,0,0,-1,1161,750,0,0
-56,274,0,0,0,0,0,0,0,0,0,-1,1168,750,0,0
-49,274,0,0,0,0,0,0,0,0,0,-1,1175,750,0,0
-42,274,0,0,0,0,0,0,0,0,0,-1,1182,750,0,0
-35,274,0,0,0,0,0,0,0,0,0,-1,1189,750,0,0
-28,274,0,0,0,0,0,0,0,0,0,-1,1196,750,0,0
-21,274,0,0,0,0,0,0,0,0,0,-1,1203,750,0,0
-14,274,0,0,0,0,0,0,0,0,0,-1,1210,750,0,0
-7,274,0,0,0,0,0,0,0,0,0,-1,1217,750,0,0
0,274,0,0,0,0,0,0,0,0,0,-1,1224,750,0,0
7,274,0,0,0,0,0,0,0,0,0,-1,1231,750,0,0
14,274,0,0,0,0,0,0,0,0,0,-1,1238,750,0,0
21,274,0,0,0,0,0,0,0,0,0,-1,1245,750,0,0
28,274,0,0,0,0,0,0,0,0,0,-1,1252,750,0,0
35,274,0,0,0,0,0,0,0,0,0,-1,1259,750,0,0
42,274,0,0,0,0,0,0,0,0,0,-1,1266,750,0,0
49,274,0,0,0,0,0,0,0,0,0,-1,1273,750,0,0
56,274,0,0,0,0,0,0,0,0,0,-1,1280,750,0,0
63,274,0,0,0,0,0,0,0,0,0,-1,1287,750,0,0
70,274,0,0,0,0,0,0,0,0,0,-1,1294,750,0,0
77,274,0,0,0,0,0,0,0,0,0,-1,1301,750,0,0
84,274,0,0,0,0,0,0,0,0,0,-1,1308,750,0,0
91,274,0,0,0,0,0,0,0,0,0,-1,1315,750,0,0
98,274,0,0,0,0,0,0,0,0,0,-1,1322,750,0,0
105,274,0,0,0,0,0,0,0,0,0,-1,1329,750,0,0
112,274,0,0,0,0,0,0,0,0,0,-1,1336,750,0,0
119,274,0,0,0,0,0,0,0,0,0,-1,1343,750,0,0
126,274,0,0,0,0,0,0,0,0,0,-1,1350,750,0,0
133,274,0,0,0,0,0,0,0,0,0,-1,1357,750,0,0
140,274,0,0,0,0,0,0,0,0,0,-1,1364,750,0,0
147,274,0,0,0,0,0,0,0,0,0,-1,1371,750,0,0
154,274,0,0,0,0,0,0,0,0,0,-1,1378,750,0,0
161,274,0,0,0,0,0,0,0,0,0,-1,1385,750,0,0
168,274,0,0,0,0,0,0,0,0,0,-1,1392,750,0,0
175,274,0,0,0,0,0,0,0,0,0,-1,1399,750,0,0
182,274,0,0,0,0,0,0,0,0,0,-1,1406,750,0,0
189,274,0,0,0,0,0,0,0,0,0,-1,1413,750,0,0
196,274,0,0,0,0,0,0,0,0,0,-1,1420,750,0,0
203,274,0,0,0,0,0,0,0,0,0,-1,1427,750,0,0
210,274,0,0,0,0,0,0,0,0,0,-1,1434,750,0,0
217,274,0,0,0,0,0,0,0,0,0,-1,1441,750,0,0
224,274,0,0,0,0,0,0,0,0,0,-1,1448,750,0,0
231,274,0,0,0,0,0,0,0,0,0,-1,1455,750,0,0
238,274,0,0,0,0,0,0,0,0,0,-1,1462,750,0,0
245,274,0,0,0,0,0,0,0,0,0,-1,1469,750,0,0
252,274,0,0,0,0,0,0,0,0,0,-1,1476,750,0,0
259,274,0,0,0,0,0,0,0,0,0,-1,1483,750,0,0
266,274,0,0,0,0,0,0,0,0,0,-1,1490,750,0,0
273,274,0,0,0,0,0,0,0,0,0,-1,1497,750,0,0
280,274,0,0,0,0,0,0,0,0,0,-1,1504,750,0,0
287,274,0,0,0,0,0,0,0,0,0,-1,1511,750,0,0
294,274,0,0,0,0,0,0,0,0,0,-1,1518,750,0,0
301,274,0,0,0,0,0,0,0,0,0,-1,1525,750,0,0
308,274,0,0,0,0,0,0,0,0,0,-1,1532,750,0,0
315,274,0,0,0,0,0,0,0,0,0,-1,1539,750,0,0
322,274,0,0,0,0,0,0,0,0,0,-1,1546,750,0,0
329,274,0,0,0,0,0,0,0,0,0,-1,1553,750,0,0
336,274,0,0,0,0,0,0,0,0,0,-1,1560,750,0,0
343,274,0,0,0,0,0,0,0,0,0,-1,1567,750,0,0
350,274,0,0,0,0,0,0,0,0,0,-1,1574,750,0,0
357,274,0,0,0,0,0,0,0,0,0,-1,1581,750,0,0
364,274,0,0,0,0,0,0,0,0,0,-1,1588,750,0,0
371,274,0,0,0,0,0,0,0,0,0,-1,1595,750,0,0
378,274,0,0,0,0,0,0,0,0,0,-1,1602,750,0,0
385,274,0,0,0,0,0,0,0,0,0,-1,1609,750,0,0
392,274,0,0,0,0,0,0,0,0,0,-1,1616,750,0,0
399,274,0,0,0,0,0,0,0,0,0,-1,1623,750,0,0
406,274,0,0,0,0,0,0,0,0,0,-1,1630,750,0,0
413,274,0,0,0,0,0,0,0,0,0,-1,1637,750,0,0
420,274,0,0,0,0,0,0,0,0,0,-1,1644,750,0,0
427,274,0,0,0,0,0,0,0,0,0,-1,1651,750,0,0
434,274,0,0,0,0,0,0,0,0,0,-1,1658,750,0,0
441,274,0,0,0,0,0,0,0,0,0,-1,1665,750,0,0
448,274,0,0,0,0,0,0,0,0,0,-1,1672,750,0,0
455,274,0,0,0,0,0,0,0,0,0,-1,1679,750,0,0
462,274,0,0,0,0,0,0,0,0,0,-1,1686,750,0,0
469,274,0,0,0,0,0,0,0,0,0,-1,1693,750,0,0
476,274,0,0,0,0,0,0,0,0,0,-1,1700,750,0,0
483,274,0,0,0,0,0,0,0,0,0,-1,1707,750,0,0
490,274,0,0,0,0,0,0,0,0,0,-1,1714,750,0,0
497,274,0,0,0,0,0,0,0,0,0,-1,1721,750,0,0
504,274,0,0,0,0,0,0,0,0,0,-1,1728,750,0,0
511,274,0,0,0,0,0,0,0,0,0,-1,1735,750,0,0
518,274,0,0,0,0,0,0,0,0,0,-1,1742,750,0,0
525,274,0,0,0,0,0,0,0,0,0,-1,1749,750,0,0
532,274,0,0,0,0,0,0,0,0,0,-1,1756,750,0,0
539,274,0,0,0,0,0,0,0,0,0,-1,1763,750,0,0
546,274,0,0,0,0,0,0,0,0,0,-1,1770,750,0,0
553,274,0,0,0,0,0,0,0,0,0,-1,1777,750,0,0
560,274,17.5806,2.91229,-0.0178597,0.0312414,-0.0225933,0.0400553,-0.0266736,-1.19884,0.0387833,0.046055,1784,750,17.5805,-2.91229
567,274,17.2738,3.15112,0.0071188,0.0214452,-0.0176596,0.0333391,-0.00477511,-0.978072,0.0239768,0.0399586,1791,750,17.2738,-3.15115
574,274,17.4994,2.88055,0.0185509,0.0163206,-0.0120561,0.0295433,0.00532818,-0.739281,0.0181816,0.0443803,1798,750,17.4994,-2.88054
581,274,17.7393,2.8139,0.0214892,0.0128561,-0.00880934,0.0269827,0.00736262,-0.557592,0.0161054,0.0422022,1805,750,17.7392,-2.81392
588,274,17.9907,2.53052,0.0208606,0.010333,-0.00664638,0.0240751,0.00711846,-0.450482,0.0142814,0.0434473,1812,750,17.9908,-2.53053
595,274,18.4348,2.21692,0,0,0,0,0,0,0,-1,1819,750,18.4348,-2.21691
602,274,18.6503,2.64221,0,0,0,0,0,0,0,-1,1826,750,18.6503,-2.64223
609,274,19.5601,1.63721,0,0,0,0,0,0,0,-1,1833,750,19.5601,-1.63724
616,274,16.1261,3.18713,0,0,0,0,0,0,0,-1,1840,750,16.1261,-3.18716
623,274,11.9146,0.278687,0,0,0,0,0,0,0,-1,1847,750,11.9146,-0.278656
630,274,12.0148,0.516968,0.00636978,0.00223639,-0.000165929,0.00637643,0.00222974,-0.0400576,0.00373648,0.043187,1854,750,12.0148,-0.516945
637,274,12.0811,0.779419,0.00391746,0.00155133,0.000585126,0.00405425,0.00141454,0.229653,0.00237608,0.0128908,1861,750,12.0811,-0.779419
644,274,12.1093,0.984558,0.00165583,0.000683402,0.00110559,0.00237739,-3.81613e-05,0.578238,0.0015978,0.0111937,1868,750,12.1092,-0.984529
651,274,12.119,1.18561,0.000882954,0.000562779,0.000935985,0.00167244,-0.00022671,0.7007,0.00119771,0.0127416,1875,750,12.1191,-1.18562
658,274,12.1259,1.40747,0.000127206,4.35674e-05,0.00090098,0.000987337,-0.000816564,0.762207,0.00104304,0.0159383,1882,750,12.1258,-1.40746
665,274,12.1223,1.61835,0.00043832,-0.00045957,0.000315694,0.000538205,-0.000559455,0.306432,0.000633774,0.0166146,1889,750,12.1223,-1.61833
672,274,12.1294,1.80188,0.00180623,-0.00030592,-0.000586821,0.00195832,-0.000458006,-0.25359,0.001482,0.0138939,1896,750,12.1294,-1.80186
679,274,12.1277,1.99664,0.00328464,0.000116,-0.000769158,0.00346148,-6.08368e-05,-0.225983,0.0023282,0.014298,1903,750,12.1276,-1.99663
686,274,12.1198,2.1828,0.00483582,0.000443153,-0.000995501,0.00505089,0.000228076,-0.212779,0.00329387,0.0142771,1910,750,12.1197,-2.18283
693,274,12.1035,2.41443,0.00721831,0.000907808,-0.00122591,0.00744809,0.000678024,-0.18529,0.00475553,0.0119622,1917,750,12.1035,-2.41445
700,274,12.1007,2.64697,0.0106517,0.00152024,-0.0014213,0.0108678,0.00130413,-0.150895,0.00685198,0.0141895,1924,750,12.1008,-2.64699
707,274,12.0818,2.81555,0.0156243,0.00256388,-0.00144554,0.0157824,0.00240579,-0.108925,0.00981839,0.0205901,1931,750,12.0817,-2.81557
714,274,12.0476,2.98303,0.0223965,0.00394334,-0.00131406,0.0224896,0.00385024,-0.070735,0.0138887,0.0398366,1938,750,12.0476,-2.98306
721,274,12.3851,3.33691,0.0313102,0.00597831,-0.000935087,0.0313447,0.00594384,-0.0368466,0.0192239,0.0459529,1945,750,12.3852,-3.33689
728,274,12.8877,3.51563,0.0433228,0.00886458,-5.64564e-05,0.0433229,0.00886449,-0.00163839,0.0264274,0.0467493,1952,750,12.8877,-3.51562
735,274,13.2877,3.62292,0,0,0,0,0,0,0,-1,1959,750,13.2878,-3.62294
742,274,11.7815,-0.740234,0,0,0,0,0,0,0,-1,1966,750,11.7815,0.740253
749,274,0,0,0,0,0,0,0,0,0,-1,1973,750,0,0
756,274,0,0,0,0,0,0,0,0,0,-1,1980,750,0,0
763,274,0,0,0,0,0,0,0,0,0,-1,1987,750,0,0
770,274,0,0,0,0,0,0,0,0,0,-1,1994,750,0,0
777,274,0,0,0,0,0,0,0,0,0,-1,2001,750,0,0
784,274,0,0,0,0,0,0,0,0,0,-1,2008,750,0,0
791,274,0,0,0,0,0,0,0,0,0,-1,2015,750,0,0
798,274,0,0,0,0,0,0,0,0,0,-1,2022,750,0,0
805,274,0,0,0,0,0,0,0,0,0,-1,2029,750,0,0
812,274,0,0,0,0,0,0,0,0,0,-1,2036,750,0,0
-700,267,0,0,0,0,0,0,0,0,0,-1,524,757,0,0
-693,267,0,0,0,0,0,0,0,0,0,-1,531,757,0,0
-686,267,0,0,0,0,0,0,0,0,0,-1,538,757,0,0
-679,267,0,0,0,0,0,0,0,0,0,-1,545,757,0,0
-672,267,0,0,0,0,0,0,0,0,0,-1,552,757,0,0
-665,267,0,0,0,0,0,0,0,0,0,-1,559,757,0,0
-658,267,0,0,0,0,0,0,0,0,0,-1,566,757,0,0
-651,267,0,0,0,0,0,0,0,0,0,-1,573,757,0,0
-644,267,0,0,0,0,0,0,0,0,0,-1,580,757,0,0
-637,267,0,0,0,0,0,0,0,0,0,-1,587,757,0,0
-630,267,-9.75732,-0.521423,0.0444141,-0.0333019,0.0956272,0.108777,-0.0976646,0.592415,0.119247,0.0447257,594,757,-9.75733,0.521442
-623,267,-9.2475,-0.311584,0.0485635,-0.0209833,0.0800649,0.10108,-0.0735001,0.580531,0.101212,0.0445185,601,757,-9.2475,0.311575
-616,267,-8.11554,0.21875,0,0,0,0,0,0,0,-1,608,757,-8.11556,-0.218779
-609,267,-7.96277,0.378296,0.0466967,-0.0060764,0.0505047,0.0772924,-0.036672,0.544672,0.0671761,0.0418018,615,757,-7.96276,-0.378267
-602,267,-7.79175,0.586182,0.0430251,-0.00189552,0.038287,0.0649536,-0.023824,0.520133,0.0530576,0.0422848,622,757,-7.79172,-0.586208
-595,267,-7.44824,0.789063,0.0383982,0.00079235,0.0280072,0.0533289,-0.0141383,0.489776,0.0410844,0.0462191,629,757,-7.44827,-0.789072
-588,267,-7.24994,0.822388,0.0330628,0.00231823,0.0196876,0.0426686,-0.00728763,0.453933,0.0311603,0.0421084,636,757,-7.24997,-0.822413
-581,267,-7.10522,0.824951,0.0273181,0.00324236,0.0131382,0.0330994,-0.00253895,0.414538,0.0229595,0.0270521,643,757,-7.10521,-0.824967
-574,267,-7.13031,0.642029,0.0216579,0.00373727,0.00807211,0.0247577,0.000637474,0.366649,0.0162968,0.014464,650,757,-7.13032,-0.642046
-567,267,-7.15869,0.448914,0.0169648,0.00382734,0.00402513,0.0180999,0.00269218,0.27488,0.0112769,0.0214955,657,757,-7.15869,-0.448884
-560,267,-7.16522,0.285828,0.0119724,0.00216732,0.00206475,0.0123895,0.00175027,0.199307,0.00774245,0.022702,664,757,-7.16524,-0.28582
-553,267,-7.17889,0.104858,0.0075241,0.00152993,0.001083,0.00771377,0.00134026,0.173375,0.00475909,0.0181052,671,757,-7.17889,-0.104877
-546,267,-7.16284,-0.109985,0.00337273,0.000647021,0.00142486,0.00398157,3.81754e-05,0.403819,0.00264175,0.0113736,678,757,-7.16285,0.109957
-539,267,-7.1593,-0.29248,-0.000109181,-0.000440696,0.0021115,0.00184306,-0.00239294,0.746227,0.00245251,0.00996384,685,757,-7.15927,0.292459
-532,267,-7.16193,-0.477722,-0.00334548,-0.00158405,0.00327477,0.000926368,-0.0058559,0.916759,0.00424654,0.0102497,692,757,-7.16192,0.477733
-525,267,-7.17133,-0.662903,-0.00664722,-0.00272366,0.00498086,0.000667831,-0.0100387,0.973,0.00692583,0.00983869,699,757,-7.1713,0.662879
-518,267,-7.17834,-0.848145,-0.010029,-0.00334949,0.00778008,0.00177738,-0.0151558,0.988138,0.0107455,0.0106017,706,757,-7.17833,0.848162
-511,267,-7.15967,-1.06354,-0.0135798,-0.00389008,0.0116544,0.00388637,-0.0213563,0.982387,0.0156942,0.0149541,713,757,-7.15966,1.06352
-504,267,-7.17645,-1.22705,-0.0177041,-0.00444524,0.0157499,0.00601359,-0.0281629,0.984603,0.0210679,0.0279186,720,757,-7.17643,1.22708
-497,267,-7.2793,-1.3504,-0.0222564,-0.00473826,0.0206789,0.00896011,-0.0359548,0.98573,0.0274484,0.0476757,727,757,-7.27932,1.35041
-490,267,-7.35229,-1.43781,0,0,0,0,0,0,0,-1,734,757,-7.3523,1.43782
-483,267,-8.16333,-1.45776,-0.0324295,-0.00402122,0.0344401,0.0190288,-0.0554796,0.980987,0.0447004,0.0417379,741,757,-8.16335,1.45775
-476,267,-9.00214,-1.01495,-0.0374343,-0.00266793,0.04364,0.0269237,-0.0670259,0.974931,0.0558646,0.0422159,748,757,-9.00215,1.01496
-469,267,-9.42542,-0.166138,-0.0418561,-0.000457589,0.0544475,0.0370925,-0.0794062,0.967046,0.0687235,0.0434439,755,757,-9.42541,0.166143
-462,267,-10.206,0.960083,-0.0447851,0.00305631,0.066481,0.0497891,-0.0915179,0.958093,0.0827609,0.0437669,762,757,-10.206,-0.960095
-455,267,-11.0873,1.81598,0,0,0,0,0,0,0,-1,769,757,-11.0873,-1.816
-448,267,-10.3251,1.63141,0,0,0,0,0,0,0,-1,776,757,-10.3251,-1.6314
-441,267,0,0,0,0,0,0,0,0,0,-1,783,757,0,0
-434,267,0,0,0,0,0,0,0,0,0,-1,790,757,0,0
-427,267,0,0,0,0,0,0,0,0,0,-1,797,757,0,0
-420,267,0,0,0,0,0,0,0,0,0,-1,804,757,0,0
-413,267,0,0,0,0,0,0,0,0,0,-1,811,757,0,0
-406,267,0,0,0,0,0,0,0,0,0,-1,818,757,0,0
-399,267,0,0,0,0,0,0,0,0,0,-1,825,757,0,0
-392,267,0,0,0,0,0,0,0,0,0,-1,832,757,0,0
-385,267,0,0,0,0,0,0,0,0,0,-1,839,757,0,0
-378,267,0,0,0,0,0,0,0,0,0,-1,846,757,0,0
-371,267,0,0,0,0,0,0,0,0,0,-1,853,757,0,0
-364,267,0,0,0,0,0,0,0,0,0,-1,860,757,0,0
-357,267,0,0,0,0,0,0,0,0,0,-1,867,757,0,0
-350,267,0,0,0,0,0,0,0,0,0,-1,874,757,0,0
-343,267,0,0,0,0,0,0,0,0,0,-1,881,757,0,0
-336,267,0,0,0,0,0,0,0,0,0,-1,888,757,0,0
-329,267,0,0,0,0,0,0,0,0,0,-1,895,757,0,0
-322,267,0,0,0,0,0,0,0,0,0,-1,902,757,0,0
-315,267,0,0,0,0,0,0,0,0,0,-1,909,757,0,0
-308,267,0,0,0,0,0,0,0,0,0,-1,916,757,0,0
-301,267,0,0,0,0,0,0,0,0,0,-1,923,757,0,0
-294,267,0,0,0,0,0,0,0,0,0,-1,930,757,0,0
-287,267,0,0,0,0,0,0,0,0,0,-1,937,757,0,0
-280,267,0,0,0,0,0,0,0,0,0,-1,944,757,0,0
-273,267,0,0,0,0,0,0,0,0,0,-1,951,757,0,0
-266,267,0,0,0,0,0,0,0,0,0,-1,958,757,0,0
-259,267,0,0,0,0,0,0,0,0,0,-1,965,757,0,0
-252,267,0,0,0,0,0,0,0,0,0,-1,972,757,0,0
-245,267,0,0,0,0,0,0,0,0,0,-1,979,757,0,0
-238,267,0,0,0,0,0,0,0,0,0,-1,986,757,0,0
-231,267,0,0,0,0,0,0,0,0,0,-1,993,757,0,0
-224,267,0,0,0,0,0,0,0,0,0,-1,1000,757,0,0
-217,267,0,0,0,0,0,0,0,0,0,-1,1007,757,0,0
-210,267,0,0,0,0,0,0,0,0,0,-1,1014,757,0,0
-203,267,0,0,0,0,0,0,0,0,0,-1,1021,757,0,0
-196,267,0,0,0,0,0,0,0,0,0,-1,1028,757,0,0
-189,267,0,0,0,0,0,0,0,0,0,-1,1035,757,0,0
-182,267,0,0,0,0,0,0,0,0,0,-1,1042,757,0,0
-175,267,0,0,0,0,0,0,0,0,0,-1,1049,757,0,0
-168,267,0,0,0,0,0,0,0,0,0,-1,1056,757,0,0
-161,267,0,0,0,0,0,0,0,0,0,-1,1063,757,0,0
-154,267,0,0,0,0,0,0,0,0,0,-1,1070,757,0,0
-147,267,0,0,0,0,0,0,0,0,0,-1,1077,757,0,0
-140,267,0,0,0,0,0,0,0,0,0,-1,1084,757,0,0
-133,267,0,0,0,0,0,0,0,0,0,-1,1091,757,0,0
-126,267,0,0,0,0,0,0,0,0,0,-1,1098,757,0,0
-119,267,0,0,0,0,0,0,0,0,0,-1,1105,757,0,0
-112,267,0,0,0,0,0,0,0,0,0,-1,1112,757,0,0
-105,267,0,0,0,0,0,0,0,0,0,-1,1119,757,0,0
-98,267,0,0,0,0,0,0,0,0,0,-1,1126,757,0,0
-91,267,0,0,0,0,0,0,0,0,0,-1,1133,757,0,0
-84,267,0,0,0,0,0,0,0,0,0,-1,1140,757,0,0
-77,267,0,0,0,0,0,0,0,0,0,-1,1147,757,0,0
-70,267,0,0,0,0,0,0,0,0,0,-1,1154,757,0,0
-63,267,0,0,0,0,0,0,0,0,0,-1,1161,757,0,0
-56,267,0,0,0,0,0,0,0,0,0,-1,1168,757,0,0
-49,267,0,0,0,0,0,0,0,0,0,-1,1175,757,0,0
-42,267,0,0,0,0,0,0,0,0,0,-1,1182,757,0,0
-35,267,0,0,0,0,0,0,0,0,0,-1,1189,757,0,0
-28,267,0,0,0,0,0,0,0,0,0,-1,1196,757,0,0
-21,267,0,0,0,0,0,0,0,0,0,-1,1203,757,0,0
-14,267,0,0,0,0,0,0,0,0,0,-1,1210,757,0,0
-7,267,0,0,0,0,0,0,0,0,0,-1,1217,757,0,0
0,267,0,0,0,0,0,0,0,0,0,-1,1224,757,0,0
7,267,0,0,0,0,0,0,0,0,0,-1,1231,757,0,0
14,267,0,0,0,0,0,0,0,0,0,-1,1238,757,0,0
21,267,0,0,0,0,0,0,0,0,0,-1,1245,757,0,0
28,267,0,0,0,0,0,0,0,0,0,-1,1252,757,0,0
35,267,0,0,0,0,0,0,0,0,0,-1,1259,757,0,0
42,267,0,0,0,0,0,0,0,0,0,-1,1266,757,0,0
49,267,0,0,0,0,0,0,0,0,0,-1,1273,757,0,0
56,267,0,0,0,0,0,0,0,0,0,-1,1280,757,0,0
63,267,0,0,0,0,0,0,0,0,0,-1,1287,757,0,0
70,267,0,0,0,0,0,0,0,0,0,-1,1294,757,0,0
77,267,0,0,0,0,0,0,0,0,0,-1,1301,757,0,0
84,267,0,0,0,0,0,0,0,0,0,-1,1308,757,0,0
91,267,0,0,0,0,0,0,0,0,0,-1,1315,757,0,0
98,267,0,0,0,0,0,0,0,0,0,-1,1322,757,0,0
105,267,0,0,0,0,0,0,0,0,0,-1,1329,757,0,0
112,267,0,0,0,0,0,0,0,0,0,-1,1336,757,0,0
119,267,0,0,0,0,0,0,0,0,0,-1,1343,757,0,0
126,267,0,0,0,0,0,0,0,0,0,-1,1350,757,0,0
133,267,0,0,0,0,0,0,0,0,0,-1,1357,757,0,0
140,267,0,0,0,0,0,0,0,0,0,-1,1364,757,0,0
147,267,0,0,0,0,0,0,0,0,0,-1,1371,757,0,0
154,267,0,0,0,0,0,0,0,0,0,-1,1378,757,0,0
161,267,0,0,0,0,0,0,0,0,0,-1,1385,757,0,0
168,267,0,0,0,0,0,0,0,0,0,-1,1392,757,0,0
175,267,0,0,0,0,0,0,0,0,0,-1,1399,757,0,0
182,267,0,0,0,0,0,0,0,0,0,-1,1406,757,0,0
189,267,0,0,0,0,0,0,0,0,0,-1,1413,757,0,0
196,267,0,0,0,0,0,0,0,0,0,-1,1420,757,0,0
203,267,0,0,0,0,0,0,0,0,0,-1,1427,757,0,0
210,267,0,0,0,0,0,0,0,0,0,-1,1434,757,0,0
217,267,0,0,0,0,0,0,0,0,0,-1,1441,757,0,0
224,267,0,0,0,0,0,0,0,0,0,-1,1448,757,0,0
231,267,0,0,0,0,0,0,0,0,0,-1,1455,757,0,0
238,267,0,0,0,0,0,0,0,0,0,-1,1462,757,0,0
245,267,0,0,0,0,0,0,0,0,0,-1,1469,757,0,0
252,267,0,0,0,0,0,0,0,0,0,-1,1476,757,0,0
259,267,0,0,0,0,0,0,0,0,0,-1,1483,757,0,0
266,267,0,0,0,0,0,0,0,0,0,-1,1490,757,0,0
273,267,0,0,0,0,0,0,0,0,0,-1,1497,757,0,0
280,267,0,0,0,0,0,0,0,0,0,-1,1504,757,0,0
287,267,0,0,0,0,0,0,0,0,0,-1,1511,757,0,0
294,267,0,0,0,0,0,0,0,0,0,-1,1518,757,0,0
301,267,0,0,0,0,0,0,0,0,0,-1,1525,757,0,0
308,267,0,0,0,0,0,0,0,0,0,-1,1532,757,0,0
315,267,0,0,0,0,0,0,0,0,0,-1,1539,757,0,0
322,267,0,0,0,0,0,0,0,0,0,-1,1546,757,0,0
329,267,0,0,0,0,0,0,0,0,0,-1,1553,757,0,0
336,267,0,0,0,0,0,0,0,0,0,-1,1560,757,0,0
343,267,0,0,0,0,0,0,0,0,0,-1,1567,757,0,0
350,267,0,0,0,0,0,0,0,0,0,-1,1574,757,0,0
357,267,0,0,0,0,0,0,0,0,0,-1,1581,757,0,0
364,267,0,0,0,0,0,0,0,0,0,-1,1588,757,0,0
371,267,0,0,0,0,0,0,0,0,0,-1,1595,757,0,0
378,267,0,0,0,0,0,0,0,0,0,-1,1602,757,0,0
385,267,0,0,0,0,0,0,0,0,0,-1,1609,757,0,0
392,267,0,0,0,0,0,0,0,0,0,-1,1616,757,0,0
399,267,0,0,0,0,0,0,0,0,0,-1,1623,757,0,0
406,267,0,0,0,0,0,0,0,0,0,-1,1630,757,0,0
413,267,0,0,0,0,0,0,0,0,0,-1,1637,757,0,0
420,267,0,0,0,0,0,0,0,0,0,-1,1644,757,0,0
427,267,0,0,0,0,0,0,0,0,0,-1,1651,757,0,0
434,267,0,0,0,0,0,0,0,0,0,-1,1658,757,0,0
441,267,0,0,0,0,0,0,0,0,0,-1,1665,757,0,0
448,267,0,0,0,0,0,0,0,0,0,-1,1672,757,0,0
455,267,0,0,0,0,0,0,0,0,0,-1,1679,757,0,0
462,267,0,0,0,0,0,0,0,0,0,-1,1686,757,0,0
469,267,0,0,0,0,0,0,0,0,0,-1,1693,757,0,0
476,267,0,0,0,0,0,0,0,0,0,-1,1700,757,0,0
483,267,0,0,0,0,0,0,0,0,0,-1,1707,757,0,0
490,267,0,0,0,0,0,0,0,0,0,-1,1714,757,0,0
497,267,0,0,0,0,0,0,0,0,0,-1,1721,757,0,0
504,267,0,0,0,0,0,0,0,0,0,-1,1728,757,0,0
511,267,0,0,0,0,0,0,0,0,0,-1,1735,757,0,0
518,267,0,0,0,0,0,0,0,0,0,-1,1742,757,0,0
525,267,0,0,0,0,0,0,0,0,0,-1,1749,757,0,0
532,267,0,0,0,0,0,0,0,0,0,-1,1756,757,0,0
539,267,0,0,0,0,0,0,0,0,0,-1,1763,757,0,0
546,267,0,0,0,0,0,0,0,0,0,-1,1770,757,0,0
553,267,0,0,0,0,0,0,0,0,0,-1,1777,757,0,0
560,267,0,0,0,0,0,0,0,0,0,-1,1784,757,0,0
567,267,17.754,2.79443,0.000558027,0.0164302,-0.0186535,0.0287656,-0.0117774,-0.986523,0.0240828,0.0343354,1791,757,17.754,-2.79441
574,267,17.7196,2.89453,0.0146849,0.0129259,-0.0124805,0.0263168,0.00129394,-0.75022,0.0171295,0.0390222,1798,757,17.7196,-2.89453
581,267,17.8098,2.76617,0.0194298,0.010508,-0.00878109,0.0248181,0.00511971,-0.550381,0.0151304,0.0397084,1805,757,17.8099,-2.7662
588,267,18.2341,2.46167,0.019424,0.00887267,-0.00627135,0.0223436,0.00595306,-0.435708,0.013361,0.0429365,1812,757,18.2341,-2.46164
595,267,18.6478,2.1405,0,0,0,0,0,0,0,-1,1819,757,18.6478,-2.14048
602,267,18.7051,2.23102,0.015678,0.00585241,-0.00302917,0.0165368,0.0049936,-0.276263,0.00979397,0.0470739,1826,757,18.7051,-2.23102
609,267,19.6299,1.26709,0.0130571,0.00420936,-0.00145869,0.0132914,0.00397508,-0.159253,0.00787762,0.043234,1833,757,19.6298,-1.2671
616,267,20.6031,0.420532,0,0,0,0,0,0,0,-1,1840,757,20.6032,-0.420559
623,267,12.0548,0.504578,0,0,0,0,0,0,0,-1,1847,757,12.0548,-0.504551
630,267,12.2712,0.662109,0,0,0,0,0,0,0,-1,1854,757,12.2712,-0.66208
637,267,12.323,0.764709,0.00370653,0.00147988,0.00107609,0.00414158,0.00104483,0.384197,0.00248704,0.0245016,1861,757,12.3231,-0.76473
644,267,12.3104,0.969788,0.00160059,0.00070387,0.00155177,0.00276747,-0.000463014,0.644761,0.00201711,0.0118024,1868,757,12.3105,-0.969771
651,267,12.2997,1.19464,0.000855917,0.000591879,0.0013778,0.00210801,-0.000660214,0.737635,0.00166951,0.0135138,1875,757,12.2997,-1.19466
658,267,12.3237,1.39795,5.54899e-05,7.84684e-05,0.0013307,0.00139773,-0.00126377,0.789715,0.00153726,0.0151479,1882,757,12.3237,-1.39793
665,267,12.3347,1.6145,0.000376408,-0.000527686,0.000674981,0.000736731,-0.000888009,0.490342,0.000939399,0.0160268,1889,757,12.3347,-1.6145
672,267,12.3292,1.80096,0.00182508,-0.00042687,-0.000390659,0.00189092,-0.000492715,-0.166979,0.00145297,0.0136789,1896,757,12.3292,-1.80098
679,267,12.3264,1.9892,0.00318026,-4.7125e-05,-0.000618732,0.00329481,-0.000161678,-0.183069,0.00225237,0.0122155,1903,757,12.3264,-1.9892
686,267,12.3236,2.20416,0.00456633,0.000254146,-0.000864204,0.00473308,8.7399e-05,-0.190606,0.00312666,0.012016,1910,757,12.3236,-2.20413
693,267,12.3009,2.41461,0.00676284,0.000608796,-0.00113775,0.00696645,0.000405187,-0.177083,0.0045153,0.0125447,1917,757,12.3009,-2.4146
700,267,12.2959,2.61285,0.00988337,0.00110424,-0.00137173,0.0100927,0.000894903,-0.151442,0.0064509,0.0146201,1924,757,12.2959,-2.61285
707,267,12.2938,2.78046,0.0143253,0.00184886,-0.00149395,0.0145017,0.00167247,-0.117528,0.00916134,0.0141768,1931,757,12.2938,-2.78043
714,267,12.2765,2.92365,0.0203231,0.00278252,-0.00150487,0.0204513,0.00265435,-0.0849658,0.0128412,0.0275015,1938,757,12.2765,-2.92363
721,267,12.3975,3.09387,0.0281528,0.00411773,-0.00135142,0.0282285,0.00404198,-0.0559918,0.0176269,0.0443789,1945,757,12.3974,-3.09387
728,267,12.6073,3.25934,0.0385862,0.00596355,-0.000841102,0.0386079,0.00594188,-0.02576,0.0240044,0.0492156,1952,757,12.6073,-3.25933
735,267,12.6825,3.21204,0,0,0,0,0,0,0,-1,1959,757,12.6824,-3.21206
742,267,16.2458,3.43079,0,0,0,0,0,0,0,-1,1966,757,16.2459,-3.43079
749,267,0,0,0,0,0,0,0,0,0,-1,1973,757,0,0
756,267,0,0,0,0,0,0,0,0,0,-1,1980,757,0,0
763,267,0,0,0,0,0,0,0,0,0,-1,1987,757,0,0
770,267,0,0,0,0,0,0,0,0,0,-1,1994,757,0,0
777,267,0,0,0,0,0,0,0,0,0,-1,2001,757,0,0
784,267,0,0,0,0,0,0,0,0,0,-1,2008,757,0,0
791,267,0,0,0,0,0,0,0,0,0,-1,2015,757,0,0
798,267,0,0,0,0,0,0,0,0,0,-1,2022,757,0,0
805,267,0,0,0,0,0,0,0,0,0,-1,2029,757,0,0
812,267,0,0,0,0,0,0,0,0,0,-1,2036,757,0,0
-700,260,0,0,0,0,0,0,0,0,0,-1,524,764,0,0
-693,260,0,0,0,0,0,0,0,0,0,-1,531,764,0,0
-686,260,0,0,0,0,0,0,0,0,0,-1,538,764,0,0
-679,260,0,0,0,0,0,0,0,0,0,-1,545,764,0,0
-672,260,0,0,0,0,0,0,0,0,0,-1,552,764,0,0
-665,260,0,0,0,0,0,0,0,0,0,-1,559,764,0,0
-658,260,0,0,0,0,0,0,0,0,0,-1,566,764,0,0
-651,260,0,0,0,0,0,0,0,0,0,-1,573,764,0,0
-644,260,0,0,0,0,0,0,0,0,0,-1,580,764,0,0
-637,260,0,0,0,0,0,0,0,0,0,-1,587,764,0,0
-630,260,-10.3823,-0.144775,0.0387769,-0.0275381,0.077984,0.0903597,-0.0791209,0.584385,0.0979213,0.0465831,594,764,-10.3823,0.144778
-623,260,-10.1353,0.231384,0.0444578,-0.0169782,0.0652296,0.0858403,-0.0583608,0.565341,0.0837569,0.0448405,601,764,-10.1353,-0.231357
-616,260,-9.66541,0.405701,0.0462179,-0.00959014,0.0526416,0.0778938,-0.0412661,0.541689,0.069872,0.0456404,608,764,-9.66538,-0.405695
-609,260,-9.10712,0.651611,0.0448164,-0.00448249,0.0412484,0.0682193,-0.0278854,0.516077,0.0570917,0.0414241,615,764,-9.10709,-0.651615
-602,260,-8.80219,0.629944,0.0415084,-0.00107168,0.0313405,0.0581063,-0.0176696,0.487045,0.0457785,0.0433893,622,764,-8.80217,-0.629938
-595,260,-8.14709,0.591675,0.0370044,0.00106933,0.0230114,0.048232,-0.0101583,0.453933,0.0360214,0.044782,629,764,-8.14709,-0.591648
-588,260,-7.5918,0.745728,0.0317721,0.0022362,0.0162801,0.0389845,-0.00497615,0.417031,0.0277972,0.0389826,636,764,-7.59183,-0.745743
-581,260,-7.34167,0.770691,0.0261805,0.00293671,0.0109554,0.0305301,-0.00141291,0.377943,0.0208403,0.0216128,643,764,-7.34165,-0.770686
-574,260,-7.35455,0.60614,0.0207089,0.00326861,0.00679784,0.0230455,0.000932022,0.331074,0.0150626,0.0148632,650,764,-7.35458,-0.60616
-567,260,-7.35046,0.436401,0.0164081,0.00324954,0.00346265,0.0172637,0.00239398,0.24223,0.0107999,0.0157797,657,764,-7.35046,-0.436419
-560,260,-7.32458,0.262329,0.0114685,0.00163071,0.00200671,0.0118621,0.00123713,0.193675,0.00752963,0.0187821,664,764,-7.32458,-0.262326
-553,260,-7.33716,0.0994873,0.00702884,0.00112017,0.00133009,0.00731445,0.000834559,0.211517,0.00462329,0.0172496,671,764,-7.33716,-0.0994587
-546,260,-7.33704,-0.0869751,0.00277145,0.000307261,0.00189536,0.00379998,-0.000721272,0.49719,0.00280483,0.0111728,678,764,-7.33704,0.0869483
-539,260,-7.3374,-0.275513,-0.000786338,-0.000681927,0.00263138,0.00189777,-0.00336603,0.795317,0.00307821,0.0106153,685,764,-7.3374,0.275482
-532,260,-7.34302,-0.443359,-0.00402968,-0.00173857,0.00377148,0.00105749,-0.00682575,0.932841,0.00494086,0.0120981,692,764,-7.34301,0.443329
-525,260,-7.3399,-0.653015,-0.00722785,-0.00273591,0.00538889,0.000856311,-0.0108201,0.982841,0.0075151,0.0116517,699,764,-7.33992,0.652991
-518,260,-7.34851,-0.844238,-0.0105123,-0.00325091,0.00802055,0.00192244,-0.0156857,0.997936,0.0111533,0.0128514,706,764,-7.34852,0.844257
-511,260,-7.31091,-1.03107,-0.0140002,-0.00372715,0.0115025,0.00373363,-0.0214609,0.995391,0.0157005,0.0214308,713,764,-7.3109,1.03107
-504,260,-7.28925,-1.17047,-0.018054,-0.00423701,0.0151585,0.00551309,-0.0278041,0.999211,0.0206209,0.0392414,720,764,-7.28927,1.17049
-497,260,-7.77734,-1.13715,-0.0225782,-0.00456945,0.0196497,0.00804073,-0.0351884,1.00024,0.0265482,0.0490931,727,764,-7.77734,1.13714
-490,260,-8.25964,-1.30219,-0.0275676,-0.00455794,0.025293,0.0117239,-0.0438495,0.998843,0.0338251,0.0469456,734,764,-8.25967,1.30218
-483,260,-8.64484,-1.33405,-0.0329334,-0.00402421,0.0324479,0.017043,-0.0540006,0.994939,0.0428271,0.0412459,741,764,-8.64487,1.33407
-476,260,-9.26172,-0.895264,-0.0385663,-0.00277035,0.0415998,0.0246183,-0.0659549,0.988549,0.0540773,0.042627,748,764,-9.26172,0.895262
-469,260,-10.0261,-0.31897,-0.0440628,-0.000559324,0.05291,0.0348957,-0.0795178,0.980421,0.0677105,0.0464908,755,764,-10.026,0.318959
-462,260,-10.9045,0.325439,0,0,0,0,0,0,0,-1,762,764,-10.9045,-0.325458
-455,260,-11.8795,0.765991,0,0,0,0,0,0,0,-1,769,764,-11.8795,-0.765976
-448,260,0,0,0,0,0,0,0,0,0,-1,776,764,0,0
-441,260,0,0,0,0,0,0,0,0,0,-1,783,764,0,0
-434,260,0,0,0,0,0,0,0,0,0,-1,790,764,0,0
-427,260,0,0,0,0,0,0,0,0,0,-1,797,764,0,0
-420,260,0,0,0,0,0,0,0,0,0,-1,804,764,0,0
-413,260,0,0,0,0,0,0,0,0,0,-1,811,764,0,0
-406,260,0,0,0,0,0,0,0,0,0,-1,818,764,0,0
-399,260,0,0,0,0,0,0,0,0,0,-1,825,764,0,0
-392,260,0,0,0,0,0,0,0,0,0,-1,832,764,0,0
-385,260,0,0,0,0,0,0,0,0,0,-1,839,764,0,0
-378,260,0,0,0,0,0,0,0,0,0,-1,846,764,0,0
-371,260,0,0,0,0,0,0,0,0,0,-1,853,764,0,0
-364,260,0,0,0,0,0,0,0,0,0,-1,860,764,0,0
-357,260,0,0,0,0,0,0,0,0,0,-1,867,764,0,0
-350,260,0,0,0,0,0,0,0,0,0,-1,874,764,0,0
-343,260,0,0,0,0,0,0,0,0,0,-1,881,764,0,0
-336,260,0,0,0,0,0,0,0,0,0,-1,888,764,0,0
-329,260,0,0,0,0,0,0,0,0,0,-1,895,764,0,0
-322,260,0,0,0,0,0,0,0,0,0,-1,902,764,0,0
-315,260,0,0,0,0,0,0,0,0,0,-1,909,764,0,0
-308,260,0,0,0,0,0,0,0,0,0,-1,916,764,0,0
-301,260,0,0,0,0,0,0,0,0,0,-1,923,764,0,0
-294,260,0,0,0,0,0,0,0,0,0,-1,930,764,0,0
-287,260,0,0,0,0,0,0,0,0,0,-1,937,764,0,0
-280,260,0,0,0,0,0,0,0,0,0,-1,944,764,0,0
-273,260,0,0,0,0,0,0,0,0,0,-1,951,764,0,0
-266,260,0,0,0,0,0,0,0,0,0,-1,958,764,0,0
-259,260,0,0,0,0,0,0,0,0,0,-1,965,764,0,0
-252,260,0,0,0,0,0,0,0,0,0,-1,972,764,0,0
-245,260,0,0,0,0,0,0,0,0,0,-1,979,764,0,0
-238,260,0,0,0,0,0,0,0,0,0,-1,986,764,0,0
-231,260,0,0,0,0,0,0,0,0,0,-1,993,764,0,0
-224,260,0,0,0,0,0,0,0,0,0,-1,1000,764,0,0
-217,260,0,0,0,0,0,0,0,0,0,-1,1007,764,0,0
-210,260,0,0,0,0,0,0,0,0,0,-1,1014,764,0,0
-203,260,0,0,0,0,0,0,0,0,0,-1,1021,764,0,0
-196,260,0,0,0,0,0,0,0,0,0,-1,1028,764,0,0
-189,260,0,0,0,0,0,0,0,0,0,-1,1035,764,0,0
-182,260,0,0,0,0,0,0,0,0,0,-1,1042,764,0,0
-175,260,0,0,0,0,0,0,0,0,0,-1,1049,764,0,0
-168,260,0,0,0,0,0,0,0,0,0,-1,1056,764,0,0
-161,260,0,0,0,0,0,0,0,0,0,-1,1063,764,0,0
-154,260,0,0,0,0,0,0,0,0,0,-1,1070,764,0,0
-147,260,0,0,0,0,0,0,0,0,0,-1,1077,764,0,0
-140,260,0,0,0,0,0,0,0,0,0,-1,1084,764,0,0
-133,260,0,0,0,0,0,0,0,0,0,-1,1091,764,0,0
-126,260,0,0,0,0,0,0,0,0,0,-1,1098,764,0,0
-119,260,0,0,0,0,0,0,0,0,0,-1,1105,764,0,0
-112,260,0,0,0,0,0,0,0,0,0,-1,1112,764,0,0
-105,260,0,0,0,0,0,0,0,0,0,-1,1119,764,0,0
-98,260,0,0,0,0,0,0,0,0,0,-1,1126,764,0,0
-91,260,0,0,0,0,0,0,0,0,0,-1,1133,764,0,0
-84,260,0,0,0,0,0,0,0,0,0,-1,1140,764,0,0
-77,260,0,0,0,0,0,0,0,0,0,-1,1147,764,0,0
-70,260,0,0,0,0,0,0,0,0,0,-1,1154,764,0,0
-63,260,0,0,0,0,0,0,0,0,0,-1,1161,764,0,0
-56,260,0,0,0,0,0,0,0,0,0,-1,1168,764,0,0
-49,260,0,0,0,0,0,0,0,0,0,-1,1175,764,0,0
-42,260,0,0,0,0,0,0,0,0,0,-1,1182,764,0,0
-35,260,0,0,0,0,0,0,0,0,0,-1,1189,764,0,0
-28,260,0,0,0,0,0,0,0,0,0,-1,1196,764,0,0
-21,260,0,0,0,0,0,0,0,0,0,-1,1203,764,0,0
-14,260,0,0,0,0,0,0,0,0,0,-1,1210,764,0,0
-7,260,0,0,0,0,0,0,0,0,0,-1,1217,764,0,0
0,260,0,0,0,0,0,0,0,0,0,-1,1224,764,0,0
7,260,0,0,0,0,0,0,0,0,0,-1,1231,764,0,0
14,260,0,0,0,0,0,0,0,0,0,-1,1238,764,0,0
21,260,0,0,0,0,0,0,0,0,0,-1,1245,764,0,0
28,260,0,0,0,0,0,0,0,0,0,-1,1252,764,0,0
35,260,0,0,0,0,0,0,0,0,0,-1,1259,764,0,0
42,260,0,0,0,0,0,0,0,0,0,-1,1266,764,0,0
49,260,0,0,0,0,0,0,0,0,0,-1,1273,764,0,0
56,260,0,0,0,0,0,0,0,0,0,-1,1280,764,0,0
63,260,0,0,0,0,0,0,0,0,0,-1,1287,764,0,0
70,260,0,0,0,0,0,0,0,0,0,-1,1294,764,0,0
77,260,0,0,0,0,0,0,0,0,0,-1,1301,764,0,0
84,260,0,0,0,0,0,0,0,0,0,-1,1308,764,0,0
91,260,0,0,0,0,0,0,0,0,0,-1,1315,764,0,0
98,260,0,0,0,0,0,0,0,0,0,-1,1322,764,0,0
105,260,0,0,0,0,0,0,0,0,0,-1,1329,764,0,0
112,260,0,0,0,0,0,0,0,0,0,-1,1336,764,0,0
119,260,0,0,0,0,0,0,0,0,0,-1,1343,764,0,0
126,260,0,0,0,0,0,0,0,0,0,-1,1350,764,0,0
133,260,0,0,0,0,0,0,0,0,0,-1,1357,764,0,0
140,260,0,0,0,0,0,0,0,0,0,-1,1364,764,0,0
147,260,0,0,0,0,0,0,0,0,0,-1,1371,764,0,0
154,260,0,0,0,0,0,0,0,0,0,-1,1378,764,0,0
161,260,0,0,0,0,0,0,0,0,0,-1,1385,764,0,0
168,260,0,0,0,0,0,0,0,0,0,-1,1392,764,0,0
175,260,0,0,0,0,0,0,0,0,0,-1,1399,764,0,0
182,260,0,0,0,0,0,0,0,0,0,-1,1406,764,0,0
189,260,0,0,0,0,0,0,0,0,0,-1,1413,764,0,0
196,260,0,0,0,0,0,0,0,0,0,-1,1420,764,0,0
203,260,0,0,0,0,0,0,0,0,0,-1,1427,764,0,0
210,260,0,0,0,0,0,0,0,0,0,-1,1434,764,0,0
217,260,0,0,0,0,0,0,0,0,0,-1,1441,764,0,0
224,260,0,0,0,0,0,0,0,0,0,-1,1448,764,0,0
231,260,0,0,0,0,0,0,0,0,0,-1,1455,764,0,0
238,260,0,0,0,0,0,0,0,0,0,-1,1462,764,0,0
245,260,0,0,0,0,0,0,0,0,0,-1,1469,764,0,0
252,260,0,0,0,0,0,0,0,0,0,-1,1476,764,0,0
259,260,0,0,0,0,0,0,0,0,0,-1,1483,764,0,0
266,260,0,0,0,0,0,0,0,0,0,-1,1490,764,0,0
273,260,0,0,0,0,0,0,0,0,0,-1,1497,764,0,0
280,260,0,0,0,0,0,0,0,0,0,-1,1504,764,0,0
287,260,0,0,0,0,0,0,0,0,0,-1,1511,764,0,0
294,260,0,0,0,0,0,0,0,0,0,-1,1518,764,0,0
301,260,0,0,0,0,0,0,0,0,0,-1,1525,764,0,0
308,260,0,0,0,0,0,0,0,0,0,-1,1532,764,0,0
315,260,0,0,0,0,0,0,0,0,0,-1,1539,764,0,0
322,260,0,0,0,0,0,0,0,0,0,-1,1546,764,0,0
329,260,0,0,0,0,0,0,0,0,0,-1,1553,764,0,0
336,260,0,0,0,0,0,0,0,0,0,-1,1560,764,0,0
343,260,0,0,0,0,0,0,0,0,0,-1,1567,764,0,0
350,260,0,0,0,0,0,0,0,0,0,-1,1574,764,0,0
357,260,0,0,0,0,0,0,0,0,0,-1,1581,764,0,0
364,260,0,0,0,0,0,0,0,0,0,-1,1588,764,0,0
371,260,0,0,0,0,0,0,0,0,0,-1,1595,764,0,0
378,260,0,0,0,0,0,0,0,0,0,-1,1602,764,0,0
385,260,0,0,0,0,0,0,0,0,0,-1,1609,764,0,0
392,260,0,0,0,0,0,0,0,0,0,-1,1616,764,0,0
399,260,0,0,0,0,0,0,0,0,0,-1,1623,764,0,0
406,260,0,0,0,0,0,0,0,0,0,-1,1630,764,0,0
413,260,0,0,0,0,0,0,0,0,0,-1,1637,764,0,0
420,260,0,0,0,0,0,0,0,0,0,-1,1644,764,0,0
427,260,0,0,0,0,0,0,0,0,0,-1,1651,764,0,0
434,260,0,0,0,0,0,0,0,0,0,-1,1658,764,0,0
441,260,0,0,0,0,0,0,0,0,0,-1,1665,764,0,0
448,260,0,0,0,0,0,0,0,0,0,-1,1672,764,0,0
455,260,0,0,0,0,0,0,0,0,0,-1,1679,764,0,0
462,260,0,0,0,0,0,0,0,0,0,-1,1686,764,0,0
469,260,0,0,0,0,0,0,0,0,0,-1,1693,764,0,0
476,260,0,0,0,0,0,0,0,0,0,-1,1700,764,0,0
483,260,0,0,0,0,0,0,0,0,0,-1,1707,764,0,0
490,260,0,0,0,0,0,0,0,0,0,-1,1714,764,0,0
497,260,0,0,0,0,0,0,0,0,0,-1,1721,764,0,0
504,260,0,0,0,0,0,0,0,0,0,-1,1728,764,0,0
511,260,0,0,0,0,0,0,0,0,0,-1,1735,764,0,0
518,260,0,0,0,0,0,0,0,0,0,-1,1742,764,0,0
525,260,0,0,0,0,0,0,0,0,0,-1,1749,764,0,0
532,260,0,0,0,0,0,0,0,0,0,-1,1756,764,0,0
539,260,0,0,0,0,0,0,0,0,0,-1,1763,764,0,0
546,260,0,0,0,0,0,0,0,0,0,-1,1770,764,0,0
553,260,0,0,0,0,0,0,0,0,0,-1,1777,764,0,0
560,260,0,0,0,0,0,0,0,0,0,-1,1784,764,0,0
567,260,0,0,0,0,0,0,0,0,0,-1,1791,764,0,0
574,260,17.74,2.70941,0.00980303,0.0104393,-0.0122606,0.0223859,-0.0021436,-0.798369,0.0156874,0.0368741,1798,764,17.74,-2.70941
581,260,17.8367,2.70306,0.0162128,0.00847187,-0.00842523,0.0216141,0.00307061,-0.570079,0.0135027,0.0389526,1805,764,17.8366,-2.70305
588,260,18.1848,2.59747,0.0173175,0.00725979,-0.00570042,0.0198902,0.00468706,-0.423954,0.0120067,0.0417762,1812,764,18.1849,-2.59749
595,260,18.5773,2.1651,0.015866,0.00605756,-0.00380043,0.0171662,0.00475737,-0.329634,0.0102338,0.0446307,1819,764,18.5772,-2.16509
602,260,19.0396,1.66602,0.0141577,0.00500529,-0.00226931,0.0146895,0.00447352,-0.230178,0.00869432,0.0443954,1826,764,19.0395,-1.66603
609,260,19.8273,0.837585,0.0117633,0.00370628,-0.000827445,0.0118474,0.00362218,-0.10129,0.00701005,0.0388773,1833,764,19.8272,-0.837587
616,260,16.5927,3.69617,0.00964512,0.00297428,0.000158509,0.00964888,0.00297052,0.0237436,0.00570624,0.0410381,1840,764,16.5927,-3.69618
623,260,16.3464,3.66687,0,0,0,0,0,0,0,-1,1847,764,16.3464,-3.66686
630,260,12.5259,0.443298,0,0,0,0,0,0,0,-1,1854,764,12.5258,-0.443326
637,260,12.525,0.676208,0.00345746,0.00125797,0.00152366,0.00423681,0.000478628,0.472802,0.00267928,0.0448945,1861,764,12.525,-0.676222
644,260,12.541,0.93512,0.00157239,0.000617867,0.00191058,0.00306442,-0.000874164,0.663004,0.00238827,0.0240081,1868,764,12.541,-0.935134
651,260,12.5435,1.17889,0.000872365,0.000532104,0.00173234,0.0024429,-0.00103844,0.736451,0.00206375,0.0130659,1875,764,12.5435,-1.17889
658,260,12.5316,1.40302,7.6268e-05,8.98349e-05,0.00166168,0.00174474,-0.00157864,0.787439,0.00191956,0.0159655,1882,764,12.5316,-1.40301
665,260,12.5303,1.61627,0.000373875,-0.000552736,0.000975657,0.000990643,-0.0011695,0.563729,0.00124859,0.0160304,1889,764,12.5303,-1.61628
672,260,12.5111,1.81433,0.00181408,-0.000522248,-0.000184194,0.00182851,-0.000536681,-0.0781952,0.00143183,0.0133003,1896,764,12.5111,-1.81432
679,260,12.5022,2.01251,0.0029825,-0.000211788,-0.000450673,0.00304486,-0.000274154,-0.137512,0.00212719,0.0117149,1903,764,12.5021,-2.01252
686,260,12.5114,2.21405,0.00415546,5.08162e-05,-0.000708255,0.00427423,-6.7956e-05,-0.166151,0.00287241,0.0130595,1910,764,12.5113,-2.21406
693,260,12.4983,2.39001,0.00615306,0.000295372,-0.001004,0.00632036,0.000128066,-0.165122,0.00417154,0.0136315,1917,764,12.4983,-2.39001
700,260,12.4843,2.60712,0.0089401,0.000669263,-0.00126555,0.00912942,0.000479949,-0.148489,0.00593277,0.0133269,1924,764,12.4842,-2.60712
707,260,12.4938,2.78809,0.0128208,0.00114119,-0.00145935,0.0130004,0.000961609,-0.122441,0.00836482,0.0134839,1931,764,12.4938,-2.78808
714,260,12.5054,2.94092,0.0180286,0.00170908,-0.00155772,0.018176,0.00156172,-0.0943162,0.0116318,0.0221865,1938,764,12.5054,-2.94091
721,260,12.683,2.83569,0.0247839,0.0024836,-0.00153096,0.0248885,0.00237899,-0.0682255,0.0158589,0.0381486,1945,764,12.683,-2.83569
728,260,12.9547,2.65198,0.0336955,0.00352958,-0.00122864,0.0337455,0.00347962,-0.0406395,0.0214315,0.0444991,1952,764,12.9547,-2.65199
735,260,13.1135,2.5752,0,0,0,0,0,0,0,-1,1959,764,13.1135,-2.57519
742,260,15.7268,3.25964,0,0,0,0,0,0,0,-1,1966,764,15.7269,-3.25967
749,260,16.017,3.61707,0,0,0,0,0,0,0,-1,1973,764,16.017,-3.61708
756,260,0,0,0,0,0,0,0,0,0,-1,1980,764,0,0
763,260,0,0,0,0,0,0,0,0,0,-1,1987,764,0,0
770,260,0,0,0,0,0,0,0,0,0,-1,1994,764,0,0
777,260,0,0,0,0,0,0,0,0,0,-1,2001,764,0,0
784,260,0,0,0,0,0,0,0,0,0,-1,2008,764,0,0
791,260,0,0,0,0,0,0,0,0,0,-1,2015,764,0,0
798,260,0,0,0,0,0,0,0,0,0,-1,2022,764,0,0
805,260,0,0,0,0,0,0,0,0,0,-1,2029,764,0,0
812,260,0,0,0,0,0,0,0,0,0,-1,2036,764,0,0
-700,253,0,0,0,0,0,0,0,0,0,-1,524,771,0,0
-693,253,0,0,0,0,0,0,0,0,0,-1,531,771,0,0
-686,253,0,0,0,0,0,0,0,0,0,-1,538,771,0,0
-679,253,0,0,0,0,0,0,0,0,0,-1,545,771,0,0
-672,253,0,0,0,0,0,0,0,0,0,-1,552,771,0,0
-665,253,0,0,0,0,0,0,0,0,0,-1,559,771,0,0
-658,253,0,0,0,0,0,0,0,0,0,-1,566,771,0,0
-651,253,0,0,0,0,0,0,0,0,0,-1,573,771,0,0
-644,253,0,0,0,0,0,0,0,0,0,-1,580,771,0,0
-637,253,-11.7767,0.0783081,0.019239,-0.03274,0.0710838,0.0689354,-0.0824364,0.610138,0.0875104,0.0475208,587,771,-11.7767,-0.0783142
-630,253,-11.2377,0.360046,0.0308171,-0.0205156,0.0615523,0.0718399,-0.0615384,0.587867,0.0770825,0.0489277,594,771,-11.2377,-0.360074
-623,253,-10.8731,0.756409,0.0384347,-0.0118137,0.051022,0.0701829,-0.0435619,0.556616,0.0662674,0.0459973,601,771,-10.8731,-0.756435
-616,253,-10.519,0.831726,0.0414987,-0.00596322,0.04081,0.0649759,-0.0294404,0.522046,0.0557834,0.0434584,608,771,-10.5191,-0.831735
-609,253,-10.1037,1.08832,0.0410389,-0.00209695,0.031757,0.0578596,-0.0189176,0.487099,0.0461888,0.0409607,615,771,-10.1037,-1.08831
-602,253,-9.63263,1.01465,0.0383462,0.000348637,0.0240036,0.0499599,-0.0112651,0.45063,0.037628,0.042792,622,771,-9.63262,-1.01463
-595,253,-8.55939,0.928528,0.0342614,0.00177028,0.017564,0.041941,-0.00590933,0.412188,0.0301243,0.0422155,629,771,-8.55938,-0.928516
-588,253,-7.81659,0.754333,0.0293945,0.00244292,0.0124137,0.0342407,-0.00240335,0.3722,0.023669,0.0372774,636,771,-7.81657,-0.754314
-581,253,-7.51776,0.768616,0.0241619,0.0028093,0.00833867,0.0270324,-6.12373e-05,0.331538,0.018042,0.0221596,643,771,-7.51777,-0.768598
-574,253,-7.5365,0.583801,0.0190317,0.00289524,0.00513035,0.0205247,0.00140226,0.283188,0.0132405,0.0187592,650,771,-7.53648,-0.583815
-567,253,-7.51245,0.40625,0.0152329,0.00271782,0.00256165,0.0157369,0.00221379,0.194279,0.00983673,0.0151571,657,771,-7.51243,-0.406241
-560,253,-7.48907,0.27179,0.0105352,0.00114455,0.0016753,0.0108251,0.00085463,0.171361,0.00694939,0.0114664,664,771,-7.48909,-0.271802
-553,253,-7.50226,0.113708,0.00629639,0.000750669,0.0013228,0.00659575,0.000451308,0.22256,0.00425471,0.0116316,671,771,-7.50225,-0.113716
-546,253,-7.51837,-0.0606079,0.00212266,-3.10279e-06,0.00210867,0.00342118,-0.00130162,0.551956,0.00281676,0.0105799,678,771,-7.51838,0.0606012
-539,253,-7.53247,-0.261963,-0.00127351,-0.000873314,0.00287207,0.00180562,-0.00395244,0.820177,0.00340057,0.0109024,685,771,-7.53249,0.261973
-532,253,-7.53253,-0.431152,-0.00425184,-0.00180879,0.00391012,0.00106617,-0.0071268,0.936795,0.00514355,0.0140343,692,771,-7.53256,0.431181
-525,253,-7.52832,-0.633118,-0.00713854,-0.00264982,0.00536249,0.000919033,-0.0107074,0.983587,0.0074635,0.011982,699,771,-7.52829,0.633134
-518,253,-7.53992,-0.825439,-0.0101117,-0.0030519,0.00769442,0.00188368,-0.0150473,1.00046,0.0107147,0.0154783,706,771,-7.53989,0.825469
-511,253,-7.66516,-0.953613,-0.0132523,-0.0034542,0.0106692,0.00338696,-0.0200935,1.00063,0.0146557,0.03515,713,771,-7.66513,0.953595
-504,253,-7.73865,-0.959473,-0.0168584,-0.00390934,0.0137319,0.00479788,-0.0255656,1.00569,0.0188477,0.047742,720,771,-7.73866,0.959456
-497,253,-7.8894,-0.923523,-0.0207871,-0.00421472,0.0174387,0.00680635,-0.0318082,1.00719,0.0238009,0.0468493,727,771,-7.8894,0.923527
-490,253,-8.2627,-0.963562,-0.0249961,-0.00421969,0.0220204,0.00973984,-0.0389556,1.0058,0.0297533,0.0480381,734,771,-8.26267,0.963571
-483,253,-8.81329,-1.18732,-0.0293504,-0.00375292,0.0277321,0.0139913,-0.0470947,1.00159,0.0369539,0.048525,741,771,-8.8133,1.18729
-476,253,-9.4364,-0.944702,0,0,0,0,0,0,0,-1,748,771,-9.43637,0.944712
-469,253,-10.3531,-0.325623,0,0,0,0,0,0,0,-1,755,771,-10.3531,0.325602
-462,253,-11.7557,0.784058,-0.0387395,0.00325612,0.0532547,0.0395031,-0.0749865,0.973185,0.0671505,0.04435,762,771,-11.7557,-0.784051
-455,253,-11.8167,0.734924,0,0,0,0,0,0,0,-1,769,771,-11.8166,-0.734919
-448,253,0,0,0,0,0,0,0,0,0,-1,776,771,0,0
-441,253,0,0,0,0,0,0,0,0,0,-1,783,771,0,0
-434,253,0,0,0,0,0,0,0,0,0,-1,790,771,0,0
-427,253,0,0,0,0,0,0,0,0,0,-1,797,771,0,0
-420,253,0,0,0,0,0,0,0,0,0,-1,804,771,0,0
-413,253,0,0,0,0,0,0,0,0,0,-1,811,771,0,0
-406,253,0,0,0,0,0,0,0,0,0,-1,818,771,0,0
-399,253,0,0,0,0,0,0,0,0,0,-1,825,771,0,0
-392,253,0,0,0,0,0,0,0,0,0,-1,832,771,0,0
-385,253,0,0,0,0,0,0,0,0,0,-1,839,771,0,0
-378,253,0,0,0,0,0,0,0,0,0,-1,846,771,0,0
-371,253,0,0,0,0,0,0,0,0,0,-1,853,771,0,0
-364,253,0,0,0,0,0,0,0,0,0,-1,860,771,0,0
-357,253,0,0,0,0,0,0,0,0,0,-1,867,771,0,0
-350,253,0,0,0,0,0,0,0,0,0,-1,874,771,0,0
-343,253,0,0,0,0,0,0,0,0,0,-1,881,771,0,0
-336,253,0,0,0,0,0,0,0,0,0,-1,888,771,0,0
-329,253,0,0,0,0,0,0,0,0,0,-1,895,771,0,0
-322,253,0,0,0,0,0,0,0,0,0,-1,902,771,0,0
-315,253,0,0,0,0,0,0,0,0,0,-1,909,771,0,0
-308,253,0,0,0,0,0,0,0,0,0,-1,916,771,0,0
-301,253,0,0,0,0,0,0,0,0,0,-1,923,771,0,0
-294,253,0,0,0,0,0,0,0,0,0,-1,930,771,0,0
-287,253,0,0,0,0,0,0,0,0,0,-1,937,771,0,0
-280,253,0,0,0,0,0,0,0,0,0,-1,944,771,0,0
-273,253,0,0,0,0,0,0,0,0,0,-1,951,771,0,0
-266,253,0,0,0,0,0,0,0,0,0,-1,958,771,0,0
-259,253,0,0,0,0,0,0,0,0,0,-1,965,771,0,0
-252,253,0,0,0,0,0,0,0,0,0,-1,972,771,0,0
-245,253,0,0,0,0,0,0,0,0,0,-1,979,771,0,0
-238,253,0,0,0,0,0,0,0,0,0,-1,986,771,0,0
-231,253,0,0,0,0,0,0,0,0,0,-1,993,771,0,0
-224,253,0,0,0,0,0,0,0,0,0,-1,1000,771,0,0
-217,253,0,0,0,0,0,0,0,0,0,-1,1007,771,0,0
-210,253,0,0,0,0,0,0,0,0,0,-1,1014,771,0,0
-203,253,0,0,0,0,0,0,0,0,0,-1,1021,771,0,0
-196,253,0,0,0,0,0,0,0,0,0,-1,1028,771,0,0
-189,253,0,0,0,0,0,0,0,0,0,-1,1035,771,0,0
-182,253,0,0,0,0,0,0,0,0,0,-1,1042,771,0,0
-175,253,0,0,0,0,0,0,0,0,0,-1,1049,771,0,0
-168,253,0,0,0,0,0,0,0,0,0,-1,1056,771,0,0
-161,253,0,0,0,0,0,0,0,0,0,-1,1063,771,0,0
-154,253,0,0,0,0,0,0,0,0,0,-1,1070,771,0,0
-147,253,0,0,0,0,0,0,0,0,0,-1,1077,771,0,0
-140,253,0,0,0,0,0,0,0,0,0,-1,1084,771,0,0
-133,253,0,0,0,0,0,0,0,0,0,-1,1091,771,0,0
-126,253,0,0,0,0,0,0,0,0,0,-1,1098,771,0,0
-119,253,0,0,0,0,0,0,0,0,0,-1,1105,771,0,0
-112,253,0,0,0,0,0,0,0,0,0,-1,1112,771,0,0
-105,253,0,0,0,0,0,0,0,0,0,-1,1119,771,0,0
-98,253,0,0,0,0,0,0,0,0,0,-1,1126,771,0,0
-91,253,0,0,0,0,0,0,0,0,0,-1,1133,771,0,0
-84,253,0,0,0,0,0,0,0,0,0,-1,1140,771,0,0
-77,253,0,0,0,0,0,0,0,0,0,-1,1147,771,0,0
-70,253,0,0,0,0,0,0,0,0,0,-1,1154,771,0,0
-63,253,0,0,0,0,0,0,0,0,0,-1,1161,771,0,0
-56,253,0,0,0,0,0,0,0,0,0,-1,1168,771,0,0
-49,253,0,0,0,0,0,0,0,0,0,-1,1175,771,0,0
-42,253,0,0,0,0,0,0,0,0,0,-1,1182,771,0,0
-35,253,0,0,0,0,0,0,0,0,0,-1,1189,771,0,0
-28,253,0,0,0,0,0,0,0,0,0,-1,1196,771,0,0
-21,253,0,0,0,0,0,0,0,0,0,-1,1203,771,0,0
-14,253,0,0,0,0,0,0,0,0,0,-1,1210,771,0,0
-7,253,0,0,0,0,0,0,0,0,0,-1,1217,771,0,0
0,253,0,0,0,0,0,0,0,0,0,-1,1224,771,0,0
7,253,0,0,0,0,0,0,0,0,0,-1,1231,771,0,0
14,253,0,0,0,0,0,0,0,0,0,-1,1238,771,0,0
21,253,0,0,0,0,0,0,0,0,0,-1,1245,771,0,0
28,253,0,0,0,0,0,0,0,0,0,-1,1252,771,0,0
35,253,0,0,0,0,0,0,0,0,0,-1,1259,771,0,0
42,253,0,0,0,0,0,0,0,0,0,-1,1266,771,0,0
49,253,0,0,0,0,0,0,0,0,0,-1,1273,771,0,0
56,253,0,0,0,0,0,0,0,0,0,-1,1280,771,0,0
63,253,0,0,0,0,0,0,0,0,0,-1,1287,771,0,0
70,253,0,0,0,0,0,0,0,0,0,-1,1294,771,0,0
77,253,0,0,0,0,0,0,0,0,0,-1,1301,771,0,0
84,253,0,0,0,0,0,0,0,0,0,-1,1308,771,0,0
91,253,0,0,0,0,0,0,0,0,0,-1,1315,771,0,0
98,253,0,0,0,0,0,0,0,0,0,-1,1322,771,0,0
105,253,0,0,0,0,0,0,0,0,0,-1,1329,771,0,0
112,253,0,0,0,0,0,0,0,0,0,-1,1336,771,0,0
119,253,0,0,0,0,0,0,0,0,0,-1,1343,771,0,0
126,253,0,0,0,0,0,0,0,0,0,-1,1350,771,0,0
133,253,0,0,0,0,0,0,0,0,0,-1,1357,771,0,0
140,253,0,0,0,0,0,0,0,0,0,-1,1364,771,0,0
147,253,0,0,0,0,0,0,0,0,0,-1,1371,771,0,0
154,253,0,0,0,0,0,0,0,0,0,-1,1378,771,0,0
161,253,0,0,0,0,0,0,0,0,0,-1,1385,771,0,0
168,253,0,0,0,0,0,0,0,0,0,-1,1392,771,0,0
175,253,0,0,0,0,0,0,0,0,0,-1,1399,771,0,0
182,253,0,0,0,0,0,0,0,0,0,-1,1406,771,0,0
189,253,0,0,0,0,0,0,0,0,0,-1,1413,771,0,0
196,253,0,0,0,0,0,0,0,0,0,-1,1420,771,0,0
203,253,0,0,0,0,0,0,0,0,0,-1,1427,771,0,0
210,253,0,0,0,0,0,0,0,0,0,-1,1434,771,0,0
217,253,0,0,0,0,0,0,0,0,0,-1,1441,771,0,0
224,253,0,0,0,0,0,0,0,0,0,-1,1448,771,0,0
231,253,0,0,0,0,0,0,0,0,0,-1,1455,771,0,0
238,253,0,0,0,0,0,0,0,0,0,-1,1462,771,0,0
245,253,0,0,0,0,0,0,0,0,0,-1,1469,771,0,0
252,253,0,0,0,0,0,0,0,0,0,-1,1476,771,0,0
259,253,0,0,0,0,0,0,0,0,0,-1,1483,771,0,0
266,253,0,0,0,0,0,0,0,0,0,-1,1490,771,0,0
273,253,0,0,0,0,0,0,0,0,0,-1,1497,771,0,0
280,253,0,0,0,0,0,0,0,0,0,-1,1504,771,0,0
287,253,0,0,0,0,0,0,0,0,0,-1,1511,771,0,0
294,253,0,0,0,0,0,0,0,0,0,-1,1518,771,0,0
301,253,0,0,0,0,0,0,0,0,0,-1,1525,771,0,0
308,253,0,0,0,0,0,0,0,0,0,-1,1532,771,0,0
315,253,0,0,0,0,0,0,0,0,0,-1,1539,771,0,0
322,253,0,0,0,0,0,0,0,0,0,-1,1546,771,0,0
329,253,0,0,0,0,0,0,0,0,0,-1,1553,771,0,0
336,253,0,0,0,0,0,0,0,0,0,-1,1560,771,0,0
343,253,0,0,0,0,0,0,0,0,0,-1,1567,771,0,0
350,253,0,0,0,0,0,0,0,0,0,-1,1574,771,0,0
357,253,0,0,0,0,0,0,0,0,0,-1,1581,771,0,0
364,253,0,0,0,0,0,0,0,0,0,-1,1588,771,0,0
371,253,0,0,0,0,0,0,0,0,0,-1,1595,771,0,0
378,253,0,0,0,0,0,0,0,0,0,-1,1602,771,0,0
385,253,0,0,0,0,0,0,0,0,0,-1,1609,771,0,0
392,253,0,0,0,0,0,0,0,0,0,-1,1616,771,0,0
399,253,0,0,0,0,0,0,0,0,0,-1,1623,771,0,0
406,253,0,0,0,0,0,0,0,0,0,-1,1630,771,0,0
413,253,0,0,0,0,0,0,0,0,0,-1,1637,771,0,0
420,253,0,0,0,0,0,0,0,0,0,-1,1644,771,0,0
427,253,0,0,0,0,0,0,0,0,0,-1,1651,771,0,0
434,253,0,0,0,0,0,0,0,0,0,-1,1658,771,0,0
441,253,0,0,0,0,0,0,0,0,0,-1,1665,771,0,0
448,253,0,0,0,0,0,0,0,0,0,-1,1672,771,0,0
455,253,0,0,0,0,0,0,0,0,0,-1,1679,771,0,0
462,253,0,0,0,0,0,0,0,0,0,-1,1686,771,0,0
469,253,0,0,0,0,0,0,0,0,0,-1,1693,771,0,0
476,253,0,0,0,0,0,0,0,0,0,-1,1700,771,0,0
483,253,0,0,0,0,0,0,0,0,0,-1,1707,771,0,0
490,253,0,0,0,0,0,0,0,0,0,-1,1714,771,0,0
497,253,0,0,0,0,0,0,0,0,0,-1,1721,771,0,0
504,253,0,0,0,0,0,0,0,0,0,-1,1728,771,0,0
511,253,0,0,0,0,0,0,0,0,0,-1,1735,771,0,0
518,253,0,0,0,0,0,0,0,0,0,-1,1742,771,0,0
525,253,0,0,0,0,0,0,0,0,0,-1,1749,771,0,0
532,253,0,0,0,0,0,0,0,0,0,-1,1756,771,0,0
539,253,0,0,0,0,0,0,0,0,0,-1,1763,771,0,0
546,253,0,0,0,0,0,0,0,0,0,-1,1770,771,0,0
553,253,0,0,0,0,0,0,0,0,0,-1,1777,771,0,0
560,253,0,0,0,0,0,0,0,0,0,-1,1784,771,0,0
567,253,0,0,0,0,0,0,0,0,0,-1,1791,771,0,0
574,253,17.7314,2.63745,0.00474904,0.00710245,-0.0109764,0.0169651,-0.0051136,-0.838796,0.0133453,0.0386049,1798,771,17.7314,-2.63745
581,253,17.8408,2.58563,0.0118984,0.00598888,-0.007764,0.0172509,0.000636391,-0.603575,0.0112944,0.0391864,1805,771,17.8409,-2.58563
588,253,17.8998,2.73346,0.01423,0.00539266,-0.00514465,0.0165931,0.00302958,-0.430583,0.0102032,0.0430294,1812,771,17.8998,-2.73347
595,253,18.3757,2.45752,0.0135312,0.004742,-0.00319349,0.014569,0.0037042,-0.314207,0.0087435,0.0422914,1819,771,18.3757,-2.45754
602,253,18.2806,2.02545,0.0121109,0.00411832,-0.00164779,0.0124372,0.00379194,-0.195546,0.00736064,0.0454042,1826,771,18.2806,-2.02547
609,253,17.3043,2.80121,0,0,0,0,0,0,0,-1,1833,771,17.3043,-2.80119
616,253,16.9877,3.45612,0,0,0,0,0,0,0,-1,1840,771,16.9877,-3.45612
623,253,16.7031,3.60321,0,0,0,0,0,0,0,-1,1847,771,16.7031,-3.60319
630,253,17.8468,2.64948,0,0,0,0,0,0,0,-1,1854,771,17.8468,-2.64946
637,253,12.6444,0.666321,0,0,0,0,0,0,0,-1,1861,771,12.6445,-0.66635
644,253,12.6904,0.927429,0.00151116,0.000539702,0.00211892,0.00319932,-0.00114845,0.672728,0.00260161,0.0397806,1868,771,12.6905,-0.927411
651,253,12.7352,1.19336,0.000876811,0.000485616,0.00191771,0.00260887,-0.00124645,0.734576,0.00227173,0.0226185,1875,771,12.7352,-1.19334
658,253,12.7432,1.42163,0.000151364,0.000138482,0.00180351,0.00194844,-0.0016586,0.783612,0.00208477,0.019192,1882,771,12.7432,-1.42161
665,253,12.6791,1.62219,0.000427508,-0.000512153,0.0011275,0.00117915,-0.00126379,0.587988,0.00141072,0.0206423,1889,771,12.6791,-1.6222
672,253,12.6879,1.81848,0.00178798,-0.000570069,-2.63754e-05,0.00178828,-0.000570364,-0.0111834,0.00142099,0.0156852,1896,771,12.6879,-1.81849
679,253,12.7157,2.0293,0.002755,-0.000361568,-0.000303638,0.0027843,-0.000390875,-0.0962215,0.00199927,0.0125342,1903,771,12.7157,-2.02928
686,253,12.7104,2.21704,0.00369221,-0.000154237,-0.000555114,0.00377072,-0.000232748,-0.1405,0.00259488,0.0167073,1910,771,12.7104,-2.21704
693,253,12.6824,2.40692,0.00547355,-1.62139e-05,-0.000852492,0.00560288,-0.000145548,-0.150565,0.0037847,0.016785,1917,771,12.6824,-2.40692
700,253,12.6863,2.61487,0.00789401,0.000233394,-0.00111948,0.00805425,7.31498e-05,-0.142175,0.00534528,0.0152701,1924,771,12.6863,-2.6149
707,253,12.7058,2.80518,0.0111749,0.000467438,-0.00135955,0.0113448,0.000297509,-0.124344,0.00746601,0.0144307,1931,771,12.7059,-2.80518
714,253,12.7052,2.97809,0.0155404,0.000745012,-0.00150344,0.0156916,0.000593785,-0.10025,0.0102689,0.0184192,1938,771,12.7053,-2.97811
721,253,12.8608,3.05389,0.0210784,0.00107257,-0.00154831,0.0211975,0.000953455,-0.0767837,0.0138248,0.030921,1945,771,12.8608,-3.05388
728,253,13.1392,3.35144,0.028305,0.00150869,-0.00137048,0.0283749,0.00143878,-0.0509673,0.0184557,0.0396496,1952,771,13.1392,-3.35145
735,253,14.8082,2.75531,0,0,0,0,0,0,0,-1,1959,771,14.8082,-2.75529
742,253,15.144,3.04285,0,0,0,0,0,0,0,-1,1966,771,15.144,-3.04282
749,253,15.3723,3.37195,0,0,0,0,0,0,0,-1,1973,771,15.3723,-3.37198
756,253,0,0,0,0,0,0,0,0,0,-1,1980,771,0,0
763,253,0,0,0,0,0,0,0,0,0,-1,1987,771,0,0
770,253,0,0,0,0,0,0,0,0,0,-1,1994,771,0,0
777,253,0,0,0,0,0,0,0,0,0,-1,2001,771,0,0
784,253,0,0,0,0,0,0,0,0,0,-1,2008,771,0,0
791,253,0,0,0,0,0,0,0,0,0,-1,2015,771,0,0
798,253,0,0,0,0,0,0,0,0,0,-1,2022,771,0,0
805,253,0,0,0,0,0,0,0,0,0,-1,2029,771,0,0
812,253,0,0,0,0,0,0,0,0,0,-1,2036,771,0,0
-700,246,0,0,0,0,0,0,0,0,0,-1,524,778,0,0
-693,246,0,0,0,0,0,0,0,0,0,-1,531,778,0,0
-686,246,0,0,0,0,0,0,0,0,0,-1,538,778,0,0
-679,246,0,0,0,0,0,0,0,0,0,-1,545,778,0,0
-672,246,0,0,0,0,0,0,0,0,0,-1,552,778,0,0
-665,246,0,0,0,0,0,0,0,0,0,-1,559,778,0,0
-658,246,0,0,0,0,0,0,0,0,0,-1,566,778,0,0
-651,246,0,0,0,0,0,0,0,0,0,-1,573,778,0,0
-644,246,0,0,0,0,0,0,0,0,0,-1,580,778,0,0
-637,246,-12.6016,0.715637,0,0,0,0,0,0,0,-1,587,778,-12.6016,-0.715646
-630,246,-12.0271,0.849243,0,0,0,0,0,0,0,-1,594,778,-12.0271,-0.849224
-623,246,-11.6594,1.27423,0,0,0,0,0,0,0,-1,601,778,-11.6594,-1.27422
-616,246,-11.5254,0.924622,0.0344986,-0.00198322,0.0298332,0.0512255,-0.0187101,0.511007,0.0418068,0.0432454,608,778,-11.5254,-0.924622
-609,246,-11.3162,1.46252,0.0351982,0.000600265,0.0228597,0.0465667,-0.0107682,0.461496,0.0351874,0.0416506,615,778,-11.3163,-1.4625
-602,246,-10.4931,1.21503,0.0333685,0.0020208,0.0170661,0.0408662,-0.00547694,0.413949,0.0292413,0.0481075,622,778,-10.4931,-1.21502
-595,246,-8.48334,1.29236,0,0,0,0,0,0,0,-1,629,778,-8.48333,-1.29237
-588,246,-7.67786,0.963806,0.0256906,0.00278276,0.00869218,0.0286153,-0.000141998,0.324581,0.0191244,0.0289373,636,778,-7.67783,-0.963809
-581,246,-7.71191,0.775635,0.0209911,0.00275789,0.00578992,0.0226743,0.0010747,0.282913,0.014771,0.0161159,643,778,-7.71194,-0.775641
-574,246,-7.69269,0.5672,0.0163386,0.00255251,0.00350082,0.0171766,0.00171446,0.234965,0.0109245,0.0181516,650,778,-7.69268,-0.567206
-567,246,-7.68396,0.394897,0.013118,0.00219535,0.00168139,0.0133709,0.00194238,0.149332,0.00834221,0.0161226,657,778,-7.68397,-0.394904
-560,246,-7.68579,0.240356,0.00890313,0.000673526,0.00135693,0.0091211,0.000455562,0.159269,0.00593471,0.0122985,664,778,-7.68576,-0.240336
-553,246,-7.67542,0.101135,0.00507791,0.000370561,0.00131283,0.00541929,2.91856e-05,0.254397,0.00360317,0.0124766,671,778,-7.67542,-0.101135
-546,246,-7.68939,-0.0584717,0.00116739,-0.000325011,0.00227359,0.0028141,-0.00197172,0.626835,0.00277733,0.0108027,678,778,-7.68942,0.0584602
-539,246,-7.69495,-0.252808,-0.00187808,-0.00104733,0.00301761,0.00158336,-0.00450877,0.853794,0.00364997,0.0100934,685,778,-7.69496,0.252834
-532,246,-7.6958,-0.437561,-0.00440994,-0.00182557,0.00388473,0.00097625,-0.00721176,0.945958,0.00516411,0.0114189,692,778,-7.6958,0.437542
-525,246,-7.68738,-0.622253,-0.00684611,-0.00248015,0.00508909,0.000874399,-0.0102007,0.988006,0.00710985,0.0123389,699,778,-7.6874,0.622239
-518,246,-7.68945,-0.773376,-0.00936246,-0.00274844,0.00701545,0.00170038,-0.0138113,1.00565,0.00982349,0.0187522,706,778,-7.68945,0.773347
-511,246,-7.95544,-0.862183,0,0,0,0,0,0,0,-1,713,778,-7.95546,0.862172
-504,246,-8.71332,-1.0025,-0.0150601,-0.00340621,0.0117949,0.00392261,-0.0223889,1.01482,0.0163907,0.0450541,720,778,-8.71329,1.00251
-497,246,-8.44971,-0.830994,-0.0182934,-0.00363145,0.0146544,0.00542342,-0.0273483,1.01732,0.0202831,0.0486022,727,778,-8.4497,0.830975
-490,246,-8.414,-0.636475,0,0,0,0,0,0,0,-1,734,778,-8.41403,0.636488
-483,246,-8.88275,-0.855652,0,0,0,0,0,0,0,-1,741,778,-8.88278,0.85563
-476,246,-12.0618,0.793457,0,0,0,0,0,0,0,-1,748,778,-12.0617,-0.793446
-469,246,-11.8274,0.841614,-0.0288288,5.43704e-07,0.0332839,0.0218571,-0.0506853,0.989746,0.0429706,0.0423543,755,778,-11.8274,-0.841644
-462,246,-11.7708,0.776062,-0.0271795,0.00379321,0.0393734,0.0306163,-0.0540026,0.972766,0.0494728,0.0457979,762,778,-11.7708,-0.776087
-455,246,0,0,0,0,0,0,0,0,0,-1,769,778,0,0
-448,246,0,0,0,0,0,0,0,0,0,-1,776,778,0,0
-441,246,0,0,0,0,0,0,0,0,0,-1,783,778,0,0
-434,246,0,0,0,0,0,0,0,0,0,-1,790,778,0,0
-427,246,0,0,0,0,0,0,0,0,0,-1,797,778,0,0
-420,246,0,0,0,0,0,0,0,0,0,-1,804,778,0,0
-413,246,0,0,0,0,0,0,0,0,0,-1,811,778,0,0
-406,246,0,0,0,0,0,0,0,0,0,-1,818,778,0,0
-399,246,0,0,0,0,0,0,0,0,0,-1,825,778,0,0
-392,246,0,0,0,0,0,0,0,0,0,-1,832,778,0,0
-385,246,0,0,0,0,0,0,0,0,0,-1,839,778,0,0
-378,246,0,0,0,0,0,0,0,0,0,-1,846,778,0,0
-371,246,0,0,0,0,0,0,0,0,0,-1,853,778,0,0
-364,246,0,0,0,0,0,0,0,0,0,-1,860,778,0,0
-357,246,0,0,0,0,0,0,0,0,0,-1,867,778,0,0
-350,246,0,0,0,0,0,0,0,0,0,-1,874,778,0,0
-343,246,0,0,0,0,0,0,0,0,0,-1,881,778,0,0
-336,246,0,0,0,0,0,0,0,0,0,-1,888,778,0,0
-329,246,0,0,0,0,0,0,0,0,0,-1,895,778,0,0
-322,246,0,0,0,0,0,0,0,0,0,-1,902,778,0,0
-315,246,0,0,0,0,0,0,0,0,0,-1,909,778,0,0
-308,246,0,0,0,0,0,0,0,0,0,-1,916,778,0,0
-301,246,0,0,0,0,0,0,0,0,0,-1,923,778,0,0
-294,246,0,0,0,0,0,0,0,0,0,-1,930,778,0,0
-287,246,0,0,0,0,0,0,0,0,0,-1,937,778,0,0
-280,246,0,0,0,0,0,0,0,0,0,-1,944,778,0,0
-273,246,0,0,0,0,0,0,0,0,0,-1,951,778,0,0
-266,246,0,0,0,0,0,0,0,0,0,-1,958,778,0,0
-259,246,0,0,0,0,0,0,0,0,0,-1,965,778,0,0
-252,246,0,0,0,0,0,0,0,0,0,-1,972,778,0,0
-245,246,0,0,0,0,0,0,0,0,0,-1,979,778,0,0
-238,246,0,0,0,0,0,0,0,0,0,-1,986,778,0,0
-231,246,0,0,0,0,0,0,0,0,0,-1,993,778,0,0
-224,246,0,0,0,0,0,0,0,0,0,-1,1000,778,0,0
-217,246,0,0,0,0,0,0,0,0,0,-1,1007,778,0,0
-210,246,0,0,0,0,0,0,0,0,0,-1,1014,778,0,0
-203,246,0,0,0,0,0,0,0,0,0,-1,1021,778,0,0
-196,246,0,0,0,0,0,0,0,0,0,-1,1028,778,0,0
-189,246,0,0,0,0,0,0,0,0,0,-1,1035,778,0,0
-182,246,0,0,0,0,0,0,0,0,0,-1,1042,778,0,0
-175,246,0,0,0,0,0,0,0,0,0,-1,1049,778,0,0
-168,246,0,0,0,0,0,0,0,0,0,-1,1056,778,0,0
-161,246,0,0,0,0,0,0,0,0,0,-1,1063,778,0,0
-154,246,0,0,0,0,0,0,0,0,0,-1,1070,778,0,0
-147,246,0,0,0,0,0,0,0,0,0,-1,1077,778,0,0
-140,246,0,0,0,0,0,0,0,0,0,-1,1084,778,0,0
-133,246,0,0,0,0,0,0,0,0,0,-1,1091,778,0,0
-126,246,0,0,0,0,0,0,0,0,0,-1,1098,778,0,0
-119,246,0,0,0,0,0,0,0,0,0,-1,1105,778,0,0
-112,246,0,0,0,0,0,0,0,0,0,-1,1112,778,0,0
-105,246,0,0,0,0,0,0,0,0,0,-1,1119,778,0,0
-98,246,0,0,0,0,0,0,0,0,0,-1,1126,778,0,0
-91,246,0,0,0,0,0,0,0,0,0,-1,1133,778,0,0
-84,246,0,0,0,0,0,0,0,0,0,-1,1140,778,0,0
-77,246,0,0,0,0,0,0,0,0,0,-1,1147,778,0,0
-70,246,0,0,0,0,0,0,0,0,0,-1,1154,778,0,0
-63,246,0,0,0,0,0,0,0,0,0,-1,1161,778,0,0
-56,246,0,0,0,0,0,0,0,0,0,-1,1168,778,0,0
-49,246,0,0,0,0,0,0,0,0,0,-1,1175,778,0,0
-42,246,0,0,0,0,0,0,0,0,0,-1,1182,778,0,0
-35,246,0,0,0,0,0,0,0,0,0,-1,1189,778,0,0
-28,246,0,0,0,0,0,0,0,0,0,-1,1196,778,0,0
-21,246,0,0,0,0,0,0,0,0,0,-1,1203,778,0,0
-14,246,0,0,0,0,0,0,0,0,0,-1,1210,778,0,0
-7,246,0,0,0,0,0,0,0,0,0,-1,1217,778,0,0
0,246,0,0,0,0,0,0,0,0,0,-1,1224,778,0,0
7,246,0,0,0,0,0,0,0,0,0,-1,1231,778,0,0
14,246,0,0,0,0,0,0,0,0,0,-1,1238,778,0,0
21,246,0,0,0,0,0,0,0,0,0,-1,1245,778,0,0
28,246,0,0,0,0,0,0,0,0,0,-1,1252,778,0,0
35,246,0,0,0,0,0,0,0,0,0,-1,1259,778,0,0
42,246,0,0,0,0,0,0,0,0,0,-1,1266,778,0,0
49,246,0,0,0,0,0,0,0,0,0,-1,1273,778,0,0
56,246,0,0,0,0,0,0,0,0,0,-1,1280,778,0,0
63,246,0,0,0,0,0,0,0,0,0,-1,1287,778,0,0
70,246,0,0,0,0,0,0,0,0,0,-1,1294,778,0,0
77,246,0,0,0,0,0,0,0,0,0,-1,1301,778,0,0
84,246,0,0,0,0,0,0,0,0,0,-1,1308,778,0,0
91,246,0,0,0,0,0,0,0,0,0,-1,1315,778,0,0
98,246,0,0,0,0,0,0,0,0,0,-1,1322,778,0,0
105,246,0,0,0,0,0,0,0,0,0,-1,1329,778,0,0
112,246,0,0,0,0,0,0,0,0,0,-1,1336,778,0,0
119,246,0,0,0,0,0,0,0,0,0,-1,1343,778,0,0
126,246,0,0,0,0,0,0,0,0,0,-1,1350,778,0,0
133,246,0,0,0,0,0,0,0,0,0,-1,1357,778,0,0
140,246,0,0,0,0,0,0,0,0,0,-1,1364,778,0,0
147,246,0,0,0,0,0,0,0,0,0,-1,1371,778,0,0
154,246,0,0,0,0,0,0,0,0,0,-1,1378,778,0,0
161,246,0,0,0,0,0,0,0,0,0,-1,1385,778,0,0
168,246,0,0,0,0,0,0,0,0,0,-1,1392,778,0,0
175,246,0,0,0,0,0,0,0,0,0,-1,1399,778,0,0
182,246,0,0,0,0,0,0,0,0,0,-1,1406,778,0,0
189,246,0,0,0,0,0,0,0,0,0,-1,1413,778,0,0
196,246,0,0,0,0,0,0,0,0,0,-1,1420,778,0,0
203,246,0,0,0,0,0,0,0,0,0,-1,1427,778,0,0
210,246,0,0,0,0,0,0,0,0,0,-1,1434,778,0,0
217,246,0,0,0,0,0,0,0,0,0,-1,1441,778,0,0
224,246,0,0,0,0,0,0,0,0,0,-1,1448,778,0,0
231,246,0,0,0,0,0,0,0,0,0,-1,1455,778,0,0
238,246,0,0,0,0,0,0,0,0,0,-1,1462,778,0,0
245,246,0,0,0,0,0,0,0,0,0,-1,1469,778,0,0
252,246,0,0,0,0,0,0,0,0,0,-1,1476,778,0,0
259,246,0,0,0,0,0,0,0,0,0,-1,1483,778,0,0
266,246,0,0,0,0,0,0,0,0,0,-1,1490,778,0,0
273,246,0,0,0,0,0,0,0,0,0,-1,1497,778,0,0
280,246,0,0,0,0,0,0,0,0,0,-1,1504,778,0,0
287,246,0,0,0,0,0,0,0,0,0,-1,1511,778,0,0
294,246,0,0,0,0,0,0,0,0,0,-1,1518,778,0,0
301,246,0,0,0,0,0,0,0,0,0,-1,1525,778,0,0
308,246,0,0,0,0,0,0,0,0,0,-1,1532,778,0,0
315,246,0,0,0,0,0,0,0,0,0,-1,1539,778,0,0
322,246,0,0,0,0,0,0,0,0,0,-1,1546,778,0,0
329,246,0,0,0,0,0,0,0,0,0,-1,1553,778,0,0
336,246,0,0,0,0,0,0,0,0,0,-1,1560,778,0,0
343,246,0,0,0,0,0,0,0,0,0,-1,1567,778,0,0
350,246,0,0,0,0,0,0,0,0,0,-1,1574,778,0,0
357,246,0,0,0,0,0,0,0,0,0,-1,1581,778,0,0
364,246,0,0,0,0,0,0,0,0,0,-1,1588,778,0,0
371,246,0,0,0,0,0,0,0,0,0,-1,1595,778,0,0
378,246,0,0,0,0,0,0,0,0,0,-1,1602,778,0,0
385,246,0,0,0,0,0,0,0,0,0,-1,1609,778,0,0
392,246,0,0,0,0,0,0,0,0,0,-1,1616,778,0,0
399,246,0,0,0,0,0,0,0,0,0,-1,1623,778,0,0
406,246,0,0,0,0,0,0,0,0,0,-1,1630,778,0,0
413,246,0,0,0,0,0,0,0,0,0,-1,1637,778,0,0
420,246,0,0,0,0,0,0,0,0,0,-1,1644,778,0,0
427,246,0,0,0,0,0,0,0,0,0,-1,1651,778,0,0
434,246,0,0,0,0,0,0,0,0,0,-1,1658,778,0,0
441,246,0,0,0,0,0,0,0,0,0,-1,1665,778,0,0
448,246,0,0,0,0,0,0,0,0,0,-1,1672,778,0,0
455,246,0,0,0,0,0,0,0,0,0,-1,1679,778,0,0
462,246,0,0,0,0,0,0,0,0,0,-1,1686,778,0,0
469,246,0,0,0,0,0,0,0,0,0,-1,1693,778,0,0
476,246,0,0,0,0,0,0,0,0,0,-1,1700,778,0,0
483,246,0,0,0,0,0,0,0,0,0,-1,1707,778,0,0
490,246,0,0,0,0,0,0,0,0,0,-1,1714,778,0,0
497,246,0,0,0,0,0,0,0,0,0,-1,1721,778,0,0
504,246,0,0,0,0,0,0,0,0,0,-1,1728,778,0,0
511,246,0,0,0,0,0,0,0,0,0,-1,1735,778,0,0
518,246,0,0,0,0,0,0,0,0,0,-1,1742,778,0,0
525,246,0,0,0,0,0,0,0,0,0,-1,1749,778,0,0
532,246,0,0,0,0,0,0,0,0,0,-1,1756,778,0,0
539,246,0,0,0,0,0,0,0,0,0,-1,1763,778,0,0
546,246,0,0,0,0,0,0,0,0,0,-1,1770,778,0,0
553,246,0,0,0,0,0,0,0,0,0,-1,1777,778,0,0
560,246,0,0,0,0,0,0,0,0,0,-1,1784,778,0,0
567,246,0,0,0,0,0,0,0,0,0,-1,1791,778,0,0
574,246,0,0,0,0,0,0,0,0,0,-1,1798,778,0,0
581,246,17.8075,2.62164,0.00880441,0.00348568,-0.00732219,0.0139352,-0.00164512,-0.611209,0.00988426,0.0387524,1805,778,17.8075,-2.62163
588,246,17.8184,2.6485,0.011805,0.00342883,-0.00470484,0.0139158,0.00131806,-0.42172,0.00887054,0.0418127,1812,778,17.8184,-2.64851
595,246,18.0358,2.54022,0.0116716,0.00341605,-0.00262578,0.012436,0.00265166,-0.28328,0.00756334,0.0391562,1819,778,18.0358,-2.54023
602,246,18.1459,2.40454,0.0104304,0.00320556,-0.00103171,0.0105748,0.00306112,-0.139098,0.00628317,0.043062,1826,778,18.1459,-2.40456
609,246,17.7386,2.6889,0.00873743,0.00267667,0.00018051,0.0087428,0.0026713,0.0297482,0.00517334,0.0470715,1833,778,17.7387,-2.6889
616,246,17.5718,3.1441,0,0,0,0,0,0,0,-1,1840,778,17.5718,-3.1441
623,246,17.712,3.49329,0,0,0,0,0,0,0,-1,1847,778,17.7121,-3.49327
630,246,17.5226,3.93335,0,0,0,0,0,0,0,-1,1854,778,17.5226,-3.93337
637,246,13.0883,1.34326,0,0,0,0,0,0,0,-1,1861,778,13.0883,-1.34326
644,246,12.978,1.35052,0.00146694,0.000546359,0.00226363,0.0033166,-0.00130331,0.685096,0.00275044,0.0486025,1868,778,12.978,-1.35055
651,246,12.8748,1.24536,0.000865141,0.000489678,0.0020433,0.00272931,-0.0013745,0.739589,0.00241199,0.0304189,1875,778,12.8747,-1.24536
658,246,12.92,1.44379,0.000199941,0.000223684,0.00188375,0.0020956,-0.00167198,0.788549,0.00217979,0.0214005,1882,778,12.92,-1.44377
665,246,12.8694,1.63281,0.000382594,-0.000407855,0.00123559,0.00128463,-0.00130989,0.630607,0.00149797,0.0217718,1889,778,12.8694,-1.63281
672,246,12.8876,1.84149,0.00153935,-0.000562123,0.000144965,0.0015493,-0.000572076,0.0685497,0.00126736,0.0200334,1896,778,12.8876,-1.84149
679,246,12.9105,2.0257,0.00225004,-0.000463914,-0.000147924,0.00225808,-0.000471953,-0.0542907,0.00168488,0.0197374,1903,778,12.9105,-2.02571
686,246,12.9144,2.20709,0.00289124,-0.000304366,-0.000407489,0.00294238,-0.000355509,-0.124854,0.00209019,0.0212896,1910,778,12.9144,-2.20707
693,246,12.9084,2.40765,0.00440155,-0.000240331,-0.000718994,0.00451037,-0.000349147,-0.150205,0.00312979,0.0169357,1917,778,12.9084,-2.40765
700,246,12.9149,2.6134,0.00643016,-8.59541e-05,-0.000992016,0.00657784,-0.000233632,-0.147781,0.00446514,0.0141622,1924,778,12.9149,-2.6134
707,246,12.9291,2.79706,0.00910072,-2.72597e-05,-0.00123993,0.00926615,-0.000192692,-0.132637,0.00624266,0.0129637,1931,778,12.9291,-2.79704
714,246,12.8987,2.9873,0.0126727,5.30702e-05,-0.00138115,0.0128221,-9.63211e-05,-0.107746,0.00858033,0.0123595,1938,778,12.8986,-2.98732
721,246,12.9254,3.15637,0.0171106,6.86946e-05,-0.00141853,0.0172278,-4.85741e-05,-0.0824813,0.0115015,0.0175985,1945,778,12.9255,-3.15634
728,246,12.9659,3.25952,0,0,0,0,0,0,0,-1,1952,778,12.966,-3.25953
735,246,14.4905,2.88855,0,0,0,0,0,0,0,-1,1959,778,14.4905,-2.88857
742,246,14.4032,3.05286,0,0,0,0,0,0,0,-1,1966,778,14.4031,-3.05288
749,246,14.3158,3.21722,0,0,0,0,0,0,0,-1,1973,778,14.3158,-3.2172
756,246,14.2316,5.22314,0,0,0,0,0,0,0,-1,1980,778,14.2315,-5.22311
763,246,0,0,0,0,0,0,0,0,0,-1,1987,778,0,0
770,246,0,0,0,0,0,0,0,0,0,-1,1994,778,0,0
777,246,0,0,0,0,0,0,0,0,0,-1,2001,778,0,0
784,246,0,0,0,0,0,0,0,0,0,-1,2008,778,0,0
791,246,0,0,0,0,0,0,0,0,0,-1,2015,778,0,0
798,246,0,0,0,0,0,0,0,0,0,-1,2022,778,0,0
805,246,0,0,0,0,0,0,0,0,0,-1,2029,778,0,0
812,246,0,0,0,0,0,0,0,0,0,-1,2036,778,0,0
-700,239,0,0,0,0,0,0,0,0,0,-1,524,785,0,0
-693,239,0,0,0,0,0,0,0,0,0,-1,531,785,0,0
-686,239,0,0,0,0,0,0,0,0,0,-1,538,785,0,0
-679,239,0,0,0,0,0,0,0,0,0,-1,545,785,0,0
-672,239,0,0,0,0,0,0,0,0,0,-1,552,785,0,0
-665,239,0,0,0,0,0,0,0,0,0,-1,559,785,0,0
-658,239,0,0,0,0,0,0,0,0,0,-1,566,785,0,0
-651,239,0,0,0,0,0,0,0,0,0,-1,573,785,0,0
-644,239,0,0,0,0,0,0,0,0,0,-1,580,785,0,0
-637,239,-13.4226,1.46527,0,0,0,0,0,0,0,-1,587,785,-13.4226,-1.46529
-630,239,-7.02429,0.633423,0,0,0,0,0,0,0,-1,594,785,-7.02431,-0.633394
-623,239,-7.36212,0.903198,0.0199399,-0.000482255,0.0274953,0.039059,-0.0196013,0.607604,0.034483,0.0480622,601,785,-7.3621,-0.903204
-616,239,-13.1431,1.07574,0.0261622,0.00229307,0.0207109,0.038131,-0.0096758,0.524013,0.0291856,0.0422057,608,785,-13.1431,-1.07572
-609,239,-8.78979,1.77319,0.0281293,0.00356726,0.0153362,0.0354957,-0.00379917,0.447788,0.0250265,0.043507,615,785,-8.78979,-1.77317
-602,239,-8.50586,1.60834,0.0273713,0.00394395,0.0111353,0.0318194,-0.000504207,0.380045,0.021383,0.0437346,622,785,-8.50585,-1.60833
-595,239,-8.0368,1.27704,0.0248826,0.00379761,0.00789838,0.0275131,0.00116708,0.321493,0.0179657,0.0380849,629,785,-8.03683,-1.27702
-588,239,-7.84039,0.951721,0.0213754,0.00332832,0.00550912,0.0229242,0.00177951,0.274062,0.0147255,0.0174858,636,785,-7.84039,-0.951692
-581,239,-7.87512,0.761047,0.0173076,0.00287926,0.00368804,0.0181956,0.00199122,0.236292,0.0115242,0.0105552,643,785,-7.87513,-0.761061
-574,239,-7.88147,0.567932,0.0131836,0.00235233,0.00227205,0.0136409,0.00189504,0.198617,0.00853267,0.0110876,650,785,-7.88145,-0.567915
-567,239,-7.89215,0.386841,0.0104844,0.00177609,0.00116871,0.0106386,0.00162197,0.131116,0.0066183,0.0117014,657,785,-7.89218,-0.38687
-560,239,-7.88165,0.234741,0.00672082,0.000337106,0.00136527,0.00700055,5.73753e-05,0.202093,0.00464803,0.0116001,664,785,-7.88167,-0.234757
-553,239,-7.85895,0.0808716,0.00325839,0.000157631,0.00161928,0.00394983,-0.000533806,0.403566,0.002828,0.0129037,671,785,-7.85898,-0.0808603
-546,239,-7.89886,-0.0739746,-0.000409935,-0.000408672,0.00271606,0.00230676,-0.00312536,0.785514,0.00314808,0.0139336,678,785,-7.89884,0.0739875
-539,239,-7.88843,-0.260803,-0.00311281,-0.000893241,0.00340427,0.00157757,-0.00558362,0.942965,0.00434481,0.0151233,685,785,-7.88844,0.26078
-532,239,-7.86121,-0.441589,-0.00521617,-0.00145098,0.00407645,0.00115659,-0.00782374,1.00172,0.00564102,0.0125617,692,785,-7.86121,0.441583
-525,239,-7.84076,-0.60437,-0.00717292,-0.00185251,0.00498185,0.0011349,-0.0101603,1.03063,0.0071818,0.0143678,699,785,-7.84078,0.604365
-518,239,-7.83069,-0.736145,-0.00915259,-0.00193425,0.00643587,0.00183537,-0.0129222,1.04094,0.00928724,0.0347204,706,785,-7.83068,0.736141
-511,239,-7.79456,-1.32813,0,0,0,0,0,0,0,-1,713,785,-7.79456,1.32813
-504,239,-9.47937,-1.16333,0,0,0,0,0,0,0,-1,720,785,-9.47934,1.16333
-497,239,-9.32275,-1.15344,-0.0158245,-0.00242678,0.0117519,0.0044014,-0.0226527,1.04444,0.0167627,0.0452619,727,785,-9.32275,1.15342
-490,239,-12.5557,0.15509,0,0,0,0,0,0,0,-1,734,785,-12.5557,-0.155108
-483,239,-12.2656,0.494751,-0.0198027,-0.00194171,0.0167295,0.00809172,-0.0298362,1.03057,0.0230661,0.043883,741,785,-12.2656,-0.494752
-476,239,-11.9368,0.747253,-0.0207552,-0.00100426,0.019954,0.0113843,-0.0331438,1.01518,0.0267119,0.0408226,748,785,-11.9369,-0.747234
-469,239,-11.7736,0.810913,-0.0196444,0.000761725,0.023152,0.0158592,-0.0347419,0.992944,0.0298849,0.0441442,755,785,-11.7735,-0.810921
-462,239,-11.7076,0.81012,-0.0143824,0.00431813,0.0256466,0.0222657,-0.03233,0.960201,0.0316989,0.0466924,762,785,-11.7077,-0.810108
-455,239,0,0,0,0,0,0,0,0,0,-1,769,785,0,0
-448,239,0,0,0,0,0,0,0,0,0,-1,776,785,0,0
-441,239,0,0,0,0,0,0,0,0,0,-1,783,785,0,0
-434,239,0,0,0,0,0,0,0,0,0,-1,790,785,0,0
-427,239,0,0,0,0,0,0,0,0,0,-1,797,785,0,0
-420,239,0,0,0,0,0,0,0,0,0,-1,804,785,0,0
-413,239,0,0,0,0,0,0,0,0,0,-1,811,785,0,0
-406,239,0,0,0,0,0,0,0,0,0,-1,818,785,0,0
-399,239,0,0,0,0,0,0,0,0,0,-1,825,785,0,0
-392,239,0,0,0,0,0,0,0,0,0,-1,832,785,0,0
-385,239,0,0,0,0,0,0,0,0,0,-1,839,785,0,0
-378,239,0,0,0,0,0,0,0,0,0,-1,846,785,0,0
-371,239,0,0,0,0,0,0,0,0,0,-1,853,785,0,0
-364,239,0,0,0,0,0,0,0,0,0,-1,860,785,0,0
-357,239,0,0,0,0,0,0,0,0,0,-1,867,785,0,0
-350,239,0,0,0,0,0,0,0,0,0,-1,874,785,0,0
-343,239,0,0,0,0,0,0,0,0,0,-1,881,785,0,0
-336,239,0,0,0,0,0,0,0,0,0,-1,888,785,0,0
-329,239,0,0,0,0,0,0,0,0,0,-1,895,785,0,0
-322,239,0,0,0,0,0,0,0,0,0,-1,902,785,0,0
-315,239,0,0,0,0,0,0,0,0,0,-1,909,785,0,0
-308,239,0,0,0,0,0,0,0,0,0,-1,916,785,0,0
-301,239,0,0,0,0,0,0,0,0,0,-1,923,785,0,0
-294,239,0,0,0,0,0,0,0,0,0,-1,930,785,0,0
-287,239,0,0,0,0,0,0,0,0,0,-1,937,785,0,0
-280,239,0,0,0,0,0,0,0,0,0,-1,944,785,0,0
-273,239,0,0,0,0,0,0,0,0,0,-1,951,785,0,0
-266,239,0,0,0,0,0,0,0,0,0,-1,958,785,0,0
-259,239,0,0,0,0,0,0,0,0,0,-1,965,785,0,0
-252,239,0,0,0,0,0,0,0,0,0,-1,972,785,0,0
-245,239,0,0,0,0,0,0,0,0,0,-1,979,785,0,0
-238,239,0,0,0,0,0,0,0,0,0,-1,986,785,0,0
-231,239,0,0,0,0,0,0,0,0,0,-1,993,785,0,0
-224,239,0,0,0,0,0,0,0,0,0,-1,1000,785,0,0
-217,239,0,0,0,0,0,0,0,0,0,-1,1007,785,0,0
-210,239,0,0,0,0,0,0,0,0,0,-1,1014,785,0,0
-203,239,0,0,0,0,0,0,0,0,0,-1,1021,785,0,0
-196,239,0,0,0,0,0,0,0,0,0,-1,1028,785,0,0
-189,239,0,0,0,0,0,0,0,0,0,-1,1035,785,0,0
-182,239,0,0,0,0,0,0,0,0,0,-1,1042,785,0,0
-175,239,0,0,0,0,0,0,0,0,0,-1,1049,785,0,0
-168,239,0,0,0,0,0,0,0,0,0,-1,1056,785,0,0
-161,239,0,0,0,0,0,0,0,0,0,-1,1063,785,0,0
-154,239,0,0,0,0,0,0,0,0,0,-1,1070,785,0,0
-147,239,0,0,0,0,0,0,0,0,0,-1,1077,785,0,0
-140,239,0,0,0,0,0,0,0,0,0,-1,1084,785,0,0
-133,239,0,0,0,0,0,0,0,0,0,-1,1091,785,0,0
-126,239,0,0,0,0,0,0,0,0,0,-1,1098,785,0,0
-119,239,0,0,0,0,0,0,0,0,0,-1,1105,785,0,0
-112,239,0,0,0,0,0,0,0,0,0,-1,1112,785,0,0
-105,239,0,0,0,0,0,0,0,0,0,-1,1119,785,0,0
-98,239,0,0,0,0,0,0,0,0,0,-1,1126,785,0,0
-91,239,0,0,0,0,0,0,0,0,0,-1,1133,785,0,0
-84,239,0,0,0,0,0,0,0,0,0,-1,1140,785,0,0
-77,239,0,0,0,0,0,0,0,0,0,-1,1147,785,0,0
-70,239,0,0,0,0,0,0,0,0,0,-1,1154,785,0,0
-63,239,0,0,0,0,0,0,0,0,0,-1,1161,785,0,0
-56,239,0,0,0,0,0,0,0,0,0,-1,1168,785,0,0
-49,239,0,0,0,0,0,0,0,0,0,-1,1175,785,0,0
-42,239,0,0,0,0,0,0,0,0,0,-1,1182,785,0,0
-35,239,0,0,0,0,0,0,0,0,0,-1,1189,785,0,0
-28,239,0,0,0,0,0,0,0,0,0,-1,1196,785,0,0
-21,239,0,0,0,0,0,0,0,0,0,-1,1203,785,0,0
-14,239,0,0,0,0,0,0,0,0,0,-1,1210,785,0,0
-7,239,0,0,0,0,0,0,0,0,0,-1,1217,785,0,0
0,239,0,0,0,0,0,0,0,0,0,-1,1224,785,0,0
7,239,0,0,0,0,0,0,0,0,0,-1,1231,785,0,0
14,239,0,0,0,0,0,0,0,0,0,-1,1238,785,0,0
21,239,0,0,0,0,0,0,0,0,0,-1,1245,785,0,0
28,239,0,0,0,0,0,0,0,0,0,-1,1252,785,0,0
35,239,0,0,0,0,0,0,0,0,0,-1,1259,785,0,0
42,239,0,0,0,0,0,0,0,0,0,-1,1266,785,0,0
49,239,0,0,0,0,0,0,0,0,0,-1,1273,785,0,0
56,239,0,0,0,0,0,0,0,0,0,-1,1280,785,0,0
63,239,0,0,0,0,0,0,0,0,0,-1,1287,785,0,0
70,239,0,0,0,0,0,0,0,0,0,-1,1294,785,0,0
77,239,0,0,0,0,0,0,0,0,0,-1,1301,785,0,0
84,239,0,0,0,0,0,0,0,0,0,-1,1308,785,0,0
91,239,0,0,0,0,0,0,0,0,0,-1,1315,785,0,0
98,239,0,0,0,0,0,0,0,0,0,-1,1322,785,0,0
105,239,0,0,0,0,0,0,0,0,0,-1,1329,785,0,0
112,239,0,0,0,0,0,0,0,0,0,-1,1336,785,0,0
119,239,0,0,0,0,0,0,0,0,0,-1,1343,785,0,0
126,239,0,0,0,0,0,0,0,0,0,-1,1350,785,0,0
133,239,0,0,0,0,0,0,0,0,0,-1,1357,785,0,0
140,239,0,0,0,0,0,0,0,0,0,-1,1364,785,0,0
147,239,0,0,0,0,0,0,0,0,0,-1,1371,785,0,0
154,239,0,0,0,0,0,0,0,0,0,-1,1378,785,0,0
161,239,0,0,0,0,0,0,0,0,0,-1,1385,785,0,0
168,239,0,0,0,0,0,0,0,0,0,-1,1392,785,0,0
175,239,0,0,0,0,0,0,0,0,0,-1,1399,785,0,0
182,239,0,0,0,0,0,0,0,0,0,-1,1406,785,0,0
189,239,0,0,0,0,0,0,0,0,0,-1,1413,785,0,0
196,239,0,0,0,0,0,0,0,0,0,-1,1420,785,0,0
203,239,0,0,0,0,0,0,0,0,0,-1,1427,785,0,0
210,239,0,0,0,0,0,0,0,0,0,-1,1434,785,0,0
217,239,0,0,0,0,0,0,0,0,0,-1,1441,785,0,0
224,239,0,0,0,0,0,0,0,0,0,-1,1448,785,0,0
231,239,0,0,0,0,0,0,0,0,0,-1,1455,785,0,0
238,239,0,0,0,0,0,0,0,0,0,-1,1462,785,0,0
245,239,0,0,0,0,0,0,0,0,0,-1,1469,785,0,0
252,239,0,0,0,0,0,0,0,0,0,-1,1476,785,0,0
259,239,0,0,0,0,0,0,0,0,0,-1,1483,785,0,0
266,239,0,0,0,0,0,0,0,0,0,-1,1490,785,0,0
273,239,0,0,0,0,0,0,0,0,0,-1,1497,785,0,0
280,239,0,0,0,0,0,0,0,0,0,-1,1504,785,0,0
287,239,0,0,0,0,0,0,0,0,0,-1,1511,785,0,0
294,239,0,0,0,0,0,0,0,0,0,-1,1518,785,0,0
301,239,0,0,0,0,0,0,0,0,0,-1,1525,785,0,0
308,239,0,0,0,0,0,0,0,0,0,-1,1532,785,0,0
315,239,0,0,0,0,0,0,0,0,0,-1,1539,785,0,0
322,239,0,0,0,0,0,0,0,0,0,-1,1546,785,0,0
329,239,0,0,0,0,0,0,0,0,0,-1,1553,785,0,0
336,239,0,0,0,0,0,0,0,0,0,-1,1560,785,0,0
343,239,0,0,0,0,0,0,0,0,0,-1,1567,785,0,0
350,239,0,0,0,0,0,0,0,0,0,-1,1574,785,0,0
357,239,0,0,0,0,0,0,0,0,0,-1,1581,785,0,0
364,239,0,0,0,0,0,0,0,0,0,-1,1588,785,0,0
371,239,0,0,0,0,0,0,0,0,0,-1,1595,785,0,0
378,239,0,0,0,0,0,0,0,0,0,-1,1602,785,0,0
385,239,0,0,0,0,0,0,0,0,0,-1,1609,785,0,0
392,239,0,0,0,0,0,0,0,0,0,-1,1616,785,0,0
399,239,0,0,0,0,0,0,0,0,0,-1,1623,785,0,0
406,239,0,0,0,0,0,0,0,0,0,-1,1630,785,0,0
413,239,0,0,0,0,0,0,0,0,0,-1,1637,785,0,0
420,239,0,0,0,0,0,0,0,0,0,-1,1644,785,0,0
427,239,0,0,0,0,0,0,0,0,0,-1,1651,785,0,0
434,239,0,0,0,0,0,0,0,0,0,-1,1658,785,0,0
441,239,0,0,0,0,0,0,0,0,0,-1,1665,785,0,0
448,239,0,0,0,0,0,0,0,0,0,-1,1672,785,0,0
455,239,0,0,0,0,0,0,0,0,0,-1,1679,785,0,0
462,239,0,0,0,0,0,0,0,0,0,-1,1686,785,0,0
469,239,0,0,0,0,0,0,0,0,0,-1,1693,785,0,0
476,239,0,0,0,0,0,0,0,0,0,-1,1700,785,0,0
483,239,0,0,0,0,0,0,0,0,0,-1,1707,785,0,0
490,239,0,0,0,0,0,0,0,0,0,-1,1714,785,0,0
497,239,0,0,0,0,0,0,0,0,0,-1,1721,785,0,0
504,239,0,0,0,0,0,0,0,0,0,-1,1728,785,0,0
511,239,0,0,0,0,0,0,0,0,0,-1,1735,785,0,0
518,239,0,0,0,0,0,0,0,0,0,-1,1742,785,0,0
525,239,0,0,0,0,0,0,0,0,0,-1,1749,785,0,0
532,239,0,0,0,0,0,0,0,0,0,-1,1756,785,0,0
539,239,0,0,0,0,0,0,0,0,0,-1,1763,785,0,0
546,239,0,0,0,0,0,0,0,0,0,-1,1770,785,0,0
553,239,0,0,0,0,0,0,0,0,0,-1,1777,785,0,0
560,239,0,0,0,0,0,0,0,0,0,-1,1784,785,0,0
567,239,0,0,0,0,0,0,0,0,0,-1,1791,785,0,0
574,239,0,0,0,0,0,0,0,0,0,-1,1798,785,0,0
581,239,17.7684,2.79126,0.00602307,0.00115364,-0.00706701,0.011063,-0.0038863,-0.619507,0.00895638,0.0384045,1805,785,17.7684,-2.79124
588,239,17.7174,2.78113,0.00942478,0.0016213,-0.00443044,0.0114266,-0.00038055,-0.424383,0.00774772,0.0402044,1812,785,17.7174,-2.78113
595,239,17.8468,2.64435,0.00983877,0.00226666,-0.00218394,0.0104235,0.00168192,-0.261607,0.00646175,0.035672,1819,785,17.8468,-2.64437
602,239,17.9268,2.61676,0.00884176,0.00242235,-0.00054218,0.00888723,0.00237688,-0.0836696,0.00531282,0.0367146,1826,785,17.9268,-2.61677
609,239,18.026,2.76001,0.00743563,0.00231971,0.000651118,0.0075172,0.00223815,0.124626,0.00445686,0.0473177,1833,785,18.026,-2.76
616,239,18.233,2.80383,0,0,0,0,0,0,0,-1,1840,785,18.233,-2.80383
623,239,18.7355,2.65143,0,0,0,0,0,0,0,-1,1847,785,18.7354,-2.65144
630,239,18.5859,3.30603,0,0,0,0,0,0,0,-1,1854,785,18.586,-3.30603
637,239,18.396,3.95441,0,0,0,0,0,0,0,-1,1861,785,18.396,-3.95438
644,239,12.9388,1.01776,0,0,0,0,0,0,0,-1,1868,785,12.9388,-1.01776
651,239,13.0203,1.23651,0.000803605,0.00070172,0.00221166,0.00296491,-0.00145959,0.773883,0.0026033,0.0425949,1875,785,13.0203,-1.23651
658,239,13.104,1.46539,0.000226152,0.000514039,0.00200369,0.00237895,-0.00163876,0.821256,0.00233271,0.0188438,1882,785,13.104,-1.46539
665,239,13.1052,1.67664,0.000325846,-5.25816e-05,0.00138746,0.00153694,-0.00126368,0.717629,0.0016195,0.0138545,1889,785,13.1052,-1.67663
672,239,13.0897,1.86359,0.00126746,-0.000293132,0.000390477,0.00135971,-0.00038538,0.231992,0.00105858,0.0183513,1896,785,13.0897,-1.86359
679,239,13.0958,2.04498,0.0018005,-0.000334958,6.58627e-05,0.00180253,-0.000336988,0.0308034,0.00132834,0.0192983,1903,785,13.0959,-2.04495
686,239,13.1062,2.24622,0.00223526,-0.00025362,-0.000220316,0.00225461,-0.000272973,-0.0876123,0.00160184,0.0217356,1910,785,13.1062,-2.24622
693,239,13.1041,2.43042,0.00354844,-0.000279892,-0.000550991,0.00362617,-0.000357615,-0.140136,0.00254504,0.0144413,1917,785,13.1042,-2.43043
700,239,13.1086,2.61407,0.00525716,-0.000238913,-0.000823908,0.00537801,-0.000359766,-0.145645,0.00371108,0.0106899,1924,785,13.1086,-2.61406
707,239,13.1195,2.79175,0.00739106,-0.000333211,-0.00105501,0.00753256,-0.000474714,-0.13333,0.00518719,0.010347,1931,785,13.1195,-2.79173
714,239,13.1111,2.95923,0.0102654,-0.000378591,-0.00115568,0.0103894,-0.000502625,-0.106916,0.00709975,0.0100347,1938,785,13.1111,-2.95922
721,239,13.1007,3.12939,0.0137397,-0.000559265,-0.00113825,0.0138298,-0.000649306,-0.0789409,0.00944372,0.0192521,1945,785,13.1007,-3.12939
728,239,13.1444,3.24036,0.0179912,-0.000853845,-0.000916227,0.0180356,-0.000898288,-0.0484667,0.0123341,0.0351578,1952,785,13.1444,-3.24037
735,239,13.2666,3.34308,0,0,0,0,0,0,0,-1,1959,785,13.2666,-3.34307
742,239,14.1765,3.37335,0,0,0,0,0,0,0,-1,1966,785,14.1765,-3.37335
749,239,14.1123,3.54175,0,0,0,0,0,0,0,-1,1973,785,14.1123,-3.54176
756,239,14.0703,4.85236,0,0,0,0,0,0,0,-1,1980,785,14.0703,-4.85233
763,239,0,0,0,0,0,0,0,0,0,-1,1987,785,0,0
770,239,0,0,0,0,0,0,0,0,0,-1,1994,785,0,0
777,239,0,0,0,0,0,0,0,0,0,-1,2001,785,0,0
784,239,0,0,0,0,0,0,0,0,0,-1,2008,785,0,0
791,239,0,0,0,0,0,0,0,0,0,-1,2015,785,0,0
798,239,0,0,0,0,0,0,0,0,0,-1,2022,785,0,0
805,239,0,0,0,0,0,0,0,0,0,-1,2029,785,0,0
812,239,0,0,0,0,0,0,0,0,0,-1,2036,785,0,0
-700,232,0,0,0,0,0,0,0,0,0,-1,524,792,0,0
-693,232,0,0,0,0,0,0,0,0,0,-1,531,792,0,0
-686,232,0,0,0,0,0,0,0,0,0,-1,538,792,0,0
-679,232,0,0,0,0,0,0,0,0,0,-1,545,792,0,0
-672,232,0,0,0,0,0,0,0,0,0,-1,552,792,0,0
-665,232,0,0,0,0,0,0,0,0,0,-1,559,792,0,0
-658,232,0,0,0,0,0,0,0,0,0,-1,566,792,0,0
-651,232,0,0,0,0,0,0,0,0,0,-1,573,792,0,0
-644,232,-10.6758,2.00781,0,0,0,0,0,0,0,-1,580,792,-10.6758,-2.00783
-637,232,-7.20551,0.0620728,0,0,0,0,0,0,0,-1,587,792,-7.20551,-0.0621009
-630,232,-7.39001,0.275696,0,0,0,0,0,0,0,-1,594,792,-7.39004,-0.275709
-623,232,-7.6524,0.704163,0.0104834,0.00523677,0.0199247,0.0279567,-0.0122365,0.719944,0.0237898,0.0469121,601,792,-7.6524,-0.704153
-616,232,-7.92188,1.03931,0.0175843,0.00635241,0.0139397,0.0269968,-0.00306008,0.593907,0.0190998,0.0449443,608,792,-7.92188,-1.03933
-609,232,-8.34613,1.23834,0.02055,0.00631574,0.00966015,0.0254317,0.00143405,0.467913,0.0164973,0.0450331,615,792,-8.34611,-1.23831
-602,232,-8.95502,1.51495,0.020797,0.00568333,0.00662445,0.0232895,0.00319082,0.359873,0.0145796,0.043452,622,792,-8.95502,-1.51497
-595,232,-8.07788,1.25873,0.0192538,0.00479205,0.00449006,0.0205345,0.0035114,0.277843,0.0126823,0.0346927,629,792,-8.07786,-1.25876
-588,232,-8.03973,0.93634,0.0165479,0.00378155,0.00310238,0.0172618,0.00306756,0.226203,0.0106339,0.01245,636,792,-8.03974,-0.936332
-581,232,-8.0401,0.761353,0.0131305,0.00294125,0.00216768,0.0135725,0.00249927,0.20114,0.00834099,0.00793211,643,792,-8.04009,-0.76134
-574,232,-8.04547,0.596375,0.00957255,0.00210384,0.00148182,0.0098558,0.00182059,0.188876,0.00605559,0.00776342,650,792,-8.04548,-0.59639
-567,232,-8.06268,0.421204,0.00736777,0.00137175,0.000983967,0.00752511,0.00121441,0.158565,0.00466493,0.0086476,657,792,-8.06266,-0.421185
-560,232,-8.06189,0.246399,0.00411046,9.90005e-05,0.00160012,0.00467054,-0.000461072,0.336691,0.00327821,0.0102508,664,792,-8.06192,-0.246379
-553,232,-8.07147,0.0755615,0.00104096,0.000101359,0.00207415,0.00269785,-0.00155552,0.674025,0.00248503,0.0117754,671,792,-8.07148,-0.07554
-546,232,-8.09924,-0.0921021,-0.00227021,-0.000246238,0.00321163,0.00210907,-0.00462552,0.938025,0.00397767,0.0195128,678,792,-8.09923,0.0920947
-539,232,-8.0965,-0.268127,-0.00449845,-0.000421808,0.00379441,0.00184711,-0.00676737,1.03188,0.00523701,0.024528,685,792,-8.09648,0.268145
-532,232,-8.06226,-0.439026,-0.0060873,-0.000698581,0.00425727,0.00164531,-0.00843119,1.06752,0.00624193,0.0156206,692,792,-8.06227,0.439032
-525,232,-8.06573,-0.559509,-0.00746301,-0.00079805,0.00485697,0.00175976,-0.0100208,1.08607,0.00733782,0.0249049,699,792,-8.06573,0.559531
-518,232,-8.14313,-0.687256,-0.00883364,-0.000658564,0.00583959,0.00238192,-0.0118741,1.09075,0.00881795,0.0480044,706,792,-8.14314,0.687233
-511,232,-8.2077,-0.806885,0,0,0,0,0,0,0,-1,713,792,-8.20768,0.806906
-504,232,-10.931,1.30286,0,0,0,0,0,0,0,-1,720,792,-10.931,-1.30287
-497,232,-11.1575,1.19092,0,0,0,0,0,0,0,-1,727,792,-11.1575,-1.19089
-490,232,-11.3668,1.04877,0,0,0,0,0,0,0,-1,734,792,-11.3668,-1.04879
-483,232,-11.8904,0.740784,-0.0143878,-0.000112144,0.0113822,0.00618516,-0.0206851,1.06545,0.016249,0.0423973,741,792,-11.8904,-0.74079
-476,232,-11.7906,0.709229,-0.0136947,0.000661449,0.0127759,0.00813765,-0.0211709,1.04134,0.0174701,0.0358335,748,792,-11.7906,-0.70922
-469,232,-11.7006,0.742554,-0.0103979,0.00219608,0.0135221,0.0108155,-0.0190173,1.00331,0.0174396,0.0351166,755,792,-11.7006,-0.742525
-462,232,0,0,0,0,0,0,0,0,0,-1,762,792,0,0
-455,232,0,0,0,0,0,0,0,0,0,-1,769,792,0,0
-448,232,0,0,0,0,0,0,0,0,0,-1,776,792,0,0
-441,232,0,0,0,0,0,0,0,0,0,-1,783,792,0,0
-434,232,0,0,0,0,0,0,0,0,0,-1,790,792,0,0
-427,232,0,0,0,0,0,0,0,0,0,-1,797,792,0,0
-420,232,0,0,0,0,0,0,0,0,0,-1,804,792,0,0
-413,232,0,0,0,0,0,0,0,0,0,-1,811,792,0,0
-406,232,0,0,0,0,0,0,0,0,0,-1,818,792,0,0
-399,232,0,0,0,0,0,0,0,0,0,-1,825,792,0,0
-392,232,0,0,0,0,0,0,0,0,0,-1,832,792,0,0
-385,232,0,0,0,0,0,0,0,0,0,-1,839,792,0,0
-378,232,0,0,0,0,0,0,0,0,0,-1,846,792,0,0
-371,232,0,0,0,0,0,0,0,0,0,-1,853,792,0,0
-364,232,0,0,0,0,0,0,0,0,0,-1,860,792,0,0
-357,232,0,0,0,0,0,0,0,0,0,-1,867,792,0,0
-350,232,0,0,0,0,0,0,0,0,0,-1,874,792,0,0
-343,232,0,0,0,0,0,0,0,0,0,-1,881,792,0,0
-336,232,0,0,0,0,0,0,0,0,0,-1,888,792,0,0
-329,232,0,0,0,0,0,0,0,0,0,-1,895,792,0,0
-322,232,0,0,0,0,0,0,0,0,0,-1,902,792,0,0
-315,232,0,0,0,0,0,0,0,0,0,-1,909,792,0,0
-308,232,0,0,0,0,0,0,0,0,0,-1,916,792,0,0
-301,232,0,0,0,0,0,0,0,0,0,-1,923,792,0,0
-294,232,0,0,0,0,0,0,0,0,0,-1,930,792,0,0
-287,232,0,0,0,0,0,0,0,0,0,-1,937,792,0,0
-280,232,0,0,0,0,0,0,0,0,0,-1,944,792,0,0
-273,232,0,0,0,0,0,0,0,0,0,-1,951,792,0,0
-266,232,0,0,0,0,0,0,0,0,0,-1,958,792,0,0
-259,232,0,0,0,0,0,0,0,0,0,-1,965,792,0,0
-252,232,0,0,0,0,0,0,0,0,0,-1,972,792,0,0
-245,232,0,0,0,0,0,0,0,0,0,-1,979,792,0,0
-238,232,0,0,0,0,0,0,0,0,0,-1,986,792,0,0
-231,232,0,0,0,0,0,0,0,0,0,-1,993,792,0,0
-224,232,0,0,0,0,0,0,0,0,0,-1,1000,792,0,0
-217,232,0,0,0,0,0,0,0,0,0,-1,1007,792,0,0
-210,232,0,0,0,0,0,0,0,0,0,-1,1014,792,0,0
-203,232,0,0,0,0,0,0,0,0,0,-1,1021,792,0,0
-196,232,0,0,0,0,0,0,0,0,0,-1,1028,792,0,0
-189,232,0,0,0,0,0,0,0,0,0,-1,1035,792,0,0
-182,232,0,0,0,0,0,0,0,0,0,-1,1042,792,0,0
-175,232,0,0,0,0,0,0,0,0,0,-1,1049,792,0,0
-168,232,0,0,0,0,0,0,0,0,0,-1,1056,792,0,0
-161,232,0,0,0,0,0,0,0,0,0,-1,1063,792,0,0
-154,232,0,0,0,0,0,0,0,0,0,-1,1070,792,0,0
-147,232,0,0,0,0,0,0,0,0,0,-1,1077,792,0,0
-140,232,0,0,0,0,0,0,0,0,0,-1,1084,792,0,0
-133,232,0,0,0,0,0,0,0,0,0,-1,1091,792,0,0
-126,232,0,0,0,0,0,0,0,0,0,-1,1098,792,0,0
-119,232,0,0,0,0,0,0,0,0,0,-1,1105,792,0,0
-112,232,0,0,0,0,0,0,0,0,0,-1,1112,792,0,0
-105,232,0,0,0,0,0,0,0,0,0,-1,1119,792,0,0
-98,232,0,0,0,0,0,0,0,0,0,-1,1126,792,0,0
-91,232,0,0,0,0,0,0,0,0,0,-1,1133,792,0,0
-84,232,0,0,0,0,0,0,0,0,0,-1,1140,792,0,0
-77,232,0,0,0,0,0,0,0,0,0,-1,1147,792,0,0
-70,232,0,0,0,0,0,0,0,0,0,-1,1154,792,0,0
-63,232,0,0,0,0,0,0,0,0,0,-1,1161,792,0,0
-56,232,0,0,0,0,0,0,0,0,0,-1,1168,792,0,0
-49,232,0,0,0,0,0,0,0,0,0,-1,1175,792,0,0
-42,232,0,0,0,0,0,0,0,0,0,-1,1182,792,0,0
-35,232,0,0,0,0,0,0,0,0,0,-1,1189,792,0,0
-28,232,0,0,0,0,0,0,0,0,0,-1,1196,792,0,0
-21,232,0,0,0,0,0,0,0,0,0,-1,1203,792,0,0
-14,232,0,0,0,0,0,0,0,0,0,-1,1210,792,0,0
-7,232,0,0,0,0,0,0,0,0,0,-1,1217,792,0,0
0,232,0,0,0,0,0,0,0,0,0,-1,1224,792,0,0
7,232,0,0,0,0,0,0,0,0,0,-1,1231,792,0,0
14,232,0,0,0,0,0,0,0,0,0,-1,1238,792,0,0
21,232,0,0,0,0,0,0,0,0,0,-1,1245,792,0,0
28,232,0,0,0,0,0,0,0,0,0,-1,1252,792,0,0
35,232,0,0,0,0,0,0,0,0,0,-1,1259,792,0,0
42,232,0,0,0,0,0,0,0,0,0,-1,1266,792,0,0
49,232,0,0,0,0,0,0,0,0,0,-1,1273,792,0,0
56,232,0,0,0,0,0,0,0,0,0,-1,1280,792,0,0
63,232,0,0,0,0,0,0,0,0,0,-1,1287,792,0,0
70,232,0,0,0,0,0,0,0,0,0,-1,1294,792,0,0
77,232,0,0,0,0,0,0,0,0,0,-1,1301,792,0,0
84,232,0,0,0,0,0,0,0,0,0,-1,1308,792,0,0
91,232,0,0,0,0,0,0,0,0,0,-1,1315,792,0,0
98,232,0,0,0,0,0,0,0,0,0,-1,1322,792,0,0
105,232,0,0,0,0,0,0,0,0,0,-1,1329,792,0,0
112,232,0,0,0,0,0,0,0,0,0,-1,1336,792,0,0
119,232,0,0,0,0,0,0,0,0,0,-1,1343,792,0,0
126,232,0,0,0,0,0,0,0,0,0,-1,1350,792,0,0
133,232,0,0,0,0,0,0,0,0,0,-1,1357,792,0,0
140,232,0,0,0,0,0,0,0,0,0,-1,1364,792,0,0
147,232,0,0,0,0,0,0,0,0,0,-1,1371,792,0,0
154,232,0,0,0,0,0,0,0,0,0,-1,1378,792,0,0
161,232,0,0,0,0,0,0,0,0,0,-1,1385,792,0,0
168,232,0,0,0,0,0,0,0,0,0,-1,1392,792,0,0
175,232,0,0,0,0,0,0,0,0,0,-1,1399,792,0,0
182,232,0,0,0,0,0,0,0,0,0,-1,1406,792,0,0
189,232,0,0,0,0,0,0,0,0,0,-1,1413,792,0,0
196,232,0,0,0,0,0,0,0,0,0,-1,1420,792,0,0
203,232,0,0,0,0,0,0,0,0,0,-1,1427,792,0,0
210,232,0,0,0,0,0,0,0,0,0,-1,1434,792,0,0
217,232,0,0,0,0,0,0,0,0,0,-1,1441,792,0,0
224,232,0,0,0,0,0,0,0,0,0,-1,1448,792,0,0
231,232,0,0,0,0,0,0,0,0,0,-1,1455,792,0,0
238,232,0,0,0,0,0,0,0,0,0,-1,1462,792,0,0
245,232,0,0,0,0,0,0,0,0,0,-1,1469,792,0,0
252,232,0,0,0,0,0,0,0,0,0,-1,1476,792,0,0
259,232,0,0,0,0,0,0,0,0,0,-1,1483,792,0,0
266,232,0,0,0,0,0,0,0,0,0,-1,1490,792,0,0
273,232,0,0,0,0,0,0,0,0,0,-1,1497,792,0,0
280,232,0,0,0,0,0,0,0,0,0,-1,1504,792,0,0
287,232,0,0,0,0,0,0,0,0,0,-1,1511,792,0,0
294,232,0,0,0,0,0,0,0,0,0,-1,1518,792,0,0
301,232,0,0,0,0,0,0,0,0,0,-1,1525,792,0,0
308,232,0,0,0,0,0,0,0,0,0,-1,1532,792,0,0
315,232,0,0,0,0,0,0,0,0,0,-1,1539,792,0,0
322,232,0,0,0,0,0,0,0,0,0,-1,1546,792,0,0
329,232,0,0,0,0,0,0,0,0,0,-1,1553,792,0,0
336,232,0,0,0,0,0,0,0,0,0,-1,1560,792,0,0
343,232,0,0,0,0,0,0,0,0,0,-1,1567,792,0,0
350,232,0,0,0,0,0,0,0,0,0,-1,1574,792,0,0
357,232,0,0,0,0,0,0,0,0,0,-1,1581,792,0,0
364,232,0,0,0,0,0,0,0,0,0,-1,1588,792,0,0
371,232,0,0,0,0,0,0,0,0,0,-1,1595,792,0,0
378,232,0,0,0,0,0,0,0,0,0,-1,1602,792,0,0
385,232,0,0,0,0,0,0,0,0,0,-1,1609,792,0,0
392,232,0,0,0,0,0,0,0,0,0,-1,1616,792,0,0
399,232,0,0,0,0,0,0,0,0,0,-1,1623,792,0,0
406,232,0,0,0,0,0,0,0,0,0,-1,1630,792,0,0
413,232,0,0,0,0,0,0,0,0,0,-1,1637,792,0,0
420,232,0,0,0,0,0,0,0,0,0,-1,1644,792,0,0
427,232,0,0,0,0,0,0,0,0,0,-1,1651,792,0,0
434,232,0,0,0,0,0,0,0,0,0,-1,1658,792,0,0
441,232,0,0,0,0,0,0,0,0,0,-1,1665,792,0,0
448,232,0,0,0,0,0,0,0,0,0,-1,1672,792,0,0
455,232,0,0,0,0,0,0,0,0,0,-1,1679,792,0,0
462,232,0,0,0,0,0,0,0,0,0,-1,1686,792,0,0
469,232,0,0,0,0,0,0,0,0,0,-1,1693,792,0,0
476,232,0,0,0,0,0,0,0,0,0,-1,1700,792,0,0
483,232,0,0,0,0,0,0,0,0,0,-1,1707,792,0,0
490,232,0,0,0,0,0,0,0,0,0,-1,1714,792,0,0
497,232,0,0,0,0,0,0,0,0,0,-1,1721,792,0,0
504,232,0,0,0,0,0,0,0,0,0,-1,1728,792,0,0
511,232,0,0,0,0,0,0,0,0,0,-1,1735,792,0,0
518,232,0,0,0,0,0,0,0,0,0,-1,1742,792,0,0
525,232,0,0,0,0,0,0,0,0,0,-1,1749,792,0,0
532,232,0,0,0,0,0,0,0,0,0,-1,1756,792,0,0
539,232,0,0,0,0,0,0,0,0,0,-1,1763,792,0,0
546,232,0,0,0,0,0,0,0,0,0,-1,1770,792,0,0
553,232,0,0,0,0,0,0,0,0,0,-1,1777,792,0,0
560,232,0,0,0,0,0,0,0,0,0,-1,1784,792,0,0
567,232,0,0,0,0,0,0,0,0,0,-1,1791,792,0,0
574,232,0,0,0,0,0,0,0,0,0,-1,1798,792,0,0
581,232,0,0,0,0,0,0,0,0,0,-1,1805,792,0,0
588,232,17.8113,2.70374,0.00623831,0.000657767,-0.00502375,0.00919466,-0.00229858,-0.531902,0.0070225,0.0407715,1812,792,17.8112,-2.70376
595,232,17.7777,2.69366,0.0075864,0.0014592,-0.00237893,0.00840158,0.000644019,-0.330128,0.0053992,0.0370546,1819,792,17.7777,-2.69369
602,232,17.7338,2.60101,0.00713827,0.00169715,-0.000524277,0.00718832,0.00164709,-0.0951877,0.00434844,0.033432,1826,792,17.7337,-2.60102
609,232,17.8785,2.65973,0.00619105,0.00184345,0.000815512,0.00633898,0.00169551,0.179453,0.00378944,0.0385659,1833,792,17.8786,-2.65972
616,232,17.8948,2.79272,0.00513177,0.00165152,0.00168469,0.00581368,0.000969618,0.384608,0.00359641,0.0461581,1840,792,17.8948,-2.7927
623,232,19.4102,1.63586,0,0,0,0,0,0,0,-1,1847,792,19.4102,-1.63585
630,232,18.3204,2.3562,0.00309837,0.00127835,0.002469,0.00481973,-0.000443004,0.608836,0.00337054,0.0476503,1854,792,18.3204,-2.35618
637,232,19.0619,2.16797,0,0,0,0,0,0,0,-1,1861,792,19.0619,-2.16798
644,232,13.0804,0.931885,0,0,0,0,0,0,0,-1,1868,792,13.0805,-0.931856
651,232,13.205,1.20709,0.000750432,0.000897635,0.00226122,0.00308645,-0.00143838,0.801667,0.00266955,0.0454065,1875,792,13.205,-1.20706
658,232,13.3131,1.48853,0.000217681,0.000786175,0.00200858,0.00253052,-0.00152667,0.855689,0.0023662,0.0227245,1882,792,13.3131,-1.4885
665,232,13.2843,1.68427,0.000203302,0.000322712,0.00144964,0.00171388,-0.00118786,0.805979,0.00168447,0.0108471,1889,792,13.2843,-1.68424
672,232,13.2444,1.86603,0.000896633,4.23538e-05,0.000581668,0.00119115,-0.000252161,0.468698,0.000890139,0.016542,1896,792,13.2444,-1.86603
679,232,13.2803,2.06134,0.00125236,-0.000115652,0.000237352,0.00129237,-0.000155663,0.167002,0.000917876,0.0179807,1903,792,13.2803,-2.06136
686,232,13.2964,2.27991,0.0015147,-0.000105026,-5.85964e-05,0.00151682,-0.000107143,-0.0361137,0.00104875,0.018413,1910,792,13.2964,-2.2799
693,232,13.286,2.44202,0.00265088,-0.000211629,-0.000379852,0.00270043,-0.000261177,-0.129709,0.00189336,0.0101536,1917,792,13.286,-2.442
700,232,13.2875,2.60889,0.00405721,-0.000275885,-0.000624083,0.00414531,-0.000363979,-0.140231,0.00289251,0.0107824,1924,792,13.2874,-2.60887
707,232,13.2955,2.789,0.00567351,-0.000457536,-0.000807991,0.00577821,-0.000562231,-0.128856,0.00405257,0.0114571,1931,792,13.2956,-2.789
714,232,13.3064,2.96021,0.0078784,-0.000556731,-0.000844209,0.00796206,-0.000640392,-0.0987771,0.00553387,0.0128751,1938,792,13.3064,-2.96018
721,232,13.3068,3.11603,0.0104569,-0.000785784,-0.000749229,0.0105066,-0.000835494,-0.066251,0.00729886,0.0167836,1945,792,13.3067,-3.11602
728,232,13.3306,3.24609,0.0134646,-0.00113165,-0.000454316,0.0134787,-0.00114577,-0.0310855,0.00939105,0.0309333,1952,792,13.3306,-3.2461
735,232,13.7877,3.40729,0.017062,-0.00171834,0.000112577,0.0170627,-0.00171902,0.00599411,0.0119893,0.0438345,1959,792,13.7878,-3.40731
742,232,13.9399,3.70837,0,0,0,0,0,0,0,-1,1966,792,13.9399,-3.70835
749,232,13.8945,3.86249,0,0,0,0,0,0,0,-1,1973,792,13.8945,-3.86248
756,232,14.4113,4.74762,0,0,0,0,0,0,0,-1,1980,792,14.4112,-4.7476
763,232,12.3738,2.21539,0,0,0,0,0,0,0,-1,1987,792,12.3738,-2.2154
770,232,0,0,0,0,0,0,0,0,0,-1,1994,792,0,0
777,232,0,0,0,0,0,0,0,0,0,-1,2001,792,0,0
784,232,0,0,0,0,0,0,0,0,0,-1,2008,792,0,0
791,232,0,0,0,0,0,0,0,0,0,-1,2015,792,0,0
798,232,0,0,0,0,0,0,0,0,0,-1,2022,792,0,0
805,232,0,0,0,0,0,0,0,0,0,-1,2029,792,0,0
812,232,0,0,0,0,0,0,0,0,0,-1,2036,792,0,0
-700,225,0,0,0,0,0,0,0,0,0,-1,524,799,0,0
-693,225,0,0,0,0,0,0,0,0,0,-1,531,799,0,0
-686,225,0,0,0,0,0,0,0,0,0,-1,538,799,0,0
-679,225,0,0,0,0,0,0,0,0,0,-1,545,799,0,0
-672,225,0,0,0,0,0,0,0,0,0,-1,552,799,0,0
-665,225,0,0,0,0,0,0,0,0,0,-1,559,799,0,0
-658,225,0,0,0,0,0,0,0,0,0,-1,566,799,0,0
-651,225,0,0,0,0,0,0,0,0,0,-1,573,799,0,0
-644,225,-11.2614,0.843628,0,0,0,0,0,0,0,-1,580,799,-11.2614,-0.843625
-637,225,-10.5737,1.19641,0,0,0,0,0,0,0,-1,587,799,-10.5737,-1.1964
-630,225,-7.82574,-0.0177002,0,0,0,0,0,0,0,-1,594,799,-7.82576,0.0177002
-623,225,-7.92761,0.49585,0,0,0,0,0,0,0,-1,601,799,-7.92761,-0.495822
-616,225,-8.35718,1.16534,0,0,0,0,0,0,0,-1,608,799,-8.35717,-1.16534
-609,225,-8.59332,1.28857,0.0131464,0.00810697,0.00497803,0.0162061,0.00504728,0.551114,0.0095758,0.0468672,615,799,-8.59333,-1.28856
-602,225,-8.38293,1.40576,0.0143303,0.00674472,0.003023,0.0153877,0.00568739,0.336465,0.00898421,0.0478787,622,799,-8.38295,-1.40576
-595,225,-8.28387,1.15137,0.013723,0.00533777,0.0018223,0.0141019,0.00495887,0.205007,0.00826032,0.0312005,629,799,-8.28389,-1.15136
-588,225,-8.24036,0.920837,0.0118161,0.00393961,0.00130483,0.0120267,0.00372908,0.159969,0.00710863,0.0132978,636,799,-8.24033,-0.920837
-581,225,-8.2121,0.75946,0.00903482,0.00281903,0.00109586,0.00922236,0.00263149,0.169497,0.00548567,0.0102387,643,799,-8.21211,-0.759437
-574,225,-8.21167,0.591553,0.00600403,0.00174667,0.00100003,0.00622723,0.00152348,0.219593,0.00374832,0.00811822,650,799,-8.21166,-0.591572
-567,225,-8.21094,0.406006,0.00417959,0.00092148,0.000968455,0.00444572,0.000655349,0.268179,0.00277131,0.00954343,657,799,-8.21095,-0.406028
-560,225,-8.23987,0.23999,0.00138022,-0.000160495,0.00188295,0.0026443,-0.00142458,0.591225,0.00238409,0.00948601,664,799,-8.23987,-0.240009
-553,225,-8.24695,0.0580444,-0.00130513,-3.75381e-05,0.0024812,0.00188954,-0.0032322,0.910444,0.00299072,0.00987582,671,799,-8.24695,-0.0580203
-546,225,-8.26471,-0.122559,-0.00417511,-0.000224446,0.003536,0.00185056,-0.00625011,1.04012,0.00490146,0.0186594,678,799,-8.26471,0.122572
-539,225,-8.26044,-0.280334,-0.00585838,-0.000163112,0.00391924,0.00183378,-0.00785528,1.09957,0.00594318,0.0228401,685,799,-8.26044,0.280356
-532,225,-8.25214,-0.419495,-0.00691583,-0.000214621,0.00415052,0.00176894,-0.0088994,1.12498,0.00660205,0.0167531,692,799,-8.25212,0.419522
-525,225,-8.32562,-0.480103,-0.00770243,-7.24408e-05,0.00443595,0.00196336,-0.00973823,1.14054,0.00723595,0.0371255,699,799,-8.32561,0.4801
-518,225,-8.26746,-0.623718,-0.00846733,0.000253044,0.00499027,0.00251962,-0.0107339,1.14446,0.00812707,0.0428823,706,799,-8.26747,0.623747
-511,225,-8.18689,-0.555054,0,0,0,0,0,0,0,-1,713,799,-8.18686,0.555079
-504,225,-8.17267,-0.490417,0,0,0,0,0,0,0,-1,720,799,-8.17268,0.490429
-497,225,-11.5516,0.991882,0,0,0,0,0,0,0,-1,727,799,-11.5516,-0.991868
-490,225,-11.7444,0.799072,0,0,0,0,0,0,0,-1,734,799,-11.7444,-0.7991
-483,225,-11.7551,0.760376,-0.00894962,0.00163593,0.00618975,0.00448726,-0.0118009,1.13912,0.00971486,0.0332004,741,799,-11.7551,-0.760358
-476,225,-11.7134,0.721741,-0.00665564,0.00242716,0.00593771,0.0053611,-0.00958958,1.11186,0.0087461,0.0323703,748,799,-11.7135,-0.721744
-469,225,-11.6779,0.69751,-0.0011334,0.00394094,0.00446259,0.00653719,-0.00372965,1.04388,0.00600098,0.0360811,755,799,-11.6779,-0.697515
-462,225,0,0,0,0,0,0,0,0,0,-1,762,799,0,0
-455,225,0,0,0,0,0,0,0,0,0,-1,769,799,0,0
-448,225,0,0,0,0,0,0,0,0,0,-1,776,799,0,0
-441,225,0,0,0,0,0,0,0,0,0,-1,783,799,0,0
-434,225,0,0,0,0,0,0,0,0,0,-1,790,799,0,0
-427,225,0,0,0,0,0,0,0,0,0,-1,797,799,0,0
-420,225,0,0,0,0,0,0,0,0,0,-1,804,799,0,0
-413,225,0,0,0,0,0,0,0,0,0,-1,811,799,0,0
-406,225,0,0,0,0,0,0,0,0,0,-1,818,799,0,0
-399,225,0,0,0,0,0,0,0,0,0,-1,825,799,0,0
-392,225,0,0,0,0,0,0,0,0,0,-1,832,799,0,0
-385,225,0,0,0,0,0,0,0,0,0,-1,839,799,0,0
-378,225,0,0,0,0,0,0,0,0,0,-1,846,799,0,0
-371,225,0,0,0,0,0,0,0,0,0,-1,853,799,0,0
-364,225,0,0,0,0,0,0,0,0,0,-1,860,799,0,0
-357,225,0,0,0,0,0,0,0,0,0,-1,867,799,0,0
-350,225,0,0,0,0,0,0,0,0,0,-1,874,799,0,0
-343,225,0,0,0,0,0,0,0,0,0,-1,881,799,0,0
-336,225,0,0,0,0,0,0,0,0,0,-1,888,799,0,0
-329,225,0,0,0,0,0,0,0,0,0,-1,895,799,0,0
-322,225,0,0,0,0,0,0,0,0,0,-1,902,799,0,0
-315,225,0,0,0,0,0,0,0,0,0,-1,909,799,0,0
-308,225,0,0,0,0,0,0,0,0,0,-1,916,799,0,0
-301,225,0,0,0,0,0,0,0,0,0,-1,923,799,0,0
-294,225,0,0,0,0,0,0,0,0,0,-1,930,799,0,0
-287,225,0,0,0,0,0,0,0,0,0,-1,937,799,0,0
-280,225,0,0,0,0,0,0,0,0,0,-1,944,799,0,0
-273,225,0,0,0,0,0,0,0,0,0,-1,951,799,0,0
-266,225,0,0,0,0,0,0,0,0,0,-1,958,799,0,0
-259,225,0,0,0,0,0,0,0,0,0,-1,965,799,0,0
-252,225,0,0,0,0,0,0,0,0,0,-1,972,799,0,0
-245,225,0,0,0,0,0,0,0,0,0,-1,979,799,0,0
-238,225,0,0,0,0,0,0,0,0,0,-1,986,799,0,0
-231,225,0,0,0,0,0,0,0,0,0,-1,993,799,0,0
-224,225,0,0,0,0,0,0,0,0,0,-1,1000,799,0,0
-217,225,0,0,0,0,0,0,0,0,0,-1,1007,799,0,0
-210,225,0,0,0,0,0,0,0,0,0,-1,1014,799,0,0
-203,225,0,0,0,0,0,0,0,0,0,-1,1021,799,0,0
-196,225,0,0,0,0,0,0,0,0,0,-1,1028,799,0,0
-189,225,0,0,0,0,0,0,0,0,0,-1,1035,799,0,0
-182,225,0,0,0,0,0,0,0,0,0,-1,1042,799,0,0
-175,225,0,0,0,0,0,0,0,0,0,-1,1049,799,0,0
-168,225,0,0,0,0,0,0,0,0,0,-1,1056,799,0,0
-161,225,0,0,0,0,0,0,0,0,0,-1,1063,799,0,0
-154,225,0,0,0,0,0,0,0,0,0,-1,1070,799,0,0
-147,225,0,0,0,0,0,0,0,0,0,-1,1077,799,0,0
-140,225,0,0,0,0,0,0,0,0,0,-1,1084,799,0,0
-133,225,0,0,0,0,0,0,0,0,0,-1,1091,799,0,0
-126,225,0,0,0,0,0,0,0,0,0,-1,1098,799,0,0
-119,225,0,0,0,0,0,0,0,0,0,-1,1105,799,0,0
-112,225,0,0,0,0,0,0,0,0,0,-1,1112,799,0,0
-105,225,0,0,0,0,0,0,0,0,0,-1,1119,799,0,0
-98,225,0,0,0,0,0,0,0,0,0,-1,1126,799,0,0
-91,225,0,0,0,0,0,0,0,0,0,-1,1133,799,0,0
-84,225,0,0,0,0,0,0,0,0,0,-1,1140,799,0,0
-77,225,0,0,0,0,0,0,0,0,0,-1,1147,799,0,0
-70,225,0,0,0,0,0,0,0,0,0,-1,1154,799,0,0
-63,225,0,0,0,0,0,0,0,0,0,-1,1161,799,0,0
-56,225,0,0,0,0,0,0,0,0,0,-1,1168,799,0,0
-49,225,0,0,0,0,0,0,0,0,0,-1,1175,799,0,0
-42,225,0,0,0,0,0,0,0,0,0,-1,1182,799,0,0
-35,225,0,0,0,0,0,0,0,0,0,-1,1189,799,0,0
-28,225,0,0,0,0,0,0,0,0,0,-1,1196,799,0,0
-21,225,0,0,0,0,0,0,0,0,0,-1,1203,799,0,0
-14,225,0,0,0,0,0,0,0,0,0,-1,1210,799,0,0
-7,225,0,0,0,0,0,0,0,0,0,-1,1217,799,0,0
0,225,0,0,0,0,0,0,0,0,0,-1,1224,799,0,0
7,225,0,0,0,0,0,0,0,0,0,-1,1231,799,0,0
14,225,0,0,0,0,0,0,0,0,0,-1,1238,799,0,0
21,225,0,0,0,0,0,0,0,0,0,-1,1245,799,0,0
28,225,0,0,0,0,0,0,0,0,0,-1,1252,799,0,0
35,225,0,0,0,0,0,0,0,0,0,-1,1259,799,0,0
42,225,0,0,0,0,0,0,0,0,0,-1,1266,799,0,0
49,225,0,0,0,0,0,0,0,0,0,-1,1273,799,0,0
56,225,0,0,0,0,0,0,0,0,0,-1,1280,799,0,0
63,225,0,0,0,0,0,0,0,0,0,-1,1287,799,0,0
70,225,0,0,0,0,0,0,0,0,0,-1,1294,799,0,0
77,225,0,0,0,0,0,0,0,0,0,-1,1301,799,0,0
84,225,0,0,0,0,0,0,0,0,0,-1,1308,799,0,0
91,225,0,0,0,0,0,0,0,0,0,-1,1315,799,0,0
98,225,0,0,0,0,0,0,0,0,0,-1,1322,799,0,0
105,225,0,0,0,0,0,0,0,0,0,-1,1329,799,0,0
112,225,0,0,0,0,0,0,0,0,0,-1,1336,799,0,0
119,225,0,0,0,0,0,0,0,0,0,-1,1343,799,0,0
126,225,0,0,0,0,0,0,0,0,0,-1,1350,799,0,0
133,225,0,0,0,0,0,0,0,0,0,-1,1357,799,0,0
140,225,0,0,0,0,0,0,0,0,0,-1,1364,799,0,0
147,225,0,0,0,0,0,0,0,0,0,-1,1371,799,0,0
154,225,0,0,0,0,0,0,0,0,0,-1,1378,799,0,0
161,225,0,0,0,0,0,0,0,0,0,-1,1385,799,0,0
168,225,0,0,0,0,0,0,0,0,0,-1,1392,799,0,0
175,225,0,0,0,0,0,0,0,0,0,-1,1399,799,0,0
182,225,0,0,0,0,0,0,0,0,0,-1,1406,799,0,0
189,225,0,0,0,0,0,0,0,0,0,-1,1413,799,0,0
196,225,0,0,0,0,0,0,0,0,0,-1,1420,799,0,0
203,225,0,0,0,0,0,0,0,0,0,-1,1427,799,0,0
210,225,0,0,0,0,0,0,0,0,0,-1,1434,799,0,0
217,225,0,0,0,0,0,0,0,0,0,-1,1441,799,0,0
224,225,0,0,0,0,0,0,0,0,0,-1,1448,799,0,0
231,225,0,0,0,0,0,0,0,0,0,-1,1455,799,0,0
238,225,0,0,0,0,0,0,0,0,0,-1,1462,799,0,0
245,225,0,0,0,0,0,0,0,0,0,-1,1469,799,0,0
252,225,0,0,0,0,0,0,0,0,0,-1,1476,799,0,0
259,225,0,0,0,0,0,0,0,0,0,-1,1483,799,0,0
266,225,0,0,0,0,0,0,0,0,0,-1,1490,799,0,0
273,225,0,0,0,0,0,0,0,0,0,-1,1497,799,0,0
280,225,0,0,0,0,0,0,0,0,0,-1,1504,799,0,0
287,225,0,0,0,0,0,0,0,0,0,-1,1511,799,0,0
294,225,0,0,0,0,0,0,0,0,0,-1,1518,799,0,0
301,225,0,0,0,0,0,0,0,0,0,-1,1525,799,0,0
308,225,0,0,0,0,0,0,0,0,0,-1,1532,799,0,0
315,225,0,0,0,0,0,0,0,0,0,-1,1539,799,0,0
322,225,0,0,0,0,0,0,0,0,0,-1,1546,799,0,0
329,225,0,0,0,0,0,0,0,0,0,-1,1553,799,0,0
336,225,0,0,0,0,0,0,0,0,0,-1,1560,799,0,0
343,225,0,0,0,0,0,0,0,0,0,-1,1567,799,0,0
350,225,0,0,0,0,0,0,0,0,0,-1,1574,799,0,0
357,225,0,0,0,0,0,0,0,0,0,-1,1581,799,0,0
364,225,0,0,0,0,0,0,0,0,0,-1,1588,799,0,0
371,225,0,0,0,0,0,0,0,0,0,-1,1595,799,0,0
378,225,0,0,0,0,0,0,0,0,0,-1,1602,799,0,0
385,225,0,0,0,0,0,0,0,0,0,-1,1609,799,0,0
392,225,0,0,0,0,0,0,0,0,0,-1,1616,799,0,0
399,225,0,0,0,0,0,0,0,0,0,-1,1623,799,0,0
406,225,0,0,0,0,0,0,0,0,0,-1,1630,799,0,0
413,225,0,0,0,0,0,0,0,0,0,-1,1637,799,0,0
420,225,0,0,0,0,0,0,0,0,0,-1,1644,799,0,0
427,225,0,0,0,0,0,0,0,0,0,-1,1651,799,0,0
434,225,0,0,0,0,0,0,0,0,0,-1,1658,799,0,0
441,225,0,0,0,0,0,0,0,0,0,-1,1665,799,0,0
448,225,0,0,0,0,0,0,0,0,0,-1,1672,799,0,0
455,225,0,0,0,0,0,0,0,0,0,-1,1679,799,0,0
462,225,0,0,0,0,0,0,0,0,0,-1,1686,799,0,0
469,225,0,0,0,0,0,0,0,0,0,-1,1693,799,0,0
476,225,0,0,0,0,0,0,0,0,0,-1,1700,799,0,0
483,225,0,0,0,0,0,0,0,0,0,-1,1707,799,0,0
490,225,0,0,0,0,0,0,0,0,0,-1,1714,799,0,0
497,225,0,0,0,0,0,0,0,0,0,-1,1721,799,0,0
504,225,0,0,0,0,0,0,0,0,0,-1,1728,799,0,0
511,225,0,0,0,0,0,0,0,0,0,-1,1735,799,0,0
518,225,0,0,0,0,0,0,0,0,0,-1,1742,799,0,0
525,225,0,0,0,0,0,0,0,0,0,-1,1749,799,0,0
532,225,0,0,0,0,0,0,0,0,0,-1,1756,799,0,0
539,225,0,0,0,0,0,0,0,0,0,-1,1763,799,0,0
546,225,0,0,0,0,0,0,0,0,0,-1,1770,799,0,0
553,225,0,0,0,0,0,0,0,0,0,-1,1777,799,0,0
560,225,0,0,0,0,0,0,0,0,0,-1,1784,799,0,0
567,225,0,0,0,0,0,0,0,0,0,-1,1791,799,0,0
574,225,0,0,0,0,0,0,0,0,0,-1,1798,799,0,0
581,225,0,0,0,0,0,0,0,0,0,-1,1805,799,0,0
588,225,17.8877,2.6731,0.0041467,9.81723e-05,-0.00509181,0.00760187,-0.003357,-0.596201,0.00648339,0.0378512,1812,799,17.8877,-2.67308
595,225,17.8121,2.62628,0.00566941,0.00086515,-0.0023746,0.006645,-0.000110436,-0.389818,0.00446726,0.0342948,1819,799,17.8122,-2.62625
602,225,17.7444,2.61987,0.00533097,0.00103316,-0.000545643,0.00539916,0.000964968,-0.124331,0.00332479,0.0330403,1826,799,17.7444,-2.61987
609,225,17.8191,2.63586,0.00467457,0.0013266,0.000795393,0.00485392,0.00114724,0.221785,0.0029294,0.0345685,1833,799,17.8191,-2.63589
616,225,17.8657,2.6355,0.00382491,0.00134267,0.0016134,0.00461933,0.000548249,0.457543,0.00291405,0.0410614,1840,799,17.8657,-2.63551
623,225,17.8771,2.64105,0.00300412,0.00127596,0.0021109,0.00442095,-0.000140871,0.591132,0.00299536,0.0372894,1847,799,17.8771,-2.64103
630,225,18.0255,2.51654,0.00225972,0.00114621,0.00229492,0.00406445,-0.000658527,0.666396,0.00295372,0.0425659,1854,799,18.0256,-2.51653
637,225,17.5626,2.48376,0,0,0,0,0,0,0,-1,1861,799,17.5626,-2.48375
644,225,13.3256,0.231323,0,0,0,0,0,0,0,-1,1868,799,13.3256,-0.231334
651,225,13.403,0.909729,0.000474386,0.000898514,0.00202774,0.00272525,-0.00135235,0.8375,0.00239827,0.0410013,1875,799,13.403,-0.909743
658,225,13.625,1.58691,6.72916e-05,0.000854829,0.00177763,0.00228178,-0.00135966,0.894395,0.00212473,0.0352836,1882,799,13.6251,-1.58692
665,225,13.5006,1.66541,2.35468e-05,0.000520941,0.00133085,0.00162614,-0.00108165,0.877768,0.00157384,0.0128122,1889,799,13.5007,-1.66539
672,225,13.4485,1.89331,0.000514559,0.000263344,0.000649557,0.00105054,-0.000272639,0.68989,0.000806746,0.0168352,1896,799,13.4485,-1.89334
679,225,13.4723,2.09521,0.000749995,6.02136e-05,0.000347131,0.00089444,-8.42315e-05,0.394318,0.000626262,0.0178083,1903,799,13.4723,-2.09519
686,225,13.483,2.27838,0.000881129,3.11475e-05,5.45866e-05,0.00088462,2.76563e-05,0.0638712,0.000580748,0.0105618,1910,799,13.483,-2.27837
693,225,13.4766,2.4306,0.0018538,-0.00011033,-0.000262194,0.0018882,-0.000144728,-0.130448,0.00130971,0.00964508,1917,799,13.4766,-2.43063
700,225,13.47,2.60925,0.002999,-0.000241885,-0.000504019,0.00307557,-0.000318461,-0.150776,0.00216436,0.0100056,1924,799,13.47,-2.60923
707,225,13.4684,2.78723,0.00418903,-0.000439533,-0.000688759,0.00428935,-0.000539851,-0.144632,0.00305546,0.0103474,1931,799,13.4684,-2.78725
714,225,13.4915,2.97369,0.00586769,-0.000543122,-0.000708625,0.00594508,-0.000620516,-0.108786,0.00418559,0.0123268,1938,799,13.4914,-2.97372
721,225,13.5094,3.13562,0.00777264,-0.00072436,-0.00060728,0.00781582,-0.000767543,-0.0709891,0.00548433,0.013673,1945,799,13.5094,-3.13561
728,225,13.5236,3.25092,0.0098702,-0.0009924,-0.000336026,0.00988058,-0.00100278,-0.0308948,0.00694549,0.0224887,1952,799,13.5236,-3.2509
735,225,13.548,3.45239,0.0122424,-0.00144218,0.000165438,0.0122444,-0.00144418,0.0120871,0.00868441,0.0418187,1959,799,13.548,-3.45238
742,225,13.5386,3.61603,0,0,0,0,0,0,0,-1,1966,799,13.5386,-3.61604
749,225,13.7537,4.11462,0,0,0,0,0,0,0,-1,1973,799,13.7536,-4.11465
756,225,14.3247,5.30231,0,0,0,0,0,0,0,-1,1980,799,14.3247,-5.30231
763,225,12.4877,2.23273,0,0,0,0,0,0,0,-1,1987,799,12.4877,-2.23271
770,225,0,0,0,0,0,0,0,0,0,-1,1994,799,0,0
777,225,0,0,0,0,0,0,0,0,0,-1,2001,799,0,0
784,225,0,0,0,0,0,0,0,0,0,-1,2008,799,0,0
791,225,0,0,0,0,0,0,0,0,0,-1,2015,799,0,0
798,225,0,0,0,0,0,0,0,0,0,-1,2022,799,0,0
805,225,0,0,0,0,0,0,0,0,0,-1,2029,799,0,0
812,225,0,0,0,0,0,0,0,0,0,-1,2036,799,0,0
-700,218,0,0,0,0,0,0,0,0,0,-1,524,806,0,0
-693,218,0,0,0,0,0,0,0,0,0,-1,531,806,0,0
-686,218,0,0,0,0,0,0,0,0,0,-1,538,806,0,0
-679,218,0,0,0,0,0,0,0,0,0,-1,545,806,0,0
-672,218,0,0,0,0,0,0,0,0,0,-1,552,806,0,0
-665,218,0,0,0,0,0,0,0,0,0,-1,559,806,0,0
-658,218,0,0,0,0,0,0,0,0,0,-1,566,806,0,0
-651,218,-10.5349,1.38483,0,0,0,0,0,0,0,-1,573,806,-10.5348,-1.38484
-644,218,-11.6824,-0.321899,0,0,0,0,0,0,0,-1,580,806,-11.6824,0.321892
-637,218,-11.0422,0.13623,0,0,0,0,0,0,0,-1,587,806,-11.0422,-0.136248
-630,218,-8.90186,2.50525,0,0,0,0,0,0,0,-1,594,806,-8.90189,-2.50524
-623,218,-8.50928,1.58099,0,0,0,0,0,0,0,-1,601,806,-8.50925,-1.58098
-616,218,-8.54468,1.47467,0.000960935,0.0105229,0.00225351,0.0110274,0.000456457,1.35056,0.00720425,0.0495271,608,806,-8.54469,-1.47465
-609,218,-8.57556,1.35223,0.00574652,0.00889066,0.000662135,0.00902441,0.00561277,1.37148,0.00526165,0.0453846,615,806,-8.57555,-1.35223
-602,218,-8.46442,1.24164,0.00810032,0.00713221,-0.000145505,0.00812171,0.00711081,-0.146002,0.00511094,0.0395764,622,806,-8.46441,-1.24164
-595,218,-8.43414,1.08789,0.00863426,0.00546105,-0.000441742,0.00869461,0.0054007,-0.135771,0.00506872,0.0180734,629,806,-8.43416,-1.08789
-588,218,-8.4054,0.927063,0.00771414,0.00384749,-0.000170307,0.00772163,0.00384001,-0.0439318,0.00445811,0.0116098,636,806,-8.40539,-0.927037
-581,218,-8.40295,0.771057,0.00570242,0.00265502,0.00022747,0.0057193,0.00263813,0.0740967,0.00330534,0.0105786,643,806,-8.40294,-0.771085
-574,218,-8.40302,0.600281,0.00323877,0.00145061,0.000651367,0.00345088,0.0012385,0.314811,0.00201864,0.00971493,650,806,-8.40299,-0.600272
-567,218,-8.38147,0.426208,0.00179813,0.000583703,0.00104098,0.00239605,-1.42206e-05,0.521371,0.00160213,0.0150612,657,806,-8.3815,-0.426192
-560,218,-8.41364,0.279907,-0.000517081,-0.000290963,0.00213364,0.00173261,-0.00254066,0.811868,0.00248183,0.0144631,664,806,-8.41361,-0.279917
-553,218,-8.39697,0.0799561,-0.00285864,-8.33305e-05,0.00277508,0.00163171,-0.00457367,1.01724,0.00371447,0.0154776,671,806,-8.39694,-0.0799557
-546,218,-8.39886,-0.104614,-0.00533088,-0.000138436,0.00368493,0.00177301,-0.00724233,1.09229,0.00551506,0.0139436,678,806,-8.39888,0.104629
-539,218,-8.41284,-0.269165,-0.00656159,8.2449e-05,0.00387538,0.00186478,-0.00834392,1.13973,0.00627723,0.0176666,685,806,-8.41282,0.269162
-532,218,-8.44452,-0.360779,-0.00714687,0.000204563,0.00389708,0.00188591,-0.00882822,1.16349,0.00660448,0.0215668,692,806,-8.44451,0.360791
-525,218,-8.5199,-0.449951,0,0,0,0,0,0,0,-1,699,806,-8.51991,0.449947
-518,218,-8.44147,-1.13763,0,0,0,0,0,0,0,-1,706,806,-8.44147,1.13761
-511,218,-8.34692,-0.676575,0,0,0,0,0,0,0,-1,713,806,-8.34695,0.676553
-504,218,-11.524,1.23608,-0.00762514,0.00163719,0.00359193,0.00286689,-0.00885483,1.24095,0.00705574,0.0448256,720,806,-11.5241,-1.23609
-497,218,-11.6483,0.864441,-0.00710255,0.00195832,0.0030506,0.00288966,-0.00803389,1.27449,0.00653567,0.0461763,727,806,-11.6483,-0.864452
-490,218,-11.6694,0.78363,-0.00582249,0.00233743,0.00212901,0.00285951,-0.00634457,1.33032,0.00543947,0.0351641,734,806,-11.6694,-0.783608
-483,218,-11.6896,0.715454,-0.00373598,0.00281098,0.000766744,0.00289957,-0.00382458,1.45576,0.00389442,0.0325837,741,806,-11.6896,-0.715469
-476,218,-11.6919,0.640747,-0.000244675,0.00358032,-0.00108843,0.00386835,-0.000532706,-1.3121,0.00277357,0.0373421,748,806,-11.6919,-0.64076
-469,218,0,0,0,0,0,0,0,0,0,-1,755,806,0,0
-462,218,0,0,0,0,0,0,0,0,0,-1,762,806,0,0
-455,218,0,0,0,0,0,0,0,0,0,-1,769,806,0,0
-448,218,0,0,0,0,0,0,0,0,0,-1,776,806,0,0
-441,218,0,0,0,0,0,0,0,0,0,-1,783,806,0,0
-434,218,0,0,0,0,0,0,0,0,0,-1,790,806,0,0
-427,218,0,0,0,0,0,0,0,0,0,-1,797,806,0,0
-420,218,0,0,0,0,0,0,0,0,0,-1,804,806,0,0
-413,218,0,0,0,0,0,0,0,0,0,-1,811,806,0,0
-406,218,0,0,0,0,0,0,0,0,0,-1,818,806,0,0
-399,218,0,0,0,0,0,0,0,0,0,-1,825,806,0,0
-392,218,0,0,0,0,0,0,0,0,0,-1,832,806,0,0
-385,218,0,0,0,0,0,0,0,0,0,-1,839,806,0,0
-378,218,0,0,0,0,0,0,0,0,0,-1,846,806,0,0
-371,218,0,0,0,0,0,0,0,0,0,-1,853,806,0,0
-364,218,0,0,0,0,0,0,0,0,0,-1,860,806,0,0
-357,218,0,0,0,0,0,0,0,0,0,-1,867,806,0,0
-350,218,0,0,0,0,0,0,0,0,0,-1,874,806,0,0
-343,218,0,0,0,0,0,0,0,0,0,-1,881,806,0,0
-336,218,0,0,0,0,0,0,0,0,0,-1,888,806,0,0
-329,218,0,0,0,0,0,0,0,0,0,-1,895,806,0,0
-322,218,0,0,0,0,0,0,0,0,0,-1,902,806,0,0
-315,218,0,0,0,0,0,0,0,0,0,-1,909,806,0,0
-308,218,0,0,0,0,0,0,0,0,0,-1,916,806,0,0
-301,218,0,0,0,0,0,0,0,0,0,-1,923,806,0,0
-294,218,0,0,0,0,0,0,0,0,0,-1,930,806,0,0
-287,218,0,0,0,0,0,0,0,0,0,-1,937,806,0,0
-280,218,0,0,0,0,0,0,0,0,0,-1,944,806,0,0
-273,218,0,0,0,0,0,0,0,0,0,-1,951,806,0,0
-266,218,0,0,0,0,0,0,0,0,0,-1,958,806,0,0
-259,218,0,0,0,0,0,0,0,0,0,-1,965,806,0,0
-252,218,0,0,0,0,0,0,0,0,0,-1,972,806,0,0
-245,218,0,0,0,0,0,0,0,0,0,-1,979,806,0,0
-238,218,0,0,0,0,0,0,0,0,0,-1,986,806,0,0
-231,218,0,0,0,0,0,0,0,0,0,-1,993,806,0,0
-224,218,0,0,0,0,0,0,0,0,0,-1,1000,806,0,0
-217,218,0,0,0,0,0,0,0,0,0,-1,1007,806,0,0
-210,218,0,0,0,0,0,0,0,0,0,-1,1014,806,0,0
-203,218,0,0,0,0,0,0,0,0,0,-1,1021,806,0,0
-196,218,0,0,0,0,0,0,0,0,0,-1,1028,806,0,0
-189,218,0,0,0,0,0,0,0,0,0,-1,1035,806,0,0
-182,218,0,0,0,0,0,0,0,0,0,-1,1042,806,0,0
-175,218,0,0,0,0,0,0,0,0,0,-1,1049,806,0,0
-168,218,0,0,0,0,0,0,0,0,0,-1,1056,806,0,0
-161,218,0,0,0,0,0,0,0,0,0,-1,1063,806,0,0
-154,218,0,0,0,0,0,0,0,0,0,-1,1070,806,0,0
-147,218,0,0,0,0,0,0,0,0,0,-1,1077,806,0,0
-140,218,0,0,0,0,0,0,0,0,0,-1,1084,806,0,0
-133,218,0,0,0,0,0,0,0,0,0,-1,1091,806,0,0
-126,218,0,0,0,0,0,0,0,0,0,-1,1098,806,0,0
-119,218,0,0,0,0,0,0,0,0,0,-1,1105,806,0,0
-112,218,0,0,0,0,0,0,0,0,0,-1,1112,806,0,0
-105,218,0,0,0,0,0,0,0,0,0,-1,1119,806,0,0
-98,218,0,0,0,0,0,0,0,0,0,-1,1126,806,0,0
-91,218,0,0,0,0,0,0,0,0,0,-1,1133,806,0,0
-84,218,0,0,0,0,0,0,0,0,0,-1,1140,806,0,0
-77,218,0,0,0,0,0,0,0,0,0,-1,1147,806,0,0
-70,218,0,0,0,0,0,0,0,0,0,-1,1154,806,0,0
-63,218,0,0,0,0,0,0,0,0,0,-1,1161,806,0,0
-56,218,0,0,0,0,0,0,0,0,0,-1,1168,806,0,0
-49,218,0,0,0,0,0,0,0,0,0,-1,1175,806,0,0
-42,218,0,0,0,0,0,0,0,0,0,-1,1182,806,0,0
-35,218,0,0,0,0,0,0,0,0,0,-1,1189,806,0,0
-28,218,0,0,0,0,0,0,0,0,0,-1,1196,806,0,0
-21,218,0,0,0,0,0,0,0,0,0,-1,1203,806,0,0
-14,218,0,0,0,0,0,0,0,0,0,-1,1210,806,0,0
-7,218,0,0,0,0,0,0,0,0,0,-1,1217,806,0,0
0,218,0,0,0,0,0,0,0,0,0,-1,1224,806,0,0
7,218,0,0,0,0,0,0,0,0,0,-1,1231,806,0,0
14,218,0,0,0,0,0,0,0,0,0,-1,1238,806,0,0
21,218,0,0,0,0,0,0,0,0,0,-1,1245,806,0,0
28,218,0,0,0,0,0,0,0,0,0,-1,1252,806,0,0
35,218,0,0,0,0,0,0,0,0,0,-1,1259,806,0,0
42,218,0,0,0,0,0,0,0,0,0,-1,1266,806,0,0
49,218,0,0,0,0,0,0,0,0,0,-1,1273,806,0,0
56,218,0,0,0,0,0,0,0,0,0,-1,1280,806,0,0
63,218,0,0,0,0,0,0,0,0,0,-1,1287,806,0,0
70,218,0,0,0,0,0,0,0,0,0,-1,1294,806,0,0
77,218,0,0,0,0,0,0,0,0,0,-1,1301,806,0,0
84,218,0,0,0,0,0,0,0,0,0,-1,1308,806,0,0
91,218,0,0,0,0,0,0,0,0,0,-1,1315,806,0,0
98,218,0,0,0,0,0,0,0,0,0,-1,1322,806,0,0
105,218,0,0,0,0,0,0,0,0,0,-1,1329,806,0,0
112,218,0,0,0,0,0,0,0,0,0,-1,1336,806,0,0
119,218,0,0,0,0,0,0,0,0,0,-1,1343,806,0,0
126,218,0,0,0,0,0,0,0,0,0,-1,1350,806,0,0
133,218,0,0,0,0,0,0,0,0,0,-1,1357,806,0,0
140,218,0,0,0,0,0,0,0,0,0,-1,1364,806,0,0
147,218,0,0,0,0,0,0,0,0,0,-1,1371,806,0,0
154,218,0,0,0,0,0,0,0,0,0,-1,1378,806,0,0
161,218,0,0,0,0,0,0,0,0,0,-1,1385,806,0,0
168,218,0,0,0,0,0,0,0,0,0,-1,1392,806,0,0
175,218,0,0,0,0,0,0,0,0,0,-1,1399,806,0,0
182,218,0,0,0,0,0,0,0,0,0,-1,1406,806,0,0
189,218,0,0,0,0,0,0,0,0,0,-1,1413,806,0,0
196,218,0,0,0,0,0,0,0,0,0,-1,1420,806,0,0
203,218,0,0,0,0,0,0,0,0,0,-1,1427,806,0,0
210,218,0,0,0,0,0,0,0,0,0,-1,1434,806,0,0
217,218,0,0,0,0,0,0,0,0,0,-1,1441,806,0,0
224,218,0,0,0,0,0,0,0,0,0,-1,1448,806,0,0
231,218,0,0,0,0,0,0,0,0,0,-1,1455,806,0,0
238,218,0,0,0,0,0,0,0,0,0,-1,1462,806,0,0
245,218,0,0,0,0,0,0,0,0,0,-1,1469,806,0,0
252,218,0,0,0,0,0,0,0,0,0,-1,1476,806,0,0
259,218,0,0,0,0,0,0,0,0,0,-1,1483,806,0,0
266,218,0,0,0,0,0,0,0,0,0,-1,1490,806,0,0
273,218,0,0,0,0,0,0,0,0,0,-1,1497,806,0,0
280,218,0,0,0,0,0,0,0,0,0,-1,1504,806,0,0
287,218,0,0,0,0,0,0,0,0,0,-1,1511,806,0,0
294,218,0,0,0,0,0,0,0,0,0,-1,1518,806,0,0
301,218,0,0,0,0,0,0,0,0,0,-1,1525,806,0,0
308,218,0,0,0,0,0,0,0,0,0,-1,1532,806,0,0
315,218,0,0,0,0,0,0,0,0,0,-1,1539,806,0,0
322,218,0,0,0,0,0,0,0,0,0,-1,1546,806,0,0
329,218,0,0,0,0,0,0,0,0,0,-1,1553,806,0,0
336,218,0,0,0,0,0,0,0,0,0,-1,1560,806,0,0
343,218,0,0,0,0,0,0,0,0,0,-1,1567,806,0,0
350,218,0,0,0,0,0,0,0,0,0,-1,1574,806,0,0
357,218,0,0,0,0,0,0,0,0,0,-1,1581,806,0,0
364,218,0,0,0,0,0,0,0,0,0,-1,1588,806,0,0
371,218,0,0,0,0,0,0,0,0,0,-1,1595,806,0,0
378,218,0,0,0,0,0,0,0,0,0,-1,1602,806,0,0
385,218,0,0,0,0,0,0,0,0,0,-1,1609,806,0,0
392,218,0,0,0,0,0,0,0,0,0,-1,1616,806,0,0
399,218,0,0,0,0,0,0,0,0,0,-1,1623,806,0,0
406,218,0,0,0,0,0,0,0,0,0,-1,1630,806,0,0
413,218,0,0,0,0,0,0,0,0,0,-1,1637,806,0,0
420,218,0,0,0,0,0,0,0,0,0,-1,1644,806,0,0
427,218,0,0,0,0,0,0,0,0,0,-1,1651,806,0,0
434,218,0,0,0,0,0,0,0,0,0,-1,1658,806,0,0
441,218,0,0,0,0,0,0,0,0,0,-1,1665,806,0,0
448,218,0,0,0,0,0,0,0,0,0,-1,1672,806,0,0
455,218,0,0,0,0,0,0,0,0,0,-1,1679,806,0,0
462,218,0,0,0,0,0,0,0,0,0,-1,1686,806,0,0
469,218,0,0,0,0,0,0,0,0,0,-1,1693,806,0,0
476,218,0,0,0,0,0,0,0,0,0,-1,1700,806,0,0
483,218,0,0,0,0,0,0,0,0,0,-1,1707,806,0,0
490,218,0,0,0,0,0,0,0,0,0,-1,1714,806,0,0
497,218,0,0,0,0,0,0,0,0,0,-1,1721,806,0,0
504,218,0,0,0,0,0,0,0,0,0,-1,1728,806,0,0
511,218,0,0,0,0,0,0,0,0,0,-1,1735,806,0,0
518,218,0,0,0,0,0,0,0,0,0,-1,1742,806,0,0
525,218,0,0,0,0,0,0,0,0,0,-1,1749,806,0,0
532,218,0,0,0,0,0,0,0,0,0,-1,1756,806,0,0
539,218,0,0,0,0,0,0,0,0,0,-1,1763,806,0,0
546,218,0,0,0,0,0,0,0,0,0,-1,1770,806,0,0
553,218,0,0,0,0,0,0,0,0,0,-1,1777,806,0,0
560,218,0,0,0,0,0,0,0,0,0,-1,1784,806,0,0
567,218,0,0,0,0,0,0,0,0,0,-1,1791,806,0,0
574,218,0,0,0,0,0,0,0,0,0,-1,1798,806,0,0
581,218,0,0,0,0,0,0,0,0,0,-1,1805,806,0,0
588,218,0,0,0,0,0,0,0,0,0,-1,1812,806,0,0
595,218,17.8817,2.61646,0.00449494,0.000275154,-0.0026968,0.00580913,-0.00103904,-0.453449,0.00426154,0.0369395,1819,806,17.8818,-2.61646
602,218,17.8451,2.57996,0.00411805,0.000480908,-0.000887401,0.00432301,0.000275947,-0.226987,0.00279457,0.0348838,1826,806,17.8451,-2.57993
609,218,17.8917,2.55841,0.00363424,0.000942466,0.000490346,0.00372079,0.000855925,0.174691,0.00225015,0.0320953,1833,806,17.8917,-2.5584
616,218,17.8263,2.62878,0.00295672,0.00116228,0.00133409,0.00366723,0.000451774,0.489371,0.00230901,0.0320621,1840,806,17.8263,-2.62878
623,218,17.7975,2.6076,0.00229714,0.00121553,0.00180071,0.0036365,-0.000123825,0.639519,0.00246665,0.0338692,1847,806,17.7974,-2.60761
630,218,17.955,2.54724,0.00162656,0.00113196,0.00193877,0.00333374,-0.000575214,0.721963,0.00243697,0.0394516,1854,806,17.9549,-2.54725
637,218,17.6935,2.51141,0.00101052,0.00110316,0.00189805,0.00295545,-0.000841775,0.797598,0.00230276,0.0443296,1861,806,17.6934,-2.51143
644,218,17.5845,2.84924,0.000419397,0.000987107,0.00181124,0.0025366,-0.0011301,0.863125,0.00216827,0.0456651,1868,806,17.5845,-2.84925
651,218,13.4949,1.10187,0,0,0,0,0,0,0,-1,1875,806,13.4949,-1.10187
658,218,13.3792,1.29303,0,0,0,0,0,0,0,-1,1882,806,13.3792,-1.29301
665,218,13.7206,1.69867,-0.00053686,0.000558636,0.000995934,0.00114751,-0.00112573,1.03681,0.00131248,0.0288475,1889,806,13.7206,-1.6987
672,218,13.6725,1.85553,-0.000334029,0.000292722,0.000468353,0.00054287,-0.000584177,1.08024,0.000650846,0.0120572,1896,806,13.6724,-1.85551
679,218,13.6829,2.07288,-0.000269288,3.21198e-05,0.0001994,0.00013136,-0.000368528,1.109,0.000299242,0.011546,1903,806,13.6828,-2.07285
686,218,13.6956,2.23792,-0.000240832,-5.47165e-05,-9.07715e-05,-1.77772e-05,-0.000277771,-1.18431,0.000179548,0.0106608,1910,806,13.6956,-2.23793
693,218,13.6924,2.41412,0.000611969,-0.000218577,-0.000394252,0.00076931,-0.000375917,-0.379719,0.000674075,0.0106211,1917,806,13.6923,-2.41412
700,218,13.6683,2.60455,0.00157959,-0.000405968,-0.000618236,0.00175635,-0.00058273,-0.278484,0.00140599,0.00899508,1924,806,13.6683,-2.60458
707,218,13.6573,2.77991,0.00246768,-0.000628577,-0.000791672,0.00265836,-0.000819255,-0.236352,0.0020993,0.00722811,1931,806,13.6573,-2.77993
714,218,13.682,2.96124,0.0037485,-0.000780726,-0.000808482,0.00388849,-0.000920716,-0.171452,0.00294756,0.00934086,1938,806,13.682,-2.96124
721,218,13.7001,3.12653,0.00516634,-0.000980014,-0.000736379,0.00525333,-0.00106701,-0.11759,0.00390676,0.0119364,1945,806,13.7,-3.12654
728,218,13.6968,3.27771,0.00643534,-0.0013361,-0.000450952,0.00646142,-0.00136218,-0.0577685,0.00482618,0.0178082,1952,806,13.6968,-3.27772
735,218,13.6877,3.44806,0.00733979,-0.00202822,8.14323e-05,0.0073405,-0.00202893,0.00869172,0.00569182,0.0329087,1959,806,13.6877,-3.44806
742,218,13.7296,3.48016,0.00797349,-0.00297179,0.000963153,0.0080576,-0.0030559,0.0871051,0.00662945,0.0486609,1966,806,13.7296,-3.48015
749,218,13.8304,3.29108,0,0,0,0,0,0,0,-1,1973,806,13.8304,-3.29111
756,218,13.8862,4.82819,0,0,0,0,0,0,0,-1,1980,806,13.8862,-4.82816
763,218,14.2225,5.26331,0,0,0,0,0,0,0,-1,1987,806,14.2226,-5.26333
770,218,0,0,0,0,0,0,0,0,0,-1,1994,806,0,0
777,218,0,0,0,0,0,0,0,0,0,-1,2001,806,0,0
784,218,0,0,0,0,0,0,0,0,0,-1,2008,806,0,0
791,218,0,0,0,0,0,0,0,0,0,-1,2015,806,0,0
798,218,0,0,0,0,0,0,0,0,0,-1,2022,806,0,0
805,218,0,0,0,0,0,0,0,0,0,-1,2029,806,0,0
812,218,0,0,0,0,0,0,0,0,0,-1,2036,806,0,0
-700,211,0,0,0,0,0,0,0,0,0,-1,524,813,0,0
-693,211,0,0,0,0,0,0,0,0,0,-1,531,813,0,0
-686,211,0,0,0,0,0,0,0,0,0,-1,538,813,0,0
-679,211,0,0,0,0,0,0,0,0,0,-1,545,813,0,0
-672,211,0,0,0,0,0,0,0,0,0,-1,552,813,0,0
-665,211,0,0,0,0,0,0,0,0,0,-1,559,813,0,0
-658,211,0,0,0,0,0,0,0,0,0,-1,566,813,0,0
-651,211,-11.1656,-1.59961,0,0,0,0,0,0,0,-1,573,813,-11.1656,1.5996
-644,211,-11.3838,-1.52258,0,0,0,0,0,0,0,-1,580,813,-11.3838,1.52257
-637,211,-11.3981,-1.18549,0,0,0,0,0,0,0,-1,587,813,-11.3981,1.18551
-630,211,-8.84888,2.65338,0,0,0,0,0,0,0,-1,594,813,-8.84887,-2.6534
-623,211,-8.72357,1.45343,0,0,0,0,0,0,0,-1,601,813,-8.72355,-1.45341
-616,211,-8.78168,1.46124,-0.00823996,0.0142078,-0.000578765,0.0142227,-0.00825488,-1.54504,0.013129,0.0463377,608,813,-8.7817,-1.46126
-609,211,-8.60077,1.33594,-0.00203345,0.0112841,-0.00180304,0.0115239,-0.00227324,-1.43858,0.0085418,0.0362858,615,813,-8.60075,-1.33596
-602,211,-8.54993,1.17627,0.00171937,0.00849497,-0.00207925,0.00908215,0.00113219,-1.29556,0.00571487,0.0195139,622,813,-8.54991,-1.17629
-595,211,-8.57074,1.06476,0.00344679,0.00604159,-0.00185457,0.00700752,0.00248086,-1.09062,0.00410286,0.0104759,629,813,-8.57073,-1.06474
-588,211,-8.56757,0.914673,0.00352952,0.00400949,-0.00110742,0.00490263,0.00263638,-0.892103,0.00283322,0.00980917,636,813,-8.56755,-0.914667
-581,211,-8.5697,0.752747,0.0022362,0.00254867,-0.000284176,0.00271673,0.00206814,-1.03673,0.00163832,0.0110529,643,813,-8.5697,-0.752733
-574,211,-8.57971,0.58783,0.000228126,0.00121684,0.000552772,0.00146407,-1.90994e-05,1.15023,0.000982473,0.0124215,650,813,-8.57971,-0.587817
-567,211,-8.57886,0.439636,-0.000984711,0.000339168,0.00123998,0.00108283,-0.00172837,1.03057,0.00163725,0.0184699,657,813,-8.57884,-0.439613
-560,211,-8.58063,0.299744,-0.00291583,-0.000354711,0.00242434,0.00110649,-0.00437703,1.02838,0.00334836,0.0205142,664,813,-8.58063,-0.299767
-553,211,-8.5741,0.109436,-0.00495675,-9.80819e-05,0.0031135,0.0014217,-0.00647654,1.11669,0.00486139,0.0171242,671,813,-8.57412,-0.109409
-546,211,-8.58124,-0.0203857,-0.00701664,-2.84225e-05,0.00387428,0.00169464,-0.0087397,1.15232,0.0064658,0.0199159,678,813,-8.58123,0.0203809
-539,211,-8.57611,-0.192383,-0.00785295,0.000341906,0.00393887,0.00192811,-0.00943915,1.18796,0.00702424,0.0151915,685,813,-8.57614,0.192383
-532,211,-8.7265,-0.23938,-0.00799845,0.00063306,0.00376726,0.002046,-0.0094114,1.21197,0.00705585,0.0459101,692,813,-8.7265,0.239366
-525,211,-8.92542,-0.188843,0,0,0,0,0,0,0,-1,699,813,-8.9254,0.188814
-518,211,-8.61127,-1.70813,0,0,0,0,0,0,0,-1,706,813,-8.61126,1.70813
-511,211,-11.5587,1.17938,-0.00677097,0.00215835,0.00242285,0.00277339,-0.00738602,1.3222,0.00606371,0.0415537,713,813,-11.5586,-1.1794
-504,211,-11.549,0.998962,-0.00571982,0.00263292,0.00146614,0.0028828,-0.00596969,1.40199,0.00521354,0.0441985,720,813,-11.549,-0.998964
-497,211,-11.7028,0.742249,-0.00411908,0.00307593,0.000100525,0.00307734,-0.00412048,1.55683,0.00417019,0.0461596,727,813,-11.7028,-0.742242
-490,211,-11.7064,0.702454,-0.00166372,0.00350648,-0.00183199,0.00408981,-0.00224705,-1.26254,0.00370979,0.0348817,734,813,-11.7063,-0.702441
-483,211,-11.6443,0.72168,0.00139921,0.0038346,-0.00427413,0.00706111,-0.0018273,-0.924171,0.00542017,0.033926,741,813,-11.6443,-0.721687
-476,211,-11.669,0.617126,0.00573837,0.00434539,-0.00719205,0.0122676,-0.00218381,-0.737128,0.00899512,0.0403384,748,813,-11.669,-0.617147
-469,211,0,0,0,0,0,0,0,0,0,-1,755,813,0,0
-462,211,0,0,0,0,0,0,0,0,0,-1,762,813,0,0
-455,211,0,0,0,0,0,0,0,0,0,-1,769,813,0,0
-448,211,0,0,0,0,0,0,0,0,0,-1,776,813,0,0
-441,211,0,0,0,0,0,0,0,0,0,-1,783,813,0,0
-434,211,0,0,0,0,0,0,0,0,0,-1,790,813,0,0
-427,211,0,0,0,0,0,0,0,0,0,-1,797,813,0,0
-420,211,0,0,0,0,0,0,0,0,0,-1,804,813,0,0
-413,211,0,0,0,0,0,0,0,0,0,-1,811,813,0,0
-406,211,0,0,0,0,0,0,0,0,0,-1,818,813,0,0
-399,211,0,0,0,0,0,0,0,0,0,-1,825,813,0,0
-392,211,0,0,0,0,0,0,0,0,0,-1,832,813,0,0
-385,211,0,0,0,0,0,0,0,0,0,-1,839,813,0,0
-378,211,0,0,0,0,0,0,0,0,0,-1,846,813,0,0
-371,211,0,0,0,0,0,0,0,0,0,-1,853,813,0,0
-364,211,0,0,0,0,0,0,0,0,0,-1,860,813,0,0
-357,211,0,0,0,0,0,0,0,0,0,-1,867,813,0,0
-350,211,0,0,0,0,0,0,0,0,0,-1,874,813,0,0
-343,211,0,0,0,0,0,0,0,0,0,-1,881,813,0,0
-336,211,0,0,0,0,0,0,0,0,0,-1,888,813,0,0
-329,211,0,0,0,0,0,0,0,0,0,-1,895,813,0,0
-322,211,0,0,0,0,0,0,0,0,0,-1,902,813,0,0
-315,211,0,0,0,0,0,0,0,0,0,-1,909,813,0,0
-308,211,0,0,0,0,0,0,0,0,0,-1,916,813,0,0
-301,211,0,0,0,0,0,0,0,0,0,-1,923,813,0,0
-294,211,0,0,0,0,0,0,0,0,0,-1,930,813,0,0
-287,211,0,0,0,0,0,0,0,0,0,-1,937,813,0,0
-280,211,0,0,0,0,0,0,0,0,0,-1,944,813,0,0
-273,211,0,0,0,0,0,0,0,0,0,-1,951,813,0,0
-266,211,0,0,0,0,0,0,0,0,0,-1,958,813,0,0
-259,211,0,0,0,0,0,0,0,0,0,-1,965,813,0,0
-252,211,0,0,0,0,0,0,0,0,0,-1,972,813,0,0
-245,211,0,0,0,0,0,0,0,0,0,-1,979,813,0,0
-238,211,0,0,0,0,0,0,0,0,0,-1,986,813,0,0
-231,211,0,0,0,0,0,0,0,0,0,-1,993,813,0,0
-224,211,0,0,0,0,0,0,0,0,0,-1,1000,813,0,0
-217,211,0,0,0,0,0,0,0,0,0,-1,1007,813,0,0
-210,211,0,0,0,0,0,0,0,0,0,-1,1014,813,0,0
-203,211,0,0,0,0,0,0,0,0,0,-1,1021,813,0,0
-196,211,0,0,0,0,0,0,0,0,0,-1,1028,813,0,0
-189,211,0,0,0,0,0,0,0,0,0,-1,1035,813,0,0
-182,211,0,0,0,0,0,0,0,0,0,-1,1042,813,0,0
-175,211,0,0,0,0,0,0,0,0,0,-1,1049,813,0,0
-168,211,0,0,0,0,0,0,0,0,0,-1,1056,813,0,0
-161,211,0,0,0,0,0,0,0,0,0,-1,1063,813,0,0
-154,211,0,0,0,0,0,0,0,0,0,-1,1070,813,0,0
-147,211,0,0,0,0,0,0,0,0,0,-1,1077,813,0,0
-140,211,0,0,0,0,0,0,0,0,0,-1,1084,813,0,0
-133,211,0,0,0,0,0,0,0,0,0,-1,1091,813,0,0
-126,211,0,0,0,0,0,0,0,0,0,-1,1098,813,0,0
-119,211,0,0,0,0,0,0,0,0,0,-1,1105,813,0,0
-112,211,0,0,0,0,0,0,0,0,0,-1,1112,813,0,0
-105,211,0,0,0,0,0,0,0,0,0,-1,1119,813,0,0
-98,211,0,0,0,0,0,0,0,0,0,-1,1126,813,0,0
-91,211,0,0,0,0,0,0,0,0,0,-1,1133,813,0,0
-84,211,0,0,0,0,0,0,0,0,0,-1,1140,813,0,0
-77,211,0,0,0,0,0,0,0,0,0,-1,1147,813,0,0
-70,211,0,0,0,0,0,0,0,0,0,-1,1154,813,0,0
-63,211,0,0,0,0,0,0,0,0,0,-1,1161,813,0,0
-56,211,0,0,0,0,0,0,0,0,0,-1,1168,813,0,0
-49,211,0,0,0,0,0,0,0,0,0,-1,1175,813,0,0
-42,211,0,0,0,0,0,0,0,0,0,-1,1182,813,0,0
-35,211,0,0,0,0,0,0,0,0,0,-1,1189,813,0,0
-28,211,0,0,0,0,0,0,0,0,0,-1,1196,813,0,0
-21,211,0,0,0,0,0,0,0,0,0,-1,1203,813,0,0
-14,211,0,0,0,0,0,0,0,0,0,-1,1210,813,0,0
-7,211,0,0,0,0,0,0,0,0,0,-1,1217,813,0,0
0,211,0,0,0,0,0,0,0,0,0,-1,1224,813,0,0
7,211,0,0,0,0,0,0,0,0,0,-1,1231,813,0,0
14,211,0,0,0,0,0,0,0,0,0,-1,1238,813,0,0
21,211,0,0,0,0,0,0,0,0,0,-1,1245,813,0,0
28,211,0,0,0,0,0,0,0,0,0,-1,1252,813,0,0
35,211,0,0,0,0,0,0,0,0,0,-1,1259,813,0,0
42,211,0,0,0,0,0,0,0,0,0,-1,1266,813,0,0
49,211,0,0,0,0,0,0,0,0,0,-1,1273,813,0,0
56,211,0,0,0,0,0,0,0,0,0,-1,1280,813,0,0
63,211,0,0,0,0,0,0,0,0,0,-1,1287,813,0,0
70,211,0,0,0,0,0,0,0,0,0,-1,1294,813,0,0
77,211,0,0,0,0,0,0,0,0,0,-1,1301,813,0,0
84,211,0,0,0,0,0,0,0,0,0,-1,1308,813,0,0
91,211,0,0,0,0,0,0,0,0,0,-1,1315,813,0,0
98,211,0,0,0,0,0,0,0,0,0,-1,1322,813,0,0
105,211,0,0,0,0,0,0,0,0,0,-1,1329,813,0,0
112,211,0,0,0,0,0,0,0,0,0,-1,1336,813,0,0
119,211,0,0,0,0,0,0,0,0,0,-1,1343,813,0,0
126,211,0,0,0,0,0,0,0,0,0,-1,1350,813,0,0
133,211,0,0,0,0,0,0,0,0,0,-1,1357,813,0,0
140,211,0,0,0,0,0,0,0,0,0,-1,1364,813,0,0
147,211,0,0,0,0,0,0,0,0,0,-1,1371,813,0,0
154,211,0,0,0,0,0,0,0,0,0,-1,1378,813,0,0
161,211,0,0,0,0,0,0,0,0,0,-1,1385,813,0,0
168,211,0,0,0,0,0,0,0,0,0,-1,1392,813,0,0
175,211,0,0,0,0,0,0,0,0,0,-1,1399,813,0,0
182,211,0,0,0,0,0,0,0,0,0,-1,1406,813,0,0
189,211,0,0,0,0,0,0,0,0,0,-1,1413,813,0,0
196,211,0,0,0,0,0,0,0,0,0,-1,1420,813,0,0
203,211,0,0,0,0,0,0,0,0,0,-1,1427,813,0,0
210,211,0,0,0,0,0,0,0,0,0,-1,1434,813,0,0
217,211,0,0,0,0,0,0,0,0,0,-1,1441,813,0,0
224,211,0,0,0,0,0,0,0,0,0,-1,1448,813,0,0
231,211,0,0,0,0,0,0,0,0,0,-1,1455,813,0,0
238,211,0,0,0,0,0,0,0,0,0,-1,1462,813,0,0
245,211,0,0,0,0,0,0,0,0,0,-1,1469,813,0,0
252,211,0,0,0,0,0,0,0,0,0,-1,1476,813,0,0
259,211,0,0,0,0,0,0,0,0,0,-1,1483,813,0,0
266,211,0,0,0,0,0,0,0,0,0,-1,1490,813,0,0
273,211,0,0,0,0,0,0,0,0,0,-1,1497,813,0,0
280,211,0,0,0,0,0,0,0,0,0,-1,1504,813,0,0
287,211,0,0,0,0,0,0,0,0,0,-1,1511,813,0,0
294,211,0,0,0,0,0,0,0,0,0,-1,1518,813,0,0
301,211,0,0,0,0,0,0,0,0,0,-1,1525,813,0,0
308,211,0,0,0,0,0,0,0,0,0,-1,1532,813,0,0
315,211,0,0,0,0,0,0,0,0,0,-1,1539,813,0,0
322,211,0,0,0,0,0,0,0,0,0,-1,1546,813,0,0
329,211,0,0,0,0,0,0,0,0,0,-1,1553,813,0,0
336,211,0,0,0,0,0,0,0,0,0,-1,1560,813,0,0
343,211,0,0,0,0,0,0,0,0,0,-1,1567,813,0,0
350,211,0,0,0,0,0,0,0,0,0,-1,1574,813,0,0
357,211,0,0,0,0,0,0,0,0,0,-1,1581,813,0,0
364,211,0,0,0,0,0,0,0,0,0,-1,1588,813,0,0
371,211,0,0,0,0,0,0,0,0,0,-1,1595,813,0,0
378,211,0,0,0,0,0,0,0,0,0,-1,1602,813,0,0
385,211,0,0,0,0,0,0,0,0,0,-1,1609,813,0,0
392,211,0,0,0,0,0,0,0,0,0,-1,1616,813,0,0
399,211,0,0,0,0,0,0,0,0,0,-1,1623,813,0,0
406,211,0,0,0,0,0,0,0,0,0,-1,1630,813,0,0
413,211,0,0,0,0,0,0,0,0,0,-1,1637,813,0,0
420,211,0,0,0,0,0,0,0,0,0,-1,1644,813,0,0
427,211,0,0,0,0,0,0,0,0,0,-1,1651,813,0,0
434,211,0,0,0,0,0,0,0,0,0,-1,1658,813,0,0
441,211,0,0,0,0,0,0,0,0,0,-1,1665,813,0,0
448,211,0,0,0,0,0,0,0,0,0,-1,1672,813,0,0
455,211,0,0,0,0,0,0,0,0,0,-1,1679,813,0,0
462,211,0,0,0,0,0,0,0,0,0,-1,1686,813,0,0
469,211,0,0,0,0,0,0,0,0,0,-1,1693,813,0,0
476,211,0,0,0,0,0,0,0,0,0,-1,1700,813,0,0
483,211,0,0,0,0,0,0,0,0,0,-1,1707,813,0,0
490,211,0,0,0,0,0,0,0,0,0,-1,1714,813,0,0
497,211,0,0,0,0,0,0,0,0,0,-1,1721,813,0,0
504,211,0,0,0,0,0,0,0,0,0,-1,1728,813,0,0
511,211,0,0,0,0,0,0,0,0,0,-1,1735,813,0,0
518,211,0,0,0,0,0,0,0,0,0,-1,1742,813,0,0
525,211,0,0,0,0,0,0,0,0,0,-1,1749,813,0,0
532,211,0,0,0,0,0,0,0,0,0,-1,1756,813,0,0
539,211,0,0,0,0,0,0,0,0,0,-1,1763,813,0,0
546,211,0,0,0,0,0,0,0,0,0,-1,1770,813,0,0
553,211,0,0,0,0,0,0,0,0,0,-1,1777,813,0,0
560,211,0,0,0,0,0,0,0,0,0,-1,1784,813,0,0
567,211,0,0,0,0,0,0,0,0,0,-1,1791,813,0,0
574,211,0,0,0,0,0,0,0,0,0,-1,1798,813,0,0
581,211,0,0,0,0,0,0,0,0,0,-1,1805,813,0,0
588,211,0,0,0,0,0,0,0,0,0,-1,1812,813,0,0
595,211,17.9619,2.46649,0.00449825,-0.000259957,-0.0039026,0.00668975,-0.00245146,-0.511667,0.0054635,0.0397882,1819,813,17.9619,-2.46648
602,211,17.9331,2.51208,0.00318525,-0.000322447,-0.00152126,0.00375309,-0.000890282,-0.35725,0.00284563,0.0377119,1826,813,17.9331,-2.51211
609,211,17.9091,2.5658,0.00239082,0.000138712,0.000221564,0.00241241,0.000117121,0.0971397,0.00157069,0.0361865,1833,813,17.909,-2.56579
616,211,17.7825,2.59467,0.00173924,0.000519982,0.00125946,0.00252885,-0.000269631,0.559999,0.00178259,0.0290074,1840,813,17.7825,-2.59469
623,211,17.7539,2.65967,0.00121517,0.000813749,0.00175184,0.00277776,-0.000748836,0.728361,0.00214546,0.0317012,1847,813,17.7539,-2.65967
630,211,17.864,2.62152,0.000578988,0.000871387,0.00183589,0.00256689,-0.00111652,0.825131,0.00218088,0.040159,1854,813,17.864,-2.62151
637,211,17.8679,2.67535,6.09888e-06,0.000934027,0.00171885,0.00225043,-0.0013103,0.91722,0.00207954,0.0430193,1861,813,17.8679,-2.67537
644,211,17.6619,2.71423,-0.000487225,0.000868843,0.0015495,0.00188216,-0.00150054,0.991638,0.00195714,0.0403611,1868,813,17.6619,-2.71424
651,211,13.6355,1.20374,0,0,0,0,0,0,0,-1,1875,813,13.6355,-1.20372
658,211,13.6802,1.45081,0,0,0,0,0,0,0,-1,1882,813,13.6802,-1.45083
665,211,13.8306,1.71796,-0.00139858,0.000569156,0.000572333,0.000723515,-0.00155294,1.30736,0.00134307,0.0454359,1889,813,13.8306,-1.71794
672,211,13.8245,1.87189,-0.00149718,0.000298604,0.000172793,0.000315079,-0.00151366,1.47574,0.00112888,0.0178869,1896,813,13.8244,-1.87188
679,211,13.8651,2.05481,-0.00159273,-2.20957e-05,-6.06311e-05,-1.97586e-05,-0.00159506,-1.53227,0.00105685,0.0125565,1903,813,13.8651,-2.0548
686,211,13.8772,2.25165,-0.00161695,-0.00017783,-0.000350606,-9.69584e-05,-0.00169782,-1.3441,0.00110099,0.010551,1910,813,13.8772,-2.25164
693,211,13.8698,2.42139,-0.000812314,-0.000364115,-0.000626644,7.72955e-05,-0.00125372,-0.957121,0.000862737,0.010964,1917,813,13.8698,-2.42138
700,211,13.8103,2.59326,0.00012995,-0.000589918,-0.000773721,0.00062336,-0.00108333,-0.567688,0.000997214,0.0136246,1924,813,13.8103,-2.59325
707,211,13.8158,2.79297,0.00092658,-0.000804946,-0.000833453,0.00126256,-0.00114093,-0.383193,0.00138825,0.0202822,1931,813,13.8158,-2.79296
714,211,13.8455,2.98267,0.00200623,-0.000959963,-0.000725264,0.00217407,-0.0011278,-0.227413,0.00193797,0.0202987,1938,813,13.8455,-2.98264
721,211,13.87,3.1142,0.00305436,-0.00113954,-0.000519461,0.00311774,-0.00120292,-0.121417,0.0025749,0.015031,1945,813,13.87,-3.11419
728,211,13.8726,3.26306,0.00365122,-0.00155568,-5.78118e-05,0.00365186,-0.00155632,-0.0111011,0.00308701,0.0144041,1952,813,13.8726,-3.26308
735,211,13.8798,3.44836,0.00331085,-0.00244271,0.000695655,0.00339377,-0.00252563,0.118631,0.00342979,0.0237375,1959,813,13.8797,-3.44837
742,211,13.9308,3.57605,0.00232087,-0.00360024,0.00182126,0.00283622,-0.00411559,0.275752,0.00403622,0.0470465,1966,813,13.9307,-3.57605
749,211,13.8182,3.60291,0,0,0,0,0,0,0,-1,1973,813,13.8182,-3.60293
756,211,13.4659,4.41553,0,0,0,0,0,0,0,-1,1980,813,13.466,-4.41555
763,211,13.9854,4.95935,0,0,0,0,0,0,0,-1,1987,813,13.9854,-4.95934
770,211,14.3997,5.4342,0,0,0,0,0,0,0,-1,1994,813,14.3997,-5.43421
777,211,0,0,0,0,0,0,0,0,0,-1,2001,813,0,0
784,211,0,0,0,0,0,0,0,0,0,-1,2008,813,0,0
791,211,0,0,0,0,0,0,0,0,0,-1,2015,813,0,0
798,211,0,0,0,0,0,0,0,0,0,-1,2022,813,0,0
805,211,0,0,0,0,0,0,0,0,0,-1,2029,813,0,0
812,211,0,0,0,0,0,0,0,0,0,-1,2036,813,0,0
-700,204,0,0,0,0,0,0,0,0,0,-1,524,820,0,0
-693,204,0,0,0,0,0,0,0,0,0,-1,531,820,0,0
-686,204,0,0,0,0,0,0,0,0,0,-1,538,820,0,0
-679,204,0,0,0,0,0,0,0,0,0,-1,545,820,0,0
-672,204,0,0,0,0,0,0,0,0,0,-1,552,820,0,0
-665,204,0,0,0,0,0,0,0,0,0,-1,559,820,0,0
-658,204,0,0,0,0,0,0,0,0,0,-1,566,820,0,0
-651,204,-11.6904,-2.72076,0,0,0,0,0,0,0,-1,573,820,-11.6904,2.72078
-644,204,-11.6718,-2.60388,0,0,0,0,0,0,0,-1,580,820,-11.6718,2.60389
-637,204,-11.5071,-2.36731,0,0,0,0,0,0,0,-1,587,820,-11.5071,2.36733
-630,204,-11.4056,-1.9071,0,0,0,0,0,0,0,-1,594,820,-11.4057,1.90711
-623,204,-8.60461,1.36548,0,0,0,0,0,0,0,-1,601,820,-8.60464,-1.36548
-616,204,-8.7121,1.4046,-0.0146437,0.0208318,-0.00547093,0.0216563,-0.0154683,-1.42121,0.0215329,0.0438713,608,820,-8.71207,-1.4046
-609,204,-8.65887,1.37,-0.00841815,0.0156281,-0.0051833,0.0166978,-0.00948785,-1.36728,0.0153081,0.0330373,615,820,-8.65886,-1.37003
-602,204,-8.69281,1.1828,-0.003991,0.0111414,-0.00428356,0.0122698,-0.00511941,-1.31322,0.0103187,0.0144689,622,820,-8.69282,-1.18279
-595,204,-8.72266,1.03058,-0.00145538,0.00744929,-0.00322668,0.00849557,-0.00250166,-1.25724,0.0066562,0.0143542,629,820,-8.72265,-1.03056
-588,204,-8.72394,0.899353,-0.000612726,0.0046874,-0.00182986,0.00525778,-0.0011831,-1.26864,0.00395892,0.0109137,636,820,-8.72396,-0.89938
-581,204,-8.72064,0.73999,-0.00128564,0.002548,-0.000426545,0.00259489,-0.00133253,-1.46132,0.00230621,0.0110975,643,820,-8.72067,-0.740019
-574,204,-8.72772,0.589844,-0.00287065,0.00106713,0.000733845,0.00119944,-0.00300296,1.39241,0.00249963,0.0131192,650,820,-8.72774,-0.589866
-567,204,-8.71729,0.44165,-0.00386542,0.0001504,0.00163125,0.000729514,-0.00444453,1.22966,0.00323374,0.0133226,657,820,-8.71731,-0.441657
-560,204,-8.71887,0.27356,-0.00542679,-0.000415452,0.00286455,0.000884671,-0.00672691,1.14473,0.00480671,0.0128234,664,820,-8.71887,-0.273587
-553,204,-8.70325,0.129944,-0.00717448,-0.000146904,0.00357609,0.0013528,-0.00867419,1.1737,0.00628247,0.00945914,671,820,-8.70323,-0.12992
-546,204,-8.71191,0.0202637,-0.00878572,3.06981e-05,0.00420017,0.00171131,-0.0104663,1.19018,0.00761238,0.0141347,678,820,-8.71189,-0.0202383
-539,204,-8.76929,-0.155396,-0.00916887,0.000566878,0.00415448,0.00209868,-0.0107007,1.21755,0.0079265,0.0251812,685,820,-8.76926,0.155412
-532,204,-8.99811,-0.173706,0,0,0,0,0,0,0,-1,692,820,-8.99812,0.17372
-525,204,-12.279,0.768494,0,0,0,0,0,0,0,-1,699,820,-12.279,-0.76852
-518,204,-11.9446,0.893982,-0.00717125,0.00248197,0.00257311,0.00312501,-0.00781429,1.3259,0.00650636,0.0463685,706,820,-11.9446,-0.894008
-511,204,-11.6669,0.957703,-0.00571149,0.0031999,0.00152085,0.00345231,-0.00596389,1.40633,0.00550053,0.0454307,713,820,-11.6669,-0.957672
-504,204,-11.7142,0.73114,-0.00373311,0.00390455,9.21207e-05,0.00390566,-0.00373422,1.55874,0.00441126,0.0458159,720,820,-11.7141,-0.731117
-497,204,-11.7708,0.720398,-0.00107227,0.00453416,-0.00183827,0.00508314,-0.00162126,-1.28058,0.00403914,0.0391669,727,820,-11.7708,-0.720428
-490,204,-11.6751,0.698181,0.00234345,0.00502685,-0.00437503,0.00826128,-0.000890992,-0.934182,0.00582727,0.0353616,734,820,-11.6751,-0.698193
-483,204,-11.541,0.727966,0.00576817,0.00508432,-0.00722964,0.012664,-0.00181147,-0.761768,0.00910672,0.0408504,741,820,-11.541,-0.727941
-476,204,0,0,0,0,0,0,0,0,0,-1,748,820,0,0
-469,204,0,0,0,0,0,0,0,0,0,-1,755,820,0,0
-462,204,0,0,0,0,0,0,0,0,0,-1,762,820,0,0
-455,204,0,0,0,0,0,0,0,0,0,-1,769,820,0,0
-448,204,0,0,0,0,0,0,0,0,0,-1,776,820,0,0
-441,204,0,0,0,0,0,0,0,0,0,-1,783,820,0,0
-434,204,0,0,0,0,0,0,0,0,0,-1,790,820,0,0
-427,204,0,0,0,0,0,0,0,0,0,-1,797,820,0,0
-420,204,0,0,0,0,0,0,0,0,0,-1,804,820,0,0
-413,204,0,0,0,0,0,0,0,0,0,-1,811,820,0,0
-406,204,0,0,0,0,0,0,0,0,0,-1,818,820,0,0
-399,204,0,0,0,0,0,0,0,0,0,-1,825,820,0,0
-392,204,0,0,0,0,0,0,0,0,0,-1,832,820,0,0
-385,204,0,0,0,0,0,0,0,0,0,-1,839,820,0,0
-378,204,0,0,0,0,0,0,0,0,0,-1,846,820,0,0
-371,204,0,0,0,0,0,0,0,0,0,-1,853,820,0,0
-364,204,0,0,0,0,0,0,0,0,0,-1,860,820,0,0
-357,204,0,0,0,0,0,0,0,0,0,-1,867,820,0,0
-350,204,0,0,0,0,0,0,0,0,0,-1,874,820,0,0
-343,204,0,0,0,0,0,0,0,0,0,-1,881,820,0,0
-336,204,0,0,0,0,0,0,0,0,0,-1,888,820,0,0
-329,204,0,0,0,0,0,0,0,0,0,-1,895,820,0,0
-322,204,0,0,0,0,0,0,0,0,0,-1,902,820,0,0
-315,204,0,0,0,0,0,0,0,0,0,-1,909,820,0,0
-308,204,0,0,0,0,0,0,0,0,0,-1,916,820,0,0
-301,204,0,0,0,0,0,0,0,0,0,-1,923,820,0,0
-294,204,0,0,0,0,0,0,0,0,0,-1,930,820,0,0
-287,204,0,0,0,0,0,0,0,0,0,-1,937,820,0,0
-280,204,0,0,0,0,0,0,0,0,0,-1,944,820,0,0
-273,204,0,0,0,0,0,0,0,0,0,-1,951,820,0,0
-266,204,0,0,0,0,0,0,0,0,0,-1,958,820,0,0
-259,204,0,0,0,0,0,0,0,0,0,-1,965,820,0,0
-252,204,0,0,0,0,0,0,0,0,0,-1,972,820,0,0
-245,204,0,0,0,0,0,0,0,0,0,-1,979,820,0,0
-238,204,0,0,0,0,0,0,0,0,0,-1,986,820,0,0
-231,204,0,0,0,0,0,0,0,0,0,-1,993,820,0,0
-224,204,0,0,0,0,0,0,0,0,0,-1,1000,820,0,0
-217,204,0,0,0,0,0,0,0,0,0,-1,1007,820,0,0
-210,204,0,0,0,0,0,0,0,0,0,-1,1014,820,0,0
-203,204,0,0,0,0,0,0,0,0,0,-1,1021,820,0,0
-196,204,0,0,0,0,0,0,0,0,0,-1,1028,820,0,0
-189,204,0,0,0,0,0,0,0,0,0,-1,1035,820,0,0
-182,204,0,0,0,0,0,0,0,0,0,-1,1042,820,0,0
-175,204,0,0,0,0,0,0,0,0,0,-1,1049,820,0,0
-168,204,0,0,0,0,0,0,0,0,0,-1,1056,820,0,0
-161,204,0,0,0,0,0,0,0,0,0,-1,1063,820,0,0
-154,204,0,0,0,0,0,0,0,0,0,-1,1070,820,0,0
-147,204,0,0,0,0,0,0,0,0,0,-1,1077,820,0,0
-140,204,0,0,0,0,0,0,0,0,0,-1,1084,820,0,0
-133,204,0,0,0,0,0,0,0,0,0,-1,1091,820,0,0
-126,204,0,0,0,0,0,0,0,0,0,-1,1098,820,0,0
-119,204,0,0,0,0,0,0,0,0,0,-1,1105,820,0,0
-112,204,0,0,0,0,0,0,0,0,0,-1,1112,820,0,0
-105,204,0,0,0,0,0,0,0,0,0,-1,1119,820,0,0
-98,204,0,0,0,0,0,0,0,0,0,-1,1126,820,0,0
-91,204,0,0,0,0,0,0,0,0,0,-1,1133,820,0,0
-84,204,0,0,0,0,0,0,0,0,0,-1,1140,820,0,0
-77,204,0,0,0,0,0,0,0,0,0,-1,1147,820,0,0
-70,204,0,0,0,0,0,0,0,0,0,-1,1154,820,0,0
-63,204,0,0,0,0,0,0,0,0,0,-1,1161,820,0,0
-56,204,0,0,0,0,0,0,0,0,0,-1,1168,820,0,0
-49,204,0,0,0,0,0,0,0,0,0,-1,1175,820,0,0
-42,204,0,0,0,0,0,0,0,0,0,-1,1182,820,0,0
-35,204,0,0,0,0,0,0,0,0,0,-1,1189,820,0,0
-28,204,0,0,0,0,0,0,0,0,0,-1,1196,820,0,0
-21,204,0,0,0,0,0,0,0,0,0,-1,1203,820,0,0
-14,204,0,0,0,0,0,0,0,0,0,-1,1210,820,0,0
-7,204,0,0,0,0,0,0,0,0,0,-1,1217,820,0,0
0,204,0,0,0,0,0,0,0,0,0,-1,1224,820,0,0
7,204,0,0,0,0,0,0,0,0,0,-1,1231,820,0,0
14,204,0,0,0,0,0,0,0,0,0,-1,1238,820,0,0
21,204,0,0,0,0,0,0,0,0,0,-1,1245,820,0,0
28,204,0,0,0,0,0,0,0,0,0,-1,1252,820,0,0
35,204,0,0,0,0,0,0,0,0,0,-1,1259,820,0,0
42,204,0,0,0,0,0,0,0,0,0,-1,1266,820,0,0
49,204,0,0,0,0,0,0,0,0,0,-1,1273,820,0,0
56,204,0,0,0,0,0,0,0,0,0,-1,1280,820,0,0
63,204,0,0,0,0,0,0,0,0,0,-1,1287,820,0,0
70,204,0,0,0,0,0,0,0,0,0,-1,1294,820,0,0
77,204,0,0,0,0,0,0,0,0,0,-1,1301,820,0,0
84,204,0,0,0,0,0,0,0,0,0,-1,1308,820,0,0
91,204,0,0,0,0,0,0,0,0,0,-1,1315,820,0,0
98,204,0,0,0,0,0,0,0,0,0,-1,1322,820,0,0
105,204,0,0,0,0,0,0,0,0,0,-1,1329,820,0,0
112,204,0,0,0,0,0,0,0,0,0,-1,1336,820,0,0
119,204,0,0,0,0,0,0,0,0,0,-1,1343,820,0,0
126,204,0,0,0,0,0,0,0,0,0,-1,1350,820,0,0
133,204,0,0,0,0,0,0,0,0,0,-1,1357,820,0,0
140,204,0,0,0,0,0,0,0,0,0,-1,1364,820,0,0
147,204,0,0,0,0,0,0,0,0,0,-1,1371,820,0,0
154,204,0,0,0,0,0,0,0,0,0,-1,1378,820,0,0
161,204,0,0,0,0,0,0,0,0,0,-1,1385,820,0,0
168,204,0,0,0,0,0,0,0,0,0,-1,1392,820,0,0
175,204,0,0,0,0,0,0,0,0,0,-1,1399,820,0,0
182,204,0,0,0,0,0,0,0,0,0,-1,1406,820,0,0
189,204,0,0,0,0,0,0,0,0,0,-1,1413,820,0,0
196,204,0,0,0,0,0,0,0,0,0,-1,1420,820,0,0
203,204,0,0,0,0,0,0,0,0,0,-1,1427,820,0,0
210,204,0,0,0,0,0,0,0,0,0,-1,1434,820,0,0
217,204,0,0,0,0,0,0,0,0,0,-1,1441,820,0,0
224,204,0,0,0,0,0,0,0,0,0,-1,1448,820,0,0
231,204,0,0,0,0,0,0,0,0,0,-1,1455,820,0,0
238,204,0,0,0,0,0,0,0,0,0,-1,1462,820,0,0
245,204,0,0,0,0,0,0,0,0,0,-1,1469,820,0,0
252,204,0,0,0,0,0,0,0,0,0,-1,1476,820,0,0
259,204,0,0,0,0,0,0,0,0,0,-1,1483,820,0,0
266,204,0,0,0,0,0,0,0,0,0,-1,1490,820,0,0
273,204,0,0,0,0,0,0,0,0,0,-1,1497,820,0,0
280,204,0,0,0,0,0,0,0,0,0,-1,1504,820,0,0
287,204,0,0,0,0,0,0,0,0,0,-1,1511,820,0,0
294,204,0,0,0,0,0,0,0,0,0,-1,1518,820,0,0
301,204,0,0,0,0,0,0,0,0,0,-1,1525,820,0,0
308,204,0,0,0,0,0,0,0,0,0,-1,1532,820,0,0
315,204,0,0,0,0,0,0,0,0,0,-1,1539,820,0,0
322,204,0,0,0,0,0,0,0,0,0,-1,1546,820,0,0
329,204,0,0,0,0,0,0,0,0,0,-1,1553,820,0,0
336,204,0,0,0,0,0,0,0,0,0,-1,1560,820,0,0
343,204,0,0,0,0,0,0,0,0,0,-1,1567,820,0,0
350,204,0,0,0,0,0,0,0,0,0,-1,1574,820,0,0
357,204,0,0,0,0,0,0,0,0,0,-1,1581,820,0,0
364,204,0,0,0,0,0,0,0,0,0,-1,1588,820,0,0
371,204,0,0,0,0,0,0,0,0,0,-1,1595,820,0,0
378,204,0,0,0,0,0,0,0,0,0,-1,1602,820,0,0
385,204,0,0,0,0,0,0,0,0,0,-1,1609,820,0,0
392,204,0,0,0,0,0,0,0,0,0,-1,1616,820,0,0
399,204,0,0,0,0,0,0,0,0,0,-1,1623,820,0,0
406,204,0,0,0,0,0,0,0,0,0,-1,1630,820,0,0
413,204,0,0,0,0,0,0,0,0,0,-1,1637,820,0,0
420,204,0,0,0,0,0,0,0,0,0,-1,1644,820,0,0
427,204,0,0,0,0,0,0,0,0,0,-1,1651,820,0,0
434,204,0,0,0,0,0,0,0,0,0,-1,1658,820,0,0
441,204,0,0,0,0,0,0,0,0,0,-1,1665,820,0,0
448,204,0,0,0,0,0,0,0,0,0,-1,1672,820,0,0
455,204,0,0,0,0,0,0,0,0,0,-1,1679,820,0,0
462,204,0,0,0,0,0,0,0,0,0,-1,1686,820,0,0
469,204,0,0,0,0,0,0,0,0,0,-1,1693,820,0,0
476,204,0,0,0,0,0,0,0,0,0,-1,1700,820,0,0
483,204,0,0,0,0,0,0,0,0,0,-1,1707,820,0,0
490,204,0,0,0,0,0,0,0,0,0,-1,1714,820,0,0
497,204,0,0,0,0,0,0,0,0,0,-1,1721,820,0,0
504,204,0,0,0,0,0,0,0,0,0,-1,1728,820,0,0
511,204,0,0,0,0,0,0,0,0,0,-1,1735,820,0,0
518,204,0,0,0,0,0,0,0,0,0,-1,1742,820,0,0
525,204,0,0,0,0,0,0,0,0,0,-1,1749,820,0,0
532,204,0,0,0,0,0,0,0,0,0,-1,1756,820,0,0
539,204,0,0,0,0,0,0,0,0,0,-1,1763,820,0,0
546,204,0,0,0,0,0,0,0,0,0,-1,1770,820,0,0
553,204,0,0,0,0,0,0,0,0,0,-1,1777,820,0,0
560,204,0,0,0,0,0,0,0,0,0,-1,1784,820,0,0
567,204,0,0,0,0,0,0,0,0,0,-1,1791,820,0,0
574,204,0,0,0,0,0,0,0,0,0,-1,1798,820,0,0
581,204,0,0,0,0,0,0,0,0,0,-1,1805,820,0,0
588,204,0,0,0,0,0,0,0,0,0,-1,1812,820,0,0
595,204,0,0,0,0,0,0,0,0,0,-1,1819,820,0,0
602,204,17.9247,2.56873,0.00239409,-0.00103905,-0.00290045,0.00404787,-0.00269282,-0.518203,0.00391786,0.0375351,1826,820,17.9247,-2.56875
609,204,17.8744,2.63782,0.00242445,-0.000607737,-0.00149408,0.00303693,-0.00122021,-0.389042,0.00253136,0.0386307,1833,820,17.8744,-2.6378
616,204,17.8192,2.64349,0.00222459,-7.39548e-05,-0.000475841,0.00231921,-0.000168568,-0.196274,0.00160528,0.0348988,1840,820,17.8193,-2.6435
623,204,17.7809,2.61731,0.00183687,0.00036162,0.000182937,0.00185921,0.000339274,0.121552,0.00114329,0.028163,1847,820,17.7808,-2.61731
630,204,17.7684,2.63647,0.00108335,0.000560385,0.000474208,0.00136339,0.000280345,0.533437,0.000831385,0.0294525,1854,820,17.7684,-2.63648
637,204,17.8557,2.58417,0.000281912,0.000702746,0.000565674,0.00109587,-0.000111213,0.963457,0.000770331,0.0354285,1861,820,17.8557,-2.58414
644,204,17.7515,2.59363,-0.000394501,0.000676901,0.000581926,0.000932157,-0.000649757,1.15743,0.000918157,0.037985,1868,820,17.7514,-2.59361
651,204,17.6405,2.58685,-0.000953634,0.000563983,0.00051026,0.00071959,-0.00110924,1.2748,0.00106383,0.0424063,1875,820,17.6405,-2.58686
658,204,13.9811,1.60864,0,0,0,0,0,0,0,-1,1882,820,13.9811,-1.60866
665,204,13.8988,1.96594,0,0,0,0,0,0,0,-1,1889,820,13.8989,-1.96597
672,204,13.9661,1.8316,-0.00228013,0.000264399,-2.87086e-05,0.000264723,-0.00228046,-1.55952,0.00161579,0.0325182,1896,820,13.966,-1.83161
679,204,14.0304,2.00574,-0.0024714,-4.28998e-05,-0.000183048,-2.91801e-05,-0.00248512,-1.49598,0.0016471,0.0185589,1903,820,14.0304,-2.00576
686,204,14.0459,2.26263,-0.00253072,-0.000205232,-0.000463604,-0.000116216,-0.00261974,-1.3811,0.00170907,0.0105946,1910,820,14.0459,-2.26261
693,204,13.9989,2.42407,-0.00183117,-0.000365449,-0.000723333,-6.86039e-05,-0.00212802,-1.18137,0.00139637,0.0157523,1917,820,13.9989,-2.42407
700,204,14.0422,2.58789,-0.000995899,-0.000565872,-0.000810646,5.77904e-05,-0.00161956,-0.915032,0.00109948,0.0177361,1924,820,14.0422,-2.58787
707,204,14.026,2.81519,-0.000360757,-0.000689082,-0.000769358,0.000261758,-0.0013116,-0.680287,0.000973453,0.0150917,1931,820,14.026,-2.81521
714,204,14.047,3.0199,0.00043398,-0.000757401,-0.000524223,0.000631799,-0.00095522,-0.360835,0.000922586,0.0227196,1938,820,14.0469,-3.01991
721,204,14.016,3.12823,0.00102564,-0.000777669,-0.000149014,0.00103787,-0.0007899,-0.0818933,0.00105849,0.020752,1945,820,14.0159,-3.12823
728,204,14.0156,3.2594,0.000944361,-0.00109641,0.000531396,0.00107444,-0.00122649,0.240066,0.00132941,0.012665,1952,820,14.0156,-3.25942
735,204,14.0221,3.43597,-0.000367429,-0.00195721,0.00160551,0.000629194,-0.00295383,0.555538,0.00220903,0.0142802,1959,820,14.022,-3.43595
742,204,14.0259,3.55945,-0.00255695,-0.00304712,0.003047,0.000254812,-0.00585888,0.745267,0.00399357,0.029324,1966,820,14.0259,-3.55945
749,204,13.9905,3.69379,-0.0059452,-0.00485297,0.00535116,-2.01222e-05,-0.010778,0.83625,0.00717866,0.0453022,1973,820,13.9905,-3.69378
756,204,13.9453,3.8493,0,0,0,0,0,0,0,-1,1980,820,13.9453,-3.84931
763,204,13.9408,4.59729,0,0,0,0,0,0,0,-1,1987,820,13.9408,-4.59731
770,204,14.0605,5.14917,0,0,0,0,0,0,0,-1,1994,820,14.0606,-5.14919
777,204,0,0,0,0,0,0,0,0,0,-1,2001,820,0,0
784,204,0,0,0,0,0,0,0,0,0,-1,2008,820,0,0
791,204,0,0,0,0,0,0,0,0,0,-1,2015,820,0,0
798,204,0,0,0,0,0,0,0,0,0,-1,2022,820,0,0
805,204,0,0,0,0,0,0,0,0,0,-1,2029,820,0,0
812,204,0,0,0,0,0,0,0,0,0,-1,2036,820,0,0
-700,197,0,0,0,0,0,0,0,0,0,-1,524,827,0,0
-693,197,0,0,0,0,0,0,0,0,0,-1,531,827,0,0
-686,197,0,0,0,0,0,0,0,0,0,-1,538,827,0,0
-679,197,0,0,0,0,0,0,0,0,0,-1,545,827,0,0
-672,197,0,0,0,0,0,0,0,0,0,-1,552,827,0,0
-665,197,0,0,0,0,0,0,0,0,0,-1,559,827,0,0
-658,197,-7.40338,0.657593,0,0,0,0,0,0,0,-1,566,827,-7.40338,-0.657572
-651,197,-12.0552,-3.97412,0,0,0,0,0,0,0,-1,573,827,-12.0552,3.97411
-644,197,-11.8723,-3.63062,0,0,0,0,0,0,0,-1,580,827,-11.8723,3.63061
-637,197,-11.4794,-3.57758,0,0,0,0,0,0,0,-1,587,827,-11.4794,3.57755
-630,197,-8.3728,1.31342,0,0,0,0,0,0,0,-1,594,827,-8.37279,-1.31342
-623,197,-7.745,2.12262,0,0,0,0,0,0,0,-1,601,827,-7.74502,-2.12262
-616,197,-8.0816,1.54877,-0.0213824,0.0247557,-0.00826928,0.026193,-0.0228197,-1.3987,0.0283198,0.0443111,608,827,-8.08158,-1.54876
-609,197,-8.77759,1.32965,-0.0146313,0.0180315,-0.00691147,0.0194337,-0.0160336,-1.37062,0.0205084,0.0313221,615,827,-8.77759,-1.32966
-602,197,-8.8819,1.14514,-0.00937658,0.0125,-0.00522345,0.0136832,-0.0105598,-1.34804,0.0140354,0.0161451,622,827,-8.88188,-1.14517
-595,197,-8.88177,1.03827,-0.00597932,0.00810473,-0.00362916,0.00898489,-0.00685947,-1.33287,0.00917514,0.0165558,629,827,-8.8818,-1.03824
-588,197,-8.86591,0.89563,-0.00442337,0.0048983,-0.00182683,0.00524353,-0.0047686,-1.38402,0.00578267,0.0167561,636,827,-8.86592,-0.895612
-581,197,-8.86591,0.743347,-0.00452563,0.00236221,-7.95267e-05,0.00236313,-0.00452654,-1.55925,0.00404259,0.0102902,643,827,-8.8659,-0.743349
-574,197,-8.87714,0.599243,-0.00573529,0.000790728,0.00121465,0.00100947,-0.00595404,1.39262,0.00434512,0.0120812,650,827,-8.87715,-0.599271
-567,197,-8.88593,0.424866,-0.00653391,-0.000145901,0.0021712,0.000522188,-0.007202,1.27229,0.00498452,0.0133531,657,827,-8.88593,-0.424876
-560,197,-8.88818,0.271057,-0.00776965,-0.00059976,0.00335097,0.000722518,-0.00909193,1.19496,0.00631592,0.012805,664,827,-8.88818,-0.271078
-553,197,-8.8913,0.147522,-0.00923139,-0.000359015,0.00401672,0.00118926,-0.0107797,1.20289,0.00761389,0.0125533,671,827,-8.8913,-0.147523
-546,197,-8.85675,0.000427246,-0.0104427,-0.000114253,0.00448354,0.00156048,-0.0121175,1.21332,0.00864554,0.0216609,678,827,-8.85673,-0.000416449
-539,197,-9.08453,-0.0098877,-0.0104503,0.00052467,0.00432587,0.00202472,-0.0119503,1.23701,0.0087205,0.0459311,685,827,-9.08454,0.00990207
-532,197,-9.55493,-0.0650635,0,0,0,0,0,0,0,-1,692,827,-9.55493,0.0650526
-525,197,-11.9737,0.776123,0,0,0,0,0,0,0,-1,699,827,-11.9737,-0.776142
-518,197,-11.7713,0.84436,-0.00728529,0.00292053,0.00230188,0.00341569,-0.00778045,1.35892,0.0066258,0.0467584,706,827,-11.7713,-0.844379
-511,197,-11.5553,0.932373,-0.00520306,0.00385153,0.00101784,0.00396454,-0.00531606,1.46022,0.00537706,0.0450935,713,827,-11.5553,-0.93236
-504,197,-11.4235,0.997864,-0.00248697,0.00476255,-0.00068391,0.0048265,-0.00255092,-1.47755,0.00432637,0.0417293,720,827,-11.4234,-0.997842
-497,197,-11.4457,1.02203,0.00100269,0.0055431,-0.00290791,0.00696203,-0.000416249,-1.11683,0.00478614,0.0418812,727,827,-11.4457,-1.02202
-490,197,-11.6287,0.688354,0.00493473,0.00603258,-0.00565702,0.0111672,-0.000199928,-0.833764,0.00751236,0.0396328,734,827,-11.6286,-0.688334
-483,197,-11.5063,0.649353,0.00793259,0.00561119,-0.00827882,0.0151317,-0.0015879,-0.715751,0.0106566,0.0405744,741,827,-11.5064,-0.649327
-476,197,0,0,0,0,0,0,0,0,0,-1,748,827,0,0
-469,197,0,0,0,0,0,0,0,0,0,-1,755,827,0,0
-462,197,0,0,0,0,0,0,0,0,0,-1,762,827,0,0
-455,197,0,0,0,0,0,0,0,0,0,-1,769,827,0,0
-448,197,0,0,0,0,0,0,0,0,0,-1,776,827,0,0
-441,197,0,0,0,0,0,0,0,0,0,-1,783,827,0,0
-434,197,0,0,0,0,0,0,0,0,0,-1,790,827,0,0
-427,197,0,0,0,0,0,0,0,0,0,-1,797,827,0,0
-420,197,0,0,0,0,0,0,0,0,0,-1,804,827,0,0
-413,197,0,0,0,0,0,0,0,0,0,-1,811,827,0,0
-406,197,0,0,0,0,0,0,0,0,0,-1,818,827,0,0
-399,197,0,0,0,0,0,0,0,0,0,-1,825,827,0,0
-392,197,0,0,0,0,0,0,0,0,0,-1,832,827,0,0
-385,197,0,0,0,0,0,0,0,0,0,-1,839,827,0,0
-378,197,0,0,0,0,0,0,0,0,0,-1,846,827,0,0
-371,197,0,0,0,0,0,0,0,0,0,-1,853,827,0,0
-364,197,0,0,0,0,0,0,0,0,0,-1,860,827,0,0
-357,197,0,0,0,0,0,0,0,0,0,-1,867,827,0,0
-350,197,0,0,0,0,0,0,0,0,0,-1,874,827,0,0
-343,197,0,0,0,0,0,0,0,0,0,-1,881,827,0,0
-336,197,0,0,0,0,0,0,0,0,0,-1,888,827,0,0
-329,197,0,0,0,0,0,0,0,0,0,-1,895,827,0,0
-322,197,0,0,0,0,0,0,0,0,0,-1,902,827,0,0
-315,197,0,0,0,0,0,0,0,0,0,-1,909,827,0,0
-308,197,0,0,0,0,0,0,0,0,0,-1,916,827,0,0
-301,197,0,0,0,0,0,0,0,0,0,-1,923,827,0,0
-294,197,0,0,0,0,0,0,0,0,0,-1,930,827,0,0
-287,197,0,0,0,0,0,0,0,0,0,-1,937,827,0,0
-280,197,0,0,0,0,0,0,0,0,0,-1,944,827,0,0
-273,197,0,0,0,0,0,0,0,0,0,-1,951,827,0,0
-266,197,0,0,0,0,0,0,0,0,0,-1,958,827,0,0
-259,197,0,0,0,0,0,0,0,0,0,-1,965,827,0,0
-252,197,0,0,0,0,0,0,0,0,0,-1,972,827,0,0
-245,197,0,0,0,0,0,0,0,0,0,-1,979,827,0,0
-238,197,0,0,0,0,0,0,0,0,0,-1,986,827,0,0
-231,197,0,0,0,0,0,0,0,0,0,-1,993,827,0,0
-224,197,0,0,0,0,0,0,0,0,0,-1,1000,827,0,0
-217,197,0,0,0,0,0,0,0,0,0,-1,1007,827,0,0
-210,197,0,0,0,0,0,0,0,0,0,-1,1014,827,0,0
-203,197,0,0,0,0,0,0,0,0,0,-1,1021,827,0,0
-196,197,0,0,0,0,0,0,0,0,0,-1,1028,827,0,0
-189,197,0,0,0,0,0,0,0,0,0,-1,1035,827,0,0
-182,197,0,0,0,0,0,0,0,0,0,-1,1042,827,0,0
-175,197,0,0,0,0,0,0,0,0,0,-1,1049,827,0,0
-168,197,0,0,0,0,0,0,0,0,0,-1,1056,827,0,0
-161,197,0,0,0,0,0,0,0,0,0,-1,1063,827,0,0
-154,197,0,0,0,0,0,0,0,0,0,-1,1070,827,0,0
-147,197,0,0,0,0,0,0,0,0,0,-1,1077,827,0,0
-140,197,0,0,0,0,0,0,0,0,0,-1,1084,827,0,0
-133,197,0,0,0,0,0,0,0,0,0,-1,1091,827,0,0
-126,197,0,0,0,0,0,0,0,0,0,-1,1098,827,0,0
-119,197,0,0,0,0,0,0,0,0,0,-1,1105,827,0,0
-112,197,0,0,0,0,0,0,0,0,0,-1,1112,827,0,0
-105,197,0,0,0,0,0,0,0,0,0,-1,1119,827,0,0
-98,197,0,0,0,0,0,0,0,0,0,-1,1126,827,0,0
-91,197,0,0,0,0,0,0,0,0,0,-1,1133,827,0,0
-84,197,0,0,0,0,0,0,0,0,0,-1,1140,827,0,0
-77,197,0,0,0,0,0,0,0,0,0,-1,1147,827,0,0
-70,197,0,0,0,0,0,0,0,0,0,-1,1154,827,0,0
-63,197,0,0,0,0,0,0,0,0,0,-1,1161,827,0,0
-56,197,0,0,0,0,0,0,0,0,0,-1,1168,827,0,0
-49,197,0,0,0,0,0,0,0,0,0,-1,1175,827,0,0
-42,197,0,0,0,0,0,0,0,0,0,-1,1182,827,0,0
-35,197,0,0,0,0,0,0,0,0,0,-1,1189,827,0,0
-28,197,0,0,0,0,0,0,0,0,0,-1,1196,827,0,0
-21,197,0,0,0,0,0,0,0,0,0,-1,1203,827,0,0
-14,197,0,0,0,0,0,0,0,0,0,-1,1210,827,0,0
-7,197,0,0,0,0,0,0,0,0,0,-1,1217,827,0,0
0,197,0,0,0,0,0,0,0,0,0,-1,1224,827,0,0
7,197,0,0,0,0,0,0,0,0,0,-1,1231,827,0,0
14,197,0,0,0,0,0,0,0,0,0,-1,1238,827,0,0
21,197,0,0,0,0,0,0,0,0,0,-1,1245,827,0,0
28,197,0,0,0,0,0,0,0,0,0,-1,1252,827,0,0
35,197,0,0,0,0,0,0,0,0,0,-1,1259,827,0,0
42,197,0,0,0,0,0,0,0,0,0,-1,1266,827,0,0
49,197,0,0,0,0,0,0,0,0,0,-1,1273,827,0,0
56,197,0,0,0,0,0,0,0,0,0,-1,1280,827,0,0
63,197,0,0,0,0,0,0,0,0,0,-1,1287,827,0,0
70,197,0,0,0,0,0,0,0,0,0,-1,1294,827,0,0
77,197,0,0,0,0,0,0,0,0,0,-1,1301,827,0,0
84,197,0,0,0,0,0,0,0,0,0,-1,1308,827,0,0
91,197,0,0,0,0,0,0,0,0,0,-1,1315,827,0,0
98,197,0,0,0,0,0,0,0,0,0,-1,1322,827,0,0
105,197,0,0,0,0,0,0,0,0,0,-1,1329,827,0,0
112,197,0,0,0,0,0,0,0,0,0,-1,1336,827,0,0
119,197,0,0,0,0,0,0,0,0,0,-1,1343,827,0,0
126,197,0,0,0,0,0,0,0,0,0,-1,1350,827,0,0
133,197,0,0,0,0,0,0,0,0,0,-1,1357,827,0,0
140,197,0,0,0,0,0,0,0,0,0,-1,1364,827,0,0
147,197,0,0,0,0,0,0,0,0,0,-1,1371,827,0,0
154,197,0,0,0,0,0,0,0,0,0,-1,1378,827,0,0
161,197,0,0,0,0,0,0,0,0,0,-1,1385,827,0,0
168,197,0,0,0,0,0,0,0,0,0,-1,1392,827,0,0
175,197,0,0,0,0,0,0,0,0,0,-1,1399,827,0,0
182,197,0,0,0,0,0,0,0,0,0,-1,1406,827,0,0
189,197,0,0,0,0,0,0,0,0,0,-1,1413,827,0,0
196,197,0,0,0,0,0,0,0,0,0,-1,1420,827,0,0
203,197,0,0,0,0,0,0,0,0,0,-1,1427,827,0,0
210,197,0,0,0,0,0,0,0,0,0,-1,1434,827,0,0
217,197,0,0,0,0,0,0,0,0,0,-1,1441,827,0,0
224,197,0,0,0,0,0,0,0,0,0,-1,1448,827,0,0
231,197,0,0,0,0,0,0,0,0,0,-1,1455,827,0,0
238,197,0,0,0,0,0,0,0,0,0,-1,1462,827,0,0
245,197,0,0,0,0,0,0,0,0,0,-1,1469,827,0,0
252,197,0,0,0,0,0,0,0,0,0,-1,1476,827,0,0
259,197,0,0,0,0,0,0,0,0,0,-1,1483,827,0,0
266,197,0,0,0,0,0,0,0,0,0,-1,1490,827,0,0
273,197,0,0,0,0,0,0,0,0,0,-1,1497,827,0,0
280,197,0,0,0,0,0,0,0,0,0,-1,1504,827,0,0
287,197,0,0,0,0,0,0,0,0,0,-1,1511,827,0,0
294,197,0,0,0,0,0,0,0,0,0,-1,1518,827,0,0
301,197,0,0,0,0,0,0,0,0,0,-1,1525,827,0,0
308,197,0,0,0,0,0,0,0,0,0,-1,1532,827,0,0
315,197,0,0,0,0,0,0,0,0,0,-1,1539,827,0,0
322,197,0,0,0,0,0,0,0,0,0,-1,1546,827,0,0
329,197,0,0,0,0,0,0,0,0,0,-1,1553,827,0,0
336,197,0,0,0,0,0,0,0,0,0,-1,1560,827,0,0
343,197,0,0,0,0,0,0,0,0,0,-1,1567,827,0,0
350,197,0,0,0,0,0,0,0,0,0,-1,1574,827,0,0
357,197,0,0,0,0,0,0,0,0,0,-1,1581,827,0,0
364,197,0,0,0,0,0,0,0,0,0,-1,1588,827,0,0
371,197,0,0,0,0,0,0,0,0,0,-1,1595,827,0,0
378,197,0,0,0,0,0,0,0,0,0,-1,1602,827,0,0
385,197,0,0,0,0,0,0,0,0,0,-1,1609,827,0,0
392,197,0,0,0,0,0,0,0,0,0,-1,1616,827,0,0
399,197,0,0,0,0,0,0,0,0,0,-1,1623,827,0,0
406,197,0,0,0,0,0,0,0,0,0,-1,1630,827,0,0
413,197,0,0,0,0,0,0,0,0,0,-1,1637,827,0,0
420,197,0,0,0,0,0,0,0,0,0,-1,1644,827,0,0
427,197,0,0,0,0,0,0,0,0,0,-1,1651,827,0,0
434,197,0,0,0,0,0,0,0,0,0,-1,1658,827,0,0
441,197,0,0,0,0,0,0,0,0,0,-1,1665,827,0,0
448,197,0,0,0,0,0,0,0,0,0,-1,1672,827,0,0
455,197,0,0,0,0,0,0,0,0,0,-1,1679,827,0,0
462,197,0,0,0,0,0,0,0,0,0,-1,1686,827,0,0
469,197,0,0,0,0,0,0,0,0,0,-1,1693,827,0,0
476,197,0,0,0,0,0,0,0,0,0,-1,1700,827,0,0
483,197,0,0,0,0,0,0,0,0,0,-1,1707,827,0,0
490,197,0,0,0,0,0,0,0,0,0,-1,1714,827,0,0
497,197,0,0,0,0,0,0,0,0,0,-1,1721,827,0,0
504,197,0,0,0,0,0,0,0,0,0,-1,1728,827,0,0
511,197,0,0,0,0,0,0,0,0,0,-1,1735,827,0,0
518,197,0,0,0,0,0,0,0,0,0,-1,1742,827,0,0
525,197,0,0,0,0,0,0,0,0,0,-1,1749,827,0,0
532,197,0,0,0,0,0,0,0,0,0,-1,1756,827,0,0
539,197,0,0,0,0,0,0,0,0,0,-1,1763,827,0,0
546,197,0,0,0,0,0,0,0,0,0,-1,1770,827,0,0
553,197,0,0,0,0,0,0,0,0,0,-1,1777,827,0,0
560,197,0,0,0,0,0,0,0,0,0,-1,1784,827,0,0
567,197,0,0,0,0,0,0,0,0,0,-1,1791,827,0,0
574,197,0,0,0,0,0,0,0,0,0,-1,1798,827,0,0
581,197,0,0,0,0,0,0,0,0,0,-1,1805,827,0,0
588,197,0,0,0,0,0,0,0,0,0,-1,1812,827,0,0
595,197,0,0,0,0,0,0,0,0,0,-1,1819,827,0,0
602,197,17.7096,2.7027,0.00246954,-0.00194654,-0.00460118,0.00536506,-0.00484205,-0.561685,0.00589566,0.0400177,1826,827,17.7095,-2.70271
609,197,17.7372,2.65143,0.00245273,-0.00127276,-0.00292384,0.00405678,-0.00287681,-0.501775,0.00402239,0.0401256,1833,827,17.7372,-2.65141
616,197,17.8813,2.60553,0.00215466,-0.000370253,-0.00160738,0.00293609,-0.00115168,-0.452508,0.00243388,0.0388055,1840,827,17.8814,-2.60554
623,197,17.86,2.48901,0.00166885,0.000291811,-0.000669754,0.00194086,1.9794e-05,-0.385792,0.00128736,0.0339969,1847,827,17.8599,-2.48899
630,197,17.8566,2.47015,0.000760507,0.000629701,-0.000183127,0.00088956,0.000500648,-0.613885,0.000514937,0.0302337,1854,827,17.8566,-2.47014
637,197,17.8574,2.51031,-0.000247746,0.000802423,2.86911e-05,0.000803206,-0.00024853,1.5435,0.000634745,0.0286828,1861,827,17.8574,-2.5103
644,197,17.8268,2.55573,-0.0010271,0.000758546,0.000112963,0.000765664,-0.00103422,1.50787,0.00104301,0.0331972,1868,827,17.8268,-2.55575
651,197,17.7777,2.69751,-0.00165089,0.000592485,7.78717e-05,0.000595185,-0.00165359,1.53614,0.00134541,0.0418785,1875,827,17.7777,-2.69754
658,197,17.7531,2.91205,0,0,0,0,0,0,0,-1,1882,827,17.753,-2.91207
665,197,14.0618,1.80304,0,0,0,0,0,0,0,-1,1889,827,14.0617,-1.80303
672,197,14.1815,1.76184,0,0,0,0,0,0,0,-1,1896,827,14.1815,-1.76184
679,197,14.2677,2.06732,-0.00336204,-7.00043e-05,-0.000404158,-2.11125e-05,-0.00341093,-1.45041,0.00226695,0.0229015,1903,827,14.2677,-2.06733
686,197,14.2118,2.26233,-0.00343358,-0.000232416,-0.000676696,-9.52467e-05,-0.00357075,-1.3708,0.00234939,0.013535,1910,827,14.2118,-2.2623
693,197,14.1776,2.45831,-0.00285181,-0.000352195,-0.00093866,-3.89605e-05,-0.00316505,-1.24871,0.00209716,0.0144667,1917,827,14.1776,-2.45832
700,197,14.2202,2.62366,-0.00214451,-0.000510197,-0.000991647,-4.23993e-05,-0.00261231,-1.13001,0.00172758,0.0213291,1924,827,14.2203,-2.62367
707,197,14.2487,2.79858,-0.00167521,-0.000495216,-0.000888899,-1.83312e-05,-0.0021521,-1.07839,0.00142866,0.00891341,1931,827,14.2487,-2.7986
714,197,14.2192,2.96503,-0.00117419,-0.00040508,-0.000577329,-9.5956e-05,-0.00148332,-1.0792,0.000958496,0.0109582,1938,827,14.2192,-2.96502
721,197,14.1915,3.11414,-0.00105489,-0.000169971,-0.000129826,-0.000151317,-0.00107354,-1.42809,0.000670967,0.0114024,1945,827,14.1916,-3.11416
728,197,14.1897,3.2641,-0.0017908,-0.000273287,0.000659132,-2.69725e-05,-0.00203711,1.21317,0.00134917,0.0100058,1952,827,14.1897,-3.26413
735,197,14.1902,3.44159,-0.00379791,-0.000915398,0.001861,-2.82261e-06,-0.00471049,1.11488,0.00313938,0.0106938,1959,827,14.1902,-3.44159
742,197,14.1691,3.61212,-0.00686047,-0.00175083,0.00337703,-7.10958e-05,-0.0085402,1.10923,0.00566991,0.0183768,1966,827,14.1691,-3.61214
749,197,14.1454,3.76172,-0.0112783,-0.00329623,0.00572626,-0.000307412,-0.0142671,1.08974,0.00941062,0.0403166,1973,827,14.1453,-3.76175
756,197,14.1445,4.03973,-0.0175758,-0.00585608,0.00915643,-0.000844972,-0.0225869,1.07005,0.0147844,0.0489307,1980,827,14.1446,-4.03975
763,197,14.17,4.38867,0,0,0,0,0,0,0,-1,1987,827,14.17,-4.38867
770,197,14.3842,4.92114,0,0,0,0,0,0,0,-1,1994,827,14.3842,-4.92117
777,197,0,0,0,0,0,0,0,0,0,-1,2001,827,0,0
784,197,0,0,0,0,0,0,0,0,0,-1,2008,827,0,0
791,197,0,0,0,0,0,0,0,0,0,-1,2015,827,0,0
798,197,0,0,0,0,0,0,0,0,0,-1,2022,827,0,0
805,197,0,0,0,0,0,0,0,0,0,-1,2029,827,0,0
812,197,0,0,0,0,0,0,0,0,0,-1,2036,827,0,0
-700,190,0,0,0,0,0,0,0,0,0,-1,524,834,0,0
-693,190,0,0,0,0,0,0,0,0,0,-1,531,834,0,0
-686,190,0,0,0,0,0,0,0,0,0,-1,538,834,0,0
-679,190,0,0,0,0,0,0,0,0,0,-1,545,834,0,0
-672,190,0,0,0,0,0,0,0,0,0,-1,552,834,0,0
-665,190,0,0,0,0,0,0,0,0,0,-1,559,834,0,0
-658,190,-7.91888,0.304077,0,0,0,0,0,0,0,-1,566,834,-7.91886,-0.304076
-651,190,-7.20496,1.23413,0,0,0,0,0,0,0,-1,573,834,-7.20495,-1.23414
-644,190,-12.0196,-4.66827,0,0,0,0,0,0,0,-1,580,834,-12.0196,4.66829
-637,190,-8.95898,1.68451,0,0,0,0,0,0,0,-1,587,834,-8.95901,-1.68449
-630,190,-7.82947,1.82343,0,0,0,0,0,0,0,-1,594,834,-7.82947,-1.82344
-623,190,-8.03406,1.84717,-0.0316495,0.0329543,-0.00775783,0.0338729,-0.032568,-1.45295,0.0383621,0.0487005,601,834,-8.03406,-1.84716
-616,190,-8.42841,1.62762,-0.0237727,0.0244162,-0.00621597,0.0252051,-0.0245616,-1.44456,0.0287337,0.0440723,608,834,-8.42842,-1.62763
-609,190,-9.02136,1.23743,-0.0174711,0.0176026,-0.00526265,0.0183752,-0.0182437,-1.42503,0.021142,0.0243304,615,834,-9.02136,-1.23744
-602,190,-9.03455,1.14014,-0.0122144,0.011988,-0.00379697,0.0125697,-0.0127961,-1.41878,0.0146452,0.0156502,622,834,-9.03454,-1.14015
-595,190,-9.04102,1.04773,-0.00860831,0.00751021,-0.002351,0.00784612,-0.00894422,-1.42888,0.00970082,0.0173508,629,834,-9.04101,-1.04772
-588,190,-9.02991,0.905212,-0.00684283,0.00427653,-0.000653218,0.00431477,-0.00688107,-1.51232,0.00652028,0.0147109,636,834,-9.02994,-0.90521
-581,190,-9.02063,0.754578,-0.00678511,0.00168221,0.000994171,0.00179737,-0.00690027,1.45547,0.00530185,0.0106551,643,834,-9.02064,-0.754569
-574,190,-9.0213,0.596802,-0.00793602,0.00024617,0.00210234,0.000754739,-0.00844459,1.33345,0.00589743,0.0099918,650,834,-9.02128,-0.596796
-567,190,-9.02271,0.42334,-0.00876248,-0.000585257,0.00291605,0.000348095,-0.00969583,1.26103,0.00658299,0.011364,657,834,-9.02273,-0.423324
-560,190,-9.06049,0.270081,-0.00986962,-0.00092043,0.00396625,0.000584366,-0.0113744,1.20817,0.00778504,0.0173602,664,834,-9.06046,-0.270074
-553,190,-9.06085,0.133057,-0.0112158,-0.000710996,0.00448831,0.000945485,-0.0128723,1.21724,0.00891341,0.0158451,671,834,-9.06084,-0.133036
-546,190,-9.03857,0.00531006,-0.0122366,-0.000451163,0.00474155,0.00121961,-0.0139073,1.23201,0.00970368,0.0303729,678,834,-9.03859,-0.00530562
-539,190,-9.54871,0.200256,-0.0121379,0.000192791,0.00447396,0.00164505,-0.0135901,1.25692,0.00965526,0.0427082,685,834,-9.54871,-0.20023
-532,190,-10.2761,0.486145,-0.01142,0.000864638,0.00395476,0.00202768,-0.012583,1.28477,0.00913984,0.0456609,692,834,-10.2761,-0.486157
-525,190,-11.0038,0.750549,0,0,0,0,0,0,0,-1,699,834,-11.0038,-0.750523
-518,190,-11.6444,0.896912,0,0,0,0,0,0,0,-1,706,834,-11.6444,-0.896915
-511,190,-11.4379,0.945007,-0.00566071,0.00374556,0.000523559,0.00377461,-0.00568976,1.51536,0.00550142,0.0448291,713,834,-11.4379,-0.944991
-504,190,-11.6335,0.899475,-0.00219391,0.00476702,-0.00142605,0.00504784,-0.00247473,-1.37636,0.00442704,0.0451505,720,834,-11.6336,-0.899451
-497,190,-11.7097,0.963867,0.00225328,0.00564155,-0.00385131,0.00815487,-0.000260041,-0.992604,0.0055253,0.0465241,727,834,-11.7097,-0.963885
-490,190,-11.5891,0.731323,0.00678549,0.00618039,-0.00656706,0.013057,-9.10833e-05,-0.762379,0.00873516,0.0436285,734,834,-11.5891,-0.731295
-483,190,0,0,0,0,0,0,0,0,0,-1,741,834,0,0
-476,190,0,0,0,0,0,0,0,0,0,-1,748,834,0,0
-469,190,0,0,0,0,0,0,0,0,0,-1,755,834,0,0
-462,190,0,0,0,0,0,0,0,0,0,-1,762,834,0,0
-455,190,0,0,0,0,0,0,0,0,0,-1,769,834,0,0
-448,190,0,0,0,0,0,0,0,0,0,-1,776,834,0,0
-441,190,0,0,0,0,0,0,0,0,0,-1,783,834,0,0
-434,190,0,0,0,0,0,0,0,0,0,-1,790,834,0,0
-427,190,0,0,0,0,0,0,0,0,0,-1,797,834,0,0
-420,190,0,0,0,0,0,0,0,0,0,-1,804,834,0,0
-413,190,0,0,0,0,0,0,0,0,0,-1,811,834,0,0
-406,190,0,0,0,0,0,0,0,0,0,-1,818,834,0,0
-399,190,0,0,0,0,0,0,0,0,0,-1,825,834,0,0
-392,190,0,0,0,0,0,0,0,0,0,-1,832,834,0,0
-385,190,0,0,0,0,0,0,0,0,0,-1,839,834,0,0
-378,190,0,0,0,0,0,0,0,0,0,-1,846,834,0,0
-371,190,0,0,0,0,0,0,0,0,0,-1,853,834,0,0
-364,190,0,0,0,0,0,0,0,0,0,-1,860,834,0,0
-357,190,0,0,0,0,0,0,0,0,0,-1,867,834,0,0
-350,190,0,0,0,0,0,0,0,0,0,-1,874,834,0,0
-343,190,0,0,0,0,0,0,0,0,0,-1,881,834,0,0
-336,190,0,0,0,0,0,0,0,0,0,-1,888,834,0,0
-329,190,0,0,0,0,0,0,0,0,0,-1,895,834,0,0
-322,190,0,0,0,0,0,0,0,0,0,-1,902,834,0,0
-315,190,0,0,0,0,0,0,0,0,0,-1,909,834,0,0
-308,190,0,0,0,0,0,0,0,0,0,-1,916,834,0,0
-301,190,0,0,0,0,0,0,0,0,0,-1,923,834,0,0
-294,190,0,0,0,0,0,0,0,0,0,-1,930,834,0,0
-287,190,0,0,0,0,0,0,0,0,0,-1,937,834,0,0
-280,190,0,0,0,0,0,0,0,0,0,-1,944,834,0,0
-273,190,0,0,0,0,0,0,0,0,0,-1,951,834,0,0
-266,190,0,0,0,0,0,0,0,0,0,-1,958,834,0,0
-259,190,0,0,0,0,0,0,0,0,0,-1,965,834,0,0
-252,190,0,0,0,0,0,0,0,0,0,-1,972,834,0,0
-245,190,0,0,0,0,0,0,0,0,0,-1,979,834,0,0
-238,190,0,0,0,0,0,0,0,0,0,-1,986,834,0,0
-231,190,0,0,0,0,0,0,0,0,0,-1,993,834,0,0
-224,190,0,0,0,0,0,0,0,0,0,-1,1000,834,0,0
-217,190,0,0,0,0,0,0,0,0,0,-1,1007,834,0,0
-210,190,0,0,0,0,0,0,0,0,0,-1,1014,834,0,0
-203,190,0,0,0,0,0,0,0,0,0,-1,1021,834,0,0
-196,190,0,0,0,0,0,0,0,0,0,-1,1028,834,0,0
-189,190,0,0,0,0,0,0,0,0,0,-1,1035,834,0,0
-182,190,0,0,0,0,0,0,0,0,0,-1,1042,834,0,0
-175,190,0,0,0,0,0,0,0,0,0,-1,1049,834,0,0
-168,190,0,0,0,0,0,0,0,0,0,-1,1056,834,0,0
-161,190,0,0,0,0,0,0,0,0,0,-1,1063,834,0,0
-154,190,0,0,0,0,0,0,0,0,0,-1,1070,834,0,0
-147,190,0,0,0,0,0,0,0,0,0,-1,1077,834,0,0
-140,190,0,0,0,0,0,0,0,0,0,-1,1084,834,0,0
-133,190,0,0,0,0,0,0,0,0,0,-1,1091,834,0,0
-126,190,0,0,0,0,0,0,0,0,0,-1,1098,834,0,0
-119,190,0,0,0,0,0,0,0,0,0,-1,1105,834,0,0
-112,190,0,0,0,0,0,0,0,0,0,-1,1112,834,0,0
-105,190,0,0,0,0,0,0,0,0,0,-1,1119,834,0,0
-98,190,0,0,0,0,0,0,0,0,0,-1,1126,834,0,0
-91,190,0,0,0,0,0,0,0,0,0,-1,1133,834,0,0
-84,190,0,0,0,0,0,0,0,0,0,-1,1140,834,0,0
-77,190,0,0,0,0,0,0,0,0,0,-1,1147,834,0,0
-70,190,0,0,0,0,0,0,0,0,0,-1,1154,834,0,0
-63,190,0,0,0,0,0,0,0,0,0,-1,1161,834,0,0
-56,190,0,0,0,0,0,0,0,0,0,-1,1168,834,0,0
-49,190,0,0,0,0,0,0,0,0,0,-1,1175,834,0,0
-42,190,0,0,0,0,0,0,0,0,0,-1,1182,834,0,0
-35,190,0,0,0,0,0,0,0,0,0,-1,1189,834,0,0
-28,190,0,0,0,0,0,0,0,0,0,-1,1196,834,0,0
-21,190,0,0,0,0,0,0,0,0,0,-1,1203,834,0,0
-14,190,0,0,0,0,0,0,0,0,0,-1,1210,834,0,0
-7,190,0,0,0,0,0,0,0,0,0,-1,1217,834,0,0
0,190,0,0,0,0,0,0,0,0,0,-1,1224,834,0,0
7,190,0,0,0,0,0,0,0,0,0,-1,1231,834,0,0
14,190,0,0,0,0,0,0,0,0,0,-1,1238,834,0,0
21,190,0,0,0,0,0,0,0,0,0,-1,1245,834,0,0
28,190,0,0,0,0,0,0,0,0,0,-1,1252,834,0,0
35,190,0,0,0,0,0,0,0,0,0,-1,1259,834,0,0
42,190,0,0,0,0,0,0,0,0,0,-1,1266,834,0,0
49,190,0,0,0,0,0,0,0,0,0,-1,1273,834,0,0
56,190,0,0,0,0,0,0,0,0,0,-1,1280,834,0,0
63,190,0,0,0,0,0,0,0,0,0,-1,1287,834,0,0
70,190,0,0,0,0,0,0,0,0,0,-1,1294,834,0,0
77,190,0,0,0,0,0,0,0,0,0,-1,1301,834,0,0
84,190,0,0,0,0,0,0,0,0,0,-1,1308,834,0,0
91,190,0,0,0,0,0,0,0,0,0,-1,1315,834,0,0
98,190,0,0,0,0,0,0,0,0,0,-1,1322,834,0,0
105,190,0,0,0,0,0,0,0,0,0,-1,1329,834,0,0
112,190,0,0,0,0,0,0,0,0,0,-1,1336,834,0,0
119,190,0,0,0,0,0,0,0,0,0,-1,1343,834,0,0
126,190,0,0,0,0,0,0,0,0,0,-1,1350,834,0,0
133,190,0,0,0,0,0,0,0,0,0,-1,1357,834,0,0
140,190,0,0,0,0,0,0,0,0,0,-1,1364,834,0,0
147,190,0,0,0,0,0,0,0,0,0,-1,1371,834,0,0
154,190,0,0,0,0,0,0,0,0,0,-1,1378,834,0,0
161,190,0,0,0,0,0,0,0,0,0,-1,1385,834,0,0
168,190,0,0,0,0,0,0,0,0,0,-1,1392,834,0,0
175,190,0,0,0,0,0,0,0,0,0,-1,1399,834,0,0
182,190,0,0,0,0,0,0,0,0,0,-1,1406,834,0,0
189,190,0,0,0,0,0,0,0,0,0,-1,1413,834,0,0
196,190,0,0,0,0,0,0,0,0,0,-1,1420,834,0,0
203,190,0,0,0,0,0,0,0,0,0,-1,1427,834,0,0
210,190,0,0,0,0,0,0,0,0,0,-1,1434,834,0,0
217,190,0,0,0,0,0,0,0,0,0,-1,1441,834,0,0
224,190,0,0,0,0,0,0,0,0,0,-1,1448,834,0,0
231,190,0,0,0,0,0,0,0,0,0,-1,1455,834,0,0
238,190,0,0,0,0,0,0,0,0,0,-1,1462,834,0,0
245,190,0,0,0,0,0,0,0,0,0,-1,1469,834,0,0
252,190,0,0,0,0,0,0,0,0,0,-1,1476,834,0,0
259,190,0,0,0,0,0,0,0,0,0,-1,1483,834,0,0
266,190,0,0,0,0,0,0,0,0,0,-1,1490,834,0,0
273,190,0,0,0,0,0,0,0,0,0,-1,1497,834,0,0
280,190,0,0,0,0,0,0,0,0,0,-1,1504,834,0,0
287,190,0,0,0,0,0,0,0,0,0,-1,1511,834,0,0
294,190,0,0,0,0,0,0,0,0,0,-1,1518,834,0,0
301,190,0,0,0,0,0,0,0,0,0,-1,1525,834,0,0
308,190,0,0,0,0,0,0,0,0,0,-1,1532,834,0,0
315,190,0,0,0,0,0,0,0,0,0,-1,1539,834,0,0
322,190,0,0,0,0,0,0,0,0,0,-1,1546,834,0,0
329,190,0,0,0,0,0,0,0,0,0,-1,1553,834,0,0
336,190,0,0,0,0,0,0,0,0,0,-1,1560,834,0,0
343,190,0,0,0,0,0,0,0,0,0,-1,1567,834,0,0
350,190,0,0,0,0,0,0,0,0,0,-1,1574,834,0,0
357,190,0,0,0,0,0,0,0,0,0,-1,1581,834,0,0
364,190,0,0,0,0,0,0,0,0,0,-1,1588,834,0,0
371,190,0,0,0,0,0,0,0,0,0,-1,1595,834,0,0
378,190,0,0,0,0,0,0,0,0,0,-1,1602,834,0,0
385,190,0,0,0,0,0,0,0,0,0,-1,1609,834,0,0
392,190,0,0,0,0,0,0,0,0,0,-1,1616,834,0,0
399,190,0,0,0,0,0,0,0,0,0,-1,1623,834,0,0
406,190,0,0,0,0,0,0,0,0,0,-1,1630,834,0,0
413,190,0,0,0,0,0,0,0,0,0,-1,1637,834,0,0
420,190,0,0,0,0,0,0,0,0,0,-1,1644,834,0,0
427,190,0,0,0,0,0,0,0,0,0,-1,1651,834,0,0
434,190,0,0,0,0,0,0,0,0,0,-1,1658,834,0,0
441,190,0,0,0,0,0,0,0,0,0,-1,1665,834,0,0
448,190,0,0,0,0,0,0,0,0,0,-1,1672,834,0,0
455,190,0,0,0,0,0,0,0,0,0,-1,1679,834,0,0
462,190,0,0,0,0,0,0,0,0,0,-1,1686,834,0,0
469,190,0,0,0,0,0,0,0,0,0,-1,1693,834,0,0
476,190,0,0,0,0,0,0,0,0,0,-1,1700,834,0,0
483,190,0,0,0,0,0,0,0,0,0,-1,1707,834,0,0
490,190,0,0,0,0,0,0,0,0,0,-1,1714,834,0,0
497,190,0,0,0,0,0,0,0,0,0,-1,1721,834,0,0
504,190,0,0,0,0,0,0,0,0,0,-1,1728,834,0,0
511,190,0,0,0,0,0,0,0,0,0,-1,1735,834,0,0
518,190,0,0,0,0,0,0,0,0,0,-1,1742,834,0,0
525,190,0,0,0,0,0,0,0,0,0,-1,1749,834,0,0
532,190,0,0,0,0,0,0,0,0,0,-1,1756,834,0,0
539,190,0,0,0,0,0,0,0,0,0,-1,1763,834,0,0
546,190,0,0,0,0,0,0,0,0,0,-1,1770,834,0,0
553,190,0,0,0,0,0,0,0,0,0,-1,1777,834,0,0
560,190,0,0,0,0,0,0,0,0,0,-1,1784,834,0,0
567,190,0,0,0,0,0,0,0,0,0,-1,1791,834,0,0
574,190,0,0,0,0,0,0,0,0,0,-1,1798,834,0,0
581,190,0,0,0,0,0,0,0,0,0,-1,1805,834,0,0
588,190,0,0,0,0,0,0,0,0,0,-1,1812,834,0,0
595,190,0,0,0,0,0,0,0,0,0,-1,1819,834,0,0
602,190,17.6718,2.64569,0.00271706,-0.00282681,-0.0064886,0.00700101,-0.00711076,-0.583532,0.00814752,0.041824,1826,834,17.6717,-2.64568
609,190,17.6093,2.66315,0.00270686,-0.00213763,-0.00446889,0.00536775,-0.00479852,-0.537049,0.00587256,0.039725,1833,834,17.6092,-2.66312
616,190,17.8634,2.55145,0.00229844,-0.00092717,-0.00281743,0.00393202,-0.00256076,-0.525445,0.00377637,0.0402222,1840,834,17.8634,-2.55145
623,190,17.8759,2.34308,0.00170245,-2.74536e-05,-0.0015376,0.00260168,-0.000926688,-0.529191,0.00211223,0.0389341,1847,834,17.8758,-2.34305
630,190,17.933,2.30035,0.000654971,0.0005081,-0.000771122,0.00135615,-0.000193075,-0.737925,0.00097485,0.0392366,1854,834,17.9329,-2.30034
637,190,17.8743,2.45233,-0.000598248,0.000757053,-0.000401686,0.00086716,-0.000708355,-1.30326,0.000911163,0.032893,1861,834,17.8743,-2.45231
644,190,17.8339,2.56256,-0.00155454,0.000746919,-0.000272343,0.000778708,-0.00158633,-1.4546,0.00139174,0.0251712,1868,834,17.8339,-2.56253
651,190,17.7795,2.75134,-0.00229686,0.000580243,-0.000283369,0.000607886,-0.0023245,-1.47355,0.0017871,0.0334319,1875,834,17.7795,-2.75136
658,190,17.7261,2.98694,-0.00284883,0.000444162,-0.000451695,0.000504996,-0.00290966,-1.43692,0.00212817,0.0437947,1882,834,17.7261,-2.98694
665,190,17.691,3.22211,0,0,0,0,0,0,0,-1,1889,834,17.691,-3.22209
672,190,14.5803,1.98126,0,0,0,0,0,0,0,-1,1896,834,14.5803,-1.98125
679,190,14.4498,2.17822,-0.00415413,-0.000117265,-0.000704081,2.01096e-06,-0.0042734,-1.40298,0.00284961,0.0287217,1903,834,14.4498,-2.17824
686,190,14.3542,2.29565,-0.00418172,-0.000288756,-0.000999672,-4.70569e-05,-0.00442341,-1.33357,0.00293338,0.0124389,1910,834,14.3542,-2.29567
693,190,14.3536,2.45172,-0.00364714,-0.000397981,-0.00127642,4.34737e-05,-0.0040886,-1.23782,0.00274034,0.012102,1917,834,14.3537,-2.4517
700,190,14.3488,2.64545,-0.00299119,-0.000566908,-0.00132261,1.49929e-05,-0.00357309,-1.15632,0.00238708,0.0117679,1924,834,14.3488,-2.64546
707,190,14.38,2.79181,-0.00251667,-0.000506339,-0.00117104,3.17658e-05,-0.00305477,-1.14006,0.00204719,0.0129451,1931,834,14.38,-2.79184
714,190,14.3915,2.93695,-0.0020636,-0.000387199,-0.000792778,-7.16767e-05,-0.00237912,-1.19202,0.00156274,0.011292,1938,834,14.3915,-2.93697
721,190,14.3759,3.10504,-0.00215565,-1.42044e-05,-0.000267754,1.87663e-05,-0.00218862,-1.44828,0.00146538,0.0102468,1945,834,14.3759,-3.10504
728,190,14.3607,3.255,-0.00317594,-3.57176e-05,0.000610687,7.88633e-05,-0.00329052,1.38533,0.00222043,0.0118515,1952,834,14.3608,-3.25503
735,190,14.3729,3.40399,-0.00536911,-0.000624076,0.00192012,5.55685e-05,-0.00604876,1.2306,0.00405115,0.0115882,1959,834,14.3729,-3.40401
742,190,14.3459,3.61774,-0.00864251,-0.0014122,0.00346401,-2.04942e-05,-0.0100342,1.18877,0.00668266,0.0148005,1966,834,14.346,-3.61776
749,190,14.3182,3.8465,-0.0133948,-0.00287783,0.00571525,-0.00037,-0.0159027,1.1573,0.0104806,0.035242,1973,834,14.3182,-3.84648
756,190,14.2744,4.08594,-0.0198552,-0.0053361,0.00897218,-0.00105438,-0.024137,1.12554,0.0157516,0.0470501,1980,834,14.2745,-4.08596
763,190,14.209,4.29785,0,0,0,0,0,0,0,-1,1987,834,14.209,-4.29787
770,190,15.348,4.46619,0,0,0,0,0,0,0,-1,1994,834,15.348,-4.46622
777,190,14.8749,4.7785,0,0,0,0,0,0,0,-1,2001,834,14.8749,-4.77853
784,190,0,0,0,0,0,0,0,0,0,-1,2008,834,0,0
791,190,0,0,0,0,0,0,0,0,0,-1,2015,834,0,0
798,190,0,0,0,0,0,0,0,0,0,-1,2022,834,0,0
805,190,0,0,0,0,0,0,0,0,0,-1,2029,834,0,0
812,190,0,0,0,0,0,0,0,0,0,-1,2036,834,0,0
-700,183,0,0,0,0,0,0,0,0,0,-1,524,841,0,0
-693,183,0,0,0,0,0,0,0,0,0,-1,531,841,0,0
-686,183,0,0,0,0,0,0,0,0,0,-1,538,841,0,0
-679,183,0,0,0,0,0,0,0,0,0,-1,545,841,0,0
-672,183,0,0,0,0,0,0,0,0,0,-1,552,841,0,0
-665,183,0,0,0,0,0,0,0,0,0,-1,559,841,0,0
-658,183,-8.40887,-0.0455322,0,0,0,0,0,0,0,-1,566,841,-8.40888,0.0455041
-651,183,-7.64874,0.831482,0,0,0,0,0,0,0,-1,573,841,-7.64877,-0.831466
-644,183,-7.5141,2.14978,0,0,0,0,0,0,0,-1,580,841,-7.51409,-2.14977
-637,183,-7.93994,1.3606,0,0,0,0,0,0,0,-1,587,841,-7.93994,-1.36059
-630,183,-8.12885,1.46625,-0.0394683,0.0407433,-0.00465807,0.0410129,-0.0397379,-1.51298,0.0466234,0.0467829,594,841,-8.12883,-1.46622
-623,183,-8.32617,1.52008,-0.0321269,0.0313293,-0.00403467,0.0315848,-0.0323824,-1.50755,0.0369325,0.0450071,601,841,-8.32619,-1.52006
-616,183,-9.13342,1.40393,-0.0250074,0.0230337,-0.00313083,0.0232368,-0.0252105,-1.50599,0.0279788,0.0386838,608,841,-9.1334,-1.40394
-609,183,-9.17609,1.29913,-0.0191966,0.0164045,-0.00279775,0.016623,-0.0194151,-1.49285,0.0208274,0.0169341,615,841,-9.17606,-1.29913
-602,183,-9.18597,1.17432,-0.0141863,0.0109017,-0.00174989,0.0110232,-0.0143078,-1.50149,0.0146658,0.0109958,622,841,-9.186,-1.1743
-595,183,-9.18945,1.03204,-0.0106616,0.00651139,-0.000626465,0.00653421,-0.0106845,-1.53438,0.010037,0.0103265,629,841,-9.18943,-1.03203
-588,183,-9.17578,0.890503,-0.00884579,0.00341014,0.000811198,0.00346359,-0.00889925,1.50499,0.00736407,0.00998139,636,841,-9.17575,-0.890499
-581,183,-9.18481,0.754272,-0.00870178,0.000885168,0.00224281,0.00138391,-0.00920053,1.35198,0.00664322,0.011095,643,841,-9.1848,-0.754281
-574,183,-9.17456,0.618347,-0.00980122,-0.000304501,0.00307687,0.000605233,-0.010711,1.28332,0.00735069,0.0114621,650,841,-9.17456,-0.618361
-567,183,-9.14606,0.465332,-0.0107359,-0.000964735,0.00369268,0.000273794,-0.0119745,1.24719,0.00807578,0.0150527,657,841,-9.14607,-0.46535
-560,183,-9.23413,0.334351,-0.011629,-0.0011495,0.00450773,0.000522673,-0.0133011,1.21558,0.00904669,0.0181824,664,841,-9.23412,-0.334352
-553,183,-9.17401,0.108704,-0.0127327,-0.000964184,0.00493471,0.000831137,-0.014528,1.22187,0.00997392,0.0151927,671,841,-9.17401,-0.108728
-546,183,-9.08496,-0.00402832,-0.0133748,-0.000635591,0.00499905,0.00109186,-0.0151023,1.23809,0.0104512,0.0361784,678,841,-9.08498,0.00404955
-539,183,-10.0781,0.219849,-0.0130627,7.09671e-06,0.00465744,0.00149695,-0.0145526,1.2612,0.0102373,0.0455563,685,841,-10.0781,-0.219821
-532,183,-10.8778,0.441711,-0.0121236,0.000742415,0.00407758,0.00192585,-0.013307,1.28833,0.00957806,0.0440171,692,841,-10.8778,-0.441719
-525,183,-11.5216,0.56665,0,0,0,0,0,0,0,-1,699,841,-11.5216,-0.56665
-518,183,-11.6987,0.597839,-0.00808641,0.00271948,0.0018595,0.00303051,-0.00839745,1.40506,0.00683617,0.0450427,706,841,-11.6987,-0.59783
-511,183,-11.5959,0.570984,-0.004732,0.00386962,0.000118561,0.00387126,-0.00473363,1.55702,0.00497635,0.0408503,713,841,-11.596,-0.571009
-504,183,-11.6983,0.628357,-0.000450585,0.0049898,-0.00211467,0.00571508,-0.00117586,-1.24039,0.00425649,0.0425572,720,841,-11.6983,-0.628375
-497,183,-11.6829,0.763855,0.00469687,0.00584302,-0.00477865,0.0100828,0.000457059,-0.845075,0.00657484,0.0441316,727,841,-11.6829,-0.763874
-490,183,-11.5103,0.610291,0.00867939,0.00618944,-0.00749853,0.0150356,-0.000166766,-0.703134,0.0100798,0.0412255,734,841,-11.5103,-0.610317
-483,183,0,0,0,0,0,0,0,0,0,-1,741,841,0,0
-476,183,0,0,0,0,0,0,0,0,0,-1,748,841,0,0
-469,183,0,0,0,0,0,0,0,0,0,-1,755,841,0,0
-462,183,0,0,0,0,0,0,0,0,0,-1,762,841,0,0
-455,183,0,0,0,0,0,0,0,0,0,-1,769,841,0,0
-448,183,0,0,0,0,0,0,0,0,0,-1,776,841,0,0
-441,183,0,0,0,0,0,0,0,0,0,-1,783,841,0,0
-434,183,0,0,0,0,0,0,0,0,0,-1,790,841,0,0
-427,183,0,0,0,0,0,0,0,0,0,-1,797,841,0,0
-420,183,0,0,0,0,0,0,0,0,0,-1,804,841,0,0
-413,183,0,0,0,0,0,0,0,0,0,-1,811,841,0,0
-406,183,0,0,0,0,0,0,0,0,0,-1,818,841,0,0
-399,183,0,0,0,0,0,0,0,0,0,-1,825,841,0,0
-392,183,0,0,0,0,0,0,0,0,0,-1,832,841,0,0
-385,183,0,0,0,0,0,0,0,0,0,-1,839,841,0,0
-378,183,0,0,0,0,0,0,0,0,0,-1,846,841,0,0
-371,183,0,0,0,0,0,0,0,0,0,-1,853,841,0,0
-364,183,0,0,0,0,0,0,0,0,0,-1,860,841,0,0
-357,183,0,0,0,0,0,0,0,0,0,-1,867,841,0,0
-350,183,0,0,0,0,0,0,0,0,0,-1,874,841,0,0
-343,183,0,0,0,0,0,0,0,0,0,-1,881,841,0,0
-336,183,0,0,0,0,0,0,0,0,0,-1,888,841,0,0
-329,183,0,0,0,0,0,0,0,0,0,-1,895,841,0,0
-322,183,0,0,0,0,0,0,0,0,0,-1,902,841,0,0
-315,183,0,0,0,0,0,0,0,0,0,-1,909,841,0,0
-308,183,0,0,0,0,0,0,0,0,0,-1,916,841,0,0
-301,183,0,0,0,0,0,0,0,0,0,-1,923,841,0,0
-294,183,0,0,0,0,0,0,0,0,0,-1,930,841,0,0
-287,183,0,0,0,0,0,0,0,0,0,-1,937,841,0,0
-280,183,0,0,0,0,0,0,0,0,0,-1,944,841,0,0
-273,183,0,0,0,0,0,0,0,0,0,-1,951,841,0,0
-266,183,0,0,0,0,0,0,0,0,0,-1,958,841,0,0
-259,183,0,0,0,0,0,0,0,0,0,-1,965,841,0,0
-252,183,0,0,0,0,0,0,0,0,0,-1,972,841,0,0
-245,183,0,0,0,0,0,0,0,0,0,-1,979,841,0,0
-238,183,0,0,0,0,0,0,0,0,0,-1,986,841,0,0
-231,183,0,0,0,0,0,0,0,0,0,-1,993,841,0,0
-224,183,0,0,0,0,0,0,0,0,0,-1,1000,841,0,0
-217,183,0,0,0,0,0,0,0,0,0,-1,1007,841,0,0
-210,183,0,0,0,0,0,0,0,0,0,-1,1014,841,0,0
-203,183,0,0,0,0,0,0,0,0,0,-1,1021,841,0,0
-196,183,0,0,0,0,0,0,0,0,0,-1,1028,841,0,0
-189,183,0,0,0,0,0,0,0,0,0,-1,1035,841,0,0
-182,183,0,0,0,0,0,0,0,0,0,-1,1042,841,0,0
-175,183,0,0,0,0,0,0,0,0,0,-1,1049,841,0,0
-168,183,0,0,0,0,0,0,0,0,0,-1,1056,841,0,0
-161,183,0,0,0,0,0,0,0,0,0,-1,1063,841,0,0
-154,183,0,0,0,0,0,0,0,0,0,-1,1070,841,0,0
-147,183,0,0,0,0,0,0,0,0,0,-1,1077,841,0,0
-140,183,0,0,0,0,0,0,0,0,0,-1,1084,841,0,0
-133,183,0,0,0,0,0,0,0,0,0,-1,1091,841,0,0
-126,183,0,0,0,0,0,0,0,0,0,-1,1098,841,0,0
-119,183,0,0,0,0,0,0,0,0,0,-1,1105,841,0,0
-112,183,0,0,0,0,0,0,0,0,0,-1,1112,841,0,0
-105,183,0,0,0,0,0,0,0,0,0,-1,1119,841,0,0
-98,183,0,0,0,0,0,0,0,0,0,-1,1126,841,0,0
-91,183,0,0,0,0,0,0,0,0,0,-1,1133,841,0,0
-84,183,0,0,0,0,0,0,0,0,0,-1,1140,841,0,0
-77,183,0,0,0,0,0,0,0,0,0,-1,1147,841,0,0
-70,183,0,0,0,0,0,0,0,0,0,-1,1154,841,0,0
-63,183,0,0,0,0,0,0,0,0,0,-1,1161,841,0,0
-56,183,0,0,0,0,0,0,0,0,0,-1,1168,841,0,0
-49,183,0,0,0,0,0,0,0,0,0,-1,1175,841,0,0
-42,183,0,0,0,0,0,0,0,0,0,-1,1182,841,0,0
-35,183,0,0,0,0,0,0,0,0,0,-1,1189,841,0,0
-28,183,0,0,0,0,0,0,0,0,0,-1,1196,841,0,0
-21,183,0,0,0,0,0,0,0,0,0,-1,1203,841,0,0
-14,183,0,0,0,0,0,0,0,0,0,-1,1210,841,0,0
-7,183,0,0,0,0,0,0,0,0,0,-1,1217,841,0,0
0,183,0,0,0,0,0,0,0,0,0,-1,1224,841,0,0
7,183,0,0,0,0,0,0,0,0,0,-1,1231,841,0,0
14,183,0,0,0,0,0,0,0,0,0,-1,1238,841,0,0
21,183,0,0,0,0,0,0,0,0,0,-1,1245,841,0,0
28,183,0,0,0,0,0,0,0,0,0,-1,1252,841,0,0
35,183,0,0,0,0,0,0,0,0,0,-1,1259,841,0,0
42,183,0,0,0,0,0,0,0,0,0,-1,1266,841,0,0
49,183,0,0,0,0,0,0,0,0,0,-1,1273,841,0,0
56,183,0,0,0,0,0,0,0,0,0,-1,1280,841,0,0
63,183,0,0,0,0,0,0,0,0,0,-1,1287,841,0,0
70,183,0,0,0,0,0,0,0,0,0,-1,1294,841,0,0
77,183,0,0,0,0,0,0,0,0,0,-1,1301,841,0,0
84,183,0,0,0,0,0,0,0,0,0,-1,1308,841,0,0
91,183,0,0,0,0,0,0,0,0,0,-1,1315,841,0,0
98,183,0,0,0,0,0,0,0,0,0,-1,1322,841,0,0
105,183,0,0,0,0,0,0,0,0,0,-1,1329,841,0,0
112,183,0,0,0,0,0,0,0,0,0,-1,1336,841,0,0
119,183,0,0,0,0,0,0,0,0,0,-1,1343,841,0,0
126,183,0,0,0,0,0,0,0,0,0,-1,1350,841,0,0
133,183,0,0,0,0,0,0,0,0,0,-1,1357,841,0,0
140,183,0,0,0,0,0,0,0,0,0,-1,1364,841,0,0
147,183,0,0,0,0,0,0,0,0,0,-1,1371,841,0,0
154,183,0,0,0,0,0,0,0,0,0,-1,1378,841,0,0
161,183,0,0,0,0,0,0,0,0,0,-1,1385,841,0,0
168,183,0,0,0,0,0,0,0,0,0,-1,1392,841,0,0
175,183,0,0,0,0,0,0,0,0,0,-1,1399,841,0,0
182,183,0,0,0,0,0,0,0,0,0,-1,1406,841,0,0
189,183,0,0,0,0,0,0,0,0,0,-1,1413,841,0,0
196,183,0,0,0,0,0,0,0,0,0,-1,1420,841,0,0
203,183,0,0,0,0,0,0,0,0,0,-1,1427,841,0,0
210,183,0,0,0,0,0,0,0,0,0,-1,1434,841,0,0
217,183,0,0,0,0,0,0,0,0,0,-1,1441,841,0,0
224,183,0,0,0,0,0,0,0,0,0,-1,1448,841,0,0
231,183,0,0,0,0,0,0,0,0,0,-1,1455,841,0,0
238,183,0,0,0,0,0,0,0,0,0,-1,1462,841,0,0
245,183,0,0,0,0,0,0,0,0,0,-1,1469,841,0,0
252,183,0,0,0,0,0,0,0,0,0,-1,1476,841,0,0
259,183,0,0,0,0,0,0,0,0,0,-1,1483,841,0,0
266,183,0,0,0,0,0,0,0,0,0,-1,1490,841,0,0
273,183,0,0,0,0,0,0,0,0,0,-1,1497,841,0,0
280,183,0,0,0,0,0,0,0,0,0,-1,1504,841,0,0
287,183,0,0,0,0,0,0,0,0,0,-1,1511,841,0,0
294,183,0,0,0,0,0,0,0,0,0,-1,1518,841,0,0
301,183,0,0,0,0,0,0,0,0,0,-1,1525,841,0,0
308,183,0,0,0,0,0,0,0,0,0,-1,1532,841,0,0
315,183,0,0,0,0,0,0,0,0,0,-1,1539,841,0,0
322,183,0,0,0,0,0,0,0,0,0,-1,1546,841,0,0
329,183,0,0,0,0,0,0,0,0,0,-1,1553,841,0,0
336,183,0,0,0,0,0,0,0,0,0,-1,1560,841,0,0
343,183,0,0,0,0,0,0,0,0,0,-1,1567,841,0,0
350,183,0,0,0,0,0,0,0,0,0,-1,1574,841,0,0
357,183,0,0,0,0,0,0,0,0,0,-1,1581,841,0,0
364,183,0,0,0,0,0,0,0,0,0,-1,1588,841,0,0
371,183,0,0,0,0,0,0,0,0,0,-1,1595,841,0,0
378,183,0,0,0,0,0,0,0,0,0,-1,1602,841,0,0
385,183,0,0,0,0,0,0,0,0,0,-1,1609,841,0,0
392,183,0,0,0,0,0,0,0,0,0,-1,1616,841,0,0
399,183,0,0,0,0,0,0,0,0,0,-1,1623,841,0,0
406,183,0,0,0,0,0,0,0,0,0,-1,1630,841,0,0
413,183,0,0,0,0,0,0,0,0,0,-1,1637,841,0,0
420,183,0,0,0,0,0,0,0,0,0,-1,1644,841,0,0
427,183,0,0,0,0,0,0,0,0,0,-1,1651,841,0,0
434,183,0,0,0,0,0,0,0,0,0,-1,1658,841,0,0
441,183,0,0,0,0,0,0,0,0,0,-1,1665,841,0,0
448,183,0,0,0,0,0,0,0,0,0,-1,1672,841,0,0
455,183,0,0,0,0,0,0,0,0,0,-1,1679,841,0,0
462,183,0,0,0,0,0,0,0,0,0,-1,1686,841,0,0
469,183,0,0,0,0,0,0,0,0,0,-1,1693,841,0,0
476,183,0,0,0,0,0,0,0,0,0,-1,1700,841,0,0
483,183,0,0,0,0,0,0,0,0,0,-1,1707,841,0,0
490,183,0,0,0,0,0,0,0,0,0,-1,1714,841,0,0
497,183,0,0,0,0,0,0,0,0,0,-1,1721,841,0,0
504,183,0,0,0,0,0,0,0,0,0,-1,1728,841,0,0
511,183,0,0,0,0,0,0,0,0,0,-1,1735,841,0,0
518,183,0,0,0,0,0,0,0,0,0,-1,1742,841,0,0
525,183,0,0,0,0,0,0,0,0,0,-1,1749,841,0,0
532,183,0,0,0,0,0,0,0,0,0,-1,1756,841,0,0
539,183,0,0,0,0,0,0,0,0,0,-1,1763,841,0,0
546,183,0,0,0,0,0,0,0,0,0,-1,1770,841,0,0
553,183,0,0,0,0,0,0,0,0,0,-1,1777,841,0,0
560,183,0,0,0,0,0,0,0,0,0,-1,1784,841,0,0
567,183,0,0,0,0,0,0,0,0,0,-1,1791,841,0,0
574,183,0,0,0,0,0,0,0,0,0,-1,1798,841,0,0
581,183,0,0,0,0,0,0,0,0,0,-1,1805,841,0,0
588,183,0,0,0,0,0,0,0,0,0,-1,1812,841,0,0
595,183,0,0,0,0,0,0,0,0,0,-1,1819,841,0,0
602,183,0,0,0,0,0,0,0,0,0,-1,1826,841,0,0
609,183,17.6282,2.70892,0.00346526,-0.00375919,-0.00590264,0.00677324,-0.00706717,-0.510811,0.00799137,0.0399005,1833,841,17.6282,-2.70889
616,183,17.7097,2.54401,0.00273421,-0.00240422,-0.00398545,0.00490679,-0.0045768,-0.499096,0.00547646,0.0389605,1840,841,17.7098,-2.54402
623,183,17.7837,2.31799,0.00191069,-0.00133828,-0.002437,0.00321501,-0.0026426,-0.491423,0.00338727,0.0423346,1847,841,17.7836,-2.31798
630,183,17.8475,2.32617,0.000745642,-0.000555782,-0.00140544,0.0016437,-0.00145384,-0.568594,0.00178948,0.0398578,1854,841,17.8476,-2.32617
637,183,17.8325,2.44562,-0.000771291,-0.000153479,-0.000898394,0.000487633,-0.0014124,-0.950988,0.00113947,0.0333107,1861,841,17.8325,-2.44561
644,183,17.8092,2.55109,-0.00203208,-1.3109e-05,-0.000748974,0.000234395,-0.00227958,-1.25164,0.00160358,0.0253905,1868,841,17.8093,-2.55108
651,183,17.8054,2.62335,-0.00301198,-6.28168e-05,-0.000751185,0.000117494,-0.0031923,-1.33522,0.00216842,0.0234764,1875,841,17.8055,-2.62335
658,183,17.8427,2.71143,-0.00370883,-0.000118045,-0.000900806,9.52651e-05,-0.00392214,-1.33828,0.00264708,0.0440832,1882,841,17.8427,-2.71143
665,183,17.1179,2.48907,0,0,0,0,0,0,0,-1,1889,841,17.1179,-2.48909
672,183,14.5735,1.99878,0,0,0,0,0,0,0,-1,1896,841,14.5734,-1.99877
679,183,14.5889,2.15631,-0.00520708,-0.000411216,-0.00106766,-0.000184273,-0.00543403,-1.36135,0.00356285,0.0367201,1903,841,14.5889,-2.15629
686,183,14.5785,2.3147,-0.00523037,-0.000510357,-0.00135811,-0.000147479,-0.00559325,-1.3097,0.00368066,0.0158811,1910,841,14.5785,-2.31468
693,183,14.5698,2.48254,-0.0047835,-0.000505276,-0.00164389,5.342e-05,-0.0053422,-1.24318,0.00357941,0.0127427,1917,841,14.5698,-2.48254
700,183,14.5421,2.65222,-0.0041715,-0.000597267,-0.00164841,4.68816e-05,-0.00481565,-1.19827,0.00322617,0.0152013,1924,841,14.5421,-2.65221
707,183,14.5421,2.80109,-0.00364128,-0.000484075,-0.00143337,6.95854e-05,-0.00419494,-1.20219,0.00282011,0.0126428,1931,841,14.5421,-2.80109
714,183,14.5605,2.92816,-0.00312627,-0.000346802,-0.000985685,-3.27361e-05,-0.00344034,-1.26234,0.00228273,0.0168438,1938,841,14.5605,-2.92814
721,183,14.5399,3.09076,-0.00322316,0.000156637,-0.000425552,0.000209395,-0.00327592,-1.44745,0.00225698,0.0149624,1945,841,14.54,-3.09074
728,183,14.5309,3.2616,-0.00431636,0.000213097,0.000508744,0.000269535,-0.0043728,1.46031,0.00300907,0.0124318,1952,841,14.5309,-3.26157
735,183,14.5371,3.40381,-0.00644452,-0.000319354,0.0018773,0.000210232,-0.0069741,1.29584,0.00472104,0.011861,1959,841,14.5371,-3.40378
742,183,14.5284,3.57111,-0.00965403,-0.00102014,0.00338615,0.000149444,-0.0108236,1.23822,0.00726607,0.0111753,1966,841,14.5285,-3.5711
749,183,14.4281,3.85229,-0.0145504,-0.00232937,0.00549382,-0.000222798,-0.0166569,1.20464,0.0110311,0.0309754,1973,841,14.4281,-3.85227
756,183,14.2393,4.17352,-0.021087,-0.00459615,0.00851984,-0.000985156,-0.024698,1.16991,0.016147,0.0477848,1980,841,14.2392,-4.17355
763,183,14.0955,4.39722,0,0,0,0,0,0,0,-1,1987,841,14.0954,-4.39724
770,183,15.5743,4.95129,0,0,0,0,0,0,0,-1,1994,841,15.5744,-4.95131
777,183,16.3478,4.62567,0,0,0,0,0,0,0,-1,2001,841,16.3477,-4.62564
784,183,0,0,0,0,0,0,0,0,0,-1,2008,841,0,0
791,183,0,0,0,0,0,0,0,0,0,-1,2015,841,0,0
798,183,0,0,0,0,0,0,0,0,0,-1,2022,841,0,0
805,183,0,0,0,0,0,0,0,0,0,-1,2029,841,0,0
812,183,0,0,0,0,0,0,0,0,0,-1,2036,841,0,0
-700,176,0,0,0,0,0,0,0,0,0,-1,524,848,0,0
-693,176,0,0,0,0,0,0,0,0,0,-1,531,848,0,0
-686,176,0,0,0,0,0,0,0,0,0,-1,538,848,0,0
-679,176,0,0,0,0,0,0,0,0,0,-1,545,848,0,0
-672,176,0,0,0,0,0,0,0,0,0,-1,552,848,0,0
-665,176,-8.02856,-0.529846,0,0,0,0,0,0,0,-1,559,848,-8.02857,0.529819
-658,176,-8.23083,-0.350708,0,0,0,0,0,0,0,-1,566,848,-8.23085,0.35071
-651,176,-6.81195,2.36157,0,0,0,0,0,0,0,-1,573,848,-6.81193,-2.36157
-644,176,-7.22046,1.92133,-0.0456762,0.0550999,-0.000372185,0.0551012,-0.0456775,-1.5671,0.0582694,0.047998,580,848,-7.22045,-1.92132
-637,176,-7.71527,1.36774,-0.0403527,0.0464612,-0.00167902,0.0464936,-0.0403851,-1.55147,0.0502008,0.0470288,587,848,-7.71527,-1.36776
-630,176,-8.27942,1.17334,-0.0346751,0.03733,-0.00196723,0.0373837,-0.0347288,-1.5435,0.0416436,0.0431793,594,848,-8.27943,-1.17333
-623,176,-8.73975,1.32495,-0.0289769,0.0285856,-0.00161579,0.0286309,-0.0290222,-1.54276,0.0332863,0.0399147,601,848,-8.73972,-1.32493
-616,176,-9.22925,1.4483,-0.0231226,0.0210217,-0.00107643,0.021048,-0.0231489,-1.54643,0.0255267,0.0274962,608,848,-9.22927,-1.44828
-609,176,-9.31128,1.30396,-0.0183015,0.0148047,-0.00115422,0.0148449,-0.0183417,-1.53599,0.0191957,0.0116747,615,848,-9.31127,-1.30393
-602,176,-9.33582,1.16687,-0.0139319,0.00953101,-0.000383184,0.00953727,-0.0139381,-1.55447,0.0136327,0.0117497,622,848,-9.33583,-1.16686
-595,176,-9.35327,1.01685,-0.0110053,0.00542212,0.000536658,0.00543964,-0.0110228,1.53817,0.00968511,0.0103354,629,848,-9.35326,-1.01683
-588,176,-9.32928,0.872498,-0.00952672,0.00249834,0.00179528,0.00276065,-0.00978902,1.42572,0.0076149,0.00984762,636,848,-9.32929,-0.872524
-581,176,-9.33423,0.761841,-0.00965608,8.85516e-05,0.00310265,0.000992559,-0.0105601,1.28728,0.00739315,0.0103733,643,848,-9.33425,-0.761855
-574,176,-9.32721,0.638672,-0.0109298,-0.000860945,0.00374419,0.000378735,-0.0121695,1.25106,0.00824212,0.013372,650,848,-9.32719,-0.638663
-567,176,-9.29022,0.526917,-0.0119378,-0.00137526,0.00421383,9.98043e-05,-0.0134129,1.23407,0.00897539,0.0193755,657,848,-9.29021,-0.526933
-560,176,-9.38806,0.34729,-0.0128411,-0.00142477,0.00477205,0.000307199,-0.014573,1.22264,0.00981936,0.0159588,664,848,-9.38803,-0.347311
-553,176,-9.30603,0.127197,-0.0139355,-0.00129288,0.00517936,0.000558009,-0.0157864,1.22758,0.0107151,0.0269597,671,848,-9.30601,-0.12718
-546,176,-9.18365,0.00653076,-0.0145111,-0.00100901,0.00521352,0.000769738,-0.0162899,1.242,0.0111254,0.0447748,678,848,-9.18365,-0.00650599
-539,176,-10.4575,0.302307,-0.0141005,-0.00043713,0.00485227,0.00111071,-0.0156483,1.26201,0.0108215,0.0395278,685,848,-10.4575,-0.3023
-532,176,-11.3999,0.433777,0,0,0,0,0,0,0,-1,692,848,-11.3999,-0.43376
-525,176,-11.7579,0.579651,-0.011164,0.00110707,0.00329748,0.00193703,-0.011994,1.32422,0.00871373,0.0490532,699,848,-11.7579,-0.579658
-518,176,-11.7318,0.389709,-0.00833444,0.00212448,0.00191632,0.00246454,-0.0086745,1.39517,0.00675605,0.0402093,706,848,-11.7318,-0.389724
-511,176,-11.6719,0.329041,-0.00437978,0.00323807,4.3194e-05,0.00323831,-0.00438003,1.56513,0.00441488,0.0375669,713,848,-11.6719,-0.329025
-504,176,-11.6374,0.417236,0.000685615,0.00434041,-0.00238539,0.00551792,-0.000491892,-1.11225,0.00385305,0.0410704,720,848,-11.6374,-0.417254
-497,176,-11.6637,0.510254,0.00660517,0.00508996,-0.00520761,0.01111,0.000585137,-0.713165,0.00721952,0.0423791,727,848,-11.6637,-0.510251
-490,176,-11.4591,0.444885,0.0102282,0.00538403,-0.00797075,0.0161367,-0.000524526,-0.637897,0.0109368,0.0400936,734,848,-11.4591,-0.444869
-483,176,0,0,0,0,0,0,0,0,0,-1,741,848,0,0
-476,176,0,0,0,0,0,0,0,0,0,-1,748,848,0,0
-469,176,0,0,0,0,0,0,0,0,0,-1,755,848,0,0
-462,176,0,0,0,0,0,0,0,0,0,-1,762,848,0,0
-455,176,0,0,0,0,0,0,0,0,0,-1,769,848,0,0
-448,176,0,0,0,0,0,0,0,0,0,-1,776,848,0,0
-441,176,0,0,0,0,0,0,0,0,0,-1,783,848,0,0
-434,176,0,0,0,0,0,0,0,0,0,-1,790,848,0,0
-427,176,0,0,0,0,0,0,0,0,0,-1,797,848,0,0
-420,176,0,0,0,0,0,0,0,0,0,-1,804,848,0,0
-413,176,0,0,0,0,0,0,0,0,0,-1,811,848,0,0
-406,176,0,0,0,0,0,0,0,0,0,-1,818,848,0,0
-399,176,0,0,0,0,0,0,0,0,0,-1,825,848,0,0
-392,176,0,0,0,0,0,0,0,0,0,-1,832,848,0,0
-385,176,0,0,0,0,0,0,0,0,0,-1,839,848,0,0
-378,176,0,0,0,0,0,0,0,0,0,-1,846,848,0,0
-371,176,0,0,0,0,0,0,0,0,0,-1,853,848,0,0
-364,176,0,0,0,0,0,0,0,0,0,-1,860,848,0,0
-357,176,0,0,0,0,0,0,0,0,0,-1,867,848,0,0
-350,176,0,0,0,0,0,0,0,0,0,-1,874,848,0,0
-343,176,0,0,0,0,0,0,0,0,0,-1,881,848,0,0
-336,176,0,0,0,0,0,0,0,0,0,-1,888,848,0,0
-329,176,0,0,0,0,0,0,0,0,0,-1,895,848,0,0
-322,176,0,0,0,0,0,0,0,0,0,-1,902,848,0,0
-315,176,0,0,0,0,0,0,0,0,0,-1,909,848,0,0
-308,176,0,0,0,0,0,0,0,0,0,-1,916,848,0,0
-301,176,0,0,0,0,0,0,0,0,0,-1,923,848,0,0
-294,176,0,0,0,0,0,0,0,0,0,-1,930,848,0,0
-287,176,0,0,0,0,0,0,0,0,0,-1,937,848,0,0
-280,176,0,0,0,0,0,0,0,0,0,-1,944,848,0,0
-273,176,0,0,0,0,0,0,0,0,0,-1,951,848,0,0
-266,176,0,0,0,0,0,0,0,0,0,-1,958,848,0,0
-259,176,0,0,0,0,0,0,0,0,0,-1,965,848,0,0
-252,176,0,0,0,0,0,0,0,0,0,-1,972,848,0,0
-245,176,0,0,0,0,0,0,0,0,0,-1,979,848,0,0
-238,176,0,0,0,0,0,0,0,0,0,-1,986,848,0,0
-231,176,0,0,0,0,0,0,0,0,0,-1,993,848,0,0
-224,176,0,0,0,0,0,0,0,0,0,-1,1000,848,0,0
-217,176,0,0,0,0,0,0,0,0,0,-1,1007,848,0,0
-210,176,0,0,0,0,0,0,0,0,0,-1,1014,848,0,0
-203,176,0,0,0,0,0,0,0,0,0,-1,1021,848,0,0
-196,176,0,0,0,0,0,0,0,0,0,-1,1028,848,0,0
-189,176,0,0,0,0,0,0,0,0,0,-1,1035,848,0,0
-182,176,0,0,0,0,0,0,0,0,0,-1,1042,848,0,0
-175,176,0,0,0,0,0,0,0,0,0,-1,1049,848,0,0
-168,176,0,0,0,0,0,0,0,0,0,-1,1056,848,0,0
-161,176,0,0,0,0,0,0,0,0,0,-1,1063,848,0,0
-154,176,0,0,0,0,0,0,0,0,0,-1,1070,848,0,0
-147,176,0,0,0,0,0,0,0,0,0,-1,1077,848,0,0
-140,176,0,0,0,0,0,0,0,0,0,-1,1084,848,0,0
-133,176,0,0,0,0,0,0,0,0,0,-1,1091,848,0,0
-126,176,0,0,0,0,0,0,0,0,0,-1,1098,848,0,0
-119,176,0,0,0,0,0,0,0,0,0,-1,1105,848,0,0
-112,176,0,0,0,0,0,0,0,0,0,-1,1112,848,0,0
-105,176,0,0,0,0,0,0,0,0,0,-1,1119,848,0,0
-98,176,0,0,0,0,0,0,0,0,0,-1,1126,848,0,0
-91,176,0,0,0,0,0,0,0,0,0,-1,1133,848,0,0
-84,176,0,0,0,0,0,0,0,0,0,-1,1140,848,0,0
-77,176,0,0,0,0,0,0,0,0,0,-1,1147,848,0,0
-70,176,0,0,0,0,0,0,0,0,0,-1,1154,848,0,0
-63,176,0,0,0,0,0,0,0,0,0,-1,1161,848,0,0
-56,176,0,0,0,0,0,0,0,0,0,-1,1168,848,0,0
-49,176,0,0,0,0,0,0,0,0,0,-1,1175,848,0,0
-42,176,0,0,0,0,0,0,0,0,0,-1,1182,848,0,0
-35,176,0,0,0,0,0,0,0,0,0,-1,1189,848,0,0
-28,176,0,0,0,0,0,0,0,0,0,-1,1196,848,0,0
-21,176,0,0,0,0,0,0,0,0,0,-1,1203,848,0,0
-14,176,0,0,0,0,0,0,0,0,0,-1,1210,848,0,0
-7,176,0,0,0,0,0,0,0,0,0,-1,1217,848,0,0
0,176,0,0,0,0,0,0,0,0,0,-1,1224,848,0,0
7,176,0,0,0,0,0,0,0,0,0,-1,1231,848,0,0
14,176,0,0,0,0,0,0,0,0,0,-1,1238,848,0,0
21,176,0,0,0,0,0,0,0,0,0,-1,1245,848,0,0
28,176,0,0,0,0,0,0,0,0,0,-1,1252,848,0,0
35,176,0,0,0,0,0,0,0,0,0,-1,1259,848,0,0
42,176,0,0,0,0,0,0,0,0,0,-1,1266,848,0,0
49,176,0,0,0,0,0,0,0,0,0,-1,1273,848,0,0
56,176,0,0,0,0,0,0,0,0,0,-1,1280,848,0,0
63,176,0,0,0,0,0,0,0,0,0,-1,1287,848,0,0
70,176,0,0,0,0,0,0,0,0,0,-1,1294,848,0,0
77,176,0,0,0,0,0,0,0,0,0,-1,1301,848,0,0
84,176,0,0,0,0,0,0,0,0,0,-1,1308,848,0,0
91,176,0,0,0,0,0,0,0,0,0,-1,1315,848,0,0
98,176,0,0,0,0,0,0,0,0,0,-1,1322,848,0,0
105,176,0,0,0,0,0,0,0,0,0,-1,1329,848,0,0
112,176,0,0,0,0,0,0,0,0,0,-1,1336,848,0,0
119,176,0,0,0,0,0,0,0,0,0,-1,1343,848,0,0
126,176,0,0,0,0,0,0,0,0,0,-1,1350,848,0,0
133,176,0,0,0,0,0,0,0,0,0,-1,1357,848,0,0
140,176,0,0,0,0,0,0,0,0,0,-1,1364,848,0,0
147,176,0,0,0,0,0,0,0,0,0,-1,1371,848,0,0
154,176,0,0,0,0,0,0,0,0,0,-1,1378,848,0,0
161,176,0,0,0,0,0,0,0,0,0,-1,1385,848,0,0
168,176,0,0,0,0,0,0,0,0,0,-1,1392,848,0,0
175,176,0,0,0,0,0,0,0,0,0,-1,1399,848,0,0
182,176,0,0,0,0,0,0,0,0,0,-1,1406,848,0,0
189,176,0,0,0,0,0,0,0,0,0,-1,1413,848,0,0
196,176,0,0,0,0,0,0,0,0,0,-1,1420,848,0,0
203,176,0,0,0,0,0,0,0,0,0,-1,1427,848,0,0
210,176,0,0,0,0,0,0,0,0,0,-1,1434,848,0,0
217,176,0,0,0,0,0,0,0,0,0,-1,1441,848,0,0
224,176,0,0,0,0,0,0,0,0,0,-1,1448,848,0,0
231,176,0,0,0,0,0,0,0,0,0,-1,1455,848,0,0
238,176,0,0,0,0,0,0,0,0,0,-1,1462,848,0,0
245,176,0,0,0,0,0,0,0,0,0,-1,1469,848,0,0
252,176,0,0,0,0,0,0,0,0,0,-1,1476,848,0,0
259,176,0,0,0,0,0,0,0,0,0,-1,1483,848,0,0
266,176,0,0,0,0,0,0,0,0,0,-1,1490,848,0,0
273,176,0,0,0,0,0,0,0,0,0,-1,1497,848,0,0
280,176,0,0,0,0,0,0,0,0,0,-1,1504,848,0,0
287,176,0,0,0,0,0,0,0,0,0,-1,1511,848,0,0
294,176,0,0,0,0,0,0,0,0,0,-1,1518,848,0,0
301,176,0,0,0,0,0,0,0,0,0,-1,1525,848,0,0
308,176,0,0,0,0,0,0,0,0,0,-1,1532,848,0,0
315,176,0,0,0,0,0,0,0,0,0,-1,1539,848,0,0
322,176,0,0,0,0,0,0,0,0,0,-1,1546,848,0,0
329,176,0,0,0,0,0,0,0,0,0,-1,1553,848,0,0
336,176,0,0,0,0,0,0,0,0,0,-1,1560,848,0,0
343,176,0,0,0,0,0,0,0,0,0,-1,1567,848,0,0
350,176,0,0,0,0,0,0,0,0,0,-1,1574,848,0,0
357,176,0,0,0,0,0,0,0,0,0,-1,1581,848,0,0
364,176,0,0,0,0,0,0,0,0,0,-1,1588,848,0,0
371,176,0,0,0,0,0,0,0,0,0,-1,1595,848,0,0
378,176,0,0,0,0,0,0,0,0,0,-1,1602,848,0,0
385,176,0,0,0,0,0,0,0,0,0,-1,1609,848,0,0
392,176,0,0,0,0,0,0,0,0,0,-1,1616,848,0,0
399,176,0,0,0,0,0,0,0,0,0,-1,1623,848,0,0
406,176,0,0,0,0,0,0,0,0,0,-1,1630,848,0,0
413,176,0,0,0,0,0,0,0,0,0,-1,1637,848,0,0
420,176,0,0,0,0,0,0,0,0,0,-1,1644,848,0,0
427,176,0,0,0,0,0,0,0,0,0,-1,1651,848,0,0
434,176,0,0,0,0,0,0,0,0,0,-1,1658,848,0,0
441,176,0,0,0,0,0,0,0,0,0,-1,1665,848,0,0
448,176,0,0,0,0,0,0,0,0,0,-1,1672,848,0,0
455,176,0,0,0,0,0,0,0,0,0,-1,1679,848,0,0
462,176,0,0,0,0,0,0,0,0,0,-1,1686,848,0,0
469,176,0,0,0,0,0,0,0,0,0,-1,1693,848,0,0
476,176,0,0,0,0,0,0,0,0,0,-1,1700,848,0,0
483,176,0,0,0,0,0,0,0,0,0,-1,1707,848,0,0
490,176,0,0,0,0,0,0,0,0,0,-1,1714,848,0,0
497,176,0,0,0,0,0,0,0,0,0,-1,1721,848,0,0
504,176,0,0,0,0,0,0,0,0,0,-1,1728,848,0,0
511,176,0,0,0,0,0,0,0,0,0,-1,1735,848,0,0
518,176,0,0,0,0,0,0,0,0,0,-1,1742,848,0,0
525,176,0,0,0,0,0,0,0,0,0,-1,1749,848,0,0
532,176,0,0,0,0,0,0,0,0,0,-1,1756,848,0,0
539,176,0,0,0,0,0,0,0,0,0,-1,1763,848,0,0
546,176,0,0,0,0,0,0,0,0,0,-1,1770,848,0,0
553,176,0,0,0,0,0,0,0,0,0,-1,1777,848,0,0
560,176,0,0,0,0,0,0,0,0,0,-1,1784,848,0,0
567,176,0,0,0,0,0,0,0,0,0,-1,1791,848,0,0
574,176,0,0,0,0,0,0,0,0,0,-1,1798,848,0,0
581,176,0,0,0,0,0,0,0,0,0,-1,1805,848,0,0
588,176,0,0,0,0,0,0,0,0,0,-1,1812,848,0,0
595,176,0,0,0,0,0,0,0,0,0,-1,1819,848,0,0
602,176,0,0,0,0,0,0,0,0,0,-1,1826,848,0,0
609,176,17.7877,2.73407,0.00500234,-0.00571842,-0.00736697,0.00875272,-0.0094688,-0.470885,0.0105229,0.0372659,1833,848,17.7877,-2.73406
616,176,17.6809,2.59204,0.0036773,-0.00403398,-0.00522581,0.0063159,-0.00667257,-0.467572,0.00749984,0.0386773,1840,848,17.6809,-2.59205
623,176,17.7555,2.39709,0.00243918,-0.00272099,-0.00346288,0.00417747,-0.00445928,-0.465229,0.00498732,0.0430861,1847,848,17.7554,-2.39707
630,176,17.9048,2.41351,0.00113603,-0.0016028,-0.00216062,0.00232466,-0.00279143,-0.502945,0.00295787,0.0393228,1854,848,17.9048,-2.41353
637,176,17.8666,2.53467,-0.000659483,-0.000982233,-0.00151592,0.00070363,-0.00234535,-0.732371,0.00184343,0.0312965,1861,848,17.8666,-2.53466
644,176,17.7407,2.60272,-0.00232782,-0.000686257,-0.00133945,6.38847e-05,-0.00307796,-1.06028,0.0020736,0.0300131,1868,848,17.7407,-2.60273
651,176,17.7681,2.61151,-0.00364414,-0.000621911,-0.00133835,-0.000114447,-0.0041516,-1.20837,0.00273038,0.0310435,1875,848,17.7681,-2.6115
658,176,17.8699,2.50494,-0.00455404,-0.000611422,-0.00147473,-0.000120845,-0.00504461,-1.24966,0.00332353,0.038122,1882,848,17.8699,-2.50493
665,176,17.4111,2.33563,0,0,0,0,0,0,0,-1,1889,848,17.4112,-2.33565
672,176,15.4161,2.84589,0,0,0,0,0,0,0,-1,1896,848,15.4162,-2.84586
679,176,14.9233,2.15308,0,0,0,0,0,0,0,-1,1903,848,14.9233,-2.15307
686,176,14.8232,2.33551,-0.00634543,-0.000781493,-0.0018294,-0.000233889,-0.00689304,-1.27995,0.00451941,0.0218242,1910,848,14.8233,-2.33551
693,176,14.7556,2.52014,-0.00605492,-0.000712097,-0.00209659,1.23896e-05,-0.0067794,-1.23809,0.00452374,0.0117346,1917,848,14.7556,-2.52012
700,176,14.7183,2.65833,-0.00553286,-0.000743141,-0.00206272,2.27217e-05,-0.00629872,-1.21528,0.00420674,0.0153306,1924,848,14.7183,-2.65835
707,176,14.7208,2.80219,-0.00496998,-0.0005712,-0.00179012,6.52221e-05,-0.0056064,-1.22921,0.00375953,0.0139759,1931,848,14.7208,-2.80219
714,176,14.7283,2.95599,-0.00438106,-0.000392249,-0.00129553,-8.40961e-06,-0.0047649,-1.28276,0.0031738,0.012547,1938,848,14.7283,-2.956
721,176,14.7235,3.11066,-0.00437342,0.000236241,-0.00071586,0.000344852,-0.00448204,-1.42022,0.00310935,0.0120394,1945,848,14.7235,-3.11066
728,176,14.7068,3.28033,-0.00540722,0.000392202,0.000251277,0.000403069,-0.00541808,1.52758,0.00375363,0.0140526,1952,848,14.7068,-3.28035
735,176,14.704,3.41162,-0.00735215,-3.24848e-05,0.00166325,0.000327729,-0.00771237,1.35752,0.00525423,0.0132293,1959,848,14.7039,-3.41163
742,176,14.719,3.54803,-0.0104148,-0.000610607,0.0031475,0.000312867,-0.0113383,1.28541,0.0076653,0.0169736,1966,848,14.7191,-3.54801
749,176,14.6719,3.72308,-0.0153205,-0.00173496,0.0051588,1.92039e-06,-0.0170574,1.24603,0.0113722,0.0286073,1973,848,14.6719,-3.72308
756,176,14.6563,3.83197,-0.0219149,-0.00375723,0.00799434,-0.00073917,-0.0249329,1.20981,0.0163811,0.0469815,1980,848,14.6563,-3.83197
763,176,14.7535,3.94171,0,0,0,0,0,0,0,-1,1987,848,14.7535,-3.94169
770,176,17.9222,4.67944,0,0,0,0,0,0,0,-1,1994,848,17.9222,-4.67941
777,176,13.5966,4.62152,0,0,0,0,0,0,0,-1,2001,848,13.5966,-4.62153
784,176,0,0,0,0,0,0,0,0,0,-1,2008,848,0,0
791,176,0,0,0,0,0,0,0,0,0,-1,2015,848,0,0
798,176,0,0,0,0,0,0,0,0,0,-1,2022,848,0,0
805,176,0,0,0,0,0,0,0,0,0,-1,2029,848,0,0
812,176,0,0,0,0,0,0,0,0,0,-1,2036,848,0,0
-700,169,0,0,0,0,0,0,0,0,0,-1,524,855,0,0
-693,169,0,0,0,0,0,0,0,0,0,-1,531,855,0,0
-686,169,0,0,0,0,0,0,0,0,0,-1,538,855,0,0
-679,169,0,0,0,0,0,0,0,0,0,-1,545,855,0,0
-672,169,0,0,0,0,0,0,0,0,0,-1,552,855,0,0
-665,169,-4.32819,3.12274,0,0,0,0,0,0,0,-1,559,855,-4.32819,-3.12277
-658,169,-5.31073,2.79114,0,0,0,0,0,0,0,-1,566,855,-5.31072,-2.79112
-651,169,-6.25067,2.11499,0,0,0,0,0,0,0,-1,573,855,-6.25065,-2.11501
-644,169,-6.86865,1.64795,-0.0371176,0.0538893,-0.00111856,0.0539031,-0.0371314,-1.55851,0.0528553,0.0479234,580,855,-6.86866,-1.64797
-637,169,-7.49756,1.17841,-0.0340531,0.044969,-0.00203773,0.0450215,-0.0341056,-1.54503,0.0458287,0.0457392,587,855,-7.49757,-1.17843
-630,169,-8.29413,1.02838,0,0,0,0,0,0,0,-1,594,855,-8.29414,-1.02836
-623,169,-9.35095,1.54993,-0.0261077,0.0276838,-0.00171833,0.0277386,-0.0261625,-1.5389,0.0311243,0.0414901,601,855,-9.35096,-1.5499
-616,169,-9.43011,1.4198,-0.0214436,0.0205383,-0.00111589,0.0205679,-0.0214732,-1.54424,0.0242744,0.0224747,608,855,-9.43014,-1.41979
-609,169,-9.46924,1.30634,-0.0175238,0.0144711,-0.00113268,0.0145111,-0.0175638,-1.53545,0.0185464,0.0129612,615,855,-9.46922,-1.30636
-602,169,-9.48254,1.1651,-0.0137114,0.00925847,-0.000306248,0.00926255,-0.0137155,-1.55747,0.0133491,0.0122921,622,855,-9.48257,-1.16513
-595,169,-9.49713,1.00397,-0.0111712,0.0051883,0.000724083,0.00522029,-0.0112032,1.52665,0.00968954,0.01088,629,855,-9.49711,-1.00399
-588,169,-9.47296,0.876099,-0.00998001,0.00220738,0.00201203,0.00253096,-0.0103036,1.41134,0.00784992,0.0086401,636,855,-9.47295,-0.876088
-581,169,-9.48462,0.761414,-0.010257,-0.000273521,0.00335632,0.000749915,-0.0112804,1.27482,0.00778231,0.0093916,643,855,-9.48464,-0.761423
-574,169,-9.52319,0.62738,-0.0115606,-0.00116389,0.00394704,0.000164773,-0.0128893,1.24609,0.00864828,0.0123777,650,855,-9.5232,-0.627355
-567,169,-9.45947,0.5177,-0.0125514,-0.00169228,0.0043493,-0.000165085,-0.0140786,1.23311,0.00933121,0.0181159,657,855,-9.45948,-0.517708
-560,169,-9.50977,0.378967,-0.0134133,-0.00180556,0.00484023,-5.21415e-05,-0.0151668,1.22324,0.0100938,0.0180821,664,855,-9.50974,-0.37899
-553,169,-9.46405,0.189636,-0.0144518,-0.00176905,0.00522703,0.000107537,-0.0163284,1.22611,0.0109216,0.026646,671,855,-9.46406,-0.189617
-546,169,-9.17712,0.149109,0,0,0,0,0,0,0,-1,678,855,-9.1771,-0.149106
-539,169,-10.7717,0.444702,0,0,0,0,0,0,0,-1,685,855,-10.7717,-0.444673
-532,169,-11.6821,0.767029,-0.0132792,-0.000483054,0.00426671,0.000809139,-0.0145714,1.27672,0.00999489,0.0376677,692,855,-11.6821,-0.767041
-525,169,-11.6418,0.642578,-0.0111453,0.000287197,0.00326573,0.00115429,-0.0120124,1.31127,0.00841946,0.0431058,699,855,-11.6418,-0.642575
-518,169,-11.6785,0.519897,-0.0078907,0.00122943,0.00181418,0.00157705,-0.00823833,1.38147,0.0060864,0.0389719,706,855,-11.6785,-0.51992
-511,169,-11.5829,0.546631,-0.00329855,0.00229148,-0.000177959,0.00229714,-0.00330421,-1.539,0.00325132,0.0388715,713,855,-11.5829,-0.546649
-504,169,-11.6796,0.681152,0.00253512,0.00337187,-0.00274501,0.00573021,0.000176787,-0.861023,0.00376259,0.0418869,720,855,-11.6795,-0.681153
-497,169,-11.8434,0.672668,0.00906668,0.00396745,-0.00556799,0.012641,0.000393087,-0.570694,0.00829943,0.0432233,727,855,-11.8434,-0.672674
-490,169,0,0,0,0,0,0,0,0,0,-1,734,855,0,0
-483,169,0,0,0,0,0,0,0,0,0,-1,741,855,0,0
-476,169,0,0,0,0,0,0,0,0,0,-1,748,855,0,0
-469,169,0,0,0,0,0,0,0,0,0,-1,755,855,0,0
-462,169,0,0,0,0,0,0,0,0,0,-1,762,855,0,0
-455,169,0,0,0,0,0,0,0,0,0,-1,769,855,0,0
-448,169,0,0,0,0,0,0,0,0,0,-1,776,855,0,0
-441,169,0,0,0,0,0,0,0,0,0,-1,783,855,0,0
-434,169,0,0,0,0,0,0,0,0,0,-1,790,855,0,0
-427,169,0,0,0,0,0,0,0,0,0,-1,797,855,0,0
-420,169,0,0,0,0,0,0,0,0,0,-1,804,855,0,0
-413,169,0,0,0,0,0,0,0,0,0,-1,811,855,0,0
-406,169,0,0,0,0,0,0,0,0,0,-1,818,855,0,0
-399,169,0,0,0,0,0,0,0,0,0,-1,825,855,0,0
-392,169,0,0,0,0,0,0,0,0,0,-1,832,855,0,0
-385,169,0,0,0,0,0,0,0,0,0,-1,839,855,0,0
-378,169,0,0,0,0,0,0,0,0,0,-1,846,855,0,0
-371,169,0,0,0,0,0,0,0,0,0,-1,853,855,0,0
-364,169,0,0,0,0,0,0,0,0,0,-1,860,855,0,0
-357,169,0,0,0,0,0,0,0,0,0,-1,867,855,0,0
-350,169,0,0,0,0,0,0,0,0,0,-1,874,855,0,0
-343,169,0,0,0,0,0,0,0,0,0,-1,881,855,0,0
-336,169,0,0,0,0,0,0,0,0,0,-1,888,855,0,0
-329,169,0,0,0,0,0,0,0,0,0,-1,895,855,0,0
-322,169,0,0,0,0,0,0,0,0,0,-1,902,855,0,0
-315,169,0,0,0,0,0,0,0,0,0,-1,909,855,0,0
-308,169,0,0,0,0,0,0,0,0,0,-1,916,855,0,0
-301,169,0,0,0,0,0,0,0,0,0,-1,923,855,0,0
-294,169,0,0,0,0,0,0,0,0,0,-1,930,855,0,0
-287,169,0,0,0,0,0,0,0,0,0,-1,937,855,0,0
-280,169,0,0,0,0,0,0,0,0,0,-1,944,855,0,0
-273,169,0,0,0,0,0,0,0,0,0,-1,951,855,0,0
-266,169,0,0,0,0,0,0,0,0,0,-1,958,855,0,0
-259,169,0,0,0,0,0,0,0,0,0,-1,965,855,0,0
-252,169,0,0,0,0,0,0,0,0,0,-1,972,855,0,0
-245,169,0,0,0,0,0,0,0,0,0,-1,979,855,0,0
-238,169,0,0,0,0,0,0,0,0,0,-1,986,855,0,0
-231,169,0,0,0,0,0,0,0,0,0,-1,993,855,0,0
-224,169,0,0,0,0,0,0,0,0,0,-1,1000,855,0,0
-217,169,0,0,0,0,0,0,0,0,0,-1,1007,855,0,0
-210,169,0,0,0,0,0,0,0,0,0,-1,1014,855,0,0
-203,169,0,0,0,0,0,0,0,0,0,-1,1021,855,0,0
-196,169,0,0,0,0,0,0,0,0,0,-1,1028,855,0,0
-189,169,0,0,0,0,0,0,0,0,0,-1,1035,855,0,0
-182,169,0,0,0,0,0,0,0,0,0,-1,1042,855,0,0
-175,169,0,0,0,0,0,0,0,0,0,-1,1049,855,0,0
-168,169,0,0,0,0,0,0,0,0,0,-1,1056,855,0,0
-161,169,0,0,0,0,0,0,0,0,0,-1,1063,855,0,0
-154,169,0,0,0,0,0,0,0,0,0,-1,1070,855,0,0
-147,169,0,0,0,0,0,0,0,0,0,-1,1077,855,0,0
-140,169,0,0,0,0,0,0,0,0,0,-1,1084,855,0,0
-133,169,0,0,0,0,0,0,0,0,0,-1,1091,855,0,0
-126,169,0,0,0,0,0,0,0,0,0,-1,1098,855,0,0
-119,169,0,0,0,0,0,0,0,0,0,-1,1105,855,0,0
-112,169,0,0,0,0,0,0,0,0,0,-1,1112,855,0,0
-105,169,0,0,0,0,0,0,0,0,0,-1,1119,855,0,0
-98,169,0,0,0,0,0,0,0,0,0,-1,1126,855,0,0
-91,169,0,0,0,0,0,0,0,0,0,-1,1133,855,0,0
-84,169,0,0,0,0,0,0,0,0,0,-1,1140,855,0,0
-77,169,0,0,0,0,0,0,0,0,0,-1,1147,855,0,0
-70,169,0,0,0,0,0,0,0,0,0,-1,1154,855,0,0
-63,169,0,0,0,0,0,0,0,0,0,-1,1161,855,0,0
-56,169,0,0,0,0,0,0,0,0,0,-1,1168,855,0,0
-49,169,0,0,0,0,0,0,0,0,0,-1,1175,855,0,0
-42,169,0,0,0,0,0,0,0,0,0,-1,1182,855,0,0
-35,169,0,0,0,0,0,0,0,0,0,-1,1189,855,0,0
-28,169,0,0,0,0,0,0,0,0,0,-1,1196,855,0,0
-21,169,0,0,0,0,0,0,0,0,0,-1,1203,855,0,0
-14,169,0,0,0,0,0,0,0,0,0,-1,1210,855,0,0
-7,169,0,0,0,0,0,0,0,0,0,-1,1217,855,0,0
0,169,0,0,0,0,0,0,0,0,0,-1,1224,855,0,0
7,169,0,0,0,0,0,0,0,0,0,-1,1231,855,0,0
14,169,0,0,0,0,0,0,0,0,0,-1,1238,855,0,0
21,169,0,0,0,0,0,0,0,0,0,-1,1245,855,0,0
28,169,0,0,0,0,0,0,0,0,0,-1,1252,855,0,0
35,169,0,0,0,0,0,0,0,0,0,-1,1259,855,0,0
42,169,0,0,0,0,0,0,0,0,0,-1,1266,855,0,0
49,169,0,0,0,0,0,0,0,0,0,-1,1273,855,0,0
56,169,0,0,0,0,0,0,0,0,0,-1,1280,855,0,0
63,169,0,0,0,0,0,0,0,0,0,-1,1287,855,0,0
70,169,0,0,0,0,0,0,0,0,0,-1,1294,855,0,0
77,169,0,0,0,0,0,0,0,0,0,-1,1301,855,0,0
84,169,0,0,0,0,0,0,0,0,0,-1,1308,855,0,0
91,169,0,0,0,0,0,0,0,0,0,-1,1315,855,0,0
98,169,0,0,0,0,0,0,0,0,0,-1,1322,855,0,0
105,169,0,0,0,0,0,0,0,0,0,-1,1329,855,0,0
112,169,0,0,0,0,0,0,0,0,0,-1,1336,855,0,0
119,169,0,0,0,0,0,0,0,0,0,-1,1343,855,0,0
126,169,0,0,0,0,0,0,0,0,0,-1,1350,855,0,0
133,169,0,0,0,0,0,0,0,0,0,-1,1357,855,0,0
140,169,0,0,0,0,0,0,0,0,0,-1,1364,855,0,0
147,169,0,0,0,0,0,0,0,0,0,-1,1371,855,0,0
154,169,0,0,0,0,0,0,0,0,0,-1,1378,855,0,0
161,169,0,0,0,0,0,0,0,0,0,-1,1385,855,0,0
168,169,0,0,0,0,0,0,0,0,0,-1,1392,855,0,0
175,169,0,0,0,0,0,0,0,0,0,-1,1399,855,0,0
182,169,0,0,0,0,0,0,0,0,0,-1,1406,855,0,0
189,169,0,0,0,0,0,0,0,0,0,-1,1413,855,0,0
196,169,0,0,0,0,0,0,0,0,0,-1,1420,855,0,0
203,169,0,0,0,0,0,0,0,0,0,-1,1427,855,0,0
210,169,0,0,0,0,0,0,0,0,0,-1,1434,855,0,0
217,169,0,0,0,0,0,0,0,0,0,-1,1441,855,0,0
224,169,0,0,0,0,0,0,0,0,0,-1,1448,855,0,0
231,169,0,0,0,0,0,0,0,0,0,-1,1455,855,0,0
238,169,0,0,0,0,0,0,0,0,0,-1,1462,855,0,0
245,169,0,0,0,0,0,0,0,0,0,-1,1469,855,0,0
252,169,0,0,0,0,0,0,0,0,0,-1,1476,855,0,0
259,169,0,0,0,0,0,0,0,0,0,-1,1483,855,0,0
266,169,0,0,0,0,0,0,0,0,0,-1,1490,855,0,0
273,169,0,0,0,0,0,0,0,0,0,-1,1497,855,0,0
280,169,0,0,0,0,0,0,0,0,0,-1,1504,855,0,0
287,169,0,0,0,0,0,0,0,0,0,-1,1511,855,0,0
294,169,0,0,0,0,0,0,0,0,0,-1,1518,855,0,0
301,169,0,0,0,0,0,0,0,0,0,-1,1525,855,0,0
308,169,0,0,0,0,0,0,0,0,0,-1,1532,855,0,0
315,169,0,0,0,0,0,0,0,0,0,-1,1539,855,0,0
322,169,0,0,0,0,0,0,0,0,0,-1,1546,855,0,0
329,169,0,0,0,0,0,0,0,0,0,-1,1553,855,0,0
336,169,0,0,0,0,0,0,0,0,0,-1,1560,855,0,0
343,169,0,0,0,0,0,0,0,0,0,-1,1567,855,0,0
350,169,0,0,0,0,0,0,0,0,0,-1,1574,855,0,0
357,169,0,0,0,0,0,0,0,0,0,-1,1581,855,0,0
364,169,0,0,0,0,0,0,0,0,0,-1,1588,855,0,0
371,169,0,0,0,0,0,0,0,0,0,-1,1595,855,0,0
378,169,0,0,0,0,0,0,0,0,0,-1,1602,855,0,0
385,169,0,0,0,0,0,0,0,0,0,-1,1609,855,0,0
392,169,0,0,0,0,0,0,0,0,0,-1,1616,855,0,0
399,169,0,0,0,0,0,0,0,0,0,-1,1623,855,0,0
406,169,0,0,0,0,0,0,0,0,0,-1,1630,855,0,0
413,169,0,0,0,0,0,0,0,0,0,-1,1637,855,0,0
420,169,0,0,0,0,0,0,0,0,0,-1,1644,855,0,0
427,169,0,0,0,0,0,0,0,0,0,-1,1651,855,0,0
434,169,0,0,0,0,0,0,0,0,0,-1,1658,855,0,0
441,169,0,0,0,0,0,0,0,0,0,-1,1665,855,0,0
448,169,0,0,0,0,0,0,0,0,0,-1,1672,855,0,0
455,169,0,0,0,0,0,0,0,0,0,-1,1679,855,0,0
462,169,0,0,0,0,0,0,0,0,0,-1,1686,855,0,0
469,169,0,0,0,0,0,0,0,0,0,-1,1693,855,0,0
476,169,0,0,0,0,0,0,0,0,0,-1,1700,855,0,0
483,169,0,0,0,0,0,0,0,0,0,-1,1707,855,0,0
490,169,0,0,0,0,0,0,0,0,0,-1,1714,855,0,0
497,169,0,0,0,0,0,0,0,0,0,-1,1721,855,0,0
504,169,0,0,0,0,0,0,0,0,0,-1,1728,855,0,0
511,169,0,0,0,0,0,0,0,0,0,-1,1735,855,0,0
518,169,0,0,0,0,0,0,0,0,0,-1,1742,855,0,0
525,169,0,0,0,0,0,0,0,0,0,-1,1749,855,0,0
532,169,0,0,0,0,0,0,0,0,0,-1,1756,855,0,0
539,169,0,0,0,0,0,0,0,0,0,-1,1763,855,0,0
546,169,0,0,0,0,0,0,0,0,0,-1,1770,855,0,0
553,169,0,0,0,0,0,0,0,0,0,-1,1777,855,0,0
560,169,0,0,0,0,0,0,0,0,0,-1,1784,855,0,0
567,169,0,0,0,0,0,0,0,0,0,-1,1791,855,0,0
574,169,0,0,0,0,0,0,0,0,0,-1,1798,855,0,0
581,169,0,0,0,0,0,0,0,0,0,-1,1805,855,0,0
588,169,0,0,0,0,0,0,0,0,0,-1,1812,855,0,0
595,169,0,0,0,0,0,0,0,0,0,-1,1819,855,0,0
602,169,0,0,0,0,0,0,0,0,0,-1,1826,855,0,0
609,169,0,0,0,0,0,0,0,0,0,-1,1833,855,0,0
616,169,17.7181,2.73834,0.00472723,-0.00467573,-0.00648163,0.00803297,-0.00798146,-0.471628,0.00924595,0.0410726,1840,855,17.7182,-2.73833
623,169,17.8713,2.46368,0.0032138,-0.0033197,-0.00451152,0.00551711,-0.005623,-0.472042,0.00643184,0.0437982,1847,855,17.8714,-2.46366
630,169,18.0697,2.46008,0.00194244,-0.00204559,-0.00292336,0.00348708,-0.00359024,-0.486093,0.00408624,0.039982,1854,855,18.0697,-2.46008
637,169,17.9739,2.69019,-8.63426e-05,-0.00134898,-0.00214306,0.00151646,-0.00295178,-0.642157,0.00262373,0.0339487,1861,855,17.9739,-2.69019
644,169,17.7709,2.72308,-0.00223416,-0.00101062,-0.00194721,0.000418656,-0.00366344,-0.937604,0.00259313,0.033617,1868,855,17.7709,-2.72311
651,169,17.6805,2.63049,-0.00401612,-0.000909804,-0.00196169,3.91458e-05,-0.00496507,-1.12024,0.00332317,0.0346419,1875,855,17.6805,-2.63047
658,169,17.8286,2.52551,-0.00526762,-0.000896338,-0.00209588,-5.38228e-05,-0.00611013,-1.18858,0.0040556,0.0359888,1882,855,17.8286,-2.52553
665,169,18.0178,2.31018,-0.00623489,-0.000896323,-0.00216648,-0.000127769,-0.00700344,-1.2299,0.00462696,0.0499873,1889,855,18.0178,-2.31018
672,169,16.7169,2.51959,0,0,0,0,0,0,0,-1,1896,855,16.7169,-2.51961
679,169,15.7654,2.42511,-0.00753701,-0.000940181,-0.00210748,-0.00032439,-0.0081528,-1.28652,0.00533036,0.0484273,1903,855,15.7654,-2.42512
686,169,14.882,2.33856,-0.00763356,-0.000997332,-0.0023361,-0.000257461,-0.00837343,-1.26408,0.00549848,0.0216263,1910,855,14.882,-2.33858
693,169,14.9166,2.51031,-0.00748243,-0.000894293,-0.00257344,-8.22917e-06,-0.00836849,-1.2392,0.00557625,0.0121987,1917,855,14.9167,-2.51032
700,169,14.9097,2.68011,-0.00704788,-0.000882392,-0.00250762,8.71113e-06,-0.00793899,-1.22936,0.00529556,0.013074,1924,855,14.9096,-2.6801
707,169,14.8885,2.81091,-0.00642885,-0.000673593,-0.00215561,4.42476e-05,-0.00714669,-1.24934,0.00477928,0.0145258,1931,855,14.8886,-2.81088
714,169,14.8873,2.95074,-0.00570038,-0.00047136,-0.00161137,-1.46842e-05,-0.00615706,-1.29463,0.00409982,0.0133543,1938,855,14.8873,-2.95073
721,169,14.8859,3.10815,-0.00549301,0.00024187,-0.000994736,0.00040951,-0.00566065,-1.40384,0.00391741,0.0147948,1945,855,14.8859,-3.10817
728,169,14.8823,3.27838,-0.00630341,0.000492383,1.65519e-05,0.000492423,-0.00630345,1.56836,0.00437569,0.0123989,1952,855,14.8823,-3.2784
735,169,14.8812,3.41785,-0.00790055,0.000180214,0.00147172,0.000439908,-0.00816024,1.39614,0.00559257,0.0176321,1959,855,14.8812,-3.41782
742,169,14.899,3.55298,-0.0106061,7.82695e-05,0.00314157,0.000933534,-0.0114614,1.305,0.00797036,0.0150365,1966,855,14.8991,-3.553
749,169,14.9093,3.63525,-0.0151213,-0.000649729,0.00520234,0.00102632,-0.0167974,1.25912,0.0115556,0.0259204,1973,855,14.9093,-3.63525
756,169,14.9845,3.6795,-0.0213307,-0.00202758,0.00802619,0.000873639,-0.024232,1.22394,0.0164536,0.048126,1980,855,14.9845,-3.6795
763,169,15.0762,3.74658,0,0,0,0,0,0,0,-1,1987,855,15.0762,-3.74657
770,169,14.0836,4.51013,0,0,0,0,0,0,0,-1,1994,855,14.0836,-4.51015
777,169,13.5032,4.79443,-0.0482187,-0.0134959,0.023061,-0.00199157,-0.059723,1.10806,0.0391683,0.0470115,2001,855,13.5032,-4.79445
784,169,12.9779,5.29889,-0.0591818,-0.0211141,0.0305303,-0.00417045,-0.0761255,1.06414,0.0494189,0.0489841,2008,855,12.9779,-5.29886
791,169,0,0,0,0,0,0,0,0,0,-1,2015,855,0,0
798,169,0,0,0,0,0,0,0,0,0,-1,2022,855,0,0
805,169,0,0,0,0,0,0,0,0,0,-1,2029,855,0,0
812,169,0,0,0,0,0,0,0,0,0,-1,2036,855,0,0
-700,162,0,0,0,0,0,0,0,0,0,-1,524,862,0,0
-693,162,0,0,0,0,0,0,0,0,0,-1,531,862,0,0
-686,162,0,0,0,0,0,0,0,0,0,-1,538,862,0,0
-679,162,0,0,0,0,0,0,0,0,0,-1,545,862,0,0
-672,162,0,0,0,0,0,0,0,0,0,-1,552,862,0,0
-665,162,-4.81348,1.60608,-0.0190472,0.0738454,0.00713004,0.0743895,-0.0195912,1.49464,0.0572519,0.0482546,559,862,-4.81345,-1.60608
-658,162,-5.70386,1.53174,-0.0249786,0.0674809,0.0023351,0.0675399,-0.0250375,1.54556,0.0552953,0.0487645,566,862,-5.70388,-1.53175
-651,162,-6.24518,1.71185,-0.0276812,0.0595992,-0.000422555,0.0596013,-0.0276832,-1.56596,0.0515046,0.0497802,573,862,-6.24518,-1.71185
-644,162,-6.73444,1.22839,-0.0281115,0.0510814,-0.00185043,0.0511246,-0.0281547,-1.54745,0.0464079,0.0471174,580,862,-6.73446,-1.2284
-637,162,-9.40503,2.83838,-0.0269596,0.0424104,-0.00236391,0.0424908,-0.0270401,-1.53677,0.0404727,0.0463286,587,862,-9.40504,-2.83841
-630,162,-9.62769,2.32343,0,0,0,0,0,0,0,-1,594,862,-9.62771,-2.32345
-623,162,-9.6275,1.64856,-0.022113,0.026148,-0.00175104,0.0262115,-0.0221764,-1.53458,0.0279691,0.0358155,601,862,-9.62752,-1.64855
-616,162,-9.60443,1.4129,-0.0186998,0.019505,-0.00111814,0.0195377,-0.0187325,-1.54156,0.0220969,0.0188761,608,862,-9.60445,-1.41291
-609,162,-9.62433,1.29199,-0.0158182,0.0137231,-0.00107961,0.0137625,-0.0158576,-1.53432,0.0171154,0.0123545,615,862,-9.62432,-1.29199
-602,162,-9.6311,1.15698,-0.0128239,0.00871018,-0.000214917,0.00871232,-0.0128261,-1.56082,0.0125106,0.0107395,622,862,-9.6311,-1.15698
-595,162,-9.62451,1.02429,-0.010915,0.004838,0.000893376,0.0048885,-0.0109655,1.51433,0.00937475,0.010392,629,862,-9.62449,-1.0243
-588,162,-9.62274,0.889648,-0.0101223,0.00193042,0.00215688,0.00230477,-0.0104966,1.39894,0.00787917,0.0102919,636,862,-9.62274,-0.889638
-581,162,-9.67273,0.737793,-0.0105978,-0.000534189,0.00349371,0.000559779,-0.0116918,1.26734,0.00798764,0.0114718,643,862,-9.67271,-0.737792
-574,162,-9.73224,0.582397,-0.0119132,-0.00135181,0.00404328,1.83554e-05,-0.0132833,1.24407,0.00886167,0.0161216,650,862,-9.73226,-0.58239
-567,162,-9.68463,0.483704,-0.0128576,-0.00184368,0.00440657,-0.000297664,-0.0144036,1.23337,0.00950474,0.022916,657,862,-9.68464,-0.483715
-560,162,-9.65033,0.275574,-0.0136631,-0.00200995,0.0048494,-0.000255907,-0.0154171,1.22373,0.0101938,0.0200823,664,862,-9.65032,-0.275569
-553,162,-9.6015,0.131104,-0.0146164,-0.00206727,0.00523451,-0.000170534,-0.0165132,1.22316,0.0109524,0.0279619,671,862,-9.60148,-0.131101
-546,162,-10.5076,0.424683,-0.0150338,-0.00193578,0.00525951,-8.527e-05,-0.0168843,1.23248,0.0112279,0.0372401,678,862,-10.5075,-0.424692
-539,162,-11.751,0.548096,0,0,0,0,0,0,0,-1,685,862,-11.751,-0.548111
-532,162,-11.6562,0.644226,-0.0129961,-0.00109001,0.00434701,0.000328186,-0.0144143,1.25544,0.00972079,0.0369818,692,862,-11.6562,-0.644235
-525,162,-11.6532,0.600525,-0.0105397,-0.000443725,0.00335822,0.000571279,-0.0115547,1.27728,0.00790042,0.0368477,699,862,-11.6532,-0.600496
-518,162,-11.6151,0.620667,-0.00681691,0.000369237,0.00189287,0.000837336,-0.00728501,1.32836,0.00515849,0.0370054,706,862,-11.615,-0.620668
-511,162,-11.5231,0.731628,-0.00163475,0.00131678,-0.000143234,0.00132372,-0.00164168,-1.52242,0.00171535,0.0416694,713,862,-11.5231,-0.731603
-504,162,-11.598,0.783936,0.00468714,0.00228744,-0.0027015,0.00644326,0.000531321,-0.576412,0.00412981,0.0447961,720,862,-11.5979,-0.783915
-497,162,-11.6954,0.657715,0.0111636,0.00255564,-0.00528341,0.0136742,4.50169e-05,-0.443603,0.00910115,0.0438184,727,862,-11.6955,-0.657743
-490,162,0,0,0,0,0,0,0,0,0,-1,734,862,0,0
-483,162,0,0,0,0,0,0,0,0,0,-1,741,862,0,0
-476,162,0,0,0,0,0,0,0,0,0,-1,748,862,0,0
-469,162,0,0,0,0,0,0,0,0,0,-1,755,862,0,0
-462,162,0,0,0,0,0,0,0,0,0,-1,762,862,0,0
-455,162,0,0,0,0,0,0,0,0,0,-1,769,862,0,0
-448,162,0,0,0,0,0,0,0,0,0,-1,776,862,0,0
-441,162,0,0,0,0,0,0,0,0,0,-1,783,862,0,0
-434,162,0,0,0,0,0,0,0,0,0,-1,790,862,0,0
-427,162,0,0,0,0,0,0,0,0,0,-1,797,862,0,0
-420,162,0,0,0,0,0,0,0,0,0,-1,804,862,0,0
-413,162,0,0,0,0,0,0,0,0,0,-1,811,862,0,0
-406,162,0,0,0,0,0,0,0,0,0,-1,818,862,0,0
-399,162,0,0,0,0,0,0,0,0,0,-1,825,862,0,0
-392,162,0,0,0,0,0,0,0,0,0,-1,832,862,0,0
-385,162,0,0,0,0,0,0,0,0,0,-1,839,862,0,0
-378,162,0,0,0,0,0,0,0,0,0,-1,846,862,0,0
-371,162,0,0,0,0,0,0,0,0,0,-1,853,862,0,0
-364,162,0,0,0,0,0,0,0,0,0,-1,860,862,0,0
-357,162,0,0,0,0,0,0,0,0,0,-1,867,862,0,0
-350,162,0,0,0,0,0,0,0,0,0,-1,874,862,0,0
-343,162,0,0,0,0,0,0,0,0,0,-1,881,862,0,0
-336,162,0,0,0,0,0,0,0,0,0,-1,888,862,0,0
-329,162,0,0,0,0,0,0,0,0,0,-1,895,862,0,0
-322,162,0,0,0,0,0,0,0,0,0,-1,902,862,0,0
-315,162,0,0,0,0,0,0,0,0,0,-1,909,862,0,0
-308,162,0,0,0,0,0,0,0,0,0,-1,916,862,0,0
-301,162,0,0,0,0,0,0,0,0,0,-1,923,862,0,0
-294,162,0,0,0,0,0,0,0,0,0,-1,930,862,0,0
-287,162,0,0,0,0,0,0,0,0,0,-1,937,862,0,0
-280,162,0,0,0,0,0,0,0,0,0,-1,944,862,0,0
-273,162,0,0,0,0,0,0,0,0,0,-1,951,862,0,0
-266,162,0,0,0,0,0,0,0,0,0,-1,958,862,0,0
-259,162,0,0,0,0,0,0,0,0,0,-1,965,862,0,0
-252,162,0,0,0,0,0,0,0,0,0,-1,972,862,0,0
-245,162,0,0,0,0,0,0,0,0,0,-1,979,862,0,0
-238,162,0,0,0,0,0,0,0,0,0,-1,986,862,0,0
-231,162,0,0,0,0,0,0,0,0,0,-1,993,862,0,0
-224,162,0,0,0,0,0,0,0,0,0,-1,1000,862,0,0
-217,162,0,0,0,0,0,0,0,0,0,-1,1007,862,0,0
-210,162,0,0,0,0,0,0,0,0,0,-1,1014,862,0,0
-203,162,0,0,0,0,0,0,0,0,0,-1,1021,862,0,0
-196,162,0,0,0,0,0,0,0,0,0,-1,1028,862,0,0
-189,162,0,0,0,0,0,0,0,0,0,-1,1035,862,0,0
-182,162,0,0,0,0,0,0,0,0,0,-1,1042,862,0,0
-175,162,0,0,0,0,0,0,0,0,0,-1,1049,862,0,0
-168,162,0,0,0,0,0,0,0,0,0,-1,1056,862,0,0
-161,162,0,0,0,0,0,0,0,0,0,-1,1063,862,0,0
-154,162,0,0,0,0,0,0,0,0,0,-1,1070,862,0,0
-147,162,0,0,0,0,0,0,0,0,0,-1,1077,862,0,0
-140,162,0,0,0,0,0,0,0,0,0,-1,1084,862,0,0
-133,162,0,0,0,0,0,0,0,0,0,-1,1091,862,0,0
-126,162,0,0,0,0,0,0,0,0,0,-1,1098,862,0,0
-119,162,0,0,0,0,0,0,0,0,0,-1,1105,862,0,0
-112,162,0,0,0,0,0,0,0,0,0,-1,1112,862,0,0
-105,162,0,0,0,0,0,0,0,0,0,-1,1119,862,0,0
-98,162,0,0,0,0,0,0,0,0,0,-1,1126,862,0,0
-91,162,0,0,0,0,0,0,0,0,0,-1,1133,862,0,0
-84,162,0,0,0,0,0,0,0,0,0,-1,1140,862,0,0
-77,162,0,0,0,0,0,0,0,0,0,-1,1147,862,0,0
-70,162,0,0,0,0,0,0,0,0,0,-1,1154,862,0,0
-63,162,0,0,0,0,0,0,0,0,0,-1,1161,862,0,0
-56,162,0,0,0,0,0,0,0,0,0,-1,1168,862,0,0
-49,162,0,0,0,0,0,0,0,0,0,-1,1175,862,0,0
-42,162,0,0,0,0,0,0,0,0,0,-1,1182,862,0,0
-35,162,0,0,0,0,0,0,0,0,0,-1,1189,862,0,0
-28,162,0,0,0,0,0,0,0,0,0,-1,1196,862,0,0
-21,162,0,0,0,0,0,0,0,0,0,-1,1203,862,0,0
-14,162,0,0,0,0,0,0,0,0,0,-1,1210,862,0,0
-7,162,0,0,0,0,0,0,0,0,0,-1,1217,862,0,0
0,162,0,0,0,0,0,0,0,0,0,-1,1224,862,0,0
7,162,0,0,0,0,0,0,0,0,0,-1,1231,862,0,0
14,162,0,0,0,0,0,0,0,0,0,-1,1238,862,0,0
21,162,0,0,0,0,0,0,0,0,0,-1,1245,862,0,0
28,162,0,0,0,0,0,0,0,0,0,-1,1252,862,0,0
35,162,0,0,0,0,0,0,0,0,0,-1,1259,862,0,0
42,162,0,0,0,0,0,0,0,0,0,-1,1266,862,0,0
49,162,0,0,0,0,0,0,0,0,0,-1,1273,862,0,0
56,162,0,0,0,0,0,0,0,0,0,-1,1280,862,0,0
63,162,0,0,0,0,0,0,0,0,0,-1,1287,862,0,0
70,162,0,0,0,0,0,0,0,0,0,-1,1294,862,0,0
77,162,0,0,0,0,0,0,0,0,0,-1,1301,862,0,0
84,162,0,0,0,0,0,0,0,0,0,-1,1308,862,0,0
91,162,0,0,0,0,0,0,0,0,0,-1,1315,862,0,0
98,162,0,0,0,0,0,0,0,0,0,-1,1322,862,0,0
105,162,0,0,0,0,0,0,0,0,0,-1,1329,862,0,0
112,162,0,0,0,0,0,0,0,0,0,-1,1336,862,0,0
119,162,0,0,0,0,0,0,0,0,0,-1,1343,862,0,0
126,162,0,0,0,0,0,0,0,0,0,-1,1350,862,0,0
133,162,0,0,0,0,0,0,0,0,0,-1,1357,862,0,0
140,162,0,0,0,0,0,0,0,0,0,-1,1364,862,0,0
147,162,0,0,0,0,0,0,0,0,0,-1,1371,862,0,0
154,162,0,0,0,0,0,0,0,0,0,-1,1378,862,0,0
161,162,0,0,0,0,0,0,0,0,0,-1,1385,862,0,0
168,162,0,0,0,0,0,0,0,0,0,-1,1392,862,0,0
175,162,0,0,0,0,0,0,0,0,0,-1,1399,862,0,0
182,162,0,0,0,0,0,0,0,0,0,-1,1406,862,0,0
189,162,0,0,0,0,0,0,0,0,0,-1,1413,862,0,0
196,162,0,0,0,0,0,0,0,0,0,-1,1420,862,0,0
203,162,0,0,0,0,0,0,0,0,0,-1,1427,862,0,0
210,162,0,0,0,0,0,0,0,0,0,-1,1434,862,0,0
217,162,0,0,0,0,0,0,0,0,0,-1,1441,862,0,0
224,162,0,0,0,0,0,0,0,0,0,-1,1448,862,0,0
231,162,0,0,0,0,0,0,0,0,0,-1,1455,862,0,0
238,162,0,0,0,0,0,0,0,0,0,-1,1462,862,0,0
245,162,0,0,0,0,0,0,0,0,0,-1,1469,862,0,0
252,162,0,0,0,0,0,0,0,0,0,-1,1476,862,0,0
259,162,0,0,0,0,0,0,0,0,0,-1,1483,862,0,0
266,162,0,0,0,0,0,0,0,0,0,-1,1490,862,0,0
273,162,0,0,0,0,0,0,0,0,0,-1,1497,862,0,0
280,162,0,0,0,0,0,0,0,0,0,-1,1504,862,0,0
287,162,0,0,0,0,0,0,0,0,0,-1,1511,862,0,0
294,162,0,0,0,0,0,0,0,0,0,-1,1518,862,0,0
301,162,0,0,0,0,0,0,0,0,0,-1,1525,862,0,0
308,162,0,0,0,0,0,0,0,0,0,-1,1532,862,0,0
315,162,0,0,0,0,0,0,0,0,0,-1,1539,862,0,0
322,162,0,0,0,0,0,0,0,0,0,-1,1546,862,0,0
329,162,0,0,0,0,0,0,0,0,0,-1,1553,862,0,0
336,162,0,0,0,0,0,0,0,0,0,-1,1560,862,0,0
343,162,0,0,0,0,0,0,0,0,0,-1,1567,862,0,0
350,162,0,0,0,0,0,0,0,0,0,-1,1574,862,0,0
357,162,0,0,0,0,0,0,0,0,0,-1,1581,862,0,0
364,162,0,0,0,0,0,0,0,0,0,-1,1588,862,0,0
371,162,0,0,0,0,0,0,0,0,0,-1,1595,862,0,0
378,162,0,0,0,0,0,0,0,0,0,-1,1602,862,0,0
385,162,0,0,0,0,0,0,0,0,0,-1,1609,862,0,0
392,162,0,0,0,0,0,0,0,0,0,-1,1616,862,0,0
399,162,0,0,0,0,0,0,0,0,0,-1,1623,862,0,0
406,162,0,0,0,0,0,0,0,0,0,-1,1630,862,0,0
413,162,0,0,0,0,0,0,0,0,0,-1,1637,862,0,0
420,162,0,0,0,0,0,0,0,0,0,-1,1644,862,0,0
427,162,0,0,0,0,0,0,0,0,0,-1,1651,862,0,0
434,162,0,0,0,0,0,0,0,0,0,-1,1658,862,0,0
441,162,0,0,0,0,0,0,0,0,0,-1,1665,862,0,0
448,162,0,0,0,0,0,0,0,0,0,-1,1672,862,0,0
455,162,0,0,0,0,0,0,0,0,0,-1,1679,862,0,0
462,162,0,0,0,0,0,0,0,0,0,-1,1686,862,0,0
469,162,0,0,0,0,0,0,0,0,0,-1,1693,862,0,0
476,162,0,0,0,0,0,0,0,0,0,-1,1700,862,0,0
483,162,0,0,0,0,0,0,0,0,0,-1,1707,862,0,0
490,162,0,0,0,0,0,0,0,0,0,-1,1714,862,0,0
497,162,0,0,0,0,0,0,0,0,0,-1,1721,862,0,0
504,162,0,0,0,0,0,0,0,0,0,-1,1728,862,0,0
511,162,0,0,0,0,0,0,0,0,0,-1,1735,862,0,0
518,162,0,0,0,0,0,0,0,0,0,-1,1742,862,0,0
525,162,0,0,0,0,0,0,0,0,0,-1,1749,862,0,0
532,162,0,0,0,0,0,0,0,0,0,-1,1756,862,0,0
539,162,0,0,0,0,0,0,0,0,0,-1,1763,862,0,0
546,162,0,0,0,0,0,0,0,0,0,-1,1770,862,0,0
553,162,0,0,0,0,0,0,0,0,0,-1,1777,862,0,0
560,162,0,0,0,0,0,0,0,0,0,-1,1784,862,0,0
567,162,0,0,0,0,0,0,0,0,0,-1,1791,862,0,0
574,162,0,0,0,0,0,0,0,0,0,-1,1798,862,0,0
581,162,0,0,0,0,0,0,0,0,0,-1,1805,862,0,0
588,162,0,0,0,0,0,0,0,0,0,-1,1812,862,0,0
595,162,0,0,0,0,0,0,0,0,0,-1,1819,862,0,0
602,162,0,0,0,0,0,0,0,0,0,-1,1826,862,0,0
609,162,0,0,0,0,0,0,0,0,0,-1,1833,862,0,0
616,162,17.6469,2.77966,0.00445626,-0.00500492,-0.00723145,0.00836698,-0.00891565,-0.495748,0.00997981,0.0428386,1840,862,17.6469,-2.77964
623,162,17.8778,2.5351,0.00316916,-0.00365936,-0.00512101,0.00590973,-0.00639993,-0.49138,0.00710886,0.043646,1847,862,17.8778,-2.53512
630,162,17.9137,2.26312,0.00242518,-0.00231149,-0.00331301,0.00412932,-0.00401562,-0.475084,0.00470264,0.039694,1854,862,17.9137,-2.26312
637,162,17.8892,2.58075,0.000532851,-0.00160509,-0.00243971,0.0021275,-0.00319974,-0.578918,0.00309638,0.0370529,1861,862,17.8891,-2.58073
644,162,17.8783,2.698,-0.00181198,-0.00125864,-0.00222702,0.00070883,-0.00377945,-0.847199,0.00278613,0.0352069,1868,862,17.8783,-2.698
651,162,17.7898,2.62103,-0.00392646,-0.00114229,-0.00227984,0.00013688,-0.00520563,-1.05949,0.00351693,0.0338167,1875,862,17.7898,-2.62103
658,162,17.8464,2.5235,-0.00548859,-0.00112988,-0.00244348,-3.50683e-05,-0.00658341,-1.14956,0.00437729,0.0359175,1882,862,17.8465,-2.52347
665,162,17.9048,2.43378,-0.00668349,-0.00112798,-0.0025332,-0.000146348,-0.00766512,-1.2011,0.00506201,0.0443804,1889,862,17.9048,-2.43376
672,162,17.1677,2.87091,0,0,0,0,0,0,0,-1,1896,862,17.1677,-2.87089
679,162,16.1486,2.64856,-0.00820483,-0.00112681,-0.00247327,-0.000348224,-0.00898342,-1.26582,0.00587631,0.0445434,1903,862,16.1485,-2.64853
686,162,15.0839,2.37488,-0.00835907,-0.00116938,-0.00265426,-0.000295667,-0.00923278,-1.25279,0.00605904,0.0276533,1910,862,15.0838,-2.37489
693,162,15.0432,2.51019,-0.00833448,-0.00101268,-0.00285853,-2.88622e-05,-0.0093183,-1.23933,0.0062026,0.0162403,1917,862,15.0432,-2.51022
700,162,15.0691,2.67059,-0.00800931,-0.000935489,-0.00274835,6.79446e-06,-0.00895159,-1.2405,0.00596999,0.0163146,1924,862,15.0691,-2.67058
707,162,15.0542,2.79871,-0.0074016,-0.000715425,-0.0023581,3.25581e-05,-0.00814958,-1.26364,0.00544394,0.0118616,1931,862,15.0542,-2.79868
714,162,15.0535,2.92719,-0.00660168,-0.00047271,-0.00178882,1.11745e-05,-0.00708556,-1.30661,0.00472744,0.0150449,1938,862,15.0535,-2.92718
721,162,14.9928,3.14221,-0.00624422,0.000285684,-0.0011782,0.000491765,-0.0064503,-1.39764,0.00447314,0.0268951,1945,862,14.9928,-3.14219
728,162,14.9939,3.28448,-0.00681676,0.000646715,-0.000189829,0.00065154,-0.00682158,-1.54538,0.00477973,0.02246,1952,862,14.9939,-3.28446
735,162,15.0525,3.4339,-0.00802133,0.000567494,0.00121924,0.000737218,-0.00819105,1.43248,0.00572229,0.0113658,1959,862,15.0524,-3.4339
742,162,15.0563,3.56879,-0.010094,0.000853374,0.00293993,0.00159294,-0.0108335,1.32435,0.00780768,0.0128454,1966,862,15.0562,-3.56879
749,162,15.0254,3.67157,-0.0133064,0.000492754,0.00510901,0.0021784,-0.0149921,1.25211,0.0107944,0.0183178,1973,862,15.0254,-3.67156
756,162,14.9924,3.74652,-0.0181659,-0.000281612,0.00789563,0.00270532,-0.0211529,1.20913,0.0150848,0.0398258,1980,862,14.9924,-3.74651
763,162,14.6135,4.17419,-0.0238956,-0.00178958,0.0116866,0.00324296,-0.0289282,1.16417,0.0204523,0.0443794,1987,862,14.6136,-4.17418
770,162,14.0393,4.57605,-0.0302757,-0.00432749,0.0166859,0.00383477,-0.0384379,1.11585,0.0269945,0.0439362,1994,862,14.0393,-4.57606
777,162,13.4686,5.01715,-0.0369558,-0.00823108,0.0230385,0.00455523,-0.0497421,1.06412,0.0347794,0.0465452,2001,862,13.4687,-5.01714
784,162,12.9813,5.56006,-0.0433217,-0.013943,0.0308613,0.00554657,-0.0628113,1.00752,0.0438401,0.0470994,2008,862,12.9813,-5.56006
791,162,0,0,0,0,0,0,0,0,0,-1,2015,862,0,0
798,162,0,0,0,0,0,0,0,0,0,-1,2022,862,0,0
805,162,0,0,0,0,0,0,0,0,0,-1,2029,862,0,0
812,162,0,0,0,0,0,0,0,0,0,-1,2036,862,0,0
-700,155,0,0,0,0,0,0,0,0,0,-1,524,869,0,0
-693,155,0,0,0,0,0,0,0,0,0,-1,531,869,0,0
-686,155,0,0,0,0,0,0,0,0,0,-1,538,869,0,0
-679,155,0,0,0,0,0,0,0,0,0,-1,545,869,0,0
-672,155,0,0,0,0,0,0,0,0,0,-1,552,869,0,0
-665,155,-6.56372,2.3017,-0.0020717,0.068544,0.00324687,0.068693,-0.00222068,1.52495,0.0465532,0.0496958,559,869,-6.56375,-2.30168
-658,155,-6.47064,1.60663,-0.0113565,0.0621452,0.000222975,0.0621458,-0.0113572,1.56776,0.0456893,0.0482573,566,869,-6.47062,-1.6066
-651,155,-6.54584,0.846313,-0.0167202,0.0546368,-0.00151729,0.054669,-0.0167524,-1.54955,0.0431287,0.0490009,573,869,-6.54584,-0.846335
-644,155,-6.67157,0.698242,-0.0193241,0.046698,-0.00236309,0.0467825,-0.0194086,-1.53506,0.0392897,0.0485195,580,869,-6.67156,-0.698235
-637,155,-7.0481,0.172546,-0.0199886,0.0387199,-0.00255264,0.0388307,-0.0200994,-1.52743,0.0345915,0.047951,587,869,-7.04808,-0.172572
-630,155,-9.62799,1.66821,0,0,0,0,0,0,0,-1,594,869,-9.62798,-1.66824
-623,155,-9.71545,1.58936,-0.0179667,0.0238692,-0.00172419,0.0239402,-0.0180376,-1.52968,0.0243156,0.0266874,601,869,-9.71548,-1.58937
-616,155,-9.74158,1.40692,-0.0157471,0.0178892,-0.00106126,0.0179226,-0.0157805,-1.53929,0.0194716,0.0137172,608,869,-9.74155,-1.40691
-609,155,-9.75763,1.26636,-0.0139012,0.01253,-0.000949058,0.012564,-0.0139352,-1.53495,0.0153062,0.0120875,615,869,-9.75761,-1.26635
-602,155,-9.76221,1.14264,-0.0117557,0.00786382,-7.19211e-05,0.00786408,-0.0117559,-1.56713,0.0114017,0.0109071,622,869,-9.76218,-1.14264
-595,155,-9.77533,1.0155,-0.0105034,0.00436079,0.00105001,0.0044346,-0.0105772,1.50062,0.00890563,0.0103103,629,869,-9.77534,-1.01549
-588,155,-9.76868,0.888367,-0.0101472,0.00165173,0.00224409,0.00206413,-0.0105596,1.38905,0.0078191,0.0110561,636,869,-9.76868,-0.888373
-581,155,-9.85034,0.74585,-0.0108101,-0.000687784,0.00353471,0.000424341,-0.0119223,1.26597,0.00809333,0.015208,643,869,-9.85037,-0.745851
-574,155,-9.87817,0.636597,-0.012098,-0.0014265,0.00403672,-7.15535e-05,-0.0134529,1.24696,0.00894484,0.0208344,650,869,-9.87819,-0.636582
-567,155,-9.8255,0.472961,-0.0129887,-0.00187359,0.00435031,-0.000373407,-0.0144888,1.23872,0.0095372,0.022108,657,869,-9.82551,-0.472937
-560,155,-9.79578,0.284058,-0.0137451,-0.00210528,0.00474393,-0.00041678,-0.0154336,1.22885,0.010153,0.0221807,664,869,-9.79578,-0.28403
-553,155,-9.82465,0.239502,-0.0145906,-0.00224573,0.00509737,-0.000413039,-0.0164233,1.22565,0.0108138,0.0370865,671,869,-9.82466,-0.239472
-546,155,-10.7827,0.453613,-0.0148765,-0.00220034,0.00511324,-0.000394925,-0.0166819,1.23138,0.010992,0.0423031,678,869,-10.7826,-0.453584
-539,155,-11.4982,0.702271,0,0,0,0,0,0,0,-1,685,869,-11.4982,-0.702251
-532,155,-11.7093,0.588623,-0.0124963,-0.00158434,0.00420936,-0.000149278,-0.0139313,1.24223,0.00923819,0.0349337,692,869,-11.7093,-0.588647
-525,155,-11.6208,0.729919,-0.00975171,-0.00106762,0.00322029,-3.77744e-06,-0.0108156,1.25173,0.00720911,0.0352274,699,869,-11.6209,-0.729929
-518,155,-11.5367,0.70697,-0.00561319,-0.000383109,0.00173625,0.000140799,-0.0061371,1.27774,0.00413913,0.0390698,706,869,-11.5367,-0.706993
-511,155,-11.5009,0.757141,1.82071e-05,0.000467022,-0.000312828,0.000627608,-0.000142379,-1.09654,0.000473062,0.0415691,713,869,-11.5009,-0.757148
-504,155,-11.5389,0.753174,0,0,0,0,0,0,0,-1,720,869,-11.5389,-0.753193
-497,155,0,0,0,0,0,0,0,0,0,-1,727,869,0,0
-490,155,0,0,0,0,0,0,0,0,0,-1,734,869,0,0
-483,155,0,0,0,0,0,0,0,0,0,-1,741,869,0,0
-476,155,0,0,0,0,0,0,0,0,0,-1,748,869,0,0
-469,155,0,0,0,0,0,0,0,0,0,-1,755,869,0,0
-462,155,0,0,0,0,0,0,0,0,0,-1,762,869,0,0
-455,155,0,0,0,0,0,0,0,0,0,-1,769,869,0,0
-448,155,0,0,0,0,0,0,0,0,0,-1,776,869,0,0
-441,155,0,0,0,0,0,0,0,0,0,-1,783,869,0,0
-434,155,0,0,0,0,0,0,0,0,0,-1,790,869,0,0
-427,155,0,0,0,0,0,0,0,0,0,-1,797,869,0,0
-420,155,0,0,0,0,0,0,0,0,0,-1,804,869,0,0
-413,155,0,0,0,0,0,0,0,0,0,-1,811,869,0,0
-406,155,0,0,0,0,0,0,0,0,0,-1,818,869,0,0
-399,155,0,0,0,0,0,0,0,0,0,-1,825,869,0,0
-392,155,0,0,0,0,0,0,0,0,0,-1,832,869,0,0
-385,155,0,0,0,0,0,0,0,0,0,-1,839,869,0,0
-378,155,0,0,0,0,0,0,0,0,0,-1,846,869,0,0
-371,155,0,0,0,0,0,0,0,0,0,-1,853,869,0,0
-364,155,0,0,0,0,0,0,0,0,0,-1,860,869,0,0
-357,155,0,0,0,0,0,0,0,0,0,-1,867,869,0,0
-350,155,0,0,0,0,0,0,0,0,0,-1,874,869,0,0
-343,155,0,0,0,0,0,0,0,0,0,-1,881,869,0,0
-336,155,0,0,0,0,0,0,0,0,0,-1,888,869,0,0
-329,155,0,0,0,0,0,0,0,0,0,-1,895,869,0,0
-322,155,0,0,0,0,0,0,0,0,0,-1,902,869,0,0
-315,155,0,0,0,0,0,0,0,0,0,-1,909,869,0,0
-308,155,0,0,0,0,0,0,0,0,0,-1,916,869,0,0
-301,155,0,0,0,0,0,0,0,0,0,-1,923,869,0,0
-294,155,0,0,0,0,0,0,0,0,0,-1,930,869,0,0
-287,155,0,0,0,0,0,0,0,0,0,-1,937,869,0,0
-280,155,0,0,0,0,0,0,0,0,0,-1,944,869,0,0
-273,155,0,0,0,0,0,0,0,0,0,-1,951,869,0,0
-266,155,0,0,0,0,0,0,0,0,0,-1,958,869,0,0
-259,155,0,0,0,0,0,0,0,0,0,-1,965,869,0,0
-252,155,0,0,0,0,0,0,0,0,0,-1,972,869,0,0
-245,155,0,0,0,0,0,0,0,0,0,-1,979,869,0,0
-238,155,0,0,0,0,0,0,0,0,0,-1,986,869,0,0
-231,155,0,0,0,0,0,0,0,0,0,-1,993,869,0,0
-224,155,0,0,0,0,0,0,0,0,0,-1,1000,869,0,0
-217,155,0,0,0,0,0,0,0,0,0,-1,1007,869,0,0
-210,155,0,0,0,0,0,0,0,0,0,-1,1014,869,0,0
-203,155,0,0,0,0,0,0,0,0,0,-1,1021,869,0,0
-196,155,0,0,0,0,0,0,0,0,0,-1,1028,869,0,0
-189,155,0,0,0,0,0,0,0,0,0,-1,1035,869,0,0
-182,155,0,0,0,0,0,0,0,0,0,-1,1042,869,0,0
-175,155,0,0,0,0,0,0,0,0,0,-1,1049,869,0,0
-168,155,0,0,0,0,0,0,0,0,0,-1,1056,869,0,0
-161,155,0,0,0,0,0,0,0,0,0,-1,1063,869,0,0
-154,155,0,0,0,0,0,0,0,0,0,-1,1070,869,0,0
-147,155,0,0,0,0,0,0,0,0,0,-1,1077,869,0,0
-140,155,0,0,0,0,0,0,0,0,0,-1,1084,869,0,0
-133,155,0,0,0,0,0,0,0,0,0,-1,1091,869,0,0
-126,155,0,0,0,0,0,0,0,0,0,-1,1098,869,0,0
-119,155,0,0,0,0,0,0,0,0,0,-1,1105,869,0,0
-112,155,0,0,0,0,0,0,0,0,0,-1,1112,869,0,0
-105,155,0,0,0,0,0,0,0,0,0,-1,1119,869,0,0
-98,155,0,0,0,0,0,0,0,0,0,-1,1126,869,0,0
-91,155,0,0,0,0,0,0,0,0,0,-1,1133,869,0,0
-84,155,0,0,0,0,0,0,0,0,0,-1,1140,869,0,0
-77,155,0,0,0,0,0,0,0,0,0,-1,1147,869,0,0
-70,155,0,0,0,0,0,0,0,0,0,-1,1154,869,0,0
-63,155,0,0,0,0,0,0,0,0,0,-1,1161,869,0,0
-56,155,0,0,0,0,0,0,0,0,0,-1,1168,869,0,0
-49,155,0,0,0,0,0,0,0,0,0,-1,1175,869,0,0
-42,155,0,0,0,0,0,0,0,0,0,-1,1182,869,0,0
-35,155,0,0,0,0,0,0,0,0,0,-1,1189,869,0,0
-28,155,0,0,0,0,0,0,0,0,0,-1,1196,869,0,0
-21,155,0,0,0,0,0,0,0,0,0,-1,1203,869,0,0
-14,155,0,0,0,0,0,0,0,0,0,-1,1210,869,0,0
-7,155,0,0,0,0,0,0,0,0,0,-1,1217,869,0,0
0,155,0,0,0,0,0,0,0,0,0,-1,1224,869,0,0
7,155,0,0,0,0,0,0,0,0,0,-1,1231,869,0,0
14,155,0,0,0,0,0,0,0,0,0,-1,1238,869,0,0
21,155,0,0,0,0,0,0,0,0,0,-1,1245,869,0,0
28,155,0,0,0,0,0,0,0,0,0,-1,1252,869,0,0
35,155,0,0,0,0,0,0,0,0,0,-1,1259,869,0,0
42,155,0,0,0,0,0,0,0,0,0,-1,1266,869,0,0
49,155,0,0,0,0,0,0,0,0,0,-1,1273,869,0,0
56,155,0,0,0,0,0,0,0,0,0,-1,1280,869,0,0
63,155,0,0,0,0,0,0,0,0,0,-1,1287,869,0,0
70,155,0,0,0,0,0,0,0,0,0,-1,1294,869,0,0
77,155,0,0,0,0,0,0,0,0,0,-1,1301,869,0,0
84,155,0,0,0,0,0,0,0,0,0,-1,1308,869,0,0
91,155,0,0,0,0,0,0,0,0,0,-1,1315,869,0,0
98,155,0,0,0,0,0,0,0,0,0,-1,1322,869,0,0
105,155,0,0,0,0,0,0,0,0,0,-1,1329,869,0,0
112,155,0,0,0,0,0,0,0,0,0,-1,1336,869,0,0
119,155,0,0,0,0,0,0,0,0,0,-1,1343,869,0,0
126,155,0,0,0,0,0,0,0,0,0,-1,1350,869,0,0
133,155,0,0,0,0,0,0,0,0,0,-1,1357,869,0,0
140,155,0,0,0,0,0,0,0,0,0,-1,1364,869,0,0
147,155,0,0,0,0,0,0,0,0,0,-1,1371,869,0,0
154,155,0,0,0,0,0,0,0,0,0,-1,1378,869,0,0
161,155,0,0,0,0,0,0,0,0,0,-1,1385,869,0,0
168,155,0,0,0,0,0,0,0,0,0,-1,1392,869,0,0
175,155,0,0,0,0,0,0,0,0,0,-1,1399,869,0,0
182,155,0,0,0,0,0,0,0,0,0,-1,1406,869,0,0
189,155,0,0,0,0,0,0,0,0,0,-1,1413,869,0,0
196,155,0,0,0,0,0,0,0,0,0,-1,1420,869,0,0
203,155,0,0,0,0,0,0,0,0,0,-1,1427,869,0,0
210,155,0,0,0,0,0,0,0,0,0,-1,1434,869,0,0
217,155,0,0,0,0,0,0,0,0,0,-1,1441,869,0,0
224,155,0,0,0,0,0,0,0,0,0,-1,1448,869,0,0
231,155,0,0,0,0,0,0,0,0,0,-1,1455,869,0,0
238,155,0,0,0,0,0,0,0,0,0,-1,1462,869,0,0
245,155,0,0,0,0,0,0,0,0,0,-1,1469,869,0,0
252,155,0,0,0,0,0,0,0,0,0,-1,1476,869,0,0
259,155,0,0,0,0,0,0,0,0,0,-1,1483,869,0,0
266,155,0,0,0,0,0,0,0,0,0,-1,1490,869,0,0
273,155,0,0,0,0,0,0,0,0,0,-1,1497,869,0,0
280,155,0,0,0,0,0,0,0,0,0,-1,1504,869,0,0
287,155,0,0,0,0,0,0,0,0,0,-1,1511,869,0,0
294,155,0,0,0,0,0,0,0,0,0,-1,1518,869,0,0
301,155,0,0,0,0,0,0,0,0,0,-1,1525,869,0,0
308,155,0,0,0,0,0,0,0,0,0,-1,1532,869,0,0
315,155,0,0,0,0,0,0,0,0,0,-1,1539,869,0,0
322,155,0,0,0,0,0,0,0,0,0,-1,1546,869,0,0
329,155,0,0,0,0,0,0,0,0,0,-1,1553,869,0,0
336,155,0,0,0,0,0,0,0,0,0,-1,1560,869,0,0
343,155,0,0,0,0,0,0,0,0,0,-1,1567,869,0,0
350,155,0,0,0,0,0,0,0,0,0,-1,1574,869,0,0
357,155,0,0,0,0,0,0,0,0,0,-1,1581,869,0,0
364,155,0,0,0,0,0,0,0,0,0,-1,1588,869,0,0
371,155,0,0,0,0,0,0,0,0,0,-1,1595,869,0,0
378,155,0,0,0,0,0,0,0,0,0,-1,1602,869,0,0
385,155,0,0,0,0,0,0,0,0,0,-1,1609,869,0,0
392,155,0,0,0,0,0,0,0,0,0,-1,1616,869,0,0
399,155,0,0,0,0,0,0,0,0,0,-1,1623,869,0,0
406,155,0,0,0,0,0,0,0,0,0,-1,1630,869,0,0
413,155,0,0,0,0,0,0,0,0,0,-1,1637,869,0,0
420,155,0,0,0,0,0,0,0,0,0,-1,1644,869,0,0
427,155,0,0,0,0,0,0,0,0,0,-1,1651,869,0,0
434,155,0,0,0,0,0,0,0,0,0,-1,1658,869,0,0
441,155,0,0,0,0,0,0,0,0,0,-1,1665,869,0,0
448,155,0,0,0,0,0,0,0,0,0,-1,1672,869,0,0
455,155,0,0,0,0,0,0,0,0,0,-1,1679,869,0,0
462,155,0,0,0,0,0,0,0,0,0,-1,1686,869,0,0
469,155,0,0,0,0,0,0,0,0,0,-1,1693,869,0,0
476,155,0,0,0,0,0,0,0,0,0,-1,1700,869,0,0
483,155,0,0,0,0,0,0,0,0,0,-1,1707,869,0,0
490,155,0,0,0,0,0,0,0,0,0,-1,1714,869,0,0
497,155,0,0,0,0,0,0,0,0,0,-1,1721,869,0,0
504,155,0,0,0,0,0,0,0,0,0,-1,1728,869,0,0
511,155,0,0,0,0,0,0,0,0,0,-1,1735,869,0,0
518,155,0,0,0,0,0,0,0,0,0,-1,1742,869,0,0
525,155,0,0,0,0,0,0,0,0,0,-1,1749,869,0,0
532,155,0,0,0,0,0,0,0,0,0,-1,1756,869,0,0
539,155,0,0,0,0,0,0,0,0,0,-1,1763,869,0,0
546,155,0,0,0,0,0,0,0,0,0,-1,1770,869,0,0
553,155,0,0,0,0,0,0,0,0,0,-1,1777,869,0,0
560,155,0,0,0,0,0,0,0,0,0,-1,1784,869,0,0
567,155,0,0,0,0,0,0,0,0,0,-1,1791,869,0,0
574,155,0,0,0,0,0,0,0,0,0,-1,1798,869,0,0
581,155,0,0,0,0,0,0,0,0,0,-1,1805,869,0,0
588,155,0,0,0,0,0,0,0,0,0,-1,1812,869,0,0
595,155,0,0,0,0,0,0,0,0,0,-1,1819,869,0,0
602,155,0,0,0,0,0,0,0,0,0,-1,1826,869,0,0
609,155,0,0,0,0,0,0,0,0,0,-1,1833,869,0,0
616,155,17.7692,3.00836,0.00396169,-0.00418387,-0.00754092,0.00845938,-0.00868157,-0.537796,0.00989661,0.0447576,1840,869,17.7692,-3.00834
623,155,17.8235,2.63739,0.00290843,-0.00306139,-0.00530008,0.00600632,-0.00615929,-0.528944,0.007024,0.0445271,1847,869,17.8235,-2.63738
630,155,17.7581,2.41016,0.00271737,-0.00192424,-0.00335079,0.00447259,-0.00367945,-0.482522,0.004714,0.0444204,1854,869,17.7581,-2.41015
637,155,17.8073,2.5296,0.00106303,-0.00144277,-0.00245805,0.00256908,-0.00294881,-0.549704,0.00318827,0.04023,1861,869,17.8072,-2.52961
644,155,17.9027,2.57635,-0.00133718,-0.00125965,-0.00226541,0.000967322,-0.00356415,-0.793954,0.00275573,0.0360147,1868,869,17.9027,-2.57636
651,155,17.8763,2.51898,-0.00373167,-0.00123561,-0.00240334,0.000224423,-0.0051917,-1.02488,0.00353831,0.0337103,1875,869,17.8764,-2.51899
658,155,17.8601,2.51245,-0.00560167,-0.00129752,-0.00263986,-4.3672e-05,-0.00685552,-1.12738,0.00455586,0.029371,1882,869,17.8601,-2.51244
665,155,17.8466,2.53918,-0.00701953,-0.00134205,-0.00279067,-0.000200057,-0.00816153,-1.18237,0.00537557,0.0335332,1889,869,17.8466,-2.53916
672,155,17.8344,2.52979,-0.00816951,-0.00124866,-0.00276853,-0.00027746,-0.00914071,-1.23341,0.00600346,0.0387018,1896,869,17.8343,-2.52978
679,155,16.3911,2.93311,0,0,0,0,0,0,0,-1,1903,869,16.3911,-2.93311
686,155,15.2057,2.41406,0,0,0,0,0,0,0,-1,1910,869,15.2057,-2.41406
693,155,15.1564,2.51886,-0.00900915,-0.00118467,-0.0031358,-8.30386e-05,-0.0101108,-1.23296,0.00671301,0.0204843,1917,869,15.1563,-2.51883
700,155,15.2124,2.67163,-0.00878455,-0.00107251,-0.00300662,-3.88846e-05,-0.00981818,-1.23967,0.00653253,0.0156217,1924,869,15.2125,-2.67164
707,155,15.2767,2.84369,-0.0081827,-0.000839028,-0.0025922,-1.62139e-05,-0.00900552,-1.26344,0.00599828,0.0117466,1931,869,15.2767,-2.8437
714,155,15.243,2.94495,-0.00732429,-0.000527303,-0.00201357,2.44197e-05,-0.00787601,-1.30336,0.00525883,0.0210649,1938,869,15.2431,-2.94496
721,155,15.1842,3.10529,-0.00680032,0.000279936,-0.00143918,0.000561291,-0.00708168,-1.37773,0.0049189,0.0270247,1945,869,15.1842,-3.1053
728,155,15.1747,3.27722,-0.00706081,0.000771068,-0.000544106,0.000808688,-0.00709843,-1.50177,0.00502359,0.0202581,1952,869,15.1747,-3.27724
735,155,15.2104,3.42432,-0.00763735,0.000817407,0.000765694,0.000886191,-0.00770614,1.4812,0.00545686,0.0154969,1959,869,15.2104,-3.42433
742,155,15.213,3.58691,-0.00881774,0.00131535,0.00247086,0.00188574,-0.00938813,1.34392,0.00697286,0.0163639,1966,869,15.2131,-3.58691
749,155,15.1855,3.70593,-0.0107306,0.00119127,0.00465177,0.00279153,-0.0123309,1.23947,0.00929194,0.0136345,1973,869,15.1855,-3.70591
756,155,15.1342,3.81201,-0.0140805,0.000795919,0.00730139,0.00378063,-0.0170652,1.18274,0.0128241,0.0239773,1980,869,15.1342,-3.81204
763,155,14.9453,4.07458,-0.0178609,-0.000139782,0.010928,0.00506848,-0.0230692,1.12605,0.0173179,0.0410265,1987,869,14.9453,-4.07458
770,155,14.1344,4.71619,-0.0217128,-0.00185371,0.0158053,0.00688228,-0.0304488,1.06586,0.02294,0.0442749,1994,869,14.1344,-4.7162
777,155,13.5413,5.28894,-0.0252242,-0.00458596,0.0221501,0.00953081,-0.039341,1.00339,0.0299147,0.0442225,2001,869,13.5413,-5.28896
784,155,12.9335,5.9021,-0.0277932,-0.00865871,0.0301842,0.0134382,-0.0498901,0.93887,0.0385287,0.0459219,2008,869,12.9335,-5.90213
791,155,0,0,0,0,0,0,0,0,0,-1,2015,869,0,0
798,155,0,0,0,0,0,0,0,0,0,-1,2022,869,0,0
805,155,0,0,0,0,0,0,0,0,0,-1,2029,869,0,0
812,155,0,0,0,0,0,0,0,0,0,-1,2036,869,0,0
-700,148,0,0,0,0,0,0,0,0,0,-1,524,876,0,0
-693,148,0,0,0,0,0,0,0,0,0,-1,531,876,0,0
-686,148,0,0,0,0,0,0,0,0,0,-1,538,876,0,0
-679,148,0,0,0,0,0,0,0,0,0,-1,545,876,0,0
-672,148,-6.99164,1.75421,0,0,0,0,0,0,0,-1,552,876,-6.99166,-1.75423
-665,148,-7.14551,1.29572,0.0117286,0.0607764,0.000435349,0.0607802,0.0117247,1.56192,0.0372324,0.0468283,559,876,-7.14553,-1.29573
-658,148,-6.71576,0.739807,0.000423234,0.0548547,-0.00122808,0.0548824,0.00039554,-1.54825,0.0364571,0.0499158,566,876,-6.71576,-0.739829
-651,148,-6.63049,0.197083,0,0,0,0,0,0,0,-1,573,876,-6.63048,-0.197057
-644,148,-6.43427,0.259338,0,0,0,0,0,0,0,-1,580,876,-6.43427,-0.259369
-637,148,-9.57697,1.67529,0,0,0,0,0,0,0,-1,587,876,-9.57698,-1.67532
-630,148,-9.68201,1.59021,-0.0137887,0.0273172,-0.00211224,0.0274254,-0.013897,-1.51959,0.02428,0.0433111,594,876,-9.68203,-1.59019
-623,148,-9.78516,1.50317,-0.0137404,0.0209845,-0.00151413,0.0210504,-0.0138063,-1.5273,0.0202688,0.0219496,601,876,-9.78518,-1.50315
-616,148,-9.85315,1.37854,-0.0126668,0.015796,-0.000863803,0.0158222,-0.012693,-1.54049,0.0164963,0.0125412,608,876,-9.85317,-1.37856
-609,148,-9.87976,1.24969,-0.0118032,0.0109807,-0.000705135,0.0110025,-0.011825,-1.53989,0.0131823,0.0107598,615,876,-9.87979,-1.24972
-602,148,-9.89087,1.13068,-0.0104928,0.00680834,0.000117897,0.00680914,-0.0104936,1.56398,0.010065,0.0112149,622,876,-9.89085,-1.1307
-595,148,-9.90448,1.00903,-0.00988498,0.00378879,0.00118728,0.00389112,-0.0099873,1.48482,0.00826636,0.0102153,629,876,-9.90449,-1.00902
-588,148,-9.92444,0.870422,-0.00997075,0.00135686,0.00225213,0.0017882,-0.0104021,1.38156,0.00760124,0.0129075,636,876,-9.92444,-0.870424
-581,148,-9.97272,0.742615,-0.0108133,-0.000789087,0.0034504,0.000283748,-0.0118861,1.26934,0.00802033,0.0184678,643,876,-9.97272,-0.742588
-574,148,-9.87952,0.624634,-0.0120684,-0.00145827,0.00390571,-0.0001756,-0.0133511,1.25348,0.00884276,0.0236329,650,876,-9.87951,-0.624611
-567,148,-9.9057,0.487671,-0.0129569,-0.00188682,0.00420134,-0.000472899,-0.0143708,1.24616,0.00942684,0.0303978,657,876,-9.90567,-0.487669
-560,148,-9.88544,0.349609,-0.0136884,-0.00217748,0.0045476,-0.000597677,-0.0152682,1.23645,0.00998551,0.0286405,664,876,-9.88541,-0.349598
-553,148,-10.6013,0.526367,-0.0144289,-0.00236864,0.00487791,-0.000642712,-0.0161549,1.23072,0.0105622,0.0361615,671,876,-10.6013,-0.526382
-546,148,-11.1363,0.382263,0,0,0,0,0,0,0,-1,678,876,-11.1363,-0.382288
-539,148,-11.6998,0.601196,-0.0137129,-0.00221564,0.00459598,-0.00060426,-0.0153243,1.23358,0.0100208,0.0381044,685,876,-11.6998,-0.601192
-532,148,-11.6904,0.611511,-0.0119036,-0.00195186,0.00402527,-0.000527569,-0.0133279,1.23071,0.00871476,0.0352357,692,876,-11.6904,-0.611496
-525,148,-11.5984,0.75885,-0.00892857,-0.00153603,0.00304801,-0.000441398,-0.0100232,1.22601,0.00653997,0.0359782,699,876,-11.5984,-0.758848
-518,148,-11.5505,0.671509,-0.00446034,-0.000949193,0.0015679,-0.000350973,-0.00505856,1.2063,0.00326168,0.042605,706,876,-11.5505,-0.671493
-511,148,-11.5447,0.65686,0.00142444,-0.000174117,-0.000449612,0.00154222,-0.000291897,-0.256203,0.001138,0.0427817,713,876,-11.5447,-0.656871
-504,148,-11.6115,0.715149,0.00773979,0.000590469,-0.00263275,0.00860468,-0.000274416,-0.317403,0.00583008,0.0441591,720,876,-11.6115,-0.715122
-497,148,0,0,0,0,0,0,0,0,0,-1,727,876,0,0
-490,148,0,0,0,0,0,0,0,0,0,-1,734,876,0,0
-483,148,0,0,0,0,0,0,0,0,0,-1,741,876,0,0
-476,148,0,0,0,0,0,0,0,0,0,-1,748,876,0,0
-469,148,0,0,0,0,0,0,0,0,0,-1,755,876,0,0
-462,148,0,0,0,0,0,0,0,0,0,-1,762,876,0,0
-455,148,0,0,0,0,0,0,0,0,0,-1,769,876,0,0
-448,148,0,0,0,0,0,0,0,0,0,-1,776,876,0,0
-441,148,0,0,0,0,0,0,0,0,0,-1,783,876,0,0
-434,148,0,0,0,0,0,0,0,0,0,-1,790,876,0,0
-427,148,0,0,0,0,0,0,0,0,0,-1,797,876,0,0
-420,148,0,0,0,0,0,0,0,0,0,-1,804,876,0,0
-413,148,0,0,0,0,0,0,0,0,0,-1,811,876,0,0
-406,148,0,0,0,0,0,0,0,0,0,-1,818,876,0,0
-399,148,0,0,0,0,0,0,0,0,0,-1,825,876,0,0
-392,148,0,0,0,0,0,0,0,0,0,-1,832,876,0,0
-385,148,0,0,0,0,0,0,0,0,0,-1,839,876,0,0
-378,148,0,0,0,0,0,0,0,0,0,-1,846,876,0,0
-371,148,0,0,0,0,0,0,0,0,0,-1,853,876,0,0
-364,148,0,0,0,0,0,0,0,0,0,-1,860,876,0,0
-357,148,0,0,0,0,0,0,0,0,0,-1,867,876,0,0
-350,148,0,0,0,0,0,0,0,0,0,-1,874,876,0,0
-343,148,0,0,0,0,0,0,0,0,0,-1,881,876,0,0
-336,148,0,0,0,0,0,0,0,0,0,-1,888,876,0,0
-329,148,0,0,0,0,0,0,0,0,0,-1,895,876,0,0
-322,148,0,0,0,0,0,0,0,0,0,-1,902,876,0,0
-315,148,0,0,0,0,0,0,0,0,0,-1,909,876,0,0
-308,148,0,0,0,0,0,0,0,0,0,-1,916,876,0,0
-301,148,0,0,0,0,0,0,0,0,0,-1,923,876,0,0
-294,148,0,0,0,0,0,0,0,0,0,-1,930,876,0,0
-287,148,0,0,0,0,0,0,0,0,0,-1,937,876,0,0
-280,148,0,0,0,0,0,0,0,0,0,-1,944,876,0,0
-273,148,0,0,0,0,0,0,0,0,0,-1,951,876,0,0
-266,148,0,0,0,0,0,0,0,0,0,-1,958,876,0,0
-259,148,0,0,0,0,0,0,0,0,0,-1,965,876,0,0
-252,148,0,0,0,0,0,0,0,0,0,-1,972,876,0,0
-245,148,0,0,0,0,0,0,0,0,0,-1,979,876,0,0
-238,148,0,0,0,0,0,0,0,0,0,-1,986,876,0,0
-231,148,0,0,0,0,0,0,0,0,0,-1,993,876,0,0
-224,148,0,0,0,0,0,0,0,0,0,-1,1000,876,0,0
-217,148,0,0,0,0,0,0,0,0,0,-1,1007,876,0,0
-210,148,0,0,0,0,0,0,0,0,0,-1,1014,876,0,0
-203,148,0,0,0,0,0,0,0,0,0,-1,1021,876,0,0
-196,148,0,0,0,0,0,0,0,0,0,-1,1028,876,0,0
-189,148,0,0,0,0,0,0,0,0,0,-1,1035,876,0,0
-182,148,0,0,0,0,0,0,0,0,0,-1,1042,876,0,0
-175,148,0,0,0,0,0,0,0,0,0,-1,1049,876,0,0
-168,148,0,0,0,0,0,0,0,0,0,-1,1056,876,0,0
-161,148,0,0,0,0,0,0,0,0,0,-1,1063,876,0,0
-154,148,0,0,0,0,0,0,0,0,0,-1,1070,876,0,0
-147,148,0,0,0,0,0,0,0,0,0,-1,1077,876,0,0
-140,148,0,0,0,0,0,0,0,0,0,-1,1084,876,0,0
-133,148,0,0,0,0,0,0,0,0,0,-1,1091,876,0,0
-126,148,0,0,0,0,0,0,0,0,0,-1,1098,876,0,0
-119,148,0,0,0,0,0,0,0,0,0,-1,1105,876,0,0
-112,148,0,0,0,0,0,0,0,0,0,-1,1112,876,0,0
-105,148,0,0,0,0,0,0,0,0,0,-1,1119,876,0,0
-98,148,0,0,0,0,0,0,0,0,0,-1,1126,876,0,0
-91,148,0,0,0,0,0,0,0,0,0,-1,1133,876,0,0
-84,148,0,0,0,0,0,0,0,0,0,-1,1140,876,0,0
-77,148,0,0,0,0,0,0,0,0,0,-1,1147,876,0,0
-70,148,0,0,0,0,0,0,0,0,0,-1,1154,876,0,0
-63,148,0,0,0,0,0,0,0,0,0,-1,1161,876,0,0
-56,148,0,0,0,0,0,0,0,0,0,-1,1168,876,0,0
-49,148,0,0,0,0,0,0,0,0,0,-1,1175,876,0,0
-42,148,0,0,0,0,0,0,0,0,0,-1,1182,876,0,0
-35,148,0,0,0,0,0,0,0,0,0,-1,1189,876,0,0
-28,148,0,0,0,0,0,0,0,0,0,-1,1196,876,0,0
-21,148,0,0,0,0,0,0,0,0,0,-1,1203,876,0,0
-14,148,0,0,0,0,0,0,0,0,0,-1,1210,876,0,0
-7,148,0,0,0,0,0,0,0,0,0,-1,1217,876,0,0
0,148,0,0,0,0,0,0,0,0,0,-1,1224,876,0,0
7,148,0,0,0,0,0,0,0,0,0,-1,1231,876,0,0
14,148,0,0,0,0,0,0,0,0,0,-1,1238,876,0,0
21,148,0,0,0,0,0,0,0,0,0,-1,1245,876,0,0
28,148,0,0,0,0,0,0,0,0,0,-1,1252,876,0,0
35,148,0,0,0,0,0,0,0,0,0,-1,1259,876,0,0
42,148,0,0,0,0,0,0,0,0,0,-1,1266,876,0,0
49,148,0,0,0,0,0,0,0,0,0,-1,1273,876,0,0
56,148,0,0,0,0,0,0,0,0,0,-1,1280,876,0,0
63,148,0,0,0,0,0,0,0,0,0,-1,1287,876,0,0
70,148,0,0,0,0,0,0,0,0,0,-1,1294,876,0,0
77,148,0,0,0,0,0,0,0,0,0,-1,1301,876,0,0
84,148,0,0,0,0,0,0,0,0,0,-1,1308,876,0,0
91,148,0,0,0,0,0,0,0,0,0,-1,1315,876,0,0
98,148,0,0,0,0,0,0,0,0,0,-1,1322,876,0,0
105,148,0,0,0,0,0,0,0,0,0,-1,1329,876,0,0
112,148,0,0,0,0,0,0,0,0,0,-1,1336,876,0,0
119,148,0,0,0,0,0,0,0,0,0,-1,1343,876,0,0
126,148,0,0,0,0,0,0,0,0,0,-1,1350,876,0,0
133,148,0,0,0,0,0,0,0,0,0,-1,1357,876,0,0
140,148,0,0,0,0,0,0,0,0,0,-1,1364,876,0,0
147,148,0,0,0,0,0,0,0,0,0,-1,1371,876,0,0
154,148,0,0,0,0,0,0,0,0,0,-1,1378,876,0,0
161,148,0,0,0,0,0,0,0,0,0,-1,1385,876,0,0
168,148,0,0,0,0,0,0,0,0,0,-1,1392,876,0,0
175,148,0,0,0,0,0,0,0,0,0,-1,1399,876,0,0
182,148,0,0,0,0,0,0,0,0,0,-1,1406,876,0,0
189,148,0,0,0,0,0,0,0,0,0,-1,1413,876,0,0
196,148,0,0,0,0,0,0,0,0,0,-1,1420,876,0,0
203,148,0,0,0,0,0,0,0,0,0,-1,1427,876,0,0
210,148,0,0,0,0,0,0,0,0,0,-1,1434,876,0,0
217,148,0,0,0,0,0,0,0,0,0,-1,1441,876,0,0
224,148,0,0,0,0,0,0,0,0,0,-1,1448,876,0,0
231,148,0,0,0,0,0,0,0,0,0,-1,1455,876,0,0
238,148,0,0,0,0,0,0,0,0,0,-1,1462,876,0,0
245,148,0,0,0,0,0,0,0,0,0,-1,1469,876,0,0
252,148,0,0,0,0,0,0,0,0,0,-1,1476,876,0,0
259,148,0,0,0,0,0,0,0,0,0,-1,1483,876,0,0
266,148,0,0,0,0,0,0,0,0,0,-1,1490,876,0,0
273,148,0,0,0,0,0,0,0,0,0,-1,1497,876,0,0
280,148,0,0,0,0,0,0,0,0,0,-1,1504,876,0,0
287,148,0,0,0,0,0,0,0,0,0,-1,1511,876,0,0
294,148,0,0,0,0,0,0,0,0,0,-1,1518,876,0,0
301,148,0,0,0,0,0,0,0,0,0,-1,1525,876,0,0
308,148,0,0,0,0,0,0,0,0,0,-1,1532,876,0,0
315,148,0,0,0,0,0,0,0,0,0,-1,1539,876,0,0
322,148,0,0,0,0,0,0,0,0,0,-1,1546,876,0,0
329,148,0,0,0,0,0,0,0,0,0,-1,1553,876,0,0
336,148,0,0,0,0,0,0,0,0,0,-1,1560,876,0,0
343,148,0,0,0,0,0,0,0,0,0,-1,1567,876,0,0
350,148,0,0,0,0,0,0,0,0,0,-1,1574,876,0,0
357,148,0,0,0,0,0,0,0,0,0,-1,1581,876,0,0
364,148,0,0,0,0,0,0,0,0,0,-1,1588,876,0,0
371,148,0,0,0,0,0,0,0,0,0,-1,1595,876,0,0
378,148,0,0,0,0,0,0,0,0,0,-1,1602,876,0,0
385,148,0,0,0,0,0,0,0,0,0,-1,1609,876,0,0
392,148,0,0,0,0,0,0,0,0,0,-1,1616,876,0,0
399,148,0,0,0,0,0,0,0,0,0,-1,1623,876,0,0
406,148,0,0,0,0,0,0,0,0,0,-1,1630,876,0,0
413,148,0,0,0,0,0,0,0,0,0,-1,1637,876,0,0
420,148,0,0,0,0,0,0,0,0,0,-1,1644,876,0,0
427,148,0,0,0,0,0,0,0,0,0,-1,1651,876,0,0
434,148,0,0,0,0,0,0,0,0,0,-1,1658,876,0,0
441,148,0,0,0,0,0,0,0,0,0,-1,1665,876,0,0
448,148,0,0,0,0,0,0,0,0,0,-1,1672,876,0,0
455,148,0,0,0,0,0,0,0,0,0,-1,1679,876,0,0
462,148,0,0,0,0,0,0,0,0,0,-1,1686,876,0,0
469,148,0,0,0,0,0,0,0,0,0,-1,1693,876,0,0
476,148,0,0,0,0,0,0,0,0,0,-1,1700,876,0,0
483,148,0,0,0,0,0,0,0,0,0,-1,1707,876,0,0
490,148,0,0,0,0,0,0,0,0,0,-1,1714,876,0,0
497,148,0,0,0,0,0,0,0,0,0,-1,1721,876,0,0
504,148,0,0,0,0,0,0,0,0,0,-1,1728,876,0,0
511,148,0,0,0,0,0,0,0,0,0,-1,1735,876,0,0
518,148,0,0,0,0,0,0,0,0,0,-1,1742,876,0,0
525,148,0,0,0,0,0,0,0,0,0,-1,1749,876,0,0
532,148,0,0,0,0,0,0,0,0,0,-1,1756,876,0,0
539,148,0,0,0,0,0,0,0,0,0,-1,1763,876,0,0
546,148,0,0,0,0,0,0,0,0,0,-1,1770,876,0,0
553,148,0,0,0,0,0,0,0,0,0,-1,1777,876,0,0
560,148,0,0,0,0,0,0,0,0,0,-1,1784,876,0,0
567,148,0,0,0,0,0,0,0,0,0,-1,1791,876,0,0
574,148,0,0,0,0,0,0,0,0,0,-1,1798,876,0,0
581,148,0,0,0,0,0,0,0,0,0,-1,1805,876,0,0
588,148,0,0,0,0,0,0,0,0,0,-1,1812,876,0,0
595,148,0,0,0,0,0,0,0,0,0,-1,1819,876,0,0
602,148,0,0,0,0,0,0,0,0,0,-1,1826,876,0,0
609,148,0,0,0,0,0,0,0,0,0,-1,1833,876,0,0
616,148,0,0,0,0,0,0,0,0,0,-1,1840,876,0,0
623,148,17.9437,2.65784,0.00262586,-0.00181926,-0.00537828,0.00622272,-0.00541612,-0.589461,0.00672507,0.0437494,1847,876,17.9438,-2.65782
630,148,17.7245,2.60968,0.00292984,-0.00109007,-0.00321327,0.00471,-0.00287024,-0.505913,0.00441921,0.0454551,1854,876,17.7245,-2.60971
637,148,17.6881,2.62872,0.00155087,-0.000946102,-0.00225457,0.00287956,-0.00227478,-0.532536,0.00298268,0.0403758,1861,876,17.6881,-2.62871
644,148,17.7816,2.61871,-0.000792758,-0.000997155,-0.0020293,0.00113691,-0.00292683,-0.760239,0.00242088,0.0366429,1868,876,17.7816,-2.61869
651,148,17.861,2.47565,-0.0034039,-0.00111958,-0.00223787,0.000250752,-0.00477422,-1.02136,0.00326961,0.0371443,1875,876,17.861,-2.47565
658,148,17.8325,2.51855,-0.00559275,-0.00128025,-0.00255472,-9.3444e-05,-0.00677955,-1.13591,0.00448888,0.0334513,1882,876,17.8325,-2.51854
665,148,17.7832,2.57666,-0.00724704,-0.00138944,-0.00278732,-0.000275093,-0.00836139,-1.19047,0.00548486,0.025847,1889,876,17.7832,-2.57667
672,148,17.7983,2.54828,-0.0085401,-0.00133421,-0.00284134,-0.000348642,-0.00952567,-1.23692,0.00623748,0.0293633,1896,876,17.7983,-2.54825
679,148,17.8196,2.55688,0,0,0,0,0,0,0,-1,1903,876,17.8195,-2.5569
686,148,15.4044,2.32574,0,0,0,0,0,0,0,-1,1910,876,15.4044,-2.32576
693,148,15.3301,2.51038,-0.00955709,-0.00126525,-0.00321551,-0.000164439,-0.0106579,-1.24096,0.00705109,0.029264,1917,876,15.3301,-2.51039
700,148,15.387,2.703,-0.00939143,-0.00115469,-0.00309221,-0.000123035,-0.0104231,-1.24878,0.00690808,0.0148421,1924,876,15.387,-2.70301
707,148,15.4572,2.90002,-0.0087817,-0.000934041,-0.00269486,-9.77535e-05,-0.00961799,-1.26989,0.00637966,0.0128332,1931,876,15.4571,-2.90005
714,148,15.4194,3.00275,-0.00785222,-0.000578128,-0.00214985,9.74769e-06,-0.0084401,-1.30387,0.00562998,0.0132811,1938,876,15.4194,-3.00272
721,148,15.3441,3.11053,-0.0071572,0.000251788,-0.00163222,0.000595429,-0.00750085,-1.36329,0.00521039,0.0171959,1945,876,15.3441,-3.11052
728,148,15.3568,3.25317,-0.00708889,0.000850043,-0.000821001,0.000934058,-0.0071729,-1.46882,0.00512176,0.019355,1952,876,15.3568,-3.25318
735,148,15.3789,3.43146,-0.00703925,0.000988957,0.000341477,0.00100345,-0.00705375,1.52836,0.00507019,0.0171544,1959,876,15.3789,-3.43147
742,148,15.3635,3.60626,-0.00732096,0.00177834,0.00204229,0.0022157,-0.00775832,1.35983,0.00604763,0.0182348,1966,876,15.3636,-3.60624
749,148,15.3463,3.70721,-0.00786711,0.00198997,0.00424291,0.00356472,-0.00944186,1.21541,0.00776069,0.014597,1973,876,15.3463,-3.70721
756,148,15.2935,3.82172,-0.00966905,0.00204984,0.00677699,0.00514923,-0.0127684,1.14186,0.010652,0.0192623,1980,876,15.2934,-3.82169
763,148,14.9941,4.271,-0.0114972,0.00178461,0.0102541,0.00736046,-0.017073,1.07275,0.0144734,0.0425116,1987,876,14.9942,-4.271
770,148,14.3995,4.78967,-0.012833,0.00102566,0.0149949,0.0106149,-0.0224222,1.00184,0.0194758,0.0452588,1994,876,14.3995,-4.78965
777,148,13.8192,5.28442,-0.0132071,-0.000387074,0.0212646,0.0154126,-0.0290068,0.931787,0.0260428,0.0450673,2001,876,13.8192,-5.28443
784,148,13.2605,5.87653,0,0,0,0,0,0,0,-1,2008,876,13.2605,-5.87652
791,148,16.9246,5.1723,0,0,0,0,0,0,0,-1,2015,876,16.9246,-5.17233
798,148,0,0,0,0,0,0,0,0,0,-1,2022,876,0,0
805,148,0,0,0,0,0,0,0,0,0,-1,2029,876,0,0
812,148,0,0,0,0,0,0,0,0,0,-1,2036,876,0,0
-700,141,0,0,0,0,0,0,0,0,0,-1,524,883,0,0
-693,141,0,0,0,0,0,0,0,0,0,-1,531,883,0,0
-686,141,0,0,0,0,0,0,0,0,0,-1,538,883,0,0
-679,141,0,0,0,0,0,0,0,0,0,-1,545,883,0,0
-672,141,-8.28149,0.832947,0,0,0,0,0,0,0,-1,552,883,-8.28152,-0.832973
-665,141,-7.71606,0.403259,0.0217862,0.052664,0.00228811,0.0528326,0.0216175,1.49723,0.0306702,0.0497911,559,883,-7.71607,-0.403237
-658,141,-7.15216,0.0916748,0.00996799,0.0469496,0.000364977,0.0469532,0.00996439,1.56093,0.0285659,0.04901,566,883,-7.15214,-0.091681
-651,141,-6.44513,-0.418335,0,0,0,0,0,0,0,-1,573,883,-6.44516,0.418362
-644,141,-11.0994,0.843872,0,0,0,0,0,0,0,-1,580,883,-11.0994,-0.843881
-637,141,-9.62543,1.71326,0,0,0,0,0,0,0,-1,587,883,-9.62542,-1.71324
-630,141,-9.76422,1.57428,-0.00851461,0.0231104,-0.00157563,0.0231887,-0.00859292,-1.52114,0.0189832,0.0393508,594,883,-9.76422,-1.57429
-623,141,-9.87683,1.42908,-0.00956092,0.0176584,-0.00123907,0.0177147,-0.00961721,-1.5254,0.0160092,0.0205249,601,883,-9.87684,-1.42907
-616,141,-9.96191,1.35388,-0.009538,0.0133363,-0.000620405,0.0133531,-0.00955482,-1.5437,0.0132864,0.011979,608,883,-9.96192,-1.35388
-609,141,-9.99237,1.24927,-0.00955965,0.0091564,-0.000428394,0.0091662,-0.00956945,-1.54792,0.0108179,0.0126175,615,883,-9.99238,-1.24924
-602,141,-9.99524,1.12811,-0.00903264,0.00558597,0.000300957,0.00559216,-0.00903883,1.55022,0.00852498,0.0117808,622,883,-9.99524,-1.12814
-595,141,-10.0041,0.999573,-0.00903279,0.00311522,0.00127488,0.00324757,-0.00916514,1.46735,0.00743299,0.0107617,629,883,-10.0041,-0.999561
-588,141,-10.1146,0.885132,-0.00953729,0.00102349,0.00215849,0.00144763,-0.00996143,1.37677,0.00717236,0.0147525,636,883,-10.1146,-0.885146
-581,141,-10.111,0.785095,-0.0105502,-0.000885913,0.00322031,8.88351e-05,-0.011525,1.27688,0.0077131,0.0190368,643,883,-10.1109,-0.785119
-574,141,-9.9696,0.666504,-0.0117501,-0.00149227,0.00361071,-0.000348779,-0.0128935,1.2641,0.00848183,0.0229982,650,883,-9.96961,-0.666516
-567,141,-9.95697,0.580261,-0.0125737,-0.0018869,0.00387662,-0.000628777,-0.0138318,1.25698,0.00901893,0.0279559,657,883,-9.95699,-0.580231
-560,141,-10.1039,0.598145,-0.0132727,-0.00220397,0.00416869,-0.000809608,-0.014667,1.24801,0.00951963,0.0338015,664,883,-10.1039,-0.598139
-553,141,-10.8873,0.901672,-0.0138697,-0.0024062,0.00445125,-0.000880774,-0.0153951,1.24064,0.00998276,0.0444903,671,883,-10.8873,-0.901686
-546,141,-11.5565,0.865601,-0.0138144,-0.00245576,0.00445372,-0.000917717,-0.0153524,1.23828,0.00994316,0.0352555,678,883,-11.5565,-0.865627
-539,141,-11.5983,0.687439,-0.0127468,-0.00235205,0.00418037,-0.000879476,-0.0142194,1.23211,0.00920045,0.0294824,685,883,-11.5983,-0.687425
-532,141,-11.6781,0.62439,-0.010727,-0.00216422,0.00363781,-0.000827426,-0.0120638,1.21864,0.00778141,0.0287146,692,883,-11.6781,-0.624364
-525,141,-11.6591,0.721436,-0.00750102,-0.00183244,0.00270739,-0.000747144,-0.00858632,1.18955,0.00549213,0.0369944,699,883,-11.6591,-0.721422
-518,141,-11.6738,0.698853,-0.00273868,-0.00134024,0.00130233,-0.000561289,-0.00351763,1.03176,0.00218218,0.0419615,706,883,-11.6738,-0.698851
-511,141,-11.6928,0.657166,0.00319336,-0.000653268,-0.00053132,0.0032654,-0.000725308,-0.134765,0.00245469,0.0395082,713,883,-11.6928,-0.657189
-504,141,-11.7424,0.703003,0.00895586,-6.87771e-05,-0.00218476,0.00945694,-0.000569859,-0.225454,0.00650291,0.0422423,720,883,-11.7424,-0.702994
-497,141,0,0,0,0,0,0,0,0,0,-1,727,883,0,0
-490,141,0,0,0,0,0,0,0,0,0,-1,734,883,0,0
-483,141,0,0,0,0,0,0,0,0,0,-1,741,883,0,0
-476,141,0,0,0,0,0,0,0,0,0,-1,748,883,0,0
-469,141,0,0,0,0,0,0,0,0,0,-1,755,883,0,0
-462,141,0,0,0,0,0,0,0,0,0,-1,762,883,0,0
-455,141,0,0,0,0,0,0,0,0,0,-1,769,883,0,0
-448,141,0,0,0,0,0,0,0,0,0,-1,776,883,0,0
-441,141,0,0,0,0,0,0,0,0,0,-1,783,883,0,0
-434,141,0,0,0,0,0,0,0,0,0,-1,790,883,0,0
-427,141,0,0,0,0,0,0,0,0,0,-1,797,883,0,0
-420,141,0,0,0,0,0,0,0,0,0,-1,804,883,0,0
-413,141,0,0,0,0,0,0,0,0,0,-1,811,883,0,0
-406,141,0,0,0,0,0,0,0,0,0,-1,818,883,0,0
-399,141,0,0,0,0,0,0,0,0,0,-1,825,883,0,0
-392,141,0,0,0,0,0,0,0,0,0,-1,832,883,0,0
-385,141,0,0,0,0,0,0,0,0,0,-1,839,883,0,0
-378,141,0,0,0,0,0,0,0,0,0,-1,846,883,0,0
-371,141,0,0,0,0,0,0,0,0,0,-1,853,883,0,0
-364,141,0,0,0,0,0,0,0,0,0,-1,860,883,0,0
-357,141,0,0,0,0,0,0,0,0,0,-1,867,883,0,0
-350,141,0,0,0,0,0,0,0,0,0,-1,874,883,0,0
-343,141,0,0,0,0,0,0,0,0,0,-1,881,883,0,0
-336,141,0,0,0,0,0,0,0,0,0,-1,888,883,0,0
-329,141,0,0,0,0,0,0,0,0,0,-1,895,883,0,0
-322,141,0,0,0,0,0,0,0,0,0,-1,902,883,0,0
-315,141,0,0,0,0,0,0,0,0,0,-1,909,883,0,0
-308,141,0,0,0,0,0,0,0,0,0,-1,916,883,0,0
-301,141,0,0,0,0,0,0,0,0,0,-1,923,883,0,0
-294,141,0,0,0,0,0,0,0,0,0,-1,930,883,0,0
-287,141,0,0,0,0,0,0,0,0,0,-1,937,883,0,0
-280,141,0,0,0,0,0,0,0,0,0,-1,944,883,0,0
-273,141,0,0,0,0,0,0,0,0,0,-1,951,883,0,0
-266,141,0,0,0,0,0,0,0,0,0,-1,958,883,0,0
-259,141,0,0,0,0,0,0,0,0,0,-1,965,883,0,0
-252,141,0,0,0,0,0,0,0,0,0,-1,972,883,0,0
-245,141,0,0,0,0,0,0,0,0,0,-1,979,883,0,0
-238,141,0,0,0,0,0,0,0,0,0,-1,986,883,0,0
-231,141,0,0,0,0,0,0,0,0,0,-1,993,883,0,0
-224,141,0,0,0,0,0,0,0,0,0,-1,1000,883,0,0
-217,141,0,0,0,0,0,0,0,0,0,-1,1007,883,0,0
-210,141,0,0,0,0,0,0,0,0,0,-1,1014,883,0,0
-203,141,0,0,0,0,0,0,0,0,0,-1,1021,883,0,0
-196,141,0,0,0,0,0,0,0,0,0,-1,1028,883,0,0
-189,141,0,0,0,0,0,0,0,0,0,-1,1035,883,0,0
-182,141,0,0,0,0,0,0,0,0,0,-1,1042,883,0,0
-175,141,0,0,0,0,0,0,0,0,0,-1,1049,883,0,0
-168,141,0,0,0,0,0,0,0,0,0,-1,1056,883,0,0
-161,141,0,0,0,0,0,0,0,0,0,-1,1063,883,0,0
-154,141,0,0,0,0,0,0,0,0,0,-1,1070,883,0,0
-147,141,0,0,0,0,0,0,0,0,0,-1,1077,883,0,0
-140,141,0,0,0,0,0,0,0,0,0,-1,1084,883,0,0
-133,141,0,0,0,0,0,0,0,0,0,-1,1091,883,0,0
-126,141,0,0,0,0,0,0,0,0,0,-1,1098,883,0,0
-119,141,0,0,0,0,0,0,0,0,0,-1,1105,883,0,0
-112,141,0,0,0,0,0,0,0,0,0,-1,1112,883,0,0
-105,141,0,0,0,0,0,0,0,0,0,-1,1119,883,0,0
-98,141,0,0,0,0,0,0,0,0,0,-1,1126,883,0,0
-91,141,0,0,0,0,0,0,0,0,0,-1,1133,883,0,0
-84,141,0,0,0,0,0,0,0,0,0,-1,1140,883,0,0
-77,141,0,0,0,0,0,0,0,0,0,-1,1147,883,0,0
-70,141,0,0,0,0,0,0,0,0,0,-1,1154,883,0,0
-63,141,0,0,0,0,0,0,0,0,0,-1,1161,883,0,0
-56,141,0,0,0,0,0,0,0,0,0,-1,1168,883,0,0
-49,141,0,0,0,0,0,0,0,0,0,-1,1175,883,0,0
-42,141,0,0,0,0,0,0,0,0,0,-1,1182,883,0,0
-35,141,0,0,0,0,0,0,0,0,0,-1,1189,883,0,0
-28,141,0,0,0,0,0,0,0,0,0,-1,1196,883,0,0
-21,141,0,0,0,0,0,0,0,0,0,-1,1203,883,0,0
-14,141,0,0,0,0,0,0,0,0,0,-1,1210,883,0,0
-7,141,0,0,0,0,0,0,0,0,0,-1,1217,883,0,0
0,141,0,0,0,0,0,0,0,0,0,-1,1224,883,0,0
7,141,0,0,0,0,0,0,0,0,0,-1,1231,883,0,0
14,141,0,0,0,0,0,0,0,0,0,-1,1238,883,0,0
21,141,0,0,0,0,0,0,0,0,0,-1,1245,883,0,0
28,141,0,0,0,0,0,0,0,0,0,-1,1252,883,0,0
35,141,0,0,0,0,0,0,0,0,0,-1,1259,883,0,0
42,141,0,0,0,0,0,0,0,0,0,-1,1266,883,0,0
49,141,0,0,0,0,0,0,0,0,0,-1,1273,883,0,0
56,141,0,0,0,0,0,0,0,0,0,-1,1280,883,0,0
63,141,0,0,0,0,0,0,0,0,0,-1,1287,883,0,0
70,141,0,0,0,0,0,0,0,0,0,-1,1294,883,0,0
77,141,0,0,0,0,0,0,0,0,0,-1,1301,883,0,0
84,141,0,0,0,0,0,0,0,0,0,-1,1308,883,0,0
91,141,0,0,0,0,0,0,0,0,0,-1,1315,883,0,0
98,141,0,0,0,0,0,0,0,0,0,-1,1322,883,0,0
105,141,0,0,0,0,0,0,0,0,0,-1,1329,883,0,0
112,141,0,0,0,0,0,0,0,0,0,-1,1336,883,0,0
119,141,0,0,0,0,0,0,0,0,0,-1,1343,883,0,0
126,141,0,0,0,0,0,0,0,0,0,-1,1350,883,0,0
133,141,0,0,0,0,0,0,0,0,0,-1,1357,883,0,0
140,141,0,0,0,0,0,0,0,0,0,-1,1364,883,0,0
147,141,0,0,0,0,0,0,0,0,0,-1,1371,883,0,0
154,141,0,0,0,0,0,0,0,0,0,-1,1378,883,0,0
161,141,0,0,0,0,0,0,0,0,0,-1,1385,883,0,0
168,141,0,0,0,0,0,0,0,0,0,-1,1392,883,0,0
175,141,0,0,0,0,0,0,0,0,0,-1,1399,883,0,0
182,141,0,0,0,0,0,0,0,0,0,-1,1406,883,0,0
189,141,0,0,0,0,0,0,0,0,0,-1,1413,883,0,0
196,141,0,0,0,0,0,0,0,0,0,-1,1420,883,0,0
203,141,0,0,0,0,0,0,0,0,0,-1,1427,883,0,0
210,141,0,0,0,0,0,0,0,0,0,-1,1434,883,0,0
217,141,0,0,0,0,0,0,0,0,0,-1,1441,883,0,0
224,141,0,0,0,0,0,0,0,0,0,-1,1448,883,0,0
231,141,0,0,0,0,0,0,0,0,0,-1,1455,883,0,0
238,141,0,0,0,0,0,0,0,0,0,-1,1462,883,0,0
245,141,0,0,0,0,0,0,0,0,0,-1,1469,883,0,0
252,141,0,0,0,0,0,0,0,0,0,-1,1476,883,0,0
259,141,0,0,0,0,0,0,0,0,0,-1,1483,883,0,0
266,141,0,0,0,0,0,0,0,0,0,-1,1490,883,0,0
273,141,0,0,0,0,0,0,0,0,0,-1,1497,883,0,0
280,141,0,0,0,0,0,0,0,0,0,-1,1504,883,0,0
287,141,0,0,0,0,0,0,0,0,0,-1,1511,883,0,0
294,141,0,0,0,0,0,0,0,0,0,-1,1518,883,0,0
301,141,0,0,0,0,0,0,0,0,0,-1,1525,883,0,0
308,141,0,0,0,0,0,0,0,0,0,-1,1532,883,0,0
315,141,0,0,0,0,0,0,0,0,0,-1,1539,883,0,0
322,141,0,0,0,0,0,0,0,0,0,-1,1546,883,0,0
329,141,0,0,0,0,0,0,0,0,0,-1,1553,883,0,0
336,141,0,0,0,0,0,0,0,0,0,-1,1560,883,0,0
343,141,0,0,0,0,0,0,0,0,0,-1,1567,883,0,0
350,141,0,0,0,0,0,0,0,0,0,-1,1574,883,0,0
357,141,0,0,0,0,0,0,0,0,0,-1,1581,883,0,0
364,141,0,0,0,0,0,0,0,0,0,-1,1588,883,0,0
371,141,0,0,0,0,0,0,0,0,0,-1,1595,883,0,0
378,141,0,0,0,0,0,0,0,0,0,-1,1602,883,0,0
385,141,0,0,0,0,0,0,0,0,0,-1,1609,883,0,0
392,141,0,0,0,0,0,0,0,0,0,-1,1616,883,0,0
399,141,0,0,0,0,0,0,0,0,0,-1,1623,883,0,0
406,141,0,0,0,0,0,0,0,0,0,-1,1630,883,0,0
413,141,0,0,0,0,0,0,0,0,0,-1,1637,883,0,0
420,141,0,0,0,0,0,0,0,0,0,-1,1644,883,0,0
427,141,0,0,0,0,0,0,0,0,0,-1,1651,883,0,0
434,141,0,0,0,0,0,0,0,0,0,-1,1658,883,0,0
441,141,0,0,0,0,0,0,0,0,0,-1,1665,883,0,0
448,141,0,0,0,0,0,0,0,0,0,-1,1672,883,0,0
455,141,0,0,0,0,0,0,0,0,0,-1,1679,883,0,0
462,141,0,0,0,0,0,0,0,0,0,-1,1686,883,0,0
469,141,0,0,0,0,0,0,0,0,0,-1,1693,883,0,0
476,141,0,0,0,0,0,0,0,0,0,-1,1700,883,0,0
483,141,0,0,0,0,0,0,0,0,0,-1,1707,883,0,0
490,141,0,0,0,0,0,0,0,0,0,-1,1714,883,0,0
497,141,0,0,0,0,0,0,0,0,0,-1,1721,883,0,0
504,141,0,0,0,0,0,0,0,0,0,-1,1728,883,0,0
511,141,0,0,0,0,0,0,0,0,0,-1,1735,883,0,0
518,141,0,0,0,0,0,0,0,0,0,-1,1742,883,0,0
525,141,0,0,0,0,0,0,0,0,0,-1,1749,883,0,0
532,141,0,0,0,0,0,0,0,0,0,-1,1756,883,0,0
539,141,0,0,0,0,0,0,0,0,0,-1,1763,883,0,0
546,141,0,0,0,0,0,0,0,0,0,-1,1770,883,0,0
553,141,0,0,0,0,0,0,0,0,0,-1,1777,883,0,0
560,141,0,0,0,0,0,0,0,0,0,-1,1784,883,0,0
567,141,0,0,0,0,0,0,0,0,0,-1,1791,883,0,0
574,141,0,0,0,0,0,0,0,0,0,-1,1798,883,0,0
581,141,0,0,0,0,0,0,0,0,0,-1,1805,883,0,0
588,141,0,0,0,0,0,0,0,0,0,-1,1812,883,0,0
595,141,0,0,0,0,0,0,0,0,0,-1,1819,883,0,0
602,141,0,0,0,0,0,0,0,0,0,-1,1826,883,0,0
609,141,0,0,0,0,0,0,0,0,0,-1,1833,883,0,0
616,141,0,0,0,0,0,0,0,0,0,-1,1840,883,0,0
623,141,17.9672,2.4715,0.00183389,-0.000682894,-0.00485666,0.00559254,-0.00444154,-0.658633,0.00580587,0.0450545,1847,883,17.9671,-2.47147
630,141,17.729,2.58435,0.00256276,-0.000315801,-0.00269057,0.00417482,-0.00192786,-0.539796,0.00360212,0.0480827,1854,883,17.729,-2.58436
637,141,17.9392,2.03394,0,0,0,0,0,0,0,-1,1861,883,17.9392,-2.03391
644,141,17.9186,2.42517,-0.000399314,-0.000638068,-0.00158126,0.00106707,-0.00210445,-0.747722,0.00186344,0.0410327,1868,883,17.9186,-2.42517
651,141,17.9847,2.49908,-0.00302214,-0.000868985,-0.00189421,0.000233214,-0.00412434,-1.04381,0.0028305,0.0395111,1875,883,17.9847,-2.49911
658,141,17.9097,2.51923,-0.00541446,-0.00109774,-0.00231854,-8.84288e-05,-0.00642377,-1.16022,0.00425334,0.0364626,1882,883,17.9097,-2.51922
665,141,17.7321,2.5647,-0.00721925,-0.00126296,-0.00264546,-0.000257663,-0.00822455,-1.20764,0.0053992,0.0276557,1889,883,17.732,-2.56468
672,141,17.7866,2.56665,-0.00860251,-0.00125694,-0.0027887,-0.000318195,-0.00954125,-1.24609,0.00625747,0.0218276,1896,883,17.7866,-2.56664
679,141,17.8221,2.47766,-0.00931418,-0.00138148,-0.00291498,-0.000425529,-0.0102701,-1.2539,0.00670941,0.0251947,1903,883,17.8221,-2.47767
686,141,15.9807,2.83411,0,0,0,0,0,0,0,-1,1910,883,15.9808,-2.83409
693,141,15.623,2.74976,-0.00974796,-0.00123212,-0.00317529,-0.000178506,-0.0108016,-1.25041,0.00714229,0.0464558,1917,883,15.623,-2.74974
700,141,15.5181,2.70129,-0.00961747,-0.00114303,-0.0030628,-0.000151985,-0.0106085,-1.25785,0.00702223,0.0158378,1924,883,15.5181,-2.70128
707,141,15.5283,2.84686,-0.00899637,-0.000951426,-0.00269845,-0.00013015,-0.00981764,-1.27535,0.00650215,0.0134829,1931,883,15.5283,-2.84684
714,141,15.4742,2.96759,-0.00801795,-0.000592106,-0.00221574,1.87801e-05,-0.00862883,-1.30178,0.00575882,0.014032,1938,883,15.4742,-2.96759
721,141,15.4982,3.11243,-0.00717891,0.000211159,-0.00178003,0.000617563,-0.00758531,-1.34633,0.00527479,0.0118125,1945,883,15.4982,-3.11243
728,141,15.5165,3.23816,-0.00677833,0.000919211,-0.00106039,0.00106262,-0.00692174,-1.43637,0.00500643,0.0141093,1952,883,15.5165,-3.23818
735,141,15.504,3.43701,-0.00610468,0.00126381,-3.86562e-05,0.00126402,-0.00610489,-1.56555,0.00455017,0.0144352,1959,883,15.504,-3.43701
742,141,15.4799,3.58038,-0.00542483,0.00245698,0.00165144,0.00278901,-0.00575686,1.37239,0.00503216,0.0150269,1966,883,15.4799,-3.58036
749,141,15.4707,3.68054,-0.00455276,0.00331495,0.00395477,0.00495921,-0.00619703,1.17677,0.00645426,0.0121044,1973,883,15.4707,-3.68053
756,141,15.473,3.83636,-0.00475044,0.00411446,0.00646163,0.00751778,-0.00815376,1.08602,0.00905045,0.0196606,1980,883,15.473,-3.83636
763,141,15.6302,3.96625,-0.00463328,0.00487702,0.00991594,0.011119,-0.0108753,1.00897,0.0126987,0.0439835,1987,883,15.6303,-3.96626
770,141,14.9769,4.81866,-0.00352594,0.00550051,0.0146751,0.0163407,-0.0143662,0.934579,0.0177408,0.0467851,1994,883,14.9769,-4.81869
777,141,14.6573,5.13324,0,0,0,0,0,0,0,-1,2001,883,14.6574,-5.13324
784,141,17.2133,4.77618,0.00360276,0.0058754,0.0293883,0.0341494,-0.0246712,0.804721,0.0341067,0.0425712,2008,883,17.2133,-4.77621
791,141,17.3313,5.32672,0.0108682,0.00531492,0.0401429,0.0483304,-0.0321473,0.750869,0.0467759,0.0426234,2015,883,17.3314,-5.32672
798,141,0,0,0,0,0,0,0,0,0,-1,2022,883,0,0
805,141,0,0,0,0,0,0,0,0,0,-1,2029,883,0,0
812,141,0,0,0,0,0,0,0,0,0,-1,2036,883,0,0
-700,134,0,0,0,0,0,0,0,0,0,-1,524,890,0,0
-693,134,0,0,0,0,0,0,0,0,0,-1,531,890,0,0
-686,134,0,0,0,0,0,0,0,0,0,-1,538,890,0,0
-679,134,0,0,0,0,0,0,0,0,0,-1,545,890,0,0
-672,134,-11.2416,1.88629,0,0,0,0,0,0,0,-1,552,890,-11.2417,-1.88629
-665,134,-10.0331,1.45966,0,0,0,0,0,0,0,-1,559,890,-10.0331,-1.45964
-658,134,-7.46075,-0.404663,0,0,0,0,0,0,0,-1,566,890,-7.46076,0.404645
-651,134,-7.01355,-0.949158,0,0,0,0,0,0,0,-1,573,890,-7.01357,0.949154
-644,134,-11.1348,0.920288,0,0,0,0,0,0,0,-1,580,890,-11.1348,-0.920311
-637,134,-9.85712,1.5979,0,0,0,0,0,0,0,-1,587,890,-9.85711,-1.59789
-630,134,-9.94122,1.52362,-0.00489167,0.0188238,-0.000961653,0.0188627,-0.00493061,-1.53034,0.0145008,0.0380499,594,890,-9.9412,-1.52364
-623,134,-10.0242,1.44312,-0.00653392,0.014233,-0.000951394,0.0142765,-0.00657742,-1.52511,0.0123105,0.0194709,601,890,-10.0242,-1.44313
-616,134,-10.1075,1.34082,-0.00718532,0.0107103,-0.000459271,0.0107221,-0.0071971,-1.54516,0.0104122,0.0116995,608,890,-10.1075,-1.34082
-609,134,-10.1342,1.24847,-0.00779473,0.00715777,-0.000264914,0.00716246,-0.00779942,-1.55309,0.00864085,0.0114468,615,890,-10.1342,-1.24847
-602,134,-10.1226,1.12787,-0.00789385,0.00426191,0.000358716,0.00427249,-0.00790443,1.54132,0.00713382,0.0112087,622,890,-10.1226,-1.12788
-595,134,-10.1178,1.02277,-0.00833349,0.00237415,0.00122983,0.00251358,-0.00847293,1.4579,0.00664684,0.0111315,629,890,-10.1178,-1.02278
-588,134,-10.2654,0.92804,-0.00910418,0.000652625,0.00194177,0.00102487,-0.00947642,1.38139,0.00668547,0.0187274,636,890,-10.2655,-0.928053
-581,134,-10.2313,0.740295,-0.0101654,-0.000994164,0.00283042,-0.000190982,-0.0109686,1.2943,0.00724956,0.0239213,643,890,-10.2313,-0.740324
-574,134,-10.1898,0.6026,-0.0112493,-0.00153512,0.00313988,-0.000608603,-0.0121758,1.28386,0.00792215,0.0249394,650,890,-10.1898,-0.602607
-567,134,-10.0685,0.514832,-0.0119334,-0.00186659,0.00334359,-0.000857252,-0.0129427,1.27762,0.0083574,0.0217009,657,890,-10.0686,-0.514815
-560,134,-10.4447,0.713562,-0.0124776,-0.00220286,0.00357278,-0.00108265,-0.0135979,1.26696,0.00872677,0.0373893,664,890,-10.4447,-0.713559
-553,134,-11.1216,1.0285,0,0,0,0,0,0,0,-1,671,890,-11.1216,-1.0285
-546,134,-11.5758,0.698303,-0.0124883,-0.00256094,0.00372935,-0.00131607,-0.0137332,1.24862,0.00874983,0.0262886,678,890,-11.5758,-0.698293
-539,134,-11.5806,0.662842,-0.011189,-0.00255386,0.00345646,-0.00134074,-0.0124022,1.23326,0.0078594,0.0179982,685,890,-11.5806,-0.662848
-532,134,-11.6544,0.684143,-0.00894618,-0.00247854,0.00293182,-0.00134737,-0.0100773,1.20257,0.00631719,0.0223788,692,890,-11.6544,-0.684119
-525,134,-11.7207,0.744141,-0.00555699,-0.00229238,0.00207038,-0.00128823,-0.00656114,1.11921,0.00401419,0.0338705,699,890,-11.7207,-0.744149
-518,134,-11.7222,0.663879,-0.000768889,-0.0019765,0.000809388,-0.000362898,-0.00238249,0.464929,0.00148225,0.0393357,706,890,-11.7222,-0.66387
-511,134,-11.7666,0.67804,0.00459777,-0.00145762,-0.000680885,0.00467338,-0.00153323,-0.110603,0.00373314,0.0423844,713,890,-11.7666,-0.678068
-504,134,0,0,0,0,0,0,0,0,0,-1,720,890,0,0
-497,134,0,0,0,0,0,0,0,0,0,-1,727,890,0,0
-490,134,0,0,0,0,0,0,0,0,0,-1,734,890,0,0
-483,134,0,0,0,0,0,0,0,0,0,-1,741,890,0,0
-476,134,0,0,0,0,0,0,0,0,0,-1,748,890,0,0
-469,134,0,0,0,0,0,0,0,0,0,-1,755,890,0,0
-462,134,0,0,0,0,0,0,0,0,0,-1,762,890,0,0
-455,134,0,0,0,0,0,0,0,0,0,-1,769,890,0,0
-448,134,0,0,0,0,0,0,0,0,0,-1,776,890,0,0
-441,134,0,0,0,0,0,0,0,0,0,-1,783,890,0,0
-434,134,0,0,0,0,0,0,0,0,0,-1,790,890,0,0
-427,134,0,0,0,0,0,0,0,0,0,-1,797,890,0,0
-420,134,0,0,0,0,0,0,0,0,0,-1,804,890,0,0
-413,134,0,0,0,0,0,0,0,0,0,-1,811,890,0,0
-406,134,0,0,0,0,0,0,0,0,0,-1,818,890,0,0
-399,134,0,0,0,0,0,0,0,0,0,-1,825,890,0,0
-392,134,0,0,0,0,0,0,0,0,0,-1,832,890,0,0
-385,134,0,0,0,0,0,0,0,0,0,-1,839,890,0,0
-378,134,0,0,0,0,0,0,0,0,0,-1,846,890,0,0
-371,134,0,0,0,0,0,0,0,0,0,-1,853,890,0,0
-364,134,0,0,0,0,0,0,0,0,0,-1,860,890,0,0
-357,134,0,0,0,0,0,0,0,0,0,-1,867,890,0,0
-350,134,0,0,0,0,0,0,0,0,0,-1,874,890,0,0
-343,134,0,0,0,0,0,0,0,0,0,-1,881,890,0,0
-336,134,0,0,0,0,0,0,0,0,0,-1,888,890,0,0
-329,134,0,0,0,0,0,0,0,0,0,-1,895,890,0,0
-322,134,0,0,0,0,0,0,0,0,0,-1,902,890,0,0
-315,134,0,0,0,0,0,0,0,0,0,-1,909,890,0,0
-308,134,0,0,0,0,0,0,0,0,0,-1,916,890,0,0
-301,134,0,0,0,0,0,0,0,0,0,-1,923,890,0,0
-294,134,0,0,0,0,0,0,0,0,0,-1,930,890,0,0
-287,134,0,0,0,0,0,0,0,0,0,-1,937,890,0,0
-280,134,0,0,0,0,0,0,0,0,0,-1,944,890,0,0
-273,134,0,0,0,0,0,0,0,0,0,-1,951,890,0,0
-266,134,0,0,0,0,0,0,0,0,0,-1,958,890,0,0
-259,134,0,0,0,0,0,0,0,0,0,-1,965,890,0,0
-252,134,0,0,0,0,0,0,0,0,0,-1,972,890,0,0
-245,134,0,0,0,0,0,0,0,0,0,-1,979,890,0,0
-238,134,0,0,0,0,0,0,0,0,0,-1,986,890,0,0
-231,134,0,0,0,0,0,0,0,0,0,-1,993,890,0,0
-224,134,0,0,0,0,0,0,0,0,0,-1,1000,890,0,0
-217,134,0,0,0,0,0,0,0,0,0,-1,1007,890,0,0
-210,134,0,0,0,0,0,0,0,0,0,-1,1014,890,0,0
-203,134,0,0,0,0,0,0,0,0,0,-1,1021,890,0,0
-196,134,0,0,0,0,0,0,0,0,0,-1,1028,890,0,0
-189,134,0,0,0,0,0,0,0,0,0,-1,1035,890,0,0
-182,134,0,0,0,0,0,0,0,0,0,-1,1042,890,0,0
-175,134,0,0,0,0,0,0,0,0,0,-1,1049,890,0,0
-168,134,0,0,0,0,0,0,0,0,0,-1,1056,890,0,0
-161,134,0,0,0,0,0,0,0,0,0,-1,1063,890,0,0
-154,134,0,0,0,0,0,0,0,0,0,-1,1070,890,0,0
-147,134,0,0,0,0,0,0,0,0,0,-1,1077,890,0,0
-140,134,0,0,0,0,0,0,0,0,0,-1,1084,890,0,0
-133,134,0,0,0,0,0,0,0,0,0,-1,1091,890,0,0
-126,134,0,0,0,0,0,0,0,0,0,-1,1098,890,0,0
-119,134,0,0,0,0,0,0,0,0,0,-1,1105,890,0,0
-112,134,0,0,0,0,0,0,0,0,0,-1,1112,890,0,0
-105,134,0,0,0,0,0,0,0,0,0,-1,1119,890,0,0
-98,134,0,0,0,0,0,0,0,0,0,-1,1126,890,0,0
-91,134,0,0,0,0,0,0,0,0,0,-1,1133,890,0,0
-84,134,0,0,0,0,0,0,0,0,0,-1,1140,890,0,0
-77,134,0,0,0,0,0,0,0,0,0,-1,1147,890,0,0
-70,134,0,0,0,0,0,0,0,0,0,-1,1154,890,0,0
-63,134,0,0,0,0,0,0,0,0,0,-1,1161,890,0,0
-56,134,0,0,0,0,0,0,0,0,0,-1,1168,890,0,0
-49,134,0,0,0,0,0,0,0,0,0,-1,1175,890,0,0
-42,134,0,0,0,0,0,0,0,0,0,-1,1182,890,0,0
-35,134,0,0,0,0,0,0,0,0,0,-1,1189,890,0,0
-28,134,0,0,0,0,0,0,0,0,0,-1,1196,890,0,0
-21,134,0,0,0,0,0,0,0,0,0,-1,1203,890,0,0
-14,134,0,0,0,0,0,0,0,0,0,-1,1210,890,0,0
-7,134,0,0,0,0,0,0,0,0,0,-1,1217,890,0,0
0,134,0,0,0,0,0,0,0,0,0,-1,1224,890,0,0
7,134,0,0,0,0,0,0,0,0,0,-1,1231,890,0,0
14,134,0,0,0,0,0,0,0,0,0,-1,1238,890,0,0
21,134,0,0,0,0,0,0,0,0,0,-1,1245,890,0,0
28,134,0,0,0,0,0,0,0,0,0,-1,1252,890,0,0
35,134,0,0,0,0,0,0,0,0,0,-1,1259,890,0,0
42,134,0,0,0,0,0,0,0,0,0,-1,1266,890,0,0
49,134,0,0,0,0,0,0,0,0,0,-1,1273,890,0,0
56,134,0,0,0,0,0,0,0,0,0,-1,1280,890,0,0
63,134,0,0,0,0,0,0,0,0,0,-1,1287,890,0,0
70,134,0,0,0,0,0,0,0,0,0,-1,1294,890,0,0
77,134,0,0,0,0,0,0,0,0,0,-1,1301,890,0,0
84,134,0,0,0,0,0,0,0,0,0,-1,1308,890,0,0
91,134,0,0,0,0,0,0,0,0,0,-1,1315,890,0,0
98,134,0,0,0,0,0,0,0,0,0,-1,1322,890,0,0
105,134,0,0,0,0,0,0,0,0,0,-1,1329,890,0,0
112,134,0,0,0,0,0,0,0,0,0,-1,1336,890,0,0
119,134,0,0,0,0,0,0,0,0,0,-1,1343,890,0,0
126,134,0,0,0,0,0,0,0,0,0,-1,1350,890,0,0
133,134,0,0,0,0,0,0,0,0,0,-1,1357,890,0,0
140,134,0,0,0,0,0,0,0,0,0,-1,1364,890,0,0
147,134,0,0,0,0,0,0,0,0,0,-1,1371,890,0,0
154,134,0,0,0,0,0,0,0,0,0,-1,1378,890,0,0
161,134,0,0,0,0,0,0,0,0,0,-1,1385,890,0,0
168,134,0,0,0,0,0,0,0,0,0,-1,1392,890,0,0
175,134,0,0,0,0,0,0,0,0,0,-1,1399,890,0,0
182,134,0,0,0,0,0,0,0,0,0,-1,1406,890,0,0
189,134,0,0,0,0,0,0,0,0,0,-1,1413,890,0,0
196,134,0,0,0,0,0,0,0,0,0,-1,1420,890,0,0
203,134,0,0,0,0,0,0,0,0,0,-1,1427,890,0,0
210,134,0,0,0,0,0,0,0,0,0,-1,1434,890,0,0
217,134,0,0,0,0,0,0,0,0,0,-1,1441,890,0,0
224,134,0,0,0,0,0,0,0,0,0,-1,1448,890,0,0
231,134,0,0,0,0,0,0,0,0,0,-1,1455,890,0,0
238,134,0,0,0,0,0,0,0,0,0,-1,1462,890,0,0
245,134,0,0,0,0,0,0,0,0,0,-1,1469,890,0,0
252,134,0,0,0,0,0,0,0,0,0,-1,1476,890,0,0
259,134,0,0,0,0,0,0,0,0,0,-1,1483,890,0,0
266,134,0,0,0,0,0,0,0,0,0,-1,1490,890,0,0
273,134,0,0,0,0,0,0,0,0,0,-1,1497,890,0,0
280,134,0,0,0,0,0,0,0,0,0,-1,1504,890,0,0
287,134,0,0,0,0,0,0,0,0,0,-1,1511,890,0,0
294,134,0,0,0,0,0,0,0,0,0,-1,1518,890,0,0
301,134,0,0,0,0,0,0,0,0,0,-1,1525,890,0,0
308,134,0,0,0,0,0,0,0,0,0,-1,1532,890,0,0
315,134,0,0,0,0,0,0,0,0,0,-1,1539,890,0,0
322,134,0,0,0,0,0,0,0,0,0,-1,1546,890,0,0
329,134,0,0,0,0,0,0,0,0,0,-1,1553,890,0,0
336,134,0,0,0,0,0,0,0,0,0,-1,1560,890,0,0
343,134,0,0,0,0,0,0,0,0,0,-1,1567,890,0,0
350,134,0,0,0,0,0,0,0,0,0,-1,1574,890,0,0
357,134,0,0,0,0,0,0,0,0,0,-1,1581,890,0,0
364,134,0,0,0,0,0,0,0,0,0,-1,1588,890,0,0
371,134,0,0,0,0,0,0,0,0,0,-1,1595,890,0,0
378,134,0,0,0,0,0,0,0,0,0,-1,1602,890,0,0
385,134,0,0,0,0,0,0,0,0,0,-1,1609,890,0,0
392,134,0,0,0,0,0,0,0,0,0,-1,1616,890,0,0
399,134,0,0,0,0,0,0,0,0,0,-1,1623,890,0,0
406,134,0,0,0,0,0,0,0,0,0,-1,1630,890,0,0
413,134,0,0,0,0,0,0,0,0,0,-1,1637,890,0,0
420,134,0,0,0,0,0,0,0,0,0,-1,1644,890,0,0
427,134,0,0,0,0,0,0,0,0,0,-1,1651,890,0,0
434,134,0,0,0,0,0,0,0,0,0,-1,1658,890,0,0
441,134,0,0,0,0,0,0,0,0,0,-1,1665,890,0,0
448,134,0,0,0,0,0,0,0,0,0,-1,1672,890,0,0
455,134,0,0,0,0,0,0,0,0,0,-1,1679,890,0,0
462,134,0,0,0,0,0,0,0,0,0,-1,1686,890,0,0
469,134,0,0,0,0,0,0,0,0,0,-1,1693,890,0,0
476,134,0,0,0,0,0,0,0,0,0,-1,1700,890,0,0
483,134,0,0,0,0,0,0,0,0,0,-1,1707,890,0,0
490,134,0,0,0,0,0,0,0,0,0,-1,1714,890,0,0
497,134,0,0,0,0,0,0,0,0,0,-1,1721,890,0,0
504,134,0,0,0,0,0,0,0,0,0,-1,1728,890,0,0
511,134,0,0,0,0,0,0,0,0,0,-1,1735,890,0,0
518,134,0,0,0,0,0,0,0,0,0,-1,1742,890,0,0
525,134,0,0,0,0,0,0,0,0,0,-1,1749,890,0,0
532,134,0,0,0,0,0,0,0,0,0,-1,1756,890,0,0
539,134,0,0,0,0,0,0,0,0,0,-1,1763,890,0,0
546,134,0,0,0,0,0,0,0,0,0,-1,1770,890,0,0
553,134,0,0,0,0,0,0,0,0,0,-1,1777,890,0,0
560,134,0,0,0,0,0,0,0,0,0,-1,1784,890,0,0
567,134,0,0,0,0,0,0,0,0,0,-1,1791,890,0,0
574,134,0,0,0,0,0,0,0,0,0,-1,1798,890,0,0
581,134,0,0,0,0,0,0,0,0,0,-1,1805,890,0,0
588,134,0,0,0,0,0,0,0,0,0,-1,1812,890,0,0
595,134,0,0,0,0,0,0,0,0,0,-1,1819,890,0,0
602,134,0,0,0,0,0,0,0,0,0,-1,1826,890,0,0
609,134,0,0,0,0,0,0,0,0,0,-1,1833,890,0,0
616,134,0,0,0,0,0,0,0,0,0,-1,1840,890,0,0
623,134,17.761,2.27112,0,0,0,0,0,0,0,-1,1847,890,17.7609,-2.2711
630,134,17.5787,2.41718,0,0,0,0,0,0,0,-1,1854,890,17.5787,-2.4172
637,134,17.8149,2.47876,0.00155394,0.000426491,-0.00161436,0.00270017,-0.000719735,-0.617419,0.00208192,0.0442406,1861,890,17.8149,-2.47879
644,134,17.9156,2.61774,3.68745e-05,-8.90268e-05,-0.00135699,0.00133237,-0.00138452,-0.76222,0.00156869,0.0399653,1868,890,17.9157,-2.61775
651,134,17.9672,2.62695,-0.00251818,-0.000532512,-0.00170563,0.000448204,-0.00349889,-1.04897,0.00249545,0.0429455,1875,890,17.9671,-2.62693
658,134,17.91,2.57434,-0.00510966,-0.00089,-0.00218022,3.41004e-05,-0.00603376,-1.16989,0.00403392,0.039696,1882,890,17.9101,-2.57434
665,134,17.8016,2.52051,-0.00709594,-0.00114436,-0.00255565,-0.000197568,-0.00804273,-1.216,0.00529719,0.0305329,1889,890,17.8016,-2.52048
672,134,17.793,2.50037,-0.0085986,-0.00120624,-0.00274174,-0.000300372,-0.00950448,-1.25169,0.0062386,0.0217189,1896,890,17.793,-2.50039
679,134,17.8102,2.44598,-0.00941687,-0.00135259,-0.00288417,-0.000427253,-0.0103422,-1.26034,0.00675689,0.0185728,1903,890,17.8101,-2.44601
686,134,17.5032,2.52692,0,0,0,0,0,0,0,-1,1910,890,17.5032,-2.52693
693,134,16.3676,2.58582,-0.00999668,-0.00122764,-0.0030627,-0.000263869,-0.0109604,-1.26593,0.00722061,0.0342595,1917,890,16.3675,-2.58584
700,134,15.5712,2.66748,-0.00993022,-0.00114855,-0.00295063,-0.000249237,-0.0108295,-1.27495,0.00713806,0.0201934,1924,890,15.5711,-2.66747
707,134,15.4907,2.74677,-0.00931789,-0.000968555,-0.0026217,-0.000213604,-0.0100728,-1.29042,0.00664517,0.0195627,1931,890,15.4907,-2.74675
714,134,15.5349,2.93304,-0.0082843,-0.000587485,-0.00220709,4.91273e-07,-0.00887227,-1.31044,0.00591501,0.0178001,1938,890,15.5349,-2.93302
721,134,15.6334,3.09631,-0.00730778,0.000175144,-0.00186917,0.000616064,-0.0077487,-1.33914,0.00538292,0.0143576,1945,890,15.6334,-3.09634
728,134,15.6544,3.23743,-0.00655991,0.000953973,-0.00127401,0.00116411,-0.00677004,-1.40733,0.00494727,0.0147696,1952,890,15.6544,-3.23745
735,134,15.6263,3.38617,-0.00520177,0.00142643,-0.000416373,0.00145248,-0.00522782,-1.50831,0.00405699,0.0207114,1959,890,15.6263,-3.38617
742,134,15.609,3.54828,-0.00355111,0.00294037,0.00115697,0.00314041,-0.00375115,1.39959,0.00398405,0.0141825,1966,890,15.6091,-3.54831
749,134,15.6227,3.6651,-0.00147755,0.00439229,0.00337109,0.00592705,-0.0030123,1.14357,0.00525179,0.0118734,1973,890,15.6227,-3.66507
756,134,15.6201,3.80035,-0.000217345,0.00585355,0.00570072,0.00927659,-0.00364039,1.03004,0.00769063,0.0163682,1980,890,15.6202,-3.80037
763,134,15.6741,3.95715,0.00151009,0.00754403,0.00893652,0.0139591,-0.00490499,0.948191,0.0113016,0.0365223,1987,890,15.6741,-3.95716
770,134,15.7506,4.07813,0.00449408,0.00942908,0.0134214,0.0206079,-0.00668475,0.876307,0.0164267,0.0460513,1994,890,15.7506,-4.07815
777,134,15.8364,4.23376,0,0,0,0,0,0,0,-1,2001,890,15.8364,-4.23379
784,134,17.6884,5.02216,0.0159757,0.013622,0.0275925,0.0424165,-0.0128187,0.764085,0.0333813,0.045137,2008,890,17.6883,-5.02217
791,134,17.7467,5.54114,0.0254607,0.015802,0.0380977,0.0590339,-0.0177712,0.722353,0.0464276,0.0436748,2015,890,17.7467,-5.54115
798,134,0,0,0,0,0,0,0,0,0,-1,2022,890,0,0
805,134,0,0,0,0,0,0,0,0,0,-1,2029,890,0,0
812,134,0,0,0,0,0,0,0,0,0,-1,2036,890,0,0
-700,127,0,0,0,0,0,0,0,0,0,-1,524,897,0,0
-693,127,0,0,0,0,0,0,0,0,0,-1,531,897,0,0
-686,127,0,0,0,0,0,0,0,0,0,-1,538,897,0,0
-679,127,-11.6696,2.49725,0.0609442,0.0463017,0.0223798,0.0771699,0.030076,0.627316,0.0449137,0.0453892,545,897,-11.6696,-2.49727
-672,127,-11.0453,1.98346,0.041844,0.0417214,0.0140747,0.0558575,0.0277078,0.783221,0.0322497,0.0470061,552,897,-11.0453,-1.98345
-665,127,-10.1391,1.62793,0.0275121,0.0369027,0.0087086,0.0421011,0.0223137,1.03264,0.0243217,0.0477083,559,897,-10.1391,-1.62794
-658,127,-9.40503,1.20276,0,0,0,0,0,0,0,-1,566,897,-9.40502,-1.20275
-651,127,-11.3325,0.793945,0.00908109,0.0274909,0.00271752,0.0278836,0.00868833,1.42726,0.0164752,0.0449588,573,897,-11.3325,-0.793921
-644,127,-10.9365,1.09576,0,0,0,0,0,0,0,-1,580,897,-10.9365,-1.09573
-637,127,-10.5183,1.46704,-0.000179174,0.0188043,0.000286691,0.0188086,-0.000183502,1.5557,0.0126007,0.0416673,587,897,-10.5183,-1.46704
-630,127,-10.0963,1.51959,-0.00249884,0.0149565,-0.000655696,0.0149811,-0.00252344,-1.5333,0.0109261,0.030066,594,897,-10.0962,-1.51959
-623,127,-10.1949,1.41571,-0.00446951,0.011127,-0.000885108,0.011177,-0.00451958,-1.51429,0.0093302,0.0125867,601,897,-10.1949,-1.41568
-616,127,-10.2383,1.34076,-0.00553388,0.0082807,-0.000443758,0.00829494,-0.00554812,-1.53872,0.00804457,0.0103792,608,897,-10.2383,-1.34075
-609,127,-10.2446,1.24628,-0.00652331,0.00532351,-0.000193374,0.00532666,-0.00652647,-1.55448,0.00685508,0.0135467,615,897,-10.2447,-1.24627
-602,127,-10.2404,1.14752,-0.00706426,0.00309825,0.000368433,0.00311159,-0.0070776,1.53461,0.00602944,0.0136249,622,897,-10.2404,-1.14754
-595,127,-10.2402,1.03552,-0.00780161,0.00174743,0.00115281,0.00188464,-0.00793881,1.45234,0.00601991,0.0130088,629,897,-10.2402,-1.03554
-588,127,-10.3223,0.927612,-0.00871996,0.000386294,0.00172193,0.000701021,-0.00903468,1.39002,0.00626987,0.0173427,636,897,-10.3223,-0.92761
-581,127,-10.3431,0.754761,-0.00976767,-0.000963354,0.0024597,-0.000322784,-0.0104082,1.31603,0.00683378,0.0251689,643,897,-10.3432,-0.754789
-574,127,-10.2894,0.624878,-0.010717,-0.00139777,0.00271816,-0.000662905,-0.0114519,1.30676,0.00742348,0.026046,650,897,-10.2894,-0.624891
-567,127,-10.2318,0.491272,-0.0112579,-0.00167225,0.00288414,-0.000871378,-0.0120588,1.29994,0.00776504,0.0387997,657,897,-10.2317,-0.491281
-560,127,-10.8083,0.617859,-0.0116471,-0.00200827,0.00306021,-0.00111877,-0.0125366,1.28793,0.00801086,0.0392086,664,897,-10.8083,-0.61788
-553,127,-11.566,0.777161,0,0,0,0,0,0,0,-1,671,897,-11.566,-0.777138
-546,127,-11.62,0.675903,-0.0111487,-0.00241696,0.00312001,-0.0014167,-0.012149,1.26056,0.00767081,0.0236355,678,897,-11.62,-0.675912
-539,127,-11.5873,0.666199,-0.00965905,-0.00248577,0.00284377,-0.00149518,-0.0106496,1.2356,0.00665757,0.0213295,685,897,-11.5873,-0.666197
-532,127,-11.5775,0.723206,-0.00727045,-0.00249803,0.00233314,-0.00154694,-0.00822154,1.18372,0.00504506,0.0166266,692,897,-11.5775,-0.723224
-525,127,-11.6503,0.801697,-0.0038217,-0.00243864,0.00151985,-0.00146039,-0.00479995,0.9989,0.00284116,0.0313104,699,897,-11.6503,-0.801671
-518,127,-11.5595,0.706848,0.000783677,-0.00229006,0.000367524,0.00082701,-0.0023334,0.117365,0.00189249,0.0388172,706,897,-11.5595,-0.706856
-511,127,-11.6254,0.708069,0.00521968,-0.00192472,-0.000827838,0.00531435,-0.00201939,-0.113862,0.00437427,0.042167,713,897,-11.6254,-0.708043
-504,127,0,0,0,0,0,0,0,0,0,-1,720,897,0,0
-497,127,0,0,0,0,0,0,0,0,0,-1,727,897,0,0
-490,127,0,0,0,0,0,0,0,0,0,-1,734,897,0,0
-483,127,0,0,0,0,0,0,0,0,0,-1,741,897,0,0
-476,127,0,0,0,0,0,0,0,0,0,-1,748,897,0,0
-469,127,0,0,0,0,0,0,0,0,0,-1,755,897,0,0
-462,127,0,0,0,0,0,0,0,0,0,-1,762,897,0,0
-455,127,0,0,0,0,0,0,0,0,0,-1,769,897,0,0
-448,127,0,0,0,0,0,0,0,0,0,-1,776,897,0,0
-441,127,0,0,0,0,0,0,0,0,0,-1,783,897,0,0
-434,127,0,0,0,0,0,0,0,0,0,-1,790,897,0,0
-427,127,0,0,0,0,0,0,0,0,0,-1,797,897,0,0
-420,127,0,0,0,0,0,0,0,0,0,-1,804,897,0,0
-413,127,0,0,0,0,0,0,0,0,0,-1,811,897,0,0
-406,127,0,0,0,0,0,0,0,0,0,-1,818,897,0,0
-399,127,0,0,0,0,0,0,0,0,0,-1,825,897,0,0
-392,127,0,0,0,0,0,0,0,0,0,-1,832,897,0,0
-385,127,0,0,0,0,0,0,0,0,0,-1,839,897,0,0
-378,127,0,0,0,0,0,0,0,0,0,-1,846,897,0,0
-371,127,0,0,0,0,0,0,0,0,0,-1,853,897,0,0
-364,127,0,0,0,0,0,0,0,0,0,-1,860,897,0,0
-357,127,0,0,0,0,0,0,0,0,0,-1,867,897,0,0
-350,127,0,0,0,0,0,0,0,0,0,-1,874,897,0,0
-343,127,0,0,0,0,0,0,0,0,0,-1,881,897,0,0
-336,127,0,0,0,0,0,0,0,0,0,-1,888,897,0,0
-329,127,0,0,0,0,0,0,0,0,0,-1,895,897,0,0
-322,127,0,0,0,0,0,0,0,0,0,-1,902,897,0,0
-315,127,0,0,0,0,0,0,0,0,0,-1,909,897,0,0
-308,127,0,0,0,0,0,0,0,0,0,-1,916,897,0,0
-301,127,0,0,0,0,0,0,0,0,0,-1,923,897,0,0
-294,127,0,0,0,0,0,0,0,0,0,-1,930,897,0,0
-287,127,0,0,0,0,0,0,0,0,0,-1,937,897,0,0
-280,127,0,0,0,0,0,0,0,0,0,-1,944,897,0,0
-273,127,0,0,0,0,0,0,0,0,0,-1,951,897,0,0
-266,127,0,0,0,0,0,0,0,0,0,-1,958,897,0,0
-259,127,0,0,0,0,0,0,0,0,0,-1,965,897,0,0
-252,127,0,0,0,0,0,0,0,0,0,-1,972,897,0,0
-245,127,0,0,0,0,0,0,0,0,0,-1,979,897,0,0
-238,127,0,0,0,0,0,0,0,0,0,-1,986,897,0,0
-231,127,0,0,0,0,0,0,0,0,0,-1,993,897,0,0
-224,127,0,0,0,0,0,0,0,0,0,-1,1000,897,0,0
-217,127,0,0,0,0,0,0,0,0,0,-1,1007,897,0,0
-210,127,0,0,0,0,0,0,0,0,0,-1,1014,897,0,0
-203,127,0,0,0,0,0,0,0,0,0,-1,1021,897,0,0
-196,127,0,0,0,0,0,0,0,0,0,-1,1028,897,0,0
-189,127,0,0,0,0,0,0,0,0,0,-1,1035,897,0,0
-182,127,0,0,0,0,0,0,0,0,0,-1,1042,897,0,0
-175,127,0,0,0,0,0,0,0,0,0,-1,1049,897,0,0
-168,127,0,0,0,0,0,0,0,0,0,-1,1056,897,0,0
-161,127,0,0,0,0,0,0,0,0,0,-1,1063,897,0,0
-154,127,0,0,0,0,0,0,0,0,0,-1,1070,897,0,0
-147,127,0,0,0,0,0,0,0,0,0,-1,1077,897,0,0
-140,127,0,0,0,0,0,0,0,0,0,-1,1084,897,0,0
-133,127,0,0,0,0,0,0,0,0,0,-1,1091,897,0,0
-126,127,0,0,0,0,0,0,0,0,0,-1,1098,897,0,0
-119,127,0,0,0,0,0,0,0,0,0,-1,1105,897,0,0
-112,127,0,0,0,0,0,0,0,0,0,-1,1112,897,0,0
-105,127,0,0,0,0,0,0,0,0,0,-1,1119,897,0,0
-98,127,0,0,0,0,0,0,0,0,0,-1,1126,897,0,0
-91,127,0,0,0,0,0,0,0,0,0,-1,1133,897,0,0
-84,127,0,0,0,0,0,0,0,0,0,-1,1140,897,0,0
-77,127,0,0,0,0,0,0,0,0,0,-1,1147,897,0,0
-70,127,0,0,0,0,0,0,0,0,0,-1,1154,897,0,0
-63,127,0,0,0,0,0,0,0,0,0,-1,1161,897,0,0
-56,127,0,0,0,0,0,0,0,0,0,-1,1168,897,0,0
-49,127,0,0,0,0,0,0,0,0,0,-1,1175,897,0,0
-42,127,0,0,0,0,0,0,0,0,0,-1,1182,897,0,0
-35,127,0,0,0,0,0,0,0,0,0,-1,1189,897,0,0
-28,127,0,0,0,0,0,0,0,0,0,-1,1196,897,0,0
-21,127,0,0,0,0,0,0,0,0,0,-1,1203,897,0,0
-14,127,0,0,0,0,0,0,0,0,0,-1,1210,897,0,0
-7,127,0,0,0,0,0,0,0,0,0,-1,1217,897,0,0
0,127,0,0,0,0,0,0,0,0,0,-1,1224,897,0,0
7,127,0,0,0,0,0,0,0,0,0,-1,1231,897,0,0
14,127,0,0,0,0,0,0,0,0,0,-1,1238,897,0,0
21,127,0,0,0,0,0,0,0,0,0,-1,1245,897,0,0
28,127,0,0,0,0,0,0,0,0,0,-1,1252,897,0,0
35,127,0,0,0,0,0,0,0,0,0,-1,1259,897,0,0
42,127,0,0,0,0,0,0,0,0,0,-1,1266,897,0,0
49,127,0,0,0,0,0,0,0,0,0,-1,1273,897,0,0
56,127,0,0,0,0,0,0,0,0,0,-1,1280,897,0,0
63,127,0,0,0,0,0,0,0,0,0,-1,1287,897,0,0
70,127,0,0,0,0,0,0,0,0,0,-1,1294,897,0,0
77,127,0,0,0,0,0,0,0,0,0,-1,1301,897,0,0
84,127,0,0,0,0,0,0,0,0,0,-1,1308,897,0,0
91,127,0,0,0,0,0,0,0,0,0,-1,1315,897,0,0
98,127,0,0,0,0,0,0,0,0,0,-1,1322,897,0,0
105,127,0,0,0,0,0,0,0,0,0,-1,1329,897,0,0
112,127,0,0,0,0,0,0,0,0,0,-1,1336,897,0,0
119,127,0,0,0,0,0,0,0,0,0,-1,1343,897,0,0
126,127,0,0,0,0,0,0,0,0,0,-1,1350,897,0,0
133,127,0,0,0,0,0,0,0,0,0,-1,1357,897,0,0
140,127,0,0,0,0,0,0,0,0,0,-1,1364,897,0,0
147,127,0,0,0,0,0,0,0,0,0,-1,1371,897,0,0
154,127,0,0,0,0,0,0,0,0,0,-1,1378,897,0,0
161,127,0,0,0,0,0,0,0,0,0,-1,1385,897,0,0
168,127,0,0,0,0,0,0,0,0,0,-1,1392,897,0,0
175,127,0,0,0,0,0,0,0,0,0,-1,1399,897,0,0
182,127,0,0,0,0,0,0,0,0,0,-1,1406,897,0,0
189,127,0,0,0,0,0,0,0,0,0,-1,1413,897,0,0
196,127,0,0,0,0,0,0,0,0,0,-1,1420,897,0,0
203,127,0,0,0,0,0,0,0,0,0,-1,1427,897,0,0
210,127,0,0,0,0,0,0,0,0,0,-1,1434,897,0,0
217,127,0,0,0,0,0,0,0,0,0,-1,1441,897,0,0
224,127,0,0,0,0,0,0,0,0,0,-1,1448,897,0,0
231,127,0,0,0,0,0,0,0,0,0,-1,1455,897,0,0
238,127,0,0,0,0,0,0,0,0,0,-1,1462,897,0,0
245,127,0,0,0,0,0,0,0,0,0,-1,1469,897,0,0
252,127,0,0,0,0,0,0,0,0,0,-1,1476,897,0,0
259,127,0,0,0,0,0,0,0,0,0,-1,1483,897,0,0
266,127,0,0,0,0,0,0,0,0,0,-1,1490,897,0,0
273,127,0,0,0,0,0,0,0,0,0,-1,1497,897,0,0
280,127,0,0,0,0,0,0,0,0,0,-1,1504,897,0,0
287,127,0,0,0,0,0,0,0,0,0,-1,1511,897,0,0
294,127,0,0,0,0,0,0,0,0,0,-1,1518,897,0,0
301,127,0,0,0,0,0,0,0,0,0,-1,1525,897,0,0
308,127,0,0,0,0,0,0,0,0,0,-1,1532,897,0,0
315,127,0,0,0,0,0,0,0,0,0,-1,1539,897,0,0
322,127,0,0,0,0,0,0,0,0,0,-1,1546,897,0,0
329,127,0,0,0,0,0,0,0,0,0,-1,1553,897,0,0
336,127,0,0,0,0,0,0,0,0,0,-1,1560,897,0,0
343,127,0,0,0,0,0,0,0,0,0,-1,1567,897,0,0
350,127,0,0,0,0,0,0,0,0,0,-1,1574,897,0,0
357,127,0,0,0,0,0,0,0,0,0,-1,1581,897,0,0
364,127,0,0,0,0,0,0,0,0,0,-1,1588,897,0,0
371,127,0,0,0,0,0,0,0,0,0,-1,1595,897,0,0
378,127,0,0,0,0,0,0,0,0,0,-1,1602,897,0,0
385,127,0,0,0,0,0,0,0,0,0,-1,1609,897,0,0
392,127,0,0,0,0,0,0,0,0,0,-1,1616,897,0,0
399,127,0,0,0,0,0,0,0,0,0,-1,1623,897,0,0
406,127,0,0,0,0,0,0,0,0,0,-1,1630,897,0,0
413,127,0,0,0,0,0,0,0,0,0,-1,1637,897,0,0
420,127,0,0,0,0,0,0,0,0,0,-1,1644,897,0,0
427,127,0,0,0,0,0,0,0,0,0,-1,1651,897,0,0
434,127,0,0,0,0,0,0,0,0,0,-1,1658,897,0,0
441,127,0,0,0,0,0,0,0,0,0,-1,1665,897,0,0
448,127,0,0,0,0,0,0,0,0,0,-1,1672,897,0,0
455,127,0,0,0,0,0,0,0,0,0,-1,1679,897,0,0
462,127,0,0,0,0,0,0,0,0,0,-1,1686,897,0,0
469,127,0,0,0,0,0,0,0,0,0,-1,1693,897,0,0
476,127,0,0,0,0,0,0,0,0,0,-1,1700,897,0,0
483,127,0,0,0,0,0,0,0,0,0,-1,1707,897,0,0
490,127,0,0,0,0,0,0,0,0,0,-1,1714,897,0,0
497,127,0,0,0,0,0,0,0,0,0,-1,1721,897,0,0
504,127,0,0,0,0,0,0,0,0,0,-1,1728,897,0,0
511,127,0,0,0,0,0,0,0,0,0,-1,1735,897,0,0
518,127,0,0,0,0,0,0,0,0,0,-1,1742,897,0,0
525,127,0,0,0,0,0,0,0,0,0,-1,1749,897,0,0
532,127,0,0,0,0,0,0,0,0,0,-1,1756,897,0,0
539,127,0,0,0,0,0,0,0,0,0,-1,1763,897,0,0
546,127,0,0,0,0,0,0,0,0,0,-1,1770,897,0,0
553,127,0,0,0,0,0,0,0,0,0,-1,1777,897,0,0
560,127,0,0,0,0,0,0,0,0,0,-1,1784,897,0,0
567,127,0,0,0,0,0,0,0,0,0,-1,1791,897,0,0
574,127,0,0,0,0,0,0,0,0,0,-1,1798,897,0,0
581,127,0,0,0,0,0,0,0,0,0,-1,1805,897,0,0
588,127,0,0,0,0,0,0,0,0,0,-1,1812,897,0,0
595,127,0,0,0,0,0,0,0,0,0,-1,1819,897,0,0
602,127,0,0,0,0,0,0,0,0,0,-1,1826,897,0,0
609,127,0,0,0,0,0,0,0,0,0,-1,1833,897,0,0
616,127,0,0,0,0,0,0,0,0,0,-1,1840,897,0,0
623,127,0,0,0,0,0,0,0,0,0,-1,1847,897,0,0
630,127,17.3043,2.91284,0,0,0,0,0,0,0,-1,1854,897,17.3043,-2.91286
637,127,17.6527,2.88617,0.00115057,0.0017926,-0.000934806,0.00245997,0.000483195,-0.95079,0.001505,0.0408287,1861,897,17.6527,-2.88619
644,127,17.9705,2.75983,0.000254555,0.000879225,-0.0007055,0.00133844,-0.000204656,-0.993788,0.000967749,0.0386305,1868,897,17.9704,-2.75985
651,127,17.8787,2.77209,-0.00207063,0.000141216,-0.00114097,0.00062428,-0.00255369,-1.1703,0.00194426,0.0427119,1875,897,17.8787,-2.77208
658,127,17.8932,2.63904,-0.00470535,-0.000413611,-0.00171046,0.00018468,-0.00530364,-1.23431,0.0035989,0.0425875,1882,897,17.8931,-2.63902
665,127,17.7971,2.5022,-0.00680509,-0.000796869,-0.00217933,-8.96235e-05,-0.00751234,-1.25699,0.00497862,0.0370354,1889,897,17.7971,-2.50219
672,127,17.7415,2.45599,-0.0083744,-0.000958127,-0.00244225,-0.000226121,-0.0091064,-1.27959,0.00599698,0.0313357,1896,897,17.7415,-2.45599
679,127,17.7965,2.42896,-0.00925831,-0.00114925,-0.00262648,-0.000372875,-0.0100347,-1.28339,0.00656902,0.026013,1903,897,17.7965,-2.42893
686,127,17.817,2.3924,0,0,0,0,0,0,0,-1,1910,897,17.817,-2.3924
693,127,16.7188,2.56354,-0.00989365,-0.0010852,-0.00278739,-0.000277249,-0.0107016,-1.28867,0.0070438,0.0348001,1917,897,16.7188,-2.56354
700,127,15.7751,2.68304,-0.00983709,-0.00102908,-0.00269646,-0.000269151,-0.010597,-1.2961,0.00697669,0.0249561,1924,897,15.7751,-2.68303
707,127,15.6315,2.78998,-0.00920491,-0.000879417,-0.00243593,-0.000219072,-0.00986525,-1.30607,0.00650504,0.0241891,1931,897,15.6314,-2.78995
714,127,15.6803,2.9502,-0.00814142,-0.000515602,-0.00211288,3.06801e-05,-0.0086877,-1.31779,0.00580205,0.0197529,1938,897,15.6803,-2.95018
721,127,15.7908,3.13434,-0.00706215,0.000166432,-0.00186927,0.000621202,-0.00751691,-1.33214,0.00523065,0.0139165,1945,897,15.7908,-3.13435
728,127,15.7767,3.23901,-0.00605436,0.000945664,-0.00138593,0.00121007,-0.00631877,-1.38228,0.00466845,0.0133148,1952,897,15.7767,-3.23904
735,127,15.7596,3.36658,-0.00414262,0.00143948,-0.000646048,0.00151328,-0.00421642,-1.45706,0.00342856,0.019801,1959,897,15.7596,-3.36661
742,127,15.7495,3.51294,-0.00165178,0.00308594,0.00083203,0.00322782,-0.00179365,1.40191,0.00293829,0.0170958,1966,897,15.7495,-3.51297
749,127,15.7667,3.64545,0.00146828,0.00485496,0.00302787,0.00663083,-0.000307587,1.04036,0.00452657,0.0126888,1973,897,15.7668,-3.64545
756,127,15.7567,3.75385,0.00398562,0.00669486,0.00527992,0.0107912,-0.000110678,0.91097,0.00723128,0.014364,1980,897,15.7567,-3.75385
763,127,15.7538,3.87738,0.00714124,0.00895687,0.00844277,0.0165405,-0.000442382,0.838955,0.0111774,0.020947,1987,897,15.7537,-3.87737
770,127,16.323,3.76813,0.0116585,0.011615,0.0128227,0.0244594,-0.00118599,0.78455,0.0167156,0.0405825,1994,897,16.323,-3.7681
777,127,16.9498,3.67444,0,0,0,0,0,0,0,-1,2001,897,16.9498,-3.67443
784,127,18.3168,5.00079,0,0,0,0,0,0,0,-1,2008,897,18.3168,-5.00079
791,127,18.1527,5.43976,0,0,0,0,0,0,0,-1,2015,897,18.1527,-5.43973
798,127,0,0,0,0,0,0,0,0,0,-1,2022,897,0,0
805,127,0,0,0,0,0,0,0,0,0,-1,2029,897,0,0
812,127,0,0,0,0,0,0,0,0,0,-1,2036,897,0,0
-700,120,0,0,0,0,0,0,0,0,0,-1,524,904,0,0
-693,120,0,0,0,0,0,0,0,0,0,-1,531,904,0,0
-686,120,0,0,0,0,0,0,0,0,0,-1,538,904,0,0
-679,120,-11.5511,1.85388,0.0547981,0.0402745,0.0276437,0.0761179,0.0189547,0.656954,0.045755,0.0412734,545,904,-11.5511,-1.8539
-672,120,-10.8049,2.33136,0.0385745,0.0358621,0.0181558,0.0554247,0.0190119,0.748118,0.0325209,0.042544,552,904,-10.8049,-2.33135
-665,120,-10.248,1.82086,0.0262101,0.0313355,0.0118053,0.0408531,0.0166925,0.89228,0.0237176,0.0448234,559,904,-10.2481,-1.82089
-658,120,-9.85028,1.19977,0.016895,0.026937,0.00747193,0.0309182,0.0129138,1.08123,0.0179311,0.0438768,566,904,-9.8503,-1.19978
-651,120,-10.924,1.34424,0.0100002,0.022744,0.0045219,0.0241855,0.00855875,1.26221,0.0141609,0.0463451,573,904,-10.9239,-1.34423
-644,120,-10.2994,1.47125,0,0,0,0,0,0,0,-1,580,904,-10.2994,-1.47124
-637,120,-10.2328,1.64795,0.00152793,0.015142,0.00132807,0.0152704,0.00139959,1.47446,0.00974728,0.0370737,587,904,-10.2328,-1.64792
-630,120,-10.2795,1.53479,-0.000778429,0.0119478,-4.32313e-06,0.0119478,-0.000778431,-1.57046,0.00823694,0.0210056,594,904,-10.2795,-1.53478
-623,120,-10.3493,1.4184,-0.00288866,0.00865384,-0.000534804,0.00867856,-0.00291338,-1.52459,0.00696305,0.0102364,601,904,-10.3493,-1.41843
-616,120,-10.354,1.32092,-0.00421836,0.00626788,-0.000210837,0.00627212,-0.0042226,-1.5507,0.00609752,0.0100735,608,904,-10.354,-1.32089
-609,120,-10.3598,1.23175,-0.00545703,0.00377444,1.1727e-05,0.00377446,-0.00545705,1.56953,0.00535924,0.0129556,615,904,-10.3598,-1.23174
-602,120,-10.3705,1.14282,-0.0063442,0.00210559,0.000456291,0.00213016,-0.00636877,1.517,0.00510622,0.0128102,622,904,-10.3705,-1.14285
-595,120,-10.3624,1.0368,-0.0072942,0.00120457,0.0011165,0.0013488,-0.00743843,1.44233,0.00546433,0.0161357,629,904,-10.3624,-1.03682
-588,120,-10.4018,0.927917,-0.00831291,0.000184022,0.00151401,0.000445731,-0.00857462,1.39963,0.00587063,0.0195809,636,904,-10.4018,-0.9279
-581,120,-10.4542,0.799866,-0.00940852,-0.000828258,0.00211529,-0.000335116,-0.00990166,1.34176,0.00649229,0.0230404,643,904,-10.4542,-0.799839
-574,120,-10.3438,0.629211,-0.0103001,-0.00110815,0.00235868,-0.000538243,-0.01087,1.33372,0.0070741,0.0215711,650,904,-10.3437,-0.629201
-567,120,-10.2254,0.336365,0,0,0,0,0,0,0,-1,657,904,-10.2254,-0.336375
-560,120,-11.1305,0.83136,0,0,0,0,0,0,0,-1,664,904,-11.1305,-0.831333
-553,120,-11.6609,0.75708,-0.0109174,-0.00161033,0.00282832,-0.000818247,-0.0117095,1.29774,0.0075484,0.0372455,671,904,-11.6609,-0.757079
-546,120,-11.6298,0.873779,-0.0101521,-0.00163733,0.00276561,-0.000817918,-0.0109716,1.28275,0.00705755,0.0338158,678,904,-11.6298,-0.873804
-539,120,-11.6096,0.672485,-0.00855487,-0.00159349,0.00253096,-0.000770578,-0.00937778,1.25644,0.00601148,0.0270658,685,904,-11.6096,-0.672456
-532,120,-11.5609,0.693726,-0.00611463,-0.00148402,0.00206936,-0.000694021,-0.00690463,1.20611,0.00439007,0.0265756,692,904,-11.5609,-0.693702
-525,120,-11.5983,0.787598,-0.00270739,-0.00133096,0.00130131,-0.000547086,-0.00349127,1.02863,0.00216828,0.0323903,699,904,-11.5983,-0.787626
-518,120,-11.5035,0.765808,0.00153508,-0.00114804,0.000192322,0.00154879,-0.00116175,0.0711937,0.00157024,0.0373088,706,904,-11.5036,-0.765809
-511,120,-11.5182,0.781494,0.00477957,-0.000802385,-0.000884746,0.00491645,-0.000939262,-0.153491,0.00363144,0.0384676,713,904,-11.5183,-0.781504
-504,120,0,0,0,0,0,0,0,0,0,-1,720,904,0,0
-497,120,0,0,0,0,0,0,0,0,0,-1,727,904,0,0
-490,120,0,0,0,0,0,0,0,0,0,-1,734,904,0,0
-483,120,0,0,0,0,0,0,0,0,0,-1,741,904,0,0
-476,120,0,0,0,0,0,0,0,0,0,-1,748,904,0,0
-469,120,0,0,0,0,0,0,0,0,0,-1,755,904,0,0
-462,120,0,0,0,0,0,0,0,0,0,-1,762,904,0,0
-455,120,0,0,0,0,0,0,0,0,0,-1,769,904,0,0
-448,120,0,0,0,0,0,0,0,0,0,-1,776,904,0,0
-441,120,0,0,0,0,0,0,0,0,0,-1,783,904,0,0
-434,120,0,0,0,0,0,0,0,0,0,-1,790,904,0,0
-427,120,0,0,0,0,0,0,0,0,0,-1,797,904,0,0
-420,120,0,0,0,0,0,0,0,0,0,-1,804,904,0,0
-413,120,0,0,0,0,0,0,0,0,0,-1,811,904,0,0
-406,120,0,0,0,0,0,0,0,0,0,-1,818,904,0,0
-399,120,0,0,0,0,0,0,0,0,0,-1,825,904,0,0
-392,120,0,0,0,0,0,0,0,0,0,-1,832,904,0,0
-385,120,0,0,0,0,0,0,0,0,0,-1,839,904,0,0
-378,120,0,0,0,0,0,0,0,0,0,-1,846,904,0,0
-371,120,0,0,0,0,0,0,0,0,0,-1,853,904,0,0
-364,120,0,0,0,0,0,0,0,0,0,-1,860,904,0,0
-357,120,0,0,0,0,0,0,0,0,0,-1,867,904,0,0
-350,120,0,0,0,0,0,0,0,0,0,-1,874,904,0,0
-343,120,0,0,0,0,0,0,0,0,0,-1,881,904,0,0
-336,120,0,0,0,0,0,0,0,0,0,-1,888,904,0,0
-329,120,0,0,0,0,0,0,0,0,0,-1,895,904,0,0
-322,120,0,0,0,0,0,0,0,0,0,-1,902,904,0,0
-315,120,0,0,0,0,0,0,0,0,0,-1,909,904,0,0
-308,120,0,0,0,0,0,0,0,0,0,-1,916,904,0,0
-301,120,0,0,0,0,0,0,0,0,0,-1,923,904,0,0
-294,120,0,0,0,0,0,0,0,0,0,-1,930,904,0,0
-287,120,0,0,0,0,0,0,0,0,0,-1,937,904,0,0
-280,120,0,0,0,0,0,0,0,0,0,-1,944,904,0,0
-273,120,0,0,0,0,0,0,0,0,0,-1,951,904,0,0
-266,120,0,0,0,0,0,0,0,0,0,-1,958,904,0,0
-259,120,0,0,0,0,0,0,0,0,0,-1,965,904,0,0
-252,120,0,0,0,0,0,0,0,0,0,-1,972,904,0,0
-245,120,0,0,0,0,0,0,0,0,0,-1,979,904,0,0
-238,120,0,0,0,0,0,0,0,0,0,-1,986,904,0,0
-231,120,0,0,0,0,0,0,0,0,0,-1,993,904,0,0
-224,120,0,0,0,0,0,0,0,0,0,-1,1000,904,0,0
-217,120,0,0,0,0,0,0,0,0,0,-1,1007,904,0,0
-210,120,0,0,0,0,0,0,0,0,0,-1,1014,904,0,0
-203,120,0,0,0,0,0,0,0,0,0,-1,1021,904,0,0
-196,120,0,0,0,0,0,0,0,0,0,-1,1028,904,0,0
-189,120,0,0,0,0,0,0,0,0,0,-1,1035,904,0,0
-182,120,0,0,0,0,0,0,0,0,0,-1,1042,904,0,0
-175,120,0,0,0,0,0,0,0,0,0,-1,1049,904,0,0
-168,120,0,0,0,0,0,0,0,0,0,-1,1056,904,0,0
-161,120,0,0,0,0,0,0,0,0,0,-1,1063,904,0,0
-154,120,0,0,0,0,0,0,0,0,0,-1,1070,904,0,0
-147,120,0,0,0,0,0,0,0,0,0,-1,1077,904,0,0
-140,120,0,0,0,0,0,0,0,0,0,-1,1084,904,0,0
-133,120,0,0,0,0,0,0,0,0,0,-1,1091,904,0,0
-126,120,0,0,0,0,0,0,0,0,0,-1,1098,904,0,0
-119,120,0,0,0,0,0,0,0,0,0,-1,1105,904,0,0
-112,120,0,0,0,0,0,0,0,0,0,-1,1112,904,0,0
-105,120,0,0,0,0,0,0,0,0,0,-1,1119,904,0,0
-98,120,0,0,0,0,0,0,0,0,0,-1,1126,904,0,0
-91,120,0,0,0,0,0,0,0,0,0,-1,1133,904,0,0
-84,120,0,0,0,0,0,0,0,0,0,-1,1140,904,0,0
-77,120,0,0,0,0,0,0,0,0,0,-1,1147,904,0,0
-70,120,0,0,0,0,0,0,0,0,0,-1,1154,904,0,0
-63,120,0,0,0,0,0,0,0,0,0,-1,1161,904,0,0
-56,120,0,0,0,0,0,0,0,0,0,-1,1168,904,0,0
-49,120,0,0,0,0,0,0,0,0,0,-1,1175,904,0,0
-42,120,0,0,0,0,0,0,0,0,0,-1,1182,904,0,0
-35,120,0,0,0,0,0,0,0,0,0,-1,1189,904,0,0
-28,120,0,0,0,0,0,0,0,0,0,-1,1196,904,0,0
-21,120,0,0,0,0,0,0,0,0,0,-1,1203,904,0,0
-14,120,0,0,0,0,0,0,0,0,0,-1,1210,904,0,0
-7,120,0,0,0,0,0,0,0,0,0,-1,1217,904,0,0
0,120,0,0,0,0,0,0,0,0,0,-1,1224,904,0,0
7,120,0,0,0,0,0,0,0,0,0,-1,1231,904,0,0
14,120,0,0,0,0,0,0,0,0,0,-1,1238,904,0,0
21,120,0,0,0,0,0,0,0,0,0,-1,1245,904,0,0
28,120,0,0,0,0,0,0,0,0,0,-1,1252,904,0,0
35,120,0,0,0,0,0,0,0,0,0,-1,1259,904,0,0
42,120,0,0,0,0,0,0,0,0,0,-1,1266,904,0,0
49,120,0,0,0,0,0,0,0,0,0,-1,1273,904,0,0
56,120,0,0,0,0,0,0,0,0,0,-1,1280,904,0,0
63,120,0,0,0,0,0,0,0,0,0,-1,1287,904,0,0
70,120,0,0,0,0,0,0,0,0,0,-1,1294,904,0,0
77,120,0,0,0,0,0,0,0,0,0,-1,1301,904,0,0
84,120,0,0,0,0,0,0,0,0,0,-1,1308,904,0,0
91,120,0,0,0,0,0,0,0,0,0,-1,1315,904,0,0
98,120,0,0,0,0,0,0,0,0,0,-1,1322,904,0,0
105,120,0,0,0,0,0,0,0,0,0,-1,1329,904,0,0
112,120,0,0,0,0,0,0,0,0,0,-1,1336,904,0,0
119,120,0,0,0,0,0,0,0,0,0,-1,1343,904,0,0
126,120,0,0,0,0,0,0,0,0,0,-1,1350,904,0,0
133,120,0,0,0,0,0,0,0,0,0,-1,1357,904,0,0
140,120,0,0,0,0,0,0,0,0,0,-1,1364,904,0,0
147,120,0,0,0,0,0,0,0,0,0,-1,1371,904,0,0
154,120,0,0,0,0,0,0,0,0,0,-1,1378,904,0,0
161,120,0,0,0,0,0,0,0,0,0,-1,1385,904,0,0
168,120,0,0,0,0,0,0,0,0,0,-1,1392,904,0,0
175,120,0,0,0,0,0,0,0,0,0,-1,1399,904,0,0
182,120,0,0,0,0,0,0,0,0,0,-1,1406,904,0,0
189,120,0,0,0,0,0,0,0,0,0,-1,1413,904,0,0
196,120,0,0,0,0,0,0,0,0,0,-1,1420,904,0,0
203,120,0,0,0,0,0,0,0,0,0,-1,1427,904,0,0
210,120,0,0,0,0,0,0,0,0,0,-1,1434,904,0,0
217,120,0,0,0,0,0,0,0,0,0,-1,1441,904,0,0
224,120,0,0,0,0,0,0,0,0,0,-1,1448,904,0,0
231,120,0,0,0,0,0,0,0,0,0,-1,1455,904,0,0
238,120,0,0,0,0,0,0,0,0,0,-1,1462,904,0,0
245,120,0,0,0,0,0,0,0,0,0,-1,1469,904,0,0
252,120,0,0,0,0,0,0,0,0,0,-1,1476,904,0,0
259,120,0,0,0,0,0,0,0,0,0,-1,1483,904,0,0
266,120,0,0,0,0,0,0,0,0,0,-1,1490,904,0,0
273,120,0,0,0,0,0,0,0,0,0,-1,1497,904,0,0
280,120,0,0,0,0,0,0,0,0,0,-1,1504,904,0,0
287,120,0,0,0,0,0,0,0,0,0,-1,1511,904,0,0
294,120,0,0,0,0,0,0,0,0,0,-1,1518,904,0,0
301,120,0,0,0,0,0,0,0,0,0,-1,1525,904,0,0
308,120,0,0,0,0,0,0,0,0,0,-1,1532,904,0,0
315,120,0,0,0,0,0,0,0,0,0,-1,1539,904,0,0
322,120,0,0,0,0,0,0,0,0,0,-1,1546,904,0,0
329,120,0,0,0,0,0,0,0,0,0,-1,1553,904,0,0
336,120,0,0,0,0,0,0,0,0,0,-1,1560,904,0,0
343,120,0,0,0,0,0,0,0,0,0,-1,1567,904,0,0
350,120,0,0,0,0,0,0,0,0,0,-1,1574,904,0,0
357,120,0,0,0,0,0,0,0,0,0,-1,1581,904,0,0
364,120,0,0,0,0,0,0,0,0,0,-1,1588,904,0,0
371,120,0,0,0,0,0,0,0,0,0,-1,1595,904,0,0
378,120,0,0,0,0,0,0,0,0,0,-1,1602,904,0,0
385,120,0,0,0,0,0,0,0,0,0,-1,1609,904,0,0
392,120,0,0,0,0,0,0,0,0,0,-1,1616,904,0,0
399,120,0,0,0,0,0,0,0,0,0,-1,1623,904,0,0
406,120,0,0,0,0,0,0,0,0,0,-1,1630,904,0,0
413,120,0,0,0,0,0,0,0,0,0,-1,1637,904,0,0
420,120,0,0,0,0,0,0,0,0,0,-1,1644,904,0,0
427,120,0,0,0,0,0,0,0,0,0,-1,1651,904,0,0
434,120,0,0,0,0,0,0,0,0,0,-1,1658,904,0,0
441,120,0,0,0,0,0,0,0,0,0,-1,1665,904,0,0
448,120,0,0,0,0,0,0,0,0,0,-1,1672,904,0,0
455,120,0,0,0,0,0,0,0,0,0,-1,1679,904,0,0
462,120,0,0,0,0,0,0,0,0,0,-1,1686,904,0,0
469,120,0,0,0,0,0,0,0,0,0,-1,1693,904,0,0
476,120,0,0,0,0,0,0,0,0,0,-1,1700,904,0,0
483,120,0,0,0,0,0,0,0,0,0,-1,1707,904,0,0
490,120,0,0,0,0,0,0,0,0,0,-1,1714,904,0,0
497,120,0,0,0,0,0,0,0,0,0,-1,1721,904,0,0
504,120,0,0,0,0,0,0,0,0,0,-1,1728,904,0,0
511,120,0,0,0,0,0,0,0,0,0,-1,1735,904,0,0
518,120,0,0,0,0,0,0,0,0,0,-1,1742,904,0,0
525,120,0,0,0,0,0,0,0,0,0,-1,1749,904,0,0
532,120,0,0,0,0,0,0,0,0,0,-1,1756,904,0,0
539,120,0,0,0,0,0,0,0,0,0,-1,1763,904,0,0
546,120,0,0,0,0,0,0,0,0,0,-1,1770,904,0,0
553,120,0,0,0,0,0,0,0,0,0,-1,1777,904,0,0
560,120,0,0,0,0,0,0,0,0,0,-1,1784,904,0,0
567,120,0,0,0,0,0,0,0,0,0,-1,1791,904,0,0
574,120,0,0,0,0,0,0,0,0,0,-1,1798,904,0,0
581,120,0,0,0,0,0,0,0,0,0,-1,1805,904,0,0
588,120,0,0,0,0,0,0,0,0,0,-1,1812,904,0,0
595,120,0,0,0,0,0,0,0,0,0,-1,1819,904,0,0
602,120,0,0,0,0,0,0,0,0,0,-1,1826,904,0,0
609,120,0,0,0,0,0,0,0,0,0,-1,1833,904,0,0
616,120,0,0,0,0,0,0,0,0,0,-1,1840,904,0,0
623,120,0,0,0,0,0,0,0,0,0,-1,1847,904,0,0
630,120,17.7463,2.77496,0.00133973,0.00436123,-0.000486102,0.00443751,0.00126345,-1.41515,0.00263997,0.0418485,1854,904,17.7463,-2.77499
637,120,17.89,2.47369,0.001075,0.00309114,4.51334e-05,0.00309215,0.00107399,1.54843,0.00181278,0.0421064,1861,904,17.89,-2.47369
644,120,17.8965,2.62012,0.000635106,0.00189546,0.000204742,0.00192788,0.00060268,1.41373,0.00113882,0.0391887,1868,904,17.8964,-2.62013
651,120,18.1064,2.64581,-0.00147191,0.000927872,-0.00034379,0.000976152,-0.00152019,-1.43128,0.00145263,0.0439517,1875,904,18.1064,-2.64579
658,120,18.0508,2.52948,-0.00410356,0.000213454,-0.00102553,0.000444688,-0.0043348,-1.34903,0.00304892,0.0442451,1882,904,18.0508,-2.52948
665,120,17.7657,2.56989,-0.00629819,-0.000290585,-0.00160698,0.000112256,-0.00670103,-1.32518,0.00450524,0.0394998,1889,904,17.7658,-2.56986
672,120,17.7174,2.51892,-0.0079201,-0.000558882,-0.00196355,-6.78729e-05,-0.00841111,-1.32576,0.00558492,0.0358654,1896,904,17.7175,-2.51892
679,120,17.7251,2.48566,-0.00885693,-0.0008084,-0.00220058,-0.000246027,-0.0094193,-1.32059,0.00619915,0.0312644,1903,904,17.7251,-2.48565
686,120,18.0309,2.50867,0,0,0,0,0,0,0,-1,1910,904,18.0309,-2.50868
693,120,17.2272,2.62756,-0.00953221,-0.000845111,-0.00237063,-0.000240298,-0.010137,-1.321,0.00667935,0.0396687,1917,904,17.2272,-2.62753
700,120,16.2904,2.70874,-0.00949084,-0.000832571,-0.00229648,-0.000261173,-0.0100622,-1.32693,0.00662282,0.028138,1924,904,16.2904,-2.70877
707,120,15.8503,2.87982,-0.0088853,-0.000721559,-0.00209862,-0.000213674,-0.00939318,-1.33335,0.00619213,0.0200834,1931,904,15.8504,-2.87981
714,120,15.9067,3.03644,-0.00781153,-0.000409591,-0.00185743,3.03579e-05,-0.00825148,-1.33822,0.00551113,0.0157108,1938,904,15.9067,-3.03643
721,120,15.9196,3.14502,-0.00670766,0.000163978,-0.00169026,0.000557235,-0.00710091,-1.3422,0.0049302,0.0130114,1945,904,15.9196,-3.14501
728,120,15.9255,3.28851,-0.00558949,0.000911286,-0.0012887,0.00115743,-0.00583563,-1.38206,0.00432813,0.00967649,1952,904,15.9256,-3.28849
735,120,15.8943,3.38538,-0.00336754,0.00144218,-0.000672846,0.00153453,-0.00345989,-1.43439,0.00295409,0.0124023,1959,904,15.8943,-3.38539
742,120,15.8846,3.51703,-0.000348003,0.00315466,0.000628897,0.00326416,-0.000457497,1.39842,0.00234354,0.0132461,1966,904,15.8847,-3.51703
749,120,15.8889,3.63599,0.00343064,0.00518393,0.00270999,0.00715554,0.00145903,0.941829,0.00436605,0.0106648,1973,904,15.8889,-3.63598
756,120,15.8885,3.72858,0.00681328,0.00726275,0.00477645,0.0118198,0.00225628,0.808906,0.0072458,0.0119276,1980,904,15.8885,-3.72857
763,120,15.8726,3.81152,0.0109446,0.00994693,0.00772534,0.0181872,0.00270434,0.753157,0.0113314,0.0201121,1987,904,15.8726,-3.81152
770,120,15.9547,3.74146,0.0163929,0.0131389,0.011809,0.0266865,0.0028453,0.71694,0.0169225,0.041432,1994,904,15.9547,-3.74145
777,120,16.0232,3.70068,0,0,0,0,0,0,0,-1,2001,904,16.0232,-3.7007
784,120,16.2543,4.25623,0,0,0,0,0,0,0,-1,2008,904,16.2543,-4.25624
791,120,18.2898,5.06903,0.04416,0.0262224,0.0344736,0.0708123,-0.000429947,0.658137,0.0473522,0.043587,2015,904,18.2899,-5.069
798,120,18.252,5.51971,0.0578516,0.0317159,0.0468541,0.0934261,-0.00385854,0.649402,0.0636093,0.042385,2022,904,18.2519,-5.51971
805,120,0,0,0,0,0,0,0,0,0,-1,2029,904,0,0
812,120,0,0,0,0,0,0,0,0,0,-1,2036,904,0,0
-700,113,0,0,0,0,0,0,0,0,0,-1,524,911,0,0
-693,113,0,0,0,0,0,0,0,0,0,-1,531,911,0,0
-686,113,0,0,0,0,0,0,0,0,0,-1,538,911,0,0
-679,113,-11.0822,1.65088,0.0455467,0.0349182,0.0331663,0.0738218,0.00664306,0.705958,0.0471564,0.0446757,545,911,-11.0821,-1.6509
-672,113,-10.6846,1.87775,0.0322869,0.0311918,0.0224348,0.0541808,0.0092979,0.773197,0.0334547,0.049368,552,911,-10.6846,-1.87776
-665,113,-10.5643,1.79706,0.0220975,0.0271918,0.0150023,0.0398617,0.00942768,0.869489,0.0240558,0.0475653,559,911,-10.5643,-1.79706
-658,113,-10.6056,1.81311,0.0143804,0.0232314,0.00981415,0.0295717,0.0080401,0.997212,0.0176556,0.0456775,566,911,-10.6056,-1.81313
-651,113,-10.4414,1.65662,0.00864076,0.019453,0.00621786,0.0222863,0.00580747,1.14324,0.0133496,0.0471875,573,911,-10.4414,-1.65662
-644,113,-10.3788,1.5625,0.00444978,0.0159287,0.00378506,0.0170644,0.00331406,1.27929,0.0104483,0.0395338,580,911,-10.3789,-1.56253
-637,113,-10.3892,1.52179,0.00152608,0.0127035,0.00219099,0.0131176,0.00111195,1.38398,0.00839898,0.0311789,587,911,-10.3892,-1.52176
-630,113,-10.4367,1.50354,-0.000492841,0.00999704,0.000485085,0.0100194,-0.000515225,1.52468,0.00685781,0.0153574,594,911,-10.4367,-1.50354
-623,113,-10.4736,1.4101,-0.00246123,0.00709225,-0.000324389,0.00710325,-0.00247223,-1.53689,0.00573988,0.0105443,601,911,-10.4736,-1.4101
-616,113,-10.4733,1.30994,-0.00382625,0.00498577,-9.88504e-05,0.00498688,-0.00382735,-1.55958,0.00510355,0.00947233,608,911,-10.4733,-1.30996
-609,113,-10.4783,1.22925,-0.00508173,0.00276948,9.66838e-05,0.00277067,-0.00508292,1.55848,0.00459931,0.0107694,615,911,-10.4783,-1.22927
-602,113,-10.4818,1.13672,-0.00610636,0.00147214,0.000446592,0.00149837,-0.00613258,1.51214,0.00466869,0.01405,622,911,-10.4817,-1.13674
-595,113,-10.4897,1.05219,-0.00713611,0.000863935,0.000992587,0.000985248,-0.00725742,1.44918,0.00519791,0.0170294,629,911,-10.4897,-1.05217
-588,113,-10.506,0.948792,-0.0082504,9.20029e-05,0.00125725,0.00027736,-0.00843575,1.42442,0.00571853,0.0172662,636,911,-10.506,-0.94881
-581,113,-10.4967,0.84021,-0.00939257,-0.000651878,0.00173447,-0.000320279,-0.00972417,1.38189,0.0063787,0.0180375,643,911,-10.4967,-0.840206
-574,113,-10.3805,0.677917,-0.0102395,-0.000822876,0.00193131,-0.000442164,-0.0106202,1.37617,0.00693744,0.0179084,650,911,-10.3805,-0.677891
-567,113,-10.7704,0.631897,-0.0106233,-0.00086573,0.00208399,-0.000439276,-0.0110498,1.36895,0.00722453,0.0389269,657,911,-10.7704,-0.631875
-560,113,-11.4943,0.727783,0,0,0,0,0,0,0,-1,664,911,-11.4943,-0.727769
-553,113,-11.5981,0.889099,-0.0105751,-0.000851199,0.00233123,-0.000321196,-0.0111051,1.34725,0.00729872,0.0375057,671,911,-11.5981,-0.889078
-546,113,-11.6246,0.868591,-0.00961193,-0.000663101,0.00227577,-0.000117602,-0.0101574,1.33554,0.00673276,0.0361043,678,911,-11.6247,-0.868569
-539,113,-11.5884,0.642456,-0.00780508,-0.000376435,0.00205332,0.000153335,-0.00833485,1.3183,0.00560837,0.0383896,685,911,-11.5884,-0.642475
-532,113,-11.5684,0.664307,-0.00512066,6.85983e-06,0.00160848,0.000469661,-0.00558346,1.29064,0.00388832,0.0388289,692,911,-11.5683,-0.664322
-525,113,-11.6135,0.793152,-0.00141735,0.000458055,0.00084113,0.000780029,-0.00173932,1.20522,0.00148928,0.0370644,699,911,-11.6135,-0.793166
-518,113,-11.5696,0.872253,0.00295571,0.000952236,-0.000288625,0.00299646,0.000911485,-0.140263,0.00177368,0.038345,706,911,-11.5696,-0.872244
-511,113,-11.5775,0.88678,0.00582284,0.00164449,-0.00138335,0.00623932,0.00122801,-0.292435,0.00381664,0.0402343,713,911,-11.5775,-0.886801
-504,113,0,0,0,0,0,0,0,0,0,-1,720,911,0,0
-497,113,0,0,0,0,0,0,0,0,0,-1,727,911,0,0
-490,113,0,0,0,0,0,0,0,0,0,-1,734,911,0,0
-483,113,0,0,0,0,0,0,0,0,0,-1,741,911,0,0
-476,113,0,0,0,0,0,0,0,0,0,-1,748,911,0,0
-469,113,0,0,0,0,0,0,0,0,0,-1,755,911,0,0
-462,113,0,0,0,0,0,0,0,0,0,-1,762,911,0,0
-455,113,0,0,0,0,0,0,0,0,0,-1,769,911,0,0
-448,113,0,0,0,0,0,0,0,0,0,-1,776,911,0,0
-441,113,0,0,0,0,0,0,0,0,0,-1,783,911,0,0
-434,113,0,0,0,0,0,0,0,0,0,-1,790,911,0,0
-427,113,0,0,0,0,0,0,0,0,0,-1,797,911,0,0
-420,113,0,0,0,0,0,0,0,0,0,-1,804,911,0,0
-413,113,0,0,0,0,0,0,0,0,0,-1,811,911,0,0
-406,113,0,0,0,0,0,0,0,0,0,-1,818,911,0,0
-399,113,0,0,0,0,0,0,0,0,0,-1,825,911,0,0
-392,113,0,0,0,0,0,0,0,0,0,-1,832,911,0,0
-385,113,0,0,0,0,0,0,0,0,0,-1,839,911,0,0
-378,113,0,0,0,0,0,0,0,0,0,-1,846,911,0,0
-371,113,0,0,0,0,0,0,0,0,0,-1,853,911,0,0
-364,113,0,0,0,0,0,0,0,0,0,-1,860,911,0,0
-357,113,0,0,0,0,0,0,0,0,0,-1,867,911,0,0
-350,113,0,0,0,0,0,0,0,0,0,-1,874,911,0,0
-343,113,0,0,0,0,0,0,0,0,0,-1,881,911,0,0
-336,113,0,0,0,0,0,0,0,0,0,-1,888,911,0,0
-329,113,0,0,0,0,0,0,0,0,0,-1,895,911,0,0
-322,113,0,0,0,0,0,0,0,0,0,-1,902,911,0,0
-315,113,0,0,0,0,0,0,0,0,0,-1,909,911,0,0
-308,113,0,0,0,0,0,0,0,0,0,-1,916,911,0,0
-301,113,0,0,0,0,0,0,0,0,0,-1,923,911,0,0
-294,113,0,0,0,0,0,0,0,0,0,-1,930,911,0,0
-287,113,0,0,0,0,0,0,0,0,0,-1,937,911,0,0
-280,113,0,0,0,0,0,0,0,0,0,-1,944,911,0,0
-273,113,0,0,0,0,0,0,0,0,0,-1,951,911,0,0
-266,113,0,0,0,0,0,0,0,0,0,-1,958,911,0,0
-259,113,0,0,0,0,0,0,0,0,0,-1,965,911,0,0
-252,113,0,0,0,0,0,0,0,0,0,-1,972,911,0,0
-245,113,0,0,0,0,0,0,0,0,0,-1,979,911,0,0
-238,113,0,0,0,0,0,0,0,0,0,-1,986,911,0,0
-231,113,0,0,0,0,0,0,0,0,0,-1,993,911,0,0
-224,113,0,0,0,0,0,0,0,0,0,-1,1000,911,0,0
-217,113,0,0,0,0,0,0,0,0,0,-1,1007,911,0,0
-210,113,0,0,0,0,0,0,0,0,0,-1,1014,911,0,0
-203,113,0,0,0,0,0,0,0,0,0,-1,1021,911,0,0
-196,113,0,0,0,0,0,0,0,0,0,-1,1028,911,0,0
-189,113,0,0,0,0,0,0,0,0,0,-1,1035,911,0,0
-182,113,0,0,0,0,0,0,0,0,0,-1,1042,911,0,0
-175,113,0,0,0,0,0,0,0,0,0,-1,1049,911,0,0
-168,113,0,0,0,0,0,0,0,0,0,-1,1056,911,0,0
-161,113,0,0,0,0,0,0,0,0,0,-1,1063,911,0,0
-154,113,0,0,0,0,0,0,0,0,0,-1,1070,911,0,0
-147,113,0,0,0,0,0,0,0,0,0,-1,1077,911,0,0
-140,113,0,0,0,0,0,0,0,0,0,-1,1084,911,0,0
-133,113,0,0,0,0,0,0,0,0,0,-1,1091,911,0,0
-126,113,0,0,0,0,0,0,0,0,0,-1,1098,911,0,0
-119,113,0,0,0,0,0,0,0,0,0,-1,1105,911,0,0
-112,113,0,0,0,0,0,0,0,0,0,-1,1112,911,0,0
-105,113,0,0,0,0,0,0,0,0,0,-1,1119,911,0,0
-98,113,0,0,0,0,0,0,0,0,0,-1,1126,911,0,0
-91,113,0,0,0,0,0,0,0,0,0,-1,1133,911,0,0
-84,113,0,0,0,0,0,0,0,0,0,-1,1140,911,0,0
-77,113,0,0,0,0,0,0,0,0,0,-1,1147,911,0,0
-70,113,0,0,0,0,0,0,0,0,0,-1,1154,911,0,0
-63,113,0,0,0,0,0,0,0,0,0,-1,1161,911,0,0
-56,113,0,0,0,0,0,0,0,0,0,-1,1168,911,0,0
-49,113,0,0,0,0,0,0,0,0,0,-1,1175,911,0,0
-42,113,0,0,0,0,0,0,0,0,0,-1,1182,911,0,0
-35,113,0,0,0,0,0,0,0,0,0,-1,1189,911,0,0
-28,113,0,0,0,0,0,0,0,0,0,-1,1196,911,0,0
-21,113,0,0,0,0,0,0,0,0,0,-1,1203,911,0,0
-14,113,0,0,0,0,0,0,0,0,0,-1,1210,911,0,0
-7,113,0,0,0,0,0,0,0,0,0,-1,1217,911,0,0
0,113,0,0,0,0,0,0,0,0,0,-1,1224,911,0,0
7,113,0,0,0,0,0,0,0,0,0,-1,1231,911,0,0
14,113,0,0,0,0,0,0,0,0,0,-1,1238,911,0,0
21,113,0,0,0,0,0,0,0,0,0,-1,1245,911,0,0
28,113,0,0,0,0,0,0,0,0,0,-1,1252,911,0,0
35,113,0,0,0,0,0,0,0,0,0,-1,1259,911,0,0
42,113,0,0,0,0,0,0,0,0,0,-1,1266,911,0,0
49,113,0,0,0,0,0,0,0,0,0,-1,1273,911,0,0
56,113,0,0,0,0,0,0,0,0,0,-1,1280,911,0,0
63,113,0,0,0,0,0,0,0,0,0,-1,1287,911,0,0
70,113,0,0,0,0,0,0,0,0,0,-1,1294,911,0,0
77,113,0,0,0,0,0,0,0,0,0,-1,1301,911,0,0
84,113,0,0,0,0,0,0,0,0,0,-1,1308,911,0,0
91,113,0,0,0,0,0,0,0,0,0,-1,1315,911,0,0
98,113,0,0,0,0,0,0,0,0,0,-1,1322,911,0,0
105,113,0,0,0,0,0,0,0,0,0,-1,1329,911,0,0
112,113,0,0,0,0,0,0,0,0,0,-1,1336,911,0,0
119,113,0,0,0,0,0,0,0,0,0,-1,1343,911,0,0
126,113,0,0,0,0,0,0,0,0,0,-1,1350,911,0,0
133,113,0,0,0,0,0,0,0,0,0,-1,1357,911,0,0
140,113,0,0,0,0,0,0,0,0,0,-1,1364,911,0,0
147,113,0,0,0,0,0,0,0,0,0,-1,1371,911,0,0
154,113,0,0,0,0,0,0,0,0,0,-1,1378,911,0,0
161,113,0,0,0,0,0,0,0,0,0,-1,1385,911,0,0
168,113,0,0,0,0,0,0,0,0,0,-1,1392,911,0,0
175,113,0,0,0,0,0,0,0,0,0,-1,1399,911,0,0
182,113,0,0,0,0,0,0,0,0,0,-1,1406,911,0,0
189,113,0,0,0,0,0,0,0,0,0,-1,1413,911,0,0
196,113,0,0,0,0,0,0,0,0,0,-1,1420,911,0,0
203,113,0,0,0,0,0,0,0,0,0,-1,1427,911,0,0
210,113,0,0,0,0,0,0,0,0,0,-1,1434,911,0,0
217,113,0,0,0,0,0,0,0,0,0,-1,1441,911,0,0
224,113,0,0,0,0,0,0,0,0,0,-1,1448,911,0,0
231,113,0,0,0,0,0,0,0,0,0,-1,1455,911,0,0
238,113,0,0,0,0,0,0,0,0,0,-1,1462,911,0,0
245,113,0,0,0,0,0,0,0,0,0,-1,1469,911,0,0
252,113,0,0,0,0,0,0,0,0,0,-1,1476,911,0,0
259,113,0,0,0,0,0,0,0,0,0,-1,1483,911,0,0
266,113,0,0,0,0,0,0,0,0,0,-1,1490,911,0,0
273,113,0,0,0,0,0,0,0,0,0,-1,1497,911,0,0
280,113,0,0,0,0,0,0,0,0,0,-1,1504,911,0,0
287,113,0,0,0,0,0,0,0,0,0,-1,1511,911,0,0
294,113,0,0,0,0,0,0,0,0,0,-1,1518,911,0,0
301,113,0,0,0,0,0,0,0,0,0,-1,1525,911,0,0
308,113,0,0,0,0,0,0,0,0,0,-1,1532,911,0,0
315,113,0,0,0,0,0,0,0,0,0,-1,1539,911,0,0
322,113,0,0,0,0,0,0,0,0,0,-1,1546,911,0,0
329,113,0,0,0,0,0,0,0,0,0,-1,1553,911,0,0
336,113,0,0,0,0,0,0,0,0,0,-1,1560,911,0,0
343,113,0,0,0,0,0,0,0,0,0,-1,1567,911,0,0
350,113,0,0,0,0,0,0,0,0,0,-1,1574,911,0,0
357,113,0,0,0,0,0,0,0,0,0,-1,1581,911,0,0
364,113,0,0,0,0,0,0,0,0,0,-1,1588,911,0,0
371,113,0,0,0,0,0,0,0,0,0,-1,1595,911,0,0
378,113,0,0,0,0,0,0,0,0,0,-1,1602,911,0,0
385,113,0,0,0,0,0,0,0,0,0,-1,1609,911,0,0
392,113,0,0,0,0,0,0,0,0,0,-1,1616,911,0,0
399,113,0,0,0,0,0,0,0,0,0,-1,1623,911,0,0
406,113,0,0,0,0,0,0,0,0,0,-1,1630,911,0,0
413,113,0,0,0,0,0,0,0,0,0,-1,1637,911,0,0
420,113,0,0,0,0,0,0,0,0,0,-1,1644,911,0,0
427,113,0,0,0,0,0,0,0,0,0,-1,1651,911,0,0
434,113,0,0,0,0,0,0,0,0,0,-1,1658,911,0,0
441,113,0,0,0,0,0,0,0,0,0,-1,1665,911,0,0
448,113,0,0,0,0,0,0,0,0,0,-1,1672,911,0,0
455,113,0,0,0,0,0,0,0,0,0,-1,1679,911,0,0
462,113,0,0,0,0,0,0,0,0,0,-1,1686,911,0,0
469,113,0,0,0,0,0,0,0,0,0,-1,1693,911,0,0
476,113,0,0,0,0,0,0,0,0,0,-1,1700,911,0,0
483,113,0,0,0,0,0,0,0,0,0,-1,1707,911,0,0
490,113,0,0,0,0,0,0,0,0,0,-1,1714,911,0,0
497,113,0,0,0,0,0,0,0,0,0,-1,1721,911,0,0
504,113,0,0,0,0,0,0,0,0,0,-1,1728,911,0,0
511,113,0,0,0,0,0,0,0,0,0,-1,1735,911,0,0
518,113,0,0,0,0,0,0,0,0,0,-1,1742,911,0,0
525,113,0,0,0,0,0,0,0,0,0,-1,1749,911,0,0
532,113,0,0,0,0,0,0,0,0,0,-1,1756,911,0,0
539,113,0,0,0,0,0,0,0,0,0,-1,1763,911,0,0
546,113,0,0,0,0,0,0,0,0,0,-1,1770,911,0,0
553,113,0,0,0,0,0,0,0,0,0,-1,1777,911,0,0
560,113,0,0,0,0,0,0,0,0,0,-1,1784,911,0,0
567,113,0,0,0,0,0,0,0,0,0,-1,1791,911,0,0
574,113,0,0,0,0,0,0,0,0,0,-1,1798,911,0,0
581,113,0,0,0,0,0,0,0,0,0,-1,1805,911,0,0
588,113,0,0,0,0,0,0,0,0,0,-1,1812,911,0,0
595,113,0,0,0,0,0,0,0,0,0,-1,1819,911,0,0
602,113,0,0,0,0,0,0,0,0,0,-1,1826,911,0,0
609,113,0,0,0,0,0,0,0,0,0,-1,1833,911,0,0
616,113,0,0,0,0,0,0,0,0,0,-1,1840,911,0,0
623,113,0,0,0,0,0,0,0,0,0,-1,1847,911,0,0
630,113,18.002,2.52649,0.000699818,0.00535082,-4.33992e-05,0.00535122,0.000699413,-1.56147,0.00335871,0.0408136,1854,911,18.002,-2.52649
637,113,17.7537,2.56476,0.000586197,0.00384805,0.000474355,0.00391563,0.000518614,1.42928,0.00245587,0.0383203,1861,911,17.7537,-2.56474
644,113,17.8391,2.68817,0.000779434,0.0025589,0.000702179,0.0028026,0.000535729,1.23674,0.0017179,0.0373791,1868,911,17.8391,-2.68816
651,113,18.1677,2.57245,-0.000895473,0.00151488,0.000173521,0.00152731,-0.0009079,1.4993,0.00142105,0.0425761,1875,911,18.1677,-2.57247
658,113,18.0455,2.41266,-0.0033003,0.000763131,-0.000502416,0.00082433,-0.0033615,-1.44958,0.0025604,0.0429891,1882,911,18.0455,-2.41267
665,113,17.8478,2.43872,-0.00542226,0.000218932,-0.0010978,0.000425039,-0.00562836,-1.38521,0.00390165,0.0381976,1889,911,17.8477,-2.43873
672,113,17.7235,2.58014,-0.00700882,-0.000107888,-0.00148509,0.000198134,-0.00731484,-1.36758,0.00494393,0.0344876,1896,911,17.7235,-2.58013
679,113,17.6641,2.47382,-0.00796851,-0.000395953,-0.00173202,-1.86041e-05,-0.00834585,-1.35628,0.00555771,0.0282173,1903,911,17.664,-2.47384
686,113,17.7063,2.48553,-0.00840134,-0.000656531,-0.00181954,-0.000250353,-0.00880752,-1.35117,0.00579003,0.0260119,1910,911,17.7063,-2.48554
693,113,17.5044,2.68811,0,0,0,0,0,0,0,-1,1917,911,17.5043,-2.6881
700,113,16.788,2.70282,0,0,0,0,0,0,0,-1,1924,911,16.7879,-2.70284
707,113,15.9919,2.87476,0,0,0,0,0,0,0,-1,1931,911,15.992,-2.87474
714,113,15.9938,2.98743,-0.00721062,-0.000240119,-0.00152024,7.70111e-05,-0.00752775,-1.36514,0.00504436,0.0162387,1938,911,15.9938,-2.98744
721,113,16.0077,3.12427,-0.00615173,0.000219119,-0.0014218,0.000522024,-0.00645464,-1.36089,0.00448723,0.0155705,1945,911,16.0077,-3.12424
728,113,16.0607,3.29907,-0.00500712,0.000943395,-0.00112512,0.00114903,-0.00521275,-1.39003,0.0039148,0.0154808,1952,911,16.0606,-3.2991
735,113,16.0316,3.4231,-0.00264223,0.00153371,-0.000682337,0.00164238,-0.0027509,-1.41287,0.00256323,0.014632,1959,911,16.0316,-3.42307
742,113,16.0043,3.51489,0.000640266,0.00329645,0.000381072,0.00335004,0.000586676,1.43108,0.00206576,0.0118104,1966,911,16.0043,-3.51487
749,113,16.0114,3.62946,0.00481466,0.00561377,0.00225268,0.00750206,0.00292638,0.87317,0.00436607,0.00882371,1973,911,16.0113,-3.62948
756,113,16.0145,3.72705,0.00883845,0.00799305,0.00405662,0.0124943,0.00433717,0.733486,0.00732513,0.0102937,1980,911,16.0146,-3.72706
763,113,15.9935,3.83624,0.0137366,0.011146,0.00671601,0.019281,0.00560149,0.690133,0.011453,0.0199876,1987,911,15.9936,-3.83627
770,113,16.0065,3.6972,0.0198964,0.0149266,0.0104517,0.0281545,0.00666855,0.668689,0.0169889,0.041985,1994,911,16.0064,-3.69721
777,113,16.1492,3.40912,0.0278201,0.0194415,0.0156047,0.039788,0.00747357,0.654258,0.0244184,0.0489416,2001,911,16.1492,-3.40914
784,113,16.4104,3.49323,0.0376602,0.0247349,0.022539,0.0546448,0.00775032,0.645778,0.034141,0.0448192,2008,911,16.4103,-3.49324
791,113,16.431,3.44189,0.0494956,0.0308205,0.0315994,0.0731082,0.00720794,0.641738,0.0465227,0.0426757,2015,911,16.431,-3.44191
798,113,18.5016,5.79657,0.0633472,0.0376964,0.0432771,0.0956594,0.00538423,0.641344,0.0620561,0.044965,2022,911,18.5015,-5.79656
805,113,0,0,0,0,0,0,0,0,0,-1,2029,911,0,0
812,113,0,0,0,0,0,0,0,0,0,-1,2036,911,0,0
-700,106,0,0,0,0,0,0,0,0,0,-1,524,918,0,0
-693,106,0,0,0,0,0,0,0,0,0,-1,531,918,0,0
-686,106,0,0,0,0,0,0,0,0,0,-1,538,918,0,0
-679,106,-4.61633,2.93652,0,0,0,0,0,0,0,-1,545,918,-4.61632,-2.9365
-672,106,-10.6909,1.69934,0,0,0,0,0,0,0,-1,552,918,-10.6909,-1.69932
-665,106,-10.6605,1.6825,0.0188803,0.026033,0.0171307,0.0399567,0.00495661,0.888304,0.025149,0.0482745,559,918,-10.6605,-1.68251
-658,106,-10.6224,1.69037,0.0123948,0.0215474,0.0112188,0.0290874,0.00485486,0.979053,0.017993,0.045371,566,918,-10.6224,-1.69034
-651,106,-10.5431,1.64655,0.00754271,0.017458,0.00710541,0.0211644,0.00383635,1.09,0.0130206,0.0440777,573,918,-10.5431,-1.64652
-644,106,-10.4977,1.58051,0.00397617,0.0138221,0.00432691,0.0154533,0.00234492,1.21027,0.00961636,0.0389739,580,918,-10.4977,-1.58052
-637,106,-10.5106,1.53479,0.0014776,0.0106555,0.00251557,0.0112998,0.000833338,1.32007,0.00727135,0.0260632,587,918,-10.5106,-1.53476
-630,106,-10.5574,1.49158,-0.000353502,0.00801964,0.000524338,0.00805234,-0.000386209,1.5085,0.00550149,0.0118203,594,918,-10.5574,-1.4916
-623,106,-10.5779,1.40369,-0.00217809,0.00546314,-0.000437584,0.00548812,-0.00220306,-1.51378,0.00457353,0.0107893,601,918,-10.5779,-1.40371
-616,106,-10.5782,1.31616,-0.00350302,0.00362187,-0.000220942,0.00362871,-0.00350987,-1.53983,0.00412165,0.0107137,608,918,-10.5782,-1.31615
-609,106,-10.5776,1.22241,-0.00478438,0.00169963,4.68867e-05,0.00169997,-0.00478472,1.56357,0.00388257,0.0103183,615,918,-10.5776,-1.22244
-602,106,-10.5817,1.11884,-0.00585272,0.00079571,0.000355301,0.000814644,-0.00587165,1.51756,0.00421232,0.0122263,622,918,-10.5818,-1.11883
-595,106,-10.6376,1.03223,-0.00682765,0.000533378,0.00078929,0.000617059,-0.00691133,1.46517,0.00482641,0.0149906,629,918,-10.6377,-1.03222
-588,106,-10.622,0.930664,-0.00794085,4.72817e-05,0.000948853,0.000158442,-0.00805202,1.45418,0.0054216,0.0159981,636,918,-10.622,-0.930663
-581,106,-10.5573,0.817627,-0.00905434,-0.000348189,0.00127137,-0.000166328,-0.0092362,1.42872,0.00610278,0.0137831,643,918,-10.5573,-0.817631
-574,106,-10.5535,0.726257,-0.00978641,-0.000407497,0.00138389,-0.000207562,-0.00998635,1.42732,0.00658947,0.0182247,650,918,-10.5535,-0.726236
-567,106,-11.0498,0.694031,-0.010039,-0.000332722,0.00146578,-0.000116197,-0.0102555,1.42414,0.00679862,0.0351201,657,918,-11.0498,-0.694045
-560,106,-11.6564,0.660278,0,0,0,0,0,0,0,-1,664,918,-11.6564,-0.660261
-553,106,-11.5898,0.81366,-0.00966636,-3.49281e-05,0.00161876,0.000229856,-0.00993115,1.40866,0.0066987,0.0355312,671,918,-11.5899,-0.813651
-546,106,-11.6257,0.645325,-0.0085187,0.000315974,0.00157307,0.000587711,-0.00879044,1.39974,0.0060657,0.0380852,678,918,-11.6258,-0.645316
-539,106,-11.7749,0.586487,-0.00657503,0.000793323,0.0013823,0.00104411,-0.00682582,1.39132,0.00493553,0.0432894,685,918,-11.7749,-0.586488
-532,106,-11.8056,0.775085,-0.00380349,0.00139128,0.00100905,0.0015804,-0.00399261,1.38552,0.00331652,0.0428794,692,918,-11.8056,-0.775065
-525,106,-11.7722,0.890625,-9.72351e-05,0.00207742,0.000352486,0.00213313,-0.000152942,1.41405,0.00147571,0.0392055,699,918,-11.7722,-0.890606
-518,106,-11.8845,0.671509,0.0038937,0.00283644,-0.00060365,0.00416747,0.00256267,-0.425779,0.00242718,0.0387963,706,918,-11.8846,-0.671535
-511,106,0,0,0,0,0,0,0,0,0,-1,713,918,0,0
-504,106,0,0,0,0,0,0,0,0,0,-1,720,918,0,0
-497,106,0,0,0,0,0,0,0,0,0,-1,727,918,0,0
-490,106,0,0,0,0,0,0,0,0,0,-1,734,918,0,0
-483,106,0,0,0,0,0,0,0,0,0,-1,741,918,0,0
-476,106,0,0,0,0,0,0,0,0,0,-1,748,918,0,0
-469,106,0,0,0,0,0,0,0,0,0,-1,755,918,0,0
-462,106,0,0,0,0,0,0,0,0,0,-1,762,918,0,0
-455,106,0,0,0,0,0,0,0,0,0,-1,769,918,0,0
-448,106,0,0,0,0,0,0,0,0,0,-1,776,918,0,0
-441,106,0,0,0,0,0,0,0,0,0,-1,783,918,0,0
-434,106,0,0,0,0,0,0,0,0,0,-1,790,918,0,0
-427,106,0,0,0,0,0,0,0,0,0,-1,797,918,0,0
-420,106,0,0,0,0,0,0,0,0,0,-1,804,918,0,0
-413,106,0,0,0,0,0,0,0,0,0,-1,811,918,0,0
-406,106,0,0,0,0,0,0,0,0,0,-1,818,918,0,0
-399,106,0,0,0,0,0,0,0,0,0,-1,825,918,0,0
-392,106,0,0,0,0,0,0,0,0,0,-1,832,918,0,0
-385,106,0,0,0,0,0,0,0,0,0,-1,839,918,0,0
-378,106,0,0,0,0,0,0,0,0,0,-1,846,918,0,0
-371,106,0,0,0,0,0,0,0,0,0,-1,853,918,0,0
-364,106,0,0,0,0,0,0,0,0,0,-1,860,918,0,0
-357,106,0,0,0,0,0,0,0,0,0,-1,867,918,0,0
-350,106,0,0,0,0,0,0,0,0,0,-1,874,918,0,0
-343,106,0,0,0,0,0,0,0,0,0,-1,881,918,0,0
-336,106,0,0,0,0,0,0,0,0,0,-1,888,918,0,0
-329,106,0,0,0,0,0,0,0,0,0,-1,895,918,0,0
-322,106,0,0,0,0,0,0,0,0,0,-1,902,918,0,0
-315,106,0,0,0,0,0,0,0,0,0,-1,909,918,0,0
-308,106,0,0,0,0,0,0,0,0,0,-1,916,918,0,0
-301,106,0,0,0,0,0,0,0,0,0,-1,923,918,0,0
-294,106,0,0,0,0,0,0,0,0,0,-1,930,918,0,0
-287,106,0,0,0,0,0,0,0,0,0,-1,937,918,0,0
-280,106,0,0,0,0,0,0,0,0,0,-1,944,918,0,0
-273,106,0,0,0,0,0,0,0,0,0,-1,951,918,0,0
-266,106,0,0,0,0,0,0,0,0,0,-1,958,918,0,0
-259,106,0,0,0,0,0,0,0,0,0,-1,965,918,0,0
-252,106,0,0,0,0,0,0,0,0,0,-1,972,918,0,0
-245,106,0,0,0,0,0,0,0,0,0,-1,979,918,0,0
-238,106,0,0,0,0,0,0,0,0,0,-1,986,918,0,0
-231,106,0,0,0,0,0,0,0,0,0,-1,993,918,0,0
-224,106,0,0,0,0,0,0,0,0,0,-1,1000,918,0,0
-217,106,0,0,0,0,0,0,0,0,0,-1,1007,918,0,0
-210,106,0,0,0,0,0,0,0,0,0,-1,1014,918,0,0
-203,106,0,0,0,0,0,0,0,0,0,-1,1021,918,0,0
-196,106,0,0,0,0,0,0,0,0,0,-1,1028,918,0,0
-189,106,0,0,0,0,0,0,0,0,0,-1,1035,918,0,0
-182,106,0,0,0,0,0,0,0,0,0,-1,1042,918,0,0
-175,106,0,0,0,0,0,0,0,0,0,-1,1049,918,0,0
-168,106,0,0,0,0,0,0,0,0,0,-1,1056,918,0,0
-161,106,0,0,0,0,0,0,0,0,0,-1,1063,918,0,0
-154,106,0,0,0,0,0,0,0,0,0,-1,1070,918,0,0
-147,106,0,0,0,0,0,0,0,0,0,-1,1077,918,0,0
-140,106,0,0,0,0,0,0,0,0,0,-1,1084,918,0,0
-133,106,0,0,0,0,0,0,0,0,0,-1,1091,918,0,0
-126,106,0,0,0,0,0,0,0,0,0,-1,1098,918,0,0
-119,106,0,0,0,0,0,0,0,0,0,-1,1105,918,0,0
-112,106,0,0,0,0,0,0,0,0,0,-1,1112,918,0,0
-105,106,0,0,0,0,0,0,0,0,0,-1,1119,918,0,0
-98,106,0,0,0,0,0,0,0,0,0,-1,1126,918,0,0
-91,106,0,0,0,0,0,0,0,0,0,-1,1133,918,0,0
-84,106,0,0,0,0,0,0,0,0,0,-1,1140,918,0,0
-77,106,0,0,0,0,0,0,0,0,0,-1,1147,918,0,0
-70,106,0,0,0,0,0,0,0,0,0,-1,1154,918,0,0
-63,106,0,0,0,0,0,0,0,0,0,-1,1161,918,0,0
-56,106,0,0,0,0,0,0,0,0,0,-1,1168,918,0,0
-49,106,0,0,0,0,0,0,0,0,0,-1,1175,918,0,0
-42,106,0,0,0,0,0,0,0,0,0,-1,1182,918,0,0
-35,106,0,0,0,0,0,0,0,0,0,-1,1189,918,0,0
-28,106,0,0,0,0,0,0,0,0,0,-1,1196,918,0,0
-21,106,0,0,0,0,0,0,0,0,0,-1,1203,918,0,0
-14,106,0,0,0,0,0,0,0,0,0,-1,1210,918,0,0
-7,106,0,0,0,0,0,0,0,0,0,-1,1217,918,0,0
0,106,0,0,0,0,0,0,0,0,0,-1,1224,918,0,0
7,106,0,0,0,0,0,0,0,0,0,-1,1231,918,0,0
14,106,0,0,0,0,0,0,0,0,0,-1,1238,918,0,0
21,106,0,0,0,0,0,0,0,0,0,-1,1245,918,0,0
28,106,0,0,0,0,0,0,0,0,0,-1,1252,918,0,0
35,106,0,0,0,0,0,0,0,0,0,-1,1259,918,0,0
42,106,0,0,0,0,0,0,0,0,0,-1,1266,918,0,0
49,106,0,0,0,0,0,0,0,0,0,-1,1273,918,0,0
56,106,0,0,0,0,0,0,0,0,0,-1,1280,918,0,0
63,106,0,0,0,0,0,0,0,0,0,-1,1287,918,0,0
70,106,0,0,0,0,0,0,0,0,0,-1,1294,918,0,0
77,106,0,0,0,0,0,0,0,0,0,-1,1301,918,0,0
84,106,0,0,0,0,0,0,0,0,0,-1,1308,918,0,0
91,106,0,0,0,0,0,0,0,0,0,-1,1315,918,0,0
98,106,0,0,0,0,0,0,0,0,0,-1,1322,918,0,0
105,106,0,0,0,0,0,0,0,0,0,-1,1329,918,0,0
112,106,0,0,0,0,0,0,0,0,0,-1,1336,918,0,0
119,106,0,0,0,0,0,0,0,0,0,-1,1343,918,0,0
126,106,0,0,0,0,0,0,0,0,0,-1,1350,918,0,0
133,106,0,0,0,0,0,0,0,0,0,-1,1357,918,0,0
140,106,0,0,0,0,0,0,0,0,0,-1,1364,918,0,0
147,106,0,0,0,0,0,0,0,0,0,-1,1371,918,0,0
154,106,0,0,0,0,0,0,0,0,0,-1,1378,918,0,0
161,106,0,0,0,0,0,0,0,0,0,-1,1385,918,0,0
168,106,0,0,0,0,0,0,0,0,0,-1,1392,918,0,0
175,106,0,0,0,0,0,0,0,0,0,-1,1399,918,0,0
182,106,0,0,0,0,0,0,0,0,0,-1,1406,918,0,0
189,106,0,0,0,0,0,0,0,0,0,-1,1413,918,0,0
196,106,0,0,0,0,0,0,0,0,0,-1,1420,918,0,0
203,106,0,0,0,0,0,0,0,0,0,-1,1427,918,0,0
210,106,0,0,0,0,0,0,0,0,0,-1,1434,918,0,0
217,106,0,0,0,0,0,0,0,0,0,-1,1441,918,0,0
224,106,0,0,0,0,0,0,0,0,0,-1,1448,918,0,0
231,106,0,0,0,0,0,0,0,0,0,-1,1455,918,0,0
238,106,0,0,0,0,0,0,0,0,0,-1,1462,918,0,0
245,106,0,0,0,0,0,0,0,0,0,-1,1469,918,0,0
252,106,0,0,0,0,0,0,0,0,0,-1,1476,918,0,0
259,106,0,0,0,0,0,0,0,0,0,-1,1483,918,0,0
266,106,0,0,0,0,0,0,0,0,0,-1,1490,918,0,0
273,106,0,0,0,0,0,0,0,0,0,-1,1497,918,0,0
280,106,0,0,0,0,0,0,0,0,0,-1,1504,918,0,0
287,106,0,0,0,0,0,0,0,0,0,-1,1511,918,0,0
294,106,0,0,0,0,0,0,0,0,0,-1,1518,918,0,0
301,106,0,0,0,0,0,0,0,0,0,-1,1525,918,0,0
308,106,0,0,0,0,0,0,0,0,0,-1,1532,918,0,0
315,106,0,0,0,0,0,0,0,0,0,-1,1539,918,0,0
322,106,0,0,0,0,0,0,0,0,0,-1,1546,918,0,0
329,106,0,0,0,0,0,0,0,0,0,-1,1553,918,0,0
336,106,0,0,0,0,0,0,0,0,0,-1,1560,918,0,0
343,106,0,0,0,0,0,0,0,0,0,-1,1567,918,0,0
350,106,0,0,0,0,0,0,0,0,0,-1,1574,918,0,0
357,106,0,0,0,0,0,0,0,0,0,-1,1581,918,0,0
364,106,0,0,0,0,0,0,0,0,0,-1,1588,918,0,0
371,106,0,0,0,0,0,0,0,0,0,-1,1595,918,0,0
378,106,0,0,0,0,0,0,0,0,0,-1,1602,918,0,0
385,106,0,0,0,0,0,0,0,0,0,-1,1609,918,0,0
392,106,0,0,0,0,0,0,0,0,0,-1,1616,918,0,0
399,106,0,0,0,0,0,0,0,0,0,-1,1623,918,0,0
406,106,0,0,0,0,0,0,0,0,0,-1,1630,918,0,0
413,106,0,0,0,0,0,0,0,0,0,-1,1637,918,0,0
420,106,0,0,0,0,0,0,0,0,0,-1,1644,918,0,0
427,106,0,0,0,0,0,0,0,0,0,-1,1651,918,0,0
434,106,0,0,0,0,0,0,0,0,0,-1,1658,918,0,0
441,106,0,0,0,0,0,0,0,0,0,-1,1665,918,0,0
448,106,0,0,0,0,0,0,0,0,0,-1,1672,918,0,0
455,106,0,0,0,0,0,0,0,0,0,-1,1679,918,0,0
462,106,0,0,0,0,0,0,0,0,0,-1,1686,918,0,0
469,106,0,0,0,0,0,0,0,0,0,-1,1693,918,0,0
476,106,0,0,0,0,0,0,0,0,0,-1,1700,918,0,0
483,106,0,0,0,0,0,0,0,0,0,-1,1707,918,0,0
490,106,0,0,0,0,0,0,0,0,0,-1,1714,918,0,0
497,106,0,0,0,0,0,0,0,0,0,-1,1721,918,0,0
504,106,0,0,0,0,0,0,0,0,0,-1,1728,918,0,0
511,106,0,0,0,0,0,0,0,0,0,-1,1735,918,0,0
518,106,0,0,0,0,0,0,0,0,0,-1,1742,918,0,0
525,106,0,0,0,0,0,0,0,0,0,-1,1749,918,0,0
532,106,0,0,0,0,0,0,0,0,0,-1,1756,918,0,0
539,106,0,0,0,0,0,0,0,0,0,-1,1763,918,0,0
546,106,0,0,0,0,0,0,0,0,0,-1,1770,918,0,0
553,106,0,0,0,0,0,0,0,0,0,-1,1777,918,0,0
560,106,0,0,0,0,0,0,0,0,0,-1,1784,918,0,0
567,106,0,0,0,0,0,0,0,0,0,-1,1791,918,0,0
574,106,0,0,0,0,0,0,0,0,0,-1,1798,918,0,0
581,106,0,0,0,0,0,0,0,0,0,-1,1805,918,0,0
588,106,0,0,0,0,0,0,0,0,0,-1,1812,918,0,0
595,106,0,0,0,0,0,0,0,0,0,-1,1819,918,0,0
602,106,0,0,0,0,0,0,0,0,0,-1,1826,918,0,0
609,106,0,0,0,0,0,0,0,0,0,-1,1833,918,0,0
616,106,0,0,0,0,0,0,0,0,0,-1,1840,918,0,0
623,106,0,0,0,0,0,0,0,0,0,-1,1847,918,0,0
630,106,17.9408,2.3609,-0.000374558,0.00662704,0.000266505,0.00663717,-0.000384687,1.53281,0.00455842,0.0396575,1854,918,17.9408,-2.36091
637,106,17.7524,2.53577,-0.000214812,0.00474761,0.000764424,0.0048627,-0.000329897,1.42137,0.00335717,0.0371834,1861,918,17.7524,-2.53578
644,106,17.9324,2.64703,0.000633517,0.00327503,0.00106426,0.00365046,0.000258086,1.23166,0.00235233,0.0366788,1868,918,17.9323,-2.64702
651,106,18.0339,2.57971,-0.000484057,0.00209563,0.000596879,0.00222704,-0.000615466,1.35409,0.0017268,0.0407243,1875,918,18.034,-2.57969
658,106,17.9344,2.56195,-0.00250723,0.00126829,-8.32302e-06,0.00126831,-0.00250725,-1.56859,0.0022186,0.0427157,1882,918,17.9345,-2.56194
665,106,17.8188,2.67242,-0.00445093,0.000664641,-0.000557296,0.00072465,-0.00451094,-1.46353,0.00327567,0.0407222,1889,918,17.8188,-2.67245
672,106,17.7896,2.61176,-0.00594842,0.000268235,-0.000927656,0.000403708,-0.0060839,-1.42578,0.00419698,0.0381288,1896,918,17.7896,-2.61174
679,106,17.7456,2.51221,-0.00691782,-5.76823e-05,-0.00115146,0.00013043,-0.00710594,-1.40886,0.00478136,0.0325441,1903,918,17.7456,-2.51223
686,106,17.7004,2.49908,-0.00738744,-0.00035859,-0.00122695,-0.00015057,-0.00759546,-1.40285,0.0050142,0.0314342,1910,918,17.7004,-2.49907
693,106,17.793,2.35168,-0.00773315,-0.000274865,-0.00127836,-6.1838e-05,-0.00794618,-1.40567,0.00527696,0.0250198,1917,918,17.793,-2.35166
700,106,17.2592,2.52234,0,0,0,0,0,0,0,-1,1924,918,17.2592,-2.52233
707,106,16.0779,2.89124,0,0,0,0,0,0,0,-1,1931,918,16.0778,-2.89121
714,106,16.123,2.99536,-0.0064529,-0.000103537,-0.00109913,8.1348e-05,-0.00663778,-1.40415,0.00445255,0.0171609,1938,918,16.123,-2.99537
721,106,16.1538,3.13031,-0.00545943,0.0002696,-0.00108918,0.00046968,-0.00565952,-1.38912,0.00393892,0.0161714,1945,918,16.1538,-3.13028
728,106,16.1892,3.28412,-0.00431214,0.00098394,-0.000912696,0.00113682,-0.00446501,-1.40484,0.0034192,0.0152687,1952,918,16.1893,-3.28414
735,106,16.186,3.39453,-0.00188045,0.00160407,-0.000643308,0.00171905,-0.00199542,-1.39394,0.00214653,0.0140215,1959,918,16.1861,-3.39456
742,106,16.1399,3.49939,0.00145984,0.00334712,0.000144621,0.00335814,0.00144882,1.49476,0.00194489,0.0110648,1966,918,16.1399,-3.49936
749,106,16.1337,3.61847,0.00575476,0.00584728,0.00175464,0.00755627,0.00404577,0.798578,0.00436626,0.00920784,1973,918,16.1336,-3.61847
756,106,16.1219,3.72577,0.0101107,0.00839132,0.00325919,0.0126217,0.00588034,0.656449,0.00729277,0.00962912,1980,918,16.122,-3.72575
763,106,16.1022,3.86078,0.0153972,0.0118315,0.00558026,0.0194725,0.00775622,0.630777,0.0113197,0.0168676,1987,918,16.1022,-3.86075
770,106,16.0876,3.99457,0.0217955,0.0159837,0.0089158,0.028267,0.00951222,0.627863,0.0166082,0.0368056,1994,918,16.0877,-3.99457
777,106,16.3013,3.03046,0.0297562,0.0209497,0.0135409,0.0395918,0.0111141,0.6282,0.0235797,0.0437196,2001,918,16.3013,-3.03045
784,106,16.5773,2.69098,0.0393914,0.0268217,0.0198174,0.0538967,0.0123165,0.631846,0.0326104,0.0461125,2008,918,16.5773,-2.69095
791,106,18.5699,5.05212,0.0506718,0.0336307,0.0280411,0.0714583,0.0128441,0.637902,0.0439871,0.0482317,2015,918,18.57,-5.05213
798,106,18.6055,6.09033,0.0633683,0.0413945,0.0386429,0.0925558,0.0122069,0.646894,0.0580642,0.0477689,2022,918,18.6055,-6.09034
805,106,0,0,0,0,0,0,0,0,0,-1,2029,918,0,0
812,106,0,0,0,0,0,0,0,0,0,-1,2036,918,0,0
-700,99,0,0,0,0,0,0,0,0,0,-1,524,925,0,0
-693,99,0,0,0,0,0,0,0,0,0,-1,531,925,0,0
-686,99,0,0,0,0,0,0,0,0,0,-1,538,925,0,0
-679,99,-5.9707,2.74335,0,0,0,0,0,0,0,-1,545,925,-5.97067,-2.74333
-672,99,-5.8399,3.70435,0,0,0,0,0,0,0,-1,552,925,-5.8399,-3.70437
-665,99,-10.8108,1.51398,0.0140613,0.0262224,0.0224365,0.0433878,-0.00310403,0.917726,0.0300134,0.0492054,559,925,-10.8108,-1.51398
-658,99,-10.6951,1.54608,0.00813945,0.0207826,0.0156312,0.0313221,-0.00240009,0.977553,0.0217257,0.0455589,566,925,-10.6951,-1.54609
-651,99,-10.6143,1.58984,0.00396271,0.0160408,0.0106761,0.0222676,-0.00226404,1.04279,0.0156544,0.0464109,573,925,-10.6143,-1.58984
-644,99,-10.4893,1.45209,0.00111584,0.0120356,0.00715203,0.0155736,-0.00242217,1.11141,0.0112768,0.0442751,580,925,-10.4893,-1.45211
-637,99,-10.5897,1.52991,-0.000756519,0.00874284,0.00475804,0.0107161,-0.00272981,1.17766,0.00820679,0.0272077,587,925,-10.5897,-1.52994
-630,99,-10.6499,1.48602,-0.00220114,0.00601223,0.00200426,0.00647521,-0.00266413,1.34378,0.00542737,0.0124536,594,925,-10.6499,-1.48599
-623,99,-10.6871,1.40552,-0.00356097,0.00359966,0.000481219,0.00363185,-0.00359316,1.50399,0.00417138,0.00818828,601,925,-10.687,-1.4055
-616,99,-10.6898,1.31012,-0.00433623,0.00207696,0.000414494,0.00210364,-0.00436291,1.50652,0.00380866,0.00936005,608,925,-10.6898,-1.3101
-609,99,-10.6784,1.20673,-0.00516919,0.00053591,0.000476069,0.000575363,-0.00520864,1.48811,0.00367924,0.00964755,615,925,-10.6784,-1.20671
-602,99,-10.6856,1.1261,-0.00598689,7.73644e-05,0.000546546,0.000126228,-0.00603575,1.48163,0.00406656,0.0107128,622,925,-10.6856,-1.1261
-595,99,-10.7352,1.04926,-0.0066978,0.000127474,0.000752116,0.000209372,-0.00677969,1.46233,0.00459118,0.0138576,629,925,-10.7352,-1.04923
-588,99,-10.7127,0.954895,-0.00763303,-5.8582e-05,0.000714777,8.27899e-06,-0.00769989,1.47753,0.00513602,0.0129623,636,925,-10.7127,-0.954896
-581,99,-10.6553,0.838867,-0.00864822,-8.46319e-07,0.000760169,6.54696e-05,-0.00871454,1.48378,0.00583164,0.0104494,643,925,-10.6553,-0.838842
-574,99,-10.7575,0.73175,-0.0092963,6.27339e-05,0.000783374,0.000127851,-0.00936142,1.48786,0.006284,0.0150182,650,925,-10.7575,-0.731731
-567,99,-11.1557,0.524902,-0.00944806,0.000255485,0.000787697,0.000319011,-0.00951159,1.49032,0.00645003,0.034321,657,925,-11.1557,-0.524916
-560,99,-11.5193,0.327637,0,0,0,0,0,0,0,-1,664,925,-11.5193,-0.327623
-553,99,-11.5777,0.645081,-0.00881118,0.000809918,0.000816499,0.000878718,-0.00887998,1.48673,0.00623357,0.0378886,671,925,-11.5777,-0.645105
-546,99,-11.5602,0.637634,-0.00754071,0.00131281,0.000736101,0.0013736,-0.0076015,1.48841,0.00558215,0.0414897,678,925,-11.5603,-0.63764
-539,99,-11.7167,0.652283,-0.00553155,0.00195967,0.000537824,0.00199809,-0.00556996,1.49949,0.00452873,0.0405882,685,925,-11.7167,-0.652281
-532,99,-11.8416,0.848633,-0.00276108,0.0027449,0.000179558,0.00275075,-0.00276693,1.53823,0.00318564,0.0432589,692,925,-11.8416,-0.848612
-525,99,-11.9221,0.955017,0,0,0,0,0,0,0,-1,699,925,-11.9221,-0.955037
-518,99,-11.8316,0.65564,0,0,0,0,0,0,0,-1,706,925,-11.8316,-0.655655
-511,99,0,0,0,0,0,0,0,0,0,-1,713,925,0,0
-504,99,0,0,0,0,0,0,0,0,0,-1,720,925,0,0
-497,99,0,0,0,0,0,0,0,0,0,-1,727,925,0,0
-490,99,0,0,0,0,0,0,0,0,0,-1,734,925,0,0
-483,99,0,0,0,0,0,0,0,0,0,-1,741,925,0,0
-476,99,0,0,0,0,0,0,0,0,0,-1,748,925,0,0
-469,99,0,0,0,0,0,0,0,0,0,-1,755,925,0,0
-462,99,0,0,0,0,0,0,0,0,0,-1,762,925,0,0
-455,99,0,0,0,0,0,0,0,0,0,-1,769,925,0,0
-448,99,0,0,0,0,0,0,0,0,0,-1,776,925,0,0
-441,99,0,0,0,0,0,0,0,0,0,-1,783,925,0,0
-434,99,0,0,0,0,0,0,0,0,0,-1,790,925,0,0
-427,99,0,0,0,0,0,0,0,0,0,-1,797,925,0,0
-420,99,0,0,0,0,0,0,0,0,0,-1,804,925,0,0
-413,99,0,0,0,0,0,0,0,0,0,-1,811,925,0,0
-406,99,0,0,0,0,0,0,0,0,0,-1,818,925,0,0
-399,99,0,0,0,0,0,0,0,0,0,-1,825,925,0,0
-392,99,0,0,0,0,0,0,0,0,0,-1,832,925,0,0
-385,99,0,0,0,0,0,0,0,0,0,-1,839,925,0,0
-378,99,0,0,0,0,0,0,0,0,0,-1,846,925,0,0
-371,99,0,0,0,0,0,0,0,0,0,-1,853,925,0,0
-364,99,0,0,0,0,0,0,0,0,0,-1,860,925,0,0
-357,99,0,0,0,0,0,0,0,0,0,-1,867,925,0,0
-350,99,0,0,0,0,0,0,0,0,0,-1,874,925,0,0
-343,99,0,0,0,0,0,0,0,0,0,-1,881,925,0,0
-336,99,0,0,0,0,0,0,0,0,0,-1,888,925,0,0
-329,99,0,0,0,0,0,0,0,0,0,-1,895,925,0,0
-322,99,0,0,0,0,0,0,0,0,0,-1,902,925,0,0
-315,99,0,0,0,0,0,0,0,0,0,-1,909,925,0,0
-308,99,0,0,0,0,0,0,0,0,0,-1,916,925,0,0
-301,99,0,0,0,0,0,0,0,0,0,-1,923,925,0,0
-294,99,0,0,0,0,0,0,0,0,0,-1,930,925,0,0
-287,99,0,0,0,0,0,0,0,0,0,-1,937,925,0,0
-280,99,0,0,0,0,0,0,0,0,0,-1,944,925,0,0
-273,99,0,0,0,0,0,0,0,0,0,-1,951,925,0,0
-266,99,0,0,0,0,0,0,0,0,0,-1,958,925,0,0
-259,99,0,0,0,0,0,0,0,0,0,-1,965,925,0,0
-252,99,0,0,0,0,0,0,0,0,0,-1,972,925,0,0
-245,99,0,0,0,0,0,0,0,0,0,-1,979,925,0,0
-238,99,0,0,0,0,0,0,0,0,0,-1,986,925,0,0
-231,99,0,0,0,0,0,0,0,0,0,-1,993,925,0,0
-224,99,0,0,0,0,0,0,0,0,0,-1,1000,925,0,0
-217,99,0,0,0,0,0,0,0,0,0,-1,1007,925,0,0
-210,99,0,0,0,0,0,0,0,0,0,-1,1014,925,0,0
-203,99,0,0,0,0,0,0,0,0,0,-1,1021,925,0,0
-196,99,0,0,0,0,0,0,0,0,0,-1,1028,925,0,0
-189,99,0,0,0,0,0,0,0,0,0,-1,1035,925,0,0
-182,99,0,0,0,0,0,0,0,0,0,-1,1042,925,0,0
-175,99,0,0,0,0,0,0,0,0,0,-1,1049,925,0,0
-168,99,0,0,0,0,0,0,0,0,0,-1,1056,925,0,0
-161,99,0,0,0,0,0,0,0,0,0,-1,1063,925,0,0
-154,99,0,0,0,0,0,0,0,0,0,-1,1070,925,0,0
-147,99,0,0,0,0,0,0,0,0,0,-1,1077,925,0,0
-140,99,0,0,0,0,0,0,0,0,0,-1,1084,925,0,0
-133,99,0,0,0,0,0,0,0,0,0,-1,1091,925,0,0
-126,99,0,0,0,0,0,0,0,0,0,-1,1098,925,0,0
-119,99,0,0,0,0,0,0,0,0,0,-1,1105,925,0,0
-112,99,0,0,0,0,0,0,0,0,0,-1,1112,925,0,0
-105,99,0,0,0,0,0,0,0,0,0,-1,1119,925,0,0
-98,99,0,0,0,0,0,0,0,0,0,-1,1126,925,0,0
-91,99,0,0,0,0,0,0,0,0,0,-1,1133,925,0,0
-84,99,0,0,0,0,0,0,0,0,0,-1,1140,925,0,0
-77,99,0,0,0,0,0,0,0,0,0,-1,1147,925,0,0
-70,99,0,0,0,0,0,0,0,0,0,-1,1154,925,0,0
-63,99,0,0,0,0,0,0,0,0,0,-1,1161,925,0,0
-56,99,0,0,0,0,0,0,0,0,0,-1,1168,925,0,0
-49,99,0,0,0,0,0,0,0,0,0,-1,1175,925,0,0
-42,99,0,0,0,0,0,0,0,0,0,-1,1182,925,0,0
-35,99,0,0,0,0,0,0,0,0,0,-1,1189,925,0,0
-28,99,0,0,0,0,0,0,0,0,0,-1,1196,925,0,0
-21,99,0,0,0,0,0,0,0,0,0,-1,1203,925,0,0
-14,99,0,0,0,0,0,0,0,0,0,-1,1210,925,0,0
-7,99,0,0,0,0,0,0,0,0,0,-1,1217,925,0,0
0,99,0,0,0,0,0,0,0,0,0,-1,1224,925,0,0
7,99,0,0,0,0,0,0,0,0,0,-1,1231,925,0,0
14,99,0,0,0,0,0,0,0,0,0,-1,1238,925,0,0
21,99,0,0,0,0,0,0,0,0,0,-1,1245,925,0,0
28,99,0,0,0,0,0,0,0,0,0,-1,1252,925,0,0
35,99,0,0,0,0,0,0,0,0,0,-1,1259,925,0,0
42,99,0,0,0,0,0,0,0,0,0,-1,1266,925,0,0
49,99,0,0,0,0,0,0,0,0,0,-1,1273,925,0,0
56,99,0,0,0,0,0,0,0,0,0,-1,1280,925,0,0
63,99,0,0,0,0,0,0,0,0,0,-1,1287,925,0,0
70,99,0,0,0,0,0,0,0,0,0,-1,1294,925,0,0
77,99,0,0,0,0,0,0,0,0,0,-1,1301,925,0,0
84,99,0,0,0,0,0,0,0,0,0,-1,1308,925,0,0
91,99,0,0,0,0,0,0,0,0,0,-1,1315,925,0,0
98,99,0,0,0,0,0,0,0,0,0,-1,1322,925,0,0
105,99,0,0,0,0,0,0,0,0,0,-1,1329,925,0,0
112,99,0,0,0,0,0,0,0,0,0,-1,1336,925,0,0
119,99,0,0,0,0,0,0,0,0,0,-1,1343,925,0,0
126,99,0,0,0,0,0,0,0,0,0,-1,1350,925,0,0
133,99,0,0,0,0,0,0,0,0,0,-1,1357,925,0,0
140,99,0,0,0,0,0,0,0,0,0,-1,1364,925,0,0
147,99,0,0,0,0,0,0,0,0,0,-1,1371,925,0,0
154,99,0,0,0,0,0,0,0,0,0,-1,1378,925,0,0
161,99,0,0,0,0,0,0,0,0,0,-1,1385,925,0,0
168,99,0,0,0,0,0,0,0,0,0,-1,1392,925,0,0
175,99,0,0,0,0,0,0,0,0,0,-1,1399,925,0,0
182,99,0,0,0,0,0,0,0,0,0,-1,1406,925,0,0
189,99,0,0,0,0,0,0,0,0,0,-1,1413,925,0,0
196,99,0,0,0,0,0,0,0,0,0,-1,1420,925,0,0
203,99,0,0,0,0,0,0,0,0,0,-1,1427,925,0,0
210,99,0,0,0,0,0,0,0,0,0,-1,1434,925,0,0
217,99,0,0,0,0,0,0,0,0,0,-1,1441,925,0,0
224,99,0,0,0,0,0,0,0,0,0,-1,1448,925,0,0
231,99,0,0,0,0,0,0,0,0,0,-1,1455,925,0,0
238,99,0,0,0,0,0,0,0,0,0,-1,1462,925,0,0
245,99,0,0,0,0,0,0,0,0,0,-1,1469,925,0,0
252,99,0,0,0,0,0,0,0,0,0,-1,1476,925,0,0
259,99,0,0,0,0,0,0,0,0,0,-1,1483,925,0,0
266,99,0,0,0,0,0,0,0,0,0,-1,1490,925,0,0
273,99,0,0,0,0,0,0,0,0,0,-1,1497,925,0,0
280,99,0,0,0,0,0,0,0,0,0,-1,1504,925,0,0
287,99,0,0,0,0,0,0,0,0,0,-1,1511,925,0,0
294,99,0,0,0,0,0,0,0,0,0,-1,1518,925,0,0
301,99,0,0,0,0,0,0,0,0,0,-1,1525,925,0,0
308,99,0,0,0,0,0,0,0,0,0,-1,1532,925,0,0
315,99,0,0,0,0,0,0,0,0,0,-1,1539,925,0,0
322,99,0,0,0,0,0,0,0,0,0,-1,1546,925,0,0
329,99,0,0,0,0,0,0,0,0,0,-1,1553,925,0,0
336,99,0,0,0,0,0,0,0,0,0,-1,1560,925,0,0
343,99,0,0,0,0,0,0,0,0,0,-1,1567,925,0,0
350,99,0,0,0,0,0,0,0,0,0,-1,1574,925,0,0
357,99,0,0,0,0,0,0,0,0,0,-1,1581,925,0,0
364,99,0,0,0,0,0,0,0,0,0,-1,1588,925,0,0
371,99,0,0,0,0,0,0,0,0,0,-1,1595,925,0,0
378,99,0,0,0,0,0,0,0,0,0,-1,1602,925,0,0
385,99,0,0,0,0,0,0,0,0,0,-1,1609,925,0,0
392,99,0,0,0,0,0,0,0,0,0,-1,1616,925,0,0
399,99,0,0,0,0,0,0,0,0,0,-1,1623,925,0,0
406,99,0,0,0,0,0,0,0,0,0,-1,1630,925,0,0
413,99,0,0,0,0,0,0,0,0,0,-1,1637,925,0,0
420,99,0,0,0,0,0,0,0,0,0,-1,1644,925,0,0
427,99,0,0,0,0,0,0,0,0,0,-1,1651,925,0,0
434,99,0,0,0,0,0,0,0,0,0,-1,1658,925,0,0
441,99,0,0,0,0,0,0,0,0,0,-1,1665,925,0,0
448,99,0,0,0,0,0,0,0,0,0,-1,1672,925,0,0
455,99,0,0,0,0,0,0,0,0,0,-1,1679,925,0,0
462,99,0,0,0,0,0,0,0,0,0,-1,1686,925,0,0
469,99,0,0,0,0,0,0,0,0,0,-1,1693,925,0,0
476,99,0,0,0,0,0,0,0,0,0,-1,1700,925,0,0
483,99,0,0,0,0,0,0,0,0,0,-1,1707,925,0,0
490,99,0,0,0,0,0,0,0,0,0,-1,1714,925,0,0
497,99,0,0,0,0,0,0,0,0,0,-1,1721,925,0,0
504,99,0,0,0,0,0,0,0,0,0,-1,1728,925,0,0
511,99,0,0,0,0,0,0,0,0,0,-1,1735,925,0,0
518,99,0,0,0,0,0,0,0,0,0,-1,1742,925,0,0
525,99,0,0,0,0,0,0,0,0,0,-1,1749,925,0,0
532,99,0,0,0,0,0,0,0,0,0,-1,1756,925,0,0
539,99,0,0,0,0,0,0,0,0,0,-1,1763,925,0,0
546,99,0,0,0,0,0,0,0,0,0,-1,1770,925,0,0
553,99,0,0,0,0,0,0,0,0,0,-1,1777,925,0,0
560,99,0,0,0,0,0,0,0,0,0,-1,1784,925,0,0
567,99,0,0,0,0,0,0,0,0,0,-1,1791,925,0,0
574,99,0,0,0,0,0,0,0,0,0,-1,1798,925,0,0
581,99,0,0,0,0,0,0,0,0,0,-1,1805,925,0,0
588,99,0,0,0,0,0,0,0,0,0,-1,1812,925,0,0
595,99,0,0,0,0,0,0,0,0,0,-1,1819,925,0,0
602,99,0,0,0,0,0,0,0,0,0,-1,1826,925,0,0
609,99,0,0,0,0,0,0,0,0,0,-1,1833,925,0,0
616,99,0,0,0,0,0,0,0,0,0,-1,1840,925,0,0
623,99,0,0,0,0,0,0,0,0,0,-1,1847,925,0,0
630,99,0,0,0,0,0,0,0,0,0,-1,1854,925,0,0
637,99,18.0468,2.31555,0,0,0,0,0,0,0,-1,1861,925,18.0468,-2.31553
644,99,17.9641,2.33948,0.000763558,0.00424128,0.00176282,0.00497854,2.62952e-05,1.17468,0.0033103,0.0375913,1868,925,17.9641,-2.33945
651,99,18.0066,2.36353,-0.000101053,0.00283329,0.00117549,0.00324611,-0.00051387,1.23306,0.00235413,0.0384758,1875,925,18.0066,-2.3635
658,99,17.9048,2.64832,-0.0019015,0.0018508,0.000530871,0.00192446,-0.00197516,1.43292,0.00225151,0.0420423,1882,925,17.9048,-2.64833
665,99,17.8107,2.80109,-0.00376491,0.00113033,-3.31879e-05,0.00113056,-0.00376514,-1.56402,0.00295981,0.0432323,1889,925,17.8107,-2.80106
672,99,17.8756,2.6897,-0.00525603,0.00063746,-0.000430467,0.000668735,-0.00528731,-1.49827,0.00376762,0.0407526,1896,925,17.8756,-2.68969
679,99,17.8346,2.56982,-0.00626615,0.000266889,-0.000652303,0.000331383,-0.00633064,-1.47225,0.00433511,0.0360191,1903,925,17.8346,-2.56984
686,99,17.7581,2.5658,-0.00676454,-7.51918e-05,-0.000731146,3.79002e-06,-0.00684352,-1.46319,0.00456361,0.0314017,1910,925,17.7581,-2.56577
693,99,17.7161,2.49634,-0.00710978,-3.47148e-05,-0.000773986,4.89668e-05,-0.00719346,-1.4631,0.00481205,0.0268776,1917,925,17.7161,-2.49632
700,99,17.7285,2.54706,-0.0071997,-0.000153784,-0.000738073,-7.72993e-05,-0.00727618,-1.46754,0.00482523,0.0465316,1924,925,17.7285,-2.54705
707,99,16.2982,2.90796,0,0,0,0,0,0,0,-1,1931,925,16.2982,-2.90795
714,99,16.2936,3.02411,-0.00595779,6.04949e-05,-0.000746846,0.000151791,-0.00604908,-1.44916,0.00408426,0.0172091,1938,925,16.2936,-3.02413
721,99,16.2496,3.12927,-0.00502309,0.000361046,-0.00080873,0.000479898,-0.00514195,-1.42488,0.00359861,0.0177573,1945,925,16.2496,-3.12928
728,99,16.296,3.25873,-0.0038882,0.00104951,-0.000731736,0.00115566,-0.00399436,-1.42673,0.0031203,0.0146975,1952,925,16.296,-3.25873
735,99,16.3094,3.37799,-0.00144601,0.00169975,-0.000587125,0.00180576,-0.00155202,-1.39217,0.00194046,0.0133417,1959,925,16.3095,-3.37799
742,99,16.2827,3.48853,0.0017235,0.00337186,-7.68827e-05,0.00337544,0.00171992,-1.52429,0.00194893,0.0123318,1966,925,16.2827,-3.48852
749,99,16.2546,3.59717,0.00574819,0.00596321,0.00118204,0.00704262,0.00466877,0.830749,0.00413739,0.0104939,1973,925,16.2547,-3.59718
756,99,16.2306,3.69171,0.00992897,0.00854896,0.00226186,0.0116037,0.0068742,0.637351,0.00673745,0.0103982,1980,925,16.2306,-3.69168
763,99,16.2302,3.79541,0.0150106,0.0121112,0.00407926,0.0178901,0.00923166,0.614667,0.0103306,0.0124045,1987,925,16.2302,-3.79543
770,99,16.2705,3.94287,0.020971,0.0164617,0.00678862,0.0258696,0.0115631,0.625067,0.0149638,0.0255859,1994,925,16.2706,-3.94289
777,99,16.1272,2.48169,0,0,0,0,0,0,0,-1,2001,925,16.1272,-2.48169
784,99,17.3292,5.0639,0.036441,0.0277877,0.0156825,0.0483828,0.0158459,0.650803,0.0284825,0.0435466,2008,925,17.3292,-5.06392
791,99,18.1166,5.18024,0.0458726,0.0349065,0.0224197,0.06347,0.017309,0.66547,0.0378854,0.0457825,2015,925,18.1166,-5.18022
798,99,18.3945,5.62347,0.0559114,0.0429939,0.0310735,0.0811903,0.017715,0.68293,0.0492946,0.0461048,2022,925,18.3945,-5.62349
805,99,0,0,0,0,0,0,0,0,0,-1,2029,925,0,0
812,99,0,0,0,0,0,0,0,0,0,-1,2036,925,0,0
-700,92,0,0,0,0,0,0,0,0,0,-1,524,932,0,0
-693,92,0,0,0,0,0,0,0,0,0,-1,531,932,0,0
-686,92,-7.74872,1.44263,0.0399759,0.0477453,0.0628873,0.106868,-0.0191466,0.816245,0.0784105,0.0424052,538,932,-7.74872,-1.44263
-679,92,-7.51862,2.59949,0.0248012,0.042129,0.0467797,0.0810404,-0.0141102,0.876964,0.0592926,0.0432246,545,932,-7.51861,-2.59951
-672,92,-8.50854,3.88177,0,0,0,0,0,0,0,-1,552,932,-8.50856,-3.88176
-665,92,-9.8183,4.27802,0,0,0,0,0,0,0,-1,559,932,-9.8183,-4.27802
-658,92,-10.7599,1.32733,0,0,0,0,0,0,0,-1,566,932,-10.76,-1.32735
-651,92,-10.7103,1.36615,0,0,0,0,0,0,0,-1,573,932,-10.7103,-1.36616
-644,92,-10.7123,1.41528,-0.00282872,0.0137169,0.00832296,0.0171791,-0.00629095,1.17659,0.0140281,0.0445733,580,932,-10.7123,-1.41528
-637,92,-10.7532,1.49402,-0.00379335,0.00997367,0.00562857,0.0119819,-0.0058016,1.22808,0.010472,0.0249743,587,932,-10.7533,-1.49404
-630,92,-10.7526,1.46167,-0.00458222,0.00679914,0.00249164,0.00732071,-0.0051038,1.36445,0.00721126,0.0114764,594,932,-10.7526,-1.46166
-623,92,-10.7637,1.39197,-0.00526486,0.00399279,0.000639487,0.00403675,-0.00530883,1.50215,0.00541231,0.0084914,601,932,-10.7637,-1.39199
-616,92,-10.7758,1.28955,-0.00535476,0.00233301,0.000425055,0.00235644,-0.00537819,1.51573,0.00457778,0.00832068,608,932,-10.7758,-1.28953
-609,92,-10.7752,1.20227,-0.00560565,0.0007824,0.000374616,0.000804294,-0.00562755,1.51242,0.00404653,0.00834157,615,932,-10.7752,-1.20228
-602,92,-10.773,1.12396,-0.00607517,0.000354019,0.000349879,0.000373004,-0.00609415,1.51659,0.00419264,0.00890712,622,932,-10.773,-1.12394
-595,92,-10.7432,1.01721,-0.00654118,0.000328151,0.000450095,0.000357516,-0.00657055,1.50565,0.00450427,0.0144419,629,932,-10.7432,-1.01723
-588,92,-10.7379,0.949158,-0.00727683,0.000196609,0.000335175,0.000211611,-0.00729184,1.52607,0.00493327,0.0156874,636,932,-10.7379,-0.949144
-581,92,-10.7462,0.847473,-0.00817851,0.0003552,0.000265242,0.000363436,-0.00818675,1.53975,0.00558292,0.0127083,643,932,-10.7462,-0.847498
-574,92,-10.9518,0.739441,-0.00877284,0.00053774,0.000213261,0.000542622,-0.00877772,1.54791,0.00604082,0.0202919,650,932,-10.9519,-0.739418
-567,92,-11.3609,0.580872,-0.00885347,0.000839601,0.000153688,0.000842038,-0.0088559,1.55495,0.00620369,0.0360717,657,932,-11.3609,-0.580878
-560,92,-11.5245,0.562439,-0.00869473,0.00114198,0.000114567,0.00114331,-0.00869607,1.55915,0.00621364,0.0333287,664,932,-11.5245,-0.562427
-553,92,-11.6859,0.504211,-0.00799558,0.00164225,6.54281e-05,0.00164269,-0.00799603,1.56401,0.00595427,0.0378211,671,932,-11.6859,-0.504196
-546,92,-11.6215,0.731934,-0.00662114,0.00228624,-5.83513e-05,0.00228662,-0.00662153,-1.56425,0.00534225,0.0407313,678,932,-11.6214,-0.731955
-539,92,-11.6108,0.751404,-0.0045398,0.0030843,-0.00029209,0.00309547,-0.00455097,-1.53256,0.00444126,0.0394516,685,932,-11.6108,-0.751412
-532,92,-11.6609,0.842896,-0.00172816,0.00403197,-0.000696527,0.004115,-0.00181119,-1.45215,0.00350661,0.0432998,692,932,-11.661,-0.84291
-525,92,-11.6641,0.832825,0.0017137,0.00512358,-0.00141485,0.00563418,0.0012031,-1.22446,0.00342623,0.0399292,699,932,-11.6641,-0.832798
-518,92,-11.5014,0.852295,0.00453008,0.00637152,-0.00246385,0.00808106,0.00282053,-0.96421,0.00473596,0.0396766,706,932,-11.5014,-0.852277
-511,92,0,0,0,0,0,0,0,0,0,-1,713,932,0,0
-504,92,0,0,0,0,0,0,0,0,0,-1,720,932,0,0
-497,92,0,0,0,0,0,0,0,0,0,-1,727,932,0,0
-490,92,0,0,0,0,0,0,0,0,0,-1,734,932,0,0
-483,92,0,0,0,0,0,0,0,0,0,-1,741,932,0,0
-476,92,0,0,0,0,0,0,0,0,0,-1,748,932,0,0
-469,92,0,0,0,0,0,0,0,0,0,-1,755,932,0,0
-462,92,0,0,0,0,0,0,0,0,0,-1,762,932,0,0
-455,92,0,0,0,0,0,0,0,0,0,-1,769,932,0,0
-448,92,0,0,0,0,0,0,0,0,0,-1,776,932,0,0
-441,92,0,0,0,0,0,0,0,0,0,-1,783,932,0,0
-434,92,0,0,0,0,0,0,0,0,0,-1,790,932,0,0
-427,92,0,0,0,0,0,0,0,0,0,-1,797,932,0,0
-420,92,0,0,0,0,0,0,0,0,0,-1,804,932,0,0
-413,92,0,0,0,0,0,0,0,0,0,-1,811,932,0,0
-406,92,0,0,0,0,0,0,0,0,0,-1,818,932,0,0
-399,92,0,0,0,0,0,0,0,0,0,-1,825,932,0,0
-392,92,0,0,0,0,0,0,0,0,0,-1,832,932,0,0
-385,92,0,0,0,0,0,0,0,0,0,-1,839,932,0,0
-378,92,0,0,0,0,0,0,0,0,0,-1,846,932,0,0
-371,92,0,0,0,0,0,0,0,0,0,-1,853,932,0,0
-364,92,0,0,0,0,0,0,0,0,0,-1,860,932,0,0
-357,92,0,0,0,0,0,0,0,0,0,-1,867,932,0,0
-350,92,0,0,0,0,0,0,0,0,0,-1,874,932,0,0
-343,92,0,0,0,0,0,0,0,0,0,-1,881,932,0,0
-336,92,0,0,0,0,0,0,0,0,0,-1,888,932,0,0
-329,92,0,0,0,0,0,0,0,0,0,-1,895,932,0,0
-322,92,0,0,0,0,0,0,0,0,0,-1,902,932,0,0
-315,92,0,0,0,0,0,0,0,0,0,-1,909,932,0,0
-308,92,0,0,0,0,0,0,0,0,0,-1,916,932,0,0
-301,92,0,0,0,0,0,0,0,0,0,-1,923,932,0,0
-294,92,0,0,0,0,0,0,0,0,0,-1,930,932,0,0
-287,92,0,0,0,0,0,0,0,0,0,-1,937,932,0,0
-280,92,0,0,0,0,0,0,0,0,0,-1,944,932,0,0
-273,92,0,0,0,0,0,0,0,0,0,-1,951,932,0,0
-266,92,0,0,0,0,0,0,0,0,0,-1,958,932,0,0
-259,92,0,0,0,0,0,0,0,0,0,-1,965,932,0,0
-252,92,0,0,0,0,0,0,0,0,0,-1,972,932,0,0
-245,92,0,0,0,0,0,0,0,0,0,-1,979,932,0,0
-238,92,0,0,0,0,0,0,0,0,0,-1,986,932,0,0
-231,92,0,0,0,0,0,0,0,0,0,-1,993,932,0,0
-224,92,0,0,0,0,0,0,0,0,0,-1,1000,932,0,0
-217,92,0,0,0,0,0,0,0,0,0,-1,1007,932,0,0
-210,92,0,0,0,0,0,0,0,0,0,-1,1014,932,0,0
-203,92,0,0,0,0,0,0,0,0,0,-1,1021,932,0,0
-196,92,0,0,0,0,0,0,0,0,0,-1,1028,932,0,0
-189,92,0,0,0,0,0,0,0,0,0,-1,1035,932,0,0
-182,92,0,0,0,0,0,0,0,0,0,-1,1042,932,0,0
-175,92,0,0,0,0,0,0,0,0,0,-1,1049,932,0,0
-168,92,0,0,0,0,0,0,0,0,0,-1,1056,932,0,0
-161,92,0,0,0,0,0,0,0,0,0,-1,1063,932,0,0
-154,92,0,0,0,0,0,0,0,0,0,-1,1070,932,0,0
-147,92,0,0,0,0,0,0,0,0,0,-1,1077,932,0,0
-140,92,0,0,0,0,0,0,0,0,0,-1,1084,932,0,0
-133,92,0,0,0,0,0,0,0,0,0,-1,1091,932,0,0
-126,92,0,0,0,0,0,0,0,0,0,-1,1098,932,0,0
-119,92,0,0,0,0,0,0,0,0,0,-1,1105,932,0,0
-112,92,0,0,0,0,0,0,0,0,0,-1,1112,932,0,0
-105,92,0,0,0,0,0,0,0,0,0,-1,1119,932,0,0
-98,92,0,0,0,0,0,0,0,0,0,-1,1126,932,0,0
-91,92,0,0,0,0,0,0,0,0,0,-1,1133,932,0,0
-84,92,0,0,0,0,0,0,0,0,0,-1,1140,932,0,0
-77,92,0,0,0,0,0,0,0,0,0,-1,1147,932,0,0
-70,92,0,0,0,0,0,0,0,0,0,-1,1154,932,0,0
-63,92,0,0,0,0,0,0,0,0,0,-1,1161,932,0,0
-56,92,0,0,0,0,0,0,0,0,0,-1,1168,932,0,0
-49,92,0,0,0,0,0,0,0,0,0,-1,1175,932,0,0
-42,92,0,0,0,0,0,0,0,0,0,-1,1182,932,0,0
-35,92,0,0,0,0,0,0,0,0,0,-1,1189,932,0,0
-28,92,0,0,0,0,0,0,0,0,0,-1,1196,932,0,0
-21,92,0,0,0,0,0,0,0,0,0,-1,1203,932,0,0
-14,92,0,0,0,0,0,0,0,0,0,-1,1210,932,0,0
-7,92,0,0,0,0,0,0,0,0,0,-1,1217,932,0,0
0,92,0,0,0,0,0,0,0,0,0,-1,1224,932,0,0
7,92,0,0,0,0,0,0,0,0,0,-1,1231,932,0,0
14,92,0,0,0,0,0,0,0,0,0,-1,1238,932,0,0
21,92,0,0,0,0,0,0,0,0,0,-1,1245,932,0,0
28,92,0,0,0,0,0,0,0,0,0,-1,1252,932,0,0
35,92,0,0,0,0,0,0,0,0,0,-1,1259,932,0,0
42,92,0,0,0,0,0,0,0,0,0,-1,1266,932,0,0
49,92,0,0,0,0,0,0,0,0,0,-1,1273,932,0,0
56,92,0,0,0,0,0,0,0,0,0,-1,1280,932,0,0
63,92,0,0,0,0,0,0,0,0,0,-1,1287,932,0,0
70,92,0,0,0,0,0,0,0,0,0,-1,1294,932,0,0
77,92,0,0,0,0,0,0,0,0,0,-1,1301,932,0,0
84,92,0,0,0,0,0,0,0,0,0,-1,1308,932,0,0
91,92,0,0,0,0,0,0,0,0,0,-1,1315,932,0,0
98,92,0,0,0,0,0,0,0,0,0,-1,1322,932,0,0
105,92,0,0,0,0,0,0,0,0,0,-1,1329,932,0,0
112,92,0,0,0,0,0,0,0,0,0,-1,1336,932,0,0
119,92,0,0,0,0,0,0,0,0,0,-1,1343,932,0,0
126,92,0,0,0,0,0,0,0,0,0,-1,1350,932,0,0
133,92,0,0,0,0,0,0,0,0,0,-1,1357,932,0,0
140,92,0,0,0,0,0,0,0,0,0,-1,1364,932,0,0
147,92,0,0,0,0,0,0,0,0,0,-1,1371,932,0,0
154,92,0,0,0,0,0,0,0,0,0,-1,1378,932,0,0
161,92,0,0,0,0,0,0,0,0,0,-1,1385,932,0,0
168,92,0,0,0,0,0,0,0,0,0,-1,1392,932,0,0
175,92,0,0,0,0,0,0,0,0,0,-1,1399,932,0,0
182,92,0,0,0,0,0,0,0,0,0,-1,1406,932,0,0
189,92,0,0,0,0,0,0,0,0,0,-1,1413,932,0,0
196,92,0,0,0,0,0,0,0,0,0,-1,1420,932,0,0
203,92,0,0,0,0,0,0,0,0,0,-1,1427,932,0,0
210,92,0,0,0,0,0,0,0,0,0,-1,1434,932,0,0
217,92,0,0,0,0,0,0,0,0,0,-1,1441,932,0,0
224,92,0,0,0,0,0,0,0,0,0,-1,1448,932,0,0
231,92,0,0,0,0,0,0,0,0,0,-1,1455,932,0,0
238,92,0,0,0,0,0,0,0,0,0,-1,1462,932,0,0
245,92,0,0,0,0,0,0,0,0,0,-1,1469,932,0,0
252,92,0,0,0,0,0,0,0,0,0,-1,1476,932,0,0
259,92,0,0,0,0,0,0,0,0,0,-1,1483,932,0,0
266,92,0,0,0,0,0,0,0,0,0,-1,1490,932,0,0
273,92,0,0,0,0,0,0,0,0,0,-1,1497,932,0,0
280,92,0,0,0,0,0,0,0,0,0,-1,1504,932,0,0
287,92,0,0,0,0,0,0,0,0,0,-1,1511,932,0,0
294,92,0,0,0,0,0,0,0,0,0,-1,1518,932,0,0
301,92,0,0,0,0,0,0,0,0,0,-1,1525,932,0,0
308,92,0,0,0,0,0,0,0,0,0,-1,1532,932,0,0
315,92,0,0,0,0,0,0,0,0,0,-1,1539,932,0,0
322,92,0,0,0,0,0,0,0,0,0,-1,1546,932,0,0
329,92,0,0,0,0,0,0,0,0,0,-1,1553,932,0,0
336,92,0,0,0,0,0,0,0,0,0,-1,1560,932,0,0
343,92,0,0,0,0,0,0,0,0,0,-1,1567,932,0,0
350,92,0,0,0,0,0,0,0,0,0,-1,1574,932,0,0
357,92,0,0,0,0,0,0,0,0,0,-1,1581,932,0,0
364,92,0,0,0,0,0,0,0,0,0,-1,1588,932,0,0
371,92,0,0,0,0,0,0,0,0,0,-1,1595,932,0,0
378,92,0,0,0,0,0,0,0,0,0,-1,1602,932,0,0
385,92,0,0,0,0,0,0,0,0,0,-1,1609,932,0,0
392,92,0,0,0,0,0,0,0,0,0,-1,1616,932,0,0
399,92,0,0,0,0,0,0,0,0,0,-1,1623,932,0,0
406,92,0,0,0,0,0,0,0,0,0,-1,1630,932,0,0
413,92,0,0,0,0,0,0,0,0,0,-1,1637,932,0,0
420,92,0,0,0,0,0,0,0,0,0,-1,1644,932,0,0
427,92,0,0,0,0,0,0,0,0,0,-1,1651,932,0,0
434,92,0,0,0,0,0,0,0,0,0,-1,1658,932,0,0
441,92,0,0,0,0,0,0,0,0,0,-1,1665,932,0,0
448,92,0,0,0,0,0,0,0,0,0,-1,1672,932,0,0
455,92,0,0,0,0,0,0,0,0,0,-1,1679,932,0,0
462,92,0,0,0,0,0,0,0,0,0,-1,1686,932,0,0
469,92,0,0,0,0,0,0,0,0,0,-1,1693,932,0,0
476,92,0,0,0,0,0,0,0,0,0,-1,1700,932,0,0
483,92,0,0,0,0,0,0,0,0,0,-1,1707,932,0,0
490,92,0,0,0,0,0,0,0,0,0,-1,1714,932,0,0
497,92,0,0,0,0,0,0,0,0,0,-1,1721,932,0,0
504,92,0,0,0,0,0,0,0,0,0,-1,1728,932,0,0
511,92,0,0,0,0,0,0,0,0,0,-1,1735,932,0,0
518,92,0,0,0,0,0,0,0,0,0,-1,1742,932,0,0
525,92,0,0,0,0,0,0,0,0,0,-1,1749,932,0,0
532,92,0,0,0,0,0,0,0,0,0,-1,1756,932,0,0
539,92,0,0,0,0,0,0,0,0,0,-1,1763,932,0,0
546,92,0,0,0,0,0,0,0,0,0,-1,1770,932,0,0
553,92,0,0,0,0,0,0,0,0,0,-1,1777,932,0,0
560,92,0,0,0,0,0,0,0,0,0,-1,1784,932,0,0
567,92,0,0,0,0,0,0,0,0,0,-1,1791,932,0,0
574,92,0,0,0,0,0,0,0,0,0,-1,1798,932,0,0
581,92,0,0,0,0,0,0,0,0,0,-1,1805,932,0,0
588,92,0,0,0,0,0,0,0,0,0,-1,1812,932,0,0
595,92,0,0,0,0,0,0,0,0,0,-1,1819,932,0,0
602,92,0,0,0,0,0,0,0,0,0,-1,1826,932,0,0
609,92,0,0,0,0,0,0,0,0,0,-1,1833,932,0,0
616,92,0,0,0,0,0,0,0,0,0,-1,1840,932,0,0
623,92,0,0,0,0,0,0,0,0,0,-1,1847,932,0,0
630,92,0,0,0,0,0,0,0,0,0,-1,1854,932,0,0
637,92,17.886,2.44263,0.000554363,0.00603061,0.00175963,0.00654727,3.7702e-05,1.2852,0.00435233,0.0445984,1861,932,17.886,-2.44261
644,92,17.8667,2.36621,0.00125772,0.00438033,0.00186795,0.00525355,0.000384499,1.13351,0.0033815,0.0377307,1868,932,17.8666,-2.36619
651,92,17.7911,2.47607,0.000471769,0.00305045,0.00133713,0.00361861,-9.63911e-05,1.169,0.00244517,0.036693,1875,932,17.7911,-2.47608
658,92,17.6925,2.60028,-0.00114538,0.00211661,0.000788456,0.00229719,-0.00132596,1.34565,0.00211673,0.0421673,1882,932,17.6924,-2.60028
665,92,17.585,2.68378,-0.00291541,0.00142078,0.000308639,0.00144264,-0.00293727,1.50009,0.00257735,0.0419419,1889,932,17.585,-2.68375
672,92,17.7958,2.56647,-0.00441092,0.000940325,-2.49466e-05,0.000940442,-0.00441103,-1.56613,0.00329916,0.0393437,1896,932,17.7958,-2.56644
679,92,17.9106,2.53363,-0.00549584,0.000575261,-0.00020043,0.000581871,-0.00550245,-1.53783,0.00387684,0.0373544,1903,932,17.9106,-2.53363
686,92,17.8221,2.5907,-0.00605959,0.000224499,-0.000264907,0.000235647,-0.00607074,-1.52874,0.00412795,0.0307224,1910,932,17.8222,-2.59068
693,92,17.7457,2.61346,-0.00644268,0.000219792,-0.000292368,0.000232597,-0.00645549,-1.52703,0.00438325,0.024709,1917,932,17.7457,-2.61344
700,92,17.7334,2.56476,-0.00657899,7.18322e-05,-0.000261288,8.20812e-05,-0.00658924,-1.53159,0.00442044,0.0384963,1924,932,17.7334,-2.56475
707,92,16.5573,2.97333,0,0,0,0,0,0,0,-1,1931,932,16.5573,-2.97333
714,92,16.3276,3.04456,-0.00556279,0.000222509,-0.000372843,0.000246438,-0.00558672,-1.5067,0.00380928,0.0334588,1938,932,16.3277,-3.04458
721,92,16.4362,3.15326,-0.00475903,0.000436672,-0.000474846,0.000479712,-0.00480207,-1.4804,0.00337267,0.021517,1945,932,16.4361,-3.15324
728,92,16.3978,3.31329,-0.00372397,0.00104358,-0.000469547,0.00108938,-0.00376978,-1.47355,0.00294427,0.0160479,1952,932,16.3978,-3.31327
735,92,16.3873,3.39606,-0.00147516,0.00165781,-0.000420094,0.00171316,-0.00153051,-1.43979,0.00187372,0.0148651,1959,932,16.3874,-3.39606
742,92,16.3948,3.46191,0.0012914,0.00321003,-0.000196841,0.00323002,0.00127141,-1.46961,0.00187887,0.0175504,1966,932,16.3948,-3.46192
749,92,16.3677,3.56854,0.00473383,0.00576542,0.00067631,0.00610018,0.00439908,1.11117,0.00363495,0.0146113,1973,932,16.3676,-3.56852
756,92,16.3408,3.67798,0.00830825,0.00825367,0.00129758,0.00957883,0.00698309,0.774883,0.00572044,0.0127766,1980,932,16.3408,-3.67797
763,92,16.3657,3.76929,0.0125493,0.01156,0.0023415,0.0144478,0.00966147,0.681302,0.00849828,0.0149,1987,932,16.3657,-3.76929
770,92,16.3842,3.87921,0.0174196,0.0157505,0.00417148,0.0208392,0.0123309,0.686676,0.0120988,0.0248136,1994,932,16.3842,-3.87924
777,92,16.761,4.15997,0.0229154,0.0206457,0.00666596,0.0285424,0.0150187,0.701086,0.0164865,0.0416946,2001,932,16.761,-4.15996
784,92,17.2421,4.49231,0.0290329,0.026352,0.0100465,0.037828,0.017557,0.719078,0.0218587,0.0432953,2008,932,17.2421,-4.4923
791,92,17.7074,4.74255,0.035575,0.0327711,0.0143697,0.048611,0.0197351,0.73677,0.0282305,0.0432299,2015,932,17.7073,-4.74255
798,92,18.2074,5.03906,0.0419639,0.0397074,0.0196885,0.0605564,0.0211148,0.756777,0.035492,0.0443875,2022,932,18.2074,-5.03904
805,92,0,0,0,0,0,0,0,0,0,-1,2029,932,0,0
812,92,0,0,0,0,0,0,0,0,0,-1,2036,932,0,0
-700,85,0,0,0,0,0,0,0,0,0,-1,524,939,0,0
-693,85,0,0,0,0,0,0,0,0,0,-1,531,939,0,0
-686,85,-8.94983,1.25153,0.0331817,0.0518945,0.0616725,0.104916,-0.0198402,0.86068,0.0774098,0.0428788,538,939,-8.94981,-1.25154
-679,85,-8.94727,2.31555,0.0183272,0.0462925,0.0470895,0.0814315,-0.0168118,0.929721,0.060673,0.0399465,545,939,-8.94725,-2.31557
-672,85,-9.18353,3.36139,0.00824298,0.0396816,0.0355175,0.0628029,-0.0148783,0.993731,0.0476094,0.0442303,552,939,-9.18355,-3.36139
-665,85,-9.90253,3.6272,0.00150321,0.0329122,0.0262957,0.0478361,-0.0134207,1.05459,0.0371806,0.0453089,559,939,-9.90255,-3.6272
-658,85,-10.4847,3.60535,0,0,0,0,0,0,0,-1,566,939,-10.4847,-3.60535
-651,85,-10.6659,1.83997,-0.00507589,0.0206078,0.0134312,0.0263485,-0.0108166,1.16688,0.0220731,0.0428907,573,939,-10.6659,-1.83995
-644,85,-10.8864,1.58392,-0.00605336,0.0155267,0.00924426,0.0189452,-0.00947181,1.2166,0.0167077,0.0324458,580,939,-10.8864,-1.58394
-637,85,-10.8513,1.50873,-0.00639383,0.0113249,0.00639285,0.0133906,-0.00845953,1.25826,0.0127218,0.0164598,587,939,-10.8512,-1.50874
-630,85,-10.8461,1.43732,-0.00670953,0.00764179,0.00298805,0.00823907,-0.00730681,1.37351,0.00898079,0.010184,594,939,-10.8461,-1.43732
-623,85,-10.8436,1.36499,-0.00681291,0.004542,0.000868567,0.00460806,-0.00687896,1.49489,0.00667509,0.00914012,601,939,-10.8436,-1.36497
-616,85,-10.8549,1.28363,-0.00624299,0.00272745,0.000469492,0.00275196,-0.0062675,1.51865,0.00533761,0.00954266,608,939,-10.8549,-1.28362
-609,85,-10.8589,1.20892,-0.00594882,0.00113312,0.00026897,0.00114332,-0.00595902,1.53289,0.00440354,0.0116426,615,939,-10.8589,-1.20891
-602,85,-10.8588,1.1106,-0.00605944,0.000685351,0.000135436,0.000688069,-0.00606216,1.55073,0.00428923,0.0141845,622,939,-10.8588,-1.11057
-595,85,-10.8387,1.04816,-0.00624577,0.000567743,0.000116397,0.000569731,-0.00624775,1.55372,0.00436748,0.0157131,629,939,-10.8387,-1.04815
-588,85,-10.8275,0.973389,-0.00676455,0.000473868,-6.63394e-05,0.000474476,-0.00676516,-1.56163,0.00467629,0.015166,636,939,-10.8275,-0.973379
-581,85,-10.8309,0.88324,-0.00753536,0.000708499,-0.000224673,0.000714618,-0.00754147,-1.54357,0.00528199,0.0150448,643,939,-10.8309,-0.883231
-574,85,-11.0393,0.789429,-0.00804791,0.000964266,-0.000343175,0.000977315,-0.00806096,-1.53279,0.00572761,0.0260479,650,939,-11.0393,-0.789455
-567,85,-11.4282,0.767883,-0.00804273,0.00133177,-0.000447828,0.00135312,-0.00806407,-1.52317,0.00587922,0.0348236,657,939,-11.4282,-0.767865
-560,85,-11.4719,0.632263,-0.007784,0.00171566,-0.000524769,0.00174456,-0.0078129,-1.51578,0.00587707,0.033973,664,939,-11.4719,-0.632259
-553,85,-11.5167,0.41571,-0.00699794,0.00228168,-0.000619044,0.00232279,-0.00703906,-1.50448,0.00562905,0.0399648,671,939,-11.5167,-0.41574
-546,85,-11.6747,0.510803,-0.00559647,0.00298408,-0.000784559,0.00305523,-0.00566762,-1.48036,0.00511087,0.0418933,678,939,-11.6747,-0.510819
-539,85,-11.5243,0.87793,-0.00357517,0.00382812,-0.00107308,0.00398052,-0.00372757,-1.42972,0.00445107,0.0409595,685,939,-11.5243,-0.877939
-532,85,-11.5032,1.02325,-0.000945819,0.00481086,-0.0015784,0.00521523,-0.00135019,-1.32,0.00400351,0.0410243,692,939,-11.5032,-1.02325
-525,85,-11.5686,0.877563,0.001996,0.00593838,-0.00248777,0.00714124,0.000793141,-1.12043,0.0045197,0.0373524,699,939,-11.5686,-0.877547
-518,85,-11.5215,0.811646,0.00376124,0.00721037,-0.0039,0.0097501,0.00122152,-0.993571,0.00613357,0.037309,706,939,-11.5215,-0.811667
-511,85,0,0,0,0,0,0,0,0,0,-1,713,939,0,0
-504,85,0,0,0,0,0,0,0,0,0,-1,720,939,0,0
-497,85,0,0,0,0,0,0,0,0,0,-1,727,939,0,0
-490,85,0,0,0,0,0,0,0,0,0,-1,734,939,0,0
-483,85,0,0,0,0,0,0,0,0,0,-1,741,939,0,0
-476,85,0,0,0,0,0,0,0,0,0,-1,748,939,0,0
-469,85,0,0,0,0,0,0,0,0,0,-1,755,939,0,0
-462,85,0,0,0,0,0,0,0,0,0,-1,762,939,0,0
-455,85,0,0,0,0,0,0,0,0,0,-1,769,939,0,0
-448,85,0,0,0,0,0,0,0,0,0,-1,776,939,0,0
-441,85,0,0,0,0,0,0,0,0,0,-1,783,939,0,0
-434,85,0,0,0,0,0,0,0,0,0,-1,790,939,0,0
-427,85,0,0,0,0,0,0,0,0,0,-1,797,939,0,0
-420,85,0,0,0,0,0,0,0,0,0,-1,804,939,0,0
-413,85,0,0,0,0,0,0,0,0,0,-1,811,939,0,0
-406,85,0,0,0,0,0,0,0,0,0,-1,818,939,0,0
-399,85,0,0,0,0,0,0,0,0,0,-1,825,939,0,0
-392,85,0,0,0,0,0,0,0,0,0,-1,832,939,0,0
-385,85,0,0,0,0,0,0,0,0,0,-1,839,939,0,0
-378,85,0,0,0,0,0,0,0,0,0,-1,846,939,0,0
-371,85,0,0,0,0,0,0,0,0,0,-1,853,939,0,0
-364,85,0,0,0,0,0,0,0,0,0,-1,860,939,0,0
-357,85,0,0,0,0,0,0,0,0,0,-1,867,939,0,0
-350,85,0,0,0,0,0,0,0,0,0,-1,874,939,0,0
-343,85,0,0,0,0,0,0,0,0,0,-1,881,939,0,0
-336,85,0,0,0,0,0,0,0,0,0,-1,888,939,0,0
-329,85,0,0,0,0,0,0,0,0,0,-1,895,939,0,0
-322,85,0,0,0,0,0,0,0,0,0,-1,902,939,0,0
-315,85,0,0,0,0,0,0,0,0,0,-1,909,939,0,0
-308,85,0,0,0,0,0,0,0,0,0,-1,916,939,0,0
-301,85,0,0,0,0,0,0,0,0,0,-1,923,939,0,0
-294,85,0,0,0,0,0,0,0,0,0,-1,930,939,0,0
-287,85,0,0,0,0,0,0,0,0,0,-1,937,939,0,0
-280,85,0,0,0,0,0,0,0,0,0,-1,944,939,0,0
-273,85,0,0,0,0,0,0,0,0,0,-1,951,939,0,0
-266,85,0,0,0,0,0,0,0,0,0,-1,958,939,0,0
-259,85,0,0,0,0,0,0,0,0,0,-1,965,939,0,0
-252,85,0,0,0,0,0,0,0,0,0,-1,972,939,0,0
-245,85,0,0,0,0,0,0,0,0,0,-1,979,939,0,0
-238,85,0,0,0,0,0,0,0,0,0,-1,986,939,0,0
-231,85,0,0,0,0,0,0,0,0,0,-1,993,939,0,0
-224,85,0,0,0,0,0,0,0,0,0,-1,1000,939,0,0
-217,85,0,0,0,0,0,0,0,0,0,-1,1007,939,0,0
-210,85,0,0,0,0,0,0,0,0,0,-1,1014,939,0,0
-203,85,0,0,0,0,0,0,0,0,0,-1,1021,939,0,0
-196,85,0,0,0,0,0,0,0,0,0,-1,1028,939,0,0
-189,85,0,0,0,0,0,0,0,0,0,-1,1035,939,0,0
-182,85,0,0,0,0,0,0,0,0,0,-1,1042,939,0,0
-175,85,0,0,0,0,0,0,0,0,0,-1,1049,939,0,0
-168,85,0,0,0,0,0,0,0,0,0,-1,1056,939,0,0
-161,85,0,0,0,0,0,0,0,0,0,-1,1063,939,0,0
-154,85,0,0,0,0,0,0,0,0,0,-1,1070,939,0,0
-147,85,0,0,0,0,0,0,0,0,0,-1,1077,939,0,0
-140,85,0,0,0,0,0,0,0,0,0,-1,1084,939,0,0
-133,85,0,0,0,0,0,0,0,0,0,-1,1091,939,0,0
-126,85,0,0,0,0,0,0,0,0,0,-1,1098,939,0,0
-119,85,0,0,0,0,0,0,0,0,0,-1,1105,939,0,0
-112,85,0,0,0,0,0,0,0,0,0,-1,1112,939,0,0
-105,85,0,0,0,0,0,0,0,0,0,-1,1119,939,0,0
-98,85,0,0,0,0,0,0,0,0,0,-1,1126,939,0,0
-91,85,0,0,0,0,0,0,0,0,0,-1,1133,939,0,0
-84,85,0,0,0,0,0,0,0,0,0,-1,1140,939,0,0
-77,85,0,0,0,0,0,0,0,0,0,-1,1147,939,0,0
-70,85,0,0,0,0,0,0,0,0,0,-1,1154,939,0,0
-63,85,0,0,0,0,0,0,0,0,0,-1,1161,939,0,0
-56,85,0,0,0,0,0,0,0,0,0,-1,1168,939,0,0
-49,85,0,0,0,0,0,0,0,0,0,-1,1175,939,0,0
-42,85,0,0,0,0,0,0,0,0,0,-1,1182,939,0,0
-35,85,0,0,0,0,0,0,0,0,0,-1,1189,939,0,0
-28,85,0,0,0,0,0,0,0,0,0,-1,1196,939,0,0
-21,85,0,0,0,0,0,0,0,0,0,-1,1203,939,0,0
-14,85,0,0,0,0,0,0,0,0,0,-1,1210,939,0,0
-7,85,0,0,0,0,0,0,0,0,0,-1,1217,939,0,0
0,85,0,0,0,0,0,0,0,0,0,-1,1224,939,0,0
7,85,0,0,0,0,0,0,0,0,0,-1,1231,939,0,0
14,85,0,0,0,0,0,0,0,0,0,-1,1238,939,0,0
21,85,0,0,0,0,0,0,0,0,0,-1,1245,939,0,0
28,85,0,0,0,0,0,0,0,0,0,-1,1252,939,0,0
35,85,0,0,0,0,0,0,0,0,0,-1,1259,939,0,0
42,85,0,0,0,0,0,0,0,0,0,-1,1266,939,0,0
49,85,0,0,0,0,0,0,0,0,0,-1,1273,939,0,0
56,85,0,0,0,0,0,0,0,0,0,-1,1280,939,0,0
63,85,0,0,0,0,0,0,0,0,0,-1,1287,939,0,0
70,85,0,0,0,0,0,0,0,0,0,-1,1294,939,0,0
77,85,0,0,0,0,0,0,0,0,0,-1,1301,939,0,0
84,85,0,0,0,0,0,0,0,0,0,-1,1308,939,0,0
91,85,0,0,0,0,0,0,0,0,0,-1,1315,939,0,0
98,85,0,0,0,0,0,0,0,0,0,-1,1322,939,0,0
105,85,0,0,0,0,0,0,0,0,0,-1,1329,939,0,0
112,85,0,0,0,0,0,0,0,0,0,-1,1336,939,0,0
119,85,0,0,0,0,0,0,0,0,0,-1,1343,939,0,0
126,85,0,0,0,0,0,0,0,0,0,-1,1350,939,0,0
133,85,0,0,0,0,0,0,0,0,0,-1,1357,939,0,0
140,85,0,0,0,0,0,0,0,0,0,-1,1364,939,0,0
147,85,0,0,0,0,0,0,0,0,0,-1,1371,939,0,0
154,85,0,0,0,0,0,0,0,0,0,-1,1378,939,0,0
161,85,0,0,0,0,0,0,0,0,0,-1,1385,939,0,0
168,85,0,0,0,0,0,0,0,0,0,-1,1392,939,0,0
175,85,0,0,0,0,0,0,0,0,0,-1,1399,939,0,0
182,85,0,0,0,0,0,0,0,0,0,-1,1406,939,0,0
189,85,0,0,0,0,0,0,0,0,0,-1,1413,939,0,0
196,85,0,0,0,0,0,0,0,0,0,-1,1420,939,0,0
203,85,0,0,0,0,0,0,0,0,0,-1,1427,939,0,0
210,85,0,0,0,0,0,0,0,0,0,-1,1434,939,0,0
217,85,0,0,0,0,0,0,0,0,0,-1,1441,939,0,0
224,85,0,0,0,0,0,0,0,0,0,-1,1448,939,0,0
231,85,0,0,0,0,0,0,0,0,0,-1,1455,939,0,0
238,85,0,0,0,0,0,0,0,0,0,-1,1462,939,0,0
245,85,0,0,0,0,0,0,0,0,0,-1,1469,939,0,0
252,85,0,0,0,0,0,0,0,0,0,-1,1476,939,0,0
259,85,0,0,0,0,0,0,0,0,0,-1,1483,939,0,0
266,85,0,0,0,0,0,0,0,0,0,-1,1490,939,0,0
273,85,0,0,0,0,0,0,0,0,0,-1,1497,939,0,0
280,85,0,0,0,0,0,0,0,0,0,-1,1504,939,0,0
287,85,0,0,0,0,0,0,0,0,0,-1,1511,939,0,0
294,85,0,0,0,0,0,0,0,0,0,-1,1518,939,0,0
301,85,0,0,0,0,0,0,0,0,0,-1,1525,939,0,0
308,85,0,0,0,0,0,0,0,0,0,-1,1532,939,0,0
315,85,0,0,0,0,0,0,0,0,0,-1,1539,939,0,0
322,85,0,0,0,0,0,0,0,0,0,-1,1546,939,0,0
329,85,0,0,0,0,0,0,0,0,0,-1,1553,939,0,0
336,85,0,0,0,0,0,0,0,0,0,-1,1560,939,0,0
343,85,0,0,0,0,0,0,0,0,0,-1,1567,939,0,0
350,85,0,0,0,0,0,0,0,0,0,-1,1574,939,0,0
357,85,0,0,0,0,0,0,0,0,0,-1,1581,939,0,0
364,85,0,0,0,0,0,0,0,0,0,-1,1588,939,0,0
371,85,0,0,0,0,0,0,0,0,0,-1,1595,939,0,0
378,85,0,0,0,0,0,0,0,0,0,-1,1602,939,0,0
385,85,0,0,0,0,0,0,0,0,0,-1,1609,939,0,0
392,85,0,0,0,0,0,0,0,0,0,-1,1616,939,0,0
399,85,0,0,0,0,0,0,0,0,0,-1,1623,939,0,0
406,85,0,0,0,0,0,0,0,0,0,-1,1630,939,0,0
413,85,0,0,0,0,0,0,0,0,0,-1,1637,939,0,0
420,85,0,0,0,0,0,0,0,0,0,-1,1644,939,0,0
427,85,0,0,0,0,0,0,0,0,0,-1,1651,939,0,0
434,85,0,0,0,0,0,0,0,0,0,-1,1658,939,0,0
441,85,0,0,0,0,0,0,0,0,0,-1,1665,939,0,0
448,85,0,0,0,0,0,0,0,0,0,-1,1672,939,0,0
455,85,0,0,0,0,0,0,0,0,0,-1,1679,939,0,0
462,85,0,0,0,0,0,0,0,0,0,-1,1686,939,0,0
469,85,0,0,0,0,0,0,0,0,0,-1,1693,939,0,0
476,85,0,0,0,0,0,0,0,0,0,-1,1700,939,0,0
483,85,0,0,0,0,0,0,0,0,0,-1,1707,939,0,0
490,85,0,0,0,0,0,0,0,0,0,-1,1714,939,0,0
497,85,0,0,0,0,0,0,0,0,0,-1,1721,939,0,0
504,85,0,0,0,0,0,0,0,0,0,-1,1728,939,0,0
511,85,0,0,0,0,0,0,0,0,0,-1,1735,939,0,0
518,85,0,0,0,0,0,0,0,0,0,-1,1742,939,0,0
525,85,0,0,0,0,0,0,0,0,0,-1,1749,939,0,0
532,85,0,0,0,0,0,0,0,0,0,-1,1756,939,0,0
539,85,0,0,0,0,0,0,0,0,0,-1,1763,939,0,0
546,85,0,0,0,0,0,0,0,0,0,-1,1770,939,0,0
553,85,0,0,0,0,0,0,0,0,0,-1,1777,939,0,0
560,85,0,0,0,0,0,0,0,0,0,-1,1784,939,0,0
567,85,0,0,0,0,0,0,0,0,0,-1,1791,939,0,0
574,85,0,0,0,0,0,0,0,0,0,-1,1798,939,0,0
581,85,0,0,0,0,0,0,0,0,0,-1,1805,939,0,0
588,85,0,0,0,0,0,0,0,0,0,-1,1812,939,0,0
595,85,0,0,0,0,0,0,0,0,0,-1,1819,939,0,0
602,85,0,0,0,0,0,0,0,0,0,-1,1826,939,0,0
609,85,0,0,0,0,0,0,0,0,0,-1,1833,939,0,0
616,85,0,0,0,0,0,0,0,0,0,-1,1840,939,0,0
623,85,0,0,0,0,0,0,0,0,0,-1,1847,939,0,0
630,85,0,0,0,0,0,0,0,0,0,-1,1854,939,0,0
637,85,17.7709,2.61072,0.00154603,0.00547644,0.00138289,0.00591423,0.00110823,1.2642,0.00363024,0.0444891,1861,939,17.7709,-2.61073
644,85,17.8501,2.36688,0.00183107,0.00403235,0.00157919,0.00485662,0.00100681,1.08974,0.00295978,0.0403933,1868,939,17.8501,-2.36686
651,85,17.8246,2.35278,0.00105148,0.00282525,0.00121098,0.00343938,0.000437352,1.10146,0.00216193,0.0420846,1875,939,17.8245,-2.3528
658,85,17.6909,2.56598,-0.000382925,0.0019614,0.000859357,0.00224267,-0.000664193,1.25449,0.00175882,0.0434613,1882,939,17.6909,-2.566
665,85,17.5699,2.59222,-0.00201589,0.00130852,0.000558087,0.00139971,-0.00210708,1.40883,0.00203833,0.0406216,1889,939,17.57,-2.59223
672,85,17.8009,2.51331,-0.00348633,0.000846796,0.000362738,0.000876951,-0.00351649,1.48785,0.00268481,0.0390421,1896,939,17.8009,-2.51332
679,85,17.8624,2.54822,-0.00463695,0.000505402,0.000293443,0.000522093,-0.00465364,1.51398,0.0032903,0.0384022,1903,939,17.8625,-2.54825
686,85,17.7899,2.62494,-0.00528199,0.000169761,0.00027252,0.00018335,-0.00529558,1.52097,0.00359306,0.0342495,1910,939,17.7899,-2.62491
693,85,17.754,2.60474,-0.00572759,0.000140819,0.000264481,0.000152715,-0.00573948,1.52585,0.00387823,0.0270162,1917,939,17.7541,-2.60473
700,85,17.7457,2.52032,-0.0059396,-2.68354e-05,0.000295399,-1.21142e-05,-0.00595433,1.521,0.00396552,0.0298188,1924,939,17.7458,-2.52035
707,85,17.2032,2.74817,-0.00580074,3.19499e-06,0.000203006,1.02869e-05,-0.00580783,1.53588,0.00387532,0.0453023,1931,939,17.2032,-2.74818
714,85,16.4124,2.95123,0,0,0,0,0,0,0,-1,1938,939,16.4124,-2.95121
721,85,16.5201,3.16437,-0.00464596,0.00026137,-4.56368e-05,0.000261795,-0.00464638,-1.5615,0.00318844,0.0225591,1945,939,16.5202,-3.16436
728,85,16.4911,3.32056,-0.00382629,0.000796494,-0.000110827,0.000799149,-0.00382894,-1.54684,0.00285652,0.0170898,1952,939,16.4911,-3.32057
735,85,16.4816,3.3974,-0.00190734,0.0014098,-0.000173363,0.00141883,-0.00191638,-1.51872,0.00193271,0.017091,1959,939,16.4815,-3.39743
742,85,16.5052,3.46539,0.000331742,0.00284837,-0.000226966,0.00286867,0.000311437,-1.48157,0.00181755,0.0160264,1966,939,16.5053,-3.46538
749,85,16.4816,3.56659,0.00303517,0.00531627,0.000252356,0.00534385,0.00300758,1.46192,0.00309338,0.0138172,1973,939,16.4815,-3.56656
756,85,16.4557,3.67706,0.00602673,0.00758837,0.000451215,0.00770937,0.00590573,1.3088,0.0046563,0.0127312,1980,939,16.4556,-3.67704
763,85,16.4644,3.78503,0.00968071,0.0105015,0.000844355,0.0110299,0.0091523,1.01161,0.00681418,0.0127499,1987,939,16.4643,-3.78506
770,85,16.4551,3.82611,0.0137836,0.014367,0.00190057,0.0159981,0.0121525,0.861537,0.00964262,0.0176096,1994,939,16.455,-3.82613
777,85,16.5259,3.72321,0.0183529,0.0187541,0.00334051,0.0219,0.015207,0.815381,0.0129586,0.0363908,2001,939,16.5259,-3.72321
784,85,17.2155,3.9624,0.0234787,0.0237343,0.00532528,0.0289333,0.0182797,0.7974,0.016897,0.0432339,2008,939,17.2154,-3.96237
791,85,17.7543,4.22058,0.0292215,0.0290794,0.00783821,0.036989,0.0213119,0.780867,0.021438,0.0479522,2015,939,17.7543,-4.22058
798,85,16.4618,2.71155,0.0354092,0.0344106,0.0108572,0.0457786,0.0240412,0.76242,0.0264414,0.0445471,2022,939,16.4618,-2.71156
805,85,16.3529,2.71259,0,0,0,0,0,0,0,-1,2029,939,16.3529,-2.71262
812,85,0,0,0,0,0,0,0,0,0,-1,2036,939,0,0
-700,78,0,0,0,0,0,0,0,0,0,-1,524,946,0,0
-693,78,0,0,0,0,0,0,0,0,0,-1,531,946,0,0
-686,78,-9.70624,1.78485,0.0302182,0.0551609,0.056292,0.100346,-0.0149674,0.894411,0.0724043,0.041406,538,946,-9.70625,-1.78484
-679,78,-9.13617,2.87933,0.0153286,0.0495557,0.044273,0.0799076,-0.0150234,0.969826,0.0589214,0.0480465,545,946,-9.13616,-2.87935
-672,78,-9.54901,3.08844,0.00524376,0.0427878,0.0343381,0.0631501,-0.0151185,1.03554,0.0479409,0.0459046,552,946,-9.54902,-3.08842
-665,78,-10.0121,3.00385,-0.00140619,0.0357374,0.026125,0.0492191,-0.0148879,1.09439,0.038741,0.0457486,559,946,-10.0121,-3.00382
-658,78,-10.6076,2.24426,-0.0054488,0.0289113,0.0194233,0.0376623,-0.0141998,1.14749,0.0309471,0.0478609,566,946,-10.6076,-2.24429
-651,78,-10.7563,1.82819,-0.0075096,0.0226348,0.014072,0.0281828,-0.0130576,1.19525,0.0243381,0.042696,573,946,-10.7564,-1.82818
-644,78,-10.8546,1.62079,-0.00811164,0.017122,0.00992718,0.0205593,-0.0115489,1.23747,0.0187794,0.0240204,580,946,-10.8546,-1.62081
-637,78,-10.9075,1.48523,-0.00823849,0.0126737,0.00717275,0.0148974,-0.0104622,1.27017,0.0147158,0.0123766,587,946,-10.9075,-1.48522
-630,78,-10.9254,1.41284,-0.00832107,0.00843393,0.00357845,0.0091662,-0.00905334,1.36895,0.0105191,0.0119005,594,946,-10.9254,-1.41285
-623,78,-10.9451,1.32977,-0.00799529,0.00516331,0.00122568,0.00527651,-0.00810848,1.47871,0.00778527,0.0117094,601,946,-10.9451,-1.32975
-616,78,-10.9512,1.26886,-0.00687424,0.00318198,0.000589899,0.00321647,-0.00690872,1.5124,0.00597393,0.0107887,608,946,-10.9512,-1.26886
-609,78,-10.9286,1.19385,-0.00618212,0.00146462,0.000188759,0.00146927,-0.00618678,1.54613,0.0046916,0.0110088,615,946,-10.9286,-1.19385
-602,78,-10.9323,1.09113,-0.00601847,0.000907935,-6.87006e-05,0.000908616,-0.00601916,-1.56088,0.00434741,0.0139649,622,946,-10.9323,-1.09112
-595,78,-10.931,1.02301,-0.00596343,0.000703816,-0.000207312,0.000710256,-0.00596987,-1.53974,0.00423656,0.0149782,629,946,-10.9311,-1.02302
-588,78,-10.9327,0.992737,-0.00630936,0.000609793,-0.000447079,0.000638562,-0.00633813,-1.50654,0.00445356,0.0134539,636,946,-10.9327,-0.992709
-581,78,-10.9558,0.921936,-0.00696998,0.000873591,-0.000666885,0.000929887,-0.00702627,-1.48658,0.00502292,0.0180196,643,946,-10.9558,-0.921912
-574,78,-11.1862,0.791016,-0.00741079,0.00115073,-0.000822612,0.00122905,-0.00748911,-1.47587,0.00544883,0.0232607,650,946,-11.1862,-0.790996
-567,78,-11.4873,0.68988,-0.00734605,0.00154149,-0.000938848,0.00163959,-0.00744415,-1.46669,0.00559003,0.0291589,657,946,-11.4873,-0.689899
-560,78,-11.4228,0.697144,-0.00699885,0.00197266,-0.00101415,0.00208588,-0.00711206,-1.45962,0.00556845,0.0316954,664,946,-11.4228,-0.697129
-553,78,-11.3815,0.439087,-0.00612422,0.00257459,-0.00110223,0.00271208,-0.00626171,-1.4467,0.00531441,0.0408767,671,946,-11.3815,-0.439058
-546,78,-11.5524,0.76123,-0.00465388,0.00331295,-0.00125397,0.00350567,-0.00484659,-1.41831,0.00484285,0.0422766,678,946,-11.5524,-0.761246
-539,78,-11.4963,0.944458,-0.00258651,0.00418741,-0.00153154,0.00451759,-0.00291669,-1.35846,0.00432523,0.0393034,685,946,-11.4963,-0.944475
-532,78,-11.4554,0.966492,3.36564e-05,0.00519484,-0.00205423,0.00591263,-0.000684134,-1.23464,0.00418847,0.0386943,692,946,-11.4555,-0.966506
-525,78,-11.5385,0.812561,0.00274767,0.00634973,-0.00304262,0.00808441,0.00101299,-1.05263,0.00508568,0.0385964,699,946,-11.5385,-0.812585
-518,78,-11.4121,0.747314,0.00402026,0.00762116,-0.00468191,0.0108369,0.000804543,-0.968959,0.0069719,0.0402141,706,946,-11.4121,-0.747295
-511,78,0,0,0,0,0,0,0,0,0,-1,713,946,0,0
-504,78,0,0,0,0,0,0,0,0,0,-1,720,946,0,0
-497,78,0,0,0,0,0,0,0,0,0,-1,727,946,0,0
-490,78,0,0,0,0,0,0,0,0,0,-1,734,946,0,0
-483,78,0,0,0,0,0,0,0,0,0,-1,741,946,0,0
-476,78,0,0,0,0,0,0,0,0,0,-1,748,946,0,0
-469,78,0,0,0,0,0,0,0,0,0,-1,755,946,0,0
-462,78,0,0,0,0,0,0,0,0,0,-1,762,946,0,0
-455,78,0,0,0,0,0,0,0,0,0,-1,769,946,0,0
-448,78,0,0,0,0,0,0,0,0,0,-1,776,946,0,0
-441,78,0,0,0,0,0,0,0,0,0,-1,783,946,0,0
-434,78,0,0,0,0,0,0,0,0,0,-1,790,946,0,0
-427,78,0,0,0,0,0,0,0,0,0,-1,797,946,0,0
-420,78,0,0,0,0,0,0,0,0,0,-1,804,946,0,0
-413,78,0,0,0,0,0,0,0,0,0,-1,811,946,0,0
-406,78,0,0,0,0,0,0,0,0,0,-1,818,946,0,0
-399,78,0,0,0,0,0,0,0,0,0,-1,825,946,0,0
-392,78,0,0,0,0,0,0,0,0,0,-1,832,946,0,0
-385,78,0,0,0,0,0,0,0,0,0,-1,839,946,0,0
-378,78,0,0,0,0,0,0,0,0,0,-1,846,946,0,0
-371,78,0,0,0,0,0,0,0,0,0,-1,853,946,0,0
-364,78,0,0,0,0,0,0,0,0,0,-1,860,946,0,0
-357,78,0,0,0,0,0,0,0,0,0,-1,867,946,0,0
-350,78,0,0,0,0,0,0,0,0,0,-1,874,946,0,0
-343,78,0,0,0,0,0,0,0,0,0,-1,881,946,0,0
-336,78,0,0,0,0,0,0,0,0,0,-1,888,946,0,0
-329,78,0,0,0,0,0,0,0,0,0,-1,895,946,0,0
-322,78,0,0,0,0,0,0,0,0,0,-1,902,946,0,0
-315,78,0,0,0,0,0,0,0,0,0,-1,909,946,0,0
-308,78,0,0,0,0,0,0,0,0,0,-1,916,946,0,0
-301,78,0,0,0,0,0,0,0,0,0,-1,923,946,0,0
-294,78,0,0,0,0,0,0,0,0,0,-1,930,946,0,0
-287,78,0,0,0,0,0,0,0,0,0,-1,937,946,0,0
-280,78,0,0,0,0,0,0,0,0,0,-1,944,946,0,0
-273,78,0,0,0,0,0,0,0,0,0,-1,951,946,0,0
-266,78,0,0,0,0,0,0,0,0,0,-1,958,946,0,0
-259,78,0,0,0,0,0,0,0,0,0,-1,965,946,0,0
-252,78,0,0,0,0,0,0,0,0,0,-1,972,946,0,0
-245,78,0,0,0,0,0,0,0,0,0,-1,979,946,0,0
-238,78,0,0,0,0,0,0,0,0,0,-1,986,946,0,0
-231,78,0,0,0,0,0,0,0,0,0,-1,993,946,0,0
-224,78,0,0,0,0,0,0,0,0,0,-1,1000,946,0,0
-217,78,0,0,0,0,0,0,0,0,0,-1,1007,946,0,0
-210,78,0,0,0,0,0,0,0,0,0,-1,1014,946,0,0
-203,78,0,0,0,0,0,0,0,0,0,-1,1021,946,0,0
-196,78,0,0,0,0,0,0,0,0,0,-1,1028,946,0,0
-189,78,0,0,0,0,0,0,0,0,0,-1,1035,946,0,0
-182,78,0,0,0,0,0,0,0,0,0,-1,1042,946,0,0
-175,78,0,0,0,0,0,0,0,0,0,-1,1049,946,0,0
-168,78,0,0,0,0,0,0,0,0,0,-1,1056,946,0,0
-161,78,0,0,0,0,0,0,0,0,0,-1,1063,946,0,0
-154,78,0,0,0,0,0,0,0,0,0,-1,1070,946,0,0
-147,78,0,0,0,0,0,0,0,0,0,-1,1077,946,0,0
-140,78,0,0,0,0,0,0,0,0,0,-1,1084,946,0,0
-133,78,0,0,0,0,0,0,0,0,0,-1,1091,946,0,0
-126,78,0,0,0,0,0,0,0,0,0,-1,1098,946,0,0
-119,78,0,0,0,0,0,0,0,0,0,-1,1105,946,0,0
-112,78,0,0,0,0,0,0,0,0,0,-1,1112,946,0,0
-105,78,0,0,0,0,0,0,0,0,0,-1,1119,946,0,0
-98,78,0,0,0,0,0,0,0,0,0,-1,1126,946,0,0
-91,78,0,0,0,0,0,0,0,0,0,-1,1133,946,0,0
-84,78,0,0,0,0,0,0,0,0,0,-1,1140,946,0,0
-77,78,0,0,0,0,0,0,0,0,0,-1,1147,946,0,0
-70,78,0,0,0,0,0,0,0,0,0,-1,1154,946,0,0
-63,78,0,0,0,0,0,0,0,0,0,-1,1161,946,0,0
-56,78,0,0,0,0,0,0,0,0,0,-1,1168,946,0,0
-49,78,0,0,0,0,0,0,0,0,0,-1,1175,946,0,0
-42,78,0,0,0,0,0,0,0,0,0,-1,1182,946,0,0
-35,78,0,0,0,0,0,0,0,0,0,-1,1189,946,0,0
-28,78,0,0,0,0,0,0,0,0,0,-1,1196,946,0,0
-21,78,0,0,0,0,0,0,0,0,0,-1,1203,946,0,0
-14,78,0,0,0,0,0,0,0,0,0,-1,1210,946,0,0
-7,78,0,0,0,0,0,0,0,0,0,-1,1217,946,0,0
0,78,0,0,0,0,0,0,0,0,0,-1,1224,946,0,0
7,78,0,0,0,0,0,0,0,0,0,-1,1231,946,0,0
14,78,0,0,0,0,0,0,0,0,0,-1,1238,946,0,0
21,78,0,0,0,0,0,0,0,0,0,-1,1245,946,0,0
28,78,0,0,0,0,0,0,0,0,0,-1,1252,946,0,0
35,78,0,0,0,0,0,0,0,0,0,-1,1259,946,0,0
42,78,0,0,0,0,0,0,0,0,0,-1,1266,946,0,0
49,78,0,0,0,0,0,0,0,0,0,-1,1273,946,0,0
56,78,0,0,0,0,0,0,0,0,0,-1,1280,946,0,0
63,78,0,0,0,0,0,0,0,0,0,-1,1287,946,0,0
70,78,0,0,0,0,0,0,0,0,0,-1,1294,946,0,0
77,78,0,0,0,0,0,0,0,0,0,-1,1301,946,0,0
84,78,0,0,0,0,0,0,0,0,0,-1,1308,946,0,0
91,78,0,0,0,0,0,0,0,0,0,-1,1315,946,0,0
98,78,0,0,0,0,0,0,0,0,0,-1,1322,946,0,0
105,78,0,0,0,0,0,0,0,0,0,-1,1329,946,0,0
112,78,0,0,0,0,0,0,0,0,0,-1,1336,946,0,0
119,78,0,0,0,0,0,0,0,0,0,-1,1343,946,0,0
126,78,0,0,0,0,0,0,0,0,0,-1,1350,946,0,0
133,78,0,0,0,0,0,0,0,0,0,-1,1357,946,0,0
140,78,0,0,0,0,0,0,0,0,0,-1,1364,946,0,0
147,78,0,0,0,0,0,0,0,0,0,-1,1371,946,0,0
154,78,0,0,0,0,0,0,0,0,0,-1,1378,946,0,0
161,78,0,0,0,0,0,0,0,0,0,-1,1385,946,0,0
168,78,0,0,0,0,0,0,0,0,0,-1,1392,946,0,0
175,78,0,0,0,0,0,0,0,0,0,-1,1399,946,0,0
182,78,0,0,0,0,0,0,0,0,0,-1,1406,946,0,0
189,78,0,0,0,0,0,0,0,0,0,-1,1413,946,0,0
196,78,0,0,0,0,0,0,0,0,0,-1,1420,946,0,0
203,78,0,0,0,0,0,0,0,0,0,-1,1427,946,0,0
210,78,0,0,0,0,0,0,0,0,0,-1,1434,946,0,0
217,78,0,0,0,0,0,0,0,0,0,-1,1441,946,0,0
224,78,0,0,0,0,0,0,0,0,0,-1,1448,946,0,0
231,78,0,0,0,0,0,0,0,0,0,-1,1455,946,0,0
238,78,0,0,0,0,0,0,0,0,0,-1,1462,946,0,0
245,78,0,0,0,0,0,0,0,0,0,-1,1469,946,0,0
252,78,0,0,0,0,0,0,0,0,0,-1,1476,946,0,0
259,78,0,0,0,0,0,0,0,0,0,-1,1483,946,0,0
266,78,0,0,0,0,0,0,0,0,0,-1,1490,946,0,0
273,78,0,0,0,0,0,0,0,0,0,-1,1497,946,0,0
280,78,0,0,0,0,0,0,0,0,0,-1,1504,946,0,0
287,78,0,0,0,0,0,0,0,0,0,-1,1511,946,0,0
294,78,0,0,0,0,0,0,0,0,0,-1,1518,946,0,0
301,78,0,0,0,0,0,0,0,0,0,-1,1525,946,0,0
308,78,0,0,0,0,0,0,0,0,0,-1,1532,946,0,0
315,78,0,0,0,0,0,0,0,0,0,-1,1539,946,0,0
322,78,0,0,0,0,0,0,0,0,0,-1,1546,946,0,0
329,78,0,0,0,0,0,0,0,0,0,-1,1553,946,0,0
336,78,0,0,0,0,0,0,0,0,0,-1,1560,946,0,0
343,78,0,0,0,0,0,0,0,0,0,-1,1567,946,0,0
350,78,0,0,0,0,0,0,0,0,0,-1,1574,946,0,0
357,78,0,0,0,0,0,0,0,0,0,-1,1581,946,0,0
364,78,0,0,0,0,0,0,0,0,0,-1,1588,946,0,0
371,78,0,0,0,0,0,0,0,0,0,-1,1595,946,0,0
378,78,0,0,0,0,0,0,0,0,0,-1,1602,946,0,0
385,78,0,0,0,0,0,0,0,0,0,-1,1609,946,0,0
392,78,0,0,0,0,0,0,0,0,0,-1,1616,946,0,0
399,78,0,0,0,0,0,0,0,0,0,-1,1623,946,0,0
406,78,0,0,0,0,0,0,0,0,0,-1,1630,946,0,0
413,78,0,0,0,0,0,0,0,0,0,-1,1637,946,0,0
420,78,0,0,0,0,0,0,0,0,0,-1,1644,946,0,0
427,78,0,0,0,0,0,0,0,0,0,-1,1651,946,0,0
434,78,0,0,0,0,0,0,0,0,0,-1,1658,946,0,0
441,78,0,0,0,0,0,0,0,0,0,-1,1665,946,0,0
448,78,0,0,0,0,0,0,0,0,0,-1,1672,946,0,0
455,78,0,0,0,0,0,0,0,0,0,-1,1679,946,0,0
462,78,0,0,0,0,0,0,0,0,0,-1,1686,946,0,0
469,78,0,0,0,0,0,0,0,0,0,-1,1693,946,0,0
476,78,0,0,0,0,0,0,0,0,0,-1,1700,946,0,0
483,78,0,0,0,0,0,0,0,0,0,-1,1707,946,0,0
490,78,0,0,0,0,0,0,0,0,0,-1,1714,946,0,0
497,78,0,0,0,0,0,0,0,0,0,-1,1721,946,0,0
504,78,0,0,0,0,0,0,0,0,0,-1,1728,946,0,0
511,78,0,0,0,0,0,0,0,0,0,-1,1735,946,0,0
518,78,0,0,0,0,0,0,0,0,0,-1,1742,946,0,0
525,78,0,0,0,0,0,0,0,0,0,-1,1749,946,0,0
532,78,0,0,0,0,0,0,0,0,0,-1,1756,946,0,0
539,78,0,0,0,0,0,0,0,0,0,-1,1763,946,0,0
546,78,0,0,0,0,0,0,0,0,0,-1,1770,946,0,0
553,78,0,0,0,0,0,0,0,0,0,-1,1777,946,0,0
560,78,0,0,0,0,0,0,0,0,0,-1,1784,946,0,0
567,78,0,0,0,0,0,0,0,0,0,-1,1791,946,0,0
574,78,0,0,0,0,0,0,0,0,0,-1,1798,946,0,0
581,78,0,0,0,0,0,0,0,0,0,-1,1805,946,0,0
588,78,0,0,0,0,0,0,0,0,0,-1,1812,946,0,0
595,78,0,0,0,0,0,0,0,0,0,-1,1819,946,0,0
602,78,0,0,0,0,0,0,0,0,0,-1,1826,946,0,0
609,78,0,0,0,0,0,0,0,0,0,-1,1833,946,0,0
616,78,0,0,0,0,0,0,0,0,0,-1,1840,946,0,0
623,78,0,0,0,0,0,0,0,0,0,-1,1847,946,0,0
630,78,0,0,0,0,0,0,0,0,0,-1,1854,946,0,0
637,78,17.9456,2.58136,0,0,0,0,0,0,0,-1,1861,946,17.9455,-2.58138
644,78,18.0442,2.13837,0,0,0,0,0,0,0,-1,1868,946,18.0442,-2.13836
651,78,17.9229,2.35223,0.000744361,0.00351497,0.00117346,0.00394518,0.000314153,1.2194,0.00253191,0.0442114,1875,946,17.9229,-2.35225
658,78,17.8036,2.5675,-0.000189674,0.00243409,0.000952022,0.00274312,-0.000498712,1.25692,0.00201566,0.0403518,1882,946,17.8036,-2.56749
665,78,17.7157,2.74115,-0.00138486,0.00161657,0.000797535,0.00181533,-0.00158362,1.32656,0.0019639,0.041044,1889,946,17.7157,-2.74116
672,78,17.7489,2.6795,-0.0026075,0.00103698,0.000729011,0.0011774,-0.00274792,1.38052,0.00232596,0.0400458,1896,946,17.7489,-2.67948
679,78,17.8235,2.52643,-0.00367583,0.000620616,0.000757624,0.000750299,-0.00380551,1.40127,0.00282057,0.0389899,1903,946,17.8235,-2.52644
686,78,17.7866,2.44336,-0.00432966,0.000256492,0.000789049,0.000388451,-0.00446162,1.40509,0.00311199,0.0374339,1910,946,17.7866,-2.44335
693,78,17.7618,2.4502,-0.0048188,0.000162834,0.000820087,0.000294366,-0.00495033,1.41176,0.00340259,0.030347,1917,946,17.7619,-2.45018
700,78,17.7152,2.487,-0.00512048,-3.96773e-05,0.000860992,0.000102261,-0.00526242,1.40741,0.00354286,0.0258914,1924,946,17.7153,-2.48698
707,78,17.5839,2.78497,-0.0051408,-2.37936e-05,0.000748131,8.33441e-05,-0.00524793,1.42856,0.00352673,0.0386827,1931,946,17.5839,-2.78497
714,78,16.516,3.12939,0,0,0,0,0,0,0,-1,1938,946,16.516,-3.1294
721,78,16.5737,3.19177,-0.00449385,0.000185292,0.00046389,0.000230839,-0.0045394,1.47293,0.00310607,0.0211536,1945,946,16.5737,-3.19179
728,78,16.5951,3.29724,-0.00396084,0.000660458,0.000351322,0.000687014,-0.00398739,1.49535,0.00291438,0.0203277,1952,946,16.5951,-3.29725
735,78,16.5869,3.39539,-0.00246383,0.00127138,0.000193749,0.0012814,-0.00247386,1.51911,0.00220423,0.0149427,1959,946,16.5869,-3.39538
742,78,16.6055,3.48309,-0.000833245,0.00259375,-0.000108119,0.00259715,-0.000836653,-1.53929,0.00206754,0.014721,1966,946,16.6055,-3.4831
749,78,16.5911,3.57983,0.00100689,0.00494137,-5.98098e-06,0.00494137,0.00100688,-1.56928,0.00301519,0.0142854,1973,946,16.5911,-3.57984
756,78,16.6034,3.66504,0.00316071,0.00689428,-0.000272642,0.00691408,0.0031409,-1.49828,0.00399741,0.0148013,1980,946,16.6035,-3.66505
763,78,16.5931,3.7583,0.00584792,0.00926049,-0.000592868,0.00936056,0.00574786,-1.40359,0.00545098,0.012625,1987,946,16.5931,-3.7583
770,78,16.5551,3.83044,0.00877316,0.0125788,-0.000435249,0.012628,0.00872402,-1.45836,0.00746569,0.0151944,1994,946,16.555,-3.83046
777,78,16.4828,3.88275,0.0119681,0.0161865,-0.000166904,0.0161931,0.0119616,-1.53131,0.00969765,0.0333805,2001,946,16.4828,-3.88276
784,78,16.8334,4.23657,0.0155108,0.0200903,0.00029387,0.0201091,0.015492,1.50698,0.0121628,0.0441525,2008,946,16.8334,-4.23656
791,78,17.0693,4.34637,0,0,0,0,0,0,0,-1,2015,946,17.0694,-4.3464
798,78,16.2504,2.8045,0.0245351,0.0272905,0.00162996,0.028047,0.0237786,1.13625,0.0174501,0.0443007,2022,946,16.2503,-2.8045
805,78,16.0723,2.79974,0.0301744,0.0292651,0.00257528,0.0323349,0.0271047,0.698032,0.020042,0.0484948,2029,946,16.0723,-2.79975
812,78,0,0,0,0,0,0,0,0,0,-1,2036,946,0,0
-700,71,0,0,0,0,0,0,0,0,0,-1,524,953,0,0
-693,71,0,0,0,0,0,0,0,0,0,-1,531,953,0,0
-686,71,-9.39539,2.17834,0.0306584,0.0540037,0.0481962,0.0919206,-0.00725852,0.904206,0.0638376,0.0429985,538,953,-9.39538,-2.17833
-679,71,-9.48273,2.59094,0.0150008,0.0491309,0.0389972,0.0746334,-0.0105017,0.991644,0.0536002,0.0466018,545,953,-9.48271,-2.59093
-672,71,-9.69122,2.55695,0.00425491,0.0429879,0.0310809,0.0602422,-0.0129994,1.06401,0.0451231,0.0471393,552,953,-9.69122,-2.55694
-665,71,-10.1248,2.31171,-0.00289256,0.0364044,0.024308,0.0480119,-0.0145001,1.12529,0.0377805,0.0458711,559,953,-10.1248,-2.3117
-658,71,-10.5707,2.1684,-0.00725853,0.029866,0.0185922,0.0375759,-0.0149685,1.17769,0.0312585,0.0464368,566,953,-10.5707,-2.16843
-651,71,-10.7511,1.85797,-0.00945224,0.0237027,0.0138626,0.028735,-0.0144846,1.22257,0.025401,0.0423441,573,953,-10.7511,-1.85795
-644,71,-10.8884,1.64838,-0.0100036,0.0181633,0.0100524,0.0213829,-0.0132232,1.26084,0.0201641,0.0297098,580,953,-10.8885,-1.64836
-637,71,-10.9893,1.48657,-0.0101948,0.0138116,0.0077559,0.0160993,-0.0124826,1.28396,0.0165457,0.0130816,587,953,-10.9893,-1.48656
-630,71,-11.0164,1.39539,-0.0102864,0.00929642,0.00411075,0.0101243,-0.0111143,1.37205,0.0122666,0.0124277,594,953,-11.0164,-1.39541
-623,71,-11.0469,1.31433,-0.00954683,0.00592215,0.00149395,0.00606511,-0.00968979,1.47539,0.00917599,0.0124759,601,953,-11.047,-1.31433
-616,71,-11.0571,1.25714,-0.00768655,0.00371093,0.000665929,0.00374971,-0.00772532,1.51263,0.00675635,0.0121327,608,953,-11.0571,-1.25712
-609,71,-11.0275,1.20374,-0.00645105,0.0018218,9.61017e-05,0.00182292,-0.00645217,1.55918,0.00502064,0.0128339,615,953,-11.0275,-1.20374
-602,71,-11.012,1.10364,-0.00598532,0.00115067,-0.000269083,0.00116081,-0.00599545,-1.53316,0.00443484,0.0141316,622,953,-11.0119,-1.10364
-595,71,-11.0256,1.02588,-0.00562212,0.000839737,-0.000525158,0.000882139,-0.00566452,-1.49023,0.00410214,0.0150417,629,953,-11.0256,-1.02585
-588,71,-11.0176,0.991028,-0.00575722,0.000744304,-0.000824411,0.000847212,-0.00586013,-1.44661,0.00421762,0.0163191,636,953,-11.0176,-0.991024
-581,71,-11.1023,0.894409,-0.00625889,0.00102803,-0.00110422,0.00119168,-0.00642254,-1.42366,0.00472924,0.0237015,643,953,-11.1023,-0.894417
-574,71,-11.4034,0.736511,-0.00661097,0.00131692,-0.00128125,0.00151884,-0.00681289,-1.41448,0.00512381,0.0285504,650,953,-11.4034,-0.736502
-567,71,-11.5234,0.603271,-0.006506,0.00172593,-0.00139888,0.00195716,-0.00673722,-1.40699,0.00526652,0.0197483,657,953,-11.5234,-0.603269
-560,71,-11.5156,0.616943,-0.00611747,0.00220644,-0.00146278,0.00245601,-0.00636704,-1.40181,0.00525817,0.026015,664,953,-11.5156,-0.616926
-553,71,-11.5258,0.629517,-0.0052442,0.00286082,-0.0015363,0.00314225,-0.00552563,-1.38962,0.00506707,0.0395894,671,953,-11.5257,-0.629544
-546,71,-11.5934,0.800964,-0.00383711,0.00367307,-0.00166791,0.00402683,-0.00419086,-1.3618,0.0047448,0.04284,678,953,-11.5934,-0.800982
-539,71,-11.4028,0.808716,-0.00189631,0.00464875,-0.00193177,0.00517637,-0.00242394,-1.30417,0.00448293,0.0403711,685,953,-11.4028,-0.808686
-532,71,-11.4805,0.591187,0.000490562,0.00580809,-0.00247564,0.00678221,-0.000483558,-1.19592,0.00469097,0.0428731,692,953,-11.4805,-0.591204
-525,71,-11.7463,0.460388,0.00272164,0.00721437,-0.00355353,0.00917202,0.00076399,-1.06726,0.00587659,0.0438555,699,953,-11.7463,-0.460364
-518,71,0,0,0,0,0,0,0,0,0,-1,706,953,0,0
-511,71,0,0,0,0,0,0,0,0,0,-1,713,953,0,0
-504,71,0,0,0,0,0,0,0,0,0,-1,720,953,0,0
-497,71,0,0,0,0,0,0,0,0,0,-1,727,953,0,0
-490,71,0,0,0,0,0,0,0,0,0,-1,734,953,0,0
-483,71,0,0,0,0,0,0,0,0,0,-1,741,953,0,0
-476,71,0,0,0,0,0,0,0,0,0,-1,748,953,0,0
-469,71,0,0,0,0,0,0,0,0,0,-1,755,953,0,0
-462,71,0,0,0,0,0,0,0,0,0,-1,762,953,0,0
-455,71,0,0,0,0,0,0,0,0,0,-1,769,953,0,0
-448,71,0,0,0,0,0,0,0,0,0,-1,776,953,0,0
-441,71,0,0,0,0,0,0,0,0,0,-1,783,953,0,0
-434,71,0,0,0,0,0,0,0,0,0,-1,790,953,0,0
-427,71,0,0,0,0,0,0,0,0,0,-1,797,953,0,0
-420,71,0,0,0,0,0,0,0,0,0,-1,804,953,0,0
-413,71,0,0,0,0,0,0,0,0,0,-1,811,953,0,0
-406,71,0,0,0,0,0,0,0,0,0,-1,818,953,0,0
-399,71,0,0,0,0,0,0,0,0,0,-1,825,953,0,0
-392,71,0,0,0,0,0,0,0,0,0,-1,832,953,0,0
-385,71,0,0,0,0,0,0,0,0,0,-1,839,953,0,0
-378,71,0,0,0,0,0,0,0,0,0,-1,846,953,0,0
-371,71,0,0,0,0,0,0,0,0,0,-1,853,953,0,0
-364,71,0,0,0,0,0,0,0,0,0,-1,860,953,0,0
-357,71,0,0,0,0,0,0,0,0,0,-1,867,953,0,0
-350,71,0,0,0,0,0,0,0,0,0,-1,874,953,0,0
-343,71,0,0,0,0,0,0,0,0,0,-1,881,953,0,0
-336,71,0,0,0,0,0,0,0,0,0,-1,888,953,0,0
-329,71,0,0,0,0,0,0,0,0,0,-1,895,953,0,0
-322,71,0,0,0,0,0,0,0,0,0,-1,902,953,0,0
-315,71,0,0,0,0,0,0,0,0,0,-1,909,953,0,0
-308,71,0,0,0,0,0,0,0,0,0,-1,916,953,0,0
-301,71,0,0,0,0,0,0,0,0,0,-1,923,953,0,0
-294,71,0,0,0,0,0,0,0,0,0,-1,930,953,0,0
-287,71,0,0,0,0,0,0,0,0,0,-1,937,953,0,0
-280,71,0,0,0,0,0,0,0,0,0,-1,944,953,0,0
-273,71,0,0,0,0,0,0,0,0,0,-1,951,953,0,0
-266,71,0,0,0,0,0,0,0,0,0,-1,958,953,0,0
-259,71,0,0,0,0,0,0,0,0,0,-1,965,953,0,0
-252,71,0,0,0,0,0,0,0,0,0,-1,972,953,0,0
-245,71,0,0,0,0,0,0,0,0,0,-1,979,953,0,0
-238,71,0,0,0,0,0,0,0,0,0,-1,986,953,0,0
-231,71,0,0,0,0,0,0,0,0,0,-1,993,953,0,0
-224,71,0,0,0,0,0,0,0,0,0,-1,1000,953,0,0
-217,71,0,0,0,0,0,0,0,0,0,-1,1007,953,0,0
-210,71,0,0,0,0,0,0,0,0,0,-1,1014,953,0,0
-203,71,0,0,0,0,0,0,0,0,0,-1,1021,953,0,0
-196,71,0,0,0,0,0,0,0,0,0,-1,1028,953,0,0
-189,71,0,0,0,0,0,0,0,0,0,-1,1035,953,0,0
-182,71,0,0,0,0,0,0,0,0,0,-1,1042,953,0,0
-175,71,0,0,0,0,0,0,0,0,0,-1,1049,953,0,0
-168,71,0,0,0,0,0,0,0,0,0,-1,1056,953,0,0
-161,71,0,0,0,0,0,0,0,0,0,-1,1063,953,0,0
-154,71,0,0,0,0,0,0,0,0,0,-1,1070,953,0,0
-147,71,0,0,0,0,0,0,0,0,0,-1,1077,953,0,0
-140,71,0,0,0,0,0,0,0,0,0,-1,1084,953,0,0
-133,71,0,0,0,0,0,0,0,0,0,-1,1091,953,0,0
-126,71,0,0,0,0,0,0,0,0,0,-1,1098,953,0,0
-119,71,0,0,0,0,0,0,0,0,0,-1,1105,953,0,0
-112,71,0,0,0,0,0,0,0,0,0,-1,1112,953,0,0
-105,71,0,0,0,0,0,0,0,0,0,-1,1119,953,0,0
-98,71,0,0,0,0,0,0,0,0,0,-1,1126,953,0,0
-91,71,0,0,0,0,0,0,0,0,0,-1,1133,953,0,0
-84,71,0,0,0,0,0,0,0,0,0,-1,1140,953,0,0
-77,71,0,0,0,0,0,0,0,0,0,-1,1147,953,0,0
-70,71,0,0,0,0,0,0,0,0,0,-1,1154,953,0,0
-63,71,0,0,0,0,0,0,0,0,0,-1,1161,953,0,0
-56,71,0,0,0,0,0,0,0,0,0,-1,1168,953,0,0
-49,71,0,0,0,0,0,0,0,0,0,-1,1175,953,0,0
-42,71,0,0,0,0,0,0,0,0,0,-1,1182,953,0,0
-35,71,0,0,0,0,0,0,0,0,0,-1,1189,953,0,0
-28,71,0,0,0,0,0,0,0,0,0,-1,1196,953,0,0
-21,71,0,0,0,0,0,0,0,0,0,-1,1203,953,0,0
-14,71,0,0,0,0,0,0,0,0,0,-1,1210,953,0,0
-7,71,0,0,0,0,0,0,0,0,0,-1,1217,953,0,0
0,71,0,0,0,0,0,0,0,0,0,-1,1224,953,0,0
7,71,0,0,0,0,0,0,0,0,0,-1,1231,953,0,0
14,71,0,0,0,0,0,0,0,0,0,-1,1238,953,0,0
21,71,0,0,0,0,0,0,0,0,0,-1,1245,953,0,0
28,71,0,0,0,0,0,0,0,0,0,-1,1252,953,0,0
35,71,0,0,0,0,0,0,0,0,0,-1,1259,953,0,0
42,71,0,0,0,0,0,0,0,0,0,-1,1266,953,0,0
49,71,0,0,0,0,0,0,0,0,0,-1,1273,953,0,0
56,71,0,0,0,0,0,0,0,0,0,-1,1280,953,0,0
63,71,0,0,0,0,0,0,0,0,0,-1,1287,953,0,0
70,71,0,0,0,0,0,0,0,0,0,-1,1294,953,0,0
77,71,0,0,0,0,0,0,0,0,0,-1,1301,953,0,0
84,71,0,0,0,0,0,0,0,0,0,-1,1308,953,0,0
91,71,0,0,0,0,0,0,0,0,0,-1,1315,953,0,0
98,71,0,0,0,0,0,0,0,0,0,-1,1322,953,0,0
105,71,0,0,0,0,0,0,0,0,0,-1,1329,953,0,0
112,71,0,0,0,0,0,0,0,0,0,-1,1336,953,0,0
119,71,0,0,0,0,0,0,0,0,0,-1,1343,953,0,0
126,71,0,0,0,0,0,0,0,0,0,-1,1350,953,0,0
133,71,0,0,0,0,0,0,0,0,0,-1,1357,953,0,0
140,71,0,0,0,0,0,0,0,0,0,-1,1364,953,0,0
147,71,0,0,0,0,0,0,0,0,0,-1,1371,953,0,0
154,71,0,0,0,0,0,0,0,0,0,-1,1378,953,0,0
161,71,0,0,0,0,0,0,0,0,0,-1,1385,953,0,0
168,71,0,0,0,0,0,0,0,0,0,-1,1392,953,0,0
175,71,0,0,0,0,0,0,0,0,0,-1,1399,953,0,0
182,71,0,0,0,0,0,0,0,0,0,-1,1406,953,0,0
189,71,0,0,0,0,0,0,0,0,0,-1,1413,953,0,0
196,71,0,0,0,0,0,0,0,0,0,-1,1420,953,0,0
203,71,0,0,0,0,0,0,0,0,0,-1,1427,953,0,0
210,71,0,0,0,0,0,0,0,0,0,-1,1434,953,0,0
217,71,0,0,0,0,0,0,0,0,0,-1,1441,953,0,0
224,71,0,0,0,0,0,0,0,0,0,-1,1448,953,0,0
231,71,0,0,0,0,0,0,0,0,0,-1,1455,953,0,0
238,71,0,0,0,0,0,0,0,0,0,-1,1462,953,0,0
245,71,0,0,0,0,0,0,0,0,0,-1,1469,953,0,0
252,71,0,0,0,0,0,0,0,0,0,-1,1476,953,0,0
259,71,0,0,0,0,0,0,0,0,0,-1,1483,953,0,0
266,71,0,0,0,0,0,0,0,0,0,-1,1490,953,0,0
273,71,0,0,0,0,0,0,0,0,0,-1,1497,953,0,0
280,71,0,0,0,0,0,0,0,0,0,-1,1504,953,0,0
287,71,0,0,0,0,0,0,0,0,0,-1,1511,953,0,0
294,71,0,0,0,0,0,0,0,0,0,-1,1518,953,0,0
301,71,0,0,0,0,0,0,0,0,0,-1,1525,953,0,0
308,71,0,0,0,0,0,0,0,0,0,-1,1532,953,0,0
315,71,0,0,0,0,0,0,0,0,0,-1,1539,953,0,0
322,71,0,0,0,0,0,0,0,0,0,-1,1546,953,0,0
329,71,0,0,0,0,0,0,0,0,0,-1,1553,953,0,0
336,71,0,0,0,0,0,0,0,0,0,-1,1560,953,0,0
343,71,0,0,0,0,0,0,0,0,0,-1,1567,953,0,0
350,71,0,0,0,0,0,0,0,0,0,-1,1574,953,0,0
357,71,0,0,0,0,0,0,0,0,0,-1,1581,953,0,0
364,71,0,0,0,0,0,0,0,0,0,-1,1588,953,0,0
371,71,0,0,0,0,0,0,0,0,0,-1,1595,953,0,0
378,71,0,0,0,0,0,0,0,0,0,-1,1602,953,0,0
385,71,0,0,0,0,0,0,0,0,0,-1,1609,953,0,0
392,71,0,0,0,0,0,0,0,0,0,-1,1616,953,0,0
399,71,0,0,0,0,0,0,0,0,0,-1,1623,953,0,0
406,71,0,0,0,0,0,0,0,0,0,-1,1630,953,0,0
413,71,0,0,0,0,0,0,0,0,0,-1,1637,953,0,0
420,71,0,0,0,0,0,0,0,0,0,-1,1644,953,0,0
427,71,0,0,0,0,0,0,0,0,0,-1,1651,953,0,0
434,71,0,0,0,0,0,0,0,0,0,-1,1658,953,0,0
441,71,0,0,0,0,0,0,0,0,0,-1,1665,953,0,0
448,71,0,0,0,0,0,0,0,0,0,-1,1672,953,0,0
455,71,0,0,0,0,0,0,0,0,0,-1,1679,953,0,0
462,71,0,0,0,0,0,0,0,0,0,-1,1686,953,0,0
469,71,0,0,0,0,0,0,0,0,0,-1,1693,953,0,0
476,71,0,0,0,0,0,0,0,0,0,-1,1700,953,0,0
483,71,0,0,0,0,0,0,0,0,0,-1,1707,953,0,0
490,71,0,0,0,0,0,0,0,0,0,-1,1714,953,0,0
497,71,0,0,0,0,0,0,0,0,0,-1,1721,953,0,0
504,71,0,0,0,0,0,0,0,0,0,-1,1728,953,0,0
511,71,0,0,0,0,0,0,0,0,0,-1,1735,953,0,0
518,71,0,0,0,0,0,0,0,0,0,-1,1742,953,0,0
525,71,0,0,0,0,0,0,0,0,0,-1,1749,953,0,0
532,71,0,0,0,0,0,0,0,0,0,-1,1756,953,0,0
539,71,0,0,0,0,0,0,0,0,0,-1,1763,953,0,0
546,71,0,0,0,0,0,0,0,0,0,-1,1770,953,0,0
553,71,0,0,0,0,0,0,0,0,0,-1,1777,953,0,0
560,71,0,0,0,0,0,0,0,0,0,-1,1784,953,0,0
567,71,0,0,0,0,0,0,0,0,0,-1,1791,953,0,0
574,71,0,0,0,0,0,0,0,0,0,-1,1798,953,0,0
581,71,0,0,0,0,0,0,0,0,0,-1,1805,953,0,0
588,71,0,0,0,0,0,0,0,0,0,-1,1812,953,0,0
595,71,0,0,0,0,0,0,0,0,0,-1,1819,953,0,0
602,71,0,0,0,0,0,0,0,0,0,-1,1826,953,0,0
609,71,0,0,0,0,0,0,0,0,0,-1,1833,953,0,0
616,71,0,0,0,0,0,0,0,0,0,-1,1840,953,0,0
623,71,0,0,0,0,0,0,0,0,0,-1,1847,953,0,0
630,71,0,0,0,0,0,0,0,0,0,-1,1854,953,0,0
637,71,17.8654,2.65692,0,0,0,0,0,0,0,-1,1861,953,17.8653,-2.65694
644,71,17.5759,2.25006,0,0,0,0,0,0,0,-1,1868,953,17.5759,-2.25008
651,71,17.7224,2.38177,0.000398623,0.00390348,0.00150748,0.00446265,-0.000160547,1.2156,0.00303003,0.0428081,1875,953,17.7224,-2.38176
658,71,17.8441,2.51636,-0.000111035,0.00279657,0.00128725,0.00328456,-0.000599027,1.20844,0.00241428,0.0366937,1882,953,17.8441,-2.51638
665,71,17.792,2.58356,-0.000895381,0.00197015,0.0011792,0.002393,-0.00131824,1.22649,0.00217243,0.0387051,1889,953,17.792,-2.58355
672,71,17.7825,2.5882,-0.00184722,0.00139115,0.00117015,0.00176972,-0.00222578,1.2579,0.00231181,0.0400837,1896,953,17.7825,-2.58817
679,71,17.7665,2.58441,-0.00280312,0.000974726,0.00125194,0.00135194,-0.00318033,1.27814,0.00268675,0.0380042,1903,953,17.7664,-2.58443
686,71,17.798,2.3761,-0.00343876,0.00062563,0.0013151,0.00101403,-0.00382716,1.28362,0.00294817,0.0365848,1910,953,17.798,-2.37608
693,71,17.7943,2.25104,-0.00394289,0.000511245,0.00135971,0.000893517,-0.00432516,1.29673,0.00322283,0.0330321,1917,953,17.7943,-2.25105
700,71,17.7001,2.39685,-0.00432223,0.000291587,0.00140016,0.000683249,-0.00471389,1.29804,0.00339335,0.0339696,1924,953,17.7001,-2.39683
707,71,17.6687,2.72437,-0.00448083,0.000286046,0.00126878,0.000602716,-0.0047975,1.32621,0.003417,0.031315,1931,953,17.6687,-2.72437
714,71,16.8977,3.14642,0,0,0,0,0,0,0,-1,1938,953,16.8978,-3.1464
721,71,16.7771,3.18762,-0.00432148,0.00041603,0.000944149,0.000597259,-0.00450271,1.38115,0.00321941,0.028254,1945,953,16.7771,-3.1876
728,71,16.6826,3.30743,-0.00407877,0.000797403,0.000774807,0.000917557,-0.00419893,1.41695,0.00315,0.0182226,1952,953,16.6826,-3.30743
735,71,16.6926,3.41327,-0.00304248,0.00135104,0.000479283,0.00140272,-0.00309415,1.46339,0.00265678,0.0130583,1959,953,16.6926,-3.41326
742,71,16.7095,3.49115,-0.00204021,0.00249376,-0.000113602,0.0024966,-0.00204305,-1.54576,0.00262533,0.01449,1966,953,16.7095,-3.49115
749,71,16.7206,3.58636,-0.00104161,0.00460755,-0.000439329,0.00464151,-0.00107557,-1.49365,0.00350826,0.0166299,1973,953,16.7206,-3.58636
756,71,16.7206,3.67297,0.000329093,0.00618689,-0.00119443,0.00642108,9.4906e-05,-1.37719,0.00424943,0.0161153,1980,953,16.7206,-3.67299
763,71,16.7073,3.76276,0.00214047,0.00787744,-0.00224823,0.00865351,0.0013644,-1.23841,0.00537227,0.0128419,1987,953,16.7073,-3.76276
770,71,16.6659,3.84045,0.00398813,0.0104696,-0.0030327,0.0116673,0.00279045,-1.19467,0.00703503,0.0149664,1994,953,16.6659,-3.84048
777,71,16.4557,3.95435,0.00605619,0.0131226,-0.0038976,0.0148501,0.0043287,-1.1536,0.00881868,0.0346611,2001,953,16.4556,-3.95434
784,71,15.9829,4.46802,0.00837321,0.0157749,-0.00483093,0.0181596,0.00598849,-1.11225,0.0106851,0.043976,2008,953,15.983,-4.46805
791,71,15.8827,3.31586,0.011363,0.0180212,-0.00586294,0.0214343,0.00794991,-1.04361,0.0125118,0.0452542,2015,953,15.8827,-3.31589
798,71,15.7632,3.01099,0.0153872,0.0193456,-0.00695622,0.0245987,0.0101341,-0.923998,0.0142752,0.0424717,2022,953,15.7632,-3.011
805,71,15.8054,2.72272,0.0207609,0.0189465,-0.0079152,0.0278207,0.0118867,-0.72834,0.0161189,0.0437221,2029,953,15.8055,-2.72275
812,71,0,0,0,0,0,0,0,0,0,-1,2036,953,0,0
-700,64,0,0,0,0,0,0,0,0,0,-1,524,960,0,0
-693,64,0,0,0,0,0,0,0,0,0,-1,531,960,0,0
-686,64,-9.24323,2.31372,0.029042,0.051949,0.0386483,0.0808052,0.000185803,0.929452,0.0538083,0.0441411,538,960,-9.24323,-2.31375
-679,64,-9.75708,2.46063,0.013276,0.0476969,0.0322914,0.0670779,-0.00610505,1.03024,0.0468863,0.0421148,545,960,-9.75711,-2.46061
-672,64,-9.82239,1.75549,0,0,0,0,0,0,0,-1,552,960,-9.82241,-1.75549
-665,64,-10.2119,1.61725,-0.00449858,0.0360849,0.0212789,0.0451963,-0.01361,1.16623,0.0355469,0.0479036,559,960,-10.2119,-1.61725
-658,64,-10.462,1.6355,-0.00872493,0.0299344,0.0167299,0.0361689,-0.0149594,1.21408,0.0303537,0.0437333,566,960,-10.462,-1.63549
-651,64,-10.7075,1.86078,-0.0107414,0.0240187,0.0128268,0.0282394,-0.0149621,1.2529,0.025332,0.0396392,573,960,-10.7075,-1.86079
-644,64,-10.9672,1.586,-0.0110885,0.0186032,0.00955116,0.0214103,-0.0138955,1.28495,0.0205371,0.0297956,580,960,-10.9672,-1.58601
-637,64,-11.0523,1.47327,-0.0112544,0.0144568,0.00776924,0.0166221,-0.0134197,1.29899,0.0173775,0.0148589,587,960,-11.0523,-1.47329
-630,64,-11.1087,1.39661,-0.0112789,0.00993163,0.00429568,0.0107686,-0.0121159,1.37837,0.01322,0.0124397,594,960,-11.1087,-1.39661
-623,64,-11.121,1.32831,-0.0102009,0.00646147,0.00164893,0.00662308,-0.0103625,1.4731,0.00988553,0.0132292,601,960,-11.121,-1.32831
-616,64,-11.1273,1.25928,-0.00784935,0.00413221,0.000690382,0.00417186,-0.007889,1.51343,0.00707272,0.0159898,608,960,-11.1273,-1.2593
-609,64,-11.1139,1.20831,-0.006328,0.00216824,-1.68316e-06,0.00216824,-0.006328,-1.5706,0.00509752,0.0146124,615,960,-11.1139,-1.20831
-602,64,-11.0872,1.14459,-0.00569771,0.00141464,-0.000474152,0.00144612,-0.00572918,-1.50452,0.00438177,0.0149252,622,960,-11.0872,-1.1446
-595,64,-11.0934,1.05768,-0.00520292,0.00106173,-0.000875008,0.00118165,-0.00532284,-1.43459,0.00400103,0.0151629,629,960,-11.0934,-1.05769
-588,64,-11.0972,1.03552,-0.00519085,0.000987028,-0.0012395,0.00122644,-0.00543026,-1.38,0.00409073,0.0210296,636,960,-11.0972,-1.03555
-581,64,-11.2041,1.01385,-0.00560146,0.00128423,-0.00157436,0.00162712,-0.00594436,-1.35635,0.00460218,0.0301477,643,960,-11.2041,-1.01386
-574,64,-11.4177,0.882935,-0.00589047,0.00155822,-0.00178581,0.00196423,-0.00629648,-1.34724,0.00498315,0.0347628,650,960,-11.4177,-0.882921
-567,64,-11.4666,0.655396,-0.00575007,0.0019485,-0.00193338,0.00240676,-0.00620833,-1.33807,0.00513281,0.0246048,657,960,-11.4666,-0.655417
-560,64,-11.5494,0.567444,-0.00533263,0.00241838,-0.00204082,0.00292289,-0.00583714,-1.32845,0.00515005,0.0304118,664,960,-11.5494,-0.567415
-553,64,-11.6705,0.579102,-0.00447212,0.00303568,-0.00218247,0.00362401,-0.00506045,-1.30749,0.00503678,0.037951,671,960,-11.6705,-0.579096
-546,64,-11.6459,0.67804,-0.00313154,0.00379997,-0.00242126,0.00456198,-0.00389354,-1.26589,0.00488688,0.0413319,678,960,-11.6459,-0.678039
-539,64,-11.7032,0.658813,-0.00131106,0.00472309,-0.00285766,0.00586161,-0.00244958,-1.19166,0.00493141,0.0423344,685,960,-11.7032,-0.658833
-532,64,-11.7766,0.157654,0.000851344,0.00586437,-0.00368409,0.00781377,-0.00109806,-1.08411,0.00561112,0.045502,692,960,-11.7766,-0.15767
-525,64,-12.0256,0.116821,0,0,0,0,0,0,0,-1,699,960,-12.0257,-0.116848
-518,64,0,0,0,0,0,0,0,0,0,-1,706,960,0,0
-511,64,0,0,0,0,0,0,0,0,0,-1,713,960,0,0
-504,64,0,0,0,0,0,0,0,0,0,-1,720,960,0,0
-497,64,0,0,0,0,0,0,0,0,0,-1,727,960,0,0
-490,64,0,0,0,0,0,0,0,0,0,-1,734,960,0,0
-483,64,0,0,0,0,0,0,0,0,0,-1,741,960,0,0
-476,64,0,0,0,0,0,0,0,0,0,-1,748,960,0,0
-469,64,0,0,0,0,0,0,0,0,0,-1,755,960,0,0
-462,64,0,0,0,0,0,0,0,0,0,-1,762,960,0,0
-455,64,0,0,0,0,0,0,0,0,0,-1,769,960,0,0
-448,64,0,0,0,0,0,0,0,0,0,-1,776,960,0,0
-441,64,0,0,0,0,0,0,0,0,0,-1,783,960,0,0
-434,64,0,0,0,0,0,0,0,0,0,-1,790,960,0,0
-427,64,0,0,0,0,0,0,0,0,0,-1,797,960,0,0
-420,64,0,0,0,0,0,0,0,0,0,-1,804,960,0,0
-413,64,0,0,0,0,0,0,0,0,0,-1,811,960,0,0
-406,64,0,0,0,0,0,0,0,0,0,-1,818,960,0,0
-399,64,0,0,0,0,0,0,0,0,0,-1,825,960,0,0
-392,64,0,0,0,0,0,0,0,0,0,-1,832,960,0,0
-385,64,0,0,0,0,0,0,0,0,0,-1,839,960,0,0
-378,64,0,0,0,0,0,0,0,0,0,-1,846,960,0,0
-371,64,0,0,0,0,0,0,0,0,0,-1,853,960,0,0
-364,64,0,0,0,0,0,0,0,0,0,-1,860,960,0,0
-357,64,0,0,0,0,0,0,0,0,0,-1,867,960,0,0
-350,64,0,0,0,0,0,0,0,0,0,-1,874,960,0,0
-343,64,0,0,0,0,0,0,0,0,0,-1,881,960,0,0
-336,64,0,0,0,0,0,0,0,0,0,-1,888,960,0,0
-329,64,0,0,0,0,0,0,0,0,0,-1,895,960,0,0
-322,64,0,0,0,0,0,0,0,0,0,-1,902,960,0,0
-315,64,0,0,0,0,0,0,0,0,0,-1,909,960,0,0
-308,64,0,0,0,0,0,0,0,0,0,-1,916,960,0,0
-301,64,0,0,0,0,0,0,0,0,0,-1,923,960,0,0
-294,64,0,0,0,0,0,0,0,0,0,-1,930,960,0,0
-287,64,0,0,0,0,0,0,0,0,0,-1,937,960,0,0
-280,64,0,0,0,0,0,0,0,0,0,-1,944,960,0,0
-273,64,0,0,0,0,0,0,0,0,0,-1,951,960,0,0
-266,64,0,0,0,0,0,0,0,0,0,-1,958,960,0,0
-259,64,0,0,0,0,0,0,0,0,0,-1,965,960,0,0
-252,64,0,0,0,0,0,0,0,0,0,-1,972,960,0,0
-245,64,0,0,0,0,0,0,0,0,0,-1,979,960,0,0
-238,64,0,0,0,0,0,0,0,0,0,-1,986,960,0,0
-231,64,0,0,0,0,0,0,0,0,0,-1,993,960,0,0
-224,64,0,0,0,0,0,0,0,0,0,-1,1000,960,0,0
-217,64,0,0,0,0,0,0,0,0,0,-1,1007,960,0,0
-210,64,0,0,0,0,0,0,0,0,0,-1,1014,960,0,0
-203,64,0,0,0,0,0,0,0,0,0,-1,1021,960,0,0
-196,64,0,0,0,0,0,0,0,0,0,-1,1028,960,0,0
-189,64,0,0,0,0,0,0,0,0,0,-1,1035,960,0,0
-182,64,0,0,0,0,0,0,0,0,0,-1,1042,960,0,0
-175,64,0,0,0,0,0,0,0,0,0,-1,1049,960,0,0
-168,64,0,0,0,0,0,0,0,0,0,-1,1056,960,0,0
-161,64,0,0,0,0,0,0,0,0,0,-1,1063,960,0,0
-154,64,0,0,0,0,0,0,0,0,0,-1,1070,960,0,0
-147,64,0,0,0,0,0,0,0,0,0,-1,1077,960,0,0
-140,64,0,0,0,0,0,0,0,0,0,-1,1084,960,0,0
-133,64,0,0,0,0,0,0,0,0,0,-1,1091,960,0,0
-126,64,0,0,0,0,0,0,0,0,0,-1,1098,960,0,0
-119,64,0,0,0,0,0,0,0,0,0,-1,1105,960,0,0
-112,64,0,0,0,0,0,0,0,0,0,-1,1112,960,0,0
-105,64,0,0,0,0,0,0,0,0,0,-1,1119,960,0,0
-98,64,0,0,0,0,0,0,0,0,0,-1,1126,960,0,0
-91,64,0,0,0,0,0,0,0,0,0,-1,1133,960,0,0
-84,64,0,0,0,0,0,0,0,0,0,-1,1140,960,0,0
-77,64,0,0,0,0,0,0,0,0,0,-1,1147,960,0,0
-70,64,0,0,0,0,0,0,0,0,0,-1,1154,960,0,0
-63,64,0,0,0,0,0,0,0,0,0,-1,1161,960,0,0
-56,64,0,0,0,0,0,0,0,0,0,-1,1168,960,0,0
-49,64,0,0,0,0,0,0,0,0,0,-1,1175,960,0,0
-42,64,0,0,0,0,0,0,0,0,0,-1,1182,960,0,0
-35,64,0,0,0,0,0,0,0,0,0,-1,1189,960,0,0
-28,64,0,0,0,0,0,0,0,0,0,-1,1196,960,0,0
-21,64,0,0,0,0,0,0,0,0,0,-1,1203,960,0,0
-14,64,0,0,0,0,0,0,0,0,0,-1,1210,960,0,0
-7,64,0,0,0,0,0,0,0,0,0,-1,1217,960,0,0
0,64,0,0,0,0,0,0,0,0,0,-1,1224,960,0,0
7,64,0,0,0,0,0,0,0,0,0,-1,1231,960,0,0
14,64,0,0,0,0,0,0,0,0,0,-1,1238,960,0,0
21,64,0,0,0,0,0,0,0,0,0,-1,1245,960,0,0
28,64,0,0,0,0,0,0,0,0,0,-1,1252,960,0,0
35,64,0,0,0,0,0,0,0,0,0,-1,1259,960,0,0
42,64,0,0,0,0,0,0,0,0,0,-1,1266,960,0,0
49,64,0,0,0,0,0,0,0,0,0,-1,1273,960,0,0
56,64,0,0,0,0,0,0,0,0,0,-1,1280,960,0,0
63,64,0,0,0,0,0,0,0,0,0,-1,1287,960,0,0
70,64,0,0,0,0,0,0,0,0,0,-1,1294,960,0,0
77,64,0,0,0,0,0,0,0,0,0,-1,1301,960,0,0
84,64,0,0,0,0,0,0,0,0,0,-1,1308,960,0,0
91,64,0,0,0,0,0,0,0,0,0,-1,1315,960,0,0
98,64,0,0,0,0,0,0,0,0,0,-1,1322,960,0,0
105,64,0,0,0,0,0,0,0,0,0,-1,1329,960,0,0
112,64,0,0,0,0,0,0,0,0,0,-1,1336,960,0,0
119,64,0,0,0,0,0,0,0,0,0,-1,1343,960,0,0
126,64,0,0,0,0,0,0,0,0,0,-1,1350,960,0,0
133,64,0,0,0,0,0,0,0,0,0,-1,1357,960,0,0
140,64,0,0,0,0,0,0,0,0,0,-1,1364,960,0,0
147,64,0,0,0,0,0,0,0,0,0,-1,1371,960,0,0
154,64,0,0,0,0,0,0,0,0,0,-1,1378,960,0,0
161,64,0,0,0,0,0,0,0,0,0,-1,1385,960,0,0
168,64,0,0,0,0,0,0,0,0,0,-1,1392,960,0,0
175,64,0,0,0,0,0,0,0,0,0,-1,1399,960,0,0
182,64,0,0,0,0,0,0,0,0,0,-1,1406,960,0,0
189,64,0,0,0,0,0,0,0,0,0,-1,1413,960,0,0
196,64,0,0,0,0,0,0,0,0,0,-1,1420,960,0,0
203,64,0,0,0,0,0,0,0,0,0,-1,1427,960,0,0
210,64,0,0,0,0,0,0,0,0,0,-1,1434,960,0,0
217,64,0,0,0,0,0,0,0,0,0,-1,1441,960,0,0
224,64,0,0,0,0,0,0,0,0,0,-1,1448,960,0,0
231,64,0,0,0,0,0,0,0,0,0,-1,1455,960,0,0
238,64,0,0,0,0,0,0,0,0,0,-1,1462,960,0,0
245,64,0,0,0,0,0,0,0,0,0,-1,1469,960,0,0
252,64,0,0,0,0,0,0,0,0,0,-1,1476,960,0,0
259,64,0,0,0,0,0,0,0,0,0,-1,1483,960,0,0
266,64,0,0,0,0,0,0,0,0,0,-1,1490,960,0,0
273,64,0,0,0,0,0,0,0,0,0,-1,1497,960,0,0
280,64,0,0,0,0,0,0,0,0,0,-1,1504,960,0,0
287,64,0,0,0,0,0,0,0,0,0,-1,1511,960,0,0
294,64,0,0,0,0,0,0,0,0,0,-1,1518,960,0,0
301,64,0,0,0,0,0,0,0,0,0,-1,1525,960,0,0
308,64,0,0,0,0,0,0,0,0,0,-1,1532,960,0,0
315,64,0,0,0,0,0,0,0,0,0,-1,1539,960,0,0
322,64,0,0,0,0,0,0,0,0,0,-1,1546,960,0,0
329,64,0,0,0,0,0,0,0,0,0,-1,1553,960,0,0
336,64,0,0,0,0,0,0,0,0,0,-1,1560,960,0,0
343,64,0,0,0,0,0,0,0,0,0,-1,1567,960,0,0
350,64,0,0,0,0,0,0,0,0,0,-1,1574,960,0,0
357,64,0,0,0,0,0,0,0,0,0,-1,1581,960,0,0
364,64,0,0,0,0,0,0,0,0,0,-1,1588,960,0,0
371,64,0,0,0,0,0,0,0,0,0,-1,1595,960,0,0
378,64,0,0,0,0,0,0,0,0,0,-1,1602,960,0,0
385,64,0,0,0,0,0,0,0,0,0,-1,1609,960,0,0
392,64,0,0,0,0,0,0,0,0,0,-1,1616,960,0,0
399,64,0,0,0,0,0,0,0,0,0,-1,1623,960,0,0
406,64,0,0,0,0,0,0,0,0,0,-1,1630,960,0,0
413,64,0,0,0,0,0,0,0,0,0,-1,1637,960,0,0
420,64,0,0,0,0,0,0,0,0,0,-1,1644,960,0,0
427,64,0,0,0,0,0,0,0,0,0,-1,1651,960,0,0
434,64,0,0,0,0,0,0,0,0,0,-1,1658,960,0,0
441,64,0,0,0,0,0,0,0,0,0,-1,1665,960,0,0
448,64,0,0,0,0,0,0,0,0,0,-1,1672,960,0,0
455,64,0,0,0,0,0,0,0,0,0,-1,1679,960,0,0
462,64,0,0,0,0,0,0,0,0,0,-1,1686,960,0,0
469,64,0,0,0,0,0,0,0,0,0,-1,1693,960,0,0
476,64,0,0,0,0,0,0,0,0,0,-1,1700,960,0,0
483,64,0,0,0,0,0,0,0,0,0,-1,1707,960,0,0
490,64,0,0,0,0,0,0,0,0,0,-1,1714,960,0,0
497,64,0,0,0,0,0,0,0,0,0,-1,1721,960,0,0
504,64,0,0,0,0,0,0,0,0,0,-1,1728,960,0,0
511,64,0,0,0,0,0,0,0,0,0,-1,1735,960,0,0
518,64,0,0,0,0,0,0,0,0,0,-1,1742,960,0,0
525,64,0,0,0,0,0,0,0,0,0,-1,1749,960,0,0
532,64,0,0,0,0,0,0,0,0,0,-1,1756,960,0,0
539,64,0,0,0,0,0,0,0,0,0,-1,1763,960,0,0
546,64,0,0,0,0,0,0,0,0,0,-1,1770,960,0,0
553,64,0,0,0,0,0,0,0,0,0,-1,1777,960,0,0
560,64,0,0,0,0,0,0,0,0,0,-1,1784,960,0,0
567,64,0,0,0,0,0,0,0,0,0,-1,1791,960,0,0
574,64,0,0,0,0,0,0,0,0,0,-1,1798,960,0,0
581,64,0,0,0,0,0,0,0,0,0,-1,1805,960,0,0
588,64,0,0,0,0,0,0,0,0,0,-1,1812,960,0,0
595,64,0,0,0,0,0,0,0,0,0,-1,1819,960,0,0
602,64,0,0,0,0,0,0,0,0,0,-1,1826,960,0,0
609,64,0,0,0,0,0,0,0,0,0,-1,1833,960,0,0
616,64,0,0,0,0,0,0,0,0,0,-1,1840,960,0,0
623,64,0,0,0,0,0,0,0,0,0,-1,1847,960,0,0
630,64,0,0,0,0,0,0,0,0,0,-1,1854,960,0,0
637,64,0,0,0,0,0,0,0,0,0,-1,1861,960,0,0
644,64,17.5891,2.80609,0.000455635,0.00452855,0.00213935,0.00544573,-0.000461545,1.16578,0.00379371,0.0452418,1868,960,17.5891,-2.80607
651,64,17.6211,2.77722,0.000458725,0.00348831,0.0016831,0.0042379,-0.000290861,1.15181,0.00292704,0.0409603,1875,960,17.6211,-2.77721
658,64,17.7603,2.59796,0.000234756,0.00259537,0.00145608,0.00328944,-0.000459313,1.12599,0.00236101,0.0347033,1882,960,17.7602,-2.59793
665,64,17.8436,2.56921,-0.000241534,0.00193352,0.00139635,0.00261589,-0.000923897,1.11625,0.00212009,0.040142,1889,960,17.8436,-2.56921
672,64,17.8965,2.41772,-0.000979046,0.00146847,0.00145639,0.00214699,-0.00165756,1.13481,0.00220261,0.0427511,1896,960,17.8965,-2.41775
679,64,17.7079,2.60107,-0.00186516,0.00112998,0.00160397,0.00182682,-0.002562,1.16095,0.00254571,0.0380463,1903,960,17.7079,-2.6011
686,64,17.7389,2.36688,-0.00250854,0.00085561,0.00170277,0.00156703,-0.00321995,1.17504,0.00281815,0.033745,1910,960,17.7389,-2.36687
693,64,17.7473,2.28265,-0.00306989,0.000754675,0.00177998,0.00145489,-0.00377011,1.19601,0.00311381,0.0322446,1917,960,17.7473,-2.28267
700,64,17.7094,2.40851,-0.00354292,0.000553022,0.00183662,0.00125594,-0.00424583,1.20527,0.00332913,0.0314243,1924,960,17.7094,-2.40849
707,64,17.7186,2.61462,-0.00383618,0.000545055,0.00170304,0.00112917,-0.0044203,1.24039,0.0033866,0.0361706,1931,960,17.7186,-2.61465
714,64,17.3105,3.2478,0,0,0,0,0,0,0,-1,1938,960,17.3105,-3.24782
721,64,16.8547,3.19897,-0.00406028,0.000658468,0.00134149,0.00101318,-0.00441499,1.3123,0.00333279,0.0292365,1945,960,16.8547,-3.19895
728,64,16.7355,3.35419,-0.00407685,0.000951132,0.00109375,0.00117875,-0.00430447,1.36561,0.00333279,0.0141743,1952,960,16.7354,-3.35421
735,64,16.7566,3.44354,-0.00346346,0.00142627,0.000640325,0.00150873,-0.00354593,1.44272,0.00299627,0.0178869,1959,960,16.7566,-3.44355
742,64,16.8047,3.49786,-0.00296602,0.00228217,-0.000286191,0.00229773,-0.00298158,-1.51648,0.00305652,0.0169186,1966,960,16.8046,-3.49789
749,64,16.7916,3.57605,-0.00259717,0.00404623,-0.00102933,0.00420206,-0.002753,-1.42055,0.00404445,0.0140255,1973,960,16.7916,-3.57604
756,64,16.8026,3.66473,-0.0017537,0.00515721,-0.00221991,0.00580884,-0.00240533,-1.28528,0.00487627,0.0148665,1980,960,16.8026,-3.66476
763,64,16.7937,3.75586,-0.000483415,0.00606231,-0.00386881,0.00785693,-0.00227803,-1.13647,0.00613982,0.01297,1987,960,16.7937,-3.75583
770,64,16.767,3.81036,0.000709319,0.00773982,-0.00545009,0.01071,-0.00226084,-1.07182,0.00800079,0.0131418,1994,960,16.767,-3.81036
777,64,16.6282,3.84985,0.00217687,0.0092964,-0.00718126,0.0137518,-0.0022785,-1.0155,0.0100141,0.0309053,2001,960,16.6282,-3.84984
784,64,16.3778,3.64679,0.0038797,0.0105929,-0.00910254,0.016938,-0.0024654,-0.96204,0.0121971,0.0437581,2008,960,16.3778,-3.64679
791,64,16.0802,3.30347,0.00635301,0.0112218,-0.011213,0.0202617,-0.00268683,-0.892292,0.0144867,0.0459188,2015,960,16.0802,-3.30349
798,64,15.6315,3.0965,0,0,0,0,0,0,0,-1,2022,960,15.6315,-3.09647
805,64,15.1759,3.54053,0,0,0,0,0,0,0,-1,2029,960,15.1759,-3.54055
812,64,0,0,0,0,0,0,0,0,0,-1,2036,960,0,0
-700,57,0,0,0,0,0,0,0,0,0,-1,524,967,0,0
-693,57,0,0,0,0,0,0,0,0,0,-1,531,967,0,0
-686,57,-9.52802,2.17523,0.0297457,0.0478577,0.0276664,0.0679125,0.0096909,0.943566,0.0424154,0.0429483,538,967,-9.52804,-2.17521
-679,57,-9.92578,2.31305,0.0131398,0.0445351,0.0245131,0.057946,-0.000271058,1.07019,0.0387213,0.0436466,545,967,-9.92576,-2.31308
-672,57,-10.2994,2.44751,0.00192283,0.0397906,0.0210416,0.0491629,-0.00744952,1.15176,0.0355198,0.0481484,552,967,-10.2994,-2.44752
-665,57,-10.2786,0.973145,0,0,0,0,0,0,0,-1,559,967,-10.2786,-0.973139
-658,57,-9.97174,1.15973,-0.00972319,0.0287677,0.0143364,0.0335206,-0.0144761,1.25067,0.0284287,0.0491415,566,967,-9.97173,-1.15972
-651,57,-10.5345,1.53119,-0.0117306,0.0232609,0.0113691,0.0266304,-0.0151001,1.28267,0.0243977,0.0434902,573,967,-10.5345,-1.53118
-644,57,-11.0409,1.3681,-0.0119896,0.0181387,0.00872284,0.0204819,-0.0143328,1.30836,0.0202046,0.0296869,580,967,-11.0409,-1.36809
-637,57,-11.1258,1.40936,-0.0122043,0.0143246,0.00749991,0.016298,-0.0141778,1.3135,0.0176094,0.0157848,587,967,-11.1258,-1.40935
-630,57,-11.1806,1.37732,-0.0121733,0.00992924,0.00432407,0.0107451,-0.0129892,1.38432,0.0137234,0.0131466,594,967,-11.1806,-1.37734
-623,57,-11.1839,1.3327,-0.0107847,0.00654887,0.00173801,0.00672142,-0.0109573,1.47184,0.010304,0.0128121,601,967,-11.1839,-1.3327
-616,57,-11.1812,1.25745,-0.00797171,0.0042097,0.000686138,0.00424822,-0.00801023,1.51471,0.00718766,0.0142433,608,967,-11.1812,-1.25743
-609,57,-11.1729,1.1839,-0.00618007,0.0022811,-0.000117556,0.00228273,-0.00618171,-1.55691,0.00505681,0.0133584,615,967,-11.1729,-1.18391
-602,57,-11.156,1.14337,-0.00529458,0.00154489,-0.000724027,0.0016207,-0.00537039,-1.46648,0.0042254,0.0103568,622,967,-11.156,-1.14334
-595,57,-11.1605,1.08514,-0.00457245,0.0012031,-0.00125662,0.00146467,-0.00483402,-1.36558,0.00380603,0.0108711,629,967,-11.1606,-1.08514
-588,57,-11.2035,1.06158,-0.00440756,0.00113692,-0.00166265,0.00159729,-0.00486792,-1.30068,0.00388864,0.0158404,636,967,-11.2035,-1.06156
-581,57,-11.3213,0.99762,-0.00471534,0.00140871,-0.00200281,0.00200554,-0.00531217,-1.28118,0.00436629,0.0274637,643,967,-11.3213,-0.997603
-574,57,-11.4417,0.842346,-0.00492779,0.0016335,-0.0022194,0.0023137,-0.00560799,-1.2734,0.00470357,0.031815,650,967,-11.4417,-0.842342
-567,57,-11.4609,0.620789,-0.00477633,0.00194977,-0.00235811,0.00269413,-0.00552068,-1.26504,0.0048355,0.0311393,657,967,-11.4609,-0.620779
-560,57,-11.5721,0.405212,-0.00439042,0.00233274,-0.00246042,0.00313696,-0.00519464,-1.25488,0.0048589,0.0367745,664,967,-11.5721,-0.405186
-553,57,-11.6081,0.505005,-0.00364397,0.00281043,-0.00261233,0.00373522,-0.00456877,-1.23055,0.00480236,0.0397483,671,967,-11.6081,-0.505029
-546,57,-11.4436,0.596497,-0.00251417,0.00338823,-0.00289752,0.00457288,-0.00369882,-1.18269,0.00478454,0.0422073,678,967,-11.4436,-0.596523
-539,57,-11.4523,0.586914,-0.0010039,0.00407937,-0.00345752,0.00582893,-0.00275346,-1.10235,0.00505998,0.0440539,685,967,-11.4524,-0.586918
-532,57,-11.9971,-0.226074,0,0,0,0,0,0,0,-1,692,967,-11.9971,0.226086
-525,57,-11.502,0.473022,0,0,0,0,0,0,0,-1,699,967,-11.502,-0.472995
-518,57,0,0,0,0,0,0,0,0,0,-1,706,967,0,0
-511,57,0,0,0,0,0,0,0,0,0,-1,713,967,0,0
-504,57,0,0,0,0,0,0,0,0,0,-1,720,967,0,0
-497,57,0,0,0,0,0,0,0,0,0,-1,727,967,0,0
-490,57,0,0,0,0,0,0,0,0,0,-1,734,967,0,0
-483,57,0,0,0,0,0,0,0,0,0,-1,741,967,0,0
-476,57,0,0,0,0,0,0,0,0,0,-1,748,967,0,0
-469,57,0,0,0,0,0,0,0,0,0,-1,755,967,0,0
-462,57,0,0,0,0,0,0,0,0,0,-1,762,967,0,0
-455,57,0,0,0,0,0,0,0,0,0,-1,769,967,0,0
-448,57,0,0,0,0,0,0,0,0,0,-1,776,967,0,0
-441,57,0,0,0,0,0,0,0,0,0,-1,783,967,0,0
-434,57,0,0,0,0,0,0,0,0,0,-1,790,967,0,0
-427,57,0,0,0,0,0,0,0,0,0,-1,797,967,0,0
-420,57,0,0,0,0,0,0,0,0,0,-1,804,967,0,0
-413,57,0,0,0,0,0,0,0,0,0,-1,811,967,0,0
-406,57,0,0,0,0,0,0,0,0,0,-1,818,967,0,0
-399,57,0,0,0,0,0,0,0,0,0,-1,825,967,0,0
-392,57,0,0,0,0,0,0,0,0,0,-1,832,967,0,0
-385,57,0,0,0,0,0,0,0,0,0,-1,839,967,0,0
-378,57,0,0,0,0,0,0,0,0,0,-1,846,967,0,0
-371,57,0,0,0,0,0,0,0,0,0,-1,853,967,0,0
-364,57,0,0,0,0,0,0,0,0,0,-1,860,967,0,0
-357,57,0,0,0,0,0,0,0,0,0,-1,867,967,0,0
-350,57,0,0,0,0,0,0,0,0,0,-1,874,967,0,0
-343,57,0,0,0,0,0,0,0,0,0,-1,881,967,0,0
-336,57,0,0,0,0,0,0,0,0,0,-1,888,967,0,0
-329,57,0,0,0,0,0,0,0,0,0,-1,895,967,0,0
-322,57,0,0,0,0,0,0,0,0,0,-1,902,967,0,0
-315,57,0,0,0,0,0,0,0,0,0,-1,909,967,0,0
-308,57,0,0,0,0,0,0,0,0,0,-1,916,967,0,0
-301,57,0,0,0,0,0,0,0,0,0,-1,923,967,0,0
-294,57,0,0,0,0,0,0,0,0,0,-1,930,967,0,0
-287,57,0,0,0,0,0,0,0,0,0,-1,937,967,0,0
-280,57,0,0,0,0,0,0,0,0,0,-1,944,967,0,0
-273,57,0,0,0,0,0,0,0,0,0,-1,951,967,0,0
-266,57,0,0,0,0,0,0,0,0,0,-1,958,967,0,0
-259,57,0,0,0,0,0,0,0,0,0,-1,965,967,0,0
-252,57,0,0,0,0,0,0,0,0,0,-1,972,967,0,0
-245,57,0,0,0,0,0,0,0,0,0,-1,979,967,0,0
-238,57,0,0,0,0,0,0,0,0,0,-1,986,967,0,0
-231,57,0,0,0,0,0,0,0,0,0,-1,993,967,0,0
-224,57,0,0,0,0,0,0,0,0,0,-1,1000,967,0,0
-217,57,0,0,0,0,0,0,0,0,0,-1,1007,967,0,0
-210,57,0,0,0,0,0,0,0,0,0,-1,1014,967,0,0
-203,57,0,0,0,0,0,0,0,0,0,-1,1021,967,0,0
-196,57,0,0,0,0,0,0,0,0,0,-1,1028,967,0,0
-189,57,0,0,0,0,0,0,0,0,0,-1,1035,967,0,0
-182,57,0,0,0,0,0,0,0,0,0,-1,1042,967,0,0
-175,57,0,0,0,0,0,0,0,0,0,-1,1049,967,0,0
-168,57,0,0,0,0,0,0,0,0,0,-1,1056,967,0,0
-161,57,0,0,0,0,0,0,0,0,0,-1,1063,967,0,0
-154,57,0,0,0,0,0,0,0,0,0,-1,1070,967,0,0
-147,57,0,0,0,0,0,0,0,0,0,-1,1077,967,0,0
-140,57,0,0,0,0,0,0,0,0,0,-1,1084,967,0,0
-133,57,0,0,0,0,0,0,0,0,0,-1,1091,967,0,0
-126,57,0,0,0,0,0,0,0,0,0,-1,1098,967,0,0
-119,57,0,0,0,0,0,0,0,0,0,-1,1105,967,0,0
-112,57,0,0,0,0,0,0,0,0,0,-1,1112,967,0,0
-105,57,0,0,0,0,0,0,0,0,0,-1,1119,967,0,0
-98,57,0,0,0,0,0,0,0,0,0,-1,1126,967,0,0
-91,57,0,0,0,0,0,0,0,0,0,-1,1133,967,0,0
-84,57,0,0,0,0,0,0,0,0,0,-1,1140,967,0,0
-77,57,0,0,0,0,0,0,0,0,0,-1,1147,967,0,0
-70,57,0,0,0,0,0,0,0,0,0,-1,1154,967,0,0
-63,57,0,0,0,0,0,0,0,0,0,-1,1161,967,0,0
-56,57,0,0,0,0,0,0,0,0,0,-1,1168,967,0,0
-49,57,0,0,0,0,0,0,0,0,0,-1,1175,967,0,0
-42,57,0,0,0,0,0,0,0,0,0,-1,1182,967,0,0
-35,57,0,0,0,0,0,0,0,0,0,-1,1189,967,0,0
-28,57,0,0,0,0,0,0,0,0,0,-1,1196,967,0,0
-21,57,0,0,0,0,0,0,0,0,0,-1,1203,967,0,0
-14,57,0,0,0,0,0,0,0,0,0,-1,1210,967,0,0
-7,57,0,0,0,0,0,0,0,0,0,-1,1217,967,0,0
0,57,0,0,0,0,0,0,0,0,0,-1,1224,967,0,0
7,57,0,0,0,0,0,0,0,0,0,-1,1231,967,0,0
14,57,0,0,0,0,0,0,0,0,0,-1,1238,967,0,0
21,57,0,0,0,0,0,0,0,0,0,-1,1245,967,0,0
28,57,0,0,0,0,0,0,0,0,0,-1,1252,967,0,0
35,57,0,0,0,0,0,0,0,0,0,-1,1259,967,0,0
42,57,0,0,0,0,0,0,0,0,0,-1,1266,967,0,0
49,57,0,0,0,0,0,0,0,0,0,-1,1273,967,0,0
56,57,0,0,0,0,0,0,0,0,0,-1,1280,967,0,0
63,57,0,0,0,0,0,0,0,0,0,-1,1287,967,0,0
70,57,0,0,0,0,0,0,0,0,0,-1,1294,967,0,0
77,57,0,0,0,0,0,0,0,0,0,-1,1301,967,0,0
84,57,0,0,0,0,0,0,0,0,0,-1,1308,967,0,0
91,57,0,0,0,0,0,0,0,0,0,-1,1315,967,0,0
98,57,0,0,0,0,0,0,0,0,0,-1,1322,967,0,0
105,57,0,0,0,0,0,0,0,0,0,-1,1329,967,0,0
112,57,0,0,0,0,0,0,0,0,0,-1,1336,967,0,0
119,57,0,0,0,0,0,0,0,0,0,-1,1343,967,0,0
126,57,0,0,0,0,0,0,0,0,0,-1,1350,967,0,0
133,57,0,0,0,0,0,0,0,0,0,-1,1357,967,0,0
140,57,0,0,0,0,0,0,0,0,0,-1,1364,967,0,0
147,57,0,0,0,0,0,0,0,0,0,-1,1371,967,0,0
154,57,0,0,0,0,0,0,0,0,0,-1,1378,967,0,0
161,57,0,0,0,0,0,0,0,0,0,-1,1385,967,0,0
168,57,0,0,0,0,0,0,0,0,0,-1,1392,967,0,0
175,57,0,0,0,0,0,0,0,0,0,-1,1399,967,0,0
182,57,0,0,0,0,0,0,0,0,0,-1,1406,967,0,0
189,57,0,0,0,0,0,0,0,0,0,-1,1413,967,0,0
196,57,0,0,0,0,0,0,0,0,0,-1,1420,967,0,0
203,57,0,0,0,0,0,0,0,0,0,-1,1427,967,0,0
210,57,0,0,0,0,0,0,0,0,0,-1,1434,967,0,0
217,57,0,0,0,0,0,0,0,0,0,-1,1441,967,0,0
224,57,0,0,0,0,0,0,0,0,0,-1,1448,967,0,0
231,57,0,0,0,0,0,0,0,0,0,-1,1455,967,0,0
238,57,0,0,0,0,0,0,0,0,0,-1,1462,967,0,0
245,57,0,0,0,0,0,0,0,0,0,-1,1469,967,0,0
252,57,0,0,0,0,0,0,0,0,0,-1,1476,967,0,0
259,57,0,0,0,0,0,0,0,0,0,-1,1483,967,0,0
266,57,0,0,0,0,0,0,0,0,0,-1,1490,967,0,0
273,57,0,0,0,0,0,0,0,0,0,-1,1497,967,0,0
280,57,0,0,0,0,0,0,0,0,0,-1,1504,967,0,0
287,57,0,0,0,0,0,0,0,0,0,-1,1511,967,0,0
294,57,0,0,0,0,0,0,0,0,0,-1,1518,967,0,0
301,57,0,0,0,0,0,0,0,0,0,-1,1525,967,0,0
308,57,0,0,0,0,0,0,0,0,0,-1,1532,967,0,0
315,57,0,0,0,0,0,0,0,0,0,-1,1539,967,0,0
322,57,0,0,0,0,0,0,0,0,0,-1,1546,967,0,0
329,57,0,0,0,0,0,0,0,0,0,-1,1553,967,0,0
336,57,0,0,0,0,0,0,0,0,0,-1,1560,967,0,0
343,57,0,0,0,0,0,0,0,0,0,-1,1567,967,0,0
350,57,0,0,0,0,0,0,0,0,0,-1,1574,967,0,0
357,57,0,0,0,0,0,0,0,0,0,-1,1581,967,0,0
364,57,0,0,0,0,0,0,0,0,0,-1,1588,967,0,0
371,57,0,0,0,0,0,0,0,0,0,-1,1595,967,0,0
378,57,0,0,0,0,0,0,0,0,0,-1,1602,967,0,0
385,57,0,0,0,0,0,0,0,0,0,-1,1609,967,0,0
392,57,0,0,0,0,0,0,0,0,0,-1,1616,967,0,0
399,57,0,0,0,0,0,0,0,0,0,-1,1623,967,0,0
406,57,0,0,0,0,0,0,0,0,0,-1,1630,967,0,0
413,57,0,0,0,0,0,0,0,0,0,-1,1637,967,0,0
420,57,0,0,0,0,0,0,0,0,0,-1,1644,967,0,0
427,57,0,0,0,0,0,0,0,0,0,-1,1651,967,0,0
434,57,0,0,0,0,0,0,0,0,0,-1,1658,967,0,0
441,57,0,0,0,0,0,0,0,0,0,-1,1665,967,0,0
448,57,0,0,0,0,0,0,0,0,0,-1,1672,967,0,0
455,57,0,0,0,0,0,0,0,0,0,-1,1679,967,0,0
462,57,0,0,0,0,0,0,0,0,0,-1,1686,967,0,0
469,57,0,0,0,0,0,0,0,0,0,-1,1693,967,0,0
476,57,0,0,0,0,0,0,0,0,0,-1,1700,967,0,0
483,57,0,0,0,0,0,0,0,0,0,-1,1707,967,0,0
490,57,0,0,0,0,0,0,0,0,0,-1,1714,967,0,0
497,57,0,0,0,0,0,0,0,0,0,-1,1721,967,0,0
504,57,0,0,0,0,0,0,0,0,0,-1,1728,967,0,0
511,57,0,0,0,0,0,0,0,0,0,-1,1735,967,0,0
518,57,0,0,0,0,0,0,0,0,0,-1,1742,967,0,0
525,57,0,0,0,0,0,0,0,0,0,-1,1749,967,0,0
532,57,0,0,0,0,0,0,0,0,0,-1,1756,967,0,0
539,57,0,0,0,0,0,0,0,0,0,-1,1763,967,0,0
546,57,0,0,0,0,0,0,0,0,0,-1,1770,967,0,0
553,57,0,0,0,0,0,0,0,0,0,-1,1777,967,0,0
560,57,0,0,0,0,0,0,0,0,0,-1,1784,967,0,0
567,57,0,0,0,0,0,0,0,0,0,-1,1791,967,0,0
574,57,0,0,0,0,0,0,0,0,0,-1,1798,967,0,0
581,57,0,0,0,0,0,0,0,0,0,-1,1805,967,0,0
588,57,0,0,0,0,0,0,0,0,0,-1,1812,967,0,0
595,57,0,0,0,0,0,0,0,0,0,-1,1819,967,0,0
602,57,0,0,0,0,0,0,0,0,0,-1,1826,967,0,0
609,57,0,0,0,0,0,0,0,0,0,-1,1833,967,0,0
616,57,0,0,0,0,0,0,0,0,0,-1,1840,967,0,0
623,57,0,0,0,0,0,0,0,0,0,-1,1847,967,0,0
630,57,0,0,0,0,0,0,0,0,0,-1,1854,967,0,0
637,57,0,0,0,0,0,0,0,0,0,-1,1861,967,0,0
644,57,17.7457,2.73541,0.00111955,0.00439479,0.00194905,0.00530288,0.000211464,1.13479,0.00346691,0.0427598,1868,967,17.7457,-2.73544
651,57,17.6792,2.71594,0.000973361,0.00346406,0.0015815,0.00423168,0.000205739,1.11892,0.0027551,0.0341617,1875,967,17.6793,-2.71593
658,57,17.7449,2.62433,0.000692788,0.00261963,0.00141452,0.00336765,-5.52358e-05,1.08436,0.00226374,0.0328183,1882,967,17.7449,-2.62436
665,57,17.8317,2.49207,0.000231515,0.00200451,0.00140803,0.00278188,-0.000545848,1.06635,0.00206077,0.0413727,1889,967,17.8316,-2.49207
672,57,18.0841,2.36511,-0.000494582,0.00157779,0.00152084,0.00238188,-0.00129868,1.08444,0.00215543,0.0439251,1896,967,18.0841,-2.36509
679,57,17.8533,2.46271,-0.00144949,0.00126683,0.00171846,0.00209904,-0.0022817,1.11981,0.00252995,0.0399812,1903,967,17.8532,-2.46272
686,57,17.6923,2.30554,-0.00221243,0.00102767,0.00186409,0.00187732,-0.00306208,1.14313,0.00287898,0.0372856,1910,967,17.6923,-2.30555
693,57,17.7002,2.32727,-0.00286851,0.000914261,0.00197512,0.00175755,-0.0037118,1.16727,0.00322422,0.0332417,1917,967,17.7001,-2.32727
700,57,17.7277,2.41638,-0.0034142,0.000720112,0.00204676,0.00156197,-0.00425606,1.18058,0.00347701,0.0252183,1924,967,17.7276,-2.41637
707,57,17.7272,2.61121,-0.00380087,0.000700514,0.00193583,0.0014185,-0.00451885,1.21563,0.00358033,0.0390093,1931,967,17.7272,-2.61121
714,57,17.4323,3.33411,0,0,0,0,0,0,0,-1,1938,967,17.4323,-3.33413
721,57,16.9426,3.2146,-0.00423951,0.000849023,0.00160697,0.00131402,-0.0047045,1.28913,0.00365396,0.036677,1945,967,16.9427,-3.2146
728,57,16.7843,3.37506,-0.00442168,0.00104655,0.00133001,0.00135288,-0.00472801,1.34442,0.00368666,0.0195199,1952,967,16.7843,-3.37503
735,57,16.8456,3.45935,-0.00410268,0.00138367,0.000746464,0.00148342,-0.00420242,1.43795,0.00340554,0.0196025,1959,967,16.8456,-3.45932
742,57,16.897,3.49915,-0.00401358,0.00206189,-0.000365664,0.00208382,-0.00403551,-1.5109,0.00359239,0.0161379,1966,967,16.897,-3.49913
749,57,16.861,3.57849,-0.00423039,0.00351235,-0.00141543,0.00376299,-0.00448103,-1.39554,0.0047657,0.0136551,1973,967,16.861,-3.57848
756,57,16.8477,3.63525,-0.00385638,0.00416883,-0.00285018,0.00507807,-0.00476561,-1.26199,0.00568421,0.0114961,1980,967,16.8476,-3.63523
763,57,16.8591,3.69922,-0.00319882,0.00437291,-0.00480664,0.00670558,-0.0055315,-1.11898,0.00707591,0.0115606,1987,967,16.8591,-3.6992
770,57,16.8561,3.76257,-0.00284424,0.00521026,-0.00688907,0.00916286,-0.00679684,-1.0499,0.00924803,0.0105147,1994,967,16.8561,-3.76258
777,57,16.7729,3.7926,-0.0022689,0.00579456,-0.009136,0.0117489,-0.00822323,-0.993197,0.0115906,0.0247205,2001,967,16.7729,-3.79257
784,57,16.5858,3.6814,-0.00162559,0.00591541,-0.0116137,0.0143553,-0.0100655,-0.94236,0.0141717,0.0408858,2008,967,16.5859,-3.68138
791,57,16.1943,3.23834,-0.000382463,0.00517685,-0.014315,0.0169796,-0.0121852,-0.881294,0.0169139,0.0453966,2015,967,16.1943,-3.23833
798,57,15.736,2.84576,0,0,0,0,0,0,0,-1,2022,967,15.736,-2.84579
805,57,15.1816,1.96143,0,0,0,0,0,0,0,-1,2029,967,15.1817,-1.9614
812,57,0,0,0,0,0,0,0,0,0,-1,2036,967,0,0
-700,50,0,0,0,0,0,0,0,0,0,-1,524,974,0,0
-693,50,-12.5928,-1.35602,0.0563911,0.03691,0.0129136,0.0628258,0.0304753,0.462279,0.0362779,0.0466101,531,974,-12.5927,1.35603
-686,50,-11.9398,-1.4248,0.0314312,0.038648,0.0152943,0.0507537,0.0193254,0.901245,0.0295791,0.0466458,538,974,-11.9398,1.42483
-679,50,-10.1117,2.18872,0.0144916,0.0371828,0.0155531,0.0450887,0.0065857,1.10052,0.0281221,0.0466662,545,974,-10.1117,-2.18869
-672,50,-10.4591,2.34778,0.00296143,0.0340641,0.014723,0.0399279,-0.00290242,1.19177,0.0276369,0.0480667,552,974,-10.4591,-2.34775
-665,50,-10.7892,2.51465,0,0,0,0,0,0,0,-1,559,974,-10.7892,-2.51463
-658,50,-9.60944,0.526489,0,0,0,0,0,0,0,-1,566,974,-9.60943,-0.526484
-651,50,-10.3527,0.917175,-0.0114608,0.0209716,0.00969972,0.0236511,-0.0141403,1.30127,0.022048,0.0429803,573,974,-10.3527,-0.917157
-644,50,-11.1304,1.31598,-0.0118745,0.0165417,0.00778176,0.0185331,-0.013866,1.32026,0.0187702,0.0261775,580,974,-11.1304,-1.31598
-637,50,-11.2183,1.36725,-0.012359,0.0134552,0.00719078,0.0153231,-0.0142269,1.31665,0.0170646,0.0137595,587,974,-11.2183,-1.36727
-630,50,-11.2302,1.35895,-0.012438,0.00945305,0.00435116,0.0102862,-0.0132712,1.38161,0.0136372,0.010084,594,974,-11.2301,-1.35892
-623,50,-11.2234,1.3194,-0.0109234,0.00630068,0.00183131,0.00649324,-0.0111159,1.46603,0.0102828,0.0114502,601,974,-11.2234,-1.31938
-616,50,-11.2217,1.263,-0.00780653,0.00402374,0.000672282,0.00406183,-0.00784461,1.51421,0.00698887,0.0116373,608,974,-11.2217,-1.26302
-609,50,-11.2264,1.18835,-0.00581083,0.00222548,-0.00026212,0.00223402,-0.00581937,-1.53823,0.00480077,0.0104163,615,974,-11.2264,-1.18837
-602,50,-11.233,1.13232,-0.00473517,0.00157317,-0.00101647,0.0017329,-0.00489491,-1.41492,0.00396907,0.0106468,622,974,-11.233,-1.13235
-595,50,-11.215,1.10156,-0.00385685,0.00127223,-0.00165298,0.00175879,-0.00434341,-1.28453,0.00362692,0.0105252,629,974,-11.215,-1.10154
-588,50,-11.2524,1.03754,-0.00356499,0.00120037,-0.0020938,0.00198962,-0.00435424,-1.21032,0.00374648,0.0120735,636,974,-11.2524,-1.03756
-581,50,-11.4037,0.85022,-0.00375812,0.00141405,-0.00243338,0.00237891,-0.00472297,-1.1933,0.00417406,0.0231123,643,974,-11.4037,-0.85021
-574,50,-11.4868,0.624756,-0.00388011,0.00156042,-0.00263666,0.00262854,-0.00494822,-1.1859,0.00444226,0.0294003,650,974,-11.4868,-0.624764
-567,50,-11.467,0.426758,-0.00370381,0.00176837,-0.00272806,0.00289602,-0.00483145,-1.17883,0.00450786,0.0341696,657,974,-11.467,-0.42678
-560,50,-11.2731,0.396667,-0.00333547,0.00200167,-0.00278441,0.00318981,-0.00452361,-1.16748,0.00447549,0.0395135,664,974,-11.2732,-0.396686
-553,50,-11.5596,0.481079,-0.0026966,0.00227011,-0.00289752,0.00360286,-0.00402935,-1.13969,0.00440875,0.0424372,671,974,-11.5596,-0.481083
-546,50,-11.4566,0.656982,-0.00176967,0.00256576,-0.00316899,0.00423751,-0.00344142,-1.08537,0.00444136,0.0431706,678,974,-11.4566,-0.656977
-539,50,-11.3107,0.735779,-0.000560449,0.00288985,-0.00378195,0.00532154,-0.00299214,-0.999378,0.0048623,0.0458478,685,974,-11.3107,-0.735777
-532,50,-11.3828,0.526428,0.000652565,0.00338708,-0.00504577,0.00724755,-0.00320791,-0.917706,0.00618483,0.0430008,692,974,-11.3828,-0.526416
-525,50,-11.445,0.277283,0,0,0,0,0,0,0,-1,699,974,-11.445,-0.277294
-518,50,0,0,0,0,0,0,0,0,0,-1,706,974,0,0
-511,50,0,0,0,0,0,0,0,0,0,-1,713,974,0,0
-504,50,0,0,0,0,0,0,0,0,0,-1,720,974,0,0
-497,50,0,0,0,0,0,0,0,0,0,-1,727,974,0,0
-490,50,0,0,0,0,0,0,0,0,0,-1,734,974,0,0
-483,50,0,0,0,0,0,0,0,0,0,-1,741,974,0,0
-476,50,0,0,0,0,0,0,0,0,0,-1,748,974,0,0
-469,50,0,0,0,0,0,0,0,0,0,-1,755,974,0,0
-462,50,0,0,0,0,0,0,0,0,0,-1,762,974,0,0
-455,50,0,0,0,0,0,0,0,0,0,-1,769,974,0,0
-448,50,0,0,0,0,0,0,0,0,0,-1,776,974,0,0
-441,50,0,0,0,0,0,0,0,0,0,-1,783,974,0,0
-434,50,0,0,0,0,0,0,0,0,0,-1,790,974,0,0
-427,50,0,0,0,0,0,0,0,0,0,-1,797,974,0,0
-420,50,0,0,0,0,0,0,0,0,0,-1,804,974,0,0
-413,50,0,0,0,0,0,0,0,0,0,-1,811,974,0,0
-406,50,0,0,0,0,0,0,0,0,0,-1,818,974,0,0
-399,50,0,0,0,0,0,0,0,0,0,-1,825,974,0,0
-392,50,0,0,0,0,0,0,0,0,0,-1,832,974,0,0
-385,50,0,0,0,0,0,0,0,0,0,-1,839,974,0,0
-378,50,0,0,0,0,0,0,0,0,0,-1,846,974,0,0
-371,50,0,0,0,0,0,0,0,0,0,-1,853,974,0,0
-364,50,0,0,0,0,0,0,0,0,0,-1,860,974,0,0
-357,50,0,0,0,0,0,0,0,0,0,-1,867,974,0,0
-350,50,0,0,0,0,0,0,0,0,0,-1,874,974,0,0
-343,50,0,0,0,0,0,0,0,0,0,-1,881,974,0,0
-336,50,0,0,0,0,0,0,0,0,0,-1,888,974,0,0
-329,50,0,0,0,0,0,0,0,0,0,-1,895,974,0,0
-322,50,0,0,0,0,0,0,0,0,0,-1,902,974,0,0
-315,50,0,0,0,0,0,0,0,0,0,-1,909,974,0,0
-308,50,0,0,0,0,0,0,0,0,0,-1,916,974,0,0
-301,50,0,0,0,0,0,0,0,0,0,-1,923,974,0,0
-294,50,0,0,0,0,0,0,0,0,0,-1,930,974,0,0
-287,50,0,0,0,0,0,0,0,0,0,-1,937,974,0,0
-280,50,0,0,0,0,0,0,0,0,0,-1,944,974,0,0
-273,50,0,0,0,0,0,0,0,0,0,-1,951,974,0,0
-266,50,0,0,0,0,0,0,0,0,0,-1,958,974,0,0
-259,50,0,0,0,0,0,0,0,0,0,-1,965,974,0,0
-252,50,0,0,0,0,0,0,0,0,0,-1,972,974,0,0
-245,50,0,0,0,0,0,0,0,0,0,-1,979,974,0,0
-238,50,0,0,0,0,0,0,0,0,0,-1,986,974,0,0
-231,50,0,0,0,0,0,0,0,0,0,-1,993,974,0,0
-224,50,0,0,0,0,0,0,0,0,0,-1,1000,974,0,0
-217,50,0,0,0,0,0,0,0,0,0,-1,1007,974,0,0
-210,50,0,0,0,0,0,0,0,0,0,-1,1014,974,0,0
-203,50,0,0,0,0,0,0,0,0,0,-1,1021,974,0,0
-196,50,0,0,0,0,0,0,0,0,0,-1,1028,974,0,0
-189,50,0,0,0,0,0,0,0,0,0,-1,1035,974,0,0
-182,50,0,0,0,0,0,0,0,0,0,-1,1042,974,0,0
-175,50,0,0,0,0,0,0,0,0,0,-1,1049,974,0,0
-168,50,0,0,0,0,0,0,0,0,0,-1,1056,974,0,0
-161,50,0,0,0,0,0,0,0,0,0,-1,1063,974,0,0
-154,50,0,0,0,0,0,0,0,0,0,-1,1070,974,0,0
-147,50,0,0,0,0,0,0,0,0,0,-1,1077,974,0,0
-140,50,0,0,0,0,0,0,0,0,0,-1,1084,974,0,0
-133,50,0,0,0,0,0,0,0,0,0,-1,1091,974,0,0
-126,50,0,0,0,0,0,0,0,0,0,-1,1098,974,0,0
-119,50,0,0,0,0,0,0,0,0,0,-1,1105,974,0,0
-112,50,0,0,0,0,0,0,0,0,0,-1,1112,974,0,0
-105,50,0,0,0,0,0,0,0,0,0,-1,1119,974,0,0
-98,50,0,0,0,0,0,0,0,0,0,-1,1126,974,0,0
-91,50,0,0,0,0,0,0,0,0,0,-1,1133,974,0,0
-84,50,0,0,0,0,0,0,0,0,0,-1,1140,974,0,0
-77,50,0,0,0,0,0,0,0,0,0,-1,1147,974,0,0
-70,50,0,0,0,0,0,0,0,0,0,-1,1154,974,0,0
-63,50,0,0,0,0,0,0,0,0,0,-1,1161,974,0,0
-56,50,0,0,0,0,0,0,0,0,0,-1,1168,974,0,0
-49,50,0,0,0,0,0,0,0,0,0,-1,1175,974,0,0
-42,50,0,0,0,0,0,0,0,0,0,-1,1182,974,0,0
-35,50,0,0,0,0,0,0,0,0,0,-1,1189,974,0,0
-28,50,0,0,0,0,0,0,0,0,0,-1,1196,974,0,0
-21,50,0,0,0,0,0,0,0,0,0,-1,1203,974,0,0
-14,50,0,0,0,0,0,0,0,0,0,-1,1210,974,0,0
-7,50,0,0,0,0,0,0,0,0,0,-1,1217,974,0,0
0,50,0,0,0,0,0,0,0,0,0,-1,1224,974,0,0
7,50,0,0,0,0,0,0,0,0,0,-1,1231,974,0,0
14,50,0,0,0,0,0,0,0,0,0,-1,1238,974,0,0
21,50,0,0,0,0,0,0,0,0,0,-1,1245,974,0,0
28,50,0,0,0,0,0,0,0,0,0,-1,1252,974,0,0
35,50,0,0,0,0,0,0,0,0,0,-1,1259,974,0,0
42,50,0,0,0,0,0,0,0,0,0,-1,1266,974,0,0
49,50,0,0,0,0,0,0,0,0,0,-1,1273,974,0,0
56,50,0,0,0,0,0,0,0,0,0,-1,1280,974,0,0
63,50,0,0,0,0,0,0,0,0,0,-1,1287,974,0,0
70,50,0,0,0,0,0,0,0,0,0,-1,1294,974,0,0
77,50,0,0,0,0,0,0,0,0,0,-1,1301,974,0,0
84,50,0,0,0,0,0,0,0,0,0,-1,1308,974,0,0
91,50,0,0,0,0,0,0,0,0,0,-1,1315,974,0,0
98,50,0,0,0,0,0,0,0,0,0,-1,1322,974,0,0
105,50,0,0,0,0,0,0,0,0,0,-1,1329,974,0,0
112,50,0,0,0,0,0,0,0,0,0,-1,1336,974,0,0
119,50,0,0,0,0,0,0,0,0,0,-1,1343,974,0,0
126,50,0,0,0,0,0,0,0,0,0,-1,1350,974,0,0
133,50,0,0,0,0,0,0,0,0,0,-1,1357,974,0,0
140,50,0,0,0,0,0,0,0,0,0,-1,1364,974,0,0
147,50,0,0,0,0,0,0,0,0,0,-1,1371,974,0,0
154,50,0,0,0,0,0,0,0,0,0,-1,1378,974,0,0
161,50,0,0,0,0,0,0,0,0,0,-1,1385,974,0,0
168,50,0,0,0,0,0,0,0,0,0,-1,1392,974,0,0
175,50,0,0,0,0,0,0,0,0,0,-1,1399,974,0,0
182,50,0,0,0,0,0,0,0,0,0,-1,1406,974,0,0
189,50,0,0,0,0,0,0,0,0,0,-1,1413,974,0,0
196,50,0,0,0,0,0,0,0,0,0,-1,1420,974,0,0
203,50,0,0,0,0,0,0,0,0,0,-1,1427,974,0,0
210,50,0,0,0,0,0,0,0,0,0,-1,1434,974,0,0
217,50,0,0,0,0,0,0,0,0,0,-1,1441,974,0,0
224,50,0,0,0,0,0,0,0,0,0,-1,1448,974,0,0
231,50,0,0,0,0,0,0,0,0,0,-1,1455,974,0,0
238,50,0,0,0,0,0,0,0,0,0,-1,1462,974,0,0
245,50,0,0,0,0,0,0,0,0,0,-1,1469,974,0,0
252,50,0,0,0,0,0,0,0,0,0,-1,1476,974,0,0
259,50,0,0,0,0,0,0,0,0,0,-1,1483,974,0,0
266,50,0,0,0,0,0,0,0,0,0,-1,1490,974,0,0
273,50,0,0,0,0,0,0,0,0,0,-1,1497,974,0,0
280,50,0,0,0,0,0,0,0,0,0,-1,1504,974,0,0
287,50,0,0,0,0,0,0,0,0,0,-1,1511,974,0,0
294,50,0,0,0,0,0,0,0,0,0,-1,1518,974,0,0
301,50,0,0,0,0,0,0,0,0,0,-1,1525,974,0,0
308,50,0,0,0,0,0,0,0,0,0,-1,1532,974,0,0
315,50,0,0,0,0,0,0,0,0,0,-1,1539,974,0,0
322,50,0,0,0,0,0,0,0,0,0,-1,1546,974,0,0
329,50,0,0,0,0,0,0,0,0,0,-1,1553,974,0,0
336,50,0,0,0,0,0,0,0,0,0,-1,1560,974,0,0
343,50,0,0,0,0,0,0,0,0,0,-1,1567,974,0,0
350,50,0,0,0,0,0,0,0,0,0,-1,1574,974,0,0
357,50,0,0,0,0,0,0,0,0,0,-1,1581,974,0,0
364,50,0,0,0,0,0,0,0,0,0,-1,1588,974,0,0
371,50,0,0,0,0,0,0,0,0,0,-1,1595,974,0,0
378,50,0,0,0,0,0,0,0,0,0,-1,1602,974,0,0
385,50,0,0,0,0,0,0,0,0,0,-1,1609,974,0,0
392,50,0,0,0,0,0,0,0,0,0,-1,1616,974,0,0
399,50,0,0,0,0,0,0,0,0,0,-1,1623,974,0,0
406,50,0,0,0,0,0,0,0,0,0,-1,1630,974,0,0
413,50,0,0,0,0,0,0,0,0,0,-1,1637,974,0,0
420,50,0,0,0,0,0,0,0,0,0,-1,1644,974,0,0
427,50,0,0,0,0,0,0,0,0,0,-1,1651,974,0,0
434,50,0,0,0,0,0,0,0,0,0,-1,1658,974,0,0
441,50,0,0,0,0,0,0,0,0,0,-1,1665,974,0,0
448,50,0,0,0,0,0,0,0,0,0,-1,1672,974,0,0
455,50,0,0,0,0,0,0,0,0,0,-1,1679,974,0,0
462,50,0,0,0,0,0,0,0,0,0,-1,1686,974,0,0
469,50,0,0,0,0,0,0,0,0,0,-1,1693,974,0,0
476,50,0,0,0,0,0,0,0,0,0,-1,1700,974,0,0
483,50,0,0,0,0,0,0,0,0,0,-1,1707,974,0,0
490,50,0,0,0,0,0,0,0,0,0,-1,1714,974,0,0
497,50,0,0,0,0,0,0,0,0,0,-1,1721,974,0,0
504,50,0,0,0,0,0,0,0,0,0,-1,1728,974,0,0
511,50,0,0,0,0,0,0,0,0,0,-1,1735,974,0,0
518,50,0,0,0,0,0,0,0,0,0,-1,1742,974,0,0
525,50,0,0,0,0,0,0,0,0,0,-1,1749,974,0,0
532,50,0,0,0,0,0,0,0,0,0,-1,1756,974,0,0
539,50,0,0,0,0,0,0,0,0,0,-1,1763,974,0,0
546,50,0,0,0,0,0,0,0,0,0,-1,1770,974,0,0
553,50,0,0,0,0,0,0,0,0,0,-1,1777,974,0,0
560,50,0,0,0,0,0,0,0,0,0,-1,1784,974,0,0
567,50,0,0,0,0,0,0,0,0,0,-1,1791,974,0,0
574,50,0,0,0,0,0,0,0,0,0,-1,1798,974,0,0
581,50,0,0,0,0,0,0,0,0,0,-1,1805,974,0,0
588,50,0,0,0,0,0,0,0,0,0,-1,1812,974,0,0
595,50,0,0,0,0,0,0,0,0,0,-1,1819,974,0,0
602,50,0,0,0,0,0,0,0,0,0,-1,1826,974,0,0
609,50,0,0,0,0,0,0,0,0,0,-1,1833,974,0,0
616,50,0,0,0,0,0,0,0,0,0,-1,1840,974,0,0
623,50,0,0,0,0,0,0,0,0,0,-1,1847,974,0,0
630,50,0,0,0,0,0,0,0,0,0,-1,1854,974,0,0
637,50,0,0,0,0,0,0,0,0,0,-1,1861,974,0,0
644,50,17.6869,2.50623,0.00154869,0.00350044,0.00138181,0.00421623,0.000832903,1.09284,0.00257842,0.038317,1868,974,17.6869,-2.5062
651,50,17.6656,2.52289,0.00128613,0.00280421,0.00122183,0.00348357,0.00060676,1.06334,0.00214888,0.031085,1875,974,17.6657,-2.5229
658,50,17.6573,2.57654,0.000976377,0.00212022,0.00118754,0.00286638,0.000230219,1.00981,0.00183899,0.0351081,1882,974,17.6574,-2.57656
665,50,17.6129,2.48975,0.000552679,0.00164641,0.0012794,0.00249092,-0.000291827,0.987367,0.00176595,0.0396014,1889,974,17.6129,-2.48974
672,50,17.7551,2.51642,-0.000123903,0.00135184,0.00148717,0.00227413,-0.00104619,1.01568,0.0019602,0.0406646,1896,974,17.7551,-2.51644
679,50,17.7007,2.62653,-0.0010997,0.0011449,0.00176939,0.0021179,-0.0020727,1.06802,0.00241949,0.0411521,1903,974,17.7006,-2.62655
686,50,17.6495,2.45319,-0.00193334,0.000994039,0.00199277,0.0020029,-0.0029422,1.10215,0.00287217,0.0420226,1910,974,17.6496,-2.45316
693,50,17.686,2.44592,-0.00265109,0.000922097,0.00214953,0.00193057,-0.00365957,1.13212,0.00327852,0.0403774,1917,974,17.686,-2.44592
700,50,17.7133,2.47913,-0.00326014,0.000774395,0.00224476,0.00177513,-0.00426087,1.15143,0.00358203,0.022736,1924,974,17.7132,-2.4791
707,50,17.7297,2.5719,-0.00372324,0.000775886,0.00217007,0.00165198,-0.00459934,1.18709,0.00374053,0.0333252,1931,974,17.7298,-2.57187
714,50,17.6018,2.91644,0,0,0,0,0,0,0,-1,1938,974,17.6018,-2.91641
721,50,17.0831,3.23431,-0.00432096,0.00096014,0.00188166,0.00156199,-0.00492281,1.26123,0.00390801,0.037948,1945,974,17.0831,-3.23429
728,50,16.8528,3.34595,-0.00463539,0.00108526,0.00159343,0.00149915,-0.00504927,1.31667,0.00396161,0.0208732,1952,974,16.8528,-3.34592
735,50,16.9458,3.4198,-0.00463708,0.00139534,0.000882606,0.00152182,-0.00476357,1.42846,0.00378634,0.0178702,1959,974,16.9458,-3.41978
742,50,16.9822,3.48254,-0.00487762,0.0019893,-0.000352231,0.00200732,-0.00489563,-1.51968,0.00410007,0.0152612,1966,974,16.9822,-3.48255
749,50,16.9667,3.5614,-0.00542784,0.00317938,-0.00156989,0.00345678,-0.00570523,-1.3959,0.00534252,0.0159976,1973,974,16.9667,-3.56138
756,50,16.9475,3.62421,-0.00542169,0.00351353,-0.00308524,0.0044753,-0.00638347,-1.26861,0.0063015,0.0121346,1980,974,16.9476,-3.62419
763,50,16.9427,3.68713,-0.00522078,0.00324205,-0.00513776,0.00566656,-0.0076453,-1.12988,0.00771386,0.011493,1987,974,16.9427,-3.68714
770,50,16.9326,3.7359,-0.00542998,0.00348,-0.00742559,0.00768448,-0.00963446,-1.05559,0.0100202,0.0101827,1994,974,16.9326,-3.73587
777,50,16.8927,3.73145,-0.00544347,0.00338778,-0.0098567,0.00977273,-0.0118284,-0.995985,0.0124902,0.0207371,2001,974,16.8927,-3.73143
784,50,16.6001,3.6391,-0.00545673,0.00268435,-0.0124928,0.0117531,-0.0145255,-0.942889,0.0152,0.0356828,2008,974,16.6001,-3.63911
791,50,16.146,3.12469,-0.00493632,0.000973609,-0.0153379,0.0136386,-0.0176013,-0.880561,0.0180847,0.0416178,2015,974,16.146,-3.12472
798,50,15.6769,2.41559,-0.00331086,-0.00216529,-0.0183955,0.0156663,-0.0211424,-0.800962,0.0213298,0.0464336,2022,974,15.6769,-2.41557
805,50,15.2792,1.73883,-0.00010763,-0.00734073,-0.0215609,0.0181379,-0.0255863,-0.702303,0.025366,0.0469458,2029,974,15.2792,-1.73883
812,50,0,0,0,0,0,0,0,0,0,-1,2036,974,0,0
-700,43,0,0,0,0,0,0,0,0,0,-1,524,981,0,0
-693,43,-11.8132,-1.66382,0.0563315,0.0220428,-0.00241998,0.0565015,0.0218729,-0.0701135,0.0328971,0.0466004,531,981,-11.8131,1.66383
-686,43,-11.4222,-1.5744,0.0314595,0.0262895,0.00352048,0.0332421,0.0245069,0.468718,0.0198993,0.0454075,538,981,-11.4222,1.57443
-679,43,-11.1107,-1.34937,0.0146702,0.0271232,0.00662683,0.0299898,0.0118036,1.16253,0.0174449,0.0447538,545,981,-11.1107,1.3494
-672,43,-11.1418,-1.37073,0,0,0,0,0,0,0,-1,552,981,-11.1419,1.37074
-665,43,-11.3671,-0.833191,0,0,0,0,0,0,0,-1,559,981,-11.3671,0.833164
-658,43,-10.2872,0.125366,0,0,0,0,0,0,0,-1,566,981,-10.2872,-0.125364
-651,43,-10.7777,0.740051,-0.0111538,0.0175815,0.00757109,0.0194543,-0.0130266,1.32831,0.0188748,0.0390574,573,981,-10.7777,-0.740026
-644,43,-11.2487,1.39935,-0.0116237,0.0141531,0.00645127,0.0156776,-0.0131481,1.33875,0.0166638,0.0181786,580,981,-11.2487,-1.39933
-637,43,-11.2793,1.38672,-0.0123093,0.0120327,0.00655005,0.0136833,-0.0139599,1.32394,0.0159601,0.0116758,587,981,-11.2793,-1.38669
-630,43,-11.2683,1.35468,-0.012449,0.00869492,0.00416368,0.00948529,-0.0132394,1.3832,0.0131796,0.0109472,594,981,-11.2683,-1.35471
-623,43,-11.27,1.29626,-0.0108124,0.00595964,0.00179362,0.00614931,-0.011002,1.46544,0.0100336,0.0112071,601,981,-11.27,-1.29625
-616,43,-11.2665,1.23309,-0.00745609,0.00375684,0.000569232,0.00378567,-0.00748492,1.5202,0.00662288,0.0105318,608,981,-11.2665,-1.2331
-609,43,-11.2872,1.16632,-0.00530237,0.00210016,-0.000466207,0.0021294,-0.00533161,-1.50815,0.0044379,0.0126876,615,981,-11.2873,-1.16634
-602,43,-11.2971,1.12347,-0.00409903,0.0015551,-0.00134405,0.00185834,-0.00440226,-1.3489,0.00371269,0.015413,622,981,-11.2971,-1.12345
-595,43,-11.2813,1.09802,-0.0031459,0.00131763,-0.00204847,0.00211523,-0.00394349,-1.1995,0.00355069,0.0137215,629,981,-11.2813,-1.09805
-588,43,-11.272,0.990112,-0.00277908,0.00124995,-0.00248882,0.00243739,-0.00396652,-1.12563,0.00373227,0.0132294,636,981,-11.272,-0.990093
-581,43,-11.4136,0.775574,-0.00288093,0.00141375,-0.00278224,0.00278094,-0.00424812,-1.11405,0.00408759,0.0203266,643,981,-11.4136,-0.775557
-574,43,-11.4935,0.655334,-0.0029307,0.00148041,-0.00292661,0.00293948,-0.00438978,-1.10831,0.00425908,0.0290204,650,981,-11.4935,-0.65534
-567,43,-11.4036,0.608704,-0.00275503,0.00159592,-0.00292651,0.00306697,-0.00422608,-1.10502,0.00422833,0.0365236,657,981,-11.4036,-0.6087
-560,43,-11.2587,0.531677,-0.00243071,0.001693,-0.00287919,0.00317247,-0.00391017,-1.09613,0.00409655,0.040885,664,981,-11.2587,-0.531701
-553,43,-11.3055,0.372437,-0.0019235,0.00176506,-0.00288381,0.00334389,-0.00350234,-1.06989,0.00395303,0.042308,671,981,-11.3055,-0.372411
-546,43,-11.5597,0.522949,-0.00122227,0.0017884,-0.00305936,0.00369272,-0.00312659,-1.01403,0.00394165,0.0453866,678,981,-11.5597,-0.522962
-539,43,-11.3346,0.920349,-0.00033655,0.0017467,-0.00363026,0.00448181,-0.00307166,-0.925109,0.00438626,0.0484001,685,981,-11.3346,-0.920341
-532,43,-11.3367,0.539368,0.000400452,0.00182709,-0.00496847,0.00613318,-0.00390564,-0.856695,0.00584329,0.0453712,692,981,-11.3367,-0.539367
-525,43,-11.3629,0.21283,0,0,0,0,0,0,0,-1,699,981,-11.3628,-0.212823
-518,43,0,0,0,0,0,0,0,0,0,-1,706,981,0,0
-511,43,0,0,0,0,0,0,0,0,0,-1,713,981,0,0
-504,43,0,0,0,0,0,0,0,0,0,-1,720,981,0,0
-497,43,0,0,0,0,0,0,0,0,0,-1,727,981,0,0
-490,43,0,0,0,0,0,0,0,0,0,-1,734,981,0,0
-483,43,0,0,0,0,0,0,0,0,0,-1,741,981,0,0
-476,43,0,0,0,0,0,0,0,0,0,-1,748,981,0,0
-469,43,0,0,0,0,0,0,0,0,0,-1,755,981,0,0
-462,43,0,0,0,0,0,0,0,0,0,-1,762,981,0,0
-455,43,0,0,0,0,0,0,0,0,0,-1,769,981,0,0
-448,43,0,0,0,0,0,0,0,0,0,-1,776,981,0,0
-441,43,0,0,0,0,0,0,0,0,0,-1,783,981,0,0
-434,43,0,0,0,0,0,0,0,0,0,-1,790,981,0,0
-427,43,0,0,0,0,0,0,0,0,0,-1,797,981,0,0
-420,43,0,0,0,0,0,0,0,0,0,-1,804,981,0,0
-413,43,0,0,0,0,0,0,0,0,0,-1,811,981,0,0
-406,43,0,0,0,0,0,0,0,0,0,-1,818,981,0,0
-399,43,0,0,0,0,0,0,0,0,0,-1,825,981,0,0
-392,43,0,0,0,0,0,0,0,0,0,-1,832,981,0,0
-385,43,0,0,0,0,0,0,0,0,0,-1,839,981,0,0
-378,43,0,0,0,0,0,0,0,0,0,-1,846,981,0,0
-371,43,0,0,0,0,0,0,0,0,0,-1,853,981,0,0
-364,43,0,0,0,0,0,0,0,0,0,-1,860,981,0,0
-357,43,0,0,0,0,0,0,0,0,0,-1,867,981,0,0
-350,43,0,0,0,0,0,0,0,0,0,-1,874,981,0,0
-343,43,0,0,0,0,0,0,0,0,0,-1,881,981,0,0
-336,43,0,0,0,0,0,0,0,0,0,-1,888,981,0,0
-329,43,0,0,0,0,0,0,0,0,0,-1,895,981,0,0
-322,43,0,0,0,0,0,0,0,0,0,-1,902,981,0,0
-315,43,0,0,0,0,0,0,0,0,0,-1,909,981,0,0
-308,43,0,0,0,0,0,0,0,0,0,-1,916,981,0,0
-301,43,0,0,0,0,0,0,0,0,0,-1,923,981,0,0
-294,43,0,0,0,0,0,0,0,0,0,-1,930,981,0,0
-287,43,0,0,0,0,0,0,0,0,0,-1,937,981,0,0
-280,43,0,0,0,0,0,0,0,0,0,-1,944,981,0,0
-273,43,0,0,0,0,0,0,0,0,0,-1,951,981,0,0
-266,43,0,0,0,0,0,0,0,0,0,-1,958,981,0,0
-259,43,0,0,0,0,0,0,0,0,0,-1,965,981,0,0
-252,43,0,0,0,0,0,0,0,0,0,-1,972,981,0,0
-245,43,0,0,0,0,0,0,0,0,0,-1,979,981,0,0
-238,43,0,0,0,0,0,0,0,0,0,-1,986,981,0,0
-231,43,0,0,0,0,0,0,0,0,0,-1,993,981,0,0
-224,43,0,0,0,0,0,0,0,0,0,-1,1000,981,0,0
-217,43,0,0,0,0,0,0,0,0,0,-1,1007,981,0,0
-210,43,0,0,0,0,0,0,0,0,0,-1,1014,981,0,0
-203,43,0,0,0,0,0,0,0,0,0,-1,1021,981,0,0
-196,43,0,0,0,0,0,0,0,0,0,-1,1028,981,0,0
-189,43,0,0,0,0,0,0,0,0,0,-1,1035,981,0,0
-182,43,0,0,0,0,0,0,0,0,0,-1,1042,981,0,0
-175,43,0,0,0,0,0,0,0,0,0,-1,1049,981,0,0
-168,43,0,0,0,0,0,0,0,0,0,-1,1056,981,0,0
-161,43,0,0,0,0,0,0,0,0,0,-1,1063,981,0,0
-154,43,0,0,0,0,0,0,0,0,0,-1,1070,981,0,0
-147,43,0,0,0,0,0,0,0,0,0,-1,1077,981,0,0
-140,43,0,0,0,0,0,0,0,0,0,-1,1084,981,0,0
-133,43,0,0,0,0,0,0,0,0,0,-1,1091,981,0,0
-126,43,0,0,0,0,0,0,0,0,0,-1,1098,981,0,0
-119,43,0,0,0,0,0,0,0,0,0,-1,1105,981,0,0
-112,43,0,0,0,0,0,0,0,0,0,-1,1112,981,0,0
-105,43,0,0,0,0,0,0,0,0,0,-1,1119,981,0,0
-98,43,0,0,0,0,0,0,0,0,0,-1,1126,981,0,0
-91,43,0,0,0,0,0,0,0,0,0,-1,1133,981,0,0
-84,43,0,0,0,0,0,0,0,0,0,-1,1140,981,0,0
-77,43,0,0,0,0,0,0,0,0,0,-1,1147,981,0,0
-70,43,0,0,0,0,0,0,0,0,0,-1,1154,981,0,0
-63,43,0,0,0,0,0,0,0,0,0,-1,1161,981,0,0
-56,43,0,0,0,0,0,0,0,0,0,-1,1168,981,0,0
-49,43,0,0,0,0,0,0,0,0,0,-1,1175,981,0,0
-42,43,0,0,0,0,0,0,0,0,0,-1,1182,981,0,0
-35,43,0,0,0,0,0,0,0,0,0,-1,1189,981,0,0
-28,43,0,0,0,0,0,0,0,0,0,-1,1196,981,0,0
-21,43,0,0,0,0,0,0,0,0,0,-1,1203,981,0,0
-14,43,0,0,0,0,0,0,0,0,0,-1,1210,981,0,0
-7,43,0,0,0,0,0,0,0,0,0,-1,1217,981,0,0
0,43,0,0,0,0,0,0,0,0,0,-1,1224,981,0,0
7,43,0,0,0,0,0,0,0,0,0,-1,1231,981,0,0
14,43,0,0,0,0,0,0,0,0,0,-1,1238,981,0,0
21,43,0,0,0,0,0,0,0,0,0,-1,1245,981,0,0
28,43,0,0,0,0,0,0,0,0,0,-1,1252,981,0,0
35,43,0,0,0,0,0,0,0,0,0,-1,1259,981,0,0
42,43,0,0,0,0,0,0,0,0,0,-1,1266,981,0,0
49,43,0,0,0,0,0,0,0,0,0,-1,1273,981,0,0
56,43,0,0,0,0,0,0,0,0,0,-1,1280,981,0,0
63,43,0,0,0,0,0,0,0,0,0,-1,1287,981,0,0
70,43,0,0,0,0,0,0,0,0,0,-1,1294,981,0,0
77,43,0,0,0,0,0,0,0,0,0,-1,1301,981,0,0
84,43,0,0,0,0,0,0,0,0,0,-1,1308,981,0,0
91,43,0,0,0,0,0,0,0,0,0,-1,1315,981,0,0
98,43,0,0,0,0,0,0,0,0,0,-1,1322,981,0,0
105,43,0,0,0,0,0,0,0,0,0,-1,1329,981,0,0
112,43,0,0,0,0,0,0,0,0,0,-1,1336,981,0,0
119,43,0,0,0,0,0,0,0,0,0,-1,1343,981,0,0
126,43,0,0,0,0,0,0,0,0,0,-1,1350,981,0,0
133,43,0,0,0,0,0,0,0,0,0,-1,1357,981,0,0
140,43,0,0,0,0,0,0,0,0,0,-1,1364,981,0,0
147,43,0,0,0,0,0,0,0,0,0,-1,1371,981,0,0
154,43,0,0,0,0,0,0,0,0,0,-1,1378,981,0,0
161,43,0,0,0,0,0,0,0,0,0,-1,1385,981,0,0
168,43,0,0,0,0,0,0,0,0,0,-1,1392,981,0,0
175,43,0,0,0,0,0,0,0,0,0,-1,1399,981,0,0
182,43,0,0,0,0,0,0,0,0,0,-1,1406,981,0,0
189,43,0,0,0,0,0,0,0,0,0,-1,1413,981,0,0
196,43,0,0,0,0,0,0,0,0,0,-1,1420,981,0,0
203,43,0,0,0,0,0,0,0,0,0,-1,1427,981,0,0
210,43,0,0,0,0,0,0,0,0,0,-1,1434,981,0,0
217,43,0,0,0,0,0,0,0,0,0,-1,1441,981,0,0
224,43,0,0,0,0,0,0,0,0,0,-1,1448,981,0,0
231,43,0,0,0,0,0,0,0,0,0,-1,1455,981,0,0
238,43,0,0,0,0,0,0,0,0,0,-1,1462,981,0,0
245,43,0,0,0,0,0,0,0,0,0,-1,1469,981,0,0
252,43,0,0,0,0,0,0,0,0,0,-1,1476,981,0,0
259,43,0,0,0,0,0,0,0,0,0,-1,1483,981,0,0
266,43,0,0,0,0,0,0,0,0,0,-1,1490,981,0,0
273,43,0,0,0,0,0,0,0,0,0,-1,1497,981,0,0
280,43,0,0,0,0,0,0,0,0,0,-1,1504,981,0,0
287,43,0,0,0,0,0,0,0,0,0,-1,1511,981,0,0
294,43,0,0,0,0,0,0,0,0,0,-1,1518,981,0,0
301,43,0,0,0,0,0,0,0,0,0,-1,1525,981,0,0
308,43,0,0,0,0,0,0,0,0,0,-1,1532,981,0,0
315,43,0,0,0,0,0,0,0,0,0,-1,1539,981,0,0
322,43,0,0,0,0,0,0,0,0,0,-1,1546,981,0,0
329,43,0,0,0,0,0,0,0,0,0,-1,1553,981,0,0
336,43,0,0,0,0,0,0,0,0,0,-1,1560,981,0,0
343,43,0,0,0,0,0,0,0,0,0,-1,1567,981,0,0
350,43,0,0,0,0,0,0,0,0,0,-1,1574,981,0,0
357,43,0,0,0,0,0,0,0,0,0,-1,1581,981,0,0
364,43,0,0,0,0,0,0,0,0,0,-1,1588,981,0,0
371,43,0,0,0,0,0,0,0,0,0,-1,1595,981,0,0
378,43,0,0,0,0,0,0,0,0,0,-1,1602,981,0,0
385,43,0,0,0,0,0,0,0,0,0,-1,1609,981,0,0
392,43,0,0,0,0,0,0,0,0,0,-1,1616,981,0,0
399,43,0,0,0,0,0,0,0,0,0,-1,1623,981,0,0
406,43,0,0,0,0,0,0,0,0,0,-1,1630,981,0,0
413,43,0,0,0,0,0,0,0,0,0,-1,1637,981,0,0
420,43,0,0,0,0,0,0,0,0,0,-1,1644,981,0,0
427,43,0,0,0,0,0,0,0,0,0,-1,1651,981,0,0
434,43,0,0,0,0,0,0,0,0,0,-1,1658,981,0,0
441,43,0,0,0,0,0,0,0,0,0,-1,1665,981,0,0
448,43,0,0,0,0,0,0,0,0,0,-1,1672,981,0,0
455,43,0,0,0,0,0,0,0,0,0,-1,1679,981,0,0
462,43,0,0,0,0,0,0,0,0,0,-1,1686,981,0,0
469,43,0,0,0,0,0,0,0,0,0,-1,1693,981,0,0
476,43,0,0,0,0,0,0,0,0,0,-1,1700,981,0,0
483,43,0,0,0,0,0,0,0,0,0,-1,1707,981,0,0
490,43,0,0,0,0,0,0,0,0,0,-1,1714,981,0,0
497,43,0,0,0,0,0,0,0,0,0,-1,1721,981,0,0
504,43,0,0,0,0,0,0,0,0,0,-1,1728,981,0,0
511,43,0,0,0,0,0,0,0,0,0,-1,1735,981,0,0
518,43,0,0,0,0,0,0,0,0,0,-1,1742,981,0,0
525,43,0,0,0,0,0,0,0,0,0,-1,1749,981,0,0
532,43,0,0,0,0,0,0,0,0,0,-1,1756,981,0,0
539,43,0,0,0,0,0,0,0,0,0,-1,1763,981,0,0
546,43,0,0,0,0,0,0,0,0,0,-1,1770,981,0,0
553,43,0,0,0,0,0,0,0,0,0,-1,1777,981,0,0
560,43,0,0,0,0,0,0,0,0,0,-1,1784,981,0,0
567,43,0,0,0,0,0,0,0,0,0,-1,1791,981,0,0
574,43,0,0,0,0,0,0,0,0,0,-1,1798,981,0,0
581,43,0,0,0,0,0,0,0,0,0,-1,1805,981,0,0
588,43,0,0,0,0,0,0,0,0,0,-1,1812,981,0,0
595,43,0,0,0,0,0,0,0,0,0,-1,1819,981,0,0
602,43,0,0,0,0,0,0,0,0,0,-1,1826,981,0,0
609,43,0,0,0,0,0,0,0,0,0,-1,1833,981,0,0
616,43,0,0,0,0,0,0,0,0,0,-1,1840,981,0,0
623,43,0,0,0,0,0,0,0,0,0,-1,1847,981,0,0
630,43,0,0,0,0,0,0,0,0,0,-1,1854,981,0,0
637,43,0,0,0,0,0,0,0,0,0,-1,1861,981,0,0
644,43,17.5831,2.49866,0.00135766,0.00295699,0.00103315,0.00346379,0.000850858,1.11474,0.00208429,0.0378321,1868,981,17.5831,-2.49863
651,43,17.6385,2.43964,0.00114944,0.00224226,0.000918947,0.00276497,0.000626722,1.05362,0.00167398,0.0362916,1875,981,17.6385,-2.43964
658,43,17.6699,2.41492,0.000926404,0.00156564,0.000927964,0.00222749,0.000264558,0.951251,0.00140513,0.0377038,1882,981,17.67,-2.4149
665,43,17.625,2.3775,0.000624931,0.00112186,0.00105503,0.00195728,-0.000210497,0.901043,0.00138038,0.0381558,1889,981,17.625,-2.37749
672,43,17.6403,2.4743,8.68264e-05,0.000886226,0.00131141,0.00185749,-0.000884443,0.933319,0.00161594,0.0388689,1896,981,17.6403,-2.47429
679,43,17.6172,2.50848,-0.000819893,0.0007453,0.00165042,0.00178927,-0.00186386,1.00679,0.00210928,0.0388861,1903,981,17.6172,-2.50849
686,43,17.6545,2.5235,-0.00163832,0.000664205,0.00192915,0.0017595,-0.00273362,1.05442,0.00261434,0.0392843,1910,981,17.6545,-2.52351
693,43,17.6615,2.5506,-0.0023683,0.000647697,0.00212957,0.00174913,-0.00346973,1.09348,0.00306721,0.0384282,1917,981,17.6615,-2.55061
700,43,17.6686,2.54938,-0.00301594,0.00056529,0.00225615,0.00165505,-0.00410569,1.12083,0.00342481,0.0333264,1924,981,17.6685,-2.54938
707,43,17.7209,2.48877,-0.00351733,0.000607061,0.00222886,0.00158138,-0.00449166,1.15869,0.003638,0.0288111,1931,981,17.7209,-2.48876
714,43,17.7844,2.49719,0,0,0,0,0,0,0,-1,1938,981,17.7845,-2.49721
721,43,17.4963,2.99451,-0.00422928,0.000871433,0.00199298,0.00155778,-0.00491563,1.23913,0.00390143,0.0316634,1945,981,17.4963,-2.99448
728,43,17.1163,3.30444,-0.00461824,0.000990498,0.00167907,0.00145473,-0.00508247,1.30105,0.00396324,0.0194449,1952,981,17.1164,-3.30441
735,43,17.016,3.40863,-0.00479496,0.00128212,0.000892471,0.00141048,-0.00492331,1.42795,0.00383971,0.0133744,1959,981,17.016,-3.4086
742,43,17.0276,3.47729,-0.00516856,0.00174646,-0.0004079,0.00177044,-0.00519253,-1.51208,0.00417878,0.0165086,1966,981,17.0276,-3.47729
749,43,17.0359,3.5434,-0.00589766,0.00262605,-0.00169142,0.00294942,-0.00622103,-1.38189,0.00540571,0.0186524,1973,981,17.0359,-3.54342
756,43,17.0454,3.61957,-0.00606459,0.00267476,-0.00322035,0.00373322,-0.00712305,-1.25324,0.00636891,0.0163428,1980,981,17.0454,-3.61956
763,43,17.0217,3.67157,-0.00608546,0.0020135,-0.00526615,0.00460711,-0.00867906,-1.11316,0.00778993,0.0178482,1987,981,17.0218,-3.67155
770,43,17.0012,3.72278,-0.00654025,0.00169966,-0.00760093,0.00622541,-0.011066,-1.03375,0.0101127,0.0141835,1994,981,17.0012,-3.72277
777,43,16.9567,3.72076,-0.00683069,0.000996869,-0.0100785,0.00789486,-0.0137287,-0.9706,0.0126349,0.0197013,2001,981,16.9566,-3.72075
784,43,16.6899,3.5094,-0.00718113,-0.000401608,-0.0127011,0.00935428,-0.016937,-0.915802,0.0153883,0.0393065,2008,981,16.69,-3.50939
791,43,16.1759,2.63788,-0.00710594,-0.0028862,-0.0154853,0.0106323,-0.0206244,-0.853106,0.0183509,0.0428839,2015,981,16.1759,-2.63788
798,43,15.8096,2.00507,-0.00600887,-0.00686993,-0.0184577,0.0120233,-0.0249021,-0.773738,0.0217469,0.0423304,2022,981,15.8095,-2.00509
805,43,15.3734,1.5434,-0.00339174,-0.012934,-0.0215341,0.0138934,-0.0302192,-0.676378,0.0260433,0.0451819,2029,981,15.3734,-1.54339
812,43,14.8408,1.17578,0.00169226,-0.0219981,-0.02462,0.0171683,-0.0374742,-0.561183,0.0322658,0.0487421,2036,981,14.8407,-1.17579
-700,36,0,0,0,0,0,0,0,0,0,-1,524,988,0,0
-693,36,-11.5243,-1.95172,0.0526057,0.0108071,-0.016997,0.0586449,0.00476795,-0.341393,0.0376081,0.0459397,531,988,-11.5243,1.95173
-686,36,-11.0685,-1.68683,0.0289479,0.0168012,-0.00813623,0.0330275,0.0127215,-0.464784,0.0192353,0.0432682,538,988,-11.0685,1.68685
-679,36,-10.6842,-1.54926,0.0130919,0.0192002,-0.00258087,0.0201446,0.0121474,-1.21999,0.0117125,0.0436973,545,988,-10.6842,1.54928
-672,36,-10.3799,-1.37616,0,0,0,0,0,0,0,-1,552,988,-10.38,1.37617
-665,36,-10.6064,-0.859497,0,0,0,0,0,0,0,-1,559,988,-10.6064,0.859481
-658,36,-10.7906,-0.0427246,-0.00881627,0.0167339,0.00436363,0.0174586,-0.00954097,1.40622,0.01581,0.0465002,566,988,-10.7906,0.0427344
-651,36,-11.0858,0.712158,-0.0108257,0.0143715,0.00479118,0.0152518,-0.011706,1.38909,0.0156089,0.0364501,573,988,-11.0858,-0.712133
-644,36,-11.3426,1.37964,-0.0111608,0.0117622,0.00455019,0.0126324,-0.012031,1.38184,0.0142408,0.0179977,580,988,-11.3426,-1.37961
-637,36,-11.3297,1.36823,-0.0118603,0.010497,0.00535749,0.0117145,-0.0130779,1.34734,0.0143211,0.0128924,587,988,-11.3297,-1.36824
-630,36,-11.3279,1.34497,-0.0119025,0.00770543,0.00359907,0.00834517,-0.0125423,1.39488,0.0121402,0.0117239,594,988,-11.328,-1.34496
-623,36,-11.3265,1.28729,-0.0101342,0.00534364,0.00155912,0.00549913,-0.0102897,1.47139,0.00925451,0.0114327,601,988,-11.3265,-1.2873
-616,36,-11.3284,1.21814,-0.00676292,0.00330851,0.000324618,0.00331896,-0.00677338,1.53861,0.0059395,0.00986759,608,988,-11.3284,-1.21817
-609,36,-11.3323,1.18561,-0.00461424,0.00187556,-0.000765298,0.00196458,-0.00470327,-1.45499,0.00395644,0.0140797,615,988,-11.3323,-1.18559
-602,36,-11.3434,1.13745,-0.00338851,0.00145822,-0.0017193,0.00200617,-0.00393646,-1.26227,0.00349079,0.0187397,622,988,-11.3434,-1.13747
-595,36,-11.3317,1.09222,-0.0024511,0.00126523,-0.00244801,0.00248042,-0.00366629,-1.11003,0.00357075,0.0204422,629,988,-11.3317,-1.0922
-588,36,-11.3402,0.933838,-0.00206861,0.00118037,-0.00286441,0.00284887,-0.00373711,-1.04335,0.00381393,0.0199199,636,988,-11.3402,-0.933851
-581,36,-11.4187,0.667297,-0.00211302,0.00132027,-0.00310587,0.00315232,-0.00394508,-1.03786,0.0041062,0.0244406,643,988,-11.4187,-0.667278
-574,36,-11.4365,0.627502,-0.00213468,0.0013326,-0.0031778,0.00321889,-0.00402098,-1.03511,0.00418849,0.0290844,650,988,-11.4365,-0.627518
-567,36,-11.4443,0.655212,-0.00202307,0.00139379,-0.00307855,0.00320619,-0.00383547,-1.03872,0.00407091,0.0361968,657,988,-11.4443,-0.655237
-560,36,-11.3564,0.509949,-0.00181563,0.00142319,-0.00291869,0.00314163,-0.00353407,-1.03867,0.00385643,0.0396434,664,988,-11.3564,-0.50993
-553,36,-11.2961,0.380005,-0.00152413,0.00140534,-0.00280738,0.00310712,-0.00322591,-1.02584,0.00365659,0.0442413,671,988,-11.2962,-0.380005
-546,36,-11.3527,0.78241,-0.00114868,0.00131027,-0.0028864,0.00321813,-0.00305655,-0.986738,0.00362309,0.0479281,678,988,-11.3526,-0.782432
-539,36,-11.2575,0.859192,-0.0007056,0.00111766,-0.0034409,0.00376564,-0.00335358,-0.914893,0.00411258,0.0479279,685,988,-11.2575,-0.859196
-532,36,-11.3541,0.605286,-0.000572367,0.00108733,-0.00492935,0.0052562,-0.00474124,-0.86879,0.00577457,0.0473947,692,988,-11.354,-0.605285
-525,36,-11.4549,0.476135,-0.00139484,0.00121576,-0.00768762,0.00770811,-0.00788719,-0.869492,0.00900415,0.0479975,699,988,-11.4549,-0.476136
-518,36,0,0,0,0,0,0,0,0,0,-1,706,988,0,0
-511,36,0,0,0,0,0,0,0,0,0,-1,713,988,0,0
-504,36,0,0,0,0,0,0,0,0,0,-1,720,988,0,0
-497,36,0,0,0,0,0,0,0,0,0,-1,727,988,0,0
-490,36,0,0,0,0,0,0,0,0,0,-1,734,988,0,0
-483,36,0,0,0,0,0,0,0,0,0,-1,741,988,0,0
-476,36,0,0,0,0,0,0,0,0,0,-1,748,988,0,0
-469,36,0,0,0,0,0,0,0,0,0,-1,755,988,0,0
-462,36,0,0,0,0,0,0,0,0,0,-1,762,988,0,0
-455,36,0,0,0,0,0,0,0,0,0,-1,769,988,0,0
-448,36,0,0,0,0,0,0,0,0,0,-1,776,988,0,0
-441,36,0,0,0,0,0,0,0,0,0,-1,783,988,0,0
-434,36,0,0,0,0,0,0,0,0,0,-1,790,988,0,0
-427,36,0,0,0,0,0,0,0,0,0,-1,797,988,0,0
-420,36,0,0,0,0,0,0,0,0,0,-1,804,988,0,0
-413,36,0,0,0,0,0,0,0,0,0,-1,811,988,0,0
-406,36,0,0,0,0,0,0,0,0,0,-1,818,988,0,0
-399,36,0,0,0,0,0,0,0,0,0,-1,825,988,0,0
-392,36,0,0,0,0,0,0,0,0,0,-1,832,988,0,0
-385,36,0,0,0,0,0,0,0,0,0,-1,839,988,0,0
-378,36,0,0,0,0,0,0,0,0,0,-1,846,988,0,0
-371,36,0,0,0,0,0,0,0,0,0,-1,853,988,0,0
-364,36,0,0,0,0,0,0,0,0,0,-1,860,988,0,0
-357,36,0,0,0,0,0,0,0,0,0,-1,867,988,0,0
-350,36,0,0,0,0,0,0,0,0,0,-1,874,988,0,0
-343,36,0,0,0,0,0,0,0,0,0,-1,881,988,0,0
-336,36,0,0,0,0,0,0,0,0,0,-1,888,988,0,0
-329,36,0,0,0,0,0,0,0,0,0,-1,895,988,0,0
-322,36,0,0,0,0,0,0,0,0,0,-1,902,988,0,0
-315,36,0,0,0,0,0,0,0,0,0,-1,909,988,0,0
-308,36,0,0,0,0,0,0,0,0,0,-1,916,988,0,0
-301,36,0,0,0,0,0,0,0,0,0,-1,923,988,0,0
-294,36,0,0,0,0,0,0,0,0,0,-1,930,988,0,0
-287,36,0,0,0,0,0,0,0,0,0,-1,937,988,0,0
-280,36,0,0,0,0,0,0,0,0,0,-1,944,988,0,0
-273,36,0,0,0,0,0,0,0,0,0,-1,951,988,0,0
-266,36,0,0,0,0,0,0,0,0,0,-1,958,988,0,0
-259,36,0,0,0,0,0,0,0,0,0,-1,965,988,0,0
-252,36,0,0,0,0,0,0,0,0,0,-1,972,988,0,0
-245,36,0,0,0,0,0,0,0,0,0,-1,979,988,0,0
-238,36,0,0,0,0,0,0,0,0,0,-1,986,988,0,0
-231,36,0,0,0,0,0,0,0,0,0,-1,993,988,0,0
-224,36,0,0,0,0,0,0,0,0,0,-1,1000,988,0,0
-217,36,0,0,0,0,0,0,0,0,0,-1,1007,988,0,0
-210,36,0,0,0,0,0,0,0,0,0,-1,1014,988,0,0
-203,36,0,0,0,0,0,0,0,0,0,-1,1021,988,0,0
-196,36,0,0,0,0,0,0,0,0,0,-1,1028,988,0,0
-189,36,0,0,0,0,0,0,0,0,0,-1,1035,988,0,0
-182,36,0,0,0,0,0,0,0,0,0,-1,1042,988,0,0
-175,36,0,0,0,0,0,0,0,0,0,-1,1049,988,0,0
-168,36,0,0,0,0,0,0,0,0,0,-1,1056,988,0,0
-161,36,0,0,0,0,0,0,0,0,0,-1,1063,988,0,0
-154,36,0,0,0,0,0,0,0,0,0,-1,1070,988,0,0
-147,36,0,0,0,0,0,0,0,0,0,-1,1077,988,0,0
-140,36,0,0,0,0,0,0,0,0,0,-1,1084,988,0,0
-133,36,0,0,0,0,0,0,0,0,0,-1,1091,988,0,0
-126,36,0,0,0,0,0,0,0,0,0,-1,1098,988,0,0
-119,36,0,0,0,0,0,0,0,0,0,-1,1105,988,0,0
-112,36,0,0,0,0,0,0,0,0,0,-1,1112,988,0,0
-105,36,0,0,0,0,0,0,0,0,0,-1,1119,988,0,0
-98,36,0,0,0,0,0,0,0,0,0,-1,1126,988,0,0
-91,36,0,0,0,0,0,0,0,0,0,-1,1133,988,0,0
-84,36,0,0,0,0,0,0,0,0,0,-1,1140,988,0,0
-77,36,0,0,0,0,0,0,0,0,0,-1,1147,988,0,0
-70,36,0,0,0,0,0,0,0,0,0,-1,1154,988,0,0
-63,36,0,0,0,0,0,0,0,0,0,-1,1161,988,0,0
-56,36,0,0,0,0,0,0,0,0,0,-1,1168,988,0,0
-49,36,0,0,0,0,0,0,0,0,0,-1,1175,988,0,0
-42,36,0,0,0,0,0,0,0,0,0,-1,1182,988,0,0
-35,36,0,0,0,0,0,0,0,0,0,-1,1189,988,0,0
-28,36,0,0,0,0,0,0,0,0,0,-1,1196,988,0,0
-21,36,0,0,0,0,0,0,0,0,0,-1,1203,988,0,0
-14,36,0,0,0,0,0,0,0,0,0,-1,1210,988,0,0
-7,36,0,0,0,0,0,0,0,0,0,-1,1217,988,0,0
0,36,0,0,0,0,0,0,0,0,0,-1,1224,988,0,0
7,36,0,0,0,0,0,0,0,0,0,-1,1231,988,0,0
14,36,0,0,0,0,0,0,0,0,0,-1,1238,988,0,0
21,36,0,0,0,0,0,0,0,0,0,-1,1245,988,0,0
28,36,0,0,0,0,0,0,0,0,0,-1,1252,988,0,0
35,36,0,0,0,0,0,0,0,0,0,-1,1259,988,0,0
42,36,0,0,0,0,0,0,0,0,0,-1,1266,988,0,0
49,36,0,0,0,0,0,0,0,0,0,-1,1273,988,0,0
56,36,0,0,0,0,0,0,0,0,0,-1,1280,988,0,0
63,36,0,0,0,0,0,0,0,0,0,-1,1287,988,0,0
70,36,0,0,0,0,0,0,0,0,0,-1,1294,988,0,0
77,36,0,0,0,0,0,0,0,0,0,-1,1301,988,0,0
84,36,0,0,0,0,0,0,0,0,0,-1,1308,988,0,0
91,36,0,0,0,0,0,0,0,0,0,-1,1315,988,0,0
98,36,0,0,0,0,0,0,0,0,0,-1,1322,988,0,0
105,36,0,0,0,0,0,0,0,0,0,-1,1329,988,0,0
112,36,0,0,0,0,0,0,0,0,0,-1,1336,988,0,0
119,36,0,0,0,0,0,0,0,0,0,-1,1343,988,0,0
126,36,0,0,0,0,0,0,0,0,0,-1,1350,988,0,0
133,36,0,0,0,0,0,0,0,0,0,-1,1357,988,0,0
140,36,0,0,0,0,0,0,0,0,0,-1,1364,988,0,0
147,36,0,0,0,0,0,0,0,0,0,-1,1371,988,0,0
154,36,0,0,0,0,0,0,0,0,0,-1,1378,988,0,0
161,36,0,0,0,0,0,0,0,0,0,-1,1385,988,0,0
168,36,0,0,0,0,0,0,0,0,0,-1,1392,988,0,0
175,36,0,0,0,0,0,0,0,0,0,-1,1399,988,0,0
182,36,0,0,0,0,0,0,0,0,0,-1,1406,988,0,0
189,36,0,0,0,0,0,0,0,0,0,-1,1413,988,0,0
196,36,0,0,0,0,0,0,0,0,0,-1,1420,988,0,0
203,36,0,0,0,0,0,0,0,0,0,-1,1427,988,0,0
210,36,0,0,0,0,0,0,0,0,0,-1,1434,988,0,0
217,36,0,0,0,0,0,0,0,0,0,-1,1441,988,0,0
224,36,0,0,0,0,0,0,0,0,0,-1,1448,988,0,0
231,36,0,0,0,0,0,0,0,0,0,-1,1455,988,0,0
238,36,0,0,0,0,0,0,0,0,0,-1,1462,988,0,0
245,36,0,0,0,0,0,0,0,0,0,-1,1469,988,0,0
252,36,0,0,0,0,0,0,0,0,0,-1,1476,988,0,0
259,36,0,0,0,0,0,0,0,0,0,-1,1483,988,0,0
266,36,0,0,0,0,0,0,0,0,0,-1,1490,988,0,0
273,36,0,0,0,0,0,0,0,0,0,-1,1497,988,0,0
280,36,0,0,0,0,0,0,0,0,0,-1,1504,988,0,0
287,36,0,0,0,0,0,0,0,0,0,-1,1511,988,0,0
294,36,0,0,0,0,0,0,0,0,0,-1,1518,988,0,0
301,36,0,0,0,0,0,0,0,0,0,-1,1525,988,0,0
308,36,0,0,0,0,0,0,0,0,0,-1,1532,988,0,0
315,36,0,0,0,0,0,0,0,0,0,-1,1539,988,0,0
322,36,0,0,0,0,0,0,0,0,0,-1,1546,988,0,0
329,36,0,0,0,0,0,0,0,0,0,-1,1553,988,0,0
336,36,0,0,0,0,0,0,0,0,0,-1,1560,988,0,0
343,36,0,0,0,0,0,0,0,0,0,-1,1567,988,0,0
350,36,0,0,0,0,0,0,0,0,0,-1,1574,988,0,0
357,36,0,0,0,0,0,0,0,0,0,-1,1581,988,0,0
364,36,0,0,0,0,0,0,0,0,0,-1,1588,988,0,0
371,36,0,0,0,0,0,0,0,0,0,-1,1595,988,0,0
378,36,0,0,0,0,0,0,0,0,0,-1,1602,988,0,0
385,36,0,0,0,0,0,0,0,0,0,-1,1609,988,0,0
392,36,0,0,0,0,0,0,0,0,0,-1,1616,988,0,0
399,36,0,0,0,0,0,0,0,0,0,-1,1623,988,0,0
406,36,0,0,0,0,0,0,0,0,0,-1,1630,988,0,0
413,36,0,0,0,0,0,0,0,0,0,-1,1637,988,0,0
420,36,0,0,0,0,0,0,0,0,0,-1,1644,988,0,0
427,36,0,0,0,0,0,0,0,0,0,-1,1651,988,0,0
434,36,0,0,0,0,0,0,0,0,0,-1,1658,988,0,0
441,36,0,0,0,0,0,0,0,0,0,-1,1665,988,0,0
448,36,0,0,0,0,0,0,0,0,0,-1,1672,988,0,0
455,36,0,0,0,0,0,0,0,0,0,-1,1679,988,0,0
462,36,0,0,0,0,0,0,0,0,0,-1,1686,988,0,0
469,36,0,0,0,0,0,0,0,0,0,-1,1693,988,0,0
476,36,0,0,0,0,0,0,0,0,0,-1,1700,988,0,0
483,36,0,0,0,0,0,0,0,0,0,-1,1707,988,0,0
490,36,0,0,0,0,0,0,0,0,0,-1,1714,988,0,0
497,36,0,0,0,0,0,0,0,0,0,-1,1721,988,0,0
504,36,0,0,0,0,0,0,0,0,0,-1,1728,988,0,0
511,36,0,0,0,0,0,0,0,0,0,-1,1735,988,0,0
518,36,0,0,0,0,0,0,0,0,0,-1,1742,988,0,0
525,36,0,0,0,0,0,0,0,0,0,-1,1749,988,0,0
532,36,0,0,0,0,0,0,0,0,0,-1,1756,988,0,0
539,36,0,0,0,0,0,0,0,0,0,-1,1763,988,0,0
546,36,0,0,0,0,0,0,0,0,0,-1,1770,988,0,0
553,36,0,0,0,0,0,0,0,0,0,-1,1777,988,0,0
560,36,0,0,0,0,0,0,0,0,0,-1,1784,988,0,0
567,36,0,0,0,0,0,0,0,0,0,-1,1791,988,0,0
574,36,0,0,0,0,0,0,0,0,0,-1,1798,988,0,0
581,36,0,0,0,0,0,0,0,0,0,-1,1805,988,0,0
588,36,0,0,0,0,0,0,0,0,0,-1,1812,988,0,0
595,36,0,0,0,0,0,0,0,0,0,-1,1819,988,0,0
602,36,0,0,0,0,0,0,0,0,0,-1,1826,988,0,0
609,36,0,0,0,0,0,0,0,0,0,-1,1833,988,0,0
616,36,0,0,0,0,0,0,0,0,0,-1,1840,988,0,0
623,36,0,0,0,0,0,0,0,0,0,-1,1847,988,0,0
630,36,0,0,0,0,0,0,0,0,0,-1,1854,988,0,0
637,36,0,0,0,0,0,0,0,0,0,-1,1861,988,0,0
644,36,17.6512,2.46509,0.00120218,0.00266888,0.000885731,0.00308545,0.000785611,1.13118,0.00185151,0.0419677,1868,988,17.6513,-2.46507
651,36,17.6824,2.57343,0.000948828,0.00187628,0.000774039,0.00231487,0.000510236,1.05528,0.00140441,0.04086,1875,988,17.6824,-2.57344
658,36,17.7279,2.5509,0.000763294,0.00119036,0.000783841,0.00178923,0.000164422,0.918381,0.00114197,0.0392607,1882,988,17.7279,-2.55088
665,36,17.7122,2.40228,0.00055162,0.000768932,0.000903025,0.00156981,-0.000249262,0.845272,0.00113876,0.0377316,1889,988,17.7121,-2.40227
672,36,17.6831,2.48187,0.000142513,0.00059464,0.00118067,0.0015707,-0.000833542,0.879989,0.00140967,0.0383572,1896,988,17.6831,-2.48189
679,36,17.6936,2.52075,-0.000683653,0.000537542,0.00157063,0.00161208,-0.00175819,0.970788,0.00194644,0.0381293,1903,988,17.6936,-2.52077
686,36,17.6321,2.58917,-0.00147633,0.000537942,0.00191204,0.00169188,-0.00263026,1.0278,0.00251492,0.0358838,1910,988,17.6321,-2.58917
693,36,17.6437,2.61176,-0.0022051,0.000578912,0.00217125,0.00176605,-0.00339224,1.07045,0.00302707,0.0382322,1917,988,17.6437,-2.61177
700,36,17.6736,2.60004,-0.0028793,0.000566508,0.00234308,0.00175194,-0.00406473,1.10242,0.00344561,0.0356862,1924,988,17.6736,-2.60001
707,36,17.7087,2.53363,-0.00339949,0.00065489,0.00237182,0.0017478,-0.0044924,1.13901,0.00371713,0.0253179,1931,988,17.7087,-2.53364
714,36,17.9127,2.30188,0,0,0,0,0,0,0,-1,1938,988,17.9127,-2.3019
721,36,17.5787,3.03949,-0.0041834,0.000988856,0.0021997,0.00179783,-0.00499238,1.21838,0.00406237,0.0337212,1945,988,17.5787,-3.03947
728,36,17.2808,3.34589,-0.00464396,0.00106517,0.0018622,0.00161888,-0.00519767,1.28178,0.00411236,0.0217616,1952,988,17.2807,-3.34588
735,36,17.0942,3.44482,-0.0049081,0.00121783,0.00100198,0.00137755,-0.00506782,1.41272,0.00391928,0.0168843,1959,988,17.0943,-3.44485
742,36,17.0951,3.4812,-0.00533422,0.00146413,-0.000333298,0.00148044,-0.00535052,-1.52193,0.00414948,0.0151816,1966,988,17.0951,-3.48118
749,36,17.1233,3.54565,-0.00617543,0.00191222,-0.00168696,0.00224999,-0.0065132,-1.37319,0.00525521,0.016764,1973,988,17.1233,-3.54563
756,36,17.0901,3.61169,-0.00646176,0.00161055,-0.00321386,0.0027338,-0.00758501,-1.23457,0.00617313,0.0139636,1980,988,17.09,-3.61172
763,36,17.0634,3.6463,-0.00665676,0.000541678,-0.00520305,0.00326908,-0.00938416,-1.08798,0.0075844,0.0147663,1987,988,17.0634,-3.64628
770,36,17.058,3.68781,-0.00726451,-0.000369337,-0.00751197,0.0044484,-0.0120822,-1.00053,0.00987737,0.0129454,1994,988,17.058,-3.68778
777,36,17.0148,3.78754,-0.00776535,-0.00174489,-0.00995506,0.0056451,-0.0151553,-0.932218,0.0124205,0.0220282,2001,988,17.0148,-3.78752
784,36,16.759,3.48663,-0.00838705,-0.00381701,-0.0124367,0.00654289,-0.0187469,-0.876251,0.0151572,0.0424412,2008,988,16.759,-3.48664
791,36,16.2866,2.25208,0,0,0,0,0,0,0,-1,2015,988,16.2867,-2.25209
798,36,15.9934,1.65448,0,0,0,0,0,0,0,-1,2022,988,15.9934,-1.65449
805,36,15.9867,1.40851,-0.00621314,-0.0182032,-0.0201669,0.00883094,-0.0332473,-0.640922,0.0256209,0.0464389,2029,988,15.9867,-1.40852
812,36,17.5032,2.97418,-0.00203868,-0.0275494,-0.0225225,0.0110896,-0.0406777,-0.527748,0.0314731,0.0485537,2036,988,17.5031,-2.9742
-700,29,0,0,0,0,0,0,0,0,0,-1,524,995,0,0
-693,29,-11.3025,-2.19281,0.046146,0.00644195,-0.0329413,0.0647548,-0.0121668,-0.514216,0.047745,0.0465846,531,995,-11.3025,2.19282
-686,29,-10.6057,-1.81201,0.0246655,0.0128646,-0.0208367,0.040421,-0.00289095,-0.647422,0.0279609,0.0453519,538,995,-10.6057,1.81203
-679,29,-10.4728,-1.05426,0.0104021,0.0156093,-0.012596,0.025868,0.000143392,-0.887314,0.0171977,0.043014,545,995,-10.4729,1.05425
-672,29,-9.61804,-1.38159,0,0,0,0,0,0,0,-1,552,995,-9.61807,1.38161
-665,29,-10.5224,-0.756409,0,0,0,0,0,0,0,-1,559,995,-10.5224,0.756403
-658,29,-10.8101,-0.0655518,-0.0088184,0.0140958,2.40868e-05,0.0140958,-0.00881843,1.56975,0.013346,0.0459416,566,995,-10.8101,0.0655389
-651,29,-11.4537,0.98645,-0.0104246,0.0120965,0.00171104,0.0122258,-0.0105539,1.4954,0.0131636,0.0372783,573,995,-11.4537,-0.98642
-644,29,-11.3303,1.33221,-0.0105345,0.0098648,0.00243115,0.0101505,-0.0108202,1.4538,0.0121095,0.0186063,580,995,-11.3303,-1.33222
-637,29,-11.3666,1.3175,-0.0111383,0.00896432,0.0041202,0.00977602,-0.01195,1.37628,0.0125644,0.0124079,587,995,-11.3666,-1.31751
-630,29,-11.3793,1.31909,-0.0110406,0.00653757,0.00304387,0.00704973,-0.0115527,1.4041,0.0108445,0.0109214,594,995,-11.3793,-1.31907
-623,29,-11.3658,1.30048,-0.00916384,0.00442184,0.00129081,0.0045434,-0.00928539,1.4769,0.00813902,0.00985062,601,995,-11.3658,-1.3005
-616,29,-11.3746,1.24646,-0.00589991,0.00261907,0.000101647,0.00262028,-0.00590112,1.55887,0.00503992,0.0120769,608,995,-11.3746,-1.24644
-609,29,-11.3953,1.20898,-0.00386603,0.00147599,-0.00100887,0.00166017,-0.00405021,-1.39022,0.00339178,0.0185157,615,995,-11.3953,-1.20901
-602,29,-11.3777,1.15112,-0.00268963,0.00118408,-0.00200115,0.00203219,-0.00353773,-1.16994,0.00325472,0.0201124,622,995,-11.3777,-1.15113
-595,29,-11.3544,1.07898,-0.00185598,0.00106623,-0.00272936,0.00270097,-0.00349072,-1.03115,0.00358445,0.0191965,629,995,-11.3544,-1.07896
-588,29,-11.379,0.896667,-0.00154231,0.000945615,-0.00310766,0.00304904,-0.00364573,-0.975776,0.00387034,0.0233517,636,995,-11.379,-0.896671
-581,29,-11.4286,0.632019,-0.00156985,0.00101821,-0.00327047,0.00324136,-0.00379299,-0.973783,0.00406544,0.0361487,643,995,-11.4286,-0.632035
-574,29,-11.4487,0.5979,-0.00160621,0.000952865,-0.00323132,0.00314876,-0.0038021,-0.973916,0.00401898,0.0334696,650,995,-11.4487,-0.597886
-567,29,-11.4749,0.522095,-0.00158957,0.000934989,-0.00298622,0.00291476,-0.00356934,-0.985359,0.00374995,0.0327697,657,995,-11.4749,-0.522067
-560,29,-11.467,0.298279,-0.00153485,0.000871475,-0.00266924,0.00259619,-0.00325956,-0.997137,0.00338804,0.0351651,664,995,-11.467,-0.298284
-553,29,-11.446,0.338257,-0.00147684,0.000736222,-0.00239539,0.00226831,-0.00300892,-1.00177,0.0030568,0.040578,671,995,-11.4461,-0.338241
-546,29,-11.3892,0.953491,-0.00141553,0.000487268,-0.00232766,0.00205046,-0.00297872,-0.979405,0.00292004,0.0460347,678,995,-11.3892,-0.953494
-539,29,-11.4141,0.846558,-0.00135956,8.62209e-05,-0.00281795,0.00227252,-0.00354586,-0.910956,0.00338596,0.0452563,685,995,-11.4141,-0.84656
-532,29,-11.3522,0.708191,-0.00169848,-0.000151619,-0.00441103,0.00355327,-0.00540337,-0.872186,0.00520777,0.0466853,692,995,-11.3521,-0.708216
-525,29,-11.2244,0.669983,-0.00298797,-0.000307501,-0.00744698,0.00591888,-0.00921436,-0.87443,0.00880597,0.0480495,699,995,-11.2243,-0.670006
-518,29,0,0,0,0,0,0,0,0,0,-1,706,995,0,0
-511,29,0,0,0,0,0,0,0,0,0,-1,713,995,0,0
-504,29,0,0,0,0,0,0,0,0,0,-1,720,995,0,0
-497,29,0,0,0,0,0,0,0,0,0,-1,727,995,0,0
-490,29,0,0,0,0,0,0,0,0,0,-1,734,995,0,0
-483,29,0,0,0,0,0,0,0,0,0,-1,741,995,0,0
-476,29,0,0,0,0,0,0,0,0,0,-1,748,995,0,0
-469,29,0,0,0,0,0,0,0,0,0,-1,755,995,0,0
-462,29,0,0,0,0,0,0,0,0,0,-1,762,995,0,0
-455,29,0,0,0,0,0,0,0,0,0,-1,769,995,0,0
-448,29,0,0,0,0,0,0,0,0,0,-1,776,995,0,0
-441,29,0,0,0,0,0,0,0,0,0,-1,783,995,0,0
-434,29,0,0,0,0,0,0,0,0,0,-1,790,995,0,0
-427,29,0,0,0,0,0,0,0,0,0,-1,797,995,0,0
-420,29,0,0,0,0,0,0,0,0,0,-1,804,995,0,0
-413,29,0,0,0,0,0,0,0,0,0,-1,811,995,0,0
-406,29,0,0,0,0,0,0,0,0,0,-1,818,995,0,0
-399,29,0,0,0,0,0,0,0,0,0,-1,825,995,0,0
-392,29,0,0,0,0,0,0,0,0,0,-1,832,995,0,0
-385,29,0,0,0,0,0,0,0,0,0,-1,839,995,0,0
-378,29,0,0,0,0,0,0,0,0,0,-1,846,995,0,0
-371,29,0,0,0,0,0,0,0,0,0,-1,853,995,0,0
-364,29,0,0,0,0,0,0,0,0,0,-1,860,995,0,0
-357,29,0,0,0,0,0,0,0,0,0,-1,867,995,0,0
-350,29,0,0,0,0,0,0,0,0,0,-1,874,995,0,0
-343,29,0,0,0,0,0,0,0,0,0,-1,881,995,0,0
-336,29,0,0,0,0,0,0,0,0,0,-1,888,995,0,0
-329,29,0,0,0,0,0,0,0,0,0,-1,895,995,0,0
-322,29,0,0,0,0,0,0,0,0,0,-1,902,995,0,0
-315,29,0,0,0,0,0,0,0,0,0,-1,909,995,0,0
-308,29,0,0,0,0,0,0,0,0,0,-1,916,995,0,0
-301,29,0,0,0,0,0,0,0,0,0,-1,923,995,0,0
-294,29,0,0,0,0,0,0,0,0,0,-1,930,995,0,0
-287,29,0,0,0,0,0,0,0,0,0,-1,937,995,0,0
-280,29,0,0,0,0,0,0,0,0,0,-1,944,995,0,0
-273,29,0,0,0,0,0,0,0,0,0,-1,951,995,0,0
-266,29,0,0,0,0,0,0,0,0,0,-1,958,995,0,0
-259,29,0,0,0,0,0,0,0,0,0,-1,965,995,0,0
-252,29,0,0,0,0,0,0,0,0,0,-1,972,995,0,0
-245,29,0,0,0,0,0,0,0,0,0,-1,979,995,0,0
-238,29,0,0,0,0,0,0,0,0,0,-1,986,995,0,0
-231,29,0,0,0,0,0,0,0,0,0,-1,993,995,0,0
-224,29,0,0,0,0,0,0,0,0,0,-1,1000,995,0,0
-217,29,0,0,0,0,0,0,0,0,0,-1,1007,995,0,0
-210,29,0,0,0,0,0,0,0,0,0,-1,1014,995,0,0
-203,29,0,0,0,0,0,0,0,0,0,-1,1021,995,0,0
-196,29,0,0,0,0,0,0,0,0,0,-1,1028,995,0,0
-189,29,0,0,0,0,0,0,0,0,0,-1,1035,995,0,0
-182,29,0,0,0,0,0,0,0,0,0,-1,1042,995,0,0
-175,29,0,0,0,0,0,0,0,0,0,-1,1049,995,0,0
-168,29,0,0,0,0,0,0,0,0,0,-1,1056,995,0,0
-161,29,0,0,0,0,0,0,0,0,0,-1,1063,995,0,0
-154,29,0,0,0,0,0,0,0,0,0,-1,1070,995,0,0
-147,29,0,0,0,0,0,0,0,0,0,-1,1077,995,0,0
-140,29,0,0,0,0,0,0,0,0,0,-1,1084,995,0,0
-133,29,0,0,0,0,0,0,0,0,0,-1,1091,995,0,0
-126,29,0,0,0,0,0,0,0,0,0,-1,1098,995,0,0
-119,29,0,0,0,0,0,0,0,0,0,-1,1105,995,0,0
-112,29,0,0,0,0,0,0,0,0,0,-1,1112,995,0,0
-105,29,0,0,0,0,0,0,0,0,0,-1,1119,995,0,0
-98,29,0,0,0,0,0,0,0,0,0,-1,1126,995,0,0
-91,29,0,0,0,0,0,0,0,0,0,-1,1133,995,0,0
-84,29,0,0,0,0,0,0,0,0,0,-1,1140,995,0,0
-77,29,0,0,0,0,0,0,0,0,0,-1,1147,995,0,0
-70,29,0,0,0,0,0,0,0,0,0,-1,1154,995,0,0
-63,29,0,0,0,0,0,0,0,0,0,-1,1161,995,0,0
-56,29,0,0,0,0,0,0,0,0,0,-1,1168,995,0,0
-49,29,0,0,0,0,0,0,0,0,0,-1,1175,995,0,0
-42,29,0,0,0,0,0,0,0,0,0,-1,1182,995,0,0
-35,29,0,0,0,0,0,0,0,0,0,-1,1189,995,0,0
-28,29,0,0,0,0,0,0,0,0,0,-1,1196,995,0,0
-21,29,0,0,0,0,0,0,0,0,0,-1,1203,995,0,0
-14,29,0,0,0,0,0,0,0,0,0,-1,1210,995,0,0
-7,29,0,0,0,0,0,0,0,0,0,-1,1217,995,0,0
0,29,0,0,0,0,0,0,0,0,0,-1,1224,995,0,0
7,29,0,0,0,0,0,0,0,0,0,-1,1231,995,0,0
14,29,0,0,0,0,0,0,0,0,0,-1,1238,995,0,0
21,29,0,0,0,0,0,0,0,0,0,-1,1245,995,0,0
28,29,0,0,0,0,0,0,0,0,0,-1,1252,995,0,0
35,29,0,0,0,0,0,0,0,0,0,-1,1259,995,0,0
42,29,0,0,0,0,0,0,0,0,0,-1,1266,995,0,0
49,29,0,0,0,0,0,0,0,0,0,-1,1273,995,0,0
56,29,0,0,0,0,0,0,0,0,0,-1,1280,995,0,0
63,29,0,0,0,0,0,0,0,0,0,-1,1287,995,0,0
70,29,0,0,0,0,0,0,0,0,0,-1,1294,995,0,0
77,29,0,0,0,0,0,0,0,0,0,-1,1301,995,0,0
84,29,0,0,0,0,0,0,0,0,0,-1,1308,995,0,0
91,29,0,0,0,0,0,0,0,0,0,-1,1315,995,0,0
98,29,0,0,0,0,0,0,0,0,0,-1,1322,995,0,0
105,29,0,0,0,0,0,0,0,0,0,-1,1329,995,0,0
112,29,0,0,0,0,0,0,0,0,0,-1,1336,995,0,0
119,29,0,0,0,0,0,0,0,0,0,-1,1343,995,0,0
126,29,0,0,0,0,0,0,0,0,0,-1,1350,995,0,0
133,29,0,0,0,0,0,0,0,0,0,-1,1357,995,0,0
140,29,0,0,0,0,0,0,0,0,0,-1,1364,995,0,0
147,29,0,0,0,0,0,0,0,0,0,-1,1371,995,0,0
154,29,0,0,0,0,0,0,0,0,0,-1,1378,995,0,0
161,29,0,0,0,0,0,0,0,0,0,-1,1385,995,0,0
168,29,0,0,0,0,0,0,0,0,0,-1,1392,995,0,0
175,29,0,0,0,0,0,0,0,0,0,-1,1399,995,0,0
182,29,0,0,0,0,0,0,0,0,0,-1,1406,995,0,0
189,29,0,0,0,0,0,0,0,0,0,-1,1413,995,0,0
196,29,0,0,0,0,0,0,0,0,0,-1,1420,995,0,0
203,29,0,0,0,0,0,0,0,0,0,-1,1427,995,0,0
210,29,0,0,0,0,0,0,0,0,0,-1,1434,995,0,0
217,29,0,0,0,0,0,0,0,0,0,-1,1441,995,0,0
224,29,0,0,0,0,0,0,0,0,0,-1,1448,995,0,0
231,29,0,0,0,0,0,0,0,0,0,-1,1455,995,0,0
238,29,0,0,0,0,0,0,0,0,0,-1,1462,995,0,0
245,29,0,0,0,0,0,0,0,0,0,-1,1469,995,0,0
252,29,0,0,0,0,0,0,0,0,0,-1,1476,995,0,0
259,29,0,0,0,0,0,0,0,0,0,-1,1483,995,0,0
266,29,0,0,0,0,0,0,0,0,0,-1,1490,995,0,0
273,29,0,0,0,0,0,0,0,0,0,-1,1497,995,0,0
280,29,0,0,0,0,0,0,0,0,0,-1,1504,995,0,0
287,29,0,0,0,0,0,0,0,0,0,-1,1511,995,0,0
294,29,0,0,0,0,0,0,0,0,0,-1,1518,995,0,0
301,29,0,0,0,0,0,0,0,0,0,-1,1525,995,0,0
308,29,0,0,0,0,0,0,0,0,0,-1,1532,995,0,0
315,29,0,0,0,0,0,0,0,0,0,-1,1539,995,0,0
322,29,0,0,0,0,0,0,0,0,0,-1,1546,995,0,0
329,29,0,0,0,0,0,0,0,0,0,-1,1553,995,0,0
336,29,0,0,0,0,0,0,0,0,0,-1,1560,995,0,0
343,29,0,0,0,0,0,0,0,0,0,-1,1567,995,0,0
350,29,0,0,0,0,0,0,0,0,0,-1,1574,995,0,0
357,29,0,0,0,0,0,0,0,0,0,-1,1581,995,0,0
364,29,0,0,0,0,0,0,0,0,0,-1,1588,995,0,0
371,29,0,0,0,0,0,0,0,0,0,-1,1595,995,0,0
378,29,0,0,0,0,0,0,0,0,0,-1,1602,995,0,0
385,29,0,0,0,0,0,0,0,0,0,-1,1609,995,0,0
392,29,0,0,0,0,0,0,0,0,0,-1,1616,995,0,0
399,29,0,0,0,0,0,0,0,0,0,-1,1623,995,0,0
406,29,0,0,0,0,0,0,0,0,0,-1,1630,995,0,0
413,29,0,0,0,0,0,0,0,0,0,-1,1637,995,0,0
420,29,0,0,0,0,0,0,0,0,0,-1,1644,995,0,0
427,29,0,0,0,0,0,0,0,0,0,-1,1651,995,0,0
434,29,0,0,0,0,0,0,0,0,0,-1,1658,995,0,0
441,29,0,0,0,0,0,0,0,0,0,-1,1665,995,0,0
448,29,0,0,0,0,0,0,0,0,0,-1,1672,995,0,0
455,29,0,0,0,0,0,0,0,0,0,-1,1679,995,0,0
462,29,0,0,0,0,0,0,0,0,0,-1,1686,995,0,0
469,29,0,0,0,0,0,0,0,0,0,-1,1693,995,0,0
476,29,0,0,0,0,0,0,0,0,0,-1,1700,995,0,0
483,29,0,0,0,0,0,0,0,0,0,-1,1707,995,0,0
490,29,0,0,0,0,0,0,0,0,0,-1,1714,995,0,0
497,29,0,0,0,0,0,0,0,0,0,-1,1721,995,0,0
504,29,0,0,0,0,0,0,0,0,0,-1,1728,995,0,0
511,29,0,0,0,0,0,0,0,0,0,-1,1735,995,0,0
518,29,0,0,0,0,0,0,0,0,0,-1,1742,995,0,0
525,29,0,0,0,0,0,0,0,0,0,-1,1749,995,0,0
532,29,0,0,0,0,0,0,0,0,0,-1,1756,995,0,0
539,29,0,0,0,0,0,0,0,0,0,-1,1763,995,0,0
546,29,0,0,0,0,0,0,0,0,0,-1,1770,995,0,0
553,29,0,0,0,0,0,0,0,0,0,-1,1777,995,0,0
560,29,0,0,0,0,0,0,0,0,0,-1,1784,995,0,0
567,29,0,0,0,0,0,0,0,0,0,-1,1791,995,0,0
574,29,0,0,0,0,0,0,0,0,0,-1,1798,995,0,0
581,29,0,0,0,0,0,0,0,0,0,-1,1805,995,0,0
588,29,0,0,0,0,0,0,0,0,0,-1,1812,995,0,0
595,29,0,0,0,0,0,0,0,0,0,-1,1819,995,0,0
602,29,0,0,0,0,0,0,0,0,0,-1,1826,995,0,0
609,29,0,0,0,0,0,0,0,0,0,-1,1833,995,0,0
616,29,0,0,0,0,0,0,0,0,0,-1,1840,995,0,0
623,29,0,0,0,0,0,0,0,0,0,-1,1847,995,0,0
630,29,0,0,0,0,0,0,0,0,0,-1,1854,995,0,0
637,29,0,0,0,0,0,0,0,0,0,-1,1861,995,0,0
644,29,17.8201,2.37494,0.00070534,0.00171895,0.001074,0.00239972,2.45692e-05,1.00585,0.00159168,0.0418651,1868,995,17.82,-2.37493
651,29,17.7617,2.43085,0.000487796,0.00113882,0.000839928,0.00171411,-8.74886e-05,0.970262,0.00117299,0.0407999,1875,995,17.7618,-2.43085
658,29,17.6604,2.65204,0.000407078,0.000650929,0.000740673,0.00127965,-0.000221638,0.866974,0.000935767,0.0419209,1882,995,17.6603,-2.65202
665,29,17.5416,2.73108,0.0003737,0.000393709,0.000780664,0.00116443,-0.000397024,0.791806,0.000937097,0.0391162,1889,995,17.5417,-2.7311
672,29,17.5698,2.67633,0.000196046,0.000369674,0.00102885,0.00131536,-0.000749643,0.827489,0.00120705,0.0380421,1896,995,17.5699,-2.67635
679,29,17.6741,2.65466,-0.000451294,0.0004477,0.00144189,0.00150853,-0.00151212,0.936495,0.00174398,0.0379736,1903,995,17.6741,-2.65469
686,29,17.641,2.73779,-0.0011432,0.000548792,0.00184005,0.00172801,-0.00232241,1.00087,0.00234689,0.0374969,1910,995,17.641,-2.73777
693,29,17.6733,2.66846,-0.00180596,0.000657637,0.00215605,0.00190896,-0.00305728,1.04493,0.0028927,0.0378624,1917,995,17.6734,-2.66847
700,29,17.6877,2.63922,-0.00246595,0.000706993,0.00238309,0.00198339,-0.00374235,1.07907,0.00335735,0.0346737,1924,995,17.6877,-2.63924
707,29,17.6567,2.58807,-0.00298522,0.000827427,0.0024806,0.00204959,-0.00420738,1.11301,0.00368338,0.0240049,1931,995,17.6568,-2.58809
714,29,17.7152,2.67694,-0.00339023,0.000961746,0.00247103,0.00207831,-0.00450679,1.14639,0.00388714,0.0259533,1938,995,17.7152,-2.67692
721,29,17.5795,3.10541,-0.00382833,0.00118821,0.00241908,0.00216467,-0.0048048,1.18715,0.00411894,0.0300512,1945,995,17.5794,-3.10541
728,29,17.2983,3.33881,-0.0043494,0.00123113,0.00211122,0.00193984,-0.00505811,1.24693,0.00417183,0.0220518,1952,995,17.2983,-3.33879
735,29,17.1664,3.46942,-0.00468492,0.00129167,0.00123274,0.00153595,-0.0049292,1.37517,0.00390027,0.0149927,1959,995,17.1664,-3.46941
742,29,17.1628,3.48022,-0.00506625,0.00135726,-4.32491e-05,0.00135755,-0.00506654,-1.56406,0.00390958,0.012943,1966,995,17.1628,-3.48025
749,29,17.1628,3.53137,-0.00583107,0.00150014,-0.00129041,0.00172064,-0.00605157,-1.40155,0.00471379,0.0130826,1973,995,17.1628,-3.53137
756,29,17.1414,3.59613,-0.00614514,0.000991684,-0.0026719,0.00188114,-0.00703459,-1.24944,0.00542657,0.0117945,1980,995,17.1414,-3.59616
763,29,17.1365,3.63,-0.00638211,-0.000220371,-0.00442817,0.00209324,-0.00869573,-1.08933,0.00660638,0.0111058,1987,995,17.1365,-3.63
770,29,17.103,3.66241,-0.00690755,-0.001399,-0.00645538,0.00286512,-0.0111717,-0.987038,0.0085641,0.0117768,1994,995,17.1031,-3.66243
777,29,17.0508,3.72534,0,0,0,0,0,0,0,-1,2001,995,17.0507,-3.72535
784,29,16.8052,3.41681,0,0,0,0,0,0,0,-1,2008,995,16.8052,-3.41683
791,29,16.5596,3.10834,0,0,0,0,0,0,0,-1,2015,995,16.5596,-3.10831
798,29,17.321,2.75208,0,0,0,0,0,0,0,-1,2022,995,17.321,-2.75206
805,29,17.5776,3.25629,-0.00663451,-0.0195329,-0.0156769,0.00386789,-0.0300353,-0.590258,0.0214295,0.0446465,2029,995,17.5777,-3.25627
812,29,17.5217,3.34711,-0.00346323,-0.0280444,-0.0166423,0.00493495,-0.0364425,-0.467344,0.026096,0.0471928,2036,995,17.5218,-3.34708
-700,22,0,0,0,0,0,0,0,0,0,-1,524,1002,0,0
-693,22,-7.61139,4.04742,0.0350099,0.00221569,-0.0418554,0.0635654,-0.0263399,-0.598709,0.0533694,0.0468471,531,1002,-7.61139,-4.04743
-686,22,-9.77112,-2.37329,0.0167958,0.00869308,-0.0281893,0.0412234,-0.0157345,-0.714027,0.0339645,0.0447413,538,1002,-9.77111,2.3733
-679,22,-9.06799,2.94647,0.00491137,0.0116483,-0.0185417,0.0271251,-0.0105654,-0.875254,0.0224498,0.0477682,545,1002,-9.06797,-2.94645
-672,22,-9.88971,2.6969,-0.00278657,0.0125779,-0.0115269,0.018748,-0.00895667,-1.07933,0.0163249,0.047667,552,1002,-9.88968,-2.69688
-665,22,-10.7869,2.37128,-0.00753858,0.0122574,-0.00640554,0.0141493,-0.00943047,-1.28361,0.0137043,0.0447893,559,1002,-10.7869,-2.37129
-658,22,-11.2333,1.27277,0,0,0,0,0,0,0,-1,566,1002,-11.2333,-1.27279
-651,22,-11.2634,1.31281,-0.0109399,0.00957774,-0.000316387,0.00958262,-0.0109448,-1.55538,0.0118602,0.0382603,573,1002,-11.2633,-1.31281
-644,22,-11.328,1.33698,-0.0105146,0.0078647,0.000991263,0.007918,-0.0105679,1.51707,0.0107094,0.0180449,580,1002,-11.328,-1.337
-637,22,-11.3867,1.31042,-0.0107665,0.00720417,0.00313771,0.00773627,-0.0112986,1.40281,0.0110538,0.0125033,587,1002,-11.3867,-1.31043
-630,22,-11.3936,1.29474,-0.0103089,0.00526488,0.00256126,0.00567528,-0.0107193,1.41191,0.00961357,0.0109142,594,1002,-11.3936,-1.29476
-623,22,-11.39,1.28168,-0.00823276,0.00347091,0.00106609,0.00356722,-0.00832908,1.48069,0.00704936,0.0097943,601,1002,-11.3899,-1.28165
-616,22,-11.4031,1.25623,-0.00505626,0.00190079,-0.000152311,0.00190412,-0.00505959,-1.54892,0.00415581,0.0153353,608,1002,-11.4031,-1.25625
-609,22,-11.4519,1.22974,-0.0031224,0.00109026,-0.00127975,0.00144856,-0.0034807,-1.29781,0.00292541,0.0247847,615,1002,-11.4519,-1.22975
-602,22,-11.4562,1.17743,-0.00204665,0.000992827,-0.00231524,0.00224255,-0.00329638,-1.07583,0.00321714,0.0241912,622,1002,-11.4563,-1.17744
-595,22,-11.4305,1.07202,-0.00134184,0.00101053,-0.00302757,0.00308236,-0.00341367,-0.970671,0.00375211,0.0200277,629,1002,-11.4305,-1.07203
-588,22,-11.422,0.877686,-0.00110919,0.000934133,-0.00335916,0.00342356,-0.00359862,-0.933024,0.00405468,0.0256591,636,1002,-11.422,-0.877665
-581,22,-11.4677,0.664063,-0.00115442,0.00106519,-0.00345418,0.00358347,-0.0036727,-0.940836,0.00418946,0.0380489,643,1002,-11.4677,-0.664074
-574,22,-11.483,0.636475,-0.00123148,0.00105001,-0.00332604,0.00342549,-0.00360696,-0.950599,0.00406064,0.0349988,650,1002,-11.483,-0.636479
-567,22,-11.4727,0.652161,-0.00133079,0.00110752,-0.00296402,0.00309332,-0.00331659,-0.980511,0.00370151,0.0315832,657,1002,-11.4727,-0.65216
-560,22,-11.449,0.452637,-0.00144368,0.00112146,-0.00252133,0.00266769,-0.00298991,-1.02068,0.00326818,0.0347802,664,1002,-11.449,-0.452656
-553,22,-11.4631,0.387329,-0.00162883,0.00104738,-0.00211422,0.00221136,-0.00279281,-1.06753,0.00289565,0.0395198,671,1002,-11.4631,-0.387304
-546,22,-11.5299,0.92041,-0.00189073,0.000823303,-0.00191831,0.00181606,-0.00288349,-1.09324,0.00273651,0.0425496,678,1002,-11.5299,-0.92041
-539,22,-11.5499,0.830566,-0.00223745,0.000371045,-0.00234449,0.00174965,-0.00361606,-1.03923,0.00315975,0.0412362,685,1002,-11.5499,-0.830578
-532,22,-11.5717,0.74939,-0.00305053,4.5083e-05,-0.00402324,0.00280798,-0.00581342,-0.969029,0.00507738,0.0442521,692,1002,-11.5717,-0.74941
-525,22,0,0,0,0,0,0,0,0,0,-1,699,1002,0,0
-518,22,0,0,0,0,0,0,0,0,0,-1,706,1002,0,0
-511,22,0,0,0,0,0,0,0,0,0,-1,713,1002,0,0
-504,22,0,0,0,0,0,0,0,0,0,-1,720,1002,0,0
-497,22,0,0,0,0,0,0,0,0,0,-1,727,1002,0,0
-490,22,0,0,0,0,0,0,0,0,0,-1,734,1002,0,0
-483,22,0,0,0,0,0,0,0,0,0,-1,741,1002,0,0
-476,22,0,0,0,0,0,0,0,0,0,-1,748,1002,0,0
-469,22,0,0,0,0,0,0,0,0,0,-1,755,1002,0,0
-462,22,0,0,0,0,0,0,0,0,0,-1,762,1002,0,0
-455,22,0,0,0,0,0,0,0,0,0,-1,769,1002,0,0
-448,22,0,0,0,0,0,0,0,0,0,-1,776,1002,0,0
-441,22,0,0,0,0,0,0,0,0,0,-1,783,1002,0,0
-434,22,0,0,0,0,0,0,0,0,0,-1,790,1002,0,0
-427,22,0,0,0,0,0,0,0,0,0,-1,797,1002,0,0
-420,22,0,0,0,0,0,0,0,0,0,-1,804,1002,0,0
-413,22,0,0,0,0,0,0,0,0,0,-1,811,1002,0,0
-406,22,0,0,0,0,0,0,0,0,0,-1,818,1002,0,0
-399,22,0,0,0,0,0,0,0,0,0,-1,825,1002,0,0
-392,22,0,0,0,0,0,0,0,0,0,-1,832,1002,0,0
-385,22,0,0,0,0,0,0,0,0,0,-1,839,1002,0,0
-378,22,0,0,0,0,0,0,0,0,0,-1,846,1002,0,0
-371,22,0,0,0,0,0,0,0,0,0,-1,853,1002,0,0
-364,22,0,0,0,0,0,0,0,0,0,-1,860,1002,0,0
-357,22,0,0,0,0,0,0,0,0,0,-1,867,1002,0,0
-350,22,0,0,0,0,0,0,0,0,0,-1,874,1002,0,0
-343,22,0,0,0,0,0,0,0,0,0,-1,881,1002,0,0
-336,22,0,0,0,0,0,0,0,0,0,-1,888,1002,0,0
-329,22,0,0,0,0,0,0,0,0,0,-1,895,1002,0,0
-322,22,0,0,0,0,0,0,0,0,0,-1,902,1002,0,0
-315,22,0,0,0,0,0,0,0,0,0,-1,909,1002,0,0
-308,22,0,0,0,0,0,0,0,0,0,-1,916,1002,0,0
-301,22,0,0,0,0,0,0,0,0,0,-1,923,1002,0,0
-294,22,0,0,0,0,0,0,0,0,0,-1,930,1002,0,0
-287,22,0,0,0,0,0,0,0,0,0,-1,937,1002,0,0
-280,22,0,0,0,0,0,0,0,0,0,-1,944,1002,0,0
-273,22,0,0,0,0,0,0,0,0,0,-1,951,1002,0,0
-266,22,0,0,0,0,0,0,0,0,0,-1,958,1002,0,0
-259,22,0,0,0,0,0,0,0,0,0,-1,965,1002,0,0
-252,22,0,0,0,0,0,0,0,0,0,-1,972,1002,0,0
-245,22,0,0,0,0,0,0,0,0,0,-1,979,1002,0,0
-238,22,0,0,0,0,0,0,0,0,0,-1,986,1002,0,0
-231,22,0,0,0,0,0,0,0,0,0,-1,993,1002,0,0
-224,22,0,0,0,0,0,0,0,0,0,-1,1000,1002,0,0
-217,22,0,0,0,0,0,0,0,0,0,-1,1007,1002,0,0
-210,22,0,0,0,0,0,0,0,0,0,-1,1014,1002,0,0
-203,22,0,0,0,0,0,0,0,0,0,-1,1021,1002,0,0
-196,22,0,0,0,0,0,0,0,0,0,-1,1028,1002,0,0
-189,22,0,0,0,0,0,0,0,0,0,-1,1035,1002,0,0
-182,22,0,0,0,0,0,0,0,0,0,-1,1042,1002,0,0
-175,22,0,0,0,0,0,0,0,0,0,-1,1049,1002,0,0
-168,22,0,0,0,0,0,0,0,0,0,-1,1056,1002,0,0
-161,22,0,0,0,0,0,0,0,0,0,-1,1063,1002,0,0
-154,22,0,0,0,0,0,0,0,0,0,-1,1070,1002,0,0
-147,22,0,0,0,0,0,0,0,0,0,-1,1077,1002,0,0
-140,22,0,0,0,0,0,0,0,0,0,-1,1084,1002,0,0
-133,22,0,0,0,0,0,0,0,0,0,-1,1091,1002,0,0
-126,22,0,0,0,0,0,0,0,0,0,-1,1098,1002,0,0
-119,22,0,0,0,0,0,0,0,0,0,-1,1105,1002,0,0
-112,22,0,0,0,0,0,0,0,0,0,-1,1112,1002,0,0
-105,22,0,0,0,0,0,0,0,0,0,-1,1119,1002,0,0
-98,22,0,0,0,0,0,0,0,0,0,-1,1126,1002,0,0
-91,22,0,0,0,0,0,0,0,0,0,-1,1133,1002,0,0
-84,22,0,0,0,0,0,0,0,0,0,-1,1140,1002,0,0
-77,22,0,0,0,0,0,0,0,0,0,-1,1147,1002,0,0
-70,22,0,0,0,0,0,0,0,0,0,-1,1154,1002,0,0
-63,22,0,0,0,0,0,0,0,0,0,-1,1161,1002,0,0
-56,22,0,0,0,0,0,0,0,0,0,-1,1168,1002,0,0
-49,22,0,0,0,0,0,0,0,0,0,-1,1175,1002,0,0
-42,22,0,0,0,0,0,0,0,0,0,-1,1182,1002,0,0
-35,22,0,0,0,0,0,0,0,0,0,-1,1189,1002,0,0
-28,22,0,0,0,0,0,0,0,0,0,-1,1196,1002,0,0
-21,22,0,0,0,0,0,0,0,0,0,-1,1203,1002,0,0
-14,22,0,0,0,0,0,0,0,0,0,-1,1210,1002,0,0
-7,22,0,0,0,0,0,0,0,0,0,-1,1217,1002,0,0
0,22,0,0,0,0,0,0,0,0,0,-1,1224,1002,0,0
7,22,0,0,0,0,0,0,0,0,0,-1,1231,1002,0,0
14,22,0,0,0,0,0,0,0,0,0,-1,1238,1002,0,0
21,22,0,0,0,0,0,0,0,0,0,-1,1245,1002,0,0
28,22,0,0,0,0,0,0,0,0,0,-1,1252,1002,0,0
35,22,0,0,0,0,0,0,0,0,0,-1,1259,1002,0,0
42,22,0,0,0,0,0,0,0,0,0,-1,1266,1002,0,0
49,22,0,0,0,0,0,0,0,0,0,-1,1273,1002,0,0
56,22,0,0,0,0,0,0,0,0,0,-1,1280,1002,0,0
63,22,0,0,0,0,0,0,0,0,0,-1,1287,1002,0,0
70,22,0,0,0,0,0,0,0,0,0,-1,1294,1002,0,0
77,22,0,0,0,0,0,0,0,0,0,-1,1301,1002,0,0
84,22,0,0,0,0,0,0,0,0,0,-1,1308,1002,0,0
91,22,0,0,0,0,0,0,0,0,0,-1,1315,1002,0,0
98,22,0,0,0,0,0,0,0,0,0,-1,1322,1002,0,0
105,22,0,0,0,0,0,0,0,0,0,-1,1329,1002,0,0
112,22,0,0,0,0,0,0,0,0,0,-1,1336,1002,0,0
119,22,0,0,0,0,0,0,0,0,0,-1,1343,1002,0,0
126,22,0,0,0,0,0,0,0,0,0,-1,1350,1002,0,0
133,22,0,0,0,0,0,0,0,0,0,-1,1357,1002,0,0
140,22,0,0,0,0,0,0,0,0,0,-1,1364,1002,0,0
147,22,0,0,0,0,0,0,0,0,0,-1,1371,1002,0,0
154,22,0,0,0,0,0,0,0,0,0,-1,1378,1002,0,0
161,22,0,0,0,0,0,0,0,0,0,-1,1385,1002,0,0
168,22,0,0,0,0,0,0,0,0,0,-1,1392,1002,0,0
175,22,0,0,0,0,0,0,0,0,0,-1,1399,1002,0,0
182,22,0,0,0,0,0,0,0,0,0,-1,1406,1002,0,0
189,22,0,0,0,0,0,0,0,0,0,-1,1413,1002,0,0
196,22,0,0,0,0,0,0,0,0,0,-1,1420,1002,0,0
203,22,0,0,0,0,0,0,0,0,0,-1,1427,1002,0,0
210,22,0,0,0,0,0,0,0,0,0,-1,1434,1002,0,0
217,22,0,0,0,0,0,0,0,0,0,-1,1441,1002,0,0
224,22,0,0,0,0,0,0,0,0,0,-1,1448,1002,0,0
231,22,0,0,0,0,0,0,0,0,0,-1,1455,1002,0,0
238,22,0,0,0,0,0,0,0,0,0,-1,1462,1002,0,0
245,22,0,0,0,0,0,0,0,0,0,-1,1469,1002,0,0
252,22,0,0,0,0,0,0,0,0,0,-1,1476,1002,0,0
259,22,0,0,0,0,0,0,0,0,0,-1,1483,1002,0,0
266,22,0,0,0,0,0,0,0,0,0,-1,1490,1002,0,0
273,22,0,0,0,0,0,0,0,0,0,-1,1497,1002,0,0
280,22,0,0,0,0,0,0,0,0,0,-1,1504,1002,0,0
287,22,0,0,0,0,0,0,0,0,0,-1,1511,1002,0,0
294,22,0,0,0,0,0,0,0,0,0,-1,1518,1002,0,0
301,22,0,0,0,0,0,0,0,0,0,-1,1525,1002,0,0
308,22,0,0,0,0,0,0,0,0,0,-1,1532,1002,0,0
315,22,0,0,0,0,0,0,0,0,0,-1,1539,1002,0,0
322,22,0,0,0,0,0,0,0,0,0,-1,1546,1002,0,0
329,22,0,0,0,0,0,0,0,0,0,-1,1553,1002,0,0
336,22,0,0,0,0,0,0,0,0,0,-1,1560,1002,0,0
343,22,0,0,0,0,0,0,0,0,0,-1,1567,1002,0,0
350,22,0,0,0,0,0,0,0,0,0,-1,1574,1002,0,0
357,22,0,0,0,0,0,0,0,0,0,-1,1581,1002,0,0
364,22,0,0,0,0,0,0,0,0,0,-1,1588,1002,0,0
371,22,0,0,0,0,0,0,0,0,0,-1,1595,1002,0,0
378,22,0,0,0,0,0,0,0,0,0,-1,1602,1002,0,0
385,22,0,0,0,0,0,0,0,0,0,-1,1609,1002,0,0
392,22,0,0,0,0,0,0,0,0,0,-1,1616,1002,0,0
399,22,0,0,0,0,0,0,0,0,0,-1,1623,1002,0,0
406,22,0,0,0,0,0,0,0,0,0,-1,1630,1002,0,0
413,22,0,0,0,0,0,0,0,0,0,-1,1637,1002,0,0
420,22,0,0,0,0,0,0,0,0,0,-1,1644,1002,0,0
427,22,0,0,0,0,0,0,0,0,0,-1,1651,1002,0,0
434,22,0,0,0,0,0,0,0,0,0,-1,1658,1002,0,0
441,22,0,0,0,0,0,0,0,0,0,-1,1665,1002,0,0
448,22,0,0,0,0,0,0,0,0,0,-1,1672,1002,0,0
455,22,0,0,0,0,0,0,0,0,0,-1,1679,1002,0,0
462,22,0,0,0,0,0,0,0,0,0,-1,1686,1002,0,0
469,22,0,0,0,0,0,0,0,0,0,-1,1693,1002,0,0
476,22,0,0,0,0,0,0,0,0,0,-1,1700,1002,0,0
483,22,0,0,0,0,0,0,0,0,0,-1,1707,1002,0,0
490,22,0,0,0,0,0,0,0,0,0,-1,1714,1002,0,0
497,22,0,0,0,0,0,0,0,0,0,-1,1721,1002,0,0
504,22,0,0,0,0,0,0,0,0,0,-1,1728,1002,0,0
511,22,0,0,0,0,0,0,0,0,0,-1,1735,1002,0,0
518,22,0,0,0,0,0,0,0,0,0,-1,1742,1002,0,0
525,22,0,0,0,0,0,0,0,0,0,-1,1749,1002,0,0
532,22,0,0,0,0,0,0,0,0,0,-1,1756,1002,0,0
539,22,0,0,0,0,0,0,0,0,0,-1,1763,1002,0,0
546,22,0,0,0,0,0,0,0,0,0,-1,1770,1002,0,0
553,22,0,0,0,0,0,0,0,0,0,-1,1777,1002,0,0
560,22,0,0,0,0,0,0,0,0,0,-1,1784,1002,0,0
567,22,0,0,0,0,0,0,0,0,0,-1,1791,1002,0,0
574,22,0,0,0,0,0,0,0,0,0,-1,1798,1002,0,0
581,22,0,0,0,0,0,0,0,0,0,-1,1805,1002,0,0
588,22,0,0,0,0,0,0,0,0,0,-1,1812,1002,0,0
595,22,0,0,0,0,0,0,0,0,0,-1,1819,1002,0,0
602,22,0,0,0,0,0,0,0,0,0,-1,1826,1002,0,0
609,22,0,0,0,0,0,0,0,0,0,-1,1833,1002,0,0
616,22,0,0,0,0,0,0,0,0,0,-1,1840,1002,0,0
623,22,0,0,0,0,0,0,0,0,0,-1,1847,1002,0,0
630,22,0,0,0,0,0,0,0,0,0,-1,1854,1002,0,0
637,22,0,0,0,0,0,0,0,0,0,-1,1861,1002,0,0
644,22,17.7024,2.18958,0.000354627,0.000686708,0.000667441,0.00120845,-0.000167117,0.907309,0.000866727,0.0406169,1868,1002,17.7024,-2.1896
651,22,17.7838,2.16278,0.000226106,0.000376804,0.000491854,0.000799047,-0.000196137,0.861404,0.000608703,0.0424877,1875,1002,17.7839,-2.16277
658,22,17.6793,2.4187,0.000226956,0.000100613,0.000411898,0.000580498,-0.00025293,0.709308,0.000493413,0.0406745,1882,1002,17.6793,-2.41873
665,22,17.6119,2.67169,0.000267261,-9.73035e-06,0.000449787,0.000599392,-0.000341861,0.636047,0.000550171,0.0389337,1889,1002,17.612,-2.67168
672,22,17.5348,2.63647,0.000207579,7.96962e-05,0.000723287,0.000869745,-0.00058247,0.741311,0.000843887,0.0393389,1896,1002,17.5348,-2.63645
679,22,17.5868,2.65009,-0.000354018,0.00024684,0.0012042,0.00118752,-0.0012947,0.907645,0.00143355,0.0381758,1903,1002,17.5868,-2.65007
686,22,17.6462,2.63623,-0.00101682,0.000410824,0.00169017,0.00153173,-0.00213772,0.985205,0.00212817,0.0382114,1910,1002,17.6463,-2.63622
693,22,17.7026,2.60803,-0.00166295,0.000563879,0.00209655,0.00182433,-0.00292339,1.02949,0.00276547,0.037297,1917,1002,17.7026,-2.60803
700,22,17.7148,2.57953,-0.00232852,0.00065569,0.0024016,0.00199096,-0.00366379,1.06336,0.00331205,0.032738,1924,1002,17.7148,-2.57953
707,22,17.6163,2.59534,-0.00285089,0.00078399,0.00258267,0.0021246,-0.0041915,1.092,0.00371112,0.0313788,1931,1002,17.6164,-2.59536
714,22,17.6603,2.65662,-0.00327034,0.000932271,0.00264136,0.00220621,-0.00454427,1.12141,0.00397455,0.0284886,1938,1002,17.6602,-2.65659
721,22,17.6836,2.93915,-0.0037132,0.00117508,0.00265211,0.00233754,-0.00487566,1.1577,0.00424961,0.032803,1945,1002,17.6836,-2.93914
728,22,17.1929,3.45996,0,0,0,0,0,0,0,-1,1952,1002,17.1929,-3.45994
735,22,17.2346,3.48297,-0.00452253,0.00125502,0.00150964,0.0016257,-0.00489321,1.33002,0.00391812,0.0152914,1959,1002,17.2346,-3.48298
742,22,17.24,3.52148,-0.00478638,0.00124809,0.000291622,0.00126215,-0.00480044,1.52262,0.0036936,0.0156563,1966,1002,17.24,-3.52149
749,22,17.2018,3.55353,-0.00545122,0.00131659,-0.00088694,0.00143089,-0.00556553,-1.44263,0.00426803,0.0116928,1973,1002,17.2018,-3.55351
756,22,17.1859,3.56732,-0.0057326,0.000800575,-0.0021718,0.00145665,-0.00638868,-1.27742,0.00481863,0.0155112,1980,1002,17.186,-3.56732
763,22,17.1412,3.64203,-0.00597915,-0.000249669,-0.00377085,0.00162121,-0.00785003,-1.11024,0.00584913,0.0168468,1987,1002,17.1412,-3.642
770,22,17.1584,3.65363,-0.00647178,-0.00132268,-0.00562981,0.00229334,-0.0100878,-0.999855,0.00760578,0.0110543,1994,1002,17.1584,-3.6536
777,22,17.1207,3.65436,0,0,0,0,0,0,0,-1,2001,1002,17.1207,-3.65438
784,22,16.8928,3.22827,-0.00759371,-0.00488362,-0.00921004,0.00307052,-0.0155479,-0.858438,0.0115259,0.03965,2008,1002,16.8928,-3.22827
791,22,17.0276,2.73395,-0.00832829,-0.00772215,-0.0106727,0.00265178,-0.0187022,-0.799593,0.0134396,0.0455322,2015,1002,17.0276,-2.73398
798,22,17.5272,3.1806,0,0,0,0,0,0,0,-1,2022,1002,17.5272,-3.18059
805,22,17.5078,3.4671,-0.00816868,-0.0168464,-0.0126899,0.000903625,-0.0259187,-0.620671,0.0175881,0.0457875,2029,1002,17.5079,-3.46712
812,22,17.55,3.58154,-0.00653794,-0.0237407,-0.012745,0.000236589,-0.0305153,-0.488563,0.0204228,0.0445753,2036,1002,17.5501,-3.58157
-700,15,0,0,0,0,0,0,0,0,0,-1,524,1009,0,0
-693,15,-7.93646,4.26202,0.0251571,-0.000566191,-0.0482069,0.0621886,-0.0375977,-0.655034,0.0581919,0.0496447,531,1009,-7.93646,-4.26202
-686,15,-8.28827,3.48193,0.0104292,0.00570179,-0.0335387,0.0416873,-0.0255564,-0.750218,0.0391938,0.046131,538,1009,-8.28828,-3.48192
-679,15,-8.88458,2.85663,0.000950616,0.00866736,-0.0229226,0.0280541,-0.0184361,-0.868777,0.0270319,0.0495007,545,1009,-8.88458,-2.85663
-672,15,-9.6781,2.22809,-0.00503527,0.00972789,-0.0150418,0.0191017,-0.0144091,-1.0135,0.0194106,0.0435134,552,1009,-9.67809,-2.22811
-665,15,-10.8297,1.77313,-0.00856532,0.00961699,-0.00917047,0.0134389,-0.0123872,-1.17593,0.0149148,0.0425375,559,1009,-10.8297,-1.77316
-658,15,-11.2731,1.30017,-0.0102667,0.00878006,-0.00487671,0.00995607,-0.0114427,-1.33416,0.0123645,0.0432364,566,1009,-11.2732,-1.30017
-651,15,-11.2994,1.26575,-0.010562,0.00751678,-0.00192194,0.00771884,-0.0107641,-1.46605,0.0107193,0.0360452,573,1009,-11.2994,-1.26574
-644,15,-11.376,1.30286,-0.00982234,0.00623237,-0.000168312,0.00623414,-0.00982411,-1.56031,0.00934814,0.0183167,580,1009,-11.376,-1.30283
-637,15,-11.4047,1.32971,-0.00981015,0.00578107,0.00230275,0.00611406,-0.0101431,1.42718,0.0094817,0.0142679,587,1009,-11.4047,-1.32971
-630,15,-11.3959,1.29352,-0.0091505,0.0040884,0.0020511,0.00439889,-0.009461,1.42056,0.00817798,0.0110559,594,1009,-11.3959,-1.29349
-623,15,-11.3932,1.27106,-0.00703156,0.00259703,0.000736903,0.0026531,-0.00708763,1.49485,0.00581483,0.0091689,601,1009,-11.3933,-1.27107
-616,15,-11.4349,1.25623,-0.00414567,0.0012967,-0.000504388,0.00134305,-0.00419202,-1.47916,0.00333379,0.0137199,608,1009,-11.4349,-1.25625
-609,15,-11.4701,1.24609,-0.00239851,0.00081918,-0.00161357,0.00148893,-0.00306826,-1.17736,0.00268324,0.0202328,615,1009,-11.4701,-1.24611
-602,15,-11.4366,1.21381,-0.00144811,0.000941335,-0.00264011,0.00264446,-0.00315124,-0.997875,0.00335041,0.019973,622,1009,-11.4366,-1.2138
-595,15,-11.4222,0.987061,-0.000893676,0.00108485,-0.00330808,0.00354842,-0.00335725,-0.930688,0.0039875,0.0209789,629,1009,-11.4222,-0.987034
-588,15,-11.4081,0.752441,-0.000752519,0.00106878,-0.0035884,0.00386028,-0.00354402,-0.909663,0.00427617,0.0284522,636,1009,-11.4082,-0.752414
-581,15,-11.4435,0.57428,-0.000810933,0.00128148,-0.00362909,0.00401216,-0.00354161,-0.925735,0.00436399,0.0391471,643,1009,-11.4435,-0.574295
-574,15,-11.4353,0.623047,-0.000906475,0.00133902,-0.0034238,0.00381946,-0.00338691,-0.943836,0.0041631,0.0349341,650,1009,-11.4353,-0.623069
-567,15,-11.4517,0.716125,-0.00107708,0.00149138,-0.00297233,0.00344504,-0.00303074,-0.989316,0.00374135,0.0344044,657,1009,-11.4517,-0.716104
-560,15,-11.4294,0.75415,-0.00130345,0.00160089,-0.00242649,0.00297655,-0.00267912,-1.05504,0.0032668,0.0389059,664,1009,-11.4294,-0.75415
-553,15,-11.4177,0.952209,0,0,0,0,0,0,0,-1,671,1009,-11.4177,-0.952213
-546,15,-11.4265,0.957886,-0.0021089,0.00143727,-0.00160417,0.00205525,-0.00272688,-1.20308,0.00277002,0.0412567,678,1009,-11.4265,-0.957866
-539,15,-11.43,0.600037,-0.00268158,0.000979406,-0.00197048,0.00183843,-0.0035406,-1.15969,0.00315699,0.0402993,685,1009,-11.43,-0.600053
-532,15,-11.4144,0.255005,-0.00368385,0.000610382,-0.00371736,0.00275615,-0.00582962,-1.04729,0.00506176,0.0439347,692,1009,-11.4144,-0.25498
-525,15,0,0,0,0,0,0,0,0,0,-1,699,1009,0,0
-518,15,0,0,0,0,0,0,0,0,0,-1,706,1009,0,0
-511,15,0,0,0,0,0,0,0,0,0,-1,713,1009,0,0
-504,15,0,0,0,0,0,0,0,0,0,-1,720,1009,0,0
-497,15,0,0,0,0,0,0,0,0,0,-1,727,1009,0,0
-490,15,0,0,0,0,0,0,0,0,0,-1,734,1009,0,0
-483,15,0,0,0,0,0,0,0,0,0,-1,741,1009,0,0
-476,15,0,0,0,0,0,0,0,0,0,-1,748,1009,0,0
-469,15,0,0,0,0,0,0,0,0,0,-1,755,1009,0,0
-462,15,0,0,0,0,0,0,0,0,0,-1,762,1009,0,0
-455,15,0,0,0,0,0,0,0,0,0,-1,769,1009,0,0
-448,15,0,0,0,0,0,0,0,0,0,-1,776,1009,0,0
-441,15,0,0,0,0,0,0,0,0,0,-1,783,1009,0,0
-434,15,0,0,0,0,0,0,0,0,0,-1,790,1009,0,0
-427,15,0,0,0,0,0,0,0,0,0,-1,797,1009,0,0
-420,15,0,0,0,0,0,0,0,0,0,-1,804,1009,0,0
-413,15,0,0,0,0,0,0,0,0,0,-1,811,1009,0,0
-406,15,0,0,0,0,0,0,0,0,0,-1,818,1009,0,0
-399,15,0,0,0,0,0,0,0,0,0,-1,825,1009,0,0
-392,15,0,0,0,0,0,0,0,0,0,-1,832,1009,0,0
-385,15,0,0,0,0,0,0,0,0,0,-1,839,1009,0,0
-378,15,0,0,0,0,0,0,0,0,0,-1,846,1009,0,0
-371,15,0,0,0,0,0,0,0,0,0,-1,853,1009,0,0
-364,15,0,0,0,0,0,0,0,0,0,-1,860,1009,0,0
-357,15,0,0,0,0,0,0,0,0,0,-1,867,1009,0,0
-350,15,0,0,0,0,0,0,0,0,0,-1,874,1009,0,0
-343,15,0,0,0,0,0,0,0,0,0,-1,881,1009,0,0
-336,15,0,0,0,0,0,0,0,0,0,-1,888,1009,0,0
-329,15,0,0,0,0,0,0,0,0,0,-1,895,1009,0,0
-322,15,0,0,0,0,0,0,0,0,0,-1,902,1009,0,0
-315,15,0,0,0,0,0,0,0,0,0,-1,909,1009,0,0
-308,15,0,0,0,0,0,0,0,0,0,-1,916,1009,0,0
-301,15,0,0,0,0,0,0,0,0,0,-1,923,1009,0,0
-294,15,0,0,0,0,0,0,0,0,0,-1,930,1009,0,0
-287,15,0,0,0,0,0,0,0,0,0,-1,937,1009,0,0
-280,15,0,0,0,0,0,0,0,0,0,-1,944,1009,0,0
-273,15,0,0,0,0,0,0,0,0,0,-1,951,1009,0,0
-266,15,0,0,0,0,0,0,0,0,0,-1,958,1009,0,0
-259,15,0,0,0,0,0,0,0,0,0,-1,965,1009,0,0
-252,15,0,0,0,0,0,0,0,0,0,-1,972,1009,0,0
-245,15,0,0,0,0,0,0,0,0,0,-1,979,1009,0,0
-238,15,0,0,0,0,0,0,0,0,0,-1,986,1009,0,0
-231,15,0,0,0,0,0,0,0,0,0,-1,993,1009,0,0
-224,15,0,0,0,0,0,0,0,0,0,-1,1000,1009,0,0
-217,15,0,0,0,0,0,0,0,0,0,-1,1007,1009,0,0
-210,15,0,0,0,0,0,0,0,0,0,-1,1014,1009,0,0
-203,15,0,0,0,0,0,0,0,0,0,-1,1021,1009,0,0
-196,15,0,0,0,0,0,0,0,0,0,-1,1028,1009,0,0
-189,15,0,0,0,0,0,0,0,0,0,-1,1035,1009,0,0
-182,15,0,0,0,0,0,0,0,0,0,-1,1042,1009,0,0
-175,15,0,0,0,0,0,0,0,0,0,-1,1049,1009,0,0
-168,15,0,0,0,0,0,0,0,0,0,-1,1056,1009,0,0
-161,15,0,0,0,0,0,0,0,0,0,-1,1063,1009,0,0
-154,15,0,0,0,0,0,0,0,0,0,-1,1070,1009,0,0
-147,15,0,0,0,0,0,0,0,0,0,-1,1077,1009,0,0
-140,15,0,0,0,0,0,0,0,0,0,-1,1084,1009,0,0
-133,15,0,0,0,0,0,0,0,0,0,-1,1091,1009,0,0
-126,15,0,0,0,0,0,0,0,0,0,-1,1098,1009,0,0
-119,15,0,0,0,0,0,0,0,0,0,-1,1105,1009,0,0
-112,15,0,0,0,0,0,0,0,0,0,-1,1112,1009,0,0
-105,15,0,0,0,0,0,0,0,0,0,-1,1119,1009,0,0
-98,15,0,0,0,0,0,0,0,0,0,-1,1126,1009,0,0
-91,15,0,0,0,0,0,0,0,0,0,-1,1133,1009,0,0
-84,15,0,0,0,0,0,0,0,0,0,-1,1140,1009,0,0
-77,15,0,0,0,0,0,0,0,0,0,-1,1147,1009,0,0
-70,15,0,0,0,0,0,0,0,0,0,-1,1154,1009,0,0
-63,15,0,0,0,0,0,0,0,0,0,-1,1161,1009,0,0
-56,15,0,0,0,0,0,0,0,0,0,-1,1168,1009,0,0
-49,15,0,0,0,0,0,0,0,0,0,-1,1175,1009,0,0
-42,15,0,0,0,0,0,0,0,0,0,-1,1182,1009,0,0
-35,15,0,0,0,0,0,0,0,0,0,-1,1189,1009,0,0
-28,15,0,0,0,0,0,0,0,0,0,-1,1196,1009,0,0
-21,15,0,0,0,0,0,0,0,0,0,-1,1203,1009,0,0
-14,15,0,0,0,0,0,0,0,0,0,-1,1210,1009,0,0
-7,15,0,0,0,0,0,0,0,0,0,-1,1217,1009,0,0
0,15,0,0,0,0,0,0,0,0,0,-1,1224,1009,0,0
7,15,0,0,0,0,0,0,0,0,0,-1,1231,1009,0,0
14,15,0,0,0,0,0,0,0,0,0,-1,1238,1009,0,0
21,15,0,0,0,0,0,0,0,0,0,-1,1245,1009,0,0
28,15,0,0,0,0,0,0,0,0,0,-1,1252,1009,0,0
35,15,0,0,0,0,0,0,0,0,0,-1,1259,1009,0,0
42,15,0,0,0,0,0,0,0,0,0,-1,1266,1009,0,0
49,15,0,0,0,0,0,0,0,0,0,-1,1273,1009,0,0
56,15,0,0,0,0,0,0,0,0,0,-1,1280,1009,0,0
63,15,0,0,0,0,0,0,0,0,0,-1,1287,1009,0,0
70,15,0,0,0,0,0,0,0,0,0,-1,1294,1009,0,0
77,15,0,0,0,0,0,0,0,0,0,-1,1301,1009,0,0
84,15,0,0,0,0,0,0,0,0,0,-1,1308,1009,0,0
91,15,0,0,0,0,0,0,0,0,0,-1,1315,1009,0,0
98,15,0,0,0,0,0,0,0,0,0,-1,1322,1009,0,0
105,15,0,0,0,0,0,0,0,0,0,-1,1329,1009,0,0
112,15,0,0,0,0,0,0,0,0,0,-1,1336,1009,0,0
119,15,0,0,0,0,0,0,0,0,0,-1,1343,1009,0,0
126,15,0,0,0,0,0,0,0,0,0,-1,1350,1009,0,0
133,15,0,0,0,0,0,0,0,0,0,-1,1357,1009,0,0
140,15,0,0,0,0,0,0,0,0,0,-1,1364,1009,0,0
147,15,0,0,0,0,0,0,0,0,0,-1,1371,1009,0,0
154,15,0,0,0,0,0,0,0,0,0,-1,1378,1009,0,0
161,15,0,0,0,0,0,0,0,0,0,-1,1385,1009,0,0
168,15,0,0,0,0,0,0,0,0,0,-1,1392,1009,0,0
175,15,0,0,0,0,0,0,0,0,0,-1,1399,1009,0,0
182,15,0,0,0,0,0,0,0,0,0,-1,1406,1009,0,0
189,15,0,0,0,0,0,0,0,0,0,-1,1413,1009,0,0
196,15,0,0,0,0,0,0,0,0,0,-1,1420,1009,0,0
203,15,0,0,0,0,0,0,0,0,0,-1,1427,1009,0,0
210,15,0,0,0,0,0,0,0,0,0,-1,1434,1009,0,0
217,15,0,0,0,0,0,0,0,0,0,-1,1441,1009,0,0
224,15,0,0,0,0,0,0,0,0,0,-1,1448,1009,0,0
231,15,0,0,0,0,0,0,0,0,0,-1,1455,1009,0,0
238,15,0,0,0,0,0,0,0,0,0,-1,1462,1009,0,0
245,15,0,0,0,0,0,0,0,0,0,-1,1469,1009,0,0
252,15,0,0,0,0,0,0,0,0,0,-1,1476,1009,0,0
259,15,0,0,0,0,0,0,0,0,0,-1,1483,1009,0,0
266,15,0,0,0,0,0,0,0,0,0,-1,1490,1009,0,0
273,15,0,0,0,0,0,0,0,0,0,-1,1497,1009,0,0
280,15,0,0,0,0,0,0,0,0,0,-1,1504,1009,0,0
287,15,0,0,0,0,0,0,0,0,0,-1,1511,1009,0,0
294,15,0,0,0,0,0,0,0,0,0,-1,1518,1009,0,0
301,15,0,0,0,0,0,0,0,0,0,-1,1525,1009,0,0
308,15,0,0,0,0,0,0,0,0,0,-1,1532,1009,0,0
315,15,0,0,0,0,0,0,0,0,0,-1,1539,1009,0,0
322,15,0,0,0,0,0,0,0,0,0,-1,1546,1009,0,0
329,15,0,0,0,0,0,0,0,0,0,-1,1553,1009,0,0
336,15,0,0,0,0,0,0,0,0,0,-1,1560,1009,0,0
343,15,0,0,0,0,0,0,0,0,0,-1,1567,1009,0,0
350,15,0,0,0,0,0,0,0,0,0,-1,1574,1009,0,0
357,15,0,0,0,0,0,0,0,0,0,-1,1581,1009,0,0
364,15,0,0,0,0,0,0,0,0,0,-1,1588,1009,0,0
371,15,0,0,0,0,0,0,0,0,0,-1,1595,1009,0,0
378,15,0,0,0,0,0,0,0,0,0,-1,1602,1009,0,0
385,15,0,0,0,0,0,0,0,0,0,-1,1609,1009,0,0
392,15,0,0,0,0,0,0,0,0,0,-1,1616,1009,0,0
399,15,0,0,0,0,0,0,0,0,0,-1,1623,1009,0,0
406,15,0,0,0,0,0,0,0,0,0,-1,1630,1009,0,0
413,15,0,0,0,0,0,0,0,0,0,-1,1637,1009,0,0
420,15,0,0,0,0,0,0,0,0,0,-1,1644,1009,0,0
427,15,0,0,0,0,0,0,0,0,0,-1,1651,1009,0,0
434,15,0,0,0,0,0,0,0,0,0,-1,1658,1009,0,0
441,15,0,0,0,0,0,0,0,0,0,-1,1665,1009,0,0
448,15,0,0,0,0,0,0,0,0,0,-1,1672,1009,0,0
455,15,0,0,0,0,0,0,0,0,0,-1,1679,1009,0,0
462,15,0,0,0,0,0,0,0,0,0,-1,1686,1009,0,0
469,15,0,0,0,0,0,0,0,0,0,-1,1693,1009,0,0
476,15,0,0,0,0,0,0,0,0,0,-1,1700,1009,0,0
483,15,0,0,0,0,0,0,0,0,0,-1,1707,1009,0,0
490,15,0,0,0,0,0,0,0,0,0,-1,1714,1009,0,0
497,15,0,0,0,0,0,0,0,0,0,-1,1721,1009,0,0
504,15,0,0,0,0,0,0,0,0,0,-1,1728,1009,0,0
511,15,0,0,0,0,0,0,0,0,0,-1,1735,1009,0,0
518,15,0,0,0,0,0,0,0,0,0,-1,1742,1009,0,0
525,15,0,0,0,0,0,0,0,0,0,-1,1749,1009,0,0
532,15,0,0,0,0,0,0,0,0,0,-1,1756,1009,0,0
539,15,0,0,0,0,0,0,0,0,0,-1,1763,1009,0,0
546,15,0,0,0,0,0,0,0,0,0,-1,1770,1009,0,0
553,15,0,0,0,0,0,0,0,0,0,-1,1777,1009,0,0
560,15,0,0,0,0,0,0,0,0,0,-1,1784,1009,0,0
567,15,0,0,0,0,0,0,0,0,0,-1,1791,1009,0,0
574,15,0,0,0,0,0,0,0,0,0,-1,1798,1009,0,0
581,15,0,0,0,0,0,0,0,0,0,-1,1805,1009,0,0
588,15,0,0,0,0,0,0,0,0,0,-1,1812,1009,0,0
595,15,0,0,0,0,0,0,0,0,0,-1,1819,1009,0,0
602,15,0,0,0,0,0,0,0,0,0,-1,1826,1009,0,0
609,15,0,0,0,0,0,0,0,0,0,-1,1833,1009,0,0
616,15,0,0,0,0,0,0,0,0,0,-1,1840,1009,0,0
623,15,0,0,0,0,0,0,0,0,0,-1,1847,1009,0,0
630,15,0,0,0,0,0,0,0,0,0,-1,1854,1009,0,0
637,15,0,0,0,0,0,0,0,0,0,-1,1861,1009,0,0
644,15,17.5293,2.40607,-0.000492157,-0.000130064,0.000542914,0.000261196,-0.000883416,0.946336,0.000692625,0.0417484,1868,1009,17.5293,-2.40606
651,15,17.6783,2.20496,-0.000408197,-0.000259316,0.000361858,3.56788e-05,-0.000703192,0.886842,0.000481129,0.0395565,1875,1009,17.6784,-2.20494
658,15,17.6512,2.15314,-0.000230558,-0.000367316,0.000264698,-2.55491e-05,-0.000572325,0.658997,0.000373325,0.0382934,1882,1009,17.6512,-2.15314
665,15,17.6041,2.23254,0,0,0,0,0,0,0,-1,1889,1009,17.6041,-2.23253
672,15,17.5507,2.46509,2.00008e-05,-0.000189757,0.000509638,0.000435439,-0.000605195,0.683919,0.000603469,0.0401102,1896,1009,17.5506,-2.46507
679,15,17.5836,2.49292,-0.000420926,4.75732e-05,0.00101537,0.000855363,-0.00122872,0.898767,0.00120966,0.0382455,1903,1009,17.5836,-2.49291
686,15,17.6379,2.45178,-0.00102796,0.000263661,0.00155401,0.00130071,-0.00206501,0.982329,0.00195983,0.0416036,1910,1009,17.6379,-2.45178
693,15,17.6796,2.52368,-0.00163297,0.000451211,0.00202194,0.00168381,-0.00286557,1.02334,0.00265596,0.0404761,1917,1009,17.6796,-2.52366
700,15,17.7307,2.55658,-0.00227759,0.000578262,0.0023853,0.00193038,-0.0036297,1.05511,0.00325971,0.0315464,1924,1009,17.7307,-2.55655
707,15,17.651,2.60962,-0.00276651,0.000703537,0.00262636,0.00211622,-0.00417919,1.0773,0.00369914,0.0281572,1931,1009,17.651,-2.60961
714,15,17.6785,2.565,-0.00317749,0.000854297,0.00273762,0.00223817,-0.00456136,1.10276,0.00400136,0.030584,1938,1009,17.6785,-2.56503
721,15,17.8649,2.43091,0,0,0,0,0,0,0,-1,1945,1009,17.8648,-2.43092
728,15,17.2559,3.43494,0,0,0,0,0,0,0,-1,1952,1009,17.2559,-3.43493
735,15,17.2573,3.48474,-0.00424933,0.00111857,0.0017832,0.00165694,-0.00478771,1.27758,0.0038644,0.0157917,1959,1009,17.2573,-3.48473
742,15,17.2622,3.53351,-0.00433756,0.00101316,0.00068104,0.00109848,-0.00442289,1.44616,0.00337488,0.0170412,1966,1009,17.2622,-3.53349
749,15,17.2401,3.55634,-0.00484875,0.00098685,-0.00035962,0.00100893,-0.00487083,-1.50948,0.00363056,0.0103876,1973,1009,17.2401,-3.55633
756,15,17.2338,3.57257,-0.00508581,0.000506708,-0.00146522,0.000867337,-0.00544644,-1.32947,0.00395193,0.0116299,1980,1009,17.2338,-3.57258
763,15,17.2107,3.60913,-0.00533714,-0.000373535,-0.00280379,0.000889071,-0.00659975,-1.14768,0.00472416,0.0118606,1987,1009,17.2107,-3.60914
770,15,17.2006,3.61865,-0.00581692,-0.00131709,-0.00437018,0.00134833,-0.00848235,-1.02312,0.00615378,0.0110886,1994,1009,17.2006,-3.61863
777,15,17.1643,3.65851,-0.0063421,-0.0026653,-0.00590233,0.00167831,-0.0106857,-0.936372,0.00774411,0.019749,2001,1009,17.1644,-3.65853
784,15,16.995,3.27179,-0.0072447,-0.00432637,-0.00711149,0.00147411,-0.0130452,-0.886586,0.00922749,0.0410395,2008,1009,16.995,-3.27178
791,15,17.396,2.96814,-0.00847604,-0.00658633,-0.00798376,0.000508293,-0.0155707,-0.844298,0.010554,0.0485389,2015,1009,17.3961,-2.96816
798,15,17.4476,3.19379,-0.00964461,-0.00957512,-0.00848524,-0.00112455,-0.0180952,-0.787446,0.0117066,0.0482505,2022,1009,17.4476,-3.19379
805,15,17.4482,3.47015,-0.0105894,-0.0133946,-0.00842574,-0.00345031,-0.0205337,-0.702922,0.0126963,0.0468623,2029,1009,17.4482,-3.47016
812,15,17.4067,3.72699,-0.0111219,-0.0181451,-0.00747723,-0.00637273,-0.0228943,-0.565864,0.0136441,0.0445036,2036,1009,17.4067,-3.72696
-700,8,0,0,0,0,0,0,0,0,0,-1,524,1016,0,0
-693,8,-8.2644,4.53326,0,0,0,0,0,0,0,-1,531,1016,-8.26441,-4.53325
-686,8,-8.58496,3.83771,0.00237872,0.00731628,-0.0384178,0.0433445,-0.0336495,-0.817485,0.0445699,0.0456759,538,1016,-8.58496,-3.83769
-679,8,-9.07452,3.14789,-0.0043386,0.00948825,-0.0270046,0.0304503,-0.0253007,-0.910711,0.0322336,0.04861,545,1016,-9.07455,-3.14787
-672,8,-10.673,1.68652,-0.00829531,0.00993656,-0.0183853,0.0213419,-0.0197006,-1.01555,0.0237022,0.0463328,552,1016,-10.673,-1.68651
-665,8,-10.8809,1.34546,-0.0103278,0.00937518,-0.0118597,0.0149413,-0.015894,-1.13198,0.0178056,0.0451192,559,1016,-10.8809,-1.34545
-658,8,-11.3087,1.13446,-0.0109497,0.00823389,-0.00700261,0.0105181,-0.0132339,-1.25549,0.0137431,0.0347369,566,1016,-11.3087,-1.13447
-651,8,-11.3204,1.20782,-0.0105132,0.00679883,-0.00357109,0.00750654,-0.0112209,-1.37515,0.010883,0.0202725,573,1016,-11.3204,-1.20783
-644,8,-11.3452,1.24243,-0.00933832,0.00557091,-0.00138097,0.00569774,-0.00946515,-1.47921,0.00884392,0.0178792,580,1016,-11.3452,-1.24244
-637,8,-11.3797,1.27991,-0.0088671,0.00497339,0.0013748,0.00510863,-0.00900234,1.47274,0.00824971,0.0152997,587,1016,-11.3797,-1.27993
-630,8,-11.4133,1.26904,-0.00791415,0.00312954,0.00140634,0.00330582,-0.00809043,1.4461,0.00677016,0.0124837,594,1016,-11.4133,-1.26906
-623,8,-11.4029,1.25818,-0.00583099,0.00178357,0.000301378,0.00179548,-0.0058429,1.5313,0.00461177,0.0122007,601,1016,-11.4029,-1.25819
-616,8,-11.4235,1.24811,-0.003288,0.000693224,-0.000906535,0.000889926,-0.0034847,-1.35713,0.00266969,0.0116491,608,1016,-11.4235,-1.24812
-609,8,-11.42,1.23798,-0.00175847,0.000512397,-0.00196812,0.00164912,-0.00289519,-1.04703,0.00265634,0.0149876,615,1016,-11.42,-1.23799
-602,8,-11.4072,1.22266,-0.000954988,0.000795531,-0.00295083,0.00299817,-0.00315763,-0.929572,0.00355445,0.0213462,622,1016,-11.4072,-1.22263
-595,8,-11.3578,0.990784,-0.000545931,0.00102141,-0.00354324,0.0038666,-0.00339113,-0.894233,0.00419325,0.0237615,629,1016,-11.3578,-0.990809
-588,8,-11.387,0.630127,0,0,0,0,0,0,0,-1,636,1016,-11.387,-0.630101
-581,8,-11.3903,0.618591,-0.000557787,0.00131225,-0.00372766,0.00422037,-0.00346591,-0.908279,0.0044448,0.03064,643,1016,-11.3903,-0.61861
-574,8,-11.4006,0.60553,-0.000686071,0.00144728,-0.00342243,0.00396541,-0.0032042,-0.936463,0.00414715,0.0352237,650,1016,-11.4006,-0.605522
-567,8,-11.4373,0.589905,-0.000924706,0.00168984,-0.00285836,0.00352568,-0.00276055,-0.999873,0.00363831,0.038566,657,1016,-11.4373,-0.589915
-560,8,-11.4551,0.727417,-0.00126674,0.00192372,-0.00218039,0.00303013,-0.00237314,-1.10122,0.00312726,0.0392827,664,1016,-11.4551,-0.72744
-553,8,-11.3972,0.764954,-0.00178263,0.00209749,-0.00151684,0.00262008,-0.00230522,-1.23901,0.00284556,0.0408387,671,1016,-11.3971,-0.764934
-546,8,-11.3634,0.775696,-0.00249069,0.00215058,-0.0010614,0.00238179,-0.0027219,-1.35631,0.0029488,0.041471,678,1016,-11.3634,-0.775724
-539,8,-11.3893,0.6922,-0.00339434,0.00198538,-0.00131383,0.0022891,-0.00369806,-1.34362,0.00348845,0.0424527,685,1016,-11.3893,-0.692207
-532,8,-11.559,0.776733,-0.00476969,0.00201177,-0.00307699,0.00319979,-0.00595771,-1.20233,0.00536641,0.0433205,692,1016,-11.559,-0.776764
-525,8,0,0,0,0,0,0,0,0,0,-1,699,1016,0,0
-518,8,0,0,0,0,0,0,0,0,0,-1,706,1016,0,0
-511,8,0,0,0,0,0,0,0,0,0,-1,713,1016,0,0
-504,8,0,0,0,0,0,0,0,0,0,-1,720,1016,0,0
-497,8,0,0,0,0,0,0,0,0,0,-1,727,1016,0,0
-490,8,0,0,0,0,0,0,0,0,0,-1,734,1016,0,0
-483,8,0,0,0,0,0,0,0,0,0,-1,741,1016,0,0
-476,8,0,0,0,0,0,0,0,0,0,-1,748,1016,0,0
-469,8,0,0,0,0,0,0,0,0,0,-1,755,1016,0,0
-462,8,0,0,0,0,0,0,0,0,0,-1,762,1016,0,0
-455,8,0,0,0,0,0,0,0,0,0,-1,769,1016,0,0
-448,8,0,0,0,0,0,0,0,0,0,-1,776,1016,0,0
-441,8,0,0,0,0,0,0,0,0,0,-1,783,1016,0,0
-434,8,0,0,0,0,0,0,0,0,0,-1,790,1016,0,0
-427,8,0,0,0,0,0,0,0,0,0,-1,797,1016,0,0
-420,8,0,0,0,0,0,0,0,0,0,-1,804,1016,0,0
-413,8,0,0,0,0,0,0,0,0,0,-1,811,1016,0,0
-406,8,0,0,0,0,0,0,0,0,0,-1,818,1016,0,0
-399,8,0,0,0,0,0,0,0,0,0,-1,825,1016,0,0
-392,8,0,0,0,0,0,0,0,0,0,-1,832,1016,0,0
-385,8,0,0,0,0,0,0,0,0,0,-1,839,1016,0,0
-378,8,0,0,0,0,0,0,0,0,0,-1,846,1016,0,0
-371,8,0,0,0,0,0,0,0,0,0,-1,853,1016,0,0
-364,8,0,0,0,0,0,0,0,0,0,-1,860,1016,0,0
-357,8,0,0,0,0,0,0,0,0,0,-1,867,1016,0,0
-350,8,0,0,0,0,0,0,0,0,0,-1,874,1016,0,0
-343,8,0,0,0,0,0,0,0,0,0,-1,881,1016,0,0
-336,8,0,0,0,0,0,0,0,0,0,-1,888,1016,0,0
-329,8,0,0,0,0,0,0,0,0,0,-1,895,1016,0,0
-322,8,0,0,0,0,0,0,0,0,0,-1,902,1016,0,0
-315,8,0,0,0,0,0,0,0,0,0,-1,909,1016,0,0
-308,8,0,0,0,0,0,0,0,0,0,-1,916,1016,0,0
-301,8,0,0,0,0,0,0,0,0,0,-1,923,1016,0,0
-294,8,0,0,0,0,0,0,0,0,0,-1,930,1016,0,0
-287,8,0,0,0,0,0,0,0,0,0,-1,937,1016,0,0
-280,8,0,0,0,0,0,0,0,0,0,-1,944,1016,0,0
-273,8,0,0,0,0,0,0,0,0,0,-1,951,1016,0,0
-266,8,0,0,0,0,0,0,0,0,0,-1,958,1016,0,0
-259,8,0,0,0,0,0,0,0,0,0,-1,965,1016,0,0
-252,8,0,0,0,0,0,0,0,0,0,-1,972,1016,0,0
-245,8,0,0,0,0,0,0,0,0,0,-1,979,1016,0,0
-238,8,0,0,0,0,0,0,0,0,0,-1,986,1016,0,0
-231,8,0,0,0,0,0,0,0,0,0,-1,993,1016,0,0
-224,8,0,0,0,0,0,0,0,0,0,-1,1000,1016,0,0
-217,8,0,0,0,0,0,0,0,0,0,-1,1007,1016,0,0
-210,8,0,0,0,0,0,0,0,0,0,-1,1014,1016,0,0
-203,8,0,0,0,0,0,0,0,0,0,-1,1021,1016,0,0
-196,8,0,0,0,0,0,0,0,0,0,-1,1028,1016,0,0
-189,8,0,0,0,0,0,0,0,0,0,-1,1035,1016,0,0
-182,8,0,0,0,0,0,0,0,0,0,-1,1042,1016,0,0
-175,8,0,0,0,0,0,0,0,0,0,-1,1049,1016,0,0
-168,8,0,0,0,0,0,0,0,0,0,-1,1056,1016,0,0
-161,8,0,0,0,0,0,0,0,0,0,-1,1063,1016,0,0
-154,8,0,0,0,0,0,0,0,0,0,-1,1070,1016,0,0
-147,8,0,0,0,0,0,0,0,0,0,-1,1077,1016,0,0
-140,8,0,0,0,0,0,0,0,0,0,-1,1084,1016,0,0
-133,8,0,0,0,0,0,0,0,0,0,-1,1091,1016,0,0
-126,8,0,0,0,0,0,0,0,0,0,-1,1098,1016,0,0
-119,8,0,0,0,0,0,0,0,0,0,-1,1105,1016,0,0
-112,8,0,0,0,0,0,0,0,0,0,-1,1112,1016,0,0
-105,8,0,0,0,0,0,0,0,0,0,-1,1119,1016,0,0
-98,8,0,0,0,0,0,0,0,0,0,-1,1126,1016,0,0
-91,8,0,0,0,0,0,0,0,0,0,-1,1133,1016,0,0
-84,8,0,0,0,0,0,0,0,0,0,-1,1140,1016,0,0
-77,8,0,0,0,0,0,0,0,0,0,-1,1147,1016,0,0
-70,8,0,0,0,0,0,0,0,0,0,-1,1154,1016,0,0
-63,8,0,0,0,0,0,0,0,0,0,-1,1161,1016,0,0
-56,8,0,0,0,0,0,0,0,0,0,-1,1168,1016,0,0
-49,8,0,0,0,0,0,0,0,0,0,-1,1175,1016,0,0
-42,8,0,0,0,0,0,0,0,0,0,-1,1182,1016,0,0
-35,8,0,0,0,0,0,0,0,0,0,-1,1189,1016,0,0
-28,8,0,0,0,0,0,0,0,0,0,-1,1196,1016,0,0
-21,8,0,0,0,0,0,0,0,0,0,-1,1203,1016,0,0
-14,8,0,0,0,0,0,0,0,0,0,-1,1210,1016,0,0
-7,8,0,0,0,0,0,0,0,0,0,-1,1217,1016,0,0
0,8,0,0,0,0,0,0,0,0,0,-1,1224,1016,0,0
7,8,0,0,0,0,0,0,0,0,0,-1,1231,1016,0,0
14,8,0,0,0,0,0,0,0,0,0,-1,1238,1016,0,0
21,8,0,0,0,0,0,0,0,0,0,-1,1245,1016,0,0
28,8,0,0,0,0,0,0,0,0,0,-1,1252,1016,0,0
35,8,0,0,0,0,0,0,0,0,0,-1,1259,1016,0,0
42,8,0,0,0,0,0,0,0,0,0,-1,1266,1016,0,0
49,8,0,0,0,0,0,0,0,0,0,-1,1273,1016,0,0
56,8,0,0,0,0,0,0,0,0,0,-1,1280,1016,0,0
63,8,0,0,0,0,0,0,0,0,0,-1,1287,1016,0,0
70,8,0,0,0,0,0,0,0,0,0,-1,1294,1016,0,0
77,8,0,0,0,0,0,0,0,0,0,-1,1301,1016,0,0
84,8,0,0,0,0,0,0,0,0,0,-1,1308,1016,0,0
91,8,0,0,0,0,0,0,0,0,0,-1,1315,1016,0,0
98,8,0,0,0,0,0,0,0,0,0,-1,1322,1016,0,0
105,8,0,0,0,0,0,0,0,0,0,-1,1329,1016,0,0
112,8,0,0,0,0,0,0,0,0,0,-1,1336,1016,0,0
119,8,0,0,0,0,0,0,0,0,0,-1,1343,1016,0,0
126,8,0,0,0,0,0,0,0,0,0,-1,1350,1016,0,0
133,8,0,0,0,0,0,0,0,0,0,-1,1357,1016,0,0
140,8,0,0,0,0,0,0,0,0,0,-1,1364,1016,0,0
147,8,0,0,0,0,0,0,0,0,0,-1,1371,1016,0,0
154,8,0,0,0,0,0,0,0,0,0,-1,1378,1016,0,0
161,8,0,0,0,0,0,0,0,0,0,-1,1385,1016,0,0
168,8,0,0,0,0,0,0,0,0,0,-1,1392,1016,0,0
175,8,0,0,0,0,0,0,0,0,0,-1,1399,1016,0,0
182,8,0,0,0,0,0,0,0,0,0,-1,1406,1016,0,0
189,8,0,0,0,0,0,0,0,0,0,-1,1413,1016,0,0
196,8,0,0,0,0,0,0,0,0,0,-1,1420,1016,0,0
203,8,0,0,0,0,0,0,0,0,0,-1,1427,1016,0,0
210,8,0,0,0,0,0,0,0,0,0,-1,1434,1016,0,0
217,8,0,0,0,0,0,0,0,0,0,-1,1441,1016,0,0
224,8,0,0,0,0,0,0,0,0,0,-1,1448,1016,0,0
231,8,0,0,0,0,0,0,0,0,0,-1,1455,1016,0,0
238,8,0,0,0,0,0,0,0,0,0,-1,1462,1016,0,0
245,8,0,0,0,0,0,0,0,0,0,-1,1469,1016,0,0
252,8,0,0,0,0,0,0,0,0,0,-1,1476,1016,0,0
259,8,0,0,0,0,0,0,0,0,0,-1,1483,1016,0,0
266,8,0,0,0,0,0,0,0,0,0,-1,1490,1016,0,0
273,8,0,0,0,0,0,0,0,0,0,-1,1497,1016,0,0
280,8,0,0,0,0,0,0,0,0,0,-1,1504,1016,0,0
287,8,0,0,0,0,0,0,0,0,0,-1,1511,1016,0,0
294,8,0,0,0,0,0,0,0,0,0,-1,1518,1016,0,0
301,8,0,0,0,0,0,0,0,0,0,-1,1525,1016,0,0
308,8,0,0,0,0,0,0,0,0,0,-1,1532,1016,0,0
315,8,0,0,0,0,0,0,0,0,0,-1,1539,1016,0,0
322,8,0,0,0,0,0,0,0,0,0,-1,1546,1016,0,0
329,8,0,0,0,0,0,0,0,0,0,-1,1553,1016,0,0
336,8,0,0,0,0,0,0,0,0,0,-1,1560,1016,0,0
343,8,0,0,0,0,0,0,0,0,0,-1,1567,1016,0,0
350,8,0,0,0,0,0,0,0,0,0,-1,1574,1016,0,0
357,8,0,0,0,0,0,0,0,0,0,-1,1581,1016,0,0
364,8,0,0,0,0,0,0,0,0,0,-1,1588,1016,0,0
371,8,0,0,0,0,0,0,0,0,0,-1,1595,1016,0,0
378,8,0,0,0,0,0,0,0,0,0,-1,1602,1016,0,0
385,8,0,0,0,0,0,0,0,0,0,-1,1609,1016,0,0
392,8,0,0,0,0,0,0,0,0,0,-1,1616,1016,0,0
399,8,0,0,0,0,0,0,0,0,0,-1,1623,1016,0,0
406,8,0,0,0,0,0,0,0,0,0,-1,1630,1016,0,0
413,8,0,0,0,0,0,0,0,0,0,-1,1637,1016,0,0
420,8,0,0,0,0,0,0,0,0,0,-1,1644,1016,0,0
427,8,0,0,0,0,0,0,0,0,0,-1,1651,1016,0,0
434,8,0,0,0,0,0,0,0,0,0,-1,1658,1016,0,0
441,8,0,0,0,0,0,0,0,0,0,-1,1665,1016,0,0
448,8,0,0,0,0,0,0,0,0,0,-1,1672,1016,0,0
455,8,0,0,0,0,0,0,0,0,0,-1,1679,1016,0,0
462,8,0,0,0,0,0,0,0,0,0,-1,1686,1016,0,0
469,8,0,0,0,0,0,0,0,0,0,-1,1693,1016,0,0
476,8,0,0,0,0,0,0,0,0,0,-1,1700,1016,0,0
483,8,0,0,0,0,0,0,0,0,0,-1,1707,1016,0,0
490,8,0,0,0,0,0,0,0,0,0,-1,1714,1016,0,0
497,8,0,0,0,0,0,0,0,0,0,-1,1721,1016,0,0
504,8,0,0,0,0,0,0,0,0,0,-1,1728,1016,0,0
511,8,0,0,0,0,0,0,0,0,0,-1,1735,1016,0,0
518,8,0,0,0,0,0,0,0,0,0,-1,1742,1016,0,0
525,8,0,0,0,0,0,0,0,0,0,-1,1749,1016,0,0
532,8,0,0,0,0,0,0,0,0,0,-1,1756,1016,0,0
539,8,0,0,0,0,0,0,0,0,0,-1,1763,1016,0,0
546,8,0,0,0,0,0,0,0,0,0,-1,1770,1016,0,0
553,8,0,0,0,0,0,0,0,0,0,-1,1777,1016,0,0
560,8,0,0,0,0,0,0,0,0,0,-1,1784,1016,0,0
567,8,0,0,0,0,0,0,0,0,0,-1,1791,1016,0,0
574,8,0,0,0,0,0,0,0,0,0,-1,1798,1016,0,0
581,8,0,0,0,0,0,0,0,0,0,-1,1805,1016,0,0
588,8,0,0,0,0,0,0,0,0,0,-1,1812,1016,0,0
595,8,0,0,0,0,0,0,0,0,0,-1,1819,1016,0,0
602,8,0,0,0,0,0,0,0,0,0,-1,1826,1016,0,0
609,8,0,0,0,0,0,0,0,0,0,-1,1833,1016,0,0
616,8,0,0,0,0,0,0,0,0,0,-1,1840,1016,0,0
623,8,0,0,0,0,0,0,0,0,0,-1,1847,1016,0,0
630,8,0,0,0,0,0,0,0,0,0,-1,1854,1016,0,0
637,8,0,0,0,0,0,0,0,0,0,-1,1861,1016,0,0
644,8,17.4055,2.6264,0,0,0,0,0,0,0,-1,1868,1016,17.4055,-2.62641
651,8,17.6075,2.24683,0,0,0,0,0,0,0,-1,1875,1016,17.6076,-2.24682
658,8,17.5717,2.31384,-0.000838986,-0.000859651,0.000474493,-0.000374714,-0.00132392,0.774512,0.000787991,0.0400693,1882,1016,17.5716,-2.31387
665,8,17.5912,2.37933,-0.000515116,-0.000673879,0.000368779,-0.000217271,-0.000971723,0.679388,0.000588907,0.0413799,1889,1016,17.5912,-2.37932
672,8,17.6326,2.38892,-0.000263068,-0.000369758,0.00054499,0.000231181,-0.000864008,0.736612,0.000666566,0.0406027,1896,1016,17.6326,-2.38891
679,8,17.606,2.31256,-0.000567131,-4.02712e-05,0.00102626,0.000755827,-0.00136323,0.911031,0.00124008,0.0380804,1903,1016,17.6059,-2.31259
686,8,17.5383,2.4447,-0.00110971,0.000231743,0.00157718,0.00127489,-0.00215285,0.986448,0.00200053,0.0391133,1910,1016,17.5383,-2.44471
693,8,17.6553,2.47168,-0.00166714,0.000442911,0.00207425,0.00171503,-0.00293926,1.02066,0.00271796,0.038272,1917,1016,17.6553,-2.47167
700,8,17.7576,2.51056,-0.00227964,0.000591488,0.00246836,0.00201138,-0.00369954,1.04878,0.00334488,0.031565,1924,1016,17.7576,-2.51056
707,8,17.688,2.56152,-0.00272641,0.000705987,0.00273839,0.00222152,-0.00424194,1.06531,0.00379197,0.0250596,1931,1016,17.688,-2.56152
714,8,17.698,2.5213,-0.00311879,0.000833336,0.00288137,0.00235114,-0.00463659,1.08597,0.00410567,0.0272658,1938,1016,17.698,-2.5213
721,8,17.7261,2.87305,0,0,0,0,0,0,0,-1,1945,1016,17.7261,-2.87306
728,8,17.3347,3.2926,-0.00396479,0.00107633,0.00282846,0.00234435,-0.00523282,1.14935,0.00447938,0.0268995,1952,1016,17.3348,-3.2926
735,8,17.236,3.47876,-0.00403135,0.000978014,0.00211872,0.00175395,-0.00480728,1.21974,0.00392247,0.0174478,1959,1016,17.236,-3.47877
742,8,17.2483,3.50348,-0.00391959,0.000767535,0.00114494,0.00103226,-0.00418431,1.34357,0.0031898,0.0163341,1966,1016,17.2482,-3.50347
749,8,17.2504,3.53082,-0.0042577,0.000633537,0.00027191,0.000648606,-0.00427277,1.51543,0.00308751,0.0111672,1973,1016,17.2504,-3.53085
756,8,17.2689,3.55884,-0.00442842,0.000191203,-0.000628144,0.000275091,-0.0045123,-1.43803,0.00310396,0.0126945,1980,1016,17.2689,-3.55884
763,8,17.267,3.57642,-0.00467436,-0.000470754,-0.0016999,0.000130636,-0.00527575,-1.23076,0.00356151,0.0134153,1987,1016,17.267,-3.57644
770,8,17.2528,3.58374,-0.00511673,-0.00122627,-0.00294259,0.000355923,-0.00669893,-1.07745,0.0045892,0.0146044,1994,1016,17.2529,-3.58371
777,8,17.2184,3.64581,-0.00571482,-0.00228711,-0.00407065,0.000415761,-0.00841769,-0.984649,0.00575539,0.0179209,2001,1016,17.2184,-3.6458
784,8,17.1301,3.72961,-0.00681186,-0.0034505,-0.00480157,-4.39622e-05,-0.0102184,-0.953748,0.00679766,0.0364769,2008,1016,17.1301,-3.7296
791,8,17.4004,3.13098,-0.00852137,-0.00494292,-0.00510743,-0.00132038,-0.0121439,-0.953877,0.00769367,0.0476241,2015,1016,17.4004,-3.131
798,8,17.4019,3.65753,-0.0105781,-0.00674827,-0.0049637,-0.00334292,-0.0139835,-0.969495,0.00843186,0.047046,2022,1016,17.4019,-3.6575
805,8,17.3042,3.46387,-0.0129593,-0.00878861,-0.00420807,-0.00617752,-0.0155704,-1.01544,0.00905323,0.044799,2029,1016,17.3042,-3.46384
812,8,16.991,3.67535,-0.0157263,-0.0108968,-0.00255959,-0.00979267,-0.0168304,-1.16354,0.00976035,0.0435654,2036,1016,16.991,-3.67535
-700,1,0,0,0,0,0,0,0,0,0,-1,524,1023,0,0
-693,1,-8.60767,4.1228,0.0032995,0.00239605,-0.0591472,0.0619967,-0.0563012,-0.78158,0.0683257,0.0398444,531,1023,-8.60768,-4.1228
-686,1,-8.59814,4.12726,-0.00408964,0.00722069,-0.0430237,0.0449593,-0.0418283,-0.850745,0.0501177,0.0460596,538,1023,-8.59815,-4.12725
-679,1,-9.24609,3.3692,0,0,0,0,0,0,0,-1,545,1023,-9.2461,-3.36918
-672,1,-10.8856,1.1543,0,0,0,0,0,0,0,-1,552,1023,-10.8855,-1.15429
-665,1,-10.9319,1.02563,0,0,0,0,0,0,0,-1,559,1023,-10.9319,-1.02561
-658,1,-11.5447,1.21021,0,0,0,0,0,0,0,-1,566,1023,-11.5447,-1.2102
-651,1,-11.3818,1.24976,-0.00996727,0.00599056,-0.0050622,0.00746093,-0.0114376,-1.28811,0.0109913,0.0168556,573,1023,-11.3818,-1.24978
-644,1,-11.3462,1.28052,-0.00850679,0.00495389,-0.00244139,0.00538301,-0.00893591,-1.3968,0.00835143,0.0175662,580,1023,-11.3462,-1.28055
-637,1,-11.3804,1.25299,-0.00769671,0.00419325,0.000524467,0.00421634,-0.0077198,1.5268,0.00698958,0.0148404,587,1023,-11.3803,-1.25301
-630,1,-11.4399,1.23401,-0.0065231,0.00241298,0.000803443,0.00248464,-0.00659476,1.48184,0.00541808,0.0149655,594,1023,-11.4399,-1.23403
-623,1,-11.4174,1.2453,-0.00454483,0.00111868,-0.000131336,0.00112173,-0.00454787,-1.54762,0.00346685,0.0117885,601,1023,-11.4174,-1.24533
-616,1,-11.4222,1.23816,-0.00243103,0.000129406,-0.00131551,0.000684819,-0.00298644,-1.1713,0.00225418,0.0138562,608,1023,-11.4222,-1.23818
-609,1,-11.426,1.25006,-0.00116255,0.000137801,-0.00233069,0.0019073,-0.00293205,-0.921421,0.0028148,0.0152652,615,1023,-11.426,-1.25009
-602,1,-11.4062,1.23212,-0.000557664,0.000523479,-0.00326951,0.0032968,-0.00333099,-0.867326,0.00382657,0.0127085,622,1023,-11.4062,-1.23213
-595,1,-11.4012,1.19147,-0.000312104,0.00082194,-0.00379904,0.00409604,-0.0035862,-0.859478,0.0044386,0.0145027,629,1023,-11.4012,-1.19148
-588,1,-11.4138,0.95636,-0.000338525,0.00089385,-0.00395176,0.00427718,-0.00372185,-0.862739,0.00462195,0.0223797,636,1023,-11.4137,-0.956386
-581,1,-11.4092,0.680969,-0.000454201,0.00127428,-0.00387203,0.00437735,-0.00355727,-0.895199,0.0045892,0.0271944,643,1023,-11.4092,-0.680966
-574,1,-11.4026,0.636597,-0.000635027,0.00154601,-0.00348678,0.00410883,-0.00319785,-0.936958,0.00422942,0.0334161,650,1023,-11.4026,-0.636609
-567,1,-11.3926,0.538269,-0.000956901,0.0019689,-0.00283443,0.00369568,-0.00268368,-1.02363,0.00369854,0.0392059,657,1023,-11.3926,-0.538251
-560,1,-11.3721,0.556335,-0.00142112,0.00245438,-0.00205091,0.00333817,-0.00230491,-1.16392,0.00327619,0.0413114,664,1023,-11.3721,-0.556307
-553,1,-11.3231,0.570801,-0.00210245,0.00296857,-0.00126848,0.00326817,-0.00240205,-1.33886,0.00328641,0.0429502,671,1023,-11.323,-0.570809
-546,1,-11.3422,0.728333,-0.00303361,0.00347058,-0.000685016,0.00354195,-0.00310497,-1.46699,0.00384036,0.0449382,678,1023,-11.3422,-0.728303
-539,1,-11.4902,0.91925,-0.0042274,0.00387869,-0.000835935,0.003964,-0.00431271,-1.4691,0.00477997,0.0426524,685,1023,-11.4902,-0.91924
-532,1,-11.484,0.820801,-0.00591308,0.00460532,-0.00262747,0.00522513,-0.00653289,-1.33913,0.00680248,0.0408441,692,1023,-11.484,-0.820827
-525,1,0,0,0,0,0,0,0,0,0,-1,699,1023,0,0
-518,1,0,0,0,0,0,0,0,0,0,-1,706,1023,0,0
-511,1,0,0,0,0,0,0,0,0,0,-1,713,1023,0,0
-504,1,0,0,0,0,0,0,0,0,0,-1,720,1023,0,0
-497,1,0,0,0,0,0,0,0,0,0,-1,727,1023,0,0
-490,1,0,0,0,0,0,0,0,0,0,-1,734,1023,0,0
-483,1,0,0,0,0,0,0,0,0,0,-1,741,1023,0,0
-476,1,0,0,0,0,0,0,0,0,0,-1,748,1023,0,0
-469,1,0,0,0,0,0,0,0,0,0,-1,755,1023,0,0
-462,1,0,0,0,0,0,0,0,0,0,-1,762,1023,0,0
-455,1,0,0,0,0,0,0,0,0,0,-1,769,1023,0,0
-448,1,0,0,0,0,0,0,0,0,0,-1,776,1023,0,0
-441,1,0,0,0,0,0,0,0,0,0,-1,783,1023,0,0
-434,1,0,0,0,0,0,0,0,0,0,-1,790,1023,0,0
-427,1,0,0,0,0,0,0,0,0,0,-1,797,1023,0,0
-420,1,0,0,0,0,0,0,0,0,0,-1,804,1023,0,0
-413,1,0,0,0,0,0,0,0,0,0,-1,811,1023,0,0
-406,1,0,0,0,0,0,0,0,0,0,-1,818,1023,0,0
-399,1,0,0,0,0,0,0,0,0,0,-1,825,1023,0,0
-392,1,0,0,0,0,0,0,0,0,0,-1,832,1023,0,0
-385,1,0,0,0,0,0,0,0,0,0,-1,839,1023,0,0
-378,1,0,0,0,0,0,0,0,0,0,-1,846,1023,0,0
-371,1,0,0,0,0,0,0,0,0,0,-1,853,1023,0,0
-364,1,0,0,0,0,0,0,0,0,0,-1,860,1023,0,0
-357,1,0,0,0,0,0,0,0,0,0,-1,867,1023,0,0
-350,1,0,0,0,0,0,0,0,0,0,-1,874,1023,0,0
-343,1,0,0,0,0,0,0,0,0,0,-1,881,1023,0,0
-336,1,0,0,0,0,0,0,0,0,0,-1,888,1023,0,0
-329,1,0,0,0,0,0,0,0,0,0,-1,895,1023,0,0
-322,1,0,0,0,0,0,0,0,0,0,-1,902,1023,0,0
-315,1,0,0,0,0,0,0,0,0,0,-1,909,1023,0,0
-308,1,0,0,0,0,0,0,0,0,0,-1,916,1023,0,0
-301,1,0,0,0,0,0,0,0,0,0,-1,923,1023,0,0
-294,1,0,0,0,0,0,0,0,0,0,-1,930,1023,0,0
-287,1,0,0,0,0,0,0,0,0,0,-1,937,1023,0,0
-280,1,0,0,0,0,0,0,0,0,0,-1,944,1023,0,0
-273,1,0,0,0,0,0,0,0,0,0,-1,951,1023,0,0
-266,1,0,0,0,0,0,0,0,0,0,-1,958,1023,0,0
-259,1,0,0,0,0,0,0,0,0,0,-1,965,1023,0,0
-252,1,0,0,0,0,0,0,0,0,0,-1,972,1023,0,0
-245,1,0,0,0,0,0,0,0,0,0,-1,979,1023,0,0
-238,1,0,0,0,0,0,0,0,0,0,-1,986,1023,0,0
-231,1,0,0,0,0,0,0,0,0,0,-1,993,1023,0,0
-224,1,0,0,0,0,0,0,0,0,0,-1,1000,1023,0,0
-217,1,0,0,0,0,0,0,0,0,0,-1,1007,1023,0,0
-210,1,0,0,0,0,0,0,0,0,0,-1,1014,1023,0,0
-203,1,0,0,0,0,0,0,0,0,0,-1,1021,1023,0,0
-196,1,0,0,0,0,0,0,0,0,0,-1,1028,1023,0,0
-189,1,0,0,0,0,0,0,0,0,0,-1,1035,1023,0,0
-182,1,0,0,0,0,0,0,0,0,0,-1,1042,1023,0,0
-175,1,0,0,0,0,0,0,0,0,0,-1,1049,1023,0,0
-168,1,0,0,0,0,0,0,0,0,0,-1,1056,1023,0,0
-161,1,0,0,0,0,0,0,0,0,0,-1,1063,1023,0,0
-154,1,0,0,0,0,0,0,0,0,0,-1,1070,1023,0,0
-147,1,0,0,0,0,0,0,0,0,0,-1,1077,1023,0,0
-140,1,0,0,0,0,0,0,0,0,0,-1,1084,1023,0,0
-133,1,0,0,0,0,0,0,0,0,0,-1,1091,1023,0,0
-126,1,0,0,0,0,0,0,0,0,0,-1,1098,1023,0,0
-119,1,0,0,0,0,0,0,0,0,0,-1,1105,1023,0,0
-112,1,0,0,0,0,0,0,0,0,0,-1,1112,1023,0,0
-105,1,0,0,0,0,0,0,0,0,0,-1,1119,1023,0,0
-98,1,0,0,0,0,0,0,0,0,0,-1,1126,1023,0,0
-91,1,0,0,0,0,0,0,0,0,0,-1,1133,1023,0,0
-84,1,0,0,0,0,0,0,0,0,0,-1,1140,1023,0,0
-77,1,0,0,0,0,0,0,0,0,0,-1,1147,1023,0,0
-70,1,0,0,0,0,0,0,0,0,0,-1,1154,1023,0,0
-63,1,0,0,0,0,0,0,0,0,0,-1,1161,1023,0,0
-56,1,0,0,0,0,0,0,0,0,0,-1,1168,1023,0,0
-49,1,0,0,0,0,0,0,0,0,0,-1,1175,1023,0,0
-42,1,0,0,0,0,0,0,0,0,0,-1,1182,1023,0,0
-35,1,0,0,0,0,0,0,0,0,0,-1,1189,1023,0,0
-28,1,0,0,0,0,0,0,0,0,0,-1,1196,1023,0,0
-21,1,0,0,0,0,0,0,0,0,0,-1,1203,1023,0,0
-14,1,0,0,0,0,0,0,0,0,0,-1,1210,1023,0,0
-7,1,0,0,0,0,0,0,0,0,0,-1,1217,1023,0,0
0,1,0,0,0,0,0,0,0,0,0,-1,1224,1023,0,0
7,1,0,0,0,0,0,0,0,0,0,-1,1231,1023,0,0
14,1,0,0,0,0,0,0,0,0,0,-1,1238,1023,0,0
21,1,0,0,0,0,0,0,0,0,0,-1,1245,1023,0,0
28,1,0,0,0,0,0,0,0,0,0,-1,1252,1023,0,0
35,1,0,0,0,0,0,0,0,0,0,-1,1259,1023,0,0
42,1,0,0,0,0,0,0,0,0,0,-1,1266,1023,0,0
49,1,0,0,0,0,0,0,0,0,0,-1,1273,1023,0,0
56,1,0,0,0,0,0,0,0,0,0,-1,1280,1023,0,0
63,1,0,0,0,0,0,0,0,0,0,-1,1287,1023,0,0
70,1,0,0,0,0,0,0,0,0,0,-1,1294,1023,0,0
77,1,0,0,0,0,0,0,0,0,0,-1,1301,1023,0,0
84,1,0,0,0,0,0,0,0,0,0,-1,1308,1023,0,0
91,1,0,0,0,0,0,0,0,0,0,-1,1315,1023,0,0
98,1,0,0,0,0,0,0,0,0,0,-1,1322,1023,0,0
105,1,0,0,0,0,0,0,0,0,0,-1,1329,1023,0,0
112,1,0,0,0,0,0,0,0,0,0,-1,1336,1023,0,0
119,1,0,0,0,0,0,0,0,0,0,-1,1343,1023,0,0
126,1,0,0,0,0,0,0,0,0,0,-1,1350,1023,0,0
133,1,0,0,0,0,0,0,0,0,0,-1,1357,1023,0,0
140,1,0,0,0,0,0,0,0,0,0,-1,1364,1023,0,0
147,1,0,0,0,0,0,0,0,0,0,-1,1371,1023,0,0
154,1,0,0,0,0,0,0,0,0,0,-1,1378,1023,0,0
161,1,0,0,0,0,0,0,0,0,0,-1,1385,1023,0,0
168,1,0,0,0,0,0,0,0,0,0,-1,1392,1023,0,0
175,1,0,0,0,0,0,0,0,0,0,-1,1399,1023,0,0
182,1,0,0,0,0,0,0,0,0,0,-1,1406,1023,0,0
189,1,0,0,0,0,0,0,0,0,0,-1,1413,1023,0,0
196,1,0,0,0,0,0,0,0,0,0,-1,1420,1023,0,0
203,1,0,0,0,0,0,0,0,0,0,-1,1427,1023,0,0
210,1,0,0,0,0,0,0,0,0,0,-1,1434,1023,0,0
217,1,0,0,0,0,0,0,0,0,0,-1,1441,1023,0,0
224,1,0,0,0,0,0,0,0,0,0,-1,1448,1023,0,0
231,1,0,0,0,0,0,0,0,0,0,-1,1455,1023,0,0
238,1,0,0,0,0,0,0,0,0,0,-1,1462,1023,0,0
245,1,0,0,0,0,0,0,0,0,0,-1,1469,1023,0,0
252,1,0,0,0,0,0,0,0,0,0,-1,1476,1023,0,0
259,1,0,0,0,0,0,0,0,0,0,-1,1483,1023,0,0
266,1,0,0,0,0,0,0,0,0,0,-1,1490,1023,0,0
273,1,0,0,0,0,0,0,0,0,0,-1,1497,1023,0,0
280,1,0,0,0,0,0,0,0,0,0,-1,1504,1023,0,0
287,1,0,0,0,0,0,0,0,0,0,-1,1511,1023,0,0
294,1,0,0,0,0,0,0,0,0,0,-1,1518,1023,0,0
301,1,0,0,0,0,0,0,0,0,0,-1,1525,1023,0,0
308,1,0,0,0,0,0,0,0,0,0,-1,1532,1023,0,0
315,1,0,0,0,0,0,0,0,0,0,-1,1539,1023,0,0
322,1,0,0,0,0,0,0,0,0,0,-1,1546,1023,0,0
329,1,0,0,0,0,0,0,0,0,0,-1,1553,1023,0,0
336,1,0,0,0,0,0,0,0,0,0,-1,1560,1023,0,0
343,1,0,0,0,0,0,0,0,0,0,-1,1567,1023,0,0
350,1,0,0,0,0,0,0,0,0,0,-1,1574,1023,0,0
357,1,0,0,0,0,0,0,0,0,0,-1,1581,1023,0,0
364,1,0,0,0,0,0,0,0,0,0,-1,1588,1023,0,0
371,1,0,0,0,0,0,0,0,0,0,-1,1595,1023,0,0
378,1,0,0,0,0,0,0,0,0,0,-1,1602,1023,0,0
385,1,0,0,0,0,0,0,0,0,0,-1,1609,1023,0,0
392,1,0,0,0,0,0,0,0,0,0,-1,1616,1023,0,0
399,1,0,0,0,0,0,0,0,0,0,-1,1623,1023,0,0
406,1,0,0,0,0,0,0,0,0,0,-1,1630,1023,0,0
413,1,0,0,0,0,0,0,0,0,0,-1,1637,1023,0,0
420,1,0,0,0,0,0,0,0,0,0,-1,1644,1023,0,0
427,1,0,0,0,0,0,0,0,0,0,-1,1651,1023,0,0
434,1,0,0,0,0,0,0,0,0,0,-1,1658,1023,0,0
441,1,0,0,0,0,0,0,0,0,0,-1,1665,1023,0,0
448,1,0,0,0,0,0,0,0,0,0,-1,1672,1023,0,0
455,1,0,0,0,0,0,0,0,0,0,-1,1679,1023,0,0
462,1,0,0,0,0,0,0,0,0,0,-1,1686,1023,0,0
469,1,0,0,0,0,0,0,0,0,0,-1,1693,1023,0,0
476,1,0,0,0,0,0,0,0,0,0,-1,1700,1023,0,0
483,1,0,0,0,0,0,0,0,0,0,-1,1707,1023,0,0
490,1,0,0,0,0,0,0,0,0,0,-1,1714,1023,0,0
497,1,0,0,0,0,0,0,0,0,0,-1,1721,1023,0,0
504,1,0,0,0,0,0,0,0,0,0,-1,1728,1023,0,0
511,1,0,0,0,0,0,0,0,0,0,-1,1735,1023,0,0
518,1,0,0,0,0,0,0,0,0,0,-1,1742,1023,0,0
525,1,0,0,0,0,0,0,0,0,0,-1,1749,1023,0,0
532,1,0,0,0,0,0,0,0,0,0,-1,1756,1023,0,0
539,1,0,0,0,0,0,0,0,0,0,-1,1763,1023,0,0
546,1,0,0,0,0,0,0,0,0,0,-1,1770,1023,0,0
553,1,0,0,0,0,0,0,0,0,0,-1,1777,1023,0,0
560,1,0,0,0,0,0,0,0,0,0,-1,1784,1023,0,0
567,1,0,0,0,0,0,0,0,0,0,-1,1791,1023,0,0
574,1,0,0,0,0,0,0,0,0,0,-1,1798,1023,0,0
581,1,0,0,0,0,0,0,0,0,0,-1,1805,1023,0,0
588,1,0,0,0,0,0,0,0,0,0,-1,1812,1023,0,0
595,1,0,0,0,0,0,0,0,0,0,-1,1819,1023,0,0
602,1,0,0,0,0,0,0,0,0,0,-1,1826,1023,0,0
609,1,0,0,0,0,0,0,0,0,0,-1,1833,1023,0,0
616,1,0,0,0,0,0,0,0,0,0,-1,1840,1023,0,0
623,1,0,0,0,0,0,0,0,0,0,-1,1847,1023,0,0
630,1,0,0,0,0,0,0,0,0,0,-1,1854,1023,0,0
637,1,0,0,0,0,0,0,0,0,0,-1,1861,1023,0,0
644,1,0,0,0,0,0,0,0,0,0,-1,1868,1023,0,0
651,1,17.6384,2.38391,-0.0021402,-0.00187163,0.000706357,-0.00128691,-0.00272492,0.879331,0.00157404,0.0388575,1875,1023,17.6384,-2.38394
658,1,17.6238,2.56934,-0.00141891,-0.00140421,0.000427695,-0.000983802,-0.00183932,0.793987,0.00106279,0.0404631,1882,1023,17.6237,-2.56936
665,1,17.6506,2.61469,-0.000925001,-0.000962189,0.000254061,-0.000688854,-0.00119834,0.74887,0.000694438,0.0421426,1889,1023,17.6506,-2.61471
672,1,17.7385,2.39746,-0.000520801,-0.000492992,0.000420175,-8.64917e-05,-0.000927302,0.801938,0.000591482,0.0412387,1896,1023,17.7385,-2.39746
679,1,17.6101,2.16571,-0.000685988,-4.98547e-05,0.000948493,0.000632481,-0.00136832,0.947176,0.00118092,0.0387038,1903,1023,17.6101,-2.1657
686,1,17.6002,2.12677,-0.00116086,0.000279117,0.00158034,0.00129575,-0.00217749,0.999145,0.0020267,0.0370977,1910,1023,17.6003,-2.12677
693,1,17.7059,2.46234,-0.00166933,0.000506514,0.00216558,0.00184209,-0.0030049,1.01817,0.00282512,0.0347073,1917,1023,17.7059,-2.46231
700,1,17.8197,2.50964,-0.00224704,0.000664951,0.0026393,0.00222322,-0.00380532,1.03746,0.0035203,0.030902,1924,1023,17.8197,-2.50965
707,1,17.7238,2.50598,-0.00265268,0.000769886,0.00296786,0.00248449,-0.00436729,1.04692,0.00400535,0.0278352,1931,1023,17.7237,-2.50599
714,1,17.6547,2.46582,-0.00302268,0.000867958,0.00316913,0.00264119,-0.00479591,1.06066,0.00435347,0.0301764,1938,1023,17.6546,-2.46585
721,1,17.7288,2.8031,0,0,0,0,0,0,0,-1,1945,1023,17.7288,-2.80312
728,1,17.3597,3.34393,-0.00382393,0.00101378,0.00321684,0.00261971,-0.00542986,1.10777,0.00474088,0.0250589,1952,1023,17.3597,-3.34391
735,1,17.2792,3.48572,-0.00381322,0.000902014,0.00259054,0.00204715,-0.00495835,1.15458,0.00415941,0.0160562,1959,1023,17.2792,-3.48571
742,1,17.2881,3.49298,-0.00355016,0.000634123,0.00173406,0.00125933,-0.00417537,1.22476,0.00328484,0.0155208,1966,1023,17.288,-3.493
749,1,17.2491,3.52466,-0.00373932,0.000457132,0.000979564,0.000674527,-0.00395672,1.35241,0.00288902,0.0131525,1973,1023,17.2491,-3.52467
756,1,17.2617,3.55096,-0.00386364,0.000127508,0.000221584,0.000139773,-0.00387591,1.5155,0.00263177,0.0126015,1980,1023,17.2617,-3.55094
763,1,17.2803,3.57062,-0.00412274,-0.000235058,-0.000674701,-0.000121294,-0.00423651,-1.40375,0.00278479,0.0136438,1987,1023,17.2803,-3.57059
770,1,17.2853,3.59082,-0.00455161,-0.000689302,-0.0017002,-4.75142e-05,-0.0051934,-1.20985,0.00344654,0.0133368,1994,1023,17.2852,-3.59081
777,1,17.2626,3.61328,-0.00524398,-0.00130399,-0.00254876,-5.26384e-05,-0.00649533,-1.1144,0.00431278,0.0146211,2001,1023,17.2626,-3.61328
784,1,17.2877,3.4295,-0.0065385,-0.00181907,-0.00295688,-0.000395746,-0.00796182,-1.12217,0.00518101,0.0325985,2008,1023,17.2877,-3.4295
791,1,17.3389,3.52191,-0.00868331,-0.00237703,-0.00290426,-0.00124333,-0.00981701,-1.19863,0.00617212,0.0458672,2015,1023,17.3389,-3.52194
798,1,17.3317,3.72998,-0.0115241,-0.00282925,-0.00240397,-0.00220887,-0.0121445,-1.31824,0.00746974,0.0479201,2022,1023,17.3317,-3.73
805,1,16.0847,4.64905,-0.015146,-0.00292987,-0.00134441,-0.00278366,-0.0152922,-1.46247,0.00940522,0.0464858,2029,1023,16.0847,-4.64906
812,1,15.3667,4.40845,-0.0198077,-0.00227326,0.000475763,-0.00226036,-0.0198206,1.54369,0.0125284,0.0465727,2036,1023,15.3666,-4.40843
-700,-6,0,0,0,0,0,0,0,0,0,-1,524,1030,0,0
-693,-6,-8.68951,4.68921,-0.0101403,0.00469463,-0.063682,0.0613897,-0.0668354,-0.843375,0.074053,0.0420735,531,1030,-8.68949,-4.68916
-686,-6,-8.66443,4.38928,-0.0136827,0.00879289,-0.0471659,0.0460413,-0.0509311,-0.902348,0.0560108,0.0448459,538,1030,-8.66445,-4.38924
-679,-6,-8.76605,3.92371,-0.0150214,0.0101118,-0.0344198,0.0341873,-0.0390968,-0.960429,0.0423422,0.0493793,545,1030,-8.76605,-3.92366
-672,-6,-11.0339,0.707642,0,0,0,0,0,0,0,-1,552,1030,-11.0339,-0.707605
-665,-6,-11.8546,-0.716797,0,0,0,0,0,0,0,-1,559,1030,-11.8546,0.716758
-658,-6,-11.6699,0.41394,0,0,0,0,0,0,0,-1,566,1030,-11.6698,-0.413984
-651,-6,-11.3592,0.659668,0,0,0,0,0,0,0,-1,573,1030,-11.3592,-0.659621
-644,-6,-11.3732,1.19202,-0.00835614,0.00490896,-0.00353616,0.00579274,-0.00923991,-1.32589,0.00875484,0.0324588,580,1030,-11.3733,-1.19205
-637,-6,-11.4028,1.27258,-0.00696459,0.00384769,-0.000480173,0.00386897,-0.00698587,-1.5265,0.00635258,0.0183052,587,1030,-11.4028,-1.2726
-630,-6,-11.4252,1.23438,-0.00533755,0.00190637,2.65177e-05,0.00190647,-0.00533765,1.56714,0.00433596,0.01328,594,1030,-11.4253,-1.23441
-623,-6,-11.4133,1.23767,-0.00338448,0.00073701,-0.000594135,0.000820948,-0.00346842,-1.43045,0.00262901,0.0122389,601,1030,-11.4132,-1.23772
-616,-6,-11.4092,1.23901,-0.0017344,-0.000251901,-0.00169973,0.00086118,-0.00284748,-0.991014,0.00224123,0.0133586,608,1030,-11.4092,-1.23905
-609,-6,-11.3977,1.24426,-0.000717749,-0.000142447,-0.00267583,0.00226115,-0.00312135,-0.838942,0.00312079,0.0151103,615,1030,-11.3977,-1.24431
-602,-6,-11.4075,1.25134,-0.000255288,0.000293469,-0.00355821,0.00358786,-0.00354968,-0.823878,0.00412088,0.0121728,622,1030,-11.4074,-1.25139
-595,-6,-11.3791,1.23779,-0.00017278,0.000649377,-0.00403572,0.0042949,-0.0038183,-0.836153,0.00468685,0.0142274,629,1030,-11.3791,-1.23777
-588,-6,-11.394,0.898926,-0.000296872,0.000778709,-0.00414476,0.00442043,-0.00393859,-0.849914,0.00482875,0.0174127,636,1030,-11.394,-0.898873
-581,-6,-11.4504,0.666382,-0.000458005,0.00128502,-0.0040233,0.00453012,-0.00370311,-0.892058,0.00476144,0.02315,643,1030,-11.4504,-0.666398
-574,-6,-11.4374,0.609985,-0.000693336,0.00171696,-0.00358165,0.00429077,-0.00326715,-0.947687,0.00437689,0.0304438,650,1030,-11.4374,-0.609948
-567,-6,-11.3787,0.51355,-0.00109098,0.00234135,-0.00286755,0.00396705,-0.00271668,-1.05505,0.0038813,0.0396885,657,1030,-11.3787,-0.513541
-560,-6,-11.3719,0.402954,-0.00165718,0.00308735,-0.0020068,0.00382232,-0.00239215,-1.21973,0.00361946,0.0416557,664,1030,-11.3719,-0.403003
-553,-6,-11.2477,0.459229,-0.00246802,0.00392952,-0.00113254,0.00412409,-0.00266259,-1.40066,0.00394846,0.0428718,671,1030,-11.2477,-0.459205
-546,-6,-11.3334,0.811401,-0.00357048,0.0048348,-0.000440309,0.00485781,-0.00359349,-1.5186,0.00489752,0.0439727,678,1030,-11.3334,-0.811445
-539,-6,-11.4726,1.13501,-0.00498723,0.00572241,-0.000500775,0.00574578,-0.00501059,-1.52417,0.00621503,0.0409807,685,1030,-11.4726,-1.13507
-532,-6,-11.4864,1.15491,-0.00690721,0.00696331,-0.00231872,0.00734066,-0.00728456,-1.40947,0.0084439,0.0386829,692,1030,-11.4864,-1.15491
-525,-6,0,0,0,0,0,0,0,0,0,-1,699,1030,0,0
-518,-6,0,0,0,0,0,0,0,0,0,-1,706,1030,0,0
-511,-6,0,0,0,0,0,0,0,0,0,-1,713,1030,0,0
-504,-6,0,0,0,0,0,0,0,0,0,-1,720,1030,0,0
-497,-6,0,0,0,0,0,0,0,0,0,-1,727,1030,0,0
-490,-6,0,0,0,0,0,0,0,0,0,-1,734,1030,0,0
-483,-6,0,0,0,0,0,0,0,0,0,-1,741,1030,0,0
-476,-6,0,0,0,0,0,0,0,0,0,-1,748,1030,0,0
-469,-6,0,0,0,0,0,0,0,0,0,-1,755,1030,0,0
-462,-6,0,0,0,0,0,0,0,0,0,-1,762,1030,0,0
-455,-6,0,0,0,0,0,0,0,0,0,-1,769,1030,0,0
-448,-6,0,0,0,0,0,0,0,0,0,-1,776,1030,0,0
-441,-6,0,0,0,0,0,0,0,0,0,-1,783,1030,0,0
-434,-6,0,0,0,0,0,0,0,0,0,-1,790,1030,0,0
-427,-6,0,0,0,0,0,0,0,0,0,-1,797,1030,0,0
-420,-6,0,0,0,0,0,0,0,0,0,-1,804,1030,0,0
-413,-6,0,0,0,0,0,0,0,0,0,-1,811,1030,0,0
-406,-6,0,0,0,0,0,0,0,0,0,-1,818,1030,0,0
-399,-6,0,0,0,0,0,0,0,0,0,-1,825,1030,0,0
-392,-6,0,0,0,0,0,0,0,0,0,-1,832,1030,0,0
-385,-6,0,0,0,0,0,0,0,0,0,-1,839,1030,0,0
-378,-6,0,0,0,0,0,0,0,0,0,-1,846,1030,0,0
-371,-6,0,0,0,0,0,0,0,0,0,-1,853,1030,0,0
-364,-6,0,0,0,0,0,0,0,0,0,-1,860,1030,0,0
-357,-6,0,0,0,0,0,0,0,0,0,-1,867,1030,0,0
-350,-6,0,0,0,0,0,0,0,0,0,-1,874,1030,0,0
-343,-6,0,0,0,0,0,0,0,0,0,-1,881,1030,0,0
-336,-6,0,0,0,0,0,0,0,0,0,-1,888,1030,0,0
-329,-6,0,0,0,0,0,0,0,0,0,-1,895,1030,0,0
-322,-6,0,0,0,0,0,0,0,0,0,-1,902,1030,0,0
-315,-6,0,0,0,0,0,0,0,0,0,-1,909,1030,0,0
-308,-6,0,0,0,0,0,0,0,0,0,-1,916,1030,0,0
-301,-6,0,0,0,0,0,0,0,0,0,-1,923,1030,0,0
-294,-6,0,0,0,0,0,0,0,0,0,-1,930,1030,0,0
-287,-6,0,0,0,0,0,0,0,0,0,-1,937,1030,0,0
-280,-6,0,0,0,0,0,0,0,0,0,-1,944,1030,0,0
-273,-6,0,0,0,0,0,0,0,0,0,-1,951,1030,0,0
-266,-6,0,0,0,0,0,0,0,0,0,-1,958,1030,0,0
-259,-6,0,0,0,0,0,0,0,0,0,-1,965,1030,0,0
-252,-6,0,0,0,0,0,0,0,0,0,-1,972,1030,0,0
-245,-6,0,0,0,0,0,0,0,0,0,-1,979,1030,0,0
-238,-6,0,0,0,0,0,0,0,0,0,-1,986,1030,0,0
-231,-6,0,0,0,0,0,0,0,0,0,-1,993,1030,0,0
-224,-6,0,0,0,0,0,0,0,0,0,-1,1000,1030,0,0
-217,-6,0,0,0,0,0,0,0,0,0,-1,1007,1030,0,0
-210,-6,0,0,0,0,0,0,0,0,0,-1,1014,1030,0,0
-203,-6,0,0,0,0,0,0,0,0,0,-1,1021,1030,0,0
-196,-6,0,0,0,0,0,0,0,0,0,-1,1028,1030,0,0
-189,-6,0,0,0,0,0,0,0,0,0,-1,1035,1030,0,0
-182,-6,0,0,0,0,0,0,0,0,0,-1,1042,1030,0,0
-175,-6,0,0,0,0,0,0,0,0,0,-1,1049,1030,0,0
-168,-6,0,0,0,0,0,0,0,0,0,-1,1056,1030,0,0
-161,-6,0,0,0,0,0,0,0,0,0,-1,1063,1030,0,0
-154,-6,0,0,0,0,0,0,0,0,0,-1,1070,1030,0,0
-147,-6,0,0,0,0,0,0,0,0,0,-1,1077,1030,0,0
-140,-6,0,0,0,0,0,0,0,0,0,-1,1084,1030,0,0
-133,-6,0,0,0,0,0,0,0,0,0,-1,1091,1030,0,0
-126,-6,0,0,0,0,0,0,0,0,0,-1,1098,1030,0,0
-119,-6,0,0,0,0,0,0,0,0,0,-1,1105,1030,0,0
-112,-6,0,0,0,0,0,0,0,0,0,-1,1112,1030,0,0
-105,-6,0,0,0,0,0,0,0,0,0,-1,1119,1030,0,0
-98,-6,0,0,0,0,0,0,0,0,0,-1,1126,1030,0,0
-91,-6,0,0,0,0,0,0,0,0,0,-1,1133,1030,0,0
-84,-6,0,0,0,0,0,0,0,0,0,-1,1140,1030,0,0
-77,-6,0,0,0,0,0,0,0,0,0,-1,1147,1030,0,0
-70,-6,0,0,0,0,0,0,0,0,0,-1,1154,1030,0,0
-63,-6,0,0,0,0,0,0,0,0,0,-1,1161,1030,0,0
-56,-6,0,0,0,0,0,0,0,0,0,-1,1168,1030,0,0
-49,-6,0,0,0,0,0,0,0,0,0,-1,1175,1030,0,0
-42,-6,0,0,0,0,0,0,0,0,0,-1,1182,1030,0,0
-35,-6,0,0,0,0,0,0,0,0,0,-1,1189,1030,0,0
-28,-6,0,0,0,0,0,0,0,0,0,-1,1196,1030,0,0
-21,-6,0,0,0,0,0,0,0,0,0,-1,1203,1030,0,0
-14,-6,0,0,0,0,0,0,0,0,0,-1,1210,1030,0,0
-7,-6,0,0,0,0,0,0,0,0,0,-1,1217,1030,0,0
0,-6,0,0,0,0,0,0,0,0,0,-1,1224,1030,0,0
7,-6,0,0,0,0,0,0,0,0,0,-1,1231,1030,0,0
14,-6,0,0,0,0,0,0,0,0,0,-1,1238,1030,0,0
21,-6,0,0,0,0,0,0,0,0,0,-1,1245,1030,0,0
28,-6,0,0,0,0,0,0,0,0,0,-1,1252,1030,0,0
35,-6,0,0,0,0,0,0,0,0,0,-1,1259,1030,0,0
42,-6,0,0,0,0,0,0,0,0,0,-1,1266,1030,0,0
49,-6,0,0,0,0,0,0,0,0,0,-1,1273,1030,0,0
56,-6,0,0,0,0,0,0,0,0,0,-1,1280,1030,0,0
63,-6,0,0,0,0,0,0,0,0,0,-1,1287,1030,0,0
70,-6,0,0,0,0,0,0,0,0,0,-1,1294,1030,0,0
77,-6,0,0,0,0,0,0,0,0,0,-1,1301,1030,0,0
84,-6,0,0,0,0,0,0,0,0,0,-1,1308,1030,0,0
91,-6,0,0,0,0,0,0,0,0,0,-1,1315,1030,0,0
98,-6,0,0,0,0,0,0,0,0,0,-1,1322,1030,0,0
105,-6,0,0,0,0,0,0,0,0,0,-1,1329,1030,0,0
112,-6,0,0,0,0,0,0,0,0,0,-1,1336,1030,0,0
119,-6,0,0,0,0,0,0,0,0,0,-1,1343,1030,0,0
126,-6,0,0,0,0,0,0,0,0,0,-1,1350,1030,0,0
133,-6,0,0,0,0,0,0,0,0,0,-1,1357,1030,0,0
140,-6,0,0,0,0,0,0,0,0,0,-1,1364,1030,0,0
147,-6,0,0,0,0,0,0,0,0,0,-1,1371,1030,0,0
154,-6,0,0,0,0,0,0,0,0,0,-1,1378,1030,0,0
161,-6,0,0,0,0,0,0,0,0,0,-1,1385,1030,0,0
168,-6,0,0,0,0,0,0,0,0,0,-1,1392,1030,0,0
175,-6,0,0,0,0,0,0,0,0,0,-1,1399,1030,0,0
182,-6,0,0,0,0,0,0,0,0,0,-1,1406,1030,0,0
189,-6,0,0,0,0,0,0,0,0,0,-1,1413,1030,0,0
196,-6,0,0,0,0,0,0,0,0,0,-1,1420,1030,0,0
203,-6,0,0,0,0,0,0,0,0,0,-1,1427,1030,0,0
210,-6,0,0,0,0,0,0,0,0,0,-1,1434,1030,0,0
217,-6,0,0,0,0,0,0,0,0,0,-1,1441,1030,0,0
224,-6,0,0,0,0,0,0,0,0,0,-1,1448,1030,0,0
231,-6,0,0,0,0,0,0,0,0,0,-1,1455,1030,0,0
238,-6,0,0,0,0,0,0,0,0,0,-1,1462,1030,0,0
245,-6,0,0,0,0,0,0,0,0,0,-1,1469,1030,0,0
252,-6,0,0,0,0,0,0,0,0,0,-1,1476,1030,0,0
259,-6,0,0,0,0,0,0,0,0,0,-1,1483,1030,0,0
266,-6,0,0,0,0,0,0,0,0,0,-1,1490,1030,0,0
273,-6,0,0,0,0,0,0,0,0,0,-1,1497,1030,0,0
280,-6,0,0,0,0,0,0,0,0,0,-1,1504,1030,0,0
287,-6,0,0,0,0,0,0,0,0,0,-1,1511,1030,0,0
294,-6,0,0,0,0,0,0,0,0,0,-1,1518,1030,0,0
301,-6,0,0,0,0,0,0,0,0,0,-1,1525,1030,0,0
308,-6,0,0,0,0,0,0,0,0,0,-1,1532,1030,0,0
315,-6,0,0,0,0,0,0,0,0,0,-1,1539,1030,0,0
322,-6,0,0,0,0,0,0,0,0,0,-1,1546,1030,0,0
329,-6,0,0,0,0,0,0,0,0,0,-1,1553,1030,0,0
336,-6,0,0,0,0,0,0,0,0,0,-1,1560,1030,0,0
343,-6,0,0,0,0,0,0,0,0,0,-1,1567,1030,0,0
350,-6,0,0,0,0,0,0,0,0,0,-1,1574,1030,0,0
357,-6,0,0,0,0,0,0,0,0,0,-1,1581,1030,0,0
364,-6,0,0,0,0,0,0,0,0,0,-1,1588,1030,0,0
371,-6,0,0,0,0,0,0,0,0,0,-1,1595,1030,0,0
378,-6,0,0,0,0,0,0,0,0,0,-1,1602,1030,0,0
385,-6,0,0,0,0,0,0,0,0,0,-1,1609,1030,0,0
392,-6,0,0,0,0,0,0,0,0,0,-1,1616,1030,0,0
399,-6,0,0,0,0,0,0,0,0,0,-1,1623,1030,0,0
406,-6,0,0,0,0,0,0,0,0,0,-1,1630,1030,0,0
413,-6,0,0,0,0,0,0,0,0,0,-1,1637,1030,0,0
420,-6,0,0,0,0,0,0,0,0,0,-1,1644,1030,0,0
427,-6,0,0,0,0,0,0,0,0,0,-1,1651,1030,0,0
434,-6,0,0,0,0,0,0,0,0,0,-1,1658,1030,0,0
441,-6,0,0,0,0,0,0,0,0,0,-1,1665,1030,0,0
448,-6,0,0,0,0,0,0,0,0,0,-1,1672,1030,0,0
455,-6,0,0,0,0,0,0,0,0,0,-1,1679,1030,0,0
462,-6,0,0,0,0,0,0,0,0,0,-1,1686,1030,0,0
469,-6,0,0,0,0,0,0,0,0,0,-1,1693,1030,0,0
476,-6,0,0,0,0,0,0,0,0,0,-1,1700,1030,0,0
483,-6,0,0,0,0,0,0,0,0,0,-1,1707,1030,0,0
490,-6,0,0,0,0,0,0,0,0,0,-1,1714,1030,0,0
497,-6,0,0,0,0,0,0,0,0,0,-1,1721,1030,0,0
504,-6,0,0,0,0,0,0,0,0,0,-1,1728,1030,0,0
511,-6,0,0,0,0,0,0,0,0,0,-1,1735,1030,0,0
518,-6,0,0,0,0,0,0,0,0,0,-1,1742,1030,0,0
525,-6,0,0,0,0,0,0,0,0,0,-1,1749,1030,0,0
532,-6,0,0,0,0,0,0,0,0,0,-1,1756,1030,0,0
539,-6,0,0,0,0,0,0,0,0,0,-1,1763,1030,0,0
546,-6,0,0,0,0,0,0,0,0,0,-1,1770,1030,0,0
553,-6,0,0,0,0,0,0,0,0,0,-1,1777,1030,0,0
560,-6,0,0,0,0,0,0,0,0,0,-1,1784,1030,0,0
567,-6,0,0,0,0,0,0,0,0,0,-1,1791,1030,0,0
574,-6,0,0,0,0,0,0,0,0,0,-1,1798,1030,0,0
581,-6,0,0,0,0,0,0,0,0,0,-1,1805,1030,0,0
588,-6,0,0,0,0,0,0,0,0,0,-1,1812,1030,0,0
595,-6,0,0,0,0,0,0,0,0,0,-1,1819,1030,0,0
602,-6,0,0,0,0,0,0,0,0,0,-1,1826,1030,0,0
609,-6,0,0,0,0,0,0,0,0,0,-1,1833,1030,0,0
616,-6,0,0,0,0,0,0,0,0,0,-1,1840,1030,0,0
623,-6,0,0,0,0,0,0,0,0,0,-1,1847,1030,0,0
630,-6,0,0,0,0,0,0,0,0,0,-1,1854,1030,0,0
637,-6,0,0,0,0,0,0,0,0,0,-1,1861,1030,0,0
644,-6,0,0,0,0,0,0,0,0,0,-1,1868,1030,0,0
651,-6,17.8296,2.62622,-0.00240447,-0.00237531,0.000547675,-0.00184202,-0.00293776,0.798704,0.00171426,0.037683,1875,1030,17.8296,-2.62625
658,-6,17.7003,2.75842,-0.00158807,-0.00171512,0.000145611,-0.00149273,-0.00181046,0.579717,0.00111624,0.0388623,1882,1030,17.7003,-2.75838
665,-6,17.7839,2.70532,-0.00106909,-0.00112439,-8.39028e-05,-0.0010084,-0.00118508,-0.626228,0.000738244,0.0433613,1889,1030,17.7839,-2.70527
672,-6,17.8018,2.50757,-0.000638189,-0.000569897,0.000109604,-0.000489243,-0.000718842,0.936403,0.000423952,0.0418197,1896,1030,17.8017,-2.50759
679,-6,17.5942,2.47681,-0.000755204,-7.59149e-05,0.000740198,0.000398843,-0.00122996,1.0005,0.00098035,0.0419149,1903,1030,17.5942,-2.47684
686,-6,17.5591,2.45593,-0.00121602,0.000269702,0.0015057,0.00120582,-0.00215214,1.01456,0.00196422,0.0379268,1910,1030,17.5591,-2.45594
693,-6,17.6923,2.50281,-0.00170396,0.000489912,0.00222541,0.00187405,-0.00308809,1.01438,0.00289333,0.0357501,1917,1030,17.6922,-2.50276
700,-6,17.7616,2.57776,-0.00225191,0.000637681,0.00282297,0.0023641,-0.00397833,1.02192,0.00370112,0.0320589,1924,1030,17.7616,-2.57778
707,-6,17.6724,2.55261,-0.00263198,0.000723229,0.00322977,0.0026851,-0.00459386,1.02493,0.0042504,0.0289903,1931,1030,17.6723,-2.55262
714,-6,17.6946,2.41626,-0.00297748,0.000797692,0.00351314,0.00289823,-0.00507801,1.03192,0.00466206,0.0367594,1938,1030,17.6946,-2.41625
721,-6,17.8604,2.05408,0,0,0,0,0,0,0,-1,1945,1030,17.8604,-2.05411
728,-6,17.3955,3.39893,-0.00370418,0.00088341,0.00367822,0.00292445,-0.00574522,1.0642,0.00509298,0.0315847,1952,1030,17.3955,-3.3989
735,-6,17.3074,3.48779,-0.00360731,0.000786064,0.00313603,0.00241823,-0.00523948,1.09092,0.00452009,0.0163975,1959,1030,17.3074,-3.48779
742,-6,17.3228,3.51062,-0.00320296,0.000512833,0.0023922,0.00168386,-0.00437399,1.11557,0.00361062,0.0132502,1966,1030,17.3227,-3.51059
749,-6,17.271,3.5387,-0.00321756,0.000310031,0.00174344,0.00102627,-0.0039338,1.181,0.00302326,0.0123296,1973,1030,17.271,-3.53868
756,-6,17.288,3.54028,-0.0032442,0.000106052,0.00110416,0.000437218,-0.00357536,1.27941,0.00254188,0.0135172,1980,1030,17.288,-3.54031
763,-6,17.3049,3.55615,-0.00346762,5.74142e-05,0.000323438,8.68454e-05,-0.00349706,1.48005,0.00236085,0.0123788,1987,1030,17.3049,-3.55612
770,-6,17.2991,3.58582,-0.00382259,-9.11991e-05,-0.000532925,-1.65782e-05,-0.00389721,-1.43168,0.00259263,0.0110411,1994,1030,17.2991,-3.58586
777,-6,17.269,3.58899,-0.00452127,-0.000238501,-0.00116822,5.9434e-05,-0.0048192,-1.32109,0.00323279,0.013111,2001,1030,17.269,-3.58903
784,-6,17.3035,3.57092,-0.00590632,-0.000114017,-0.00133867,0.000180399,-0.00620074,-1.35431,0.00419525,0.0324717,2008,1030,17.3035,-3.57088
791,-6,17.3613,3.64136,-0.00832351,0.000256823,-0.00106884,0.000387964,-0.00845465,-1.44871,0.0057701,0.0467942,2015,1030,17.3613,-3.64131
798,-6,17.3242,3.65356,-0.0117017,0.00116071,-0.000444072,0.00117602,-0.0117171,-1.53633,0.00823143,0.0477582,2022,1030,17.3242,-3.65357
805,-6,16.5206,4.29688,-0.0162269,0.00302769,0.000565977,0.00304431,-0.0162435,1.54144,0.0119735,0.0428933,2029,1030,16.5206,-4.29687
812,-6,16.0596,4.27405,-0.02233,0.00653712,0.00203422,0.00667976,-0.0224727,1.50079,0.0176352,0.0437953,2036,1030,16.0596,-4.27407
-700,-13,0,0,0,0,0,0,0,0,0,-1,524,1037,0,0
-693,-13,-8.64996,5.07092,-0.0175092,0.0125779,-0.0630685,0.0623722,-0.0673034,-0.902474,0.0748863,0.0470276,531,1037,-8.64996,-5.07087
-686,-13,-8.77905,4.72986,-0.0184425,0.0148383,-0.0463754,0.0474684,-0.0510725,-0.957653,0.0569053,0.0458996,538,1037,-8.77907,-4.7298
-679,-13,-9.16595,4.28271,-0.0179034,0.0146004,-0.033549,0.0356266,-0.0389296,-1.01095,0.0430592,0.04675,545,1037,-9.16595,-4.28268
-672,-13,-11.7138,-0.343506,0,0,0,0,0,0,0,-1,552,1037,-11.7138,0.343473
-665,-13,-11.7315,-0.29187,-0.0144579,0.0110444,-0.0159867,0.0187424,-0.0221558,-1.12204,0.02364,0.0474541,559,1037,-11.7315,0.291881
-658,-13,-11.5619,-0.186768,-0.0122072,0.00881154,-0.010235,0.012972,-0.0163676,-1.18471,0.016977,0.0452313,566,1037,-11.5619,0.186818
-651,-13,-11.4583,-0.0979004,0,0,0,0,0,0,0,-1,573,1037,-11.4583,0.0979456
-644,-13,-11.3893,1.1554,-0.00770474,0.00537915,-0.00317018,0.0061068,-0.00843239,-1.34517,0.00842993,0.0301547,580,1037,-11.3894,-1.15539
-637,-13,-11.3932,1.24304,-0.0060486,0.0038242,-0.000370753,0.00383811,-0.0060625,-1.53331,0.00576401,0.0194157,587,1037,-11.3932,-1.24304
-630,-13,-11.4024,1.22314,-0.00433996,0.00140109,-0.000137409,0.00140438,-0.00434324,-1.54688,0.00345997,0.0128269,594,1037,-11.4024,-1.22317
-623,-13,-11.4044,1.24622,-0.00258963,0.000288908,-0.000797759,0.000495213,-0.00279593,-1.31773,0.00204907,0.0114879,601,1037,-11.4044,-1.24623
-616,-13,-11.3894,1.245,-0.00132273,-0.000609798,-0.00192877,0.000995166,-0.00292769,-0.876774,0.00235469,0.0107656,608,1037,-11.3894,-1.24494
-609,-13,-11.3583,1.25708,-0.000538135,-0.000354331,-0.00295934,0.00251453,-0.003407,-0.800921,0.00343172,0.0147658,615,1037,-11.3583,-1.2571
-602,-13,-11.3822,1.25879,-0.000166507,0.000139723,-0.00381241,0.00380209,-0.00382887,-0.805469,0.00440575,0.0108613,622,1037,-11.3822,-1.25879
-595,-13,-11.3651,1.23743,-0.000159616,0.000529479,-0.0042429,0.0044418,-0.00407193,-0.825912,0.00491695,0.0158069,629,1037,-11.3651,-1.23746
-588,-13,-11.2859,0.863525,-0.000348494,0.000711294,-0.00432929,0.004543,-0.0041802,-0.846294,0.00503779,0.0244698,636,1037,-11.2859,-0.863569
-581,-13,-11.4056,0.628174,-0.000543288,0.00132366,-0.00418806,0.00468101,-0.00390064,-0.895051,0.00496144,0.0245318,643,1037,-11.4056,-0.628191
-574,-13,-11.3917,0.5625,-0.000810406,0.00189393,-0.00371415,0.00449439,-0.00341087,-0.95997,0.00457837,0.033792,650,1037,-11.3917,-0.562471
-567,-13,-11.4808,0.701294,-0.00124724,0.00268605,-0.00296317,0.00427582,-0.00283701,-1.07837,0.0041345,0.0401607,657,1037,-11.4808,-0.701293
-560,-13,-11.3968,0.474365,-0.00186512,0.00364267,-0.00205137,0.00432273,-0.00254518,-1.25068,0.00400922,0.0417861,664,1037,-11.3968,-0.474406
-553,-13,-11.2111,0.314453,-0.00274152,0.00474125,-0.00111131,0.00490281,-0.00290308,-1.42643,0.00455576,0.0428886,671,1037,-11.2111,-0.314452
-546,-13,-11.3228,0.840088,-0.00394023,0.00595386,-0.000332325,0.00596501,-0.00395138,-1.53726,0.00576444,0.041792,678,1037,-11.3228,-0.840033
-539,-13,-11.5043,1.02783,-0.00550489,0.00719509,-0.000312231,0.00720276,-0.00551256,-1.54623,0.00736278,0.0411742,685,1037,-11.5043,-1.02788
-532,-13,-11.5377,0.712402,-0.00761281,0.00875798,-0.00215011,0.00903566,-0.0078905,-1.44236,0.00977977,0.0405268,692,1037,-11.5377,-0.712411
-525,-13,0,0,0,0,0,0,0,0,0,-1,699,1037,0,0
-518,-13,0,0,0,0,0,0,0,0,0,-1,706,1037,0,0
-511,-13,0,0,0,0,0,0,0,0,0,-1,713,1037,0,0
-504,-13,0,0,0,0,0,0,0,0,0,-1,720,1037,0,0
-497,-13,0,0,0,0,0,0,0,0,0,-1,727,1037,0,0
-490,-13,0,0,0,0,0,0,0,0,0,-1,734,1037,0,0
-483,-13,0,0,0,0,0,0,0,0,0,-1,741,1037,0,0
-476,-13,0,0,0,0,0,0,0,0,0,-1,748,1037,0,0
-469,-13,0,0,0,0,0,0,0,0,0,-1,755,1037,0,0
-462,-13,0,0,0,0,0,0,0,0,0,-1,762,1037,0,0
-455,-13,0,0,0,0,0,0,0,0,0,-1,769,1037,0,0
-448,-13,0,0,0,0,0,0,0,0,0,-1,776,1037,0,0
-441,-13,0,0,0,0,0,0,0,0,0,-1,783,1037,0,0
-434,-13,0,0,0,0,0,0,0,0,0,-1,790,1037,0,0
-427,-13,0,0,0,0,0,0,0,0,0,-1,797,1037,0,0
-420,-13,0,0,0,0,0,0,0,0,0,-1,804,1037,0,0
-413,-13,0,0,0,0,0,0,0,0,0,-1,811,1037,0,0
-406,-13,0,0,0,0,0,0,0,0,0,-1,818,1037,0,0
-399,-13,0,0,0,0,0,0,0,0,0,-1,825,1037,0,0
-392,-13,0,0,0,0,0,0,0,0,0,-1,832,1037,0,0
-385,-13,0,0,0,0,0,0,0,0,0,-1,839,1037,0,0
-378,-13,0,0,0,0,0,0,0,0,0,-1,846,1037,0,0
-371,-13,0,0,0,0,0,0,0,0,0,-1,853,1037,0,0
-364,-13,0,0,0,0,0,0,0,0,0,-1,860,1037,0,0
-357,-13,0,0,0,0,0,0,0,0,0,-1,867,1037,0,0
-350,-13,0,0,0,0,0,0,0,0,0,-1,874,1037,0,0
-343,-13,0,0,0,0,0,0,0,0,0,-1,881,1037,0,0
-336,-13,0,0,0,0,0,0,0,0,0,-1,888,1037,0,0
-329,-13,0,0,0,0,0,0,0,0,0,-1,895,1037,0,0
-322,-13,0,0,0,0,0,0,0,0,0,-1,902,1037,0,0
-315,-13,0,0,0,0,0,0,0,0,0,-1,909,1037,0,0
-308,-13,0,0,0,0,0,0,0,0,0,-1,916,1037,0,0
-301,-13,0,0,0,0,0,0,0,0,0,-1,923,1037,0,0
-294,-13,0,0,0,0,0,0,0,0,0,-1,930,1037,0,0
-287,-13,0,0,0,0,0,0,0,0,0,-1,937,1037,0,0
-280,-13,0,0,0,0,0,0,0,0,0,-1,944,1037,0,0
-273,-13,0,0,0,0,0,0,0,0,0,-1,951,1037,0,0
-266,-13,0,0,0,0,0,0,0,0,0,-1,958,1037,0,0
-259,-13,0,0,0,0,0,0,0,0,0,-1,965,1037,0,0
-252,-13,0,0,0,0,0,0,0,0,0,-1,972,1037,0,0
-245,-13,0,0,0,0,0,0,0,0,0,-1,979,1037,0,0
-238,-13,0,0,0,0,0,0,0,0,0,-1,986,1037,0,0
-231,-13,0,0,0,0,0,0,0,0,0,-1,993,1037,0,0
-224,-13,0,0,0,0,0,0,0,0,0,-1,1000,1037,0,0
-217,-13,0,0,0,0,0,0,0,0,0,-1,1007,1037,0,0
-210,-13,0,0,0,0,0,0,0,0,0,-1,1014,1037,0,0
-203,-13,0,0,0,0,0,0,0,0,0,-1,1021,1037,0,0
-196,-13,0,0,0,0,0,0,0,0,0,-1,1028,1037,0,0
-189,-13,0,0,0,0,0,0,0,0,0,-1,1035,1037,0,0
-182,-13,0,0,0,0,0,0,0,0,0,-1,1042,1037,0,0
-175,-13,0,0,0,0,0,0,0,0,0,-1,1049,1037,0,0
-168,-13,0,0,0,0,0,0,0,0,0,-1,1056,1037,0,0
-161,-13,0,0,0,0,0,0,0,0,0,-1,1063,1037,0,0
-154,-13,0,0,0,0,0,0,0,0,0,-1,1070,1037,0,0
-147,-13,0,0,0,0,0,0,0,0,0,-1,1077,1037,0,0
-140,-13,0,0,0,0,0,0,0,0,0,-1,1084,1037,0,0
-133,-13,0,0,0,0,0,0,0,0,0,-1,1091,1037,0,0
-126,-13,0,0,0,0,0,0,0,0,0,-1,1098,1037,0,0
-119,-13,0,0,0,0,0,0,0,0,0,-1,1105,1037,0,0
-112,-13,0,0,0,0,0,0,0,0,0,-1,1112,1037,0,0
-105,-13,0,0,0,0,0,0,0,0,0,-1,1119,1037,0,0
-98,-13,0,0,0,0,0,0,0,0,0,-1,1126,1037,0,0
-91,-13,0,0,0,0,0,0,0,0,0,-1,1133,1037,0,0
-84,-13,0,0,0,0,0,0,0,0,0,-1,1140,1037,0,0
-77,-13,0,0,0,0,0,0,0,0,0,-1,1147,1037,0,0
-70,-13,0,0,0,0,0,0,0,0,0,-1,1154,1037,0,0
-63,-13,0,0,0,0,0,0,0,0,0,-1,1161,1037,0,0
-56,-13,0,0,0,0,0,0,0,0,0,-1,1168,1037,0,0
-49,-13,0,0,0,0,0,0,0,0,0,-1,1175,1037,0,0
-42,-13,0,0,0,0,0,0,0,0,0,-1,1182,1037,0,0
-35,-13,0,0,0,0,0,0,0,0,0,-1,1189,1037,0,0
-28,-13,0,0,0,0,0,0,0,0,0,-1,1196,1037,0,0
-21,-13,0,0,0,0,0,0,0,0,0,-1,1203,1037,0,0
-14,-13,0,0,0,0,0,0,0,0,0,-1,1210,1037,0,0
-7,-13,0,0,0,0,0,0,0,0,0,-1,1217,1037,0,0
0,-13,0,0,0,0,0,0,0,0,0,-1,1224,1037,0,0
7,-13,0,0,0,0,0,0,0,0,0,-1,1231,1037,0,0
14,-13,0,0,0,0,0,0,0,0,0,-1,1238,1037,0,0
21,-13,0,0,0,0,0,0,0,0,0,-1,1245,1037,0,0
28,-13,0,0,0,0,0,0,0,0,0,-1,1252,1037,0,0
35,-13,0,0,0,0,0,0,0,0,0,-1,1259,1037,0,0
42,-13,0,0,0,0,0,0,0,0,0,-1,1266,1037,0,0
49,-13,0,0,0,0,0,0,0,0,0,-1,1273,1037,0,0
56,-13,0,0,0,0,0,0,0,0,0,-1,1280,1037,0,0
63,-13,0,0,0,0,0,0,0,0,0,-1,1287,1037,0,0
70,-13,0,0,0,0,0,0,0,0,0,-1,1294,1037,0,0
77,-13,0,0,0,0,0,0,0,0,0,-1,1301,1037,0,0
84,-13,0,0,0,0,0,0,0,0,0,-1,1308,1037,0,0
91,-13,0,0,0,0,0,0,0,0,0,-1,1315,1037,0,0
98,-13,0,0,0,0,0,0,0,0,0,-1,1322,1037,0,0
105,-13,0,0,0,0,0,0,0,0,0,-1,1329,1037,0,0
112,-13,0,0,0,0,0,0,0,0,0,-1,1336,1037,0,0
119,-13,0,0,0,0,0,0,0,0,0,-1,1343,1037,0,0
126,-13,0,0,0,0,0,0,0,0,0,-1,1350,1037,0,0
133,-13,0,0,0,0,0,0,0,0,0,-1,1357,1037,0,0
140,-13,0,0,0,0,0,0,0,0,0,-1,1364,1037,0,0
147,-13,0,0,0,0,0,0,0,0,0,-1,1371,1037,0,0
154,-13,0,0,0,0,0,0,0,0,0,-1,1378,1037,0,0
161,-13,0,0,0,0,0,0,0,0,0,-1,1385,1037,0,0
168,-13,0,0,0,0,0,0,0,0,0,-1,1392,1037,0,0
175,-13,0,0,0,0,0,0,0,0,0,-1,1399,1037,0,0
182,-13,0,0,0,0,0,0,0,0,0,-1,1406,1037,0,0
189,-13,0,0,0,0,0,0,0,0,0,-1,1413,1037,0,0
196,-13,0,0,0,0,0,0,0,0,0,-1,1420,1037,0,0
203,-13,0,0,0,0,0,0,0,0,0,-1,1427,1037,0,0
210,-13,0,0,0,0,0,0,0,0,0,-1,1434,1037,0,0
217,-13,0,0,0,0,0,0,0,0,0,-1,1441,1037,0,0
224,-13,0,0,0,0,0,0,0,0,0,-1,1448,1037,0,0
231,-13,0,0,0,0,0,0,0,0,0,-1,1455,1037,0,0
238,-13,0,0,0,0,0,0,0,0,0,-1,1462,1037,0,0
245,-13,0,0,0,0,0,0,0,0,0,-1,1469,1037,0,0
252,-13,0,0,0,0,0,0,0,0,0,-1,1476,1037,0,0
259,-13,0,0,0,0,0,0,0,0,0,-1,1483,1037,0,0
266,-13,0,0,0,0,0,0,0,0,0,-1,1490,1037,0,0
273,-13,0,0,0,0,0,0,0,0,0,-1,1497,1037,0,0
280,-13,0,0,0,0,0,0,0,0,0,-1,1504,1037,0,0
287,-13,0,0,0,0,0,0,0,0,0,-1,1511,1037,0,0
294,-13,0,0,0,0,0,0,0,0,0,-1,1518,1037,0,0
301,-13,0,0,0,0,0,0,0,0,0,-1,1525,1037,0,0
308,-13,0,0,0,0,0,0,0,0,0,-1,1532,1037,0,0
315,-13,0,0,0,0,0,0,0,0,0,-1,1539,1037,0,0
322,-13,0,0,0,0,0,0,0,0,0,-1,1546,1037,0,0
329,-13,0,0,0,0,0,0,0,0,0,-1,1553,1037,0,0
336,-13,0,0,0,0,0,0,0,0,0,-1,1560,1037,0,0
343,-13,0,0,0,0,0,0,0,0,0,-1,1567,1037,0,0
350,-13,0,0,0,0,0,0,0,0,0,-1,1574,1037,0,0
357,-13,0,0,0,0,0,0,0,0,0,-1,1581,1037,0,0
364,-13,0,0,0,0,0,0,0,0,0,-1,1588,1037,0,0
371,-13,0,0,0,0,0,0,0,0,0,-1,1595,1037,0,0
378,-13,0,0,0,0,0,0,0,0,0,-1,1602,1037,0,0
385,-13,0,0,0,0,0,0,0,0,0,-1,1609,1037,0,0
392,-13,0,0,0,0,0,0,0,0,0,-1,1616,1037,0,0
399,-13,0,0,0,0,0,0,0,0,0,-1,1623,1037,0,0
406,-13,0,0,0,0,0,0,0,0,0,-1,1630,1037,0,0
413,-13,0,0,0,0,0,0,0,0,0,-1,1637,1037,0,0
420,-13,0,0,0,0,0,0,0,0,0,-1,1644,1037,0,0
427,-13,0,0,0,0,0,0,0,0,0,-1,1651,1037,0,0
434,-13,0,0,0,0,0,0,0,0,0,-1,1658,1037,0,0
441,-13,0,0,0,0,0,0,0,0,0,-1,1665,1037,0,0
448,-13,0,0,0,0,0,0,0,0,0,-1,1672,1037,0,0
455,-13,0,0,0,0,0,0,0,0,0,-1,1679,1037,0,0
462,-13,0,0,0,0,0,0,0,0,0,-1,1686,1037,0,0
469,-13,0,0,0,0,0,0,0,0,0,-1,1693,1037,0,0
476,-13,0,0,0,0,0,0,0,0,0,-1,1700,1037,0,0
483,-13,0,0,0,0,0,0,0,0,0,-1,1707,1037,0,0
490,-13,0,0,0,0,0,0,0,0,0,-1,1714,1037,0,0
497,-13,0,0,0,0,0,0,0,0,0,-1,1721,1037,0,0
504,-13,0,0,0,0,0,0,0,0,0,-1,1728,1037,0,0
511,-13,0,0,0,0,0,0,0,0,0,-1,1735,1037,0,0
518,-13,0,0,0,0,0,0,0,0,0,-1,1742,1037,0,0
525,-13,0,0,0,0,0,0,0,0,0,-1,1749,1037,0,0
532,-13,0,0,0,0,0,0,0,0,0,-1,1756,1037,0,0
539,-13,0,0,0,0,0,0,0,0,0,-1,1763,1037,0,0
546,-13,0,0,0,0,0,0,0,0,0,-1,1770,1037,0,0
553,-13,0,0,0,0,0,0,0,0,0,-1,1777,1037,0,0
560,-13,0,0,0,0,0,0,0,0,0,-1,1784,1037,0,0
567,-13,0,0,0,0,0,0,0,0,0,-1,1791,1037,0,0
574,-13,0,0,0,0,0,0,0,0,0,-1,1798,1037,0,0
581,-13,0,0,0,0,0,0,0,0,0,-1,1805,1037,0,0
588,-13,0,0,0,0,0,0,0,0,0,-1,1812,1037,0,0
595,-13,0,0,0,0,0,0,0,0,0,-1,1819,1037,0,0
602,-13,0,0,0,0,0,0,0,0,0,-1,1826,1037,0,0
609,-13,0,0,0,0,0,0,0,0,0,-1,1833,1037,0,0
616,-13,0,0,0,0,0,0,0,0,0,-1,1840,1037,0,0
623,-13,0,0,0,0,0,0,0,0,0,-1,1847,1037,0,0
630,-13,0,0,0,0,0,0,0,0,0,-1,1854,1037,0,0
637,-13,0,0,0,0,0,0,0,0,0,-1,1861,1037,0,0
644,-13,0,0,0,0,0,0,0,0,0,-1,1868,1037,0,0
651,-13,17.8608,2.63379,-0.00218244,-0.002214,0.000722881,-0.00147516,-0.00292127,0.774485,0.00168662,0.0388515,1875,1037,17.8609,-2.63375
658,-13,17.7706,2.60291,-0.00140447,-0.00156333,0.000148878,-0.00131515,-0.00165264,0.540346,0.00100827,0.042618,1882,1037,17.7706,-2.60289
665,-13,17.7388,2.57861,-0.000968824,-0.000979069,-0.000176656,-0.000797216,-0.00115068,-0.770904,0.000680612,0.0431759,1889,1037,17.7388,-2.57855
672,-13,17.7742,2.53186,-0.000601214,-0.000455958,9.81201e-06,-0.000455299,-0.000601874,1.50365,0.00036241,0.0372897,1896,1037,17.7742,-2.53184
679,-13,17.7252,2.58813,-0.000754031,4.37522e-06,0.000703108,0.000424019,-0.00117367,1.0327,0.000955676,0.0376063,1903,1037,17.7253,-2.58808
686,-13,17.6893,2.61353,-0.00125203,0.000313691,0.00155858,0.00127497,-0.00221331,1.01814,0.00203811,0.0384668,1910,1037,17.6893,-2.61354
693,-13,17.6222,2.68286,-0.00175819,0.000498378,0.0023724,0.00199713,-0.00325694,1.00736,0.00306237,0.0382013,1917,1037,17.6221,-2.68282
700,-13,17.6416,2.62415,-0.00229662,0.000615224,0.00305927,0.00254735,-0.00422874,1.00749,0.00395212,0.0358751,1924,1037,17.6416,-2.62413
707,-13,17.6646,2.55505,-0.00268033,0.000671786,0.0035147,0.0028896,-0.00489815,1.00789,0.00454583,0.0301896,1931,1037,17.6646,-2.55508
714,-13,17.6783,2.58301,-0.00301226,0.000717258,0.00385499,0.00313482,-0.00542983,1.01067,0.00500363,0.029683,1938,1037,17.6784,-2.583
721,-13,17.6648,2.9425,-0.00336866,0.000791974,0.00411265,0.00332052,-0.00589721,1.01955,0.00539072,0.0359752,1945,1037,17.6648,-2.94249
728,-13,17.441,3.46155,-0.00366775,0.00078254,0.00408345,0.00320775,-0.00609297,1.03486,0.00545522,0.029237,1952,1037,17.441,-3.46157
735,-13,17.3134,3.52222,-0.00350052,0.000720973,0.00361731,0.00279832,-0.00557788,1.0495,0.00492396,0.018078,1959,1037,17.3134,-3.52218
742,-13,17.3036,3.53735,-0.00298017,0.00047873,0.00297982,0.00219461,-0.00469605,1.04834,0.00406477,0.0108721,1966,1037,17.3035,-3.53741
749,-13,17.3123,3.53186,-0.00283186,0.000296721,0.00239579,0.00159369,-0.00412884,1.07462,0.00341026,0.0154767,1973,1037,17.3123,-3.53192
756,-13,17.3223,3.53918,-0.00273883,0.000249247,0.00181657,0.00110725,-0.00359683,1.12954,0.00283986,0.0128829,1980,1037,17.3223,-3.53921
763,-13,17.3221,3.55933,-0.00285778,0.000598809,0.00117449,0.000960114,-0.00321908,1.27236,0.00252763,0.0131024,1987,1037,17.3222,-3.55928
770,-13,17.3038,3.57227,-0.00308978,0.000842741,0.000468142,0.000897703,-0.00314474,1.45393,0.00245115,0.0116721,1994,1037,17.3038,-3.57232
777,-13,17.2719,3.56372,-0.00369059,0.00129102,2.86142e-05,0.00129118,-0.00369075,1.56505,0.00298546,0.0102529,2001,1037,17.2718,-3.56377
784,-13,17.2898,3.58899,-0.00503701,0.0022028,7.6025e-05,0.0022036,-0.00503781,1.5603,0.00428624,0.0244498,2008,1037,17.2898,-3.589
791,-13,17.3066,3.60352,-0.00753103,0.00368376,0.000516979,0.00370754,-0.00755481,1.52483,0.00662758,0.045769,2015,1037,17.3067,-3.6035
798,-13,17.1571,3.65503,-0.0111365,0.00614729,0.001183,0.00622788,-0.0112171,1.50277,0.0102083,0.0470605,2022,1037,17.1571,-3.65506
805,-13,16.9489,3.81409,-0.0161251,0.0101997,0.00200678,0.0103518,-0.0162772,1.49515,0.0155006,0.0410975,2029,1037,16.9489,-3.81406
812,-13,16.6184,4.1134,-0.0230494,0.016774,0.00289288,0.0169831,-0.0232584,1.49866,0.0233274,0.0409467,2036,1037,16.6185,-4.11343
-700,-20,-8.60223,5.65405,0,0,0,0,0,0,0,-1,524,1044,-8.60221,-5.654
-693,-20,-8.52875,5.41101,-0.0212991,0.0208254,-0.0619267,0.0651736,-0.0656474,-0.949319,0.0755297,0.0456756,531,1044,-8.52877,-5.41102
-686,-20,-9.91913,1.69897,-0.0205113,0.0218899,-0.0452258,0.0506376,-0.0492591,-1.00458,0.0576772,0.0430453,538,1044,-9.91913,-1.69899
-679,-20,-10.6241,1.46851,-0.0187718,0.0203783,-0.0324877,0.0387325,-0.0371261,-1.05654,0.0438003,0.0443812,545,1044,-10.6241,-1.46849
-672,-20,-11.5071,0.228516,0,0,0,0,0,0,0,-1,552,1044,-11.5072,-0.22849
-665,-20,-11.5344,0.24646,-0.0139626,0.0144693,-0.0152643,0.0211122,-0.0206055,-1.16032,0.0240863,0.0471536,559,1044,-11.5344,-0.246465
-658,-20,-11.5132,0.276978,-0.0114057,0.0112815,-0.00971024,0.0148699,-0.0149942,-1.21681,0.0172421,0.0440008,566,1044,-11.5132,-0.276989
-651,-20,-11.4417,0.645508,-0.00896635,0.00834293,-0.00574678,0.0100771,-0.0107006,-1.27772,0.0119978,0.0386917,573,1044,-11.4417,-0.645518
-644,-20,-11.351,1.13696,-0.00682111,0.00661416,-0.00289831,0.00721273,-0.00741968,-1.36714,0.00844831,0.0262699,580,1044,-11.351,-1.13694
-637,-20,-11.3777,1.18091,-0.00511033,0.00446826,-0.00026139,0.00447538,-0.00511746,-1.54353,0.00554256,0.0164852,587,1044,-11.3777,-1.18085
-630,-20,-11.3953,1.21997,-0.00344205,0.00144289,-0.000306516,0.00146204,-0.0034612,-1.50838,0.00291951,0.0135269,594,1044,-11.3953,-1.22003
-623,-20,-11.3887,1.22852,-0.00195771,9.43075e-05,-0.00102745,0.000520314,-0.00238372,-1.17775,0.001788,0.0128479,601,1044,-11.3888,-1.22846
-616,-20,-11.3881,1.23779,-0.00104835,-0.000778555,-0.00216352,0.00125427,-0.00308117,-0.816533,0.00257608,0.0115919,608,1044,-11.3881,-1.23778
-609,-20,-11.3765,1.26111,-0.00047533,-0.00045944,-0.00322804,0.00276067,-0.00369544,-0.786629,0.00374043,0.0124101,615,1044,-11.3765,-1.26112
-602,-20,-11.3796,1.26062,-0.000212991,5.41811e-05,-0.00406514,0.00398793,-0.00414674,-0.801823,0.00469685,0.00976463,622,1044,-11.3796,-1.26064
-595,-20,-11.3786,1.24036,-0.000257285,0.000460758,-0.00448955,0.00460562,-0.00440214,-0.825297,0.00520107,0.0130322,629,1044,-11.3786,-1.24041
-588,-20,-11.3648,0.903809,-0.000469909,0.000695904,-0.00458123,0.00473116,-0.00450516,-0.848677,0.00533312,0.0207222,636,1044,-11.3648,-0.903842
-581,-20,-11.3861,0.635254,-0.000663615,0.00139297,-0.00444787,0.00492987,-0.00420051,-0.898996,0.00527703,0.0310871,643,1044,-11.3861,-0.635257
-574,-20,-11.4128,0.733887,-0.00091567,0.002094,-0.00395925,0.00482475,-0.00364642,-0.967007,0.00490658,0.0384993,650,1044,-11.4128,-0.733903
-567,-20,-11.4003,0.918213,-0.00132467,0.00303147,-0.00319088,0.00471678,-0.00300998,-1.08487,0.00449718,0.0429677,657,1044,-11.4003,-0.918166
-560,-20,-11.2845,1.39856,0,0,0,0,0,0,0,-1,664,1044,-11.2845,-1.39854
-553,-20,-11.2923,0.675171,-0.00271447,0.00551278,-0.00122086,0.00569012,-0.00289182,-1.42654,0.00504182,0.0433713,671,1044,-11.2923,-0.675115
-546,-20,-11.3241,0.839233,-0.00384372,0.00702356,-0.000314925,0.00703268,-0.00385284,-1.54185,0.00637351,0.0416467,678,1044,-11.3241,-0.839293
-539,-20,-11.629,1.01904,-0.00534824,0.0086286,-0.000127641,0.00862977,-0.00534941,-1.56167,0.00814462,0.0444861,685,1044,-11.6291,-1.01907
-532,-20,-11.6207,0.156982,0,0,0,0,0,0,0,-1,692,1044,-11.6207,-0.157031
-525,-20,0,0,0,0,0,0,0,0,0,-1,699,1044,0,0
-518,-20,0,0,0,0,0,0,0,0,0,-1,706,1044,0,0
-511,-20,0,0,0,0,0,0,0,0,0,-1,713,1044,0,0
-504,-20,0,0,0,0,0,0,0,0,0,-1,720,1044,0,0
-497,-20,0,0,0,0,0,0,0,0,0,-1,727,1044,0,0
-490,-20,0,0,0,0,0,0,0,0,0,-1,734,1044,0,0
-483,-20,0,0,0,0,0,0,0,0,0,-1,741,1044,0,0
-476,-20,0,0,0,0,0,0,0,0,0,-1,748,1044,0,0
-469,-20,0,0,0,0,0,0,0,0,0,-1,755,1044,0,0
-462,-20,0,0,0,0,0,0,0,0,0,-1,762,1044,0,0
-455,-20,0,0,0,0,0,0,0,0,0,-1,769,1044,0,0
-448,-20,0,0,0,0,0,0,0,0,0,-1,776,1044,0,0
-441,-20,0,0,0,0,0,0,0,0,0,-1,783,1044,0,0
-434,-20,0,0,0,0,0,0,0,0,0,-1,790,1044,0,0
-427,-20,0,0,0,0,0,0,0,0,0,-1,797,1044,0,0
-420,-20,0,0,0,0,0,0,0,0,0,-1,804,1044,0,0
-413,-20,0,0,0,0,0,0,0,0,0,-1,811,1044,0,0
-406,-20,0,0,0,0,0,0,0,0,0,-1,818,1044,0,0
-399,-20,0,0,0,0,0,0,0,0,0,-1,825,1044,0,0
-392,-20,0,0,0,0,0,0,0,0,0,-1,832,1044,0,0
-385,-20,0,0,0,0,0,0,0,0,0,-1,839,1044,0,0
-378,-20,0,0,0,0,0,0,0,0,0,-1,846,1044,0,0
-371,-20,0,0,0,0,0,0,0,0,0,-1,853,1044,0,0
-364,-20,0,0,0,0,0,0,0,0,0,-1,860,1044,0,0
-357,-20,0,0,0,0,0,0,0,0,0,-1,867,1044,0,0
-350,-20,0,0,0,0,0,0,0,0,0,-1,874,1044,0,0
-343,-20,0,0,0,0,0,0,0,0,0,-1,881,1044,0,0
-336,-20,0,0,0,0,0,0,0,0,0,-1,888,1044,0,0
-329,-20,0,0,0,0,0,0,0,0,0,-1,895,1044,0,0
-322,-20,0,0,0,0,0,0,0,0,0,-1,902,1044,0,0
-315,-20,0,0,0,0,0,0,0,0,0,-1,909,1044,0,0
-308,-20,0,0,0,0,0,0,0,0,0,-1,916,1044,0,0
-301,-20,0,0,0,0,0,0,0,0,0,-1,923,1044,0,0
-294,-20,0,0,0,0,0,0,0,0,0,-1,930,1044,0,0
-287,-20,0,0,0,0,0,0,0,0,0,-1,937,1044,0,0
-280,-20,0,0,0,0,0,0,0,0,0,-1,944,1044,0,0
-273,-20,0,0,0,0,0,0,0,0,0,-1,951,1044,0,0
-266,-20,0,0,0,0,0,0,0,0,0,-1,958,1044,0,0
-259,-20,0,0,0,0,0,0,0,0,0,-1,965,1044,0,0
-252,-20,0,0,0,0,0,0,0,0,0,-1,972,1044,0,0
-245,-20,0,0,0,0,0,0,0,0,0,-1,979,1044,0,0
-238,-20,0,0,0,0,0,0,0,0,0,-1,986,1044,0,0
-231,-20,0,0,0,0,0,0,0,0,0,-1,993,1044,0,0
-224,-20,0,0,0,0,0,0,0,0,0,-1,1000,1044,0,0
-217,-20,0,0,0,0,0,0,0,0,0,-1,1007,1044,0,0
-210,-20,0,0,0,0,0,0,0,0,0,-1,1014,1044,0,0
-203,-20,0,0,0,0,0,0,0,0,0,-1,1021,1044,0,0
-196,-20,0,0,0,0,0,0,0,0,0,-1,1028,1044,0,0
-189,-20,0,0,0,0,0,0,0,0,0,-1,1035,1044,0,0
-182,-20,0,0,0,0,0,0,0,0,0,-1,1042,1044,0,0
-175,-20,0,0,0,0,0,0,0,0,0,-1,1049,1044,0,0
-168,-20,0,0,0,0,0,0,0,0,0,-1,1056,1044,0,0
-161,-20,0,0,0,0,0,0,0,0,0,-1,1063,1044,0,0
-154,-20,0,0,0,0,0,0,0,0,0,-1,1070,1044,0,0
-147,-20,0,0,0,0,0,0,0,0,0,-1,1077,1044,0,0
-140,-20,0,0,0,0,0,0,0,0,0,-1,1084,1044,0,0
-133,-20,0,0,0,0,0,0,0,0,0,-1,1091,1044,0,0
-126,-20,0,0,0,0,0,0,0,0,0,-1,1098,1044,0,0
-119,-20,0,0,0,0,0,0,0,0,0,-1,1105,1044,0,0
-112,-20,0,0,0,0,0,0,0,0,0,-1,1112,1044,0,0
-105,-20,0,0,0,0,0,0,0,0,0,-1,1119,1044,0,0
-98,-20,0,0,0,0,0,0,0,0,0,-1,1126,1044,0,0
-91,-20,0,0,0,0,0,0,0,0,0,-1,1133,1044,0,0
-84,-20,0,0,0,0,0,0,0,0,0,-1,1140,1044,0,0
-77,-20,0,0,0,0,0,0,0,0,0,-1,1147,1044,0,0
-70,-20,0,0,0,0,0,0,0,0,0,-1,1154,1044,0,0
-63,-20,0,0,0,0,0,0,0,0,0,-1,1161,1044,0,0
-56,-20,0,0,0,0,0,0,0,0,0,-1,1168,1044,0,0
-49,-20,0,0,0,0,0,0,0,0,0,-1,1175,1044,0,0
-42,-20,0,0,0,0,0,0,0,0,0,-1,1182,1044,0,0
-35,-20,0,0,0,0,0,0,0,0,0,-1,1189,1044,0,0
-28,-20,0,0,0,0,0,0,0,0,0,-1,1196,1044,0,0
-21,-20,0,0,0,0,0,0,0,0,0,-1,1203,1044,0,0
-14,-20,0,0,0,0,0,0,0,0,0,-1,1210,1044,0,0
-7,-20,0,0,0,0,0,0,0,0,0,-1,1217,1044,0,0
0,-20,0,0,0,0,0,0,0,0,0,-1,1224,1044,0,0
7,-20,0,0,0,0,0,0,0,0,0,-1,1231,1044,0,0
14,-20,0,0,0,0,0,0,0,0,0,-1,1238,1044,0,0
21,-20,0,0,0,0,0,0,0,0,0,-1,1245,1044,0,0
28,-20,0,0,0,0,0,0,0,0,0,-1,1252,1044,0,0
35,-20,0,0,0,0,0,0,0,0,0,-1,1259,1044,0,0
42,-20,0,0,0,0,0,0,0,0,0,-1,1266,1044,0,0
49,-20,0,0,0,0,0,0,0,0,0,-1,1273,1044,0,0
56,-20,0,0,0,0,0,0,0,0,0,-1,1280,1044,0,0
63,-20,0,0,0,0,0,0,0,0,0,-1,1287,1044,0,0
70,-20,0,0,0,0,0,0,0,0,0,-1,1294,1044,0,0
77,-20,0,0,0,0,0,0,0,0,0,-1,1301,1044,0,0
84,-20,0,0,0,0,0,0,0,0,0,-1,1308,1044,0,0
91,-20,0,0,0,0,0,0,0,0,0,-1,1315,1044,0,0
98,-20,0,0,0,0,0,0,0,0,0,-1,1322,1044,0,0
105,-20,0,0,0,0,0,0,0,0,0,-1,1329,1044,0,0
112,-20,0,0,0,0,0,0,0,0,0,-1,1336,1044,0,0
119,-20,0,0,0,0,0,0,0,0,0,-1,1343,1044,0,0
126,-20,0,0,0,0,0,0,0,0,0,-1,1350,1044,0,0
133,-20,0,0,0,0,0,0,0,0,0,-1,1357,1044,0,0
140,-20,0,0,0,0,0,0,0,0,0,-1,1364,1044,0,0
147,-20,0,0,0,0,0,0,0,0,0,-1,1371,1044,0,0
154,-20,0,0,0,0,0,0,0,0,0,-1,1378,1044,0,0
161,-20,0,0,0,0,0,0,0,0,0,-1,1385,1044,0,0
168,-20,0,0,0,0,0,0,0,0,0,-1,1392,1044,0,0
175,-20,0,0,0,0,0,0,0,0,0,-1,1399,1044,0,0
182,-20,0,0,0,0,0,0,0,0,0,-1,1406,1044,0,0
189,-20,0,0,0,0,0,0,0,0,0,-1,1413,1044,0,0
196,-20,0,0,0,0,0,0,0,0,0,-1,1420,1044,0,0
203,-20,0,0,0,0,0,0,0,0,0,-1,1427,1044,0,0
210,-20,0,0,0,0,0,0,0,0,0,-1,1434,1044,0,0
217,-20,0,0,0,0,0,0,0,0,0,-1,1441,1044,0,0
224,-20,0,0,0,0,0,0,0,0,0,-1,1448,1044,0,0
231,-20,0,0,0,0,0,0,0,0,0,-1,1455,1044,0,0
238,-20,0,0,0,0,0,0,0,0,0,-1,1462,1044,0,0
245,-20,0,0,0,0,0,0,0,0,0,-1,1469,1044,0,0
252,-20,0,0,0,0,0,0,0,0,0,-1,1476,1044,0,0
259,-20,0,0,0,0,0,0,0,0,0,-1,1483,1044,0,0
266,-20,0,0,0,0,0,0,0,0,0,-1,1490,1044,0,0
273,-20,0,0,0,0,0,0,0,0,0,-1,1497,1044,0,0
280,-20,0,0,0,0,0,0,0,0,0,-1,1504,1044,0,0
287,-20,0,0,0,0,0,0,0,0,0,-1,1511,1044,0,0
294,-20,0,0,0,0,0,0,0,0,0,-1,1518,1044,0,0
301,-20,0,0,0,0,0,0,0,0,0,-1,1525,1044,0,0
308,-20,0,0,0,0,0,0,0,0,0,-1,1532,1044,0,0
315,-20,0,0,0,0,0,0,0,0,0,-1,1539,1044,0,0
322,-20,0,0,0,0,0,0,0,0,0,-1,1546,1044,0,0
329,-20,0,0,0,0,0,0,0,0,0,-1,1553,1044,0,0
336,-20,0,0,0,0,0,0,0,0,0,-1,1560,1044,0,0
343,-20,0,0,0,0,0,0,0,0,0,-1,1567,1044,0,0
350,-20,0,0,0,0,0,0,0,0,0,-1,1574,1044,0,0
357,-20,0,0,0,0,0,0,0,0,0,-1,1581,1044,0,0
364,-20,0,0,0,0,0,0,0,0,0,-1,1588,1044,0,0
371,-20,0,0,0,0,0,0,0,0,0,-1,1595,1044,0,0
378,-20,0,0,0,0,0,0,0,0,0,-1,1602,1044,0,0
385,-20,0,0,0,0,0,0,0,0,0,-1,1609,1044,0,0
392,-20,0,0,0,0,0,0,0,0,0,-1,1616,1044,0,0
399,-20,0,0,0,0,0,0,0,0,0,-1,1623,1044,0,0
406,-20,0,0,0,0,0,0,0,0,0,-1,1630,1044,0,0
413,-20,0,0,0,0,0,0,0,0,0,-1,1637,1044,0,0
420,-20,0,0,0,0,0,0,0,0,0,-1,1644,1044,0,0
427,-20,0,0,0,0,0,0,0,0,0,-1,1651,1044,0,0
434,-20,0,0,0,0,0,0,0,0,0,-1,1658,1044,0,0
441,-20,0,0,0,0,0,0,0,0,0,-1,1665,1044,0,0
448,-20,0,0,0,0,0,0,0,0,0,-1,1672,1044,0,0
455,-20,0,0,0,0,0,0,0,0,0,-1,1679,1044,0,0
462,-20,0,0,0,0,0,0,0,0,0,-1,1686,1044,0,0
469,-20,0,0,0,0,0,0,0,0,0,-1,1693,1044,0,0
476,-20,0,0,0,0,0,0,0,0,0,-1,1700,1044,0,0
483,-20,0,0,0,0,0,0,0,0,0,-1,1707,1044,0,0
490,-20,0,0,0,0,0,0,0,0,0,-1,1714,1044,0,0
497,-20,0,0,0,0,0,0,0,0,0,-1,1721,1044,0,0
504,-20,0,0,0,0,0,0,0,0,0,-1,1728,1044,0,0
511,-20,0,0,0,0,0,0,0,0,0,-1,1735,1044,0,0
518,-20,0,0,0,0,0,0,0,0,0,-1,1742,1044,0,0
525,-20,0,0,0,0,0,0,0,0,0,-1,1749,1044,0,0
532,-20,0,0,0,0,0,0,0,0,0,-1,1756,1044,0,0
539,-20,0,0,0,0,0,0,0,0,0,-1,1763,1044,0,0
546,-20,0,0,0,0,0,0,0,0,0,-1,1770,1044,0,0
553,-20,0,0,0,0,0,0,0,0,0,-1,1777,1044,0,0
560,-20,0,0,0,0,0,0,0,0,0,-1,1784,1044,0,0
567,-20,0,0,0,0,0,0,0,0,0,-1,1791,1044,0,0
574,-20,0,0,0,0,0,0,0,0,0,-1,1798,1044,0,0
581,-20,0,0,0,0,0,0,0,0,0,-1,1805,1044,0,0
588,-20,0,0,0,0,0,0,0,0,0,-1,1812,1044,0,0
595,-20,0,0,0,0,0,0,0,0,0,-1,1819,1044,0,0
602,-20,0,0,0,0,0,0,0,0,0,-1,1826,1044,0,0
609,-20,0,0,0,0,0,0,0,0,0,-1,1833,1044,0,0
616,-20,0,0,0,0,0,0,0,0,0,-1,1840,1044,0,0
623,-20,0,0,0,0,0,0,0,0,0,-1,1847,1044,0,0
630,-20,0,0,0,0,0,0,0,0,0,-1,1854,1044,0,0
637,-20,0,0,0,0,0,0,0,0,0,-1,1861,1044,0,0
644,-20,0,0,0,0,0,0,0,0,0,-1,1868,1044,0,0
651,-20,17.7633,2.80542,-0.00152768,-0.00168774,0.000844343,-0.000759581,-0.00245584,0.738149,0.00145185,0.0423428,1875,1044,17.7634,-2.80537
658,-20,17.7338,2.65002,-0.000901626,-0.00103879,0.000158629,-0.000797388,-0.00114303,0.581363,0.000676889,0.0427712,1882,1044,17.7337,-2.65001
665,-20,17.6967,2.45691,-0.000624958,-0.000488637,-0.000229698,-0.0003172,-0.000796395,-0.92963,0.000462959,0.0392501,1889,1044,17.6967,-2.45697
672,-20,17.6945,2.46204,-0.00038244,-4.8661e-05,-2.27286e-05,-4.71204e-05,-0.000383981,-1.50312,0.000241816,0.0260117,1896,1044,17.6945,-2.46203
679,-20,17.7272,2.54431,-0.0006421,0.00031933,0.000749598,0.000729112,-0.00105188,1.07051,0.00103387,0.0269323,1903,1044,17.7271,-2.54433
686,-20,17.7926,2.56812,-0.00123473,0.000537184,0.00170058,0.00156875,-0.00226629,1.02554,0.00222634,0.0355316,1910,1044,17.7926,-2.56807
693,-20,17.5576,2.57153,-0.00180887,0.000639418,0.00260608,0.00229454,-0.00346399,1.00497,0.00334746,0.0412721,1917,1044,17.5576,-2.57153
700,-20,17.6271,2.47168,-0.00237835,0.000689288,0.00337732,0.00286477,-0.00455383,0.998549,0.00431998,0.0360262,1924,1044,17.6271,-2.4717
707,-20,17.6411,2.44666,-0.00280048,0.000690834,0.00387852,0.00319844,-0.00530808,0.99686,0.00496133,0.0282117,1931,1044,17.6411,-2.44669
714,-20,17.6812,2.54004,-0.00314043,0.000683346,0.00426458,0.003445,-0.00590208,0.996126,0.00545834,0.0237821,1938,1044,17.6811,-2.54002
721,-20,17.7416,2.76611,-0.00347372,0.000706089,0.00454179,0.00361574,-0.00638337,1.00103,0.00584624,0.0222604,1945,1044,17.7416,-2.76614
728,-20,17.5195,3.22925,-0.00374162,0.00069988,0.00451257,0.00350854,-0.00655029,1.01406,0.00589531,0.0208029,1952,1044,17.5196,-3.22926
735,-20,17.2491,3.48047,-0.00353821,0.000665882,0.00408924,0.00316171,-0.00603404,1.02281,0.00539481,0.0154746,1959,1044,17.2491,-3.48048
742,-20,17.3031,3.5155,-0.00294485,0.000520549,0.00349546,0.0026892,-0.0051135,1.0155,0.00457679,0.0142645,1966,1044,17.3031,-3.51555
749,-20,17.3384,3.51709,-0.00266768,0.000444389,0.00288842,0.00216924,-0.00439254,1.03247,0.00386025,0.0161638,1973,1044,17.3384,-3.51711
756,-20,17.3409,3.52966,-0.00263243,0.000662406,0.00222417,0.00178282,-0.00375285,1.10416,0.00326279,0.0124117,1980,1044,17.3409,-3.52967
763,-20,17.3187,3.52698,-0.00290764,0.00134597,0.00142646,0.00178004,-0.00334171,1.2754,0.00300252,0.014273,1987,1044,17.3187,-3.52698
770,-20,17.3134,3.55933,-0.00327365,0.0020006,0.000570913,0.0020617,-0.00333474,1.4642,0.0031444,0.0132897,1994,1044,17.3133,-3.55938
777,-20,17.2866,3.56519,-0.00410623,0.00299402,-8.6283e-05,0.00299507,-0.00410728,-1.55865,0.00411727,0.0116475,2001,1044,17.2867,-3.56516
784,-20,17.297,3.58411,-0.00582506,0.00454296,-0.000325194,0.00455315,-0.00583525,-1.53947,0.00601295,0.0162746,2008,1044,17.2969,-3.58407
791,-20,17.3428,3.48804,-0.00884195,0.00677545,-0.000351145,0.00678334,-0.00884984,-1.54833,0.00905207,0.0362724,2015,1044,17.3428,-3.488
798,-20,17.4303,3.21582,-0.013094,0.0100628,-0.000420483,0.0100705,-0.0131017,-1.55265,0.0134166,0.043966,2022,1044,17.4303,-3.21578
805,-20,17.3323,3.17517,-0.0188263,0.0149166,-0.000694044,0.0149309,-0.0188406,-1.55024,0.0195415,0.0419331,2029,1044,17.3322,-3.17515
812,-20,17.1946,3.5144,-0.0265206,0.0220544,-0.00139504,0.0220944,-0.0265607,-1.54211,0.0281304,0.0425297,2036,1044,17.1945,-3.51436
-700,-27,-8.87183,3.09961,-0.0281188,0.0232591,-0.0806569,0.0822192,-0.0870788,-0.939568,0.0977577,0.0469039,524,1051,-8.8718,-3.09961
-693,-27,-9.2475,2.48145,-0.0265166,0.0288195,-0.0590353,0.0663487,-0.0640458,-1.00453,0.0752872,0.0427703,531,1051,-9.24747,-2.48139
-686,-27,-9.51233,1.82568,-0.0237191,0.0288253,-0.0427182,0.0527036,-0.0475974,-1.06109,0.0579338,0.0414691,538,1051,-9.51234,-1.8257
-679,-27,-9.992,1.2605,-0.0205267,0.0261707,-0.0303567,0.0411194,-0.0354754,-1.11322,0.0442621,0.044593,545,1051,-9.992,-1.26055
-672,-27,-10.5487,0.708374,-0.0172198,0.0223074,-0.0209516,0.0313461,-0.0262584,-1.16351,0.0333012,0.0450779,552,1051,-10.5487,-0.708386
-665,-27,-11.1582,0.523926,-0.0140028,0.01807,-0.0138649,0.0232327,-0.0191655,-1.21435,0.0245161,0.0434367,559,1051,-11.1582,-0.523896
-658,-27,-11.4418,0.678589,-0.0110259,0.0139564,-0.00864754,0.0166577,-0.0137272,-1.26803,0.0175699,0.0392616,566,1051,-11.4418,-0.678639
-651,-27,-11.2876,1.09619,-0.00838004,0.010249,-0.00497555,0.0114946,-0.00962565,-1.32549,0.0122097,0.0322918,573,1051,-11.2876,-1.09616
-644,-27,-11.336,1.11084,-0.00621523,0.00802843,-0.00230189,0.00839119,-0.00657799,-1.41449,0.00866357,0.0156509,580,1051,-11.336,-1.1108
-637,-27,-11.3562,1.13025,-0.00431281,0.00525189,3.09468e-05,0.00525199,-0.00431291,1.56756,0.00553117,0.0127297,587,1051,-11.3562,-1.13019
-630,-27,-11.3855,1.20569,-0.00262921,0.00171162,-0.000326926,0.0017361,-0.00265369,-1.49604,0.00255284,0.0165429,594,1051,-11.3855,-1.2057
-623,-27,-11.3657,1.23083,-0.00146805,0.000103281,-0.00115331,0.000713108,-0.00207788,-1.08441,0.00167436,0.0146603,601,1051,-11.3657,-1.23085
-616,-27,-11.3447,1.24597,-0.000892267,-0.000777866,-0.00232137,0.00148701,-0.00315714,-0.797716,0.00273849,0.0126979,608,1051,-11.3447,-1.246
-609,-27,-11.3522,1.26233,-0.000505983,-0.000441464,-0.00345697,0.00298339,-0.00393084,-0.790064,0.00400441,0.0128877,615,1051,-11.3522,-1.26238
-602,-27,-11.3472,1.29297,-0.000344932,6.67531e-05,-0.00431694,0.00418276,-0.00446093,-0.809221,0.0049913,0.0101958,622,1051,-11.3472,-1.29302
-595,-27,-11.3737,1.31494,-0.000414991,0.0004605,-0.00478361,0.00482635,-0.00478084,-0.831026,0.00554674,0.00954395,629,1051,-11.3736,-1.315
-588,-27,-11.3935,0.967773,-0.000623888,0.000747572,-0.0049056,0.00501513,-0.00489145,-0.854841,0.00571972,0.0180869,636,1051,-11.3935,-0.967762
-581,-27,-11.3225,0.622314,-0.000814074,0.00151007,-0.00479243,0.00527931,-0.00458331,-0.904343,0.00569891,0.0236914,643,1051,-11.3225,-0.62237
-574,-27,-11.4236,0.734009,-0.00105328,0.00231257,-0.00431991,0.00526579,-0.0040065,-0.971142,0.0053698,0.0350469,650,1051,-11.4236,-0.734002
-567,-27,-11.3915,0.972778,-0.00142458,0.00334903,-0.00356065,0.00524883,-0.00332439,-1.08066,0.00499115,0.043791,657,1051,-11.3915,-0.97274
-560,-27,-11.3386,1.18396,-0.00195088,0.0046086,-0.00259251,0.00550951,-0.00285178,-1.23635,0.00490801,0.0457004,664,1051,-11.3386,-1.18393
-553,-27,-11.3621,1.14685,-0.0027127,0.00608138,-0.00153234,0.00634073,-0.00297206,-1.40313,0.00549275,0.0425421,671,1051,-11.3621,-1.1468
-546,-27,-11.358,0.847778,-0.003805,0.00775311,-0.000528454,0.00777722,-0.00382911,-1.5252,0.00682893,0.0432884,678,1051,-11.358,-0.847821
-539,-27,-11.4837,0.855469,-0.0053292,0.00955222,-0.000189097,0.00955462,-0.0053316,-1.55809,0.00870908,0.0448916,685,1051,-11.4837,-0.855417
-532,-27,-11.6113,1.11755,-0.00754552,0.0116439,-0.00180854,0.0118129,-0.00771448,-1.47764,0.0113566,0.0446498,692,1051,-11.6112,-1.11754
-525,-27,0,0,0,0,0,0,0,0,0,-1,699,1051,0,0
-518,-27,0,0,0,0,0,0,0,0,0,-1,706,1051,0,0
-511,-27,0,0,0,0,0,0,0,0,0,-1,713,1051,0,0
-504,-27,0,0,0,0,0,0,0,0,0,-1,720,1051,0,0
-497,-27,0,0,0,0,0,0,0,0,0,-1,727,1051,0,0
-490,-27,0,0,0,0,0,0,0,0,0,-1,734,1051,0,0
-483,-27,0,0,0,0,0,0,0,0,0,-1,741,1051,0,0
-476,-27,0,0,0,0,0,0,0,0,0,-1,748,1051,0,0
-469,-27,0,0,0,0,0,0,0,0,0,-1,755,1051,0,0
-462,-27,0,0,0,0,0,0,0,0,0,-1,762,1051,0,0
-455,-27,0,0,0,0,0,0,0,0,0,-1,769,1051,0,0
-448,-27,0,0,0,0,0,0,0,0,0,-1,776,1051,0,0
-441,-27,0,0,0,0,0,0,0,0,0,-1,783,1051,0,0
-434,-27,0,0,0,0,0,0,0,0,0,-1,790,1051,0,0
-427,-27,0,0,0,0,0,0,0,0,0,-1,797,1051,0,0
-420,-27,0,0,0,0,0,0,0,0,0,-1,804,1051,0,0
-413,-27,0,0,0,0,0,0,0,0,0,-1,811,1051,0,0
-406,-27,0,0,0,0,0,0,0,0,0,-1,818,1051,0,0
-399,-27,0,0,0,0,0,0,0,0,0,-1,825,1051,0,0
-392,-27,0,0,0,0,0,0,0,0,0,-1,832,1051,0,0
-385,-27,0,0,0,0,0,0,0,0,0,-1,839,1051,0,0
-378,-27,0,0,0,0,0,0,0,0,0,-1,846,1051,0,0
-371,-27,0,0,0,0,0,0,0,0,0,-1,853,1051,0,0
-364,-27,0,0,0,0,0,0,0,0,0,-1,860,1051,0,0
-357,-27,0,0,0,0,0,0,0,0,0,-1,867,1051,0,0
-350,-27,0,0,0,0,0,0,0,0,0,-1,874,1051,0,0
-343,-27,0,0,0,0,0,0,0,0,0,-1,881,1051,0,0
-336,-27,0,0,0,0,0,0,0,0,0,-1,888,1051,0,0
-329,-27,0,0,0,0,0,0,0,0,0,-1,895,1051,0,0
-322,-27,0,0,0,0,0,0,0,0,0,-1,902,1051,0,0
-315,-27,0,0,0,0,0,0,0,0,0,-1,909,1051,0,0
-308,-27,0,0,0,0,0,0,0,0,0,-1,916,1051,0,0
-301,-27,0,0,0,0,0,0,0,0,0,-1,923,1051,0,0
-294,-27,0,0,0,0,0,0,0,0,0,-1,930,1051,0,0
-287,-27,0,0,0,0,0,0,0,0,0,-1,937,1051,0,0
-280,-27,0,0,0,0,0,0,0,0,0,-1,944,1051,0,0
-273,-27,0,0,0,0,0,0,0,0,0,-1,951,1051,0,0
-266,-27,0,0,0,0,0,0,0,0,0,-1,958,1051,0,0
-259,-27,0,0,0,0,0,0,0,0,0,-1,965,1051,0,0
-252,-27,0,0,0,0,0,0,0,0,0,-1,972,1051,0,0
-245,-27,0,0,0,0,0,0,0,0,0,-1,979,1051,0,0
-238,-27,0,0,0,0,0,0,0,0,0,-1,986,1051,0,0
-231,-27,0,0,0,0,0,0,0,0,0,-1,993,1051,0,0
-224,-27,0,0,0,0,0,0,0,0,0,-1,1000,1051,0,0
-217,-27,0,0,0,0,0,0,0,0,0,-1,1007,1051,0,0
-210,-27,0,0,0,0,0,0,0,0,0,-1,1014,1051,0,0
-203,-27,0,0,0,0,0,0,0,0,0,-1,1021,1051,0,0
-196,-27,0,0,0,0,0,0,0,0,0,-1,1028,1051,0,0
-189,-27,0,0,0,0,0,0,0,0,0,-1,1035,1051,0,0
-182,-27,0,0,0,0,0,0,0,0,0,-1,1042,1051,0,0
-175,-27,0,0,0,0,0,0,0,0,0,-1,1049,1051,0,0
-168,-27,0,0,0,0,0,0,0,0,0,-1,1056,1051,0,0
-161,-27,0,0,0,0,0,0,0,0,0,-1,1063,1051,0,0
-154,-27,0,0,0,0,0,0,0,0,0,-1,1070,1051,0,0
-147,-27,0,0,0,0,0,0,0,0,0,-1,1077,1051,0,0
-140,-27,0,0,0,0,0,0,0,0,0,-1,1084,1051,0,0
-133,-27,0,0,0,0,0,0,0,0,0,-1,1091,1051,0,0
-126,-27,0,0,0,0,0,0,0,0,0,-1,1098,1051,0,0
-119,-27,0,0,0,0,0,0,0,0,0,-1,1105,1051,0,0
-112,-27,0,0,0,0,0,0,0,0,0,-1,1112,1051,0,0
-105,-27,0,0,0,0,0,0,0,0,0,-1,1119,1051,0,0
-98,-27,0,0,0,0,0,0,0,0,0,-1,1126,1051,0,0
-91,-27,0,0,0,0,0,0,0,0,0,-1,1133,1051,0,0
-84,-27,0,0,0,0,0,0,0,0,0,-1,1140,1051,0,0
-77,-27,0,0,0,0,0,0,0,0,0,-1,1147,1051,0,0
-70,-27,0,0,0,0,0,0,0,0,0,-1,1154,1051,0,0
-63,-27,0,0,0,0,0,0,0,0,0,-1,1161,1051,0,0
-56,-27,0,0,0,0,0,0,0,0,0,-1,1168,1051,0,0
-49,-27,0,0,0,0,0,0,0,0,0,-1,1175,1051,0,0
-42,-27,0,0,0,0,0,0,0,0,0,-1,1182,1051,0,0
-35,-27,0,0,0,0,0,0,0,0,0,-1,1189,1051,0,0
-28,-27,0,0,0,0,0,0,0,0,0,-1,1196,1051,0,0
-21,-27,0,0,0,0,0,0,0,0,0,-1,1203,1051,0,0
-14,-27,0,0,0,0,0,0,0,0,0,-1,1210,1051,0,0
-7,-27,0,0,0,0,0,0,0,0,0,-1,1217,1051,0,0
0,-27,0,0,0,0,0,0,0,0,0,-1,1224,1051,0,0
7,-27,0,0,0,0,0,0,0,0,0,-1,1231,1051,0,0
14,-27,0,0,0,0,0,0,0,0,0,-1,1238,1051,0,0
21,-27,0,0,0,0,0,0,0,0,0,-1,1245,1051,0,0
28,-27,0,0,0,0,0,0,0,0,0,-1,1252,1051,0,0
35,-27,0,0,0,0,0,0,0,0,0,-1,1259,1051,0,0
42,-27,0,0,0,0,0,0,0,0,0,-1,1266,1051,0,0
49,-27,0,0,0,0,0,0,0,0,0,-1,1273,1051,0,0
56,-27,0,0,0,0,0,0,0,0,0,-1,1280,1051,0,0
63,-27,0,0,0,0,0,0,0,0,0,-1,1287,1051,0,0
70,-27,0,0,0,0,0,0,0,0,0,-1,1294,1051,0,0
77,-27,0,0,0,0,0,0,0,0,0,-1,1301,1051,0,0
84,-27,0,0,0,0,0,0,0,0,0,-1,1308,1051,0,0
91,-27,0,0,0,0,0,0,0,0,0,-1,1315,1051,0,0
98,-27,0,0,0,0,0,0,0,0,0,-1,1322,1051,0,0
105,-27,0,0,0,0,0,0,0,0,0,-1,1329,1051,0,0
112,-27,0,0,0,0,0,0,0,0,0,-1,1336,1051,0,0
119,-27,0,0,0,0,0,0,0,0,0,-1,1343,1051,0,0
126,-27,0,0,0,0,0,0,0,0,0,-1,1350,1051,0,0
133,-27,0,0,0,0,0,0,0,0,0,-1,1357,1051,0,0
140,-27,0,0,0,0,0,0,0,0,0,-1,1364,1051,0,0
147,-27,0,0,0,0,0,0,0,0,0,-1,1371,1051,0,0
154,-27,0,0,0,0,0,0,0,0,0,-1,1378,1051,0,0
161,-27,0,0,0,0,0,0,0,0,0,-1,1385,1051,0,0
168,-27,0,0,0,0,0,0,0,0,0,-1,1392,1051,0,0
175,-27,0,0,0,0,0,0,0,0,0,-1,1399,1051,0,0
182,-27,0,0,0,0,0,0,0,0,0,-1,1406,1051,0,0
189,-27,0,0,0,0,0,0,0,0,0,-1,1413,1051,0,0
196,-27,0,0,0,0,0,0,0,0,0,-1,1420,1051,0,0
203,-27,0,0,0,0,0,0,0,0,0,-1,1427,1051,0,0
210,-27,0,0,0,0,0,0,0,0,0,-1,1434,1051,0,0
217,-27,0,0,0,0,0,0,0,0,0,-1,1441,1051,0,0
224,-27,0,0,0,0,0,0,0,0,0,-1,1448,1051,0,0
231,-27,0,0,0,0,0,0,0,0,0,-1,1455,1051,0,0
238,-27,0,0,0,0,0,0,0,0,0,-1,1462,1051,0,0
245,-27,0,0,0,0,0,0,0,0,0,-1,1469,1051,0,0
252,-27,0,0,0,0,0,0,0,0,0,-1,1476,1051,0,0
259,-27,0,0,0,0,0,0,0,0,0,-1,1483,1051,0,0
266,-27,0,0,0,0,0,0,0,0,0,-1,1490,1051,0,0
273,-27,0,0,0,0,0,0,0,0,0,-1,1497,1051,0,0
280,-27,0,0,0,0,0,0,0,0,0,-1,1504,1051,0,0
287,-27,0,0,0,0,0,0,0,0,0,-1,1511,1051,0,0
294,-27,0,0,0,0,0,0,0,0,0,-1,1518,1051,0,0
301,-27,0,0,0,0,0,0,0,0,0,-1,1525,1051,0,0
308,-27,0,0,0,0,0,0,0,0,0,-1,1532,1051,0,0
315,-27,0,0,0,0,0,0,0,0,0,-1,1539,1051,0,0
322,-27,0,0,0,0,0,0,0,0,0,-1,1546,1051,0,0
329,-27,0,0,0,0,0,0,0,0,0,-1,1553,1051,0,0
336,-27,0,0,0,0,0,0,0,0,0,-1,1560,1051,0,0
343,-27,0,0,0,0,0,0,0,0,0,-1,1567,1051,0,0
350,-27,0,0,0,0,0,0,0,0,0,-1,1574,1051,0,0
357,-27,0,0,0,0,0,0,0,0,0,-1,1581,1051,0,0
364,-27,0,0,0,0,0,0,0,0,0,-1,1588,1051,0,0
371,-27,0,0,0,0,0,0,0,0,0,-1,1595,1051,0,0
378,-27,0,0,0,0,0,0,0,0,0,-1,1602,1051,0,0
385,-27,0,0,0,0,0,0,0,0,0,-1,1609,1051,0,0
392,-27,0,0,0,0,0,0,0,0,0,-1,1616,1051,0,0
399,-27,0,0,0,0,0,0,0,0,0,-1,1623,1051,0,0
406,-27,0,0,0,0,0,0,0,0,0,-1,1630,1051,0,0
413,-27,0,0,0,0,0,0,0,0,0,-1,1637,1051,0,0
420,-27,0,0,0,0,0,0,0,0,0,-1,1644,1051,0,0
427,-27,0,0,0,0,0,0,0,0,0,-1,1651,1051,0,0
434,-27,0,0,0,0,0,0,0,0,0,-1,1658,1051,0,0
441,-27,0,0,0,0,0,0,0,0,0,-1,1665,1051,0,0
448,-27,0,0,0,0,0,0,0,0,0,-1,1672,1051,0,0
455,-27,0,0,0,0,0,0,0,0,0,-1,1679,1051,0,0
462,-27,0,0,0,0,0,0,0,0,0,-1,1686,1051,0,0
469,-27,0,0,0,0,0,0,0,0,0,-1,1693,1051,0,0
476,-27,0,0,0,0,0,0,0,0,0,-1,1700,1051,0,0
483,-27,0,0,0,0,0,0,0,0,0,-1,1707,1051,0,0
490,-27,0,0,0,0,0,0,0,0,0,-1,1714,1051,0,0
497,-27,0,0,0,0,0,0,0,0,0,-1,1721,1051,0,0
504,-27,0,0,0,0,0,0,0,0,0,-1,1728,1051,0,0
511,-27,0,0,0,0,0,0,0,0,0,-1,1735,1051,0,0
518,-27,0,0,0,0,0,0,0,0,0,-1,1742,1051,0,0
525,-27,0,0,0,0,0,0,0,0,0,-1,1749,1051,0,0
532,-27,0,0,0,0,0,0,0,0,0,-1,1756,1051,0,0
539,-27,0,0,0,0,0,0,0,0,0,-1,1763,1051,0,0
546,-27,0,0,0,0,0,0,0,0,0,-1,1770,1051,0,0
553,-27,0,0,0,0,0,0,0,0,0,-1,1777,1051,0,0
560,-27,0,0,0,0,0,0,0,0,0,-1,1784,1051,0,0
567,-27,0,0,0,0,0,0,0,0,0,-1,1791,1051,0,0
574,-27,0,0,0,0,0,0,0,0,0,-1,1798,1051,0,0
581,-27,0,0,0,0,0,0,0,0,0,-1,1805,1051,0,0
588,-27,0,0,0,0,0,0,0,0,0,-1,1812,1051,0,0
595,-27,0,0,0,0,0,0,0,0,0,-1,1819,1051,0,0
602,-27,0,0,0,0,0,0,0,0,0,-1,1826,1051,0,0
609,-27,0,0,0,0,0,0,0,0,0,-1,1833,1051,0,0
616,-27,0,0,0,0,0,0,0,0,0,-1,1840,1051,0,0
623,-27,0,0,0,0,0,0,0,0,0,-1,1847,1051,0,0
630,-27,0,0,0,0,0,0,0,0,0,-1,1854,1051,0,0
637,-27,0,0,0,0,0,0,0,0,0,-1,1861,1051,0,0
644,-27,0,0,0,0,0,0,0,0,0,-1,1868,1051,0,0
651,-27,17.7443,2.6073,-0.000435976,-0.001514,0.00072791,-6.92351e-05,-0.00188074,0.466704,0.0012314,0.0431203,1875,1051,17.7443,-2.60726
658,-27,17.7598,2.63538,-0.00010284,-0.000855636,2.19165e-05,-0.000102203,-0.000856274,0.0290807,0.000540015,0.0417655,1882,1051,17.7598,-2.6354
665,-27,17.7478,2.51038,-7.28338e-05,-0.000333054,-0.000363662,0.000183293,-0.000589181,-0.613605,0.000466058,0.0384592,1889,1051,17.7477,-2.51036
672,-27,17.7052,2.4574,-3.27803e-05,3.05658e-05,-8.91489e-05,9.35009e-05,-9.57154e-05,-0.956085,0.000109247,0.0294784,1896,1051,17.7052,-2.45743
679,-27,17.7338,2.49744,-0.000467416,0.000299495,0.000803825,0.000806642,-0.000974563,1.00795,0.0010299,0.0276276,1903,1051,17.7337,-2.4974
686,-27,17.828,2.48389,-0.00119171,0.000426987,0.00187262,0.00165767,-0.00242239,0.989375,0.00236938,0.0395075,1910,1051,17.828,-2.48392
693,-27,17.8451,2.43542,-0.00185437,0.000455289,0.00288138,0.00240464,-0.00380372,0.975992,0.00361461,0.0430784,1917,1051,17.8451,-2.43537
700,-27,17.6787,2.43909,-0.00247055,0.000451542,0.00373819,0.00300407,-0.00502308,0.971692,0.00468308,0.0372068,1924,1051,17.6788,-2.43908
707,-27,17.6198,2.44385,-0.00294139,0.000422453,0.00428424,0.00334309,-0.00586203,0.972446,0.0053805,0.0226071,1931,1051,17.6198,-2.44389
714,-27,17.682,2.5614,-0.00328544,0.000393784,0.00470887,0.00360963,-0.00650128,0.971617,0.00591658,0.0199931,1938,1051,17.682,-2.56144
721,-27,17.7593,2.77051,-0.00357832,0.000396052,0.00499534,0.00378496,-0.00696722,0.974705,0.00629775,0.0241525,1945,1051,17.7592,-2.77047
728,-27,17.542,3.2655,-0.00381834,0.000411201,0.00494944,0.00367874,-0.00708588,0.987296,0.00631787,0.0259214,1952,1051,17.542,-3.26553
735,-27,17.2642,3.49707,-0.00360974,0.000434358,0.00453475,0.00337746,-0.00655284,0.995118,0.00583014,0.0162131,1959,1051,17.2642,-3.49711
742,-27,17.2793,3.51733,-0.0029691,0.000439925,0.00394868,0.00303628,-0.00556545,0.98915,0.00503726,0.0156566,1966,1051,17.2793,-3.51735
749,-27,17.3257,3.5166,-0.00256968,0.000504793,0.00327994,0.00258986,-0.00465475,1.00454,0.00423894,0.0114512,1973,1051,17.3257,-3.51665
756,-27,17.3292,3.53857,-0.00236218,0.000980187,0.00252541,0.0023373,-0.00371929,1.07769,0.00352699,0.010745,1980,1051,17.3292,-3.53857
763,-27,17.3173,3.51514,-0.00243246,0.00189779,0.00155666,0.00239931,-0.00293397,1.25912,0.00308432,0.0120612,1987,1051,17.3173,-3.51508
770,-27,17.3024,3.50806,-0.00257093,0.00287725,0.00053728,0.00292973,-0.00262341,1.47343,0.00320773,0.014415,1994,1051,17.3024,-3.50801
777,-27,17.2883,3.54004,-0.00310614,0.00425935,-0.000329366,0.00427405,-0.00312084,-1.5262,0.00428671,0.0159739,2001,1051,17.2883,-3.54007
784,-27,17.2554,3.54309,-0.00452597,0.00620325,-0.000796655,0.00626208,-0.0045848,-1.49708,0.00628736,0.023433,2008,1051,17.2554,-3.5431
791,-27,17.342,3.45361,-0.00717079,0.00883306,-0.00118933,0.00892097,-0.0072587,-1.49702,0.00935775,0.0420119,2015,1051,17.342,-3.45358
798,-27,17.42,3.31982,-0.0109367,0.0124423,-0.0017986,0.0125798,-0.0110743,-1.49446,0.0136659,0.0469415,2022,1051,17.4201,-3.31984
805,-27,17.4669,3.15063,-0.016072,0.0173921,-0.00280855,0.0176262,-0.016306,-1.48764,0.0195957,0.042599,2029,1051,17.467,-3.15067
812,-27,17.6011,2.9541,-0.0230571,0.0241294,-0.00444754,0.0245449,-0.0234727,-1.47763,0.0277253,0.0444545,2036,1051,17.6012,-2.9541
-700,-34,-8.87543,3.97815,-0.032599,0.0293288,-0.0749888,0.0794949,-0.0827651,-0.981193,0.0936872,0.044687,524,1058,-8.87541,-3.97818
-693,-34,-8.98499,2.84412,-0.0292013,0.0342546,-0.0540909,0.0652362,-0.0601829,-1.05064,0.0724304,0.0433637,531,1058,-8.98501,-2.84411
-686,-34,-9.13177,1.97693,-0.0251283,0.0335493,-0.0384608,0.052584,-0.044163,-1.11123,0.0559274,0.0455429,538,1058,-9.13177,-1.97689
-679,-34,-11.9634,0.309692,0,0,0,0,0,0,0,-1,545,1058,-11.9634,-0.309683
-672,-34,-11.6816,0.521851,-0.01711,0.0254942,-0.0179204,0.0320295,-0.0236453,-1.2211,0.0322651,0.0433758,552,1058,-11.6816,-0.521898
-665,-34,-11.3165,0.706909,-0.0134967,0.0205216,-0.0113857,0.0239807,-0.0169558,-1.27585,0.0237504,0.043069,559,1058,-11.3165,-0.706889
-658,-34,-11.2741,0.944824,-0.0103043,0.0157527,-0.00667518,0.0173632,-0.0119148,-1.33406,0.0170009,0.0404296,566,1058,-11.2741,-0.944787
-651,-34,-11.27,1.09192,-0.00758648,0.0115004,-0.00345093,0.0121052,-0.00819125,-1.39731,0.0117905,0.026421,573,1058,-11.27,-1.09197
-644,-34,-11.3157,1.09436,-0.00548476,0.00894346,-0.00108437,0.0090245,-0.00556581,-1.4962,0.00850225,0.011217,580,1058,-11.3157,-1.09433
-637,-34,-11.3362,1.10974,-0.00353473,0.00570978,0.000756564,0.00577129,-0.00359624,1.48968,0.00545673,0.0120149,587,1058,-11.3362,-1.10975
-630,-34,-11.3405,1.17871,-0.00187608,0.00172776,-5.27957e-05,0.00172853,-0.00187686,-1.55615,0.00208216,0.0140354,594,1058,-11.3405,-1.17868
-623,-34,-11.3278,1.22632,-0.00102801,3.34694e-05,-0.00102504,0.000657027,-0.00165156,-1.02428,0.00137347,0.012074,601,1058,-11.3278,-1.22636
-616,-34,-11.3192,1.26282,-0.000825134,-0.000833719,-0.00231858,0.00148915,-0.00314801,-0.784472,0.00273377,0.0194048,608,1058,-11.3192,-1.26286
-609,-34,-11.3165,1.2749,-0.000665982,-0.000495358,-0.00359508,0.00301542,-0.00417676,-0.797261,0.00417042,0.019869,615,1058,-11.3165,-1.27489
-602,-34,-11.3054,1.2948,-0.000570611,-2.86389e-05,-0.00454117,0.00424963,-0.00484887,-0.815199,0.00525682,0.0137887,622,1058,-11.3053,-1.29481
-595,-34,-11.3525,1.33362,-0.000672008,0.000308013,-0.00508716,0.00492871,-0.0052927,-0.833412,0.00590258,0.0114519,629,1058,-11.3526,-1.33362
-588,-34,-11.3693,0.98291,-0.000891695,0.000601496,-0.00524816,0.0051559,-0.0054461,-0.856053,0.00612183,0.0225224,636,1058,-11.3692,-0.982941
-581,-34,-11.3257,0.618286,-0.00106813,0.0013579,-0.00515184,0.00543761,-0.00514783,-0.901019,0.00611227,0.0248989,643,1058,-11.3257,-0.618259
-574,-34,-11.4739,0.598755,-0.0012639,0.00216965,-0.0047069,0.00546309,-0.00455734,-0.960269,0.00579317,0.035296,650,1058,-11.4739,-0.598805
-567,-34,-11.505,0.611572,-0.00155264,0.00320674,-0.00395727,0.00544473,-0.00379063,-1.0561,0.00536047,0.0425702,657,1058,-11.505,-0.611556
-560,-34,-11.3257,0.697632,-0.00195236,0.00444943,-0.0029799,0.00562181,-0.00312473,-1.19597,0.00511796,0.0406639,664,1058,-11.3257,-0.697668
-553,-34,-11.186,0.631348,-0.00253931,0.00587774,-0.00188559,0.00628084,-0.00294242,-1.36018,0.00544009,0.0401063,671,1058,-11.186,-0.631388
-546,-34,-11.2092,0.578369,-0.00341123,0.00746396,-0.00080582,0.00752335,-0.00347062,-1.49723,0.00648953,0.0442552,678,1058,-11.2092,-0.578344
-539,-34,-11.2947,0.53833,-0.00469173,0.00912079,-0.000338879,0.0091291,-0.00470004,-1.54628,0.0081196,0.0437285,685,1058,-11.2948,-0.53827
-532,-34,-11.3371,0.563599,-0.00669976,0.0109017,-0.00186389,0.0110969,-0.00689497,-1.46644,0.0104816,0.0408477,692,1058,-11.3371,-0.563578
-525,-34,0,0,0,0,0,0,0,0,0,-1,699,1058,0,0
-518,-34,0,0,0,0,0,0,0,0,0,-1,706,1058,0,0
-511,-34,0,0,0,0,0,0,0,0,0,-1,713,1058,0,0
-504,-34,0,0,0,0,0,0,0,0,0,-1,720,1058,0,0
-497,-34,0,0,0,0,0,0,0,0,0,-1,727,1058,0,0
-490,-34,0,0,0,0,0,0,0,0,0,-1,734,1058,0,0
-483,-34,0,0,0,0,0,0,0,0,0,-1,741,1058,0,0
-476,-34,0,0,0,0,0,0,0,0,0,-1,748,1058,0,0
-469,-34,0,0,0,0,0,0,0,0,0,-1,755,1058,0,0
-462,-34,0,0,0,0,0,0,0,0,0,-1,762,1058,0,0
-455,-34,0,0,0,0,0,0,0,0,0,-1,769,1058,0,0
-448,-34,0,0,0,0,0,0,0,0,0,-1,776,1058,0,0
-441,-34,0,0,0,0,0,0,0,0,0,-1,783,1058,0,0
-434,-34,0,0,0,0,0,0,0,0,0,-1,790,1058,0,0
-427,-34,0,0,0,0,0,0,0,0,0,-1,797,1058,0,0
-420,-34,0,0,0,0,0,0,0,0,0,-1,804,1058,0,0
-413,-34,0,0,0,0,0,0,0,0,0,-1,811,1058,0,0
-406,-34,0,0,0,0,0,0,0,0,0,-1,818,1058,0,0
-399,-34,0,0,0,0,0,0,0,0,0,-1,825,1058,0,0
-392,-34,0,0,0,0,0,0,0,0,0,-1,832,1058,0,0
-385,-34,0,0,0,0,0,0,0,0,0,-1,839,1058,0,0
-378,-34,0,0,0,0,0,0,0,0,0,-1,846,1058,0,0
-371,-34,0,0,0,0,0,0,0,0,0,-1,853,1058,0,0
-364,-34,0,0,0,0,0,0,0,0,0,-1,860,1058,0,0
-357,-34,0,0,0,0,0,0,0,0,0,-1,867,1058,0,0
-350,-34,0,0,0,0,0,0,0,0,0,-1,874,1058,0,0
-343,-34,0,0,0,0,0,0,0,0,0,-1,881,1058,0,0
-336,-34,0,0,0,0,0,0,0,0,0,-1,888,1058,0,0
-329,-34,0,0,0,0,0,0,0,0,0,-1,895,1058,0,0
-322,-34,0,0,0,0,0,0,0,0,0,-1,902,1058,0,0
-315,-34,0,0,0,0,0,0,0,0,0,-1,909,1058,0,0
-308,-34,0,0,0,0,0,0,0,0,0,-1,916,1058,0,0
-301,-34,0,0,0,0,0,0,0,0,0,-1,923,1058,0,0
-294,-34,0,0,0,0,0,0,0,0,0,-1,930,1058,0,0
-287,-34,0,0,0,0,0,0,0,0,0,-1,937,1058,0,0
-280,-34,0,0,0,0,0,0,0,0,0,-1,944,1058,0,0
-273,-34,0,0,0,0,0,0,0,0,0,-1,951,1058,0,0
-266,-34,0,0,0,0,0,0,0,0,0,-1,958,1058,0,0
-259,-34,0,0,0,0,0,0,0,0,0,-1,965,1058,0,0
-252,-34,0,0,0,0,0,0,0,0,0,-1,972,1058,0,0
-245,-34,0,0,0,0,0,0,0,0,0,-1,979,1058,0,0
-238,-34,0,0,0,0,0,0,0,0,0,-1,986,1058,0,0
-231,-34,0,0,0,0,0,0,0,0,0,-1,993,1058,0,0
-224,-34,0,0,0,0,0,0,0,0,0,-1,1000,1058,0,0
-217,-34,0,0,0,0,0,0,0,0,0,-1,1007,1058,0,0
-210,-34,0,0,0,0,0,0,0,0,0,-1,1014,1058,0,0
-203,-34,0,0,0,0,0,0,0,0,0,-1,1021,1058,0,0
-196,-34,0,0,0,0,0,0,0,0,0,-1,1028,1058,0,0
-189,-34,0,0,0,0,0,0,0,0,0,-1,1035,1058,0,0
-182,-34,0,0,0,0,0,0,0,0,0,-1,1042,1058,0,0
-175,-34,0,0,0,0,0,0,0,0,0,-1,1049,1058,0,0
-168,-34,0,0,0,0,0,0,0,0,0,-1,1056,1058,0,0
-161,-34,0,0,0,0,0,0,0,0,0,-1,1063,1058,0,0
-154,-34,0,0,0,0,0,0,0,0,0,-1,1070,1058,0,0
-147,-34,0,0,0,0,0,0,0,0,0,-1,1077,1058,0,0
-140,-34,0,0,0,0,0,0,0,0,0,-1,1084,1058,0,0
-133,-34,0,0,0,0,0,0,0,0,0,-1,1091,1058,0,0
-126,-34,0,0,0,0,0,0,0,0,0,-1,1098,1058,0,0
-119,-34,0,0,0,0,0,0,0,0,0,-1,1105,1058,0,0
-112,-34,0,0,0,0,0,0,0,0,0,-1,1112,1058,0,0
-105,-34,0,0,0,0,0,0,0,0,0,-1,1119,1058,0,0
-98,-34,0,0,0,0,0,0,0,0,0,-1,1126,1058,0,0
-91,-34,0,0,0,0,0,0,0,0,0,-1,1133,1058,0,0
-84,-34,0,0,0,0,0,0,0,0,0,-1,1140,1058,0,0
-77,-34,0,0,0,0,0,0,0,0,0,-1,1147,1058,0,0
-70,-34,0,0,0,0,0,0,0,0,0,-1,1154,1058,0,0
-63,-34,0,0,0,0,0,0,0,0,0,-1,1161,1058,0,0
-56,-34,0,0,0,0,0,0,0,0,0,-1,1168,1058,0,0
-49,-34,0,0,0,0,0,0,0,0,0,-1,1175,1058,0,0
-42,-34,0,0,0,0,0,0,0,0,0,-1,1182,1058,0,0
-35,-34,0,0,0,0,0,0,0,0,0,-1,1189,1058,0,0
-28,-34,0,0,0,0,0,0,0,0,0,-1,1196,1058,0,0
-21,-34,0,0,0,0,0,0,0,0,0,-1,1203,1058,0,0
-14,-34,0,0,0,0,0,0,0,0,0,-1,1210,1058,0,0
-7,-34,0,0,0,0,0,0,0,0,0,-1,1217,1058,0,0
0,-34,0,0,0,0,0,0,0,0,0,-1,1224,1058,0,0
7,-34,0,0,0,0,0,0,0,0,0,-1,1231,1058,0,0
14,-34,0,0,0,0,0,0,0,0,0,-1,1238,1058,0,0
21,-34,0,0,0,0,0,0,0,0,0,-1,1245,1058,0,0
28,-34,0,0,0,0,0,0,0,0,0,-1,1252,1058,0,0
35,-34,0,0,0,0,0,0,0,0,0,-1,1259,1058,0,0
42,-34,0,0,0,0,0,0,0,0,0,-1,1266,1058,0,0
49,-34,0,0,0,0,0,0,0,0,0,-1,1273,1058,0,0
56,-34,0,0,0,0,0,0,0,0,0,-1,1280,1058,0,0
63,-34,0,0,0,0,0,0,0,0,0,-1,1287,1058,0,0
70,-34,0,0,0,0,0,0,0,0,0,-1,1294,1058,0,0
77,-34,0,0,0,0,0,0,0,0,0,-1,1301,1058,0,0
84,-34,0,0,0,0,0,0,0,0,0,-1,1308,1058,0,0
91,-34,0,0,0,0,0,0,0,0,0,-1,1315,1058,0,0
98,-34,0,0,0,0,0,0,0,0,0,-1,1322,1058,0,0
105,-34,0,0,0,0,0,0,0,0,0,-1,1329,1058,0,0
112,-34,0,0,0,0,0,0,0,0,0,-1,1336,1058,0,0
119,-34,0,0,0,0,0,0,0,0,0,-1,1343,1058,0,0
126,-34,0,0,0,0,0,0,0,0,0,-1,1350,1058,0,0
133,-34,0,0,0,0,0,0,0,0,0,-1,1357,1058,0,0
140,-34,0,0,0,0,0,0,0,0,0,-1,1364,1058,0,0
147,-34,0,0,0,0,0,0,0,0,0,-1,1371,1058,0,0
154,-34,0,0,0,0,0,0,0,0,0,-1,1378,1058,0,0
161,-34,0,0,0,0,0,0,0,0,0,-1,1385,1058,0,0
168,-34,0,0,0,0,0,0,0,0,0,-1,1392,1058,0,0
175,-34,0,0,0,0,0,0,0,0,0,-1,1399,1058,0,0
182,-34,0,0,0,0,0,0,0,0,0,-1,1406,1058,0,0
189,-34,0,0,0,0,0,0,0,0,0,-1,1413,1058,0,0
196,-34,0,0,0,0,0,0,0,0,0,-1,1420,1058,0,0
203,-34,0,0,0,0,0,0,0,0,0,-1,1427,1058,0,0
210,-34,0,0,0,0,0,0,0,0,0,-1,1434,1058,0,0
217,-34,0,0,0,0,0,0,0,0,0,-1,1441,1058,0,0
224,-34,0,0,0,0,0,0,0,0,0,-1,1448,1058,0,0
231,-34,0,0,0,0,0,0,0,0,0,-1,1455,1058,0,0
238,-34,0,0,0,0,0,0,0,0,0,-1,1462,1058,0,0
245,-34,0,0,0,0,0,0,0,0,0,-1,1469,1058,0,0
252,-34,0,0,0,0,0,0,0,0,0,-1,1476,1058,0,0
259,-34,0,0,0,0,0,0,0,0,0,-1,1483,1058,0,0
266,-34,0,0,0,0,0,0,0,0,0,-1,1490,1058,0,0
273,-34,0,0,0,0,0,0,0,0,0,-1,1497,1058,0,0
280,-34,0,0,0,0,0,0,0,0,0,-1,1504,1058,0,0
287,-34,0,0,0,0,0,0,0,0,0,-1,1511,1058,0,0
294,-34,0,0,0,0,0,0,0,0,0,-1,1518,1058,0,0
301,-34,0,0,0,0,0,0,0,0,0,-1,1525,1058,0,0
308,-34,0,0,0,0,0,0,0,0,0,-1,1532,1058,0,0
315,-34,0,0,0,0,0,0,0,0,0,-1,1539,1058,0,0
322,-34,0,0,0,0,0,0,0,0,0,-1,1546,1058,0,0
329,-34,0,0,0,0,0,0,0,0,0,-1,1553,1058,0,0
336,-34,0,0,0,0,0,0,0,0,0,-1,1560,1058,0,0
343,-34,0,0,0,0,0,0,0,0,0,-1,1567,1058,0,0
350,-34,0,0,0,0,0,0,0,0,0,-1,1574,1058,0,0
357,-34,0,0,0,0,0,0,0,0,0,-1,1581,1058,0,0
364,-34,0,0,0,0,0,0,0,0,0,-1,1588,1058,0,0
371,-34,0,0,0,0,0,0,0,0,0,-1,1595,1058,0,0
378,-34,0,0,0,0,0,0,0,0,0,-1,1602,1058,0,0
385,-34,0,0,0,0,0,0,0,0,0,-1,1609,1058,0,0
392,-34,0,0,0,0,0,0,0,0,0,-1,1616,1058,0,0
399,-34,0,0,0,0,0,0,0,0,0,-1,1623,1058,0,0
406,-34,0,0,0,0,0,0,0,0,0,-1,1630,1058,0,0
413,-34,0,0,0,0,0,0,0,0,0,-1,1637,1058,0,0
420,-34,0,0,0,0,0,0,0,0,0,-1,1644,1058,0,0
427,-34,0,0,0,0,0,0,0,0,0,-1,1651,1058,0,0
434,-34,0,0,0,0,0,0,0,0,0,-1,1658,1058,0,0
441,-34,0,0,0,0,0,0,0,0,0,-1,1665,1058,0,0
448,-34,0,0,0,0,0,0,0,0,0,-1,1672,1058,0,0
455,-34,0,0,0,0,0,0,0,0,0,-1,1679,1058,0,0
462,-34,0,0,0,0,0,0,0,0,0,-1,1686,1058,0,0
469,-34,0,0,0,0,0,0,0,0,0,-1,1693,1058,0,0
476,-34,0,0,0,0,0,0,0,0,0,-1,1700,1058,0,0
483,-34,0,0,0,0,0,0,0,0,0,-1,1707,1058,0,0
490,-34,0,0,0,0,0,0,0,0,0,-1,1714,1058,0,0
497,-34,0,0,0,0,0,0,0,0,0,-1,1721,1058,0,0
504,-34,0,0,0,0,0,0,0,0,0,-1,1728,1058,0,0
511,-34,0,0,0,0,0,0,0,0,0,-1,1735,1058,0,0
518,-34,0,0,0,0,0,0,0,0,0,-1,1742,1058,0,0
525,-34,0,0,0,0,0,0,0,0,0,-1,1749,1058,0,0
532,-34,0,0,0,0,0,0,0,0,0,-1,1756,1058,0,0
539,-34,0,0,0,0,0,0,0,0,0,-1,1763,1058,0,0
546,-34,0,0,0,0,0,0,0,0,0,-1,1770,1058,0,0
553,-34,0,0,0,0,0,0,0,0,0,-1,1777,1058,0,0
560,-34,0,0,0,0,0,0,0,0,0,-1,1784,1058,0,0
567,-34,0,0,0,0,0,0,0,0,0,-1,1791,1058,0,0
574,-34,0,0,0,0,0,0,0,0,0,-1,1798,1058,0,0
581,-34,0,0,0,0,0,0,0,0,0,-1,1805,1058,0,0
588,-34,0,0,0,0,0,0,0,0,0,-1,1812,1058,0,0
595,-34,0,0,0,0,0,0,0,0,0,-1,1819,1058,0,0
602,-34,0,0,0,0,0,0,0,0,0,-1,1826,1058,0,0
609,-34,0,0,0,0,0,0,0,0,0,-1,1833,1058,0,0
616,-34,0,0,0,0,0,0,0,0,0,-1,1840,1058,0,0
623,-34,0,0,0,0,0,0,0,0,0,-1,1847,1058,0,0
630,-34,0,0,0,0,0,0,0,0,0,-1,1854,1058,0,0
637,-34,0,0,0,0,0,0,0,0,0,-1,1861,1058,0,0
644,-34,0,0,0,0,0,0,0,0,0,-1,1868,1058,0,0
651,-34,17.7667,2.39905,0.000674059,-0.000999744,0.000851723,0.00103124,-0.00135693,0.397088,0.00138308,0.0417358,1875,1058,17.7667,-2.39907
658,-34,17.7489,2.56665,0.000703082,-0.000646183,7.81081e-05,0.000707588,-0.00065069,0.0576328,0.000784432,0.0442922,1882,1058,17.7489,-2.56663
665,-34,17.642,2.56958,0.00050314,-0.000330194,-0.00034451,0.00062712,-0.000454174,-0.345442,0.000626941,0.0430188,1889,1058,17.642,-2.56953
672,-34,17.6735,2.48877,0.000317317,-0.0001355,-9.32872e-06,0.000317509,-0.000135692,-0.0205898,0.000268583,0.037085,1896,1058,17.6734,-2.48873
679,-34,17.7809,2.46106,-0.00034918,-2.36262e-05,0.00100128,0.000828021,-0.00120083,0.865978,0.00117793,0.0359297,1903,1058,17.7808,-2.46111
686,-34,17.8397,2.48804,-0.00125601,-4.60671e-06,0.00217885,0.0016366,-0.00289722,0.925222,0.00265111,0.0428355,1910,1058,17.8398,-2.48809
693,-34,17.8309,2.49622,-0.00205437,-4.19384e-05,0.00328408,0.00238662,-0.00448293,0.934053,0.00402722,0.0419293,1917,1058,17.8309,-2.4962
700,-34,17.7515,2.51624,-0.00275921,-8.69402e-05,0.00421553,0.00299914,-0.00584529,0.938868,0.00519372,0.039723,1924,1058,17.7514,-2.51619
707,-34,17.6473,2.51428,-0.0033119,-0.000125591,0.00480157,0.00334023,-0.00677772,0.945582,0.00595291,0.0258991,1931,1058,17.6473,-2.51427
714,-34,17.6774,2.5824,-0.00367966,-0.000140148,0.00525995,0.00363979,-0.0074596,0.947679,0.00653351,0.021051,1938,1058,17.6774,-2.58237
721,-34,17.7567,3.05139,0,0,0,0,0,0,0,-1,1945,1058,17.7567,-3.05136
728,-34,17.531,3.35352,-0.00415673,-3.83763e-05,0.00546512,0.00374264,-0.00793774,0.965565,0.00688712,0.0270032,1952,1058,17.5311,-3.35353
735,-34,17.2799,3.53552,-0.00394055,8.14943e-05,0.00505476,0.00351058,-0.00736964,0.974723,0.00641206,0.0135822,1959,1058,17.28,-3.53553
742,-34,17.2679,3.51233,-0.00323179,0.000266082,0.00448632,0.00333232,-0.00629802,0.971256,0.00564728,0.013441,1966,1058,17.268,-3.51231
749,-34,17.3088,3.52356,-0.00267863,0.000482846,0.00375838,0.00297938,-0.00517517,0.984463,0.00476459,0.0118642,1973,1058,17.3088,-3.52358
756,-34,17.337,3.55042,-0.00228783,0.00112415,0.00289335,0.00277701,-0.00394069,1.05178,0.00389782,0.00928418,1980,1058,17.3371,-3.55039
763,-34,17.311,3.52234,-0.00215237,0.00219273,0.00177074,0.00282295,-0.00278259,1.22887,0.00323639,0.0101595,1987,1058,17.311,-3.52234
770,-34,17.2837,3.49866,-0.00204623,0.00338738,0.000606006,0.00345415,-0.00211299,1.46106,0.00324513,0.0155326,1994,1058,17.2837,-3.49863
777,-34,17.265,3.5033,-0.00229919,0.00500088,-0.000425305,0.00502557,-0.00232388,-1.5128,0.00433772,0.0170836,2001,1058,17.265,-3.50327
784,-34,17.2458,3.479,-0.0034675,0.00713311,-0.00110475,0.00724702,-0.00358141,-1.46805,0.00637008,0.0316568,2008,1058,17.2459,-3.47896
791,-34,17.3517,3.31677,-0.00578601,0.0099231,-0.00189735,0.010149,-0.00601193,-1.45229,0.00943188,0.0449675,2015,1058,17.3517,-3.31675
798,-34,17.4602,3.14819,0,0,0,0,0,0,0,-1,2022,1058,17.4602,-3.14823
805,-34,17.4033,3.04565,0,0,0,0,0,0,0,-1,2029,1058,17.4033,-3.04564
812,-34,17.99,2.42944,0,0,0,0,0,0,0,-1,2036,1058,17.9901,-2.42944
-700,-41,-8.60742,4.33716,-0.0309018,0.0289049,-0.0712936,0.0763125,-0.0783094,-0.983974,0.0892735,0.0434998,524,1065,-8.60741,-4.33715
-693,-41,-8.73895,3.11523,-0.0267738,0.0344403,-0.0504825,0.0628694,-0.055203,-1.05791,0.068217,0.0419567,531,1065,-8.73894,-3.11522
-686,-41,-11.3734,0.182373,-0.0224237,0.0340591,-0.0351528,0.0509098,-0.0392744,-1.1238,0.0522121,0.0427334,538,1065,-11.3734,-0.182379
-679,-41,-11.5023,0.202026,-0.0183282,0.0307701,-0.0238175,0.0404252,-0.0279834,-1.18566,0.0397128,0.0416113,545,1065,-11.5023,-0.202017
-672,-41,-11.5189,0.367676,-0.0145818,0.0261331,-0.0154313,0.0313207,-0.0197694,-1.24649,0.0297472,0.0414865,552,1065,-11.5189,-0.36766
-665,-41,-11.3777,0.536621,-0.0112553,0.0210823,-0.00932978,0.023581,-0.013754,-1.30912,0.0218028,0.040593,559,1065,-11.3777,-0.536572
-658,-41,-11.2453,0.819458,-0.00841149,0.0161993,-0.00503517,0.0171896,-0.00940179,-1.3766,0.0155705,0.039024,566,1065,-11.2453,-0.819469
-651,-41,-11.1995,1.06213,-0.00606213,0.0118312,-0.00218587,0.0120943,-0.00632528,-1.45098,0.010807,0.0265936,573,1065,-11.1995,-1.06213
-644,-41,-11.2814,1.09351,-0.00431138,0.00918164,-9.5476e-05,0.00918231,-0.00431206,-1.56372,0.00795832,0.0112191,580,1065,-11.2814,-1.09354
-637,-41,-11.2917,1.09839,-0.00265643,0.00585571,0.00142939,0.00608933,-0.00289005,1.40879,0.00529279,0.0121019,587,1065,-11.2917,-1.09843
-630,-41,-11.2962,1.14783,-0.00133291,0.00165722,0.000200979,0.00167067,-0.00134636,1.50398,0.00174523,0.0117849,594,1065,-11.2962,-1.14779
-623,-41,-11.2966,1.20044,-0.000884956,-4.09162e-06,-0.000974744,0.000625105,-0.00151415,-0.997591,0.00127016,0.0108796,601,1065,-11.2965,-1.20038
-616,-41,-11.2854,1.27075,-0.000942122,-0.000933061,-0.00233611,0.00139852,-0.0032737,-0.786368,0.00276898,0.0147725,608,1065,-11.2854,-1.27072
-609,-41,-11.2751,1.302,-0.000925393,-0.000693677,-0.00373859,0.00293085,-0.00454992,-0.800888,0.00435262,0.0213832,615,1065,-11.2752,-1.30203
-602,-41,-11.3049,1.30542,-0.000876522,-0.000309414,-0.00475534,0.00417082,-0.00535676,-0.815177,0.00551494,0.0127849,622,1065,-11.3048,-1.30539
-595,-41,-11.3248,1.34106,-0.000998924,-6.69371e-05,-0.00536145,0.00484873,-0.00591459,-0.828747,0.00622436,0.0133872,629,1065,-11.3248,-1.3411
-588,-41,-11.3585,0.953613,-0.00122458,0.000191058,-0.00556767,0.00509572,-0.00612924,-0.848624,0.00648988,0.0224172,636,1065,-11.3584,-0.953612
-581,-41,-11.3532,0.506958,-0.00138242,0.000892781,-0.00548959,0.0053614,-0.00585104,-0.887566,0.00647557,0.0332309,643,1065,-11.3532,-0.506971
-574,-41,-11.475,0.493042,-0.0015266,0.00166111,-0.00507267,0.00538443,-0.00524992,-0.937617,0.0061399,0.036034,650,1065,-11.475,-0.493045
-567,-41,-11.5346,0.543823,-0.00172062,0.00265965,-0.00432607,0.00531838,-0.00437936,-1.01972,0.00560773,0.0407306,657,1065,-11.5346,-0.543765
-560,-41,-11.3992,0.655884,-0.00198057,0.0038672,-0.00332099,0.00536803,-0.0034814,-1.14634,0.00514778,0.040198,664,1065,-11.3992,-0.655897
-553,-41,-11.286,0.634155,-0.00238255,0.00526113,-0.00215827,0.00582843,-0.00294986,-1.31376,0.00515818,0.0408176,671,1065,-11.286,-0.634128
-546,-41,-11.2363,0.638794,-0.00302806,0.00681193,-0.000950584,0.00690292,-0.00311905,-1.47537,0.00592206,0.0418173,678,1065,-11.2363,-0.638829
-539,-41,-11.2556,0.568115,-0.00406172,0.00843772,-0.000272817,0.00844367,-0.00406768,-1.54898,0.00736924,0.0417756,685,1065,-11.2556,-0.568128
-532,-41,-11.3115,0.333252,-0.00590436,0.0100674,-0.00157994,0.0102222,-0.00605915,-1.47314,0.00950194,0.0380605,692,1065,-11.3115,-0.333245
-525,-41,0,0,0,0,0,0,0,0,0,-1,699,1065,0,0
-518,-41,0,0,0,0,0,0,0,0,0,-1,706,1065,0,0
-511,-41,0,0,0,0,0,0,0,0,0,-1,713,1065,0,0
-504,-41,0,0,0,0,0,0,0,0,0,-1,720,1065,0,0
-497,-41,0,0,0,0,0,0,0,0,0,-1,727,1065,0,0
-490,-41,0,0,0,0,0,0,0,0,0,-1,734,1065,0,0
-483,-41,0,0,0,0,0,0,0,0,0,-1,741,1065,0,0
-476,-41,0,0,0,0,0,0,0,0,0,-1,748,1065,0,0
-469,-41,0,0,0,0,0,0,0,0,0,-1,755,1065,0,0
-462,-41,0,0,0,0,0,0,0,0,0,-1,762,1065,0,0
-455,-41,0,0,0,0,0,0,0,0,0,-1,769,1065,0,0
-448,-41,0,0,0,0,0,0,0,0,0,-1,776,1065,0,0
-441,-41,0,0,0,0,0,0,0,0,0,-1,783,1065,0,0
-434,-41,0,0,0,0,0,0,0,0,0,-1,790,1065,0,0
-427,-41,0,0,0,0,0,0,0,0,0,-1,797,1065,0,0
-420,-41,0,0,0,0,0,0,0,0,0,-1,804,1065,0,0
-413,-41,0,0,0,0,0,0,0,0,0,-1,811,1065,0,0
-406,-41,0,0,0,0,0,0,0,0,0,-1,818,1065,0,0
-399,-41,0,0,0,0,0,0,0,0,0,-1,825,1065,0,0
-392,-41,0,0,0,0,0,0,0,0,0,-1,832,1065,0,0
-385,-41,0,0,0,0,0,0,0,0,0,-1,839,1065,0,0
-378,-41,0,0,0,0,0,0,0,0,0,-1,846,1065,0,0
-371,-41,0,0,0,0,0,0,0,0,0,-1,853,1065,0,0
-364,-41,0,0,0,0,0,0,0,0,0,-1,860,1065,0,0
-357,-41,0,0,0,0,0,0,0,0,0,-1,867,1065,0,0
-350,-41,0,0,0,0,0,0,0,0,0,-1,874,1065,0,0
-343,-41,0,0,0,0,0,0,0,0,0,-1,881,1065,0,0
-336,-41,0,0,0,0,0,0,0,0,0,-1,888,1065,0,0
-329,-41,0,0,0,0,0,0,0,0,0,-1,895,1065,0,0
-322,-41,0,0,0,0,0,0,0,0,0,-1,902,1065,0,0
-315,-41,0,0,0,0,0,0,0,0,0,-1,909,1065,0,0
-308,-41,0,0,0,0,0,0,0,0,0,-1,916,1065,0,0
-301,-41,0,0,0,0,0,0,0,0,0,-1,923,1065,0,0
-294,-41,0,0,0,0,0,0,0,0,0,-1,930,1065,0,0
-287,-41,0,0,0,0,0,0,0,0,0,-1,937,1065,0,0
-280,-41,0,0,0,0,0,0,0,0,0,-1,944,1065,0,0
-273,-41,0,0,0,0,0,0,0,0,0,-1,951,1065,0,0
-266,-41,0,0,0,0,0,0,0,0,0,-1,958,1065,0,0
-259,-41,0,0,0,0,0,0,0,0,0,-1,965,1065,0,0
-252,-41,0,0,0,0,0,0,0,0,0,-1,972,1065,0,0
-245,-41,0,0,0,0,0,0,0,0,0,-1,979,1065,0,0
-238,-41,0,0,0,0,0,0,0,0,0,-1,986,1065,0,0
-231,-41,0,0,0,0,0,0,0,0,0,-1,993,1065,0,0
-224,-41,0,0,0,0,0,0,0,0,0,-1,1000,1065,0,0
-217,-41,0,0,0,0,0,0,0,0,0,-1,1007,1065,0,0
-210,-41,0,0,0,0,0,0,0,0,0,-1,1014,1065,0,0
-203,-41,0,0,0,0,0,0,0,0,0,-1,1021,1065,0,0
-196,-41,0,0,0,0,0,0,0,0,0,-1,1028,1065,0,0
-189,-41,0,0,0,0,0,0,0,0,0,-1,1035,1065,0,0
-182,-41,0,0,0,0,0,0,0,0,0,-1,1042,1065,0,0
-175,-41,0,0,0,0,0,0,0,0,0,-1,1049,1065,0,0
-168,-41,0,0,0,0,0,0,0,0,0,-1,1056,1065,0,0
-161,-41,0,0,0,0,0,0,0,0,0,-1,1063,1065,0,0
-154,-41,0,0,0,0,0,0,0,0,0,-1,1070,1065,0,0
-147,-41,0,0,0,0,0,0,0,0,0,-1,1077,1065,0,0
-140,-41,0,0,0,0,0,0,0,0,0,-1,1084,1065,0,0
-133,-41,0,0,0,0,0,0,0,0,0,-1,1091,1065,0,0
-126,-41,0,0,0,0,0,0,0,0,0,-1,1098,1065,0,0
-119,-41,0,0,0,0,0,0,0,0,0,-1,1105,1065,0,0
-112,-41,0,0,0,0,0,0,0,0,0,-1,1112,1065,0,0
-105,-41,0,0,0,0,0,0,0,0,0,-1,1119,1065,0,0
-98,-41,0,0,0,0,0,0,0,0,0,-1,1126,1065,0,0
-91,-41,0,0,0,0,0,0,0,0,0,-1,1133,1065,0,0
-84,-41,0,0,0,0,0,0,0,0,0,-1,1140,1065,0,0
-77,-41,0,0,0,0,0,0,0,0,0,-1,1147,1065,0,0
-70,-41,0,0,0,0,0,0,0,0,0,-1,1154,1065,0,0
-63,-41,0,0,0,0,0,0,0,0,0,-1,1161,1065,0,0
-56,-41,0,0,0,0,0,0,0,0,0,-1,1168,1065,0,0
-49,-41,0,0,0,0,0,0,0,0,0,-1,1175,1065,0,0
-42,-41,0,0,0,0,0,0,0,0,0,-1,1182,1065,0,0
-35,-41,0,0,0,0,0,0,0,0,0,-1,1189,1065,0,0
-28,-41,0,0,0,0,0,0,0,0,0,-1,1196,1065,0,0
-21,-41,0,0,0,0,0,0,0,0,0,-1,1203,1065,0,0
-14,-41,0,0,0,0,0,0,0,0,0,-1,1210,1065,0,0
-7,-41,0,0,0,0,0,0,0,0,0,-1,1217,1065,0,0
0,-41,0,0,0,0,0,0,0,0,0,-1,1224,1065,0,0
7,-41,0,0,0,0,0,0,0,0,0,-1,1231,1065,0,0
14,-41,0,0,0,0,0,0,0,0,0,-1,1238,1065,0,0
21,-41,0,0,0,0,0,0,0,0,0,-1,1245,1065,0,0
28,-41,0,0,0,0,0,0,0,0,0,-1,1252,1065,0,0
35,-41,0,0,0,0,0,0,0,0,0,-1,1259,1065,0,0
42,-41,0,0,0,0,0,0,0,0,0,-1,1266,1065,0,0
49,-41,0,0,0,0,0,0,0,0,0,-1,1273,1065,0,0
56,-41,0,0,0,0,0,0,0,0,0,-1,1280,1065,0,0
63,-41,0,0,0,0,0,0,0,0,0,-1,1287,1065,0,0
70,-41,0,0,0,0,0,0,0,0,0,-1,1294,1065,0,0
77,-41,0,0,0,0,0,0,0,0,0,-1,1301,1065,0,0
84,-41,0,0,0,0,0,0,0,0,0,-1,1308,1065,0,0
91,-41,0,0,0,0,0,0,0,0,0,-1,1315,1065,0,0
98,-41,0,0,0,0,0,0,0,0,0,-1,1322,1065,0,0
105,-41,0,0,0,0,0,0,0,0,0,-1,1329,1065,0,0
112,-41,0,0,0,0,0,0,0,0,0,-1,1336,1065,0,0
119,-41,0,0,0,0,0,0,0,0,0,-1,1343,1065,0,0
126,-41,0,0,0,0,0,0,0,0,0,-1,1350,1065,0,0
133,-41,0,0,0,0,0,0,0,0,0,-1,1357,1065,0,0
140,-41,0,0,0,0,0,0,0,0,0,-1,1364,1065,0,0
147,-41,0,0,0,0,0,0,0,0,0,-1,1371,1065,0,0
154,-41,0,0,0,0,0,0,0,0,0,-1,1378,1065,0,0
161,-41,0,0,0,0,0,0,0,0,0,-1,1385,1065,0,0
168,-41,0,0,0,0,0,0,0,0,0,-1,1392,1065,0,0
175,-41,0,0,0,0,0,0,0,0,0,-1,1399,1065,0,0
182,-41,0,0,0,0,0,0,0,0,0,-1,1406,1065,0,0
189,-41,0,0,0,0,0,0,0,0,0,-1,1413,1065,0,0
196,-41,0,0,0,0,0,0,0,0,0,-1,1420,1065,0,0
203,-41,0,0,0,0,0,0,0,0,0,-1,1427,1065,0,0
210,-41,0,0,0,0,0,0,0,0,0,-1,1434,1065,0,0
217,-41,0,0,0,0,0,0,0,0,0,-1,1441,1065,0,0
224,-41,0,0,0,0,0,0,0,0,0,-1,1448,1065,0,0
231,-41,0,0,0,0,0,0,0,0,0,-1,1455,1065,0,0
238,-41,0,0,0,0,0,0,0,0,0,-1,1462,1065,0,0
245,-41,0,0,0,0,0,0,0,0,0,-1,1469,1065,0,0
252,-41,0,0,0,0,0,0,0,0,0,-1,1476,1065,0,0
259,-41,0,0,0,0,0,0,0,0,0,-1,1483,1065,0,0
266,-41,0,0,0,0,0,0,0,0,0,-1,1490,1065,0,0
273,-41,0,0,0,0,0,0,0,0,0,-1,1497,1065,0,0
280,-41,0,0,0,0,0,0,0,0,0,-1,1504,1065,0,0
287,-41,0,0,0,0,0,0,0,0,0,-1,1511,1065,0,0
294,-41,0,0,0,0,0,0,0,0,0,-1,1518,1065,0,0
301,-41,0,0,0,0,0,0,0,0,0,-1,1525,1065,0,0
308,-41,0,0,0,0,0,0,0,0,0,-1,1532,1065,0,0
315,-41,0,0,0,0,0,0,0,0,0,-1,1539,1065,0,0
322,-41,0,0,0,0,0,0,0,0,0,-1,1546,1065,0,0
329,-41,0,0,0,0,0,0,0,0,0,-1,1553,1065,0,0
336,-41,0,0,0,0,0,0,0,0,0,-1,1560,1065,0,0
343,-41,0,0,0,0,0,0,0,0,0,-1,1567,1065,0,0
350,-41,0,0,0,0,0,0,0,0,0,-1,1574,1065,0,0
357,-41,0,0,0,0,0,0,0,0,0,-1,1581,1065,0,0
364,-41,0,0,0,0,0,0,0,0,0,-1,1588,1065,0,0
371,-41,0,0,0,0,0,0,0,0,0,-1,1595,1065,0,0
378,-41,0,0,0,0,0,0,0,0,0,-1,1602,1065,0,0
385,-41,0,0,0,0,0,0,0,0,0,-1,1609,1065,0,0
392,-41,0,0,0,0,0,0,0,0,0,-1,1616,1065,0,0
399,-41,0,0,0,0,0,0,0,0,0,-1,1623,1065,0,0
406,-41,0,0,0,0,0,0,0,0,0,-1,1630,1065,0,0
413,-41,0,0,0,0,0,0,0,0,0,-1,1637,1065,0,0
420,-41,0,0,0,0,0,0,0,0,0,-1,1644,1065,0,0
427,-41,0,0,0,0,0,0,0,0,0,-1,1651,1065,0,0
434,-41,0,0,0,0,0,0,0,0,0,-1,1658,1065,0,0
441,-41,0,0,0,0,0,0,0,0,0,-1,1665,1065,0,0
448,-41,0,0,0,0,0,0,0,0,0,-1,1672,1065,0,0
455,-41,0,0,0,0,0,0,0,0,0,-1,1679,1065,0,0
462,-41,0,0,0,0,0,0,0,0,0,-1,1686,1065,0,0
469,-41,0,0,0,0,0,0,0,0,0,-1,1693,1065,0,0
476,-41,0,0,0,0,0,0,0,0,0,-1,1700,1065,0,0
483,-41,0,0,0,0,0,0,0,0,0,-1,1707,1065,0,0
490,-41,0,0,0,0,0,0,0,0,0,-1,1714,1065,0,0
497,-41,0,0,0,0,0,0,0,0,0,-1,1721,1065,0,0
504,-41,0,0,0,0,0,0,0,0,0,-1,1728,1065,0,0
511,-41,0,0,0,0,0,0,0,0,0,-1,1735,1065,0,0
518,-41,0,0,0,0,0,0,0,0,0,-1,1742,1065,0,0
525,-41,0,0,0,0,0,0,0,0,0,-1,1749,1065,0,0
532,-41,0,0,0,0,0,0,0,0,0,-1,1756,1065,0,0
539,-41,0,0,0,0,0,0,0,0,0,-1,1763,1065,0,0
546,-41,0,0,0,0,0,0,0,0,0,-1,1770,1065,0,0
553,-41,0,0,0,0,0,0,0,0,0,-1,1777,1065,0,0
560,-41,0,0,0,0,0,0,0,0,0,-1,1784,1065,0,0
567,-41,0,0,0,0,0,0,0,0,0,-1,1791,1065,0,0
574,-41,0,0,0,0,0,0,0,0,0,-1,1798,1065,0,0
581,-41,0,0,0,0,0,0,0,0,0,-1,1805,1065,0,0
588,-41,0,0,0,0,0,0,0,0,0,-1,1812,1065,0,0
595,-41,0,0,0,0,0,0,0,0,0,-1,1819,1065,0,0
602,-41,0,0,0,0,0,0,0,0,0,-1,1826,1065,0,0
609,-41,0,0,0,0,0,0,0,0,0,-1,1833,1065,0,0
616,-41,0,0,0,0,0,0,0,0,0,-1,1840,1065,0,0
623,-41,0,0,0,0,0,0,0,0,0,-1,1847,1065,0,0
630,-41,0,0,0,0,0,0,0,0,0,-1,1854,1065,0,0
637,-41,0,0,0,0,0,0,0,0,0,-1,1861,1065,0,0
644,-41,0,0,0,0,0,0,0,0,0,-1,1868,1065,0,0
651,-41,17.7549,2.39258,0.00176586,3.06201e-06,0.00153262,0.00265245,-0.000883529,0.524446,0.00212494,0.0362038,1875,1065,17.7549,-2.39253
658,-41,17.6069,2.46313,0.00149773,-7.97149e-05,0.000567564,0.00168071,-0.000262698,0.31188,0.00121752,0.0409761,1882,1065,17.607,-2.46313
665,-41,17.5087,2.6073,0.00106171,-6.34115e-05,1.73721e-05,0.00106198,-6.36797e-05,0.0154353,0.00073014,0.0424591,1889,1065,17.5087,-2.60735
672,-41,17.6501,2.53088,0.000653495,-0.000111712,0.000349802,0.0007893,-0.000247516,0.370321,0.000625255,0.0397243,1896,1065,17.6501,-2.53088
679,-41,17.7605,2.46509,-0.000211426,-0.000195152,0.00140085,0.00119759,-0.00160416,0.788302,0.00162326,0.0380661,1903,1065,17.7604,-2.46504
686,-41,17.7653,2.49597,-0.00125149,-0.000309858,0.00261434,0.00187572,-0.00343707,0.874488,0.00311118,0.0406039,1910,1065,17.7653,-2.49594
693,-41,17.7633,2.42126,-0.00214109,-0.000430021,0.0037532,0.00256392,-0.00513503,0.897457,0.00452686,0.0415699,1917,1065,17.7633,-2.42126
700,-41,17.7599,2.52551,-0.00289447,-0.000529211,0.0047023,0.00313689,-0.00656057,0.908593,0.00571396,0.0400029,1924,1065,17.7598,-2.52556
707,-41,17.6597,2.55005,-0.00350864,-0.000586105,0.00529292,0.00344356,-0.0075383,0.920083,0.00648563,0.0302523,1931,1065,17.6597,-2.5501
714,-41,17.6542,2.57715,-0.00388585,-0.000599283,0.00575007,0.0037377,-0.00822284,0.924581,0.00706541,0.0178307,1938,1065,17.6542,-2.57719
721,-41,17.7126,3.23291,0,0,0,0,0,0,0,-1,1945,1065,17.7126,-3.23287
728,-41,17.4386,3.49951,-0.00428312,-0.00040929,0.00588722,0.00385145,-0.00854386,0.944323,0.00732537,0.028334,1952,1065,17.4386,-3.49948
735,-41,17.291,3.5498,-0.00405889,-0.000180402,0.00544943,0.00366455,-0.00790385,0.956342,0.00682687,0.0147139,1959,1065,17.291,-3.54982
742,-41,17.2776,3.54395,-0.00330824,0.000169539,0.0048572,0.00358973,-0.00672843,0.957291,0.00604837,0.012991,1966,1065,17.2776,-3.54394
749,-41,17.3136,3.54541,-0.00263546,0.000565009,0.00404253,0.00331251,-0.00538296,0.97386,0.00506755,0.0127699,1973,1065,17.3136,-3.54542
756,-41,17.3164,3.54858,-0.00209786,0.00135761,0.00304559,0.00313141,-0.00387165,1.04341,0.00405074,0.0123222,1980,1065,17.3164,-3.54854
763,-41,17.2878,3.52332,-0.00179217,0.00252823,0.00174006,0.00314189,-0.00240583,1.23175,0.00321236,0.0108163,1987,1065,17.2879,-3.52327
770,-41,17.2599,3.49976,-0.001493,0.00390278,0.000402655,0.00393266,-0.00152288,1.49672,0.00325057,0.0125455,1994,1065,17.2598,-3.49972
777,-41,17.2565,3.46643,-0.00152575,0.00566566,-0.00079521,0.00575255,-0.00161263,-1.46197,0.0044706,0.0133291,2001,1065,17.2565,-3.46645
784,-41,17.276,3.40515,-0.00247324,0.00787378,-0.00173032,0.00815547,-0.00275493,-1.40942,0.00655131,0.0233957,2008,1065,17.276,-3.40521
791,-41,17.5917,3.55908,-0.00447336,0.0106363,-0.00296975,0.011199,-0.00503609,-1.38353,0.00959582,0.0441057,2015,1065,17.5917,-3.55906
798,-41,17.8295,3.73901,0,0,0,0,0,0,0,-1,2022,1065,17.8295,-3.73896
805,-41,17.6907,2.40198,0,0,0,0,0,0,0,-1,2029,1065,17.6907,-2.40203
812,-41,17.6799,3.08899,0,0,0,0,0,0,0,-1,2036,1065,17.6799,-3.08903
-700,-48,-8.58813,4.77209,-0.0305109,0.0251507,-0.0657999,0.0687635,-0.0741236,-0.985469,0.0825153,0.0462729,524,1072,-8.58815,-4.77214
-693,-48,-8.61365,3.35498,-0.0256296,0.0316984,-0.0455972,0.0568928,-0.050824,-1.066,0.0622232,0.0445184,531,1072,-8.61362,-3.35498
-686,-48,-10.3604,0.286255,0,0,0,0,0,0,0,-1,538,1072,-10.3604,-0.2863
-679,-48,-11.1404,-0.0394287,-0.0167679,0.0294171,-0.020361,0.0371115,-0.0244624,-1.20949,0.0357989,0.0433859,545,1072,-11.1404,0.0393684
-672,-48,-11.1458,0.0153809,-0.0130979,0.0252373,-0.0126439,0.0290319,-0.0168925,-1.27923,0.0268215,0.0420609,552,1072,-11.1458,-0.0154105
-665,-48,-11.2888,0.419067,-0.0099444,0.0205236,-0.00714783,0.0221171,-0.0115379,-1.35144,0.0197481,0.043221,559,1072,-11.2888,-0.419051
-658,-48,-11.2308,0.647217,-0.00732385,0.0158826,-0.00338432,0.0163661,-0.00780733,-1.4289,0.0142451,0.0445694,566,1072,-11.2308,-0.647185
-651,-48,-11.1893,0.917358,-0.00520953,0.0116813,-0.000982071,0.0117382,-0.00526644,-1.51291,0.0100518,0.0291704,573,1072,-11.1893,-0.917397
-644,-48,-11.2296,1.10156,-0.00367765,0.00908512,0.000768825,0.00913127,-0.0037238,1.51085,0.00763762,0.0126986,580,1072,-11.2296,-1.10153
-637,-48,-11.2455,1.10388,-0.00222284,0.00589443,0.00194165,0.00633496,-0.00266338,1.34769,0.0053374,0.0132818,587,1072,-11.2455,-1.10389
-630,-48,-11.2568,1.14148,-0.00115814,0.00179025,0.000348809,0.00183096,-0.00119884,1.45463,0.0017619,0.0152206,594,1072,-11.2568,-1.14146
-623,-48,-11.2538,1.19348,-0.00102126,0.000140813,-0.00101842,0.000732286,-0.00161273,-1.04463,0.00138534,0.0103302,601,1072,-11.2538,-1.19349
-616,-48,-11.2515,1.24097,-0.00122546,-0.000871439,-0.00243699,0.00139496,-0.00349186,-0.821652,0.0029067,0.00959396,608,1072,-11.2515,-1.24091
-609,-48,-11.249,1.27087,-0.00127146,-0.000783199,-0.00394219,0.00292242,-0.00497707,-0.816322,0.00461191,0.0116767,615,1072,-11.249,-1.27084
-602,-48,-11.2621,1.31421,-0.00125234,-0.00050567,-0.00502172,0.00415657,-0.00591458,-0.822502,0.00584404,0.0118909,622,1072,-11.2621,-1.3142
-595,-48,-11.2629,1.36682,-0.00139661,-0.000350476,-0.00571007,0.00486044,-0.00660752,-0.831073,0.00664659,0.0146504,629,1072,-11.2629,-1.36686
-588,-48,-11.312,1.01538,-0.0016188,-0.000116904,-0.00599926,0.00517823,-0.00691393,-0.847661,0.00700534,0.0277653,636,1072,-11.312,-1.01536
-581,-48,-11.3431,0.430176,-0.00172825,0.000523997,-0.00598065,0.00548363,-0.00668788,-0.878456,0.00703868,0.0408829,643,1072,-11.3432,-0.430203
-574,-48,-11.3199,0.460205,-0.00179551,0.00124924,-0.00563765,0.00556645,-0.00611272,-0.917271,0.00674543,0.0397805,650,1072,-11.3199,-0.460237
-567,-48,-11.3234,0.698975,-0.00185751,0.00221374,-0.00495335,0.00553343,-0.0051772,-0.980357,0.00618492,0.0377765,657,1072,-11.3233,-0.699035
-560,-48,-11.3755,0.812134,-0.00193133,0.00339863,-0.00399635,0.00553708,-0.00406978,-1.07946,0.00556805,0.039418,664,1072,-11.3755,-0.812157
-553,-48,-11.408,0.630127,-0.00209124,0.00478189,-0.00286042,0.00581657,-0.00312592,-1.22372,0.00524027,0.0406194,671,1072,-11.408,-0.630115
-546,-48,-11.3124,0.667725,-0.00243305,0.00633509,-0.0016461,0.00663394,-0.00273189,-1.3912,0.0055616,0.0394296,678,1072,-11.3124,-0.667665
-539,-48,-11.222,0.468994,-0.00310997,0.00799107,-0.000897171,0.00806311,-0.00318201,-1.49067,0.00669314,0.0406922,685,1072,-11.222,-0.468954
-532,-48,-11.2998,0.390503,-0.00465123,0.00956587,-0.00213877,0.00988065,-0.00496601,-1.42467,0.00872687,0.0394732,692,1072,-11.2998,-0.390447
-525,-48,0,0,0,0,0,0,0,0,0,-1,699,1072,0,0
-518,-48,0,0,0,0,0,0,0,0,0,-1,706,1072,0,0
-511,-48,0,0,0,0,0,0,0,0,0,-1,713,1072,0,0
-504,-48,0,0,0,0,0,0,0,0,0,-1,720,1072,0,0
-497,-48,0,0,0,0,0,0,0,0,0,-1,727,1072,0,0
-490,-48,0,0,0,0,0,0,0,0,0,-1,734,1072,0,0
-483,-48,0,0,0,0,0,0,0,0,0,-1,741,1072,0,0
-476,-48,0,0,0,0,0,0,0,0,0,-1,748,1072,0,0
-469,-48,0,0,0,0,0,0,0,0,0,-1,755,1072,0,0
-462,-48,0,0,0,0,0,0,0,0,0,-1,762,1072,0,0
-455,-48,0,0,0,0,0,0,0,0,0,-1,769,1072,0,0
-448,-48,0,0,0,0,0,0,0,0,0,-1,776,1072,0,0
-441,-48,0,0,0,0,0,0,0,0,0,-1,783,1072,0,0
-434,-48,0,0,0,0,0,0,0,0,0,-1,790,1072,0,0
-427,-48,0,0,0,0,0,0,0,0,0,-1,797,1072,0,0
-420,-48,0,0,0,0,0,0,0,0,0,-1,804,1072,0,0
-413,-48,0,0,0,0,0,0,0,0,0,-1,811,1072,0,0
-406,-48,0,0,0,0,0,0,0,0,0,-1,818,1072,0,0
-399,-48,0,0,0,0,0,0,0,0,0,-1,825,1072,0,0
-392,-48,0,0,0,0,0,0,0,0,0,-1,832,1072,0,0
-385,-48,0,0,0,0,0,0,0,0,0,-1,839,1072,0,0
-378,-48,0,0,0,0,0,0,0,0,0,-1,846,1072,0,0
-371,-48,0,0,0,0,0,0,0,0,0,-1,853,1072,0,0
-364,-48,0,0,0,0,0,0,0,0,0,-1,860,1072,0,0
-357,-48,0,0,0,0,0,0,0,0,0,-1,867,1072,0,0
-350,-48,0,0,0,0,0,0,0,0,0,-1,874,1072,0,0
-343,-48,0,0,0,0,0,0,0,0,0,-1,881,1072,0,0
-336,-48,0,0,0,0,0,0,0,0,0,-1,888,1072,0,0
-329,-48,0,0,0,0,0,0,0,0,0,-1,895,1072,0,0
-322,-48,0,0,0,0,0,0,0,0,0,-1,902,1072,0,0
-315,-48,0,0,0,0,0,0,0,0,0,-1,909,1072,0,0
-308,-48,0,0,0,0,0,0,0,0,0,-1,916,1072,0,0
-301,-48,0,0,0,0,0,0,0,0,0,-1,923,1072,0,0
-294,-48,0,0,0,0,0,0,0,0,0,-1,930,1072,0,0
-287,-48,0,0,0,0,0,0,0,0,0,-1,937,1072,0,0
-280,-48,0,0,0,0,0,0,0,0,0,-1,944,1072,0,0
-273,-48,0,0,0,0,0,0,0,0,0,-1,951,1072,0,0
-266,-48,0,0,0,0,0,0,0,0,0,-1,958,1072,0,0
-259,-48,0,0,0,0,0,0,0,0,0,-1,965,1072,0,0
-252,-48,0,0,0,0,0,0,0,0,0,-1,972,1072,0,0
-245,-48,0,0,0,0,0,0,0,0,0,-1,979,1072,0,0
-238,-48,0,0,0,0,0,0,0,0,0,-1,986,1072,0,0
-231,-48,0,0,0,0,0,0,0,0,0,-1,993,1072,0,0
-224,-48,0,0,0,0,0,0,0,0,0,-1,1000,1072,0,0
-217,-48,0,0,0,0,0,0,0,0,0,-1,1007,1072,0,0
-210,-48,0,0,0,0,0,0,0,0,0,-1,1014,1072,0,0
-203,-48,0,0,0,0,0,0,0,0,0,-1,1021,1072,0,0
-196,-48,0,0,0,0,0,0,0,0,0,-1,1028,1072,0,0
-189,-48,0,0,0,0,0,0,0,0,0,-1,1035,1072,0,0
-182,-48,0,0,0,0,0,0,0,0,0,-1,1042,1072,0,0
-175,-48,0,0,0,0,0,0,0,0,0,-1,1049,1072,0,0
-168,-48,0,0,0,0,0,0,0,0,0,-1,1056,1072,0,0
-161,-48,0,0,0,0,0,0,0,0,0,-1,1063,1072,0,0
-154,-48,0,0,0,0,0,0,0,0,0,-1,1070,1072,0,0
-147,-48,0,0,0,0,0,0,0,0,0,-1,1077,1072,0,0
-140,-48,0,0,0,0,0,0,0,0,0,-1,1084,1072,0,0
-133,-48,0,0,0,0,0,0,0,0,0,-1,1091,1072,0,0
-126,-48,0,0,0,0,0,0,0,0,0,-1,1098,1072,0,0
-119,-48,0,0,0,0,0,0,0,0,0,-1,1105,1072,0,0
-112,-48,0,0,0,0,0,0,0,0,0,-1,1112,1072,0,0
-105,-48,0,0,0,0,0,0,0,0,0,-1,1119,1072,0,0
-98,-48,0,0,0,0,0,0,0,0,0,-1,1126,1072,0,0
-91,-48,0,0,0,0,0,0,0,0,0,-1,1133,1072,0,0
-84,-48,0,0,0,0,0,0,0,0,0,-1,1140,1072,0,0
-77,-48,0,0,0,0,0,0,0,0,0,-1,1147,1072,0,0
-70,-48,0,0,0,0,0,0,0,0,0,-1,1154,1072,0,0
-63,-48,0,0,0,0,0,0,0,0,0,-1,1161,1072,0,0
-56,-48,0,0,0,0,0,0,0,0,0,-1,1168,1072,0,0
-49,-48,0,0,0,0,0,0,0,0,0,-1,1175,1072,0,0
-42,-48,0,0,0,0,0,0,0,0,0,-1,1182,1072,0,0
-35,-48,0,0,0,0,0,0,0,0,0,-1,1189,1072,0,0
-28,-48,0,0,0,0,0,0,0,0,0,-1,1196,1072,0,0
-21,-48,0,0,0,0,0,0,0,0,0,-1,1203,1072,0,0
-14,-48,0,0,0,0,0,0,0,0,0,-1,1210,1072,0,0
-7,-48,0,0,0,0,0,0,0,0,0,-1,1217,1072,0,0
0,-48,0,0,0,0,0,0,0,0,0,-1,1224,1072,0,0
7,-48,0,0,0,0,0,0,0,0,0,-1,1231,1072,0,0
14,-48,0,0,0,0,0,0,0,0,0,-1,1238,1072,0,0
21,-48,0,0,0,0,0,0,0,0,0,-1,1245,1072,0,0
28,-48,0,0,0,0,0,0,0,0,0,-1,1252,1072,0,0
35,-48,0,0,0,0,0,0,0,0,0,-1,1259,1072,0,0
42,-48,0,0,0,0,0,0,0,0,0,-1,1266,1072,0,0
49,-48,0,0,0,0,0,0,0,0,0,-1,1273,1072,0,0
56,-48,0,0,0,0,0,0,0,0,0,-1,1280,1072,0,0
63,-48,0,0,0,0,0,0,0,0,0,-1,1287,1072,0,0
70,-48,0,0,0,0,0,0,0,0,0,-1,1294,1072,0,0
77,-48,0,0,0,0,0,0,0,0,0,-1,1301,1072,0,0
84,-48,0,0,0,0,0,0,0,0,0,-1,1308,1072,0,0
91,-48,0,0,0,0,0,0,0,0,0,-1,1315,1072,0,0
98,-48,0,0,0,0,0,0,0,0,0,-1,1322,1072,0,0
105,-48,0,0,0,0,0,0,0,0,0,-1,1329,1072,0,0
112,-48,0,0,0,0,0,0,0,0,0,-1,1336,1072,0,0
119,-48,0,0,0,0,0,0,0,0,0,-1,1343,1072,0,0
126,-48,0,0,0,0,0,0,0,0,0,-1,1350,1072,0,0
133,-48,0,0,0,0,0,0,0,0,0,-1,1357,1072,0,0
140,-48,0,0,0,0,0,0,0,0,0,-1,1364,1072,0,0
147,-48,0,0,0,0,0,0,0,0,0,-1,1371,1072,0,0
154,-48,0,0,0,0,0,0,0,0,0,-1,1378,1072,0,0
161,-48,0,0,0,0,0,0,0,0,0,-1,1385,1072,0,0
168,-48,0,0,0,0,0,0,0,0,0,-1,1392,1072,0,0
175,-48,0,0,0,0,0,0,0,0,0,-1,1399,1072,0,0
182,-48,0,0,0,0,0,0,0,0,0,-1,1406,1072,0,0
189,-48,0,0,0,0,0,0,0,0,0,-1,1413,1072,0,0
196,-48,0,0,0,0,0,0,0,0,0,-1,1420,1072,0,0
203,-48,0,0,0,0,0,0,0,0,0,-1,1427,1072,0,0
210,-48,0,0,0,0,0,0,0,0,0,-1,1434,1072,0,0
217,-48,0,0,0,0,0,0,0,0,0,-1,1441,1072,0,0
224,-48,0,0,0,0,0,0,0,0,0,-1,1448,1072,0,0
231,-48,0,0,0,0,0,0,0,0,0,-1,1455,1072,0,0
238,-48,0,0,0,0,0,0,0,0,0,-1,1462,1072,0,0
245,-48,0,0,0,0,0,0,0,0,0,-1,1469,1072,0,0
252,-48,0,0,0,0,0,0,0,0,0,-1,1476,1072,0,0
259,-48,0,0,0,0,0,0,0,0,0,-1,1483,1072,0,0
266,-48,0,0,0,0,0,0,0,0,0,-1,1490,1072,0,0
273,-48,0,0,0,0,0,0,0,0,0,-1,1497,1072,0,0
280,-48,0,0,0,0,0,0,0,0,0,-1,1504,1072,0,0
287,-48,0,0,0,0,0,0,0,0,0,-1,1511,1072,0,0
294,-48,0,0,0,0,0,0,0,0,0,-1,1518,1072,0,0
301,-48,0,0,0,0,0,0,0,0,0,-1,1525,1072,0,0
308,-48,0,0,0,0,0,0,0,0,0,-1,1532,1072,0,0
315,-48,0,0,0,0,0,0,0,0,0,-1,1539,1072,0,0
322,-48,0,0,0,0,0,0,0,0,0,-1,1546,1072,0,0
329,-48,0,0,0,0,0,0,0,0,0,-1,1553,1072,0,0
336,-48,0,0,0,0,0,0,0,0,0,-1,1560,1072,0,0
343,-48,0,0,0,0,0,0,0,0,0,-1,1567,1072,0,0
350,-48,0,0,0,0,0,0,0,0,0,-1,1574,1072,0,0
357,-48,0,0,0,0,0,0,0,0,0,-1,1581,1072,0,0
364,-48,0,0,0,0,0,0,0,0,0,-1,1588,1072,0,0
371,-48,0,0,0,0,0,0,0,0,0,-1,1595,1072,0,0
378,-48,0,0,0,0,0,0,0,0,0,-1,1602,1072,0,0
385,-48,0,0,0,0,0,0,0,0,0,-1,1609,1072,0,0
392,-48,0,0,0,0,0,0,0,0,0,-1,1616,1072,0,0
399,-48,0,0,0,0,0,0,0,0,0,-1,1623,1072,0,0
406,-48,0,0,0,0,0,0,0,0,0,-1,1630,1072,0,0
413,-48,0,0,0,0,0,0,0,0,0,-1,1637,1072,0,0
420,-48,0,0,0,0,0,0,0,0,0,-1,1644,1072,0,0
427,-48,0,0,0,0,0,0,0,0,0,-1,1651,1072,0,0
434,-48,0,0,0,0,0,0,0,0,0,-1,1658,1072,0,0
441,-48,0,0,0,0,0,0,0,0,0,-1,1665,1072,0,0
448,-48,0,0,0,0,0,0,0,0,0,-1,1672,1072,0,0
455,-48,0,0,0,0,0,0,0,0,0,-1,1679,1072,0,0
462,-48,0,0,0,0,0,0,0,0,0,-1,1686,1072,0,0
469,-48,0,0,0,0,0,0,0,0,0,-1,1693,1072,0,0
476,-48,0,0,0,0,0,0,0,0,0,-1,1700,1072,0,0
483,-48,0,0,0,0,0,0,0,0,0,-1,1707,1072,0,0
490,-48,0,0,0,0,0,0,0,0,0,-1,1714,1072,0,0
497,-48,0,0,0,0,0,0,0,0,0,-1,1721,1072,0,0
504,-48,0,0,0,0,0,0,0,0,0,-1,1728,1072,0,0
511,-48,0,0,0,0,0,0,0,0,0,-1,1735,1072,0,0
518,-48,0,0,0,0,0,0,0,0,0,-1,1742,1072,0,0
525,-48,0,0,0,0,0,0,0,0,0,-1,1749,1072,0,0
532,-48,0,0,0,0,0,0,0,0,0,-1,1756,1072,0,0
539,-48,0,0,0,0,0,0,0,0,0,-1,1763,1072,0,0
546,-48,0,0,0,0,0,0,0,0,0,-1,1770,1072,0,0
553,-48,0,0,0,0,0,0,0,0,0,-1,1777,1072,0,0
560,-48,0,0,0,0,0,0,0,0,0,-1,1784,1072,0,0
567,-48,0,0,0,0,0,0,0,0,0,-1,1791,1072,0,0
574,-48,0,0,0,0,0,0,0,0,0,-1,1798,1072,0,0
581,-48,0,0,0,0,0,0,0,0,0,-1,1805,1072,0,0
588,-48,0,0,0,0,0,0,0,0,0,-1,1812,1072,0,0
595,-48,0,0,0,0,0,0,0,0,0,-1,1819,1072,0,0
602,-48,0,0,0,0,0,0,0,0,0,-1,1826,1072,0,0
609,-48,0,0,0,0,0,0,0,0,0,-1,1833,1072,0,0
616,-48,0,0,0,0,0,0,0,0,0,-1,1840,1072,0,0
623,-48,0,0,0,0,0,0,0,0,0,-1,1847,1072,0,0
630,-48,0,0,0,0,0,0,0,0,0,-1,1854,1072,0,0
637,-48,0,0,0,0,0,0,0,0,0,-1,1861,1072,0,0
644,-48,0,0,0,0,0,0,0,0,0,-1,1868,1072,0,0
651,-48,17.7094,2.48035,0.00339144,0.000242503,0.00181878,0.00422257,-0.000588631,0.428637,0.00303038,0.0311785,1875,1072,17.7093,-2.48034
658,-48,17.5929,2.56348,0.00261506,0.000106356,0.000807034,0.00285225,-0.000130835,0.285856,0.00194658,0.0355341,1882,1072,17.5929,-2.56351
665,-48,17.412,2.61426,0.00182849,4.60757e-05,0.000247358,0.00186218,1.23848e-05,0.13537,0.00123734,0.041923,1889,1072,17.4119,-2.61431
672,-48,17.4906,2.30664,0.00109319,-0.000119708,0.000670271,0.00139064,-0.000417164,0.417673,0.00109302,0.0376533,1896,1072,17.4906,-2.30662
679,-48,17.6193,2.34314,-4.74318e-05,-0.000334947,0.0018133,0.0016278,-0.00201018,0.745841,0.00210425,0.0368811,1903,1072,17.6193,-2.34319
686,-48,17.6063,2.37964,-0.00126177,-0.000558614,0.0030924,0.00220213,-0.00402251,0.842001,0.00364466,0.0391898,1910,1072,17.6063,-2.37961
693,-48,17.6774,2.46143,-0.00227537,-0.000760353,0.00428446,0.00283304,-0.00586877,0.872896,0.00512489,0.0390907,1917,1072,17.6774,-2.46145
700,-48,17.7183,2.51294,-0.00311054,-0.000902666,0.00525704,0.00336509,-0.0073783,0.888891,0.00634531,0.0348801,1924,1072,17.7183,-2.51292
707,-48,17.6609,2.47192,-0.00379933,-0.000979326,0.00586038,0.00363829,-0.00841695,0.903454,0.00714004,0.0287534,1931,1072,17.6609,-2.47189
714,-48,17.6337,2.63855,-0.00419066,-0.00101087,0.00631581,0.00391209,-0.00911362,0.908703,0.00771768,0.0258503,1938,1072,17.6336,-2.63852
721,-48,17.5861,3.21997,-0.00436402,-0.000958942,0.00653085,0.00408764,-0.00941061,0.912906,0.00799265,0.0376409,1945,1072,17.5861,-3.22
728,-48,17.3141,3.5979,0,0,0,0,0,0,0,-1,1952,1072,17.3141,-3.59791
735,-48,17.2909,3.59229,-0.00424772,-0.000456873,0.00583302,0.00378096,-0.00848555,0.94249,0.00725362,0.0166805,1959,1072,17.2909,-3.59224
742,-48,17.256,3.57275,-0.00344847,9.11232e-05,0.00514614,0.00376329,-0.00712064,0.951016,0.00638272,0.0136159,1966,1072,17.2559,-3.57277
749,-48,17.2775,3.5343,-0.00264584,0.000710996,0.00418467,0.0035413,-0.00547614,0.97612,0.00524602,0.0124255,1973,1072,17.2774,-3.53427
756,-48,17.2799,3.51306,-0.00192485,0.0017493,0.00297462,0.00340839,-0.00358394,1.06202,0.00403745,0.0118857,1980,1072,17.2799,-3.51307
763,-48,17.2699,3.50378,-0.00136937,0.00311243,0.00136081,0.00349325,-0.00175019,1.29793,0.00308256,0.0126621,1987,1072,17.2699,-3.50376
770,-48,17.278,3.47998,-0.00078208,0.0047979,-0.000302309,0.00481423,-0.000798411,-1.51683,0.00350606,0.0130207,1994,1072,17.278,-3.47995
777,-48,17.2551,3.44336,-0.000463141,0.00688991,-0.00186625,0.00733646,-0.000909687,-1.33594,0.00522069,0.0106089,2001,1072,17.2551,-3.44338
784,-48,17.2712,3.41528,-0.00097569,0.00941764,-0.00331226,0.0103835,-0.00194153,-1.28707,0.00765204,0.022554,2008,1072,17.2713,-3.41525
791,-48,17.385,3.74255,-0.00235268,0.0124747,-0.00528353,0.0141647,-0.00404275,-1.26121,0.0110403,0.0418373,2015,1072,17.385,-3.7426
798,-48,17.5022,4.02112,0,0,0,0,0,0,0,-1,2022,1072,17.5022,-4.02115
805,-48,17.71,1.58557,0,0,0,0,0,0,0,-1,2029,1072,17.7099,-1.58559
812,-48,17.4414,2.0686,0,0,0,0,0,0,0,-1,2036,1072,17.4415,-2.06864
-700,-55,-8.5191,5.02917,0,0,0,0,0,0,0,-1,524,1079,-8.51911,-5.02913
-693,-55,-11.202,0.252075,0,0,0,0,0,0,0,-1,531,1079,-11.202,-0.252054
-686,-55,-10.8242,0.277344,-0.0212849,0.0292487,-0.0257603,0.0400652,-0.0321014,-1.17326,0.0417499,0.0458574,538,1079,-10.8242,-0.27739
-679,-55,-11.0029,1.33789,-0.01698,0.0272105,-0.0160458,0.0324222,-0.0221917,-1.25675,0.0317152,0.0468072,545,1079,-11.0029,-1.3379
-672,-55,-10.8037,-0.688721,-0.0132405,0.023608,-0.00919412,0.0257746,-0.0154072,-1.33936,0.0240262,0.044542,552,1079,-10.8037,0.688703
-665,-55,-10.9677,0.00976563,-0.0100575,0.0193849,-0.0044952,0.0200559,-0.0107285,-1.42261,0.0180433,0.0465206,559,1079,-10.9677,-0.00977885
-658,-55,-11.2431,0.450684,-0.00742723,0.0151454,-0.0014335,0.0152361,-0.0075179,-1.50763,0.0133866,0.0485039,566,1079,-11.2431,-0.450645
-651,-55,-11.2372,0.793579,-0.00530648,0.0112575,0.000383644,0.0112664,-0.00531536,1.54765,0.00977684,0.0327967,573,1079,-11.2372,-0.793528
-644,-55,-11.191,1.07007,-0.00378012,0.00877555,0.00165862,0.00899096,-0.00399553,1.44165,0.00768043,0.0142689,580,1079,-11.1911,-1.07011
-637,-55,-11.2039,1.09241,-0.00236806,0.00577619,0.00236216,0.00641172,-0.00300359,1.30797,0.00555337,0.0117451,587,1079,-11.2039,-1.09242
-630,-55,-11.1948,1.14233,-0.00140733,0.00194869,0.000436707,0.00200459,-0.00146323,1.44349,0.00201026,0.014035,594,1079,-11.1947,-1.14234
-623,-55,-11.1917,1.19971,-0.0013787,0.000393826,-0.00114689,0.000956984,-0.00194186,-1.11435,0.00170554,0.014208,601,1079,-11.1916,-1.1997
-616,-55,-11.1895,1.23547,-0.001586,-0.000750714,-0.00259187,0.00145695,-0.00379366,-0.865279,0.00312991,0.0134829,608,1079,-11.1895,-1.2355
-609,-55,-11.1968,1.2948,-0.00164352,-0.0008471,-0.00417072,0.00294437,-0.005435,-0.832993,0.00490855,0.013638,615,1079,-11.1968,-1.29484
-602,-55,-11.2148,1.34509,-0.00163334,-0.000695555,-0.00529655,0.00415282,-0.00648172,-0.829547,0.00618873,0.0127052,622,1079,-11.2148,-1.34507
-595,-55,-11.1853,1.40039,-0.00179695,-0.000619922,-0.00606122,0.00488129,-0.00729816,-0.833794,0.0070778,0.0145828,629,1079,-11.1853,-1.40044
-588,-55,-11.2012,0.989014,-0.00202854,-0.000421178,-0.00641971,0.00524496,-0.00769468,-0.847669,0.0075152,0.0275325,636,1079,-11.2012,-0.989024
-581,-55,-11.2733,0.510376,-0.00211905,0.00012112,-0.00643017,0.00552803,-0.00752596,-0.871629,0.00756609,0.0418158,643,1079,-11.2733,-0.510316
-574,-55,-11.1518,0.672607,-0.00213732,0.000789984,-0.00614326,0.00564154,-0.00698888,-0.902345,0.00730599,0.0415661,650,1079,-11.1518,-0.672566
-567,-55,-11.1573,0.625244,-0.0021018,0.00169638,-0.00549403,0.00561028,-0.00601571,-0.951802,0.00671363,0.0382707,657,1079,-11.1573,-0.625217
-560,-55,-11.3806,0.574463,-0.002039,0.00282914,-0.00454489,0.00555072,-0.00476058,-1.03124,0.00595905,0.0404908,664,1079,-11.3806,-0.574414
-553,-55,-11.4073,0.693237,-0.00202725,0.00416638,-0.00337986,0.00565364,-0.00351451,-1.15626,0.00534104,0.0416753,671,1079,-11.4073,-0.693239
-546,-55,-11.2889,0.626709,-0.00216033,0.00567812,-0.0020831,0.00619733,-0.00267953,-1.32653,0.00525749,0.0388664,678,1079,-11.2889,-0.626723
-539,-55,-11.2737,0.496948,-0.00260838,0.0073032,-0.00115091,0.00743509,-0.00274027,-1.4567,0.00607961,0.0383419,685,1079,-11.2737,-0.496909
-532,-55,-11.3761,0.442261,-0.00404828,0.00875574,-0.00211612,0.0090964,-0.00438895,-1.41118,0.00794232,0.0379893,692,1079,-11.3761,-0.442239
-525,-55,0,0,0,0,0,0,0,0,0,-1,699,1079,0,0
-518,-55,0,0,0,0,0,0,0,0,0,-1,706,1079,0,0
-511,-55,0,0,0,0,0,0,0,0,0,-1,713,1079,0,0
-504,-55,0,0,0,0,0,0,0,0,0,-1,720,1079,0,0
-497,-55,0,0,0,0,0,0,0,0,0,-1,727,1079,0,0
-490,-55,0,0,0,0,0,0,0,0,0,-1,734,1079,0,0
-483,-55,0,0,0,0,0,0,0,0,0,-1,741,1079,0,0
-476,-55,0,0,0,0,0,0,0,0,0,-1,748,1079,0,0
-469,-55,0,0,0,0,0,0,0,0,0,-1,755,1079,0,0
-462,-55,0,0,0,0,0,0,0,0,0,-1,762,1079,0,0
-455,-55,0,0,0,0,0,0,0,0,0,-1,769,1079,0,0
-448,-55,0,0,0,0,0,0,0,0,0,-1,776,1079,0,0
-441,-55,0,0,0,0,0,0,0,0,0,-1,783,1079,0,0
-434,-55,0,0,0,0,0,0,0,0,0,-1,790,1079,0,0
-427,-55,0,0,0,0,0,0,0,0,0,-1,797,1079,0,0
-420,-55,0,0,0,0,0,0,0,0,0,-1,804,1079,0,0
-413,-55,0,0,0,0,0,0,0,0,0,-1,811,1079,0,0
-406,-55,0,0,0,0,0,0,0,0,0,-1,818,1079,0,0
-399,-55,0,0,0,0,0,0,0,0,0,-1,825,1079,0,0
-392,-55,0,0,0,0,0,0,0,0,0,-1,832,1079,0,0
-385,-55,0,0,0,0,0,0,0,0,0,-1,839,1079,0,0
-378,-55,0,0,0,0,0,0,0,0,0,-1,846,1079,0,0
-371,-55,0,0,0,0,0,0,0,0,0,-1,853,1079,0,0
-364,-55,0,0,0,0,0,0,0,0,0,-1,860,1079,0,0
-357,-55,0,0,0,0,0,0,0,0,0,-1,867,1079,0,0
-350,-55,0,0,0,0,0,0,0,0,0,-1,874,1079,0,0
-343,-55,0,0,0,0,0,0,0,0,0,-1,881,1079,0,0
-336,-55,0,0,0,0,0,0,0,0,0,-1,888,1079,0,0
-329,-55,0,0,0,0,0,0,0,0,0,-1,895,1079,0,0
-322,-55,0,0,0,0,0,0,0,0,0,-1,902,1079,0,0
-315,-55,0,0,0,0,0,0,0,0,0,-1,909,1079,0,0
-308,-55,0,0,0,0,0,0,0,0,0,-1,916,1079,0,0
-301,-55,0,0,0,0,0,0,0,0,0,-1,923,1079,0,0
-294,-55,0,0,0,0,0,0,0,0,0,-1,930,1079,0,0
-287,-55,0,0,0,0,0,0,0,0,0,-1,937,1079,0,0
-280,-55,0,0,0,0,0,0,0,0,0,-1,944,1079,0,0
-273,-55,0,0,0,0,0,0,0,0,0,-1,951,1079,0,0
-266,-55,0,0,0,0,0,0,0,0,0,-1,958,1079,0,0
-259,-55,0,0,0,0,0,0,0,0,0,-1,965,1079,0,0
-252,-55,0,0,0,0,0,0,0,0,0,-1,972,1079,0,0
-245,-55,0,0,0,0,0,0,0,0,0,-1,979,1079,0,0
-238,-55,0,0,0,0,0,0,0,0,0,-1,986,1079,0,0
-231,-55,0,0,0,0,0,0,0,0,0,-1,993,1079,0,0
-224,-55,0,0,0,0,0,0,0,0,0,-1,1000,1079,0,0
-217,-55,0,0,0,0,0,0,0,0,0,-1,1007,1079,0,0
-210,-55,0,0,0,0,0,0,0,0,0,-1,1014,1079,0,0
-203,-55,0,0,0,0,0,0,0,0,0,-1,1021,1079,0,0
-196,-55,0,0,0,0,0,0,0,0,0,-1,1028,1079,0,0
-189,-55,0,0,0,0,0,0,0,0,0,-1,1035,1079,0,0
-182,-55,0,0,0,0,0,0,0,0,0,-1,1042,1079,0,0
-175,-55,0,0,0,0,0,0,0,0,0,-1,1049,1079,0,0
-168,-55,0,0,0,0,0,0,0,0,0,-1,1056,1079,0,0
-161,-55,0,0,0,0,0,0,0,0,0,-1,1063,1079,0,0
-154,-55,0,0,0,0,0,0,0,0,0,-1,1070,1079,0,0
-147,-55,0,0,0,0,0,0,0,0,0,-1,1077,1079,0,0
-140,-55,0,0,0,0,0,0,0,0,0,-1,1084,1079,0,0
-133,-55,0,0,0,0,0,0,0,0,0,-1,1091,1079,0,0
-126,-55,0,0,0,0,0,0,0,0,0,-1,1098,1079,0,0
-119,-55,0,0,0,0,0,0,0,0,0,-1,1105,1079,0,0
-112,-55,0,0,0,0,0,0,0,0,0,-1,1112,1079,0,0
-105,-55,0,0,0,0,0,0,0,0,0,-1,1119,1079,0,0
-98,-55,0,0,0,0,0,0,0,0,0,-1,1126,1079,0,0
-91,-55,0,0,0,0,0,0,0,0,0,-1,1133,1079,0,0
-84,-55,0,0,0,0,0,0,0,0,0,-1,1140,1079,0,0
-77,-55,0,0,0,0,0,0,0,0,0,-1,1147,1079,0,0
-70,-55,0,0,0,0,0,0,0,0,0,-1,1154,1079,0,0
-63,-55,0,0,0,0,0,0,0,0,0,-1,1161,1079,0,0
-56,-55,0,0,0,0,0,0,0,0,0,-1,1168,1079,0,0
-49,-55,0,0,0,0,0,0,0,0,0,-1,1175,1079,0,0
-42,-55,0,0,0,0,0,0,0,0,0,-1,1182,1079,0,0
-35,-55,0,0,0,0,0,0,0,0,0,-1,1189,1079,0,0
-28,-55,0,0,0,0,0,0,0,0,0,-1,1196,1079,0,0
-21,-55,0,0,0,0,0,0,0,0,0,-1,1203,1079,0,0
-14,-55,0,0,0,0,0,0,0,0,0,-1,1210,1079,0,0
-7,-55,0,0,0,0,0,0,0,0,0,-1,1217,1079,0,0
0,-55,0,0,0,0,0,0,0,0,0,-1,1224,1079,0,0
7,-55,0,0,0,0,0,0,0,0,0,-1,1231,1079,0,0
14,-55,0,0,0,0,0,0,0,0,0,-1,1238,1079,0,0
21,-55,0,0,0,0,0,0,0,0,0,-1,1245,1079,0,0
28,-55,0,0,0,0,0,0,0,0,0,-1,1252,1079,0,0
35,-55,0,0,0,0,0,0,0,0,0,-1,1259,1079,0,0
42,-55,0,0,0,0,0,0,0,0,0,-1,1266,1079,0,0
49,-55,0,0,0,0,0,0,0,0,0,-1,1273,1079,0,0
56,-55,0,0,0,0,0,0,0,0,0,-1,1280,1079,0,0
63,-55,0,0,0,0,0,0,0,0,0,-1,1287,1079,0,0
70,-55,0,0,0,0,0,0,0,0,0,-1,1294,1079,0,0
77,-55,0,0,0,0,0,0,0,0,0,-1,1301,1079,0,0
84,-55,0,0,0,0,0,0,0,0,0,-1,1308,1079,0,0
91,-55,0,0,0,0,0,0,0,0,0,-1,1315,1079,0,0
98,-55,0,0,0,0,0,0,0,0,0,-1,1322,1079,0,0
105,-55,0,0,0,0,0,0,0,0,0,-1,1329,1079,0,0
112,-55,0,0,0,0,0,0,0,0,0,-1,1336,1079,0,0
119,-55,0,0,0,0,0,0,0,0,0,-1,1343,1079,0,0
126,-55,0,0,0,0,0,0,0,0,0,-1,1350,1079,0,0
133,-55,0,0,0,0,0,0,0,0,0,-1,1357,1079,0,0
140,-55,0,0,0,0,0,0,0,0,0,-1,1364,1079,0,0
147,-55,0,0,0,0,0,0,0,0,0,-1,1371,1079,0,0
154,-55,0,0,0,0,0,0,0,0,0,-1,1378,1079,0,0
161,-55,0,0,0,0,0,0,0,0,0,-1,1385,1079,0,0
168,-55,0,0,0,0,0,0,0,0,0,-1,1392,1079,0,0
175,-55,0,0,0,0,0,0,0,0,0,-1,1399,1079,0,0
182,-55,0,0,0,0,0,0,0,0,0,-1,1406,1079,0,0
189,-55,0,0,0,0,0,0,0,0,0,-1,1413,1079,0,0
196,-55,0,0,0,0,0,0,0,0,0,-1,1420,1079,0,0
203,-55,0,0,0,0,0,0,0,0,0,-1,1427,1079,0,0
210,-55,0,0,0,0,0,0,0,0,0,-1,1434,1079,0,0
217,-55,0,0,0,0,0,0,0,0,0,-1,1441,1079,0,0
224,-55,0,0,0,0,0,0,0,0,0,-1,1448,1079,0,0
231,-55,0,0,0,0,0,0,0,0,0,-1,1455,1079,0,0
238,-55,0,0,0,0,0,0,0,0,0,-1,1462,1079,0,0
245,-55,0,0,0,0,0,0,0,0,0,-1,1469,1079,0,0
252,-55,0,0,0,0,0,0,0,0,0,-1,1476,1079,0,0
259,-55,0,0,0,0,0,0,0,0,0,-1,1483,1079,0,0
266,-55,0,0,0,0,0,0,0,0,0,-1,1490,1079,0,0
273,-55,0,0,0,0,0,0,0,0,0,-1,1497,1079,0,0
280,-55,0,0,0,0,0,0,0,0,0,-1,1504,1079,0,0
287,-55,0,0,0,0,0,0,0,0,0,-1,1511,1079,0,0
294,-55,0,0,0,0,0,0,0,0,0,-1,1518,1079,0,0
301,-55,0,0,0,0,0,0,0,0,0,-1,1525,1079,0,0
308,-55,0,0,0,0,0,0,0,0,0,-1,1532,1079,0,0
315,-55,0,0,0,0,0,0,0,0,0,-1,1539,1079,0,0
322,-55,0,0,0,0,0,0,0,0,0,-1,1546,1079,0,0
329,-55,0,0,0,0,0,0,0,0,0,-1,1553,1079,0,0
336,-55,0,0,0,0,0,0,0,0,0,-1,1560,1079,0,0
343,-55,0,0,0,0,0,0,0,0,0,-1,1567,1079,0,0
350,-55,0,0,0,0,0,0,0,0,0,-1,1574,1079,0,0
357,-55,0,0,0,0,0,0,0,0,0,-1,1581,1079,0,0
364,-55,0,0,0,0,0,0,0,0,0,-1,1588,1079,0,0
371,-55,0,0,0,0,0,0,0,0,0,-1,1595,1079,0,0
378,-55,0,0,0,0,0,0,0,0,0,-1,1602,1079,0,0
385,-55,0,0,0,0,0,0,0,0,0,-1,1609,1079,0,0
392,-55,0,0,0,0,0,0,0,0,0,-1,1616,1079,0,0
399,-55,0,0,0,0,0,0,0,0,0,-1,1623,1079,0,0
406,-55,0,0,0,0,0,0,0,0,0,-1,1630,1079,0,0
413,-55,0,0,0,0,0,0,0,0,0,-1,1637,1079,0,0
420,-55,0,0,0,0,0,0,0,0,0,-1,1644,1079,0,0
427,-55,0,0,0,0,0,0,0,0,0,-1,1651,1079,0,0
434,-55,0,0,0,0,0,0,0,0,0,-1,1658,1079,0,0
441,-55,0,0,0,0,0,0,0,0,0,-1,1665,1079,0,0
448,-55,0,0,0,0,0,0,0,0,0,-1,1672,1079,0,0
455,-55,0,0,0,0,0,0,0,0,0,-1,1679,1079,0,0
462,-55,0,0,0,0,0,0,0,0,0,-1,1686,1079,0,0
469,-55,0,0,0,0,0,0,0,0,0,-1,1693,1079,0,0
476,-55,0,0,0,0,0,0,0,0,0,-1,1700,1079,0,0
483,-55,0,0,0,0,0,0,0,0,0,-1,1707,1079,0,0
490,-55,0,0,0,0,0,0,0,0,0,-1,1714,1079,0,0
497,-55,0,0,0,0,0,0,0,0,0,-1,1721,1079,0,0
504,-55,0,0,0,0,0,0,0,0,0,-1,1728,1079,0,0
511,-55,0,0,0,0,0,0,0,0,0,-1,1735,1079,0,0
518,-55,0,0,0,0,0,0,0,0,0,-1,1742,1079,0,0
525,-55,0,0,0,0,0,0,0,0,0,-1,1749,1079,0,0
532,-55,0,0,0,0,0,0,0,0,0,-1,1756,1079,0,0
539,-55,0,0,0,0,0,0,0,0,0,-1,1763,1079,0,0
546,-55,0,0,0,0,0,0,0,0,0,-1,1770,1079,0,0
553,-55,0,0,0,0,0,0,0,0,0,-1,1777,1079,0,0
560,-55,0,0,0,0,0,0,0,0,0,-1,1784,1079,0,0
567,-55,0,0,0,0,0,0,0,0,0,-1,1791,1079,0,0
574,-55,0,0,0,0,0,0,0,0,0,-1,1798,1079,0,0
581,-55,0,0,0,0,0,0,0,0,0,-1,1805,1079,0,0
588,-55,0,0,0,0,0,0,0,0,0,-1,1812,1079,0,0
595,-55,0,0,0,0,0,0,0,0,0,-1,1819,1079,0,0
602,-55,0,0,0,0,0,0,0,0,0,-1,1826,1079,0,0
609,-55,0,0,0,0,0,0,0,0,0,-1,1833,1079,0,0
616,-55,0,0,0,0,0,0,0,0,0,-1,1840,1079,0,0
623,-55,0,0,0,0,0,0,0,0,0,-1,1847,1079,0,0
630,-55,0,0,0,0,0,0,0,0,0,-1,1854,1079,0,0
637,-55,0,0,0,0,0,0,0,0,0,-1,1861,1079,0,0
644,-55,0,0,0,0,0,0,0,0,0,-1,1868,1079,0,0
651,-55,17.598,2.43066,0.00522163,0.000300409,0.00200012,0.005932,-0.000409958,0.341266,0.00409816,0.0344385,1875,1079,17.598,-2.43065
658,-55,17.7639,2.66077,0.00386441,0.000226235,0.000985895,0.0041144,-2.37513e-05,0.248329,0.00275088,0.0338706,1882,1079,17.7639,-2.66079
665,-55,17.5958,2.45129,0.00267339,0.000174801,0.000448749,0.00275154,9.66497e-05,0.172425,0.00180301,0.0395514,1889,1079,17.5958,-2.45126
672,-55,17.5782,2.31885,0.00155585,-4.96146e-05,0.000983122,0.00202233,-0.000516098,0.443034,0.00154918,0.0364614,1896,1079,17.5783,-2.3188
679,-55,17.6998,2.41809,0.000109355,-0.000355533,0.00222032,0.00210936,-0.00235554,0.733243,0.00257912,0.0365124,1903,1079,17.6998,-2.4181
686,-55,17.6473,2.45569,-0.0012963,-0.000667229,0.00356341,0.0025955,-0.00455903,0.829418,0.0041822,0.0404269,1910,1079,17.6474,-2.45566
693,-55,17.666,2.48376,-0.00244407,-0.000943276,0.00480344,0.00316803,-0.00655537,0.862882,0.00572623,0.0403524,1917,1079,17.666,-2.48374
700,-55,17.7137,2.45178,-0.00337048,-0.00112894,0.00578917,0.00364695,-0.00814637,0.881014,0.0069721,0.0343411,1924,1079,17.7138,-2.45179
707,-55,17.6576,2.45117,-0.00413311,-0.00124238,0.00640826,0.00388149,-0.00925698,0.896316,0.00779426,0.0279441,1931,1079,17.6576,-2.45111
714,-55,17.6476,2.6084,-0.00453411,-0.00129356,0.0068562,0.00413121,-0.00995889,0.90143,0.00836364,0.0310619,1938,1079,17.6476,-2.60834
721,-55,17.6007,3.23267,-0.00465434,-0.00124531,0.00702337,0.00427742,-0.0101771,0.904443,0.00857388,0.0367572,1945,1079,17.6007,-3.23262
728,-55,17.4805,3.93274,0,0,0,0,0,0,0,-1,1952,1079,17.4805,-3.9328
735,-55,17.2242,3.58826,-0.00442353,-0.000677084,0.00614142,0.00387045,-0.00897106,0.933424,0.00760649,0.0158562,1959,1079,17.2242,-3.58827
742,-55,17.2137,3.5697,-0.00355042,4.49423e-05,0.00532249,0.00386514,-0.00737062,0.948259,0.00659137,0.0145897,1966,1079,17.2138,-3.56969
749,-55,17.245,3.52551,-0.00257422,0.00087641,0.00418061,0.00367373,-0.00537154,0.981099,0.00525287,0.0108362,1973,1079,17.245,-3.52553
756,-55,17.2491,3.49548,-0.00158004,0.00212923,0.00273842,0.00358195,-0.00303276,1.08305,0.00382339,0.0104801,1980,1079,17.2491,-3.49548
763,-55,17.261,3.48816,-0.000639548,0.0036515,0.000847098,0.00381267,-0.00080072,1.38278,0.00284648,0.0141315,1987,1079,17.261,-3.48814
770,-55,17.276,3.45386,0.000413663,0.00560306,-0.0011353,0.00584056,0.000176158,-1.36457,0.00383634,0.0143238,1994,1079,17.276,-3.45391
777,-55,17.2509,3.42761,0.0013341,0.00796454,-0.00302686,0.00913848,0.000160164,-1.20082,0.00603964,0.0110868,2001,1079,17.2508,-3.42759
784,-55,17.2645,3.45105,0.0016346,0.0107559,-0.00489601,0.0128863,-0.000495831,-1.16037,0.00876082,0.025761,2008,1079,17.2645,-3.45102
791,-55,17.3428,3.71301,0.00139163,0.0140539,-0.00740201,0.017463,-0.00201751,-1.13919,0.0123695,0.041271,2015,1079,17.3428,-3.71302
798,-55,17.4265,3.93762,0,0,0,0,0,0,0,-1,2022,1079,17.4265,-3.93759
805,-55,17.0376,-0.248047,0,0,0,0,0,0,0,-1,2029,1079,17.0376,0.248011
812,-55,17.3835,1.16614,0,0,0,0,0,0,0,-1,2036,1079,17.3835,-1.16618
-700,-62,-8.24518,5.34668,0,0,0,0,0,0,0,-1,524,1086,-8.24518,-5.34672
-693,-62,-11.1777,-0.344482,0,0,0,0,0,0,0,-1,531,1086,-11.1777,0.344486
-686,-62,-11.0853,0.0462646,-0.0219592,0.0268742,-0.0204734,0.0343218,-0.0294068,-1.22191,0.0368302,0.0477817,538,1086,-11.0853,-0.0462412
-679,-62,-10.9744,0.903564,-0.0173924,0.0253749,-0.0118768,0.0284518,-0.0204693,-1.3173,0.0283696,0.0463551,545,1086,-10.9744,-0.903518
-672,-62,-10.2482,0.836914,0,0,0,0,0,0,0,-1,552,1086,-10.2483,-0.836904
-665,-62,-10.606,-0.963257,-0.010183,0.0184718,-0.00214582,0.0186316,-0.0103428,-1.49646,0.016955,0.0474296,559,1086,-10.606,0.963267
-658,-62,-10.7381,0.839355,-0.0074824,0.0145713,0.000217198,0.0145735,-0.00748454,1.56095,0.0129526,0.0457498,566,1086,-10.7381,-0.839299
-651,-62,-11.1776,0.91687,-0.00531477,0.0109403,0.00148107,0.0110741,-0.00544861,1.48067,0.00972195,0.0341783,573,1086,-11.1776,-0.916887
-644,-62,-11.1457,1.03406,-0.003763,0.00851688,0.0023255,0.00894251,-0.00418864,1.38977,0.00774511,0.0111859,580,1086,-11.1457,-1.03409
-637,-62,-11.136,1.08032,-0.00238178,0.00569853,0.00262414,0.00647594,-0.00315919,1.28278,0.00567165,0.00924859,587,1086,-11.136,-1.08033
-630,-62,-11.1357,1.1416,-0.00153554,0.00211111,0.000433419,0.00216191,-0.00158635,1.45411,0.00217255,0.011152,594,1086,-11.1357,-1.14161
-623,-62,-11.1439,1.19495,-0.00163308,0.000552553,-0.00131512,0.00116964,-0.00225017,-1.13207,0.00200701,0.0129029,601,1086,-11.1439,-1.19489
-616,-62,-11.1401,1.22424,-0.00187592,-0.000689347,-0.0027778,0.00155782,-0.00412309,-0.890608,0.00338951,0.0131921,608,1086,-11.1401,-1.22426
-609,-62,-11.1348,1.30322,-0.00197759,-0.000965086,-0.00439609,0.0029538,-0.00589648,-0.842726,0.00520301,0.0128767,615,1086,-11.1348,-1.30328
-602,-62,-11.1374,1.37061,-0.00199627,-0.000955907,-0.00556102,0.00410921,-0.00706139,-0.832033,0.00652399,0.0130897,622,1086,-11.1374,-1.37066
-595,-62,-11.1106,1.40601,-0.00221034,-0.000982611,-0.00640363,0.00483651,-0.00802947,-0.833183,0.00750404,0.0160877,629,1086,-11.1106,-1.406
-588,-62,-11.1681,1.13342,-0.0024745,-0.000879374,-0.00682421,0.00519372,-0.00854759,-0.843571,0.00801193,0.0253707,636,1086,-11.1681,-1.13345
-581,-62,-11.2794,0.805054,-0.0025354,-0.000504566,-0.0068743,0.0054289,-0.00846887,-0.858724,0.00808762,0.0355235,643,1086,-11.2794,-0.805084
-574,-62,-11.2697,0.725952,-0.00247247,2.06606e-05,-0.00666638,0.00555603,-0.00800784,-0.877827,0.00787363,0.0374599,650,1086,-11.2697,-0.72594
-567,-62,-11.2209,0.532349,-0.0023175,0.000766104,-0.00607287,0.00548983,-0.00704123,-0.909714,0.00725327,0.0393119,657,1086,-11.2209,-0.532362
-560,-62,-11.4453,0.607422,-0.0020773,0.00171846,-0.00515627,0.00531503,-0.00567388,-0.96174,0.00634558,0.0406611,664,1086,-11.4453,-0.607481
-553,-62,-11.3153,0.651245,-0.00182578,0.00285017,-0.00399411,0.00514027,-0.00411588,-1.05019,0.00535494,0.0371711,671,1086,-11.3153,-0.651248
-546,-62,-11.2778,0.605347,-0.0016372,0.00412115,-0.00265893,0.00516111,-0.00267715,-1.19797,0.00460054,0.0315755,678,1086,-11.2778,-0.605309
-539,-62,-11.3339,0.590698,-0.00166432,0.00545845,-0.00159052,0.00579748,-0.00200334,-1.36078,0.00467801,0.0372198,685,1086,-11.3338,-0.590716
-532,-62,-11.3596,0.575195,-0.00268964,0.00649134,-0.00234175,0.00705414,-0.00325243,-1.33494,0.00608394,0.0392317,692,1086,-11.3596,-0.575176
-525,-62,0,0,0,0,0,0,0,0,0,-1,699,1086,0,0
-518,-62,0,0,0,0,0,0,0,0,0,-1,706,1086,0,0
-511,-62,0,0,0,0,0,0,0,0,0,-1,713,1086,0,0
-504,-62,0,0,0,0,0,0,0,0,0,-1,720,1086,0,0
-497,-62,0,0,0,0,0,0,0,0,0,-1,727,1086,0,0
-490,-62,0,0,0,0,0,0,0,0,0,-1,734,1086,0,0
-483,-62,0,0,0,0,0,0,0,0,0,-1,741,1086,0,0
-476,-62,0,0,0,0,0,0,0,0,0,-1,748,1086,0,0
-469,-62,0,0,0,0,0,0,0,0,0,-1,755,1086,0,0
-462,-62,0,0,0,0,0,0,0,0,0,-1,762,1086,0,0
-455,-62,0,0,0,0,0,0,0,0,0,-1,769,1086,0,0
-448,-62,0,0,0,0,0,0,0,0,0,-1,776,1086,0,0
-441,-62,0,0,0,0,0,0,0,0,0,-1,783,1086,0,0
-434,-62,0,0,0,0,0,0,0,0,0,-1,790,1086,0,0
-427,-62,0,0,0,0,0,0,0,0,0,-1,797,1086,0,0
-420,-62,0,0,0,0,0,0,0,0,0,-1,804,1086,0,0
-413,-62,0,0,0,0,0,0,0,0,0,-1,811,1086,0,0
-406,-62,0,0,0,0,0,0,0,0,0,-1,818,1086,0,0
-399,-62,0,0,0,0,0,0,0,0,0,-1,825,1086,0,0
-392,-62,0,0,0,0,0,0,0,0,0,-1,832,1086,0,0
-385,-62,0,0,0,0,0,0,0,0,0,-1,839,1086,0,0
-378,-62,0,0,0,0,0,0,0,0,0,-1,846,1086,0,0
-371,-62,0,0,0,0,0,0,0,0,0,-1,853,1086,0,0
-364,-62,0,0,0,0,0,0,0,0,0,-1,860,1086,0,0
-357,-62,0,0,0,0,0,0,0,0,0,-1,867,1086,0,0
-350,-62,0,0,0,0,0,0,0,0,0,-1,874,1086,0,0
-343,-62,0,0,0,0,0,0,0,0,0,-1,881,1086,0,0
-336,-62,0,0,0,0,0,0,0,0,0,-1,888,1086,0,0
-329,-62,0,0,0,0,0,0,0,0,0,-1,895,1086,0,0
-322,-62,0,0,0,0,0,0,0,0,0,-1,902,1086,0,0
-315,-62,0,0,0,0,0,0,0,0,0,-1,909,1086,0,0
-308,-62,0,0,0,0,0,0,0,0,0,-1,916,1086,0,0
-301,-62,0,0,0,0,0,0,0,0,0,-1,923,1086,0,0
-294,-62,0,0,0,0,0,0,0,0,0,-1,930,1086,0,0
-287,-62,0,0,0,0,0,0,0,0,0,-1,937,1086,0,0
-280,-62,0,0,0,0,0,0,0,0,0,-1,944,1086,0,0
-273,-62,0,0,0,0,0,0,0,0,0,-1,951,1086,0,0
-266,-62,0,0,0,0,0,0,0,0,0,-1,958,1086,0,0
-259,-62,0,0,0,0,0,0,0,0,0,-1,965,1086,0,0
-252,-62,0,0,0,0,0,0,0,0,0,-1,972,1086,0,0
-245,-62,0,0,0,0,0,0,0,0,0,-1,979,1086,0,0
-238,-62,0,0,0,0,0,0,0,0,0,-1,986,1086,0,0
-231,-62,0,0,0,0,0,0,0,0,0,-1,993,1086,0,0
-224,-62,0,0,0,0,0,0,0,0,0,-1,1000,1086,0,0
-217,-62,0,0,0,0,0,0,0,0,0,-1,1007,1086,0,0
-210,-62,0,0,0,0,0,0,0,0,0,-1,1014,1086,0,0
-203,-62,0,0,0,0,0,0,0,0,0,-1,1021,1086,0,0
-196,-62,0,0,0,0,0,0,0,0,0,-1,1028,1086,0,0
-189,-62,0,0,0,0,0,0,0,0,0,-1,1035,1086,0,0
-182,-62,0,0,0,0,0,0,0,0,0,-1,1042,1086,0,0
-175,-62,0,0,0,0,0,0,0,0,0,-1,1049,1086,0,0
-168,-62,0,0,0,0,0,0,0,0,0,-1,1056,1086,0,0
-161,-62,0,0,0,0,0,0,0,0,0,-1,1063,1086,0,0
-154,-62,0,0,0,0,0,0,0,0,0,-1,1070,1086,0,0
-147,-62,0,0,0,0,0,0,0,0,0,-1,1077,1086,0,0
-140,-62,0,0,0,0,0,0,0,0,0,-1,1084,1086,0,0
-133,-62,0,0,0,0,0,0,0,0,0,-1,1091,1086,0,0
-126,-62,0,0,0,0,0,0,0,0,0,-1,1098,1086,0,0
-119,-62,0,0,0,0,0,0,0,0,0,-1,1105,1086,0,0
-112,-62,0,0,0,0,0,0,0,0,0,-1,1112,1086,0,0
-105,-62,0,0,0,0,0,0,0,0,0,-1,1119,1086,0,0
-98,-62,0,0,0,0,0,0,0,0,0,-1,1126,1086,0,0
-91,-62,0,0,0,0,0,0,0,0,0,-1,1133,1086,0,0
-84,-62,0,0,0,0,0,0,0,0,0,-1,1140,1086,0,0
-77,-62,0,0,0,0,0,0,0,0,0,-1,1147,1086,0,0
-70,-62,0,0,0,0,0,0,0,0,0,-1,1154,1086,0,0
-63,-62,0,0,0,0,0,0,0,0,0,-1,1161,1086,0,0
-56,-62,0,0,0,0,0,0,0,0,0,-1,1168,1086,0,0
-49,-62,0,0,0,0,0,0,0,0,0,-1,1175,1086,0,0
-42,-62,0,0,0,0,0,0,0,0,0,-1,1182,1086,0,0
-35,-62,0,0,0,0,0,0,0,0,0,-1,1189,1086,0,0
-28,-62,0,0,0,0,0,0,0,0,0,-1,1196,1086,0,0
-21,-62,0,0,0,0,0,0,0,0,0,-1,1203,1086,0,0
-14,-62,0,0,0,0,0,0,0,0,0,-1,1210,1086,0,0
-7,-62,0,0,0,0,0,0,0,0,0,-1,1217,1086,0,0
0,-62,0,0,0,0,0,0,0,0,0,-1,1224,1086,0,0
7,-62,0,0,0,0,0,0,0,0,0,-1,1231,1086,0,0
14,-62,0,0,0,0,0,0,0,0,0,-1,1238,1086,0,0
21,-62,0,0,0,0,0,0,0,0,0,-1,1245,1086,0,0
28,-62,0,0,0,0,0,0,0,0,0,-1,1252,1086,0,0
35,-62,0,0,0,0,0,0,0,0,0,-1,1259,1086,0,0
42,-62,0,0,0,0,0,0,0,0,0,-1,1266,1086,0,0
49,-62,0,0,0,0,0,0,0,0,0,-1,1273,1086,0,0
56,-62,0,0,0,0,0,0,0,0,0,-1,1280,1086,0,0
63,-62,0,0,0,0,0,0,0,0,0,-1,1287,1086,0,0
70,-62,0,0,0,0,0,0,0,0,0,-1,1294,1086,0,0
77,-62,0,0,0,0,0,0,0,0,0,-1,1301,1086,0,0
84,-62,0,0,0,0,0,0,0,0,0,-1,1308,1086,0,0
91,-62,0,0,0,0,0,0,0,0,0,-1,1315,1086,0,0
98,-62,0,0,0,0,0,0,0,0,0,-1,1322,1086,0,0
105,-62,0,0,0,0,0,0,0,0,0,-1,1329,1086,0,0
112,-62,0,0,0,0,0,0,0,0,0,-1,1336,1086,0,0
119,-62,0,0,0,0,0,0,0,0,0,-1,1343,1086,0,0
126,-62,0,0,0,0,0,0,0,0,0,-1,1350,1086,0,0
133,-62,0,0,0,0,0,0,0,0,0,-1,1357,1086,0,0
140,-62,0,0,0,0,0,0,0,0,0,-1,1364,1086,0,0
147,-62,0,0,0,0,0,0,0,0,0,-1,1371,1086,0,0
154,-62,0,0,0,0,0,0,0,0,0,-1,1378,1086,0,0
161,-62,0,0,0,0,0,0,0,0,0,-1,1385,1086,0,0
168,-62,0,0,0,0,0,0,0,0,0,-1,1392,1086,0,0
175,-62,0,0,0,0,0,0,0,0,0,-1,1399,1086,0,0
182,-62,0,0,0,0,0,0,0,0,0,-1,1406,1086,0,0
189,-62,0,0,0,0,0,0,0,0,0,-1,1413,1086,0,0
196,-62,0,0,0,0,0,0,0,0,0,-1,1420,1086,0,0
203,-62,0,0,0,0,0,0,0,0,0,-1,1427,1086,0,0
210,-62,0,0,0,0,0,0,0,0,0,-1,1434,1086,0,0
217,-62,0,0,0,0,0,0,0,0,0,-1,1441,1086,0,0
224,-62,0,0,0,0,0,0,0,0,0,-1,1448,1086,0,0
231,-62,0,0,0,0,0,0,0,0,0,-1,1455,1086,0,0
238,-62,0,0,0,0,0,0,0,0,0,-1,1462,1086,0,0
245,-62,0,0,0,0,0,0,0,0,0,-1,1469,1086,0,0
252,-62,0,0,0,0,0,0,0,0,0,-1,1476,1086,0,0
259,-62,0,0,0,0,0,0,0,0,0,-1,1483,1086,0,0
266,-62,0,0,0,0,0,0,0,0,0,-1,1490,1086,0,0
273,-62,0,0,0,0,0,0,0,0,0,-1,1497,1086,0,0
280,-62,0,0,0,0,0,0,0,0,0,-1,1504,1086,0,0
287,-62,0,0,0,0,0,0,0,0,0,-1,1511,1086,0,0
294,-62,0,0,0,0,0,0,0,0,0,-1,1518,1086,0,0
301,-62,0,0,0,0,0,0,0,0,0,-1,1525,1086,0,0
308,-62,0,0,0,0,0,0,0,0,0,-1,1532,1086,0,0
315,-62,0,0,0,0,0,0,0,0,0,-1,1539,1086,0,0
322,-62,0,0,0,0,0,0,0,0,0,-1,1546,1086,0,0
329,-62,0,0,0,0,0,0,0,0,0,-1,1553,1086,0,0
336,-62,0,0,0,0,0,0,0,0,0,-1,1560,1086,0,0
343,-62,0,0,0,0,0,0,0,0,0,-1,1567,1086,0,0
350,-62,0,0,0,0,0,0,0,0,0,-1,1574,1086,0,0
357,-62,0,0,0,0,0,0,0,0,0,-1,1581,1086,0,0
364,-62,0,0,0,0,0,0,0,0,0,-1,1588,1086,0,0
371,-62,0,0,0,0,0,0,0,0,0,-1,1595,1086,0,0
378,-62,0,0,0,0,0,0,0,0,0,-1,1602,1086,0,0
385,-62,0,0,0,0,0,0,0,0,0,-1,1609,1086,0,0
392,-62,0,0,0,0,0,0,0,0,0,-1,1616,1086,0,0
399,-62,0,0,0,0,0,0,0,0,0,-1,1623,1086,0,0
406,-62,0,0,0,0,0,0,0,0,0,-1,1630,1086,0,0
413,-62,0,0,0,0,0,0,0,0,0,-1,1637,1086,0,0
420,-62,0,0,0,0,0,0,0,0,0,-1,1644,1086,0,0
427,-62,0,0,0,0,0,0,0,0,0,-1,1651,1086,0,0
434,-62,0,0,0,0,0,0,0,0,0,-1,1658,1086,0,0
441,-62,0,0,0,0,0,0,0,0,0,-1,1665,1086,0,0
448,-62,0,0,0,0,0,0,0,0,0,-1,1672,1086,0,0
455,-62,0,0,0,0,0,0,0,0,0,-1,1679,1086,0,0
462,-62,0,0,0,0,0,0,0,0,0,-1,1686,1086,0,0
469,-62,0,0,0,0,0,0,0,0,0,-1,1693,1086,0,0
476,-62,0,0,0,0,0,0,0,0,0,-1,1700,1086,0,0
483,-62,0,0,0,0,0,0,0,0,0,-1,1707,1086,0,0
490,-62,0,0,0,0,0,0,0,0,0,-1,1714,1086,0,0
497,-62,0,0,0,0,0,0,0,0,0,-1,1721,1086,0,0
504,-62,0,0,0,0,0,0,0,0,0,-1,1728,1086,0,0
511,-62,0,0,0,0,0,0,0,0,0,-1,1735,1086,0,0
518,-62,0,0,0,0,0,0,0,0,0,-1,1742,1086,0,0
525,-62,0,0,0,0,0,0,0,0,0,-1,1749,1086,0,0
532,-62,0,0,0,0,0,0,0,0,0,-1,1756,1086,0,0
539,-62,0,0,0,0,0,0,0,0,0,-1,1763,1086,0,0
546,-62,0,0,0,0,0,0,0,0,0,-1,1770,1086,0,0
553,-62,0,0,0,0,0,0,0,0,0,-1,1777,1086,0,0
560,-62,0,0,0,0,0,0,0,0,0,-1,1784,1086,0,0
567,-62,0,0,0,0,0,0,0,0,0,-1,1791,1086,0,0
574,-62,0,0,0,0,0,0,0,0,0,-1,1798,1086,0,0
581,-62,0,0,0,0,0,0,0,0,0,-1,1805,1086,0,0
588,-62,0,0,0,0,0,0,0,0,0,-1,1812,1086,0,0
595,-62,0,0,0,0,0,0,0,0,0,-1,1819,1086,0,0
602,-62,0,0,0,0,0,0,0,0,0,-1,1826,1086,0,0
609,-62,0,0,0,0,0,0,0,0,0,-1,1833,1086,0,0
616,-62,0,0,0,0,0,0,0,0,0,-1,1840,1086,0,0
623,-62,0,0,0,0,0,0,0,0,0,-1,1847,1086,0,0
630,-62,0,0,0,0,0,0,0,0,0,-1,1854,1086,0,0
637,-62,0,0,0,0,0,0,0,0,0,-1,1861,1086,0,0
644,-62,0,0,0,0,0,0,0,0,0,-1,1868,1086,0,0
651,-62,17.5281,2.47327,0.00712895,-6.8302e-05,0.001908,0.00760347,-0.000542831,0.243759,0.00525927,0.0388513,1875,1086,17.5281,-2.47331
658,-62,17.8369,2.59216,0.00519564,-5.2197e-05,0.001006,0.00538188,-0.000238437,0.183056,0.00366999,0.0397926,1882,1086,17.8369,-2.59217
665,-62,17.7972,2.42212,0.00357748,-5.45936e-05,0.000586658,0.00366988,-0.000147001,0.156231,0.00249703,0.0404184,1889,1086,17.7972,-2.42208
672,-62,17.7615,2.4137,0.00203775,-0.000286395,0.00129742,0.00261743,-0.000866078,0.420187,0.00209422,0.037992,1896,1086,17.7615,-2.41369
679,-62,17.7832,2.51904,0.000262407,-0.000618536,0.00265411,0.00251234,-0.00286847,0.703168,0.00310888,0.0386322,1903,1086,17.7832,-2.51907
686,-62,17.8185,2.53259,-0.00134993,-0.000957119,0.00407114,0.00292235,-0.0052294,0.809501,0.00476883,0.0421334,1910,1086,17.8185,-2.5326
693,-62,17.7329,2.47375,-0.00264495,-0.00125269,0.00535738,0.0034536,-0.00735124,0.850006,0.00637203,0.0418639,1917,1086,17.7329,-2.47372
700,-62,17.7153,2.39807,-0.00368063,-0.0014433,0.00635514,0.00389088,-0.00901482,0.872518,0.00764436,0.0332299,1924,1086,17.7153,-2.3981
707,-62,17.6307,2.47217,-0.00452136,-0.00156001,0.00698495,0.00409948,-0.0101809,0.889842,0.0084903,0.0252218,1931,1086,17.6307,-2.4722
714,-62,17.6875,2.53369,-0.00493231,-0.00159807,0.00740892,0.00432897,-0.0108594,0.896063,0.00903513,0.0255753,1938,1086,17.6875,-2.5337
721,-62,17.744,3.16663,-0.00499719,-0.00152553,0.00751772,0.00445416,-0.0109769,0.898859,0.00917058,0.0328023,1945,1086,17.7441,-3.16665
728,-62,17.2705,3.62512,-0.00499503,-0.00129054,0.00715815,0.00425113,-0.0105367,0.912001,0.00879108,0.0260857,1952,1086,17.2706,-3.62507
735,-62,17.2247,3.59741,-0.00461817,-0.000875242,0.00639767,0.00391907,-0.00941248,0.927689,0.00791179,0.016357,1959,1086,17.2247,-3.59746
742,-62,17.2064,3.59167,-0.00364745,-8.99193e-06,0.00540002,0.00387,-0.00752644,0.947874,0.00669168,0.0133895,1966,1086,17.2064,-3.5917
749,-62,17.2078,3.52893,-0.00249306,0.00104243,0.00405626,0.0036994,-0.00515004,0.990892,0.00513206,0.0117409,1973,1086,17.2077,-3.52899
756,-62,17.2104,3.50513,-0.00125361,0.00245054,0.00241125,0.00363891,-0.00244198,1.11289,0.0035334,0.0125193,1980,1086,17.2105,-3.50516
763,-62,17.2169,3.47717,4.44337e-05,0.00407056,0.000298459,0.00409256,2.24293e-05,1.4972,0.00272093,0.013182,1987,1086,17.2169,-3.47721
770,-62,17.22,3.43066,0.00151857,0.00619432,-0.0019341,0.00689065,0.000822241,-1.22522,0.00434569,0.0104388,1994,1086,17.2199,-3.43063
777,-62,17.2034,3.37756,0.00296083,0.00868085,-0.00402551,0.0107589,0.000882789,-1.09426,0.00689719,0.0117498,2001,1086,17.2034,-3.3776
784,-62,17.2115,3.35657,0.0039874,0.0115337,-0.00609957,0.0149328,0.000588274,-1.06239,0.00976502,0.0257778,2008,1086,17.2116,-3.35659
791,-62,17.2311,3.33801,0.00474795,0.0147791,-0.0087806,0.0198757,-0.000348584,-1.04489,0.0133682,0.0434934,2015,1086,17.231,-3.33805
798,-62,17.2834,3.276,0,0,0,0,0,0,0,-1,2022,1086,17.2834,-3.27605
805,-62,17.0464,-0.967529,0,0,0,0,0,0,0,-1,2029,1086,17.0464,0.967475
812,-62,17.4221,0.471313,0,0,0,0,0,0,0,-1,2036,1086,17.4221,-0.471289
-700,-69,-11.908,-0.67395,0,0,0,0,0,0,0,-1,524,1093,-11.908,0.673992
-693,-69,-11.6057,-0.295776,-0.0249467,0.0209623,-0.0304161,0.0361136,-0.0400979,-1.10864,0.0440208,0.049314,531,1093,-11.6057,0.295774
-686,-69,-11.1827,0.0106201,-0.0198589,0.0229174,-0.018695,0.0299363,-0.0268778,-1.21164,0.0328175,0.0491967,538,1093,-11.1827,-0.0106157
-679,-69,-11.1219,0.528809,-0.0155616,0.0220003,-0.0107216,0.0248452,-0.0184065,-1.31143,0.0250635,0.0488254,545,1093,-11.1219,-0.528781
-672,-69,-10.8514,0.745483,0,0,0,0,0,0,0,-1,552,1093,-10.8514,-0.745502
-665,-69,-10.6854,0.901367,0,0,0,0,0,0,0,-1,559,1093,-10.6854,-0.901396
-658,-69,-11.1119,0.937134,0,0,0,0,0,0,0,-1,566,1093,-11.1119,-0.937125
-651,-69,-11.1052,0.974731,-0.0046121,0.010043,0.00136887,0.0101697,-0.00473886,1.47846,0.00879579,0.0310067,573,1093,-11.1052,-0.974708
-644,-69,-11.093,1.02576,-0.00324192,0.00786194,0.00207547,0.00823719,-0.00361718,1.39192,0.00701524,0.00928468,580,1093,-11.093,-1.0257
-637,-69,-11.0856,1.08081,-0.00205898,0.00537254,0.00221119,0.00598069,-0.00266713,1.3024,0.00511353,0.0114653,587,1093,-11.0857,-1.08085
-630,-69,-11.0983,1.13232,-0.00150509,0.00226477,9.05109e-05,0.00226694,-0.00150726,1.54681,0.0021937,0.0131644,594,1093,-11.0983,-1.13234
-623,-69,-11.1007,1.19482,-0.00176419,0.000802096,-0.00170632,0.0016539,-0.00261599,-1.10779,0.00248599,0.0120437,601,1093,-11.1007,-1.19488
-616,-69,-11.0998,1.23523,-0.00210759,-0.000538607,-0.00308779,0.00186279,-0.00450899,-0.909797,0.00378302,0.0124627,608,1093,-11.0998,-1.23528
-609,-69,-11.0883,1.27502,-0.00227257,-0.000986368,-0.00467145,0.00308604,-0.00634498,-0.853801,0.00555231,0.012006,615,1093,-11.0882,-1.27501
-602,-69,-11.0755,1.37427,-0.00233372,-0.00109585,-0.00583868,0.00415661,-0.00758617,-0.838204,0.0068754,0.0145309,622,1093,-11.0755,-1.37425
-595,-69,-11.0493,1.42004,-0.00262882,-0.00118875,-0.0067359,0.00486549,-0.00868306,-0.838644,0.00792509,0.0174134,629,1093,-11.0493,-1.42007
-588,-69,-11.1298,1.21265,-0.00294053,-0.00115375,-0.00720176,0.00520982,-0.0093041,-0.847109,0.00849002,0.0230048,636,1093,-11.1298,-1.21265
-581,-69,-11.2789,0.852661,-0.00296908,-0.000919931,-0.00727241,0.00539973,-0.00928874,-0.85538,0.0085789,0.0295888,643,1093,-11.2789,-0.852617
-574,-69,-11.3422,0.602173,-0.00281871,-0.00052399,-0.00711105,0.00553167,-0.00887437,-0.865383,0.00839164,0.0315692,650,1093,-11.3422,-0.60218
-567,-69,-11.3853,0.622314,-0.00255053,6.71162e-05,-0.00653765,0.00542567,-0.00790908,-0.884191,0.0077432,0.0364789,657,1093,-11.3853,-0.622357
-560,-69,-11.4047,0.662354,-0.00214327,0.000819886,-0.00560713,0.00513788,-0.00646126,-0.914562,0.00671128,0.0386336,664,1093,-11.4048,-0.662305
-553,-69,-11.3201,0.652588,-0.00166614,0.00168858,-0.00438861,0.00470946,-0.00468702,-0.967936,0.00542506,0.0378228,671,1093,-11.3201,-0.65259
-546,-69,-11.2579,0.582642,-0.00117488,0.00260989,-0.00294202,0.00421559,-0.00278058,-1.0712,0.00406746,0.0351176,678,1093,-11.2579,-0.58265
-539,-69,-11.3042,0.589966,-0.000793759,0.00347656,-0.00164022,0.00403384,-0.00135104,-1.24327,0.00323502,0.0382013,685,1093,-11.3042,-0.590005
-532,-69,-11.2182,0.722656,-0.00139458,0.00383493,-0.0020371,0.0045348,-0.00209445,-1.23987,0.00391289,0.0402175,692,1093,-11.2182,-0.722652
-525,-69,0,0,0,0,0,0,0,0,0,-1,699,1093,0,0
-518,-69,0,0,0,0,0,0,0,0,0,-1,706,1093,0,0
-511,-69,0,0,0,0,0,0,0,0,0,-1,713,1093,0,0
-504,-69,0,0,0,0,0,0,0,0,0,-1,720,1093,0,0
-497,-69,0,0,0,0,0,0,0,0,0,-1,727,1093,0,0
-490,-69,0,0,0,0,0,0,0,0,0,-1,734,1093,0,0
-483,-69,0,0,0,0,0,0,0,0,0,-1,741,1093,0,0
-476,-69,0,0,0,0,0,0,0,0,0,-1,748,1093,0,0
-469,-69,0,0,0,0,0,0,0,0,0,-1,755,1093,0,0
-462,-69,0,0,0,0,0,0,0,0,0,-1,762,1093,0,0
-455,-69,0,0,0,0,0,0,0,0,0,-1,769,1093,0,0
-448,-69,0,0,0,0,0,0,0,0,0,-1,776,1093,0,0
-441,-69,0,0,0,0,0,0,0,0,0,-1,783,1093,0,0
-434,-69,0,0,0,0,0,0,0,0,0,-1,790,1093,0,0
-427,-69,0,0,0,0,0,0,0,0,0,-1,797,1093,0,0
-420,-69,0,0,0,0,0,0,0,0,0,-1,804,1093,0,0
-413,-69,0,0,0,0,0,0,0,0,0,-1,811,1093,0,0
-406,-69,0,0,0,0,0,0,0,0,0,-1,818,1093,0,0
-399,-69,0,0,0,0,0,0,0,0,0,-1,825,1093,0,0
-392,-69,0,0,0,0,0,0,0,0,0,-1,832,1093,0,0
-385,-69,0,0,0,0,0,0,0,0,0,-1,839,1093,0,0
-378,-69,0,0,0,0,0,0,0,0,0,-1,846,1093,0,0
-371,-69,0,0,0,0,0,0,0,0,0,-1,853,1093,0,0
-364,-69,0,0,0,0,0,0,0,0,0,-1,860,1093,0,0
-357,-69,0,0,0,0,0,0,0,0,0,-1,867,1093,0,0
-350,-69,0,0,0,0,0,0,0,0,0,-1,874,1093,0,0
-343,-69,0,0,0,0,0,0,0,0,0,-1,881,1093,0,0
-336,-69,0,0,0,0,0,0,0,0,0,-1,888,1093,0,0
-329,-69,0,0,0,0,0,0,0,0,0,-1,895,1093,0,0
-322,-69,0,0,0,0,0,0,0,0,0,-1,902,1093,0,0
-315,-69,0,0,0,0,0,0,0,0,0,-1,909,1093,0,0
-308,-69,0,0,0,0,0,0,0,0,0,-1,916,1093,0,0
-301,-69,0,0,0,0,0,0,0,0,0,-1,923,1093,0,0
-294,-69,0,0,0,0,0,0,0,0,0,-1,930,1093,0,0
-287,-69,0,0,0,0,0,0,0,0,0,-1,937,1093,0,0
-280,-69,0,0,0,0,0,0,0,0,0,-1,944,1093,0,0
-273,-69,0,0,0,0,0,0,0,0,0,-1,951,1093,0,0
-266,-69,0,0,0,0,0,0,0,0,0,-1,958,1093,0,0
-259,-69,0,0,0,0,0,0,0,0,0,-1,965,1093,0,0
-252,-69,0,0,0,0,0,0,0,0,0,-1,972,1093,0,0
-245,-69,0,0,0,0,0,0,0,0,0,-1,979,1093,0,0
-238,-69,0,0,0,0,0,0,0,0,0,-1,986,1093,0,0
-231,-69,0,0,0,0,0,0,0,0,0,-1,993,1093,0,0
-224,-69,0,0,0,0,0,0,0,0,0,-1,1000,1093,0,0
-217,-69,0,0,0,0,0,0,0,0,0,-1,1007,1093,0,0
-210,-69,0,0,0,0,0,0,0,0,0,-1,1014,1093,0,0
-203,-69,0,0,0,0,0,0,0,0,0,-1,1021,1093,0,0
-196,-69,0,0,0,0,0,0,0,0,0,-1,1028,1093,0,0
-189,-69,0,0,0,0,0,0,0,0,0,-1,1035,1093,0,0
-182,-69,0,0,0,0,0,0,0,0,0,-1,1042,1093,0,0
-175,-69,0,0,0,0,0,0,0,0,0,-1,1049,1093,0,0
-168,-69,0,0,0,0,0,0,0,0,0,-1,1056,1093,0,0
-161,-69,0,0,0,0,0,0,0,0,0,-1,1063,1093,0,0
-154,-69,0,0,0,0,0,0,0,0,0,-1,1070,1093,0,0
-147,-69,0,0,0,0,0,0,0,0,0,-1,1077,1093,0,0
-140,-69,0,0,0,0,0,0,0,0,0,-1,1084,1093,0,0
-133,-69,0,0,0,0,0,0,0,0,0,-1,1091,1093,0,0
-126,-69,0,0,0,0,0,0,0,0,0,-1,1098,1093,0,0
-119,-69,0,0,0,0,0,0,0,0,0,-1,1105,1093,0,0
-112,-69,0,0,0,0,0,0,0,0,0,-1,1112,1093,0,0
-105,-69,0,0,0,0,0,0,0,0,0,-1,1119,1093,0,0
-98,-69,0,0,0,0,0,0,0,0,0,-1,1126,1093,0,0
-91,-69,0,0,0,0,0,0,0,0,0,-1,1133,1093,0,0
-84,-69,0,0,0,0,0,0,0,0,0,-1,1140,1093,0,0
-77,-69,0,0,0,0,0,0,0,0,0,-1,1147,1093,0,0
-70,-69,0,0,0,0,0,0,0,0,0,-1,1154,1093,0,0
-63,-69,0,0,0,0,0,0,0,0,0,-1,1161,1093,0,0
-56,-69,0,0,0,0,0,0,0,0,0,-1,1168,1093,0,0
-49,-69,0,0,0,0,0,0,0,0,0,-1,1175,1093,0,0
-42,-69,0,0,0,0,0,0,0,0,0,-1,1182,1093,0,0
-35,-69,0,0,0,0,0,0,0,0,0,-1,1189,1093,0,0
-28,-69,0,0,0,0,0,0,0,0,0,-1,1196,1093,0,0
-21,-69,0,0,0,0,0,0,0,0,0,-1,1203,1093,0,0
-14,-69,0,0,0,0,0,0,0,0,0,-1,1210,1093,0,0
-7,-69,0,0,0,0,0,0,0,0,0,-1,1217,1093,0,0
0,-69,0,0,0,0,0,0,0,0,0,-1,1224,1093,0,0
7,-69,0,0,0,0,0,0,0,0,0,-1,1231,1093,0,0
14,-69,0,0,0,0,0,0,0,0,0,-1,1238,1093,0,0
21,-69,0,0,0,0,0,0,0,0,0,-1,1245,1093,0,0
28,-69,0,0,0,0,0,0,0,0,0,-1,1252,1093,0,0
35,-69,0,0,0,0,0,0,0,0,0,-1,1259,1093,0,0
42,-69,0,0,0,0,0,0,0,0,0,-1,1266,1093,0,0
49,-69,0,0,0,0,0,0,0,0,0,-1,1273,1093,0,0
56,-69,0,0,0,0,0,0,0,0,0,-1,1280,1093,0,0
63,-69,0,0,0,0,0,0,0,0,0,-1,1287,1093,0,0
70,-69,0,0,0,0,0,0,0,0,0,-1,1294,1093,0,0
77,-69,0,0,0,0,0,0,0,0,0,-1,1301,1093,0,0
84,-69,0,0,0,0,0,0,0,0,0,-1,1308,1093,0,0
91,-69,0,0,0,0,0,0,0,0,0,-1,1315,1093,0,0
98,-69,0,0,0,0,0,0,0,0,0,-1,1322,1093,0,0
105,-69,0,0,0,0,0,0,0,0,0,-1,1329,1093,0,0
112,-69,0,0,0,0,0,0,0,0,0,-1,1336,1093,0,0
119,-69,0,0,0,0,0,0,0,0,0,-1,1343,1093,0,0
126,-69,0,0,0,0,0,0,0,0,0,-1,1350,1093,0,0
133,-69,0,0,0,0,0,0,0,0,0,-1,1357,1093,0,0
140,-69,0,0,0,0,0,0,0,0,0,-1,1364,1093,0,0
147,-69,0,0,0,0,0,0,0,0,0,-1,1371,1093,0,0
154,-69,0,0,0,0,0,0,0,0,0,-1,1378,1093,0,0
161,-69,0,0,0,0,0,0,0,0,0,-1,1385,1093,0,0
168,-69,0,0,0,0,0,0,0,0,0,-1,1392,1093,0,0
175,-69,0,0,0,0,0,0,0,0,0,-1,1399,1093,0,0
182,-69,0,0,0,0,0,0,0,0,0,-1,1406,1093,0,0
189,-69,0,0,0,0,0,0,0,0,0,-1,1413,1093,0,0
196,-69,0,0,0,0,0,0,0,0,0,-1,1420,1093,0,0
203,-69,0,0,0,0,0,0,0,0,0,-1,1427,1093,0,0
210,-69,0,0,0,0,0,0,0,0,0,-1,1434,1093,0,0
217,-69,0,0,0,0,0,0,0,0,0,-1,1441,1093,0,0
224,-69,0,0,0,0,0,0,0,0,0,-1,1448,1093,0,0
231,-69,0,0,0,0,0,0,0,0,0,-1,1455,1093,0,0
238,-69,0,0,0,0,0,0,0,0,0,-1,1462,1093,0,0
245,-69,0,0,0,0,0,0,0,0,0,-1,1469,1093,0,0
252,-69,0,0,0,0,0,0,0,0,0,-1,1476,1093,0,0
259,-69,0,0,0,0,0,0,0,0,0,-1,1483,1093,0,0
266,-69,0,0,0,0,0,0,0,0,0,-1,1490,1093,0,0
273,-69,0,0,0,0,0,0,0,0,0,-1,1497,1093,0,0
280,-69,0,0,0,0,0,0,0,0,0,-1,1504,1093,0,0
287,-69,0,0,0,0,0,0,0,0,0,-1,1511,1093,0,0
294,-69,0,0,0,0,0,0,0,0,0,-1,1518,1093,0,0
301,-69,0,0,0,0,0,0,0,0,0,-1,1525,1093,0,0
308,-69,0,0,0,0,0,0,0,0,0,-1,1532,1093,0,0
315,-69,0,0,0,0,0,0,0,0,0,-1,1539,1093,0,0
322,-69,0,0,0,0,0,0,0,0,0,-1,1546,1093,0,0
329,-69,0,0,0,0,0,0,0,0,0,-1,1553,1093,0,0
336,-69,0,0,0,0,0,0,0,0,0,-1,1560,1093,0,0
343,-69,0,0,0,0,0,0,0,0,0,-1,1567,1093,0,0
350,-69,0,0,0,0,0,0,0,0,0,-1,1574,1093,0,0
357,-69,0,0,0,0,0,0,0,0,0,-1,1581,1093,0,0
364,-69,0,0,0,0,0,0,0,0,0,-1,1588,1093,0,0
371,-69,0,0,0,0,0,0,0,0,0,-1,1595,1093,0,0
378,-69,0,0,0,0,0,0,0,0,0,-1,1602,1093,0,0
385,-69,0,0,0,0,0,0,0,0,0,-1,1609,1093,0,0
392,-69,0,0,0,0,0,0,0,0,0,-1,1616,1093,0,0
399,-69,0,0,0,0,0,0,0,0,0,-1,1623,1093,0,0
406,-69,0,0,0,0,0,0,0,0,0,-1,1630,1093,0,0
413,-69,0,0,0,0,0,0,0,0,0,-1,1637,1093,0,0
420,-69,0,0,0,0,0,0,0,0,0,-1,1644,1093,0,0
427,-69,0,0,0,0,0,0,0,0,0,-1,1651,1093,0,0
434,-69,0,0,0,0,0,0,0,0,0,-1,1658,1093,0,0
441,-69,0,0,0,0,0,0,0,0,0,-1,1665,1093,0,0
448,-69,0,0,0,0,0,0,0,0,0,-1,1672,1093,0,0
455,-69,0,0,0,0,0,0,0,0,0,-1,1679,1093,0,0
462,-69,0,0,0,0,0,0,0,0,0,-1,1686,1093,0,0
469,-69,0,0,0,0,0,0,0,0,0,-1,1693,1093,0,0
476,-69,0,0,0,0,0,0,0,0,0,-1,1700,1093,0,0
483,-69,0,0,0,0,0,0,0,0,0,-1,1707,1093,0,0
490,-69,0,0,0,0,0,0,0,0,0,-1,1714,1093,0,0
497,-69,0,0,0,0,0,0,0,0,0,-1,1721,1093,0,0
504,-69,0,0,0,0,0,0,0,0,0,-1,1728,1093,0,0
511,-69,0,0,0,0,0,0,0,0,0,-1,1735,1093,0,0
518,-69,0,0,0,0,0,0,0,0,0,-1,1742,1093,0,0
525,-69,0,0,0,0,0,0,0,0,0,-1,1749,1093,0,0
532,-69,0,0,0,0,0,0,0,0,0,-1,1756,1093,0,0
539,-69,0,0,0,0,0,0,0,0,0,-1,1763,1093,0,0
546,-69,0,0,0,0,0,0,0,0,0,-1,1770,1093,0,0
553,-69,0,0,0,0,0,0,0,0,0,-1,1777,1093,0,0
560,-69,0,0,0,0,0,0,0,0,0,-1,1784,1093,0,0
567,-69,0,0,0,0,0,0,0,0,0,-1,1791,1093,0,0
574,-69,0,0,0,0,0,0,0,0,0,-1,1798,1093,0,0
581,-69,0,0,0,0,0,0,0,0,0,-1,1805,1093,0,0
588,-69,0,0,0,0,0,0,0,0,0,-1,1812,1093,0,0
595,-69,0,0,0,0,0,0,0,0,0,-1,1819,1093,0,0
602,-69,0,0,0,0,0,0,0,0,0,-1,1826,1093,0,0
609,-69,0,0,0,0,0,0,0,0,0,-1,1833,1093,0,0
616,-69,0,0,0,0,0,0,0,0,0,-1,1840,1093,0,0
623,-69,0,0,0,0,0,0,0,0,0,-1,1847,1093,0,0
630,-69,0,0,0,0,0,0,0,0,0,-1,1854,1093,0,0
637,-69,0,0,0,0,0,0,0,0,0,-1,1861,1093,0,0
644,-69,0,0,0,0,0,0,0,0,0,-1,1868,1093,0,0
651,-69,17.5305,2.5293,0.0080604,-4.49875e-05,0.00182113,0.00845077,-0.000435358,0.211161,0.00578443,0.0390028,1875,1093,17.5306,-2.52933
658,-69,17.798,2.52136,0.00586285,-0.000242968,0.00105875,0.00604123,-0.000421345,0.166911,0.00417503,0.0421906,1882,1093,17.7979,-2.5214
665,-69,17.8473,2.43127,0.00404251,-0.000398761,0.000760116,0.004169,-0.000525251,0.164898,0.00296994,0.0426267,1889,1093,17.8473,-2.43122
672,-69,17.7008,2.5719,0.00226668,-0.000764152,0.00159495,0.00295134,-0.00144882,0.405482,0.00258933,0.0388131,1896,1093,17.7008,-2.57185
679,-69,17.8345,2.44592,0.000320765,-0.00119836,0.00299297,0.00264905,-0.00352665,0.66113,0.00357752,0.0377243,1903,1093,17.8345,-2.44586
686,-69,17.9241,2.45496,-0.00137809,-0.00159393,0.0044092,0.00292451,-0.00589653,0.773163,0.00518829,0.039026,1910,1093,17.9241,-2.4549
693,-69,17.7106,2.41479,-0.00273112,-0.00190778,0.00567409,0.00336956,-0.00800845,0.821611,0.00674864,0.0376951,1917,1093,17.7106,-2.41477
700,-69,17.6776,2.40576,-0.00380599,-0.00210132,0.00663189,0.00373278,-0.00964009,0.849308,0.00796797,0.0296812,1924,1093,17.6777,-2.40578
707,-69,17.6438,2.48425,-0.00467464,-0.00219494,0.00723216,0.00390288,-0.0107725,0.870291,0.00877678,0.0238139,1931,1093,17.6438,-2.48426
714,-69,17.7147,2.52588,-0.00508666,-0.00218603,0.00760416,0.00410489,-0.0113776,0.87963,0.0092617,0.0253252,1938,1093,17.7147,-2.52585
721,-69,17.7468,3.1842,-0.00511547,-0.00204388,0.00765658,0.00422942,-0.0113888,0.884377,0.00932762,0.0436566,1945,1093,17.7469,-3.18423
728,-69,17.3409,3.58496,-0.0050545,-0.00173326,0.00723607,0.0040303,-0.0108181,0.898191,0.00886626,0.0254797,1952,1093,17.341,-3.585
735,-69,17.1865,3.64221,-0.00464015,-0.00124232,0.00638453,0.00366547,-0.00954794,0.915434,0.00787674,0.016567,1959,1093,17.1865,-3.64221
742,-69,17.1864,3.58728,-0.00363772,-0.000238036,0.0052662,0.00359587,-0.00747163,0.941511,0.00651912,0.0134997,1966,1093,17.1864,-3.58726
749,-69,17.1506,3.52405,-0.00241267,0.000984669,0.00381438,0.00346152,-0.00488952,0.994881,0.00484492,0.0157792,1973,1093,17.1507,-3.52405
756,-69,17.1776,3.51038,-0.00106235,0.00251059,0.00205038,0.00344359,-0.00199535,1.14376,0.00317707,0.014797,1980,1093,17.1776,-3.51033
763,-69,17.1649,3.46753,0.000435856,0.00416952,-0.00022321,0.00418281,0.000422559,-1.5113,0.00265891,0.0144501,1987,1093,17.165,-3.46759
770,-69,17.1544,3.42639,0.00213098,0.00638011,-0.00262248,0.00763063,0.000880465,-1.12584,0.00482047,0.0135044,1994,1093,17.1545,-3.42634
777,-69,17.158,3.35046,0.00383802,0.00888478,-0.00486116,0.0118385,0.000884329,-1.0248,0.00761468,0.0180721,2001,1093,17.1579,-3.35052
784,-69,17.1693,3.24902,0.00526639,0.0116478,-0.00712252,0.0162617,0.000652569,-0.995983,0.0106303,0.0341591,2008,1093,17.1693,-3.24899
791,-69,17.2089,3.16577,0.00662867,0.0146505,-0.0100012,0.0214151,-0.000135946,-0.9761,0.0143223,0.0498591,2015,1093,17.2089,-3.16581
798,-69,17.259,3.05896,0,0,0,0,0,0,0,-1,2022,1093,17.259,-3.05902
805,-69,14.9921,2.1521,0.00929912,0.0206199,-0.0183411,0.0341542,-0.00423517,-0.93507,0.0243045,0.0477356,2029,1093,14.992,-2.15204
812,-69,14.7617,2.18652,0.0100001,0.0228449,-0.0239788,0.0412464,-0.00840148,-0.916246,0.0306839,0.0466101,2036,1093,14.7617,-2.18647
-700,-76,0,0,0,0,0,0,0,0,0,-1,524,1100,0,0
-693,-76,-10.179,0.0611572,-0.0187142,0.013808,-0.0283957,0.030269,-0.0351753,-1.04544,0.0378197,0.0412739,531,1100,-10.179,-0.0611005
-686,-76,-11.573,-0.319214,-0.0148372,0.016686,-0.0170393,0.0241357,-0.0222869,-1.15863,0.0268092,0.0492318,538,1100,-11.573,0.31922
-679,-76,-11.7269,0.414673,0,0,0,0,0,0,0,-1,545,1100,-11.7269,-0.414732
-672,-76,-10.7827,1.19312,0,0,0,0,0,0,0,-1,552,1100,-10.7827,-1.19308
-665,-76,-11.0749,0.875,0,0,0,0,0,0,0,-1,559,1100,-11.0749,-0.87494
-658,-76,-11.0331,0.925781,-0.00482277,0.0111005,0.000321807,0.011107,-0.00482927,1.5506,0.00943575,0.0463427,566,1100,-11.0332,-0.925734
-651,-76,-11.0076,0.980469,-0.00338591,0.00869915,0.00120898,0.00881891,-0.00350567,1.47206,0.0073327,0.0272925,573,1100,-11.0076,-0.980429
-644,-76,-10.9947,1.02429,-0.00236463,0.00691417,0.0017476,0.0072324,-0.00268287,1.39067,0.00592205,0.0103157,580,1100,-10.9947,-1.0243
-637,-76,-11.0201,1.07141,-0.00155808,0.00498905,0.00168449,0.00539702,-0.00196606,1.33318,0.00440223,0.0132618,587,1100,-11.0202,-1.07137
-630,-76,-11.0432,1.1311,-0.00137052,0.00233906,-0.000344466,0.00237077,-0.00140224,-1.47898,0.00220214,0.0138214,594,1100,-11.0432,-1.13115
-623,-76,-11.0306,1.19629,-0.00181362,0.000958115,-0.00216457,0.00214246,-0.00299796,-1.07014,0.00298149,0.0124589,601,1100,-11.0306,-1.19629
-616,-76,-11.0266,1.24817,-0.00228889,-0.000449479,-0.00345353,0.00220471,-0.00494307,-0.915532,0.00422652,0.0108546,608,1100,-11.0266,-1.24816
-609,-76,-11.0309,1.29993,-0.00253879,-0.00100569,-0.00497867,0.0032651,-0.00680958,-0.861781,0.0059354,0.0117036,615,1100,-11.0309,-1.29988
-602,-76,-11.0156,1.3866,-0.00266335,-0.00117448,-0.00612524,0.0042514,-0.00808922,-0.845869,0.0072388,0.0149095,622,1100,-11.0156,-1.38658
-595,-76,-10.9888,1.44202,-0.00303638,-0.0013104,-0.00704608,0.00492534,-0.00927213,-0.846333,0.00832399,0.0187216,629,1100,-10.9888,-1.44201
-588,-76,-11.0743,1.24658,-0.00337735,-0.00128918,-0.00754709,0.0052857,-0.00995223,-0.854133,0.00893408,0.0242273,636,1100,-11.0743,-1.24662
-581,-76,-11.2413,0.715942,-0.00337929,-0.00108454,-0.00763955,0.00549332,-0.00995715,-0.859935,0.00904358,0.0280104,643,1100,-11.2412,-0.715917
-574,-76,-11.3405,0.457031,-0.00315427,-0.000713147,-0.00751145,0.00567626,-0.00954368,-0.865941,0.00888129,0.0336483,650,1100,-11.3404,-0.457075
-567,-76,-11.4001,0.513672,-0.00278192,-0.000145754,-0.00695134,0.00561137,-0.00853904,-0.879093,0.00822782,0.0382482,657,1100,-11.4001,-0.513685
-560,-76,-11.3937,0.656006,-0.0022231,0.000573545,-0.00600302,0.00533896,-0.00698851,-0.899826,0.00713847,0.0412428,664,1100,-11.3937,-0.656015
-553,-76,-11.2239,0.603271,-0.00154247,0.00138802,-0.00473111,0.00487559,-0.00503004,-0.935566,0.00571925,0.0439535,671,1100,-11.2239,-0.60332
-546,-76,-11.1983,0.467285,-0.000786206,0.00222314,-0.00318989,0.00424543,-0.00280849,-1.00577,0.00410065,0.0425449,678,1100,-11.1983,-0.467301
-539,-76,-11.2827,0.520996,-4.43418e-05,0.00295472,-0.00168959,0.00371424,-0.000803857,-1.14834,0.00278308,0.0412274,685,1100,-11.2827,-0.521048
-532,-76,-11.2178,0.693115,-0.000266419,0.00308911,-0.00176229,0.00384456,-0.00102188,-1.16581,0.002963,0.0409698,692,1100,-11.2178,-0.693142
-525,-76,0,0,0,0,0,0,0,0,0,-1,699,1100,0,0
-518,-76,0,0,0,0,0,0,0,0,0,-1,706,1100,0,0
-511,-76,0,0,0,0,0,0,0,0,0,-1,713,1100,0,0
-504,-76,0,0,0,0,0,0,0,0,0,-1,720,1100,0,0
-497,-76,0,0,0,0,0,0,0,0,0,-1,727,1100,0,0
-490,-76,0,0,0,0,0,0,0,0,0,-1,734,1100,0,0
-483,-76,0,0,0,0,0,0,0,0,0,-1,741,1100,0,0
-476,-76,0,0,0,0,0,0,0,0,0,-1,748,1100,0,0
-469,-76,0,0,0,0,0,0,0,0,0,-1,755,1100,0,0
-462,-76,0,0,0,0,0,0,0,0,0,-1,762,1100,0,0
-455,-76,0,0,0,0,0,0,0,0,0,-1,769,1100,0,0
-448,-76,0,0,0,0,0,0,0,0,0,-1,776,1100,0,0
-441,-76,0,0,0,0,0,0,0,0,0,-1,783,1100,0,0
-434,-76,0,0,0,0,0,0,0,0,0,-1,790,1100,0,0
-427,-76,0,0,0,0,0,0,0,0,0,-1,797,1100,0,0
-420,-76,0,0,0,0,0,0,0,0,0,-1,804,1100,0,0
-413,-76,0,0,0,0,0,0,0,0,0,-1,811,1100,0,0
-406,-76,0,0,0,0,0,0,0,0,0,-1,818,1100,0,0
-399,-76,0,0,0,0,0,0,0,0,0,-1,825,1100,0,0
-392,-76,0,0,0,0,0,0,0,0,0,-1,832,1100,0,0
-385,-76,0,0,0,0,0,0,0,0,0,-1,839,1100,0,0
-378,-76,0,0,0,0,0,0,0,0,0,-1,846,1100,0,0
-371,-76,0,0,0,0,0,0,0,0,0,-1,853,1100,0,0
-364,-76,0,0,0,0,0,0,0,0,0,-1,860,1100,0,0
-357,-76,0,0,0,0,0,0,0,0,0,-1,867,1100,0,0
-350,-76,0,0,0,0,0,0,0,0,0,-1,874,1100,0,0
-343,-76,0,0,0,0,0,0,0,0,0,-1,881,1100,0,0
-336,-76,0,0,0,0,0,0,0,0,0,-1,888,1100,0,0
-329,-76,0,0,0,0,0,0,0,0,0,-1,895,1100,0,0
-322,-76,0,0,0,0,0,0,0,0,0,-1,902,1100,0,0
-315,-76,0,0,0,0,0,0,0,0,0,-1,909,1100,0,0
-308,-76,0,0,0,0,0,0,0,0,0,-1,916,1100,0,0
-301,-76,0,0,0,0,0,0,0,0,0,-1,923,1100,0,0
-294,-76,0,0,0,0,0,0,0,0,0,-1,930,1100,0,0
-287,-76,0,0,0,0,0,0,0,0,0,-1,937,1100,0,0
-280,-76,0,0,0,0,0,0,0,0,0,-1,944,1100,0,0
-273,-76,0,0,0,0,0,0,0,0,0,-1,951,1100,0,0
-266,-76,0,0,0,0,0,0,0,0,0,-1,958,1100,0,0
-259,-76,0,0,0,0,0,0,0,0,0,-1,965,1100,0,0
-252,-76,0,0,0,0,0,0,0,0,0,-1,972,1100,0,0
-245,-76,0,0,0,0,0,0,0,0,0,-1,979,1100,0,0
-238,-76,0,0,0,0,0,0,0,0,0,-1,986,1100,0,0
-231,-76,0,0,0,0,0,0,0,0,0,-1,993,1100,0,0
-224,-76,0,0,0,0,0,0,0,0,0,-1,1000,1100,0,0
-217,-76,0,0,0,0,0,0,0,0,0,-1,1007,1100,0,0
-210,-76,0,0,0,0,0,0,0,0,0,-1,1014,1100,0,0
-203,-76,0,0,0,0,0,0,0,0,0,-1,1021,1100,0,0
-196,-76,0,0,0,0,0,0,0,0,0,-1,1028,1100,0,0
-189,-76,0,0,0,0,0,0,0,0,0,-1,1035,1100,0,0
-182,-76,0,0,0,0,0,0,0,0,0,-1,1042,1100,0,0
-175,-76,0,0,0,0,0,0,0,0,0,-1,1049,1100,0,0
-168,-76,0,0,0,0,0,0,0,0,0,-1,1056,1100,0,0
-161,-76,0,0,0,0,0,0,0,0,0,-1,1063,1100,0,0
-154,-76,0,0,0,0,0,0,0,0,0,-1,1070,1100,0,0
-147,-76,0,0,0,0,0,0,0,0,0,-1,1077,1100,0,0
-140,-76,0,0,0,0,0,0,0,0,0,-1,1084,1100,0,0
-133,-76,0,0,0,0,0,0,0,0,0,-1,1091,1100,0,0
-126,-76,0,0,0,0,0,0,0,0,0,-1,1098,1100,0,0
-119,-76,0,0,0,0,0,0,0,0,0,-1,1105,1100,0,0
-112,-76,0,0,0,0,0,0,0,0,0,-1,1112,1100,0,0
-105,-76,0,0,0,0,0,0,0,0,0,-1,1119,1100,0,0
-98,-76,0,0,0,0,0,0,0,0,0,-1,1126,1100,0,0
-91,-76,0,0,0,0,0,0,0,0,0,-1,1133,1100,0,0
-84,-76,0,0,0,0,0,0,0,0,0,-1,1140,1100,0,0
-77,-76,0,0,0,0,0,0,0,0,0,-1,1147,1100,0,0
-70,-76,0,0,0,0,0,0,0,0,0,-1,1154,1100,0,0
-63,-76,0,0,0,0,0,0,0,0,0,-1,1161,1100,0,0
-56,-76,0,0,0,0,0,0,0,0,0,-1,1168,1100,0,0
-49,-76,0,0,0,0,0,0,0,0,0,-1,1175,1100,0,0
-42,-76,0,0,0,0,0,0,0,0,0,-1,1182,1100,0,0
-35,-76,0,0,0,0,0,0,0,0,0,-1,1189,1100,0,0
-28,-76,0,0,0,0,0,0,0,0,0,-1,1196,1100,0,0
-21,-76,0,0,0,0,0,0,0,0,0,-1,1203,1100,0,0
-14,-76,0,0,0,0,0,0,0,0,0,-1,1210,1100,0,0
-7,-76,0,0,0,0,0,0,0,0,0,-1,1217,1100,0,0
0,-76,0,0,0,0,0,0,0,0,0,-1,1224,1100,0,0
7,-76,0,0,0,0,0,0,0,0,0,-1,1231,1100,0,0
14,-76,0,0,0,0,0,0,0,0,0,-1,1238,1100,0,0
21,-76,0,0,0,0,0,0,0,0,0,-1,1245,1100,0,0
28,-76,0,0,0,0,0,0,0,0,0,-1,1252,1100,0,0
35,-76,0,0,0,0,0,0,0,0,0,-1,1259,1100,0,0
42,-76,0,0,0,0,0,0,0,0,0,-1,1266,1100,0,0
49,-76,0,0,0,0,0,0,0,0,0,-1,1273,1100,0,0
56,-76,0,0,0,0,0,0,0,0,0,-1,1280,1100,0,0
63,-76,0,0,0,0,0,0,0,0,0,-1,1287,1100,0,0
70,-76,0,0,0,0,0,0,0,0,0,-1,1294,1100,0,0
77,-76,0,0,0,0,0,0,0,0,0,-1,1301,1100,0,0
84,-76,0,0,0,0,0,0,0,0,0,-1,1308,1100,0,0
91,-76,0,0,0,0,0,0,0,0,0,-1,1315,1100,0,0
98,-76,0,0,0,0,0,0,0,0,0,-1,1322,1100,0,0
105,-76,0,0,0,0,0,0,0,0,0,-1,1329,1100,0,0
112,-76,0,0,0,0,0,0,0,0,0,-1,1336,1100,0,0
119,-76,0,0,0,0,0,0,0,0,0,-1,1343,1100,0,0
126,-76,0,0,0,0,0,0,0,0,0,-1,1350,1100,0,0
133,-76,0,0,0,0,0,0,0,0,0,-1,1357,1100,0,0
140,-76,0,0,0,0,0,0,0,0,0,-1,1364,1100,0,0
147,-76,0,0,0,0,0,0,0,0,0,-1,1371,1100,0,0
154,-76,0,0,0,0,0,0,0,0,0,-1,1378,1100,0,0
161,-76,0,0,0,0,0,0,0,0,0,-1,1385,1100,0,0
168,-76,0,0,0,0,0,0,0,0,0,-1,1392,1100,0,0
175,-76,0,0,0,0,0,0,0,0,0,-1,1399,1100,0,0
182,-76,0,0,0,0,0,0,0,0,0,-1,1406,1100,0,0
189,-76,0,0,0,0,0,0,0,0,0,-1,1413,1100,0,0
196,-76,0,0,0,0,0,0,0,0,0,-1,1420,1100,0,0
203,-76,0,0,0,0,0,0,0,0,0,-1,1427,1100,0,0
210,-76,0,0,0,0,0,0,0,0,0,-1,1434,1100,0,0
217,-76,0,0,0,0,0,0,0,0,0,-1,1441,1100,0,0
224,-76,0,0,0,0,0,0,0,0,0,-1,1448,1100,0,0
231,-76,0,0,0,0,0,0,0,0,0,-1,1455,1100,0,0
238,-76,0,0,0,0,0,0,0,0,0,-1,1462,1100,0,0
245,-76,0,0,0,0,0,0,0,0,0,-1,1469,1100,0,0
252,-76,0,0,0,0,0,0,0,0,0,-1,1476,1100,0,0
259,-76,0,0,0,0,0,0,0,0,0,-1,1483,1100,0,0
266,-76,0,0,0,0,0,0,0,0,0,-1,1490,1100,0,0
273,-76,0,0,0,0,0,0,0,0,0,-1,1497,1100,0,0
280,-76,0,0,0,0,0,0,0,0,0,-1,1504,1100,0,0
287,-76,0,0,0,0,0,0,0,0,0,-1,1511,1100,0,0
294,-76,0,0,0,0,0,0,0,0,0,-1,1518,1100,0,0
301,-76,0,0,0,0,0,0,0,0,0,-1,1525,1100,0,0
308,-76,0,0,0,0,0,0,0,0,0,-1,1532,1100,0,0
315,-76,0,0,0,0,0,0,0,0,0,-1,1539,1100,0,0
322,-76,0,0,0,0,0,0,0,0,0,-1,1546,1100,0,0
329,-76,0,0,0,0,0,0,0,0,0,-1,1553,1100,0,0
336,-76,0,0,0,0,0,0,0,0,0,-1,1560,1100,0,0
343,-76,0,0,0,0,0,0,0,0,0,-1,1567,1100,0,0
350,-76,0,0,0,0,0,0,0,0,0,-1,1574,1100,0,0
357,-76,0,0,0,0,0,0,0,0,0,-1,1581,1100,0,0
364,-76,0,0,0,0,0,0,0,0,0,-1,1588,1100,0,0
371,-76,0,0,0,0,0,0,0,0,0,-1,1595,1100,0,0
378,-76,0,0,0,0,0,0,0,0,0,-1,1602,1100,0,0
385,-76,0,0,0,0,0,0,0,0,0,-1,1609,1100,0,0
392,-76,0,0,0,0,0,0,0,0,0,-1,1616,1100,0,0
399,-76,0,0,0,0,0,0,0,0,0,-1,1623,1100,0,0
406,-76,0,0,0,0,0,0,0,0,0,-1,1630,1100,0,0
413,-76,0,0,0,0,0,0,0,0,0,-1,1637,1100,0,0
420,-76,0,0,0,0,0,0,0,0,0,-1,1644,1100,0,0
427,-76,0,0,0,0,0,0,0,0,0,-1,1651,1100,0,0
434,-76,0,0,0,0,0,0,0,0,0,-1,1658,1100,0,0
441,-76,0,0,0,0,0,0,0,0,0,-1,1665,1100,0,0
448,-76,0,0,0,0,0,0,0,0,0,-1,1672,1100,0,0
455,-76,0,0,0,0,0,0,0,0,0,-1,1679,1100,0,0
462,-76,0,0,0,0,0,0,0,0,0,-1,1686,1100,0,0
469,-76,0,0,0,0,0,0,0,0,0,-1,1693,1100,0,0
476,-76,0,0,0,0,0,0,0,0,0,-1,1700,1100,0,0
483,-76,0,0,0,0,0,0,0,0,0,-1,1707,1100,0,0
490,-76,0,0,0,0,0,0,0,0,0,-1,1714,1100,0,0
497,-76,0,0,0,0,0,0,0,0,0,-1,1721,1100,0,0
504,-76,0,0,0,0,0,0,0,0,0,-1,1728,1100,0,0
511,-76,0,0,0,0,0,0,0,0,0,-1,1735,1100,0,0
518,-76,0,0,0,0,0,0,0,0,0,-1,1742,1100,0,0
525,-76,0,0,0,0,0,0,0,0,0,-1,1749,1100,0,0
532,-76,0,0,0,0,0,0,0,0,0,-1,1756,1100,0,0
539,-76,0,0,0,0,0,0,0,0,0,-1,1763,1100,0,0
546,-76,0,0,0,0,0,0,0,0,0,-1,1770,1100,0,0
553,-76,0,0,0,0,0,0,0,0,0,-1,1777,1100,0,0
560,-76,0,0,0,0,0,0,0,0,0,-1,1784,1100,0,0
567,-76,0,0,0,0,0,0,0,0,0,-1,1791,1100,0,0
574,-76,0,0,0,0,0,0,0,0,0,-1,1798,1100,0,0
581,-76,0,0,0,0,0,0,0,0,0,-1,1805,1100,0,0
588,-76,0,0,0,0,0,0,0,0,0,-1,1812,1100,0,0
595,-76,0,0,0,0,0,0,0,0,0,-1,1819,1100,0,0
602,-76,0,0,0,0,0,0,0,0,0,-1,1826,1100,0,0
609,-76,0,0,0,0,0,0,0,0,0,-1,1833,1100,0,0
616,-76,0,0,0,0,0,0,0,0,0,-1,1840,1100,0,0
623,-76,0,0,0,0,0,0,0,0,0,-1,1847,1100,0,0
630,-76,0,0,0,0,0,0,0,0,0,-1,1854,1100,0,0
637,-76,0,0,0,0,0,0,0,0,0,-1,1861,1100,0,0
644,-76,0,0,0,0,0,0,0,0,0,-1,1868,1100,0,0
651,-76,17.6615,2.49463,0.00803455,-0.000277108,0.00223298,0.00859646,-0.000839021,0.246525,0.00603014,0.0397755,1875,1100,17.6615,-2.4946
658,-76,17.7808,2.50818,0.00589998,-0.00055246,0.00150804,0.00623504,-0.000887515,0.218628,0.00448192,0.0422823,1882,1100,17.7808,-2.5082
665,-76,17.7528,2.56482,0.00410202,-0.000776689,0.00124792,0.00440269,-0.00107736,0.236434,0.00335246,0.0388736,1889,1100,17.7528,-2.56476
672,-76,17.6732,2.46509,0.00220761,-0.00123873,0.00213912,0.00323129,-0.0022624,0.44634,0.00318818,0.0371572,1896,1100,17.6732,-2.46509
679,-76,17.8102,2.40283,0.000176417,-0.00175149,0.00350646,0.00284901,-0.00442409,0.651258,0.00423182,0.0379034,1903,1100,17.8102,-2.40278
686,-76,17.889,2.44116,-0.00156619,-0.00219553,0.00486229,0.00299161,-0.00675332,0.753085,0.00576427,0.0367747,1910,1100,17.889,-2.44117
693,-76,17.7346,2.44092,-0.00296236,-0.0025298,0.00606236,0.00332014,-0.00881229,0.803229,0.00723995,0.0378262,1917,1100,17.7346,-2.44087
700,-76,17.7108,2.48584,-0.00405617,-0.00273093,0.00693995,0.00357796,-0.0103651,0.832994,0.00836187,0.0324971,1924,1100,17.7108,-2.48586
707,-76,17.6656,2.55139,-0.00493387,-0.00280084,0.00749091,0.00369909,-0.0114338,0.85611,0.00910945,0.0256942,1931,1100,17.6656,-2.55135
714,-76,17.7369,2.67493,-0.0053588,-0.00275725,0.00779869,0.0038484,-0.0119644,0.868034,0.00952196,0.0356727,1938,1100,17.7369,-2.67494
721,-76,17.5005,3.2439,-0.00537875,-0.00256452,0.00777913,0.00393372,-0.011877,0.874872,0.00950458,0.0378456,1945,1100,17.5005,-3.24393
728,-76,17.3271,3.66956,0,0,0,0,0,0,0,-1,1952,1100,17.3272,-3.6695
735,-76,17.0472,3.61096,-0.00477786,-0.00163294,0.00634979,0.00333619,-0.009747,0.906776,0.00785004,0.0194099,1959,1100,17.0473,-3.61097
742,-76,17.1318,3.57227,-0.00375336,-0.000529791,0.00513897,0.00324423,-0.00752738,0.93736,0.00638077,0.014264,1966,1100,17.1318,-3.57223
749,-76,17.1099,3.52393,-0.00239258,0.000849899,0.00358171,0.00316021,-0.00470288,0.997923,0.00456879,0.0154493,1973,1100,17.1099,-3.52396
756,-76,17.1287,3.50366,-0.000916055,0.00250061,0.00171953,0.00321616,-0.0016316,1.17646,0.00284826,0.0153912,1980,1100,17.1287,-3.50371
763,-76,17.1179,3.45007,0.000794832,0.00420708,-0.000683214,0.00433879,0.00066312,-1.38035,0.00269878,0.0149908,1987,1100,17.118,-3.45011
770,-76,17.1202,3.4054,0.00274013,0.00650259,-0.00321686,0.00834792,0.000894803,-1.04998,0.00529229,0.0142878,1994,1100,17.1202,-3.40545
777,-76,17.1238,3.34546,0.00472075,0.00903442,-0.00557478,0.0128551,0.000900117,-0.969976,0.00828631,0.0169227,2001,1100,17.1238,-3.34545
784,-76,17.1305,3.27759,0.00655412,0.0117731,-0.00798472,0.0175639,0.00076329,-0.943331,0.0114633,0.0314303,2008,1100,17.1305,-3.27762
791,-76,17.0891,2.8717,0.00848504,0.0146681,-0.01102,0.023022,0.000131134,-0.922151,0.0153044,0.0460132,2015,1100,17.0891,-2.87167
798,-76,16.9984,2.32178,0,0,0,0,0,0,0,-1,2022,1100,16.9984,-2.32172
805,-76,15.5547,2.07556,0.0126401,0.0198835,-0.0195362,0.0361308,-0.00360731,-0.87705,0.0253753,0.0448899,2029,1100,15.5547,-2.07556
812,-76,15.5781,2.59387,0.0142576,0.0212099,-0.0251526,0.0431254,-0.00765789,-0.854064,0.0316136,0.047064,2036,1100,15.578,-2.59387
-700,-83,0,0,0,0,0,0,0,0,0,-1,524,1107,0,0
-693,-83,-10.2471,0.156494,0,0,0,0,0,0,0,-1,531,1107,-10.2471,-0.156522
-686,-83,-10.193,0.573242,0,0,0,0,0,0,0,-1,538,1107,-10.193,-0.573187
-679,-83,-10.2261,1.39978,0,0,0,0,0,0,0,-1,545,1107,-10.2261,-1.3998
-672,-83,-10.5813,0.981567,0,0,0,0,0,0,0,-1,552,1107,-10.5813,-0.981608
-665,-83,-10.6389,0.648193,0,0,0,0,0,0,0,-1,559,1107,-10.6389,-0.648217
-658,-83,-11.0676,0.779785,-0.0023767,0.010264,-0.000777643,0.0103117,-0.00242436,-1.50958,0.00780903,0.0410281,566,1107,-11.0676,-0.779803
-651,-83,-10.9866,0.843628,-0.00156661,0.00813396,0.000262344,0.00814105,-0.0015737,1.54378,0.00602088,0.0287694,573,1107,-10.9866,-0.843595
-644,-83,-10.9181,0.95105,-0.00103332,0.00638256,0.000872754,0.00648389,-0.00113465,1.45521,0.00474623,0.0144612,580,1107,-10.9181,-0.951014
-637,-83,-10.9351,1.06604,-0.000714962,0.00480509,0.000987236,0.00497634,-0.000886212,1.39904,0.00364902,0.0113211,587,1107,-10.9351,-1.06604
-630,-83,-10.9659,1.15686,-0.000972102,0.00236604,-0.000762539,0.00253198,-0.00113804,-1.35652,0.00216923,0.0161019,594,1107,-10.9659,-1.15684
-623,-83,-10.9481,1.20239,-0.00163227,0.000927637,-0.00259773,0.00254363,-0.00324827,-1.0143,0.00335219,0.0153691,601,1107,-10.9481,-1.20238
-616,-83,-10.9312,1.24377,-0.00233351,-0.000513051,-0.00376133,0.00244662,-0.00529318,-0.904114,0.0045682,0.0114493,608,1107,-10.9312,-1.24375
-609,-83,-10.9536,1.32178,-0.00274493,-0.00118305,-0.0052066,0.00330085,-0.00722883,-0.859838,0.00621871,0.0105943,615,1107,-10.9535,-1.32175
-602,-83,-10.9488,1.41614,-0.00298066,-0.00143882,-0.00631613,0.00415327,-0.00857275,-0.846126,0.0074936,0.0122036,622,1107,-10.9488,-1.41609
-595,-83,-10.9137,1.4978,-0.00345911,-0.0016382,-0.0072425,0.00475085,-0.00984816,-0.847925,0.00859829,0.0158263,629,1107,-10.9137,-1.49781
-588,-83,-11.0159,1.25427,-0.00385687,-0.00168597,-0.00775997,0.0050641,-0.0106069,-0.854886,0.00923439,0.0272154,636,1107,-11.0159,-1.25423
-581,-83,-11.2392,0.680176,-0.00382864,-0.00157939,-0.00785606,0.00523214,-0.0106402,-0.856492,0.0093395,0.0318871,643,1107,-11.2392,-0.68017
-574,-83,-11.3367,0.44751,-0.00352204,-0.001288,-0.00773072,0.00540598,-0.010216,-0.857147,0.00916077,0.0350403,650,1107,-11.3367,-0.447555
-567,-83,-11.381,0.456543,-0.00304748,-0.000809119,-0.0071606,0.00531923,-0.00917583,-0.862919,0.00846689,0.0412942,657,1107,-11.381,-0.456558
-560,-83,-11.4119,0.523804,-0.00233261,-0.00017796,-0.00616806,0.00500615,-0.00751672,-0.871857,0.00727836,0.0432983,664,1107,-11.4119,-0.52385
-553,-83,-11.1444,0.448486,0,0,0,0,0,0,0,-1,671,1107,-11.1444,-0.448545
-546,-83,-11.1912,0.623535,-0.000356434,0.00128129,-0.00313754,0.00370507,-0.00278021,-0.913045,0.00375695,0.0413298,678,1107,-11.1912,-0.623547
-539,-83,-11.2583,0.596924,0.000834103,0.00190001,-0.00138923,0.002855,-0.000120894,-0.968556,0.00194489,0.04395,685,1107,-11.2583,-0.596878
-532,-83,-11.2573,0.549316,0.00115401,0.00189271,-0.00105212,0.00263842,0.000408298,-0.954203,0.00163988,0.04269,692,1107,-11.2573,-0.549347
-525,-83,0,0,0,0,0,0,0,0,0,-1,699,1107,0,0
-518,-83,0,0,0,0,0,0,0,0,0,-1,706,1107,0,0
-511,-83,0,0,0,0,0,0,0,0,0,-1,713,1107,0,0
-504,-83,0,0,0,0,0,0,0,0,0,-1,720,1107,0,0
-497,-83,0,0,0,0,0,0,0,0,0,-1,727,1107,0,0
-490,-83,0,0,0,0,0,0,0,0,0,-1,734,1107,0,0
-483,-83,0,0,0,0,0,0,0,0,0,-1,741,1107,0,0
-476,-83,0,0,0,0,0,0,0,0,0,-1,748,1107,0,0
-469,-83,0,0,0,0,0,0,0,0,0,-1,755,1107,0,0
-462,-83,0,0,0,0,0,0,0,0,0,-1,762,1107,0,0
-455,-83,0,0,0,0,0,0,0,0,0,-1,769,1107,0,0
-448,-83,0,0,0,0,0,0,0,0,0,-1,776,1107,0,0
-441,-83,0,0,0,0,0,0,0,0,0,-1,783,1107,0,0
-434,-83,0,0,0,0,0,0,0,0,0,-1,790,1107,0,0
-427,-83,0,0,0,0,0,0,0,0,0,-1,797,1107,0,0
-420,-83,0,0,0,0,0,0,0,0,0,-1,804,1107,0,0
-413,-83,0,0,0,0,0,0,0,0,0,-1,811,1107,0,0
-406,-83,0,0,0,0,0,0,0,0,0,-1,818,1107,0,0
-399,-83,0,0,0,0,0,0,0,0,0,-1,825,1107,0,0
-392,-83,0,0,0,0,0,0,0,0,0,-1,832,1107,0,0
-385,-83,0,0,0,0,0,0,0,0,0,-1,839,1107,0,0
-378,-83,0,0,0,0,0,0,0,0,0,-1,846,1107,0,0
-371,-83,0,0,0,0,0,0,0,0,0,-1,853,1107,0,0
-364,-83,0,0,0,0,0,0,0,0,0,-1,860,1107,0,0
-357,-83,0,0,0,0,0,0,0,0,0,-1,867,1107,0,0
-350,-83,0,0,0,0,0,0,0,0,0,-1,874,1107,0,0
-343,-83,0,0,0,0,0,0,0,0,0,-1,881,1107,0,0
-336,-83,0,0,0,0,0,0,0,0,0,-1,888,1107,0,0
-329,-83,0,0,0,0,0,0,0,0,0,-1,895,1107,0,0
-322,-83,0,0,0,0,0,0,0,0,0,-1,902,1107,0,0
-315,-83,0,0,0,0,0,0,0,0,0,-1,909,1107,0,0
-308,-83,0,0,0,0,0,0,0,0,0,-1,916,1107,0,0
-301,-83,0,0,0,0,0,0,0,0,0,-1,923,1107,0,0
-294,-83,0,0,0,0,0,0,0,0,0,-1,930,1107,0,0
-287,-83,0,0,0,0,0,0,0,0,0,-1,937,1107,0,0
-280,-83,0,0,0,0,0,0,0,0,0,-1,944,1107,0,0
-273,-83,0,0,0,0,0,0,0,0,0,-1,951,1107,0,0
-266,-83,0,0,0,0,0,0,0,0,0,-1,958,1107,0,0
-259,-83,0,0,0,0,0,0,0,0,0,-1,965,1107,0,0
-252,-83,0,0,0,0,0,0,0,0,0,-1,972,1107,0,0
-245,-83,0,0,0,0,0,0,0,0,0,-1,979,1107,0,0
-238,-83,0,0,0,0,0,0,0,0,0,-1,986,1107,0,0
-231,-83,0,0,0,0,0,0,0,0,0,-1,993,1107,0,0
-224,-83,0,0,0,0,0,0,0,0,0,-1,1000,1107,0,0
-217,-83,0,0,0,0,0,0,0,0,0,-1,1007,1107,0,0
-210,-83,0,0,0,0,0,0,0,0,0,-1,1014,1107,0,0
-203,-83,0,0,0,0,0,0,0,0,0,-1,1021,1107,0,0
-196,-83,0,0,0,0,0,0,0,0,0,-1,1028,1107,0,0
-189,-83,0,0,0,0,0,0,0,0,0,-1,1035,1107,0,0
-182,-83,0,0,0,0,0,0,0,0,0,-1,1042,1107,0,0
-175,-83,0,0,0,0,0,0,0,0,0,-1,1049,1107,0,0
-168,-83,0,0,0,0,0,0,0,0,0,-1,1056,1107,0,0
-161,-83,0,0,0,0,0,0,0,0,0,-1,1063,1107,0,0
-154,-83,0,0,0,0,0,0,0,0,0,-1,1070,1107,0,0
-147,-83,0,0,0,0,0,0,0,0,0,-1,1077,1107,0,0
-140,-83,0,0,0,0,0,0,0,0,0,-1,1084,1107,0,0
-133,-83,0,0,0,0,0,0,0,0,0,-1,1091,1107,0,0
-126,-83,0,0,0,0,0,0,0,0,0,-1,1098,1107,0,0
-119,-83,0,0,0,0,0,0,0,0,0,-1,1105,1107,0,0
-112,-83,0,0,0,0,0,0,0,0,0,-1,1112,1107,0,0
-105,-83,0,0,0,0,0,0,0,0,0,-1,1119,1107,0,0
-98,-83,0,0,0,0,0,0,0,0,0,-1,1126,1107,0,0
-91,-83,0,0,0,0,0,0,0,0,0,-1,1133,1107,0,0
-84,-83,0,0,0,0,0,0,0,0,0,-1,1140,1107,0,0
-77,-83,0,0,0,0,0,0,0,0,0,-1,1147,1107,0,0
-70,-83,0,0,0,0,0,0,0,0,0,-1,1154,1107,0,0
-63,-83,0,0,0,0,0,0,0,0,0,-1,1161,1107,0,0
-56,-83,0,0,0,0,0,0,0,0,0,-1,1168,1107,0,0
-49,-83,0,0,0,0,0,0,0,0,0,-1,1175,1107,0,0
-42,-83,0,0,0,0,0,0,0,0,0,-1,1182,1107,0,0
-35,-83,0,0,0,0,0,0,0,0,0,-1,1189,1107,0,0
-28,-83,0,0,0,0,0,0,0,0,0,-1,1196,1107,0,0
-21,-83,0,0,0,0,0,0,0,0,0,-1,1203,1107,0,0
-14,-83,0,0,0,0,0,0,0,0,0,-1,1210,1107,0,0
-7,-83,0,0,0,0,0,0,0,0,0,-1,1217,1107,0,0
0,-83,0,0,0,0,0,0,0,0,0,-1,1224,1107,0,0
7,-83,0,0,0,0,0,0,0,0,0,-1,1231,1107,0,0
14,-83,0,0,0,0,0,0,0,0,0,-1,1238,1107,0,0
21,-83,0,0,0,0,0,0,0,0,0,-1,1245,1107,0,0
28,-83,0,0,0,0,0,0,0,0,0,-1,1252,1107,0,0
35,-83,0,0,0,0,0,0,0,0,0,-1,1259,1107,0,0
42,-83,0,0,0,0,0,0,0,0,0,-1,1266,1107,0,0
49,-83,0,0,0,0,0,0,0,0,0,-1,1273,1107,0,0
56,-83,0,0,0,0,0,0,0,0,0,-1,1280,1107,0,0
63,-83,0,0,0,0,0,0,0,0,0,-1,1287,1107,0,0
70,-83,0,0,0,0,0,0,0,0,0,-1,1294,1107,0,0
77,-83,0,0,0,0,0,0,0,0,0,-1,1301,1107,0,0
84,-83,0,0,0,0,0,0,0,0,0,-1,1308,1107,0,0
91,-83,0,0,0,0,0,0,0,0,0,-1,1315,1107,0,0
98,-83,0,0,0,0,0,0,0,0,0,-1,1322,1107,0,0
105,-83,0,0,0,0,0,0,0,0,0,-1,1329,1107,0,0
112,-83,0,0,0,0,0,0,0,0,0,-1,1336,1107,0,0
119,-83,0,0,0,0,0,0,0,0,0,-1,1343,1107,0,0
126,-83,0,0,0,0,0,0,0,0,0,-1,1350,1107,0,0
133,-83,0,0,0,0,0,0,0,0,0,-1,1357,1107,0,0
140,-83,0,0,0,0,0,0,0,0,0,-1,1364,1107,0,0
147,-83,0,0,0,0,0,0,0,0,0,-1,1371,1107,0,0
154,-83,0,0,0,0,0,0,0,0,0,-1,1378,1107,0,0
161,-83,0,0,0,0,0,0,0,0,0,-1,1385,1107,0,0
168,-83,0,0,0,0,0,0,0,0,0,-1,1392,1107,0,0
175,-83,0,0,0,0,0,0,0,0,0,-1,1399,1107,0,0
182,-83,0,0,0,0,0,0,0,0,0,-1,1406,1107,0,0
189,-83,0,0,0,0,0,0,0,0,0,-1,1413,1107,0,0
196,-83,0,0,0,0,0,0,0,0,0,-1,1420,1107,0,0
203,-83,0,0,0,0,0,0,0,0,0,-1,1427,1107,0,0
210,-83,0,0,0,0,0,0,0,0,0,-1,1434,1107,0,0
217,-83,0,0,0,0,0,0,0,0,0,-1,1441,1107,0,0
224,-83,0,0,0,0,0,0,0,0,0,-1,1448,1107,0,0
231,-83,0,0,0,0,0,0,0,0,0,-1,1455,1107,0,0
238,-83,0,0,0,0,0,0,0,0,0,-1,1462,1107,0,0
245,-83,0,0,0,0,0,0,0,0,0,-1,1469,1107,0,0
252,-83,0,0,0,0,0,0,0,0,0,-1,1476,1107,0,0
259,-83,0,0,0,0,0,0,0,0,0,-1,1483,1107,0,0
266,-83,0,0,0,0,0,0,0,0,0,-1,1490,1107,0,0
273,-83,0,0,0,0,0,0,0,0,0,-1,1497,1107,0,0
280,-83,0,0,0,0,0,0,0,0,0,-1,1504,1107,0,0
287,-83,0,0,0,0,0,0,0,0,0,-1,1511,1107,0,0
294,-83,0,0,0,0,0,0,0,0,0,-1,1518,1107,0,0
301,-83,0,0,0,0,0,0,0,0,0,-1,1525,1107,0,0
308,-83,0,0,0,0,0,0,0,0,0,-1,1532,1107,0,0
315,-83,0,0,0,0,0,0,0,0,0,-1,1539,1107,0,0
322,-83,0,0,0,0,0,0,0,0,0,-1,1546,1107,0,0
329,-83,0,0,0,0,0,0,0,0,0,-1,1553,1107,0,0
336,-83,0,0,0,0,0,0,0,0,0,-1,1560,1107,0,0
343,-83,0,0,0,0,0,0,0,0,0,-1,1567,1107,0,0
350,-83,0,0,0,0,0,0,0,0,0,-1,1574,1107,0,0
357,-83,0,0,0,0,0,0,0,0,0,-1,1581,1107,0,0
364,-83,0,0,0,0,0,0,0,0,0,-1,1588,1107,0,0
371,-83,0,0,0,0,0,0,0,0,0,-1,1595,1107,0,0
378,-83,0,0,0,0,0,0,0,0,0,-1,1602,1107,0,0
385,-83,0,0,0,0,0,0,0,0,0,-1,1609,1107,0,0
392,-83,0,0,0,0,0,0,0,0,0,-1,1616,1107,0,0
399,-83,0,0,0,0,0,0,0,0,0,-1,1623,1107,0,0
406,-83,0,0,0,0,0,0,0,0,0,-1,1630,1107,0,0
413,-83,0,0,0,0,0,0,0,0,0,-1,1637,1107,0,0
420,-83,0,0,0,0,0,0,0,0,0,-1,1644,1107,0,0
427,-83,0,0,0,0,0,0,0,0,0,-1,1651,1107,0,0
434,-83,0,0,0,0,0,0,0,0,0,-1,1658,1107,0,0
441,-83,0,0,0,0,0,0,0,0,0,-1,1665,1107,0,0
448,-83,0,0,0,0,0,0,0,0,0,-1,1672,1107,0,0
455,-83,0,0,0,0,0,0,0,0,0,-1,1679,1107,0,0
462,-83,0,0,0,0,0,0,0,0,0,-1,1686,1107,0,0
469,-83,0,0,0,0,0,0,0,0,0,-1,1693,1107,0,0
476,-83,0,0,0,0,0,0,0,0,0,-1,1700,1107,0,0
483,-83,0,0,0,0,0,0,0,0,0,-1,1707,1107,0,0
490,-83,0,0,0,0,0,0,0,0,0,-1,1714,1107,0,0
497,-83,0,0,0,0,0,0,0,0,0,-1,1721,1107,0,0
504,-83,0,0,0,0,0,0,0,0,0,-1,1728,1107,0,0
511,-83,0,0,0,0,0,0,0,0,0,-1,1735,1107,0,0
518,-83,0,0,0,0,0,0,0,0,0,-1,1742,1107,0,0
525,-83,0,0,0,0,0,0,0,0,0,-1,1749,1107,0,0
532,-83,0,0,0,0,0,0,0,0,0,-1,1756,1107,0,0
539,-83,0,0,0,0,0,0,0,0,0,-1,1763,1107,0,0
546,-83,0,0,0,0,0,0,0,0,0,-1,1770,1107,0,0
553,-83,0,0,0,0,0,0,0,0,0,-1,1777,1107,0,0
560,-83,0,0,0,0,0,0,0,0,0,-1,1784,1107,0,0
567,-83,0,0,0,0,0,0,0,0,0,-1,1791,1107,0,0
574,-83,0,0,0,0,0,0,0,0,0,-1,1798,1107,0,0
581,-83,0,0,0,0,0,0,0,0,0,-1,1805,1107,0,0
588,-83,0,0,0,0,0,0,0,0,0,-1,1812,1107,0,0
595,-83,0,0,0,0,0,0,0,0,0,-1,1819,1107,0,0
602,-83,0,0,0,0,0,0,0,0,0,-1,1826,1107,0,0
609,-83,0,0,0,0,0,0,0,0,0,-1,1833,1107,0,0
616,-83,0,0,0,0,0,0,0,0,0,-1,1840,1107,0,0
623,-83,0,0,0,0,0,0,0,0,0,-1,1847,1107,0,0
630,-83,0,0,0,0,0,0,0,0,0,-1,1854,1107,0,0
637,-83,0,0,0,0,0,0,0,0,0,-1,1861,1107,0,0
644,-83,17.6586,2.39539,0.0102586,-0.00110709,0.00276263,0.0108945,-0.00174302,0.226247,0.0079083,0.0344126,1868,1107,17.6586,-2.39536
651,-83,17.7784,2.56775,0.00758051,-0.00111397,0.00228575,0.0081448,-0.00167826,0.242035,0.00606716,0.0413162,1875,1107,17.7785,-2.56777
658,-83,17.8138,2.4873,0.0056171,-0.00113944,0.00165847,0.00600223,-0.00152458,0.228179,0.00459478,0.0437151,1882,1107,17.8139,-2.48731
665,-83,17.7568,2.44885,0.00392431,-0.00119605,0.00149978,0.00433127,-0.001603,0.264961,0.00354479,0.0378783,1889,1107,17.7568,-2.44886
672,-83,17.6362,2.48145,0.00200986,-0.0015799,0.00247098,0.00326905,-0.00283908,0.47129,0.00352944,0.036911,1896,1107,17.6362,-2.48149
679,-83,17.7958,2.52258,-2.94471e-06,-0.00203793,0.00381315,0.00292613,-0.004967,0.655017,0.0046076,0.0397376,1903,1107,17.7958,-2.52261
686,-83,17.8508,2.53711,-0.00171405,-0.00245123,0.00511274,0.00304336,-0.00720865,0.749414,0.00607967,0.0365831,1910,1107,17.8508,-2.53716
693,-83,17.7267,2.52393,-0.00309662,-0.00276854,0.00624804,0.00331761,-0.00918277,0.798522,0.00747722,0.0358048,1917,1107,17.7266,-2.52387
700,-83,17.7091,2.56738,-0.00417503,-0.00294963,0.00704225,0.00350652,-0.0106312,0.828791,0.00850088,0.0316449,1924,1107,17.709,-2.56742
707,-83,17.6714,2.54419,-0.00502981,-0.00299609,0.00755518,0.00361035,-0.0116363,0.852292,0.0092002,0.0246323,1931,1107,17.6714,-2.54422
714,-83,17.7036,2.72107,-0.00545189,-0.00294055,0.00782307,0.00372698,-0.0121194,0.864974,0.00956706,0.0370894,1938,1107,17.7036,-2.72109
721,-83,17.2659,3.47363,-0.00548459,-0.00273694,0.00774687,0.00375698,-0.0119785,0.873156,0.00948923,0.0250387,1945,1107,17.2659,-3.47369
728,-83,17.0518,3.63586,-0.00532496,-0.0023392,0.00720862,0.00352951,-0.0111937,0.887503,0.00887603,0.0196038,1952,1107,17.0518,-3.63587
735,-83,17.0267,3.58118,-0.00481272,-0.00177113,0.00621113,0.00310267,-0.00968653,0.905461,0.00770309,0.0211713,1959,1107,17.0268,-3.58119
742,-83,17.0774,3.57898,-0.00380616,-0.000640837,0.00494013,0.00296396,-0.00741095,0.940417,0.00617065,0.0132808,1966,1107,17.0773,-3.57894
749,-83,17.0862,3.55444,-0.00244002,0.000949906,0.00331823,0.002981,-0.00447112,1.02152,0.00433106,0.0119819,1973,1107,17.0862,-3.55449
756,-83,17.0933,3.49731,-0.000952947,0.00276192,0.00140721,0.00323478,-0.00142581,1.24662,0.00275753,0.0141927,1980,1107,17.0933,-3.4973
763,-83,17.0858,3.43457,0.000838464,0.00463364,-0.00106217,0.00491069,0.000561414,-1.31565,0.00310363,0.0108885,1987,1107,17.0858,-3.43452
770,-83,17.0781,3.39343,0.00285472,0.00717475,-0.00367415,0.00927678,0.000752693,-1.05113,0.00594951,0.0129319,1994,1107,17.0781,-3.39342
777,-83,17.0765,3.34766,0.00488366,0.00998919,-0.0061019,0.0140508,0.000822058,-0.983513,0.00910555,0.0140308,2001,1107,17.0765,-3.34764
784,-83,17.0667,3.34351,0.00684828,0.0130829,-0.00860527,0.0191181,0.000813073,-0.959173,0.0124832,0.0229787,2008,1107,17.0666,-3.34351
791,-83,17.0408,2.64209,0,0,0,0,0,0,0,-1,2015,1107,17.0407,-2.6421
798,-83,17.8263,3.41882,0,0,0,0,0,0,0,-1,2022,1107,17.8263,-3.41886
805,-83,17.738,3.11255,0,0,0,0,0,0,0,-1,2029,1107,17.7381,-3.11259
812,-83,16.0381,2.60254,0,0,0,0,0,0,0,-1,2036,1107,16.0382,-2.60259
-700,-90,0,0,0,0,0,0,0,0,0,-1,524,1114,0,0
-693,-90,-9.84674,0.126465,0,0,0,0,0,0,0,-1,531,1114,-9.84672,-0.126488
-686,-90,-10.1328,0.372681,-0.00198248,0.0191369,-0.0231282,0.034002,-0.0168476,-0.999551,0.0299097,0.0472755,538,1114,-10.1328,-0.372654
-679,-90,-10.2525,0.622559,-0.00168409,0.017957,-0.0148734,0.0259595,-0.00968665,-1.07718,0.0212832,0.0471795,545,1114,-10.2525,-0.622498
-672,-90,-10.3264,0.645508,-0.00129749,0.0158353,-0.00924363,0.0198716,-0.00533378,-1.15909,0.015338,0.0466557,552,1114,-10.3264,-0.645563
-665,-90,-10.4861,0.585571,-0.00090738,0.0133033,-0.00548118,0.0151718,-0.00277584,-1.24226,0.0111555,0.0471744,559,1114,-10.4861,-0.585537
-658,-90,-10.7992,0.844971,-0.000568509,0.010703,-0.00306011,0.0114802,-0.00134571,-1.32208,0.00813919,0.042114,566,1114,-10.7992,-0.844998
-651,-90,-10.8522,0.789795,-0.000280763,0.00825372,-0.00157099,0.00853372,-0.000560759,-1.39442,0.00588498,0.0278831,573,1114,-10.8522,-0.789849
-644,-90,-10.8628,0.90271,-0.000103778,0.00621546,-0.000652893,0.00628221,-0.000170529,-1.46891,0.00424612,0.0127984,580,1114,-10.8628,-0.902765
-637,-90,-10.8586,1.04541,-0.000191125,0.00462211,-0.000156295,0.00462718,-0.000196195,-1.53837,0.00315222,0.0113355,587,1114,-10.8586,-1.04539
-630,-90,-10.8539,1.13147,-0.000816103,0.00212518,-0.00137323,0.00266664,-0.00135756,-1.19522,0.00236399,0.0110639,594,1114,-10.854,-1.13142
-623,-90,-10.8463,1.18823,-0.0015872,0.000701444,-0.00308537,0.00284786,-0.00373362,-0.962978,0.00381127,0.0089833,601,1114,-10.8463,-1.18821
-616,-90,-10.8628,1.26721,-0.00242356,-0.000736752,-0.00408579,0.00259178,-0.00575209,-0.887181,0.00493117,0.0074102,608,1114,-10.8628,-1.2672
-609,-90,-10.8779,1.34937,-0.00296099,-0.00142285,-0.00542307,0.00328541,-0.00766925,-0.855836,0.00649129,0.010238,615,1114,-10.8779,-1.34937
-602,-90,-10.8776,1.42615,-0.00332838,-0.00171826,-0.00651178,0.00403804,-0.00908468,-0.846902,0.00776091,0.00985377,622,1114,-10.8776,-1.42615
-595,-90,-10.8404,1.51245,-0.00394462,-0.00196521,-0.00745289,0.0045634,-0.0104732,-0.851409,0.0089021,0.0119725,629,1114,-10.8404,-1.51249
-588,-90,-10.8973,1.40491,-0.00442063,-0.00209544,-0.00798719,0.00481332,-0.0113294,-0.857669,0.00956975,0.0230243,636,1114,-10.8973,-1.40493
-581,-90,-11.2524,0.884521,-0.00439312,-0.00209247,-0.00808838,0.00492698,-0.0114126,-0.856034,0.00967818,0.0327157,643,1114,-11.2524,-0.884512
-574,-90,-11.3345,0.593628,-0.00404294,-0.0019042,-0.00796019,0.00505813,-0.0110053,-0.852168,0.00948371,0.0346847,650,1114,-11.3345,-0.593615
-567,-90,-11.2653,0.476074,-0.00351121,-0.00153485,-0.00738179,0.00492461,-0.00997067,-0.851936,0.00876274,0.0370077,657,1114,-11.2653,-0.476036
-560,-90,-11.286,0.681641,-0.00268836,-0.00101844,-0.00634008,0.00454143,-0.00824823,-0.850869,0.00748678,0.0398736,664,1114,-11.286,-0.681656
-553,-90,-11.1436,0.940674,-0.00160711,-0.000416303,-0.00488144,0.00390591,-0.00592933,-0.846085,0.00571829,0.0399061,671,1114,-11.1435,-0.940626
-546,-90,-11.1501,0.982422,-0.000285914,0.000189279,-0.00303759,0.00299855,-0.00309518,-0.824428,0.00351836,0.0421584,678,1114,-11.1501,-0.98248
-539,-90,-11.3161,0.624146,0.00128278,0.000670935,-0.000979315,0.00200284,-4.91299e-05,-0.63401,0.0013519,0.0428281,685,1114,-11.3161,-0.624105
-532,-90,-11.3621,0.456543,0.00213332,0.000538836,-8.79451e-05,0.00213816,0.000534,-0.0549337,0.00128497,0.0413342,692,1114,-11.3621,-0.456593
-525,-90,0,0,0,0,0,0,0,0,0,-1,699,1114,0,0
-518,-90,0,0,0,0,0,0,0,0,0,-1,706,1114,0,0
-511,-90,0,0,0,0,0,0,0,0,0,-1,713,1114,0,0
-504,-90,0,0,0,0,0,0,0,0,0,-1,720,1114,0,0
-497,-90,0,0,0,0,0,0,0,0,0,-1,727,1114,0,0
-490,-90,0,0,0,0,0,0,0,0,0,-1,734,1114,0,0
-483,-90,0,0,0,0,0,0,0,0,0,-1,741,1114,0,0
-476,-90,0,0,0,0,0,0,0,0,0,-1,748,1114,0,0
-469,-90,0,0,0,0,0,0,0,0,0,-1,755,1114,0,0
-462,-90,0,0,0,0,0,0,0,0,0,-1,762,1114,0,0
-455,-90,0,0,0,0,0,0,0,0,0,-1,769,1114,0,0
-448,-90,0,0,0,0,0,0,0,0,0,-1,776,1114,0,0
-441,-90,0,0,0,0,0,0,0,0,0,-1,783,1114,0,0
-434,-90,0,0,0,0,0,0,0,0,0,-1,790,1114,0,0
-427,-90,0,0,0,0,0,0,0,0,0,-1,797,1114,0,0
-420,-90,0,0,0,0,0,0,0,0,0,-1,804,1114,0,0
-413,-90,0,0,0,0,0,0,0,0,0,-1,811,1114,0,0
-406,-90,0,0,0,0,0,0,0,0,0,-1,818,1114,0,0
-399,-90,0,0,0,0,0,0,0,0,0,-1,825,1114,0,0
-392,-90,0,0,0,0,0,0,0,0,0,-1,832,1114,0,0
-385,-90,0,0,0,0,0,0,0,0,0,-1,839,1114,0,0
-378,-90,0,0,0,0,0,0,0,0,0,-1,846,1114,0,0
-371,-90,0,0,0,0,0,0,0,0,0,-1,853,1114,0,0
-364,-90,0,0,0,0,0,0,0,0,0,-1,860,1114,0,0
-357,-90,0,0,0,0,0,0,0,0,0,-1,867,1114,0,0
-350,-90,0,0,0,0,0,0,0,0,0,-1,874,1114,0,0
-343,-90,0,0,0,0,0,0,0,0,0,-1,881,1114,0,0
-336,-90,0,0,0,0,0,0,0,0,0,-1,888,1114,0,0
-329,-90,0,0,0,0,0,0,0,0,0,-1,895,1114,0,0
-322,-90,0,0,0,0,0,0,0,0,0,-1,902,1114,0,0
-315,-90,0,0,0,0,0,0,0,0,0,-1,909,1114,0,0
-308,-90,0,0,0,0,0,0,0,0,0,-1,916,1114,0,0
-301,-90,0,0,0,0,0,0,0,0,0,-1,923,1114,0,0
-294,-90,0,0,0,0,0,0,0,0,0,-1,930,1114,0,0
-287,-90,0,0,0,0,0,0,0,0,0,-1,937,1114,0,0
-280,-90,0,0,0,0,0,0,0,0,0,-1,944,1114,0,0
-273,-90,0,0,0,0,0,0,0,0,0,-1,951,1114,0,0
-266,-90,0,0,0,0,0,0,0,0,0,-1,958,1114,0,0
-259,-90,0,0,0,0,0,0,0,0,0,-1,965,1114,0,0
-252,-90,0,0,0,0,0,0,0,0,0,-1,972,1114,0,0
-245,-90,0,0,0,0,0,0,0,0,0,-1,979,1114,0,0
-238,-90,0,0,0,0,0,0,0,0,0,-1,986,1114,0,0
-231,-90,0,0,0,0,0,0,0,0,0,-1,993,1114,0,0
-224,-90,0,0,0,0,0,0,0,0,0,-1,1000,1114,0,0
-217,-90,0,0,0,0,0,0,0,0,0,-1,1007,1114,0,0
-210,-90,0,0,0,0,0,0,0,0,0,-1,1014,1114,0,0
-203,-90,0,0,0,0,0,0,0,0,0,-1,1021,1114,0,0
-196,-90,0,0,0,0,0,0,0,0,0,-1,1028,1114,0,0
-189,-90,0,0,0,0,0,0,0,0,0,-1,1035,1114,0,0
-182,-90,0,0,0,0,0,0,0,0,0,-1,1042,1114,0,0
-175,-90,0,0,0,0,0,0,0,0,0,-1,1049,1114,0,0
-168,-90,0,0,0,0,0,0,0,0,0,-1,1056,1114,0,0
-161,-90,0,0,0,0,0,0,0,0,0,-1,1063,1114,0,0
-154,-90,0,0,0,0,0,0,0,0,0,-1,1070,1114,0,0
-147,-90,0,0,0,0,0,0,0,0,0,-1,1077,1114,0,0
-140,-90,0,0,0,0,0,0,0,0,0,-1,1084,1114,0,0
-133,-90,0,0,0,0,0,0,0,0,0,-1,1091,1114,0,0
-126,-90,0,0,0,0,0,0,0,0,0,-1,1098,1114,0,0
-119,-90,0,0,0,0,0,0,0,0,0,-1,1105,1114,0,0
-112,-90,0,0,0,0,0,0,0,0,0,-1,1112,1114,0,0
-105,-90,0,0,0,0,0,0,0,0,0,-1,1119,1114,0,0
-98,-90,0,0,0,0,0,0,0,0,0,-1,1126,1114,0,0
-91,-90,0,0,0,0,0,0,0,0,0,-1,1133,1114,0,0
-84,-90,0,0,0,0,0,0,0,0,0,-1,1140,1114,0,0
-77,-90,0,0,0,0,0,0,0,0,0,-1,1147,1114,0,0
-70,-90,0,0,0,0,0,0,0,0,0,-1,1154,1114,0,0
-63,-90,0,0,0,0,0,0,0,0,0,-1,1161,1114,0,0
-56,-90,0,0,0,0,0,0,0,0,0,-1,1168,1114,0,0
-49,-90,0,0,0,0,0,0,0,0,0,-1,1175,1114,0,0
-42,-90,0,0,0,0,0,0,0,0,0,-1,1182,1114,0,0
-35,-90,0,0,0,0,0,0,0,0,0,-1,1189,1114,0,0
-28,-90,0,0,0,0,0,0,0,0,0,-1,1196,1114,0,0
-21,-90,0,0,0,0,0,0,0,0,0,-1,1203,1114,0,0
-14,-90,0,0,0,0,0,0,0,0,0,-1,1210,1114,0,0
-7,-90,0,0,0,0,0,0,0,0,0,-1,1217,1114,0,0
0,-90,0,0,0,0,0,0,0,0,0,-1,1224,1114,0,0
7,-90,0,0,0,0,0,0,0,0,0,-1,1231,1114,0,0
14,-90,0,0,0,0,0,0,0,0,0,-1,1238,1114,0,0
21,-90,0,0,0,0,0,0,0,0,0,-1,1245,1114,0,0
28,-90,0,0,0,0,0,0,0,0,0,-1,1252,1114,0,0
35,-90,0,0,0,0,0,0,0,0,0,-1,1259,1114,0,0
42,-90,0,0,0,0,0,0,0,0,0,-1,1266,1114,0,0
49,-90,0,0,0,0,0,0,0,0,0,-1,1273,1114,0,0
56,-90,0,0,0,0,0,0,0,0,0,-1,1280,1114,0,0
63,-90,0,0,0,0,0,0,0,0,0,-1,1287,1114,0,0
70,-90,0,0,0,0,0,0,0,0,0,-1,1294,1114,0,0
77,-90,0,0,0,0,0,0,0,0,0,-1,1301,1114,0,0
84,-90,0,0,0,0,0,0,0,0,0,-1,1308,1114,0,0
91,-90,0,0,0,0,0,0,0,0,0,-1,1315,1114,0,0
98,-90,0,0,0,0,0,0,0,0,0,-1,1322,1114,0,0
105,-90,0,0,0,0,0,0,0,0,0,-1,1329,1114,0,0
112,-90,0,0,0,0,0,0,0,0,0,-1,1336,1114,0,0
119,-90,0,0,0,0,0,0,0,0,0,-1,1343,1114,0,0
126,-90,0,0,0,0,0,0,0,0,0,-1,1350,1114,0,0
133,-90,0,0,0,0,0,0,0,0,0,-1,1357,1114,0,0
140,-90,0,0,0,0,0,0,0,0,0,-1,1364,1114,0,0
147,-90,0,0,0,0,0,0,0,0,0,-1,1371,1114,0,0
154,-90,0,0,0,0,0,0,0,0,0,-1,1378,1114,0,0
161,-90,0,0,0,0,0,0,0,0,0,-1,1385,1114,0,0
168,-90,0,0,0,0,0,0,0,0,0,-1,1392,1114,0,0
175,-90,0,0,0,0,0,0,0,0,0,-1,1399,1114,0,0
182,-90,0,0,0,0,0,0,0,0,0,-1,1406,1114,0,0
189,-90,0,0,0,0,0,0,0,0,0,-1,1413,1114,0,0
196,-90,0,0,0,0,0,0,0,0,0,-1,1420,1114,0,0
203,-90,0,0,0,0,0,0,0,0,0,-1,1427,1114,0,0
210,-90,0,0,0,0,0,0,0,0,0,-1,1434,1114,0,0
217,-90,0,0,0,0,0,0,0,0,0,-1,1441,1114,0,0
224,-90,0,0,0,0,0,0,0,0,0,-1,1448,1114,0,0
231,-90,0,0,0,0,0,0,0,0,0,-1,1455,1114,0,0
238,-90,0,0,0,0,0,0,0,0,0,-1,1462,1114,0,0
245,-90,0,0,0,0,0,0,0,0,0,-1,1469,1114,0,0
252,-90,0,0,0,0,0,0,0,0,0,-1,1476,1114,0,0
259,-90,0,0,0,0,0,0,0,0,0,-1,1483,1114,0,0
266,-90,0,0,0,0,0,0,0,0,0,-1,1490,1114,0,0
273,-90,0,0,0,0,0,0,0,0,0,-1,1497,1114,0,0
280,-90,0,0,0,0,0,0,0,0,0,-1,1504,1114,0,0
287,-90,0,0,0,0,0,0,0,0,0,-1,1511,1114,0,0
294,-90,0,0,0,0,0,0,0,0,0,-1,1518,1114,0,0
301,-90,0,0,0,0,0,0,0,0,0,-1,1525,1114,0,0
308,-90,0,0,0,0,0,0,0,0,0,-1,1532,1114,0,0
315,-90,0,0,0,0,0,0,0,0,0,-1,1539,1114,0,0
322,-90,0,0,0,0,0,0,0,0,0,-1,1546,1114,0,0
329,-90,0,0,0,0,0,0,0,0,0,-1,1553,1114,0,0
336,-90,0,0,0,0,0,0,0,0,0,-1,1560,1114,0,0
343,-90,0,0,0,0,0,0,0,0,0,-1,1567,1114,0,0
350,-90,0,0,0,0,0,0,0,0,0,-1,1574,1114,0,0
357,-90,0,0,0,0,0,0,0,0,0,-1,1581,1114,0,0
364,-90,0,0,0,0,0,0,0,0,0,-1,1588,1114,0,0
371,-90,0,0,0,0,0,0,0,0,0,-1,1595,1114,0,0
378,-90,0,0,0,0,0,0,0,0,0,-1,1602,1114,0,0
385,-90,0,0,0,0,0,0,0,0,0,-1,1609,1114,0,0
392,-90,0,0,0,0,0,0,0,0,0,-1,1616,1114,0,0
399,-90,0,0,0,0,0,0,0,0,0,-1,1623,1114,0,0
406,-90,0,0,0,0,0,0,0,0,0,-1,1630,1114,0,0
413,-90,0,0,0,0,0,0,0,0,0,-1,1637,1114,0,0
420,-90,0,0,0,0,0,0,0,0,0,-1,1644,1114,0,0
427,-90,0,0,0,0,0,0,0,0,0,-1,1651,1114,0,0
434,-90,0,0,0,0,0,0,0,0,0,-1,1658,1114,0,0
441,-90,0,0,0,0,0,0,0,0,0,-1,1665,1114,0,0
448,-90,0,0,0,0,0,0,0,0,0,-1,1672,1114,0,0
455,-90,0,0,0,0,0,0,0,0,0,-1,1679,1114,0,0
462,-90,0,0,0,0,0,0,0,0,0,-1,1686,1114,0,0
469,-90,0,0,0,0,0,0,0,0,0,-1,1693,1114,0,0
476,-90,0,0,0,0,0,0,0,0,0,-1,1700,1114,0,0
483,-90,0,0,0,0,0,0,0,0,0,-1,1707,1114,0,0
490,-90,0,0,0,0,0,0,0,0,0,-1,1714,1114,0,0
497,-90,0,0,0,0,0,0,0,0,0,-1,1721,1114,0,0
504,-90,0,0,0,0,0,0,0,0,0,-1,1728,1114,0,0
511,-90,0,0,0,0,0,0,0,0,0,-1,1735,1114,0,0
518,-90,0,0,0,0,0,0,0,0,0,-1,1742,1114,0,0
525,-90,0,0,0,0,0,0,0,0,0,-1,1749,1114,0,0
532,-90,0,0,0,0,0,0,0,0,0,-1,1756,1114,0,0
539,-90,0,0,0,0,0,0,0,0,0,-1,1763,1114,0,0
546,-90,0,0,0,0,0,0,0,0,0,-1,1770,1114,0,0
553,-90,0,0,0,0,0,0,0,0,0,-1,1777,1114,0,0
560,-90,0,0,0,0,0,0,0,0,0,-1,1784,1114,0,0
567,-90,0,0,0,0,0,0,0,0,0,-1,1791,1114,0,0
574,-90,0,0,0,0,0,0,0,0,0,-1,1798,1114,0,0
581,-90,0,0,0,0,0,0,0,0,0,-1,1805,1114,0,0
588,-90,0,0,0,0,0,0,0,0,0,-1,1812,1114,0,0
595,-90,0,0,0,0,0,0,0,0,0,-1,1819,1114,0,0
602,-90,0,0,0,0,0,0,0,0,0,-1,1826,1114,0,0
609,-90,0,0,0,0,0,0,0,0,0,-1,1833,1114,0,0
616,-90,0,0,0,0,0,0,0,0,0,-1,1840,1114,0,0
623,-90,0,0,0,0,0,0,0,0,0,-1,1847,1114,0,0
630,-90,0,0,0,0,0,0,0,0,0,-1,1854,1114,0,0
637,-90,0,0,0,0,0,0,0,0,0,-1,1861,1114,0,0
644,-90,17.5876,2.36292,0.00962322,-0.00142386,0.00243092,0.0101345,-0.00193512,0.207296,0.00748521,0.0354392,1868,1114,17.5876,-2.36289
651,-90,17.6439,2.46558,0.00708821,-0.00136412,0.00204008,0.00755485,-0.00183076,0.224867,0.00574489,0.040844,1875,1114,17.644,-2.46556
658,-90,17.6908,2.39355,0.00531465,-0.00128149,0.00148514,0.00563361,-0.00160045,0.211553,0.00438763,0.041167,1882,1114,17.6907,-2.39359
665,-90,17.7349,2.44434,0.00364288,-0.00129213,0.0014971,0.00406153,-0.00171079,0.272675,0.00342353,0.0390631,1889,1114,17.7348,-2.44434
672,-90,17.7537,2.59338,0.00165089,-0.00166173,0.00259952,0.00307692,-0.00308777,0.50175,0.00355919,0.0411673,1896,1114,17.7537,-2.59342
679,-90,17.7709,2.69446,-0.000380607,-0.00210108,0.00397413,0.00282532,-0.00530701,0.678813,0.00476752,0.0403719,1903,1114,17.7708,-2.6944
686,-90,17.7205,2.67078,-0.00209558,-0.00250865,0.00527702,0.00297895,-0.00758317,0.765839,0.00628821,0.0362692,1910,1114,17.7204,-2.67076
693,-90,17.6852,2.573,-0.00348269,-0.0028252,0.00639908,0.00325358,-0.00956147,0.811062,0.00769174,0.0338924,1917,1114,17.6852,-2.57297
700,-90,17.6823,2.51208,-0.00455679,-0.00300409,0.00715711,0.00341865,-0.0109795,0.839423,0.00868645,0.0300162,1924,1114,17.6822,-2.51205
707,-90,17.6415,2.43445,-0.00538239,-0.00305765,0.00765928,0.00352696,-0.011967,0.860703,0.00937741,0.024861,1931,1114,17.6414,-2.43445
714,-90,17.6355,2.80518,-0.00578475,-0.00299661,0.00790886,0.00364011,-0.0124215,0.872635,0.00972417,0.0406327,1938,1114,17.6355,-2.80521
721,-90,17.6187,3.38721,0,0,0,0,0,0,0,-1,1945,1114,17.6186,-3.38721
728,-90,17.0514,3.69958,-0.00556956,-0.00237671,0.00720246,0.00340413,-0.0113504,0.89446,0.00892084,0.0169879,1952,1114,17.0514,-3.69962
735,-90,17.0487,3.63098,-0.00499577,-0.00179608,0.00614386,0.00295282,-0.00974467,0.912768,0.00767252,0.0185217,1959,1114,17.0487,-3.63094
742,-90,17.0529,3.58435,-0.00397036,-0.000653767,0.00480097,0.00276724,-0.00739137,0.951687,0.00606423,0.0164668,1966,1114,17.0528,-3.58437
749,-90,17.0723,3.5304,-0.0025603,0.0011308,0.00309029,0.00288468,-0.00431419,1.05458,0.0041835,0.0132853,1973,1114,17.0722,-3.53044
756,-90,17.0734,3.47693,-0.00102935,0.00309732,0.00113875,0.00339069,-0.00132273,1.31865,0.00280724,0.0138319,1980,1114,17.0734,-3.47696
763,-90,17.0433,3.42981,0.000886082,0.00522438,-0.0014298,0.00565321,0.000457245,-1.27941,0.00362602,0.010879,1987,1114,17.0433,-3.42982
770,-90,17.0228,3.39722,0.00298564,0.00806956,-0.00411973,0.0103684,0.000686759,-1.06182,0.00669512,0.0126842,1994,1114,17.0228,-3.39717
777,-90,17.004,3.34973,0.00508813,0.011263,-0.00662028,0.0154804,0.000870739,-1.00358,0.0100426,0.0122575,2001,1114,17.004,-3.34969
784,-90,17,3.29492,0.00721644,0.014868,-0.0092071,0.0210125,0.00107188,-0.982306,0.0136651,0.025118,2008,1114,16.9999,-3.29493
791,-90,17.072,3.06824,0,0,0,0,0,0,0,-1,2015,1114,17.072,-3.06827
798,-90,17.4061,3.04041,0,0,0,0,0,0,0,-1,2022,1114,17.4061,-3.04041
805,-90,17.3816,2.7959,0,0,0,0,0,0,0,-1,2029,1114,17.3816,-2.79595
812,-90,16.7168,2.50659,0,0,0,0,0,0,0,-1,2036,1114,16.7167,-2.50661
-700,-97,0,0,0,0,0,0,0,0,0,-1,524,1121,0,0
-693,-97,-10.017,0.0418701,0,0,0,0,0,0,0,-1,531,1121,-10.0171,-0.0418649
-686,-97,-10.1074,0.151978,0.0201286,0.0240736,-0.0395763,0.0617265,-0.0175243,-0.810298,0.0480693,0.0499834,538,1121,-10.1073,-0.15201
-679,-97,-10.2251,0.260254,0.0143984,0.0212061,-0.0274715,0.0454838,-0.00987934,-0.847037,0.0340961,0.0480811,545,1121,-10.2251,-0.260279
-672,-97,-10.2765,0.374512,0.0102291,0.0178737,-0.0187686,0.0332053,-0.00510253,-0.885852,0.024019,0.0463226,552,1121,-10.2765,-0.374466
-665,-97,-10.4208,0.537354,0.00719239,0.0144964,-0.0125696,0.0239338,-0.00224494,-0.926778,0.0167544,0.045922,559,1121,-10.4209,-0.537368
-658,-97,-10.5903,0.685547,0.00499796,0.0113288,-0.00824156,0.016992,-0.000665152,-0.968753,0.0115561,0.0404324,566,1121,-10.5903,-0.685557
-651,-97,-10.7665,0.817749,0.00344987,0.00852292,-0.00528331,0.0118471,0.00012574,-1.0092,0.00785646,0.0279338,573,1121,-10.7665,-0.817801
-644,-97,-10.7706,0.911865,0.00235879,0.00620025,-0.00333443,0.00812759,0.000431447,-1.0467,0.00528045,0.0105351,580,1121,-10.7705,-0.911826
-637,-97,-10.7712,1.01611,0.000971099,0.00458024,-0.00178458,0.00531362,0.00023772,-1.18088,0.00346589,0.0114843,587,1121,-10.7712,-1.01615
-630,-97,-10.7582,1.10706,-0.000548222,0.00188291,-0.00195767,0.0029717,-0.00163701,-1.06323,0.00269778,0.0092979,594,1121,-10.7583,-1.107
-623,-97,-10.7668,1.19531,-0.00148108,0.000495082,-0.00355204,0.00319391,-0.0041799,-0.921055,0.00426994,0.00982456,601,1121,-10.7668,-1.19532
-616,-97,-10.7816,1.27441,-0.00247115,-0.000926098,-0.00443019,0.00279842,-0.00619567,-0.871719,0.00531478,0.0102099,608,1121,-10.7816,-1.27439
-609,-97,-10.7822,1.35474,-0.00314047,-0.00158037,-0.00564908,0.00334227,-0.00806311,-0.854006,0.00677031,0.0126813,615,1121,-10.7822,-1.35469
-602,-97,-10.7981,1.41077,-0.00365184,-0.00186061,-0.00668041,0.00398395,-0.0094964,-0.852034,0.00799685,0.0117689,622,1121,-10.7981,-1.41073
-595,-97,-10.7659,1.4906,-0.00442025,-0.00210678,-0.00760174,0.00442574,-0.0109528,-0.860902,0.00914146,0.0155139,629,1121,-10.7659,-1.49062
-588,-97,-10.7758,1.53491,-0.00499268,-0.00228587,-0.0081232,0.00459589,-0.0118744,-0.867945,0.00981379,0.0227644,636,1121,-10.7758,-1.53493
-581,-97,-11.1802,1.0437,-0.00498406,-0.00234726,-0.00820362,0.00464323,-0.0119745,-0.865071,0.00990062,0.0358126,643,1121,-11.1802,-1.04374
-574,-97,-11.3816,0.710938,-0.00460561,-0.00223363,-0.00804719,0.0047145,-0.0115537,-0.858561,0.00966518,0.0396478,650,1121,-11.3816,-0.710902
-567,-97,-11.2609,0.592163,-0.00404732,-0.00193929,-0.0074371,0.00451811,-0.0105047,-0.855791,0.00890004,0.0358649,657,1121,-11.2609,-0.592131
-560,-97,-11.1157,0.696167,-0.00315297,-0.00150935,-0.00632231,0.00404434,-0.00870666,-0.850028,0.00752405,0.0372022,664,1121,-11.1157,-0.696226
-553,-97,-10.9114,0.916016,-0.00193465,-0.00100868,-0.00473747,0.00328837,-0.0062317,-0.834108,0.00558329,0.0418129,671,1121,-10.9115,-0.916012
-546,-97,-11.0413,0.89624,-0.000397382,-0.000521721,-0.0027035,0.00224467,-0.00316377,-0.773902,0.00313755,0.0445237,678,1121,-11.0412,-0.896298
-539,-97,-11.2929,0.551147,0.00151448,-0.000171131,-0.000329995,0.00157678,-0.000233433,-0.186598,0.00113701,0.0427463,685,1121,-11.2929,-0.551135
-532,-97,-11.2598,0.467163,0.00294428,-0.000405544,0.00114731,0.00329956,-0.000760819,0.300293,0.00249233,0.0400065,692,1121,-11.2597,-0.467206
-525,-97,0,0,0,0,0,0,0,0,0,-1,699,1121,0,0
-518,-97,0,0,0,0,0,0,0,0,0,-1,706,1121,0,0
-511,-97,0,0,0,0,0,0,0,0,0,-1,713,1121,0,0
-504,-97,0,0,0,0,0,0,0,0,0,-1,720,1121,0,0
-497,-97,0,0,0,0,0,0,0,0,0,-1,727,1121,0,0
-490,-97,0,0,0,0,0,0,0,0,0,-1,734,1121,0,0
-483,-97,0,0,0,0,0,0,0,0,0,-1,741,1121,0,0
-476,-97,0,0,0,0,0,0,0,0,0,-1,748,1121,0,0
-469,-97,0,0,0,0,0,0,0,0,0,-1,755,1121,0,0
-462,-97,0,0,0,0,0,0,0,0,0,-1,762,1121,0,0
-455,-97,0,0,0,0,0,0,0,0,0,-1,769,1121,0,0
-448,-97,0,0,0,0,0,0,0,0,0,-1,776,1121,0,0
-441,-97,0,0,0,0,0,0,0,0,0,-1,783,1121,0,0
-434,-97,0,0,0,0,0,0,0,0,0,-1,790,1121,0,0
-427,-97,0,0,0,0,0,0,0,0,0,-1,797,1121,0,0
-420,-97,0,0,0,0,0,0,0,0,0,-1,804,1121,0,0
-413,-97,0,0,0,0,0,0,0,0,0,-1,811,1121,0,0
-406,-97,0,0,0,0,0,0,0,0,0,-1,818,1121,0,0
-399,-97,0,0,0,0,0,0,0,0,0,-1,825,1121,0,0
-392,-97,0,0,0,0,0,0,0,0,0,-1,832,1121,0,0
-385,-97,0,0,0,0,0,0,0,0,0,-1,839,1121,0,0
-378,-97,0,0,0,0,0,0,0,0,0,-1,846,1121,0,0
-371,-97,0,0,0,0,0,0,0,0,0,-1,853,1121,0,0
-364,-97,0,0,0,0,0,0,0,0,0,-1,860,1121,0,0
-357,-97,0,0,0,0,0,0,0,0,0,-1,867,1121,0,0
-350,-97,0,0,0,0,0,0,0,0,0,-1,874,1121,0,0
-343,-97,0,0,0,0,0,0,0,0,0,-1,881,1121,0,0
-336,-97,0,0,0,0,0,0,0,0,0,-1,888,1121,0,0
-329,-97,0,0,0,0,0,0,0,0,0,-1,895,1121,0,0
-322,-97,0,0,0,0,0,0,0,0,0,-1,902,1121,0,0
-315,-97,0,0,0,0,0,0,0,0,0,-1,909,1121,0,0
-308,-97,0,0,0,0,0,0,0,0,0,-1,916,1121,0,0
-301,-97,0,0,0,0,0,0,0,0,0,-1,923,1121,0,0
-294,-97,0,0,0,0,0,0,0,0,0,-1,930,1121,0,0
-287,-97,0,0,0,0,0,0,0,0,0,-1,937,1121,0,0
-280,-97,0,0,0,0,0,0,0,0,0,-1,944,1121,0,0
-273,-97,0,0,0,0,0,0,0,0,0,-1,951,1121,0,0
-266,-97,0,0,0,0,0,0,0,0,0,-1,958,1121,0,0
-259,-97,0,0,0,0,0,0,0,0,0,-1,965,1121,0,0
-252,-97,0,0,0,0,0,0,0,0,0,-1,972,1121,0,0
-245,-97,0,0,0,0,0,0,0,0,0,-1,979,1121,0,0
-238,-97,0,0,0,0,0,0,0,0,0,-1,986,1121,0,0
-231,-97,0,0,0,0,0,0,0,0,0,-1,993,1121,0,0
-224,-97,0,0,0,0,0,0,0,0,0,-1,1000,1121,0,0
-217,-97,0,0,0,0,0,0,0,0,0,-1,1007,1121,0,0
-210,-97,0,0,0,0,0,0,0,0,0,-1,1014,1121,0,0
-203,-97,0,0,0,0,0,0,0,0,0,-1,1021,1121,0,0
-196,-97,0,0,0,0,0,0,0,0,0,-1,1028,1121,0,0
-189,-97,0,0,0,0,0,0,0,0,0,-1,1035,1121,0,0
-182,-97,0,0,0,0,0,0,0,0,0,-1,1042,1121,0,0
-175,-97,0,0,0,0,0,0,0,0,0,-1,1049,1121,0,0
-168,-97,0,0,0,0,0,0,0,0,0,-1,1056,1121,0,0
-161,-97,0,0,0,0,0,0,0,0,0,-1,1063,1121,0,0
-154,-97,0,0,0,0,0,0,0,0,0,-1,1070,1121,0,0
-147,-97,0,0,0,0,0,0,0,0,0,-1,1077,1121,0,0
-140,-97,0,0,0,0,0,0,0,0,0,-1,1084,1121,0,0
-133,-97,0,0,0,0,0,0,0,0,0,-1,1091,1121,0,0
-126,-97,0,0,0,0,0,0,0,0,0,-1,1098,1121,0,0
-119,-97,0,0,0,0,0,0,0,0,0,-1,1105,1121,0,0
-112,-97,0,0,0,0,0,0,0,0,0,-1,1112,1121,0,0
-105,-97,0,0,0,0,0,0,0,0,0,-1,1119,1121,0,0
-98,-97,0,0,0,0,0,0,0,0,0,-1,1126,1121,0,0
-91,-97,0,0,0,0,0,0,0,0,0,-1,1133,1121,0,0
-84,-97,0,0,0,0,0,0,0,0,0,-1,1140,1121,0,0
-77,-97,0,0,0,0,0,0,0,0,0,-1,1147,1121,0,0
-70,-97,0,0,0,0,0,0,0,0,0,-1,1154,1121,0,0
-63,-97,0,0,0,0,0,0,0,0,0,-1,1161,1121,0,0
-56,-97,0,0,0,0,0,0,0,0,0,-1,1168,1121,0,0
-49,-97,0,0,0,0,0,0,0,0,0,-1,1175,1121,0,0
-42,-97,0,0,0,0,0,0,0,0,0,-1,1182,1121,0,0
-35,-97,0,0,0,0,0,0,0,0,0,-1,1189,1121,0,0
-28,-97,0,0,0,0,0,0,0,0,0,-1,1196,1121,0,0
-21,-97,0,0,0,0,0,0,0,0,0,-1,1203,1121,0,0
-14,-97,0,0,0,0,0,0,0,0,0,-1,1210,1121,0,0
-7,-97,0,0,0,0,0,0,0,0,0,-1,1217,1121,0,0
0,-97,0,0,0,0,0,0,0,0,0,-1,1224,1121,0,0
7,-97,0,0,0,0,0,0,0,0,0,-1,1231,1121,0,0
14,-97,0,0,0,0,0,0,0,0,0,-1,1238,1121,0,0
21,-97,0,0,0,0,0,0,0,0,0,-1,1245,1121,0,0
28,-97,0,0,0,0,0,0,0,0,0,-1,1252,1121,0,0
35,-97,0,0,0,0,0,0,0,0,0,-1,1259,1121,0,0
42,-97,0,0,0,0,0,0,0,0,0,-1,1266,1121,0,0
49,-97,0,0,0,0,0,0,0,0,0,-1,1273,1121,0,0
56,-97,0,0,0,0,0,0,0,0,0,-1,1280,1121,0,0
63,-97,0,0,0,0,0,0,0,0,0,-1,1287,1121,0,0
70,-97,0,0,0,0,0,0,0,0,0,-1,1294,1121,0,0
77,-97,0,0,0,0,0,0,0,0,0,-1,1301,1121,0,0
84,-97,0,0,0,0,0,0,0,0,0,-1,1308,1121,0,0
91,-97,0,0,0,0,0,0,0,0,0,-1,1315,1121,0,0
98,-97,0,0,0,0,0,0,0,0,0,-1,1322,1121,0,0
105,-97,0,0,0,0,0,0,0,0,0,-1,1329,1121,0,0
112,-97,0,0,0,0,0,0,0,0,0,-1,1336,1121,0,0
119,-97,0,0,0,0,0,0,0,0,0,-1,1343,1121,0,0
126,-97,0,0,0,0,0,0,0,0,0,-1,1350,1121,0,0
133,-97,0,0,0,0,0,0,0,0,0,-1,1357,1121,0,0
140,-97,0,0,0,0,0,0,0,0,0,-1,1364,1121,0,0
147,-97,0,0,0,0,0,0,0,0,0,-1,1371,1121,0,0
154,-97,0,0,0,0,0,0,0,0,0,-1,1378,1121,0,0
161,-97,0,0,0,0,0,0,0,0,0,-1,1385,1121,0,0
168,-97,0,0,0,0,0,0,0,0,0,-1,1392,1121,0,0
175,-97,0,0,0,0,0,0,0,0,0,-1,1399,1121,0,0
182,-97,0,0,0,0,0,0,0,0,0,-1,1406,1121,0,0
189,-97,0,0,0,0,0,0,0,0,0,-1,1413,1121,0,0
196,-97,0,0,0,0,0,0,0,0,0,-1,1420,1121,0,0
203,-97,0,0,0,0,0,0,0,0,0,-1,1427,1121,0,0
210,-97,0,0,0,0,0,0,0,0,0,-1,1434,1121,0,0
217,-97,0,0,0,0,0,0,0,0,0,-1,1441,1121,0,0
224,-97,0,0,0,0,0,0,0,0,0,-1,1448,1121,0,0
231,-97,0,0,0,0,0,0,0,0,0,-1,1455,1121,0,0
238,-97,0,0,0,0,0,0,0,0,0,-1,1462,1121,0,0
245,-97,0,0,0,0,0,0,0,0,0,-1,1469,1121,0,0
252,-97,0,0,0,0,0,0,0,0,0,-1,1476,1121,0,0
259,-97,0,0,0,0,0,0,0,0,0,-1,1483,1121,0,0
266,-97,0,0,0,0,0,0,0,0,0,-1,1490,1121,0,0
273,-97,0,0,0,0,0,0,0,0,0,-1,1497,1121,0,0
280,-97,0,0,0,0,0,0,0,0,0,-1,1504,1121,0,0
287,-97,0,0,0,0,0,0,0,0,0,-1,1511,1121,0,0
294,-97,0,0,0,0,0,0,0,0,0,-1,1518,1121,0,0
301,-97,0,0,0,0,0,0,0,0,0,-1,1525,1121,0,0
308,-97,0,0,0,0,0,0,0,0,0,-1,1532,1121,0,0
315,-97,0,0,0,0,0,0,0,0,0,-1,1539,1121,0,0
322,-97,0,0,0,0,0,0,0,0,0,-1,1546,1121,0,0
329,-97,0,0,0,0,0,0,0,0,0,-1,1553,1121,0,0
336,-97,0,0,0,0,0,0,0,0,0,-1,1560,1121,0,0
343,-97,0,0,0,0,0,0,0,0,0,-1,1567,1121,0,0
350,-97,0,0,0,0,0,0,0,0,0,-1,1574,1121,0,0
357,-97,0,0,0,0,0,0,0,0,0,-1,1581,1121,0,0
364,-97,0,0,0,0,0,0,0,0,0,-1,1588,1121,0,0
371,-97,0,0,0,0,0,0,0,0,0,-1,1595,1121,0,0
378,-97,0,0,0,0,0,0,0,0,0,-1,1602,1121,0,0
385,-97,0,0,0,0,0,0,0,0,0,-1,1609,1121,0,0
392,-97,0,0,0,0,0,0,0,0,0,-1,1616,1121,0,0
399,-97,0,0,0,0,0,0,0,0,0,-1,1623,1121,0,0
406,-97,0,0,0,0,0,0,0,0,0,-1,1630,1121,0,0
413,-97,0,0,0,0,0,0,0,0,0,-1,1637,1121,0,0
420,-97,0,0,0,0,0,0,0,0,0,-1,1644,1121,0,0
427,-97,0,0,0,0,0,0,0,0,0,-1,1651,1121,0,0
434,-97,0,0,0,0,0,0,0,0,0,-1,1658,1121,0,0
441,-97,0,0,0,0,0,0,0,0,0,-1,1665,1121,0,0
448,-97,0,0,0,0,0,0,0,0,0,-1,1672,1121,0,0
455,-97,0,0,0,0,0,0,0,0,0,-1,1679,1121,0,0
462,-97,0,0,0,0,0,0,0,0,0,-1,1686,1121,0,0
469,-97,0,0,0,0,0,0,0,0,0,-1,1693,1121,0,0
476,-97,0,0,0,0,0,0,0,0,0,-1,1700,1121,0,0
483,-97,0,0,0,0,0,0,0,0,0,-1,1707,1121,0,0
490,-97,0,0,0,0,0,0,0,0,0,-1,1714,1121,0,0
497,-97,0,0,0,0,0,0,0,0,0,-1,1721,1121,0,0
504,-97,0,0,0,0,0,0,0,0,0,-1,1728,1121,0,0
511,-97,0,0,0,0,0,0,0,0,0,-1,1735,1121,0,0
518,-97,0,0,0,0,0,0,0,0,0,-1,1742,1121,0,0
525,-97,0,0,0,0,0,0,0,0,0,-1,1749,1121,0,0
532,-97,0,0,0,0,0,0,0,0,0,-1,1756,1121,0,0
539,-97,0,0,0,0,0,0,0,0,0,-1,1763,1121,0,0
546,-97,0,0,0,0,0,0,0,0,0,-1,1770,1121,0,0
553,-97,0,0,0,0,0,0,0,0,0,-1,1777,1121,0,0
560,-97,0,0,0,0,0,0,0,0,0,-1,1784,1121,0,0
567,-97,0,0,0,0,0,0,0,0,0,-1,1791,1121,0,0
574,-97,0,0,0,0,0,0,0,0,0,-1,1798,1121,0,0
581,-97,0,0,0,0,0,0,0,0,0,-1,1805,1121,0,0
588,-97,0,0,0,0,0,0,0,0,0,-1,1812,1121,0,0
595,-97,0,0,0,0,0,0,0,0,0,-1,1819,1121,0,0
602,-97,0,0,0,0,0,0,0,0,0,-1,1826,1121,0,0
609,-97,0,0,0,0,0,0,0,0,0,-1,1833,1121,0,0
616,-97,0,0,0,0,0,0,0,0,0,-1,1840,1121,0,0
623,-97,0,0,0,0,0,0,0,0,0,-1,1847,1121,0,0
630,-97,0,0,0,0,0,0,0,0,0,-1,1854,1121,0,0
637,-97,0,0,0,0,0,0,0,0,0,-1,1861,1121,0,0
644,-97,17.571,2.5188,0.00846181,-0.00151719,0.00222658,0.00893607,-0.00199146,0.209867,0.00672029,0.0362751,1868,1121,17.5711,-2.51886
651,-97,17.6353,2.52954,0.00626106,-0.00137381,0.00191687,0.0067153,-0.00182805,0.232677,0.00519457,0.037378,1875,1121,17.6353,-2.52956
658,-97,17.6868,2.46021,0.00479689,-0.00122179,0.00140101,0.00510703,-0.00153193,0.217856,0.00401399,0.0389663,1882,1121,17.6868,-2.46026
665,-97,17.7251,2.4884,0.00322024,-0.00123819,0.00153841,0.00369955,-0.0017175,0.302029,0.00319656,0.0398696,1889,1121,17.7251,-2.4884
672,-97,17.7504,2.58679,0.00122163,-0.00161792,0.0026952,0.00284814,-0.00324443,0.542978,0.00352003,0.04018,1896,1121,17.7504,-2.58684
679,-97,17.5898,2.64771,-0.000778267,-0.00205725,0.0040322,0.00266484,-0.00550035,0.706755,0.00480799,0.0420493,1903,1121,17.5898,-2.64773
686,-97,17.5568,2.67761,-0.00247521,-0.00247162,0.00528556,0.00281214,-0.00775898,0.785568,0.00632207,0.0398562,1910,1121,17.5568,-2.67763
693,-97,17.6416,2.66711,-0.0038466,-0.00278483,0.00635227,0.00305869,-0.00969013,0.827088,0.00768529,0.0352046,1917,1121,17.6417,-2.66715
700,-97,17.6477,2.50085,-0.00489923,-0.00297311,0.00705714,0.00318638,-0.0110587,0.853212,0.0086329,0.0278779,1924,1121,17.6477,-2.50089
707,-97,17.6226,2.45959,-0.00569535,-0.00305257,0.00753006,0.00327116,-0.0120191,0.872255,0.00929696,0.0230476,1931,1121,17.6226,-2.45958
714,-97,17.558,3.0575,-0.00609104,-0.00300123,0.00775628,0.0033625,-0.0124548,0.883702,0.0096219,0.0427299,1938,1121,17.558,-3.05752
721,-97,17.1415,3.6925,-0.00610397,-0.00279133,0.0076153,0.00334569,-0.012241,0.89248,0.00947488,0.023725,1945,1121,17.1415,-3.69252
728,-97,17.0208,3.71741,-0.0058266,-0.00238351,0.00700991,0.00311315,-0.0113233,0.905809,0.00877266,0.0177995,1952,1121,17.0208,-3.71745
735,-97,17.0115,3.65125,-0.00519498,-0.00182876,0.00592101,0.00264371,-0.00966746,0.923875,0.00748352,0.017607,1959,1121,17.0115,-3.65125
742,-97,16.9928,3.58044,-0.00416643,-0.000741497,0.00453065,0.00238952,-0.00729745,0.966086,0.00582714,0.0145488,1966,1121,16.9928,-3.58041
749,-97,16.9803,3.52051,-0.00273924,0.00108958,0.00278539,0.00255501,-0.00420467,1.08648,0.00394126,0.0171101,1973,1121,16.9804,-3.52047
756,-97,16.99,3.43945,-0.00120244,0.00310903,0.00081272,0.00325714,-0.00135055,1.39053,0.00273511,0.014688,1980,1121,16.99,-3.43943
763,-97,16.9802,3.38928,0.000801974,0.00536033,-0.00182154,0.00599879,0.000163508,-1.23367,0.00394582,0.0113104,1987,1121,16.9803,-3.38926
770,-97,16.9707,3.35449,0.00292481,0.00831159,-0.00455232,0.0109076,0.000328777,-1.05253,0.00716467,0.00893266,1994,1121,16.9707,-3.35453
777,-97,16.9825,3.31567,0.00501409,0.0116612,-0.00708423,0.0161628,0.000512535,-1.00473,0.0106085,0.0117585,2001,1121,16.9825,-3.31563
784,-97,17.0001,3.14526,0.00718545,0.0155382,-0.0097122,0.0219339,0.000789743,-0.988453,0.0143666,0.0312199,2008,1121,17.0001,-3.14528
791,-97,17.0717,2.69006,0.00977113,0.0199604,-0.0128952,0.0287309,0.00100061,-0.973527,0.0188293,0.0420357,2015,1121,17.0716,-2.69006
798,-97,17.1294,2.50403,0.0128767,0.0247783,-0.0166784,0.0365357,0.00111929,-0.956758,0.0239927,0.0456804,2022,1121,17.1294,-2.50409
805,-97,17.2369,2.40637,0.0164775,0.0296543,-0.0210445,0.0451177,0.00101415,-0.9371,0.0297462,0.0461807,2029,1121,17.237,-2.40634
812,-97,17.407,2.19397,0.0204201,0.0340621,-0.0259547,0.0540772,0.00040503,-0.913894,0.0359172,0.0462512,2036,1121,17.4071,-2.194
-700,-104,0,0,0,0,0,0,0,0,0,-1,524,1128,0,0
-693,-104,-7.26605,-0.778931,0,0,0,0,0,0,0,-1,531,1128,-7.26603,0.778963
-686,-104,-10.0769,-0.072876,0,0,0,0,0,0,0,-1,538,1128,-10.0769,0.0728307
-679,-104,-10.1834,-0.0494385,0.0231547,0.025736,-0.035753,0.0602216,-0.0113309,-0.80344,0.0444092,0.0458448,545,1128,-10.1834,0.0494134
-672,-104,-10.2916,0.221191,0.0166381,0.021159,-0.0252745,0.0442739,-0.00647678,-0.829998,0.0318948,0.0477434,552,1128,-10.2915,-0.221198
-665,-104,-10.5308,0.502319,0.0117904,0.0167997,-0.0175654,0.0320381,-0.00344798,-0.856216,0.0225959,0.0429253,559,1128,-10.5307,-0.502376
-658,-104,-10.6385,0.626099,0.00823014,0.0128854,-0.0119893,0.0227709,-0.00165534,-0.881278,0.0157614,0.0400542,566,1128,-10.6385,-0.626041
-651,-104,-10.7,0.828979,0.0056649,0.00953494,-0.00802668,0.0158565,-0.000656703,-0.903678,0.0107966,0.0349336,573,1128,-10.6999,-0.828947
-644,-104,-10.6789,0.904175,0.00386164,0.00678032,-0.00534424,0.0108609,-0.000218928,-0.918682,0.00731466,0.0144581,580,1128,-10.6789,-0.904116
-637,-104,-10.6776,0.990601,0.00176161,0.00498479,-0.00305015,0.00682293,-7.6538e-05,-1.02844,0.00457435,0.0104389,587,1128,-10.6775,-0.990596
-630,-104,-10.6725,1.07544,-0.000311721,0.00193464,-0.00245699,0.003513,-0.00189008,-0.999785,0.00316603,0.0121566,594,1128,-10.6725,-1.0754
-623,-104,-10.6829,1.18591,-0.00143833,0.000483441,-0.00389664,0.00353592,-0.00449081,-0.906283,0.00464515,0.0138256,601,1128,-10.6829,-1.18588
-616,-104,-10.7198,1.27856,-0.00259811,-0.000949778,-0.00465159,0.00295009,-0.00649798,-0.873078,0.00558157,0.0143907,608,1128,-10.7198,-1.27857
-609,-104,-10.7332,1.29907,-0.00339451,-0.00162083,-0.00575873,0.00331894,-0.00833429,-0.861797,0.00693259,0.017864,615,1128,-10.7331,-1.29907
-602,-104,-10.7012,1.4032,-0.0040233,-0.00191127,-0.00674299,0.0038579,-0.00979247,-0.863072,0.00812552,0.0157805,622,1128,-10.7012,-1.40324
-595,-104,-10.669,1.53088,-0.00492442,-0.00214148,-0.00765035,0.00424291,-0.0113088,-0.875357,0.00928257,0.0146667,629,1128,-10.669,-1.53094
-588,-104,-10.7032,1.53247,-0.00557453,-0.00236228,-0.00813578,0.0043244,-0.0122612,-0.882852,0.00993445,0.0250988,636,1128,-10.7032,-1.53241
-581,-104,-10.9759,0.993652,-0.00556296,-0.00248087,-0.00818489,0.00430678,-0.0123506,-0.878448,0.00998393,0.0387512,643,1128,-10.9759,-0.993607
-574,-104,-11.3044,0.483765,0,0,0,0,0,0,0,-1,650,1128,-11.3044,-0.483793
-567,-104,-11.1653,0.727173,-0.00448277,-0.00220501,-0.00736952,0.00411311,-0.0108009,-0.862061,0.0088945,0.0361195,657,1128,-11.1653,-0.727115
-560,-104,-11.0366,0.621582,-0.00346702,-0.00186117,-0.006204,0.00359165,-0.00891984,-0.849751,0.00743865,0.039373,664,1128,-11.0365,-0.621599
-553,-104,-11.0164,0.532837,-0.00204974,-0.00145755,-0.00453514,0.00279115,-0.00629845,-0.817996,0.00537653,0.0487514,671,1128,-11.0164,-0.532836
-546,-104,-10.9732,0.581543,-0.000229008,-0.00107803,-0.00238238,0.00176639,-0.00307342,-0.69723,0.00282803,0.0491233,678,1128,-10.9732,-0.581502
-539,-104,-11.1252,0.352173,0.00208111,-0.00083486,0.000181646,0.00209238,-0.000846132,0.0619743,0.00174667,0.0431181,685,1128,-11.1252,-0.352146
-532,-104,-11.251,0.566162,0.00417608,-0.00111153,0.00208404,0.00489872,-0.00183417,0.333775,0.00401922,0.0422487,692,1128,-11.2511,-0.566156
-525,-104,-11.3286,0.624756,0.00387207,-0.00288816,0.000837083,0.00397418,-0.00299027,0.121382,0.00403428,0.0384579,699,1128,-11.3286,-0.624757
-518,-104,0,0,0,0,0,0,0,0,0,-1,706,1128,0,0
-511,-104,0,0,0,0,0,0,0,0,0,-1,713,1128,0,0
-504,-104,0,0,0,0,0,0,0,0,0,-1,720,1128,0,0
-497,-104,0,0,0,0,0,0,0,0,0,-1,727,1128,0,0
-490,-104,0,0,0,0,0,0,0,0,0,-1,734,1128,0,0
-483,-104,0,0,0,0,0,0,0,0,0,-1,741,1128,0,0
-476,-104,0,0,0,0,0,0,0,0,0,-1,748,1128,0,0
-469,-104,0,0,0,0,0,0,0,0,0,-1,755,1128,0,0
-462,-104,0,0,0,0,0,0,0,0,0,-1,762,1128,0,0
-455,-104,0,0,0,0,0,0,0,0,0,-1,769,1128,0,0
-448,-104,0,0,0,0,0,0,0,0,0,-1,776,1128,0,0
-441,-104,0,0,0,0,0,0,0,0,0,-1,783,1128,0,0
-434,-104,0,0,0,0,0,0,0,0,0,-1,790,1128,0,0
-427,-104,0,0,0,0,0,0,0,0,0,-1,797,1128,0,0
-420,-104,0,0,0,0,0,0,0,0,0,-1,804,1128,0,0
-413,-104,0,0,0,0,0,0,0,0,0,-1,811,1128,0,0
-406,-104,0,0,0,0,0,0,0,0,0,-1,818,1128,0,0
-399,-104,0,0,0,0,0,0,0,0,0,-1,825,1128,0,0
-392,-104,0,0,0,0,0,0,0,0,0,-1,832,1128,0,0
-385,-104,0,0,0,0,0,0,0,0,0,-1,839,1128,0,0
-378,-104,0,0,0,0,0,0,0,0,0,-1,846,1128,0,0
-371,-104,0,0,0,0,0,0,0,0,0,-1,853,1128,0,0
-364,-104,0,0,0,0,0,0,0,0,0,-1,860,1128,0,0
-357,-104,0,0,0,0,0,0,0,0,0,-1,867,1128,0,0
-350,-104,0,0,0,0,0,0,0,0,0,-1,874,1128,0,0
-343,-104,0,0,0,0,0,0,0,0,0,-1,881,1128,0,0
-336,-104,0,0,0,0,0,0,0,0,0,-1,888,1128,0,0
-329,-104,0,0,0,0,0,0,0,0,0,-1,895,1128,0,0
-322,-104,0,0,0,0,0,0,0,0,0,-1,902,1128,0,0
-315,-104,0,0,0,0,0,0,0,0,0,-1,909,1128,0,0
-308,-104,0,0,0,0,0,0,0,0,0,-1,916,1128,0,0
-301,-104,0,0,0,0,0,0,0,0,0,-1,923,1128,0,0
-294,-104,0,0,0,0,0,0,0,0,0,-1,930,1128,0,0
-287,-104,0,0,0,0,0,0,0,0,0,-1,937,1128,0,0
-280,-104,0,0,0,0,0,0,0,0,0,-1,944,1128,0,0
-273,-104,0,0,0,0,0,0,0,0,0,-1,951,1128,0,0
-266,-104,0,0,0,0,0,0,0,0,0,-1,958,1128,0,0
-259,-104,0,0,0,0,0,0,0,0,0,-1,965,1128,0,0
-252,-104,0,0,0,0,0,0,0,0,0,-1,972,1128,0,0
-245,-104,0,0,0,0,0,0,0,0,0,-1,979,1128,0,0
-238,-104,0,0,0,0,0,0,0,0,0,-1,986,1128,0,0
-231,-104,0,0,0,0,0,0,0,0,0,-1,993,1128,0,0
-224,-104,0,0,0,0,0,0,0,0,0,-1,1000,1128,0,0
-217,-104,0,0,0,0,0,0,0,0,0,-1,1007,1128,0,0
-210,-104,0,0,0,0,0,0,0,0,0,-1,1014,1128,0,0
-203,-104,0,0,0,0,0,0,0,0,0,-1,1021,1128,0,0
-196,-104,0,0,0,0,0,0,0,0,0,-1,1028,1128,0,0
-189,-104,0,0,0,0,0,0,0,0,0,-1,1035,1128,0,0
-182,-104,0,0,0,0,0,0,0,0,0,-1,1042,1128,0,0
-175,-104,0,0,0,0,0,0,0,0,0,-1,1049,1128,0,0
-168,-104,0,0,0,0,0,0,0,0,0,-1,1056,1128,0,0
-161,-104,0,0,0,0,0,0,0,0,0,-1,1063,1128,0,0
-154,-104,0,0,0,0,0,0,0,0,0,-1,1070,1128,0,0
-147,-104,0,0,0,0,0,0,0,0,0,-1,1077,1128,0,0
-140,-104,0,0,0,0,0,0,0,0,0,-1,1084,1128,0,0
-133,-104,0,0,0,0,0,0,0,0,0,-1,1091,1128,0,0
-126,-104,0,0,0,0,0,0,0,0,0,-1,1098,1128,0,0
-119,-104,0,0,0,0,0,0,0,0,0,-1,1105,1128,0,0
-112,-104,0,0,0,0,0,0,0,0,0,-1,1112,1128,0,0
-105,-104,0,0,0,0,0,0,0,0,0,-1,1119,1128,0,0
-98,-104,0,0,0,0,0,0,0,0,0,-1,1126,1128,0,0
-91,-104,0,0,0,0,0,0,0,0,0,-1,1133,1128,0,0
-84,-104,0,0,0,0,0,0,0,0,0,-1,1140,1128,0,0
-77,-104,0,0,0,0,0,0,0,0,0,-1,1147,1128,0,0
-70,-104,0,0,0,0,0,0,0,0,0,-1,1154,1128,0,0
-63,-104,0,0,0,0,0,0,0,0,0,-1,1161,1128,0,0
-56,-104,0,0,0,0,0,0,0,0,0,-1,1168,1128,0,0
-49,-104,0,0,0,0,0,0,0,0,0,-1,1175,1128,0,0
-42,-104,0,0,0,0,0,0,0,0,0,-1,1182,1128,0,0
-35,-104,0,0,0,0,0,0,0,0,0,-1,1189,1128,0,0
-28,-104,0,0,0,0,0,0,0,0,0,-1,1196,1128,0,0
-21,-104,0,0,0,0,0,0,0,0,0,-1,1203,1128,0,0
-14,-104,0,0,0,0,0,0,0,0,0,-1,1210,1128,0,0
-7,-104,0,0,0,0,0,0,0,0,0,-1,1217,1128,0,0
0,-104,0,0,0,0,0,0,0,0,0,-1,1224,1128,0,0
7,-104,0,0,0,0,0,0,0,0,0,-1,1231,1128,0,0
14,-104,0,0,0,0,0,0,0,0,0,-1,1238,1128,0,0
21,-104,0,0,0,0,0,0,0,0,0,-1,1245,1128,0,0
28,-104,0,0,0,0,0,0,0,0,0,-1,1252,1128,0,0
35,-104,0,0,0,0,0,0,0,0,0,-1,1259,1128,0,0
42,-104,0,0,0,0,0,0,0,0,0,-1,1266,1128,0,0
49,-104,0,0,0,0,0,0,0,0,0,-1,1273,1128,0,0
56,-104,0,0,0,0,0,0,0,0,0,-1,1280,1128,0,0
63,-104,0,0,0,0,0,0,0,0,0,-1,1287,1128,0,0
70,-104,0,0,0,0,0,0,0,0,0,-1,1294,1128,0,0
77,-104,0,0,0,0,0,0,0,0,0,-1,1301,1128,0,0
84,-104,0,0,0,0,0,0,0,0,0,-1,1308,1128,0,0
91,-104,0,0,0,0,0,0,0,0,0,-1,1315,1128,0,0
98,-104,0,0,0,0,0,0,0,0,0,-1,1322,1128,0,0
105,-104,0,0,0,0,0,0,0,0,0,-1,1329,1128,0,0
112,-104,0,0,0,0,0,0,0,0,0,-1,1336,1128,0,0
119,-104,0,0,0,0,0,0,0,0,0,-1,1343,1128,0,0
126,-104,0,0,0,0,0,0,0,0,0,-1,1350,1128,0,0
133,-104,0,0,0,0,0,0,0,0,0,-1,1357,1128,0,0
140,-104,0,0,0,0,0,0,0,0,0,-1,1364,1128,0,0
147,-104,0,0,0,0,0,0,0,0,0,-1,1371,1128,0,0
154,-104,0,0,0,0,0,0,0,0,0,-1,1378,1128,0,0
161,-104,0,0,0,0,0,0,0,0,0,-1,1385,1128,0,0
168,-104,0,0,0,0,0,0,0,0,0,-1,1392,1128,0,0
175,-104,0,0,0,0,0,0,0,0,0,-1,1399,1128,0,0
182,-104,0,0,0,0,0,0,0,0,0,-1,1406,1128,0,0
189,-104,0,0,0,0,0,0,0,0,0,-1,1413,1128,0,0
196,-104,0,0,0,0,0,0,0,0,0,-1,1420,1128,0,0
203,-104,0,0,0,0,0,0,0,0,0,-1,1427,1128,0,0
210,-104,0,0,0,0,0,0,0,0,0,-1,1434,1128,0,0
217,-104,0,0,0,0,0,0,0,0,0,-1,1441,1128,0,0
224,-104,0,0,0,0,0,0,0,0,0,-1,1448,1128,0,0
231,-104,0,0,0,0,0,0,0,0,0,-1,1455,1128,0,0
238,-104,0,0,0,0,0,0,0,0,0,-1,1462,1128,0,0
245,-104,0,0,0,0,0,0,0,0,0,-1,1469,1128,0,0
252,-104,0,0,0,0,0,0,0,0,0,-1,1476,1128,0,0
259,-104,0,0,0,0,0,0,0,0,0,-1,1483,1128,0,0
266,-104,0,0,0,0,0,0,0,0,0,-1,1490,1128,0,0
273,-104,0,0,0,0,0,0,0,0,0,-1,1497,1128,0,0
280,-104,0,0,0,0,0,0,0,0,0,-1,1504,1128,0,0
287,-104,0,0,0,0,0,0,0,0,0,-1,1511,1128,0,0
294,-104,0,0,0,0,0,0,0,0,0,-1,1518,1128,0,0
301,-104,0,0,0,0,0,0,0,0,0,-1,1525,1128,0,0
308,-104,0,0,0,0,0,0,0,0,0,-1,1532,1128,0,0
315,-104,0,0,0,0,0,0,0,0,0,-1,1539,1128,0,0
322,-104,0,0,0,0,0,0,0,0,0,-1,1546,1128,0,0
329,-104,0,0,0,0,0,0,0,0,0,-1,1553,1128,0,0
336,-104,0,0,0,0,0,0,0,0,0,-1,1560,1128,0,0
343,-104,0,0,0,0,0,0,0,0,0,-1,1567,1128,0,0
350,-104,0,0,0,0,0,0,0,0,0,-1,1574,1128,0,0
357,-104,0,0,0,0,0,0,0,0,0,-1,1581,1128,0,0
364,-104,0,0,0,0,0,0,0,0,0,-1,1588,1128,0,0
371,-104,0,0,0,0,0,0,0,0,0,-1,1595,1128,0,0
378,-104,0,0,0,0,0,0,0,0,0,-1,1602,1128,0,0
385,-104,0,0,0,0,0,0,0,0,0,-1,1609,1128,0,0
392,-104,0,0,0,0,0,0,0,0,0,-1,1616,1128,0,0
399,-104,0,0,0,0,0,0,0,0,0,-1,1623,1128,0,0
406,-104,0,0,0,0,0,0,0,0,0,-1,1630,1128,0,0
413,-104,0,0,0,0,0,0,0,0,0,-1,1637,1128,0,0
420,-104,0,0,0,0,0,0,0,0,0,-1,1644,1128,0,0
427,-104,0,0,0,0,0,0,0,0,0,-1,1651,1128,0,0
434,-104,0,0,0,0,0,0,0,0,0,-1,1658,1128,0,0
441,-104,0,0,0,0,0,0,0,0,0,-1,1665,1128,0,0
448,-104,0,0,0,0,0,0,0,0,0,-1,1672,1128,0,0
455,-104,0,0,0,0,0,0,0,0,0,-1,1679,1128,0,0
462,-104,0,0,0,0,0,0,0,0,0,-1,1686,1128,0,0
469,-104,0,0,0,0,0,0,0,0,0,-1,1693,1128,0,0
476,-104,0,0,0,0,0,0,0,0,0,-1,1700,1128,0,0
483,-104,0,0,0,0,0,0,0,0,0,-1,1707,1128,0,0
490,-104,0,0,0,0,0,0,0,0,0,-1,1714,1128,0,0
497,-104,0,0,0,0,0,0,0,0,0,-1,1721,1128,0,0
504,-104,0,0,0,0,0,0,0,0,0,-1,1728,1128,0,0
511,-104,0,0,0,0,0,0,0,0,0,-1,1735,1128,0,0
518,-104,0,0,0,0,0,0,0,0,0,-1,1742,1128,0,0
525,-104,0,0,0,0,0,0,0,0,0,-1,1749,1128,0,0
532,-104,0,0,0,0,0,0,0,0,0,-1,1756,1128,0,0
539,-104,0,0,0,0,0,0,0,0,0,-1,1763,1128,0,0
546,-104,0,0,0,0,0,0,0,0,0,-1,1770,1128,0,0
553,-104,0,0,0,0,0,0,0,0,0,-1,1777,1128,0,0
560,-104,0,0,0,0,0,0,0,0,0,-1,1784,1128,0,0
567,-104,0,0,0,0,0,0,0,0,0,-1,1791,1128,0,0
574,-104,0,0,0,0,0,0,0,0,0,-1,1798,1128,0,0
581,-104,0,0,0,0,0,0,0,0,0,-1,1805,1128,0,0
588,-104,0,0,0,0,0,0,0,0,0,-1,1812,1128,0,0
595,-104,0,0,0,0,0,0,0,0,0,-1,1819,1128,0,0
602,-104,0,0,0,0,0,0,0,0,0,-1,1826,1128,0,0
609,-104,0,0,0,0,0,0,0,0,0,-1,1833,1128,0,0
616,-104,0,0,0,0,0,0,0,0,0,-1,1840,1128,0,0
623,-104,0,0,0,0,0,0,0,0,0,-1,1847,1128,0,0
630,-104,0,0,0,0,0,0,0,0,0,-1,1854,1128,0,0
637,-104,0,0,0,0,0,0,0,0,0,-1,1861,1128,0,0
644,-104,17.509,2.68994,0.00698281,-0.0022678,0.00206684,0.0074236,-0.00270858,0.210118,0.00605727,0.0347411,1868,1128,17.509,-2.68999
651,-104,17.6782,2.71716,0.00523923,-0.001812,0.00183208,0.00568684,-0.0022596,0.239621,0.00472797,0.0369319,1875,1128,17.6783,-2.71711
658,-104,17.7896,2.56812,0.00414944,-0.0014173,0.00137354,0.0044699,-0.00173776,0.229209,0.0036979,0.040504,1882,1128,17.7895,-2.56808
665,-104,17.7787,2.43188,0.00269732,-0.00129869,0.00163486,0.00328094,-0.00188231,0.342883,0.00301724,0.0419715,1889,1128,17.7786,-2.4319
672,-104,17.7634,2.43933,0.000734325,-0.00157443,0.00279995,0.00260853,-0.00344864,0.589872,0.0035083,0.0404718,1896,1128,17.7635,-2.43935
679,-104,17.6324,2.53674,-0.00121398,-0.00193913,0.00406121,0.00250081,-0.00565392,0.740877,0.00482402,0.0422396,1903,1128,17.6325,-2.53676
686,-104,17.5319,2.63477,-0.00289176,-0.0023138,0.00522756,0.00263276,-0.00783832,0.81301,0.00628957,0.0435845,1910,1128,17.5319,-2.63477
693,-104,17.601,2.62622,-0.00424204,-0.00259478,0.00620042,0.00283647,-0.0096733,0.851429,0.00757353,0.0380427,1917,1128,17.6009,-2.62624
700,-104,17.6425,2.52893,-0.00526893,-0.00278348,0.0068328,0.00291868,-0.0109711,0.875353,0.00845655,0.0292716,1924,1128,17.6425,-2.52893
707,-104,17.6302,2.4939,-0.006034,-0.0028828,0.00725965,0.00297026,-0.0118871,0.892259,0.00907823,0.0289917,1931,1128,17.6303,-2.49391
714,-104,17.3894,3.16272,-0.00642947,-0.00286426,0.00744825,0.00301174,-0.0123055,0.902855,0.0093703,0.0397516,1938,1128,17.3894,-3.16272
721,-104,16.9548,3.78308,-0.00645487,-0.00268585,0.00727111,0.002941,-0.0120817,0.912197,0.00919298,0.0208811,1945,1128,16.9548,-3.78313
728,-104,16.9799,3.70105,-0.00613156,-0.0023239,0.00665687,0.00269603,-0.0111515,0.924678,0.00847713,0.021417,1952,1128,16.9798,-3.7011
735,-104,16.975,3.64575,-0.00543203,-0.00185095,0.00556064,0.00220032,-0.0094833,0.941158,0.00716909,0.0207767,1959,1128,16.975,-3.64573
742,-104,16.916,3.57935,-0.00436975,-0.000902323,0.00414993,0.00186148,-0.00713355,0.983263,0.00548257,0.0142038,1966,1128,16.916,-3.57932
749,-104,16.8975,3.51758,-0.00289726,0.000908997,0.00239172,0.00206237,-0.00405063,1.12146,0.00359103,0.0164149,1973,1128,16.8975,-3.51755
756,-104,16.9169,3.43213,-0.00129447,0.00290703,0.000413356,0.00294731,-0.00133475,1.47365,0.00253001,0.0154884,1980,1128,16.9169,-3.43208
763,-104,16.9225,3.36938,0.000853912,0.00520241,-0.00225374,0.00615972,-0.000103402,-1.16912,0.00414138,0.0134434,1987,1128,16.9225,-3.36936
770,-104,16.911,3.33801,0.00305144,0.00816118,-0.00498018,0.0112036,9.02917e-06,-1.0224,0.00746605,0.0106782,1994,1128,16.911,-3.33799
777,-104,16.9291,3.3175,0.00518152,0.011563,-0.00750997,0.0165319,0.000212564,-0.986277,0.0109511,0.0177762,2001,1128,16.9291,-3.31751
784,-104,16.9673,3.0116,0.00745384,0.0156035,-0.0101775,0.0224916,0.000565732,-0.975813,0.0148094,0.0368327,2008,1128,16.9673,-3.01156
791,-104,17.2006,2.26184,0.0102166,0.0203564,-0.0133622,0.0295782,0.000994805,-0.96672,0.0193957,0.0438301,2015,1128,17.2006,-2.26185
798,-104,17.3105,1.99072,0.0135949,0.0257363,-0.0170664,0.0377795,0.00155169,-0.956274,0.0246854,0.0449877,2022,1128,17.3106,-1.99068
805,-104,17.4863,2.17114,0.0175961,0.0314998,-0.0212222,0.0468798,0.00221612,-0.943676,0.0305413,0.045761,2029,1128,17.4863,-2.1712
812,-104,17.7629,2.04175,0.0221063,0.0372338,-0.0257251,0.0564841,0.002856,-0.92838,0.0367411,0.047128,2036,1128,17.763,-2.04171
-700,-111,0,0,0,0,0,0,0,0,0,-1,524,1135,0,0
-693,-111,-7.01929,-0.753784,0,0,0,0,0,0,0,-1,531,1135,-7.01929,0.753828
-686,-111,-13.4971,2.48254,0,0,0,0,0,0,0,-1,538,1135,-13.4971,-2.48256
-679,-111,-13.0413,1.95715,0,0,0,0,0,0,0,-1,545,1135,-13.0413,-1.95715
-672,-111,-11.5873,1.90063,0,0,0,0,0,0,0,-1,552,1135,-11.5873,-1.90058
-665,-111,-10.9468,0.924561,0,0,0,0,0,0,0,-1,559,1135,-10.9468,-0.924572
-658,-111,-10.9463,0.709961,0,0,0,0,0,0,0,-1,566,1135,-10.9463,-0.709943
-651,-111,-10.7589,0.811401,0.00806613,0.0106643,-0.0113825,0.0208216,-0.00209114,-0.842218,0.014628,0.0365416,573,1135,-10.7589,-0.81142
-644,-111,-10.585,0.937866,0.00537605,0.00758923,-0.00760261,0.0141654,-0.00120008,-0.857668,0.00986795,0.0227603,580,1135,-10.585,-0.937923
-637,-111,-10.5991,1.00122,0.00246314,0.0056565,-0.00435155,0.00869505,-0.000575413,-0.961233,0.00599771,0.00884663,587,1135,-10.5991,-1.00117
-630,-111,-10.5885,1.052,-0.000175674,0.00219656,-0.00291554,0.00415803,-0.00213714,-0.978586,0.00369641,0.0135582,594,1135,-10.5885,-1.05197
-623,-111,-10.5975,1.16833,-0.0014525,0.000681165,-0.00421079,0.00395817,-0.0047295,-0.909466,0.00502241,0.0130736,601,1135,-10.5975,-1.16834
-616,-111,-10.6229,1.23035,-0.00274514,-0.000781103,-0.00487609,0.00321088,-0.00673712,-0.884766,0.00586252,0.0140851,608,1135,-10.6229,-1.23036
-609,-111,-10.649,1.30005,-0.0036378,-0.0014913,-0.00588709,0.00341957,-0.00854867,-0.875561,0.00711824,0.0176572,615,1135,-10.649,-1.30005
-602,-111,-10.6404,1.40173,-0.00436415,-0.00183484,-0.00683229,0.00384885,-0.0100478,-0.876912,0.00828507,0.0172322,622,1135,-10.6405,-1.40179
-595,-111,-10.6002,1.5426,-0.00535182,-0.00209925,-0.00772408,0.0041679,-0.011619,-0.889156,0.00944689,0.0119523,629,1135,-10.6001,-1.54261
-588,-111,-10.554,1.62671,-0.0060543,-0.00235272,-0.00819776,0.00420058,-0.0126076,-0.896421,0.0101007,0.0252205,636,1135,-10.554,-1.62675
-581,-111,-10.8316,1.02625,-0.00604882,-0.00251896,-0.00824161,0.00414458,-0.0127124,-0.890879,0.0101427,0.0393058,643,1135,-10.8316,-1.02629
-574,-111,-11.2102,0.435425,0,0,0,0,0,0,0,-1,650,1135,-11.2102,-0.435403
-567,-111,-11.2555,0.905273,-0.00475916,-0.00234725,-0.0074646,0.00400819,-0.0111146,-0.865485,0.00904677,0.0385835,657,1135,-11.2555,-0.905329
-560,-111,-11.249,0.760498,-0.00359478,-0.00207681,-0.00630417,0.0035139,-0.00918549,-0.845307,0.00757181,0.0385565,664,1135,-11.249,-0.760472
-553,-111,-11.2372,0.598511,-0.00192927,-0.0017519,-0.00462068,0.00278094,-0.00646211,-0.794994,0.00547573,0.0443937,671,1135,-11.2373,-0.59854
-546,-111,-11.0569,0.452637,0.000262906,-0.00144992,-0.00243574,0.00198841,-0.00317542,-0.616347,0.00300748,0.0439672,678,1135,-11.0569,-0.45268
-539,-111,-11.2253,0.484009,0.00309893,-0.00126617,0.000192345,0.00310739,-0.00127463,0.0439506,0.00260268,0.0427664,685,1135,-11.2253,-0.483972
-532,-111,-11.3596,0.752563,0.00607395,-0.00150157,0.00235128,0.0067444,-0.00217203,0.277771,0.00536879,0.0425542,692,1135,-11.3596,-0.752617
-525,-111,-11.1165,0.507324,0.00697297,-0.00311245,0.00142924,0.0071716,-0.00331108,0.138092,0.00618748,0.0386676,699,1135,-11.1164,-0.507295
-518,-111,0,0,0,0,0,0,0,0,0,-1,706,1135,0,0
-511,-111,0,0,0,0,0,0,0,0,0,-1,713,1135,0,0
-504,-111,0,0,0,0,0,0,0,0,0,-1,720,1135,0,0
-497,-111,0,0,0,0,0,0,0,0,0,-1,727,1135,0,0
-490,-111,0,0,0,0,0,0,0,0,0,-1,734,1135,0,0
-483,-111,0,0,0,0,0,0,0,0,0,-1,741,1135,0,0
-476,-111,0,0,0,0,0,0,0,0,0,-1,748,1135,0,0
-469,-111,0,0,0,0,0,0,0,0,0,-1,755,1135,0,0
-462,-111,0,0,0,0,0,0,0,0,0,-1,762,1135,0,0
-455,-111,0,0,0,0,0,0,0,0,0,-1,769,1135,0,0
-448,-111,0,0,0,0,0,0,0,0,0,-1,776,1135,0,0
-441,-111,0,0,0,0,0,0,0,0,0,-1,783,1135,0,0
-434,-111,0,0,0,0,0,0,0,0,0,-1,790,1135,0,0
-427,-111,0,0,0,0,0,0,0,0,0,-1,797,1135,0,0
-420,-111,0,0,0,0,0,0,0,0,0,-1,804,1135,0,0
-413,-111,0,0,0,0,0,0,0,0,0,-1,811,1135,0,0
-406,-111,0,0,0,0,0,0,0,0,0,-1,818,1135,0,0
-399,-111,0,0,0,0,0,0,0,0,0,-1,825,1135,0,0
-392,-111,0,0,0,0,0,0,0,0,0,-1,832,1135,0,0
-385,-111,0,0,0,0,0,0,0,0,0,-1,839,1135,0,0
-378,-111,0,0,0,0,0,0,0,0,0,-1,846,1135,0,0
-371,-111,0,0,0,0,0,0,0,0,0,-1,853,1135,0,0
-364,-111,0,0,0,0,0,0,0,0,0,-1,860,1135,0,0
-357,-111,0,0,0,0,0,0,0,0,0,-1,867,1135,0,0
-350,-111,0,0,0,0,0,0,0,0,0,-1,874,1135,0,0
-343,-111,0,0,0,0,0,0,0,0,0,-1,881,1135,0,0
-336,-111,0,0,0,0,0,0,0,0,0,-1,888,1135,0,0
-329,-111,0,0,0,0,0,0,0,0,0,-1,895,1135,0,0
-322,-111,0,0,0,0,0,0,0,0,0,-1,902,1135,0,0
-315,-111,0,0,0,0,0,0,0,0,0,-1,909,1135,0,0
-308,-111,0,0,0,0,0,0,0,0,0,-1,916,1135,0,0
-301,-111,0,0,0,0,0,0,0,0,0,-1,923,1135,0,0
-294,-111,0,0,0,0,0,0,0,0,0,-1,930,1135,0,0
-287,-111,0,0,0,0,0,0,0,0,0,-1,937,1135,0,0
-280,-111,0,0,0,0,0,0,0,0,0,-1,944,1135,0,0
-273,-111,0,0,0,0,0,0,0,0,0,-1,951,1135,0,0
-266,-111,0,0,0,0,0,0,0,0,0,-1,958,1135,0,0
-259,-111,0,0,0,0,0,0,0,0,0,-1,965,1135,0,0
-252,-111,0,0,0,0,0,0,0,0,0,-1,972,1135,0,0
-245,-111,0,0,0,0,0,0,0,0,0,-1,979,1135,0,0
-238,-111,0,0,0,0,0,0,0,0,0,-1,986,1135,0,0
-231,-111,0,0,0,0,0,0,0,0,0,-1,993,1135,0,0
-224,-111,0,0,0,0,0,0,0,0,0,-1,1000,1135,0,0
-217,-111,0,0,0,0,0,0,0,0,0,-1,1007,1135,0,0
-210,-111,0,0,0,0,0,0,0,0,0,-1,1014,1135,0,0
-203,-111,0,0,0,0,0,0,0,0,0,-1,1021,1135,0,0
-196,-111,0,0,0,0,0,0,0,0,0,-1,1028,1135,0,0
-189,-111,0,0,0,0,0,0,0,0,0,-1,1035,1135,0,0
-182,-111,0,0,0,0,0,0,0,0,0,-1,1042,1135,0,0
-175,-111,0,0,0,0,0,0,0,0,0,-1,1049,1135,0,0
-168,-111,0,0,0,0,0,0,0,0,0,-1,1056,1135,0,0
-161,-111,0,0,0,0,0,0,0,0,0,-1,1063,1135,0,0
-154,-111,0,0,0,0,0,0,0,0,0,-1,1070,1135,0,0
-147,-111,0,0,0,0,0,0,0,0,0,-1,1077,1135,0,0
-140,-111,0,0,0,0,0,0,0,0,0,-1,1084,1135,0,0
-133,-111,0,0,0,0,0,0,0,0,0,-1,1091,1135,0,0
-126,-111,0,0,0,0,0,0,0,0,0,-1,1098,1135,0,0
-119,-111,0,0,0,0,0,0,0,0,0,-1,1105,1135,0,0
-112,-111,0,0,0,0,0,0,0,0,0,-1,1112,1135,0,0
-105,-111,0,0,0,0,0,0,0,0,0,-1,1119,1135,0,0
-98,-111,0,0,0,0,0,0,0,0,0,-1,1126,1135,0,0
-91,-111,0,0,0,0,0,0,0,0,0,-1,1133,1135,0,0
-84,-111,0,0,0,0,0,0,0,0,0,-1,1140,1135,0,0
-77,-111,0,0,0,0,0,0,0,0,0,-1,1147,1135,0,0
-70,-111,0,0,0,0,0,0,0,0,0,-1,1154,1135,0,0
-63,-111,0,0,0,0,0,0,0,0,0,-1,1161,1135,0,0
-56,-111,0,0,0,0,0,0,0,0,0,-1,1168,1135,0,0
-49,-111,0,0,0,0,0,0,0,0,0,-1,1175,1135,0,0
-42,-111,0,0,0,0,0,0,0,0,0,-1,1182,1135,0,0
-35,-111,0,0,0,0,0,0,0,0,0,-1,1189,1135,0,0
-28,-111,0,0,0,0,0,0,0,0,0,-1,1196,1135,0,0
-21,-111,0,0,0,0,0,0,0,0,0,-1,1203,1135,0,0
-14,-111,0,0,0,0,0,0,0,0,0,-1,1210,1135,0,0
-7,-111,0,0,0,0,0,0,0,0,0,-1,1217,1135,0,0
0,-111,0,0,0,0,0,0,0,0,0,-1,1224,1135,0,0
7,-111,0,0,0,0,0,0,0,0,0,-1,1231,1135,0,0
14,-111,0,0,0,0,0,0,0,0,0,-1,1238,1135,0,0
21,-111,0,0,0,0,0,0,0,0,0,-1,1245,1135,0,0
28,-111,0,0,0,0,0,0,0,0,0,-1,1252,1135,0,0
35,-111,0,0,0,0,0,0,0,0,0,-1,1259,1135,0,0
42,-111,0,0,0,0,0,0,0,0,0,-1,1266,1135,0,0
49,-111,0,0,0,0,0,0,0,0,0,-1,1273,1135,0,0
56,-111,0,0,0,0,0,0,0,0,0,-1,1280,1135,0,0
63,-111,0,0,0,0,0,0,0,0,0,-1,1287,1135,0,0
70,-111,0,0,0,0,0,0,0,0,0,-1,1294,1135,0,0
77,-111,0,0,0,0,0,0,0,0,0,-1,1301,1135,0,0
84,-111,0,0,0,0,0,0,0,0,0,-1,1308,1135,0,0
91,-111,0,0,0,0,0,0,0,0,0,-1,1315,1135,0,0
98,-111,0,0,0,0,0,0,0,0,0,-1,1322,1135,0,0
105,-111,0,0,0,0,0,0,0,0,0,-1,1329,1135,0,0
112,-111,0,0,0,0,0,0,0,0,0,-1,1336,1135,0,0
119,-111,0,0,0,0,0,0,0,0,0,-1,1343,1135,0,0
126,-111,0,0,0,0,0,0,0,0,0,-1,1350,1135,0,0
133,-111,0,0,0,0,0,0,0,0,0,-1,1357,1135,0,0
140,-111,0,0,0,0,0,0,0,0,0,-1,1364,1135,0,0
147,-111,0,0,0,0,0,0,0,0,0,-1,1371,1135,0,0
154,-111,0,0,0,0,0,0,0,0,0,-1,1378,1135,0,0
161,-111,0,0,0,0,0,0,0,0,0,-1,1385,1135,0,0
168,-111,0,0,0,0,0,0,0,0,0,-1,1392,1135,0,0
175,-111,0,0,0,0,0,0,0,0,0,-1,1399,1135,0,0
182,-111,0,0,0,0,0,0,0,0,0,-1,1406,1135,0,0
189,-111,0,0,0,0,0,0,0,0,0,-1,1413,1135,0,0
196,-111,0,0,0,0,0,0,0,0,0,-1,1420,1135,0,0
203,-111,0,0,0,0,0,0,0,0,0,-1,1427,1135,0,0
210,-111,0,0,0,0,0,0,0,0,0,-1,1434,1135,0,0
217,-111,0,0,0,0,0,0,0,0,0,-1,1441,1135,0,0
224,-111,0,0,0,0,0,0,0,0,0,-1,1448,1135,0,0
231,-111,0,0,0,0,0,0,0,0,0,-1,1455,1135,0,0
238,-111,0,0,0,0,0,0,0,0,0,-1,1462,1135,0,0
245,-111,0,0,0,0,0,0,0,0,0,-1,1469,1135,0,0
252,-111,0,0,0,0,0,0,0,0,0,-1,1476,1135,0,0
259,-111,0,0,0,0,0,0,0,0,0,-1,1483,1135,0,0
266,-111,0,0,0,0,0,0,0,0,0,-1,1490,1135,0,0
273,-111,0,0,0,0,0,0,0,0,0,-1,1497,1135,0,0
280,-111,0,0,0,0,0,0,0,0,0,-1,1504,1135,0,0
287,-111,0,0,0,0,0,0,0,0,0,-1,1511,1135,0,0
294,-111,0,0,0,0,0,0,0,0,0,-1,1518,1135,0,0
301,-111,0,0,0,0,0,0,0,0,0,-1,1525,1135,0,0
308,-111,0,0,0,0,0,0,0,0,0,-1,1532,1135,0,0
315,-111,0,0,0,0,0,0,0,0,0,-1,1539,1135,0,0
322,-111,0,0,0,0,0,0,0,0,0,-1,1546,1135,0,0
329,-111,0,0,0,0,0,0,0,0,0,-1,1553,1135,0,0
336,-111,0,0,0,0,0,0,0,0,0,-1,1560,1135,0,0
343,-111,0,0,0,0,0,0,0,0,0,-1,1567,1135,0,0
350,-111,0,0,0,0,0,0,0,0,0,-1,1574,1135,0,0
357,-111,0,0,0,0,0,0,0,0,0,-1,1581,1135,0,0
364,-111,0,0,0,0,0,0,0,0,0,-1,1588,1135,0,0
371,-111,0,0,0,0,0,0,0,0,0,-1,1595,1135,0,0
378,-111,0,0,0,0,0,0,0,0,0,-1,1602,1135,0,0
385,-111,0,0,0,0,0,0,0,0,0,-1,1609,1135,0,0
392,-111,0,0,0,0,0,0,0,0,0,-1,1616,1135,0,0
399,-111,0,0,0,0,0,0,0,0,0,-1,1623,1135,0,0
406,-111,0,0,0,0,0,0,0,0,0,-1,1630,1135,0,0
413,-111,0,0,0,0,0,0,0,0,0,-1,1637,1135,0,0
420,-111,0,0,0,0,0,0,0,0,0,-1,1644,1135,0,0
427,-111,0,0,0,0,0,0,0,0,0,-1,1651,1135,0,0
434,-111,0,0,0,0,0,0,0,0,0,-1,1658,1135,0,0
441,-111,0,0,0,0,0,0,0,0,0,-1,1665,1135,0,0
448,-111,0,0,0,0,0,0,0,0,0,-1,1672,1135,0,0
455,-111,0,0,0,0,0,0,0,0,0,-1,1679,1135,0,0
462,-111,0,0,0,0,0,0,0,0,0,-1,1686,1135,0,0
469,-111,0,0,0,0,0,0,0,0,0,-1,1693,1135,0,0
476,-111,0,0,0,0,0,0,0,0,0,-1,1700,1135,0,0
483,-111,0,0,0,0,0,0,0,0,0,-1,1707,1135,0,0
490,-111,0,0,0,0,0,0,0,0,0,-1,1714,1135,0,0
497,-111,0,0,0,0,0,0,0,0,0,-1,1721,1135,0,0
504,-111,0,0,0,0,0,0,0,0,0,-1,1728,1135,0,0
511,-111,0,0,0,0,0,0,0,0,0,-1,1735,1135,0,0
518,-111,0,0,0,0,0,0,0,0,0,-1,1742,1135,0,0
525,-111,0,0,0,0,0,0,0,0,0,-1,1749,1135,0,0
532,-111,0,0,0,0,0,0,0,0,0,-1,1756,1135,0,0
539,-111,0,0,0,0,0,0,0,0,0,-1,1763,1135,0,0
546,-111,0,0,0,0,0,0,0,0,0,-1,1770,1135,0,0
553,-111,0,0,0,0,0,0,0,0,0,-1,1777,1135,0,0
560,-111,0,0,0,0,0,0,0,0,0,-1,1784,1135,0,0
567,-111,0,0,0,0,0,0,0,0,0,-1,1791,1135,0,0
574,-111,0,0,0,0,0,0,0,0,0,-1,1798,1135,0,0
581,-111,0,0,0,0,0,0,0,0,0,-1,1805,1135,0,0
588,-111,0,0,0,0,0,0,0,0,0,-1,1812,1135,0,0
595,-111,0,0,0,0,0,0,0,0,0,-1,1819,1135,0,0
602,-111,0,0,0,0,0,0,0,0,0,-1,1826,1135,0,0
609,-111,0,0,0,0,0,0,0,0,0,-1,1833,1135,0,0
616,-111,0,0,0,0,0,0,0,0,0,-1,1840,1135,0,0
623,-111,0,0,0,0,0,0,0,0,0,-1,1847,1135,0,0
630,-111,0,0,0,0,0,0,0,0,0,-1,1854,1135,0,0
637,-111,0,0,0,0,0,0,0,0,0,-1,1861,1135,0,0
644,-111,17.5056,2.85474,0.00530525,-0.00304135,0.00176644,0.0056637,-0.00339979,0.200203,0.00528694,0.035546,1868,1135,17.5056,-2.85475
651,-111,17.7164,2.72388,0.00403926,-0.00232317,0.00160417,0.00442084,-0.00270474,0.233526,0.00415353,0.0390548,1875,1135,17.7165,-2.72391
658,-111,17.7529,2.70483,0.0033267,-0.00169856,0.00123789,0.00361508,-0.00198694,0.228882,0.00327954,0.0444349,1882,1135,17.7529,-2.70482
665,-111,17.7668,2.44421,0.00204912,-0.00143055,0.00163169,0.00269454,-0.00207597,0.376666,0.00276196,0.0432446,1889,1135,17.7668,-2.44421
672,-111,17.6077,2.3374,0.000208221,-0.00157613,0.00279092,0.0022461,-0.00361401,0.630696,0.00341392,0.0422636,1896,1135,17.6077,-2.33746
679,-111,17.6272,2.47046,-0.00161274,-0.00183865,0.0039721,0.00224801,-0.0056994,0.771183,0.00473047,0.0412918,1903,1135,17.6272,-2.47049
686,-111,17.5366,2.67163,-0.00320935,-0.00214966,0.00504291,0.00239116,-0.00775017,0.83774,0.00612153,0.0408609,1910,1135,17.5366,-2.67165
693,-111,17.5835,2.64392,-0.00449435,-0.00238006,0.00591168,0.00256825,-0.00944266,0.873875,0.0073033,0.0378701,1917,1135,17.5834,-2.64389
700,-111,17.6387,2.53674,-0.00546156,-0.0025549,0.00646677,0.00261984,-0.0106363,0.895931,0.00810651,0.0291338,1924,1135,17.6387,-2.53672
707,-111,17.6753,2.60706,-0.00616463,-0.00265655,0.00684925,0.0026597,-0.0114809,0.910751,0.00867743,0.0451683,1931,1135,17.6753,-2.60705
714,-111,17.203,3.27185,-0.00655313,-0.00265571,0.00701166,0.002673,-0.0118818,0.920939,0.00894634,0.0250109,1938,1135,17.203,-3.27184
721,-111,16.8882,3.76672,-0.00660319,-0.0025085,0.00682036,0.00256518,-0.0116769,0.93121,0.00876566,0.0130299,1945,1135,16.8882,-3.76668
728,-111,16.8823,3.70911,-0.00625761,-0.0022213,0.00622562,0.00230511,-0.010784,0.942138,0.00806823,0.0160219,1952,1135,16.8824,-3.70915
735,-111,16.8864,3.64368,-0.00551329,-0.00184499,0.00517584,0.00181208,-0.00917036,0.955678,0.00679858,0.0161006,1959,1135,16.8863,-3.6437
742,-111,16.8787,3.56274,-0.00444521,-0.00107773,0.00381527,0.00140882,-0.00693175,0.993202,0.00515534,0.0113742,1966,1135,16.8786,-3.56275
749,-111,16.8569,3.51746,-0.00294772,0.000669178,0.00209763,0.0016303,-0.00390885,1.14115,0.00328698,0.0139251,1973,1135,16.8569,-3.51745
756,-111,16.8519,3.44043,-0.00130622,0.002596,0.000187829,0.00260502,-0.00131524,1.52281,0.00230384,0.0150078,1980,1135,16.852,-3.44039
763,-111,16.8519,3.37109,0.000935376,0.00486542,-0.00240289,0.00600446,-0.000203663,-1.12814,0.00407256,0.0128277,1987,1135,16.8519,-3.37109
770,-111,16.8418,3.34656,0.00314337,0.00773742,-0.00498805,0.0109319,-5.11417e-05,-1.00118,0.00730506,0.0102026,1994,1135,16.8417,-3.34658
777,-111,16.8407,3.25232,0.00524013,0.011077,-0.00738264,0.0160971,0.000220003,-0.973626,0.0106588,0.0231748,2001,1135,16.8406,-3.25229
784,-111,16.9614,2.77356,0.00751704,0.015149,-0.00996099,0.0219999,0.000666101,-0.968321,0.0144497,0.0401097,2008,1135,16.9614,-2.77353
791,-111,17.1686,1.9917,0.0103123,0.0200731,-0.0130138,0.0290916,0.00129385,-0.96479,0.0189778,0.0437169,2015,1135,17.1686,-1.9917
798,-111,17.5283,1.46948,0.0137499,0.0258344,-0.0165099,0.037373,0.0022113,-0.960816,0.0242119,0.0432068,2022,1135,17.5284,-1.46948
805,-111,17.7078,1.8844,0.0178527,0.0322921,-0.0203423,0.0466579,0.00348685,-0.95592,0.0300106,0.0434463,2029,1135,17.7078,-1.88441
812,-111,17.9861,1.79846,0.0225111,0.0391628,-0.0243557,0.0565764,0.00509747,-0.950093,0.0361385,0.0470706,2036,1135,17.986,-1.79847
-700,-118,0,0,0,0,0,0,0,0,0,-1,524,1142,0,0
-693,-118,-13.0161,3.13696,0,0,0,0,0,0,0,-1,531,1142,-13.0161,-3.13701
-686,-118,-12.5005,2.69958,0.061995,0.0409829,-0.0834632,0.135611,-0.0326329,-0.722789,0.103022,0.0481506,538,1142,-12.5005,-2.69953
-679,-118,-11.8996,2.14038,0,0,0,0,0,0,0,-1,545,1142,-11.8996,-2.14035
-672,-118,-11.2522,1.68787,0.0315052,0.0288092,-0.0438213,0.0739992,-0.0136849,-0.770022,0.0544705,0.0483857,552,1142,-11.2522,-1.68789
-665,-118,-10.882,1.05627,0.0218139,0.0229514,-0.030896,0.0532838,-0.00851857,-0.794602,0.0386761,0.0476111,559,1142,-10.882,-1.05623
-658,-118,-11.1561,0.723877,0.0147793,0.0177102,-0.0213542,0.0376492,-0.0051597,-0.819657,0.0269843,0.0395236,566,1142,-11.1562,-0.723834
-651,-118,-10.779,0.790283,0.00978456,0.0132299,-0.0144615,0.026071,-0.00305649,-0.84468,0.0184839,0.0349174,573,1142,-10.779,-0.790274
-644,-118,-10.4434,0.864502,0.00636103,0.00954868,-0.00963718,0.0177229,-0.00181323,-0.867348,0.0124637,0.0243818,580,1142,-10.4434,-0.864484
-637,-118,-10.485,0.986206,0.00277607,0.00723214,-0.00549335,0.0109321,-0.000923879,-0.978055,0.00761472,0.0136591,587,1142,-10.485,-0.986175
-630,-118,-10.5033,1.06982,-0.000271375,0.00314611,-0.00329638,0.00515031,-0.00227558,-1.02452,0.00439312,0.0169437,594,1142,-10.5033,-1.06988
-623,-118,-10.5234,1.14429,-0.00159279,0.00134925,-0.00442312,0.00453955,-0.0047831,-0.945932,0.00538304,0.015088,601,1142,-10.5234,-1.14426
-616,-118,-10.5277,1.22192,-0.00294122,-0.000347914,-0.00500684,0.00352745,-0.00681658,-0.912102,0.00607194,0.0138196,608,1142,-10.5277,-1.22195
-609,-118,-10.5328,1.30005,-0.00387718,-0.00122399,-0.00593624,0.00353208,-0.00863325,-0.895329,0.00722655,0.0146398,615,1142,-10.5328,-1.30005
-602,-118,-10.5441,1.4165,-0.00467793,-0.00167386,-0.0068619,0.00384847,-0.0102003,-0.893146,0.00838282,0.0144982,622,1142,-10.5441,-1.41645
-595,-118,-10.5564,1.53235,-0.00573042,-0.00202052,-0.00776362,0.00410668,-0.0118576,-0.902664,0.00957226,0.0115208,629,1142,-10.5564,-1.5324
-588,-118,-10.4391,1.64929,-0.00647324,-0.00230934,-0.00822361,0.00409177,-0.0128743,-0.909377,0.0102235,0.0190126,636,1142,-10.4391,-1.64928
-581,-118,-10.7361,1.14185,-0.00648242,-0.00251844,-0.00825149,0.00398576,-0.0129866,-0.903264,0.010248,0.0429119,643,1142,-10.7361,-1.14182
-574,-118,-11.11,0.374512,0,0,0,0,0,0,0,-1,650,1142,-11.11,-0.374558
-567,-118,-11.2806,0.895386,-0.00506465,-0.00243271,-0.00749494,0.00386092,-0.0113583,-0.872303,0.00913529,0.0411948,657,1142,-11.2806,-0.895386
-560,-118,-11.3228,0.845825,-0.00380658,-0.00222859,-0.00634077,0.00337208,-0.00940725,-0.847296,0.00764749,0.0367022,664,1142,-11.3228,-0.845846
-553,-118,-11.2339,0.758423,-0.00196543,-0.00197753,-0.00464721,0.00267574,-0.0066187,-0.784747,0.00552476,0.0397313,671,1142,-11.2339,-0.758389
-546,-118,-11.0359,0.656006,0.000502805,-0.00175358,-0.00243597,0.00205916,-0.00330993,-0.568535,0.00312776,0.040293,678,1142,-11.036,-0.656028
-539,-118,-11.2059,0.752197,0.00373652,-0.00163541,0.00024897,0.00374804,-0.00164692,0.0462144,0.00319255,0.0416107,685,1142,-11.206,-0.752229
-532,-118,-11.3832,0.982788,0.00742514,-0.00184865,0.00265475,0.00813133,-0.00255483,0.259988,0.0064436,0.042456,692,1142,-11.3833,-0.982812
-525,-118,-11.1553,0.778076,0.00940973,-0.00332442,0.00219687,0.00977808,-0.00369276,0.166123,0.00803756,0.0449146,699,1142,-11.1553,-0.778096
-518,-118,0,0,0,0,0,0,0,0,0,-1,706,1142,0,0
-511,-118,0,0,0,0,0,0,0,0,0,-1,713,1142,0,0
-504,-118,0,0,0,0,0,0,0,0,0,-1,720,1142,0,0
-497,-118,0,0,0,0,0,0,0,0,0,-1,727,1142,0,0
-490,-118,0,0,0,0,0,0,0,0,0,-1,734,1142,0,0
-483,-118,0,0,0,0,0,0,0,0,0,-1,741,1142,0,0
-476,-118,0,0,0,0,0,0,0,0,0,-1,748,1142,0,0
-469,-118,0,0,0,0,0,0,0,0,0,-1,755,1142,0,0
-462,-118,0,0,0,0,0,0,0,0,0,-1,762,1142,0,0
-455,-118,0,0,0,0,0,0,0,0,0,-1,769,1142,0,0
-448,-118,0,0,0,0,0,0,0,0,0,-1,776,1142,0,0
-441,-118,0,0,0,0,0,0,0,0,0,-1,783,1142,0,0
-434,-118,0,0,0,0,0,0,0,0,0,-1,790,1142,0,0
-427,-118,0,0,0,0,0,0,0,0,0,-1,797,1142,0,0
-420,-118,0,0,0,0,0,0,0,0,0,-1,804,1142,0,0
-413,-118,0,0,0,0,0,0,0,0,0,-1,811,1142,0,0
-406,-118,0,0,0,0,0,0,0,0,0,-1,818,1142,0,0
-399,-118,0,0,0,0,0,0,0,0,0,-1,825,1142,0,0
-392,-118,0,0,0,0,0,0,0,0,0,-1,832,1142,0,0
-385,-118,0,0,0,0,0,0,0,0,0,-1,839,1142,0,0
-378,-118,0,0,0,0,0,0,0,0,0,-1,846,1142,0,0
-371,-118,0,0,0,0,0,0,0,0,0,-1,853,1142,0,0
-364,-118,0,0,0,0,0,0,0,0,0,-1,860,1142,0,0
-357,-118,0,0,0,0,0,0,0,0,0,-1,867,1142,0,0
-350,-118,0,0,0,0,0,0,0,0,0,-1,874,1142,0,0
-343,-118,0,0,0,0,0,0,0,0,0,-1,881,1142,0,0
-336,-118,0,0,0,0,0,0,0,0,0,-1,888,1142,0,0
-329,-118,0,0,0,0,0,0,0,0,0,-1,895,1142,0,0
-322,-118,0,0,0,0,0,0,0,0,0,-1,902,1142,0,0
-315,-118,0,0,0,0,0,0,0,0,0,-1,909,1142,0,0
-308,-118,0,0,0,0,0,0,0,0,0,-1,916,1142,0,0
-301,-118,0,0,0,0,0,0,0,0,0,-1,923,1142,0,0
-294,-118,0,0,0,0,0,0,0,0,0,-1,930,1142,0,0
-287,-118,0,0,0,0,0,0,0,0,0,-1,937,1142,0,0
-280,-118,0,0,0,0,0,0,0,0,0,-1,944,1142,0,0
-273,-118,0,0,0,0,0,0,0,0,0,-1,951,1142,0,0
-266,-118,0,0,0,0,0,0,0,0,0,-1,958,1142,0,0
-259,-118,0,0,0,0,0,0,0,0,0,-1,965,1142,0,0
-252,-118,0,0,0,0,0,0,0,0,0,-1,972,1142,0,0
-245,-118,0,0,0,0,0,0,0,0,0,-1,979,1142,0,0
-238,-118,0,0,0,0,0,0,0,0,0,-1,986,1142,0,0
-231,-118,0,0,0,0,0,0,0,0,0,-1,993,1142,0,0
-224,-118,0,0,0,0,0,0,0,0,0,-1,1000,1142,0,0
-217,-118,0,0,0,0,0,0,0,0,0,-1,1007,1142,0,0
-210,-118,0,0,0,0,0,0,0,0,0,-1,1014,1142,0,0
-203,-118,0,0,0,0,0,0,0,0,0,-1,1021,1142,0,0
-196,-118,0,0,0,0,0,0,0,0,0,-1,1028,1142,0,0
-189,-118,0,0,0,0,0,0,0,0,0,-1,1035,1142,0,0
-182,-118,0,0,0,0,0,0,0,0,0,-1,1042,1142,0,0
-175,-118,0,0,0,0,0,0,0,0,0,-1,1049,1142,0,0
-168,-118,0,0,0,0,0,0,0,0,0,-1,1056,1142,0,0
-161,-118,0,0,0,0,0,0,0,0,0,-1,1063,1142,0,0
-154,-118,0,0,0,0,0,0,0,0,0,-1,1070,1142,0,0
-147,-118,0,0,0,0,0,0,0,0,0,-1,1077,1142,0,0
-140,-118,0,0,0,0,0,0,0,0,0,-1,1084,1142,0,0
-133,-118,0,0,0,0,0,0,0,0,0,-1,1091,1142,0,0
-126,-118,0,0,0,0,0,0,0,0,0,-1,1098,1142,0,0
-119,-118,0,0,0,0,0,0,0,0,0,-1,1105,1142,0,0
-112,-118,0,0,0,0,0,0,0,0,0,-1,1112,1142,0,0
-105,-118,0,0,0,0,0,0,0,0,0,-1,1119,1142,0,0
-98,-118,0,0,0,0,0,0,0,0,0,-1,1126,1142,0,0
-91,-118,0,0,0,0,0,0,0,0,0,-1,1133,1142,0,0
-84,-118,0,0,0,0,0,0,0,0,0,-1,1140,1142,0,0
-77,-118,0,0,0,0,0,0,0,0,0,-1,1147,1142,0,0
-70,-118,0,0,0,0,0,0,0,0,0,-1,1154,1142,0,0
-63,-118,0,0,0,0,0,0,0,0,0,-1,1161,1142,0,0
-56,-118,0,0,0,0,0,0,0,0,0,-1,1168,1142,0,0
-49,-118,0,0,0,0,0,0,0,0,0,-1,1175,1142,0,0
-42,-118,0,0,0,0,0,0,0,0,0,-1,1182,1142,0,0
-35,-118,0,0,0,0,0,0,0,0,0,-1,1189,1142,0,0
-28,-118,0,0,0,0,0,0,0,0,0,-1,1196,1142,0,0
-21,-118,0,0,0,0,0,0,0,0,0,-1,1203,1142,0,0
-14,-118,0,0,0,0,0,0,0,0,0,-1,1210,1142,0,0
-7,-118,0,0,0,0,0,0,0,0,0,-1,1217,1142,0,0
0,-118,0,0,0,0,0,0,0,0,0,-1,1224,1142,0,0
7,-118,0,0,0,0,0,0,0,0,0,-1,1231,1142,0,0
14,-118,0,0,0,0,0,0,0,0,0,-1,1238,1142,0,0
21,-118,0,0,0,0,0,0,0,0,0,-1,1245,1142,0,0
28,-118,0,0,0,0,0,0,0,0,0,-1,1252,1142,0,0
35,-118,0,0,0,0,0,0,0,0,0,-1,1259,1142,0,0
42,-118,0,0,0,0,0,0,0,0,0,-1,1266,1142,0,0
49,-118,0,0,0,0,0,0,0,0,0,-1,1273,1142,0,0
56,-118,0,0,0,0,0,0,0,0,0,-1,1280,1142,0,0
63,-118,0,0,0,0,0,0,0,0,0,-1,1287,1142,0,0
70,-118,0,0,0,0,0,0,0,0,0,-1,1294,1142,0,0
77,-118,0,0,0,0,0,0,0,0,0,-1,1301,1142,0,0
84,-118,0,0,0,0,0,0,0,0,0,-1,1308,1142,0,0
91,-118,0,0,0,0,0,0,0,0,0,-1,1315,1142,0,0
98,-118,0,0,0,0,0,0,0,0,0,-1,1322,1142,0,0
105,-118,0,0,0,0,0,0,0,0,0,-1,1329,1142,0,0
112,-118,0,0,0,0,0,0,0,0,0,-1,1336,1142,0,0
119,-118,0,0,0,0,0,0,0,0,0,-1,1343,1142,0,0
126,-118,0,0,0,0,0,0,0,0,0,-1,1350,1142,0,0
133,-118,0,0,0,0,0,0,0,0,0,-1,1357,1142,0,0
140,-118,0,0,0,0,0,0,0,0,0,-1,1364,1142,0,0
147,-118,0,0,0,0,0,0,0,0,0,-1,1371,1142,0,0
154,-118,0,0,0,0,0,0,0,0,0,-1,1378,1142,0,0
161,-118,0,0,0,0,0,0,0,0,0,-1,1385,1142,0,0
168,-118,0,0,0,0,0,0,0,0,0,-1,1392,1142,0,0
175,-118,0,0,0,0,0,0,0,0,0,-1,1399,1142,0,0
182,-118,0,0,0,0,0,0,0,0,0,-1,1406,1142,0,0
189,-118,0,0,0,0,0,0,0,0,0,-1,1413,1142,0,0
196,-118,0,0,0,0,0,0,0,0,0,-1,1420,1142,0,0
203,-118,0,0,0,0,0,0,0,0,0,-1,1427,1142,0,0
210,-118,0,0,0,0,0,0,0,0,0,-1,1434,1142,0,0
217,-118,0,0,0,0,0,0,0,0,0,-1,1441,1142,0,0
224,-118,0,0,0,0,0,0,0,0,0,-1,1448,1142,0,0
231,-118,0,0,0,0,0,0,0,0,0,-1,1455,1142,0,0
238,-118,0,0,0,0,0,0,0,0,0,-1,1462,1142,0,0
245,-118,0,0,0,0,0,0,0,0,0,-1,1469,1142,0,0
252,-118,0,0,0,0,0,0,0,0,0,-1,1476,1142,0,0
259,-118,0,0,0,0,0,0,0,0,0,-1,1483,1142,0,0
266,-118,0,0,0,0,0,0,0,0,0,-1,1490,1142,0,0
273,-118,0,0,0,0,0,0,0,0,0,-1,1497,1142,0,0
280,-118,0,0,0,0,0,0,0,0,0,-1,1504,1142,0,0
287,-118,0,0,0,0,0,0,0,0,0,-1,1511,1142,0,0
294,-118,0,0,0,0,0,0,0,0,0,-1,1518,1142,0,0
301,-118,0,0,0,0,0,0,0,0,0,-1,1525,1142,0,0
308,-118,0,0,0,0,0,0,0,0,0,-1,1532,1142,0,0
315,-118,0,0,0,0,0,0,0,0,0,-1,1539,1142,0,0
322,-118,0,0,0,0,0,0,0,0,0,-1,1546,1142,0,0
329,-118,0,0,0,0,0,0,0,0,0,-1,1553,1142,0,0
336,-118,0,0,0,0,0,0,0,0,0,-1,1560,1142,0,0
343,-118,0,0,0,0,0,0,0,0,0,-1,1567,1142,0,0
350,-118,0,0,0,0,0,0,0,0,0,-1,1574,1142,0,0
357,-118,0,0,0,0,0,0,0,0,0,-1,1581,1142,0,0
364,-118,0,0,0,0,0,0,0,0,0,-1,1588,1142,0,0
371,-118,0,0,0,0,0,0,0,0,0,-1,1595,1142,0,0
378,-118,0,0,0,0,0,0,0,0,0,-1,1602,1142,0,0
385,-118,0,0,0,0,0,0,0,0,0,-1,1609,1142,0,0
392,-118,0,0,0,0,0,0,0,0,0,-1,1616,1142,0,0
399,-118,0,0,0,0,0,0,0,0,0,-1,1623,1142,0,0
406,-118,0,0,0,0,0,0,0,0,0,-1,1630,1142,0,0
413,-118,0,0,0,0,0,0,0,0,0,-1,1637,1142,0,0
420,-118,0,0,0,0,0,0,0,0,0,-1,1644,1142,0,0
427,-118,0,0,0,0,0,0,0,0,0,-1,1651,1142,0,0
434,-118,0,0,0,0,0,0,0,0,0,-1,1658,1142,0,0
441,-118,0,0,0,0,0,0,0,0,0,-1,1665,1142,0,0
448,-118,0,0,0,0,0,0,0,0,0,-1,1672,1142,0,0
455,-118,0,0,0,0,0,0,0,0,0,-1,1679,1142,0,0
462,-118,0,0,0,0,0,0,0,0,0,-1,1686,1142,0,0
469,-118,0,0,0,0,0,0,0,0,0,-1,1693,1142,0,0
476,-118,0,0,0,0,0,0,0,0,0,-1,1700,1142,0,0
483,-118,0,0,0,0,0,0,0,0,0,-1,1707,1142,0,0
490,-118,0,0,0,0,0,0,0,0,0,-1,1714,1142,0,0
497,-118,0,0,0,0,0,0,0,0,0,-1,1721,1142,0,0
504,-118,0,0,0,0,0,0,0,0,0,-1,1728,1142,0,0
511,-118,0,0,0,0,0,0,0,0,0,-1,1735,1142,0,0
518,-118,0,0,0,0,0,0,0,0,0,-1,1742,1142,0,0
525,-118,0,0,0,0,0,0,0,0,0,-1,1749,1142,0,0
532,-118,0,0,0,0,0,0,0,0,0,-1,1756,1142,0,0
539,-118,0,0,0,0,0,0,0,0,0,-1,1763,1142,0,0
546,-118,0,0,0,0,0,0,0,0,0,-1,1770,1142,0,0
553,-118,0,0,0,0,0,0,0,0,0,-1,1777,1142,0,0
560,-118,0,0,0,0,0,0,0,0,0,-1,1784,1142,0,0
567,-118,0,0,0,0,0,0,0,0,0,-1,1791,1142,0,0
574,-118,0,0,0,0,0,0,0,0,0,-1,1798,1142,0,0
581,-118,0,0,0,0,0,0,0,0,0,-1,1805,1142,0,0
588,-118,0,0,0,0,0,0,0,0,0,-1,1812,1142,0,0
595,-118,0,0,0,0,0,0,0,0,0,-1,1819,1142,0,0
602,-118,0,0,0,0,0,0,0,0,0,-1,1826,1142,0,0
609,-118,0,0,0,0,0,0,0,0,0,-1,1833,1142,0,0
616,-118,0,0,0,0,0,0,0,0,0,-1,1840,1142,0,0
623,-118,0,0,0,0,0,0,0,0,0,-1,1847,1142,0,0
630,-118,0,0,0,0,0,0,0,0,0,-1,1854,1142,0,0
637,-118,0,0,0,0,0,0,0,0,0,-1,1861,1142,0,0
644,-118,17.6617,2.73462,0.00349702,-0.0030215,0.00147813,0.00381654,-0.00334101,0.212888,0.00413545,0.0399799,1868,1142,17.6617,-2.7346
651,-118,17.6129,2.58496,0.00284191,-0.00220062,0.00123765,0.0031293,-0.00248802,0.228165,0.0032502,0.0405023,1875,1142,17.6129,-2.58491
658,-118,17.467,2.59009,0.00245282,-0.00150496,0.000930668,0.00266074,-0.00171288,0.219802,0.0025448,0.0447036,1882,1142,17.4671,-2.59005
665,-118,17.5234,2.53503,0.00127553,-0.00120919,0.00144982,0.00194248,-0.00187613,0.431153,0.00220478,0.0444943,1889,1142,17.5234,-2.53498
672,-118,17.5327,2.56372,-0.000476637,-0.0013128,0.00260565,0.00174426,-0.0035337,0.70585,0.00310506,0.0464086,1896,1142,17.5328,-2.56377
679,-118,17.597,2.67883,-0.00220391,-0.00155125,0.00374363,0.00188025,-0.00563541,0.828873,0.0045161,0.0433663,1903,1142,17.597,-2.67885
686,-118,17.6135,2.78577,-0.00374283,-0.00185232,0.00476311,0.00205842,-0.00765357,0.883352,0.00590926,0.0371303,1910,1142,17.6135,-2.78573
693,-118,17.5684,2.64758,-0.00496677,-0.00207849,0.00556748,0.00222909,-0.00927436,0.912296,0.00704449,0.0378837,1917,1142,17.5683,-2.64763
700,-118,17.6414,2.53992,-0.0058679,-0.00226722,0.00608145,0.00227478,-0.0104099,0.929307,0.00780942,0.0247807,1924,1142,17.6413,-2.53995
707,-118,17.752,2.66382,0,0,0,0,0,0,0,-1,1931,1142,17.752,-2.66381
714,-118,17.2206,3.43042,0,0,0,0,0,0,0,-1,1938,1142,17.2206,-3.4304
721,-118,16.7472,3.82202,0,0,0,0,0,0,0,-1,1945,1142,16.7472,-3.82202
728,-118,16.8131,3.74292,-0.00641952,-0.0020823,0.00585575,0.0019935,-0.0104953,0.962737,0.00774735,0.0132242,1952,1142,16.8131,-3.7429
735,-118,16.798,3.67456,-0.00559138,-0.0017704,0.00486333,0.00154423,-0.00890601,0.972556,0.00651339,0.0130779,1959,1142,16.798,-3.67458
742,-118,16.8312,3.57947,-0.00447298,-0.00114802,0.00359122,0.00114686,-0.00676786,1.00218,0.00493878,0.0195163,1966,1142,16.8312,-3.5795
749,-118,16.8485,3.50439,-0.00292913,0.000514293,0.00195068,0.0013944,-0.00380923,1.14696,0.00311028,0.0200463,1973,1142,16.8486,-3.50441
756,-118,16.8152,3.44739,-0.0012123,0.00234542,0.000157377,0.00235237,-0.00121924,1.52668,0.00209638,0.0178049,1980,1142,16.8152,-3.44738
763,-118,16.7833,3.37769,0.00107471,0.00453956,-0.00226326,0.00565733,-4.3063e-05,-1.11206,0.00378599,0.0102329,1987,1142,16.7833,-3.37775
770,-118,16.7744,3.33154,0.00320999,0.00728051,-0.00459836,0.0102739,0.000216611,-0.993742,0.00677821,0.0115984,1994,1142,16.7744,-3.3316
777,-118,16.7778,3.21606,0.00518256,0.0105069,-0.00675054,0.0151013,0.00058823,-0.973218,0.00987727,0.0257915,2001,1142,16.7778,-3.21601
784,-118,16.7697,3.0885,0.00735342,0.0145311,-0.00912161,0.0207445,0.00114004,-0.972819,0.0134657,0.0457085,2008,1142,16.7696,-3.08856
791,-118,16.7655,3.00427,0,0,0,0,0,0,0,-1,2015,1142,16.7655,-3.00426
798,-118,17.719,1.14099,0,0,0,0,0,0,0,-1,2022,1142,17.719,-1.14101
805,-118,17.8793,1.59753,0,0,0,0,0,0,0,-1,2029,1142,17.8793,-1.59751
812,-118,18.1418,1.42212,0,0,0,0,0,0,0,-1,2036,1142,18.1419,-1.42218
-700,-125,0,0,0,0,0,0,0,0,0,-1,524,1149,0,0
-693,-125,-11.9769,3.29602,0.101495,0.0555033,-0.126981,0.207546,-0.0505477,-0.695821,0.157933,0.0497157,531,1149,-11.977,-3.29598
-686,-125,-11.4814,2.90161,0.0736738,0.0496135,-0.0937909,0.156203,-0.0329157,-0.721614,0.116665,0.0477527,538,1149,-11.4814,-2.90159
-679,-125,-11.3599,2.04443,0,0,0,0,0,0,0,-1,545,1149,-11.3599,-2.04446
-672,-125,-10.9564,1.4353,0.0369053,0.0348119,-0.0489435,0.0848133,-0.013096,-0.774707,0.061375,0.0472214,552,1149,-10.9563,-1.43531
-665,-125,-10.5715,0.886475,0.0252484,0.0277088,-0.034367,0.0608676,-0.00791038,-0.803289,0.0434558,0.0429759,559,1149,-10.5714,-0.886482
-658,-125,-10.7621,0.71936,0.0168431,0.0213703,-0.0236502,0.042865,-0.00465161,-0.833108,0.0302467,0.0380578,566,1149,-10.7621,-0.719398
-651,-125,-10.5411,0.765625,0.0109263,0.0159653,-0.0159512,0.0295948,-0.00270317,-0.863727,0.0206899,0.0344947,573,1149,-10.5412,-0.765582
-644,-125,-10.3426,0.876221,0.00692515,0.0115377,-0.0105761,0.020056,-0.00159317,-0.89275,0.0139321,0.0233046,580,1149,-10.3426,-0.876203
-637,-125,-10.3771,0.959717,0.00281176,0.0087275,-0.00589455,0.0123647,-0.000825428,-1.01794,0.00853158,0.0127964,587,1149,-10.3771,-0.959663
-630,-125,-10.3834,1.0741,-0.000541708,0.0039117,-0.00321612,0.00559673,-0.00222673,-1.08819,0.00465446,0.0141891,594,1149,-10.3833,-1.07409
-623,-125,-10.4202,1.16394,-0.00186059,0.00180821,-0.0043247,0.00467148,-0.00472386,-0.985981,0.00542443,0.0126724,601,1149,-10.4202,-1.16393
-616,-125,-10.4254,1.23975,-0.00321632,-0.000102946,-0.00490054,0.00348222,-0.00680148,-0.939186,0.00603951,0.0119129,608,1149,-10.4254,-1.23979
-609,-125,-10.4279,1.31348,-0.00418027,-0.00113415,-0.005831,0.00336941,-0.00868384,-0.913144,0.00718088,0.013218,615,1149,-10.4279,-1.31348
-602,-125,-10.4523,1.43445,-0.00505937,-0.00166304,-0.00673249,0.00358215,-0.0103046,-0.908938,0.00832475,0.0126936,622,1149,-10.4524,-1.43442
-595,-125,-10.4471,1.55542,-0.00617566,-0.00209859,-0.00761908,0.00374996,-0.0120242,-0.916115,0.00951569,0.0111276,629,1149,-10.4471,-1.55538
-588,-125,-10.331,1.67468,-0.00695849,-0.00245915,-0.00805196,0.00365151,-0.0130691,-0.921622,0.0101513,0.0173536,636,1149,-10.331,-1.67463
-581,-125,-10.6389,1.20703,-0.00700155,-0.0027498,-0.00805344,0.00345363,-0.013205,-0.91444,0.0101523,0.0409356,643,1149,-10.6388,-1.20707
-574,-125,-11.0505,0.605225,0,0,0,0,0,0,0,-1,650,1149,-11.0506,-0.605245
-567,-125,-11.2217,0.642334,-0.00550989,-0.00281594,-0.00730982,0.00326998,-0.0115958,-0.876511,0.00902031,0.038713,657,1149,-11.2217,-0.64236
-560,-125,-11.2585,0.518677,-0.00419862,-0.00271104,-0.0061854,0.00277513,-0.00968479,-0.845236,0.00755345,0.0383696,664,1149,-11.2585,-0.518732
-553,-125,-11.3929,0.702515,-0.00223855,-0.00256226,-0.00452552,0.00212801,-0.00692882,-0.767524,0.00546836,0.0409176,671,1149,-11.393,-0.702562
-546,-125,-11.2708,0.609375,0.000425883,-0.0024394,-0.00235268,0.0017478,-0.00376131,-0.511915,0.00325073,0.0394733,678,1149,-11.2708,-0.609433
-539,-125,-11.1873,0.688477,0.00393697,-0.00240652,0.000294944,0.00395065,-0.0024202,0.0463623,0.00371343,0.0391544,685,1149,-11.1872,-0.688491
-532,-125,-11.2444,0.759155,0.00815715,-0.00262449,0.00282439,0.00885222,-0.00331956,0.241302,0.00726535,0.0379661,692,1149,-11.2444,-0.759127
-525,-125,-11.2691,0.915405,0.0110099,-0.00400936,0.00278216,0.0115087,-0.00450816,0.1774,0.00953725,0.0454583,699,1149,-11.2691,-0.915363
-518,-125,0,0,0,0,0,0,0,0,0,-1,706,1149,0,0
-511,-125,0,0,0,0,0,0,0,0,0,-1,713,1149,0,0
-504,-125,0,0,0,0,0,0,0,0,0,-1,720,1149,0,0
-497,-125,0,0,0,0,0,0,0,0,0,-1,727,1149,0,0
-490,-125,0,0,0,0,0,0,0,0,0,-1,734,1149,0,0
-483,-125,0,0,0,0,0,0,0,0,0,-1,741,1149,0,0
-476,-125,0,0,0,0,0,0,0,0,0,-1,748,1149,0,0
-469,-125,0,0,0,0,0,0,0,0,0,-1,755,1149,0,0
-462,-125,0,0,0,0,0,0,0,0,0,-1,762,1149,0,0
-455,-125,0,0,0,0,0,0,0,0,0,-1,769,1149,0,0
-448,-125,0,0,0,0,0,0,0,0,0,-1,776,1149,0,0
-441,-125,0,0,0,0,0,0,0,0,0,-1,783,1149,0,0
-434,-125,0,0,0,0,0,0,0,0,0,-1,790,1149,0,0
-427,-125,0,0,0,0,0,0,0,0,0,-1,797,1149,0,0
-420,-125,0,0,0,0,0,0,0,0,0,-1,804,1149,0,0
-413,-125,0,0,0,0,0,0,0,0,0,-1,811,1149,0,0
-406,-125,0,0,0,0,0,0,0,0,0,-1,818,1149,0,0
-399,-125,0,0,0,0,0,0,0,0,0,-1,825,1149,0,0
-392,-125,0,0,0,0,0,0,0,0,0,-1,832,1149,0,0
-385,-125,0,0,0,0,0,0,0,0,0,-1,839,1149,0,0
-378,-125,0,0,0,0,0,0,0,0,0,-1,846,1149,0,0
-371,-125,0,0,0,0,0,0,0,0,0,-1,853,1149,0,0
-364,-125,0,0,0,0,0,0,0,0,0,-1,860,1149,0,0
-357,-125,0,0,0,0,0,0,0,0,0,-1,867,1149,0,0
-350,-125,0,0,0,0,0,0,0,0,0,-1,874,1149,0,0
-343,-125,0,0,0,0,0,0,0,0,0,-1,881,1149,0,0
-336,-125,0,0,0,0,0,0,0,0,0,-1,888,1149,0,0
-329,-125,0,0,0,0,0,0,0,0,0,-1,895,1149,0,0
-322,-125,0,0,0,0,0,0,0,0,0,-1,902,1149,0,0
-315,-125,0,0,0,0,0,0,0,0,0,-1,909,1149,0,0
-308,-125,0,0,0,0,0,0,0,0,0,-1,916,1149,0,0
-301,-125,0,0,0,0,0,0,0,0,0,-1,923,1149,0,0
-294,-125,0,0,0,0,0,0,0,0,0,-1,930,1149,0,0
-287,-125,0,0,0,0,0,0,0,0,0,-1,937,1149,0,0
-280,-125,0,0,0,0,0,0,0,0,0,-1,944,1149,0,0
-273,-125,0,0,0,0,0,0,0,0,0,-1,951,1149,0,0
-266,-125,0,0,0,0,0,0,0,0,0,-1,958,1149,0,0
-259,-125,0,0,0,0,0,0,0,0,0,-1,965,1149,0,0
-252,-125,0,0,0,0,0,0,0,0,0,-1,972,1149,0,0
-245,-125,0,0,0,0,0,0,0,0,0,-1,979,1149,0,0
-238,-125,0,0,0,0,0,0,0,0,0,-1,986,1149,0,0
-231,-125,0,0,0,0,0,0,0,0,0,-1,993,1149,0,0
-224,-125,0,0,0,0,0,0,0,0,0,-1,1000,1149,0,0
-217,-125,0,0,0,0,0,0,0,0,0,-1,1007,1149,0,0
-210,-125,0,0,0,0,0,0,0,0,0,-1,1014,1149,0,0
-203,-125,0,0,0,0,0,0,0,0,0,-1,1021,1149,0,0
-196,-125,0,0,0,0,0,0,0,0,0,-1,1028,1149,0,0
-189,-125,0,0,0,0,0,0,0,0,0,-1,1035,1149,0,0
-182,-125,0,0,0,0,0,0,0,0,0,-1,1042,1149,0,0
-175,-125,0,0,0,0,0,0,0,0,0,-1,1049,1149,0,0
-168,-125,0,0,0,0,0,0,0,0,0,-1,1056,1149,0,0
-161,-125,0,0,0,0,0,0,0,0,0,-1,1063,1149,0,0
-154,-125,0,0,0,0,0,0,0,0,0,-1,1070,1149,0,0
-147,-125,0,0,0,0,0,0,0,0,0,-1,1077,1149,0,0
-140,-125,0,0,0,0,0,0,0,0,0,-1,1084,1149,0,0
-133,-125,0,0,0,0,0,0,0,0,0,-1,1091,1149,0,0
-126,-125,0,0,0,0,0,0,0,0,0,-1,1098,1149,0,0
-119,-125,0,0,0,0,0,0,0,0,0,-1,1105,1149,0,0
-112,-125,0,0,0,0,0,0,0,0,0,-1,1112,1149,0,0
-105,-125,0,0,0,0,0,0,0,0,0,-1,1119,1149,0,0
-98,-125,0,0,0,0,0,0,0,0,0,-1,1126,1149,0,0
-91,-125,0,0,0,0,0,0,0,0,0,-1,1133,1149,0,0
-84,-125,0,0,0,0,0,0,0,0,0,-1,1140,1149,0,0
-77,-125,0,0,0,0,0,0,0,0,0,-1,1147,1149,0,0
-70,-125,0,0,0,0,0,0,0,0,0,-1,1154,1149,0,0
-63,-125,0,0,0,0,0,0,0,0,0,-1,1161,1149,0,0
-56,-125,0,0,0,0,0,0,0,0,0,-1,1168,1149,0,0
-49,-125,0,0,0,0,0,0,0,0,0,-1,1175,1149,0,0
-42,-125,0,0,0,0,0,0,0,0,0,-1,1182,1149,0,0
-35,-125,0,0,0,0,0,0,0,0,0,-1,1189,1149,0,0
-28,-125,0,0,0,0,0,0,0,0,0,-1,1196,1149,0,0
-21,-125,0,0,0,0,0,0,0,0,0,-1,1203,1149,0,0
-14,-125,0,0,0,0,0,0,0,0,0,-1,1210,1149,0,0
-7,-125,0,0,0,0,0,0,0,0,0,-1,1217,1149,0,0
0,-125,0,0,0,0,0,0,0,0,0,-1,1224,1149,0,0
7,-125,0,0,0,0,0,0,0,0,0,-1,1231,1149,0,0
14,-125,0,0,0,0,0,0,0,0,0,-1,1238,1149,0,0
21,-125,0,0,0,0,0,0,0,0,0,-1,1245,1149,0,0
28,-125,0,0,0,0,0,0,0,0,0,-1,1252,1149,0,0
35,-125,0,0,0,0,0,0,0,0,0,-1,1259,1149,0,0
42,-125,0,0,0,0,0,0,0,0,0,-1,1266,1149,0,0
49,-125,0,0,0,0,0,0,0,0,0,-1,1273,1149,0,0
56,-125,0,0,0,0,0,0,0,0,0,-1,1280,1149,0,0
63,-125,0,0,0,0,0,0,0,0,0,-1,1287,1149,0,0
70,-125,0,0,0,0,0,0,0,0,0,-1,1294,1149,0,0
77,-125,0,0,0,0,0,0,0,0,0,-1,1301,1149,0,0
84,-125,0,0,0,0,0,0,0,0,0,-1,1308,1149,0,0
91,-125,0,0,0,0,0,0,0,0,0,-1,1315,1149,0,0
98,-125,0,0,0,0,0,0,0,0,0,-1,1322,1149,0,0
105,-125,0,0,0,0,0,0,0,0,0,-1,1329,1149,0,0
112,-125,0,0,0,0,0,0,0,0,0,-1,1336,1149,0,0
119,-125,0,0,0,0,0,0,0,0,0,-1,1343,1149,0,0
126,-125,0,0,0,0,0,0,0,0,0,-1,1350,1149,0,0
133,-125,0,0,0,0,0,0,0,0,0,-1,1357,1149,0,0
140,-125,0,0,0,0,0,0,0,0,0,-1,1364,1149,0,0
147,-125,0,0,0,0,0,0,0,0,0,-1,1371,1149,0,0
154,-125,0,0,0,0,0,0,0,0,0,-1,1378,1149,0,0
161,-125,0,0,0,0,0,0,0,0,0,-1,1385,1149,0,0
168,-125,0,0,0,0,0,0,0,0,0,-1,1392,1149,0,0
175,-125,0,0,0,0,0,0,0,0,0,-1,1399,1149,0,0
182,-125,0,0,0,0,0,0,0,0,0,-1,1406,1149,0,0
189,-125,0,0,0,0,0,0,0,0,0,-1,1413,1149,0,0
196,-125,0,0,0,0,0,0,0,0,0,-1,1420,1149,0,0
203,-125,0,0,0,0,0,0,0,0,0,-1,1427,1149,0,0
210,-125,0,0,0,0,0,0,0,0,0,-1,1434,1149,0,0
217,-125,0,0,0,0,0,0,0,0,0,-1,1441,1149,0,0
224,-125,0,0,0,0,0,0,0,0,0,-1,1448,1149,0,0
231,-125,0,0,0,0,0,0,0,0,0,-1,1455,1149,0,0
238,-125,0,0,0,0,0,0,0,0,0,-1,1462,1149,0,0
245,-125,0,0,0,0,0,0,0,0,0,-1,1469,1149,0,0
252,-125,0,0,0,0,0,0,0,0,0,-1,1476,1149,0,0
259,-125,0,0,0,0,0,0,0,0,0,-1,1483,1149,0,0
266,-125,0,0,0,0,0,0,0,0,0,-1,1490,1149,0,0
273,-125,0,0,0,0,0,0,0,0,0,-1,1497,1149,0,0
280,-125,0,0,0,0,0,0,0,0,0,-1,1504,1149,0,0
287,-125,0,0,0,0,0,0,0,0,0,-1,1511,1149,0,0
294,-125,0,0,0,0,0,0,0,0,0,-1,1518,1149,0,0
301,-125,0,0,0,0,0,0,0,0,0,-1,1525,1149,0,0
308,-125,0,0,0,0,0,0,0,0,0,-1,1532,1149,0,0
315,-125,0,0,0,0,0,0,0,0,0,-1,1539,1149,0,0
322,-125,0,0,0,0,0,0,0,0,0,-1,1546,1149,0,0
329,-125,0,0,0,0,0,0,0,0,0,-1,1553,1149,0,0
336,-125,0,0,0,0,0,0,0,0,0,-1,1560,1149,0,0
343,-125,0,0,0,0,0,0,0,0,0,-1,1567,1149,0,0
350,-125,0,0,0,0,0,0,0,0,0,-1,1574,1149,0,0
357,-125,0,0,0,0,0,0,0,0,0,-1,1581,1149,0,0
364,-125,0,0,0,0,0,0,0,0,0,-1,1588,1149,0,0
371,-125,0,0,0,0,0,0,0,0,0,-1,1595,1149,0,0
378,-125,0,0,0,0,0,0,0,0,0,-1,1602,1149,0,0
385,-125,0,0,0,0,0,0,0,0,0,-1,1609,1149,0,0
392,-125,0,0,0,0,0,0,0,0,0,-1,1616,1149,0,0
399,-125,0,0,0,0,0,0,0,0,0,-1,1623,1149,0,0
406,-125,0,0,0,0,0,0,0,0,0,-1,1630,1149,0,0
413,-125,0,0,0,0,0,0,0,0,0,-1,1637,1149,0,0
420,-125,0,0,0,0,0,0,0,0,0,-1,1644,1149,0,0
427,-125,0,0,0,0,0,0,0,0,0,-1,1651,1149,0,0
434,-125,0,0,0,0,0,0,0,0,0,-1,1658,1149,0,0
441,-125,0,0,0,0,0,0,0,0,0,-1,1665,1149,0,0
448,-125,0,0,0,0,0,0,0,0,0,-1,1672,1149,0,0
455,-125,0,0,0,0,0,0,0,0,0,-1,1679,1149,0,0
462,-125,0,0,0,0,0,0,0,0,0,-1,1686,1149,0,0
469,-125,0,0,0,0,0,0,0,0,0,-1,1693,1149,0,0
476,-125,0,0,0,0,0,0,0,0,0,-1,1700,1149,0,0
483,-125,0,0,0,0,0,0,0,0,0,-1,1707,1149,0,0
490,-125,0,0,0,0,0,0,0,0,0,-1,1714,1149,0,0
497,-125,0,0,0,0,0,0,0,0,0,-1,1721,1149,0,0
504,-125,0,0,0,0,0,0,0,0,0,-1,1728,1149,0,0
511,-125,0,0,0,0,0,0,0,0,0,-1,1735,1149,0,0
518,-125,0,0,0,0,0,0,0,0,0,-1,1742,1149,0,0
525,-125,0,0,0,0,0,0,0,0,0,-1,1749,1149,0,0
532,-125,0,0,0,0,0,0,0,0,0,-1,1756,1149,0,0
539,-125,0,0,0,0,0,0,0,0,0,-1,1763,1149,0,0
546,-125,0,0,0,0,0,0,0,0,0,-1,1770,1149,0,0
553,-125,0,0,0,0,0,0,0,0,0,-1,1777,1149,0,0
560,-125,0,0,0,0,0,0,0,0,0,-1,1784,1149,0,0
567,-125,0,0,0,0,0,0,0,0,0,-1,1791,1149,0,0
574,-125,0,0,0,0,0,0,0,0,0,-1,1798,1149,0,0
581,-125,0,0,0,0,0,0,0,0,0,-1,1805,1149,0,0
588,-125,0,0,0,0,0,0,0,0,0,-1,1812,1149,0,0
595,-125,0,0,0,0,0,0,0,0,0,-1,1819,1149,0,0
602,-125,0,0,0,0,0,0,0,0,0,-1,1826,1149,0,0
609,-125,0,0,0,0,0,0,0,0,0,-1,1833,1149,0,0
616,-125,0,0,0,0,0,0,0,0,0,-1,1840,1149,0,0
623,-125,0,0,0,0,0,0,0,0,0,-1,1847,1149,0,0
630,-125,0,0,0,0,0,0,0,0,0,-1,1854,1149,0,0
637,-125,0,0,0,0,0,0,0,0,0,-1,1861,1149,0,0
644,-125,17.6583,2.16724,0.00223656,-0.00291405,0.00106098,0.00244655,-0.00312404,0.195396,0.0032241,0.0404666,1868,1149,17.6583,-2.16726
651,-125,17.3666,2.43298,0.00204082,-0.00197767,0.000716982,0.00216491,-0.00210176,0.171378,0.00246346,0.0406884,1875,1149,17.3665,-2.43298
658,-125,17.1689,2.53552,0.00176262,-0.00121519,0.000473478,0.00183609,-0.00128866,0.153946,0.00181328,0.0440407,1882,1149,17.1689,-2.53547
665,-125,17.4203,2.59631,0.000511417,-0.000890012,0.00111374,0.00112653,-0.00150513,0.504607,0.00152462,0.045456,1889,1149,17.4202,-2.59637
672,-125,17.6211,2.71606,-0.00126434,-0.000942175,0.00226162,0.00116409,-0.00337061,0.82095,0.00271946,0.0466153,1896,1149,17.6211,-2.71603
679,-125,17.6804,2.86304,-0.00298046,-0.00114808,0.00336753,0.00142566,-0.00555421,0.918216,0.00425833,0.0415153,1903,1149,17.6805,-2.86307
686,-125,17.6027,2.77271,-0.00450152,-0.00143012,0.00434582,0.00164336,-0.007575,0.955237,0.00567763,0.0364811,1910,1149,17.6027,-2.77273
693,-125,17.5361,2.51331,-0.00568143,-0.00164207,0.00509844,0.00182215,-0.00914565,0.973984,0.00678652,0.0365081,1917,1149,17.5361,-2.51334
700,-125,17.6537,2.58325,-0.00651313,-0.00184216,0.00558568,0.00187664,-0.0102319,0.983413,0.00752523,0.018971,1924,1149,17.6537,-2.58327
707,-125,17.9299,2.88672,0,0,0,0,0,0,0,-1,1931,1149,17.93,-2.88666
714,-125,17.1031,3.63464,-0.00733188,-0.00206014,0.0061059,0.00195454,-0.0113466,0.989161,0.00829302,0.0350512,1938,1149,17.1031,-3.63469
721,-125,16.7013,3.80493,-0.00724754,-0.001996,0.00594167,0.00187424,-0.0111178,0.993457,0.00810912,0.0177245,1945,1149,16.7013,-3.80488
728,-125,16.72,3.75317,-0.00670344,-0.00180081,0.00541908,0.00169559,-0.0101998,0.997801,0.00742987,0.0127096,1952,1149,16.72,-3.75322
735,-125,16.7025,3.66272,-0.00574711,-0.00152666,0.00449838,0.00133187,-0.00860564,1.00471,0.00622869,0.0155784,1959,1149,16.7025,-3.66269
742,-125,16.7236,3.5509,-0.00452847,-0.00101837,0.00333536,0.000995508,-0.00654235,1.02759,0.00472847,0.0230886,1966,1149,16.7236,-3.55085
749,-125,16.741,3.52185,-0.00291076,0.00054781,0.00180175,0.00131587,-0.00367882,1.16784,0.00298932,0.0260788,1973,1149,16.7409,-3.52186
756,-125,16.7397,3.47217,-0.00105861,0.00228427,0.000173649,0.00229327,-0.00106761,1.51904,0.00198295,0.0206989,1980,1149,16.7398,-3.47217
763,-125,16.7206,3.37891,0.00128895,0.00443767,-0.00197749,0.00539097,0.000335641,-1.12159,0.00348749,0.011051,1987,1149,16.7206,-3.37893
770,-125,16.7117,3.30725,0.00334272,0.00708489,-0.0039661,0.00959911,0.0008285,-1.0058,0.0061419,0.0127075,1994,1149,16.7117,-3.30725
777,-125,16.712,3.23499,0.00521649,0.0102758,-0.00578079,0.0140562,0.00143611,-0.991645,0.00893068,0.0254457,2001,1149,16.712,-3.23497
784,-125,16.6947,3.15564,0.00731908,0.0143568,-0.00782712,0.0194197,0.00225621,-0.996648,0.0122638,0.0443644,2008,1149,16.6947,-3.15559
791,-125,16.5812,3.14673,0.00989257,0.0195304,-0.0102318,0.0260213,0.00340164,-1.00548,0.0163322,0.0458065,2015,1149,16.5812,-3.14671
798,-125,16.3695,3.41785,0.0130547,0.0259324,-0.012929,0.0339371,0.00504995,-1.01643,0.0211434,0.0457811,2022,1149,16.3695,-3.41787
805,-125,17.9132,1.34436,0,0,0,0,0,0,0,-1,2029,1149,17.9132,-1.34434
812,-125,17.502,0.386597,0,0,0,0,0,0,0,-1,2036,1149,17.502,-0.386574
-700,-132,0,0,0,0,0,0,0,0,0,-1,524,1156,0,0
-693,-132,-10.9955,3.60754,0.12145,0.0674369,-0.136274,0.233368,-0.0444807,-0.687576,0.17233,0.0486457,531,1156,-10.9956,-3.60755
-686,-132,-10.5134,3.14966,0.0868221,0.0595745,-0.099173,0.173303,-0.0269061,-0.717139,0.125469,0.049585,538,1156,-10.5133,-3.14966
-679,-132,-11.0787,1.375,0,0,0,0,0,0,0,-1,545,1156,-11.0787,-1.375
-672,-132,-10.85,1.09302,0.0421962,0.0410822,-0.0501695,0.0918118,-0.0085334,-0.779847,0.0642416,0.0437407,552,1156,-10.85,-1.09306
-665,-132,-10.6173,0.847412,0.0284718,0.0324684,-0.0346611,0.0651887,-0.0042485,-0.814192,0.0449423,0.0408857,559,1156,-10.6173,-0.847405
-658,-132,-10.5702,0.807129,0.0187736,0.0248789,-0.0234609,0.0454849,-0.00183245,-0.850093,0.0309522,0.0422311,566,1156,-10.5702,-0.807133
-651,-132,-10.4307,0.896973,0.0120724,0.0184739,-0.0155671,0.0311659,-0.000619631,-0.88679,0.0209869,0.0376981,573,1156,-10.4307,-0.897021
-644,-132,-10.3174,0.941528,0.00761207,0.0132757,-0.0101536,0.020985,-9.72226e-05,-0.921392,0.0140225,0.0199282,580,1156,-10.3174,-0.941487
-637,-132,-10.2886,0.97583,0.00302293,0.00994754,-0.00533887,0.0128485,0.000121974,-1.07306,0.00852529,0.0115622,587,1156,-10.2886,-0.975803
-630,-132,-10.2866,1.06982,-0.00056424,0.00449252,-0.00257875,0.0055756,-0.00164732,-1.17317,0.00437091,0.0101673,594,1156,-10.2866,-1.06985
-623,-132,-10.3125,1.18201,-0.00184844,0.00208138,-0.00387721,0.00446315,-0.00423021,-1.01993,0.00501971,0.0151754,601,1156,-10.3125,-1.18198
-616,-132,-10.3324,1.28699,-0.00319502,3.98017e-05,-0.0046134,0.0033111,-0.00646632,-0.953999,0.00574213,0.0188347,608,1156,-10.3324,-1.28703
-609,-132,-10.2814,1.34875,-0.00405627,-0.00107901,-0.00573248,0.00335498,-0.00849026,-0.912434,0.00704982,0.0125094,615,1156,-10.2814,-1.34878
-602,-132,-10.3243,1.42993,-0.00513524,-0.00173694,-0.00666672,0.00344375,-0.0103159,-0.910177,0.00826783,0.0109938,622,1156,-10.3243,-1.42998
-595,-132,-10.3437,1.55054,-0.00645115,-0.00217482,-0.00762893,0.00360992,-0.0122359,-0.922028,0.00958978,0.0113232,629,1156,-10.3437,-1.55051
-588,-132,-10.2766,1.69092,-0.007252,-0.00256333,-0.00810818,0.00353262,-0.013348,-0.926127,0.0102805,0.0154606,636,1156,-10.2766,-1.69093
-581,-132,-10.5307,1.44287,-0.00731421,-0.00293215,-0.0081381,0.00330471,-0.0135511,-0.916896,0.0103136,0.0378286,643,1156,-10.5307,-1.44285
-574,-132,-10.9216,1.1106,0,0,0,0,0,0,0,-1,650,1156,-10.9216,-1.11065
-567,-132,-11.196,0.549927,-0.00574984,-0.0031332,-0.0074662,0.00313844,-0.0120215,-0.872134,0.00923988,0.0365469,657,1156,-11.196,-0.549961
-560,-132,-11.2942,0.438599,-0.00440696,-0.00312774,-0.0063836,0.00264822,-0.0101829,-0.83533,0.00782223,0.0351367,664,1156,-11.2942,-0.43854
-553,-132,-11.4599,0.484131,-0.00237542,-0.00308715,-0.00474502,0.00202706,-0.00748964,-0.747969,0.00578833,0.0376258,671,1156,-11.4599,-0.484167
-546,-132,-11.3998,0.526123,0.000407656,-0.00307292,-0.00256706,0.00176872,-0.00443399,-0.487518,0.00368969,0.0398178,678,1156,-11.3999,-0.52618
-539,-132,-11.2618,0.502197,0.00407606,-0.00313718,0.000117461,0.00407797,-0.00313909,0.0162783,0.00417851,0.0399737,685,1156,-11.2618,-0.502257
-532,-132,-11.1215,0.45105,0.00863804,-0.00338896,0.0028752,0.00929005,-0.00404096,0.222997,0.00789304,0.0394275,692,1156,-11.1215,-0.451038
-525,-132,-10.9827,0.760132,0.0122024,-0.00467045,0.00350271,0.0129006,-0.0053687,0.196766,0.0108425,0.0398937,699,1156,-10.9827,-0.760099
-518,-132,0,0,0,0,0,0,0,0,0,-1,706,1156,0,0
-511,-132,0,0,0,0,0,0,0,0,0,-1,713,1156,0,0
-504,-132,0,0,0,0,0,0,0,0,0,-1,720,1156,0,0
-497,-132,0,0,0,0,0,0,0,0,0,-1,727,1156,0,0
-490,-132,0,0,0,0,0,0,0,0,0,-1,734,1156,0,0
-483,-132,0,0,0,0,0,0,0,0,0,-1,741,1156,0,0
-476,-132,0,0,0,0,0,0,0,0,0,-1,748,1156,0,0
-469,-132,0,0,0,0,0,0,0,0,0,-1,755,1156,0,0
-462,-132,0,0,0,0,0,0,0,0,0,-1,762,1156,0,0
-455,-132,0,0,0,0,0,0,0,0,0,-1,769,1156,0,0
-448,-132,0,0,0,0,0,0,0,0,0,-1,776,1156,0,0
-441,-132,0,0,0,0,0,0,0,0,0,-1,783,1156,0,0
-434,-132,0,0,0,0,0,0,0,0,0,-1,790,1156,0,0
-427,-132,0,0,0,0,0,0,0,0,0,-1,797,1156,0,0
-420,-132,0,0,0,0,0,0,0,0,0,-1,804,1156,0,0
-413,-132,0,0,0,0,0,0,0,0,0,-1,811,1156,0,0
-406,-132,0,0,0,0,0,0,0,0,0,-1,818,1156,0,0
-399,-132,0,0,0,0,0,0,0,0,0,-1,825,1156,0,0
-392,-132,0,0,0,0,0,0,0,0,0,-1,832,1156,0,0
-385,-132,0,0,0,0,0,0,0,0,0,-1,839,1156,0,0
-378,-132,0,0,0,0,0,0,0,0,0,-1,846,1156,0,0
-371,-132,0,0,0,0,0,0,0,0,0,-1,853,1156,0,0
-364,-132,0,0,0,0,0,0,0,0,0,-1,860,1156,0,0
-357,-132,0,0,0,0,0,0,0,0,0,-1,867,1156,0,0
-350,-132,0,0,0,0,0,0,0,0,0,-1,874,1156,0,0
-343,-132,0,0,0,0,0,0,0,0,0,-1,881,1156,0,0
-336,-132,0,0,0,0,0,0,0,0,0,-1,888,1156,0,0
-329,-132,0,0,0,0,0,0,0,0,0,-1,895,1156,0,0
-322,-132,0,0,0,0,0,0,0,0,0,-1,902,1156,0,0
-315,-132,0,0,0,0,0,0,0,0,0,-1,909,1156,0,0
-308,-132,0,0,0,0,0,0,0,0,0,-1,916,1156,0,0
-301,-132,0,0,0,0,0,0,0,0,0,-1,923,1156,0,0
-294,-132,0,0,0,0,0,0,0,0,0,-1,930,1156,0,0
-287,-132,0,0,0,0,0,0,0,0,0,-1,937,1156,0,0
-280,-132,0,0,0,0,0,0,0,0,0,-1,944,1156,0,0
-273,-132,0,0,0,0,0,0,0,0,0,-1,951,1156,0,0
-266,-132,0,0,0,0,0,0,0,0,0,-1,958,1156,0,0
-259,-132,0,0,0,0,0,0,0,0,0,-1,965,1156,0,0
-252,-132,0,0,0,0,0,0,0,0,0,-1,972,1156,0,0
-245,-132,0,0,0,0,0,0,0,0,0,-1,979,1156,0,0
-238,-132,0,0,0,0,0,0,0,0,0,-1,986,1156,0,0
-231,-132,0,0,0,0,0,0,0,0,0,-1,993,1156,0,0
-224,-132,0,0,0,0,0,0,0,0,0,-1,1000,1156,0,0
-217,-132,0,0,0,0,0,0,0,0,0,-1,1007,1156,0,0
-210,-132,0,0,0,0,0,0,0,0,0,-1,1014,1156,0,0
-203,-132,0,0,0,0,0,0,0,0,0,-1,1021,1156,0,0
-196,-132,0,0,0,0,0,0,0,0,0,-1,1028,1156,0,0
-189,-132,0,0,0,0,0,0,0,0,0,-1,1035,1156,0,0
-182,-132,0,0,0,0,0,0,0,0,0,-1,1042,1156,0,0
-175,-132,0,0,0,0,0,0,0,0,0,-1,1049,1156,0,0
-168,-132,0,0,0,0,0,0,0,0,0,-1,1056,1156,0,0
-161,-132,0,0,0,0,0,0,0,0,0,-1,1063,1156,0,0
-154,-132,0,0,0,0,0,0,0,0,0,-1,1070,1156,0,0
-147,-132,0,0,0,0,0,0,0,0,0,-1,1077,1156,0,0
-140,-132,0,0,0,0,0,0,0,0,0,-1,1084,1156,0,0
-133,-132,0,0,0,0,0,0,0,0,0,-1,1091,1156,0,0
-126,-132,0,0,0,0,0,0,0,0,0,-1,1098,1156,0,0
-119,-132,0,0,0,0,0,0,0,0,0,-1,1105,1156,0,0
-112,-132,0,0,0,0,0,0,0,0,0,-1,1112,1156,0,0
-105,-132,0,0,0,0,0,0,0,0,0,-1,1119,1156,0,0
-98,-132,0,0,0,0,0,0,0,0,0,-1,1126,1156,0,0
-91,-132,0,0,0,0,0,0,0,0,0,-1,1133,1156,0,0
-84,-132,0,0,0,0,0,0,0,0,0,-1,1140,1156,0,0
-77,-132,0,0,0,0,0,0,0,0,0,-1,1147,1156,0,0
-70,-132,0,0,0,0,0,0,0,0,0,-1,1154,1156,0,0
-63,-132,0,0,0,0,0,0,0,0,0,-1,1161,1156,0,0
-56,-132,0,0,0,0,0,0,0,0,0,-1,1168,1156,0,0
-49,-132,0,0,0,0,0,0,0,0,0,-1,1175,1156,0,0
-42,-132,0,0,0,0,0,0,0,0,0,-1,1182,1156,0,0
-35,-132,0,0,0,0,0,0,0,0,0,-1,1189,1156,0,0
-28,-132,0,0,0,0,0,0,0,0,0,-1,1196,1156,0,0
-21,-132,0,0,0,0,0,0,0,0,0,-1,1203,1156,0,0
-14,-132,0,0,0,0,0,0,0,0,0,-1,1210,1156,0,0
-7,-132,0,0,0,0,0,0,0,0,0,-1,1217,1156,0,0
0,-132,0,0,0,0,0,0,0,0,0,-1,1224,1156,0,0
7,-132,0,0,0,0,0,0,0,0,0,-1,1231,1156,0,0
14,-132,0,0,0,0,0,0,0,0,0,-1,1238,1156,0,0
21,-132,0,0,0,0,0,0,0,0,0,-1,1245,1156,0,0
28,-132,0,0,0,0,0,0,0,0,0,-1,1252,1156,0,0
35,-132,0,0,0,0,0,0,0,0,0,-1,1259,1156,0,0
42,-132,0,0,0,0,0,0,0,0,0,-1,1266,1156,0,0
49,-132,0,0,0,0,0,0,0,0,0,-1,1273,1156,0,0
56,-132,0,0,0,0,0,0,0,0,0,-1,1280,1156,0,0
63,-132,0,0,0,0,0,0,0,0,0,-1,1287,1156,0,0
70,-132,0,0,0,0,0,0,0,0,0,-1,1294,1156,0,0
77,-132,0,0,0,0,0,0,0,0,0,-1,1301,1156,0,0
84,-132,0,0,0,0,0,0,0,0,0,-1,1308,1156,0,0
91,-132,0,0,0,0,0,0,0,0,0,-1,1315,1156,0,0
98,-132,0,0,0,0,0,0,0,0,0,-1,1322,1156,0,0
105,-132,0,0,0,0,0,0,0,0,0,-1,1329,1156,0,0
112,-132,0,0,0,0,0,0,0,0,0,-1,1336,1156,0,0
119,-132,0,0,0,0,0,0,0,0,0,-1,1343,1156,0,0
126,-132,0,0,0,0,0,0,0,0,0,-1,1350,1156,0,0
133,-132,0,0,0,0,0,0,0,0,0,-1,1357,1156,0,0
140,-132,0,0,0,0,0,0,0,0,0,-1,1364,1156,0,0
147,-132,0,0,0,0,0,0,0,0,0,-1,1371,1156,0,0
154,-132,0,0,0,0,0,0,0,0,0,-1,1378,1156,0,0
161,-132,0,0,0,0,0,0,0,0,0,-1,1385,1156,0,0
168,-132,0,0,0,0,0,0,0,0,0,-1,1392,1156,0,0
175,-132,0,0,0,0,0,0,0,0,0,-1,1399,1156,0,0
182,-132,0,0,0,0,0,0,0,0,0,-1,1406,1156,0,0
189,-132,0,0,0,0,0,0,0,0,0,-1,1413,1156,0,0
196,-132,0,0,0,0,0,0,0,0,0,-1,1420,1156,0,0
203,-132,0,0,0,0,0,0,0,0,0,-1,1427,1156,0,0
210,-132,0,0,0,0,0,0,0,0,0,-1,1434,1156,0,0
217,-132,0,0,0,0,0,0,0,0,0,-1,1441,1156,0,0
224,-132,0,0,0,0,0,0,0,0,0,-1,1448,1156,0,0
231,-132,0,0,0,0,0,0,0,0,0,-1,1455,1156,0,0
238,-132,0,0,0,0,0,0,0,0,0,-1,1462,1156,0,0
245,-132,0,0,0,0,0,0,0,0,0,-1,1469,1156,0,0
252,-132,0,0,0,0,0,0,0,0,0,-1,1476,1156,0,0
259,-132,0,0,0,0,0,0,0,0,0,-1,1483,1156,0,0
266,-132,0,0,0,0,0,0,0,0,0,-1,1490,1156,0,0
273,-132,0,0,0,0,0,0,0,0,0,-1,1497,1156,0,0
280,-132,0,0,0,0,0,0,0,0,0,-1,1504,1156,0,0
287,-132,0,0,0,0,0,0,0,0,0,-1,1511,1156,0,0
294,-132,0,0,0,0,0,0,0,0,0,-1,1518,1156,0,0
301,-132,0,0,0,0,0,0,0,0,0,-1,1525,1156,0,0
308,-132,0,0,0,0,0,0,0,0,0,-1,1532,1156,0,0
315,-132,0,0,0,0,0,0,0,0,0,-1,1539,1156,0,0
322,-132,0,0,0,0,0,0,0,0,0,-1,1546,1156,0,0
329,-132,0,0,0,0,0,0,0,0,0,-1,1553,1156,0,0
336,-132,0,0,0,0,0,0,0,0,0,-1,1560,1156,0,0
343,-132,0,0,0,0,0,0,0,0,0,-1,1567,1156,0,0
350,-132,0,0,0,0,0,0,0,0,0,-1,1574,1156,0,0
357,-132,0,0,0,0,0,0,0,0,0,-1,1581,1156,0,0
364,-132,0,0,0,0,0,0,0,0,0,-1,1588,1156,0,0
371,-132,0,0,0,0,0,0,0,0,0,-1,1595,1156,0,0
378,-132,0,0,0,0,0,0,0,0,0,-1,1602,1156,0,0
385,-132,0,0,0,0,0,0,0,0,0,-1,1609,1156,0,0
392,-132,0,0,0,0,0,0,0,0,0,-1,1616,1156,0,0
399,-132,0,0,0,0,0,0,0,0,0,-1,1623,1156,0,0
406,-132,0,0,0,0,0,0,0,0,0,-1,1630,1156,0,0
413,-132,0,0,0,0,0,0,0,0,0,-1,1637,1156,0,0
420,-132,0,0,0,0,0,0,0,0,0,-1,1644,1156,0,0
427,-132,0,0,0,0,0,0,0,0,0,-1,1651,1156,0,0
434,-132,0,0,0,0,0,0,0,0,0,-1,1658,1156,0,0
441,-132,0,0,0,0,0,0,0,0,0,-1,1665,1156,0,0
448,-132,0,0,0,0,0,0,0,0,0,-1,1672,1156,0,0
455,-132,0,0,0,0,0,0,0,0,0,-1,1679,1156,0,0
462,-132,0,0,0,0,0,0,0,0,0,-1,1686,1156,0,0
469,-132,0,0,0,0,0,0,0,0,0,-1,1693,1156,0,0
476,-132,0,0,0,0,0,0,0,0,0,-1,1700,1156,0,0
483,-132,0,0,0,0,0,0,0,0,0,-1,1707,1156,0,0
490,-132,0,0,0,0,0,0,0,0,0,-1,1714,1156,0,0
497,-132,0,0,0,0,0,0,0,0,0,-1,1721,1156,0,0
504,-132,0,0,0,0,0,0,0,0,0,-1,1728,1156,0,0
511,-132,0,0,0,0,0,0,0,0,0,-1,1735,1156,0,0
518,-132,0,0,0,0,0,0,0,0,0,-1,1742,1156,0,0
525,-132,0,0,0,0,0,0,0,0,0,-1,1749,1156,0,0
532,-132,0,0,0,0,0,0,0,0,0,-1,1756,1156,0,0
539,-132,0,0,0,0,0,0,0,0,0,-1,1763,1156,0,0
546,-132,0,0,0,0,0,0,0,0,0,-1,1770,1156,0,0
553,-132,0,0,0,0,0,0,0,0,0,-1,1777,1156,0,0
560,-132,0,0,0,0,0,0,0,0,0,-1,1784,1156,0,0
567,-132,0,0,0,0,0,0,0,0,0,-1,1791,1156,0,0
574,-132,0,0,0,0,0,0,0,0,0,-1,1798,1156,0,0
581,-132,0,0,0,0,0,0,0,0,0,-1,1805,1156,0,0
588,-132,0,0,0,0,0,0,0,0,0,-1,1812,1156,0,0
595,-132,0,0,0,0,0,0,0,0,0,-1,1819,1156,0,0
602,-132,0,0,0,0,0,0,0,0,0,-1,1826,1156,0,0
609,-132,0,0,0,0,0,0,0,0,0,-1,1833,1156,0,0
616,-132,0,0,0,0,0,0,0,0,0,-1,1840,1156,0,0
623,-132,0,0,0,0,0,0,0,0,0,-1,1847,1156,0,0
630,-132,0,0,0,0,0,0,0,0,0,-1,1854,1156,0,0
637,-132,0,0,0,0,0,0,0,0,0,-1,1861,1156,0,0
644,-132,17.5822,2.37061,0.0017557,-0.00274049,0.000764662,0.00188219,-0.00286697,0.163931,0.00276151,0.0428529,1868,1156,17.5822,-2.37066
651,-132,17.5511,2.64514,0.00170881,-0.00177482,0.000316073,0.00173726,-0.00180327,0.0897544,0.00204424,0.0405499,1875,1156,17.5512,-2.64508
658,-132,17.3362,2.59631,0.00135438,-0.000977989,0.000121352,0.00136067,-0.000984286,0.0518432,0.00135966,0.0423643,1882,1156,17.3361,-2.59635
665,-132,17.2963,2.54126,-3.44258e-05,-0.000627337,0.000832098,0.000552449,-0.00121421,0.614271,0.00104356,0.0429051,1889,1156,17.2963,-2.54123
672,-132,17.6025,2.77039,-0.00183392,-0.000610346,0.00191966,0.000792652,-0.00323692,0.939658,0.00246502,0.0410403,1896,1156,17.6025,-2.7704
679,-132,17.4614,2.54236,-0.00353804,-0.000754708,0.00295522,0.00112013,-0.00541288,1.00545,0.00403413,0.0398164,1903,1156,17.4615,-2.54231
686,-132,17.5251,2.62634,-0.00503823,-0.000993429,0.00386203,0.00134368,-0.00737535,1.0266,0.00542059,0.0365335,1910,1156,17.5251,-2.6264
693,-132,17.5754,2.57507,-0.00617001,-0.00116627,0.00454797,0.00152256,-0.00885884,1.03686,0.00647338,0.0306249,1917,1156,17.5755,-2.57506
700,-132,17.6982,2.60681,-0.00694047,-0.00134935,0.00500408,0.0015871,-0.00987692,1.04013,0.00717242,0.0346584,1924,1156,17.6982,-2.60683
707,-132,17.2162,3.64771,0,0,0,0,0,0,0,-1,1931,1156,17.2162,-3.64767
714,-132,16.8207,3.83997,-0.00768126,-0.00159495,0.00553501,0.00167831,-0.0109545,1.03674,0.00792193,0.0293421,1938,1156,16.8207,-3.84002
721,-132,16.6139,3.85876,-0.00751205,-0.00156959,0.00539827,0.00162113,-0.0107028,1.03698,0.00773241,0.0220872,1945,1156,16.6139,-3.85871
728,-132,16.6304,3.75269,-0.00686191,-0.00140697,0.00492058,0.0014915,-0.00976038,1.03847,0.00705683,0.0133347,1952,1156,16.6304,-3.75265
735,-132,16.6315,3.65051,-0.00580597,-0.00116626,0.00409171,0.00121748,-0.00818971,1.04328,0.0059076,0.0158008,1959,1156,16.6314,-3.65049
742,-132,16.6152,3.57288,-0.0044804,-0.000769805,0.00304327,0.000939111,-0.00618931,1.05914,0.00447223,0.019801,1966,1156,16.6152,-3.57287
749,-132,16.6444,3.54114,-0.00277613,0.000676551,0.00162924,0.00132396,-0.00342354,1.19256,0.00282891,0.0235701,1973,1156,16.6444,-3.54111
756,-132,16.676,3.46814,-0.000822253,0.00230803,0.000155005,0.00231569,-0.00082991,1.52144,0.00188243,0.0202593,1980,1156,16.6761,-3.46809
763,-132,16.6611,3.37012,0.00152252,0.00435469,-0.00174562,0.00518638,0.000690828,-1.12617,0.00325186,0.0115645,1987,1156,16.6612,-3.37011
770,-132,16.6445,3.31042,0.00345293,0.00685191,-0.00342509,0.00897597,0.00132887,-1.0157,0.00559389,0.011775,1994,1156,16.6445,-3.3104
777,-132,16.6254,3.23669,0.00516933,0.00992912,-0.00497838,0.0130672,0.00203124,-1.00836,0.00811953,0.0210449,2001,1156,16.6253,-3.23667
784,-132,16.5227,3.2373,0.00706049,0.0139483,-0.00678822,0.0181162,0.00289253,-1.02015,0.0112381,0.0412517,2008,1156,16.5227,-3.23736
791,-132,16.318,3.41504,0.00927987,0.0191378,-0.00892303,0.0244027,0.00401494,-1.03773,0.015109,0.0460764,2015,1156,16.318,-3.41504
798,-132,16.131,3.45459,0.0119425,0.0257121,-0.0113228,0.032079,0.00557571,-1.05856,0.019791,0.049225,2022,1156,16.131,-3.45461
805,-132,18.2471,1.24878,0,0,0,0,0,0,0,-1,2029,1156,18.2471,-1.24879
812,-132,17.6091,0.703735,0,0,0,0,0,0,0,-1,2036,1156,17.6091,-0.703773
-700,-139,0,0,0,0,0,0,0,0,0,-1,524,1163,0,0
-693,-139,-10.2767,4.0791,0.127594,0.079839,-0.139965,0.245703,-0.0382702,-0.700913,0.177936,0.0446588,531,1163,-10.2767,-4.07915
-686,-139,-9.71838,3.48193,0.0909757,0.0695024,-0.100669,0.181479,-0.0210011,-0.732273,0.128559,0.04856,538,1163,-9.71838,-3.48192
-679,-139,-10.6351,1.01721,0,0,0,0,0,0,0,-1,545,1163,-10.6351,-1.01719
-672,-139,-10.4148,0.813965,0.0443411,0.0470844,-0.0497918,0.0955234,-0.00409792,-0.799169,0.0650912,0.0440807,552,1163,-10.4148,-0.813939
-665,-139,-10.2111,0.587891,0.0301551,0.0370093,-0.0340341,0.0677885,-0.000624064,-0.835577,0.0454018,0.042826,559,1163,-10.2111,-0.58788
-658,-139,-10.438,0.934326,0.0201668,0.0282487,-0.0228111,0.047374,0.00104148,-0.873063,0.0312413,0.0477354,566,1163,-10.438,-0.934384
-651,-139,-10.3093,0.911865,0.0132492,0.0209233,-0.015014,0.0325828,0.00158968,-0.910503,0.0212118,0.0418681,573,1163,-10.3093,-0.911806
-644,-139,-10.1925,0.902832,0.00859521,0.015015,-0.00973255,0.0220534,0.0015569,-0.944687,0.0142117,0.021225,580,1163,-10.1925,-0.902874
-637,-139,-10.1685,0.959229,0.00380255,0.0112014,-0.00490724,0.0136475,0.00135652,-1.10839,0.00868153,0.0119097,587,1163,-10.1685,-0.95922
-630,-139,-10.1791,1.05347,9.32807e-05,0.00522394,-0.00213737,0.00599766,-0.000680441,-1.22347,0.00424348,0.0102144,594,1163,-10.1791,-1.05342
-623,-139,-10.2003,1.15405,-0.00130483,0.00254502,-0.00355662,0.00466422,-0.00342402,-1.03344,0.00468801,0.0161473,601,1163,-10.2003,-1.15408
-616,-139,-10.1974,1.24048,-0.00267048,0.0003886,-0.00444375,0.00355868,-0.00584056,-0.951147,0.0054797,0.0181848,608,1163,-10.1975,-1.24052
-609,-139,-10.1983,1.35083,-0.00358897,-0.000798143,-0.0057019,0.00367661,-0.00806372,-0.905403,0.00693423,0.0217061,615,1163,-10.1983,-1.35081
-602,-139,-10.2396,1.45813,-0.00480179,-0.00156949,-0.00660134,0.00361066,-0.00998193,-0.905448,0.00812998,0.0128405,622,1163,-10.2396,-1.45818
-595,-139,-10.2495,1.56653,-0.00620653,-0.00198649,-0.00762472,0.00381478,-0.0120078,-0.920387,0.00953466,0.0111445,629,1163,-10.2495,-1.56656
-588,-139,-10.197,1.70642,-0.00697584,-0.00235634,-0.00814315,0.00379829,-0.0131305,-0.92359,0.0102569,0.0147259,636,1163,-10.197,-1.7064
-581,-139,-10.2491,1.69202,-0.00699636,-0.00274836,-0.00820981,0.00360776,-0.0133525,-0.91198,0.0103167,0.0337054,643,1163,-10.2491,-1.69196
-574,-139,-10.7264,1.09998,-0.00627153,-0.00287404,-0.00807367,0.00367766,-0.0128232,-0.889088,0.0100027,0.0437227,650,1163,-10.7265,-1.10002
-567,-139,-11.3309,0.575928,0,0,0,0,0,0,0,-1,657,1163,-11.3309,-0.575959
-560,-139,-11.2036,0.520142,-0.00397027,-0.00303791,-0.00663283,0.0031451,-0.0101533,-0.820483,0.00802535,0.0356303,664,1163,-11.2036,-0.520156
-553,-139,-11.2321,0.441406,-0.00195241,-0.0030729,-0.00505668,0.00257496,-0.00760027,-0.730227,0.00610883,0.0380472,671,1163,-11.2321,-0.441365
-546,-139,-11.2968,0.482422,0.000790105,-0.00314884,-0.0029281,0.00234946,-0.00470819,-0.489345,0.0041499,0.0412185,678,1163,-11.2967,-0.482376
-539,-139,-11.2462,0.492065,0.00435829,-0.0033134,-0.000283075,0.00436872,-0.00332383,-0.0368319,0.00445493,0.0419482,685,1163,-11.2462,-0.492118
-532,-139,-11.1105,0.374878,0.00885549,-0.00364237,0.00258077,0.00936744,-0.00415432,0.195829,0.00799785,0.0409064,692,1163,-11.1105,-0.374911
-525,-139,-11.0992,0.486206,0.0126563,-0.00483185,0.00379559,0.0134446,-0.00562011,0.204766,0.0113118,0.0395552,699,1163,-11.0992,-0.486249
-518,-139,0,0,0,0,0,0,0,0,0,-1,706,1163,0,0
-511,-139,0,0,0,0,0,0,0,0,0,-1,713,1163,0,0
-504,-139,0,0,0,0,0,0,0,0,0,-1,720,1163,0,0
-497,-139,0,0,0,0,0,0,0,0,0,-1,727,1163,0,0
-490,-139,0,0,0,0,0,0,0,0,0,-1,734,1163,0,0
-483,-139,0,0,0,0,0,0,0,0,0,-1,741,1163,0,0
-476,-139,0,0,0,0,0,0,0,0,0,-1,748,1163,0,0
-469,-139,0,0,0,0,0,0,0,0,0,-1,755,1163,0,0
-462,-139,0,0,0,0,0,0,0,0,0,-1,762,1163,0,0
-455,-139,0,0,0,0,0,0,0,0,0,-1,769,1163,0,0
-448,-139,0,0,0,0,0,0,0,0,0,-1,776,1163,0,0
-441,-139,0,0,0,0,0,0,0,0,0,-1,783,1163,0,0
-434,-139,0,0,0,0,0,0,0,0,0,-1,790,1163,0,0
-427,-139,0,0,0,0,0,0,0,0,0,-1,797,1163,0,0
-420,-139,0,0,0,0,0,0,0,0,0,-1,804,1163,0,0
-413,-139,0,0,0,0,0,0,0,0,0,-1,811,1163,0,0
-406,-139,0,0,0,0,0,0,0,0,0,-1,818,1163,0,0
-399,-139,0,0,0,0,0,0,0,0,0,-1,825,1163,0,0
-392,-139,0,0,0,0,0,0,0,0,0,-1,832,1163,0,0
-385,-139,0,0,0,0,0,0,0,0,0,-1,839,1163,0,0
-378,-139,0,0,0,0,0,0,0,0,0,-1,846,1163,0,0
-371,-139,0,0,0,0,0,0,0,0,0,-1,853,1163,0,0
-364,-139,0,0,0,0,0,0,0,0,0,-1,860,1163,0,0
-357,-139,0,0,0,0,0,0,0,0,0,-1,867,1163,0,0
-350,-139,0,0,0,0,0,0,0,0,0,-1,874,1163,0,0
-343,-139,0,0,0,0,0,0,0,0,0,-1,881,1163,0,0
-336,-139,0,0,0,0,0,0,0,0,0,-1,888,1163,0,0
-329,-139,0,0,0,0,0,0,0,0,0,-1,895,1163,0,0
-322,-139,0,0,0,0,0,0,0,0,0,-1,902,1163,0,0
-315,-139,0,0,0,0,0,0,0,0,0,-1,909,1163,0,0
-308,-139,0,0,0,0,0,0,0,0,0,-1,916,1163,0,0
-301,-139,0,0,0,0,0,0,0,0,0,-1,923,1163,0,0
-294,-139,0,0,0,0,0,0,0,0,0,-1,930,1163,0,0
-287,-139,0,0,0,0,0,0,0,0,0,-1,937,1163,0,0
-280,-139,0,0,0,0,0,0,0,0,0,-1,944,1163,0,0
-273,-139,0,0,0,0,0,0,0,0,0,-1,951,1163,0,0
-266,-139,0,0,0,0,0,0,0,0,0,-1,958,1163,0,0
-259,-139,0,0,0,0,0,0,0,0,0,-1,965,1163,0,0
-252,-139,0,0,0,0,0,0,0,0,0,-1,972,1163,0,0
-245,-139,0,0,0,0,0,0,0,0,0,-1,979,1163,0,0
-238,-139,0,0,0,0,0,0,0,0,0,-1,986,1163,0,0
-231,-139,0,0,0,0,0,0,0,0,0,-1,993,1163,0,0
-224,-139,0,0,0,0,0,0,0,0,0,-1,1000,1163,0,0
-217,-139,0,0,0,0,0,0,0,0,0,-1,1007,1163,0,0
-210,-139,0,0,0,0,0,0,0,0,0,-1,1014,1163,0,0
-203,-139,0,0,0,0,0,0,0,0,0,-1,1021,1163,0,0
-196,-139,0,0,0,0,0,0,0,0,0,-1,1028,1163,0,0
-189,-139,0,0,0,0,0,0,0,0,0,-1,1035,1163,0,0
-182,-139,0,0,0,0,0,0,0,0,0,-1,1042,1163,0,0
-175,-139,0,0,0,0,0,0,0,0,0,-1,1049,1163,0,0
-168,-139,0,0,0,0,0,0,0,0,0,-1,1056,1163,0,0
-161,-139,0,0,0,0,0,0,0,0,0,-1,1063,1163,0,0
-154,-139,0,0,0,0,0,0,0,0,0,-1,1070,1163,0,0
-147,-139,0,0,0,0,0,0,0,0,0,-1,1077,1163,0,0
-140,-139,0,0,0,0,0,0,0,0,0,-1,1084,1163,0,0
-133,-139,0,0,0,0,0,0,0,0,0,-1,1091,1163,0,0
-126,-139,0,0,0,0,0,0,0,0,0,-1,1098,1163,0,0
-119,-139,0,0,0,0,0,0,0,0,0,-1,1105,1163,0,0
-112,-139,0,0,0,0,0,0,0,0,0,-1,1112,1163,0,0
-105,-139,0,0,0,0,0,0,0,0,0,-1,1119,1163,0,0
-98,-139,0,0,0,0,0,0,0,0,0,-1,1126,1163,0,0
-91,-139,0,0,0,0,0,0,0,0,0,-1,1133,1163,0,0
-84,-139,0,0,0,0,0,0,0,0,0,-1,1140,1163,0,0
-77,-139,0,0,0,0,0,0,0,0,0,-1,1147,1163,0,0
-70,-139,0,0,0,0,0,0,0,0,0,-1,1154,1163,0,0
-63,-139,0,0,0,0,0,0,0,0,0,-1,1161,1163,0,0
-56,-139,0,0,0,0,0,0,0,0,0,-1,1168,1163,0,0
-49,-139,0,0,0,0,0,0,0,0,0,-1,1175,1163,0,0
-42,-139,0,0,0,0,0,0,0,0,0,-1,1182,1163,0,0
-35,-139,0,0,0,0,0,0,0,0,0,-1,1189,1163,0,0
-28,-139,0,0,0,0,0,0,0,0,0,-1,1196,1163,0,0
-21,-139,0,0,0,0,0,0,0,0,0,-1,1203,1163,0,0
-14,-139,0,0,0,0,0,0,0,0,0,-1,1210,1163,0,0
-7,-139,0,0,0,0,0,0,0,0,0,-1,1217,1163,0,0
0,-139,0,0,0,0,0,0,0,0,0,-1,1224,1163,0,0
7,-139,0,0,0,0,0,0,0,0,0,-1,1231,1163,0,0
14,-139,0,0,0,0,0,0,0,0,0,-1,1238,1163,0,0
21,-139,0,0,0,0,0,0,0,0,0,-1,1245,1163,0,0
28,-139,0,0,0,0,0,0,0,0,0,-1,1252,1163,0,0
35,-139,0,0,0,0,0,0,0,0,0,-1,1259,1163,0,0
42,-139,0,0,0,0,0,0,0,0,0,-1,1266,1163,0,0
49,-139,0,0,0,0,0,0,0,0,0,-1,1273,1163,0,0
56,-139,0,0,0,0,0,0,0,0,0,-1,1280,1163,0,0
63,-139,0,0,0,0,0,0,0,0,0,-1,1287,1163,0,0
70,-139,0,0,0,0,0,0,0,0,0,-1,1294,1163,0,0
77,-139,0,0,0,0,0,0,0,0,0,-1,1301,1163,0,0
84,-139,0,0,0,0,0,0,0,0,0,-1,1308,1163,0,0
91,-139,0,0,0,0,0,0,0,0,0,-1,1315,1163,0,0
98,-139,0,0,0,0,0,0,0,0,0,-1,1322,1163,0,0
105,-139,0,0,0,0,0,0,0,0,0,-1,1329,1163,0,0
112,-139,0,0,0,0,0,0,0,0,0,-1,1336,1163,0,0
119,-139,0,0,0,0,0,0,0,0,0,-1,1343,1163,0,0
126,-139,0,0,0,0,0,0,0,0,0,-1,1350,1163,0,0
133,-139,0,0,0,0,0,0,0,0,0,-1,1357,1163,0,0
140,-139,0,0,0,0,0,0,0,0,0,-1,1364,1163,0,0
147,-139,0,0,0,0,0,0,0,0,0,-1,1371,1163,0,0
154,-139,0,0,0,0,0,0,0,0,0,-1,1378,1163,0,0
161,-139,0,0,0,0,0,0,0,0,0,-1,1385,1163,0,0
168,-139,0,0,0,0,0,0,0,0,0,-1,1392,1163,0,0
175,-139,0,0,0,0,0,0,0,0,0,-1,1399,1163,0,0
182,-139,0,0,0,0,0,0,0,0,0,-1,1406,1163,0,0
189,-139,0,0,0,0,0,0,0,0,0,-1,1413,1163,0,0
196,-139,0,0,0,0,0,0,0,0,0,-1,1420,1163,0,0
203,-139,0,0,0,0,0,0,0,0,0,-1,1427,1163,0,0
210,-139,0,0,0,0,0,0,0,0,0,-1,1434,1163,0,0
217,-139,0,0,0,0,0,0,0,0,0,-1,1441,1163,0,0
224,-139,0,0,0,0,0,0,0,0,0,-1,1448,1163,0,0
231,-139,0,0,0,0,0,0,0,0,0,-1,1455,1163,0,0
238,-139,0,0,0,0,0,0,0,0,0,-1,1462,1163,0,0
245,-139,0,0,0,0,0,0,0,0,0,-1,1469,1163,0,0
252,-139,0,0,0,0,0,0,0,0,0,-1,1476,1163,0,0
259,-139,0,0,0,0,0,0,0,0,0,-1,1483,1163,0,0
266,-139,0,0,0,0,0,0,0,0,0,-1,1490,1163,0,0
273,-139,0,0,0,0,0,0,0,0,0,-1,1497,1163,0,0
280,-139,0,0,0,0,0,0,0,0,0,-1,1504,1163,0,0
287,-139,0,0,0,0,0,0,0,0,0,-1,1511,1163,0,0
294,-139,0,0,0,0,0,0,0,0,0,-1,1518,1163,0,0
301,-139,0,0,0,0,0,0,0,0,0,-1,1525,1163,0,0
308,-139,0,0,0,0,0,0,0,0,0,-1,1532,1163,0,0
315,-139,0,0,0,0,0,0,0,0,0,-1,1539,1163,0,0
322,-139,0,0,0,0,0,0,0,0,0,-1,1546,1163,0,0
329,-139,0,0,0,0,0,0,0,0,0,-1,1553,1163,0,0
336,-139,0,0,0,0,0,0,0,0,0,-1,1560,1163,0,0
343,-139,0,0,0,0,0,0,0,0,0,-1,1567,1163,0,0
350,-139,0,0,0,0,0,0,0,0,0,-1,1574,1163,0,0
357,-139,0,0,0,0,0,0,0,0,0,-1,1581,1163,0,0
364,-139,0,0,0,0,0,0,0,0,0,-1,1588,1163,0,0
371,-139,0,0,0,0,0,0,0,0,0,-1,1595,1163,0,0
378,-139,0,0,0,0,0,0,0,0,0,-1,1602,1163,0,0
385,-139,0,0,0,0,0,0,0,0,0,-1,1609,1163,0,0
392,-139,0,0,0,0,0,0,0,0,0,-1,1616,1163,0,0
399,-139,0,0,0,0,0,0,0,0,0,-1,1623,1163,0,0
406,-139,0,0,0,0,0,0,0,0,0,-1,1630,1163,0,0
413,-139,0,0,0,0,0,0,0,0,0,-1,1637,1163,0,0
420,-139,0,0,0,0,0,0,0,0,0,-1,1644,1163,0,0
427,-139,0,0,0,0,0,0,0,0,0,-1,1651,1163,0,0
434,-139,0,0,0,0,0,0,0,0,0,-1,1658,1163,0,0
441,-139,0,0,0,0,0,0,0,0,0,-1,1665,1163,0,0
448,-139,0,0,0,0,0,0,0,0,0,-1,1672,1163,0,0
455,-139,0,0,0,0,0,0,0,0,0,-1,1679,1163,0,0
462,-139,0,0,0,0,0,0,0,0,0,-1,1686,1163,0,0
469,-139,0,0,0,0,0,0,0,0,0,-1,1693,1163,0,0
476,-139,0,0,0,0,0,0,0,0,0,-1,1700,1163,0,0
483,-139,0,0,0,0,0,0,0,0,0,-1,1707,1163,0,0
490,-139,0,0,0,0,0,0,0,0,0,-1,1714,1163,0,0
497,-139,0,0,0,0,0,0,0,0,0,-1,1721,1163,0,0
504,-139,0,0,0,0,0,0,0,0,0,-1,1728,1163,0,0
511,-139,0,0,0,0,0,0,0,0,0,-1,1735,1163,0,0
518,-139,0,0,0,0,0,0,0,0,0,-1,1742,1163,0,0
525,-139,0,0,0,0,0,0,0,0,0,-1,1749,1163,0,0
532,-139,0,0,0,0,0,0,0,0,0,-1,1756,1163,0,0
539,-139,0,0,0,0,0,0,0,0,0,-1,1763,1163,0,0
546,-139,0,0,0,0,0,0,0,0,0,-1,1770,1163,0,0
553,-139,0,0,0,0,0,0,0,0,0,-1,1777,1163,0,0
560,-139,0,0,0,0,0,0,0,0,0,-1,1784,1163,0,0
567,-139,0,0,0,0,0,0,0,0,0,-1,1791,1163,0,0
574,-139,0,0,0,0,0,0,0,0,0,-1,1798,1163,0,0
581,-139,0,0,0,0,0,0,0,0,0,-1,1805,1163,0,0
588,-139,0,0,0,0,0,0,0,0,0,-1,1812,1163,0,0
595,-139,0,0,0,0,0,0,0,0,0,-1,1819,1163,0,0
602,-139,0,0,0,0,0,0,0,0,0,-1,1826,1163,0,0
609,-139,0,0,0,0,0,0,0,0,0,-1,1833,1163,0,0
616,-139,0,0,0,0,0,0,0,0,0,-1,1840,1163,0,0
623,-139,0,0,0,0,0,0,0,0,0,-1,1847,1163,0,0
630,-139,0,0,0,0,0,0,0,0,0,-1,1854,1163,0,0
637,-139,0,0,0,0,0,0,0,0,0,-1,1861,1163,0,0
644,-139,17.5481,2.56775,0.00167976,-0.00240849,-4.65476e-05,0.00168029,-0.00240902,-0.0113837,0.00237343,0.0405827,1868,1163,17.548,-2.5678
651,-139,17.6196,2.65894,0.0016372,-0.00143503,-0.000345872,0.00167566,-0.00147349,-0.110733,0.00181941,0.0418527,1875,1163,17.6196,-2.65891
658,-139,17.6884,2.54089,0.000938897,-0.000695695,-0.000199589,0.000962915,-0.000719712,-0.119759,0.000974842,0.043926,1882,1163,17.6884,-2.54093
665,-139,17.608,2.57471,-0.000775762,-0.000404936,0.000785486,0.000216724,-0.00139742,0.901301,0.00101162,0.04023,1889,1163,17.6081,-2.57477
672,-139,17.5587,2.57532,-0.00273453,-0.000398207,0.00197295,0.000726473,-0.00385921,1.05269,0.00284604,0.0381591,1896,1163,17.5587,-2.57534
679,-139,17.5438,2.42432,-0.004522,-0.000546395,0.00305553,0.00111102,-0.00617941,1.07378,0.00453554,0.0373351,1903,1163,17.5438,-2.42436
686,-139,17.5768,2.53503,-0.00603324,-0.000788559,0.0039566,0.00133582,-0.00815762,1.07805,0.00593402,0.0347521,1910,1163,17.5767,-2.53509
693,-139,17.611,2.53027,-0.00712546,-0.000952765,0.00460349,0.00150324,-0.00958146,1.0807,0.00694318,0.0230525,1917,1163,17.6109,-2.53029
700,-139,17.7484,2.49011,-0.00780784,-0.00112225,0.00501659,0.00156326,-0.0104934,1.07929,0.00757065,0.0460381,1924,1163,17.7485,-2.49013
707,-139,17.0856,3.37183,-0.00822636,-0.00127312,0.00529905,0.00158799,-0.0110875,1.07572,0.00797386,0.0290548,1931,1163,17.0855,-3.37177
714,-139,16.5574,3.97949,-0.00834564,-0.0013577,0.00543867,0.00161261,-0.011316,1.07092,0.00813496,0.0252418,1938,1163,16.5573,-3.97948
721,-139,16.5657,3.82056,-0.00798858,-0.00132172,0.00524295,0.00155776,-0.0108681,1.06856,0.00781654,0.0185434,1945,1163,16.5657,-3.82061
728,-139,16.5477,3.7356,-0.00713055,-0.00115938,0.00472765,0.00144649,-0.00973642,1.06703,0.00702295,0.0194759,1952,1163,16.5477,-3.73562
735,-139,16.5525,3.67712,-0.00588277,-0.000905517,0.00388774,0.00122189,-0.00801018,1.0701,0.00579055,0.0161246,1959,1163,16.5525,-3.67708
742,-139,16.5497,3.58411,-0.00433942,-0.000522359,0.00283213,0.000984292,-0.00584607,1.08189,0.00426352,0.0213984,1966,1163,16.5497,-3.58409
749,-139,16.5406,3.51123,-0.0024464,0.000851468,0.00147338,0.00141383,-0.00300876,1.20618,0.00260814,0.0187024,1973,1163,16.5406,-3.51121
756,-139,16.541,3.43103,-0.000351458,0.0024228,0.00011311,0.0024274,-0.000356062,1.53012,0.00174908,0.00971843,1980,1163,16.541,-3.43108
763,-139,16.5361,3.34631,0.0019785,0.004344,-0.00154768,0.00510912,0.00121338,-1.11166,0.00308229,0.00963074,1987,1163,16.5361,-3.34627
770,-139,16.5356,3.27869,0.00379211,0.00667868,-0.00293273,0.00850403,0.00196676,-1.01406,0.00514075,0.0115636,1994,1163,16.5356,-3.27864
777,-139,16.5012,3.15234,0.00537079,0.009592,-0.00422509,0.0122043,0.00275847,-1.01704,0.00739037,0.0219902,2001,1163,16.5012,-3.1524
784,-139,16.3839,3.00623,0.00704289,0.0134296,-0.00574655,0.0168105,0.00366202,-1.039,0.0102077,0.0422896,2008,1163,16.3839,-3.00627
791,-139,16.2632,2.88049,0,0,0,0,0,0,0,-1,2015,1163,16.2632,-2.88049
798,-139,17.2108,1.94153,0.0109055,0.0248255,-0.00944186,0.0295954,0.00613565,-1.10301,0.0180364,0.0459029,2022,1163,17.2108,-1.94159
805,-139,17.0905,1.65491,0.013048,0.0329233,-0.0113536,0.0380741,0.00789716,-1.14489,0.0232027,0.0425539,2029,1163,17.0905,-1.65488
812,-139,0,0,0,0,0,0,0,0,0,-1,2036,1163,0,0
-700,-146,0,0,0,0,0,0,0,0,0,-1,524,1170,0,0
-693,-146,-9.50989,4.46338,0.13143,0.0913683,-0.139332,0.252164,-0.029365,-0.714005,0.178703,0.043163,531,1170,-9.50989,-4.46338
-686,-146,-8.43317,-1.42798,0.0941605,0.078944,-0.0995825,0.186425,-0.0133204,-0.747271,0.128953,0.0462592,538,1170,-8.43316,1.42793
-679,-146,-9.62775,-0.127197,0,0,0,0,0,0,0,-1,545,1170,-9.62775,0.127151
-672,-146,-9.8844,0.420654,0.0467561,0.0532021,-0.0486973,0.0987829,0.00117529,-0.818442,0.065467,0.0474225,552,1170,-9.88442,-0.42066
-665,-146,-10.1397,1.03357,0.0323035,0.0418378,-0.0331268,0.0705387,0.00360262,-0.856861,0.0458721,0.0452049,559,1170,-10.1397,-1.03362
-658,-146,-10.2825,1.70227,0.0220733,0.0320002,-0.0221237,0.0497104,0.00436307,-0.895747,0.0317859,0.0469754,566,1170,-10.2825,-1.70222
-651,-146,-10.1261,0.849121,0.0149056,0.0237851,-0.01454,0.0345481,0.00414256,-0.933576,0.0217829,0.0381381,573,1170,-10.1261,-0.849065
-644,-146,-10.041,0.816895,0.00997653,0.0171491,-0.00943717,0.0236585,0.0034672,-0.96698,0.014753,0.0192592,580,1170,-10.041,-0.81695
-637,-146,-10.0363,0.925049,0.00493747,0.0127841,-0.0046697,0.0149599,0.00276173,-1.13478,0.00919202,0.010241,587,1170,-10.0363,-0.924994
-630,-146,-10.0575,1.0531,0.00108135,0.00632107,-0.0019297,0.00695504,0.000447379,-1.25337,0.00449499,0.00979414,594,1170,-10.0575,-1.05311
-623,-146,-10.0748,1.13232,-0.00049476,0.00331851,-0.00338282,0.00529501,-0.00247126,-1.04202,0.00458158,0.0116628,601,1170,-10.0748,-1.13227
-616,-146,-10.101,1.2804,-0.00191038,0.000971066,-0.00436924,0.00413099,-0.0050703,-0.944656,0.00532159,0.0188175,608,1170,-10.101,-1.28037
-609,-146,-10.0712,1.39087,-0.00294162,-0.000381354,-0.00567953,0.00416053,-0.0074835,-0.896243,0.00681332,0.019233,615,1170,-10.0712,-1.39084
-602,-146,-10.1272,1.53845,-0.00429421,-0.00131939,-0.0065256,0.00388617,-0.00949977,-0.897451,0.00795168,0.020602,622,1170,-10.1272,-1.53848
-595,-146,-10.1701,1.58264,-0.00572402,-0.00179189,-0.00758712,0.00407976,-0.0115957,-0.912175,0.00939057,0.0118847,629,1170,-10.1701,-1.58261
-588,-146,-10.1044,1.71729,-0.00639219,-0.00215271,-0.0081574,0.00415586,-0.0127008,-0.912514,0.0101404,0.0132676,636,1170,-10.1044,-1.7173
-581,-146,-10.0406,1.8656,-0.00632448,-0.00257155,-0.00826116,0.00402358,-0.0129196,-0.897075,0.0102217,0.0257296,643,1170,-10.0407,-1.86564
-574,-146,-10.6105,1.06934,-0.0055438,-0.00269707,-0.00815416,0.00415702,-0.0123979,-0.871806,0.00994489,0.0443064,650,1170,-10.6105,-1.06931
-567,-146,-11.2509,0.456909,0,0,0,0,0,0,0,-1,657,1170,-11.2509,-0.456883
-560,-146,-11.1778,0.61731,-0.00322112,-0.00297446,-0.00684717,0.00375049,-0.00994607,-0.794403,0.00817294,0.0378633,664,1170,-11.1778,-0.617319
-553,-146,-11.1271,0.676147,-0.00128529,-0.00307663,-0.00534864,0.00324215,-0.00760407,-0.702439,0.00642865,0.0374596,671,1170,-11.1271,-0.676137
-546,-146,-11.1791,0.571533,0.00130081,-0.00322622,-0.00329375,0.00303382,-0.00495924,-0.484351,0.00465921,0.0420618,678,1170,-11.1791,-0.571559
-539,-146,-11.3978,0.858154,0.00459934,-0.00346761,-0.00072089,0.00466326,-0.00353152,-0.0884297,0.00474627,0.0436035,685,1170,-11.3978,-0.858112
-532,-146,-11.43,0.926636,0.00877264,-0.0038588,0.0021747,0.00913656,-0.00422272,0.165808,0.00788499,0.0376958,692,1170,-11.43,-0.926654
-525,-146,-11.3616,0.92981,0.0125024,-0.0049304,0.0038825,0.0133279,-0.00575599,0.209522,0.0113035,0.0376243,699,1170,-11.3617,-0.929819
-518,-146,0,0,0,0,0,0,0,0,0,-1,706,1170,0,0
-511,-146,0,0,0,0,0,0,0,0,0,-1,713,1170,0,0
-504,-146,0,0,0,0,0,0,0,0,0,-1,720,1170,0,0
-497,-146,0,0,0,0,0,0,0,0,0,-1,727,1170,0,0
-490,-146,0,0,0,0,0,0,0,0,0,-1,734,1170,0,0
-483,-146,0,0,0,0,0,0,0,0,0,-1,741,1170,0,0
-476,-146,0,0,0,0,0,0,0,0,0,-1,748,1170,0,0
-469,-146,0,0,0,0,0,0,0,0,0,-1,755,1170,0,0
-462,-146,0,0,0,0,0,0,0,0,0,-1,762,1170,0,0
-455,-146,0,0,0,0,0,0,0,0,0,-1,769,1170,0,0
-448,-146,0,0,0,0,0,0,0,0,0,-1,776,1170,0,0
-441,-146,0,0,0,0,0,0,0,0,0,-1,783,1170,0,0
-434,-146,0,0,0,0,0,0,0,0,0,-1,790,1170,0,0
-427,-146,0,0,0,0,0,0,0,0,0,-1,797,1170,0,0
-420,-146,0,0,0,0,0,0,0,0,0,-1,804,1170,0,0
-413,-146,0,0,0,0,0,0,0,0,0,-1,811,1170,0,0
-406,-146,0,0,0,0,0,0,0,0,0,-1,818,1170,0,0
-399,-146,0,0,0,0,0,0,0,0,0,-1,825,1170,0,0
-392,-146,0,0,0,0,0,0,0,0,0,-1,832,1170,0,0
-385,-146,0,0,0,0,0,0,0,0,0,-1,839,1170,0,0
-378,-146,0,0,0,0,0,0,0,0,0,-1,846,1170,0,0
-371,-146,0,0,0,0,0,0,0,0,0,-1,853,1170,0,0
-364,-146,0,0,0,0,0,0,0,0,0,-1,860,1170,0,0
-357,-146,0,0,0,0,0,0,0,0,0,-1,867,1170,0,0
-350,-146,0,0,0,0,0,0,0,0,0,-1,874,1170,0,0
-343,-146,0,0,0,0,0,0,0,0,0,-1,881,1170,0,0
-336,-146,0,0,0,0,0,0,0,0,0,-1,888,1170,0,0
-329,-146,0,0,0,0,0,0,0,0,0,-1,895,1170,0,0
-322,-146,0,0,0,0,0,0,0,0,0,-1,902,1170,0,0
-315,-146,0,0,0,0,0,0,0,0,0,-1,909,1170,0,0
-308,-146,0,0,0,0,0,0,0,0,0,-1,916,1170,0,0
-301,-146,0,0,0,0,0,0,0,0,0,-1,923,1170,0,0
-294,-146,0,0,0,0,0,0,0,0,0,-1,930,1170,0,0
-287,-146,0,0,0,0,0,0,0,0,0,-1,937,1170,0,0
-280,-146,0,0,0,0,0,0,0,0,0,-1,944,1170,0,0
-273,-146,0,0,0,0,0,0,0,0,0,-1,951,1170,0,0
-266,-146,0,0,0,0,0,0,0,0,0,-1,958,1170,0,0
-259,-146,0,0,0,0,0,0,0,0,0,-1,965,1170,0,0
-252,-146,0,0,0,0,0,0,0,0,0,-1,972,1170,0,0
-245,-146,0,0,0,0,0,0,0,0,0,-1,979,1170,0,0
-238,-146,0,0,0,0,0,0,0,0,0,-1,986,1170,0,0
-231,-146,0,0,0,0,0,0,0,0,0,-1,993,1170,0,0
-224,-146,0,0,0,0,0,0,0,0,0,-1,1000,1170,0,0
-217,-146,0,0,0,0,0,0,0,0,0,-1,1007,1170,0,0
-210,-146,0,0,0,0,0,0,0,0,0,-1,1014,1170,0,0
-203,-146,0,0,0,0,0,0,0,0,0,-1,1021,1170,0,0
-196,-146,0,0,0,0,0,0,0,0,0,-1,1028,1170,0,0
-189,-146,0,0,0,0,0,0,0,0,0,-1,1035,1170,0,0
-182,-146,0,0,0,0,0,0,0,0,0,-1,1042,1170,0,0
-175,-146,0,0,0,0,0,0,0,0,0,-1,1049,1170,0,0
-168,-146,0,0,0,0,0,0,0,0,0,-1,1056,1170,0,0
-161,-146,0,0,0,0,0,0,0,0,0,-1,1063,1170,0,0
-154,-146,0,0,0,0,0,0,0,0,0,-1,1070,1170,0,0
-147,-146,0,0,0,0,0,0,0,0,0,-1,1077,1170,0,0
-140,-146,0,0,0,0,0,0,0,0,0,-1,1084,1170,0,0
-133,-146,0,0,0,0,0,0,0,0,0,-1,1091,1170,0,0
-126,-146,0,0,0,0,0,0,0,0,0,-1,1098,1170,0,0
-119,-146,0,0,0,0,0,0,0,0,0,-1,1105,1170,0,0
-112,-146,0,0,0,0,0,0,0,0,0,-1,1112,1170,0,0
-105,-146,0,0,0,0,0,0,0,0,0,-1,1119,1170,0,0
-98,-146,0,0,0,0,0,0,0,0,0,-1,1126,1170,0,0
-91,-146,0,0,0,0,0,0,0,0,0,-1,1133,1170,0,0
-84,-146,0,0,0,0,0,0,0,0,0,-1,1140,1170,0,0
-77,-146,0,0,0,0,0,0,0,0,0,-1,1147,1170,0,0
-70,-146,0,0,0,0,0,0,0,0,0,-1,1154,1170,0,0
-63,-146,0,0,0,0,0,0,0,0,0,-1,1161,1170,0,0
-56,-146,0,0,0,0,0,0,0,0,0,-1,1168,1170,0,0
-49,-146,0,0,0,0,0,0,0,0,0,-1,1175,1170,0,0
-42,-146,0,0,0,0,0,0,0,0,0,-1,1182,1170,0,0
-35,-146,0,0,0,0,0,0,0,0,0,-1,1189,1170,0,0
-28,-146,0,0,0,0,0,0,0,0,0,-1,1196,1170,0,0
-21,-146,0,0,0,0,0,0,0,0,0,-1,1203,1170,0,0
-14,-146,0,0,0,0,0,0,0,0,0,-1,1210,1170,0,0
-7,-146,0,0,0,0,0,0,0,0,0,-1,1217,1170,0,0
0,-146,0,0,0,0,0,0,0,0,0,-1,1224,1170,0,0
7,-146,0,0,0,0,0,0,0,0,0,-1,1231,1170,0,0
14,-146,0,0,0,0,0,0,0,0,0,-1,1238,1170,0,0
21,-146,0,0,0,0,0,0,0,0,0,-1,1245,1170,0,0
28,-146,0,0,0,0,0,0,0,0,0,-1,1252,1170,0,0
35,-146,0,0,0,0,0,0,0,0,0,-1,1259,1170,0,0
42,-146,0,0,0,0,0,0,0,0,0,-1,1266,1170,0,0
49,-146,0,0,0,0,0,0,0,0,0,-1,1273,1170,0,0
56,-146,0,0,0,0,0,0,0,0,0,-1,1280,1170,0,0
63,-146,0,0,0,0,0,0,0,0,0,-1,1287,1170,0,0
70,-146,0,0,0,0,0,0,0,0,0,-1,1294,1170,0,0
77,-146,0,0,0,0,0,0,0,0,0,-1,1301,1170,0,0
84,-146,0,0,0,0,0,0,0,0,0,-1,1308,1170,0,0
91,-146,0,0,0,0,0,0,0,0,0,-1,1315,1170,0,0
98,-146,0,0,0,0,0,0,0,0,0,-1,1322,1170,0,0
105,-146,0,0,0,0,0,0,0,0,0,-1,1329,1170,0,0
112,-146,0,0,0,0,0,0,0,0,0,-1,1336,1170,0,0
119,-146,0,0,0,0,0,0,0,0,0,-1,1343,1170,0,0
126,-146,0,0,0,0,0,0,0,0,0,-1,1350,1170,0,0
133,-146,0,0,0,0,0,0,0,0,0,-1,1357,1170,0,0
140,-146,0,0,0,0,0,0,0,0,0,-1,1364,1170,0,0
147,-146,0,0,0,0,0,0,0,0,0,-1,1371,1170,0,0
154,-146,0,0,0,0,0,0,0,0,0,-1,1378,1170,0,0
161,-146,0,0,0,0,0,0,0,0,0,-1,1385,1170,0,0
168,-146,0,0,0,0,0,0,0,0,0,-1,1392,1170,0,0
175,-146,0,0,0,0,0,0,0,0,0,-1,1399,1170,0,0
182,-146,0,0,0,0,0,0,0,0,0,-1,1406,1170,0,0
189,-146,0,0,0,0,0,0,0,0,0,-1,1413,1170,0,0
196,-146,0,0,0,0,0,0,0,0,0,-1,1420,1170,0,0
203,-146,0,0,0,0,0,0,0,0,0,-1,1427,1170,0,0
210,-146,0,0,0,0,0,0,0,0,0,-1,1434,1170,0,0
217,-146,0,0,0,0,0,0,0,0,0,-1,1441,1170,0,0
224,-146,0,0,0,0,0,0,0,0,0,-1,1448,1170,0,0
231,-146,0,0,0,0,0,0,0,0,0,-1,1455,1170,0,0
238,-146,0,0,0,0,0,0,0,0,0,-1,1462,1170,0,0
245,-146,0,0,0,0,0,0,0,0,0,-1,1469,1170,0,0
252,-146,0,0,0,0,0,0,0,0,0,-1,1476,1170,0,0
259,-146,0,0,0,0,0,0,0,0,0,-1,1483,1170,0,0
266,-146,0,0,0,0,0,0,0,0,0,-1,1490,1170,0,0
273,-146,0,0,0,0,0,0,0,0,0,-1,1497,1170,0,0
280,-146,0,0,0,0,0,0,0,0,0,-1,1504,1170,0,0
287,-146,0,0,0,0,0,0,0,0,0,-1,1511,1170,0,0
294,-146,0,0,0,0,0,0,0,0,0,-1,1518,1170,0,0
301,-146,0,0,0,0,0,0,0,0,0,-1,1525,1170,0,0
308,-146,0,0,0,0,0,0,0,0,0,-1,1532,1170,0,0
315,-146,0,0,0,0,0,0,0,0,0,-1,1539,1170,0,0
322,-146,0,0,0,0,0,0,0,0,0,-1,1546,1170,0,0
329,-146,0,0,0,0,0,0,0,0,0,-1,1553,1170,0,0
336,-146,0,0,0,0,0,0,0,0,0,-1,1560,1170,0,0
343,-146,0,0,0,0,0,0,0,0,0,-1,1567,1170,0,0
350,-146,0,0,0,0,0,0,0,0,0,-1,1574,1170,0,0
357,-146,0,0,0,0,0,0,0,0,0,-1,1581,1170,0,0
364,-146,0,0,0,0,0,0,0,0,0,-1,1588,1170,0,0
371,-146,0,0,0,0,0,0,0,0,0,-1,1595,1170,0,0
378,-146,0,0,0,0,0,0,0,0,0,-1,1602,1170,0,0
385,-146,0,0,0,0,0,0,0,0,0,-1,1609,1170,0,0
392,-146,0,0,0,0,0,0,0,0,0,-1,1616,1170,0,0
399,-146,0,0,0,0,0,0,0,0,0,-1,1623,1170,0,0
406,-146,0,0,0,0,0,0,0,0,0,-1,1630,1170,0,0
413,-146,0,0,0,0,0,0,0,0,0,-1,1637,1170,0,0
420,-146,0,0,0,0,0,0,0,0,0,-1,1644,1170,0,0
427,-146,0,0,0,0,0,0,0,0,0,-1,1651,1170,0,0
434,-146,0,0,0,0,0,0,0,0,0,-1,1658,1170,0,0
441,-146,0,0,0,0,0,0,0,0,0,-1,1665,1170,0,0
448,-146,0,0,0,0,0,0,0,0,0,-1,1672,1170,0,0
455,-146,0,0,0,0,0,0,0,0,0,-1,1679,1170,0,0
462,-146,0,0,0,0,0,0,0,0,0,-1,1686,1170,0,0
469,-146,0,0,0,0,0,0,0,0,0,-1,1693,1170,0,0
476,-146,0,0,0,0,0,0,0,0,0,-1,1700,1170,0,0
483,-146,0,0,0,0,0,0,0,0,0,-1,1707,1170,0,0
490,-146,0,0,0,0,0,0,0,0,0,-1,1714,1170,0,0
497,-146,0,0,0,0,0,0,0,0,0,-1,1721,1170,0,0
504,-146,0,0,0,0,0,0,0,0,0,-1,1728,1170,0,0
511,-146,0,0,0,0,0,0,0,0,0,-1,1735,1170,0,0
518,-146,0,0,0,0,0,0,0,0,0,-1,1742,1170,0,0
525,-146,0,0,0,0,0,0,0,0,0,-1,1749,1170,0,0
532,-146,0,0,0,0,0,0,0,0,0,-1,1756,1170,0,0
539,-146,0,0,0,0,0,0,0,0,0,-1,1763,1170,0,0
546,-146,0,0,0,0,0,0,0,0,0,-1,1770,1170,0,0
553,-146,0,0,0,0,0,0,0,0,0,-1,1777,1170,0,0
560,-146,0,0,0,0,0,0,0,0,0,-1,1784,1170,0,0
567,-146,0,0,0,0,0,0,0,0,0,-1,1791,1170,0,0
574,-146,0,0,0,0,0,0,0,0,0,-1,1798,1170,0,0
581,-146,0,0,0,0,0,0,0,0,0,-1,1805,1170,0,0
588,-146,0,0,0,0,0,0,0,0,0,-1,1812,1170,0,0
595,-146,0,0,0,0,0,0,0,0,0,-1,1819,1170,0,0
602,-146,0,0,0,0,0,0,0,0,0,-1,1826,1170,0,0
609,-146,0,0,0,0,0,0,0,0,0,-1,1833,1170,0,0
616,-146,0,0,0,0,0,0,0,0,0,-1,1840,1170,0,0
623,-146,0,0,0,0,0,0,0,0,0,-1,1847,1170,0,0
630,-146,0,0,0,0,0,0,0,0,0,-1,1854,1170,0,0
637,-146,17.5941,2.51526,0.00275826,-0.00298863,-0.000741499,0.00285239,-0.00308276,-0.126271,0.00342752,0.0395385,1861,1170,17.5942,-2.51531
644,-146,17.5715,2.50549,0.00206936,-0.00192988,-0.000971342,0.00229279,-0.00215332,-0.226097,0.00256738,0.0399288,1868,1170,17.5715,-2.50551
651,-146,17.5504,2.44836,0.00174052,-0.00100997,-0.00106818,0.00210662,-0.00137607,-0.330191,0.00202543,0.0403013,1875,1170,17.5504,-2.44839
658,-146,17.6355,2.54236,0.000436698,-0.000414465,-0.000513798,0.00067828,-0.000656048,-0.439517,0.00077041,0.041479,1882,1170,17.6355,-2.54235
665,-146,17.677,2.63562,-0.00173183,-0.000241343,0.000765307,8.16287e-05,-0.0020548,1.17146,0.00139787,0.0393623,1889,1170,17.677,-2.63559
672,-146,17.7019,2.6532,-0.003936,-0.000303929,0.00209696,0.000654061,-0.00489399,1.14226,0.00350111,0.0384082,1896,1170,17.7019,-2.65321
679,-146,17.6943,2.54688,-0.00585997,-0.000493059,0.00326775,0.00105186,-0.00740489,1.12916,0.00532198,0.0319716,1903,1170,17.6944,-2.54691
686,-146,17.6077,2.5061,-0.00740496,-0.00075077,0.00419311,0.00127487,-0.0094306,1.12077,0.00675226,0.024489,1910,1170,17.6077,-2.50613
693,-146,17.6478,2.50281,-0.00845585,-0.000910016,0.00483297,0.00144834,-0.0108142,1.11682,0.00773756,0.0170441,1917,1170,17.6478,-2.50284
700,-146,17.8307,2.47449,0,0,0,0,0,0,0,-1,1924,1170,17.8306,-2.47447
707,-146,16.9482,3.50891,-0.00936014,-0.00121645,0.00546945,0.00153042,-0.012107,1.10537,0.00862685,0.0329224,1931,1170,16.9483,-3.50892
714,-146,16.5305,3.95959,-0.00933124,-0.00128923,0.00554944,0.00154285,-0.0121633,1.09891,0.00866905,0.0229033,1938,1170,16.5305,-3.9596
721,-146,16.5184,3.85498,-0.00872536,-0.00123168,0.00528381,0.00149894,-0.011456,1.09381,0.00818286,0.0284994,1945,1170,16.5184,-3.85499
728,-146,16.5416,3.71362,-0.00759979,-0.00103463,0.00470772,0.00142196,-0.0100564,1.08985,0.00722502,0.0217622,1952,1170,16.5416,-3.71364
735,-146,16.4506,3.69946,-0.00608857,-0.000709313,0.00381698,0.00127047,-0.00806836,1.09232,0.00584858,0.0163408,1959,1170,16.4506,-3.69949
742,-146,16.4464,3.58887,-0.0042087,-0.000234347,0.00268221,0.00111661,-0.00555965,1.10422,0.00412927,0.0163234,1966,1170,16.4464,-3.58884
749,-146,16.4446,3.50256,-0.00204336,0.00113048,0.00133021,0.00161425,-0.00252713,1.22199,0.00241031,0.0147398,1973,1170,16.4445,-3.50258
756,-146,16.4479,3.4176,0.000245791,0.0027245,4.33456e-05,0.00272525,0.000245034,1.55332,0.00174092,0.0107922,1980,1170,16.4479,-3.41755
763,-146,16.4425,3.33826,0.00258825,0.00462666,-0.00141684,0.00535279,0.00186212,-1.0972,0.00313775,0.0103175,1987,1170,16.4425,-3.33828
770,-146,16.4386,3.25513,0.00435903,0.00694553,-0.00258083,0.00853901,0.00276556,-1.01766,0.00503092,0.0114326,1994,1170,16.4386,-3.25511
777,-146,16.4288,3.10645,0.00589053,0.00987833,-0.00368585,0.012075,0.00369383,-1.03334,0.00714446,0.0203391,2001,1170,16.4289,-3.10645
784,-146,16.3804,2.92859,0.00742271,0.013752,-0.00498032,0.0164881,0.00468663,-1.06843,0.00981037,0.0408372,2008,1170,16.3804,-2.92864
791,-146,16.6021,2.53955,0.0089395,0.0188246,-0.00644918,0.0220074,0.00575674,-1.11235,0.0131787,0.0457306,2015,1170,16.602,-2.53954
798,-146,16.4928,2.17432,0.0104997,0.0253985,-0.00803973,0.0289096,0.00698867,-1.15905,0.0174173,0.0422085,2022,1170,16.4928,-2.17435
805,-146,16.25,1.4613,0.0118567,0.033852,-0.00953147,0.0374076,0.00830109,-1.21375,0.0226834,0.0417317,2029,1170,16.25,-1.46131
812,-146,0,0,0,0,0,0,0,0,0,-1,2036,1170,0,0
-700,-153,0,0,0,0,0,0,0,0,0,-1,524,1177,0,0
-693,-153,0,0,0,0,0,0,0,0,0,-1,531,1177,0,0
-686,-153,-8.43341,-1.86353,0,0,0,0,0,0,0,-1,538,1177,-8.43342,1.86355
-679,-153,-9.19946,-0.525269,0,0,0,0,0,0,0,-1,545,1177,-9.19945,0.525213
-672,-153,-9.47046,0.0528564,0.0486133,0.0592075,-0.0450689,0.0992895,0.00853129,-0.843896,0.0635405,0.0478395,552,1177,-9.47048,-0.0529055
-665,-153,-9.7113,0.574829,0.0344798,0.0465691,-0.0306393,0.0717543,0.00929462,-0.88279,0.0450587,0.0442155,559,1177,-9.71129,-0.574836
-658,-153,-9.93561,1.12756,0.0243356,0.0356689,-0.020516,0.0512864,0.00871806,-0.920142,0.0316872,0.0477274,566,1177,-9.93563,-1.12755
-651,-153,-10.1231,1.30457,0,0,0,0,0,0,0,-1,573,1177,-10.1231,-1.30454
-644,-153,-9.92139,0.827148,0.0118728,0.0192199,-0.00891657,0.02519,0.00590265,-0.980799,0.0152124,0.0260112,580,1177,-9.92138,-0.827094
-637,-153,-9.92218,0.926636,0.00659401,0.0142633,-0.00443109,0.0162886,0.00456869,-1.14208,0.00970162,0.0106457,587,1177,-9.92219,-0.926658
-630,-153,-9.94617,1.0448,0.0025712,0.00740785,-0.00187459,0.00804933,0.00192973,-1.24109,0.00485261,0.00932058,594,1177,-9.94615,-1.04484
-623,-153,-9.96313,1.14111,0.000701517,0.00405454,-0.00330697,0.00608568,-0.00132963,-1.02,0.00456533,0.00890471,601,1177,-9.96312,-1.14107
-616,-153,-9.96136,1.25916,-0.000909132,0.0014726,-0.00431836,0.00476128,-0.00419781,-0.919939,0.00517595,0.0127537,608,1177,-9.96135,-1.25916
-609,-153,-9.93243,1.39478,-0.00217843,-0.000104582,-0.00561621,0.00456962,-0.00685264,-0.876686,0.00663841,0.0187431,615,1177,-9.93246,-1.39476
-602,-153,-9.99005,1.5072,-0.0037978,-0.00128171,-0.00635334,0.00393694,-0.00901645,-0.88314,0.00766791,0.0223969,622,1177,-9.99008,-1.50726
-595,-153,-10.0482,1.59363,-0.00528054,-0.00183422,-0.00745136,0.00409064,-0.0112054,-0.899028,0.00914406,0.0176979,629,1177,-10.0482,-1.59365
-588,-153,-10.0331,1.71704,-0.00589941,-0.00222192,-0.00805202,0.00419863,-0.01232,-0.897653,0.00991378,0.0115671,636,1177,-10.0331,-1.71708
-581,-153,-9.97095,1.81714,-0.00580949,-0.00268938,-0.00818179,0.00407976,-0.0125786,-0.879604,0.0100263,0.0203851,643,1177,-9.97095,-1.81714
-574,-153,-10.5333,1.44849,-0.00503339,-0.00284266,-0.00809304,0.0042288,-0.0121049,-0.852663,0.00978887,0.0463421,650,1177,-10.5333,-1.44844
-567,-153,-11.173,1.08862,0,0,0,0,0,0,0,-1,657,1177,-11.173,-1.08861
-560,-153,-11.2468,0.653687,-0.0027985,-0.00324442,-0.00693655,0.00391867,-0.00996159,-0.769332,0.00826305,0.0391207,664,1177,-11.2468,-0.653629
-553,-153,-11.1295,0.629272,-0.000998871,-0.00339013,-0.00555384,0.00348658,-0.00787558,-0.679377,0.00672111,0.0350746,671,1177,-11.1295,-0.629295
-546,-153,-11.4839,0.96521,0,0,0,0,0,0,0,-1,678,1177,-11.484,-0.96516
-539,-153,-11.6234,1.09875,0.00442051,-0.00380754,-0.00121324,0.00459568,-0.0039827,-0.143387,0.00495694,0.0448318,685,1177,-11.6234,-1.0987
-532,-153,-11.7258,1.22058,0.00829251,-0.00416482,0.00158031,0.00848986,-0.00436217,0.124236,0.00754661,0.0416099,692,1177,-11.7257,-1.2206
-525,-153,-11.4691,1.04846,0.0120446,-0.00503333,0.0035851,0.0127667,-0.0057554,0.198751,0.0109461,0.0394329,699,1177,-11.4691,-1.04842
-518,-153,0,0,0,0,0,0,0,0,0,-1,706,1177,0,0
-511,-153,0,0,0,0,0,0,0,0,0,-1,713,1177,0,0
-504,-153,0,0,0,0,0,0,0,0,0,-1,720,1177,0,0
-497,-153,0,0,0,0,0,0,0,0,0,-1,727,1177,0,0
-490,-153,0,0,0,0,0,0,0,0,0,-1,734,1177,0,0
-483,-153,0,0,0,0,0,0,0,0,0,-1,741,1177,0,0
-476,-153,0,0,0,0,0,0,0,0,0,-1,748,1177,0,0
-469,-153,0,0,0,0,0,0,0,0,0,-1,755,1177,0,0
-462,-153,0,0,0,0,0,0,0,0,0,-1,762,1177,0,0
-455,-153,0,0,0,0,0,0,0,0,0,-1,769,1177,0,0
-448,-153,0,0,0,0,0,0,0,0,0,-1,776,1177,0,0
-441,-153,0,0,0,0,0,0,0,0,0,-1,783,1177,0,0
-434,-153,0,0,0,0,0,0,0,0,0,-1,790,1177,0,0
-427,-153,0,0,0,0,0,0,0,0,0,-1,797,1177,0,0
-420,-153,0,0,0,0,0,0,0,0,0,-1,804,1177,0,0
-413,-153,0,0,0,0,0,0,0,0,0,-1,811,1177,0,0
-406,-153,0,0,0,0,0,0,0,0,0,-1,818,1177,0,0
-399,-153,0,0,0,0,0,0,0,0,0,-1,825,1177,0,0
-392,-153,0,0,0,0,0,0,0,0,0,-1,832,1177,0,0
-385,-153,0,0,0,0,0,0,0,0,0,-1,839,1177,0,0
-378,-153,0,0,0,0,0,0,0,0,0,-1,846,1177,0,0
-371,-153,0,0,0,0,0,0,0,0,0,-1,853,1177,0,0
-364,-153,0,0,0,0,0,0,0,0,0,-1,860,1177,0,0
-357,-153,0,0,0,0,0,0,0,0,0,-1,867,1177,0,0
-350,-153,0,0,0,0,0,0,0,0,0,-1,874,1177,0,0
-343,-153,0,0,0,0,0,0,0,0,0,-1,881,1177,0,0
-336,-153,0,0,0,0,0,0,0,0,0,-1,888,1177,0,0
-329,-153,0,0,0,0,0,0,0,0,0,-1,895,1177,0,0
-322,-153,0,0,0,0,0,0,0,0,0,-1,902,1177,0,0
-315,-153,0,0,0,0,0,0,0,0,0,-1,909,1177,0,0
-308,-153,0,0,0,0,0,0,0,0,0,-1,916,1177,0,0
-301,-153,0,0,0,0,0,0,0,0,0,-1,923,1177,0,0
-294,-153,0,0,0,0,0,0,0,0,0,-1,930,1177,0,0
-287,-153,0,0,0,0,0,0,0,0,0,-1,937,1177,0,0
-280,-153,0,0,0,0,0,0,0,0,0,-1,944,1177,0,0
-273,-153,0,0,0,0,0,0,0,0,0,-1,951,1177,0,0
-266,-153,0,0,0,0,0,0,0,0,0,-1,958,1177,0,0
-259,-153,0,0,0,0,0,0,0,0,0,-1,965,1177,0,0
-252,-153,0,0,0,0,0,0,0,0,0,-1,972,1177,0,0
-245,-153,0,0,0,0,0,0,0,0,0,-1,979,1177,0,0
-238,-153,0,0,0,0,0,0,0,0,0,-1,986,1177,0,0
-231,-153,0,0,0,0,0,0,0,0,0,-1,993,1177,0,0
-224,-153,0,0,0,0,0,0,0,0,0,-1,1000,1177,0,0
-217,-153,0,0,0,0,0,0,0,0,0,-1,1007,1177,0,0
-210,-153,0,0,0,0,0,0,0,0,0,-1,1014,1177,0,0
-203,-153,0,0,0,0,0,0,0,0,0,-1,1021,1177,0,0
-196,-153,0,0,0,0,0,0,0,0,0,-1,1028,1177,0,0
-189,-153,0,0,0,0,0,0,0,0,0,-1,1035,1177,0,0
-182,-153,0,0,0,0,0,0,0,0,0,-1,1042,1177,0,0
-175,-153,0,0,0,0,0,0,0,0,0,-1,1049,1177,0,0
-168,-153,0,0,0,0,0,0,0,0,0,-1,1056,1177,0,0
-161,-153,0,0,0,0,0,0,0,0,0,-1,1063,1177,0,0
-154,-153,0,0,0,0,0,0,0,0,0,-1,1070,1177,0,0
-147,-153,0,0,0,0,0,0,0,0,0,-1,1077,1177,0,0
-140,-153,0,0,0,0,0,0,0,0,0,-1,1084,1177,0,0
-133,-153,0,0,0,0,0,0,0,0,0,-1,1091,1177,0,0
-126,-153,0,0,0,0,0,0,0,0,0,-1,1098,1177,0,0
-119,-153,0,0,0,0,0,0,0,0,0,-1,1105,1177,0,0
-112,-153,0,0,0,0,0,0,0,0,0,-1,1112,1177,0,0
-105,-153,0,0,0,0,0,0,0,0,0,-1,1119,1177,0,0
-98,-153,0,0,0,0,0,0,0,0,0,-1,1126,1177,0,0
-91,-153,0,0,0,0,0,0,0,0,0,-1,1133,1177,0,0
-84,-153,0,0,0,0,0,0,0,0,0,-1,1140,1177,0,0
-77,-153,0,0,0,0,0,0,0,0,0,-1,1147,1177,0,0
-70,-153,0,0,0,0,0,0,0,0,0,-1,1154,1177,0,0
-63,-153,0,0,0,0,0,0,0,0,0,-1,1161,1177,0,0
-56,-153,0,0,0,0,0,0,0,0,0,-1,1168,1177,0,0
-49,-153,0,0,0,0,0,0,0,0,0,-1,1175,1177,0,0
-42,-153,0,0,0,0,0,0,0,0,0,-1,1182,1177,0,0
-35,-153,0,0,0,0,0,0,0,0,0,-1,1189,1177,0,0
-28,-153,0,0,0,0,0,0,0,0,0,-1,1196,1177,0,0
-21,-153,0,0,0,0,0,0,0,0,0,-1,1203,1177,0,0
-14,-153,0,0,0,0,0,0,0,0,0,-1,1210,1177,0,0
-7,-153,0,0,0,0,0,0,0,0,0,-1,1217,1177,0,0
0,-153,0,0,0,0,0,0,0,0,0,-1,1224,1177,0,0
7,-153,0,0,0,0,0,0,0,0,0,-1,1231,1177,0,0
14,-153,0,0,0,0,0,0,0,0,0,-1,1238,1177,0,0
21,-153,0,0,0,0,0,0,0,0,0,-1,1245,1177,0,0
28,-153,0,0,0,0,0,0,0,0,0,-1,1252,1177,0,0
35,-153,0,0,0,0,0,0,0,0,0,-1,1259,1177,0,0
42,-153,0,0,0,0,0,0,0,0,0,-1,1266,1177,0,0
49,-153,0,0,0,0,0,0,0,0,0,-1,1273,1177,0,0
56,-153,0,0,0,0,0,0,0,0,0,-1,1280,1177,0,0
63,-153,0,0,0,0,0,0,0,0,0,-1,1287,1177,0,0
70,-153,0,0,0,0,0,0,0,0,0,-1,1294,1177,0,0
77,-153,0,0,0,0,0,0,0,0,0,-1,1301,1177,0,0
84,-153,0,0,0,0,0,0,0,0,0,-1,1308,1177,0,0
91,-153,0,0,0,0,0,0,0,0,0,-1,1315,1177,0,0
98,-153,0,0,0,0,0,0,0,0,0,-1,1322,1177,0,0
105,-153,0,0,0,0,0,0,0,0,0,-1,1329,1177,0,0
112,-153,0,0,0,0,0,0,0,0,0,-1,1336,1177,0,0
119,-153,0,0,0,0,0,0,0,0,0,-1,1343,1177,0,0
126,-153,0,0,0,0,0,0,0,0,0,-1,1350,1177,0,0
133,-153,0,0,0,0,0,0,0,0,0,-1,1357,1177,0,0
140,-153,0,0,0,0,0,0,0,0,0,-1,1364,1177,0,0
147,-153,0,0,0,0,0,0,0,0,0,-1,1371,1177,0,0
154,-153,0,0,0,0,0,0,0,0,0,-1,1378,1177,0,0
161,-153,0,0,0,0,0,0,0,0,0,-1,1385,1177,0,0
168,-153,0,0,0,0,0,0,0,0,0,-1,1392,1177,0,0
175,-153,0,0,0,0,0,0,0,0,0,-1,1399,1177,0,0
182,-153,0,0,0,0,0,0,0,0,0,-1,1406,1177,0,0
189,-153,0,0,0,0,0,0,0,0,0,-1,1413,1177,0,0
196,-153,0,0,0,0,0,0,0,0,0,-1,1420,1177,0,0
203,-153,0,0,0,0,0,0,0,0,0,-1,1427,1177,0,0
210,-153,0,0,0,0,0,0,0,0,0,-1,1434,1177,0,0
217,-153,0,0,0,0,0,0,0,0,0,-1,1441,1177,0,0
224,-153,0,0,0,0,0,0,0,0,0,-1,1448,1177,0,0
231,-153,0,0,0,0,0,0,0,0,0,-1,1455,1177,0,0
238,-153,0,0,0,0,0,0,0,0,0,-1,1462,1177,0,0
245,-153,0,0,0,0,0,0,0,0,0,-1,1469,1177,0,0
252,-153,0,0,0,0,0,0,0,0,0,-1,1476,1177,0,0
259,-153,0,0,0,0,0,0,0,0,0,-1,1483,1177,0,0
266,-153,0,0,0,0,0,0,0,0,0,-1,1490,1177,0,0
273,-153,0,0,0,0,0,0,0,0,0,-1,1497,1177,0,0
280,-153,0,0,0,0,0,0,0,0,0,-1,1504,1177,0,0
287,-153,0,0,0,0,0,0,0,0,0,-1,1511,1177,0,0
294,-153,0,0,0,0,0,0,0,0,0,-1,1518,1177,0,0
301,-153,0,0,0,0,0,0,0,0,0,-1,1525,1177,0,0
308,-153,0,0,0,0,0,0,0,0,0,-1,1532,1177,0,0
315,-153,0,0,0,0,0,0,0,0,0,-1,1539,1177,0,0
322,-153,0,0,0,0,0,0,0,0,0,-1,1546,1177,0,0
329,-153,0,0,0,0,0,0,0,0,0,-1,1553,1177,0,0
336,-153,0,0,0,0,0,0,0,0,0,-1,1560,1177,0,0
343,-153,0,0,0,0,0,0,0,0,0,-1,1567,1177,0,0
350,-153,0,0,0,0,0,0,0,0,0,-1,1574,1177,0,0
357,-153,0,0,0,0,0,0,0,0,0,-1,1581,1177,0,0
364,-153,0,0,0,0,0,0,0,0,0,-1,1588,1177,0,0
371,-153,0,0,0,0,0,0,0,0,0,-1,1595,1177,0,0
378,-153,0,0,0,0,0,0,0,0,0,-1,1602,1177,0,0
385,-153,0,0,0,0,0,0,0,0,0,-1,1609,1177,0,0
392,-153,0,0,0,0,0,0,0,0,0,-1,1616,1177,0,0
399,-153,0,0,0,0,0,0,0,0,0,-1,1623,1177,0,0
406,-153,0,0,0,0,0,0,0,0,0,-1,1630,1177,0,0
413,-153,0,0,0,0,0,0,0,0,0,-1,1637,1177,0,0
420,-153,0,0,0,0,0,0,0,0,0,-1,1644,1177,0,0
427,-153,0,0,0,0,0,0,0,0,0,-1,1651,1177,0,0
434,-153,0,0,0,0,0,0,0,0,0,-1,1658,1177,0,0
441,-153,0,0,0,0,0,0,0,0,0,-1,1665,1177,0,0
448,-153,0,0,0,0,0,0,0,0,0,-1,1672,1177,0,0
455,-153,0,0,0,0,0,0,0,0,0,-1,1679,1177,0,0
462,-153,0,0,0,0,0,0,0,0,0,-1,1686,1177,0,0
469,-153,0,0,0,0,0,0,0,0,0,-1,1693,1177,0,0
476,-153,0,0,0,0,0,0,0,0,0,-1,1700,1177,0,0
483,-153,0,0,0,0,0,0,0,0,0,-1,1707,1177,0,0
490,-153,0,0,0,0,0,0,0,0,0,-1,1714,1177,0,0
497,-153,0,0,0,0,0,0,0,0,0,-1,1721,1177,0,0
504,-153,0,0,0,0,0,0,0,0,0,-1,1728,1177,0,0
511,-153,0,0,0,0,0,0,0,0,0,-1,1735,1177,0,0
518,-153,0,0,0,0,0,0,0,0,0,-1,1742,1177,0,0
525,-153,0,0,0,0,0,0,0,0,0,-1,1749,1177,0,0
532,-153,0,0,0,0,0,0,0,0,0,-1,1756,1177,0,0
539,-153,0,0,0,0,0,0,0,0,0,-1,1763,1177,0,0
546,-153,0,0,0,0,0,0,0,0,0,-1,1770,1177,0,0
553,-153,0,0,0,0,0,0,0,0,0,-1,1777,1177,0,0
560,-153,0,0,0,0,0,0,0,0,0,-1,1784,1177,0,0
567,-153,0,0,0,0,0,0,0,0,0,-1,1791,1177,0,0
574,-153,0,0,0,0,0,0,0,0,0,-1,1798,1177,0,0
581,-153,0,0,0,0,0,0,0,0,0,-1,1805,1177,0,0
588,-153,0,0,0,0,0,0,0,0,0,-1,1812,1177,0,0
595,-153,0,0,0,0,0,0,0,0,0,-1,1819,1177,0,0
602,-153,0,0,0,0,0,0,0,0,0,-1,1826,1177,0,0
609,-153,0,0,0,0,0,0,0,0,0,-1,1833,1177,0,0
616,-153,0,0,0,0,0,0,0,0,0,-1,1840,1177,0,0
623,-153,0,0,0,0,0,0,0,0,0,-1,1847,1177,0,0
630,-153,0,0,0,0,0,0,0,0,0,-1,1854,1177,0,0
637,-153,17.6068,2.66187,0.00257031,-0.00145416,-0.00115464,0.00287805,-0.0017619,-0.26047,0.00270459,0.0406828,1861,1177,17.6068,-2.66186
644,-153,17.5955,2.65491,0.00217924,-0.000882356,-0.00148935,0.00278421,-0.00148733,-0.385838,0.00250377,0.039041,1868,1177,17.5954,-2.6549
651,-153,17.6144,2.52576,0.001828,-0.000421099,-0.00147408,0.0025575,-0.0011506,-0.459551,0.00219164,0.0342454,1875,1177,17.6144,-2.52581
658,-153,17.6674,2.48047,0.000259345,-0.000278955,-0.000671258,0.000713403,-0.000733013,-0.59473,0.000835114,0.0363314,1882,1177,17.6674,-2.4805
665,-153,17.7021,2.36206,-0.0020314,-0.000411625,0.000721325,-0.000136972,-0.00230605,1.20698,0.0014938,0.037702,1889,1177,17.7022,-2.36207
672,-153,17.7078,2.46924,-0.00425386,-0.000639075,0.00206027,0.000294225,-0.00518716,1.14545,0.00356024,0.0377001,1896,1177,17.7078,-2.4692
679,-153,17.5972,2.47925,-0.0061844,-0.000897305,0.00322138,0.000626356,-0.00770806,1.12899,0.0053597,0.0294782,1903,1177,17.5971,-2.47923
686,-153,17.6019,2.49524,-0.00771356,-0.00115352,0.00410677,0.000822321,-0.0096894,1.12237,0.00675042,0.0194643,1910,1177,17.6019,-2.49521
693,-153,17.6874,2.48621,-0.00872508,-0.00127516,0.0047058,0.00100154,-0.0110018,1.12019,0.00769014,0.0315155,1917,1177,17.6874,-2.48617
700,-153,17.4688,3.10046,0,0,0,0,0,0,0,-1,1924,1177,17.4688,-3.10045
707,-153,16.8927,3.50452,-0.00956461,-0.00146061,0.00528249,0.00114498,-0.0121702,1.11256,0.0085208,0.0428923,1931,1177,16.8927,-3.50448
714,-153,16.472,3.89624,-0.00949409,-0.00145792,0.00531839,0.0011896,-0.0121416,1.10891,0.00851867,0.0233274,1938,1177,16.472,-3.89624
721,-153,16.4924,3.80566,-0.0087564,-0.00131803,0.00501039,0.00120269,-0.0112771,1.10467,0.00794935,0.0188712,1945,1177,16.4925,-3.80562
728,-153,16.4725,3.74768,-0.00751141,-0.000986913,0.00439997,0.00122825,-0.00972657,1.10439,0.00693017,0.023638,1952,1177,16.4725,-3.74769
735,-153,16.3252,3.71924,-0.00590124,-0.000508757,0.00350699,0.00121865,-0.00762865,1.11312,0.00553687,0.016546,1959,1177,16.3252,-3.7193
742,-153,16.3525,3.60681,-0.00374309,6.78374e-05,0.00234372,0.00118294,-0.00485819,1.12671,0.00369675,0.0130702,1966,1177,16.3525,-3.60686
749,-153,16.3751,3.4978,-0.00133098,0.00141819,0.00104309,0.00176916,-0.00168195,1.24623,0.00199271,0.0140601,1973,1177,16.3751,-3.49777
756,-153,16.3853,3.40637,0.00113014,0.00301538,-0.000134561,0.00302493,0.00112059,-1.4999,0.00176588,0.00988929,1980,1177,16.3853,-3.40642
763,-153,16.3676,3.34509,0.00349741,0.00489259,-0.0013679,0.00573051,0.00265949,-1.0212,0.00331135,0.00953237,1987,1177,16.3675,-3.34513
770,-153,16.363,3.24109,0.00531089,0.00721551,-0.00232962,0.00877995,0.00374645,-0.979426,0.00508723,0.0095134,1994,1177,16.363,-3.24105
777,-153,16.3905,3.12598,0.00693253,0.0102019,-0.0032795,0.0122316,0.0049029,-1.01661,0.00710804,0.0206167,2001,1177,16.3905,-3.12601
784,-153,16.443,3.34839,0.00849747,0.0141754,-0.0043897,0.0165641,0.0061087,-1.07243,0.00967245,0.0410353,2008,1177,16.443,-3.34841
791,-153,16.5566,2.69775,0.00995375,0.0194554,-0.00564803,0.022085,0.00732416,-1.13507,0.0129895,0.0467417,2015,1177,16.5566,-2.69778
798,-153,16.5416,2.47913,0,0,0,0,0,0,0,-1,2022,1177,16.5416,-2.47909
805,-153,15.7269,1.15918,0,0,0,0,0,0,0,-1,2029,1177,15.7269,-1.15921
812,-153,0,0,0,0,0,0,0,0,0,-1,2036,1177,0,0
-700,-160,0,0,0,0,0,0,0,0,0,-1,524,1184,0,0
-693,-160,0,0,0,0,0,0,0,0,0,-1,531,1184,0,0
-686,-160,-8.38159,-2.20886,0,0,0,0,0,0,0,-1,538,1184,-8.38161,2.20884
-679,-160,-8.50745,-1.31689,0,0,0,0,0,0,0,-1,545,1184,-8.50748,1.31695
-672,-160,-9.00452,-0.33374,0,0,0,0,0,0,0,-1,552,1184,-9.00449,0.333762
-665,-160,-9.22034,0.169189,0.0350103,0.0507952,-0.0261601,0.0702275,0.0155781,-0.931905,0.0425862,0.0462761,559,1184,-9.22031,-0.1692
-658,-160,-9.42297,0.679199,0.0254835,0.0388419,-0.0176702,0.0510531,0.0132723,-0.966093,0.0305867,0.0477761,566,1184,-9.42295,-0.67924
-651,-160,-9.71832,0.949829,0.0184583,0.0288821,-0.011857,0.0366222,0.0107182,-0.992468,0.0217413,0.0480895,573,1184,-9.71833,-0.949875
-644,-160,-9.7699,0.910278,0.013252,0.0208399,-0.00794175,0.0258474,0.00824448,-1.00823,0.0152456,0.035865,580,1184,-9.76989,-0.910301
-637,-160,-9.80219,0.939209,0.00793094,0.015303,-0.0039781,0.0170402,0.00619367,-1.15905,0.00995968,0.0136155,587,1184,-9.8022,-0.939215
-630,-160,-9.83752,1.01465,0.00389565,0.00819055,-0.00176287,0.00882145,0.00326475,-1.22712,0.00515005,0.00814616,594,1184,-9.83755,-1.01465
-623,-160,-9.86182,1.10608,0.0018351,0.00450602,-0.00313022,0.00657376,-0.000232638,-0.987026,0.00446207,0.00935484,601,1184,-9.86183,-1.10606
-616,-160,-9.85699,1.22205,7.8944e-05,0.00177421,-0.0041711,0.00518293,-0.00332977,-0.885641,0.00495348,0.00893092,608,1184,-9.85698,-1.22211
-609,-160,-9.83521,1.39441,-0.00134273,3.33541e-05,-0.00547227,0.00486067,-0.00617005,-0.847936,0.00638353,0.0129276,615,1184,-9.83522,-1.39437
-602,-160,-9.82727,1.54297,-0.00315457,-0.00132388,-0.00611111,0.00394006,-0.0084185,-0.859738,0.00728971,0.0183025,622,1184,-9.82727,-1.54295
-595,-160,-9.81177,1.66309,-0.00469223,-0.00187172,-0.00724086,0.00409493,-0.0106589,-0.881576,0.00879464,0.0196383,629,1184,-9.81179,-1.66311
-588,-160,-9.88983,1.73889,-0.00526067,-0.0021878,-0.00789153,0.00431547,-0.0117639,-0.881543,0.00960973,0.019549,636,1184,-9.88983,-1.73894
-581,-160,-9.84613,1.84802,-0.00515536,-0.0026073,-0.00808224,0.00430071,-0.0120634,-0.863572,0.00979574,0.0173391,643,1184,-9.84611,-1.84802
-574,-160,-10.1217,1.49988,-0.00442243,-0.0027334,-0.00802946,0.00449583,-0.0116517,-0.837794,0.00962306,0.0441347,650,1184,-10.1217,-1.49983
-567,-160,-10.4602,1.09937,0,0,0,0,0,0,0,-1,657,1184,-10.4602,-1.09935
-560,-160,-11.2188,0.582153,-0.00237781,-0.00310772,-0.0070456,0.00431228,-0.00979781,-0.759522,0.00834915,0.0372481,664,1184,-11.2188,-0.582185
-553,-160,-11.1758,0.620361,-0.000780726,-0.00322215,-0.00579869,0.00392435,-0.00792723,-0.681655,0.00697139,0.0378428,671,1184,-11.1758,-0.62033
-546,-160,-11.2267,0.511353,0.00133694,-0.00336811,-0.00403037,0.00365113,-0.00568231,-0.521225,0.00543103,0.0400937,678,1184,-11.2267,-0.511311
-539,-160,-11.757,1.22144,0,0,0,0,0,0,0,-1,685,1184,-11.757,-1.22144
-532,-160,-11.8731,1.30725,0,0,0,0,0,0,0,-1,692,1184,-11.8731,-1.3072
-525,-160,-11.2858,0.979736,0.0110643,-0.00486294,0.00314741,0.0116637,-0.00546235,0.188192,0.0101015,0.0430048,699,1184,-11.2858,-0.979682
-518,-160,-10.9303,0.641968,0.0135017,-0.00719893,0.00217845,0.0137285,-0.00742569,0.103722,0.0123927,0.0426799,706,1184,-10.9303,-0.642022
-511,-160,0,0,0,0,0,0,0,0,0,-1,713,1184,0,0
-504,-160,0,0,0,0,0,0,0,0,0,-1,720,1184,0,0
-497,-160,0,0,0,0,0,0,0,0,0,-1,727,1184,0,0
-490,-160,0,0,0,0,0,0,0,0,0,-1,734,1184,0,0
-483,-160,0,0,0,0,0,0,0,0,0,-1,741,1184,0,0
-476,-160,0,0,0,0,0,0,0,0,0,-1,748,1184,0,0
-469,-160,0,0,0,0,0,0,0,0,0,-1,755,1184,0,0
-462,-160,0,0,0,0,0,0,0,0,0,-1,762,1184,0,0
-455,-160,0,0,0,0,0,0,0,0,0,-1,769,1184,0,0
-448,-160,0,0,0,0,0,0,0,0,0,-1,776,1184,0,0
-441,-160,0,0,0,0,0,0,0,0,0,-1,783,1184,0,0
-434,-160,0,0,0,0,0,0,0,0,0,-1,790,1184,0,0
-427,-160,0,0,0,0,0,0,0,0,0,-1,797,1184,0,0
-420,-160,0,0,0,0,0,0,0,0,0,-1,804,1184,0,0
-413,-160,0,0,0,0,0,0,0,0,0,-1,811,1184,0,0
-406,-160,0,0,0,0,0,0,0,0,0,-1,818,1184,0,0
-399,-160,0,0,0,0,0,0,0,0,0,-1,825,1184,0,0
-392,-160,0,0,0,0,0,0,0,0,0,-1,832,1184,0,0
-385,-160,0,0,0,0,0,0,0,0,0,-1,839,1184,0,0
-378,-160,0,0,0,0,0,0,0,0,0,-1,846,1184,0,0
-371,-160,0,0,0,0,0,0,0,0,0,-1,853,1184,0,0
-364,-160,0,0,0,0,0,0,0,0,0,-1,860,1184,0,0
-357,-160,0,0,0,0,0,0,0,0,0,-1,867,1184,0,0
-350,-160,0,0,0,0,0,0,0,0,0,-1,874,1184,0,0
-343,-160,0,0,0,0,0,0,0,0,0,-1,881,1184,0,0
-336,-160,0,0,0,0,0,0,0,0,0,-1,888,1184,0,0
-329,-160,0,0,0,0,0,0,0,0,0,-1,895,1184,0,0
-322,-160,0,0,0,0,0,0,0,0,0,-1,902,1184,0,0
-315,-160,0,0,0,0,0,0,0,0,0,-1,909,1184,0,0
-308,-160,0,0,0,0,0,0,0,0,0,-1,916,1184,0,0
-301,-160,0,0,0,0,0,0,0,0,0,-1,923,1184,0,0
-294,-160,0,0,0,0,0,0,0,0,0,-1,930,1184,0,0
-287,-160,0,0,0,0,0,0,0,0,0,-1,937,1184,0,0
-280,-160,0,0,0,0,0,0,0,0,0,-1,944,1184,0,0
-273,-160,0,0,0,0,0,0,0,0,0,-1,951,1184,0,0
-266,-160,0,0,0,0,0,0,0,0,0,-1,958,1184,0,0
-259,-160,0,0,0,0,0,0,0,0,0,-1,965,1184,0,0
-252,-160,0,0,0,0,0,0,0,0,0,-1,972,1184,0,0
-245,-160,0,0,0,0,0,0,0,0,0,-1,979,1184,0,0
-238,-160,0,0,0,0,0,0,0,0,0,-1,986,1184,0,0
-231,-160,0,0,0,0,0,0,0,0,0,-1,993,1184,0,0
-224,-160,0,0,0,0,0,0,0,0,0,-1,1000,1184,0,0
-217,-160,0,0,0,0,0,0,0,0,0,-1,1007,1184,0,0
-210,-160,0,0,0,0,0,0,0,0,0,-1,1014,1184,0,0
-203,-160,0,0,0,0,0,0,0,0,0,-1,1021,1184,0,0
-196,-160,0,0,0,0,0,0,0,0,0,-1,1028,1184,0,0
-189,-160,0,0,0,0,0,0,0,0,0,-1,1035,1184,0,0
-182,-160,0,0,0,0,0,0,0,0,0,-1,1042,1184,0,0
-175,-160,0,0,0,0,0,0,0,0,0,-1,1049,1184,0,0
-168,-160,0,0,0,0,0,0,0,0,0,-1,1056,1184,0,0
-161,-160,0,0,0,0,0,0,0,0,0,-1,1063,1184,0,0
-154,-160,0,0,0,0,0,0,0,0,0,-1,1070,1184,0,0
-147,-160,0,0,0,0,0,0,0,0,0,-1,1077,1184,0,0
-140,-160,0,0,0,0,0,0,0,0,0,-1,1084,1184,0,0
-133,-160,0,0,0,0,0,0,0,0,0,-1,1091,1184,0,0
-126,-160,0,0,0,0,0,0,0,0,0,-1,1098,1184,0,0
-119,-160,0,0,0,0,0,0,0,0,0,-1,1105,1184,0,0
-112,-160,0,0,0,0,0,0,0,0,0,-1,1112,1184,0,0
-105,-160,0,0,0,0,0,0,0,0,0,-1,1119,1184,0,0
-98,-160,0,0,0,0,0,0,0,0,0,-1,1126,1184,0,0
-91,-160,0,0,0,0,0,0,0,0,0,-1,1133,1184,0,0
-84,-160,0,0,0,0,0,0,0,0,0,-1,1140,1184,0,0
-77,-160,0,0,0,0,0,0,0,0,0,-1,1147,1184,0,0
-70,-160,0,0,0,0,0,0,0,0,0,-1,1154,1184,0,0
-63,-160,0,0,0,0,0,0,0,0,0,-1,1161,1184,0,0
-56,-160,0,0,0,0,0,0,0,0,0,-1,1168,1184,0,0
-49,-160,0,0,0,0,0,0,0,0,0,-1,1175,1184,0,0
-42,-160,0,0,0,0,0,0,0,0,0,-1,1182,1184,0,0
-35,-160,0,0,0,0,0,0,0,0,0,-1,1189,1184,0,0
-28,-160,0,0,0,0,0,0,0,0,0,-1,1196,1184,0,0
-21,-160,0,0,0,0,0,0,0,0,0,-1,1203,1184,0,0
-14,-160,0,0,0,0,0,0,0,0,0,-1,1210,1184,0,0
-7,-160,0,0,0,0,0,0,0,0,0,-1,1217,1184,0,0
0,-160,0,0,0,0,0,0,0,0,0,-1,1224,1184,0,0
7,-160,0,0,0,0,0,0,0,0,0,-1,1231,1184,0,0
14,-160,0,0,0,0,0,0,0,0,0,-1,1238,1184,0,0
21,-160,0,0,0,0,0,0,0,0,0,-1,1245,1184,0,0
28,-160,0,0,0,0,0,0,0,0,0,-1,1252,1184,0,0
35,-160,0,0,0,0,0,0,0,0,0,-1,1259,1184,0,0
42,-160,0,0,0,0,0,0,0,0,0,-1,1266,1184,0,0
49,-160,0,0,0,0,0,0,0,0,0,-1,1273,1184,0,0
56,-160,0,0,0,0,0,0,0,0,0,-1,1280,1184,0,0
63,-160,0,0,0,0,0,0,0,0,0,-1,1287,1184,0,0
70,-160,0,0,0,0,0,0,0,0,0,-1,1294,1184,0,0
77,-160,0,0,0,0,0,0,0,0,0,-1,1301,1184,0,0
84,-160,0,0,0,0,0,0,0,0,0,-1,1308,1184,0,0
91,-160,0,0,0,0,0,0,0,0,0,-1,1315,1184,0,0
98,-160,0,0,0,0,0,0,0,0,0,-1,1322,1184,0,0
105,-160,0,0,0,0,0,0,0,0,0,-1,1329,1184,0,0
112,-160,0,0,0,0,0,0,0,0,0,-1,1336,1184,0,0
119,-160,0,0,0,0,0,0,0,0,0,-1,1343,1184,0,0
126,-160,0,0,0,0,0,0,0,0,0,-1,1350,1184,0,0
133,-160,0,0,0,0,0,0,0,0,0,-1,1357,1184,0,0
140,-160,0,0,0,0,0,0,0,0,0,-1,1364,1184,0,0
147,-160,0,0,0,0,0,0,0,0,0,-1,1371,1184,0,0
154,-160,0,0,0,0,0,0,0,0,0,-1,1378,1184,0,0
161,-160,0,0,0,0,0,0,0,0,0,-1,1385,1184,0,0
168,-160,0,0,0,0,0,0,0,0,0,-1,1392,1184,0,0
175,-160,0,0,0,0,0,0,0,0,0,-1,1399,1184,0,0
182,-160,0,0,0,0,0,0,0,0,0,-1,1406,1184,0,0
189,-160,0,0,0,0,0,0,0,0,0,-1,1413,1184,0,0
196,-160,0,0,0,0,0,0,0,0,0,-1,1420,1184,0,0
203,-160,0,0,0,0,0,0,0,0,0,-1,1427,1184,0,0
210,-160,0,0,0,0,0,0,0,0,0,-1,1434,1184,0,0
217,-160,0,0,0,0,0,0,0,0,0,-1,1441,1184,0,0
224,-160,0,0,0,0,0,0,0,0,0,-1,1448,1184,0,0
231,-160,0,0,0,0,0,0,0,0,0,-1,1455,1184,0,0
238,-160,0,0,0,0,0,0,0,0,0,-1,1462,1184,0,0
245,-160,0,0,0,0,0,0,0,0,0,-1,1469,1184,0,0
252,-160,0,0,0,0,0,0,0,0,0,-1,1476,1184,0,0
259,-160,0,0,0,0,0,0,0,0,0,-1,1483,1184,0,0
266,-160,0,0,0,0,0,0,0,0,0,-1,1490,1184,0,0
273,-160,0,0,0,0,0,0,0,0,0,-1,1497,1184,0,0
280,-160,0,0,0,0,0,0,0,0,0,-1,1504,1184,0,0
287,-160,0,0,0,0,0,0,0,0,0,-1,1511,1184,0,0
294,-160,0,0,0,0,0,0,0,0,0,-1,1518,1184,0,0
301,-160,0,0,0,0,0,0,0,0,0,-1,1525,1184,0,0
308,-160,0,0,0,0,0,0,0,0,0,-1,1532,1184,0,0
315,-160,0,0,0,0,0,0,0,0,0,-1,1539,1184,0,0
322,-160,0,0,0,0,0,0,0,0,0,-1,1546,1184,0,0
329,-160,0,0,0,0,0,0,0,0,0,-1,1553,1184,0,0
336,-160,0,0,0,0,0,0,0,0,0,-1,1560,1184,0,0
343,-160,0,0,0,0,0,0,0,0,0,-1,1567,1184,0,0
350,-160,0,0,0,0,0,0,0,0,0,-1,1574,1184,0,0
357,-160,0,0,0,0,0,0,0,0,0,-1,1581,1184,0,0
364,-160,0,0,0,0,0,0,0,0,0,-1,1588,1184,0,0
371,-160,0,0,0,0,0,0,0,0,0,-1,1595,1184,0,0
378,-160,0,0,0,0,0,0,0,0,0,-1,1602,1184,0,0
385,-160,0,0,0,0,0,0,0,0,0,-1,1609,1184,0,0
392,-160,0,0,0,0,0,0,0,0,0,-1,1616,1184,0,0
399,-160,0,0,0,0,0,0,0,0,0,-1,1623,1184,0,0
406,-160,0,0,0,0,0,0,0,0,0,-1,1630,1184,0,0
413,-160,0,0,0,0,0,0,0,0,0,-1,1637,1184,0,0
420,-160,0,0,0,0,0,0,0,0,0,-1,1644,1184,0,0
427,-160,0,0,0,0,0,0,0,0,0,-1,1651,1184,0,0
434,-160,0,0,0,0,0,0,0,0,0,-1,1658,1184,0,0
441,-160,0,0,0,0,0,0,0,0,0,-1,1665,1184,0,0
448,-160,0,0,0,0,0,0,0,0,0,-1,1672,1184,0,0
455,-160,0,0,0,0,0,0,0,0,0,-1,1679,1184,0,0
462,-160,0,0,0,0,0,0,0,0,0,-1,1686,1184,0,0
469,-160,0,0,0,0,0,0,0,0,0,-1,1693,1184,0,0
476,-160,0,0,0,0,0,0,0,0,0,-1,1700,1184,0,0
483,-160,0,0,0,0,0,0,0,0,0,-1,1707,1184,0,0
490,-160,0,0,0,0,0,0,0,0,0,-1,1714,1184,0,0
497,-160,0,0,0,0,0,0,0,0,0,-1,1721,1184,0,0
504,-160,0,0,0,0,0,0,0,0,0,-1,1728,1184,0,0
511,-160,0,0,0,0,0,0,0,0,0,-1,1735,1184,0,0
518,-160,0,0,0,0,0,0,0,0,0,-1,1742,1184,0,0
525,-160,0,0,0,0,0,0,0,0,0,-1,1749,1184,0,0
532,-160,0,0,0,0,0,0,0,0,0,-1,1756,1184,0,0
539,-160,0,0,0,0,0,0,0,0,0,-1,1763,1184,0,0
546,-160,0,0,0,0,0,0,0,0,0,-1,1770,1184,0,0
553,-160,0,0,0,0,0,0,0,0,0,-1,1777,1184,0,0
560,-160,0,0,0,0,0,0,0,0,0,-1,1784,1184,0,0
567,-160,0,0,0,0,0,0,0,0,0,-1,1791,1184,0,0
574,-160,0,0,0,0,0,0,0,0,0,-1,1798,1184,0,0
581,-160,0,0,0,0,0,0,0,0,0,-1,1805,1184,0,0
588,-160,0,0,0,0,0,0,0,0,0,-1,1812,1184,0,0
595,-160,0,0,0,0,0,0,0,0,0,-1,1819,1184,0,0
602,-160,0,0,0,0,0,0,0,0,0,-1,1826,1184,0,0
609,-160,0,0,0,0,0,0,0,0,0,-1,1833,1184,0,0
616,-160,0,0,0,0,0,0,0,0,0,-1,1840,1184,0,0
623,-160,0,0,0,0,0,0,0,0,0,-1,1847,1184,0,0
630,-160,0,0,0,0,0,0,0,0,0,-1,1854,1184,0,0
637,-160,17.5271,2.87158,0.00171747,0.000106084,-0.00167436,0.0027699,-0.000946344,-0.561152,0.00223002,0.0430178,1861,1184,17.5271,-2.87157
644,-160,17.6381,2.85034,0.00198943,0.000263265,-0.00183138,0.00315091,-0.000898219,-0.565196,0.0024554,0.0430665,1868,1184,17.6381,-2.85031
651,-160,17.6705,2.81543,0.00188336,0.000341818,-0.0014399,0.00274581,-0.000520627,-0.539656,0.0020265,0.0413525,1875,1184,17.6706,-2.81548
658,-160,17.7094,2.69067,0.000319917,0.000136219,-0.000260562,0.000504345,-4.82088e-05,-0.615946,0.000353397,0.0404738,1882,1184,17.7093,-2.69068
665,-160,17.6842,2.48328,-0.00188145,-0.000225136,0.00127262,0.000465065,-0.00257165,1.07385,0.00188864,0.0392736,1889,1184,17.6842,-2.48329
672,-160,17.5947,2.41223,-0.00402947,-0.000592526,0.00261713,0.000819899,-0.00544189,1.07591,0.00392984,0.035724,1896,1184,17.5948,-2.41222
679,-160,17.5963,2.44702,-0.00594232,-0.000938175,0.00372213,0.00104469,-0.00792518,1.08132,0.00566389,0.0267803,1903,1184,17.5963,-2.44698
686,-160,17.6407,2.49231,-0.00745934,-0.00123495,0.00451403,0.00113576,-0.00983006,1.0872,0.0069629,0.0182283,1910,1184,17.6407,-2.4923
693,-160,17.6842,2.54431,0,0,0,0,0,0,0,-1,1917,1184,17.6842,-2.5443
700,-160,16.9397,3.33728,0,0,0,0,0,0,0,-1,1924,1184,16.9397,-3.33726
707,-160,16.8243,3.32007,0,0,0,0,0,0,0,-1,1931,1184,16.8244,-3.32011
714,-160,16.4026,3.95923,-0.00934861,-0.00151313,0.00533478,0.00118794,-0.0120497,1.10211,0.00845696,0.0287717,1938,1184,16.4025,-3.95923
721,-160,16.4054,3.77893,-0.00859597,-0.00133173,0.0049128,0.0011458,-0.0110735,1.10371,0.0077924,0.0139896,1945,1184,16.4054,-3.77899
728,-160,16.3575,3.73877,-0.00733605,-0.000927562,0.00420361,0.00115379,-0.0094174,1.11105,0.00669608,0.0126708,1952,1184,16.3575,-3.73877
735,-160,16.2791,3.69751,-0.00569361,-0.000356899,0.00324455,0.0011756,-0.00722611,1.12953,0.00525331,0.0139922,1959,1184,16.2791,-3.69756
742,-160,16.2849,3.59192,-0.00328099,0.000363007,0.00204473,0.00127973,-0.00419771,1.14933,0.0033086,0.0142189,1966,1184,16.2849,-3.59191
749,-160,16.2947,3.48608,-0.000663353,0.00174059,0.000802411,0.00198381,-0.00090658,1.27648,0.00170696,0.015564,1973,1184,16.2946,-3.48614
756,-160,16.2969,3.39514,0.00190552,0.00338199,-0.000261813,0.00342704,0.00186047,-1.40039,0.00198103,0.0101387,1980,1184,16.2969,-3.39515
763,-160,16.2844,3.32605,0.00422679,0.005272,-0.0012725,0.00612503,0.00337376,-0.980243,0.00354237,0.010095,1987,1184,16.2845,-3.3261
770,-160,16.2753,3.22668,0.00604921,0.0076408,-0.00204045,0.00903515,0.00465486,-0.97133,0.00521725,0.01662,1994,1184,16.2753,-3.22668
777,-160,16.4066,3.29248,0.00772087,0.010704,-0.0028331,0.0124142,0.00601067,-1.0277,0.00716852,0.029689,2001,1184,16.4066,-3.29248
784,-160,16.5934,3.49365,0.00924575,0.0147656,-0.00374388,0.0166569,0.00735445,-1.10302,0.00963874,0.0405254,2008,1184,16.5934,-3.49371
791,-160,16.4917,2.82373,0,0,0,0,0,0,0,-1,2015,1184,16.4918,-2.82368
798,-160,15.5848,1.1665,0,0,0,0,0,0,0,-1,2022,1184,15.5849,-1.16649
805,-160,15.248,0.790283,0,0,0,0,0,0,0,-1,2029,1184,15.2481,-0.790235
812,-160,0,0,0,0,0,0,0,0,0,-1,2036,1184,0,0
-700,-167,0,0,0,0,0,0,0,0,0,-1,524,1191,0,0
-693,-167,0,0,0,0,0,0,0,0,0,-1,531,1191,0,0
-686,-167,-8.20569,-2.52319,0,0,0,0,0,0,0,-1,538,1191,-8.20567,2.52323
-679,-167,-8.32147,-1.71936,0.0630545,0.0846408,-0.0419905,0.117203,0.0304922,-0.911194,0.0702142,0.0442245,545,1191,-8.32145,1.71931
-672,-167,-8.56006,-1.04822,0.0474314,0.0677378,-0.028861,0.0881795,0.0269898,-0.954535,0.0521712,0.0463259,552,1191,-8.56008,1.04819
-665,-167,-8.92389,-0.35083,0.03572,0.0528188,-0.0198067,0.0658425,0.0226964,-0.98914,0.0386205,0.0468798,559,1191,-8.92387,0.350777
-658,-167,-9.05084,0.252686,0.026898,0.0400939,-0.0136018,0.0486136,0.0183783,-1.01122,0.028344,0.0482074,566,1191,-9.05082,-0.252716
-651,-167,-9.56378,0.636597,0.0201256,0.0295738,-0.00938439,0.0353561,0.0143433,-1.01858,0.0205335,0.0466661,573,1191,-9.5638,-0.636636
-644,-167,-9.63654,0.850342,0.0148568,0.0211427,-0.00652998,0.0252467,0.0107528,-1.00969,0.0146294,0.0380214,580,1191,-9.63653,-0.850349
-637,-167,-9.67834,0.885742,0.0095024,0.0152439,-0.00336433,0.0167958,0.00795049,-1.1386,0.00970166,0.0164179,587,1191,-9.67832,-0.885711
-630,-167,-9.7218,0.991577,0.00543584,0.00823122,-0.0016659,0.0090081,0.00465896,-1.13443,0.00520186,0.00863088,594,1191,-9.72178,-0.991602
-623,-167,-9.72375,1.09216,0.00313395,0.00445746,-0.00300466,0.00687238,0.000719035,-0.893789,0.00436171,0.0093313,601,1191,-9.72377,-1.0921
-616,-167,-9.71893,1.22473,0.00122686,0.00173848,-0.00403944,0.00553021,-0.00256486,-0.81702,0.00477707,0.0124241,608,1191,-9.71896,-1.22468
-609,-167,-9.7207,1.36816,-0.000325591,-3.50037e-05,-0.00529789,0.00511958,-0.00548018,-0.799107,0.00612096,0.0139581,615,1191,-9.72069,-1.36816
-602,-167,-9.7204,1.48645,-0.0022764,-0.00145685,-0.00579851,0.00394635,-0.0076796,-0.820674,0.00682663,0.015102,622,1191,-9.72037,-1.48646
-595,-167,-9.69916,1.62854,-0.00379234,-0.00182943,-0.0069089,0.00416737,-0.00978915,-0.855954,0.00827283,0.0191386,629,1191,-9.69917,-1.62849
-588,-167,-9.7171,1.76709,-0.00426174,-0.00192923,-0.00758126,0.00457495,-0.0107659,-0.861717,0.00909429,0.0178617,636,1191,-9.71711,-1.76708
-581,-167,-9.72009,1.83228,-0.00413978,-0.00217255,-0.00780291,0.0047085,-0.0110208,-0.848096,0.0093219,0.0179499,643,1191,-9.72007,-1.83231
-574,-167,-9.87921,1.73389,-0.00351164,-0.00214919,-0.00775797,0.00495741,-0.0106182,-0.829191,0.00918844,0.0407259,650,1191,-9.8792,-1.73391
-567,-167,-10.3807,0.359619,0,0,0,0,0,0,0,-1,657,1191,-10.3807,-0.359634
-560,-167,-11.1113,0.415649,-0.00178984,-0.00226461,-0.00689894,0.00487579,-0.00893025,-0.768201,0.00808468,0.0369057,664,1191,-11.1113,-0.415599
-553,-167,-11.137,0.577515,-0.000495515,-0.0021887,-0.00579575,0.00451514,-0.00719936,-0.712875,0.0068223,0.0366292,671,1191,-11.137,-0.57746
-546,-167,-11.1701,0.596436,0.00119496,-0.00216244,-0.00419943,0.00403878,-0.00500626,-0.595255,0.00523211,0.0347506,678,1191,-11.1701,-0.59646
-539,-167,-11.17,0.602661,0.0033116,-0.0022249,-0.00216487,0.00405758,-0.00297088,-0.331845,0.00407402,0.0388904,685,1191,-11.17,-0.602684
-532,-167,-11.2002,0.71106,0.00606663,-0.00247573,0.000249578,0.00607392,-0.00248301,0.0291833,0.00508328,0.0433876,692,1191,-11.2002,-0.711042
-525,-167,-11.1353,0.878296,0.00910508,-0.00318539,0.00247601,0.00958515,-0.00366545,0.191509,0.00790062,0.0431879,699,1191,-11.1352,-0.878314
-518,-167,-10.9679,0.589966,0.0114998,-0.00535461,0.00191858,0.0117154,-0.00557025,0.111925,0.0101879,0.0428559,706,1191,-10.9679,-0.589995
-511,-167,0,0,0,0,0,0,0,0,0,-1,713,1191,0,0
-504,-167,0,0,0,0,0,0,0,0,0,-1,720,1191,0,0
-497,-167,0,0,0,0,0,0,0,0,0,-1,727,1191,0,0
-490,-167,0,0,0,0,0,0,0,0,0,-1,734,1191,0,0
-483,-167,0,0,0,0,0,0,0,0,0,-1,741,1191,0,0
-476,-167,0,0,0,0,0,0,0,0,0,-1,748,1191,0,0
-469,-167,0,0,0,0,0,0,0,0,0,-1,755,1191,0,0
-462,-167,0,0,0,0,0,0,0,0,0,-1,762,1191,0,0
-455,-167,0,0,0,0,0,0,0,0,0,-1,769,1191,0,0
-448,-167,0,0,0,0,0,0,0,0,0,-1,776,1191,0,0
-441,-167,0,0,0,0,0,0,0,0,0,-1,783,1191,0,0
-434,-167,0,0,0,0,0,0,0,0,0,-1,790,1191,0,0
-427,-167,0,0,0,0,0,0,0,0,0,-1,797,1191,0,0
-420,-167,0,0,0,0,0,0,0,0,0,-1,804,1191,0,0
-413,-167,0,0,0,0,0,0,0,0,0,-1,811,1191,0,0
-406,-167,0,0,0,0,0,0,0,0,0,-1,818,1191,0,0
-399,-167,0,0,0,0,0,0,0,0,0,-1,825,1191,0,0
-392,-167,0,0,0,0,0,0,0,0,0,-1,832,1191,0,0
-385,-167,0,0,0,0,0,0,0,0,0,-1,839,1191,0,0
-378,-167,0,0,0,0,0,0,0,0,0,-1,846,1191,0,0
-371,-167,0,0,0,0,0,0,0,0,0,-1,853,1191,0,0
-364,-167,0,0,0,0,0,0,0,0,0,-1,860,1191,0,0
-357,-167,0,0,0,0,0,0,0,0,0,-1,867,1191,0,0
-350,-167,0,0,0,0,0,0,0,0,0,-1,874,1191,0,0
-343,-167,0,0,0,0,0,0,0,0,0,-1,881,1191,0,0
-336,-167,0,0,0,0,0,0,0,0,0,-1,888,1191,0,0
-329,-167,0,0,0,0,0,0,0,0,0,-1,895,1191,0,0
-322,-167,0,0,0,0,0,0,0,0,0,-1,902,1191,0,0
-315,-167,0,0,0,0,0,0,0,0,0,-1,909,1191,0,0
-308,-167,0,0,0,0,0,0,0,0,0,-1,916,1191,0,0
-301,-167,0,0,0,0,0,0,0,0,0,-1,923,1191,0,0
-294,-167,0,0,0,0,0,0,0,0,0,-1,930,1191,0,0
-287,-167,0,0,0,0,0,0,0,0,0,-1,937,1191,0,0
-280,-167,0,0,0,0,0,0,0,0,0,-1,944,1191,0,0
-273,-167,0,0,0,0,0,0,0,0,0,-1,951,1191,0,0
-266,-167,0,0,0,0,0,0,0,0,0,-1,958,1191,0,0
-259,-167,0,0,0,0,0,0,0,0,0,-1,965,1191,0,0
-252,-167,0,0,0,0,0,0,0,0,0,-1,972,1191,0,0
-245,-167,0,0,0,0,0,0,0,0,0,-1,979,1191,0,0
-238,-167,0,0,0,0,0,0,0,0,0,-1,986,1191,0,0
-231,-167,0,0,0,0,0,0,0,0,0,-1,993,1191,0,0
-224,-167,0,0,0,0,0,0,0,0,0,-1,1000,1191,0,0
-217,-167,0,0,0,0,0,0,0,0,0,-1,1007,1191,0,0
-210,-167,0,0,0,0,0,0,0,0,0,-1,1014,1191,0,0
-203,-167,0,0,0,0,0,0,0,0,0,-1,1021,1191,0,0
-196,-167,0,0,0,0,0,0,0,0,0,-1,1028,1191,0,0
-189,-167,0,0,0,0,0,0,0,0,0,-1,1035,1191,0,0
-182,-167,0,0,0,0,0,0,0,0,0,-1,1042,1191,0,0
-175,-167,0,0,0,0,0,0,0,0,0,-1,1049,1191,0,0
-168,-167,0,0,0,0,0,0,0,0,0,-1,1056,1191,0,0
-161,-167,0,0,0,0,0,0,0,0,0,-1,1063,1191,0,0
-154,-167,0,0,0,0,0,0,0,0,0,-1,1070,1191,0,0
-147,-167,0,0,0,0,0,0,0,0,0,-1,1077,1191,0,0
-140,-167,0,0,0,0,0,0,0,0,0,-1,1084,1191,0,0
-133,-167,0,0,0,0,0,0,0,0,0,-1,1091,1191,0,0
-126,-167,0,0,0,0,0,0,0,0,0,-1,1098,1191,0,0
-119,-167,0,0,0,0,0,0,0,0,0,-1,1105,1191,0,0
-112,-167,0,0,0,0,0,0,0,0,0,-1,1112,1191,0,0
-105,-167,0,0,0,0,0,0,0,0,0,-1,1119,1191,0,0
-98,-167,0,0,0,0,0,0,0,0,0,-1,1126,1191,0,0
-91,-167,0,0,0,0,0,0,0,0,0,-1,1133,1191,0,0
-84,-167,0,0,0,0,0,0,0,0,0,-1,1140,1191,0,0
-77,-167,0,0,0,0,0,0,0,0,0,-1,1147,1191,0,0
-70,-167,0,0,0,0,0,0,0,0,0,-1,1154,1191,0,0
-63,-167,0,0,0,0,0,0,0,0,0,-1,1161,1191,0,0
-56,-167,0,0,0,0,0,0,0,0,0,-1,1168,1191,0,0
-49,-167,0,0,0,0,0,0,0,0,0,-1,1175,1191,0,0
-42,-167,0,0,0,0,0,0,0,0,0,-1,1182,1191,0,0
-35,-167,0,0,0,0,0,0,0,0,0,-1,1189,1191,0,0
-28,-167,0,0,0,0,0,0,0,0,0,-1,1196,1191,0,0
-21,-167,0,0,0,0,0,0,0,0,0,-1,1203,1191,0,0
-14,-167,0,0,0,0,0,0,0,0,0,-1,1210,1191,0,0
-7,-167,0,0,0,0,0,0,0,0,0,-1,1217,1191,0,0
0,-167,0,0,0,0,0,0,0,0,0,-1,1224,1191,0,0
7,-167,0,0,0,0,0,0,0,0,0,-1,1231,1191,0,0
14,-167,0,0,0,0,0,0,0,0,0,-1,1238,1191,0,0
21,-167,0,0,0,0,0,0,0,0,0,-1,1245,1191,0,0
28,-167,0,0,0,0,0,0,0,0,0,-1,1252,1191,0,0
35,-167,0,0,0,0,0,0,0,0,0,-1,1259,1191,0,0
42,-167,0,0,0,0,0,0,0,0,0,-1,1266,1191,0,0
49,-167,0,0,0,0,0,0,0,0,0,-1,1273,1191,0,0
56,-167,0,0,0,0,0,0,0,0,0,-1,1280,1191,0,0
63,-167,0,0,0,0,0,0,0,0,0,-1,1287,1191,0,0
70,-167,0,0,0,0,0,0,0,0,0,-1,1294,1191,0,0
77,-167,0,0,0,0,0,0,0,0,0,-1,1301,1191,0,0
84,-167,0,0,0,0,0,0,0,0,0,-1,1308,1191,0,0
91,-167,0,0,0,0,0,0,0,0,0,-1,1315,1191,0,0
98,-167,0,0,0,0,0,0,0,0,0,-1,1322,1191,0,0
105,-167,0,0,0,0,0,0,0,0,0,-1,1329,1191,0,0
112,-167,0,0,0,0,0,0,0,0,0,-1,1336,1191,0,0
119,-167,0,0,0,0,0,0,0,0,0,-1,1343,1191,0,0
126,-167,0,0,0,0,0,0,0,0,0,-1,1350,1191,0,0
133,-167,0,0,0,0,0,0,0,0,0,-1,1357,1191,0,0
140,-167,0,0,0,0,0,0,0,0,0,-1,1364,1191,0,0
147,-167,0,0,0,0,0,0,0,0,0,-1,1371,1191,0,0
154,-167,0,0,0,0,0,0,0,0,0,-1,1378,1191,0,0
161,-167,0,0,0,0,0,0,0,0,0,-1,1385,1191,0,0
168,-167,0,0,0,0,0,0,0,0,0,-1,1392,1191,0,0
175,-167,0,0,0,0,0,0,0,0,0,-1,1399,1191,0,0
182,-167,0,0,0,0,0,0,0,0,0,-1,1406,1191,0,0
189,-167,0,0,0,0,0,0,0,0,0,-1,1413,1191,0,0
196,-167,0,0,0,0,0,0,0,0,0,-1,1420,1191,0,0
203,-167,0,0,0,0,0,0,0,0,0,-1,1427,1191,0,0
210,-167,0,0,0,0,0,0,0,0,0,-1,1434,1191,0,0
217,-167,0,0,0,0,0,0,0,0,0,-1,1441,1191,0,0
224,-167,0,0,0,0,0,0,0,0,0,-1,1448,1191,0,0
231,-167,0,0,0,0,0,0,0,0,0,-1,1455,1191,0,0
238,-167,0,0,0,0,0,0,0,0,0,-1,1462,1191,0,0
245,-167,0,0,0,0,0,0,0,0,0,-1,1469,1191,0,0
252,-167,0,0,0,0,0,0,0,0,0,-1,1476,1191,0,0
259,-167,0,0,0,0,0,0,0,0,0,-1,1483,1191,0,0
266,-167,0,0,0,0,0,0,0,0,0,-1,1490,1191,0,0
273,-167,0,0,0,0,0,0,0,0,0,-1,1497,1191,0,0
280,-167,0,0,0,0,0,0,0,0,0,-1,1504,1191,0,0
287,-167,0,0,0,0,0,0,0,0,0,-1,1511,1191,0,0
294,-167,0,0,0,0,0,0,0,0,0,-1,1518,1191,0,0
301,-167,0,0,0,0,0,0,0,0,0,-1,1525,1191,0,0
308,-167,0,0,0,0,0,0,0,0,0,-1,1532,1191,0,0
315,-167,0,0,0,0,0,0,0,0,0,-1,1539,1191,0,0
322,-167,0,0,0,0,0,0,0,0,0,-1,1546,1191,0,0
329,-167,0,0,0,0,0,0,0,0,0,-1,1553,1191,0,0
336,-167,0,0,0,0,0,0,0,0,0,-1,1560,1191,0,0
343,-167,0,0,0,0,0,0,0,0,0,-1,1567,1191,0,0
350,-167,0,0,0,0,0,0,0,0,0,-1,1574,1191,0,0
357,-167,0,0,0,0,0,0,0,0,0,-1,1581,1191,0,0
364,-167,0,0,0,0,0,0,0,0,0,-1,1588,1191,0,0
371,-167,0,0,0,0,0,0,0,0,0,-1,1595,1191,0,0
378,-167,0,0,0,0,0,0,0,0,0,-1,1602,1191,0,0
385,-167,0,0,0,0,0,0,0,0,0,-1,1609,1191,0,0
392,-167,0,0,0,0,0,0,0,0,0,-1,1616,1191,0,0
399,-167,0,0,0,0,0,0,0,0,0,-1,1623,1191,0,0
406,-167,0,0,0,0,0,0,0,0,0,-1,1630,1191,0,0
413,-167,0,0,0,0,0,0,0,0,0,-1,1637,1191,0,0
420,-167,0,0,0,0,0,0,0,0,0,-1,1644,1191,0,0
427,-167,0,0,0,0,0,0,0,0,0,-1,1651,1191,0,0
434,-167,0,0,0,0,0,0,0,0,0,-1,1658,1191,0,0
441,-167,0,0,0,0,0,0,0,0,0,-1,1665,1191,0,0
448,-167,0,0,0,0,0,0,0,0,0,-1,1672,1191,0,0
455,-167,0,0,0,0,0,0,0,0,0,-1,1679,1191,0,0
462,-167,0,0,0,0,0,0,0,0,0,-1,1686,1191,0,0
469,-167,0,0,0,0,0,0,0,0,0,-1,1693,1191,0,0
476,-167,0,0,0,0,0,0,0,0,0,-1,1700,1191,0,0
483,-167,0,0,0,0,0,0,0,0,0,-1,1707,1191,0,0
490,-167,0,0,0,0,0,0,0,0,0,-1,1714,1191,0,0
497,-167,0,0,0,0,0,0,0,0,0,-1,1721,1191,0,0
504,-167,0,0,0,0,0,0,0,0,0,-1,1728,1191,0,0
511,-167,0,0,0,0,0,0,0,0,0,-1,1735,1191,0,0
518,-167,0,0,0,0,0,0,0,0,0,-1,1742,1191,0,0
525,-167,0,0,0,0,0,0,0,0,0,-1,1749,1191,0,0
532,-167,0,0,0,0,0,0,0,0,0,-1,1756,1191,0,0
539,-167,0,0,0,0,0,0,0,0,0,-1,1763,1191,0,0
546,-167,0,0,0,0,0,0,0,0,0,-1,1770,1191,0,0
553,-167,0,0,0,0,0,0,0,0,0,-1,1777,1191,0,0
560,-167,0,0,0,0,0,0,0,0,0,-1,1784,1191,0,0
567,-167,0,0,0,0,0,0,0,0,0,-1,1791,1191,0,0
574,-167,0,0,0,0,0,0,0,0,0,-1,1798,1191,0,0
581,-167,0,0,0,0,0,0,0,0,0,-1,1805,1191,0,0
588,-167,0,0,0,0,0,0,0,0,0,-1,1812,1191,0,0
595,-167,0,0,0,0,0,0,0,0,0,-1,1819,1191,0,0
602,-167,0,0,0,0,0,0,0,0,0,-1,1826,1191,0,0
609,-167,0,0,0,0,0,0,0,0,0,-1,1833,1191,0,0
616,-167,0,0,0,0,0,0,0,0,0,-1,1840,1191,0,0
623,-167,0,0,0,0,0,0,0,0,0,-1,1847,1191,0,0
630,-167,0,0,0,0,0,0,0,0,0,-1,1854,1191,0,0
637,-167,17.6387,2.76868,0.00133233,0.000645222,-0.00201896,0.00303676,-0.00105921,-0.701124,0.00245496,0.0452578,1861,1191,17.6387,-2.76864
644,-167,17.6661,2.88562,0.00198831,0.000815025,-0.00191984,0.00340914,-0.000605798,-0.637119,0.00249929,0.0463351,1868,1191,17.6662,-2.88567
651,-167,17.6746,2.86963,0.00188229,0.000896653,-0.00109754,0.00259258,0.000186364,-0.574379,0.00166973,0.0431582,1875,1191,17.6746,-2.86959
658,-167,17.7288,2.78613,0.0002583,0.000684524,0.000422253,0.000944396,-1.57265e-06,1.0191,0.000630122,0.0436775,1882,1191,17.7287,-2.78608
665,-167,17.708,2.60828,-0.00185267,0.000330097,0.00205842,0.00156856,-0.00309114,1.02916,0.00273774,0.0403786,1889,1191,17.7081,-2.60829
672,-167,17.5847,2.49084,-0.0039173,-5.2192e-05,0.00339565,0.00192232,-0.00589182,1.0441,0.00470153,0.0298845,1896,1191,17.5847,-2.4908
679,-167,17.625,2.49646,-0.0057684,-0.000428059,0.00443198,0.00207596,-0.00827242,1.05652,0.0063216,0.022786,1903,1191,17.625,-2.49643
686,-167,17.6674,2.54858,-0.0072326,-0.000768987,0.00512026,0.00205409,-0.0100557,1.06691,0.00748305,0.0326192,1910,1191,17.6673,-2.54853
693,-167,17.6719,2.63245,0,0,0,0,0,0,0,-1,1917,1191,17.6719,-2.6325
700,-167,16.9305,3.72815,-0.00878775,-0.0011127,0.00568869,0.00191183,-0.0118123,1.08213,0.0085834,0.0391632,1924,1191,16.9305,-3.72815
707,-167,16.214,4.15625,-0.0091401,-0.00121603,0.00570085,0.00176437,-0.0121205,1.08908,0.0087281,0.0349792,1931,1191,16.214,-4.15626
714,-167,16.3566,3.99988,-0.0091191,-0.00123265,0.00550058,0.00159209,-0.0119438,1.09638,0.00854285,0.0225515,1938,1191,16.3565,-3.99987
721,-167,16.3363,3.80396,-0.0083176,-0.00108599,0.00493878,0.00141912,-0.0108227,1.10138,0.00773171,0.0188035,1945,1191,16.3362,-3.80401
728,-167,16.2346,3.77087,-0.00701966,-0.000711208,0.00409933,0.00130696,-0.00903783,1.11331,0.00650478,0.0140333,1952,1191,16.2346,-3.7709
735,-167,16.1846,3.7135,-0.00534105,-0.000202435,0.00300921,0.00118511,-0.00672859,1.13875,0.00492849,0.0144618,1959,1191,16.1846,-3.71351
742,-167,16.177,3.604,-0.00270626,0.000663772,0.00175348,0.00141062,-0.00345311,1.16814,0.00288943,0.0156015,1966,1191,16.1771,-3.60404
749,-167,16.1934,3.48376,6.35292e-05,0.00206918,0.000548642,0.00220945,-7.67409e-05,1.32049,0.0014992,0.0147412,1973,1191,16.1934,-3.4838
756,-167,16.1952,3.39612,0.00270246,0.00373286,-0.000445396,0.00389869,0.00253663,-1.21437,0.00228471,0.0111062,1980,1191,16.1952,-3.39613
763,-167,16.1747,3.30933,0.00498661,0.00560924,-0.00130668,0.00664118,0.00395467,-0.902341,0.00385752,0.0120562,1987,1191,16.1747,-3.30928
770,-167,16.1565,3.25281,0.00686296,0.00797757,-0.00196688,0.00946457,0.00537595,-0.923452,0.0054812,0.022551,1994,1191,16.1565,-3.25286
777,-167,16.3914,3.39966,0.00861629,0.0110132,-0.0026667,0.0127384,0.00689113,-0.996585,0.00736274,0.0379194,2001,1191,16.3914,-3.3997
784,-167,16.5703,3.40808,0.0101308,0.0149807,-0.00344379,0.0167677,0.00834385,-1.09215,0.00968085,0.0455475,2008,1191,16.5703,-3.40811
791,-167,16.6058,3.42493,0.0112509,0.0202123,-0.00430467,0.0219451,0.00951818,-1.18811,0.012707,0.0459787,2015,1191,16.6058,-3.42497
798,-167,16.6194,3.47327,0,0,0,0,0,0,0,-1,2022,1191,16.6194,-3.47322
805,-167,14.7858,0.486084,0,0,0,0,0,0,0,-1,2029,1191,14.7858,-0.486065
812,-167,0,0,0,0,0,0,0,0,0,-1,2036,1191,0,0
-700,-174,0,0,0,0,0,0,0,0,0,-1,524,1198,0,0
-693,-174,0,0,0,0,0,0,0,0,0,-1,531,1198,0,0
-686,-174,-8.10297,-3.38733,0.0783075,0.101004,-0.0413175,0.132504,0.0468082,-0.919425,0.0775914,0.0458884,538,1198,-8.10296,3.38728
-679,-174,-8.19727,-2.27161,0.0608192,0.082454,-0.0274187,0.101112,0.0421612,-0.973288,0.0586447,0.0434504,545,1198,-8.19728,2.27163
-672,-174,-8.38727,-1.43445,0.0474948,0.0654944,-0.0183347,0.0769191,0.0360701,-1.01355,0.0444378,0.047296,552,1198,-8.38729,1.43443
-665,-174,-8.73126,-0.769043,0.0371632,0.0506805,-0.0124086,0.0580517,0.029792,-1.03477,0.03352,0.0466531,559,1198,-8.73124,0.769021
-658,-174,-8.80823,-0.132935,0,0,0,0,0,0,0,-1,566,1198,-8.80822,0.132985
-651,-174,-9.79279,-0.183228,0,0,0,0,0,0,0,-1,573,1198,-9.79278,0.183236
-644,-174,-9.41296,0.250732,0,0,0,0,0,0,0,-1,580,1198,-9.41294,-0.250746
-637,-174,-9.50659,0.807495,0.0116987,0.013883,-0.00222597,0.0152703,0.0103114,-1.01346,0.00899502,0.0220424,587,1198,-9.50657,-0.807507
-630,-174,-9.56476,0.980713,0.00754842,0.00733268,-0.00124791,0.00869312,0.00618798,-0.742284,0.00516693,0.0118847,594,1198,-9.56474,-0.98075
-623,-174,-9.57343,1.09619,0.00490964,0.00376533,-0.00264402,0.00704271,0.00163226,-0.678843,0.00425668,0.0126802,601,1198,-9.57344,-1.09622
-616,-174,-9.59564,1.23767,0.00278639,0.00133043,-0.00379546,0.00592306,-0.00180623,-0.690647,0.00466873,0.0180146,608,1198,-9.59562,-1.23765
-609,-174,-9.60016,1.37146,0.00100879,-0.000336149,-0.00503068,0.00541175,-0.00473911,-0.718955,0.00586489,0.0211224,615,1198,-9.60018,-1.37152
-602,-174,-9.61804,1.47534,-0.00110656,-0.00175572,-0.00540654,0.00398513,-0.00684741,-0.755417,0.00632653,0.014695,622,1198,-9.61801,-1.47535
-595,-174,-9.59796,1.60278,-0.00258126,-0.00195398,-0.00649338,0.00423333,-0.00876857,-0.80953,0.00765736,0.0122401,629,1198,-9.59797,-1.60281
-588,-174,-9.62567,1.73438,-0.00295984,-0.0018728,-0.007177,0.00478123,-0.00961387,-0.823191,0.00846569,0.0136787,636,1198,-9.62565,-1.73441
-581,-174,-9.63696,1.84351,-0.00283806,-0.00196735,-0.00741165,0.00502172,-0.00982713,-0.814734,0.00872135,0.0156619,643,1198,-9.63693,-1.84354
-574,-174,-9.9931,1.85608,-0.00234683,-0.00181074,-0.00736473,0.00529082,-0.00944839,-0.803588,0.0086218,0.0382512,650,1198,-9.9931,-1.85614
-567,-174,-10.484,1.81885,0,0,0,0,0,0,0,-1,657,1198,-10.484,-1.8189
-560,-174,-10.5014,0.516479,0,0,0,0,0,0,0,-1,664,1198,-10.5014,-0.516529
-553,-174,-11.0858,0.534668,-3.17396e-05,-0.00146686,-0.00571239,0.00500798,-0.00650658,-0.722918,0.00666668,0.0372274,671,1198,-11.0858,-0.534632
-546,-174,-11.1357,0.661255,0.00118704,-0.00125913,-0.00433369,0.00446694,-0.00453903,-0.647862,0.00519965,0.0300521,678,1198,-11.1357,-0.661203
-539,-174,-11.0581,0.546265,0.00269917,-0.0011048,-0.00257628,0.00399949,-0.00240512,-0.467423,0.0037357,0.0341059,685,1198,-11.0581,-0.546266
-532,-174,-11.0331,0.650391,0.00468367,-0.00110786,-0.000496224,0.00472588,-0.00115007,-0.0848567,0.00359578,0.043439,692,1198,-11.0331,-0.650416
-525,-174,-11.142,0.802002,0.00702679,-0.00146682,0.00153016,0.00729405,-0.00173408,0.172914,0.00553207,0.0422554,699,1198,-11.142,-0.802047
-518,-174,-11.127,0.657471,0.00920001,-0.00305424,0.00128486,0.00933328,-0.00318751,0.103352,0.00751355,0.0395759,706,1198,-11.127,-0.657488
-511,-174,0,0,0,0,0,0,0,0,0,-1,713,1198,0,0
-504,-174,0,0,0,0,0,0,0,0,0,-1,720,1198,0,0
-497,-174,0,0,0,0,0,0,0,0,0,-1,727,1198,0,0
-490,-174,0,0,0,0,0,0,0,0,0,-1,734,1198,0,0
-483,-174,0,0,0,0,0,0,0,0,0,-1,741,1198,0,0
-476,-174,0,0,0,0,0,0,0,0,0,-1,748,1198,0,0
-469,-174,0,0,0,0,0,0,0,0,0,-1,755,1198,0,0
-462,-174,0,0,0,0,0,0,0,0,0,-1,762,1198,0,0
-455,-174,0,0,0,0,0,0,0,0,0,-1,769,1198,0,0
-448,-174,0,0,0,0,0,0,0,0,0,-1,776,1198,0,0
-441,-174,0,0,0,0,0,0,0,0,0,-1,783,1198,0,0
-434,-174,0,0,0,0,0,0,0,0,0,-1,790,1198,0,0
-427,-174,0,0,0,0,0,0,0,0,0,-1,797,1198,0,0
-420,-174,0,0,0,0,0,0,0,0,0,-1,804,1198,0,0
-413,-174,0,0,0,0,0,0,0,0,0,-1,811,1198,0,0
-406,-174,0,0,0,0,0,0,0,0,0,-1,818,1198,0,0
-399,-174,0,0,0,0,0,0,0,0,0,-1,825,1198,0,0
-392,-174,0,0,0,0,0,0,0,0,0,-1,832,1198,0,0
-385,-174,0,0,0,0,0,0,0,0,0,-1,839,1198,0,0
-378,-174,0,0,0,0,0,0,0,0,0,-1,846,1198,0,0
-371,-174,0,0,0,0,0,0,0,0,0,-1,853,1198,0,0
-364,-174,0,0,0,0,0,0,0,0,0,-1,860,1198,0,0
-357,-174,0,0,0,0,0,0,0,0,0,-1,867,1198,0,0
-350,-174,0,0,0,0,0,0,0,0,0,-1,874,1198,0,0
-343,-174,0,0,0,0,0,0,0,0,0,-1,881,1198,0,0
-336,-174,0,0,0,0,0,0,0,0,0,-1,888,1198,0,0
-329,-174,0,0,0,0,0,0,0,0,0,-1,895,1198,0,0
-322,-174,0,0,0,0,0,0,0,0,0,-1,902,1198,0,0
-315,-174,0,0,0,0,0,0,0,0,0,-1,909,1198,0,0
-308,-174,0,0,0,0,0,0,0,0,0,-1,916,1198,0,0
-301,-174,0,0,0,0,0,0,0,0,0,-1,923,1198,0,0
-294,-174,0,0,0,0,0,0,0,0,0,-1,930,1198,0,0
-287,-174,0,0,0,0,0,0,0,0,0,-1,937,1198,0,0
-280,-174,0,0,0,0,0,0,0,0,0,-1,944,1198,0,0
-273,-174,0,0,0,0,0,0,0,0,0,-1,951,1198,0,0
-266,-174,0,0,0,0,0,0,0,0,0,-1,958,1198,0,0
-259,-174,0,0,0,0,0,0,0,0,0,-1,965,1198,0,0
-252,-174,0,0,0,0,0,0,0,0,0,-1,972,1198,0,0
-245,-174,0,0,0,0,0,0,0,0,0,-1,979,1198,0,0
-238,-174,0,0,0,0,0,0,0,0,0,-1,986,1198,0,0
-231,-174,0,0,0,0,0,0,0,0,0,-1,993,1198,0,0
-224,-174,0,0,0,0,0,0,0,0,0,-1,1000,1198,0,0
-217,-174,0,0,0,0,0,0,0,0,0,-1,1007,1198,0,0
-210,-174,0,0,0,0,0,0,0,0,0,-1,1014,1198,0,0
-203,-174,0,0,0,0,0,0,0,0,0,-1,1021,1198,0,0
-196,-174,0,0,0,0,0,0,0,0,0,-1,1028,1198,0,0
-189,-174,0,0,0,0,0,0,0,0,0,-1,1035,1198,0,0
-182,-174,0,0,0,0,0,0,0,0,0,-1,1042,1198,0,0
-175,-174,0,0,0,0,0,0,0,0,0,-1,1049,1198,0,0
-168,-174,0,0,0,0,0,0,0,0,0,-1,1056,1198,0,0
-161,-174,0,0,0,0,0,0,0,0,0,-1,1063,1198,0,0
-154,-174,0,0,0,0,0,0,0,0,0,-1,1070,1198,0,0
-147,-174,0,0,0,0,0,0,0,0,0,-1,1077,1198,0,0
-140,-174,0,0,0,0,0,0,0,0,0,-1,1084,1198,0,0
-133,-174,0,0,0,0,0,0,0,0,0,-1,1091,1198,0,0
-126,-174,0,0,0,0,0,0,0,0,0,-1,1098,1198,0,0
-119,-174,0,0,0,0,0,0,0,0,0,-1,1105,1198,0,0
-112,-174,0,0,0,0,0,0,0,0,0,-1,1112,1198,0,0
-105,-174,0,0,0,0,0,0,0,0,0,-1,1119,1198,0,0
-98,-174,0,0,0,0,0,0,0,0,0,-1,1126,1198,0,0
-91,-174,0,0,0,0,0,0,0,0,0,-1,1133,1198,0,0
-84,-174,0,0,0,0,0,0,0,0,0,-1,1140,1198,0,0
-77,-174,0,0,0,0,0,0,0,0,0,-1,1147,1198,0,0
-70,-174,0,0,0,0,0,0,0,0,0,-1,1154,1198,0,0
-63,-174,0,0,0,0,0,0,0,0,0,-1,1161,1198,0,0
-56,-174,0,0,0,0,0,0,0,0,0,-1,1168,1198,0,0
-49,-174,0,0,0,0,0,0,0,0,0,-1,1175,1198,0,0
-42,-174,0,0,0,0,0,0,0,0,0,-1,1182,1198,0,0
-35,-174,0,0,0,0,0,0,0,0,0,-1,1189,1198,0,0
-28,-174,0,0,0,0,0,0,0,0,0,-1,1196,1198,0,0
-21,-174,0,0,0,0,0,0,0,0,0,-1,1203,1198,0,0
-14,-174,0,0,0,0,0,0,0,0,0,-1,1210,1198,0,0
-7,-174,0,0,0,0,0,0,0,0,0,-1,1217,1198,0,0
0,-174,0,0,0,0,0,0,0,0,0,-1,1224,1198,0,0
7,-174,0,0,0,0,0,0,0,0,0,-1,1231,1198,0,0
14,-174,0,0,0,0,0,0,0,0,0,-1,1238,1198,0,0
21,-174,0,0,0,0,0,0,0,0,0,-1,1245,1198,0,0
28,-174,0,0,0,0,0,0,0,0,0,-1,1252,1198,0,0
35,-174,0,0,0,0,0,0,0,0,0,-1,1259,1198,0,0
42,-174,0,0,0,0,0,0,0,0,0,-1,1266,1198,0,0
49,-174,0,0,0,0,0,0,0,0,0,-1,1273,1198,0,0
56,-174,0,0,0,0,0,0,0,0,0,-1,1280,1198,0,0
63,-174,0,0,0,0,0,0,0,0,0,-1,1287,1198,0,0
70,-174,0,0,0,0,0,0,0,0,0,-1,1294,1198,0,0
77,-174,0,0,0,0,0,0,0,0,0,-1,1301,1198,0,0
84,-174,0,0,0,0,0,0,0,0,0,-1,1308,1198,0,0
91,-174,0,0,0,0,0,0,0,0,0,-1,1315,1198,0,0
98,-174,0,0,0,0,0,0,0,0,0,-1,1322,1198,0,0
105,-174,0,0,0,0,0,0,0,0,0,-1,1329,1198,0,0
112,-174,0,0,0,0,0,0,0,0,0,-1,1336,1198,0,0
119,-174,0,0,0,0,0,0,0,0,0,-1,1343,1198,0,0
126,-174,0,0,0,0,0,0,0,0,0,-1,1350,1198,0,0
133,-174,0,0,0,0,0,0,0,0,0,-1,1357,1198,0,0
140,-174,0,0,0,0,0,0,0,0,0,-1,1364,1198,0,0
147,-174,0,0,0,0,0,0,0,0,0,-1,1371,1198,0,0
154,-174,0,0,0,0,0,0,0,0,0,-1,1378,1198,0,0
161,-174,0,0,0,0,0,0,0,0,0,-1,1385,1198,0,0
168,-174,0,0,0,0,0,0,0,0,0,-1,1392,1198,0,0
175,-174,0,0,0,0,0,0,0,0,0,-1,1399,1198,0,0
182,-174,0,0,0,0,0,0,0,0,0,-1,1406,1198,0,0
189,-174,0,0,0,0,0,0,0,0,0,-1,1413,1198,0,0
196,-174,0,0,0,0,0,0,0,0,0,-1,1420,1198,0,0
203,-174,0,0,0,0,0,0,0,0,0,-1,1427,1198,0,0
210,-174,0,0,0,0,0,0,0,0,0,-1,1434,1198,0,0
217,-174,0,0,0,0,0,0,0,0,0,-1,1441,1198,0,0
224,-174,0,0,0,0,0,0,0,0,0,-1,1448,1198,0,0
231,-174,0,0,0,0,0,0,0,0,0,-1,1455,1198,0,0
238,-174,0,0,0,0,0,0,0,0,0,-1,1462,1198,0,0
245,-174,0,0,0,0,0,0,0,0,0,-1,1469,1198,0,0
252,-174,0,0,0,0,0,0,0,0,0,-1,1476,1198,0,0
259,-174,0,0,0,0,0,0,0,0,0,-1,1483,1198,0,0
266,-174,0,0,0,0,0,0,0,0,0,-1,1490,1198,0,0
273,-174,0,0,0,0,0,0,0,0,0,-1,1497,1198,0,0
280,-174,0,0,0,0,0,0,0,0,0,-1,1504,1198,0,0
287,-174,0,0,0,0,0,0,0,0,0,-1,1511,1198,0,0
294,-174,0,0,0,0,0,0,0,0,0,-1,1518,1198,0,0
301,-174,0,0,0,0,0,0,0,0,0,-1,1525,1198,0,0
308,-174,0,0,0,0,0,0,0,0,0,-1,1532,1198,0,0
315,-174,0,0,0,0,0,0,0,0,0,-1,1539,1198,0,0
322,-174,0,0,0,0,0,0,0,0,0,-1,1546,1198,0,0
329,-174,0,0,0,0,0,0,0,0,0,-1,1553,1198,0,0
336,-174,0,0,0,0,0,0,0,0,0,-1,1560,1198,0,0
343,-174,0,0,0,0,0,0,0,0,0,-1,1567,1198,0,0
350,-174,0,0,0,0,0,0,0,0,0,-1,1574,1198,0,0
357,-174,0,0,0,0,0,0,0,0,0,-1,1581,1198,0,0
364,-174,0,0,0,0,0,0,0,0,0,-1,1588,1198,0,0
371,-174,0,0,0,0,0,0,0,0,0,-1,1595,1198,0,0
378,-174,0,0,0,0,0,0,0,0,0,-1,1602,1198,0,0
385,-174,0,0,0,0,0,0,0,0,0,-1,1609,1198,0,0
392,-174,0,0,0,0,0,0,0,0,0,-1,1616,1198,0,0
399,-174,0,0,0,0,0,0,0,0,0,-1,1623,1198,0,0
406,-174,0,0,0,0,0,0,0,0,0,-1,1630,1198,0,0
413,-174,0,0,0,0,0,0,0,0,0,-1,1637,1198,0,0
420,-174,0,0,0,0,0,0,0,0,0,-1,1644,1198,0,0
427,-174,0,0,0,0,0,0,0,0,0,-1,1651,1198,0,0
434,-174,0,0,0,0,0,0,0,0,0,-1,1658,1198,0,0
441,-174,0,0,0,0,0,0,0,0,0,-1,1665,1198,0,0
448,-174,0,0,0,0,0,0,0,0,0,-1,1672,1198,0,0
455,-174,0,0,0,0,0,0,0,0,0,-1,1679,1198,0,0
462,-174,0,0,0,0,0,0,0,0,0,-1,1686,1198,0,0
469,-174,0,0,0,0,0,0,0,0,0,-1,1693,1198,0,0
476,-174,0,0,0,0,0,0,0,0,0,-1,1700,1198,0,0
483,-174,0,0,0,0,0,0,0,0,0,-1,1707,1198,0,0
490,-174,0,0,0,0,0,0,0,0,0,-1,1714,1198,0,0
497,-174,0,0,0,0,0,0,0,0,0,-1,1721,1198,0,0
504,-174,0,0,0,0,0,0,0,0,0,-1,1728,1198,0,0
511,-174,0,0,0,0,0,0,0,0,0,-1,1735,1198,0,0
518,-174,0,0,0,0,0,0,0,0,0,-1,1742,1198,0,0
525,-174,0,0,0,0,0,0,0,0,0,-1,1749,1198,0,0
532,-174,0,0,0,0,0,0,0,0,0,-1,1756,1198,0,0
539,-174,0,0,0,0,0,0,0,0,0,-1,1763,1198,0,0
546,-174,0,0,0,0,0,0,0,0,0,-1,1770,1198,0,0
553,-174,0,0,0,0,0,0,0,0,0,-1,1777,1198,0,0
560,-174,0,0,0,0,0,0,0,0,0,-1,1784,1198,0,0
567,-174,0,0,0,0,0,0,0,0,0,-1,1791,1198,0,0
574,-174,0,0,0,0,0,0,0,0,0,-1,1798,1198,0,0
581,-174,0,0,0,0,0,0,0,0,0,-1,1805,1198,0,0
588,-174,0,0,0,0,0,0,0,0,0,-1,1812,1198,0,0
595,-174,0,0,0,0,0,0,0,0,0,-1,1819,1198,0,0
602,-174,0,0,0,0,0,0,0,0,0,-1,1826,1198,0,0
609,-174,0,0,0,0,0,0,0,0,0,-1,1833,1198,0,0
616,-174,0,0,0,0,0,0,0,0,0,-1,1840,1198,0,0
623,-174,0,0,0,0,0,0,0,0,0,-1,1847,1198,0,0
630,-174,0,0,0,0,0,0,0,0,0,-1,1854,1198,0,0
637,-174,17.7251,2.6792,0.00161004,0.000841915,-0.00237627,0.00363308,-0.00118113,-0.705279,0.00289716,0.0419099,1861,1198,17.7251,-2.67925
644,-174,17.7505,2.73486,0.00237275,0.00102267,-0.00186883,0.00368472,-0.000289297,-0.612085,0.00255837,0.0416922,1868,1198,17.7505,-2.73487
651,-174,17.6746,2.67322,0.00209515,0.00102146,-0.000592765,0.00235804,0.000758575,-0.41743,0.00138997,0.040736,1875,1198,17.6746,-2.6732
658,-174,17.949,2.47693,0.000394237,0.000726393,0.00119687,0.00176865,-0.000648023,0.854338,0.00144441,0.0412159,1882,1198,17.949,-2.47689
665,-174,17.7567,2.52686,-0.00164237,0.00031242,0.00289878,0.00239415,-0.0037241,0.948,0.00356008,0.035592,1889,1198,17.7567,-2.52687
672,-174,17.6027,2.45679,-0.00363642,-0.000114789,0.00422139,0.00269829,-0.00644951,0.982986,0.00542749,0.0269275,1896,1198,17.6027,-2.45675
679,-174,17.5978,2.48792,-0.00542481,-0.000510135,0.00520193,0.00278566,-0.00872061,1.00606,0.00693146,0.0239108,1903,1198,17.5978,-2.48792
686,-174,17.696,2.51807,0,0,0,0,0,0,0,-1,1910,1198,17.696,-2.51807
693,-174,17.6787,3.67212,0,0,0,0,0,0,0,-1,1917,1198,17.6787,-3.67207
700,-174,16.9554,3.80164,-0.00844472,-0.00122825,0.00621404,0.00234917,-0.0120221,1.04844,0.00890175,0.0467653,1924,1198,16.9554,-3.80169
707,-174,16.1854,4.11816,-0.00883442,-0.00132495,0.0061345,0.00211268,-0.012272,1.06002,0.00896892,0.0345884,1931,1198,16.1854,-4.11812
714,-174,16.2524,3.99561,-0.00882555,-0.00131554,0.00580244,0.00184093,-0.011982,1.07258,0.00866707,0.0207925,1938,1198,16.2524,-3.99563
721,-174,16.1949,3.88635,-0.00798595,-0.00113362,0.00508851,0.00157467,-0.0106942,1.08169,0.00770818,0.016198,1945,1198,16.195,-3.88639
728,-174,16.0869,3.80688,-0.00665193,-0.000700291,0.00407801,0.00137222,-0.00872445,1.1006,0.00632353,0.0122422,1952,1198,16.0869,-3.80684
735,-174,16.0845,3.70789,-0.00490816,-0.000129129,0.00282883,0.00118433,-0.00622163,1.1361,0.0045937,0.0111607,1959,1198,16.0845,-3.70783
742,-174,16.0811,3.61267,-0.00207648,0.000946454,0.00144927,0.00152901,-0.00265903,1.1886,0.00244713,0.0195317,1966,1198,16.081,-3.61273
749,-174,16.0996,3.50574,0.000850085,0.00245188,0.000181396,0.00247217,0.0008298,1.45943,0.00145278,0.0182125,1973,1198,16.0997,-3.50577
756,-174,16.0939,3.38489,0.00360054,0.00419687,-0.000859823,0.00480876,0.00298865,-0.952297,0.00280353,0.0108762,1980,1198,16.0939,-3.38487
763,-174,16.0499,3.28491,0.00599656,0.00616295,-0.00175162,0.00783335,0.00432617,-0.809129,0.00453082,0.0135095,1987,1198,16.0499,-3.2849
770,-174,16.0593,3.21985,0.00813457,0.00865133,-0.00250206,0.0109083,0.00587758,-0.836849,0.00630424,0.0243947,1994,1198,16.0593,-3.21982
777,-174,16.2651,3.16956,0.0102643,0.0118288,-0.0033215,0.0144589,0.00763417,-0.901044,0.00835221,0.0428913,2001,1198,16.2652,-3.16961
784,-174,16.475,3.10962,0.0122262,0.0159283,-0.00422111,0.0186864,0.00946813,-0.992029,0.0107889,0.0480953,2008,1198,16.475,-3.10958
791,-174,16.4565,3.22302,0.0138683,0.0212598,-0.0052076,0.0239497,0.0111783,-1.094,0.0138376,0.0475551,2015,1198,16.4566,-3.22305
798,-174,16.5364,3.37207,0,0,0,0,0,0,0,-1,2022,1198,16.5364,-3.37209
805,-174,16.6422,3.52161,0,0,0,0,0,0,0,-1,2029,1198,16.6422,-3.52164
812,-174,0,0,0,0,0,0,0,0,0,-1,2036,1198,0,0
-700,-181,0,0,0,0,0,0,0,0,0,-1,524,1205,0,0
-693,-181,0,0,0,0,0,0,0,0,0,-1,531,1205,0,0
-686,-181,-7.79059,-4.13489,0.0752376,0.0962877,-0.0221861,0.110319,0.0612066,-1.00688,0.06382,0.0446074,538,1205,-7.7906,4.13492
-679,-181,-7.88477,-3.02588,0.0612025,0.0776749,-0.0132668,0.0850542,0.0538232,-1.06319,0.0496802,0.0454917,545,1205,-7.88477,3.0259
-672,-181,-8.19928,-1.83301,0,0,0,0,0,0,0,-1,552,1205,-8.19927,1.83296
-665,-181,-8.48987,-1.12756,0.0406894,0.0468834,-0.00551018,0.0501073,0.0374655,-1.04142,0.0300896,0.0492981,559,1205,-8.48985,1.12757
-658,-181,-12.584,1.28613,0.0329333,0.0350146,-0.0040062,0.0381131,0.0298348,-0.912467,0.0231481,0.041597,566,1205,-12.584,-1.28618
-651,-181,-9.60278,0.374756,0.0262795,0.0253751,-0.00319447,0.0290536,0.022601,-0.715082,0.0176166,0.0430049,573,1205,-9.6028,-0.3747
-644,-181,-9.31165,0.514893,0.0205107,0.0177752,-0.00272836,0.022195,0.016091,-0.553049,0.0132396,0.0395246,580,1205,-9.31165,-0.514931
-637,-181,-9.37573,0.775024,0.01476,0.0123389,-0.00156585,0.0155287,0.0115702,-0.45633,0.0093176,0.0226734,587,1205,-9.37572,-0.775073
-630,-181,-9.43109,0.966309,0.0102551,0.00649114,-0.00121348,0.0106124,0.00613384,-0.286352,0.00615187,0.0122722,594,1205,-9.43111,-0.966342
-623,-181,-9.45367,1.08618,0.00708871,0.00325415,-0.0025707,0.00837838,0.00196449,-0.464988,0.00505952,0.0135044,601,1205,-9.45367,-1.08613
-616,-181,-9.45947,1.22888,0.00457181,0.00116686,-0.003747,0.00698496,-0.00124629,-0.572162,0.00512286,0.0133861,608,1205,-9.45949,-1.22885
-609,-181,-9.4707,1.36462,0.00243909,-0.000372166,-0.00483945,0.00607291,-0.00400599,-0.644061,0.0058597,0.0136718,615,1205,-9.47071,-1.36463
-602,-181,-9.46381,1.49609,0.000131851,-0.00179865,-0.00503558,0.00429386,-0.00596066,-0.690704,0.00594646,0.01196,622,1205,-9.46378,-1.49605
-595,-181,-9.46741,1.62524,-0.00129909,-0.00188509,-0.00605355,0.00446855,-0.00765273,-0.761217,0.00707825,0.0112192,629,1205,-9.4674,-1.62522
-588,-181,-9.48425,1.7738,-0.00159673,-0.00169934,-0.00671826,0.00507043,-0.0083665,-0.78158,0.00783522,0.0110129,636,1205,-9.48425,-1.7738
-581,-181,-9.47046,1.94312,-0.00148303,-0.00173085,-0.0069355,0.00532967,-0.00854355,-0.776466,0.00808103,0.0124762,643,1205,-9.47048,-1.94308
-574,-181,-9.67645,1.99487,-0.00113348,-0.00155985,-0.00685026,0.00550692,-0.00820025,-0.769843,0.00796459,0.030764,650,1205,-9.67647,-1.99488
-567,-181,-9.5578,1.52515,-0.000693109,-0.00146102,-0.00662065,0.00555471,-0.00770884,-0.756434,0.00769131,0.0417546,657,1205,-9.55781,-1.52515
-560,-181,-9.95673,0.488159,0,0,0,0,0,0,0,-1,664,1205,-9.95673,-0.488153
-553,-181,-10.2834,-0.490234,0,0,0,0,0,0,0,-1,671,1205,-10.2834,0.49021
-546,-181,-11.1925,0.758179,0.00126036,-0.000700572,-0.00434352,0.0047327,-0.00417291,-0.674393,0.00514504,0.0352869,678,1205,-11.1925,-0.758181
-539,-181,-11.0976,0.639771,0.00221503,-0.000445115,-0.00288555,0.0040623,-0.00229238,-0.56944,0.00371601,0.0377314,685,1205,-11.0976,-0.639767
-532,-181,-11.0837,0.688721,0.00350283,-0.000349537,-0.00116808,0.00382933,-0.00067604,-0.272564,0.00280552,0.0425979,692,1205,-11.0837,-0.688781
-525,-181,-11.2129,0.847168,0.00519847,-0.000589897,0.000563596,0.00525283,-0.000644262,0.0961635,0.00373521,0.0396934,699,1205,-11.2129,-0.84718
-518,-181,-11.195,0.790527,0.00713215,-0.00190859,0.000547089,0.00716514,-0.00194158,0.0602209,0.00553858,0.0373255,706,1205,-11.195,-0.790559
-511,-181,0,0,0,0,0,0,0,0,0,-1,713,1205,0,0
-504,-181,0,0,0,0,0,0,0,0,0,-1,720,1205,0,0
-497,-181,0,0,0,0,0,0,0,0,0,-1,727,1205,0,0
-490,-181,0,0,0,0,0,0,0,0,0,-1,734,1205,0,0
-483,-181,0,0,0,0,0,0,0,0,0,-1,741,1205,0,0
-476,-181,0,0,0,0,0,0,0,0,0,-1,748,1205,0,0
-469,-181,0,0,0,0,0,0,0,0,0,-1,755,1205,0,0
-462,-181,0,0,0,0,0,0,0,0,0,-1,762,1205,0,0
-455,-181,0,0,0,0,0,0,0,0,0,-1,769,1205,0,0
-448,-181,0,0,0,0,0,0,0,0,0,-1,776,1205,0,0
-441,-181,0,0,0,0,0,0,0,0,0,-1,783,1205,0,0
-434,-181,0,0,0,0,0,0,0,0,0,-1,790,1205,0,0
-427,-181,0,0,0,0,0,0,0,0,0,-1,797,1205,0,0
-420,-181,0,0,0,0,0,0,0,0,0,-1,804,1205,0,0
-413,-181,0,0,0,0,0,0,0,0,0,-1,811,1205,0,0
-406,-181,0,0,0,0,0,0,0,0,0,-1,818,1205,0,0
-399,-181,0,0,0,0,0,0,0,0,0,-1,825,1205,0,0
-392,-181,0,0,0,0,0,0,0,0,0,-1,832,1205,0,0
-385,-181,0,0,0,0,0,0,0,0,0,-1,839,1205,0,0
-378,-181,0,0,0,0,0,0,0,0,0,-1,846,1205,0,0
-371,-181,0,0,0,0,0,0,0,0,0,-1,853,1205,0,0
-364,-181,0,0,0,0,0,0,0,0,0,-1,860,1205,0,0
-357,-181,0,0,0,0,0,0,0,0,0,-1,867,1205,0,0
-350,-181,0,0,0,0,0,0,0,0,0,-1,874,1205,0,0
-343,-181,0,0,0,0,0,0,0,0,0,-1,881,1205,0,0
-336,-181,0,0,0,0,0,0,0,0,0,-1,888,1205,0,0
-329,-181,0,0,0,0,0,0,0,0,0,-1,895,1205,0,0
-322,-181,0,0,0,0,0,0,0,0,0,-1,902,1205,0,0
-315,-181,0,0,0,0,0,0,0,0,0,-1,909,1205,0,0
-308,-181,0,0,0,0,0,0,0,0,0,-1,916,1205,0,0
-301,-181,0,0,0,0,0,0,0,0,0,-1,923,1205,0,0
-294,-181,0,0,0,0,0,0,0,0,0,-1,930,1205,0,0
-287,-181,0,0,0,0,0,0,0,0,0,-1,937,1205,0,0
-280,-181,0,0,0,0,0,0,0,0,0,-1,944,1205,0,0
-273,-181,0,0,0,0,0,0,0,0,0,-1,951,1205,0,0
-266,-181,0,0,0,0,0,0,0,0,0,-1,958,1205,0,0
-259,-181,0,0,0,0,0,0,0,0,0,-1,965,1205,0,0
-252,-181,0,0,0,0,0,0,0,0,0,-1,972,1205,0,0
-245,-181,0,0,0,0,0,0,0,0,0,-1,979,1205,0,0
-238,-181,0,0,0,0,0,0,0,0,0,-1,986,1205,0,0
-231,-181,0,0,0,0,0,0,0,0,0,-1,993,1205,0,0
-224,-181,0,0,0,0,0,0,0,0,0,-1,1000,1205,0,0
-217,-181,0,0,0,0,0,0,0,0,0,-1,1007,1205,0,0
-210,-181,0,0,0,0,0,0,0,0,0,-1,1014,1205,0,0
-203,-181,0,0,0,0,0,0,0,0,0,-1,1021,1205,0,0
-196,-181,0,0,0,0,0,0,0,0,0,-1,1028,1205,0,0
-189,-181,0,0,0,0,0,0,0,0,0,-1,1035,1205,0,0
-182,-181,0,0,0,0,0,0,0,0,0,-1,1042,1205,0,0
-175,-181,0,0,0,0,0,0,0,0,0,-1,1049,1205,0,0
-168,-181,0,0,0,0,0,0,0,0,0,-1,1056,1205,0,0
-161,-181,0,0,0,0,0,0,0,0,0,-1,1063,1205,0,0
-154,-181,0,0,0,0,0,0,0,0,0,-1,1070,1205,0,0
-147,-181,0,0,0,0,0,0,0,0,0,-1,1077,1205,0,0
-140,-181,0,0,0,0,0,0,0,0,0,-1,1084,1205,0,0
-133,-181,0,0,0,0,0,0,0,0,0,-1,1091,1205,0,0
-126,-181,0,0,0,0,0,0,0,0,0,-1,1098,1205,0,0
-119,-181,0,0,0,0,0,0,0,0,0,-1,1105,1205,0,0
-112,-181,0,0,0,0,0,0,0,0,0,-1,1112,1205,0,0
-105,-181,0,0,0,0,0,0,0,0,0,-1,1119,1205,0,0
-98,-181,0,0,0,0,0,0,0,0,0,-1,1126,1205,0,0
-91,-181,0,0,0,0,0,0,0,0,0,-1,1133,1205,0,0
-84,-181,0,0,0,0,0,0,0,0,0,-1,1140,1205,0,0
-77,-181,0,0,0,0,0,0,0,0,0,-1,1147,1205,0,0
-70,-181,0,0,0,0,0,0,0,0,0,-1,1154,1205,0,0
-63,-181,0,0,0,0,0,0,0,0,0,-1,1161,1205,0,0
-56,-181,0,0,0,0,0,0,0,0,0,-1,1168,1205,0,0
-49,-181,0,0,0,0,0,0,0,0,0,-1,1175,1205,0,0
-42,-181,0,0,0,0,0,0,0,0,0,-1,1182,1205,0,0
-35,-181,0,0,0,0,0,0,0,0,0,-1,1189,1205,0,0
-28,-181,0,0,0,0,0,0,0,0,0,-1,1196,1205,0,0
-21,-181,0,0,0,0,0,0,0,0,0,-1,1203,1205,0,0
-14,-181,0,0,0,0,0,0,0,0,0,-1,1210,1205,0,0
-7,-181,0,0,0,0,0,0,0,0,0,-1,1217,1205,0,0
0,-181,0,0,0,0,0,0,0,0,0,-1,1224,1205,0,0
7,-181,0,0,0,0,0,0,0,0,0,-1,1231,1205,0,0
14,-181,0,0,0,0,0,0,0,0,0,-1,1238,1205,0,0
21,-181,0,0,0,0,0,0,0,0,0,-1,1245,1205,0,0
28,-181,0,0,0,0,0,0,0,0,0,-1,1252,1205,0,0
35,-181,0,0,0,0,0,0,0,0,0,-1,1259,1205,0,0
42,-181,0,0,0,0,0,0,0,0,0,-1,1266,1205,0,0
49,-181,0,0,0,0,0,0,0,0,0,-1,1273,1205,0,0
56,-181,0,0,0,0,0,0,0,0,0,-1,1280,1205,0,0
63,-181,0,0,0,0,0,0,0,0,0,-1,1287,1205,0,0
70,-181,0,0,0,0,0,0,0,0,0,-1,1294,1205,0,0
77,-181,0,0,0,0,0,0,0,0,0,-1,1301,1205,0,0
84,-181,0,0,0,0,0,0,0,0,0,-1,1308,1205,0,0
91,-181,0,0,0,0,0,0,0,0,0,-1,1315,1205,0,0
98,-181,0,0,0,0,0,0,0,0,0,-1,1322,1205,0,0
105,-181,0,0,0,0,0,0,0,0,0,-1,1329,1205,0,0
112,-181,0,0,0,0,0,0,0,0,0,-1,1336,1205,0,0
119,-181,0,0,0,0,0,0,0,0,0,-1,1343,1205,0,0
126,-181,0,0,0,0,0,0,0,0,0,-1,1350,1205,0,0
133,-181,0,0,0,0,0,0,0,0,0,-1,1357,1205,0,0
140,-181,0,0,0,0,0,0,0,0,0,-1,1364,1205,0,0
147,-181,0,0,0,0,0,0,0,0,0,-1,1371,1205,0,0
154,-181,0,0,0,0,0,0,0,0,0,-1,1378,1205,0,0
161,-181,0,0,0,0,0,0,0,0,0,-1,1385,1205,0,0
168,-181,0,0,0,0,0,0,0,0,0,-1,1392,1205,0,0
175,-181,0,0,0,0,0,0,0,0,0,-1,1399,1205,0,0
182,-181,0,0,0,0,0,0,0,0,0,-1,1406,1205,0,0
189,-181,0,0,0,0,0,0,0,0,0,-1,1413,1205,0,0
196,-181,0,0,0,0,0,0,0,0,0,-1,1420,1205,0,0
203,-181,0,0,0,0,0,0,0,0,0,-1,1427,1205,0,0
210,-181,0,0,0,0,0,0,0,0,0,-1,1434,1205,0,0
217,-181,0,0,0,0,0,0,0,0,0,-1,1441,1205,0,0
224,-181,0,0,0,0,0,0,0,0,0,-1,1448,1205,0,0
231,-181,0,0,0,0,0,0,0,0,0,-1,1455,1205,0,0
238,-181,0,0,0,0,0,0,0,0,0,-1,1462,1205,0,0
245,-181,0,0,0,0,0,0,0,0,0,-1,1469,1205,0,0
252,-181,0,0,0,0,0,0,0,0,0,-1,1476,1205,0,0
259,-181,0,0,0,0,0,0,0,0,0,-1,1483,1205,0,0
266,-181,0,0,0,0,0,0,0,0,0,-1,1490,1205,0,0
273,-181,0,0,0,0,0,0,0,0,0,-1,1497,1205,0,0
280,-181,0,0,0,0,0,0,0,0,0,-1,1504,1205,0,0
287,-181,0,0,0,0,0,0,0,0,0,-1,1511,1205,0,0
294,-181,0,0,0,0,0,0,0,0,0,-1,1518,1205,0,0
301,-181,0,0,0,0,0,0,0,0,0,-1,1525,1205,0,0
308,-181,0,0,0,0,0,0,0,0,0,-1,1532,1205,0,0
315,-181,0,0,0,0,0,0,0,0,0,-1,1539,1205,0,0
322,-181,0,0,0,0,0,0,0,0,0,-1,1546,1205,0,0
329,-181,0,0,0,0,0,0,0,0,0,-1,1553,1205,0,0
336,-181,0,0,0,0,0,0,0,0,0,-1,1560,1205,0,0
343,-181,0,0,0,0,0,0,0,0,0,-1,1567,1205,0,0
350,-181,0,0,0,0,0,0,0,0,0,-1,1574,1205,0,0
357,-181,0,0,0,0,0,0,0,0,0,-1,1581,1205,0,0
364,-181,0,0,0,0,0,0,0,0,0,-1,1588,1205,0,0
371,-181,0,0,0,0,0,0,0,0,0,-1,1595,1205,0,0
378,-181,0,0,0,0,0,0,0,0,0,-1,1602,1205,0,0
385,-181,0,0,0,0,0,0,0,0,0,-1,1609,1205,0,0
392,-181,0,0,0,0,0,0,0,0,0,-1,1616,1205,0,0
399,-181,0,0,0,0,0,0,0,0,0,-1,1623,1205,0,0
406,-181,0,0,0,0,0,0,0,0,0,-1,1630,1205,0,0
413,-181,0,0,0,0,0,0,0,0,0,-1,1637,1205,0,0
420,-181,0,0,0,0,0,0,0,0,0,-1,1644,1205,0,0
427,-181,0,0,0,0,0,0,0,0,0,-1,1651,1205,0,0
434,-181,0,0,0,0,0,0,0,0,0,-1,1658,1205,0,0
441,-181,0,0,0,0,0,0,0,0,0,-1,1665,1205,0,0
448,-181,0,0,0,0,0,0,0,0,0,-1,1672,1205,0,0
455,-181,0,0,0,0,0,0,0,0,0,-1,1679,1205,0,0
462,-181,0,0,0,0,0,0,0,0,0,-1,1686,1205,0,0
469,-181,0,0,0,0,0,0,0,0,0,-1,1693,1205,0,0
476,-181,0,0,0,0,0,0,0,0,0,-1,1700,1205,0,0
483,-181,0,0,0,0,0,0,0,0,0,-1,1707,1205,0,0
490,-181,0,0,0,0,0,0,0,0,0,-1,1714,1205,0,0
497,-181,0,0,0,0,0,0,0,0,0,-1,1721,1205,0,0
504,-181,0,0,0,0,0,0,0,0,0,-1,1728,1205,0,0
511,-181,0,0,0,0,0,0,0,0,0,-1,1735,1205,0,0
518,-181,0,0,0,0,0,0,0,0,0,-1,1742,1205,0,0
525,-181,0,0,0,0,0,0,0,0,0,-1,1749,1205,0,0
532,-181,0,0,0,0,0,0,0,0,0,-1,1756,1205,0,0
539,-181,0,0,0,0,0,0,0,0,0,-1,1763,1205,0,0
546,-181,0,0,0,0,0,0,0,0,0,-1,1770,1205,0,0
553,-181,0,0,0,0,0,0,0,0,0,-1,1777,1205,0,0
560,-181,0,0,0,0,0,0,0,0,0,-1,1784,1205,0,0
567,-181,0,0,0,0,0,0,0,0,0,-1,1791,1205,0,0
574,-181,0,0,0,0,0,0,0,0,0,-1,1798,1205,0,0
581,-181,0,0,0,0,0,0,0,0,0,-1,1805,1205,0,0
588,-181,0,0,0,0,0,0,0,0,0,-1,1812,1205,0,0
595,-181,0,0,0,0,0,0,0,0,0,-1,1819,1205,0,0
602,-181,0,0,0,0,0,0,0,0,0,-1,1826,1205,0,0
609,-181,0,0,0,0,0,0,0,0,0,-1,1833,1205,0,0
616,-181,0,0,0,0,0,0,0,0,0,-1,1840,1205,0,0
623,-181,0,0,0,0,0,0,0,0,0,-1,1847,1205,0,0
630,-181,17.693,2.73047,-7.33498e-06,0.00127029,-0.0034267,0.00411721,-0.00285426,-0.877551,0.00404694,0.0364537,1854,1205,17.693,-2.73042
637,-181,17.7717,2.68567,0.00176228,0.00165284,-0.00318413,0.00489216,-0.00147704,-0.776806,0.00384943,0.037428,1861,1205,17.7718,-2.68562
644,-181,17.8037,2.6521,0.00259945,0.0017256,-0.00193809,0.00414926,0.00017579,-0.674531,0.00270948,0.0407588,1868,1205,17.8037,-2.65211
651,-181,17.7971,2.62354,0.00221552,0.00155977,-8.01432e-05,0.00222517,0.00155012,-0.119865,0.0013174,0.0402622,1875,1205,17.7971,-2.62349
658,-181,17.8547,2.56311,0.000589278,0.00113509,0.00198225,0.00286314,-0.00113877,0.853806,0.00238092,0.0360412,1882,1205,17.8547,-2.56315
665,-181,17.7319,2.48975,-0.00125561,0.000627895,0.00372118,0.00352464,-0.00415236,0.909336,0.00443725,0.0309815,1889,1205,17.7319,-2.4898
672,-181,17.5951,2.47717,-0.00309606,9.91566e-05,0.00500876,0.00375893,-0.00675583,0.939779,0.00615234,0.0235396,1896,1205,17.5951,-2.4772
679,-181,17.642,2.5072,-0.00476424,-0.000340409,0.00589867,0.00374742,-0.00885208,0.964777,0.00747068,0.0309332,1903,1205,17.6419,-2.5072
686,-181,17.7333,2.53528,0,0,0,0,0,0,0,-1,1910,1205,17.7333,-2.53523
693,-181,16.6825,3.21997,0,0,0,0,0,0,0,-1,1917,1205,16.6825,-3.21995
700,-181,17.1323,3.7644,0,0,0,0,0,0,0,-1,1924,1205,17.1324,-3.76438
707,-181,16.1707,4.08667,-0.00812211,-0.00130449,0.00638471,0.00252442,-0.011951,1.0306,0.00892857,0.0260671,1931,1205,16.1707,-4.08671
714,-181,16.1355,3.9696,-0.00812073,-0.00129834,0.00589175,0.00209847,-0.0115175,1.04781,0.008465,0.0189574,1938,1205,16.1355,-3.96955
721,-181,16.0533,3.89917,-0.00726531,-0.00109425,0.00502846,0.00171987,-0.0100794,1.06058,0.0073602,0.0133038,1945,1205,16.0534,-3.89919
728,-181,15.984,3.80859,-0.00595711,-0.000651161,0.00387088,0.00138863,-0.00799689,1.08582,0.00584934,0.011246,1952,1205,15.984,-3.80855
735,-181,15.9889,3.68262,-0.00424335,-5.91444e-05,0.00249844,0.00110745,-0.00540995,1.13395,0.00402687,0.0107969,1959,1205,15.9888,-3.68257
742,-181,15.9847,3.6001,-0.00132067,0.00117056,0.00104329,0.00154976,-0.00169986,1.22218,0.00187684,0.0163351,1966,1205,15.9848,-3.60009
749,-181,16.006,3.49292,0.00159463,0.00271264,-0.000236369,0.00276056,0.00154671,-1.37078,0.00159767,0.0156435,1973,1205,16.0059,-3.49298
756,-181,15.9943,3.375,0.00431455,0.00446647,-0.00129656,0.0056893,0.00309173,-0.814658,0.00328885,0.0110382,1980,1205,15.9942,-3.37503
763,-181,15.9625,3.27783,0.00668711,0.00646119,-0.00221101,0.00878804,0.00436025,-0.759875,0.00507383,0.0115362,1987,1205,15.9625,-3.27788
770,-181,16.0085,3.17432,0.00890268,0.00900893,-0.00304109,0.0119974,0.00591426,-0.794132,0.00692691,0.0225001,1994,1205,16.0085,-3.17433
777,-181,16.3544,2.8512,0.0111426,0.012269,-0.00395809,0.0157038,0.00770785,-0.856073,0.00906708,0.0404189,2001,1205,16.3544,-2.85119
784,-181,16.4341,2.8053,0.0131733,0.0164602,-0.00494373,0.0200265,0.00960699,-0.945868,0.0115655,0.0469839,2008,1205,16.4341,-2.80529
791,-181,16.3815,2.95325,0,0,0,0,0,0,0,-1,2015,1205,16.3814,-2.9533
798,-181,16.4237,3.14063,0,0,0,0,0,0,0,-1,2022,1205,16.4237,-3.14063
805,-181,0,0,0,0,0,0,0,0,0,-1,2029,1205,0,0
812,-181,0,0,0,0,0,0,0,0,0,-1,2036,1205,0,0
-700,-188,0,0,0,0,0,0,0,0,0,-1,524,1212,0,0
-693,-188,0,0,0,0,0,0,0,0,0,-1,531,1212,0,0
-686,-188,0,0,0,0,0,0,0,0,0,-1,538,1212,0,0
-679,-188,-7.58337,-3.6322,0,0,0,0,0,0,0,-1,545,1212,-7.58335,3.63226
-672,-188,-13.0717,1.13354,0,0,0,0,0,0,0,-1,552,1212,-13.0717,-1.13352
-665,-188,-11.8787,0.907471,0.0453551,0.0422041,0.000273539,0.0453787,0.0421806,0.0859532,0.0292448,0.0476424,559,1212,-11.8786,-0.907413
-658,-188,-11.0477,0.429565,0.0376017,0.0311338,-0.000196632,0.0376077,0.0311278,-0.0303638,0.0232153,0.0433853,566,1212,-11.0477,-0.429557
-651,-188,-10.2478,1.04944,0.0305185,0.0223115,-0.00073131,0.0305832,0.0222468,-0.0881819,0.0182559,0.0419832,573,1212,-10.2478,-1.04941
-644,-188,-9.33447,0.924194,0.0240997,0.0154726,-0.00115845,0.0242525,0.0153197,-0.131186,0.0141631,0.039471,580,1212,-9.3345,-0.924247
-637,-188,-9.28473,0.851685,0.0178485,0.0105429,-0.000808826,0.017937,0.0104544,-0.108955,0.0104032,0.020513,587,1212,-9.28472,-0.851714
-630,-188,-9.31995,0.976074,0.0128464,0.00552161,-0.000934877,0.0129638,0.00540417,-0.124963,0.00751908,0.0100239,594,1212,-9.31994,-0.97607
-623,-188,-9.32227,1.09912,0.00909408,0.00271905,-0.00219567,0.00977713,0.00203601,-0.301596,0.00595655,0.0101477,601,1212,-9.32225,-1.09909
-616,-188,-9.31409,1.23877,0.00617422,0.00101296,-0.00335744,0.00782821,-0.000641033,-0.457739,0.00544508,0.00999233,608,1212,-9.31409,-1.23877
-609,-188,-9.29077,1.36938,0.00364986,-0.000306954,-0.00431747,0.00642063,-0.00307772,-0.570558,0.00559594,0.012312,615,1212,-9.29077,-1.36942
-602,-188,-9.28058,1.52222,0.00124069,-0.00166991,-0.00437661,0.00439762,-0.00482684,-0.62489,0.00532766,0.0148042,622,1212,-9.28057,-1.52224
-595,-188,-9.31635,1.65271,-6.71771e-05,-0.00165687,-0.00535484,0.00455148,-0.00627553,-0.711719,0.00627734,0.0122943,629,1212,-9.31637,-1.65275
-588,-188,-9.32452,1.7959,-0.000255585,-0.00136854,-0.00601699,0.0052306,-0.00685473,-0.739287,0.00699844,0.00971107,636,1212,-9.3245,-1.79585
-581,-188,-9.32654,1.95776,-0.000139691,-0.0014647,-0.00623957,0.00547245,-0.00707684,-0.732507,0.00726505,0.00987465,643,1212,-9.32655,-1.95772
-574,-188,-9.32751,2.02332,5.4502e-05,-0.00137843,-0.00617417,0.00555364,-0.00687756,-0.727635,0.00719071,0.0245983,650,1212,-9.32754,-2.02334
-567,-188,-8.89563,1.36169,0.000299834,-0.00126616,-0.00594069,0.00550891,-0.00647523,-0.719875,0.00692654,0.0464473,657,1212,-8.89561,-1.36171
-560,-188,-8.65076,0.571777,0,0,0,0,0,0,0,-1,664,1212,-8.65073,-0.571793
-553,-188,-11.2972,0.71521,0.000921673,-0.000777697,-0.0050304,0.00517365,-0.00502967,-0.701733,0.00589108,0.0439036,671,1212,-11.2972,-0.715232
-546,-188,-11.238,0.749756,0.00120597,-0.000495084,-0.00407262,0.00451592,-0.00380504,-0.682458,0.00480995,0.0385752,678,1212,-11.238,-0.74972
-539,-188,-11.1507,0.72229,0.00155632,-0.000210714,-0.00286865,0.00367442,-0.00232882,-0.636012,0.00349488,0.0352083,685,1212,-11.1507,-0.722323
-532,-188,-11.151,0.587769,0.00207839,-4.84416e-05,-0.00146157,0.00282247,-0.000792517,-0.470897,0.00219406,0.038473,692,1212,-11.151,-0.587758
-525,-188,-11.177,0.674072,0.00295382,-0.00014306,-7.57205e-06,0.00295384,-0.000143078,-0.00244504,0.00201861,0.0371421,699,1212,-11.177,-0.67406
-518,-188,-11.1887,0.807861,0.00424678,-0.00102639,0.000229082,0.00425672,-0.00103632,0.043334,0.003239,0.0396114,706,1212,-11.1887,-0.807829
-511,-188,-11.0866,0.668823,0.00921242,-0.00360334,-0.00210518,0.00954937,-0.00394029,-0.158711,0.00800954,0.0388706,713,1212,-11.0866,-0.668852
-504,-188,0,0,0,0,0,0,0,0,0,-1,720,1212,0,0
-497,-188,0,0,0,0,0,0,0,0,0,-1,727,1212,0,0
-490,-188,0,0,0,0,0,0,0,0,0,-1,734,1212,0,0
-483,-188,0,0,0,0,0,0,0,0,0,-1,741,1212,0,0
-476,-188,0,0,0,0,0,0,0,0,0,-1,748,1212,0,0
-469,-188,0,0,0,0,0,0,0,0,0,-1,755,1212,0,0
-462,-188,0,0,0,0,0,0,0,0,0,-1,762,1212,0,0
-455,-188,0,0,0,0,0,0,0,0,0,-1,769,1212,0,0
-448,-188,0,0,0,0,0,0,0,0,0,-1,776,1212,0,0
-441,-188,0,0,0,0,0,0,0,0,0,-1,783,1212,0,0
-434,-188,0,0,0,0,0,0,0,0,0,-1,790,1212,0,0
-427,-188,0,0,0,0,0,0,0,0,0,-1,797,1212,0,0
-420,-188,0,0,0,0,0,0,0,0,0,-1,804,1212,0,0
-413,-188,0,0,0,0,0,0,0,0,0,-1,811,1212,0,0
-406,-188,0,0,0,0,0,0,0,0,0,-1,818,1212,0,0
-399,-188,0,0,0,0,0,0,0,0,0,-1,825,1212,0,0
-392,-188,0,0,0,0,0,0,0,0,0,-1,832,1212,0,0
-385,-188,0,0,0,0,0,0,0,0,0,-1,839,1212,0,0
-378,-188,0,0,0,0,0,0,0,0,0,-1,846,1212,0,0
-371,-188,0,0,0,0,0,0,0,0,0,-1,853,1212,0,0
-364,-188,0,0,0,0,0,0,0,0,0,-1,860,1212,0,0
-357,-188,0,0,0,0,0,0,0,0,0,-1,867,1212,0,0
-350,-188,0,0,0,0,0,0,0,0,0,-1,874,1212,0,0
-343,-188,0,0,0,0,0,0,0,0,0,-1,881,1212,0,0
-336,-188,0,0,0,0,0,0,0,0,0,-1,888,1212,0,0
-329,-188,0,0,0,0,0,0,0,0,0,-1,895,1212,0,0
-322,-188,0,0,0,0,0,0,0,0,0,-1,902,1212,0,0
-315,-188,0,0,0,0,0,0,0,0,0,-1,909,1212,0,0
-308,-188,0,0,0,0,0,0,0,0,0,-1,916,1212,0,0
-301,-188,0,0,0,0,0,0,0,0,0,-1,923,1212,0,0
-294,-188,0,0,0,0,0,0,0,0,0,-1,930,1212,0,0
-287,-188,0,0,0,0,0,0,0,0,0,-1,937,1212,0,0
-280,-188,0,0,0,0,0,0,0,0,0,-1,944,1212,0,0
-273,-188,0,0,0,0,0,0,0,0,0,-1,951,1212,0,0
-266,-188,0,0,0,0,0,0,0,0,0,-1,958,1212,0,0
-259,-188,0,0,0,0,0,0,0,0,0,-1,965,1212,0,0
-252,-188,0,0,0,0,0,0,0,0,0,-1,972,1212,0,0
-245,-188,0,0,0,0,0,0,0,0,0,-1,979,1212,0,0
-238,-188,0,0,0,0,0,0,0,0,0,-1,986,1212,0,0
-231,-188,0,0,0,0,0,0,0,0,0,-1,993,1212,0,0
-224,-188,0,0,0,0,0,0,0,0,0,-1,1000,1212,0,0
-217,-188,0,0,0,0,0,0,0,0,0,-1,1007,1212,0,0
-210,-188,0,0,0,0,0,0,0,0,0,-1,1014,1212,0,0
-203,-188,0,0,0,0,0,0,0,0,0,-1,1021,1212,0,0
-196,-188,0,0,0,0,0,0,0,0,0,-1,1028,1212,0,0
-189,-188,0,0,0,0,0,0,0,0,0,-1,1035,1212,0,0
-182,-188,0,0,0,0,0,0,0,0,0,-1,1042,1212,0,0
-175,-188,0,0,0,0,0,0,0,0,0,-1,1049,1212,0,0
-168,-188,0,0,0,0,0,0,0,0,0,-1,1056,1212,0,0
-161,-188,0,0,0,0,0,0,0,0,0,-1,1063,1212,0,0
-154,-188,0,0,0,0,0,0,0,0,0,-1,1070,1212,0,0
-147,-188,0,0,0,0,0,0,0,0,0,-1,1077,1212,0,0
-140,-188,0,0,0,0,0,0,0,0,0,-1,1084,1212,0,0
-133,-188,0,0,0,0,0,0,0,0,0,-1,1091,1212,0,0
-126,-188,0,0,0,0,0,0,0,0,0,-1,1098,1212,0,0
-119,-188,0,0,0,0,0,0,0,0,0,-1,1105,1212,0,0
-112,-188,0,0,0,0,0,0,0,0,0,-1,1112,1212,0,0
-105,-188,0,0,0,0,0,0,0,0,0,-1,1119,1212,0,0
-98,-188,0,0,0,0,0,0,0,0,0,-1,1126,1212,0,0
-91,-188,0,0,0,0,0,0,0,0,0,-1,1133,1212,0,0
-84,-188,0,0,0,0,0,0,0,0,0,-1,1140,1212,0,0
-77,-188,0,0,0,0,0,0,0,0,0,-1,1147,1212,0,0
-70,-188,0,0,0,0,0,0,0,0,0,-1,1154,1212,0,0
-63,-188,0,0,0,0,0,0,0,0,0,-1,1161,1212,0,0
-56,-188,0,0,0,0,0,0,0,0,0,-1,1168,1212,0,0
-49,-188,0,0,0,0,0,0,0,0,0,-1,1175,1212,0,0
-42,-188,0,0,0,0,0,0,0,0,0,-1,1182,1212,0,0
-35,-188,0,0,0,0,0,0,0,0,0,-1,1189,1212,0,0
-28,-188,0,0,0,0,0,0,0,0,0,-1,1196,1212,0,0
-21,-188,0,0,0,0,0,0,0,0,0,-1,1203,1212,0,0
-14,-188,0,0,0,0,0,0,0,0,0,-1,1210,1212,0,0
-7,-188,0,0,0,0,0,0,0,0,0,-1,1217,1212,0,0
0,-188,0,0,0,0,0,0,0,0,0,-1,1224,1212,0,0
7,-188,0,0,0,0,0,0,0,0,0,-1,1231,1212,0,0
14,-188,0,0,0,0,0,0,0,0,0,-1,1238,1212,0,0
21,-188,0,0,0,0,0,0,0,0,0,-1,1245,1212,0,0
28,-188,0,0,0,0,0,0,0,0,0,-1,1252,1212,0,0
35,-188,0,0,0,0,0,0,0,0,0,-1,1259,1212,0,0
42,-188,0,0,0,0,0,0,0,0,0,-1,1266,1212,0,0
49,-188,0,0,0,0,0,0,0,0,0,-1,1273,1212,0,0
56,-188,0,0,0,0,0,0,0,0,0,-1,1280,1212,0,0
63,-188,0,0,0,0,0,0,0,0,0,-1,1287,1212,0,0
70,-188,0,0,0,0,0,0,0,0,0,-1,1294,1212,0,0
77,-188,0,0,0,0,0,0,0,0,0,-1,1301,1212,0,0
84,-188,0,0,0,0,0,0,0,0,0,-1,1308,1212,0,0
91,-188,0,0,0,0,0,0,0,0,0,-1,1315,1212,0,0
98,-188,0,0,0,0,0,0,0,0,0,-1,1322,1212,0,0
105,-188,0,0,0,0,0,0,0,0,0,-1,1329,1212,0,0
112,-188,0,0,0,0,0,0,0,0,0,-1,1336,1212,0,0
119,-188,0,0,0,0,0,0,0,0,0,-1,1343,1212,0,0
126,-188,0,0,0,0,0,0,0,0,0,-1,1350,1212,0,0
133,-188,0,0,0,0,0,0,0,0,0,-1,1357,1212,0,0
140,-188,0,0,0,0,0,0,0,0,0,-1,1364,1212,0,0
147,-188,0,0,0,0,0,0,0,0,0,-1,1371,1212,0,0
154,-188,0,0,0,0,0,0,0,0,0,-1,1378,1212,0,0
161,-188,0,0,0,0,0,0,0,0,0,-1,1385,1212,0,0
168,-188,0,0,0,0,0,0,0,0,0,-1,1392,1212,0,0
175,-188,0,0,0,0,0,0,0,0,0,-1,1399,1212,0,0
182,-188,0,0,0,0,0,0,0,0,0,-1,1406,1212,0,0
189,-188,0,0,0,0,0,0,0,0,0,-1,1413,1212,0,0
196,-188,0,0,0,0,0,0,0,0,0,-1,1420,1212,0,0
203,-188,0,0,0,0,0,0,0,0,0,-1,1427,1212,0,0
210,-188,0,0,0,0,0,0,0,0,0,-1,1434,1212,0,0
217,-188,0,0,0,0,0,0,0,0,0,-1,1441,1212,0,0
224,-188,0,0,0,0,0,0,0,0,0,-1,1448,1212,0,0
231,-188,0,0,0,0,0,0,0,0,0,-1,1455,1212,0,0
238,-188,0,0,0,0,0,0,0,0,0,-1,1462,1212,0,0
245,-188,0,0,0,0,0,0,0,0,0,-1,1469,1212,0,0
252,-188,0,0,0,0,0,0,0,0,0,-1,1476,1212,0,0
259,-188,0,0,0,0,0,0,0,0,0,-1,1483,1212,0,0
266,-188,0,0,0,0,0,0,0,0,0,-1,1490,1212,0,0
273,-188,0,0,0,0,0,0,0,0,0,-1,1497,1212,0,0
280,-188,0,0,0,0,0,0,0,0,0,-1,1504,1212,0,0
287,-188,0,0,0,0,0,0,0,0,0,-1,1511,1212,0,0
294,-188,0,0,0,0,0,0,0,0,0,-1,1518,1212,0,0
301,-188,0,0,0,0,0,0,0,0,0,-1,1525,1212,0,0
308,-188,0,0,0,0,0,0,0,0,0,-1,1532,1212,0,0
315,-188,0,0,0,0,0,0,0,0,0,-1,1539,1212,0,0
322,-188,0,0,0,0,0,0,0,0,0,-1,1546,1212,0,0
329,-188,0,0,0,0,0,0,0,0,0,-1,1553,1212,0,0
336,-188,0,0,0,0,0,0,0,0,0,-1,1560,1212,0,0
343,-188,0,0,0,0,0,0,0,0,0,-1,1567,1212,0,0
350,-188,0,0,0,0,0,0,0,0,0,-1,1574,1212,0,0
357,-188,0,0,0,0,0,0,0,0,0,-1,1581,1212,0,0
364,-188,0,0,0,0,0,0,0,0,0,-1,1588,1212,0,0
371,-188,0,0,0,0,0,0,0,0,0,-1,1595,1212,0,0
378,-188,0,0,0,0,0,0,0,0,0,-1,1602,1212,0,0
385,-188,0,0,0,0,0,0,0,0,0,-1,1609,1212,0,0
392,-188,0,0,0,0,0,0,0,0,0,-1,1616,1212,0,0
399,-188,0,0,0,0,0,0,0,0,0,-1,1623,1212,0,0
406,-188,0,0,0,0,0,0,0,0,0,-1,1630,1212,0,0
413,-188,0,0,0,0,0,0,0,0,0,-1,1637,1212,0,0
420,-188,0,0,0,0,0,0,0,0,0,-1,1644,1212,0,0
427,-188,0,0,0,0,0,0,0,0,0,-1,1651,1212,0,0
434,-188,0,0,0,0,0,0,0,0,0,-1,1658,1212,0,0
441,-188,0,0,0,0,0,0,0,0,0,-1,1665,1212,0,0
448,-188,0,0,0,0,0,0,0,0,0,-1,1672,1212,0,0
455,-188,0,0,0,0,0,0,0,0,0,-1,1679,1212,0,0
462,-188,0,0,0,0,0,0,0,0,0,-1,1686,1212,0,0
469,-188,0,0,0,0,0,0,0,0,0,-1,1693,1212,0,0
476,-188,0,0,0,0,0,0,0,0,0,-1,1700,1212,0,0
483,-188,0,0,0,0,0,0,0,0,0,-1,1707,1212,0,0
490,-188,0,0,0,0,0,0,0,0,0,-1,1714,1212,0,0
497,-188,0,0,0,0,0,0,0,0,0,-1,1721,1212,0,0
504,-188,0,0,0,0,0,0,0,0,0,-1,1728,1212,0,0
511,-188,0,0,0,0,0,0,0,0,0,-1,1735,1212,0,0
518,-188,0,0,0,0,0,0,0,0,0,-1,1742,1212,0,0
525,-188,0,0,0,0,0,0,0,0,0,-1,1749,1212,0,0
532,-188,0,0,0,0,0,0,0,0,0,-1,1756,1212,0,0
539,-188,0,0,0,0,0,0,0,0,0,-1,1763,1212,0,0
546,-188,0,0,0,0,0,0,0,0,0,-1,1770,1212,0,0
553,-188,0,0,0,0,0,0,0,0,0,-1,1777,1212,0,0
560,-188,0,0,0,0,0,0,0,0,0,-1,1784,1212,0,0
567,-188,0,0,0,0,0,0,0,0,0,-1,1791,1212,0,0
574,-188,0,0,0,0,0,0,0,0,0,-1,1798,1212,0,0
581,-188,0,0,0,0,0,0,0,0,0,-1,1805,1212,0,0
588,-188,0,0,0,0,0,0,0,0,0,-1,1812,1212,0,0
595,-188,0,0,0,0,0,0,0,0,0,-1,1819,1212,0,0
602,-188,0,0,0,0,0,0,0,0,0,-1,1826,1212,0,0
609,-188,0,0,0,0,0,0,0,0,0,-1,1833,1212,0,0
616,-188,0,0,0,0,0,0,0,0,0,-1,1840,1212,0,0
623,-188,0,0,0,0,0,0,0,0,0,-1,1847,1212,0,0
630,-188,17.6302,2.66211,0.000251388,0.00269305,-0.00489992,0.00652194,-0.0035775,-0.907489,0.00591294,0.0393853,1854,1212,17.6302,-2.66216
637,-188,17.6002,2.59814,0.00176909,0.0029293,-0.00351004,0.00590684,-0.00120846,-0.867293,0.00439643,0.0389367,1861,1212,17.6002,-2.5981
644,-188,17.6796,2.60474,0.00236052,0.00286011,-0.00133096,0.00396451,0.00125612,-0.878159,0.00233954,0.037542,1868,1212,17.6796,-2.60477
651,-188,17.5696,2.57544,0.00173851,0.00252232,0.00120358,0.00339619,0.00086463,0.942792,0.002038,0.0325289,1875,1212,17.5695,-2.57545
658,-188,17.6719,2.53967,0.000179476,0.00197031,0.00356998,0.00475546,-0.00260567,0.908273,0.00430994,0.0323283,1882,1212,17.6719,-2.53964
665,-188,17.6089,2.52649,-0.00148128,0.00135131,0.00536262,0.00548151,-0.00561148,0.914502,0.00640469,0.0289379,1889,1212,17.6089,-2.52651
672,-188,17.5911,2.50793,-0.00314072,0.000685402,0.00659088,0.00563524,-0.00809056,0.926646,0.00796675,0.0238518,1896,1212,17.591,-2.50795
679,-188,17.6301,2.4635,-0.00463162,0.000158962,0.00733889,0.00548356,-0.00995622,0.943139,0.00903797,0.0480929,1903,1212,17.6301,-2.46346
686,-188,17.6224,3.01929,-0.00583378,-0.000312376,0.00765988,0.00506911,-0.0112153,0.958358,0.00962241,0.0444044,1910,1212,17.6225,-3.01926
693,-188,16.6718,3.6582,-0.0067264,-0.000658475,0.00769093,0.00457529,-0.0119602,0.97327,0.00985901,0.0447869,1917,1212,16.6717,-3.65825
700,-188,16.1348,3.99744,-0.00726062,-0.000973182,0.00749448,0.00401022,-0.012244,0.983988,0.00977751,0.0406398,1924,1212,16.1348,-3.99745
707,-188,15.9694,4.09583,-0.00761586,-0.00114929,0.00703777,0.00336238,-0.0121275,1.00073,0.00940827,0.0137659,1931,1212,15.9694,-4.09578
714,-188,15.9458,4.0083,-0.0075471,-0.00118921,0.00626462,0.00265688,-0.0113932,1.02019,0.00861869,0.0110348,1938,1212,15.9458,-4.00828
721,-188,15.896,3.92224,-0.00665269,-0.00100938,0.00513705,0.00202993,-0.00969201,1.03654,0.00723356,0.0111162,1945,1212,15.896,-3.92223
728,-188,15.8762,3.80554,-0.00530839,-0.000616401,0.0037122,0.00142897,-0.00735377,1.0672,0.00544174,0.00959169,1952,1212,15.8763,-3.80553
735,-188,15.855,3.69434,-0.00359201,-0.000139255,0.00213609,0.000880865,-0.00461213,1.12526,0.00340655,0.0127716,1959,1212,15.855,-3.69434
742,-188,15.864,3.59436,-0.000648549,0.00112394,0.000617005,0.00131757,-0.000842177,1.26671,0.00125696,0.0148846,1966,1212,15.864,-3.59432
749,-188,15.8876,3.49548,0.00229396,0.00250638,-0.000702088,0.00311025,0.0016901,-0.860468,0.00179796,0.0144075,1973,1212,15.8876,-3.49548
756,-188,15.8834,3.38342,0.0050045,0.00407321,-0.00182647,0.00642375,0.00265396,-0.660586,0.00372736,0.0127472,1980,1212,15.8835,-3.38345
763,-188,15.8711,3.2688,0.00746117,0.00584411,-0.00283656,0.00960218,0.0037031,-0.64656,0.00559194,0.0132185,1987,1212,15.8711,-3.26886
770,-188,15.9139,3.12122,0.00992861,0.00811834,-0.00383426,0.0129631,0.00508383,-0.669487,0.00754205,0.0193556,1994,1212,15.9139,-3.12116
777,-188,16.1969,2.71436,0.0125485,0.0110347,-0.00494948,0.0167986,0.00678462,-0.709523,0.00975826,0.0391261,2001,1212,16.1969,-2.71441
784,-188,16.3645,2.53296,0.0150955,0.014794,-0.00615154,0.0210982,0.0087914,-0.773147,0.0122373,0.0451366,2008,1212,16.3644,-2.53296
791,-188,16.3198,2.67065,0,0,0,0,0,0,0,-1,2015,1212,16.3198,-2.67071
798,-188,17.0161,1.72363,0,0,0,0,0,0,0,-1,2022,1212,17.0161,-1.72364
805,-188,0,0,0,0,0,0,0,0,0,-1,2029,1212,0,0
812,-188,0,0,0,0,0,0,0,0,0,-1,2036,1212,0,0
-700,-195,0,0,0,0,0,0,0,0,0,-1,524,1219,0,0
-693,-195,0,0,0,0,0,0,0,0,0,-1,531,1219,0,0
-686,-195,0,0,0,0,0,0,0,0,0,-1,538,1219,0,0
-679,-195,-7.35809,-4.06091,0,0,0,0,0,0,0,-1,545,1219,-7.35811,4.06085
-672,-195,-12.3397,0.804321,0,0,0,0,0,0,0,-1,552,1219,-12.3397,-0.804368
-665,-195,-11.1727,0.580566,0.0532339,0.0332219,0.0069236,0.0553957,0.0310601,0.30265,0.0320612,0.0458884,559,1219,-11.1727,-0.580521
-658,-195,-9.99329,0.32251,0.0456399,0.023909,0.00456451,0.0465597,0.0229892,0.198854,0.026882,0.0437288,566,1219,-9.99326,-0.322493
-651,-195,-9.32837,0.519775,0.0380495,0.0165903,0.00275649,0.0383979,0.0162419,0.125733,0.0222565,0.0457508,573,1219,-9.32837,-0.519808
-644,-195,-9.06226,0.759277,0.0307441,0.0110268,0.00146239,0.030852,0.0109189,0.0736306,0.0180641,0.0426485,580,1219,-9.06228,-0.759262
-637,-195,-9.10468,0.861816,0.0236139,0.00704052,0.000992433,0.0236732,0.0069813,0.0595971,0.0140458,0.0211911,587,1219,-9.1047,-0.861812
-630,-195,-9.17169,0.976074,0.0176868,0.00338201,0.000328316,0.0176943,0.00337448,0.0229354,0.0108478,0.0076173,594,1219,-9.17172,-0.976095
-623,-195,-9.1853,1.10535,0.0129358,0.00121091,-0.000951161,0.0130125,0.00113425,-0.0804224,0.0083227,0.0074452,601,1219,-9.18529,-1.1054
-616,-195,-9.17468,1.24878,0.00918641,8.92712e-05,-0.00223723,0.00970684,-0.000431152,-0.228555,0.00661962,0.00962578,608,1219,-9.17465,-1.24876
-609,-195,-9.15405,1.39221,0.00591754,-0.000830084,-0.00316885,0.00717236,-0.0020849,-0.377041,0.00560727,0.0171805,615,1219,-9.15407,-1.39226
-602,-195,-9.14471,1.51172,0.00308674,-0.00190916,-0.00322543,0.00466839,-0.00349081,-0.455914,0.00472705,0.0197978,622,1219,-9.14474,-1.51175
-595,-195,-9.18237,1.6709,0.00161187,-0.00163696,-0.00423851,0.00452659,-0.00455168,-0.602406,0.00524135,0.0149135,629,1219,-9.18239,-1.67095
-588,-195,-9.18085,1.80151,0.00120929,-0.00111269,-0.00488907,0.00507333,-0.00497673,-0.668824,0.00580249,0.00800819,636,1219,-9.18085,-1.80154
-581,-195,-9.17963,1.90161,0.00122519,-0.00107768,-0.00537053,0.00556633,-0.00541882,-0.679797,0.00634247,0.00955111,643,1219,-9.1796,-1.90156
-574,-195,-9.1825,1.90918,0.0013385,-0.00100295,-0.00546713,0.00575885,-0.0054233,-0.679921,0.00645698,0.0233353,650,1219,-9.18248,-1.90916
-567,-195,-8.67712,1.25464,0.00143536,-0.000861053,-0.0053241,0.00573366,-0.00515935,-0.679194,0.00629199,0.0450943,657,1219,-8.67714,-1.25469
-560,-195,-8.18982,0.584595,0,0,0,0,0,0,0,-1,664,1219,-8.18983,-0.584632
-553,-195,-11.3447,0.697388,0.0017025,-0.000231298,-0.00482459,0.00565613,-0.00418492,-0.686503,0.00570286,0.0462905,671,1219,-11.3447,-0.69742
-546,-195,-11.1326,0.697388,0.00161495,0.000109592,-0.004154,0.00508392,-0.00335937,-0.695773,0.00490851,0.0427923,678,1219,-11.1326,-0.697336
-539,-195,-11.1434,0.672607,0.00150303,0.000510504,-0.00329741,0.00434131,-0.00232778,-0.710709,0.00390846,0.0355212,685,1219,-11.1434,-0.672568
-532,-195,-11.0922,0.51123,0.00139088,0.000868194,-0.00222781,0.00337263,-0.00111355,-0.727011,0.00269734,0.0337958,692,1219,-11.0923,-0.511189
-525,-195,-11.0632,0.532593,0.00145849,0.00110768,-0.00097809,0.00227678,0.000289391,-0.696673,0.00143117,0.0363703,699,1219,-11.0632,-0.532654
-518,-195,-11.2809,0.941895,0.00184313,0.000920328,-0.000247453,0.0019053,0.000858161,-0.246134,0.00110183,0.0381324,706,1219,-11.2809,-0.941834
-511,-195,-11.0837,0.723022,0.00504192,-0.000550229,-0.00104598,0.00523116,-0.00073947,-0.178986,0.00375826,0.0409291,713,1219,-11.0837,-0.722996
-504,-195,0,0,0,0,0,0,0,0,0,-1,720,1219,0,0
-497,-195,0,0,0,0,0,0,0,0,0,-1,727,1219,0,0
-490,-195,0,0,0,0,0,0,0,0,0,-1,734,1219,0,0
-483,-195,0,0,0,0,0,0,0,0,0,-1,741,1219,0,0
-476,-195,0,0,0,0,0,0,0,0,0,-1,748,1219,0,0
-469,-195,0,0,0,0,0,0,0,0,0,-1,755,1219,0,0
-462,-195,0,0,0,0,0,0,0,0,0,-1,762,1219,0,0
-455,-195,0,0,0,0,0,0,0,0,0,-1,769,1219,0,0
-448,-195,0,0,0,0,0,0,0,0,0,-1,776,1219,0,0
-441,-195,0,0,0,0,0,0,0,0,0,-1,783,1219,0,0
-434,-195,0,0,0,0,0,0,0,0,0,-1,790,1219,0,0
-427,-195,0,0,0,0,0,0,0,0,0,-1,797,1219,0,0
-420,-195,0,0,0,0,0,0,0,0,0,-1,804,1219,0,0
-413,-195,0,0,0,0,0,0,0,0,0,-1,811,1219,0,0
-406,-195,0,0,0,0,0,0,0,0,0,-1,818,1219,0,0
-399,-195,0,0,0,0,0,0,0,0,0,-1,825,1219,0,0
-392,-195,0,0,0,0,0,0,0,0,0,-1,832,1219,0,0
-385,-195,0,0,0,0,0,0,0,0,0,-1,839,1219,0,0
-378,-195,0,0,0,0,0,0,0,0,0,-1,846,1219,0,0
-371,-195,0,0,0,0,0,0,0,0,0,-1,853,1219,0,0
-364,-195,0,0,0,0,0,0,0,0,0,-1,860,1219,0,0
-357,-195,0,0,0,0,0,0,0,0,0,-1,867,1219,0,0
-350,-195,0,0,0,0,0,0,0,0,0,-1,874,1219,0,0
-343,-195,0,0,0,0,0,0,0,0,0,-1,881,1219,0,0
-336,-195,0,0,0,0,0,0,0,0,0,-1,888,1219,0,0
-329,-195,0,0,0,0,0,0,0,0,0,-1,895,1219,0,0
-322,-195,0,0,0,0,0,0,0,0,0,-1,902,1219,0,0
-315,-195,0,0,0,0,0,0,0,0,0,-1,909,1219,0,0
-308,-195,0,0,0,0,0,0,0,0,0,-1,916,1219,0,0
-301,-195,0,0,0,0,0,0,0,0,0,-1,923,1219,0,0
-294,-195,0,0,0,0,0,0,0,0,0,-1,930,1219,0,0
-287,-195,0,0,0,0,0,0,0,0,0,-1,937,1219,0,0
-280,-195,0,0,0,0,0,0,0,0,0,-1,944,1219,0,0
-273,-195,0,0,0,0,0,0,0,0,0,-1,951,1219,0,0
-266,-195,0,0,0,0,0,0,0,0,0,-1,958,1219,0,0
-259,-195,0,0,0,0,0,0,0,0,0,-1,965,1219,0,0
-252,-195,0,0,0,0,0,0,0,0,0,-1,972,1219,0,0
-245,-195,0,0,0,0,0,0,0,0,0,-1,979,1219,0,0
-238,-195,0,0,0,0,0,0,0,0,0,-1,986,1219,0,0
-231,-195,0,0,0,0,0,0,0,0,0,-1,993,1219,0,0
-224,-195,0,0,0,0,0,0,0,0,0,-1,1000,1219,0,0
-217,-195,0,0,0,0,0,0,0,0,0,-1,1007,1219,0,0
-210,-195,0,0,0,0,0,0,0,0,0,-1,1014,1219,0,0
-203,-195,0,0,0,0,0,0,0,0,0,-1,1021,1219,0,0
-196,-195,0,0,0,0,0,0,0,0,0,-1,1028,1219,0,0
-189,-195,0,0,0,0,0,0,0,0,0,-1,1035,1219,0,0
-182,-195,0,0,0,0,0,0,0,0,0,-1,1042,1219,0,0
-175,-195,0,0,0,0,0,0,0,0,0,-1,1049,1219,0,0
-168,-195,0,0,0,0,0,0,0,0,0,-1,1056,1219,0,0
-161,-195,0,0,0,0,0,0,0,0,0,-1,1063,1219,0,0
-154,-195,0,0,0,0,0,0,0,0,0,-1,1070,1219,0,0
-147,-195,0,0,0,0,0,0,0,0,0,-1,1077,1219,0,0
-140,-195,0,0,0,0,0,0,0,0,0,-1,1084,1219,0,0
-133,-195,0,0,0,0,0,0,0,0,0,-1,1091,1219,0,0
-126,-195,0,0,0,0,0,0,0,0,0,-1,1098,1219,0,0
-119,-195,0,0,0,0,0,0,0,0,0,-1,1105,1219,0,0
-112,-195,0,0,0,0,0,0,0,0,0,-1,1112,1219,0,0
-105,-195,0,0,0,0,0,0,0,0,0,-1,1119,1219,0,0
-98,-195,0,0,0,0,0,0,0,0,0,-1,1126,1219,0,0
-91,-195,0,0,0,0,0,0,0,0,0,-1,1133,1219,0,0
-84,-195,0,0,0,0,0,0,0,0,0,-1,1140,1219,0,0
-77,-195,0,0,0,0,0,0,0,0,0,-1,1147,1219,0,0
-70,-195,0,0,0,0,0,0,0,0,0,-1,1154,1219,0,0
-63,-195,0,0,0,0,0,0,0,0,0,-1,1161,1219,0,0
-56,-195,0,0,0,0,0,0,0,0,0,-1,1168,1219,0,0
-49,-195,0,0,0,0,0,0,0,0,0,-1,1175,1219,0,0
-42,-195,0,0,0,0,0,0,0,0,0,-1,1182,1219,0,0
-35,-195,0,0,0,0,0,0,0,0,0,-1,1189,1219,0,0
-28,-195,0,0,0,0,0,0,0,0,0,-1,1196,1219,0,0
-21,-195,0,0,0,0,0,0,0,0,0,-1,1203,1219,0,0
-14,-195,0,0,0,0,0,0,0,0,0,-1,1210,1219,0,0
-7,-195,0,0,0,0,0,0,0,0,0,-1,1217,1219,0,0
0,-195,0,0,0,0,0,0,0,0,0,-1,1224,1219,0,0
7,-195,0,0,0,0,0,0,0,0,0,-1,1231,1219,0,0
14,-195,0,0,0,0,0,0,0,0,0,-1,1238,1219,0,0
21,-195,0,0,0,0,0,0,0,0,0,-1,1245,1219,0,0
28,-195,0,0,0,0,0,0,0,0,0,-1,1252,1219,0,0
35,-195,0,0,0,0,0,0,0,0,0,-1,1259,1219,0,0
42,-195,0,0,0,0,0,0,0,0,0,-1,1266,1219,0,0
49,-195,0,0,0,0,0,0,0,0,0,-1,1273,1219,0,0
56,-195,0,0,0,0,0,0,0,0,0,-1,1280,1219,0,0
63,-195,0,0,0,0,0,0,0,0,0,-1,1287,1219,0,0
70,-195,0,0,0,0,0,0,0,0,0,-1,1294,1219,0,0
77,-195,0,0,0,0,0,0,0,0,0,-1,1301,1219,0,0
84,-195,0,0,0,0,0,0,0,0,0,-1,1308,1219,0,0
91,-195,0,0,0,0,0,0,0,0,0,-1,1315,1219,0,0
98,-195,0,0,0,0,0,0,0,0,0,-1,1322,1219,0,0
105,-195,0,0,0,0,0,0,0,0,0,-1,1329,1219,0,0
112,-195,0,0,0,0,0,0,0,0,0,-1,1336,1219,0,0
119,-195,0,0,0,0,0,0,0,0,0,-1,1343,1219,0,0
126,-195,0,0,0,0,0,0,0,0,0,-1,1350,1219,0,0
133,-195,0,0,0,0,0,0,0,0,0,-1,1357,1219,0,0
140,-195,0,0,0,0,0,0,0,0,0,-1,1364,1219,0,0
147,-195,0,0,0,0,0,0,0,0,0,-1,1371,1219,0,0
154,-195,0,0,0,0,0,0,0,0,0,-1,1378,1219,0,0
161,-195,0,0,0,0,0,0,0,0,0,-1,1385,1219,0,0
168,-195,0,0,0,0,0,0,0,0,0,-1,1392,1219,0,0
175,-195,0,0,0,0,0,0,0,0,0,-1,1399,1219,0,0
182,-195,0,0,0,0,0,0,0,0,0,-1,1406,1219,0,0
189,-195,0,0,0,0,0,0,0,0,0,-1,1413,1219,0,0
196,-195,0,0,0,0,0,0,0,0,0,-1,1420,1219,0,0
203,-195,0,0,0,0,0,0,0,0,0,-1,1427,1219,0,0
210,-195,0,0,0,0,0,0,0,0,0,-1,1434,1219,0,0
217,-195,0,0,0,0,0,0,0,0,0,-1,1441,1219,0,0
224,-195,0,0,0,0,0,0,0,0,0,-1,1448,1219,0,0
231,-195,0,0,0,0,0,0,0,0,0,-1,1455,1219,0,0
238,-195,0,0,0,0,0,0,0,0,0,-1,1462,1219,0,0
245,-195,0,0,0,0,0,0,0,0,0,-1,1469,1219,0,0
252,-195,0,0,0,0,0,0,0,0,0,-1,1476,1219,0,0
259,-195,0,0,0,0,0,0,0,0,0,-1,1483,1219,0,0
266,-195,0,0,0,0,0,0,0,0,0,-1,1490,1219,0,0
273,-195,0,0,0,0,0,0,0,0,0,-1,1497,1219,0,0
280,-195,0,0,0,0,0,0,0,0,0,-1,1504,1219,0,0
287,-195,0,0,0,0,0,0,0,0,0,-1,1511,1219,0,0
294,-195,0,0,0,0,0,0,0,0,0,-1,1518,1219,0,0
301,-195,0,0,0,0,0,0,0,0,0,-1,1525,1219,0,0
308,-195,0,0,0,0,0,0,0,0,0,-1,1532,1219,0,0
315,-195,0,0,0,0,0,0,0,0,0,-1,1539,1219,0,0
322,-195,0,0,0,0,0,0,0,0,0,-1,1546,1219,0,0
329,-195,0,0,0,0,0,0,0,0,0,-1,1553,1219,0,0
336,-195,0,0,0,0,0,0,0,0,0,-1,1560,1219,0,0
343,-195,0,0,0,0,0,0,0,0,0,-1,1567,1219,0,0
350,-195,0,0,0,0,0,0,0,0,0,-1,1574,1219,0,0
357,-195,0,0,0,0,0,0,0,0,0,-1,1581,1219,0,0
364,-195,0,0,0,0,0,0,0,0,0,-1,1588,1219,0,0
371,-195,0,0,0,0,0,0,0,0,0,-1,1595,1219,0,0
378,-195,0,0,0,0,0,0,0,0,0,-1,1602,1219,0,0
385,-195,0,0,0,0,0,0,0,0,0,-1,1609,1219,0,0
392,-195,0,0,0,0,0,0,0,0,0,-1,1616,1219,0,0
399,-195,0,0,0,0,0,0,0,0,0,-1,1623,1219,0,0
406,-195,0,0,0,0,0,0,0,0,0,-1,1630,1219,0,0
413,-195,0,0,0,0,0,0,0,0,0,-1,1637,1219,0,0
420,-195,0,0,0,0,0,0,0,0,0,-1,1644,1219,0,0
427,-195,0,0,0,0,0,0,0,0,0,-1,1651,1219,0,0
434,-195,0,0,0,0,0,0,0,0,0,-1,1658,1219,0,0
441,-195,0,0,0,0,0,0,0,0,0,-1,1665,1219,0,0
448,-195,0,0,0,0,0,0,0,0,0,-1,1672,1219,0,0
455,-195,0,0,0,0,0,0,0,0,0,-1,1679,1219,0,0
462,-195,0,0,0,0,0,0,0,0,0,-1,1686,1219,0,0
469,-195,0,0,0,0,0,0,0,0,0,-1,1693,1219,0,0
476,-195,0,0,0,0,0,0,0,0,0,-1,1700,1219,0,0
483,-195,0,0,0,0,0,0,0,0,0,-1,1707,1219,0,0
490,-195,0,0,0,0,0,0,0,0,0,-1,1714,1219,0,0
497,-195,0,0,0,0,0,0,0,0,0,-1,1721,1219,0,0
504,-195,0,0,0,0,0,0,0,0,0,-1,1728,1219,0,0
511,-195,0,0,0,0,0,0,0,0,0,-1,1735,1219,0,0
518,-195,0,0,0,0,0,0,0,0,0,-1,1742,1219,0,0
525,-195,0,0,0,0,0,0,0,0,0,-1,1749,1219,0,0
532,-195,0,0,0,0,0,0,0,0,0,-1,1756,1219,0,0
539,-195,0,0,0,0,0,0,0,0,0,-1,1763,1219,0,0
546,-195,0,0,0,0,0,0,0,0,0,-1,1770,1219,0,0
553,-195,0,0,0,0,0,0,0,0,0,-1,1777,1219,0,0
560,-195,0,0,0,0,0,0,0,0,0,-1,1784,1219,0,0
567,-195,0,0,0,0,0,0,0,0,0,-1,1791,1219,0,0
574,-195,0,0,0,0,0,0,0,0,0,-1,1798,1219,0,0
581,-195,0,0,0,0,0,0,0,0,0,-1,1805,1219,0,0
588,-195,0,0,0,0,0,0,0,0,0,-1,1812,1219,0,0
595,-195,0,0,0,0,0,0,0,0,0,-1,1819,1219,0,0
602,-195,0,0,0,0,0,0,0,0,0,-1,1826,1219,0,0
609,-195,0,0,0,0,0,0,0,0,0,-1,1833,1219,0,0
616,-195,0,0,0,0,0,0,0,0,0,-1,1840,1219,0,0
623,-195,0,0,0,0,0,0,0,0,0,-1,1847,1219,0,0
630,-195,17.6233,2.54541,-0.000175291,0.00352127,-0.00511009,0.00710706,-0.00376109,-0.958925,0.00637308,0.0393405,1854,1219,17.6232,-2.54539
637,-195,17.6932,2.59851,0.00132897,0.00370826,-0.00295293,0.00570217,-0.000664945,-0.976887,0.00404137,0.0376649,1861,1219,17.6932,-2.59851
644,-195,17.6399,2.56177,0.00195055,0.00358976,-0.000161283,0.00360547,0.00193484,-1.47365,0.00208348,0.0340977,1868,1219,17.6399,-2.56179
651,-195,17.5404,2.51611,0.00146217,0.00317159,0.00270383,0.00515259,-0.000518831,0.938484,0.00362042,0.0273944,1875,1219,17.5404,-2.51612
658,-195,17.5713,2.53674,0.000293325,0.00257998,0.00509206,0.00665549,-0.00378218,0.895832,0.00610183,0.025121,1882,1219,17.5713,-2.53672
665,-195,17.5942,2.56812,-0.000981315,0.00190731,0.00676769,0.00738309,-0.0064571,0.890527,0.0079966,0.0231566,1889,1219,17.5942,-2.56811
672,-195,17.6449,2.45508,-0.0023355,0.0011592,0.00783598,0.00744029,-0.00861659,0.895099,0.00927873,0.0349493,1896,1219,17.6449,-2.45507
679,-195,17.6516,2.32959,0,0,0,0,0,0,0,-1,1903,1219,17.6516,-2.32962
686,-195,17.2399,3.11096,-0.00463478,5.71368e-05,0.00852135,0.00654956,-0.0111272,0.919722,0.0103191,0.0450884,1910,1219,17.2398,-3.11099
693,-195,16.417,3.78748,-0.00545753,-0.000362112,0.00837987,0.00584878,-0.0116684,0.932972,0.0102979,0.0482333,1917,1219,16.417,-3.78746
700,-195,15.7922,4.16687,-0.00596744,-0.000763559,0.00797737,0.00502548,-0.0117565,0.943041,0.00994545,0.0293763,1924,1219,15.7922,-4.16692
707,-195,15.7422,4.16284,-0.00632744,-0.000986092,0.00728618,0.00410345,-0.011417,0.961065,0.00928642,0.0137581,1931,1219,15.7422,-4.1628
714,-195,15.7612,4.06213,-0.00630813,-0.00108585,0.00626649,0.00309174,-0.0104857,0.982801,0.00821728,0.0151028,1938,1219,15.7613,-4.06207
721,-195,15.7638,3.94604,-0.00552784,-0.000945972,0.0049284,0.00219794,-0.00867175,1.00296,0.00663627,0.0125622,1945,1219,15.7638,-3.94607
728,-195,15.7554,3.81982,-0.00433348,-0.000639595,0.00333292,0.00132391,-0.00629699,1.03841,0.00470185,0.0101717,1952,1219,15.7554,-3.81987
735,-195,15.7377,3.70667,-0.00281271,-0.000356358,0.00164456,0.000468023,-0.00363709,1.10613,0.00259484,0.0123047,1959,1219,15.7377,-3.70661
742,-195,15.7633,3.599,-7.32843e-05,0.000804888,0.000152095,0.000830484,-9.88803e-05,1.40407,0.000589387,0.0139512,1966,1219,15.7633,-3.59897
749,-195,15.7754,3.50623,0.00266824,0.00193722,-0.0011205,0.00348134,0.00112412,-0.627738,0.00205155,0.014028,1973,1219,15.7754,-3.50623
756,-195,15.7662,3.39661,0.0051884,0.00318508,-0.00225564,0.00665478,0.0017187,-0.576442,0.00398901,0.0137417,1980,1219,15.7663,-3.39656
763,-195,15.764,3.24597,0.00756377,0.00458919,-0.00330685,0.0097024,0.00245055,-0.574071,0.00582582,0.0148429,1987,1219,15.764,-3.24596
770,-195,15.8169,2.99744,0.0101191,0.00642409,-0.00442433,0.0130662,0.00347703,-0.587614,0.00781404,0.0264188,1994,1219,15.8168,-2.99742
777,-195,16.0476,2.58081,0.0129574,0.00881935,-0.00568984,0.0169427,0.00483402,-0.611014,0.010078,0.0429865,2001,1219,16.0475,-2.58077
784,-195,16.1361,2.37732,0.0159148,0.0119859,-0.00708356,0.0213013,0.00659945,-0.650134,0.0125914,0.0457978,2008,1219,16.1361,-2.37735
791,-195,16.2341,2.18628,0.018904,0.0162691,-0.0085813,0.0262684,0.00890469,-0.709229,0.0154259,0.0492057,2015,1219,16.2342,-2.18627
798,-195,16.4188,1.91626,0,0,0,0,0,0,0,-1,2022,1219,16.4188,-1.9163
805,-195,0,0,0,0,0,0,0,0,0,-1,2029,1219,0,0
812,-195,0,0,0,0,0,0,0,0,0,-1,2036,1219,0,0
-700,-202,0,0,0,0,0,0,0,0,0,-1,524,1226,0,0
-693,-202,0,0,0,0,0,0,0,0,0,-1,531,1226,0,0
-686,-202,0,0,0,0,0,0,0,0,0,-1,538,1226,0,0
-679,-202,-12.931,0.819214,0,0,0,0,0,0,0,-1,545,1226,-12.931,-0.819185
-672,-202,-11.6636,0.420166,0,0,0,0,0,0,0,-1,552,1226,-11.6636,-0.420196
-665,-202,-10.3143,0.0323486,0.0550624,0.0224338,0.0191305,0.0638904,0.0136059,0.432343,0.0388605,0.0459163,559,1226,-10.3144,-0.032291
-658,-202,-8.96539,-0.162842,0.0495128,0.0152663,0.0129544,0.053861,0.0109181,0.323836,0.0328779,0.0462988,566,1226,-8.96537,0.162876
-651,-202,-9.10602,1.0343,0,0,0,0,0,0,0,-1,573,1226,-9.10601,-1.03433
-644,-202,-9.05377,0.998535,0.0351743,0.00579611,0.00573995,0.036256,0.00471446,0.186259,0.0227625,0.0489704,580,1226,-9.05378,-0.998516
-637,-202,-8.91675,0.812256,0.0279272,0.0030324,0.00375995,0.0284827,0.00247692,0.146676,0.018219,0.0326515,587,1226,-8.91673,-0.81224
-630,-202,-8.99658,0.945068,0.0214936,0.000847404,0.00211785,0.0217086,0.000632398,0.101175,0.0142662,0.0123697,594,1226,-8.99656,-0.94505
-623,-202,-9.02032,1.0885,0.0158745,-0.000528915,0.000703528,0.0159046,-0.000559034,0.0427844,0.0107942,0.00738997,601,1226,-9.02035,-1.08851
-616,-202,-9.02521,1.23462,0.0114395,-0.000983133,-0.000767485,0.0114868,-0.00103037,-0.0614694,0.00802339,0.00808545,608,1226,-9.02522,-1.23462
-609,-202,-9.01532,1.37134,0.00757051,-0.00142555,-0.00177119,0.00790666,-0.00176171,-0.187562,0.00594599,0.0206532,615,1226,-9.0153,-1.37134
-602,-202,-9.02618,1.47852,0.00446767,-0.00213654,-0.00197669,0.00501409,-0.00268297,-0.2697,0.00451132,0.0208593,622,1226,-9.02621,-1.47852
-595,-202,-9.04822,1.66357,0.00293814,-0.00166636,-0.00309533,0.00449353,-0.00322176,-0.465643,0.00447455,0.0154127,629,1226,-9.04821,-1.66352
-588,-202,-9.01196,1.80945,0.00244587,-0.000958463,-0.0038148,0.00492103,-0.00343363,-0.575553,0.00484898,0.00805221,636,1226,-9.01196,-1.80947
-581,-202,-9.00751,1.89258,0.00241141,-0.000777215,-0.004506,0.00559683,-0.00396264,-0.615361,0.00554598,0.0104874,643,1226,-9.0075,-1.89264
-574,-202,-9.06616,1.92346,0.00247026,-0.000717322,-0.00468536,0.00582548,-0.00407255,-0.621456,0.00574443,0.0168173,650,1226,-9.06619,-1.92348
-567,-202,-9.11621,1.92859,0.00245914,-0.000570984,-0.00462333,0.00580932,-0.00392117,-0.627062,0.00565305,0.0438119,657,1226,-9.11619,-1.92863
-560,-202,-9.20709,1.9801,0,0,0,0,0,0,0,-1,664,1226,-9.20711,-1.98016
-553,-202,-11.3833,0.650879,0,0,0,0,0,0,0,-1,671,1226,-11.3833,-0.650856
-546,-202,-10.9457,0.595703,0.00210619,0.000567104,-0.00404359,0.00545282,-0.00277952,-0.691367,0.00483575,0.0451333,678,1226,-10.9458,-0.595681
-539,-202,-11.0525,0.586914,0.00163506,0.00106579,-0.00350479,0.00486676,-0.0021659,-0.74488,0.00415892,0.0387387,685,1226,-11.0525,-0.58686
-532,-202,-11.0972,0.608521,0.00103688,0.00159599,-0.00278191,0.00411235,-0.00147948,-0.835476,0.00334561,0.0294827,692,1226,-11.0972,-0.608558
-525,-202,-11.0839,0.633545,0.000458759,0.00213428,-0.00185791,0.00333458,-0.000741539,-0.997205,0.00250706,0.0346037,699,1226,-11.0839,-0.633583
-518,-202,-11.2797,1.00256,6.43151e-05,0.0025294,-0.00107826,0.00293448,-0.000340766,-1.21143,0.00207924,0.0382933,706,1226,-11.2798,-1.00258
-511,-202,-11.056,0.814209,0.00179643,0.00210547,-0.00110538,0.00306708,0.00083482,-0.854841,0.00183102,0.040473,713,1226,-11.056,-0.814232
-504,-202,0,0,0,0,0,0,0,0,0,-1,720,1226,0,0
-497,-202,0,0,0,0,0,0,0,0,0,-1,727,1226,0,0
-490,-202,0,0,0,0,0,0,0,0,0,-1,734,1226,0,0
-483,-202,0,0,0,0,0,0,0,0,0,-1,741,1226,0,0
-476,-202,0,0,0,0,0,0,0,0,0,-1,748,1226,0,0
-469,-202,0,0,0,0,0,0,0,0,0,-1,755,1226,0,0
-462,-202,0,0,0,0,0,0,0,0,0,-1,762,1226,0,0
-455,-202,0,0,0,0,0,0,0,0,0,-1,769,1226,0,0
-448,-202,0,0,0,0,0,0,0,0,0,-1,776,1226,0,0
-441,-202,0,0,0,0,0,0,0,0,0,-1,783,1226,0,0
-434,-202,0,0,0,0,0,0,0,0,0,-1,790,1226,0,0
-427,-202,0,0,0,0,0,0,0,0,0,-1,797,1226,0,0
-420,-202,0,0,0,0,0,0,0,0,0,-1,804,1226,0,0
-413,-202,0,0,0,0,0,0,0,0,0,-1,811,1226,0,0
-406,-202,0,0,0,0,0,0,0,0,0,-1,818,1226,0,0
-399,-202,0,0,0,0,0,0,0,0,0,-1,825,1226,0,0
-392,-202,0,0,0,0,0,0,0,0,0,-1,832,1226,0,0
-385,-202,0,0,0,0,0,0,0,0,0,-1,839,1226,0,0
-378,-202,0,0,0,0,0,0,0,0,0,-1,846,1226,0,0
-371,-202,0,0,0,0,0,0,0,0,0,-1,853,1226,0,0
-364,-202,0,0,0,0,0,0,0,0,0,-1,860,1226,0,0
-357,-202,0,0,0,0,0,0,0,0,0,-1,867,1226,0,0
-350,-202,0,0,0,0,0,0,0,0,0,-1,874,1226,0,0
-343,-202,0,0,0,0,0,0,0,0,0,-1,881,1226,0,0
-336,-202,0,0,0,0,0,0,0,0,0,-1,888,1226,0,0
-329,-202,0,0,0,0,0,0,0,0,0,-1,895,1226,0,0
-322,-202,0,0,0,0,0,0,0,0,0,-1,902,1226,0,0
-315,-202,0,0,0,0,0,0,0,0,0,-1,909,1226,0,0
-308,-202,0,0,0,0,0,0,0,0,0,-1,916,1226,0,0
-301,-202,0,0,0,0,0,0,0,0,0,-1,923,1226,0,0
-294,-202,0,0,0,0,0,0,0,0,0,-1,930,1226,0,0
-287,-202,0,0,0,0,0,0,0,0,0,-1,937,1226,0,0
-280,-202,0,0,0,0,0,0,0,0,0,-1,944,1226,0,0
-273,-202,0,0,0,0,0,0,0,0,0,-1,951,1226,0,0
-266,-202,0,0,0,0,0,0,0,0,0,-1,958,1226,0,0
-259,-202,0,0,0,0,0,0,0,0,0,-1,965,1226,0,0
-252,-202,0,0,0,0,0,0,0,0,0,-1,972,1226,0,0
-245,-202,0,0,0,0,0,0,0,0,0,-1,979,1226,0,0
-238,-202,0,0,0,0,0,0,0,0,0,-1,986,1226,0,0
-231,-202,0,0,0,0,0,0,0,0,0,-1,993,1226,0,0
-224,-202,0,0,0,0,0,0,0,0,0,-1,1000,1226,0,0
-217,-202,0,0,0,0,0,0,0,0,0,-1,1007,1226,0,0
-210,-202,0,0,0,0,0,0,0,0,0,-1,1014,1226,0,0
-203,-202,0,0,0,0,0,0,0,0,0,-1,1021,1226,0,0
-196,-202,0,0,0,0,0,0,0,0,0,-1,1028,1226,0,0
-189,-202,0,0,0,0,0,0,0,0,0,-1,1035,1226,0,0
-182,-202,0,0,0,0,0,0,0,0,0,-1,1042,1226,0,0
-175,-202,0,0,0,0,0,0,0,0,0,-1,1049,1226,0,0
-168,-202,0,0,0,0,0,0,0,0,0,-1,1056,1226,0,0
-161,-202,0,0,0,0,0,0,0,0,0,-1,1063,1226,0,0
-154,-202,0,0,0,0,0,0,0,0,0,-1,1070,1226,0,0
-147,-202,0,0,0,0,0,0,0,0,0,-1,1077,1226,0,0
-140,-202,0,0,0,0,0,0,0,0,0,-1,1084,1226,0,0
-133,-202,0,0,0,0,0,0,0,0,0,-1,1091,1226,0,0
-126,-202,0,0,0,0,0,0,0,0,0,-1,1098,1226,0,0
-119,-202,0,0,0,0,0,0,0,0,0,-1,1105,1226,0,0
-112,-202,0,0,0,0,0,0,0,0,0,-1,1112,1226,0,0
-105,-202,0,0,0,0,0,0,0,0,0,-1,1119,1226,0,0
-98,-202,0,0,0,0,0,0,0,0,0,-1,1126,1226,0,0
-91,-202,0,0,0,0,0,0,0,0,0,-1,1133,1226,0,0
-84,-202,0,0,0,0,0,0,0,0,0,-1,1140,1226,0,0
-77,-202,0,0,0,0,0,0,0,0,0,-1,1147,1226,0,0
-70,-202,0,0,0,0,0,0,0,0,0,-1,1154,1226,0,0
-63,-202,0,0,0,0,0,0,0,0,0,-1,1161,1226,0,0
-56,-202,0,0,0,0,0,0,0,0,0,-1,1168,1226,0,0
-49,-202,0,0,0,0,0,0,0,0,0,-1,1175,1226,0,0
-42,-202,0,0,0,0,0,0,0,0,0,-1,1182,1226,0,0
-35,-202,0,0,0,0,0,0,0,0,0,-1,1189,1226,0,0
-28,-202,0,0,0,0,0,0,0,0,0,-1,1196,1226,0,0
-21,-202,0,0,0,0,0,0,0,0,0,-1,1203,1226,0,0
-14,-202,0,0,0,0,0,0,0,0,0,-1,1210,1226,0,0
-7,-202,0,0,0,0,0,0,0,0,0,-1,1217,1226,0,0
0,-202,0,0,0,0,0,0,0,0,0,-1,1224,1226,0,0
7,-202,0,0,0,0,0,0,0,0,0,-1,1231,1226,0,0
14,-202,0,0,0,0,0,0,0,0,0,-1,1238,1226,0,0
21,-202,0,0,0,0,0,0,0,0,0,-1,1245,1226,0,0
28,-202,0,0,0,0,0,0,0,0,0,-1,1252,1226,0,0
35,-202,0,0,0,0,0,0,0,0,0,-1,1259,1226,0,0
42,-202,0,0,0,0,0,0,0,0,0,-1,1266,1226,0,0
49,-202,0,0,0,0,0,0,0,0,0,-1,1273,1226,0,0
56,-202,0,0,0,0,0,0,0,0,0,-1,1280,1226,0,0
63,-202,0,0,0,0,0,0,0,0,0,-1,1287,1226,0,0
70,-202,0,0,0,0,0,0,0,0,0,-1,1294,1226,0,0
77,-202,0,0,0,0,0,0,0,0,0,-1,1301,1226,0,0
84,-202,0,0,0,0,0,0,0,0,0,-1,1308,1226,0,0
91,-202,0,0,0,0,0,0,0,0,0,-1,1315,1226,0,0
98,-202,0,0,0,0,0,0,0,0,0,-1,1322,1226,0,0
105,-202,0,0,0,0,0,0,0,0,0,-1,1329,1226,0,0
112,-202,0,0,0,0,0,0,0,0,0,-1,1336,1226,0,0
119,-202,0,0,0,0,0,0,0,0,0,-1,1343,1226,0,0
126,-202,0,0,0,0,0,0,0,0,0,-1,1350,1226,0,0
133,-202,0,0,0,0,0,0,0,0,0,-1,1357,1226,0,0
140,-202,0,0,0,0,0,0,0,0,0,-1,1364,1226,0,0
147,-202,0,0,0,0,0,0,0,0,0,-1,1371,1226,0,0
154,-202,0,0,0,0,0,0,0,0,0,-1,1378,1226,0,0
161,-202,0,0,0,0,0,0,0,0,0,-1,1385,1226,0,0
168,-202,0,0,0,0,0,0,0,0,0,-1,1392,1226,0,0
175,-202,0,0,0,0,0,0,0,0,0,-1,1399,1226,0,0
182,-202,0,0,0,0,0,0,0,0,0,-1,1406,1226,0,0
189,-202,0,0,0,0,0,0,0,0,0,-1,1413,1226,0,0
196,-202,0,0,0,0,0,0,0,0,0,-1,1420,1226,0,0
203,-202,0,0,0,0,0,0,0,0,0,-1,1427,1226,0,0
210,-202,0,0,0,0,0,0,0,0,0,-1,1434,1226,0,0
217,-202,0,0,0,0,0,0,0,0,0,-1,1441,1226,0,0
224,-202,0,0,0,0,0,0,0,0,0,-1,1448,1226,0,0
231,-202,0,0,0,0,0,0,0,0,0,-1,1455,1226,0,0
238,-202,0,0,0,0,0,0,0,0,0,-1,1462,1226,0,0
245,-202,0,0,0,0,0,0,0,0,0,-1,1469,1226,0,0
252,-202,0,0,0,0,0,0,0,0,0,-1,1476,1226,0,0
259,-202,0,0,0,0,0,0,0,0,0,-1,1483,1226,0,0
266,-202,0,0,0,0,0,0,0,0,0,-1,1490,1226,0,0
273,-202,0,0,0,0,0,0,0,0,0,-1,1497,1226,0,0
280,-202,0,0,0,0,0,0,0,0,0,-1,1504,1226,0,0
287,-202,0,0,0,0,0,0,0,0,0,-1,1511,1226,0,0
294,-202,0,0,0,0,0,0,0,0,0,-1,1518,1226,0,0
301,-202,0,0,0,0,0,0,0,0,0,-1,1525,1226,0,0
308,-202,0,0,0,0,0,0,0,0,0,-1,1532,1226,0,0
315,-202,0,0,0,0,0,0,0,0,0,-1,1539,1226,0,0
322,-202,0,0,0,0,0,0,0,0,0,-1,1546,1226,0,0
329,-202,0,0,0,0,0,0,0,0,0,-1,1553,1226,0,0
336,-202,0,0,0,0,0,0,0,0,0,-1,1560,1226,0,0
343,-202,0,0,0,0,0,0,0,0,0,-1,1567,1226,0,0
350,-202,0,0,0,0,0,0,0,0,0,-1,1574,1226,0,0
357,-202,0,0,0,0,0,0,0,0,0,-1,1581,1226,0,0
364,-202,0,0,0,0,0,0,0,0,0,-1,1588,1226,0,0
371,-202,0,0,0,0,0,0,0,0,0,-1,1595,1226,0,0
378,-202,0,0,0,0,0,0,0,0,0,-1,1602,1226,0,0
385,-202,0,0,0,0,0,0,0,0,0,-1,1609,1226,0,0
392,-202,0,0,0,0,0,0,0,0,0,-1,1616,1226,0,0
399,-202,0,0,0,0,0,0,0,0,0,-1,1623,1226,0,0
406,-202,0,0,0,0,0,0,0,0,0,-1,1630,1226,0,0
413,-202,0,0,0,0,0,0,0,0,0,-1,1637,1226,0,0
420,-202,0,0,0,0,0,0,0,0,0,-1,1644,1226,0,0
427,-202,0,0,0,0,0,0,0,0,0,-1,1651,1226,0,0
434,-202,0,0,0,0,0,0,0,0,0,-1,1658,1226,0,0
441,-202,0,0,0,0,0,0,0,0,0,-1,1665,1226,0,0
448,-202,0,0,0,0,0,0,0,0,0,-1,1672,1226,0,0
455,-202,0,0,0,0,0,0,0,0,0,-1,1679,1226,0,0
462,-202,0,0,0,0,0,0,0,0,0,-1,1686,1226,0,0
469,-202,0,0,0,0,0,0,0,0,0,-1,1693,1226,0,0
476,-202,0,0,0,0,0,0,0,0,0,-1,1700,1226,0,0
483,-202,0,0,0,0,0,0,0,0,0,-1,1707,1226,0,0
490,-202,0,0,0,0,0,0,0,0,0,-1,1714,1226,0,0
497,-202,0,0,0,0,0,0,0,0,0,-1,1721,1226,0,0
504,-202,0,0,0,0,0,0,0,0,0,-1,1728,1226,0,0
511,-202,0,0,0,0,0,0,0,0,0,-1,1735,1226,0,0
518,-202,0,0,0,0,0,0,0,0,0,-1,1742,1226,0,0
525,-202,0,0,0,0,0,0,0,0,0,-1,1749,1226,0,0
532,-202,0,0,0,0,0,0,0,0,0,-1,1756,1226,0,0
539,-202,0,0,0,0,0,0,0,0,0,-1,1763,1226,0,0
546,-202,0,0,0,0,0,0,0,0,0,-1,1770,1226,0,0
553,-202,0,0,0,0,0,0,0,0,0,-1,1777,1226,0,0
560,-202,0,0,0,0,0,0,0,0,0,-1,1784,1226,0,0
567,-202,0,0,0,0,0,0,0,0,0,-1,1791,1226,0,0
574,-202,0,0,0,0,0,0,0,0,0,-1,1798,1226,0,0
581,-202,0,0,0,0,0,0,0,0,0,-1,1805,1226,0,0
588,-202,0,0,0,0,0,0,0,0,0,-1,1812,1226,0,0
595,-202,0,0,0,0,0,0,0,0,0,-1,1819,1226,0,0
602,-202,0,0,0,0,0,0,0,0,0,-1,1826,1226,0,0
609,-202,0,0,0,0,0,0,0,0,0,-1,1833,1226,0,0
616,-202,0,0,0,0,0,0,0,0,0,-1,1840,1226,0,0
623,-202,0,0,0,0,0,0,0,0,0,-1,1847,1226,0,0
630,-202,17.62,2.69995,-0.000211798,0.00432628,-0.00506176,0.00760431,-0.00348983,-0.996105,0.00655039,0.0373839,1854,1226,17.62,-2.69995
637,-202,17.7622,2.7439,0.000756823,0.00433466,-0.00247451,0.00559917,-0.00050769,-1.09838,0.00391301,0.0347383,1861,1226,17.7622,-2.74385
644,-202,17.7148,2.56396,0.00108254,0.00409395,0.000609996,0.00421282,0.000963668,1.37834,0.00254879,0.0311133,1868,1226,17.7149,-2.56401
651,-202,17.6123,2.50427,0.000617103,0.00360434,0.00358123,0.00599094,-0.0017695,0.982965,0.00469626,0.0256671,1875,1226,17.6122,-2.50432
658,-202,17.568,2.51111,-0.000206388,0.00300701,0.00593075,0.00754485,-0.00474422,0.917678,0.00715625,0.0227814,1882,1226,17.568,-2.51116
665,-202,17.6185,2.49268,-0.00107886,0.0023289,0.00753485,0.00835012,-0.00710008,0.896595,0.0089299,0.0215026,1889,1226,17.6186,-2.49272
672,-202,17.7672,2.50354,-0.00207009,0.00155364,0.00852328,0.00845551,-0.00897196,0.890128,0.0100632,0.0443675,1896,1226,17.7672,-2.50359
679,-202,18.4098,2.95959,-0.00299877,0.000977076,0.00898155,0.00818807,-0.0102098,0.894309,0.0106433,0.0467849,1903,1226,18.4098,-2.95956
686,-202,18.8928,3.12622,0,0,0,0,0,0,0,-1,1910,1226,18.8929,-3.12617
693,-202,15.6409,4.33801,0,0,0,0,0,0,0,-1,1917,1226,15.6409,-4.33802
700,-202,15.5934,4.26624,-0.00485597,-0.000521769,0.0082555,0.00584633,-0.0112241,0.913754,0.0100173,0.0223938,1924,1226,15.5934,-4.26621
707,-202,15.5845,4.16406,-0.00513498,-0.000749371,0.00744146,0.00481564,-0.0107,0.92868,0.00917018,0.0189757,1931,1226,15.5844,-4.1641
714,-202,15.6331,4.06433,-0.00508785,-0.000905661,0.00621419,0.00355983,-0.00955334,0.947698,0.00783005,0.0155015,1938,1226,15.6331,-4.06428
721,-202,15.6555,3.94739,-0.00437469,-0.000797583,0.00470519,0.00244752,-0.00761979,0.967025,0.00606268,0.0125633,1945,1226,15.6555,-3.94738
728,-202,15.6445,3.82056,-0.00326828,-0.000588658,0.00295506,0.00131614,-0.00517308,0.998235,0.003961,0.0100291,1952,1226,15.6445,-3.82061
735,-202,15.6412,3.69653,-0.00188771,-0.000475395,0.00123015,0.000236873,-0.00259998,1.04596,0.00181743,0.0104911,1959,1226,15.6413,-3.69654
742,-202,15.6389,3.58533,0.000637779,0.000569526,-0.000197842,0.000804416,0.000402888,-0.699992,0.00046443,0.01039,1966,1226,15.639,-3.58535
749,-202,15.6339,3.48511,0.00317777,0.00154712,-0.00144945,0.00402547,0.000699423,-0.529201,0.00248355,0.0103827,1973,1226,15.6339,-3.48516
756,-202,15.6387,3.36499,0.00553558,0.00255479,-0.00258783,0.00703152,0.00105886,-0.524134,0.00437762,0.0105946,1980,1226,15.6386,-3.36495
763,-202,15.646,3.2251,0.00783406,0.00371912,-0.00369568,0.0100064,0.00154679,-0.531403,0.00621978,0.0147154,1987,1226,15.646,-3.22513
770,-202,15.6792,2.92395,0.0104207,0.00529413,-0.00492468,0.0134093,0.00230559,-0.545441,0.00827871,0.0377493,1994,1226,15.6792,-2.92396
777,-202,16.0082,2.44714,0.013376,0.00744619,-0.00631874,0.0173909,0.00343134,-0.566034,0.0106363,0.0478226,2001,1226,16.0082,-2.44719
784,-202,16.1343,2.04236,0.0166169,0.0104624,-0.0078605,0.021981,0.00509825,-0.598825,0.0132848,0.0455853,2008,1226,16.1343,-2.04234
791,-202,16.1915,1.7179,0.020163,0.0148147,-0.00951316,0.0273707,0.00760697,-0.648384,0.0163138,0.0482363,2015,1226,16.1915,-1.7179
798,-202,16.5153,1.51111,0.0239952,0.0211521,-0.0111333,0.0337973,0.01135,-0.721901,0.0198604,0.0487723,2022,1226,16.5153,-1.5111
805,-202,0,0,0,0,0,0,0,0,0,-1,2029,1226,0,0
812,-202,0,0,0,0,0,0,0,0,0,-1,2036,1226,0,0
-700,-209,0,0,0,0,0,0,0,0,0,-1,524,1233,0,0
-693,-209,0,0,0,0,0,0,0,0,0,-1,531,1233,0,0
-686,-209,0,0,0,0,0,0,0,0,0,-1,538,1233,0,0
-679,-209,-6.90527,2.86792,0,0,0,0,0,0,0,-1,545,1233,-6.90528,-2.86787
-672,-209,-10.5195,-0.268677,0,0,0,0,0,0,0,-1,552,1233,-10.5195,0.268735
-665,-209,-9.22064,-0.62146,0,0,0,0,0,0,0,-1,559,1233,-9.22065,0.621477
-658,-209,-7.94458,-0.656128,0,0,0,0,0,0,0,-1,566,1233,-7.94456,0.656125
-651,-209,-8.9259,0.917236,0,0,0,0,0,0,0,-1,573,1233,-8.92592,-0.917291
-644,-209,-8.90131,0.914185,0.0468474,0.000773916,0.00671983,0.0478075,-0.000186164,0.141913,0.0319339,0.0491399,580,1233,-8.90133,-0.914212
-637,-209,-8.83057,0.836426,0.0379809,-0.000664455,0.00456974,0.0385139,-0.00119747,0.116115,0.0260842,0.042035,587,1233,-8.83057,-0.836453
-630,-209,-8.81732,0.877686,0.0298899,-0.00172613,0.0028172,0.030139,-0.0019752,0.088181,0.0207824,0.021301,594,1233,-8.81732,-0.877676
-623,-209,-8.85669,1.07483,0.0226992,-0.00218034,0.00138139,0.0227756,-0.0022568,0.0552966,0.0159892,0.0109695,601,1233,-8.8567,-1.0748
-616,-209,-8.8717,1.23059,0.0168514,-0.00193294,-0.000115243,0.0168521,-0.00193364,-0.00613477,0.0119316,0.0111458,608,1233,-8.87168,-1.23058
-609,-209,-8.87573,1.36133,0.0116495,-0.00187859,-0.00103651,0.0117284,-0.00195754,-0.0760281,0.00854653,0.0136388,615,1233,-8.87573,-1.36136
-602,-209,-8.88257,1.50354,0.00752345,-0.00222664,-0.00123369,0.00767713,-0.00238032,-0.123929,0.00606916,0.0160901,622,1233,-8.88257,-1.50351
-595,-209,-8.8725,1.64502,0.00528482,-0.00168343,-0.00227772,0.00596328,-0.00236189,-0.2895,0.00495418,0.0115373,629,1233,-8.87251,-1.64498
-588,-209,-8.84802,1.7937,0.00420633,-0.000908672,-0.00293703,0.0055433,-0.00224565,-0.427182,0.00462935,0.0131926,636,1233,-8.848,-1.7937
-581,-209,-8.83643,1.94531,0.00347391,-0.000727458,-0.00380102,0.0057161,-0.00296965,-0.532955,0.0050976,0.0126098,643,1233,-8.83643,-1.94537
-574,-209,-8.92792,2.03979,0.00318436,-0.000786703,-0.00410631,0.00575998,-0.00336232,-0.560205,0.00532706,0.0152919,650,1233,-8.92794,-2.03978
-567,-209,-9.04041,2.22217,0.00302887,-0.000724543,-0.00424425,0.00579282,-0.00348849,-0.577234,0.00541333,0.0331051,657,1233,-9.04041,-2.22217
-560,-209,-9.14691,2.48938,0,0,0,0,0,0,0,-1,664,1233,-9.14689,-2.48934
-553,-209,-10.8818,0.654297,0,0,0,0,0,0,0,-1,671,1233,-10.8818,-0.654262
-546,-209,-10.8246,0.494507,0.00215261,0.000314473,-0.00456693,0.00589203,-0.00342494,-0.686102,0.00544165,0.0439782,678,1233,-10.8246,-0.494477
-539,-209,-11.014,0.526489,0.00139783,0.000806992,-0.00445651,0.0055687,-0.00336388,-0.752302,0.00520933,0.0378049,685,1233,-11.014,-0.526502
-532,-209,-11.0827,0.654907,0.000448521,0.00139962,-0.0041569,0.00510809,-0.00325994,-0.842351,0.0048704,0.0314205,692,1233,-11.0827,-0.654962
-525,-209,-11.1241,0.753784,-0.000582289,0.00211278,-0.00356586,0.00457723,-0.00304674,-0.966053,0.00443116,0.0330851,699,1233,-11.1241,-0.753747
-518,-209,-11.2025,0.923584,-0.00153435,0.00290647,-0.00271435,0.0041929,-0.00282078,-1.12822,0.0040751,0.0396994,706,1233,-11.2025,-0.923605
-511,-209,-11.2404,0.99585,-0.000946936,0.00331044,-0.00175953,0.0039435,-0.00157999,-1.22543,0.00328487,0.0414101,713,1233,-11.2404,-0.995896
-504,-209,0,0,0,0,0,0,0,0,0,-1,720,1233,0,0
-497,-209,0,0,0,0,0,0,0,0,0,-1,727,1233,0,0
-490,-209,0,0,0,0,0,0,0,0,0,-1,734,1233,0,0
-483,-209,0,0,0,0,0,0,0,0,0,-1,741,1233,0,0
-476,-209,0,0,0,0,0,0,0,0,0,-1,748,1233,0,0
-469,-209,0,0,0,0,0,0,0,0,0,-1,755,1233,0,0
-462,-209,0,0,0,0,0,0,0,0,0,-1,762,1233,0,0
-455,-209,0,0,0,0,0,0,0,0,0,-1,769,1233,0,0
-448,-209,0,0,0,0,0,0,0,0,0,-1,776,1233,0,0
-441,-209,0,0,0,0,0,0,0,0,0,-1,783,1233,0,0
-434,-209,0,0,0,0,0,0,0,0,0,-1,790,1233,0,0
-427,-209,0,0,0,0,0,0,0,0,0,-1,797,1233,0,0
-420,-209,0,0,0,0,0,0,0,0,0,-1,804,1233,0,0
-413,-209,0,0,0,0,0,0,0,0,0,-1,811,1233,0,0
-406,-209,0,0,0,0,0,0,0,0,0,-1,818,1233,0,0
-399,-209,0,0,0,0,0,0,0,0,0,-1,825,1233,0,0
-392,-209,0,0,0,0,0,0,0,0,0,-1,832,1233,0,0
-385,-209,0,0,0,0,0,0,0,0,0,-1,839,1233,0,0
-378,-209,0,0,0,0,0,0,0,0,0,-1,846,1233,0,0
-371,-209,0,0,0,0,0,0,0,0,0,-1,853,1233,0,0
-364,-209,0,0,0,0,0,0,0,0,0,-1,860,1233,0,0
-357,-209,0,0,0,0,0,0,0,0,0,-1,867,1233,0,0
-350,-209,0,0,0,0,0,0,0,0,0,-1,874,1233,0,0
-343,-209,0,0,0,0,0,0,0,0,0,-1,881,1233,0,0
-336,-209,0,0,0,0,0,0,0,0,0,-1,888,1233,0,0
-329,-209,0,0,0,0,0,0,0,0,0,-1,895,1233,0,0
-322,-209,0,0,0,0,0,0,0,0,0,-1,902,1233,0,0
-315,-209,0,0,0,0,0,0,0,0,0,-1,909,1233,0,0
-308,-209,0,0,0,0,0,0,0,0,0,-1,916,1233,0,0
-301,-209,0,0,0,0,0,0,0,0,0,-1,923,1233,0,0
-294,-209,0,0,0,0,0,0,0,0,0,-1,930,1233,0,0
-287,-209,0,0,0,0,0,0,0,0,0,-1,937,1233,0,0
-280,-209,0,0,0,0,0,0,0,0,0,-1,944,1233,0,0
-273,-209,0,0,0,0,0,0,0,0,0,-1,951,1233,0,0
-266,-209,0,0,0,0,0,0,0,0,0,-1,958,1233,0,0
-259,-209,0,0,0,0,0,0,0,0,0,-1,965,1233,0,0
-252,-209,0,0,0,0,0,0,0,0,0,-1,972,1233,0,0
-245,-209,0,0,0,0,0,0,0,0,0,-1,979,1233,0,0
-238,-209,0,0,0,0,0,0,0,0,0,-1,986,1233,0,0
-231,-209,0,0,0,0,0,0,0,0,0,-1,993,1233,0,0
-224,-209,0,0,0,0,0,0,0,0,0,-1,1000,1233,0,0
-217,-209,0,0,0,0,0,0,0,0,0,-1,1007,1233,0,0
-210,-209,0,0,0,0,0,0,0,0,0,-1,1014,1233,0,0
-203,-209,0,0,0,0,0,0,0,0,0,-1,1021,1233,0,0
-196,-209,0,0,0,0,0,0,0,0,0,-1,1028,1233,0,0
-189,-209,0,0,0,0,0,0,0,0,0,-1,1035,1233,0,0
-182,-209,0,0,0,0,0,0,0,0,0,-1,1042,1233,0,0
-175,-209,0,0,0,0,0,0,0,0,0,-1,1049,1233,0,0
-168,-209,0,0,0,0,0,0,0,0,0,-1,1056,1233,0,0
-161,-209,0,0,0,0,0,0,0,0,0,-1,1063,1233,0,0
-154,-209,0,0,0,0,0,0,0,0,0,-1,1070,1233,0,0
-147,-209,0,0,0,0,0,0,0,0,0,-1,1077,1233,0,0
-140,-209,0,0,0,0,0,0,0,0,0,-1,1084,1233,0,0
-133,-209,0,0,0,0,0,0,0,0,0,-1,1091,1233,0,0
-126,-209,0,0,0,0,0,0,0,0,0,-1,1098,1233,0,0
-119,-209,0,0,0,0,0,0,0,0,0,-1,1105,1233,0,0
-112,-209,0,0,0,0,0,0,0,0,0,-1,1112,1233,0,0
-105,-209,0,0,0,0,0,0,0,0,0,-1,1119,1233,0,0
-98,-209,0,0,0,0,0,0,0,0,0,-1,1126,1233,0,0
-91,-209,0,0,0,0,0,0,0,0,0,-1,1133,1233,0,0
-84,-209,0,0,0,0,0,0,0,0,0,-1,1140,1233,0,0
-77,-209,0,0,0,0,0,0,0,0,0,-1,1147,1233,0,0
-70,-209,0,0,0,0,0,0,0,0,0,-1,1154,1233,0,0
-63,-209,0,0,0,0,0,0,0,0,0,-1,1161,1233,0,0
-56,-209,0,0,0,0,0,0,0,0,0,-1,1168,1233,0,0
-49,-209,0,0,0,0,0,0,0,0,0,-1,1175,1233,0,0
-42,-209,0,0,0,0,0,0,0,0,0,-1,1182,1233,0,0
-35,-209,0,0,0,0,0,0,0,0,0,-1,1189,1233,0,0
-28,-209,0,0,0,0,0,0,0,0,0,-1,1196,1233,0,0
-21,-209,0,0,0,0,0,0,0,0,0,-1,1203,1233,0,0
-14,-209,0,0,0,0,0,0,0,0,0,-1,1210,1233,0,0
-7,-209,0,0,0,0,0,0,0,0,0,-1,1217,1233,0,0
0,-209,0,0,0,0,0,0,0,0,0,-1,1224,1233,0,0
7,-209,0,0,0,0,0,0,0,0,0,-1,1231,1233,0,0
14,-209,0,0,0,0,0,0,0,0,0,-1,1238,1233,0,0
21,-209,0,0,0,0,0,0,0,0,0,-1,1245,1233,0,0
28,-209,0,0,0,0,0,0,0,0,0,-1,1252,1233,0,0
35,-209,0,0,0,0,0,0,0,0,0,-1,1259,1233,0,0
42,-209,0,0,0,0,0,0,0,0,0,-1,1266,1233,0,0
49,-209,0,0,0,0,0,0,0,0,0,-1,1273,1233,0,0
56,-209,0,0,0,0,0,0,0,0,0,-1,1280,1233,0,0
63,-209,0,0,0,0,0,0,0,0,0,-1,1287,1233,0,0
70,-209,0,0,0,0,0,0,0,0,0,-1,1294,1233,0,0
77,-209,0,0,0,0,0,0,0,0,0,-1,1301,1233,0,0
84,-209,0,0,0,0,0,0,0,0,0,-1,1308,1233,0,0
91,-209,0,0,0,0,0,0,0,0,0,-1,1315,1233,0,0
98,-209,0,0,0,0,0,0,0,0,0,-1,1322,1233,0,0
105,-209,0,0,0,0,0,0,0,0,0,-1,1329,1233,0,0
112,-209,0,0,0,0,0,0,0,0,0,-1,1336,1233,0,0
119,-209,0,0,0,0,0,0,0,0,0,-1,1343,1233,0,0
126,-209,0,0,0,0,0,0,0,0,0,-1,1350,1233,0,0
133,-209,0,0,0,0,0,0,0,0,0,-1,1357,1233,0,0
140,-209,0,0,0,0,0,0,0,0,0,-1,1364,1233,0,0
147,-209,0,0,0,0,0,0,0,0,0,-1,1371,1233,0,0
154,-209,0,0,0,0,0,0,0,0,0,-1,1378,1233,0,0
161,-209,0,0,0,0,0,0,0,0,0,-1,1385,1233,0,0
168,-209,0,0,0,0,0,0,0,0,0,-1,1392,1233,0,0
175,-209,0,0,0,0,0,0,0,0,0,-1,1399,1233,0,0
182,-209,0,0,0,0,0,0,0,0,0,-1,1406,1233,0,0
189,-209,0,0,0,0,0,0,0,0,0,-1,1413,1233,0,0
196,-209,0,0,0,0,0,0,0,0,0,-1,1420,1233,0,0
203,-209,0,0,0,0,0,0,0,0,0,-1,1427,1233,0,0
210,-209,0,0,0,0,0,0,0,0,0,-1,1434,1233,0,0
217,-209,0,0,0,0,0,0,0,0,0,-1,1441,1233,0,0
224,-209,0,0,0,0,0,0,0,0,0,-1,1448,1233,0,0
231,-209,0,0,0,0,0,0,0,0,0,-1,1455,1233,0,0
238,-209,0,0,0,0,0,0,0,0,0,-1,1462,1233,0,0
245,-209,0,0,0,0,0,0,0,0,0,-1,1469,1233,0,0
252,-209,0,0,0,0,0,0,0,0,0,-1,1476,1233,0,0
259,-209,0,0,0,0,0,0,0,0,0,-1,1483,1233,0,0
266,-209,0,0,0,0,0,0,0,0,0,-1,1490,1233,0,0
273,-209,0,0,0,0,0,0,0,0,0,-1,1497,1233,0,0
280,-209,0,0,0,0,0,0,0,0,0,-1,1504,1233,0,0
287,-209,0,0,0,0,0,0,0,0,0,-1,1511,1233,0,0
294,-209,0,0,0,0,0,0,0,0,0,-1,1518,1233,0,0
301,-209,0,0,0,0,0,0,0,0,0,-1,1525,1233,0,0
308,-209,0,0,0,0,0,0,0,0,0,-1,1532,1233,0,0
315,-209,0,0,0,0,0,0,0,0,0,-1,1539,1233,0,0
322,-209,0,0,0,0,0,0,0,0,0,-1,1546,1233,0,0
329,-209,0,0,0,0,0,0,0,0,0,-1,1553,1233,0,0
336,-209,0,0,0,0,0,0,0,0,0,-1,1560,1233,0,0
343,-209,0,0,0,0,0,0,0,0,0,-1,1567,1233,0,0
350,-209,0,0,0,0,0,0,0,0,0,-1,1574,1233,0,0
357,-209,0,0,0,0,0,0,0,0,0,-1,1581,1233,0,0
364,-209,0,0,0,0,0,0,0,0,0,-1,1588,1233,0,0
371,-209,0,0,0,0,0,0,0,0,0,-1,1595,1233,0,0
378,-209,0,0,0,0,0,0,0,0,0,-1,1602,1233,0,0
385,-209,0,0,0,0,0,0,0,0,0,-1,1609,1233,0,0
392,-209,0,0,0,0,0,0,0,0,0,-1,1616,1233,0,0
399,-209,0,0,0,0,0,0,0,0,0,-1,1623,1233,0,0
406,-209,0,0,0,0,0,0,0,0,0,-1,1630,1233,0,0
413,-209,0,0,0,0,0,0,0,0,0,-1,1637,1233,0,0
420,-209,0,0,0,0,0,0,0,0,0,-1,1644,1233,0,0
427,-209,0,0,0,0,0,0,0,0,0,-1,1651,1233,0,0
434,-209,0,0,0,0,0,0,0,0,0,-1,1658,1233,0,0
441,-209,0,0,0,0,0,0,0,0,0,-1,1665,1233,0,0
448,-209,0,0,0,0,0,0,0,0,0,-1,1672,1233,0,0
455,-209,0,0,0,0,0,0,0,0,0,-1,1679,1233,0,0
462,-209,0,0,0,0,0,0,0,0,0,-1,1686,1233,0,0
469,-209,0,0,0,0,0,0,0,0,0,-1,1693,1233,0,0
476,-209,0,0,0,0,0,0,0,0,0,-1,1700,1233,0,0
483,-209,0,0,0,0,0,0,0,0,0,-1,1707,1233,0,0
490,-209,0,0,0,0,0,0,0,0,0,-1,1714,1233,0,0
497,-209,0,0,0,0,0,0,0,0,0,-1,1721,1233,0,0
504,-209,0,0,0,0,0,0,0,0,0,-1,1728,1233,0,0
511,-209,0,0,0,0,0,0,0,0,0,-1,1735,1233,0,0
518,-209,0,0,0,0,0,0,0,0,0,-1,1742,1233,0,0
525,-209,0,0,0,0,0,0,0,0,0,-1,1749,1233,0,0
532,-209,0,0,0,0,0,0,0,0,0,-1,1756,1233,0,0
539,-209,0,0,0,0,0,0,0,0,0,-1,1763,1233,0,0
546,-209,0,0,0,0,0,0,0,0,0,-1,1770,1233,0,0
553,-209,0,0,0,0,0,0,0,0,0,-1,1777,1233,0,0
560,-209,0,0,0,0,0,0,0,0,0,-1,1784,1233,0,0
567,-209,0,0,0,0,0,0,0,0,0,-1,1791,1233,0,0
574,-209,0,0,0,0,0,0,0,0,0,-1,1798,1233,0,0
581,-209,0,0,0,0,0,0,0,0,0,-1,1805,1233,0,0
588,-209,0,0,0,0,0,0,0,0,0,-1,1812,1233,0,0
595,-209,0,0,0,0,0,0,0,0,0,-1,1819,1233,0,0
602,-209,0,0,0,0,0,0,0,0,0,-1,1826,1233,0,0
609,-209,0,0,0,0,0,0,0,0,0,-1,1833,1233,0,0
616,-209,0,0,0,0,0,0,0,0,0,-1,1840,1233,0,0
623,-209,17.6122,2.54163,0.0012066,0.00712232,-0.00576896,0.0106475,-0.00231858,-1.02228,0.00798421,0.0327878,1847,1233,17.6122,-2.54163
630,-209,17.646,2.62427,-0.000379825,0.00515292,-0.00477871,0.00790822,-0.00313513,-1.04778,0.00657139,0.0361149,1854,1233,17.646,-2.62428
637,-209,17.6476,2.57373,0.000156179,0.00503182,-0.00181432,0.00563286,-0.000444867,-1.2509,0.00391197,0.0362451,1861,1233,17.6475,-2.5737
644,-209,17.6464,2.49768,0.000243358,0.00472372,0.00145381,0.00515411,-0.000187036,1.28297,0.00350009,0.0300719,1868,1233,17.6463,-2.49767
651,-209,17.6095,2.49194,-0.000169798,0.00421553,0.00441189,0.00694958,-0.00290385,1.01602,0.00584654,0.0242368,1875,1233,17.6095,-2.49192
658,-209,17.5815,2.49817,-0.000697325,0.00363382,0.00665604,0.00846772,-0.00553122,0.942675,0.00814135,0.0223934,1882,1233,17.5815,-2.49813
665,-209,17.76,2.55383,-0.00123035,0.00297152,0.00815086,0.00928786,-0.00754669,0.911531,0.00973674,0.0364741,1889,1233,17.76,-2.55381
672,-209,18.334,3.16687,-0.00189429,0.00217343,0.00904279,0.00940827,-0.00912912,0.896015,0.010703,0.0465609,1896,1233,18.334,-3.1669
679,-209,19.0181,3.62537,-0.00252566,0.00159193,0.00941649,0.00917206,-0.0101058,0.893023,0.0111344,0.0484875,1903,1233,19.018,-3.62538
686,-209,19.7124,3.71387,0,0,0,0,0,0,0,-1,1910,1233,19.7125,-3.71385
693,-209,15.5371,4.40613,0,0,0,0,0,0,0,-1,1917,1233,15.5372,-4.40609
700,-209,15.4929,4.32861,-0.0038141,-0.000110828,0.00838962,0.00662906,-0.010554,0.89401,0.0100065,0.0196617,1924,1233,15.4929,-4.32859
707,-209,15.4811,4.16992,-0.00399917,-0.000385528,0.00743082,0.00545499,-0.00983969,0.90466,0.00895052,0.016691,1931,1233,15.4811,-4.16992
714,-209,15.5004,4.0553,-0.00387023,-0.000592081,0.00601594,0.00400407,-0.00846639,0.918398,0.00735186,0.0128002,1938,1233,15.5004,-4.05529
721,-209,15.5259,3.93774,-0.00318806,-0.000517809,0.00437607,0.00272228,-0.00642815,0.933461,0.0054255,0.0120303,1945,1233,15.5259,-3.9378
728,-209,15.5369,3.81946,-0.00229073,-0.000346422,0.00251058,0.00137366,-0.0040108,0.970119,0.00323061,0.0115336,1952,1233,15.5369,-3.81949
735,-209,15.5363,3.6958,-0.00128082,-0.000357767,0.00079175,9.71541e-05,-0.00173574,1.04928,0.00119087,0.0122563,1959,1233,15.5362,-3.69585
742,-209,15.53,3.57874,0.000767829,0.00060689,-0.000542207,0.0012355,0.000139214,-0.71173,0.00078141,0.0106945,1966,1233,15.5301,-3.57874
749,-209,15.5215,3.46899,0.002699,0.00146209,-0.00174715,0.00393392,0.000227167,-0.61529,0.00255027,0.00991708,1973,1233,15.5215,-3.46899
756,-209,15.5151,3.35498,0.00433824,0.00229484,-0.00288698,0.00637898,0.000254096,-0.615326,0.00417053,0.0100106,1980,1233,15.5151,-3.35495
763,-209,15.488,3.22546,0.00583592,0.00322713,-0.00405414,0.00879035,0.00027271,-0.629756,0.00577147,0.0158999,1987,1233,15.488,-3.22547
770,-209,15.4513,3.11536,0.00747777,0.0044702,-0.00538395,0.011564,0.000383966,-0.649214,0.00758459,0.0416647,1994,1233,15.4512,-3.11531
777,-209,15.9562,2.30371,0,0,0,0,0,0,0,-1,2001,1233,15.9562,-2.30375
784,-209,15.6682,2.48474,0,0,0,0,0,0,0,-1,2008,1233,15.6682,-2.48476
791,-209,15.827,2.24841,0,0,0,0,0,0,0,-1,2015,1233,15.8271,-2.24836
798,-209,16.5742,1.09924,0,0,0,0,0,0,0,-1,2022,1233,16.5742,-1.09929
805,-209,0,0,0,0,0,0,0,0,0,-1,2029,1233,0,0
812,-209,0,0,0,0,0,0,0,0,0,-1,2036,1233,0,0
-700,-216,0,0,0,0,0,0,0,0,0,-1,524,1240,0,0
-693,-216,0,0,0,0,0,0,0,0,0,-1,531,1240,0,0
-686,-216,0,0,0,0,0,0,0,0,0,-1,538,1240,0,0
-679,-216,-8.34503,3.38965,0,0,0,0,0,0,0,-1,545,1240,-8.34503,-3.38962
-672,-216,-8.49005,2.73047,0,0,0,0,0,0,0,-1,552,1240,-8.49004,-2.73049
-665,-216,-9.04321,2.91248,0,0,0,0,0,0,0,-1,559,1240,-9.04319,-2.91246
-658,-216,-8.70398,2.49561,0,0,0,0,0,0,0,-1,566,1240,-8.70396,-2.49563
-651,-216,-8.73309,1.69458,0,0,0,0,0,0,0,-1,573,1240,-8.7331,-1.6946
-644,-216,-8.69946,1.52808,0.0553218,-0.00407575,0.00904668,0.0566691,-0.00542307,0.147842,0.0397107,0.0452959,580,1240,-8.69949,-1.52807
-637,-216,-8.71008,1.29431,0.0450007,-0.00411326,0.00653552,0.0458555,-0.00496806,0.130054,0.0323537,0.0409572,587,1240,-8.7101,-1.29431
-630,-216,-8.68597,0.811035,0.0355019,-0.00401815,0.00446897,0.0360009,-0.00451721,0.11121,0.0256393,0.0282502,594,1240,-8.68595,-0.811026
-623,-216,-8.68872,1.0553,0.0270408,-0.0035737,0.00280177,0.0272951,-0.003828,0.0905158,0.0195978,0.0127713,601,1240,-8.68875,-1.05533
-616,-216,-8.72375,1.23254,0.0201675,-0.0026899,0.00109523,0.0202198,-0.00274226,0.0477699,0.0144808,0.0128325,608,1240,-8.72375,-1.23248
-609,-216,-8.73639,1.36853,0.0140383,-0.00219297,9.92394e-05,0.0140389,-0.00219358,0.00611377,0.0101696,0.0130777,615,1240,-8.73641,-1.36848
-602,-216,-8.73114,1.505,0.00926977,-0.00221688,-0.000233687,0.00927452,-0.00222163,-0.020333,0.00704137,0.0129958,622,1240,-8.73112,-1.50497
-595,-216,-8.70978,1.63904,0.00658524,-0.00163462,-0.00130567,0.00678765,-0.00183703,-0.153802,0.00524578,0.0163525,629,1240,-8.70975,-1.63903
-588,-216,-8.7132,1.78479,0.00510409,-0.00087752,-0.00192986,0.00567268,-0.0014461,-0.286519,0.00434479,0.0193641,636,1240,-8.71322,-1.78479
-581,-216,-8.70782,1.95422,0.00400663,-0.000789503,-0.00304805,0.00548687,-0.00226975,-0.452092,0.0046049,0.0176732,643,1240,-8.70782,-1.95428
-574,-216,-8.72485,2.14832,0.00353771,-0.000882677,-0.00358073,0.00553544,-0.00288041,-0.508896,0.00493883,0.0152569,650,1240,-8.72485,-2.1483
-567,-216,-8.72565,2.35168,0.00323424,-0.000822413,-0.00398533,0.00567771,-0.00326588,-0.550008,0.0052258,0.0258078,657,1240,-8.72567,-2.35168
-560,-216,-8.4469,2.69727,0.00311544,-0.000606406,-0.00452535,0.00614756,-0.00363852,-0.590327,0.00571156,0.0478455,664,1240,-8.44692,-2.69722
-553,-216,-8.18365,2.98206,0,0,0,0,0,0,0,-1,671,1240,-8.18367,-2.98207
-546,-216,-10.7347,-0.0454102,0.00183059,0.000298573,-0.0053658,0.00648478,-0.00435561,-0.714498,0.00629882,0.0447943,678,1240,-10.7347,0.0454315
-539,-216,-10.9214,0.252441,0.00079574,0.00087073,-0.00575653,0.00658989,-0.00492342,-0.788655,0.00667038,0.0396794,685,1240,-10.9214,-0.252466
-532,-216,-10.9812,0.580811,-0.000492425,0.00157635,-0.00595579,0.00658691,-0.00550298,-0.871379,0.00698945,0.0393118,692,1240,-10.9812,-0.580819
-525,-216,-11.0681,0.63855,-0.00194715,0.00242897,-0.00577286,0.00641452,-0.0059327,-0.966545,0.00713048,0.0369627,699,1240,-11.068,-0.638513
-518,-216,-11.1541,0.835083,-0.00343415,0.003385,-0.00498844,0.00601775,-0.0060669,-1.08518,0.0069771,0.0393252,706,1240,-11.154,-0.835133
-511,-216,-11.3634,1.18213,-0.00383019,0.00399957,-0.00331009,0.00521138,-0.005042,-1.21985,0.00592006,0.0435124,713,1240,-11.3634,-1.18213
-504,-216,-11.154,0.971313,-0.00189817,0.00525468,0.00122358,0.0054582,-0.00210169,1.40598,0.00450582,0.0444598,720,1240,-11.154,-0.971334
-497,-216,0,0,0,0,0,0,0,0,0,-1,727,1240,0,0
-490,-216,0,0,0,0,0,0,0,0,0,-1,734,1240,0,0
-483,-216,0,0,0,0,0,0,0,0,0,-1,741,1240,0,0
-476,-216,0,0,0,0,0,0,0,0,0,-1,748,1240,0,0
-469,-216,0,0,0,0,0,0,0,0,0,-1,755,1240,0,0
-462,-216,0,0,0,0,0,0,0,0,0,-1,762,1240,0,0
-455,-216,0,0,0,0,0,0,0,0,0,-1,769,1240,0,0
-448,-216,0,0,0,0,0,0,0,0,0,-1,776,1240,0,0
-441,-216,0,0,0,0,0,0,0,0,0,-1,783,1240,0,0
-434,-216,0,0,0,0,0,0,0,0,0,-1,790,1240,0,0
-427,-216,0,0,0,0,0,0,0,0,0,-1,797,1240,0,0
-420,-216,0,0,0,0,0,0,0,0,0,-1,804,1240,0,0
-413,-216,0,0,0,0,0,0,0,0,0,-1,811,1240,0,0
-406,-216,0,0,0,0,0,0,0,0,0,-1,818,1240,0,0
-399,-216,0,0,0,0,0,0,0,0,0,-1,825,1240,0,0
-392,-216,0,0,0,0,0,0,0,0,0,-1,832,1240,0,0
-385,-216,0,0,0,0,0,0,0,0,0,-1,839,1240,0,0
-378,-216,0,0,0,0,0,0,0,0,0,-1,846,1240,0,0
-371,-216,0,0,0,0,0,0,0,0,0,-1,853,1240,0,0
-364,-216,0,0,0,0,0,0,0,0,0,-1,860,1240,0,0
-357,-216,0,0,0,0,0,0,0,0,0,-1,867,1240,0,0
-350,-216,0,0,0,0,0,0,0,0,0,-1,874,1240,0,0
-343,-216,0,0,0,0,0,0,0,0,0,-1,881,1240,0,0
-336,-216,0,0,0,0,0,0,0,0,0,-1,888,1240,0,0
-329,-216,0,0,0,0,0,0,0,0,0,-1,895,1240,0,0
-322,-216,0,0,0,0,0,0,0,0,0,-1,902,1240,0,0
-315,-216,0,0,0,0,0,0,0,0,0,-1,909,1240,0,0
-308,-216,0,0,0,0,0,0,0,0,0,-1,916,1240,0,0
-301,-216,0,0,0,0,0,0,0,0,0,-1,923,1240,0,0
-294,-216,0,0,0,0,0,0,0,0,0,-1,930,1240,0,0
-287,-216,0,0,0,0,0,0,0,0,0,-1,937,1240,0,0
-280,-216,0,0,0,0,0,0,0,0,0,-1,944,1240,0,0
-273,-216,0,0,0,0,0,0,0,0,0,-1,951,1240,0,0
-266,-216,0,0,0,0,0,0,0,0,0,-1,958,1240,0,0
-259,-216,0,0,0,0,0,0,0,0,0,-1,965,1240,0,0
-252,-216,0,0,0,0,0,0,0,0,0,-1,972,1240,0,0
-245,-216,0,0,0,0,0,0,0,0,0,-1,979,1240,0,0
-238,-216,0,0,0,0,0,0,0,0,0,-1,986,1240,0,0
-231,-216,0,0,0,0,0,0,0,0,0,-1,993,1240,0,0
-224,-216,0,0,0,0,0,0,0,0,0,-1,1000,1240,0,0
-217,-216,0,0,0,0,0,0,0,0,0,-1,1007,1240,0,0
-210,-216,0,0,0,0,0,0,0,0,0,-1,1014,1240,0,0
-203,-216,0,0,0,0,0,0,0,0,0,-1,1021,1240,0,0
-196,-216,0,0,0,0,0,0,0,0,0,-1,1028,1240,0,0
-189,-216,0,0,0,0,0,0,0,0,0,-1,1035,1240,0,0
-182,-216,0,0,0,0,0,0,0,0,0,-1,1042,1240,0,0
-175,-216,0,0,0,0,0,0,0,0,0,-1,1049,1240,0,0
-168,-216,0,0,0,0,0,0,0,0,0,-1,1056,1240,0,0
-161,-216,0,0,0,0,0,0,0,0,0,-1,1063,1240,0,0
-154,-216,0,0,0,0,0,0,0,0,0,-1,1070,1240,0,0
-147,-216,0,0,0,0,0,0,0,0,0,-1,1077,1240,0,0
-140,-216,0,0,0,0,0,0,0,0,0,-1,1084,1240,0,0
-133,-216,0,0,0,0,0,0,0,0,0,-1,1091,1240,0,0
-126,-216,0,0,0,0,0,0,0,0,0,-1,1098,1240,0,0
-119,-216,0,0,0,0,0,0,0,0,0,-1,1105,1240,0,0
-112,-216,0,0,0,0,0,0,0,0,0,-1,1112,1240,0,0
-105,-216,0,0,0,0,0,0,0,0,0,-1,1119,1240,0,0
-98,-216,0,0,0,0,0,0,0,0,0,-1,1126,1240,0,0
-91,-216,0,0,0,0,0,0,0,0,0,-1,1133,1240,0,0
-84,-216,0,0,0,0,0,0,0,0,0,-1,1140,1240,0,0
-77,-216,0,0,0,0,0,0,0,0,0,-1,1147,1240,0,0
-70,-216,0,0,0,0,0,0,0,0,0,-1,1154,1240,0,0
-63,-216,0,0,0,0,0,0,0,0,0,-1,1161,1240,0,0
-56,-216,0,0,0,0,0,0,0,0,0,-1,1168,1240,0,0
-49,-216,0,0,0,0,0,0,0,0,0,-1,1175,1240,0,0
-42,-216,0,0,0,0,0,0,0,0,0,-1,1182,1240,0,0
-35,-216,0,0,0,0,0,0,0,0,0,-1,1189,1240,0,0
-28,-216,0,0,0,0,0,0,0,0,0,-1,1196,1240,0,0
-21,-216,0,0,0,0,0,0,0,0,0,-1,1203,1240,0,0
-14,-216,0,0,0,0,0,0,0,0,0,-1,1210,1240,0,0
-7,-216,0,0,0,0,0,0,0,0,0,-1,1217,1240,0,0
0,-216,0,0,0,0,0,0,0,0,0,-1,1224,1240,0,0
7,-216,0,0,0,0,0,0,0,0,0,-1,1231,1240,0,0
14,-216,0,0,0,0,0,0,0,0,0,-1,1238,1240,0,0
21,-216,0,0,0,0,0,0,0,0,0,-1,1245,1240,0,0
28,-216,0,0,0,0,0,0,0,0,0,-1,1252,1240,0,0
35,-216,0,0,0,0,0,0,0,0,0,-1,1259,1240,0,0
42,-216,0,0,0,0,0,0,0,0,0,-1,1266,1240,0,0
49,-216,0,0,0,0,0,0,0,0,0,-1,1273,1240,0,0
56,-216,0,0,0,0,0,0,0,0,0,-1,1280,1240,0,0
63,-216,0,0,0,0,0,0,0,0,0,-1,1287,1240,0,0
70,-216,0,0,0,0,0,0,0,0,0,-1,1294,1240,0,0
77,-216,0,0,0,0,0,0,0,0,0,-1,1301,1240,0,0
84,-216,0,0,0,0,0,0,0,0,0,-1,1308,1240,0,0
91,-216,0,0,0,0,0,0,0,0,0,-1,1315,1240,0,0
98,-216,0,0,0,0,0,0,0,0,0,-1,1322,1240,0,0
105,-216,0,0,0,0,0,0,0,0,0,-1,1329,1240,0,0
112,-216,0,0,0,0,0,0,0,0,0,-1,1336,1240,0,0
119,-216,0,0,0,0,0,0,0,0,0,-1,1343,1240,0,0
126,-216,0,0,0,0,0,0,0,0,0,-1,1350,1240,0,0
133,-216,0,0,0,0,0,0,0,0,0,-1,1357,1240,0,0
140,-216,0,0,0,0,0,0,0,0,0,-1,1364,1240,0,0
147,-216,0,0,0,0,0,0,0,0,0,-1,1371,1240,0,0
154,-216,0,0,0,0,0,0,0,0,0,-1,1378,1240,0,0
161,-216,0,0,0,0,0,0,0,0,0,-1,1385,1240,0,0
168,-216,0,0,0,0,0,0,0,0,0,-1,1392,1240,0,0
175,-216,0,0,0,0,0,0,0,0,0,-1,1399,1240,0,0
182,-216,0,0,0,0,0,0,0,0,0,-1,1406,1240,0,0
189,-216,0,0,0,0,0,0,0,0,0,-1,1413,1240,0,0
196,-216,0,0,0,0,0,0,0,0,0,-1,1420,1240,0,0
203,-216,0,0,0,0,0,0,0,0,0,-1,1427,1240,0,0
210,-216,0,0,0,0,0,0,0,0,0,-1,1434,1240,0,0
217,-216,0,0,0,0,0,0,0,0,0,-1,1441,1240,0,0
224,-216,0,0,0,0,0,0,0,0,0,-1,1448,1240,0,0
231,-216,0,0,0,0,0,0,0,0,0,-1,1455,1240,0,0
238,-216,0,0,0,0,0,0,0,0,0,-1,1462,1240,0,0
245,-216,0,0,0,0,0,0,0,0,0,-1,1469,1240,0,0
252,-216,0,0,0,0,0,0,0,0,0,-1,1476,1240,0,0
259,-216,0,0,0,0,0,0,0,0,0,-1,1483,1240,0,0
266,-216,0,0,0,0,0,0,0,0,0,-1,1490,1240,0,0
273,-216,0,0,0,0,0,0,0,0,0,-1,1497,1240,0,0
280,-216,0,0,0,0,0,0,0,0,0,-1,1504,1240,0,0
287,-216,0,0,0,0,0,0,0,0,0,-1,1511,1240,0,0
294,-216,0,0,0,0,0,0,0,0,0,-1,1518,1240,0,0
301,-216,0,0,0,0,0,0,0,0,0,-1,1525,1240,0,0
308,-216,0,0,0,0,0,0,0,0,0,-1,1532,1240,0,0
315,-216,0,0,0,0,0,0,0,0,0,-1,1539,1240,0,0
322,-216,0,0,0,0,0,0,0,0,0,-1,1546,1240,0,0
329,-216,0,0,0,0,0,0,0,0,0,-1,1553,1240,0,0
336,-216,0,0,0,0,0,0,0,0,0,-1,1560,1240,0,0
343,-216,0,0,0,0,0,0,0,0,0,-1,1567,1240,0,0
350,-216,0,0,0,0,0,0,0,0,0,-1,1574,1240,0,0
357,-216,0,0,0,0,0,0,0,0,0,-1,1581,1240,0,0
364,-216,0,0,0,0,0,0,0,0,0,-1,1588,1240,0,0
371,-216,0,0,0,0,0,0,0,0,0,-1,1595,1240,0,0
378,-216,0,0,0,0,0,0,0,0,0,-1,1602,1240,0,0
385,-216,0,0,0,0,0,0,0,0,0,-1,1609,1240,0,0
392,-216,0,0,0,0,0,0,0,0,0,-1,1616,1240,0,0
399,-216,0,0,0,0,0,0,0,0,0,-1,1623,1240,0,0
406,-216,0,0,0,0,0,0,0,0,0,-1,1630,1240,0,0
413,-216,0,0,0,0,0,0,0,0,0,-1,1637,1240,0,0
420,-216,0,0,0,0,0,0,0,0,0,-1,1644,1240,0,0
427,-216,0,0,0,0,0,0,0,0,0,-1,1651,1240,0,0
434,-216,0,0,0,0,0,0,0,0,0,-1,1658,1240,0,0
441,-216,0,0,0,0,0,0,0,0,0,-1,1665,1240,0,0
448,-216,0,0,0,0,0,0,0,0,0,-1,1672,1240,0,0
455,-216,0,0,0,0,0,0,0,0,0,-1,1679,1240,0,0
462,-216,0,0,0,0,0,0,0,0,0,-1,1686,1240,0,0
469,-216,0,0,0,0,0,0,0,0,0,-1,1693,1240,0,0
476,-216,0,0,0,0,0,0,0,0,0,-1,1700,1240,0,0
483,-216,0,0,0,0,0,0,0,0,0,-1,1707,1240,0,0
490,-216,0,0,0,0,0,0,0,0,0,-1,1714,1240,0,0
497,-216,0,0,0,0,0,0,0,0,0,-1,1721,1240,0,0
504,-216,0,0,0,0,0,0,0,0,0,-1,1728,1240,0,0
511,-216,0,0,0,0,0,0,0,0,0,-1,1735,1240,0,0
518,-216,0,0,0,0,0,0,0,0,0,-1,1742,1240,0,0
525,-216,0,0,0,0,0,0,0,0,0,-1,1749,1240,0,0
532,-216,0,0,0,0,0,0,0,0,0,-1,1756,1240,0,0
539,-216,0,0,0,0,0,0,0,0,0,-1,1763,1240,0,0
546,-216,0,0,0,0,0,0,0,0,0,-1,1770,1240,0,0
553,-216,0,0,0,0,0,0,0,0,0,-1,1777,1240,0,0
560,-216,0,0,0,0,0,0,0,0,0,-1,1784,1240,0,0
567,-216,0,0,0,0,0,0,0,0,0,-1,1791,1240,0,0
574,-216,0,0,0,0,0,0,0,0,0,-1,1798,1240,0,0
581,-216,0,0,0,0,0,0,0,0,0,-1,1805,1240,0,0
588,-216,0,0,0,0,0,0,0,0,0,-1,1812,1240,0,0
595,-216,0,0,0,0,0,0,0,0,0,-1,1819,1240,0,0
602,-216,0,0,0,0,0,0,0,0,0,-1,1826,1240,0,0
609,-216,0,0,0,0,0,0,0,0,0,-1,1833,1240,0,0
616,-216,0,0,0,0,0,0,0,0,0,-1,1840,1240,0,0
623,-216,17.5889,2.41919,0.00115596,0.00695713,-0.00557051,0.010337,-0.0022239,-1.02543,0.00773987,0.0373373,1847,1240,17.5888,-2.41915
630,-216,17.5811,2.41235,-0.000561165,0.00568342,-0.00425228,0.0078366,-0.00271434,-1.10207,0.00632635,0.0357646,1854,1240,17.581,-2.4124
637,-216,17.5626,2.48804,-0.000659882,0.00577923,-0.00103184,0.00594054,-0.000821189,-1.41572,0.00426055,0.0330111,1861,1240,17.5626,-2.488
644,-216,17.5922,2.53259,-0.000910114,0.00559926,0.00227379,0.00631485,-0.00162571,1.2659,0.00484361,0.0263481,1868,1240,17.5922,-2.53253
651,-216,17.6063,2.55798,-0.00131377,0.00515202,0.00510438,0.00796117,-0.00412292,1.06769,0.00709309,0.0231159,1875,1240,17.6063,-2.55804
658,-216,17.6437,2.54272,-0.00163315,0.00460229,0.00718538,0.00931719,-0.00634804,0.99009,0.00909832,0.0344792,1882,1240,17.6437,-2.54276
665,-216,17.7438,2.52441,-0.0018828,0.00394425,0.00856395,0.0100767,-0.00801526,0.949361,0.010468,0.0469577,1889,1240,17.7438,-2.52443
672,-216,17.7106,2.42957,-0.00222671,0.00310636,0.00938004,0.0101915,-0.00931187,0.923883,0.0112641,0.0456614,1896,1240,17.7105,-2.4296
679,-216,17.9374,2.52649,-0.00254907,0.00249612,0.00972045,0.010016,-0.0100689,0.912355,0.011596,0.0498079,1903,1240,17.9374,-2.52645
686,-216,18.1068,2.83313,0,0,0,0,0,0,0,-1,1910,1240,18.1068,-2.83313
693,-216,15.423,4.40735,-0.00301881,0.00116375,0.00925478,0.00856059,-0.0104156,0.896516,0.0109734,0.0376871,1917,1240,15.423,-4.40737
700,-216,15.39,4.34424,-0.0030796,0.000506895,0.00847888,0.00738009,-0.00995279,0.88961,0.0100438,0.0156026,1924,1240,15.39,-4.34422
707,-216,15.3851,4.1853,-0.00311953,0.000127751,0.00735304,0.00603428,-0.00902606,0.894061,0.00875209,0.0143549,1931,1240,15.3851,-4.18535
714,-216,15.4027,4.04163,-0.00288671,-0.000128553,0.00577343,0.00442822,-0.00744349,0.902635,0.00692743,0.0132565,1938,1240,15.4027,-4.04161
721,-216,15.4082,3.93201,-0.0022149,-0.000106427,0.00402919,0.00300416,-0.00532549,0.913354,0.00487098,0.0126817,1945,1240,15.4082,-3.932
728,-216,15.4231,3.80481,-0.00141738,-1.26222e-05,0.00209591,0.00149546,-0.00292547,0.947077,0.00259655,0.0111242,1952,1240,15.4231,-3.80477
735,-216,15.4297,3.68896,-0.000614808,-0.000174416,0.000405285,6.66279e-05,-0.000855852,1.03424,0.000594024,0.0100986,1959,1240,15.4297,-3.68899
742,-216,15.4272,3.58801,0.00108257,0.000634507,-0.000853604,0.00174105,-2.3976e-05,-0.657067,0.00116877,0.0104262,1966,1240,15.4273,-3.58807
749,-216,15.4254,3.46863,0.0025998,0.00128765,-0.00202505,0.00407241,-0.000184949,-0.628744,0.00277864,0.00883683,1973,1240,15.4254,-3.46858
756,-216,15.4016,3.35449,0.00377117,0.00182682,-0.00319862,0.00614209,-0.000544103,-0.637867,0.00428762,0.00943138,1980,1240,15.4016,-3.35445
763,-216,15.3706,3.24341,0.0047437,0.00234829,-0.00446986,0.00817354,-0.00108155,-0.654497,0.005843,0.0155703,1987,1240,15.3707,-3.24335
770,-216,15.428,2.97925,0.00570125,0.00299414,-0.00594884,0.0104486,-0.00175319,-0.673536,0.00761766,0.0390964,1994,1240,15.4279,-2.97926
777,-216,15.479,2.74182,0.00662361,0.00387171,-0.00763915,0.0130097,-0.00251442,-0.696294,0.00962144,0.0478373,2001,1240,15.479,-2.74183
784,-216,15.528,2.5083,0.00747233,0.00519256,-0.00952922,0.0159296,-0.00326471,-0.725871,0.0118587,0.0452304,2008,1240,15.528,-2.50828
791,-216,15.673,2.31921,0.00829124,0.00731671,-0.0115215,0.0193357,-0.00372779,-0.764265,0.014296,0.0442963,2015,1240,15.673,-2.3192
798,-216,0,0,0,0,0,0,0,0,0,-1,2022,1240,0,0
805,-216,0,0,0,0,0,0,0,0,0,-1,2029,1240,0,0
812,-216,0,0,0,0,0,0,0,0,0,-1,2036,1240,0,0
-700,-223,0,0,0,0,0,0,0,0,0,-1,524,1247,0,0
-693,-223,0,0,0,0,0,0,0,0,0,-1,531,1247,0,0
-686,-223,0,0,0,0,0,0,0,0,0,-1,538,1247,0,0
-679,-223,0,0,0,0,0,0,0,0,0,-1,545,1247,0,0
-672,-223,-10.1561,3.56836,0.0980782,-0.00807236,0.0354972,0.108855,-0.0188488,0.294742,0.0796,0.0466674,552,1247,-10.1561,-3.56842
-665,-223,-10.053,3.19995,0.0954239,-0.0099633,0.0266486,0.101779,-0.0163185,0.23411,0.0738953,0.0460629,559,1247,-10.053,-3.19991
-658,-223,-9.71771,2.72424,0.087404,-0.010422,0.0202434,0.0914275,-0.0144455,0.196201,0.0662935,0.0439608,566,1247,-9.71774,-2.72428
-651,-223,-9.47156,2.15979,0.0767795,-0.00996793,0.0154032,0.0794334,-0.0126218,0.170617,0.0576254,0.0444624,573,1247,-9.47157,-2.1598
-644,-223,-9.18427,1.8667,0.0649711,-0.00889479,0.0116733,0.066772,-0.0106957,0.153066,0.0484748,0.0456636,580,1247,-9.18429,-1.86664
-637,-223,-8.96558,1.7594,0.0530317,-0.0074651,0.00876127,0.054275,-0.00870837,0.140965,0.0394082,0.0441888,587,1247,-8.96557,-1.75935
-630,-223,-8.76202,1.32922,0.0419336,-0.00617598,0.00632614,0.0427516,-0.00699393,0.128583,0.0310956,0.0365258,594,1247,-8.762,-1.32925
-623,-223,-8.56451,1.0155,0.0319603,-0.00478672,0.00438022,0.0324752,-0.00530163,0.117015,0.0236165,0.021121,601,1247,-8.56452,-1.01554
-616,-223,-8.58746,1.23083,0.0238642,-0.00327047,0.00242411,0.0240791,-0.00348533,0.0884032,0.0173317,0.0150772,608,1247,-8.58745,-1.23088
-609,-223,-8.58258,1.36609,0.0167336,-0.00237735,0.00128449,0.0168195,-0.0024633,0.066812,0.0121179,0.0116489,615,1247,-8.58261,-1.36613
-602,-223,-8.57397,1.50366,0.0112281,-0.00210436,0.000747694,0.0112699,-0.00214616,0.0558473,0.00832143,0.0144466,622,1247,-8.57397,-1.50364
-595,-223,-8.57092,1.67859,0.00796892,-0.00152505,-0.000422891,0.00798772,-0.00154385,-0.0444259,0.0059074,0.0193017,629,1247,-8.5709,-1.67861
-588,-223,-8.59711,1.84033,0.00595674,-0.000867053,-0.00110763,0.00613203,-0.00104234,-0.156953,0.0044761,0.0214977,636,1247,-8.59714,-1.84033
-581,-223,-8.61353,1.97668,0.00444662,-0.0009126,-0.00249294,0.00542694,-0.00189292,-0.374663,0.00438723,0.0197958,643,1247,-8.61355,-1.97663
-574,-223,-8.56158,2.10632,0.00379417,-0.000991193,-0.0032314,0.00542229,-0.00261931,-0.466718,0.0047359,0.0169461,650,1247,-8.56155,-2.10633
-567,-223,-8.40387,2.3385,0.00334583,-0.000865637,-0.00385979,0.00563693,-0.00315673,-0.535686,0.00514389,0.0226475,657,1247,-8.40388,-2.33845
-560,-223,-8.1582,2.70398,0.00307687,-0.000575727,-0.00462374,0.00622193,-0.00372078,-0.597311,0.00580065,0.0366047,664,1247,-8.15821,-2.70396
-553,-223,-7.65778,3.18677,0,0,0,0,0,0,0,-1,671,1247,-7.65778,-3.18672
-546,-223,-10.6548,-0.201904,0,0,0,0,0,0,0,-1,678,1247,-10.6548,0.201954
-539,-223,-10.7232,0.315308,3.5179e-05,0.00110597,-0.006612,0.00720422,-0.00606306,-0.825797,0.00766931,0.0409093,685,1247,-10.7232,-0.315259
-532,-223,-10.7663,0.531982,-0.0016097,0.00185917,-0.00705892,0.00739361,-0.00714414,-0.905866,0.00839379,0.0420691,692,1247,-10.7663,-0.531942
-525,-223,-10.9905,0.539673,-0.00348144,0.0027465,-0.0070833,0.0073701,-0.00810504,-0.992493,0.00893794,0.0451184,699,1247,-10.9904,-0.53966
-518,-223,-11.0515,0.602905,-0.00548247,0.00359375,-0.00631152,0.0068293,-0.00871802,-1.09709,0.0089983,0.0429361,706,1247,-11.0515,-0.602914
-511,-223,-11.2387,0.86084,-0.00677535,0.00386386,-0.00422893,0.00534,-0.00825148,-1.23496,0.00790683,0.0425748,713,1247,-11.2387,-0.860779
-504,-223,-11.1509,0.702759,-0.00601115,0.00382306,0.000887743,0.00390256,-0.00609064,1.48149,0.0058155,0.0442429,720,1247,-11.1509,-0.702709
-497,-223,0,0,0,0,0,0,0,0,0,-1,727,1247,0,0
-490,-223,0,0,0,0,0,0,0,0,0,-1,734,1247,0,0
-483,-223,0,0,0,0,0,0,0,0,0,-1,741,1247,0,0
-476,-223,0,0,0,0,0,0,0,0,0,-1,748,1247,0,0
-469,-223,0,0,0,0,0,0,0,0,0,-1,755,1247,0,0
-462,-223,0,0,0,0,0,0,0,0,0,-1,762,1247,0,0
-455,-223,0,0,0,0,0,0,0,0,0,-1,769,1247,0,0
-448,-223,0,0,0,0,0,0,0,0,0,-1,776,1247,0,0
-441,-223,0,0,0,0,0,0,0,0,0,-1,783,1247,0,0
-434,-223,0,0,0,0,0,0,0,0,0,-1,790,1247,0,0
-427,-223,0,0,0,0,0,0,0,0,0,-1,797,1247,0,0
-420,-223,0,0,0,0,0,0,0,0,0,-1,804,1247,0,0
-413,-223,0,0,0,0,0,0,0,0,0,-1,811,1247,0,0
-406,-223,0,0,0,0,0,0,0,0,0,-1,818,1247,0,0
-399,-223,0,0,0,0,0,0,0,0,0,-1,825,1247,0,0
-392,-223,0,0,0,0,0,0,0,0,0,-1,832,1247,0,0
-385,-223,0,0,0,0,0,0,0,0,0,-1,839,1247,0,0
-378,-223,0,0,0,0,0,0,0,0,0,-1,846,1247,0,0
-371,-223,0,0,0,0,0,0,0,0,0,-1,853,1247,0,0
-364,-223,0,0,0,0,0,0,0,0,0,-1,860,1247,0,0
-357,-223,0,0,0,0,0,0,0,0,0,-1,867,1247,0,0
-350,-223,0,0,0,0,0,0,0,0,0,-1,874,1247,0,0
-343,-223,0,0,0,0,0,0,0,0,0,-1,881,1247,0,0
-336,-223,0,0,0,0,0,0,0,0,0,-1,888,1247,0,0
-329,-223,0,0,0,0,0,0,0,0,0,-1,895,1247,0,0
-322,-223,0,0,0,0,0,0,0,0,0,-1,902,1247,0,0
-315,-223,0,0,0,0,0,0,0,0,0,-1,909,1247,0,0
-308,-223,0,0,0,0,0,0,0,0,0,-1,916,1247,0,0
-301,-223,0,0,0,0,0,0,0,0,0,-1,923,1247,0,0
-294,-223,0,0,0,0,0,0,0,0,0,-1,930,1247,0,0
-287,-223,0,0,0,0,0,0,0,0,0,-1,937,1247,0,0
-280,-223,0,0,0,0,0,0,0,0,0,-1,944,1247,0,0
-273,-223,0,0,0,0,0,0,0,0,0,-1,951,1247,0,0
-266,-223,0,0,0,0,0,0,0,0,0,-1,958,1247,0,0
-259,-223,0,0,0,0,0,0,0,0,0,-1,965,1247,0,0
-252,-223,0,0,0,0,0,0,0,0,0,-1,972,1247,0,0
-245,-223,0,0,0,0,0,0,0,0,0,-1,979,1247,0,0
-238,-223,0,0,0,0,0,0,0,0,0,-1,986,1247,0,0
-231,-223,0,0,0,0,0,0,0,0,0,-1,993,1247,0,0
-224,-223,0,0,0,0,0,0,0,0,0,-1,1000,1247,0,0
-217,-223,0,0,0,0,0,0,0,0,0,-1,1007,1247,0,0
-210,-223,0,0,0,0,0,0,0,0,0,-1,1014,1247,0,0
-203,-223,0,0,0,0,0,0,0,0,0,-1,1021,1247,0,0
-196,-223,0,0,0,0,0,0,0,0,0,-1,1028,1247,0,0
-189,-223,0,0,0,0,0,0,0,0,0,-1,1035,1247,0,0
-182,-223,0,0,0,0,0,0,0,0,0,-1,1042,1247,0,0
-175,-223,0,0,0,0,0,0,0,0,0,-1,1049,1247,0,0
-168,-223,0,0,0,0,0,0,0,0,0,-1,1056,1247,0,0
-161,-223,0,0,0,0,0,0,0,0,0,-1,1063,1247,0,0
-154,-223,0,0,0,0,0,0,0,0,0,-1,1070,1247,0,0
-147,-223,0,0,0,0,0,0,0,0,0,-1,1077,1247,0,0
-140,-223,0,0,0,0,0,0,0,0,0,-1,1084,1247,0,0
-133,-223,0,0,0,0,0,0,0,0,0,-1,1091,1247,0,0
-126,-223,0,0,0,0,0,0,0,0,0,-1,1098,1247,0,0
-119,-223,0,0,0,0,0,0,0,0,0,-1,1105,1247,0,0
-112,-223,0,0,0,0,0,0,0,0,0,-1,1112,1247,0,0
-105,-223,0,0,0,0,0,0,0,0,0,-1,1119,1247,0,0
-98,-223,0,0,0,0,0,0,0,0,0,-1,1126,1247,0,0
-91,-223,0,0,0,0,0,0,0,0,0,-1,1133,1247,0,0
-84,-223,0,0,0,0,0,0,0,0,0,-1,1140,1247,0,0
-77,-223,0,0,0,0,0,0,0,0,0,-1,1147,1247,0,0
-70,-223,0,0,0,0,0,0,0,0,0,-1,1154,1247,0,0
-63,-223,0,0,0,0,0,0,0,0,0,-1,1161,1247,0,0
-56,-223,0,0,0,0,0,0,0,0,0,-1,1168,1247,0,0
-49,-223,0,0,0,0,0,0,0,0,0,-1,1175,1247,0,0
-42,-223,0,0,0,0,0,0,0,0,0,-1,1182,1247,0,0
-35,-223,0,0,0,0,0,0,0,0,0,-1,1189,1247,0,0
-28,-223,0,0,0,0,0,0,0,0,0,-1,1196,1247,0,0
-21,-223,0,0,0,0,0,0,0,0,0,-1,1203,1247,0,0
-14,-223,0,0,0,0,0,0,0,0,0,-1,1210,1247,0,0
-7,-223,0,0,0,0,0,0,0,0,0,-1,1217,1247,0,0
0,-223,0,0,0,0,0,0,0,0,0,-1,1224,1247,0,0
7,-223,0,0,0,0,0,0,0,0,0,-1,1231,1247,0,0
14,-223,0,0,0,0,0,0,0,0,0,-1,1238,1247,0,0
21,-223,0,0,0,0,0,0,0,0,0,-1,1245,1247,0,0
28,-223,0,0,0,0,0,0,0,0,0,-1,1252,1247,0,0
35,-223,0,0,0,0,0,0,0,0,0,-1,1259,1247,0,0
42,-223,0,0,0,0,0,0,0,0,0,-1,1266,1247,0,0
49,-223,0,0,0,0,0,0,0,0,0,-1,1273,1247,0,0
56,-223,0,0,0,0,0,0,0,0,0,-1,1280,1247,0,0
63,-223,0,0,0,0,0,0,0,0,0,-1,1287,1247,0,0
70,-223,0,0,0,0,0,0,0,0,0,-1,1294,1247,0,0
77,-223,0,0,0,0,0,0,0,0,0,-1,1301,1247,0,0
84,-223,0,0,0,0,0,0,0,0,0,-1,1308,1247,0,0
91,-223,0,0,0,0,0,0,0,0,0,-1,1315,1247,0,0
98,-223,0,0,0,0,0,0,0,0,0,-1,1322,1247,0,0
105,-223,0,0,0,0,0,0,0,0,0,-1,1329,1247,0,0
112,-223,0,0,0,0,0,0,0,0,0,-1,1336,1247,0,0
119,-223,0,0,0,0,0,0,0,0,0,-1,1343,1247,0,0
126,-223,0,0,0,0,0,0,0,0,0,-1,1350,1247,0,0
133,-223,0,0,0,0,0,0,0,0,0,-1,1357,1247,0,0
140,-223,0,0,0,0,0,0,0,0,0,-1,1364,1247,0,0
147,-223,0,0,0,0,0,0,0,0,0,-1,1371,1247,0,0
154,-223,0,0,0,0,0,0,0,0,0,-1,1378,1247,0,0
161,-223,0,0,0,0,0,0,0,0,0,-1,1385,1247,0,0
168,-223,0,0,0,0,0,0,0,0,0,-1,1392,1247,0,0
175,-223,0,0,0,0,0,0,0,0,0,-1,1399,1247,0,0
182,-223,0,0,0,0,0,0,0,0,0,-1,1406,1247,0,0
189,-223,0,0,0,0,0,0,0,0,0,-1,1413,1247,0,0
196,-223,0,0,0,0,0,0,0,0,0,-1,1420,1247,0,0
203,-223,0,0,0,0,0,0,0,0,0,-1,1427,1247,0,0
210,-223,0,0,0,0,0,0,0,0,0,-1,1434,1247,0,0
217,-223,0,0,0,0,0,0,0,0,0,-1,1441,1247,0,0
224,-223,0,0,0,0,0,0,0,0,0,-1,1448,1247,0,0
231,-223,0,0,0,0,0,0,0,0,0,-1,1455,1247,0,0
238,-223,0,0,0,0,0,0,0,0,0,-1,1462,1247,0,0
245,-223,0,0,0,0,0,0,0,0,0,-1,1469,1247,0,0
252,-223,0,0,0,0,0,0,0,0,0,-1,1476,1247,0,0
259,-223,0,0,0,0,0,0,0,0,0,-1,1483,1247,0,0
266,-223,0,0,0,0,0,0,0,0,0,-1,1490,1247,0,0
273,-223,0,0,0,0,0,0,0,0,0,-1,1497,1247,0,0
280,-223,0,0,0,0,0,0,0,0,0,-1,1504,1247,0,0
287,-223,0,0,0,0,0,0,0,0,0,-1,1511,1247,0,0
294,-223,0,0,0,0,0,0,0,0,0,-1,1518,1247,0,0
301,-223,0,0,0,0,0,0,0,0,0,-1,1525,1247,0,0
308,-223,0,0,0,0,0,0,0,0,0,-1,1532,1247,0,0
315,-223,0,0,0,0,0,0,0,0,0,-1,1539,1247,0,0
322,-223,0,0,0,0,0,0,0,0,0,-1,1546,1247,0,0
329,-223,0,0,0,0,0,0,0,0,0,-1,1553,1247,0,0
336,-223,0,0,0,0,0,0,0,0,0,-1,1560,1247,0,0
343,-223,0,0,0,0,0,0,0,0,0,-1,1567,1247,0,0
350,-223,0,0,0,0,0,0,0,0,0,-1,1574,1247,0,0
357,-223,0,0,0,0,0,0,0,0,0,-1,1581,1247,0,0
364,-223,0,0,0,0,0,0,0,0,0,-1,1588,1247,0,0
371,-223,0,0,0,0,0,0,0,0,0,-1,1595,1247,0,0
378,-223,0,0,0,0,0,0,0,0,0,-1,1602,1247,0,0
385,-223,0,0,0,0,0,0,0,0,0,-1,1609,1247,0,0
392,-223,0,0,0,0,0,0,0,0,0,-1,1616,1247,0,0
399,-223,0,0,0,0,0,0,0,0,0,-1,1623,1247,0,0
406,-223,0,0,0,0,0,0,0,0,0,-1,1630,1247,0,0
413,-223,0,0,0,0,0,0,0,0,0,-1,1637,1247,0,0
420,-223,0,0,0,0,0,0,0,0,0,-1,1644,1247,0,0
427,-223,0,0,0,0,0,0,0,0,0,-1,1651,1247,0,0
434,-223,0,0,0,0,0,0,0,0,0,-1,1658,1247,0,0
441,-223,0,0,0,0,0,0,0,0,0,-1,1665,1247,0,0
448,-223,0,0,0,0,0,0,0,0,0,-1,1672,1247,0,0
455,-223,0,0,0,0,0,0,0,0,0,-1,1679,1247,0,0
462,-223,0,0,0,0,0,0,0,0,0,-1,1686,1247,0,0
469,-223,0,0,0,0,0,0,0,0,0,-1,1693,1247,0,0
476,-223,0,0,0,0,0,0,0,0,0,-1,1700,1247,0,0
483,-223,0,0,0,0,0,0,0,0,0,-1,1707,1247,0,0
490,-223,0,0,0,0,0,0,0,0,0,-1,1714,1247,0,0
497,-223,0,0,0,0,0,0,0,0,0,-1,1721,1247,0,0
504,-223,0,0,0,0,0,0,0,0,0,-1,1728,1247,0,0
511,-223,0,0,0,0,0,0,0,0,0,-1,1735,1247,0,0
518,-223,0,0,0,0,0,0,0,0,0,-1,1742,1247,0,0
525,-223,0,0,0,0,0,0,0,0,0,-1,1749,1247,0,0
532,-223,0,0,0,0,0,0,0,0,0,-1,1756,1247,0,0
539,-223,0,0,0,0,0,0,0,0,0,-1,1763,1247,0,0
546,-223,0,0,0,0,0,0,0,0,0,-1,1770,1247,0,0
553,-223,0,0,0,0,0,0,0,0,0,-1,1777,1247,0,0
560,-223,0,0,0,0,0,0,0,0,0,-1,1784,1247,0,0
567,-223,0,0,0,0,0,0,0,0,0,-1,1791,1247,0,0
574,-223,0,0,0,0,0,0,0,0,0,-1,1798,1247,0,0
581,-223,0,0,0,0,0,0,0,0,0,-1,1805,1247,0,0
588,-223,0,0,0,0,0,0,0,0,0,-1,1812,1247,0,0
595,-223,0,0,0,0,0,0,0,0,0,-1,1819,1247,0,0
602,-223,0,0,0,0,0,0,0,0,0,-1,1826,1247,0,0
609,-223,0,0,0,0,0,0,0,0,0,-1,1833,1247,0,0
616,-223,0,0,0,0,0,0,0,0,0,-1,1840,1247,0,0
623,-223,17.5139,2.48853,0.00111961,0.00657603,-0.00523158,0.00974804,-0.0020524,-1.02574,0.00727991,0.0388871,1847,1247,17.5139,-2.48847
630,-223,17.489,2.32886,-0.000811769,0.00623013,-0.00371343,0.00782647,-0.0024081,-1.1648,0.0061788,0.0346833,1854,1247,17.489,-2.3289
637,-223,17.5111,2.43005,-0.00151552,0.00657112,-0.000462773,0.00659752,-0.00154191,-1.51382,0.00499233,0.0287638,1861,1247,17.5111,-2.43006
644,-223,17.5505,2.52478,-0.00208802,0.00645737,0.00270298,0.00724056,-0.00287121,1.28877,0.00601697,0.0232798,1868,1247,17.5505,-2.52482
651,-223,17.5645,2.51782,-0.00246118,0.00599286,0.00531135,0.00855393,-0.00502225,1.1215,0.00792612,0.0280872,1875,1247,17.5645,-2.51782
658,-223,17.6282,2.58142,-0.00261381,0.00538996,0.00719736,0.00962319,-0.00684704,1.03913,0.00955401,0.0470653,1882,1247,17.6281,-2.58141
665,-223,17.5284,2.67297,-0.002637,0.00467738,0.00845969,0.0102366,-0.00819617,0.98942,0.0106639,0.043626,1889,1247,17.5284,-2.67297
672,-223,17.5062,2.88123,-0.0027004,0.00378143,0.00923974,0.0103322,-0.00925113,0.954073,0.0113122,0.0443914,1896,1247,17.5062,-2.88125
679,-223,17.551,3.06238,0,0,0,0,0,0,0,-1,1903,1247,17.551,-3.0624
686,-223,15.2726,4.46997,-0.0027048,0.0023523,0.0096151,0.00976576,-0.0101183,0.913975,0.0114806,0.0483593,1910,1247,15.2725,-4.46992
693,-223,15.2994,4.39355,-0.00254752,0.00157447,0.00918764,0.00892944,-0.00990248,0.895733,0.0108775,0.0239677,1917,1247,15.2994,-4.39359
700,-223,15.2913,4.32141,-0.00236712,0.000892694,0.00831593,0.00773694,-0.00921137,0.882171,0.00979744,0.0106327,1924,1247,15.2912,-4.3214
707,-223,15.2831,4.20093,-0.00222656,0.000502917,0.0070643,0.0063331,-0.00805674,0.880817,0.00832782,0.0114803,1931,1247,15.2831,-4.20095
714,-223,15.2954,4.0603,-0.00186442,0.000236653,0.00534539,0.00463376,-0.00626152,0.882427,0.00631375,0.0111054,1938,1247,15.2954,-4.06032
721,-223,15.291,3.93921,-0.00126712,0.000291582,0.00358888,0.00318476,-0.00416029,0.892317,0.00425312,0.0146454,1945,1247,15.291,-3.93926
728,-223,15.2716,3.81213,-0.000720876,0.000404474,0.00171309,0.00164493,-0.00196133,0.944076,0.00208474,0.0157449,1952,1247,15.2716,-3.8121
735,-223,15.2728,3.69238,-0.000271471,0.000181919,0.000159286,0.000232285,-0.000321837,1.26455,0.000321312,0.0131745,1959,1247,15.2729,-3.69237
742,-223,15.2783,3.58105,0.00088447,0.000907586,-0.000925677,0.00182178,-2.97214e-05,-0.791641,0.00122455,0.0108129,1966,1247,15.2783,-3.58101
749,-223,15.2853,3.4519,0.0017405,0.00147588,-0.00191795,0.0035307,-0.000314315,-0.75096,0.00246526,0.00949855,1973,1247,15.2852,-3.45187
756,-223,15.2815,3.32813,0.00214666,0.00186833,-0.00294223,0.00495302,-0.000938028,-0.761767,0.00365503,0.010988,1980,1247,15.2815,-3.32809
763,-223,15.2629,3.20825,0.0022584,0.00215862,-0.00409497,0.00630378,-0.00188676,-0.779307,0.00495272,0.0147185,1987,1247,15.263,-3.20824
770,-223,15.2166,3.02612,0.00215251,0.0024172,-0.00546066,0.00774712,-0.00317741,-0.797514,0.00648861,0.0368119,1994,1247,15.2165,-3.0261
777,-223,15.191,2.87573,0.00178138,0.00269678,-0.00705222,0.00930613,-0.00482797,-0.817804,0.00829573,0.0498104,2001,1247,15.191,-2.87578
784,-223,15.4242,2.67346,0.00112987,0.00312091,-0.00889279,0.0110737,-0.00682295,-0.84114,0.0104294,0.0465931,2008,1247,15.4242,-2.67349
791,-223,15.5529,2.35852,0.000256891,0.00392518,-0.0109125,0.0131567,-0.00897458,-0.868658,0.0128533,0.0475421,2015,1247,15.5529,-2.35857
798,-223,0,0,0,0,0,0,0,0,0,-1,2022,1247,0,0
805,-223,0,0,0,0,0,0,0,0,0,-1,2029,1247,0,0
812,-223,0,0,0,0,0,0,0,0,0,-1,2036,1247,0,0
-700,-230,0,0,0,0,0,0,0,0,0,-1,524,1254,0,0
-693,-230,0,0,0,0,0,0,0,0,0,-1,531,1254,0,0
-686,-230,0,0,0,0,0,0,0,0,0,-1,538,1254,0,0
-679,-230,0,0,0,0,0,0,0,0,0,-1,545,1254,0,0
-672,-230,-11.7337,4.26929,0.105937,-0.0188369,0.035165,0.115165,-0.028065,0.256635,0.0876424,0.0461909,552,1254,-11.7337,-4.26929
-665,-230,-11.1879,3.67188,0.1042,-0.0172715,0.027573,0.110166,-0.0232374,0.21308,0.0822909,0.0426192,559,1254,-11.1879,-3.67189
-658,-230,-10.52,2.76904,0.0959664,-0.014949,0.0219196,0.100141,-0.0191237,0.188202,0.073964,0.0430074,566,1254,-10.5199,-2.76908
-651,-230,-10.0187,2.31299,0.084753,-0.012443,0.0174404,0.0877877,-0.0154777,0.172278,0.0643082,0.0444701,573,1254,-10.0187,-2.31297
-644,-230,-9.94745,2.24316,0.0721136,-0.00992485,0.0137855,0.0743682,-0.0121794,0.162108,0.0540975,0.0459577,580,1254,-9.94745,-2.24312
-637,-230,-8.95862,2.20129,0,0,0,0,0,0,0,-1,587,1254,-8.9586,-2.20135
-630,-230,-8.65674,1.52771,0.0470189,-0.00554551,0.00818158,0.0482629,-0.00678952,0.150895,0.0346608,0.0417662,594,1254,-8.65675,-1.52767
-623,-230,-8.43854,0.993774,0.0360326,-0.00382241,0.00602434,0.0369233,-0.00471313,0.146789,0.0263276,0.0271314,601,1254,-8.43851,-0.993749
-616,-230,-8.44702,1.20105,0.0270441,-0.00220978,0.00385491,0.0275435,-0.00270923,0.128845,0.0193288,0.0155465,608,1254,-8.44701,-1.201
-609,-230,-8.42236,1.36243,0.0192016,-0.00134193,0.00254833,0.019513,-0.00165332,0.12159,0.0135933,0.0112701,615,1254,-8.42234,-1.36238
-602,-230,-8.41418,1.51086,0.0131655,-0.00114626,0.00175406,0.0133773,-0.00135811,0.120191,0.00940365,0.0110375,622,1254,-8.41417,-1.51092
-595,-230,-8.42163,1.69873,0.00940234,-0.00089549,0.000446681,0.00942168,-0.000914829,0.0432679,0.00660721,0.0184642,629,1254,-8.42161,-1.69871
-588,-230,-8.44733,1.85034,0.0068081,-0.000536126,-0.000348896,0.00682463,-0.000552664,-0.047364,0.00474472,0.0255051,636,1254,-8.44734,-1.85032
-581,-230,-8.47461,1.99768,0.00478884,-0.000839805,-0.0020611,0.00546286,-0.00151383,-0.316058,0.00423763,0.0231687,643,1254,-8.4746,-1.99769
-574,-230,-8.41925,2.12378,0.00395239,-0.000974262,-0.0030039,0.00537382,-0.0023957,-0.441977,0.00459427,0.0167488,650,1254,-8.41928,-2.12375
-567,-230,-8.28497,2.31531,0.00341652,-0.00090748,-0.00387562,0.00569239,-0.00318335,-0.530975,0.00519221,0.0193427,657,1254,-8.28499,-2.31536
-560,-230,-8.15649,2.62805,0.00300297,-0.00065368,-0.00485332,0.00636093,-0.00401164,-0.605261,0.00603959,0.0328942,664,1254,-8.15647,-2.62801
-553,-230,-7.89069,2.92529,0,0,0,0,0,0,0,-1,671,1254,-7.89072,-2.92523
-546,-230,-9.32324,0.747192,0,0,0,0,0,0,0,-1,678,1254,-9.32326,-0.747157
-539,-230,-10.5225,0.397827,0,0,0,0,0,0,0,-1,685,1254,-10.5225,-0.397782
-532,-230,-10.7847,0.45459,-0.00270381,0.00155161,-0.00785476,0.00756174,-0.00871394,-0.917665,0.00940462,0.0440065,692,1254,-10.7847,-0.454597
-525,-230,-10.9531,0.489258,-0.00495587,0.00232565,-0.00794632,0.00742555,-0.0100558,-1.00021,0.0101309,0.0494673,699,1254,-10.953,-0.489268
-518,-230,-10.9968,0.509155,-0.00741834,0.00294165,-0.00713587,0.00657942,-0.0110561,-1.09935,0.0102906,0.0445842,706,1254,-10.9967,-0.509131
-511,-230,-11.0801,0.54834,-0.00946549,0.00283856,-0.00482691,0.00450616,-0.0111331,-1.23816,0.0092956,0.0415206,713,1254,-11.0801,-0.548357
-504,-230,-11.1124,0.554199,-0.0098221,0.00185519,0.000378226,0.00186743,-0.00983434,1.53845,0.00725922,0.0405223,720,1254,-11.1124,-0.554145
-497,-230,0,0,0,0,0,0,0,0,0,-1,727,1254,0,0
-490,-230,0,0,0,0,0,0,0,0,0,-1,734,1254,0,0
-483,-230,0,0,0,0,0,0,0,0,0,-1,741,1254,0,0
-476,-230,0,0,0,0,0,0,0,0,0,-1,748,1254,0,0
-469,-230,0,0,0,0,0,0,0,0,0,-1,755,1254,0,0
-462,-230,0,0,0,0,0,0,0,0,0,-1,762,1254,0,0
-455,-230,0,0,0,0,0,0,0,0,0,-1,769,1254,0,0
-448,-230,0,0,0,0,0,0,0,0,0,-1,776,1254,0,0
-441,-230,0,0,0,0,0,0,0,0,0,-1,783,1254,0,0
-434,-230,0,0,0,0,0,0,0,0,0,-1,790,1254,0,0
-427,-230,0,0,0,0,0,0,0,0,0,-1,797,1254,0,0
-420,-230,0,0,0,0,0,0,0,0,0,-1,804,1254,0,0
-413,-230,0,0,0,0,0,0,0,0,0,-1,811,1254,0,0
-406,-230,0,0,0,0,0,0,0,0,0,-1,818,1254,0,0
-399,-230,0,0,0,0,0,0,0,0,0,-1,825,1254,0,0
-392,-230,0,0,0,0,0,0,0,0,0,-1,832,1254,0,0
-385,-230,0,0,0,0,0,0,0,0,0,-1,839,1254,0,0
-378,-230,0,0,0,0,0,0,0,0,0,-1,846,1254,0,0
-371,-230,0,0,0,0,0,0,0,0,0,-1,853,1254,0,0
-364,-230,0,0,0,0,0,0,0,0,0,-1,860,1254,0,0
-357,-230,0,0,0,0,0,0,0,0,0,-1,867,1254,0,0
-350,-230,0,0,0,0,0,0,0,0,0,-1,874,1254,0,0
-343,-230,0,0,0,0,0,0,0,0,0,-1,881,1254,0,0
-336,-230,0,0,0,0,0,0,0,0,0,-1,888,1254,0,0
-329,-230,0,0,0,0,0,0,0,0,0,-1,895,1254,0,0
-322,-230,0,0,0,0,0,0,0,0,0,-1,902,1254,0,0
-315,-230,0,0,0,0,0,0,0,0,0,-1,909,1254,0,0
-308,-230,0,0,0,0,0,0,0,0,0,-1,916,1254,0,0
-301,-230,0,0,0,0,0,0,0,0,0,-1,923,1254,0,0
-294,-230,0,0,0,0,0,0,0,0,0,-1,930,1254,0,0
-287,-230,0,0,0,0,0,0,0,0,0,-1,937,1254,0,0
-280,-230,0,0,0,0,0,0,0,0,0,-1,944,1254,0,0
-273,-230,0,0,0,0,0,0,0,0,0,-1,951,1254,0,0
-266,-230,0,0,0,0,0,0,0,0,0,-1,958,1254,0,0
-259,-230,0,0,0,0,0,0,0,0,0,-1,965,1254,0,0
-252,-230,0,0,0,0,0,0,0,0,0,-1,972,1254,0,0
-245,-230,0,0,0,0,0,0,0,0,0,-1,979,1254,0,0
-238,-230,0,0,0,0,0,0,0,0,0,-1,986,1254,0,0
-231,-230,0,0,0,0,0,0,0,0,0,-1,993,1254,0,0
-224,-230,0,0,0,0,0,0,0,0,0,-1,1000,1254,0,0
-217,-230,0,0,0,0,0,0,0,0,0,-1,1007,1254,0,0
-210,-230,0,0,0,0,0,0,0,0,0,-1,1014,1254,0,0
-203,-230,0,0,0,0,0,0,0,0,0,-1,1021,1254,0,0
-196,-230,0,0,0,0,0,0,0,0,0,-1,1028,1254,0,0
-189,-230,0,0,0,0,0,0,0,0,0,-1,1035,1254,0,0
-182,-230,0,0,0,0,0,0,0,0,0,-1,1042,1254,0,0
-175,-230,0,0,0,0,0,0,0,0,0,-1,1049,1254,0,0
-168,-230,0,0,0,0,0,0,0,0,0,-1,1056,1254,0,0
-161,-230,0,0,0,0,0,0,0,0,0,-1,1063,1254,0,0
-154,-230,0,0,0,0,0,0,0,0,0,-1,1070,1254,0,0
-147,-230,0,0,0,0,0,0,0,0,0,-1,1077,1254,0,0
-140,-230,0,0,0,0,0,0,0,0,0,-1,1084,1254,0,0
-133,-230,0,0,0,0,0,0,0,0,0,-1,1091,1254,0,0
-126,-230,0,0,0,0,0,0,0,0,0,-1,1098,1254,0,0
-119,-230,0,0,0,0,0,0,0,0,0,-1,1105,1254,0,0
-112,-230,0,0,0,0,0,0,0,0,0,-1,1112,1254,0,0
-105,-230,0,0,0,0,0,0,0,0,0,-1,1119,1254,0,0
-98,-230,0,0,0,0,0,0,0,0,0,-1,1126,1254,0,0
-91,-230,0,0,0,0,0,0,0,0,0,-1,1133,1254,0,0
-84,-230,0,0,0,0,0,0,0,0,0,-1,1140,1254,0,0
-77,-230,0,0,0,0,0,0,0,0,0,-1,1147,1254,0,0
-70,-230,0,0,0,0,0,0,0,0,0,-1,1154,1254,0,0
-63,-230,0,0,0,0,0,0,0,0,0,-1,1161,1254,0,0
-56,-230,0,0,0,0,0,0,0,0,0,-1,1168,1254,0,0
-49,-230,0,0,0,0,0,0,0,0,0,-1,1175,1254,0,0
-42,-230,0,0,0,0,0,0,0,0,0,-1,1182,1254,0,0
-35,-230,0,0,0,0,0,0,0,0,0,-1,1189,1254,0,0
-28,-230,0,0,0,0,0,0,0,0,0,-1,1196,1254,0,0
-21,-230,0,0,0,0,0,0,0,0,0,-1,1203,1254,0,0
-14,-230,0,0,0,0,0,0,0,0,0,-1,1210,1254,0,0
-7,-230,0,0,0,0,0,0,0,0,0,-1,1217,1254,0,0
0,-230,0,0,0,0,0,0,0,0,0,-1,1224,1254,0,0
7,-230,0,0,0,0,0,0,0,0,0,-1,1231,1254,0,0
14,-230,0,0,0,0,0,0,0,0,0,-1,1238,1254,0,0
21,-230,0,0,0,0,0,0,0,0,0,-1,1245,1254,0,0
28,-230,0,0,0,0,0,0,0,0,0,-1,1252,1254,0,0
35,-230,0,0,0,0,0,0,0,0,0,-1,1259,1254,0,0
42,-230,0,0,0,0,0,0,0,0,0,-1,1266,1254,0,0
49,-230,0,0,0,0,0,0,0,0,0,-1,1273,1254,0,0
56,-230,0,0,0,0,0,0,0,0,0,-1,1280,1254,0,0
63,-230,0,0,0,0,0,0,0,0,0,-1,1287,1254,0,0
70,-230,0,0,0,0,0,0,0,0,0,-1,1294,1254,0,0
77,-230,0,0,0,0,0,0,0,0,0,-1,1301,1254,0,0
84,-230,0,0,0,0,0,0,0,0,0,-1,1308,1254,0,0
91,-230,0,0,0,0,0,0,0,0,0,-1,1315,1254,0,0
98,-230,0,0,0,0,0,0,0,0,0,-1,1322,1254,0,0
105,-230,0,0,0,0,0,0,0,0,0,-1,1329,1254,0,0
112,-230,0,0,0,0,0,0,0,0,0,-1,1336,1254,0,0
119,-230,0,0,0,0,0,0,0,0,0,-1,1343,1254,0,0
126,-230,0,0,0,0,0,0,0,0,0,-1,1350,1254,0,0
133,-230,0,0,0,0,0,0,0,0,0,-1,1357,1254,0,0
140,-230,0,0,0,0,0,0,0,0,0,-1,1364,1254,0,0
147,-230,0,0,0,0,0,0,0,0,0,-1,1371,1254,0,0
154,-230,0,0,0,0,0,0,0,0,0,-1,1378,1254,0,0
161,-230,0,0,0,0,0,0,0,0,0,-1,1385,1254,0,0
168,-230,0,0,0,0,0,0,0,0,0,-1,1392,1254,0,0
175,-230,0,0,0,0,0,0,0,0,0,-1,1399,1254,0,0
182,-230,0,0,0,0,0,0,0,0,0,-1,1406,1254,0,0
189,-230,0,0,0,0,0,0,0,0,0,-1,1413,1254,0,0
196,-230,0,0,0,0,0,0,0,0,0,-1,1420,1254,0,0
203,-230,0,0,0,0,0,0,0,0,0,-1,1427,1254,0,0
210,-230,0,0,0,0,0,0,0,0,0,-1,1434,1254,0,0
217,-230,0,0,0,0,0,0,0,0,0,-1,1441,1254,0,0
224,-230,0,0,0,0,0,0,0,0,0,-1,1448,1254,0,0
231,-230,0,0,0,0,0,0,0,0,0,-1,1455,1254,0,0
238,-230,0,0,0,0,0,0,0,0,0,-1,1462,1254,0,0
245,-230,0,0,0,0,0,0,0,0,0,-1,1469,1254,0,0
252,-230,0,0,0,0,0,0,0,0,0,-1,1476,1254,0,0
259,-230,0,0,0,0,0,0,0,0,0,-1,1483,1254,0,0
266,-230,0,0,0,0,0,0,0,0,0,-1,1490,1254,0,0
273,-230,0,0,0,0,0,0,0,0,0,-1,1497,1254,0,0
280,-230,0,0,0,0,0,0,0,0,0,-1,1504,1254,0,0
287,-230,0,0,0,0,0,0,0,0,0,-1,1511,1254,0,0
294,-230,0,0,0,0,0,0,0,0,0,-1,1518,1254,0,0
301,-230,0,0,0,0,0,0,0,0,0,-1,1525,1254,0,0
308,-230,0,0,0,0,0,0,0,0,0,-1,1532,1254,0,0
315,-230,0,0,0,0,0,0,0,0,0,-1,1539,1254,0,0
322,-230,0,0,0,0,0,0,0,0,0,-1,1546,1254,0,0
329,-230,0,0,0,0,0,0,0,0,0,-1,1553,1254,0,0
336,-230,0,0,0,0,0,0,0,0,0,-1,1560,1254,0,0
343,-230,0,0,0,0,0,0,0,0,0,-1,1567,1254,0,0
350,-230,0,0,0,0,0,0,0,0,0,-1,1574,1254,0,0
357,-230,0,0,0,0,0,0,0,0,0,-1,1581,1254,0,0
364,-230,0,0,0,0,0,0,0,0,0,-1,1588,1254,0,0
371,-230,0,0,0,0,0,0,0,0,0,-1,1595,1254,0,0
378,-230,0,0,0,0,0,0,0,0,0,-1,1602,1254,0,0
385,-230,0,0,0,0,0,0,0,0,0,-1,1609,1254,0,0
392,-230,0,0,0,0,0,0,0,0,0,-1,1616,1254,0,0
399,-230,0,0,0,0,0,0,0,0,0,-1,1623,1254,0,0
406,-230,0,0,0,0,0,0,0,0,0,-1,1630,1254,0,0
413,-230,0,0,0,0,0,0,0,0,0,-1,1637,1254,0,0
420,-230,0,0,0,0,0,0,0,0,0,-1,1644,1254,0,0
427,-230,0,0,0,0,0,0,0,0,0,-1,1651,1254,0,0
434,-230,0,0,0,0,0,0,0,0,0,-1,1658,1254,0,0
441,-230,0,0,0,0,0,0,0,0,0,-1,1665,1254,0,0
448,-230,0,0,0,0,0,0,0,0,0,-1,1672,1254,0,0
455,-230,0,0,0,0,0,0,0,0,0,-1,1679,1254,0,0
462,-230,0,0,0,0,0,0,0,0,0,-1,1686,1254,0,0
469,-230,0,0,0,0,0,0,0,0,0,-1,1693,1254,0,0
476,-230,0,0,0,0,0,0,0,0,0,-1,1700,1254,0,0
483,-230,0,0,0,0,0,0,0,0,0,-1,1707,1254,0,0
490,-230,0,0,0,0,0,0,0,0,0,-1,1714,1254,0,0
497,-230,0,0,0,0,0,0,0,0,0,-1,1721,1254,0,0
504,-230,0,0,0,0,0,0,0,0,0,-1,1728,1254,0,0
511,-230,0,0,0,0,0,0,0,0,0,-1,1735,1254,0,0
518,-230,0,0,0,0,0,0,0,0,0,-1,1742,1254,0,0
525,-230,0,0,0,0,0,0,0,0,0,-1,1749,1254,0,0
532,-230,0,0,0,0,0,0,0,0,0,-1,1756,1254,0,0
539,-230,0,0,0,0,0,0,0,0,0,-1,1763,1254,0,0
546,-230,0,0,0,0,0,0,0,0,0,-1,1770,1254,0,0
553,-230,0,0,0,0,0,0,0,0,0,-1,1777,1254,0,0
560,-230,0,0,0,0,0,0,0,0,0,-1,1784,1254,0,0
567,-230,0,0,0,0,0,0,0,0,0,-1,1791,1254,0,0
574,-230,0,0,0,0,0,0,0,0,0,-1,1798,1254,0,0
581,-230,0,0,0,0,0,0,0,0,0,-1,1805,1254,0,0
588,-230,0,0,0,0,0,0,0,0,0,-1,1812,1254,0,0
595,-230,0,0,0,0,0,0,0,0,0,-1,1819,1254,0,0
602,-230,0,0,0,0,0,0,0,0,0,-1,1826,1254,0,0
609,-230,0,0,0,0,0,0,0,0,0,-1,1833,1254,0,0
616,-230,17.6637,3.05579,0.00419042,0.00652788,-0.00378365,0.00931919,0.00139911,-0.935194,0.00580292,0.0386824,1840,1254,17.6637,-3.05575
623,-230,17.6909,2.745,0.000757795,0.0069188,-0.00449998,0.00929168,-0.00161508,-1.08554,0.00679708,0.0374465,1847,1254,17.691,-2.74496
630,-230,17.6202,2.51404,-0.00150238,0.00734316,-0.00291368,0.00821666,-0.00237587,-1.27953,0.00641803,0.0320769,1854,1254,17.6202,-2.51405
637,-230,17.5138,2.49695,-0.00275683,0.00771031,8.95695e-05,0.00771107,-0.0027576,1.56224,0.00626557,0.0276974,1861,1254,17.5138,-2.49696
644,-230,17.4856,2.4729,-0.00358985,0.00747599,0.00289923,0.00818957,-0.00430343,1.32947,0.00732823,0.0223247,1868,1254,17.4856,-2.4729
651,-230,17.3545,2.35596,0,0,0,0,0,0,0,-1,1875,1254,17.3545,-2.356
658,-230,17.3777,2.46252,-0.00398153,0.00609255,0.00681153,0.00952716,-0.00741613,1.10377,0.00980749,0.0459152,1882,1254,17.3777,-2.46249
665,-230,17.3562,2.5448,-0.00384745,0.00524566,0.00793541,0.0098447,-0.00844649,1.04554,0.0105707,0.0440214,1889,1254,17.3562,-2.54486
672,-230,17.392,2.64307,-0.00369418,0.00424888,0.00869068,0.00983251,-0.00927781,0.999723,0.0110349,0.0440254,1896,1254,17.392,-2.64311
679,-230,17.4594,2.8114,0,0,0,0,0,0,0,-1,1903,1254,17.4593,-2.81137
686,-230,15.2437,4.67969,-0.0030721,0.00259059,0.00927482,0.00945661,-0.00993811,0.933541,0.0111987,0.0394324,1910,1254,15.2436,-4.67974
693,-230,15.1375,4.43103,-0.0025218,0.00168766,0.00887439,0.0087035,-0.00953763,0.901831,0.0105352,0.0184242,1917,1254,15.1374,-4.43101
700,-230,15.1598,4.34546,-0.00200667,0.00103347,0.00793827,0.0075959,-0.0085691,0.879996,0.0093385,0.011078,1924,1254,15.1598,-4.3455
707,-230,15.1454,4.23523,-0.00157924,0.000671932,0.00659151,0.00623327,-0.00714058,0.869964,0.00772732,0.00903945,1931,1254,15.1453,-4.23524
714,-230,15.1447,4.08423,-0.000993206,0.000449667,0.00479139,0.00457363,-0.00511717,0.860121,0.00559792,0.0115769,1938,1254,15.1446,-4.08418
721,-230,15.1631,3.93018,-0.000421957,0.000597934,0.00311753,0.00324695,-0.00307098,0.866467,0.00364813,0.0130054,1945,1254,15.1631,-3.93012
728,-230,15.1475,3.81104,-0.000128684,0.000824924,0.00140624,0.001833,-0.00113676,0.948847,0.00173022,0.0131686,1952,1254,15.1475,-3.81108
735,-230,15.1438,3.69141,-4.64571e-05,0.000628786,6.8247e-05,0.000635615,-5.32857e-05,1.47107,0.000442576,0.0131136,1959,1254,15.1438,-3.69146
742,-230,15.1404,3.56323,0.000523863,0.0013412,-0.00078311,0.00181586,4.92019e-05,-1.02589,0.00119451,0.0101238,1966,1254,15.1404,-3.56324
749,-230,15.1307,3.43372,0.000629726,0.00192157,-0.00150809,0.00291624,-0.000364944,-0.987731,0.00207652,0.00956626,1973,1254,15.1307,-3.43376
756,-230,15.1381,3.30078,0.000115194,0.00230445,-0.00225797,0.00371913,-0.00129949,-1.0111,0.00300766,0.0119724,1980,1254,15.1381,-3.30079
763,-230,15.1346,3.14746,-0.000901518,0.00254125,-0.00311587,0.00437962,-0.00273988,-1.03776,0.00414663,0.023677,1987,1254,15.1346,-3.1475
770,-230,15.0999,2.948,-0.0024517,0.00263891,-0.00414664,0.00495912,-0.00477191,-1.06066,0.00561856,0.0414418,1994,1254,15.0998,-2.94804
777,-230,15.6672,3.04565,-0.00462017,0.00259507,-0.00537752,0.00546299,-0.00748809,-1.08085,0.00750772,0.0488103,2001,1254,15.6673,-3.04561
784,-230,15.4626,2.68347,-0.00743387,0.00243955,-0.00686064,0.00595503,-0.0109494,-1.09727,0.00990072,0.046547,2008,1254,15.4627,-2.68349
791,-230,15.3676,2.35559,-0.0108583,0.00226827,-0.0085691,0.0064988,-0.0150888,-1.11221,0.0127883,0.0492124,2015,1254,15.3675,-2.35561
798,-230,0,0,0,0,0,0,0,0,0,-1,2022,1254,0,0
805,-230,0,0,0,0,0,0,0,0,0,-1,2029,1254,0,0
812,-230,0,0,0,0,0,0,0,0,0,-1,2036,1254,0,0
-700,-237,0,0,0,0,0,0,0,0,0,-1,524,1261,0,0
-693,-237,0,0,0,0,0,0,0,0,0,-1,531,1261,0,0
-686,-237,0,0,0,0,0,0,0,0,0,-1,538,1261,0,0
-679,-237,0,0,0,0,0,0,0,0,0,-1,545,1261,0,0
-672,-237,-12.7253,4.74231,0,0,0,0,0,0,0,-1,552,1261,-12.7254,-4.74228
-665,-237,-11.8062,3.87439,0.108568,-0.0204048,0.0257205,0.113508,-0.0253449,0.189757,0.0853838,0.0486809,559,1261,-11.8062,-3.87437
-658,-237,-10.7945,3.26123,0.0999804,-0.0153015,0.021181,0.103749,-0.01907,0.176074,0.0763209,0.0435568,566,1261,-10.7945,-3.26122
-651,-237,-10.6739,2.59802,0.0883859,-0.0110612,0.0174748,0.0913672,-0.0140425,0.168978,0.0660914,0.0441806,573,1261,-10.6739,-2.59807
-644,-237,-10.7155,2.38477,0.0753534,-0.00759469,0.014305,0.077751,-0.00999238,0.166069,0.0554657,0.0450074,580,1261,-10.7155,-2.38477
-637,-237,-8.08832,-0.84729,0,0,0,0,0,0,0,-1,587,1261,-8.08834,0.847274
-630,-237,-8.13776,0.0510254,0.0493648,-0.00262067,0.00913235,0.0509224,-0.00417829,0.168935,0.0354233,0.0441481,594,1261,-8.13774,-0.0509713
-623,-237,-8.24158,0.99585,0.0379345,-0.00104403,0.00701785,0.0391596,-0.00226905,0.172817,0.0268946,0.0286222,601,1261,-8.24159,-0.995818
-616,-237,-8.26569,1.20703,0.0285447,0.000220202,0.0048406,0.0293491,-0.000584203,0.164674,0.0197637,0.0135921,608,1261,-8.26567,-1.20707
-609,-237,-8.25415,1.36328,0.0202564,0.000698615,0.00358387,0.0208925,6.25737e-05,0.175645,0.0139075,0.0148966,615,1261,-8.25418,-1.36328
-602,-237,-8.24603,1.50818,0.0140905,0.000593125,0.00266393,0.0145973,8.63806e-05,0.187978,0.00970286,0.0113448,622,1261,-8.24604,-1.50824
-595,-237,-8.2724,1.67334,0.0101797,0.000237687,0.00136155,0.0103628,5.45955e-05,0.133671,0.00689038,0.0151703,629,1261,-8.27239,-1.67338
-588,-237,-8.27472,1.82947,0.00717228,6.36339e-05,0.0005625,0.00721652,1.93992e-05,0.0784781,0.00480456,0.0266018,636,1261,-8.2747,-1.82944
-581,-237,-8.27887,2.00537,0.00470384,-0.000598466,-0.00139264,0.00504736,-0.000941982,-0.241839,0.00371888,0.0246178,643,1261,-8.27888,-2.00537
-574,-237,-8.2677,2.14807,0.00377675,-0.000860873,-0.00254337,0.00489968,-0.00198381,-0.415775,0.00409131,0.0154841,650,1261,-8.26771,-2.14802
-567,-237,-8.1886,2.33276,0.0032587,-0.000884174,-0.00369232,0.00542095,-0.00304642,-0.529769,0.0049523,0.014498,657,1261,-8.18862,-2.33271
-560,-237,-8.06061,2.53625,0.00278859,-0.0007017,-0.00495194,0.0062939,-0.004207,-0.615985,0.00610247,0.0234159,664,1261,-8.06058,-2.53627
-553,-237,-7.85248,2.37695,0.00179204,-0.000212857,-0.00603033,0.00690267,-0.00532349,-0.703034,0.00707838,0.0483929,671,1261,-7.85249,-2.377
-546,-237,-7.60718,2.26367,0,0,0,0,0,0,0,-1,678,1261,-7.60717,-2.26364
-539,-237,-10.6149,0.780029,0,0,0,0,0,0,0,-1,685,1261,-10.6149,-0.779987
-532,-237,-10.65,0.512817,-0.00361682,0.00133908,-0.00889662,0.0080964,-0.0103741,-0.921219,0.010691,0.0459583,692,1261,-10.65,-0.512791
-525,-237,-10.6735,0.37561,-0.00615109,0.00196772,-0.00916379,0.00793098,-0.0121144,-0.9939,0.0116569,0.0498685,699,1261,-10.6735,-0.375589
-518,-237,-10.962,0.505493,-0.00897161,0.00225451,-0.00842968,0.00676894,-0.013486,-1.07912,0.0119066,0.047652,706,1261,-10.962,-0.505554
-511,-237,-11.0429,0.584473,-0.0116108,0.00156686,-0.00600408,0.00389215,-0.0139361,-1.2013,0.0108239,0.0429919,713,1261,-11.0429,-0.584511
-504,-237,-11.0809,0.689209,-0.0130256,-0.000590651,-0.000705647,-0.000550736,-0.0130655,-1.51429,0.0085327,0.0430913,720,1261,-11.0809,-0.689173
-497,-237,-11.1688,0.810181,-0.0124769,-0.00597969,0.00757403,-0.000986978,-0.0174696,0.987989,0.0113318,0.0472202,727,1261,-11.1688,-0.810208
-490,-237,0,0,0,0,0,0,0,0,0,-1,734,1261,0,0
-483,-237,0,0,0,0,0,0,0,0,0,-1,741,1261,0,0
-476,-237,0,0,0,0,0,0,0,0,0,-1,748,1261,0,0
-469,-237,0,0,0,0,0,0,0,0,0,-1,755,1261,0,0
-462,-237,0,0,0,0,0,0,0,0,0,-1,762,1261,0,0
-455,-237,0,0,0,0,0,0,0,0,0,-1,769,1261,0,0
-448,-237,0,0,0,0,0,0,0,0,0,-1,776,1261,0,0
-441,-237,0,0,0,0,0,0,0,0,0,-1,783,1261,0,0
-434,-237,0,0,0,0,0,0,0,0,0,-1,790,1261,0,0
-427,-237,0,0,0,0,0,0,0,0,0,-1,797,1261,0,0
-420,-237,0,0,0,0,0,0,0,0,0,-1,804,1261,0,0
-413,-237,0,0,0,0,0,0,0,0,0,-1,811,1261,0,0
-406,-237,0,0,0,0,0,0,0,0,0,-1,818,1261,0,0
-399,-237,0,0,0,0,0,0,0,0,0,-1,825,1261,0,0
-392,-237,0,0,0,0,0,0,0,0,0,-1,832,1261,0,0
-385,-237,0,0,0,0,0,0,0,0,0,-1,839,1261,0,0
-378,-237,0,0,0,0,0,0,0,0,0,-1,846,1261,0,0
-371,-237,0,0,0,0,0,0,0,0,0,-1,853,1261,0,0
-364,-237,0,0,0,0,0,0,0,0,0,-1,860,1261,0,0
-357,-237,0,0,0,0,0,0,0,0,0,-1,867,1261,0,0
-350,-237,0,0,0,0,0,0,0,0,0,-1,874,1261,0,0
-343,-237,0,0,0,0,0,0,0,0,0,-1,881,1261,0,0
-336,-237,0,0,0,0,0,0,0,0,0,-1,888,1261,0,0
-329,-237,0,0,0,0,0,0,0,0,0,-1,895,1261,0,0
-322,-237,0,0,0,0,0,0,0,0,0,-1,902,1261,0,0
-315,-237,0,0,0,0,0,0,0,0,0,-1,909,1261,0,0
-308,-237,0,0,0,0,0,0,0,0,0,-1,916,1261,0,0
-301,-237,0,0,0,0,0,0,0,0,0,-1,923,1261,0,0
-294,-237,0,0,0,0,0,0,0,0,0,-1,930,1261,0,0
-287,-237,0,0,0,0,0,0,0,0,0,-1,937,1261,0,0
-280,-237,0,0,0,0,0,0,0,0,0,-1,944,1261,0,0
-273,-237,0,0,0,0,0,0,0,0,0,-1,951,1261,0,0
-266,-237,0,0,0,0,0,0,0,0,0,-1,958,1261,0,0
-259,-237,0,0,0,0,0,0,0,0,0,-1,965,1261,0,0
-252,-237,0,0,0,0,0,0,0,0,0,-1,972,1261,0,0
-245,-237,0,0,0,0,0,0,0,0,0,-1,979,1261,0,0
-238,-237,0,0,0,0,0,0,0,0,0,-1,986,1261,0,0
-231,-237,0,0,0,0,0,0,0,0,0,-1,993,1261,0,0
-224,-237,0,0,0,0,0,0,0,0,0,-1,1000,1261,0,0
-217,-237,0,0,0,0,0,0,0,0,0,-1,1007,1261,0,0
-210,-237,0,0,0,0,0,0,0,0,0,-1,1014,1261,0,0
-203,-237,0,0,0,0,0,0,0,0,0,-1,1021,1261,0,0
-196,-237,0,0,0,0,0,0,0,0,0,-1,1028,1261,0,0
-189,-237,0,0,0,0,0,0,0,0,0,-1,1035,1261,0,0
-182,-237,0,0,0,0,0,0,0,0,0,-1,1042,1261,0,0
-175,-237,0,0,0,0,0,0,0,0,0,-1,1049,1261,0,0
-168,-237,0,0,0,0,0,0,0,0,0,-1,1056,1261,0,0
-161,-237,0,0,0,0,0,0,0,0,0,-1,1063,1261,0,0
-154,-237,0,0,0,0,0,0,0,0,0,-1,1070,1261,0,0
-147,-237,0,0,0,0,0,0,0,0,0,-1,1077,1261,0,0
-140,-237,0,0,0,0,0,0,0,0,0,-1,1084,1261,0,0
-133,-237,0,0,0,0,0,0,0,0,0,-1,1091,1261,0,0
-126,-237,0,0,0,0,0,0,0,0,0,-1,1098,1261,0,0
-119,-237,0,0,0,0,0,0,0,0,0,-1,1105,1261,0,0
-112,-237,0,0,0,0,0,0,0,0,0,-1,1112,1261,0,0
-105,-237,0,0,0,0,0,0,0,0,0,-1,1119,1261,0,0
-98,-237,0,0,0,0,0,0,0,0,0,-1,1126,1261,0,0
-91,-237,0,0,0,0,0,0,0,0,0,-1,1133,1261,0,0
-84,-237,0,0,0,0,0,0,0,0,0,-1,1140,1261,0,0
-77,-237,0,0,0,0,0,0,0,0,0,-1,1147,1261,0,0
-70,-237,0,0,0,0,0,0,0,0,0,-1,1154,1261,0,0
-63,-237,0,0,0,0,0,0,0,0,0,-1,1161,1261,0,0
-56,-237,0,0,0,0,0,0,0,0,0,-1,1168,1261,0,0
-49,-237,0,0,0,0,0,0,0,0,0,-1,1175,1261,0,0
-42,-237,0,0,0,0,0,0,0,0,0,-1,1182,1261,0,0
-35,-237,0,0,0,0,0,0,0,0,0,-1,1189,1261,0,0
-28,-237,0,0,0,0,0,0,0,0,0,-1,1196,1261,0,0
-21,-237,0,0,0,0,0,0,0,0,0,-1,1203,1261,0,0
-14,-237,0,0,0,0,0,0,0,0,0,-1,1210,1261,0,0
-7,-237,0,0,0,0,0,0,0,0,0,-1,1217,1261,0,0
0,-237,0,0,0,0,0,0,0,0,0,-1,1224,1261,0,0
7,-237,0,0,0,0,0,0,0,0,0,-1,1231,1261,0,0
14,-237,0,0,0,0,0,0,0,0,0,-1,1238,1261,0,0
21,-237,0,0,0,0,0,0,0,0,0,-1,1245,1261,0,0
28,-237,0,0,0,0,0,0,0,0,0,-1,1252,1261,0,0
35,-237,0,0,0,0,0,0,0,0,0,-1,1259,1261,0,0
42,-237,0,0,0,0,0,0,0,0,0,-1,1266,1261,0,0
49,-237,0,0,0,0,0,0,0,0,0,-1,1273,1261,0,0
56,-237,0,0,0,0,0,0,0,0,0,-1,1280,1261,0,0
63,-237,0,0,0,0,0,0,0,0,0,-1,1287,1261,0,0
70,-237,0,0,0,0,0,0,0,0,0,-1,1294,1261,0,0
77,-237,0,0,0,0,0,0,0,0,0,-1,1301,1261,0,0
84,-237,0,0,0,0,0,0,0,0,0,-1,1308,1261,0,0
91,-237,0,0,0,0,0,0,0,0,0,-1,1315,1261,0,0
98,-237,0,0,0,0,0,0,0,0,0,-1,1322,1261,0,0
105,-237,0,0,0,0,0,0,0,0,0,-1,1329,1261,0,0
112,-237,0,0,0,0,0,0,0,0,0,-1,1336,1261,0,0
119,-237,0,0,0,0,0,0,0,0,0,-1,1343,1261,0,0
126,-237,0,0,0,0,0,0,0,0,0,-1,1350,1261,0,0
133,-237,0,0,0,0,0,0,0,0,0,-1,1357,1261,0,0
140,-237,0,0,0,0,0,0,0,0,0,-1,1364,1261,0,0
147,-237,0,0,0,0,0,0,0,0,0,-1,1371,1261,0,0
154,-237,0,0,0,0,0,0,0,0,0,-1,1378,1261,0,0
161,-237,0,0,0,0,0,0,0,0,0,-1,1385,1261,0,0
168,-237,0,0,0,0,0,0,0,0,0,-1,1392,1261,0,0
175,-237,0,0,0,0,0,0,0,0,0,-1,1399,1261,0,0
182,-237,0,0,0,0,0,0,0,0,0,-1,1406,1261,0,0
189,-237,0,0,0,0,0,0,0,0,0,-1,1413,1261,0,0
196,-237,0,0,0,0,0,0,0,0,0,-1,1420,1261,0,0
203,-237,0,0,0,0,0,0,0,0,0,-1,1427,1261,0,0
210,-237,0,0,0,0,0,0,0,0,0,-1,1434,1261,0,0
217,-237,0,0,0,0,0,0,0,0,0,-1,1441,1261,0,0
224,-237,0,0,0,0,0,0,0,0,0,-1,1448,1261,0,0
231,-237,0,0,0,0,0,0,0,0,0,-1,1455,1261,0,0
238,-237,0,0,0,0,0,0,0,0,0,-1,1462,1261,0,0
245,-237,0,0,0,0,0,0,0,0,0,-1,1469,1261,0,0
252,-237,0,0,0,0,0,0,0,0,0,-1,1476,1261,0,0
259,-237,0,0,0,0,0,0,0,0,0,-1,1483,1261,0,0
266,-237,0,0,0,0,0,0,0,0,0,-1,1490,1261,0,0
273,-237,0,0,0,0,0,0,0,0,0,-1,1497,1261,0,0
280,-237,0,0,0,0,0,0,0,0,0,-1,1504,1261,0,0
287,-237,0,0,0,0,0,0,0,0,0,-1,1511,1261,0,0
294,-237,0,0,0,0,0,0,0,0,0,-1,1518,1261,0,0
301,-237,0,0,0,0,0,0,0,0,0,-1,1525,1261,0,0
308,-237,0,0,0,0,0,0,0,0,0,-1,1532,1261,0,0
315,-237,0,0,0,0,0,0,0,0,0,-1,1539,1261,0,0
322,-237,0,0,0,0,0,0,0,0,0,-1,1546,1261,0,0
329,-237,0,0,0,0,0,0,0,0,0,-1,1553,1261,0,0
336,-237,0,0,0,0,0,0,0,0,0,-1,1560,1261,0,0
343,-237,0,0,0,0,0,0,0,0,0,-1,1567,1261,0,0
350,-237,0,0,0,0,0,0,0,0,0,-1,1574,1261,0,0
357,-237,0,0,0,0,0,0,0,0,0,-1,1581,1261,0,0
364,-237,0,0,0,0,0,0,0,0,0,-1,1588,1261,0,0
371,-237,0,0,0,0,0,0,0,0,0,-1,1595,1261,0,0
378,-237,0,0,0,0,0,0,0,0,0,-1,1602,1261,0,0
385,-237,0,0,0,0,0,0,0,0,0,-1,1609,1261,0,0
392,-237,0,0,0,0,0,0,0,0,0,-1,1616,1261,0,0
399,-237,0,0,0,0,0,0,0,0,0,-1,1623,1261,0,0
406,-237,0,0,0,0,0,0,0,0,0,-1,1630,1261,0,0
413,-237,0,0,0,0,0,0,0,0,0,-1,1637,1261,0,0
420,-237,0,0,0,0,0,0,0,0,0,-1,1644,1261,0,0
427,-237,0,0,0,0,0,0,0,0,0,-1,1651,1261,0,0
434,-237,0,0,0,0,0,0,0,0,0,-1,1658,1261,0,0
441,-237,0,0,0,0,0,0,0,0,0,-1,1665,1261,0,0
448,-237,0,0,0,0,0,0,0,0,0,-1,1672,1261,0,0
455,-237,0,0,0,0,0,0,0,0,0,-1,1679,1261,0,0
462,-237,0,0,0,0,0,0,0,0,0,-1,1686,1261,0,0
469,-237,0,0,0,0,0,0,0,0,0,-1,1693,1261,0,0
476,-237,0,0,0,0,0,0,0,0,0,-1,1700,1261,0,0
483,-237,0,0,0,0,0,0,0,0,0,-1,1707,1261,0,0
490,-237,0,0,0,0,0,0,0,0,0,-1,1714,1261,0,0
497,-237,0,0,0,0,0,0,0,0,0,-1,1721,1261,0,0
504,-237,0,0,0,0,0,0,0,0,0,-1,1728,1261,0,0
511,-237,0,0,0,0,0,0,0,0,0,-1,1735,1261,0,0
518,-237,0,0,0,0,0,0,0,0,0,-1,1742,1261,0,0
525,-237,0,0,0,0,0,0,0,0,0,-1,1749,1261,0,0
532,-237,0,0,0,0,0,0,0,0,0,-1,1756,1261,0,0
539,-237,0,0,0,0,0,0,0,0,0,-1,1763,1261,0,0
546,-237,0,0,0,0,0,0,0,0,0,-1,1770,1261,0,0
553,-237,0,0,0,0,0,0,0,0,0,-1,1777,1261,0,0
560,-237,0,0,0,0,0,0,0,0,0,-1,1784,1261,0,0
567,-237,0,0,0,0,0,0,0,0,0,-1,1791,1261,0,0
574,-237,0,0,0,0,0,0,0,0,0,-1,1798,1261,0,0
581,-237,0,0,0,0,0,0,0,0,0,-1,1805,1261,0,0
588,-237,0,0,0,0,0,0,0,0,0,-1,1812,1261,0,0
595,-237,0,0,0,0,0,0,0,0,0,-1,1819,1261,0,0
602,-237,0,0,0,0,0,0,0,0,0,-1,1826,1261,0,0
609,-237,0,0,0,0,0,0,0,0,0,-1,1833,1261,0,0
616,-237,17.6913,2.7572,0.00476827,0.00671587,-0.00378097,0.00964643,0.00183772,-0.911435,0.00591433,0.0376963,1840,1261,17.6913,-2.75722
623,-237,17.7643,2.69385,0.000410326,0.00791178,-0.00423175,0.00981576,-0.00149365,-1.148,0.00709433,0.0346016,1847,1261,17.7643,-2.69385
630,-237,17.6711,2.6012,-0.00281485,0.00884069,-0.00243316,0.00932823,-0.00330239,-1.37304,0.00756386,0.0285594,1854,1261,17.6711,-2.60124
637,-237,17.4788,2.47388,-0.0047777,0.00908972,0.000351267,0.00909861,-0.00478659,1.54549,0.00814446,0.0240855,1861,1261,17.4788,-2.47388
644,-237,17.3217,2.25073,-0.00588465,0.0086453,0.00284261,0.00918163,-0.00642098,1.38431,0.00905505,0.0452379,1868,1261,17.3216,-2.25074
651,-237,17.0959,2.18591,0,0,0,0,0,0,0,-1,1875,1261,17.0959,-2.18593
658,-237,17.1134,2.29639,-0.00620338,0.00684962,0.00625912,0.00936589,-0.00871965,1.18855,0.0104439,0.0471133,1882,1261,17.1135,-2.29642
665,-237,16.8635,2.35278,-0.00593899,0.00583786,0.00723256,0.00927593,-0.00937705,1.12705,0.0107694,0.0454248,1889,1261,16.8635,-2.35278
672,-237,16.8726,2.50574,-0.00562165,0.00471987,0.00799724,0.00907237,-0.00997416,1.07238,0.0110006,0.0454597,1896,1261,16.8725,-2.50574
679,-237,15.2848,4.50513,-0.00504627,0.00388853,0.0085714,0.00908687,-0.0102446,1.02563,0.0111677,0.0478627,1903,1261,15.2848,-4.50515
686,-237,15.2164,4.68835,-0.0042975,0.00275555,0.00874505,0.00865835,-0.0102003,0.977055,0.0109002,0.0281652,1910,1261,15.2164,-4.6884
693,-237,14.9905,4.48364,-0.00326055,0.0017221,0.00835792,0.0079521,-0.00949056,0.930245,0.0100836,0.0158071,1917,1261,14.9905,-4.48361
700,-237,15.0095,4.35168,-0.00226394,0.00109933,0.00737401,0.00698103,-0.00814563,0.897506,0.008742,0.010948,1924,1261,15.0095,-4.35163
707,-237,15.0167,4.22693,-0.00151865,0.000782487,0.00598577,0.00572726,-0.00646343,0.880349,0.00704257,0.00919221,1931,1261,15.0168,-4.22688
714,-237,15.0089,4.09424,-0.00062382,0.000643717,0.00416343,0.00422134,-0.00420144,0.86093,0.0048629,0.0112644,1938,1261,15.0089,-4.09424
721,-237,14.9979,3.94592,0.000100231,0.00093318,0.0026,0.00314985,-0.00211644,0.864815,0.00305995,0.0132208,1945,1261,14.9979,-3.94598
728,-237,15.0261,3.80505,0.000271286,0.0013441,0.0010646,0.00199979,-0.000384405,1.01876,0.00147809,0.013376,1952,1261,15.0261,-3.80506
735,-237,15.0144,3.65039,9.64081e-05,0.00126122,-5.09709e-05,0.00126344,9.41819e-05,-1.52715,0.000812722,0.0174261,1959,1261,15.0144,-3.65036
742,-237,14.9982,3.57275,0.000202916,0.00203765,-0.000694234,0.00227073,-3.01615e-05,-1.24689,0.00152397,0.0138057,1966,1261,14.9981,-3.57273
749,-237,14.9929,3.44897,-0.000352028,0.00272104,-0.00117657,0.00311977,-0.000750759,-1.24405,0.00237007,0.00931005,1973,1261,14.9929,-3.44896
756,-237,14.9937,3.28577,-0.00175246,0.00322045,-0.00165189,0.00371916,-0.00225117,-1.2776,0.00348153,0.0129036,1980,1261,14.9937,-3.28574
763,-237,14.9961,3.08557,-0.00399459,0.0035649,-0.00217399,0.00414551,-0.00457521,-1.30982,0.00503695,0.0272585,1987,1261,14.9961,-3.08562
770,-237,14.9916,4.19189,0,0,0,0,0,0,0,-1,1994,1261,14.9916,-4.19193
777,-237,15.1204,3.60413,-0.0115493,0.00359678,-0.00350703,0.00436941,-0.012322,-1.35395,0.00999472,0.0436193,2001,1261,15.1204,-3.60415
784,-237,15.2058,2.87268,-0.0171215,0.00317266,-0.00439556,0.0040838,-0.0180327,-1.36641,0.0135891,0.0450987,2008,1261,15.2058,-2.87271
791,-237,15.1809,2.34399,-0.0239758,0.00240792,-0.0054404,0.00348572,-0.0250536,-1.37522,0.0179773,0.0448531,2015,1261,15.1809,-2.34402
798,-237,0,0,0,0,0,0,0,0,0,-1,2022,1261,0,0
805,-237,0,0,0,0,0,0,0,0,0,-1,2029,1261,0,0
812,-237,0,0,0,0,0,0,0,0,0,-1,2036,1261,0,0
-700,-244,0,0,0,0,0,0,0,0,0,-1,524,1268,0,0
-693,-244,0,0,0,0,0,0,0,0,0,-1,531,1268,0,0
-686,-244,0,0,0,0,0,0,0,0,0,-1,538,1268,0,0
-679,-244,0,0,0,0,0,0,0,0,0,-1,545,1268,0,0
-672,-244,-9.09045,4.32629,0,0,0,0,0,0,0,-1,552,1268,-9.09047,-4.32625
-665,-244,-12.4455,4.1488,0,0,0,0,0,0,0,-1,559,1268,-12.4455,-4.14878
-658,-244,-12.1064,2.23694,0,0,0,0,0,0,0,-1,566,1268,-12.1064,-2.23699
-651,-244,-11.801,2.2887,0.0860785,-0.00665423,0.017336,0.0892135,-0.00978915,0.178899,0.0629927,0.0437136,573,1268,-11.801,-2.28872
-644,-244,-11.462,2.45007,0.0745004,-0.00334493,0.0145611,0.0771349,-0.00597944,0.178992,0.0535278,0.0441084,580,1268,-11.462,-2.45008
-637,-244,-8.23499,-1.05688,0.0621294,-0.000847853,0.0120357,0.0643511,-0.00306964,0.182544,0.0439597,0.0456971,587,1268,-8.23498,1.05686
-630,-244,-8.24207,-0.0800781,0.0499486,0.000920037,0.00972922,0.0518087,-0.000940055,0.188907,0.0348567,0.0418796,594,1268,-8.24207,0.0800578
-623,-244,-7.94751,0.900146,0.0387158,0.00201324,0.00765578,0.0402487,0.000480341,0.197614,0.0266738,0.031047,601,1268,-7.94753,-0.900196
-616,-244,-8.10938,1.2063,0.0292515,0.00277698,0.00552608,0.0303587,0.00166981,0.197735,0.0197061,0.0163539,608,1268,-8.10938,-1.20626
-609,-244,-8.08337,1.33289,0.0209452,0.00277984,0.00426373,0.0218962,0.00182885,0.219449,0.0140276,0.0141775,615,1268,-8.0834,-1.33285
-602,-244,-8.06573,1.49036,0.0146531,0.00226797,0.00324187,0.0154503,0.00147072,0.24114,0.00984666,0.0147839,622,1268,-8.06572,-1.49031
-595,-244,-8.10132,1.65833,0.010546,0.00133764,0.00198325,0.010955,0.000928666,0.203365,0.0070143,0.0157173,629,1268,-8.10132,-1.65831
-588,-244,-8.09875,1.82361,0.00717488,0.000588672,0.00116648,0.00737538,0.00038818,0.170214,0.00479277,0.0205377,636,1268,-8.09877,-1.82362
-581,-244,-8.09943,1.99292,0.00420059,-0.000410835,-0.000997972,0.0044073,-0.000617544,-0.20424,0.0031642,0.0177956,643,1268,-8.09942,-1.99292
-574,-244,-8.1026,2.1521,0.00315757,-0.000812223,-0.00230704,0.00421607,-0.00187072,-0.430158,0.00360012,0.0132614,650,1268,-8.10258,-2.15207
-567,-244,-8.0799,2.33789,0.00265963,-0.000929022,-0.00370063,0.00497801,-0.0032474,-0.559663,0.00478385,0.0102007,657,1268,-8.07988,-2.3379
-560,-244,-8.05164,2.46838,0.00212451,-0.000758495,-0.00519918,0.00607832,-0.00471231,-0.650167,0.00624659,0.0131339,664,1268,-8.05162,-2.4684
-553,-244,-7.92224,2.57605,0.000985346,-0.000270979,-0.00646609,0.00685371,-0.00613935,-0.736977,0.00750532,0.0361224,671,1268,-7.92225,-2.57611
-546,-244,-7.71075,2.6626,0,0,0,0,0,0,0,-1,678,1268,-7.71072,-2.66262
-539,-244,-10.9047,3.39087,0,0,0,0,0,0,0,-1,685,1268,-10.9047,-3.39093
-532,-244,-10.86,2.94434,-0.00477698,0.00109714,-0.00967889,0.00827479,-0.0119546,-0.932708,0.0117437,0.0461723,692,1268,-10.86,-2.94433
-525,-244,-10.6641,0.375122,-0.00744441,0.00152059,-0.0099524,0.00795336,-0.0138772,-0.996989,0.0127576,0.048889,699,1268,-10.6641,-0.375071
-518,-244,-10.9029,0.53125,-0.0103751,0.0013736,-0.00913787,0.00636243,-0.0153639,-1.07107,0.0128976,0.0454023,706,1268,-10.9029,-0.531218
-511,-244,-10.9393,0.523804,-0.0131823,-3.01717e-05,-0.00656409,0.00268526,-0.0158978,-1.17855,0.0115977,0.0456316,713,1268,-10.9392,-0.523769
-504,-244,-10.9598,0.58252,-0.014954,-0.00339243,-0.00128157,-0.00325208,-0.0150944,-1.46171,0.00917309,0.0472627,720,1268,-10.9598,-0.582525
-497,-244,-11.2831,1.03857,-0.0147885,-0.0102757,0.00690565,-0.00526714,-0.019797,0.943303,0.0118395,0.0478147,727,1268,-11.2831,-1.03855
-490,-244,0,0,0,0,0,0,0,0,0,-1,734,1268,0,0
-483,-244,0,0,0,0,0,0,0,0,0,-1,741,1268,0,0
-476,-244,0,0,0,0,0,0,0,0,0,-1,748,1268,0,0
-469,-244,0,0,0,0,0,0,0,0,0,-1,755,1268,0,0
-462,-244,0,0,0,0,0,0,0,0,0,-1,762,1268,0,0
-455,-244,0,0,0,0,0,0,0,0,0,-1,769,1268,0,0
-448,-244,0,0,0,0,0,0,0,0,0,-1,776,1268,0,0
-441,-244,0,0,0,0,0,0,0,0,0,-1,783,1268,0,0
-434,-244,0,0,0,0,0,0,0,0,0,-1,790,1268,0,0
-427,-244,0,0,0,0,0,0,0,0,0,-1,797,1268,0,0
-420,-244,0,0,0,0,0,0,0,0,0,-1,804,1268,0,0
-413,-244,0,0,0,0,0,0,0,0,0,-1,811,1268,0,0
-406,-244,0,0,0,0,0,0,0,0,0,-1,818,1268,0,0
-399,-244,0,0,0,0,0,0,0,0,0,-1,825,1268,0,0
-392,-244,0,0,0,0,0,0,0,0,0,-1,832,1268,0,0
-385,-244,0,0,0,0,0,0,0,0,0,-1,839,1268,0,0
-378,-244,0,0,0,0,0,0,0,0,0,-1,846,1268,0,0
-371,-244,0,0,0,0,0,0,0,0,0,-1,853,1268,0,0
-364,-244,0,0,0,0,0,0,0,0,0,-1,860,1268,0,0
-357,-244,0,0,0,0,0,0,0,0,0,-1,867,1268,0,0
-350,-244,0,0,0,0,0,0,0,0,0,-1,874,1268,0,0
-343,-244,0,0,0,0,0,0,0,0,0,-1,881,1268,0,0
-336,-244,0,0,0,0,0,0,0,0,0,-1,888,1268,0,0
-329,-244,0,0,0,0,0,0,0,0,0,-1,895,1268,0,0
-322,-244,0,0,0,0,0,0,0,0,0,-1,902,1268,0,0
-315,-244,0,0,0,0,0,0,0,0,0,-1,909,1268,0,0
-308,-244,0,0,0,0,0,0,0,0,0,-1,916,1268,0,0
-301,-244,0,0,0,0,0,0,0,0,0,-1,923,1268,0,0
-294,-244,0,0,0,0,0,0,0,0,0,-1,930,1268,0,0
-287,-244,0,0,0,0,0,0,0,0,0,-1,937,1268,0,0
-280,-244,0,0,0,0,0,0,0,0,0,-1,944,1268,0,0
-273,-244,0,0,0,0,0,0,0,0,0,-1,951,1268,0,0
-266,-244,0,0,0,0,0,0,0,0,0,-1,958,1268,0,0
-259,-244,0,0,0,0,0,0,0,0,0,-1,965,1268,0,0
-252,-244,0,0,0,0,0,0,0,0,0,-1,972,1268,0,0
-245,-244,0,0,0,0,0,0,0,0,0,-1,979,1268,0,0
-238,-244,0,0,0,0,0,0,0,0,0,-1,986,1268,0,0
-231,-244,0,0,0,0,0,0,0,0,0,-1,993,1268,0,0
-224,-244,0,0,0,0,0,0,0,0,0,-1,1000,1268,0,0
-217,-244,0,0,0,0,0,0,0,0,0,-1,1007,1268,0,0
-210,-244,0,0,0,0,0,0,0,0,0,-1,1014,1268,0,0
-203,-244,0,0,0,0,0,0,0,0,0,-1,1021,1268,0,0
-196,-244,0,0,0,0,0,0,0,0,0,-1,1028,1268,0,0
-189,-244,0,0,0,0,0,0,0,0,0,-1,1035,1268,0,0
-182,-244,0,0,0,0,0,0,0,0,0,-1,1042,1268,0,0
-175,-244,0,0,0,0,0,0,0,0,0,-1,1049,1268,0,0
-168,-244,0,0,0,0,0,0,0,0,0,-1,1056,1268,0,0
-161,-244,0,0,0,0,0,0,0,0,0,-1,1063,1268,0,0
-154,-244,0,0,0,0,0,0,0,0,0,-1,1070,1268,0,0
-147,-244,0,0,0,0,0,0,0,0,0,-1,1077,1268,0,0
-140,-244,0,0,0,0,0,0,0,0,0,-1,1084,1268,0,0
-133,-244,0,0,0,0,0,0,0,0,0,-1,1091,1268,0,0
-126,-244,0,0,0,0,0,0,0,0,0,-1,1098,1268,0,0
-119,-244,0,0,0,0,0,0,0,0,0,-1,1105,1268,0,0
-112,-244,0,0,0,0,0,0,0,0,0,-1,1112,1268,0,0
-105,-244,0,0,0,0,0,0,0,0,0,-1,1119,1268,0,0
-98,-244,0,0,0,0,0,0,0,0,0,-1,1126,1268,0,0
-91,-244,0,0,0,0,0,0,0,0,0,-1,1133,1268,0,0
-84,-244,0,0,0,0,0,0,0,0,0,-1,1140,1268,0,0
-77,-244,0,0,0,0,0,0,0,0,0,-1,1147,1268,0,0
-70,-244,0,0,0,0,0,0,0,0,0,-1,1154,1268,0,0
-63,-244,0,0,0,0,0,0,0,0,0,-1,1161,1268,0,0
-56,-244,0,0,0,0,0,0,0,0,0,-1,1168,1268,0,0
-49,-244,0,0,0,0,0,0,0,0,0,-1,1175,1268,0,0
-42,-244,0,0,0,0,0,0,0,0,0,-1,1182,1268,0,0
-35,-244,0,0,0,0,0,0,0,0,0,-1,1189,1268,0,0
-28,-244,0,0,0,0,0,0,0,0,0,-1,1196,1268,0,0
-21,-244,0,0,0,0,0,0,0,0,0,-1,1203,1268,0,0
-14,-244,0,0,0,0,0,0,0,0,0,-1,1210,1268,0,0
-7,-244,0,0,0,0,0,0,0,0,0,-1,1217,1268,0,0
0,-244,0,0,0,0,0,0,0,0,0,-1,1224,1268,0,0
7,-244,0,0,0,0,0,0,0,0,0,-1,1231,1268,0,0
14,-244,0,0,0,0,0,0,0,0,0,-1,1238,1268,0,0
21,-244,0,0,0,0,0,0,0,0,0,-1,1245,1268,0,0
28,-244,0,0,0,0,0,0,0,0,0,-1,1252,1268,0,0
35,-244,0,0,0,0,0,0,0,0,0,-1,1259,1268,0,0
42,-244,0,0,0,0,0,0,0,0,0,-1,1266,1268,0,0
49,-244,0,0,0,0,0,0,0,0,0,-1,1273,1268,0,0
56,-244,0,0,0,0,0,0,0,0,0,-1,1280,1268,0,0
63,-244,0,0,0,0,0,0,0,0,0,-1,1287,1268,0,0
70,-244,0,0,0,0,0,0,0,0,0,-1,1294,1268,0,0
77,-244,0,0,0,0,0,0,0,0,0,-1,1301,1268,0,0
84,-244,0,0,0,0,0,0,0,0,0,-1,1308,1268,0,0
91,-244,0,0,0,0,0,0,0,0,0,-1,1315,1268,0,0
98,-244,0,0,0,0,0,0,0,0,0,-1,1322,1268,0,0
105,-244,0,0,0,0,0,0,0,0,0,-1,1329,1268,0,0
112,-244,0,0,0,0,0,0,0,0,0,-1,1336,1268,0,0
119,-244,0,0,0,0,0,0,0,0,0,-1,1343,1268,0,0
126,-244,0,0,0,0,0,0,0,0,0,-1,1350,1268,0,0
133,-244,0,0,0,0,0,0,0,0,0,-1,1357,1268,0,0
140,-244,0,0,0,0,0,0,0,0,0,-1,1364,1268,0,0
147,-244,0,0,0,0,0,0,0,0,0,-1,1371,1268,0,0
154,-244,0,0,0,0,0,0,0,0,0,-1,1378,1268,0,0
161,-244,0,0,0,0,0,0,0,0,0,-1,1385,1268,0,0
168,-244,0,0,0,0,0,0,0,0,0,-1,1392,1268,0,0
175,-244,0,0,0,0,0,0,0,0,0,-1,1399,1268,0,0
182,-244,0,0,0,0,0,0,0,0,0,-1,1406,1268,0,0
189,-244,0,0,0,0,0,0,0,0,0,-1,1413,1268,0,0
196,-244,0,0,0,0,0,0,0,0,0,-1,1420,1268,0,0
203,-244,0,0,0,0,0,0,0,0,0,-1,1427,1268,0,0
210,-244,0,0,0,0,0,0,0,0,0,-1,1434,1268,0,0
217,-244,0,0,0,0,0,0,0,0,0,-1,1441,1268,0,0
224,-244,0,0,0,0,0,0,0,0,0,-1,1448,1268,0,0
231,-244,0,0,0,0,0,0,0,0,0,-1,1455,1268,0,0
238,-244,0,0,0,0,0,0,0,0,0,-1,1462,1268,0,0
245,-244,0,0,0,0,0,0,0,0,0,-1,1469,1268,0,0
252,-244,0,0,0,0,0,0,0,0,0,-1,1476,1268,0,0
259,-244,0,0,0,0,0,0,0,0,0,-1,1483,1268,0,0
266,-244,0,0,0,0,0,0,0,0,0,-1,1490,1268,0,0
273,-244,0,0,0,0,0,0,0,0,0,-1,1497,1268,0,0
280,-244,0,0,0,0,0,0,0,0,0,-1,1504,1268,0,0
287,-244,0,0,0,0,0,0,0,0,0,-1,1511,1268,0,0
294,-244,0,0,0,0,0,0,0,0,0,-1,1518,1268,0,0
301,-244,0,0,0,0,0,0,0,0,0,-1,1525,1268,0,0
308,-244,0,0,0,0,0,0,0,0,0,-1,1532,1268,0,0
315,-244,0,0,0,0,0,0,0,0,0,-1,1539,1268,0,0
322,-244,0,0,0,0,0,0,0,0,0,-1,1546,1268,0,0
329,-244,0,0,0,0,0,0,0,0,0,-1,1553,1268,0,0
336,-244,0,0,0,0,0,0,0,0,0,-1,1560,1268,0,0
343,-244,0,0,0,0,0,0,0,0,0,-1,1567,1268,0,0
350,-244,0,0,0,0,0,0,0,0,0,-1,1574,1268,0,0
357,-244,0,0,0,0,0,0,0,0,0,-1,1581,1268,0,0
364,-244,0,0,0,0,0,0,0,0,0,-1,1588,1268,0,0
371,-244,0,0,0,0,0,0,0,0,0,-1,1595,1268,0,0
378,-244,0,0,0,0,0,0,0,0,0,-1,1602,1268,0,0
385,-244,0,0,0,0,0,0,0,0,0,-1,1609,1268,0,0
392,-244,0,0,0,0,0,0,0,0,0,-1,1616,1268,0,0
399,-244,0,0,0,0,0,0,0,0,0,-1,1623,1268,0,0
406,-244,0,0,0,0,0,0,0,0,0,-1,1630,1268,0,0
413,-244,0,0,0,0,0,0,0,0,0,-1,1637,1268,0,0
420,-244,0,0,0,0,0,0,0,0,0,-1,1644,1268,0,0
427,-244,0,0,0,0,0,0,0,0,0,-1,1651,1268,0,0
434,-244,0,0,0,0,0,0,0,0,0,-1,1658,1268,0,0
441,-244,0,0,0,0,0,0,0,0,0,-1,1665,1268,0,0
448,-244,0,0,0,0,0,0,0,0,0,-1,1672,1268,0,0
455,-244,0,0,0,0,0,0,0,0,0,-1,1679,1268,0,0
462,-244,0,0,0,0,0,0,0,0,0,-1,1686,1268,0,0
469,-244,0,0,0,0,0,0,0,0,0,-1,1693,1268,0,0
476,-244,0,0,0,0,0,0,0,0,0,-1,1700,1268,0,0
483,-244,0,0,0,0,0,0,0,0,0,-1,1707,1268,0,0
490,-244,0,0,0,0,0,0,0,0,0,-1,1714,1268,0,0
497,-244,0,0,0,0,0,0,0,0,0,-1,1721,1268,0,0
504,-244,0,0,0,0,0,0,0,0,0,-1,1728,1268,0,0
511,-244,0,0,0,0,0,0,0,0,0,-1,1735,1268,0,0
518,-244,0,0,0,0,0,0,0,0,0,-1,1742,1268,0,0
525,-244,0,0,0,0,0,0,0,0,0,-1,1749,1268,0,0
532,-244,0,0,0,0,0,0,0,0,0,-1,1756,1268,0,0
539,-244,0,0,0,0,0,0,0,0,0,-1,1763,1268,0,0
546,-244,0,0,0,0,0,0,0,0,0,-1,1770,1268,0,0
553,-244,0,0,0,0,0,0,0,0,0,-1,1777,1268,0,0
560,-244,0,0,0,0,0,0,0,0,0,-1,1784,1268,0,0
567,-244,0,0,0,0,0,0,0,0,0,-1,1791,1268,0,0
574,-244,0,0,0,0,0,0,0,0,0,-1,1798,1268,0,0
581,-244,0,0,0,0,0,0,0,0,0,-1,1805,1268,0,0
588,-244,0,0,0,0,0,0,0,0,0,-1,1812,1268,0,0
595,-244,0,0,0,0,0,0,0,0,0,-1,1819,1268,0,0
602,-244,0,0,0,0,0,0,0,0,0,-1,1826,1268,0,0
609,-244,0,0,0,0,0,0,0,0,0,-1,1833,1268,0,0
616,-244,17.6201,2.51819,0.00486802,0.0080612,-0.00400103,0.0107724,0.00215679,-0.97524,0.00658156,0.0326415,1840,1268,17.6202,-2.51816
623,-244,17.6493,2.54749,-0.0011269,0.00966809,-0.00386908,0.0109116,-0.0023704,-1.25983,0.00817982,0.0279753,1847,1268,17.6493,-2.54749
630,-244,17.5896,2.55042,-0.00558465,0.0105815,-0.00181157,0.010782,-0.00578516,-1.46056,0.00970902,0.0271917,1854,1268,17.5896,-2.55039
637,-244,17.5298,2.48804,-0.00809779,0.0104733,0.000735422,0.0105024,-0.00812687,1.53128,0.0107847,0.0450453,1861,1268,17.5298,-2.48806
644,-244,17.1593,2.00659,0,0,0,0,0,0,0,-1,1868,1268,17.1593,-2.00657
651,-244,16.5231,2.65833,0,0,0,0,0,0,0,-1,1875,1268,16.5231,-2.6583
658,-244,16.8916,2.16638,0,0,0,0,0,0,0,-1,1882,1268,16.8916,-2.16642
665,-244,16.1071,2.18628,0,0,0,0,0,0,0,-1,1889,1268,16.107,-2.18624
672,-244,14.8647,3.75757,0,0,0,0,0,0,0,-1,1896,1268,14.8647,-3.75753
679,-244,14.8496,4.20227,-0.00677804,0.00410622,0.00779707,0.00817256,-0.0108444,1.09008,0.0110155,0.042535,1903,1268,14.8496,-4.20225
686,-244,14.8977,4.65576,-0.00546969,0.00277346,0.00791839,0.00757871,-0.0102749,1.02536,0.0103469,0.0228944,1910,1268,14.8977,-4.65576
693,-244,14.8459,4.5238,-0.00382011,0.00164579,0.00745021,0.00684849,-0.00902282,0.961192,0.00919192,0.0110258,1917,1268,14.8459,-4.52381
700,-244,14.8602,4.35876,-0.00225448,0.00111015,0.00640055,0.00604578,-0.00719011,0.913911,0.00765126,0.00884773,1924,1268,14.8603,-4.3588
707,-244,14.8816,4.22754,-0.00119296,0.000887758,0.00501426,0.00496845,-0.00527365,0.887687,0.00591415,0.00948449,1931,1268,14.8816,-4.2275
714,-244,14.887,4.1012,2.03947e-05,0.000900134,0.0032308,0.00372087,-0.00280034,0.853057,0.0037775,0.00984908,1938,1268,14.887,-4.1012
721,-244,14.8636,3.97314,0.000865763,0.00135386,0.00185845,0.00298422,-0.000764593,0.850684,0.00228734,0.0111681,1945,1268,14.8637,-3.97308
728,-244,14.8713,3.81055,0.000850733,0.00202067,0.000586851,0.0022643,0.000607099,1.17729,0.00135335,0.0151493,1952,1268,14.8714,-3.8105
735,-244,14.8483,3.62366,0.00035731,0.00214697,-0.00023363,0.00217696,0.000327314,-1.4431,0.00135544,0.0207971,1959,1268,14.8483,-3.62368
742,-244,14.874,3.55579,-4.91679e-05,0.00308993,-0.0006061,0.00320289,-0.000162129,-1.38654,0.0021913,0.0144954,1966,1268,14.874,-3.55578
749,-244,14.8811,3.46204,-0.00133712,0.0040333,-0.000778321,0.00414382,-0.00144765,-1.42973,0.003351,0.0176887,1973,1268,14.8811,-3.46207
756,-244,14.8417,3.33679,-0.00374013,0.00487952,-0.000884517,0.00496935,-0.00382996,-1.46959,0.00509446,0.0241394,1980,1268,14.8416,-3.33675
763,-244,14.8181,3.17432,-0.00740913,0.00563651,-0.000935088,0.00570319,-0.00747581,-1.4996,0.00763181,0.0398626,1987,1268,14.8181,-3.17429
770,-244,14.4438,2.71069,0,0,0,0,0,0,0,-1,1994,1268,14.4438,-2.71073
777,-244,14.7188,4.02344,-0.0196129,0.00654019,-0.000883832,0.00657003,-0.0196428,-1.53705,0.0157488,0.0463026,2001,1268,14.7188,-4.02346
784,-244,14.5684,3.44031,-0.0286306,0.00644366,-0.000840467,0.00646378,-0.0286507,-1.54685,0.0215802,0.0446949,2008,1268,14.5684,-3.4403
791,-244,0,0,0,0,0,0,0,0,0,-1,2015,1268,0,0
798,-244,0,0,0,0,0,0,0,0,0,-1,2022,1268,0,0
805,-244,0,0,0,0,0,0,0,0,0,-1,2029,1268,0,0
812,-244,0,0,0,0,0,0,0,0,0,-1,2036,1268,0,0
-700,-251,0,0,0,0,0,0,0,0,0,-1,524,1275,0,0
-693,-251,0,0,0,0,0,0,0,0,0,-1,531,1275,0,0
-686,-251,0,0,0,0,0,0,0,0,0,-1,538,1275,0,0
-679,-251,0,0,0,0,0,0,0,0,0,-1,545,1275,0,0
-672,-251,0,0,0,0,0,0,0,0,0,-1,552,1275,0,0
-665,-251,-9.44855,4.91284,0,0,0,0,0,0,0,-1,559,1275,-9.44855,-4.91278
-658,-251,-12.7245,2.20654,0,0,0,0,0,0,0,-1,566,1275,-12.7245,-2.2065
-651,-251,-12.4229,2.22314,0.0780002,0.00277697,0.0127133,0.0800908,0.000686407,0.16298,0.0531665,0.0471666,573,1275,-12.4229,-2.22315
-644,-251,-12.0727,2.37073,0.0686432,0.00542237,0.0110023,0.0705032,0.00356238,0.167472,0.0458608,0.0453478,580,1275,-12.0727,-2.37076
-637,-251,-11.3442,2.72473,0.0578922,0.0070594,0.00934303,0.059555,0.00539655,0.176133,0.0380323,0.0460708,587,1275,-11.3442,-2.72478
-630,-251,-7.7085,0.578735,0,0,0,0,0,0,0,-1,594,1275,-7.70847,-0.578756
-623,-251,-7.80627,0.875,0.0365545,0.00784413,0.00627691,0.0378668,0.0065318,0.206103,0.0233735,0.0366452,601,1275,-7.80628,-0.874997
-616,-251,-7.896,1.16174,0.0276623,0.00753632,0.00467852,0.0286967,0.00650191,0.217597,0.0173742,0.0194224,608,1275,-7.89599,-1.16177
-609,-251,-7.92822,1.30786,0.0199062,0.006615,0.00371495,0.0208741,0.00564714,0.254866,0.0124675,0.0178296,615,1275,-7.92825,-1.3079
-602,-251,-7.92572,1.48022,0.0139804,0.00521996,0.00294811,0.0148801,0.00432025,0.296205,0.00883922,0.0137303,622,1275,-7.92573,-1.4802
-595,-251,-7.92603,1.64307,0.0100817,0.00346512,0.00200461,0.0106416,0.00290517,0.272387,0.00635148,0.0132469,629,1275,-7.92603,-1.64312
-588,-251,-7.92224,1.79565,0.00669928,0.00172772,0.00139935,0.00706609,0.00136091,0.256362,0.00432899,0.0159025,636,1275,-7.92223,-1.79561
-581,-251,-7.92725,1.97974,0.00343292,0.000242834,-0.000814399,0.0036288,4.69539e-05,-0.236038,0.0024037,0.0145007,643,1275,-7.92726,-1.97971
-574,-251,-7.92194,2.16638,0.00233953,-0.000362211,-0.00220624,0.00357562,-0.0015983,-0.510693,0.00305901,0.0128503,650,1275,-7.92197,-2.16633
-567,-251,-7.92133,2.33972,0.00189722,-0.000631962,-0.00378805,0.00462619,-0.00336093,-0.624296,0.00463061,0.010832,657,1275,-7.9213,-2.33968
-560,-251,-7.90417,2.49573,0.00130902,-0.000548161,-0.00547025,0.00592893,-0.00516808,-0.701323,0.00641188,0.0125357,664,1275,-7.90418,-2.49568
-553,-251,-7.79437,2.52051,1.73836e-05,-5.64801e-05,-0.00687522,0.00685577,-0.00689487,-0.782712,0.00793894,0.0286747,671,1275,-7.79438,-2.52048
-546,-251,-7.53278,2.32434,-0.00167601,0.000649831,-0.00836628,0.00793363,-0.00895981,-0.854456,0.00975943,0.0485075,678,1275,-7.53275,-2.32434
-539,-251,-7.38538,2.16052,0,0,0,0,0,0,0,-1,685,1275,-7.38538,-2.16047
-532,-251,-10.6006,2.75952,0,0,0,0,0,0,0,-1,692,1275,-10.6006,-2.75948
-525,-251,-10.7739,0.89563,0,0,0,0,0,0,0,-1,699,1275,-10.7739,-0.895601
-518,-251,-10.6583,0.735596,-0.0112841,0.000191519,-0.00904667,0.00516655,-0.0162591,-1.06801,0.0129109,0.0431713,706,1275,-10.6583,-0.735554
-511,-251,-10.5838,0.518433,-0.0138064,-0.00209511,-0.00627568,0.000632524,-0.016534,-1.16079,0.0112395,0.0439193,713,1275,-10.5838,-0.518474
-504,-251,-10.5757,0.3302,0,0,0,0,0,0,0,-1,720,1275,-10.5758,-0.330252
-497,-251,-11.1425,0.844727,0,0,0,0,0,0,0,-1,727,1275,-11.1424,-0.844738
-490,-251,0,0,0,0,0,0,0,0,0,-1,734,1275,0,0
-483,-251,0,0,0,0,0,0,0,0,0,-1,741,1275,0,0
-476,-251,0,0,0,0,0,0,0,0,0,-1,748,1275,0,0
-469,-251,0,0,0,0,0,0,0,0,0,-1,755,1275,0,0
-462,-251,0,0,0,0,0,0,0,0,0,-1,762,1275,0,0
-455,-251,0,0,0,0,0,0,0,0,0,-1,769,1275,0,0
-448,-251,0,0,0,0,0,0,0,0,0,-1,776,1275,0,0
-441,-251,0,0,0,0,0,0,0,0,0,-1,783,1275,0,0
-434,-251,0,0,0,0,0,0,0,0,0,-1,790,1275,0,0
-427,-251,0,0,0,0,0,0,0,0,0,-1,797,1275,0,0
-420,-251,0,0,0,0,0,0,0,0,0,-1,804,1275,0,0
-413,-251,0,0,0,0,0,0,0,0,0,-1,811,1275,0,0
-406,-251,0,0,0,0,0,0,0,0,0,-1,818,1275,0,0
-399,-251,0,0,0,0,0,0,0,0,0,-1,825,1275,0,0
-392,-251,0,0,0,0,0,0,0,0,0,-1,832,1275,0,0
-385,-251,0,0,0,0,0,0,0,0,0,-1,839,1275,0,0
-378,-251,0,0,0,0,0,0,0,0,0,-1,846,1275,0,0
-371,-251,0,0,0,0,0,0,0,0,0,-1,853,1275,0,0
-364,-251,0,0,0,0,0,0,0,0,0,-1,860,1275,0,0
-357,-251,0,0,0,0,0,0,0,0,0,-1,867,1275,0,0
-350,-251,0,0,0,0,0,0,0,0,0,-1,874,1275,0,0
-343,-251,0,0,0,0,0,0,0,0,0,-1,881,1275,0,0
-336,-251,0,0,0,0,0,0,0,0,0,-1,888,1275,0,0
-329,-251,0,0,0,0,0,0,0,0,0,-1,895,1275,0,0
-322,-251,0,0,0,0,0,0,0,0,0,-1,902,1275,0,0
-315,-251,0,0,0,0,0,0,0,0,0,-1,909,1275,0,0
-308,-251,0,0,0,0,0,0,0,0,0,-1,916,1275,0,0
-301,-251,0,0,0,0,0,0,0,0,0,-1,923,1275,0,0
-294,-251,0,0,0,0,0,0,0,0,0,-1,930,1275,0,0
-287,-251,0,0,0,0,0,0,0,0,0,-1,937,1275,0,0
-280,-251,0,0,0,0,0,0,0,0,0,-1,944,1275,0,0
-273,-251,0,0,0,0,0,0,0,0,0,-1,951,1275,0,0
-266,-251,0,0,0,0,0,0,0,0,0,-1,958,1275,0,0
-259,-251,0,0,0,0,0,0,0,0,0,-1,965,1275,0,0
-252,-251,0,0,0,0,0,0,0,0,0,-1,972,1275,0,0
-245,-251,0,0,0,0,0,0,0,0,0,-1,979,1275,0,0
-238,-251,0,0,0,0,0,0,0,0,0,-1,986,1275,0,0
-231,-251,0,0,0,0,0,0,0,0,0,-1,993,1275,0,0
-224,-251,0,0,0,0,0,0,0,0,0,-1,1000,1275,0,0
-217,-251,0,0,0,0,0,0,0,0,0,-1,1007,1275,0,0
-210,-251,0,0,0,0,0,0,0,0,0,-1,1014,1275,0,0
-203,-251,0,0,0,0,0,0,0,0,0,-1,1021,1275,0,0
-196,-251,0,0,0,0,0,0,0,0,0,-1,1028,1275,0,0
-189,-251,0,0,0,0,0,0,0,0,0,-1,1035,1275,0,0
-182,-251,0,0,0,0,0,0,0,0,0,-1,1042,1275,0,0
-175,-251,0,0,0,0,0,0,0,0,0,-1,1049,1275,0,0
-168,-251,0,0,0,0,0,0,0,0,0,-1,1056,1275,0,0
-161,-251,0,0,0,0,0,0,0,0,0,-1,1063,1275,0,0
-154,-251,0,0,0,0,0,0,0,0,0,-1,1070,1275,0,0
-147,-251,0,0,0,0,0,0,0,0,0,-1,1077,1275,0,0
-140,-251,0,0,0,0,0,0,0,0,0,-1,1084,1275,0,0
-133,-251,0,0,0,0,0,0,0,0,0,-1,1091,1275,0,0
-126,-251,0,0,0,0,0,0,0,0,0,-1,1098,1275,0,0
-119,-251,0,0,0,0,0,0,0,0,0,-1,1105,1275,0,0
-112,-251,0,0,0,0,0,0,0,0,0,-1,1112,1275,0,0
-105,-251,0,0,0,0,0,0,0,0,0,-1,1119,1275,0,0
-98,-251,0,0,0,0,0,0,0,0,0,-1,1126,1275,0,0
-91,-251,0,0,0,0,0,0,0,0,0,-1,1133,1275,0,0
-84,-251,0,0,0,0,0,0,0,0,0,-1,1140,1275,0,0
-77,-251,0,0,0,0,0,0,0,0,0,-1,1147,1275,0,0
-70,-251,0,0,0,0,0,0,0,0,0,-1,1154,1275,0,0
-63,-251,0,0,0,0,0,0,0,0,0,-1,1161,1275,0,0
-56,-251,0,0,0,0,0,0,0,0,0,-1,1168,1275,0,0
-49,-251,0,0,0,0,0,0,0,0,0,-1,1175,1275,0,0
-42,-251,0,0,0,0,0,0,0,0,0,-1,1182,1275,0,0
-35,-251,0,0,0,0,0,0,0,0,0,-1,1189,1275,0,0
-28,-251,0,0,0,0,0,0,0,0,0,-1,1196,1275,0,0
-21,-251,0,0,0,0,0,0,0,0,0,-1,1203,1275,0,0
-14,-251,0,0,0,0,0,0,0,0,0,-1,1210,1275,0,0
-7,-251,0,0,0,0,0,0,0,0,0,-1,1217,1275,0,0
0,-251,0,0,0,0,0,0,0,0,0,-1,1224,1275,0,0
7,-251,0,0,0,0,0,0,0,0,0,-1,1231,1275,0,0
14,-251,0,0,0,0,0,0,0,0,0,-1,1238,1275,0,0
21,-251,0,0,0,0,0,0,0,0,0,-1,1245,1275,0,0
28,-251,0,0,0,0,0,0,0,0,0,-1,1252,1275,0,0
35,-251,0,0,0,0,0,0,0,0,0,-1,1259,1275,0,0
42,-251,0,0,0,0,0,0,0,0,0,-1,1266,1275,0,0
49,-251,0,0,0,0,0,0,0,0,0,-1,1273,1275,0,0
56,-251,0,0,0,0,0,0,0,0,0,-1,1280,1275,0,0
63,-251,0,0,0,0,0,0,0,0,0,-1,1287,1275,0,0
70,-251,0,0,0,0,0,0,0,0,0,-1,1294,1275,0,0
77,-251,0,0,0,0,0,0,0,0,0,-1,1301,1275,0,0
84,-251,0,0,0,0,0,0,0,0,0,-1,1308,1275,0,0
91,-251,0,0,0,0,0,0,0,0,0,-1,1315,1275,0,0
98,-251,0,0,0,0,0,0,0,0,0,-1,1322,1275,0,0
105,-251,0,0,0,0,0,0,0,0,0,-1,1329,1275,0,0
112,-251,0,0,0,0,0,0,0,0,0,-1,1336,1275,0,0
119,-251,0,0,0,0,0,0,0,0,0,-1,1343,1275,0,0
126,-251,0,0,0,0,0,0,0,0,0,-1,1350,1275,0,0
133,-251,0,0,0,0,0,0,0,0,0,-1,1357,1275,0,0
140,-251,0,0,0,0,0,0,0,0,0,-1,1364,1275,0,0
147,-251,0,0,0,0,0,0,0,0,0,-1,1371,1275,0,0
154,-251,0,0,0,0,0,0,0,0,0,-1,1378,1275,0,0
161,-251,0,0,0,0,0,0,0,0,0,-1,1385,1275,0,0
168,-251,0,0,0,0,0,0,0,0,0,-1,1392,1275,0,0
175,-251,0,0,0,0,0,0,0,0,0,-1,1399,1275,0,0
182,-251,0,0,0,0,0,0,0,0,0,-1,1406,1275,0,0
189,-251,0,0,0,0,0,0,0,0,0,-1,1413,1275,0,0
196,-251,0,0,0,0,0,0,0,0,0,-1,1420,1275,0,0
203,-251,0,0,0,0,0,0,0,0,0,-1,1427,1275,0,0
210,-251,0,0,0,0,0,0,0,0,0,-1,1434,1275,0,0
217,-251,0,0,0,0,0,0,0,0,0,-1,1441,1275,0,0
224,-251,0,0,0,0,0,0,0,0,0,-1,1448,1275,0,0
231,-251,0,0,0,0,0,0,0,0,0,-1,1455,1275,0,0
238,-251,0,0,0,0,0,0,0,0,0,-1,1462,1275,0,0
245,-251,0,0,0,0,0,0,0,0,0,-1,1469,1275,0,0
252,-251,0,0,0,0,0,0,0,0,0,-1,1476,1275,0,0
259,-251,0,0,0,0,0,0,0,0,0,-1,1483,1275,0,0
266,-251,0,0,0,0,0,0,0,0,0,-1,1490,1275,0,0
273,-251,0,0,0,0,0,0,0,0,0,-1,1497,1275,0,0
280,-251,0,0,0,0,0,0,0,0,0,-1,1504,1275,0,0
287,-251,0,0,0,0,0,0,0,0,0,-1,1511,1275,0,0
294,-251,0,0,0,0,0,0,0,0,0,-1,1518,1275,0,0
301,-251,0,0,0,0,0,0,0,0,0,-1,1525,1275,0,0
308,-251,0,0,0,0,0,0,0,0,0,-1,1532,1275,0,0
315,-251,0,0,0,0,0,0,0,0,0,-1,1539,1275,0,0
322,-251,0,0,0,0,0,0,0,0,0,-1,1546,1275,0,0
329,-251,0,0,0,0,0,0,0,0,0,-1,1553,1275,0,0
336,-251,0,0,0,0,0,0,0,0,0,-1,1560,1275,0,0
343,-251,0,0,0,0,0,0,0,0,0,-1,1567,1275,0,0
350,-251,0,0,0,0,0,0,0,0,0,-1,1574,1275,0,0
357,-251,0,0,0,0,0,0,0,0,0,-1,1581,1275,0,0
364,-251,0,0,0,0,0,0,0,0,0,-1,1588,1275,0,0
371,-251,0,0,0,0,0,0,0,0,0,-1,1595,1275,0,0
378,-251,0,0,0,0,0,0,0,0,0,-1,1602,1275,0,0
385,-251,0,0,0,0,0,0,0,0,0,-1,1609,1275,0,0
392,-251,0,0,0,0,0,0,0,0,0,-1,1616,1275,0,0
399,-251,0,0,0,0,0,0,0,0,0,-1,1623,1275,0,0
406,-251,0,0,0,0,0,0,0,0,0,-1,1630,1275,0,0
413,-251,0,0,0,0,0,0,0,0,0,-1,1637,1275,0,0
420,-251,0,0,0,0,0,0,0,0,0,-1,1644,1275,0,0
427,-251,0,0,0,0,0,0,0,0,0,-1,1651,1275,0,0
434,-251,0,0,0,0,0,0,0,0,0,-1,1658,1275,0,0
441,-251,0,0,0,0,0,0,0,0,0,-1,1665,1275,0,0
448,-251,0,0,0,0,0,0,0,0,0,-1,1672,1275,0,0
455,-251,0,0,0,0,0,0,0,0,0,-1,1679,1275,0,0
462,-251,0,0,0,0,0,0,0,0,0,-1,1686,1275,0,0
469,-251,0,0,0,0,0,0,0,0,0,-1,1693,1275,0,0
476,-251,0,0,0,0,0,0,0,0,0,-1,1700,1275,0,0
483,-251,0,0,0,0,0,0,0,0,0,-1,1707,1275,0,0
490,-251,0,0,0,0,0,0,0,0,0,-1,1714,1275,0,0
497,-251,0,0,0,0,0,0,0,0,0,-1,1721,1275,0,0
504,-251,0,0,0,0,0,0,0,0,0,-1,1728,1275,0,0
511,-251,0,0,0,0,0,0,0,0,0,-1,1735,1275,0,0
518,-251,0,0,0,0,0,0,0,0,0,-1,1742,1275,0,0
525,-251,0,0,0,0,0,0,0,0,0,-1,1749,1275,0,0
532,-251,0,0,0,0,0,0,0,0,0,-1,1756,1275,0,0
539,-251,0,0,0,0,0,0,0,0,0,-1,1763,1275,0,0
546,-251,0,0,0,0,0,0,0,0,0,-1,1770,1275,0,0
553,-251,0,0,0,0,0,0,0,0,0,-1,1777,1275,0,0
560,-251,0,0,0,0,0,0,0,0,0,-1,1784,1275,0,0
567,-251,0,0,0,0,0,0,0,0,0,-1,1791,1275,0,0
574,-251,0,0,0,0,0,0,0,0,0,-1,1798,1275,0,0
581,-251,0,0,0,0,0,0,0,0,0,-1,1805,1275,0,0
588,-251,0,0,0,0,0,0,0,0,0,-1,1812,1275,0,0
595,-251,0,0,0,0,0,0,0,0,0,-1,1819,1275,0,0
602,-251,0,0,0,0,0,0,0,0,0,-1,1826,1275,0,0
609,-251,17.5651,2.5885,0.0112994,0.00737658,-0.00245659,0.0124815,0.00619442,-0.44851,0.00720628,0.031066,1833,1275,17.5651,-2.58855
616,-251,17.561,2.54822,0.00312612,0.0101443,-0.00357366,0.0116437,0.00162674,-1.17354,0.00728103,0.0270378,1840,1275,17.5611,-2.54817
623,-251,17.5496,2.55383,-0.00361133,0.0119306,-0.00324187,0.0125797,-0.00426044,-1.37318,0.0101104,0.024682,1847,1275,17.5495,-2.55386
630,-251,17.5923,2.51318,-0.00839161,0.0125459,-0.00130763,0.0126272,-0.00847296,-1.50866,0.0122607,0.0374587,1854,1275,17.5923,-2.51322
637,-251,17.6176,2.47131,-0.0108737,0.0120058,0.000839697,0.0120366,-0.0109045,1.53416,0.0132504,0.0426146,1861,1275,17.6176,-2.4713
644,-251,17.0453,2.38391,-0.0117765,0.0108475,0.00262123,0.0111472,-0.0120762,1.45694,0.0134116,0.0434858,1868,1275,17.0453,-2.38394
651,-251,16.5883,2.1145,-0.0116156,0.00943575,0.00403814,0.0101838,-0.0123636,1.38763,0.013038,0.0457011,1875,1275,16.5883,-2.11447
658,-251,16.3643,1.45068,0,0,0,0,0,0,0,-1,1882,1275,16.3642,-1.45065
665,-251,16.1296,0.96167,0,0,0,0,0,0,0,-1,1889,1275,16.1296,-0.961689
672,-251,15.1594,4.84778,0,0,0,0,0,0,0,-1,1896,1275,15.1594,-4.84777
679,-251,14.8757,4.77917,-0.00809324,0.00431718,0.0069437,0.0074243,-0.0112004,1.15005,0.0108264,0.0422307,1903,1275,14.8757,-4.7792
686,-251,14.7045,4.65991,-0.00637409,0.00274078,0.0070576,0.00658452,-0.0102178,1.07209,0.00977616,0.0205946,1910,1275,14.7044,-4.65992
693,-251,14.7228,4.53247,-0.00426941,0.00147874,0.00653717,0.00574574,-0.00853641,0.992505,0.00829811,0.00972373,1917,1275,14.7228,-4.53251
700,-251,14.7257,4.37561,-0.00228864,0.00102297,0.00545462,0.00506757,-0.00633323,0.932758,0.00659576,0.00927103,1924,1275,14.7257,-4.37555
707,-251,14.7524,4.24133,-0.000966736,0.000892719,0.00410107,0.00416812,-0.00424214,0.896866,0.00485573,0.0108541,1931,1275,14.7524,-4.24137
714,-251,14.7485,4.11438,0.000526168,0.00105926,0.00241331,0.00322069,-0.00163527,0.840399,0.00285297,0.0107866,1938,1275,14.7485,-4.11432
721,-251,14.7128,3.974,0.00145979,0.00173737,0.0012717,0.00287783,0.000319334,0.839752,0.00182147,0.0111472,1945,1275,14.7127,-3.97403
728,-251,14.7328,3.82837,0.00121833,0.00274802,0.000308796,0.00280801,0.00115834,1.37894,0.00162945,0.0122264,1952,1275,14.7328,-3.8284
735,-251,14.7395,3.66077,0.000389565,0.00318072,-0.000200456,0.00319505,0.000375242,-1.49947,0.00201662,0.0129847,1959,1275,14.7395,-3.66072
742,-251,14.7516,3.52576,-0.000553384,0.00437835,-0.000286352,0.00439492,-0.000569955,-1.51299,0.00313724,0.0137182,1966,1275,14.7516,-3.52576
749,-251,14.7538,3.42993,-0.00261328,0.0057372,-0.000103242,0.00573848,-0.00261456,-1.55844,0.00493377,0.022618,1973,1275,14.7538,-3.42987
756,-251,14.7491,3.48608,-0.00614129,0.00714201,0.000260139,0.0071471,-0.00614638,1.55122,0.00768224,0.0395234,1980,1275,14.7492,-3.48609
763,-251,15.1531,3.59473,-0.0114609,0.00858137,0.000841931,0.00861667,-0.0114962,1.52889,0.0116518,0.0473454,1987,1275,15.153,-3.59469
770,-251,15.3844,3.854,0,0,0,0,0,0,0,-1,1994,1275,15.3844,-3.854
777,-251,13.972,4.05493,-0.029103,0.0111357,0.00278895,0.011328,-0.0292953,1.50192,0.0242065,0.0487298,2001,1275,13.972,-4.05492
784,-251,14.0498,3.8241,-0.04218,0.0118933,0.00411998,0.0122054,-0.0424921,1.49519,0.0331541,0.0462281,2008,1275,14.0498,-3.8241
791,-251,0,0,0,0,0,0,0,0,0,-1,2015,1275,0,0
798,-251,0,0,0,0,0,0,0,0,0,-1,2022,1275,0,0
805,-251,0,0,0,0,0,0,0,0,0,-1,2029,1275,0,0
812,-251,0,0,0,0,0,0,0,0,0,-1,2036,1275,0,0
-700,-258,0,0,0,0,0,0,0,0,0,-1,524,1282,0,0
-693,-258,0,0,0,0,0,0,0,0,0,-1,531,1282,0,0
-686,-258,0,0,0,0,0,0,0,0,0,-1,538,1282,0,0
-679,-258,0,0,0,0,0,0,0,0,0,-1,545,1282,0,0
-672,-258,0,0,0,0,0,0,0,0,0,-1,552,1282,0,0
-665,-258,-9.63641,5.99329,0,0,0,0,0,0,0,-1,559,1282,-9.63639,-5.99333
-658,-258,-9.54645,5.04333,0,0,0,0,0,0,0,-1,566,1282,-9.54644,-5.04335
-651,-258,-13.0225,2.18225,0,0,0,0,0,0,0,-1,573,1282,-13.0225,-2.18222
-644,-258,-12.8101,2.46326,0,0,0,0,0,0,0,-1,580,1282,-12.8101,-2.46329
-637,-258,-12.1603,3.11633,0.0537696,0.0175929,0.00324916,0.0540591,0.0173034,0.088866,0.0318775,0.0495806,587,1282,-12.1603,-3.11633
-630,-258,-7.75183,0.588745,0.0432487,0.0170128,0.00320897,0.0436355,0.016626,0.119956,0.0254296,0.0465211,594,1282,-7.75181,-0.588753
-623,-258,-7.6731,0.852661,0.0334217,0.0155751,0.00300188,0.0339131,0.0150837,0.162258,0.0196195,0.0439807,601,1282,-7.67308,-0.852721
-616,-258,-7.73041,1.16724,0.0250555,0.0138121,0.00245518,0.0255683,0.0132994,0.205883,0.0147658,0.0293563,608,1282,-7.73043,-1.1673
-609,-258,-7.74225,1.32019,0.0179455,0.0116241,0.00218152,0.0186252,0.0109443,0.302059,0.0108082,0.0150374,615,1282,-7.74226,-1.32025
-602,-258,-7.76361,1.47717,0.0126098,0.00908621,0.0019443,0.0134718,0.00822423,0.417301,0.00784098,0.0123651,622,1282,-7.76361,-1.47717
-595,-258,-7.75543,1.62988,0.00892401,0.00632458,0.00170115,0.00976513,0.00548347,0.459191,0.00565212,0.010825,629,1282,-7.75545,-1.62983
-588,-258,-7.75055,1.79126,0.00595507,0.00339924,0.00137772,0.0065563,0.00279801,0.411481,0.00379879,0.0123805,636,1282,-7.75053,-1.79127
-581,-258,-7.76257,1.97546,0.00284977,0.00129843,-0.00082136,0.00320384,0.000944369,-0.407,0.00190097,0.0148019,643,1282,-7.76256,-1.97545
-574,-258,-7.74506,2.16589,0.00191172,0.000406331,-0.00219673,0.00348113,-0.00116308,-0.620345,0.00279045,0.0143895,650,1282,-7.74507,-2.16589
-567,-258,-7.74432,2.35132,0.00167603,-0.000134848,-0.00383906,0.00471498,-0.0031738,-0.66959,0.00458347,0.0132744,657,1282,-7.74432,-2.35128
-560,-258,-7.73877,2.51807,0.00111077,-0.000210007,-0.00562085,0.00610989,-0.00520913,-0.726922,0.00654193,0.019191,664,1282,-7.73878,-2.51808
-553,-258,-7.69067,2.65247,-0.000302733,0.000254292,-0.00707927,0.00706053,-0.00710897,-0.805059,0.00818078,0.0263217,671,1282,-7.69065,-2.65249
-546,-258,-7.67169,2.69531,-0.00209888,0.00100855,-0.00860975,0.00820365,-0.00929398,-0.874667,0.0101088,0.0449637,678,1282,-7.67168,-2.69528
-539,-258,-7.61597,2.7522,0,0,0,0,0,0,0,-1,685,1282,-7.61597,-2.75217
-532,-258,-10.2115,2.44775,-0.00612978,0.000576689,-0.00974326,0.00752759,-0.0130807,-0.951129,0.0120413,0.044763,692,1282,-10.2115,-2.44774
-525,-258,-10.3264,1.70166,-0.00848936,-2.76882e-05,-0.00941583,0.00606416,-0.0145812,-0.996548,0.012253,0.0491059,699,1282,-10.3264,-1.7016
-518,-258,-10.4883,0.954224,-0.0109026,-0.00153504,-0.00801011,0.00306018,-0.0154978,-1.04996,0.0114886,0.0428165,706,1282,-10.4884,-0.954216
-511,-258,-10.3815,0.580688,-0.0129432,-0.00466351,-0.0050823,-0.00224835,-0.0153583,-1.12718,0.00957782,0.0440533,713,1282,-10.3815,-0.580734
-504,-258,-10.3801,0.276001,-0.0140475,-0.0100323,-0.000251711,-0.0100166,-0.0140632,-1.50843,0.00835969,0.0459022,720,1282,-10.38,-0.276008
-497,-258,-10.4452,0.00231934,0,0,0,0,0,0,0,-1,727,1282,-10.4452,-0.00228871
-490,-258,-11.0581,0.75647,0,0,0,0,0,0,0,-1,734,1282,-11.0581,-0.756501
-483,-258,0,0,0,0,0,0,0,0,0,-1,741,1282,0,0
-476,-258,0,0,0,0,0,0,0,0,0,-1,748,1282,0,0
-469,-258,0,0,0,0,0,0,0,0,0,-1,755,1282,0,0
-462,-258,0,0,0,0,0,0,0,0,0,-1,762,1282,0,0
-455,-258,0,0,0,0,0,0,0,0,0,-1,769,1282,0,0
-448,-258,0,0,0,0,0,0,0,0,0,-1,776,1282,0,0
-441,-258,0,0,0,0,0,0,0,0,0,-1,783,1282,0,0
-434,-258,0,0,0,0,0,0,0,0,0,-1,790,1282,0,0
-427,-258,0,0,0,0,0,0,0,0,0,-1,797,1282,0,0
-420,-258,0,0,0,0,0,0,0,0,0,-1,804,1282,0,0
-413,-258,0,0,0,0,0,0,0,0,0,-1,811,1282,0,0
-406,-258,0,0,0,0,0,0,0,0,0,-1,818,1282,0,0
-399,-258,0,0,0,0,0,0,0,0,0,-1,825,1282,0,0
-392,-258,0,0,0,0,0,0,0,0,0,-1,832,1282,0,0
-385,-258,0,0,0,0,0,0,0,0,0,-1,839,1282,0,0
-378,-258,0,0,0,0,0,0,0,0,0,-1,846,1282,0,0
-371,-258,0,0,0,0,0,0,0,0,0,-1,853,1282,0,0
-364,-258,0,0,0,0,0,0,0,0,0,-1,860,1282,0,0
-357,-258,0,0,0,0,0,0,0,0,0,-1,867,1282,0,0
-350,-258,0,0,0,0,0,0,0,0,0,-1,874,1282,0,0
-343,-258,0,0,0,0,0,0,0,0,0,-1,881,1282,0,0
-336,-258,0,0,0,0,0,0,0,0,0,-1,888,1282,0,0
-329,-258,0,0,0,0,0,0,0,0,0,-1,895,1282,0,0
-322,-258,0,0,0,0,0,0,0,0,0,-1,902,1282,0,0
-315,-258,0,0,0,0,0,0,0,0,0,-1,909,1282,0,0
-308,-258,0,0,0,0,0,0,0,0,0,-1,916,1282,0,0
-301,-258,0,0,0,0,0,0,0,0,0,-1,923,1282,0,0
-294,-258,0,0,0,0,0,0,0,0,0,-1,930,1282,0,0
-287,-258,0,0,0,0,0,0,0,0,0,-1,937,1282,0,0
-280,-258,0,0,0,0,0,0,0,0,0,-1,944,1282,0,0
-273,-258,0,0,0,0,0,0,0,0,0,-1,951,1282,0,0
-266,-258,0,0,0,0,0,0,0,0,0,-1,958,1282,0,0
-259,-258,0,0,0,0,0,0,0,0,0,-1,965,1282,0,0
-252,-258,0,0,0,0,0,0,0,0,0,-1,972,1282,0,0
-245,-258,0,0,0,0,0,0,0,0,0,-1,979,1282,0,0
-238,-258,0,0,0,0,0,0,0,0,0,-1,986,1282,0,0
-231,-258,0,0,0,0,0,0,0,0,0,-1,993,1282,0,0
-224,-258,0,0,0,0,0,0,0,0,0,-1,1000,1282,0,0
-217,-258,0,0,0,0,0,0,0,0,0,-1,1007,1282,0,0
-210,-258,0,0,0,0,0,0,0,0,0,-1,1014,1282,0,0
-203,-258,0,0,0,0,0,0,0,0,0,-1,1021,1282,0,0
-196,-258,0,0,0,0,0,0,0,0,0,-1,1028,1282,0,0
-189,-258,0,0,0,0,0,0,0,0,0,-1,1035,1282,0,0
-182,-258,0,0,0,0,0,0,0,0,0,-1,1042,1282,0,0
-175,-258,0,0,0,0,0,0,0,0,0,-1,1049,1282,0,0
-168,-258,0,0,0,0,0,0,0,0,0,-1,1056,1282,0,0
-161,-258,0,0,0,0,0,0,0,0,0,-1,1063,1282,0,0
-154,-258,0,0,0,0,0,0,0,0,0,-1,1070,1282,0,0
-147,-258,0,0,0,0,0,0,0,0,0,-1,1077,1282,0,0
-140,-258,0,0,0,0,0,0,0,0,0,-1,1084,1282,0,0
-133,-258,0,0,0,0,0,0,0,0,0,-1,1091,1282,0,0
-126,-258,0,0,0,0,0,0,0,0,0,-1,1098,1282,0,0
-119,-258,0,0,0,0,0,0,0,0,0,-1,1105,1282,0,0
-112,-258,0,0,0,0,0,0,0,0,0,-1,1112,1282,0,0
-105,-258,0,0,0,0,0,0,0,0,0,-1,1119,1282,0,0
-98,-258,0,0,0,0,0,0,0,0,0,-1,1126,1282,0,0
-91,-258,0,0,0,0,0,0,0,0,0,-1,1133,1282,0,0
-84,-258,0,0,0,0,0,0,0,0,0,-1,1140,1282,0,0
-77,-258,0,0,0,0,0,0,0,0,0,-1,1147,1282,0,0
-70,-258,0,0,0,0,0,0,0,0,0,-1,1154,1282,0,0
-63,-258,0,0,0,0,0,0,0,0,0,-1,1161,1282,0,0
-56,-258,0,0,0,0,0,0,0,0,0,-1,1168,1282,0,0
-49,-258,0,0,0,0,0,0,0,0,0,-1,1175,1282,0,0
-42,-258,0,0,0,0,0,0,0,0,0,-1,1182,1282,0,0
-35,-258,0,0,0,0,0,0,0,0,0,-1,1189,1282,0,0
-28,-258,0,0,0,0,0,0,0,0,0,-1,1196,1282,0,0
-21,-258,0,0,0,0,0,0,0,0,0,-1,1203,1282,0,0
-14,-258,0,0,0,0,0,0,0,0,0,-1,1210,1282,0,0
-7,-258,0,0,0,0,0,0,0,0,0,-1,1217,1282,0,0
0,-258,0,0,0,0,0,0,0,0,0,-1,1224,1282,0,0
7,-258,0,0,0,0,0,0,0,0,0,-1,1231,1282,0,0
14,-258,0,0,0,0,0,0,0,0,0,-1,1238,1282,0,0
21,-258,0,0,0,0,0,0,0,0,0,-1,1245,1282,0,0
28,-258,0,0,0,0,0,0,0,0,0,-1,1252,1282,0,0
35,-258,0,0,0,0,0,0,0,0,0,-1,1259,1282,0,0
42,-258,0,0,0,0,0,0,0,0,0,-1,1266,1282,0,0
49,-258,0,0,0,0,0,0,0,0,0,-1,1273,1282,0,0
56,-258,0,0,0,0,0,0,0,0,0,-1,1280,1282,0,0
63,-258,0,0,0,0,0,0,0,0,0,-1,1287,1282,0,0
70,-258,0,0,0,0,0,0,0,0,0,-1,1294,1282,0,0
77,-258,0,0,0,0,0,0,0,0,0,-1,1301,1282,0,0
84,-258,0,0,0,0,0,0,0,0,0,-1,1308,1282,0,0
91,-258,0,0,0,0,0,0,0,0,0,-1,1315,1282,0,0
98,-258,0,0,0,0,0,0,0,0,0,-1,1322,1282,0,0
105,-258,0,0,0,0,0,0,0,0,0,-1,1329,1282,0,0
112,-258,0,0,0,0,0,0,0,0,0,-1,1336,1282,0,0
119,-258,0,0,0,0,0,0,0,0,0,-1,1343,1282,0,0
126,-258,0,0,0,0,0,0,0,0,0,-1,1350,1282,0,0
133,-258,0,0,0,0,0,0,0,0,0,-1,1357,1282,0,0
140,-258,0,0,0,0,0,0,0,0,0,-1,1364,1282,0,0
147,-258,0,0,0,0,0,0,0,0,0,-1,1371,1282,0,0
154,-258,0,0,0,0,0,0,0,0,0,-1,1378,1282,0,0
161,-258,0,0,0,0,0,0,0,0,0,-1,1385,1282,0,0
168,-258,0,0,0,0,0,0,0,0,0,-1,1392,1282,0,0
175,-258,0,0,0,0,0,0,0,0,0,-1,1399,1282,0,0
182,-258,0,0,0,0,0,0,0,0,0,-1,1406,1282,0,0
189,-258,0,0,0,0,0,0,0,0,0,-1,1413,1282,0,0
196,-258,0,0,0,0,0,0,0,0,0,-1,1420,1282,0,0
203,-258,0,0,0,0,0,0,0,0,0,-1,1427,1282,0,0
210,-258,0,0,0,0,0,0,0,0,0,-1,1434,1282,0,0
217,-258,0,0,0,0,0,0,0,0,0,-1,1441,1282,0,0
224,-258,0,0,0,0,0,0,0,0,0,-1,1448,1282,0,0
231,-258,0,0,0,0,0,0,0,0,0,-1,1455,1282,0,0
238,-258,0,0,0,0,0,0,0,0,0,-1,1462,1282,0,0
245,-258,0,0,0,0,0,0,0,0,0,-1,1469,1282,0,0
252,-258,0,0,0,0,0,0,0,0,0,-1,1476,1282,0,0
259,-258,0,0,0,0,0,0,0,0,0,-1,1483,1282,0,0
266,-258,0,0,0,0,0,0,0,0,0,-1,1490,1282,0,0
273,-258,0,0,0,0,0,0,0,0,0,-1,1497,1282,0,0
280,-258,0,0,0,0,0,0,0,0,0,-1,1504,1282,0,0
287,-258,0,0,0,0,0,0,0,0,0,-1,1511,1282,0,0
294,-258,0,0,0,0,0,0,0,0,0,-1,1518,1282,0,0
301,-258,0,0,0,0,0,0,0,0,0,-1,1525,1282,0,0
308,-258,0,0,0,0,0,0,0,0,0,-1,1532,1282,0,0
315,-258,0,0,0,0,0,0,0,0,0,-1,1539,1282,0,0
322,-258,0,0,0,0,0,0,0,0,0,-1,1546,1282,0,0
329,-258,0,0,0,0,0,0,0,0,0,-1,1553,1282,0,0
336,-258,0,0,0,0,0,0,0,0,0,-1,1560,1282,0,0
343,-258,0,0,0,0,0,0,0,0,0,-1,1567,1282,0,0
350,-258,0,0,0,0,0,0,0,0,0,-1,1574,1282,0,0
357,-258,0,0,0,0,0,0,0,0,0,-1,1581,1282,0,0
364,-258,0,0,0,0,0,0,0,0,0,-1,1588,1282,0,0
371,-258,0,0,0,0,0,0,0,0,0,-1,1595,1282,0,0
378,-258,0,0,0,0,0,0,0,0,0,-1,1602,1282,0,0
385,-258,0,0,0,0,0,0,0,0,0,-1,1609,1282,0,0
392,-258,0,0,0,0,0,0,0,0,0,-1,1616,1282,0,0
399,-258,0,0,0,0,0,0,0,0,0,-1,1623,1282,0,0
406,-258,0,0,0,0,0,0,0,0,0,-1,1630,1282,0,0
413,-258,0,0,0,0,0,0,0,0,0,-1,1637,1282,0,0
420,-258,0,0,0,0,0,0,0,0,0,-1,1644,1282,0,0
427,-258,0,0,0,0,0,0,0,0,0,-1,1651,1282,0,0
434,-258,0,0,0,0,0,0,0,0,0,-1,1658,1282,0,0
441,-258,0,0,0,0,0,0,0,0,0,-1,1665,1282,0,0
448,-258,0,0,0,0,0,0,0,0,0,-1,1672,1282,0,0
455,-258,0,0,0,0,0,0,0,0,0,-1,1679,1282,0,0
462,-258,0,0,0,0,0,0,0,0,0,-1,1686,1282,0,0
469,-258,0,0,0,0,0,0,0,0,0,-1,1693,1282,0,0
476,-258,0,0,0,0,0,0,0,0,0,-1,1700,1282,0,0
483,-258,0,0,0,0,0,0,0,0,0,-1,1707,1282,0,0
490,-258,0,0,0,0,0,0,0,0,0,-1,1714,1282,0,0
497,-258,0,0,0,0,0,0,0,0,0,-1,1721,1282,0,0
504,-258,0,0,0,0,0,0,0,0,0,-1,1728,1282,0,0
511,-258,0,0,0,0,0,0,0,0,0,-1,1735,1282,0,0
518,-258,0,0,0,0,0,0,0,0,0,-1,1742,1282,0,0
525,-258,0,0,0,0,0,0,0,0,0,-1,1749,1282,0,0
532,-258,0,0,0,0,0,0,0,0,0,-1,1756,1282,0,0
539,-258,0,0,0,0,0,0,0,0,0,-1,1763,1282,0,0
546,-258,0,0,0,0,0,0,0,0,0,-1,1770,1282,0,0
553,-258,0,0,0,0,0,0,0,0,0,-1,1777,1282,0,0
560,-258,0,0,0,0,0,0,0,0,0,-1,1784,1282,0,0
567,-258,0,0,0,0,0,0,0,0,0,-1,1791,1282,0,0
574,-258,0,0,0,0,0,0,0,0,0,-1,1798,1282,0,0
581,-258,0,0,0,0,0,0,0,0,0,-1,1805,1282,0,0
588,-258,0,0,0,0,0,0,0,0,0,-1,1812,1282,0,0
595,-258,0,0,0,0,0,0,0,0,0,-1,1819,1282,0,0
602,-258,0,0,0,0,0,0,0,0,0,-1,1826,1282,0,0
609,-258,17.5809,2.52515,0.00951864,0.00950828,-0.0019968,0.0115103,0.00751665,-0.784101,0.00674842,0.0255821,1833,1282,17.5809,-2.52514
616,-258,17.5277,2.51501,0.000559644,0.012725,-0.00286971,0.013368,-8.33175e-05,-1.35039,0.00893987,0.025097,1840,1282,17.5277,-2.515
623,-258,17.488,2.46216,-0.00665281,0.0144054,-0.002389,0.014673,-0.00692044,-1.45924,0.012732,0.0360888,1847,1282,17.488,-2.46211
630,-258,17.6519,2.38452,-0.0114774,0.0145683,-0.000665023,0.0145853,-0.0114944,-1.54529,0.0150923,0.0430799,1854,1282,17.6519,-2.38456
637,-258,17.5173,2.44165,-0.0138366,0.0136246,0.00116442,0.0136739,-0.0138858,1.5285,0.0159118,0.0424403,1861,1282,17.5174,-2.44167
644,-258,17.1992,2.41296,-0.0145746,0.0121267,0.00267252,0.0123916,-0.0148395,1.47201,0.015743,0.0427353,1868,1282,17.1992,-2.41295
651,-258,17.3323,2.45459,-0.0142335,0.0104412,0.00390081,0.0110432,-0.0148355,1.41768,0.0149944,0.0446271,1875,1282,17.3323,-2.45463
658,-258,17.5793,2.62671,0,0,0,0,0,0,0,-1,1882,1282,17.5794,-2.62675
665,-258,16.4344,2.67908,0,0,0,0,0,0,0,-1,1889,1282,16.4345,-2.67906
672,-258,14.9601,4.74878,0,0,0,0,0,0,0,-1,1896,1282,14.96,-4.74872
679,-258,14.6989,4.77051,-0.0101423,0.00471537,0.00661041,0.00723064,-0.0126575,1.20721,0.0116241,0.0360982,1903,1282,14.6988,-4.77047
686,-258,14.5822,4.68433,-0.00807255,0.00286483,0.00668929,0.00603635,-0.0112441,1.12807,0.0101267,0.0204658,1910,1282,14.5822,-4.6843
693,-258,14.6068,4.5199,-0.00554878,0.00144982,0.00608184,0.00496721,-0.00906616,1.04645,0.00821657,0.00971062,1917,1282,14.6068,-4.51994
700,-258,14.5942,4.3645,-0.00312182,0.00102952,0.00491826,0.00429217,-0.00638447,0.985076,0.00620349,0.00918656,1924,1282,14.5943,-4.36456
707,-258,14.6085,4.23193,-0.00136931,0.000896051,0.00358111,0.00351934,-0.0039926,0.938567,0.00433988,0.0104137,1931,1282,14.6085,-4.23188
714,-258,14.6016,4.10803,0.000658093,0.00127837,0.00198849,0.00298076,-0.0010443,0.862759,0.00241185,0.0101675,1938,1282,14.6015,-4.10801
721,-258,14.5985,3.95715,0.00195256,0.00222196,0.00107397,0.00316965,0.00100488,0.847784,0.0018704,0.0111155,1945,1282,14.5985,-3.95713
728,-258,14.6053,3.80933,0.0017927,0.00364451,0.000461983,0.00375337,0.00168384,1.33939,0.00217082,0.010364,1952,1282,14.6053,-3.80937
735,-258,14.6039,3.6792,0.000973889,0.00454456,0.000308835,0.00457108,0.000947374,1.48515,0.00278582,0.0131789,1959,1282,14.6039,-3.67919
742,-258,14.6147,3.55139,-0.000130499,0.00624092,0.000613625,0.00629948,-0.000189058,1.47565,0.00426407,0.0153438,1966,1282,14.6148,-3.55142
749,-258,14.594,3.40784,-0.00262796,0.00828857,0.00135533,0.00845432,-0.00279372,1.4491,0.00676262,0.0275011,1973,1282,14.594,-3.40783
756,-258,14.7045,3.24231,-0.00693482,0.010629,0.00246927,0.0109696,-0.00727537,1.43375,0.0106054,0.0419157,1980,1282,14.7045,-3.24231
763,-258,15.4178,3.28076,-0.0135721,0.0132036,0.00403011,0.013797,-0.0141655,1.4246,0.0161447,0.0460161,1987,1282,15.4178,-3.28078
770,-258,15.8983,3.41699,0,0,0,0,0,0,0,-1,1994,1282,15.8983,-3.41699
777,-258,15.72,4.14233,-0.0362478,0.0185169,0.00870797,0.0198682,-0.0375991,1.41685,0.033701,0.0448005,2001,1282,15.72,-4.14229
784,-258,13.4585,3.86902,-0.0535483,0.0207313,0.0118085,0.0225634,-0.0553804,1.41688,0.0463113,0.0450812,2008,1282,13.4585,-3.86904
791,-258,0,0,0,0,0,0,0,0,0,-1,2015,1282,0,0
798,-258,0,0,0,0,0,0,0,0,0,-1,2022,1282,0,0
805,-258,0,0,0,0,0,0,0,0,0,-1,2029,1282,0,0
812,-258,0,0,0,0,0,0,0,0,0,-1,2036,1282,0,0
-700,-265,0,0,0,0,0,0,0,0,0,-1,524,1289,0,0
-693,-265,0,0,0,0,0,0,0,0,0,-1,531,1289,0,0
-686,-265,0,0,0,0,0,0,0,0,0,-1,538,1289,0,0
-679,-265,0,0,0,0,0,0,0,0,0,-1,545,1289,0,0
-672,-265,0,0,0,0,0,0,0,0,0,-1,552,1289,0,0
-665,-265,-6.45416,-0.464355,0,0,0,0,0,0,0,-1,559,1289,-6.45415,0.464347
-658,-265,-6.61139,-0.702637,0,0,0,0,0,0,0,-1,566,1289,-6.61139,0.702643
-651,-265,-6.76862,-0.940918,0,0,0,0,0,0,0,-1,573,1289,-6.76863,0.940939
-644,-265,-7.73608,-0.621826,0,0,0,0,0,0,0,-1,580,1289,-7.73606,0.621799
-637,-265,-6.95764,0.197021,0,0,0,0,0,0,0,-1,587,1289,-6.95762,-0.196963
-630,-265,-7.09686,0.36084,0.0355485,0.0271274,-0.000535386,0.0355824,0.0270935,-0.0632376,0.0214591,0.0473176,594,1289,-7.09688,-0.360807
-623,-265,-7.25885,0.687134,0.0269347,0.0240047,0.000283544,0.0269618,0.0239775,0.0955908,0.017067,0.0442803,601,1289,-7.25885,-0.687096
-616,-265,-7.46832,1.01367,0.0197718,0.020593,0.000593036,0.0209037,0.0194611,1.08818,0.0134807,0.0341136,608,1289,-7.46831,-1.01371
-609,-265,-7.56885,1.31152,0.0138412,0.016928,0.000913427,0.017178,0.0135912,1.3036,0.0104634,0.0154019,615,1289,-7.56882,-1.31147
-602,-265,-7.57349,1.47571,0.00955007,0.0131291,0.00110919,0.013445,0.0092342,1.29336,0.00794103,0.0132902,622,1289,-7.57346,-1.47575
-595,-265,-7.56702,1.64282,0.00660806,0.0093633,0.00137864,0.00993465,0.00603671,1.17791,0.00577991,0.0110338,629,1289,-7.56703,-1.64279
-588,-265,-7.57727,1.81482,0.00448656,0.00529018,0.00126505,0.0062157,0.00356104,0.939172,0.00360133,0.0100627,636,1289,-7.57726,-1.81482
-581,-265,-7.58875,1.99207,0.00188626,0.00237963,-0.00076952,0.00294104,0.00132485,-0.940507,0.00170078,0.0128721,643,1289,-7.58872,-1.99207
-574,-265,-7.59308,2.19824,0.00124848,0.0010606,-0.00201819,0.00317491,-0.000865835,-0.762141,0.00245662,0.014431,650,1289,-7.59308,-2.19824
-567,-265,-7.60736,2.39148,0.00124005,0.000165514,-0.00363526,0.00437753,-0.00297196,-0.712033,0.00426902,0.019528,657,1289,-7.60737,-2.39146
-560,-265,-7.61279,2.55493,0.000669986,-8.77108e-05,-0.00547556,0.00577978,-0.00519751,-0.750859,0.00634071,0.0202577,664,1289,-7.61278,-2.55492
-553,-265,-7.55261,2.73816,-0.000869382,0.000331699,-0.00693282,0.00668994,-0.00722762,-0.828602,0.00803731,0.0216028,671,1289,-7.55263,-2.7382
-546,-265,-7.5285,2.9314,-0.00279143,0.0011098,-0.0084443,0.00782586,-0.00950748,-0.898906,0.0100231,0.0336557,678,1289,-7.52851,-2.93141
-539,-265,-7.52142,3.11426,0,0,0,0,0,0,0,-1,685,1289,-7.5214,-3.1143
-532,-265,-9.50287,2.46985,-0.00680505,-1.79344e-05,-0.00907288,0.00627528,-0.0130983,-0.964359,0.0114142,0.0441844,692,1289,-9.50288,-2.46989
-525,-265,-9.83295,1.46826,-0.00908824,-0.00112425,-0.00845566,0.00424011,-0.0144526,-1.00546,0.0113164,0.0440822,699,1289,-9.83294,-1.46822
-518,-265,-10.2278,1.13452,-0.0113339,-0.00323495,-0.00680435,0.000633739,-0.0152026,-1.05381,0.0103528,0.0436971,706,1289,-10.2278,-1.13451
-511,-265,-10.1841,0.594849,-0.0130706,-0.0070348,-0.00378592,-0.00521112,-0.0148943,-1.12189,0.00872745,0.0452085,713,1289,-10.1842,-0.594805
-504,-265,-10.3706,0.253662,-0.013824,-0.0130143,0.000798461,-0.0125239,-0.0143144,1.02004,0.00900562,0.0499145,720,1289,-10.3706,-0.253608
-497,-265,-10.3878,0.0688477,0,0,0,0,0,0,0,-1,727,1289,-10.3878,-0.0689031
-490,-265,-10.9326,0.619019,0,0,0,0,0,0,0,-1,734,1289,-10.9325,-0.619031
-483,-265,0,0,0,0,0,0,0,0,0,-1,741,1289,0,0
-476,-265,0,0,0,0,0,0,0,0,0,-1,748,1289,0,0
-469,-265,0,0,0,0,0,0,0,0,0,-1,755,1289,0,0
-462,-265,0,0,0,0,0,0,0,0,0,-1,762,1289,0,0
-455,-265,0,0,0,0,0,0,0,0,0,-1,769,1289,0,0
-448,-265,0,0,0,0,0,0,0,0,0,-1,776,1289,0,0
-441,-265,0,0,0,0,0,0,0,0,0,-1,783,1289,0,0
-434,-265,0,0,0,0,0,0,0,0,0,-1,790,1289,0,0
-427,-265,0,0,0,0,0,0,0,0,0,-1,797,1289,0,0
-420,-265,0,0,0,0,0,0,0,0,0,-1,804,1289,0,0
-413,-265,0,0,0,0,0,0,0,0,0,-1,811,1289,0,0
-406,-265,0,0,0,0,0,0,0,0,0,-1,818,1289,0,0
-399,-265,0,0,0,0,0,0,0,0,0,-1,825,1289,0,0
-392,-265,0,0,0,0,0,0,0,0,0,-1,832,1289,0,0
-385,-265,0,0,0,0,0,0,0,0,0,-1,839,1289,0,0
-378,-265,0,0,0,0,0,0,0,0,0,-1,846,1289,0,0
-371,-265,0,0,0,0,0,0,0,0,0,-1,853,1289,0,0
-364,-265,0,0,0,0,0,0,0,0,0,-1,860,1289,0,0
-357,-265,0,0,0,0,0,0,0,0,0,-1,867,1289,0,0
-350,-265,0,0,0,0,0,0,0,0,0,-1,874,1289,0,0
-343,-265,0,0,0,0,0,0,0,0,0,-1,881,1289,0,0
-336,-265,0,0,0,0,0,0,0,0,0,-1,888,1289,0,0
-329,-265,0,0,0,0,0,0,0,0,0,-1,895,1289,0,0
-322,-265,0,0,0,0,0,0,0,0,0,-1,902,1289,0,0
-315,-265,0,0,0,0,0,0,0,0,0,-1,909,1289,0,0
-308,-265,0,0,0,0,0,0,0,0,0,-1,916,1289,0,0
-301,-265,0,0,0,0,0,0,0,0,0,-1,923,1289,0,0
-294,-265,0,0,0,0,0,0,0,0,0,-1,930,1289,0,0
-287,-265,0,0,0,0,0,0,0,0,0,-1,937,1289,0,0
-280,-265,0,0,0,0,0,0,0,0,0,-1,944,1289,0,0
-273,-265,0,0,0,0,0,0,0,0,0,-1,951,1289,0,0
-266,-265,0,0,0,0,0,0,0,0,0,-1,958,1289,0,0
-259,-265,0,0,0,0,0,0,0,0,0,-1,965,1289,0,0
-252,-265,0,0,0,0,0,0,0,0,0,-1,972,1289,0,0
-245,-265,0,0,0,0,0,0,0,0,0,-1,979,1289,0,0
-238,-265,0,0,0,0,0,0,0,0,0,-1,986,1289,0,0
-231,-265,0,0,0,0,0,0,0,0,0,-1,993,1289,0,0
-224,-265,0,0,0,0,0,0,0,0,0,-1,1000,1289,0,0
-217,-265,0,0,0,0,0,0,0,0,0,-1,1007,1289,0,0
-210,-265,0,0,0,0,0,0,0,0,0,-1,1014,1289,0,0
-203,-265,0,0,0,0,0,0,0,0,0,-1,1021,1289,0,0
-196,-265,0,0,0,0,0,0,0,0,0,-1,1028,1289,0,0
-189,-265,0,0,0,0,0,0,0,0,0,-1,1035,1289,0,0
-182,-265,0,0,0,0,0,0,0,0,0,-1,1042,1289,0,0
-175,-265,0,0,0,0,0,0,0,0,0,-1,1049,1289,0,0
-168,-265,0,0,0,0,0,0,0,0,0,-1,1056,1289,0,0
-161,-265,0,0,0,0,0,0,0,0,0,-1,1063,1289,0,0
-154,-265,0,0,0,0,0,0,0,0,0,-1,1070,1289,0,0
-147,-265,0,0,0,0,0,0,0,0,0,-1,1077,1289,0,0
-140,-265,0,0,0,0,0,0,0,0,0,-1,1084,1289,0,0
-133,-265,0,0,0,0,0,0,0,0,0,-1,1091,1289,0,0
-126,-265,0,0,0,0,0,0,0,0,0,-1,1098,1289,0,0
-119,-265,0,0,0,0,0,0,0,0,0,-1,1105,1289,0,0
-112,-265,0,0,0,0,0,0,0,0,0,-1,1112,1289,0,0
-105,-265,0,0,0,0,0,0,0,0,0,-1,1119,1289,0,0
-98,-265,0,0,0,0,0,0,0,0,0,-1,1126,1289,0,0
-91,-265,0,0,0,0,0,0,0,0,0,-1,1133,1289,0,0
-84,-265,0,0,0,0,0,0,0,0,0,-1,1140,1289,0,0
-77,-265,0,0,0,0,0,0,0,0,0,-1,1147,1289,0,0
-70,-265,0,0,0,0,0,0,0,0,0,-1,1154,1289,0,0
-63,-265,0,0,0,0,0,0,0,0,0,-1,1161,1289,0,0
-56,-265,0,0,0,0,0,0,0,0,0,-1,1168,1289,0,0
-49,-265,0,0,0,0,0,0,0,0,0,-1,1175,1289,0,0
-42,-265,0,0,0,0,0,0,0,0,0,-1,1182,1289,0,0
-35,-265,0,0,0,0,0,0,0,0,0,-1,1189,1289,0,0
-28,-265,0,0,0,0,0,0,0,0,0,-1,1196,1289,0,0
-21,-265,0,0,0,0,0,0,0,0,0,-1,1203,1289,0,0
-14,-265,0,0,0,0,0,0,0,0,0,-1,1210,1289,0,0
-7,-265,0,0,0,0,0,0,0,0,0,-1,1217,1289,0,0
0,-265,0,0,0,0,0,0,0,0,0,-1,1224,1289,0,0
7,-265,0,0,0,0,0,0,0,0,0,-1,1231,1289,0,0
14,-265,0,0,0,0,0,0,0,0,0,-1,1238,1289,0,0
21,-265,0,0,0,0,0,0,0,0,0,-1,1245,1289,0,0
28,-265,0,0,0,0,0,0,0,0,0,-1,1252,1289,0,0
35,-265,0,0,0,0,0,0,0,0,0,-1,1259,1289,0,0
42,-265,0,0,0,0,0,0,0,0,0,-1,1266,1289,0,0
49,-265,0,0,0,0,0,0,0,0,0,-1,1273,1289,0,0
56,-265,0,0,0,0,0,0,0,0,0,-1,1280,1289,0,0
63,-265,0,0,0,0,0,0,0,0,0,-1,1287,1289,0,0
70,-265,0,0,0,0,0,0,0,0,0,-1,1294,1289,0,0
77,-265,0,0,0,0,0,0,0,0,0,-1,1301,1289,0,0
84,-265,0,0,0,0,0,0,0,0,0,-1,1308,1289,0,0
91,-265,0,0,0,0,0,0,0,0,0,-1,1315,1289,0,0
98,-265,0,0,0,0,0,0,0,0,0,-1,1322,1289,0,0
105,-265,0,0,0,0,0,0,0,0,0,-1,1329,1289,0,0
112,-265,0,0,0,0,0,0,0,0,0,-1,1336,1289,0,0
119,-265,0,0,0,0,0,0,0,0,0,-1,1343,1289,0,0
126,-265,0,0,0,0,0,0,0,0,0,-1,1350,1289,0,0
133,-265,0,0,0,0,0,0,0,0,0,-1,1357,1289,0,0
140,-265,0,0,0,0,0,0,0,0,0,-1,1364,1289,0,0
147,-265,0,0,0,0,0,0,0,0,0,-1,1371,1289,0,0
154,-265,0,0,0,0,0,0,0,0,0,-1,1378,1289,0,0
161,-265,0,0,0,0,0,0,0,0,0,-1,1385,1289,0,0
168,-265,0,0,0,0,0,0,0,0,0,-1,1392,1289,0,0
175,-265,0,0,0,0,0,0,0,0,0,-1,1399,1289,0,0
182,-265,0,0,0,0,0,0,0,0,0,-1,1406,1289,0,0
189,-265,0,0,0,0,0,0,0,0,0,-1,1413,1289,0,0
196,-265,0,0,0,0,0,0,0,0,0,-1,1420,1289,0,0
203,-265,0,0,0,0,0,0,0,0,0,-1,1427,1289,0,0
210,-265,0,0,0,0,0,0,0,0,0,-1,1434,1289,0,0
217,-265,0,0,0,0,0,0,0,0,0,-1,1441,1289,0,0
224,-265,0,0,0,0,0,0,0,0,0,-1,1448,1289,0,0
231,-265,0,0,0,0,0,0,0,0,0,-1,1455,1289,0,0
238,-265,0,0,0,0,0,0,0,0,0,-1,1462,1289,0,0
245,-265,0,0,0,0,0,0,0,0,0,-1,1469,1289,0,0
252,-265,0,0,0,0,0,0,0,0,0,-1,1476,1289,0,0
259,-265,0,0,0,0,0,0,0,0,0,-1,1483,1289,0,0
266,-265,0,0,0,0,0,0,0,0,0,-1,1490,1289,0,0
273,-265,0,0,0,0,0,0,0,0,0,-1,1497,1289,0,0
280,-265,0,0,0,0,0,0,0,0,0,-1,1504,1289,0,0
287,-265,0,0,0,0,0,0,0,0,0,-1,1511,1289,0,0
294,-265,0,0,0,0,0,0,0,0,0,-1,1518,1289,0,0
301,-265,0,0,0,0,0,0,0,0,0,-1,1525,1289,0,0
308,-265,0,0,0,0,0,0,0,0,0,-1,1532,1289,0,0
315,-265,0,0,0,0,0,0,0,0,0,-1,1539,1289,0,0
322,-265,0,0,0,0,0,0,0,0,0,-1,1546,1289,0,0
329,-265,0,0,0,0,0,0,0,0,0,-1,1553,1289,0,0
336,-265,0,0,0,0,0,0,0,0,0,-1,1560,1289,0,0
343,-265,0,0,0,0,0,0,0,0,0,-1,1567,1289,0,0
350,-265,0,0,0,0,0,0,0,0,0,-1,1574,1289,0,0
357,-265,0,0,0,0,0,0,0,0,0,-1,1581,1289,0,0
364,-265,0,0,0,0,0,0,0,0,0,-1,1588,1289,0,0
371,-265,0,0,0,0,0,0,0,0,0,-1,1595,1289,0,0
378,-265,0,0,0,0,0,0,0,0,0,-1,1602,1289,0,0
385,-265,0,0,0,0,0,0,0,0,0,-1,1609,1289,0,0
392,-265,0,0,0,0,0,0,0,0,0,-1,1616,1289,0,0
399,-265,0,0,0,0,0,0,0,0,0,-1,1623,1289,0,0
406,-265,0,0,0,0,0,0,0,0,0,-1,1630,1289,0,0
413,-265,0,0,0,0,0,0,0,0,0,-1,1637,1289,0,0
420,-265,0,0,0,0,0,0,0,0,0,-1,1644,1289,0,0
427,-265,0,0,0,0,0,0,0,0,0,-1,1651,1289,0,0
434,-265,0,0,0,0,0,0,0,0,0,-1,1658,1289,0,0
441,-265,0,0,0,0,0,0,0,0,0,-1,1665,1289,0,0
448,-265,0,0,0,0,0,0,0,0,0,-1,1672,1289,0,0
455,-265,0,0,0,0,0,0,0,0,0,-1,1679,1289,0,0
462,-265,0,0,0,0,0,0,0,0,0,-1,1686,1289,0,0
469,-265,0,0,0,0,0,0,0,0,0,-1,1693,1289,0,0
476,-265,0,0,0,0,0,0,0,0,0,-1,1700,1289,0,0
483,-265,0,0,0,0,0,0,0,0,0,-1,1707,1289,0,0
490,-265,0,0,0,0,0,0,0,0,0,-1,1714,1289,0,0
497,-265,0,0,0,0,0,0,0,0,0,-1,1721,1289,0,0
504,-265,0,0,0,0,0,0,0,0,0,-1,1728,1289,0,0
511,-265,0,0,0,0,0,0,0,0,0,-1,1735,1289,0,0
518,-265,0,0,0,0,0,0,0,0,0,-1,1742,1289,0,0
525,-265,0,0,0,0,0,0,0,0,0,-1,1749,1289,0,0
532,-265,0,0,0,0,0,0,0,0,0,-1,1756,1289,0,0
539,-265,0,0,0,0,0,0,0,0,0,-1,1763,1289,0,0
546,-265,0,0,0,0,0,0,0,0,0,-1,1770,1289,0,0
553,-265,0,0,0,0,0,0,0,0,0,-1,1777,1289,0,0
560,-265,0,0,0,0,0,0,0,0,0,-1,1784,1289,0,0
567,-265,0,0,0,0,0,0,0,0,0,-1,1791,1289,0,0
574,-265,0,0,0,0,0,0,0,0,0,-1,1798,1289,0,0
581,-265,0,0,0,0,0,0,0,0,0,-1,1805,1289,0,0
588,-265,0,0,0,0,0,0,0,0,0,-1,1812,1289,0,0
595,-265,0,0,0,0,0,0,0,0,0,-1,1819,1289,0,0
602,-265,17.5287,2.55774,0.0170089,0.00741125,0.00114638,0.0171439,0.00727622,0.117246,0.00993569,0.0272367,1826,1289,17.5286,-2.55776
609,-265,17.5825,2.5166,0.00715361,0.0123903,-0.000974576,0.0125658,0.00697812,-1.39263,0.00726964,0.0295189,1833,1289,17.5825,-2.51658
616,-265,17.5751,2.5509,-0.00186714,0.0155608,-0.00189163,0.0157638,-0.00207009,-1.46391,0.0112628,0.0350176,1840,1289,17.5751,-2.55088
623,-265,17.6115,2.43616,-0.00895903,0.0168025,-0.0016391,0.0169064,-0.0090629,-1.50751,0.0152196,0.0463327,1847,1289,17.6115,-2.4362
630,-265,17.7563,2.32983,-0.013617,0.0163456,-0.000387137,0.0163506,-0.013622,-1.55788,0.0173286,0.0439408,1854,1289,17.7563,-2.32981
637,-265,17.715,2.59705,-0.0158772,0.014893,0.00106293,0.0149297,-0.0159139,1.53631,0.0178106,0.0432961,1861,1289,17.715,-2.59709
644,-265,17.3467,2.42065,-0.0165487,0.0129777,0.00229992,0.0131557,-0.0167268,1.49352,0.0172937,0.0430089,1868,1289,17.3467,-2.42059
651,-265,17.3237,2.2301,-0.0161606,0.010953,0.00334553,0.0113597,-0.0165673,1.44982,0.0162168,0.0463238,1875,1289,17.3237,-2.23006
658,-265,16.9958,2.8689,0,0,0,0,0,0,0,-1,1882,1289,16.9958,-2.86894
665,-265,16.8258,3.52563,0,0,0,0,0,0,0,-1,1889,1289,16.8258,-3.52563
672,-265,14.4821,4.80652,0,0,0,0,0,0,0,-1,1896,1289,14.4821,-4.80647
679,-265,14.4703,4.76929,-0.0118396,0.00444126,0.00577632,0.00628243,-0.0136808,1.26223,0.0117867,0.0309907,1903,1289,14.4703,-4.76924
686,-265,14.4619,4.66174,-0.00946058,0.00235452,0.00580077,0.00472635,-0.0118324,1.18266,0.00984927,0.0137738,1910,1289,14.462,-4.66175
693,-265,14.4635,4.50073,-0.00662867,0.000819017,0.00518525,0.00347905,-0.0092887,1.0968,0.0076216,0.00999999,1917,1289,14.4635,-4.50075
700,-265,14.4635,4.35925,-0.00381184,0.000510627,0.00404805,0.00293825,-0.00623946,1.0306,0.00541181,0.0103024,1924,1289,14.4634,-4.35924
707,-265,14.4768,4.21704,-0.00157793,0.000490939,0.00275056,0.00239515,-0.00348214,0.965257,0.00341255,0.00992783,1931,1289,14.4768,-4.21701
714,-265,14.4628,4.0874,0.00108544,0.00127063,0.00119211,0.00237373,-1.76706e-05,0.824157,0.00158841,0.00916673,1938,1289,14.4627,-4.08746
721,-265,14.4714,3.94739,0.00286561,0.00256139,0.000385179,0.00312763,0.00229937,0.597344,0.00187114,0.00889484,1945,1289,14.4715,-3.94736
728,-265,14.465,3.82251,0.00303201,0.00447761,-7.42898e-05,0.00448142,0.00302821,-1.51959,0.00264007,0.0117638,1952,1289,14.465,-3.82248
735,-265,14.4512,3.6969,0.00257752,0.00594457,-0.000161065,0.00595226,0.00256983,-1.52311,0.0034472,0.0154306,1959,1289,14.4511,-3.69688
742,-265,14.4508,3.56274,0.00183611,0.00830793,0.000146017,0.00831123,0.00183282,1.54825,0.00504217,0.0191255,1966,1289,14.4507,-3.56279
749,-265,14.4454,3.35718,-0.000337237,0.01132,0.000954894,0.0113977,-0.000414938,1.4896,0.0077405,0.0371432,1973,1289,14.4455,-3.35716
756,-265,14.5488,3.04626,-0.00448737,0.0149577,0.00227876,0.0152212,-0.00475084,1.45568,0.0120475,0.0435314,1980,1289,14.5489,-3.04625
763,-265,14.8813,2.78784,-0.011311,0.019198,0.00425348,0.0197799,-0.0118929,1.43483,0.0184743,0.0486188,1987,1289,14.8813,-2.78789
770,-265,15.0878,2.56702,0,0,0,0,0,0,0,-1,1994,1289,15.0878,-2.56707
777,-265,15.7783,2.96155,0,0,0,0,0,0,0,-1,2001,1289,15.7783,-2.9615
784,-265,0,0,0,0,0,0,0,0,0,-1,2008,1289,0,0
791,-265,0,0,0,0,0,0,0,0,0,-1,2015,1289,0,0
798,-265,0,0,0,0,0,0,0,0,0,-1,2022,1289,0,0
805,-265,0,0,0,0,0,0,0,0,0,-1,2029,1289,0,0
812,-265,0,0,0,0,0,0,0,0,0,-1,2036,1289,0,0
-700,-272,0,0,0,0,0,0,0,0,0,-1,524,1296,0,0
-693,-272,0,0,0,0,0,0,0,0,0,-1,531,1296,0,0
-686,-272,0,0,0,0,0,0,0,0,0,-1,538,1296,0,0
-679,-272,0,0,0,0,0,0,0,0,0,-1,545,1296,0,0
-672,-272,0,0,0,0,0,0,0,0,0,-1,552,1296,0,0
-665,-272,0,0,0,0,0,0,0,0,0,-1,559,1296,0,0
-658,-272,-6.04547,-0.512207,0,0,0,0,0,0,0,-1,566,1296,-6.04548,0.512259
-651,-272,-4.66327,1.82458,0,0,0,0,0,0,0,-1,573,1296,-4.6633,-1.82454
-644,-272,-4.71527,1.24512,0,0,0,0,0,0,0,-1,580,1296,-4.7153,-1.24506
-637,-272,-6.51001,-0.0422363,0,0,0,0,0,0,0,-1,587,1296,-6.51001,0.0422559
-630,-272,-6.66827,0.0837402,0.0261546,0.0376176,-0.00474618,0.0393277,0.0244446,-1.22498,0.0229284,0.0479053,594,1296,-6.66826,-0.0837251
-623,-272,-6.81781,0.505493,0.0188052,0.0329489,-0.00281104,0.0334871,0.018267,-1.38162,0.0193604,0.0448023,601,1296,-6.81782,-0.505485
-616,-272,-6.8396,0.980591,0.0130256,0.0279358,-0.00156931,0.0280992,0.0128622,-1.46706,0.0162424,0.035537,608,1296,-6.83959,-0.98059
-609,-272,-7.38617,1.35718,0,0,0,0,0,0,0,-1,615,1296,-7.38619,-1.35712
-602,-272,-7.40173,1.47375,0.00548771,0.0176442,0.000101296,0.017645,0.00548687,1.56246,0.0104273,0.0123759,622,1296,-7.40173,-1.4737
-595,-272,-7.39874,1.66602,0.00342209,0.0128465,0.000955286,0.0129423,0.00332623,1.47079,0.00776082,0.0105737,629,1296,-7.39874,-1.66598
-588,-272,-7.39563,1.84387,0.00229631,0.00757836,0.0011168,0.00780479,0.00206988,1.37077,0.00466877,0.00973157,636,1296,-7.39561,-1.84384
-581,-272,-7.41302,2.00623,0.000486169,0.00373559,-0.000677439,0.00387117,0.000350593,-1.37328,0.00247222,0.00932628,643,1296,-7.41303,-2.00625
-574,-272,-7.43555,2.20801,0.000300457,0.00181621,-0.00176444,0.00297866,-0.000861986,-0.988248,0.00232694,0.0146364,650,1296,-7.43558,-2.20801
-567,-272,-7.45355,2.40723,0.000596209,0.000434651,-0.00331999,0.0038364,-0.00280554,-0.773235,0.00385009,0.0200801,657,1296,-7.45354,-2.4072
-560,-272,-7.44867,2.57642,3.43608e-05,-8.69171e-05,-0.00516217,0.00513625,-0.0051888,-0.779525,0.0059612,0.0190486,664,1296,-7.44869,-2.57647
-553,-272,-7.38,2.72388,-0.00159504,0.00022594,-0.00658882,0.00596688,-0.00733598,-0.854057,0.00769395,0.0140246,671,1296,-7.37999,-2.72385
-546,-272,-7.35956,2.85229,-0.00358468,0.000952198,-0.00805712,0.00705412,-0.0096866,-0.922618,0.00970501,0.0204,678,1296,-7.35957,-2.85225
-539,-272,-7.26801,2.45911,-0.00543595,0.000429882,-0.00841633,0.00640969,-0.0114158,-0.953058,0.0104259,0.0448108,685,1296,-7.26801,-2.4591
-532,-272,-7.2077,2.13672,0,0,0,0,0,0,0,-1,692,1296,-7.20768,-2.13666
-525,-272,-9.02985,-0.523804,-0.00951363,-0.00264345,-0.00723043,0.00192639,-0.0140835,-1.00716,0.0100926,0.0429928,699,1296,-9.02982,0.523765
-518,-272,-9.82831,0.0167236,-0.0114977,-0.00538472,-0.00532191,-0.00230404,-0.0145784,-1.04606,0.00904922,0.0428454,706,1296,-9.82834,-0.0166788
-511,-272,-10.1931,0.347168,-0.0128602,-0.0098659,-0.0021543,-0.00873961,-0.0139865,-1.08907,0.00815862,0.0452151,713,1296,-10.1931,-0.347188
-504,-272,-10.4617,0.565674,-0.0132075,-0.016447,0.00234884,-0.011974,-0.0176804,0.483543,0.0104194,0.0486193,720,1296,-10.4617,-0.56573
-497,-272,-10.6934,0.711792,0,0,0,0,0,0,0,-1,727,1296,-10.6934,-0.711745
-490,-272,-10.8352,0.786255,-0.00943536,-0.0376288,0.0150523,-0.00290954,-0.0441546,0.409085,0.0285161,0.0453915,734,1296,-10.8352,-0.786218
-483,-272,-11.0623,0.760254,-0.00526249,-0.0530146,0.0220048,0.00333109,-0.0616082,0.372318,0.0422263,0.040683,741,1296,-11.0623,-0.760264
-476,-272,0,0,0,0,0,0,0,0,0,-1,748,1296,0,0
-469,-272,0,0,0,0,0,0,0,0,0,-1,755,1296,0,0
-462,-272,0,0,0,0,0,0,0,0,0,-1,762,1296,0,0
-455,-272,0,0,0,0,0,0,0,0,0,-1,769,1296,0,0
-448,-272,0,0,0,0,0,0,0,0,0,-1,776,1296,0,0
-441,-272,0,0,0,0,0,0,0,0,0,-1,783,1296,0,0
-434,-272,0,0,0,0,0,0,0,0,0,-1,790,1296,0,0
-427,-272,0,0,0,0,0,0,0,0,0,-1,797,1296,0,0
-420,-272,0,0,0,0,0,0,0,0,0,-1,804,1296,0,0
-413,-272,0,0,0,0,0,0,0,0,0,-1,811,1296,0,0
-406,-272,0,0,0,0,0,0,0,0,0,-1,818,1296,0,0
-399,-272,0,0,0,0,0,0,0,0,0,-1,825,1296,0,0
-392,-272,0,0,0,0,0,0,0,0,0,-1,832,1296,0,0
-385,-272,0,0,0,0,0,0,0,0,0,-1,839,1296,0,0
-378,-272,0,0,0,0,0,0,0,0,0,-1,846,1296,0,0
-371,-272,0,0,0,0,0,0,0,0,0,-1,853,1296,0,0
-364,-272,0,0,0,0,0,0,0,0,0,-1,860,1296,0,0
-357,-272,0,0,0,0,0,0,0,0,0,-1,867,1296,0,0
-350,-272,0,0,0,0,0,0,0,0,0,-1,874,1296,0,0
-343,-272,0,0,0,0,0,0,0,0,0,-1,881,1296,0,0
-336,-272,0,0,0,0,0,0,0,0,0,-1,888,1296,0,0
-329,-272,0,0,0,0,0,0,0,0,0,-1,895,1296,0,0
-322,-272,0,0,0,0,0,0,0,0,0,-1,902,1296,0,0
-315,-272,0,0,0,0,0,0,0,0,0,-1,909,1296,0,0
-308,-272,0,0,0,0,0,0,0,0,0,-1,916,1296,0,0
-301,-272,0,0,0,0,0,0,0,0,0,-1,923,1296,0,0
-294,-272,0,0,0,0,0,0,0,0,0,-1,930,1296,0,0
-287,-272,0,0,0,0,0,0,0,0,0,-1,937,1296,0,0
-280,-272,0,0,0,0,0,0,0,0,0,-1,944,1296,0,0
-273,-272,0,0,0,0,0,0,0,0,0,-1,951,1296,0,0
-266,-272,0,0,0,0,0,0,0,0,0,-1,958,1296,0,0
-259,-272,0,0,0,0,0,0,0,0,0,-1,965,1296,0,0
-252,-272,0,0,0,0,0,0,0,0,0,-1,972,1296,0,0
-245,-272,0,0,0,0,0,0,0,0,0,-1,979,1296,0,0
-238,-272,0,0,0,0,0,0,0,0,0,-1,986,1296,0,0
-231,-272,0,0,0,0,0,0,0,0,0,-1,993,1296,0,0
-224,-272,0,0,0,0,0,0,0,0,0,-1,1000,1296,0,0
-217,-272,0,0,0,0,0,0,0,0,0,-1,1007,1296,0,0
-210,-272,0,0,0,0,0,0,0,0,0,-1,1014,1296,0,0
-203,-272,0,0,0,0,0,0,0,0,0,-1,1021,1296,0,0
-196,-272,0,0,0,0,0,0,0,0,0,-1,1028,1296,0,0
-189,-272,0,0,0,0,0,0,0,0,0,-1,1035,1296,0,0
-182,-272,0,0,0,0,0,0,0,0,0,-1,1042,1296,0,0
-175,-272,0,0,0,0,0,0,0,0,0,-1,1049,1296,0,0
-168,-272,0,0,0,0,0,0,0,0,0,-1,1056,1296,0,0
-161,-272,0,0,0,0,0,0,0,0,0,-1,1063,1296,0,0
-154,-272,0,0,0,0,0,0,0,0,0,-1,1070,1296,0,0
-147,-272,0,0,0,0,0,0,0,0,0,-1,1077,1296,0,0
-140,-272,0,0,0,0,0,0,0,0,0,-1,1084,1296,0,0
-133,-272,0,0,0,0,0,0,0,0,0,-1,1091,1296,0,0
-126,-272,0,0,0,0,0,0,0,0,0,-1,1098,1296,0,0
-119,-272,0,0,0,0,0,0,0,0,0,-1,1105,1296,0,0
-112,-272,0,0,0,0,0,0,0,0,0,-1,1112,1296,0,0
-105,-272,0,0,0,0,0,0,0,0,0,-1,1119,1296,0,0
-98,-272,0,0,0,0,0,0,0,0,0,-1,1126,1296,0,0
-91,-272,0,0,0,0,0,0,0,0,0,-1,1133,1296,0,0
-84,-272,0,0,0,0,0,0,0,0,0,-1,1140,1296,0,0
-77,-272,0,0,0,0,0,0,0,0,0,-1,1147,1296,0,0
-70,-272,0,0,0,0,0,0,0,0,0,-1,1154,1296,0,0
-63,-272,0,0,0,0,0,0,0,0,0,-1,1161,1296,0,0
-56,-272,0,0,0,0,0,0,0,0,0,-1,1168,1296,0,0
-49,-272,0,0,0,0,0,0,0,0,0,-1,1175,1296,0,0
-42,-272,0,0,0,0,0,0,0,0,0,-1,1182,1296,0,0
-35,-272,0,0,0,0,0,0,0,0,0,-1,1189,1296,0,0
-28,-272,0,0,0,0,0,0,0,0,0,-1,1196,1296,0,0
-21,-272,0,0,0,0,0,0,0,0,0,-1,1203,1296,0,0
-14,-272,0,0,0,0,0,0,0,0,0,-1,1210,1296,0,0
-7,-272,0,0,0,0,0,0,0,0,0,-1,1217,1296,0,0
0,-272,0,0,0,0,0,0,0,0,0,-1,1224,1296,0,0
7,-272,0,0,0,0,0,0,0,0,0,-1,1231,1296,0,0
14,-272,0,0,0,0,0,0,0,0,0,-1,1238,1296,0,0
21,-272,0,0,0,0,0,0,0,0,0,-1,1245,1296,0,0
28,-272,0,0,0,0,0,0,0,0,0,-1,1252,1296,0,0
35,-272,0,0,0,0,0,0,0,0,0,-1,1259,1296,0,0
42,-272,0,0,0,0,0,0,0,0,0,-1,1266,1296,0,0
49,-272,0,0,0,0,0,0,0,0,0,-1,1273,1296,0,0
56,-272,0,0,0,0,0,0,0,0,0,-1,1280,1296,0,0
63,-272,0,0,0,0,0,0,0,0,0,-1,1287,1296,0,0
70,-272,0,0,0,0,0,0,0,0,0,-1,1294,1296,0,0
77,-272,0,0,0,0,0,0,0,0,0,-1,1301,1296,0,0
84,-272,0,0,0,0,0,0,0,0,0,-1,1308,1296,0,0
91,-272,0,0,0,0,0,0,0,0,0,-1,1315,1296,0,0
98,-272,0,0,0,0,0,0,0,0,0,-1,1322,1296,0,0
105,-272,0,0,0,0,0,0,0,0,0,-1,1329,1296,0,0
112,-272,0,0,0,0,0,0,0,0,0,-1,1336,1296,0,0
119,-272,0,0,0,0,0,0,0,0,0,-1,1343,1296,0,0
126,-272,0,0,0,0,0,0,0,0,0,-1,1350,1296,0,0
133,-272,0,0,0,0,0,0,0,0,0,-1,1357,1296,0,0
140,-272,0,0,0,0,0,0,0,0,0,-1,1364,1296,0,0
147,-272,0,0,0,0,0,0,0,0,0,-1,1371,1296,0,0
154,-272,0,0,0,0,0,0,0,0,0,-1,1378,1296,0,0
161,-272,0,0,0,0,0,0,0,0,0,-1,1385,1296,0,0
168,-272,0,0,0,0,0,0,0,0,0,-1,1392,1296,0,0
175,-272,0,0,0,0,0,0,0,0,0,-1,1399,1296,0,0
182,-272,0,0,0,0,0,0,0,0,0,-1,1406,1296,0,0
189,-272,0,0,0,0,0,0,0,0,0,-1,1413,1296,0,0
196,-272,0,0,0,0,0,0,0,0,0,-1,1420,1296,0,0
203,-272,0,0,0,0,0,0,0,0,0,-1,1427,1296,0,0
210,-272,0,0,0,0,0,0,0,0,0,-1,1434,1296,0,0
217,-272,0,0,0,0,0,0,0,0,0,-1,1441,1296,0,0
224,-272,0,0,0,0,0,0,0,0,0,-1,1448,1296,0,0
231,-272,0,0,0,0,0,0,0,0,0,-1,1455,1296,0,0
238,-272,0,0,0,0,0,0,0,0,0,-1,1462,1296,0,0
245,-272,0,0,0,0,0,0,0,0,0,-1,1469,1296,0,0
252,-272,0,0,0,0,0,0,0,0,0,-1,1476,1296,0,0
259,-272,0,0,0,0,0,0,0,0,0,-1,1483,1296,0,0
266,-272,0,0,0,0,0,0,0,0,0,-1,1490,1296,0,0
273,-272,0,0,0,0,0,0,0,0,0,-1,1497,1296,0,0
280,-272,0,0,0,0,0,0,0,0,0,-1,1504,1296,0,0
287,-272,0,0,0,0,0,0,0,0,0,-1,1511,1296,0,0
294,-272,0,0,0,0,0,0,0,0,0,-1,1518,1296,0,0
301,-272,0,0,0,0,0,0,0,0,0,-1,1525,1296,0,0
308,-272,0,0,0,0,0,0,0,0,0,-1,1532,1296,0,0
315,-272,0,0,0,0,0,0,0,0,0,-1,1539,1296,0,0
322,-272,0,0,0,0,0,0,0,0,0,-1,1546,1296,0,0
329,-272,0,0,0,0,0,0,0,0,0,-1,1553,1296,0,0
336,-272,0,0,0,0,0,0,0,0,0,-1,1560,1296,0,0
343,-272,0,0,0,0,0,0,0,0,0,-1,1567,1296,0,0
350,-272,0,0,0,0,0,0,0,0,0,-1,1574,1296,0,0
357,-272,0,0,0,0,0,0,0,0,0,-1,1581,1296,0,0
364,-272,0,0,0,0,0,0,0,0,0,-1,1588,1296,0,0
371,-272,0,0,0,0,0,0,0,0,0,-1,1595,1296,0,0
378,-272,0,0,0,0,0,0,0,0,0,-1,1602,1296,0,0
385,-272,0,0,0,0,0,0,0,0,0,-1,1609,1296,0,0
392,-272,0,0,0,0,0,0,0,0,0,-1,1616,1296,0,0
399,-272,0,0,0,0,0,0,0,0,0,-1,1623,1296,0,0
406,-272,0,0,0,0,0,0,0,0,0,-1,1630,1296,0,0
413,-272,0,0,0,0,0,0,0,0,0,-1,1637,1296,0,0
420,-272,0,0,0,0,0,0,0,0,0,-1,1644,1296,0,0
427,-272,0,0,0,0,0,0,0,0,0,-1,1651,1296,0,0
434,-272,0,0,0,0,0,0,0,0,0,-1,1658,1296,0,0
441,-272,0,0,0,0,0,0,0,0,0,-1,1665,1296,0,0
448,-272,0,0,0,0,0,0,0,0,0,-1,1672,1296,0,0
455,-272,0,0,0,0,0,0,0,0,0,-1,1679,1296,0,0
462,-272,0,0,0,0,0,0,0,0,0,-1,1686,1296,0,0
469,-272,0,0,0,0,0,0,0,0,0,-1,1693,1296,0,0
476,-272,0,0,0,0,0,0,0,0,0,-1,1700,1296,0,0
483,-272,0,0,0,0,0,0,0,0,0,-1,1707,1296,0,0
490,-272,0,0,0,0,0,0,0,0,0,-1,1714,1296,0,0
497,-272,0,0,0,0,0,0,0,0,0,-1,1721,1296,0,0
504,-272,0,0,0,0,0,0,0,0,0,-1,1728,1296,0,0
511,-272,0,0,0,0,0,0,0,0,0,-1,1735,1296,0,0
518,-272,0,0,0,0,0,0,0,0,0,-1,1742,1296,0,0
525,-272,0,0,0,0,0,0,0,0,0,-1,1749,1296,0,0
532,-272,0,0,0,0,0,0,0,0,0,-1,1756,1296,0,0
539,-272,0,0,0,0,0,0,0,0,0,-1,1763,1296,0,0
546,-272,0,0,0,0,0,0,0,0,0,-1,1770,1296,0,0
553,-272,0,0,0,0,0,0,0,0,0,-1,1777,1296,0,0
560,-272,0,0,0,0,0,0,0,0,0,-1,1784,1296,0,0
567,-272,0,0,0,0,0,0,0,0,0,-1,1791,1296,0,0
574,-272,0,0,0,0,0,0,0,0,0,-1,1798,1296,0,0
581,-272,0,0,0,0,0,0,0,0,0,-1,1805,1296,0,0
588,-272,0,0,0,0,0,0,0,0,0,-1,1812,1296,0,0
595,-272,0,0,0,0,0,0,0,0,0,-1,1819,1296,0,0
602,-272,17.4908,2.55066,0.0153003,0.0107482,0.00264094,0.0165106,0.00953786,0.429739,0.00957068,0.0324431,1826,1296,17.4909,-2.55066
609,-272,17.5486,2.51135,0.0051382,0.0156262,0.000408821,0.0156421,0.00512229,1.5319,0.00920844,0.0396177,1833,1296,17.5486,-2.51139
616,-272,17.6329,2.55676,-0.00390547,0.0182702,-0.000676908,0.0182908,-0.00392612,-1.54031,0.0136915,0.0452258,1840,1296,17.6329,-2.55672
623,-272,17.7289,2.42688,-0.0108083,0.0189234,-0.000769836,0.0189433,-0.0108282,-1.54493,0.0174001,0.0458867,1847,1296,17.7289,-2.42685
630,-272,17.6403,1.97595,-0.0153186,0.017952,2.7636e-05,0.0179521,-0.0153186,1.56997,0.0192289,0.0452047,1854,1296,17.6402,-1.97597
637,-272,17.6045,1.76538,-0.0174783,0.0159792,0.00113446,0.0160176,-0.0175167,1.53694,0.0193675,0.0474987,1861,1296,17.6045,-1.76532
644,-272,17.5803,1.58557,0,0,0,0,0,0,0,-1,1868,1296,17.5803,-1.58555
651,-272,16.7709,1.63184,0,0,0,0,0,0,0,-1,1875,1296,16.7708,-1.63185
658,-272,15.7794,2.45447,0,0,0,0,0,0,0,-1,1882,1296,15.7794,-2.45451
665,-272,14.6925,4.74097,0,0,0,0,0,0,0,-1,1889,1296,14.6925,-4.74101
672,-272,14.2523,4.70911,0,0,0,0,0,0,0,-1,1896,1296,14.2523,-4.70907
679,-272,14.3394,4.74768,-0.0126384,0.00378233,0.00500573,0.00518797,-0.014044,1.29704,0.0114893,0.023854,1903,1296,14.3394,-4.74766
686,-272,14.3245,4.66968,-0.00991104,0.00151894,0.00494483,0.00336122,-0.0117533,1.21416,0.0091638,0.0134413,1910,1296,14.3245,-4.66968
693,-272,14.3002,4.52063,-0.00681865,-4.4914e-05,0.00430791,0.00204809,-0.00891165,1.11853,0.00672851,0.0115065,1917,1296,14.3001,-4.52058
700,-272,14.3015,4.38501,-0.00375823,-0.000188638,0.00318895,0.001681,-0.00562787,1.04052,0.00442011,0.0110498,1924,1296,14.3015,-4.38503
707,-272,14.3226,4.22607,-0.00129587,-6.45457e-05,0.00196001,0.00137422,-0.00273464,0.937574,0.00241521,0.0105715,1931,1296,14.3227,-4.22613
714,-272,14.3188,4.06921,0.00168285,0.00102169,0.000501856,0.00195322,0.000751317,0.494161,0.00113765,0.0100137,1938,1296,14.3189,-4.06927
721,-272,14.3094,3.94678,0.00365736,0.00251648,-0.000165622,0.00368092,0.00249292,-0.141285,0.00216924,0.0104156,1945,1296,14.3094,-3.94679
728,-272,14.3031,3.83911,0.00397902,0.00473797,-0.000434395,0.0049353,0.0037817,-1.14441,0.00298102,0.0122228,1952,1296,14.3031,-3.83915
735,-272,14.3138,3.68933,0.00373002,0.00658805,-0.000380949,0.00663796,0.00368011,-1.44054,0.00383998,0.0124621,1959,1296,14.3138,-3.68929
742,-272,14.287,3.51367,0.0031388,0.00938403,6.58482e-05,0.00938472,0.00313811,1.56025,0.00551646,0.0229824,1966,1296,14.287,-3.51372
749,-272,14.2792,3.23743,0.00103656,0.0130553,0.00110875,0.0131568,0.000935136,1.47957,0.00847667,0.0404443,1973,1296,14.2791,-3.23739
756,-272,14.4049,2.97363,-0.00325205,0.0176419,0.0028421,0.0180216,-0.00363175,1.43799,0.0133902,0.0461182,1980,1296,14.4049,-2.97361
763,-272,14.6683,2.60413,0,0,0,0,0,0,0,-1,1987,1296,14.6683,-2.60418
770,-272,16.8159,1.40149,-0.0219857,0.029654,0.009172,0.0312347,-0.0235664,1.40013,0.0317425,0.0468346,1994,1296,16.8159,-1.40147
777,-272,15.911,2.35425,-0.0385855,0.0369371,0.0141746,0.0395098,-0.0411582,1.39125,0.046577,0.0441512,2001,1296,15.911,-2.35424
784,-272,0,0,0,0,0,0,0,0,0,-1,2008,1296,0,0
791,-272,0,0,0,0,0,0,0,0,0,-1,2015,1296,0,0
798,-272,0,0,0,0,0,0,0,0,0,-1,2022,1296,0,0
805,-272,0,0,0,0,0,0,0,0,0,-1,2029,1296,0,0
812,-272,0,0,0,0,0,0,0,0,0,-1,2036,1296,0,0
-700,-279,0,0,0,0,0,0,0,0,0,-1,524,1303,0,0
-693,-279,0,0,0,0,0,0,0,0,0,-1,531,1303,0,0
-686,-279,0,0,0,0,0,0,0,0,0,-1,538,1303,0,0
-679,-279,0,0,0,0,0,0,0,0,0,-1,545,1303,0,0
-672,-279,0,0,0,0,0,0,0,0,0,-1,552,1303,0,0
-665,-279,0,0,0,0,0,0,0,0,0,-1,559,1303,0,0
-658,-279,-4.70569,1.98157,0,0,0,0,0,0,0,-1,566,1303,-4.70572,-1.98155
-651,-279,-4.78009,1.43835,0.0478103,0.0564067,-0.0292358,0.0816586,0.0225584,-0.858384,0.0486937,0.0468113,573,1303,-4.78007,-1.4384
-644,-279,-4.85486,0.874756,0.0352451,0.0572104,-0.0209224,0.0698575,0.022598,-1.02709,0.0411615,0.0493761,580,1303,-4.85487,-0.874761
-637,-279,-5.0752,0.3396,0.0243182,0.0543653,-0.0148582,0.0604717,0.0182118,-1.18086,0.0358218,0.0470486,587,1303,-5.07518,-0.339628
-630,-279,-6.27271,-0.151611,0,0,0,0,0,0,0,-1,594,1303,-6.27269,0.151623
-623,-279,-6.52997,0.246216,0.00922971,0.0428757,-0.00703092,0.0442858,0.00781958,-1.37286,0.0272933,0.044609,601,1303,-6.52999,-0.246242
-616,-279,-6.45227,1.09705,0.00477125,0.0360419,-0.00458721,0.0367009,0.00411223,-1.42811,0.0232183,0.0405549,608,1303,-6.45229,-1.09705
-609,-279,-7.14349,1.4093,0,0,0,0,0,0,0,-1,615,1303,-7.1435,-1.40929
-602,-279,-7.2207,1.48596,0.000328884,0.0226275,-0.00140836,0.0227161,0.000240285,-1.50797,0.0150646,0.0113236,622,1303,-7.22073,-1.48596
-595,-279,-7.22839,1.6665,-0.000714126,0.0167802,0.000180515,0.0167821,-0.000715988,1.56048,0.0114342,0.00885369,629,1303,-7.22837,-1.66649
-588,-279,-7.20563,1.84985,-0.000634767,0.0103056,0.000766324,0.010359,-0.000688184,1.5012,0.00714647,0.00917819,636,1303,-7.20566,-1.8499
-581,-279,-7.22235,2.00415,-0.00131198,0.00546446,-0.000591106,0.00551564,-0.00136316,-1.48444,0.00420577,0.0106605,643,1303,-7.22235,-2.00419
-574,-279,-7.25354,2.17126,-0.000821767,0.00281744,-0.00139079,0.00328809,-0.00129242,-1.24449,0.00272694,0.0111967,650,1303,-7.25354,-2.17132
-567,-279,-7.26715,2.36707,-9.985e-05,0.000849271,-0.00275871,0.00317394,-0.00242452,-0.870576,0.00324191,0.0147537,657,1303,-7.26712,-2.36711
-560,-279,-7.24048,2.56531,-0.000629327,3.16596e-05,-0.00451083,0.00422408,-0.00482175,-0.821966,0.00522641,0.0152591,664,1303,-7.2405,-2.56527
-553,-279,-7.21515,2.74194,-0.0023057,0.000237248,-0.00589274,0.00499413,-0.00706258,-0.891654,0.00699501,0.0123721,671,1303,-7.21517,-2.74197
-546,-279,-7.2287,2.87183,-0.00431183,0.000842689,-0.00730501,0.00601175,-0.00948089,-0.954985,0.00901912,0.0143435,678,1303,-7.22867,-2.87186
-539,-279,-7.15814,2.78894,-0.0060413,-2.23116e-05,-0.0074565,0.00500912,-0.0110727,-0.977204,0.00950231,0.0414398,685,1303,-7.15812,-2.78889
-532,-279,-7.052,2.67664,0,0,0,0,0,0,0,-1,692,1303,-7.05201,-2.6766
-525,-279,-9.62836,-0.875488,-0.00973019,-0.00412645,-0.00591563,-0.0003827,-0.0134739,-1.00657,0.00885782,0.0481673,699,1303,-9.62833,0.875459
-518,-279,-10.1052,-0.387085,-0.0114299,-0.00745353,-0.00392866,-0.00503862,-0.0138448,-1.01964,0.00809136,0.0467662,706,1303,-10.1051,0.387127
-511,-279,-10.1243,0.449585,-0.0124092,-0.0125097,-0.000771315,-0.0116865,-0.0132324,-0.752869,0.00835411,0.0466188,713,1303,-10.1243,-0.449642
-504,-279,-10.801,0.831909,-0.0122935,-0.0195591,0.00359939,-0.0108123,-0.0210403,0.390388,0.0121492,0.0485498,720,1303,-10.801,-0.831928
-497,-279,-10.8813,0.958496,0,0,0,0,0,0,0,-1,727,1303,-10.8813,-0.958439
-490,-279,-11.019,1.13281,-0.00736902,-0.0408213,0.015847,-0.00105409,-0.0471362,0.379207,0.0310788,0.0439046,734,1303,-11.0191,-1.13284
-483,-279,-11.1925,1.14209,-0.00235229,-0.055564,0.0228649,0.00612287,-0.0640391,0.354962,0.0448732,0.040905,741,1303,-11.1925,-1.14203
-476,-279,0,0,0,0,0,0,0,0,0,-1,748,1303,0,0
-469,-279,0,0,0,0,0,0,0,0,0,-1,755,1303,0,0
-462,-279,0,0,0,0,0,0,0,0,0,-1,762,1303,0,0
-455,-279,0,0,0,0,0,0,0,0,0,-1,769,1303,0,0
-448,-279,0,0,0,0,0,0,0,0,0,-1,776,1303,0,0
-441,-279,0,0,0,0,0,0,0,0,0,-1,783,1303,0,0
-434,-279,0,0,0,0,0,0,0,0,0,-1,790,1303,0,0
-427,-279,0,0,0,0,0,0,0,0,0,-1,797,1303,0,0
-420,-279,0,0,0,0,0,0,0,0,0,-1,804,1303,0,0
-413,-279,0,0,0,0,0,0,0,0,0,-1,811,1303,0,0
-406,-279,0,0,0,0,0,0,0,0,0,-1,818,1303,0,0
-399,-279,0,0,0,0,0,0,0,0,0,-1,825,1303,0,0
-392,-279,0,0,0,0,0,0,0,0,0,-1,832,1303,0,0
-385,-279,0,0,0,0,0,0,0,0,0,-1,839,1303,0,0
-378,-279,0,0,0,0,0,0,0,0,0,-1,846,1303,0,0
-371,-279,0,0,0,0,0,0,0,0,0,-1,853,1303,0,0
-364,-279,0,0,0,0,0,0,0,0,0,-1,860,1303,0,0
-357,-279,0,0,0,0,0,0,0,0,0,-1,867,1303,0,0
-350,-279,0,0,0,0,0,0,0,0,0,-1,874,1303,0,0
-343,-279,0,0,0,0,0,0,0,0,0,-1,881,1303,0,0
-336,-279,0,0,0,0,0,0,0,0,0,-1,888,1303,0,0
-329,-279,0,0,0,0,0,0,0,0,0,-1,895,1303,0,0
-322,-279,0,0,0,0,0,0,0,0,0,-1,902,1303,0,0
-315,-279,0,0,0,0,0,0,0,0,0,-1,909,1303,0,0
-308,-279,0,0,0,0,0,0,0,0,0,-1,916,1303,0,0
-301,-279,0,0,0,0,0,0,0,0,0,-1,923,1303,0,0
-294,-279,0,0,0,0,0,0,0,0,0,-1,930,1303,0,0
-287,-279,0,0,0,0,0,0,0,0,0,-1,937,1303,0,0
-280,-279,0,0,0,0,0,0,0,0,0,-1,944,1303,0,0
-273,-279,0,0,0,0,0,0,0,0,0,-1,951,1303,0,0
-266,-279,0,0,0,0,0,0,0,0,0,-1,958,1303,0,0
-259,-279,0,0,0,0,0,0,0,0,0,-1,965,1303,0,0
-252,-279,0,0,0,0,0,0,0,0,0,-1,972,1303,0,0
-245,-279,0,0,0,0,0,0,0,0,0,-1,979,1303,0,0
-238,-279,0,0,0,0,0,0,0,0,0,-1,986,1303,0,0
-231,-279,0,0,0,0,0,0,0,0,0,-1,993,1303,0,0
-224,-279,0,0,0,0,0,0,0,0,0,-1,1000,1303,0,0
-217,-279,0,0,0,0,0,0,0,0,0,-1,1007,1303,0,0
-210,-279,0,0,0,0,0,0,0,0,0,-1,1014,1303,0,0
-203,-279,0,0,0,0,0,0,0,0,0,-1,1021,1303,0,0
-196,-279,0,0,0,0,0,0,0,0,0,-1,1028,1303,0,0
-189,-279,0,0,0,0,0,0,0,0,0,-1,1035,1303,0,0
-182,-279,0,0,0,0,0,0,0,0,0,-1,1042,1303,0,0
-175,-279,0,0,0,0,0,0,0,0,0,-1,1049,1303,0,0
-168,-279,0,0,0,0,0,0,0,0,0,-1,1056,1303,0,0
-161,-279,0,0,0,0,0,0,0,0,0,-1,1063,1303,0,0
-154,-279,0,0,0,0,0,0,0,0,0,-1,1070,1303,0,0
-147,-279,0,0,0,0,0,0,0,0,0,-1,1077,1303,0,0
-140,-279,0,0,0,0,0,0,0,0,0,-1,1084,1303,0,0
-133,-279,0,0,0,0,0,0,0,0,0,-1,1091,1303,0,0
-126,-279,0,0,0,0,0,0,0,0,0,-1,1098,1303,0,0
-119,-279,0,0,0,0,0,0,0,0,0,-1,1105,1303,0,0
-112,-279,0,0,0,0,0,0,0,0,0,-1,1112,1303,0,0
-105,-279,0,0,0,0,0,0,0,0,0,-1,1119,1303,0,0
-98,-279,0,0,0,0,0,0,0,0,0,-1,1126,1303,0,0
-91,-279,0,0,0,0,0,0,0,0,0,-1,1133,1303,0,0
-84,-279,0,0,0,0,0,0,0,0,0,-1,1140,1303,0,0
-77,-279,0,0,0,0,0,0,0,0,0,-1,1147,1303,0,0
-70,-279,0,0,0,0,0,0,0,0,0,-1,1154,1303,0,0
-63,-279,0,0,0,0,0,0,0,0,0,-1,1161,1303,0,0
-56,-279,0,0,0,0,0,0,0,0,0,-1,1168,1303,0,0
-49,-279,0,0,0,0,0,0,0,0,0,-1,1175,1303,0,0
-42,-279,0,0,0,0,0,0,0,0,0,-1,1182,1303,0,0
-35,-279,0,0,0,0,0,0,0,0,0,-1,1189,1303,0,0
-28,-279,0,0,0,0,0,0,0,0,0,-1,1196,1303,0,0
-21,-279,0,0,0,0,0,0,0,0,0,-1,1203,1303,0,0
-14,-279,0,0,0,0,0,0,0,0,0,-1,1210,1303,0,0
-7,-279,0,0,0,0,0,0,0,0,0,-1,1217,1303,0,0
0,-279,0,0,0,0,0,0,0,0,0,-1,1224,1303,0,0
7,-279,0,0,0,0,0,0,0,0,0,-1,1231,1303,0,0
14,-279,0,0,0,0,0,0,0,0,0,-1,1238,1303,0,0
21,-279,0,0,0,0,0,0,0,0,0,-1,1245,1303,0,0
28,-279,0,0,0,0,0,0,0,0,0,-1,1252,1303,0,0
35,-279,0,0,0,0,0,0,0,0,0,-1,1259,1303,0,0
42,-279,0,0,0,0,0,0,0,0,0,-1,1266,1303,0,0
49,-279,0,0,0,0,0,0,0,0,0,-1,1273,1303,0,0
56,-279,0,0,0,0,0,0,0,0,0,-1,1280,1303,0,0
63,-279,0,0,0,0,0,0,0,0,0,-1,1287,1303,0,0
70,-279,0,0,0,0,0,0,0,0,0,-1,1294,1303,0,0
77,-279,0,0,0,0,0,0,0,0,0,-1,1301,1303,0,0
84,-279,0,0,0,0,0,0,0,0,0,-1,1308,1303,0,0
91,-279,0,0,0,0,0,0,0,0,0,-1,1315,1303,0,0
98,-279,0,0,0,0,0,0,0,0,0,-1,1322,1303,0,0
105,-279,0,0,0,0,0,0,0,0,0,-1,1329,1303,0,0
112,-279,0,0,0,0,0,0,0,0,0,-1,1336,1303,0,0
119,-279,0,0,0,0,0,0,0,0,0,-1,1343,1303,0,0
126,-279,0,0,0,0,0,0,0,0,0,-1,1350,1303,0,0
133,-279,0,0,0,0,0,0,0,0,0,-1,1357,1303,0,0
140,-279,0,0,0,0,0,0,0,0,0,-1,1364,1303,0,0
147,-279,0,0,0,0,0,0,0,0,0,-1,1371,1303,0,0
154,-279,0,0,0,0,0,0,0,0,0,-1,1378,1303,0,0
161,-279,0,0,0,0,0,0,0,0,0,-1,1385,1303,0,0
168,-279,0,0,0,0,0,0,0,0,0,-1,1392,1303,0,0
175,-279,0,0,0,0,0,0,0,0,0,-1,1399,1303,0,0
182,-279,0,0,0,0,0,0,0,0,0,-1,1406,1303,0,0
189,-279,0,0,0,0,0,0,0,0,0,-1,1413,1303,0,0
196,-279,0,0,0,0,0,0,0,0,0,-1,1420,1303,0,0
203,-279,0,0,0,0,0,0,0,0,0,-1,1427,1303,0,0
210,-279,0,0,0,0,0,0,0,0,0,-1,1434,1303,0,0
217,-279,0,0,0,0,0,0,0,0,0,-1,1441,1303,0,0
224,-279,0,0,0,0,0,0,0,0,0,-1,1448,1303,0,0
231,-279,0,0,0,0,0,0,0,0,0,-1,1455,1303,0,0
238,-279,0,0,0,0,0,0,0,0,0,-1,1462,1303,0,0
245,-279,0,0,0,0,0,0,0,0,0,-1,1469,1303,0,0
252,-279,0,0,0,0,0,0,0,0,0,-1,1476,1303,0,0
259,-279,0,0,0,0,0,0,0,0,0,-1,1483,1303,0,0
266,-279,0,0,0,0,0,0,0,0,0,-1,1490,1303,0,0
273,-279,0,0,0,0,0,0,0,0,0,-1,1497,1303,0,0
280,-279,0,0,0,0,0,0,0,0,0,-1,1504,1303,0,0
287,-279,0,0,0,0,0,0,0,0,0,-1,1511,1303,0,0
294,-279,0,0,0,0,0,0,0,0,0,-1,1518,1303,0,0
301,-279,0,0,0,0,0,0,0,0,0,-1,1525,1303,0,0
308,-279,0,0,0,0,0,0,0,0,0,-1,1532,1303,0,0
315,-279,0,0,0,0,0,0,0,0,0,-1,1539,1303,0,0
322,-279,0,0,0,0,0,0,0,0,0,-1,1546,1303,0,0
329,-279,0,0,0,0,0,0,0,0,0,-1,1553,1303,0,0
336,-279,0,0,0,0,0,0,0,0,0,-1,1560,1303,0,0
343,-279,0,0,0,0,0,0,0,0,0,-1,1567,1303,0,0
350,-279,0,0,0,0,0,0,0,0,0,-1,1574,1303,0,0
357,-279,0,0,0,0,0,0,0,0,0,-1,1581,1303,0,0
364,-279,0,0,0,0,0,0,0,0,0,-1,1588,1303,0,0
371,-279,0,0,0,0,0,0,0,0,0,-1,1595,1303,0,0
378,-279,0,0,0,0,0,0,0,0,0,-1,1602,1303,0,0
385,-279,0,0,0,0,0,0,0,0,0,-1,1609,1303,0,0
392,-279,0,0,0,0,0,0,0,0,0,-1,1616,1303,0,0
399,-279,0,0,0,0,0,0,0,0,0,-1,1623,1303,0,0
406,-279,0,0,0,0,0,0,0,0,0,-1,1630,1303,0,0
413,-279,0,0,0,0,0,0,0,0,0,-1,1637,1303,0,0
420,-279,0,0,0,0,0,0,0,0,0,-1,1644,1303,0,0
427,-279,0,0,0,0,0,0,0,0,0,-1,1651,1303,0,0
434,-279,0,0,0,0,0,0,0,0,0,-1,1658,1303,0,0
441,-279,0,0,0,0,0,0,0,0,0,-1,1665,1303,0,0
448,-279,0,0,0,0,0,0,0,0,0,-1,1672,1303,0,0
455,-279,0,0,0,0,0,0,0,0,0,-1,1679,1303,0,0
462,-279,0,0,0,0,0,0,0,0,0,-1,1686,1303,0,0
469,-279,0,0,0,0,0,0,0,0,0,-1,1693,1303,0,0
476,-279,0,0,0,0,0,0,0,0,0,-1,1700,1303,0,0
483,-279,0,0,0,0,0,0,0,0,0,-1,1707,1303,0,0
490,-279,0,0,0,0,0,0,0,0,0,-1,1714,1303,0,0
497,-279,0,0,0,0,0,0,0,0,0,-1,1721,1303,0,0
504,-279,0,0,0,0,0,0,0,0,0,-1,1728,1303,0,0
511,-279,0,0,0,0,0,0,0,0,0,-1,1735,1303,0,0
518,-279,0,0,0,0,0,0,0,0,0,-1,1742,1303,0,0
525,-279,0,0,0,0,0,0,0,0,0,-1,1749,1303,0,0
532,-279,0,0,0,0,0,0,0,0,0,-1,1756,1303,0,0
539,-279,0,0,0,0,0,0,0,0,0,-1,1763,1303,0,0
546,-279,0,0,0,0,0,0,0,0,0,-1,1770,1303,0,0
553,-279,0,0,0,0,0,0,0,0,0,-1,1777,1303,0,0
560,-279,0,0,0,0,0,0,0,0,0,-1,1784,1303,0,0
567,-279,0,0,0,0,0,0,0,0,0,-1,1791,1303,0,0
574,-279,0,0,0,0,0,0,0,0,0,-1,1798,1303,0,0
581,-279,0,0,0,0,0,0,0,0,0,-1,1805,1303,0,0
588,-279,0,0,0,0,0,0,0,0,0,-1,1812,1303,0,0
595,-279,0,0,0,0,0,0,0,0,0,-1,1819,1303,0,0
602,-279,17.4358,2.39978,0.0140774,0.0133188,0.00419305,0.0179083,0.00948793,0.740293,0.0103455,0.0460563,1826,1303,17.4358,-2.39976
609,-279,17.4534,2.3822,0.00379099,0.0175176,0.00199882,0.0178027,0.00350585,1.4291,0.0108896,0.0497551,1833,1303,17.4534,-2.38222
616,-279,17.5321,2.58911,-0.00529444,0.0195697,0.000794026,0.019595,-0.00531977,1.53891,0.0151512,0.0468587,1840,1303,17.5321,-2.58913
623,-279,17.8309,2.41797,0,0,0,0,0,0,0,-1,1847,1303,17.8309,-2.41798
630,-279,17.5443,1.40454,-0.0168617,0.0186289,0.000783989,0.0186462,-0.016879,1.54872,0.020519,0.0458112,1854,1303,17.5443,-1.40455
637,-279,17.3987,1.07971,-0.0190391,0.0164789,0.00163482,0.016554,-0.0191142,1.5249,0.0206107,0.0465472,1861,1303,17.3987,-1.07976
644,-279,17.2928,0.602417,0,0,0,0,0,0,0,-1,1868,1303,17.2929,-0.602365
651,-279,16.1204,0.829834,0,0,0,0,0,0,0,-1,1875,1303,16.1203,-0.82985
658,-279,14.3973,5.57385,0,0,0,0,0,0,0,-1,1882,1303,14.3974,-5.57388
665,-279,14.7046,4.96851,0,0,0,0,0,0,0,-1,1889,1303,14.7046,-4.96845
672,-279,14.4504,4.89612,-0.015479,0.00546378,0.00440346,0.00635198,-0.0163672,1.37176,0.0135351,0.0401715,1896,1303,14.4504,-4.89615
679,-279,14.202,4.85535,-0.0130527,0.00372545,0.00459867,0.00490321,-0.0142304,1.32008,0.011476,0.0253663,1903,1303,14.202,-4.85532
686,-279,14.1771,4.69495,-0.00995559,0.00142429,0.00440027,0.00292725,-0.0114585,1.24166,0.00877899,0.0189318,1910,1303,14.1771,-4.6949
693,-279,14.1343,4.53821,-0.0066313,-6.7209e-05,0.00370342,0.00159919,-0.0082977,1.14797,0.00613474,0.0152447,1917,1303,14.1343,-4.53825
700,-279,14.1315,4.39148,-0.00340604,-8.02342e-05,0.0025391,0.00129204,-0.00477831,1.07531,0.00369236,0.0110041,1924,1303,14.1314,-4.39145
707,-279,14.1583,4.23242,-0.000746225,7.76259e-05,0.00130926,0.00103823,-0.00170683,0.937808,0.00160046,0.00856669,1931,1303,14.1584,-4.23243
714,-279,14.1508,4.07458,0.00251658,0.00138387,-0.00010542,0.00252631,0.00137414,-0.0920152,0.00146044,0.00978704,1938,1303,14.1507,-4.07463
721,-279,14.1488,3.94702,0.00471576,0.00300864,-0.00071109,0.00497315,0.00275124,-0.347295,0.00287667,0.011653,1945,1303,14.1488,-3.94699
728,-279,14.158,3.80884,0.00532615,0.00548069,-0.000849081,0.00625601,0.00455083,-0.830775,0.00373438,0.0119535,1952,1303,14.1579,-3.8088
735,-279,14.1735,3.66565,0.00549571,0.00774112,-0.000712773,0.00794826,0.00528856,-1.28796,0.00467185,0.0121444,1959,1303,14.1735,-3.66562
742,-279,14.1202,3.49023,0.00535668,0.0111443,-0.00013103,0.0111472,0.00535372,-1.54817,0.00643753,0.0234136,1966,1303,14.1203,-3.49025
749,-279,14.2866,3.28186,0.00370696,0.0157005,0.00114826,0.0158095,0.00359802,1.4762,0.00956852,0.0412994,1973,1303,14.2866,-3.28181
756,-279,14.5875,3.06946,-0.00026011,0.0215396,0.0033188,0.0220337,-0.000754168,1.42302,0.0149469,0.0486845,1980,1303,14.5875,-3.06951
763,-279,14.8981,2.80347,0,0,0,0,0,0,0,-1,1987,1303,14.898,-2.80345
770,-279,16.7014,0.685913,-0.0194723,0.037446,0.011411,0.0396484,-0.0216748,1.38013,0.0359083,0.0486699,1994,1303,16.7014,-0.685854
777,-279,15.672,1.74719,-0.0373587,0.0474798,0.0179079,0.051105,-0.0409839,1.37106,0.0532745,0.0496586,2001,1303,15.672,-1.74725
784,-279,0,0,0,0,0,0,0,0,0,-1,2008,1303,0,0
791,-279,0,0,0,0,0,0,0,0,0,-1,2015,1303,0,0
798,-279,0,0,0,0,0,0,0,0,0,-1,2022,1303,0,0
805,-279,0,0,0,0,0,0,0,0,0,-1,2029,1303,0,0
812,-279,0,0,0,0,0,0,0,0,0,-1,2036,1303,0,0
-700,-286,0,0,0,0,0,0,0,0,0,-1,524,1310,0,0
-693,-286,0,0,0,0,0,0,0,0,0,-1,531,1310,0,0
-686,-286,0,0,0,0,0,0,0,0,0,-1,538,1310,0,0
-679,-286,0,0,0,0,0,0,0,0,0,-1,545,1310,0,0
-672,-286,0,0,0,0,0,0,0,0,0,-1,552,1310,0,0
-665,-286,0,0,0,0,0,0,0,0,0,-1,559,1310,0,0
-658,-286,-4.75092,1.61108,0,0,0,0,0,0,0,-1,566,1310,-4.75092,-1.61108
-651,-286,-4.82367,1.07422,0.040461,0.0712275,-0.0431393,0.101644,0.0100442,-0.956667,0.0646753,0.0488003,573,1310,-4.82365,-1.07417
-644,-286,-4.99243,0.548706,0.0233258,0.0716707,-0.0307333,0.0865986,0.00839781,-1.11863,0.0551467,0.0496416,580,1310,-4.99246,-0.548749
-637,-286,-5.83234,-0.906372,0.0108063,0.0675996,-0.0220178,0.0751355,0.00327028,-1.24103,0.0490366,0.047144,587,1310,-5.83232,0.906366
-630,-286,-6.01483,-0.63501,0.00265137,0.0608067,-0.0157164,0.0647823,-0.00132421,-1.32304,0.0436363,0.0445738,594,1310,-6.01485,0.63505
-623,-286,-6.44379,-0.123413,-0.0023058,0.0526767,-0.0110448,0.0548124,-0.0044415,-1.37979,0.0381085,0.043652,601,1310,-6.44377,0.123365
-616,-286,-6.67395,0.195557,-0.00488779,0.0440636,-0.00752281,0.0451937,-0.00601781,-1.4217,0.0323223,0.0433701,608,1310,-6.67394,-0.195529
-609,-286,-6.8634,0.653687,0,0,0,0,0,0,0,-1,615,1310,-6.86339,-0.653707
-602,-286,-7.0697,1.474,-0.00558777,0.0276453,-0.00298058,0.0279105,-0.00585297,-1.48205,0.0208339,0.0135828,622,1310,-7.0697,-1.47402
-595,-286,-7.05646,1.65723,-0.00546269,0.0207902,-0.000673741,0.0208074,-0.00547997,-1.54516,0.0160139,0.0102581,629,1310,-7.05643,-1.65721
-588,-286,-7.02844,1.82764,-0.00407839,0.0132203,0.000321136,0.0132263,-0.00408435,1.55224,0.0104486,0.0104203,636,1310,-7.02843,-1.82758
-581,-286,-7.02362,1.9884,-0.00332714,0.00735164,-0.000532294,0.00737811,-0.0033536,-1.52111,0.00633952,0.0131316,643,1310,-7.02365,-1.98835
-574,-286,-7.06122,2.16565,-0.00193775,0.00387197,-0.00101147,0.00404303,-0.00210882,-1.40326,0.00360982,0.013898,650,1310,-7.06124,-2.16571
-567,-286,-7.0672,2.3656,-0.000659228,0.00119308,-0.00212186,0.00258211,-0.00204826,-0.991176,0.00267926,0.0128557,657,1310,-7.06718,-2.36557
-560,-286,-7.05591,2.55432,-0.00108281,7.03592e-05,-0.00373582,0.00327383,-0.00428628,-0.861964,0.00437786,0.0130585,664,1310,-7.05594,-2.55437
-553,-286,-7.05554,2.73804,-0.00265469,0.000172574,-0.00505124,0.00400426,-0.00648637,-0.921837,0.00611302,0.0105189,671,1310,-7.05553,-2.73808
-546,-286,-7.04688,2.91895,-0.00455685,0.000626585,-0.00639709,0.00493702,-0.00886728,-0.977863,0.00807688,0.0121297,678,1310,-7.04689,-2.9189
-539,-286,-7.02966,3.09937,-0.00606264,-0.000512466,-0.00640788,0.00369543,-0.0102705,-0.989743,0.00835581,0.0282361,685,1310,-7.02963,-3.09937
-532,-286,-6.93951,3.23779,-0.00758998,-0.00275662,-0.00583673,0.00114396,-0.0114906,-0.981677,0.00806877,0.0492683,692,1310,-6.93951,-3.23773
-525,-286,-7.01001,3.21558,0,0,0,0,0,0,0,-1,699,1310,-7.01002,-3.21557
-518,-286,-9.84686,0.137329,0,0,0,0,0,0,0,-1,706,1310,-9.84687,-0.137328
-511,-286,-9.94391,0.635986,0,0,0,0,0,0,0,-1,713,1310,-9.9439,-0.636019
-504,-286,-10.834,1.18542,0,0,0,0,0,0,0,-1,720,1310,-10.834,-1.18548
-497,-286,-11.4561,1.63721,0,0,0,0,0,0,0,-1,727,1310,-11.4561,-1.63722
-490,-286,-11.2242,1.5426,-0.00415652,-0.0432299,0.0163581,0.00178755,-0.049174,0.348537,0.0333945,0.0421231,734,1310,-11.2242,-1.54254
-483,-286,-11.4178,1.55054,0.00161273,-0.0575073,0.0234194,0.0097656,-0.0656602,0.335004,0.0473654,0.0406623,741,1310,-11.4178,-1.55058
-476,-286,-11.4979,1.55945,0,0,0,0,0,0,0,-1,748,1310,-11.4978,-1.5595
-469,-286,0,0,0,0,0,0,0,0,0,-1,755,1310,0,0
-462,-286,0,0,0,0,0,0,0,0,0,-1,762,1310,0,0
-455,-286,0,0,0,0,0,0,0,0,0,-1,769,1310,0,0
-448,-286,0,0,0,0,0,0,0,0,0,-1,776,1310,0,0
-441,-286,0,0,0,0,0,0,0,0,0,-1,783,1310,0,0
-434,-286,0,0,0,0,0,0,0,0,0,-1,790,1310,0,0
-427,-286,0,0,0,0,0,0,0,0,0,-1,797,1310,0,0
-420,-286,0,0,0,0,0,0,0,0,0,-1,804,1310,0,0
-413,-286,0,0,0,0,0,0,0,0,0,-1,811,1310,0,0
-406,-286,0,0,0,0,0,0,0,0,0,-1,818,1310,0,0
-399,-286,0,0,0,0,0,0,0,0,0,-1,825,1310,0,0
-392,-286,0,0,0,0,0,0,0,0,0,-1,832,1310,0,0
-385,-286,0,0,0,0,0,0,0,0,0,-1,839,1310,0,0
-378,-286,0,0,0,0,0,0,0,0,0,-1,846,1310,0,0
-371,-286,0,0,0,0,0,0,0,0,0,-1,853,1310,0,0
-364,-286,0,0,0,0,0,0,0,0,0,-1,860,1310,0,0
-357,-286,0,0,0,0,0,0,0,0,0,-1,867,1310,0,0
-350,-286,0,0,0,0,0,0,0,0,0,-1,874,1310,0,0
-343,-286,0,0,0,0,0,0,0,0,0,-1,881,1310,0,0
-336,-286,0,0,0,0,0,0,0,0,0,-1,888,1310,0,0
-329,-286,0,0,0,0,0,0,0,0,0,-1,895,1310,0,0
-322,-286,0,0,0,0,0,0,0,0,0,-1,902,1310,0,0
-315,-286,0,0,0,0,0,0,0,0,0,-1,909,1310,0,0
-308,-286,0,0,0,0,0,0,0,0,0,-1,916,1310,0,0
-301,-286,0,0,0,0,0,0,0,0,0,-1,923,1310,0,0
-294,-286,0,0,0,0,0,0,0,0,0,-1,930,1310,0,0
-287,-286,0,0,0,0,0,0,0,0,0,-1,937,1310,0,0
-280,-286,0,0,0,0,0,0,0,0,0,-1,944,1310,0,0
-273,-286,0,0,0,0,0,0,0,0,0,-1,951,1310,0,0
-266,-286,0,0,0,0,0,0,0,0,0,-1,958,1310,0,0
-259,-286,0,0,0,0,0,0,0,0,0,-1,965,1310,0,0
-252,-286,0,0,0,0,0,0,0,0,0,-1,972,1310,0,0
-245,-286,0,0,0,0,0,0,0,0,0,-1,979,1310,0,0
-238,-286,0,0,0,0,0,0,0,0,0,-1,986,1310,0,0
-231,-286,0,0,0,0,0,0,0,0,0,-1,993,1310,0,0
-224,-286,0,0,0,0,0,0,0,0,0,-1,1000,1310,0,0
-217,-286,0,0,0,0,0,0,0,0,0,-1,1007,1310,0,0
-210,-286,0,0,0,0,0,0,0,0,0,-1,1014,1310,0,0
-203,-286,0,0,0,0,0,0,0,0,0,-1,1021,1310,0,0
-196,-286,0,0,0,0,0,0,0,0,0,-1,1028,1310,0,0
-189,-286,0,0,0,0,0,0,0,0,0,-1,1035,1310,0,0
-182,-286,0,0,0,0,0,0,0,0,0,-1,1042,1310,0,0
-175,-286,0,0,0,0,0,0,0,0,0,-1,1049,1310,0,0
-168,-286,0,0,0,0,0,0,0,0,0,-1,1056,1310,0,0
-161,-286,0,0,0,0,0,0,0,0,0,-1,1063,1310,0,0
-154,-286,0,0,0,0,0,0,0,0,0,-1,1070,1310,0,0
-147,-286,0,0,0,0,0,0,0,0,0,-1,1077,1310,0,0
-140,-286,0,0,0,0,0,0,0,0,0,-1,1084,1310,0,0
-133,-286,0,0,0,0,0,0,0,0,0,-1,1091,1310,0,0
-126,-286,0,0,0,0,0,0,0,0,0,-1,1098,1310,0,0
-119,-286,0,0,0,0,0,0,0,0,0,-1,1105,1310,0,0
-112,-286,0,0,0,0,0,0,0,0,0,-1,1112,1310,0,0
-105,-286,0,0,0,0,0,0,0,0,0,-1,1119,1310,0,0
-98,-286,0,0,0,0,0,0,0,0,0,-1,1126,1310,0,0
-91,-286,0,0,0,0,0,0,0,0,0,-1,1133,1310,0,0
-84,-286,0,0,0,0,0,0,0,0,0,-1,1140,1310,0,0
-77,-286,0,0,0,0,0,0,0,0,0,-1,1147,1310,0,0
-70,-286,0,0,0,0,0,0,0,0,0,-1,1154,1310,0,0
-63,-286,0,0,0,0,0,0,0,0,0,-1,1161,1310,0,0
-56,-286,0,0,0,0,0,0,0,0,0,-1,1168,1310,0,0
-49,-286,0,0,0,0,0,0,0,0,0,-1,1175,1310,0,0
-42,-286,0,0,0,0,0,0,0,0,0,-1,1182,1310,0,0
-35,-286,0,0,0,0,0,0,0,0,0,-1,1189,1310,0,0
-28,-286,0,0,0,0,0,0,0,0,0,-1,1196,1310,0,0
-21,-286,0,0,0,0,0,0,0,0,0,-1,1203,1310,0,0
-14,-286,0,0,0,0,0,0,0,0,0,-1,1210,1310,0,0
-7,-286,0,0,0,0,0,0,0,0,0,-1,1217,1310,0,0
0,-286,0,0,0,0,0,0,0,0,0,-1,1224,1310,0,0
7,-286,0,0,0,0,0,0,0,0,0,-1,1231,1310,0,0
14,-286,0,0,0,0,0,0,0,0,0,-1,1238,1310,0,0
21,-286,0,0,0,0,0,0,0,0,0,-1,1245,1310,0,0
28,-286,0,0,0,0,0,0,0,0,0,-1,1252,1310,0,0
35,-286,0,0,0,0,0,0,0,0,0,-1,1259,1310,0,0
42,-286,0,0,0,0,0,0,0,0,0,-1,1266,1310,0,0
49,-286,0,0,0,0,0,0,0,0,0,-1,1273,1310,0,0
56,-286,0,0,0,0,0,0,0,0,0,-1,1280,1310,0,0
63,-286,0,0,0,0,0,0,0,0,0,-1,1287,1310,0,0
70,-286,0,0,0,0,0,0,0,0,0,-1,1294,1310,0,0
77,-286,0,0,0,0,0,0,0,0,0,-1,1301,1310,0,0
84,-286,0,0,0,0,0,0,0,0,0,-1,1308,1310,0,0
91,-286,0,0,0,0,0,0,0,0,0,-1,1315,1310,0,0
98,-286,0,0,0,0,0,0,0,0,0,-1,1322,1310,0,0
105,-286,0,0,0,0,0,0,0,0,0,-1,1329,1310,0,0
112,-286,0,0,0,0,0,0,0,0,0,-1,1336,1310,0,0
119,-286,0,0,0,0,0,0,0,0,0,-1,1343,1310,0,0
126,-286,0,0,0,0,0,0,0,0,0,-1,1350,1310,0,0
133,-286,0,0,0,0,0,0,0,0,0,-1,1357,1310,0,0
140,-286,0,0,0,0,0,0,0,0,0,-1,1364,1310,0,0
147,-286,0,0,0,0,0,0,0,0,0,-1,1371,1310,0,0
154,-286,0,0,0,0,0,0,0,0,0,-1,1378,1310,0,0
161,-286,0,0,0,0,0,0,0,0,0,-1,1385,1310,0,0
168,-286,0,0,0,0,0,0,0,0,0,-1,1392,1310,0,0
175,-286,0,0,0,0,0,0,0,0,0,-1,1399,1310,0,0
182,-286,0,0,0,0,0,0,0,0,0,-1,1406,1310,0,0
189,-286,0,0,0,0,0,0,0,0,0,-1,1413,1310,0,0
196,-286,0,0,0,0,0,0,0,0,0,-1,1420,1310,0,0
203,-286,0,0,0,0,0,0,0,0,0,-1,1427,1310,0,0
210,-286,0,0,0,0,0,0,0,0,0,-1,1434,1310,0,0
217,-286,0,0,0,0,0,0,0,0,0,-1,1441,1310,0,0
224,-286,0,0,0,0,0,0,0,0,0,-1,1448,1310,0,0
231,-286,0,0,0,0,0,0,0,0,0,-1,1455,1310,0,0
238,-286,0,0,0,0,0,0,0,0,0,-1,1462,1310,0,0
245,-286,0,0,0,0,0,0,0,0,0,-1,1469,1310,0,0
252,-286,0,0,0,0,0,0,0,0,0,-1,1476,1310,0,0
259,-286,0,0,0,0,0,0,0,0,0,-1,1483,1310,0,0
266,-286,0,0,0,0,0,0,0,0,0,-1,1490,1310,0,0
273,-286,0,0,0,0,0,0,0,0,0,-1,1497,1310,0,0
280,-286,0,0,0,0,0,0,0,0,0,-1,1504,1310,0,0
287,-286,0,0,0,0,0,0,0,0,0,-1,1511,1310,0,0
294,-286,0,0,0,0,0,0,0,0,0,-1,1518,1310,0,0
301,-286,0,0,0,0,0,0,0,0,0,-1,1525,1310,0,0
308,-286,0,0,0,0,0,0,0,0,0,-1,1532,1310,0,0
315,-286,0,0,0,0,0,0,0,0,0,-1,1539,1310,0,0
322,-286,0,0,0,0,0,0,0,0,0,-1,1546,1310,0,0
329,-286,0,0,0,0,0,0,0,0,0,-1,1553,1310,0,0
336,-286,0,0,0,0,0,0,0,0,0,-1,1560,1310,0,0
343,-286,0,0,0,0,0,0,0,0,0,-1,1567,1310,0,0
350,-286,0,0,0,0,0,0,0,0,0,-1,1574,1310,0,0
357,-286,0,0,0,0,0,0,0,0,0,-1,1581,1310,0,0
364,-286,0,0,0,0,0,0,0,0,0,-1,1588,1310,0,0
371,-286,0,0,0,0,0,0,0,0,0,-1,1595,1310,0,0
378,-286,0,0,0,0,0,0,0,0,0,-1,1602,1310,0,0
385,-286,0,0,0,0,0,0,0,0,0,-1,1609,1310,0,0
392,-286,0,0,0,0,0,0,0,0,0,-1,1616,1310,0,0
399,-286,0,0,0,0,0,0,0,0,0,-1,1623,1310,0,0
406,-286,0,0,0,0,0,0,0,0,0,-1,1630,1310,0,0
413,-286,0,0,0,0,0,0,0,0,0,-1,1637,1310,0,0
420,-286,0,0,0,0,0,0,0,0,0,-1,1644,1310,0,0
427,-286,0,0,0,0,0,0,0,0,0,-1,1651,1310,0,0
434,-286,0,0,0,0,0,0,0,0,0,-1,1658,1310,0,0
441,-286,0,0,0,0,0,0,0,0,0,-1,1665,1310,0,0
448,-286,0,0,0,0,0,0,0,0,0,-1,1672,1310,0,0
455,-286,0,0,0,0,0,0,0,0,0,-1,1679,1310,0,0
462,-286,0,0,0,0,0,0,0,0,0,-1,1686,1310,0,0
469,-286,0,0,0,0,0,0,0,0,0,-1,1693,1310,0,0
476,-286,0,0,0,0,0,0,0,0,0,-1,1700,1310,0,0
483,-286,0,0,0,0,0,0,0,0,0,-1,1707,1310,0,0
490,-286,0,0,0,0,0,0,0,0,0,-1,1714,1310,0,0
497,-286,0,0,0,0,0,0,0,0,0,-1,1721,1310,0,0
504,-286,0,0,0,0,0,0,0,0,0,-1,1728,1310,0,0
511,-286,0,0,0,0,0,0,0,0,0,-1,1735,1310,0,0
518,-286,0,0,0,0,0,0,0,0,0,-1,1742,1310,0,0
525,-286,0,0,0,0,0,0,0,0,0,-1,1749,1310,0,0
532,-286,0,0,0,0,0,0,0,0,0,-1,1756,1310,0,0
539,-286,0,0,0,0,0,0,0,0,0,-1,1763,1310,0,0
546,-286,0,0,0,0,0,0,0,0,0,-1,1770,1310,0,0
553,-286,0,0,0,0,0,0,0,0,0,-1,1777,1310,0,0
560,-286,0,0,0,0,0,0,0,0,0,-1,1784,1310,0,0
567,-286,0,0,0,0,0,0,0,0,0,-1,1791,1310,0,0
574,-286,0,0,0,0,0,0,0,0,0,-1,1798,1310,0,0
581,-286,0,0,0,0,0,0,0,0,0,-1,1805,1310,0,0
588,-286,0,0,0,0,0,0,0,0,0,-1,1812,1310,0,0
595,-286,16.8556,2.32043,0,0,0,0,0,0,0,-1,1819,1310,16.8556,-2.32049
602,-286,17.2394,2.08887,0,0,0,0,0,0,0,-1,1826,1310,17.2393,-2.08884
609,-286,17.3467,2.23291,0.00358705,0.0176077,0.00320665,0.0183063,0.00288847,1.35629,0.0113644,0.048804,1833,1310,17.3467,-2.23292
616,-286,17.4508,2.45581,-0.00541437,0.0195465,0.00203289,0.019711,-0.00557886,1.49006,0.0153422,0.0461927,1840,1310,17.4508,-2.45584
623,-286,17.8802,1.15698,0,0,0,0,0,0,0,-1,1847,1310,17.8803,-1.15701
630,-286,17.4939,0.987305,-0.017603,0.0186513,0.00169392,0.0187303,-0.017682,1.52421,0.0210255,0.0462644,1854,1310,17.4939,-0.987306
637,-286,17.0686,0.875,-0.0199848,0.0164143,0.00236105,0.0165668,-0.0201373,1.50629,0.0212245,0.043575,1861,1310,17.0686,-0.875042
644,-286,16.3455,0.666138,-0.0204926,0.0138479,0.00299665,0.0141075,-0.0207521,1.4844,0.0202477,0.0445469,1868,1310,16.3455,-0.66614
651,-286,15.3813,0.292969,0,0,0,0,0,0,0,-1,1875,1310,15.3813,-0.292989
658,-286,14.7388,5.02637,0,0,0,0,0,0,0,-1,1882,1310,14.7388,-5.02631
665,-286,14.4628,5.04089,-0.0174344,0.00685319,0.00401991,0.00750124,-0.0180825,1.41096,0.015186,0.0478468,1889,1310,14.4628,-5.04093
672,-286,14.1465,5.02649,-0.015769,0.00496296,0.0042828,0.00581286,-0.0166189,1.3749,0.0134426,0.0284957,1896,1310,14.1465,-5.02653
679,-286,14.0164,4.87756,-0.0129321,0.00321426,0.00424792,0.00426364,-0.0139815,1.32861,0.0110206,0.0210447,1903,1310,14.0164,-4.87762
686,-286,14.0231,4.70801,-0.00953092,0.00102316,0.00387777,0.00229473,-0.0108025,1.25393,0.00807598,0.0185434,1910,1310,14.0231,-4.70798
693,-286,13.9921,4.54272,-0.00608746,-0.000249518,0.00310238,0.00109122,-0.0074282,1.16287,0.00535308,0.0147151,1917,1310,13.992,-4.54267
700,-286,13.996,4.37048,-0.00276231,-4.44977e-05,0.00188096,0.000917075,-0.00372388,1.09822,0.00283811,0.0112825,1924,1310,13.9959,-4.37043
707,-286,14.0078,4.24011,0.000103149,0.000179133,0.000649042,0.000791294,-0.000509011,0.814633,0.000756605,0.00856041,1931,1310,14.0078,-4.24011
714,-286,13.9993,4.09607,0.00368262,0.00175446,-0.000748562,0.00393911,0.00149797,-0.330109,0.00229587,0.00840146,1938,1310,13.9992,-4.09612
721,-286,14.0094,3.95203,0.00617925,0.00349235,-0.00135952,0.00674712,0.00292448,-0.395672,0.00390694,0.0107907,1945,1310,14.0093,-3.95208
728,-286,13.9965,3.80249,0.00726774,0.00616582,-0.00146812,0.00828487,0.00514868,-0.605888,0.00483009,0.013381,1952,1310,13.9965,-3.8025
735,-286,14.001,3.63855,0.00816202,0.00880679,-0.00134937,0.00987175,0.00709706,-0.902659,0.00587875,0.0147379,1959,1310,14.001,-3.63854
742,-286,13.9951,3.46973,0.00887253,0.0127863,-0.00074021,0.0129217,0.00873722,-1.38999,0.00761312,0.0249273,1966,1310,13.9951,-3.46973
749,-286,14.2937,3.11963,0.00817791,0.018214,0.000648433,0.0182557,0.00813619,1.50654,0.0105607,0.0384671,1973,1310,14.2937,-3.11959
756,-286,14.6221,2.90247,0,0,0,0,0,0,0,-1,1980,1310,14.6221,-2.90251
763,-286,17.7926,-1.47424,0,0,0,0,0,0,0,-1,1987,1310,17.7926,1.47428
770,-286,16.873,0.514526,0,0,0,0,0,0,0,-1,1994,1310,16.873,-0.51452
777,-286,0,0,0,0,0,0,0,0,0,-1,2001,1310,0,0
784,-286,0,0,0,0,0,0,0,0,0,-1,2008,1310,0,0
791,-286,0,0,0,0,0,0,0,0,0,-1,2015,1310,0,0
798,-286,0,0,0,0,0,0,0,0,0,-1,2022,1310,0,0
805,-286,0,0,0,0,0,0,0,0,0,-1,2029,1310,0,0
812,-286,0,0,0,0,0,0,0,0,0,-1,2036,1310,0,0
-700,-293,0,0,0,0,0,0,0,0,0,-1,524,1317,0,0
-693,-293,0,0,0,0,0,0,0,0,0,-1,531,1317,0,0
-686,-293,0,0,0,0,0,0,0,0,0,-1,538,1317,0,0
-679,-293,0,0,0,0,0,0,0,0,0,-1,545,1317,0,0
-672,-293,0,0,0,0,0,0,0,0,0,-1,552,1317,0,0
-665,-293,0,0,0,0,0,0,0,0,0,-1,559,1317,0,0
-658,-293,0,0,0,0,0,0,0,0,0,-1,566,1317,0,0
-651,-293,-4.97766,0.780884,0.0282526,0.0861021,-0.0562008,0.120385,-0.00603006,-1.02305,0.0823401,0.046844,573,1317,-4.97765,-0.780893
-644,-293,-5.17053,0.188965,0.00863139,0.085264,-0.0401125,0.10242,-0.00852437,-1.16665,0.0712914,0.044442,580,1317,-5.17051,-0.189025
-637,-293,-5.91516,-0.971313,0,0,0,0,0,0,0,-1,587,1317,-5.91515,0.971346
-630,-293,-6.12109,-0.754639,-0.0106427,0.0707124,-0.0208971,0.0757662,-0.0156965,-1.33351,0.0564748,0.0465133,594,1317,-6.1211,0.754584
-623,-293,-6.29974,-0.473999,-0.0135495,0.0607768,-0.0149421,0.0636681,-0.0164409,-1.37965,0.0488567,0.0456852,601,1317,-6.29975,0.473945
-616,-293,-6.4682,-0.200439,0,0,0,0,0,0,0,-1,608,1317,-6.46821,0.200447
-609,-293,-6.7605,1.2135,0,0,0,0,0,0,0,-1,615,1317,-6.76052,-1.21349
-602,-293,-6.85254,1.42822,-0.011104,0.0314994,-0.00448301,0.031966,-0.0115706,-1.46708,0.0260391,0.0261209,622,1317,-6.85252,-1.4282
-595,-293,-6.89252,1.64661,-0.00995284,0.0238547,-0.00148664,0.0239199,-0.0100181,-1.52694,0.0201346,0.0150108,629,1317,-6.89252,-1.64664
-588,-293,-6.86011,1.81763,-0.00743012,0.0154948,-0.000121325,0.0154955,-0.00743076,-1.5655,0.0135067,0.0143524,636,1317,-6.86008,-1.81761
-581,-293,-6.85553,1.98767,-0.00534115,0.00890742,-0.000485626,0.00892395,-0.00535768,-1.53677,0.00833076,0.0178593,643,1317,-6.85554,-1.98765
-574,-293,-6.88464,2.18652,-0.00308799,0.00479654,-0.000602943,0.00484238,-0.00313383,-1.49491,0.00464015,0.0174706,650,1317,-6.88464,-2.1865
-567,-293,-6.89148,2.38086,-0.00126285,0.00159291,-0.00144549,0.00219685,-0.00186678,-1.17503,0.00234872,0.0163783,657,1317,-6.89148,-2.38085
-560,-293,-6.89587,2.5675,-0.00153213,0.000295534,-0.00292609,0.00244717,-0.00368377,-0.936752,0.00356362,0.0167252,664,1317,-6.89589,-2.56756
-553,-293,-6.87836,2.74365,-0.00289828,0.000364041,-0.00419962,0.00323816,-0.0057724,-0.970634,0.00527038,0.0115466,671,1317,-6.87833,-2.74361
-546,-293,-6.86926,2.9408,-0.00461453,0.000731684,-0.00554598,0.00421515,-0.008098,-1.00997,0.00722586,0.00984377,678,1317,-6.86927,-2.94078
-539,-293,-6.85168,3.10974,-0.00586484,-0.000579184,-0.00555167,0.00292661,-0.00937064,-1.00755,0.00741764,0.0212601,685,1317,-6.85171,-3.10969
-532,-293,-6.87677,3.02209,-0.00710022,-0.00307834,-0.00502035,0.000318847,-0.0104974,-0.975892,0.00710694,0.0424676,692,1317,-6.87676,-3.02204
-525,-293,-6.84235,2.90625,0,0,0,0,0,0,0,-1,699,1317,-6.84235,-2.90626
-518,-293,-9.36688,0.788086,0,0,0,0,0,0,0,-1,706,1317,-9.36686,-0.788114
-511,-293,-10.5991,1.57312,0,0,0,0,0,0,0,-1,713,1317,-10.5991,-1.57307
-504,-293,-11.9841,2.03931,0,0,0,0,0,0,0,-1,720,1317,-11.9841,-2.03929
-497,-293,-11.6335,1.98071,0,0,0,0,0,0,0,-1,727,1317,-11.6335,-1.98066
-490,-293,-11.8345,2.06763,-0.000562032,-0.0451017,0.0159652,0.00456944,-0.0502331,0.310988,0.0351112,0.0414679,734,1317,-11.8345,-2.06766
-483,-293,-11.6854,1.91211,0.00624758,-0.0593119,0.0230062,0.0135152,-0.0665796,0.30598,0.0495102,0.0410201,741,1317,-11.6854,-1.91214
-476,-293,-11.7584,1.90955,0,0,0,0,0,0,0,-1,748,1317,-11.7584,-1.90956
-469,-293,0,0,0,0,0,0,0,0,0,-1,755,1317,0,0
-462,-293,0,0,0,0,0,0,0,0,0,-1,762,1317,0,0
-455,-293,0,0,0,0,0,0,0,0,0,-1,769,1317,0,0
-448,-293,0,0,0,0,0,0,0,0,0,-1,776,1317,0,0
-441,-293,0,0,0,0,0,0,0,0,0,-1,783,1317,0,0
-434,-293,0,0,0,0,0,0,0,0,0,-1,790,1317,0,0
-427,-293,0,0,0,0,0,0,0,0,0,-1,797,1317,0,0
-420,-293,0,0,0,0,0,0,0,0,0,-1,804,1317,0,0
-413,-293,0,0,0,0,0,0,0,0,0,-1,811,1317,0,0
-406,-293,0,0,0,0,0,0,0,0,0,-1,818,1317,0,0
-399,-293,0,0,0,0,0,0,0,0,0,-1,825,1317,0,0
-392,-293,0,0,0,0,0,0,0,0,0,-1,832,1317,0,0
-385,-293,0,0,0,0,0,0,0,0,0,-1,839,1317,0,0
-378,-293,0,0,0,0,0,0,0,0,0,-1,846,1317,0,0
-371,-293,0,0,0,0,0,0,0,0,0,-1,853,1317,0,0
-364,-293,0,0,0,0,0,0,0,0,0,-1,860,1317,0,0
-357,-293,0,0,0,0,0,0,0,0,0,-1,867,1317,0,0
-350,-293,0,0,0,0,0,0,0,0,0,-1,874,1317,0,0
-343,-293,0,0,0,0,0,0,0,0,0,-1,881,1317,0,0
-336,-293,0,0,0,0,0,0,0,0,0,-1,888,1317,0,0
-329,-293,0,0,0,0,0,0,0,0,0,-1,895,1317,0,0
-322,-293,0,0,0,0,0,0,0,0,0,-1,902,1317,0,0
-315,-293,0,0,0,0,0,0,0,0,0,-1,909,1317,0,0
-308,-293,0,0,0,0,0,0,0,0,0,-1,916,1317,0,0
-301,-293,0,0,0,0,0,0,0,0,0,-1,923,1317,0,0
-294,-293,0,0,0,0,0,0,0,0,0,-1,930,1317,0,0
-287,-293,0,0,0,0,0,0,0,0,0,-1,937,1317,0,0
-280,-293,0,0,0,0,0,0,0,0,0,-1,944,1317,0,0
-273,-293,0,0,0,0,0,0,0,0,0,-1,951,1317,0,0
-266,-293,0,0,0,0,0,0,0,0,0,-1,958,1317,0,0
-259,-293,0,0,0,0,0,0,0,0,0,-1,965,1317,0,0
-252,-293,0,0,0,0,0,0,0,0,0,-1,972,1317,0,0
-245,-293,0,0,0,0,0,0,0,0,0,-1,979,1317,0,0
-238,-293,0,0,0,0,0,0,0,0,0,-1,986,1317,0,0
-231,-293,0,0,0,0,0,0,0,0,0,-1,993,1317,0,0
-224,-293,0,0,0,0,0,0,0,0,0,-1,1000,1317,0,0
-217,-293,0,0,0,0,0,0,0,0,0,-1,1007,1317,0,0
-210,-293,0,0,0,0,0,0,0,0,0,-1,1014,1317,0,0
-203,-293,0,0,0,0,0,0,0,0,0,-1,1021,1317,0,0
-196,-293,0,0,0,0,0,0,0,0,0,-1,1028,1317,0,0
-189,-293,0,0,0,0,0,0,0,0,0,-1,1035,1317,0,0
-182,-293,0,0,0,0,0,0,0,0,0,-1,1042,1317,0,0
-175,-293,0,0,0,0,0,0,0,0,0,-1,1049,1317,0,0
-168,-293,0,0,0,0,0,0,0,0,0,-1,1056,1317,0,0
-161,-293,0,0,0,0,0,0,0,0,0,-1,1063,1317,0,0
-154,-293,0,0,0,0,0,0,0,0,0,-1,1070,1317,0,0
-147,-293,0,0,0,0,0,0,0,0,0,-1,1077,1317,0,0
-140,-293,0,0,0,0,0,0,0,0,0,-1,1084,1317,0,0
-133,-293,0,0,0,0,0,0,0,0,0,-1,1091,1317,0,0
-126,-293,0,0,0,0,0,0,0,0,0,-1,1098,1317,0,0
-119,-293,0,0,0,0,0,0,0,0,0,-1,1105,1317,0,0
-112,-293,0,0,0,0,0,0,0,0,0,-1,1112,1317,0,0
-105,-293,0,0,0,0,0,0,0,0,0,-1,1119,1317,0,0
-98,-293,0,0,0,0,0,0,0,0,0,-1,1126,1317,0,0
-91,-293,0,0,0,0,0,0,0,0,0,-1,1133,1317,0,0
-84,-293,0,0,0,0,0,0,0,0,0,-1,1140,1317,0,0
-77,-293,0,0,0,0,0,0,0,0,0,-1,1147,1317,0,0
-70,-293,0,0,0,0,0,0,0,0,0,-1,1154,1317,0,0
-63,-293,0,0,0,0,0,0,0,0,0,-1,1161,1317,0,0
-56,-293,0,0,0,0,0,0,0,0,0,-1,1168,1317,0,0
-49,-293,0,0,0,0,0,0,0,0,0,-1,1175,1317,0,0
-42,-293,0,0,0,0,0,0,0,0,0,-1,1182,1317,0,0
-35,-293,0,0,0,0,0,0,0,0,0,-1,1189,1317,0,0
-28,-293,0,0,0,0,0,0,0,0,0,-1,1196,1317,0,0
-21,-293,0,0,0,0,0,0,0,0,0,-1,1203,1317,0,0
-14,-293,0,0,0,0,0,0,0,0,0,-1,1210,1317,0,0
-7,-293,0,0,0,0,0,0,0,0,0,-1,1217,1317,0,0
0,-293,0,0,0,0,0,0,0,0,0,-1,1224,1317,0,0
7,-293,0,0,0,0,0,0,0,0,0,-1,1231,1317,0,0
14,-293,0,0,0,0,0,0,0,0,0,-1,1238,1317,0,0
21,-293,0,0,0,0,0,0,0,0,0,-1,1245,1317,0,0
28,-293,0,0,0,0,0,0,0,0,0,-1,1252,1317,0,0
35,-293,0,0,0,0,0,0,0,0,0,-1,1259,1317,0,0
42,-293,0,0,0,0,0,0,0,0,0,-1,1266,1317,0,0
49,-293,0,0,0,0,0,0,0,0,0,-1,1273,1317,0,0
56,-293,0,0,0,0,0,0,0,0,0,-1,1280,1317,0,0
63,-293,0,0,0,0,0,0,0,0,0,-1,1287,1317,0,0
70,-293,0,0,0,0,0,0,0,0,0,-1,1294,1317,0,0
77,-293,0,0,0,0,0,0,0,0,0,-1,1301,1317,0,0
84,-293,0,0,0,0,0,0,0,0,0,-1,1308,1317,0,0
91,-293,0,0,0,0,0,0,0,0,0,-1,1315,1317,0,0
98,-293,0,0,0,0,0,0,0,0,0,-1,1322,1317,0,0
105,-293,0,0,0,0,0,0,0,0,0,-1,1329,1317,0,0
112,-293,0,0,0,0,0,0,0,0,0,-1,1336,1317,0,0
119,-293,0,0,0,0,0,0,0,0,0,-1,1343,1317,0,0
126,-293,0,0,0,0,0,0,0,0,0,-1,1350,1317,0,0
133,-293,0,0,0,0,0,0,0,0,0,-1,1357,1317,0,0
140,-293,0,0,0,0,0,0,0,0,0,-1,1364,1317,0,0
147,-293,0,0,0,0,0,0,0,0,0,-1,1371,1317,0,0
154,-293,0,0,0,0,0,0,0,0,0,-1,1378,1317,0,0
161,-293,0,0,0,0,0,0,0,0,0,-1,1385,1317,0,0
168,-293,0,0,0,0,0,0,0,0,0,-1,1392,1317,0,0
175,-293,0,0,0,0,0,0,0,0,0,-1,1399,1317,0,0
182,-293,0,0,0,0,0,0,0,0,0,-1,1406,1317,0,0
189,-293,0,0,0,0,0,0,0,0,0,-1,1413,1317,0,0
196,-293,0,0,0,0,0,0,0,0,0,-1,1420,1317,0,0
203,-293,0,0,0,0,0,0,0,0,0,-1,1427,1317,0,0
210,-293,0,0,0,0,0,0,0,0,0,-1,1434,1317,0,0
217,-293,0,0,0,0,0,0,0,0,0,-1,1441,1317,0,0
224,-293,0,0,0,0,0,0,0,0,0,-1,1448,1317,0,0
231,-293,0,0,0,0,0,0,0,0,0,-1,1455,1317,0,0
238,-293,0,0,0,0,0,0,0,0,0,-1,1462,1317,0,0
245,-293,0,0,0,0,0,0,0,0,0,-1,1469,1317,0,0
252,-293,0,0,0,0,0,0,0,0,0,-1,1476,1317,0,0
259,-293,0,0,0,0,0,0,0,0,0,-1,1483,1317,0,0
266,-293,0,0,0,0,0,0,0,0,0,-1,1490,1317,0,0
273,-293,0,0,0,0,0,0,0,0,0,-1,1497,1317,0,0
280,-293,0,0,0,0,0,0,0,0,0,-1,1504,1317,0,0
287,-293,0,0,0,0,0,0,0,0,0,-1,1511,1317,0,0
294,-293,0,0,0,0,0,0,0,0,0,-1,1518,1317,0,0
301,-293,0,0,0,0,0,0,0,0,0,-1,1525,1317,0,0
308,-293,0,0,0,0,0,0,0,0,0,-1,1532,1317,0,0
315,-293,0,0,0,0,0,0,0,0,0,-1,1539,1317,0,0
322,-293,0,0,0,0,0,0,0,0,0,-1,1546,1317,0,0
329,-293,0,0,0,0,0,0,0,0,0,-1,1553,1317,0,0
336,-293,0,0,0,0,0,0,0,0,0,-1,1560,1317,0,0
343,-293,0,0,0,0,0,0,0,0,0,-1,1567,1317,0,0
350,-293,0,0,0,0,0,0,0,0,0,-1,1574,1317,0,0
357,-293,0,0,0,0,0,0,0,0,0,-1,1581,1317,0,0
364,-293,0,0,0,0,0,0,0,0,0,-1,1588,1317,0,0
371,-293,0,0,0,0,0,0,0,0,0,-1,1595,1317,0,0
378,-293,0,0,0,0,0,0,0,0,0,-1,1602,1317,0,0
385,-293,0,0,0,0,0,0,0,0,0,-1,1609,1317,0,0
392,-293,0,0,0,0,0,0,0,0,0,-1,1616,1317,0,0
399,-293,0,0,0,0,0,0,0,0,0,-1,1623,1317,0,0
406,-293,0,0,0,0,0,0,0,0,0,-1,1630,1317,0,0
413,-293,0,0,0,0,0,0,0,0,0,-1,1637,1317,0,0
420,-293,0,0,0,0,0,0,0,0,0,-1,1644,1317,0,0
427,-293,0,0,0,0,0,0,0,0,0,-1,1651,1317,0,0
434,-293,0,0,0,0,0,0,0,0,0,-1,1658,1317,0,0
441,-293,0,0,0,0,0,0,0,0,0,-1,1665,1317,0,0
448,-293,0,0,0,0,0,0,0,0,0,-1,1672,1317,0,0
455,-293,0,0,0,0,0,0,0,0,0,-1,1679,1317,0,0
462,-293,0,0,0,0,0,0,0,0,0,-1,1686,1317,0,0
469,-293,0,0,0,0,0,0,0,0,0,-1,1693,1317,0,0
476,-293,0,0,0,0,0,0,0,0,0,-1,1700,1317,0,0
483,-293,0,0,0,0,0,0,0,0,0,-1,1707,1317,0,0
490,-293,0,0,0,0,0,0,0,0,0,-1,1714,1317,0,0
497,-293,0,0,0,0,0,0,0,0,0,-1,1721,1317,0,0
504,-293,0,0,0,0,0,0,0,0,0,-1,1728,1317,0,0
511,-293,0,0,0,0,0,0,0,0,0,-1,1735,1317,0,0
518,-293,0,0,0,0,0,0,0,0,0,-1,1742,1317,0,0
525,-293,0,0,0,0,0,0,0,0,0,-1,1749,1317,0,0
532,-293,0,0,0,0,0,0,0,0,0,-1,1756,1317,0,0
539,-293,0,0,0,0,0,0,0,0,0,-1,1763,1317,0,0
546,-293,0,0,0,0,0,0,0,0,0,-1,1770,1317,0,0
553,-293,0,0,0,0,0,0,0,0,0,-1,1777,1317,0,0
560,-293,0,0,0,0,0,0,0,0,0,-1,1784,1317,0,0
567,-293,0,0,0,0,0,0,0,0,0,-1,1791,1317,0,0
574,-293,0,0,0,0,0,0,0,0,0,-1,1798,1317,0,0
581,-293,0,0,0,0,0,0,0,0,0,-1,1805,1317,0,0
588,-293,0,0,0,0,0,0,0,0,0,-1,1812,1317,0,0
595,-293,16.7931,2.15552,0,0,0,0,0,0,0,-1,1819,1317,16.7931,-2.15555
602,-293,16.5204,1.59216,0,0,0,0,0,0,0,-1,1826,1317,16.5204,-1.59218
609,-293,17.3008,2.08301,0,0,0,0,0,0,0,-1,1833,1317,17.3008,-2.08297
616,-293,17.4865,2.14771,0,0,0,0,0,0,0,-1,1840,1317,17.4864,-2.1477
623,-293,17.681,0.76355,0,0,0,0,0,0,0,-1,1847,1317,17.6811,-0.763581
630,-293,17.4305,0.54834,-0.0176708,0.0181128,0.00256877,0.0182963,-0.0178543,1.4995,0.0208721,0.0492898,1854,1317,17.4305,-0.548391
637,-293,16.4036,0.789673,-0.0202308,0.0158607,0.00300044,0.0161085,-0.0204786,1.48842,0.0211737,0.0481226,1861,1317,16.4036,-0.789616
644,-293,15.5293,0.546997,-0.0206685,0.0132338,0.00335632,0.0135629,-0.0209976,1.47306,0.0201068,0.0483145,1868,1317,15.5293,-0.546955
651,-293,14.8881,5.15771,0,0,0,0,0,0,0,-1,1875,1317,14.8881,-5.15776
658,-293,14.5391,5.15979,-0.0185103,0.00817884,0.00366423,0.00867277,-0.0190042,1.43681,0.0163462,0.0400306,1882,1317,14.5391,-5.15976
665,-293,14.1484,5.08679,-0.0169194,0.00597794,0.00353104,0.0065101,-0.0174515,1.42121,0.0143069,0.0324024,1889,1317,14.1485,-5.08681
672,-293,13.8799,5.02551,-0.0148394,0.00406124,0.00353144,0.00469951,-0.0154777,1.39199,0.0121907,0.0152925,1896,1317,13.8799,-5.02555
679,-293,13.8484,4.84729,-0.0116838,0.00241083,0.00327869,0.00313619,-0.0124092,1.35307,0.00949249,0.0115471,1903,1317,13.8484,-4.84723
686,-293,13.879,4.70898,-0.00812076,0.000452756,0.00278396,0.00127743,-0.00894544,1.28281,0.00643186,0.0135922,1910,1317,13.879,-4.70903
693,-293,13.8776,4.54749,-0.00471425,-0.000562511,0.00201471,0.000254418,-0.00553118,1.18557,0.00377512,0.0112064,1917,1317,13.8776,-4.54754
700,-293,13.8596,4.37073,-0.00143501,-0.000190439,0.000868981,0.00025609,-0.00188154,1.09613,0.00134786,0.0105372,1924,1317,13.8597,-4.37078
707,-293,13.8563,4.23645,0.00160409,1.82267e-05,-0.000224299,0.00163521,-1.28869e-05,-0.137835,0.00109446,0.0116171,1931,1317,13.8563,-4.23642
714,-293,13.8497,4.08875,0.00549833,0.00178005,-0.00150199,0.00602924,0.00124913,-0.339768,0.00367458,0.00797867,1938,1317,13.8497,-4.0888
721,-293,13.8665,3.93176,0.00841998,0.00351597,-0.00205269,0.00916577,0.00277018,-0.348493,0.00542809,0.00896394,1945,1317,13.8665,-3.93172
728,-293,13.8629,3.77136,0.0102498,0.00624578,-0.00212226,0.0111653,0.00533026,-0.407272,0.00644851,0.0115804,1952,1317,13.8629,-3.77139
735,-293,13.8636,3.59521,0.0122169,0.00918147,-0.0020667,0.0132633,0.00813506,-0.468692,0.00772287,0.0144598,1959,1317,13.8637,-3.59518
742,-293,13.8555,3.37659,0.0142243,0.0136428,-0.00149438,0.0154559,0.0124111,-0.689319,0.00945389,0.0266925,1966,1317,13.8555,-3.37658
749,-293,14.226,2.979,0.0150632,0.0199033,-0.0001015,0.0199054,0.0150611,-1.54984,0.0119864,0.0388048,1973,1317,14.2259,-2.97897
756,-293,14.7018,2.57385,0,0,0,0,0,0,0,-1,1980,1317,14.7018,-2.57386
763,-293,16.7163,4.47144,0,0,0,0,0,0,0,-1,1987,1317,16.7163,-4.47141
770,-293,17.1984,0.241211,0,0,0,0,0,0,0,-1,1994,1317,17.1984,-0.241182
777,-293,0,0,0,0,0,0,0,0,0,-1,2001,1317,0,0
784,-293,0,0,0,0,0,0,0,0,0,-1,2008,1317,0,0
791,-293,0,0,0,0,0,0,0,0,0,-1,2015,1317,0,0
798,-293,0,0,0,0,0,0,0,0,0,-1,2022,1317,0,0
805,-293,0,0,0,0,0,0,0,0,0,-1,2029,1317,0,0
812,-293,0,0,0,0,0,0,0,0,0,-1,2036,1317,0,0
-700,-300,0,0,0,0,0,0,0,0,0,-1,524,1324,0,0
-693,-300,0,0,0,0,0,0,0,0,0,-1,531,1324,0,0
-686,-300,0,0,0,0,0,0,0,0,0,-1,538,1324,0,0
-679,-300,0,0,0,0,0,0,0,0,0,-1,545,1324,0,0
-672,-300,0,0,0,0,0,0,0,0,0,-1,552,1324,0,0
-665,-300,0,0,0,0,0,0,0,0,0,-1,559,1324,0,0
-658,-300,0,0,0,0,0,0,0,0,0,-1,566,1324,0,0
-651,-300,-4.57092,0.58313,0.00546664,0.100265,-0.0676916,0.135502,-0.029771,-1.09083,0.101721,0.0459348,573,1324,-4.57092,-0.583103
-644,-300,-5.01196,-0.270508,-0.0128057,0.0985081,-0.0484955,0.116672,-0.0309695,-1.21242,0.0899005,0.0458063,580,1324,-5.01197,0.270563
-637,-300,-5.17322,-0.73291,-0.0223757,0.0907017,-0.0349056,0.100609,-0.0322826,-1.29425,0.0800338,0.0447091,587,1324,-5.17324,0.732963
-630,-300,-5.67932,-1.11609,-0.0256763,0.0800073,-0.0251436,0.0856844,-0.0313533,-1.34873,0.0699566,0.0466599,594,1324,-5.67931,1.11606
-623,-300,-6.06464,-1.12695,-0.0255003,0.0682895,-0.0179251,0.0715986,-0.0288094,-1.38825,0.0596995,0.0467896,601,1324,-6.06464,1.127
-616,-300,-6.33759,-1.03333,-0.0233126,0.0565422,-0.0124624,0.0584419,-0.0252123,-1.41952,0.0495516,0.0460038,608,1324,-6.33757,1.03334
-609,-300,-6.60413,-0.820801,0,0,0,0,0,0,0,-1,615,1324,-6.60412,0.820754
-602,-300,-6.60071,1.41553,-0.0163501,0.0350609,-0.00524765,0.0355911,-0.0168802,-1.47011,0.0309297,0.0334737,622,1324,-6.60069,-1.41551
-595,-300,-6.70154,1.63782,-0.0140323,0.0266311,-0.00168315,0.0267006,-0.0141018,-1.5295,0.0239287,0.0185312,629,1324,-6.70156,-1.63779
-588,-300,-6.67413,1.83057,-0.0102073,0.0175753,-0.000112035,0.0175758,-0.0102077,-1.56676,0.0162277,0.0188723,636,1324,-6.67415,-1.83056
-581,-300,-6.68134,2.01794,-0.00671601,0.0101492,5.02056e-05,0.0101494,-0.00671616,1.56782,0.00980434,0.0189633,643,1324,-6.68136,-2.01795
-574,-300,-6.68445,2.20361,-0.00369919,0.00538221,0.00020854,0.005387,-0.00370398,1.54785,0.00527857,0.016372,650,1324,-6.68445,-2.2036
-567,-300,-6.69647,2.39502,-0.00144871,0.00171258,-0.000410882,0.00176511,-0.00150124,-1.44364,0.00188788,0.0169173,657,1324,-6.69648,-2.39503
-560,-300,-6.716,2.58435,-0.00171722,0.000281255,-0.00173917,0.00128781,-0.00272377,-1.04615,0.00236503,0.0153474,664,1324,-6.71598,-2.58432
-553,-300,-6.68353,2.75708,-0.00300491,0.000258672,-0.0029447,0.00199348,-0.00473972,-1.03841,0.00399374,0.0106072,671,1324,-6.68355,-2.75709
-546,-300,-6.67865,2.9364,-0.004637,0.000463118,-0.00416393,0.0027958,-0.00696967,-1.06015,0.00580722,0.00842487,678,1324,-6.67864,-2.93637
-539,-300,-6.66583,3.1283,-0.00572958,-0.00097833,-0.0041642,0.00144022,-0.00814814,-1.04462,0.00597035,0.012913,685,1324,-6.6658,-3.12829
-532,-300,-6.82013,3.18323,-0.00673269,-0.00366306,-0.00372016,-0.00117354,-0.00922222,-0.981045,0.0057967,0.0300801,692,1324,-6.82013,-3.18324
-525,-300,-6.85486,3.14929,-0.00768101,-0.00694656,-0.00274795,-0.00454141,-0.0100862,-0.851823,0.00583285,0.0485775,699,1324,-6.85484,-3.14926
-518,-300,-6.98181,3.0365,0,0,0,0,0,0,0,-1,706,1324,-6.98183,-3.03651
-511,-300,-10.0079,1.60205,0,0,0,0,0,0,0,-1,713,1324,-10.0079,-1.60206
-504,-300,-10.8665,2.41992,0,0,0,0,0,0,0,-1,720,1324,-10.8665,-2.41993
-497,-300,-11.6293,3.51099,0,0,0,0,0,0,0,-1,727,1324,-11.6293,-3.51097
-490,-300,-12.4399,2.51587,0.00354421,-0.0468872,0.0146633,0.00749775,-0.0508408,0.263359,0.0366496,0.0427985,734,1324,-12.4399,-2.51586
-483,-300,-12.0222,2.40442,0.0118148,-0.0611398,0.0211398,0.0174977,-0.0668228,0.262617,0.0513839,0.0416689,741,1324,-12.0222,-2.40437
-476,-300,-11.9601,2.37683,0.0224929,-0.0763686,0.0270332,0.0294021,-0.0832778,0.250226,0.067489,0.0445659,748,1324,-11.9602,-2.37678
-469,-300,0,0,0,0,0,0,0,0,0,-1,755,1324,0,0
-462,-300,0,0,0,0,0,0,0,0,0,-1,762,1324,0,0
-455,-300,0,0,0,0,0,0,0,0,0,-1,769,1324,0,0
-448,-300,0,0,0,0,0,0,0,0,0,-1,776,1324,0,0
-441,-300,0,0,0,0,0,0,0,0,0,-1,783,1324,0,0
-434,-300,0,0,0,0,0,0,0,0,0,-1,790,1324,0,0
-427,-300,0,0,0,0,0,0,0,0,0,-1,797,1324,0,0
-420,-300,0,0,0,0,0,0,0,0,0,-1,804,1324,0,0
-413,-300,0,0,0,0,0,0,0,0,0,-1,811,1324,0,0
-406,-300,0,0,0,0,0,0,0,0,0,-1,818,1324,0,0
-399,-300,0,0,0,0,0,0,0,0,0,-1,825,1324,0,0
-392,-300,0,0,0,0,0,0,0,0,0,-1,832,1324,0,0
-385,-300,0,0,0,0,0,0,0,0,0,-1,839,1324,0,0
-378,-300,0,0,0,0,0,0,0,0,0,-1,846,1324,0,0
-371,-300,0,0,0,0,0,0,0,0,0,-1,853,1324,0,0
-364,-300,0,0,0,0,0,0,0,0,0,-1,860,1324,0,0
-357,-300,0,0,0,0,0,0,0,0,0,-1,867,1324,0,0
-350,-300,0,0,0,0,0,0,0,0,0,-1,874,1324,0,0
-343,-300,0,0,0,0,0,0,0,0,0,-1,881,1324,0,0
-336,-300,0,0,0,0,0,0,0,0,0,-1,888,1324,0,0
-329,-300,0,0,0,0,0,0,0,0,0,-1,895,1324,0,0
-322,-300,0,0,0,0,0,0,0,0,0,-1,902,1324,0,0
-315,-300,0,0,0,0,0,0,0,0,0,-1,909,1324,0,0
-308,-300,0,0,0,0,0,0,0,0,0,-1,916,1324,0,0
-301,-300,0,0,0,0,0,0,0,0,0,-1,923,1324,0,0
-294,-300,0,0,0,0,0,0,0,0,0,-1,930,1324,0,0
-287,-300,0,0,0,0,0,0,0,0,0,-1,937,1324,0,0
-280,-300,0,0,0,0,0,0,0,0,0,-1,944,1324,0,0
-273,-300,0,0,0,0,0,0,0,0,0,-1,951,1324,0,0
-266,-300,0,0,0,0,0,0,0,0,0,-1,958,1324,0,0
-259,-300,0,0,0,0,0,0,0,0,0,-1,965,1324,0,0
-252,-300,0,0,0,0,0,0,0,0,0,-1,972,1324,0,0
-245,-300,0,0,0,0,0,0,0,0,0,-1,979,1324,0,0
-238,-300,0,0,0,0,0,0,0,0,0,-1,986,1324,0,0
-231,-300,0,0,0,0,0,0,0,0,0,-1,993,1324,0,0
-224,-300,0,0,0,0,0,0,0,0,0,-1,1000,1324,0,0
-217,-300,0,0,0,0,0,0,0,0,0,-1,1007,1324,0,0
-210,-300,0,0,0,0,0,0,0,0,0,-1,1014,1324,0,0
-203,-300,0,0,0,0,0,0,0,0,0,-1,1021,1324,0,0
-196,-300,0,0,0,0,0,0,0,0,0,-1,1028,1324,0,0
-189,-300,0,0,0,0,0,0,0,0,0,-1,1035,1324,0,0
-182,-300,0,0,0,0,0,0,0,0,0,-1,1042,1324,0,0
-175,-300,0,0,0,0,0,0,0,0,0,-1,1049,1324,0,0
-168,-300,0,0,0,0,0,0,0,0,0,-1,1056,1324,0,0
-161,-300,0,0,0,0,0,0,0,0,0,-1,1063,1324,0,0
-154,-300,0,0,0,0,0,0,0,0,0,-1,1070,1324,0,0
-147,-300,0,0,0,0,0,0,0,0,0,-1,1077,1324,0,0
-140,-300,0,0,0,0,0,0,0,0,0,-1,1084,1324,0,0
-133,-300,0,0,0,0,0,0,0,0,0,-1,1091,1324,0,0
-126,-300,0,0,0,0,0,0,0,0,0,-1,1098,1324,0,0
-119,-300,0,0,0,0,0,0,0,0,0,-1,1105,1324,0,0
-112,-300,0,0,0,0,0,0,0,0,0,-1,1112,1324,0,0
-105,-300,0,0,0,0,0,0,0,0,0,-1,1119,1324,0,0
-98,-300,0,0,0,0,0,0,0,0,0,-1,1126,1324,0,0
-91,-300,0,0,0,0,0,0,0,0,0,-1,1133,1324,0,0
-84,-300,0,0,0,0,0,0,0,0,0,-1,1140,1324,0,0
-77,-300,0,0,0,0,0,0,0,0,0,-1,1147,1324,0,0
-70,-300,0,0,0,0,0,0,0,0,0,-1,1154,1324,0,0
-63,-300,0,0,0,0,0,0,0,0,0,-1,1161,1324,0,0
-56,-300,0,0,0,0,0,0,0,0,0,-1,1168,1324,0,0
-49,-300,0,0,0,0,0,0,0,0,0,-1,1175,1324,0,0
-42,-300,0,0,0,0,0,0,0,0,0,-1,1182,1324,0,0
-35,-300,0,0,0,0,0,0,0,0,0,-1,1189,1324,0,0
-28,-300,0,0,0,0,0,0,0,0,0,-1,1196,1324,0,0
-21,-300,0,0,0,0,0,0,0,0,0,-1,1203,1324,0,0
-14,-300,0,0,0,0,0,0,0,0,0,-1,1210,1324,0,0
-7,-300,0,0,0,0,0,0,0,0,0,-1,1217,1324,0,0
0,-300,0,0,0,0,0,0,0,0,0,-1,1224,1324,0,0
7,-300,0,0,0,0,0,0,0,0,0,-1,1231,1324,0,0
14,-300,0,0,0,0,0,0,0,0,0,-1,1238,1324,0,0
21,-300,0,0,0,0,0,0,0,0,0,-1,1245,1324,0,0
28,-300,0,0,0,0,0,0,0,0,0,-1,1252,1324,0,0
35,-300,0,0,0,0,0,0,0,0,0,-1,1259,1324,0,0
42,-300,0,0,0,0,0,0,0,0,0,-1,1266,1324,0,0
49,-300,0,0,0,0,0,0,0,0,0,-1,1273,1324,0,0
56,-300,0,0,0,0,0,0,0,0,0,-1,1280,1324,0,0
63,-300,0,0,0,0,0,0,0,0,0,-1,1287,1324,0,0
70,-300,0,0,0,0,0,0,0,0,0,-1,1294,1324,0,0
77,-300,0,0,0,0,0,0,0,0,0,-1,1301,1324,0,0
84,-300,0,0,0,0,0,0,0,0,0,-1,1308,1324,0,0
91,-300,0,0,0,0,0,0,0,0,0,-1,1315,1324,0,0
98,-300,0,0,0,0,0,0,0,0,0,-1,1322,1324,0,0
105,-300,0,0,0,0,0,0,0,0,0,-1,1329,1324,0,0
112,-300,0,0,0,0,0,0,0,0,0,-1,1336,1324,0,0
119,-300,0,0,0,0,0,0,0,0,0,-1,1343,1324,0,0
126,-300,0,0,0,0,0,0,0,0,0,-1,1350,1324,0,0
133,-300,0,0,0,0,0,0,0,0,0,-1,1357,1324,0,0
140,-300,0,0,0,0,0,0,0,0,0,-1,1364,1324,0,0
147,-300,0,0,0,0,0,0,0,0,0,-1,1371,1324,0,0
154,-300,0,0,0,0,0,0,0,0,0,-1,1378,1324,0,0
161,-300,0,0,0,0,0,0,0,0,0,-1,1385,1324,0,0
168,-300,0,0,0,0,0,0,0,0,0,-1,1392,1324,0,0
175,-300,0,0,0,0,0,0,0,0,0,-1,1399,1324,0,0
182,-300,0,0,0,0,0,0,0,0,0,-1,1406,1324,0,0
189,-300,0,0,0,0,0,0,0,0,0,-1,1413,1324,0,0
196,-300,0,0,0,0,0,0,0,0,0,-1,1420,1324,0,0
203,-300,0,0,0,0,0,0,0,0,0,-1,1427,1324,0,0
210,-300,0,0,0,0,0,0,0,0,0,-1,1434,1324,0,0
217,-300,0,0,0,0,0,0,0,0,0,-1,1441,1324,0,0
224,-300,0,0,0,0,0,0,0,0,0,-1,1448,1324,0,0
231,-300,0,0,0,0,0,0,0,0,0,-1,1455,1324,0,0
238,-300,0,0,0,0,0,0,0,0,0,-1,1462,1324,0,0
245,-300,0,0,0,0,0,0,0,0,0,-1,1469,1324,0,0
252,-300,0,0,0,0,0,0,0,0,0,-1,1476,1324,0,0
259,-300,0,0,0,0,0,0,0,0,0,-1,1483,1324,0,0
266,-300,0,0,0,0,0,0,0,0,0,-1,1490,1324,0,0
273,-300,0,0,0,0,0,0,0,0,0,-1,1497,1324,0,0
280,-300,0,0,0,0,0,0,0,0,0,-1,1504,1324,0,0
287,-300,0,0,0,0,0,0,0,0,0,-1,1511,1324,0,0
294,-300,0,0,0,0,0,0,0,0,0,-1,1518,1324,0,0
301,-300,0,0,0,0,0,0,0,0,0,-1,1525,1324,0,0
308,-300,0,0,0,0,0,0,0,0,0,-1,1532,1324,0,0
315,-300,0,0,0,0,0,0,0,0,0,-1,1539,1324,0,0
322,-300,0,0,0,0,0,0,0,0,0,-1,1546,1324,0,0
329,-300,0,0,0,0,0,0,0,0,0,-1,1553,1324,0,0
336,-300,0,0,0,0,0,0,0,0,0,-1,1560,1324,0,0
343,-300,0,0,0,0,0,0,0,0,0,-1,1567,1324,0,0
350,-300,0,0,0,0,0,0,0,0,0,-1,1574,1324,0,0
357,-300,0,0,0,0,0,0,0,0,0,-1,1581,1324,0,0
364,-300,0,0,0,0,0,0,0,0,0,-1,1588,1324,0,0
371,-300,0,0,0,0,0,0,0,0,0,-1,1595,1324,0,0
378,-300,0,0,0,0,0,0,0,0,0,-1,1602,1324,0,0
385,-300,0,0,0,0,0,0,0,0,0,-1,1609,1324,0,0
392,-300,0,0,0,0,0,0,0,0,0,-1,1616,1324,0,0
399,-300,0,0,0,0,0,0,0,0,0,-1,1623,1324,0,0
406,-300,0,0,0,0,0,0,0,0,0,-1,1630,1324,0,0
413,-300,0,0,0,0,0,0,0,0,0,-1,1637,1324,0,0
420,-300,0,0,0,0,0,0,0,0,0,-1,1644,1324,0,0
427,-300,0,0,0,0,0,0,0,0,0,-1,1651,1324,0,0
434,-300,0,0,0,0,0,0,0,0,0,-1,1658,1324,0,0
441,-300,0,0,0,0,0,0,0,0,0,-1,1665,1324,0,0
448,-300,0,0,0,0,0,0,0,0,0,-1,1672,1324,0,0
455,-300,0,0,0,0,0,0,0,0,0,-1,1679,1324,0,0
462,-300,0,0,0,0,0,0,0,0,0,-1,1686,1324,0,0
469,-300,0,0,0,0,0,0,0,0,0,-1,1693,1324,0,0
476,-300,0,0,0,0,0,0,0,0,0,-1,1700,1324,0,0
483,-300,0,0,0,0,0,0,0,0,0,-1,1707,1324,0,0
490,-300,0,0,0,0,0,0,0,0,0,-1,1714,1324,0,0
497,-300,0,0,0,0,0,0,0,0,0,-1,1721,1324,0,0
504,-300,0,0,0,0,0,0,0,0,0,-1,1728,1324,0,0
511,-300,0,0,0,0,0,0,0,0,0,-1,1735,1324,0,0
518,-300,0,0,0,0,0,0,0,0,0,-1,1742,1324,0,0
525,-300,0,0,0,0,0,0,0,0,0,-1,1749,1324,0,0
532,-300,0,0,0,0,0,0,0,0,0,-1,1756,1324,0,0
539,-300,0,0,0,0,0,0,0,0,0,-1,1763,1324,0,0
546,-300,0,0,0,0,0,0,0,0,0,-1,1770,1324,0,0
553,-300,0,0,0,0,0,0,0,0,0,-1,1777,1324,0,0
560,-300,0,0,0,0,0,0,0,0,0,-1,1784,1324,0,0
567,-300,0,0,0,0,0,0,0,0,0,-1,1791,1324,0,0
574,-300,0,0,0,0,0,0,0,0,0,-1,1798,1324,0,0
581,-300,0,0,0,0,0,0,0,0,0,-1,1805,1324,0,0
588,-300,16.9188,2.37781,0,0,0,0,0,0,0,-1,1812,1324,16.9188,-2.37777
595,-300,16.7423,2.02173,0,0,0,0,0,0,0,-1,1819,1324,16.7423,-2.02167
602,-300,16.4208,1.15259,0,0,0,0,0,0,0,-1,1826,1324,16.4207,-1.15262
609,-300,16.3939,1.02734,0,0,0,0,0,0,0,-1,1833,1324,16.3939,-1.02733
616,-300,13.6091,1.1333,0,0,0,0,0,0,0,-1,1840,1324,13.6092,-1.13325
623,-300,15.1113,1.62012,0,0,0,0,0,0,0,-1,1847,1324,15.1113,-1.62009
630,-300,17.3699,0.139526,0,0,0,0,0,0,0,-1,1854,1324,17.3699,-0.139477
637,-300,15.5507,0.883789,0,0,0,0,0,0,0,-1,1861,1324,15.5507,-0.883807
644,-300,14.5284,0.651733,0,0,0,0,0,0,0,-1,1868,1324,14.5285,-0.651778
651,-300,14.3866,5.52405,0,0,0,0,0,0,0,-1,1875,1324,14.3866,-5.52403
658,-300,14.0194,5.44324,-0.0184124,0.00744396,0.00390527,0.00802093,-0.0189893,1.42412,0.0160172,0.040846,1882,1324,14.0194,-5.44326
665,-300,13.7697,5.18616,-0.0165962,0.00528591,0.00372797,0.0059036,-0.0172139,1.4066,0.0138691,0.0253763,1889,1324,13.7697,-5.18619
672,-300,13.6949,5.03479,-0.0142139,0.00345948,0.00363588,0.00417824,-0.0149327,1.37563,0.0116015,0.0096608,1896,1324,13.6949,-5.03479
679,-300,13.6969,4.85376,-0.0108371,0.0020215,0.00319107,0.00276986,-0.0115854,1.34044,0.00879355,0.0105601,1903,1324,13.6969,-4.85376
686,-300,13.7316,4.71375,-0.00710886,0.000410988,0.00251891,0.00117676,-0.00787464,1.27566,0.00568277,0.0115075,1910,1324,13.7316,-4.7137
693,-300,13.7139,4.56116,-0.00363845,-0.000398074,0.00165019,0.000294346,-0.00433087,1.17351,0.00299019,0.0106125,1917,1324,13.7138,-4.56113
700,-300,13.6869,4.39319,-0.000239552,-7.20315e-05,0.000478677,0.000330158,-0.000641741,0.872012,0.000570658,0.0118736,1924,1324,13.6869,-4.39315
707,-300,13.6965,4.22009,0.00322858,-7.25207e-05,-0.000600458,0.0033344,-0.000178349,-0.174455,0.00228471,0.00898556,1931,1324,13.6966,-4.22011
714,-300,13.7173,4.07117,0.00768872,0.0017122,-0.00185274,0.00821647,0.00118445,-0.2775,0.00512863,0.010423,1938,1324,13.7173,-4.07117
721,-300,13.7292,3.91406,0.0113228,0.00326443,-0.00244062,0.0120044,0.00258289,-0.272313,0.00729597,0.0112579,1945,1324,13.7292,-3.91402
728,-300,13.725,3.75354,0.014294,0.00582278,-0.00258734,0.0150217,0.00509505,-0.274182,0.00882104,0.00977993,1952,1324,13.725,-3.75355
735,-300,13.6747,3.63403,0.0177887,0.00886837,-0.00269414,0.0185393,0.00811783,-0.271693,0.0107312,0.0147303,1959,1324,13.6747,-3.63399
742,-300,13.7548,3.42737,0.0216138,0.0135573,-0.00235259,0.0222505,0.0129206,-0.264294,0.012902,0.0298379,1966,1324,13.7548,-3.42737
749,-300,14.1879,2.8573,0,0,0,0,0,0,0,-1,1973,1324,14.1879,-2.85724
756,-300,15.2462,3.3219,0,0,0,0,0,0,0,-1,1980,1324,15.2462,-3.32186
763,-300,15.933,3.6062,0,0,0,0,0,0,0,-1,1987,1324,15.933,-3.60625
770,-300,16.7628,4.10645,0,0,0,0,0,0,0,-1,1994,1324,16.7628,-4.10646
777,-300,0,0,0,0,0,0,0,0,0,-1,2001,1324,0,0
784,-300,0,0,0,0,0,0,0,0,0,-1,2008,1324,0,0
791,-300,0,0,0,0,0,0,0,0,0,-1,2015,1324,0,0
798,-300,0,0,0,0,0,0,0,0,0,-1,2022,1324,0,0
805,-300,0,0,0,0,0,0,0,0,0,-1,2029,1324,0,0
812,-300,0,0,0,0,0,0,0,0,0,-1,2036,1324,0,0
-700,-307,0,0,0,0,0,0,0,0,0,-1,524,1331,0,0
-693,-307,0,0,0,0,0,0,0,0,0,-1,531,1331,0,0
-686,-307,0,0,0,0,0,0,0,0,0,-1,538,1331,0,0
-679,-307,0,0,0,0,0,0,0,0,0,-1,545,1331,0,0
-672,-307,0,0,0,0,0,0,0,0,0,-1,552,1331,0,0
-665,-307,0,0,0,0,0,0,0,0,0,-1,559,1331,0,0
-658,-307,0,0,0,0,0,0,0,0,0,-1,566,1331,0,0
-651,-307,-3.8999,0.320435,-0.00949481,0.110218,-0.0750924,0.146391,-0.0456678,-1.12189,0.115857,0.0452473,573,1331,-3.89988,-0.320461
-644,-307,-2.28284,-3.37878,-0.028401,0.108295,-0.0535787,0.126792,-0.0468985,-1.23837,0.103757,0.0455621,580,1331,-2.28282,3.37874
-637,-307,-4.68329,-1.09802,-0.036666,0.0993806,-0.0384141,0.109478,-0.0467632,-1.31376,0.0925964,0.0487467,587,1331,-4.6833,1.09806
-630,-307,-5.22198,-1.47839,-0.0380205,0.0874562,-0.0276916,0.0932957,-0.04386,-1.36296,0.0808833,0.0459646,594,1331,-5.22197,1.47841
-623,-307,-5.74652,-1.76331,-0.0356958,0.0745422,-0.019872,0.0780151,-0.0391686,-1.39778,0.068884,0.0440332,601,1331,-5.74653,1.76335
-616,-307,-6.18701,-1.84949,-0.0315083,0.0617294,-0.0139515,0.0637723,-0.0335512,-1.4254,0.0570856,0.0462524,608,1331,-6.18699,1.84954
-609,-307,-6.54834,-1.5968,0,0,0,0,0,0,0,-1,615,1331,-6.54831,1.59675
-602,-307,-6.42242,1.2124,-0.0213063,0.0384359,-0.00601657,0.0390358,-0.0219062,-1.47142,0.0356452,0.0338028,622,1331,-6.42241,-1.21242
-595,-307,-6.51758,1.61353,-0.0179668,0.0292986,-0.00202541,0.0293852,-0.0180534,-1.52805,0.0276479,0.0165979,629,1331,-6.51757,-1.61353
-588,-307,-6.49799,1.83606,-0.013167,0.0196759,-0.000246576,0.0196778,-0.0131689,-1.56329,0.0190877,0.0168039,636,1331,-6.498,-1.8361
-581,-307,-6.49249,2.01465,-0.00842187,0.0114858,0.000315293,0.0114908,-0.00842686,1.55496,0.0115448,0.0139945,643,1331,-6.49251,-2.01464
-574,-307,-6.49585,2.18066,-0.0045205,0.00595258,0.000657882,0.00599374,-0.00456166,1.50831,0.00611283,0.0119253,650,1331,-6.49584,-2.18063
-567,-307,-6.49982,2.37366,-0.00169918,0.00173982,0.000203779,0.00175186,-0.00171121,1.51182,0.00199945,0.0126023,657,1331,-6.4998,-2.37366
-560,-307,-6.49426,2.58398,-0.00182551,0.000158021,-0.00105215,0.000612154,-0.00227964,-1.16333,0.00175967,0.0131659,664,1331,-6.49425,-2.58394
-553,-307,-6.49304,2.76428,-0.00288323,-1.31506e-05,-0.00229551,0.00125897,-0.00415534,-1.06475,0.00327165,0.0105015,671,1331,-6.49301,-2.76425
-546,-307,-6.49744,2.9364,-0.00428067,-4.25115e-05,-0.00347932,0.00191224,-0.00623543,-1.05892,0.00491984,0.00989026,678,1331,-6.49744,-2.93638
-539,-307,-6.48291,3.13293,-0.00517391,-0.00151797,-0.00363814,0.000725613,-0.00741749,-1.0182,0.00520375,0.0116444,685,1331,-6.48291,-3.13288
-532,-307,-6.47174,3.28015,-0.00597989,-0.00415059,-0.00341934,-0.00152568,-0.00860479,-0.916085,0.00530165,0.0251235,692,1331,-6.47176,-3.28015
-525,-307,-6.49792,3.20032,-0.00671501,-0.00740529,-0.00269978,-0.0043384,-0.00978191,-0.721823,0.00565959,0.0446519,699,1331,-6.49795,-3.20027
-518,-307,-6.15393,3.22461,-0.00700064,-0.0116383,-0.0015416,-0.00653496,-0.012104,-0.293358,0.00699567,0.0489254,706,1331,-6.15391,-3.22456
-511,-307,-7.40399,3.49402,0,0,0,0,0,0,0,-1,713,1331,-7.40399,-3.49404
-504,-307,-10.269,2.43066,0,0,0,0,0,0,0,-1,720,1331,-10.269,-2.43068
-497,-307,-13.8781,2.92078,0,0,0,0,0,0,0,-1,727,1331,-13.8781,-2.92073
-490,-307,-13.1069,2.95886,0.00566879,-0.0447179,0.0120174,0.00838822,-0.0474374,0.222543,0.03476,0.0487793,734,1331,-13.107,-2.95882
-483,-307,-12.3833,2.88684,0.0146115,-0.0580718,0.017919,0.0187891,-0.0622494,0.229045,0.048979,0.0420561,741,1331,-12.3833,-2.88688
-476,-307,-12.3716,2.84973,0.0265612,-0.0724734,0.0235569,0.031879,-0.0777912,0.222023,0.0651414,0.0428019,748,1331,-12.3716,-2.84972
-469,-307,-12.3824,2.81506,0,0,0,0,0,0,0,-1,755,1331,-12.3824,-2.81504
-462,-307,0,0,0,0,0,0,0,0,0,-1,762,1331,0,0
-455,-307,0,0,0,0,0,0,0,0,0,-1,769,1331,0,0
-448,-307,0,0,0,0,0,0,0,0,0,-1,776,1331,0,0
-441,-307,0,0,0,0,0,0,0,0,0,-1,783,1331,0,0
-434,-307,0,0,0,0,0,0,0,0,0,-1,790,1331,0,0
-427,-307,0,0,0,0,0,0,0,0,0,-1,797,1331,0,0
-420,-307,0,0,0,0,0,0,0,0,0,-1,804,1331,0,0
-413,-307,0,0,0,0,0,0,0,0,0,-1,811,1331,0,0
-406,-307,0,0,0,0,0,0,0,0,0,-1,818,1331,0,0
-399,-307,0,0,0,0,0,0,0,0,0,-1,825,1331,0,0
-392,-307,0,0,0,0,0,0,0,0,0,-1,832,1331,0,0
-385,-307,0,0,0,0,0,0,0,0,0,-1,839,1331,0,0
-378,-307,0,0,0,0,0,0,0,0,0,-1,846,1331,0,0
-371,-307,0,0,0,0,0,0,0,0,0,-1,853,1331,0,0
-364,-307,0,0,0,0,0,0,0,0,0,-1,860,1331,0,0
-357,-307,0,0,0,0,0,0,0,0,0,-1,867,1331,0,0
-350,-307,0,0,0,0,0,0,0,0,0,-1,874,1331,0,0
-343,-307,0,0,0,0,0,0,0,0,0,-1,881,1331,0,0
-336,-307,0,0,0,0,0,0,0,0,0,-1,888,1331,0,0
-329,-307,0,0,0,0,0,0,0,0,0,-1,895,1331,0,0
-322,-307,0,0,0,0,0,0,0,0,0,-1,902,1331,0,0
-315,-307,0,0,0,0,0,0,0,0,0,-1,909,1331,0,0
-308,-307,0,0,0,0,0,0,0,0,0,-1,916,1331,0,0
-301,-307,0,0,0,0,0,0,0,0,0,-1,923,1331,0,0
-294,-307,0,0,0,0,0,0,0,0,0,-1,930,1331,0,0
-287,-307,0,0,0,0,0,0,0,0,0,-1,937,1331,0,0
-280,-307,0,0,0,0,0,0,0,0,0,-1,944,1331,0,0
-273,-307,0,0,0,0,0,0,0,0,0,-1,951,1331,0,0
-266,-307,0,0,0,0,0,0,0,0,0,-1,958,1331,0,0
-259,-307,0,0,0,0,0,0,0,0,0,-1,965,1331,0,0
-252,-307,0,0,0,0,0,0,0,0,0,-1,972,1331,0,0
-245,-307,0,0,0,0,0,0,0,0,0,-1,979,1331,0,0
-238,-307,0,0,0,0,0,0,0,0,0,-1,986,1331,0,0
-231,-307,0,0,0,0,0,0,0,0,0,-1,993,1331,0,0
-224,-307,0,0,0,0,0,0,0,0,0,-1,1000,1331,0,0
-217,-307,0,0,0,0,0,0,0,0,0,-1,1007,1331,0,0
-210,-307,0,0,0,0,0,0,0,0,0,-1,1014,1331,0,0
-203,-307,0,0,0,0,0,0,0,0,0,-1,1021,1331,0,0
-196,-307,0,0,0,0,0,0,0,0,0,-1,1028,1331,0,0
-189,-307,0,0,0,0,0,0,0,0,0,-1,1035,1331,0,0
-182,-307,0,0,0,0,0,0,0,0,0,-1,1042,1331,0,0
-175,-307,0,0,0,0,0,0,0,0,0,-1,1049,1331,0,0
-168,-307,0,0,0,0,0,0,0,0,0,-1,1056,1331,0,0
-161,-307,0,0,0,0,0,0,0,0,0,-1,1063,1331,0,0
-154,-307,0,0,0,0,0,0,0,0,0,-1,1070,1331,0,0
-147,-307,0,0,0,0,0,0,0,0,0,-1,1077,1331,0,0
-140,-307,0,0,0,0,0,0,0,0,0,-1,1084,1331,0,0
-133,-307,0,0,0,0,0,0,0,0,0,-1,1091,1331,0,0
-126,-307,0,0,0,0,0,0,0,0,0,-1,1098,1331,0,0
-119,-307,0,0,0,0,0,0,0,0,0,-1,1105,1331,0,0
-112,-307,0,0,0,0,0,0,0,0,0,-1,1112,1331,0,0
-105,-307,0,0,0,0,0,0,0,0,0,-1,1119,1331,0,0
-98,-307,0,0,0,0,0,0,0,0,0,-1,1126,1331,0,0
-91,-307,0,0,0,0,0,0,0,0,0,-1,1133,1331,0,0
-84,-307,0,0,0,0,0,0,0,0,0,-1,1140,1331,0,0
-77,-307,0,0,0,0,0,0,0,0,0,-1,1147,1331,0,0
-70,-307,0,0,0,0,0,0,0,0,0,-1,1154,1331,0,0
-63,-307,0,0,0,0,0,0,0,0,0,-1,1161,1331,0,0
-56,-307,0,0,0,0,0,0,0,0,0,-1,1168,1331,0,0
-49,-307,0,0,0,0,0,0,0,0,0,-1,1175,1331,0,0
-42,-307,0,0,0,0,0,0,0,0,0,-1,1182,1331,0,0
-35,-307,0,0,0,0,0,0,0,0,0,-1,1189,1331,0,0
-28,-307,0,0,0,0,0,0,0,0,0,-1,1196,1331,0,0
-21,-307,0,0,0,0,0,0,0,0,0,-1,1203,1331,0,0
-14,-307,0,0,0,0,0,0,0,0,0,-1,1210,1331,0,0
-7,-307,0,0,0,0,0,0,0,0,0,-1,1217,1331,0,0
0,-307,0,0,0,0,0,0,0,0,0,-1,1224,1331,0,0
7,-307,0,0,0,0,0,0,0,0,0,-1,1231,1331,0,0
14,-307,0,0,0,0,0,0,0,0,0,-1,1238,1331,0,0
21,-307,0,0,0,0,0,0,0,0,0,-1,1245,1331,0,0
28,-307,0,0,0,0,0,0,0,0,0,-1,1252,1331,0,0
35,-307,0,0,0,0,0,0,0,0,0,-1,1259,1331,0,0
42,-307,0,0,0,0,0,0,0,0,0,-1,1266,1331,0,0
49,-307,0,0,0,0,0,0,0,0,0,-1,1273,1331,0,0
56,-307,0,0,0,0,0,0,0,0,0,-1,1280,1331,0,0
63,-307,0,0,0,0,0,0,0,0,0,-1,1287,1331,0,0
70,-307,0,0,0,0,0,0,0,0,0,-1,1294,1331,0,0
77,-307,0,0,0,0,0,0,0,0,0,-1,1301,1331,0,0
84,-307,0,0,0,0,0,0,0,0,0,-1,1308,1331,0,0
91,-307,0,0,0,0,0,0,0,0,0,-1,1315,1331,0,0
98,-307,0,0,0,0,0,0,0,0,0,-1,1322,1331,0,0
105,-307,0,0,0,0,0,0,0,0,0,-1,1329,1331,0,0
112,-307,0,0,0,0,0,0,0,0,0,-1,1336,1331,0,0
119,-307,0,0,0,0,0,0,0,0,0,-1,1343,1331,0,0
126,-307,0,0,0,0,0,0,0,0,0,-1,1350,1331,0,0
133,-307,0,0,0,0,0,0,0,0,0,-1,1357,1331,0,0
140,-307,0,0,0,0,0,0,0,0,0,-1,1364,1331,0,0
147,-307,0,0,0,0,0,0,0,0,0,-1,1371,1331,0,0
154,-307,0,0,0,0,0,0,0,0,0,-1,1378,1331,0,0
161,-307,0,0,0,0,0,0,0,0,0,-1,1385,1331,0,0
168,-307,0,0,0,0,0,0,0,0,0,-1,1392,1331,0,0
175,-307,0,0,0,0,0,0,0,0,0,-1,1399,1331,0,0
182,-307,0,0,0,0,0,0,0,0,0,-1,1406,1331,0,0
189,-307,0,0,0,0,0,0,0,0,0,-1,1413,1331,0,0
196,-307,0,0,0,0,0,0,0,0,0,-1,1420,1331,0,0
203,-307,0,0,0,0,0,0,0,0,0,-1,1427,1331,0,0
210,-307,0,0,0,0,0,0,0,0,0,-1,1434,1331,0,0
217,-307,0,0,0,0,0,0,0,0,0,-1,1441,1331,0,0
224,-307,0,0,0,0,0,0,0,0,0,-1,1448,1331,0,0
231,-307,0,0,0,0,0,0,0,0,0,-1,1455,1331,0,0
238,-307,0,0,0,0,0,0,0,0,0,-1,1462,1331,0,0
245,-307,0,0,0,0,0,0,0,0,0,-1,1469,1331,0,0
252,-307,0,0,0,0,0,0,0,0,0,-1,1476,1331,0,0
259,-307,0,0,0,0,0,0,0,0,0,-1,1483,1331,0,0
266,-307,0,0,0,0,0,0,0,0,0,-1,1490,1331,0,0
273,-307,0,0,0,0,0,0,0,0,0,-1,1497,1331,0,0
280,-307,0,0,0,0,0,0,0,0,0,-1,1504,1331,0,0
287,-307,0,0,0,0,0,0,0,0,0,-1,1511,1331,0,0
294,-307,0,0,0,0,0,0,0,0,0,-1,1518,1331,0,0
301,-307,0,0,0,0,0,0,0,0,0,-1,1525,1331,0,0
308,-307,0,0,0,0,0,0,0,0,0,-1,1532,1331,0,0
315,-307,0,0,0,0,0,0,0,0,0,-1,1539,1331,0,0
322,-307,0,0,0,0,0,0,0,0,0,-1,1546,1331,0,0
329,-307,0,0,0,0,0,0,0,0,0,-1,1553,1331,0,0
336,-307,0,0,0,0,0,0,0,0,0,-1,1560,1331,0,0
343,-307,0,0,0,0,0,0,0,0,0,-1,1567,1331,0,0
350,-307,0,0,0,0,0,0,0,0,0,-1,1574,1331,0,0
357,-307,0,0,0,0,0,0,0,0,0,-1,1581,1331,0,0
364,-307,0,0,0,0,0,0,0,0,0,-1,1588,1331,0,0
371,-307,0,0,0,0,0,0,0,0,0,-1,1595,1331,0,0
378,-307,0,0,0,0,0,0,0,0,0,-1,1602,1331,0,0
385,-307,0,0,0,0,0,0,0,0,0,-1,1609,1331,0,0
392,-307,0,0,0,0,0,0,0,0,0,-1,1616,1331,0,0
399,-307,0,0,0,0,0,0,0,0,0,-1,1623,1331,0,0
406,-307,0,0,0,0,0,0,0,0,0,-1,1630,1331,0,0
413,-307,0,0,0,0,0,0,0,0,0,-1,1637,1331,0,0
420,-307,0,0,0,0,0,0,0,0,0,-1,1644,1331,0,0
427,-307,0,0,0,0,0,0,0,0,0,-1,1651,1331,0,0
434,-307,0,0,0,0,0,0,0,0,0,-1,1658,1331,0,0
441,-307,0,0,0,0,0,0,0,0,0,-1,1665,1331,0,0
448,-307,0,0,0,0,0,0,0,0,0,-1,1672,1331,0,0
455,-307,0,0,0,0,0,0,0,0,0,-1,1679,1331,0,0
462,-307,0,0,0,0,0,0,0,0,0,-1,1686,1331,0,0
469,-307,0,0,0,0,0,0,0,0,0,-1,1693,1331,0,0
476,-307,0,0,0,0,0,0,0,0,0,-1,1700,1331,0,0
483,-307,0,0,0,0,0,0,0,0,0,-1,1707,1331,0,0
490,-307,0,0,0,0,0,0,0,0,0,-1,1714,1331,0,0
497,-307,0,0,0,0,0,0,0,0,0,-1,1721,1331,0,0
504,-307,0,0,0,0,0,0,0,0,0,-1,1728,1331,0,0
511,-307,0,0,0,0,0,0,0,0,0,-1,1735,1331,0,0
518,-307,0,0,0,0,0,0,0,0,0,-1,1742,1331,0,0
525,-307,0,0,0,0,0,0,0,0,0,-1,1749,1331,0,0
532,-307,0,0,0,0,0,0,0,0,0,-1,1756,1331,0,0
539,-307,0,0,0,0,0,0,0,0,0,-1,1763,1331,0,0
546,-307,0,0,0,0,0,0,0,0,0,-1,1770,1331,0,0
553,-307,0,0,0,0,0,0,0,0,0,-1,1777,1331,0,0
560,-307,0,0,0,0,0,0,0,0,0,-1,1784,1331,0,0
567,-307,0,0,0,0,0,0,0,0,0,-1,1791,1331,0,0
574,-307,0,0,0,0,0,0,0,0,0,-1,1798,1331,0,0
581,-307,0,0,0,0,0,0,0,0,0,-1,1805,1331,0,0
588,-307,16.5608,0.742554,0,0,0,0,0,0,0,-1,1812,1331,16.5608,-0.742615
595,-307,16.4709,0.670776,0,0,0,0,0,0,0,-1,1819,1331,16.4709,-0.670781
602,-307,16.2969,0.841309,0,0,0,0,0,0,0,-1,1826,1331,16.2969,-0.841255
609,-307,16.3193,0.696899,0,0,0,0,0,0,0,-1,1833,1331,16.3194,-0.696886
616,-307,16.4713,0.561401,0,0,0,0,0,0,0,-1,1840,1331,16.4713,-0.561415
623,-307,14.3704,1.12769,0,0,0,0,0,0,0,-1,1847,1331,14.3704,-1.12772
630,-307,11.9603,6.98962,0,0,0,0,0,0,0,-1,1854,1331,11.9603,-6.98968
637,-307,12.7767,6.448,0,0,0,0,0,0,0,-1,1861,1331,12.7767,-6.44794
644,-307,13.5249,5.75427,0,0,0,0,0,0,0,-1,1868,1331,13.5249,-5.75432
651,-307,13.8713,4.71448,0,0,0,0,0,0,0,-1,1875,1331,13.8713,-4.71453
658,-307,13.7107,4.93054,-0.0176023,0.00671793,0.00462656,0.00756833,-0.0184527,1.38902,0.0154551,0.0460853,1882,1331,13.7107,-4.93052
665,-307,13.5684,5.17163,-0.0154849,0.004574,0.0043647,0.00548258,-0.0163935,1.36556,0.0131434,0.0157065,1889,1331,13.5684,-5.17161
672,-307,13.5516,5.03088,-0.0128606,0.00289029,0.0041276,0.00390639,-0.0138767,1.32942,0.0107916,0.00843209,1896,1331,13.5517,-5.03089
679,-307,13.5474,4.86609,-0.00938874,0.00170946,0.00343662,0.00268745,-0.0103667,1.29355,0.00795966,0.00949631,1903,1331,13.5474,-4.86613
686,-307,13.5609,4.71558,-0.00557728,0.000430845,0.00254099,0.00136138,-0.00650781,1.21976,0.00485636,0.00936141,1910,1331,13.561,-4.71558
693,-307,13.5421,4.57239,-0.00211664,-0.000208291,0.00151047,0.000624139,-0.00294907,1.0671,0.00220375,0.011303,1917,1331,13.5421,-4.57235
700,-307,13.5403,4.40417,0.00138884,2.71345e-05,0.000223272,0.00142451,-8.53982e-06,0.15844,0.000952534,0.0124977,1924,1331,13.5403,-4.4042
707,-307,13.5325,4.2312,0.00531398,-0.0002323,-0.000944265,0.00547034,-0.000388656,-0.164095,0.00378311,0.0133695,1931,1331,13.5325,-4.23119
714,-307,13.5494,4.07751,0.0103482,0.00146875,-0.0022407,0.0108816,0.000935361,-0.233697,0.00696361,0.0128051,1938,1331,13.5494,-4.0775
721,-307,13.5815,3.92371,0.0148407,0.00272917,-0.00295014,0.0155211,0.00204879,-0.226662,0.00973659,0.0146078,1945,1331,13.5816,-3.92365
728,-307,13.5544,3.79297,0.0191485,0.00492327,-0.00324045,0.0198519,0.00421989,-0.213747,0.0120763,0.0176193,1952,1331,13.5544,-3.79293
735,-307,13.4886,3.56409,0.0243962,0.00780372,-0.00360915,0.0251473,0.00705266,-0.205169,0.0149781,0.0270042,1959,1331,13.4886,-3.56412
742,-307,13.6085,3.07129,0.0303224,0.0123989,-0.00358598,0.0310133,0.0117081,-0.190315,0.0180837,0.0383984,1966,1331,13.6085,-3.07124
749,-307,14.0258,2.64392,0,0,0,0,0,0,0,-1,1973,1331,14.0258,-2.64387
756,-307,14.5316,2.40015,0.0402548,0.0297723,-0.000960353,0.040342,0.029685,-0.09061,0.0241396,0.0465673,1980,1331,14.5316,-2.40012
763,-307,15.1912,2.44763,0.0416655,0.044426,0.00268851,0.0460679,0.0400236,1.02255,0.0289086,0.0481244,1987,1331,15.1912,-2.44765
770,-307,0,0,0,0,0,0,0,0,0,-1,1994,1331,0,0
777,-307,0,0,0,0,0,0,0,0,0,-1,2001,1331,0,0
784,-307,0,0,0,0,0,0,0,0,0,-1,2008,1331,0,0
791,-307,0,0,0,0,0,0,0,0,0,-1,2015,1331,0,0
798,-307,0,0,0,0,0,0,0,0,0,-1,2022,1331,0,0
805,-307,0,0,0,0,0,0,0,0,0,-1,2029,1331,0,0
812,-307,0,0,0,0,0,0,0,0,0,-1,2036,1331,0,0
-700,-314,0,0,0,0,0,0,0,0,0,-1,524,1338,0,0
-693,-314,0,0,0,0,0,0,0,0,0,-1,531,1338,0,0
-686,-314,0,0,0,0,0,0,0,0,0,-1,538,1338,0,0
-679,-314,0,0,0,0,0,0,0,0,0,-1,545,1338,0,0
-672,-314,0,0,0,0,0,0,0,0,0,-1,552,1338,0,0
-665,-314,0,0,0,0,0,0,0,0,0,-1,559,1338,0,0
-658,-314,0,0,0,0,0,0,0,0,0,-1,566,1338,0,0
-651,-314,0,0,0,0,0,0,0,0,0,-1,573,1338,0,0
-644,-314,-2.88049,-3.23572,-0.0404675,0.112865,-0.0535938,0.129741,-0.0573427,-1.26575,0.110676,0.0484317,580,1338,-2.88047,3.2357
-637,-314,-3.66235,-2.27295,-0.0461845,0.10243,-0.0377011,0.111447,-0.0552016,-1.33603,0.098024,0.047771,587,1338,-3.66237,2.27293
-630,-314,-4.55084,-2.17065,-0.0449961,0.0892006,-0.026539,0.0942584,-0.0500538,-1.38248,0.0846116,0.0445067,594,1338,-4.55082,2.1706
-623,-314,-5.39331,-2.24841,-0.0405391,0.0753081,-0.0185548,0.0782074,-0.0434384,-1.41579,0.071182,0.0473519,601,1338,-5.39334,2.24846
-616,-314,-5.81989,-2.65723,0,0,0,0,0,0,0,-1,608,1338,-5.81986,2.65722
-609,-314,-5.92871,1.16553,0,0,0,0,0,0,0,-1,615,1338,-5.92872,-1.16551
-602,-314,-6.01874,1.33655,-0.0224054,0.0379344,-0.0047202,0.0383014,-0.0227725,-1.4932,0.0356389,0.0403503,622,1338,-6.01871,-1.33653
-595,-314,-6.23901,1.61243,-0.0186181,0.0287084,-0.000803328,0.028722,-0.0186317,-1.55383,0.0275458,0.0291853,629,1338,-6.23903,-1.61247
-588,-314,-6.32019,1.82776,-0.0134472,0.0191962,0.000786198,0.0192151,-0.0134661,1.54673,0.0189655,0.0146702,636,1338,-6.32017,-1.82777
-581,-314,-6.29968,2.00623,-0.00768869,0.0109356,0.00131872,0.0110285,-0.0077816,1.50046,0.0109138,0.011926,643,1338,-6.29966,-2.00617
-574,-314,-6.33008,2.15186,-0.00335979,0.00522079,0.00155928,0.00549536,-0.00363436,1.3965,0.00530742,0.0119611,650,1338,-6.33005,-2.15182
-567,-314,-6.3064,2.35767,-0.000599116,0.00100129,0.00112007,0.00157763,-0.00117546,1.09557,0.00159514,0.0135452,657,1338,-6.30638,-2.3577
-560,-314,-6.29688,2.57544,-0.00103663,-0.00034305,-0.000133393,-0.000318279,-0.0010614,-1.38719,0.000628948,0.0145813,664,1338,-6.29688,-2.57549
-553,-314,-6.33398,2.74365,-0.00224246,-0.000416435,-0.00143527,0.000371605,-0.0030305,-1.06868,0.00215491,0.0175232,671,1338,-6.33398,-2.74363
-546,-314,-6.34625,2.94336,-0.00358883,-0.000544533,-0.0025454,0.000899121,-0.00503249,-1.05487,0.00369138,0.0173271,678,1338,-6.34623,-2.94338
-539,-314,-6.32715,3.14709,-0.00442288,-0.00197164,-0.00280581,-0.000135443,-0.00625908,-0.991315,0.00412831,0.015446,685,1338,-6.32716,-3.14706
-532,-314,-6.20715,3.354,-0.00512217,-0.00448713,-0.00276438,-0.0020221,-0.00758721,-0.842578,0.00453689,0.0233615,692,1338,-6.20715,-3.35405
-525,-314,-6.42096,3.53845,-0.00577738,-0.00760737,-0.00228548,-0.00423054,-0.00915422,-0.594994,0.00529024,0.0381946,699,1338,-6.42093,-3.53849
-518,-314,-6.59155,3.65845,-0.00604078,-0.0115654,-0.00151413,-0.00565302,-0.0119532,-0.250706,0.00690453,0.0438977,706,1338,-6.59154,-3.65843
-511,-314,-7.03912,3.46216,-0.00539103,-0.0168427,-0.00010164,-0.00539013,-0.0168436,-0.00887463,0.00993247,0.0465472,713,1338,-7.03915,-3.46216
-504,-314,-7.24957,3.65002,0,0,0,0,0,0,0,-1,720,1338,-7.24958,-3.65
-497,-314,-7.83508,0.822021,0,0,0,0,0,0,0,-1,727,1338,-7.83506,-0.822005
-490,-314,-13.7061,3.42212,0,0,0,0,0,0,0,-1,734,1338,-13.7061,-3.42207
-483,-314,-12.7109,3.27209,0,0,0,0,0,0,0,-1,741,1338,-12.7109,-3.27205
-476,-314,-12.7559,3.24548,0,0,0,0,0,0,0,-1,748,1338,-12.7559,-3.24553
-469,-314,-12.801,3.21899,0,0,0,0,0,0,0,-1,755,1338,-12.8009,-3.219
-462,-314,0,0,0,0,0,0,0,0,0,-1,762,1338,0,0
-455,-314,0,0,0,0,0,0,0,0,0,-1,769,1338,0,0
-448,-314,0,0,0,0,0,0,0,0,0,-1,776,1338,0,0
-441,-314,0,0,0,0,0,0,0,0,0,-1,783,1338,0,0
-434,-314,0,0,0,0,0,0,0,0,0,-1,790,1338,0,0
-427,-314,0,0,0,0,0,0,0,0,0,-1,797,1338,0,0
-420,-314,0,0,0,0,0,0,0,0,0,-1,804,1338,0,0
-413,-314,0,0,0,0,0,0,0,0,0,-1,811,1338,0,0
-406,-314,0,0,0,0,0,0,0,0,0,-1,818,1338,0,0
-399,-314,0,0,0,0,0,0,0,0,0,-1,825,1338,0,0
-392,-314,0,0,0,0,0,0,0,0,0,-1,832,1338,0,0
-385,-314,0,0,0,0,0,0,0,0,0,-1,839,1338,0,0
-378,-314,0,0,0,0,0,0,0,0,0,-1,846,1338,0,0
-371,-314,0,0,0,0,0,0,0,0,0,-1,853,1338,0,0
-364,-314,0,0,0,0,0,0,0,0,0,-1,860,1338,0,0
-357,-314,0,0,0,0,0,0,0,0,0,-1,867,1338,0,0
-350,-314,0,0,0,0,0,0,0,0,0,-1,874,1338,0,0
-343,-314,0,0,0,0,0,0,0,0,0,-1,881,1338,0,0
-336,-314,0,0,0,0,0,0,0,0,0,-1,888,1338,0,0
-329,-314,0,0,0,0,0,0,0,0,0,-1,895,1338,0,0
-322,-314,0,0,0,0,0,0,0,0,0,-1,902,1338,0,0
-315,-314,0,0,0,0,0,0,0,0,0,-1,909,1338,0,0
-308,-314,0,0,0,0,0,0,0,0,0,-1,916,1338,0,0
-301,-314,0,0,0,0,0,0,0,0,0,-1,923,1338,0,0
-294,-314,0,0,0,0,0,0,0,0,0,-1,930,1338,0,0
-287,-314,0,0,0,0,0,0,0,0,0,-1,937,1338,0,0
-280,-314,0,0,0,0,0,0,0,0,0,-1,944,1338,0,0
-273,-314,0,0,0,0,0,0,0,0,0,-1,951,1338,0,0
-266,-314,0,0,0,0,0,0,0,0,0,-1,958,1338,0,0
-259,-314,0,0,0,0,0,0,0,0,0,-1,965,1338,0,0
-252,-314,0,0,0,0,0,0,0,0,0,-1,972,1338,0,0
-245,-314,0,0,0,0,0,0,0,0,0,-1,979,1338,0,0
-238,-314,0,0,0,0,0,0,0,0,0,-1,986,1338,0,0
-231,-314,0,0,0,0,0,0,0,0,0,-1,993,1338,0,0
-224,-314,0,0,0,0,0,0,0,0,0,-1,1000,1338,0,0
-217,-314,0,0,0,0,0,0,0,0,0,-1,1007,1338,0,0
-210,-314,0,0,0,0,0,0,0,0,0,-1,1014,1338,0,0
-203,-314,0,0,0,0,0,0,0,0,0,-1,1021,1338,0,0
-196,-314,0,0,0,0,0,0,0,0,0,-1,1028,1338,0,0
-189,-314,0,0,0,0,0,0,0,0,0,-1,1035,1338,0,0
-182,-314,0,0,0,0,0,0,0,0,0,-1,1042,1338,0,0
-175,-314,0,0,0,0,0,0,0,0,0,-1,1049,1338,0,0
-168,-314,0,0,0,0,0,0,0,0,0,-1,1056,1338,0,0
-161,-314,0,0,0,0,0,0,0,0,0,-1,1063,1338,0,0
-154,-314,0,0,0,0,0,0,0,0,0,-1,1070,1338,0,0
-147,-314,0,0,0,0,0,0,0,0,0,-1,1077,1338,0,0
-140,-314,0,0,0,0,0,0,0,0,0,-1,1084,1338,0,0
-133,-314,0,0,0,0,0,0,0,0,0,-1,1091,1338,0,0
-126,-314,0,0,0,0,0,0,0,0,0,-1,1098,1338,0,0
-119,-314,0,0,0,0,0,0,0,0,0,-1,1105,1338,0,0
-112,-314,0,0,0,0,0,0,0,0,0,-1,1112,1338,0,0
-105,-314,0,0,0,0,0,0,0,0,0,-1,1119,1338,0,0
-98,-314,0,0,0,0,0,0,0,0,0,-1,1126,1338,0,0
-91,-314,0,0,0,0,0,0,0,0,0,-1,1133,1338,0,0
-84,-314,0,0,0,0,0,0,0,0,0,-1,1140,1338,0,0
-77,-314,0,0,0,0,0,0,0,0,0,-1,1147,1338,0,0
-70,-314,0,0,0,0,0,0,0,0,0,-1,1154,1338,0,0
-63,-314,0,0,0,0,0,0,0,0,0,-1,1161,1338,0,0
-56,-314,0,0,0,0,0,0,0,0,0,-1,1168,1338,0,0
-49,-314,0,0,0,0,0,0,0,0,0,-1,1175,1338,0,0
-42,-314,0,0,0,0,0,0,0,0,0,-1,1182,1338,0,0
-35,-314,0,0,0,0,0,0,0,0,0,-1,1189,1338,0,0
-28,-314,0,0,0,0,0,0,0,0,0,-1,1196,1338,0,0
-21,-314,0,0,0,0,0,0,0,0,0,-1,1203,1338,0,0
-14,-314,0,0,0,0,0,0,0,0,0,-1,1210,1338,0,0
-7,-314,0,0,0,0,0,0,0,0,0,-1,1217,1338,0,0
0,-314,0,0,0,0,0,0,0,0,0,-1,1224,1338,0,0
7,-314,0,0,0,0,0,0,0,0,0,-1,1231,1338,0,0
14,-314,0,0,0,0,0,0,0,0,0,-1,1238,1338,0,0
21,-314,0,0,0,0,0,0,0,0,0,-1,1245,1338,0,0
28,-314,0,0,0,0,0,0,0,0,0,-1,1252,1338,0,0
35,-314,0,0,0,0,0,0,0,0,0,-1,1259,1338,0,0
42,-314,0,0,0,0,0,0,0,0,0,-1,1266,1338,0,0
49,-314,0,0,0,0,0,0,0,0,0,-1,1273,1338,0,0
56,-314,0,0,0,0,0,0,0,0,0,-1,1280,1338,0,0
63,-314,0,0,0,0,0,0,0,0,0,-1,1287,1338,0,0
70,-314,0,0,0,0,0,0,0,0,0,-1,1294,1338,0,0
77,-314,0,0,0,0,0,0,0,0,0,-1,1301,1338,0,0
84,-314,0,0,0,0,0,0,0,0,0,-1,1308,1338,0,0
91,-314,0,0,0,0,0,0,0,0,0,-1,1315,1338,0,0
98,-314,0,0,0,0,0,0,0,0,0,-1,1322,1338,0,0
105,-314,0,0,0,0,0,0,0,0,0,-1,1329,1338,0,0
112,-314,0,0,0,0,0,0,0,0,0,-1,1336,1338,0,0
119,-314,0,0,0,0,0,0,0,0,0,-1,1343,1338,0,0
126,-314,0,0,0,0,0,0,0,0,0,-1,1350,1338,0,0
133,-314,0,0,0,0,0,0,0,0,0,-1,1357,1338,0,0
140,-314,0,0,0,0,0,0,0,0,0,-1,1364,1338,0,0
147,-314,0,0,0,0,0,0,0,0,0,-1,1371,1338,0,0
154,-314,0,0,0,0,0,0,0,0,0,-1,1378,1338,0,0
161,-314,0,0,0,0,0,0,0,0,0,-1,1385,1338,0,0
168,-314,0,0,0,0,0,0,0,0,0,-1,1392,1338,0,0
175,-314,0,0,0,0,0,0,0,0,0,-1,1399,1338,0,0
182,-314,0,0,0,0,0,0,0,0,0,-1,1406,1338,0,0
189,-314,0,0,0,0,0,0,0,0,0,-1,1413,1338,0,0
196,-314,0,0,0,0,0,0,0,0,0,-1,1420,1338,0,0
203,-314,0,0,0,0,0,0,0,0,0,-1,1427,1338,0,0
210,-314,0,0,0,0,0,0,0,0,0,-1,1434,1338,0,0
217,-314,0,0,0,0,0,0,0,0,0,-1,1441,1338,0,0
224,-314,0,0,0,0,0,0,0,0,0,-1,1448,1338,0,0
231,-314,0,0,0,0,0,0,0,0,0,-1,1455,1338,0,0
238,-314,0,0,0,0,0,0,0,0,0,-1,1462,1338,0,0
245,-314,0,0,0,0,0,0,0,0,0,-1,1469,1338,0,0
252,-314,0,0,0,0,0,0,0,0,0,-1,1476,1338,0,0
259,-314,0,0,0,0,0,0,0,0,0,-1,1483,1338,0,0
266,-314,0,0,0,0,0,0,0,0,0,-1,1490,1338,0,0
273,-314,0,0,0,0,0,0,0,0,0,-1,1497,1338,0,0
280,-314,0,0,0,0,0,0,0,0,0,-1,1504,1338,0,0
287,-314,0,0,0,0,0,0,0,0,0,-1,1511,1338,0,0
294,-314,0,0,0,0,0,0,0,0,0,-1,1518,1338,0,0
301,-314,0,0,0,0,0,0,0,0,0,-1,1525,1338,0,0
308,-314,0,0,0,0,0,0,0,0,0,-1,1532,1338,0,0
315,-314,0,0,0,0,0,0,0,0,0,-1,1539,1338,0,0
322,-314,0,0,0,0,0,0,0,0,0,-1,1546,1338,0,0
329,-314,0,0,0,0,0,0,0,0,0,-1,1553,1338,0,0
336,-314,0,0,0,0,0,0,0,0,0,-1,1560,1338,0,0
343,-314,0,0,0,0,0,0,0,0,0,-1,1567,1338,0,0
350,-314,0,0,0,0,0,0,0,0,0,-1,1574,1338,0,0
357,-314,0,0,0,0,0,0,0,0,0,-1,1581,1338,0,0
364,-314,0,0,0,0,0,0,0,0,0,-1,1588,1338,0,0
371,-314,0,0,0,0,0,0,0,0,0,-1,1595,1338,0,0
378,-314,0,0,0,0,0,0,0,0,0,-1,1602,1338,0,0
385,-314,0,0,0,0,0,0,0,0,0,-1,1609,1338,0,0
392,-314,0,0,0,0,0,0,0,0,0,-1,1616,1338,0,0
399,-314,0,0,0,0,0,0,0,0,0,-1,1623,1338,0,0
406,-314,0,0,0,0,0,0,0,0,0,-1,1630,1338,0,0
413,-314,0,0,0,0,0,0,0,0,0,-1,1637,1338,0,0
420,-314,0,0,0,0,0,0,0,0,0,-1,1644,1338,0,0
427,-314,0,0,0,0,0,0,0,0,0,-1,1651,1338,0,0
434,-314,0,0,0,0,0,0,0,0,0,-1,1658,1338,0,0
441,-314,0,0,0,0,0,0,0,0,0,-1,1665,1338,0,0
448,-314,0,0,0,0,0,0,0,0,0,-1,1672,1338,0,0
455,-314,0,0,0,0,0,0,0,0,0,-1,1679,1338,0,0
462,-314,0,0,0,0,0,0,0,0,0,-1,1686,1338,0,0
469,-314,0,0,0,0,0,0,0,0,0,-1,1693,1338,0,0
476,-314,0,0,0,0,0,0,0,0,0,-1,1700,1338,0,0
483,-314,0,0,0,0,0,0,0,0,0,-1,1707,1338,0,0
490,-314,0,0,0,0,0,0,0,0,0,-1,1714,1338,0,0
497,-314,0,0,0,0,0,0,0,0,0,-1,1721,1338,0,0
504,-314,0,0,0,0,0,0,0,0,0,-1,1728,1338,0,0
511,-314,0,0,0,0,0,0,0,0,0,-1,1735,1338,0,0
518,-314,0,0,0,0,0,0,0,0,0,-1,1742,1338,0,0
525,-314,0,0,0,0,0,0,0,0,0,-1,1749,1338,0,0
532,-314,0,0,0,0,0,0,0,0,0,-1,1756,1338,0,0
539,-314,0,0,0,0,0,0,0,0,0,-1,1763,1338,0,0
546,-314,0,0,0,0,0,0,0,0,0,-1,1770,1338,0,0
553,-314,0,0,0,0,0,0,0,0,0,-1,1777,1338,0,0
560,-314,0,0,0,0,0,0,0,0,0,-1,1784,1338,0,0
567,-314,0,0,0,0,0,0,0,0,0,-1,1791,1338,0,0
574,-314,0,0,0,0,0,0,0,0,0,-1,1798,1338,0,0
581,-314,17.6028,2.23486,0,0,0,0,0,0,0,-1,1805,1338,17.6028,-2.23481
588,-314,16.0432,0.943481,0,0,0,0,0,0,0,-1,1812,1338,16.0432,-0.943504
595,-314,16.0901,0.761841,0,0,0,0,0,0,0,-1,1819,1338,16.0901,-0.761789
602,-314,16.1519,0.595703,0,0,0,0,0,0,0,-1,1826,1338,16.1518,-0.595664
609,-314,16.2318,0.435547,0,0,0,0,0,0,0,-1,1833,1338,16.2318,-0.43553
616,-314,16.2676,0.337769,0,0,0,0,0,0,0,-1,1840,1338,16.2675,-0.337745
623,-314,16.3767,0.915039,0,0,0,0,0,0,0,-1,1847,1338,16.3767,-0.915021
630,-314,13.1564,6.21594,0,0,0,0,0,0,0,-1,1854,1338,13.1564,-6.21598
637,-314,13.6475,5.72729,-0.0196334,0.0142649,0.00455749,0.0148669,-0.0202355,1.43946,0.0203452,0.0489527,1861,1338,13.6474,-5.72735
644,-314,13.8226,5.42261,-0.0197358,0.0109883,0.00510663,0.0118149,-0.0205624,1.41033,0.0189191,0.0490457,1868,1338,13.8226,-5.42259
651,-314,13.6373,4.91675,0,0,0,0,0,0,0,-1,1875,1338,13.6373,-4.91675
658,-314,13.5302,5.09729,-0.0167079,0.00524515,0.0051311,0.00638524,-0.0178479,1.35216,0.0145034,0.0372382,1882,1338,13.5301,-5.09729
665,-314,13.3733,5.2002,-0.0142862,0.00321226,0.00458861,0.00434252,-0.0154165,1.32929,0.0119902,0.0146399,1889,1338,13.3733,-5.20017
672,-314,13.394,5.04993,-0.0115062,0.00183416,0.00412189,0.00300498,-0.0126771,1.29404,0.00961092,0.0111756,1896,1338,13.394,-5.04994
679,-314,13.3779,4.88831,-0.00797703,0.0010486,0.00321587,0.0020772,-0.00900563,1.26123,0.0068027,0.00947998,1903,1338,13.3779,-4.8883
686,-314,13.3679,4.7113,-0.00400955,0.000155871,0.00215689,0.00107147,-0.00492515,1.16935,0.00369277,0.0109392,1910,1338,13.3679,-4.71128
693,-314,13.3871,4.54688,-0.000433578,-0.000322671,0.00102317,0.000646543,-0.00140279,0.812471,0.00120974,0.0112486,1917,1338,13.3871,-4.54689
700,-314,13.3853,4.40015,0.00332635,-0.000194032,-0.000323728,0.00335587,-0.000223554,-0.090942,0.00231536,0.0122142,1924,1338,13.3853,-4.40018
707,-314,13.3784,4.23132,0.00780328,-0.00070991,-0.00154939,0.0080765,-0.000983127,-0.174545,0.00574018,0.0122934,1931,1338,13.3784,-4.23137
714,-314,13.3668,4.08154,0.0134832,0.000748231,-0.002949,0.0141329,9.84888e-05,-0.216861,0.0093893,0.0120097,1938,1338,13.3668,-4.08157
721,-314,13.41,3.93567,0.0189965,0.00158189,-0.00385866,0.0198132,0.0007652,-0.208572,0.0129613,0.0160311,1945,1338,13.41,-3.93564
728,-314,13.3535,3.79907,0.0251442,0.00312853,-0.00440816,0.0259941,0.0022787,-0.19045,0.016622,0.025365,1952,1338,13.3536,-3.79911
735,-314,13.3071,3.53931,0.0330329,0.005444,-0.00514184,0.0339601,0.00451685,-0.178397,0.0212947,0.0373211,1959,1338,13.3071,-3.53934
742,-314,13.2637,3.25232,0.0421231,0.00944686,-0.00556679,0.0430454,0.00852452,-0.164194,0.0263197,0.0458039,1966,1338,13.2637,-3.25234
749,-314,13.2384,2.97815,0,0,0,0,0,0,0,-1,1973,1338,13.2385,-2.9781
756,-314,13.4758,3.11731,0.0619783,0.0263993,-0.00410811,0.0624465,0.0259311,-0.113475,0.0362257,0.0435999,1980,1338,13.4758,-3.11731
763,-314,14.5105,1.07239,0.070837,0.0420058,-0.00103905,0.0708744,0.0419684,-0.035977,0.0411503,0.0465122,1987,1338,14.5105,-1.07236
770,-314,0,0,0,0,0,0,0,0,0,-1,1994,1338,0,0
777,-314,0,0,0,0,0,0,0,0,0,-1,2001,1338,0,0
784,-314,0,0,0,0,0,0,0,0,0,-1,2008,1338,0,0
791,-314,0,0,0,0,0,0,0,0,0,-1,2015,1338,0,0
798,-314,0,0,0,0,0,0,0,0,0,-1,2022,1338,0,0
805,-314,0,0,0,0,0,0,0,0,0,-1,2029,1338,0,0
812,-314,0,0,0,0,0,0,0,0,0,-1,2036,1338,0,0
-700,-321,0,0,0,0,0,0,0,0,0,-1,524,1345,0,0
-693,-321,0,0,0,0,0,0,0,0,0,-1,531,1345,0,0
-686,-321,0,0,0,0,0,0,0,0,0,-1,538,1345,0,0
-679,-321,0,0,0,0,0,0,0,0,0,-1,545,1345,0,0
-672,-321,0,0,0,0,0,0,0,0,0,-1,552,1345,0,0
-665,-321,0,0,0,0,0,0,0,0,0,-1,559,1345,0,0
-658,-321,0,0,0,0,0,0,0,0,0,-1,566,1345,0,0
-651,-321,0,0,0,0,0,0,0,0,0,-1,573,1345,0,0
-644,-321,-3.49805,-3.07544,-0.0417375,0.112216,-0.0524783,0.128403,-0.057924,-1.27161,0.110111,0.0457801,580,1345,-3.49807,3.0755
-637,-321,-3.59491,-3.30188,-0.045188,0.100459,-0.0357517,0.108761,-0.0534906,-1.34261,0.0954706,0.0447888,587,1345,-3.59489,3.30192
-630,-321,-4.12231,-3.10168,-0.042084,0.0861994,-0.0239613,0.0905289,-0.0464135,-1.39204,0.0804196,0.0469905,594,1345,-4.12229,3.10172
-623,-321,-5.37433,-3.11145,-0.0365178,0.0719034,-0.01575,0.074145,-0.0387594,-1.42942,0.0662439,0.0485654,601,1345,-5.37433,3.11145
-616,-321,-6.461,-3.15552,0,0,0,0,0,0,0,-1,608,1345,-6.46097,3.15554
-609,-321,-6.27222,1.90674,0,0,0,0,0,0,0,-1,615,1345,-6.27221,-1.9067
-602,-321,-6.23376,1.29199,0,0,0,0,0,0,0,-1,622,1345,-6.23374,-1.29194
-595,-321,-6.13696,1.55261,-0.0147894,0.0260959,0.00149827,0.0261507,-0.0148442,1.53422,0.0239666,0.0479932,629,1345,-6.13694,-1.55258
-588,-321,-6.13989,1.78552,-0.0101666,0.0171571,0.00278248,0.0174375,-0.0104471,1.47034,0.016267,0.0177699,636,1345,-6.13992,-1.78554
-581,-321,-6.11969,2.01013,-0.0049245,0.00931059,0.00321813,0.0100043,-0.00561821,1.35848,0.00913739,0.0121939,643,1345,-6.11972,-2.01011
-574,-321,-6.14197,2.17236,-0.00109543,0.00380019,0.00325915,0.00542838,-0.00272363,1.10749,0.00479214,0.0149274,650,1345,-6.14194,-2.17238
-567,-321,-6.11957,2.36023,0.00117715,-0.000132573,0.0026094,0.00321261,-0.00216803,0.662456,0.00312597,0.0205957,657,1345,-6.11958,-2.3602
-560,-321,-6.13177,2.55029,0.000199382,-0.00113881,0.00113339,0.000846441,-0.00178587,0.518752,0.00155169,0.0250141,664,1345,-6.13175,-2.55024
-553,-321,-6.14038,2.67651,-0.00129927,-0.00109427,-0.000411769,-0.000772438,-0.00162111,-0.907379,0.000936291,0.027311,671,1345,-6.14037,-2.6765
-546,-321,-6.17212,2.88892,-0.00262457,-0.00139741,-0.00161999,-0.000278694,-0.00374328,-0.966428,0.00240801,0.0257332,678,1345,-6.17212,-2.88889
-539,-321,-6.1778,3.15503,-0.00341948,-0.00285218,-0.00213693,-0.000980159,-0.0052915,-0.851382,0.00325059,0.0226185,685,1345,-6.17779,-3.15505
-532,-321,-6.07764,3.35974,-0.00398275,-0.00529391,-0.00234976,-0.00219883,-0.00707784,-0.649358,0.00418291,0.0168486,692,1345,-6.07766,-3.35969
-525,-321,-6.08289,3.63452,-0.00455049,-0.00825224,-0.00219076,-0.0035334,-0.00926932,-0.434648,0.00540177,0.0274237,699,1345,-6.08287,-3.63452
-518,-321,-6.26563,3.60437,-0.00484008,-0.0118498,-0.0018355,-0.00438854,-0.0123013,-0.241214,0.00719868,0.0429798,706,1345,-6.26562,-3.6044
-511,-321,-6.60443,3.48987,-0.00439836,-0.0164672,-0.000998571,-0.0043163,-0.0165492,-0.0819967,0.00991242,0.0437404,713,1345,-6.60442,-3.48989
-504,-321,-6.94208,3.64978,0,0,0,0,0,0,0,-1,720,1345,-6.94209,-3.64979
-497,-321,-7.18005,0.923584,0,0,0,0,0,0,0,-1,727,1345,-7.18008,-0.92361
-490,-321,-7.69165,2.32532,0,0,0,0,0,0,0,-1,734,1345,-7.69165,-2.32526
-483,-321,-8.37396,3.28284,0,0,0,0,0,0,0,-1,741,1345,-8.37399,-3.28289
-476,-321,-13.1566,3.69373,0,0,0,0,0,0,0,-1,748,1345,-13.1565,-3.69368
-469,-321,-7.26276,-0.69519,0,0,0,0,0,0,0,-1,755,1345,-7.26279,0.695205
-462,-321,-7.7442,0.416138,0,0,0,0,0,0,0,-1,762,1345,-7.7442,-0.41612
-455,-321,0,0,0,0,0,0,0,0,0,-1,769,1345,0,0
-448,-321,0,0,0,0,0,0,0,0,0,-1,776,1345,0,0
-441,-321,0,0,0,0,0,0,0,0,0,-1,783,1345,0,0
-434,-321,0,0,0,0,0,0,0,0,0,-1,790,1345,0,0
-427,-321,0,0,0,0,0,0,0,0,0,-1,797,1345,0,0
-420,-321,0,0,0,0,0,0,0,0,0,-1,804,1345,0,0
-413,-321,0,0,0,0,0,0,0,0,0,-1,811,1345,0,0
-406,-321,0,0,0,0,0,0,0,0,0,-1,818,1345,0,0
-399,-321,0,0,0,0,0,0,0,0,0,-1,825,1345,0,0
-392,-321,0,0,0,0,0,0,0,0,0,-1,832,1345,0,0
-385,-321,0,0,0,0,0,0,0,0,0,-1,839,1345,0,0
-378,-321,0,0,0,0,0,0,0,0,0,-1,846,1345,0,0
-371,-321,0,0,0,0,0,0,0,0,0,-1,853,1345,0,0
-364,-321,0,0,0,0,0,0,0,0,0,-1,860,1345,0,0
-357,-321,0,0,0,0,0,0,0,0,0,-1,867,1345,0,0
-350,-321,0,0,0,0,0,0,0,0,0,-1,874,1345,0,0
-343,-321,0,0,0,0,0,0,0,0,0,-1,881,1345,0,0
-336,-321,0,0,0,0,0,0,0,0,0,-1,888,1345,0,0
-329,-321,0,0,0,0,0,0,0,0,0,-1,895,1345,0,0
-322,-321,0,0,0,0,0,0,0,0,0,-1,902,1345,0,0
-315,-321,0,0,0,0,0,0,0,0,0,-1,909,1345,0,0
-308,-321,0,0,0,0,0,0,0,0,0,-1,916,1345,0,0
-301,-321,0,0,0,0,0,0,0,0,0,-1,923,1345,0,0
-294,-321,0,0,0,0,0,0,0,0,0,-1,930,1345,0,0
-287,-321,0,0,0,0,0,0,0,0,0,-1,937,1345,0,0
-280,-321,0,0,0,0,0,0,0,0,0,-1,944,1345,0,0
-273,-321,0,0,0,0,0,0,0,0,0,-1,951,1345,0,0
-266,-321,0,0,0,0,0,0,0,0,0,-1,958,1345,0,0
-259,-321,0,0,0,0,0,0,0,0,0,-1,965,1345,0,0
-252,-321,0,0,0,0,0,0,0,0,0,-1,972,1345,0,0
-245,-321,0,0,0,0,0,0,0,0,0,-1,979,1345,0,0
-238,-321,0,0,0,0,0,0,0,0,0,-1,986,1345,0,0
-231,-321,0,0,0,0,0,0,0,0,0,-1,993,1345,0,0
-224,-321,0,0,0,0,0,0,0,0,0,-1,1000,1345,0,0
-217,-321,0,0,0,0,0,0,0,0,0,-1,1007,1345,0,0
-210,-321,0,0,0,0,0,0,0,0,0,-1,1014,1345,0,0
-203,-321,0,0,0,0,0,0,0,0,0,-1,1021,1345,0,0
-196,-321,0,0,0,0,0,0,0,0,0,-1,1028,1345,0,0
-189,-321,0,0,0,0,0,0,0,0,0,-1,1035,1345,0,0
-182,-321,0,0,0,0,0,0,0,0,0,-1,1042,1345,0,0
-175,-321,0,0,0,0,0,0,0,0,0,-1,1049,1345,0,0
-168,-321,0,0,0,0,0,0,0,0,0,-1,1056,1345,0,0
-161,-321,0,0,0,0,0,0,0,0,0,-1,1063,1345,0,0
-154,-321,0,0,0,0,0,0,0,0,0,-1,1070,1345,0,0
-147,-321,0,0,0,0,0,0,0,0,0,-1,1077,1345,0,0
-140,-321,0,0,0,0,0,0,0,0,0,-1,1084,1345,0,0
-133,-321,0,0,0,0,0,0,0,0,0,-1,1091,1345,0,0
-126,-321,0,0,0,0,0,0,0,0,0,-1,1098,1345,0,0
-119,-321,0,0,0,0,0,0,0,0,0,-1,1105,1345,0,0
-112,-321,0,0,0,0,0,0,0,0,0,-1,1112,1345,0,0
-105,-321,0,0,0,0,0,0,0,0,0,-1,1119,1345,0,0
-98,-321,0,0,0,0,0,0,0,0,0,-1,1126,1345,0,0
-91,-321,0,0,0,0,0,0,0,0,0,-1,1133,1345,0,0
-84,-321,0,0,0,0,0,0,0,0,0,-1,1140,1345,0,0
-77,-321,0,0,0,0,0,0,0,0,0,-1,1147,1345,0,0
-70,-321,0,0,0,0,0,0,0,0,0,-1,1154,1345,0,0
-63,-321,0,0,0,0,0,0,0,0,0,-1,1161,1345,0,0
-56,-321,0,0,0,0,0,0,0,0,0,-1,1168,1345,0,0
-49,-321,0,0,0,0,0,0,0,0,0,-1,1175,1345,0,0
-42,-321,0,0,0,0,0,0,0,0,0,-1,1182,1345,0,0
-35,-321,0,0,0,0,0,0,0,0,0,-1,1189,1345,0,0
-28,-321,0,0,0,0,0,0,0,0,0,-1,1196,1345,0,0
-21,-321,0,0,0,0,0,0,0,0,0,-1,1203,1345,0,0
-14,-321,0,0,0,0,0,0,0,0,0,-1,1210,1345,0,0
-7,-321,0,0,0,0,0,0,0,0,0,-1,1217,1345,0,0
0,-321,0,0,0,0,0,0,0,0,0,-1,1224,1345,0,0
7,-321,0,0,0,0,0,0,0,0,0,-1,1231,1345,0,0
14,-321,0,0,0,0,0,0,0,0,0,-1,1238,1345,0,0
21,-321,0,0,0,0,0,0,0,0,0,-1,1245,1345,0,0
28,-321,0,0,0,0,0,0,0,0,0,-1,1252,1345,0,0
35,-321,0,0,0,0,0,0,0,0,0,-1,1259,1345,0,0
42,-321,0,0,0,0,0,0,0,0,0,-1,1266,1345,0,0
49,-321,0,0,0,0,0,0,0,0,0,-1,1273,1345,0,0
56,-321,0,0,0,0,0,0,0,0,0,-1,1280,1345,0,0
63,-321,0,0,0,0,0,0,0,0,0,-1,1287,1345,0,0
70,-321,0,0,0,0,0,0,0,0,0,-1,1294,1345,0,0
77,-321,0,0,0,0,0,0,0,0,0,-1,1301,1345,0,0
84,-321,0,0,0,0,0,0,0,0,0,-1,1308,1345,0,0
91,-321,0,0,0,0,0,0,0,0,0,-1,1315,1345,0,0
98,-321,0,0,0,0,0,0,0,0,0,-1,1322,1345,0,0
105,-321,0,0,0,0,0,0,0,0,0,-1,1329,1345,0,0
112,-321,0,0,0,0,0,0,0,0,0,-1,1336,1345,0,0
119,-321,0,0,0,0,0,0,0,0,0,-1,1343,1345,0,0
126,-321,0,0,0,0,0,0,0,0,0,-1,1350,1345,0,0
133,-321,0,0,0,0,0,0,0,0,0,-1,1357,1345,0,0
140,-321,0,0,0,0,0,0,0,0,0,-1,1364,1345,0,0
147,-321,0,0,0,0,0,0,0,0,0,-1,1371,1345,0,0
154,-321,0,0,0,0,0,0,0,0,0,-1,1378,1345,0,0
161,-321,0,0,0,0,0,0,0,0,0,-1,1385,1345,0,0
168,-321,0,0,0,0,0,0,0,0,0,-1,1392,1345,0,0
175,-321,0,0,0,0,0,0,0,0,0,-1,1399,1345,0,0
182,-321,0,0,0,0,0,0,0,0,0,-1,1406,1345,0,0
189,-321,0,0,0,0,0,0,0,0,0,-1,1413,1345,0,0
196,-321,0,0,0,0,0,0,0,0,0,-1,1420,1345,0,0
203,-321,0,0,0,0,0,0,0,0,0,-1,1427,1345,0,0
210,-321,0,0,0,0,0,0,0,0,0,-1,1434,1345,0,0
217,-321,0,0,0,0,0,0,0,0,0,-1,1441,1345,0,0
224,-321,0,0,0,0,0,0,0,0,0,-1,1448,1345,0,0
231,-321,0,0,0,0,0,0,0,0,0,-1,1455,1345,0,0
238,-321,0,0,0,0,0,0,0,0,0,-1,1462,1345,0,0
245,-321,0,0,0,0,0,0,0,0,0,-1,1469,1345,0,0
252,-321,0,0,0,0,0,0,0,0,0,-1,1476,1345,0,0
259,-321,0,0,0,0,0,0,0,0,0,-1,1483,1345,0,0
266,-321,0,0,0,0,0,0,0,0,0,-1,1490,1345,0,0
273,-321,0,0,0,0,0,0,0,0,0,-1,1497,1345,0,0
280,-321,0,0,0,0,0,0,0,0,0,-1,1504,1345,0,0
287,-321,0,0,0,0,0,0,0,0,0,-1,1511,1345,0,0
294,-321,0,0,0,0,0,0,0,0,0,-1,1518,1345,0,0
301,-321,0,0,0,0,0,0,0,0,0,-1,1525,1345,0,0
308,-321,0,0,0,0,0,0,0,0,0,-1,1532,1345,0,0
315,-321,0,0,0,0,0,0,0,0,0,-1,1539,1345,0,0
322,-321,0,0,0,0,0,0,0,0,0,-1,1546,1345,0,0
329,-321,0,0,0,0,0,0,0,0,0,-1,1553,1345,0,0
336,-321,0,0,0,0,0,0,0,0,0,-1,1560,1345,0,0
343,-321,0,0,0,0,0,0,0,0,0,-1,1567,1345,0,0
350,-321,0,0,0,0,0,0,0,0,0,-1,1574,1345,0,0
357,-321,0,0,0,0,0,0,0,0,0,-1,1581,1345,0,0
364,-321,0,0,0,0,0,0,0,0,0,-1,1588,1345,0,0
371,-321,0,0,0,0,0,0,0,0,0,-1,1595,1345,0,0
378,-321,0,0,0,0,0,0,0,0,0,-1,1602,1345,0,0
385,-321,0,0,0,0,0,0,0,0,0,-1,1609,1345,0,0
392,-321,0,0,0,0,0,0,0,0,0,-1,1616,1345,0,0
399,-321,0,0,0,0,0,0,0,0,0,-1,1623,1345,0,0
406,-321,0,0,0,0,0,0,0,0,0,-1,1630,1345,0,0
413,-321,0,0,0,0,0,0,0,0,0,-1,1637,1345,0,0
420,-321,0,0,0,0,0,0,0,0,0,-1,1644,1345,0,0
427,-321,0,0,0,0,0,0,0,0,0,-1,1651,1345,0,0
434,-321,0,0,0,0,0,0,0,0,0,-1,1658,1345,0,0
441,-321,0,0,0,0,0,0,0,0,0,-1,1665,1345,0,0
448,-321,0,0,0,0,0,0,0,0,0,-1,1672,1345,0,0
455,-321,0,0,0,0,0,0,0,0,0,-1,1679,1345,0,0
462,-321,0,0,0,0,0,0,0,0,0,-1,1686,1345,0,0
469,-321,0,0,0,0,0,0,0,0,0,-1,1693,1345,0,0
476,-321,0,0,0,0,0,0,0,0,0,-1,1700,1345,0,0
483,-321,0,0,0,0,0,0,0,0,0,-1,1707,1345,0,0
490,-321,0,0,0,0,0,0,0,0,0,-1,1714,1345,0,0
497,-321,0,0,0,0,0,0,0,0,0,-1,1721,1345,0,0
504,-321,0,0,0,0,0,0,0,0,0,-1,1728,1345,0,0
511,-321,0,0,0,0,0,0,0,0,0,-1,1735,1345,0,0
518,-321,0,0,0,0,0,0,0,0,0,-1,1742,1345,0,0
525,-321,0,0,0,0,0,0,0,0,0,-1,1749,1345,0,0
532,-321,0,0,0,0,0,0,0,0,0,-1,1756,1345,0,0
539,-321,0,0,0,0,0,0,0,0,0,-1,1763,1345,0,0
546,-321,0,0,0,0,0,0,0,0,0,-1,1770,1345,0,0
553,-321,0,0,0,0,0,0,0,0,0,-1,1777,1345,0,0
560,-321,0,0,0,0,0,0,0,0,0,-1,1784,1345,0,0
567,-321,0,0,0,0,0,0,0,0,0,-1,1791,1345,0,0
574,-321,0,0,0,0,0,0,0,0,0,-1,1798,1345,0,0
581,-321,15.4877,0.509277,0,0,0,0,0,0,0,-1,1805,1345,15.4876,-0.509326
588,-321,15.6481,0.629761,0,0,0,0,0,0,0,-1,1812,1345,15.6481,-0.629759
595,-321,15.8021,0.510376,0,0,0,0,0,0,0,-1,1819,1345,15.8021,-0.510354
602,-321,15.9946,0.384155,0,0,0,0,0,0,0,-1,1826,1345,15.9947,-0.38416
609,-321,15.9352,0.211182,0,0,0,0,0,0,0,-1,1833,1345,15.9352,-0.211133
616,-321,16.049,0.140381,0,0,0,0,0,0,0,-1,1840,1345,16.0489,-0.140423
623,-321,15.6814,1.38574,0,0,0,0,0,0,0,-1,1847,1345,15.6814,-1.38577
630,-321,13.7827,5.86108,0,0,0,0,0,0,0,-1,1854,1345,13.7827,-5.86103
637,-321,13.8687,5.43677,-0.0201241,0.0129479,0.00527376,0.0137685,-0.0209448,1.41643,0.0201839,0.0488573,1861,1345,13.8686,-5.43671
644,-321,13.7931,5.23523,-0.019457,0.00908159,0.00557491,0.010132,-0.0205074,1.38457,0.0180246,0.0482165,1868,1345,13.793,-5.23525
651,-321,13.6144,5.2356,0,0,0,0,0,0,0,-1,1875,1345,13.6144,-5.2356
658,-321,13.3046,5.32483,-0.015306,0.00312684,0.00509517,0.00444148,-0.0166206,1.31829,0.01282,0.0283308,1882,1345,13.3045,-5.32487
665,-321,13.1956,5.22913,-0.0126156,0.00146111,0.0043649,0.00270471,-0.0138592,1.29324,0.0102606,0.0157408,1889,1345,13.1956,-5.22914
672,-321,13.2222,5.05566,-0.00982192,0.000587939,0.00376306,0.00180577,-0.0110398,1.2578,0.00802973,0.0126913,1896,1345,13.2221,-5.0557
679,-321,13.2103,4.9021,-0.00634708,0.000274526,0.00276124,0.00127485,-0.00734741,1.22323,0.00537387,0.0111637,1903,1345,13.2104,-4.90216
686,-321,13.1993,4.73267,-0.0022649,-0.000194687,0.00165017,0.000718156,-0.00317774,1.06551,0.00239406,0.0115474,1910,1345,13.1994,-4.73264
693,-321,13.2216,4.56287,0.00140938,-0.000480373,0.000493921,0.00153069,-0.000601681,0.240835,0.00126947,0.012009,1917,1345,13.2216,-4.56287
700,-321,13.2343,4.39063,0.00540656,-0.000451572,-0.000818836,0.00551886,-0.000563874,-0.136298,0.00388088,0.0110118,1924,1345,13.2342,-4.39058
707,-321,13.2313,4.22839,0.0104384,-0.00118627,-0.00200227,0.0107736,-0.00152148,-0.165878,0.00773957,0.0121543,1931,1345,13.2313,-4.22838
714,-321,13.2249,4.06128,0.0168832,-3.75555e-05,-0.00342993,0.0175521,-0.000706384,-0.192581,0.0119438,0.0125556,1938,1345,13.2249,-4.06132
721,-321,13.2208,3.89136,0.0236094,0.000313218,-0.00447214,0.0244384,-0.000515791,-0.183291,0.0164669,0.0179173,1945,1345,13.2208,-3.89133
728,-321,13.1816,3.77124,0.0314625,0.00122439,-0.00531521,0.0323696,0.000317296,-0.169031,0.0214747,0.0277801,1952,1345,13.1816,-3.7712
735,-321,13.3098,3.60034,0.0414043,0.0028277,-0.00642233,0.0424454,0.00178659,-0.16071,0.0277206,0.0434978,1959,1345,13.3098,-3.60031
742,-321,13.4412,3.54858,0.0529947,0.00603128,-0.00740719,0.0541353,0.0048907,-0.152783,0.0345754,0.0474793,1966,1345,13.4412,-3.54863
749,-321,13.5399,3.53271,0.065849,0.0118323,-0.00805958,0.0670259,0.0106554,-0.144999,0.0415896,0.0453268,1973,1345,13.5399,-3.53276
756,-321,13.4036,3.39001,0.0793647,0.0215719,-0.00801462,0.0804556,0.020481,-0.135278,0.0482805,0.0457455,1980,1345,13.4036,-3.39003
763,-321,13.3827,3.17578,0,0,0,0,0,0,0,-1,1987,1345,13.3827,-3.17578
770,-321,0,0,0,0,0,0,0,0,0,-1,1994,1345,0,0
777,-321,0,0,0,0,0,0,0,0,0,-1,2001,1345,0,0
784,-321,0,0,0,0,0,0,0,0,0,-1,2008,1345,0,0
791,-321,0,0,0,0,0,0,0,0,0,-1,2015,1345,0,0
798,-321,0,0,0,0,0,0,0,0,0,-1,2022,1345,0,0
805,-321,0,0,0,0,0,0,0,0,0,-1,2029,1345,0,0
812,-321,0,0,0,0,0,0,0,0,0,-1,2036,1345,0,0
-700,-328,0,0,0,0,0,0,0,0,0,-1,524,1352,0,0
-693,-328,0,0,0,0,0,0,0,0,0,-1,531,1352,0,0
-686,-328,0,0,0,0,0,0,0,0,0,-1,538,1352,0,0
-679,-328,0,0,0,0,0,0,0,0,0,-1,545,1352,0,0
-672,-328,0,0,0,0,0,0,0,0,0,-1,552,1352,0,0
-665,-328,0,0,0,0,0,0,0,0,0,-1,559,1352,0,0
-658,-328,0,0,0,0,0,0,0,0,0,-1,566,1352,0,0
-651,-328,0,0,0,0,0,0,0,0,0,-1,573,1352,0,0
-644,-328,0,0,0,0,0,0,0,0,0,-1,580,1352,0,0
-637,-328,-3.84192,-3.04431,-0.0420872,0.0962581,-0.0323402,0.103445,-0.0492739,-1.35213,0.0900021,0.0478317,587,1352,-3.8419,3.04434
-630,-328,-4.28308,-3.75867,-0.0376594,0.0815635,-0.0202875,0.0849211,-0.041017,-1.40678,0.0741686,0.0482487,594,1352,-4.2831,3.75865
-623,-328,-5.43335,-4.21118,-0.0316504,0.0675417,-0.0121914,0.0690182,-0.0331268,-1.45028,0.0601747,0.0491062,601,1352,-5.43335,4.21119
-616,-328,-6.49121,-4.58557,0,0,0,0,0,0,0,-1,608,1352,-6.49121,4.58558
-609,-328,-9.06738,-3.38647,0,0,0,0,0,0,0,-1,615,1352,-9.06736,3.38644
-602,-328,-6.19409,1.09045,0,0,0,0,0,0,0,-1,622,1352,-6.19407,-1.09045
-595,-328,-5.96289,1.14941,0,0,0,0,0,0,0,-1,629,1352,-5.9629,-1.14942
-588,-328,-5.88666,1.68555,-0.00737311,0.0153708,0.00471258,0.0163086,-0.0083109,1.37437,0.0144619,0.0330791,636,1352,-5.88668,-1.68558
-581,-328,-5.92755,1.99231,-0.0026842,0.00797233,0.00501296,0.00995981,-0.00467169,1.19334,0.00862945,0.0138952,643,1352,-5.92753,-1.99231
-574,-328,-5.92682,2.17896,0.000641298,0.00273983,0.00480412,0.00660793,-0.0032268,0.892915,0.00578886,0.0141716,650,1352,-5.92679,-2.17899
-567,-328,-5.95721,2.36951,0.0024699,-0.00083962,0.00386838,0.00502258,-0.0033923,0.583293,0.00488863,0.0189559,657,1352,-5.95721,-2.36951
-560,-328,-5.93787,2.55884,0.00112656,-0.00151375,0.00206266,0.00225536,-0.00264254,0.500732,0.00283075,0.0275846,664,1352,-5.93786,-2.55885
-553,-328,-5.93262,2.69519,-0.000511761,-0.00134392,0.000120084,-0.000494779,-0.0013609,0.140486,0.000795408,0.029942,671,1352,-5.93265,-2.6952
-546,-328,-5.97595,2.90881,-0.00170991,-0.00173526,-0.00143307,-0.00028946,-0.00315572,-0.780976,0.00201427,0.0279758,678,1352,-5.97593,-2.90885
-539,-328,-5.987,3.15588,-0.00237144,-0.00314328,-0.00251435,-0.000213565,-0.00530116,-0.709248,0.00346511,0.0235893,685,1352,-5.98697,-3.15587
-532,-328,-5.92657,3.36096,-0.00268307,-0.00552919,-0.00330805,-0.00050498,-0.00770728,-0.582273,0.0049784,0.01577,692,1352,-5.92657,-3.36091
-525,-328,-5.90002,3.5625,-0.00302572,-0.00845491,-0.00379027,-0.00107822,-0.0104024,-0.47464,0.00660494,0.0113479,699,1352,-5.9,-3.56255
-518,-328,-5.87878,3.74158,-0.00321205,-0.0118754,-0.0041059,-0.00157531,-0.0135121,-0.379324,0.00853157,0.0295566,706,1352,-5.87875,-3.74158
-511,-328,-6.22321,3.64136,-0.00289536,-0.0162277,-0.00397814,-0.00179858,-0.0173245,-0.269018,0.0109993,0.0400747,713,1352,-6.2232,-3.64138
-504,-328,-6.67853,3.64294,-0.00176635,-0.0215711,-0.00326049,-0.00124338,-0.022094,-0.159042,0.0143329,0.0468598,720,1352,-6.6785,-3.64293
-497,-328,-7.06525,3.84131,0,0,0,0,0,0,0,-1,727,1352,-7.06526,-3.84131
-490,-328,-3.62909,-2.71887,0,0,0,0,0,0,0,-1,734,1352,-3.62906,2.71886
-483,-328,-7.4707,3.22949,0,0,0,0,0,0,0,-1,741,1352,-7.47067,-3.22951
-476,-328,-5.86536,-2.12378,0,0,0,0,0,0,0,-1,748,1352,-5.86536,2.12379
-469,-328,-6.61218,-1.19482,0,0,0,0,0,0,0,-1,755,1352,-6.61217,1.19483
-462,-328,-7.12329,-0.12439,0,0,0,0,0,0,0,-1,762,1352,-7.12331,0.124414
-455,-328,0,0,0,0,0,0,0,0,0,-1,769,1352,0,0
-448,-328,0,0,0,0,0,0,0,0,0,-1,776,1352,0,0
-441,-328,0,0,0,0,0,0,0,0,0,-1,783,1352,0,0
-434,-328,0,0,0,0,0,0,0,0,0,-1,790,1352,0,0
-427,-328,0,0,0,0,0,0,0,0,0,-1,797,1352,0,0
-420,-328,0,0,0,0,0,0,0,0,0,-1,804,1352,0,0
-413,-328,0,0,0,0,0,0,0,0,0,-1,811,1352,0,0
-406,-328,0,0,0,0,0,0,0,0,0,-1,818,1352,0,0
-399,-328,0,0,0,0,0,0,0,0,0,-1,825,1352,0,0
-392,-328,0,0,0,0,0,0,0,0,0,-1,832,1352,0,0
-385,-328,0,0,0,0,0,0,0,0,0,-1,839,1352,0,0
-378,-328,0,0,0,0,0,0,0,0,0,-1,846,1352,0,0
-371,-328,0,0,0,0,0,0,0,0,0,-1,853,1352,0,0
-364,-328,0,0,0,0,0,0,0,0,0,-1,860,1352,0,0
-357,-328,0,0,0,0,0,0,0,0,0,-1,867,1352,0,0
-350,-328,0,0,0,0,0,0,0,0,0,-1,874,1352,0,0
-343,-328,0,0,0,0,0,0,0,0,0,-1,881,1352,0,0
-336,-328,0,0,0,0,0,0,0,0,0,-1,888,1352,0,0
-329,-328,0,0,0,0,0,0,0,0,0,-1,895,1352,0,0
-322,-328,0,0,0,0,0,0,0,0,0,-1,902,1352,0,0
-315,-328,0,0,0,0,0,0,0,0,0,-1,909,1352,0,0
-308,-328,0,0,0,0,0,0,0,0,0,-1,916,1352,0,0
-301,-328,0,0,0,0,0,0,0,0,0,-1,923,1352,0,0
-294,-328,0,0,0,0,0,0,0,0,0,-1,930,1352,0,0
-287,-328,0,0,0,0,0,0,0,0,0,-1,937,1352,0,0
-280,-328,0,0,0,0,0,0,0,0,0,-1,944,1352,0,0
-273,-328,0,0,0,0,0,0,0,0,0,-1,951,1352,0,0
-266,-328,0,0,0,0,0,0,0,0,0,-1,958,1352,0,0
-259,-328,0,0,0,0,0,0,0,0,0,-1,965,1352,0,0
-252,-328,0,0,0,0,0,0,0,0,0,-1,972,1352,0,0
-245,-328,0,0,0,0,0,0,0,0,0,-1,979,1352,0,0
-238,-328,0,0,0,0,0,0,0,0,0,-1,986,1352,0,0
-231,-328,0,0,0,0,0,0,0,0,0,-1,993,1352,0,0
-224,-328,0,0,0,0,0,0,0,0,0,-1,1000,1352,0,0
-217,-328,0,0,0,0,0,0,0,0,0,-1,1007,1352,0,0
-210,-328,0,0,0,0,0,0,0,0,0,-1,1014,1352,0,0
-203,-328,0,0,0,0,0,0,0,0,0,-1,1021,1352,0,0
-196,-328,0,0,0,0,0,0,0,0,0,-1,1028,1352,0,0
-189,-328,0,0,0,0,0,0,0,0,0,-1,1035,1352,0,0
-182,-328,0,0,0,0,0,0,0,0,0,-1,1042,1352,0,0
-175,-328,0,0,0,0,0,0,0,0,0,-1,1049,1352,0,0
-168,-328,0,0,0,0,0,0,0,0,0,-1,1056,1352,0,0
-161,-328,0,0,0,0,0,0,0,0,0,-1,1063,1352,0,0
-154,-328,0,0,0,0,0,0,0,0,0,-1,1070,1352,0,0
-147,-328,0,0,0,0,0,0,0,0,0,-1,1077,1352,0,0
-140,-328,0,0,0,0,0,0,0,0,0,-1,1084,1352,0,0
-133,-328,0,0,0,0,0,0,0,0,0,-1,1091,1352,0,0
-126,-328,0,0,0,0,0,0,0,0,0,-1,1098,1352,0,0
-119,-328,0,0,0,0,0,0,0,0,0,-1,1105,1352,0,0
-112,-328,0,0,0,0,0,0,0,0,0,-1,1112,1352,0,0
-105,-328,0,0,0,0,0,0,0,0,0,-1,1119,1352,0,0
-98,-328,0,0,0,0,0,0,0,0,0,-1,1126,1352,0,0
-91,-328,0,0,0,0,0,0,0,0,0,-1,1133,1352,0,0
-84,-328,0,0,0,0,0,0,0,0,0,-1,1140,1352,0,0
-77,-328,0,0,0,0,0,0,0,0,0,-1,1147,1352,0,0
-70,-328,0,0,0,0,0,0,0,0,0,-1,1154,1352,0,0
-63,-328,0,0,0,0,0,0,0,0,0,-1,1161,1352,0,0
-56,-328,0,0,0,0,0,0,0,0,0,-1,1168,1352,0,0
-49,-328,0,0,0,0,0,0,0,0,0,-1,1175,1352,0,0
-42,-328,0,0,0,0,0,0,0,0,0,-1,1182,1352,0,0
-35,-328,0,0,0,0,0,0,0,0,0,-1,1189,1352,0,0
-28,-328,0,0,0,0,0,0,0,0,0,-1,1196,1352,0,0
-21,-328,0,0,0,0,0,0,0,0,0,-1,1203,1352,0,0
-14,-328,0,0,0,0,0,0,0,0,0,-1,1210,1352,0,0
-7,-328,0,0,0,0,0,0,0,0,0,-1,1217,1352,0,0
0,-328,0,0,0,0,0,0,0,0,0,-1,1224,1352,0,0
7,-328,0,0,0,0,0,0,0,0,0,-1,1231,1352,0,0
14,-328,0,0,0,0,0,0,0,0,0,-1,1238,1352,0,0
21,-328,0,0,0,0,0,0,0,0,0,-1,1245,1352,0,0
28,-328,0,0,0,0,0,0,0,0,0,-1,1252,1352,0,0
35,-328,0,0,0,0,0,0,0,0,0,-1,1259,1352,0,0
42,-328,0,0,0,0,0,0,0,0,0,-1,1266,1352,0,0
49,-328,0,0,0,0,0,0,0,0,0,-1,1273,1352,0,0
56,-328,0,0,0,0,0,0,0,0,0,-1,1280,1352,0,0
63,-328,0,0,0,0,0,0,0,0,0,-1,1287,1352,0,0
70,-328,0,0,0,0,0,0,0,0,0,-1,1294,1352,0,0
77,-328,0,0,0,0,0,0,0,0,0,-1,1301,1352,0,0
84,-328,0,0,0,0,0,0,0,0,0,-1,1308,1352,0,0
91,-328,0,0,0,0,0,0,0,0,0,-1,1315,1352,0,0
98,-328,0,0,0,0,0,0,0,0,0,-1,1322,1352,0,0
105,-328,0,0,0,0,0,0,0,0,0,-1,1329,1352,0,0
112,-328,0,0,0,0,0,0,0,0,0,-1,1336,1352,0,0
119,-328,0,0,0,0,0,0,0,0,0,-1,1343,1352,0,0
126,-328,0,0,0,0,0,0,0,0,0,-1,1350,1352,0,0
133,-328,0,0,0,0,0,0,0,0,0,-1,1357,1352,0,0
140,-328,0,0,0,0,0,0,0,0,0,-1,1364,1352,0,0
147,-328,0,0,0,0,0,0,0,0,0,-1,1371,1352,0,0
154,-328,0,0,0,0,0,0,0,0,0,-1,1378,1352,0,0
161,-328,0,0,0,0,0,0,0,0,0,-1,1385,1352,0,0
168,-328,0,0,0,0,0,0,0,0,0,-1,1392,1352,0,0
175,-328,0,0,0,0,0,0,0,0,0,-1,1399,1352,0,0
182,-328,0,0,0,0,0,0,0,0,0,-1,1406,1352,0,0
189,-328,0,0,0,0,0,0,0,0,0,-1,1413,1352,0,0
196,-328,0,0,0,0,0,0,0,0,0,-1,1420,1352,0,0
203,-328,0,0,0,0,0,0,0,0,0,-1,1427,1352,0,0
210,-328,0,0,0,0,0,0,0,0,0,-1,1434,1352,0,0
217,-328,0,0,0,0,0,0,0,0,0,-1,1441,1352,0,0
224,-328,0,0,0,0,0,0,0,0,0,-1,1448,1352,0,0
231,-328,0,0,0,0,0,0,0,0,0,-1,1455,1352,0,0
238,-328,0,0,0,0,0,0,0,0,0,-1,1462,1352,0,0
245,-328,0,0,0,0,0,0,0,0,0,-1,1469,1352,0,0
252,-328,0,0,0,0,0,0,0,0,0,-1,1476,1352,0,0
259,-328,0,0,0,0,0,0,0,0,0,-1,1483,1352,0,0
266,-328,0,0,0,0,0,0,0,0,0,-1,1490,1352,0,0
273,-328,0,0,0,0,0,0,0,0,0,-1,1497,1352,0,0
280,-328,0,0,0,0,0,0,0,0,0,-1,1504,1352,0,0
287,-328,0,0,0,0,0,0,0,0,0,-1,1511,1352,0,0
294,-328,0,0,0,0,0,0,0,0,0,-1,1518,1352,0,0
301,-328,0,0,0,0,0,0,0,0,0,-1,1525,1352,0,0
308,-328,0,0,0,0,0,0,0,0,0,-1,1532,1352,0,0
315,-328,0,0,0,0,0,0,0,0,0,-1,1539,1352,0,0
322,-328,0,0,0,0,0,0,0,0,0,-1,1546,1352,0,0
329,-328,0,0,0,0,0,0,0,0,0,-1,1553,1352,0,0
336,-328,0,0,0,0,0,0,0,0,0,-1,1560,1352,0,0
343,-328,0,0,0,0,0,0,0,0,0,-1,1567,1352,0,0
350,-328,0,0,0,0,0,0,0,0,0,-1,1574,1352,0,0
357,-328,0,0,0,0,0,0,0,0,0,-1,1581,1352,0,0
364,-328,0,0,0,0,0,0,0,0,0,-1,1588,1352,0,0
371,-328,0,0,0,0,0,0,0,0,0,-1,1595,1352,0,0
378,-328,0,0,0,0,0,0,0,0,0,-1,1602,1352,0,0
385,-328,0,0,0,0,0,0,0,0,0,-1,1609,1352,0,0
392,-328,0,0,0,0,0,0,0,0,0,-1,1616,1352,0,0
399,-328,0,0,0,0,0,0,0,0,0,-1,1623,1352,0,0
406,-328,0,0,0,0,0,0,0,0,0,-1,1630,1352,0,0
413,-328,0,0,0,0,0,0,0,0,0,-1,1637,1352,0,0
420,-328,0,0,0,0,0,0,0,0,0,-1,1644,1352,0,0
427,-328,0,0,0,0,0,0,0,0,0,-1,1651,1352,0,0
434,-328,0,0,0,0,0,0,0,0,0,-1,1658,1352,0,0
441,-328,0,0,0,0,0,0,0,0,0,-1,1665,1352,0,0
448,-328,0,0,0,0,0,0,0,0,0,-1,1672,1352,0,0
455,-328,0,0,0,0,0,0,0,0,0,-1,1679,1352,0,0
462,-328,0,0,0,0,0,0,0,0,0,-1,1686,1352,0,0
469,-328,0,0,0,0,0,0,0,0,0,-1,1693,1352,0,0
476,-328,0,0,0,0,0,0,0,0,0,-1,1700,1352,0,0
483,-328,0,0,0,0,0,0,0,0,0,-1,1707,1352,0,0
490,-328,0,0,0,0,0,0,0,0,0,-1,1714,1352,0,0
497,-328,0,0,0,0,0,0,0,0,0,-1,1721,1352,0,0
504,-328,0,0,0,0,0,0,0,0,0,-1,1728,1352,0,0
511,-328,0,0,0,0,0,0,0,0,0,-1,1735,1352,0,0
518,-328,0,0,0,0,0,0,0,0,0,-1,1742,1352,0,0
525,-328,0,0,0,0,0,0,0,0,0,-1,1749,1352,0,0
532,-328,0,0,0,0,0,0,0,0,0,-1,1756,1352,0,0
539,-328,0,0,0,0,0,0,0,0,0,-1,1763,1352,0,0
546,-328,0,0,0,0,0,0,0,0,0,-1,1770,1352,0,0
553,-328,0,0,0,0,0,0,0,0,0,-1,1777,1352,0,0
560,-328,0,0,0,0,0,0,0,0,0,-1,1784,1352,0,0
567,-328,0,0,0,0,0,0,0,0,0,-1,1791,1352,0,0
574,-328,15.3956,0.346924,0,0,0,0,0,0,0,-1,1798,1352,15.3957,-0.346929
581,-328,15.5134,0.275024,0,0,0,0,0,0,0,-1,1805,1352,15.5134,-0.275009
588,-328,15.6302,0.239624,0,0,0,0,0,0,0,-1,1812,1352,15.6302,-0.239665
595,-328,15.6362,0.368896,0,0,0,0,0,0,0,-1,1819,1352,15.6363,-0.368868
602,-328,15.8066,0.152954,0,0,0,0,0,0,0,-1,1826,1352,15.8067,-0.152975
609,-328,15.6058,-0.0849609,0,0,0,0,0,0,0,-1,1833,1352,15.6058,0.0849358
616,-328,14.6827,2.80383,0,0,0,0,0,0,0,-1,1840,1352,14.6827,-2.80384
623,-328,14.3342,6.05701,0,0,0,0,0,0,0,-1,1847,1352,14.3343,-6.05698
630,-328,14.1965,5.70422,0,0,0,0,0,0,0,-1,1854,1352,14.1965,-5.70419
637,-328,13.891,5.41724,-0.0200877,0.0105796,0.00618529,0.0117801,-0.0212882,1.37909,0.0193533,0.0476798,1861,1352,13.8909,-5.41725
644,-328,13.531,5.33057,-0.0184702,0.00646025,0.00611057,0.00787742,-0.0198874,1.3429,0.0165223,0.0453266,1868,1352,13.5311,-5.33057
651,-328,13.2483,5.33862,-0.0159704,0.00356085,0.00571504,0.00511023,-0.0175197,1.30606,0.0137046,0.0422233,1875,1352,13.2483,-5.33858
658,-328,13.0657,5.38525,-0.0133759,0.00105329,0.00497303,0.0026012,-0.0149238,1.26904,0.01092,0.0195312,1882,1352,13.0656,-5.38522
665,-328,13.0314,5.22363,-0.0106295,-7.25608e-05,0.00406455,0.00131101,-0.0120131,1.2427,0.0084796,0.0128193,1889,1352,13.0313,-5.22368
672,-328,13.0409,5.05261,-0.0079677,-0.000501527,0.00334845,0.000780172,-0.00924939,1.20523,0.00644209,0.0117745,1896,1352,13.0409,-5.05267
679,-328,13.0454,4.90039,-0.00455715,-0.00059251,0.00228036,0.000446697,-0.00559636,1.1432,0.00388837,0.0137825,1903,1352,13.0454,-4.9004
686,-328,13.0432,4.7428,-0.000305091,-0.000936966,0.00113974,0.000561692,-0.00180375,0.650192,0.00142707,0.0124469,1910,1352,13.0432,-4.74275
693,-328,13.0686,4.57385,0.00356845,-0.00133607,-3.02256e-05,0.00356863,-0.00133625,-0.0061625,0.00292797,0.00872733,1917,1352,13.0686,-4.57381
700,-328,13.0706,4.40271,0.00792395,-0.00171667,-0.00128739,0.00809291,-0.00188563,-0.130492,0.0061214,0.0124397,1924,1352,13.0706,-4.40267
707,-328,13.0834,4.23193,0.0136118,-0.00293691,-0.00244406,0.0139652,-0.00329032,-0.143606,0.0105789,0.0142264,1931,1352,13.0833,-4.23199
714,-328,13.0961,4.07849,0.020987,-0.00235854,-0.00386466,0.0216102,-0.00298167,-0.159862,0.0154966,0.0123669,1938,1352,13.0961,-4.07847
721,-328,13.032,3.91113,0.0293207,-0.00279538,-0.00510289,0.030112,-0.00358667,-0.153843,0.0213708,0.0234908,1945,1352,13.032,-3.9111
728,-328,13.0796,3.48206,0.0395378,-0.0028683,-0.00640137,0.0404831,-0.00381354,-0.146603,0.0283455,0.0369419,1952,1352,13.0796,-3.48204
735,-328,13.2711,3.52344,0.0522955,-0.00227888,-0.00805552,0.0534597,-0.00344309,-0.143529,0.0368412,0.0481406,1959,1352,13.2711,-3.52339
742,-328,13.4447,3.51196,0,0,0,0,0,0,0,-1,1966,1352,13.4447,-3.512
749,-328,13.6293,3.96118,0,0,0,0,0,0,0,-1,1973,1352,13.6293,-3.96114
756,-328,13.355,3.6416,0,0,0,0,0,0,0,-1,1980,1352,13.355,-3.64159
763,-328,0,0,0,0,0,0,0,0,0,-1,1987,1352,0,0
770,-328,0,0,0,0,0,0,0,0,0,-1,1994,1352,0,0
777,-328,0,0,0,0,0,0,0,0,0,-1,2001,1352,0,0
784,-328,0,0,0,0,0,0,0,0,0,-1,2008,1352,0,0
791,-328,0,0,0,0,0,0,0,0,0,-1,2015,1352,0,0
798,-328,0,0,0,0,0,0,0,0,0,-1,2022,1352,0,0
805,-328,0,0,0,0,0,0,0,0,0,-1,2029,1352,0,0
812,-328,0,0,0,0,0,0,0,0,0,-1,2036,1352,0,0
-700,-335,0,0,0,0,0,0,0,0,0,-1,524,1359,0,0
-693,-335,0,0,0,0,0,0,0,0,0,-1,531,1359,0,0
-686,-335,0,0,0,0,0,0,0,0,0,-1,538,1359,0,0
-679,-335,0,0,0,0,0,0,0,0,0,-1,545,1359,0,0
-672,-335,0,0,0,0,0,0,0,0,0,-1,552,1359,0,0
-665,-335,0,0,0,0,0,0,0,0,0,-1,559,1359,0,0
-658,-335,0,0,0,0,0,0,0,0,0,-1,566,1359,0,0
-651,-335,0,0,0,0,0,0,0,0,0,-1,573,1359,0,0
-644,-335,0,0,0,0,0,0,0,0,0,-1,580,1359,0,0
-637,-335,-3.6452,-4.25488,-0.031792,0.0896277,-0.0256095,0.0948081,-0.0369724,-1.3712,0.078488,0.0494577,587,1359,-3.64518,4.25493
-630,-335,-4.54993,-4.88123,-0.0275168,0.0747246,-0.0140345,0.0766161,-0.0294083,-1.43683,0.0632035,0.0498084,594,1359,-4.54994,4.88121
-623,-335,-5.45575,-5.1991,-0.0223548,0.0610592,-0.00640737,0.0615485,-0.0228441,-1.49458,0.0504032,0.0483203,601,1359,-5.45577,5.19913
-616,-335,-6.35291,-5.60156,0,0,0,0,0,0,0,-1,608,1359,-6.35292,5.60156
-609,-335,-7.664,-2.79272,0,0,0,0,0,0,0,-1,615,1359,-7.66403,2.79271
-602,-335,-5.76904,1.04028,0,0,0,0,0,0,0,-1,622,1359,-5.76902,-1.04023
-595,-335,-5.6778,1.40637,0,0,0,0,0,0,0,-1,629,1359,-5.67781,-1.40634
-588,-335,-5.6142,1.79309,-0.00328848,0.0123061,0.00741779,0.0152708,-0.00625322,1.19057,0.0127853,0.0353658,636,1359,-5.61419,-1.79304
-581,-335,-5.73334,2.0116,0.000349026,0.00584255,0.00735403,0.010946,-0.00475446,0.964128,0.00929667,0.018078,643,1359,-5.73337,-2.01154
-574,-335,-5.74036,2.17456,0.00267428,0.00130533,0.00668813,0.00871287,-0.00473326,0.734405,0.00787565,0.0115674,650,1359,-5.74035,-2.17454
-567,-335,-5.75775,2.38147,0.0036895,-0.00154511,0.00533904,0.00701826,-0.00487387,0.557501,0.00690303,0.0157601,657,1359,-5.75774,-2.38148
-560,-335,-5.75293,2.54626,0.00185288,-0.0016379,0.00314163,0.0037014,-0.00348643,0.531844,0.00415051,0.0239887,664,1359,-5.75296,-2.54626
-553,-335,-5.79327,2.74121,-6.39334e-05,-0.00112796,0.000751292,0.000324638,-0.00151654,0.477316,0.00113482,0.0274159,671,1359,-5.79327,-2.74126
-546,-335,-5.79181,2.974,-0.00124209,-0.00129395,-0.00117272,-9.5021e-05,-0.00244102,-0.774345,0.00159662,0.0255844,678,1359,-5.7918,-2.97394
-539,-335,-5.74341,3.16846,-0.00180717,-0.00239313,-0.00277961,0.000694863,-0.00489516,-0.732891,0.00351801,0.0205913,685,1359,-5.74343,-3.16842
-532,-335,-5.74042,3.34924,-0.0018906,-0.00452072,-0.00415835,0.00115568,-0.007567,-0.632252,0.00547074,0.0151368,692,1359,-5.74041,-3.34921
-525,-335,-5.70477,3.54895,-0.00206377,-0.00723613,-0.00533394,0.00127789,-0.0105778,-0.559669,0.00751413,0.00968559,699,1359,-5.7048,-3.54897
-518,-335,-5.69891,3.72656,-0.00219805,-0.0103568,-0.00640262,0.00131433,-0.0138692,-0.501756,0.00971393,0.0153936,706,1359,-5.69889,-3.72658
-511,-335,-5.82971,3.67908,-0.00208578,-0.0144509,-0.00716213,0.00119316,-0.0177299,-0.429335,0.012237,0.039045,713,1359,-5.82973,-3.67903
-504,-335,-5.74042,3.74365,-0.00140944,-0.0197298,-0.00739142,0.00120076,-0.02234,-0.339469,0.0153093,0.0491151,720,1359,-5.74045,-3.74363
-497,-335,-5.65479,3.5177,0,0,0,0,0,0,0,-1,727,1359,-5.65476,-3.51771
-490,-335,-3.41833,-3.1582,0,0,0,0,0,0,0,-1,734,1359,-3.41831,3.15825
-483,-335,-2.55273,-4.46985,0,0,0,0,0,0,0,-1,741,1359,-2.55275,4.46984
-476,-335,-6.43317,0.717896,0,0,0,0,0,0,0,-1,748,1359,-6.43315,-0.71789
-469,-335,-5.9762,-1.66064,0,0,0,0,0,0,0,-1,755,1359,-5.97619,1.66061
-462,-335,-6.66785,-0.89856,0,0,0,0,0,0,0,-1,762,1359,-6.66785,0.898603
-455,-335,-7.39606,-0.372192,0,0,0,0,0,0,0,-1,769,1359,-7.39606,0.372237
-448,-335,0,0,0,0,0,0,0,0,0,-1,776,1359,0,0
-441,-335,0,0,0,0,0,0,0,0,0,-1,783,1359,0,0
-434,-335,0,0,0,0,0,0,0,0,0,-1,790,1359,0,0
-427,-335,0,0,0,0,0,0,0,0,0,-1,797,1359,0,0
-420,-335,0,0,0,0,0,0,0,0,0,-1,804,1359,0,0
-413,-335,0,0,0,0,0,0,0,0,0,-1,811,1359,0,0
-406,-335,0,0,0,0,0,0,0,0,0,-1,818,1359,0,0
-399,-335,0,0,0,0,0,0,0,0,0,-1,825,1359,0,0
-392,-335,0,0,0,0,0,0,0,0,0,-1,832,1359,0,0
-385,-335,0,0,0,0,0,0,0,0,0,-1,839,1359,0,0
-378,-335,0,0,0,0,0,0,0,0,0,-1,846,1359,0,0
-371,-335,0,0,0,0,0,0,0,0,0,-1,853,1359,0,0
-364,-335,0,0,0,0,0,0,0,0,0,-1,860,1359,0,0
-357,-335,0,0,0,0,0,0,0,0,0,-1,867,1359,0,0
-350,-335,0,0,0,0,0,0,0,0,0,-1,874,1359,0,0
-343,-335,0,0,0,0,0,0,0,0,0,-1,881,1359,0,0
-336,-335,0,0,0,0,0,0,0,0,0,-1,888,1359,0,0
-329,-335,0,0,0,0,0,0,0,0,0,-1,895,1359,0,0
-322,-335,0,0,0,0,0,0,0,0,0,-1,902,1359,0,0
-315,-335,0,0,0,0,0,0,0,0,0,-1,909,1359,0,0
-308,-335,0,0,0,0,0,0,0,0,0,-1,916,1359,0,0
-301,-335,0,0,0,0,0,0,0,0,0,-1,923,1359,0,0
-294,-335,0,0,0,0,0,0,0,0,0,-1,930,1359,0,0
-287,-335,0,0,0,0,0,0,0,0,0,-1,937,1359,0,0
-280,-335,0,0,0,0,0,0,0,0,0,-1,944,1359,0,0
-273,-335,0,0,0,0,0,0,0,0,0,-1,951,1359,0,0
-266,-335,0,0,0,0,0,0,0,0,0,-1,958,1359,0,0
-259,-335,0,0,0,0,0,0,0,0,0,-1,965,1359,0,0
-252,-335,0,0,0,0,0,0,0,0,0,-1,972,1359,0,0
-245,-335,0,0,0,0,0,0,0,0,0,-1,979,1359,0,0
-238,-335,0,0,0,0,0,0,0,0,0,-1,986,1359,0,0
-231,-335,0,0,0,0,0,0,0,0,0,-1,993,1359,0,0
-224,-335,0,0,0,0,0,0,0,0,0,-1,1000,1359,0,0
-217,-335,0,0,0,0,0,0,0,0,0,-1,1007,1359,0,0
-210,-335,0,0,0,0,0,0,0,0,0,-1,1014,1359,0,0
-203,-335,0,0,0,0,0,0,0,0,0,-1,1021,1359,0,0
-196,-335,0,0,0,0,0,0,0,0,0,-1,1028,1359,0,0
-189,-335,0,0,0,0,0,0,0,0,0,-1,1035,1359,0,0
-182,-335,0,0,0,0,0,0,0,0,0,-1,1042,1359,0,0
-175,-335,0,0,0,0,0,0,0,0,0,-1,1049,1359,0,0
-168,-335,0,0,0,0,0,0,0,0,0,-1,1056,1359,0,0
-161,-335,0,0,0,0,0,0,0,0,0,-1,1063,1359,0,0
-154,-335,0,0,0,0,0,0,0,0,0,-1,1070,1359,0,0
-147,-335,0,0,0,0,0,0,0,0,0,-1,1077,1359,0,0
-140,-335,0,0,0,0,0,0,0,0,0,-1,1084,1359,0,0
-133,-335,0,0,0,0,0,0,0,0,0,-1,1091,1359,0,0
-126,-335,0,0,0,0,0,0,0,0,0,-1,1098,1359,0,0
-119,-335,0,0,0,0,0,0,0,0,0,-1,1105,1359,0,0
-112,-335,0,0,0,0,0,0,0,0,0,-1,1112,1359,0,0
-105,-335,0,0,0,0,0,0,0,0,0,-1,1119,1359,0,0
-98,-335,0,0,0,0,0,0,0,0,0,-1,1126,1359,0,0
-91,-335,0,0,0,0,0,0,0,0,0,-1,1133,1359,0,0
-84,-335,0,0,0,0,0,0,0,0,0,-1,1140,1359,0,0
-77,-335,0,0,0,0,0,0,0,0,0,-1,1147,1359,0,0
-70,-335,0,0,0,0,0,0,0,0,0,-1,1154,1359,0,0
-63,-335,0,0,0,0,0,0,0,0,0,-1,1161,1359,0,0
-56,-335,0,0,0,0,0,0,0,0,0,-1,1168,1359,0,0
-49,-335,0,0,0,0,0,0,0,0,0,-1,1175,1359,0,0
-42,-335,0,0,0,0,0,0,0,0,0,-1,1182,1359,0,0
-35,-335,0,0,0,0,0,0,0,0,0,-1,1189,1359,0,0
-28,-335,0,0,0,0,0,0,0,0,0,-1,1196,1359,0,0
-21,-335,0,0,0,0,0,0,0,0,0,-1,1203,1359,0,0
-14,-335,0,0,0,0,0,0,0,0,0,-1,1210,1359,0,0
-7,-335,0,0,0,0,0,0,0,0,0,-1,1217,1359,0,0
0,-335,0,0,0,0,0,0,0,0,0,-1,1224,1359,0,0
7,-335,0,0,0,0,0,0,0,0,0,-1,1231,1359,0,0
14,-335,0,0,0,0,0,0,0,0,0,-1,1238,1359,0,0
21,-335,0,0,0,0,0,0,0,0,0,-1,1245,1359,0,0
28,-335,0,0,0,0,0,0,0,0,0,-1,1252,1359,0,0
35,-335,0,0,0,0,0,0,0,0,0,-1,1259,1359,0,0
42,-335,0,0,0,0,0,0,0,0,0,-1,1266,1359,0,0
49,-335,0,0,0,0,0,0,0,0,0,-1,1273,1359,0,0
56,-335,0,0,0,0,0,0,0,0,0,-1,1280,1359,0,0
63,-335,0,0,0,0,0,0,0,0,0,-1,1287,1359,0,0
70,-335,0,0,0,0,0,0,0,0,0,-1,1294,1359,0,0
77,-335,0,0,0,0,0,0,0,0,0,-1,1301,1359,0,0
84,-335,0,0,0,0,0,0,0,0,0,-1,1308,1359,0,0
91,-335,0,0,0,0,0,0,0,0,0,-1,1315,1359,0,0
98,-335,0,0,0,0,0,0,0,0,0,-1,1322,1359,0,0
105,-335,0,0,0,0,0,0,0,0,0,-1,1329,1359,0,0
112,-335,0,0,0,0,0,0,0,0,0,-1,1336,1359,0,0
119,-335,0,0,0,0,0,0,0,0,0,-1,1343,1359,0,0
126,-335,0,0,0,0,0,0,0,0,0,-1,1350,1359,0,0
133,-335,0,0,0,0,0,0,0,0,0,-1,1357,1359,0,0
140,-335,0,0,0,0,0,0,0,0,0,-1,1364,1359,0,0
147,-335,0,0,0,0,0,0,0,0,0,-1,1371,1359,0,0
154,-335,0,0,0,0,0,0,0,0,0,-1,1378,1359,0,0
161,-335,0,0,0,0,0,0,0,0,0,-1,1385,1359,0,0
168,-335,0,0,0,0,0,0,0,0,0,-1,1392,1359,0,0
175,-335,0,0,0,0,0,0,0,0,0,-1,1399,1359,0,0
182,-335,0,0,0,0,0,0,0,0,0,-1,1406,1359,0,0
189,-335,0,0,0,0,0,0,0,0,0,-1,1413,1359,0,0
196,-335,0,0,0,0,0,0,0,0,0,-1,1420,1359,0,0
203,-335,0,0,0,0,0,0,0,0,0,-1,1427,1359,0,0
210,-335,0,0,0,0,0,0,0,0,0,-1,1434,1359,0,0
217,-335,0,0,0,0,0,0,0,0,0,-1,1441,1359,0,0
224,-335,0,0,0,0,0,0,0,0,0,-1,1448,1359,0,0
231,-335,0,0,0,0,0,0,0,0,0,-1,1455,1359,0,0
238,-335,0,0,0,0,0,0,0,0,0,-1,1462,1359,0,0
245,-335,0,0,0,0,0,0,0,0,0,-1,1469,1359,0,0
252,-335,0,0,0,0,0,0,0,0,0,-1,1476,1359,0,0
259,-335,0,0,0,0,0,0,0,0,0,-1,1483,1359,0,0
266,-335,0,0,0,0,0,0,0,0,0,-1,1490,1359,0,0
273,-335,0,0,0,0,0,0,0,0,0,-1,1497,1359,0,0
280,-335,0,0,0,0,0,0,0,0,0,-1,1504,1359,0,0
287,-335,0,0,0,0,0,0,0,0,0,-1,1511,1359,0,0
294,-335,0,0,0,0,0,0,0,0,0,-1,1518,1359,0,0
301,-335,0,0,0,0,0,0,0,0,0,-1,1525,1359,0,0
308,-335,0,0,0,0,0,0,0,0,0,-1,1532,1359,0,0
315,-335,0,0,0,0,0,0,0,0,0,-1,1539,1359,0,0
322,-335,0,0,0,0,0,0,0,0,0,-1,1546,1359,0,0
329,-335,0,0,0,0,0,0,0,0,0,-1,1553,1359,0,0
336,-335,0,0,0,0,0,0,0,0,0,-1,1560,1359,0,0
343,-335,0,0,0,0,0,0,0,0,0,-1,1567,1359,0,0
350,-335,0,0,0,0,0,0,0,0,0,-1,1574,1359,0,0
357,-335,0,0,0,0,0,0,0,0,0,-1,1581,1359,0,0
364,-335,0,0,0,0,0,0,0,0,0,-1,1588,1359,0,0
371,-335,0,0,0,0,0,0,0,0,0,-1,1595,1359,0,0
378,-335,0,0,0,0,0,0,0,0,0,-1,1602,1359,0,0
385,-335,0,0,0,0,0,0,0,0,0,-1,1609,1359,0,0
392,-335,0,0,0,0,0,0,0,0,0,-1,1616,1359,0,0
399,-335,0,0,0,0,0,0,0,0,0,-1,1623,1359,0,0
406,-335,0,0,0,0,0,0,0,0,0,-1,1630,1359,0,0
413,-335,0,0,0,0,0,0,0,0,0,-1,1637,1359,0,0
420,-335,0,0,0,0,0,0,0,0,0,-1,1644,1359,0,0
427,-335,0,0,0,0,0,0,0,0,0,-1,1651,1359,0,0
434,-335,0,0,0,0,0,0,0,0,0,-1,1658,1359,0,0
441,-335,0,0,0,0,0,0,0,0,0,-1,1665,1359,0,0
448,-335,0,0,0,0,0,0,0,0,0,-1,1672,1359,0,0
455,-335,0,0,0,0,0,0,0,0,0,-1,1679,1359,0,0
462,-335,0,0,0,0,0,0,0,0,0,-1,1686,1359,0,0
469,-335,0,0,0,0,0,0,0,0,0,-1,1693,1359,0,0
476,-335,0,0,0,0,0,0,0,0,0,-1,1700,1359,0,0
483,-335,0,0,0,0,0,0,0,0,0,-1,1707,1359,0,0
490,-335,0,0,0,0,0,0,0,0,0,-1,1714,1359,0,0
497,-335,0,0,0,0,0,0,0,0,0,-1,1721,1359,0,0
504,-335,0,0,0,0,0,0,0,0,0,-1,1728,1359,0,0
511,-335,0,0,0,0,0,0,0,0,0,-1,1735,1359,0,0
518,-335,0,0,0,0,0,0,0,0,0,-1,1742,1359,0,0
525,-335,0,0,0,0,0,0,0,0,0,-1,1749,1359,0,0
532,-335,0,0,0,0,0,0,0,0,0,-1,1756,1359,0,0
539,-335,0,0,0,0,0,0,0,0,0,-1,1763,1359,0,0
546,-335,0,0,0,0,0,0,0,0,0,-1,1770,1359,0,0
553,-335,0,0,0,0,0,0,0,0,0,-1,1777,1359,0,0
560,-335,0,0,0,0,0,0,0,0,0,-1,1784,1359,0,0
567,-335,0,0,0,0,0,0,0,0,0,-1,1791,1359,0,0
574,-335,20.4679,4.50537,0,0,0,0,0,0,0,-1,1798,1359,20.4679,-4.50536
581,-335,15.5392,0.0406494,0,0,0,0,0,0,0,-1,1805,1359,15.5391,-0.0406916
588,-335,15.6636,-0.0556641,0,0,0,0,0,0,0,-1,1812,1359,15.6635,0.0556676
595,-335,15.6337,0.186646,0,0,0,0,0,0,0,-1,1819,1359,15.6337,-0.186596
602,-335,14.6962,1.51538,0,0,0,0,0,0,0,-1,1826,1359,14.6962,-1.51536
609,-335,14.6042,1.93579,0,0,0,0,0,0,0,-1,1833,1359,14.6043,-1.93583
616,-335,14.5464,2.47803,0,0,0,0,0,0,0,-1,1840,1359,14.5464,-2.47806
623,-335,12.167,5.96423,0,0,0,0,0,0,0,-1,1847,1359,12.1669,-5.9642
630,-335,14.6104,5.54736,0,0,0,0,0,0,0,-1,1854,1359,14.6103,-5.54736
637,-335,13.5574,5.45215,0,0,0,0,0,0,0,-1,1861,1359,13.5574,-5.45218
644,-335,13.2252,5.50024,-0.0164852,0.00345038,0.00693354,0.0056247,-0.0186595,1.26691,0.0146783,0.0429931,1868,1359,13.2253,-5.5003
651,-335,12.9235,5.52869,-0.0136949,0.00129945,0.00599697,0.00340286,-0.0157983,1.23346,0.0118308,0.0193564,1875,1359,12.9235,-5.52869
658,-335,12.8752,5.41272,-0.0110947,-0.000613221,0.00490127,0.00132153,-0.0130295,1.19483,0.00915867,0.0128497,1882,1359,12.8753,-5.41268
665,-335,12.895,5.22388,-0.00848521,-0.00122333,0.00377722,0.000385108,-0.0100936,1.16823,0.00686107,0.013418,1889,1359,12.895,-5.22387
672,-335,12.9017,5.0343,-0.00598642,-0.00139309,0.00301632,0.000101397,-0.00748091,1.11078,0.00502141,0.0166527,1896,1359,12.9017,-5.0343
679,-335,12.8885,4.89502,-0.00256418,-0.00157921,0.00202645,1.37382e-05,-0.00415713,0.904602,0.00277601,0.014162,1903,1359,12.8886,-4.89508
686,-335,12.9027,4.73254,0.00196546,-0.00212308,0.000970295,0.00218404,-0.00234167,0.221578,0.00261345,0.0108668,1910,1359,12.9027,-4.73248
693,-335,12.9006,4.55957,0.00617283,-0.00293211,-0.000106025,0.00617407,-0.00293334,-0.0116427,0.00536798,0.0092323,1917,1359,12.9006,-4.5596
700,-335,12.8876,4.39832,0.0110723,-0.00395337,-0.00120974,0.0111691,-0.00405015,-0.0798261,0.00910163,0.0106112,1924,1359,12.8876,-4.39828
707,-335,12.8979,4.23096,0.0175734,-0.00587098,-0.00225373,0.0177881,-0.00608567,-0.0949719,0.0143249,0.0138811,1931,1359,12.898,-4.23099
714,-335,12.9202,4.03467,0.0260942,-0.00620516,-0.00360082,0.0264907,-0.00660172,-0.109689,0.0202235,0.0181121,1938,1359,12.9201,-4.03467
721,-335,12.8015,3.76819,0.03633,-0.00767841,-0.00497634,0.0368857,-0.0082341,-0.111206,0.0277455,0.0349471,1945,1359,12.8015,-3.76824
728,-335,12.9773,3.15576,0.0492627,-0.00898113,-0.00671453,0.0500267,-0.00974518,-0.113303,0.0370295,0.0457352,1952,1359,12.9773,-3.15571
735,-335,13.5742,3.35254,0.0652662,-0.00964266,-0.00893632,0.0663175,-0.010694,-0.117106,0.0481736,0.0483681,1959,1359,13.5742,-3.35259
742,-335,14.3119,3.77478,0,0,0,0,0,0,0,-1,1966,1359,14.3119,-3.77483
749,-335,13.9475,4.3147,0,0,0,0,0,0,0,-1,1973,1359,13.9476,-4.31469
756,-335,13.6227,3.69592,0,0,0,0,0,0,0,-1,1980,1359,13.6226,-3.69588
763,-335,0,0,0,0,0,0,0,0,0,-1,1987,1359,0,0
770,-335,0,0,0,0,0,0,0,0,0,-1,1994,1359,0,0
777,-335,0,0,0,0,0,0,0,0,0,-1,2001,1359,0,0
784,-335,0,0,0,0,0,0,0,0,0,-1,2008,1359,0,0
791,-335,0,0,0,0,0,0,0,0,0,-1,2015,1359,0,0
798,-335,0,0,0,0,0,0,0,0,0,-1,2022,1359,0,0
805,-335,0,0,0,0,0,0,0,0,0,-1,2029,1359,0,0
812,-335,0,0,0,0,0,0,0,0,0,-1,2036,1359,0,0
-700,-342,0,0,0,0,0,0,0,0,0,-1,524,1366,0,0
-693,-342,0,0,0,0,0,0,0,0,0,-1,531,1366,0,0
-686,-342,0,0,0,0,0,0,0,0,0,-1,538,1366,0,0
-679,-342,0,0,0,0,0,0,0,0,0,-1,545,1366,0,0
-672,-342,0,0,0,0,0,0,0,0,0,-1,552,1366,0,0
-665,-342,0,0,0,0,0,0,0,0,0,-1,559,1366,0,0
-658,-342,0,0,0,0,0,0,0,0,0,-1,566,1366,0,0
-651,-342,0,0,0,0,0,0,0,0,0,-1,573,1366,0,0
-644,-342,0,0,0,0,0,0,0,0,0,-1,580,1366,0,0
-637,-342,-3.85571,-5.00732,0,0,0,0,0,0,0,-1,587,1366,-3.85569,5.00733
-630,-342,-4.64557,-6.00842,0,0,0,0,0,0,0,-1,594,1366,-4.64559,6.00842
-623,-342,-5.33899,-6.11951,0,0,0,0,0,0,0,-1,601,1366,-5.33899,6.11947
-616,-342,-6.26904,-3.099,0,0,0,0,0,0,0,-1,608,1366,-6.26903,3.09896
-609,-342,-6.43341,-2.09363,-0.00480333,0.0319489,0.00809438,0.0336526,-0.00650707,1.36334,0.0248893,0.0492872,615,1366,-6.43339,2.09361
-602,-342,-6.72791,-0.994995,-0.0017173,0.0227345,0.00979663,0.0261753,-0.00515814,1.23303,0.0193996,0.0461893,622,1366,-6.72789,0.994985
-595,-342,-5.63062,1.59802,0,0,0,0,0,0,0,-1,629,1366,-5.63063,-1.59805
-588,-342,-5.34003,1.57129,0.00117878,0.00902959,0.0111332,0.0169091,-0.00670073,0.954887,0.0140494,0.040808,636,1366,-5.34004,-1.57127
-581,-342,-5.55096,1.96643,0.00349653,0.00361547,0.0105055,0.0140617,-0.00694967,0.788229,0.0123604,0.0300055,643,1366,-5.55098,-1.96646
-574,-342,-5.58221,2.20288,0.00454279,-6.0296e-05,0.00920561,0.0117302,-0.00724771,0.662902,0.0110583,0.0102596,650,1366,-5.58222,-2.20288
-567,-342,-5.55383,2.40369,0.00450573,-0.002087,0.00727557,0.00919685,-0.00677812,0.572695,0.00925832,0.01607,657,1366,-5.55385,-2.40366
-560,-342,-5.55701,2.55933,0.00214628,-0.00164975,0.00464359,0.00526478,-0.00476824,0.59139,0.00579493,0.0240428,664,1366,-5.557,-2.55937
-553,-342,-5.57391,2.72852,-0.000123515,-0.000878228,0.00190067,0.0014369,-0.00243864,0.687403,0.00226232,0.027027,671,1366,-5.57391,-2.72855
-546,-342,-5.54553,2.94922,-0.00139421,-0.000844319,-0.000266417,-0.000736417,-0.00150212,-1.18597,0.000867302,0.0272286,678,1366,-5.54555,-2.94918
-539,-342,-5.50391,3.18542,-0.00197341,-0.00165417,-0.00220119,0.000393183,-0.00402076,-0.821593,0.00282072,0.0223022,685,1366,-5.50389,-3.18543
-532,-342,-5.51215,3.36743,-0.00191736,-0.00351751,-0.0038818,0.00124596,-0.00668082,-0.683767,0.00492205,0.016984,692,1366,-5.51214,-3.36742
-525,-342,-5.51801,3.56104,-0.00203838,-0.00594143,-0.00547523,0.00182272,-0.00980252,-0.614203,0.00721969,0.0109353,699,1366,-5.51801,-3.56101
-518,-342,-5.50446,3.7644,-0.00225806,-0.00864319,-0.00702285,0.00226383,-0.0131651,-0.572063,0.00962054,0.0120864,706,1366,-5.50445,-3.76442
-511,-342,-5.53925,3.84058,-0.00250873,-0.0122419,-0.00852138,0.00243783,-0.0171884,-0.525949,0.012352,0.0341031,713,1366,-5.53922,-3.84062
-504,-342,-5.46106,3.70447,-0.00243413,-0.0171111,-0.00980201,0.00247209,-0.0220173,-0.464073,0.0155678,0.0499764,720,1366,-5.46103,-3.70444
-497,-342,-5.41528,3.50439,0,0,0,0,0,0,0,-1,727,1366,-5.41527,-3.50439
-490,-342,-3.79974,2.95203,0,0,0,0,0,0,0,-1,734,1366,-3.79976,-2.95204
-483,-342,-6.38617,2.56531,0,0,0,0,0,0,0,-1,741,1366,-6.38616,-2.56535
-476,-342,-6.6441,1.36523,0,0,0,0,0,0,0,-1,748,1366,-6.64413,-1.36526
-469,-342,-6.159,-2.36792,0,0,0,0,0,0,0,-1,755,1366,-6.15901,2.36788
-462,-342,-6.8576,-1.88867,0,0,0,0,0,0,0,-1,762,1366,-6.85763,1.88862
-455,-342,-7.50574,-1.37073,0,0,0,0,0,0,0,-1,769,1366,-7.50571,1.3707
-448,-342,-8.61353,-1.16772,0,0,0,0,0,0,0,-1,776,1366,-8.61352,1.16773
-441,-342,0,0,0,0,0,0,0,0,0,-1,783,1366,0,0
-434,-342,0,0,0,0,0,0,0,0,0,-1,790,1366,0,0
-427,-342,0,0,0,0,0,0,0,0,0,-1,797,1366,0,0
-420,-342,0,0,0,0,0,0,0,0,0,-1,804,1366,0,0
-413,-342,0,0,0,0,0,0,0,0,0,-1,811,1366,0,0
-406,-342,0,0,0,0,0,0,0,0,0,-1,818,1366,0,0
-399,-342,0,0,0,0,0,0,0,0,0,-1,825,1366,0,0
-392,-342,0,0,0,0,0,0,0,0,0,-1,832,1366,0,0
-385,-342,0,0,0,0,0,0,0,0,0,-1,839,1366,0,0
-378,-342,0,0,0,0,0,0,0,0,0,-1,846,1366,0,0
-371,-342,0,0,0,0,0,0,0,0,0,-1,853,1366,0,0
-364,-342,0,0,0,0,0,0,0,0,0,-1,860,1366,0,0
-357,-342,0,0,0,0,0,0,0,0,0,-1,867,1366,0,0
-350,-342,0,0,0,0,0,0,0,0,0,-1,874,1366,0,0
-343,-342,0,0,0,0,0,0,0,0,0,-1,881,1366,0,0
-336,-342,0,0,0,0,0,0,0,0,0,-1,888,1366,0,0
-329,-342,0,0,0,0,0,0,0,0,0,-1,895,1366,0,0
-322,-342,0,0,0,0,0,0,0,0,0,-1,902,1366,0,0
-315,-342,0,0,0,0,0,0,0,0,0,-1,909,1366,0,0
-308,-342,0,0,0,0,0,0,0,0,0,-1,916,1366,0,0
-301,-342,0,0,0,0,0,0,0,0,0,-1,923,1366,0,0
-294,-342,0,0,0,0,0,0,0,0,0,-1,930,1366,0,0
-287,-342,0,0,0,0,0,0,0,0,0,-1,937,1366,0,0
-280,-342,0,0,0,0,0,0,0,0,0,-1,944,1366,0,0
-273,-342,0,0,0,0,0,0,0,0,0,-1,951,1366,0,0
-266,-342,0,0,0,0,0,0,0,0,0,-1,958,1366,0,0
-259,-342,0,0,0,0,0,0,0,0,0,-1,965,1366,0,0
-252,-342,0,0,0,0,0,0,0,0,0,-1,972,1366,0,0
-245,-342,0,0,0,0,0,0,0,0,0,-1,979,1366,0,0
-238,-342,0,0,0,0,0,0,0,0,0,-1,986,1366,0,0
-231,-342,0,0,0,0,0,0,0,0,0,-1,993,1366,0,0
-224,-342,0,0,0,0,0,0,0,0,0,-1,1000,1366,0,0
-217,-342,0,0,0,0,0,0,0,0,0,-1,1007,1366,0,0
-210,-342,0,0,0,0,0,0,0,0,0,-1,1014,1366,0,0
-203,-342,0,0,0,0,0,0,0,0,0,-1,1021,1366,0,0
-196,-342,0,0,0,0,0,0,0,0,0,-1,1028,1366,0,0
-189,-342,0,0,0,0,0,0,0,0,0,-1,1035,1366,0,0
-182,-342,0,0,0,0,0,0,0,0,0,-1,1042,1366,0,0
-175,-342,0,0,0,0,0,0,0,0,0,-1,1049,1366,0,0
-168,-342,0,0,0,0,0,0,0,0,0,-1,1056,1366,0,0
-161,-342,0,0,0,0,0,0,0,0,0,-1,1063,1366,0,0
-154,-342,0,0,0,0,0,0,0,0,0,-1,1070,1366,0,0
-147,-342,0,0,0,0,0,0,0,0,0,-1,1077,1366,0,0
-140,-342,0,0,0,0,0,0,0,0,0,-1,1084,1366,0,0
-133,-342,0,0,0,0,0,0,0,0,0,-1,1091,1366,0,0
-126,-342,0,0,0,0,0,0,0,0,0,-1,1098,1366,0,0
-119,-342,0,0,0,0,0,0,0,0,0,-1,1105,1366,0,0
-112,-342,0,0,0,0,0,0,0,0,0,-1,1112,1366,0,0
-105,-342,0,0,0,0,0,0,0,0,0,-1,1119,1366,0,0
-98,-342,0,0,0,0,0,0,0,0,0,-1,1126,1366,0,0
-91,-342,0,0,0,0,0,0,0,0,0,-1,1133,1366,0,0
-84,-342,0,0,0,0,0,0,0,0,0,-1,1140,1366,0,0
-77,-342,0,0,0,0,0,0,0,0,0,-1,1147,1366,0,0
-70,-342,0,0,0,0,0,0,0,0,0,-1,1154,1366,0,0
-63,-342,0,0,0,0,0,0,0,0,0,-1,1161,1366,0,0
-56,-342,0,0,0,0,0,0,0,0,0,-1,1168,1366,0,0
-49,-342,0,0,0,0,0,0,0,0,0,-1,1175,1366,0,0
-42,-342,0,0,0,0,0,0,0,0,0,-1,1182,1366,0,0
-35,-342,0,0,0,0,0,0,0,0,0,-1,1189,1366,0,0
-28,-342,0,0,0,0,0,0,0,0,0,-1,1196,1366,0,0
-21,-342,0,0,0,0,0,0,0,0,0,-1,1203,1366,0,0
-14,-342,0,0,0,0,0,0,0,0,0,-1,1210,1366,0,0
-7,-342,0,0,0,0,0,0,0,0,0,-1,1217,1366,0,0
0,-342,0,0,0,0,0,0,0,0,0,-1,1224,1366,0,0
7,-342,0,0,0,0,0,0,0,0,0,-1,1231,1366,0,0
14,-342,0,0,0,0,0,0,0,0,0,-1,1238,1366,0,0
21,-342,0,0,0,0,0,0,0,0,0,-1,1245,1366,0,0
28,-342,0,0,0,0,0,0,0,0,0,-1,1252,1366,0,0
35,-342,0,0,0,0,0,0,0,0,0,-1,1259,1366,0,0
42,-342,0,0,0,0,0,0,0,0,0,-1,1266,1366,0,0
49,-342,0,0,0,0,0,0,0,0,0,-1,1273,1366,0,0
56,-342,0,0,0,0,0,0,0,0,0,-1,1280,1366,0,0
63,-342,0,0,0,0,0,0,0,0,0,-1,1287,1366,0,0
70,-342,0,0,0,0,0,0,0,0,0,-1,1294,1366,0,0
77,-342,0,0,0,0,0,0,0,0,0,-1,1301,1366,0,0
84,-342,0,0,0,0,0,0,0,0,0,-1,1308,1366,0,0
91,-342,0,0,0,0,0,0,0,0,0,-1,1315,1366,0,0
98,-342,0,0,0,0,0,0,0,0,0,-1,1322,1366,0,0
105,-342,0,0,0,0,0,0,0,0,0,-1,1329,1366,0,0
112,-342,0,0,0,0,0,0,0,0,0,-1,1336,1366,0,0
119,-342,0,0,0,0,0,0,0,0,0,-1,1343,1366,0,0
126,-342,0,0,0,0,0,0,0,0,0,-1,1350,1366,0,0
133,-342,0,0,0,0,0,0,0,0,0,-1,1357,1366,0,0
140,-342,0,0,0,0,0,0,0,0,0,-1,1364,1366,0,0
147,-342,0,0,0,0,0,0,0,0,0,-1,1371,1366,0,0
154,-342,0,0,0,0,0,0,0,0,0,-1,1378,1366,0,0
161,-342,0,0,0,0,0,0,0,0,0,-1,1385,1366,0,0
168,-342,0,0,0,0,0,0,0,0,0,-1,1392,1366,0,0
175,-342,0,0,0,0,0,0,0,0,0,-1,1399,1366,0,0
182,-342,0,0,0,0,0,0,0,0,0,-1,1406,1366,0,0
189,-342,0,0,0,0,0,0,0,0,0,-1,1413,1366,0,0
196,-342,0,0,0,0,0,0,0,0,0,-1,1420,1366,0,0
203,-342,0,0,0,0,0,0,0,0,0,-1,1427,1366,0,0
210,-342,0,0,0,0,0,0,0,0,0,-1,1434,1366,0,0
217,-342,0,0,0,0,0,0,0,0,0,-1,1441,1366,0,0
224,-342,0,0,0,0,0,0,0,0,0,-1,1448,1366,0,0
231,-342,0,0,0,0,0,0,0,0,0,-1,1455,1366,0,0
238,-342,0,0,0,0,0,0,0,0,0,-1,1462,1366,0,0
245,-342,0,0,0,0,0,0,0,0,0,-1,1469,1366,0,0
252,-342,0,0,0,0,0,0,0,0,0,-1,1476,1366,0,0
259,-342,0,0,0,0,0,0,0,0,0,-1,1483,1366,0,0
266,-342,0,0,0,0,0,0,0,0,0,-1,1490,1366,0,0
273,-342,0,0,0,0,0,0,0,0,0,-1,1497,1366,0,0
280,-342,0,0,0,0,0,0,0,0,0,-1,1504,1366,0,0
287,-342,0,0,0,0,0,0,0,0,0,-1,1511,1366,0,0
294,-342,0,0,0,0,0,0,0,0,0,-1,1518,1366,0,0
301,-342,0,0,0,0,0,0,0,0,0,-1,1525,1366,0,0
308,-342,0,0,0,0,0,0,0,0,0,-1,1532,1366,0,0
315,-342,0,0,0,0,0,0,0,0,0,-1,1539,1366,0,0
322,-342,0,0,0,0,0,0,0,0,0,-1,1546,1366,0,0
329,-342,0,0,0,0,0,0,0,0,0,-1,1553,1366,0,0
336,-342,0,0,0,0,0,0,0,0,0,-1,1560,1366,0,0
343,-342,0,0,0,0,0,0,0,0,0,-1,1567,1366,0,0
350,-342,0,0,0,0,0,0,0,0,0,-1,1574,1366,0,0
357,-342,0,0,0,0,0,0,0,0,0,-1,1581,1366,0,0
364,-342,0,0,0,0,0,0,0,0,0,-1,1588,1366,0,0
371,-342,0,0,0,0,0,0,0,0,0,-1,1595,1366,0,0
378,-342,0,0,0,0,0,0,0,0,0,-1,1602,1366,0,0
385,-342,0,0,0,0,0,0,0,0,0,-1,1609,1366,0,0
392,-342,0,0,0,0,0,0,0,0,0,-1,1616,1366,0,0
399,-342,0,0,0,0,0,0,0,0,0,-1,1623,1366,0,0
406,-342,0,0,0,0,0,0,0,0,0,-1,1630,1366,0,0
413,-342,0,0,0,0,0,0,0,0,0,-1,1637,1366,0,0
420,-342,0,0,0,0,0,0,0,0,0,-1,1644,1366,0,0
427,-342,0,0,0,0,0,0,0,0,0,-1,1651,1366,0,0
434,-342,0,0,0,0,0,0,0,0,0,-1,1658,1366,0,0
441,-342,0,0,0,0,0,0,0,0,0,-1,1665,1366,0,0
448,-342,0,0,0,0,0,0,0,0,0,-1,1672,1366,0,0
455,-342,0,0,0,0,0,0,0,0,0,-1,1679,1366,0,0
462,-342,0,0,0,0,0,0,0,0,0,-1,1686,1366,0,0
469,-342,0,0,0,0,0,0,0,0,0,-1,1693,1366,0,0
476,-342,0,0,0,0,0,0,0,0,0,-1,1700,1366,0,0
483,-342,0,0,0,0,0,0,0,0,0,-1,1707,1366,0,0
490,-342,0,0,0,0,0,0,0,0,0,-1,1714,1366,0,0
497,-342,0,0,0,0,0,0,0,0,0,-1,1721,1366,0,0
504,-342,0,0,0,0,0,0,0,0,0,-1,1728,1366,0,0
511,-342,0,0,0,0,0,0,0,0,0,-1,1735,1366,0,0
518,-342,0,0,0,0,0,0,0,0,0,-1,1742,1366,0,0
525,-342,0,0,0,0,0,0,0,0,0,-1,1749,1366,0,0
532,-342,0,0,0,0,0,0,0,0,0,-1,1756,1366,0,0
539,-342,0,0,0,0,0,0,0,0,0,-1,1763,1366,0,0
546,-342,0,0,0,0,0,0,0,0,0,-1,1770,1366,0,0
553,-342,0,0,0,0,0,0,0,0,0,-1,1777,1366,0,0
560,-342,0,0,0,0,0,0,0,0,0,-1,1784,1366,0,0
567,-342,19.6702,4.76367,0,0,0,0,0,0,0,-1,1791,1366,19.6701,-4.76362
574,-342,14.5073,-1.26013,0,0,0,0,0,0,0,-1,1798,1366,14.5073,1.26014
581,-342,14.8185,-0.559326,0,0,0,0,0,0,0,-1,1805,1366,14.8185,0.559359
588,-342,15.1865,-0.180664,0,0,0,0,0,0,0,-1,1812,1366,15.1865,0.180717
595,-342,15.5009,0.412109,0,0,0,0,0,0,0,-1,1819,1366,15.5008,-0.41209
602,-342,14.4944,0.827515,0,0,0,0,0,0,0,-1,1826,1366,14.4944,-0.8275
609,-342,14.418,1.49121,0,0,0,0,0,0,0,-1,1833,1366,14.418,-1.49123
616,-342,11.849,5.91736,0,0,0,0,0,0,0,-1,1840,1366,11.849,-5.91741
623,-342,12.2618,5.57532,0,0,0,0,0,0,0,-1,1847,1366,12.2618,-5.57529
630,-342,12.6746,5.23315,0,0,0,0,0,0,0,-1,1854,1366,12.6746,-5.23317
637,-342,13.0167,5.45837,0,0,0,0,0,0,0,-1,1861,1366,13.0167,-5.45832
644,-342,12.7789,5.67273,-0.0129837,0.000871703,0.00742186,0.00409668,-0.0162087,1.16089,0.012399,0.038499,1868,1366,12.7789,-5.67274
651,-342,12.7473,5.60144,-0.0105141,-0.00050662,0.00605008,0.0023408,-0.0133616,1.13091,0.00978179,0.0185739,1875,1366,12.7473,-5.60146
658,-342,12.7212,5.40442,-0.00836896,-0.00191468,0.00470986,0.000567576,-0.0108512,1.08576,0.00743057,0.0173474,1882,1366,12.7212,-5.40439
665,-342,12.7325,5.24109,-0.00615654,-0.00209743,0.00340297,-0.000164747,-0.00808921,1.05428,0.00533874,0.015135,1889,1366,12.7325,-5.24106
672,-342,12.7479,5.05835,-0.00400147,-0.00207389,0.00257617,-0.000287128,-0.00578823,0.964396,0.00376676,0.012532,1896,1366,12.748,-5.0584
679,-342,12.7234,4.89954,-0.000676383,-0.00240108,0.0016707,0.000341399,-0.00341886,0.547153,0.00240114,0.0124373,1903,1366,12.7234,-4.89953
686,-342,12.736,4.75586,0.00403559,-0.00319599,0.000709045,0.00410446,-0.00326485,0.0968199,0.00426387,0.0104732,1910,1366,12.7359,-4.75585
693,-342,12.7369,4.57166,0.00852248,-0.00443306,-0.000283547,0.00852868,-0.00443926,-0.0218722,0.00761013,0.0111468,1917,1366,12.7369,-4.5717
700,-342,12.7225,4.39441,0.0140018,-0.00610047,-0.00126607,0.0140813,-0.00617989,-0.0626513,0.0119906,0.0137712,1924,1366,12.7225,-4.39438
707,-342,12.7319,4.22571,0.0214123,-0.00874738,-0.00225148,0.0215795,-0.00891453,-0.0741047,0.0181048,0.0134234,1931,1366,12.732,-4.22576
714,-342,12.7333,4.04602,0.0312806,-0.0101959,-0.00355378,0.0315829,-0.0104981,-0.0848577,0.0252917,0.0246823,1938,1366,12.7333,-4.04608
721,-342,12.6495,3.6582,0.0434716,-0.0128596,-0.00497602,0.0439078,-0.0132957,-0.0874328,0.0345669,0.039563,1945,1366,12.6495,-3.6582
728,-342,13.1912,2.56738,0.0588976,-0.0155197,-0.0068363,0.0595204,-0.0161425,-0.0908512,0.0460148,0.048812,1952,1366,13.1912,-2.56744
735,-342,13.7727,3.70447,0.0778545,-0.0177131,-0.00921535,0.078735,-0.0185936,-0.0952581,0.0596616,0.047966,1959,1366,13.7727,-3.70441
742,-342,15.1335,4.02808,0,0,0,0,0,0,0,-1,1966,1366,15.1336,-4.02813
749,-342,16.2661,4.49072,0,0,0,0,0,0,0,-1,1973,1366,16.2661,-4.49078
756,-342,0,0,0,0,0,0,0,0,0,-1,1980,1366,0,0
763,-342,0,0,0,0,0,0,0,0,0,-1,1987,1366,0,0
770,-342,0,0,0,0,0,0,0,0,0,-1,1994,1366,0,0
777,-342,0,0,0,0,0,0,0,0,0,-1,2001,1366,0,0
784,-342,0,0,0,0,0,0,0,0,0,-1,2008,1366,0,0
791,-342,0,0,0,0,0,0,0,0,0,-1,2015,1366,0,0
798,-342,0,0,0,0,0,0,0,0,0,-1,2022,1366,0,0
805,-342,0,0,0,0,0,0,0,0,0,-1,2029,1366,0,0
812,-342,0,0,0,0,0,0,0,0,0,-1,2036,1366,0,0
-700,-349,0,0,0,0,0,0,0,0,0,-1,524,1373,0,0
-693,-349,0,0,0,0,0,0,0,0,0,-1,531,1373,0,0
-686,-349,0,0,0,0,0,0,0,0,0,-1,538,1373,0,0
-679,-349,0,0,0,0,0,0,0,0,0,-1,545,1373,0,0
-672,-349,0,0,0,0,0,0,0,0,0,-1,552,1373,0,0
-665,-349,0,0,0,0,0,0,0,0,0,-1,559,1373,0,0
-658,-349,0,0,0,0,0,0,0,0,0,-1,566,1373,0,0
-651,-349,0,0,0,0,0,0,0,0,0,-1,573,1373,0,0
-644,-349,0,0,0,0,0,0,0,0,0,-1,580,1373,0,0
-637,-349,0,0,0,0,0,0,0,0,0,-1,587,1373,0,0
-630,-349,-5.16406,-3.00012,0,0,0,0,0,0,0,-1,594,1373,-5.16406,3.00016
-623,-349,-4.26752,1.50269,0,0,0,0,0,0,0,-1,601,1373,-4.26749,-1.50269
-616,-349,-5.45215,-2.68469,0,0,0,0,0,0,0,-1,608,1373,-5.45215,2.68471
-609,-349,-5.45941,-1.7821,0.00290581,0.025948,0.015134,0.0334473,-0.00459346,1.11074,0.0239765,0.0494984,615,1373,-5.45943,1.78213
-602,-349,-5.58978,-0.790405,0.00493326,0.0174534,0.0161226,0.0284886,-0.00610196,0.970579,0.0213195,0.0473885,622,1373,-5.58981,0.790365
-595,-349,-5.45093,0.370605,0.0049927,0.0110199,0.0168285,0.0251025,-0.00908994,0.873997,0.0204499,0.046624,629,1373,-5.45095,-0.37055
-588,-349,-5.15887,1.37781,0.00546181,0.0057685,0.0155289,0.0211448,-0.00991454,0.790335,0.0183187,0.043083,636,1373,-5.15888,-1.37777
-581,-349,-5.26459,2.04102,0,0,0,0,0,0,0,-1,643,1373,-5.26461,-2.04102
-574,-349,-5.34808,2.20117,0.00596232,-0.00118806,0.0120228,0.0149303,-0.010156,0.640878,0.0145707,0.018357,650,1373,-5.34809,-2.20119
-567,-349,-5.37347,2.42993,0.00489264,-0.00235886,0.0094145,0.0113554,-0.00882166,0.60159,0.0116798,0.0164496,657,1373,-5.37345,-2.42996
-560,-349,-5.35852,2.59827,0.00215728,-0.00156611,0.00631424,0.00687856,-0.00628739,0.64204,0.00760391,0.0205535,664,1373,-5.35854,-2.59829
-553,-349,-5.32635,2.7301,-0.000403532,-0.00055041,0.00324302,0.00276688,-0.00372083,0.774077,0.00375915,0.026221,671,1373,-5.32634,-2.73014
-546,-349,-5.32288,2.93762,-0.00168132,-0.000336175,0.000823738,5.46894e-05,-0.00207218,1.12776,0.00140004,0.0287864,678,1373,-5.32287,-2.93757
-539,-349,-5.34143,3.16406,-0.00220596,-0.000938703,-0.0014006,-3.50756e-05,-0.00310959,-0.997821,0.00206146,0.0231816,685,1373,-5.34142,-3.16405
-532,-349,-5.32849,3.36816,-0.00199975,-0.00261444,-0.00327368,0.000980978,-0.00559517,-0.738594,0.00409645,0.0170121,692,1373,-5.32848,-3.36819
-525,-349,-5.33331,3.57678,-0.00203441,-0.00481784,-0.00516642,0.00192446,-0.00877672,-0.653833,0.00658702,0.0126176,699,1373,-5.33334,-3.57676
-518,-349,-5.33179,3.79297,-0.00231102,-0.00718516,-0.00703333,0.0026955,-0.0121917,-0.61862,0.00915946,0.0117074,706,1373,-5.33178,-3.79303
-511,-349,-5.24176,3.99219,-0.00297671,-0.0103107,-0.00906877,0.00313838,-0.0164258,-0.59327,0.0121327,0.0277222,713,1373,-5.24173,-3.99217
-504,-349,-5.38141,4.073,0,0,0,0,0,0,0,-1,720,1373,-5.38142,-4.07298
-497,-349,-5.34564,4.20691,0,0,0,0,0,0,0,-1,727,1373,-5.34567,-4.20695
-490,-349,-5.50024,4.25269,0,0,0,0,0,0,0,-1,734,1373,-5.50023,-4.25267
-483,-349,-3.69922,2.70166,0,0,0,0,0,0,0,-1,741,1373,-3.6992,-2.7017
-476,-349,-4.51025,-2.57019,0,0,0,0,0,0,0,-1,748,1373,-4.51025,2.57015
-469,-349,-5.44037,-2.6189,0,0,0,0,0,0,0,-1,755,1373,-5.44034,2.61885
-462,-349,-6.66028,-2.76257,0,0,0,0,0,0,0,-1,762,1373,-6.6603,2.76258
-455,-349,-7.56616,-2.33289,0,0,0,0,0,0,0,-1,769,1373,-7.56615,2.33289
-448,-349,-8.44684,-1.89453,0,0,0,0,0,0,0,-1,776,1373,-8.44683,1.89455
-441,-349,0,0,0,0,0,0,0,0,0,-1,783,1373,0,0
-434,-349,0,0,0,0,0,0,0,0,0,-1,790,1373,0,0
-427,-349,0,0,0,0,0,0,0,0,0,-1,797,1373,0,0
-420,-349,0,0,0,0,0,0,0,0,0,-1,804,1373,0,0
-413,-349,0,0,0,0,0,0,0,0,0,-1,811,1373,0,0
-406,-349,0,0,0,0,0,0,0,0,0,-1,818,1373,0,0
-399,-349,0,0,0,0,0,0,0,0,0,-1,825,1373,0,0
-392,-349,0,0,0,0,0,0,0,0,0,-1,832,1373,0,0
-385,-349,0,0,0,0,0,0,0,0,0,-1,839,1373,0,0
-378,-349,0,0,0,0,0,0,0,0,0,-1,846,1373,0,0
-371,-349,0,0,0,0,0,0,0,0,0,-1,853,1373,0,0
-364,-349,0,0,0,0,0,0,0,0,0,-1,860,1373,0,0
-357,-349,0,0,0,0,0,0,0,0,0,-1,867,1373,0,0
-350,-349,0,0,0,0,0,0,0,0,0,-1,874,1373,0,0
-343,-349,0,0,0,0,0,0,0,0,0,-1,881,1373,0,0
-336,-349,0,0,0,0,0,0,0,0,0,-1,888,1373,0,0
-329,-349,0,0,0,0,0,0,0,0,0,-1,895,1373,0,0
-322,-349,0,0,0,0,0,0,0,0,0,-1,902,1373,0,0
-315,-349,0,0,0,0,0,0,0,0,0,-1,909,1373,0,0
-308,-349,0,0,0,0,0,0,0,0,0,-1,916,1373,0,0
-301,-349,0,0,0,0,0,0,0,0,0,-1,923,1373,0,0
-294,-349,0,0,0,0,0,0,0,0,0,-1,930,1373,0,0
-287,-349,0,0,0,0,0,0,0,0,0,-1,937,1373,0,0
-280,-349,0,0,0,0,0,0,0,0,0,-1,944,1373,0,0
-273,-349,0,0,0,0,0,0,0,0,0,-1,951,1373,0,0
-266,-349,0,0,0,0,0,0,0,0,0,-1,958,1373,0,0
-259,-349,0,0,0,0,0,0,0,0,0,-1,965,1373,0,0
-252,-349,0,0,0,0,0,0,0,0,0,-1,972,1373,0,0
-245,-349,0,0,0,0,0,0,0,0,0,-1,979,1373,0,0
-238,-349,0,0,0,0,0,0,0,0,0,-1,986,1373,0,0
-231,-349,0,0,0,0,0,0,0,0,0,-1,993,1373,0,0
-224,-349,0,0,0,0,0,0,0,0,0,-1,1000,1373,0,0
-217,-349,0,0,0,0,0,0,0,0,0,-1,1007,1373,0,0
-210,-349,0,0,0,0,0,0,0,0,0,-1,1014,1373,0,0
-203,-349,0,0,0,0,0,0,0,0,0,-1,1021,1373,0,0
-196,-349,0,0,0,0,0,0,0,0,0,-1,1028,1373,0,0
-189,-349,0,0,0,0,0,0,0,0,0,-1,1035,1373,0,0
-182,-349,0,0,0,0,0,0,0,0,0,-1,1042,1373,0,0
-175,-349,0,0,0,0,0,0,0,0,0,-1,1049,1373,0,0
-168,-349,0,0,0,0,0,0,0,0,0,-1,1056,1373,0,0
-161,-349,0,0,0,0,0,0,0,0,0,-1,1063,1373,0,0
-154,-349,0,0,0,0,0,0,0,0,0,-1,1070,1373,0,0
-147,-349,0,0,0,0,0,0,0,0,0,-1,1077,1373,0,0
-140,-349,0,0,0,0,0,0,0,0,0,-1,1084,1373,0,0
-133,-349,0,0,0,0,0,0,0,0,0,-1,1091,1373,0,0
-126,-349,0,0,0,0,0,0,0,0,0,-1,1098,1373,0,0
-119,-349,0,0,0,0,0,0,0,0,0,-1,1105,1373,0,0
-112,-349,0,0,0,0,0,0,0,0,0,-1,1112,1373,0,0
-105,-349,0,0,0,0,0,0,0,0,0,-1,1119,1373,0,0
-98,-349,0,0,0,0,0,0,0,0,0,-1,1126,1373,0,0
-91,-349,0,0,0,0,0,0,0,0,0,-1,1133,1373,0,0
-84,-349,0,0,0,0,0,0,0,0,0,-1,1140,1373,0,0
-77,-349,0,0,0,0,0,0,0,0,0,-1,1147,1373,0,0
-70,-349,0,0,0,0,0,0,0,0,0,-1,1154,1373,0,0
-63,-349,0,0,0,0,0,0,0,0,0,-1,1161,1373,0,0
-56,-349,0,0,0,0,0,0,0,0,0,-1,1168,1373,0,0
-49,-349,0,0,0,0,0,0,0,0,0,-1,1175,1373,0,0
-42,-349,0,0,0,0,0,0,0,0,0,-1,1182,1373,0,0
-35,-349,0,0,0,0,0,0,0,0,0,-1,1189,1373,0,0
-28,-349,0,0,0,0,0,0,0,0,0,-1,1196,1373,0,0
-21,-349,0,0,0,0,0,0,0,0,0,-1,1203,1373,0,0
-14,-349,0,0,0,0,0,0,0,0,0,-1,1210,1373,0,0
-7,-349,0,0,0,0,0,0,0,0,0,-1,1217,1373,0,0
0,-349,0,0,0,0,0,0,0,0,0,-1,1224,1373,0,0
7,-349,0,0,0,0,0,0,0,0,0,-1,1231,1373,0,0
14,-349,0,0,0,0,0,0,0,0,0,-1,1238,1373,0,0
21,-349,0,0,0,0,0,0,0,0,0,-1,1245,1373,0,0
28,-349,0,0,0,0,0,0,0,0,0,-1,1252,1373,0,0
35,-349,0,0,0,0,0,0,0,0,0,-1,1259,1373,0,0
42,-349,0,0,0,0,0,0,0,0,0,-1,1266,1373,0,0
49,-349,0,0,0,0,0,0,0,0,0,-1,1273,1373,0,0
56,-349,0,0,0,0,0,0,0,0,0,-1,1280,1373,0,0
63,-349,0,0,0,0,0,0,0,0,0,-1,1287,1373,0,0
70,-349,0,0,0,0,0,0,0,0,0,-1,1294,1373,0,0
77,-349,0,0,0,0,0,0,0,0,0,-1,1301,1373,0,0
84,-349,0,0,0,0,0,0,0,0,0,-1,1308,1373,0,0
91,-349,0,0,0,0,0,0,0,0,0,-1,1315,1373,0,0
98,-349,0,0,0,0,0,0,0,0,0,-1,1322,1373,0,0
105,-349,0,0,0,0,0,0,0,0,0,-1,1329,1373,0,0
112,-349,0,0,0,0,0,0,0,0,0,-1,1336,1373,0,0
119,-349,0,0,0,0,0,0,0,0,0,-1,1343,1373,0,0
126,-349,0,0,0,0,0,0,0,0,0,-1,1350,1373,0,0
133,-349,0,0,0,0,0,0,0,0,0,-1,1357,1373,0,0
140,-349,0,0,0,0,0,0,0,0,0,-1,1364,1373,0,0
147,-349,0,0,0,0,0,0,0,0,0,-1,1371,1373,0,0
154,-349,0,0,0,0,0,0,0,0,0,-1,1378,1373,0,0
161,-349,0,0,0,0,0,0,0,0,0,-1,1385,1373,0,0
168,-349,0,0,0,0,0,0,0,0,0,-1,1392,1373,0,0
175,-349,0,0,0,0,0,0,0,0,0,-1,1399,1373,0,0
182,-349,0,0,0,0,0,0,0,0,0,-1,1406,1373,0,0
189,-349,0,0,0,0,0,0,0,0,0,-1,1413,1373,0,0
196,-349,0,0,0,0,0,0,0,0,0,-1,1420,1373,0,0
203,-349,0,0,0,0,0,0,0,0,0,-1,1427,1373,0,0
210,-349,0,0,0,0,0,0,0,0,0,-1,1434,1373,0,0
217,-349,0,0,0,0,0,0,0,0,0,-1,1441,1373,0,0
224,-349,0,0,0,0,0,0,0,0,0,-1,1448,1373,0,0
231,-349,0,0,0,0,0,0,0,0,0,-1,1455,1373,0,0
238,-349,0,0,0,0,0,0,0,0,0,-1,1462,1373,0,0
245,-349,0,0,0,0,0,0,0,0,0,-1,1469,1373,0,0
252,-349,0,0,0,0,0,0,0,0,0,-1,1476,1373,0,0
259,-349,0,0,0,0,0,0,0,0,0,-1,1483,1373,0,0
266,-349,0,0,0,0,0,0,0,0,0,-1,1490,1373,0,0
273,-349,0,0,0,0,0,0,0,0,0,-1,1497,1373,0,0
280,-349,0,0,0,0,0,0,0,0,0,-1,1504,1373,0,0
287,-349,0,0,0,0,0,0,0,0,0,-1,1511,1373,0,0
294,-349,0,0,0,0,0,0,0,0,0,-1,1518,1373,0,0
301,-349,0,0,0,0,0,0,0,0,0,-1,1525,1373,0,0
308,-349,0,0,0,0,0,0,0,0,0,-1,1532,1373,0,0
315,-349,0,0,0,0,0,0,0,0,0,-1,1539,1373,0,0
322,-349,0,0,0,0,0,0,0,0,0,-1,1546,1373,0,0
329,-349,0,0,0,0,0,0,0,0,0,-1,1553,1373,0,0
336,-349,0,0,0,0,0,0,0,0,0,-1,1560,1373,0,0
343,-349,0,0,0,0,0,0,0,0,0,-1,1567,1373,0,0
350,-349,0,0,0,0,0,0,0,0,0,-1,1574,1373,0,0
357,-349,0,0,0,0,0,0,0,0,0,-1,1581,1373,0,0
364,-349,0,0,0,0,0,0,0,0,0,-1,1588,1373,0,0
371,-349,0,0,0,0,0,0,0,0,0,-1,1595,1373,0,0
378,-349,0,0,0,0,0,0,0,0,0,-1,1602,1373,0,0
385,-349,0,0,0,0,0,0,0,0,0,-1,1609,1373,0,0
392,-349,0,0,0,0,0,0,0,0,0,-1,1616,1373,0,0
399,-349,0,0,0,0,0,0,0,0,0,-1,1623,1373,0,0
406,-349,0,0,0,0,0,0,0,0,0,-1,1630,1373,0,0
413,-349,0,0,0,0,0,0,0,0,0,-1,1637,1373,0,0
420,-349,0,0,0,0,0,0,0,0,0,-1,1644,1373,0,0
427,-349,0,0,0,0,0,0,0,0,0,-1,1651,1373,0,0
434,-349,0,0,0,0,0,0,0,0,0,-1,1658,1373,0,0
441,-349,0,0,0,0,0,0,0,0,0,-1,1665,1373,0,0
448,-349,0,0,0,0,0,0,0,0,0,-1,1672,1373,0,0
455,-349,0,0,0,0,0,0,0,0,0,-1,1679,1373,0,0
462,-349,0,0,0,0,0,0,0,0,0,-1,1686,1373,0,0
469,-349,0,0,0,0,0,0,0,0,0,-1,1693,1373,0,0
476,-349,0,0,0,0,0,0,0,0,0,-1,1700,1373,0,0
483,-349,0,0,0,0,0,0,0,0,0,-1,1707,1373,0,0
490,-349,0,0,0,0,0,0,0,0,0,-1,1714,1373,0,0
497,-349,0,0,0,0,0,0,0,0,0,-1,1721,1373,0,0
504,-349,0,0,0,0,0,0,0,0,0,-1,1728,1373,0,0
511,-349,0,0,0,0,0,0,0,0,0,-1,1735,1373,0,0
518,-349,0,0,0,0,0,0,0,0,0,-1,1742,1373,0,0
525,-349,0,0,0,0,0,0,0,0,0,-1,1749,1373,0,0
532,-349,0,0,0,0,0,0,0,0,0,-1,1756,1373,0,0
539,-349,0,0,0,0,0,0,0,0,0,-1,1763,1373,0,0
546,-349,0,0,0,0,0,0,0,0,0,-1,1770,1373,0,0
553,-349,0,0,0,0,0,0,0,0,0,-1,1777,1373,0,0
560,-349,19.2772,4.4115,0,0,0,0,0,0,0,-1,1784,1373,19.2772,-4.4115
567,-349,18.7013,4.53003,0,0,0,0,0,0,0,-1,1791,1373,18.7013,-4.53004
574,-349,14.6354,-0.693115,0,0,0,0,0,0,0,-1,1798,1373,14.6354,0.693126
581,-349,14.5881,-0.567627,0,0,0,0,0,0,0,-1,1805,1373,14.5881,0.567657
588,-349,14.6154,-0.12146,0,0,0,0,0,0,0,-1,1812,1373,14.6153,0.121518
595,-349,15.1029,0.584595,0,0,0,0,0,0,0,-1,1819,1373,15.103,-0.584554
602,-349,13.2498,6.89087,0,0,0,0,0,0,0,-1,1826,1373,13.2498,-6.89083
609,-349,12.2075,5.93762,0,0,0,0,0,0,0,-1,1833,1373,12.2075,-5.93759
616,-349,12.3661,5.56104,-0.0110686,0.0192406,0.0145767,0.0251131,-0.0169412,1.18781,0.0244324,0.0453514,1840,1373,12.3661,-5.56107
623,-349,12.4681,5.24829,-0.0117076,0.010126,0.0125773,0.0158635,-0.0174451,1.14282,0.019238,0.0439915,1847,1373,12.4681,-5.24824
630,-349,13.4398,5.56738,0,0,0,0,0,0,0,-1,1854,1373,13.4398,-5.56738
637,-349,12.9208,5.62122,-0.010141,0.000796982,0.00885108,0.00573238,-0.0150764,1.06213,0.0124111,0.0446962,1861,1373,12.9207,-5.62119
644,-349,12.5118,5.76843,-0.00861943,-0.000978598,0.00715487,0.00331195,-0.01291,1.03062,0.00989711,0.0369868,1868,1373,12.5118,-5.76845
651,-349,12.6187,5.54138,-0.00698355,-0.001674,0.00564404,0.00190845,-0.010566,1.00523,0.00775879,0.0205996,1875,1373,12.6187,-5.54134
658,-349,12.5511,5.39685,-0.00555293,-0.0026879,0.00427635,0.000389492,-0.00863032,0.947017,0.00588767,0.0239669,1882,1373,12.5511,-5.39689
665,-349,12.553,5.25562,-0.00392359,-0.00265152,0.00294525,-0.000274403,-0.0063007,0.891741,0.00411205,0.0190243,1889,1373,12.553,-5.25557
672,-349,12.5635,5.0636,-0.00222526,-0.00260646,0.00218995,-0.00021763,-0.00461409,0.741991,0.00300614,0.0143625,1896,1373,12.5635,-5.06362
679,-349,12.5355,4.90417,0.00099618,-0.00322334,0.00141655,0.00142762,-0.00365478,0.295645,0.00302678,0.0133132,1903,1373,12.5355,-4.90416
686,-349,12.563,4.76147,0.00584933,-0.00442816,0.000606634,0.00588501,-0.00446385,0.0587535,0.00599367,0.0115408,1910,1373,12.5629,-4.7615
693,-349,12.5804,4.57727,0.0106458,-0.00626319,-0.000251101,0.0106495,-0.00626692,-0.0148458,0.00987537,0.0141036,1917,1373,12.5805,-4.57728
700,-349,12.5806,4.39026,0.016807,-0.00878585,-0.00108686,0.016853,-0.00883192,-0.0423656,0.0150683,0.0170236,1924,1373,12.5806,-4.39024
707,-349,12.5959,4.19763,0.0252444,-0.012394,-0.0019905,0.0253494,-0.012499,-0.0526889,0.0222676,0.0192756,1931,1373,12.596,-4.19762
714,-349,12.5669,4.05103,0.0366674,-0.0152752,-0.00324114,0.0368689,-0.0154767,-0.0620775,0.0310516,0.0248815,1938,1373,12.5669,-4.05105
721,-349,12.1899,2.88477,0,0,0,0,0,0,0,-1,1945,1373,12.1899,-2.88482
728,-349,13.0432,3.62646,0.0694356,-0.0239263,-0.00672001,0.0699168,-0.0244075,-0.071487,0.0565315,0.0493514,1952,1373,13.0432,-3.62651
735,-349,14.0781,4.0918,0.0918677,-0.0281245,-0.00929156,0.0925829,-0.0288398,-0.0768244,0.0732527,0.0453847,1959,1373,14.0781,-4.09184
742,-349,15.4586,4.48376,0,0,0,0,0,0,0,-1,1966,1373,15.4586,-4.48382
749,-349,11.9012,2.57483,0,0,0,0,0,0,0,-1,1973,1373,11.9013,-2.57481
756,-349,0,0,0,0,0,0,0,0,0,-1,1980,1373,0,0
763,-349,0,0,0,0,0,0,0,0,0,-1,1987,1373,0,0
770,-349,0,0,0,0,0,0,0,0,0,-1,1994,1373,0,0
777,-349,0,0,0,0,0,0,0,0,0,-1,2001,1373,0,0
784,-349,0,0,0,0,0,0,0,0,0,-1,2008,1373,0,0
791,-349,0,0,0,0,0,0,0,0,0,-1,2015,1373,0,0
798,-349,0,0,0,0,0,0,0,0,0,-1,2022,1373,0,0
805,-349,0,0,0,0,0,0,0,0,0,-1,2029,1373,0,0
812,-349,0,0,0,0,0,0,0,0,0,-1,2036,1373,0,0
-700,-356,0,0,0,0,0,0,0,0,0,-1,524,1380,0,0
-693,-356,0,0,0,0,0,0,0,0,0,-1,531,1380,0,0
-686,-356,0,0,0,0,0,0,0,0,0,-1,538,1380,0,0
-679,-356,0,0,0,0,0,0,0,0,0,-1,545,1380,0,0
-672,-356,0,0,0,0,0,0,0,0,0,-1,552,1380,0,0
-665,-356,0,0,0,0,0,0,0,0,0,-1,559,1380,0,0
-658,-356,0,0,0,0,0,0,0,0,0,-1,566,1380,0,0
-651,-356,0,0,0,0,0,0,0,0,0,-1,573,1380,0,0
-644,-356,0,0,0,0,0,0,0,0,0,-1,580,1380,0,0
-637,-356,0,0,0,0,0,0,0,0,0,-1,587,1380,0,0
-630,-356,-5.27063,-5.19885,0,0,0,0,0,0,0,-1,594,1380,-5.2706,5.19882
-623,-356,-5.27997,-4.25562,0,0,0,0,0,0,0,-1,601,1380,-5.27998,4.25563
-616,-356,-8.26532,-3.43945,0,0,0,0,0,0,0,-1,608,1380,-8.2653,3.43948
-609,-356,-6.78418,-2.11182,0,0,0,0,0,0,0,-1,615,1380,-6.78419,2.11184
-602,-356,-5.53308,-0.187256,0,0,0,0,0,0,0,-1,622,1380,-5.53307,0.187263
-595,-356,-5.16486,0.787231,0,0,0,0,0,0,0,-1,629,1380,-5.16484,-0.787267
-588,-356,-5.00861,1.38391,0,0,0,0,0,0,0,-1,636,1380,-5.00861,-1.38395
-581,-356,-4.86517,1.76904,0,0,0,0,0,0,0,-1,643,1380,-4.86518,-1.76901
-574,-356,-5.04291,2.22083,0.00808239,-0.00259808,0.0148307,0.018505,-0.0130207,0.612585,0.018293,0.0257686,650,1380,-5.0429,-2.22088
-567,-356,-5.17792,2.38403,0.00574098,-0.00276613,0.0114543,0.013706,-0.0107312,0.607615,0.0141437,0.0162397,657,1380,-5.17792,-2.38403
-560,-356,-5.15497,2.58972,0.00249341,-0.00150444,0.00786843,0.00861285,-0.00762388,0.661008,0.00938008,0.0173563,664,1380,-5.15495,-2.5897
-553,-356,-5.14801,2.74866,-0.000430566,-0.000248113,0.00448939,0.00415097,-0.00482965,0.795557,0.0051899,0.0200106,671,1380,-5.14801,-2.74862
-546,-356,-5.15796,2.92664,-0.00181285,0.000143498,0.0018417,0.00125067,-0.00292003,1.02952,0.00247141,0.022455,678,1380,-5.15798,-2.92667
-539,-356,-5.14178,3.15576,-0.00232418,-0.000302393,-0.000585404,-0.000145125,-0.00248145,-1.30834,0.00160811,0.015659,685,1380,-5.1418,-3.15571
-532,-356,-5.16357,3.37744,-0.00199401,-0.00184108,-0.00254872,0.000632323,-0.00446742,-0.800394,0.00320988,0.0149373,692,1380,-5.16359,-3.37741
-525,-356,-5.15192,3.58337,-0.00196149,-0.00385686,-0.00464847,0.00183492,-0.00765326,-0.684841,0.0058112,0.0122855,699,1380,-5.15191,-3.58332
-518,-356,-5.12738,3.80188,-0.00224588,-0.00597448,-0.00668632,0.00283118,-0.0110515,-0.64944,0.00847063,0.0111189,706,1380,-5.12736,-3.80194
-511,-356,-5.03082,4.02063,-0.00321238,-0.00867192,-0.00905334,0.00351378,-0.0153981,-0.638973,0.0116152,0.01994,713,1380,-5.03082,-4.02069
-504,-356,-5.0849,4.08093,-0.00472029,-0.0123835,-0.0119392,0.00398711,-0.0210909,-0.630127,0.0155608,0.0442848,720,1380,-5.08487,-4.08094
-497,-356,-5.10632,4.13806,-0.00639157,-0.0175597,-0.0153672,0.00437468,-0.028326,-0.611128,0.0204984,0.0480001,727,1380,-5.10634,-4.1381
-490,-356,-5.09412,4.229,-0.00822447,-0.0244746,-0.0191443,0.00444761,-0.0371467,-0.584712,0.0263723,0.0469918,734,1380,-5.09411,-4.22898
-483,-356,-5.25452,4.31201,0,0,0,0,0,0,0,-1,741,1380,-5.25452,-4.31196
-476,-356,-3.85577,2.13367,0,0,0,0,0,0,0,-1,748,1380,-3.85576,-2.13363
-469,-356,-4.72894,-3.14575,0,0,0,0,0,0,0,-1,755,1380,-4.72892,3.14575
-462,-356,-6.2052,-3.45215,0,0,0,0,0,0,0,-1,762,1380,-6.20522,3.4521
-455,-356,-7.15009,-3.04504,0,0,0,0,0,0,0,-1,769,1380,-7.15007,3.04508
-448,-356,-7.95459,-2.33423,0,0,0,0,0,0,0,-1,776,1380,-7.95456,2.33426
-441,-356,-8.95667,-1.80969,0,0,0,0,0,0,0,-1,783,1380,-8.95669,1.80968
-434,-356,0,0,0,0,0,0,0,0,0,-1,790,1380,0,0
-427,-356,0,0,0,0,0,0,0,0,0,-1,797,1380,0,0
-420,-356,0,0,0,0,0,0,0,0,0,-1,804,1380,0,0
-413,-356,0,0,0,0,0,0,0,0,0,-1,811,1380,0,0
-406,-356,0,0,0,0,0,0,0,0,0,-1,818,1380,0,0
-399,-356,0,0,0,0,0,0,0,0,0,-1,825,1380,0,0
-392,-356,0,0,0,0,0,0,0,0,0,-1,832,1380,0,0
-385,-356,0,0,0,0,0,0,0,0,0,-1,839,1380,0,0
-378,-356,0,0,0,0,0,0,0,0,0,-1,846,1380,0,0
-371,-356,0,0,0,0,0,0,0,0,0,-1,853,1380,0,0
-364,-356,0,0,0,0,0,0,0,0,0,-1,860,1380,0,0
-357,-356,0,0,0,0,0,0,0,0,0,-1,867,1380,0,0
-350,-356,0,0,0,0,0,0,0,0,0,-1,874,1380,0,0
-343,-356,0,0,0,0,0,0,0,0,0,-1,881,1380,0,0
-336,-356,0,0,0,0,0,0,0,0,0,-1,888,1380,0,0
-329,-356,0,0,0,0,0,0,0,0,0,-1,895,1380,0,0
-322,-356,0,0,0,0,0,0,0,0,0,-1,902,1380,0,0
-315,-356,0,0,0,0,0,0,0,0,0,-1,909,1380,0,0
-308,-356,0,0,0,0,0,0,0,0,0,-1,916,1380,0,0
-301,-356,0,0,0,0,0,0,0,0,0,-1,923,1380,0,0
-294,-356,0,0,0,0,0,0,0,0,0,-1,930,1380,0,0
-287,-356,0,0,0,0,0,0,0,0,0,-1,937,1380,0,0
-280,-356,0,0,0,0,0,0,0,0,0,-1,944,1380,0,0
-273,-356,0,0,0,0,0,0,0,0,0,-1,951,1380,0,0
-266,-356,0,0,0,0,0,0,0,0,0,-1,958,1380,0,0
-259,-356,0,0,0,0,0,0,0,0,0,-1,965,1380,0,0
-252,-356,0,0,0,0,0,0,0,0,0,-1,972,1380,0,0
-245,-356,0,0,0,0,0,0,0,0,0,-1,979,1380,0,0
-238,-356,0,0,0,0,0,0,0,0,0,-1,986,1380,0,0
-231,-356,0,0,0,0,0,0,0,0,0,-1,993,1380,0,0
-224,-356,0,0,0,0,0,0,0,0,0,-1,1000,1380,0,0
-217,-356,0,0,0,0,0,0,0,0,0,-1,1007,1380,0,0
-210,-356,0,0,0,0,0,0,0,0,0,-1,1014,1380,0,0
-203,-356,0,0,0,0,0,0,0,0,0,-1,1021,1380,0,0
-196,-356,0,0,0,0,0,0,0,0,0,-1,1028,1380,0,0
-189,-356,0,0,0,0,0,0,0,0,0,-1,1035,1380,0,0
-182,-356,0,0,0,0,0,0,0,0,0,-1,1042,1380,0,0
-175,-356,0,0,0,0,0,0,0,0,0,-1,1049,1380,0,0
-168,-356,0,0,0,0,0,0,0,0,0,-1,1056,1380,0,0
-161,-356,0,0,0,0,0,0,0,0,0,-1,1063,1380,0,0
-154,-356,0,0,0,0,0,0,0,0,0,-1,1070,1380,0,0
-147,-356,0,0,0,0,0,0,0,0,0,-1,1077,1380,0,0
-140,-356,0,0,0,0,0,0,0,0,0,-1,1084,1380,0,0
-133,-356,0,0,0,0,0,0,0,0,0,-1,1091,1380,0,0
-126,-356,0,0,0,0,0,0,0,0,0,-1,1098,1380,0,0
-119,-356,0,0,0,0,0,0,0,0,0,-1,1105,1380,0,0
-112,-356,0,0,0,0,0,0,0,0,0,-1,1112,1380,0,0
-105,-356,0,0,0,0,0,0,0,0,0,-1,1119,1380,0,0
-98,-356,0,0,0,0,0,0,0,0,0,-1,1126,1380,0,0
-91,-356,0,0,0,0,0,0,0,0,0,-1,1133,1380,0,0
-84,-356,0,0,0,0,0,0,0,0,0,-1,1140,1380,0,0
-77,-356,0,0,0,0,0,0,0,0,0,-1,1147,1380,0,0
-70,-356,0,0,0,0,0,0,0,0,0,-1,1154,1380,0,0
-63,-356,0,0,0,0,0,0,0,0,0,-1,1161,1380,0,0
-56,-356,0,0,0,0,0,0,0,0,0,-1,1168,1380,0,0
-49,-356,0,0,0,0,0,0,0,0,0,-1,1175,1380,0,0
-42,-356,0,0,0,0,0,0,0,0,0,-1,1182,1380,0,0
-35,-356,0,0,0,0,0,0,0,0,0,-1,1189,1380,0,0
-28,-356,0,0,0,0,0,0,0,0,0,-1,1196,1380,0,0
-21,-356,0,0,0,0,0,0,0,0,0,-1,1203,1380,0,0
-14,-356,0,0,0,0,0,0,0,0,0,-1,1210,1380,0,0
-7,-356,0,0,0,0,0,0,0,0,0,-1,1217,1380,0,0
0,-356,0,0,0,0,0,0,0,0,0,-1,1224,1380,0,0
7,-356,0,0,0,0,0,0,0,0,0,-1,1231,1380,0,0
14,-356,0,0,0,0,0,0,0,0,0,-1,1238,1380,0,0
21,-356,0,0,0,0,0,0,0,0,0,-1,1245,1380,0,0
28,-356,0,0,0,0,0,0,0,0,0,-1,1252,1380,0,0
35,-356,0,0,0,0,0,0,0,0,0,-1,1259,1380,0,0
42,-356,0,0,0,0,0,0,0,0,0,-1,1266,1380,0,0
49,-356,0,0,0,0,0,0,0,0,0,-1,1273,1380,0,0
56,-356,0,0,0,0,0,0,0,0,0,-1,1280,1380,0,0
63,-356,0,0,0,0,0,0,0,0,0,-1,1287,1380,0,0
70,-356,0,0,0,0,0,0,0,0,0,-1,1294,1380,0,0
77,-356,0,0,0,0,0,0,0,0,0,-1,1301,1380,0,0
84,-356,0,0,0,0,0,0,0,0,0,-1,1308,1380,0,0
91,-356,0,0,0,0,0,0,0,0,0,-1,1315,1380,0,0
98,-356,0,0,0,0,0,0,0,0,0,-1,1322,1380,0,0
105,-356,0,0,0,0,0,0,0,0,0,-1,1329,1380,0,0
112,-356,0,0,0,0,0,0,0,0,0,-1,1336,1380,0,0
119,-356,0,0,0,0,0,0,0,0,0,-1,1343,1380,0,0
126,-356,0,0,0,0,0,0,0,0,0,-1,1350,1380,0,0
133,-356,0,0,0,0,0,0,0,0,0,-1,1357,1380,0,0
140,-356,0,0,0,0,0,0,0,0,0,-1,1364,1380,0,0
147,-356,0,0,0,0,0,0,0,0,0,-1,1371,1380,0,0
154,-356,0,0,0,0,0,0,0,0,0,-1,1378,1380,0,0
161,-356,0,0,0,0,0,0,0,0,0,-1,1385,1380,0,0
168,-356,0,0,0,0,0,0,0,0,0,-1,1392,1380,0,0
175,-356,0,0,0,0,0,0,0,0,0,-1,1399,1380,0,0
182,-356,0,0,0,0,0,0,0,0,0,-1,1406,1380,0,0
189,-356,0,0,0,0,0,0,0,0,0,-1,1413,1380,0,0
196,-356,0,0,0,0,0,0,0,0,0,-1,1420,1380,0,0
203,-356,0,0,0,0,0,0,0,0,0,-1,1427,1380,0,0
210,-356,0,0,0,0,0,0,0,0,0,-1,1434,1380,0,0
217,-356,0,0,0,0,0,0,0,0,0,-1,1441,1380,0,0
224,-356,0,0,0,0,0,0,0,0,0,-1,1448,1380,0,0
231,-356,0,0,0,0,0,0,0,0,0,-1,1455,1380,0,0
238,-356,0,0,0,0,0,0,0,0,0,-1,1462,1380,0,0
245,-356,0,0,0,0,0,0,0,0,0,-1,1469,1380,0,0
252,-356,0,0,0,0,0,0,0,0,0,-1,1476,1380,0,0
259,-356,0,0,0,0,0,0,0,0,0,-1,1483,1380,0,0
266,-356,0,0,0,0,0,0,0,0,0,-1,1490,1380,0,0
273,-356,0,0,0,0,0,0,0,0,0,-1,1497,1380,0,0
280,-356,0,0,0,0,0,0,0,0,0,-1,1504,1380,0,0
287,-356,0,0,0,0,0,0,0,0,0,-1,1511,1380,0,0
294,-356,0,0,0,0,0,0,0,0,0,-1,1518,1380,0,0
301,-356,0,0,0,0,0,0,0,0,0,-1,1525,1380,0,0
308,-356,0,0,0,0,0,0,0,0,0,-1,1532,1380,0,0
315,-356,0,0,0,0,0,0,0,0,0,-1,1539,1380,0,0
322,-356,0,0,0,0,0,0,0,0,0,-1,1546,1380,0,0
329,-356,0,0,0,0,0,0,0,0,0,-1,1553,1380,0,0
336,-356,0,0,0,0,0,0,0,0,0,-1,1560,1380,0,0
343,-356,0,0,0,0,0,0,0,0,0,-1,1567,1380,0,0
350,-356,0,0,0,0,0,0,0,0,0,-1,1574,1380,0,0
357,-356,0,0,0,0,0,0,0,0,0,-1,1581,1380,0,0
364,-356,0,0,0,0,0,0,0,0,0,-1,1588,1380,0,0
371,-356,0,0,0,0,0,0,0,0,0,-1,1595,1380,0,0
378,-356,0,0,0,0,0,0,0,0,0,-1,1602,1380,0,0
385,-356,0,0,0,0,0,0,0,0,0,-1,1609,1380,0,0
392,-356,0,0,0,0,0,0,0,0,0,-1,1616,1380,0,0
399,-356,0,0,0,0,0,0,0,0,0,-1,1623,1380,0,0
406,-356,0,0,0,0,0,0,0,0,0,-1,1630,1380,0,0
413,-356,0,0,0,0,0,0,0,0,0,-1,1637,1380,0,0
420,-356,0,0,0,0,0,0,0,0,0,-1,1644,1380,0,0
427,-356,0,0,0,0,0,0,0,0,0,-1,1651,1380,0,0
434,-356,0,0,0,0,0,0,0,0,0,-1,1658,1380,0,0
441,-356,0,0,0,0,0,0,0,0,0,-1,1665,1380,0,0
448,-356,0,0,0,0,0,0,0,0,0,-1,1672,1380,0,0
455,-356,0,0,0,0,0,0,0,0,0,-1,1679,1380,0,0
462,-356,0,0,0,0,0,0,0,0,0,-1,1686,1380,0,0
469,-356,0,0,0,0,0,0,0,0,0,-1,1693,1380,0,0
476,-356,0,0,0,0,0,0,0,0,0,-1,1700,1380,0,0
483,-356,0,0,0,0,0,0,0,0,0,-1,1707,1380,0,0
490,-356,0,0,0,0,0,0,0,0,0,-1,1714,1380,0,0
497,-356,0,0,0,0,0,0,0,0,0,-1,1721,1380,0,0
504,-356,0,0,0,0,0,0,0,0,0,-1,1728,1380,0,0
511,-356,0,0,0,0,0,0,0,0,0,-1,1735,1380,0,0
518,-356,0,0,0,0,0,0,0,0,0,-1,1742,1380,0,0
525,-356,0,0,0,0,0,0,0,0,0,-1,1749,1380,0,0
532,-356,0,0,0,0,0,0,0,0,0,-1,1756,1380,0,0
539,-356,0,0,0,0,0,0,0,0,0,-1,1763,1380,0,0
546,-356,0,0,0,0,0,0,0,0,0,-1,1770,1380,0,0
553,-356,0,0,0,0,0,0,0,0,0,-1,1777,1380,0,0
560,-356,18.7601,4.17639,0,0,0,0,0,0,0,-1,1784,1380,18.7601,-4.17643
567,-356,18.1165,4.09094,0,0,0,0,0,0,0,-1,1791,1380,18.1165,-4.09095
574,-356,18.0585,3.32813,0,0,0,0,0,0,0,-1,1798,1380,18.0585,-3.32808
581,-356,13.5471,-0.680908,0,0,0,0,0,0,0,-1,1805,1380,13.5472,0.680902
588,-356,14.7126,-0.0810547,0,0,0,0,0,0,0,-1,1812,1380,14.7126,0.0810932
595,-356,12.5546,6.41711,0,0,0,0,0,0,0,-1,1819,1380,12.5546,-6.41713
602,-356,12.8351,6.07166,-0.00813559,0.0379832,0.0269597,0.0504,-0.0205524,1.13919,0.0421553,0.0460641,1826,1380,12.8351,-6.07162
609,-356,13.0236,5.89526,-0.0106395,0.0227321,0.0223358,0.0339264,-0.0218339,1.1062,0.0324446,0.0405498,1833,1380,13.0236,-5.89528
616,-356,12.8369,5.53906,-0.0117145,0.0122365,0.0185231,0.0223182,-0.0217961,1.07236,0.02547,0.0394537,1840,1380,12.8369,-5.53903
623,-356,12.4906,5.19312,-0.0115499,0.00535584,0.0152152,0.0143085,-0.0205026,1.03895,0.020204,0.0394266,1847,1380,12.4906,-5.19311
630,-356,12.6384,5.41443,0,0,0,0,0,0,0,-1,1854,1380,12.6384,-5.41438
637,-356,12.4315,5.59277,-0.00918455,-0.00116792,0.00978327,0.00539633,-0.0157488,0.979823,0.0126865,0.0361133,1861,1380,12.4315,-5.59279
644,-356,12.3849,5.81372,-0.00756524,-0.00213758,0.0075973,0.00321605,-0.0129189,0.95694,0.00986098,0.0228408,1868,1380,12.3849,-5.81373
651,-356,12.4238,5.55542,-0.00593972,-0.00232171,0.00579472,0.00193981,-0.0102012,0.936696,0.00753117,0.0149388,1875,1380,12.4238,-5.55546
658,-356,12.387,5.38416,-0.00450314,-0.00304703,0.00427224,0.000558749,-0.00810892,0.869795,0.0056015,0.0136291,1882,1380,12.387,-5.38421
665,-356,12.3704,5.26794,-0.00288939,-0.00305858,0.00282725,-0.00014547,-0.0058025,0.770442,0.00382077,0.0135432,1889,1380,12.3703,-5.26791
672,-356,12.377,5.08728,-0.00122695,-0.00314816,0.00204769,7.42595e-05,-0.00444937,0.566079,0.00299131,0.0145665,1896,1380,12.377,-5.08725
679,-356,12.3511,4.90491,0.00219916,-0.00419358,0.00133731,0.00246764,-0.00446206,0.198127,0.00405572,0.0161689,1903,1380,12.351,-4.90492
686,-356,12.3569,4.73889,0.0074188,-0.00594655,0.000638846,0.00744927,-0.00597702,0.0476539,0.00776719,0.0144492,1910,1380,12.357,-4.73891
693,-356,12.4261,4.57422,0.0126971,-0.00854096,-8.95274e-05,0.0126975,-0.00854134,-0.00421533,0.0123402,0.0130228,1917,1380,12.4261,-4.57425
700,-356,12.4308,4.38013,0.019705,-0.012124,-0.000781935,0.0197242,-0.0121432,-0.024547,0.0185714,0.018034,1924,1380,12.4307,-4.38014
707,-356,12.443,4.04468,0.0293365,-0.0169734,-0.00159577,0.0293914,-0.0170283,-0.034404,0.0271155,0.0339241,1931,1380,12.4431,-4.04464
714,-356,12.1021,3.89563,0.0425158,-0.0217085,-0.00278125,0.042636,-0.0218287,-0.0431974,0.0378594,0.0435178,1938,1380,12.102,-3.89558
721,-356,11.7842,3.8252,0,0,0,0,0,0,0,-1,1945,1380,11.7842,-3.82516
728,-356,13.2661,3.90723,0.0810136,-0.0347097,-0.00644451,0.0813714,-0.0350674,-0.0554604,0.0689751,0.0473144,1952,1380,13.2661,-3.90722
735,-356,14.4313,4.25928,0.107401,-0.0415428,-0.00922884,0.107971,-0.0421125,-0.0616475,0.0893883,0.0445455,1959,1380,14.4313,-4.25925
742,-356,15.7278,4.64172,0,0,0,0,0,0,0,-1,1966,1380,15.7277,-4.64172
749,-356,12.8143,3.45264,0,0,0,0,0,0,0,-1,1973,1380,12.8144,-3.45269
756,-356,0,0,0,0,0,0,0,0,0,-1,1980,1380,0,0
763,-356,0,0,0,0,0,0,0,0,0,-1,1987,1380,0,0
770,-356,0,0,0,0,0,0,0,0,0,-1,1994,1380,0,0
777,-356,0,0,0,0,0,0,0,0,0,-1,2001,1380,0,0
784,-356,0,0,0,0,0,0,0,0,0,-1,2008,1380,0,0
791,-356,0,0,0,0,0,0,0,0,0,-1,2015,1380,0,0
798,-356,0,0,0,0,0,0,0,0,0,-1,2022,1380,0,0
805,-356,0,0,0,0,0,0,0,0,0,-1,2029,1380,0,0
812,-356,0,0,0,0,0,0,0,0,0,-1,2036,1380,0,0
-700,-363,0,0,0,0,0,0,0,0,0,-1,524,1387,0,0
-693,-363,0,0,0,0,0,0,0,0,0,-1,531,1387,0,0
-686,-363,0,0,0,0,0,0,0,0,0,-1,538,1387,0,0
-679,-363,0,0,0,0,0,0,0,0,0,-1,545,1387,0,0
-672,-363,0,0,0,0,0,0,0,0,0,-1,552,1387,0,0
-665,-363,0,0,0,0,0,0,0,0,0,-1,559,1387,0,0
-658,-363,0,0,0,0,0,0,0,0,0,-1,566,1387,0,0
-651,-363,0,0,0,0,0,0,0,0,0,-1,573,1387,0,0
-644,-363,0,0,0,0,0,0,0,0,0,-1,580,1387,0,0
-637,-363,0,0,0,0,0,0,0,0,0,-1,587,1387,0,0
-630,-363,0,0,0,0,0,0,0,0,0,-1,594,1387,0,0
-623,-363,-9.67566,-5.91846,0,0,0,0,0,0,0,-1,601,1387,-9.67563,5.91847
-616,-363,-9.02985,-2.98083,0,0,0,0,0,0,0,-1,608,1387,-9.02987,2.98079
-609,-363,-7.55524,-1.6355,0.0253381,0.00652345,0.0347512,0.0519328,-0.0200712,0.653214,0.0429067,0.0480967,615,1387,-7.55522,1.63555
-602,-363,-6.21912,-0.317017,0.0243655,0.0012971,0.0328324,0.0476307,-0.0219682,0.61648,0.0410834,0.0487451,622,1387,-6.21912,0.31705
-595,-363,-4.96179,1.20508,0.0212514,-0.00153411,0.02967,0.0416407,-0.0219235,0.602087,0.0372827,0.0492423,629,1387,-4.96177,-1.20509
-588,-363,-4.45209,1.94751,0,0,0,0,0,0,0,-1,636,1387,-4.45209,-1.9475
-581,-363,-4.01373,2.3999,0,0,0,0,0,0,0,-1,643,1387,-4.01375,-2.39994
-574,-363,-4.81439,2.24109,0.00943617,-0.00358062,0.0176674,0.0217558,-0.0159003,0.608919,0.0218282,0.0310001,650,1387,-4.81438,-2.24105
-567,-363,-4.96429,2.39563,0.00586091,-0.00288832,0.0134258,0.0156069,-0.0126343,0.627905,0.0163351,0.0193374,657,1387,-4.96431,-2.39558
-560,-363,-4.97552,2.55835,0.00220644,-0.00131875,0.00930335,0.00991269,-0.00902501,0.691779,0.0109377,0.0133101,664,1387,-4.9755,-2.55837
-553,-363,-4.97693,2.76917,-0.00100924,9.81262e-05,0.00559127,0.00516307,-0.00607418,0.83475,0.00649493,0.0127552,671,1387,-4.97691,-2.76917
-546,-363,-4.95612,2.95068,-0.00244351,0.000613389,0.00267668,0.00216727,-0.00399739,1.04482,0.00361107,0.012902,678,1387,-4.95611,-2.95064
-539,-363,-4.92902,3.14197,-0.00287751,0.000276282,5.3461e-05,0.000277188,-0.00287842,1.55385,0.0020177,0.0146912,685,1387,-4.92899,-3.14193
-532,-363,-4.94415,3.38733,-0.0024072,-0.0011317,-0.0019584,0.000290169,-0.00382907,-0.942807,0.00265473,0.0124362,692,1387,-4.94412,-3.38734
-525,-363,-4.94434,3.59033,-0.00227631,-0.00298325,-0.00416184,0.00154704,-0.0068066,-0.743034,0.00513174,0.0107941,699,1387,-4.94433,-3.59032
-518,-363,-4.9364,3.78503,-0.00250302,-0.00491243,-0.0062452,0.00265261,-0.0100681,-0.690118,0.00774908,0.00938803,706,1387,-4.93641,-3.78504
-511,-363,-4.89636,3.99255,-0.00358359,-0.00727905,-0.00872291,0.00348514,-0.0143478,-0.681029,0.010914,0.0142318,713,1387,-4.89635,-3.99255
-504,-363,-4.77203,4.19373,-0.00555912,-0.0104473,-0.0119944,0.00423763,-0.020244,-0.684889,0.015108,0.0323408,720,1387,-4.77205,-4.19369
-497,-363,-4.74023,4.07776,-0.00808887,-0.0149712,-0.016305,0.00513412,-0.0281942,-0.681399,0.0207206,0.045273,727,1387,-4.74022,-4.0778
-490,-363,-4.96912,4.26233,-0.0112674,-0.0211364,-0.0216033,0.0059578,-0.0383615,-0.673117,0.0277741,0.0444294,734,1387,-4.9691,-4.26236
-483,-363,-5.38263,4.40039,0,0,0,0,0,0,0,-1,741,1387,-5.38264,-4.40043
-476,-363,-5.87323,4.30933,0,0,0,0,0,0,0,-1,748,1387,-5.87326,-4.30929
-469,-363,-5.2547,3.62427,0,0,0,0,0,0,0,-1,755,1387,-5.25468,-3.62425
-462,-363,-6.51111,-1.99341,0,0,0,0,0,0,0,-1,762,1387,-6.51112,1.99341
-455,-363,-6.8446,-2.34521,0,0,0,0,0,0,0,-1,769,1387,-6.8446,2.34527
-448,-363,-7.46906,-2.68921,0,0,0,0,0,0,0,-1,776,1387,-7.46903,2.68915
-441,-363,-8.59491,-2.23914,0,0,0,0,0,0,0,-1,783,1387,-8.59491,2.23911
-434,-363,-9.94299,-1.88953,0,0,0,0,0,0,0,-1,790,1387,-9.94302,1.88958
-427,-363,0,0,0,0,0,0,0,0,0,-1,797,1387,0,0
-420,-363,0,0,0,0,0,0,0,0,0,-1,804,1387,0,0
-413,-363,0,0,0,0,0,0,0,0,0,-1,811,1387,0,0
-406,-363,0,0,0,0,0,0,0,0,0,-1,818,1387,0,0
-399,-363,0,0,0,0,0,0,0,0,0,-1,825,1387,0,0
-392,-363,0,0,0,0,0,0,0,0,0,-1,832,1387,0,0
-385,-363,0,0,0,0,0,0,0,0,0,-1,839,1387,0,0
-378,-363,0,0,0,0,0,0,0,0,0,-1,846,1387,0,0
-371,-363,0,0,0,0,0,0,0,0,0,-1,853,1387,0,0
-364,-363,0,0,0,0,0,0,0,0,0,-1,860,1387,0,0
-357,-363,0,0,0,0,0,0,0,0,0,-1,867,1387,0,0
-350,-363,0,0,0,0,0,0,0,0,0,-1,874,1387,0,0
-343,-363,0,0,0,0,0,0,0,0,0,-1,881,1387,0,0
-336,-363,0,0,0,0,0,0,0,0,0,-1,888,1387,0,0
-329,-363,0,0,0,0,0,0,0,0,0,-1,895,1387,0,0
-322,-363,0,0,0,0,0,0,0,0,0,-1,902,1387,0,0
-315,-363,0,0,0,0,0,0,0,0,0,-1,909,1387,0,0
-308,-363,0,0,0,0,0,0,0,0,0,-1,916,1387,0,0
-301,-363,0,0,0,0,0,0,0,0,0,-1,923,1387,0,0
-294,-363,0,0,0,0,0,0,0,0,0,-1,930,1387,0,0
-287,-363,0,0,0,0,0,0,0,0,0,-1,937,1387,0,0
-280,-363,0,0,0,0,0,0,0,0,0,-1,944,1387,0,0
-273,-363,0,0,0,0,0,0,0,0,0,-1,951,1387,0,0
-266,-363,0,0,0,0,0,0,0,0,0,-1,958,1387,0,0
-259,-363,0,0,0,0,0,0,0,0,0,-1,965,1387,0,0
-252,-363,0,0,0,0,0,0,0,0,0,-1,972,1387,0,0
-245,-363,0,0,0,0,0,0,0,0,0,-1,979,1387,0,0
-238,-363,0,0,0,0,0,0,0,0,0,-1,986,1387,0,0
-231,-363,0,0,0,0,0,0,0,0,0,-1,993,1387,0,0
-224,-363,0,0,0,0,0,0,0,0,0,-1,1000,1387,0,0
-217,-363,0,0,0,0,0,0,0,0,0,-1,1007,1387,0,0
-210,-363,0,0,0,0,0,0,0,0,0,-1,1014,1387,0,0
-203,-363,0,0,0,0,0,0,0,0,0,-1,1021,1387,0,0
-196,-363,0,0,0,0,0,0,0,0,0,-1,1028,1387,0,0
-189,-363,0,0,0,0,0,0,0,0,0,-1,1035,1387,0,0
-182,-363,0,0,0,0,0,0,0,0,0,-1,1042,1387,0,0
-175,-363,0,0,0,0,0,0,0,0,0,-1,1049,1387,0,0
-168,-363,0,0,0,0,0,0,0,0,0,-1,1056,1387,0,0
-161,-363,0,0,0,0,0,0,0,0,0,-1,1063,1387,0,0
-154,-363,0,0,0,0,0,0,0,0,0,-1,1070,1387,0,0
-147,-363,0,0,0,0,0,0,0,0,0,-1,1077,1387,0,0
-140,-363,0,0,0,0,0,0,0,0,0,-1,1084,1387,0,0
-133,-363,0,0,0,0,0,0,0,0,0,-1,1091,1387,0,0
-126,-363,0,0,0,0,0,0,0,0,0,-1,1098,1387,0,0
-119,-363,0,0,0,0,0,0,0,0,0,-1,1105,1387,0,0
-112,-363,0,0,0,0,0,0,0,0,0,-1,1112,1387,0,0
-105,-363,0,0,0,0,0,0,0,0,0,-1,1119,1387,0,0
-98,-363,0,0,0,0,0,0,0,0,0,-1,1126,1387,0,0
-91,-363,0,0,0,0,0,0,0,0,0,-1,1133,1387,0,0
-84,-363,0,0,0,0,0,0,0,0,0,-1,1140,1387,0,0
-77,-363,0,0,0,0,0,0,0,0,0,-1,1147,1387,0,0
-70,-363,0,0,0,0,0,0,0,0,0,-1,1154,1387,0,0
-63,-363,0,0,0,0,0,0,0,0,0,-1,1161,1387,0,0
-56,-363,0,0,0,0,0,0,0,0,0,-1,1168,1387,0,0
-49,-363,0,0,0,0,0,0,0,0,0,-1,1175,1387,0,0
-42,-363,0,0,0,0,0,0,0,0,0,-1,1182,1387,0,0
-35,-363,0,0,0,0,0,0,0,0,0,-1,1189,1387,0,0
-28,-363,0,0,0,0,0,0,0,0,0,-1,1196,1387,0,0
-21,-363,0,0,0,0,0,0,0,0,0,-1,1203,1387,0,0
-14,-363,0,0,0,0,0,0,0,0,0,-1,1210,1387,0,0
-7,-363,0,0,0,0,0,0,0,0,0,-1,1217,1387,0,0
0,-363,0,0,0,0,0,0,0,0,0,-1,1224,1387,0,0
7,-363,0,0,0,0,0,0,0,0,0,-1,1231,1387,0,0
14,-363,0,0,0,0,0,0,0,0,0,-1,1238,1387,0,0
21,-363,0,0,0,0,0,0,0,0,0,-1,1245,1387,0,0
28,-363,0,0,0,0,0,0,0,0,0,-1,1252,1387,0,0
35,-363,0,0,0,0,0,0,0,0,0,-1,1259,1387,0,0
42,-363,0,0,0,0,0,0,0,0,0,-1,1266,1387,0,0
49,-363,0,0,0,0,0,0,0,0,0,-1,1273,1387,0,0
56,-363,0,0,0,0,0,0,0,0,0,-1,1280,1387,0,0
63,-363,0,0,0,0,0,0,0,0,0,-1,1287,1387,0,0
70,-363,0,0,0,0,0,0,0,0,0,-1,1294,1387,0,0
77,-363,0,0,0,0,0,0,0,0,0,-1,1301,1387,0,0
84,-363,0,0,0,0,0,0,0,0,0,-1,1308,1387,0,0
91,-363,0,0,0,0,0,0,0,0,0,-1,1315,1387,0,0
98,-363,0,0,0,0,0,0,0,0,0,-1,1322,1387,0,0
105,-363,0,0,0,0,0,0,0,0,0,-1,1329,1387,0,0
112,-363,0,0,0,0,0,0,0,0,0,-1,1336,1387,0,0
119,-363,0,0,0,0,0,0,0,0,0,-1,1343,1387,0,0
126,-363,0,0,0,0,0,0,0,0,0,-1,1350,1387,0,0
133,-363,0,0,0,0,0,0,0,0,0,-1,1357,1387,0,0
140,-363,0,0,0,0,0,0,0,0,0,-1,1364,1387,0,0
147,-363,0,0,0,0,0,0,0,0,0,-1,1371,1387,0,0
154,-363,0,0,0,0,0,0,0,0,0,-1,1378,1387,0,0
161,-363,0,0,0,0,0,0,0,0,0,-1,1385,1387,0,0
168,-363,0,0,0,0,0,0,0,0,0,-1,1392,1387,0,0
175,-363,0,0,0,0,0,0,0,0,0,-1,1399,1387,0,0
182,-363,0,0,0,0,0,0,0,0,0,-1,1406,1387,0,0
189,-363,0,0,0,0,0,0,0,0,0,-1,1413,1387,0,0
196,-363,0,0,0,0,0,0,0,0,0,-1,1420,1387,0,0
203,-363,0,0,0,0,0,0,0,0,0,-1,1427,1387,0,0
210,-363,0,0,0,0,0,0,0,0,0,-1,1434,1387,0,0
217,-363,0,0,0,0,0,0,0,0,0,-1,1441,1387,0,0
224,-363,0,0,0,0,0,0,0,0,0,-1,1448,1387,0,0
231,-363,0,0,0,0,0,0,0,0,0,-1,1455,1387,0,0
238,-363,0,0,0,0,0,0,0,0,0,-1,1462,1387,0,0
245,-363,0,0,0,0,0,0,0,0,0,-1,1469,1387,0,0
252,-363,0,0,0,0,0,0,0,0,0,-1,1476,1387,0,0
259,-363,0,0,0,0,0,0,0,0,0,-1,1483,1387,0,0
266,-363,0,0,0,0,0,0,0,0,0,-1,1490,1387,0,0
273,-363,0,0,0,0,0,0,0,0,0,-1,1497,1387,0,0
280,-363,0,0,0,0,0,0,0,0,0,-1,1504,1387,0,0
287,-363,0,0,0,0,0,0,0,0,0,-1,1511,1387,0,0
294,-363,0,0,0,0,0,0,0,0,0,-1,1518,1387,0,0
301,-363,0,0,0,0,0,0,0,0,0,-1,1525,1387,0,0
308,-363,0,0,0,0,0,0,0,0,0,-1,1532,1387,0,0
315,-363,0,0,0,0,0,0,0,0,0,-1,1539,1387,0,0
322,-363,0,0,0,0,0,0,0,0,0,-1,1546,1387,0,0
329,-363,0,0,0,0,0,0,0,0,0,-1,1553,1387,0,0
336,-363,0,0,0,0,0,0,0,0,0,-1,1560,1387,0,0
343,-363,0,0,0,0,0,0,0,0,0,-1,1567,1387,0,0
350,-363,0,0,0,0,0,0,0,0,0,-1,1574,1387,0,0
357,-363,0,0,0,0,0,0,0,0,0,-1,1581,1387,0,0
364,-363,0,0,0,0,0,0,0,0,0,-1,1588,1387,0,0
371,-363,0,0,0,0,0,0,0,0,0,-1,1595,1387,0,0
378,-363,0,0,0,0,0,0,0,0,0,-1,1602,1387,0,0
385,-363,0,0,0,0,0,0,0,0,0,-1,1609,1387,0,0
392,-363,0,0,0,0,0,0,0,0,0,-1,1616,1387,0,0
399,-363,0,0,0,0,0,0,0,0,0,-1,1623,1387,0,0
406,-363,0,0,0,0,0,0,0,0,0,-1,1630,1387,0,0
413,-363,0,0,0,0,0,0,0,0,0,-1,1637,1387,0,0
420,-363,0,0,0,0,0,0,0,0,0,-1,1644,1387,0,0
427,-363,0,0,0,0,0,0,0,0,0,-1,1651,1387,0,0
434,-363,0,0,0,0,0,0,0,0,0,-1,1658,1387,0,0
441,-363,0,0,0,0,0,0,0,0,0,-1,1665,1387,0,0
448,-363,0,0,0,0,0,0,0,0,0,-1,1672,1387,0,0
455,-363,0,0,0,0,0,0,0,0,0,-1,1679,1387,0,0
462,-363,0,0,0,0,0,0,0,0,0,-1,1686,1387,0,0
469,-363,0,0,0,0,0,0,0,0,0,-1,1693,1387,0,0
476,-363,0,0,0,0,0,0,0,0,0,-1,1700,1387,0,0
483,-363,0,0,0,0,0,0,0,0,0,-1,1707,1387,0,0
490,-363,0,0,0,0,0,0,0,0,0,-1,1714,1387,0,0
497,-363,0,0,0,0,0,0,0,0,0,-1,1721,1387,0,0
504,-363,0,0,0,0,0,0,0,0,0,-1,1728,1387,0,0
511,-363,0,0,0,0,0,0,0,0,0,-1,1735,1387,0,0
518,-363,0,0,0,0,0,0,0,0,0,-1,1742,1387,0,0
525,-363,0,0,0,0,0,0,0,0,0,-1,1749,1387,0,0
532,-363,0,0,0,0,0,0,0,0,0,-1,1756,1387,0,0
539,-363,0,0,0,0,0,0,0,0,0,-1,1763,1387,0,0
546,-363,0,0,0,0,0,0,0,0,0,-1,1770,1387,0,0
553,-363,18.856,4.02698,0,0,0,0,0,0,0,-1,1777,1387,18.8559,-4.02694
560,-363,18.1256,3.77698,0,0,0,0,0,0,0,-1,1784,1387,18.1256,-3.77696
567,-363,17.4187,3.51648,0,0,0,0,0,0,0,-1,1791,1387,17.4187,-3.51649
574,-363,16.9084,3.11743,0,0,0,0,0,0,0,-1,1798,1387,16.9085,-3.11737
581,-363,16.3706,3.12317,0,0,0,0,0,0,0,-1,1805,1387,16.3706,-3.12313
588,-363,14.8104,-0.280762,0,0,0,0,0,0,0,-1,1812,1387,14.8104,0.280812
595,-363,12.2661,5.42249,0,0,0,0,0,0,0,-1,1819,1387,12.2661,-5.4225
602,-363,12.458,5.27429,-0.0132576,0.0233797,0.032837,0.0426621,-0.03254,1.03983,0.0435489,0.0489705,1826,1387,12.4581,-5.2743
609,-363,12.442,5.55457,-0.0135008,0.0124504,0.0266821,0.0291447,-0.030195,1.01171,0.0342616,0.0448255,1833,1387,12.442,-5.55452
616,-363,12.3538,5.42773,-0.0130137,0.0051957,0.021507,0.0194458,-0.0272638,0.985628,0.0270934,0.044919,1840,1387,12.3537,-5.42777
623,-363,12.3198,5.47388,-0.0118427,0.000692391,0.0171184,0.0126545,-0.0238048,0.960884,0.0213754,0.0418096,1847,1387,12.3198,-5.47392
630,-363,12.3324,5.61804,-0.0102615,-0.00181764,0.013403,0.00801271,-0.0200918,0.937977,0.0167182,0.0365738,1854,1387,12.3324,-5.61809
637,-363,12.106,5.82642,-0.00850424,-0.00293701,0.0102763,0.00492598,-0.0163672,0.917663,0.0128716,0.0285178,1861,1387,12.1059,-5.82645
644,-363,12.2103,5.77954,-0.00673923,-0.00314,0.00770556,0.00297331,-0.0128525,0.900116,0.00971237,0.0114772,1868,1387,12.2103,-5.77955
651,-363,12.2216,5.57397,-0.00502842,-0.00281828,0.00566758,0.00185096,-0.00969766,0.88168,0.00716227,0.0105762,1875,1387,12.2216,-5.574
658,-363,12.226,5.39868,-0.00354183,-0.00329428,0.00407327,0.000657099,-0.0074932,0.800587,0.00522828,0.0112897,1882,1387,12.226,-5.3987
665,-363,12.2126,5.24146,-0.00188664,-0.00345842,0.00259723,4.09917e-05,-0.00538605,0.638483,0.00360444,0.0111267,1889,1387,12.2126,-5.24146
672,-363,12.2179,5.07971,-0.000220433,-0.00377753,0.00185516,0.000571012,-0.00456898,0.40324,0.00325307,0.012896,1896,1387,12.2179,-5.07975
679,-363,12.1976,4.90088,0.00338524,-0.00534603,0.00126885,0.00356589,-0.00552669,0.141426,0.00529014,0.0145905,1903,1387,12.1976,-4.90086
686,-363,12.2058,4.7417,0.0089228,-0.00776277,0.000755926,0.00895698,-0.00779694,0.0451808,0.00968061,0.0144636,1910,1387,12.2058,-4.74171
693,-363,12.2455,4.56995,0.0146713,-0.0112976,0.00026394,0.014674,-0.0113002,0.0101623,0.0150383,0.0132615,1917,1387,12.2455,-4.56996
700,-363,12.3041,4.37317,0.022561,-0.0161988,-0.000191351,0.022562,-0.0161997,-0.00493667,0.0224793,0.0171947,1924,1387,12.3041,-4.37316
707,-363,12.2256,4.10852,0.0334556,-0.0225723,-0.000937838,0.0334713,-0.022588,-0.0167325,0.0325685,0.0352936,1931,1387,12.2256,-4.10848
714,-363,12.09,3.88953,0.0484963,-0.0299216,-0.00220957,0.0485585,-0.0299838,-0.0281471,0.0457672,0.0498948,1938,1387,12.0899,-3.88952
721,-363,12.0538,3.64819,0,0,0,0,0,0,0,-1,1945,1387,12.0539,-3.6482
728,-363,13.8644,4.52063,0.0932346,-0.0490074,-0.00664932,0.0935448,-0.0493175,-0.046611,0.0837888,0.0461737,1952,1387,13.8644,-4.52064
735,-363,14.8151,4.4552,0.124155,-0.0597928,-0.0103651,0.124738,-0.060375,-0.0561114,0.109007,0.0442637,1959,1387,14.8151,-4.45516
742,-363,16.0571,4.84436,0,0,0,0,0,0,0,-1,1966,1387,16.0571,-4.84438
749,-363,0,0,0,0,0,0,0,0,0,-1,1973,1387,0,0
756,-363,0,0,0,0,0,0,0,0,0,-1,1980,1387,0,0
763,-363,0,0,0,0,0,0,0,0,0,-1,1987,1387,0,0
770,-363,0,0,0,0,0,0,0,0,0,-1,1994,1387,0,0
777,-363,0,0,0,0,0,0,0,0,0,-1,2001,1387,0,0
784,-363,0,0,0,0,0,0,0,0,0,-1,2008,1387,0,0
791,-363,0,0,0,0,0,0,0,0,0,-1,2015,1387,0,0
798,-363,0,0,0,0,0,0,0,0,0,-1,2022,1387,0,0
805,-363,0,0,0,0,0,0,0,0,0,-1,2029,1387,0,0
812,-363,0,0,0,0,0,0,0,0,0,-1,2036,1387,0,0
-700,-370,0,0,0,0,0,0,0,0,0,-1,524,1394,0,0
-693,-370,0,0,0,0,0,0,0,0,0,-1,531,1394,0,0
-686,-370,0,0,0,0,0,0,0,0,0,-1,538,1394,0,0
-679,-370,0,0,0,0,0,0,0,0,0,-1,545,1394,0,0
-672,-370,0,0,0,0,0,0,0,0,0,-1,552,1394,0,0
-665,-370,0,0,0,0,0,0,0,0,0,-1,559,1394,0,0
-658,-370,0,0,0,0,0,0,0,0,0,-1,566,1394,0,0
-651,-370,0,0,0,0,0,0,0,0,0,-1,573,1394,0,0
-644,-370,0,0,0,0,0,0,0,0,0,-1,580,1394,0,0
-637,-370,0,0,0,0,0,0,0,0,0,-1,587,1394,0,0
-630,-370,0,0,0,0,0,0,0,0,0,-1,594,1394,0,0
-623,-370,-10.1758,-7.10486,0,0,0,0,0,0,0,-1,601,1394,-10.1758,7.10483
-616,-370,-8.43085,-2.15503,0,0,0,0,0,0,0,-1,608,1394,-8.43082,2.15508
-609,-370,-7.04437,-0.782349,0.0403278,-0.00252336,0.0428214,0.0667847,-0.0289802,0.553435,0.0567077,0.0498729,615,1394,-7.04438,0.78235
-602,-370,-5.81281,0.541992,0.0355408,-0.00552815,0.0401793,0.0601288,-0.0301162,0.549166,0.0530547,0.0499869,622,1394,-5.81282,-0.542034
-595,-370,-4.88495,1.85388,0.0288085,-0.00618202,0.03585,0.0512044,-0.0285779,0.558392,0.0466757,0.049724,629,1394,-4.88494,-1.85392
-588,-370,-4.14197,2.94641,0,0,0,0,0,0,0,-1,636,1394,-4.14197,-2.94639
-581,-370,-4.42932,0.557251,0.0154203,-0.00482571,0.0256501,0.0328727,-0.0222781,0.597452,0.0320365,0.0437462,643,1394,-4.42934,-0.557255
-574,-370,-4.65894,2.29944,0.00979806,-0.00378794,0.0202421,0.0243566,-0.0183465,0.623509,0.0247359,0.0360943,650,1394,-4.65893,-2.29945
-567,-370,-4.71558,2.42322,0.00532716,-0.00257596,0.0151717,0.0170534,-0.0143022,0.658,0.0181264,0.0214828,657,1394,-4.71559,-2.42321
-560,-370,-4.7829,2.54858,0.0016227,-0.00104727,0.0105544,0.0109263,-0.0103508,0.722489,0.0122858,0.0150078,664,1394,-4.78288,-2.54859
-553,-370,-4.77838,2.75732,-0.00168986,0.000393097,0.00651745,0.00595176,-0.00724852,0.864627,0.00763343,0.0104141,671,1394,-4.77836,-2.75734
-546,-370,-4.74182,2.94604,-0.00301166,0.000914551,0.00333855,0.00282439,-0.00492149,1.05118,0.00452639,0.0129751,678,1394,-4.74184,-2.94608
-539,-370,-4.72479,3.17883,-0.00313409,0.000570408,0.00061054,0.000668438,-0.00323212,1.41159,0.00240868,0.016797,685,1394,-4.72477,-3.17884
-532,-370,-4.75409,3.40576,-0.00230243,-0.000796599,-0.0012998,-4.73981e-05,-0.00305163,-1.04791,0.00201881,0.0202429,692,1394,-4.75411,-3.40577
-525,-370,-4.74518,3.58679,-0.00181389,-0.00260904,-0.00336151,0.00117347,-0.00559641,-0.726535,0.0041774,0.0142829,699,1394,-4.74519,-3.58677
-518,-370,-4.74481,3.75671,-0.00157927,-0.0045309,-0.00519068,0.00234132,-0.00845149,-0.646893,0.00655564,0.0106076,706,1394,-4.7448,-3.7567
-511,-370,-4.73846,3.9491,-0.0021158,-0.00682888,-0.00730688,0.00320514,-0.0121498,-0.629409,0.00935315,0.013754,713,1394,-4.73849,-3.94907
-504,-370,-4.66931,4.18909,-0.00358747,-0.00984204,-0.0101592,0.00391491,-0.0173444,-0.636087,0.0130649,0.0219839,720,1394,-4.66931,-4.18911
-497,-370,-4.44806,4.35071,-0.00562163,-0.0141611,-0.0139718,0.00471828,-0.024501,-0.637106,0.0181128,0.0439906,727,1394,-4.44807,-4.3507
-490,-370,-4.82428,4.19519,-0.00838536,-0.0200904,-0.0187003,0.00535679,-0.0338326,-0.633744,0.0245364,0.044436,734,1394,-4.82426,-4.19525
-483,-370,-5.51074,4.48889,0,0,0,0,0,0,0,-1,741,1394,-5.51076,-4.4889
-476,-370,-4.7019,2.4342,0,0,0,0,0,0,0,-1,748,1394,-4.70191,-2.43426
-469,-370,-4.664,2.2168,0,0,0,0,0,0,0,-1,755,1394,-4.66399,-2.21682
-462,-370,-6.32324,-1.13013,0,0,0,0,0,0,0,-1,762,1394,-6.32324,1.13009
-455,-370,-6.31793,-1.87244,0,0,0,0,0,0,0,-1,769,1394,-6.31792,1.8724
-448,-370,-6.85388,-2.83984,0,0,0,0,0,0,0,-1,776,1394,-6.85385,2.83988
-441,-370,-8.422,-2.47058,0,0,0,0,0,0,0,-1,783,1394,-8.42202,2.47059
-434,-370,-9.50006,-2.39478,0,0,0,0,0,0,0,-1,790,1394,-9.50008,2.39472
-427,-370,0,0,0,0,0,0,0,0,0,-1,797,1394,0,0
-420,-370,0,0,0,0,0,0,0,0,0,-1,804,1394,0,0
-413,-370,0,0,0,0,0,0,0,0,0,-1,811,1394,0,0
-406,-370,0,0,0,0,0,0,0,0,0,-1,818,1394,0,0
-399,-370,0,0,0,0,0,0,0,0,0,-1,825,1394,0,0
-392,-370,0,0,0,0,0,0,0,0,0,-1,832,1394,0,0
-385,-370,0,0,0,0,0,0,0,0,0,-1,839,1394,0,0
-378,-370,0,0,0,0,0,0,0,0,0,-1,846,1394,0,0
-371,-370,0,0,0,0,0,0,0,0,0,-1,853,1394,0,0
-364,-370,0,0,0,0,0,0,0,0,0,-1,860,1394,0,0
-357,-370,0,0,0,0,0,0,0,0,0,-1,867,1394,0,0
-350,-370,0,0,0,0,0,0,0,0,0,-1,874,1394,0,0
-343,-370,0,0,0,0,0,0,0,0,0,-1,881,1394,0,0
-336,-370,0,0,0,0,0,0,0,0,0,-1,888,1394,0,0
-329,-370,0,0,0,0,0,0,0,0,0,-1,895,1394,0,0
-322,-370,0,0,0,0,0,0,0,0,0,-1,902,1394,0,0
-315,-370,0,0,0,0,0,0,0,0,0,-1,909,1394,0,0
-308,-370,0,0,0,0,0,0,0,0,0,-1,916,1394,0,0
-301,-370,0,0,0,0,0,0,0,0,0,-1,923,1394,0,0
-294,-370,0,0,0,0,0,0,0,0,0,-1,930,1394,0,0
-287,-370,0,0,0,0,0,0,0,0,0,-1,937,1394,0,0
-280,-370,0,0,0,0,0,0,0,0,0,-1,944,1394,0,0
-273,-370,0,0,0,0,0,0,0,0,0,-1,951,1394,0,0
-266,-370,0,0,0,0,0,0,0,0,0,-1,958,1394,0,0
-259,-370,0,0,0,0,0,0,0,0,0,-1,965,1394,0,0
-252,-370,0,0,0,0,0,0,0,0,0,-1,972,1394,0,0
-245,-370,0,0,0,0,0,0,0,0,0,-1,979,1394,0,0
-238,-370,0,0,0,0,0,0,0,0,0,-1,986,1394,0,0
-231,-370,0,0,0,0,0,0,0,0,0,-1,993,1394,0,0
-224,-370,0,0,0,0,0,0,0,0,0,-1,1000,1394,0,0
-217,-370,0,0,0,0,0,0,0,0,0,-1,1007,1394,0,0
-210,-370,0,0,0,0,0,0,0,0,0,-1,1014,1394,0,0
-203,-370,0,0,0,0,0,0,0,0,0,-1,1021,1394,0,0
-196,-370,0,0,0,0,0,0,0,0,0,-1,1028,1394,0,0
-189,-370,0,0,0,0,0,0,0,0,0,-1,1035,1394,0,0
-182,-370,0,0,0,0,0,0,0,0,0,-1,1042,1394,0,0
-175,-370,0,0,0,0,0,0,0,0,0,-1,1049,1394,0,0
-168,-370,0,0,0,0,0,0,0,0,0,-1,1056,1394,0,0
-161,-370,0,0,0,0,0,0,0,0,0,-1,1063,1394,0,0
-154,-370,0,0,0,0,0,0,0,0,0,-1,1070,1394,0,0
-147,-370,0,0,0,0,0,0,0,0,0,-1,1077,1394,0,0
-140,-370,0,0,0,0,0,0,0,0,0,-1,1084,1394,0,0
-133,-370,0,0,0,0,0,0,0,0,0,-1,1091,1394,0,0
-126,-370,0,0,0,0,0,0,0,0,0,-1,1098,1394,0,0
-119,-370,0,0,0,0,0,0,0,0,0,-1,1105,1394,0,0
-112,-370,0,0,0,0,0,0,0,0,0,-1,1112,1394,0,0
-105,-370,0,0,0,0,0,0,0,0,0,-1,1119,1394,0,0
-98,-370,0,0,0,0,0,0,0,0,0,-1,1126,1394,0,0
-91,-370,0,0,0,0,0,0,0,0,0,-1,1133,1394,0,0
-84,-370,0,0,0,0,0,0,0,0,0,-1,1140,1394,0,0
-77,-370,0,0,0,0,0,0,0,0,0,-1,1147,1394,0,0
-70,-370,0,0,0,0,0,0,0,0,0,-1,1154,1394,0,0
-63,-370,0,0,0,0,0,0,0,0,0,-1,1161,1394,0,0
-56,-370,0,0,0,0,0,0,0,0,0,-1,1168,1394,0,0
-49,-370,0,0,0,0,0,0,0,0,0,-1,1175,1394,0,0
-42,-370,0,0,0,0,0,0,0,0,0,-1,1182,1394,0,0
-35,-370,0,0,0,0,0,0,0,0,0,-1,1189,1394,0,0
-28,-370,0,0,0,0,0,0,0,0,0,-1,1196,1394,0,0
-21,-370,0,0,0,0,0,0,0,0,0,-1,1203,1394,0,0
-14,-370,0,0,0,0,0,0,0,0,0,-1,1210,1394,0,0
-7,-370,0,0,0,0,0,0,0,0,0,-1,1217,1394,0,0
0,-370,0,0,0,0,0,0,0,0,0,-1,1224,1394,0,0
7,-370,0,0,0,0,0,0,0,0,0,-1,1231,1394,0,0
14,-370,0,0,0,0,0,0,0,0,0,-1,1238,1394,0,0
21,-370,0,0,0,0,0,0,0,0,0,-1,1245,1394,0,0
28,-370,0,0,0,0,0,0,0,0,0,-1,1252,1394,0,0
35,-370,0,0,0,0,0,0,0,0,0,-1,1259,1394,0,0
42,-370,0,0,0,0,0,0,0,0,0,-1,1266,1394,0,0
49,-370,0,0,0,0,0,0,0,0,0,-1,1273,1394,0,0
56,-370,0,0,0,0,0,0,0,0,0,-1,1280,1394,0,0
63,-370,0,0,0,0,0,0,0,0,0,-1,1287,1394,0,0
70,-370,0,0,0,0,0,0,0,0,0,-1,1294,1394,0,0
77,-370,0,0,0,0,0,0,0,0,0,-1,1301,1394,0,0
84,-370,0,0,0,0,0,0,0,0,0,-1,1308,1394,0,0
91,-370,0,0,0,0,0,0,0,0,0,-1,1315,1394,0,0
98,-370,0,0,0,0,0,0,0,0,0,-1,1322,1394,0,0
105,-370,0,0,0,0,0,0,0,0,0,-1,1329,1394,0,0
112,-370,0,0,0,0,0,0,0,0,0,-1,1336,1394,0,0
119,-370,0,0,0,0,0,0,0,0,0,-1,1343,1394,0,0
126,-370,0,0,0,0,0,0,0,0,0,-1,1350,1394,0,0
133,-370,0,0,0,0,0,0,0,0,0,-1,1357,1394,0,0
140,-370,0,0,0,0,0,0,0,0,0,-1,1364,1394,0,0
147,-370,0,0,0,0,0,0,0,0,0,-1,1371,1394,0,0
154,-370,0,0,0,0,0,0,0,0,0,-1,1378,1394,0,0
161,-370,0,0,0,0,0,0,0,0,0,-1,1385,1394,0,0
168,-370,0,0,0,0,0,0,0,0,0,-1,1392,1394,0,0
175,-370,0,0,0,0,0,0,0,0,0,-1,1399,1394,0,0
182,-370,0,0,0,0,0,0,0,0,0,-1,1406,1394,0,0
189,-370,0,0,0,0,0,0,0,0,0,-1,1413,1394,0,0
196,-370,0,0,0,0,0,0,0,0,0,-1,1420,1394,0,0
203,-370,0,0,0,0,0,0,0,0,0,-1,1427,1394,0,0
210,-370,0,0,0,0,0,0,0,0,0,-1,1434,1394,0,0
217,-370,0,0,0,0,0,0,0,0,0,-1,1441,1394,0,0
224,-370,0,0,0,0,0,0,0,0,0,-1,1448,1394,0,0
231,-370,0,0,0,0,0,0,0,0,0,-1,1455,1394,0,0
238,-370,0,0,0,0,0,0,0,0,0,-1,1462,1394,0,0
245,-370,0,0,0,0,0,0,0,0,0,-1,1469,1394,0,0
252,-370,0,0,0,0,0,0,0,0,0,-1,1476,1394,0,0
259,-370,0,0,0,0,0,0,0,0,0,-1,1483,1394,0,0
266,-370,0,0,0,0,0,0,0,0,0,-1,1490,1394,0,0
273,-370,0,0,0,0,0,0,0,0,0,-1,1497,1394,0,0
280,-370,0,0,0,0,0,0,0,0,0,-1,1504,1394,0,0
287,-370,0,0,0,0,0,0,0,0,0,-1,1511,1394,0,0
294,-370,0,0,0,0,0,0,0,0,0,-1,1518,1394,0,0
301,-370,0,0,0,0,0,0,0,0,0,-1,1525,1394,0,0
308,-370,0,0,0,0,0,0,0,0,0,-1,1532,1394,0,0
315,-370,0,0,0,0,0,0,0,0,0,-1,1539,1394,0,0
322,-370,0,0,0,0,0,0,0,0,0,-1,1546,1394,0,0
329,-370,0,0,0,0,0,0,0,0,0,-1,1553,1394,0,0
336,-370,0,0,0,0,0,0,0,0,0,-1,1560,1394,0,0
343,-370,0,0,0,0,0,0,0,0,0,-1,1567,1394,0,0
350,-370,0,0,0,0,0,0,0,0,0,-1,1574,1394,0,0
357,-370,0,0,0,0,0,0,0,0,0,-1,1581,1394,0,0
364,-370,0,0,0,0,0,0,0,0,0,-1,1588,1394,0,0
371,-370,0,0,0,0,0,0,0,0,0,-1,1595,1394,0,0
378,-370,0,0,0,0,0,0,0,0,0,-1,1602,1394,0,0
385,-370,0,0,0,0,0,0,0,0,0,-1,1609,1394,0,0
392,-370,0,0,0,0,0,0,0,0,0,-1,1616,1394,0,0
399,-370,0,0,0,0,0,0,0,0,0,-1,1623,1394,0,0
406,-370,0,0,0,0,0,0,0,0,0,-1,1630,1394,0,0
413,-370,0,0,0,0,0,0,0,0,0,-1,1637,1394,0,0
420,-370,0,0,0,0,0,0,0,0,0,-1,1644,1394,0,0
427,-370,0,0,0,0,0,0,0,0,0,-1,1651,1394,0,0
434,-370,0,0,0,0,0,0,0,0,0,-1,1658,1394,0,0
441,-370,0,0,0,0,0,0,0,0,0,-1,1665,1394,0,0
448,-370,0,0,0,0,0,0,0,0,0,-1,1672,1394,0,0
455,-370,0,0,0,0,0,0,0,0,0,-1,1679,1394,0,0
462,-370,0,0,0,0,0,0,0,0,0,-1,1686,1394,0,0
469,-370,0,0,0,0,0,0,0,0,0,-1,1693,1394,0,0
476,-370,0,0,0,0,0,0,0,0,0,-1,1700,1394,0,0
483,-370,0,0,0,0,0,0,0,0,0,-1,1707,1394,0,0
490,-370,0,0,0,0,0,0,0,0,0,-1,1714,1394,0,0
497,-370,0,0,0,0,0,0,0,0,0,-1,1721,1394,0,0
504,-370,0,0,0,0,0,0,0,0,0,-1,1728,1394,0,0
511,-370,0,0,0,0,0,0,0,0,0,-1,1735,1394,0,0
518,-370,0,0,0,0,0,0,0,0,0,-1,1742,1394,0,0
525,-370,0,0,0,0,0,0,0,0,0,-1,1749,1394,0,0
532,-370,0,0,0,0,0,0,0,0,0,-1,1756,1394,0,0
539,-370,0,0,0,0,0,0,0,0,0,-1,1763,1394,0,0
546,-370,16.7576,1.23132,0,0,0,0,0,0,0,-1,1770,1394,16.7576,-1.23132
553,-370,18.1315,3.72559,0,0,0,0,0,0,0,-1,1777,1394,18.1314,-3.72561
560,-370,17.321,3.41821,0,0,0,0,0,0,0,-1,1784,1394,17.321,-3.41819
567,-370,16.6848,3.04944,0,0,0,0,0,0,0,-1,1791,1394,16.6848,-3.04944
574,-370,16.0674,2.91907,0,0,0,0,0,0,0,-1,1798,1394,16.0673,-2.91905
581,-370,15.7441,2.96643,0,0,0,0,0,0,0,-1,1805,1394,15.7441,-2.96644
588,-370,15.6188,2.86438,0,0,0,0,0,0,0,-1,1812,1394,15.6188,-2.86432
595,-370,14.8816,2.97034,0,0,0,0,0,0,0,-1,1819,1394,14.8816,-2.97028
602,-370,12.1699,4.44067,0,0,0,0,0,0,0,-1,1826,1394,12.17,-4.44071
609,-370,12.3739,5.37305,0,0,0,0,0,0,0,-1,1833,1394,12.3739,-5.37311
616,-370,12.2211,5.60767,0,0,0,0,0,0,0,-1,1840,1394,12.221,-5.60766
623,-370,12.2976,5.80994,0,0,0,0,0,0,0,-1,1847,1394,12.2976,-5.8099
630,-370,12.1191,5.9613,-0.0102113,-0.00439143,0.0142115,0.00720503,-0.0218077,0.886381,0.0174434,0.0332541,1854,1394,12.1191,-5.96134
637,-370,11.9556,5.97302,-0.00813626,-0.00446537,0.0107218,0.00457698,-0.0171786,0.87017,0.0132444,0.0222211,1861,1394,11.9556,-5.97301
644,-370,12.0363,5.76355,-0.00622452,-0.00397609,0.00790111,0.00288039,-0.013081,0.856067,0.00982259,0.010405,1868,1394,12.0363,-5.7635
651,-370,12.0498,5.58093,-0.00440182,-0.0031891,0.00570071,0.00193741,-0.00952832,0.838381,0.00708685,0.0108132,1875,1394,12.0498,-5.58098
658,-370,12.051,5.40845,-0.00282094,-0.00340383,0.00407004,0.000968075,-0.00719284,0.749655,0.00514835,0.011874,1882,1394,12.0511,-5.40849
665,-370,12.038,5.24243,-0.00107098,-0.0037239,0.00258514,0.000508146,-0.00530303,0.548358,0.00371633,0.0128434,1889,1394,12.0379,-5.2424
672,-370,12.0663,5.08105,0.000634323,-0.00431112,0.00189332,0.00127593,-0.00495272,0.326732,0.00379922,0.0136643,1896,1394,12.0663,-5.08101
679,-370,12.074,4.89624,0.0043659,-0.00644366,0.0014388,0.00455413,-0.00663189,0.130087,0.00649528,0.0132268,1903,1394,12.0739,-4.89623
686,-370,12.0608,4.72815,0.0101567,-0.00961381,0.00112296,0.0102202,-0.00967739,0.0565574,0.0114893,0.0137993,1910,1394,12.0608,-4.72814
693,-370,12.0554,4.5387,0.0163965,-0.0142423,0.000924182,0.0164243,-0.0142701,0.0301273,0.017736,0.0121852,1917,1394,12.0554,-4.53872
700,-370,12.1309,4.3324,0.0251719,-0.0206973,0.000760469,0.0251845,-0.0207099,0.016573,0.0265391,0.0165764,1924,1394,12.1309,-4.33238
707,-370,12.0865,4.25098,0.0373207,-0.0290183,0.000376922,0.0373228,-0.0290205,0.00568151,0.0384032,0.029284,1931,1394,12.0865,-4.251
714,-370,12.0555,4.22034,0,0,0,0,0,0,0,-1,1938,1394,12.0556,-4.22035
721,-370,13.2695,4.4137,0,0,0,0,0,0,0,-1,1945,1394,13.2695,-4.41374
728,-370,14.614,4.88318,0,0,0,0,0,0,0,-1,1952,1394,14.6141,-4.88324
735,-370,15.9586,5.35278,0,0,0,0,0,0,0,-1,1959,1394,15.9586,-5.35274
742,-370,12.6914,4.10376,0,0,0,0,0,0,0,-1,1966,1394,12.6914,-4.10374
749,-370,0,0,0,0,0,0,0,0,0,-1,1973,1394,0,0
756,-370,0,0,0,0,0,0,0,0,0,-1,1980,1394,0,0
763,-370,0,0,0,0,0,0,0,0,0,-1,1987,1394,0,0
770,-370,0,0,0,0,0,0,0,0,0,-1,1994,1394,0,0
777,-370,0,0,0,0,0,0,0,0,0,-1,2001,1394,0,0
784,-370,0,0,0,0,0,0,0,0,0,-1,2008,1394,0,0
791,-370,0,0,0,0,0,0,0,0,0,-1,2015,1394,0,0
798,-370,0,0,0,0,0,0,0,0,0,-1,2022,1394,0,0
805,-370,0,0,0,0,0,0,0,0,0,-1,2029,1394,0,0
812,-370,0,0,0,0,0,0,0,0,0,-1,2036,1394,0,0
-700,-377,0,0,0,0,0,0,0,0,0,-1,524,1401,0,0
-693,-377,0,0,0,0,0,0,0,0,0,-1,531,1401,0,0
-686,-377,0,0,0,0,0,0,0,0,0,-1,538,1401,0,0
-679,-377,0,0,0,0,0,0,0,0,0,-1,545,1401,0,0
-672,-377,0,0,0,0,0,0,0,0,0,-1,552,1401,0,0
-665,-377,0,0,0,0,0,0,0,0,0,-1,559,1401,0,0
-658,-377,0,0,0,0,0,0,0,0,0,-1,566,1401,0,0
-651,-377,0,0,0,0,0,0,0,0,0,-1,573,1401,0,0
-644,-377,0,0,0,0,0,0,0,0,0,-1,580,1401,0,0
-637,-377,0,0,0,0,0,0,0,0,0,-1,587,1401,0,0
-630,-377,0,0,0,0,0,0,0,0,0,-1,594,1401,0,0
-623,-377,0,0,0,0,0,0,0,0,0,-1,601,1401,0,0
-616,-377,-8.87878,-6.72974,0,0,0,0,0,0,0,-1,608,1401,-8.87877,6.72973
-609,-377,-6.92798,-0.228882,0,0,0,0,0,0,0,-1,615,1401,-6.928,0.228857
-602,-377,-5.84314,1.11121,0,0,0,0,0,0,0,-1,622,1401,-5.84313,-1.11116
-595,-377,-4.83807,2.5144,0,0,0,0,0,0,0,-1,629,1401,-4.83808,-2.51442
-588,-377,-4.07349,-0.807861,0,0,0,0,0,0,0,-1,636,1401,-4.07348,0.807881
-581,-377,-4.10376,0.593384,0.0153173,-0.00504103,0.0289864,0.0358599,-0.0255837,0.61654,0.0356395,0.0476707,643,1401,-4.10373,-0.593421
-574,-377,-4.08685,1.69983,0.00871432,-0.0032939,0.0225987,0.0260929,-0.0206725,0.655556,0.0270604,0.0425955,650,1401,-4.08684,-1.69979
-567,-377,-4.47528,2.40796,0.00382678,-0.00179258,0.0168118,0.018062,-0.0160278,0.7026,0.0196935,0.0266124,657,1401,-4.47528,-2.40795
-560,-377,-4.58508,2.56604,0.000363971,-0.000445707,0.011766,0.0117321,-0.0118138,0.768201,0.0135943,0.0187546,664,1401,-4.5851,-2.56599
-553,-377,-4.57446,2.74072,-0.00285871,0.000911174,0.00744444,0.0067056,-0.00865313,0.909393,0.0088911,0.0121782,671,1401,-4.57447,-2.74072
-546,-377,-4.58594,2.979,-0.00394708,0.00136735,0.00402564,0.00353368,-0.00611341,1.07711,0.00563574,0.0154544,678,1401,-4.58596,-2.97906
-539,-377,-4.54205,3.17517,-0.00369786,0.000935655,0.00118999,0.0012234,-0.00398561,1.33354,0.00314521,0.0203468,685,1401,-4.54205,-3.17517
-532,-377,-4.57532,3.38757,-0.00255367,-0.000409981,-0.000618498,-0.000244331,-0.00271931,-1.30911,0.00173717,0.0202263,692,1401,-4.57532,-3.38763
-525,-377,-4.54175,3.58923,-0.0017755,-0.00218878,-0.00254394,0.000570175,-0.00453446,-0.744873,0.00322985,0.0175606,699,1401,-4.54174,-3.58925
-518,-377,-4.55273,3.77124,-0.00117142,-0.00412825,-0.00416624,0.00177094,-0.00707061,-0.614901,0.00540171,0.0117429,706,1401,-4.55271,-3.7713
-511,-377,-4.55139,3.9646,-0.00127234,-0.00637356,-0.00598381,0.00268178,-0.0103277,-0.583933,0.00793164,0.0117077,713,1401,-4.55141,-3.96455
-504,-377,-4.54608,4.18823,-0.00235522,-0.00928086,-0.00849366,0.00335438,-0.0149905,-0.591837,0.0112793,0.0116733,720,1401,-4.5461,-4.18828
-497,-377,-4.37354,4.34961,-0.00395403,-0.0133836,-0.0118537,0.00408812,-0.0214258,-0.596116,0.0158236,0.0196179,727,1401,-4.37354,-4.34955
-490,-377,-4.46185,4.22205,-0.00622619,-0.0189887,-0.016057,0.00467108,-0.029886,-0.596261,0.0216496,0.0414051,734,1401,-4.46183,-4.22199
-483,-377,-4.7536,3.8551,-0.00918797,-0.025739,-0.0212883,0.00537672,-0.0403037,-0.600019,0.028829,0.0440745,741,1401,-4.75362,-3.85509
-476,-377,-4.73706,3.1875,-0.0129623,-0.0342557,-0.0277015,0.00606799,-0.0532861,-0.601933,0.0377098,0.0443738,748,1401,-4.73706,-3.18748
-469,-377,-4.5741,2.6897,0,0,0,0,0,0,0,-1,755,1401,-4.57409,-2.68975
-462,-377,-6.49249,3.61462,0,0,0,0,0,0,0,-1,762,1401,-6.49251,-3.61457
-455,-377,-3.3089,1.23254,0,0,0,0,0,0,0,-1,769,1401,-3.30891,-1.23258
-448,-377,-2.71375,-1.16174,0,0,0,0,0,0,0,-1,776,1401,-2.71377,1.16169
-441,-377,-8.1756,-2.43384,0,0,0,0,0,0,0,-1,783,1401,-8.17558,2.43384
-434,-377,-6.90076,0.886108,0,0,0,0,0,0,0,-1,790,1401,-6.90078,-0.886068
-427,-377,-6.73157,1.24084,0,0,0,0,0,0,0,-1,797,1401,-6.73154,-1.2408
-420,-377,0,0,0,0,0,0,0,0,0,-1,804,1401,0,0
-413,-377,0,0,0,0,0,0,0,0,0,-1,811,1401,0,0
-406,-377,0,0,0,0,0,0,0,0,0,-1,818,1401,0,0
-399,-377,0,0,0,0,0,0,0,0,0,-1,825,1401,0,0
-392,-377,0,0,0,0,0,0,0,0,0,-1,832,1401,0,0
-385,-377,0,0,0,0,0,0,0,0,0,-1,839,1401,0,0
-378,-377,0,0,0,0,0,0,0,0,0,-1,846,1401,0,0
-371,-377,0,0,0,0,0,0,0,0,0,-1,853,1401,0,0
-364,-377,0,0,0,0,0,0,0,0,0,-1,860,1401,0,0
-357,-377,0,0,0,0,0,0,0,0,0,-1,867,1401,0,0
-350,-377,0,0,0,0,0,0,0,0,0,-1,874,1401,0,0
-343,-377,0,0,0,0,0,0,0,0,0,-1,881,1401,0,0
-336,-377,0,0,0,0,0,0,0,0,0,-1,888,1401,0,0
-329,-377,0,0,0,0,0,0,0,0,0,-1,895,1401,0,0
-322,-377,0,0,0,0,0,0,0,0,0,-1,902,1401,0,0
-315,-377,0,0,0,0,0,0,0,0,0,-1,909,1401,0,0
-308,-377,0,0,0,0,0,0,0,0,0,-1,916,1401,0,0
-301,-377,0,0,0,0,0,0,0,0,0,-1,923,1401,0,0
-294,-377,0,0,0,0,0,0,0,0,0,-1,930,1401,0,0
-287,-377,0,0,0,0,0,0,0,0,0,-1,937,1401,0,0
-280,-377,0,0,0,0,0,0,0,0,0,-1,944,1401,0,0
-273,-377,0,0,0,0,0,0,0,0,0,-1,951,1401,0,0
-266,-377,0,0,0,0,0,0,0,0,0,-1,958,1401,0,0
-259,-377,0,0,0,0,0,0,0,0,0,-1,965,1401,0,0
-252,-377,0,0,0,0,0,0,0,0,0,-1,972,1401,0,0
-245,-377,0,0,0,0,0,0,0,0,0,-1,979,1401,0,0
-238,-377,0,0,0,0,0,0,0,0,0,-1,986,1401,0,0
-231,-377,0,0,0,0,0,0,0,0,0,-1,993,1401,0,0
-224,-377,0,0,0,0,0,0,0,0,0,-1,1000,1401,0,0
-217,-377,0,0,0,0,0,0,0,0,0,-1,1007,1401,0,0
-210,-377,0,0,0,0,0,0,0,0,0,-1,1014,1401,0,0
-203,-377,0,0,0,0,0,0,0,0,0,-1,1021,1401,0,0
-196,-377,0,0,0,0,0,0,0,0,0,-1,1028,1401,0,0
-189,-377,0,0,0,0,0,0,0,0,0,-1,1035,1401,0,0
-182,-377,0,0,0,0,0,0,0,0,0,-1,1042,1401,0,0
-175,-377,0,0,0,0,0,0,0,0,0,-1,1049,1401,0,0
-168,-377,0,0,0,0,0,0,0,0,0,-1,1056,1401,0,0
-161,-377,0,0,0,0,0,0,0,0,0,-1,1063,1401,0,0
-154,-377,0,0,0,0,0,0,0,0,0,-1,1070,1401,0,0
-147,-377,0,0,0,0,0,0,0,0,0,-1,1077,1401,0,0
-140,-377,0,0,0,0,0,0,0,0,0,-1,1084,1401,0,0
-133,-377,0,0,0,0,0,0,0,0,0,-1,1091,1401,0,0
-126,-377,0,0,0,0,0,0,0,0,0,-1,1098,1401,0,0
-119,-377,0,0,0,0,0,0,0,0,0,-1,1105,1401,0,0
-112,-377,0,0,0,0,0,0,0,0,0,-1,1112,1401,0,0
-105,-377,0,0,0,0,0,0,0,0,0,-1,1119,1401,0,0
-98,-377,0,0,0,0,0,0,0,0,0,-1,1126,1401,0,0
-91,-377,0,0,0,0,0,0,0,0,0,-1,1133,1401,0,0
-84,-377,0,0,0,0,0,0,0,0,0,-1,1140,1401,0,0
-77,-377,0,0,0,0,0,0,0,0,0,-1,1147,1401,0,0
-70,-377,0,0,0,0,0,0,0,0,0,-1,1154,1401,0,0
-63,-377,0,0,0,0,0,0,0,0,0,-1,1161,1401,0,0
-56,-377,0,0,0,0,0,0,0,0,0,-1,1168,1401,0,0
-49,-377,0,0,0,0,0,0,0,0,0,-1,1175,1401,0,0
-42,-377,0,0,0,0,0,0,0,0,0,-1,1182,1401,0,0
-35,-377,0,0,0,0,0,0,0,0,0,-1,1189,1401,0,0
-28,-377,0,0,0,0,0,0,0,0,0,-1,1196,1401,0,0
-21,-377,0,0,0,0,0,0,0,0,0,-1,1203,1401,0,0
-14,-377,0,0,0,0,0,0,0,0,0,-1,1210,1401,0,0
-7,-377,0,0,0,0,0,0,0,0,0,-1,1217,1401,0,0
0,-377,0,0,0,0,0,0,0,0,0,-1,1224,1401,0,0
7,-377,0,0,0,0,0,0,0,0,0,-1,1231,1401,0,0
14,-377,0,0,0,0,0,0,0,0,0,-1,1238,1401,0,0
21,-377,0,0,0,0,0,0,0,0,0,-1,1245,1401,0,0
28,-377,0,0,0,0,0,0,0,0,0,-1,1252,1401,0,0
35,-377,0,0,0,0,0,0,0,0,0,-1,1259,1401,0,0
42,-377,0,0,0,0,0,0,0,0,0,-1,1266,1401,0,0
49,-377,0,0,0,0,0,0,0,0,0,-1,1273,1401,0,0
56,-377,0,0,0,0,0,0,0,0,0,-1,1280,1401,0,0
63,-377,0,0,0,0,0,0,0,0,0,-1,1287,1401,0,0
70,-377,0,0,0,0,0,0,0,0,0,-1,1294,1401,0,0
77,-377,0,0,0,0,0,0,0,0,0,-1,1301,1401,0,0
84,-377,0,0,0,0,0,0,0,0,0,-1,1308,1401,0,0
91,-377,0,0,0,0,0,0,0,0,0,-1,1315,1401,0,0
98,-377,0,0,0,0,0,0,0,0,0,-1,1322,1401,0,0
105,-377,0,0,0,0,0,0,0,0,0,-1,1329,1401,0,0
112,-377,0,0,0,0,0,0,0,0,0,-1,1336,1401,0,0
119,-377,0,0,0,0,0,0,0,0,0,-1,1343,1401,0,0
126,-377,0,0,0,0,0,0,0,0,0,-1,1350,1401,0,0
133,-377,0,0,0,0,0,0,0,0,0,-1,1357,1401,0,0
140,-377,0,0,0,0,0,0,0,0,0,-1,1364,1401,0,0
147,-377,0,0,0,0,0,0,0,0,0,-1,1371,1401,0,0
154,-377,0,0,0,0,0,0,0,0,0,-1,1378,1401,0,0
161,-377,0,0,0,0,0,0,0,0,0,-1,1385,1401,0,0
168,-377,0,0,0,0,0,0,0,0,0,-1,1392,1401,0,0
175,-377,0,0,0,0,0,0,0,0,0,-1,1399,1401,0,0
182,-377,0,0,0,0,0,0,0,0,0,-1,1406,1401,0,0
189,-377,0,0,0,0,0,0,0,0,0,-1,1413,1401,0,0
196,-377,0,0,0,0,0,0,0,0,0,-1,1420,1401,0,0
203,-377,0,0,0,0,0,0,0,0,0,-1,1427,1401,0,0
210,-377,0,0,0,0,0,0,0,0,0,-1,1434,1401,0,0
217,-377,0,0,0,0,0,0,0,0,0,-1,1441,1401,0,0
224,-377,0,0,0,0,0,0,0,0,0,-1,1448,1401,0,0
231,-377,0,0,0,0,0,0,0,0,0,-1,1455,1401,0,0
238,-377,0,0,0,0,0,0,0,0,0,-1,1462,1401,0,0
245,-377,0,0,0,0,0,0,0,0,0,-1,1469,1401,0,0
252,-377,0,0,0,0,0,0,0,0,0,-1,1476,1401,0,0
259,-377,0,0,0,0,0,0,0,0,0,-1,1483,1401,0,0
266,-377,0,0,0,0,0,0,0,0,0,-1,1490,1401,0,0
273,-377,0,0,0,0,0,0,0,0,0,-1,1497,1401,0,0
280,-377,0,0,0,0,0,0,0,0,0,-1,1504,1401,0,0
287,-377,0,0,0,0,0,0,0,0,0,-1,1511,1401,0,0
294,-377,0,0,0,0,0,0,0,0,0,-1,1518,1401,0,0
301,-377,0,0,0,0,0,0,0,0,0,-1,1525,1401,0,0
308,-377,0,0,0,0,0,0,0,0,0,-1,1532,1401,0,0
315,-377,0,0,0,0,0,0,0,0,0,-1,1539,1401,0,0
322,-377,0,0,0,0,0,0,0,0,0,-1,1546,1401,0,0
329,-377,0,0,0,0,0,0,0,0,0,-1,1553,1401,0,0
336,-377,0,0,0,0,0,0,0,0,0,-1,1560,1401,0,0
343,-377,0,0,0,0,0,0,0,0,0,-1,1567,1401,0,0
350,-377,0,0,0,0,0,0,0,0,0,-1,1574,1401,0,0
357,-377,0,0,0,0,0,0,0,0,0,-1,1581,1401,0,0
364,-377,0,0,0,0,0,0,0,0,0,-1,1588,1401,0,0
371,-377,0,0,0,0,0,0,0,0,0,-1,1595,1401,0,0
378,-377,0,0,0,0,0,0,0,0,0,-1,1602,1401,0,0
385,-377,0,0,0,0,0,0,0,0,0,-1,1609,1401,0,0
392,-377,0,0,0,0,0,0,0,0,0,-1,1616,1401,0,0
399,-377,0,0,0,0,0,0,0,0,0,-1,1623,1401,0,0
406,-377,0,0,0,0,0,0,0,0,0,-1,1630,1401,0,0
413,-377,0,0,0,0,0,0,0,0,0,-1,1637,1401,0,0
420,-377,0,0,0,0,0,0,0,0,0,-1,1644,1401,0,0
427,-377,0,0,0,0,0,0,0,0,0,-1,1651,1401,0,0
434,-377,0,0,0,0,0,0,0,0,0,-1,1658,1401,0,0
441,-377,0,0,0,0,0,0,0,0,0,-1,1665,1401,0,0
448,-377,0,0,0,0,0,0,0,0,0,-1,1672,1401,0,0
455,-377,0,0,0,0,0,0,0,0,0,-1,1679,1401,0,0
462,-377,0,0,0,0,0,0,0,0,0,-1,1686,1401,0,0
469,-377,0,0,0,0,0,0,0,0,0,-1,1693,1401,0,0
476,-377,0,0,0,0,0,0,0,0,0,-1,1700,1401,0,0
483,-377,0,0,0,0,0,0,0,0,0,-1,1707,1401,0,0
490,-377,0,0,0,0,0,0,0,0,0,-1,1714,1401,0,0
497,-377,0,0,0,0,0,0,0,0,0,-1,1721,1401,0,0
504,-377,0,0,0,0,0,0,0,0,0,-1,1728,1401,0,0
511,-377,0,0,0,0,0,0,0,0,0,-1,1735,1401,0,0
518,-377,0,0,0,0,0,0,0,0,0,-1,1742,1401,0,0
525,-377,0,0,0,0,0,0,0,0,0,-1,1749,1401,0,0
532,-377,0,0,0,0,0,0,0,0,0,-1,1756,1401,0,0
539,-377,0,0,0,0,0,0,0,0,0,-1,1763,1401,0,0
546,-377,16.6301,1.86731,0,0,0,0,0,0,0,-1,1770,1401,16.6301,-1.86737
553,-377,17.2404,1.89417,0,0,0,0,0,0,0,-1,1777,1401,17.2404,-1.89418
560,-377,16.3752,3.22534,0,0,0,0,0,0,0,-1,1784,1401,16.3753,-3.22539
567,-377,15.1582,2.81689,0,0,0,0,0,0,0,-1,1791,1401,15.1583,-2.81688
574,-377,15.473,2.99524,0,0,0,0,0,0,0,-1,1798,1401,15.473,-2.99521
581,-377,15.309,3.06311,0,0,0,0,0,0,0,-1,1805,1401,15.3089,-3.06316
588,-377,14.9818,2.77893,0,0,0,0,0,0,0,-1,1812,1401,14.9818,-2.77896
595,-377,13.0044,2.7074,0,0,0,0,0,0,0,-1,1819,1401,13.0044,-2.70745
602,-377,13.0537,3.23193,0,0,0,0,0,0,0,-1,1826,1401,13.0537,-3.23191
609,-377,12.954,3.79004,0,0,0,0,0,0,0,-1,1833,1401,12.9539,-3.79003
616,-377,12.7009,5.44885,0,0,0,0,0,0,0,-1,1840,1401,12.7009,-5.44881
623,-377,12.0247,6.45374,0,0,0,0,0,0,0,-1,1847,1401,12.0246,-6.45376
630,-377,11.8737,6.18042,-0.00957188,-0.00622088,0.0142213,0.00642327,-0.022216,0.844036,0.0173527,0.0300927,1854,1401,11.8736,-6.18038
637,-377,11.8357,5.95679,-0.00735639,-0.00543139,0.0105871,0.00423683,-0.0170246,0.83073,0.0129943,0.0131196,1861,1401,11.8357,-5.95674
644,-377,11.8647,5.76709,-0.00544208,-0.00437948,0.00768172,0.00278929,-0.0126109,0.819925,0.00947485,0.00985938,1868,1401,11.8647,-5.76705
651,-377,11.869,5.58838,-0.00367084,-0.00324592,0.0054499,0.00199566,-0.00891242,0.80488,0.00670655,0.0115795,1875,1401,11.869,-5.58835
658,-377,11.8585,5.40015,-0.00212292,-0.00323813,0.00388933,0.00124857,-0.00660962,0.7142,0.00487618,0.0139002,1882,1401,11.8585,-5.40017
665,-377,11.8716,5.23694,-0.000382083,-0.00376959,0.00251106,0.000953061,-0.00510473,0.488689,0.00376131,0.0158325,1889,1401,11.8715,-5.23698
672,-377,11.9055,5.07788,0.00124973,-0.00467534,0.00196093,0.00183992,-0.00526553,0.292351,0.00425828,0.0158552,1896,1401,11.9055,-5.07793
679,-377,11.91,4.90454,0.00493045,-0.00738688,0.00170287,0.00516154,-0.00761796,0.13488,0.00742354,0.0164241,1903,1401,11.9101,-4.90454
686,-377,11.8977,4.70422,0.0107933,-0.0113611,0.00163041,0.0109127,-0.0114805,0.0730684,0.0129301,0.0149001,1910,1401,11.8977,-4.70426
693,-377,11.9105,4.53223,0.0173999,-0.017183,0.00179514,0.0174928,-0.0172759,0.0517231,0.0200739,0.0127579,1917,1401,11.9106,-4.53217
700,-377,11.8984,4.3501,0.0270849,-0.0253148,0.00197587,0.0271593,-0.0253892,0.0376364,0.0303446,0.0222062,1924,1401,11.8985,-4.35008
707,-377,11.9977,4.36536,0.0410122,-0.0359899,0.0018676,0.0410575,-0.0360351,0.0242349,0.0445409,0.0409306,1931,1401,11.9977,-4.36539
714,-377,12.4275,4.25818,0.0603583,-0.0493161,0.00129682,0.0603736,-0.0493315,0.0118221,0.0634451,0.0452463,1938,1401,12.4274,-4.25822
721,-377,12.7544,4.13318,0,0,0,0,0,0,0,-1,1945,1401,12.7544,-4.13315
728,-377,15.1113,5.47681,0,0,0,0,0,0,0,-1,1952,1401,15.1113,-5.47685
735,-377,16.2814,5.49353,0,0,0,0,0,0,0,-1,1959,1401,16.2814,-5.49358
742,-377,0,0,0,0,0,0,0,0,0,-1,1966,1401,0,0
749,-377,0,0,0,0,0,0,0,0,0,-1,1973,1401,0,0
756,-377,0,0,0,0,0,0,0,0,0,-1,1980,1401,0,0
763,-377,0,0,0,0,0,0,0,0,0,-1,1987,1401,0,0
770,-377,0,0,0,0,0,0,0,0,0,-1,1994,1401,0,0
777,-377,0,0,0,0,0,0,0,0,0,-1,2001,1401,0,0
784,-377,0,0,0,0,0,0,0,0,0,-1,2008,1401,0,0
791,-377,0,0,0,0,0,0,0,0,0,-1,2015,1401,0,0
798,-377,0,0,0,0,0,0,0,0,0,-1,2022,1401,0,0
805,-377,0,0,0,0,0,0,0,0,0,-1,2029,1401,0,0
812,-377,0,0,0,0,0,0,0,0,0,-1,2036,1401,0,0
-700,-384,0,0,0,0,0,0,0,0,0,-1,524,1408,0,0
-693,-384,0,0,0,0,0,0,0,0,0,-1,531,1408,0,0
-686,-384,0,0,0,0,0,0,0,0,0,-1,538,1408,0,0
-679,-384,0,0,0,0,0,0,0,0,0,-1,545,1408,0,0
-672,-384,0,0,0,0,0,0,0,0,0,-1,552,1408,0,0
-665,-384,0,0,0,0,0,0,0,0,0,-1,559,1408,0,0
-658,-384,0,0,0,0,0,0,0,0,0,-1,566,1408,0,0
-651,-384,0,0,0,0,0,0,0,0,0,-1,573,1408,0,0
-644,-384,0,0,0,0,0,0,0,0,0,-1,580,1408,0,0
-637,-384,0,0,0,0,0,0,0,0,0,-1,587,1408,0,0
-630,-384,0,0,0,0,0,0,0,0,0,-1,594,1408,0,0
-623,-384,0,0,0,0,0,0,0,0,0,-1,601,1408,0,0
-616,-384,-3.61444,-6.00427,0,0,0,0,0,0,0,-1,608,1408,-3.61444,6.00431
-609,-384,-3.24353,-4.32397,0.0604652,-0.0161747,0.0623061,0.0952921,-0.0510016,0.5097,0.0857433,0.0459389,615,1408,-3.24354,4.32401
-602,-384,-3.00122,-2.66907,0.0457744,-0.012967,0.0559279,0.0795747,-0.0467673,0.543614,0.0737587,0.0442282,622,1408,-3.00119,2.66903
-595,-384,-2.9704,-1.00012,0,0,0,0,0,0,0,-1,629,1408,-2.97037,1.00017
-588,-384,-3.20319,-0.186157,0.0216592,-0.00617538,0.0398172,0.0499213,-0.0344375,0.61727,0.0489773,0.0474558,636,1408,-3.20319,0.186182
-581,-384,-3.28302,0.707397,0.0132122,-0.00380103,0.0321273,0.03794,-0.0285288,0.655979,0.0385038,0.0482589,643,1408,-3.28301,-0.707404
-574,-384,-3.47986,1.55212,0.0066026,-0.00184551,0.0248708,0.0276055,-0.0228484,0.701281,0.0291727,0.0452327,650,1408,-3.47986,-1.55207
-567,-384,-4.01245,2.17041,0.00191818,-0.000377595,0.0184637,0.0192696,-0.017729,0.754353,0.0213674,0.0393223,657,1408,-4.01243,-2.17045
-560,-384,-4.3089,2.54468,-0.00106368,0.00067156,0.0130575,0.0128902,-0.0132823,0.818573,0.0151113,0.0254365,664,1408,-4.30887,-2.54472
-553,-384,-4.38074,2.7605,-0.00403644,0.00185676,0.00848348,0.0078908,-0.0100705,0.952547,0.0103954,0.0172734,671,1408,-4.38076,-2.76055
-546,-384,-4.4021,2.98792,-0.00478384,0.00218235,0.00485078,0.00467102,-0.00727251,1.09677,0.00694991,0.0141883,678,1408,-4.4021,-2.98796
-539,-384,-4.38818,3.1781,-0.00411287,0.00160543,0.00192565,0.00219343,-0.00470087,1.27444,0.00406723,0.0155217,685,1408,-4.38817,-3.17811
-532,-384,-4.37061,3.34497,-0.00270048,0.000278994,0.000215469,0.000294495,-0.00271598,1.49898,0.00191638,0.0216245,692,1408,-4.37059,-3.34493
-525,-384,-4.3446,3.58838,-0.00168227,-0.00145366,-0.00158306,1.92202e-05,-0.00315515,-0.821439,0.00210987,0.0200045,699,1408,-4.34461,-3.58836
-518,-384,-4.3634,3.78479,-0.000792424,-0.00341945,-0.00305551,0.00121994,-0.00543182,-0.582398,0.00408898,0.0113345,706,1408,-4.36342,-3.78483
-511,-384,-4.36072,3.99414,-0.000544762,-0.00562852,-0.00465943,0.00222103,-0.00839431,-0.535694,0.006465,0.00971476,713,1408,-4.36069,-3.99409
-504,-384,-4.35107,4.20923,-0.00132547,-0.00840314,-0.0069193,0.00290744,-0.012636,-0.549018,0.00954199,0.0109628,720,1408,-4.35106,-4.20927
-497,-384,-4.33557,4.42041,-0.00256299,-0.0122803,-0.00992632,0.00362998,-0.0184733,-0.557803,0.0136869,0.013789,727,1408,-4.33559,-4.42044
-490,-384,-4.22223,4.58899,-0.00437285,-0.0175523,-0.0136947,0.00423507,-0.0261602,-0.561155,0.0190098,0.0285073,734,1408,-4.2222,-4.58893
-483,-384,-4.50079,4.47449,-0.00669854,-0.0236264,-0.0182895,0.00499053,-0.0353155,-0.568684,0.0253713,0.0447883,741,1408,-4.50077,-4.47452
-476,-384,-4.74243,3.98157,-0.00971315,-0.0313853,-0.0240155,0.00579781,-0.0468963,-0.573468,0.0333651,0.0446018,748,1408,-4.74244,-3.98161
-469,-384,-4.92902,3.68787,0,0,0,0,0,0,0,-1,755,1408,-4.92901,-3.68789
-462,-384,-4.71008,4.20154,0,0,0,0,0,0,0,-1,762,1408,-4.71007,-4.20157
-455,-384,-5.35962,3.8905,0,0,0,0,0,0,0,-1,769,1408,-5.35964,-3.89045
-448,-384,-1.89233,1.6134,0,0,0,0,0,0,0,-1,776,1408,-1.89231,-1.61337
-441,-384,-2.54742,0.868164,0,0,0,0,0,0,0,-1,783,1408,-2.54745,-0.868223
-434,-384,-5.99164,0.274902,0,0,0,0,0,0,0,-1,790,1408,-5.99164,-0.274901
-427,-384,-5.77826,1.16138,0,0,0,0,0,0,0,-1,797,1408,-5.77824,-1.16133
-420,-384,-5.56482,2.04773,0,0,0,0,0,0,0,-1,804,1408,-5.56483,-2.04776
-413,-384,0,0,0,0,0,0,0,0,0,-1,811,1408,0,0
-406,-384,0,0,0,0,0,0,0,0,0,-1,818,1408,0,0
-399,-384,0,0,0,0,0,0,0,0,0,-1,825,1408,0,0
-392,-384,0,0,0,0,0,0,0,0,0,-1,832,1408,0,0
-385,-384,0,0,0,0,0,0,0,0,0,-1,839,1408,0,0
-378,-384,0,0,0,0,0,0,0,0,0,-1,846,1408,0,0
-371,-384,0,0,0,0,0,0,0,0,0,-1,853,1408,0,0
-364,-384,0,0,0,0,0,0,0,0,0,-1,860,1408,0,0
-357,-384,0,0,0,0,0,0,0,0,0,-1,867,1408,0,0
-350,-384,0,0,0,0,0,0,0,0,0,-1,874,1408,0,0
-343,-384,0,0,0,0,0,0,0,0,0,-1,881,1408,0,0
-336,-384,0,0,0,0,0,0,0,0,0,-1,888,1408,0,0
-329,-384,0,0,0,0,0,0,0,0,0,-1,895,1408,0,0
-322,-384,0,0,0,0,0,0,0,0,0,-1,902,1408,0,0
-315,-384,0,0,0,0,0,0,0,0,0,-1,909,1408,0,0
-308,-384,0,0,0,0,0,0,0,0,0,-1,916,1408,0,0
-301,-384,0,0,0,0,0,0,0,0,0,-1,923,1408,0,0
-294,-384,0,0,0,0,0,0,0,0,0,-1,930,1408,0,0
-287,-384,0,0,0,0,0,0,0,0,0,-1,937,1408,0,0
-280,-384,0,0,0,0,0,0,0,0,0,-1,944,1408,0,0
-273,-384,0,0,0,0,0,0,0,0,0,-1,951,1408,0,0
-266,-384,0,0,0,0,0,0,0,0,0,-1,958,1408,0,0
-259,-384,0,0,0,0,0,0,0,0,0,-1,965,1408,0,0
-252,-384,0,0,0,0,0,0,0,0,0,-1,972,1408,0,0
-245,-384,0,0,0,0,0,0,0,0,0,-1,979,1408,0,0
-238,-384,0,0,0,0,0,0,0,0,0,-1,986,1408,0,0
-231,-384,0,0,0,0,0,0,0,0,0,-1,993,1408,0,0
-224,-384,0,0,0,0,0,0,0,0,0,-1,1000,1408,0,0
-217,-384,0,0,0,0,0,0,0,0,0,-1,1007,1408,0,0
-210,-384,0,0,0,0,0,0,0,0,0,-1,1014,1408,0,0
-203,-384,0,0,0,0,0,0,0,0,0,-1,1021,1408,0,0
-196,-384,0,0,0,0,0,0,0,0,0,-1,1028,1408,0,0
-189,-384,0,0,0,0,0,0,0,0,0,-1,1035,1408,0,0
-182,-384,0,0,0,0,0,0,0,0,0,-1,1042,1408,0,0
-175,-384,0,0,0,0,0,0,0,0,0,-1,1049,1408,0,0
-168,-384,0,0,0,0,0,0,0,0,0,-1,1056,1408,0,0
-161,-384,0,0,0,0,0,0,0,0,0,-1,1063,1408,0,0
-154,-384,0,0,0,0,0,0,0,0,0,-1,1070,1408,0,0
-147,-384,0,0,0,0,0,0,0,0,0,-1,1077,1408,0,0
-140,-384,0,0,0,0,0,0,0,0,0,-1,1084,1408,0,0
-133,-384,0,0,0,0,0,0,0,0,0,-1,1091,1408,0,0
-126,-384,0,0,0,0,0,0,0,0,0,-1,1098,1408,0,0
-119,-384,0,0,0,0,0,0,0,0,0,-1,1105,1408,0,0
-112,-384,0,0,0,0,0,0,0,0,0,-1,1112,1408,0,0
-105,-384,0,0,0,0,0,0,0,0,0,-1,1119,1408,0,0
-98,-384,0,0,0,0,0,0,0,0,0,-1,1126,1408,0,0
-91,-384,0,0,0,0,0,0,0,0,0,-1,1133,1408,0,0
-84,-384,0,0,0,0,0,0,0,0,0,-1,1140,1408,0,0
-77,-384,0,0,0,0,0,0,0,0,0,-1,1147,1408,0,0
-70,-384,0,0,0,0,0,0,0,0,0,-1,1154,1408,0,0
-63,-384,0,0,0,0,0,0,0,0,0,-1,1161,1408,0,0
-56,-384,0,0,0,0,0,0,0,0,0,-1,1168,1408,0,0
-49,-384,0,0,0,0,0,0,0,0,0,-1,1175,1408,0,0
-42,-384,0,0,0,0,0,0,0,0,0,-1,1182,1408,0,0
-35,-384,0,0,0,0,0,0,0,0,0,-1,1189,1408,0,0
-28,-384,0,0,0,0,0,0,0,0,0,-1,1196,1408,0,0
-21,-384,0,0,0,0,0,0,0,0,0,-1,1203,1408,0,0
-14,-384,0,0,0,0,0,0,0,0,0,-1,1210,1408,0,0
-7,-384,0,0,0,0,0,0,0,0,0,-1,1217,1408,0,0
0,-384,0,0,0,0,0,0,0,0,0,-1,1224,1408,0,0
7,-384,0,0,0,0,0,0,0,0,0,-1,1231,1408,0,0
14,-384,0,0,0,0,0,0,0,0,0,-1,1238,1408,0,0
21,-384,0,0,0,0,0,0,0,0,0,-1,1245,1408,0,0
28,-384,0,0,0,0,0,0,0,0,0,-1,1252,1408,0,0
35,-384,0,0,0,0,0,0,0,0,0,-1,1259,1408,0,0
42,-384,0,0,0,0,0,0,0,0,0,-1,1266,1408,0,0
49,-384,0,0,0,0,0,0,0,0,0,-1,1273,1408,0,0
56,-384,0,0,0,0,0,0,0,0,0,-1,1280,1408,0,0
63,-384,0,0,0,0,0,0,0,0,0,-1,1287,1408,0,0
70,-384,0,0,0,0,0,0,0,0,0,-1,1294,1408,0,0
77,-384,0,0,0,0,0,0,0,0,0,-1,1301,1408,0,0
84,-384,0,0,0,0,0,0,0,0,0,-1,1308,1408,0,0
91,-384,0,0,0,0,0,0,0,0,0,-1,1315,1408,0,0
98,-384,0,0,0,0,0,0,0,0,0,-1,1322,1408,0,0
105,-384,0,0,0,0,0,0,0,0,0,-1,1329,1408,0,0
112,-384,0,0,0,0,0,0,0,0,0,-1,1336,1408,0,0
119,-384,0,0,0,0,0,0,0,0,0,-1,1343,1408,0,0
126,-384,0,0,0,0,0,0,0,0,0,-1,1350,1408,0,0
133,-384,0,0,0,0,0,0,0,0,0,-1,1357,1408,0,0
140,-384,0,0,0,0,0,0,0,0,0,-1,1364,1408,0,0
147,-384,0,0,0,0,0,0,0,0,0,-1,1371,1408,0,0
154,-384,0,0,0,0,0,0,0,0,0,-1,1378,1408,0,0
161,-384,0,0,0,0,0,0,0,0,0,-1,1385,1408,0,0
168,-384,0,0,0,0,0,0,0,0,0,-1,1392,1408,0,0
175,-384,0,0,0,0,0,0,0,0,0,-1,1399,1408,0,0
182,-384,0,0,0,0,0,0,0,0,0,-1,1406,1408,0,0
189,-384,0,0,0,0,0,0,0,0,0,-1,1413,1408,0,0
196,-384,0,0,0,0,0,0,0,0,0,-1,1420,1408,0,0
203,-384,0,0,0,0,0,0,0,0,0,-1,1427,1408,0,0
210,-384,0,0,0,0,0,0,0,0,0,-1,1434,1408,0,0
217,-384,0,0,0,0,0,0,0,0,0,-1,1441,1408,0,0
224,-384,0,0,0,0,0,0,0,0,0,-1,1448,1408,0,0
231,-384,0,0,0,0,0,0,0,0,0,-1,1455,1408,0,0
238,-384,0,0,0,0,0,0,0,0,0,-1,1462,1408,0,0
245,-384,0,0,0,0,0,0,0,0,0,-1,1469,1408,0,0
252,-384,0,0,0,0,0,0,0,0,0,-1,1476,1408,0,0
259,-384,0,0,0,0,0,0,0,0,0,-1,1483,1408,0,0
266,-384,0,0,0,0,0,0,0,0,0,-1,1490,1408,0,0
273,-384,0,0,0,0,0,0,0,0,0,-1,1497,1408,0,0
280,-384,0,0,0,0,0,0,0,0,0,-1,1504,1408,0,0
287,-384,0,0,0,0,0,0,0,0,0,-1,1511,1408,0,0
294,-384,0,0,0,0,0,0,0,0,0,-1,1518,1408,0,0
301,-384,0,0,0,0,0,0,0,0,0,-1,1525,1408,0,0
308,-384,0,0,0,0,0,0,0,0,0,-1,1532,1408,0,0
315,-384,0,0,0,0,0,0,0,0,0,-1,1539,1408,0,0
322,-384,0,0,0,0,0,0,0,0,0,-1,1546,1408,0,0
329,-384,0,0,0,0,0,0,0,0,0,-1,1553,1408,0,0
336,-384,0,0,0,0,0,0,0,0,0,-1,1560,1408,0,0
343,-384,0,0,0,0,0,0,0,0,0,-1,1567,1408,0,0
350,-384,0,0,0,0,0,0,0,0,0,-1,1574,1408,0,0
357,-384,0,0,0,0,0,0,0,0,0,-1,1581,1408,0,0
364,-384,0,0,0,0,0,0,0,0,0,-1,1588,1408,0,0
371,-384,0,0,0,0,0,0,0,0,0,-1,1595,1408,0,0
378,-384,0,0,0,0,0,0,0,0,0,-1,1602,1408,0,0
385,-384,0,0,0,0,0,0,0,0,0,-1,1609,1408,0,0
392,-384,0,0,0,0,0,0,0,0,0,-1,1616,1408,0,0
399,-384,0,0,0,0,0,0,0,0,0,-1,1623,1408,0,0
406,-384,0,0,0,0,0,0,0,0,0,-1,1630,1408,0,0
413,-384,0,0,0,0,0,0,0,0,0,-1,1637,1408,0,0
420,-384,0,0,0,0,0,0,0,0,0,-1,1644,1408,0,0
427,-384,0,0,0,0,0,0,0,0,0,-1,1651,1408,0,0
434,-384,0,0,0,0,0,0,0,0,0,-1,1658,1408,0,0
441,-384,0,0,0,0,0,0,0,0,0,-1,1665,1408,0,0
448,-384,0,0,0,0,0,0,0,0,0,-1,1672,1408,0,0
455,-384,0,0,0,0,0,0,0,0,0,-1,1679,1408,0,0
462,-384,0,0,0,0,0,0,0,0,0,-1,1686,1408,0,0
469,-384,0,0,0,0,0,0,0,0,0,-1,1693,1408,0,0
476,-384,0,0,0,0,0,0,0,0,0,-1,1700,1408,0,0
483,-384,0,0,0,0,0,0,0,0,0,-1,1707,1408,0,0
490,-384,0,0,0,0,0,0,0,0,0,-1,1714,1408,0,0
497,-384,0,0,0,0,0,0,0,0,0,-1,1721,1408,0,0
504,-384,0,0,0,0,0,0,0,0,0,-1,1728,1408,0,0
511,-384,0,0,0,0,0,0,0,0,0,-1,1735,1408,0,0
518,-384,0,0,0,0,0,0,0,0,0,-1,1742,1408,0,0
525,-384,0,0,0,0,0,0,0,0,0,-1,1749,1408,0,0
532,-384,0,0,0,0,0,0,0,0,0,-1,1756,1408,0,0
539,-384,15.3091,2.38269,0,0,0,0,0,0,0,-1,1763,1408,15.3091,-2.38266
546,-384,16.1472,2.3949,0,0,0,0,0,0,0,-1,1770,1408,16.1472,-2.39487
553,-384,16.7972,2.35193,0,0,0,0,0,0,0,-1,1777,1408,16.7973,-2.35191
560,-384,15.2682,2.68872,0,0,0,0,0,0,0,-1,1784,1408,15.2682,-2.68875
567,-384,15.0455,3.12732,0,0,0,0,0,0,0,-1,1791,1408,15.0456,-3.12727
574,-384,14.9525,3.45105,0,0,0,0,0,0,0,-1,1798,1408,14.9526,-3.45109
581,-384,15.0204,3.39185,0,0,0,0,0,0,0,-1,1805,1408,15.0204,-3.39188
588,-384,12.5197,2.71411,0,0,0,0,0,0,0,-1,1812,1408,12.5196,-2.71405
595,-384,12.4425,3.13855,0,0,0,0,0,0,0,-1,1819,1408,12.4425,-3.13858
602,-384,12.4843,3.79248,0,0,0,0,0,0,0,-1,1826,1408,12.4843,-3.79252
609,-384,12.3831,4.59045,-0.0181609,-0.00963225,0.0295475,0.0159571,-0.0437503,0.857064,0.0356953,0.0444005,1833,1408,12.383,-4.59045
616,-384,12.1549,5.61707,-0.0145724,-0.00947768,0.0232853,0.0113992,-0.0354492,0.839881,0.028211,0.0485374,1840,1408,12.1549,-5.61702
623,-384,11.7887,6.24316,-0.0113813,-0.00858472,0.0179299,0.00800135,-0.0279673,0.824312,0.0218069,0.0426751,1847,1408,11.7887,-6.24311
630,-384,11.729,6.13733,-0.00862965,-0.00730139,0.0134752,0.00552603,-0.0214571,0.810021,0.0164589,0.0208496,1854,1408,11.729,-6.13727
637,-384,11.6777,5.98425,-0.00634495,-0.0058392,0.00987151,0.00378267,-0.0159668,0.798204,0.0121041,0.0145451,1861,1408,11.6778,-5.98429
644,-384,11.6827,5.7793,-0.00448106,-0.00439155,0.00700609,0.00256993,-0.0114425,0.788592,0.00861375,0.014337,1868,1408,11.6828,-5.77933
651,-384,11.6786,5.57983,-0.00279816,-0.00303697,0.0048274,0.00191132,-0.00774644,0.773033,0.00590542,0.0141011,1875,1408,11.6786,-5.57981
658,-384,11.683,5.40674,-0.00132609,-0.00287529,0.00338014,0.00136707,-0.00556845,0.672762,0.00424206,0.0147083,1882,1408,11.683,-5.40677
665,-384,11.7251,5.23303,0.000358572,-0.00365698,0.00217052,0.00130754,-0.00460594,0.412164,0.00358681,0.015894,1889,1408,11.7251,-5.23299
672,-384,11.751,5.07043,0.00186659,-0.00491873,0.0018151,0.00232163,-0.00537377,0.24563,0.00455793,0.0139635,1896,1408,11.751,-5.07039
679,-384,11.7175,4.89417,0.00537305,-0.00819508,0.00178954,0.0056051,-0.00842714,0.128955,0.00815595,0.0147115,1903,1408,11.7175,-4.89422
686,-384,11.7074,4.69824,0.0111811,-0.013016,0.00198676,0.0113432,-0.013178,0.0813811,0.0141705,0.0121755,1910,1408,11.7074,-4.69827
693,-384,11.7335,4.53882,0.0180687,-0.0200951,0.00253046,0.0182358,-0.0202622,0.0659204,0.0222371,0.0169628,1917,1408,11.7336,-4.5388
700,-384,11.548,4.51685,0.0284989,-0.0300175,0.0030531,0.0286577,-0.0301764,0.051987,0.0339717,0.0380884,1924,1408,11.548,-4.51681
707,-384,11.8689,5.26074,0.0436994,-0.0431415,0.00322506,0.043819,-0.0432611,0.0370695,0.0502761,0.0497432,1931,1408,11.8689,-5.26069
714,-384,12.6545,6.14319,0.0649016,-0.0597519,0.00292966,0.0649704,-0.0598207,0.0234852,0.0720686,0.0491729,1938,1408,12.6545,-6.14317
721,-384,13.7865,6.69385,0,0,0,0,0,0,0,-1,1945,1408,13.7865,-6.69386
728,-384,15.4409,6.25745,0,0,0,0,0,0,0,-1,1952,1408,15.4409,-6.2574
735,-384,16.7598,6.71289,0,0,0,0,0,0,0,-1,1959,1408,16.7598,-6.71287
742,-384,0,0,0,0,0,0,0,0,0,-1,1966,1408,0,0
749,-384,0,0,0,0,0,0,0,0,0,-1,1973,1408,0,0
756,-384,0,0,0,0,0,0,0,0,0,-1,1980,1408,0,0
763,-384,0,0,0,0,0,0,0,0,0,-1,1987,1408,0,0
770,-384,0,0,0,0,0,0,0,0,0,-1,1994,1408,0,0
777,-384,0,0,0,0,0,0,0,0,0,-1,2001,1408,0,0
784,-384,0,0,0,0,0,0,0,0,0,-1,2008,1408,0,0
791,-384,0,0,0,0,0,0,0,0,0,-1,2015,1408,0,0
798,-384,0,0,0,0,0,0,0,0,0,-1,2022,1408,0,0
805,-384,0,0,0,0,0,0,0,0,0,-1,2029,1408,0,0
812,-384,0,0,0,0,0,0,0,0,0,-1,2036,1408,0,0
-700,-391,0,0,0,0,0,0,0,0,0,-1,524,1415,0,0
-693,-391,0,0,0,0,0,0,0,0,0,-1,531,1415,0,0
-686,-391,0,0,0,0,0,0,0,0,0,-1,538,1415,0,0
-679,-391,0,0,0,0,0,0,0,0,0,-1,545,1415,0,0
-672,-391,0,0,0,0,0,0,0,0,0,-1,552,1415,0,0
-665,-391,0,0,0,0,0,0,0,0,0,-1,559,1415,0,0
-658,-391,0,0,0,0,0,0,0,0,0,-1,566,1415,0,0
-651,-391,0,0,0,0,0,0,0,0,0,-1,573,1415,0,0
-644,-391,0,0,0,0,0,0,0,0,0,-1,580,1415,0,0
-637,-391,0,0,0,0,0,0,0,0,0,-1,587,1415,0,0
-630,-391,0,0,0,0,0,0,0,0,0,-1,594,1415,0,0
-623,-391,0,0,0,0,0,0,0,0,0,-1,601,1415,0,0
-616,-391,0,0,0,0,0,0,0,0,0,-1,608,1415,0,0
-609,-391,-2.54889,-4.23608,0.0629716,-0.0185892,0.0721132,0.105037,-0.0606542,0.528064,0.0967988,0.0464006,615,1415,-2.54889,4.23613
-602,-391,-2.4101,-2.68188,0.0448467,-0.0118834,0.0636263,0.0861442,-0.0531809,0.575717,0.0811864,0.0462221,622,1415,-2.4101,2.68187
-595,-391,-2.46948,-1.33557,0.031552,-0.00774104,0.0543267,0.0696755,-0.0458645,0.611896,0.0671776,0.040836,629,1415,-2.4695,1.33561
-588,-391,-2.60364,-0.255493,0.021373,-0.00431586,0.045318,0.0556316,-0.0385745,0.647305,0.0546863,0.0413548,636,1415,-2.60365,0.255499
-581,-391,-2.53778,0.767944,0.0134288,-0.00203309,0.0367199,0.0432228,-0.0318271,0.681644,0.0434963,0.0456696,643,1415,-2.53779,-0.767993
-574,-391,-3.10614,1.44409,0.0072555,-0.00035155,0.0287494,0.0324518,-0.0255479,0.71963,0.0335652,0.0494567,650,1415,-3.10614,-1.44408
-567,-391,-3.64178,2.03406,0.00279174,0.000807691,0.0216878,0.0235102,-0.0199108,0.762544,0.0250978,0.0494995,657,1415,-3.64177,-2.03409
-560,-391,-4.03577,2.69641,-5.56864e-05,0.00148218,0.0157245,0.0164566,-0.0150301,0.809829,0.018185,0.0358256,664,1415,-4.03578,-2.69637
-553,-391,-4.14233,2.75403,-0.0031048,0.00243091,0.0106722,0.0106883,-0.0113622,0.912279,0.0127328,0.0224353,671,1415,-4.14231,-2.75399
-546,-391,-4.18213,2.97314,-0.00390487,0.00259678,0.00659724,0.00670064,-0.00800873,1.01432,0.00850365,0.0114523,678,1415,-4.18214,-2.97317
-539,-391,-4.15405,3.15698,-0.00329704,0.00190562,0.003337,0.00353542,-0.00492685,1.11647,0.00490766,0.0140025,685,1415,-4.15405,-3.15704
-532,-391,-4.14374,3.35681,-0.00214073,0.000704601,0.00145914,0.00131984,-0.00275597,1.17177,0.00240137,0.0255162,692,1415,-4.14376,-3.35685
-525,-391,-4.13098,3.58557,-0.00131207,-0.00085662,-0.000408088,-0.000617019,-0.00155168,-1.03989,0.000902095,0.0231934,699,1415,-4.13101,-3.58559
-518,-391,-4.15479,3.79077,-0.000540297,-0.00271033,-0.00191547,0.000576114,-0.00382674,-0.527706,0.00276329,0.0130558,706,1415,-4.15476,-3.79072
-511,-391,-4.1463,3.99768,-0.000302897,-0.00475606,-0.0034917,0.00161173,-0.00667069,-0.501566,0.00507049,0.0116534,713,1415,-4.14631,-3.99773
-504,-391,-4.14514,4.21497,-0.000966621,-0.00726564,-0.00558073,0.00229199,-0.0105242,-0.5285,0.00789189,0.010802,720,1415,-4.14515,-4.21491
-497,-391,-4.14331,4.42175,-0.00200814,-0.0107768,-0.00826869,0.00296667,-0.0157516,-0.541628,0.0116169,0.00959335,727,1415,-4.14332,-4.42171
-490,-391,-4.11011,4.62512,-0.0034954,-0.0156663,-0.0115976,0.00351636,-0.0226781,-0.543785,0.0164169,0.0150018,734,1415,-4.11013,-4.62509
-483,-391,-4.03632,4.72668,-0.00538919,-0.0212752,-0.015663,0.00422974,-0.0308942,-0.550735,0.0221411,0.0362367,741,1415,-4.0363,-4.72663
-476,-391,-4.11548,4.59717,-0.00787667,-0.0283086,-0.0207298,0.00501776,-0.041203,-0.556457,0.0292849,0.0480604,748,1415,-4.11547,-4.59721
-469,-391,-4.45563,4.75598,0,0,0,0,0,0,0,-1,755,1415,-4.45561,-4.75594
-462,-391,-4.62421,5.20093,0,0,0,0,0,0,0,-1,762,1415,-4.62423,-5.20095
-455,-391,-4.95203,5.32104,0,0,0,0,0,0,0,-1,769,1415,-4.95203,-5.32103
-448,-391,-4.15601,2.72815,0,0,0,0,0,0,0,-1,776,1415,-4.156,-2.72814
-441,-391,-2.80511,1.66772,0,0,0,0,0,0,0,-1,783,1415,-2.80509,-1.66773
-434,-391,-4.99182,0.0065918,0,0,0,0,0,0,0,-1,790,1415,-4.99185,-0.00653608
-427,-391,-4.73364,0.990479,0,0,0,0,0,0,0,-1,797,1415,-4.73362,-0.990476
-420,-391,-4.47412,1.97998,0,0,0,0,0,0,0,-1,804,1415,-4.47412,-1.97998
-413,-391,0,0,0,0,0,0,0,0,0,-1,811,1415,0,0
-406,-391,0,0,0,0,0,0,0,0,0,-1,818,1415,0,0
-399,-391,0,0,0,0,0,0,0,0,0,-1,825,1415,0,0
-392,-391,0,0,0,0,0,0,0,0,0,-1,832,1415,0,0
-385,-391,0,0,0,0,0,0,0,0,0,-1,839,1415,0,0
-378,-391,0,0,0,0,0,0,0,0,0,-1,846,1415,0,0
-371,-391,0,0,0,0,0,0,0,0,0,-1,853,1415,0,0
-364,-391,0,0,0,0,0,0,0,0,0,-1,860,1415,0,0
-357,-391,0,0,0,0,0,0,0,0,0,-1,867,1415,0,0
-350,-391,0,0,0,0,0,0,0,0,0,-1,874,1415,0,0
-343,-391,0,0,0,0,0,0,0,0,0,-1,881,1415,0,0
-336,-391,0,0,0,0,0,0,0,0,0,-1,888,1415,0,0
-329,-391,0,0,0,0,0,0,0,0,0,-1,895,1415,0,0
-322,-391,0,0,0,0,0,0,0,0,0,-1,902,1415,0,0
-315,-391,0,0,0,0,0,0,0,0,0,-1,909,1415,0,0
-308,-391,0,0,0,0,0,0,0,0,0,-1,916,1415,0,0
-301,-391,0,0,0,0,0,0,0,0,0,-1,923,1415,0,0
-294,-391,0,0,0,0,0,0,0,0,0,-1,930,1415,0,0
-287,-391,0,0,0,0,0,0,0,0,0,-1,937,1415,0,0
-280,-391,0,0,0,0,0,0,0,0,0,-1,944,1415,0,0
-273,-391,0,0,0,0,0,0,0,0,0,-1,951,1415,0,0
-266,-391,0,0,0,0,0,0,0,0,0,-1,958,1415,0,0
-259,-391,0,0,0,0,0,0,0,0,0,-1,965,1415,0,0
-252,-391,0,0,0,0,0,0,0,0,0,-1,972,1415,0,0
-245,-391,0,0,0,0,0,0,0,0,0,-1,979,1415,0,0
-238,-391,0,0,0,0,0,0,0,0,0,-1,986,1415,0,0
-231,-391,0,0,0,0,0,0,0,0,0,-1,993,1415,0,0
-224,-391,0,0,0,0,0,0,0,0,0,-1,1000,1415,0,0
-217,-391,0,0,0,0,0,0,0,0,0,-1,1007,1415,0,0
-210,-391,0,0,0,0,0,0,0,0,0,-1,1014,1415,0,0
-203,-391,0,0,0,0,0,0,0,0,0,-1,1021,1415,0,0
-196,-391,0,0,0,0,0,0,0,0,0,-1,1028,1415,0,0
-189,-391,0,0,0,0,0,0,0,0,0,-1,1035,1415,0,0
-182,-391,0,0,0,0,0,0,0,0,0,-1,1042,1415,0,0
-175,-391,0,0,0,0,0,0,0,0,0,-1,1049,1415,0,0
-168,-391,0,0,0,0,0,0,0,0,0,-1,1056,1415,0,0
-161,-391,0,0,0,0,0,0,0,0,0,-1,1063,1415,0,0
-154,-391,0,0,0,0,0,0,0,0,0,-1,1070,1415,0,0
-147,-391,0,0,0,0,0,0,0,0,0,-1,1077,1415,0,0
-140,-391,0,0,0,0,0,0,0,0,0,-1,1084,1415,0,0
-133,-391,0,0,0,0,0,0,0,0,0,-1,1091,1415,0,0
-126,-391,0,0,0,0,0,0,0,0,0,-1,1098,1415,0,0
-119,-391,0,0,0,0,0,0,0,0,0,-1,1105,1415,0,0
-112,-391,0,0,0,0,0,0,0,0,0,-1,1112,1415,0,0
-105,-391,0,0,0,0,0,0,0,0,0,-1,1119,1415,0,0
-98,-391,0,0,0,0,0,0,0,0,0,-1,1126,1415,0,0
-91,-391,0,0,0,0,0,0,0,0,0,-1,1133,1415,0,0
-84,-391,0,0,0,0,0,0,0,0,0,-1,1140,1415,0,0
-77,-391,0,0,0,0,0,0,0,0,0,-1,1147,1415,0,0
-70,-391,0,0,0,0,0,0,0,0,0,-1,1154,1415,0,0
-63,-391,0,0,0,0,0,0,0,0,0,-1,1161,1415,0,0
-56,-391,0,0,0,0,0,0,0,0,0,-1,1168,1415,0,0
-49,-391,0,0,0,0,0,0,0,0,0,-1,1175,1415,0,0
-42,-391,0,0,0,0,0,0,0,0,0,-1,1182,1415,0,0
-35,-391,0,0,0,0,0,0,0,0,0,-1,1189,1415,0,0
-28,-391,0,0,0,0,0,0,0,0,0,-1,1196,1415,0,0
-21,-391,0,0,0,0,0,0,0,0,0,-1,1203,1415,0,0
-14,-391,0,0,0,0,0,0,0,0,0,-1,1210,1415,0,0
-7,-391,0,0,0,0,0,0,0,0,0,-1,1217,1415,0,0
0,-391,0,0,0,0,0,0,0,0,0,-1,1224,1415,0,0
7,-391,0,0,0,0,0,0,0,0,0,-1,1231,1415,0,0
14,-391,0,0,0,0,0,0,0,0,0,-1,1238,1415,0,0
21,-391,0,0,0,0,0,0,0,0,0,-1,1245,1415,0,0
28,-391,0,0,0,0,0,0,0,0,0,-1,1252,1415,0,0
35,-391,0,0,0,0,0,0,0,0,0,-1,1259,1415,0,0
42,-391,0,0,0,0,0,0,0,0,0,-1,1266,1415,0,0
49,-391,0,0,0,0,0,0,0,0,0,-1,1273,1415,0,0
56,-391,0,0,0,0,0,0,0,0,0,-1,1280,1415,0,0
63,-391,0,0,0,0,0,0,0,0,0,-1,1287,1415,0,0
70,-391,0,0,0,0,0,0,0,0,0,-1,1294,1415,0,0
77,-391,0,0,0,0,0,0,0,0,0,-1,1301,1415,0,0
84,-391,0,0,0,0,0,0,0,0,0,-1,1308,1415,0,0
91,-391,0,0,0,0,0,0,0,0,0,-1,1315,1415,0,0
98,-391,0,0,0,0,0,0,0,0,0,-1,1322,1415,0,0
105,-391,0,0,0,0,0,0,0,0,0,-1,1329,1415,0,0
112,-391,0,0,0,0,0,0,0,0,0,-1,1336,1415,0,0
119,-391,0,0,0,0,0,0,0,0,0,-1,1343,1415,0,0
126,-391,0,0,0,0,0,0,0,0,0,-1,1350,1415,0,0
133,-391,0,0,0,0,0,0,0,0,0,-1,1357,1415,0,0
140,-391,0,0,0,0,0,0,0,0,0,-1,1364,1415,0,0
147,-391,0,0,0,0,0,0,0,0,0,-1,1371,1415,0,0
154,-391,0,0,0,0,0,0,0,0,0,-1,1378,1415,0,0
161,-391,0,0,0,0,0,0,0,0,0,-1,1385,1415,0,0
168,-391,0,0,0,0,0,0,0,0,0,-1,1392,1415,0,0
175,-391,0,0,0,0,0,0,0,0,0,-1,1399,1415,0,0
182,-391,0,0,0,0,0,0,0,0,0,-1,1406,1415,0,0
189,-391,0,0,0,0,0,0,0,0,0,-1,1413,1415,0,0
196,-391,0,0,0,0,0,0,0,0,0,-1,1420,1415,0,0
203,-391,0,0,0,0,0,0,0,0,0,-1,1427,1415,0,0
210,-391,0,0,0,0,0,0,0,0,0,-1,1434,1415,0,0
217,-391,0,0,0,0,0,0,0,0,0,-1,1441,1415,0,0
224,-391,0,0,0,0,0,0,0,0,0,-1,1448,1415,0,0
231,-391,0,0,0,0,0,0,0,0,0,-1,1455,1415,0,0
238,-391,0,0,0,0,0,0,0,0,0,-1,1462,1415,0,0
245,-391,0,0,0,0,0,0,0,0,0,-1,1469,1415,0,0
252,-391,0,0,0,0,0,0,0,0,0,-1,1476,1415,0,0
259,-391,0,0,0,0,0,0,0,0,0,-1,1483,1415,0,0
266,-391,0,0,0,0,0,0,0,0,0,-1,1490,1415,0,0
273,-391,0,0,0,0,0,0,0,0,0,-1,1497,1415,0,0
280,-391,0,0,0,0,0,0,0,0,0,-1,1504,1415,0,0
287,-391,0,0,0,0,0,0,0,0,0,-1,1511,1415,0,0
294,-391,0,0,0,0,0,0,0,0,0,-1,1518,1415,0,0
301,-391,0,0,0,0,0,0,0,0,0,-1,1525,1415,0,0
308,-391,0,0,0,0,0,0,0,0,0,-1,1532,1415,0,0
315,-391,0,0,0,0,0,0,0,0,0,-1,1539,1415,0,0
322,-391,0,0,0,0,0,0,0,0,0,-1,1546,1415,0,0
329,-391,0,0,0,0,0,0,0,0,0,-1,1553,1415,0,0
336,-391,0,0,0,0,0,0,0,0,0,-1,1560,1415,0,0
343,-391,0,0,0,0,0,0,0,0,0,-1,1567,1415,0,0
350,-391,0,0,0,0,0,0,0,0,0,-1,1574,1415,0,0
357,-391,0,0,0,0,0,0,0,0,0,-1,1581,1415,0,0
364,-391,0,0,0,0,0,0,0,0,0,-1,1588,1415,0,0
371,-391,0,0,0,0,0,0,0,0,0,-1,1595,1415,0,0
378,-391,0,0,0,0,0,0,0,0,0,-1,1602,1415,0,0
385,-391,0,0,0,0,0,0,0,0,0,-1,1609,1415,0,0
392,-391,0,0,0,0,0,0,0,0,0,-1,1616,1415,0,0
399,-391,0,0,0,0,0,0,0,0,0,-1,1623,1415,0,0
406,-391,0,0,0,0,0,0,0,0,0,-1,1630,1415,0,0
413,-391,0,0,0,0,0,0,0,0,0,-1,1637,1415,0,0
420,-391,0,0,0,0,0,0,0,0,0,-1,1644,1415,0,0
427,-391,0,0,0,0,0,0,0,0,0,-1,1651,1415,0,0
434,-391,0,0,0,0,0,0,0,0,0,-1,1658,1415,0,0
441,-391,0,0,0,0,0,0,0,0,0,-1,1665,1415,0,0
448,-391,0,0,0,0,0,0,0,0,0,-1,1672,1415,0,0
455,-391,0,0,0,0,0,0,0,0,0,-1,1679,1415,0,0
462,-391,0,0,0,0,0,0,0,0,0,-1,1686,1415,0,0
469,-391,0,0,0,0,0,0,0,0,0,-1,1693,1415,0,0
476,-391,0,0,0,0,0,0,0,0,0,-1,1700,1415,0,0
483,-391,0,0,0,0,0,0,0,0,0,-1,1707,1415,0,0
490,-391,0,0,0,0,0,0,0,0,0,-1,1714,1415,0,0
497,-391,0,0,0,0,0,0,0,0,0,-1,1721,1415,0,0
504,-391,0,0,0,0,0,0,0,0,0,-1,1728,1415,0,0
511,-391,0,0,0,0,0,0,0,0,0,-1,1735,1415,0,0
518,-391,0,0,0,0,0,0,0,0,0,-1,1742,1415,0,0
525,-391,0,0,0,0,0,0,0,0,0,-1,1749,1415,0,0
532,-391,14.0776,2.49634,0,0,0,0,0,0,0,-1,1756,1415,14.0776,-2.49637
539,-391,14.6643,2.64636,0,0,0,0,0,0,0,-1,1763,1415,14.6643,-2.64638
546,-391,15.4535,2.6123,0,0,0,0,0,0,0,-1,1770,1415,15.4535,-2.61233
553,-391,15.4753,2.77844,0,0,0,0,0,0,0,-1,1777,1415,15.4754,-2.77844
560,-391,15.259,2.96619,0,0,0,0,0,0,0,-1,1784,1415,15.259,-2.96619
567,-391,14.9443,3.43286,0,0,0,0,0,0,0,-1,1791,1415,14.9443,-3.43288
574,-391,14.7999,3.80591,0,0,0,0,0,0,0,-1,1798,1415,14.7999,-3.80592
581,-391,14.6332,3.76685,0,0,0,0,0,0,0,-1,1805,1415,14.6331,-3.76679
588,-391,12.8027,3.39819,0,0,0,0,0,0,0,-1,1812,1415,12.8028,-3.39813
595,-391,11.6997,3.25854,0,0,0,0,0,0,0,-1,1819,1415,11.6997,-3.25852
602,-391,11.9166,4.35168,0,0,0,0,0,0,0,-1,1826,1415,11.9166,-4.3517
609,-391,11.8555,5.10803,-0.0179691,-0.01381,0.0277541,0.0119423,-0.0437214,0.822792,0.0338383,0.0490647,1833,1415,11.8554,-5.108
616,-391,11.6985,6.18323,-0.0141221,-0.0118838,0.0216709,0.0086968,-0.0347027,0.811196,0.0265138,0.0354538,1840,1415,11.6985,-6.18321
623,-391,11.5747,6.26282,-0.0107626,-0.00982413,0.0165154,0.00622872,-0.0268154,0.7996,0.0202747,0.0193539,1847,1415,11.5747,-6.26284
630,-391,11.5621,6.11816,-0.00795226,-0.00775345,0.0122425,0.00439001,-0.0200957,0.789458,0.0150751,0.0170051,1854,1415,11.5622,-6.11821
637,-391,11.5095,5.97034,-0.00563682,-0.00587382,0.00879528,0.00304076,-0.0145514,0.778662,0.0108574,0.0144463,1861,1415,11.5095,-5.97034
644,-391,11.4884,5.77625,-0.00379091,-0.00420927,0.00608078,0.00208429,-0.0100845,0.768205,0.00751472,0.0151283,1868,1415,11.4884,-5.7762
651,-391,11.5011,5.59741,-0.0021331,-0.00275527,0.00401852,0.00158636,-0.00647473,0.746769,0.00493108,0.015288,1875,1415,11.5011,-5.59739
658,-391,11.5123,5.43872,-0.000679575,-0.00249993,0.00270698,0.00126615,-0.00444565,0.623219,0.00346384,0.0151161,1882,1415,11.5124,-5.43868
665,-391,11.5442,5.25854,0.000998363,-0.00353827,0.00169746,0.00156318,-0.00410308,0.321218,0.0033792,0.0131381,1889,1415,11.5442,-5.25858
672,-391,11.5687,5.06677,0.00244351,-0.00514659,0.00154365,0.00274544,-0.00544852,0.193157,0.00481583,0.0123654,1896,1415,11.5687,-5.06679
679,-391,11.5479,4.89319,0.00574607,-0.00891358,0.00173475,0.00594856,-0.00911606,0.116197,0.00876141,0.0112901,1903,1415,11.5478,-4.89315
686,-391,11.5347,4.69824,0.0113768,-0.0144999,0.00216798,0.0115572,-0.0146802,0.0830101,0.0151839,0.011788,1910,1415,11.5346,-4.69818
693,-391,11.5037,4.59485,0.0184279,-0.0228018,0.00303515,0.0186501,-0.023024,0.0730905,0.0241047,0.0253879,1917,1415,11.5037,-4.59488
700,-391,11.1875,4.66052,0,0,0,0,0,0,0,-1,1924,1415,11.1875,-4.66053
707,-391,11.5243,5.89844,0,0,0,0,0,0,0,-1,1931,1415,11.5243,-5.89848
714,-391,12.5084,7.60242,0,0,0,0,0,0,0,-1,1938,1415,12.5084,-7.60241
721,-391,14.1808,8.08435,0,0,0,0,0,0,0,-1,1945,1415,14.1808,-8.08439
728,-391,13.8102,7.28174,0,0,0,0,0,0,0,-1,1952,1415,13.8102,-7.28174
735,-391,0,0,0,0,0,0,0,0,0,-1,1959,1415,0,0
742,-391,0,0,0,0,0,0,0,0,0,-1,1966,1415,0,0
749,-391,0,0,0,0,0,0,0,0,0,-1,1973,1415,0,0
756,-391,0,0,0,0,0,0,0,0,0,-1,1980,1415,0,0
763,-391,0,0,0,0,0,0,0,0,0,-1,1987,1415,0,0
770,-391,0,0,0,0,0,0,0,0,0,-1,1994,1415,0,0
777,-391,0,0,0,0,0,0,0,0,0,-1,2001,1415,0,0
784,-391,0,0,0,0,0,0,0,0,0,-1,2008,1415,0,0
791,-391,0,0,0,0,0,0,0,0,0,-1,2015,1415,0,0
798,-391,0,0,0,0,0,0,0,0,0,-1,2022,1415,0,0
805,-391,0,0,0,0,0,0,0,0,0,-1,2029,1415,0,0
812,-391,0,0,0,0,0,0,0,0,0,-1,2036,1415,0,0
-700,-398,0,0,0,0,0,0,0,0,0,-1,524,1422,0,0
-693,-398,0,0,0,0,0,0,0,0,0,-1,531,1422,0,0
-686,-398,0,0,0,0,0,0,0,0,0,-1,538,1422,0,0
-679,-398,0,0,0,0,0,0,0,0,0,-1,545,1422,0,0
-672,-398,0,0,0,0,0,0,0,0,0,-1,552,1422,0,0
-665,-398,0,0,0,0,0,0,0,0,0,-1,559,1422,0,0
-658,-398,0,0,0,0,0,0,0,0,0,-1,566,1422,0,0
-651,-398,0,0,0,0,0,0,0,0,0,-1,573,1422,0,0
-644,-398,0,0,0,0,0,0,0,0,0,-1,580,1422,0,0
-637,-398,0,0,0,0,0,0,0,0,0,-1,587,1422,0,0
-630,-398,0,0,0,0,0,0,0,0,0,-1,594,1422,0,0
-623,-398,0,0,0,0,0,0,0,0,0,-1,601,1422,0,0
-616,-398,0,0,0,0,0,0,0,0,0,-1,608,1422,0,0
-609,-398,-1.89392,-4.03625,0,0,0,0,0,0,0,-1,615,1422,-1.89394,4.03628
-602,-398,-1.96344,-2.73303,0.0334562,-0.00241401,0.0684211,0.0862538,-0.0552116,0.657218,0.082328,0.0483242,622,1422,-1.96341,2.73297
-595,-398,-2.55194,-1.69983,0.0266579,-0.00212862,0.0595517,0.073531,-0.0490017,0.666825,0.0712152,0.0435898,629,1422,-2.55192,1.69985
-588,-398,-2.24683,-0.434692,0,0,0,0,0,0,0,-1,636,1422,-2.24684,0.434686
-581,-398,-1.83307,0.725586,0,0,0,0,0,0,0,-1,643,1422,-1.83307,-0.725603
-574,-398,-2.96826,1.40161,0,0,0,0,0,0,0,-1,650,1422,-2.96826,-1.40163
-567,-398,-3.30725,1.92285,0.0049058,0.00178908,0.0257831,0.0291776,-0.0224827,0.755214,0.0299095,0.0491474,657,1422,-3.30722,-1.92288
-560,-398,-3.979,2.61462,0.00200429,0.00213286,0.0191643,0.021233,-0.0170958,0.787075,0.0221721,0.0414587,664,1422,-3.97898,-2.61467
-553,-398,-3.91107,2.82837,-0.0012701,0.00287088,0.0135146,0.0144726,-0.0128719,0.861409,0.0157964,0.0286205,671,1422,-3.9111,-2.82837
-546,-398,-3.95142,2.97217,-0.00222322,0.00290887,0.00891036,0.00961532,-0.00892966,0.925597,0.0107094,0.0135853,678,1422,-3.95143,-2.97222
-539,-398,-3.9375,3.19739,-0.00178588,0.00215959,0.00525065,0.00579587,-0.00542216,0.965096,0.00647793,0.0126878,685,1422,-3.93749,-3.19738
-532,-398,-3.93738,3.39221,-0.000999143,0.00115147,0.00313062,0.00338631,-0.00323398,0.950826,0.00382256,0.0207192,692,1422,-3.93738,-3.39227
-525,-398,-3.92834,3.59192,-0.000460713,-0.000182899,0.00112023,0.000807004,-0.00145062,0.847083,0.00132098,0.0200651,699,1422,-3.92833,-3.59196
-518,-398,-3.92426,3.79138,7.38303e-05,-0.00187376,-0.000525318,0.000206487,-0.00200641,-0.247356,0.00141148,0.0169827,706,1422,-3.92427,-3.79142
-511,-398,-3.9173,3.9812,0.000180079,-0.00372509,-0.00218632,0.00115881,-0.00470381,-0.420906,0.00358512,0.0129352,713,1422,-3.91732,-3.98126
-504,-398,-3.90753,4.19946,-0.000467413,-0.00596581,-0.00421512,0.00181581,-0.00824904,-0.49643,0.006194,0.0129,720,1422,-3.90754,-4.19946
-497,-398,-3.92694,4.41614,-0.001411,-0.00906969,-0.00670039,0.00247711,-0.0129578,-0.525795,0.00957169,0.00933242,727,1422,-3.92692,-4.41617
-490,-398,-3.92853,4.62317,-0.00265213,-0.0135105,-0.00968627,0.00302274,-0.0191853,-0.529963,0.0139077,0.0102199,734,1422,-3.92855,-4.6232
-483,-398,-3.84137,4.8512,-0.00414662,-0.018595,-0.0132769,0.00374425,-0.0264859,-0.53624,0.0190285,0.0210123,741,1422,-3.84138,-4.85117
-476,-398,-3.82031,4.77832,-0.00608837,-0.0247958,-0.0176672,0.00454848,-0.0354327,-0.541938,0.0252747,0.0448176,748,1422,-3.82034,-4.77835
-469,-398,-3.84924,4.71533,0,0,0,0,0,0,0,-1,755,1422,-3.84923,-4.71534
-462,-398,-3.3139,4.97729,0,0,0,0,0,0,0,-1,762,1422,-3.31393,-4.97729
-455,-398,-4.11871,4.69873,0,0,0,0,0,0,0,-1,769,1422,-4.11869,-4.69875
-448,-398,-3.96271,3.68347,0,0,0,0,0,0,0,-1,776,1422,-3.96271,-3.68351
-441,-398,-2.95306,2.51233,0,0,0,0,0,0,0,-1,783,1422,-2.95305,-2.51227
-434,-398,-3.71259,0.368286,0,0,0,0,0,0,0,-1,790,1422,-3.7126,-0.368295
-427,-398,-3.55646,1.08508,0,0,0,0,0,0,0,-1,797,1422,-3.55649,-1.0851
-420,-398,-2.02679,3.55188,0,0,0,0,0,0,0,-1,804,1422,-2.02678,-3.5519
-413,-398,-1.77942,2.48938,0,0,0,0,0,0,0,-1,811,1422,-1.77943,-2.48934
-406,-398,0,0,0,0,0,0,0,0,0,-1,818,1422,0,0
-399,-398,0,0,0,0,0,0,0,0,0,-1,825,1422,0,0
-392,-398,0,0,0,0,0,0,0,0,0,-1,832,1422,0,0
-385,-398,0,0,0,0,0,0,0,0,0,-1,839,1422,0,0
-378,-398,0,0,0,0,0,0,0,0,0,-1,846,1422,0,0
-371,-398,0,0,0,0,0,0,0,0,0,-1,853,1422,0,0
-364,-398,0,0,0,0,0,0,0,0,0,-1,860,1422,0,0
-357,-398,0,0,0,0,0,0,0,0,0,-1,867,1422,0,0
-350,-398,0,0,0,0,0,0,0,0,0,-1,874,1422,0,0
-343,-398,0,0,0,0,0,0,0,0,0,-1,881,1422,0,0
-336,-398,0,0,0,0,0,0,0,0,0,-1,888,1422,0,0
-329,-398,0,0,0,0,0,0,0,0,0,-1,895,1422,0,0
-322,-398,0,0,0,0,0,0,0,0,0,-1,902,1422,0,0
-315,-398,0,0,0,0,0,0,0,0,0,-1,909,1422,0,0
-308,-398,0,0,0,0,0,0,0,0,0,-1,916,1422,0,0
-301,-398,0,0,0,0,0,0,0,0,0,-1,923,1422,0,0
-294,-398,0,0,0,0,0,0,0,0,0,-1,930,1422,0,0
-287,-398,0,0,0,0,0,0,0,0,0,-1,937,1422,0,0
-280,-398,0,0,0,0,0,0,0,0,0,-1,944,1422,0,0
-273,-398,0,0,0,0,0,0,0,0,0,-1,951,1422,0,0
-266,-398,0,0,0,0,0,0,0,0,0,-1,958,1422,0,0
-259,-398,0,0,0,0,0,0,0,0,0,-1,965,1422,0,0
-252,-398,0,0,0,0,0,0,0,0,0,-1,972,1422,0,0
-245,-398,0,0,0,0,0,0,0,0,0,-1,979,1422,0,0
-238,-398,0,0,0,0,0,0,0,0,0,-1,986,1422,0,0
-231,-398,0,0,0,0,0,0,0,0,0,-1,993,1422,0,0
-224,-398,0,0,0,0,0,0,0,0,0,-1,1000,1422,0,0
-217,-398,0,0,0,0,0,0,0,0,0,-1,1007,1422,0,0
-210,-398,0,0,0,0,0,0,0,0,0,-1,1014,1422,0,0
-203,-398,0,0,0,0,0,0,0,0,0,-1,1021,1422,0,0
-196,-398,0,0,0,0,0,0,0,0,0,-1,1028,1422,0,0
-189,-398,0,0,0,0,0,0,0,0,0,-1,1035,1422,0,0
-182,-398,0,0,0,0,0,0,0,0,0,-1,1042,1422,0,0
-175,-398,0,0,0,0,0,0,0,0,0,-1,1049,1422,0,0
-168,-398,0,0,0,0,0,0,0,0,0,-1,1056,1422,0,0
-161,-398,0,0,0,0,0,0,0,0,0,-1,1063,1422,0,0
-154,-398,0,0,0,0,0,0,0,0,0,-1,1070,1422,0,0
-147,-398,0,0,0,0,0,0,0,0,0,-1,1077,1422,0,0
-140,-398,0,0,0,0,0,0,0,0,0,-1,1084,1422,0,0
-133,-398,0,0,0,0,0,0,0,0,0,-1,1091,1422,0,0
-126,-398,0,0,0,0,0,0,0,0,0,-1,1098,1422,0,0
-119,-398,0,0,0,0,0,0,0,0,0,-1,1105,1422,0,0
-112,-398,0,0,0,0,0,0,0,0,0,-1,1112,1422,0,0
-105,-398,0,0,0,0,0,0,0,0,0,-1,1119,1422,0,0
-98,-398,0,0,0,0,0,0,0,0,0,-1,1126,1422,0,0
-91,-398,0,0,0,0,0,0,0,0,0,-1,1133,1422,0,0
-84,-398,0,0,0,0,0,0,0,0,0,-1,1140,1422,0,0
-77,-398,0,0,0,0,0,0,0,0,0,-1,1147,1422,0,0
-70,-398,0,0,0,0,0,0,0,0,0,-1,1154,1422,0,0
-63,-398,0,0,0,0,0,0,0,0,0,-1,1161,1422,0,0
-56,-398,0,0,0,0,0,0,0,0,0,-1,1168,1422,0,0
-49,-398,0,0,0,0,0,0,0,0,0,-1,1175,1422,0,0
-42,-398,0,0,0,0,0,0,0,0,0,-1,1182,1422,0,0
-35,-398,0,0,0,0,0,0,0,0,0,-1,1189,1422,0,0
-28,-398,0,0,0,0,0,0,0,0,0,-1,1196,1422,0,0
-21,-398,0,0,0,0,0,0,0,0,0,-1,1203,1422,0,0
-14,-398,0,0,0,0,0,0,0,0,0,-1,1210,1422,0,0
-7,-398,0,0,0,0,0,0,0,0,0,-1,1217,1422,0,0
0,-398,0,0,0,0,0,0,0,0,0,-1,1224,1422,0,0
7,-398,0,0,0,0,0,0,0,0,0,-1,1231,1422,0,0
14,-398,0,0,0,0,0,0,0,0,0,-1,1238,1422,0,0
21,-398,0,0,0,0,0,0,0,0,0,-1,1245,1422,0,0
28,-398,0,0,0,0,0,0,0,0,0,-1,1252,1422,0,0
35,-398,0,0,0,0,0,0,0,0,0,-1,1259,1422,0,0
42,-398,0,0,0,0,0,0,0,0,0,-1,1266,1422,0,0
49,-398,0,0,0,0,0,0,0,0,0,-1,1273,1422,0,0
56,-398,0,0,0,0,0,0,0,0,0,-1,1280,1422,0,0
63,-398,0,0,0,0,0,0,0,0,0,-1,1287,1422,0,0
70,-398,0,0,0,0,0,0,0,0,0,-1,1294,1422,0,0
77,-398,0,0,0,0,0,0,0,0,0,-1,1301,1422,0,0
84,-398,0,0,0,0,0,0,0,0,0,-1,1308,1422,0,0
91,-398,0,0,0,0,0,0,0,0,0,-1,1315,1422,0,0
98,-398,0,0,0,0,0,0,0,0,0,-1,1322,1422,0,0
105,-398,0,0,0,0,0,0,0,0,0,-1,1329,1422,0,0
112,-398,0,0,0,0,0,0,0,0,0,-1,1336,1422,0,0
119,-398,0,0,0,0,0,0,0,0,0,-1,1343,1422,0,0
126,-398,0,0,0,0,0,0,0,0,0,-1,1350,1422,0,0
133,-398,0,0,0,0,0,0,0,0,0,-1,1357,1422,0,0
140,-398,0,0,0,0,0,0,0,0,0,-1,1364,1422,0,0
147,-398,0,0,0,0,0,0,0,0,0,-1,1371,1422,0,0
154,-398,0,0,0,0,0,0,0,0,0,-1,1378,1422,0,0
161,-398,0,0,0,0,0,0,0,0,0,-1,1385,1422,0,0
168,-398,0,0,0,0,0,0,0,0,0,-1,1392,1422,0,0
175,-398,0,0,0,0,0,0,0,0,0,-1,1399,1422,0,0
182,-398,0,0,0,0,0,0,0,0,0,-1,1406,1422,0,0
189,-398,0,0,0,0,0,0,0,0,0,-1,1413,1422,0,0
196,-398,0,0,0,0,0,0,0,0,0,-1,1420,1422,0,0
203,-398,0,0,0,0,0,0,0,0,0,-1,1427,1422,0,0
210,-398,0,0,0,0,0,0,0,0,0,-1,1434,1422,0,0
217,-398,0,0,0,0,0,0,0,0,0,-1,1441,1422,0,0
224,-398,0,0,0,0,0,0,0,0,0,-1,1448,1422,0,0
231,-398,0,0,0,0,0,0,0,0,0,-1,1455,1422,0,0
238,-398,0,0,0,0,0,0,0,0,0,-1,1462,1422,0,0
245,-398,0,0,0,0,0,0,0,0,0,-1,1469,1422,0,0
252,-398,0,0,0,0,0,0,0,0,0,-1,1476,1422,0,0
259,-398,0,0,0,0,0,0,0,0,0,-1,1483,1422,0,0
266,-398,0,0,0,0,0,0,0,0,0,-1,1490,1422,0,0
273,-398,0,0,0,0,0,0,0,0,0,-1,1497,1422,0,0
280,-398,0,0,0,0,0,0,0,0,0,-1,1504,1422,0,0
287,-398,0,0,0,0,0,0,0,0,0,-1,1511,1422,0,0
294,-398,0,0,0,0,0,0,0,0,0,-1,1518,1422,0,0
301,-398,0,0,0,0,0,0,0,0,0,-1,1525,1422,0,0
308,-398,0,0,0,0,0,0,0,0,0,-1,1532,1422,0,0
315,-398,0,0,0,0,0,0,0,0,0,-1,1539,1422,0,0
322,-398,0,0,0,0,0,0,0,0,0,-1,1546,1422,0,0
329,-398,0,0,0,0,0,0,0,0,0,-1,1553,1422,0,0
336,-398,0,0,0,0,0,0,0,0,0,-1,1560,1422,0,0
343,-398,0,0,0,0,0,0,0,0,0,-1,1567,1422,0,0
350,-398,0,0,0,0,0,0,0,0,0,-1,1574,1422,0,0
357,-398,0,0,0,0,0,0,0,0,0,-1,1581,1422,0,0
364,-398,0,0,0,0,0,0,0,0,0,-1,1588,1422,0,0
371,-398,0,0,0,0,0,0,0,0,0,-1,1595,1422,0,0
378,-398,0,0,0,0,0,0,0,0,0,-1,1602,1422,0,0
385,-398,0,0,0,0,0,0,0,0,0,-1,1609,1422,0,0
392,-398,0,0,0,0,0,0,0,0,0,-1,1616,1422,0,0
399,-398,0,0,0,0,0,0,0,0,0,-1,1623,1422,0,0
406,-398,0,0,0,0,0,0,0,0,0,-1,1630,1422,0,0
413,-398,0,0,0,0,0,0,0,0,0,-1,1637,1422,0,0
420,-398,0,0,0,0,0,0,0,0,0,-1,1644,1422,0,0
427,-398,0,0,0,0,0,0,0,0,0,-1,1651,1422,0,0
434,-398,0,0,0,0,0,0,0,0,0,-1,1658,1422,0,0
441,-398,0,0,0,0,0,0,0,0,0,-1,1665,1422,0,0
448,-398,0,0,0,0,0,0,0,0,0,-1,1672,1422,0,0
455,-398,0,0,0,0,0,0,0,0,0,-1,1679,1422,0,0
462,-398,0,0,0,0,0,0,0,0,0,-1,1686,1422,0,0
469,-398,0,0,0,0,0,0,0,0,0,-1,1693,1422,0,0
476,-398,0,0,0,0,0,0,0,0,0,-1,1700,1422,0,0
483,-398,0,0,0,0,0,0,0,0,0,-1,1707,1422,0,0
490,-398,0,0,0,0,0,0,0,0,0,-1,1714,1422,0,0
497,-398,0,0,0,0,0,0,0,0,0,-1,1721,1422,0,0
504,-398,0,0,0,0,0,0,0,0,0,-1,1728,1422,0,0
511,-398,0,0,0,0,0,0,0,0,0,-1,1735,1422,0,0
518,-398,0,0,0,0,0,0,0,0,0,-1,1742,1422,0,0
525,-398,0,0,0,0,0,0,0,0,0,-1,1749,1422,0,0
532,-398,14.3583,2.38013,0,0,0,0,0,0,0,-1,1756,1422,14.3583,-2.38009
539,-398,14.4083,2.59595,0,0,0,0,0,0,0,-1,1763,1422,14.4084,-2.59597
546,-398,15.1697,2.71484,0,0,0,0,0,0,0,-1,1770,1422,15.1697,-2.71489
553,-398,15.0483,2.65625,0,0,0,0,0,0,0,-1,1777,1422,15.0483,-2.65628
560,-398,14.8939,2.65112,0,0,0,0,0,0,0,-1,1784,1422,14.8939,-2.6511
567,-398,14.8154,3.60425,0,0,0,0,0,0,0,-1,1791,1422,14.8154,-3.60427
574,-398,14.564,3.85864,0,0,0,0,0,0,0,-1,1798,1422,14.564,-3.85858
581,-398,13.532,2.37219,0,0,0,0,0,0,0,-1,1805,1422,13.532,-2.37222
588,-398,13.5308,3.4978,0,0,0,0,0,0,0,-1,1812,1422,13.5308,-3.49777
595,-398,11.3235,4.23254,0,0,0,0,0,0,0,-1,1819,1422,11.3235,-4.23257
602,-398,11.864,5.90723,0,0,0,0,0,0,0,-1,1826,1422,11.8641,-5.90723
609,-398,11.5955,6.22229,-0.0173174,-0.0159212,0.0249214,0.00831182,-0.0415504,0.799401,0.0308465,0.0462251,1833,1422,11.5955,-6.22235
616,-398,11.4189,6.4613,-0.0134273,-0.0128773,0.0193389,0.00618855,-0.0324932,0.792508,0.0239925,0.0173379,1840,1422,11.4189,-6.46127
623,-398,11.34,6.3125,-0.0100554,-0.0101279,0.0146295,0.00453785,-0.0247211,0.784159,0.0181831,0.0100456,1847,1422,11.34,-6.31251
630,-398,11.3499,6.11816,-0.00728078,-0.00768661,0.0107432,0.00326141,-0.0182288,0.775956,0.0133729,0.0107747,1854,1422,11.3499,-6.11821
637,-398,11.3402,5.94385,-0.00499587,-0.00566337,0.00758892,0.00226664,-0.0129259,0.763423,0.00946372,0.0121112,1861,1422,11.3402,-5.94384
644,-398,11.2657,5.77991,-0.00318111,-0.00396731,0.0051123,0.00155318,-0.0087016,0.747027,0.00638211,0.0174112,1868,1422,11.2657,-5.77993
651,-398,11.3066,5.6554,-0.00154101,-0.00254315,0.0032256,0.00122221,-0.00530636,0.708343,0.00400759,0.0241645,1875,1422,11.3066,-5.65536
658,-398,11.3379,5.47681,-0.000104917,-0.00226898,0.00207897,0.00115675,-0.00353064,0.545456,0.00281958,0.0196717,1882,1422,11.3379,-5.47676
665,-398,11.3218,5.25562,0.00156222,-0.00355853,0.00131057,0.00187814,-0.00387446,0.236547,0.00338727,0.0146444,1889,1422,11.3218,-5.25565
672,-398,11.3469,5.06689,0.00294481,-0.00549422,0.00140184,0.00317158,-0.00572099,0.160378,0.00520398,0.01361,1896,1422,11.3469,-5.06687
679,-398,11.3627,4.89197,0.00598925,-0.00957899,0.0018111,0.00619717,-0.0097869,0.114299,0.00930566,0.011874,1903,1422,11.3626,-4.89202
686,-398,11.3781,4.68359,0.0112527,-0.0157843,0.00244822,0.0114726,-0.0160042,0.0895801,0.0159355,0.0165557,1910,1422,11.3781,-4.68358
693,-398,11.213,4.60767,0.0182699,-0.0251816,0.00360121,0.0185663,-0.025478,0.0821321,0.0255331,0.0427988,1917,1422,11.213,-4.6077
700,-398,11.0984,4.52844,0,0,0,0,0,0,0,-1,1924,1422,11.0984,-4.52849
707,-398,10.9731,5.479,0,0,0,0,0,0,0,-1,1931,1422,10.9732,-5.47896
714,-398,11.7313,6.17346,0,0,0,0,0,0,0,-1,1938,1422,11.7313,-6.17348
721,-398,13.9371,8.05103,0,0,0,0,0,0,0,-1,1945,1422,13.9372,-8.05102
728,-398,14.786,7.0282,0,0,0,0,0,0,0,-1,1952,1422,14.786,-7.0282
735,-398,0,0,0,0,0,0,0,0,0,-1,1959,1422,0,0
742,-398,0,0,0,0,0,0,0,0,0,-1,1966,1422,0,0
749,-398,0,0,0,0,0,0,0,0,0,-1,1973,1422,0,0
756,-398,0,0,0,0,0,0,0,0,0,-1,1980,1422,0,0
763,-398,0,0,0,0,0,0,0,0,0,-1,1987,1422,0,0
770,-398,0,0,0,0,0,0,0,0,0,-1,1994,1422,0,0
777,-398,0,0,0,0,0,0,0,0,0,-1,2001,1422,0,0
784,-398,0,0,0,0,0,0,0,0,0,-1,2008,1422,0,0
791,-398,0,0,0,0,0,0,0,0,0,-1,2015,1422,0,0
798,-398,0,0,0,0,0,0,0,0,0,-1,2022,1422,0,0
805,-398,0,0,0,0,0,0,0,0,0,-1,2029,1422,0,0
812,-398,0,0,0,0,0,0,0,0,0,-1,2036,1422,0,0
-700,-405,0,0,0,0,0,0,0,0,0,-1,524,1429,0,0
-693,-405,0,0,0,0,0,0,0,0,0,-1,531,1429,0,0
-686,-405,0,0,0,0,0,0,0,0,0,-1,538,1429,0,0
-679,-405,0,0,0,0,0,0,0,0,0,-1,545,1429,0,0
-672,-405,0,0,0,0,0,0,0,0,0,-1,552,1429,0,0
-665,-405,0,0,0,0,0,0,0,0,0,-1,559,1429,0,0
-658,-405,0,0,0,0,0,0,0,0,0,-1,566,1429,0,0
-651,-405,0,0,0,0,0,0,0,0,0,-1,573,1429,0,0
-644,-405,0,0,0,0,0,0,0,0,0,-1,580,1429,0,0
-637,-405,0,0,0,0,0,0,0,0,0,-1,587,1429,0,0
-630,-405,0,0,0,0,0,0,0,0,0,-1,594,1429,0,0
-623,-405,0,0,0,0,0,0,0,0,0,-1,601,1429,0,0
-616,-405,0,0,0,0,0,0,0,0,0,-1,608,1429,0,0
-609,-405,0,0,0,0,0,0,0,0,0,-1,615,1429,0,0
-602,-405,-1.64905,-2.82837,0,0,0,0,0,0,0,-1,622,1429,-1.64907,2.82837
-595,-405,-2.86743,-2.33301,0,0,0,0,0,0,0,-1,629,1429,-2.86741,2.33295
-588,-405,-7.53772,2.56042,0,0,0,0,0,0,0,-1,636,1429,-7.53773,-2.56046
-581,-405,-6.60419,2.54785,0,0,0,0,0,0,0,-1,643,1429,-6.60418,-2.5479
-574,-405,-5.65741,2.48511,0,0,0,0,0,0,0,-1,650,1429,-5.65739,-2.48514
-567,-405,-2.98456,1.84216,0,0,0,0,0,0,0,-1,657,1429,-2.98458,-1.84221
-560,-405,-3.85071,2.62024,0.0131729,0.00362283,0.0261674,0.0349974,-0.0182016,0.695151,0.0312205,0.049142,664,1429,-3.85071,-2.62019
-553,-405,-3.6145,2.8689,0.00792979,0.00411564,0.0193169,0.0254335,-0.0133881,0.736195,0.0227704,0.0399677,671,1429,-3.61453,-2.86885
-546,-405,-3.72742,2.96423,0.00525558,0.00393361,0.0135726,0.0181832,-0.00899406,0.761067,0.015987,0.0194601,678,1429,-3.7274,-2.9642
-539,-405,-3.74951,3.17249,0.00405212,0.00301357,0.00896688,0.0125148,-0.00544906,0.756475,0.0106355,0.0108724,685,1429,-3.74954,-3.17246
-532,-405,-3.75085,3.38391,0.0032817,0.00210605,0.0060989,0.00882104,-0.00343329,0.737355,0.00729942,0.0142348,692,1429,-3.75084,-3.38391
-525,-405,-3.72705,3.60901,0.00260756,0.000915271,0.00353977,0.00540092,-0.00187808,0.66808,0.00436351,0.0141548,699,1429,-3.72705,-3.60903
-518,-405,-3.71234,3.79749,0.00218071,-0.000673146,0.00143927,0.00278051,-0.00127294,0.394852,0.00239361,0.0143422,706,1429,-3.71236,-3.79746
-511,-405,-3.7229,3.98572,0.00146127,-0.00238699,-0.000620577,0.00155887,-0.00248459,-0.155995,0.0023548,0.0146528,713,1429,-3.72291,-3.98568
-504,-405,-3.6955,4.17639,0.000449422,-0.00443713,-0.0027517,0.00168602,-0.00567372,-0.422349,0.0044522,0.016832,720,1429,-3.6955,-4.17642
-497,-405,-3.67987,4.39893,-0.000577828,-0.00720017,-0.00515252,0.00223573,-0.0100137,-0.499809,0.00753248,0.0133276,727,1429,-3.67987,-4.39888
-490,-405,-3.7204,4.62878,-0.00176259,-0.0112056,-0.00792915,0.00274434,-0.0157125,-0.51686,0.0114995,0.0113288,734,1429,-3.72041,-4.62879
-483,-405,-3.69672,4.83569,-0.00303216,-0.0158146,-0.0111611,0.00343813,-0.0222848,-0.525372,0.0161252,0.0106841,741,1429,-3.69673,-4.83563
-476,-405,-3.62939,4.97729,-0.00454963,-0.0211979,-0.0149515,0.00423873,-0.0299862,-0.531396,0.0215432,0.0267382,748,1429,-3.6294,-4.97726
-469,-405,-3.51147,5.02271,-0.0064639,-0.027847,-0.0196544,0.00521874,-0.0395297,-0.536294,0.0282538,0.0403748,755,1429,-3.5115,-5.02272
-462,-405,-3.34216,5.13623,-0.00905621,-0.0360409,-0.0254477,0.00625475,-0.0513519,-0.541642,0.0364986,0.0452874,762,1429,-3.34214,-5.1362
-455,-405,-3.74384,4.79126,-0.0125022,-0.0458747,-0.0323664,0.00722609,-0.065603,-0.547396,0.0463322,0.0444576,769,1429,-3.74384,-4.79128
-448,-405,-4.12689,4.41968,0,0,0,0,0,0,0,-1,776,1429,-4.12686,-4.41964
-441,-405,-3.55841,2.85327,0,0,0,0,0,0,0,-1,783,1429,-3.55841,-2.85331
-434,-405,-1.48053,1.55676,0,0,0,0,0,0,0,-1,790,1429,-1.48053,-1.55682
-427,-405,-2.31445,4.56921,0,0,0,0,0,0,0,-1,797,1429,-2.31443,-4.56921
-420,-405,-2.51123,1.51331,0,0,0,0,0,0,0,-1,804,1429,-2.51123,-1.51333
-413,-405,-2.64545,2.01294,0,0,0,0,0,0,0,-1,811,1429,-2.64547,-2.01294
-406,-405,-6.7381,2.14014,0,0,0,0,0,0,0,-1,818,1429,-6.73809,-2.14017
-399,-405,0,0,0,0,0,0,0,0,0,-1,825,1429,0,0
-392,-405,0,0,0,0,0,0,0,0,0,-1,832,1429,0,0
-385,-405,0,0,0,0,0,0,0,0,0,-1,839,1429,0,0
-378,-405,0,0,0,0,0,0,0,0,0,-1,846,1429,0,0
-371,-405,0,0,0,0,0,0,0,0,0,-1,853,1429,0,0
-364,-405,0,0,0,0,0,0,0,0,0,-1,860,1429,0,0
-357,-405,0,0,0,0,0,0,0,0,0,-1,867,1429,0,0
-350,-405,0,0,0,0,0,0,0,0,0,-1,874,1429,0,0
-343,-405,0,0,0,0,0,0,0,0,0,-1,881,1429,0,0
-336,-405,0,0,0,0,0,0,0,0,0,-1,888,1429,0,0
-329,-405,0,0,0,0,0,0,0,0,0,-1,895,1429,0,0
-322,-405,0,0,0,0,0,0,0,0,0,-1,902,1429,0,0
-315,-405,0,0,0,0,0,0,0,0,0,-1,909,1429,0,0
-308,-405,0,0,0,0,0,0,0,0,0,-1,916,1429,0,0
-301,-405,0,0,0,0,0,0,0,0,0,-1,923,1429,0,0
-294,-405,0,0,0,0,0,0,0,0,0,-1,930,1429,0,0
-287,-405,0,0,0,0,0,0,0,0,0,-1,937,1429,0,0
-280,-405,0,0,0,0,0,0,0,0,0,-1,944,1429,0,0
-273,-405,0,0,0,0,0,0,0,0,0,-1,951,1429,0,0
-266,-405,0,0,0,0,0,0,0,0,0,-1,958,1429,0,0
-259,-405,0,0,0,0,0,0,0,0,0,-1,965,1429,0,0
-252,-405,0,0,0,0,0,0,0,0,0,-1,972,1429,0,0
-245,-405,0,0,0,0,0,0,0,0,0,-1,979,1429,0,0
-238,-405,0,0,0,0,0,0,0,0,0,-1,986,1429,0,0
-231,-405,0,0,0,0,0,0,0,0,0,-1,993,1429,0,0
-224,-405,0,0,0,0,0,0,0,0,0,-1,1000,1429,0,0
-217,-405,0,0,0,0,0,0,0,0,0,-1,1007,1429,0,0
-210,-405,0,0,0,0,0,0,0,0,0,-1,1014,1429,0,0
-203,-405,0,0,0,0,0,0,0,0,0,-1,1021,1429,0,0
-196,-405,0,0,0,0,0,0,0,0,0,-1,1028,1429,0,0
-189,-405,0,0,0,0,0,0,0,0,0,-1,1035,1429,0,0
-182,-405,0,0,0,0,0,0,0,0,0,-1,1042,1429,0,0
-175,-405,0,0,0,0,0,0,0,0,0,-1,1049,1429,0,0
-168,-405,0,0,0,0,0,0,0,0,0,-1,1056,1429,0,0
-161,-405,0,0,0,0,0,0,0,0,0,-1,1063,1429,0,0
-154,-405,0,0,0,0,0,0,0,0,0,-1,1070,1429,0,0
-147,-405,0,0,0,0,0,0,0,0,0,-1,1077,1429,0,0
-140,-405,0,0,0,0,0,0,0,0,0,-1,1084,1429,0,0
-133,-405,0,0,0,0,0,0,0,0,0,-1,1091,1429,0,0
-126,-405,0,0,0,0,0,0,0,0,0,-1,1098,1429,0,0
-119,-405,0,0,0,0,0,0,0,0,0,-1,1105,1429,0,0
-112,-405,0,0,0,0,0,0,0,0,0,-1,1112,1429,0,0
-105,-405,0,0,0,0,0,0,0,0,0,-1,1119,1429,0,0
-98,-405,0,0,0,0,0,0,0,0,0,-1,1126,1429,0,0
-91,-405,0,0,0,0,0,0,0,0,0,-1,1133,1429,0,0
-84,-405,0,0,0,0,0,0,0,0,0,-1,1140,1429,0,0
-77,-405,0,0,0,0,0,0,0,0,0,-1,1147,1429,0,0
-70,-405,0,0,0,0,0,0,0,0,0,-1,1154,1429,0,0
-63,-405,0,0,0,0,0,0,0,0,0,-1,1161,1429,0,0
-56,-405,0,0,0,0,0,0,0,0,0,-1,1168,1429,0,0
-49,-405,0,0,0,0,0,0,0,0,0,-1,1175,1429,0,0
-42,-405,0,0,0,0,0,0,0,0,0,-1,1182,1429,0,0
-35,-405,0,0,0,0,0,0,0,0,0,-1,1189,1429,0,0
-28,-405,0,0,0,0,0,0,0,0,0,-1,1196,1429,0,0
-21,-405,0,0,0,0,0,0,0,0,0,-1,1203,1429,0,0
-14,-405,0,0,0,0,0,0,0,0,0,-1,1210,1429,0,0
-7,-405,0,0,0,0,0,0,0,0,0,-1,1217,1429,0,0
0,-405,0,0,0,0,0,0,0,0,0,-1,1224,1429,0,0
7,-405,0,0,0,0,0,0,0,0,0,-1,1231,1429,0,0
14,-405,0,0,0,0,0,0,0,0,0,-1,1238,1429,0,0
21,-405,0,0,0,0,0,0,0,0,0,-1,1245,1429,0,0
28,-405,0,0,0,0,0,0,0,0,0,-1,1252,1429,0,0
35,-405,0,0,0,0,0,0,0,0,0,-1,1259,1429,0,0
42,-405,0,0,0,0,0,0,0,0,0,-1,1266,1429,0,0
49,-405,0,0,0,0,0,0,0,0,0,-1,1273,1429,0,0
56,-405,0,0,0,0,0,0,0,0,0,-1,1280,1429,0,0
63,-405,0,0,0,0,0,0,0,0,0,-1,1287,1429,0,0
70,-405,0,0,0,0,0,0,0,0,0,-1,1294,1429,0,0
77,-405,0,0,0,0,0,0,0,0,0,-1,1301,1429,0,0
84,-405,0,0,0,0,0,0,0,0,0,-1,1308,1429,0,0
91,-405,0,0,0,0,0,0,0,0,0,-1,1315,1429,0,0
98,-405,0,0,0,0,0,0,0,0,0,-1,1322,1429,0,0
105,-405,0,0,0,0,0,0,0,0,0,-1,1329,1429,0,0
112,-405,0,0,0,0,0,0,0,0,0,-1,1336,1429,0,0
119,-405,0,0,0,0,0,0,0,0,0,-1,1343,1429,0,0
126,-405,0,0,0,0,0,0,0,0,0,-1,1350,1429,0,0
133,-405,0,0,0,0,0,0,0,0,0,-1,1357,1429,0,0
140,-405,0,0,0,0,0,0,0,0,0,-1,1364,1429,0,0
147,-405,0,0,0,0,0,0,0,0,0,-1,1371,1429,0,0
154,-405,0,0,0,0,0,0,0,0,0,-1,1378,1429,0,0
161,-405,0,0,0,0,0,0,0,0,0,-1,1385,1429,0,0
168,-405,0,0,0,0,0,0,0,0,0,-1,1392,1429,0,0
175,-405,0,0,0,0,0,0,0,0,0,-1,1399,1429,0,0
182,-405,0,0,0,0,0,0,0,0,0,-1,1406,1429,0,0
189,-405,0,0,0,0,0,0,0,0,0,-1,1413,1429,0,0
196,-405,0,0,0,0,0,0,0,0,0,-1,1420,1429,0,0
203,-405,0,0,0,0,0,0,0,0,0,-1,1427,1429,0,0
210,-405,0,0,0,0,0,0,0,0,0,-1,1434,1429,0,0
217,-405,0,0,0,0,0,0,0,0,0,-1,1441,1429,0,0
224,-405,0,0,0,0,0,0,0,0,0,-1,1448,1429,0,0
231,-405,0,0,0,0,0,0,0,0,0,-1,1455,1429,0,0
238,-405,0,0,0,0,0,0,0,0,0,-1,1462,1429,0,0
245,-405,0,0,0,0,0,0,0,0,0,-1,1469,1429,0,0
252,-405,0,0,0,0,0,0,0,0,0,-1,1476,1429,0,0
259,-405,0,0,0,0,0,0,0,0,0,-1,1483,1429,0,0
266,-405,0,0,0,0,0,0,0,0,0,-1,1490,1429,0,0
273,-405,0,0,0,0,0,0,0,0,0,-1,1497,1429,0,0
280,-405,0,0,0,0,0,0,0,0,0,-1,1504,1429,0,0
287,-405,0,0,0,0,0,0,0,0,0,-1,1511,1429,0,0
294,-405,0,0,0,0,0,0,0,0,0,-1,1518,1429,0,0
301,-405,0,0,0,0,0,0,0,0,0,-1,1525,1429,0,0
308,-405,0,0,0,0,0,0,0,0,0,-1,1532,1429,0,0
315,-405,0,0,0,0,0,0,0,0,0,-1,1539,1429,0,0
322,-405,0,0,0,0,0,0,0,0,0,-1,1546,1429,0,0
329,-405,0,0,0,0,0,0,0,0,0,-1,1553,1429,0,0
336,-405,0,0,0,0,0,0,0,0,0,-1,1560,1429,0,0
343,-405,0,0,0,0,0,0,0,0,0,-1,1567,1429,0,0
350,-405,0,0,0,0,0,0,0,0,0,-1,1574,1429,0,0
357,-405,0,0,0,0,0,0,0,0,0,-1,1581,1429,0,0
364,-405,0,0,0,0,0,0,0,0,0,-1,1588,1429,0,0
371,-405,0,0,0,0,0,0,0,0,0,-1,1595,1429,0,0
378,-405,0,0,0,0,0,0,0,0,0,-1,1602,1429,0,0
385,-405,0,0,0,0,0,0,0,0,0,-1,1609,1429,0,0
392,-405,0,0,0,0,0,0,0,0,0,-1,1616,1429,0,0
399,-405,0,0,0,0,0,0,0,0,0,-1,1623,1429,0,0
406,-405,0,0,0,0,0,0,0,0,0,-1,1630,1429,0,0
413,-405,0,0,0,0,0,0,0,0,0,-1,1637,1429,0,0
420,-405,0,0,0,0,0,0,0,0,0,-1,1644,1429,0,0
427,-405,0,0,0,0,0,0,0,0,0,-1,1651,1429,0,0
434,-405,0,0,0,0,0,0,0,0,0,-1,1658,1429,0,0
441,-405,0,0,0,0,0,0,0,0,0,-1,1665,1429,0,0
448,-405,0,0,0,0,0,0,0,0,0,-1,1672,1429,0,0
455,-405,0,0,0,0,0,0,0,0,0,-1,1679,1429,0,0
462,-405,0,0,0,0,0,0,0,0,0,-1,1686,1429,0,0
469,-405,0,0,0,0,0,0,0,0,0,-1,1693,1429,0,0
476,-405,0,0,0,0,0,0,0,0,0,-1,1700,1429,0,0
483,-405,0,0,0,0,0,0,0,0,0,-1,1707,1429,0,0
490,-405,0,0,0,0,0,0,0,0,0,-1,1714,1429,0,0
497,-405,0,0,0,0,0,0,0,0,0,-1,1721,1429,0,0
504,-405,0,0,0,0,0,0,0,0,0,-1,1728,1429,0,0
511,-405,0,0,0,0,0,0,0,0,0,-1,1735,1429,0,0
518,-405,0,0,0,0,0,0,0,0,0,-1,1742,1429,0,0
525,-405,14.6423,1.7583,0,0,0,0,0,0,0,-1,1749,1429,14.6424,-1.75824
532,-405,14.6371,2.20154,0,0,0,0,0,0,0,-1,1756,1429,14.6371,-2.20148
539,-405,14.4425,2.4873,0,0,0,0,0,0,0,-1,1763,1429,14.4425,-2.48728
546,-405,14.6687,2.55518,0,0,0,0,0,0,0,-1,1770,1429,14.6687,-2.55518
553,-405,14.7871,2.46875,0,0,0,0,0,0,0,-1,1777,1429,14.7871,-2.46872
560,-405,14.6351,2.33765,0,0,0,0,0,0,0,-1,1784,1429,14.6352,-2.33762
567,-405,14.3387,2.32117,0,0,0,0,0,0,0,-1,1791,1429,14.3388,-2.32117
574,-405,13.1868,0.606689,0,0,0,0,0,0,0,-1,1798,1429,13.1868,-0.606683
581,-405,12.6162,2.0719,0,0,0,0,0,0,0,-1,1805,1429,12.6162,-2.07194
588,-405,12.4559,3.46912,0,0,0,0,0,0,0,-1,1812,1429,12.456,-3.46917
595,-405,12.1545,6.43628,0,0,0,0,0,0,0,-1,1819,1429,12.1546,-6.43624
602,-405,11.6703,6.50439,-0.0204737,-0.0204018,0.0282917,0.00785394,-0.0487295,0.786034,0.0353959,0.0398974,1826,1429,11.6703,-6.50443
609,-405,11.2046,6.63037,-0.0161367,-0.0164209,0.0223247,0.00604638,-0.038604,0.782215,0.0279702,0.0184905,1833,1429,11.2046,-6.63039
616,-405,11.1769,6.50244,-0.0124098,-0.0129539,0.0172588,0.00457908,-0.0299428,0.777518,0.0216502,0.0100047,1840,1429,11.1769,-6.50248
623,-405,11.1411,6.32642,-0.00913018,-0.00992893,0.0129693,0.0034459,-0.022505,0.770006,0.016274,0.0090314,1847,1429,11.1411,-6.32643
630,-405,11.1467,6.13379,-0.0064515,-0.0073908,0.00943102,0.00252156,-0.0163639,0.760519,0.0118396,0.00984073,1854,1429,11.1467,-6.13379
637,-405,11.1531,5.94958,-0.00422033,-0.0053829,0.00653242,0.00175662,-0.0113598,0.741023,0.00822157,0.0105231,1861,1429,11.1531,-5.94961
644,-405,11.0798,5.8219,-0.00244635,-0.00376139,0.00426046,0.00120703,-0.00741477,0.708837,0.00539076,0.0263408,1868,1429,11.0798,-5.82188
651,-405,11.0956,5.70276,-0.00085443,-0.0024503,0.00253051,0.00100097,-0.0043057,0.63267,0.00325583,0.0301398,1875,1429,11.0956,-5.7028
658,-405,11.1334,5.453,0.000505493,-0.00222192,0.00152351,0.00118648,-0.00290291,0.420345,0.00242934,0.0219522,1882,1429,11.1335,-5.45295
665,-405,11.124,5.22046,0.0020778,-0.00373153,0.00096503,0.00223391,-0.00388764,0.160381,0.00357701,0.0177328,1889,1429,11.1241,-5.22044
672,-405,11.1377,5.00781,0.00336338,-0.00593511,0.0012479,0.00352794,-0.00609968,0.131114,0.00562422,0.0226972,1896,1429,11.1377,-5.00785
679,-405,11.1818,4.79932,0.0059555,-0.010155,0.00180713,0.00615572,-0.0103552,0.110344,0.00963484,0.0213693,1903,1429,11.1817,-4.79935
686,-405,11.158,4.63281,0.0105932,-0.0168368,0.00261132,0.0108396,-0.0170832,0.0940737,0.016255,0.0315445,1910,1429,11.158,-4.63287
693,-405,10.9885,4.66394,0,0,0,0,0,0,0,-1,1917,1429,10.9885,-4.66396
700,-405,9.1958,4.02026,0,0,0,0,0,0,0,-1,1924,1429,9.19579,-4.02025
707,-405,7.40308,3.83191,0,0,0,0,0,0,0,-1,1931,1429,7.40311,-3.83194
714,-405,7.33252,3.47388,0,0,0,0,0,0,0,-1,1938,1429,7.33255,-3.47383
721,-405,9.23523,0.993896,0,0,0,0,0,0,0,-1,1945,1429,9.23523,-0.993884
728,-405,0,0,0,0,0,0,0,0,0,-1,1952,1429,0,0
735,-405,0,0,0,0,0,0,0,0,0,-1,1959,1429,0,0
742,-405,0,0,0,0,0,0,0,0,0,-1,1966,1429,0,0
749,-405,0,0,0,0,0,0,0,0,0,-1,1973,1429,0,0
756,-405,0,0,0,0,0,0,0,0,0,-1,1980,1429,0,0
763,-405,0,0,0,0,0,0,0,0,0,-1,1987,1429,0,0
770,-405,0,0,0,0,0,0,0,0,0,-1,1994,1429,0,0
777,-405,0,0,0,0,0,0,0,0,0,-1,2001,1429,0,0
784,-405,0,0,0,0,0,0,0,0,0,-1,2008,1429,0,0
791,-405,0,0,0,0,0,0,0,0,0,-1,2015,1429,0,0
798,-405,0,0,0,0,0,0,0,0,0,-1,2022,1429,0,0
805,-405,0,0,0,0,0,0,0,0,0,-1,2029,1429,0,0
812,-405,0,0,0,0,0,0,0,0,0,-1,2036,1429,0,0
-700,-412,0,0,0,0,0,0,0,0,0,-1,524,1436,0,0
-693,-412,0,0,0,0,0,0,0,0,0,-1,531,1436,0,0
-686,-412,0,0,0,0,0,0,0,0,0,-1,538,1436,0,0
-679,-412,0,0,0,0,0,0,0,0,0,-1,545,1436,0,0
-672,-412,0,0,0,0,0,0,0,0,0,-1,552,1436,0,0
-665,-412,0,0,0,0,0,0,0,0,0,-1,559,1436,0,0
-658,-412,0,0,0,0,0,0,0,0,0,-1,566,1436,0,0
-651,-412,0,0,0,0,0,0,0,0,0,-1,573,1436,0,0
-644,-412,0,0,0,0,0,0,0,0,0,-1,580,1436,0,0
-637,-412,0,0,0,0,0,0,0,0,0,-1,587,1436,0,0
-630,-412,0,0,0,0,0,0,0,0,0,-1,594,1436,0,0
-623,-412,0,0,0,0,0,0,0,0,0,-1,601,1436,0,0
-616,-412,0,0,0,0,0,0,0,0,0,-1,608,1436,0,0
-609,-412,0,0,0,0,0,0,0,0,0,-1,615,1436,0,0
-602,-412,-3.72766,-3.50012,0,0,0,0,0,0,0,-1,622,1436,-3.72764,3.50017
-595,-412,-3.48932,-2.58386,0,0,0,0,0,0,0,-1,629,1436,-3.48931,2.58391
-588,-412,-3.70703,-2.11816,0,0,0,0,0,0,0,-1,636,1436,-3.70702,2.11822
-581,-412,-7.06207,2.19458,0,0,0,0,0,0,0,-1,643,1436,-7.06205,-2.19461
-574,-412,-5.83325,2.24939,0,0,0,0,0,0,0,-1,650,1436,-5.83324,-2.24943
-567,-412,-3.92334,1.35669,0,0,0,0,0,0,0,-1,657,1436,-3.92336,-1.35671
-560,-412,-3.26697,2.77405,0,0,0,0,0,0,0,-1,664,1436,-3.26696,-2.77406
-553,-412,-3.32959,2.96008,0.0245796,0.00516731,0.0272901,0.0438382,-0.0140914,0.614542,0.0348846,0.0423275,671,1436,-3.32959,-2.96007
-546,-412,-3.40106,3.04907,0.0183736,0.0048183,0.0200182,0.0327304,-0.00953851,0.622168,0.0255991,0.0297988,678,1436,-3.40105,-3.04908
-539,-412,-3.50812,3.12622,0.0138433,0.0038181,0.0140136,0.0237139,-0.00605242,0.613641,0.018166,0.0138067,685,1436,-3.50812,-3.12626
-532,-412,-3.52789,3.37207,0.0102177,0.00297509,0.00997232,0.0172059,-0.00401309,0.611234,0.0130161,0.0121178,692,1436,-3.5279,-3.37203
-525,-412,-3.52625,3.58838,0.00744379,0.00190481,0.00658536,0.0118183,-0.00246972,0.586349,0.00881817,0.013832,699,1436,-3.52627,-3.58842
-518,-412,-3.50983,3.80322,0.00543269,0.000418814,0.00383972,0.0075114,-0.0016599,0.496194,0.00564287,0.0144709,706,1436,-3.50984,-3.80319
-511,-412,-3.51233,4.0155,0.00331438,-0.00116745,0.00119326,0.00361228,-0.00146535,0.244649,0.00301766,0.0172402,713,1436,-3.51233,-4.0155
-504,-412,-3.51312,4.20227,0.00161035,-0.00305929,-0.0011429,0.00187507,-0.00332401,-0.227607,0.0030403,0.0180751,720,1436,-3.51315,-4.20225
-497,-412,-3.50507,4.40588,0.000415765,-0.00553531,-0.00352482,0.00205305,-0.0071726,-0.434849,0.00559313,0.0143263,727,1436,-3.50504,-4.40589
-490,-412,-3.52344,4.62305,-0.000796843,-0.00916299,-0.00616864,0.00247328,-0.0124331,-0.487453,0.00922437,0.0120329,734,1436,-3.52342,-4.62307
-483,-412,-3.51837,4.82153,-0.00193532,-0.0134073,-0.00912749,0.00310889,-0.0184515,-0.504867,0.0134575,0.00838614,741,1436,-3.51838,-4.82156
-476,-412,-3.44257,5.06067,-0.00327686,-0.018141,-0.0124948,0.00382913,-0.025247,-0.517099,0.0182422,0.0152188,748,1436,-3.44257,-5.06068
-469,-412,-3.42877,5.16504,-0.00483271,-0.0239341,-0.0165401,0.0047161,-0.033483,-0.52357,0.0240486,0.0268584,755,1436,-3.42877,-5.1651
-462,-412,-3.37384,5.24109,-0.00683207,-0.0310969,-0.0214778,0.00570316,-0.0436322,-0.5283,0.0311636,0.0384845,762,1436,-3.37385,-5.24109
-455,-412,-3.45227,4.78723,-0.00959167,-0.0397742,-0.0274252,0.00662021,-0.055986,-0.533873,0.0397151,0.0447412,769,1436,-3.45228,-4.78719
-448,-412,-3.65161,4.2019,-0.0132359,-0.0500961,-0.0343416,0.00730852,-0.0706405,-0.539122,0.0497093,0.0444683,776,1436,-3.65163,-4.2019
-441,-412,-3.58118,3.60181,-0.0177182,-0.0622049,-0.0421342,0.00768353,-0.0876066,-0.542533,0.0611268,0.0447081,783,1436,-3.58115,-3.60186
-434,-412,-3.72675,2.96179,0,0,0,0,0,0,0,-1,790,1436,-3.72672,-2.96178
-427,-412,-6.6745,4.76904,0,0,0,0,0,0,0,-1,797,1436,-6.67451,-4.76901
-420,-412,-6.65302,4.95691,0,0,0,0,0,0,0,-1,804,1436,-6.65301,-4.95687
-413,-412,-7.31799,1.63599,0,0,0,0,0,0,0,-1,811,1436,-7.31802,-1.63597
-406,-412,-7.98541,1.59583,0,0,0,0,0,0,0,-1,818,1436,-7.9854,-1.59582
-399,-412,-7.8808,1.85815,0,0,0,0,0,0,0,-1,825,1436,-7.8808,-1.85817
-392,-412,0,0,0,0,0,0,0,0,0,-1,832,1436,0,0
-385,-412,0,0,0,0,0,0,0,0,0,-1,839,1436,0,0
-378,-412,0,0,0,0,0,0,0,0,0,-1,846,1436,0,0
-371,-412,0,0,0,0,0,0,0,0,0,-1,853,1436,0,0
-364,-412,0,0,0,0,0,0,0,0,0,-1,860,1436,0,0
-357,-412,0,0,0,0,0,0,0,0,0,-1,867,1436,0,0
-350,-412,0,0,0,0,0,0,0,0,0,-1,874,1436,0,0
-343,-412,0,0,0,0,0,0,0,0,0,-1,881,1436,0,0
-336,-412,0,0,0,0,0,0,0,0,0,-1,888,1436,0,0
-329,-412,0,0,0,0,0,0,0,0,0,-1,895,1436,0,0
-322,-412,0,0,0,0,0,0,0,0,0,-1,902,1436,0,0
-315,-412,0,0,0,0,0,0,0,0,0,-1,909,1436,0,0
-308,-412,0,0,0,0,0,0,0,0,0,-1,916,1436,0,0
-301,-412,0,0,0,0,0,0,0,0,0,-1,923,1436,0,0
-294,-412,0,0,0,0,0,0,0,0,0,-1,930,1436,0,0
-287,-412,0,0,0,0,0,0,0,0,0,-1,937,1436,0,0
-280,-412,0,0,0,0,0,0,0,0,0,-1,944,1436,0,0
-273,-412,0,0,0,0,0,0,0,0,0,-1,951,1436,0,0
-266,-412,0,0,0,0,0,0,0,0,0,-1,958,1436,0,0
-259,-412,0,0,0,0,0,0,0,0,0,-1,965,1436,0,0
-252,-412,0,0,0,0,0,0,0,0,0,-1,972,1436,0,0
-245,-412,0,0,0,0,0,0,0,0,0,-1,979,1436,0,0
-238,-412,0,0,0,0,0,0,0,0,0,-1,986,1436,0,0
-231,-412,0,0,0,0,0,0,0,0,0,-1,993,1436,0,0
-224,-412,0,0,0,0,0,0,0,0,0,-1,1000,1436,0,0
-217,-412,0,0,0,0,0,0,0,0,0,-1,1007,1436,0,0
-210,-412,0,0,0,0,0,0,0,0,0,-1,1014,1436,0,0
-203,-412,0,0,0,0,0,0,0,0,0,-1,1021,1436,0,0
-196,-412,0,0,0,0,0,0,0,0,0,-1,1028,1436,0,0
-189,-412,0,0,0,0,0,0,0,0,0,-1,1035,1436,0,0
-182,-412,0,0,0,0,0,0,0,0,0,-1,1042,1436,0,0
-175,-412,0,0,0,0,0,0,0,0,0,-1,1049,1436,0,0
-168,-412,0,0,0,0,0,0,0,0,0,-1,1056,1436,0,0
-161,-412,0,0,0,0,0,0,0,0,0,-1,1063,1436,0,0
-154,-412,0,0,0,0,0,0,0,0,0,-1,1070,1436,0,0
-147,-412,0,0,0,0,0,0,0,0,0,-1,1077,1436,0,0
-140,-412,0,0,0,0,0,0,0,0,0,-1,1084,1436,0,0
-133,-412,0,0,0,0,0,0,0,0,0,-1,1091,1436,0,0
-126,-412,0,0,0,0,0,0,0,0,0,-1,1098,1436,0,0
-119,-412,0,0,0,0,0,0,0,0,0,-1,1105,1436,0,0
-112,-412,0,0,0,0,0,0,0,0,0,-1,1112,1436,0,0
-105,-412,0,0,0,0,0,0,0,0,0,-1,1119,1436,0,0
-98,-412,0,0,0,0,0,0,0,0,0,-1,1126,1436,0,0
-91,-412,0,0,0,0,0,0,0,0,0,-1,1133,1436,0,0
-84,-412,0,0,0,0,0,0,0,0,0,-1,1140,1436,0,0
-77,-412,0,0,0,0,0,0,0,0,0,-1,1147,1436,0,0
-70,-412,0,0,0,0,0,0,0,0,0,-1,1154,1436,0,0
-63,-412,0,0,0,0,0,0,0,0,0,-1,1161,1436,0,0
-56,-412,0,0,0,0,0,0,0,0,0,-1,1168,1436,0,0
-49,-412,0,0,0,0,0,0,0,0,0,-1,1175,1436,0,0
-42,-412,0,0,0,0,0,0,0,0,0,-1,1182,1436,0,0
-35,-412,0,0,0,0,0,0,0,0,0,-1,1189,1436,0,0
-28,-412,0,0,0,0,0,0,0,0,0,-1,1196,1436,0,0
-21,-412,0,0,0,0,0,0,0,0,0,-1,1203,1436,0,0
-14,-412,0,0,0,0,0,0,0,0,0,-1,1210,1436,0,0
-7,-412,0,0,0,0,0,0,0,0,0,-1,1217,1436,0,0
0,-412,0,0,0,0,0,0,0,0,0,-1,1224,1436,0,0
7,-412,0,0,0,0,0,0,0,0,0,-1,1231,1436,0,0
14,-412,0,0,0,0,0,0,0,0,0,-1,1238,1436,0,0
21,-412,0,0,0,0,0,0,0,0,0,-1,1245,1436,0,0
28,-412,0,0,0,0,0,0,0,0,0,-1,1252,1436,0,0
35,-412,0,0,0,0,0,0,0,0,0,-1,1259,1436,0,0
42,-412,0,0,0,0,0,0,0,0,0,-1,1266,1436,0,0
49,-412,0,0,0,0,0,0,0,0,0,-1,1273,1436,0,0
56,-412,0,0,0,0,0,0,0,0,0,-1,1280,1436,0,0
63,-412,0,0,0,0,0,0,0,0,0,-1,1287,1436,0,0
70,-412,0,0,0,0,0,0,0,0,0,-1,1294,1436,0,0
77,-412,0,0,0,0,0,0,0,0,0,-1,1301,1436,0,0
84,-412,0,0,0,0,0,0,0,0,0,-1,1308,1436,0,0
91,-412,0,0,0,0,0,0,0,0,0,-1,1315,1436,0,0
98,-412,0,0,0,0,0,0,0,0,0,-1,1322,1436,0,0
105,-412,0,0,0,0,0,0,0,0,0,-1,1329,1436,0,0
112,-412,0,0,0,0,0,0,0,0,0,-1,1336,1436,0,0
119,-412,0,0,0,0,0,0,0,0,0,-1,1343,1436,0,0
126,-412,0,0,0,0,0,0,0,0,0,-1,1350,1436,0,0
133,-412,0,0,0,0,0,0,0,0,0,-1,1357,1436,0,0
140,-412,0,0,0,0,0,0,0,0,0,-1,1364,1436,0,0
147,-412,0,0,0,0,0,0,0,0,0,-1,1371,1436,0,0
154,-412,0,0,0,0,0,0,0,0,0,-1,1378,1436,0,0
161,-412,0,0,0,0,0,0,0,0,0,-1,1385,1436,0,0
168,-412,0,0,0,0,0,0,0,0,0,-1,1392,1436,0,0
175,-412,0,0,0,0,0,0,0,0,0,-1,1399,1436,0,0
182,-412,0,0,0,0,0,0,0,0,0,-1,1406,1436,0,0
189,-412,0,0,0,0,0,0,0,0,0,-1,1413,1436,0,0
196,-412,0,0,0,0,0,0,0,0,0,-1,1420,1436,0,0
203,-412,0,0,0,0,0,0,0,0,0,-1,1427,1436,0,0
210,-412,0,0,0,0,0,0,0,0,0,-1,1434,1436,0,0
217,-412,0,0,0,0,0,0,0,0,0,-1,1441,1436,0,0
224,-412,0,0,0,0,0,0,0,0,0,-1,1448,1436,0,0
231,-412,0,0,0,0,0,0,0,0,0,-1,1455,1436,0,0
238,-412,0,0,0,0,0,0,0,0,0,-1,1462,1436,0,0
245,-412,0,0,0,0,0,0,0,0,0,-1,1469,1436,0,0
252,-412,0,0,0,0,0,0,0,0,0,-1,1476,1436,0,0
259,-412,0,0,0,0,0,0,0,0,0,-1,1483,1436,0,0
266,-412,0,0,0,0,0,0,0,0,0,-1,1490,1436,0,0
273,-412,0,0,0,0,0,0,0,0,0,-1,1497,1436,0,0
280,-412,0,0,0,0,0,0,0,0,0,-1,1504,1436,0,0
287,-412,0,0,0,0,0,0,0,0,0,-1,1511,1436,0,0
294,-412,0,0,0,0,0,0,0,0,0,-1,1518,1436,0,0
301,-412,0,0,0,0,0,0,0,0,0,-1,1525,1436,0,0
308,-412,0,0,0,0,0,0,0,0,0,-1,1532,1436,0,0
315,-412,0,0,0,0,0,0,0,0,0,-1,1539,1436,0,0
322,-412,0,0,0,0,0,0,0,0,0,-1,1546,1436,0,0
329,-412,0,0,0,0,0,0,0,0,0,-1,1553,1436,0,0
336,-412,0,0,0,0,0,0,0,0,0,-1,1560,1436,0,0
343,-412,0,0,0,0,0,0,0,0,0,-1,1567,1436,0,0
350,-412,0,0,0,0,0,0,0,0,0,-1,1574,1436,0,0
357,-412,0,0,0,0,0,0,0,0,0,-1,1581,1436,0,0
364,-412,0,0,0,0,0,0,0,0,0,-1,1588,1436,0,0
371,-412,0,0,0,0,0,0,0,0,0,-1,1595,1436,0,0
378,-412,0,0,0,0,0,0,0,0,0,-1,1602,1436,0,0
385,-412,0,0,0,0,0,0,0,0,0,-1,1609,1436,0,0
392,-412,0,0,0,0,0,0,0,0,0,-1,1616,1436,0,0
399,-412,0,0,0,0,0,0,0,0,0,-1,1623,1436,0,0
406,-412,0,0,0,0,0,0,0,0,0,-1,1630,1436,0,0
413,-412,0,0,0,0,0,0,0,0,0,-1,1637,1436,0,0
420,-412,0,0,0,0,0,0,0,0,0,-1,1644,1436,0,0
427,-412,0,0,0,0,0,0,0,0,0,-1,1651,1436,0,0
434,-412,0,0,0,0,0,0,0,0,0,-1,1658,1436,0,0
441,-412,0,0,0,0,0,0,0,0,0,-1,1665,1436,0,0
448,-412,0,0,0,0,0,0,0,0,0,-1,1672,1436,0,0
455,-412,0,0,0,0,0,0,0,0,0,-1,1679,1436,0,0
462,-412,0,0,0,0,0,0,0,0,0,-1,1686,1436,0,0
469,-412,0,0,0,0,0,0,0,0,0,-1,1693,1436,0,0
476,-412,0,0,0,0,0,0,0,0,0,-1,1700,1436,0,0
483,-412,0,0,0,0,0,0,0,0,0,-1,1707,1436,0,0
490,-412,0,0,0,0,0,0,0,0,0,-1,1714,1436,0,0
497,-412,0,0,0,0,0,0,0,0,0,-1,1721,1436,0,0
504,-412,0,0,0,0,0,0,0,0,0,-1,1728,1436,0,0
511,-412,0,0,0,0,0,0,0,0,0,-1,1735,1436,0,0
518,-412,13.5378,1.3866,0,0,0,0,0,0,0,-1,1742,1436,13.5379,-1.38663
525,-412,13.9802,1.73328,0,0,0,0,0,0,0,-1,1749,1436,13.9802,-1.73328
532,-412,14.7107,2.18335,0,0,0,0,0,0,0,-1,1756,1436,14.7107,-2.18338
539,-412,14.6216,2.23132,0,0,0,0,0,0,0,-1,1763,1436,14.6215,-2.23129
546,-412,14.5795,2.26074,0,0,0,0,0,0,0,-1,1770,1436,14.5794,-2.26071
553,-412,14.5394,2.30518,0,0,0,0,0,0,0,-1,1777,1436,14.5394,-2.30521
560,-412,14.3042,2.26672,0,0,0,0,0,0,0,-1,1784,1436,14.3042,-2.26675
567,-412,12.9342,-1.24585,0,0,0,0,0,0,0,-1,1791,1436,12.9342,1.24591
574,-412,12.6833,-0.457642,0,0,0,0,0,0,0,-1,1798,1436,12.6833,0.457671
581,-412,11.2246,6.27612,0,0,0,0,0,0,0,-1,1805,1436,11.2247,-6.27608
588,-412,12.3529,6.2074,0,0,0,0,0,0,0,-1,1812,1436,12.3529,-6.20745
595,-412,11.7578,6.45313,-0.0235344,-0.0276016,0.0311149,0.00561323,-0.0567493,0.752766,0.039836,0.0442761,1819,1436,11.7578,-6.45308
602,-412,11.1615,6.82861,-0.0187484,-0.0218667,0.0247665,0.00450794,-0.0451231,0.753963,0.0316918,0.0241518,1826,1436,11.1615,-6.82857
609,-412,11.0039,6.68335,-0.0145971,-0.0170354,0.0193186,0.00354076,-0.0351733,0.753886,0.0247138,0.00890266,1833,1436,11.0039,-6.68333
616,-412,10.9729,6.50513,-0.0110659,-0.0130501,0.0147628,0.00273804,-0.0268541,0.751847,0.0188817,0.00746488,1840,1436,10.9729,-6.50519
623,-412,10.9619,6.32593,-0.00795324,-0.00974945,0.0109789,0.00216428,-0.019867,0.744588,0.0140219,0.00894524,1847,1436,10.9619,-6.32588
630,-412,10.9714,6.13464,-0.00542215,-0.00707339,0.00786191,0.00165737,-0.0141529,0.733082,0.0100335,0.0111223,1854,1436,10.9714,-6.1346
637,-412,10.9811,5.97192,-0.00327474,-0.0050601,0.00530841,0.00121552,-0.00955037,0.702096,0.00680835,0.0128681,1861,1436,10.9811,-5.97195
644,-412,11.0082,5.77209,-0.00154997,-0.00351564,0.00333002,0.000939224,-0.00600483,0.6419,0.00435023,0.013874,1868,1436,11.0082,-5.77214
651,-412,11.0054,5.59326,-1.17271e-05,-0.00234251,0.001846,0.00100596,-0.0033602,0.503837,0.00264013,0.0242785,1875,1436,11.0053,-5.59325
658,-412,10.9957,5.39673,0.00129018,-0.00217659,0.00104076,0.00157863,-0.00246504,0.270365,0.00235324,0.0164171,1882,1436,10.9958,-5.39667
665,-412,10.976,5.23499,0.00281786,-0.00388527,0.000734852,0.00289747,-0.00396489,0.10792,0.00397793,0.0213356,1889,1436,10.976,-5.23496
672,-412,11.026,5.04834,0.0041169,-0.0063168,0.00122301,0.00425834,-0.00645824,0.115138,0.00623052,0.0266094,1896,1436,11.026,-5.04833
679,-412,11.0941,4.83972,0.00638032,-0.0106212,0.00200771,0.00661419,-0.0108551,0.115965,0.0101845,0.0350054,1903,1436,11.0941,-4.83976
686,-412,10.931,4.49609,0,0,0,0,0,0,0,-1,1910,1436,10.931,-4.49614
693,-412,9.50305,5.4696,0,0,0,0,0,0,0,-1,1917,1436,9.50306,-5.46956
700,-412,8.82764,5.8844,0,0,0,0,0,0,0,-1,1924,1436,8.82761,-5.88444
707,-412,6.59998,1.68994,0,0,0,0,0,0,0,-1,1931,1436,6.60002,-1.68995
714,-412,4.77283,-2.39832,0,0,0,0,0,0,0,-1,1938,1436,4.77288,2.39835
721,-412,0,0,0,0,0,0,0,0,0,-1,1945,1436,0,0
728,-412,0,0,0,0,0,0,0,0,0,-1,1952,1436,0,0
735,-412,0,0,0,0,0,0,0,0,0,-1,1959,1436,0,0
742,-412,0,0,0,0,0,0,0,0,0,-1,1966,1436,0,0
749,-412,0,0,0,0,0,0,0,0,0,-1,1973,1436,0,0
756,-412,0,0,0,0,0,0,0,0,0,-1,1980,1436,0,0
763,-412,0,0,0,0,0,0,0,0,0,-1,1987,1436,0,0
770,-412,0,0,0,0,0,0,0,0,0,-1,1994,1436,0,0
777,-412,0,0,0,0,0,0,0,0,0,-1,2001,1436,0,0
784,-412,0,0,0,0,0,0,0,0,0,-1,2008,1436,0,0
791,-412,0,0,0,0,0,0,0,0,0,-1,2015,1436,0,0
798,-412,0,0,0,0,0,0,0,0,0,-1,2022,1436,0,0
805,-412,0,0,0,0,0,0,0,0,0,-1,2029,1436,0,0
812,-412,0,0,0,0,0,0,0,0,0,-1,2036,1436,0,0
-700,-419,0,0,0,0,0,0,0,0,0,-1,524,1443,0,0
-693,-419,0,0,0,0,0,0,0,0,0,-1,531,1443,0,0
-686,-419,0,0,0,0,0,0,0,0,0,-1,538,1443,0,0
-679,-419,0,0,0,0,0,0,0,0,0,-1,545,1443,0,0
-672,-419,0,0,0,0,0,0,0,0,0,-1,552,1443,0,0
-665,-419,0,0,0,0,0,0,0,0,0,-1,559,1443,0,0
-658,-419,0,0,0,0,0,0,0,0,0,-1,566,1443,0,0
-651,-419,0,0,0,0,0,0,0,0,0,-1,573,1443,0,0
-644,-419,0,0,0,0,0,0,0,0,0,-1,580,1443,0,0
-637,-419,0,0,0,0,0,0,0,0,0,-1,587,1443,0,0
-630,-419,0,0,0,0,0,0,0,0,0,-1,594,1443,0,0
-623,-419,0,0,0,0,0,0,0,0,0,-1,601,1443,0,0
-616,-419,0,0,0,0,0,0,0,0,0,-1,608,1443,0,0
-609,-419,0,0,0,0,0,0,0,0,0,-1,615,1443,0,0
-602,-419,0,0,0,0,0,0,0,0,0,-1,622,1443,0,0
-595,-419,-4.27423,-0.479492,0,0,0,0,0,0,0,-1,629,1443,-4.27421,0.479525
-588,-419,-3.75415,0.426147,0,0,0,0,0,0,0,-1,636,1443,-3.75414,-0.426145
-581,-419,-3.37775,1.73169,0,0,0,0,0,0,0,-1,643,1443,-3.37775,-1.73163
-574,-419,-2.86279,2.7804,0,0,0,0,0,0,0,-1,650,1443,-2.86279,-2.7804
-567,-419,-3.76215,1.37549,0,0,0,0,0,0,0,-1,657,1443,-3.76215,-1.37547
-560,-419,-3.04004,2.89465,0,0,0,0,0,0,0,-1,664,1443,-3.04006,-2.89461
-553,-419,-3.1377,3.10217,0.0405123,0.00631828,0.0356939,0.0629925,-0.016162,0.562049,0.0482924,0.0445496,671,1443,-3.13768,-3.10216
-546,-419,-3.11169,3.05688,0.0312615,0.00557676,0.0268687,0.0481992,-0.0113609,0.562465,0.0365137,0.0401312,678,1443,-3.11171,-3.05691
-539,-419,-3.20245,3.16113,0.0235997,0.00441966,0.0194396,0.0356861,-0.0076667,0.556252,0.0267155,0.0290347,685,1443,-3.20244,-3.16117
-532,-419,-3.31958,3.3822,0.0171579,0.00364205,0.0141159,0.0260502,-0.00525023,0.562148,0.0193557,0.013978,692,1443,-3.31959,-3.38216
-525,-419,-3.30328,3.59656,0.0123157,0.00269379,0.00980479,0.0184263,-0.00341674,0.557318,0.0135673,0.0118767,699,1443,-3.30329,-3.59659
-518,-419,-3.28644,3.80493,0.00879041,0.0013308,0.00636002,0.0124336,-0.00231241,0.520201,0.00915772,0.0159137,706,1443,-3.28644,-3.80495
-511,-419,-3.27313,4.03674,0.00535029,-0.000113418,0.00308821,0.00674155,-0.00150467,0.423275,0.00507089,0.018455,713,1443,-3.27314,-4.03679
-504,-419,-3.30872,4.22607,0.00297323,-0.00182112,0.000514007,0.00302772,-0.0018756,0.105612,0.00285687,0.0186218,720,1443,-3.3087,-4.22606
-497,-419,-3.31128,4.41431,0.00159074,-0.00398407,-0.00189508,0.00217393,-0.00456727,-0.298544,0.00397296,0.0135948,727,1443,-3.31126,-4.41429
-490,-419,-3.31293,4.61438,0.000332659,-0.00720248,-0.00445108,0.00239662,-0.00926644,-0.434187,0.00711239,0.0110021,734,1443,-3.31292,-4.61441
-483,-419,-3.30206,4.82471,-0.000700416,-0.0110822,-0.00717529,0.00296477,-0.0147474,-0.472256,0.0109544,0.00907671,741,1443,-3.30205,-4.8247
-476,-419,-3.30676,5.04309,-0.00189971,-0.0152131,-0.0101821,0.00360861,-0.0207215,-0.49589,0.015161,0.00915296,748,1443,-3.30676,-5.04307
-469,-419,-3.27722,5.26575,-0.00317318,-0.020228,-0.0136696,0.00441071,-0.0278119,-0.506522,0.0201729,0.0137169,755,1443,-3.27719,-5.26577
-462,-419,-3.21539,5.41064,-0.00464929,-0.0263834,-0.0178203,0.00535605,-0.0363887,-0.511597,0.0262274,0.0246783,762,1443,-3.21538,-5.41065
-455,-419,-3.15814,4.97705,-0.00667465,-0.0338935,-0.0227906,0.00626078,-0.046829,-0.516237,0.0335018,0.03823,769,1443,-3.15811,-4.97709
-448,-419,-3.38068,4.54321,-0.00938485,-0.0428363,-0.0286121,0.0070316,-0.0592528,-0.5209,0.0420422,0.0425505,776,1443,-3.38066,-4.5432
-441,-419,-3.91638,4.23877,-0.01278,-0.0532846,-0.0351791,0.00755987,-0.0736245,-0.524221,0.0517872,0.0428379,783,1443,-3.91641,-4.23878
-434,-419,-4.19116,3.82385,0,0,0,0,0,0,0,-1,790,1443,-4.19114,-3.82382
-427,-419,-5.93756,4.82532,0,0,0,0,0,0,0,-1,797,1443,-5.93758,-4.82526
-420,-419,-7.08368,2.08118,0,0,0,0,0,0,0,-1,804,1443,-7.08368,-2.08119
-413,-419,-7.81604,2.06384,0,0,0,0,0,0,0,-1,811,1443,-7.81601,-2.06379
-406,-419,-8.49615,2.08191,0,0,0,0,0,0,0,-1,818,1443,-8.49614,-2.08197
-399,-419,-9.20044,2.04614,0,0,0,0,0,0,0,-1,825,1443,-9.20042,-2.04611
-392,-419,0,0,0,0,0,0,0,0,0,-1,832,1443,0,0
-385,-419,0,0,0,0,0,0,0,0,0,-1,839,1443,0,0
-378,-419,0,0,0,0,0,0,0,0,0,-1,846,1443,0,0
-371,-419,0,0,0,0,0,0,0,0,0,-1,853,1443,0,0
-364,-419,0,0,0,0,0,0,0,0,0,-1,860,1443,0,0
-357,-419,0,0,0,0,0,0,0,0,0,-1,867,1443,0,0
-350,-419,0,0,0,0,0,0,0,0,0,-1,874,1443,0,0
-343,-419,0,0,0,0,0,0,0,0,0,-1,881,1443,0,0
-336,-419,0,0,0,0,0,0,0,0,0,-1,888,1443,0,0
-329,-419,0,0,0,0,0,0,0,0,0,-1,895,1443,0,0
-322,-419,0,0,0,0,0,0,0,0,0,-1,902,1443,0,0
-315,-419,0,0,0,0,0,0,0,0,0,-1,909,1443,0,0
-308,-419,0,0,0,0,0,0,0,0,0,-1,916,1443,0,0
-301,-419,0,0,0,0,0,0,0,0,0,-1,923,1443,0,0
-294,-419,0,0,0,0,0,0,0,0,0,-1,930,1443,0,0
-287,-419,0,0,0,0,0,0,0,0,0,-1,937,1443,0,0
-280,-419,0,0,0,0,0,0,0,0,0,-1,944,1443,0,0
-273,-419,0,0,0,0,0,0,0,0,0,-1,951,1443,0,0
-266,-419,0,0,0,0,0,0,0,0,0,-1,958,1443,0,0
-259,-419,0,0,0,0,0,0,0,0,0,-1,965,1443,0,0
-252,-419,0,0,0,0,0,0,0,0,0,-1,972,1443,0,0
-245,-419,0,0,0,0,0,0,0,0,0,-1,979,1443,0,0
-238,-419,0,0,0,0,0,0,0,0,0,-1,986,1443,0,0
-231,-419,0,0,0,0,0,0,0,0,0,-1,993,1443,0,0
-224,-419,0,0,0,0,0,0,0,0,0,-1,1000,1443,0,0
-217,-419,0,0,0,0,0,0,0,0,0,-1,1007,1443,0,0
-210,-419,0,0,0,0,0,0,0,0,0,-1,1014,1443,0,0
-203,-419,0,0,0,0,0,0,0,0,0,-1,1021,1443,0,0
-196,-419,0,0,0,0,0,0,0,0,0,-1,1028,1443,0,0
-189,-419,0,0,0,0,0,0,0,0,0,-1,1035,1443,0,0
-182,-419,0,0,0,0,0,0,0,0,0,-1,1042,1443,0,0
-175,-419,0,0,0,0,0,0,0,0,0,-1,1049,1443,0,0
-168,-419,0,0,0,0,0,0,0,0,0,-1,1056,1443,0,0
-161,-419,0,0,0,0,0,0,0,0,0,-1,1063,1443,0,0
-154,-419,0,0,0,0,0,0,0,0,0,-1,1070,1443,0,0
-147,-419,0,0,0,0,0,0,0,0,0,-1,1077,1443,0,0
-140,-419,0,0,0,0,0,0,0,0,0,-1,1084,1443,0,0
-133,-419,0,0,0,0,0,0,0,0,0,-1,1091,1443,0,0
-126,-419,0,0,0,0,0,0,0,0,0,-1,1098,1443,0,0
-119,-419,0,0,0,0,0,0,0,0,0,-1,1105,1443,0,0
-112,-419,0,0,0,0,0,0,0,0,0,-1,1112,1443,0,0
-105,-419,0,0,0,0,0,0,0,0,0,-1,1119,1443,0,0
-98,-419,0,0,0,0,0,0,0,0,0,-1,1126,1443,0,0
-91,-419,0,0,0,0,0,0,0,0,0,-1,1133,1443,0,0
-84,-419,0,0,0,0,0,0,0,0,0,-1,1140,1443,0,0
-77,-419,0,0,0,0,0,0,0,0,0,-1,1147,1443,0,0
-70,-419,0,0,0,0,0,0,0,0,0,-1,1154,1443,0,0
-63,-419,0,0,0,0,0,0,0,0,0,-1,1161,1443,0,0
-56,-419,0,0,0,0,0,0,0,0,0,-1,1168,1443,0,0
-49,-419,0,0,0,0,0,0,0,0,0,-1,1175,1443,0,0
-42,-419,0,0,0,0,0,0,0,0,0,-1,1182,1443,0,0
-35,-419,0,0,0,0,0,0,0,0,0,-1,1189,1443,0,0
-28,-419,0,0,0,0,0,0,0,0,0,-1,1196,1443,0,0
-21,-419,0,0,0,0,0,0,0,0,0,-1,1203,1443,0,0
-14,-419,0,0,0,0,0,0,0,0,0,-1,1210,1443,0,0
-7,-419,0,0,0,0,0,0,0,0,0,-1,1217,1443,0,0
0,-419,0,0,0,0,0,0,0,0,0,-1,1224,1443,0,0
7,-419,0,0,0,0,0,0,0,0,0,-1,1231,1443,0,0
14,-419,0,0,0,0,0,0,0,0,0,-1,1238,1443,0,0
21,-419,0,0,0,0,0,0,0,0,0,-1,1245,1443,0,0
28,-419,0,0,0,0,0,0,0,0,0,-1,1252,1443,0,0
35,-419,0,0,0,0,0,0,0,0,0,-1,1259,1443,0,0
42,-419,0,0,0,0,0,0,0,0,0,-1,1266,1443,0,0
49,-419,0,0,0,0,0,0,0,0,0,-1,1273,1443,0,0
56,-419,0,0,0,0,0,0,0,0,0,-1,1280,1443,0,0
63,-419,0,0,0,0,0,0,0,0,0,-1,1287,1443,0,0
70,-419,0,0,0,0,0,0,0,0,0,-1,1294,1443,0,0
77,-419,0,0,0,0,0,0,0,0,0,-1,1301,1443,0,0
84,-419,0,0,0,0,0,0,0,0,0,-1,1308,1443,0,0
91,-419,0,0,0,0,0,0,0,0,0,-1,1315,1443,0,0
98,-419,0,0,0,0,0,0,0,0,0,-1,1322,1443,0,0
105,-419,0,0,0,0,0,0,0,0,0,-1,1329,1443,0,0
112,-419,0,0,0,0,0,0,0,0,0,-1,1336,1443,0,0
119,-419,0,0,0,0,0,0,0,0,0,-1,1343,1443,0,0
126,-419,0,0,0,0,0,0,0,0,0,-1,1350,1443,0,0
133,-419,0,0,0,0,0,0,0,0,0,-1,1357,1443,0,0
140,-419,0,0,0,0,0,0,0,0,0,-1,1364,1443,0,0
147,-419,0,0,0,0,0,0,0,0,0,-1,1371,1443,0,0
154,-419,0,0,0,0,0,0,0,0,0,-1,1378,1443,0,0
161,-419,0,0,0,0,0,0,0,0,0,-1,1385,1443,0,0
168,-419,0,0,0,0,0,0,0,0,0,-1,1392,1443,0,0
175,-419,0,0,0,0,0,0,0,0,0,-1,1399,1443,0,0
182,-419,0,0,0,0,0,0,0,0,0,-1,1406,1443,0,0
189,-419,0,0,0,0,0,0,0,0,0,-1,1413,1443,0,0
196,-419,0,0,0,0,0,0,0,0,0,-1,1420,1443,0,0
203,-419,0,0,0,0,0,0,0,0,0,-1,1427,1443,0,0
210,-419,0,0,0,0,0,0,0,0,0,-1,1434,1443,0,0
217,-419,0,0,0,0,0,0,0,0,0,-1,1441,1443,0,0
224,-419,0,0,0,0,0,0,0,0,0,-1,1448,1443,0,0
231,-419,0,0,0,0,0,0,0,0,0,-1,1455,1443,0,0
238,-419,0,0,0,0,0,0,0,0,0,-1,1462,1443,0,0
245,-419,0,0,0,0,0,0,0,0,0,-1,1469,1443,0,0
252,-419,0,0,0,0,0,0,0,0,0,-1,1476,1443,0,0
259,-419,0,0,0,0,0,0,0,0,0,-1,1483,1443,0,0
266,-419,0,0,0,0,0,0,0,0,0,-1,1490,1443,0,0
273,-419,0,0,0,0,0,0,0,0,0,-1,1497,1443,0,0
280,-419,0,0,0,0,0,0,0,0,0,-1,1504,1443,0,0
287,-419,0,0,0,0,0,0,0,0,0,-1,1511,1443,0,0
294,-419,0,0,0,0,0,0,0,0,0,-1,1518,1443,0,0
301,-419,0,0,0,0,0,0,0,0,0,-1,1525,1443,0,0
308,-419,0,0,0,0,0,0,0,0,0,-1,1532,1443,0,0
315,-419,0,0,0,0,0,0,0,0,0,-1,1539,1443,0,0
322,-419,0,0,0,0,0,0,0,0,0,-1,1546,1443,0,0
329,-419,0,0,0,0,0,0,0,0,0,-1,1553,1443,0,0
336,-419,0,0,0,0,0,0,0,0,0,-1,1560,1443,0,0
343,-419,0,0,0,0,0,0,0,0,0,-1,1567,1443,0,0
350,-419,0,0,0,0,0,0,0,0,0,-1,1574,1443,0,0
357,-419,0,0,0,0,0,0,0,0,0,-1,1581,1443,0,0
364,-419,0,0,0,0,0,0,0,0,0,-1,1588,1443,0,0
371,-419,0,0,0,0,0,0,0,0,0,-1,1595,1443,0,0
378,-419,0,0,0,0,0,0,0,0,0,-1,1602,1443,0,0
385,-419,0,0,0,0,0,0,0,0,0,-1,1609,1443,0,0
392,-419,0,0,0,0,0,0,0,0,0,-1,1616,1443,0,0
399,-419,0,0,0,0,0,0,0,0,0,-1,1623,1443,0,0
406,-419,0,0,0,0,0,0,0,0,0,-1,1630,1443,0,0
413,-419,0,0,0,0,0,0,0,0,0,-1,1637,1443,0,0
420,-419,0,0,0,0,0,0,0,0,0,-1,1644,1443,0,0
427,-419,0,0,0,0,0,0,0,0,0,-1,1651,1443,0,0
434,-419,0,0,0,0,0,0,0,0,0,-1,1658,1443,0,0
441,-419,0,0,0,0,0,0,0,0,0,-1,1665,1443,0,0
448,-419,0,0,0,0,0,0,0,0,0,-1,1672,1443,0,0
455,-419,0,0,0,0,0,0,0,0,0,-1,1679,1443,0,0
462,-419,0,0,0,0,0,0,0,0,0,-1,1686,1443,0,0
469,-419,0,0,0,0,0,0,0,0,0,-1,1693,1443,0,0
476,-419,0,0,0,0,0,0,0,0,0,-1,1700,1443,0,0
483,-419,0,0,0,0,0,0,0,0,0,-1,1707,1443,0,0
490,-419,0,0,0,0,0,0,0,0,0,-1,1714,1443,0,0
497,-419,0,0,0,0,0,0,0,0,0,-1,1721,1443,0,0
504,-419,0,0,0,0,0,0,0,0,0,-1,1728,1443,0,0
511,-419,12.6509,-0.385132,0,0,0,0,0,0,0,-1,1735,1443,12.6508,0.385172
518,-419,13.1429,1.10168,0,0,0,0,0,0,0,-1,1742,1443,13.1429,-1.10166
525,-419,13.5118,1.47205,0,0,0,0,0,0,0,-1,1749,1443,13.5119,-1.472
532,-419,14.6622,2.34265,0,0,0,0,0,0,0,-1,1756,1443,14.6622,-2.3426
539,-419,14.7181,2.0625,0,0,0,0,0,0,0,-1,1763,1443,14.7181,-2.06255
546,-419,14.2803,2.17969,0,0,0,0,0,0,0,-1,1770,1443,14.2803,-2.17967
553,-419,14.1864,2.23438,0,0,0,0,0,0,0,-1,1777,1443,14.1864,-2.23433
560,-419,11.7478,6.99146,0,0,0,0,0,0,0,-1,1784,1443,11.7477,-6.99145
567,-419,11.3684,6.36987,0,0,0,0,0,0,0,-1,1791,1443,11.3684,-6.36982
574,-419,11.9622,6.49207,0,0,0,0,0,0,0,-1,1798,1443,11.9621,-6.49202
581,-419,11.0585,6.44238,0,0,0,0,0,0,0,-1,1805,1443,11.0585,-6.44235
588,-419,11.774,6.94434,0,0,0,0,0,0,0,-1,1812,1443,11.774,-6.94433
595,-419,11.2993,6.92664,-0.020833,-0.0265025,0.0248504,0.00134376,-0.0486793,0.728607,0.0329099,0.0371164,1819,1443,11.2993,-6.92663
602,-419,10.865,6.87585,-0.0165114,-0.0205999,0.0196691,0.00121946,-0.0383307,0.733618,0.0259698,0.0162701,1826,1443,10.8649,-6.87587
609,-419,10.8075,6.69971,-0.0127572,-0.0156954,0.0152282,0.00107258,-0.0295252,0.737311,0.0200506,0.0105534,1833,1443,10.8075,-6.69967
616,-419,10.793,6.52795,-0.00953947,-0.0118282,0.0115279,0.000900733,-0.0222684,0.735925,0.0151548,0.0104629,1840,1443,10.793,-6.52794
623,-419,10.802,6.3468,-0.00666888,-0.00869057,0.00844632,0.000826869,-0.0161863,0.725842,0.0110768,0.00884114,1847,1443,10.802,-6.34682
630,-419,10.8158,6.15283,-0.00431881,-0.00617816,0.00588006,0.000704616,-0.0112016,0.706994,0.00771333,0.0110743,1854,1443,10.8158,-6.15279
637,-419,10.8076,5.96899,-0.00225605,-0.00439702,0.00377451,0.00059684,-0.00724991,0.647222,0.00504401,0.0116817,1861,1443,10.8076,-5.96901
644,-419,10.8171,5.79639,-0.000560717,-0.00312359,0.00215987,0.000669241,-0.00435355,0.517661,0.00314924,0.0105996,1868,1443,10.8171,-5.79641
651,-419,10.8333,5.60803,0.00094393,-0.00225715,0.000966183,0.00121295,-0.00252617,0.271553,0.00220271,0.0106862,1875,1443,10.8332,-5.60808
658,-419,10.8091,5.41443,0.00219923,-0.0022991,0.000368605,0.00222923,-0.00232911,0.0812206,0.00263197,0.0122383,1882,1443,10.8091,-5.41437
665,-419,10.7974,5.25061,0.00366934,-0.00422547,0.00028603,0.00367968,-0.00423582,0.0361669,0.00457378,0.0196746,1889,1443,10.7974,-5.25056
672,-419,10.8597,5.05493,0.00497461,-0.00687391,0.000895249,0.00504187,-0.00694118,0.0749905,0.00694732,0.0245627,1896,1443,10.8597,-5.0549
679,-419,10.8015,4.91003,0.00687776,-0.0111517,0.00193587,0.00708327,-0.0113573,0.105766,0.0107415,0.0419477,1903,1443,10.8015,-4.91
686,-419,10.6078,4.8313,0,0,0,0,0,0,0,-1,1910,1443,10.6078,-4.83136
693,-419,8.76086,5.60535,0,0,0,0,0,0,0,-1,1917,1443,8.76091,-5.6054
700,-419,8.49817,5.59277,0,0,0,0,0,0,0,-1,1924,1443,8.49817,-5.59282
707,-419,9.5752,1.80042,0,0,0,0,0,0,0,-1,1931,1443,9.57523,-1.80037
714,-419,5.77576,-1.25061,0,0,0,0,0,0,0,-1,1938,1443,5.7757,1.25056
721,-419,0,0,0,0,0,0,0,0,0,-1,1945,1443,0,0
728,-419,0,0,0,0,0,0,0,0,0,-1,1952,1443,0,0
735,-419,0,0,0,0,0,0,0,0,0,-1,1959,1443,0,0
742,-419,0,0,0,0,0,0,0,0,0,-1,1966,1443,0,0
749,-419,0,0,0,0,0,0,0,0,0,-1,1973,1443,0,0
756,-419,0,0,0,0,0,0,0,0,0,-1,1980,1443,0,0
763,-419,0,0,0,0,0,0,0,0,0,-1,1987,1443,0,0
770,-419,0,0,0,0,0,0,0,0,0,-1,1994,1443,0,0
777,-419,0,0,0,0,0,0,0,0,0,-1,2001,1443,0,0
784,-419,0,0,0,0,0,0,0,0,0,-1,2008,1443,0,0
791,-419,0,0,0,0,0,0,0,0,0,-1,2015,1443,0,0
798,-419,0,0,0,0,0,0,0,0,0,-1,2022,1443,0,0
805,-419,0,0,0,0,0,0,0,0,0,-1,2029,1443,0,0
812,-419,0,0,0,0,0,0,0,0,0,-1,2036,1443,0,0
-700,-426,0,0,0,0,0,0,0,0,0,-1,524,1450,0,0
-693,-426,0,0,0,0,0,0,0,0,0,-1,531,1450,0,0
-686,-426,0,0,0,0,0,0,0,0,0,-1,538,1450,0,0
-679,-426,0,0,0,0,0,0,0,0,0,-1,545,1450,0,0
-672,-426,0,0,0,0,0,0,0,0,0,-1,552,1450,0,0
-665,-426,0,0,0,0,0,0,0,0,0,-1,559,1450,0,0
-658,-426,0,0,0,0,0,0,0,0,0,-1,566,1450,0,0
-651,-426,0,0,0,0,0,0,0,0,0,-1,573,1450,0,0
-644,-426,0,0,0,0,0,0,0,0,0,-1,580,1450,0,0
-637,-426,0,0,0,0,0,0,0,0,0,-1,587,1450,0,0
-630,-426,0,0,0,0,0,0,0,0,0,-1,594,1450,0,0
-623,-426,0,0,0,0,0,0,0,0,0,-1,601,1450,0,0
-616,-426,0,0,0,0,0,0,0,0,0,-1,608,1450,0,0
-609,-426,0,0,0,0,0,0,0,0,0,-1,615,1450,0,0
-602,-426,0,0,0,0,0,0,0,0,0,-1,622,1450,0,0
-595,-426,0,0,0,0,0,0,0,0,0,-1,629,1450,0,0
-588,-426,-4.39026,0.156494,0,0,0,0,0,0,0,-1,636,1450,-4.39027,-0.156543
-581,-426,-3.61182,1.14502,0,0,0,0,0,0,0,-1,643,1450,-3.61184,-1.14503
-574,-426,-3.31049,1.22742,0,0,0,0,0,0,0,-1,650,1450,-3.3105,-1.22744
-567,-426,-3.02087,-1.11523,0,0,0,0,0,0,0,-1,657,1450,-3.0209,1.11518
-560,-426,-2.7691,0.0230713,0,0,0,0,0,0,0,-1,664,1450,-2.76912,-0.0231147
-553,-426,-2.94879,3.20764,0,0,0,0,0,0,0,-1,671,1450,-2.9488,-3.20765
-546,-426,-2.85828,3.05225,0,0,0,0,0,0,0,-1,678,1450,-2.85828,-3.05224
-539,-426,-2.99664,3.18018,0.0355894,0.00479872,0.0258629,0.0502923,-0.0099042,0.516932,0.0372708,0.0392892,685,1450,-2.99662,-3.18021
-532,-426,-3.07886,3.42419,0.0256065,0.00409663,0.0190117,0.0366945,-0.0069914,0.52799,0.0270958,0.0235103,692,1450,-3.07885,-3.42419
-525,-426,-3.09821,3.58728,0.0181505,0.0032594,0.0135954,0.0262056,-0.00479572,0.534879,0.0192689,0.0127165,699,1450,-3.09818,-3.58726
-518,-426,-3.078,3.8053,0.0127712,0.00205355,0.00928582,0.0181336,-0.00330879,0.523693,0.0133296,0.0155131,706,1450,-3.07803,-3.80531
-511,-426,-3.07306,4.02856,0.00770754,0.000748364,0.0052211,0.0105023,-0.0020464,0.491473,0.00777397,0.0156242,713,1450,-3.07305,-4.02855
-504,-426,-3.10175,4.23596,0.00446818,-0.000775391,0.0023029,0.00533597,-0.00164318,0.360368,0.00421323,0.0160209,720,1450,-3.10177,-4.23593
-497,-426,-3.09961,4.42224,0.00283284,-0.00262916,-0.000197614,0.00283998,-0.0026363,-0.0361167,0.00316246,0.01315,727,1450,-3.0996,-4.42229
-490,-426,-3.09399,4.61987,0.00146232,-0.0054394,-0.00272335,0.00240749,-0.00638457,-0.334054,0.00524636,0.0123471,734,1450,-3.09401,-4.61992
-483,-426,-3.08594,4.83459,0.00045397,-0.00896024,-0.00526854,0.00281187,-0.0113181,-0.420809,0.00863667,0.0115429,741,1450,-3.08593,-4.83465
-476,-426,-3.09882,5.05896,-0.000703714,-0.0125501,-0.00799194,0.00332072,-0.0165745,-0.466493,0.0123068,0.00893302,748,1450,-3.09882,-5.05892
-469,-426,-3.10522,5.25293,-0.00182175,-0.0168397,-0.0109878,0.0039778,-0.0226392,-0.485653,0.0165786,0.00719783,755,1450,-3.10523,-5.25299
-462,-426,-3.03259,5.49292,-0.00291494,-0.0220869,-0.0144439,0.00483454,-0.0298364,-0.492436,0.0216828,0.0148453,762,1450,-3.03258,-5.49291
-455,-426,-3.0816,5.55408,-0.00433576,-0.0285168,-0.0185235,0.00569384,-0.0385464,-0.496258,0.0277907,0.030963,769,1450,-3.08159,-5.55407
-448,-426,-3.00006,4.95313,-0.00619427,-0.0361675,-0.0233098,0.00653091,-0.0488927,-0.499703,0.0349759,0.0447124,776,1450,-3.00009,-4.95314
-441,-426,-3.18829,4.81946,-0.00860307,-0.0450771,-0.0287477,0.00720425,-0.0608845,-0.502739,0.0431918,0.0426882,783,1450,-3.18829,-4.81947
-434,-426,-3.18829,4.51465,0,0,0,0,0,0,0,-1,790,1450,-3.1883,-4.5147
-427,-426,-3.26508,3.67554,0,0,0,0,0,0,0,-1,797,1450,-3.26507,-3.67553
-420,-426,-5.54272,5.15503,0,0,0,0,0,0,0,-1,804,1450,-5.54275,-5.155
-413,-426,-8.31403,2.49158,0,0,0,0,0,0,0,-1,811,1450,-8.314,-2.49162
-406,-426,-9.0069,2.56812,0,0,0,0,0,0,0,-1,818,1450,-9.00689,-2.56812
-399,-426,-9.25275,2.21338,0,0,0,0,0,0,0,-1,825,1450,-9.25274,-2.21335
-392,-426,-9.92609,2.41931,0,0,0,0,0,0,0,-1,832,1450,-9.9261,-2.4193
-385,-426,0,0,0,0,0,0,0,0,0,-1,839,1450,0,0
-378,-426,0,0,0,0,0,0,0,0,0,-1,846,1450,0,0
-371,-426,0,0,0,0,0,0,0,0,0,-1,853,1450,0,0
-364,-426,0,0,0,0,0,0,0,0,0,-1,860,1450,0,0
-357,-426,0,0,0,0,0,0,0,0,0,-1,867,1450,0,0
-350,-426,0,0,0,0,0,0,0,0,0,-1,874,1450,0,0
-343,-426,0,0,0,0,0,0,0,0,0,-1,881,1450,0,0
-336,-426,0,0,0,0,0,0,0,0,0,-1,888,1450,0,0
-329,-426,0,0,0,0,0,0,0,0,0,-1,895,1450,0,0
-322,-426,0,0,0,0,0,0,0,0,0,-1,902,1450,0,0
-315,-426,0,0,0,0,0,0,0,0,0,-1,909,1450,0,0
-308,-426,0,0,0,0,0,0,0,0,0,-1,916,1450,0,0
-301,-426,0,0,0,0,0,0,0,0,0,-1,923,1450,0,0
-294,-426,0,0,0,0,0,0,0,0,0,-1,930,1450,0,0
-287,-426,0,0,0,0,0,0,0,0,0,-1,937,1450,0,0
-280,-426,0,0,0,0,0,0,0,0,0,-1,944,1450,0,0
-273,-426,0,0,0,0,0,0,0,0,0,-1,951,1450,0,0
-266,-426,0,0,0,0,0,0,0,0,0,-1,958,1450,0,0
-259,-426,0,0,0,0,0,0,0,0,0,-1,965,1450,0,0
-252,-426,0,0,0,0,0,0,0,0,0,-1,972,1450,0,0
-245,-426,0,0,0,0,0,0,0,0,0,-1,979,1450,0,0
-238,-426,0,0,0,0,0,0,0,0,0,-1,986,1450,0,0
-231,-426,0,0,0,0,0,0,0,0,0,-1,993,1450,0,0
-224,-426,0,0,0,0,0,0,0,0,0,-1,1000,1450,0,0
-217,-426,0,0,0,0,0,0,0,0,0,-1,1007,1450,0,0
-210,-426,0,0,0,0,0,0,0,0,0,-1,1014,1450,0,0
-203,-426,0,0,0,0,0,0,0,0,0,-1,1021,1450,0,0
-196,-426,0,0,0,0,0,0,0,0,0,-1,1028,1450,0,0
-189,-426,0,0,0,0,0,0,0,0,0,-1,1035,1450,0,0
-182,-426,0,0,0,0,0,0,0,0,0,-1,1042,1450,0,0
-175,-426,0,0,0,0,0,0,0,0,0,-1,1049,1450,0,0
-168,-426,0,0,0,0,0,0,0,0,0,-1,1056,1450,0,0
-161,-426,0,0,0,0,0,0,0,0,0,-1,1063,1450,0,0
-154,-426,0,0,0,0,0,0,0,0,0,-1,1070,1450,0,0
-147,-426,0,0,0,0,0,0,0,0,0,-1,1077,1450,0,0
-140,-426,0,0,0,0,0,0,0,0,0,-1,1084,1450,0,0
-133,-426,0,0,0,0,0,0,0,0,0,-1,1091,1450,0,0
-126,-426,0,0,0,0,0,0,0,0,0,-1,1098,1450,0,0
-119,-426,0,0,0,0,0,0,0,0,0,-1,1105,1450,0,0
-112,-426,0,0,0,0,0,0,0,0,0,-1,1112,1450,0,0
-105,-426,0,0,0,0,0,0,0,0,0,-1,1119,1450,0,0
-98,-426,0,0,0,0,0,0,0,0,0,-1,1126,1450,0,0
-91,-426,0,0,0,0,0,0,0,0,0,-1,1133,1450,0,0
-84,-426,0,0,0,0,0,0,0,0,0,-1,1140,1450,0,0
-77,-426,0,0,0,0,0,0,0,0,0,-1,1147,1450,0,0
-70,-426,0,0,0,0,0,0,0,0,0,-1,1154,1450,0,0
-63,-426,0,0,0,0,0,0,0,0,0,-1,1161,1450,0,0
-56,-426,0,0,0,0,0,0,0,0,0,-1,1168,1450,0,0
-49,-426,0,0,0,0,0,0,0,0,0,-1,1175,1450,0,0
-42,-426,0,0,0,0,0,0,0,0,0,-1,1182,1450,0,0
-35,-426,0,0,0,0,0,0,0,0,0,-1,1189,1450,0,0
-28,-426,0,0,0,0,0,0,0,0,0,-1,1196,1450,0,0
-21,-426,0,0,0,0,0,0,0,0,0,-1,1203,1450,0,0
-14,-426,0,0,0,0,0,0,0,0,0,-1,1210,1450,0,0
-7,-426,0,0,0,0,0,0,0,0,0,-1,1217,1450,0,0
0,-426,0,0,0,0,0,0,0,0,0,-1,1224,1450,0,0
7,-426,0,0,0,0,0,0,0,0,0,-1,1231,1450,0,0
14,-426,0,0,0,0,0,0,0,0,0,-1,1238,1450,0,0
21,-426,0,0,0,0,0,0,0,0,0,-1,1245,1450,0,0
28,-426,0,0,0,0,0,0,0,0,0,-1,1252,1450,0,0
35,-426,0,0,0,0,0,0,0,0,0,-1,1259,1450,0,0
42,-426,0,0,0,0,0,0,0,0,0,-1,1266,1450,0,0
49,-426,0,0,0,0,0,0,0,0,0,-1,1273,1450,0,0
56,-426,0,0,0,0,0,0,0,0,0,-1,1280,1450,0,0
63,-426,0,0,0,0,0,0,0,0,0,-1,1287,1450,0,0
70,-426,0,0,0,0,0,0,0,0,0,-1,1294,1450,0,0
77,-426,0,0,0,0,0,0,0,0,0,-1,1301,1450,0,0
84,-426,0,0,0,0,0,0,0,0,0,-1,1308,1450,0,0
91,-426,0,0,0,0,0,0,0,0,0,-1,1315,1450,0,0
98,-426,0,0,0,0,0,0,0,0,0,-1,1322,1450,0,0
105,-426,0,0,0,0,0,0,0,0,0,-1,1329,1450,0,0
112,-426,0,0,0,0,0,0,0,0,0,-1,1336,1450,0,0
119,-426,0,0,0,0,0,0,0,0,0,-1,1343,1450,0,0
126,-426,0,0,0,0,0,0,0,0,0,-1,1350,1450,0,0
133,-426,0,0,0,0,0,0,0,0,0,-1,1357,1450,0,0
140,-426,0,0,0,0,0,0,0,0,0,-1,1364,1450,0,0
147,-426,0,0,0,0,0,0,0,0,0,-1,1371,1450,0,0
154,-426,0,0,0,0,0,0,0,0,0,-1,1378,1450,0,0
161,-426,0,0,0,0,0,0,0,0,0,-1,1385,1450,0,0
168,-426,0,0,0,0,0,0,0,0,0,-1,1392,1450,0,0
175,-426,0,0,0,0,0,0,0,0,0,-1,1399,1450,0,0
182,-426,0,0,0,0,0,0,0,0,0,-1,1406,1450,0,0
189,-426,0,0,0,0,0,0,0,0,0,-1,1413,1450,0,0
196,-426,0,0,0,0,0,0,0,0,0,-1,1420,1450,0,0
203,-426,0,0,0,0,0,0,0,0,0,-1,1427,1450,0,0
210,-426,0,0,0,0,0,0,0,0,0,-1,1434,1450,0,0
217,-426,0,0,0,0,0,0,0,0,0,-1,1441,1450,0,0
224,-426,0,0,0,0,0,0,0,0,0,-1,1448,1450,0,0
231,-426,0,0,0,0,0,0,0,0,0,-1,1455,1450,0,0
238,-426,0,0,0,0,0,0,0,0,0,-1,1462,1450,0,0
245,-426,0,0,0,0,0,0,0,0,0,-1,1469,1450,0,0
252,-426,0,0,0,0,0,0,0,0,0,-1,1476,1450,0,0
259,-426,0,0,0,0,0,0,0,0,0,-1,1483,1450,0,0
266,-426,0,0,0,0,0,0,0,0,0,-1,1490,1450,0,0
273,-426,0,0,0,0,0,0,0,0,0,-1,1497,1450,0,0
280,-426,0,0,0,0,0,0,0,0,0,-1,1504,1450,0,0
287,-426,0,0,0,0,0,0,0,0,0,-1,1511,1450,0,0
294,-426,0,0,0,0,0,0,0,0,0,-1,1518,1450,0,0
301,-426,0,0,0,0,0,0,0,0,0,-1,1525,1450,0,0
308,-426,0,0,0,0,0,0,0,0,0,-1,1532,1450,0,0
315,-426,0,0,0,0,0,0,0,0,0,-1,1539,1450,0,0
322,-426,0,0,0,0,0,0,0,0,0,-1,1546,1450,0,0
329,-426,0,0,0,0,0,0,0,0,0,-1,1553,1450,0,0
336,-426,0,0,0,0,0,0,0,0,0,-1,1560,1450,0,0
343,-426,0,0,0,0,0,0,0,0,0,-1,1567,1450,0,0
350,-426,0,0,0,0,0,0,0,0,0,-1,1574,1450,0,0
357,-426,0,0,0,0,0,0,0,0,0,-1,1581,1450,0,0
364,-426,0,0,0,0,0,0,0,0,0,-1,1588,1450,0,0
371,-426,0,0,0,0,0,0,0,0,0,-1,1595,1450,0,0
378,-426,0,0,0,0,0,0,0,0,0,-1,1602,1450,0,0
385,-426,0,0,0,0,0,0,0,0,0,-1,1609,1450,0,0
392,-426,0,0,0,0,0,0,0,0,0,-1,1616,1450,0,0
399,-426,0,0,0,0,0,0,0,0,0,-1,1623,1450,0,0
406,-426,0,0,0,0,0,0,0,0,0,-1,1630,1450,0,0
413,-426,0,0,0,0,0,0,0,0,0,-1,1637,1450,0,0
420,-426,0,0,0,0,0,0,0,0,0,-1,1644,1450,0,0
427,-426,0,0,0,0,0,0,0,0,0,-1,1651,1450,0,0
434,-426,0,0,0,0,0,0,0,0,0,-1,1658,1450,0,0
441,-426,0,0,0,0,0,0,0,0,0,-1,1665,1450,0,0
448,-426,0,0,0,0,0,0,0,0,0,-1,1672,1450,0,0
455,-426,0,0,0,0,0,0,0,0,0,-1,1679,1450,0,0
462,-426,0,0,0,0,0,0,0,0,0,-1,1686,1450,0,0
469,-426,0,0,0,0,0,0,0,0,0,-1,1693,1450,0,0
476,-426,0,0,0,0,0,0,0,0,0,-1,1700,1450,0,0
483,-426,0,0,0,0,0,0,0,0,0,-1,1707,1450,0,0
490,-426,0,0,0,0,0,0,0,0,0,-1,1714,1450,0,0
497,-426,0,0,0,0,0,0,0,0,0,-1,1721,1450,0,0
504,-426,11.2445,1.75195,0,0,0,0,0,0,0,-1,1728,1450,11.2445,-1.75193
511,-426,10.9731,1.4895,0,0,0,0,0,0,0,-1,1735,1450,10.9732,-1.48954
518,-426,12.8763,0.845581,0,0,0,0,0,0,0,-1,1742,1450,12.8764,-0.845541
525,-426,13.1451,1.1593,0,0,0,0,0,0,0,-1,1749,1450,13.1452,-1.15936
532,-426,14.6205,2.94202,0,0,0,0,0,0,0,-1,1756,1450,14.6205,-2.94199
539,-426,14.678,2.28503,0,0,0,0,0,0,0,-1,1763,1450,14.678,-2.28502
546,-426,14.6774,1.99292,0,0,0,0,0,0,0,-1,1770,1450,14.6774,-1.99287
553,-426,12.5996,7.43384,0,0,0,0,0,0,0,-1,1777,1450,12.5996,-7.43381
560,-426,11.5884,6.95703,0,0,0,0,0,0,0,-1,1784,1450,11.5883,-6.95709
567,-426,12.3074,7.48621,0,0,0,0,0,0,0,-1,1791,1450,12.3074,-7.48615
574,-426,11.6066,6.9856,0,0,0,0,0,0,0,-1,1798,1450,11.6066,-6.98555
581,-426,10.8754,6.94971,0,0,0,0,0,0,0,-1,1805,1450,10.8754,-6.94968
588,-426,10.931,6.89771,-0.0203933,-0.0261694,0.023997,0.000888895,-0.0474515,0.725511,0.0319348,0.0446835,1812,1450,10.931,-6.89768
595,-426,10.6831,7.00903,-0.0165773,-0.0206531,0.0193106,0.000802636,-0.038033,0.732826,0.0256271,0.0272439,1819,1450,10.6831,-7.00907
602,-426,10.6554,6.86035,-0.0131434,-0.016026,0.015279,0.00076216,-0.0299315,0.738371,0.0202132,0.0167094,1826,1450,10.6554,-6.86032
609,-426,10.6243,6.68713,-0.010089,-0.0121365,0.0117934,0.000725022,-0.0229505,0.742103,0.0155477,0.0117332,1833,1450,10.6243,-6.68709
616,-426,10.6246,6.51392,-0.00739652,-0.00916781,0.00888481,0.000646678,-0.017211,0.735722,0.0116955,0.0130116,1840,1450,10.6246,-6.51394
623,-426,10.6357,6.34167,-0.00493428,-0.00675825,0.00643135,0.000649428,-0.012342,0.714966,0.00845276,0.0104755,1847,1450,10.6357,-6.34171
630,-426,10.6443,6.1637,-0.00288315,-0.00480321,0.00434137,0.000603069,-0.00828943,0.676582,0.00573788,0.0109077,1854,1450,10.6443,-6.16372
637,-426,10.6334,5.97815,-0.000999659,-0.00354819,0.00262603,0.000644941,-0.00519279,0.559511,0.00369564,0.0112658,1861,1450,10.6334,-5.97813
644,-426,10.6193,5.80579,0.000598275,-0.00275753,0.00132193,0.00105646,-0.00321571,0.333644,0.00256941,0.0111254,1868,1450,10.6193,-5.80577
651,-426,10.6156,5.62805,0.00201372,-0.00235668,0.000365807,0.00204413,-0.00238708,0.0829321,0.00256091,0.0109894,1875,1450,10.6156,-5.62809
658,-426,10.6166,5.41638,0.00319744,-0.0027112,-0.000102519,0.00319922,-0.00271298,-0.0173438,0.00341725,0.0108819,1882,1450,10.6165,-5.41634
665,-426,10.6382,5.17786,0.00457606,-0.00479095,-8.10283e-05,0.00457676,-0.00479165,-0.00864953,0.00540933,0.0175891,1889,1450,10.6382,-5.17782
672,-426,10.5908,4.9126,0.00586537,-0.00753042,0.000507554,0.00588458,-0.00754962,0.0378168,0.00777607,0.0296632,1896,1450,10.5908,-4.91258
679,-426,10.3392,4.99976,0.00774164,-0.0117507,0.00142199,0.00784483,-0.0118539,0.0724401,0.0114513,0.0424402,1903,1450,10.3393,-4.99977
686,-426,10.1992,5.14221,0,0,0,0,0,0,0,-1,1910,1450,10.1992,-5.14218
693,-426,7.96655,5.48169,0,0,0,0,0,0,0,-1,1917,1450,7.9665,-5.48164
700,-426,9.24304,2.95447,0,0,0,0,0,0,0,-1,1924,1450,9.24305,-2.95442
707,-426,8.44519,-1.21448,0,0,0,0,0,0,0,-1,1931,1450,8.44514,1.21454
714,-426,0,0,0,0,0,0,0,0,0,-1,1938,1450,0,0
721,-426,0,0,0,0,0,0,0,0,0,-1,1945,1450,0,0
728,-426,0,0,0,0,0,0,0,0,0,-1,1952,1450,0,0
735,-426,0,0,0,0,0,0,0,0,0,-1,1959,1450,0,0
742,-426,0,0,0,0,0,0,0,0,0,-1,1966,1450,0,0
749,-426,0,0,0,0,0,0,0,0,0,-1,1973,1450,0,0
756,-426,0,0,0,0,0,0,0,0,0,-1,1980,1450,0,0
763,-426,0,0,0,0,0,0,0,0,0,-1,1987,1450,0,0
770,-426,0,0,0,0,0,0,0,0,0,-1,1994,1450,0,0
777,-426,0,0,0,0,0,0,0,0,0,-1,2001,1450,0,0
784,-426,0,0,0,0,0,0,0,0,0,-1,2008,1450,0,0
791,-426,0,0,0,0,0,0,0,0,0,-1,2015,1450,0,0
798,-426,0,0,0,0,0,0,0,0,0,-1,2022,1450,0,0
805,-426,0,0,0,0,0,0,0,0,0,-1,2029,1450,0,0
812,-426,0,0,0,0,0,0,0,0,0,-1,2036,1450,0,0
-700,-433,0,0,0,0,0,0,0,0,0,-1,524,1457,0,0
-693,-433,0,0,0,0,0,0,0,0,0,-1,531,1457,0,0
-686,-433,0,0,0,0,0,0,0,0,0,-1,538,1457,0,0
-679,-433,0,0,0,0,0,0,0,0,0,-1,545,1457,0,0
-672,-433,0,0,0,0,0,0,0,0,0,-1,552,1457,0,0
-665,-433,0,0,0,0,0,0,0,0,0,-1,559,1457,0,0
-658,-433,0,0,0,0,0,0,0,0,0,-1,566,1457,0,0
-651,-433,0,0,0,0,0,0,0,0,0,-1,573,1457,0,0
-644,-433,0,0,0,0,0,0,0,0,0,-1,580,1457,0,0
-637,-433,0,0,0,0,0,0,0,0,0,-1,587,1457,0,0
-630,-433,0,0,0,0,0,0,0,0,0,-1,594,1457,0,0
-623,-433,0,0,0,0,0,0,0,0,0,-1,601,1457,0,0
-616,-433,0,0,0,0,0,0,0,0,0,-1,608,1457,0,0
-609,-433,0,0,0,0,0,0,0,0,0,-1,615,1457,0,0
-602,-433,0,0,0,0,0,0,0,0,0,-1,622,1457,0,0
-595,-433,0,0,0,0,0,0,0,0,0,-1,629,1457,0,0
-588,-433,-4.99121,-0.205688,0,0,0,0,0,0,0,-1,636,1457,-4.99119,0.205667
-581,-433,-5.03912,0.544922,0,0,0,0,0,0,0,-1,643,1457,-5.0391,-0.54497
-574,-433,-5.1795,1.66821,0,0,0,0,0,0,0,-1,650,1457,-5.17952,-1.6682
-567,-433,-3.95374,1.71008,0,0,0,0,0,0,0,-1,657,1457,-3.95373,-1.71014
-560,-433,-3.05286,1.66589,0,0,0,0,0,0,0,-1,664,1457,-3.05287,-1.66584
-553,-433,-2.59033,1.73901,0,0,0,0,0,0,0,-1,671,1457,-2.59032,-1.73897
-546,-433,-3.1886,1.66736,0,0,0,0,0,0,0,-1,678,1457,-3.18859,-1.66732
-539,-433,-3.01532,2.50623,0.0475465,0.00439148,0.0326572,0.0651108,-0.0131728,0.493458,0.0483994,0.0432737,685,1457,-3.01534,-2.50622
-532,-433,-2.82666,3.39734,0.0337095,0.00384534,0.0240433,0.0470802,-0.00952538,0.507522,0.0349967,0.0290479,692,1457,-2.82667,-3.39736
-525,-433,-2.86353,3.59583,0.0234438,0.0032289,0.01728,0.0333554,-0.00668265,0.520769,0.0247668,0.0166895,699,1457,-2.86351,-3.59588
-518,-433,-2.87378,3.79553,0.0161354,0.0023532,0.012011,0.0230917,-0.00460316,0.524959,0.0171362,0.0155839,706,1457,-2.8738,-3.79556
-511,-433,-2.88989,4.02734,0.00941754,0.00133805,0.00712439,0.0135678,-0.00281223,0.527486,0.0101138,0.015832,713,1457,-2.8899,-4.02739
-504,-433,-2.89392,4.23462,0.00537147,0.000144541,0.00386362,0.00742252,-0.00190651,0.488033,0.00569131,0.0134967,720,1457,-2.89392,-4.23467
-497,-433,-2.89288,4.42456,0.00359811,-0.00128945,0.00131167,0.00392787,-0.00161922,0.246303,0.00329377,0.0139768,727,1457,-2.89288,-4.42455
-490,-433,-2.91119,4.60779,0.00220217,-0.00360784,-0.00114278,0.00241886,-0.00382453,-0.187395,0.00363495,0.0150642,734,1457,-2.91119,-4.60778
-483,-433,-2.89832,4.8562,0.00127277,-0.00668709,-0.00346983,0.00257295,-0.00798726,-0.358516,0.00635845,0.0152765,741,1457,-2.8983,-4.85617
-476,-433,-2.8786,5.07458,0.000194791,-0.00972862,-0.0059004,0.00294238,-0.0124762,-0.435801,0.00945217,0.0101,748,1457,-2.8786,-5.07453
-469,-433,-2.87195,5.2738,-0.000800167,-0.0133347,-0.00842933,0.00343647,-0.0175714,-0.465731,0.0130119,0.0101276,755,1457,-2.87197,-5.27376
-462,-433,-2.89868,5.48218,-0.00160975,-0.0177646,-0.0112667,0.00417587,-0.0235502,-0.4744,0.0172613,0.010403,762,1457,-2.89871,-5.48223
-455,-433,-2.89929,5.71167,0,0,0,0,0,0,0,-1,769,1457,-2.89929,-5.71164
-448,-433,-2.72668,5.38672,-0.00373585,-0.0293686,-0.0183465,0.00582752,-0.0389319,-0.480514,0.0280993,0.0352103,776,1457,-2.72671,-5.38675
-441,-433,-2.63708,5.03992,-0.00520997,-0.0362048,-0.0226449,0.00673274,-0.0481475,-0.48532,0.0345619,0.0413838,783,1457,-2.6371,-5.03992
-434,-433,-2.46661,4.70593,0,0,0,0,0,0,0,-1,790,1457,-2.46659,-4.70595
-427,-433,-3.58923,4.59204,0,0,0,0,0,0,0,-1,797,1457,-3.58926,-4.59201
-420,-433,-4.39087,4.79651,0,0,0,0,0,0,0,-1,804,1457,-4.39086,-4.79648
-413,-433,-1.53833,4.20422,0,0,0,0,0,0,0,-1,811,1457,-1.53834,-4.20424
-406,-433,-9.14117,2.24158,0,0,0,0,0,0,0,-1,818,1457,-9.14118,-2.24158
-399,-433,-9.59204,2.41504,0,0,0,0,0,0,0,-1,825,1457,-9.59204,-2.41508
-392,-433,-10.7191,2.36316,0,0,0,0,0,0,0,-1,832,1457,-10.719,-2.3632
-385,-433,-1.65833,1.2821,0,0,0,0,0,0,0,-1,839,1457,-1.65834,-1.28209
-378,-433,0,0,0,0,0,0,0,0,0,-1,846,1457,0,0
-371,-433,0,0,0,0,0,0,0,0,0,-1,853,1457,0,0
-364,-433,0,0,0,0,0,0,0,0,0,-1,860,1457,0,0
-357,-433,0,0,0,0,0,0,0,0,0,-1,867,1457,0,0
-350,-433,0,0,0,0,0,0,0,0,0,-1,874,1457,0,0
-343,-433,0,0,0,0,0,0,0,0,0,-1,881,1457,0,0
-336,-433,0,0,0,0,0,0,0,0,0,-1,888,1457,0,0
-329,-433,0,0,0,0,0,0,0,0,0,-1,895,1457,0,0
-322,-433,0,0,0,0,0,0,0,0,0,-1,902,1457,0,0
-315,-433,0,0,0,0,0,0,0,0,0,-1,909,1457,0,0
-308,-433,0,0,0,0,0,0,0,0,0,-1,916,1457,0,0
-301,-433,0,0,0,0,0,0,0,0,0,-1,923,1457,0,0
-294,-433,0,0,0,0,0,0,0,0,0,-1,930,1457,0,0
-287,-433,0,0,0,0,0,0,0,0,0,-1,937,1457,0,0
-280,-433,0,0,0,0,0,0,0,0,0,-1,944,1457,0,0
-273,-433,0,0,0,0,0,0,0,0,0,-1,951,1457,0,0
-266,-433,0,0,0,0,0,0,0,0,0,-1,958,1457,0,0
-259,-433,0,0,0,0,0,0,0,0,0,-1,965,1457,0,0
-252,-433,0,0,0,0,0,0,0,0,0,-1,972,1457,0,0
-245,-433,0,0,0,0,0,0,0,0,0,-1,979,1457,0,0
-238,-433,0,0,0,0,0,0,0,0,0,-1,986,1457,0,0
-231,-433,0,0,0,0,0,0,0,0,0,-1,993,1457,0,0
-224,-433,0,0,0,0,0,0,0,0,0,-1,1000,1457,0,0
-217,-433,0,0,0,0,0,0,0,0,0,-1,1007,1457,0,0
-210,-433,0,0,0,0,0,0,0,0,0,-1,1014,1457,0,0
-203,-433,0,0,0,0,0,0,0,0,0,-1,1021,1457,0,0
-196,-433,0,0,0,0,0,0,0,0,0,-1,1028,1457,0,0
-189,-433,0,0,0,0,0,0,0,0,0,-1,1035,1457,0,0
-182,-433,0,0,0,0,0,0,0,0,0,-1,1042,1457,0,0
-175,-433,0,0,0,0,0,0,0,0,0,-1,1049,1457,0,0
-168,-433,0,0,0,0,0,0,0,0,0,-1,1056,1457,0,0
-161,-433,0,0,0,0,0,0,0,0,0,-1,1063,1457,0,0
-154,-433,0,0,0,0,0,0,0,0,0,-1,1070,1457,0,0
-147,-433,0,0,0,0,0,0,0,0,0,-1,1077,1457,0,0
-140,-433,0,0,0,0,0,0,0,0,0,-1,1084,1457,0,0
-133,-433,0,0,0,0,0,0,0,0,0,-1,1091,1457,0,0
-126,-433,0,0,0,0,0,0,0,0,0,-1,1098,1457,0,0
-119,-433,0,0,0,0,0,0,0,0,0,-1,1105,1457,0,0
-112,-433,0,0,0,0,0,0,0,0,0,-1,1112,1457,0,0
-105,-433,0,0,0,0,0,0,0,0,0,-1,1119,1457,0,0
-98,-433,0,0,0,0,0,0,0,0,0,-1,1126,1457,0,0
-91,-433,0,0,0,0,0,0,0,0,0,-1,1133,1457,0,0
-84,-433,0,0,0,0,0,0,0,0,0,-1,1140,1457,0,0
-77,-433,0,0,0,0,0,0,0,0,0,-1,1147,1457,0,0
-70,-433,0,0,0,0,0,0,0,0,0,-1,1154,1457,0,0
-63,-433,0,0,0,0,0,0,0,0,0,-1,1161,1457,0,0
-56,-433,0,0,0,0,0,0,0,0,0,-1,1168,1457,0,0
-49,-433,0,0,0,0,0,0,0,0,0,-1,1175,1457,0,0
-42,-433,0,0,0,0,0,0,0,0,0,-1,1182,1457,0,0
-35,-433,0,0,0,0,0,0,0,0,0,-1,1189,1457,0,0
-28,-433,0,0,0,0,0,0,0,0,0,-1,1196,1457,0,0
-21,-433,0,0,0,0,0,0,0,0,0,-1,1203,1457,0,0
-14,-433,0,0,0,0,0,0,0,0,0,-1,1210,1457,0,0
-7,-433,0,0,0,0,0,0,0,0,0,-1,1217,1457,0,0
0,-433,0,0,0,0,0,0,0,0,0,-1,1224,1457,0,0
7,-433,0,0,0,0,0,0,0,0,0,-1,1231,1457,0,0
14,-433,0,0,0,0,0,0,0,0,0,-1,1238,1457,0,0
21,-433,0,0,0,0,0,0,0,0,0,-1,1245,1457,0,0
28,-433,0,0,0,0,0,0,0,0,0,-1,1252,1457,0,0
35,-433,0,0,0,0,0,0,0,0,0,-1,1259,1457,0,0
42,-433,0,0,0,0,0,0,0,0,0,-1,1266,1457,0,0
49,-433,0,0,0,0,0,0,0,0,0,-1,1273,1457,0,0
56,-433,0,0,0,0,0,0,0,0,0,-1,1280,1457,0,0
63,-433,0,0,0,0,0,0,0,0,0,-1,1287,1457,0,0
70,-433,0,0,0,0,0,0,0,0,0,-1,1294,1457,0,0
77,-433,0,0,0,0,0,0,0,0,0,-1,1301,1457,0,0
84,-433,0,0,0,0,0,0,0,0,0,-1,1308,1457,0,0
91,-433,0,0,0,0,0,0,0,0,0,-1,1315,1457,0,0
98,-433,0,0,0,0,0,0,0,0,0,-1,1322,1457,0,0
105,-433,0,0,0,0,0,0,0,0,0,-1,1329,1457,0,0
112,-433,0,0,0,0,0,0,0,0,0,-1,1336,1457,0,0
119,-433,0,0,0,0,0,0,0,0,0,-1,1343,1457,0,0
126,-433,0,0,0,0,0,0,0,0,0,-1,1350,1457,0,0
133,-433,0,0,0,0,0,0,0,0,0,-1,1357,1457,0,0
140,-433,0,0,0,0,0,0,0,0,0,-1,1364,1457,0,0
147,-433,0,0,0,0,0,0,0,0,0,-1,1371,1457,0,0
154,-433,0,0,0,0,0,0,0,0,0,-1,1378,1457,0,0
161,-433,0,0,0,0,0,0,0,0,0,-1,1385,1457,0,0
168,-433,0,0,0,0,0,0,0,0,0,-1,1392,1457,0,0
175,-433,0,0,0,0,0,0,0,0,0,-1,1399,1457,0,0
182,-433,0,0,0,0,0,0,0,0,0,-1,1406,1457,0,0
189,-433,0,0,0,0,0,0,0,0,0,-1,1413,1457,0,0
196,-433,0,0,0,0,0,0,0,0,0,-1,1420,1457,0,0
203,-433,0,0,0,0,0,0,0,0,0,-1,1427,1457,0,0
210,-433,0,0,0,0,0,0,0,0,0,-1,1434,1457,0,0
217,-433,0,0,0,0,0,0,0,0,0,-1,1441,1457,0,0
224,-433,0,0,0,0,0,0,0,0,0,-1,1448,1457,0,0
231,-433,0,0,0,0,0,0,0,0,0,-1,1455,1457,0,0
238,-433,0,0,0,0,0,0,0,0,0,-1,1462,1457,0,0
245,-433,0,0,0,0,0,0,0,0,0,-1,1469,1457,0,0
252,-433,0,0,0,0,0,0,0,0,0,-1,1476,1457,0,0
259,-433,0,0,0,0,0,0,0,0,0,-1,1483,1457,0,0
266,-433,0,0,0,0,0,0,0,0,0,-1,1490,1457,0,0
273,-433,0,0,0,0,0,0,0,0,0,-1,1497,1457,0,0
280,-433,0,0,0,0,0,0,0,0,0,-1,1504,1457,0,0
287,-433,0,0,0,0,0,0,0,0,0,-1,1511,1457,0,0
294,-433,0,0,0,0,0,0,0,0,0,-1,1518,1457,0,0
301,-433,0,0,0,0,0,0,0,0,0,-1,1525,1457,0,0
308,-433,0,0,0,0,0,0,0,0,0,-1,1532,1457,0,0
315,-433,0,0,0,0,0,0,0,0,0,-1,1539,1457,0,0
322,-433,0,0,0,0,0,0,0,0,0,-1,1546,1457,0,0
329,-433,0,0,0,0,0,0,0,0,0,-1,1553,1457,0,0
336,-433,0,0,0,0,0,0,0,0,0,-1,1560,1457,0,0
343,-433,0,0,0,0,0,0,0,0,0,-1,1567,1457,0,0
350,-433,0,0,0,0,0,0,0,0,0,-1,1574,1457,0,0
357,-433,0,0,0,0,0,0,0,0,0,-1,1581,1457,0,0
364,-433,0,0,0,0,0,0,0,0,0,-1,1588,1457,0,0
371,-433,0,0,0,0,0,0,0,0,0,-1,1595,1457,0,0
378,-433,0,0,0,0,0,0,0,0,0,-1,1602,1457,0,0
385,-433,0,0,0,0,0,0,0,0,0,-1,1609,1457,0,0
392,-433,0,0,0,0,0,0,0,0,0,-1,1616,1457,0,0
399,-433,0,0,0,0,0,0,0,0,0,-1,1623,1457,0,0
406,-433,0,0,0,0,0,0,0,0,0,-1,1630,1457,0,0
413,-433,0,0,0,0,0,0,0,0,0,-1,1637,1457,0,0
420,-433,0,0,0,0,0,0,0,0,0,-1,1644,1457,0,0
427,-433,0,0,0,0,0,0,0,0,0,-1,1651,1457,0,0
434,-433,0,0,0,0,0,0,0,0,0,-1,1658,1457,0,0
441,-433,0,0,0,0,0,0,0,0,0,-1,1665,1457,0,0
448,-433,0,0,0,0,0,0,0,0,0,-1,1672,1457,0,0
455,-433,0,0,0,0,0,0,0,0,0,-1,1679,1457,0,0
462,-433,0,0,0,0,0,0,0,0,0,-1,1686,1457,0,0
469,-433,0,0,0,0,0,0,0,0,0,-1,1693,1457,0,0
476,-433,0,0,0,0,0,0,0,0,0,-1,1700,1457,0,0
483,-433,0,0,0,0,0,0,0,0,0,-1,1707,1457,0,0
490,-433,0,0,0,0,0,0,0,0,0,-1,1714,1457,0,0
497,-433,0,0,0,0,0,0,0,0,0,-1,1721,1457,0,0
504,-433,11.0808,1.72498,0,0,0,0,0,0,0,-1,1728,1457,11.0808,-1.72492
511,-433,10.6913,2.06396,0,0,0,0,0,0,0,-1,1735,1457,10.6913,-2.06403
518,-433,10.2898,2.58838,0,0,0,0,0,0,0,-1,1742,1457,10.2897,-2.58838
525,-433,12.8851,0.920532,0,0,0,0,0,0,0,-1,1749,1457,12.8852,-0.920487
532,-433,14.2776,3.4751,0,0,0,0,0,0,0,-1,1756,1457,14.2776,-3.47508
539,-433,14.5688,2.54126,0,0,0,0,0,0,0,-1,1763,1457,14.5689,-2.54128
546,-433,12.918,8.31519,0,0,0,0,0,0,0,-1,1770,1457,12.9179,-8.31515
553,-433,10.5166,6.54968,0,0,0,0,0,0,0,-1,1777,1457,10.5166,-6.54966
560,-433,10.5306,6.76135,0,0,0,0,0,0,0,-1,1784,1457,10.5306,-6.76131
567,-433,11.1608,6.61414,0,0,0,0,0,0,0,-1,1791,1457,11.1607,-6.6141
574,-433,10.7864,6.96289,0,0,0,0,0,0,0,-1,1798,1457,10.7863,-6.96291
581,-433,10.7184,7.01831,-0.0190762,-0.0254582,0.0227264,0.000682143,-0.0452165,0.715649,0.0303743,0.0423827,1805,1457,10.7184,-7.01826
588,-433,10.5365,7.10779,-0.0157264,-0.0201885,0.0183709,0.000548432,-0.0364634,0.724972,0.0244938,0.0301906,1812,1457,10.5365,-7.10779
595,-433,10.4304,7.04919,-0.0127761,-0.0159102,0.0147687,0.000508471,-0.0291948,0.732543,0.0196349,0.0204441,1819,1457,10.4304,-7.04923
602,-433,10.4618,6.88708,-0.0101037,-0.012322,0.0116682,0.000507921,-0.0229337,0.738012,0.0154612,0.0195742,1826,1457,10.4617,-6.88713
609,-433,10.4583,6.68811,-0.00766582,-0.00929443,0.00898889,0.000545578,-0.0175058,0.740226,0.0118566,0.014889,1833,1457,10.4582,-6.68813
616,-433,10.457,6.52185,-0.00544516,-0.00710899,0.00676577,0.000539649,-0.0130938,0.724226,0.00891453,0.0122964,1840,1457,10.457,-6.52182
623,-433,10.448,6.3385,-0.0033542,-0.00534535,0.00485819,0.000609374,-0.00930893,0.684334,0.00641873,0.0101027,1847,1457,10.448,-6.33851
630,-433,10.4414,6.16479,-0.00156501,-0.00389982,0.00318957,0.00066408,-0.00612891,0.609967,0.00432433,0.0131604,1854,1457,10.4415,-6.16483
637,-433,10.4447,5.98645,0.000161057,-0.0031392,0.00183325,0.000977449,-0.00395559,0.41896,0.00301614,0.0142269,1861,1457,10.4447,-5.98645
644,-433,10.4432,5.80969,0.00169696,-0.00280995,0.000808689,0.00183767,-0.00295066,0.172276,0.00278933,0.0142071,1868,1457,10.4432,-5.80969
651,-433,10.4412,5.63501,0.00307096,-0.00285968,5.32092e-05,0.00307144,-0.00286016,0.00897095,0.00342533,0.0108512,1875,1457,10.4411,-5.63499
658,-433,10.4316,5.41357,0.00422166,-0.00347604,-0.000343007,0.00423691,-0.00349129,-0.0444423,0.0044688,0.012561,1882,1457,10.4317,-5.41357
665,-433,10.4073,5.15405,0.00548796,-0.00528386,-0.000283614,0.00549542,-0.00529132,-0.026305,0.0062281,0.0192403,1889,1457,10.4073,-5.15406
672,-433,10.4902,5.00122,0.00671396,-0.00761713,0.000192107,0.00671653,-0.00761971,0.0134017,0.0082825,0.0369036,1896,1457,10.4902,-5.00126
679,-433,10.4982,4.86475,0.00834922,-0.0108335,0.000902629,0.00839159,-0.0108759,0.0469161,0.0111549,0.0442109,1903,1457,10.4982,-4.8647
686,-433,10.562,4.74023,0,0,0,0,0,0,0,-1,1910,1457,10.562,-4.74027
693,-433,8.27722,4.4519,0,0,0,0,0,0,0,-1,1917,1457,8.27728,-4.45186
700,-433,7.16809,-1.5166,0,0,0,0,0,0,0,-1,1924,1457,7.16806,1.51656
707,-433,8.68359,-2.82202,0,0,0,0,0,0,0,-1,1931,1457,8.68359,2.82197
714,-433,0,0,0,0,0,0,0,0,0,-1,1938,1457,0,0
721,-433,0,0,0,0,0,0,0,0,0,-1,1945,1457,0,0
728,-433,0,0,0,0,0,0,0,0,0,-1,1952,1457,0,0
735,-433,0,0,0,0,0,0,0,0,0,-1,1959,1457,0,0
742,-433,0,0,0,0,0,0,0,0,0,-1,1966,1457,0,0
749,-433,0,0,0,0,0,0,0,0,0,-1,1973,1457,0,0
756,-433,0,0,0,0,0,0,0,0,0,-1,1980,1457,0,0
763,-433,0,0,0,0,0,0,0,0,0,-1,1987,1457,0,0
770,-433,0,0,0,0,0,0,0,0,0,-1,1994,1457,0,0
777,-433,0,0,0,0,0,0,0,0,0,-1,2001,1457,0,0
784,-433,0,0,0,0,0,0,0,0,0,-1,2008,1457,0,0
791,-433,0,0,0,0,0,0,0,0,0,-1,2015,1457,0,0
798,-433,0,0,0,0,0,0,0,0,0,-1,2022,1457,0,0
805,-433,0,0,0,0,0,0,0,0,0,-1,2029,1457,0,0
812,-433,0,0,0,0,0,0,0,0,0,-1,2036,1457,0,0
-700,-440,0,0,0,0,0,0,0,0,0,-1,524,1464,0,0
-693,-440,0,0,0,0,0,0,0,0,0,-1,531,1464,0,0
-686,-440,0,0,0,0,0,0,0,0,0,-1,538,1464,0,0
-679,-440,0,0,0,0,0,0,0,0,0,-1,545,1464,0,0
-672,-440,0,0,0,0,0,0,0,0,0,-1,552,1464,0,0
-665,-440,0,0,0,0,0,0,0,0,0,-1,559,1464,0,0
-658,-440,0,0,0,0,0,0,0,0,0,-1,566,1464,0,0
-651,-440,0,0,0,0,0,0,0,0,0,-1,573,1464,0,0
-644,-440,0,0,0,0,0,0,0,0,0,-1,580,1464,0,0
-637,-440,0,0,0,0,0,0,0,0,0,-1,587,1464,0,0
-630,-440,0,0,0,0,0,0,0,0,0,-1,594,1464,0,0
-623,-440,0,0,0,0,0,0,0,0,0,-1,601,1464,0,0
-616,-440,0,0,0,0,0,0,0,0,0,-1,608,1464,0,0
-609,-440,0,0,0,0,0,0,0,0,0,-1,615,1464,0,0
-602,-440,0,0,0,0,0,0,0,0,0,-1,622,1464,0,0
-595,-440,0,0,0,0,0,0,0,0,0,-1,629,1464,0,0
-588,-440,0,0,0,0,0,0,0,0,0,-1,636,1464,0,0
-581,-440,-7.88788,1.26782,0,0,0,0,0,0,0,-1,643,1464,-7.88786,-1.26786
-574,-440,-6.65796,1.47742,0,0,0,0,0,0,0,-1,650,1464,-6.65796,-1.47745
-567,-440,-5.39685,1.56873,0.166798,0.00787099,0.101771,0.216453,-0.0417848,0.453935,0.160059,0.0467777,657,1464,-5.39683,-1.56874
-560,-440,-4.36139,1.56116,0,0,0,0,0,0,0,-1,664,1464,-4.3614,-1.56118
-553,-440,-3.61792,1.80591,0.107297,0.00531005,0.0674029,0.140823,-0.0282155,0.461558,0.104564,0.046606,671,1464,-3.61794,-1.80593
-546,-440,-3.08508,2.16833,0.0817499,0.00451829,0.0525091,0.108314,-0.0220455,0.468349,0.0805694,0.047288,678,1464,-3.0851,-2.1683
-539,-440,-2.92871,2.09106,0,0,0,0,0,0,0,-1,685,1464,-2.92874,-2.09112
-532,-440,-2.70837,3.31396,0.0412403,0.00325206,0.0287677,0.0567187,-0.0122264,0.493622,0.0424785,0.0361686,692,1464,-2.70838,-3.31398
-525,-440,-2.68127,3.61121,0.0279481,0.00280414,0.0205447,0.0394622,-0.00870996,0.510824,0.0296412,0.0173555,699,1464,-2.6813,-3.61121
-518,-440,-2.67914,3.77222,0.0186782,0.00219872,0.014289,0.026933,-0.00605606,0.523862,0.0202777,0.0129645,706,1464,-2.67914,-3.77218
-511,-440,-2.67047,4.00098,0.0103427,0.0014442,0.0085847,0.0155626,-0.00377573,0.546318,0.0118361,0.0148634,713,1464,-2.67047,-4.00095
-504,-440,-2.6886,4.22021,0.00557301,0.000541138,0.00498952,0.00864504,-0.00253089,0.55188,0.00676664,0.0173899,720,1464,-2.68861,-4.22016
-497,-440,-2.71307,4.4032,0.00379909,-0.000512355,0.00240773,0.00487514,-0.0015884,0.420282,0.00388922,0.0204791,727,1464,-2.71308,-4.40314
-490,-440,-2.7077,4.58081,0.00249633,-0.00237151,4.00821e-05,0.00249666,-0.00237184,0.00823331,0.00281114,0.0200417,734,1464,-2.70772,-4.58085
-483,-440,-2.69806,4.83447,0.00174604,-0.00501586,-0.00206381,0.00232617,-0.00559599,-0.274024,0.00470193,0.0169776,741,1464,-2.69809,-4.83444
-476,-440,-2.68018,5.05493,0.000866303,-0.00753947,-0.0042158,0.00261633,-0.0092895,-0.393466,0.00722478,0.0119595,748,1464,-2.68019,-5.05496
-469,-440,-2.68591,5.28027,6.7903e-05,-0.0104865,-0.00632166,0.00302552,-0.0134441,-0.437602,0.0101231,0.0124668,755,1464,-2.6859,-5.28031
-462,-440,-2.7038,5.49536,-0.000428704,-0.0141274,-0.00860631,0.00372114,-0.0182772,-0.449296,0.013596,0.0141079,762,1464,-2.70379,-5.49538
-455,-440,-2.63519,5.71973,-0.000971405,-0.0185144,-0.0111737,0.00446242,-0.0239482,-0.452631,0.0176421,0.0166364,769,1464,-2.63517,-5.71978
-448,-440,-2.48077,5.82166,-0.00156156,-0.0234661,-0.0141873,0.00540911,-0.0304368,-0.456689,0.0223139,0.0274524,776,1464,-2.48075,-5.82171
-441,-440,-2.65198,5.55676,-0.00244154,-0.0287287,-0.0174173,0.00623494,-0.0374052,-0.462169,0.0272539,0.0358834,783,1464,-2.652,-5.55682
-434,-440,-2.65826,5.35083,-0.00393293,-0.0343502,-0.0206616,0.00651397,-0.0447971,-0.468132,0.032256,0.0419671,790,1464,-2.65826,-5.35087
-427,-440,-2.80109,5.27246,0,0,0,0,0,0,0,-1,797,1464,-2.80109,-5.27242
-420,-440,-3.55438,5.30017,0,0,0,0,0,0,0,-1,804,1464,-3.55437,-5.30023
-413,-440,-4.41571,5.30579,0,0,0,0,0,0,0,-1,811,1464,-4.41569,-5.30576
-406,-440,-5.2887,5.20264,0,0,0,0,0,0,0,-1,818,1464,-5.2887,-5.20261
-399,-440,-9.74152,2.91626,0,0,0,0,0,0,0,-1,825,1464,-9.74152,-2.91623
-392,-440,0.510254,0.437744,0,0,0,0,0,0,0,-1,832,1464,0.510244,-0.43771
-385,-440,6.70496,1.25854,0,0,0,0,0,0,0,-1,839,1464,6.70498,-1.25858
-378,-440,7.93719,1.35864,0,0,0,0,0,0,0,-1,846,1464,7.93722,-1.35859
-371,-440,0,0,0,0,0,0,0,0,0,-1,853,1464,0,0
-364,-440,0,0,0,0,0,0,0,0,0,-1,860,1464,0,0
-357,-440,0,0,0,0,0,0,0,0,0,-1,867,1464,0,0
-350,-440,0,0,0,0,0,0,0,0,0,-1,874,1464,0,0
-343,-440,0,0,0,0,0,0,0,0,0,-1,881,1464,0,0
-336,-440,0,0,0,0,0,0,0,0,0,-1,888,1464,0,0
-329,-440,0,0,0,0,0,0,0,0,0,-1,895,1464,0,0
-322,-440,0,0,0,0,0,0,0,0,0,-1,902,1464,0,0
-315,-440,0,0,0,0,0,0,0,0,0,-1,909,1464,0,0
-308,-440,0,0,0,0,0,0,0,0,0,-1,916,1464,0,0
-301,-440,0,0,0,0,0,0,0,0,0,-1,923,1464,0,0
-294,-440,0,0,0,0,0,0,0,0,0,-1,930,1464,0,0
-287,-440,0,0,0,0,0,0,0,0,0,-1,937,1464,0,0
-280,-440,0,0,0,0,0,0,0,0,0,-1,944,1464,0,0
-273,-440,0,0,0,0,0,0,0,0,0,-1,951,1464,0,0
-266,-440,0,0,0,0,0,0,0,0,0,-1,958,1464,0,0
-259,-440,0,0,0,0,0,0,0,0,0,-1,965,1464,0,0
-252,-440,0,0,0,0,0,0,0,0,0,-1,972,1464,0,0
-245,-440,0,0,0,0,0,0,0,0,0,-1,979,1464,0,0
-238,-440,0,0,0,0,0,0,0,0,0,-1,986,1464,0,0
-231,-440,0,0,0,0,0,0,0,0,0,-1,993,1464,0,0
-224,-440,0,0,0,0,0,0,0,0,0,-1,1000,1464,0,0
-217,-440,0,0,0,0,0,0,0,0,0,-1,1007,1464,0,0
-210,-440,0,0,0,0,0,0,0,0,0,-1,1014,1464,0,0
-203,-440,0,0,0,0,0,0,0,0,0,-1,1021,1464,0,0
-196,-440,0,0,0,0,0,0,0,0,0,-1,1028,1464,0,0
-189,-440,0,0,0,0,0,0,0,0,0,-1,1035,1464,0,0
-182,-440,0,0,0,0,0,0,0,0,0,-1,1042,1464,0,0
-175,-440,0,0,0,0,0,0,0,0,0,-1,1049,1464,0,0
-168,-440,0,0,0,0,0,0,0,0,0,-1,1056,1464,0,0
-161,-440,0,0,0,0,0,0,0,0,0,-1,1063,1464,0,0
-154,-440,0,0,0,0,0,0,0,0,0,-1,1070,1464,0,0
-147,-440,0,0,0,0,0,0,0,0,0,-1,1077,1464,0,0
-140,-440,0,0,0,0,0,0,0,0,0,-1,1084,1464,0,0
-133,-440,0,0,0,0,0,0,0,0,0,-1,1091,1464,0,0
-126,-440,0,0,0,0,0,0,0,0,0,-1,1098,1464,0,0
-119,-440,0,0,0,0,0,0,0,0,0,-1,1105,1464,0,0
-112,-440,0,0,0,0,0,0,0,0,0,-1,1112,1464,0,0
-105,-440,0,0,0,0,0,0,0,0,0,-1,1119,1464,0,0
-98,-440,0,0,0,0,0,0,0,0,0,-1,1126,1464,0,0
-91,-440,0,0,0,0,0,0,0,0,0,-1,1133,1464,0,0
-84,-440,0,0,0,0,0,0,0,0,0,-1,1140,1464,0,0
-77,-440,0,0,0,0,0,0,0,0,0,-1,1147,1464,0,0
-70,-440,0,0,0,0,0,0,0,0,0,-1,1154,1464,0,0
-63,-440,0,0,0,0,0,0,0,0,0,-1,1161,1464,0,0
-56,-440,0,0,0,0,0,0,0,0,0,-1,1168,1464,0,0
-49,-440,0,0,0,0,0,0,0,0,0,-1,1175,1464,0,0
-42,-440,0,0,0,0,0,0,0,0,0,-1,1182,1464,0,0
-35,-440,0,0,0,0,0,0,0,0,0,-1,1189,1464,0,0
-28,-440,0,0,0,0,0,0,0,0,0,-1,1196,1464,0,0
-21,-440,0,0,0,0,0,0,0,0,0,-1,1203,1464,0,0
-14,-440,0,0,0,0,0,0,0,0,0,-1,1210,1464,0,0
-7,-440,0,0,0,0,0,0,0,0,0,-1,1217,1464,0,0
0,-440,0,0,0,0,0,0,0,0,0,-1,1224,1464,0,0
7,-440,0,0,0,0,0,0,0,0,0,-1,1231,1464,0,0
14,-440,0,0,0,0,0,0,0,0,0,-1,1238,1464,0,0
21,-440,0,0,0,0,0,0,0,0,0,-1,1245,1464,0,0
28,-440,0,0,0,0,0,0,0,0,0,-1,1252,1464,0,0
35,-440,0,0,0,0,0,0,0,0,0,-1,1259,1464,0,0
42,-440,0,0,0,0,0,0,0,0,0,-1,1266,1464,0,0
49,-440,0,0,0,0,0,0,0,0,0,-1,1273,1464,0,0
56,-440,0,0,0,0,0,0,0,0,0,-1,1280,1464,0,0
63,-440,0,0,0,0,0,0,0,0,0,-1,1287,1464,0,0
70,-440,0,0,0,0,0,0,0,0,0,-1,1294,1464,0,0
77,-440,0,0,0,0,0,0,0,0,0,-1,1301,1464,0,0
84,-440,0,0,0,0,0,0,0,0,0,-1,1308,1464,0,0
91,-440,0,0,0,0,0,0,0,0,0,-1,1315,1464,0,0
98,-440,0,0,0,0,0,0,0,0,0,-1,1322,1464,0,0
105,-440,0,0,0,0,0,0,0,0,0,-1,1329,1464,0,0
112,-440,0,0,0,0,0,0,0,0,0,-1,1336,1464,0,0
119,-440,0,0,0,0,0,0,0,0,0,-1,1343,1464,0,0
126,-440,0,0,0,0,0,0,0,0,0,-1,1350,1464,0,0
133,-440,0,0,0,0,0,0,0,0,0,-1,1357,1464,0,0
140,-440,0,0,0,0,0,0,0,0,0,-1,1364,1464,0,0
147,-440,0,0,0,0,0,0,0,0,0,-1,1371,1464,0,0
154,-440,0,0,0,0,0,0,0,0,0,-1,1378,1464,0,0
161,-440,0,0,0,0,0,0,0,0,0,-1,1385,1464,0,0
168,-440,0,0,0,0,0,0,0,0,0,-1,1392,1464,0,0
175,-440,0,0,0,0,0,0,0,0,0,-1,1399,1464,0,0
182,-440,0,0,0,0,0,0,0,0,0,-1,1406,1464,0,0
189,-440,0,0,0,0,0,0,0,0,0,-1,1413,1464,0,0
196,-440,0,0,0,0,0,0,0,0,0,-1,1420,1464,0,0
203,-440,0,0,0,0,0,0,0,0,0,-1,1427,1464,0,0
210,-440,0,0,0,0,0,0,0,0,0,-1,1434,1464,0,0
217,-440,0,0,0,0,0,0,0,0,0,-1,1441,1464,0,0
224,-440,0,0,0,0,0,0,0,0,0,-1,1448,1464,0,0
231,-440,0,0,0,0,0,0,0,0,0,-1,1455,1464,0,0
238,-440,0,0,0,0,0,0,0,0,0,-1,1462,1464,0,0
245,-440,0,0,0,0,0,0,0,0,0,-1,1469,1464,0,0
252,-440,0,0,0,0,0,0,0,0,0,-1,1476,1464,0,0
259,-440,0,0,0,0,0,0,0,0,0,-1,1483,1464,0,0
266,-440,0,0,0,0,0,0,0,0,0,-1,1490,1464,0,0
273,-440,0,0,0,0,0,0,0,0,0,-1,1497,1464,0,0
280,-440,0,0,0,0,0,0,0,0,0,-1,1504,1464,0,0
287,-440,0,0,0,0,0,0,0,0,0,-1,1511,1464,0,0
294,-440,0,0,0,0,0,0,0,0,0,-1,1518,1464,0,0
301,-440,0,0,0,0,0,0,0,0,0,-1,1525,1464,0,0
308,-440,0,0,0,0,0,0,0,0,0,-1,1532,1464,0,0
315,-440,0,0,0,0,0,0,0,0,0,-1,1539,1464,0,0
322,-440,0,0,0,0,0,0,0,0,0,-1,1546,1464,0,0
329,-440,0,0,0,0,0,0,0,0,0,-1,1553,1464,0,0
336,-440,0,0,0,0,0,0,0,0,0,-1,1560,1464,0,0
343,-440,0,0,0,0,0,0,0,0,0,-1,1567,1464,0,0
350,-440,0,0,0,0,0,0,0,0,0,-1,1574,1464,0,0
357,-440,0,0,0,0,0,0,0,0,0,-1,1581,1464,0,0
364,-440,0,0,0,0,0,0,0,0,0,-1,1588,1464,0,0
371,-440,0,0,0,0,0,0,0,0,0,-1,1595,1464,0,0
378,-440,0,0,0,0,0,0,0,0,0,-1,1602,1464,0,0
385,-440,0,0,0,0,0,0,0,0,0,-1,1609,1464,0,0
392,-440,0,0,0,0,0,0,0,0,0,-1,1616,1464,0,0
399,-440,0,0,0,0,0,0,0,0,0,-1,1623,1464,0,0
406,-440,0,0,0,0,0,0,0,0,0,-1,1630,1464,0,0
413,-440,0,0,0,0,0,0,0,0,0,-1,1637,1464,0,0
420,-440,0,0,0,0,0,0,0,0,0,-1,1644,1464,0,0
427,-440,0,0,0,0,0,0,0,0,0,-1,1651,1464,0,0
434,-440,0,0,0,0,0,0,0,0,0,-1,1658,1464,0,0
441,-440,0,0,0,0,0,0,0,0,0,-1,1665,1464,0,0
448,-440,0,0,0,0,0,0,0,0,0,-1,1672,1464,0,0
455,-440,0,0,0,0,0,0,0,0,0,-1,1679,1464,0,0
462,-440,0,0,0,0,0,0,0,0,0,-1,1686,1464,0,0
469,-440,0,0,0,0,0,0,0,0,0,-1,1693,1464,0,0
476,-440,0,0,0,0,0,0,0,0,0,-1,1700,1464,0,0
483,-440,0,0,0,0,0,0,0,0,0,-1,1707,1464,0,0
490,-440,0,0,0,0,0,0,0,0,0,-1,1714,1464,0,0
497,-440,12.1191,2.20862,0,0,0,0,0,0,0,-1,1721,1464,12.1192,-2.20862
504,-440,11.019,1.94946,0,0,0,0,0,0,0,-1,1728,1464,11.019,-1.94941
511,-440,9.98865,1.87866,0,0,0,0,0,0,0,-1,1735,1464,9.98861,-1.87864
518,-440,10.1204,0.547607,0,0,0,0,0,0,0,-1,1742,1464,10.1204,-0.547577
525,-440,10.0325,0.758545,0,0,0,0,0,0,0,-1,1749,1464,10.0324,-0.758504
532,-440,13.9508,3.87207,0,0,0,0,0,0,0,-1,1756,1464,13.9508,-3.87211
539,-440,9.24414,5.26172,0,0,0,0,0,0,0,-1,1763,1464,9.24413,-5.26169
546,-440,11.8075,7.87939,0,0,0,0,0,0,0,-1,1770,1464,11.8075,-7.8794
553,-440,10.8983,7.16235,0,0,0,0,0,0,0,-1,1777,1464,10.8983,-7.16233
560,-440,10.7816,7.11267,0,0,0,0,0,0,0,-1,1784,1464,10.7816,-7.11263
567,-440,10.5111,6.51538,0,0,0,0,0,0,0,-1,1791,1464,10.5111,-6.51535
574,-440,10.4478,6.74072,-0.0176029,-0.0237593,0.0207155,0.000261849,-0.0416241,0.711641,0.0278371,0.0484764,1798,1464,10.4478,-6.74076
581,-440,10.3975,7.31104,-0.0144655,-0.0191933,0.016761,9.74741e-05,-0.0337563,0.715343,0.0225368,0.0352748,1805,1464,10.3975,-7.31103
588,-440,10.2671,7.29089,-0.0116907,-0.0150611,0.0133277,5.79143e-05,-0.0268097,0.722512,0.0178925,0.0242644,1812,1464,10.2671,-7.29085
595,-440,10.2482,7.09485,-0.00943306,-0.0118005,0.0105854,3.46247e-05,-0.0212682,0.729716,0.0141904,0.018158,1819,1464,10.2482,-7.09486
602,-440,10.2611,6.86658,-0.00742832,-0.00912069,0.00825938,2.81082e-05,-0.0165771,0.734351,0.0110608,0.0179334,1826,1464,10.2611,-6.86656
609,-440,10.2389,6.68115,-0.00556147,-0.00687631,0.0062867,0.000102099,-0.0125399,0.733301,0.00839415,0.0151135,1833,1464,10.2389,-6.68114
616,-440,10.2379,6.54956,-0.00381049,-0.0054261,0.00470207,0.000152657,-0.00938925,0.70033,0.006311,0.0150403,1840,1464,10.2379,-6.54962
623,-440,10.2535,6.34033,-0.00211489,-0.00430468,0.00333965,0.000304767,-0.00672434,0.626996,0.00458786,0.0122938,1847,1464,10.2536,-6.34029
630,-440,10.2518,6.13708,-0.000622765,-0.00341266,0.00213831,0.000535371,-0.0045708,0.496382,0.00324043,0.011459,1854,1464,10.2519,-6.13712
637,-440,10.2579,5.98682,0.000896909,-0.00319444,0.00121397,0.00122999,-0.00352753,0.267787,0.00285152,0.0161851,1861,1464,10.258,-5.98686
644,-440,10.2755,5.80969,0.00234811,-0.00338247,0.000546277,0.00239972,-0.00343408,0.0941963,0.00338575,0.0142575,1868,1464,10.2756,-5.80975
651,-440,10.2964,5.61108,0.00369482,-0.00394495,4.99364e-05,0.00369514,-0.00394527,0.00653601,0.00441198,0.0112907,1875,1464,10.2964,-5.61103
658,-440,10.2688,5.41577,0.00484134,-0.00485822,-0.000287462,0.00484985,-0.00486673,-0.029602,0.00560988,0.0151012,1882,1464,10.2688,-5.41582
665,-440,10.3008,5.15247,0.00593683,-0.00637275,-0.000443089,0.00595276,-0.00638868,-0.0359334,0.00712682,0.0282813,1889,1464,10.3007,-5.15244
672,-440,10.4897,5.14307,0.00702254,-0.00802189,-0.000555123,0.00704299,-0.00804234,-0.0368321,0.00871589,0.043518,1896,1464,10.4897,-5.14312
679,-440,10.6089,4.82935,0.00799203,-0.0096536,-0.000870321,0.00803485,-0.00969643,-0.0491632,0.0102521,0.0461395,1903,1464,10.6089,-4.82934
686,-440,10.6296,4.47571,0,0,0,0,0,0,0,-1,1910,1464,10.6296,-4.47573
693,-440,9.88635,2.89795,0,0,0,0,0,0,0,-1,1917,1464,9.88638,-2.89798
700,-440,7.07825,-2.62061,0,0,0,0,0,0,0,-1,1924,1464,7.07829,2.62057
707,-440,0,0,0,0,0,0,0,0,0,-1,1931,1464,0,0
714,-440,0,0,0,0,0,0,0,0,0,-1,1938,1464,0,0
721,-440,0,0,0,0,0,0,0,0,0,-1,1945,1464,0,0
728,-440,0,0,0,0,0,0,0,0,0,-1,1952,1464,0,0
735,-440,0,0,0,0,0,0,0,0,0,-1,1959,1464,0,0
742,-440,0,0,0,0,0,0,0,0,0,-1,1966,1464,0,0
749,-440,0,0,0,0,0,0,0,0,0,-1,1973,1464,0,0
756,-440,0,0,0,0,0,0,0,0,0,-1,1980,1464,0,0
763,-440,0,0,0,0,0,0,0,0,0,-1,1987,1464,0,0
770,-440,0,0,0,0,0,0,0,0,0,-1,1994,1464,0,0
777,-440,0,0,0,0,0,0,0,0,0,-1,2001,1464,0,0
784,-440,0,0,0,0,0,0,0,0,0,-1,2008,1464,0,0
791,-440,0,0,0,0,0,0,0,0,0,-1,2015,1464,0,0
798,-440,0,0,0,0,0,0,0,0,0,-1,2022,1464,0,0
805,-440,0,0,0,0,0,0,0,0,0,-1,2029,1464,0,0
812,-440,0,0,0,0,0,0,0,0,0,-1,2036,1464,0,0
-700,-447,0,0,0,0,0,0,0,0,0,-1,524,1471,0,0
-693,-447,0,0,0,0,0,0,0,0,0,-1,531,1471,0,0
-686,-447,0,0,0,0,0,0,0,0,0,-1,538,1471,0,0
-679,-447,0,0,0,0,0,0,0,0,0,-1,545,1471,0,0
-672,-447,0,0,0,0,0,0,0,0,0,-1,552,1471,0,0
-665,-447,0,0,0,0,0,0,0,0,0,-1,559,1471,0,0
-658,-447,0,0,0,0,0,0,0,0,0,-1,566,1471,0,0
-651,-447,0,0,0,0,0,0,0,0,0,-1,573,1471,0,0
-644,-447,0,0,0,0,0,0,0,0,0,-1,580,1471,0,0
-637,-447,0,0,0,0,0,0,0,0,0,-1,587,1471,0,0
-630,-447,0,0,0,0,0,0,0,0,0,-1,594,1471,0,0
-623,-447,0,0,0,0,0,0,0,0,0,-1,601,1471,0,0
-616,-447,0,0,0,0,0,0,0,0,0,-1,608,1471,0,0
-609,-447,0,0,0,0,0,0,0,0,0,-1,615,1471,0,0
-602,-447,0,0,0,0,0,0,0,0,0,-1,622,1471,0,0
-595,-447,0,0,0,0,0,0,0,0,0,-1,629,1471,0,0
-588,-447,0,0,0,0,0,0,0,0,0,-1,636,1471,0,0
-581,-447,-7.09741,0.302368,0,0,0,0,0,0,0,-1,643,1471,-7.09741,-0.302372
-574,-447,-8.13641,1.28674,0,0,0,0,0,0,0,-1,650,1471,-8.1364,-1.28669
-567,-447,-6.96368,1.56433,0,0,0,0,0,0,0,-1,657,1471,-6.96368,-1.56432
-560,-447,-4.88947,1.41223,0,0,0,0,0,0,0,-1,664,1471,-4.88944,-1.41223
-553,-447,-4.24817,1.9707,0.136919,0.00420528,0.0809654,0.175245,-0.0341214,0.442118,0.129709,0.0481486,671,1471,-4.24815,-1.97072
-546,-447,-3.70074,2.40784,0.101561,0.00352179,0.0633743,0.132661,-0.0275786,0.456214,0.0989237,0.0461705,678,1471,-3.70076,-2.40788
-539,-447,-3.37488,2.77087,0,0,0,0,0,0,0,-1,685,1471,-3.37488,-2.77089
-532,-447,-2.70789,3.16699,0.0485092,0.00250273,0.0353898,0.0677148,-0.0167029,0.497212,0.0516196,0.044663,692,1471,-2.70789,-3.16702
-525,-447,-2.4176,3.64563,0.031766,0.00212246,0.0255437,0.0464767,-0.0125882,0.522512,0.0359234,0.0282011,699,1471,-2.4176,-3.64562
-518,-447,-2.46289,3.76807,0.0203619,0.00168108,0.0180696,0.0313624,-0.00931945,0.546855,0.0246101,0.0194148,706,1471,-2.46289,-3.76802
-511,-447,-2.4696,3.97095,0.0103763,0.0010916,0.011324,0.0179726,-0.00650472,0.590868,0.0146399,0.015204,713,1471,-2.46961,-3.97093
-504,-447,-2.49243,4.20825,0.00493728,0.000404294,0.00709717,0.0101211,-0.00477951,0.630841,0.00878518,0.0187838,720,1471,-2.49243,-4.20825
-497,-447,-2.5163,4.4281,0.00328316,-0.000327529,0.00418796,0.00603833,-0.0030827,0.581894,0.00535739,0.0234821,727,1471,-2.51632,-4.42806
-490,-447,-2.48987,4.62708,0.00217388,-0.00176341,0.00163633,0.00276514,-0.00235467,0.346738,0.00295909,0.0225101,734,1471,-2.48988,-4.62706
-483,-447,-2.48767,4.83875,0.00166508,-0.00397058,-0.000514112,0.0017116,-0.0040171,-0.0902323,0.00339557,0.0191949,741,1471,-2.48765,-4.83875
-476,-447,-2.48456,5.04773,0.00103567,-0.00600378,-0.00261911,0.00190322,-0.00687133,-0.319865,0.00532979,0.0132779,748,1471,-2.48457,-5.04773
-469,-447,-2.4931,5.27979,0.000461002,-0.0083185,-0.00452615,0.00237648,-0.010234,-0.400348,0.00773744,0.012425,755,1471,-2.49308,-5.27977
-462,-447,-2.50006,5.49805,0.000272259,-0.0112067,-0.00646262,0.0031761,-0.0141106,-0.422296,0.0106252,0.0124619,762,1471,-2.50006,-5.49799
-455,-447,-2.49695,5.70789,3.69083e-05,-0.0146719,-0.00846816,0.00389843,-0.0185334,-0.427836,0.0138394,0.0132765,769,1471,-2.49696,-5.7079
-448,-447,-2.44318,5.91101,-0.000141637,-0.0185214,-0.0107236,0.00479115,-0.0234542,-0.431133,0.0174538,0.0178791,776,1471,-2.44319,-5.91097
-441,-447,-2.36188,6.04028,-0.000585878,-0.0225856,-0.0129994,0.00544306,-0.0286146,-0.43426,0.0211258,0.0258926,783,1471,-2.36185,-6.04032
-434,-447,-2.28748,6.19165,-0.0017029,-0.026759,-0.015152,0.00542956,-0.0338915,-0.439956,0.0246047,0.0369695,790,1471,-2.28748,-6.19162
-427,-447,-2.20392,6.36511,0,0,0,0,0,0,0,-1,797,1471,-2.20391,-6.36517
-420,-447,-2.7179,5.80396,0,0,0,0,0,0,0,-1,804,1471,-2.71788,-5.80398
-413,-447,-2.53137,5.29395,0,0,0,0,0,0,0,-1,811,1471,-2.53136,-5.29396
-406,-447,-4.48694,5.62988,0,0,0,0,0,0,0,-1,818,1471,-4.48696,-5.62994
-399,-447,0.0134888,0.687622,0,0,0,0,0,0,0,-1,825,1471,0.0134841,-0.68767
-392,-447,0.271057,0.278809,0,0,0,0,0,0,0,-1,832,1471,0.27108,-0.278763
-385,-447,0.327515,-0.0834961,0,0,0,0,0,0,0,-1,839,1471,0.327498,0.0834516
-378,-447,6.5293,1.50708,0,0,0,0,0,0,0,-1,846,1471,6.52927,-1.50709
-371,-447,7.32819,1.62622,0,0,0,0,0,0,0,-1,853,1471,7.3282,-1.62617
-364,-447,0,0,0,0,0,0,0,0,0,-1,860,1471,0,0
-357,-447,0,0,0,0,0,0,0,0,0,-1,867,1471,0,0
-350,-447,0,0,0,0,0,0,0,0,0,-1,874,1471,0,0
-343,-447,0,0,0,0,0,0,0,0,0,-1,881,1471,0,0
-336,-447,0,0,0,0,0,0,0,0,0,-1,888,1471,0,0
-329,-447,0,0,0,0,0,0,0,0,0,-1,895,1471,0,0
-322,-447,0,0,0,0,0,0,0,0,0,-1,902,1471,0,0
-315,-447,0,0,0,0,0,0,0,0,0,-1,909,1471,0,0
-308,-447,0,0,0,0,0,0,0,0,0,-1,916,1471,0,0
-301,-447,0,0,0,0,0,0,0,0,0,-1,923,1471,0,0
-294,-447,0,0,0,0,0,0,0,0,0,-1,930,1471,0,0
-287,-447,0,0,0,0,0,0,0,0,0,-1,937,1471,0,0
-280,-447,0,0,0,0,0,0,0,0,0,-1,944,1471,0,0
-273,-447,0,0,0,0,0,0,0,0,0,-1,951,1471,0,0
-266,-447,0,0,0,0,0,0,0,0,0,-1,958,1471,0,0
-259,-447,0,0,0,0,0,0,0,0,0,-1,965,1471,0,0
-252,-447,0,0,0,0,0,0,0,0,0,-1,972,1471,0,0
-245,-447,0,0,0,0,0,0,0,0,0,-1,979,1471,0,0
-238,-447,0,0,0,0,0,0,0,0,0,-1,986,1471,0,0
-231,-447,0,0,0,0,0,0,0,0,0,-1,993,1471,0,0
-224,-447,0,0,0,0,0,0,0,0,0,-1,1000,1471,0,0
-217,-447,0,0,0,0,0,0,0,0,0,-1,1007,1471,0,0
-210,-447,0,0,0,0,0,0,0,0,0,-1,1014,1471,0,0
-203,-447,0,0,0,0,0,0,0,0,0,-1,1021,1471,0,0
-196,-447,0,0,0,0,0,0,0,0,0,-1,1028,1471,0,0
-189,-447,0,0,0,0,0,0,0,0,0,-1,1035,1471,0,0
-182,-447,0,0,0,0,0,0,0,0,0,-1,1042,1471,0,0
-175,-447,0,0,0,0,0,0,0,0,0,-1,1049,1471,0,0
-168,-447,0,0,0,0,0,0,0,0,0,-1,1056,1471,0,0
-161,-447,0,0,0,0,0,0,0,0,0,-1,1063,1471,0,0
-154,-447,0,0,0,0,0,0,0,0,0,-1,1070,1471,0,0
-147,-447,0,0,0,0,0,0,0,0,0,-1,1077,1471,0,0
-140,-447,0,0,0,0,0,0,0,0,0,-1,1084,1471,0,0
-133,-447,0,0,0,0,0,0,0,0,0,-1,1091,1471,0,0
-126,-447,0,0,0,0,0,0,0,0,0,-1,1098,1471,0,0
-119,-447,0,0,0,0,0,0,0,0,0,-1,1105,1471,0,0
-112,-447,0,0,0,0,0,0,0,0,0,-1,1112,1471,0,0
-105,-447,0,0,0,0,0,0,0,0,0,-1,1119,1471,0,0
-98,-447,0,0,0,0,0,0,0,0,0,-1,1126,1471,0,0
-91,-447,0,0,0,0,0,0,0,0,0,-1,1133,1471,0,0
-84,-447,0,0,0,0,0,0,0,0,0,-1,1140,1471,0,0
-77,-447,0,0,0,0,0,0,0,0,0,-1,1147,1471,0,0
-70,-447,0,0,0,0,0,0,0,0,0,-1,1154,1471,0,0
-63,-447,0,0,0,0,0,0,0,0,0,-1,1161,1471,0,0
-56,-447,0,0,0,0,0,0,0,0,0,-1,1168,1471,0,0
-49,-447,0,0,0,0,0,0,0,0,0,-1,1175,1471,0,0
-42,-447,0,0,0,0,0,0,0,0,0,-1,1182,1471,0,0
-35,-447,0,0,0,0,0,0,0,0,0,-1,1189,1471,0,0
-28,-447,0,0,0,0,0,0,0,0,0,-1,1196,1471,0,0
-21,-447,0,0,0,0,0,0,0,0,0,-1,1203,1471,0,0
-14,-447,0,0,0,0,0,0,0,0,0,-1,1210,1471,0,0
-7,-447,0,0,0,0,0,0,0,0,0,-1,1217,1471,0,0
0,-447,0,0,0,0,0,0,0,0,0,-1,1224,1471,0,0
7,-447,0,0,0,0,0,0,0,0,0,-1,1231,1471,0,0
14,-447,0,0,0,0,0,0,0,0,0,-1,1238,1471,0,0
21,-447,0,0,0,0,0,0,0,0,0,-1,1245,1471,0,0
28,-447,0,0,0,0,0,0,0,0,0,-1,1252,1471,0,0
35,-447,0,0,0,0,0,0,0,0,0,-1,1259,1471,0,0
42,-447,0,0,0,0,0,0,0,0,0,-1,1266,1471,0,0
49,-447,0,0,0,0,0,0,0,0,0,-1,1273,1471,0,0
56,-447,0,0,0,0,0,0,0,0,0,-1,1280,1471,0,0
63,-447,0,0,0,0,0,0,0,0,0,-1,1287,1471,0,0
70,-447,0,0,0,0,0,0,0,0,0,-1,1294,1471,0,0
77,-447,0,0,0,0,0,0,0,0,0,-1,1301,1471,0,0
84,-447,0,0,0,0,0,0,0,0,0,-1,1308,1471,0,0
91,-447,0,0,0,0,0,0,0,0,0,-1,1315,1471,0,0
98,-447,0,0,0,0,0,0,0,0,0,-1,1322,1471,0,0
105,-447,0,0,0,0,0,0,0,0,0,-1,1329,1471,0,0
112,-447,0,0,0,0,0,0,0,0,0,-1,1336,1471,0,0
119,-447,0,0,0,0,0,0,0,0,0,-1,1343,1471,0,0
126,-447,0,0,0,0,0,0,0,0,0,-1,1350,1471,0,0
133,-447,0,0,0,0,0,0,0,0,0,-1,1357,1471,0,0
140,-447,0,0,0,0,0,0,0,0,0,-1,1364,1471,0,0
147,-447,0,0,0,0,0,0,0,0,0,-1,1371,1471,0,0
154,-447,0,0,0,0,0,0,0,0,0,-1,1378,1471,0,0
161,-447,0,0,0,0,0,0,0,0,0,-1,1385,1471,0,0
168,-447,0,0,0,0,0,0,0,0,0,-1,1392,1471,0,0
175,-447,0,0,0,0,0,0,0,0,0,-1,1399,1471,0,0
182,-447,0,0,0,0,0,0,0,0,0,-1,1406,1471,0,0
189,-447,0,0,0,0,0,0,0,0,0,-1,1413,1471,0,0
196,-447,0,0,0,0,0,0,0,0,0,-1,1420,1471,0,0
203,-447,0,0,0,0,0,0,0,0,0,-1,1427,1471,0,0
210,-447,0,0,0,0,0,0,0,0,0,-1,1434,1471,0,0
217,-447,0,0,0,0,0,0,0,0,0,-1,1441,1471,0,0
224,-447,0,0,0,0,0,0,0,0,0,-1,1448,1471,0,0
231,-447,0,0,0,0,0,0,0,0,0,-1,1455,1471,0,0
238,-447,0,0,0,0,0,0,0,0,0,-1,1462,1471,0,0
245,-447,0,0,0,0,0,0,0,0,0,-1,1469,1471,0,0
252,-447,0,0,0,0,0,0,0,0,0,-1,1476,1471,0,0
259,-447,0,0,0,0,0,0,0,0,0,-1,1483,1471,0,0
266,-447,0,0,0,0,0,0,0,0,0,-1,1490,1471,0,0
273,-447,0,0,0,0,0,0,0,0,0,-1,1497,1471,0,0
280,-447,0,0,0,0,0,0,0,0,0,-1,1504,1471,0,0
287,-447,0,0,0,0,0,0,0,0,0,-1,1511,1471,0,0
294,-447,0,0,0,0,0,0,0,0,0,-1,1518,1471,0,0
301,-447,0,0,0,0,0,0,0,0,0,-1,1525,1471,0,0
308,-447,0,0,0,0,0,0,0,0,0,-1,1532,1471,0,0
315,-447,0,0,0,0,0,0,0,0,0,-1,1539,1471,0,0
322,-447,0,0,0,0,0,0,0,0,0,-1,1546,1471,0,0
329,-447,0,0,0,0,0,0,0,0,0,-1,1553,1471,0,0
336,-447,0,0,0,0,0,0,0,0,0,-1,1560,1471,0,0
343,-447,0,0,0,0,0,0,0,0,0,-1,1567,1471,0,0
350,-447,0,0,0,0,0,0,0,0,0,-1,1574,1471,0,0
357,-447,0,0,0,0,0,0,0,0,0,-1,1581,1471,0,0
364,-447,0,0,0,0,0,0,0,0,0,-1,1588,1471,0,0
371,-447,0,0,0,0,0,0,0,0,0,-1,1595,1471,0,0
378,-447,0,0,0,0,0,0,0,0,0,-1,1602,1471,0,0
385,-447,0,0,0,0,0,0,0,0,0,-1,1609,1471,0,0
392,-447,0,0,0,0,0,0,0,0,0,-1,1616,1471,0,0
399,-447,0,0,0,0,0,0,0,0,0,-1,1623,1471,0,0
406,-447,0,0,0,0,0,0,0,0,0,-1,1630,1471,0,0
413,-447,0,0,0,0,0,0,0,0,0,-1,1637,1471,0,0
420,-447,0,0,0,0,0,0,0,0,0,-1,1644,1471,0,0
427,-447,0,0,0,0,0,0,0,0,0,-1,1651,1471,0,0
434,-447,0,0,0,0,0,0,0,0,0,-1,1658,1471,0,0
441,-447,0,0,0,0,0,0,0,0,0,-1,1665,1471,0,0
448,-447,0,0,0,0,0,0,0,0,0,-1,1672,1471,0,0
455,-447,0,0,0,0,0,0,0,0,0,-1,1679,1471,0,0
462,-447,0,0,0,0,0,0,0,0,0,-1,1686,1471,0,0
469,-447,0,0,0,0,0,0,0,0,0,-1,1693,1471,0,0
476,-447,0,0,0,0,0,0,0,0,0,-1,1700,1471,0,0
483,-447,0,0,0,0,0,0,0,0,0,-1,1707,1471,0,0
490,-447,12.9698,2.78125,0,0,0,0,0,0,0,-1,1714,1471,12.9698,-2.78125
497,-447,11.929,2.60156,0,0,0,0,0,0,0,-1,1721,1471,11.9289,-2.60159
504,-447,10.7043,2.46021,0,0,0,0,0,0,0,-1,1728,1471,10.7044,-2.46025
511,-447,9.8457,2.16089,0,0,0,0,0,0,0,-1,1735,1471,9.84576,-2.16092
518,-447,8.8656,2.03796,0,0,0,0,0,0,0,-1,1742,1471,8.86562,-2.03797
525,-447,10.0773,0.879639,0,0,0,0,0,0,0,-1,1749,1471,10.0772,-0.879601
532,-447,9.80176,6.0155,0,0,0,0,0,0,0,-1,1756,1471,9.80182,-6.01547
539,-447,11.0714,7.58997,0,0,0,0,0,0,0,-1,1763,1471,11.0714,-7.58999
546,-447,11.0022,7.49072,0,0,0,0,0,0,0,-1,1770,1471,11.0022,-7.49076
553,-447,10.7417,7.51331,0,0,0,0,0,0,0,-1,1777,1471,10.7417,-7.51328
560,-447,10.6411,7.33984,0,0,0,0,0,0,0,-1,1784,1471,10.6411,-7.33978
567,-447,10.4003,7.32092,-0.0161866,-0.0217274,0.01941,0.000649694,-0.0385637,0.714513,0.0259284,0.0426476,1791,1471,10.4003,-7.32096
574,-447,10.163,7.45007,-0.0133999,-0.017735,0.0156837,0.000265403,-0.0314002,0.716731,0.0210225,0.0280688,1798,1471,10.163,-7.4501
581,-447,10.0822,7.45911,-0.0108609,-0.0141988,0.0124112,-6.95977e-06,-0.0250527,0.718564,0.0166995,0.0135741,1805,1471,10.0821,-7.45907
588,-447,10.09,7.27588,-0.00869318,-0.0110445,0.00975921,-3.90708e-05,-0.0196986,0.725453,0.0131194,0.0133136,1812,1471,10.09,-7.27589
595,-447,10.0642,7.06836,-0.00695889,-0.00863272,0.00768281,-6.75437e-05,-0.0155241,0.731146,0.0103269,0.0120979,1819,1471,10.0642,-7.06841
602,-447,10.0599,6.83679,-0.00544664,-0.00674094,0.00595519,-0.000103541,-0.012084,0.731276,0.00802174,0.0105148,1826,1471,10.0599,-6.83684
609,-447,10.0542,6.65173,-0.00399533,-0.00520283,0.00453365,-2.54088e-05,-0.00917275,0.719202,0.00610671,0.011751,1833,1471,10.0542,-6.65176
616,-447,10.0623,6.4989,-0.002587,-0.00443906,0.00346008,6.88289e-05,-0.00709489,0.654646,0.00475303,0.0131235,1840,1471,10.0622,-6.49885
623,-447,10.0626,6.31873,-0.00118691,-0.00395604,0.00254196,0.000323104,-0.00546606,0.536023,0.00375637,0.0147372,1847,1471,10.0626,-6.31872
630,-447,10.0768,6.14124,9.5525e-05,-0.00366093,0.00173536,0.000774487,-0.0043399,0.372941,0.00318299,0.00949962,1854,1471,10.0767,-6.14119
637,-447,10.0981,5.97339,0.00148208,-0.00401649,0.00117584,0.00172298,-0.00425739,0.202073,0.00355461,0.0102662,1861,1471,10.0981,-5.97338
644,-447,10.1154,5.80383,0.00290392,-0.00475789,0.000803817,0.00298734,-0.00484131,0.103412,0.00456193,0.0103614,1868,1471,10.1154,-5.80386
651,-447,10.1448,5.59534,0.0043016,-0.00589751,0.000572369,0.00433362,-0.00592953,0.0558856,0.00594926,0.0165382,1875,1471,10.1447,-5.59539
658,-447,10.0878,5.48633,0.00568696,-0.00737076,0.00039079,0.00569865,-0.00738245,0.0298922,0.0075732,0.0251205,1882,1471,10.0878,-5.48629
665,-447,10.2321,5.43274,0.0072484,-0.00931918,0.000150329,0.00724977,-0.00932054,0.00907271,0.00959174,0.0424792,1889,1471,10.2321,-5.4327
672,-447,10.4115,5.22388,0.00902988,-0.0113479,-0.000237874,0.00903265,-0.0113507,-0.0116711,0.0117937,0.0493499,1896,1471,10.4116,-5.22386
679,-447,10.557,5.04224,0,0,0,0,0,0,0,-1,1903,1471,10.557,-5.04229
686,-447,9.81079,4.30859,0,0,0,0,0,0,0,-1,1910,1471,9.8108,-4.30864
693,-447,10.48,2.08643,0,0,0,0,0,0,0,-1,1917,1471,10.48,-2.08642
700,-447,0,0,0,0,0,0,0,0,0,-1,1924,1471,0,0
707,-447,0,0,0,0,0,0,0,0,0,-1,1931,1471,0,0
714,-447,0,0,0,0,0,0,0,0,0,-1,1938,1471,0,0
721,-447,0,0,0,0,0,0,0,0,0,-1,1945,1471,0,0
728,-447,0,0,0,0,0,0,0,0,0,-1,1952,1471,0,0
735,-447,0,0,0,0,0,0,0,0,0,-1,1959,1471,0,0
742,-447,0,0,0,0,0,0,0,0,0,-1,1966,1471,0,0
749,-447,0,0,0,0,0,0,0,0,0,-1,1973,1471,0,0
756,-447,0,0,0,0,0,0,0,0,0,-1,1980,1471,0,0
763,-447,0,0,0,0,0,0,0,0,0,-1,1987,1471,0,0
770,-447,0,0,0,0,0,0,0,0,0,-1,1994,1471,0,0
777,-447,0,0,0,0,0,0,0,0,0,-1,2001,1471,0,0
784,-447,0,0,0,0,0,0,0,0,0,-1,2008,1471,0,0
791,-447,0,0,0,0,0,0,0,0,0,-1,2015,1471,0,0
798,-447,0,0,0,0,0,0,0,0,0,-1,2022,1471,0,0
805,-447,0,0,0,0,0,0,0,0,0,-1,2029,1471,0,0
812,-447,0,0,0,0,0,0,0,0,0,-1,2036,1471,0,0
-700,-454,0,0,0,0,0,0,0,0,0,-1,524,1478,0,0
-693,-454,0,0,0,0,0,0,0,0,0,-1,531,1478,0,0
-686,-454,0,0,0,0,0,0,0,0,0,-1,538,1478,0,0
-679,-454,0,0,0,0,0,0,0,0,0,-1,545,1478,0,0
-672,-454,0,0,0,0,0,0,0,0,0,-1,552,1478,0,0
-665,-454,0,0,0,0,0,0,0,0,0,-1,559,1478,0,0
-658,-454,0,0,0,0,0,0,0,0,0,-1,566,1478,0,0
-651,-454,0,0,0,0,0,0,0,0,0,-1,573,1478,0,0
-644,-454,0,0,0,0,0,0,0,0,0,-1,580,1478,0,0
-637,-454,0,0,0,0,0,0,0,0,0,-1,587,1478,0,0
-630,-454,0,0,0,0,0,0,0,0,0,-1,594,1478,0,0
-623,-454,0,0,0,0,0,0,0,0,0,-1,601,1478,0,0
-616,-454,0,0,0,0,0,0,0,0,0,-1,608,1478,0,0
-609,-454,0,0,0,0,0,0,0,0,0,-1,615,1478,0,0
-602,-454,0,0,0,0,0,0,0,0,0,-1,622,1478,0,0
-595,-454,0,0,0,0,0,0,0,0,0,-1,629,1478,0,0
-588,-454,0,0,0,0,0,0,0,0,0,-1,636,1478,0,0
-581,-454,0,0,0,0,0,0,0,0,0,-1,643,1478,0,0
-574,-454,-10.3423,0.981567,0,0,0,0,0,0,0,-1,650,1478,-10.3424,-0.981519
-567,-454,-8.2016,1.57556,0.280285,0.0051089,0.141133,0.339799,-0.0544049,0.399059,0.246675,0.045005,657,1478,-8.20157,-1.57553
-560,-454,-6.16785,2.13586,0.215111,0.00363918,0.115231,0.265767,-0.0470162,0.41417,0.194751,0.044187,664,1478,-6.16784,-2.13592
-553,-454,-4.96735,2.17249,0,0,0,0,0,0,0,-1,671,1478,-4.96733,-2.17245
-546,-454,-4.2793,2.62671,0,0,0,0,0,0,0,-1,678,1478,-4.27928,-2.62667
-539,-454,-3.53546,2.87903,0,0,0,0,0,0,0,-1,685,1478,-3.53548,-2.87904
-532,-454,-3.4599,2.84412,0.0519813,0.00111223,0.040841,0.0746602,-0.0215667,0.506901,0.0583074,0.0426099,692,1478,-3.45988,-2.8441
-525,-454,-2.58264,3.41467,0.0330967,0.000899562,0.0297107,0.05079,-0.0167937,0.537118,0.0406317,0.0405022,699,1478,-2.58266,-3.41465
-518,-454,-2.26282,3.91113,0.0204636,0.000700418,0.0211933,0.0339659,-0.0128018,0.567252,0.0279077,0.0265839,706,1478,-2.26284,-3.9111
-511,-454,-2.28326,3.98596,0.00941797,0.000356512,0.0135516,0.0191762,-0.00940171,0.624074,0.0168181,0.0164363,713,1478,-2.28326,-3.98594
-504,-454,-2.25873,4.20776,0.00368193,-4.00382e-05,0.0087469,0.0107636,-0.00712174,0.680582,0.0103972,0.0156847,720,1478,-2.25872,-4.20777
-497,-454,-2.26251,4.42957,0.00233439,-0.000409627,0.00553757,0.00666738,-0.00474262,0.663962,0.00661874,0.019646,727,1478,-2.26248,-4.42959
-490,-454,-2.24872,4.65955,0.00151268,-0.00139276,0.00283695,0.00324723,-0.00312731,0.54877,0.00368056,0.0174495,734,1478,-2.24869,-4.65953
-483,-454,-2.26575,4.86475,0.00126259,-0.00311953,0.000674005,0.00136391,-0.00322085,0.149215,0.00271842,0.0148734,741,1478,-2.26574,-4.8647
-476,-454,-2.28351,5.03455,0.000931252,-0.00467114,-0.00137566,0.00125081,-0.0049907,-0.22825,0.00381308,0.013102,748,1478,-2.28349,-5.03459
-469,-454,-2.2774,5.25854,0.000567779,-0.00640372,-0.0030896,0.00173993,-0.00757587,-0.362612,0.00571947,0.00992508,755,1478,-2.2774,-5.25859
-462,-454,-2.29163,5.4762,0.000610965,-0.00868146,-0.0047198,0.00258773,-0.0106582,-0.396628,0.00810692,0.0102535,762,1478,-2.29161,-5.47621
-455,-454,-2.28979,5.68018,0.000631682,-0.0113776,-0.00628922,0.00332243,-0.0140684,-0.40427,0.0106604,0.0111227,769,1478,-2.28981,-5.68023
-448,-454,-2.28589,5.88721,0.000773922,-0.0143315,-0.00789881,0.00414982,-0.0177074,-0.403896,0.0134041,0.0117019,776,1478,-2.28586,-5.88716
-441,-454,-2.14862,6.07617,0.000706536,-0.0173288,-0.00944604,0.00474819,-0.0213705,-0.404297,0.0160653,0.0196998,783,1478,-2.14859,-6.07619
-434,-454,-1.98834,6.15979,3.0047e-06,-0.0202978,-0.0108003,0.00467409,-0.0249689,-0.408204,0.0184029,0.0276784,790,1478,-1.98832,-6.15977
-427,-454,-2.04736,6.25916,-0.000616358,-0.0231246,-0.0121607,0.00469871,-0.0284397,-0.412049,0.0207045,0.0406273,797,1478,-2.04739,-6.2591
-420,-454,-2.20459,6.50256,0,0,0,0,0,0,0,-1,804,1478,-2.2046,-6.50253
-413,-454,-2.25153,5.31165,0,0,0,0,0,0,0,-1,811,1478,-2.25154,-5.31159
-406,-454,-2.43701,4.69275,0,0,0,0,0,0,0,-1,818,1478,-2.43701,-4.69269
-399,-454,-1.20758,6.51941,0,0,0,0,0,0,0,-1,825,1478,-1.20757,-6.51941
-392,-454,0.0967407,0.985474,0,0,0,0,0,0,0,-1,832,1478,0.0967364,-0.985529
-385,-454,2.38629,3.297,0,0,0,0,0,0,0,-1,839,1478,2.38629,-3.29702
-378,-454,3.80048,3.42151,0,0,0,0,0,0,0,-1,846,1478,3.80046,-3.4215
-371,-454,1.25891,1.51331,0,0,0,0,0,0,0,-1,853,1478,1.25891,-1.51328
-364,-454,1.08124,0.819458,0,0,0,0,0,0,0,-1,860,1478,1.08124,-0.819513
-357,-454,0,0,0,0,0,0,0,0,0,-1,867,1478,0,0
-350,-454,0,0,0,0,0,0,0,0,0,-1,874,1478,0,0
-343,-454,0,0,0,0,0,0,0,0,0,-1,881,1478,0,0
-336,-454,0,0,0,0,0,0,0,0,0,-1,888,1478,0,0
-329,-454,0,0,0,0,0,0,0,0,0,-1,895,1478,0,0
-322,-454,0,0,0,0,0,0,0,0,0,-1,902,1478,0,0
-315,-454,0,0,0,0,0,0,0,0,0,-1,909,1478,0,0
-308,-454,0,0,0,0,0,0,0,0,0,-1,916,1478,0,0
-301,-454,0,0,0,0,0,0,0,0,0,-1,923,1478,0,0
-294,-454,0,0,0,0,0,0,0,0,0,-1,930,1478,0,0
-287,-454,0,0,0,0,0,0,0,0,0,-1,937,1478,0,0
-280,-454,0,0,0,0,0,0,0,0,0,-1,944,1478,0,0
-273,-454,0,0,0,0,0,0,0,0,0,-1,951,1478,0,0
-266,-454,0,0,0,0,0,0,0,0,0,-1,958,1478,0,0
-259,-454,0,0,0,0,0,0,0,0,0,-1,965,1478,0,0
-252,-454,0,0,0,0,0,0,0,0,0,-1,972,1478,0,0
-245,-454,0,0,0,0,0,0,0,0,0,-1,979,1478,0,0
-238,-454,0,0,0,0,0,0,0,0,0,-1,986,1478,0,0
-231,-454,0,0,0,0,0,0,0,0,0,-1,993,1478,0,0
-224,-454,0,0,0,0,0,0,0,0,0,-1,1000,1478,0,0
-217,-454,0,0,0,0,0,0,0,0,0,-1,1007,1478,0,0
-210,-454,0,0,0,0,0,0,0,0,0,-1,1014,1478,0,0
-203,-454,0,0,0,0,0,0,0,0,0,-1,1021,1478,0,0
-196,-454,0,0,0,0,0,0,0,0,0,-1,1028,1478,0,0
-189,-454,0,0,0,0,0,0,0,0,0,-1,1035,1478,0,0
-182,-454,0,0,0,0,0,0,0,0,0,-1,1042,1478,0,0
-175,-454,0,0,0,0,0,0,0,0,0,-1,1049,1478,0,0
-168,-454,0,0,0,0,0,0,0,0,0,-1,1056,1478,0,0
-161,-454,0,0,0,0,0,0,0,0,0,-1,1063,1478,0,0
-154,-454,0,0,0,0,0,0,0,0,0,-1,1070,1478,0,0
-147,-454,0,0,0,0,0,0,0,0,0,-1,1077,1478,0,0
-140,-454,0,0,0,0,0,0,0,0,0,-1,1084,1478,0,0
-133,-454,0,0,0,0,0,0,0,0,0,-1,1091,1478,0,0
-126,-454,0,0,0,0,0,0,0,0,0,-1,1098,1478,0,0
-119,-454,0,0,0,0,0,0,0,0,0,-1,1105,1478,0,0
-112,-454,0,0,0,0,0,0,0,0,0,-1,1112,1478,0,0
-105,-454,0,0,0,0,0,0,0,0,0,-1,1119,1478,0,0
-98,-454,0,0,0,0,0,0,0,0,0,-1,1126,1478,0,0
-91,-454,0,0,0,0,0,0,0,0,0,-1,1133,1478,0,0
-84,-454,0,0,0,0,0,0,0,0,0,-1,1140,1478,0,0
-77,-454,0,0,0,0,0,0,0,0,0,-1,1147,1478,0,0
-70,-454,0,0,0,0,0,0,0,0,0,-1,1154,1478,0,0
-63,-454,0,0,0,0,0,0,0,0,0,-1,1161,1478,0,0
-56,-454,0,0,0,0,0,0,0,0,0,-1,1168,1478,0,0
-49,-454,0,0,0,0,0,0,0,0,0,-1,1175,1478,0,0
-42,-454,0,0,0,0,0,0,0,0,0,-1,1182,1478,0,0
-35,-454,0,0,0,0,0,0,0,0,0,-1,1189,1478,0,0
-28,-454,0,0,0,0,0,0,0,0,0,-1,1196,1478,0,0
-21,-454,0,0,0,0,0,0,0,0,0,-1,1203,1478,0,0
-14,-454,0,0,0,0,0,0,0,0,0,-1,1210,1478,0,0
-7,-454,0,0,0,0,0,0,0,0,0,-1,1217,1478,0,0
0,-454,0,0,0,0,0,0,0,0,0,-1,1224,1478,0,0
7,-454,0,0,0,0,0,0,0,0,0,-1,1231,1478,0,0
14,-454,0,0,0,0,0,0,0,0,0,-1,1238,1478,0,0
21,-454,0,0,0,0,0,0,0,0,0,-1,1245,1478,0,0
28,-454,0,0,0,0,0,0,0,0,0,-1,1252,1478,0,0
35,-454,0,0,0,0,0,0,0,0,0,-1,1259,1478,0,0
42,-454,0,0,0,0,0,0,0,0,0,-1,1266,1478,0,0
49,-454,0,0,0,0,0,0,0,0,0,-1,1273,1478,0,0
56,-454,0,0,0,0,0,0,0,0,0,-1,1280,1478,0,0
63,-454,0,0,0,0,0,0,0,0,0,-1,1287,1478,0,0
70,-454,0,0,0,0,0,0,0,0,0,-1,1294,1478,0,0
77,-454,0,0,0,0,0,0,0,0,0,-1,1301,1478,0,0
84,-454,0,0,0,0,0,0,0,0,0,-1,1308,1478,0,0
91,-454,0,0,0,0,0,0,0,0,0,-1,1315,1478,0,0
98,-454,0,0,0,0,0,0,0,0,0,-1,1322,1478,0,0
105,-454,0,0,0,0,0,0,0,0,0,-1,1329,1478,0,0
112,-454,0,0,0,0,0,0,0,0,0,-1,1336,1478,0,0
119,-454,0,0,0,0,0,0,0,0,0,-1,1343,1478,0,0
126,-454,0,0,0,0,0,0,0,0,0,-1,1350,1478,0,0
133,-454,0,0,0,0,0,0,0,0,0,-1,1357,1478,0,0
140,-454,0,0,0,0,0,0,0,0,0,-1,1364,1478,0,0
147,-454,0,0,0,0,0,0,0,0,0,-1,1371,1478,0,0
154,-454,0,0,0,0,0,0,0,0,0,-1,1378,1478,0,0
161,-454,0,0,0,0,0,0,0,0,0,-1,1385,1478,0,0
168,-454,0,0,0,0,0,0,0,0,0,-1,1392,1478,0,0
175,-454,0,0,0,0,0,0,0,0,0,-1,1399,1478,0,0
182,-454,0,0,0,0,0,0,0,0,0,-1,1406,1478,0,0
189,-454,0,0,0,0,0,0,0,0,0,-1,1413,1478,0,0
196,-454,0,0,0,0,0,0,0,0,0,-1,1420,1478,0,0
203,-454,0,0,0,0,0,0,0,0,0,-1,1427,1478,0,0
210,-454,0,0,0,0,0,0,0,0,0,-1,1434,1478,0,0
217,-454,0,0,0,0,0,0,0,0,0,-1,1441,1478,0,0
224,-454,0,0,0,0,0,0,0,0,0,-1,1448,1478,0,0
231,-454,0,0,0,0,0,0,0,0,0,-1,1455,1478,0,0
238,-454,0,0,0,0,0,0,0,0,0,-1,1462,1478,0,0
245,-454,0,0,0,0,0,0,0,0,0,-1,1469,1478,0,0
252,-454,0,0,0,0,0,0,0,0,0,-1,1476,1478,0,0
259,-454,0,0,0,0,0,0,0,0,0,-1,1483,1478,0,0
266,-454,0,0,0,0,0,0,0,0,0,-1,1490,1478,0,0
273,-454,0,0,0,0,0,0,0,0,0,-1,1497,1478,0,0
280,-454,0,0,0,0,0,0,0,0,0,-1,1504,1478,0,0
287,-454,0,0,0,0,0,0,0,0,0,-1,1511,1478,0,0
294,-454,0,0,0,0,0,0,0,0,0,-1,1518,1478,0,0
301,-454,0,0,0,0,0,0,0,0,0,-1,1525,1478,0,0
308,-454,0,0,0,0,0,0,0,0,0,-1,1532,1478,0,0
315,-454,0,0,0,0,0,0,0,0,0,-1,1539,1478,0,0
322,-454,0,0,0,0,0,0,0,0,0,-1,1546,1478,0,0
329,-454,0,0,0,0,0,0,0,0,0,-1,1553,1478,0,0
336,-454,0,0,0,0,0,0,0,0,0,-1,1560,1478,0,0
343,-454,0,0,0,0,0,0,0,0,0,-1,1567,1478,0,0
350,-454,0,0,0,0,0,0,0,0,0,-1,1574,1478,0,0
357,-454,0,0,0,0,0,0,0,0,0,-1,1581,1478,0,0
364,-454,0,0,0,0,0,0,0,0,0,-1,1588,1478,0,0
371,-454,0,0,0,0,0,0,0,0,0,-1,1595,1478,0,0
378,-454,0,0,0,0,0,0,0,0,0,-1,1602,1478,0,0
385,-454,0,0,0,0,0,0,0,0,0,-1,1609,1478,0,0
392,-454,0,0,0,0,0,0,0,0,0,-1,1616,1478,0,0
399,-454,0,0,0,0,0,0,0,0,0,-1,1623,1478,0,0
406,-454,0,0,0,0,0,0,0,0,0,-1,1630,1478,0,0
413,-454,0,0,0,0,0,0,0,0,0,-1,1637,1478,0,0
420,-454,0,0,0,0,0,0,0,0,0,-1,1644,1478,0,0
427,-454,0,0,0,0,0,0,0,0,0,-1,1651,1478,0,0
434,-454,0,0,0,0,0,0,0,0,0,-1,1658,1478,0,0
441,-454,0,0,0,0,0,0,0,0,0,-1,1665,1478,0,0
448,-454,0,0,0,0,0,0,0,0,0,-1,1672,1478,0,0
455,-454,0,0,0,0,0,0,0,0,0,-1,1679,1478,0,0
462,-454,0,0,0,0,0,0,0,0,0,-1,1686,1478,0,0
469,-454,0,0,0,0,0,0,0,0,0,-1,1693,1478,0,0
476,-454,0,0,0,0,0,0,0,0,0,-1,1700,1478,0,0
483,-454,12.265,3.05029,0,0,0,0,0,0,0,-1,1707,1478,12.2651,-3.05029
490,-454,11.8601,2.47205,0,0,0,0,0,0,0,-1,1714,1478,11.8601,-2.472
497,-454,11.5433,1.1958,0,0,0,0,0,0,0,-1,1721,1478,11.5434,-1.19579
504,-454,10.6036,3.28125,0,0,0,0,0,0,0,-1,1728,1478,10.6037,-3.28124
511,-454,9.55981,2.97351,0,0,0,0,0,0,0,-1,1735,1478,9.55978,-2.97346
518,-454,8.50256,2.70117,0,0,0,0,0,0,0,-1,1742,1478,8.50262,-2.70112
525,-454,9.43726,4.62024,0,0,0,0,0,0,0,-1,1749,1478,9.43721,-4.62022
532,-454,9.18518,5.00281,0,0,0,0,0,0,0,-1,1756,1478,9.18517,-5.00282
539,-454,10.8339,7.98499,0,0,0,0,0,0,0,-1,1763,1478,10.8338,-7.98494
546,-454,10.4833,7.47571,0,0,0,0,0,0,0,-1,1770,1478,10.4833,-7.47565
553,-454,9.82971,7.93738,0,0,0,0,0,0,0,-1,1777,1478,9.8297,-7.93734
560,-454,9.94849,7.93201,-0.0158759,-0.0195344,0.0183274,0.000713293,-0.0361236,0.735658,0.0243236,0.0475394,1784,1478,9.94853,-7.932
567,-454,9.95056,7.7738,-0.0125231,-0.0165123,0.0150898,0.000703349,-0.0297387,0.719687,0.0200644,0.0253089,1791,1478,9.95055,-7.77385
574,-454,9.90088,7.58118,-0.0100666,-0.0132963,0.0121041,0.000529909,-0.0238927,0.719083,0.016108,0.0126103,1798,1478,9.90082,-7.58121
581,-454,9.90015,7.41309,-0.00802285,-0.0106319,0.00947667,0.00023865,-0.0188934,0.716999,0.0126759,0.0100838,1805,1478,9.90014,-7.41308
588,-454,9.89819,7.25244,-0.0063485,-0.00832107,0.00745354,0.00018373,-0.0148533,0.719618,0.00996401,0.0123408,1812,1478,9.89816,-7.25247
595,-454,9.87756,7.08594,-0.00498952,-0.00652481,0.00585831,0.000151226,-0.0116656,0.720252,0.00782793,0.0118461,1819,1478,9.87759,-7.08599
602,-454,9.89111,6.87561,-0.00384054,-0.00520351,0.00455142,8.01315e-05,-0.00912418,0.711085,0.00610968,0.00848857,1826,1478,9.89107,-6.87559
609,-454,9.90112,6.68298,-0.00270705,-0.00418598,0.00351506,0.000145488,-0.00703851,0.681725,0.00474158,0.0103332,1833,1478,9.90113,-6.68294
616,-454,9.90723,6.50024,-0.00157535,-0.00394024,0.00280876,0.000289707,-0.0058053,0.586165,0.0039703,0.0138324,1840,1478,9.9072,-6.50029
623,-454,9.90674,6.32007,-0.000434733,-0.00398316,0.00221598,0.000629788,-0.00504768,0.447831,0.00359349,0.0109418,1847,1478,9.90674,-6.32003
630,-454,9.90991,6.14661,0.000657302,-0.00423224,0.0017107,0.00119639,-0.00477132,0.305275,0.00364571,0.00941226,1854,1478,9.90995,-6.14658
637,-454,9.91577,5.98181,0.00191803,-0.0051192,0.00143603,0.00219979,-0.00540095,0.193745,0.00451616,0.00939913,1861,1478,9.9158,-5.98181
644,-454,9.94678,5.78918,0.00332025,-0.00641467,0.00129599,0.00348982,-0.00658425,0.130109,0.00590702,0.0138834,1868,1478,9.94683,-5.78922
651,-454,9.8833,5.62793,0.0047892,-0.00817552,0.00128267,0.00491488,-0.00830121,0.0976738,0.00771335,0.0231095,1875,1478,9.88331,-5.62788
658,-454,9.94482,5.50781,0.00646939,-0.0102985,0.00122441,0.00655832,-0.0103874,0.0725089,0.00986652,0.0335364,1882,1478,9.94483,-5.50781
665,-454,10.1322,5.68005,0.00863558,-0.0127264,0.000931292,0.0086761,-0.0127669,0.0434858,0.012455,0.0451984,1889,1478,10.1322,-5.68002
672,-454,10.1549,5.49963,0.0113249,-0.0153591,0.000366727,0.0113299,-0.0153642,0.0137399,0.0154704,0.0491992,1896,1478,10.155,-5.49964
679,-454,10.6316,4.64185,0,0,0,0,0,0,0,-1,1903,1478,10.6316,-4.64179
686,-454,10.3767,2.12842,0,0,0,0,0,0,0,-1,1910,1478,10.3767,-2.12839
693,-454,11.1857,1.48486,0,0,0,0,0,0,0,-1,1917,1478,11.1857,-1.48487
700,-454,0,0,0,0,0,0,0,0,0,-1,1924,1478,0,0
707,-454,0,0,0,0,0,0,0,0,0,-1,1931,1478,0,0
714,-454,0,0,0,0,0,0,0,0,0,-1,1938,1478,0,0
721,-454,0,0,0,0,0,0,0,0,0,-1,1945,1478,0,0
728,-454,0,0,0,0,0,0,0,0,0,-1,1952,1478,0,0
735,-454,0,0,0,0,0,0,0,0,0,-1,1959,1478,0,0
742,-454,0,0,0,0,0,0,0,0,0,-1,1966,1478,0,0
749,-454,0,0,0,0,0,0,0,0,0,-1,1973,1478,0,0
756,-454,0,0,0,0,0,0,0,0,0,-1,1980,1478,0,0
763,-454,0,0,0,0,0,0,0,0,0,-1,1987,1478,0,0
770,-454,0,0,0,0,0,0,0,0,0,-1,1994,1478,0,0
777,-454,0,0,0,0,0,0,0,0,0,-1,2001,1478,0,0
784,-454,0,0,0,0,0,0,0,0,0,-1,2008,1478,0,0
791,-454,0,0,0,0,0,0,0,0,0,-1,2015,1478,0,0
798,-454,0,0,0,0,0,0,0,0,0,-1,2022,1478,0,0
805,-454,0,0,0,0,0,0,0,0,0,-1,2029,1478,0,0
812,-454,0,0,0,0,0,0,0,0,0,-1,2036,1478,0,0
-700,-461,0,0,0,0,0,0,0,0,0,-1,524,1485,0,0
-693,-461,0,0,0,0,0,0,0,0,0,-1,531,1485,0,0
-686,-461,0,0,0,0,0,0,0,0,0,-1,538,1485,0,0
-679,-461,0,0,0,0,0,0,0,0,0,-1,545,1485,0,0
-672,-461,0,0,0,0,0,0,0,0,0,-1,552,1485,0,0
-665,-461,0,0,0,0,0,0,0,0,0,-1,559,1485,0,0
-658,-461,0,0,0,0,0,0,0,0,0,-1,566,1485,0,0
-651,-461,0,0,0,0,0,0,0,0,0,-1,573,1485,0,0
-644,-461,0,0,0,0,0,0,0,0,0,-1,580,1485,0,0
-637,-461,0,0,0,0,0,0,0,0,0,-1,587,1485,0,0
-630,-461,0,0,0,0,0,0,0,0,0,-1,594,1485,0,0
-623,-461,0,0,0,0,0,0,0,0,0,-1,601,1485,0,0
-616,-461,0,0,0,0,0,0,0,0,0,-1,608,1485,0,0
-609,-461,0,0,0,0,0,0,0,0,0,-1,615,1485,0,0
-602,-461,0,0,0,0,0,0,0,0,0,-1,622,1485,0,0
-595,-461,0,0,0,0,0,0,0,0,0,-1,629,1485,0,0
-588,-461,0,0,0,0,0,0,0,0,0,-1,636,1485,0,0
-581,-461,0,0,0,0,0,0,0,0,0,-1,643,1485,0,0
-574,-461,0,0,0,0,0,0,0,0,0,-1,650,1485,0,0
-567,-461,-9.70477,1.68005,0.300051,0.00401006,0.152987,0.364904,-0.0608428,0.400948,0.265881,0.0498791,657,1485,-9.70476,-1.68002
-560,-461,-7.26776,2.05688,0.228122,0.00200488,0.125626,0.284073,-0.0539457,0.419001,0.20969,0.046921,664,1485,-7.26774,-2.05685
-553,-461,-5.00635,2.59265,0,0,0,0,0,0,0,-1,671,1485,-5.00637,-2.59261
-546,-461,-5.55035,8.59668,0,0,0,0,0,0,0,-1,678,1485,-5.55034,-8.59669
-539,-461,-4.77301,8.11365,0,0,0,0,0,0,0,-1,685,1485,-4.77299,-8.11359
-532,-461,-3.84888,2.52576,0,0,0,0,0,0,0,-1,692,1485,-3.84886,-2.52576
-525,-461,-2.81036,2.89539,0.0305719,-0.00108088,0.0339942,0.0522432,-0.0227522,0.567539,0.0444005,0.0403536,699,1485,-2.81037,-2.8954
-518,-461,-2.19159,3.75183,0.017722,-0.000956812,0.0245541,0.034653,-0.0178877,0.603667,0.0308449,0.0366806,706,1485,-2.1916,-3.75183
-511,-461,-2.02728,4.04163,0.00661302,-0.000953221,0.0161332,0.0194008,-0.013741,0.670233,0.0192272,0.0178777,713,1485,-2.02726,-4.04166
-504,-461,-2.06372,4.21912,0.00120657,-0.000940514,0.0106926,0.0108794,-0.0106133,0.735366,0.0124092,0.0111615,720,1485,-2.06371,-4.2191
-497,-461,-2.05029,4.46619,0.000489219,-0.000853922,0.00707985,0.00692928,-0.00729398,0.738111,0.0082127,0.0110903,727,1485,-2.05032,-4.4662
-490,-461,-2.05316,4.66516,0.000199736,-0.00132533,0.00413655,0.00364345,-0.00476905,0.694251,0.00487143,0.0118579,734,1485,-2.05318,-4.66519
-483,-461,-2.06329,4.86707,0.000383417,-0.00250697,0.00186478,0.00129746,-0.00342101,0.455745,0.00281467,0.0117268,741,1485,-2.06328,-4.86709
-476,-461,-2.08051,5.06897,0.000503677,-0.00357694,-0.000232051,0.000516831,-0.0035901,-0.0566234,0.00258297,0.0108943,748,1485,-2.0805,-5.06897
-469,-461,-2.07532,5.27039,0.000463387,-0.00477534,-0.00185582,0.00105418,-0.00536614,-0.308204,0.00397568,0.0125702,755,1485,-2.07529,-5.27035
-462,-461,-2.06763,5.44702,0.000795333,-0.00654482,-0.00328355,0.0020498,-0.00779929,-0.364934,0.00600065,0.0180341,762,1485,-2.06761,-5.44703
-455,-461,-2.04114,5.64539,0.00106853,-0.00863888,-0.00455433,0.00287068,-0.010441,-0.376794,0.00808919,0.0216535,769,1485,-2.04114,-5.64543
-448,-461,-2.06726,5.89185,0.00145596,-0.01095,-0.0056651,0.0036536,-0.0131476,-0.370054,0.0102034,0.0169086,776,1485,-2.06729,-5.89184
-441,-461,-2.04724,6.10852,0.00166163,-0.0131633,-0.00666229,0.00421565,-0.0157173,-0.366074,0.0121301,0.0128254,783,1485,-2.04723,-6.10851
-434,-461,-1.88843,6.23254,0.00125541,-0.0152612,-0.00743567,0.00410965,-0.0181155,-0.366514,0.0136546,0.0172004,790,1485,-1.88843,-6.23252
-427,-461,-1.83789,6.33813,0.0010527,-0.0172353,-0.0082136,0.00420001,-0.0203826,-0.365924,0.0151833,0.0244544,797,1485,-1.83791,-6.33809
-420,-461,-2.17133,6.48547,0.000524843,-0.0182146,-0.00843474,0.00376212,-0.0214519,-0.366466,0.0157062,0.0413724,804,1485,-2.17132,-6.48541
-413,-461,-1.86359,6.76245,0,0,0,0,0,0,0,-1,811,1485,-1.86361,-6.76242
-406,-461,-1.90442,7.02087,0,0,0,0,0,0,0,-1,818,1485,-1.9044,-7.02085
-399,-461,-0.661316,6.36182,0,0,0,0,0,0,0,-1,825,1485,-0.661336,-6.36176
-392,-461,-0.357544,5.55225,0,0,0,0,0,0,0,-1,832,1485,-0.357536,-5.55228
-385,-461,1.71509,3.35254,0,0,0,0,0,0,0,-1,839,1485,1.71511,-3.35255
-378,-461,1.95996,3.01111,0,0,0,0,0,0,0,-1,846,1485,1.95993,-3.01111
-371,-461,0.702881,2.33459,0,0,0,0,0,0,0,-1,853,1485,0.702859,-2.33459
-364,-461,-1.93097,2.56458,0,0,0,0,0,0,0,-1,860,1485,-1.93095,-2.56456
-357,-461,-2.41516,3.49487,0,0,0,0,0,0,0,-1,867,1485,-2.41517,-3.49487
-350,-461,0,0,0,0,0,0,0,0,0,-1,874,1485,0,0
-343,-461,0,0,0,0,0,0,0,0,0,-1,881,1485,0,0
-336,-461,0,0,0,0,0,0,0,0,0,-1,888,1485,0,0
-329,-461,0,0,0,0,0,0,0,0,0,-1,895,1485,0,0
-322,-461,0,0,0,0,0,0,0,0,0,-1,902,1485,0,0
-315,-461,0,0,0,0,0,0,0,0,0,-1,909,1485,0,0
-308,-461,0,0,0,0,0,0,0,0,0,-1,916,1485,0,0
-301,-461,0,0,0,0,0,0,0,0,0,-1,923,1485,0,0
-294,-461,0,0,0,0,0,0,0,0,0,-1,930,1485,0,0
-287,-461,0,0,0,0,0,0,0,0,0,-1,937,1485,0,0
-280,-461,0,0,0,0,0,0,0,0,0,-1,944,1485,0,0
-273,-461,0,0,0,0,0,0,0,0,0,-1,951,1485,0,0
-266,-461,0,0,0,0,0,0,0,0,0,-1,958,1485,0,0
-259,-461,0,0,0,0,0,0,0,0,0,-1,965,1485,0,0
-252,-461,0,0,0,0,0,0,0,0,0,-1,972,1485,0,0
-245,-461,0,0,0,0,0,0,0,0,0,-1,979,1485,0,0
-238,-461,0,0,0,0,0,0,0,0,0,-1,986,1485,0,0
-231,-461,0,0,0,0,0,0,0,0,0,-1,993,1485,0,0
-224,-461,0,0,0,0,0,0,0,0,0,-1,1000,1485,0,0
-217,-461,0,0,0,0,0,0,0,0,0,-1,1007,1485,0,0
-210,-461,0,0,0,0,0,0,0,0,0,-1,1014,1485,0,0
-203,-461,0,0,0,0,0,0,0,0,0,-1,1021,1485,0,0
-196,-461,0,0,0,0,0,0,0,0,0,-1,1028,1485,0,0
-189,-461,0,0,0,0,0,0,0,0,0,-1,1035,1485,0,0
-182,-461,0,0,0,0,0,0,0,0,0,-1,1042,1485,0,0
-175,-461,0,0,0,0,0,0,0,0,0,-1,1049,1485,0,0
-168,-461,0,0,0,0,0,0,0,0,0,-1,1056,1485,0,0
-161,-461,0,0,0,0,0,0,0,0,0,-1,1063,1485,0,0
-154,-461,0,0,0,0,0,0,0,0,0,-1,1070,1485,0,0
-147,-461,0,0,0,0,0,0,0,0,0,-1,1077,1485,0,0
-140,-461,0,0,0,0,0,0,0,0,0,-1,1084,1485,0,0
-133,-461,0,0,0,0,0,0,0,0,0,-1,1091,1485,0,0
-126,-461,0,0,0,0,0,0,0,0,0,-1,1098,1485,0,0
-119,-461,0,0,0,0,0,0,0,0,0,-1,1105,1485,0,0
-112,-461,0,0,0,0,0,0,0,0,0,-1,1112,1485,0,0
-105,-461,0,0,0,0,0,0,0,0,0,-1,1119,1485,0,0
-98,-461,0,0,0,0,0,0,0,0,0,-1,1126,1485,0,0
-91,-461,0,0,0,0,0,0,0,0,0,-1,1133,1485,0,0
-84,-461,0,0,0,0,0,0,0,0,0,-1,1140,1485,0,0
-77,-461,0,0,0,0,0,0,0,0,0,-1,1147,1485,0,0
-70,-461,0,0,0,0,0,0,0,0,0,-1,1154,1485,0,0
-63,-461,0,0,0,0,0,0,0,0,0,-1,1161,1485,0,0
-56,-461,0,0,0,0,0,0,0,0,0,-1,1168,1485,0,0
-49,-461,0,0,0,0,0,0,0,0,0,-1,1175,1485,0,0
-42,-461,0,0,0,0,0,0,0,0,0,-1,1182,1485,0,0
-35,-461,0,0,0,0,0,0,0,0,0,-1,1189,1485,0,0
-28,-461,0,0,0,0,0,0,0,0,0,-1,1196,1485,0,0
-21,-461,0,0,0,0,0,0,0,0,0,-1,1203,1485,0,0
-14,-461,0,0,0,0,0,0,0,0,0,-1,1210,1485,0,0
-7,-461,0,0,0,0,0,0,0,0,0,-1,1217,1485,0,0
0,-461,0,0,0,0,0,0,0,0,0,-1,1224,1485,0,0
7,-461,0,0,0,0,0,0,0,0,0,-1,1231,1485,0,0
14,-461,0,0,0,0,0,0,0,0,0,-1,1238,1485,0,0
21,-461,0,0,0,0,0,0,0,0,0,-1,1245,1485,0,0
28,-461,0,0,0,0,0,0,0,0,0,-1,1252,1485,0,0
35,-461,0,0,0,0,0,0,0,0,0,-1,1259,1485,0,0
42,-461,0,0,0,0,0,0,0,0,0,-1,1266,1485,0,0
49,-461,0,0,0,0,0,0,0,0,0,-1,1273,1485,0,0
56,-461,0,0,0,0,0,0,0,0,0,-1,1280,1485,0,0
63,-461,0,0,0,0,0,0,0,0,0,-1,1287,1485,0,0
70,-461,0,0,0,0,0,0,0,0,0,-1,1294,1485,0,0
77,-461,0,0,0,0,0,0,0,0,0,-1,1301,1485,0,0
84,-461,0,0,0,0,0,0,0,0,0,-1,1308,1485,0,0
91,-461,0,0,0,0,0,0,0,0,0,-1,1315,1485,0,0
98,-461,0,0,0,0,0,0,0,0,0,-1,1322,1485,0,0
105,-461,0,0,0,0,0,0,0,0,0,-1,1329,1485,0,0
112,-461,0,0,0,0,0,0,0,0,0,-1,1336,1485,0,0
119,-461,0,0,0,0,0,0,0,0,0,-1,1343,1485,0,0
126,-461,0,0,0,0,0,0,0,0,0,-1,1350,1485,0,0
133,-461,0,0,0,0,0,0,0,0,0,-1,1357,1485,0,0
140,-461,0,0,0,0,0,0,0,0,0,-1,1364,1485,0,0
147,-461,0,0,0,0,0,0,0,0,0,-1,1371,1485,0,0
154,-461,0,0,0,0,0,0,0,0,0,-1,1378,1485,0,0
161,-461,0,0,0,0,0,0,0,0,0,-1,1385,1485,0,0
168,-461,0,0,0,0,0,0,0,0,0,-1,1392,1485,0,0
175,-461,0,0,0,0,0,0,0,0,0,-1,1399,1485,0,0
182,-461,0,0,0,0,0,0,0,0,0,-1,1406,1485,0,0
189,-461,0,0,0,0,0,0,0,0,0,-1,1413,1485,0,0
196,-461,0,0,0,0,0,0,0,0,0,-1,1420,1485,0,0
203,-461,0,0,0,0,0,0,0,0,0,-1,1427,1485,0,0
210,-461,0,0,0,0,0,0,0,0,0,-1,1434,1485,0,0
217,-461,0,0,0,0,0,0,0,0,0,-1,1441,1485,0,0
224,-461,0,0,0,0,0,0,0,0,0,-1,1448,1485,0,0
231,-461,0,0,0,0,0,0,0,0,0,-1,1455,1485,0,0
238,-461,0,0,0,0,0,0,0,0,0,-1,1462,1485,0,0
245,-461,0,0,0,0,0,0,0,0,0,-1,1469,1485,0,0
252,-461,0,0,0,0,0,0,0,0,0,-1,1476,1485,0,0
259,-461,0,0,0,0,0,0,0,0,0,-1,1483,1485,0,0
266,-461,0,0,0,0,0,0,0,0,0,-1,1490,1485,0,0
273,-461,0,0,0,0,0,0,0,0,0,-1,1497,1485,0,0
280,-461,0,0,0,0,0,0,0,0,0,-1,1504,1485,0,0
287,-461,0,0,0,0,0,0,0,0,0,-1,1511,1485,0,0
294,-461,0,0,0,0,0,0,0,0,0,-1,1518,1485,0,0
301,-461,0,0,0,0,0,0,0,0,0,-1,1525,1485,0,0
308,-461,0,0,0,0,0,0,0,0,0,-1,1532,1485,0,0
315,-461,0,0,0,0,0,0,0,0,0,-1,1539,1485,0,0
322,-461,0,0,0,0,0,0,0,0,0,-1,1546,1485,0,0
329,-461,0,0,0,0,0,0,0,0,0,-1,1553,1485,0,0
336,-461,0,0,0,0,0,0,0,0,0,-1,1560,1485,0,0
343,-461,0,0,0,0,0,0,0,0,0,-1,1567,1485,0,0
350,-461,0,0,0,0,0,0,0,0,0,-1,1574,1485,0,0
357,-461,0,0,0,0,0,0,0,0,0,-1,1581,1485,0,0
364,-461,0,0,0,0,0,0,0,0,0,-1,1588,1485,0,0
371,-461,0,0,0,0,0,0,0,0,0,-1,1595,1485,0,0
378,-461,0,0,0,0,0,0,0,0,0,-1,1602,1485,0,0
385,-461,0,0,0,0,0,0,0,0,0,-1,1609,1485,0,0
392,-461,0,0,0,0,0,0,0,0,0,-1,1616,1485,0,0
399,-461,0,0,0,0,0,0,0,0,0,-1,1623,1485,0,0
406,-461,0,0,0,0,0,0,0,0,0,-1,1630,1485,0,0
413,-461,0,0,0,0,0,0,0,0,0,-1,1637,1485,0,0
420,-461,0,0,0,0,0,0,0,0,0,-1,1644,1485,0,0
427,-461,0,0,0,0,0,0,0,0,0,-1,1651,1485,0,0
434,-461,0,0,0,0,0,0,0,0,0,-1,1658,1485,0,0
441,-461,0,0,0,0,0,0,0,0,0,-1,1665,1485,0,0
448,-461,0,0,0,0,0,0,0,0,0,-1,1672,1485,0,0
455,-461,0,0,0,0,0,0,0,0,0,-1,1679,1485,0,0
462,-461,0,0,0,0,0,0,0,0,0,-1,1686,1485,0,0
469,-461,0,0,0,0,0,0,0,0,0,-1,1693,1485,0,0
476,-461,14.1906,0.690552,0,0,0,0,0,0,0,-1,1700,1485,14.1906,-0.690525
483,-461,10.6361,3.09106,0,0,0,0,0,0,0,-1,1707,1485,10.6361,-3.091
490,-461,10.7461,2.45007,0,0,0,0,0,0,0,-1,1714,1485,10.746,-2.45007
497,-461,11.1135,1.81384,0,0,0,0,0,0,0,-1,1721,1485,11.1135,-1.81387
504,-461,11.6407,1.29785,0,0,0,0,0,0,0,-1,1728,1485,11.6407,-1.29786
511,-461,9.55627,3.86523,0,0,0,0,0,0,0,-1,1735,1485,9.55627,-3.86518
518,-461,9.94092,4.37708,0,0,0,0,0,0,0,-1,1742,1485,9.94092,-4.37704
525,-461,8.61694,6.01184,0,0,0,0,0,0,0,-1,1749,1485,8.61699,-6.01187
532,-461,8.14246,5.72546,0,0,0,0,0,0,0,-1,1756,1485,8.14251,-5.72547
539,-461,8.67957,6.5271,0,0,0,0,0,0,0,-1,1763,1485,8.67952,-6.52704
546,-461,10.0677,7.9519,0,0,0,0,0,0,0,-1,1770,1485,10.0678,-7.9519
553,-461,9.83655,7.76343,-0.0162736,-0.0174806,0.0178538,0.000986913,-0.0347411,0.768503,0.0234966,0.0429409,1777,1485,9.83653,-7.76344
560,-461,9.66614,7.86194,-0.0127273,-0.0148049,0.014446,0.000717219,-0.0282494,0.749505,0.0190765,0.0281316,1784,1485,9.66618,-7.86193
567,-461,9.71375,7.7583,-0.00960402,-0.0125907,0.0117042,0.000701681,-0.0228964,0.721945,0.0155035,0.0132056,1791,1485,9.71375,-7.75831
574,-461,9.72278,7.57654,-0.00738818,-0.00999504,0.00925838,0.000658072,-0.0180413,0.715466,0.0122528,0.0124988,1798,1485,9.72278,-7.57659
581,-461,9.72913,7.40332,-0.00570335,-0.00802508,0.0071462,0.00037566,-0.0141041,0.704879,0.00953042,0.0114405,1805,1485,9.72909,-7.4033
588,-461,9.71057,7.25574,-0.00442756,-0.0064096,0.00562972,0.000297696,-0.0111349,0.698274,0.00752443,0.0101062,1812,1485,9.71062,-7.25573
595,-461,9.7019,7.0885,-0.00337334,-0.00512064,0.00443066,0.000268988,-0.00876296,0.688056,0.00593367,0.0090514,1819,1485,9.70193,-7.08853
602,-461,9.72168,6.89624,-0.00253696,-0.00428405,0.00348431,0.000181635,-0.00700265,0.662576,0.00473014,0.00957774,1826,1485,9.7217,-6.89628
609,-461,9.73279,6.69458,-0.00170668,-0.00372346,0.00278865,0.000250303,-0.00568044,0.61191,0.00387309,0.010364,1833,1485,9.73279,-6.69455
616,-461,9.73901,6.50244,-0.000865037,-0.00392369,0.00242224,0.000470265,-0.00525899,0.503815,0.0036728,0.0132709,1840,1485,9.73898,-6.50239
623,-461,9.72278,6.33679,-1.434e-05,-0.00445224,0.00215253,0.000858171,-0.00532476,0.385103,0.00386776,0.0122479,1847,1485,9.72273,-6.33679
630,-461,9.72974,6.15991,0.000841762,-0.00524672,0.00196724,0.00142208,-0.00582704,0.286856,0.00443538,0.0103023,1854,1485,9.72974,-6.15997
637,-461,9.74622,5.97412,0.00190919,-0.00667307,0.00200559,0.00235475,-0.00711863,0.218607,0.00569531,0.0118936,1861,1485,9.74618,-5.97411
644,-461,9.73779,5.8053,0.00318582,-0.00854506,0.00215001,0.00356746,-0.00892669,0.175674,0.00743141,0.0197524,1868,1485,9.73776,-5.8053
651,-461,9.7251,5.573,0.00464872,-0.0109644,0.00239597,0.00500813,-0.0113238,0.148896,0.00966138,0.0242575,1875,1485,9.72514,-5.57298
658,-461,9.84961,5.49487,0.00665508,-0.0136842,0.00242369,0.0069399,-0.013969,0.116981,0.0122971,0.0398036,1882,1485,9.84958,-5.4949
665,-461,10.0695,5.86475,0.00939501,-0.0167293,0.00215281,0.00957123,-0.0169055,0.0816722,0.0154806,0.0463831,1889,1485,10.0695,-5.86474
672,-461,10.1833,5.70825,0,0,0,0,0,0,0,-1,1896,1485,10.1833,-5.70821
679,-461,10.0535,2.16321,0,0,0,0,0,0,0,-1,1903,1485,10.0535,-2.16317
686,-461,10.8195,1.84192,0,0,0,0,0,0,0,-1,1910,1485,10.8194,-1.84195
693,-461,0,0,0,0,0,0,0,0,0,-1,1917,1485,0,0
700,-461,0,0,0,0,0,0,0,0,0,-1,1924,1485,0,0
707,-461,0,0,0,0,0,0,0,0,0,-1,1931,1485,0,0
714,-461,0,0,0,0,0,0,0,0,0,-1,1938,1485,0,0
721,-461,0,0,0,0,0,0,0,0,0,-1,1945,1485,0,0
728,-461,0,0,0,0,0,0,0,0,0,-1,1952,1485,0,0
735,-461,0,0,0,0,0,0,0,0,0,-1,1959,1485,0,0
742,-461,0,0,0,0,0,0,0,0,0,-1,1966,1485,0,0
749,-461,0,0,0,0,0,0,0,0,0,-1,1973,1485,0,0
756,-461,0,0,0,0,0,0,0,0,0,-1,1980,1485,0,0
763,-461,0,0,0,0,0,0,0,0,0,-1,1987,1485,0,0
770,-461,0,0,0,0,0,0,0,0,0,-1,1994,1485,0,0
777,-461,0,0,0,0,0,0,0,0,0,-1,2001,1485,0,0
784,-461,0,0,0,0,0,0,0,0,0,-1,2008,1485,0,0
791,-461,0,0,0,0,0,0,0,0,0,-1,2015,1485,0,0
798,-461,0,0,0,0,0,0,0,0,0,-1,2022,1485,0,0
805,-461,0,0,0,0,0,0,0,0,0,-1,2029,1485,0,0
812,-461,0,0,0,0,0,0,0,0,0,-1,2036,1485,0,0
-700,-468,0,0,0,0,0,0,0,0,0,-1,524,1492,0,0
-693,-468,0,0,0,0,0,0,0,0,0,-1,531,1492,0,0
-686,-468,0,0,0,0,0,0,0,0,0,-1,538,1492,0,0
-679,-468,0,0,0,0,0,0,0,0,0,-1,545,1492,0,0
-672,-468,0,0,0,0,0,0,0,0,0,-1,552,1492,0,0
-665,-468,0,0,0,0,0,0,0,0,0,-1,559,1492,0,0
-658,-468,0,0,0,0,0,0,0,0,0,-1,566,1492,0,0
-651,-468,0,0,0,0,0,0,0,0,0,-1,573,1492,0,0
-644,-468,0,0,0,0,0,0,0,0,0,-1,580,1492,0,0
-637,-468,0,0,0,0,0,0,0,0,0,-1,587,1492,0,0
-630,-468,0,0,0,0,0,0,0,0,0,-1,594,1492,0,0
-623,-468,0,0,0,0,0,0,0,0,0,-1,601,1492,0,0
-616,-468,0,0,0,0,0,0,0,0,0,-1,608,1492,0,0
-609,-468,0,0,0,0,0,0,0,0,0,-1,615,1492,0,0
-602,-468,0,0,0,0,0,0,0,0,0,-1,622,1492,0,0
-595,-468,0,0,0,0,0,0,0,0,0,-1,629,1492,0,0
-588,-468,0,0,0,0,0,0,0,0,0,-1,636,1492,0,0
-581,-468,0,0,0,0,0,0,0,0,0,-1,643,1492,0,0
-574,-468,0,0,0,0,0,0,0,0,0,-1,650,1492,0,0
-567,-468,-11.2603,1.8042,0,0,0,0,0,0,0,-1,657,1492,-11.2603,-1.80424
-560,-468,-8.77441,2.23694,0,0,0,0,0,0,0,-1,664,1492,-8.77443,-2.23692
-553,-468,-5.94061,9.26318,0,0,0,0,0,0,0,-1,671,1492,-5.94062,-9.26322
-546,-468,-5.5108,8.79199,0,0,0,0,0,0,0,-1,678,1492,-5.51082,-8.79198
-539,-468,-3.29138,2.46851,0,0,0,0,0,0,0,-1,685,1492,-3.29138,-2.46848
-532,-468,-2.71686,2.85693,0,0,0,0,0,0,0,-1,692,1492,-2.71687,-2.85688
-525,-468,-2.28113,3.24939,0.0260404,-0.00340049,0.0376557,0.0517507,-0.0291107,0.59907,0.0472914,0.0457865,699,1492,-2.28115,-3.24936
-518,-468,-2.1192,3.65173,0.0134823,-0.00284749,0.0275009,0.0340047,-0.0233699,0.641095,0.0333144,0.0441692,706,1492,-2.11921,-3.65175
-511,-468,-1.93652,4.04407,0.00278658,-0.00241521,0.0184639,0.0188319,-0.0184605,0.715427,0.0215311,0.0324896,713,1492,-1.9365,-4.0441
-504,-468,-1.83246,4.23755,-0.00198869,-0.00193672,0.0124891,0.0105265,-0.0144519,0.786438,0.0144805,0.0138015,720,1492,-1.83246,-4.2376
-497,-468,-1.86102,4.47095,-0.00189936,-0.00135404,0.00851207,0.00688974,-0.0101431,0.801409,0.00989355,0.00934341,727,1492,-1.86102,-4.47094
-490,-468,-1.84808,4.67993,-0.00152843,-0.00126918,0.00535047,0.00395324,-0.00675084,0.797509,0.00624996,0.00756397,734,1492,-1.84805,-4.67988
-483,-468,-1.85541,4.87158,-0.000859388,-0.00188301,0.00297963,0.00165207,-0.00439447,0.700343,0.00360867,0.00816525,741,1492,-1.85541,-4.87154
-476,-468,-1.85767,5.07581,-0.000253721,-0.00247178,0.000852182,3.58778e-05,-0.00276138,0.327587,0.001853,0.00902643,748,1492,-1.85767,-5.07585
-469,-468,-1.85626,5.27734,3.06151e-05,-0.00317063,-0.000689831,0.000172938,-0.00331295,-0.203461,0.00226848,0.0126635,755,1492,-1.85624,-5.27729
-462,-468,-1.81647,5.48267,0.000615049,-0.00448556,-0.00196499,0.00128426,-0.00515477,-0.328244,0.00393508,0.0216428,762,1492,-1.81649,-5.48261
-455,-468,-1.80975,5.63721,0.00108738,-0.00602852,-0.0030148,0.0021929,-0.00713404,-0.351474,0.00563117,0.0224886,769,1492,-1.80977,-5.63721
-448,-468,-1.85663,5.88245,0.00163125,-0.00779182,-0.00372062,0.00292318,-0.00908375,-0.334209,0.00722996,0.0139939,776,1492,-1.85664,-5.88239
-441,-468,-1.86847,6.10413,0.00200449,-0.00936446,-0.00430061,0.00344803,-0.010808,-0.323841,0.00858857,0.0116576,783,1492,-1.86848,-6.1041
-434,-468,-1.83044,6.30322,0.00178002,-0.0107688,-0.00462164,0.00329841,-0.0122872,-0.31743,0.00948409,0.0114612,790,1492,-1.83044,-6.3032
-427,-468,-1.77313,6.46191,0.00184264,-0.0121171,-0.00497723,0.00343548,-0.01371,-0.309725,0.0104747,0.014809,797,1492,-1.77312,-6.46192
-420,-468,-1.68225,6.57959,0.00170951,-0.0125899,-0.00487433,0.00321298,-0.0140933,-0.299187,0.0106297,0.0260511,804,1492,-1.68227,-6.57958
-413,-468,-1.59338,6.59241,0.00113761,-0.0127674,-0.00429346,0.00235647,-0.0139862,-0.276609,0.0102008,0.047036,811,1492,-1.59341,-6.59239
-406,-468,-1.37793,6.50696,0,0,0,0,0,0,0,-1,818,1492,-1.3779,-6.50697
-399,-468,-1.64758,6.06042,0,0,0,0,0,0,0,-1,825,1492,-1.64761,-6.06044
-392,-468,-0.419495,5.10693,0,0,0,0,0,0,0,-1,832,1492,-0.419505,-5.10688
-385,-468,0.465759,5.35864,0,0,0,0,0,0,0,-1,839,1492,0.465732,-5.35864
-378,-468,1.99835,3.25391,0,0,0,0,0,0,0,-1,846,1492,1.99837,-3.2539
-371,-468,-0.31842,3.1532,0,0,0,0,0,0,0,-1,853,1492,-0.318441,-3.15324
-364,-468,-0.966736,2.14563,0,0,0,0,0,0,0,-1,860,1492,-0.966735,-2.14557
-357,-468,-3.06787,3.22742,0,0,0,0,0,0,0,-1,867,1492,-3.06784,-3.2274
-350,-468,-3.18658,4.12659,0,0,0,0,0,0,0,-1,874,1492,-3.18659,-4.12658
-343,-468,0,0,0,0,0,0,0,0,0,-1,881,1492,0,0
-336,-468,0,0,0,0,0,0,0,0,0,-1,888,1492,0,0
-329,-468,0,0,0,0,0,0,0,0,0,-1,895,1492,0,0
-322,-468,0,0,0,0,0,0,0,0,0,-1,902,1492,0,0
-315,-468,0,0,0,0,0,0,0,0,0,-1,909,1492,0,0
-308,-468,0,0,0,0,0,0,0,0,0,-1,916,1492,0,0
-301,-468,0,0,0,0,0,0,0,0,0,-1,923,1492,0,0
-294,-468,0,0,0,0,0,0,0,0,0,-1,930,1492,0,0
-287,-468,0,0,0,0,0,0,0,0,0,-1,937,1492,0,0
-280,-468,0,0,0,0,0,0,0,0,0,-1,944,1492,0,0
-273,-468,0,0,0,0,0,0,0,0,0,-1,951,1492,0,0
-266,-468,0,0,0,0,0,0,0,0,0,-1,958,1492,0,0
-259,-468,0,0,0,0,0,0,0,0,0,-1,965,1492,0,0
-252,-468,0,0,0,0,0,0,0,0,0,-1,972,1492,0,0
-245,-468,0,0,0,0,0,0,0,0,0,-1,979,1492,0,0
-238,-468,0,0,0,0,0,0,0,0,0,-1,986,1492,0,0
-231,-468,0,0,0,0,0,0,0,0,0,-1,993,1492,0,0
-224,-468,0,0,0,0,0,0,0,0,0,-1,1000,1492,0,0
-217,-468,0,0,0,0,0,0,0,0,0,-1,1007,1492,0,0
-210,-468,0,0,0,0,0,0,0,0,0,-1,1014,1492,0,0
-203,-468,0,0,0,0,0,0,0,0,0,-1,1021,1492,0,0
-196,-468,0,0,0,0,0,0,0,0,0,-1,1028,1492,0,0
-189,-468,0,0,0,0,0,0,0,0,0,-1,1035,1492,0,0
-182,-468,0,0,0,0,0,0,0,0,0,-1,1042,1492,0,0
-175,-468,0,0,0,0,0,0,0,0,0,-1,1049,1492,0,0
-168,-468,0,0,0,0,0,0,0,0,0,-1,1056,1492,0,0
-161,-468,0,0,0,0,0,0,0,0,0,-1,1063,1492,0,0
-154,-468,0,0,0,0,0,0,0,0,0,-1,1070,1492,0,0
-147,-468,0,0,0,0,0,0,0,0,0,-1,1077,1492,0,0
-140,-468,0,0,0,0,0,0,0,0,0,-1,1084,1492,0,0
-133,-468,0,0,0,0,0,0,0,0,0,-1,1091,1492,0,0
-126,-468,0,0,0,0,0,0,0,0,0,-1,1098,1492,0,0
-119,-468,0,0,0,0,0,0,0,0,0,-1,1105,1492,0,0
-112,-468,0,0,0,0,0,0,0,0,0,-1,1112,1492,0,0
-105,-468,0,0,0,0,0,0,0,0,0,-1,1119,1492,0,0
-98,-468,0,0,0,0,0,0,0,0,0,-1,1126,1492,0,0
-91,-468,0,0,0,0,0,0,0,0,0,-1,1133,1492,0,0
-84,-468,0,0,0,0,0,0,0,0,0,-1,1140,1492,0,0
-77,-468,0,0,0,0,0,0,0,0,0,-1,1147,1492,0,0
-70,-468,0,0,0,0,0,0,0,0,0,-1,1154,1492,0,0
-63,-468,0,0,0,0,0,0,0,0,0,-1,1161,1492,0,0
-56,-468,0,0,0,0,0,0,0,0,0,-1,1168,1492,0,0
-49,-468,0,0,0,0,0,0,0,0,0,-1,1175,1492,0,0
-42,-468,0,0,0,0,0,0,0,0,0,-1,1182,1492,0,0
-35,-468,0,0,0,0,0,0,0,0,0,-1,1189,1492,0,0
-28,-468,0,0,0,0,0,0,0,0,0,-1,1196,1492,0,0
-21,-468,0,0,0,0,0,0,0,0,0,-1,1203,1492,0,0
-14,-468,0,0,0,0,0,0,0,0,0,-1,1210,1492,0,0
-7,-468,0,0,0,0,0,0,0,0,0,-1,1217,1492,0,0
0,-468,0,0,0,0,0,0,0,0,0,-1,1224,1492,0,0
7,-468,0,0,0,0,0,0,0,0,0,-1,1231,1492,0,0
14,-468,0,0,0,0,0,0,0,0,0,-1,1238,1492,0,0
21,-468,0,0,0,0,0,0,0,0,0,-1,1245,1492,0,0
28,-468,0,0,0,0,0,0,0,0,0,-1,1252,1492,0,0
35,-468,0,0,0,0,0,0,0,0,0,-1,1259,1492,0,0
42,-468,0,0,0,0,0,0,0,0,0,-1,1266,1492,0,0
49,-468,0,0,0,0,0,0,0,0,0,-1,1273,1492,0,0
56,-468,0,0,0,0,0,0,0,0,0,-1,1280,1492,0,0
63,-468,0,0,0,0,0,0,0,0,0,-1,1287,1492,0,0
70,-468,0,0,0,0,0,0,0,0,0,-1,1294,1492,0,0
77,-468,0,0,0,0,0,0,0,0,0,-1,1301,1492,0,0
84,-468,0,0,0,0,0,0,0,0,0,-1,1308,1492,0,0
91,-468,0,0,0,0,0,0,0,0,0,-1,1315,1492,0,0
98,-468,0,0,0,0,0,0,0,0,0,-1,1322,1492,0,0
105,-468,0,0,0,0,0,0,0,0,0,-1,1329,1492,0,0
112,-468,0,0,0,0,0,0,0,0,0,-1,1336,1492,0,0
119,-468,0,0,0,0,0,0,0,0,0,-1,1343,1492,0,0
126,-468,0,0,0,0,0,0,0,0,0,-1,1350,1492,0,0
133,-468,0,0,0,0,0,0,0,0,0,-1,1357,1492,0,0
140,-468,0,0,0,0,0,0,0,0,0,-1,1364,1492,0,0
147,-468,0,0,0,0,0,0,0,0,0,-1,1371,1492,0,0
154,-468,0,0,0,0,0,0,0,0,0,-1,1378,1492,0,0
161,-468,0,0,0,0,0,0,0,0,0,-1,1385,1492,0,0
168,-468,0,0,0,0,0,0,0,0,0,-1,1392,1492,0,0
175,-468,0,0,0,0,0,0,0,0,0,-1,1399,1492,0,0
182,-468,0,0,0,0,0,0,0,0,0,-1,1406,1492,0,0
189,-468,0,0,0,0,0,0,0,0,0,-1,1413,1492,0,0
196,-468,0,0,0,0,0,0,0,0,0,-1,1420,1492,0,0
203,-468,0,0,0,0,0,0,0,0,0,-1,1427,1492,0,0
210,-468,0,0,0,0,0,0,0,0,0,-1,1434,1492,0,0
217,-468,0,0,0,0,0,0,0,0,0,-1,1441,1492,0,0
224,-468,0,0,0,0,0,0,0,0,0,-1,1448,1492,0,0
231,-468,0,0,0,0,0,0,0,0,0,-1,1455,1492,0,0
238,-468,0,0,0,0,0,0,0,0,0,-1,1462,1492,0,0
245,-468,0,0,0,0,0,0,0,0,0,-1,1469,1492,0,0
252,-468,0,0,0,0,0,0,0,0,0,-1,1476,1492,0,0
259,-468,0,0,0,0,0,0,0,0,0,-1,1483,1492,0,0
266,-468,0,0,0,0,0,0,0,0,0,-1,1490,1492,0,0
273,-468,0,0,0,0,0,0,0,0,0,-1,1497,1492,0,0
280,-468,0,0,0,0,0,0,0,0,0,-1,1504,1492,0,0
287,-468,0,0,0,0,0,0,0,0,0,-1,1511,1492,0,0
294,-468,0,0,0,0,0,0,0,0,0,-1,1518,1492,0,0
301,-468,0,0,0,0,0,0,0,0,0,-1,1525,1492,0,0
308,-468,0,0,0,0,0,0,0,0,0,-1,1532,1492,0,0
315,-468,0,0,0,0,0,0,0,0,0,-1,1539,1492,0,0
322,-468,0,0,0,0,0,0,0,0,0,-1,1546,1492,0,0
329,-468,0,0,0,0,0,0,0,0,0,-1,1553,1492,0,0
336,-468,0,0,0,0,0,0,0,0,0,-1,1560,1492,0,0
343,-468,0,0,0,0,0,0,0,0,0,-1,1567,1492,0,0
350,-468,0,0,0,0,0,0,0,0,0,-1,1574,1492,0,0
357,-468,0,0,0,0,0,0,0,0,0,-1,1581,1492,0,0
364,-468,0,0,0,0,0,0,0,0,0,-1,1588,1492,0,0
371,-468,0,0,0,0,0,0,0,0,0,-1,1595,1492,0,0
378,-468,0,0,0,0,0,0,0,0,0,-1,1602,1492,0,0
385,-468,0,0,0,0,0,0,0,0,0,-1,1609,1492,0,0
392,-468,0,0,0,0,0,0,0,0,0,-1,1616,1492,0,0
399,-468,0,0,0,0,0,0,0,0,0,-1,1623,1492,0,0
406,-468,0,0,0,0,0,0,0,0,0,-1,1630,1492,0,0
413,-468,0,0,0,0,0,0,0,0,0,-1,1637,1492,0,0
420,-468,0,0,0,0,0,0,0,0,0,-1,1644,1492,0,0
427,-468,0,0,0,0,0,0,0,0,0,-1,1651,1492,0,0
434,-468,0,0,0,0,0,0,0,0,0,-1,1658,1492,0,0
441,-468,0,0,0,0,0,0,0,0,0,-1,1665,1492,0,0
448,-468,0,0,0,0,0,0,0,0,0,-1,1672,1492,0,0
455,-468,0,0,0,0,0,0,0,0,0,-1,1679,1492,0,0
462,-468,0,0,0,0,0,0,0,0,0,-1,1686,1492,0,0
469,-468,15.6879,1.2677,0,0,0,0,0,0,0,-1,1693,1492,15.6879,-1.26772
476,-468,14.9318,1.61865,0,0,0,0,0,0,0,-1,1700,1492,14.9318,-1.61869
483,-468,9.87329,3.38733,0,0,0,0,0,0,0,-1,1707,1492,9.87329,-3.38737
490,-468,10.3018,2.82959,0,0,0,0,0,0,0,-1,1714,1492,10.3017,-2.82959
497,-468,10.6504,2.51782,0,0,0,0,0,0,0,-1,1721,1492,10.6504,-2.5178
504,-468,12.2002,3.88367,0,0,0,0,0,0,0,-1,1728,1492,12.2002,-3.8837
511,-468,11.2576,5.18835,0,0,0,0,0,0,0,-1,1735,1492,11.2576,-5.18835
518,-468,9.03796,6.02148,0,0,0,0,0,0,0,-1,1742,1492,9.03793,-6.02149
525,-468,8.65503,6.36401,0,0,0,0,0,0,0,-1,1749,1492,8.65501,-6.36405
532,-468,10.5459,7.34985,0,0,0,0,0,0,0,-1,1756,1492,10.5458,-7.34981
539,-468,10.0747,8.04968,0,0,0,0,0,0,0,-1,1763,1492,10.0746,-8.0497
546,-468,9.83838,8.08435,-0.0171634,-0.0155215,0.0177664,0.00144286,-0.0341278,0.808487,0.0232477,0.0492006,1770,1492,9.83838,-8.08431
553,-468,9.70959,7.93652,-0.0133182,-0.0133332,0.0143137,0.000987981,-0.0276394,0.785136,0.0187643,0.0338893,1777,1492,9.70955,-7.93658
560,-468,9.57751,7.93311,-0.010167,-0.0111248,0.0113035,0.000667738,-0.0219596,0.764227,0.0148673,0.0176421,1784,1492,9.57749,-7.93307
567,-468,9.54468,7.79041,-0.00726235,-0.00947765,0.00898595,0.000683959,-0.017424,0.724075,0.0118505,0.013492,1791,1492,9.54467,-7.79037
574,-468,9.55261,7.58472,-0.00525932,-0.00736299,0.00697374,0.000741459,-0.0133638,0.710548,0.00916633,0.0133564,1798,1492,9.55267,-7.58476
581,-468,9.55481,7.39929,-0.00384319,-0.00591631,0.0052629,0.000484263,-0.0102438,0.688165,0.00699618,0.0130953,1805,1492,9.55475,-7.39925
588,-468,9.53943,7.24243,-0.00288281,-0.0048622,0.00415426,0.000398016,-0.00814303,0.66846,0.0055661,0.011517,1812,1492,9.53946,-7.24245
595,-468,9.54126,7.06946,-0.00207336,-0.00400066,0.00329461,0.000395634,-0.00646966,0.643121,0.00445085,0.0106564,1819,1492,9.54123,-7.06941
602,-468,9.54529,6.87146,-0.00150123,-0.00359988,0.00267478,0.000322691,-0.0054238,0.598471,0.00372809,0.00924017,1826,1492,9.54526,-6.87149
609,-468,9.54773,6.68103,-0.000956655,-0.00348445,0.00230074,0.000404493,-0.0048456,0.534229,0.00337332,0.00895683,1833,1492,9.54773,-6.68099
616,-468,9.54382,6.4978,-0.000416646,-0.00413065,0.00227209,0.000660775,-0.00520807,0.442794,0.00371196,0.00919907,1840,1492,9.54383,-6.49786
623,-468,9.53552,6.33362,0.000109605,-0.00518883,0.00234897,0.00100101,-0.00608024,0.3627,0.00442506,0.0100202,1847,1492,9.53548,-6.3336
630,-468,9.55713,6.14954,0.000667038,-0.00661346,0.00252645,0.00145786,-0.00740428,0.303355,0.00548708,0.0103728,1854,1492,9.55709,-6.14959
637,-468,9.5863,5.95337,0.00144982,-0.00866947,0.00293215,0.00223804,-0.00945769,0.262612,0.00716856,0.0137868,1861,1492,9.58629,-5.9534
644,-468,9.57397,5.80823,0.00250106,-0.011235,0.00341495,0.00330321,-0.0120371,0.230713,0.00932296,0.0295946,1868,1492,9.57393,-5.80818
651,-468,9.77698,5.69031,0.00398943,-0.0143034,0.00386677,0.00477321,-0.0150872,0.199987,0.0119707,0.0457768,1875,1492,9.77696,-5.6903
658,-468,9.91516,5.44885,0.00624434,-0.0177557,0.00399409,0.00689158,-0.0184029,0.160653,0.0150995,0.0426928,1882,1492,9.91514,-5.4488
665,-468,10.0146,6.0011,0,0,0,0,0,0,0,-1,1889,1492,10.0146,-6.00104
672,-468,8.50745,4.37378,0,0,0,0,0,0,0,-1,1896,1492,8.50749,-4.3738
679,-468,11.2191,1.91968,0,0,0,0,0,0,0,-1,1903,1492,11.2191,-1.91965
686,-468,11.9252,1.42285,0,0,0,0,0,0,0,-1,1910,1492,11.9252,-1.42291
693,-468,0,0,0,0,0,0,0,0,0,-1,1917,1492,0,0
700,-468,0,0,0,0,0,0,0,0,0,-1,1924,1492,0,0
707,-468,0,0,0,0,0,0,0,0,0,-1,1931,1492,0,0
714,-468,0,0,0,0,0,0,0,0,0,-1,1938,1492,0,0
721,-468,0,0,0,0,0,0,0,0,0,-1,1945,1492,0,0
728,-468,0,0,0,0,0,0,0,0,0,-1,1952,1492,0,0
735,-468,0,0,0,0,0,0,0,0,0,-1,1959,1492,0,0
742,-468,0,0,0,0,0,0,0,0,0,-1,1966,1492,0,0
749,-468,0,0,0,0,0,0,0,0,0,-1,1973,1492,0,0
756,-468,0,0,0,0,0,0,0,0,0,-1,1980,1492,0,0
763,-468,0,0,0,0,0,0,0,0,0,-1,1987,1492,0,0
770,-468,0,0,0,0,0,0,0,0,0,-1,1994,1492,0,0
777,-468,0,0,0,0,0,0,0,0,0,-1,2001,1492,0,0
784,-468,0,0,0,0,0,0,0,0,0,-1,2008,1492,0,0
791,-468,0,0,0,0,0,0,0,0,0,-1,2015,1492,0,0
798,-468,0,0,0,0,0,0,0,0,0,-1,2022,1492,0,0
805,-468,0,0,0,0,0,0,0,0,0,-1,2029,1492,0,0
812,-468,0,0,0,0,0,0,0,0,0,-1,2036,1492,0,0
-700,-475,0,0,0,0,0,0,0,0,0,-1,524,1499,0,0
-693,-475,0,0,0,0,0,0,0,0,0,-1,531,1499,0,0
-686,-475,0,0,0,0,0,0,0,0,0,-1,538,1499,0,0
-679,-475,0,0,0,0,0,0,0,0,0,-1,545,1499,0,0
-672,-475,0,0,0,0,0,0,0,0,0,-1,552,1499,0,0
-665,-475,0,0,0,0,0,0,0,0,0,-1,559,1499,0,0
-658,-475,0,0,0,0,0,0,0,0,0,-1,566,1499,0,0
-651,-475,0,0,0,0,0,0,0,0,0,-1,573,1499,0,0
-644,-475,0,0,0,0,0,0,0,0,0,-1,580,1499,0,0
-637,-475,0,0,0,0,0,0,0,0,0,-1,587,1499,0,0
-630,-475,0,0,0,0,0,0,0,0,0,-1,594,1499,0,0
-623,-475,0,0,0,0,0,0,0,0,0,-1,601,1499,0,0
-616,-475,0,0,0,0,0,0,0,0,0,-1,608,1499,0,0
-609,-475,0,0,0,0,0,0,0,0,0,-1,615,1499,0,0
-602,-475,0,0,0,0,0,0,0,0,0,-1,622,1499,0,0
-595,-475,0,0,0,0,0,0,0,0,0,-1,629,1499,0,0
-588,-475,0,0,0,0,0,0,0,0,0,-1,636,1499,0,0
-581,-475,0,0,0,0,0,0,0,0,0,-1,643,1499,0,0
-574,-475,0,0,0,0,0,0,0,0,0,-1,650,1499,0,0
-567,-475,0,0,0,0,0,0,0,0,0,-1,657,1499,0,0
-560,-475,-9.42731,9.29517,0,0,0,0,0,0,0,-1,664,1499,-9.42731,-9.29519
-553,-475,-8.15131,8.78369,0,0,0,0,0,0,0,-1,671,1499,-8.15131,-8.78367
-546,-475,-6.63885,8.42383,0,0,0,0,0,0,0,-1,678,1499,-6.63886,-8.42381
-539,-475,-5.37665,8.17761,0,0,0,0,0,0,0,-1,685,1499,-5.37664,-8.17761
-532,-475,-2.435,2.87646,0,0,0,0,0,0,0,-1,692,1499,-2.43501,-2.87641
-525,-475,-2.02972,3.3938,0.0178063,-0.00622907,0.0411428,0.0486506,-0.0370734,0.643303,0.049643,0.0426449,699,1499,-2.0297,-3.39381
-518,-475,-2.13129,3.7146,0.00649405,-0.00514383,0.0304572,0.0316832,-0.030333,0.691009,0.0358079,0.0465474,706,1499,-2.1313,-3.71461
-511,-475,-2.09473,4.08826,-0.00285087,-0.00418995,0.0209793,0.0174696,-0.0245104,0.769446,0.0243505,0.0437382,713,1499,-2.09471,-4.08826
-504,-475,-1.65173,4.26807,-0.0063614,-0.00318612,0.0145098,0.00982265,-0.0193702,0.839891,0.0171523,0.0267197,720,1499,-1.65173,-4.26803
-497,-475,-1.65369,4.49976,-0.00513269,-0.00206801,0.0100958,0.00661104,-0.0138117,0.860713,0.0120329,0.0133776,727,1499,-1.65372,-4.49978
-490,-475,-1.64203,4.67676,-0.00383758,-0.00141894,0.00663533,0.00411637,-0.0093729,0.875536,0.0079827,0.00808445,734,1499,-1.642,-4.67673
-483,-475,-1.63232,4.88599,-0.00249924,-0.00146099,0.00407189,0.00212473,-0.00608497,0.848801,0.00492026,0.00842201,741,1499,-1.63235,-4.88603
-476,-475,-1.63763,5.08923,-0.00125361,-0.0015909,0.00181385,0.00039942,-0.00324393,0.739043,0.00230732,0.00972213,748,1499,-1.63765,-5.0892
-469,-475,-1.63312,5.27979,-0.000519944,-0.00182546,0.000267463,-0.000467274,-0.00187813,0.194439,0.00112903,0.0119173,755,1499,-1.63313,-5.27984
-462,-475,-1.5993,5.4856,0.000402717,-0.00275392,-0.000942845,0.000662889,-0.00301409,-0.269243,0.00226296,0.0168426,762,1499,-1.59933,-5.48563
-455,-475,-1.61133,5.67603,0.00114198,-0.00383984,-0.00188124,0.00177256,-0.00447042,-0.323424,0.00371488,0.0150688,769,1499,-1.61135,-5.67604
-448,-475,-1.6452,5.90283,0.00187113,-0.0051942,-0.00228327,0.00254478,-0.00586785,-0.286896,0.00498174,0.013349,776,1499,-1.64522,-5.90282
-441,-475,-1.6618,6.14856,0.00242805,-0.00630223,-0.00257974,0.00313336,-0.00700755,-0.266883,0.00599559,0.0150235,783,1499,-1.66182,-6.1485
-434,-475,-1.64575,6.29565,0.00239883,-0.00722631,-0.00259316,0.003053,-0.00788049,-0.247113,0.00651433,0.0101616,790,1499,-1.64575,-6.29565
-427,-475,-1.60699,6.51392,0.00272288,-0.00812413,-0.00263472,0.00332899,-0.00873023,-0.22611,0.00719141,0.0127534,797,1499,-1.60698,-6.51386
-420,-475,-1.53595,6.68762,0.0029125,-0.00826717,-0.00229148,0.00336395,-0.00871862,-0.194521,0.0072006,0.0189414,804,1499,-1.53594,-6.68757
-413,-475,-1.37378,6.66223,0.00266025,-0.00842384,-0.0015525,0.0028736,-0.00863719,-0.136565,0.00691788,0.0362661,811,1499,-1.37377,-6.66218
-406,-475,-1.06372,6.72217,0,0,0,0,0,0,0,-1,818,1499,-1.06374,-6.72218
-399,-475,-1.07129,7.24512,0,0,0,0,0,0,0,-1,825,1499,-1.0713,-7.24507
-392,-475,-0.826538,7.61597,0,0,0,0,0,0,0,-1,832,1499,-0.826525,-7.616
-385,-475,1.18372,2.73999,0,0,0,0,0,0,0,-1,839,1499,1.18372,-2.73995
-378,-475,1.31409,2.90149,0,0,0,0,0,0,0,-1,846,1499,1.31411,-2.90151
-371,-475,2.3476,3.31116,0,0,0,0,0,0,0,-1,853,1499,2.34761,-3.31121
-364,-475,1.04462,9.05823,0,0,0,0,0,0,0,-1,860,1499,1.04461,-9.05825
-357,-475,-0.262756,7.97205,0,0,0,0,0,0,0,-1,867,1499,-0.262784,-7.97205
-350,-475,-2.77173,4.35486,0,0,0,0,0,0,0,-1,874,1499,-2.77175,-4.35491
-343,-475,-6.81641,-1.95203,0,0,0,0,0,0,0,-1,881,1499,-6.81643,1.95198
-336,-475,0,0,0,0,0,0,0,0,0,-1,888,1499,0,0
-329,-475,0,0,0,0,0,0,0,0,0,-1,895,1499,0,0
-322,-475,0,0,0,0,0,0,0,0,0,-1,902,1499,0,0
-315,-475,0,0,0,0,0,0,0,0,0,-1,909,1499,0,0
-308,-475,0,0,0,0,0,0,0,0,0,-1,916,1499,0,0
-301,-475,0,0,0,0,0,0,0,0,0,-1,923,1499,0,0
-294,-475,0,0,0,0,0,0,0,0,0,-1,930,1499,0,0
-287,-475,0,0,0,0,0,0,0,0,0,-1,937,1499,0,0
-280,-475,0,0,0,0,0,0,0,0,0,-1,944,1499,0,0
-273,-475,0,0,0,0,0,0,0,0,0,-1,951,1499,0,0
-266,-475,0,0,0,0,0,0,0,0,0,-1,958,1499,0,0
-259,-475,0,0,0,0,0,0,0,0,0,-1,965,1499,0,0
-252,-475,0,0,0,0,0,0,0,0,0,-1,972,1499,0,0
-245,-475,0,0,0,0,0,0,0,0,0,-1,979,1499,0,0
-238,-475,0,0,0,0,0,0,0,0,0,-1,986,1499,0,0
-231,-475,0,0,0,0,0,0,0,0,0,-1,993,1499,0,0
-224,-475,0,0,0,0,0,0,0,0,0,-1,1000,1499,0,0
-217,-475,0,0,0,0,0,0,0,0,0,-1,1007,1499,0,0
-210,-475,0,0,0,0,0,0,0,0,0,-1,1014,1499,0,0
-203,-475,0,0,0,0,0,0,0,0,0,-1,1021,1499,0,0
-196,-475,0,0,0,0,0,0,0,0,0,-1,1028,1499,0,0
-189,-475,0,0,0,0,0,0,0,0,0,-1,1035,1499,0,0
-182,-475,0,0,0,0,0,0,0,0,0,-1,1042,1499,0,0
-175,-475,0,0,0,0,0,0,0,0,0,-1,1049,1499,0,0
-168,-475,0,0,0,0,0,0,0,0,0,-1,1056,1499,0,0
-161,-475,0,0,0,0,0,0,0,0,0,-1,1063,1499,0,0
-154,-475,0,0,0,0,0,0,0,0,0,-1,1070,1499,0,0
-147,-475,0,0,0,0,0,0,0,0,0,-1,1077,1499,0,0
-140,-475,0,0,0,0,0,0,0,0,0,-1,1084,1499,0,0
-133,-475,0,0,0,0,0,0,0,0,0,-1,1091,1499,0,0
-126,-475,0,0,0,0,0,0,0,0,0,-1,1098,1499,0,0
-119,-475,0,0,0,0,0,0,0,0,0,-1,1105,1499,0,0
-112,-475,0,0,0,0,0,0,0,0,0,-1,1112,1499,0,0
-105,-475,0,0,0,0,0,0,0,0,0,-1,1119,1499,0,0
-98,-475,0,0,0,0,0,0,0,0,0,-1,1126,1499,0,0
-91,-475,0,0,0,0,0,0,0,0,0,-1,1133,1499,0,0
-84,-475,0,0,0,0,0,0,0,0,0,-1,1140,1499,0,0
-77,-475,0,0,0,0,0,0,0,0,0,-1,1147,1499,0,0
-70,-475,0,0,0,0,0,0,0,0,0,-1,1154,1499,0,0
-63,-475,0,0,0,0,0,0,0,0,0,-1,1161,1499,0,0
-56,-475,0,0,0,0,0,0,0,0,0,-1,1168,1499,0,0
-49,-475,0,0,0,0,0,0,0,0,0,-1,1175,1499,0,0
-42,-475,0,0,0,0,0,0,0,0,0,-1,1182,1499,0,0
-35,-475,0,0,0,0,0,0,0,0,0,-1,1189,1499,0,0
-28,-475,0,0,0,0,0,0,0,0,0,-1,1196,1499,0,0
-21,-475,0,0,0,0,0,0,0,0,0,-1,1203,1499,0,0
-14,-475,0,0,0,0,0,0,0,0,0,-1,1210,1499,0,0
-7,-475,0,0,0,0,0,0,0,0,0,-1,1217,1499,0,0
0,-475,0,0,0,0,0,0,0,0,0,-1,1224,1499,0,0
7,-475,0,0,0,0,0,0,0,0,0,-1,1231,1499,0,0
14,-475,0,0,0,0,0,0,0,0,0,-1,1238,1499,0,0
21,-475,0,0,0,0,0,0,0,0,0,-1,1245,1499,0,0
28,-475,0,0,0,0,0,0,0,0,0,-1,1252,1499,0,0
35,-475,0,0,0,0,0,0,0,0,0,-1,1259,1499,0,0
42,-475,0,0,0,0,0,0,0,0,0,-1,1266,1499,0,0
49,-475,0,0,0,0,0,0,0,0,0,-1,1273,1499,0,0
56,-475,0,0,0,0,0,0,0,0,0,-1,1280,1499,0,0
63,-475,0,0,0,0,0,0,0,0,0,-1,1287,1499,0,0
70,-475,0,0,0,0,0,0,0,0,0,-1,1294,1499,0,0
77,-475,0,0,0,0,0,0,0,0,0,-1,1301,1499,0,0
84,-475,0,0,0,0,0,0,0,0,0,-1,1308,1499,0,0
91,-475,0,0,0,0,0,0,0,0,0,-1,1315,1499,0,0
98,-475,0,0,0,0,0,0,0,0,0,-1,1322,1499,0,0
105,-475,0,0,0,0,0,0,0,0,0,-1,1329,1499,0,0
112,-475,0,0,0,0,0,0,0,0,0,-1,1336,1499,0,0
119,-475,0,0,0,0,0,0,0,0,0,-1,1343,1499,0,0
126,-475,0,0,0,0,0,0,0,0,0,-1,1350,1499,0,0
133,-475,0,0,0,0,0,0,0,0,0,-1,1357,1499,0,0
140,-475,0,0,0,0,0,0,0,0,0,-1,1364,1499,0,0
147,-475,0,0,0,0,0,0,0,0,0,-1,1371,1499,0,0
154,-475,0,0,0,0,0,0,0,0,0,-1,1378,1499,0,0
161,-475,0,0,0,0,0,0,0,0,0,-1,1385,1499,0,0
168,-475,0,0,0,0,0,0,0,0,0,-1,1392,1499,0,0
175,-475,0,0,0,0,0,0,0,0,0,-1,1399,1499,0,0
182,-475,0,0,0,0,0,0,0,0,0,-1,1406,1499,0,0
189,-475,0,0,0,0,0,0,0,0,0,-1,1413,1499,0,0
196,-475,0,0,0,0,0,0,0,0,0,-1,1420,1499,0,0
203,-475,0,0,0,0,0,0,0,0,0,-1,1427,1499,0,0
210,-475,0,0,0,0,0,0,0,0,0,-1,1434,1499,0,0
217,-475,0,0,0,0,0,0,0,0,0,-1,1441,1499,0,0
224,-475,0,0,0,0,0,0,0,0,0,-1,1448,1499,0,0
231,-475,0,0,0,0,0,0,0,0,0,-1,1455,1499,0,0
238,-475,0,0,0,0,0,0,0,0,0,-1,1462,1499,0,0
245,-475,0,0,0,0,0,0,0,0,0,-1,1469,1499,0,0
252,-475,0,0,0,0,0,0,0,0,0,-1,1476,1499,0,0
259,-475,0,0,0,0,0,0,0,0,0,-1,1483,1499,0,0
266,-475,0,0,0,0,0,0,0,0,0,-1,1490,1499,0,0
273,-475,0,0,0,0,0,0,0,0,0,-1,1497,1499,0,0
280,-475,0,0,0,0,0,0,0,0,0,-1,1504,1499,0,0
287,-475,0,0,0,0,0,0,0,0,0,-1,1511,1499,0,0
294,-475,0,0,0,0,0,0,0,0,0,-1,1518,1499,0,0
301,-475,0,0,0,0,0,0,0,0,0,-1,1525,1499,0,0
308,-475,0,0,0,0,0,0,0,0,0,-1,1532,1499,0,0
315,-475,0,0,0,0,0,0,0,0,0,-1,1539,1499,0,0
322,-475,0,0,0,0,0,0,0,0,0,-1,1546,1499,0,0
329,-475,0,0,0,0,0,0,0,0,0,-1,1553,1499,0,0
336,-475,0,0,0,0,0,0,0,0,0,-1,1560,1499,0,0
343,-475,0,0,0,0,0,0,0,0,0,-1,1567,1499,0,0
350,-475,0,0,0,0,0,0,0,0,0,-1,1574,1499,0,0
357,-475,0,0,0,0,0,0,0,0,0,-1,1581,1499,0,0
364,-475,0,0,0,0,0,0,0,0,0,-1,1588,1499,0,0
371,-475,0,0,0,0,0,0,0,0,0,-1,1595,1499,0,0
378,-475,0,0,0,0,0,0,0,0,0,-1,1602,1499,0,0
385,-475,0,0,0,0,0,0,0,0,0,-1,1609,1499,0,0
392,-475,0,0,0,0,0,0,0,0,0,-1,1616,1499,0,0
399,-475,0,0,0,0,0,0,0,0,0,-1,1623,1499,0,0
406,-475,0,0,0,0,0,0,0,0,0,-1,1630,1499,0,0
413,-475,0,0,0,0,0,0,0,0,0,-1,1637,1499,0,0
420,-475,0,0,0,0,0,0,0,0,0,-1,1644,1499,0,0
427,-475,0,0,0,0,0,0,0,0,0,-1,1651,1499,0,0
434,-475,0,0,0,0,0,0,0,0,0,-1,1658,1499,0,0
441,-475,0,0,0,0,0,0,0,0,0,-1,1665,1499,0,0
448,-475,0,0,0,0,0,0,0,0,0,-1,1672,1499,0,0
455,-475,0,0,0,0,0,0,0,0,0,-1,1679,1499,0,0
462,-475,12.6372,0.275391,0,0,0,0,0,0,0,-1,1686,1499,12.6372,-0.27536
469,-475,15.6437,2.28296,0,0,0,0,0,0,0,-1,1693,1499,15.6437,-2.28293
476,-475,15.3302,2.71436,0,0,0,0,0,0,0,-1,1700,1499,15.3303,-2.7143
483,-475,14.7006,2.77881,0,0,0,0,0,0,0,-1,1707,1499,14.7005,-2.77885
490,-475,9.76526,3.76575,0,0,0,0,0,0,0,-1,1714,1499,9.7653,-3.76579
497,-475,12.5792,3.39417,0,0,0,0,0,0,0,-1,1721,1499,12.5792,-3.39417
504,-475,11.5964,4.55408,0,0,0,0,0,0,0,-1,1728,1499,11.5964,-4.55402
511,-475,10.6611,5.92505,0,0,0,0,0,0,0,-1,1735,1499,10.6612,-5.92511
518,-475,9.03394,6.40881,0,0,0,0,0,0,0,-1,1742,1499,9.03394,-6.40878
525,-475,10.8756,9.34717,0,0,0,0,0,0,0,-1,1749,1499,10.8757,-9.34721
532,-475,9.83521,8.151,0,0,0,0,0,0,0,-1,1756,1499,9.83515,-8.15098
539,-475,9.71643,8.1344,-0.018854,-0.0139417,0.0181313,0.00189906,-0.0346948,0.85272,0.0237881,0.0462525,1763,1499,9.7164,-8.13445
546,-475,9.52759,8.08777,-0.0144421,-0.0120819,0.0146053,0.00139084,-0.0279149,0.825711,0.0190904,0.0367338,1770,1499,9.52764,-8.08775
553,-475,9.44275,8.08667,-0.0110681,-0.0102464,0.0115744,0.000924367,-0.0222389,0.803138,0.0151435,0.0195,1777,1499,9.4427,-8.08667
560,-475,9.32861,7.98999,-0.00828399,-0.00840165,0.00892561,0.00058298,-0.0172686,0.782102,0.0117116,0.014254,1784,1499,9.32865,-7.99005
567,-475,9.38,7.76953,-0.00557698,-0.00717362,0.00695972,0.000630061,-0.0133807,0.728295,0.0091377,0.0144969,1791,1499,9.38003,-7.76956
574,-475,9.36035,7.58582,-0.00372697,-0.00539872,0.00529504,0.00079777,-0.00992345,0.707114,0.00689696,0.0149143,1798,1499,9.3603,-7.5858
581,-475,9.35229,7.41943,-0.00249505,-0.00433438,0.00390532,0.000597426,-0.00742686,0.66976,0.00516192,0.0116938,1805,1499,9.35235,-7.41945
588,-475,9.35083,7.24951,-0.00175443,-0.00371735,0.00311924,0.00053411,-0.00600589,0.632978,0.00419332,0.00983416,1812,1499,9.3508,-7.24945
595,-475,9.37012,7.06335,-0.00110124,-0.00318896,0.00253113,0.000592832,-0.00488303,0.589819,0.00346988,0.0111268,1819,1499,9.37006,-7.06339
602,-475,9.37744,6.84985,-0.000707782,-0.00313383,0.00217571,0.000570206,-0.00441182,0.531095,0.00314854,0.0121586,1826,1499,9.37742,-6.84988
609,-475,9.37817,6.67639,-0.000381939,-0.00340039,0.00206721,0.000668351,-0.00445068,0.470084,0.00321316,0.0110595,1833,1499,9.37813,-6.67642
616,-475,9.35974,6.51904,-9.64116e-05,-0.00443858,0.0023263,0.000914532,-0.00544952,0.409949,0.0039731,0.0104541,1840,1499,9.35976,-6.51909
623,-475,9.34534,6.33057,0.000135497,-0.0060168,0.00271351,0.00116128,-0.00704258,0.361423,0.00512618,0.010194,1847,1499,9.34534,-6.33055
630,-475,9.38245,6.13916,0.000396891,-0.00810329,0.00322807,0.00148381,-0.00919021,0.324786,0.0066766,0.011848,1854,1499,9.38246,-6.13918
637,-475,9.41003,5.99536,0.000855808,-0.0108674,0.00399823,0.00208957,-0.0121012,0.299306,0.00884663,0.024246,1861,1499,9.40998,-5.9954
644,-475,9.37476,5.85999,0,0,0,0,0,0,0,-1,1868,1499,9.37475,-5.85998
651,-475,9.85742,5.92554,0,0,0,0,0,0,0,-1,1875,1499,9.85741,-5.92555
658,-475,10.097,5.64282,0,0,0,0,0,0,0,-1,1882,1499,10.0971,-5.64286
665,-475,10.4399,5.22266,0,0,0,0,0,0,0,-1,1889,1499,10.4399,-5.2226
672,-475,9.38635,1.10474,0,0,0,0,0,0,0,-1,1896,1499,9.38629,-1.10475
679,-475,12.2594,1.31079,0,0,0,0,0,0,0,-1,1903,1499,12.2594,-1.31077
686,-475,0,0,0,0,0,0,0,0,0,-1,1910,1499,0,0
693,-475,0,0,0,0,0,0,0,0,0,-1,1917,1499,0,0
700,-475,0,0,0,0,0,0,0,0,0,-1,1924,1499,0,0
707,-475,0,0,0,0,0,0,0,0,0,-1,1931,1499,0,0
714,-475,0,0,0,0,0,0,0,0,0,-1,1938,1499,0,0
721,-475,0,0,0,0,0,0,0,0,0,-1,1945,1499,0,0
728,-475,0,0,0,0,0,0,0,0,0,-1,1952,1499,0,0
735,-475,0,0,0,0,0,0,0,0,0,-1,1959,1499,0,0
742,-475,0,0,0,0,0,0,0,0,0,-1,1966,1499,0,0
749,-475,0,0,0,0,0,0,0,0,0,-1,1973,1499,0,0
756,-475,0,0,0,0,0,0,0,0,0,-1,1980,1499,0,0
763,-475,0,0,0,0,0,0,0,0,0,-1,1987,1499,0,0
770,-475,0,0,0,0,0,0,0,0,0,-1,1994,1499,0,0
777,-475,0,0,0,0,0,0,0,0,0,-1,2001,1499,0,0
784,-475,0,0,0,0,0,0,0,0,0,-1,2008,1499,0,0
791,-475,0,0,0,0,0,0,0,0,0,-1,2015,1499,0,0
798,-475,0,0,0,0,0,0,0,0,0,-1,2022,1499,0,0
805,-475,0,0,0,0,0,0,0,0,0,-1,2029,1499,0,0
812,-475,0,0,0,0,0,0,0,0,0,-1,2036,1499,0,0
-700,-482,0,0,0,0,0,0,0,0,0,-1,524,1506,0,0
-693,-482,0,0,0,0,0,0,0,0,0,-1,531,1506,0,0
-686,-482,0,0,0,0,0,0,0,0,0,-1,538,1506,0,0
-679,-482,0,0,0,0,0,0,0,0,0,-1,545,1506,0,0
-672,-482,0,0,0,0,0,0,0,0,0,-1,552,1506,0,0
-665,-482,0,0,0,0,0,0,0,0,0,-1,559,1506,0,0
-658,-482,0,0,0,0,0,0,0,0,0,-1,566,1506,0,0
-651,-482,0,0,0,0,0,0,0,0,0,-1,573,1506,0,0
-644,-482,0,0,0,0,0,0,0,0,0,-1,580,1506,0,0
-637,-482,0,0,0,0,0,0,0,0,0,-1,587,1506,0,0
-630,-482,0,0,0,0,0,0,0,0,0,-1,594,1506,0,0
-623,-482,0,0,0,0,0,0,0,0,0,-1,601,1506,0,0
-616,-482,0,0,0,0,0,0,0,0,0,-1,608,1506,0,0
-609,-482,0,0,0,0,0,0,0,0,0,-1,615,1506,0,0
-602,-482,0,0,0,0,0,0,0,0,0,-1,622,1506,0,0
-595,-482,0,0,0,0,0,0,0,0,0,-1,629,1506,0,0
-588,-482,0,0,0,0,0,0,0,0,0,-1,636,1506,0,0
-581,-482,0,0,0,0,0,0,0,0,0,-1,643,1506,0,0
-574,-482,0,0,0,0,0,0,0,0,0,-1,650,1506,0,0
-567,-482,0,0,0,0,0,0,0,0,0,-1,657,1506,0,0
-560,-482,0,0,0,0,0,0,0,0,0,-1,664,1506,0,0
-553,-482,-9.06055,9.34314,0,0,0,0,0,0,0,-1,671,1506,-9.06056,-9.34312
-546,-482,-7.11084,8.48279,0,0,0,0,0,0,0,-1,678,1506,-7.11084,-8.48281
-539,-482,-0.796875,3.03101,0,0,0,0,0,0,0,-1,685,1506,-0.796858,-3.03106
-532,-482,-1.24597,3.54016,0.0221401,-0.0110673,0.0576518,0.0655315,-0.0544587,0.645193,0.0693747,0.0451289,692,1506,-1.24595,-3.5402
-525,-482,-1.97803,3.80225,0.0054807,-0.00957662,0.0441298,0.0427195,-0.0468154,0.70091,0.051711,0.0419301,699,1506,-1.978,-3.80229
-518,-482,-2.28088,3.71204,-0.00327405,-0.00773628,0.0333319,0.0279013,-0.0389117,0.75198,0.0387487,0.0472723,706,1506,-2.28089,-3.71208
-511,-482,-2.1723,3.73657,0,0,0,0,0,0,0,-1,713,1506,-2.17229,-3.7366
-504,-482,-1.55957,4.26587,-0.0118295,-0.00449348,0.0168976,0.00912966,-0.0254527,0.892277,0.0206942,0.0434277,720,1506,-1.55956,-4.26591
-497,-482,-1.37927,4.43579,-0.00922541,-0.00280841,0.0120459,0.00644897,-0.0184828,0.915554,0.0149428,0.023898,727,1506,-1.37928,-4.43585
-490,-482,-1.42902,4.63879,-0.0068762,-0.00163477,0.00822255,0.00437461,-0.0128856,0.93967,0.0103611,0.013802,734,1506,-1.42902,-4.63876
-483,-482,-1.41736,4.86401,-0.00477875,-0.00114571,0.00536988,0.00270658,-0.00863104,0.948496,0.00683718,0.00920766,741,1506,-1.41738,-4.86406
-476,-482,-1.42358,5.07288,-0.00284734,-0.000903833,0.00287142,0.00115581,-0.00490698,0.94856,0.00371698,0.00987906,748,1506,-1.4236,-5.0729
-469,-482,-1.43604,5.28162,-0.00163901,-0.000770692,0.00122066,9.07192e-05,-0.00250042,0.956259,0.00169799,0.0111536,755,1506,-1.43606,-5.2816
-462,-482,-1.42523,5.48157,-0.000389795,-0.00141921,-2.06147e-05,-0.000389382,-0.00141963,-0.0200148,0.000847003,0.0130013,762,1506,-1.42526,-5.4816
-455,-482,-1.42572,5.6687,0.00058228,-0.00217894,-0.000965036,0.000886122,-0.00248278,-0.305025,0.00201654,0.0131605,769,1506,-1.42571,-5.66865
-448,-482,-1.44275,5.91089,0.00142993,-0.00326828,-0.00119279,0.00171541,-0.00355376,-0.23492,0.00310326,0.0131415,776,1506,-1.44275,-5.91088
-441,-482,-1.46295,6.13989,0.00208912,-0.00407829,-0.00134273,0.00236877,-0.00435794,-0.205334,0.00393986,0.0122101,783,1506,-1.46298,-6.13985
-434,-482,-1.44122,6.32068,0.00216736,-0.00472117,-0.00120084,0.0023707,-0.00492451,-0.167736,0.00429705,0.0146923,790,1506,-1.44124,-6.32073
-427,-482,-1.43811,6.53796,0.00261652,-0.00535374,-0.00107286,0.0027584,-0.00549563,-0.13149,0.00485203,0.0164317,797,1506,-1.43809,-6.53801
-420,-482,-1.39514,6.82629,0.00298217,-0.00531202,-0.000608342,0.00302655,-0.0053564,-0.0728262,0.00490181,0.0223569,804,1506,-1.39514,-6.82626
-413,-482,-1.27448,6.91797,0.00292166,-0.00551219,0.00016999,0.00292509,-0.00551561,0.0201448,0.00494916,0.0299604,811,1506,-1.27446,-6.91792
-406,-482,-1.26056,6.93994,0.00234115,-0.00522915,0.00139443,0.00258984,-0.00547783,0.176484,0.00475631,0.0421002,818,1506,-1.26055,-6.93989
-399,-482,-1.18488,7.1051,0.00144778,-0.00446689,0.00326655,0.00289682,-0.00591593,0.41752,0.00518662,0.0476525,825,1506,-1.18487,-7.10515
-392,-482,-1.07404,7.33618,0.000105489,-0.00267214,0.00597916,0.00485501,-0.00742166,0.671284,0.00713939,0.0493553,832,1506,-1.07402,-7.3362
-385,-482,-1.6521,8.08875,0,0,0,0,0,0,0,-1,839,1506,-1.65209,-8.08873
-378,-482,0.215698,5.96948,0,0,0,0,0,0,0,-1,846,1506,0.215681,-5.9695
-371,-482,-0.10907,8.10437,0,0,0,0,0,0,0,-1,853,1506,-0.109063,-8.10433
-364,-482,-0.154968,10.5032,0,0,0,0,0,0,0,-1,860,1506,-0.154976,-10.5032
-357,-482,2.14807,4.60144,0,0,0,0,0,0,0,-1,867,1506,2.14807,-4.60144
-350,-482,-7.5813,-1.45935,0,0,0,0,0,0,0,-1,874,1506,-7.58133,1.45937
-343,-482,-7.19983,-1.26416,0,0,0,0,0,0,0,-1,881,1506,-7.19981,1.26414
-336,-482,-6.78491,-1.18127,0,0,0,0,0,0,0,-1,888,1506,-6.78488,1.18125
-329,-482,0,0,0,0,0,0,0,0,0,-1,895,1506,0,0
-322,-482,0,0,0,0,0,0,0,0,0,-1,902,1506,0,0
-315,-482,0,0,0,0,0,0,0,0,0,-1,909,1506,0,0
-308,-482,0,0,0,0,0,0,0,0,0,-1,916,1506,0,0
-301,-482,0,0,0,0,0,0,0,0,0,-1,923,1506,0,0
-294,-482,0,0,0,0,0,0,0,0,0,-1,930,1506,0,0
-287,-482,0,0,0,0,0,0,0,0,0,-1,937,1506,0,0
-280,-482,0,0,0,0,0,0,0,0,0,-1,944,1506,0,0
-273,-482,0,0,0,0,0,0,0,0,0,-1,951,1506,0,0
-266,-482,0,0,0,0,0,0,0,0,0,-1,958,1506,0,0
-259,-482,0,0,0,0,0,0,0,0,0,-1,965,1506,0,0
-252,-482,0,0,0,0,0,0,0,0,0,-1,972,1506,0,0
-245,-482,0,0,0,0,0,0,0,0,0,-1,979,1506,0,0
-238,-482,0,0,0,0,0,0,0,0,0,-1,986,1506,0,0
-231,-482,0,0,0,0,0,0,0,0,0,-1,993,1506,0,0
-224,-482,0,0,0,0,0,0,0,0,0,-1,1000,1506,0,0
-217,-482,0,0,0,0,0,0,0,0,0,-1,1007,1506,0,0
-210,-482,0,0,0,0,0,0,0,0,0,-1,1014,1506,0,0
-203,-482,0,0,0,0,0,0,0,0,0,-1,1021,1506,0,0
-196,-482,0,0,0,0,0,0,0,0,0,-1,1028,1506,0,0
-189,-482,0,0,0,0,0,0,0,0,0,-1,1035,1506,0,0
-182,-482,0,0,0,0,0,0,0,0,0,-1,1042,1506,0,0
-175,-482,0,0,0,0,0,0,0,0,0,-1,1049,1506,0,0
-168,-482,0,0,0,0,0,0,0,0,0,-1,1056,1506,0,0
-161,-482,0,0,0,0,0,0,0,0,0,-1,1063,1506,0,0
-154,-482,0,0,0,0,0,0,0,0,0,-1,1070,1506,0,0
-147,-482,0,0,0,0,0,0,0,0,0,-1,1077,1506,0,0
-140,-482,0,0,0,0,0,0,0,0,0,-1,1084,1506,0,0
-133,-482,0,0,0,0,0,0,0,0,0,-1,1091,1506,0,0
-126,-482,0,0,0,0,0,0,0,0,0,-1,1098,1506,0,0
-119,-482,0,0,0,0,0,0,0,0,0,-1,1105,1506,0,0
-112,-482,0,0,0,0,0,0,0,0,0,-1,1112,1506,0,0
-105,-482,0,0,0,0,0,0,0,0,0,-1,1119,1506,0,0
-98,-482,0,0,0,0,0,0,0,0,0,-1,1126,1506,0,0
-91,-482,0,0,0,0,0,0,0,0,0,-1,1133,1506,0,0
-84,-482,0,0,0,0,0,0,0,0,0,-1,1140,1506,0,0
-77,-482,0,0,0,0,0,0,0,0,0,-1,1147,1506,0,0
-70,-482,0,0,0,0,0,0,0,0,0,-1,1154,1506,0,0
-63,-482,0,0,0,0,0,0,0,0,0,-1,1161,1506,0,0
-56,-482,0,0,0,0,0,0,0,0,0,-1,1168,1506,0,0
-49,-482,0,0,0,0,0,0,0,0,0,-1,1175,1506,0,0
-42,-482,0,0,0,0,0,0,0,0,0,-1,1182,1506,0,0
-35,-482,0,0,0,0,0,0,0,0,0,-1,1189,1506,0,0
-28,-482,0,0,0,0,0,0,0,0,0,-1,1196,1506,0,0
-21,-482,0,0,0,0,0,0,0,0,0,-1,1203,1506,0,0
-14,-482,0,0,0,0,0,0,0,0,0,-1,1210,1506,0,0
-7,-482,0,0,0,0,0,0,0,0,0,-1,1217,1506,0,0
0,-482,0,0,0,0,0,0,0,0,0,-1,1224,1506,0,0
7,-482,0,0,0,0,0,0,0,0,0,-1,1231,1506,0,0
14,-482,0,0,0,0,0,0,0,0,0,-1,1238,1506,0,0
21,-482,0,0,0,0,0,0,0,0,0,-1,1245,1506,0,0
28,-482,0,0,0,0,0,0,0,0,0,-1,1252,1506,0,0
35,-482,0,0,0,0,0,0,0,0,0,-1,1259,1506,0,0
42,-482,0,0,0,0,0,0,0,0,0,-1,1266,1506,0,0
49,-482,0,0,0,0,0,0,0,0,0,-1,1273,1506,0,0
56,-482,0,0,0,0,0,0,0,0,0,-1,1280,1506,0,0
63,-482,0,0,0,0,0,0,0,0,0,-1,1287,1506,0,0
70,-482,0,0,0,0,0,0,0,0,0,-1,1294,1506,0,0
77,-482,0,0,0,0,0,0,0,0,0,-1,1301,1506,0,0
84,-482,0,0,0,0,0,0,0,0,0,-1,1308,1506,0,0
91,-482,0,0,0,0,0,0,0,0,0,-1,1315,1506,0,0
98,-482,0,0,0,0,0,0,0,0,0,-1,1322,1506,0,0
105,-482,0,0,0,0,0,0,0,0,0,-1,1329,1506,0,0
112,-482,0,0,0,0,0,0,0,0,0,-1,1336,1506,0,0
119,-482,0,0,0,0,0,0,0,0,0,-1,1343,1506,0,0
126,-482,0,0,0,0,0,0,0,0,0,-1,1350,1506,0,0
133,-482,0,0,0,0,0,0,0,0,0,-1,1357,1506,0,0
140,-482,0,0,0,0,0,0,0,0,0,-1,1364,1506,0,0
147,-482,0,0,0,0,0,0,0,0,0,-1,1371,1506,0,0
154,-482,0,0,0,0,0,0,0,0,0,-1,1378,1506,0,0
161,-482,0,0,0,0,0,0,0,0,0,-1,1385,1506,0,0
168,-482,0,0,0,0,0,0,0,0,0,-1,1392,1506,0,0
175,-482,0,0,0,0,0,0,0,0,0,-1,1399,1506,0,0
182,-482,0,0,0,0,0,0,0,0,0,-1,1406,1506,0,0
189,-482,0,0,0,0,0,0,0,0,0,-1,1413,1506,0,0
196,-482,0,0,0,0,0,0,0,0,0,-1,1420,1506,0,0
203,-482,0,0,0,0,0,0,0,0,0,-1,1427,1506,0,0
210,-482,0,0,0,0,0,0,0,0,0,-1,1434,1506,0,0
217,-482,0,0,0,0,0,0,0,0,0,-1,1441,1506,0,0
224,-482,0,0,0,0,0,0,0,0,0,-1,1448,1506,0,0
231,-482,0,0,0,0,0,0,0,0,0,-1,1455,1506,0,0
238,-482,0,0,0,0,0,0,0,0,0,-1,1462,1506,0,0
245,-482,0,0,0,0,0,0,0,0,0,-1,1469,1506,0,0
252,-482,0,0,0,0,0,0,0,0,0,-1,1476,1506,0,0
259,-482,0,0,0,0,0,0,0,0,0,-1,1483,1506,0,0
266,-482,0,0,0,0,0,0,0,0,0,-1,1490,1506,0,0
273,-482,0,0,0,0,0,0,0,0,0,-1,1497,1506,0,0
280,-482,0,0,0,0,0,0,0,0,0,-1,1504,1506,0,0
287,-482,0,0,0,0,0,0,0,0,0,-1,1511,1506,0,0
294,-482,0,0,0,0,0,0,0,0,0,-1,1518,1506,0,0
301,-482,0,0,0,0,0,0,0,0,0,-1,1525,1506,0,0
308,-482,0,0,0,0,0,0,0,0,0,-1,1532,1506,0,0
315,-482,0,0,0,0,0,0,0,0,0,-1,1539,1506,0,0
322,-482,0,0,0,0,0,0,0,0,0,-1,1546,1506,0,0
329,-482,0,0,0,0,0,0,0,0,0,-1,1553,1506,0,0
336,-482,0,0,0,0,0,0,0,0,0,-1,1560,1506,0,0
343,-482,0,0,0,0,0,0,0,0,0,-1,1567,1506,0,0
350,-482,0,0,0,0,0,0,0,0,0,-1,1574,1506,0,0
357,-482,0,0,0,0,0,0,0,0,0,-1,1581,1506,0,0
364,-482,0,0,0,0,0,0,0,0,0,-1,1588,1506,0,0
371,-482,0,0,0,0,0,0,0,0,0,-1,1595,1506,0,0
378,-482,0,0,0,0,0,0,0,0,0,-1,1602,1506,0,0
385,-482,0,0,0,0,0,0,0,0,0,-1,1609,1506,0,0
392,-482,0,0,0,0,0,0,0,0,0,-1,1616,1506,0,0
399,-482,0,0,0,0,0,0,0,0,0,-1,1623,1506,0,0
406,-482,0,0,0,0,0,0,0,0,0,-1,1630,1506,0,0
413,-482,0,0,0,0,0,0,0,0,0,-1,1637,1506,0,0
420,-482,0,0,0,0,0,0,0,0,0,-1,1644,1506,0,0
427,-482,0,0,0,0,0,0,0,0,0,-1,1651,1506,0,0
434,-482,0,0,0,0,0,0,0,0,0,-1,1658,1506,0,0
441,-482,0,0,0,0,0,0,0,0,0,-1,1665,1506,0,0
448,-482,4.24146,1.55383,0,0,0,0,0,0,0,-1,1672,1506,4.24149,-1.55381
455,-482,12.4122,1.09729,0,0,0,0,0,0,0,-1,1679,1506,12.4122,-1.09734
462,-482,15.0673,3.13135,0,0,0,0,0,0,0,-1,1686,1506,15.0672,-3.13134
469,-482,15.3793,3.46301,0,0,0,0,0,0,0,-1,1693,1506,15.3793,-3.46307
476,-482,15.7294,3.81396,0,0,0,0,0,0,0,-1,1700,1506,15.7293,-3.81396
483,-482,14.9957,3.45825,0,0,0,0,0,0,0,-1,1707,1506,14.9957,-3.45829
490,-482,9.18359,4.40454,0,0,0,0,0,0,0,-1,1714,1506,9.18355,-4.4046
497,-482,11.5775,4.1084,0,0,0,0,0,0,0,-1,1721,1506,11.5775,-4.10845
504,-482,10.8325,5.16162,0,0,0,0,0,0,0,-1,1728,1506,10.8325,-5.16157
511,-482,9.97229,6.69226,0,0,0,0,0,0,0,-1,1735,1506,9.97232,-6.69223
518,-482,10.0859,8.34314,0,0,0,0,0,0,0,-1,1742,1506,10.0859,-8.34313
525,-482,10.1349,9.05859,0,0,0,0,0,0,0,-1,1749,1506,10.1349,-9.05856
532,-482,10.184,9.77393,0,0,0,0,0,0,0,-1,1756,1506,10.1839,-9.77399
539,-482,9.33276,8.29712,-0.0159733,-0.01112,0.0151555,0.00180189,-0.0288951,0.864783,0.0198913,0.0319102,1763,1506,9.33274,-8.2971
546,-482,9.20862,8.25623,-0.0121043,-0.00942434,0.0119664,0.0012769,-0.0228055,0.841155,0.0156467,0.0168424,1770,1506,9.20867,-8.2562
553,-482,9.15906,8.16235,-0.0091783,-0.00784136,0.0093236,0.000837698,-0.0178574,0.821185,0.0121937,0.0140907,1777,1506,9.15904,-8.16234
560,-482,9.14868,7.97485,-0.00671185,-0.00625396,0.00697773,0.000498584,-0.0134644,0.801798,0.00914699,0.012791,1784,1506,9.14868,-7.97485
567,-482,9.18481,7.79614,-0.00421723,-0.00531474,0.00526168,0.000524234,-0.0100562,0.733439,0.00688554,0.0155947,1791,1506,9.18487,-7.79612
574,-482,9.17834,7.61987,-0.00252742,-0.00377775,0.00384603,0.000743927,-0.00704909,0.704829,0.00496598,0.014339,1798,1506,9.17834,-7.61993
581,-482,9.16223,7.44055,-0.0014755,-0.00298824,0.00269347,0.000565789,-0.00502953,0.648516,0.00355665,0.00989719,1805,1506,9.16227,-7.44051
588,-482,9.17346,7.25354,-0.000935957,-0.002708,0.00214722,0.000500862,-0.00414482,0.589722,0.0029444,0.0106073,1812,1506,9.17347,-7.25353
595,-482,9.18848,7.04016,-0.000429881,-0.00245483,0.00177888,0.000604476,-0.00348919,0.52668,0.0025516,0.0154463,1819,1506,9.18843,-7.04019
602,-482,9.21118,6.82324,-0.000203432,-0.00269976,0.00165828,0.000623931,-0.00352712,0.462789,0.00258462,0.0186113,1826,1506,9.21117,-6.82323
609,-482,9.20801,6.67065,-9.19668e-05,-0.00333708,0.00180906,0.000715575,-0.00414462,0.419846,0.0030299,0.0151761,1833,1506,9.20798,-6.6707
616,-482,9.18701,6.50525,-5.49747e-05,-0.00476888,0.0023687,0.000929622,-0.00575347,0.393942,0.00418012,0.0112999,1840,1506,9.18695,-6.5053
623,-482,9.17627,6.32788,-0.000107842,-0.006896,0.0031033,0.00109702,-0.00810086,0.370337,0.00580093,0.0114409,1847,1506,9.17622,-6.32784
630,-482,9.22253,6.15491,-0.000146339,-0.00974086,0.00402246,0.00131691,-0.0112041,0.348888,0.00794484,0.0201655,1854,1506,9.22257,-6.15492
637,-482,9.06506,6.21338,-4.23927e-05,-0.0133588,0.00524881,0.00177771,-0.0151789,0.33379,0.0107609,0.044012,1861,1506,9.06509,-6.21336
644,-482,8.89526,6.14575,0,0,0,0,0,0,0,-1,1868,1506,8.89529,-6.14572
651,-482,4.03845,7.05273,0,0,0,0,0,0,0,-1,1875,1506,4.03843,-7.05279
658,-482,10.0278,5.87903,0,0,0,0,0,0,0,-1,1882,1506,10.0279,-5.87902
665,-482,8.15198,3.22229,0,0,0,0,0,0,0,-1,1889,1506,8.15199,-3.22232
672,-482,9.87415,1.3147,0,0,0,0,0,0,0,-1,1896,1506,9.87416,-1.31473
679,-482,0,0,0,0,0,0,0,0,0,-1,1903,1506,0,0
686,-482,0,0,0,0,0,0,0,0,0,-1,1910,1506,0,0
693,-482,0,0,0,0,0,0,0,0,0,-1,1917,1506,0,0
700,-482,0,0,0,0,0,0,0,0,0,-1,1924,1506,0,0
707,-482,0,0,0,0,0,0,0,0,0,-1,1931,1506,0,0
714,-482,0,0,0,0,0,0,0,0,0,-1,1938,1506,0,0
721,-482,0,0,0,0,0,0,0,0,0,-1,1945,1506,0,0
728,-482,0,0,0,0,0,0,0,0,0,-1,1952,1506,0,0
735,-482,0,0,0,0,0,0,0,0,0,-1,1959,1506,0,0
742,-482,0,0,0,0,0,0,0,0,0,-1,1966,1506,0,0
749,-482,0,0,0,0,0,0,0,0,0,-1,1973,1506,0,0
756,-482,0,0,0,0,0,0,0,0,0,-1,1980,1506,0,0
763,-482,0,0,0,0,0,0,0,0,0,-1,1987,1506,0,0
770,-482,0,0,0,0,0,0,0,0,0,-1,1994,1506,0,0
777,-482,0,0,0,0,0,0,0,0,0,-1,2001,1506,0,0
784,-482,0,0,0,0,0,0,0,0,0,-1,2008,1506,0,0
791,-482,0,0,0,0,0,0,0,0,0,-1,2015,1506,0,0
798,-482,0,0,0,0,0,0,0,0,0,-1,2022,1506,0,0
805,-482,0,0,0,0,0,0,0,0,0,-1,2029,1506,0,0
812,-482,0,0,0,0,0,0,0,0,0,-1,2036,1506,0,0
-700,-489,0,0,0,0,0,0,0,0,0,-1,524,1513,0,0
-693,-489,0,0,0,0,0,0,0,0,0,-1,531,1513,0,0
-686,-489,0,0,0,0,0,0,0,0,0,-1,538,1513,0,0
-679,-489,0,0,0,0,0,0,0,0,0,-1,545,1513,0,0
-672,-489,0,0,0,0,0,0,0,0,0,-1,552,1513,0,0
-665,-489,0,0,0,0,0,0,0,0,0,-1,559,1513,0,0
-658,-489,0,0,0,0,0,0,0,0,0,-1,566,1513,0,0
-651,-489,0,0,0,0,0,0,0,0,0,-1,573,1513,0,0
-644,-489,0,0,0,0,0,0,0,0,0,-1,580,1513,0,0
-637,-489,0,0,0,0,0,0,0,0,0,-1,587,1513,0,0
-630,-489,0,0,0,0,0,0,0,0,0,-1,594,1513,0,0
-623,-489,0,0,0,0,0,0,0,0,0,-1,601,1513,0,0
-616,-489,0,0,0,0,0,0,0,0,0,-1,608,1513,0,0
-609,-489,0,0,0,0,0,0,0,0,0,-1,615,1513,0,0
-602,-489,0,0,0,0,0,0,0,0,0,-1,622,1513,0,0
-595,-489,0,0,0,0,0,0,0,0,0,-1,629,1513,0,0
-588,-489,0,0,0,0,0,0,0,0,0,-1,636,1513,0,0
-581,-489,0,0,0,0,0,0,0,0,0,-1,643,1513,0,0
-574,-489,0,0,0,0,0,0,0,0,0,-1,650,1513,0,0
-567,-489,0,0,0,0,0,0,0,0,0,-1,657,1513,0,0
-560,-489,0,0,0,0,0,0,0,0,0,-1,664,1513,0,0
-553,-489,-9.42206,8.5116,0,0,0,0,0,0,0,-1,671,1513,-9.42205,-8.51158
-546,-489,-7.80951,8.18506,0,0,0,0,0,0,0,-1,678,1513,-7.8095,-8.18503
-539,-489,-0.774902,3.41357,0,0,0,0,0,0,0,-1,685,1513,-0.77489,-3.41355
-532,-489,-1.2135,4.00037,0.00354182,-0.0151798,0.0607655,0.0556633,-0.0673013,0.708975,0.0710996,0.044063,692,1513,-1.21351,-4.00035
-525,-489,-1.9657,4.02405,-0.00935636,-0.0129145,0.0474353,0.0363332,-0.0586041,0.766654,0.0553125,0.0433054,699,1513,-1.96568,-4.024
-518,-489,-2.16095,3.69836,-0.0146901,-0.010244,0.0366715,0.0242718,-0.0492059,0.815672,0.0432289,0.045114,706,1513,-2.16095,-3.69842
-511,-489,-2.02222,3.73071,0,0,0,0,0,0,0,-1,713,1513,-2.02222,-3.73074
-504,-489,-0.672119,4.07849,-0.0178736,-0.00561343,0.0198153,0.00899834,-0.0324853,0.935409,0.0251977,0.0499098,720,1513,-0.672105,-4.0785
-497,-489,-1.02802,4.38647,-0.0137191,-0.00341269,0.0144575,0.00678251,-0.0239143,0.956599,0.0186202,0.0393496,727,1513,-1.02801,-4.38652
-490,-489,-1.18628,4.66785,-0.0101921,-0.0017962,0.0101774,0.00501503,-0.0170033,0.981007,0.0133256,0.02103,734,1513,-1.18628,-4.66785
-483,-489,-1.23083,4.85461,-0.00721778,-0.00085038,0.00695502,0.00361498,-0.0116831,1.00004,0.00923276,0.0110723,741,1513,-1.23081,-4.85458
-476,-489,-1.22748,5.06909,-0.00454412,-0.000331094,0.00410918,0.00218005,-0.00705526,1.02225,0.00557415,0.00977592,748,1513,-1.22747,-5.06905
-469,-489,-1.2373,5.28418,-0.00283291,7.05241e-05,0.00224174,0.00128955,-0.00405194,1.07274,0.00321844,0.0105825,755,1513,-1.23732,-5.28424
-462,-489,-1.22021,5.48071,-0.00126519,-0.000399319,0.000869918,0.000139441,-0.00180395,1.01629,0.0012517,0.0162024,762,1513,-1.22019,-5.48067
-455,-489,-1.23523,5.69263,-9.17513e-05,-0.000960513,-0.000189984,-5.20218e-05,-0.00100024,-0.20615,0.000650182,0.0197272,769,1513,-1.23524,-5.69267
-448,-489,-1.26031,5.92957,0.000815974,-0.00191601,-0.000369407,0.000865042,-0.00196508,-0.132057,0.00167461,0.0174293,776,1513,-1.26031,-5.92952
-441,-489,-1.2464,6.13574,0.00151486,-0.00256907,-0.000491984,0.00157329,-0.00262751,-0.118215,0.00245066,0.0148629,783,1513,-1.24641,-6.13576
-434,-489,-1.26147,6.33142,0.00164902,-0.00308065,-0.000317016,0.00167018,-0.0031018,-0.0666299,0.00279613,0.0167769,790,1513,-1.26149,-6.33145
-427,-489,-1.27435,6.5509,0.00216441,-0.0036001,-0.00015301,0.00216847,-0.00360416,-0.0265186,0.00336701,0.018351,797,1513,-1.27433,-6.55093
-420,-489,-1.27295,6.78516,0.00264746,-0.003523,0.000317139,0.00266372,-0.00353925,0.0512165,0.00359316,0.0176636,804,1513,-1.27292,-6.78511
-413,-489,-1.06726,6.92493,0.00273263,-0.00382348,0.00104608,0.0028955,-0.00398635,0.154451,0.00398984,0.0221478,811,1513,-1.06726,-6.92497
-406,-489,-1.18359,6.98181,0.00235713,-0.00382024,0.00204696,0.00297385,-0.00443696,0.292636,0.00430634,0.0304632,818,1513,-1.18361,-6.98177
-399,-489,-0.972595,6.85754,0.00189064,-0.00366365,0.00347377,0.00356092,-0.00533393,0.448192,0.00516934,0.0367542,825,1513,-0.972601,-6.85752
-392,-489,-0.713623,6.91443,0.00114963,-0.00298013,0.00539341,0.00485992,-0.00669042,0.60258,0.00669645,0.0432548,832,1513,-0.713619,-6.91441
-385,-489,-1.5166,8.04382,0.000198678,-0.00173616,0.00783385,0.00712462,-0.0086621,0.723963,0.00912887,0.0467872,839,1513,-1.5166,-8.0438
-378,-489,-1.57538,8.66528,0,0,0,0,0,0,0,-1,846,1513,-1.57536,-8.66529
-371,-489,0.699707,7.82031,0,0,0,0,0,0,0,-1,853,1513,0.699707,-7.82033
-364,-489,-0.503113,8.98486,0,0,0,0,0,0,0,-1,860,1513,-0.503097,-8.98482
-357,-489,-0.609924,10.9606,0,0,0,0,0,0,0,-1,867,1513,-0.609947,-10.9605
-350,-489,-7.94659,-0.358887,0,0,0,0,0,0,0,-1,874,1513,-7.94657,0.358912
-343,-489,-7.49323,-0.437866,0,0,0,0,0,0,0,-1,881,1513,-7.49322,0.437823
-336,-489,-7.02332,-0.53125,0,0,0,0,0,0,0,-1,888,1513,-7.0233,0.531295
-329,-489,-6.70221,-0.242432,0,0,0,0,0,0,0,-1,895,1513,-6.70221,0.2424
-322,-489,0,0,0,0,0,0,0,0,0,-1,902,1513,0,0
-315,-489,0,0,0,0,0,0,0,0,0,-1,909,1513,0,0
-308,-489,0,0,0,0,0,0,0,0,0,-1,916,1513,0,0
-301,-489,0,0,0,0,0,0,0,0,0,-1,923,1513,0,0
-294,-489,0,0,0,0,0,0,0,0,0,-1,930,1513,0,0
-287,-489,0,0,0,0,0,0,0,0,0,-1,937,1513,0,0
-280,-489,0,0,0,0,0,0,0,0,0,-1,944,1513,0,0
-273,-489,0,0,0,0,0,0,0,0,0,-1,951,1513,0,0
-266,-489,0,0,0,0,0,0,0,0,0,-1,958,1513,0,0
-259,-489,0,0,0,0,0,0,0,0,0,-1,965,1513,0,0
-252,-489,0,0,0,0,0,0,0,0,0,-1,972,1513,0,0
-245,-489,0,0,0,0,0,0,0,0,0,-1,979,1513,0,0
-238,-489,0,0,0,0,0,0,0,0,0,-1,986,1513,0,0
-231,-489,0,0,0,0,0,0,0,0,0,-1,993,1513,0,0
-224,-489,0,0,0,0,0,0,0,0,0,-1,1000,1513,0,0
-217,-489,0,0,0,0,0,0,0,0,0,-1,1007,1513,0,0
-210,-489,0,0,0,0,0,0,0,0,0,-1,1014,1513,0,0
-203,-489,0,0,0,0,0,0,0,0,0,-1,1021,1513,0,0
-196,-489,0,0,0,0,0,0,0,0,0,-1,1028,1513,0,0
-189,-489,0,0,0,0,0,0,0,0,0,-1,1035,1513,0,0
-182,-489,0,0,0,0,0,0,0,0,0,-1,1042,1513,0,0
-175,-489,0,0,0,0,0,0,0,0,0,-1,1049,1513,0,0
-168,-489,0,0,0,0,0,0,0,0,0,-1,1056,1513,0,0
-161,-489,0,0,0,0,0,0,0,0,0,-1,1063,1513,0,0
-154,-489,0,0,0,0,0,0,0,0,0,-1,1070,1513,0,0
-147,-489,0,0,0,0,0,0,0,0,0,-1,1077,1513,0,0
-140,-489,0,0,0,0,0,0,0,0,0,-1,1084,1513,0,0
-133,-489,0,0,0,0,0,0,0,0,0,-1,1091,1513,0,0
-126,-489,0,0,0,0,0,0,0,0,0,-1,1098,1513,0,0
-119,-489,0,0,0,0,0,0,0,0,0,-1,1105,1513,0,0
-112,-489,0,0,0,0,0,0,0,0,0,-1,1112,1513,0,0
-105,-489,0,0,0,0,0,0,0,0,0,-1,1119,1513,0,0
-98,-489,0,0,0,0,0,0,0,0,0,-1,1126,1513,0,0
-91,-489,0,0,0,0,0,0,0,0,0,-1,1133,1513,0,0
-84,-489,0,0,0,0,0,0,0,0,0,-1,1140,1513,0,0
-77,-489,0,0,0,0,0,0,0,0,0,-1,1147,1513,0,0
-70,-489,0,0,0,0,0,0,0,0,0,-1,1154,1513,0,0
-63,-489,0,0,0,0,0,0,0,0,0,-1,1161,1513,0,0
-56,-489,0,0,0,0,0,0,0,0,0,-1,1168,1513,0,0
-49,-489,0,0,0,0,0,0,0,0,0,-1,1175,1513,0,0
-42,-489,0,0,0,0,0,0,0,0,0,-1,1182,1513,0,0
-35,-489,0,0,0,0,0,0,0,0,0,-1,1189,1513,0,0
-28,-489,0,0,0,0,0,0,0,0,0,-1,1196,1513,0,0
-21,-489,0,0,0,0,0,0,0,0,0,-1,1203,1513,0,0
-14,-489,0,0,0,0,0,0,0,0,0,-1,1210,1513,0,0
-7,-489,0,0,0,0,0,0,0,0,0,-1,1217,1513,0,0
0,-489,0,0,0,0,0,0,0,0,0,-1,1224,1513,0,0
7,-489,0,0,0,0,0,0,0,0,0,-1,1231,1513,0,0
14,-489,0,0,0,0,0,0,0,0,0,-1,1238,1513,0,0
21,-489,0,0,0,0,0,0,0,0,0,-1,1245,1513,0,0
28,-489,0,0,0,0,0,0,0,0,0,-1,1252,1513,0,0
35,-489,0,0,0,0,0,0,0,0,0,-1,1259,1513,0,0
42,-489,0,0,0,0,0,0,0,0,0,-1,1266,1513,0,0
49,-489,0,0,0,0,0,0,0,0,0,-1,1273,1513,0,0
56,-489,0,0,0,0,0,0,0,0,0,-1,1280,1513,0,0
63,-489,0,0,0,0,0,0,0,0,0,-1,1287,1513,0,0
70,-489,0,0,0,0,0,0,0,0,0,-1,1294,1513,0,0
77,-489,0,0,0,0,0,0,0,0,0,-1,1301,1513,0,0
84,-489,0,0,0,0,0,0,0,0,0,-1,1308,1513,0,0
91,-489,0,0,0,0,0,0,0,0,0,-1,1315,1513,0,0
98,-489,0,0,0,0,0,0,0,0,0,-1,1322,1513,0,0
105,-489,0,0,0,0,0,0,0,0,0,-1,1329,1513,0,0
112,-489,0,0,0,0,0,0,0,0,0,-1,1336,1513,0,0
119,-489,0,0,0,0,0,0,0,0,0,-1,1343,1513,0,0
126,-489,0,0,0,0,0,0,0,0,0,-1,1350,1513,0,0
133,-489,0,0,0,0,0,0,0,0,0,-1,1357,1513,0,0
140,-489,0,0,0,0,0,0,0,0,0,-1,1364,1513,0,0
147,-489,0,0,0,0,0,0,0,0,0,-1,1371,1513,0,0
154,-489,0,0,0,0,0,0,0,0,0,-1,1378,1513,0,0
161,-489,0,0,0,0,0,0,0,0,0,-1,1385,1513,0,0
168,-489,0,0,0,0,0,0,0,0,0,-1,1392,1513,0,0
175,-489,0,0,0,0,0,0,0,0,0,-1,1399,1513,0,0
182,-489,0,0,0,0,0,0,0,0,0,-1,1406,1513,0,0
189,-489,0,0,0,0,0,0,0,0,0,-1,1413,1513,0,0
196,-489,0,0,0,0,0,0,0,0,0,-1,1420,1513,0,0
203,-489,0,0,0,0,0,0,0,0,0,-1,1427,1513,0,0
210,-489,0,0,0,0,0,0,0,0,0,-1,1434,1513,0,0
217,-489,0,0,0,0,0,0,0,0,0,-1,1441,1513,0,0
224,-489,0,0,0,0,0,0,0,0,0,-1,1448,1513,0,0
231,-489,0,0,0,0,0,0,0,0,0,-1,1455,1513,0,0
238,-489,0,0,0,0,0,0,0,0,0,-1,1462,1513,0,0
245,-489,0,0,0,0,0,0,0,0,0,-1,1469,1513,0,0
252,-489,0,0,0,0,0,0,0,0,0,-1,1476,1513,0,0
259,-489,0,0,0,0,0,0,0,0,0,-1,1483,1513,0,0
266,-489,0,0,0,0,0,0,0,0,0,-1,1490,1513,0,0
273,-489,0,0,0,0,0,0,0,0,0,-1,1497,1513,0,0
280,-489,0,0,0,0,0,0,0,0,0,-1,1504,1513,0,0
287,-489,0,0,0,0,0,0,0,0,0,-1,1511,1513,0,0
294,-489,0,0,0,0,0,0,0,0,0,-1,1518,1513,0,0
301,-489,0,0,0,0,0,0,0,0,0,-1,1525,1513,0,0
308,-489,0,0,0,0,0,0,0,0,0,-1,1532,1513,0,0
315,-489,0,0,0,0,0,0,0,0,0,-1,1539,1513,0,0
322,-489,0,0,0,0,0,0,0,0,0,-1,1546,1513,0,0
329,-489,0,0,0,0,0,0,0,0,0,-1,1553,1513,0,0
336,-489,0,0,0,0,0,0,0,0,0,-1,1560,1513,0,0
343,-489,0,0,0,0,0,0,0,0,0,-1,1567,1513,0,0
350,-489,0,0,0,0,0,0,0,0,0,-1,1574,1513,0,0
357,-489,0,0,0,0,0,0,0,0,0,-1,1581,1513,0,0
364,-489,0,0,0,0,0,0,0,0,0,-1,1588,1513,0,0
371,-489,0,0,0,0,0,0,0,0,0,-1,1595,1513,0,0
378,-489,0,0,0,0,0,0,0,0,0,-1,1602,1513,0,0
385,-489,0,0,0,0,0,0,0,0,0,-1,1609,1513,0,0
392,-489,0,0,0,0,0,0,0,0,0,-1,1616,1513,0,0
399,-489,0,0,0,0,0,0,0,0,0,-1,1623,1513,0,0
406,-489,0,0,0,0,0,0,0,0,0,-1,1630,1513,0,0
413,-489,0,0,0,0,0,0,0,0,0,-1,1637,1513,0,0
420,-489,0,0,0,0,0,0,0,0,0,-1,1644,1513,0,0
427,-489,0,0,0,0,0,0,0,0,0,-1,1651,1513,0,0
434,-489,0,0,0,0,0,0,0,0,0,-1,1658,1513,0,0
441,-489,11.4602,2.56787,0,0,0,0,0,0,0,-1,1665,1513,11.4602,-2.56786
448,-489,12.4425,1.72351,0,0,0,0,0,0,0,-1,1672,1513,12.4425,-1.72349
455,-489,12.5575,1.37463,0,0,0,0,0,0,0,-1,1679,1513,12.5575,-1.37469
462,-489,14.9784,3.84888,0,0,0,0,0,0,0,-1,1686,1513,14.9784,-3.84892
469,-489,15.1367,4.53101,0,0,0,0,0,0,0,-1,1693,1513,15.1368,-4.531
476,-489,15.5536,5.09338,0,0,0,0,0,0,0,-1,1700,1513,15.5536,-5.09339
483,-489,16.0366,5.55762,0,0,0,0,0,0,0,-1,1707,1513,16.0366,-5.55761
490,-489,11.6985,5.91296,0,0,0,0,0,0,0,-1,1714,1513,11.6985,-5.91298
497,-489,10.9141,5.33899,0,0,0,0,0,0,0,-1,1721,1513,10.9141,-5.33897
504,-489,11.6742,7.49231,0,0,0,0,0,0,0,-1,1728,1513,11.6742,-7.49234
511,-489,9.38245,6.6084,0,0,0,0,0,0,0,-1,1735,1513,9.38246,-6.60836
518,-489,9.18323,8.0293,0,0,0,0,0,0,0,-1,1742,1513,9.18317,-8.02926
525,-489,9.46802,8.54443,-0.0200604,-0.0208617,0.0220472,0.0015898,-0.042512,0.776313,0.0288858,0.0452987,1749,1513,9.46805,-8.54438
532,-489,9.29602,8.50916,-0.016703,-0.0134107,0.0166828,0.00170702,-0.0318207,0.834575,0.0218051,0.0357488,1756,1513,9.29597,-8.50911
539,-489,9.03186,8.45508,-0.0133359,-0.00883505,0.01253,0.00164498,-0.0238159,0.874253,0.016453,0.0169399,1763,1513,9.03185,-8.45511
546,-489,8.99353,8.32275,-0.0100241,-0.00726486,0.00973853,0.00119128,-0.0184803,0.855764,0.0127359,0.0112142,1770,1513,8.99353,-8.32276
553,-489,8.99634,8.1521,-0.00753199,-0.00583334,0.00745035,0.000815934,-0.0141813,0.842152,0.00973756,0.0130613,1777,1513,8.99632,-8.15215
560,-489,9.00098,7.97144,-0.00534714,-0.00442474,0.00537175,0.000505574,-0.0102775,0.828222,0.00702623,0.0131702,1784,1513,9.00095,-7.97141
567,-489,9.01355,7.80322,-0.00305609,-0.003687,0.00386236,0.000503673,-0.00724676,0.744651,0.00500752,0.0147093,1791,1513,9.01355,-7.80324
574,-489,8.98315,7.65234,-0.00150823,-0.00233921,0.00265578,0.000764369,-0.00461181,0.707804,0.00335845,0.0144257,1798,1513,8.98315,-7.65229
581,-489,8.98743,7.4574,-0.000601842,-0.00176276,0.00170491,0.000618714,-0.00298332,0.621321,0.00222399,0.010615,1805,1513,8.98742,-7.4574
588,-489,8.99609,7.25342,-0.000218506,-0.00175703,0.00134775,0.000564066,-0.0025396,0.526071,0.00190907,0.0131899,1812,1513,8.99613,-7.25342
595,-489,9.00757,7.04468,0.000168717,-0.00175704,0.00116416,0.000716601,-0.00230492,0.439874,0.00182305,0.0177157,1819,1513,9.00752,-7.0447
602,-489,9.02222,6.85437,0.000258145,-0.00229186,0.00125333,0.000771011,-0.00280472,0.388414,0.0021729,0.0219544,1826,1513,9.02225,-6.85437
609,-489,9.01587,6.67407,0.000178808,-0.00331649,0.00164604,0.000831935,-0.00396962,0.377733,0.00296292,0.0166578,1833,1513,9.01587,-6.67411
616,-489,9.00293,6.49451,-2.84901e-05,-0.0051752,0.00249235,0.00098061,-0.00618429,0.384705,0.00448561,0.0104196,1840,1513,9.00293,-6.49447
623,-489,9.0155,6.35779,-0.000413189,-0.00789567,0.00360006,0.00103761,-0.00934647,0.383085,0.00660408,0.0145544,1847,1513,9.0155,-6.35779
630,-489,8.99231,6.29419,-0.000896071,-0.0116144,0.00502666,0.00109241,-0.0136029,0.376697,0.0094538,0.0333444,1854,1513,8.99237,-6.29424
637,-489,8.36279,6.56189,-0.0012598,-0.0161293,0.00675103,0.00134796,-0.018737,0.36862,0.0129641,0.0462726,1861,1513,8.36278,-6.56189
644,-489,7.84802,6.64746,0,0,0,0,0,0,0,-1,1868,1513,7.84797,-6.64745
651,-489,6.13818,6.85095,0,0,0,0,0,0,0,-1,1875,1513,6.13823,-6.85097
658,-489,5.43848,7.75513,0,0,0,0,0,0,0,-1,1882,1513,5.43844,-7.75509
665,-489,5.48438,8.59912,0,0,0,0,0,0,0,-1,1889,1513,5.48434,-8.59907
672,-489,0,0,0,0,0,0,0,0,0,-1,1896,1513,0,0
679,-489,0,0,0,0,0,0,0,0,0,-1,1903,1513,0,0
686,-489,0,0,0,0,0,0,0,0,0,-1,1910,1513,0,0
693,-489,0,0,0,0,0,0,0,0,0,-1,1917,1513,0,0
700,-489,0,0,0,0,0,0,0,0,0,-1,1924,1513,0,0
707,-489,0,0,0,0,0,0,0,0,0,-1,1931,1513,0,0
714,-489,0,0,0,0,0,0,0,0,0,-1,1938,1513,0,0
721,-489,0,0,0,0,0,0,0,0,0,-1,1945,1513,0,0
728,-489,0,0,0,0,0,0,0,0,0,-1,1952,1513,0,0
735,-489,0,0,0,0,0,0,0,0,0,-1,1959,1513,0,0
742,-489,0,0,0,0,0,0,0,0,0,-1,1966,1513,0,0
749,-489,0,0,0,0,0,0,0,0,0,-1,1973,1513,0,0
756,-489,0,0,0,0,0,0,0,0,0,-1,1980,1513,0,0
763,-489,0,0,0,0,0,0,0,0,0,-1,1987,1513,0,0
770,-489,0,0,0,0,0,0,0,0,0,-1,1994,1513,0,0
777,-489,0,0,0,0,0,0,0,0,0,-1,2001,1513,0,0
784,-489,0,0,0,0,0,0,0,0,0,-1,2008,1513,0,0
791,-489,0,0,0,0,0,0,0,0,0,-1,2015,1513,0,0
798,-489,0,0,0,0,0,0,0,0,0,-1,2022,1513,0,0
805,-489,0,0,0,0,0,0,0,0,0,-1,2029,1513,0,0
812,-489,0,0,0,0,0,0,0,0,0,-1,2036,1513,0,0
-700,-496,0,0,0,0,0,0,0,0,0,-1,524,1520,0,0
-693,-496,0,0,0,0,0,0,0,0,0,-1,531,1520,0,0
-686,-496,0,0,0,0,0,0,0,0,0,-1,538,1520,0,0
-679,-496,0,0,0,0,0,0,0,0,0,-1,545,1520,0,0
-672,-496,0,0,0,0,0,0,0,0,0,-1,552,1520,0,0
-665,-496,0,0,0,0,0,0,0,0,0,-1,559,1520,0,0
-658,-496,0,0,0,0,0,0,0,0,0,-1,566,1520,0,0
-651,-496,0,0,0,0,0,0,0,0,0,-1,573,1520,0,0
-644,-496,0,0,0,0,0,0,0,0,0,-1,580,1520,0,0
-637,-496,0,0,0,0,0,0,0,0,0,-1,587,1520,0,0
-630,-496,0,0,0,0,0,0,0,0,0,-1,594,1520,0,0
-623,-496,0,0,0,0,0,0,0,0,0,-1,601,1520,0,0
-616,-496,0,0,0,0,0,0,0,0,0,-1,608,1520,0,0
-609,-496,0,0,0,0,0,0,0,0,0,-1,615,1520,0,0
-602,-496,0,0,0,0,0,0,0,0,0,-1,622,1520,0,0
-595,-496,0,0,0,0,0,0,0,0,0,-1,629,1520,0,0
-588,-496,0,0,0,0,0,0,0,0,0,-1,636,1520,0,0
-581,-496,0,0,0,0,0,0,0,0,0,-1,643,1520,0,0
-574,-496,0,0,0,0,0,0,0,0,0,-1,650,1520,0,0
-567,-496,0,0,0,0,0,0,0,0,0,-1,657,1520,0,0
-560,-496,0,0,0,0,0,0,0,0,0,-1,664,1520,0,0
-553,-496,0,0,0,0,0,0,0,0,0,-1,671,1520,0,0
-546,-496,-8.09711,7.94836,0,0,0,0,0,0,0,-1,678,1520,-8.09712,-7.94842
-539,-496,-1.23816,3.50525,0,0,0,0,0,0,0,-1,685,1520,-1.23814,-3.50531
-532,-496,-1.49823,4.27673,0,0,0,0,0,0,0,-1,692,1520,-1.49823,-4.2767
-525,-496,-1.99786,4.2583,0,0,0,0,0,0,0,-1,699,1520,-1.99787,-4.25824
-518,-496,-2.10718,3.68433,-0.0270802,-0.0121976,0.040746,0.021781,-0.0610588,0.875716,0.0495872,0.0442784,706,1520,-2.10721,-3.68432
-511,-496,-3.46899,5.73877,-0.0272753,-0.00932466,0.0312796,0.0142419,-0.0508418,0.925114,0.039507,0.0470454,713,1520,-3.46901,-5.73871
-504,-496,-0.399719,4.17053,0,0,0,0,0,0,0,-1,720,1520,-0.399709,-4.17052
-497,-496,-1.05737,4.58386,-0.0181079,-0.00401009,0.0178144,0.00809928,-0.0302172,0.973789,0.0233182,0.0484505,727,1520,-1.05737,-4.58382
-490,-496,-1.04242,4.86975,-0.0133223,-0.00208425,0.0130241,0.00648125,-0.0218878,0.989052,0.0171651,0.0357362,734,1520,-1.0424,-4.86979
-483,-496,-1.01855,4.91626,-0.00947281,-0.000842523,0.00930774,0.00510169,-0.015417,1.00245,0.0123354,0.0181036,741,1520,-1.01854,-4.91624
-476,-496,-1.02917,5.0719,-0.00605822,-6.87005e-05,0.00603129,0.00367041,-0.00979733,1.01583,0.00803934,0.0106228,748,1520,-1.02916,-5.07191
-469,-496,-1.03723,5.30811,-0.00384068,0.00060581,0.00387223,0.00284765,-0.00608252,1.046,0.00526739,0.0102678,755,1520,-1.03722,-5.30805
-462,-496,-1.03595,5.5022,-0.00196442,0.000349656,0.00229738,0.00176491,-0.00337967,1.01867,0.0030186,0.0152854,762,1520,-1.03592,-5.50223
-455,-496,-1.06287,5.7074,-0.000601857,1.57405e-05,0.00103307,0.000785177,-0.00137129,0.930628,0.00126027,0.020243,769,1520,-1.06284,-5.7074
-448,-496,-1.06909,5.93359,0.000358219,-0.000764206,0.000742645,0.000727856,-0.00113384,0.46183,0.00108334,0.0195609,776,1520,-1.06911,-5.93354
-441,-496,-1.04474,6.13904,0.00109504,-0.00124824,0.000487252,0.00119232,-0.00134552,0.197056,0.00146611,0.0154627,783,1520,-1.04477,-6.13902
-434,-496,-1.04877,6.33594,0.00129169,-0.00164048,0.000527367,0.00138366,-0.00173244,0.17265,0.00180283,0.0136716,790,1520,-1.04877,-6.33597
-427,-496,-1.05829,6.54639,0.00186335,-0.00207849,0.000551524,0.00193906,-0.00215421,0.136426,0.00236434,0.0165861,797,1520,-1.05832,-6.54636
-420,-496,-1.05298,6.7207,0.00244231,-0.0020285,0.000851848,0.00259911,-0.0021853,0.182042,0.00276573,0.0173322,804,1520,-1.05299,-6.72076
-413,-496,-1.00238,6.92139,0.00265536,-0.00245197,0.00137259,0.00300087,-0.00279748,0.246598,0.00334837,0.0154549,811,1520,-1.00237,-6.92136
-406,-496,-1.00427,7.146,0.00241726,-0.00276997,0.00214168,0.00318721,-0.00353993,0.345123,0.0038857,0.024201,818,1520,-1.00429,-7.14602
-399,-496,-0.819946,7.3678,0.00218549,-0.00308753,0.0031909,0.00368819,-0.00459022,0.440123,0.00478899,0.0393936,825,1520,-0.81992,-7.36774
-392,-496,-0.9729,7.35168,0.00186424,-0.00312917,0.00452383,0.0045346,-0.00579953,0.533248,0.00598129,0.0434941,832,1520,-0.972884,-7.35162
-385,-496,-1.27869,7.88513,0.00146004,-0.00303068,0.00615684,0.00576818,-0.00733882,0.610546,0.00758542,0.0443582,839,1520,-1.27867,-7.88511
-378,-496,-1.48663,8.36279,0,0,0,0,0,0,0,-1,846,1520,-1.48661,-8.36282
-371,-496,0.0614014,8.5448,0,0,0,0,0,0,0,-1,853,1520,0.0613989,-8.5448
-364,-496,0.8255,9.67419,0,0,0,0,0,0,0,-1,860,1520,0.825498,-9.67415
-357,-496,0.323792,7.56812,0,0,0,0,0,0,0,-1,867,1520,0.323782,-7.56806
-350,-496,2.1535,7.18945,0,0,0,0,0,0,0,-1,874,1520,2.15348,-7.1894
-343,-496,-7.56244,0.335327,0,0,0,0,0,0,0,-1,881,1520,-7.56242,-0.335322
-336,-496,-7.664,-0.446289,0,0,0,0,0,0,0,-1,888,1520,-7.66398,0.446252
-329,-496,-6.93689,-0.100342,0,0,0,0,0,0,0,-1,895,1520,-6.93686,0.1003
-322,-496,-6.17505,0.494385,0,0,0,0,0,0,0,-1,902,1520,-6.17507,-0.49437
-315,-496,-5.46338,1.0459,0,0,0,0,0,0,0,-1,909,1520,-5.46338,-1.04587
-308,-496,0,0,0,0,0,0,0,0,0,-1,916,1520,0,0
-301,-496,0,0,0,0,0,0,0,0,0,-1,923,1520,0,0
-294,-496,0,0,0,0,0,0,0,0,0,-1,930,1520,0,0
-287,-496,0,0,0,0,0,0,0,0,0,-1,937,1520,0,0
-280,-496,0,0,0,0,0,0,0,0,0,-1,944,1520,0,0
-273,-496,0,0,0,0,0,0,0,0,0,-1,951,1520,0,0
-266,-496,0,0,0,0,0,0,0,0,0,-1,958,1520,0,0
-259,-496,0,0,0,0,0,0,0,0,0,-1,965,1520,0,0
-252,-496,0,0,0,0,0,0,0,0,0,-1,972,1520,0,0
-245,-496,0,0,0,0,0,0,0,0,0,-1,979,1520,0,0
-238,-496,0,0,0,0,0,0,0,0,0,-1,986,1520,0,0
-231,-496,0,0,0,0,0,0,0,0,0,-1,993,1520,0,0
-224,-496,0,0,0,0,0,0,0,0,0,-1,1000,1520,0,0
-217,-496,0,0,0,0,0,0,0,0,0,-1,1007,1520,0,0
-210,-496,0,0,0,0,0,0,0,0,0,-1,1014,1520,0,0
-203,-496,0,0,0,0,0,0,0,0,0,-1,1021,1520,0,0
-196,-496,0,0,0,0,0,0,0,0,0,-1,1028,1520,0,0
-189,-496,0,0,0,0,0,0,0,0,0,-1,1035,1520,0,0
-182,-496,0,0,0,0,0,0,0,0,0,-1,1042,1520,0,0
-175,-496,0,0,0,0,0,0,0,0,0,-1,1049,1520,0,0
-168,-496,0,0,0,0,0,0,0,0,0,-1,1056,1520,0,0
-161,-496,0,0,0,0,0,0,0,0,0,-1,1063,1520,0,0
-154,-496,0,0,0,0,0,0,0,0,0,-1,1070,1520,0,0
-147,-496,0,0,0,0,0,0,0,0,0,-1,1077,1520,0,0
-140,-496,0,0,0,0,0,0,0,0,0,-1,1084,1520,0,0
-133,-496,0,0,0,0,0,0,0,0,0,-1,1091,1520,0,0
-126,-496,0,0,0,0,0,0,0,0,0,-1,1098,1520,0,0
-119,-496,0,0,0,0,0,0,0,0,0,-1,1105,1520,0,0
-112,-496,0,0,0,0,0,0,0,0,0,-1,1112,1520,0,0
-105,-496,0,0,0,0,0,0,0,0,0,-1,1119,1520,0,0
-98,-496,0,0,0,0,0,0,0,0,0,-1,1126,1520,0,0
-91,-496,0,0,0,0,0,0,0,0,0,-1,1133,1520,0,0
-84,-496,0,0,0,0,0,0,0,0,0,-1,1140,1520,0,0
-77,-496,0,0,0,0,0,0,0,0,0,-1,1147,1520,0,0
-70,-496,0,0,0,0,0,0,0,0,0,-1,1154,1520,0,0
-63,-496,0,0,0,0,0,0,0,0,0,-1,1161,1520,0,0
-56,-496,0,0,0,0,0,0,0,0,0,-1,1168,1520,0,0
-49,-496,0,0,0,0,0,0,0,0,0,-1,1175,1520,0,0
-42,-496,0,0,0,0,0,0,0,0,0,-1,1182,1520,0,0
-35,-496,0,0,0,0,0,0,0,0,0,-1,1189,1520,0,0
-28,-496,0,0,0,0,0,0,0,0,0,-1,1196,1520,0,0
-21,-496,0,0,0,0,0,0,0,0,0,-1,1203,1520,0,0
-14,-496,0,0,0,0,0,0,0,0,0,-1,1210,1520,0,0
-7,-496,0,0,0,0,0,0,0,0,0,-1,1217,1520,0,0
0,-496,0,0,0,0,0,0,0,0,0,-1,1224,1520,0,0
7,-496,0,0,0,0,0,0,0,0,0,-1,1231,1520,0,0
14,-496,0,0,0,0,0,0,0,0,0,-1,1238,1520,0,0
21,-496,0,0,0,0,0,0,0,0,0,-1,1245,1520,0,0
28,-496,0,0,0,0,0,0,0,0,0,-1,1252,1520,0,0
35,-496,0,0,0,0,0,0,0,0,0,-1,1259,1520,0,0
42,-496,0,0,0,0,0,0,0,0,0,-1,1266,1520,0,0
49,-496,0,0,0,0,0,0,0,0,0,-1,1273,1520,0,0
56,-496,0,0,0,0,0,0,0,0,0,-1,1280,1520,0,0
63,-496,0,0,0,0,0,0,0,0,0,-1,1287,1520,0,0
70,-496,0,0,0,0,0,0,0,0,0,-1,1294,1520,0,0
77,-496,0,0,0,0,0,0,0,0,0,-1,1301,1520,0,0
84,-496,0,0,0,0,0,0,0,0,0,-1,1308,1520,0,0
91,-496,0,0,0,0,0,0,0,0,0,-1,1315,1520,0,0
98,-496,0,0,0,0,0,0,0,0,0,-1,1322,1520,0,0
105,-496,0,0,0,0,0,0,0,0,0,-1,1329,1520,0,0
112,-496,0,0,0,0,0,0,0,0,0,-1,1336,1520,0,0
119,-496,0,0,0,0,0,0,0,0,0,-1,1343,1520,0,0
126,-496,0,0,0,0,0,0,0,0,0,-1,1350,1520,0,0
133,-496,0,0,0,0,0,0,0,0,0,-1,1357,1520,0,0
140,-496,0,0,0,0,0,0,0,0,0,-1,1364,1520,0,0
147,-496,0,0,0,0,0,0,0,0,0,-1,1371,1520,0,0
154,-496,0,0,0,0,0,0,0,0,0,-1,1378,1520,0,0
161,-496,0,0,0,0,0,0,0,0,0,-1,1385,1520,0,0
168,-496,0,0,0,0,0,0,0,0,0,-1,1392,1520,0,0
175,-496,0,0,0,0,0,0,0,0,0,-1,1399,1520,0,0
182,-496,0,0,0,0,0,0,0,0,0,-1,1406,1520,0,0
189,-496,0,0,0,0,0,0,0,0,0,-1,1413,1520,0,0
196,-496,0,0,0,0,0,0,0,0,0,-1,1420,1520,0,0
203,-496,0,0,0,0,0,0,0,0,0,-1,1427,1520,0,0
210,-496,0,0,0,0,0,0,0,0,0,-1,1434,1520,0,0
217,-496,0,0,0,0,0,0,0,0,0,-1,1441,1520,0,0
224,-496,0,0,0,0,0,0,0,0,0,-1,1448,1520,0,0
231,-496,0,0,0,0,0,0,0,0,0,-1,1455,1520,0,0
238,-496,0,0,0,0,0,0,0,0,0,-1,1462,1520,0,0
245,-496,0,0,0,0,0,0,0,0,0,-1,1469,1520,0,0
252,-496,0,0,0,0,0,0,0,0,0,-1,1476,1520,0,0
259,-496,0,0,0,0,0,0,0,0,0,-1,1483,1520,0,0
266,-496,0,0,0,0,0,0,0,0,0,-1,1490,1520,0,0
273,-496,0,0,0,0,0,0,0,0,0,-1,1497,1520,0,0
280,-496,0,0,0,0,0,0,0,0,0,-1,1504,1520,0,0
287,-496,0,0,0,0,0,0,0,0,0,-1,1511,1520,0,0
294,-496,0,0,0,0,0,0,0,0,0,-1,1518,1520,0,0
301,-496,0,0,0,0,0,0,0,0,0,-1,1525,1520,0,0
308,-496,0,0,0,0,0,0,0,0,0,-1,1532,1520,0,0
315,-496,0,0,0,0,0,0,0,0,0,-1,1539,1520,0,0
322,-496,0,0,0,0,0,0,0,0,0,-1,1546,1520,0,0
329,-496,0,0,0,0,0,0,0,0,0,-1,1553,1520,0,0
336,-496,0,0,0,0,0,0,0,0,0,-1,1560,1520,0,0
343,-496,0,0,0,0,0,0,0,0,0,-1,1567,1520,0,0
350,-496,0,0,0,0,0,0,0,0,0,-1,1574,1520,0,0
357,-496,0,0,0,0,0,0,0,0,0,-1,1581,1520,0,0
364,-496,0,0,0,0,0,0,0,0,0,-1,1588,1520,0,0
371,-496,0,0,0,0,0,0,0,0,0,-1,1595,1520,0,0
378,-496,0,0,0,0,0,0,0,0,0,-1,1602,1520,0,0
385,-496,0,0,0,0,0,0,0,0,0,-1,1609,1520,0,0
392,-496,0,0,0,0,0,0,0,0,0,-1,1616,1520,0,0
399,-496,0,0,0,0,0,0,0,0,0,-1,1623,1520,0,0
406,-496,0,0,0,0,0,0,0,0,0,-1,1630,1520,0,0
413,-496,0,0,0,0,0,0,0,0,0,-1,1637,1520,0,0
420,-496,0,0,0,0,0,0,0,0,0,-1,1644,1520,0,0
427,-496,0,0,0,0,0,0,0,0,0,-1,1651,1520,0,0
434,-496,11.0457,3.37732,0,0,0,0,0,0,0,-1,1658,1520,11.0456,-3.37736
441,-496,11.788,2.75488,0,0,0,0,0,0,0,-1,1665,1520,11.7879,-2.75485
448,-496,12.2146,2.18494,0,0,0,0,0,0,0,-1,1672,1520,12.2146,-2.18489
455,-496,12.3489,1.65173,0,0,0,0,0,0,0,-1,1679,1520,12.3489,-1.65178
462,-496,12.1912,1.32361,0,0,0,0,0,0,0,-1,1686,1520,12.1911,-1.32357
469,-496,14.8138,5.77954,0,0,0,0,0,0,0,-1,1693,1520,14.8138,-5.77958
476,-496,15.2449,6.27942,0,0,0,0,0,0,0,-1,1700,1520,15.2449,-6.27936
483,-496,8.92578,2.27734,0,0,0,0,0,0,0,-1,1707,1520,8.92574,-2.27738
490,-496,10.9678,6.51672,0,0,0,0,0,0,0,-1,1714,1520,10.9677,-6.51671
497,-496,11.0656,7.67798,0,0,0,0,0,0,0,-1,1721,1520,11.0655,-7.67796
504,-496,11.0784,7.83105,0,0,0,0,0,0,0,-1,1728,1520,11.0784,-7.83109
511,-496,9.16052,7.67957,0,0,0,0,0,0,0,-1,1735,1520,9.16052,-7.67953
518,-496,9.0061,8.07666,-0.0194087,-0.0266525,0.0243443,0.00158163,-0.0476428,0.71155,0.032302,0.0468437,1742,1520,9.00608,-8.07667
525,-496,8.93823,8.41211,-0.0164147,-0.0183487,0.0187241,0.00136738,-0.0361308,0.7596,0.0245557,0.0423339,1749,1520,8.93822,-8.41213
532,-496,8.86292,8.62317,-0.0137311,-0.0112927,0.0138713,0.00141286,-0.0264366,0.829233,0.0181137,0.0242691,1756,1520,8.86295,-8.62318
539,-496,8.82043,8.52197,-0.0110015,-0.00686051,0.0101741,0.00145168,-0.0193136,0.885779,0.0133859,0.0126606,1763,1520,8.82039,-8.52199
546,-496,8.8009,8.33899,-0.00823525,-0.00540191,0.00774265,0.00105261,-0.0146898,0.875882,0.0101622,0.0097961,1770,1520,8.80087,-8.33893
553,-496,8.81592,8.15002,-0.00612364,-0.00406714,0.00575695,0.000752665,-0.0109435,0.873772,0.00755902,0.0146917,1777,1520,8.81595,-8.15005
560,-496,8.8208,7.97437,-0.00417687,-0.00278639,0.00391419,0.000493819,-0.00745708,0.873291,0.0051439,0.0138774,1784,1520,8.8208,-7.97434
567,-496,8.82654,7.78552,-0.00207623,-0.00218467,0.00258534,0.000455461,-0.00471636,0.774914,0.00330654,0.0110915,1791,1520,8.82655,-7.78558
574,-496,8.823,7.60193,-0.000645927,-0.00100301,0.00156927,0.000754923,-0.00240386,0.728755,0.00190475,0.011672,1798,1520,8.82304,-7.60193
581,-496,8.81042,7.43665,0.00016615,-0.000593018,0.000812544,0.0006834,-0.00111027,0.566884,0.0010453,0.013155,1805,1520,8.81041,-7.43666
588,-496,8.81421,7.26013,0.000460268,-0.000811457,0.000625493,0.000716349,-0.00106754,0.388589,0.00103656,0.0156141,1812,1520,8.81416,-7.26017
595,-496,8.82166,7.0752,0.000782327,-0.00104183,0.000618354,0.000972178,-0.00123168,0.297891,0.00127533,0.0159418,1819,1520,8.82168,-7.07517
602,-496,8.82642,6.89429,0.000794571,-0.00184635,0.000913813,0.00107993,-0.00213172,0.302682,0.0018871,0.0167628,1826,1520,8.82641,-6.89424
609,-496,8.82495,6.70886,0.000576272,-0.00324641,0.00155102,0.00112641,-0.00379655,0.340853,0.00297837,0.0148864,1833,1520,8.82498,-6.70883
616,-496,8.83386,6.51074,0.000151136,-0.00552225,0.00268819,0.00122254,-0.00659365,0.379263,0.00485486,0.0118924,1840,1520,8.83381,-6.51073
623,-496,8.85291,6.42334,-0.000588867,-0.00885899,0.00419545,0.00116679,-0.0106146,0.396324,0.00749569,0.0232273,1847,1520,8.85296,-6.42338
630,-496,8.75977,6.68628,-0.00163835,-0.0132829,0.00609176,0.000966034,-0.0158873,0.404007,0.0109278,0.0395182,1854,1520,8.75971,-6.68625
637,-496,8.62903,7.09253,-0.00268749,-0.0187657,0.00833573,0.000854054,-0.0223073,0.401755,0.0151642,0.0456157,1861,1520,8.62903,-7.09259
644,-496,8.63184,7.2948,0,0,0,0,0,0,0,-1,1868,1520,8.63189,-7.29477
651,-496,6.02295,6.79968,0,0,0,0,0,0,0,-1,1875,1520,6.02298,-6.79971
658,-496,5.57922,7.42651,0,0,0,0,0,0,0,-1,1882,1520,5.57926,-7.42654
665,-496,5.47583,7.90625,0,0,0,0,0,0,0,-1,1889,1520,5.47581,-7.90628
672,-496,0,0,0,0,0,0,0,0,0,-1,1896,1520,0,0
679,-496,0,0,0,0,0,0,0,0,0,-1,1903,1520,0,0
686,-496,0,0,0,0,0,0,0,0,0,-1,1910,1520,0,0
693,-496,0,0,0,0,0,0,0,0,0,-1,1917,1520,0,0
700,-496,0,0,0,0,0,0,0,0,0,-1,1924,1520,0,0
707,-496,0,0,0,0,0,0,0,0,0,-1,1931,1520,0,0
714,-496,0,0,0,0,0,0,0,0,0,-1,1938,1520,0,0
721,-496,0,0,0,0,0,0,0,0,0,-1,1945,1520,0,0
728,-496,0,0,0,0,0,0,0,0,0,-1,1952,1520,0,0
735,-496,0,0,0,0,0,0,0,0,0,-1,1959,1520,0,0
742,-496,0,0,0,0,0,0,0,0,0,-1,1966,1520,0,0
749,-496,0,0,0,0,0,0,0,0,0,-1,1973,1520,0,0
756,-496,0,0,0,0,0,0,0,0,0,-1,1980,1520,0,0
763,-496,0,0,0,0,0,0,0,0,0,-1,1987,1520,0,0
770,-496,0,0,0,0,0,0,0,0,0,-1,1994,1520,0,0
777,-496,0,0,0,0,0,0,0,0,0,-1,2001,1520,0,0
784,-496,0,0,0,0,0,0,0,0,0,-1,2008,1520,0,0
791,-496,0,0,0,0,0,0,0,0,0,-1,2015,1520,0,0
798,-496,0,0,0,0,0,0,0,0,0,-1,2022,1520,0,0
805,-496,0,0,0,0,0,0,0,0,0,-1,2029,1520,0,0
812,-496,0,0,0,0,0,0,0,0,0,-1,2036,1520,0,0
-700,-503,0,0,0,0,0,0,0,0,0,-1,524,1527,0,0
-693,-503,0,0,0,0,0,0,0,0,0,-1,531,1527,0,0
-686,-503,0,0,0,0,0,0,0,0,0,-1,538,1527,0,0
-679,-503,0,0,0,0,0,0,0,0,0,-1,545,1527,0,0
-672,-503,0,0,0,0,0,0,0,0,0,-1,552,1527,0,0
-665,-503,0,0,0,0,0,0,0,0,0,-1,559,1527,0,0
-658,-503,0,0,0,0,0,0,0,0,0,-1,566,1527,0,0
-651,-503,0,0,0,0,0,0,0,0,0,-1,573,1527,0,0
-644,-503,0,0,0,0,0,0,0,0,0,-1,580,1527,0,0
-637,-503,0,0,0,0,0,0,0,0,0,-1,587,1527,0,0
-630,-503,0,0,0,0,0,0,0,0,0,-1,594,1527,0,0
-623,-503,0,0,0,0,0,0,0,0,0,-1,601,1527,0,0
-616,-503,0,0,0,0,0,0,0,0,0,-1,608,1527,0,0
-609,-503,0,0,0,0,0,0,0,0,0,-1,615,1527,0,0
-602,-503,0,0,0,0,0,0,0,0,0,-1,622,1527,0,0
-595,-503,0,0,0,0,0,0,0,0,0,-1,629,1527,0,0
-588,-503,0,0,0,0,0,0,0,0,0,-1,636,1527,0,0
-581,-503,0,0,0,0,0,0,0,0,0,-1,643,1527,0,0
-574,-503,0,0,0,0,0,0,0,0,0,-1,650,1527,0,0
-567,-503,0,0,0,0,0,0,0,0,0,-1,657,1527,0,0
-560,-503,0,0,0,0,0,0,0,0,0,-1,664,1527,0,0
-553,-503,0,0,0,0,0,0,0,0,0,-1,671,1527,0,0
-546,-503,0,0,0,0,0,0,0,0,0,-1,678,1527,0,0
-539,-503,-1.67786,3.5929,0,0,0,0,0,0,0,-1,685,1527,-1.67788,-3.59286
-532,-503,-2.03979,4.42249,-0.0402426,-0.0214919,0.0694413,0.039204,-0.100939,0.852498,0.0834872,0.0445268,692,1527,-2.03978,-4.42249
-525,-503,-2.51678,4.82825,-0.0427019,-0.0178468,0.0566971,0.0277688,-0.0883175,0.893288,0.0699954,0.0459869,699,1527,-2.51681,-4.82821
-518,-503,-2.77441,5.26672,0,0,0,0,0,0,0,-1,706,1527,-2.77442,-5.26675
-511,-503,-3.65118,5.88123,-0.0358742,-0.0107694,0.0364265,0.0152068,-0.0618504,0.951324,0.0471276,0.0452616,713,1527,-3.65121,-5.88127
-504,-503,-3.72888,6.08911,0,0,0,0,0,0,0,-1,720,1527,-3.72891,-6.08917
-497,-503,-1.11182,4.87939,0,0,0,0,0,0,0,-1,727,1527,-1.11184,-4.87938
-490,-503,-0.733704,4.75891,-0.0160643,-0.00234802,0.0163353,0.00851034,-0.0269227,0.984143,0.0213581,0.0471378,734,1527,-0.733721,-4.75888
-483,-503,-0.706116,4.88623,-0.0112487,-0.000852085,0.0120218,0.00704722,-0.019148,0.989461,0.0156525,0.0367127,741,1527,-0.706105,-4.88629
-476,-503,-0.768066,5.10901,-0.00700981,0.000129626,0.00822223,0.00552361,-0.0124038,0.990198,0.0106014,0.0173727,748,1527,-0.768087,-5.10905
-469,-503,-0.82373,5.31238,-0.00424292,0.00102946,0.00568532,0.00466004,-0.0078735,1.00249,0.00731509,0.00928005,755,1527,-0.82375,-5.31233
-462,-503,-0.835693,5.53394,-0.00206835,0.000915574,0.00384537,0.00354827,-0.00470105,0.970453,0.00477822,0.0113296,762,1527,-0.835686,-5.53395
-455,-503,-0.835205,5.7334,-0.000563307,0.000713315,0.00233829,0.00249885,-0.00234884,0.918643,0.00279926,0.016927,769,1527,-0.835213,-5.73336
-448,-503,-0.832886,5.93518,0.000363795,1.33966e-05,0.00187135,0.00206812,-0.00169093,0.738723,0.00217393,0.0169698,776,1527,-0.832897,-5.93523
-441,-503,-0.825195,6.14355,0.00103747,-0.000408291,0.00142674,0.00191401,-0.00128483,0.550915,0.00185872,0.0140309,783,1527,-0.825221,-6.1435
-434,-503,-0.830994,6.32764,0.00119428,-0.000786464,0.00127605,0.00181919,-0.00141137,0.455392,0.00187012,0.0113551,790,1527,-0.830978,-6.3276
-427,-503,-0.850037,6.51379,0.00169793,-0.00123857,0.00110756,0.00206882,-0.00160946,0.323137,0.00212917,0.0168419,797,1527,-0.85003,-6.51385
-420,-503,-0.835022,6.72571,0.0022338,-0.00129102,0.00118214,0.00259354,-0.00165077,0.295412,0.00247052,0.0174348,804,1527,-0.835035,-6.72577
-413,-503,-0.832642,6.91846,0.00242527,-0.00186465,0.00144462,0.00286638,-0.00230576,0.296358,0.00299198,0.0152116,811,1527,-0.832658,-6.91848
-406,-503,-0.830017,7.12756,0.0022286,-0.00239077,0.00187394,0.00289319,-0.00305535,0.340808,0.00343482,0.0137671,818,1527,-0.830027,-7.12751
-399,-503,-0.720215,7.37939,0.00213132,-0.00305469,0.00251625,0.00315151,-0.00407488,0.385188,0.0041835,0.0176418,825,1527,-0.720223,-7.37945
-392,-503,-0.701477,7.48987,0,0,0,0,0,0,0,-1,832,1527,-0.701487,-7.48993
-385,-503,-0.953186,7.91406,0,0,0,0,0,0,0,-1,839,1527,-0.953164,-7.91412
-378,-503,-0.472168,7.66919,0.00240872,-0.00486376,0.00571246,0.00554407,-0.00799911,0.501969,0.00786187,0.043657,846,1527,-0.472152,-7.66921
-371,-503,-0.250671,8.09753,0.00290835,-0.00579484,0.00702393,0.00681945,-0.00970593,0.508067,0.00958932,0.0472099,853,1527,-0.250691,-8.09753
-364,-503,-0.0117188,8.57019,0,0,0,0,0,0,0,-1,860,1527,-0.0117047,-8.57019
-357,-503,0.558533,9.25452,0,0,0,0,0,0,0,-1,867,1527,0.558542,-9.25446
-350,-503,0.219971,6.84827,0,0,0,0,0,0,0,-1,874,1527,0.21996,-6.84831
-343,-503,0.895691,7.56384,0,0,0,0,0,0,0,-1,881,1527,0.8957,-7.56384
-336,-503,1.26941,8.81177,0,0,0,0,0,0,0,-1,888,1527,1.26943,-8.81178
-329,-503,-6.71832,-0.386597,0,0,0,0,0,0,0,-1,895,1527,-6.71832,0.386628
-322,-503,-3.31317,8.81519,0,0,0,0,0,0,0,-1,902,1527,-3.31315,-8.81524
-315,-503,-3.90265,7.73853,0,0,0,0,0,0,0,-1,909,1527,-3.90264,-7.73854
-308,-503,-4.07867,7.25977,0,0,0,0,0,0,0,-1,916,1527,-4.07868,-7.25973
-301,-503,0,0,0,0,0,0,0,0,0,-1,923,1527,0,0
-294,-503,0,0,0,0,0,0,0,0,0,-1,930,1527,0,0
-287,-503,0,0,0,0,0,0,0,0,0,-1,937,1527,0,0
-280,-503,0,0,0,0,0,0,0,0,0,-1,944,1527,0,0
-273,-503,0,0,0,0,0,0,0,0,0,-1,951,1527,0,0
-266,-503,0,0,0,0,0,0,0,0,0,-1,958,1527,0,0
-259,-503,0,0,0,0,0,0,0,0,0,-1,965,1527,0,0
-252,-503,0,0,0,0,0,0,0,0,0,-1,972,1527,0,0
-245,-503,0,0,0,0,0,0,0,0,0,-1,979,1527,0,0
-238,-503,0,0,0,0,0,0,0,0,0,-1,986,1527,0,0
-231,-503,0,0,0,0,0,0,0,0,0,-1,993,1527,0,0
-224,-503,0,0,0,0,0,0,0,0,0,-1,1000,1527,0,0
-217,-503,0,0,0,0,0,0,0,0,0,-1,1007,1527,0,0
-210,-503,0,0,0,0,0,0,0,0,0,-1,1014,1527,0,0
-203,-503,0,0,0,0,0,0,0,0,0,-1,1021,1527,0,0
-196,-503,0,0,0,0,0,0,0,0,0,-1,1028,1527,0,0
-189,-503,0,0,0,0,0,0,0,0,0,-1,1035,1527,0,0
-182,-503,0,0,0,0,0,0,0,0,0,-1,1042,1527,0,0
-175,-503,0,0,0,0,0,0,0,0,0,-1,1049,1527,0,0
-168,-503,0,0,0,0,0,0,0,0,0,-1,1056,1527,0,0
-161,-503,0,0,0,0,0,0,0,0,0,-1,1063,1527,0,0
-154,-503,0,0,0,0,0,0,0,0,0,-1,1070,1527,0,0
-147,-503,0,0,0,0,0,0,0,0,0,-1,1077,1527,0,0
-140,-503,0,0,0,0,0,0,0,0,0,-1,1084,1527,0,0
-133,-503,0,0,0,0,0,0,0,0,0,-1,1091,1527,0,0
-126,-503,0,0,0,0,0,0,0,0,0,-1,1098,1527,0,0
-119,-503,0,0,0,0,0,0,0,0,0,-1,1105,1527,0,0
-112,-503,0,0,0,0,0,0,0,0,0,-1,1112,1527,0,0
-105,-503,0,0,0,0,0,0,0,0,0,-1,1119,1527,0,0
-98,-503,0,0,0,0,0,0,0,0,0,-1,1126,1527,0,0
-91,-503,0,0,0,0,0,0,0,0,0,-1,1133,1527,0,0
-84,-503,0,0,0,0,0,0,0,0,0,-1,1140,1527,0,0
-77,-503,0,0,0,0,0,0,0,0,0,-1,1147,1527,0,0
-70,-503,0,0,0,0,0,0,0,0,0,-1,1154,1527,0,0
-63,-503,0,0,0,0,0,0,0,0,0,-1,1161,1527,0,0
-56,-503,0,0,0,0,0,0,0,0,0,-1,1168,1527,0,0
-49,-503,0,0,0,0,0,0,0,0,0,-1,1175,1527,0,0
-42,-503,0,0,0,0,0,0,0,0,0,-1,1182,1527,0,0
-35,-503,0,0,0,0,0,0,0,0,0,-1,1189,1527,0,0
-28,-503,0,0,0,0,0,0,0,0,0,-1,1196,1527,0,0
-21,-503,0,0,0,0,0,0,0,0,0,-1,1203,1527,0,0
-14,-503,0,0,0,0,0,0,0,0,0,-1,1210,1527,0,0
-7,-503,0,0,0,0,0,0,0,0,0,-1,1217,1527,0,0
0,-503,0,0,0,0,0,0,0,0,0,-1,1224,1527,0,0
7,-503,0,0,0,0,0,0,0,0,0,-1,1231,1527,0,0
14,-503,0,0,0,0,0,0,0,0,0,-1,1238,1527,0,0
21,-503,0,0,0,0,0,0,0,0,0,-1,1245,1527,0,0
28,-503,0,0,0,0,0,0,0,0,0,-1,1252,1527,0,0
35,-503,0,0,0,0,0,0,0,0,0,-1,1259,1527,0,0
42,-503,0,0,0,0,0,0,0,0,0,-1,1266,1527,0,0
49,-503,0,0,0,0,0,0,0,0,0,-1,1273,1527,0,0
56,-503,0,0,0,0,0,0,0,0,0,-1,1280,1527,0,0
63,-503,0,0,0,0,0,0,0,0,0,-1,1287,1527,0,0
70,-503,0,0,0,0,0,0,0,0,0,-1,1294,1527,0,0
77,-503,0,0,0,0,0,0,0,0,0,-1,1301,1527,0,0
84,-503,0,0,0,0,0,0,0,0,0,-1,1308,1527,0,0
91,-503,0,0,0,0,0,0,0,0,0,-1,1315,1527,0,0
98,-503,0,0,0,0,0,0,0,0,0,-1,1322,1527,0,0
105,-503,0,0,0,0,0,0,0,0,0,-1,1329,1527,0,0
112,-503,0,0,0,0,0,0,0,0,0,-1,1336,1527,0,0
119,-503,0,0,0,0,0,0,0,0,0,-1,1343,1527,0,0
126,-503,0,0,0,0,0,0,0,0,0,-1,1350,1527,0,0
133,-503,0,0,0,0,0,0,0,0,0,-1,1357,1527,0,0
140,-503,0,0,0,0,0,0,0,0,0,-1,1364,1527,0,0
147,-503,0,0,0,0,0,0,0,0,0,-1,1371,1527,0,0
154,-503,0,0,0,0,0,0,0,0,0,-1,1378,1527,0,0
161,-503,0,0,0,0,0,0,0,0,0,-1,1385,1527,0,0
168,-503,0,0,0,0,0,0,0,0,0,-1,1392,1527,0,0
175,-503,0,0,0,0,0,0,0,0,0,-1,1399,1527,0,0
182,-503,0,0,0,0,0,0,0,0,0,-1,1406,1527,0,0
189,-503,0,0,0,0,0,0,0,0,0,-1,1413,1527,0,0
196,-503,0,0,0,0,0,0,0,0,0,-1,1420,1527,0,0
203,-503,0,0,0,0,0,0,0,0,0,-1,1427,1527,0,0
210,-503,0,0,0,0,0,0,0,0,0,-1,1434,1527,0,0
217,-503,0,0,0,0,0,0,0,0,0,-1,1441,1527,0,0
224,-503,0,0,0,0,0,0,0,0,0,-1,1448,1527,0,0
231,-503,0,0,0,0,0,0,0,0,0,-1,1455,1527,0,0
238,-503,0,0,0,0,0,0,0,0,0,-1,1462,1527,0,0
245,-503,0,0,0,0,0,0,0,0,0,-1,1469,1527,0,0
252,-503,0,0,0,0,0,0,0,0,0,-1,1476,1527,0,0
259,-503,0,0,0,0,0,0,0,0,0,-1,1483,1527,0,0
266,-503,0,0,0,0,0,0,0,0,0,-1,1490,1527,0,0
273,-503,0,0,0,0,0,0,0,0,0,-1,1497,1527,0,0
280,-503,0,0,0,0,0,0,0,0,0,-1,1504,1527,0,0
287,-503,0,0,0,0,0,0,0,0,0,-1,1511,1527,0,0
294,-503,0,0,0,0,0,0,0,0,0,-1,1518,1527,0,0
301,-503,0,0,0,0,0,0,0,0,0,-1,1525,1527,0,0
308,-503,0,0,0,0,0,0,0,0,0,-1,1532,1527,0,0
315,-503,0,0,0,0,0,0,0,0,0,-1,1539,1527,0,0
322,-503,0,0,0,0,0,0,0,0,0,-1,1546,1527,0,0
329,-503,0,0,0,0,0,0,0,0,0,-1,1553,1527,0,0
336,-503,0,0,0,0,0,0,0,0,0,-1,1560,1527,0,0
343,-503,0,0,0,0,0,0,0,0,0,-1,1567,1527,0,0
350,-503,0,0,0,0,0,0,0,0,0,-1,1574,1527,0,0
357,-503,0,0,0,0,0,0,0,0,0,-1,1581,1527,0,0
364,-503,0,0,0,0,0,0,0,0,0,-1,1588,1527,0,0
371,-503,0,0,0,0,0,0,0,0,0,-1,1595,1527,0,0
378,-503,0,0,0,0,0,0,0,0,0,-1,1602,1527,0,0
385,-503,0,0,0,0,0,0,0,0,0,-1,1609,1527,0,0
392,-503,0,0,0,0,0,0,0,0,0,-1,1616,1527,0,0
399,-503,0,0,0,0,0,0,0,0,0,-1,1623,1527,0,0
406,-503,0,0,0,0,0,0,0,0,0,-1,1630,1527,0,0
413,-503,0,0,0,0,0,0,0,0,0,-1,1637,1527,0,0
420,-503,0,0,0,0,0,0,0,0,0,-1,1644,1527,0,0
427,-503,10.5968,4.9856,0,0,0,0,0,0,0,-1,1651,1527,10.5969,-4.98563
434,-503,11.4329,3.97217,0,0,0,0,0,0,0,-1,1658,1527,11.4328,-3.97222
441,-503,12.0957,2.96509,0,0,0,0,0,0,0,-1,1665,1527,12.0957,-2.96512
448,-503,12.3259,2.53894,0,0,0,0,0,0,0,-1,1672,1527,12.326,-2.53895
455,-503,12.1669,2.18762,0,0,0,0,0,0,0,-1,1679,1527,12.1668,-2.18767
462,-503,11.59,2.60791,0,0,0,0,0,0,0,-1,1686,1527,11.5899,-2.60794
469,-503,11.1625,1.61853,0,0,0,0,0,0,0,-1,1693,1527,11.1625,-1.61856
476,-503,8.7157,2.09912,0,0,0,0,0,0,0,-1,1700,1527,8.71572,-2.0991
483,-503,8.7793,3.53882,0,0,0,0,0,0,0,-1,1707,1527,8.77935,-3.53883
490,-503,8.84302,4.97852,0,0,0,0,0,0,0,-1,1714,1527,8.84299,-4.97856
497,-503,10.3116,7.89331,0,0,0,0,0,0,0,-1,1721,1527,10.3117,-7.89326
504,-503,9.81299,8.45642,0,0,0,0,0,0,0,-1,1728,1527,9.81297,-8.45647
511,-503,9.99158,9.55786,-0.0178307,-0.0355673,0.0270649,0.00178179,-0.0551798,0.627077,0.0373946,0.0418149,1735,1527,9.99157,-9.55787
518,-503,8.75586,8.39001,-0.0155542,-0.023881,0.0208006,0.00149563,-0.0409308,0.686624,0.0277992,0.0407634,1742,1527,8.75585,-8.39
525,-503,8.672,8.69067,-0.0131831,-0.0160734,0.0158438,0.00128139,-0.0305378,0.739918,0.0207989,0.0302073,1749,1527,8.672,-8.69069
532,-503,8.64343,8.69531,-0.0110416,-0.00954364,0.0115335,0.00126514,-0.0218503,0.817822,0.0150064,0.0118741,1756,1527,8.64347,-8.69534
539,-503,8.64673,8.54041,-0.00880258,-0.00531006,0.00822234,0.00134941,-0.015462,0.890033,0.010786,0.0118975,1763,1527,8.6467,-8.54041
546,-503,8.61719,8.35669,-0.00647872,-0.00394741,0.00608176,0.000998998,-0.0114251,0.887987,0.00797064,0.0115953,1770,1527,8.61722,-8.35664
553,-503,8.6228,8.17285,-0.00467913,-0.00267812,0.0043468,0.000781831,-0.00813908,0.898514,0.00570455,0.0136748,1777,1527,8.62276,-8.1729
560,-503,8.61987,7.98889,-0.00293519,-0.00149452,0.00271439,0.000593496,-0.0050232,0.915097,0.00356315,0.0129785,1784,1527,8.61981,-7.98885
567,-503,8.63171,7.77991,-0.00103618,-0.000966741,0.00153677,0.000535704,-0.00253863,0.796693,0.00189638,0.0109729,1791,1527,8.63173,-7.77994
574,-503,8.64221,7.59924,0.000270942,8.20889e-05,0.000676989,0.000860059,-0.000507027,0.716105,0.000798011,0.0120143,1798,1527,8.6422,-7.59922
581,-503,8.6084,7.43579,0.00100441,0.000404149,7.5642e-05,0.0010138,0.000394763,0.123444,0.00059007,0.0126114,1805,1527,8.60837,-7.43573
588,-503,8.60229,7.27136,0.00124414,6.99871e-05,-6.3553e-06,0.00124418,6.99527e-05,-0.00541244,0.000807146,0.0152644,1812,1527,8.60236,-7.27136
595,-503,8.62878,7.09875,0.00152723,-0.000291575,9.37835e-05,0.00153205,-0.000296397,0.0513817,0.00113316,0.0116728,1819,1527,8.62875,-7.09877
602,-503,8.64783,6.90869,0.0014996,-0.00125094,0.000512799,0.0015921,-0.00134343,0.178452,0.00169685,0.0126289,1826,1527,8.64785,-6.90866
609,-503,8.68384,6.70801,0.00117876,-0.00291928,0.00130616,0.00155967,-0.00330019,0.283752,0.00286519,0.0170694,1833,1527,8.68385,-6.70795
616,-503,8.65222,6.58215,0.00055473,-0.0055172,0.00264996,0.00154858,-0.00651105,0.358808,0.0049385,0.0181947,1840,1527,8.65222,-6.58217
623,-503,8.71057,6.51514,-0.000494752,-0.0092734,0.00440168,0.00133211,-0.0111003,0.393402,0.00788182,0.0328147,1847,1527,8.7106,-6.51509
630,-503,8.5448,6.95947,0,0,0,0,0,0,0,-1,1854,1527,8.54479,-6.95946
637,-503,8.45007,7.64648,0,0,0,0,0,0,0,-1,1861,1527,8.45006,-7.64646
644,-503,9.65637,3.39685,0,0,0,0,0,0,0,-1,1868,1527,9.65638,-3.39687
651,-503,5.90771,6.74841,0,0,0,0,0,0,0,-1,1875,1527,5.90774,-6.74845
658,-503,5.73291,7.09534,0,0,0,0,0,0,0,-1,1882,1527,5.73293,-7.09529
665,-503,0,0,0,0,0,0,0,0,0,-1,1889,1527,0,0
672,-503,0,0,0,0,0,0,0,0,0,-1,1896,1527,0,0
679,-503,0,0,0,0,0,0,0,0,0,-1,1903,1527,0,0
686,-503,0,0,0,0,0,0,0,0,0,-1,1910,1527,0,0
693,-503,0,0,0,0,0,0,0,0,0,-1,1917,1527,0,0
700,-503,0,0,0,0,0,0,0,0,0,-1,1924,1527,0,0
707,-503,0,0,0,0,0,0,0,0,0,-1,1931,1527,0,0
714,-503,0,0,0,0,0,0,0,0,0,-1,1938,1527,0,0
721,-503,0,0,0,0,0,0,0,0,0,-1,1945,1527,0,0
728,-503,0,0,0,0,0,0,0,0,0,-1,1952,1527,0,0
735,-503,0,0,0,0,0,0,0,0,0,-1,1959,1527,0,0
742,-503,0,0,0,0,0,0,0,0,0,-1,1966,1527,0,0
749,-503,0,0,0,0,0,0,0,0,0,-1,1973,1527,0,0
756,-503,0,0,0,0,0,0,0,0,0,-1,1980,1527,0,0
763,-503,0,0,0,0,0,0,0,0,0,-1,1987,1527,0,0
770,-503,0,0,0,0,0,0,0,0,0,-1,1994,1527,0,0
777,-503,0,0,0,0,0,0,0,0,0,-1,2001,1527,0,0
784,-503,0,0,0,0,0,0,0,0,0,-1,2008,1527,0,0
791,-503,0,0,0,0,0,0,0,0,0,-1,2015,1527,0,0
798,-503,0,0,0,0,0,0,0,0,0,-1,2022,1527,0,0
805,-503,0,0,0,0,0,0,0,0,0,-1,2029,1527,0,0
812,-503,0,0,0,0,0,0,0,0,0,-1,2036,1527,0,0
-700,-510,0,0,0,0,0,0,0,0,0,-1,524,1534,0,0
-693,-510,0,0,0,0,0,0,0,0,0,-1,531,1534,0,0
-686,-510,0,0,0,0,0,0,0,0,0,-1,538,1534,0,0
-679,-510,0,0,0,0,0,0,0,0,0,-1,545,1534,0,0
-672,-510,0,0,0,0,0,0,0,0,0,-1,552,1534,0,0
-665,-510,0,0,0,0,0,0,0,0,0,-1,559,1534,0,0
-658,-510,0,0,0,0,0,0,0,0,0,-1,566,1534,0,0
-651,-510,0,0,0,0,0,0,0,0,0,-1,573,1534,0,0
-644,-510,0,0,0,0,0,0,0,0,0,-1,580,1534,0,0
-637,-510,0,0,0,0,0,0,0,0,0,-1,587,1534,0,0
-630,-510,0,0,0,0,0,0,0,0,0,-1,594,1534,0,0
-623,-510,0,0,0,0,0,0,0,0,0,-1,601,1534,0,0
-616,-510,0,0,0,0,0,0,0,0,0,-1,608,1534,0,0
-609,-510,0,0,0,0,0,0,0,0,0,-1,615,1534,0,0
-602,-510,0,0,0,0,0,0,0,0,0,-1,622,1534,0,0
-595,-510,0,0,0,0,0,0,0,0,0,-1,629,1534,0,0
-588,-510,0,0,0,0,0,0,0,0,0,-1,636,1534,0,0
-581,-510,0,0,0,0,0,0,0,0,0,-1,643,1534,0,0
-574,-510,0,0,0,0,0,0,0,0,0,-1,650,1534,0,0
-567,-510,0,0,0,0,0,0,0,0,0,-1,657,1534,0,0
-560,-510,0,0,0,0,0,0,0,0,0,-1,664,1534,0,0
-553,-510,0,0,0,0,0,0,0,0,0,-1,671,1534,0,0
-546,-510,0,0,0,0,0,0,0,0,0,-1,678,1534,0,0
-539,-510,0,0,0,0,0,0,0,0,0,-1,685,1534,0,0
-532,-510,-2.71765,4.32166,-0.0654869,-0.0237514,0.0755665,0.0337758,-0.123014,0.920116,0.0952847,0.0445218,692,1534,-2.71767,-4.32166
-525,-510,-3.05841,5.1189,-0.059815,-0.0193463,0.0631463,0.0267284,-0.10589,0.940447,0.0809864,0.046406,699,1534,-3.0584,-5.1189
-518,-510,-3.46021,5.81323,-0.051628,-0.014675,0.051961,0.0219967,-0.0882997,0.956219,0.0674059,0.0444435,706,1534,-3.4602,-5.81328
-511,-510,-3.84302,6.16467,-0.0439404,-0.0118522,0.0426577,0.0176789,-0.0734715,0.965271,0.0558151,0.046617,713,1534,-3.843,-6.1647
-504,-510,-3.89587,6.38538,0,0,0,0,0,0,0,-1,720,1534,-3.8959,-6.3854
-497,-510,-0.553833,4.5061,0,0,0,0,0,0,0,-1,727,1534,-0.553857,-4.50605
-490,-510,-0.430664,4.54297,-0.0190953,-0.00241516,0.0202005,0.0110992,-0.0326096,0.981171,0.0262342,0.0442366,734,1534,-0.430639,-4.54293
-483,-510,-0.393372,4.76819,-0.0133467,-0.000710518,0.0152206,0.00945123,-0.0235084,0.982126,0.0195977,0.0408349,741,1534,-0.393385,-4.76823
-476,-510,-0.488831,5.05713,-0.00828567,0.000380738,0.0108274,0.00770982,-0.0156147,0.975741,0.0137218,0.0270171,748,1534,-0.48881,-5.05707
-469,-510,-0.615173,5.3031,-0.00492485,0.00142229,0.00784075,0.00670738,-0.0102099,0.977697,0.00983675,0.0104766,755,1534,-0.615166,-5.30312
-462,-510,-0.609253,5.50781,-0.00242958,0.00135798,0.00567228,0.00544427,-0.00651586,0.946513,0.00691442,0.010974,762,1534,-0.609238,-5.50785
-455,-510,-0.618408,5.73328,-0.000758505,0.00117562,0.00386102,0.00418885,-0.00377173,0.908108,0.00459814,0.0138095,769,1534,-0.618414,-5.73332
-448,-510,-0.609619,5.95703,0.000188328,0.000478919,0.00312893,0.00346593,-0.00279868,0.8086,0.00362371,0.0132244,776,1534,-0.609608,-5.957
-441,-510,-0.603394,6.15674,0.000860374,5.86263e-05,0.00242762,0.00292,-0.002001,0.703571,0.00285761,0.0135618,783,1534,-0.603378,-6.15671
-434,-510,-0.636841,6.33105,0.00105518,-0.000338413,0.00203339,0.00250785,-0.00179108,0.62033,0.00249346,0.014542,790,1534,-0.636822,-6.33101
-427,-510,-0.650818,6.51465,0.00155987,-0.000810453,0.00163794,0.00239645,-0.00164703,0.472213,0.00234783,0.0222686,797,1534,-0.650809,-6.51459
-420,-510,-0.641418,6.72583,0.00210211,-0.000943908,0.00147296,0.00269786,-0.00153966,0.384347,0.00247681,0.0217597,804,1534,-0.641412,-6.72585
-413,-510,-0.640015,6.95642,0.00231209,-0.00158044,0.00149512,0.00282008,-0.00208842,0.327523,0.0028444,0.0114232,811,1534,-0.639991,-6.9564
-406,-510,-0.625671,7.16199,0.00215745,-0.00211982,0.00158363,0.00267995,-0.00264232,0.318692,0.00307284,0.0108352,818,1534,-0.625701,-7.16196
-399,-510,-0.604736,7.32642,0.00209882,-0.0029571,0.00190564,0.00273663,-0.0035949,0.322972,0.00366668,0.0114045,825,1534,-0.604735,-7.32637
-392,-510,-0.533447,7.58313,0.0021256,-0.00375022,0.00237207,0.00296367,-0.00458829,0.339619,0.00439363,0.0197384,832,1534,-0.533474,-7.58317
-385,-510,-0.557129,7.75146,0.00238661,-0.00457815,0.00296973,0.00348094,-0.00567248,0.353055,0.00533498,0.0315124,839,1534,-0.557117,-7.7514
-378,-510,-0.532837,7.58313,0.00295486,-0.00574658,0.00372299,0.00433035,-0.00712206,0.353902,0.00667721,0.035704,846,1534,-0.53281,-7.58309
-371,-510,-0.406189,7.62805,0.00366155,-0.00711151,0.00441188,0.00523774,-0.00868769,0.343127,0.00812168,0.044061,853,1534,-0.406211,-7.62799
-364,-510,-0.233765,7.672,0,0,0,0,0,0,0,-1,860,1534,-0.233792,-7.67204
-357,-510,-0.213196,6.49634,0,0,0,0,0,0,0,-1,867,1534,-0.213173,-6.49638
-350,-510,0.471191,6.06458,0,0,0,0,0,0,0,-1,874,1534,0.47118,-6.06453
-343,-510,-0.248047,5.14624,0,0,0,0,0,0,0,-1,881,1534,-0.248023,-5.1462
-336,-510,-2.29181,7.53674,0,0,0,0,0,0,0,-1,888,1534,-2.29181,-7.5367
-329,-510,-2.1748,8.57715,0,0,0,0,0,0,0,-1,895,1534,-2.17481,-8.57714
-322,-510,-2.31232,7.97729,0,0,0,0,0,0,0,-1,902,1534,-2.31234,-7.97731
-315,-510,-2.82269,7.57251,0,0,0,0,0,0,0,-1,909,1534,-2.82271,-7.57247
-308,-510,-2.98779,7.09631,0,0,0,0,0,0,0,-1,916,1534,-2.98781,-7.09636
-301,-510,-3.17023,10.2111,0,0,0,0,0,0,0,-1,923,1534,-3.17023,-10.2111
-294,-510,0,0,0,0,0,0,0,0,0,-1,930,1534,0,0
-287,-510,0,0,0,0,0,0,0,0,0,-1,937,1534,0,0
-280,-510,0,0,0,0,0,0,0,0,0,-1,944,1534,0,0
-273,-510,0,0,0,0,0,0,0,0,0,-1,951,1534,0,0
-266,-510,0,0,0,0,0,0,0,0,0,-1,958,1534,0,0
-259,-510,0,0,0,0,0,0,0,0,0,-1,965,1534,0,0
-252,-510,0,0,0,0,0,0,0,0,0,-1,972,1534,0,0
-245,-510,0,0,0,0,0,0,0,0,0,-1,979,1534,0,0
-238,-510,0,0,0,0,0,0,0,0,0,-1,986,1534,0,0
-231,-510,0,0,0,0,0,0,0,0,0,-1,993,1534,0,0
-224,-510,0,0,0,0,0,0,0,0,0,-1,1000,1534,0,0
-217,-510,0,0,0,0,0,0,0,0,0,-1,1007,1534,0,0
-210,-510,0,0,0,0,0,0,0,0,0,-1,1014,1534,0,0
-203,-510,0,0,0,0,0,0,0,0,0,-1,1021,1534,0,0
-196,-510,0,0,0,0,0,0,0,0,0,-1,1028,1534,0,0
-189,-510,0,0,0,0,0,0,0,0,0,-1,1035,1534,0,0
-182,-510,0,0,0,0,0,0,0,0,0,-1,1042,1534,0,0
-175,-510,0,0,0,0,0,0,0,0,0,-1,1049,1534,0,0
-168,-510,0,0,0,0,0,0,0,0,0,-1,1056,1534,0,0
-161,-510,0,0,0,0,0,0,0,0,0,-1,1063,1534,0,0
-154,-510,0,0,0,0,0,0,0,0,0,-1,1070,1534,0,0
-147,-510,0,0,0,0,0,0,0,0,0,-1,1077,1534,0,0
-140,-510,0,0,0,0,0,0,0,0,0,-1,1084,1534,0,0
-133,-510,0,0,0,0,0,0,0,0,0,-1,1091,1534,0,0
-126,-510,0,0,0,0,0,0,0,0,0,-1,1098,1534,0,0
-119,-510,0,0,0,0,0,0,0,0,0,-1,1105,1534,0,0
-112,-510,0,0,0,0,0,0,0,0,0,-1,1112,1534,0,0
-105,-510,0,0,0,0,0,0,0,0,0,-1,1119,1534,0,0
-98,-510,0,0,0,0,0,0,0,0,0,-1,1126,1534,0,0
-91,-510,0,0,0,0,0,0,0,0,0,-1,1133,1534,0,0
-84,-510,0,0,0,0,0,0,0,0,0,-1,1140,1534,0,0
-77,-510,0,0,0,0,0,0,0,0,0,-1,1147,1534,0,0
-70,-510,0,0,0,0,0,0,0,0,0,-1,1154,1534,0,0
-63,-510,0,0,0,0,0,0,0,0,0,-1,1161,1534,0,0
-56,-510,0,0,0,0,0,0,0,0,0,-1,1168,1534,0,0
-49,-510,0,0,0,0,0,0,0,0,0,-1,1175,1534,0,0
-42,-510,0,0,0,0,0,0,0,0,0,-1,1182,1534,0,0
-35,-510,0,0,0,0,0,0,0,0,0,-1,1189,1534,0,0
-28,-510,0,0,0,0,0,0,0,0,0,-1,1196,1534,0,0
-21,-510,0,0,0,0,0,0,0,0,0,-1,1203,1534,0,0
-14,-510,0,0,0,0,0,0,0,0,0,-1,1210,1534,0,0
-7,-510,0,0,0,0,0,0,0,0,0,-1,1217,1534,0,0
0,-510,0,0,0,0,0,0,0,0,0,-1,1224,1534,0,0
7,-510,0,0,0,0,0,0,0,0,0,-1,1231,1534,0,0
14,-510,0,0,0,0,0,0,0,0,0,-1,1238,1534,0,0
21,-510,0,0,0,0,0,0,0,0,0,-1,1245,1534,0,0
28,-510,0,0,0,0,0,0,0,0,0,-1,1252,1534,0,0
35,-510,0,0,0,0,0,0,0,0,0,-1,1259,1534,0,0
42,-510,0,0,0,0,0,0,0,0,0,-1,1266,1534,0,0
49,-510,0,0,0,0,0,0,0,0,0,-1,1273,1534,0,0
56,-510,0,0,0,0,0,0,0,0,0,-1,1280,1534,0,0
63,-510,0,0,0,0,0,0,0,0,0,-1,1287,1534,0,0
70,-510,0,0,0,0,0,0,0,0,0,-1,1294,1534,0,0
77,-510,0,0,0,0,0,0,0,0,0,-1,1301,1534,0,0
84,-510,0,0,0,0,0,0,0,0,0,-1,1308,1534,0,0
91,-510,0,0,0,0,0,0,0,0,0,-1,1315,1534,0,0
98,-510,0,0,0,0,0,0,0,0,0,-1,1322,1534,0,0
105,-510,0,0,0,0,0,0,0,0,0,-1,1329,1534,0,0
112,-510,0,0,0,0,0,0,0,0,0,-1,1336,1534,0,0
119,-510,0,0,0,0,0,0,0,0,0,-1,1343,1534,0,0
126,-510,0,0,0,0,0,0,0,0,0,-1,1350,1534,0,0
133,-510,0,0,0,0,0,0,0,0,0,-1,1357,1534,0,0
140,-510,0,0,0,0,0,0,0,0,0,-1,1364,1534,0,0
147,-510,0,0,0,0,0,0,0,0,0,-1,1371,1534,0,0
154,-510,0,0,0,0,0,0,0,0,0,-1,1378,1534,0,0
161,-510,0,0,0,0,0,0,0,0,0,-1,1385,1534,0,0
168,-510,0,0,0,0,0,0,0,0,0,-1,1392,1534,0,0
175,-510,0,0,0,0,0,0,0,0,0,-1,1399,1534,0,0
182,-510,0,0,0,0,0,0,0,0,0,-1,1406,1534,0,0
189,-510,0,0,0,0,0,0,0,0,0,-1,1413,1534,0,0
196,-510,0,0,0,0,0,0,0,0,0,-1,1420,1534,0,0
203,-510,0,0,0,0,0,0,0,0,0,-1,1427,1534,0,0
210,-510,0,0,0,0,0,0,0,0,0,-1,1434,1534,0,0
217,-510,0,0,0,0,0,0,0,0,0,-1,1441,1534,0,0
224,-510,0,0,0,0,0,0,0,0,0,-1,1448,1534,0,0
231,-510,0,0,0,0,0,0,0,0,0,-1,1455,1534,0,0
238,-510,0,0,0,0,0,0,0,0,0,-1,1462,1534,0,0
245,-510,0,0,0,0,0,0,0,0,0,-1,1469,1534,0,0
252,-510,0,0,0,0,0,0,0,0,0,-1,1476,1534,0,0
259,-510,0,0,0,0,0,0,0,0,0,-1,1483,1534,0,0
266,-510,0,0,0,0,0,0,0,0,0,-1,1490,1534,0,0
273,-510,0,0,0,0,0,0,0,0,0,-1,1497,1534,0,0
280,-510,0,0,0,0,0,0,0,0,0,-1,1504,1534,0,0
287,-510,0,0,0,0,0,0,0,0,0,-1,1511,1534,0,0
294,-510,0,0,0,0,0,0,0,0,0,-1,1518,1534,0,0
301,-510,0,0,0,0,0,0,0,0,0,-1,1525,1534,0,0
308,-510,0,0,0,0,0,0,0,0,0,-1,1532,1534,0,0
315,-510,0,0,0,0,0,0,0,0,0,-1,1539,1534,0,0
322,-510,0,0,0,0,0,0,0,0,0,-1,1546,1534,0,0
329,-510,0,0,0,0,0,0,0,0,0,-1,1553,1534,0,0
336,-510,0,0,0,0,0,0,0,0,0,-1,1560,1534,0,0
343,-510,0,0,0,0,0,0,0,0,0,-1,1567,1534,0,0
350,-510,0,0,0,0,0,0,0,0,0,-1,1574,1534,0,0
357,-510,0,0,0,0,0,0,0,0,0,-1,1581,1534,0,0
364,-510,0,0,0,0,0,0,0,0,0,-1,1588,1534,0,0
371,-510,0,0,0,0,0,0,0,0,0,-1,1595,1534,0,0
378,-510,0,0,0,0,0,0,0,0,0,-1,1602,1534,0,0
385,-510,0,0,0,0,0,0,0,0,0,-1,1609,1534,0,0
392,-510,0,0,0,0,0,0,0,0,0,-1,1616,1534,0,0
399,-510,0,0,0,0,0,0,0,0,0,-1,1623,1534,0,0
406,-510,0,0,0,0,0,0,0,0,0,-1,1630,1534,0,0
413,-510,0,0,0,0,0,0,0,0,0,-1,1637,1534,0,0
420,-510,13.1918,5.99402,0,0,0,0,0,0,0,-1,1644,1534,13.1917,-5.994
427,-510,10.9799,5.12341,0,0,0,0,0,0,0,-1,1651,1534,10.9798,-5.12337
434,-510,11.8219,4.07898,0,0,0,0,0,0,0,-1,1658,1534,11.8219,-4.07895
441,-510,12.6812,3.02991,0,0,0,0,0,0,0,-1,1665,1534,12.6811,-3.0299
448,-510,13.2379,2.2804,0,0,0,0,0,0,0,-1,1672,1534,13.2379,-2.28037
455,-510,9.76892,2.20642,0,0,0,0,0,0,0,-1,1679,1534,9.76894,-2.20647
462,-510,9.84692,2.49182,0,0,0,0,0,0,0,-1,1686,1534,9.84695,-2.49185
469,-510,9.99475,2.57556,0,0,0,0,0,0,0,-1,1693,1534,9.99477,-2.57556
476,-510,8.62915,3.32227,0,0,0,0,0,0,0,-1,1700,1534,8.6291,-3.32231
483,-510,8.62292,4.75623,0,0,0,0,0,0,0,-1,1707,1534,8.62297,-4.75626
490,-510,8.61682,6.19019,0,0,0,0,0,0,0,-1,1714,1534,8.61684,-6.19021
497,-510,8.54187,8.90906,0,0,0,0,0,0,0,-1,1721,1534,8.54187,-8.90906
504,-510,9.21167,8.74573,-0.0156394,-0.0460441,0.0292164,0.00209319,-0.0637767,0.545507,0.0432324,0.0423349,1728,1534,9.21167,-8.74569
511,-510,9.20557,8.95032,-0.0139781,-0.0313981,0.0227957,0.00171491,-0.0470912,0.602912,0.0319811,0.0375083,1735,1534,9.20558,-8.95033
518,-510,8.69177,8.93225,-0.0122081,-0.0209657,0.0174207,0.00137567,-0.0345495,0.662271,0.023505,0.0302022,1742,1534,8.69172,-8.93221
525,-510,8.48621,8.87769,-0.0103704,-0.013979,0.0131851,0.00113332,-0.0254827,0.7174,0.0173786,0.0167098,1749,1534,8.48621,-8.87772
532,-510,8.47119,8.70325,-0.00869099,-0.00813967,0.00946448,0.00105316,-0.0178838,0.799957,0.0122887,0.0113276,1756,1534,8.47124,-8.7032
539,-510,8.46289,8.52271,-0.00687338,-0.00421877,0.00655695,0.00114387,-0.012236,0.885263,0.00856413,0.0122136,1763,1534,8.46293,-8.52273
546,-510,8.43811,8.36047,-0.00494421,-0.00296469,0.00469272,0.000841516,-0.00875041,0.889331,0.00613339,0.0119627,1770,1534,8.43805,-8.3605
553,-510,8.44348,8.1709,-0.00340575,-0.00175231,0.0031842,0.000710747,-0.0058688,0.912409,0.00416969,0.0125108,1777,1534,8.44345,-8.17092
560,-510,8.45862,7.98096,-0.00182249,-0.000639178,0.00174495,0.000611693,-0.00307336,0.94885,0.00228032,0.0124521,1784,1534,8.4586,-7.98099
567,-510,8.46997,7.79614,-0.000114248,-0.000100805,0.000683986,0.000576493,-0.000791545,0.790311,0.000793083,0.0115765,1791,1534,8.46992,-7.79617
574,-510,8.4552,7.61487,0.00109522,0.000875857,-7.22002e-05,0.00111685,0.000854227,-0.291079,0.000674297,0.0126347,1798,1534,8.45514,-7.61485
581,-510,8.42773,7.46509,0.00181539,0.00122918,-0.000575171,0.00216784,0.000876738,-0.549749,0.0012592,0.0113165,1805,1534,8.42778,-7.4651
588,-510,8.44702,7.28748,0.00209177,0.000940121,-0.000633528,0.00237206,0.000659832,-0.416538,0.00141372,0.0118551,1812,1534,8.44698,-7.28752
595,-510,8.50879,7.06409,0.00243333,0.000614592,-0.00052161,0.00257231,0.000475615,-0.260389,0.00158037,0.0116218,1819,1534,8.50876,-7.06411
602,-510,8.4978,6.85767,0.00248327,-0.000316546,-8.5499e-05,0.00248588,-0.000319155,-0.0304995,0.00177324,0.0186103,1826,1534,8.49782,-6.85769
609,-510,8.50159,6.75635,0.00219043,-0.00206374,0.000739279,0.00231524,-0.00218854,0.167248,0.0026006,0.0278999,1833,1534,8.50164,-6.75639
616,-510,8.60815,6.62939,0.00149443,-0.00485409,0.00214854,0.00215321,-0.00551286,0.297514,0.00456549,0.0380265,1840,1534,8.60814,-6.62942
623,-510,8.58228,6.50195,0.000223503,-0.00897007,0.00407208,0.00176775,-0.0105143,0.362472,0.00766703,0.0428885,1847,1534,8.58228,-6.50195
630,-510,8.98071,6.37134,0,0,0,0,0,0,0,-1,1854,1534,8.98074,-6.37136
637,-510,9.67639,3.88989,0,0,0,0,0,0,0,-1,1861,1534,9.67635,-3.88984
644,-510,10.6316,2.95374,0,0,0,0,0,0,0,-1,1868,1534,10.6316,-2.9537
651,-510,11.5236,2.09265,0,0,0,0,0,0,0,-1,1875,1534,11.5235,-2.09265
658,-510,0,0,0,0,0,0,0,0,0,-1,1882,1534,0,0
665,-510,0,0,0,0,0,0,0,0,0,-1,1889,1534,0,0
672,-510,0,0,0,0,0,0,0,0,0,-1,1896,1534,0,0
679,-510,0,0,0,0,0,0,0,0,0,-1,1903,1534,0,0
686,-510,0,0,0,0,0,0,0,0,0,-1,1910,1534,0,0
693,-510,0,0,0,0,0,0,0,0,0,-1,1917,1534,0,0
700,-510,0,0,0,0,0,0,0,0,0,-1,1924,1534,0,0
707,-510,0,0,0,0,0,0,0,0,0,-1,1931,1534,0,0
714,-510,0,0,0,0,0,0,0,0,0,-1,1938,1534,0,0
721,-510,0,0,0,0,0,0,0,0,0,-1,1945,1534,0,0
728,-510,0,0,0,0,0,0,0,0,0,-1,1952,1534,0,0
735,-510,0,0,0,0,0,0,0,0,0,-1,1959,1534,0,0
742,-510,0,0,0,0,0,0,0,0,0,-1,1966,1534,0,0
749,-510,0,0,0,0,0,0,0,0,0,-1,1973,1534,0,0
756,-510,0,0,0,0,0,0,0,0,0,-1,1980,1534,0,0
763,-510,0,0,0,0,0,0,0,0,0,-1,1987,1534,0,0
770,-510,0,0,0,0,0,0,0,0,0,-1,1994,1534,0,0
777,-510,0,0,0,0,0,0,0,0,0,-1,2001,1534,0,0
784,-510,0,0,0,0,0,0,0,0,0,-1,2008,1534,0,0
791,-510,0,0,0,0,0,0,0,0,0,-1,2015,1534,0,0
798,-510,0,0,0,0,0,0,0,0,0,-1,2022,1534,0,0
805,-510,0,0,0,0,0,0,0,0,0,-1,2029,1534,0,0
812,-510,0,0,0,0,0,0,0,0,0,-1,2036,1534,0,0
-700,-517,0,0,0,0,0,0,0,0,0,-1,524,1541,0,0
-693,-517,0,0,0,0,0,0,0,0,0,-1,531,1541,0,0
-686,-517,0,0,0,0,0,0,0,0,0,-1,538,1541,0,0
-679,-517,0,0,0,0,0,0,0,0,0,-1,545,1541,0,0
-672,-517,0,0,0,0,0,0,0,0,0,-1,552,1541,0,0
-665,-517,0,0,0,0,0,0,0,0,0,-1,559,1541,0,0
-658,-517,0,0,0,0,0,0,0,0,0,-1,566,1541,0,0
-651,-517,0,0,0,0,0,0,0,0,0,-1,573,1541,0,0
-644,-517,0,0,0,0,0,0,0,0,0,-1,580,1541,0,0
-637,-517,0,0,0,0,0,0,0,0,0,-1,587,1541,0,0
-630,-517,0,0,0,0,0,0,0,0,0,-1,594,1541,0,0
-623,-517,0,0,0,0,0,0,0,0,0,-1,601,1541,0,0
-616,-517,0,0,0,0,0,0,0,0,0,-1,608,1541,0,0
-609,-517,0,0,0,0,0,0,0,0,0,-1,615,1541,0,0
-602,-517,0,0,0,0,0,0,0,0,0,-1,622,1541,0,0
-595,-517,0,0,0,0,0,0,0,0,0,-1,629,1541,0,0
-588,-517,0,0,0,0,0,0,0,0,0,-1,636,1541,0,0
-581,-517,0,0,0,0,0,0,0,0,0,-1,643,1541,0,0
-574,-517,0,0,0,0,0,0,0,0,0,-1,650,1541,0,0
-567,-517,0,0,0,0,0,0,0,0,0,-1,657,1541,0,0
-560,-517,0,0,0,0,0,0,0,0,0,-1,664,1541,0,0
-553,-517,0,0,0,0,0,0,0,0,0,-1,671,1541,0,0
-546,-517,0,0,0,0,0,0,0,0,0,-1,678,1541,0,0
-539,-517,0,0,0,0,0,0,0,0,0,-1,685,1541,0,0
-532,-517,0,0,0,0,0,0,0,0,0,-1,692,1541,0,0
-525,-517,-3.06763,5.14441,0,0,0,0,0,0,0,-1,699,1541,-3.06765,-5.14443
-518,-517,-3.26764,6.16797,0,0,0,0,0,0,0,-1,706,1541,-3.26761,-6.16801
-511,-517,-3.78082,7.13684,0,0,0,0,0,0,0,-1,713,1541,-3.78081,-7.13678
-504,-517,-0.399719,3.94312,0,0,0,0,0,0,0,-1,720,1541,-0.399727,-3.94312
-497,-517,-0.796753,4.67993,0,0,0,0,0,0,0,-1,727,1541,-0.796766,-4.67998
-490,-517,-0.0889282,4.51794,0,0,0,0,0,0,0,-1,734,1541,-0.0889058,-4.51798
-483,-517,-0.119141,4.73364,-0.0147408,-0.000427765,0.0193093,0.0130085,-0.0281771,0.962863,0.0243101,0.0415147,741,1541,-0.11912,-4.7336
-476,-517,-0.220764,4.98938,-0.009147,0.000690232,0.0141998,0.0107992,-0.019256,0.952124,0.0175798,0.0320452,748,1541,-0.220744,-4.98942
-469,-517,-0.368286,5.27014,-0.00526031,0.0018418,0.0106641,0.00953052,-0.012949,0.94612,0.0130285,0.0130147,755,1541,-0.368284,-5.27014
-462,-517,-0.407227,5.49048,-0.00243865,0.00187226,0.00809102,0.00809001,-0.0086564,0.915575,0.00967039,0.0136556,762,1541,-0.407255,-5.49051
-455,-517,-0.417358,5.72913,-0.000612682,0.00174229,0.00590163,0.00658275,-0.00545315,0.883864,0.00695913,0.0133985,769,1541,-0.417363,-5.72915
-448,-517,-0.415161,5.95984,0.000353682,0.00109799,0.00477793,0.00551824,-0.00406657,0.824265,0.00555491,0.0131825,776,1541,-0.41517,-5.95979
-441,-517,-0.418274,6.14917,0.00102335,0.000705372,0.00371552,0.00458328,-0.00285457,0.764016,0.00433273,0.011262,783,1541,-0.418246,-6.14915
-434,-517,-0.417664,6.32495,0.00125313,0.000301743,0.00298989,0.00380493,-0.00225006,0.706509,0.00353406,0.0139989,790,1541,-0.417649,-6.32498
-427,-517,-0.417847,6.52832,0.00173423,-0.000191833,0.00230253,0.00326701,-0.00172461,0.587329,0.00292742,0.013857,797,1541,-0.417848,-6.52829
-420,-517,-0.443237,6.76575,0.00223413,-0.000422346,0.0018501,0.00318341,-0.00137163,0.47407,0.00269831,0.0210978,804,1541,-0.443233,-6.7658
-413,-517,-0.439514,6.97546,0.0024113,-0.00111946,0.00160704,0.00303321,-0.00174137,0.369241,0.00279003,0.0109246,811,1541,-0.439506,-6.97541
-406,-517,-0.431091,7.15759,0.00224502,-0.00165064,0.00134682,0.00266531,-0.00207092,0.302481,0.00274163,0.0105077,818,1541,-0.431117,-7.15764
-399,-517,-0.417786,7.3407,0.00213821,-0.00264082,0.00139697,0.00251661,-0.00301922,0.264519,0.0032005,0.0104232,825,1541,-0.417773,-7.34075
-392,-517,-0.399353,7.53406,0.00213015,-0.00369565,0.00155898,0.0025211,-0.00408659,0.245704,0.00385048,0.0111968,832,1541,-0.39933,-7.53412
-385,-517,-0.367126,7.83289,0.00246839,-0.00472848,0.00179903,0.00289305,-0.00515314,0.231803,0.00470616,0.0171963,839,1541,-0.367142,-7.83283
-378,-517,-0.365234,7.8584,0.00312729,-0.00603713,0.00222609,0.00363941,-0.00654924,0.226116,0.00596185,0.0328799,846,1541,-0.365238,-7.85839
-371,-517,-0.210083,7.63123,0.00387096,-0.00747943,0.00259643,0.0044367,-0.00804517,0.214538,0.00730611,0.0401394,853,1541,-0.210076,-7.63124
-364,-517,0.0779419,7.44617,0.00493241,-0.00905011,0.00302419,0.00555846,-0.00967616,0.204131,0.00890217,0.0484827,860,1541,0.0779447,-7.44621
-357,-517,-0.879761,7.81934,0,0,0,0,0,0,0,-1,867,1541,-0.879753,-7.81939
-350,-517,0.274963,7.1239,0,0,0,0,0,0,0,-1,874,1541,0.274979,-7.12386
-343,-517,0.366028,7.41064,0,0,0,0,0,0,0,-1,881,1541,0.366019,-7.4106
-336,-517,2.93292,5.28625,0,0,0,0,0,0,0,-1,888,1541,2.93293,-5.28621
-329,-517,-0.752991,7.49341,0,0,0,0,0,0,0,-1,895,1541,-0.752981,-7.49339
-322,-517,-1.2431,7.35327,0,0,0,0,0,0,0,-1,902,1541,-1.24312,-7.35326
-315,-517,-1.7171,7.29028,0,0,0,0,0,0,0,-1,909,1541,-1.71711,-7.29026
-308,-517,-2.2652,9.47229,0,0,0,0,0,0,0,-1,916,1541,-2.26517,-9.47235
-301,-517,-2.29553,10.151,0,0,0,0,0,0,0,-1,923,1541,-2.29556,-10.151
-294,-517,-1.94806,10.6923,0,0,0,0,0,0,0,-1,930,1541,-1.94807,-10.6923
-287,-517,-0.212158,3.43335,0,0,0,0,0,0,0,-1,937,1541,-0.212159,-3.43334
-280,-517,0,0,0,0,0,0,0,0,0,-1,944,1541,0,0
-273,-517,0,0,0,0,0,0,0,0,0,-1,951,1541,0,0
-266,-517,0,0,0,0,0,0,0,0,0,-1,958,1541,0,0
-259,-517,0,0,0,0,0,0,0,0,0,-1,965,1541,0,0
-252,-517,0,0,0,0,0,0,0,0,0,-1,972,1541,0,0
-245,-517,0,0,0,0,0,0,0,0,0,-1,979,1541,0,0
-238,-517,0,0,0,0,0,0,0,0,0,-1,986,1541,0,0
-231,-517,0,0,0,0,0,0,0,0,0,-1,993,1541,0,0
-224,-517,0,0,0,0,0,0,0,0,0,-1,1000,1541,0,0
-217,-517,0,0,0,0,0,0,0,0,0,-1,1007,1541,0,0
-210,-517,0,0,0,0,0,0,0,0,0,-1,1014,1541,0,0
-203,-517,0,0,0,0,0,0,0,0,0,-1,1021,1541,0,0
-196,-517,0,0,0,0,0,0,0,0,0,-1,1028,1541,0,0
-189,-517,0,0,0,0,0,0,0,0,0,-1,1035,1541,0,0
-182,-517,0,0,0,0,0,0,0,0,0,-1,1042,1541,0,0
-175,-517,0,0,0,0,0,0,0,0,0,-1,1049,1541,0,0
-168,-517,0,0,0,0,0,0,0,0,0,-1,1056,1541,0,0
-161,-517,0,0,0,0,0,0,0,0,0,-1,1063,1541,0,0
-154,-517,0,0,0,0,0,0,0,0,0,-1,1070,1541,0,0
-147,-517,0,0,0,0,0,0,0,0,0,-1,1077,1541,0,0
-140,-517,0,0,0,0,0,0,0,0,0,-1,1084,1541,0,0
-133,-517,0,0,0,0,0,0,0,0,0,-1,1091,1541,0,0
-126,-517,0,0,0,0,0,0,0,0,0,-1,1098,1541,0,0
-119,-517,0,0,0,0,0,0,0,0,0,-1,1105,1541,0,0
-112,-517,0,0,0,0,0,0,0,0,0,-1,1112,1541,0,0
-105,-517,0,0,0,0,0,0,0,0,0,-1,1119,1541,0,0
-98,-517,0,0,0,0,0,0,0,0,0,-1,1126,1541,0,0
-91,-517,0,0,0,0,0,0,0,0,0,-1,1133,1541,0,0
-84,-517,0,0,0,0,0,0,0,0,0,-1,1140,1541,0,0
-77,-517,0,0,0,0,0,0,0,0,0,-1,1147,1541,0,0
-70,-517,0,0,0,0,0,0,0,0,0,-1,1154,1541,0,0
-63,-517,0,0,0,0,0,0,0,0,0,-1,1161,1541,0,0
-56,-517,0,0,0,0,0,0,0,0,0,-1,1168,1541,0,0
-49,-517,0,0,0,0,0,0,0,0,0,-1,1175,1541,0,0
-42,-517,0,0,0,0,0,0,0,0,0,-1,1182,1541,0,0
-35,-517,0,0,0,0,0,0,0,0,0,-1,1189,1541,0,0
-28,-517,0,0,0,0,0,0,0,0,0,-1,1196,1541,0,0
-21,-517,0,0,0,0,0,0,0,0,0,-1,1203,1541,0,0
-14,-517,0,0,0,0,0,0,0,0,0,-1,1210,1541,0,0
-7,-517,0,0,0,0,0,0,0,0,0,-1,1217,1541,0,0
0,-517,0,0,0,0,0,0,0,0,0,-1,1224,1541,0,0
7,-517,0,0,0,0,0,0,0,0,0,-1,1231,1541,0,0
14,-517,0,0,0,0,0,0,0,0,0,-1,1238,1541,0,0
21,-517,0,0,0,0,0,0,0,0,0,-1,1245,1541,0,0
28,-517,0,0,0,0,0,0,0,0,0,-1,1252,1541,0,0
35,-517,0,0,0,0,0,0,0,0,0,-1,1259,1541,0,0
42,-517,0,0,0,0,0,0,0,0,0,-1,1266,1541,0,0
49,-517,0,0,0,0,0,0,0,0,0,-1,1273,1541,0,0
56,-517,0,0,0,0,0,0,0,0,0,-1,1280,1541,0,0
63,-517,0,0,0,0,0,0,0,0,0,-1,1287,1541,0,0
70,-517,0,0,0,0,0,0,0,0,0,-1,1294,1541,0,0
77,-517,0,0,0,0,0,0,0,0,0,-1,1301,1541,0,0
84,-517,0,0,0,0,0,0,0,0,0,-1,1308,1541,0,0
91,-517,0,0,0,0,0,0,0,0,0,-1,1315,1541,0,0
98,-517,0,0,0,0,0,0,0,0,0,-1,1322,1541,0,0
105,-517,0,0,0,0,0,0,0,0,0,-1,1329,1541,0,0
112,-517,0,0,0,0,0,0,0,0,0,-1,1336,1541,0,0
119,-517,0,0,0,0,0,0,0,0,0,-1,1343,1541,0,0
126,-517,0,0,0,0,0,0,0,0,0,-1,1350,1541,0,0
133,-517,0,0,0,0,0,0,0,0,0,-1,1357,1541,0,0
140,-517,0,0,0,0,0,0,0,0,0,-1,1364,1541,0,0
147,-517,0,0,0,0,0,0,0,0,0,-1,1371,1541,0,0
154,-517,0,0,0,0,0,0,0,0,0,-1,1378,1541,0,0
161,-517,0,0,0,0,0,0,0,0,0,-1,1385,1541,0,0
168,-517,0,0,0,0,0,0,0,0,0,-1,1392,1541,0,0
175,-517,0,0,0,0,0,0,0,0,0,-1,1399,1541,0,0
182,-517,0,0,0,0,0,0,0,0,0,-1,1406,1541,0,0
189,-517,0,0,0,0,0,0,0,0,0,-1,1413,1541,0,0
196,-517,0,0,0,0,0,0,0,0,0,-1,1420,1541,0,0
203,-517,0,0,0,0,0,0,0,0,0,-1,1427,1541,0,0
210,-517,0,0,0,0,0,0,0,0,0,-1,1434,1541,0,0
217,-517,0,0,0,0,0,0,0,0,0,-1,1441,1541,0,0
224,-517,0,0,0,0,0,0,0,0,0,-1,1448,1541,0,0
231,-517,0,0,0,0,0,0,0,0,0,-1,1455,1541,0,0
238,-517,0,0,0,0,0,0,0,0,0,-1,1462,1541,0,0
245,-517,0,0,0,0,0,0,0,0,0,-1,1469,1541,0,0
252,-517,0,0,0,0,0,0,0,0,0,-1,1476,1541,0,0
259,-517,0,0,0,0,0,0,0,0,0,-1,1483,1541,0,0
266,-517,0,0,0,0,0,0,0,0,0,-1,1490,1541,0,0
273,-517,0,0,0,0,0,0,0,0,0,-1,1497,1541,0,0
280,-517,0,0,0,0,0,0,0,0,0,-1,1504,1541,0,0
287,-517,0,0,0,0,0,0,0,0,0,-1,1511,1541,0,0
294,-517,0,0,0,0,0,0,0,0,0,-1,1518,1541,0,0
301,-517,0,0,0,0,0,0,0,0,0,-1,1525,1541,0,0
308,-517,0,0,0,0,0,0,0,0,0,-1,1532,1541,0,0
315,-517,0,0,0,0,0,0,0,0,0,-1,1539,1541,0,0
322,-517,0,0,0,0,0,0,0,0,0,-1,1546,1541,0,0
329,-517,0,0,0,0,0,0,0,0,0,-1,1553,1541,0,0
336,-517,0,0,0,0,0,0,0,0,0,-1,1560,1541,0,0
343,-517,0,0,0,0,0,0,0,0,0,-1,1567,1541,0,0
350,-517,0,0,0,0,0,0,0,0,0,-1,1574,1541,0,0
357,-517,0,0,0,0,0,0,0,0,0,-1,1581,1541,0,0
364,-517,0,0,0,0,0,0,0,0,0,-1,1588,1541,0,0
371,-517,0,0,0,0,0,0,0,0,0,-1,1595,1541,0,0
378,-517,0,0,0,0,0,0,0,0,0,-1,1602,1541,0,0
385,-517,0,0,0,0,0,0,0,0,0,-1,1609,1541,0,0
392,-517,0,0,0,0,0,0,0,0,0,-1,1616,1541,0,0
399,-517,0,0,0,0,0,0,0,0,0,-1,1623,1541,0,0
406,-517,12.1469,6.22412,0,0,0,0,0,0,0,-1,1630,1541,12.1468,-6.22408
413,-517,12.2695,6.3324,0,0,0,0,0,0,0,-1,1637,1541,12.2696,-6.33243
420,-517,12.4789,6.20337,0,0,0,0,0,0,0,-1,1644,1541,12.4789,-6.20333
427,-517,11.647,4.66516,0,0,0,0,0,0,0,-1,1651,1541,11.647,-4.66519
434,-517,12.3719,3.92773,0,0,0,0,0,0,0,-1,1658,1541,12.3719,-3.92776
441,-517,13.146,3.14124,0,0,0,0,0,0,0,-1,1665,1541,13.146,-3.14121
448,-517,13.8861,2.36682,0,0,0,0,0,0,0,-1,1672,1541,13.8861,-2.36684
455,-517,11.0901,2.86548,0,0,0,0,0,0,0,-1,1679,1541,11.0901,-2.86544
462,-517,10.2977,3.36475,0,0,0,0,0,0,0,-1,1686,1541,10.2978,-3.36476
469,-517,8.51843,3.63855,0,0,0,0,0,0,0,-1,1693,1541,8.5184,-3.63853
476,-517,8.48718,4.73352,-0.016034,-0.128895,0.0573965,0.00802618,-0.152956,0.396942,0.104748,0.0492923,1700,1541,8.48721,-4.73353
483,-517,8.46521,6.09387,-0.0150579,-0.100143,0.0477317,0.00633842,-0.121539,0.421408,0.0832196,0.0479221,1707,1541,8.46519,-6.0939
490,-517,8.15149,9.18384,0,0,0,0,0,0,0,-1,1714,1541,8.15153,-9.18381
497,-517,8.33057,9.12329,-0.0133038,-0.0555282,0.0309355,0.00303712,-0.071869,0.48597,0.0489565,0.0451885,1721,1541,8.33058,-9.12335
504,-517,8.66125,9.07642,-0.0120455,-0.0398392,0.0242022,0.00196591,-0.0538505,0.524783,0.0365733,0.0373429,1728,1541,8.66124,-9.07644
511,-517,8.46411,9.19324,-0.0106336,-0.0270338,0.0187572,0.00163762,-0.0393049,0.579331,0.0267659,0.0320081,1735,1541,8.46412,-9.19326
518,-517,8.28979,9.03613,-0.00922795,-0.0179282,0.0142287,0.00130074,-0.0284569,0.637046,0.0194194,0.0208813,1742,1541,8.28978,-9.03615
525,-517,8.271,8.85034,-0.00778741,-0.0118218,0.0106828,0.00106694,-0.0206762,0.692083,0.0141532,0.0109039,1749,1541,8.27105,-8.85039
532,-517,8.27295,8.68237,-0.00645804,-0.00674295,0.00754335,0.000944198,-0.0141452,0.775957,0.0097601,0.010007,1756,1541,8.27295,-8.68237
539,-517,8.27393,8.50452,-0.00497832,-0.00322403,0.00504859,0.00102304,-0.0092254,0.87141,0.0065181,0.0109469,1763,1541,8.27391,-8.50455
546,-517,8.27026,8.32922,-0.00338783,-0.00209271,0.00345119,0.00077115,-0.00625169,0.878136,0.00444719,0.011763,1770,1541,8.27025,-8.32917
553,-517,8.27209,8.15625,-0.00206599,-0.000950893,0.00215399,0.000716535,-0.00373342,0.912041,0.00275898,0.0149726,1777,1541,8.27212,-8.15623
560,-517,8.27759,7.98474,-0.00062029,8.34795e-05,0.00090664,0.000704127,-0.00124094,0.97051,0.00113715,0.0147409,1784,1541,8.27753,-7.98476
567,-517,8.28662,7.81238,0.000881145,0.000670031,-4.6205e-05,0.000890815,0.000660361,-0.206299,0.000533903,0.0118778,1791,1541,8.28657,-7.81237
574,-517,8.27454,7.61365,0.00198131,0.00158126,-0.000728007,0.00253627,0.0010263,-0.651328,0.00147316,0.0131739,1798,1541,8.27457,-7.61362
581,-517,8.27966,7.43982,0.00270846,0.00202068,-0.00116465,0.00357893,0.00115021,-0.641842,0.00210978,0.015583,1805,1541,8.27966,-7.43983
588,-517,8.29358,7.26917,0.00306814,0.0018754,-0.00125341,0.00385983,0.00108371,-0.563348,0.00229877,0.0166385,1812,1541,8.29361,-7.26921
595,-517,8.31738,7.05249,0.00352016,0.0017116,-0.00120659,0.00412372,0.00110805,-0.463822,0.00246428,0.0165987,1819,1541,8.31734,-7.05245
602,-517,8.29651,6.81677,0.0037293,0.000986556,-0.000844099,0.00396826,0.000747598,-0.275874,0.00243487,0.0209528,1826,1541,8.29648,-6.81673
609,-517,8.48022,6.70142,0.00360839,-0.000564734,-0.000145832,0.00361348,-0.000569824,-0.0348888,0.00261967,0.0382556,1833,1541,8.48019,-6.70141
616,-517,8.60449,6.64136,0,0,0,0,0,0,0,-1,1840,1541,8.60444,-6.6413
623,-517,8.29956,6.60352,0,0,0,0,0,0,0,-1,1847,1541,8.29959,-6.60357
630,-517,9.12646,4.78784,0,0,0,0,0,0,0,-1,1854,1541,9.1265,-4.78787
637,-517,10.334,3.64124,0,0,0,0,0,0,0,-1,1861,1541,10.334,-3.6412
644,-517,11.553,2.3092,0,0,0,0,0,0,0,-1,1868,1541,11.553,-2.30914
651,-517,0,0,0,0,0,0,0,0,0,-1,1875,1541,0,0
658,-517,0,0,0,0,0,0,0,0,0,-1,1882,1541,0,0
665,-517,0,0,0,0,0,0,0,0,0,-1,1889,1541,0,0
672,-517,0,0,0,0,0,0,0,0,0,-1,1896,1541,0,0
679,-517,0,0,0,0,0,0,0,0,0,-1,1903,1541,0,0
686,-517,0,0,0,0,0,0,0,0,0,-1,1910,1541,0,0
693,-517,0,0,0,0,0,0,0,0,0,-1,1917,1541,0,0
700,-517,0,0,0,0,0,0,0,0,0,-1,1924,1541,0,0
707,-517,0,0,0,0,0,0,0,0,0,-1,1931,1541,0,0
714,-517,0,0,0,0,0,0,0,0,0,-1,1938,1541,0,0
721,-517,0,0,0,0,0,0,0,0,0,-1,1945,1541,0,0
728,-517,0,0,0,0,0,0,0,0,0,-1,1952,1541,0,0
735,-517,0,0,0,0,0,0,0,0,0,-1,1959,1541,0,0
742,-517,0,0,0,0,0,0,0,0,0,-1,1966,1541,0,0
749,-517,0,0,0,0,0,0,0,0,0,-1,1973,1541,0,0
756,-517,0,0,0,0,0,0,0,0,0,-1,1980,1541,0,0
763,-517,0,0,0,0,0,0,0,0,0,-1,1987,1541,0,0
770,-517,0,0,0,0,0,0,0,0,0,-1,1994,1541,0,0
777,-517,0,0,0,0,0,0,0,0,0,-1,2001,1541,0,0
784,-517,0,0,0,0,0,0,0,0,0,-1,2008,1541,0,0
791,-517,0,0,0,0,0,0,0,0,0,-1,2015,1541,0,0
798,-517,0,0,0,0,0,0,0,0,0,-1,2022,1541,0,0
805,-517,0,0,0,0,0,0,0,0,0,-1,2029,1541,0,0
812,-517,0,0,0,0,0,0,0,0,0,-1,2036,1541,0,0
-700,-524,0,0,0,0,0,0,0,0,0,-1,524,1548,0,0
-693,-524,0,0,0,0,0,0,0,0,0,-1,531,1548,0,0
-686,-524,0,0,0,0,0,0,0,0,0,-1,538,1548,0,0
-679,-524,0,0,0,0,0,0,0,0,0,-1,545,1548,0,0
-672,-524,0,0,0,0,0,0,0,0,0,-1,552,1548,0,0
-665,-524,0,0,0,0,0,0,0,0,0,-1,559,1548,0,0
-658,-524,0,0,0,0,0,0,0,0,0,-1,566,1548,0,0
-651,-524,0,0,0,0,0,0,0,0,0,-1,573,1548,0,0
-644,-524,0,0,0,0,0,0,0,0,0,-1,580,1548,0,0
-637,-524,0,0,0,0,0,0,0,0,0,-1,587,1548,0,0
-630,-524,0,0,0,0,0,0,0,0,0,-1,594,1548,0,0
-623,-524,0,0,0,0,0,0,0,0,0,-1,601,1548,0,0
-616,-524,0,0,0,0,0,0,0,0,0,-1,608,1548,0,0
-609,-524,0,0,0,0,0,0,0,0,0,-1,615,1548,0,0
-602,-524,0,0,0,0,0,0,0,0,0,-1,622,1548,0,0
-595,-524,0,0,0,0,0,0,0,0,0,-1,629,1548,0,0
-588,-524,0,0,0,0,0,0,0,0,0,-1,636,1548,0,0
-581,-524,0,0,0,0,0,0,0,0,0,-1,643,1548,0,0
-574,-524,0,0,0,0,0,0,0,0,0,-1,650,1548,0,0
-567,-524,0,0,0,0,0,0,0,0,0,-1,657,1548,0,0
-560,-524,0,0,0,0,0,0,0,0,0,-1,664,1548,0,0
-553,-524,0,0,0,0,0,0,0,0,0,-1,671,1548,0,0
-546,-524,0,0,0,0,0,0,0,0,0,-1,678,1548,0,0
-539,-524,0,0,0,0,0,0,0,0,0,-1,685,1548,0,0
-532,-524,0,0,0,0,0,0,0,0,0,-1,692,1548,0,0
-525,-524,-2.43994,5.5603,0,0,0,0,0,0,0,-1,699,1548,-2.43993,-5.56025
-518,-524,-2.88928,6.64026,0,0,0,0,0,0,0,-1,706,1548,-2.88927,-6.6403
-511,-524,-3.33862,7.72034,0,0,0,0,0,0,0,-1,713,1548,-3.33861,-7.72035
-504,-524,0.498596,0.950562,0,0,0,0,0,0,0,-1,720,1548,0.498573,-0.950584
-497,-524,1.08813,3.69214,0,0,0,0,0,0,0,-1,727,1548,1.08815,-3.69218
-490,-524,1.05194,4.13708,0,0,0,0,0,0,0,-1,734,1548,1.05196,-4.13714
-483,-524,0.142944,4.62781,0,0,0,0,0,0,0,-1,741,1548,0.142921,-4.62783
-476,-524,0.0286865,4.93701,-0.00894686,0.00109097,0.0186067,0.0153438,-0.0231996,0.917132,0.0224066,0.0419015,748,1548,0.0286675,-4.93699
-469,-524,-0.0800171,5.16943,-0.00451173,0.00235234,0.0143853,0.0137093,-0.0158687,0.902499,0.0170921,0.0306213,755,1548,-0.0800307,-5.16937
-462,-524,-0.135315,5.495,-0.00138387,0.00253546,0.0113128,0.0120571,-0.0109055,0.871159,0.013263,0.0229721,762,1548,-0.135305,-5.49504
-455,-524,-0.233521,5.74475,0.000599919,0.00252489,0.00866247,0.0102782,-0.00715337,0.840726,0.0101179,0.016566,769,1548,-0.233491,-5.74477
-448,-524,-0.229919,5.97266,0.00157974,0.00200527,0.0070211,0.00881682,-0.00523181,0.800545,0.00819854,0.0126477,776,1548,-0.229944,-5.97265
-441,-524,-0.229858,6.16528,0.00219513,0.00167807,0.00549213,0.00743481,-0.00356161,0.761879,0.00647873,0.0102906,783,1548,-0.229837,-6.16529
-434,-524,-0.189392,6.32739,0.00236371,0.00128043,0.00434745,0.00620313,-0.00255899,0.723423,0.00520261,0.0125033,790,1548,-0.189395,-6.32742
-427,-524,-0.187744,6.52893,0.00268682,0.000760791,0.00330219,0.00516355,-0.00171594,0.643519,0.00413479,0.0130746,797,1548,-0.187752,-6.52895
-420,-524,-0.223022,6.75769,0.00297002,0.000421115,0.0025109,0.00451139,-0.00112025,0.550556,0.00344232,0.0111448,804,1548,-0.223052,-6.75771
-413,-524,-0.212463,6.96191,0.00291085,-0.000340602,0.00196558,0.00383591,-0.00126566,0.439875,0.00306747,0.0104589,811,1548,-0.212492,-6.96191
-406,-524,-0.205811,7.15808,0.00252311,-0.000861563,0.00133165,0.00298421,-0.00132266,0.333341,0.00254751,0.0108438,818,1548,-0.205812,-7.15812
-399,-524,-0.213013,7.35278,0.00215199,-0.00200486,0.00112241,0.00243569,-0.00228857,0.247579,0.00272799,0.00910724,825,1548,-0.213014,-7.35283
-392,-524,-0.210938,7.53918,0.00189874,-0.00329646,0.00101324,0.00208936,-0.00348708,0.185957,0.0032531,0.00979773,832,1548,-0.210934,-7.53923
-385,-524,-0.215332,7.75574,0.002114,-0.00446285,0.000956287,0.00225023,-0.00459907,0.141499,0.00403121,0.0119359,839,1548,-0.215309,-7.75575
-378,-524,-0.177063,8.03003,0.00269651,-0.00579585,0.00114778,0.00284891,-0.00594824,0.131999,0.00518304,0.0193412,846,1548,-0.177088,-8.03008
-371,-524,-0.0247803,8.13306,0.0035376,-0.00715073,0.00133818,0.00370259,-0.00731572,0.122678,0.00647443,0.0357391,853,1548,-0.0247514,-8.13302
-364,-524,-0.065918,8.03894,0.0047182,-0.00856111,0.00149771,0.00488502,-0.00872793,0.110929,0.00796315,0.0397312,860,1548,-0.0659133,-8.03894
-357,-524,-0.43396,8.01965,0.00633707,-0.00977622,0.00185491,0.00654785,-0.009987,0.113145,0.00961498,0.0497517,867,1548,-0.433951,-8.01969
-350,-524,-0.519958,8.1604,0,0,0,0,0,0,0,-1,874,1548,-0.519963,-8.16035
-343,-524,1.85645,5.45215,0,0,0,0,0,0,0,-1,881,1548,1.85646,-5.45217
-336,-524,2.77802,5.96558,0,0,0,0,0,0,0,-1,888,1548,2.77804,-5.96554
-329,-524,0.881226,7.98999,0,0,0,0,0,0,0,-1,895,1548,0.881242,-7.98997
-322,-524,1.11176,7.57849,0,0,0,0,0,0,0,-1,902,1548,1.11178,-7.57843
-315,-524,-0.0593872,7.28699,0,0,0,0,0,0,0,-1,909,1548,-0.0593821,-7.28694
-308,-524,-1.90564,9.33582,0,0,0,0,0,0,0,-1,916,1548,-1.90563,-9.33577
-301,-524,-1.59973,9.88318,0,0,0,0,0,0,0,-1,923,1548,-1.59973,-9.88321
-294,-524,-1.32819,10.4485,0,0,0,0,0,0,0,-1,930,1548,-1.32821,-10.4485
-287,-524,-1.04639,11.0281,0,0,0,0,0,0,0,-1,937,1548,-1.04641,-11.0281
-280,-524,-1.99243,9.78064,0,0,0,0,0,0,0,-1,944,1548,-1.99241,-9.78061
-273,-524,0,0,0,0,0,0,0,0,0,-1,951,1548,0,0
-266,-524,0,0,0,0,0,0,0,0,0,-1,958,1548,0,0
-259,-524,0,0,0,0,0,0,0,0,0,-1,965,1548,0,0
-252,-524,0,0,0,0,0,0,0,0,0,-1,972,1548,0,0
-245,-524,0,0,0,0,0,0,0,0,0,-1,979,1548,0,0
-238,-524,0,0,0,0,0,0,0,0,0,-1,986,1548,0,0
-231,-524,0,0,0,0,0,0,0,0,0,-1,993,1548,0,0
-224,-524,0,0,0,0,0,0,0,0,0,-1,1000,1548,0,0
-217,-524,0,0,0,0,0,0,0,0,0,-1,1007,1548,0,0
-210,-524,0,0,0,0,0,0,0,0,0,-1,1014,1548,0,0
-203,-524,0,0,0,0,0,0,0,0,0,-1,1021,1548,0,0
-196,-524,0,0,0,0,0,0,0,0,0,-1,1028,1548,0,0
-189,-524,0,0,0,0,0,0,0,0,0,-1,1035,1548,0,0
-182,-524,0,0,0,0,0,0,0,0,0,-1,1042,1548,0,0
-175,-524,0,0,0,0,0,0,0,0,0,-1,1049,1548,0,0
-168,-524,0,0,0,0,0,0,0,0,0,-1,1056,1548,0,0
-161,-524,0,0,0,0,0,0,0,0,0,-1,1063,1548,0,0
-154,-524,0,0,0,0,0,0,0,0,0,-1,1070,1548,0,0
-147,-524,0,0,0,0,0,0,0,0,0,-1,1077,1548,0,0
-140,-524,0,0,0,0,0,0,0,0,0,-1,1084,1548,0,0
-133,-524,0,0,0,0,0,0,0,0,0,-1,1091,1548,0,0
-126,-524,0,0,0,0,0,0,0,0,0,-1,1098,1548,0,0
-119,-524,0,0,0,0,0,0,0,0,0,-1,1105,1548,0,0
-112,-524,0,0,0,0,0,0,0,0,0,-1,1112,1548,0,0
-105,-524,0,0,0,0,0,0,0,0,0,-1,1119,1548,0,0
-98,-524,0,0,0,0,0,0,0,0,0,-1,1126,1548,0,0
-91,-524,0,0,0,0,0,0,0,0,0,-1,1133,1548,0,0
-84,-524,0,0,0,0,0,0,0,0,0,-1,1140,1548,0,0
-77,-524,0,0,0,0,0,0,0,0,0,-1,1147,1548,0,0
-70,-524,0,0,0,0,0,0,0,0,0,-1,1154,1548,0,0
-63,-524,0,0,0,0,0,0,0,0,0,-1,1161,1548,0,0
-56,-524,0,0,0,0,0,0,0,0,0,-1,1168,1548,0,0
-49,-524,0,0,0,0,0,0,0,0,0,-1,1175,1548,0,0
-42,-524,0,0,0,0,0,0,0,0,0,-1,1182,1548,0,0
-35,-524,0,0,0,0,0,0,0,0,0,-1,1189,1548,0,0
-28,-524,0,0,0,0,0,0,0,0,0,-1,1196,1548,0,0
-21,-524,0,0,0,0,0,0,0,0,0,-1,1203,1548,0,0
-14,-524,0,0,0,0,0,0,0,0,0,-1,1210,1548,0,0
-7,-524,0,0,0,0,0,0,0,0,0,-1,1217,1548,0,0
0,-524,0,0,0,0,0,0,0,0,0,-1,1224,1548,0,0
7,-524,0,0,0,0,0,0,0,0,0,-1,1231,1548,0,0
14,-524,0,0,0,0,0,0,0,0,0,-1,1238,1548,0,0
21,-524,0,0,0,0,0,0,0,0,0,-1,1245,1548,0,0
28,-524,0,0,0,0,0,0,0,0,0,-1,1252,1548,0,0
35,-524,0,0,0,0,0,0,0,0,0,-1,1259,1548,0,0
42,-524,0,0,0,0,0,0,0,0,0,-1,1266,1548,0,0
49,-524,0,0,0,0,0,0,0,0,0,-1,1273,1548,0,0
56,-524,0,0,0,0,0,0,0,0,0,-1,1280,1548,0,0
63,-524,0,0,0,0,0,0,0,0,0,-1,1287,1548,0,0
70,-524,0,0,0,0,0,0,0,0,0,-1,1294,1548,0,0
77,-524,0,0,0,0,0,0,0,0,0,-1,1301,1548,0,0
84,-524,0,0,0,0,0,0,0,0,0,-1,1308,1548,0,0
91,-524,0,0,0,0,0,0,0,0,0,-1,1315,1548,0,0
98,-524,0,0,0,0,0,0,0,0,0,-1,1322,1548,0,0
105,-524,0,0,0,0,0,0,0,0,0,-1,1329,1548,0,0
112,-524,0,0,0,0,0,0,0,0,0,-1,1336,1548,0,0
119,-524,0,0,0,0,0,0,0,0,0,-1,1343,1548,0,0
126,-524,0,0,0,0,0,0,0,0,0,-1,1350,1548,0,0
133,-524,0,0,0,0,0,0,0,0,0,-1,1357,1548,0,0
140,-524,0,0,0,0,0,0,0,0,0,-1,1364,1548,0,0
147,-524,0,0,0,0,0,0,0,0,0,-1,1371,1548,0,0
154,-524,0,0,0,0,0,0,0,0,0,-1,1378,1548,0,0
161,-524,0,0,0,0,0,0,0,0,0,-1,1385,1548,0,0
168,-524,0,0,0,0,0,0,0,0,0,-1,1392,1548,0,0
175,-524,0,0,0,0,0,0,0,0,0,-1,1399,1548,0,0
182,-524,0,0,0,0,0,0,0,0,0,-1,1406,1548,0,0
189,-524,0,0,0,0,0,0,0,0,0,-1,1413,1548,0,0
196,-524,0,0,0,0,0,0,0,0,0,-1,1420,1548,0,0
203,-524,0,0,0,0,0,0,0,0,0,-1,1427,1548,0,0
210,-524,0,0,0,0,0,0,0,0,0,-1,1434,1548,0,0
217,-524,0,0,0,0,0,0,0,0,0,-1,1441,1548,0,0
224,-524,0,0,0,0,0,0,0,0,0,-1,1448,1548,0,0
231,-524,0,0,0,0,0,0,0,0,0,-1,1455,1548,0,0
238,-524,0,0,0,0,0,0,0,0,0,-1,1462,1548,0,0
245,-524,0,0,0,0,0,0,0,0,0,-1,1469,1548,0,0
252,-524,0,0,0,0,0,0,0,0,0,-1,1476,1548,0,0
259,-524,0,0,0,0,0,0,0,0,0,-1,1483,1548,0,0
266,-524,0,0,0,0,0,0,0,0,0,-1,1490,1548,0,0
273,-524,0,0,0,0,0,0,0,0,0,-1,1497,1548,0,0
280,-524,0,0,0,0,0,0,0,0,0,-1,1504,1548,0,0
287,-524,0,0,0,0,0,0,0,0,0,-1,1511,1548,0,0
294,-524,0,0,0,0,0,0,0,0,0,-1,1518,1548,0,0
301,-524,0,0,0,0,0,0,0,0,0,-1,1525,1548,0,0
308,-524,0,0,0,0,0,0,0,0,0,-1,1532,1548,0,0
315,-524,0,0,0,0,0,0,0,0,0,-1,1539,1548,0,0
322,-524,0,0,0,0,0,0,0,0,0,-1,1546,1548,0,0
329,-524,0,0,0,0,0,0,0,0,0,-1,1553,1548,0,0
336,-524,0,0,0,0,0,0,0,0,0,-1,1560,1548,0,0
343,-524,0,0,0,0,0,0,0,0,0,-1,1567,1548,0,0
350,-524,0,0,0,0,0,0,0,0,0,-1,1574,1548,0,0
357,-524,0,0,0,0,0,0,0,0,0,-1,1581,1548,0,0
364,-524,0,0,0,0,0,0,0,0,0,-1,1588,1548,0,0
371,-524,0,0,0,0,0,0,0,0,0,-1,1595,1548,0,0
378,-524,0,0,0,0,0,0,0,0,0,-1,1602,1548,0,0
385,-524,0,0,0,0,0,0,0,0,0,-1,1609,1548,0,0
392,-524,0,0,0,0,0,0,0,0,0,-1,1616,1548,0,0
399,-524,8.81848,5.05774,0,0,0,0,0,0,0,-1,1623,1548,8.81843,-5.05769
406,-524,8.64294,6.06799,0,0,0,0,0,0,0,-1,1630,1548,8.6429,-6.06805
413,-524,11.677,6.41858,0,0,0,0,0,0,0,-1,1637,1548,11.677,-6.41864
420,-524,11.4913,6.36401,0,0,0,0,0,0,0,-1,1644,1548,11.4913,-6.36402
427,-524,7.68335,6.17249,0,0,0,0,0,0,0,-1,1651,1548,7.68341,-6.17245
434,-524,9.63916,7.99463,0,0,0,0,0,0,0,-1,1658,1548,9.63919,-7.99464
441,-524,8.78552,4.12305,0,0,0,0,0,0,0,-1,1665,1548,8.78553,-4.12301
448,-524,10.3914,3.2467,0,0,0,0,0,0,0,-1,1672,1548,10.3914,-3.24668
455,-524,10.5375,3.09082,0,0,0,0,0,0,0,-1,1679,1548,10.5375,-3.09079
462,-524,9.94214,4.22363,0,0,0,0,0,0,0,-1,1686,1548,9.94212,-4.22363
469,-524,9.08264,5.33923,0,0,0,0,0,0,0,-1,1693,1548,9.08263,-5.33921
476,-524,8.40955,6.28943,-0.0143865,-0.107076,0.0469121,0.00521252,-0.126675,0.395741,0.0862401,0.0455803,1700,1548,8.40957,-6.28942
483,-524,8.32751,7.51892,-0.0127144,-0.0835683,0.0389408,0.00450324,-0.100786,0.416306,0.0687409,0.0450017,1707,1548,8.32752,-7.51892
490,-524,8.11206,9.32959,0,0,0,0,0,0,0,-1,1714,1548,8.112,-9.32954
497,-524,8.1377,9.30701,-0.0103397,-0.0468618,0.0252218,0.00253774,-0.0597392,0.472066,0.0406984,0.0320208,1721,1548,8.13767,-9.30699
504,-524,8.13367,9.30579,-0.00905931,-0.0337389,0.0196566,0.00180975,-0.044608,0.505104,0.0303599,0.0177202,1728,1548,8.13371,-9.30582
511,-524,8.07947,9.2063,-0.00782071,-0.0228093,0.0151635,0.00159936,-0.0322294,0.555886,0.0220388,0.0163186,1735,1548,8.07948,-9.20627
518,-524,8.10071,9.02063,-0.00668485,-0.0149842,0.0113954,0.00129287,-0.0229619,0.610783,0.0157566,0.0154591,1742,1548,8.1007,-9.02069
525,-524,8.09973,8.84753,-0.00555534,-0.0097479,0.00846834,0.00107233,-0.0163756,0.664065,0.0112915,0.0136221,1749,1548,8.09977,-8.8475
532,-524,8.09192,8.69165,-0.00450695,-0.00545231,0.00587065,0.000910023,-0.0108693,0.745227,0.00756779,0.0096142,1756,1548,8.09188,-8.69168
539,-524,8.09644,8.49548,-0.00331446,-0.00240232,0.00377346,0.000942528,-0.00665931,0.845538,0.00478476,0.00980317,1763,1548,8.09643,-8.49553
546,-524,8.10437,8.29724,-0.00202619,-0.00139309,0.00241395,0.000724977,-0.00414426,0.850593,0.00303351,0.0126833,1770,1548,8.10438,-8.29727
553,-524,8.10364,8.16919,-0.000890532,-0.00032366,0.00129822,0.000721706,-0.0019359,0.892875,0.00158685,0.02097,1777,1548,8.10364,-8.16915
560,-524,8.07324,7.99255,0.000430636,0.000632284,0.000230217,0.000782788,0.000280132,0.991793,0.000457989,0.0290583,1784,1548,8.07326,-7.99258
567,-524,8.07788,7.80591,0.00170924,0.00130826,-0.000631389,0.00217121,0.000846293,-0.631664,0.00126366,0.0167131,1791,1548,8.07792,-7.80593
574,-524,8.08691,7.60132,0.00269316,0.00216499,-0.0012762,0.00373231,0.00112584,-0.683374,0.00221065,0.0130494,1798,1548,8.08688,-7.60133
581,-524,8.09351,7.43213,0.00345674,0.0027395,-0.00169001,0.00482576,0.00137048,-0.680849,0.00287151,0.015065,1805,1548,8.0935,-7.43217
588,-524,8.11316,7.25085,0.00396047,0.00283601,-0.00187609,0.00535677,0.00143971,-0.639815,0.00320108,0.0157149,1812,1548,8.11311,-7.25089
595,-524,8.11829,7.01147,0.0045875,0.00297579,-0.00199631,0.00593447,0.00162882,-0.593564,0.00354055,0.0149691,1819,1548,8.11825,-7.01143
602,-524,8.12781,6.68677,0.00508106,0.00267924,-0.00184924,0.00608512,0.00167518,-0.49742,0.00362958,0.0276406,1826,1548,8.12782,-6.68681
609,-524,8.45313,6.60266,0.0053381,0.00168793,-0.00141493,0.00582233,0.0012037,-0.329738,0.00354903,0.0435836,1833,1548,8.45309,-6.60261
616,-524,8.67993,6.45593,0,0,0,0,0,0,0,-1,1840,1548,8.67995,-6.45597
623,-524,9.41785,4.4386,0,0,0,0,0,0,0,-1,1847,1548,9.41789,-4.43859
630,-524,9.72314,4.48669,0,0,0,0,0,0,0,-1,1854,1548,9.72315,-4.48668
637,-524,11.0884,3.10242,0,0,0,0,0,0,0,-1,1861,1548,11.0884,-3.10244
644,-524,12.4685,1.35266,0,0,0,0,0,0,0,-1,1868,1548,12.4686,-1.35261
651,-524,0,0,0,0,0,0,0,0,0,-1,1875,1548,0,0
658,-524,0,0,0,0,0,0,0,0,0,-1,1882,1548,0,0
665,-524,0,0,0,0,0,0,0,0,0,-1,1889,1548,0,0
672,-524,0,0,0,0,0,0,0,0,0,-1,1896,1548,0,0
679,-524,0,0,0,0,0,0,0,0,0,-1,1903,1548,0,0
686,-524,0,0,0,0,0,0,0,0,0,-1,1910,1548,0,0
693,-524,0,0,0,0,0,0,0,0,0,-1,1917,1548,0,0
700,-524,0,0,0,0,0,0,0,0,0,-1,1924,1548,0,0
707,-524,0,0,0,0,0,0,0,0,0,-1,1931,1548,0,0
714,-524,0,0,0,0,0,0,0,0,0,-1,1938,1548,0,0
721,-524,0,0,0,0,0,0,0,0,0,-1,1945,1548,0,0
728,-524,0,0,0,0,0,0,0,0,0,-1,1952,1548,0,0
735,-524,0,0,0,0,0,0,0,0,0,-1,1959,1548,0,0
742,-524,0,0,0,0,0,0,0,0,0,-1,1966,1548,0,0
749,-524,0,0,0,0,0,0,0,0,0,-1,1973,1548,0,0
756,-524,0,0,0,0,0,0,0,0,0,-1,1980,1548,0,0
763,-524,0,0,0,0,0,0,0,0,0,-1,1987,1548,0,0
770,-524,0,0,0,0,0,0,0,0,0,-1,1994,1548,0,0
777,-524,0,0,0,0,0,0,0,0,0,-1,2001,1548,0,0
784,-524,0,0,0,0,0,0,0,0,0,-1,2008,1548,0,0
791,-524,0,0,0,0,0,0,0,0,0,-1,2015,1548,0,0
798,-524,0,0,0,0,0,0,0,0,0,-1,2022,1548,0,0
805,-524,0,0,0,0,0,0,0,0,0,-1,2029,1548,0,0
812,-524,0,0,0,0,0,0,0,0,0,-1,2036,1548,0,0
-700,-531,0,0,0,0,0,0,0,0,0,-1,524,1555,0,0
-693,-531,0,0,0,0,0,0,0,0,0,-1,531,1555,0,0
-686,-531,0,0,0,0,0,0,0,0,0,-1,538,1555,0,0
-679,-531,0,0,0,0,0,0,0,0,0,-1,545,1555,0,0
-672,-531,0,0,0,0,0,0,0,0,0,-1,552,1555,0,0
-665,-531,0,0,0,0,0,0,0,0,0,-1,559,1555,0,0
-658,-531,0,0,0,0,0,0,0,0,0,-1,566,1555,0,0
-651,-531,0,0,0,0,0,0,0,0,0,-1,573,1555,0,0
-644,-531,0,0,0,0,0,0,0,0,0,-1,580,1555,0,0
-637,-531,0,0,0,0,0,0,0,0,0,-1,587,1555,0,0
-630,-531,0,0,0,0,0,0,0,0,0,-1,594,1555,0,0
-623,-531,0,0,0,0,0,0,0,0,0,-1,601,1555,0,0
-616,-531,0,0,0,0,0,0,0,0,0,-1,608,1555,0,0
-609,-531,0,0,0,0,0,0,0,0,0,-1,615,1555,0,0
-602,-531,0,0,0,0,0,0,0,0,0,-1,622,1555,0,0
-595,-531,0,0,0,0,0,0,0,0,0,-1,629,1555,0,0
-588,-531,0,0,0,0,0,0,0,0,0,-1,636,1555,0,0
-581,-531,0,0,0,0,0,0,0,0,0,-1,643,1555,0,0
-574,-531,0,0,0,0,0,0,0,0,0,-1,650,1555,0,0
-567,-531,0,0,0,0,0,0,0,0,0,-1,657,1555,0,0
-560,-531,0,0,0,0,0,0,0,0,0,-1,664,1555,0,0
-553,-531,0,0,0,0,0,0,0,0,0,-1,671,1555,0,0
-546,-531,0,0,0,0,0,0,0,0,0,-1,678,1555,0,0
-539,-531,0,0,0,0,0,0,0,0,0,-1,685,1555,0,0
-532,-531,0,0,0,0,0,0,0,0,0,-1,692,1555,0,0
-525,-531,0,0,0,0,0,0,0,0,0,-1,699,1555,0,0
-518,-531,-2.56696,6.98096,0,0,0,0,0,0,0,-1,706,1555,-2.56697,-6.98095
-511,-531,-2.9682,8.07483,0,0,0,0,0,0,0,-1,713,1555,-2.9682,-8.07479
-504,-531,-2.95978,0.557861,0,0,0,0,0,0,0,-1,720,1555,-2.95978,-0.557917
-497,-531,1.25061,3.88965,0,0,0,0,0,0,0,-1,727,1555,1.2506,-3.88969
-490,-531,0.94342,4.125,0,0,0,0,0,0,0,-1,734,1555,0.943439,-4.12498
-483,-531,0.600464,4.36365,-0.0144575,0.000124152,0.0305672,0.024258,-0.0385914,0.90247,0.0365993,0.045512,741,1555,0.600437,-4.3636
-476,-531,0.34375,4.7821,-0.00784494,0.00136003,0.0240089,0.0212036,-0.0276885,0.880099,0.0283105,0.0455299,748,1555,0.34373,-4.78215
-469,-531,0.0952759,5.13245,-0.00305233,0.0026826,0.0190358,0.0190657,-0.0194354,0.860154,0.022229,0.0427863,755,1555,0.0952905,-5.13244
-462,-531,-0.0665894,5.58606,0.00023104,0.00305582,0.0153311,0.0170394,-0.0137526,0.831332,0.0178115,0.0396978,762,1555,-0.0666155,-5.58602
-455,-531,-0.0775757,5.86829,0.00222136,0.00323016,0.0120577,0.014794,-0.0093425,0.806302,0.0140532,0.0281917,769,1555,-0.0775978,-5.86831
-448,-531,0.00250244,5.96533,0.00308467,0.00290125,0.00971028,0.0127037,-0.00671775,0.780676,0.0113891,0.0128639,776,1555,0.00252662,-5.96531
-441,-531,-0.0302734,6.15234,0.00352805,0.00267999,0.00756702,0.0106829,-0.00447487,0.757409,0.00899268,0.0112612,783,1555,-0.0302947,-6.15234
-434,-531,-0.0151367,6.35864,0.00354497,0.00231793,0.00589534,0.00885863,-0.00299572,0.733551,0.00711767,0.0119699,790,1555,-0.0151583,-6.35865
-427,-531,0.0131226,6.54956,0.00364722,0.00179657,0.00442224,0.00723991,-0.00179612,0.682264,0.00552352,0.0133097,797,1555,0.0131282,-6.54958
-420,-531,-0.0134888,6.76038,0.00367139,0.00138153,0.00325287,0.00597495,-0.000922022,0.616182,0.00432354,0.0117339,804,1555,-0.0134742,-6.76036
-413,-531,-0.012146,6.96167,0.00338129,0.000613818,0.00239949,0.00476744,-0.000772338,0.523851,0.00346456,0.0100347,811,1555,-0.0121298,-6.96164
-406,-531,-0.00177002,7.15002,0.00282033,0.000178377,0.00141633,0.0034361,-0.000437387,0.410109,0.00244958,0.0110969,818,1555,-0.00177299,-7.15006
-399,-531,0.00402832,7.35559,0.00224322,-0.00105699,0.00101589,0.00253087,-0.00134464,0.275924,0.00227219,0.0130767,825,1555,0.00401595,-7.35557
-392,-531,0.0055542,7.55188,0.00181153,-0.00251744,0.000713394,0.00192606,-0.00263198,0.159189,0.00264208,0.0168372,832,1555,0.0055559,-7.5519
-385,-531,-0.0144043,7.75269,0.00194222,-0.00374392,0.000450506,0.0019777,-0.00377939,0.0785755,0.00337768,0.0141331,839,1555,-0.0144126,-7.75266
-378,-531,-0.0289917,7.93066,0.00245101,-0.0050312,0.000495175,0.00248363,-0.00506382,0.065798,0.00444159,0.0104807,846,1555,-0.0289769,-7.93071
-371,-531,0.0227051,8.1615,0.0031659,-0.00627907,0.000515455,0.00319395,-0.00630712,0.0543594,0.00558274,0.0136264,853,1555,0.0227345,-8.16148
-364,-531,0.0709229,8.32935,0.00422552,-0.00752931,0.000560304,0.00425216,-0.00755596,0.0475222,0.0069058,0.0277124,860,1555,0.0709201,-8.3294
-357,-531,-0.0921021,8.31494,0.00571238,-0.00854289,0.000830232,0.00576057,-0.00859108,0.057979,0.00833947,0.0381532,867,1555,-0.092076,-8.31497
-350,-531,-0.105347,8.27698,0.00645301,-0.00957606,-0.000194535,0.00645537,-0.00957842,-0.012134,0.00931547,0.0453964,874,1555,-0.105353,-8.27699
-343,-531,0.00274658,8.13306,0,0,0,0,0,0,0,-1,881,1555,0.00272658,-8.13312
-336,-531,0.343445,9.23914,0,0,0,0,0,0,0,-1,888,1555,0.343449,-9.23907
-329,-531,0.697388,9.33069,0,0,0,0,0,0,0,-1,895,1555,0.697412,-9.33075
-322,-531,1.06537,8.0481,0,0,0,0,0,0,0,-1,902,1555,1.06537,-8.04809
-315,-531,1.0155,7.79614,0,0,0,0,0,0,0,-1,909,1555,1.01551,-7.79614
-308,-531,-1.25482,10.7084,0,0,0,0,0,0,0,-1,916,1555,-1.25482,-10.7083
-301,-531,-0.848694,10.2446,0,0,0,0,0,0,0,-1,923,1555,-0.848693,-10.2446
-294,-531,-0.741821,10.252,0,0,0,0,0,0,0,-1,930,1555,-0.741832,-10.2519
-287,-531,-0.461792,10.8096,0,0,0,0,0,0,0,-1,937,1555,-0.46182,-10.8096
-280,-531,-1.7738,9.76196,0,0,0,0,0,0,0,-1,944,1555,-1.77378,-9.76194
-273,-531,-5.5531,14.6454,0,0,0,0,0,0,0,-1,951,1555,-5.5531,-14.6454
-266,-531,-6.7038,16.0303,0,0,0,0,0,0,0,-1,958,1555,-6.7038,-16.0303
-259,-531,0,0,0,0,0,0,0,0,0,-1,965,1555,0,0
-252,-531,0,0,0,0,0,0,0,0,0,-1,972,1555,0,0
-245,-531,0,0,0,0,0,0,0,0,0,-1,979,1555,0,0
-238,-531,0,0,0,0,0,0,0,0,0,-1,986,1555,0,0
-231,-531,0,0,0,0,0,0,0,0,0,-1,993,1555,0,0
-224,-531,0,0,0,0,0,0,0,0,0,-1,1000,1555,0,0
-217,-531,0,0,0,0,0,0,0,0,0,-1,1007,1555,0,0
-210,-531,0,0,0,0,0,0,0,0,0,-1,1014,1555,0,0
-203,-531,0,0,0,0,0,0,0,0,0,-1,1021,1555,0,0
-196,-531,0,0,0,0,0,0,0,0,0,-1,1028,1555,0,0
-189,-531,0,0,0,0,0,0,0,0,0,-1,1035,1555,0,0
-182,-531,0,0,0,0,0,0,0,0,0,-1,1042,1555,0,0
-175,-531,0,0,0,0,0,0,0,0,0,-1,1049,1555,0,0
-168,-531,0,0,0,0,0,0,0,0,0,-1,1056,1555,0,0
-161,-531,0,0,0,0,0,0,0,0,0,-1,1063,1555,0,0
-154,-531,0,0,0,0,0,0,0,0,0,-1,1070,1555,0,0
-147,-531,0,0,0,0,0,0,0,0,0,-1,1077,1555,0,0
-140,-531,0,0,0,0,0,0,0,0,0,-1,1084,1555,0,0
-133,-531,0,0,0,0,0,0,0,0,0,-1,1091,1555,0,0
-126,-531,0,0,0,0,0,0,0,0,0,-1,1098,1555,0,0
-119,-531,0,0,0,0,0,0,0,0,0,-1,1105,1555,0,0
-112,-531,0,0,0,0,0,0,0,0,0,-1,1112,1555,0,0
-105,-531,0,0,0,0,0,0,0,0,0,-1,1119,1555,0,0
-98,-531,0,0,0,0,0,0,0,0,0,-1,1126,1555,0,0
-91,-531,0,0,0,0,0,0,0,0,0,-1,1133,1555,0,0
-84,-531,0,0,0,0,0,0,0,0,0,-1,1140,1555,0,0
-77,-531,0,0,0,0,0,0,0,0,0,-1,1147,1555,0,0
-70,-531,0,0,0,0,0,0,0,0,0,-1,1154,1555,0,0
-63,-531,0,0,0,0,0,0,0,0,0,-1,1161,1555,0,0
-56,-531,0,0,0,0,0,0,0,0,0,-1,1168,1555,0,0
-49,-531,0,0,0,0,0,0,0,0,0,-1,1175,1555,0,0
-42,-531,0,0,0,0,0,0,0,0,0,-1,1182,1555,0,0
-35,-531,0,0,0,0,0,0,0,0,0,-1,1189,1555,0,0
-28,-531,0,0,0,0,0,0,0,0,0,-1,1196,1555,0,0
-21,-531,0,0,0,0,0,0,0,0,0,-1,1203,1555,0,0
-14,-531,0,0,0,0,0,0,0,0,0,-1,1210,1555,0,0
-7,-531,0,0,0,0,0,0,0,0,0,-1,1217,1555,0,0
0,-531,0,0,0,0,0,0,0,0,0,-1,1224,1555,0,0
7,-531,0,0,0,0,0,0,0,0,0,-1,1231,1555,0,0
14,-531,0,0,0,0,0,0,0,0,0,-1,1238,1555,0,0
21,-531,0,0,0,0,0,0,0,0,0,-1,1245,1555,0,0
28,-531,0,0,0,0,0,0,0,0,0,-1,1252,1555,0,0
35,-531,0,0,0,0,0,0,0,0,0,-1,1259,1555,0,0
42,-531,0,0,0,0,0,0,0,0,0,-1,1266,1555,0,0
49,-531,0,0,0,0,0,0,0,0,0,-1,1273,1555,0,0
56,-531,0,0,0,0,0,0,0,0,0,-1,1280,1555,0,0
63,-531,0,0,0,0,0,0,0,0,0,-1,1287,1555,0,0
70,-531,0,0,0,0,0,0,0,0,0,-1,1294,1555,0,0
77,-531,0,0,0,0,0,0,0,0,0,-1,1301,1555,0,0
84,-531,0,0,0,0,0,0,0,0,0,-1,1308,1555,0,0
91,-531,0,0,0,0,0,0,0,0,0,-1,1315,1555,0,0
98,-531,0,0,0,0,0,0,0,0,0,-1,1322,1555,0,0
105,-531,0,0,0,0,0,0,0,0,0,-1,1329,1555,0,0
112,-531,0,0,0,0,0,0,0,0,0,-1,1336,1555,0,0
119,-531,0,0,0,0,0,0,0,0,0,-1,1343,1555,0,0
126,-531,0,0,0,0,0,0,0,0,0,-1,1350,1555,0,0
133,-531,0,0,0,0,0,0,0,0,0,-1,1357,1555,0,0
140,-531,0,0,0,0,0,0,0,0,0,-1,1364,1555,0,0
147,-531,0,0,0,0,0,0,0,0,0,-1,1371,1555,0,0
154,-531,0,0,0,0,0,0,0,0,0,-1,1378,1555,0,0
161,-531,0,0,0,0,0,0,0,0,0,-1,1385,1555,0,0
168,-531,0,0,0,0,0,0,0,0,0,-1,1392,1555,0,0
175,-531,0,0,0,0,0,0,0,0,0,-1,1399,1555,0,0
182,-531,0,0,0,0,0,0,0,0,0,-1,1406,1555,0,0
189,-531,0,0,0,0,0,0,0,0,0,-1,1413,1555,0,0
196,-531,0,0,0,0,0,0,0,0,0,-1,1420,1555,0,0
203,-531,0,0,0,0,0,0,0,0,0,-1,1427,1555,0,0
210,-531,0,0,0,0,0,0,0,0,0,-1,1434,1555,0,0
217,-531,0,0,0,0,0,0,0,0,0,-1,1441,1555,0,0
224,-531,0,0,0,0,0,0,0,0,0,-1,1448,1555,0,0
231,-531,0,0,0,0,0,0,0,0,0,-1,1455,1555,0,0
238,-531,0,0,0,0,0,0,0,0,0,-1,1462,1555,0,0
245,-531,0,0,0,0,0,0,0,0,0,-1,1469,1555,0,0
252,-531,0,0,0,0,0,0,0,0,0,-1,1476,1555,0,0
259,-531,0,0,0,0,0,0,0,0,0,-1,1483,1555,0,0
266,-531,0,0,0,0,0,0,0,0,0,-1,1490,1555,0,0
273,-531,0,0,0,0,0,0,0,0,0,-1,1497,1555,0,0
280,-531,0,0,0,0,0,0,0,0,0,-1,1504,1555,0,0
287,-531,0,0,0,0,0,0,0,0,0,-1,1511,1555,0,0
294,-531,0,0,0,0,0,0,0,0,0,-1,1518,1555,0,0
301,-531,0,0,0,0,0,0,0,0,0,-1,1525,1555,0,0
308,-531,0,0,0,0,0,0,0,0,0,-1,1532,1555,0,0
315,-531,0,0,0,0,0,0,0,0,0,-1,1539,1555,0,0
322,-531,0,0,0,0,0,0,0,0,0,-1,1546,1555,0,0
329,-531,0,0,0,0,0,0,0,0,0,-1,1553,1555,0,0
336,-531,0,0,0,0,0,0,0,0,0,-1,1560,1555,0,0
343,-531,0,0,0,0,0,0,0,0,0,-1,1567,1555,0,0
350,-531,0,0,0,0,0,0,0,0,0,-1,1574,1555,0,0
357,-531,0,0,0,0,0,0,0,0,0,-1,1581,1555,0,0
364,-531,0,0,0,0,0,0,0,0,0,-1,1588,1555,0,0
371,-531,0,0,0,0,0,0,0,0,0,-1,1595,1555,0,0
378,-531,0,0,0,0,0,0,0,0,0,-1,1602,1555,0,0
385,-531,3.13403,1.88721,0,0,0,0,0,0,0,-1,1609,1555,3.13401,-1.88726
392,-531,8.49451,7.77673,0,0,0,0,0,0,0,-1,1616,1555,8.49447,-7.77677
399,-531,8.26306,5.29602,0,0,0,0,0,0,0,-1,1623,1555,8.26302,-5.29607
406,-531,8.26147,5.42712,0,0,0,0,0,0,0,-1,1630,1555,8.26145,-5.42716
413,-531,8.20618,5.75012,0,0,0,0,0,0,0,-1,1637,1555,8.20619,-5.75017
420,-531,7.64868,7.09558,0,0,0,0,0,0,0,-1,1644,1555,7.64867,-7.09564
427,-531,8.19263,7.02405,0,0,0,0,0,0,0,-1,1651,1555,8.19269,-7.02407
434,-531,8.07349,5.4751,0,0,0,0,0,0,0,-1,1658,1555,8.07347,-5.47512
441,-531,8.90076,5.23291,0,0,0,0,0,0,0,-1,1665,1555,8.90074,-5.23295
448,-531,8.33875,5.98401,0,0,0,0,0,0,0,-1,1672,1555,8.33871,-5.98407
455,-531,8.54663,6.15247,0,0,0,0,0,0,0,-1,1679,1555,8.54661,-6.1525
462,-531,8.41125,6.77002,0,0,0,0,0,0,0,-1,1686,1555,8.41125,-6.77006
469,-531,8.65051,6.27234,0,0,0,0,0,0,0,-1,1693,1555,8.65057,-6.2723
476,-531,8.18542,8.73535,0,0,0,0,0,0,0,-1,1700,1555,8.18545,-8.73531
483,-531,8.19287,8.92603,-0.0107442,-0.0682308,0.0311659,0.0029093,-0.0818844,0.412907,0.0555847,0.0454088,1707,1555,8.19289,-8.92598
490,-531,8.07886,9.40857,-0.00921755,-0.0520703,0.0253063,0.0025148,-0.0638026,0.434117,0.0433977,0.032195,1714,1555,8.07886,-9.4086
497,-531,7.91956,9.50623,-0.00797649,-0.0387046,0.0201728,0.00201678,-0.0486979,0.459949,0.033158,0.016243,1721,1555,7.91958,-9.50624
504,-531,7.90442,9.3822,-0.00670456,-0.0279976,0.0156601,0.00158533,-0.0362875,0.486861,0.0247371,0.0111445,1728,1555,7.90439,-9.38214
511,-531,7.89624,9.21814,-0.00556059,-0.0187766,0.0119611,0.0014965,-0.0258337,0.533035,0.0177423,0.0131118,1735,1555,7.89621,-9.2181
518,-531,7.9021,9.04041,-0.00458521,-0.012117,0.00882308,0.00124204,-0.0179443,0.58369,0.0123976,0.0141695,1742,1555,7.90205,-9.04046
525,-531,7.9187,8.86169,-0.0036414,-0.00767065,0.00639944,0.00105304,-0.0123651,0.632903,0.00861588,0.012584,1749,1555,7.91869,-8.86166
532,-531,7.94604,8.67883,-0.00275909,-0.00411063,0.00425999,0.000878395,-0.00774811,0.706737,0.00548172,0.0093024,1756,1555,7.94601,-8.67884
539,-531,7.93506,8.49976,-0.00175062,-0.00154766,0.00251438,0.000867292,-0.00416557,0.805568,0.00310676,0.0108043,1763,1555,7.93505,-8.4997
546,-531,7.93274,8.29504,-0.000678845,-0.000641653,0.0013532,0.000693078,-0.00201358,0.792269,0.0016235,0.0141503,1770,1555,7.93274,-8.29508
553,-531,7.94922,8.18481,0.000335396,0.000358155,0.000393874,0.000740813,-4.72624e-05,0.79984,0.00051036,0.0296148,1777,1555,7.94925,-8.18478
560,-531,7.927,8.00635,0.00157003,0.00123225,-0.000491819,0.00192115,0.00088113,-0.620007,0.00111044,0.0330593,1784,1555,7.92694,-8.00636
567,-531,7.8822,7.82117,0.00263249,0.00201382,-0.00124731,0.00360825,0.00103806,-0.663849,0.00214491,0.0186641,1791,1555,7.88218,-7.82112
574,-531,7.90747,7.61938,0.00349857,0.00280607,-0.00185148,0.0050359,0.00126874,-0.692959,0.0030244,0.0133409,1798,1555,7.90742,-7.61939
581,-531,7.9248,7.43225,0.00431971,0.00352786,-0.00224166,0.00620014,0.00164743,-0.697989,0.00370834,0.0119083,1805,1555,7.92479,-7.43228
588,-531,7.95007,7.19409,0.00500486,0.00393746,-0.00254822,0.00707467,0.00186766,-0.68217,0.00423352,0.0150565,1812,1555,7.95006,-7.19413
595,-531,7.91724,6.88391,0.00589608,0.00451249,-0.00291387,0.00819915,0.00220942,-0.668849,0.00489863,0.029287,1819,1555,7.91728,-6.88388
602,-531,7.96753,6.4541,0.00681099,0.00480639,-0.00314325,0.00910788,0.0025095,-0.631057,0.0054322,0.0448535,1826,1555,7.96757,-6.45407
609,-531,8.28723,6.45239,0,0,0,0,0,0,0,-1,1833,1555,8.28726,-6.45236
616,-531,7.89709,5.54199,0,0,0,0,0,0,0,-1,1840,1555,7.89709,-5.54197
623,-531,10.3961,5.82263,0,0,0,0,0,0,0,-1,1847,1555,10.3961,-5.82263
630,-531,10.248,3.99646,0,0,0,0,0,0,0,-1,1854,1555,10.248,-3.99643
637,-531,12.1736,2.3468,0,0,0,0,0,0,0,-1,1861,1555,12.1736,-2.34678
644,-531,0,0,0,0,0,0,0,0,0,-1,1868,1555,0,0
651,-531,0,0,0,0,0,0,0,0,0,-1,1875,1555,0,0
658,-531,0,0,0,0,0,0,0,0,0,-1,1882,1555,0,0
665,-531,0,0,0,0,0,0,0,0,0,-1,1889,1555,0,0
672,-531,0,0,0,0,0,0,0,0,0,-1,1896,1555,0,0
679,-531,0,0,0,0,0,0,0,0,0,-1,1903,1555,0,0
686,-531,0,0,0,0,0,0,0,0,0,-1,1910,1555,0,0
693,-531,0,0,0,0,0,0,0,0,0,-1,1917,1555,0,0
700,-531,0,0,0,0,0,0,0,0,0,-1,1924,1555,0,0
707,-531,0,0,0,0,0,0,0,0,0,-1,1931,1555,0,0
714,-531,0,0,0,0,0,0,0,0,0,-1,1938,1555,0,0
721,-531,0,0,0,0,0,0,0,0,0,-1,1945,1555,0,0
728,-531,0,0,0,0,0,0,0,0,0,-1,1952,1555,0,0
735,-531,0,0,0,0,0,0,0,0,0,-1,1959,1555,0,0
742,-531,0,0,0,0,0,0,0,0,0,-1,1966,1555,0,0
749,-531,0,0,0,0,0,0,0,0,0,-1,1973,1555,0,0
756,-531,0,0,0,0,0,0,0,0,0,-1,1980,1555,0,0
763,-531,0,0,0,0,0,0,0,0,0,-1,1987,1555,0,0
770,-531,0,0,0,0,0,0,0,0,0,-1,1994,1555,0,0
777,-531,0,0,0,0,0,0,0,0,0,-1,2001,1555,0,0
784,-531,0,0,0,0,0,0,0,0,0,-1,2008,1555,0,0
791,-531,0,0,0,0,0,0,0,0,0,-1,2015,1555,0,0
798,-531,0,0,0,0,0,0,0,0,0,-1,2022,1555,0,0
805,-531,0,0,0,0,0,0,0,0,0,-1,2029,1555,0,0
812,-531,0,0,0,0,0,0,0,0,0,-1,2036,1555,0,0
-700,-538,0,0,0,0,0,0,0,0,0,-1,524,1562,0,0
-693,-538,0,0,0,0,0,0,0,0,0,-1,531,1562,0,0
-686,-538,0,0,0,0,0,0,0,0,0,-1,538,1562,0,0
-679,-538,0,0,0,0,0,0,0,0,0,-1,545,1562,0,0
-672,-538,0,0,0,0,0,0,0,0,0,-1,552,1562,0,0
-665,-538,0,0,0,0,0,0,0,0,0,-1,559,1562,0,0
-658,-538,0,0,0,0,0,0,0,0,0,-1,566,1562,0,0
-651,-538,0,0,0,0,0,0,0,0,0,-1,573,1562,0,0
-644,-538,0,0,0,0,0,0,0,0,0,-1,580,1562,0,0
-637,-538,0,0,0,0,0,0,0,0,0,-1,587,1562,0,0
-630,-538,0,0,0,0,0,0,0,0,0,-1,594,1562,0,0
-623,-538,0,0,0,0,0,0,0,0,0,-1,601,1562,0,0
-616,-538,0,0,0,0,0,0,0,0,0,-1,608,1562,0,0
-609,-538,0,0,0,0,0,0,0,0,0,-1,615,1562,0,0
-602,-538,0,0,0,0,0,0,0,0,0,-1,622,1562,0,0
-595,-538,0,0,0,0,0,0,0,0,0,-1,629,1562,0,0
-588,-538,0,0,0,0,0,0,0,0,0,-1,636,1562,0,0
-581,-538,0,0,0,0,0,0,0,0,0,-1,643,1562,0,0
-574,-538,0,0,0,0,0,0,0,0,0,-1,650,1562,0,0
-567,-538,0,0,0,0,0,0,0,0,0,-1,657,1562,0,0
-560,-538,0,0,0,0,0,0,0,0,0,-1,664,1562,0,0
-553,-538,0,0,0,0,0,0,0,0,0,-1,671,1562,0,0
-546,-538,0,0,0,0,0,0,0,0,0,-1,678,1562,0,0
-539,-538,0,0,0,0,0,0,0,0,0,-1,685,1562,0,0
-532,-538,0,0,0,0,0,0,0,0,0,-1,692,1562,0,0
-525,-538,0,0,0,0,0,0,0,0,0,-1,699,1562,0,0
-518,-538,0,0,0,0,0,0,0,0,0,-1,706,1562,0,0
-511,-538,-2.6582,-1.54321,0,0,0,0,0,0,0,-1,713,1562,-2.65821,1.54327
-504,-538,-2.66455,-0.71167,0,0,0,0,0,0,0,-1,720,1562,-2.66456,0.711667
-497,-538,-2.42926,-0.0274658,0,0,0,0,0,0,0,-1,727,1562,-2.42927,0.0274374
-490,-538,0.834778,3.98938,0,0,0,0,0,0,0,-1,734,1562,0.834783,-3.98942
-483,-538,0.541016,4.16211,-0.0117596,0.000185699,0.0381767,0.0328541,-0.044428,0.862993,0.0447853,0.0483593,741,1562,0.540991,-4.16212
-476,-538,0.355164,4.58862,-0.0050003,0.00143796,0.0308928,0.0292789,-0.0328413,0.837312,0.0358848,0.0460717,748,1562,0.355169,-4.5886
-469,-538,0.227966,5.22375,-6.4978e-05,0.00292177,0.0250095,0.0264825,-0.0236257,0.815219,0.0289456,0.0455379,755,1562,0.227989,-5.22376
-462,-538,0.0164185,5.70911,0,0,0,0,0,0,0,-1,762,1562,0.0164454,-5.70912
-455,-538,0.0129395,5.97363,0.00490782,0.00410967,0.0163285,0.0208421,-0.0118246,0.77318,0.0190982,0.0380822,769,1562,0.012962,-5.97362
-448,-538,0.221252,5.98157,0.00549916,0.00410156,0.0130628,0.0178818,-0.0082811,0.758676,0.0154405,0.0155176,776,1562,0.221253,-5.98158
-441,-538,0.203491,6.16199,0.00562129,0.00402902,0.0101331,0.0149894,-0.00533914,0.746195,0.0121696,0.0139087,783,1562,0.203462,-6.16196
-434,-538,0.18927,6.35449,0.00532938,0.00367202,0.00779927,0.0123439,-0.00334247,0.732471,0.0095406,0.0113088,790,1562,0.189298,-6.35445
-427,-538,0.17865,6.57263,0.00507354,0.00309782,0.00580987,0.00997893,-0.00180757,0.701187,0.00732982,0.0127535,797,1562,0.178647,-6.57265
-420,-538,0.161011,6.78564,0.00470867,0.00255424,0.00420959,0.00797668,-0.000713774,0.660139,0.00557098,0.0169049,804,1562,0.16099,-6.7856
-413,-538,0.157776,6.97742,0.00408156,0.00171908,0.00302814,0.0061507,-0.000350062,0.599433,0.00422199,0.0177039,811,1562,0.157749,-6.97738
-406,-538,0.174377,7.14307,0.00326739,0.00130391,0.00170928,0.0042568,0.000314492,0.524722,0.00273906,0.0146104,818,1562,0.174353,-7.14312
-399,-538,0.193359,7.35083,0.00242589,-7.92751e-05,0.00115594,0.00287776,-0.000531149,0.372648,0.00211788,0.0132329,825,1562,0.19338,-7.35085
-392,-538,0.204712,7.55872,0.00177332,-0.00174103,0.000704886,0.00190943,-0.00187714,0.190747,0.00218621,0.0145708,832,1562,0.204696,-7.55874
-385,-538,0.18158,7.76563,0.00177342,-0.00304697,0.000288287,0.0017906,-0.00306415,0.0595229,0.00283486,0.0122395,839,1562,0.181562,-7.76565
-378,-538,0.180359,7.96191,0.00217266,-0.00429542,0.000227229,0.00218063,-0.00430339,0.0350732,0.00380984,0.00914783,846,1562,0.180347,-7.96188
-371,-538,0.167786,8.14087,0.00272381,-0.00543516,0.00012191,0.00272563,-0.00543698,0.0149373,0.00479857,0.00980309,853,1562,0.167775,-8.14087
-364,-538,0.187561,8.35999,0.00363545,-0.00650849,0.000108988,0.00363662,-0.00650966,0.0107425,0.00593572,0.0100785,860,1562,0.187542,-8.35993
-357,-538,0.210388,8.51782,0.00493606,-0.00731427,0.000292326,0.00494303,-0.00732125,0.0238446,0.00712502,0.019049,867,1562,0.210383,-8.51783
-350,-538,0.182007,8.57935,0.00553838,-0.00803323,-0.000615367,0.00556622,-0.00806108,-0.0452186,0.00791155,0.0324942,874,1562,0.182023,-8.57937
-343,-538,0.182678,9.06628,0,0,0,0,0,0,0,-1,881,1562,0.182698,-9.06628
-336,-538,0.498901,9.16016,0.00481502,-0.0095187,-0.00342039,0.00558938,-0.0102931,-0.222642,0.00930281,0.0439407,888,1562,0.498916,-9.16013
-329,-538,0.853943,9.24194,0.00454,-0.0106536,-0.00573507,0.00646173,-0.0125753,-0.323325,0.0111784,0.0436885,895,1562,0.853936,-9.24195
-322,-538,1.13678,9.37952,0,0,0,0,0,0,0,-1,902,1562,1.13677,-9.3795
-315,-538,0.0778198,9.40344,0,0,0,0,0,0,0,-1,909,1562,0.0778344,-9.40344
-308,-538,-0.0765381,9.65942,0,0,0,0,0,0,0,-1,916,1562,-0.0765173,-9.65938
-301,-538,-0.2995,9.82373,0,0,0,0,0,0,0,-1,923,1562,-0.299473,-9.82378
-294,-538,-0.241455,9.93323,0,0,0,0,0,0,0,-1,930,1562,-0.241479,-9.93325
-287,-538,0.191833,10.5402,0,0,0,0,0,0,0,-1,937,1562,0.19184,-10.5402
-280,-538,-4.0293,11.8911,0,0,0,0,0,0,0,-1,944,1562,-4.02932,-11.8911
-273,-538,-4.85803,13.4651,0,0,0,0,0,0,0,-1,951,1562,-4.85802,-13.4651
-266,-538,-5.69073,14.9116,0,0,0,0,0,0,0,-1,958,1562,-5.69073,-14.9116
-259,-538,-6.21277,16.2444,0,0,0,0,0,0,0,-1,965,1562,-6.21275,-16.2444
-252,-538,0,0,0,0,0,0,0,0,0,-1,972,1562,0,0
-245,-538,0,0,0,0,0,0,0,0,0,-1,979,1562,0,0
-238,-538,0,0,0,0,0,0,0,0,0,-1,986,1562,0,0
-231,-538,0,0,0,0,0,0,0,0,0,-1,993,1562,0,0
-224,-538,0,0,0,0,0,0,0,0,0,-1,1000,1562,0,0
-217,-538,0,0,0,0,0,0,0,0,0,-1,1007,1562,0,0
-210,-538,0,0,0,0,0,0,0,0,0,-1,1014,1562,0,0
-203,-538,0,0,0,0,0,0,0,0,0,-1,1021,1562,0,0
-196,-538,0,0,0,0,0,0,0,0,0,-1,1028,1562,0,0
-189,-538,0,0,0,0,0,0,0,0,0,-1,1035,1562,0,0
-182,-538,0,0,0,0,0,0,0,0,0,-1,1042,1562,0,0
-175,-538,0,0,0,0,0,0,0,0,0,-1,1049,1562,0,0
-168,-538,0,0,0,0,0,0,0,0,0,-1,1056,1562,0,0
-161,-538,0,0,0,0,0,0,0,0,0,-1,1063,1562,0,0
-154,-538,0,0,0,0,0,0,0,0,0,-1,1070,1562,0,0
-147,-538,0,0,0,0,0,0,0,0,0,-1,1077,1562,0,0
-140,-538,0,0,0,0,0,0,0,0,0,-1,1084,1562,0,0
-133,-538,0,0,0,0,0,0,0,0,0,-1,1091,1562,0,0
-126,-538,0,0,0,0,0,0,0,0,0,-1,1098,1562,0,0
-119,-538,0,0,0,0,0,0,0,0,0,-1,1105,1562,0,0
-112,-538,0,0,0,0,0,0,0,0,0,-1,1112,1562,0,0
-105,-538,0,0,0,0,0,0,0,0,0,-1,1119,1562,0,0
-98,-538,0,0,0,0,0,0,0,0,0,-1,1126,1562,0,0
-91,-538,0,0,0,0,0,0,0,0,0,-1,1133,1562,0,0
-84,-538,0,0,0,0,0,0,0,0,0,-1,1140,1562,0,0
-77,-538,0,0,0,0,0,0,0,0,0,-1,1147,1562,0,0
-70,-538,0,0,0,0,0,0,0,0,0,-1,1154,1562,0,0
-63,-538,0,0,0,0,0,0,0,0,0,-1,1161,1562,0,0
-56,-538,0,0,0,0,0,0,0,0,0,-1,1168,1562,0,0
-49,-538,0,0,0,0,0,0,0,0,0,-1,1175,1562,0,0
-42,-538,0,0,0,0,0,0,0,0,0,-1,1182,1562,0,0
-35,-538,0,0,0,0,0,0,0,0,0,-1,1189,1562,0,0
-28,-538,0,0,0,0,0,0,0,0,0,-1,1196,1562,0,0
-21,-538,0,0,0,0,0,0,0,0,0,-1,1203,1562,0,0
-14,-538,0,0,0,0,0,0,0,0,0,-1,1210,1562,0,0
-7,-538,0,0,0,0,0,0,0,0,0,-1,1217,1562,0,0
0,-538,0,0,0,0,0,0,0,0,0,-1,1224,1562,0,0
7,-538,0,0,0,0,0,0,0,0,0,-1,1231,1562,0,0
14,-538,0,0,0,0,0,0,0,0,0,-1,1238,1562,0,0
21,-538,0,0,0,0,0,0,0,0,0,-1,1245,1562,0,0
28,-538,0,0,0,0,0,0,0,0,0,-1,1252,1562,0,0
35,-538,0,0,0,0,0,0,0,0,0,-1,1259,1562,0,0
42,-538,0,0,0,0,0,0,0,0,0,-1,1266,1562,0,0
49,-538,0,0,0,0,0,0,0,0,0,-1,1273,1562,0,0
56,-538,0,0,0,0,0,0,0,0,0,-1,1280,1562,0,0
63,-538,0,0,0,0,0,0,0,0,0,-1,1287,1562,0,0
70,-538,0,0,0,0,0,0,0,0,0,-1,1294,1562,0,0
77,-538,0,0,0,0,0,0,0,0,0,-1,1301,1562,0,0
84,-538,0,0,0,0,0,0,0,0,0,-1,1308,1562,0,0
91,-538,0,0,0,0,0,0,0,0,0,-1,1315,1562,0,0
98,-538,0,0,0,0,0,0,0,0,0,-1,1322,1562,0,0
105,-538,0,0,0,0,0,0,0,0,0,-1,1329,1562,0,0
112,-538,0,0,0,0,0,0,0,0,0,-1,1336,1562,0,0
119,-538,0,0,0,0,0,0,0,0,0,-1,1343,1562,0,0
126,-538,0,0,0,0,0,0,0,0,0,-1,1350,1562,0,0
133,-538,0,0,0,0,0,0,0,0,0,-1,1357,1562,0,0
140,-538,0,0,0,0,0,0,0,0,0,-1,1364,1562,0,0
147,-538,0,0,0,0,0,0,0,0,0,-1,1371,1562,0,0
154,-538,0,0,0,0,0,0,0,0,0,-1,1378,1562,0,0
161,-538,0,0,0,0,0,0,0,0,0,-1,1385,1562,0,0
168,-538,0,0,0,0,0,0,0,0,0,-1,1392,1562,0,0
175,-538,0,0,0,0,0,0,0,0,0,-1,1399,1562,0,0
182,-538,0,0,0,0,0,0,0,0,0,-1,1406,1562,0,0
189,-538,0,0,0,0,0,0,0,0,0,-1,1413,1562,0,0
196,-538,0,0,0,0,0,0,0,0,0,-1,1420,1562,0,0
203,-538,0,0,0,0,0,0,0,0,0,-1,1427,1562,0,0
210,-538,0,0,0,0,0,0,0,0,0,-1,1434,1562,0,0
217,-538,0,0,0,0,0,0,0,0,0,-1,1441,1562,0,0
224,-538,0,0,0,0,0,0,0,0,0,-1,1448,1562,0,0
231,-538,0,0,0,0,0,0,0,0,0,-1,1455,1562,0,0
238,-538,0,0,0,0,0,0,0,0,0,-1,1462,1562,0,0
245,-538,0,0,0,0,0,0,0,0,0,-1,1469,1562,0,0
252,-538,0,0,0,0,0,0,0,0,0,-1,1476,1562,0,0
259,-538,0,0,0,0,0,0,0,0,0,-1,1483,1562,0,0
266,-538,0,0,0,0,0,0,0,0,0,-1,1490,1562,0,0
273,-538,0,0,0,0,0,0,0,0,0,-1,1497,1562,0,0
280,-538,0,0,0,0,0,0,0,0,0,-1,1504,1562,0,0
287,-538,0,0,0,0,0,0,0,0,0,-1,1511,1562,0,0
294,-538,0,0,0,0,0,0,0,0,0,-1,1518,1562,0,0
301,-538,0,0,0,0,0,0,0,0,0,-1,1525,1562,0,0
308,-538,0,0,0,0,0,0,0,0,0,-1,1532,1562,0,0
315,-538,0,0,0,0,0,0,0,0,0,-1,1539,1562,0,0
322,-538,0,0,0,0,0,0,0,0,0,-1,1546,1562,0,0
329,-538,0,0,0,0,0,0,0,0,0,-1,1553,1562,0,0
336,-538,0,0,0,0,0,0,0,0,0,-1,1560,1562,0,0
343,-538,0,0,0,0,0,0,0,0,0,-1,1567,1562,0,0
350,-538,0,0,0,0,0,0,0,0,0,-1,1574,1562,0,0
357,-538,0,0,0,0,0,0,0,0,0,-1,1581,1562,0,0
364,-538,0,0,0,0,0,0,0,0,0,-1,1588,1562,0,0
371,-538,0,0,0,0,0,0,0,0,0,-1,1595,1562,0,0
378,-538,7.65637,4.13477,0,0,0,0,0,0,0,-1,1602,1562,7.65643,-4.13477
385,-538,8.69836,7.6283,0,0,0,0,0,0,0,-1,1609,1562,8.69835,-7.62829
392,-538,8.20361,7.07214,0,0,0,0,0,0,0,-1,1616,1562,8.20362,-7.07211
399,-538,7.85425,4.70508,0,0,0,0,0,0,0,-1,1623,1562,7.85425,-4.70512
406,-538,7.77734,4.96094,0,0,0,0,0,0,0,-1,1630,1562,7.77729,-4.96097
413,-538,13.0446,13.1765,0,0,0,0,0,0,0,-1,1637,1562,13.0446,-13.1765
420,-538,8.45642,8.08704,0,0,0,0,0,0,0,-1,1644,1562,8.45636,-8.08707
427,-538,8.62769,7.85291,0,0,0,0,0,0,0,-1,1651,1562,8.62772,-7.85285
434,-538,8.56519,6.61145,0,0,0,0,0,0,0,-1,1658,1562,8.56519,-6.61149
441,-538,8.21045,7.43323,0,0,0,0,0,0,0,-1,1665,1562,8.21047,-7.4332
448,-538,8.36462,7.35266,0,0,0,0,0,0,0,-1,1672,1562,8.36468,-7.35269
455,-538,8.30261,7.46277,-0.0211724,-0.119457,0.0478024,-0.00175786,-0.138871,0.38579,0.0920004,0.0451388,1679,1562,8.30256,-7.46273
462,-538,8.10571,7.93787,-0.0171374,-0.101663,0.0414642,-0.00019357,-0.118607,0.387931,0.0790066,0.0473644,1686,1562,8.10569,-7.93791
469,-538,7.84827,8.43176,0,0,0,0,0,0,0,-1,1693,1562,7.84832,-8.43174
476,-538,8.14246,9.40747,0,0,0,0,0,0,0,-1,1700,1562,8.14241,-9.40745
483,-538,7.84949,9.71924,-0.00899259,-0.0545146,0.0245219,0.00170361,-0.0652108,0.411311,0.0440527,0.0264405,1707,1562,7.84949,-9.71921
490,-538,7.76587,9.67993,-0.0073958,-0.0417993,0.0198939,0.00170203,-0.0508971,0.428922,0.0345127,0.0124508,1714,1562,7.76586,-9.67992
497,-538,7.74121,9.55615,-0.00610523,-0.0312182,0.0158073,0.0015258,-0.0388492,0.449756,0.0264228,0.00925407,1721,1562,7.74123,-9.55619
504,-538,7.74219,9.38574,-0.00483617,-0.0226067,0.0121628,0.00134112,-0.028784,0.469936,0.0196516,0.00892411,1728,1562,7.74215,-9.38576
511,-538,7.73962,9.20837,-0.00372497,-0.0149304,0.00911521,0.00137173,-0.0200271,0.509835,0.0138313,0.00922867,1735,1562,7.73968,-9.20838
518,-538,7.72815,9.05103,-0.00281615,-0.0093267,0.00648727,0.00118678,-0.0133296,0.552857,0.00930726,0.00963352,1742,1562,7.72812,-9.05102
525,-538,7.72974,8.86108,-0.00195022,-0.00557989,0.00445384,0.00104434,-0.00857444,0.59193,0.00609431,0.0101472,1749,1562,7.72972,-8.86112
532,-538,7.75659,8.67676,-0.00113021,-0.0026727,0.00267637,0.000883825,-0.00468673,0.645115,0.00345696,0.0110124,1756,1562,7.7566,-8.67671
539,-538,7.75818,8.51123,-0.000206584,-0.000576232,0.00121369,0.000836274,-0.00161909,0.709837,0.00144142,0.0144782,1763,1562,7.75812,-8.51125
546,-538,7.76282,8.32813,0.000743948,0.000269916,0.000184042,0.000807012,0.000206851,0.330122,0.000484022,0.0177486,1770,1562,7.76287,-8.32815
553,-538,7.79224,8.12976,0.00171788,0.00123254,-0.000682616,0.00219968,0.00075074,-0.614615,0.00129113,0.0281672,1777,1562,7.79226,-8.12981
560,-538,7.77832,7.98621,0.00293039,0.00205285,-0.00143455,0.00399177,0.000991469,-0.636986,0.00239996,0.0276217,1784,1562,7.77832,-7.98619
567,-538,7.70178,7.82544,0.00383072,0.00296478,-0.0021158,0.0055574,0.0012381,-0.684473,0.00336894,0.0190273,1791,1562,7.70182,-7.82539
574,-538,7.73193,7.61145,0.00461511,0.0037134,-0.00271962,0.00692099,0.00140752,-0.703256,0.00422373,0.0122613,1798,1562,7.73197,-7.61145
581,-538,7.76636,7.41479,0.00553689,0.00459812,-0.0031322,0.00823468,0.00190033,-0.711023,0.00497874,0.0143045,1805,1562,7.76631,-7.41481
588,-538,7.76318,7.17957,0.00644192,0.0053749,-0.00362128,0.00956878,0.00224804,-0.712261,0.00577751,0.0313489,1812,1562,7.76319,-7.1796
595,-538,7.75586,6.83643,0.00759342,0.00642024,-0.0042188,0.0112662,0.00274744,-0.71632,0.00678307,0.0453541,1819,1562,7.75585,-6.83637
602,-538,7.63489,6.52417,0,0,0,0,0,0,0,-1,1826,1562,7.63486,-6.52419
609,-538,7.74109,5.12695,0,0,0,0,0,0,0,-1,1833,1562,7.74108,-5.12697
616,-538,11.9706,6.6803,0,0,0,0,0,0,0,-1,1840,1562,11.9705,-6.68028
623,-538,11.6731,4.90771,0,0,0,0,0,0,0,-1,1847,1562,11.673,-4.90772
630,-538,11.3368,3.23474,0,0,0,0,0,0,0,-1,1854,1562,11.3368,-3.23475
637,-538,0,0,0,0,0,0,0,0,0,-1,1861,1562,0,0
644,-538,0,0,0,0,0,0,0,0,0,-1,1868,1562,0,0
651,-538,0,0,0,0,0,0,0,0,0,-1,1875,1562,0,0
658,-538,0,0,0,0,0,0,0,0,0,-1,1882,1562,0,0
665,-538,0,0,0,0,0,0,0,0,0,-1,1889,1562,0,0
672,-538,0,0,0,0,0,0,0,0,0,-1,1896,1562,0,0
679,-538,0,0,0,0,0,0,0,0,0,-1,1903,1562,0,0
686,-538,0,0,0,0,0,0,0,0,0,-1,1910,1562,0,0
693,-538,0,0,0,0,0,0,0,0,0,-1,1917,1562,0,0
700,-538,0,0,0,0,0,0,0,0,0,-1,1924,1562,0,0
707,-538,0,0,0,0,0,0,0,0,0,-1,1931,1562,0,0
714,-538,0,0,0,0,0,0,0,0,0,-1,1938,1562,0,0
721,-538,0,0,0,0,0,0,0,0,0,-1,1945,1562,0,0
728,-538,0,0,0,0,0,0,0,0,0,-1,1952,1562,0,0
735,-538,0,0,0,0,0,0,0,0,0,-1,1959,1562,0,0
742,-538,0,0,0,0,0,0,0,0,0,-1,1966,1562,0,0
749,-538,0,0,0,0,0,0,0,0,0,-1,1973,1562,0,0
756,-538,0,0,0,0,0,0,0,0,0,-1,1980,1562,0,0
763,-538,0,0,0,0,0,0,0,0,0,-1,1987,1562,0,0
770,-538,0,0,0,0,0,0,0,0,0,-1,1994,1562,0,0
777,-538,0,0,0,0,0,0,0,0,0,-1,2001,1562,0,0
784,-538,0,0,0,0,0,0,0,0,0,-1,2008,1562,0,0
791,-538,0,0,0,0,0,0,0,0,0,-1,2015,1562,0,0
798,-538,0,0,0,0,0,0,0,0,0,-1,2022,1562,0,0
805,-538,0,0,0,0,0,0,0,0,0,-1,2029,1562,0,0
812,-538,0,0,0,0,0,0,0,0,0,-1,2036,1562,0,0
-700,-545,0,0,0,0,0,0,0,0,0,-1,524,1569,0,0
-693,-545,0,0,0,0,0,0,0,0,0,-1,531,1569,0,0
-686,-545,0,0,0,0,0,0,0,0,0,-1,538,1569,0,0
-679,-545,0,0,0,0,0,0,0,0,0,-1,545,1569,0,0
-672,-545,0,0,0,0,0,0,0,0,0,-1,552,1569,0,0
-665,-545,0,0,0,0,0,0,0,0,0,-1,559,1569,0,0
-658,-545,0,0,0,0,0,0,0,0,0,-1,566,1569,0,0
-651,-545,0,0,0,0,0,0,0,0,0,-1,573,1569,0,0
-644,-545,0,0,0,0,0,0,0,0,0,-1,580,1569,0,0
-637,-545,0,0,0,0,0,0,0,0,0,-1,587,1569,0,0
-630,-545,0,0,0,0,0,0,0,0,0,-1,594,1569,0,0
-623,-545,0,0,0,0,0,0,0,0,0,-1,601,1569,0,0
-616,-545,0,0,0,0,0,0,0,0,0,-1,608,1569,0,0
-609,-545,0,0,0,0,0,0,0,0,0,-1,615,1569,0,0
-602,-545,0,0,0,0,0,0,0,0,0,-1,622,1569,0,0
-595,-545,0,0,0,0,0,0,0,0,0,-1,629,1569,0,0
-588,-545,0,0,0,0,0,0,0,0,0,-1,636,1569,0,0
-581,-545,0,0,0,0,0,0,0,0,0,-1,643,1569,0,0
-574,-545,0,0,0,0,0,0,0,0,0,-1,650,1569,0,0
-567,-545,0,0,0,0,0,0,0,0,0,-1,657,1569,0,0
-560,-545,0,0,0,0,0,0,0,0,0,-1,664,1569,0,0
-553,-545,0,0,0,0,0,0,0,0,0,-1,671,1569,0,0
-546,-545,0,0,0,0,0,0,0,0,0,-1,678,1569,0,0
-539,-545,0,0,0,0,0,0,0,0,0,-1,685,1569,0,0
-532,-545,0,0,0,0,0,0,0,0,0,-1,692,1569,0,0
-525,-545,0,0,0,0,0,0,0,0,0,-1,699,1569,0,0
-518,-545,0,0,0,0,0,0,0,0,0,-1,706,1569,0,0
-511,-545,0,0,0,0,0,0,0,0,0,-1,713,1569,0,0
-504,-545,-3.55237,-2.5354,0,0,0,0,0,0,0,-1,720,1569,-3.55236,2.53545
-497,-545,0.119141,5.68481,0,0,0,0,0,0,0,-1,727,1569,0.119132,-5.68483
-490,-545,-2.12604,7.04187,0,0,0,0,0,0,0,-1,734,1569,-2.12601,-7.04189
-483,-545,0.503784,3.99585,0,0,0,0,0,0,0,-1,741,1569,0.503811,-3.99584
-476,-545,0.288452,4.56836,-0.000165959,0.00113378,0.0393161,0.0398054,-0.0388375,0.793662,0.0454056,0.0458715,748,1569,0.288451,-4.56836
-469,-545,0.368774,5.03345,0.00492219,0.00312726,0.0323048,0.036342,-0.0282925,0.771511,0.0374131,0.0459342,755,1569,0.368745,-5.03339
-462,-545,0.637512,5.33301,0.00782171,0.00434467,0.0266428,0.0327827,-0.0206163,0.752818,0.0310955,0.045339,762,1569,0.637508,-5.33295
-455,-545,-0.154663,5.9751,0.00909234,0.00532093,0.0215049,0.0287941,-0.0143808,0.741666,0.0253858,0.0427163,769,1569,-0.154653,-5.97514
-448,-545,0.394287,5.88098,0.00906625,0.00567693,0.0171243,0.0245795,-0.00983635,0.736078,0.0204687,0.027896,776,1569,0.394263,-5.88102
-441,-545,0.402466,6.18909,0.00856819,0.00569404,0.0133184,0.0205268,-0.00626461,0.731655,0.0161821,0.016929,783,1569,0.402485,-6.18914
-434,-545,0.366394,6.37427,0.00770173,0.0053061,0.0102313,0.0168051,-0.00379724,0.727126,0.0126604,0.013833,790,1569,0.366414,-6.37431
-427,-545,0.380859,6.57019,0.00692744,0.00463755,0.00760705,0.0134752,-0.00191023,0.710703,0.00968324,0.0162663,797,1569,0.380838,-6.57016
-420,-545,0.390808,6.77539,0.00605414,0.00395186,0.00547667,0.0105796,-0.000573628,0.690586,0.00725186,0.0225102,804,1569,0.390814,-6.77542
-413,-545,0.375854,6.96863,0.00502322,0.0030548,0.00388106,0.00804292,3.51076e-05,0.661219,0.00535028,0.0219357,811,1569,0.375884,-6.96863
-406,-545,0.378113,7.14172,0.00393711,0.00267917,0.0021624,0.00556016,0.00105612,0.643871,0.00340969,0.0168742,818,1569,0.378139,-7.1417
-399,-545,0.391174,7.34595,0.00284779,0.00117796,0.00140516,0.00364736,0.000378392,0.517333,0.00231577,0.0113486,825,1569,0.391166,-7.3459
-392,-545,0.394348,7.54956,0.00202147,-0.000627816,0.000756097,0.00222207,-0.000828415,0.259333,0.00182144,0.0110146,832,1569,0.394366,-7.54957
-385,-545,0.391113,7.75879,0.0019208,-0.00196137,0.000156176,0.00192707,-0.00196764,0.0401425,0.00224866,0.00965677,839,1569,0.391099,-7.75878
-378,-545,0.375061,7.96118,0.00223258,-0.00312678,-3.09909e-05,0.00223276,-0.00312696,-0.00578233,0.00310875,0.0114633,846,1569,0.375052,-7.96115
-371,-545,0.356445,8.15955,0.00262887,-0.00413618,-0.00026491,0.00263923,-0.00414654,-0.0390788,0.00394985,0.0147032,853,1569,0.35646,-8.1595
-364,-545,0.364807,8.34143,0.0034062,-0.00501976,-0.00031323,0.00341783,-0.00503139,-0.0371061,0.00490772,0.00932462,860,1569,0.364792,-8.34141
-357,-545,0.399353,8.54358,0.0045374,-0.00562239,-0.000175306,0.00454042,-0.00562542,-0.017248,0.00588038,0.0103202,867,1569,0.399362,-8.54356
-350,-545,0.413696,8.7406,0.00499507,-0.00615242,-0.000961197,0.00507734,-0.00623469,-0.0853856,0.00654239,0.0147684,874,1569,0.413699,-8.74054
-343,-545,0.414429,8.90076,0.00409328,-0.00658888,-0.00202212,0.00446325,-0.00695885,-0.18096,0.00664681,0.0236129,881,1569,0.41442,-8.90075
-336,-545,0.486877,9.05591,0.00414243,-0.00727609,-0.00313802,0.00494799,-0.00808164,-0.251282,0.00759483,0.0324895,888,1569,0.486854,-9.05595
-329,-545,0.578247,9.3136,0.0033733,-0.00804344,-0.00476915,0.00510336,-0.0097735,-0.347998,0.00872909,0.0379364,895,1569,0.578236,-9.31357
-322,-545,0.628357,9.76428,0,0,0,0,0,0,0,-1,902,1569,0.628346,-9.76425
-315,-545,0.296875,9.2417,0,0,0,0,0,0,0,-1,909,1569,0.296861,-9.24166
-308,-545,0.427063,9.80286,0,0,0,0,0,0,0,-1,916,1569,0.427035,-9.80281
-301,-545,-0.241821,9.69958,0,0,0,0,0,0,0,-1,923,1569,-0.2418,-9.69963
-294,-545,-0.227051,9.77686,0,0,0,0,0,0,0,-1,930,1569,-0.227075,-9.7769
-287,-545,-0.212341,9.85413,0,0,0,0,0,0,0,-1,937,1569,-0.212349,-9.85418
-280,-545,0.226746,10.4198,0,0,0,0,0,0,0,-1,944,1569,0.226742,-10.4198
-273,-545,-4.10596,12.3789,0,0,0,0,0,0,0,-1,951,1569,-4.10598,-12.3789
-266,-545,-5.10779,14.1372,0,0,0,0,0,0,0,-1,958,1569,-5.10778,-14.1372
-259,-545,-3.98706,7.8916,0,0,0,0,0,0,0,-1,965,1569,-3.98704,-7.89159
-252,-545,-4.75641,8.30005,0,0,0,0,0,0,0,-1,972,1569,-4.75641,-8.3001
-245,-545,0.484619,5.7207,0,0,0,0,0,0,0,-1,979,1569,0.484599,-5.72068
-238,-545,0,0,0,0,0,0,0,0,0,-1,986,1569,0,0
-231,-545,0,0,0,0,0,0,0,0,0,-1,993,1569,0,0
-224,-545,0,0,0,0,0,0,0,0,0,-1,1000,1569,0,0
-217,-545,0,0,0,0,0,0,0,0,0,-1,1007,1569,0,0
-210,-545,0,0,0,0,0,0,0,0,0,-1,1014,1569,0,0
-203,-545,0,0,0,0,0,0,0,0,0,-1,1021,1569,0,0
-196,-545,0,0,0,0,0,0,0,0,0,-1,1028,1569,0,0
-189,-545,0,0,0,0,0,0,0,0,0,-1,1035,1569,0,0
-182,-545,0,0,0,0,0,0,0,0,0,-1,1042,1569,0,0
-175,-545,0,0,0,0,0,0,0,0,0,-1,1049,1569,0,0
-168,-545,0,0,0,0,0,0,0,0,0,-1,1056,1569,0,0
-161,-545,0,0,0,0,0,0,0,0,0,-1,1063,1569,0,0
-154,-545,0,0,0,0,0,0,0,0,0,-1,1070,1569,0,0
-147,-545,0,0,0,0,0,0,0,0,0,-1,1077,1569,0,0
-140,-545,0,0,0,0,0,0,0,0,0,-1,1084,1569,0,0
-133,-545,0,0,0,0,0,0,0,0,0,-1,1091,1569,0,0
-126,-545,0,0,0,0,0,0,0,0,0,-1,1098,1569,0,0
-119,-545,0,0,0,0,0,0,0,0,0,-1,1105,1569,0,0
-112,-545,0,0,0,0,0,0,0,0,0,-1,1112,1569,0,0
-105,-545,0,0,0,0,0,0,0,0,0,-1,1119,1569,0,0
-98,-545,0,0,0,0,0,0,0,0,0,-1,1126,1569,0,0
-91,-545,0,0,0,0,0,0,0,0,0,-1,1133,1569,0,0
-84,-545,0,0,0,0,0,0,0,0,0,-1,1140,1569,0,0
-77,-545,0,0,0,0,0,0,0,0,0,-1,1147,1569,0,0
-70,-545,0,0,0,0,0,0,0,0,0,-1,1154,1569,0,0
-63,-545,0,0,0,0,0,0,0,0,0,-1,1161,1569,0,0
-56,-545,0,0,0,0,0,0,0,0,0,-1,1168,1569,0,0
-49,-545,0,0,0,0,0,0,0,0,0,-1,1175,1569,0,0
-42,-545,0,0,0,0,0,0,0,0,0,-1,1182,1569,0,0
-35,-545,0,0,0,0,0,0,0,0,0,-1,1189,1569,0,0
-28,-545,0,0,0,0,0,0,0,0,0,-1,1196,1569,0,0
-21,-545,0,0,0,0,0,0,0,0,0,-1,1203,1569,0,0
-14,-545,0,0,0,0,0,0,0,0,0,-1,1210,1569,0,0
-7,-545,0,0,0,0,0,0,0,0,0,-1,1217,1569,0,0
0,-545,0,0,0,0,0,0,0,0,0,-1,1224,1569,0,0
7,-545,0,0,0,0,0,0,0,0,0,-1,1231,1569,0,0
14,-545,0,0,0,0,0,0,0,0,0,-1,1238,1569,0,0
21,-545,0,0,0,0,0,0,0,0,0,-1,1245,1569,0,0
28,-545,0,0,0,0,0,0,0,0,0,-1,1252,1569,0,0
35,-545,0,0,0,0,0,0,0,0,0,-1,1259,1569,0,0
42,-545,0,0,0,0,0,0,0,0,0,-1,1266,1569,0,0
49,-545,0,0,0,0,0,0,0,0,0,-1,1273,1569,0,0
56,-545,0,0,0,0,0,0,0,0,0,-1,1280,1569,0,0
63,-545,0,0,0,0,0,0,0,0,0,-1,1287,1569,0,0
70,-545,0,0,0,0,0,0,0,0,0,-1,1294,1569,0,0
77,-545,0,0,0,0,0,0,0,0,0,-1,1301,1569,0,0
84,-545,0,0,0,0,0,0,0,0,0,-1,1308,1569,0,0
91,-545,0,0,0,0,0,0,0,0,0,-1,1315,1569,0,0
98,-545,0,0,0,0,0,0,0,0,0,-1,1322,1569,0,0
105,-545,0,0,0,0,0,0,0,0,0,-1,1329,1569,0,0
112,-545,0,0,0,0,0,0,0,0,0,-1,1336,1569,0,0
119,-545,0,0,0,0,0,0,0,0,0,-1,1343,1569,0,0
126,-545,0,0,0,0,0,0,0,0,0,-1,1350,1569,0,0
133,-545,0,0,0,0,0,0,0,0,0,-1,1357,1569,0,0
140,-545,0,0,0,0,0,0,0,0,0,-1,1364,1569,0,0
147,-545,0,0,0,0,0,0,0,0,0,-1,1371,1569,0,0
154,-545,0,0,0,0,0,0,0,0,0,-1,1378,1569,0,0
161,-545,0,0,0,0,0,0,0,0,0,-1,1385,1569,0,0
168,-545,0,0,0,0,0,0,0,0,0,-1,1392,1569,0,0
175,-545,0,0,0,0,0,0,0,0,0,-1,1399,1569,0,0
182,-545,0,0,0,0,0,0,0,0,0,-1,1406,1569,0,0
189,-545,0,0,0,0,0,0,0,0,0,-1,1413,1569,0,0
196,-545,0,0,0,0,0,0,0,0,0,-1,1420,1569,0,0
203,-545,0,0,0,0,0,0,0,0,0,-1,1427,1569,0,0
210,-545,0,0,0,0,0,0,0,0,0,-1,1434,1569,0,0
217,-545,0,0,0,0,0,0,0,0,0,-1,1441,1569,0,0
224,-545,0,0,0,0,0,0,0,0,0,-1,1448,1569,0,0
231,-545,0,0,0,0,0,0,0,0,0,-1,1455,1569,0,0
238,-545,0,0,0,0,0,0,0,0,0,-1,1462,1569,0,0
245,-545,0,0,0,0,0,0,0,0,0,-1,1469,1569,0,0
252,-545,0,0,0,0,0,0,0,0,0,-1,1476,1569,0,0
259,-545,0,0,0,0,0,0,0,0,0,-1,1483,1569,0,0
266,-545,0,0,0,0,0,0,0,0,0,-1,1490,1569,0,0
273,-545,0,0,0,0,0,0,0,0,0,-1,1497,1569,0,0
280,-545,0,0,0,0,0,0,0,0,0,-1,1504,1569,0,0
287,-545,0,0,0,0,0,0,0,0,0,-1,1511,1569,0,0
294,-545,0,0,0,0,0,0,0,0,0,-1,1518,1569,0,0
301,-545,0,0,0,0,0,0,0,0,0,-1,1525,1569,0,0
308,-545,0,0,0,0,0,0,0,0,0,-1,1532,1569,0,0
315,-545,0,0,0,0,0,0,0,0,0,-1,1539,1569,0,0
322,-545,0,0,0,0,0,0,0,0,0,-1,1546,1569,0,0
329,-545,0,0,0,0,0,0,0,0,0,-1,1553,1569,0,0
336,-545,0,0,0,0,0,0,0,0,0,-1,1560,1569,0,0
343,-545,0,0,0,0,0,0,0,0,0,-1,1567,1569,0,0
350,-545,0,0,0,0,0,0,0,0,0,-1,1574,1569,0,0
357,-545,0,0,0,0,0,0,0,0,0,-1,1581,1569,0,0
364,-545,5.47632,4.19043,0,0,0,0,0,0,0,-1,1588,1569,5.47628,-4.19048
371,-545,7.62146,5.18079,0,0,0,0,0,0,0,-1,1595,1569,7.62146,-5.1808
378,-545,7.24146,4.54224,0,0,0,0,0,0,0,-1,1602,1569,7.24145,-4.54226
385,-545,8.58447,1.16125,0,0,0,0,0,0,0,-1,1609,1569,8.5845,-1.1612
392,-545,12.5654,3.89526,0,0,0,0,0,0,0,-1,1616,1569,12.5655,-3.89532
399,-545,11.5869,5.6333,0,0,0,0,0,0,0,-1,1623,1569,11.5869,-5.63326
406,-545,11.234,6.36414,0,0,0,0,0,0,0,-1,1630,1569,11.234,-6.3641
413,-545,12.1521,13.4817,0,0,0,0,0,0,0,-1,1637,1569,12.1521,-13.4817
420,-545,9.23816,9.77368,0,0,0,0,0,0,0,-1,1644,1569,9.2382,-9.77372
427,-545,9.40308,9.49854,0,0,0,0,0,0,0,-1,1651,1569,9.40313,-9.49856
434,-545,9.3197,9.31726,0,0,0,0,0,0,0,-1,1658,1569,9.31966,-9.31729
441,-545,9.17065,9.26086,0,0,0,0,0,0,0,-1,1665,1569,9.17061,-9.26085
448,-545,8.76099,9.08875,0,0,0,0,0,0,0,-1,1672,1569,8.76101,-9.08874
455,-545,8.06323,8.84424,-0.0187724,-0.0912555,0.0377636,-0.00267334,-0.107355,0.402981,0.0706955,0.0426193,1679,1569,8.06323,-8.84422
462,-545,7.82874,8.96326,-0.0150004,-0.0782786,0.0325577,-0.00124091,-0.0920381,0.399853,0.0609493,0.0446053,1686,1569,7.82872,-8.96323
469,-545,7.62354,9.16553,-0.0117499,-0.0659173,0.0274796,-0.000250511,-0.0774167,0.396327,0.0515278,0.0455489,1693,1569,7.62356,-9.16552
476,-545,7.44666,9.34778,0,0,0,0,0,0,0,-1,1700,1569,7.44671,-9.34776
483,-545,7.55688,9.85095,-0.00729868,-0.0427124,0.0189276,0.000913292,-0.0509243,0.409354,0.034258,0.0121496,1707,1569,7.55688,-9.85098
490,-545,7.5603,9.70874,-0.00572595,-0.0329203,0.0152787,0.00112981,-0.0397761,0.421783,0.0269019,0.0103716,1714,1569,7.56033,-9.70869
497,-545,7.55823,9.56006,-0.00445157,-0.0246766,0.0120186,0.0011429,-0.0302711,0.435656,0.0205723,0.0158136,1721,1569,7.55824,-9.5601
504,-545,7.58716,9.39746,-0.00323249,-0.0178546,0.00909341,0.00112443,-0.0222115,0.446812,0.0151964,0.0154535,1728,1569,7.58717,-9.39744
511,-545,7.57263,9.21423,-0.00216885,-0.0115902,0.00660451,0.00123281,-0.0149919,0.475616,0.0104298,0.011464,1735,1569,7.57262,-9.21423
518,-545,7.54675,9.03955,-0.00132533,-0.00699927,0.00444278,0.00110901,-0.0094336,0.501254,0.00668945,0.0125617,1742,1569,7.54675,-9.03957
525,-545,7.55872,8.84448,-0.000527861,-0.00394571,0.00278094,0.00102727,-0.00550084,0.509887,0.00405328,0.0129962,1749,1569,7.55873,-8.84448
532,-545,7.56555,8.6759,0.00024223,-0.00167188,0.00136203,0.000949826,-0.00237948,0.47914,0.00198037,0.0133741,1756,1569,7.56555,-8.67592
539,-545,7.56592,8.5199,0.00109601,-7.52923e-05,0.000207018,0.00113153,-0.000110804,0.169887,0.000793867,0.0170615,1763,1569,7.56589,-8.51988
546,-545,7.58435,8.34338,0.00194747,0.000693491,-0.000661806,0.00223213,0.000408833,-0.406203,0.00137226,0.01988,1770,1569,7.58438,-8.34334
553,-545,7.60168,8.12695,0.00290253,0.0016182,-0.00141763,0.00381666,0.00070407,-0.572732,0.00234525,0.0272103,1777,1569,7.60167,-8.127
560,-545,7.60205,7.922,0.00411401,0.002407,-0.00202742,0.00546026,0.00106076,-0.586168,0.00334316,0.0257519,1784,1569,7.60206,-7.92194
567,-545,7.5083,7.81714,0.00488438,0.00349647,-0.00263774,0.00691792,0.00146293,-0.656769,0.0042099,0.0340402,1791,1569,7.50825,-7.81718
574,-545,7.5022,7.62378,0.00562689,0.00428366,-0.00328889,0.00831203,0.00159851,-0.68468,0.00509284,0.0285953,1798,1569,7.50225,-7.62384
581,-545,7.54614,7.38013,0.00679164,0.00543832,-0.00387408,0.0100477,0.00218225,-0.698939,0.00610253,0.0390712,1805,1569,7.5461,-7.3801
588,-545,7.53784,7.15942,0,0,0,0,0,0,0,-1,1812,1569,7.53789,-7.15948
595,-545,7.67407,6.74097,0,0,0,0,0,0,0,-1,1819,1569,7.67405,-6.741
602,-545,6.79126,5.93616,0,0,0,0,0,0,0,-1,1826,1569,6.79129,-5.93617
609,-545,8.71558,3.14709,0,0,0,0,0,0,0,-1,1833,1569,8.71563,-3.14711
616,-545,9.32727,2.09204,0,0,0,0,0,0,0,-1,1840,1569,9.32733,-2.09203
623,-545,13.2522,3.6488,0,0,0,0,0,0,0,-1,1847,1569,13.2522,-3.64886
630,-545,0,0,0,0,0,0,0,0,0,-1,1854,1569,0,0
637,-545,0,0,0,0,0,0,0,0,0,-1,1861,1569,0,0
644,-545,0,0,0,0,0,0,0,0,0,-1,1868,1569,0,0
651,-545,0,0,0,0,0,0,0,0,0,-1,1875,1569,0,0
658,-545,0,0,0,0,0,0,0,0,0,-1,1882,1569,0,0
665,-545,0,0,0,0,0,0,0,0,0,-1,1889,1569,0,0
672,-545,0,0,0,0,0,0,0,0,0,-1,1896,1569,0,0
679,-545,0,0,0,0,0,0,0,0,0,-1,1903,1569,0,0
686,-545,0,0,0,0,0,0,0,0,0,-1,1910,1569,0,0
693,-545,0,0,0,0,0,0,0,0,0,-1,1917,1569,0,0
700,-545,0,0,0,0,0,0,0,0,0,-1,1924,1569,0,0
707,-545,0,0,0,0,0,0,0,0,0,-1,1931,1569,0,0
714,-545,0,0,0,0,0,0,0,0,0,-1,1938,1569,0,0
721,-545,0,0,0,0,0,0,0,0,0,-1,1945,1569,0,0
728,-545,0,0,0,0,0,0,0,0,0,-1,1952,1569,0,0
735,-545,0,0,0,0,0,0,0,0,0,-1,1959,1569,0,0
742,-545,0,0,0,0,0,0,0,0,0,-1,1966,1569,0,0
749,-545,0,0,0,0,0,0,0,0,0,-1,1973,1569,0,0
756,-545,0,0,0,0,0,0,0,0,0,-1,1980,1569,0,0
763,-545,0,0,0,0,0,0,0,0,0,-1,1987,1569,0,0
770,-545,0,0,0,0,0,0,0,0,0,-1,1994,1569,0,0
777,-545,0,0,0,0,0,0,0,0,0,-1,2001,1569,0,0
784,-545,0,0,0,0,0,0,0,0,0,-1,2008,1569,0,0
791,-545,0,0,0,0,0,0,0,0,0,-1,2015,1569,0,0
798,-545,0,0,0,0,0,0,0,0,0,-1,2022,1569,0,0
805,-545,0,0,0,0,0,0,0,0,0,-1,2029,1569,0,0
812,-545,0,0,0,0,0,0,0,0,0,-1,2036,1569,0,0
-700,-552,0,0,0,0,0,0,0,0,0,-1,524,1576,0,0
-693,-552,0,0,0,0,0,0,0,0,0,-1,531,1576,0,0
-686,-552,0,0,0,0,0,0,0,0,0,-1,538,1576,0,0
-679,-552,0,0,0,0,0,0,0,0,0,-1,545,1576,0,0
-672,-552,0,0,0,0,0,0,0,0,0,-1,552,1576,0,0
-665,-552,0,0,0,0,0,0,0,0,0,-1,559,1576,0,0
-658,-552,0,0,0,0,0,0,0,0,0,-1,566,1576,0,0
-651,-552,0,0,0,0,0,0,0,0,0,-1,573,1576,0,0
-644,-552,0,0,0,0,0,0,0,0,0,-1,580,1576,0,0
-637,-552,0,0,0,0,0,0,0,0,0,-1,587,1576,0,0
-630,-552,0,0,0,0,0,0,0,0,0,-1,594,1576,0,0
-623,-552,0,0,0,0,0,0,0,0,0,-1,601,1576,0,0
-616,-552,0,0,0,0,0,0,0,0,0,-1,608,1576,0,0
-609,-552,0,0,0,0,0,0,0,0,0,-1,615,1576,0,0
-602,-552,0,0,0,0,0,0,0,0,0,-1,622,1576,0,0
-595,-552,0,0,0,0,0,0,0,0,0,-1,629,1576,0,0
-588,-552,0,0,0,0,0,0,0,0,0,-1,636,1576,0,0
-581,-552,0,0,0,0,0,0,0,0,0,-1,643,1576,0,0
-574,-552,0,0,0,0,0,0,0,0,0,-1,650,1576,0,0
-567,-552,0,0,0,0,0,0,0,0,0,-1,657,1576,0,0
-560,-552,0,0,0,0,0,0,0,0,0,-1,664,1576,0,0
-553,-552,0,0,0,0,0,0,0,0,0,-1,671,1576,0,0
-546,-552,0,0,0,0,0,0,0,0,0,-1,678,1576,0,0
-539,-552,0,0,0,0,0,0,0,0,0,-1,685,1576,0,0
-532,-552,0,0,0,0,0,0,0,0,0,-1,692,1576,0,0
-525,-552,0,0,0,0,0,0,0,0,0,-1,699,1576,0,0
-518,-552,0,0,0,0,0,0,0,0,0,-1,706,1576,0,0
-511,-552,0,0,0,0,0,0,0,0,0,-1,713,1576,0,0
-504,-552,0,0,0,0,0,0,0,0,0,-1,720,1576,0,0
-497,-552,4.93781,1.23352,0,0,0,0,0,0,0,-1,727,1576,4.93781,-1.23351
-490,-552,0.842834,2.58716,0,0,0,0,0,0,0,-1,734,1576,0.842843,-2.58718
-483,-552,0.499634,3.63062,0,0,0,0,0,0,0,-1,741,1576,0.499659,-3.63057
-476,-552,0.181335,4.67444,0,0,0,0,0,0,0,-1,748,1576,0.181333,-4.67444
-469,-552,0.215271,4.78223,0,0,0,0,0,0,0,-1,755,1576,0.215272,-4.78217
-462,-552,-0.727661,6.2572,0.014717,0.00541667,0.0338775,0.044262,-0.0241283,0.717192,0.0400514,0.0445018,762,1576,-0.727673,-6.25719
-455,-552,-0.424377,5.90308,0.0150078,0.00708219,0.027674,0.0390013,-0.0169113,0.714284,0.0331103,0.0430837,769,1576,-0.424398,-5.90304
-448,-552,0.21051,5.28638,0.0140301,0.00778181,0.0220517,0.0331778,-0.0113659,0.715029,0.0267253,0.0403533,776,1576,0.210513,-5.28638
-441,-552,0.34967,5.901,0.0126032,0.00766305,0.0172105,0.02752,-0.00725366,0.714123,0.0211826,0.0349081,783,1576,0.349647,-5.90106
-434,-552,0.604614,6.29236,0,0,0,0,0,0,0,-1,790,1576,0.604621,-6.29238
-427,-552,0.591125,6.5376,0.00939018,0.00632194,0.00975166,0.0177277,-0.00201554,0.707378,0.0125444,0.0149474,797,1576,0.591149,-6.53761
-420,-552,0.610596,6.75769,0.00782832,0.0054559,0.00697796,0.0137202,-0.000435958,0.701206,0.00929552,0.0179088,804,1576,0.6106,-6.7577
-413,-552,0.606079,6.95166,0.00624193,0.00446957,0.00489634,0.0103316,0.000379865,0.695873,0.00676469,0.0161999,811,1576,0.606086,-6.95165
-406,-552,0.592651,7.13904,0.00475799,0.0041118,0.00275463,0.0072084,0.00166138,0.727019,0.00435866,0.0132055,818,1576,0.592669,-7.13902
-399,-552,0.596252,7.35657,0.00331825,0.00249252,0.00179596,0.00474819,0.00106258,0.672419,0.00287743,0.0137427,825,1576,0.596281,-7.35657
-392,-552,0.584167,7.552,0.00222746,0.000568121,0.000974591,0.0026777,0.000117876,0.432774,0.00174717,0.0146882,832,1576,0.584183,-7.55202
-385,-552,0.568787,7.75488,0.00192437,-0.000783616,0.000238283,0.00194518,-0.000804423,0.0871006,0.00163239,0.0130897,839,1576,0.56877,-7.75489
-378,-552,0.558716,7.94348,0.00205964,-0.00186757,-2.76709e-05,0.00205984,-0.00186777,-0.00704546,0.00226851,0.014324,846,1576,0.558713,-7.94348
-371,-552,0.539368,8.1322,0.00222941,-0.0027729,-0.000335384,0.00225179,-0.00279528,-0.0666484,0.00291956,0.0194491,853,1576,0.539395,-8.13223
-364,-552,0.570496,8.30957,0.00282437,-0.00350949,-0.000356294,0.00284435,-0.00352947,-0.0560167,0.00368701,0.0149647,860,1576,0.570493,-8.3096
-357,-552,0.592529,8.51892,0.00378101,-0.00397083,-0.000205421,0.00378645,-0.00397627,-0.026475,0.00448225,0.00981781,867,1576,0.592534,-8.51886
-350,-552,0.586426,8.73816,0.00413561,-0.00438611,-0.000818413,0.0042135,-0.00446399,-0.0948829,0.00501065,0.00919423,874,1576,0.586448,-8.73814
-343,-552,0.57196,8.90771,0.00333623,-0.00474547,-0.00169477,0.00367724,-0.00508648,-0.198563,0.0050815,0.00958269,881,1576,0.571963,-8.90772
-336,-552,0.616638,9.04358,0.00335723,-0.00542581,-0.00251128,0.00402456,-0.00609314,-0.259731,0.00588201,0.0144498,888,1576,0.616623,-9.04353
-329,-552,0.668823,9.297,0.00261293,-0.00609159,-0.00378693,0.00402981,-0.00750848,-0.358026,0.0067618,0.0293104,895,1576,0.668831,-9.29704
-322,-552,0.811768,9.59851,0.000675581,-0.00681839,-0.0058652,0.00388852,-0.0100313,-0.50115,0.00829337,0.0469312,902,1576,0.811771,-9.5985
-315,-552,1.04059,9.6864,0,0,0,0,0,0,0,-1,909,1576,1.04057,-9.68637
-308,-552,1.10944,9.84351,0,0,0,0,0,0,0,-1,916,1576,1.10942,-9.84345
-301,-552,-0.303223,9.47485,-0.0108802,-0.010569,-0.0173861,0.00666222,-0.0281114,-0.789872,0.0213117,0.0470176,923,1576,-0.303198,-9.47487
-294,-552,-0.311462,9.63269,-0.0178228,-0.013831,-0.0233427,0.00760101,-0.0392548,-0.828047,0.0290371,0.0439665,930,1576,-0.311468,-9.63268
-287,-552,-0.279236,9.91541,0,0,0,0,0,0,0,-1,937,1576,-0.279221,-9.91544
-280,-552,1.53284,9.10034,0,0,0,0,0,0,0,-1,944,1576,1.53283,-9.10031
-273,-552,1.64587,10.6685,0,0,0,0,0,0,0,-1,951,1576,1.6459,-10.6685
-266,-552,-1.32678,8.05688,0,0,0,0,0,0,0,-1,958,1576,-1.32677,-8.05683
-259,-552,-5.54321,8.31213,0,0,0,0,0,0,0,-1,965,1576,-5.54324,-8.31214
-252,-552,-6.49988,8.56104,0,0,0,0,0,0,0,-1,972,1576,-6.49986,-8.56109
-245,-552,-3.40894,1.31848,0,0,0,0,0,0,0,-1,979,1576,-3.40892,-1.31848
-238,-552,-3.21082,1.84302,0,0,0,0,0,0,0,-1,986,1576,-3.21083,-1.84301
-231,-552,-2.26306,3.03308,0,0,0,0,0,0,0,-1,993,1576,-2.26306,-3.03305
-224,-552,0,0,0,0,0,0,0,0,0,-1,1000,1576,0,0
-217,-552,0,0,0,0,0,0,0,0,0,-1,1007,1576,0,0
-210,-552,0,0,0,0,0,0,0,0,0,-1,1014,1576,0,0
-203,-552,0,0,0,0,0,0,0,0,0,-1,1021,1576,0,0
-196,-552,0,0,0,0,0,0,0,0,0,-1,1028,1576,0,0
-189,-552,0,0,0,0,0,0,0,0,0,-1,1035,1576,0,0
-182,-552,0,0,0,0,0,0,0,0,0,-1,1042,1576,0,0
-175,-552,0,0,0,0,0,0,0,0,0,-1,1049,1576,0,0
-168,-552,0,0,0,0,0,0,0,0,0,-1,1056,1576,0,0
-161,-552,0,0,0,0,0,0,0,0,0,-1,1063,1576,0,0
-154,-552,0,0,0,0,0,0,0,0,0,-1,1070,1576,0,0
-147,-552,0,0,0,0,0,0,0,0,0,-1,1077,1576,0,0
-140,-552,0,0,0,0,0,0,0,0,0,-1,1084,1576,0,0
-133,-552,0,0,0,0,0,0,0,0,0,-1,1091,1576,0,0
-126,-552,0,0,0,0,0,0,0,0,0,-1,1098,1576,0,0
-119,-552,0,0,0,0,0,0,0,0,0,-1,1105,1576,0,0
-112,-552,0,0,0,0,0,0,0,0,0,-1,1112,1576,0,0
-105,-552,0,0,0,0,0,0,0,0,0,-1,1119,1576,0,0
-98,-552,0,0,0,0,0,0,0,0,0,-1,1126,1576,0,0
-91,-552,0,0,0,0,0,0,0,0,0,-1,1133,1576,0,0
-84,-552,0,0,0,0,0,0,0,0,0,-1,1140,1576,0,0
-77,-552,0,0,0,0,0,0,0,0,0,-1,1147,1576,0,0
-70,-552,0,0,0,0,0,0,0,0,0,-1,1154,1576,0,0
-63,-552,0,0,0,0,0,0,0,0,0,-1,1161,1576,0,0
-56,-552,0,0,0,0,0,0,0,0,0,-1,1168,1576,0,0
-49,-552,0,0,0,0,0,0,0,0,0,-1,1175,1576,0,0
-42,-552,0,0,0,0,0,0,0,0,0,-1,1182,1576,0,0
-35,-552,0,0,0,0,0,0,0,0,0,-1,1189,1576,0,0
-28,-552,0,0,0,0,0,0,0,0,0,-1,1196,1576,0,0
-21,-552,0,0,0,0,0,0,0,0,0,-1,1203,1576,0,0
-14,-552,0,0,0,0,0,0,0,0,0,-1,1210,1576,0,0
-7,-552,0,0,0,0,0,0,0,0,0,-1,1217,1576,0,0
0,-552,0,0,0,0,0,0,0,0,0,-1,1224,1576,0,0
7,-552,0,0,0,0,0,0,0,0,0,-1,1231,1576,0,0
14,-552,0,0,0,0,0,0,0,0,0,-1,1238,1576,0,0
21,-552,0,0,0,0,0,0,0,0,0,-1,1245,1576,0,0
28,-552,0,0,0,0,0,0,0,0,0,-1,1252,1576,0,0
35,-552,0,0,0,0,0,0,0,0,0,-1,1259,1576,0,0
42,-552,0,0,0,0,0,0,0,0,0,-1,1266,1576,0,0
49,-552,0,0,0,0,0,0,0,0,0,-1,1273,1576,0,0
56,-552,0,0,0,0,0,0,0,0,0,-1,1280,1576,0,0
63,-552,0,0,0,0,0,0,0,0,0,-1,1287,1576,0,0
70,-552,0,0,0,0,0,0,0,0,0,-1,1294,1576,0,0
77,-552,0,0,0,0,0,0,0,0,0,-1,1301,1576,0,0
84,-552,0,0,0,0,0,0,0,0,0,-1,1308,1576,0,0
91,-552,0,0,0,0,0,0,0,0,0,-1,1315,1576,0,0
98,-552,0,0,0,0,0,0,0,0,0,-1,1322,1576,0,0
105,-552,0,0,0,0,0,0,0,0,0,-1,1329,1576,0,0
112,-552,0,0,0,0,0,0,0,0,0,-1,1336,1576,0,0
119,-552,0,0,0,0,0,0,0,0,0,-1,1343,1576,0,0
126,-552,0,0,0,0,0,0,0,0,0,-1,1350,1576,0,0
133,-552,0,0,0,0,0,0,0,0,0,-1,1357,1576,0,0
140,-552,0,0,0,0,0,0,0,0,0,-1,1364,1576,0,0
147,-552,0,0,0,0,0,0,0,0,0,-1,1371,1576,0,0
154,-552,0,0,0,0,0,0,0,0,0,-1,1378,1576,0,0
161,-552,0,0,0,0,0,0,0,0,0,-1,1385,1576,0,0
168,-552,0,0,0,0,0,0,0,0,0,-1,1392,1576,0,0
175,-552,0,0,0,0,0,0,0,0,0,-1,1399,1576,0,0
182,-552,0,0,0,0,0,0,0,0,0,-1,1406,1576,0,0
189,-552,0,0,0,0,0,0,0,0,0,-1,1413,1576,0,0
196,-552,0,0,0,0,0,0,0,0,0,-1,1420,1576,0,0
203,-552,0,0,0,0,0,0,0,0,0,-1,1427,1576,0,0
210,-552,0,0,0,0,0,0,0,0,0,-1,1434,1576,0,0
217,-552,0,0,0,0,0,0,0,0,0,-1,1441,1576,0,0
224,-552,0,0,0,0,0,0,0,0,0,-1,1448,1576,0,0
231,-552,0,0,0,0,0,0,0,0,0,-1,1455,1576,0,0
238,-552,0,0,0,0,0,0,0,0,0,-1,1462,1576,0,0
245,-552,0,0,0,0,0,0,0,0,0,-1,1469,1576,0,0
252,-552,0,0,0,0,0,0,0,0,0,-1,1476,1576,0,0
259,-552,0,0,0,0,0,0,0,0,0,-1,1483,1576,0,0
266,-552,0,0,0,0,0,0,0,0,0,-1,1490,1576,0,0
273,-552,0,0,0,0,0,0,0,0,0,-1,1497,1576,0,0
280,-552,0,0,0,0,0,0,0,0,0,-1,1504,1576,0,0
287,-552,0,0,0,0,0,0,0,0,0,-1,1511,1576,0,0
294,-552,0,0,0,0,0,0,0,0,0,-1,1518,1576,0,0
301,-552,0,0,0,0,0,0,0,0,0,-1,1525,1576,0,0
308,-552,0,0,0,0,0,0,0,0,0,-1,1532,1576,0,0
315,-552,0,0,0,0,0,0,0,0,0,-1,1539,1576,0,0
322,-552,0,0,0,0,0,0,0,0,0,-1,1546,1576,0,0
329,-552,0,0,0,0,0,0,0,0,0,-1,1553,1576,0,0
336,-552,0,0,0,0,0,0,0,0,0,-1,1560,1576,0,0
343,-552,0,0,0,0,0,0,0,0,0,-1,1567,1576,0,0
350,-552,4.97876,4.09888,0,0,0,0,0,0,0,-1,1574,1576,4.97875,-4.09883
357,-552,5.18469,4.10706,0,0,0,0,0,0,0,-1,1581,1576,5.1847,-4.10702
364,-552,5.448,4.15759,0,0,0,0,0,0,0,-1,1588,1576,5.44797,-4.15757
371,-552,7.10657,5.64783,0,0,0,0,0,0,0,-1,1595,1576,7.10651,-5.64786
378,-552,6.44446,4.91492,0,0,0,0,0,0,0,-1,1602,1576,6.44448,-4.91496
385,-552,12.8276,3.16504,0,0,0,0,0,0,0,-1,1609,1576,12.8276,-3.16503
392,-552,12.1301,4.3363,0,0,0,0,0,0,0,-1,1616,1576,12.1302,-4.33631
399,-552,11.3486,5.6012,0,0,0,0,0,0,0,-1,1623,1576,11.3486,-5.60115
406,-552,10.7863,6.42542,0,0,0,0,0,0,0,-1,1630,1576,10.7863,-6.42536
413,-552,8.39307,10.365,0,0,0,0,0,0,0,-1,1637,1576,8.3931,-10.365
420,-552,8.50476,10.1794,0,0,0,0,0,0,0,-1,1644,1576,8.50474,-10.1794
427,-552,8.5918,10.0084,0,0,0,0,0,0,0,-1,1651,1576,8.59174,-10.0084
434,-552,8.55786,9.83337,0,0,0,0,0,0,0,-1,1658,1576,8.55782,-9.83335
441,-552,8.58484,9.76648,0,0,0,0,0,0,0,-1,1665,1576,8.58478,-9.76653
448,-552,8.29272,9.64099,-0.0202491,-0.0765099,0.0338524,-0.00436467,-0.0923944,0.438727,0.0601941,0.0449873,1672,1576,8.29268,-9.64104
455,-552,7.74109,9.59131,-0.0159456,-0.068304,0.0294219,-0.00274205,-0.0815075,0.421826,0.0534478,0.0406735,1679,1576,7.74106,-9.59135
462,-552,7.54333,9.7677,-0.0126093,-0.0590062,0.0251783,-0.00157155,-0.0700439,0.413151,0.046181,0.0409987,1686,1576,7.54339,-9.76767
469,-552,7.4718,10.0138,-0.00970627,-0.0499459,0.0210531,-0.000704972,-0.0589472,0.404031,0.0390653,0.034865,1693,1576,7.47178,-10.0137
476,-552,7.36328,10.0345,-0.00756023,-0.0410781,0.0175296,-6.73775e-05,-0.0485709,0.403935,0.0323582,0.0152904,1700,1576,7.36334,-10.0345
483,-552,7.39063,9.89111,-0.00581611,-0.0326646,0.014263,0.000346487,-0.0388272,0.407842,0.0260011,0.0132796,1707,1576,7.39058,-9.89111
490,-552,7.38501,9.72266,-0.00437037,-0.025244,0.0114101,0.000656226,-0.0302706,0.414959,0.0204026,0.0141776,1714,1576,7.38505,-9.72264
497,-552,7.38538,9.55676,-0.00317427,-0.0189249,0.00882492,0.000778344,-0.0228775,0.421099,0.0155176,0.0221987,1721,1576,7.38542,-9.55676
504,-552,7.40857,9.3916,-0.00204501,-0.0136297,0.00651463,0.000879964,-0.0165547,0.42201,0.0113411,0.0234029,1728,1576,7.4086,-9.39158
511,-552,7.41101,9.23096,-0.00103858,-0.00866026,0.00452026,0.00106288,-0.0107617,0.435173,0.00755374,0.0169791,1735,1576,7.41104,-9.23098
518,-552,7.3833,9.03613,-0.000245116,-0.00504379,0.00279054,0.00103575,-0.00632466,0.430317,0.00460072,0.0142893,1742,1576,7.38327,-9.03617
525,-552,7.39038,8.84851,0.00052016,-0.00268143,0.00147435,0.00109566,-0.00325693,0.372152,0.00261419,0.0136389,1749,1576,7.39039,-8.84851
532,-552,7.39087,8.68054,0.00129624,-0.00102158,0.000385462,0.00135867,-0.001084,0.160549,0.00141324,0.0149848,1756,1576,7.39089,-8.6805
539,-552,7.38684,8.52002,0.00215707,4.32919e-05,-0.000471715,0.00225756,-5.71996e-05,-0.209896,0.00152447,0.0180363,1763,1576,7.38679,-8.52006
546,-552,7.39758,8.34363,0.00300657,0.000678009,-0.00117393,0.00349567,0.00018891,-0.394763,0.0022701,0.0221316,1770,1576,7.39755,-8.34364
553,-552,7.43823,8.12927,0.00404197,0.00151648,-0.00181572,0.00499087,0.000567581,-0.481565,0.00315512,0.0255007,1777,1576,7.43828,-8.12922
560,-552,7.51538,7.79797,0,0,0,0,0,0,0,-1,1784,1576,7.51538,-7.79797
567,-552,7.46265,7.70459,0,0,0,0,0,0,0,-1,1791,1576,7.4626,-7.70455
574,-552,7.46387,7.58167,0,0,0,0,0,0,0,-1,1798,1576,7.46384,-7.58166
581,-552,7.45422,7.30322,0,0,0,0,0,0,0,-1,1805,1576,7.45421,-7.30318
588,-552,6.99768,6.64026,0,0,0,0,0,0,0,-1,1812,1576,6.99772,-6.64024
595,-552,5.36194,6.62744,0,0,0,0,0,0,0,-1,1819,1576,5.36193,-6.62742
602,-552,7.57312,5.09302,0,0,0,0,0,0,0,-1,1826,1576,7.57311,-5.09302
609,-552,9.7843,3.55859,0,0,0,0,0,0,0,-1,1833,1576,9.78429,-3.55861
616,-552,8.70496,2.2627,0,0,0,0,0,0,0,-1,1840,1576,8.70495,-2.26274
623,-552,0,0,0,0,0,0,0,0,0,-1,1847,1576,0,0
630,-552,0,0,0,0,0,0,0,0,0,-1,1854,1576,0,0
637,-552,0,0,0,0,0,0,0,0,0,-1,1861,1576,0,0
644,-552,0,0,0,0,0,0,0,0,0,-1,1868,1576,0,0
651,-552,0,0,0,0,0,0,0,0,0,-1,1875,1576,0,0
658,-552,0,0,0,0,0,0,0,0,0,-1,1882,1576,0,0
665,-552,0,0,0,0,0,0,0,0,0,-1,1889,1576,0,0
672,-552,0,0,0,0,0,0,0,0,0,-1,1896,1576,0,0
679,-552,0,0,0,0,0,0,0,0,0,-1,1903,1576,0,0
686,-552,0,0,0,0,0,0,0,0,0,-1,1910,1576,0,0
693,-552,0,0,0,0,0,0,0,0,0,-1,1917,1576,0,0
700,-552,0,0,0,0,0,0,0,0,0,-1,1924,1576,0,0
707,-552,0,0,0,0,0,0,0,0,0,-1,1931,1576,0,0
714,-552,0,0,0,0,0,0,0,0,0,-1,1938,1576,0,0
721,-552,0,0,0,0,0,0,0,0,0,-1,1945,1576,0,0
728,-552,0,0,0,0,0,0,0,0,0,-1,1952,1576,0,0
735,-552,0,0,0,0,0,0,0,0,0,-1,1959,1576,0,0
742,-552,0,0,0,0,0,0,0,0,0,-1,1966,1576,0,0
749,-552,0,0,0,0,0,0,0,0,0,-1,1973,1576,0,0
756,-552,0,0,0,0,0,0,0,0,0,-1,1980,1576,0,0
763,-552,0,0,0,0,0,0,0,0,0,-1,1987,1576,0,0
770,-552,0,0,0,0,0,0,0,0,0,-1,1994,1576,0,0
777,-552,0,0,0,0,0,0,0,0,0,-1,2001,1576,0,0
784,-552,0,0,0,0,0,0,0,0,0,-1,2008,1576,0,0
791,-552,0,0,0,0,0,0,0,0,0,-1,2015,1576,0,0
798,-552,0,0,0,0,0,0,0,0,0,-1,2022,1576,0,0
805,-552,0,0,0,0,0,0,0,0,0,-1,2029,1576,0,0
812,-552,0,0,0,0,0,0,0,0,0,-1,2036,1576,0,0
-700,-559,0,0,0,0,0,0,0,0,0,-1,524,1583,0,0
-693,-559,0,0,0,0,0,0,0,0,0,-1,531,1583,0,0
-686,-559,0,0,0,0,0,0,0,0,0,-1,538,1583,0,0
-679,-559,0,0,0,0,0,0,0,0,0,-1,545,1583,0,0
-672,-559,0,0,0,0,0,0,0,0,0,-1,552,1583,0,0
-665,-559,0,0,0,0,0,0,0,0,0,-1,559,1583,0,0
-658,-559,0,0,0,0,0,0,0,0,0,-1,566,1583,0,0
-651,-559,0,0,0,0,0,0,0,0,0,-1,573,1583,0,0
-644,-559,0,0,0,0,0,0,0,0,0,-1,580,1583,0,0
-637,-559,0,0,0,0,0,0,0,0,0,-1,587,1583,0,0
-630,-559,0,0,0,0,0,0,0,0,0,-1,594,1583,0,0
-623,-559,0,0,0,0,0,0,0,0,0,-1,601,1583,0,0
-616,-559,0,0,0,0,0,0,0,0,0,-1,608,1583,0,0
-609,-559,0,0,0,0,0,0,0,0,0,-1,615,1583,0,0
-602,-559,0,0,0,0,0,0,0,0,0,-1,622,1583,0,0
-595,-559,0,0,0,0,0,0,0,0,0,-1,629,1583,0,0
-588,-559,0,0,0,0,0,0,0,0,0,-1,636,1583,0,0
-581,-559,0,0,0,0,0,0,0,0,0,-1,643,1583,0,0
-574,-559,0,0,0,0,0,0,0,0,0,-1,650,1583,0,0
-567,-559,0,0,0,0,0,0,0,0,0,-1,657,1583,0,0
-560,-559,0,0,0,0,0,0,0,0,0,-1,664,1583,0,0
-553,-559,0,0,0,0,0,0,0,0,0,-1,671,1583,0,0
-546,-559,0,0,0,0,0,0,0,0,0,-1,678,1583,0,0
-539,-559,0,0,0,0,0,0,0,0,0,-1,685,1583,0,0
-532,-559,0,0,0,0,0,0,0,0,0,-1,692,1583,0,0
-525,-559,0,0,0,0,0,0,0,0,0,-1,699,1583,0,0
-518,-559,0,0,0,0,0,0,0,0,0,-1,706,1583,0,0
-511,-559,0,0,0,0,0,0,0,0,0,-1,713,1583,0,0
-504,-559,0,0,0,0,0,0,0,0,0,-1,720,1583,0,0
-497,-559,0,0,0,0,0,0,0,0,0,-1,727,1583,0,0
-490,-559,3.92438,-3.86279,0,0,0,0,0,0,0,-1,734,1583,3.92436,3.86275
-483,-559,0.323792,3.39648,0,0,0,0,0,0,0,-1,741,1583,0.323798,-3.39646
-476,-559,0.027832,4.43958,0,0,0,0,0,0,0,-1,748,1583,0.0278149,-4.43954
-469,-559,3.58325,0.761475,0,0,0,0,0,0,0,-1,755,1583,3.58323,-0.761526
-462,-559,-1.18561,5.54248,0,0,0,0,0,0,0,-1,762,1583,-1.1856,-5.54247
-455,-559,-0.555054,5.50781,0,0,0,0,0,0,0,-1,769,1583,-0.555057,-5.5078
-448,-559,0.0228882,4.88342,0,0,0,0,0,0,0,-1,776,1583,0.022914,-4.88343
-441,-559,0.327026,5.58081,0,0,0,0,0,0,0,-1,783,1583,0.327005,-5.58081
-434,-559,0.592529,6.01001,0,0,0,0,0,0,0,-1,790,1583,0.592549,-6.01004
-427,-559,0.80011,6.61584,0.0124467,0.0086498,0.0122647,0.022959,-0.00186251,0.708612,0.0159631,0.0205329,797,1583,0.800127,-6.61583
-420,-559,0.781494,6.78125,0.0098988,0.0075523,0.00880506,0.0176084,-0.000157333,0.719165,0.0117917,0.0193844,804,1583,0.781513,-6.7812
-413,-559,0.799438,6.98157,0.00747383,0.00629444,0.00615197,0.0130643,0.000703967,0.737617,0.00848462,0.0123269,811,1583,0.799453,-6.98157
-406,-559,0.781677,7.16431,0.00534641,0.00575758,0.00352652,0.00908451,0.00201949,0.814514,0.005508,0.0100696,818,1583,0.781658,-7.16429
-399,-559,0.790466,7.36292,0.00336473,0.00384776,0.0023036,0.00592247,0.00129002,0.837629,0.00359628,0.0131942,825,1583,0.790473,-7.36288
-392,-559,0.759338,7.54919,0.00187388,0.00165872,0.00125379,0.00302469,0.000507907,0.742601,0.00187029,0.0161501,832,1583,0.759341,-7.54923
-385,-559,0.747314,7.75085,0.00127167,0.000145832,0.000333516,0.00136305,5.44491e-05,0.267434,0.000891108,0.0154777,839,1583,0.747342,-7.75081
-378,-559,0.755737,7.94373,0.00119849,-0.000985711,-6.05471e-05,0.00120016,-0.000987388,-0.0276922,0.00126497,0.0144063,846,1583,0.755729,-7.94367
-371,-559,0.743103,8.11621,0.00117172,-0.00190936,-0.000476002,0.00124358,-0.00198122,-0.149839,0.00187801,0.0228876,853,1583,0.743106,-8.11618
-364,-559,0.784485,8.29175,0.00167416,-0.00260678,-0.000494872,0.00173062,-0.00266324,-0.113603,0.00255577,0.0204079,860,1583,0.784474,-8.29177
-357,-559,0.802673,8.50647,0.00258467,-0.00301646,-0.000356122,0.00260722,-0.00303901,-0.063241,0.00326303,0.0119015,867,1583,0.802648,-8.50653
-350,-559,0.791016,8.72461,0.00298629,-0.00337023,-0.000814191,0.00308892,-0.00347286,-0.125391,0.00379061,0.00976624,874,1583,0.791043,-8.72455
-343,-559,0.776855,8.90454,0.00243784,-0.00364789,-0.00151226,0.00279291,-0.00400296,-0.230617,0.00394427,0.0103337,881,1583,0.77688,-8.90458
-336,-559,0.771362,9.05005,0.00260723,-0.00421524,-0.00212224,0.00321351,-0.00482152,-0.278267,0.00466988,0.0115984,888,1583,0.77134,-9.05001
-329,-559,0.849426,9.29663,0.0021052,-0.00481184,-0.00309071,0.00328498,-0.00599162,-0.364649,0.00543131,0.0155424,895,1583,0.849432,-9.29662
-322,-559,0.927063,9.53284,0.000563236,-0.0055284,-0.004704,0.0031214,-0.00808656,-0.498092,0.00667922,0.0362322,902,1583,0.927051,-9.53282
-315,-559,1.0152,9.58484,-0.00171421,-0.00656355,-0.00700024,0.00326939,-0.0115471,-0.61868,0.00898833,0.039755,909,1583,1.0152,-9.58482
-308,-559,1.10254,9.69006,-0.00462243,-0.00788969,-0.0101494,0.00402396,-0.0165361,-0.705604,0.0125817,0.0366069,916,1583,1.10255,-9.69006
-301,-559,1.24475,9.79175,-0.00831866,-0.0100442,-0.0137701,0.00461569,-0.0229785,-0.754111,0.0170669,0.0402861,923,1583,1.24475,-9.79174
-294,-559,-0.0272217,9.67859,-0.0133303,-0.0135665,-0.0183723,0.00492428,-0.0318211,-0.782184,0.0230317,0.045007,930,1583,-0.0272506,-9.6786
-287,-559,0.516846,9.81982,0,0,0,0,0,0,0,-1,937,1583,0.51683,-9.81988
-280,-559,0.831299,10.1692,0,0,0,0,0,0,0,-1,944,1583,0.831308,-10.1692
-273,-559,2.12836,10.3059,0,0,0,0,0,0,0,-1,951,1583,2.12839,-10.3059
-266,-559,-0.597046,6.68933,0,0,0,0,0,0,0,-1,958,1583,-0.597031,-6.68937
-259,-559,-7.00311,8.62756,0,0,0,0,0,0,0,-1,965,1583,-7.00312,-8.6275
-252,-559,-8.16071,8.59155,0,0,0,0,0,0,0,-1,972,1583,-8.16071,-8.5915
-245,-559,-5.53461,1.41357,0,0,0,0,0,0,0,-1,979,1583,-5.53459,-1.41351
-238,-559,-4.4657,2.41089,0,0,0,0,0,0,0,-1,986,1583,-4.46567,-2.41091
-231,-559,-3.12872,3.47144,0,0,0,0,0,0,0,-1,993,1583,-3.12872,-3.47149
-224,-559,-1.71423,4.45544,0,0,0,0,0,0,0,-1,1000,1583,-1.71422,-4.4554
-217,-559,0,0,0,0,0,0,0,0,0,-1,1007,1583,0,0
-210,-559,0,0,0,0,0,0,0,0,0,-1,1014,1583,0,0
-203,-559,0,0,0,0,0,0,0,0,0,-1,1021,1583,0,0
-196,-559,0,0,0,0,0,0,0,0,0,-1,1028,1583,0,0
-189,-559,0,0,0,0,0,0,0,0,0,-1,1035,1583,0,0
-182,-559,0,0,0,0,0,0,0,0,0,-1,1042,1583,0,0
-175,-559,0,0,0,0,0,0,0,0,0,-1,1049,1583,0,0
-168,-559,0,0,0,0,0,0,0,0,0,-1,1056,1583,0,0
-161,-559,0,0,0,0,0,0,0,0,0,-1,1063,1583,0,0
-154,-559,0,0,0,0,0,0,0,0,0,-1,1070,1583,0,0
-147,-559,0,0,0,0,0,0,0,0,0,-1,1077,1583,0,0
-140,-559,0,0,0,0,0,0,0,0,0,-1,1084,1583,0,0
-133,-559,0,0,0,0,0,0,0,0,0,-1,1091,1583,0,0
-126,-559,0,0,0,0,0,0,0,0,0,-1,1098,1583,0,0
-119,-559,0,0,0,0,0,0,0,0,0,-1,1105,1583,0,0
-112,-559,0,0,0,0,0,0,0,0,0,-1,1112,1583,0,0
-105,-559,0,0,0,0,0,0,0,0,0,-1,1119,1583,0,0
-98,-559,0,0,0,0,0,0,0,0,0,-1,1126,1583,0,0
-91,-559,0,0,0,0,0,0,0,0,0,-1,1133,1583,0,0
-84,-559,0,0,0,0,0,0,0,0,0,-1,1140,1583,0,0
-77,-559,0,0,0,0,0,0,0,0,0,-1,1147,1583,0,0
-70,-559,0,0,0,0,0,0,0,0,0,-1,1154,1583,0,0
-63,-559,0,0,0,0,0,0,0,0,0,-1,1161,1583,0,0
-56,-559,0,0,0,0,0,0,0,0,0,-1,1168,1583,0,0
-49,-559,0,0,0,0,0,0,0,0,0,-1,1175,1583,0,0
-42,-559,0,0,0,0,0,0,0,0,0,-1,1182,1583,0,0
-35,-559,0,0,0,0,0,0,0,0,0,-1,1189,1583,0,0
-28,-559,0,0,0,0,0,0,0,0,0,-1,1196,1583,0,0
-21,-559,0,0,0,0,0,0,0,0,0,-1,1203,1583,0,0
-14,-559,0,0,0,0,0,0,0,0,0,-1,1210,1583,0,0
-7,-559,0,0,0,0,0,0,0,0,0,-1,1217,1583,0,0
0,-559,0,0,0,0,0,0,0,0,0,-1,1224,1583,0,0
7,-559,0,0,0,0,0,0,0,0,0,-1,1231,1583,0,0
14,-559,0,0,0,0,0,0,0,0,0,-1,1238,1583,0,0
21,-559,0,0,0,0,0,0,0,0,0,-1,1245,1583,0,0
28,-559,0,0,0,0,0,0,0,0,0,-1,1252,1583,0,0
35,-559,0,0,0,0,0,0,0,0,0,-1,1259,1583,0,0
42,-559,0,0,0,0,0,0,0,0,0,-1,1266,1583,0,0
49,-559,0,0,0,0,0,0,0,0,0,-1,1273,1583,0,0
56,-559,0,0,0,0,0,0,0,0,0,-1,1280,1583,0,0
63,-559,0,0,0,0,0,0,0,0,0,-1,1287,1583,0,0
70,-559,0,0,0,0,0,0,0,0,0,-1,1294,1583,0,0
77,-559,0,0,0,0,0,0,0,0,0,-1,1301,1583,0,0
84,-559,0,0,0,0,0,0,0,0,0,-1,1308,1583,0,0
91,-559,0,0,0,0,0,0,0,0,0,-1,1315,1583,0,0
98,-559,0,0,0,0,0,0,0,0,0,-1,1322,1583,0,0
105,-559,0,0,0,0,0,0,0,0,0,-1,1329,1583,0,0
112,-559,0,0,0,0,0,0,0,0,0,-1,1336,1583,0,0
119,-559,0,0,0,0,0,0,0,0,0,-1,1343,1583,0,0
126,-559,0,0,0,0,0,0,0,0,0,-1,1350,1583,0,0
133,-559,0,0,0,0,0,0,0,0,0,-1,1357,1583,0,0
140,-559,0,0,0,0,0,0,0,0,0,-1,1364,1583,0,0
147,-559,0,0,0,0,0,0,0,0,0,-1,1371,1583,0,0
154,-559,0,0,0,0,0,0,0,0,0,-1,1378,1583,0,0
161,-559,0,0,0,0,0,0,0,0,0,-1,1385,1583,0,0
168,-559,0,0,0,0,0,0,0,0,0,-1,1392,1583,0,0
175,-559,0,0,0,0,0,0,0,0,0,-1,1399,1583,0,0
182,-559,0,0,0,0,0,0,0,0,0,-1,1406,1583,0,0
189,-559,0,0,0,0,0,0,0,0,0,-1,1413,1583,0,0
196,-559,0,0,0,0,0,0,0,0,0,-1,1420,1583,0,0
203,-559,0,0,0,0,0,0,0,0,0,-1,1427,1583,0,0
210,-559,0,0,0,0,0,0,0,0,0,-1,1434,1583,0,0
217,-559,0,0,0,0,0,0,0,0,0,-1,1441,1583,0,0
224,-559,0,0,0,0,0,0,0,0,0,-1,1448,1583,0,0
231,-559,0,0,0,0,0,0,0,0,0,-1,1455,1583,0,0
238,-559,0,0,0,0,0,0,0,0,0,-1,1462,1583,0,0
245,-559,0,0,0,0,0,0,0,0,0,-1,1469,1583,0,0
252,-559,0,0,0,0,0,0,0,0,0,-1,1476,1583,0,0
259,-559,0,0,0,0,0,0,0,0,0,-1,1483,1583,0,0
266,-559,0,0,0,0,0,0,0,0,0,-1,1490,1583,0,0
273,-559,0,0,0,0,0,0,0,0,0,-1,1497,1583,0,0
280,-559,0,0,0,0,0,0,0,0,0,-1,1504,1583,0,0
287,-559,0,0,0,0,0,0,0,0,0,-1,1511,1583,0,0
294,-559,0,0,0,0,0,0,0,0,0,-1,1518,1583,0,0
301,-559,0,0,0,0,0,0,0,0,0,-1,1525,1583,0,0
308,-559,0,0,0,0,0,0,0,0,0,-1,1532,1583,0,0
315,-559,0,0,0,0,0,0,0,0,0,-1,1539,1583,0,0
322,-559,0,0,0,0,0,0,0,0,0,-1,1546,1583,0,0
329,-559,0,0,0,0,0,0,0,0,0,-1,1553,1583,0,0
336,-559,5.97668,3.09827,0,0,0,0,0,0,0,-1,1560,1583,5.97667,-3.09824
343,-559,5.44824,2.88696,0,0,0,0,0,0,0,-1,1567,1583,5.44819,-2.88693
350,-559,4.69775,3.27051,0,0,0,0,0,0,0,-1,1574,1583,4.69771,-3.27048
357,-559,3.88025,3.60999,0,0,0,0,0,0,0,-1,1581,1583,3.88027,-3.60998
364,-559,5.00928,5.32605,0,0,0,0,0,0,0,-1,1588,1583,5.00928,-5.32607
371,-559,1.84436,2.52441,0,0,0,0,0,0,0,-1,1595,1583,1.84441,-2.52447
378,-559,6.34753,1.53137,0,0,0,0,0,0,0,-1,1602,1583,6.34752,-1.53139
385,-559,6.95911,1.48181,0,0,0,0,0,0,0,-1,1609,1583,6.95916,-1.48175
392,-559,11.6949,4.77734,0,0,0,0,0,0,0,-1,1616,1583,11.6949,-4.77731
399,-559,11.1104,5.56909,0,0,0,0,0,0,0,-1,1623,1583,11.1103,-5.56905
406,-559,10.3385,6.48657,0,0,0,0,0,0,0,-1,1630,1583,10.3385,-6.48661
413,-559,9.76147,6.97571,0,0,0,0,0,0,0,-1,1637,1583,9.76143,-6.97574
420,-559,7.77124,10.5851,0,0,0,0,0,0,0,-1,1644,1583,7.77128,-10.585
427,-559,7.7804,10.5182,0,0,0,0,0,0,0,-1,1651,1583,7.78036,-10.5182
434,-559,7.79602,10.3494,0,0,0,0,0,0,0,-1,1658,1583,7.79598,-10.3494
441,-559,7.51721,10.2354,0,0,0,0,0,0,0,-1,1665,1583,7.51723,-10.2353
448,-559,7.35474,10.0922,-0.0165222,-0.0557543,0.0262455,-0.00337212,-0.0689043,0.464479,0.0448545,0.0450842,1672,1583,7.35472,-10.0921
455,-559,7.37964,9.97241,-0.0130652,-0.0499925,0.0225874,-0.00235533,-0.0607024,0.442759,0.0397064,0.0407952,1679,1583,7.37967,-9.97236
462,-559,7.30969,10.1772,-0.0100707,-0.043702,0.0192572,-0.00132067,-0.0524521,0.42649,0.0345363,0.0343249,1686,1583,7.30972,-10.1772
469,-559,7.21899,10.2103,-0.00749099,-0.03723,0.016035,-0.000492167,-0.0442289,0.411546,0.0293232,0.0182152,1693,1583,7.21902,-10.2104
476,-559,7.20032,10.0597,-0.00565753,-0.0308363,0.0133129,7.58991e-05,-0.0365697,0.406661,0.0244052,0.0101447,1700,1583,7.2003,-10.0596
483,-559,7.21289,9.8894,-0.00413199,-0.024662,0.0107924,0.000497513,-0.0292915,0.405219,0.0196956,0.0120793,1707,1583,7.21292,-9.88939
490,-559,7.21106,9.73035,-0.00279887,-0.0190521,0.00855799,0.000876263,-0.0227272,0.405624,0.0154518,0.0152217,1714,1583,7.21103,-9.73038
497,-559,7.22485,9.5625,-0.00167472,-0.0141938,0.0064808,0.00107587,-0.0169444,0.401381,0.0116715,0.0187453,1721,1583,7.22488,-9.56253
504,-559,7.27112,9.38147,-0.000646154,-0.010091,0.0046466,0.00125653,-0.0119937,0.388652,0.00844588,0.0227363,1728,1583,7.27117,-9.38142
511,-559,7.25732,9.21985,0.00028583,-0.00619996,0.00302575,0.0014782,-0.00739233,0.375386,0.00548772,0.019196,1735,1583,7.25732,-9.21983
518,-559,7.23376,9.04797,0.000997347,-0.00338626,0.0016018,0.00152027,-0.00390919,0.315553,0.00323426,0.0121595,1742,1583,7.23376,-9.04803
525,-559,7.224,8.85815,0.00167272,-0.00156032,0.000484356,0.00174372,-0.00163133,0.145558,0.00194895,0.0110491,1749,1583,7.22397,-8.85811
532,-559,7.21875,8.69177,0.00237845,-0.000352221,-0.000436846,0.00244664,-0.000420404,-0.154831,0.00178778,0.0131889,1756,1583,7.21876,-8.69179
539,-559,7.23242,8.52625,0.00315888,0.00029332,-0.00115483,0.00356634,-0.00011414,-0.339196,0.00241651,0.0166005,1763,1583,7.23239,-8.52624
546,-559,7.2251,8.3385,0.00392513,0.000862295,-0.00183434,0.00478329,4.14066e-06,-0.437579,0.00318748,0.015267,1770,1583,7.22507,-8.33851
553,-559,7.33276,8.12231,0.00496851,0.00166042,-0.00250113,0.00631305,0.000315882,-0.493252,0.00410745,0.0244826,1777,1583,7.33274,-8.12232
560,-559,7.33936,8.18005,0.00635096,0.00238713,-0.00298477,0.0079519,0.000786194,-0.492318,0.0050596,0.0469584,1784,1583,7.33933,-8.18006
567,-559,7.60376,7.80334,0,0,0,0,0,0,0,-1,1791,1583,7.6038,-7.8034
574,-559,8.08765,7.4502,0,0,0,0,0,0,0,-1,1798,1583,8.08761,-7.45024
581,-559,5.97095,5.96179,0,0,0,0,0,0,0,-1,1805,1583,5.97093,-5.96181
588,-559,5.79102,5.89954,0,0,0,0,0,0,0,-1,1812,1583,5.79098,-5.89949
595,-559,5.79089,6.24231,0,0,0,0,0,0,0,-1,1819,1583,5.7909,-6.24227
602,-559,8.72339,4.28833,0,0,0,0,0,0,0,-1,1826,1583,8.72334,-4.28838
609,-559,11.6558,2.33447,0,0,0,0,0,0,0,-1,1833,1583,11.6558,-2.33449
616,-559,0,0,0,0,0,0,0,0,0,-1,1840,1583,0,0
623,-559,0,0,0,0,0,0,0,0,0,-1,1847,1583,0,0
630,-559,0,0,0,0,0,0,0,0,0,-1,1854,1583,0,0
637,-559,0,0,0,0,0,0,0,0,0,-1,1861,1583,0,0
644,-559,0,0,0,0,0,0,0,0,0,-1,1868,1583,0,0
651,-559,0,0,0,0,0,0,0,0,0,-1,1875,1583,0,0
658,-559,0,0,0,0,0,0,0,0,0,-1,1882,1583,0,0
665,-559,0,0,0,0,0,0,0,0,0,-1,1889,1583,0,0
672,-559,0,0,0,0,0,0,0,0,0,-1,1896,1583,0,0
679,-559,0,0,0,0,0,0,0,0,0,-1,1903,1583,0,0
686,-559,0,0,0,0,0,0,0,0,0,-1,1910,1583,0,0
693,-559,0,0,0,0,0,0,0,0,0,-1,1917,1583,0,0
700,-559,0,0,0,0,0,0,0,0,0,-1,1924,1583,0,0
707,-559,0,0,0,0,0,0,0,0,0,-1,1931,1583,0,0
714,-559,0,0,0,0,0,0,0,0,0,-1,1938,1583,0,0
721,-559,0,0,0,0,0,0,0,0,0,-1,1945,1583,0,0
728,-559,0,0,0,0,0,0,0,0,0,-1,1952,1583,0,0
735,-559,0,0,0,0,0,0,0,0,0,-1,1959,1583,0,0
742,-559,0,0,0,0,0,0,0,0,0,-1,1966,1583,0,0
749,-559,0,0,0,0,0,0,0,0,0,-1,1973,1583,0,0
756,-559,0,0,0,0,0,0,0,0,0,-1,1980,1583,0,0
763,-559,0,0,0,0,0,0,0,0,0,-1,1987,1583,0,0
770,-559,0,0,0,0,0,0,0,0,0,-1,1994,1583,0,0
777,-559,0,0,0,0,0,0,0,0,0,-1,2001,1583,0,0
784,-559,0,0,0,0,0,0,0,0,0,-1,2008,1583,0,0
791,-559,0,0,0,0,0,0,0,0,0,-1,2015,1583,0,0
798,-559,0,0,0,0,0,0,0,0,0,-1,2022,1583,0,0
805,-559,0,0,0,0,0,0,0,0,0,-1,2029,1583,0,0
812,-559,0,0,0,0,0,0,0,0,0,-1,2036,1583,0,0
-700,-566,0,0,0,0,0,0,0,0,0,-1,524,1590,0,0
-693,-566,0,0,0,0,0,0,0,0,0,-1,531,1590,0,0
-686,-566,0,0,0,0,0,0,0,0,0,-1,538,1590,0,0
-679,-566,0,0,0,0,0,0,0,0,0,-1,545,1590,0,0
-672,-566,0,0,0,0,0,0,0,0,0,-1,552,1590,0,0
-665,-566,0,0,0,0,0,0,0,0,0,-1,559,1590,0,0
-658,-566,0,0,0,0,0,0,0,0,0,-1,566,1590,0,0
-651,-566,0,0,0,0,0,0,0,0,0,-1,573,1590,0,0
-644,-566,0,0,0,0,0,0,0,0,0,-1,580,1590,0,0
-637,-566,0,0,0,0,0,0,0,0,0,-1,587,1590,0,0
-630,-566,0,0,0,0,0,0,0,0,0,-1,594,1590,0,0
-623,-566,0,0,0,0,0,0,0,0,0,-1,601,1590,0,0
-616,-566,0,0,0,0,0,0,0,0,0,-1,608,1590,0,0
-609,-566,0,0,0,0,0,0,0,0,0,-1,615,1590,0,0
-602,-566,0,0,0,0,0,0,0,0,0,-1,622,1590,0,0
-595,-566,0,0,0,0,0,0,0,0,0,-1,629,1590,0,0
-588,-566,0,0,0,0,0,0,0,0,0,-1,636,1590,0,0
-581,-566,0,0,0,0,0,0,0,0,0,-1,643,1590,0,0
-574,-566,0,0,0,0,0,0,0,0,0,-1,650,1590,0,0
-567,-566,0,0,0,0,0,0,0,0,0,-1,657,1590,0,0
-560,-566,0,0,0,0,0,0,0,0,0,-1,664,1590,0,0
-553,-566,0,0,0,0,0,0,0,0,0,-1,671,1590,0,0
-546,-566,0,0,0,0,0,0,0,0,0,-1,678,1590,0,0
-539,-566,0,0,0,0,0,0,0,0,0,-1,685,1590,0,0
-532,-566,0,0,0,0,0,0,0,0,0,-1,692,1590,0,0
-525,-566,0,0,0,0,0,0,0,0,0,-1,699,1590,0,0
-518,-566,0,0,0,0,0,0,0,0,0,-1,706,1590,0,0
-511,-566,0,0,0,0,0,0,0,0,0,-1,713,1590,0,0
-504,-566,0,0,0,0,0,0,0,0,0,-1,720,1590,0,0
-497,-566,0,0,0,0,0,0,0,0,0,-1,727,1590,0,0
-490,-566,0,0,0,0,0,0,0,0,0,-1,734,1590,0,0
-483,-566,2.79437,-3.02209,0,0,0,0,0,0,0,-1,741,1590,2.79438,3.02208
-476,-566,2.74774,-1.60376,0,0,0,0,0,0,0,-1,748,1590,2.74772,1.60376
-469,-566,2.61011,-0.319336,0,0,0,0,0,0,0,-1,755,1590,2.61008,0.319306
-462,-566,2.27856,1.19995,0,0,0,0,0,0,0,-1,762,1590,2.27857,-1.19999
-455,-566,2.11517,2.53662,0,0,0,0,0,0,0,-1,769,1590,2.11516,-2.53657
-448,-566,0.477905,4.90222,0,0,0,0,0,0,0,-1,776,1590,0.4779,-4.90228
-441,-566,0.300598,5.27417,0,0,0,0,0,0,0,-1,783,1590,0.300571,-5.2742
-434,-566,0.886292,6.37793,0,0,0,0,0,0,0,-1,790,1590,0.886276,-6.37793
-427,-566,0.862,6.67371,0.0163071,0.0114689,0.0151847,0.0292641,-0.00148813,0.706407,0.0200239,0.0401356,797,1590,0.861973,-6.67368
-420,-566,0.897034,6.86597,0.0124818,0.0100452,0.0108865,0.0222179,0.000309051,0.729675,0.01471,0.0297471,804,1590,0.89704,-6.86599
-413,-566,0.985474,6.98682,0.00900617,0.00836485,0.00760507,0.0162973,0.00107368,0.764329,0.0105253,0.0140137,811,1590,0.985497,-6.98679
-406,-566,0.968323,7.17346,0.00612486,0.00751456,0.00449092,0.0113641,0.00227536,0.862151,0.006943,0.00873111,818,1590,0.968334,-7.1735
-399,-566,0.975464,7.34729,0.00356347,0.00524625,0.00301073,0.00753095,0.00127877,0.921655,0.00465332,0.00987052,825,1590,0.975442,-7.34734
-392,-566,0.947998,7.52905,0.00168683,0.0027794,0.00176959,0.00408511,0.000381119,0.93511,0.00260568,0.0122045,832,1590,0.94802,-7.52905
-385,-566,0.95636,7.74512,0.000791732,0.00109235,0.000705063,0.00166295,0.000221136,0.89042,0.00104277,0.0146987,839,1590,0.956373,-7.7451
-378,-566,0.951782,7.96875,0.000509858,-0.000107466,0.000198139,0.000567981,-0.000165589,0.28534,0.000444259,0.0156733,846,1590,0.951787,-7.96878
-371,-566,0.914917,8.151,0.000288128,-0.0010767,-0.000317699,0.000358457,-0.00114703,-0.217856,0.000908067,0.0219933,853,1590,0.914923,-8.15096
-364,-566,0.960388,8.3335,0.000691353,-0.00175742,-0.000346171,0.000739349,-0.00180542,-0.137769,0.00151158,0.0218819,860,1590,0.960409,-8.33345
-357,-566,0.987549,8.52039,0.00153767,-0.00214213,-0.00024982,0.00155456,-0.00215901,-0.0674769,0.00215348,0.0178192,867,1590,0.987547,-8.5204
-350,-566,0.994202,8.74731,0.00197801,-0.00246492,-0.00059714,0.00205687,-0.00254378,-0.131299,0.00266114,0.0210529,874,1590,0.994172,-8.74726
-343,-566,1.0061,8.89807,0.00166526,-0.00269462,-0.0011645,0.00195679,-0.00298616,-0.245312,0.00287437,0.0249006,881,1590,1.00608,-8.89806
-336,-566,0.958679,9.06055,0.00195328,-0.00315372,-0.00162503,0.00242651,-0.00362695,-0.283375,0.0035178,0.0230817,888,1590,0.958701,-9.06051
-329,-566,1.01007,9.25171,0.00166018,-0.00369641,-0.00236537,0.00255515,-0.00459138,-0.361717,0.00418151,0.0132373,895,1590,1.01005,-9.25169
-322,-566,1.03827,9.45227,0.000533404,-0.00443532,-0.00360651,0.00242843,-0.00633034,-0.483795,0.00522146,0.0147058,902,1590,1.03828,-9.45224
-315,-566,1.02649,9.54065,-0.00114903,-0.00545117,-0.00541257,0.00252424,-0.00912445,-0.596258,0.00707608,0.0267295,909,1590,1.02651,-9.54071
-308,-566,1.18182,9.60083,-0.00330265,-0.00700151,-0.00785963,0.00292221,-0.0132264,-0.669847,0.00993594,0.0326866,916,1590,1.18183,-9.60085
-301,-566,1.24316,9.8053,-0.00603734,-0.00918207,-0.0106771,0.00318259,-0.018402,-0.712291,0.0134549,0.0405337,923,1590,1.24319,-9.80525
-294,-566,0.710938,9.76733,-0.00959988,-0.012599,-0.014232,0.00321136,-0.0254102,-0.73291,0.0181058,0.0451003,930,1590,0.710938,-9.76732
-287,-566,1.63257,9.46558,0,0,0,0,0,0,0,-1,937,1590,1.63256,-9.46553
-280,-566,0.525757,10.3123,0,0,0,0,0,0,0,-1,944,1590,0.525768,-10.3123
-273,-566,2.79315,9.90991,0,0,0,0,0,0,0,-1,951,1590,2.79315,-9.90994
-266,-566,0.392151,6.90295,0,0,0,0,0,0,0,-1,958,1590,0.392151,-6.90294
-259,-566,0.343628,6.47437,0,0,0,0,0,0,0,-1,965,1590,0.34363,-6.47438
-252,-566,-7.68311,1.01343,0,0,0,0,0,0,0,-1,972,1590,-7.68308,-1.01348
-245,-566,-6.65582,1.8938,0,0,0,0,0,0,0,-1,979,1590,-6.6558,-1.89384
-238,-566,-5.70203,3.03857,0,0,0,0,0,0,0,-1,986,1590,-5.70204,-3.03855
-231,-566,-4.51263,4.12744,0,0,0,0,0,0,0,-1,993,1590,-4.51261,-4.12748
-224,-566,-3.11914,5.40015,0,0,0,0,0,0,0,-1,1000,1590,-3.11915,-5.4001
-217,-566,-2.33643,6.79932,0,0,0,0,0,0,0,-1,1007,1590,-2.33642,-6.79936
-210,-566,-2.04175,7.89893,0,0,0,0,0,0,0,-1,1014,1590,-2.04177,-7.89897
-203,-566,0,0,0,0,0,0,0,0,0,-1,1021,1590,0,0
-196,-566,0,0,0,0,0,0,0,0,0,-1,1028,1590,0,0
-189,-566,0,0,0,0,0,0,0,0,0,-1,1035,1590,0,0
-182,-566,0,0,0,0,0,0,0,0,0,-1,1042,1590,0,0
-175,-566,0,0,0,0,0,0,0,0,0,-1,1049,1590,0,0
-168,-566,0,0,0,0,0,0,0,0,0,-1,1056,1590,0,0
-161,-566,0,0,0,0,0,0,0,0,0,-1,1063,1590,0,0
-154,-566,0,0,0,0,0,0,0,0,0,-1,1070,1590,0,0
-147,-566,0,0,0,0,0,0,0,0,0,-1,1077,1590,0,0
-140,-566,0,0,0,0,0,0,0,0,0,-1,1084,1590,0,0
-133,-566,0,0,0,0,0,0,0,0,0,-1,1091,1590,0,0
-126,-566,0,0,0,0,0,0,0,0,0,-1,1098,1590,0,0
-119,-566,0,0,0,0,0,0,0,0,0,-1,1105,1590,0,0
-112,-566,0,0,0,0,0,0,0,0,0,-1,1112,1590,0,0
-105,-566,0,0,0,0,0,0,0,0,0,-1,1119,1590,0,0
-98,-566,0,0,0,0,0,0,0,0,0,-1,1126,1590,0,0
-91,-566,0,0,0,0,0,0,0,0,0,-1,1133,1590,0,0
-84,-566,0,0,0,0,0,0,0,0,0,-1,1140,1590,0,0
-77,-566,0,0,0,0,0,0,0,0,0,-1,1147,1590,0,0
-70,-566,0,0,0,0,0,0,0,0,0,-1,1154,1590,0,0
-63,-566,0,0,0,0,0,0,0,0,0,-1,1161,1590,0,0
-56,-566,0,0,0,0,0,0,0,0,0,-1,1168,1590,0,0
-49,-566,0,0,0,0,0,0,0,0,0,-1,1175,1590,0,0
-42,-566,0,0,0,0,0,0,0,0,0,-1,1182,1590,0,0
-35,-566,0,0,0,0,0,0,0,0,0,-1,1189,1590,0,0
-28,-566,0,0,0,0,0,0,0,0,0,-1,1196,1590,0,0
-21,-566,0,0,0,0,0,0,0,0,0,-1,1203,1590,0,0
-14,-566,0,0,0,0,0,0,0,0,0,-1,1210,1590,0,0
-7,-566,0,0,0,0,0,0,0,0,0,-1,1217,1590,0,0
0,-566,0,0,0,0,0,0,0,0,0,-1,1224,1590,0,0
7,-566,0,0,0,0,0,0,0,0,0,-1,1231,1590,0,0
14,-566,0,0,0,0,0,0,0,0,0,-1,1238,1590,0,0
21,-566,0,0,0,0,0,0,0,0,0,-1,1245,1590,0,0
28,-566,0,0,0,0,0,0,0,0,0,-1,1252,1590,0,0
35,-566,0,0,0,0,0,0,0,0,0,-1,1259,1590,0,0
42,-566,0,0,0,0,0,0,0,0,0,-1,1266,1590,0,0
49,-566,0,0,0,0,0,0,0,0,0,-1,1273,1590,0,0
56,-566,0,0,0,0,0,0,0,0,0,-1,1280,1590,0,0
63,-566,0,0,0,0,0,0,0,0,0,-1,1287,1590,0,0
70,-566,0,0,0,0,0,0,0,0,0,-1,1294,1590,0,0
77,-566,0,0,0,0,0,0,0,0,0,-1,1301,1590,0,0
84,-566,0,0,0,0,0,0,0,0,0,-1,1308,1590,0,0
91,-566,0,0,0,0,0,0,0,0,0,-1,1315,1590,0,0
98,-566,0,0,0,0,0,0,0,0,0,-1,1322,1590,0,0
105,-566,0,0,0,0,0,0,0,0,0,-1,1329,1590,0,0
112,-566,0,0,0,0,0,0,0,0,0,-1,1336,1590,0,0
119,-566,0,0,0,0,0,0,0,0,0,-1,1343,1590,0,0
126,-566,0,0,0,0,0,0,0,0,0,-1,1350,1590,0,0
133,-566,0,0,0,0,0,0,0,0,0,-1,1357,1590,0,0
140,-566,0,0,0,0,0,0,0,0,0,-1,1364,1590,0,0
147,-566,0,0,0,0,0,0,0,0,0,-1,1371,1590,0,0
154,-566,0,0,0,0,0,0,0,0,0,-1,1378,1590,0,0
161,-566,0,0,0,0,0,0,0,0,0,-1,1385,1590,0,0
168,-566,0,0,0,0,0,0,0,0,0,-1,1392,1590,0,0
175,-566,0,0,0,0,0,0,0,0,0,-1,1399,1590,0,0
182,-566,0,0,0,0,0,0,0,0,0,-1,1406,1590,0,0
189,-566,0,0,0,0,0,0,0,0,0,-1,1413,1590,0,0
196,-566,0,0,0,0,0,0,0,0,0,-1,1420,1590,0,0
203,-566,0,0,0,0,0,0,0,0,0,-1,1427,1590,0,0
210,-566,0,0,0,0,0,0,0,0,0,-1,1434,1590,0,0
217,-566,0,0,0,0,0,0,0,0,0,-1,1441,1590,0,0
224,-566,0,0,0,0,0,0,0,0,0,-1,1448,1590,0,0
231,-566,0,0,0,0,0,0,0,0,0,-1,1455,1590,0,0
238,-566,0,0,0,0,0,0,0,0,0,-1,1462,1590,0,0
245,-566,0,0,0,0,0,0,0,0,0,-1,1469,1590,0,0
252,-566,0,0,0,0,0,0,0,0,0,-1,1476,1590,0,0
259,-566,0,0,0,0,0,0,0,0,0,-1,1483,1590,0,0
266,-566,0,0,0,0,0,0,0,0,0,-1,1490,1590,0,0
273,-566,0,0,0,0,0,0,0,0,0,-1,1497,1590,0,0
280,-566,0,0,0,0,0,0,0,0,0,-1,1504,1590,0,0
287,-566,0,0,0,0,0,0,0,0,0,-1,1511,1590,0,0
294,-566,0,0,0,0,0,0,0,0,0,-1,1518,1590,0,0
301,-566,0,0,0,0,0,0,0,0,0,-1,1525,1590,0,0
308,-566,0,0,0,0,0,0,0,0,0,-1,1532,1590,0,0
315,-566,0,0,0,0,0,0,0,0,0,-1,1539,1590,0,0
322,-566,6.07983,4.44873,0,0,0,0,0,0,0,-1,1546,1590,6.07983,-4.44873
329,-566,5.77026,3.47534,0,0,0,0,0,0,0,-1,1553,1590,5.77026,-3.47535
336,-566,5.41138,2.62915,0,0,0,0,0,0,0,-1,1560,1590,5.41138,-2.62909
343,-566,4.81873,1.79089,0,0,0,0,0,0,0,-1,1567,1590,4.81878,-1.79095
350,-566,4.41663,2.44214,0,0,0,0,0,0,0,-1,1574,1590,4.41666,-2.44214
357,-566,6.34058,5.18579,0,0,0,0,0,0,0,-1,1581,1590,6.34059,-5.1858
364,-566,6.06262,4.20251,0,0,0,0,0,0,0,-1,1588,1590,6.06259,-4.20246
371,-566,5.78455,3.21912,0,0,0,0,0,0,0,-1,1595,1590,5.7846,-3.21912
378,-566,5.7439,0.695557,0,0,0,0,0,0,0,-1,1602,1590,5.74392,-0.695531
385,-566,5.67615,-0.573975,0,0,0,0,0,0,0,-1,1609,1590,5.67612,0.573956
392,-566,5.78638,1.82434,0,0,0,0,0,0,0,-1,1616,1590,5.78637,-1.82439
399,-566,5.36621,1.7373,0,0,0,0,0,0,0,-1,1623,1590,5.36627,-1.7373
406,-566,4.30359,5.26868,0,0,0,0,0,0,0,-1,1630,1590,4.30364,-5.26867
413,-566,4.27124,5.79492,0,0,0,0,0,0,0,-1,1637,1590,4.27123,-5.7949
420,-566,7.19812,8.25146,0,0,0,0,0,0,0,-1,1644,1590,7.19817,-8.25149
427,-566,6.67944,9.07837,0,0,0,0,0,0,0,-1,1651,1590,6.67939,-9.07837
434,-566,7.18164,10.3995,0,0,0,0,0,0,0,-1,1658,1590,7.18166,-10.3996
441,-566,7.24377,10.4403,-0.0162018,-0.0433957,0.0234278,-0.00271111,-0.0568864,0.522465,0.0370536,0.0446484,1665,1590,7.24376,-10.4403
448,-566,7.09863,10.385,-0.0130653,-0.0397175,0.0200679,-0.00230186,-0.0504809,0.492303,0.0329135,0.0342918,1672,1590,7.09861,-10.385
455,-566,7.02258,10.4327,-0.0103601,-0.0358221,0.0170653,-0.00180016,-0.0443821,0.464925,0.0290066,0.0240367,1679,1590,7.02264,-10.4327
462,-566,7.03882,10.3593,-0.00794372,-0.0315919,0.0143543,-0.00117062,-0.038365,0.440876,0.0251955,0.0145916,1686,1590,7.03882,-10.3593
469,-566,7.0354,10.212,-0.00579316,-0.0269755,0.0117612,-0.00055719,-0.0322115,0.418847,0.021291,0.0123206,1693,1590,7.03542,-10.2121
476,-566,7.03857,10.0446,-0.00431395,-0.0224129,0.00963203,-0.000147182,-0.0265796,0.408286,0.0176709,0.0102511,1700,1590,7.03859,-10.0446
483,-566,7.03516,9.88696,-0.00305889,-0.0179496,0.00766379,0.000180652,-0.0211892,0.399927,0.0141867,0.0101993,1707,1590,7.0351,-9.88692
490,-566,7.0321,9.72302,-0.00188714,-0.0137447,0.00588445,0.000537352,-0.0161692,0.390822,0.010963,0.0103651,1714,1590,7.03214,-9.723
497,-566,7.07275,9.54858,-0.00086226,-0.0100412,0.00419224,0.000764234,-0.0116677,0.370099,0.00804529,0.0141116,1721,1590,7.07274,-9.54855
504,-566,7.10315,9.40051,6.16151e-05,-0.0069427,0.00276291,0.00102026,-0.00790135,0.333973,0.0056385,0.019418,1728,1590,7.10317,-9.4005
511,-566,7.07581,9.21851,0.000945292,-0.00403838,0.00148893,0.00135624,-0.00444932,0.269298,0.00350683,0.0185909,1735,1590,7.07586,-9.21851
518,-566,7.06714,9.04419,0.00165383,-0.00199947,0.000388326,0.00169465,-0.00204029,0.104735,0.00215944,0.0115996,1742,1590,7.0672,-9.04414
525,-566,7.05994,8.86365,0.00236143,-0.000713512,-0.000481747,0.00243514,-0.00078722,-0.151824,0.00193983,0.0112141,1749,1590,7.05993,-8.86364
532,-566,7.0542,8.69421,0.00314414,6.70631e-05,-0.00117952,0.00354425,-0.000333048,-0.327035,0.00248131,0.0128,1756,1590,7.05415,-8.69422
539,-566,7.05701,8.51013,0.00400911,0.000300632,-0.00168844,0.00466267,-0.000352924,-0.369316,0.00323252,0.0157813,1763,1590,7.05698,-8.51018
546,-566,7.09216,8.27869,0.00486648,0.000788766,-0.00227123,0.00587974,-0.000224495,-0.41963,0.00399676,0.0184072,1770,1590,7.09212,-8.2787
553,-566,7.14526,8.21069,0.00608683,0.00155318,-0.00291702,0.00751426,0.000125757,-0.455086,0.00496812,0.0353199,1777,1590,7.14528,-8.21066
560,-566,7.27222,8.19189,0.00765503,0.00241823,-0.00352431,0.00942716,0.000646102,-0.46591,0.00608086,0.0492945,1784,1590,7.27218,-8.19184
567,-566,7.59644,8.10962,0,0,0,0,0,0,0,-1,1791,1590,7.59647,-8.10966
574,-566,7.99548,3.14514,0,0,0,0,0,0,0,-1,1798,1590,7.99543,-3.14511
581,-566,2.54102,5.1311,0,0,0,0,0,0,0,-1,1805,1590,2.54099,-5.13111
588,-566,-1.91321,8.39197,0,0,0,0,0,0,0,-1,1812,1590,-1.91316,-8.39199
595,-566,9.0271,4.66467,0,0,0,0,0,0,0,-1,1819,1590,9.02705,-4.66468
602,-566,9.953,3.54895,0,0,0,0,0,0,0,-1,1826,1590,9.953,-3.54898
609,-566,0,0,0,0,0,0,0,0,0,-1,1833,1590,0,0
616,-566,0,0,0,0,0,0,0,0,0,-1,1840,1590,0,0
623,-566,0,0,0,0,0,0,0,0,0,-1,1847,1590,0,0
630,-566,0,0,0,0,0,0,0,0,0,-1,1854,1590,0,0
637,-566,0,0,0,0,0,0,0,0,0,-1,1861,1590,0,0
644,-566,0,0,0,0,0,0,0,0,0,-1,1868,1590,0,0
651,-566,0,0,0,0,0,0,0,0,0,-1,1875,1590,0,0
658,-566,0,0,0,0,0,0,0,0,0,-1,1882,1590,0,0
665,-566,0,0,0,0,0,0,0,0,0,-1,1889,1590,0,0
672,-566,0,0,0,0,0,0,0,0,0,-1,1896,1590,0,0
679,-566,0,0,0,0,0,0,0,0,0,-1,1903,1590,0,0
686,-566,0,0,0,0,0,0,0,0,0,-1,1910,1590,0,0
693,-566,0,0,0,0,0,0,0,0,0,-1,1917,1590,0,0
700,-566,0,0,0,0,0,0,0,0,0,-1,1924,1590,0,0
707,-566,0,0,0,0,0,0,0,0,0,-1,1931,1590,0,0
714,-566,0,0,0,0,0,0,0,0,0,-1,1938,1590,0,0
721,-566,0,0,0,0,0,0,0,0,0,-1,1945,1590,0,0
728,-566,0,0,0,0,0,0,0,0,0,-1,1952,1590,0,0
735,-566,0,0,0,0,0,0,0,0,0,-1,1959,1590,0,0
742,-566,0,0,0,0,0,0,0,0,0,-1,1966,1590,0,0
749,-566,0,0,0,0,0,0,0,0,0,-1,1973,1590,0,0
756,-566,0,0,0,0,0,0,0,0,0,-1,1980,1590,0,0
763,-566,0,0,0,0,0,0,0,0,0,-1,1987,1590,0,0
770,-566,0,0,0,0,0,0,0,0,0,-1,1994,1590,0,0
777,-566,0,0,0,0,0,0,0,0,0,-1,2001,1590,0,0
784,-566,0,0,0,0,0,0,0,0,0,-1,2008,1590,0,0
791,-566,0,0,0,0,0,0,0,0,0,-1,2015,1590,0,0
798,-566,0,0,0,0,0,0,0,0,0,-1,2022,1590,0,0
805,-566,0,0,0,0,0,0,0,0,0,-1,2029,1590,0,0
812,-566,0,0,0,0,0,0,0,0,0,-1,2036,1590,0,0
-700,-573,0,0,0,0,0,0,0,0,0,-1,524,1597,0,0
-693,-573,0,0,0,0,0,0,0,0,0,-1,531,1597,0,0
-686,-573,0,0,0,0,0,0,0,0,0,-1,538,1597,0,0
-679,-573,0,0,0,0,0,0,0,0,0,-1,545,1597,0,0
-672,-573,0,0,0,0,0,0,0,0,0,-1,552,1597,0,0
-665,-573,0,0,0,0,0,0,0,0,0,-1,559,1597,0,0
-658,-573,0,0,0,0,0,0,0,0,0,-1,566,1597,0,0
-651,-573,0,0,0,0,0,0,0,0,0,-1,573,1597,0,0
-644,-573,0,0,0,0,0,0,0,0,0,-1,580,1597,0,0
-637,-573,0,0,0,0,0,0,0,0,0,-1,587,1597,0,0
-630,-573,0,0,0,0,0,0,0,0,0,-1,594,1597,0,0
-623,-573,0,0,0,0,0,0,0,0,0,-1,601,1597,0,0
-616,-573,0,0,0,0,0,0,0,0,0,-1,608,1597,0,0
-609,-573,0,0,0,0,0,0,0,0,0,-1,615,1597,0,0
-602,-573,0,0,0,0,0,0,0,0,0,-1,622,1597,0,0
-595,-573,0,0,0,0,0,0,0,0,0,-1,629,1597,0,0
-588,-573,0,0,0,0,0,0,0,0,0,-1,636,1597,0,0
-581,-573,0,0,0,0,0,0,0,0,0,-1,643,1597,0,0
-574,-573,0,0,0,0,0,0,0,0,0,-1,650,1597,0,0
-567,-573,0,0,0,0,0,0,0,0,0,-1,657,1597,0,0
-560,-573,0,0,0,0,0,0,0,0,0,-1,664,1597,0,0
-553,-573,0,0,0,0,0,0,0,0,0,-1,671,1597,0,0
-546,-573,0,0,0,0,0,0,0,0,0,-1,678,1597,0,0
-539,-573,0,0,0,0,0,0,0,0,0,-1,685,1597,0,0
-532,-573,0,0,0,0,0,0,0,0,0,-1,692,1597,0,0
-525,-573,0,0,0,0,0,0,0,0,0,-1,699,1597,0,0
-518,-573,0,0,0,0,0,0,0,0,0,-1,706,1597,0,0
-511,-573,0,0,0,0,0,0,0,0,0,-1,713,1597,0,0
-504,-573,0,0,0,0,0,0,0,0,0,-1,720,1597,0,0
-497,-573,0,0,0,0,0,0,0,0,0,-1,727,1597,0,0
-490,-573,0,0,0,0,0,0,0,0,0,-1,734,1597,0,0
-483,-573,0,0,0,0,0,0,0,0,0,-1,741,1597,0,0
-476,-573,1.69208,-2.76819,0,0,0,0,0,0,0,-1,748,1597,1.69206,2.76818
-469,-573,1.12164,-1.50391,0,0,0,0,0,0,0,-1,755,1597,1.12165,1.50388
-462,-573,1.04968,-0.0865479,0,0,0,0,0,0,0,-1,762,1597,1.04967,0.0865191
-455,-573,0.97113,1.25684,0,0,0,0,0,0,0,-1,769,1597,0.97112,-1.25681
-448,-573,0.990662,2.60376,0,0,0,0,0,0,0,-1,776,1597,0.990687,-2.60378
-441,-573,0.861511,5.24243,0,0,0,0,0,0,0,-1,783,1597,0.861521,-5.24247
-434,-573,0.227051,5.83997,0,0,0,0,0,0,0,-1,790,1597,0.227061,-5.83992
-427,-573,0.113647,6.32385,0.0208267,0.0147786,0.0184387,0.0364877,-0.000882382,0.70412,0.0246245,0.0465446,797,1597,0.11367,-6.32379
-420,-573,1.13409,6.53052,0.0154925,0.0127475,0.0130879,0.0272796,0.000960375,0.733157,0.0178749,0.0438995,804,1597,1.1341,-6.53052
-413,-573,1.29535,6.91516,0.0108938,0.0103393,0.00911205,0.0197328,0.00150029,0.77019,0.0126847,0.0322893,811,1597,1.29538,-6.9151
-406,-573,1.17773,7.14661,0.00711968,0.00904209,0.0054423,0.0136074,0.00255435,0.872806,0.00835141,0.016612,818,1597,1.17773,-7.14659
-399,-573,1.15631,7.37109,0.00388833,0.0063865,0.00365126,0.00899642,0.0012784,0.950207,0.00562016,0.0108735,825,1597,1.15631,-7.37114
-392,-573,1.15942,7.55957,0.0015847,0.00368499,0.00219538,0.00506846,0.000201225,1.00848,0.00331393,0.0107412,832,1597,1.15941,-7.55953
-385,-573,1.15723,7.76599,0.000371155,0.00187795,0.000988189,0.00236718,-0.000118077,1.11109,0.00161891,0.0133256,839,1597,1.15721,-7.76595
-378,-573,1.14667,7.97229,-0.000136962,0.000653741,0.000367189,0.000797955,-0.000281176,1.19655,0.000646411,0.0151726,846,1597,1.14666,-7.97226
-371,-573,1.14294,8.17358,-0.000559167,-0.000324789,-0.000238055,-0.000176641,-0.000707314,-1.01412,0.000425078,0.0156929,853,1597,1.14296,-8.17355
-364,-573,1.15179,8.33875,-0.00026386,-0.000960941,-0.000274401,-0.000168806,-0.001056,-0.33347,0.00065502,0.0187526,860,1597,1.15179,-8.33871
-357,-573,1.14844,8.52881,0.000502083,-0.00131388,-0.000217902,0.000527864,-0.00133966,-0.117765,0.00111166,0.0218844,867,1597,1.14843,-8.52876
-350,-573,1.17554,8.74011,0.00097461,-0.00162186,-0.000462597,0.00105457,-0.00170182,-0.17115,0.00160596,0.017315,874,1597,1.17556,-8.74015
-343,-573,1.19775,8.91846,0.00088133,-0.00183575,-0.000905817,0.00115562,-0.00211004,-0.294033,0.00191208,0.0210419,881,1597,1.19774,-8.91846
-336,-573,1.1698,9.11377,0.00126201,-0.00221722,-0.00123806,0.00165759,-0.0026128,-0.309264,0.00248599,0.0171351,888,1597,1.16982,-9.11373
-329,-573,1.19476,9.26233,0.00115566,-0.00271852,-0.00176972,0.00184236,-0.00340521,-0.370139,0.00307415,0.0170433,895,1597,1.19477,-9.26234
-322,-573,1.19427,9.4635,0.000393444,-0.00347833,-0.0026936,0.00177466,-0.00485955,-0.473815,0.00396589,0.0128685,902,1597,1.19428,-9.46356
-315,-573,1.27136,9.65063,-0.000752676,-0.00450923,-0.00409789,0.00187689,-0.00713879,-0.570509,0.00549278,0.0184634,909,1597,1.27139,-9.65069
-308,-573,1.31665,9.67212,-0.00221816,-0.0061325,-0.00596988,0.00210718,-0.0104578,-0.626998,0.00777012,0.0264633,916,1597,1.31662,-9.67214
-301,-573,1.33667,9.82959,-0.00414548,-0.00815896,-0.00811784,0.00220997,-0.0145144,-0.664227,0.0104908,0.0295438,923,1597,1.33665,-9.82963
-294,-573,1.32483,10.0059,-0.00663414,-0.0113299,-0.0108491,0.00211824,-0.0200823,-0.678836,0.0141472,0.0354886,930,1597,1.32486,-10.0058
-287,-573,1.67993,9.74756,-0.00972553,-0.0162407,-0.0136069,0.00100832,-0.0269746,-0.667906,0.0183284,0.0447711,937,1597,1.67992,-9.74755
-280,-573,1.6745,10.0787,0,0,0,0,0,0,0,-1,944,1597,1.67452,-10.0787
-273,-573,-0.0268555,7.75781,0,0,0,0,0,0,0,-1,951,1597,-0.02685,-7.75777
-266,-573,1.31116,7.1814,0,0,0,0,0,0,0,-1,958,1597,1.31118,-7.18142
-259,-573,1.2514,6.70959,0,0,0,0,0,0,0,-1,965,1597,1.25137,-6.70965
-252,-573,2.07874,5.27161,0,0,0,0,0,0,0,-1,972,1597,2.07875,-5.27157
-245,-573,-7.6889,2.38464,0,0,0,0,0,0,0,-1,979,1597,-7.68892,-2.3846
-238,-573,-7.02698,3.49939,0,0,0,0,0,0,0,-1,986,1597,-7.02695,-3.49936
-231,-573,-5.94739,4.67358,0,0,0,0,0,0,0,-1,993,1597,-5.94739,-4.67362
-224,-573,-4.5816,5.62634,0,0,0,0,0,0,0,-1,1000,1597,-4.58162,-5.62629
-217,-573,-3.57495,6.78931,0,0,0,0,0,0,0,-1,1007,1597,-3.57495,-6.78931
-210,-573,-2.81018,7.94775,0,0,0,0,0,0,0,-1,1014,1597,-2.81015,-7.94777
-203,-573,-1.79614,9.03638,0,0,0,0,0,0,0,-1,1021,1597,-1.79612,-9.03643
-196,-573,-4.87726,6.96936,0,0,0,0,0,0,0,-1,1028,1597,-4.87723,-6.96935
-189,-573,-6.12915,6.66882,0,0,0,0,0,0,0,-1,1035,1597,-6.12913,-6.66884
-182,-573,0,0,0,0,0,0,0,0,0,-1,1042,1597,0,0
-175,-573,0,0,0,0,0,0,0,0,0,-1,1049,1597,0,0
-168,-573,0,0,0,0,0,0,0,0,0,-1,1056,1597,0,0
-161,-573,0,0,0,0,0,0,0,0,0,-1,1063,1597,0,0
-154,-573,0,0,0,0,0,0,0,0,0,-1,1070,1597,0,0
-147,-573,0,0,0,0,0,0,0,0,0,-1,1077,1597,0,0
-140,-573,0,0,0,0,0,0,0,0,0,-1,1084,1597,0,0
-133,-573,0,0,0,0,0,0,0,0,0,-1,1091,1597,0,0
-126,-573,0,0,0,0,0,0,0,0,0,-1,1098,1597,0,0
-119,-573,0,0,0,0,0,0,0,0,0,-1,1105,1597,0,0
-112,-573,0,0,0,0,0,0,0,0,0,-1,1112,1597,0,0
-105,-573,0,0,0,0,0,0,0,0,0,-1,1119,1597,0,0
-98,-573,0,0,0,0,0,0,0,0,0,-1,1126,1597,0,0
-91,-573,0,0,0,0,0,0,0,0,0,-1,1133,1597,0,0
-84,-573,0,0,0,0,0,0,0,0,0,-1,1140,1597,0,0
-77,-573,0,0,0,0,0,0,0,0,0,-1,1147,1597,0,0
-70,-573,0,0,0,0,0,0,0,0,0,-1,1154,1597,0,0
-63,-573,0,0,0,0,0,0,0,0,0,-1,1161,1597,0,0
-56,-573,0,0,0,0,0,0,0,0,0,-1,1168,1597,0,0
-49,-573,0,0,0,0,0,0,0,0,0,-1,1175,1597,0,0
-42,-573,0,0,0,0,0,0,0,0,0,-1,1182,1597,0,0
-35,-573,0,0,0,0,0,0,0,0,0,-1,1189,1597,0,0
-28,-573,0,0,0,0,0,0,0,0,0,-1,1196,1597,0,0
-21,-573,0,0,0,0,0,0,0,0,0,-1,1203,1597,0,0
-14,-573,0,0,0,0,0,0,0,0,0,-1,1210,1597,0,0
-7,-573,0,0,0,0,0,0,0,0,0,-1,1217,1597,0,0
0,-573,0,0,0,0,0,0,0,0,0,-1,1224,1597,0,0
7,-573,0,0,0,0,0,0,0,0,0,-1,1231,1597,0,0
14,-573,0,0,0,0,0,0,0,0,0,-1,1238,1597,0,0
21,-573,0,0,0,0,0,0,0,0,0,-1,1245,1597,0,0
28,-573,0,0,0,0,0,0,0,0,0,-1,1252,1597,0,0
35,-573,0,0,0,0,0,0,0,0,0,-1,1259,1597,0,0
42,-573,0,0,0,0,0,0,0,0,0,-1,1266,1597,0,0
49,-573,0,0,0,0,0,0,0,0,0,-1,1273,1597,0,0
56,-573,0,0,0,0,0,0,0,0,0,-1,1280,1597,0,0
63,-573,0,0,0,0,0,0,0,0,0,-1,1287,1597,0,0
70,-573,0,0,0,0,0,0,0,0,0,-1,1294,1597,0,0
77,-573,0,0,0,0,0,0,0,0,0,-1,1301,1597,0,0
84,-573,0,0,0,0,0,0,0,0,0,-1,1308,1597,0,0
91,-573,0,0,0,0,0,0,0,0,0,-1,1315,1597,0,0
98,-573,0,0,0,0,0,0,0,0,0,-1,1322,1597,0,0
105,-573,0,0,0,0,0,0,0,0,0,-1,1329,1597,0,0
112,-573,0,0,0,0,0,0,0,0,0,-1,1336,1597,0,0
119,-573,0,0,0,0,0,0,0,0,0,-1,1343,1597,0,0
126,-573,0,0,0,0,0,0,0,0,0,-1,1350,1597,0,0
133,-573,0,0,0,0,0,0,0,0,0,-1,1357,1597,0,0
140,-573,0,0,0,0,0,0,0,0,0,-1,1364,1597,0,0
147,-573,0,0,0,0,0,0,0,0,0,-1,1371,1597,0,0
154,-573,0,0,0,0,0,0,0,0,0,-1,1378,1597,0,0
161,-573,0,0,0,0,0,0,0,0,0,-1,1385,1597,0,0
168,-573,0,0,0,0,0,0,0,0,0,-1,1392,1597,0,0
175,-573,0,0,0,0,0,0,0,0,0,-1,1399,1597,0,0
182,-573,0,0,0,0,0,0,0,0,0,-1,1406,1597,0,0
189,-573,0,0,0,0,0,0,0,0,0,-1,1413,1597,0,0
196,-573,0,0,0,0,0,0,0,0,0,-1,1420,1597,0,0
203,-573,0,0,0,0,0,0,0,0,0,-1,1427,1597,0,0
210,-573,0,0,0,0,0,0,0,0,0,-1,1434,1597,0,0
217,-573,0,0,0,0,0,0,0,0,0,-1,1441,1597,0,0
224,-573,0,0,0,0,0,0,0,0,0,-1,1448,1597,0,0
231,-573,0,0,0,0,0,0,0,0,0,-1,1455,1597,0,0
238,-573,0,0,0,0,0,0,0,0,0,-1,1462,1597,0,0
245,-573,0,0,0,0,0,0,0,0,0,-1,1469,1597,0,0
252,-573,0,0,0,0,0,0,0,0,0,-1,1476,1597,0,0
259,-573,0,0,0,0,0,0,0,0,0,-1,1483,1597,0,0
266,-573,0,0,0,0,0,0,0,0,0,-1,1490,1597,0,0
273,-573,0,0,0,0,0,0,0,0,0,-1,1497,1597,0,0
280,-573,0,0,0,0,0,0,0,0,0,-1,1504,1597,0,0
287,-573,0,0,0,0,0,0,0,0,0,-1,1511,1597,0,0
294,-573,0,0,0,0,0,0,0,0,0,-1,1518,1597,0,0
301,-573,0,0,0,0,0,0,0,0,0,-1,1525,1597,0,0
308,-573,9.99329,6.14063,0,0,0,0,0,0,0,-1,1532,1597,9.99331,-6.14065
315,-573,10.5015,6.63318,0,0,0,0,0,0,0,-1,1539,1597,10.5014,-6.63316
322,-573,10.3269,7.77563,0,0,0,0,0,0,0,-1,1546,1597,10.327,-7.77565
329,-573,4.99573,3.80273,0,0,0,0,0,0,0,-1,1553,1597,4.9957,-3.80273
336,-573,4.85693,2.53455,0,0,0,0,0,0,0,-1,1560,1597,4.8569,-2.53459
343,-573,4.11877,0.735596,0,0,0,0,0,0,0,-1,1567,1597,4.11878,-0.735585
350,-573,2.53748,1.56433,0,0,0,0,0,0,0,-1,1574,1597,2.53753,-1.5643
357,-573,7.40247,4.03613,0,0,0,0,0,0,0,-1,1581,1597,7.40244,-4.03614
364,-573,7.14551,3.02087,0,0,0,0,0,0,0,-1,1588,1597,7.14556,-3.02084
371,-573,6.88867,2.00549,0,0,0,0,0,0,0,-1,1595,1597,6.88868,-2.00553
378,-573,8.62012,6.09106,0,0,0,0,0,0,0,-1,1602,1597,8.62012,-6.09103
385,-573,6.54346,-0.951904,0,0,0,0,0,0,0,-1,1609,1597,6.54349,0.951901
392,-573,6.41833,-2.18225,0,0,0,0,0,0,0,-1,1616,1597,6.41831,2.18228
399,-573,4.26282,4.73657,0,0,0,0,0,0,0,-1,1623,1597,4.26285,-4.73652
406,-573,6.82715,10.823,0,0,0,0,0,0,0,-1,1630,1597,6.82719,-10.823
413,-573,8.0387,10.932,0,0,0,0,0,0,0,-1,1637,1597,8.03872,-10.932
420,-573,7.38403,11.4003,0,0,0,0,0,0,0,-1,1644,1597,7.38407,-11.4002
427,-573,7.04614,10.3035,0,0,0,0,0,0,0,-1,1651,1597,7.04608,-10.3034
434,-573,6.94763,10.5328,-0.0153523,-0.0313275,0.0204558,-0.00137993,-0.0452999,0.599262,0.0297506,0.0397058,1658,1597,6.94762,-10.5328
441,-573,6.94739,10.7183,-0.0126865,-0.0295466,0.0175668,-0.00163168,-0.0406014,0.561684,0.0265404,0.0269946,1665,1597,6.94736,-10.7183
448,-573,6.87073,10.6691,-0.0103557,-0.0270525,0.0148705,-0.00165041,-0.0357578,0.529619,0.0233079,0.0170472,1672,1597,6.87069,-10.6691
455,-573,6.8645,10.511,-0.00829616,-0.0244344,0.0124248,-0.00155019,-0.0311804,0.497409,0.0202899,0.0145019,1679,1597,6.86446,-10.511
462,-573,6.86658,10.351,-0.00636949,-0.0215191,0.010208,-0.00123286,-0.0266558,0.466202,0.0173741,0.0177401,1686,1597,6.86661,-10.3509
469,-573,6.89136,10.1987,-0.00461263,-0.0182154,0.00811001,-0.000829534,-0.0219985,0.436467,0.0143971,0.0146088,1693,1597,6.89131,-10.1988
476,-573,6.91357,10.0349,-0.00343158,-0.0150057,0.00645539,-0.000549026,-0.0178882,0.419968,0.0117468,0.0132587,1700,1597,6.91353,-10.0349
483,-573,6.90393,9.87903,-0.00239722,-0.011887,0.00495136,-0.00028427,-0.0139999,0.403345,0.00923998,0.0113109,1707,1597,6.90396,-9.87908
490,-573,6.88977,9.72156,-0.00135302,-0.00885075,0.00357196,7.62306e-05,-0.01028,0.380619,0.00687888,0.00978365,1714,1597,6.88981,-9.7216
497,-573,6.90466,9.55457,-0.000393077,-0.00615914,0.00223279,0.000370424,-0.00692264,0.329486,0.00474339,0.0148419,1721,1597,6.90462,-9.55462
504,-573,6.90332,9.38318,0.000466224,-0.0040231,0.00119442,0.000764228,-0.00432111,0.244504,0.00316637,0.0174716,1728,1597,6.90336,-9.38319
511,-573,6.90747,9.20239,0.00134857,-0.00213545,0.000269781,0.00136934,-0.00215622,0.0768234,0.00205231,0.0180905,1735,1597,6.90741,-9.20243
518,-573,6.90601,9.03613,0.00212776,-0.000962145,-0.000504828,0.00220815,-0.00104253,-0.157911,0.00191658,0.0139728,1742,1597,6.90604,-9.03609
525,-573,6.90308,8.86853,0.00296466,-0.000320508,-0.00113914,0.00332101,-0.000676851,-0.303176,0.00247072,0.016914,1749,1597,6.90305,-8.86851
532,-573,6.89307,8.69617,0.00393489,8.24899e-05,-0.00169414,0.00457391,-0.000556534,-0.360694,0.00325071,0.0152826,1756,1597,6.89312,-8.69614
539,-573,6.85718,8.53308,0.00501887,5.71364e-05,-0.00213624,0.00581188,-0.000735869,-0.355448,0.00414172,0.0185903,1763,1597,6.85713,-8.53312
546,-573,6.91785,8.33862,0.00614071,0.000476244,-0.00269762,0.00721983,-0.000602876,-0.38053,0.00502624,0.0296924,1770,1597,6.91783,-8.33863
553,-573,6.81897,8.29321,0.00756899,0.00125027,-0.0034091,0.00905758,-0.000238327,-0.4117,0.00611938,0.0494324,1777,1597,6.81895,-8.29323
560,-573,6.78223,8.19519,0,0,0,0,0,0,0,-1,1784,1597,6.78227,-8.19522
567,-573,4.99597,2.77759,0,0,0,0,0,0,0,-1,1791,1597,4.99596,-2.7776
574,-573,0.83374,5.7041,0,0,0,0,0,0,0,-1,1798,1597,0.833718,-5.70405
581,-573,-0.224854,7.41602,0,0,0,0,0,0,0,-1,1805,1597,-0.224904,-7.41596
588,-573,-0.134033,7.67065,0,0,0,0,0,0,0,-1,1812,1597,-0.134037,-7.67063
595,-573,-0.0825195,8.35083,0,0,0,0,0,0,0,-1,1819,1597,-0.0824684,-8.35088
602,-573,0,0,0,0,0,0,0,0,0,-1,1826,1597,0,0
609,-573,0,0,0,0,0,0,0,0,0,-1,1833,1597,0,0
616,-573,0,0,0,0,0,0,0,0,0,-1,1840,1597,0,0
623,-573,0,0,0,0,0,0,0,0,0,-1,1847,1597,0,0
630,-573,0,0,0,0,0,0,0,0,0,-1,1854,1597,0,0
637,-573,0,0,0,0,0,0,0,0,0,-1,1861,1597,0,0
644,-573,0,0,0,0,0,0,0,0,0,-1,1868,1597,0,0
651,-573,0,0,0,0,0,0,0,0,0,-1,1875,1597,0,0
658,-573,0,0,0,0,0,0,0,0,0,-1,1882,1597,0,0
665,-573,0,0,0,0,0,0,0,0,0,-1,1889,1597,0,0
672,-573,0,0,0,0,0,0,0,0,0,-1,1896,1597,0,0
679,-573,0,0,0,0,0,0,0,0,0,-1,1903,1597,0,0
686,-573,0,0,0,0,0,0,0,0,0,-1,1910,1597,0,0
693,-573,0,0,0,0,0,0,0,0,0,-1,1917,1597,0,0
700,-573,0,0,0,0,0,0,0,0,0,-1,1924,1597,0,0
707,-573,0,0,0,0,0,0,0,0,0,-1,1931,1597,0,0
714,-573,0,0,0,0,0,0,0,0,0,-1,1938,1597,0,0
721,-573,0,0,0,0,0,0,0,0,0,-1,1945,1597,0,0
728,-573,0,0,0,0,0,0,0,0,0,-1,1952,1597,0,0
735,-573,0,0,0,0,0,0,0,0,0,-1,1959,1597,0,0
742,-573,0,0,0,0,0,0,0,0,0,-1,1966,1597,0,0
749,-573,0,0,0,0,0,0,0,0,0,-1,1973,1597,0,0
756,-573,0,0,0,0,0,0,0,0,0,-1,1980,1597,0,0
763,-573,0,0,0,0,0,0,0,0,0,-1,1987,1597,0,0
770,-573,0,0,0,0,0,0,0,0,0,-1,1994,1597,0,0
777,-573,0,0,0,0,0,0,0,0,0,-1,2001,1597,0,0
784,-573,0,0,0,0,0,0,0,0,0,-1,2008,1597,0,0
791,-573,0,0,0,0,0,0,0,0,0,-1,2015,1597,0,0
798,-573,0,0,0,0,0,0,0,0,0,-1,2022,1597,0,0
805,-573,0,0,0,0,0,0,0,0,0,-1,2029,1597,0,0
812,-573,0,0,0,0,0,0,0,0,0,-1,2036,1597,0,0
-700,-580,0,0,0,0,0,0,0,0,0,-1,524,1604,0,0
-693,-580,0,0,0,0,0,0,0,0,0,-1,531,1604,0,0
-686,-580,0,0,0,0,0,0,0,0,0,-1,538,1604,0,0
-679,-580,0,0,0,0,0,0,0,0,0,-1,545,1604,0,0
-672,-580,0,0,0,0,0,0,0,0,0,-1,552,1604,0,0
-665,-580,0,0,0,0,0,0,0,0,0,-1,559,1604,0,0
-658,-580,0,0,0,0,0,0,0,0,0,-1,566,1604,0,0
-651,-580,0,0,0,0,0,0,0,0,0,-1,573,1604,0,0
-644,-580,0,0,0,0,0,0,0,0,0,-1,580,1604,0,0
-637,-580,0,0,0,0,0,0,0,0,0,-1,587,1604,0,0
-630,-580,0,0,0,0,0,0,0,0,0,-1,594,1604,0,0
-623,-580,0,0,0,0,0,0,0,0,0,-1,601,1604,0,0
-616,-580,0,0,0,0,0,0,0,0,0,-1,608,1604,0,0
-609,-580,0,0,0,0,0,0,0,0,0,-1,615,1604,0,0
-602,-580,0,0,0,0,0,0,0,0,0,-1,622,1604,0,0
-595,-580,0,0,0,0,0,0,0,0,0,-1,629,1604,0,0
-588,-580,0,0,0,0,0,0,0,0,0,-1,636,1604,0,0
-581,-580,0,0,0,0,0,0,0,0,0,-1,643,1604,0,0
-574,-580,0,0,0,0,0,0,0,0,0,-1,650,1604,0,0
-567,-580,0,0,0,0,0,0,0,0,0,-1,657,1604,0,0
-560,-580,0,0,0,0,0,0,0,0,0,-1,664,1604,0,0
-553,-580,0,0,0,0,0,0,0,0,0,-1,671,1604,0,0
-546,-580,0,0,0,0,0,0,0,0,0,-1,678,1604,0,0
-539,-580,0,0,0,0,0,0,0,0,0,-1,685,1604,0,0
-532,-580,0,0,0,0,0,0,0,0,0,-1,692,1604,0,0
-525,-580,0,0,0,0,0,0,0,0,0,-1,699,1604,0,0
-518,-580,0,0,0,0,0,0,0,0,0,-1,706,1604,0,0
-511,-580,0,0,0,0,0,0,0,0,0,-1,713,1604,0,0
-504,-580,0,0,0,0,0,0,0,0,0,-1,720,1604,0,0
-497,-580,0,0,0,0,0,0,0,0,0,-1,727,1604,0,0
-490,-580,0,0,0,0,0,0,0,0,0,-1,734,1604,0,0
-483,-580,0,0,0,0,0,0,0,0,0,-1,741,1604,0,0
-476,-580,0,0,0,0,0,0,0,0,0,-1,748,1604,0,0
-469,-580,-5.0246,3.93115,0,0,0,0,0,0,0,-1,755,1604,-5.02457,-3.9311
-462,-580,-0.117065,-1.59436,0,0,0,0,0,0,0,-1,762,1604,-0.117043,1.59442
-455,-580,0.0982666,-0.292969,0,0,0,0,0,0,0,-1,769,1604,0.098271,0.292982
-448,-580,-0.0664673,1.10571,0,0,0,0,0,0,0,-1,776,1604,-0.0664391,-1.10574
-441,-580,-0.23114,2.50439,0,0,0,0,0,0,0,-1,783,1604,-0.231149,-2.50445
-434,-580,-1.508,6.62341,0,0,0,0,0,0,0,-1,790,1604,-1.50798,-6.62347
-427,-580,-0.723816,6.15894,0,0,0,0,0,0,0,-1,797,1604,-0.723803,-6.15888
-420,-580,1.04614,6.48767,0,0,0,0,0,0,0,-1,804,1604,1.04615,-6.48771
-413,-580,1.32251,6.69666,0.012488,0.0124401,0.0107246,0.0231886,0.00173943,0.784282,0.0149131,0.0474484,811,1604,1.32248,-6.69668
-406,-580,1.43726,7.1239,0.00759515,0.0104073,0.00636462,0.0155193,0.00248313,0.894112,0.00962585,0.0379045,818,1604,1.43724,-7.12384
-399,-580,1.36163,7.3833,0.00368623,0.00721601,0.00415291,0.0099635,0.000938745,0.986324,0.00635258,0.0166913,825,1604,1.36165,-7.38336
-392,-580,1.35651,7.57349,0.0010434,0.00421269,0.00240968,0.00551208,-0.000255993,1.07625,0.00376296,0.0111557,832,1604,1.35648,-7.57348
-385,-580,1.36481,7.77405,-0.000364846,0.00223417,0.00104167,0.00260013,-0.000730809,1.23294,0.00202154,0.011955,839,1604,1.36482,-7.77406
-378,-580,1.35547,7.97131,-0.000960248,0.000954527,0.000300285,0.00100051,-0.00100624,1.41883,0.0011586,0.0152683,846,1604,1.35546,-7.97128
-371,-580,1.3537,8.17664,-0.00143988,-4.66841e-05,-0.000377197,4.88833e-05,-0.00153545,-1.32266,0.00104031,0.0136385,853,1604,1.35371,-8.17666
-364,-580,1.35742,8.35767,-0.00112357,-0.000641578,-0.000403241,-0.000412805,-0.00135234,-1.05474,0.000800273,0.019322,860,1604,1.35741,-8.35765
-357,-580,1.36407,8.52173,-0.00033688,-0.000959962,-0.000355711,-0.00017557,-0.00112127,-0.425749,0.000696408,0.0138,867,1604,1.36409,-8.52172
-350,-580,1.37524,8.74658,0.000243809,-0.00124036,-0.000477234,0.000384018,-0.00138057,-0.285754,0.00107157,0.0107912,874,1604,1.37523,-8.74657
-343,-580,1.36249,8.92358,0.000400182,-0.00141595,-0.000772876,0.000684558,-0.00170033,-0.352572,0.00141794,0.0111507,881,1604,1.36249,-8.92361
-336,-580,1.37305,9.052,0.000871804,-0.00168962,-0.000975434,0.00120097,-0.00201878,-0.325453,0.0018788,0.0184457,888,1604,1.37307,-9.05204
-329,-580,1.38062,9.24634,0.000926587,-0.00210683,-0.00131278,0.00141582,-0.00259606,-0.356724,0.00234943,0.0176638,895,1604,1.38063,-9.24629
-322,-580,1.37457,9.46045,0.000461622,-0.00280414,-0.00194643,0.00136939,-0.00371191,-0.436387,0.00303582,0.0188371,902,1604,1.37455,-9.46051
-315,-580,1.37903,9.62402,-0.000305172,-0.00375831,-0.00301384,0.00144162,-0.0055051,-0.525279,0.00423324,0.0149474,909,1604,1.37901,-9.62402
-308,-580,1.40979,9.84155,-0.00134448,-0.00525024,-0.00445866,0.00157023,-0.00816494,-0.578984,0.00603518,0.0164933,916,1604,1.40978,-9.84155
-301,-580,1.44031,9.96338,-0.00271204,-0.00703851,-0.00609154,0.00158897,-0.0113395,-0.614783,0.00814119,0.014499,923,1604,1.44028,-9.96342
-294,-580,1.46259,10.0729,-0.00441198,-0.00984838,-0.00818584,0.00149516,-0.0157555,-0.625095,0.0110359,0.0181747,930,1604,1.46261,-10.0728
-287,-580,1.56006,10.16,-0.00662427,-0.0141432,-0.0102932,0.000574566,-0.021342,-0.610307,0.0144233,0.0384679,937,1604,1.56006,-10.16
-280,-580,1.67963,10.1437,-0.00897349,-0.0187764,-0.0128184,-0.000151463,-0.0275985,-0.602786,0.0183487,0.0486448,944,1604,1.67966,-10.1437
-273,-580,1.73773,10.1545,0,0,0,0,0,0,0,-1,951,1604,1.73772,-10.1545
-266,-580,0.494202,8.78955,0,0,0,0,0,0,0,-1,958,1604,0.494174,-8.78958
-259,-580,1.31091,9.11536,0,0,0,0,0,0,0,-1,965,1604,1.31092,-9.11539
-252,-580,1.07629,7.74097,0,0,0,0,0,0,0,-1,972,1604,1.07627,-7.74101
-245,-580,3.80304,9.16028,0,0,0,0,0,0,0,-1,979,1604,3.80306,-9.16034
-238,-580,3.41339,9.21582,0,0,0,0,0,0,0,-1,986,1604,3.41339,-9.21578
-231,-580,-7.33667,4.63391,0,0,0,0,0,0,0,-1,993,1604,-7.33665,-4.63388
-224,-580,-5.93512,5.573,0,0,0,0,0,0,0,-1,1000,1604,-5.93513,-5.57301
-217,-580,-4.62665,6.6665,0,0,0,0,0,0,0,-1,1007,1604,-4.62663,-6.66649
-210,-580,-3.7674,8.03394,0,0,0,0,0,0,0,-1,1014,1604,-3.76738,-8.03397
-203,-580,-3.01923,7.66492,0,0,0,0,0,0,0,-1,1021,1604,-3.01924,-7.66493
-196,-580,-3.65857,7.91418,0,0,0,0,0,0,0,-1,1028,1604,-3.65863,-7.9142
-189,-580,-4.58252,7.59058,0,0,0,0,0,0,0,-1,1035,1604,-4.58256,-7.59057
-182,-580,-5.45874,7.65942,0,0,0,0,0,0,0,-1,1042,1604,-5.45876,-7.65939
-175,-580,-6.38977,7.55005,0,0,0,0,0,0,0,-1,1049,1604,-6.38981,-7.5501
-168,-580,0,0,0,0,0,0,0,0,0,-1,1056,1604,0,0
-161,-580,0,0,0,0,0,0,0,0,0,-1,1063,1604,0,0
-154,-580,0,0,0,0,0,0,0,0,0,-1,1070,1604,0,0
-147,-580,0,0,0,0,0,0,0,0,0,-1,1077,1604,0,0
-140,-580,0,0,0,0,0,0,0,0,0,-1,1084,1604,0,0
-133,-580,0,0,0,0,0,0,0,0,0,-1,1091,1604,0,0
-126,-580,0,0,0,0,0,0,0,0,0,-1,1098,1604,0,0
-119,-580,0,0,0,0,0,0,0,0,0,-1,1105,1604,0,0
-112,-580,0,0,0,0,0,0,0,0,0,-1,1112,1604,0,0
-105,-580,0,0,0,0,0,0,0,0,0,-1,1119,1604,0,0
-98,-580,0,0,0,0,0,0,0,0,0,-1,1126,1604,0,0
-91,-580,0,0,0,0,0,0,0,0,0,-1,1133,1604,0,0
-84,-580,0,0,0,0,0,0,0,0,0,-1,1140,1604,0,0
-77,-580,0,0,0,0,0,0,0,0,0,-1,1147,1604,0,0
-70,-580,0,0,0,0,0,0,0,0,0,-1,1154,1604,0,0
-63,-580,0,0,0,0,0,0,0,0,0,-1,1161,1604,0,0
-56,-580,0,0,0,0,0,0,0,0,0,-1,1168,1604,0,0
-49,-580,0,0,0,0,0,0,0,0,0,-1,1175,1604,0,0
-42,-580,0,0,0,0,0,0,0,0,0,-1,1182,1604,0,0
-35,-580,0,0,0,0,0,0,0,0,0,-1,1189,1604,0,0
-28,-580,0,0,0,0,0,0,0,0,0,-1,1196,1604,0,0
-21,-580,0,0,0,0,0,0,0,0,0,-1,1203,1604,0,0
-14,-580,0,0,0,0,0,0,0,0,0,-1,1210,1604,0,0
-7,-580,0,0,0,0,0,0,0,0,0,-1,1217,1604,0,0
0,-580,0,0,0,0,0,0,0,0,0,-1,1224,1604,0,0
7,-580,0,0,0,0,0,0,0,0,0,-1,1231,1604,0,0
14,-580,0,0,0,0,0,0,0,0,0,-1,1238,1604,0,0
21,-580,0,0,0,0,0,0,0,0,0,-1,1245,1604,0,0
28,-580,0,0,0,0,0,0,0,0,0,-1,1252,1604,0,0
35,-580,0,0,0,0,0,0,0,0,0,-1,1259,1604,0,0
42,-580,0,0,0,0,0,0,0,0,0,-1,1266,1604,0,0
49,-580,0,0,0,0,0,0,0,0,0,-1,1273,1604,0,0
56,-580,0,0,0,0,0,0,0,0,0,-1,1280,1604,0,0
63,-580,0,0,0,0,0,0,0,0,0,-1,1287,1604,0,0
70,-580,0,0,0,0,0,0,0,0,0,-1,1294,1604,0,0
77,-580,0,0,0,0,0,0,0,0,0,-1,1301,1604,0,0
84,-580,0,0,0,0,0,0,0,0,0,-1,1308,1604,0,0
91,-580,0,0,0,0,0,0,0,0,0,-1,1315,1604,0,0
98,-580,0,0,0,0,0,0,0,0,0,-1,1322,1604,0,0
105,-580,0,0,0,0,0,0,0,0,0,-1,1329,1604,0,0
112,-580,0,0,0,0,0,0,0,0,0,-1,1336,1604,0,0
119,-580,0,0,0,0,0,0,0,0,0,-1,1343,1604,0,0
126,-580,0,0,0,0,0,0,0,0,0,-1,1350,1604,0,0
133,-580,0,0,0,0,0,0,0,0,0,-1,1357,1604,0,0
140,-580,0,0,0,0,0,0,0,0,0,-1,1364,1604,0,0
147,-580,0,0,0,0,0,0,0,0,0,-1,1371,1604,0,0
154,-580,0,0,0,0,0,0,0,0,0,-1,1378,1604,0,0
161,-580,0,0,0,0,0,0,0,0,0,-1,1385,1604,0,0
168,-580,0,0,0,0,0,0,0,0,0,-1,1392,1604,0,0
175,-580,0,0,0,0,0,0,0,0,0,-1,1399,1604,0,0
182,-580,0,0,0,0,0,0,0,0,0,-1,1406,1604,0,0
189,-580,0,0,0,0,0,0,0,0,0,-1,1413,1604,0,0
196,-580,0,0,0,0,0,0,0,0,0,-1,1420,1604,0,0
203,-580,0,0,0,0,0,0,0,0,0,-1,1427,1604,0,0
210,-580,0,0,0,0,0,0,0,0,0,-1,1434,1604,0,0
217,-580,0,0,0,0,0,0,0,0,0,-1,1441,1604,0,0
224,-580,0,0,0,0,0,0,0,0,0,-1,1448,1604,0,0
231,-580,0,0,0,0,0,0,0,0,0,-1,1455,1604,0,0
238,-580,0,0,0,0,0,0,0,0,0,-1,1462,1604,0,0
245,-580,0,0,0,0,0,0,0,0,0,-1,1469,1604,0,0
252,-580,0,0,0,0,0,0,0,0,0,-1,1476,1604,0,0
259,-580,0,0,0,0,0,0,0,0,0,-1,1483,1604,0,0
266,-580,0,0,0,0,0,0,0,0,0,-1,1490,1604,0,0
273,-580,0,0,0,0,0,0,0,0,0,-1,1497,1604,0,0
280,-580,0,0,0,0,0,0,0,0,0,-1,1504,1604,0,0
287,-580,0,0,0,0,0,0,0,0,0,-1,1511,1604,0,0
294,-580,4.0437,0.177368,0,0,0,0,0,0,0,-1,1518,1604,4.04369,-0.177371
301,-580,4.89465,1.3446,0,0,0,0,0,0,0,-1,1525,1604,4.89467,-1.34463
308,-580,5.5979,4.69128,0,0,0,0,0,0,0,-1,1532,1604,5.59784,-4.69123
315,-580,10.5341,6.62097,0,0,0,0,0,0,0,-1,1539,1604,10.5341,-6.62096
322,-580,10.2366,7.50281,0,0,0,0,0,0,0,-1,1546,1604,10.2366,-7.50282
329,-580,10.5962,8.69641,0,0,0,0,0,0,0,-1,1553,1604,10.5962,-8.69642
336,-580,3.66431,1.58862,0,0,0,0,0,0,0,-1,1560,1604,3.6643,-1.58864
343,-580,3.32227,1.39636,0,0,0,0,0,0,0,-1,1567,1604,3.32222,-1.39633
350,-580,8.71277,4.0564,0,0,0,0,0,0,0,-1,1574,1604,8.71271,-4.05638
357,-580,8.52332,3.08154,0,0,0,0,0,0,0,-1,1581,1604,8.52332,-3.08157
364,-580,8.25818,2.07605,0,0,0,0,0,0,0,-1,1588,1604,8.25812,-2.07608
371,-580,7.42114,7.14282,0,0,0,0,0,0,0,-1,1595,1604,7.42119,-7.14281
378,-580,7.9718,6.6731,0,0,0,0,0,0,0,-1,1602,1604,7.9718,-6.67307
385,-580,8.52246,6.20337,0,0,0,0,0,0,0,-1,1609,1604,8.52241,-6.20334
392,-580,6.5498,-2.15625,0,0,0,0,0,0,0,-1,1616,1604,6.54984,2.15626
399,-580,6.52625,10.7247,0,0,0,0,0,0,0,-1,1623,1604,6.52628,-10.7248
406,-580,7.72705,11.4857,0,0,0,0,0,0,0,-1,1630,1604,7.7271,-11.4857
413,-580,7.47852,11.1177,-0.0188888,-0.0220867,0.0234815,0.00304806,-0.0440236,0.751403,0.030416,0.0466159,1637,1604,7.47847,-11.1177
420,-580,6.92688,11.3475,-0.0163672,-0.0222327,0.0206212,0.00152877,-0.0401287,0.714762,0.0272764,0.0432965,1644,1604,6.92687,-11.3475
427,-580,7.27979,11.0005,-0.0138831,-0.0216466,0.017868,0.000519879,-0.0360496,0.678437,0.0242083,0.0357819,1651,1604,7.27984,-11.0005
434,-580,6.776,10.8491,-0.0115858,-0.0209173,0.0153771,-0.000182139,-0.032321,0.638102,0.0214868,0.0252967,1658,1604,6.77603,-10.8491
441,-580,6.69238,10.7963,-0.00956117,-0.0196401,0.0130509,-0.000610564,-0.0285907,0.601147,0.0188603,0.0114243,1665,1604,6.69235,-10.7963
448,-580,6.71448,10.6627,-0.00778993,-0.0178855,0.0108815,-0.000842374,-0.024833,0.568228,0.0162818,0.0108883,1672,1604,6.71448,-10.6628
455,-580,6.71558,10.5052,-0.00621713,-0.0161032,0.00886595,-0.00100937,-0.021311,0.531095,0.0138831,0.0180314,1679,1604,6.71554,-10.5052
462,-580,6.67676,10.3475,-0.00470267,-0.0140782,0.00702975,-0.000941029,-0.0178399,0.491334,0.0115923,0.0233147,1686,1604,6.67681,-10.3475
469,-580,6.69482,10.1821,-0.00329411,-0.011699,0.00530378,-0.000729674,-0.0142634,0.450369,0.00927529,0.0194784,1693,1604,6.69483,-10.1822
476,-580,6.745,10.0216,-0.0023744,-0.00946684,0.003987,-0.000584721,-0.0112565,0.421921,0.00731723,0.0143667,1700,1604,6.74503,-10.0216
483,-580,6.72546,9.87781,-0.00155172,-0.00736483,0.00282322,-0.000406281,-0.00851027,0.385428,0.00554305,0.0130075,1707,1604,6.72552,-9.87779
490,-580,6.69812,9.73096,-0.000660406,-0.00522897,0.00173308,-7.73685e-05,-0.00581201,0.324523,0.00384914,0.0143518,1714,1604,6.69807,-9.7309
497,-580,6.7063,9.56555,0.000198356,-0.00331869,0.000652309,0.000315442,-0.00343578,0.177604,0.00240258,0.0115395,1721,1604,6.70624,-9.5656
504,-580,6.71765,9.38733,0.000952658,-0.00197153,-7.81125e-05,0.000954743,-0.00197362,-0.0266871,0.00172446,0.0167725,1728,1604,6.71766,-9.38734
511,-580,6.72827,9.21521,0.00178873,-0.000964516,-0.000720114,0.00196571,-0.00114149,-0.240979,0.00181485,0.0167657,1735,1604,6.72833,-9.2152
518,-580,6.745,9.03259,0.00259893,-0.000549502,-0.00123451,0.00302526,-0.000975827,-0.332517,0.00240892,0.0151427,1742,1604,6.745,-9.03255
525,-580,6.72632,8.86145,0.00354024,-0.000469464,-0.00169989,0.0041639,-0.00109312,-0.351633,0.00320309,0.0170079,1749,1604,6.72631,-8.86145
532,-580,6.71069,8.69666,0.00469959,-0.000250955,-0.0022253,0.00555282,-0.00110418,-0.366134,0.00411957,0.0200555,1756,1604,6.71075,-8.69671
539,-580,6.71387,8.58899,0.00605011,-0.000352546,-0.00273076,0.00705658,-0.00135902,-0.353119,0.00521674,0.0248537,1763,1604,6.71384,-8.58897
546,-580,6.85925,8.43677,0.00753931,-1.19133e-05,-0.00333465,0.00880107,-0.00127367,-0.36173,0.00633477,0.0401144,1770,1604,6.85926,-8.43675
553,-580,6.45239,8.35583,0,0,0,0,0,0,0,-1,1777,1604,6.45239,-8.35579
560,-580,7.09021,6.49438,0,0,0,0,0,0,0,-1,1784,1604,7.09016,-6.4944
567,-580,3.87708,4.0647,0,0,0,0,0,0,0,-1,1791,1604,3.87711,-4.06471
574,-580,2.31653,5.62952,0,0,0,0,0,0,0,-1,1798,1604,2.31654,-5.62947
581,-580,1.60876,6.67664,0,0,0,0,0,0,0,-1,1805,1604,1.60873,-6.67667
588,-580,1.38684,7.14441,0,0,0,0,0,0,0,-1,1812,1604,1.38689,-7.14443
595,-580,0,0,0,0,0,0,0,0,0,-1,1819,1604,0,0
602,-580,0,0,0,0,0,0,0,0,0,-1,1826,1604,0,0
609,-580,0,0,0,0,0,0,0,0,0,-1,1833,1604,0,0
616,-580,0,0,0,0,0,0,0,0,0,-1,1840,1604,0,0
623,-580,0,0,0,0,0,0,0,0,0,-1,1847,1604,0,0
630,-580,0,0,0,0,0,0,0,0,0,-1,1854,1604,0,0
637,-580,0,0,0,0,0,0,0,0,0,-1,1861,1604,0,0
644,-580,0,0,0,0,0,0,0,0,0,-1,1868,1604,0,0
651,-580,0,0,0,0,0,0,0,0,0,-1,1875,1604,0,0
658,-580,0,0,0,0,0,0,0,0,0,-1,1882,1604,0,0
665,-580,0,0,0,0,0,0,0,0,0,-1,1889,1604,0,0
672,-580,0,0,0,0,0,0,0,0,0,-1,1896,1604,0,0
679,-580,0,0,0,0,0,0,0,0,0,-1,1903,1604,0,0
686,-580,0,0,0,0,0,0,0,0,0,-1,1910,1604,0,0
693,-580,0,0,0,0,0,0,0,0,0,-1,1917,1604,0,0
700,-580,0,0,0,0,0,0,0,0,0,-1,1924,1604,0,0
707,-580,0,0,0,0,0,0,0,0,0,-1,1931,1604,0,0
714,-580,0,0,0,0,0,0,0,0,0,-1,1938,1604,0,0
721,-580,0,0,0,0,0,0,0,0,0,-1,1945,1604,0,0
728,-580,0,0,0,0,0,0,0,0,0,-1,1952,1604,0,0
735,-580,0,0,0,0,0,0,0,0,0,-1,1959,1604,0,0
742,-580,0,0,0,0,0,0,0,0,0,-1,1966,1604,0,0
749,-580,0,0,0,0,0,0,0,0,0,-1,1973,1604,0,0
756,-580,0,0,0,0,0,0,0,0,0,-1,1980,1604,0,0
763,-580,0,0,0,0,0,0,0,0,0,-1,1987,1604,0,0
770,-580,0,0,0,0,0,0,0,0,0,-1,1994,1604,0,0
777,-580,0,0,0,0,0,0,0,0,0,-1,2001,1604,0,0
784,-580,0,0,0,0,0,0,0,0,0,-1,2008,1604,0,0
791,-580,0,0,0,0,0,0,0,0,0,-1,2015,1604,0,0
798,-580,0,0,0,0,0,0,0,0,0,-1,2022,1604,0,0
805,-580,0,0,0,0,0,0,0,0,0,-1,2029,1604,0,0
812,-580,0,0,0,0,0,0,0,0,0,-1,2036,1604,0,0
-700,-587,0,0,0,0,0,0,0,0,0,-1,524,1611,0,0
-693,-587,0,0,0,0,0,0,0,0,0,-1,531,1611,0,0
-686,-587,0,0,0,0,0,0,0,0,0,-1,538,1611,0,0
-679,-587,0,0,0,0,0,0,0,0,0,-1,545,1611,0,0
-672,-587,0,0,0,0,0,0,0,0,0,-1,552,1611,0,0
-665,-587,0,0,0,0,0,0,0,0,0,-1,559,1611,0,0
-658,-587,0,0,0,0,0,0,0,0,0,-1,566,1611,0,0
-651,-587,0,0,0,0,0,0,0,0,0,-1,573,1611,0,0
-644,-587,0,0,0,0,0,0,0,0,0,-1,580,1611,0,0
-637,-587,0,0,0,0,0,0,0,0,0,-1,587,1611,0,0
-630,-587,0,0,0,0,0,0,0,0,0,-1,594,1611,0,0
-623,-587,0,0,0,0,0,0,0,0,0,-1,601,1611,0,0
-616,-587,0,0,0,0,0,0,0,0,0,-1,608,1611,0,0
-609,-587,0,0,0,0,0,0,0,0,0,-1,615,1611,0,0
-602,-587,0,0,0,0,0,0,0,0,0,-1,622,1611,0,0
-595,-587,0,0,0,0,0,0,0,0,0,-1,629,1611,0,0
-588,-587,0,0,0,0,0,0,0,0,0,-1,636,1611,0,0
-581,-587,0,0,0,0,0,0,0,0,0,-1,643,1611,0,0
-574,-587,0,0,0,0,0,0,0,0,0,-1,650,1611,0,0
-567,-587,0,0,0,0,0,0,0,0,0,-1,657,1611,0,0
-560,-587,0,0,0,0,0,0,0,0,0,-1,664,1611,0,0
-553,-587,0,0,0,0,0,0,0,0,0,-1,671,1611,0,0
-546,-587,0,0,0,0,0,0,0,0,0,-1,678,1611,0,0
-539,-587,0,0,0,0,0,0,0,0,0,-1,685,1611,0,0
-532,-587,0,0,0,0,0,0,0,0,0,-1,692,1611,0,0
-525,-587,0,0,0,0,0,0,0,0,0,-1,699,1611,0,0
-518,-587,0,0,0,0,0,0,0,0,0,-1,706,1611,0,0
-511,-587,0,0,0,0,0,0,0,0,0,-1,713,1611,0,0
-504,-587,0,0,0,0,0,0,0,0,0,-1,720,1611,0,0
-497,-587,0,0,0,0,0,0,0,0,0,-1,727,1611,0,0
-490,-587,0,0,0,0,0,0,0,0,0,-1,734,1611,0,0
-483,-587,0,0,0,0,0,0,0,0,0,-1,741,1611,0,0
-476,-587,0,0,0,0,0,0,0,0,0,-1,748,1611,0,0
-469,-587,0,0,0,0,0,0,0,0,0,-1,755,1611,0,0
-462,-587,-0.729492,-4.46301,0,0,0,0,0,0,0,-1,762,1611,-0.729484,4.46305
-455,-587,-0.965698,-3.32373,0,0,0,0,0,0,0,-1,769,1611,-0.965729,3.32372
-448,-587,-1.10828,-0.327637,0,0,0,0,0,0,0,-1,776,1611,-1.10829,0.327577
-441,-587,-3.53021,4.56543,0,0,0,0,0,0,0,-1,783,1611,-3.53023,-4.56538
-434,-587,-2.36865,6.41638,0,0,0,0,0,0,0,-1,790,1611,-2.36868,-6.41644
-427,-587,-1.47821,8.11377,0,0,0,0,0,0,0,-1,797,1611,-1.4782,-8.11378
-420,-587,-0.647156,10.1157,0,0,0,0,0,0,0,-1,804,1611,-0.647128,-10.1158
-413,-587,1.60388,6.39539,0,0,0,0,0,0,0,-1,811,1611,1.60389,-6.39533
-406,-587,1.66449,6.76465,0.00981943,0.0116457,0.00716988,0.0179604,0.00350478,0.848736,0.0109932,0.0498352,818,1611,1.66449,-6.7647
-399,-587,1.74463,7.28491,0.00491651,0.00784543,0.00450674,0.0111197,0.00164227,0.942491,0.00693086,0.0337664,825,1611,1.74463,-7.28496
-392,-587,1.60992,7.52881,0.0015874,0.00452918,0.00248169,0.00594313,0.000173454,1.05291,0.00390555,0.0225518,832,1611,1.60994,-7.52884
-385,-587,1.53638,7.75854,-0.000279673,0.00232627,0.000990503,0.00266001,-0.000613415,1.2458,0.00200927,0.0143496,839,1611,1.53637,-7.75851
-378,-587,1.52856,7.96851,-0.001193,0.000936855,0.000148924,0.000947218,-0.00120336,1.50132,0.00124457,0.0132441,846,1611,1.52857,-7.96846
-371,-587,1.53467,8.1781,-0.00188636,-0.000119329,-0.000565146,4.5959e-05,-0.00205165,-1.28626,0.00138334,0.0138199,853,1611,1.53467,-8.17814
-364,-587,1.55969,8.36975,-0.00169135,-0.000700838,-0.000575608,-0.00043675,-0.00195544,-1.14065,0.00118518,0.0169321,860,1611,1.5597,-8.36969
-357,-587,1.56219,8.54651,-0.000990809,-0.00099091,-0.000521026,-0.000469834,-0.00151189,-0.78535,0.000893484,0.0163279,867,1611,1.56217,-8.5465
-350,-587,1.54327,8.7345,-0.000368591,-0.00122612,-0.000522086,-0.000121771,-0.00147294,-0.441616,0.000943988,0.00998463,874,1611,1.54326,-8.73455
-343,-587,1.51758,8.93811,-5.4803e-05,-0.00134255,-0.000671565,0.000231685,-0.00162904,-0.403224,0.00117092,0.0117959,881,1611,1.51759,-8.93808
-336,-587,1.50745,9.0752,0.000466599,-0.0014658,-0.000752566,0.000725102,-0.00172431,-0.330868,0.00145286,0.0111762,888,1611,1.50742,-9.07524
-329,-587,1.52979,9.25671,0.000669861,-0.00174686,-0.000922655,0.000981838,-0.00205884,-0.326062,0.00179187,0.0136925,895,1611,1.52978,-9.25671
-322,-587,1.56299,9.46716,0.000461369,-0.00231857,-0.00131246,0.000983094,-0.00284029,-0.378363,0.0022926,0.0168431,902,1611,1.56298,-9.46719
-315,-587,1.54376,9.63269,-1.12707e-05,-0.00311377,-0.00211096,0.00105712,-0.00418217,-0.468529,0.00319924,0.0134447,909,1611,1.54374,-9.63267
-308,-587,1.53503,9.81702,-0.000740927,-0.00437683,-0.00324202,0.00115806,-0.00627581,-0.52987,0.00461855,0.0134362,916,1611,1.53505,-9.81707
-301,-587,1.5661,9.97839,-0.00170329,-0.0058825,-0.0044937,0.00116289,-0.00874869,-0.567766,0.00625622,0.0116791,923,1611,1.56612,-9.97841
-294,-587,1.60553,10.1257,-0.00286791,-0.00831065,-0.00611785,0.00110653,-0.0122851,-0.576127,0.00858272,0.0120969,930,1611,1.60554,-10.1258
-287,-587,1.63739,10.2908,-0.00445574,-0.011963,-0.00772843,0.000382391,-0.0168011,-0.559331,0.0113304,0.0223651,937,1611,1.63736,-10.2908
-280,-587,1.72546,10.2803,-0.00603257,-0.0158037,-0.00963977,-0.000111012,-0.0217253,-0.550856,0.0144467,0.0343443,944,1611,1.72545,-10.2803
-273,-587,1.31622,10.4257,-0.00781614,-0.020583,-0.0118347,-0.000753121,-0.027646,-0.538069,0.0181849,0.0438368,951,1611,1.31621,-10.4257
-266,-587,1.23798,10.4596,0,0,0,0,0,0,0,-1,958,1611,1.23795,-10.4596
-259,-587,1.30652,9.91589,0,0,0,0,0,0,0,-1,965,1611,1.30652,-9.91588
-252,-587,1.30188,10.3103,0,0,0,0,0,0,0,-1,972,1611,1.30188,-10.3104
-245,-587,2.8584,9.69812,0,0,0,0,0,0,0,-1,979,1611,2.85838,-9.69813
-238,-587,2.87799,9.53821,0,0,0,0,0,0,0,-1,986,1611,2.87797,-9.53823
-231,-587,2.49548,9.14465,0,0,0,0,0,0,0,-1,993,1611,2.49551,-9.14468
-224,-587,3.66693,8.11804,0,0,0,0,0,0,0,-1,1000,1611,3.66693,-8.11809
-217,-587,-5.39899,6.52637,0,0,0,0,0,0,0,-1,1007,1611,-5.39901,-6.52634
-210,-587,-3.96399,7.48633,0,0,0,0,0,0,0,-1,1014,1611,-3.96397,-7.48632
-203,-587,-1.55042,9.40186,0,0,0,0,0,0,0,-1,1021,1611,-1.55043,-9.40186
-196,-587,-2.32214,9.0835,0,0,0,0,0,0,0,-1,1028,1611,-2.32215,-9.08353
-189,-587,-3.04138,8.66638,0,0,0,0,0,0,0,-1,1035,1611,-3.04136,-8.66635
-182,-587,-3.97095,9.7146,0,0,0,0,0,0,0,-1,1042,1611,-3.97093,-9.71461
-175,-587,-4.80969,8.37878,0,0,0,0,0,0,0,-1,1049,1611,-4.80964,-8.37883
-168,-587,-5.91394,8.72546,0,0,0,0,0,0,0,-1,1056,1611,-5.91398,-8.72542
-161,-587,-7.06946,8.88501,0,0,0,0,0,0,0,-1,1063,1611,-7.06947,-8.885
-154,-587,-2.24731,6.56519,0,0,0,0,0,0,0,-1,1070,1611,-2.24728,-6.56517
-147,-587,0,0,0,0,0,0,0,0,0,-1,1077,1611,0,0
-140,-587,0,0,0,0,0,0,0,0,0,-1,1084,1611,0,0
-133,-587,0,0,0,0,0,0,0,0,0,-1,1091,1611,0,0
-126,-587,0,0,0,0,0,0,0,0,0,-1,1098,1611,0,0
-119,-587,0,0,0,0,0,0,0,0,0,-1,1105,1611,0,0
-112,-587,0,0,0,0,0,0,0,0,0,-1,1112,1611,0,0
-105,-587,0,0,0,0,0,0,0,0,0,-1,1119,1611,0,0
-98,-587,0,0,0,0,0,0,0,0,0,-1,1126,1611,0,0
-91,-587,0,0,0,0,0,0,0,0,0,-1,1133,1611,0,0
-84,-587,0,0,0,0,0,0,0,0,0,-1,1140,1611,0,0
-77,-587,0,0,0,0,0,0,0,0,0,-1,1147,1611,0,0
-70,-587,0,0,0,0,0,0,0,0,0,-1,1154,1611,0,0
-63,-587,0,0,0,0,0,0,0,0,0,-1,1161,1611,0,0
-56,-587,0,0,0,0,0,0,0,0,0,-1,1168,1611,0,0
-49,-587,0,0,0,0,0,0,0,0,0,-1,1175,1611,0,0
-42,-587,0,0,0,0,0,0,0,0,0,-1,1182,1611,0,0
-35,-587,0,0,0,0,0,0,0,0,0,-1,1189,1611,0,0
-28,-587,0,0,0,0,0,0,0,0,0,-1,1196,1611,0,0
-21,-587,0,0,0,0,0,0,0,0,0,-1,1203,1611,0,0
-14,-587,0,0,0,0,0,0,0,0,0,-1,1210,1611,0,0
-7,-587,0,0,0,0,0,0,0,0,0,-1,1217,1611,0,0
0,-587,0,0,0,0,0,0,0,0,0,-1,1224,1611,0,0
7,-587,0,0,0,0,0,0,0,0,0,-1,1231,1611,0,0
14,-587,0,0,0,0,0,0,0,0,0,-1,1238,1611,0,0
21,-587,0,0,0,0,0,0,0,0,0,-1,1245,1611,0,0
28,-587,0,0,0,0,0,0,0,0,0,-1,1252,1611,0,0
35,-587,0,0,0,0,0,0,0,0,0,-1,1259,1611,0,0
42,-587,0,0,0,0,0,0,0,0,0,-1,1266,1611,0,0
49,-587,0,0,0,0,0,0,0,0,0,-1,1273,1611,0,0
56,-587,0,0,0,0,0,0,0,0,0,-1,1280,1611,0,0
63,-587,0,0,0,0,0,0,0,0,0,-1,1287,1611,0,0
70,-587,0,0,0,0,0,0,0,0,0,-1,1294,1611,0,0
77,-587,0,0,0,0,0,0,0,0,0,-1,1301,1611,0,0
84,-587,0,0,0,0,0,0,0,0,0,-1,1308,1611,0,0
91,-587,0,0,0,0,0,0,0,0,0,-1,1315,1611,0,0
98,-587,0,0,0,0,0,0,0,0,0,-1,1322,1611,0,0
105,-587,0,0,0,0,0,0,0,0,0,-1,1329,1611,0,0
112,-587,0,0,0,0,0,0,0,0,0,-1,1336,1611,0,0
119,-587,0,0,0,0,0,0,0,0,0,-1,1343,1611,0,0
126,-587,0,0,0,0,0,0,0,0,0,-1,1350,1611,0,0
133,-587,0,0,0,0,0,0,0,0,0,-1,1357,1611,0,0
140,-587,0,0,0,0,0,0,0,0,0,-1,1364,1611,0,0
147,-587,0,0,0,0,0,0,0,0,0,-1,1371,1611,0,0
154,-587,0,0,0,0,0,0,0,0,0,-1,1378,1611,0,0
161,-587,0,0,0,0,0,0,0,0,0,-1,1385,1611,0,0
168,-587,0,0,0,0,0,0,0,0,0,-1,1392,1611,0,0
175,-587,0,0,0,0,0,0,0,0,0,-1,1399,1611,0,0
182,-587,0,0,0,0,0,0,0,0,0,-1,1406,1611,0,0
189,-587,0,0,0,0,0,0,0,0,0,-1,1413,1611,0,0
196,-587,0,0,0,0,0,0,0,0,0,-1,1420,1611,0,0
203,-587,0,0,0,0,0,0,0,0,0,-1,1427,1611,0,0
210,-587,0,0,0,0,0,0,0,0,0,-1,1434,1611,0,0
217,-587,0,0,0,0,0,0,0,0,0,-1,1441,1611,0,0
224,-587,0,0,0,0,0,0,0,0,0,-1,1448,1611,0,0
231,-587,0,0,0,0,0,0,0,0,0,-1,1455,1611,0,0
238,-587,0,0,0,0,0,0,0,0,0,-1,1462,1611,0,0
245,-587,0,0,0,0,0,0,0,0,0,-1,1469,1611,0,0
252,-587,0,0,0,0,0,0,0,0,0,-1,1476,1611,0,0
259,-587,0,0,0,0,0,0,0,0,0,-1,1483,1611,0,0
266,-587,0,0,0,0,0,0,0,0,0,-1,1490,1611,0,0
273,-587,10.2936,6.35083,0,0,0,0,0,0,0,-1,1497,1611,10.2936,-6.35087
280,-587,2.09204,1.1217,0,0,0,0,0,0,0,-1,1504,1611,2.092,-1.12176
287,-587,3.2865,0.671509,0,0,0,0,0,0,0,-1,1511,1611,3.28656,-0.671538
294,-587,4.24646,1.58765,0,0,0,0,0,0,0,-1,1518,1611,4.24648,-1.58761
301,-587,5.13647,2.76465,0,0,0,0,0,0,0,-1,1525,1611,5.13648,-2.76469
308,-587,5.62061,10.1396,0,0,0,0,0,0,0,-1,1532,1611,5.62065,-10.1397
315,-587,4.14722,11.6769,0,0,0,0,0,0,0,-1,1539,1611,4.14727,-11.6769
322,-587,10.4526,6.38245,0,0,0,0,0,0,0,-1,1546,1611,10.4526,-6.38245
329,-587,10.7738,8.42444,0,0,0,0,0,0,0,-1,1553,1611,10.7738,-8.42438
336,-587,7.5531,5.96619,0,0,0,0,0,0,0,-1,1560,1611,7.55311,-5.96617
343,-587,9.57495,4.38391,0,0,0,0,0,0,0,-1,1567,1611,9.57494,-4.38397
350,-587,9.50378,3.45093,0,0,0,0,0,0,0,-1,1574,1611,9.50376,-3.4509
357,-587,9.40027,2.50806,0,0,0,0,0,0,0,-1,1581,1611,9.40022,-2.50803
364,-587,9.26477,1.34131,0,0,0,0,0,0,0,-1,1588,1611,9.26479,-1.34126
371,-587,6.98926,7.87561,0,0,0,0,0,0,0,-1,1595,1611,6.98928,-7.87564
378,-587,6.91187,9.53101,0,0,0,0,0,0,0,-1,1602,1611,6.91184,-9.53103
385,-587,7.17224,7.03772,0,0,0,0,0,0,0,-1,1609,1611,7.1722,-7.03778
392,-587,5.3916,8.21436,0,0,0,0,0,0,0,-1,1616,1611,5.39157,-8.21437
399,-587,7.32251,11.6882,0,0,0,0,0,0,0,-1,1623,1611,7.32245,-11.6882
406,-587,7.15649,11.4783,-0.0155873,-0.0146599,0.0196291,0.00451096,-0.0347582,0.797208,0.0248128,0.0408814,1630,1611,7.15648,-11.4782
413,-587,6.73682,11.2954,-0.0137245,-0.0152709,0.0177457,0.00326483,-0.0322602,0.763626,0.0226735,0.0345122,1637,1611,6.73685,-11.2954
420,-587,6.58521,11.2473,-0.0119726,-0.0151295,0.0155733,0.00210206,-0.0292042,0.734893,0.0202066,0.031306,1644,1611,6.58526,-11.2473
427,-587,6.60266,11.1232,-0.0101526,-0.0146245,0.0134398,0.0012359,-0.0260131,0.70297,0.0177683,0.0237357,1651,1611,6.60268,-11.1231
434,-587,6.53125,10.9973,-0.00845992,-0.0139792,0.0114789,0.000586449,-0.0230255,0.667433,0.0155495,0.014839,1658,1611,6.53119,-10.9973
441,-587,6.50037,10.8726,-0.00692883,-0.0131097,0.00960916,7.46334e-05,-0.0201132,0.629815,0.0134337,0.0165907,1665,1611,6.50035,-10.8726
448,-587,6.53162,10.7028,-0.00556875,-0.0118588,0.00784359,-0.000263166,-0.0171644,0.594727,0.0113562,0.0152962,1672,1611,6.53158,-10.7027
455,-587,6.5509,10.5333,-0.00435166,-0.0106575,0.00618511,-0.000562204,-0.0144469,0.549687,0.00944946,0.0141828,1679,1611,6.55084,-10.5333
462,-587,6.52197,10.3604,-0.00314897,-0.00923538,0.00465895,-0.000627385,-0.011757,0.496089,0.00763744,0.0178475,1686,1611,6.52192,-10.3603
469,-587,6.54163,10.1937,-0.00201829,-0.0074846,0.00323646,-0.000515316,-0.00898758,0.434756,0.00582755,0.0159115,1693,1611,6.54159,-10.1938
476,-587,6.55273,10.0468,-0.00130247,-0.00590562,0.00217762,-0.000435563,-0.00677252,0.378866,0.00437706,0.0107267,1700,1611,6.55272,-10.0467
483,-587,6.5321,9.87964,-0.000659413,-0.00451186,0.00127766,-0.000274198,-0.00489707,0.292833,0.00317726,0.0143858,1707,1611,6.53216,-9.87961
490,-587,6.51074,9.7063,7.79013e-05,-0.0030011,0.000401887,0.000129493,-0.00305269,0.127676,0.00207963,0.0157607,1714,1611,6.51073,-9.70624
497,-587,6.51697,9.54517,0.00082129,-0.0016195,-0.000489552,0.000915819,-0.00171403,-0.190745,0.00154148,0.0114226,1721,1611,6.51702,-9.54521
504,-587,6.5271,9.40015,0.00144812,-0.000850296,-0.000982047,0.00181056,-0.00121274,-0.353563,0.00175684,0.011496,1728,1611,6.52705,-9.40021
511,-587,6.53638,9.22681,0.00220842,-0.00052899,-0.00140609,0.00280197,-0.00112254,-0.399435,0.00233395,0.0135184,1735,1611,6.53643,-9.22679
518,-587,6.56628,9.03711,0.00302076,-0.000711491,-0.0017255,0.00369624,-0.00138697,-0.373132,0.00303406,0.0135149,1742,1611,6.56627,-9.0371
525,-587,6.5802,8.86816,0.00403737,-0.00109108,-0.00208254,0.00477651,-0.00183022,-0.341053,0.0039388,0.0169862,1749,1611,6.58025,-8.86819
532,-587,6.65283,8.71899,0.00538683,-0.00114535,-0.00258683,0.00628716,-0.00204568,-0.33493,0.00501441,0.0286661,1756,1611,6.65281,-8.71899
539,-587,6.87512,8.43384,0.00707847,-0.00124413,-0.00319927,0.00816615,-0.0023318,-0.327717,0.00636536,0.0393122,1763,1611,6.87507,-8.4339
546,-587,7.06909,7.97424,0.00908801,-0.000885588,-0.00404894,0.0105248,-0.00232235,-0.340987,0.00790517,0.0491164,1770,1611,7.06912,-7.9742
553,-587,7.22681,7.86682,0,0,0,0,0,0,0,-1,1777,1611,7.22686,-7.86678
560,-587,4.21179,5.23547,0,0,0,0,0,0,0,-1,1784,1611,4.21185,-5.23553
567,-587,4.03711,5.46387,0,0,0,0,0,0,0,-1,1791,1611,4.03715,-5.46382
574,-587,3.83142,5.68884,0,0,0,0,0,0,0,-1,1798,1611,3.83141,-5.68881
581,-587,3.47168,6.00977,0,0,0,0,0,0,0,-1,1805,1611,3.47167,-6.00983
588,-587,0,0,0,0,0,0,0,0,0,-1,1812,1611,0,0
595,-587,0,0,0,0,0,0,0,0,0,-1,1819,1611,0,0
602,-587,0,0,0,0,0,0,0,0,0,-1,1826,1611,0,0
609,-587,0,0,0,0,0,0,0,0,0,-1,1833,1611,0,0
616,-587,0,0,0,0,0,0,0,0,0,-1,1840,1611,0,0
623,-587,0,0,0,0,0,0,0,0,0,-1,1847,1611,0,0
630,-587,0,0,0,0,0,0,0,0,0,-1,1854,1611,0,0
637,-587,0,0,0,0,0,0,0,0,0,-1,1861,1611,0,0
644,-587,0,0,0,0,0,0,0,0,0,-1,1868,1611,0,0
651,-587,0,0,0,0,0,0,0,0,0,-1,1875,1611,0,0
658,-587,0,0,0,0,0,0,0,0,0,-1,1882,1611,0,0
665,-587,0,0,0,0,0,0,0,0,0,-1,1889,1611,0,0
672,-587,0,0,0,0,0,0,0,0,0,-1,1896,1611,0,0
679,-587,0,0,0,0,0,0,0,0,0,-1,1903,1611,0,0
686,-587,0,0,0,0,0,0,0,0,0,-1,1910,1611,0,0
693,-587,0,0,0,0,0,0,0,0,0,-1,1917,1611,0,0
700,-587,0,0,0,0,0,0,0,0,0,-1,1924,1611,0,0
707,-587,0,0,0,0,0,0,0,0,0,-1,1931,1611,0,0
714,-587,0,0,0,0,0,0,0,0,0,-1,1938,1611,0,0
721,-587,0,0,0,0,0,0,0,0,0,-1,1945,1611,0,0
728,-587,0,0,0,0,0,0,0,0,0,-1,1952,1611,0,0
735,-587,0,0,0,0,0,0,0,0,0,-1,1959,1611,0,0
742,-587,0,0,0,0,0,0,0,0,0,-1,1966,1611,0,0
749,-587,0,0,0,0,0,0,0,0,0,-1,1973,1611,0,0
756,-587,0,0,0,0,0,0,0,0,0,-1,1980,1611,0,0
763,-587,0,0,0,0,0,0,0,0,0,-1,1987,1611,0,0
770,-587,0,0,0,0,0,0,0,0,0,-1,1994,1611,0,0
777,-587,0,0,0,0,0,0,0,0,0,-1,2001,1611,0,0
784,-587,0,0,0,0,0,0,0,0,0,-1,2008,1611,0,0
791,-587,0,0,0,0,0,0,0,0,0,-1,2015,1611,0,0
798,-587,0,0,0,0,0,0,0,0,0,-1,2022,1611,0,0
805,-587,0,0,0,0,0,0,0,0,0,-1,2029,1611,0,0
812,-587,0,0,0,0,0,0,0,0,0,-1,2036,1611,0,0
-700,-594,0,0,0,0,0,0,0,0,0,-1,524,1618,0,0
-693,-594,0,0,0,0,0,0,0,0,0,-1,531,1618,0,0
-686,-594,0,0,0,0,0,0,0,0,0,-1,538,1618,0,0
-679,-594,0,0,0,0,0,0,0,0,0,-1,545,1618,0,0
-672,-594,0,0,0,0,0,0,0,0,0,-1,552,1618,0,0
-665,-594,0,0,0,0,0,0,0,0,0,-1,559,1618,0,0
-658,-594,0,0,0,0,0,0,0,0,0,-1,566,1618,0,0
-651,-594,0,0,0,0,0,0,0,0,0,-1,573,1618,0,0
-644,-594,0,0,0,0,0,0,0,0,0,-1,580,1618,0,0
-637,-594,0,0,0,0,0,0,0,0,0,-1,587,1618,0,0
-630,-594,0,0,0,0,0,0,0,0,0,-1,594,1618,0,0
-623,-594,0,0,0,0,0,0,0,0,0,-1,601,1618,0,0
-616,-594,0,0,0,0,0,0,0,0,0,-1,608,1618,0,0
-609,-594,0,0,0,0,0,0,0,0,0,-1,615,1618,0,0
-602,-594,0,0,0,0,0,0,0,0,0,-1,622,1618,0,0
-595,-594,0,0,0,0,0,0,0,0,0,-1,629,1618,0,0
-588,-594,0,0,0,0,0,0,0,0,0,-1,636,1618,0,0
-581,-594,0,0,0,0,0,0,0,0,0,-1,643,1618,0,0
-574,-594,0,0,0,0,0,0,0,0,0,-1,650,1618,0,0
-567,-594,0,0,0,0,0,0,0,0,0,-1,657,1618,0,0
-560,-594,0,0,0,0,0,0,0,0,0,-1,664,1618,0,0
-553,-594,0,0,0,0,0,0,0,0,0,-1,671,1618,0,0
-546,-594,0,0,0,0,0,0,0,0,0,-1,678,1618,0,0
-539,-594,0,0,0,0,0,0,0,0,0,-1,685,1618,0,0
-532,-594,0,0,0,0,0,0,0,0,0,-1,692,1618,0,0
-525,-594,0,0,0,0,0,0,0,0,0,-1,699,1618,0,0
-518,-594,0,0,0,0,0,0,0,0,0,-1,706,1618,0,0
-511,-594,0,0,0,0,0,0,0,0,0,-1,713,1618,0,0
-504,-594,0,0,0,0,0,0,0,0,0,-1,720,1618,0,0
-497,-594,0,0,0,0,0,0,0,0,0,-1,727,1618,0,0
-490,-594,0,0,0,0,0,0,0,0,0,-1,734,1618,0,0
-483,-594,0,0,0,0,0,0,0,0,0,-1,741,1618,0,0
-476,-594,0,0,0,0,0,0,0,0,0,-1,748,1618,0,0
-469,-594,0,0,0,0,0,0,0,0,0,-1,755,1618,0,0
-462,-594,0,0,0,0,0,0,0,0,0,-1,762,1618,0,0
-455,-594,-1.65491,-4.9729,0,0,0,0,0,0,0,-1,769,1618,-1.65492,4.97285
-448,-594,-1.93896,-3.84717,0,0,0,0,0,0,0,-1,776,1618,-1.93896,3.84713
-441,-594,-4.79364,4.07727,0,0,0,0,0,0,0,-1,783,1618,-4.79365,-4.07727
-434,-594,-3.62231,5.8208,0,0,0,0,0,0,0,-1,790,1618,-3.62229,-5.82083
-427,-594,-3.97693,6.77759,0,0,0,0,0,0,0,-1,797,1618,-3.97695,-6.77764
-420,-594,-2.53046,7.71606,0,0,0,0,0,0,0,-1,804,1618,-2.53047,-7.71609
-413,-594,-0.860413,8.00391,0,0,0,0,0,0,0,-1,811,1618,-0.860423,-8.00389
-406,-594,2.13416,6.69751,0,0,0,0,0,0,0,-1,818,1618,2.13416,-6.69748
-399,-594,1.9679,7.11731,0.00888611,0.0084181,0.00482061,0.0134784,0.00382582,0.761146,0.00802047,0.0473904,825,1618,1.96787,-7.11732
-392,-594,1.83179,7.59424,0.00428635,0.00480746,0.00251558,0.00707594,0.00201787,0.837003,0.00420911,0.0364719,832,1618,1.83179,-7.59425
-385,-594,1.77527,7.7854,0.00145775,0.00238603,0.00090835,0.00294195,0.000901831,1.02159,0.0017404,0.0234551,839,1618,1.7753,-7.78537
-378,-594,1.70435,7.97839,-0.000219841,0.000835843,-1.95092e-05,0.000836204,-0.000220201,-1.55232,0.000643552,0.0110765,846,1618,1.70435,-7.97833
-371,-594,1.71069,8.17395,-0.00148849,-0.000314092,-0.000748811,5.02968e-05,-0.00185288,-1.11791,0.00125236,0.0110756,853,1618,1.71068,-8.17391
-364,-594,1.73077,8.36206,-0.00172037,-0.000924301,-0.000760538,-0.000463937,-0.00218073,-1.02648,0.0013265,0.00972849,860,1618,1.73075,-8.36208
-357,-594,1.74786,8.54871,-0.00134401,-0.00121014,-0.000708015,-0.000565903,-0.00198825,-0.832525,0.00118288,0.0101642,867,1618,1.74785,-8.54865
-350,-594,1.71741,8.75403,-0.000858659,-0.00140751,-0.000613796,-0.000460733,-0.00180543,-0.575181,0.00108321,0.0154921,874,1618,1.7174,-8.75405
-343,-594,1.70343,8.95801,-0.000586802,-0.00147328,-0.000640243,-0.000251341,-0.00180874,-0.48263,0.00113139,0.0154486,881,1618,1.70342,-8.95801
-336,-594,1.68695,9.09912,-0.000130963,-0.00143563,-0.000615461,0.000113549,-0.00168014,-0.378161,0.0011598,0.0119176,888,1618,1.68696,-9.09917
-329,-594,1.70868,9.2821,0.000198137,-0.0015525,-0.0006469,0.00041124,-0.0017656,-0.318227,0.00133542,0.0126899,895,1618,1.7087,-9.28208
-322,-594,1.74268,9.4823,0.000221076,-0.00197394,-0.000838286,0.0005046,-0.00225746,-0.32614,0.00169835,0.0144283,902,1618,1.74269,-9.48225
-315,-594,1.73773,9.64197,-5.05992e-06,-0.00258793,-0.00143059,0.000630778,-0.00322377,-0.418237,0.00238738,0.0147461,909,1618,1.73776,-9.64195
-308,-594,1.73053,9.81494,-0.000485673,-0.00358609,-0.00232371,0.000757462,-0.00482922,-0.491238,0.0034994,0.0139596,916,1618,1.73052,-9.81495
-301,-594,1.73236,9.97705,-0.00113001,-0.00479272,-0.00328697,0.000801357,-0.00672408,-0.531238,0.00477232,0.0106198,923,1618,1.73238,-9.97711
-294,-594,1.74646,10.1321,-0.00189363,-0.00681779,-0.00455959,0.000826151,-0.00953757,-0.53784,0.00665089,0.0094675,930,1618,1.74643,-10.132
-287,-594,1.74512,10.3041,-0.00301546,-0.00986673,-0.00581955,0.000311836,-0.013194,-0.519385,0.00890179,0.0110214,937,1618,1.74513,-10.3041
-280,-594,1.74451,10.485,-0.00403058,-0.0129278,-0.00727176,4.54029e-05,-0.0170038,-0.510886,0.011351,0.015011,944,1618,1.74452,-10.485
-273,-594,1.672,10.5963,-0.0051587,-0.0167681,-0.00891348,-0.000326448,-0.0216004,-0.496779,0.0142927,0.0264317,951,1618,1.67198,-10.5964
-266,-594,1.44147,10.6112,-0.00642581,-0.0214907,-0.0105088,-0.00102869,-0.0268878,-0.474451,0.0175923,0.0350071,958,1618,1.44149,-10.6113
-259,-594,1.51233,10.4572,-0.00793565,-0.0271793,-0.0120632,-0.00212695,-0.032988,-0.448755,0.0213184,0.037812,965,1618,1.51231,-10.4571
-252,-594,1.81396,10.7123,0,0,0,0,0,0,0,-1,972,1618,1.81396,-10.7123
-245,-594,1.85095,9.97327,0,0,0,0,0,0,0,-1,979,1618,1.85095,-9.97329
-238,-594,2.24078,9.81409,-0.00739208,-0.0493719,-0.0123663,-0.00402011,-0.0527439,-0.266203,0.0339021,0.0478535,986,1618,2.24078,-9.81408
-231,-594,1.93774,9.35388,0,0,0,0,0,0,0,-1,993,1618,1.93776,-9.35393
-224,-594,1.81824,8.62744,0,0,0,0,0,0,0,-1,1000,1618,1.81822,-8.62745
-217,-594,1.65802,8.02002,0,0,0,0,0,0,0,-1,1007,1618,1.65805,-8.02007
-210,-594,0.957092,11.3329,0,0,0,0,0,0,0,-1,1014,1618,0.957079,-11.3329
-203,-594,-0.0402832,10.9181,0,0,0,0,0,0,0,-1,1021,1618,-0.0402818,-10.9181
-196,-594,-0.760986,11.9658,0,0,0,0,0,0,0,-1,1028,1618,-0.760987,-11.9658
-189,-594,2.60913,9.48865,0,0,0,0,0,0,0,-1,1035,1618,2.6091,-9.48871
-182,-594,1.2395,9.38806,0,0,0,0,0,0,0,-1,1042,1618,1.23951,-9.38804
-175,-594,0.234863,8.73792,0,0,0,0,0,0,0,-1,1049,1618,0.234812,-8.73786
-168,-594,-0.495483,8.46289,0,0,0,0,0,0,0,-1,1056,1618,-0.495513,-8.46285
-161,-594,-1.39734,8.28699,0,0,0,0,0,0,0,-1,1063,1618,-1.39729,-8.28699
-154,-594,-0.000854492,7.68445,0,0,0,0,0,0,0,-1,1070,1618,-0.000805755,-7.6845
-147,-594,0.348267,9.3385,0,0,0,0,0,0,0,-1,1077,1618,0.348237,-9.33849
-140,-594,0.675171,11.5884,0,0,0,0,0,0,0,-1,1084,1618,0.675204,-11.5884
-133,-594,0,0,0,0,0,0,0,0,0,-1,1091,1618,0,0
-126,-594,0,0,0,0,0,0,0,0,0,-1,1098,1618,0,0
-119,-594,0,0,0,0,0,0,0,0,0,-1,1105,1618,0,0
-112,-594,0,0,0,0,0,0,0,0,0,-1,1112,1618,0,0
-105,-594,0,0,0,0,0,0,0,0,0,-1,1119,1618,0,0
-98,-594,0,0,0,0,0,0,0,0,0,-1,1126,1618,0,0
-91,-594,0,0,0,0,0,0,0,0,0,-1,1133,1618,0,0
-84,-594,0,0,0,0,0,0,0,0,0,-1,1140,1618,0,0
-77,-594,0,0,0,0,0,0,0,0,0,-1,1147,1618,0,0
-70,-594,0,0,0,0,0,0,0,0,0,-1,1154,1618,0,0
-63,-594,0,0,0,0,0,0,0,0,0,-1,1161,1618,0,0
-56,-594,0,0,0,0,0,0,0,0,0,-1,1168,1618,0,0
-49,-594,0,0,0,0,0,0,0,0,0,-1,1175,1618,0,0
-42,-594,0,0,0,0,0,0,0,0,0,-1,1182,1618,0,0
-35,-594,0,0,0,0,0,0,0,0,0,-1,1189,1618,0,0
-28,-594,0,0,0,0,0,0,0,0,0,-1,1196,1618,0,0
-21,-594,0,0,0,0,0,0,0,0,0,-1,1203,1618,0,0
-14,-594,0,0,0,0,0,0,0,0,0,-1,1210,1618,0,0
-7,-594,0,0,0,0,0,0,0,0,0,-1,1217,1618,0,0
0,-594,0,0,0,0,0,0,0,0,0,-1,1224,1618,0,0
7,-594,0,0,0,0,0,0,0,0,0,-1,1231,1618,0,0
14,-594,0,0,0,0,0,0,0,0,0,-1,1238,1618,0,0
21,-594,0,0,0,0,0,0,0,0,0,-1,1245,1618,0,0
28,-594,0,0,0,0,0,0,0,0,0,-1,1252,1618,0,0
35,-594,0,0,0,0,0,0,0,0,0,-1,1259,1618,0,0
42,-594,0,0,0,0,0,0,0,0,0,-1,1266,1618,0,0
49,-594,0,0,0,0,0,0,0,0,0,-1,1273,1618,0,0
56,-594,0,0,0,0,0,0,0,0,0,-1,1280,1618,0,0
63,-594,0,0,0,0,0,0,0,0,0,-1,1287,1618,0,0
70,-594,0,0,0,0,0,0,0,0,0,-1,1294,1618,0,0
77,-594,0,0,0,0,0,0,0,0,0,-1,1301,1618,0,0
84,-594,0,0,0,0,0,0,0,0,0,-1,1308,1618,0,0
91,-594,0,0,0,0,0,0,0,0,0,-1,1315,1618,0,0
98,-594,0,0,0,0,0,0,0,0,0,-1,1322,1618,0,0
105,-594,0,0,0,0,0,0,0,0,0,-1,1329,1618,0,0
112,-594,0,0,0,0,0,0,0,0,0,-1,1336,1618,0,0
119,-594,0,0,0,0,0,0,0,0,0,-1,1343,1618,0,0
126,-594,0,0,0,0,0,0,0,0,0,-1,1350,1618,0,0
133,-594,0,0,0,0,0,0,0,0,0,-1,1357,1618,0,0
140,-594,0,0,0,0,0,0,0,0,0,-1,1364,1618,0,0
147,-594,0,0,0,0,0,0,0,0,0,-1,1371,1618,0,0
154,-594,0,0,0,0,0,0,0,0,0,-1,1378,1618,0,0
161,-594,0,0,0,0,0,0,0,0,0,-1,1385,1618,0,0
168,-594,0,0,0,0,0,0,0,0,0,-1,1392,1618,0,0
175,-594,0,0,0,0,0,0,0,0,0,-1,1399,1618,0,0
182,-594,0,0,0,0,0,0,0,0,0,-1,1406,1618,0,0
189,-594,0,0,0,0,0,0,0,0,0,-1,1413,1618,0,0
196,-594,0,0,0,0,0,0,0,0,0,-1,1420,1618,0,0
203,-594,0,0,0,0,0,0,0,0,0,-1,1427,1618,0,0
210,-594,0,0,0,0,0,0,0,0,0,-1,1434,1618,0,0
217,-594,0,0,0,0,0,0,0,0,0,-1,1441,1618,0,0
224,-594,0,0,0,0,0,0,0,0,0,-1,1448,1618,0,0
231,-594,0,0,0,0,0,0,0,0,0,-1,1455,1618,0,0
238,-594,0,0,0,0,0,0,0,0,0,-1,1462,1618,0,0
245,-594,0,0,0,0,0,0,0,0,0,-1,1469,1618,0,0
252,-594,3.03674,1.20996,0,0,0,0,0,0,0,-1,1476,1618,3.0368,-1.20999
259,-594,4.79834,1.53113,0,0,0,0,0,0,0,-1,1483,1618,4.79837,-1.53118
266,-594,3.71606,2.68152,0,0,0,0,0,0,0,-1,1490,1618,3.71609,-2.68149
273,-594,9.7655,6.33557,0,0,0,0,0,0,0,-1,1497,1618,9.76555,-6.33554
280,-594,3.13281,0.911255,0,0,0,0,0,0,0,-1,1504,1618,3.13277,-0.911207
287,-594,4.42749,1.51563,0,0,0,0,0,0,0,-1,1511,1618,4.42747,-1.51564
294,-594,4.86377,2.89954,0,0,0,0,0,0,0,-1,1518,1618,4.8638,-2.89954
301,-594,7.40552,9.07483,0,0,0,0,0,0,0,-1,1525,1618,7.40555,-9.07483
308,-594,6.02271,10.0214,0,0,0,0,0,0,0,-1,1532,1618,6.02267,-10.0213
315,-594,4.36401,10.6393,0,0,0,0,0,0,0,-1,1539,1618,4.36404,-10.6393
322,-594,2.98352,11.3137,0,0,0,0,0,0,0,-1,1546,1618,2.98351,-11.3137
329,-594,4.19861,9.77258,0,0,0,0,0,0,0,-1,1553,1618,4.19865,-9.77264
336,-594,10.1353,4.66528,0,0,0,0,0,0,0,-1,1560,1618,10.1353,-4.66533
343,-594,10.5729,3.71228,0,0,0,0,0,0,0,-1,1567,1618,10.5729,-3.71232
350,-594,10.219,2.98792,0,0,0,0,0,0,0,-1,1574,1618,10.219,-2.98797
357,-594,9.83154,1.96326,0,0,0,0,0,0,0,-1,1581,1618,9.8315,-1.96321
364,-594,9.74939,0.700562,0,0,0,0,0,0,0,-1,1588,1618,9.74939,-0.700615
371,-594,6.37524,10.0662,0,0,0,0,0,0,0,-1,1595,1618,6.37528,-10.0661
378,-594,6.41321,11.3068,0,0,0,0,0,0,0,-1,1602,1618,6.41316,-11.3068
385,-594,6.57056,9.70728,0,0,0,0,0,0,0,-1,1609,1618,6.57061,-9.70732
392,-594,6.22473,10.8828,0,0,0,0,0,0,0,-1,1616,1618,6.22476,-10.8828
399,-594,6.60522,11.5612,-0.0122332,-0.00946619,0.0157273,0.00493829,-0.0266377,0.82927,0.0196129,0.0417346,1623,1618,6.60517,-11.5612
406,-594,6.52747,11.4169,-0.0109629,-0.0100786,0.0144663,0.00395231,-0.0249939,0.800675,0.0181242,0.0271757,1630,1618,6.52742,-11.4168
413,-594,6.46021,11.3207,-0.00975225,-0.00997462,0.0130732,0.00321025,-0.0229371,0.781146,0.0164661,0.0216835,1637,1618,6.46017,-11.3207
420,-594,6.42371,11.1893,-0.00853334,-0.00961007,0.0114341,0.00237505,-0.0205185,0.761873,0.0145355,0.0173218,1644,1618,6.42374,-11.1893
427,-594,6.38208,11.1226,-0.00719623,-0.00915428,0.00978537,0.00165897,-0.0180095,0.735539,0.0125958,0.0120338,1651,1618,6.38206,-11.1225
434,-594,6.36316,10.9741,-0.00594188,-0.00864416,0.00825361,0.00107045,-0.0156565,0.704266,0.0108122,0.0163851,1658,1618,6.36318,-10.9741
441,-594,6.36621,10.8229,-0.00477413,-0.00804413,0.0067593,0.000545103,-0.0133634,0.666733,0.00909605,0.0158833,1665,1618,6.3662,-10.8229
448,-594,6.38062,10.6823,-0.00372655,-0.00714286,0.00531263,0.000145776,-0.0110152,0.629855,0.00739253,0.0164545,1672,1618,6.38057,-10.6823
455,-594,6.38501,10.5294,-0.00278898,-0.00637753,0.00394887,-0.000245856,-0.00892065,0.572154,0.00586686,0.0120664,1679,1618,6.38498,-10.5295
462,-594,6.38916,10.3574,-0.00184937,-0.00543391,0.00268475,-0.000413619,-0.00686966,0.491083,0.00444832,0.0126755,1686,1618,6.38912,-10.3574
469,-594,6.3905,10.2046,-0.000967776,-0.00421949,0.00152808,-0.000362388,-0.00482487,0.377204,0.00310285,0.0113417,1693,1618,6.39047,-10.2046
476,-594,6.37781,10.0575,-0.000430586,-0.0032071,0.000689575,-0.000268756,-0.00336893,0.23051,0.00216194,0.0118543,1700,1618,6.37786,-10.0575
483,-594,6.39038,9.87842,4.94225e-05,-0.00244803,1.69726e-05,4.95379e-05,-0.00244814,0.00679556,0.00164886,0.015777,1707,1618,6.39042,-9.87843
490,-594,6.38306,9.70337,0.000631375,-0.00151796,-0.000681025,0.000828991,-0.00171558,-0.282418,0.00149854,0.0131744,1714,1618,6.38305,-9.70334
497,-594,6.37756,9.54199,0.00126056,-0.000619194,-0.00141897,0.0020227,-0.00138133,-0.492888,0.00197691,0.00943811,1721,1618,6.37752,-9.54197
504,-594,6.38672,9.38257,0.00177366,-0.000376681,-0.00173095,0.00273618,-0.0013392,-0.507487,0.00239856,0.00970268,1728,1618,6.38666,-9.38254
511,-594,6.40137,9.21362,0.0024808,-0.00056434,-0.00202703,0.0034934,-0.00157693,-0.463284,0.00299625,0.0119737,1735,1618,6.40131,-9.21359
518,-594,6.40137,9.03564,0.00333074,-0.00113495,-0.00225385,0.00427051,-0.00207471,-0.39504,0.00373582,0.0154075,1742,1618,6.40136,-9.03561
525,-594,6.4054,8.88354,0.00445232,-0.00190471,-0.00255457,0.00535165,-0.00280403,-0.338496,0.00478465,0.027071,1749,1618,6.40543,-8.88351
532,-594,6.42932,8.72302,0.00604003,-0.00226415,-0.00308428,0.00706023,-0.00328436,-0.319447,0.00610363,0.0427908,1756,1618,6.42935,-8.72307
539,-594,7.02612,8.24951,0,0,0,0,0,0,0,-1,1763,1618,7.02607,-8.24957
546,-594,7.20789,7.27563,0,0,0,0,0,0,0,-1,1770,1618,7.20788,-7.27563
553,-594,3.69714,5.68762,0,0,0,0,0,0,0,-1,1777,1618,3.69715,-5.68764
560,-594,6.06616,4.44482,0,0,0,0,0,0,0,-1,1784,1618,6.06621,-4.44477
567,-594,5.97266,4.73303,0,0,0,0,0,0,0,-1,1791,1618,5.97271,-4.73309
574,-594,5.9906,4.96326,0,0,0,0,0,0,0,-1,1798,1618,5.99065,-4.96326
581,-594,0,0,0,0,0,0,0,0,0,-1,1805,1618,0,0
588,-594,0,0,0,0,0,0,0,0,0,-1,1812,1618,0,0
595,-594,0,0,0,0,0,0,0,0,0,-1,1819,1618,0,0
602,-594,0,0,0,0,0,0,0,0,0,-1,1826,1618,0,0
609,-594,0,0,0,0,0,0,0,0,0,-1,1833,1618,0,0
616,-594,0,0,0,0,0,0,0,0,0,-1,1840,1618,0,0
623,-594,0,0,0,0,0,0,0,0,0,-1,1847,1618,0,0
630,-594,0,0,0,0,0,0,0,0,0,-1,1854,1618,0,0
637,-594,0,0,0,0,0,0,0,0,0,-1,1861,1618,0,0
644,-594,0,0,0,0,0,0,0,0,0,-1,1868,1618,0,0
651,-594,0,0,0,0,0,0,0,0,0,-1,1875,1618,0,0
658,-594,0,0,0,0,0,0,0,0,0,-1,1882,1618,0,0
665,-594,0,0,0,0,0,0,0,0,0,-1,1889,1618,0,0
672,-594,0,0,0,0,0,0,0,0,0,-1,1896,1618,0,0
679,-594,0,0,0,0,0,0,0,0,0,-1,1903,1618,0,0
686,-594,0,0,0,0,0,0,0,0,0,-1,1910,1618,0,0
693,-594,0,0,0,0,0,0,0,0,0,-1,1917,1618,0,0
700,-594,0,0,0,0,0,0,0,0,0,-1,1924,1618,0,0
707,-594,0,0,0,0,0,0,0,0,0,-1,1931,1618,0,0
714,-594,0,0,0,0,0,0,0,0,0,-1,1938,1618,0,0
721,-594,0,0,0,0,0,0,0,0,0,-1,1945,1618,0,0
728,-594,0,0,0,0,0,0,0,0,0,-1,1952,1618,0,0
735,-594,0,0,0,0,0,0,0,0,0,-1,1959,1618,0,0
742,-594,0,0,0,0,0,0,0,0,0,-1,1966,1618,0,0
749,-594,0,0,0,0,0,0,0,0,0,-1,1973,1618,0,0
756,-594,0,0,0,0,0,0,0,0,0,-1,1980,1618,0,0
763,-594,0,0,0,0,0,0,0,0,0,-1,1987,1618,0,0
770,-594,0,0,0,0,0,0,0,0,0,-1,1994,1618,0,0
777,-594,0,0,0,0,0,0,0,0,0,-1,2001,1618,0,0
784,-594,0,0,0,0,0,0,0,0,0,-1,2008,1618,0,0
791,-594,0,0,0,0,0,0,0,0,0,-1,2015,1618,0,0
798,-594,0,0,0,0,0,0,0,0,0,-1,2022,1618,0,0
805,-594,0,0,0,0,0,0,0,0,0,-1,2029,1618,0,0
812,-594,0,0,0,0,0,0,0,0,0,-1,2036,1618,0,0
-700,-601,0,0,0,0,0,0,0,0,0,-1,524,1625,0,0
-693,-601,0,0,0,0,0,0,0,0,0,-1,531,1625,0,0
-686,-601,0,0,0,0,0,0,0,0,0,-1,538,1625,0,0
-679,-601,0,0,0,0,0,0,0,0,0,-1,545,1625,0,0
-672,-601,0,0,0,0,0,0,0,0,0,-1,552,1625,0,0
-665,-601,0,0,0,0,0,0,0,0,0,-1,559,1625,0,0
-658,-601,0,0,0,0,0,0,0,0,0,-1,566,1625,0,0
-651,-601,0,0,0,0,0,0,0,0,0,-1,573,1625,0,0
-644,-601,0,0,0,0,0,0,0,0,0,-1,580,1625,0,0
-637,-601,0,0,0,0,0,0,0,0,0,-1,587,1625,0,0
-630,-601,0,0,0,0,0,0,0,0,0,-1,594,1625,0,0
-623,-601,0,0,0,0,0,0,0,0,0,-1,601,1625,0,0
-616,-601,0,0,0,0,0,0,0,0,0,-1,608,1625,0,0
-609,-601,0,0,0,0,0,0,0,0,0,-1,615,1625,0,0
-602,-601,0,0,0,0,0,0,0,0,0,-1,622,1625,0,0
-595,-601,0,0,0,0,0,0,0,0,0,-1,629,1625,0,0
-588,-601,0,0,0,0,0,0,0,0,0,-1,636,1625,0,0
-581,-601,0,0,0,0,0,0,0,0,0,-1,643,1625,0,0
-574,-601,0,0,0,0,0,0,0,0,0,-1,650,1625,0,0
-567,-601,0,0,0,0,0,0,0,0,0,-1,657,1625,0,0
-560,-601,0,0,0,0,0,0,0,0,0,-1,664,1625,0,0
-553,-601,0,0,0,0,0,0,0,0,0,-1,671,1625,0,0
-546,-601,0,0,0,0,0,0,0,0,0,-1,678,1625,0,0
-539,-601,0,0,0,0,0,0,0,0,0,-1,685,1625,0,0
-532,-601,0,0,0,0,0,0,0,0,0,-1,692,1625,0,0
-525,-601,0,0,0,0,0,0,0,0,0,-1,699,1625,0,0
-518,-601,0,0,0,0,0,0,0,0,0,-1,706,1625,0,0
-511,-601,0,0,0,0,0,0,0,0,0,-1,713,1625,0,0
-504,-601,0,0,0,0,0,0,0,0,0,-1,720,1625,0,0
-497,-601,0,0,0,0,0,0,0,0,0,-1,727,1625,0,0
-490,-601,0,0,0,0,0,0,0,0,0,-1,734,1625,0,0
-483,-601,0,0,0,0,0,0,0,0,0,-1,741,1625,0,0
-476,-601,0,0,0,0,0,0,0,0,0,-1,748,1625,0,0
-469,-601,0,0,0,0,0,0,0,0,0,-1,755,1625,0,0
-462,-601,0,0,0,0,0,0,0,0,0,-1,762,1625,0,0
-455,-601,0,0,0,0,0,0,0,0,0,-1,769,1625,0,0
-448,-601,-7.07623,2.7616,0,0,0,0,0,0,0,-1,776,1625,-7.07626,-2.76161
-441,-601,-6.06689,3.33447,0,0,0,0,0,0,0,-1,783,1625,-6.06691,-3.33448
-434,-601,-5.02655,3.8468,0,0,0,0,0,0,0,-1,790,1625,-5.02657,-3.84674
-427,-601,-5.78601,4.2406,0,0,0,0,0,0,0,-1,797,1625,-5.786,-4.24058
-420,-601,-4.26819,5.33447,0,0,0,0,0,0,0,-1,804,1625,-4.26817,-5.33442
-413,-601,-2.75446,6.1803,0,0,0,0,0,0,0,-1,811,1625,-2.75449,-6.18033
-406,-601,-1.67493,7.20422,0,0,0,0,0,0,0,-1,818,1625,-1.67493,-7.20428
-399,-601,2.13745,7.05334,0,0,0,0,0,0,0,-1,825,1625,2.13743,-7.05335
-392,-601,2.01093,7.79504,0.00704289,0.00501699,0.00249319,0.00872105,0.00333883,0.592442,0.00508096,0.0452889,832,1625,2.01093,-7.79502
-385,-601,2.06262,8.02869,0.00324285,0.00234969,0.000789713,0.00370351,0.00188903,0.528067,0.00213837,0.0391212,839,1625,2.06262,-8.02865
-378,-601,1.94971,8.06299,0.000809154,0.000606657,-0.000217374,0.000947703,0.000468108,-0.567449,0.00054717,0.030615,846,1625,1.94969,-8.06293
-371,-601,1.89844,8.16907,-0.000924789,-0.000647649,-0.000884926,0.00010949,-0.00168193,-0.863062,0.00115951,0.0143434,853,1625,1.89841,-8.16905
-364,-601,1.91046,8.3446,-0.00146317,-0.00129247,-0.000854425,-0.000519141,-0.0022365,-0.83518,0.0013516,0.00976157,860,1625,1.91048,-8.34457
-357,-601,1.91217,8.54102,-0.00130538,-0.00156612,-0.000764832,-0.000659885,-0.00221161,-0.700981,0.00131103,0.00973731,867,1625,1.91218,-8.54104
-350,-601,1.91998,8.79163,-0.000874561,-0.00171412,-0.000558719,-0.000595497,-0.00199318,-0.463225,0.00118142,0.0209815,874,1625,1.92001,-8.7916
-343,-601,1.89172,8.97705,-0.000600461,-0.00172158,-0.000451914,-0.000440984,-0.00188106,-0.33925,0.00113594,0.0193925,881,1625,1.8917,-8.97709
-336,-601,1.87054,9.10425,-0.000167648,-0.00151061,-0.000322973,-9.40131e-05,-0.00158424,-0.224161,0.00102626,0.0149784,888,1625,1.87051,-9.10429
-329,-601,1.89331,9.29883,0.000299502,-0.00144477,-0.000234993,0.000330606,-0.00147587,-0.131597,0.00111064,0.0129832,895,1625,1.89329,-9.29877
-322,-601,1.90356,9.48303,0.000524984,-0.00169853,-0.000262472,0.000555547,-0.0017291,-0.115921,0.00137582,0.0109254,902,1625,1.90355,-9.48308
-315,-601,1.90668,9.63318,0.000458876,-0.00212537,-0.000700815,0.000636693,-0.00230318,-0.248485,0.00178593,0.0115093,909,1625,1.90668,-9.63319
-308,-601,1.90393,9.80505,8.77727e-05,-0.00285404,-0.0014297,0.000668108,-0.00343438,-0.385596,0.00254173,0.0112122,916,1625,1.90395,-9.80507
-301,-601,1.92175,9.98438,-0.000419012,-0.00376936,-0.00219624,0.000667998,-0.00485637,-0.459593,0.00348168,0.00909945,923,1625,1.92174,-9.98437
-294,-601,1.90961,10.146,-0.00099288,-0.0053912,-0.00322165,0.000708643,-0.00709273,-0.485915,0.00498153,0.00885928,930,1625,1.90961,-10.146
-287,-601,1.88727,10.3068,-0.0018647,-0.00787176,-0.00424397,0.000331047,-0.0100675,-0.477455,0.0068247,0.00936502,937,1625,1.88725,-10.3068
-280,-601,1.90857,10.4752,-0.00263016,-0.0102587,-0.00539118,0.000159628,-0.0130484,-0.477528,0.00875266,0.00942396,944,1625,1.90855,-10.4753
-273,-601,1.92645,10.6311,-0.00341679,-0.0132357,-0.00664947,-6.0766e-05,-0.0165917,-0.467405,0.011041,0.00995108,951,1625,1.92644,-10.6311
-266,-601,1.9281,10.7633,-0.00425857,-0.0168901,-0.0078679,-0.000485097,-0.0206636,-0.447198,0.0136169,0.0125803,958,1625,1.92809,-10.7633
-259,-601,1.96039,10.8424,-0.00526211,-0.0212944,-0.00906263,-0.00117908,-0.0253774,-0.423298,0.0165392,0.0225918,965,1625,1.9604,-10.8424
-252,-601,1.92853,10.85,-0.00652374,-0.0267417,-0.00992867,-0.00246339,-0.0308021,-0.388199,0.0197648,0.0406452,972,1625,1.9285,-10.85
-245,-601,1.76941,10.5472,-0.00594277,-0.0315253,-0.0098115,-0.00261318,-0.0348549,-0.327161,0.0224164,0.0463573,979,1625,1.7694,-10.5472
-238,-601,1.6123,10.2297,-0.00464828,-0.0375461,-0.0094221,-0.00214085,-0.0400535,-0.260094,0.0260181,0.0484096,986,1625,1.61231,-10.2297
-231,-601,1.47247,9.95142,0,0,0,0,0,0,0,-1,993,1625,1.47245,-9.95141
-224,-601,-0.0305176,9.13684,0,0,0,0,0,0,0,-1,1000,1625,-0.030498,-9.13681
-217,-601,3.39429,10.3898,0,0,0,0,0,0,0,-1,1007,1625,3.39431,-10.3898
-210,-601,2.94611,10.4186,0,0,0,0,0,0,0,-1,1014,1625,2.94611,-10.4186
-203,-601,-0.0888062,11.0984,0,0,0,0,0,0,0,-1,1021,1625,-0.0887957,-11.0983
-196,-601,-0.0766602,11.7427,0,0,0,0,0,0,0,-1,1028,1625,-0.0766252,-11.7427
-189,-601,1.90771,12.4546,0,0,0,0,0,0,0,-1,1035,1625,1.90768,-12.4546
-182,-601,-0.533447,12.4641,0,0,0,0,0,0,0,-1,1042,1625,-0.533401,-12.4641
-175,-601,0.544922,9.28687,0,0,0,0,0,0,0,-1,1049,1625,0.544879,-9.28685
-168,-601,-0.247559,8.97461,0,0,0,0,0,0,0,-1,1056,1625,-0.247598,-8.97466
-161,-601,-1.16833,8.80078,0,0,0,0,0,0,0,-1,1063,1625,-1.16837,-8.80081
-154,-601,1.12756,7.94861,0,0,0,0,0,0,0,-1,1070,1625,1.12762,-7.94855
-147,-601,1.35352,9.55432,0,0,0,0,0,0,0,-1,1077,1625,1.35351,-9.55429
-140,-601,1.72437,11.1498,0,0,0,0,0,0,0,-1,1084,1625,1.72432,-11.1498
-133,-601,2.13281,12.8347,0,0,0,0,0,0,0,-1,1091,1625,2.13287,-12.8348
-126,-601,3.09534,15.427,0,0,0,0,0,0,0,-1,1098,1625,3.0953,-15.4271
-119,-601,1.22485,9.43457,0,0,0,0,0,0,0,-1,1105,1625,1.22489,-9.43456
-112,-601,0,0,0,0,0,0,0,0,0,-1,1112,1625,0,0
-105,-601,0,0,0,0,0,0,0,0,0,-1,1119,1625,0,0
-98,-601,0,0,0,0,0,0,0,0,0,-1,1126,1625,0,0
-91,-601,0,0,0,0,0,0,0,0,0,-1,1133,1625,0,0
-84,-601,0,0,0,0,0,0,0,0,0,-1,1140,1625,0,0
-77,-601,0,0,0,0,0,0,0,0,0,-1,1147,1625,0,0
-70,-601,0,0,0,0,0,0,0,0,0,-1,1154,1625,0,0
-63,-601,0,0,0,0,0,0,0,0,0,-1,1161,1625,0,0
-56,-601,0,0,0,0,0,0,0,0,0,-1,1168,1625,0,0
-49,-601,0,0,0,0,0,0,0,0,0,-1,1175,1625,0,0
-42,-601,0,0,0,0,0,0,0,0,0,-1,1182,1625,0,0
-35,-601,0,0,0,0,0,0,0,0,0,-1,1189,1625,0,0
-28,-601,0,0,0,0,0,0,0,0,0,-1,1196,1625,0,0
-21,-601,0,0,0,0,0,0,0,0,0,-1,1203,1625,0,0
-14,-601,0,0,0,0,0,0,0,0,0,-1,1210,1625,0,0
-7,-601,0,0,0,0,0,0,0,0,0,-1,1217,1625,0,0
0,-601,0,0,0,0,0,0,0,0,0,-1,1224,1625,0,0
7,-601,0,0,0,0,0,0,0,0,0,-1,1231,1625,0,0
14,-601,0,0,0,0,0,0,0,0,0,-1,1238,1625,0,0
21,-601,0,0,0,0,0,0,0,0,0,-1,1245,1625,0,0
28,-601,0,0,0,0,0,0,0,0,0,-1,1252,1625,0,0
35,-601,0,0,0,0,0,0,0,0,0,-1,1259,1625,0,0
42,-601,0,0,0,0,0,0,0,0,0,-1,1266,1625,0,0
49,-601,0,0,0,0,0,0,0,0,0,-1,1273,1625,0,0
56,-601,0,0,0,0,0,0,0,0,0,-1,1280,1625,0,0
63,-601,0,0,0,0,0,0,0,0,0,-1,1287,1625,0,0
70,-601,0,0,0,0,0,0,0,0,0,-1,1294,1625,0,0
77,-601,0,0,0,0,0,0,0,0,0,-1,1301,1625,0,0
84,-601,0,0,0,0,0,0,0,0,0,-1,1308,1625,0,0
91,-601,0,0,0,0,0,0,0,0,0,-1,1315,1625,0,0
98,-601,0,0,0,0,0,0,0,0,0,-1,1322,1625,0,0
105,-601,0,0,0,0,0,0,0,0,0,-1,1329,1625,0,0
112,-601,0,0,0,0,0,0,0,0,0,-1,1336,1625,0,0
119,-601,0,0,0,0,0,0,0,0,0,-1,1343,1625,0,0
126,-601,0,0,0,0,0,0,0,0,0,-1,1350,1625,0,0
133,-601,0,0,0,0,0,0,0,0,0,-1,1357,1625,0,0
140,-601,0,0,0,0,0,0,0,0,0,-1,1364,1625,0,0
147,-601,0,0,0,0,0,0,0,0,0,-1,1371,1625,0,0
154,-601,0,0,0,0,0,0,0,0,0,-1,1378,1625,0,0
161,-601,0,0,0,0,0,0,0,0,0,-1,1385,1625,0,0
168,-601,0,0,0,0,0,0,0,0,0,-1,1392,1625,0,0
175,-601,0,0,0,0,0,0,0,0,0,-1,1399,1625,0,0
182,-601,0,0,0,0,0,0,0,0,0,-1,1406,1625,0,0
189,-601,0,0,0,0,0,0,0,0,0,-1,1413,1625,0,0
196,-601,0,0,0,0,0,0,0,0,0,-1,1420,1625,0,0
203,-601,0,0,0,0,0,0,0,0,0,-1,1427,1625,0,0
210,-601,0,0,0,0,0,0,0,0,0,-1,1434,1625,0,0
217,-601,0,0,0,0,0,0,0,0,0,-1,1441,1625,0,0
224,-601,0,0,0,0,0,0,0,0,0,-1,1448,1625,0,0
231,-601,-0.0371094,0.525879,0,0,0,0,0,0,0,-1,1455,1625,-0.0371518,-0.525824
238,-601,2.03369,-1.32861,0,0,0,0,0,0,0,-1,1462,1625,2.03364,1.32858
245,-601,2.71375,2.44983,0,0,0,0,0,0,0,-1,1469,1625,2.71371,-2.44979
252,-601,4.66943,2.28381,0,0,0,0,0,0,0,-1,1476,1625,4.66947,-2.28376
259,-601,6.42712,2.61987,0,0,0,0,0,0,0,-1,1483,1625,6.42711,-2.61985
266,-601,6.75317,1.68701,0,0,0,0,0,0,0,-1,1490,1625,6.75323,-1.687
273,-601,5.4314,2.92053,0,0,0,0,0,0,0,-1,1497,1625,5.43144,-2.92051
280,-601,4.64722,1.17786,0,0,0,0,0,0,0,-1,1504,1625,4.64722,-1.1779
287,-601,5.32532,2.6217,0,0,0,0,0,0,0,-1,1511,1625,5.32535,-2.62171
294,-601,5.97693,4.22693,0,0,0,0,0,0,0,-1,1518,1625,5.97697,-4.22694
301,-601,7.28162,9.50024,0,0,0,0,0,0,0,-1,1525,1625,7.28162,-9.50025
308,-601,6.42468,9.90295,0,0,0,0,0,0,0,-1,1532,1625,6.42468,-9.90299
315,-601,7.80762,8.37769,0,0,0,0,0,0,0,-1,1539,1625,7.80756,-8.37772
322,-601,5.80298,10.6145,0,0,0,0,0,0,0,-1,1546,1625,5.80295,-10.6145
329,-601,6.51721,7.23535,0,0,0,0,0,0,0,-1,1553,1625,6.51719,-7.23529
336,-601,4.67847,9.53308,0,0,0,0,0,0,0,-1,1560,1625,4.67848,-9.53309
343,-601,11.1404,3.14575,0,0,0,0,0,0,0,-1,1567,1625,11.1404,-3.1458
350,-601,10.9462,2.37769,0,0,0,0,0,0,0,-1,1574,1625,10.9461,-2.37764
357,-601,10.7518,1.6095,0,0,0,0,0,0,0,-1,1581,1625,10.7518,-1.60948
364,-601,5.33643,9.74426,0,0,0,0,0,0,0,-1,1588,1625,5.33637,-9.74429
371,-601,6.11292,11.7454,0,0,0,0,0,0,0,-1,1595,1625,6.11286,-11.7453
378,-601,6.3512,11.8896,0,0,0,0,0,0,0,-1,1602,1625,6.35117,-11.8896
385,-601,6.41345,11.6149,0,0,0,0,0,0,0,-1,1609,1625,6.4134,-11.6149
392,-601,6.13013,11.3278,-0.008997,-0.00729773,0.0120701,0.00395265,-0.0202474,0.820536,0.0149905,0.0478669,1616,1625,6.13018,-11.3278
399,-601,6.18774,11.6071,-0.00840687,-0.0072029,0.0114255,0.00363641,-0.0192462,0.811718,0.014199,0.0219442,1623,1625,6.1878,-11.607
406,-601,6.27002,11.4998,-0.00757455,-0.00724056,0.0105642,0.00315799,-0.0179731,0.793301,0.0131616,0.0147038,1630,1625,6.26996,-11.4997
413,-601,6.26233,11.3688,-0.00677789,-0.00681263,0.00955215,0.0027569,-0.0163474,0.784489,0.011924,0.0135898,1637,1625,6.26229,-11.3688
420,-601,6.23413,11.2715,-0.00588828,-0.00623408,0.00830613,0.00224675,-0.0143691,0.774992,0.0104095,0.0101191,1644,1625,6.23419,-11.2714
427,-601,6.23157,11.1494,-0.00484143,-0.00574861,0.00700025,0.00171991,-0.0123099,0.753045,0.00883591,0.013926,1651,1625,6.23153,-11.1495
434,-601,6.23364,10.9775,-0.00385409,-0.00527562,0.00577193,0.00125067,-0.0103804,0.724136,0.00737259,0.0155779,1658,1625,6.23368,-10.9775
441,-601,6.23926,10.7808,-0.00290967,-0.00478734,0.00454362,0.000791097,-0.0084881,0.683518,0.00594002,0.0167526,1665,1625,6.23931,-10.7808
448,-601,6.2561,10.6429,-0.00206245,-0.00404669,0.00331209,0.000402923,-0.00651206,0.639879,0.00448172,0.0137714,1672,1625,6.25604,-10.643
455,-601,6.25378,10.5149,-0.00131971,-0.00352589,0.00215707,-4.56348e-08,-0.00484556,0.549041,0.00323036,0.0125559,1679,1625,6.25378,-10.5149
462,-601,6.2384,10.3479,-0.000586883,-0.00287709,0.0010761,-0.000160598,-0.00330338,0.377172,0.00215072,0.0109008,1686,1625,6.23837,-10.3479
469,-601,6.2373,10.1964,7.55235e-05,-0.00203666,0.000108352,8.10673e-05,-0.0020422,0.0511199,0.00138928,0.0107056,1693,1625,6.23724,-10.1964
476,-601,6.24158,10.0538,0.000454606,-0.00142926,-0.00059182,0.000625097,-0.00159975,-0.280486,0.00132496,0.0132503,1700,1625,6.24161,-10.0538
483,-601,6.25012,9.88745,0.00077855,-0.0011588,-0.00111376,0.00128595,-0.0016662,-0.42748,0.00170913,0.0160436,1707,1625,6.25012,-9.88751
490,-601,6.22864,9.72388,0.00118479,-0.00070277,-0.00170129,0.00218654,-0.00170452,-0.532159,0.00225224,0.0124022,1714,1625,6.22863,-9.72382
497,-601,6.25085,9.54285,0.00167566,-0.000208838,-0.00233693,0.00325314,-0.00178633,-0.593768,0.00295034,0.00983,1721,1625,6.25083,-9.5428
504,-601,6.25793,9.35632,0.00207023,-0.000413833,-0.00252887,0.00364561,-0.00198921,-0.55713,0.00329979,0.0127709,1728,1625,6.25795,-9.3563
511,-601,6.23291,9.19019,0.00269993,-0.000942223,-0.00276227,0.0041874,-0.00242969,-0.493966,0.00386504,0.0223927,1735,1625,6.23294,-9.19014
518,-601,6.1698,9.03784,0.00356489,-0.0017868,-0.00293305,0.0048593,-0.00308121,-0.415612,0.00462261,0.0340061,1742,1625,6.16985,-9.03787
525,-601,6.22644,9.15076,0.00485172,-0.00270726,-0.00322749,0.00604226,-0.00389781,-0.353391,0.00578325,0.0423978,1749,1625,6.22646,-9.15081
532,-601,6.2262,9.22217,0.00668656,-0.00347763,-0.00376719,0.00793055,-0.00472162,-0.318944,0.00738264,0.0465581,1756,1625,6.22614,-9.2222
539,-601,6.16235,9.02478,0,0,0,0,0,0,0,-1,1763,1625,6.16231,-9.02479
546,-601,6.56873,3.62354,0,0,0,0,0,0,0,-1,1770,1625,6.56867,-3.62352
553,-601,7.03015,4.25049,0,0,0,0,0,0,0,-1,1777,1625,7.03011,-4.25048
560,-601,7.50745,4.83374,0,0,0,0,0,0,0,-1,1784,1625,7.50744,-4.83376
567,-601,7.82043,3.83301,0,0,0,0,0,0,0,-1,1791,1625,7.82041,-3.83303
574,-601,0,0,0,0,0,0,0,0,0,-1,1798,1625,0,0
581,-601,0,0,0,0,0,0,0,0,0,-1,1805,1625,0,0
588,-601,0,0,0,0,0,0,0,0,0,-1,1812,1625,0,0
595,-601,0,0,0,0,0,0,0,0,0,-1,1819,1625,0,0
602,-601,0,0,0,0,0,0,0,0,0,-1,1826,1625,0,0
609,-601,0,0,0,0,0,0,0,0,0,-1,1833,1625,0,0
616,-601,0,0,0,0,0,0,0,0,0,-1,1840,1625,0,0
623,-601,0,0,0,0,0,0,0,0,0,-1,1847,1625,0,0
630,-601,0,0,0,0,0,0,0,0,0,-1,1854,1625,0,0
637,-601,0,0,0,0,0,0,0,0,0,-1,1861,1625,0,0
644,-601,0,0,0,0,0,0,0,0,0,-1,1868,1625,0,0
651,-601,0,0,0,0,0,0,0,0,0,-1,1875,1625,0,0
658,-601,0,0,0,0,0,0,0,0,0,-1,1882,1625,0,0
665,-601,0,0,0,0,0,0,0,0,0,-1,1889,1625,0,0
672,-601,0,0,0,0,0,0,0,0,0,-1,1896,1625,0,0
679,-601,0,0,0,0,0,0,0,0,0,-1,1903,1625,0,0
686,-601,0,0,0,0,0,0,0,0,0,-1,1910,1625,0,0
693,-601,0,0,0,0,0,0,0,0,0,-1,1917,1625,0,0
700,-601,0,0,0,0,0,0,0,0,0,-1,1924,1625,0,0
707,-601,0,0,0,0,0,0,0,0,0,-1,1931,1625,0,0
714,-601,0,0,0,0,0,0,0,0,0,-1,1938,1625,0,0
721,-601,0,0,0,0,0,0,0,0,0,-1,1945,1625,0,0
728,-601,0,0,0,0,0,0,0,0,0,-1,1952,1625,0,0
735,-601,0,0,0,0,0,0,0,0,0,-1,1959,1625,0,0
742,-601,0,0,0,0,0,0,0,0,0,-1,1966,1625,0,0
749,-601,0,0,0,0,0,0,0,0,0,-1,1973,1625,0,0
756,-601,0,0,0,0,0,0,0,0,0,-1,1980,1625,0,0
763,-601,0,0,0,0,0,0,0,0,0,-1,1987,1625,0,0
770,-601,0,0,0,0,0,0,0,0,0,-1,1994,1625,0,0
777,-601,0,0,0,0,0,0,0,0,0,-1,2001,1625,0,0
784,-601,0,0,0,0,0,0,0,0,0,-1,2008,1625,0,0
791,-601,0,0,0,0,0,0,0,0,0,-1,2015,1625,0,0
798,-601,0,0,0,0,0,0,0,0,0,-1,2022,1625,0,0
805,-601,0,0,0,0,0,0,0,0,0,-1,2029,1625,0,0
812,-601,0,0,0,0,0,0,0,0,0,-1,2036,1625,0,0
-700,-608,0,0,0,0,0,0,0,0,0,-1,524,1632,0,0
-693,-608,0,0,0,0,0,0,0,0,0,-1,531,1632,0,0
-686,-608,0,0,0,0,0,0,0,0,0,-1,538,1632,0,0
-679,-608,0,0,0,0,0,0,0,0,0,-1,545,1632,0,0
-672,-608,0,0,0,0,0,0,0,0,0,-1,552,1632,0,0
-665,-608,0,0,0,0,0,0,0,0,0,-1,559,1632,0,0
-658,-608,0,0,0,0,0,0,0,0,0,-1,566,1632,0,0
-651,-608,0,0,0,0,0,0,0,0,0,-1,573,1632,0,0
-644,-608,0,0,0,0,0,0,0,0,0,-1,580,1632,0,0
-637,-608,0,0,0,0,0,0,0,0,0,-1,587,1632,0,0
-630,-608,0,0,0,0,0,0,0,0,0,-1,594,1632,0,0
-623,-608,0,0,0,0,0,0,0,0,0,-1,601,1632,0,0
-616,-608,0,0,0,0,0,0,0,0,0,-1,608,1632,0,0
-609,-608,0,0,0,0,0,0,0,0,0,-1,615,1632,0,0
-602,-608,0,0,0,0,0,0,0,0,0,-1,622,1632,0,0
-595,-608,0,0,0,0,0,0,0,0,0,-1,629,1632,0,0
-588,-608,0,0,0,0,0,0,0,0,0,-1,636,1632,0,0
-581,-608,0,0,0,0,0,0,0,0,0,-1,643,1632,0,0
-574,-608,0,0,0,0,0,0,0,0,0,-1,650,1632,0,0
-567,-608,0,0,0,0,0,0,0,0,0,-1,657,1632,0,0
-560,-608,0,0,0,0,0,0,0,0,0,-1,664,1632,0,0
-553,-608,0,0,0,0,0,0,0,0,0,-1,671,1632,0,0
-546,-608,0,0,0,0,0,0,0,0,0,-1,678,1632,0,0
-539,-608,0,0,0,0,0,0,0,0,0,-1,685,1632,0,0
-532,-608,0,0,0,0,0,0,0,0,0,-1,692,1632,0,0
-525,-608,0,0,0,0,0,0,0,0,0,-1,699,1632,0,0
-518,-608,0,0,0,0,0,0,0,0,0,-1,706,1632,0,0
-511,-608,0,0,0,0,0,0,0,0,0,-1,713,1632,0,0
-504,-608,0,0,0,0,0,0,0,0,0,-1,720,1632,0,0
-497,-608,0,0,0,0,0,0,0,0,0,-1,727,1632,0,0
-490,-608,0,0,0,0,0,0,0,0,0,-1,734,1632,0,0
-483,-608,0,0,0,0,0,0,0,0,0,-1,741,1632,0,0
-476,-608,0,0,0,0,0,0,0,0,0,-1,748,1632,0,0
-469,-608,0,0,0,0,0,0,0,0,0,-1,755,1632,0,0
-462,-608,0,0,0,0,0,0,0,0,0,-1,762,1632,0,0
-455,-608,0,0,0,0,0,0,0,0,0,-1,769,1632,0,0
-448,-608,0,0,0,0,0,0,0,0,0,-1,776,1632,0,0
-441,-608,-7.34601,2.78052,0,0,0,0,0,0,0,-1,783,1632,-7.346,-2.78056
-434,-608,-6.34558,3.27405,0,0,0,0,0,0,0,-1,790,1632,-6.34555,-3.27406
-427,-608,-5.05603,3.92859,0,0,0,0,0,0,0,-1,797,1632,-5.05602,-3.92857
-420,-608,-5.61499,3.51917,0,0,0,0,0,0,0,-1,804,1632,-5.61498,-3.51914
-413,-608,-4.63806,4.34399,0,0,0,0,0,0,0,-1,811,1632,-4.63808,-4.34396
-406,-608,-3.69275,5.26758,0,0,0,0,0,0,0,-1,818,1632,-3.69272,-5.26761
-399,-608,-2.60645,6.34167,0,0,0,0,0,0,0,-1,825,1632,-2.60643,-6.34169
-392,-608,2.32764,8.03699,0,0,0,0,0,0,0,-1,832,1632,2.32764,-8.03694
-385,-608,2.37292,8.25623,0,0,0,0,0,0,0,-1,839,1632,2.37293,-8.2562
-378,-608,2.78125,8.06494,0.00322934,0.000504476,-0.000349128,0.00327336,0.000460455,-0.125428,0.0020461,0.0480437,846,1632,2.78127,-8.06495
-371,-608,2.17218,8.19873,0.000751238,-0.000873811,-0.000919782,0.00116599,-0.00128856,-0.423618,0.00141772,0.0387279,853,1632,2.1722,-8.19869
-364,-608,2.11389,8.31543,-0.000399822,-0.00160283,-0.000855279,4.42895e-05,-0.00204694,-0.478936,0.00137962,0.015119,860,1632,2.11387,-8.31548
-357,-608,2.08868,8.5177,-0.000700865,-0.00188615,-0.000706301,-0.000371506,-0.00221551,-0.436339,0.00137006,0.0124825,867,1632,2.08871,-8.51766
-350,-608,2.0741,8.74866,-0.000516598,-0.00198609,-0.000430552,-0.000399742,-0.00210294,-0.265027,0.00128954,0.0184282,874,1632,2.07409,-8.74865
-343,-608,2.06879,8.93591,-0.000458815,-0.00194764,-0.000208138,-0.000430265,-0.00197619,-0.136319,0.00120003,0.021163,881,1632,2.06876,-8.9359
-336,-608,2.07538,9.10437,-0.000165459,-0.001564,2.83829e-05,-0.000164883,-0.00156458,0.0202835,0.000992666,0.0136699,888,1632,2.07536,-9.10436
-329,-608,2.06848,9.29541,0.000404297,-0.00129914,0.000248804,0.000439893,-0.00133473,0.142106,0.00106712,0.0126174,895,1632,2.06848,-9.29542
-322,-608,2.05902,9.48181,0.00079232,-0.00137372,0.000392405,0.000861218,-0.00144261,0.173807,0.00134416,0.0137853,902,1632,2.05901,-9.48181
-315,-608,2.07562,9.63733,0.000839303,-0.0016141,0.00011446,0.000844631,-0.00161943,0.0465187,0.00144588,0.0126556,909,1632,2.07563,-9.63736
-308,-608,2.0708,9.80591,0.000529113,-0.00209137,-0.000454073,0.000605564,-0.00216782,-0.166802,0.00168377,0.0129697,916,1632,2.07082,-9.80585
-301,-608,2.08221,9.98401,0.00011182,-0.00276019,-0.00104583,0.000452293,-0.00310066,-0.314732,0.00223319,0.0101849,923,1632,2.08221,-9.98405
-294,-608,2.07727,10.1383,-0.000325312,-0.00403735,-0.00186257,0.000448112,-0.00481077,-0.39358,0.00336651,0.0104334,930,1632,2.07724,-10.1383
-287,-608,2.05078,10.2988,-0.00101417,-0.00604325,-0.00270463,0.000164245,-0.00722167,-0.410902,0.00487012,0.0107829,937,1632,2.05079,-10.2988
-280,-608,2.07092,10.4672,-0.00161871,-0.00791203,-0.00363972,4.5978e-05,-0.00957672,-0.428962,0.00639986,0.00805721,944,1632,2.07094,-10.4671
-273,-608,2.0766,10.6405,-0.00217762,-0.0102199,-0.00464207,-5.722e-05,-0.0123403,-0.428476,0.00820783,0.0076713,951,1632,2.07659,-10.6404
-266,-608,2.08746,10.8066,-0.00274019,-0.0129943,-0.00560311,-0.000272401,-0.0154621,-0.414868,0.0102185,0.00807669,958,1632,2.08745,-10.8066
-259,-608,2.1087,10.9207,-0.00343234,-0.0163413,-0.00654328,-0.000695792,-0.0190778,-0.396116,0.0124931,0.0107204,965,1632,2.10869,-10.9207
-252,-608,2.06995,11.0262,-0.00427171,-0.0204756,-0.00717401,-0.00155201,-0.0231953,-0.362364,0.014973,0.0234655,972,1632,2.06997,-11.0262
-245,-608,2.12335,11.4122,-0.00369461,-0.0239091,-0.00727434,-0.00134905,-0.0262547,-0.311917,0.0170712,0.0393901,979,1632,2.12333,-11.4122
-238,-608,2.06805,11.3242,-0.00264658,-0.0280225,-0.00696248,-0.000861786,-0.0298073,-0.250941,0.0195906,0.0458942,986,1632,2.06805,-11.3243
-231,-608,2.07147,11.4266,0,0,0,0,0,0,0,-1,993,1632,2.07148,-11.4267
-224,-608,1.14557,10.6169,0,0,0,0,0,0,0,-1,1000,1632,1.14558,-10.617
-217,-608,3.08533,10.4965,0,0,0,0,0,0,0,-1,1007,1632,3.08531,-10.4965
-210,-608,0.148865,10.3182,0,0,0,0,0,0,0,-1,1014,1632,0.148877,-10.3182
-203,-608,0.472229,10.911,0,0,0,0,0,0,0,-1,1021,1632,0.472256,-10.911
-196,-608,1.66101,11.9619,0,0,0,0,0,0,0,-1,1028,1632,1.66098,-11.9619
-189,-608,2.25281,12.5382,0,0,0,0,0,0,0,-1,1035,1632,2.25286,-12.5382
-182,-608,2.5426,13.3188,0,0,0,0,0,0,0,-1,1042,1632,2.54265,-13.3189
-175,-608,-0.475342,12.0377,0,0,0,0,0,0,0,-1,1049,1632,-0.475388,-12.0378
-168,-608,0.000366211,9.48645,0,0,0,0,0,0,0,-1,1056,1632,0.000317105,-9.48648
-161,-608,-0.939453,9.31458,0,0,0,0,0,0,0,-1,1063,1632,-0.939447,-9.31463
-154,-608,3.70996,11.3959,0,0,0,0,0,0,0,-1,1070,1632,3.70994,-11.3959
-147,-608,2.4386,9.50317,0,0,0,0,0,0,0,-1,1077,1632,2.43858,-9.50313
-140,-608,2.74121,10.6572,0,0,0,0,0,0,0,-1,1084,1632,2.74117,-10.6572
-133,-608,3.2312,12.4738,0,0,0,0,0,0,0,-1,1091,1632,3.23116,-12.4738
-126,-608,3.76465,13.9644,0,0,0,0,0,0,0,-1,1098,1632,3.76466,-13.9644
-119,-608,4.28906,15.4196,0,0,0,0,0,0,0,-1,1105,1632,4.28911,-15.4195
-112,-608,0.745117,10.5587,0,0,0,0,0,0,0,-1,1112,1632,0.745145,-10.5587
-105,-608,-0.252319,1.42419,0,0,0,0,0,0,0,-1,1119,1632,-0.252331,-1.42418
-98,-608,-1.67896,0.994629,0,0,0,0,0,0,0,-1,1126,1632,-1.67895,-0.994599
-91,-608,-2.99451,0.744629,0,0,0,0,0,0,0,-1,1133,1632,-2.99453,-0.744605
-84,-608,0,0,0,0,0,0,0,0,0,-1,1140,1632,0,0
-77,-608,0,0,0,0,0,0,0,0,0,-1,1147,1632,0,0
-70,-608,0,0,0,0,0,0,0,0,0,-1,1154,1632,0,0
-63,-608,0,0,0,0,0,0,0,0,0,-1,1161,1632,0,0
-56,-608,0,0,0,0,0,0,0,0,0,-1,1168,1632,0,0
-49,-608,0,0,0,0,0,0,0,0,0,-1,1175,1632,0,0
-42,-608,0,0,0,0,0,0,0,0,0,-1,1182,1632,0,0
-35,-608,0,0,0,0,0,0,0,0,0,-1,1189,1632,0,0
-28,-608,0,0,0,0,0,0,0,0,0,-1,1196,1632,0,0
-21,-608,0,0,0,0,0,0,0,0,0,-1,1203,1632,0,0
-14,-608,0,0,0,0,0,0,0,0,0,-1,1210,1632,0,0
-7,-608,0,0,0,0,0,0,0,0,0,-1,1217,1632,0,0
0,-608,0,0,0,0,0,0,0,0,0,-1,1224,1632,0,0
7,-608,0,0,0,0,0,0,0,0,0,-1,1231,1632,0,0
14,-608,0,0,0,0,0,0,0,0,0,-1,1238,1632,0,0
21,-608,0,0,0,0,0,0,0,0,0,-1,1245,1632,0,0
28,-608,0,0,0,0,0,0,0,0,0,-1,1252,1632,0,0
35,-608,0,0,0,0,0,0,0,0,0,-1,1259,1632,0,0
42,-608,0,0,0,0,0,0,0,0,0,-1,1266,1632,0,0
49,-608,0,0,0,0,0,0,0,0,0,-1,1273,1632,0,0
56,-608,0,0,0,0,0,0,0,0,0,-1,1280,1632,0,0
63,-608,0,0,0,0,0,0,0,0,0,-1,1287,1632,0,0
70,-608,0,0,0,0,0,0,0,0,0,-1,1294,1632,0,0
77,-608,0,0,0,0,0,0,0,0,0,-1,1301,1632,0,0
84,-608,0,0,0,0,0,0,0,0,0,-1,1308,1632,0,0
91,-608,0,0,0,0,0,0,0,0,0,-1,1315,1632,0,0
98,-608,0,0,0,0,0,0,0,0,0,-1,1322,1632,0,0
105,-608,0,0,0,0,0,0,0,0,0,-1,1329,1632,0,0
112,-608,0,0,0,0,0,0,0,0,0,-1,1336,1632,0,0
119,-608,0,0,0,0,0,0,0,0,0,-1,1343,1632,0,0
126,-608,0,0,0,0,0,0,0,0,0,-1,1350,1632,0,0
133,-608,0,0,0,0,0,0,0,0,0,-1,1357,1632,0,0
140,-608,0,0,0,0,0,0,0,0,0,-1,1364,1632,0,0
147,-608,0,0,0,0,0,0,0,0,0,-1,1371,1632,0,0
154,-608,0,0,0,0,0,0,0,0,0,-1,1378,1632,0,0
161,-608,0,0,0,0,0,0,0,0,0,-1,1385,1632,0,0
168,-608,0,0,0,0,0,0,0,0,0,-1,1392,1632,0,0
175,-608,0,0,0,0,0,0,0,0,0,-1,1399,1632,0,0
182,-608,0,0,0,0,0,0,0,0,0,-1,1406,1632,0,0
189,-608,0,0,0,0,0,0,0,0,0,-1,1413,1632,0,0
196,-608,0,0,0,0,0,0,0,0,0,-1,1420,1632,0,0
203,-608,0,0,0,0,0,0,0,0,0,-1,1427,1632,0,0
210,-608,5.7157,-0.333008,0,0,0,0,0,0,0,-1,1434,1632,5.71566,0.333004
217,-608,4.49402,-0.831787,0,0,0,0,0,0,0,-1,1441,1632,4.49396,0.831738
224,-608,4.18018,-1.11792,0,0,0,0,0,0,0,-1,1448,1632,4.1802,1.11796
231,-608,0.361816,0.825195,0,0,0,0,0,0,0,-1,1455,1632,0.36185,-0.825226
238,-608,2.85388,-0.28833,0,0,0,0,0,0,0,-1,1462,1632,2.85391,0.288282
245,-608,3.87537,4.02173,0,0,0,0,0,0,0,-1,1469,1632,3.87538,-4.02168
252,-608,5.66956,3.5282,0,0,0,0,0,0,0,-1,1476,1632,5.6696,-3.52815
259,-608,7.47437,3.07178,0,0,0,0,0,0,0,-1,1483,1632,7.4744,-3.07172
266,-608,9.46936,2.34766,0,0,0,0,0,0,0,-1,1490,1632,9.46932,-2.34764
273,-608,6.03003,3.34241,0,0,0,0,0,0,0,-1,1497,1632,6.02997,-3.34245
280,-608,5.72461,2.0769,0,0,0,0,0,0,0,-1,1504,1632,5.72457,-2.07688
287,-608,6.20581,3.59338,0,0,0,0,0,0,0,-1,1511,1632,6.20585,-3.59341
294,-608,6.94922,5.17151,0,0,0,0,0,0,0,-1,1518,1632,6.94925,-5.17151
301,-608,7.60083,6.68018,0,0,0,0,0,0,0,-1,1525,1632,7.60086,-6.68013
308,-608,7.64746,9.93848,0,0,0,0,0,0,0,-1,1532,1632,7.64745,-9.93842
315,-608,5.98083,11.6373,0,0,0,0,0,0,0,-1,1539,1632,5.98082,-11.6373
322,-608,5.6637,11.7971,0,0,0,0,0,0,0,-1,1546,1632,5.66366,-11.7971
329,-608,5.62793,12.1296,0,0,0,0,0,0,0,-1,1553,1632,5.62795,-12.1296
336,-608,5.48633,7.82446,0,0,0,0,0,0,0,-1,1560,1632,5.48634,-7.82446
343,-608,5.47192,5.61047,0,0,0,0,0,0,0,-1,1567,1632,5.47192,-5.61045
350,-608,11.6957,1.71387,0,0,0,0,0,0,0,-1,1574,1632,11.6957,-1.71388
357,-608,3.77002,5.10046,0,0,0,0,0,0,0,-1,1581,1632,3.77002,-5.10043
364,-608,5.6925,11.2163,0,0,0,0,0,0,0,-1,1588,1632,5.69255,-11.2163
371,-608,6.24683,12.2235,0,0,0,0,0,0,0,-1,1595,1632,6.24686,-12.2235
378,-608,6.18408,11.9843,-0.00512323,-0.00567083,0.00830739,0.00291488,-0.0137089,0.768925,0.01025,0.0403863,1602,1632,6.18403,-11.9843
385,-608,6.15027,11.8007,-0.00602344,-0.00526974,0.00874933,0.00311085,-0.014404,0.806921,0.0107902,0.035819,1609,1632,6.15027,-11.8007
392,-608,6.10132,11.7365,-0.0060273,-0.00557067,0.0085707,0.00277476,-0.0143727,0.798714,0.0106282,0.0233435,1616,1632,6.10134,-11.7365
399,-608,6.07861,11.6763,-0.00556618,-0.00534477,0.0080592,0.00260449,-0.0135154,0.792266,0.00999225,0.0114552,1623,1632,6.07863,-11.6763
406,-608,6.09265,11.5653,-0.00492205,-0.00524506,0.0074551,0.00237329,-0.0125404,0.774568,0.00925338,0.00899839,1630,1632,6.09271,-11.5653
413,-608,6.07239,11.4154,-0.00433689,-0.00474304,0.00669685,0.00215996,-0.0112399,0.770241,0.00830739,0.009931,1637,1632,6.07244,-11.4155
420,-608,6.06079,11.2573,-0.00363687,-0.0041266,0.00571928,0.00184279,-0.00960626,0.764005,0.00709862,0.016915,1644,1632,6.06079,-11.2574
427,-608,6.08179,11.1172,-0.00276784,-0.0036587,0.00466379,0.00147174,-0.00789828,0.737788,0.00581848,0.0182098,1651,1632,6.08184,-11.1172
434,-608,6.09436,10.9711,-0.00195321,-0.00323349,0.00365571,0.00111799,-0.00630468,0.698723,0.00462108,0.0150761,1658,1632,6.09441,-10.9711
441,-608,6.08984,10.8202,-0.00117331,-0.00284002,0.00262848,0.000750757,-0.00476408,0.631887,0.00345362,0.0131178,1665,1632,6.08982,-10.8202
448,-608,6.10474,10.6769,-0.000493682,-0.00221605,0.00155783,0.000425158,-0.00313489,0.5329,0.0022451,0.015064,1672,1632,6.10469,-10.6769
455,-608,6.12146,10.5217,6.70804e-05,-0.00186763,0.000573676,0.000224394,-0.00202494,0.267641,0.00143064,0.012005,1679,1632,6.12144,-10.5217
462,-608,6.0929,10.3632,0.000588177,-0.0014229,-0.000356012,0.00064934,-0.00148407,-0.170139,0.00126276,0.0112135,1686,1632,6.09288,-10.3632
469,-608,6.06946,10.2025,0.00101627,-0.000847338,-0.00116688,0.00157774,-0.00140881,-0.448472,0.0017252,0.00863901,1693,1632,6.06946,-10.2026
476,-608,6.07544,10.0544,0.00122572,-0.00050075,-0.0017676,0.00232961,-0.00160464,-0.558249,0.00228426,0.00831526,1700,1632,6.07549,-10.0545
483,-608,6.07922,9.89758,0.001382,-0.000560929,-0.00218227,0.00279927,-0.00197819,-0.575986,0.00277181,0.00778933,1707,1632,6.07921,-9.8976
490,-608,6.09875,9.72717,0.00158008,-0.000436895,-0.00270279,0.0034564,-0.00231322,-0.606834,0.00335282,0.00812075,1714,1632,6.0987,-9.7272
497,-608,6.12512,9.54736,0.00189409,-0.000230954,-0.00328271,0.00428195,-0.00261881,-0.628883,0.00402254,0.0127645,1721,1632,6.12516,-9.54737
504,-608,6.09595,9.37329,0.00225453,-0.000706029,-0.00345677,0.00453463,-0.00298613,-0.583098,0.00437269,0.028002,1728,1632,6.09595,-9.3733
511,-608,6.04895,9.1698,0.00286334,-0.00143948,-0.00369718,0.00498951,-0.00356565,-0.521894,0.00496208,0.0420422,1735,1632,6.04898,-9.16985
518,-608,6.00464,9.0177,0,0,0,0,0,0,0,-1,1742,1632,6.00461,-9.01771
525,-608,6.02979,9.28137,0,0,0,0,0,0,0,-1,1749,1632,6.02977,-9.2814
532,-608,6.69592,8.91846,0,0,0,0,0,0,0,-1,1756,1632,6.69587,-8.91846
539,-608,9.40796,1.43457,0,0,0,0,0,0,0,-1,1763,1632,9.40801,-1.43463
546,-608,9.94031,2.1134,0,0,0,0,0,0,0,-1,1770,1632,9.94031,-2.11346
553,-608,10.363,2.81335,0,0,0,0,0,0,0,-1,1777,1632,10.3631,-2.81333
560,-608,9.23999,4.5636,0,0,0,0,0,0,0,-1,1784,1632,9.24,-4.56354
567,-608,0,0,0,0,0,0,0,0,0,-1,1791,1632,0,0
574,-608,0,0,0,0,0,0,0,0,0,-1,1798,1632,0,0
581,-608,0,0,0,0,0,0,0,0,0,-1,1805,1632,0,0
588,-608,0,0,0,0,0,0,0,0,0,-1,1812,1632,0,0
595,-608,0,0,0,0,0,0,0,0,0,-1,1819,1632,0,0
602,-608,0,0,0,0,0,0,0,0,0,-1,1826,1632,0,0
609,-608,0,0,0,0,0,0,0,0,0,-1,1833,1632,0,0
616,-608,0,0,0,0,0,0,0,0,0,-1,1840,1632,0,0
623,-608,0,0,0,0,0,0,0,0,0,-1,1847,1632,0,0
630,-608,0,0,0,0,0,0,0,0,0,-1,1854,1632,0,0
637,-608,0,0,0,0,0,0,0,0,0,-1,1861,1632,0,0
644,-608,0,0,0,0,0,0,0,0,0,-1,1868,1632,0,0
651,-608,0,0,0,0,0,0,0,0,0,-1,1875,1632,0,0
658,-608,0,0,0,0,0,0,0,0,0,-1,1882,1632,0,0
665,-608,0,0,0,0,0,0,0,0,0,-1,1889,1632,0,0
672,-608,0,0,0,0,0,0,0,0,0,-1,1896,1632,0,0
679,-608,0,0,0,0,0,0,0,0,0,-1,1903,1632,0,0
686,-608,0,0,0,0,0,0,0,0,0,-1,1910,1632,0,0
693,-608,0,0,0,0,0,0,0,0,0,-1,1917,1632,0,0
700,-608,0,0,0,0,0,0,0,0,0,-1,1924,1632,0,0
707,-608,0,0,0,0,0,0,0,0,0,-1,1931,1632,0,0
714,-608,0,0,0,0,0,0,0,0,0,-1,1938,1632,0,0
721,-608,0,0,0,0,0,0,0,0,0,-1,1945,1632,0,0
728,-608,0,0,0,0,0,0,0,0,0,-1,1952,1632,0,0
735,-608,0,0,0,0,0,0,0,0,0,-1,1959,1632,0,0
742,-608,0,0,0,0,0,0,0,0,0,-1,1966,1632,0,0
749,-608,0,0,0,0,0,0,0,0,0,-1,1973,1632,0,0
756,-608,0,0,0,0,0,0,0,0,0,-1,1980,1632,0,0
763,-608,0,0,0,0,0,0,0,0,0,-1,1987,1632,0,0
770,-608,0,0,0,0,0,0,0,0,0,-1,1994,1632,0,0
777,-608,0,0,0,0,0,0,0,0,0,-1,2001,1632,0,0
784,-608,0,0,0,0,0,0,0,0,0,-1,2008,1632,0,0
791,-608,0,0,0,0,0,0,0,0,0,-1,2015,1632,0,0
798,-608,0,0,0,0,0,0,0,0,0,-1,2022,1632,0,0
805,-608,0,0,0,0,0,0,0,0,0,-1,2029,1632,0,0
812,-608,0,0,0,0,0,0,0,0,0,-1,2036,1632,0,0
-700,-615,0,0,0,0,0,0,0,0,0,-1,524,1639,0,0
-693,-615,0,0,0,0,0,0,0,0,0,-1,531,1639,0,0
-686,-615,0,0,0,0,0,0,0,0,0,-1,538,1639,0,0
-679,-615,0,0,0,0,0,0,0,0,0,-1,545,1639,0,0
-672,-615,0,0,0,0,0,0,0,0,0,-1,552,1639,0,0
-665,-615,0,0,0,0,0,0,0,0,0,-1,559,1639,0,0
-658,-615,0,0,0,0,0,0,0,0,0,-1,566,1639,0,0
-651,-615,0,0,0,0,0,0,0,0,0,-1,573,1639,0,0
-644,-615,0,0,0,0,0,0,0,0,0,-1,580,1639,0,0
-637,-615,0,0,0,0,0,0,0,0,0,-1,587,1639,0,0
-630,-615,0,0,0,0,0,0,0,0,0,-1,594,1639,0,0
-623,-615,0,0,0,0,0,0,0,0,0,-1,601,1639,0,0
-616,-615,0,0,0,0,0,0,0,0,0,-1,608,1639,0,0
-609,-615,0,0,0,0,0,0,0,0,0,-1,615,1639,0,0
-602,-615,0,0,0,0,0,0,0,0,0,-1,622,1639,0,0
-595,-615,0,0,0,0,0,0,0,0,0,-1,629,1639,0,0
-588,-615,0,0,0,0,0,0,0,0,0,-1,636,1639,0,0
-581,-615,0,0,0,0,0,0,0,0,0,-1,643,1639,0,0
-574,-615,0,0,0,0,0,0,0,0,0,-1,650,1639,0,0
-567,-615,0,0,0,0,0,0,0,0,0,-1,657,1639,0,0
-560,-615,0,0,0,0,0,0,0,0,0,-1,664,1639,0,0
-553,-615,0,0,0,0,0,0,0,0,0,-1,671,1639,0,0
-546,-615,0,0,0,0,0,0,0,0,0,-1,678,1639,0,0
-539,-615,0,0,0,0,0,0,0,0,0,-1,685,1639,0,0
-532,-615,0,0,0,0,0,0,0,0,0,-1,692,1639,0,0
-525,-615,0,0,0,0,0,0,0,0,0,-1,699,1639,0,0
-518,-615,0,0,0,0,0,0,0,0,0,-1,706,1639,0,0
-511,-615,0,0,0,0,0,0,0,0,0,-1,713,1639,0,0
-504,-615,0,0,0,0,0,0,0,0,0,-1,720,1639,0,0
-497,-615,0,0,0,0,0,0,0,0,0,-1,727,1639,0,0
-490,-615,0,0,0,0,0,0,0,0,0,-1,734,1639,0,0
-483,-615,0,0,0,0,0,0,0,0,0,-1,741,1639,0,0
-476,-615,0,0,0,0,0,0,0,0,0,-1,748,1639,0,0
-469,-615,0,0,0,0,0,0,0,0,0,-1,755,1639,0,0
-462,-615,0,0,0,0,0,0,0,0,0,-1,762,1639,0,0
-455,-615,0,0,0,0,0,0,0,0,0,-1,769,1639,0,0
-448,-615,0,0,0,0,0,0,0,0,0,-1,776,1639,0,0
-441,-615,0,0,0,0,0,0,0,0,0,-1,783,1639,0,0
-434,-615,-7.64508,2.98596,0,0,0,0,0,0,0,-1,790,1639,-7.64505,-2.98594
-427,-615,-8.88153,0.496216,0,0,0,0,0,0,0,-1,797,1639,-8.88154,-0.49627
-420,-615,-7.74091,1.49768,0,0,0,0,0,0,0,-1,804,1639,-7.7409,-1.49771
-413,-615,-6.54474,2.53772,0,0,0,0,0,0,0,-1,811,1639,-6.54472,-2.53775
-406,-615,-5.43872,3.50488,0,0,0,0,0,0,0,-1,818,1639,-5.43874,-3.50493
-399,-615,-4.84875,3.91907,0,0,0,0,0,0,0,-1,825,1639,-4.84877,-3.91901
-392,-615,-3.4469,5.28418,0,0,0,0,0,0,0,-1,832,1639,-3.44689,-5.28422
-385,-615,3.64203,6.86121,0,0,0,0,0,0,0,-1,839,1639,3.64204,-6.86115
-378,-615,2.87537,7.78845,0,0,0,0,0,0,0,-1,846,1639,2.87535,-7.78845
-371,-615,2.55145,8.15833,0.00404339,-0.000922577,-0.000734227,0.00414967,-0.00102886,-0.143755,0.00316563,0.0478288,853,1639,2.55146,-8.15836
-364,-615,2.297,8.43225,0.00197277,-0.00176448,-0.000626632,0.00207504,-0.00186675,-0.16178,0.00227685,0.0318512,860,1639,2.297,-8.43225
-357,-615,2.30035,8.625,0.00091001,-0.0020849,-0.000425561,0.000969306,-0.00214419,-0.138445,0.00183974,0.0263124,867,1639,2.30034,-8.625
-350,-615,2.22266,8.75671,0.000548085,-0.00210077,-0.00011841,0.000553368,-0.00210605,-0.044584,0.0016203,0.0252115,874,1639,2.22265,-8.75667
-343,-615,2.20148,8.93018,2.15782e-05,-0.00203231,0.000142542,3.14236e-05,-0.00204216,0.0689602,0.00137203,0.0195221,881,1639,2.20147,-8.93021
-336,-615,2.25452,9.11108,4.39386e-05,-0.00148835,0.000445604,0.000164101,-0.00160852,0.263397,0.00113102,0.0108739,888,1639,2.25453,-9.11106
-329,-615,2.24005,9.28943,0.00074522,-0.00102005,0.0007482,0.00101967,-0.0012945,0.351575,0.00133922,0.0105355,895,1639,2.24002,-9.28947
-322,-615,2.23547,9.49146,0.00133734,-0.000923437,0.000997784,0.00171472,-0.00130081,0.361585,0.00174647,0.0112547,902,1639,2.23545,-9.49151
-315,-615,2.24902,9.66943,0.00153778,-0.00100401,0.000815843,0.00177711,-0.00124334,0.285344,0.00175291,0.0129936,909,1639,2.24901,-9.66948
-308,-615,2.22638,9.81616,0.00132576,-0.00126451,0.000344399,0.00137077,-0.00130952,0.129952,0.0015476,0.0190643,916,1639,2.22639,-9.81613
-301,-615,2.23279,9.97424,0.00102752,-0.00173682,-0.00014279,0.00103487,-0.00174418,-0.0514716,0.00162181,0.0131944,923,1639,2.23277,-9.9742
-294,-615,2.22906,10.1399,0.000731056,-0.00272146,-0.000818128,0.000915112,-0.00290551,-0.221288,0.00230346,0.0113162,930,1639,2.22903,-10.1399
-287,-615,2.21515,10.3035,0.000192794,-0.00431768,-0.00153842,0.000667545,-0.00479243,-0.299325,0.00343913,0.0087162,937,1639,2.21517,-10.3034
-280,-615,2.23242,10.4595,-0.00031224,-0.00577831,-0.00233148,0.000547121,-0.00663767,-0.353139,0.0046183,0.0085608,944,1639,2.23242,-10.4595
-273,-615,2.23517,10.6405,-0.000743009,-0.00756322,-0.00314863,0.000488298,-0.00879452,-0.372777,0.00603237,0.00913785,951,1639,2.23516,-10.6405
-266,-615,2.22668,10.8099,-0.00117288,-0.00966031,-0.00393673,0.000371922,-0.0112051,-0.373944,0.00759709,0.00945798,958,1639,2.22671,-10.8099
-259,-615,2.25281,10.9398,-0.00169148,-0.0121679,-0.00466343,8.36099e-05,-0.013943,-0.363707,0.00932334,0.00997465,965,1639,2.25282,-10.9399
-252,-615,2.26019,11.0659,-0.00228298,-0.0152252,-0.00510658,-0.000510758,-0.0169974,-0.334041,0.0111652,0.011061,972,1639,2.26016,-11.0659
-245,-615,2.2229,11.217,-0.00187297,-0.0176621,-0.00521439,-0.000306351,-0.0192287,-0.291863,0.0127182,0.0187716,979,1639,2.22291,-11.217
-238,-615,2.23755,11.4061,-0.0012371,-0.0205287,-0.00501613,-1.07782e-05,-0.0217551,-0.239772,0.0144998,0.0280152,986,1639,2.23757,-11.4061
-231,-615,2.24878,11.5504,-0.000284867,-0.0224939,-0.00396171,0.000400672,-0.0231795,-0.171344,0.0155883,0.0360888,993,1639,2.24879,-11.5505
-224,-615,2.39807,11.6847,0,0,0,0,0,0,0,-1,1000,1639,2.39809,-11.6846
-217,-615,2.65784,11.48,0,0,0,0,0,0,0,-1,1007,1639,2.65786,-11.4799
-210,-615,2.49847,11.3265,0,0,0,0,0,0,0,-1,1014,1639,2.49849,-11.3265
-203,-615,1.25806,11.6941,0,0,0,0,0,0,0,-1,1021,1639,1.25806,-11.6941
-196,-615,1.94214,12.0535,0.0186217,-0.029079,0.000603264,0.0186293,-0.0290866,0.0126442,0.0277685,0.0468658,1028,1639,1.94208,-12.0535
-189,-615,2.5929,12.5831,0,0,0,0,0,0,0,-1,1035,1639,2.59296,-12.5831
-182,-615,2.92456,13.3258,0,0,0,0,0,0,0,-1,1042,1639,2.92457,-13.3258
-175,-615,-0.609985,13.8434,0,0,0,0,0,0,0,-1,1049,1639,-0.610016,-13.8434
-168,-615,2.02783,9.96631,0,0,0,0,0,0,0,-1,1056,1639,2.0278,-9.96637
-161,-615,3.29114,11.3375,0,0,0,0,0,0,0,-1,1063,1639,3.29112,-11.3375
-154,-615,3.46436,11.5576,0,0,0,0,0,0,0,-1,1070,1639,3.46441,-11.5576
-147,-615,3.6377,11.7776,0,0,0,0,0,0,0,-1,1077,1639,3.63769,-11.7776
-140,-615,3.73401,10.2349,0,0,0,0,0,0,0,-1,1084,1639,3.73402,-10.2348
-133,-615,3.88013,11.3654,0,0,0,0,0,0,0,-1,1091,1639,3.88015,-11.3654
-126,-615,4.43408,12.5017,0,0,0,0,0,0,0,-1,1098,1639,4.43403,-12.5018
-119,-615,4.82983,13.9279,0,0,0,0,0,0,0,-1,1105,1639,4.82986,-13.9278
-112,-615,3.65698,14.4874,0,0,0,0,0,0,0,-1,1112,1639,3.65695,-14.4875
-105,-615,0.958496,2.45398,0,0,0,0,0,0,0,-1,1119,1639,0.958452,-2.45398
-98,-615,-0.647705,2.12109,0,0,0,0,0,0,0,-1,1126,1639,-0.647756,-2.12105
-91,-615,-1.48572,0.604492,0,0,0,0,0,0,0,-1,1133,1639,-1.48576,-0.604443
-84,-615,-2.46509,0.703247,0,0,0,0,0,0,0,-1,1140,1639,-2.46505,-0.703273
-77,-615,-3.17859,1.23755,0,0,0,0,0,0,0,-1,1147,1639,-3.17865,-1.23752
-70,-615,-4.03943,1.43335,0,0,0,0,0,0,0,-1,1154,1639,-4.03942,-1.43339
-63,-615,-4.8877,1.45544,0,0,0,0,0,0,0,-1,1161,1639,-4.88766,-1.45549
-56,-615,0,0,0,0,0,0,0,0,0,-1,1168,1639,0,0
-49,-615,0,0,0,0,0,0,0,0,0,-1,1175,1639,0,0
-42,-615,0,0,0,0,0,0,0,0,0,-1,1182,1639,0,0
-35,-615,0,0,0,0,0,0,0,0,0,-1,1189,1639,0,0
-28,-615,0,0,0,0,0,0,0,0,0,-1,1196,1639,0,0
-21,-615,0,0,0,0,0,0,0,0,0,-1,1203,1639,0,0
-14,-615,0,0,0,0,0,0,0,0,0,-1,1210,1639,0,0
-7,-615,0,0,0,0,0,0,0,0,0,-1,1217,1639,0,0
0,-615,0,0,0,0,0,0,0,0,0,-1,1224,1639,0,0
7,-615,0,0,0,0,0,0,0,0,0,-1,1231,1639,0,0
14,-615,0,0,0,0,0,0,0,0,0,-1,1238,1639,0,0
21,-615,0,0,0,0,0,0,0,0,0,-1,1245,1639,0,0
28,-615,0,0,0,0,0,0,0,0,0,-1,1252,1639,0,0
35,-615,0,0,0,0,0,0,0,0,0,-1,1259,1639,0,0
42,-615,0,0,0,0,0,0,0,0,0,-1,1266,1639,0,0
49,-615,0,0,0,0,0,0,0,0,0,-1,1273,1639,0,0
56,-615,0,0,0,0,0,0,0,0,0,-1,1280,1639,0,0
63,-615,0,0,0,0,0,0,0,0,0,-1,1287,1639,0,0
70,-615,0,0,0,0,0,0,0,0,0,-1,1294,1639,0,0
77,-615,0,0,0,0,0,0,0,0,0,-1,1301,1639,0,0
84,-615,0,0,0,0,0,0,0,0,0,-1,1308,1639,0,0
91,-615,0,0,0,0,0,0,0,0,0,-1,1315,1639,0,0
98,-615,0,0,0,0,0,0,0,0,0,-1,1322,1639,0,0
105,-615,0,0,0,0,0,0,0,0,0,-1,1329,1639,0,0
112,-615,0,0,0,0,0,0,0,0,0,-1,1336,1639,0,0
119,-615,0,0,0,0,0,0,0,0,0,-1,1343,1639,0,0
126,-615,0,0,0,0,0,0,0,0,0,-1,1350,1639,0,0
133,-615,0,0,0,0,0,0,0,0,0,-1,1357,1639,0,0
140,-615,0,0,0,0,0,0,0,0,0,-1,1364,1639,0,0
147,-615,0,0,0,0,0,0,0,0,0,-1,1371,1639,0,0
154,-615,0,0,0,0,0,0,0,0,0,-1,1378,1639,0,0
161,-615,0,0,0,0,0,0,0,0,0,-1,1385,1639,0,0
168,-615,0,0,0,0,0,0,0,0,0,-1,1392,1639,0,0
175,-615,5.39648,-2.00879,0,0,0,0,0,0,0,-1,1399,1639,5.3965,2.00881
182,-615,5.65393,-1.51025,0,0,0,0,0,0,0,-1,1406,1639,5.65388,1.51028
189,-615,5.58972,-1.35608,0,0,0,0,0,0,0,-1,1413,1639,5.58967,1.35607
196,-615,5.49915,-0.693604,0,0,0,0,0,0,0,-1,1420,1639,5.4991,0.693602
203,-615,5.33411,-0.226685,0,0,0,0,0,0,0,-1,1427,1639,5.33414,0.226689
210,-615,5.60278,0.108276,0,0,0,0,0,0,0,-1,1434,1639,5.60284,-0.10831
217,-615,6.26331,-0.307373,0,0,0,0,0,0,0,-1,1441,1639,6.26331,0.307372
224,-615,5.45422,-0.333984,0,0,0,0,0,0,0,-1,1448,1639,5.45422,0.333992
231,-615,4.92542,1.80298,0,0,0,0,0,0,0,-1,1455,1639,4.92537,-1.80297
238,-615,4.76355,1.96729,0,0,0,0,0,0,0,-1,1462,1639,4.76357,-1.96734
245,-615,4.08643,3.15906,0,0,0,0,0,0,0,-1,1469,1639,4.08638,-3.159
252,-615,6.37805,3.73889,0,0,0,0,0,0,0,-1,1476,1639,6.37806,-3.73891
259,-615,8.35974,3.16443,0,0,0,0,0,0,0,-1,1483,1639,8.35975,-3.16444
266,-615,10.3414,2.58997,0,0,0,0,0,0,0,-1,1490,1639,10.3414,-2.58996
273,-615,6.57043,1.84766,0,0,0,0,0,0,0,-1,1497,1639,6.5704,-1.84771
280,-615,7.10449,3.23438,0,0,0,0,0,0,0,-1,1504,1639,7.10447,-3.23435
287,-615,7.35779,4.68542,0,0,0,0,0,0,0,-1,1511,1639,7.35776,-4.68546
294,-615,7.63733,6.29114,0,0,0,0,0,0,0,-1,1518,1639,7.63735,-6.29109
301,-615,8.47925,11.452,0,0,0,0,0,0,0,-1,1525,1639,8.47922,-11.452
308,-615,6.8114,10.9059,0,0,0,0,0,0,0,-1,1532,1639,6.81137,-10.9058
315,-615,5.47205,12.715,0,0,0,0,0,0,0,-1,1539,1639,5.47201,-12.7149
322,-615,5.56445,12.717,0.00959054,-0.0260407,0.00127882,0.00963638,-0.0260865,0.0358291,0.0213411,0.0458935,1546,1639,5.56443,-12.717
329,-615,5.55383,12.7572,0.00757211,-0.0203557,0.00107753,0.00761362,-0.0203972,0.0385063,0.016724,0.0469849,1553,1639,5.55382,-12.7572
336,-615,5.5885,12.6012,0,0,0,0,0,0,0,-1,1560,1639,5.58852,-12.6012
343,-615,2.40491,6.50134,0,0,0,0,0,0,0,-1,1567,1639,2.40489,-6.50137
350,-615,5.86145,13.0247,0,0,0,0,0,0,0,-1,1574,1639,5.86142,-13.0246
357,-615,5.58545,12.6968,0,0,0,0,0,0,0,-1,1581,1639,5.58551,-12.6968
364,-615,6.20813,12.2803,0,0,0,0,0,0,0,-1,1588,1639,6.20816,-12.2803
371,-615,6.06702,12.1625,-0.00207117,-0.00526912,0.00509807,0.0016728,-0.00901309,0.633435,0.00663697,0.0388907,1595,1639,6.06697,-12.1625
378,-615,5.94458,12.0864,-0.0030243,-0.00405607,0.00570289,0.00218599,-0.00926636,0.740291,0.00702061,0.0213113,1602,1639,5.94457,-12.0865
385,-615,5.91052,11.9346,-0.00375938,-0.00383964,0.00605388,0.0022545,-0.00985352,0.782084,0.00743533,0.0120979,1609,1639,5.91053,-11.9346
392,-615,5.89966,11.8102,-0.00383238,-0.0040912,0.00592232,0.00196195,-0.00988552,0.774474,0.00733235,0.00920868,1616,1639,5.8997,-11.8102
399,-615,5.90088,11.6945,-0.0035597,-0.00383455,0.00553682,0.00184139,-0.00923565,0.772991,0.00685385,0.0100571,1623,1639,5.90082,-11.6945
406,-615,5.92676,11.5564,-0.00310834,-0.00371613,0.00511755,0.00171433,-0.0085388,0.755742,0.00634169,0.0109623,1630,1639,5.9268,-11.5564
413,-615,5.93567,11.4224,-0.00269538,-0.00326623,0.004563,0.00159111,-0.00755272,0.754162,0.00564082,0.0122874,1637,1639,5.93563,-11.4223
420,-615,5.9397,11.2644,-0.00216141,-0.00274147,0.00381492,0.00137449,-0.00627737,0.747458,0.0047104,0.01324,1644,1639,5.93964,-11.2644
427,-615,5.94568,11.1067,-0.00144901,-0.00234958,0.00297408,0.00110868,-0.00490727,0.710267,0.00369691,0.0142442,1651,1639,5.94562,-11.1067
434,-615,5.95679,10.9589,-0.000767562,-0.00202067,0.00214707,0.000842509,-0.00363074,0.643431,0.00274478,0.0133005,1658,1639,5.95683,-10.9588
441,-615,5.95288,10.8163,-9.42313e-05,-0.00175451,0.0012802,0.000601423,-0.00245017,0.497758,0.0018665,0.0139588,1665,1639,5.95283,-10.8163
448,-615,5.9397,10.6805,0.000496828,-0.00126066,0.000321634,0.00055384,-0.00131767,0.175435,0.00111011,0.015496,1672,1639,5.93966,-10.6806
455,-615,5.93872,10.5348,0.000975855,-0.00106101,-0.000544938,0.00111248,-0.00119764,-0.245656,0.00133405,0.0145506,1679,1639,5.93872,-10.5348
462,-615,5.92334,10.3832,0.00140169,-0.000773429,-0.00138973,0.00207882,-0.00145056,-0.453388,0.00204842,0.0147456,1686,1639,5.92333,-10.3832
469,-615,5.90405,10.2173,0.00172413,-0.000384596,-0.00213125,0.00304757,-0.00170803,-0.555692,0.00278171,0.0120895,1693,1639,5.90404,-10.2173
476,-615,5.93286,10.0509,0.00190181,-0.000185884,-0.00273935,0.00378945,-0.00207353,-0.603363,0.00343298,0.0099195,1700,1639,5.93282,-10.0509
483,-615,5.94092,9.87793,0.00201588,-0.00042863,-0.00316089,0.0041826,-0.00259535,-0.600913,0.00394886,0.0131015,1707,1639,5.94088,-9.87795
490,-615,5.94946,9.70605,0.00209965,-0.000485951,-0.0037422,0.00476607,-0.00315237,-0.619084,0.00460325,0.015432,1714,1639,5.94952,-9.70603
497,-615,5.94226,9.57336,0.00229583,-0.000428543,-0.00440342,0.00554295,-0.00367566,-0.635393,0.00535863,0.0230731,1721,1639,5.9423,-9.57341
504,-615,5.86365,9.39392,0.00259013,-0.000965018,-0.00468079,0.00581951,-0.00419439,-0.60393,0.00580685,0.0437675,1728,1639,5.8637,-9.39396
511,-615,5.89392,9.12671,0,0,0,0,0,0,0,-1,1735,1639,5.89391,-9.12677
518,-615,6.46326,8.26929,0,0,0,0,0,0,0,-1,1742,1639,6.46326,-8.26927
525,-615,4.37524,3.90491,0,0,0,0,0,0,0,-1,1749,1639,4.37518,-3.90495
532,-615,7.3645,0.848145,0,0,0,0,0,0,0,-1,1756,1639,7.36451,-0.848093
539,-615,12.8112,-0.0476074,0,0,0,0,0,0,0,-1,1763,1639,12.8111,0.0475553
546,-615,8.33813,2.94556,0,0,0,0,0,0,0,-1,1770,1639,8.33813,-2.9455
553,-615,5.82532,-2.04199,0,0,0,0,0,0,0,-1,1777,1639,5.82534,2.04195
560,-615,0,0,0,0,0,0,0,0,0,-1,1784,1639,0,0
567,-615,0,0,0,0,0,0,0,0,0,-1,1791,1639,0,0
574,-615,0,0,0,0,0,0,0,0,0,-1,1798,1639,0,0
581,-615,0,0,0,0,0,0,0,0,0,-1,1805,1639,0,0
588,-615,0,0,0,0,0,0,0,0,0,-1,1812,1639,0,0
595,-615,0,0,0,0,0,0,0,0,0,-1,1819,1639,0,0
602,-615,0,0,0,0,0,0,0,0,0,-1,1826,1639,0,0
609,-615,0,0,0,0,0,0,0,0,0,-1,1833,1639,0,0
616,-615,0,0,0,0,0,0,0,0,0,-1,1840,1639,0,0
623,-615,0,0,0,0,0,0,0,0,0,-1,1847,1639,0,0
630,-615,0,0,0,0,0,0,0,0,0,-1,1854,1639,0,0
637,-615,0,0,0,0,0,0,0,0,0,-1,1861,1639,0,0
644,-615,0,0,0,0,0,0,0,0,0,-1,1868,1639,0,0
651,-615,0,0,0,0,0,0,0,0,0,-1,1875,1639,0,0
658,-615,0,0,0,0,0,0,0,0,0,-1,1882,1639,0,0
665,-615,0,0,0,0,0,0,0,0,0,-1,1889,1639,0,0
672,-615,0,0,0,0,0,0,0,0,0,-1,1896,1639,0,0
679,-615,0,0,0,0,0,0,0,0,0,-1,1903,1639,0,0
686,-615,0,0,0,0,0,0,0,0,0,-1,1910,1639,0,0
693,-615,0,0,0,0,0,0,0,0,0,-1,1917,1639,0,0
700,-615,0,0,0,0,0,0,0,0,0,-1,1924,1639,0,0
707,-615,0,0,0,0,0,0,0,0,0,-1,1931,1639,0,0
714,-615,0,0,0,0,0,0,0,0,0,-1,1938,1639,0,0
721,-615,0,0,0,0,0,0,0,0,0,-1,1945,1639,0,0
728,-615,0,0,0,0,0,0,0,0,0,-1,1952,1639,0,0
735,-615,0,0,0,0,0,0,0,0,0,-1,1959,1639,0,0
742,-615,0,0,0,0,0,0,0,0,0,-1,1966,1639,0,0
749,-615,0,0,0,0,0,0,0,0,0,-1,1973,1639,0,0
756,-615,0,0,0,0,0,0,0,0,0,-1,1980,1639,0,0
763,-615,0,0,0,0,0,0,0,0,0,-1,1987,1639,0,0
770,-615,0,0,0,0,0,0,0,0,0,-1,1994,1639,0,0
777,-615,0,0,0,0,0,0,0,0,0,-1,2001,1639,0,0
784,-615,0,0,0,0,0,0,0,0,0,-1,2008,1639,0,0
791,-615,0,0,0,0,0,0,0,0,0,-1,2015,1639,0,0
798,-615,0,0,0,0,0,0,0,0,0,-1,2022,1639,0,0
805,-615,0,0,0,0,0,0,0,0,0,-1,2029,1639,0,0
812,-615,0,0,0,0,0,0,0,0,0,-1,2036,1639,0,0
-700,-622,0,0,0,0,0,0,0,0,0,-1,524,1646,0,0
-693,-622,0,0,0,0,0,0,0,0,0,-1,531,1646,0,0
-686,-622,0,0,0,0,0,0,0,0,0,-1,538,1646,0,0
-679,-622,0,0,0,0,0,0,0,0,0,-1,545,1646,0,0
-672,-622,0,0,0,0,0,0,0,0,0,-1,552,1646,0,0
-665,-622,0,0,0,0,0,0,0,0,0,-1,559,1646,0,0
-658,-622,0,0,0,0,0,0,0,0,0,-1,566,1646,0,0
-651,-622,0,0,0,0,0,0,0,0,0,-1,573,1646,0,0
-644,-622,0,0,0,0,0,0,0,0,0,-1,580,1646,0,0
-637,-622,0,0,0,0,0,0,0,0,0,-1,587,1646,0,0
-630,-622,0,0,0,0,0,0,0,0,0,-1,594,1646,0,0
-623,-622,0,0,0,0,0,0,0,0,0,-1,601,1646,0,0
-616,-622,0,0,0,0,0,0,0,0,0,-1,608,1646,0,0
-609,-622,0,0,0,0,0,0,0,0,0,-1,615,1646,0,0
-602,-622,0,0,0,0,0,0,0,0,0,-1,622,1646,0,0
-595,-622,0,0,0,0,0,0,0,0,0,-1,629,1646,0,0
-588,-622,0,0,0,0,0,0,0,0,0,-1,636,1646,0,0
-581,-622,0,0,0,0,0,0,0,0,0,-1,643,1646,0,0
-574,-622,0,0,0,0,0,0,0,0,0,-1,650,1646,0,0
-567,-622,0,0,0,0,0,0,0,0,0,-1,657,1646,0,0
-560,-622,0,0,0,0,0,0,0,0,0,-1,664,1646,0,0
-553,-622,0,0,0,0,0,0,0,0,0,-1,671,1646,0,0
-546,-622,0,0,0,0,0,0,0,0,0,-1,678,1646,0,0
-539,-622,0,0,0,0,0,0,0,0,0,-1,685,1646,0,0
-532,-622,0,0,0,0,0,0,0,0,0,-1,692,1646,0,0
-525,-622,0,0,0,0,0,0,0,0,0,-1,699,1646,0,0
-518,-622,0,0,0,0,0,0,0,0,0,-1,706,1646,0,0
-511,-622,0,0,0,0,0,0,0,0,0,-1,713,1646,0,0
-504,-622,0,0,0,0,0,0,0,0,0,-1,720,1646,0,0
-497,-622,0,0,0,0,0,0,0,0,0,-1,727,1646,0,0
-490,-622,0,0,0,0,0,0,0,0,0,-1,734,1646,0,0
-483,-622,0,0,0,0,0,0,0,0,0,-1,741,1646,0,0
-476,-622,0,0,0,0,0,0,0,0,0,-1,748,1646,0,0
-469,-622,0,0,0,0,0,0,0,0,0,-1,755,1646,0,0
-462,-622,0,0,0,0,0,0,0,0,0,-1,762,1646,0,0
-455,-622,0,0,0,0,0,0,0,0,0,-1,769,1646,0,0
-448,-622,0,0,0,0,0,0,0,0,0,-1,776,1646,0,0
-441,-622,0,0,0,0,0,0,0,0,0,-1,783,1646,0,0
-434,-622,0,0,0,0,0,0,0,0,0,-1,790,1646,0,0
-427,-622,-7.62891,3.48096,0,0,0,0,0,0,0,-1,797,1646,-7.62892,-3.48092
-420,-622,-9.86938,0.0371094,0,0,0,0,0,0,0,-1,804,1646,-9.86937,-0.0371326
-413,-622,-8.5658,1.0321,0,0,0,0,0,0,0,-1,811,1646,-8.56579,-1.03216
-406,-622,-4.44318,2.16858,0,0,0,0,0,0,0,-1,818,1646,-4.44315,-2.16859
-399,-622,-7.06976,1.51001,0,0,0,0,0,0,0,-1,825,1646,-7.06976,-1.51005
-392,-622,3.89551,5.85376,0,0,0,0,0,0,0,-1,832,1646,3.8955,-5.85379
-385,-622,4.37762,7.35767,0,0,0,0,0,0,0,-1,839,1646,4.37765,-7.35761
-378,-622,3.52643,7.77087,0,0,0,0,0,0,0,-1,846,1646,3.52642,-7.77093
-371,-622,2.61908,8.29114,0,0,0,0,0,0,0,-1,853,1646,2.61909,-8.29113
-364,-622,2.328,8.50891,0.00607172,-0.00176476,-6.0092e-05,0.00607218,-0.00176522,-0.00766764,0.00474722,0.0460559,860,1646,2.328,-8.50888
-357,-622,2.52545,8.70959,0.00388757,-0.00217341,0.000172313,0.00389247,-0.0021783,0.0283992,0.00355123,0.045452,867,1646,2.52543,-8.70963
-350,-622,2.54022,8.83118,0.00260742,-0.00213923,0.000504558,0.00266046,-0.00219227,0.104738,0.00280607,0.0392393,874,1646,2.54022,-8.83114
-343,-622,2.35736,8.95093,0.00105089,-0.00213323,0.000700872,0.00119834,-0.00228067,0.207349,0.00204075,0.026112,881,1646,2.35735,-8.9509
-336,-622,2.41632,9.09741,0.000478593,-0.00145576,0.00101268,0.000911756,-0.00188893,0.404188,0.00164946,0.010018,888,1646,2.41634,-9.09743
-329,-622,2.40759,9.29956,0.00117215,-0.000763891,0.00133792,0.00185552,-0.00144726,0.472227,0.00191171,0.00900754,895,1646,2.4076,-9.2995
-322,-622,2.40527,9.50244,0.00182372,-0.000485412,0.0016255,0.00266296,-0.00132465,0.476601,0.00234507,0.0104002,902,1646,2.4053,-9.50248
-315,-622,2.40979,9.66052,0.00201387,-0.000399178,0.0014795,0.00271643,-0.00110174,0.443339,0.00226918,0.0138243,909,1646,2.40977,-9.66051
-308,-622,2.41211,9.81274,0.00173975,-0.000445947,0.00104585,0.00215956,-0.000865751,0.381712,0.00179912,0.0141783,916,1646,2.41213,-9.81274
-301,-622,2.39972,9.97571,0.00141748,-0.00073379,0.000601791,0.00157438,-0.000890691,0.255045,0.00144134,0.0130733,923,1646,2.39971,-9.97573
-294,-622,2.38733,10.1428,0.00114307,-0.00143955,1.22218e-05,0.00114313,-0.00143961,0.00473216,0.00149442,0.00995214,930,1646,2.38735,-10.1429
-287,-622,2.3949,10.3016,0.000667409,-0.00265579,-0.000630564,0.000783033,-0.00277142,-0.181351,0.00215654,0.00809821,937,1646,2.39487,-10.3016
-280,-622,2.40442,10.4624,0.000189695,-0.00377697,-0.00133288,0.000595963,-0.00418323,-0.295858,0.00300723,0.00861051,944,1646,2.40441,-10.4624
-273,-622,2.41797,10.6321,-0.000164722,-0.00514754,-0.00201615,0.000548859,-0.00586112,-0.340174,0.00410263,0.0120997,951,1646,2.41796,-10.632
-266,-622,2.39307,10.7993,-0.000498605,-0.00673201,-0.00268655,0.000499469,-0.00773008,-0.355705,0.00532769,0.0114671,958,1646,2.39309,-10.7993
-259,-622,2.39703,10.9628,-0.0008694,-0.00862511,-0.00326071,0.000319303,-0.00981381,-0.34958,0.00665153,0.0102317,965,1646,2.39701,-10.9627
-252,-622,2.41174,11.0997,-0.00125587,-0.010916,-0.00358,-7.37919e-05,-0.0120981,-0.318919,0.0080409,0.0113425,972,1646,2.41176,-11.0997
-245,-622,2.4231,11.2557,-0.000888805,-0.0126852,-0.00364713,0.000147715,-0.0137217,-0.276901,0.00919744,0.00895103,979,1646,2.42311,-11.2557
-238,-622,2.42371,11.4198,-0.000327812,-0.0147424,-0.00352819,0.000489429,-0.0155597,-0.227618,0.0105401,0.00968721,986,1646,2.42372,-11.4198
-231,-622,2.4472,11.5695,0.000564779,-0.0161279,-0.00264119,0.000972711,-0.0165358,-0.153239,0.011362,0.0140107,993,1646,2.44721,-11.5694
-224,-622,2.54987,11.6603,0.00144941,-0.017883,-0.00199526,0.00165318,-0.0180868,-0.101778,0.012645,0.0233942,1000,1646,2.54988,-11.6603
-217,-622,2.63715,11.6449,0.00333591,-0.0189791,-0.00099312,0.00338002,-0.0190232,-0.0443876,0.013946,0.0357186,1007,1646,2.63716,-11.6448
-210,-622,2.55042,11.5537,0.00672765,-0.0197535,-0.000569304,0.00673988,-0.0197657,-0.0214853,0.015907,0.0454239,1014,1646,2.55043,-11.5538
-203,-622,2.55774,11.4622,0.0103462,-0.0208612,-0.000172268,0.0103472,-0.0208622,-0.00551986,0.0183565,0.0496062,1021,1646,2.55775,-11.4621
-196,-622,2.18616,12.1007,0.0146003,-0.0215538,-5.36109e-05,0.0146004,-0.0215539,-0.00148284,0.021002,0.0481401,1028,1646,2.18613,-12.1007
-189,-622,2.58154,12.3923,0,0,0,0,0,0,0,-1,1035,1646,2.58153,-12.3924
-182,-622,3.68823,12.0679,0,0,0,0,0,0,0,-1,1042,1646,3.68821,-12.0679
-175,-622,2.56091,11.0195,0,0,0,0,0,0,0,-1,1049,1646,2.56095,-11.0195
-168,-622,4.76489,10.7617,0,0,0,0,0,0,0,-1,1056,1646,4.76491,-10.7617
-161,-622,3.09644,11.4742,0,0,0,0,0,0,0,-1,1063,1646,3.09643,-11.4743
-154,-622,2.92554,11.7089,0,0,0,0,0,0,0,-1,1070,1646,2.9255,-11.7089
-147,-622,2.75452,11.9435,0,0,0,0,0,0,0,-1,1077,1646,2.75457,-11.9435
-140,-622,3.15784,10.7809,0,0,0,0,0,0,0,-1,1084,1646,3.15778,-10.7809
-133,-622,3.40173,10.0699,0,0,0,0,0,0,0,-1,1091,1646,3.40173,-10.0699
-126,-622,4.83423,11.7699,0,0,0,0,0,0,0,-1,1098,1646,4.83428,-11.7699
-119,-622,4.06384,13.1715,0,0,0,0,0,0,0,-1,1105,1646,4.06379,-13.1716
-112,-622,4.33276,14.6605,0,0,0,0,0,0,0,-1,1112,1646,4.33281,-14.6605
-105,-622,0.306519,4.38159,0,0,0,0,0,0,0,-1,1119,1646,0.306536,-4.38159
-98,-622,-0.510376,3.5033,0,0,0,0,0,0,0,-1,1126,1646,-0.510393,-3.50324
-91,-622,-1.146,0.975952,0,0,0,0,0,0,0,-1,1133,1646,-1.14599,-0.97597
-84,-622,-2.04895,1.31787,0,0,0,0,0,0,0,-1,1140,1646,-2.0489,-1.31781
-77,-622,-1.80627,0.332275,0,0,0,0,0,0,0,-1,1147,1646,-1.80622,-0.33223
-70,-622,-3.65588,2.28149,0,0,0,0,0,0,0,-1,1154,1646,-3.65589,-2.28155
-63,-622,-2.49683,1.27087,0,0,0,0,0,0,0,-1,1161,1646,-2.49679,-1.27093
-56,-622,-2.44238,-0.575562,0,0,0,0,0,0,0,-1,1168,1646,-2.44242,0.575508
-49,-622,-2.41089,1.38818,0,0,0,0,0,0,0,-1,1175,1646,-2.41088,-1.38815
-42,-622,-2.71497,2.85242,0,0,0,0,0,0,0,-1,1182,1646,-2.71491,-2.85247
-35,-622,-3.0177,4.25842,0,0,0,0,0,0,0,-1,1189,1646,-3.01773,-4.25838
-28,-622,-0.896606,0.678833,0,0,0,0,0,0,0,-1,1196,1646,-0.89661,-0.678835
-21,-622,6.63062,12.6195,0,0,0,0,0,0,0,-1,1203,1646,6.63065,-12.6195
-14,-622,6.52832,13.0504,0,0,0,0,0,0,0,-1,1210,1646,6.52833,-13.0504
-7,-622,6.2821,13.4749,0,0,0,0,0,0,0,-1,1217,1646,6.28209,-13.4748
0,-622,0,0,0,0,0,0,0,0,0,-1,1224,1646,0,0
7,-622,0,0,0,0,0,0,0,0,0,-1,1231,1646,0,0
14,-622,0,0,0,0,0,0,0,0,0,-1,1238,1646,0,0
21,-622,0,0,0,0,0,0,0,0,0,-1,1245,1646,0,0
28,-622,0,0,0,0,0,0,0,0,0,-1,1252,1646,0,0
35,-622,0,0,0,0,0,0,0,0,0,-1,1259,1646,0,0
42,-622,0,0,0,0,0,0,0,0,0,-1,1266,1646,0,0
49,-622,0,0,0,0,0,0,0,0,0,-1,1273,1646,0,0
56,-622,0,0,0,0,0,0,0,0,0,-1,1280,1646,0,0
63,-622,0,0,0,0,0,0,0,0,0,-1,1287,1646,0,0
70,-622,0,0,0,0,0,0,0,0,0,-1,1294,1646,0,0
77,-622,0,0,0,0,0,0,0,0,0,-1,1301,1646,0,0
84,-622,0,0,0,0,0,0,0,0,0,-1,1308,1646,0,0
91,-622,0,0,0,0,0,0,0,0,0,-1,1315,1646,0,0
98,-622,0,0,0,0,0,0,0,0,0,-1,1322,1646,0,0
105,-622,0,0,0,0,0,0,0,0,0,-1,1329,1646,0,0
112,-622,0,0,0,0,0,0,0,0,0,-1,1336,1646,0,0
119,-622,0,0,0,0,0,0,0,0,0,-1,1343,1646,0,0
126,-622,10.2715,2.68677,0,0,0,0,0,0,0,-1,1350,1646,10.2715,-2.68682
133,-622,11.8258,1.63623,0,0,0,0,0,0,0,-1,1357,1646,11.8259,-1.63624
140,-622,12.7906,0.00170898,0.361418,0.0881609,-0.274233,0.531173,-0.0815943,-0.554286,0.384213,0.0480152,1364,1646,12.7906,-0.00173178
147,-622,14.9331,-1.63586,0.408329,0.106191,-0.288993,0.583357,-0.0688366,-0.544561,0.413763,0.0458618,1371,1646,14.9332,1.63588
154,-622,17.1903,-3.24805,0,0,0,0,0,0,0,-1,1378,1646,17.1903,3.24802
161,-622,10.6884,6.46448,0,0,0,0,0,0,0,-1,1385,1646,10.6883,-6.46442
168,-622,12.2402,5.18091,0,0,0,0,0,0,0,-1,1392,1646,12.2403,-5.1809
175,-622,5.64355,-1.77075,0,0,0,0,0,0,0,-1,1399,1646,5.64351,1.77077
182,-622,5.88586,-1.32251,0,0,0,0,0,0,0,-1,1406,1646,5.88587,1.32256
189,-622,5.97986,-1.18005,0,0,0,0,0,0,0,-1,1413,1646,5.97986,1.18003
196,-622,5.85022,-0.244507,0,0,0,0,0,0,0,-1,1420,1646,5.85026,0.244478
203,-622,5.25159,0.138794,0,0,0,0,0,0,0,-1,1427,1646,5.25162,-0.138822
210,-622,6.66833,0.0397949,0,0,0,0,0,0,0,-1,1434,1646,6.6684,-0.0398278
217,-622,6.12061,0.0506592,0,0,0,0,0,0,0,-1,1441,1646,6.12058,-0.0507181
224,-622,5.57275,0.0616455,0,0,0,0,0,0,0,-1,1448,1646,5.57276,-0.0616084
231,-622,5.31348,1.3949,0,0,0,0,0,0,0,-1,1455,1646,5.31342,-1.39495
238,-622,3.76477,2.90686,0,0,0,0,0,0,0,-1,1462,1646,3.7648,-2.90686
245,-622,5.13794,2.67993,0,0,0,0,0,0,0,-1,1469,1646,5.13796,-2.67992
252,-622,6.66528,2.53992,0,0,0,0,0,0,0,-1,1476,1646,6.66522,-2.53991
259,-622,8.93787,3.31458,0,0,0,0,0,0,0,-1,1483,1646,8.93791,-3.31454
266,-622,5.72644,3.11926,0,0,0,0,0,0,0,-1,1490,1646,5.72647,-3.1192
273,-622,7.28076,3.61218,0,0,0,0,0,0,0,-1,1497,1646,7.28071,-3.61212
280,-622,8.43127,4.4447,0,0,0,0,0,0,0,-1,1504,1646,8.43123,-4.44467
287,-622,8.60315,5.94617,0,0,0,0,0,0,0,-1,1511,1646,8.60319,-5.94622
294,-622,7.62756,11.5143,0,0,0,0,0,0,0,-1,1518,1646,7.62762,-11.5143
301,-622,7.36548,11.6569,0,0,0,0,0,0,0,-1,1525,1646,7.36549,-11.6569
308,-622,7.10339,11.7994,0,0,0,0,0,0,0,-1,1532,1646,7.10335,-11.7995
315,-622,5.04114,13.4827,0,0,0,0,0,0,0,-1,1539,1646,5.04111,-13.4827
322,-622,5.30286,13.3622,0.00788881,-0.0177952,0.00103127,0.00793015,-0.0178365,0.0400661,0.0152385,0.0436843,1546,1646,5.30291,-13.3622
329,-622,5.49963,13.2466,0.00635276,-0.0136401,0.000847713,0.00638864,-0.013676,0.0422995,0.0118363,0.0430135,1553,1646,5.49964,-13.2466
336,-622,5.79822,12.9832,0,0,0,0,0,0,0,-1,1560,1646,5.79824,-12.9831
343,-622,6.13086,12.5198,0,0,0,0,0,0,0,-1,1567,1646,6.13085,-12.5198
350,-622,5.75513,12.8167,0.00241127,-0.00637434,0.00171855,0.00273547,-0.00669855,0.186457,0.00560464,0.0495275,1574,1646,5.75508,-12.8167
357,-622,5.62976,12.5504,0.00116422,-0.00467338,0.00227328,0.00194505,-0.0054542,0.330852,0.00442921,0.0414331,1581,1646,5.62972,-12.5504
364,-622,5.80603,12.2488,-0.000157542,-0.00399534,0.00296666,0.00145672,-0.0056096,0.498329,0.0043082,0.0336917,1588,1646,5.80608,-12.2487
371,-622,5.82971,12.1754,-0.000895462,-0.0035362,0.00342572,0.00145553,-0.0058872,0.601457,0.00448933,0.0195342,1595,1646,5.82969,-12.1754
378,-622,5.78345,12.0906,-0.00165333,-0.00283069,0.00388697,0.00168928,-0.0061733,0.710244,0.00477921,0.0105204,1602,1646,5.78347,-12.0905
385,-622,5.75891,11.9614,-0.00223384,-0.0027158,0.00414599,0.00167817,-0.00662781,0.756369,0.00507134,0.0091445,1609,1646,5.75896,-11.9614
392,-622,5.75647,11.8297,-0.00231745,-0.00285168,0.00401901,0.00144331,-0.00661244,0.752215,0.0049599,0.0095657,1616,1646,5.75651,-11.8297
399,-622,5.75806,11.6924,-0.00213642,-0.00254745,0.00368479,0.00134858,-0.00603245,0.75754,0.00453845,0.00980422,1623,1646,5.75809,-11.6924
406,-622,5.77454,11.5503,-0.00178591,-0.0023969,0.00335145,0.00127394,-0.00545675,0.739947,0.00412852,0.0135261,1630,1646,5.77457,-11.5503
413,-622,5.79236,11.4056,-0.00145427,-0.00199205,0.00290455,0.00119381,-0.00464013,0.739242,0.00355874,0.0154406,1637,1646,5.79233,-11.4057
420,-622,5.79883,11.2635,-0.000999565,-0.00156381,0.00229844,0.001034,-0.00359738,0.724331,0.00280714,0.0148423,1644,1646,5.79878,-11.2636
427,-622,5.80225,11.1078,-0.000364784,-0.0012623,0.00160183,0.000849955,-0.00247704,0.648822,0.00199595,0.0111335,1651,1646,5.8022,-11.1078
434,-622,5.80334,10.9524,0.000256689,-0.00106063,0.000903056,0.000715769,-0.00151971,0.470315,0.00131818,0.0115719,1658,1646,5.8033,-10.9524
441,-622,5.78894,10.8141,0.000888607,-0.000960255,0.000157268,0.000901889,-0.000973537,0.0842556,0.00108304,0.014187,1665,1646,5.78899,-10.8141
448,-622,5.7699,10.6875,0.00144935,-0.000638585,-0.000721615,0.00167448,-0.00086371,-0.302405,0.00149014,0.0128458,1672,1646,5.76985,-10.6875
455,-622,5.76758,10.5265,0.00189784,-0.000618602,-0.00150078,0.00259805,-0.00131881,-0.436544,0.00230125,0.0141166,1679,1646,5.76755,-10.5265
462,-622,5.77148,10.3784,0.00227568,-0.00051106,-0.00230308,0.00357409,-0.00180946,-0.513352,0.00316336,0.0157556,1686,1646,5.7715,-10.3784
469,-622,5.76404,10.2245,0.00254776,-0.000328307,-0.00303717,0.00447013,-0.00225068,-0.564295,0.00395016,0.0166838,1693,1646,5.76404,-10.2245
476,-622,5.80493,10.0519,0.00275188,-0.000284833,-0.00372548,0.00525654,-0.00278949,-0.591895,0.0047176,0.0163706,1700,1646,5.80491,-10.0519
483,-622,5.78284,9.86816,0.00283409,-0.000607423,-0.00427107,0.00571801,-0.00349134,-0.593902,0.00536858,0.023415,1707,1646,5.7828,-9.86822
490,-622,5.79041,9.70056,0.00279852,-0.000733254,-0.00504392,0.00637674,-0.00431148,-0.617016,0.00620913,0.0307465,1714,1646,5.79036,-9.70061
497,-622,5.8396,9.50061,0.0028987,-0.000623643,-0.00594915,0.00734189,-0.00506684,-0.64149,0.00720421,0.0401499,1721,1646,5.8396,-9.50058
504,-622,5.64905,9.42932,0,0,0,0,0,0,0,-1,1728,1646,5.6491,-9.42934
511,-622,5.29004,4.14587,0,0,0,0,0,0,0,-1,1735,1646,5.29008,-4.14589
518,-622,5.6001,1.55359,0,0,0,0,0,0,0,-1,1742,1646,5.60015,-1.5536
525,-622,5.68213,1.32361,0,0,0,0,0,0,0,-1,1749,1646,5.68209,-1.32361
532,-622,5.44202,0.57373,0,0,0,0,0,0,0,-1,1756,1646,5.44196,-0.573705
539,-622,9.32129,1.06116,0,0,0,0,0,0,0,-1,1763,1646,9.32131,-1.0612
546,-622,6.50977,-3.45618,0,0,0,0,0,0,0,-1,1770,1646,6.50981,3.4562
553,-622,0,0,0,0,0,0,0,0,0,-1,1777,1646,0,0
560,-622,0,0,0,0,0,0,0,0,0,-1,1784,1646,0,0
567,-622,0,0,0,0,0,0,0,0,0,-1,1791,1646,0,0
574,-622,0,0,0,0,0,0,0,0,0,-1,1798,1646,0,0
581,-622,0,0,0,0,0,0,0,0,0,-1,1805,1646,0,0
588,-622,0,0,0,0,0,0,0,0,0,-1,1812,1646,0,0
595,-622,0,0,0,0,0,0,0,0,0,-1,1819,1646,0,0
602,-622,0,0,0,0,0,0,0,0,0,-1,1826,1646,0,0
609,-622,0,0,0,0,0,0,0,0,0,-1,1833,1646,0,0
616,-622,0,0,0,0,0,0,0,0,0,-1,1840,1646,0,0
623,-622,0,0,0,0,0,0,0,0,0,-1,1847,1646,0,0
630,-622,0,0,0,0,0,0,0,0,0,-1,1854,1646,0,0
637,-622,0,0,0,0,0,0,0,0,0,-1,1861,1646,0,0
644,-622,0,0,0,0,0,0,0,0,0,-1,1868,1646,0,0
651,-622,0,0,0,0,0,0,0,0,0,-1,1875,1646,0,0
658,-622,0,0,0,0,0,0,0,0,0,-1,1882,1646,0,0
665,-622,0,0,0,0,0,0,0,0,0,-1,1889,1646,0,0
672,-622,0,0,0,0,0,0,0,0,0,-1,1896,1646,0,0
679,-622,0,0,0,0,0,0,0,0,0,-1,1903,1646,0,0
686,-622,0,0,0,0,0,0,0,0,0,-1,1910,1646,0,0
693,-622,0,0,0,0,0,0,0,0,0,-1,1917,1646,0,0
700,-622,0,0,0,0,0,0,0,0,0,-1,1924,1646,0,0
707,-622,0,0,0,0,0,0,0,0,0,-1,1931,1646,0,0
714,-622,0,0,0,0,0,0,0,0,0,-1,1938,1646,0,0
721,-622,0,0,0,0,0,0,0,0,0,-1,1945,1646,0,0
728,-622,0,0,0,0,0,0,0,0,0,-1,1952,1646,0,0
735,-622,0,0,0,0,0,0,0,0,0,-1,1959,1646,0,0
742,-622,0,0,0,0,0,0,0,0,0,-1,1966,1646,0,0
749,-622,0,0,0,0,0,0,0,0,0,-1,1973,1646,0,0
756,-622,0,0,0,0,0,0,0,0,0,-1,1980,1646,0,0
763,-622,0,0,0,0,0,0,0,0,0,-1,1987,1646,0,0
770,-622,0,0,0,0,0,0,0,0,0,-1,1994,1646,0,0
777,-622,0,0,0,0,0,0,0,0,0,-1,2001,1646,0,0
784,-622,0,0,0,0,0,0,0,0,0,-1,2008,1646,0,0
791,-622,0,0,0,0,0,0,0,0,0,-1,2015,1646,0,0
798,-622,0,0,0,0,0,0,0,0,0,-1,2022,1646,0,0
805,-622,0,0,0,0,0,0,0,0,0,-1,2029,1646,0,0
812,-622,0,0,0,0,0,0,0,0,0,-1,2036,1646,0,0
-700,-629,0,0,0,0,0,0,0,0,0,-1,524,1653,0,0
-693,-629,0,0,0,0,0,0,0,0,0,-1,531,1653,0,0
-686,-629,0,0,0,0,0,0,0,0,0,-1,538,1653,0,0
-679,-629,0,0,0,0,0,0,0,0,0,-1,545,1653,0,0
-672,-629,0,0,0,0,0,0,0,0,0,-1,552,1653,0,0
-665,-629,0,0,0,0,0,0,0,0,0,-1,559,1653,0,0
-658,-629,0,0,0,0,0,0,0,0,0,-1,566,1653,0,0
-651,-629,0,0,0,0,0,0,0,0,0,-1,573,1653,0,0
-644,-629,0,0,0,0,0,0,0,0,0,-1,580,1653,0,0
-637,-629,0,0,0,0,0,0,0,0,0,-1,587,1653,0,0
-630,-629,0,0,0,0,0,0,0,0,0,-1,594,1653,0,0
-623,-629,0,0,0,0,0,0,0,0,0,-1,601,1653,0,0
-616,-629,0,0,0,0,0,0,0,0,0,-1,608,1653,0,0
-609,-629,0,0,0,0,0,0,0,0,0,-1,615,1653,0,0
-602,-629,0,0,0,0,0,0,0,0,0,-1,622,1653,0,0
-595,-629,0,0,0,0,0,0,0,0,0,-1,629,1653,0,0
-588,-629,0,0,0,0,0,0,0,0,0,-1,636,1653,0,0
-581,-629,0,0,0,0,0,0,0,0,0,-1,643,1653,0,0
-574,-629,0,0,0,0,0,0,0,0,0,-1,650,1653,0,0
-567,-629,0,0,0,0,0,0,0,0,0,-1,657,1653,0,0
-560,-629,0,0,0,0,0,0,0,0,0,-1,664,1653,0,0
-553,-629,0,0,0,0,0,0,0,0,0,-1,671,1653,0,0
-546,-629,0,0,0,0,0,0,0,0,0,-1,678,1653,0,0
-539,-629,0,0,0,0,0,0,0,0,0,-1,685,1653,0,0
-532,-629,0,0,0,0,0,0,0,0,0,-1,692,1653,0,0
-525,-629,0,0,0,0,0,0,0,0,0,-1,699,1653,0,0
-518,-629,0,0,0,0,0,0,0,0,0,-1,706,1653,0,0
-511,-629,0,0,0,0,0,0,0,0,0,-1,713,1653,0,0
-504,-629,0,0,0,0,0,0,0,0,0,-1,720,1653,0,0
-497,-629,0,0,0,0,0,0,0,0,0,-1,727,1653,0,0
-490,-629,0,0,0,0,0,0,0,0,0,-1,734,1653,0,0
-483,-629,0,0,0,0,0,0,0,0,0,-1,741,1653,0,0
-476,-629,0,0,0,0,0,0,0,0,0,-1,748,1653,0,0
-469,-629,0,0,0,0,0,0,0,0,0,-1,755,1653,0,0
-462,-629,0,0,0,0,0,0,0,0,0,-1,762,1653,0,0
-455,-629,0,0,0,0,0,0,0,0,0,-1,769,1653,0,0
-448,-629,0,0,0,0,0,0,0,0,0,-1,776,1653,0,0
-441,-629,0,0,0,0,0,0,0,0,0,-1,783,1653,0,0
-434,-629,0,0,0,0,0,0,0,0,0,-1,790,1653,0,0
-427,-629,0,0,0,0,0,0,0,0,0,-1,797,1653,0,0
-420,-629,-3.87103,3.37634,0,0,0,0,0,0,0,-1,804,1653,-3.87101,-3.37633
-413,-629,-5.69751,1.33582,0,0,0,0,0,0,0,-1,811,1653,-5.69754,-1.3358
-406,-629,2.85406,6.01501,0,0,0,0,0,0,0,-1,818,1653,2.85405,-6.01507
-399,-629,3.37085,6.61816,0,0,0,0,0,0,0,-1,825,1653,3.37087,-6.61822
-392,-629,3.80743,7.15393,0,0,0,0,0,0,0,-1,832,1653,3.80741,-7.15391
-385,-629,4.31525,7.66785,0,0,0,0,0,0,0,-1,839,1653,4.31525,-7.6679
-378,-629,4.29962,8.28577,0,0,0,0,0,0,0,-1,846,1653,4.29962,-8.28577
-371,-629,2.38208,7.67065,0,0,0,0,0,0,0,-1,853,1653,2.38207,-7.67069
-364,-629,2.34247,8.66565,0,0,0,0,0,0,0,-1,860,1653,2.34248,-8.66568
-357,-629,2.64899,8.78552,0,0,0,0,0,0,0,-1,867,1653,2.64896,-8.78546
-350,-629,2.66058,8.88745,0.00606647,-0.00203035,0.00154834,0.00635245,-0.00231634,0.182646,0.0051826,0.0488532,874,1653,2.66057,-8.8874
-343,-629,2.59692,8.99866,0.00309869,-0.00222042,0.00158235,0.00353381,-0.00265554,0.268355,0.0035854,0.0390638,881,1653,2.59694,-8.99863
-336,-629,2.57263,9.10254,0.00166561,-0.00156154,0.00184372,0.00250213,-0.00239805,0.425934,0.00282933,0.0185231,888,1653,2.57265,-9.10254
-329,-629,2.5899,9.29407,0.00220764,-0.000624473,0.0021249,0.00334509,-0.00176192,0.491485,0.00299539,0.0115339,895,1653,2.5899,-9.29408
-322,-629,2.60052,9.47424,0.00274786,-0.000149156,0.00237519,0.00408138,-0.00148268,0.511583,0.00332715,0.0120785,902,1653,2.60051,-9.47429
-315,-629,2.5816,9.62866,0.00274245,0.000145948,0.00220691,0.00400465,-0.00111625,0.519525,0.00310937,0.0156638,909,1653,2.58158,-9.62872
-308,-629,2.57324,9.80957,0.00223408,0.000359934,0.00175116,0.00328313,-0.000689107,0.539725,0.00245096,0.0125595,916,1653,2.57325,-9.80954
-301,-629,2.58539,10.0013,0.00173584,0.000264886,0.00127502,0.0024723,-0.000471571,0.52379,0.00182581,0.0101475,923,1653,2.58537,-10.0014
-294,-629,2.56799,10.1494,0.00135432,-0.000172234,0.000706801,0.00163131,-0.000449226,0.3735,0.00126417,0.0105282,930,1653,2.56801,-10.1494
-287,-629,2.56628,10.3153,0.000835946,-0.00104635,8.98453e-05,0.000840225,-0.00105062,0.0475877,0.00109393,0.00883663,937,1653,2.56631,-10.3153
-280,-629,2.58118,10.4978,0.000304629,-0.0018962,-0.000575467,0.000446017,-0.00203758,-0.240921,0.0015289,0.00955414,944,1653,2.58118,-10.4978
-273,-629,2.57709,10.6381,-3.90217e-05,-0.00296118,-0.0011799,0.00037791,-0.00337811,-0.339666,0.00238803,0.0128256,951,1653,2.57706,-10.638
-266,-629,2.56421,10.7913,-0.000324299,-0.00418459,-0.00178331,0.000373417,-0.00488231,-0.372938,0.00338622,0.0129109,958,1653,2.56419,-10.7913
-259,-629,2.56305,10.9904,-0.000591696,-0.0056484,-0.00224767,0.000262937,-0.00650304,-0.363348,0.00442561,0.0136511,965,1653,2.56308,-10.9903
-252,-629,2.56635,11.1255,-0.000828435,-0.00741835,-0.00248452,3.29874e-06,-0.00825009,-0.32304,0.00550116,0.0111194,972,1653,2.56637,-11.1255
-245,-629,2.58472,11.2657,-0.000469148,-0.00877903,-0.00252588,0.00023838,-0.00948656,-0.273112,0.00640531,0.00837779,979,1653,2.58472,-11.2658
-238,-629,2.58746,11.4128,0.000105656,-0.0103203,-0.00242338,0.000641407,-0.0108561,-0.217577,0.00746039,0.00968458,986,1653,2.58747,-11.4128
-231,-629,2.58057,11.5543,0.000946097,-0.0113486,-0.0016858,0.00117306,-0.0115756,-0.133826,0.0081363,0.00997819,993,1653,2.58058,-11.5544
-224,-629,2.63123,11.6851,0.00161536,-0.0126838,-0.00122334,0.00171926,-0.0127877,-0.0847331,0.00915221,0.0100505,1000,1653,2.63121,-11.6851
-217,-629,2.65149,11.7825,0.00296896,-0.0135168,-0.000569319,0.0029886,-0.0135365,-0.0344792,0.010168,0.0144246,1007,1653,2.65149,-11.7825
-210,-629,2.63153,11.8969,0.0054954,-0.0141663,-0.000422883,0.00550449,-0.0141754,-0.0214948,0.011724,0.0291144,1014,1653,2.63155,-11.8969
-203,-629,2.32495,12.0615,0.00818977,-0.0151802,-0.000348497,0.00819497,-0.0151854,-0.0149077,0.0136983,0.040124,1021,1653,2.32492,-12.0615
-196,-629,2.53223,12.0649,0.011197,-0.0159377,-0.000496291,0.0112061,-0.0159468,-0.0182817,0.0157562,0.039727,1028,1653,2.53221,-12.0649
-189,-629,2.896,12.1239,0.0147039,-0.0160703,-0.000716894,0.0147206,-0.016087,-0.0232785,0.0177926,0.0442105,1035,1653,2.89595,-12.1239
-182,-629,3.54395,12.4845,0.0189437,-0.0139656,-0.00106232,0.018978,-0.0139998,-0.0322356,0.0191119,0.0467684,1042,1653,3.54395,-12.4845
-175,-629,2.07312,12.0781,0,0,0,0,0,0,0,-1,1049,1653,2.07311,-12.0782
-168,-629,2.17932,12.5583,0,0,0,0,0,0,0,-1,1056,1653,2.1793,-12.5583
-161,-629,2.45789,12.5031,0.0321415,-0.0056425,-0.0041526,0.0325925,-0.00609351,-0.108183,0.0240185,0.0486398,1063,1653,2.45794,-12.5031
-154,-629,3.03015,11.9921,0.0373475,0.000222206,-0.00461453,0.0379125,-0.000342764,-0.121826,0.02539,0.045519,1070,1653,3.03019,-11.9921
-147,-629,2.55457,11.9164,0,0,0,0,0,0,0,-1,1077,1653,2.55451,-11.9164
-140,-629,2.3335,11.8969,0,0,0,0,0,0,0,-1,1084,1653,2.3335,-11.8969
-133,-629,3.68933,15.5042,0,0,0,0,0,0,0,-1,1091,1653,3.68937,-15.5042
-126,-629,2.69519,10.2487,0,0,0,0,0,0,0,-1,1098,1653,2.69515,-10.2486
-119,-629,4.94177,13.5525,0,0,0,0,0,0,0,-1,1105,1653,4.94172,-13.5525
-112,-629,5.63123,15.9187,0,0,0,0,0,0,0,-1,1112,1653,5.63118,-15.9187
-105,-629,2.15881,4.38342,0,0,0,0,0,0,0,-1,1119,1653,2.15878,-4.38347
-98,-629,0.825806,4.19385,0,0,0,0,0,0,0,-1,1126,1653,0.825779,-4.1939
-91,-629,-0.452271,3.64465,0,0,0,0,0,0,0,-1,1133,1653,-0.452278,-3.6446
-84,-629,-2.6084,0.466797,0,0,0,0,0,0,0,-1,1140,1653,-2.6084,-0.466786
-77,-629,-3.50903,2.10706,0,0,0,0,0,0,0,-1,1147,1653,-3.509,-2.10707
-70,-629,-1.20886,2.52502,0,0,0,0,0,0,0,-1,1154,1653,-1.20886,-2.525
-63,-629,-0.960693,4.30212,0,0,0,0,0,0,0,-1,1161,1653,-0.960691,-4.30215
-56,-629,-1.31934,5.64343,0,0,0,0,0,0,0,-1,1168,1653,-1.31928,-5.6434
-49,-629,-2.15662,2.57458,0,0,0,0,0,0,0,-1,1175,1653,-2.15656,-2.57459
-42,-629,-2.46326,3.91467,0,0,0,0,0,0,0,-1,1182,1653,-2.4633,-3.91466
-35,-629,-2.67261,5.24292,0,0,0,0,0,0,0,-1,1189,1653,-2.67257,-5.24298
-28,-629,-0.402954,-0.866577,0,0,0,0,0,0,0,-1,1196,1653,-0.402943,0.866612
-21,-629,10.063,9.59705,0,0,0,0,0,0,0,-1,1203,1653,10.063,-9.59708
-14,-629,6.11047,14.9886,0,0,0,0,0,0,0,-1,1210,1653,6.11046,-14.9886
-7,-629,6.26807,13.0237,0,0,0,0,0,0,0,-1,1217,1653,6.26809,-13.0237
0,-629,7.20422,12.2567,-0.0129194,0.00595414,-0.0252832,0.0235042,-0.0304695,-0.964013,0.0312481,0.0471856,1224,1653,7.20424,-12.2567
7,-629,7.8291,11.6517,-0.0196474,-0.0045448,-0.0185505,0.00793245,-0.0321246,-0.97869,0.0244926,0.0452287,1231,1653,7.82915,-11.6518
14,-629,8.11401,11.6364,-0.0237514,-0.0159092,-0.016622,-0.00275205,-0.0369085,-0.901229,0.0237416,0.0425581,1238,1653,8.11396,-11.6364
21,-629,7.99683,12.092,-0.0255989,-0.0262229,-0.0169136,-0.00899442,-0.0428273,-0.776175,0.0260757,0.0459181,1245,1653,7.99685,-12.092
28,-629,3.99683,9.91394,-0.0167304,-0.041503,-0.0208427,-0.00487126,-0.0533621,-0.517299,0.0340673,0.0466733,1252,1653,3.99687,-9.91391
35,-629,4.03149,9.53809,-0.00298758,-0.0532111,-0.0289899,0.0102545,-0.0664532,-0.428479,0.0480861,0.0430817,1259,1653,4.03147,-9.53809
42,-629,4.50732,9.76819,0,0,0,0,0,0,0,-1,1266,1653,4.50734,-9.76817
49,-629,4.65356,9.38916,0.0290162,-0.0775079,-0.0497291,0.0486227,-0.0971144,-0.375554,0.0856799,0.0474114,1273,1653,4.65358,-9.38914
56,-629,4.53845,9.17004,0.0445339,-0.0852355,-0.0621557,0.069501,-0.110203,-0.38196,0.104635,0.0474181,1280,1653,4.53842,-9.17009
63,-629,4.31458,8.1416,0.0647454,-0.0882306,-0.0765861,0.0964972,-0.119982,-0.39302,0.125229,0.0459318,1287,1653,4.31459,-8.1416
70,-629,4.45056,7.56067,0,0,0,0,0,0,0,-1,1294,1653,4.45062,-7.56067
77,-629,4.7561,6.90869,0.118152,-0.101202,-0.103969,0.1596,-0.14265,-0.379345,0.174595,0.0465644,1301,1653,4.75607,-6.90871
84,-629,5.38232,6.50867,0.140517,-0.0910366,-0.114652,0.18768,-0.1382,-0.390259,0.188868,0.0460559,1308,1653,5.38238,-6.50868
91,-629,5.97778,5.828,0.164984,-0.071439,-0.130823,0.223092,-0.129547,-0.417997,0.20597,0.0460276,1315,1653,5.97774,-5.82802
98,-629,6.39685,5.25342,0,0,0,0,0,0,0,-1,1322,1653,6.3968,-5.25348
105,-629,6.55347,4.70703,0,0,0,0,0,0,0,-1,1329,1653,6.55341,-4.70707
112,-629,7.52576,4.43835,0.240422,-0.0153488,-0.171917,0.326803,-0.10173,-0.465613,0.258539,0.0489712,1336,1653,7.52573,-4.4383
119,-629,9.08545,3.19385,0,0,0,0,0,0,0,-1,1343,1653,9.08547,-3.19382
126,-629,10.8092,2.09546,0.285252,0.02898,-0.196823,0.391973,-0.0777414,-0.496852,0.290715,0.0439492,1350,1653,10.8092,-2.09541
133,-629,12.3656,1.05786,0,0,0,0,0,0,0,-1,1357,1653,12.3656,-1.05786
140,-629,14.2197,-0.271851,0.334551,0.0738817,-0.227637,0.466525,-0.0580916,-0.5254,0.332078,0.0466771,1364,1653,14.2197,0.271881
147,-629,16.379,-1.74329,0.373046,0.0948277,-0.248091,0.518367,-0.0504931,-0.529881,0.363579,0.0462347,1371,1653,16.379,1.74326
154,-629,18.5643,-3.15576,0,0,0,0,0,0,0,-1,1378,1653,18.5643,3.15579
161,-629,10.5461,6.83752,0,0,0,0,0,0,0,-1,1385,1653,10.5461,-6.83758
168,-629,12.0059,5.56348,0,0,0,0,0,0,0,-1,1392,1653,12.0059,-5.56352
175,-629,5.84485,-1.78845,0,0,0,0,0,0,0,-1,1399,1653,5.84479,1.7884
182,-629,5.99036,-1.27783,0,0,0,0,0,0,0,-1,1406,1653,5.99041,1.27778
189,-629,5.97668,-0.748535,0,0,0,0,0,0,0,-1,1413,1653,5.97671,0.748544
196,-629,4.52869,9.24695,0,0,0,0,0,0,0,-1,1420,1653,4.52869,-9.2469
203,-629,3.75085,6.88037,0,0,0,0,0,0,0,-1,1427,1653,3.75087,-6.88032
210,-629,3.5907,6.52637,0,0,0,0,0,0,0,-1,1434,1653,3.59067,-6.52642
217,-629,2.4585,4.84448,0,0,0,0,0,0,0,-1,1441,1653,2.45855,-4.84448
224,-629,1.31982,3.68481,0,0,0,0,0,0,0,-1,1448,1653,1.31986,-3.68487
231,-629,3.63025,1.73499,0,0,0,0,0,0,0,-1,1455,1653,3.6303,-1.735
238,-629,4.26428,2.11255,0,0,0,0,0,0,0,-1,1462,1653,4.26429,-2.11253
245,-629,5.61816,1.95361,0,0,0,0,0,0,0,-1,1469,1653,5.61815,-1.95359
252,-629,7.27136,2.18982,0,0,0,0,0,0,0,-1,1476,1653,7.27131,-2.18985
259,-629,8.67334,2.18628,0,0,0,0,0,0,0,-1,1483,1653,8.6733,-2.18633
266,-629,6.86475,3.72058,0,0,0,0,0,0,0,-1,1490,1653,6.86479,-3.72063
273,-629,7.9021,3.8717,0,0,0,0,0,0,0,-1,1497,1653,7.90205,-3.87171
280,-629,9.70837,4.39087,0,0,0,0,0,0,0,-1,1504,1653,9.7084,-4.39082
287,-629,9.82947,7.19348,0,0,0,0,0,0,0,-1,1511,1653,9.8295,-7.19347
294,-629,6.56555,11.6359,0,0,0,0,0,0,0,-1,1518,1653,6.5656,-11.6358
301,-629,6.3241,11.889,0,0,0,0,0,0,0,-1,1525,1653,6.32412,-11.889
308,-629,6.08264,12.1423,0,0,0,0,0,0,0,-1,1532,1653,6.08263,-12.1423
315,-629,5.3208,13.4603,0,0,0,0,0,0,0,-1,1539,1653,5.32085,-13.4603
322,-629,5.4314,13.3098,0.0063531,-0.0122642,0.00097047,0.00640355,-0.0123146,0.0519398,0.0109851,0.0434465,1546,1653,5.43135,-13.3098
329,-629,5.51306,13.1239,0.00519713,-0.00921853,0.000785739,0.00523983,-0.00926123,0.0542916,0.00847882,0.038046,1553,1653,5.5131,-13.1239
336,-629,5.66602,12.8835,0.00392766,-0.00693132,0.000808071,0.00398746,-0.00699112,0.0738728,0.00641707,0.039351,1560,1653,5.66597,-12.8835
343,-629,5.78723,12.6016,0.00286802,-0.00545788,0.000970889,0.00297974,-0.0055696,0.114563,0.00501089,0.0389172,1567,1653,5.78718,-12.6016
350,-629,5.6416,12.4828,0.00208252,-0.00388905,0.00124742,0.00233262,-0.00413916,0.197872,0.0037847,0.025592,1574,1653,5.64155,-12.4828
357,-629,5.62903,12.4181,0.00121669,-0.00272922,0.00154914,0.0017522,-0.00326473,0.332822,0.00294007,0.015813,1581,1653,5.62899,-12.4181
364,-629,5.64197,12.2933,0.000301165,-0.00239811,0.001955,0.00132714,-0.00342409,0.483287,0.00283078,0.0137863,1588,1653,5.64193,-12.2934
371,-629,5.64905,12.1786,-0.000282959,-0.00223805,0.00227153,0.00121244,-0.00373345,0.582203,0.00297659,0.0108098,1595,1653,5.649,-12.1786
378,-629,5.6311,12.0698,-0.000873055,-0.00182455,0.00257958,0.00127428,-0.00397188,0.694209,0.00315953,0.0097123,1602,1653,5.63112,-12.0699
385,-629,5.62939,11.9501,-0.0013,-0.00169433,0.00269859,0.00120862,-0.00420295,0.748932,0.00327992,0.0115092,1609,1653,5.62936,-11.9501
392,-629,5.63818,11.8226,-0.00133817,-0.00168271,0.00249711,0.000992605,-0.00401348,0.750959,0.00306065,0.00980066,1616,1653,5.63814,-11.8227
399,-629,5.63586,11.6897,-0.00118517,-0.00129746,0.00212987,0.0008893,-0.00337193,0.772221,0.00259567,0.010396,1623,1653,5.63582,-11.6897
406,-629,5.63794,11.5576,-0.000861687,-0.00108347,0.00179887,0.000829706,-0.00277486,0.754615,0.00217976,0.0136209,1630,1653,5.6379,-11.5576
413,-629,5.63586,11.3911,-0.000530479,-0.000687547,0.00137673,0.000769953,-0.00198798,0.756907,0.00164324,0.0223017,1637,1653,5.63584,-11.3911
420,-629,5.63184,11.246,-8.05361e-05,-0.000336126,0.00084411,0.000645398,-0.00106206,0.710271,0.000995537,0.0197171,1644,1653,5.63182,-11.246
427,-629,5.65015,11.1147,0.000542205,-0.000124999,0.000249016,0.000624896,-0.00020769,0.320611,0.000500406,0.0111318,1651,1653,5.65009,-11.1147
434,-629,5.64343,10.9735,0.00116519,-6.59877e-05,-0.000348324,0.0012569,-0.000157703,-0.257461,0.000895145,0.00938081,1658,1653,5.64339,-10.9735
441,-629,5.64929,10.8347,0.00181977,-0.000156574,-0.000986689,0.00222803,-0.000564841,-0.392324,0.00170511,0.0138776,1665,1653,5.6493,-10.8347
448,-629,5.64514,10.6814,0.00241926,-5.30713e-05,-0.00178599,0.00335516,-0.000988969,-0.48268,0.00262918,0.0135483,1672,1653,5.64518,-10.6814
455,-629,5.63953,10.5244,0.00291474,-0.000243474,-0.00246896,0.00426638,-0.00159512,-0.500889,0.00349932,0.0137242,1679,1653,5.63954,-10.5244
462,-629,5.65051,10.3854,0.0033242,-0.000346366,-0.00322316,0.00519796,-0.00222013,-0.526588,0.00439635,0.0176628,1686,1653,5.65046,-10.3854
469,-629,5.6593,10.22,0.00362001,-0.000436603,-0.0039468,0.00602919,-0.00284578,-0.548041,0.00523269,0.0201916,1693,1653,5.65929,-10.22
476,-629,5.73816,10.0807,0.00391973,-0.000650548,-0.00470329,0.00686363,-0.00359445,-0.559263,0.00613552,0.0253651,1700,1653,5.73819,-10.0807
483,-629,5.71313,9.8717,0.00403003,-0.000962999,-0.00550026,0.00757384,-0.0045068,-0.572356,0.00704929,0.0366991,1707,1653,5.71315,-9.87173
490,-629,5.7583,9.69617,0.00389352,-0.000936374,-0.00666787,0.00857029,-0.00561314,-0.611658,0.00824792,0.04218,1714,1653,5.75836,-9.69611
497,-629,5.74854,9.19702,0.00386859,-0.000610238,-0.00806008,0.00999457,-0.00673622,-0.649896,0.0097204,0.0417243,1721,1653,5.74851,-9.19703
504,-629,5.01123,8.7052,0,0,0,0,0,0,0,-1,1728,1653,5.01122,-8.70515
511,-629,6.29138,3.40295,0,0,0,0,0,0,0,-1,1735,1653,6.29137,-3.403
518,-629,5.84387,1.41858,0,0,0,0,0,0,0,-1,1742,1653,5.84391,-1.4186
525,-629,6.4729,1.02319,0,0,0,0,0,0,0,-1,1749,1653,6.47284,-1.02316
532,-629,6.86511,0.903687,0,0,0,0,0,0,0,-1,1756,1653,6.86514,-0.903691
539,-629,6.60803,0.746704,0,0,0,0,0,0,0,-1,1763,1653,6.60809,-0.746691
546,-629,0,0,0,0,0,0,0,0,0,-1,1770,1653,0,0
553,-629,0,0,0,0,0,0,0,0,0,-1,1777,1653,0,0
560,-629,0,0,0,0,0,0,0,0,0,-1,1784,1653,0,0
567,-629,0,0,0,0,0,0,0,0,0,-1,1791,1653,0,0
574,-629,0,0,0,0,0,0,0,0,0,-1,1798,1653,0,0
581,-629,0,0,0,0,0,0,0,0,0,-1,1805,1653,0,0
588,-629,0,0,0,0,0,0,0,0,0,-1,1812,1653,0,0
595,-629,0,0,0,0,0,0,0,0,0,-1,1819,1653,0,0
602,-629,0,0,0,0,0,0,0,0,0,-1,1826,1653,0,0
609,-629,0,0,0,0,0,0,0,0,0,-1,1833,1653,0,0
616,-629,0,0,0,0,0,0,0,0,0,-1,1840,1653,0,0
623,-629,0,0,0,0,0,0,0,0,0,-1,1847,1653,0,0
630,-629,0,0,0,0,0,0,0,0,0,-1,1854,1653,0,0
637,-629,0,0,0,0,0,0,0,0,0,-1,1861,1653,0,0
644,-629,0,0,0,0,0,0,0,0,0,-1,1868,1653,0,0
651,-629,0,0,0,0,0,0,0,0,0,-1,1875,1653,0,0
658,-629,0,0,0,0,0,0,0,0,0,-1,1882,1653,0,0
665,-629,0,0,0,0,0,0,0,0,0,-1,1889,1653,0,0
672,-629,0,0,0,0,0,0,0,0,0,-1,1896,1653,0,0
679,-629,0,0,0,0,0,0,0,0,0,-1,1903,1653,0,0
686,-629,0,0,0,0,0,0,0,0,0,-1,1910,1653,0,0
693,-629,0,0,0,0,0,0,0,0,0,-1,1917,1653,0,0
700,-629,0,0,0,0,0,0,0,0,0,-1,1924,1653,0,0
707,-629,0,0,0,0,0,0,0,0,0,-1,1931,1653,0,0
714,-629,0,0,0,0,0,0,0,0,0,-1,1938,1653,0,0
721,-629,0,0,0,0,0,0,0,0,0,-1,1945,1653,0,0
728,-629,0,0,0,0,0,0,0,0,0,-1,1952,1653,0,0
735,-629,0,0,0,0,0,0,0,0,0,-1,1959,1653,0,0
742,-629,0,0,0,0,0,0,0,0,0,-1,1966,1653,0,0
749,-629,0,0,0,0,0,0,0,0,0,-1,1973,1653,0,0
756,-629,0,0,0,0,0,0,0,0,0,-1,1980,1653,0,0
763,-629,0,0,0,0,0,0,0,0,0,-1,1987,1653,0,0
770,-629,0,0,0,0,0,0,0,0,0,-1,1994,1653,0,0
777,-629,0,0,0,0,0,0,0,0,0,-1,2001,1653,0,0
784,-629,0,0,0,0,0,0,0,0,0,-1,2008,1653,0,0
791,-629,0,0,0,0,0,0,0,0,0,-1,2015,1653,0,0
798,-629,0,0,0,0,0,0,0,0,0,-1,2022,1653,0,0
805,-629,0,0,0,0,0,0,0,0,0,-1,2029,1653,0,0
812,-629,0,0,0,0,0,0,0,0,0,-1,2036,1653,0,0
-700,-636,0,0,0,0,0,0,0,0,0,-1,524,1660,0,0
-693,-636,0,0,0,0,0,0,0,0,0,-1,531,1660,0,0
-686,-636,0,0,0,0,0,0,0,0,0,-1,538,1660,0,0
-679,-636,0,0,0,0,0,0,0,0,0,-1,545,1660,0,0
-672,-636,0,0,0,0,0,0,0,0,0,-1,552,1660,0,0
-665,-636,0,0,0,0,0,0,0,0,0,-1,559,1660,0,0
-658,-636,0,0,0,0,0,0,0,0,0,-1,566,1660,0,0
-651,-636,0,0,0,0,0,0,0,0,0,-1,573,1660,0,0
-644,-636,0,0,0,0,0,0,0,0,0,-1,580,1660,0,0
-637,-636,0,0,0,0,0,0,0,0,0,-1,587,1660,0,0
-630,-636,0,0,0,0,0,0,0,0,0,-1,594,1660,0,0
-623,-636,0,0,0,0,0,0,0,0,0,-1,601,1660,0,0
-616,-636,0,0,0,0,0,0,0,0,0,-1,608,1660,0,0
-609,-636,0,0,0,0,0,0,0,0,0,-1,615,1660,0,0
-602,-636,0,0,0,0,0,0,0,0,0,-1,622,1660,0,0
-595,-636,0,0,0,0,0,0,0,0,0,-1,629,1660,0,0
-588,-636,0,0,0,0,0,0,0,0,0,-1,636,1660,0,0
-581,-636,0,0,0,0,0,0,0,0,0,-1,643,1660,0,0
-574,-636,0,0,0,0,0,0,0,0,0,-1,650,1660,0,0
-567,-636,0,0,0,0,0,0,0,0,0,-1,657,1660,0,0
-560,-636,0,0,0,0,0,0,0,0,0,-1,664,1660,0,0
-553,-636,0,0,0,0,0,0,0,0,0,-1,671,1660,0,0
-546,-636,0,0,0,0,0,0,0,0,0,-1,678,1660,0,0
-539,-636,0,0,0,0,0,0,0,0,0,-1,685,1660,0,0
-532,-636,0,0,0,0,0,0,0,0,0,-1,692,1660,0,0
-525,-636,0,0,0,0,0,0,0,0,0,-1,699,1660,0,0
-518,-636,0,0,0,0,0,0,0,0,0,-1,706,1660,0,0
-511,-636,0,0,0,0,0,0,0,0,0,-1,713,1660,0,0
-504,-636,0,0,0,0,0,0,0,0,0,-1,720,1660,0,0
-497,-636,0,0,0,0,0,0,0,0,0,-1,727,1660,0,0
-490,-636,0,0,0,0,0,0,0,0,0,-1,734,1660,0,0
-483,-636,0,0,0,0,0,0,0,0,0,-1,741,1660,0,0
-476,-636,0,0,0,0,0,0,0,0,0,-1,748,1660,0,0
-469,-636,0,0,0,0,0,0,0,0,0,-1,755,1660,0,0
-462,-636,0,0,0,0,0,0,0,0,0,-1,762,1660,0,0
-455,-636,0,0,0,0,0,0,0,0,0,-1,769,1660,0,0
-448,-636,0,0,0,0,0,0,0,0,0,-1,776,1660,0,0
-441,-636,0,0,0,0,0,0,0,0,0,-1,783,1660,0,0
-434,-636,0,0,0,0,0,0,0,0,0,-1,790,1660,0,0
-427,-636,0,0,0,0,0,0,0,0,0,-1,797,1660,0,0
-420,-636,0,0,0,0,0,0,0,0,0,-1,804,1660,0,0
-413,-636,0,0,0,0,0,0,0,0,0,-1,811,1660,0,0
-406,-636,3.46503,5.84583,0,0,0,0,0,0,0,-1,818,1660,3.46501,-5.84583
-399,-636,3.95544,6.48499,0.0564168,0.0110211,0.00594534,0.0571825,0.0102554,0.128089,0.0352047,0.0462159,825,1660,3.95546,-6.48502
-392,-636,4.35114,7.07495,0.0484342,0.00780184,0.00388862,0.048803,0.00743304,0.0945587,0.0303625,0.0449516,832,1660,4.35115,-7.07492
-385,-636,4.50122,7.78625,0,0,0,0,0,0,0,-1,839,1660,4.50125,-7.78625
-378,-636,4.69403,8.62219,0,0,0,0,0,0,0,-1,846,1660,4.69405,-8.62216
-371,-636,5.07294,9.22888,0,0,0,0,0,0,0,-1,853,1660,5.07297,-9.2289
-364,-636,2.17108,8.96448,0,0,0,0,0,0,0,-1,860,1660,2.17108,-8.96444
-357,-636,2.21167,9.12,0,0,0,0,0,0,0,-1,867,1660,2.21167,-9.12002
-350,-636,2.90851,8.84668,0,0,0,0,0,0,0,-1,874,1660,2.90851,-8.84663
-343,-636,2.25421,9.14026,0,0,0,0,0,0,0,-1,881,1660,2.25421,-9.14031
-336,-636,2.52405,9.22534,0.00336282,-0.00154027,0.00306498,0.0048361,-0.00301355,0.448071,0.00457253,0.0389198,888,1660,2.52404,-9.2254
-329,-636,2.74786,9.29504,0.0036256,-0.000428539,0.00312122,0.00532023,-0.00212317,0.497405,0.00442761,0.0182272,895,1660,2.74786,-9.29506
-322,-636,2.76825,9.46533,0.00395472,0.00014741,0.00317564,0.00575358,-0.00165144,0.515388,0.00448863,0.011216,902,1660,2.76823,-9.46535
-315,-636,2.74432,9.62854,0.00369714,0.000616026,0.00281394,0.00536463,-0.00105146,0.534947,0.00397355,0.0116598,909,1660,2.74433,-9.62857
-308,-636,2.73096,9.81641,0.00295012,0.00109188,0.00221583,0.00442374,-0.000381742,0.586877,0.00308429,0.0105459,916,1660,2.73097,-9.81644
-301,-636,2.73993,9.99866,0.0022525,0.00113752,0.00159815,0.0033876,2.41469e-06,0.617581,0.0022576,0.00986641,923,1660,2.73992,-9.99869
-294,-636,2.72076,10.1647,0.00171888,0.000919289,0.000969127,0.00236744,0.000270732,0.589767,0.00149624,0.0129217,930,1660,2.72075,-10.1647
-287,-636,2.72101,10.3384,0.00112312,0.000319956,0.000327281,0.00123959,0.000203483,0.341904,0.00076761,0.011873,937,1660,2.72099,-10.3384
-280,-636,2.74176,10.5116,0.000516237,-0.000330252,-0.000331619,0.000630679,-0.000444695,-0.332305,0.000623955,0.0116608,944,1660,2.74177,-10.5116
-273,-636,2.7229,10.6436,0.000144295,-0.00117272,-0.000874113,0.000580184,-0.00160861,-0.462579,0.00130938,0.012562,951,1660,2.72287,-10.6435
-266,-636,2.72961,10.7886,-0.000146845,-0.00213228,-0.00141237,0.000586786,-0.00286591,-0.479073,0.00213327,0.0135141,958,1660,2.72959,-10.7886
-259,-636,2.7442,10.976,-0.000376014,-0.00327823,-0.00175469,0.000449864,-0.0041041,-0.439908,0.00289769,0.0140244,965,1660,2.74421,-10.9759
-252,-636,2.73279,11.13,-0.00053905,-0.00466495,-0.0018938,0.0001984,-0.0054024,-0.371337,0.00366952,0.0106237,972,1660,2.73279,-11.1301
-245,-636,2.74762,11.2773,-0.000234884,-0.00576181,-0.0018866,0.000347693,-0.00634438,-0.299508,0.00435012,0.00984169,979,1660,2.74763,-11.2774
-238,-636,2.75256,11.4125,0.000275892,-0.00695552,-0.00174121,0.000673308,-0.00735294,-0.224397,0.00514111,0.0108607,986,1660,2.75257,-11.4125
-231,-636,2.72888,11.5519,0.00098783,-0.00775352,-0.00111028,0.00112665,-0.00789234,-0.124384,0.00567451,0.0106742,993,1660,2.72886,-11.5519
-224,-636,2.74957,11.6985,0.00150051,-0.0087942,-0.00076682,0.00155731,-0.00885101,-0.073943,0.00648243,0.00915423,1000,1660,2.74959,-11.6985
-217,-636,2.76129,11.8486,0.00247072,-0.009461,-0.000341011,0.00248045,-0.00947074,-0.0285491,0.00728283,0.0107619,1007,1660,2.76128,-11.8486
-210,-636,2.77454,11.9761,0.00434997,-0.0100467,-0.000364097,0.00435917,-0.0100559,-0.0252687,0.00853645,0.014528,1014,1660,2.77455,-11.9761
-203,-636,2.80505,12.0997,0.00635686,-0.0109719,-0.000465359,0.00636935,-0.0109844,-0.0268289,0.0101366,0.0181856,1021,1660,2.80505,-12.0998
-196,-636,2.88354,12.176,0.00845126,-0.0117373,-0.000734639,0.00847795,-0.011764,-0.0363248,0.0117379,0.0194512,1028,1660,2.88349,-12.176
-189,-636,2.91516,12.288,0.0108242,-0.0121333,-0.00106472,0.0108734,-0.0121826,-0.0462457,0.0133186,0.0220137,1035,1660,2.91518,-12.288
-182,-636,2.9209,12.2206,0.0136152,-0.01065,-0.00140077,0.0136958,-0.0107306,-0.057473,0.0141372,0.0383972,1042,1660,2.92094,-12.2206
-175,-636,2.43494,12.2537,0.0163899,-0.00872798,-0.00207464,0.0165601,-0.00889818,-0.0818568,0.0149186,0.0465901,1049,1660,2.43491,-12.2536
-168,-636,2.40967,12.6909,0.0200572,-0.00672081,-0.00287051,0.0203614,-0.00702506,-0.105598,0.0164246,0.0484464,1056,1660,2.40966,-12.6909
-161,-636,2.70361,12.6368,0.0237765,-0.00350925,-0.00323465,0.0241547,-0.00388746,-0.116398,0.0175431,0.0481478,1063,1660,2.70364,-12.6369
-154,-636,3.20923,12.3446,0.0278494,0.0012444,-0.00325897,0.0282428,0.00085101,-0.120129,0.0185514,0.0487424,1070,1660,3.20917,-12.3446
-147,-636,2.57214,12.0704,0,0,0,0,0,0,0,-1,1077,1660,2.57216,-12.0704
-140,-636,3.1925,14.9642,0,0,0,0,0,0,0,-1,1084,1660,3.1925,-14.9642
-133,-636,3.47461,15.0336,0,0,0,0,0,0,0,-1,1091,1660,3.47462,-15.0336
-126,-636,3.75671,15.103,0,0,0,0,0,0,0,-1,1098,1660,3.75674,-15.103
-119,-636,1.8667,13.8916,0,0,0,0,0,0,0,-1,1105,1660,1.86668,-13.8916
-112,-636,-1.24963,9.7998,0,0,0,0,0,0,0,-1,1112,1660,-1.24968,-9.79978
-105,-636,3.51624,4.72791,0,0,0,0,0,0,0,-1,1119,1660,3.51618,-4.7279
-98,-636,1.54504,5.11914,0,0,0,0,0,0,0,-1,1126,1660,1.54503,-5.11912
-91,-636,-1.87964,-2.25012,0,0,0,0,0,0,0,-1,1133,1660,-1.87966,2.25016
-84,-636,-2.84143,0.133667,0,0,0,0,0,0,0,-1,1140,1660,-2.84144,-0.133701
-77,-636,-3.57349,2.45935,0,0,0,0,0,0,0,-1,1147,1660,-3.57345,-2.45939
-70,-636,-4.23682,4.82312,0,0,0,0,0,0,0,-1,1154,1660,-4.23681,-4.82307
-63,-636,-2.21033,6.97168,0,0,0,0,0,0,0,-1,1161,1660,-2.21034,-6.97165
-56,-636,-2.51917,8.80359,0,0,0,0,0,0,0,-1,1168,1660,-2.51916,-8.80361
-49,-636,-3.13,10.4113,0,0,0,0,0,0,0,-1,1175,1660,-3.12996,-10.4112
-42,-636,-2.27771,4.90173,0,0,0,0,0,0,0,-1,1182,1660,-2.27775,-4.90173
-35,-636,-2.27698,5.89685,0,0,0,0,0,0,0,-1,1189,1660,-2.27695,-5.89686
-28,-636,-1.70654,4.83936,0,0,0,0,0,0,0,-1,1196,1660,-1.70656,-4.8393
-21,-636,5.125,16.9767,0,0,0,0,0,0,0,-1,1203,1660,5.12505,-16.9767
-14,-636,5.6991,15.7816,0,0,0,0,0,0,0,-1,1210,1660,5.69913,-15.7816
-7,-636,6.2168,14.5992,-0.00603498,0.00895001,-0.0409535,0.0430907,-0.0401757,-0.875873,0.0480837,0.0455593,1217,1660,6.21681,-14.5992
0,-636,6.73279,13.358,-0.0158848,-0.0021051,-0.0260505,0.0179512,-0.0359411,-0.914678,0.0316874,0.0473982,1224,1660,6.73278,-13.358
7,-636,7.27625,12.4407,-0.0202881,-0.0128663,-0.0192636,0.00304053,-0.036195,-0.880551,0.0252047,0.0448456,1231,1660,7.2762,-12.4406
14,-636,7.39343,12.0746,-0.0226352,-0.0238595,-0.0163534,-0.00688255,-0.0396122,-0.766692,0.0244391,0.0423316,1238,1660,7.39346,-12.0746
21,-636,3.72217,10.9161,-0.0232122,-0.0342971,-0.015478,-0.0123142,-0.045195,-0.613467,0.0269789,0.0437202,1245,1660,3.72218,-10.9161
28,-636,4.06592,10.7444,-0.0139097,-0.0477096,-0.0183608,-0.00585514,-0.0557641,-0.413402,0.0353862,0.0447256,1252,1660,4.06586,-10.7443
35,-636,4.32666,10.7064,0.0017695,-0.057073,-0.0247295,0.0107821,-0.0660855,-0.349486,0.048056,0.0445262,1259,1660,4.32663,-10.7065
42,-636,4.4939,10.4999,0,0,0,0,0,0,0,-1,1266,1660,4.49396,-10.4999
49,-636,4.58911,10.0177,0.036607,-0.0755421,-0.0399007,0.0493541,-0.0882892,-0.309223,0.0805212,0.0467521,1273,1660,4.58914,-10.0177
56,-636,4.70605,9.61646,0.0542624,-0.0810413,-0.0501407,0.0708178,-0.0975967,-0.318909,0.097643,0.0462488,1280,1660,4.70607,-9.61644
63,-636,4.67517,8.95801,0.0752857,-0.0824382,-0.0617507,0.0965854,-0.103738,-0.332152,0.115681,0.0455437,1287,1660,4.67521,-8.95796
70,-636,4.48804,8.80774,0,0,0,0,0,0,0,-1,1294,1660,4.48807,-8.80775
77,-636,3.59485,9.11475,0.126578,-0.0911832,-0.0811443,0.153489,-0.118094,-0.320231,0.157242,0.0496692,1301,1660,3.59479,-9.11474
84,-636,6.03564,7.27808,0.148153,-0.0817874,-0.0892483,0.178728,-0.112362,-0.330053,0.169511,0.0442533,1308,1660,6.03569,-7.27811
91,-636,6.8656,6.46399,0.169736,-0.0649633,-0.101897,0.207802,-0.103029,-0.357516,0.182825,0.0422477,1315,1660,6.86561,-6.46396
98,-636,6.76526,6.19849,0,0,0,0,0,0,0,-1,1322,1660,6.76522,-6.19854
105,-636,7.03833,5.32849,0.209653,-0.032631,-0.124225,0.262026,-0.0850036,-0.398982,0.208866,0.0494111,1329,1660,7.03832,-5.32847
112,-636,8.19971,4.04114,0.228124,-0.0151336,-0.134862,0.288103,-0.0751124,-0.418473,0.221395,0.0496517,1336,1660,8.19973,-4.04114
119,-636,9.66418,2.89453,0,0,0,0,0,0,0,-1,1343,1660,9.66424,-2.89448
126,-636,11.3489,1.52612,0,0,0,0,0,0,0,-1,1350,1660,11.3489,-1.52611
133,-636,12.8777,0.481201,0,0,0,0,0,0,0,-1,1357,1660,12.8777,-0.481197
140,-636,15.8348,-0.980347,0.296679,0.0600527,-0.191216,0.403225,-0.0464937,-0.508356,0.285579,0.0432444,1364,1660,15.8348,0.980297
147,-636,17.7557,-2.10278,0.327774,0.0784889,-0.215203,0.451824,-0.0455612,-0.522911,0.317494,0.0428005,1371,1660,17.7557,2.10284
154,-636,19.9594,-3.49597,0,0,0,0,0,0,0,-1,1378,1660,19.9593,3.49595
161,-636,10.2961,7.13025,0,0,0,0,0,0,0,-1,1385,1660,10.2961,-7.13021
168,-636,11.7659,5.83899,0,0,0,0,0,0,0,-1,1392,1660,11.7658,-5.83899
175,-636,5.94592,-1.72888,0,0,0,0,0,0,0,-1,1399,1660,5.94598,1.72886
182,-636,5.93994,-1.11938,0,0,0,0,0,0,0,-1,1406,1660,5.93998,1.11936
189,-636,5.32544,11.9595,0,0,0,0,0,0,0,-1,1413,1660,5.32542,-11.9595
196,-636,5.3623,9.38025,0,0,0,0,0,0,0,-1,1420,1660,5.36225,-9.38027
203,-636,5.18542,9.02429,0,0,0,0,0,0,0,-1,1427,1660,5.18547,-9.0243
210,-636,4.09167,7.17041,0,0,0,0,0,0,0,-1,1434,1660,4.09173,-7.17041
217,-636,2.94897,5.28992,0,0,0,0,0,0,0,-1,1441,1660,2.94899,-5.28991
224,-636,1.49194,3.63916,0,0,0,0,0,0,0,-1,1448,1660,1.49197,-3.63918
231,-636,0.17749,2.24854,0,0,0,0,0,0,0,-1,1455,1660,0.177501,-2.24855
238,-636,-0.764648,1.00598,0,0,0,0,0,0,0,-1,1462,1660,-0.764704,-1.00595
245,-636,6.21204,1.18005,0,0,0,0,0,0,0,-1,1469,1660,6.21206,-1.18001
252,-636,7.70251,0.865723,0,0,0,0,0,0,0,-1,1476,1660,7.7025,-0.865692
259,-636,9.03601,0.787231,0,0,0,0,0,0,0,-1,1483,1660,9.03598,-0.787243
266,-636,10.1071,3.24109,0,0,0,0,0,0,0,-1,1490,1660,10.1071,-3.24103
273,-636,8.48535,5.02466,0,0,0,0,0,0,0,-1,1497,1660,8.48533,-5.02472
280,-636,8.81384,5.66992,0,0,0,0,0,0,0,-1,1504,1660,8.81381,-5.66998
287,-636,6.08606,11.49,0,0,0,0,0,0,0,-1,1511,1660,6.08606,-11.49
294,-636,6.01245,12.0505,0,0,0,0,0,0,0,-1,1518,1660,6.01243,-12.0505
301,-636,5.77368,12.2146,0,0,0,0,0,0,0,-1,1525,1660,5.77369,-12.2146
308,-636,5.53491,12.3788,0,0,0,0,0,0,0,-1,1532,1660,5.53494,-12.3788
315,-636,5.43176,13.1241,0,0,0,0,0,0,0,-1,1539,1660,5.43173,-13.1242
322,-636,5.37378,13.079,0.00501913,-0.00857519,0.000986497,0.00509034,-0.00864641,0.0720637,0.00801901,0.0372158,1546,1660,5.37375,-13.079
329,-636,5.43469,12.9117,0.00417451,-0.00631882,0.000796339,0.0042346,-0.00637891,0.0753151,0.00616926,0.0248288,1553,1660,5.43469,-12.9118
336,-636,5.48254,12.745,0.00317149,-0.00466342,0.00079576,0.0032515,-0.00474343,0.100203,0.00464258,0.0200461,1560,1660,5.48257,-12.745
343,-636,5.46521,12.6705,0.0023343,-0.0035245,0.000860981,0.00245821,-0.00364841,0.14293,0.00354791,0.0187189,1567,1660,5.46522,-12.6706
350,-636,5.46899,12.5577,0.00175622,-0.00233986,0.00095527,0.00196805,-0.00255169,0.218217,0.00261672,0.011397,1574,1660,5.469,-12.5577
357,-636,5.46497,12.4451,0.00115998,-0.00149383,0.0010576,0.00152989,-0.00186375,0.336467,0.00196248,0.0100802,1581,1660,5.46497,-12.4451
364,-636,5.47754,12.3141,0.000596981,-0.00127495,0.00115781,0.00114982,-0.00182779,0.445479,0.00173392,0.0103421,1588,1660,5.47757,-12.3141
371,-636,5.49036,12.1987,0.000160147,-0.00117807,0.00125958,0.000917309,-0.00193523,0.541244,0.0016815,0.00924919,1595,1660,5.49038,-12.1987
378,-636,5.50696,12.0698,-0.000272742,-0.000891346,0.00137928,0.000831495,-0.00199558,0.675099,0.0016777,0.00945699,1602,1660,5.50691,-12.0698
385,-636,5.52112,11.9393,-0.000522011,-0.00071786,0.00135991,0.000743499,-0.00198337,0.749456,0.0016277,0.0144202,1609,1660,5.52112,-11.9393
392,-636,5.52734,11.8119,-0.000480163,-0.000576216,0.00110071,0.000573573,-0.00162995,0.763596,0.00132004,0.0148617,1616,1660,5.52734,-11.8119
399,-636,5.51904,11.6909,-0.000325101,-0.000133301,0.000713749,0.000490962,-0.000949363,0.852179,0.000845494,0.0114849,1623,1660,5.51904,-11.6909
406,-636,5.51453,11.5593,-1.40799e-06,0.000127887,0.000399251,0.000467691,-0.000341212,0.865662,0.000468919,0.0138239,1630,1660,5.51447,-11.5593
413,-636,5.50562,11.3876,0.00035182,0.000500973,2.34755e-05,0.000504581,0.000348212,1.41831,0.000298256,0.0221246,1637,1660,5.50561,-11.3876
420,-636,5.48706,11.2383,0.000802477,0.000763,-0.000406856,0.00119007,0.000375404,-0.76116,0.000702517,0.0212099,1644,1660,5.48707,-11.2382
427,-636,5.5,11.1184,0.00140794,0.000878907,-0.000866245,0.00204915,0.000237692,-0.637215,0.00129417,0.0116185,1651,1660,5.49998,-11.1184
434,-636,5.49475,10.9669,0.00202658,0.000798131,-0.00133508,0.00288195,-5.72391e-05,-0.569802,0.00194066,0.0109446,1658,1660,5.49473,-10.9669
441,-636,5.52539,10.8104,0.00269737,0.000510299,-0.00184696,0.00375025,-0.000542577,-0.518113,0.00269926,0.0118628,1665,1660,5.52545,-10.8104
448,-636,5.55005,10.6631,0.00333887,0.000380717,-0.00255841,0.00481498,-0.00109539,-0.523309,0.00363062,0.0138622,1672,1660,5.55003,-10.6631
455,-636,5.54614,10.5066,0.00389736,-1.65373e-05,-0.00315329,0.00565159,-0.00177077,-0.507682,0.0044763,0.0155444,1679,1660,5.5461,-10.5066
462,-636,5.51306,10.3632,0.00437403,-0.000332541,-0.00388934,0.00656661,-0.00252513,-0.513332,0.00541923,0.0203721,1686,1660,5.51303,-10.3632
469,-636,5.5415,10.2455,0.00484079,-0.000675442,-0.00473214,0.00755993,-0.00339459,-0.521542,0.00647521,0.0297848,1693,1660,5.54149,-10.2455
476,-636,5.68872,10.1055,0.00533267,-0.0012159,-0.00564538,0.00858459,-0.00446781,-0.522609,0.00765973,0.042542,1700,1660,5.68869,-10.1055
483,-636,5.72754,9.88,0.00553166,-0.00144496,-0.00687575,0.00975336,-0.00566666,-0.550649,0.00900637,0.0480171,1707,1660,5.72755,-9.88
490,-636,5.69641,9.68909,0,0,0,0,0,0,0,-1,1714,1660,5.69645,-9.68907
497,-636,5.97607,8.99316,0,0,0,0,0,0,0,-1,1721,1660,5.97612,-8.99315
504,-636,5.12866,8.45337,0,0,0,0,0,0,0,-1,1728,1660,5.12861,-8.45331
511,-636,5.65466,9.23218,0,0,0,0,0,0,0,-1,1735,1660,5.65461,-9.23216
518,-636,6.72791,1.07605,0,0,0,0,0,0,0,-1,1742,1660,6.7279,-1.0761
525,-636,7.04309,0.93335,0,0,0,0,0,0,0,-1,1749,1660,7.04308,-0.933298
532,-636,0,0,0,0,0,0,0,0,0,-1,1756,1660,0,0
539,-636,0,0,0,0,0,0,0,0,0,-1,1763,1660,0,0
546,-636,0,0,0,0,0,0,0,0,0,-1,1770,1660,0,0
553,-636,0,0,0,0,0,0,0,0,0,-1,1777,1660,0,0
560,-636,0,0,0,0,0,0,0,0,0,-1,1784,1660,0,0
567,-636,0,0,0,0,0,0,0,0,0,-1,1791,1660,0,0
574,-636,0,0,0,0,0,0,0,0,0,-1,1798,1660,0,0
581,-636,0,0,0,0,0,0,0,0,0,-1,1805,1660,0,0
588,-636,0,0,0,0,0,0,0,0,0,-1,1812,1660,0,0
595,-636,0,0,0,0,0,0,0,0,0,-1,1819,1660,0,0
602,-636,0,0,0,0,0,0,0,0,0,-1,1826,1660,0,0
609,-636,0,0,0,0,0,0,0,0,0,-1,1833,1660,0,0
616,-636,0,0,0,0,0,0,0,0,0,-1,1840,1660,0,0
623,-636,0,0,0,0,0,0,0,0,0,-1,1847,1660,0,0
630,-636,0,0,0,0,0,0,0,0,0,-1,1854,1660,0,0
637,-636,0,0,0,0,0,0,0,0,0,-1,1861,1660,0,0
644,-636,0,0,0,0,0,0,0,0,0,-1,1868,1660,0,0
651,-636,0,0,0,0,0,0,0,0,0,-1,1875,1660,0,0
658,-636,0,0,0,0,0,0,0,0,0,-1,1882,1660,0,0
665,-636,0,0,0,0,0,0,0,0,0,-1,1889,1660,0,0
672,-636,0,0,0,0,0,0,0,0,0,-1,1896,1660,0,0
679,-636,0,0,0,0,0,0,0,0,0,-1,1903,1660,0,0
686,-636,0,0,0,0,0,0,0,0,0,-1,1910,1660,0,0
693,-636,0,0,0,0,0,0,0,0,0,-1,1917,1660,0,0
700,-636,0,0,0,0,0,0,0,0,0,-1,1924,1660,0,0
707,-636,0,0,0,0,0,0,0,0,0,-1,1931,1660,0,0
714,-636,0,0,0,0,0,0,0,0,0,-1,1938,1660,0,0
721,-636,0,0,0,0,0,0,0,0,0,-1,1945,1660,0,0
728,-636,0,0,0,0,0,0,0,0,0,-1,1952,1660,0,0
735,-636,0,0,0,0,0,0,0,0,0,-1,1959,1660,0,0
742,-636,0,0,0,0,0,0,0,0,0,-1,1966,1660,0,0
749,-636,0,0,0,0,0,0,0,0,0,-1,1973,1660,0,0
756,-636,0,0,0,0,0,0,0,0,0,-1,1980,1660,0,0
763,-636,0,0,0,0,0,0,0,0,0,-1,1987,1660,0,0
770,-636,0,0,0,0,0,0,0,0,0,-1,1994,1660,0,0
777,-636,0,0,0,0,0,0,0,0,0,-1,2001,1660,0,0
784,-636,0,0,0,0,0,0,0,0,0,-1,2008,1660,0,0
791,-636,0,0,0,0,0,0,0,0,0,-1,2015,1660,0,0
798,-636,0,0,0,0,0,0,0,0,0,-1,2022,1660,0,0
805,-636,0,0,0,0,0,0,0,0,0,-1,2029,1660,0,0
812,-636,0,0,0,0,0,0,0,0,0,-1,2036,1660,0,0
-700,-643,0,0,0,0,0,0,0,0,0,-1,524,1667,0,0
-693,-643,0,0,0,0,0,0,0,0,0,-1,531,1667,0,0
-686,-643,0,0,0,0,0,0,0,0,0,-1,538,1667,0,0
-679,-643,0,0,0,0,0,0,0,0,0,-1,545,1667,0,0
-672,-643,0,0,0,0,0,0,0,0,0,-1,552,1667,0,0
-665,-643,0,0,0,0,0,0,0,0,0,-1,559,1667,0,0
-658,-643,0,0,0,0,0,0,0,0,0,-1,566,1667,0,0
-651,-643,0,0,0,0,0,0,0,0,0,-1,573,1667,0,0
-644,-643,0,0,0,0,0,0,0,0,0,-1,580,1667,0,0
-637,-643,0,0,0,0,0,0,0,0,0,-1,587,1667,0,0
-630,-643,0,0,0,0,0,0,0,0,0,-1,594,1667,0,0
-623,-643,0,0,0,0,0,0,0,0,0,-1,601,1667,0,0
-616,-643,0,0,0,0,0,0,0,0,0,-1,608,1667,0,0
-609,-643,0,0,0,0,0,0,0,0,0,-1,615,1667,0,0
-602,-643,0,0,0,0,0,0,0,0,0,-1,622,1667,0,0
-595,-643,0,0,0,0,0,0,0,0,0,-1,629,1667,0,0
-588,-643,0,0,0,0,0,0,0,0,0,-1,636,1667,0,0
-581,-643,0,0,0,0,0,0,0,0,0,-1,643,1667,0,0
-574,-643,0,0,0,0,0,0,0,0,0,-1,650,1667,0,0
-567,-643,0,0,0,0,0,0,0,0,0,-1,657,1667,0,0
-560,-643,0,0,0,0,0,0,0,0,0,-1,664,1667,0,0
-553,-643,0,0,0,0,0,0,0,0,0,-1,671,1667,0,0
-546,-643,0,0,0,0,0,0,0,0,0,-1,678,1667,0,0
-539,-643,0,0,0,0,0,0,0,0,0,-1,685,1667,0,0
-532,-643,0,0,0,0,0,0,0,0,0,-1,692,1667,0,0
-525,-643,0,0,0,0,0,0,0,0,0,-1,699,1667,0,0
-518,-643,0,0,0,0,0,0,0,0,0,-1,706,1667,0,0
-511,-643,0,0,0,0,0,0,0,0,0,-1,713,1667,0,0
-504,-643,0,0,0,0,0,0,0,0,0,-1,720,1667,0,0
-497,-643,0,0,0,0,0,0,0,0,0,-1,727,1667,0,0
-490,-643,0,0,0,0,0,0,0,0,0,-1,734,1667,0,0
-483,-643,0,0,0,0,0,0,0,0,0,-1,741,1667,0,0
-476,-643,0,0,0,0,0,0,0,0,0,-1,748,1667,0,0
-469,-643,0,0,0,0,0,0,0,0,0,-1,755,1667,0,0
-462,-643,0,0,0,0,0,0,0,0,0,-1,762,1667,0,0
-455,-643,0,0,0,0,0,0,0,0,0,-1,769,1667,0,0
-448,-643,0,0,0,0,0,0,0,0,0,-1,776,1667,0,0
-441,-643,0,0,0,0,0,0,0,0,0,-1,783,1667,0,0
-434,-643,0,0,0,0,0,0,0,0,0,-1,790,1667,0,0
-427,-643,0,0,0,0,0,0,0,0,0,-1,797,1667,0,0
-420,-643,0,0,0,0,0,0,0,0,0,-1,804,1667,0,0
-413,-643,0,0,0,0,0,0,0,0,0,-1,811,1667,0,0
-406,-643,0,0,0,0,0,0,0,0,0,-1,818,1667,0,0
-399,-643,4.40393,6.401,0.07021,0.0126737,0.00720373,0.0710983,0.0117855,0.12268,0.0439997,0.0477557,825,1667,4.40396,-6.40101
-392,-643,4.9093,7.02441,0.0628763,0.0105144,0.00584853,0.0635216,0.00986914,0.10989,0.0394715,0.0459156,832,1667,4.90932,-7.02443
-385,-643,4.9585,7.77661,0,0,0,0,0,0,0,-1,839,1667,4.95849,-7.77664
-378,-643,5.29443,8.32349,0,0,0,0,0,0,0,-1,846,1667,5.29444,-8.32347
-371,-643,0.5849,3.26428,0,0,0,0,0,0,0,-1,853,1667,0.584909,-3.26426
-364,-643,1.69513,9.922,0,0,0,0,0,0,0,-1,860,1667,1.69511,-9.92205
-357,-643,2.09784,9.9458,0,0,0,0,0,0,0,-1,867,1667,2.09785,-9.9458
-350,-643,2.50061,9.96948,0,0,0,0,0,0,0,-1,874,1667,2.50059,-9.96954
-343,-643,2.61505,6.17407,0,0,0,0,0,0,0,-1,881,1667,2.61504,-6.17412
-336,-643,2.87408,9.15918,0,0,0,0,0,0,0,-1,888,1667,2.87409,-9.15913
-329,-643,2.88733,9.30237,0.00509933,5.00625e-05,0.00423285,0.00750326,-0.00235387,0.5165,0.00594424,0.0396904,895,1667,2.8873,-9.30235
-322,-643,2.90295,9.47058,0.00504047,0.000568397,0.00394673,0.00734056,-0.0017317,0.527666,0.00556155,0.0239917,902,1667,2.90294,-9.47058
-315,-643,2.90442,9.64551,0.0045875,0.000993514,0.00326051,0.00651342,-0.000932407,0.53354,0.00468412,0.0150827,909,1667,2.90439,-9.64547
-308,-643,2.91028,9.80554,0.00361026,0.00160956,0.00247909,0.00528322,-6.33993e-05,0.593632,0.00354347,0.0112488,916,1667,2.9103,-9.80551
-301,-643,2.90198,9.97314,0.0027643,0.00169819,0.00169694,0.00400994,0.000452556,0.633215,0.00253594,0.0125101,923,1667,2.90199,-9.97319
-294,-643,2.88855,10.1385,0.00213099,0.00160457,0.000997733,0.00289965,0.000835914,0.656433,0.00172341,0.0119642,930,1667,2.88857,-10.1386
-287,-643,2.89136,10.3256,0.00151175,0.00117844,0.000332869,0.00171736,0.000972839,0.553308,0.000994432,0.0103144,937,1667,2.89138,-10.3256
-280,-643,2.88171,10.4991,0.000883058,0.000652785,-0.000315274,0.00110356,0.000432281,-0.610325,0.000642103,0.0143509,944,1667,2.8817,-10.4992
-273,-643,2.87158,10.6483,0.000503752,-2.74172e-05,-0.000797358,0.00107859,-0.000602258,-0.624637,0.000983343,0.0125701,951,1667,2.87158,-10.6483
-266,-643,2.86932,10.7852,0.000198799,-0.000768591,-0.00127151,0.00107551,-0.0016453,-0.603646,0.0015823,0.0122671,958,1667,2.86929,-10.7852
-259,-643,2.88062,10.951,-3.1305e-05,-0.00163552,-0.00150569,0.000872597,-0.00253943,-0.540658,0.00204679,0.0117653,965,1667,2.8806,-10.9511
-252,-643,2.89069,11.1199,-0.000189416,-0.00267852,-0.00156564,0.000566063,-0.003434,-0.449581,0.00249948,0.0119437,972,1667,2.89071,-11.1199
-245,-643,2.89813,11.2759,1.90909e-06,-0.00354427,-0.00151726,0.000562473,-0.00410484,-0.353902,0.00294203,0.0108092,979,1667,2.89815,-11.2759
-238,-643,2.91577,11.3994,0.000378489,-0.00444941,-0.00134186,0.000726374,-0.0047973,-0.253671,0.00346579,0.0142489,986,1667,2.91577,-11.3994
-231,-643,2.88135,11.5553,0.000925983,-0.00505341,-0.000805409,0.00103257,-0.00515999,-0.131574,0.00383086,0.0109897,993,1667,2.88135,-11.5552
-224,-643,2.88727,11.6891,0.00125114,-0.00586962,-0.000551406,0.00129359,-0.00591207,-0.076826,0.0044359,0.00977016,1000,1667,2.88728,-11.6891
-217,-643,2.8902,11.8115,0.00188087,-0.00639863,-0.000280647,0.00189038,-0.00640813,-0.0338448,0.00502224,0.00905529,1007,1667,2.89017,-11.8115
-210,-643,2.89728,11.9652,0.00325974,-0.00695557,-0.000367619,0.00327295,-0.00696879,-0.0359251,0.00604004,0.0110051,1014,1667,2.89726,-11.9652
-203,-643,2.92053,12.1128,0.00473155,-0.00783881,-0.000541858,0.00475486,-0.00786212,-0.0429997,0.00735769,0.0116327,1021,1667,2.92052,-12.1127
-196,-643,2.9364,12.2372,0.00619035,-0.00856361,-0.000829674,0.00623686,-0.00861012,-0.0559987,0.00860833,0.0120884,1028,1667,2.93646,-12.2372
-189,-643,2.97119,12.3679,0.00781004,-0.00906899,-0.00116422,0.00788996,-0.00914891,-0.068542,0.00984634,0.011733,1035,1667,2.97124,-12.3679
-182,-643,2.95483,12.437,0.00967623,-0.00800428,-0.00144118,0.00979293,-0.00812098,-0.0808017,0.0103576,0.0182448,1042,1667,2.95484,-12.437
-175,-643,2.90247,12.4951,0.0117487,-0.00635782,-0.00191347,0.0119487,-0.00655782,-0.104146,0.0108348,0.0323943,1049,1667,2.90242,-12.4951
-168,-643,2.79736,12.6478,0.0146065,-0.00470317,-0.00238852,0.0148976,-0.00499423,-0.121261,0.0119496,0.039642,1056,1667,2.79737,-12.6478
-161,-643,2.95203,12.6786,0.0174929,-0.0020901,-0.00244485,0.0177935,-0.00239072,-0.122344,0.0127343,0.0454465,1063,1667,2.95206,-12.6786
-154,-643,3.05383,12.641,0.0206565,0.00164239,-0.00223545,0.0209158,0.00138311,-0.11547,0.0135065,0.047835,1070,1667,3.05378,-12.641
-147,-643,2.84656,12.5854,0,0,0,0,0,0,0,-1,1077,1667,2.8465,-12.5854
-140,-643,2.81848,12.866,0,0,0,0,0,0,0,-1,1084,1667,2.81844,-12.8659
-133,-643,3.14758,14.46,0.0313233,0.0169697,0.00126444,0.0314339,0.0168592,0.0871977,0.0181643,0.0462719,1091,1667,3.14758,-14.46
-126,-643,3.29114,14.6381,0.0354929,0.0220309,0.00301296,0.0361364,0.0213874,0.210439,0.0209804,0.0487754,1098,1667,3.2912,-14.6381
-119,-643,3.24915,15.1973,0,0,0,0,0,0,0,-1,1105,1667,3.24918,-15.1972
-112,-643,3.81458,16.2069,0,0,0,0,0,0,0,-1,1112,1667,3.81463,-16.2069
-105,-643,-2.23413,10.0996,0,0,0,0,0,0,0,-1,1119,1667,-2.23415,-10.0996
-98,-643,3.11035,4.68066,0,0,0,0,0,0,0,-1,1126,1667,3.11041,-4.68071
-91,-643,-1.74146,-2.5885,0,0,0,0,0,0,0,-1,1133,1667,-1.74146,2.58856
-84,-643,-3.07446,-0.199341,0,0,0,0,0,0,0,-1,1140,1667,-3.07449,0.199383
-77,-643,-3.63794,2.81165,0,0,0,0,0,0,0,-1,1147,1667,-3.63791,-2.8117
-70,-643,-3.36938,4.45203,0,0,0,0,0,0,0,-1,1154,1667,-3.36941,-4.452
-63,-643,-3.67822,6.26855,0,0,0,0,0,0,0,-1,1161,1667,-3.67823,-6.26856
-56,-643,-3.95142,8.1073,0,0,0,0,0,0,0,-1,1168,1667,-3.95139,-8.10732
-49,-643,-4.23535,9.90552,0,0,0,0,0,0,0,-1,1175,1667,-4.23537,-9.90557
-42,-643,-4.25195,10.7059,0,0,0,0,0,0,0,-1,1182,1667,-4.25192,-10.706
-35,-643,-4.10986,11.6588,0,0,0,0,0,0,0,-1,1189,1667,-4.10982,-11.6589
-28,-643,-1.38513,5.604,0,0,0,0,0,0,0,-1,1196,1667,-1.3851,-5.60403
-21,-643,1.94421,11.4835,0,0,0,0,0,0,0,-1,1203,1667,1.9442,-11.4835
-14,-643,5.28784,16.5746,0,0,0,0,0,0,0,-1,1210,1667,5.28781,-16.5746
-7,-643,7.92175,13.4475,-0.00972303,0.002184,-0.0349886,0.031722,-0.039261,-0.869669,0.041059,0.0499808,1217,1667,7.92177,-13.4475
0,-643,7.31897,13.5402,-0.0162756,-0.00838864,-0.0230518,0.0110545,-0.0357188,-0.870114,0.0282283,0.043803,1224,1667,7.31897,-13.5402
7,-643,7.09583,13.0452,-0.0191657,-0.0189197,-0.0166827,-0.00235962,-0.0357258,-0.789084,0.0230709,0.0429012,1231,1667,7.09582,-13.0452
14,-643,7.04297,12.6033,-0.0204259,-0.0292899,-0.0133835,-0.0107596,-0.0389562,-0.625504,0.0232303,0.045877,1238,1667,7.04293,-12.6033
21,-643,6.59644,11.6835,0,0,0,0,0,0,0,-1,1245,1667,6.59643,-11.6835
28,-643,6.40137,10.9835,0,0,0,0,0,0,0,-1,1252,1667,6.40133,-10.9835
35,-643,4.33752,11.5361,0,0,0,0,0,0,0,-1,1259,1667,4.33757,-11.5362
42,-643,5.04407,10.205,0,0,0,0,0,0,0,-1,1266,1667,5.04409,-10.2049
49,-643,4.7948,10.4103,0.0399529,-0.0705845,-0.0300528,0.0475952,-0.0782268,-0.249019,0.0733574,0.0437376,1273,1667,4.79482,-10.4102
56,-643,4.93286,10.0269,0.0580934,-0.073861,-0.0384537,0.0684816,-0.0842493,-0.26385,0.0883357,0.0443289,1280,1667,4.93289,-10.0269
63,-643,5.09778,9.92896,0.0784267,-0.0737485,-0.0477487,0.0921681,-0.08749,-0.280215,0.103737,0.0432697,1287,1667,5.0978,-9.92899
70,-643,4.92188,9.84558,0,0,0,0,0,0,0,-1,1294,1667,4.9219,-9.84556
77,-643,4.75513,9.85046,0.125077,-0.0788504,-0.0613139,0.142093,-0.0958656,-0.270698,0.138247,0.0465338,1301,1667,4.75514,-9.8505
84,-643,4.53918,9.67249,0.144619,-0.0706648,-0.0674761,0.16402,-0.0900654,-0.279966,0.148753,0.0483385,1308,1667,4.53914,-9.67254
91,-643,7.51953,6.93982,0.162608,-0.057105,-0.0774731,0.187178,-0.0816751,-0.30711,0.159157,0.0427488,1315,1667,7.51947,-6.93987
98,-643,7.71826,6.34583,0.178179,-0.0440015,-0.0868507,0.2081,-0.0739222,-0.331773,0.168857,0.0441123,1322,1667,7.71828,-6.34588
105,-643,8.09009,5.65259,0.192231,-0.031254,-0.0959078,0.227746,-0.0667687,-0.354644,0.178304,0.0466768,1329,1667,8.09013,-5.65263
112,-643,8.74792,4.81567,0,0,0,0,0,0,0,-1,1336,1667,8.74787,-4.8157
119,-643,11.3259,2.02185,0,0,0,0,0,0,0,-1,1343,1667,11.3259,-2.02181
126,-643,11.8553,0.980591,0,0,0,0,0,0,0,-1,1350,1667,11.8554,-0.980612
133,-643,15.4547,-0.287109,0.237238,0.0300927,-0.144012,0.311054,-0.0437231,-0.473651,0.223374,0.0476106,1357,1667,15.4547,0.287069
140,-643,17.0258,-1.49182,0.254849,0.0452621,-0.160748,0.341946,-0.0418342,-0.49654,0.243111,0.0434465,1364,1667,17.0258,1.49177
147,-643,18.5807,-2.65759,0,0,0,0,0,0,0,-1,1371,1667,18.5806,2.65754
154,-643,2.53992,13.4635,0,0,0,0,0,0,0,-1,1378,1667,2.53993,-13.4636
161,-643,12.2321,5.97412,0,0,0,0,0,0,0,-1,1385,1667,12.232,-5.97411
168,-643,10.5563,10.9818,0,0,0,0,0,0,0,-1,1392,1667,10.5562,-10.9819
175,-643,5.88525,-1.1698,0,0,0,0,0,0,0,-1,1399,1667,5.88526,1.16977
182,-643,5.80945,-0.418701,0,0,0,0,0,0,0,-1,1406,1667,5.80949,0.418712
189,-643,5.42297,12.9208,0,0,0,0,0,0,0,-1,1413,1667,5.42298,-12.9208
196,-643,5.51953,11.2415,0,0,0,0,0,0,0,-1,1420,1667,5.51948,-11.2414
203,-643,5.60828,9.82153,0,0,0,0,0,0,0,-1,1427,1667,5.60833,-9.82148
210,-643,4.73218,7.58728,0,0,0,0,0,0,0,-1,1434,1667,4.73222,-7.58728
217,-643,3.8031,5.28955,0,0,0,0,0,0,0,-1,1441,1667,3.80305,-5.28955
224,-643,2.96436,2.97095,0,0,0,0,0,0,0,-1,1448,1667,2.96432,-2.97095
231,-643,2.13403,1.08472,0,0,0,0,0,0,0,-1,1455,1667,2.13403,-1.08467
238,-643,1.18152,-0.261963,0,0,0,0,0,0,0,-1,1462,1667,1.18152,0.26192
245,-643,-0.157471,-1.79016,0,0,0,0,0,0,0,-1,1469,1667,-0.157517,1.7901
252,-643,8.08789,0.0202637,0,0,0,0,0,0,0,-1,1476,1667,8.08791,-0.0203056
259,-643,9.02979,-0.46936,0,0,0,0,0,0,0,-1,1483,1667,9.02974,0.46933
266,-643,4.55066,5.17554,0,0,0,0,0,0,0,-1,1490,1667,4.55063,-5.17556
273,-643,4.34363,6.56836,0,0,0,0,0,0,0,-1,1497,1667,4.34363,-6.5684
280,-643,4.77527,13.6073,0,0,0,0,0,0,0,-1,1504,1667,4.77525,-13.6073
287,-643,4.93787,13.4532,0,0,0,0,0,0,0,-1,1511,1667,4.93791,-13.4533
294,-643,5.44775,12.9357,0.00685451,-0.0144483,0.00189222,0.00702128,-0.014615,0.0879078,0.0127456,0.0465834,1518,1667,5.4478,-12.9357
301,-643,5.3584,12.738,0.00584923,-0.0122953,0.0017437,0.00601528,-0.0124613,0.0949431,0.0108817,0.038525,1525,1667,5.35836,-12.7381
308,-643,5.28076,13.0486,0.00513997,-0.0100763,0.00142125,0.00527158,-0.0102079,0.0923391,0.0090873,0.0375034,1532,1667,5.28077,-13.0486
315,-643,5.30627,13.1041,0.00454336,-0.00797314,0.00114885,0.00464794,-0.00807772,0.0907764,0.00743558,0.0287662,1539,1667,5.30625,-13.1042
322,-643,5.28821,13.0148,0.00387201,-0.00600516,0.000974484,0.00396724,-0.00610038,0.0974089,0.00585587,0.0145587,1546,1667,5.2882,-13.0148
329,-643,5.30969,12.8726,0.00327536,-0.00432568,0.000784839,0.00335555,-0.00440587,0.101823,0.00449471,0.0109429,1553,1667,5.30969,-12.8726
336,-643,5.28967,12.7959,0.00250412,-0.00312584,0.000756962,0.00260412,-0.00322584,0.131345,0.00337231,0.010407,1560,1667,5.28973,-12.7959
343,-643,5.32056,12.6965,0.00186038,-0.00223663,0.000735717,0.00198849,-0.00236474,0.172401,0.00251646,0.0126563,1567,1667,5.32061,-12.6966
350,-643,5.34485,12.5541,0.00144481,-0.00132588,0.00069102,0.00160759,-0.00148866,0.231346,0.00178806,0.0128837,1574,1667,5.3448,-12.5541
357,-643,5.3335,12.4453,0.0010884,-0.0007036,0.000614791,0.00127904,-0.000894238,0.300685,0.00126128,0.0109633,1581,1667,5.33356,-12.4454
364,-643,5.34448,12.3315,0.000711806,-0.000540106,0.000528327,0.000904966,-0.000733266,0.35051,0.000947564,0.00912293,1588,1667,5.34454,-12.3316
371,-643,5.36023,12.2207,0.000375684,-0.000402508,0.0004362,0.00057111,-0.000597934,0.421206,0.000675007,0.00774897,1595,1667,5.36021,-12.2207
378,-643,5.38452,12.1006,5.63515e-05,-0.000156369,0.000388103,0.000352404,-0.000452422,0.651656,0.000465861,0.00980243,1602,1667,5.38456,-12.1006
385,-643,5.40308,11.9628,-9.22517e-05,8.67168e-05,0.000230293,0.0002443,-0.000249835,0.970704,0.000285295,0.0156669,1609,1667,5.40304,-11.9628
392,-643,5.39001,11.8094,-1.56922e-06,0.000380605,-8.69216e-05,0.000399446,-2.04098e-05,-1.35734,0.000273354,0.0159711,1616,1667,5.39002,-11.8094
399,-643,5.36169,11.6913,0.000134305,0.000927681,-0.000503557,0.00117203,-0.000110046,-1.11902,0.0008205,0.0135715,1623,1667,5.36168,-11.6913
406,-643,5.36792,11.551,0.000442305,0.00130097,-0.000817008,0.00179458,-5.13094e-05,-1.02731,0.00121385,0.0128242,1630,1667,5.36788,-11.5511
413,-643,5.37,11.4009,0.000819014,0.00173007,-0.0011656,0.002526,2.3091e-05,-0.971678,0.00167635,0.018812,1637,1667,5.37004,-11.4008
420,-643,5.34485,11.2888,0.00128484,0.00198973,-0.00151127,0.00318911,8.54693e-05,-0.899956,0.00209816,0.0174082,1644,1667,5.3449,-11.2888
427,-643,5.35461,11.1326,0.00190394,0.00207928,-0.00184882,0.00384251,0.000140717,-0.809091,0.00251608,0.0140377,1651,1667,5.35464,-11.1326
434,-643,5.34985,10.9756,0.00258384,0.00192958,-0.00218709,0.00446813,4.52893e-05,-0.711162,0.00296377,0.0153209,1658,1667,5.34986,-10.9756
441,-643,5.38818,10.817,0.00337128,0.0014557,-0.00258471,0.00516996,-0.000342974,-0.607962,0.00356646,0.0153555,1665,1667,5.38824,-10.8171
448,-643,5.448,10.6705,0.00414997,0.0011057,-0.00323099,0.00619942,-0.000943752,-0.565266,0.00448078,0.0200916,1672,1667,5.44803,-10.6706
455,-643,5.4137,10.6234,0.00489365,0.000498304,-0.00375934,0.00705056,-0.00165861,-0.520892,0.00533981,0.0266698,1679,1667,5.41365,-10.6234
462,-643,5.44275,10.5654,0.00566222,-7.93144e-05,-0.00454093,0.00816373,-0.00258082,-0.503519,0.00647649,0.0349465,1686,1667,5.4428,-10.5654
469,-643,5.45654,10.4189,0.00646643,-0.000766221,-0.0055125,0.00944294,-0.00374273,-0.495099,0.00784629,0.0411284,1693,1667,5.45653,-10.4189
476,-643,5.3501,10.2506,0,0,0,0,0,0,0,-1,1700,1667,5.35014,-10.2506
483,-643,5.67883,9.86633,0,0,0,0,0,0,0,-1,1707,1667,5.67888,-9.86639
490,-643,4.40601,8.41614,0,0,0,0,0,0,0,-1,1714,1667,4.40604,-8.41613
497,-643,6.15222,8.67004,0,0,0,0,0,0,0,-1,1721,1667,6.15227,-8.67004
504,-643,4.59448,8.6991,0,0,0,0,0,0,0,-1,1728,1667,4.59451,-8.69911
511,-643,5.49524,8.6012,0,0,0,0,0,0,0,-1,1735,1667,5.49524,-8.60114
518,-643,7.40564,0.922607,0,0,0,0,0,0,0,-1,1742,1667,7.4057,-0.922598
525,-643,0,0,0,0,0,0,0,0,0,-1,1749,1667,0,0
532,-643,0,0,0,0,0,0,0,0,0,-1,1756,1667,0,0
539,-643,0,0,0,0,0,0,0,0,0,-1,1763,1667,0,0
546,-643,0,0,0,0,0,0,0,0,0,-1,1770,1667,0,0
553,-643,0,0,0,0,0,0,0,0,0,-1,1777,1667,0,0
560,-643,0,0,0,0,0,0,0,0,0,-1,1784,1667,0,0
567,-643,0,0,0,0,0,0,0,0,0,-1,1791,1667,0,0
574,-643,0,0,0,0,0,0,0,0,0,-1,1798,1667,0,0
581,-643,0,0,0,0,0,0,0,0,0,-1,1805,1667,0,0
588,-643,0,0,0,0,0,0,0,0,0,-1,1812,1667,0,0
595,-643,0,0,0,0,0,0,0,0,0,-1,1819,1667,0,0
602,-643,0,0,0,0,0,0,0,0,0,-1,1826,1667,0,0
609,-643,0,0,0,0,0,0,0,0,0,-1,1833,1667,0,0
616,-643,0,0,0,0,0,0,0,0,0,-1,1840,1667,0,0
623,-643,0,0,0,0,0,0,0,0,0,-1,1847,1667,0,0
630,-643,0,0,0,0,0,0,0,0,0,-1,1854,1667,0,0
637,-643,0,0,0,0,0,0,0,0,0,-1,1861,1667,0,0
644,-643,0,0,0,0,0,0,0,0,0,-1,1868,1667,0,0
651,-643,0,0,0,0,0,0,0,0,0,-1,1875,1667,0,0
658,-643,0,0,0,0,0,0,0,0,0,-1,1882,1667,0,0
665,-643,0,0,0,0,0,0,0,0,0,-1,1889,1667,0,0
672,-643,0,0,0,0,0,0,0,0,0,-1,1896,1667,0,0
679,-643,0,0,0,0,0,0,0,0,0,-1,1903,1667,0,0
686,-643,0,0,0,0,0,0,0,0,0,-1,1910,1667,0,0
693,-643,0,0,0,0,0,0,0,0,0,-1,1917,1667,0,0
700,-643,0,0,0,0,0,0,0,0,0,-1,1924,1667,0,0
707,-643,0,0,0,0,0,0,0,0,0,-1,1931,1667,0,0
714,-643,0,0,0,0,0,0,0,0,0,-1,1938,1667,0,0
721,-643,0,0,0,0,0,0,0,0,0,-1,1945,1667,0,0
728,-643,0,0,0,0,0,0,0,0,0,-1,1952,1667,0,0
735,-643,0,0,0,0,0,0,0,0,0,-1,1959,1667,0,0
742,-643,0,0,0,0,0,0,0,0,0,-1,1966,1667,0,0
749,-643,0,0,0,0,0,0,0,0,0,-1,1973,1667,0,0
756,-643,0,0,0,0,0,0,0,0,0,-1,1980,1667,0,0
763,-643,0,0,0,0,0,0,0,0,0,-1,1987,1667,0,0
770,-643,0,0,0,0,0,0,0,0,0,-1,1994,1667,0,0
777,-643,0,0,0,0,0,0,0,0,0,-1,2001,1667,0,0
784,-643,0,0,0,0,0,0,0,0,0,-1,2008,1667,0,0
791,-643,0,0,0,0,0,0,0,0,0,-1,2015,1667,0,0
798,-643,0,0,0,0,0,0,0,0,0,-1,2022,1667,0,0
805,-643,0,0,0,0,0,0,0,0,0,-1,2029,1667,0,0
812,-643,0,0,0,0,0,0,0,0,0,-1,2036,1667,0,0
-700,-650,0,0,0,0,0,0,0,0,0,-1,524,1674,0,0
-693,-650,0,0,0,0,0,0,0,0,0,-1,531,1674,0,0
-686,-650,0,0,0,0,0,0,0,0,0,-1,538,1674,0,0
-679,-650,0,0,0,0,0,0,0,0,0,-1,545,1674,0,0
-672,-650,0,0,0,0,0,0,0,0,0,-1,552,1674,0,0
-665,-650,0,0,0,0,0,0,0,0,0,-1,559,1674,0,0
-658,-650,0,0,0,0,0,0,0,0,0,-1,566,1674,0,0
-651,-650,0,0,0,0,0,0,0,0,0,-1,573,1674,0,0
-644,-650,0,0,0,0,0,0,0,0,0,-1,580,1674,0,0
-637,-650,0,0,0,0,0,0,0,0,0,-1,587,1674,0,0
-630,-650,0,0,0,0,0,0,0,0,0,-1,594,1674,0,0
-623,-650,0,0,0,0,0,0,0,0,0,-1,601,1674,0,0
-616,-650,0,0,0,0,0,0,0,0,0,-1,608,1674,0,0
-609,-650,0,0,0,0,0,0,0,0,0,-1,615,1674,0,0
-602,-650,0,0,0,0,0,0,0,0,0,-1,622,1674,0,0
-595,-650,0,0,0,0,0,0,0,0,0,-1,629,1674,0,0
-588,-650,0,0,0,0,0,0,0,0,0,-1,636,1674,0,0
-581,-650,0,0,0,0,0,0,0,0,0,-1,643,1674,0,0
-574,-650,0,0,0,0,0,0,0,0,0,-1,650,1674,0,0
-567,-650,0,0,0,0,0,0,0,0,0,-1,657,1674,0,0
-560,-650,0,0,0,0,0,0,0,0,0,-1,664,1674,0,0
-553,-650,0,0,0,0,0,0,0,0,0,-1,671,1674,0,0
-546,-650,0,0,0,0,0,0,0,0,0,-1,678,1674,0,0
-539,-650,0,0,0,0,0,0,0,0,0,-1,685,1674,0,0
-532,-650,0,0,0,0,0,0,0,0,0,-1,692,1674,0,0
-525,-650,0,0,0,0,0,0,0,0,0,-1,699,1674,0,0
-518,-650,0,0,0,0,0,0,0,0,0,-1,706,1674,0,0
-511,-650,0,0,0,0,0,0,0,0,0,-1,713,1674,0,0
-504,-650,0,0,0,0,0,0,0,0,0,-1,720,1674,0,0
-497,-650,0,0,0,0,0,0,0,0,0,-1,727,1674,0,0
-490,-650,0,0,0,0,0,0,0,0,0,-1,734,1674,0,0
-483,-650,0,0,0,0,0,0,0,0,0,-1,741,1674,0,0
-476,-650,0,0,0,0,0,0,0,0,0,-1,748,1674,0,0
-469,-650,0,0,0,0,0,0,0,0,0,-1,755,1674,0,0
-462,-650,0,0,0,0,0,0,0,0,0,-1,762,1674,0,0
-455,-650,0,0,0,0,0,0,0,0,0,-1,769,1674,0,0
-448,-650,0,0,0,0,0,0,0,0,0,-1,776,1674,0,0
-441,-650,0,0,0,0,0,0,0,0,0,-1,783,1674,0,0
-434,-650,0,0,0,0,0,0,0,0,0,-1,790,1674,0,0
-427,-650,0,0,0,0,0,0,0,0,0,-1,797,1674,0,0
-420,-650,0,0,0,0,0,0,0,0,0,-1,804,1674,0,0
-413,-650,0,0,0,0,0,0,0,0,0,-1,811,1674,0,0
-406,-650,0,0,0,0,0,0,0,0,0,-1,818,1674,0,0
-399,-650,0,0,0,0,0,0,0,0,0,-1,825,1674,0,0
-392,-650,5.44415,6.85669,0,0,0,0,0,0,0,-1,832,1674,5.44414,-6.85674
-385,-650,8.7821,8.6189,0,0,0,0,0,0,0,-1,839,1674,8.78213,-8.61893
-378,-650,0.997986,4.11108,0,0,0,0,0,0,0,-1,846,1674,0.998006,-4.11113
-371,-650,-1.80096,3.78625,0,0,0,0,0,0,0,-1,853,1674,-1.80094,-3.78625
-364,-650,-2.95679,2.57507,0,0,0,0,0,0,0,-1,860,1674,-2.95681,-2.57506
-357,-650,1.82904,10.6912,0,0,0,0,0,0,0,-1,867,1674,1.82902,-10.6912
-350,-650,-5.30243,0.159912,0,0,0,0,0,0,0,-1,874,1674,-5.30244,-0.159866
-343,-650,-6.21338,-1.4425,0,0,0,0,0,0,0,-1,881,1674,-6.21341,1.44248
-336,-650,3.51459,8.10864,0,0,0,0,0,0,0,-1,888,1674,3.51456,-8.10868
-329,-650,3.01459,9.29724,0,0,0,0,0,0,0,-1,895,1674,3.01456,-9.29719
-322,-650,2.51367,9.49036,0.00602345,0.00103588,0.00512321,0.00922757,-0.00216825,0.558897,0.00698752,0.039972,902,1674,2.51365,-9.49041
-315,-650,2.81116,9.63818,0.00516112,0.000888405,0.0042099,0.00774571,-0.00169618,0.550599,0.00581229,0.0359921,909,1674,2.81113,-9.63821
-308,-650,3.05524,9.78113,0.00389494,0.00148571,0.00320421,0.00611349,-0.000732835,0.605597,0.00434061,0.0215303,916,1674,3.05525,-9.78111
-301,-650,3.05951,9.9834,0.0028177,0.0015455,0.00228464,0.00455314,-0.000189944,0.649625,0.00310068,0.0115054,923,1674,3.05954,-9.98345
-294,-650,3.04602,10.1392,0.00202669,0.0015018,0.00152749,0.00331412,0.000214371,0.700321,0.00214153,0.00956001,930,1674,3.04602,-10.1391
-287,-650,3.05078,10.3048,0.00133426,0.00118564,0.000848192,0.00211139,0.000408508,0.741704,0.00129311,0.0131729,937,1674,3.05075,-10.3048
-280,-650,3.0321,10.46,0.000670217,0.000764213,0.000209944,0.000932355,0.000502075,0.895512,0.000538827,0.014777,944,1674,3.03211,-10.4599
-273,-650,3.01996,10.6334,0.000290718,0.000249973,-0.000252827,0.000523992,1.66995e-05,-0.745196,0.000343896,0.0134833,951,1674,3.01993,-10.6334
-266,-650,3.00507,10.8005,5.4243e-06,-0.00025693,-0.000723222,0.000609269,-0.000860775,-0.695684,0.000852861,0.0118276,958,1674,3.00508,-10.8006
-259,-650,3.02649,10.9431,-0.000170619,-0.000815724,-0.000943964,0.00050438,-0.00149072,-0.620767,0.00119788,0.0147657,965,1674,3.02651,-10.9432
-252,-650,3.02759,11.0992,-0.000265628,-0.00150086,-0.00102858,0.00031652,-0.00208301,-0.515022,0.00150531,0.0127734,972,1674,3.02758,-11.0992
-245,-650,3.04767,11.2455,-0.000109615,-0.00210822,-0.00103011,0.000326257,-0.0025441,-0.400288,0.00181462,0.0113641,979,1674,3.04766,-11.2455
-238,-650,3.04633,11.4099,0.000208003,-0.0027142,-0.000914093,0.000470382,-0.00297657,-0.279523,0.00215833,0.0131538,986,1674,3.04636,-11.4099
-231,-650,3.03778,11.5677,0.000675217,-0.00312161,-0.000515012,0.000743835,-0.00319023,-0.132455,0.00241328,0.017544,993,1674,3.03778,-11.5678
-224,-650,3.0282,11.7245,0.000925896,-0.00370798,-0.000380474,0.000956928,-0.00373901,-0.0813808,0.00286541,0.0146427,1000,1674,3.02821,-11.7245
-217,-650,3.04425,11.8162,0.00135157,-0.00408911,-0.000240098,0.00136215,-0.00409968,-0.044016,0.00328276,0.0105441,1007,1674,3.04426,-11.8162
-210,-650,3.04114,11.949,0.00232246,-0.00455526,-0.000358954,0.00234114,-0.00457395,-0.0520025,0.00406121,0.00949415,1014,1674,3.04114,-11.949
-203,-650,3.05566,12.0907,0.00339971,-0.00542415,-0.000563115,0.00343551,-0.00545994,-0.0634741,0.00517993,0.0131609,1021,1674,3.05569,-12.0907
-196,-650,3.07556,12.223,0.00442323,-0.00609231,-0.000813235,0.00448576,-0.00615483,-0.0767285,0.00616848,0.0129898,1028,1674,3.07559,-12.223
-189,-650,3.06128,12.3658,0.00554021,-0.00663345,-0.00110771,0.00564018,-0.00673342,-0.0900071,0.00715319,0.0104534,1035,1674,3.06131,-12.3659
-182,-650,3.07507,12.4839,0.00676007,-0.00589644,-0.00131262,0.00689477,-0.00603114,-0.102261,0.00746833,0.00902751,1042,1674,3.07509,-12.4839
-175,-650,3.10681,12.5696,0.00831722,-0.00454575,-0.00163902,0.00852278,-0.00475131,-0.124766,0.00776622,0.0137928,1049,1674,3.10684,-12.5696
-168,-650,3.08569,12.6714,0.0105433,-0.00322633,-0.00190835,0.0108029,-0.00348591,-0.135197,0.00860263,0.0183216,1056,1674,3.08574,-12.6714
-161,-650,3.04895,12.8175,0.0127799,-0.00117092,-0.00180275,0.0130091,-0.00140011,-0.126455,0.00917513,0.0268896,1063,1674,3.04892,-12.8175
-154,-650,3.06433,12.9108,0.0152258,0.00166563,-0.00150034,0.0153898,0.00150161,-0.108888,0.00979779,0.0308529,1070,1674,3.06435,-12.9108
-147,-650,3.06421,12.7975,0.0178142,0.00532484,-0.000921344,0.0178818,0.00525723,-0.0732421,0.0106121,0.0408638,1077,1674,3.06424,-12.7975
-140,-650,3.01257,13.0618,0.0205065,0.00889993,-2.64035e-05,0.0205065,0.00889987,-0.00227486,0.0118738,0.0481734,1084,1674,3.01258,-13.0618
-133,-650,3.026,13.8217,0.0236915,0.0123314,0.00153199,0.0238945,0.0121284,0.131723,0.013796,0.0429438,1091,1674,3.026,-13.8216
-126,-650,2.98181,13.9727,0.026928,0.0154498,0.00293038,0.0276329,0.014745,0.236045,0.0159659,0.0467056,1098,1674,2.98177,-13.9727
-119,-650,3.77515,13.6816,0.0310447,0.0184003,0.00541071,0.0330439,0.016401,0.353934,0.0190781,0.0490471,1105,1674,3.77517,-13.6817
-112,-650,3.96997,13.9783,0,0,0,0,0,0,0,-1,1112,1674,3.96994,-13.9783
-105,-650,4.9259,12.0626,0,0,0,0,0,0,0,-1,1119,1674,4.92591,-12.0626
-98,-650,3.3761,6.78003,0,0,0,0,0,0,0,-1,1126,1674,3.37611,-6.78009
-91,-650,3.66809,7.04443,0,0,0,0,0,0,0,-1,1133,1674,3.66806,-7.04439
-84,-650,-3.82666,-1.59521,0,0,0,0,0,0,0,-1,1140,1674,-3.82661,1.59517
-77,-650,-4.70557,1.90198,0,0,0,0,0,0,0,-1,1147,1674,-4.7056,-1.90194
-70,-650,-4.88171,3.81653,0,0,0,0,0,0,0,-1,1154,1674,-4.88176,-3.81651
-63,-650,-5.14612,5.56543,0,0,0,0,0,0,0,-1,1161,1674,-5.14612,-5.56547
-56,-650,-5.38367,7.41101,0,0,0,0,0,0,0,-1,1168,1674,-5.38361,-7.41102
-49,-650,-5.11316,8.23706,0,0,0,0,0,0,0,-1,1175,1674,-5.11317,-8.23708
-42,-650,-4.99487,9.6792,0,0,0,0,0,0,0,-1,1182,1674,-4.99484,-9.67921
-35,-650,-4.77771,11.3369,0,0,0,0,0,0,0,-1,1189,1674,-4.77769,-11.3369
-28,-650,-4.1936,13.1501,0,0,0,0,0,0,0,-1,1196,1674,-4.19358,-13.1501
-21,-650,3.4165,11.1599,0,0,0,0,0,0,0,-1,1203,1674,3.41654,-11.1599
-14,-650,8.04553,14.141,0,0,0,0,0,0,0,-1,1210,1674,8.04558,-14.141
-7,-650,7.53259,13.8411,-0.0114306,-0.00396343,-0.0275379,0.0200928,-0.0354868,-0.852777,0.0324966,0.0484409,1217,1674,7.53261,-13.841
0,-650,6.9729,13.5469,-0.0153389,-0.0132294,-0.0186046,0.0043503,-0.0329187,-0.813714,0.0235303,0.0393441,1224,1674,6.97291,-13.5468
7,-650,6.74939,13.353,-0.0170809,-0.0227305,-0.0130663,-0.00653755,-0.0332738,-0.678942,0.0203563,0.042487,1231,1674,6.74939,-13.3531
14,-650,6.69751,12.9458,-0.0176316,-0.0320115,-0.00973449,-0.0127196,-0.0369234,-0.467313,0.0216587,0.0448187,1238,1674,6.69746,-12.9458
21,-650,6.43115,12.3658,-0.0170828,-0.0406537,-0.0079426,-0.0146562,-0.0430803,-0.296508,0.0252923,0.045774,1245,1674,6.43109,-12.3658
28,-650,5.95581,11.6179,-0.0089335,-0.0498232,-0.00944844,-0.00685581,-0.0519009,-0.216453,0.0325568,0.0432887,1252,1674,5.95578,-11.618
35,-650,5.71875,10.9894,0.00648105,-0.0553189,-0.0131882,0.00917774,-0.0580155,-0.201698,0.0420713,0.0433402,1259,1674,5.71871,-10.9894
42,-650,5.3833,11.0675,0.024161,-0.0598889,-0.0174734,0.0276489,-0.0633767,-0.19702,0.0538861,0.0427878,1266,1674,5.3833,-11.0676
49,-650,5.30627,11.0017,0.0394834,-0.0637375,-0.0210329,0.0436046,-0.0678587,-0.193491,0.0648593,0.0448617,1273,1674,5.3063,-11.0017
56,-650,5.46326,10.756,0.0568066,-0.0652325,-0.0278635,0.0628673,-0.0712932,-0.214178,0.0775085,0.0474862,1280,1674,5.46327,-10.756
63,-650,5.73621,10.4232,0.0755018,-0.0640694,-0.0352986,0.0839212,-0.0724888,-0.234144,0.0903837,0.0470084,1287,1674,5.73625,-10.4232
70,-650,6.00623,10.1335,0,0,0,0,0,0,0,-1,1294,1674,6.0062,-10.1335
77,-650,5.7179,10.6348,0.116385,-0.0665273,-0.0448659,0.126797,-0.0769396,-0.228039,0.118796,0.0497565,1301,1674,5.71795,-10.6348
84,-650,7.97119,7.97632,0.133434,-0.0596482,-0.0496063,0.145433,-0.0716473,-0.237328,0.127722,0.0481707,1308,1674,7.97118,-7.97637
91,-650,8.29089,7.3894,0.148102,-0.0491203,-0.0575445,0.163664,-0.0646825,-0.264118,0.135902,0.0464213,1315,1674,8.29089,-7.38946
98,-650,8.57727,6.85083,0.159668,-0.0393209,-0.0653021,0.179184,-0.058837,-0.29041,0.143157,0.0433254,1322,1674,8.57731,-6.85089
105,-650,8.82861,6.26233,0.169608,-0.0297764,-0.0729349,0.193439,-0.0536076,-0.315811,0.150055,0.0461415,1329,1674,8.82856,-6.26227
112,-650,9.11682,5.62769,0,0,0,0,0,0,0,-1,1336,1674,9.11677,-5.62771
119,-650,12.8296,0.7052,0.185541,-0.0072023,-0.0918019,0.222267,-0.0439287,-0.380559,0.164785,0.0444654,1343,1674,12.8296,-0.705238
126,-650,14.9092,-0.119629,0,0,0,0,0,0,0,-1,1350,1674,14.9092,0.119649
133,-650,16.7592,-1.05676,0.201085,0.0188054,-0.117469,0.258624,-0.0387338,-0.455474,0.186672,0.0497852,1357,1674,16.7591,1.05678
140,-650,18.1344,-1.98364,0.214325,0.0315536,-0.131847,0.283361,-0.037482,-0.482352,0.20256,0.044637,1364,1674,18.1345,1.98362
147,-650,19.5044,-2.83484,0,0,0,0,0,0,0,-1,1371,1674,19.5044,2.83486
154,-650,20.9094,-3.71948,0,0,0,0,0,0,0,-1,1378,1674,20.9095,3.7195
161,-650,11.2434,8.83008,0,0,0,0,0,0,0,-1,1385,1674,11.2434,-8.83004
168,-650,11.2113,7.87231,0,0,0,0,0,0,0,-1,1392,1674,11.2113,-7.87236
175,-650,5.62537,-0.230713,0,0,0,0,0,0,0,-1,1399,1674,5.62538,0.230745
182,-650,5.56006,0.421631,0,0,0,0,0,0,0,-1,1406,1674,5.56,-0.421652
189,-650,4.81543,11.0654,0,0,0,0,0,0,0,-1,1413,1674,4.81542,-11.0654
196,-650,5.39575,11.9077,0,0,0,0,0,0,0,-1,1420,1674,5.39575,-11.9078
203,-650,3.93628,11.8215,0,0,0,0,0,0,0,-1,1427,1674,3.93624,-11.8216
210,-650,5.40955,8.08594,0,0,0,0,0,0,0,-1,1434,1674,5.40958,-8.086
217,-650,5.12451,4.69739,0,0,0,0,0,0,0,-1,1441,1674,5.12451,-4.69738
224,-650,4.79041,1.45813,0,0,0,0,0,0,0,-1,1448,1674,4.79046,-1.45816
231,-650,4.04102,-0.642212,0,0,0,0,0,0,0,-1,1455,1674,4.04101,0.642209
238,-650,3.23022,-1.43396,0,0,0,0,0,0,0,-1,1462,1674,3.23023,1.43394
245,-650,1.65894,-2.55042,0,0,0,0,0,0,0,-1,1469,1674,1.65889,2.55036
252,-650,8.75342,0.355103,0,0,0,0,0,0,0,-1,1476,1674,8.75337,-0.355147
259,-650,5.61255,3.17566,0,0,0,0,0,0,0,-1,1483,1674,5.61257,-3.17572
266,-650,4.00403,6.10229,0,0,0,0,0,0,0,-1,1490,1674,4.00401,-6.10225
273,-650,4.54871,13.5637,0,0,0,0,0,0,0,-1,1497,1674,4.54875,-13.5637
280,-650,4.80591,13.5461,0.00657415,-0.0124727,0.00176863,0.00673699,-0.0126356,0.0918109,0.0113562,0.046698,1504,1674,4.80595,-13.5462
287,-650,5.00354,13.3978,0.00595739,-0.0114889,0.00166522,0.00611491,-0.0116464,0.0943139,0.0104189,0.0424737,1511,1674,5.00359,-13.3978
294,-650,5.20105,13.2013,0.00522397,-0.0105396,0.00171626,0.00540866,-0.0107243,0.107201,0.00948143,0.0373239,1518,1674,5.20111,-13.2013
301,-650,5.16858,13.0962,0.00447189,-0.00895461,0.00154429,0.00464723,-0.00912994,0.113052,0.00809339,0.0300514,1525,1674,5.16854,-13.0962
308,-650,5.1825,13.1354,0.0039122,-0.00727928,0.00123166,0.00404614,-0.00741323,0.108326,0.00671059,0.0177087,1532,1674,5.18245,-13.1354
315,-650,5.18567,13.1271,0.00343887,-0.00568941,0.000998524,0.00354682,-0.00579736,0.107691,0.00544677,0.010704,1539,1674,5.18572,-13.1271
322,-650,5.19751,13.0286,0.00295358,-0.00425267,0.000834705,0.003049,-0.00434809,0.113823,0.00429261,0.0103748,1546,1674,5.19753,-13.0285
329,-650,5.20569,12.8792,0.0025432,-0.00303398,0.00063597,0.0026148,-0.00310558,0.112113,0.00330671,0.0173096,1553,1674,5.2057,-12.8792
336,-650,5.19226,12.7998,0.00195143,-0.00215283,0.000591278,0.00203491,-0.00223631,0.140265,0.00246691,0.0144263,1560,1674,5.19224,-12.7998
343,-650,5.21191,12.7083,0.00146722,-0.00146869,0.00053197,0.00156063,-0.00156211,0.173835,0.00180291,0.0133751,1567,1674,5.21188,-12.7083
350,-650,5.22449,12.5608,0.00118866,-0.0007777,0.000407582,0.00126979,-0.000858834,0.196495,0.00123657,0.0164508,1574,1674,5.22444,-12.5608
357,-650,5.22107,12.4325,0.00095413,-0.00031151,0.000248475,0.00100116,-0.000358544,0.187076,0.000813727,0.013427,1581,1674,5.22106,-12.4325
364,-650,5.21594,12.3381,0.000675078,-0.000159711,6.13889e-05,0.000679568,-0.000164201,0.0730148,0.000516553,0.00911928,1588,1674,5.2159,-12.3381
371,-650,5.23169,12.2336,0.000394539,0.000102315,-0.00017874,0.000479288,1.75666e-05,-0.44275,0.000313833,0.0109569,1595,1674,5.23174,-12.2337
378,-650,5.23975,12.0891,0.000147361,0.000399707,-0.000358025,0.000653141,-0.000106073,-0.954809,0.000474752,0.0125313,1602,1674,5.23971,-12.0892
385,-650,5.23865,11.9492,5.65266e-05,0.000780412,-0.000638103,0.00115208,-0.000315137,-1.04338,0.000891852,0.0138309,1609,1674,5.23862,-11.9492
392,-650,5.21558,11.8165,0.000175621,0.00128104,-0.00101631,0.00188521,-0.000428549,-1.03445,0.00142136,0.0168474,1616,1674,5.21557,-11.8165
399,-650,5.21521,11.6917,0.000290434,0.00200171,-0.00148839,0.00286288,-0.000570737,-1.04627,0.00212454,0.0155759,1623,1674,5.21525,-11.6917
406,-650,5.22705,11.5541,0.000590396,0.00256983,-0.0018474,0.00367593,-0.000515701,-1.03131,0.00263936,0.0146899,1630,1674,5.22705,-11.554
413,-650,5.22351,11.4229,0.00101081,0.00316567,-0.00224096,0.00457476,-0.000398273,-1.00948,0.00319089,0.0151621,1637,1674,5.22352,-11.4228
420,-650,5.21411,11.3015,0.00152718,0.00355646,-0.00256719,0.00530225,-0.000218605,-0.973593,0.00360991,0.0153098,1644,1674,5.21408,-11.3015
427,-650,5.2124,11.1549,0.00223018,0.003682,-0.0028248,0.00587267,3.95165e-05,-0.911166,0.00390201,0.0145458,1651,1674,5.21234,-11.1549
434,-650,5.22217,10.9917,0.00304856,0.0035242,-0.00307787,0.00637343,0.000199334,-0.823956,0.00418409,0.0182047,1658,1674,5.22222,-10.9917
441,-650,5.31616,10.8231,0.00404037,0.00292263,-0.00340108,0.00692819,3.48049e-05,-0.703965,0.00460724,0.0291156,1665,1674,5.31617,-10.8231
448,-650,5.87744,10.9347,0,0,0,0,0,0,0,-1,1672,1674,5.87742,-10.9347
455,-650,5.18628,10.75,0.00611217,0.00158598,-0.00451475,0.00889928,-0.00120113,-0.553068,0.00637108,0.0433043,1679,1674,5.18624,-10.75
462,-650,5.35779,10.5729,0.00725602,0.000765453,-0.00538176,0.0102953,-0.00227378,-0.514081,0.00773366,0.0461226,1686,1674,5.35783,-10.5729
469,-650,5.60291,10.553,0,0,0,0,0,0,0,-1,1693,1674,5.6029,-10.5529
476,-650,5.78943,9.67615,0,0,0,0,0,0,0,-1,1700,1674,5.78944,-9.6762
483,-650,4.03223,7.81799,0,0,0,0,0,0,0,-1,1707,1674,4.03221,-7.81805
490,-650,4.18054,8.0387,0,0,0,0,0,0,0,-1,1714,1674,4.1806,-8.03869
497,-650,4.31458,8.24841,0,0,0,0,0,0,0,-1,1721,1674,4.31452,-8.24844
504,-650,4.39917,8.48206,0,0,0,0,0,0,0,-1,1728,1674,4.39913,-8.48203
511,-650,5.38293,7.94397,0,0,0,0,0,0,0,-1,1735,1674,5.38289,-7.944
518,-650,0,0,0,0,0,0,0,0,0,-1,1742,1674,0,0
525,-650,0,0,0,0,0,0,0,0,0,-1,1749,1674,0,0
532,-650,0,0,0,0,0,0,0,0,0,-1,1756,1674,0,0
539,-650,0,0,0,0,0,0,0,0,0,-1,1763,1674,0,0
546,-650,0,0,0,0,0,0,0,0,0,-1,1770,1674,0,0
553,-650,0,0,0,0,0,0,0,0,0,-1,1777,1674,0,0
560,-650,0,0,0,0,0,0,0,0,0,-1,1784,1674,0,0
567,-650,0,0,0,0,0,0,0,0,0,-1,1791,1674,0,0
574,-650,0,0,0,0,0,0,0,0,0,-1,1798,1674,0,0
581,-650,0,0,0,0,0,0,0,0,0,-1,1805,1674,0,0
588,-650,0,0,0,0,0,0,0,0,0,-1,1812,1674,0,0
595,-650,0,0,0,0,0,0,0,0,0,-1,1819,1674,0,0
602,-650,0,0,0,0,0,0,0,0,0,-1,1826,1674,0,0
609,-650,0,0,0,0,0,0,0,0,0,-1,1833,1674,0,0
616,-650,0,0,0,0,0,0,0,0,0,-1,1840,1674,0,0
623,-650,0,0,0,0,0,0,0,0,0,-1,1847,1674,0,0
630,-650,0,0,0,0,0,0,0,0,0,-1,1854,1674,0,0
637,-650,0,0,0,0,0,0,0,0,0,-1,1861,1674,0,0
644,-650,0,0,0,0,0,0,0,0,0,-1,1868,1674,0,0
651,-650,0,0,0,0,0,0,0,0,0,-1,1875,1674,0,0
658,-650,0,0,0,0,0,0,0,0,0,-1,1882,1674,0,0
665,-650,0,0,0,0,0,0,0,0,0,-1,1889,1674,0,0
672,-650,0,0,0,0,0,0,0,0,0,-1,1896,1674,0,0
679,-650,0,0,0,0,0,0,0,0,0,-1,1903,1674,0,0
686,-650,0,0,0,0,0,0,0,0,0,-1,1910,1674,0,0
693,-650,0,0,0,0,0,0,0,0,0,-1,1917,1674,0,0
700,-650,0,0,0,0,0,0,0,0,0,-1,1924,1674,0,0
707,-650,0,0,0,0,0,0,0,0,0,-1,1931,1674,0,0
714,-650,0,0,0,0,0,0,0,0,0,-1,1938,1674,0,0
721,-650,0,0,0,0,0,0,0,0,0,-1,1945,1674,0,0
728,-650,0,0,0,0,0,0,0,0,0,-1,1952,1674,0,0
735,-650,0,0,0,0,0,0,0,0,0,-1,1959,1674,0,0
742,-650,0,0,0,0,0,0,0,0,0,-1,1966,1674,0,0
749,-650,0,0,0,0,0,0,0,0,0,-1,1973,1674,0,0
756,-650,0,0,0,0,0,0,0,0,0,-1,1980,1674,0,0
763,-650,0,0,0,0,0,0,0,0,0,-1,1987,1674,0,0
770,-650,0,0,0,0,0,0,0,0,0,-1,1994,1674,0,0
777,-650,0,0,0,0,0,0,0,0,0,-1,2001,1674,0,0
784,-650,0,0,0,0,0,0,0,0,0,-1,2008,1674,0,0
791,-650,0,0,0,0,0,0,0,0,0,-1,2015,1674,0,0
798,-650,0,0,0,0,0,0,0,0,0,-1,2022,1674,0,0
805,-650,0,0,0,0,0,0,0,0,0,-1,2029,1674,0,0
812,-650,0,0,0,0,0,0,0,0,0,-1,2036,1674,0,0
-700,-657,0,0,0,0,0,0,0,0,0,-1,524,1681,0,0
-693,-657,0,0,0,0,0,0,0,0,0,-1,531,1681,0,0
-686,-657,0,0,0,0,0,0,0,0,0,-1,538,1681,0,0
-679,-657,0,0,0,0,0,0,0,0,0,-1,545,1681,0,0
-672,-657,0,0,0,0,0,0,0,0,0,-1,552,1681,0,0
-665,-657,0,0,0,0,0,0,0,0,0,-1,559,1681,0,0
-658,-657,0,0,0,0,0,0,0,0,0,-1,566,1681,0,0
-651,-657,0,0,0,0,0,0,0,0,0,-1,573,1681,0,0
-644,-657,0,0,0,0,0,0,0,0,0,-1,580,1681,0,0
-637,-657,0,0,0,0,0,0,0,0,0,-1,587,1681,0,0
-630,-657,0,0,0,0,0,0,0,0,0,-1,594,1681,0,0
-623,-657,0,0,0,0,0,0,0,0,0,-1,601,1681,0,0
-616,-657,0,0,0,0,0,0,0,0,0,-1,608,1681,0,0
-609,-657,0,0,0,0,0,0,0,0,0,-1,615,1681,0,0
-602,-657,0,0,0,0,0,0,0,0,0,-1,622,1681,0,0
-595,-657,0,0,0,0,0,0,0,0,0,-1,629,1681,0,0
-588,-657,0,0,0,0,0,0,0,0,0,-1,636,1681,0,0
-581,-657,0,0,0,0,0,0,0,0,0,-1,643,1681,0,0
-574,-657,0,0,0,0,0,0,0,0,0,-1,650,1681,0,0
-567,-657,0,0,0,0,0,0,0,0,0,-1,657,1681,0,0
-560,-657,0,0,0,0,0,0,0,0,0,-1,664,1681,0,0
-553,-657,0,0,0,0,0,0,0,0,0,-1,671,1681,0,0
-546,-657,0,0,0,0,0,0,0,0,0,-1,678,1681,0,0
-539,-657,0,0,0,0,0,0,0,0,0,-1,685,1681,0,0
-532,-657,0,0,0,0,0,0,0,0,0,-1,692,1681,0,0
-525,-657,0,0,0,0,0,0,0,0,0,-1,699,1681,0,0
-518,-657,0,0,0,0,0,0,0,0,0,-1,706,1681,0,0
-511,-657,0,0,0,0,0,0,0,0,0,-1,713,1681,0,0
-504,-657,0,0,0,0,0,0,0,0,0,-1,720,1681,0,0
-497,-657,0,0,0,0,0,0,0,0,0,-1,727,1681,0,0
-490,-657,0,0,0,0,0,0,0,0,0,-1,734,1681,0,0
-483,-657,0,0,0,0,0,0,0,0,0,-1,741,1681,0,0
-476,-657,0,0,0,0,0,0,0,0,0,-1,748,1681,0,0
-469,-657,0,0,0,0,0,0,0,0,0,-1,755,1681,0,0
-462,-657,0,0,0,0,0,0,0,0,0,-1,762,1681,0,0
-455,-657,0,0,0,0,0,0,0,0,0,-1,769,1681,0,0
-448,-657,0,0,0,0,0,0,0,0,0,-1,776,1681,0,0
-441,-657,0,0,0,0,0,0,0,0,0,-1,783,1681,0,0
-434,-657,0,0,0,0,0,0,0,0,0,-1,790,1681,0,0
-427,-657,0,0,0,0,0,0,0,0,0,-1,797,1681,0,0
-420,-657,0,0,0,0,0,0,0,0,0,-1,804,1681,0,0
-413,-657,0,0,0,0,0,0,0,0,0,-1,811,1681,0,0
-406,-657,0,0,0,0,0,0,0,0,0,-1,818,1681,0,0
-399,-657,0,0,0,0,0,0,0,0,0,-1,825,1681,0,0
-392,-657,0,0,0,0,0,0,0,0,0,-1,832,1681,0,0
-385,-657,1.09814,6.18896,0,0,0,0,0,0,0,-1,839,1681,1.09814,-6.18894
-378,-657,0.31488,4.46753,0,0,0,0,0,0,0,-1,846,1681,0.31487,-4.46755
-371,-657,-0.519043,2.69421,0,0,0,0,0,0,0,-1,853,1681,-0.519064,-2.69422
-364,-657,-3.42017,4.18323,0,0,0,0,0,0,0,-1,860,1681,-3.42019,-4.18319
-357,-657,-4.41913,2.97168,0,0,0,0,0,0,0,-1,867,1681,-4.41913,-2.97165
-350,-657,-5.42291,1.70276,0,0,0,0,0,0,0,-1,874,1681,-5.42291,-1.70277
-343,-657,-6.51294,0.397339,0,0,0,0,0,0,0,-1,881,1681,-6.51295,-0.397335
-336,-657,3.34485,6.49438,0,0,0,0,0,0,0,-1,888,1681,3.34483,-6.49433
-329,-657,3.7196,8.52344,0,0,0,0,0,0,0,-1,895,1681,3.71962,-8.52339
-322,-657,2.24982,9.57751,0,0,0,0,0,0,0,-1,902,1681,2.24979,-9.57756
-315,-657,2.74689,9.57532,0,0,0,0,0,0,0,-1,909,1681,2.74688,-9.57535
-308,-657,3.10468,9.72803,0.00306139,0.00143264,0.00386576,0.00619763,-0.0017036,0.681584,0.00480144,0.0386463,916,1681,3.10465,-9.72808
-301,-657,3.1759,9.98486,0.00177579,0.00139706,0.00272513,0.00431812,-0.00114527,0.750709,0.00332688,0.0293765,923,1681,3.17593,-9.98482
-294,-657,3.19727,10.1788,0.000871527,0.00125761,0.00180525,0.00288011,-0.000750969,0.838663,0.00221328,0.0161781,930,1681,3.19724,-10.1788
-287,-657,3.20367,10.3282,0.000182402,0.000988234,0.00105534,0.00171495,-0.000544317,0.967753,0.00136151,0.0118001,937,1681,3.20365,-10.3282
-280,-657,3.19135,10.4666,-0.00036799,0.000668076,0.000402995,0.000806368,-0.000506282,1.24023,0.000764432,0.0137017,944,1681,3.19136,-10.4666
-273,-657,3.18524,10.6361,-0.000619544,0.000305819,-6.89629e-05,0.00031093,-0.000624655,-1.49682,0.00055019,0.0100555,951,1681,3.18522,-10.636
-266,-657,3.17578,10.8054,-0.000765542,8.78713e-06,-0.00053979,0.000285904,-0.00104266,-1.0965,0.000807459,0.0146702,958,1681,3.1758,-10.8054
-259,-657,3.18292,10.9436,-0.000771369,-0.000282942,-0.000742735,0.000254699,-0.00130901,-0.944232,0.000968798,0.0192534,965,1681,3.18294,-10.9437
-252,-657,3.16534,11.0916,-0.000714184,-0.000671415,-0.000815434,0.000122915,-0.00150851,-0.798507,0.00104905,0.0136592,972,1681,3.16536,-11.0916
-245,-657,3.19336,11.2426,-0.000508346,-0.00108018,-0.000816306,7.06665e-05,-0.00165919,-0.616945,0.00113042,0.0152494,979,1681,3.19336,-11.2425
-238,-657,3.18481,11.3894,-0.000184647,-0.00146612,-0.000707193,0.000128905,-0.00177967,-0.417331,0.00123166,0.0197828,986,1681,3.18484,-11.3894
-231,-657,3.19037,11.5446,0.000266097,-0.0017552,-0.000376382,0.000333908,-0.00182301,-0.178252,0.00134058,0.0206954,993,1681,3.19035,-11.5446
-224,-657,3.1839,11.7257,0.000525973,-0.00217207,-0.000301904,0.000559342,-0.00220544,-0.110083,0.00168792,0.0163172,1000,1681,3.18391,-11.7257
-217,-657,3.18835,11.8403,0.000834872,-0.00243479,-0.000219846,0.000849588,-0.00244951,-0.066837,0.00197799,0.0106147,1007,1681,3.18836,-11.8404
-210,-657,3.20343,11.9552,0.00148417,-0.0027954,-0.000295334,0.00150446,-0.00281568,-0.0685769,0.00253224,0.0106429,1014,1681,3.20343,-11.9552
-203,-657,3.19775,12.0948,0.00225398,-0.00363232,-0.000460725,0.00228983,-0.00366817,-0.0776406,0.0034704,0.0124078,1021,1681,3.19781,-12.0949
-196,-657,3.19507,12.2306,0.00297169,-0.0042353,-0.00066125,0.00303185,-0.00429547,-0.0907418,0.00425135,0.0132652,1028,1681,3.19512,-12.2306
-189,-657,3.20117,12.368,0.00375282,-0.00480767,-0.000927297,0.00385212,-0.00490697,-0.106674,0.00506927,0.0103482,1035,1681,3.20121,-12.3681
-182,-657,3.19543,12.4763,0.00460004,-0.00430261,-0.00109308,0.00473229,-0.00443486,-0.120399,0.00529358,0.00861661,1042,1681,3.19545,-12.4763
-175,-657,3.21191,12.5955,0.0057852,-0.00319965,-0.00132497,0.00597652,-0.00339097,-0.143401,0.00547656,0.0102375,1049,1681,3.2119,-12.5954
-168,-657,3.21082,12.7163,0.00752223,-0.0021559,-0.0014701,0.00774061,-0.00237428,-0.147469,0.00610765,0.0114061,1056,1681,3.21083,-12.7162
-161,-657,3.21289,12.8274,0.00925188,-0.000575071,-0.001304,0.00942197,-0.000745163,-0.129706,0.00654386,0.0107354,1063,1681,3.21293,-12.8274
-154,-657,3.22839,12.9557,0.0111272,0.00151294,-0.00100071,0.0112302,0.00140988,-0.102621,0.00706391,0.0109578,1070,1681,3.22839,-12.9557
-147,-657,3.24561,13.03,0.0130909,0.00411681,-0.000471453,0.0131156,0.00409211,-0.0523431,0.00774863,0.0158106,1077,1681,3.24563,-13.03
-140,-657,3.21924,13.1289,0.0152088,0.00655048,0.000262508,0.0152168,0.00654253,0.0302813,0.00881411,0.0257451,1084,1681,3.21921,-13.1289
-133,-657,3.22839,13.299,0.0177286,0.00859919,0.00147842,0.0179621,0.00836575,0.156609,0.0103785,0.0337188,1091,1681,3.22837,-13.2989
-126,-657,3.28406,13.3615,0.0201778,0.0103526,0.00257292,0.0208108,0.0097196,0.241227,0.0120238,0.0397921,1098,1681,3.28403,-13.3614
-119,-657,3.5376,13.4966,0.0231875,0.0118645,0.004363,0.0246737,0.0103784,0.32829,0.014305,0.0465107,1105,1681,3.53757,-13.4966
-112,-657,3.93628,13.6785,0.0258305,0.0118658,0.0061235,0.0281352,0.00956108,0.359981,0.0165194,0.04512,1112,1681,3.93633,-13.6784
-105,-657,3.64246,13.9678,0,0,0,0,0,0,0,-1,1119,1681,3.64245,-13.9678
-98,-657,3.78662,8.16785,0,0,0,0,0,0,0,-1,1126,1681,3.78663,-8.16786
-91,-657,3.67859,12.0681,0,0,0,0,0,0,0,-1,1133,1681,3.67865,-12.0681
-84,-657,4.08008,10.4579,0,0,0,0,0,0,0,-1,1140,1681,4.08006,-10.4579
-77,-657,-5.29846,0.396606,0,0,0,0,0,0,0,-1,1147,1681,-5.29842,-0.396573
-70,-657,-4.14893,2.14575,0,0,0,0,0,0,0,-1,1154,1681,-4.14893,-2.1458
-63,-657,-4.1239,3.177,0,0,0,0,0,0,0,-1,1161,1681,-4.12391,-3.17698
-56,-657,-6.40576,5.73987,0,0,0,0,0,0,0,-1,1168,1681,-6.40577,-5.7399
-49,-657,-5.98462,7.54053,0,0,0,0,0,0,0,-1,1175,1681,-5.98466,-7.5405
-42,-657,-5.71948,9.28955,0,0,0,0,0,0,0,-1,1182,1681,-5.71951,-9.2895
-35,-657,-5.44556,11.015,0,0,0,0,0,0,0,-1,1189,1681,-5.44555,-11.015
-28,-657,-1.3446,8.92847,0,0,0,0,0,0,0,-1,1196,1681,-1.34459,-8.92848
-21,-657,6.55542,16.7672,0,0,0,0,0,0,0,-1,1203,1681,6.55541,-16.7673
-14,-657,6.30872,16.1167,-0.00844708,-0.0024165,-0.0279199,0.0226504,-0.033514,-0.839189,0.0326281,0.0461666,1210,1681,6.30867,-16.1167
-7,-657,6.07654,15.4359,-0.0113332,-0.00876291,-0.0206911,0.0106829,-0.030779,-0.816414,0.0248576,0.0434421,1217,1681,6.07654,-15.4359
0,-657,6.22693,14.2734,0,0,0,0,0,0,0,-1,1224,1681,6.22688,-14.2734
7,-657,6.30994,13.673,-0.0144939,-0.0246956,-0.00925672,-0.00902569,-0.0301638,-0.533578,0.017877,0.0417639,1231,1681,6.30994,-13.673
14,-657,6.27173,13.2928,-0.0146252,-0.032606,-0.00609988,-0.0127512,-0.0344801,-0.29807,0.0201307,0.0405388,1238,1681,6.27168,-13.2928
21,-657,6.30225,13.0094,-0.0139595,-0.0398899,-0.00420883,-0.0132935,-0.040556,-0.156946,0.0238735,0.0421983,1245,1681,6.30227,-13.0094
28,-657,5.83228,12.3156,-0.00695938,-0.0470316,-0.0051563,-0.00630652,-0.0476844,-0.125942,0.0299099,0.0428722,1252,1681,5.83225,-12.3156
35,-657,5.44751,11.8193,0.0069185,-0.0509726,-0.00786319,0.00796753,-0.0520216,-0.132627,0.0376192,0.041701,1259,1681,5.44748,-11.8193
42,-657,5.47729,11.8722,0.0230118,-0.0539724,-0.0108095,0.0245008,-0.0554613,-0.136886,0.0473056,0.0436929,1266,1681,5.4773,-11.8722
49,-657,5.62268,11.7701,0.0366766,-0.055887,-0.0132506,0.0385361,-0.0577465,-0.139422,0.0559564,0.0472138,1273,1681,5.62272,-11.7702
56,-657,5.69226,11.5708,0,0,0,0,0,0,0,-1,1280,1681,5.69227,-11.5708
63,-657,6.64502,10.9408,0,0,0,0,0,0,0,-1,1287,1681,6.64502,-10.9408
70,-657,6.87573,11.5299,0,0,0,0,0,0,0,-1,1294,1681,6.87573,-11.5299
77,-657,6.67126,11.4641,0.103882,-0.0548225,-0.0313801,0.109861,-0.0608019,-0.18829,0.0998802,0.0472064,1301,1681,6.67132,-11.4641
84,-657,8.26611,8.17517,0.118391,-0.0492173,-0.0350233,0.125415,-0.0562413,-0.197929,0.107384,0.0456209,1308,1681,8.26608,-8.17519
91,-657,8.92212,7.69702,0.130187,-0.0413553,-0.0412719,0.1396,-0.0507685,-0.224242,0.113828,0.0444426,1315,1681,8.92213,-7.69701
98,-657,9.45764,7.1886,0.138673,-0.0344979,-0.0475975,0.150893,-0.0467181,-0.251313,0.119258,0.0415518,1322,1681,9.45767,-7.18854
105,-657,9.43713,6.78967,0,0,0,0,0,0,0,-1,1329,1681,9.43716,-6.78964
112,-657,9.52307,5.83521,0.151056,-0.0205933,-0.0614547,0.170789,-0.040327,-0.310709,0.129413,0.0449408,1336,1681,9.52302,-5.83525
119,-657,9.4812,5.53284,0.1562,-0.0119127,-0.070398,0.181785,-0.0374983,-0.348599,0.135431,0.0492916,1343,1681,9.48118,-5.53279
126,-657,16.4794,-1.57678,0,0,0,0,0,0,0,-1,1350,1681,16.4793,1.57679
133,-657,18.1361,-2.18445,0,0,0,0,0,0,0,-1,1357,1681,18.1361,2.18449
140,-657,19.451,-2.70422,0,0,0,0,0,0,0,-1,1364,1681,19.451,2.70418
147,-657,20.8457,-3.61353,0,0,0,0,0,0,0,-1,1371,1681,20.8457,3.61349
154,-657,12.2501,7.70422,0,0,0,0,0,0,0,-1,1378,1681,12.2501,-7.70418
161,-657,12.8524,6.43372,0,0,0,0,0,0,0,-1,1385,1681,12.8524,-6.43366
168,-657,5.21643,0.70105,0,0,0,0,0,0,0,-1,1392,1681,5.21648,-0.7011
175,-657,5.52771,0.649048,0,0,0,0,0,0,0,-1,1399,1681,5.52774,-0.649019
182,-657,5.73999,1.02612,0,0,0,0,0,0,0,-1,1406,1681,5.73995,-1.02611
189,-657,5.92126,1.44116,0,0,0,0,0,0,0,-1,1413,1681,5.92126,-1.44115
196,-657,4.92834,9.59021,0,0,0,0,0,0,0,-1,1420,1681,4.9284,-9.59018
203,-657,6.26343,5.16492,0,0,0,0,0,0,0,-1,1427,1681,6.26345,-5.16488
210,-657,3.9856,5.28088,0,0,0,0,0,0,0,-1,1434,1681,3.98555,-5.28084
217,-657,3.95178,5.2843,0,0,0,0,0,0,0,-1,1441,1681,3.95174,-5.28431
224,-657,6.66736,-0.250244,0,0,0,0,0,0,0,-1,1448,1681,6.66737,0.250229
231,-657,6.85498,-1.70752,0,0,0,0,0,0,0,-1,1455,1681,6.855,1.70758
238,-657,5.34143,-2.89819,0,0,0,0,0,0,0,-1,1462,1681,5.34143,2.89813
245,-657,8.66003,-0.102783,0,0,0,0,0,0,0,-1,1469,1681,8.66,0.102824
252,-657,4.78955,0.623779,0,0,0,0,0,0,0,-1,1476,1681,4.7895,-0.623826
259,-657,2.61523,4.31909,0,0,0,0,0,0,0,-1,1483,1681,2.61523,-4.31908
266,-657,5.35437,11.4742,0,0,0,0,0,0,0,-1,1490,1681,5.35441,-11.4742
273,-657,4.63574,13.3566,0,0,0,0,0,0,0,-1,1497,1681,4.63573,-13.3565
280,-657,4.83264,13.3909,0.0048071,-0.00920771,0.00154683,0.00497579,-0.00937641,0.108629,0.00841508,0.0359474,1504,1681,4.83267,-13.3909
287,-657,5.03345,13.4087,0.00439205,-0.00838355,0.00139219,0.004542,-0.0085335,0.107295,0.00766549,0.0286965,1511,1681,5.03348,-13.4087
294,-657,5.03137,13.36,0.0038842,-0.00766356,0.00140967,0.00405379,-0.00783315,0.11973,0.0069776,0.0227198,1518,1681,5.03141,-13.36
301,-657,5.06445,13.303,0.0033775,-0.00651649,0.00124367,0.00353143,-0.00667043,0.123148,0.00598226,0.0148744,1525,1681,5.06442,-13.303
308,-657,5.07874,13.2131,0.00295648,-0.00527489,0.000961177,0.00306722,-0.00538564,0.114714,0.00494107,0.0113264,1532,1681,5.07868,-13.2131
315,-657,5.07227,13.1235,0.00258845,-0.00412601,0.000796301,0.00268159,-0.00421915,0.116443,0.00401698,0.010649,1539,1681,5.07228,-13.1235
322,-657,5.10266,13.0095,0.00224222,-0.00309495,0.000693231,0.00233079,-0.00318352,0.127079,0.00319635,0.0139533,1546,1681,5.1027,-13.0095
329,-657,5.10278,12.8864,0.00197279,-0.00223597,0.000557037,0.00204527,-0.00230845,0.129384,0.00251515,0.0206092,1553,1681,5.1028,-12.8864
336,-657,5.08777,12.7841,0.0015331,-0.0015964,0.000564776,0.0016319,-0.00169521,0.173193,0.00192102,0.0165416,1560,1681,5.08782,-12.7841
343,-657,5.11853,12.6954,0.00118628,-0.00105131,0.00053833,0.00130905,-0.00117409,0.224236,0.00143435,0.0127531,1567,1681,5.11851,-12.6954
350,-657,5.11682,12.5637,0.00100948,-0.000534329,0.000428278,0.00112033,-0.000645181,0.253273,0.00103155,0.0149379,1574,1681,5.11679,-12.5637
357,-657,5.10693,12.4396,0.000868913,-0.000178852,0.000279276,0.000938703,-0.000248643,0.244884,0.000723077,0.0135372,1581,1681,5.10695,-12.4396
364,-657,5.1178,12.3478,0.000671401,4.60331e-06,5.17571e-05,0.000675395,6.09813e-07,0.0770057,0.00045006,0.0101106,1588,1681,5.11775,-12.3477
371,-657,5.12622,12.2462,0.000439252,0.000440608,-0.000309022,0.000748953,0.000130907,-0.786495,0.000461891,0.0142415,1595,1681,5.12623,-12.2462
378,-657,5.10767,12.1003,0.000254929,0.000856535,-0.000619443,0.00124435,-0.000132884,-1.01143,0.000877221,0.0142571,1602,1681,5.10772,-12.1003
385,-657,5.08142,11.9514,0.000212162,0.001424,-0.00104647,0.00202731,-0.000391153,-1.04782,0.00149904,0.0128142,1609,1681,5.08143,-11.9515
392,-657,5.08447,11.8375,0.000356644,0.00218104,-0.0015411,0.00305968,-0.000521998,-1.05262,0.00223421,0.0128014,1616,1681,5.08453,-11.8375
399,-657,5.10986,11.6862,0.00045488,0.00312531,-0.00214062,0.004313,-0.000732812,-1.06425,0.00314816,0.0129244,1623,1681,5.10987,-11.6862
406,-657,5.12415,11.5486,0.000773846,0.0039496,-0.00264938,0.00545051,-0.000727062,-1.05536,0.00389869,0.0141943,1630,1681,5.12419,-11.5486
413,-657,5.11597,11.4104,0.00124488,0.00482371,-0.00325249,0.00674653,-0.000677941,-1.03688,0.00473986,0.0134796,1637,1681,5.11599,-11.4104
420,-657,5.10278,11.2406,0.00177388,0.00550279,-0.00369253,0.00777487,-0.000498203,-1.01919,0.00535704,0.0142528,1644,1681,5.10282,-11.2405
427,-657,5.08179,11.0652,0.0025497,0.00572782,-0.0039823,0.00842639,-0.000148882,-0.975233,0.00566788,0.0179139,1651,1681,5.08175,-11.0652
434,-657,5.13953,10.8992,0.00357662,0.00563466,-0.00416885,0.00889961,0.000311665,-0.906397,0.00583196,0.0276534,1658,1681,5.13947,-10.8991
441,-657,5.32129,10.7157,0.00485533,0.00493337,-0.00443313,0.00932766,0.000461044,-0.789799,0.0060706,0.0441927,1665,1681,5.32133,-10.7157
448,-657,5.53442,10.597,0,0,0,0,0,0,0,-1,1672,1681,5.53445,-10.597
455,-657,5.63928,10.2986,0,0,0,0,0,0,0,-1,1679,1681,5.63932,-10.2986
462,-657,5.08679,10.5304,0,0,0,0,0,0,0,-1,1686,1681,5.08683,-10.5304
469,-657,5.10181,9.72278,0,0,0,0,0,0,0,-1,1693,1681,5.10182,-9.72276
476,-657,4.00061,7.79138,0,0,0,0,0,0,0,-1,1700,1681,4.00063,-7.79135
483,-657,4.10754,7.81067,0,0,0,0,0,0,0,-1,1707,1681,4.1076,-7.81069
490,-657,4.23486,7.78906,0,0,0,0,0,0,0,-1,1714,1681,4.23484,-7.78903
497,-657,4.41187,7.68823,0,0,0,0,0,0,0,-1,1721,1681,4.41192,-7.68829
504,-657,0,0,0,0,0,0,0,0,0,-1,1728,1681,0,0
511,-657,0,0,0,0,0,0,0,0,0,-1,1735,1681,0,0
518,-657,0,0,0,0,0,0,0,0,0,-1,1742,1681,0,0
525,-657,0,0,0,0,0,0,0,0,0,-1,1749,1681,0,0
532,-657,0,0,0,0,0,0,0,0,0,-1,1756,1681,0,0
539,-657,0,0,0,0,0,0,0,0,0,-1,1763,1681,0,0
546,-657,0,0,0,0,0,0,0,0,0,-1,1770,1681,0,0
553,-657,0,0,0,0,0,0,0,0,0,-1,1777,1681,0,0
560,-657,0,0,0,0,0,0,0,0,0,-1,1784,1681,0,0
567,-657,0,0,0,0,0,0,0,0,0,-1,1791,1681,0,0
574,-657,0,0,0,0,0,0,0,0,0,-1,1798,1681,0,0
581,-657,0,0,0,0,0,0,0,0,0,-1,1805,1681,0,0
588,-657,0,0,0,0,0,0,0,0,0,-1,1812,1681,0,0
595,-657,0,0,0,0,0,0,0,0,0,-1,1819,1681,0,0
602,-657,0,0,0,0,0,0,0,0,0,-1,1826,1681,0,0
609,-657,0,0,0,0,0,0,0,0,0,-1,1833,1681,0,0
616,-657,0,0,0,0,0,0,0,0,0,-1,1840,1681,0,0
623,-657,0,0,0,0,0,0,0,0,0,-1,1847,1681,0,0
630,-657,0,0,0,0,0,0,0,0,0,-1,1854,1681,0,0
637,-657,0,0,0,0,0,0,0,0,0,-1,1861,1681,0,0
644,-657,0,0,0,0,0,0,0,0,0,-1,1868,1681,0,0
651,-657,0,0,0,0,0,0,0,0,0,-1,1875,1681,0,0
658,-657,0,0,0,0,0,0,0,0,0,-1,1882,1681,0,0
665,-657,0,0,0,0,0,0,0,0,0,-1,1889,1681,0,0
672,-657,0,0,0,0,0,0,0,0,0,-1,1896,1681,0,0
679,-657,0,0,0,0,0,0,0,0,0,-1,1903,1681,0,0
686,-657,0,0,0,0,0,0,0,0,0,-1,1910,1681,0,0
693,-657,0,0,0,0,0,0,0,0,0,-1,1917,1681,0,0
700,-657,0,0,0,0,0,0,0,0,0,-1,1924,1681,0,0
707,-657,0,0,0,0,0,0,0,0,0,-1,1931,1681,0,0
714,-657,0,0,0,0,0,0,0,0,0,-1,1938,1681,0,0
721,-657,0,0,0,0,0,0,0,0,0,-1,1945,1681,0,0
728,-657,0,0,0,0,0,0,0,0,0,-1,1952,1681,0,0
735,-657,0,0,0,0,0,0,0,0,0,-1,1959,1681,0,0
742,-657,0,0,0,0,0,0,0,0,0,-1,1966,1681,0,0
749,-657,0,0,0,0,0,0,0,0,0,-1,1973,1681,0,0
756,-657,0,0,0,0,0,0,0,0,0,-1,1980,1681,0,0
763,-657,0,0,0,0,0,0,0,0,0,-1,1987,1681,0,0
770,-657,0,0,0,0,0,0,0,0,0,-1,1994,1681,0,0
777,-657,0,0,0,0,0,0,0,0,0,-1,2001,1681,0,0
784,-657,0,0,0,0,0,0,0,0,0,-1,2008,1681,0,0
791,-657,0,0,0,0,0,0,0,0,0,-1,2015,1681,0,0
798,-657,0,0,0,0,0,0,0,0,0,-1,2022,1681,0,0
805,-657,0,0,0,0,0,0,0,0,0,-1,2029,1681,0,0
812,-657,0,0,0,0,0,0,0,0,0,-1,2036,1681,0,0
-700,-664,0,0,0,0,0,0,0,0,0,-1,524,1688,0,0
-693,-664,0,0,0,0,0,0,0,0,0,-1,531,1688,0,0
-686,-664,0,0,0,0,0,0,0,0,0,-1,538,1688,0,0
-679,-664,0,0,0,0,0,0,0,0,0,-1,545,1688,0,0
-672,-664,0,0,0,0,0,0,0,0,0,-1,552,1688,0,0
-665,-664,0,0,0,0,0,0,0,0,0,-1,559,1688,0,0
-658,-664,0,0,0,0,0,0,0,0,0,-1,566,1688,0,0
-651,-664,0,0,0,0,0,0,0,0,0,-1,573,1688,0,0
-644,-664,0,0,0,0,0,0,0,0,0,-1,580,1688,0,0
-637,-664,0,0,0,0,0,0,0,0,0,-1,587,1688,0,0
-630,-664,0,0,0,0,0,0,0,0,0,-1,594,1688,0,0
-623,-664,0,0,0,0,0,0,0,0,0,-1,601,1688,0,0
-616,-664,0,0,0,0,0,0,0,0,0,-1,608,1688,0,0
-609,-664,0,0,0,0,0,0,0,0,0,-1,615,1688,0,0
-602,-664,0,0,0,0,0,0,0,0,0,-1,622,1688,0,0
-595,-664,0,0,0,0,0,0,0,0,0,-1,629,1688,0,0
-588,-664,0,0,0,0,0,0,0,0,0,-1,636,1688,0,0
-581,-664,0,0,0,0,0,0,0,0,0,-1,643,1688,0,0
-574,-664,0,0,0,0,0,0,0,0,0,-1,650,1688,0,0
-567,-664,0,0,0,0,0,0,0,0,0,-1,657,1688,0,0
-560,-664,0,0,0,0,0,0,0,0,0,-1,664,1688,0,0
-553,-664,0,0,0,0,0,0,0,0,0,-1,671,1688,0,0
-546,-664,0,0,0,0,0,0,0,0,0,-1,678,1688,0,0
-539,-664,0,0,0,0,0,0,0,0,0,-1,685,1688,0,0
-532,-664,0,0,0,0,0,0,0,0,0,-1,692,1688,0,0
-525,-664,0,0,0,0,0,0,0,0,0,-1,699,1688,0,0
-518,-664,0,0,0,0,0,0,0,0,0,-1,706,1688,0,0
-511,-664,0,0,0,0,0,0,0,0,0,-1,713,1688,0,0
-504,-664,0,0,0,0,0,0,0,0,0,-1,720,1688,0,0
-497,-664,0,0,0,0,0,0,0,0,0,-1,727,1688,0,0
-490,-664,0,0,0,0,0,0,0,0,0,-1,734,1688,0,0
-483,-664,0,0,0,0,0,0,0,0,0,-1,741,1688,0,0
-476,-664,0,0,0,0,0,0,0,0,0,-1,748,1688,0,0
-469,-664,0,0,0,0,0,0,0,0,0,-1,755,1688,0,0
-462,-664,0,0,0,0,0,0,0,0,0,-1,762,1688,0,0
-455,-664,0,0,0,0,0,0,0,0,0,-1,769,1688,0,0
-448,-664,0,0,0,0,0,0,0,0,0,-1,776,1688,0,0
-441,-664,0,0,0,0,0,0,0,0,0,-1,783,1688,0,0
-434,-664,0,0,0,0,0,0,0,0,0,-1,790,1688,0,0
-427,-664,0,0,0,0,0,0,0,0,0,-1,797,1688,0,0
-420,-664,0,0,0,0,0,0,0,0,0,-1,804,1688,0,0
-413,-664,0,0,0,0,0,0,0,0,0,-1,811,1688,0,0
-406,-664,0,0,0,0,0,0,0,0,0,-1,818,1688,0,0
-399,-664,0,0,0,0,0,0,0,0,0,-1,825,1688,0,0
-392,-664,0,0,0,0,0,0,0,0,0,-1,832,1688,0,0
-385,-664,0,0,0,0,0,0,0,0,0,-1,839,1688,0,0
-378,-664,0,0,0,0,0,0,0,0,0,-1,846,1688,0,0
-371,-664,-1.61676,5.92737,0,0,0,0,0,0,0,-1,853,1688,-1.61675,-5.92735
-364,-664,-3.901,5.87024,0,0,0,0,0,0,0,-1,860,1688,-3.90097,-5.87027
-357,-664,-4.81012,4.53479,0,0,0,0,0,0,0,-1,867,1688,-4.81012,-4.5348
-350,-664,-5.7193,3.19934,0,0,0,0,0,0,0,-1,874,1688,-5.71927,-3.19932
-343,-664,-6.37476,1.54712,0,0,0,0,0,0,0,-1,881,1688,-6.37479,-1.54714
-336,-664,2.65283,7.3949,0,0,0,0,0,0,0,-1,888,1688,2.65286,-7.39493
-329,-664,2.68933,7.60779,0,0,0,0,0,0,0,-1,895,1688,2.68932,-7.60775
-322,-664,2.37708,8.34717,0,0,0,0,0,0,0,-1,902,1688,2.37708,-8.34718
-315,-664,3.15936,9.06348,0,0,0,0,0,0,0,-1,909,1688,3.15937,-9.06347
-308,-664,3.16235,9.64319,0,0,0,0,0,0,0,-1,916,1688,3.16234,-9.64316
-301,-664,3.31714,9.75049,0.000625651,0.000996961,0.00316019,0.00397694,-0.00235433,0.814738,0.00369516,0.0454041,923,1688,3.31711,-9.75045
-294,-664,3.45569,10.0427,-0.000336011,0.000693405,0.00203337,0.0022762,-0.0019188,0.90936,0.00242491,0.0432047,930,1688,3.45568,-10.0427
-287,-664,3.43408,10.3142,-0.00099532,0.000328023,0.00112138,0.000968387,-0.00163568,1.05193,0.00151983,0.0298757,937,1688,3.4341,-10.3142
-280,-664,3.32959,10.4885,-0.00129592,1.94215e-05,0.000400388,0.000131713,-0.00140821,1.29736,0.000985649,0.018645,944,1688,3.3296,-10.4885
-273,-664,3.33392,10.6265,-0.00135968,-0.000383149,-0.000158347,-0.000358114,-0.00138471,-1.41399,0.000829936,0.0148831,951,1688,3.33391,-10.6264
-266,-664,3.34656,10.7764,-0.00136452,-0.000656664,-0.000704963,-0.000221772,-0.00179942,-1.01804,0.00113294,0.0212592,958,1688,3.34655,-10.7763
-259,-664,3.33893,10.9406,-0.00124053,-0.000849107,-0.000934598,-8.99486e-05,-0.00199969,-0.888611,0.00130418,0.0191765,965,1688,3.33892,-10.9406
-252,-664,3.34119,11.0964,-0.00110055,-0.001077,-0.000991504,-9.72019e-05,-0.00208035,-0.791335,0.00135566,0.0177862,972,1688,3.34117,-11.0964
-245,-664,3.32489,11.2599,-0.000879341,-0.00138297,-0.000964753,-0.000134079,-0.00212823,-0.65774,0.00137631,0.0210492,979,1688,3.32488,-11.2598
-238,-664,3.32227,11.415,-0.000578596,-0.00162599,-0.000822924,-0.000126863,-0.00207772,-0.502026,0.00134486,0.0220592,986,1688,3.32226,-11.4151
-231,-664,3.31702,11.5417,-0.000151719,-0.00183932,-0.000489756,-1.98866e-05,-0.00197115,-0.262948,0.00130752,0.0190318,993,1688,3.31703,-11.5417
-224,-664,3.32715,11.7058,0.000113651,-0.00210266,-0.000408563,0.000186567,-0.00217558,-0.176612,0.00151641,0.0139913,1000,1688,3.32714,-11.7059
-217,-664,3.33215,11.8357,0.000322617,-0.00220042,-0.000306618,0.000359345,-0.00223715,-0.119215,0.00162452,0.0106549,1007,1688,3.33213,-11.8357
-210,-664,3.3429,11.9587,0.000715885,-0.00233721,-0.000264117,0.000738565,-0.00235989,-0.0856598,0.00186875,0.011864,1014,1688,3.34289,-11.9587
-203,-664,3.32385,12.0974,0.00126275,-0.00301808,-0.000321057,0.0012867,-0.00304202,-0.0744438,0.00256677,0.0138303,1021,1688,3.32385,-12.0974
-196,-664,3.31201,12.2346,0.00179801,-0.00342264,-0.000415503,0.00183088,-0.0034555,-0.0789262,0.00309976,0.0138953,1028,1688,3.31202,-12.2346
-189,-664,3.32751,12.3652,0.00239518,-0.00382914,-0.000609781,0.00245436,-0.00388832,-0.0967418,0.00369301,0.010158,1035,1688,3.32755,-12.3652
-182,-664,3.31482,12.4716,0.00302194,-0.00338551,-0.000753859,0.00310944,-0.00347301,-0.115552,0.00380231,0.010263,1042,1688,3.31479,-12.4716
-175,-664,3.33374,12.5613,0.00390937,-0.00242996,-0.00093277,0.00404377,-0.00256435,-0.143101,0.00384694,0.0132968,1049,1688,3.33373,-12.5613
-168,-664,3.3429,12.689,0.00526954,-0.00153544,-0.00100487,0.00541483,-0.00168072,-0.143585,0.00428154,0.0140472,1056,1688,3.34295,-12.689
-161,-664,3.34802,12.8215,0.00661588,-0.000298747,-0.000839711,0.00671639,-0.000399261,-0.119133,0.00461644,0.00996601,1063,1688,3.34806,-12.8216
-154,-664,3.35388,12.9343,0.00803805,0.00121677,-0.000594687,0.00808951,0.00116531,-0.0863134,0.00504959,0.00924744,1070,1688,3.35384,-12.9344
-147,-664,3.36035,13.0348,0.00949762,0.00302943,-0.000178859,0.00950256,0.00302449,-0.027624,0.00560578,0.0102602,1077,1688,3.3603,-13.0348
-140,-664,3.3717,13.1388,0.0111246,0.00462909,0.000372956,0.0111459,0.00460774,0.0571671,0.00646721,0.0105574,1084,1688,3.3717,-13.1388
-133,-664,3.39233,13.2476,0.0130852,0.00574497,0.00130169,0.0133092,0.00552097,0.170415,0.00772117,0.0114804,1091,1688,3.39229,-13.2476
-126,-664,3.44897,13.353,0.0149091,0.00661401,0.00214392,0.0154305,0.00609267,0.238543,0.00897421,0.020805,1098,1688,3.44896,-13.3531
-119,-664,3.64404,13.3717,0.0170775,0.00723959,0.00341106,0.0181445,0.00617262,0.303158,0.0106526,0.0348227,1105,1688,3.64404,-13.3717
-112,-664,3.68567,13.4775,0.0189238,0.00670401,0.00463259,0.0204814,0.00514633,0.324368,0.012303,0.0421742,1112,1688,3.68571,-13.4775
-105,-664,3.66833,13.5211,0,0,0,0,0,0,0,-1,1119,1688,3.66828,-13.5211
-98,-664,3.79053,12.9385,0,0,0,0,0,0,0,-1,1126,1688,3.79048,-12.9385
-91,-664,3.67004,12.8,0,0,0,0,0,0,0,-1,1133,1688,3.67009,-12.8
-84,-664,3.70435,12.4894,0,0,0,0,0,0,0,-1,1140,1688,3.70438,-12.4893
-77,-664,4.52014,11.2122,0,0,0,0,0,0,0,-1,1147,1688,4.5202,-11.2122
-70,-664,4.20374,8.24524,0,0,0,0,0,0,0,-1,1154,1688,4.20379,-8.24519
-63,-664,-4.677,2.40503,0,0,0,0,0,0,0,-1,1161,1688,-4.67702,-2.40498
-56,-664,-4.66504,3.32727,0,0,0,0,0,0,0,-1,1168,1688,-4.6651,-3.32724
-49,-664,-2.54297,3.31848,0,0,0,0,0,0,0,-1,1175,1688,-2.54297,-3.31852
-42,-664,-0.359253,4.38684,0,0,0,0,0,0,0,-1,1182,1688,-0.359261,-4.38685
-35,-664,-0.705566,3.55017,0,0,0,0,0,0,0,-1,1189,1688,-0.705567,-3.55023
-28,-664,-1.54236,10.2538,0,0,0,0,0,0,0,-1,1196,1688,-1.54236,-10.2538
-21,-664,7.10583,16.392,0,0,0,0,0,0,0,-1,1203,1688,7.10587,-16.392
-14,-664,6.86755,15.7711,-0.00851095,-0.00680054,-0.0198721,0.0122348,-0.0275463,-0.806903,0.0235278,0.0448522,1210,1688,6.86754,-15.7711
-7,-664,6.58374,15.0812,-0.0100661,-0.0120713,-0.0146245,0.0035901,-0.0257275,-0.751174,0.018465,0.0455528,1217,1688,6.58377,-15.0812
0,-664,6.37427,14.3796,0,0,0,0,0,0,0,-1,1224,1688,6.37431,-14.3796
7,-664,6.19556,13.9014,-0.0117087,-0.0251654,-0.00562454,-0.00966742,-0.0272067,-0.348138,0.0159254,0.0451489,1231,1688,6.19551,-13.9014
14,-664,6.08813,13.5299,-0.0116372,-0.0315982,-0.00277772,-0.0112579,-0.0319775,-0.135723,0.0187297,0.0421812,1238,1688,6.08815,-13.5299
21,-664,6.0614,13.5527,-0.0110188,-0.0374511,-0.000961888,-0.0109838,-0.0374861,-0.0363265,0.0222522,0.0442293,1245,1688,6.06135,-13.5528
28,-664,5.9928,13.051,-0.00526907,-0.0427479,-0.0014815,-0.0052106,-0.0428064,-0.039447,0.026969,0.0444173,1252,1688,5.99278,-13.051
35,-664,5.41162,12.5184,0.00665834,-0.045397,-0.00336285,0.00687468,-0.0456134,-0.0642456,0.0329405,0.0455798,1259,1688,5.41163,-12.5184
42,-664,5.44958,12.462,0.0206919,-0.0471508,-0.00530624,0.0211044,-0.0475633,-0.0775852,0.0406145,0.0457568,1266,1688,5.44954,-12.4621
49,-664,5.78528,12.4951,0.0324705,-0.0476489,-0.00692343,0.0330643,-0.0482428,-0.0855687,0.0472145,0.0455692,1273,1688,5.78528,-12.4951
56,-664,5.92822,12.2833,0,0,0,0,0,0,0,-1,1280,1688,5.92819,-12.2833
63,-664,3.94922,13.2162,0,0,0,0,0,0,0,-1,1287,1688,3.94922,-13.2162
70,-664,4.35852,17.7158,0,0,0,0,0,0,0,-1,1294,1688,4.35848,-17.7158
77,-664,4.0321,17.2515,0.089477,-0.0439838,-0.0206711,0.0926053,-0.0471122,-0.150198,0.0820789,0.0452492,1301,1688,4.03204,-17.2514
84,-664,3.73181,16.7408,0.101548,-0.0395363,-0.0234429,0.105341,-0.0433297,-0.160422,0.0882888,0.0439885,1308,1688,3.73182,-16.7408
91,-664,9.448,7.67395,0.110893,-0.0339115,-0.0282461,0.116208,-0.0392262,-0.185983,0.0933367,0.0418748,1315,1688,9.44799,-7.67393
98,-664,10.5618,7.28259,0.117045,-0.0295026,-0.0332268,0.124227,-0.0366842,-0.212864,0.0973771,0.0460991,1322,1688,10.5618,-7.28263
105,-664,10.6351,6.56274,0,0,0,0,0,0,0,-1,1329,1688,10.6351,-6.56279
112,-664,10.6122,6.03088,0,0,0,0,0,0,0,-1,1336,1688,10.6122,-6.03092
119,-664,10.6182,5.48633,0,0,0,0,0,0,0,-1,1343,1688,10.6181,-5.4863
126,-664,5.19678,15.0034,0,0,0,0,0,0,0,-1,1350,1688,5.19683,-15.0034
133,-664,19.5375,-3.22803,0,0,0,0,0,0,0,-1,1357,1688,19.5374,3.22798
140,-664,6.40039,16.8051,0,0,0,0,0,0,0,-1,1364,1688,6.40044,-16.8051
147,-664,7.03589,17.6462,0,0,0,0,0,0,0,-1,1371,1688,7.03589,-17.6462
154,-664,13.5482,5.89453,0,0,0,0,0,0,0,-1,1378,1688,13.5482,-5.8945
161,-664,4.60132,1.56238,0,0,0,0,0,0,0,-1,1385,1688,4.60134,-1.56233
168,-664,5.172,1.25488,0,0,0,0,0,0,0,-1,1392,1688,5.17203,-1.25484
175,-664,5.58313,1.16467,0,0,0,0,0,0,0,-1,1399,1688,5.58317,-1.16466
182,-664,5.74268,1.41113,0,0,0,0,0,0,0,-1,1406,1688,5.74263,-1.41115
189,-664,5.87744,1.87061,0,0,0,0,0,0,0,-1,1413,1688,5.87745,-1.87065
196,-664,6.7594,5.97473,0,0,0,0,0,0,0,-1,1420,1688,6.75943,-5.97478
203,-664,5.38452,5.22034,0,0,0,0,0,0,0,-1,1427,1688,5.38453,-5.2203
210,-664,5.25549,6.45715,0,0,0,0,0,0,0,-1,1434,1688,5.25549,-6.45721
217,-664,5.72009,6.73975,0,0,0,0,0,0,0,-1,1441,1688,5.72014,-6.73972
224,-664,5.05725,7.42908,0,0,0,0,0,0,0,-1,1448,1688,5.05723,-7.42912
231,-664,5.13318,7.60864,0,0,0,0,0,0,0,-1,1455,1688,5.13313,-7.60862
238,-664,4.23193,6.45471,0,0,0,0,0,0,0,-1,1462,1688,4.23197,-6.45476
245,-664,4.42004,6.80896,0,0,0,0,0,0,0,-1,1469,1688,4.4201,-6.80901
252,-664,3.67346,6.85461,0,0,0,0,0,0,0,-1,1476,1688,3.6734,-6.85462
259,-664,4.55823,11.7435,0,0,0,0,0,0,0,-1,1483,1688,4.55826,-11.7435
266,-664,5.00513,13.535,0,0,0,0,0,0,0,-1,1490,1688,5.00515,-13.535
273,-664,5.0553,13.6365,0.00354761,-0.00785269,0.00179293,0.00382294,-0.00812802,0.152372,0.00704753,0.0331394,1497,1688,5.0553,-13.6365
280,-664,4.93188,13.5822,0.00350013,-0.00683727,0.00130585,0.00366254,-0.00699968,0.123734,0.00625553,0.0221395,1504,1688,4.93189,-13.5821
287,-664,4.90149,13.489,0.00324929,-0.00610574,0.00107205,0.00337058,-0.00622702,0.112651,0.00562238,0.0196345,1511,1688,4.90155,-13.489
294,-664,4.94043,13.4037,0.00288728,-0.00552984,0.0010598,0.00301867,-0.00566123,0.123345,0.00508817,0.0132646,1518,1688,4.94042,-13.4037
301,-664,4.97009,13.3171,0.00249579,-0.0046705,0.000931611,0.00261492,-0.00478963,0.127183,0.00433604,0.00910636,1525,1688,4.97004,-13.3171
308,-664,4.98499,13.224,0.00213597,-0.00376431,0.000753377,0.00223065,-0.00385899,0.125013,0.0035575,0.0100822,1532,1688,4.985,-13.224
315,-664,4.979,13.1217,0.0018877,-0.00300342,0.000728597,0.00199393,-0.00310964,0.144777,0.00296992,0.01077,1539,1688,4.97902,-13.1217
322,-664,5.00208,13.009,0.00170426,-0.00229325,0.000767468,0.00184654,-0.00243553,0.183307,0.00248004,0.0141867,1546,1688,5.00209,-13.009
329,-664,4.9906,12.901,0.00160474,-0.00174907,0.000765469,0.00177118,-0.00191552,0.214114,0.00212906,0.0170909,1553,1688,4.99061,-12.901
336,-664,4.97742,12.7758,0.00137018,-0.00132141,0.000885489,0.00163536,-0.00158659,0.290978,0.00186027,0.013765,1560,1688,4.97741,-12.7757
343,-664,5.00684,12.6678,0.001241,-0.000963637,0.00097456,0.00161004,-0.00133267,0.36198,0.00170149,0.0108056,1567,1688,5.00686,-12.6678
350,-664,5.01257,12.5566,0.00125819,-0.00064862,0.000965633,0.00166178,-0.00105221,0.395885,0.00158004,0.0127673,1574,1688,5.01258,-12.5566
357,-664,4.9989,12.4343,0.00129856,-0.000441651,0.000885289,0.00166975,-0.000812843,0.397023,0.00146151,0.0119393,1581,1688,4.99892,-12.4344
364,-664,4.99841,12.3223,0.00124913,-0.000266357,0.000656009,0.00149365,-0.000510872,0.356781,0.00120278,0.0101999,1588,1688,4.99845,-12.3222
371,-664,5.01086,12.2295,0.001109,0.000300278,0.00019229,0.00115239,0.000256885,0.221944,0.000698561,0.0133693,1595,1688,5.01084,-12.2294
378,-664,4.99438,12.1089,0.0010038,0.000821467,-0.000249128,0.00117792,0.000647348,-0.609996,0.000681185,0.0126135,1602,1688,4.99435,-12.1089
385,-664,4.97546,11.9645,0.000997026,0.00156996,-0.00086658,0.00219619,0.000370792,-0.94503,0.00135752,0.0130479,1609,1688,4.97542,-11.9645
392,-664,4.94214,11.8684,0.00113752,0.0026212,-0.00157169,0.00361733,0.000141393,-1.0059,0.00236583,0.0160933,1616,1688,4.94208,-11.8684
399,-664,4.97705,11.7101,0.00114308,0.00385475,-0.00239275,0.0052491,-0.000251272,-1.04316,0.00358609,0.0139885,1623,1688,4.97709,-11.7101
406,-664,5.0072,11.5417,0.0013768,0.00504845,-0.00317306,0.00687849,-0.000453237,-1.04765,0.00474396,0.0125011,1630,1688,5.00726,-11.5417
413,-664,5.01697,11.3851,0.00168936,0.00640444,-0.00425661,0.00891277,-0.000818967,-1.0383,0.0062328,0.0118526,1637,1688,5.01702,-11.3851
420,-664,4.98804,11.204,0.00203872,0.00768708,-0.00504241,0.0106423,-0.00091654,-1.04067,0.0074193,0.0249639,1644,1688,4.98798,-11.204
427,-664,4.90881,11.0018,0.00276984,0.00823068,-0.00552897,0.0116667,-0.000666154,-1.01475,0.00800908,0.0409562,1651,1688,4.90877,-11.0019
434,-664,4.90015,10.8638,0.00398033,0.00864386,-0.00578426,0.0125487,7.55237e-05,-0.976995,0.00834072,0.0433378,1658,1688,4.90013,-10.8638
441,-664,4.92859,10.7056,0.00558799,0.00800265,-0.00602649,0.0129416,0.00064909,-0.884258,0.00841969,0.0485869,1665,1688,4.92854,-10.7056
448,-664,5.19153,10.2593,0,0,0,0,0,0,0,-1,1672,1688,5.19147,-10.2593
455,-664,5.703,8.8092,0,0,0,0,0,0,0,-1,1679,1688,5.70294,-8.80919
462,-664,4.3147,4.25439,0,0,0,0,0,0,0,-1,1686,1688,4.31467,-4.25435
469,-664,6.05469,7.49341,0,0,0,0,0,0,0,-1,1693,1688,6.05474,-7.49339
476,-664,5.20984,9.48767,0,0,0,0,0,0,0,-1,1700,1688,5.20978,-9.48762
483,-664,4.21143,7.52271,0,0,0,0,0,0,0,-1,1707,1688,4.21139,-7.52274
490,-664,4.33044,7.50256,0,0,0,0,0,0,0,-1,1714,1688,4.33049,-7.50252
497,-664,0,0,0,0,0,0,0,0,0,-1,1721,1688,0,0
504,-664,0,0,0,0,0,0,0,0,0,-1,1728,1688,0,0
511,-664,0,0,0,0,0,0,0,0,0,-1,1735,1688,0,0
518,-664,0,0,0,0,0,0,0,0,0,-1,1742,1688,0,0
525,-664,0,0,0,0,0,0,0,0,0,-1,1749,1688,0,0
532,-664,0,0,0,0,0,0,0,0,0,-1,1756,1688,0,0
539,-664,0,0,0,0,0,0,0,0,0,-1,1763,1688,0,0
546,-664,0,0,0,0,0,0,0,0,0,-1,1770,1688,0,0
553,-664,0,0,0,0,0,0,0,0,0,-1,1777,1688,0,0
560,-664,0,0,0,0,0,0,0,0,0,-1,1784,1688,0,0
567,-664,0,0,0,0,0,0,0,0,0,-1,1791,1688,0,0
574,-664,0,0,0,0,0,0,0,0,0,-1,1798,1688,0,0
581,-664,0,0,0,0,0,0,0,0,0,-1,1805,1688,0,0
588,-664,0,0,0,0,0,0,0,0,0,-1,1812,1688,0,0
595,-664,0,0,0,0,0,0,0,0,0,-1,1819,1688,0,0
602,-664,0,0,0,0,0,0,0,0,0,-1,1826,1688,0,0
609,-664,0,0,0,0,0,0,0,0,0,-1,1833,1688,0,0
616,-664,0,0,0,0,0,0,0,0,0,-1,1840,1688,0,0
623,-664,0,0,0,0,0,0,0,0,0,-1,1847,1688,0,0
630,-664,0,0,0,0,0,0,0,0,0,-1,1854,1688,0,0
637,-664,0,0,0,0,0,0,0,0,0,-1,1861,1688,0,0
644,-664,0,0,0,0,0,0,0,0,0,-1,1868,1688,0,0
651,-664,0,0,0,0,0,0,0,0,0,-1,1875,1688,0,0
658,-664,0,0,0,0,0,0,0,0,0,-1,1882,1688,0,0
665,-664,0,0,0,0,0,0,0,0,0,-1,1889,1688,0,0
672,-664,0,0,0,0,0,0,0,0,0,-1,1896,1688,0,0
679,-664,0,0,0,0,0,0,0,0,0,-1,1903,1688,0,0
686,-664,0,0,0,0,0,0,0,0,0,-1,1910,1688,0,0
693,-664,0,0,0,0,0,0,0,0,0,-1,1917,1688,0,0
700,-664,0,0,0,0,0,0,0,0,0,-1,1924,1688,0,0
707,-664,0,0,0,0,0,0,0,0,0,-1,1931,1688,0,0
714,-664,0,0,0,0,0,0,0,0,0,-1,1938,1688,0,0
721,-664,0,0,0,0,0,0,0,0,0,-1,1945,1688,0,0
728,-664,0,0,0,0,0,0,0,0,0,-1,1952,1688,0,0
735,-664,0,0,0,0,0,0,0,0,0,-1,1959,1688,0,0
742,-664,0,0,0,0,0,0,0,0,0,-1,1966,1688,0,0
749,-664,0,0,0,0,0,0,0,0,0,-1,1973,1688,0,0
756,-664,0,0,0,0,0,0,0,0,0,-1,1980,1688,0,0
763,-664,0,0,0,0,0,0,0,0,0,-1,1987,1688,0,0
770,-664,0,0,0,0,0,0,0,0,0,-1,1994,1688,0,0
777,-664,0,0,0,0,0,0,0,0,0,-1,2001,1688,0,0
784,-664,0,0,0,0,0,0,0,0,0,-1,2008,1688,0,0
791,-664,0,0,0,0,0,0,0,0,0,-1,2015,1688,0,0
798,-664,0,0,0,0,0,0,0,0,0,-1,2022,1688,0,0
805,-664,0,0,0,0,0,0,0,0,0,-1,2029,1688,0,0
812,-664,0,0,0,0,0,0,0,0,0,-1,2036,1688,0,0
-700,-671,0,0,0,0,0,0,0,0,0,-1,524,1695,0,0
-693,-671,0,0,0,0,0,0,0,0,0,-1,531,1695,0,0
-686,-671,0,0,0,0,0,0,0,0,0,-1,538,1695,0,0
-679,-671,0,0,0,0,0,0,0,0,0,-1,545,1695,0,0
-672,-671,0,0,0,0,0,0,0,0,0,-1,552,1695,0,0
-665,-671,0,0,0,0,0,0,0,0,0,-1,559,1695,0,0
-658,-671,0,0,0,0,0,0,0,0,0,-1,566,1695,0,0
-651,-671,0,0,0,0,0,0,0,0,0,-1,573,1695,0,0
-644,-671,0,0,0,0,0,0,0,0,0,-1,580,1695,0,0
-637,-671,0,0,0,0,0,0,0,0,0,-1,587,1695,0,0
-630,-671,0,0,0,0,0,0,0,0,0,-1,594,1695,0,0
-623,-671,0,0,0,0,0,0,0,0,0,-1,601,1695,0,0
-616,-671,0,0,0,0,0,0,0,0,0,-1,608,1695,0,0
-609,-671,0,0,0,0,0,0,0,0,0,-1,615,1695,0,0
-602,-671,0,0,0,0,0,0,0,0,0,-1,622,1695,0,0
-595,-671,0,0,0,0,0,0,0,0,0,-1,629,1695,0,0
-588,-671,0,0,0,0,0,0,0,0,0,-1,636,1695,0,0
-581,-671,0,0,0,0,0,0,0,0,0,-1,643,1695,0,0
-574,-671,0,0,0,0,0,0,0,0,0,-1,650,1695,0,0
-567,-671,0,0,0,0,0,0,0,0,0,-1,657,1695,0,0
-560,-671,0,0,0,0,0,0,0,0,0,-1,664,1695,0,0
-553,-671,0,0,0,0,0,0,0,0,0,-1,671,1695,0,0
-546,-671,0,0,0,0,0,0,0,0,0,-1,678,1695,0,0
-539,-671,0,0,0,0,0,0,0,0,0,-1,685,1695,0,0
-532,-671,0,0,0,0,0,0,0,0,0,-1,692,1695,0,0
-525,-671,0,0,0,0,0,0,0,0,0,-1,699,1695,0,0
-518,-671,0,0,0,0,0,0,0,0,0,-1,706,1695,0,0
-511,-671,0,0,0,0,0,0,0,0,0,-1,713,1695,0,0
-504,-671,0,0,0,0,0,0,0,0,0,-1,720,1695,0,0
-497,-671,0,0,0,0,0,0,0,0,0,-1,727,1695,0,0
-490,-671,0,0,0,0,0,0,0,0,0,-1,734,1695,0,0
-483,-671,0,0,0,0,0,0,0,0,0,-1,741,1695,0,0
-476,-671,0,0,0,0,0,0,0,0,0,-1,748,1695,0,0
-469,-671,0,0,0,0,0,0,0,0,0,-1,755,1695,0,0
-462,-671,0,0,0,0,0,0,0,0,0,-1,762,1695,0,0
-455,-671,0,0,0,0,0,0,0,0,0,-1,769,1695,0,0
-448,-671,0,0,0,0,0,0,0,0,0,-1,776,1695,0,0
-441,-671,0,0,0,0,0,0,0,0,0,-1,783,1695,0,0
-434,-671,0,0,0,0,0,0,0,0,0,-1,790,1695,0,0
-427,-671,0,0,0,0,0,0,0,0,0,-1,797,1695,0,0
-420,-671,0,0,0,0,0,0,0,0,0,-1,804,1695,0,0
-413,-671,0,0,0,0,0,0,0,0,0,-1,811,1695,0,0
-406,-671,0,0,0,0,0,0,0,0,0,-1,818,1695,0,0
-399,-671,0,0,0,0,0,0,0,0,0,-1,825,1695,0,0
-392,-671,0,0,0,0,0,0,0,0,0,-1,832,1695,0,0
-385,-671,0,0,0,0,0,0,0,0,0,-1,839,1695,0,0
-378,-671,0,0,0,0,0,0,0,0,0,-1,846,1695,0,0
-371,-671,0,0,0,0,0,0,0,0,0,-1,853,1695,0,0
-364,-671,-4.18738,7.51416,0,0,0,0,0,0,0,-1,860,1695,-4.18739,-7.51419
-357,-671,-5.02393,6.07129,0,0,0,0,0,0,0,-1,867,1695,-5.0239,-6.07135
-350,-671,-5.72333,4.58386,0,0,0,0,0,0,0,-1,874,1695,-5.72333,-4.58386
-343,-671,-6.4884,3.11353,0,0,0,0,0,0,0,-1,881,1695,-6.48839,-3.11349
-336,-671,-7.30127,1.64417,0,0,0,0,0,0,0,-1,888,1695,-7.30127,-1.64414
-329,-671,-7.47766,-0.74585,0,0,0,0,0,0,0,-1,895,1695,-7.47769,0.745906
-322,-671,2.40674,7.72949,0,0,0,0,0,0,0,-1,902,1695,2.40676,-7.72949
-315,-671,3.4632,9.10034,0,0,0,0,0,0,0,-1,909,1695,3.46317,-9.10031
-308,-671,3.45245,9.29309,0,0,0,0,0,0,0,-1,916,1695,3.45245,-9.29313
-301,-671,3.49115,9.4458,0,0,0,0,0,0,0,-1,923,1695,3.49113,-9.44577
-294,-671,3.70105,9.88989,0,0,0,0,0,0,0,-1,930,1695,3.70103,-9.88991
-287,-671,3.63696,10.2777,-0.00296435,-0.000785196,0.0013264,-0.000158232,-0.00359131,1.12924,0.00234325,0.0450172,937,1695,3.63695,-10.2777
-280,-671,3.48047,10.4357,-0.00268192,-0.00133094,0.000637879,-0.00107735,-0.0029355,1.19241,0.00171468,0.0348425,944,1695,3.48047,-10.4357
-273,-671,3.54205,10.5798,-0.00232387,-0.00197435,5.77759e-05,-0.00196505,-0.00233317,1.41115,0.00144842,0.0310031,951,1695,3.54205,-10.5799
-266,-671,3.57336,10.8126,-0.00210926,-0.00246443,-0.000583316,-0.0016771,-0.0028966,-0.637633,0.00167929,0.0216588,958,1695,3.57333,-10.8126
-259,-671,3.48578,10.9711,-0.0018706,-0.00278185,-0.000841965,-0.00136888,-0.00328357,-0.537387,0.00190448,0.0202807,965,1695,3.48578,-10.9711
-252,-671,3.45685,11.1078,-0.0017366,-0.0030038,-0.000865072,-0.00129792,-0.00344249,-0.46932,0.00200746,0.0176364,972,1695,3.45685,-11.1078
-245,-671,3.48407,11.2478,-0.00154837,-0.00330448,-0.000833252,-0.00121593,-0.00363692,-0.379612,0.00213785,0.0204341,979,1695,3.48406,-11.2478
-238,-671,3.495,11.4315,-0.00133186,-0.00346304,-0.0006691,-0.0011392,-0.00365569,-0.280346,0.00215997,0.019899,986,1695,3.49498,-11.4315
-231,-671,3.48291,11.5634,-0.000974404,-0.00361929,-0.000332127,-0.000933335,-0.00366036,-0.123029,0.00219626,0.0156085,993,1695,3.48293,-11.5634
-224,-671,3.44897,11.687,-0.000730262,-0.00372285,-0.000275085,-0.000705186,-0.00374793,-0.0909068,0.00229988,0.0126947,1000,1695,3.44898,-11.687
-217,-671,3.45636,11.8174,-0.000654373,-0.00357708,-0.000198581,-0.000640942,-0.00359051,-0.0675305,0.00221121,0.0117894,1007,1695,3.45633,-11.8174
-210,-671,3.47076,11.9758,-0.000505898,-0.00334064,-8.45202e-05,-0.000503381,-0.00334315,-0.0297806,0.00208137,0.01144,1014,1695,3.47074,-11.9758
-203,-671,3.45227,12.1044,-0.000111865,-0.00368989,-6.62837e-05,-0.000110637,-0.00369112,-0.0185168,0.00242471,0.01844,1021,1695,3.45225,-12.1044
-196,-671,3.46582,12.2288,0.000353391,-0.00371797,-9.23997e-05,0.000355487,-0.00372007,-0.0226795,0.00260663,0.0153316,1028,1695,3.46578,-12.2287
-189,-671,3.48169,12.3826,0.000917398,-0.00377028,-0.000239253,0.000929578,-0.00378246,-0.0508625,0.00288191,0.0126161,1035,1695,3.48164,-12.3826
-182,-671,3.44861,12.4807,0.00149942,-0.00318088,-0.000367685,0.00152813,-0.00320959,-0.0779231,0.00279216,0.0105267,1042,1695,3.44864,-12.4808
-175,-671,3.45886,12.579,0.00220147,-0.00219608,-0.000541369,0.00226713,-0.00226175,-0.120706,0.00261475,0.0127986,1049,1695,3.45889,-12.579
-168,-671,3.46643,12.6979,0.00335229,-0.00129934,-0.000570163,0.00342116,-0.00136821,-0.120202,0.00284856,0.0138145,1056,1695,3.46647,-12.6979
-161,-671,3.4657,12.8296,0.00451307,-0.000242528,-0.000408523,0.00454791,-0.000277366,-0.0850731,0.00312849,0.00952493,1063,1695,3.46565,-12.8296
-154,-671,3.4657,12.9358,0.00566907,0.000883038,-0.000243488,0.00568143,0.000870682,-0.0507002,0.00353333,0.00835376,1070,1695,3.46572,-12.9358
-147,-671,3.47864,13.0602,0.00678742,0.00211759,2.15641e-05,0.00678752,0.00211749,0.00461762,0.00401008,0.00980784,1077,1695,3.47868,-13.0602
-140,-671,3.50476,13.1741,0.00804798,0.00311409,0.000399563,0.00808012,0.00308194,0.0802861,0.00470859,0.0107864,1084,1695,3.50481,-13.174
-133,-671,3.51404,13.2721,0.00951708,0.00361079,0.00107928,0.00970812,0.00341975,0.175194,0.00568596,0.0123389,1091,1695,3.51406,-13.2721
-126,-671,3.51831,13.3959,0.010841,0.00391206,0.0017113,0.0112407,0.00351245,0.2294,0.00664019,0.014718,1098,1695,3.51826,-13.3959
-119,-671,3.58386,13.4833,0.0123903,0.00399999,0.00260037,0.0131309,0.00325944,0.277443,0.007895,0.0255797,1105,1695,3.58388,-13.4833
-112,-671,3.66443,13.5516,0.0136548,0.00322514,0.00343156,0.0146825,0.00219737,0.291003,0.00914434,0.0333045,1112,1695,3.66443,-13.5516
-105,-671,3.854,13.5242,0.0143904,0.00227729,0.00441299,0.0158276,0.000840087,0.314842,0.0102831,0.0407694,1119,1695,3.85401,-13.5241
-98,-671,3.7417,13.5085,0.015203,0.000903466,0.00524777,0.0169222,-0.000815714,0.316583,0.011563,0.040427,1126,1695,3.74164,-13.5085
-91,-671,3.64331,13.4188,0.0159339,-0.00147031,0.00576845,0.0176722,-0.00320859,0.292688,0.0129838,0.0392962,1133,1695,3.64325,-13.4189
-84,-671,4.12671,13.2086,0.0164711,-0.00392283,0.00606385,0.0181379,-0.00558961,0.268246,0.0143234,0.0473637,1140,1695,4.12676,-13.2086
-77,-671,4.71021,13.1442,0,0,0,0,0,0,0,-1,1147,1695,4.7102,-13.1441
-70,-671,3.06067,10.7737,0,0,0,0,0,0,0,-1,1154,1695,3.0607,-10.7737
-63,-671,2.94592,6.90198,0,0,0,0,0,0,0,-1,1161,1695,2.94594,-6.90198
-56,-671,-3.07678,2.87976,0,0,0,0,0,0,0,-1,1168,1695,-3.07675,-2.87979
-49,-671,-1.05957,4.76917,0,0,0,0,0,0,0,-1,1175,1695,-1.05958,-4.76921
-42,-671,0.539307,3.7865,0,0,0,0,0,0,0,-1,1182,1695,0.539266,-3.78648
-35,-671,-0.272461,0.347534,0,0,0,0,0,0,0,-1,1189,1695,-0.272434,-0.347569
-28,-671,-0.662964,5.40405,0,0,0,0,0,0,0,-1,1196,1695,-0.662966,-5.40405
-21,-671,-0.568848,14.3267,0,0,0,0,0,0,0,-1,1203,1695,-0.568812,-14.3267
-14,-671,4.02905,13.9989,0,0,0,0,0,0,0,-1,1210,1695,4.02911,-13.9989
-7,-671,4.50049,13.7766,0,0,0,0,0,0,0,-1,1217,1695,4.50044,-13.7766
0,-671,6.28894,14.3965,0,0,0,0,0,0,0,-1,1224,1695,6.28888,-14.3965
7,-671,5.94043,13.9698,-0.008963,-0.0243809,-0.00241533,-0.00859347,-0.0247504,-0.151814,0.0145104,0.0461258,1231,1695,5.94045,-13.9699
14,-671,5.63037,13.6461,-0.0088386,-0.0293808,3.2905e-05,-0.00883854,-0.0293808,0.00160182,0.0174059,0.0435714,1238,1695,5.63041,-13.6462
21,-671,5.67102,13.655,-0.00835437,-0.0338669,0.00163986,-0.0082494,-0.0339719,0.0639262,0.0204602,0.0429603,1245,1695,5.67098,-13.655
28,-671,4.74304,14.4908,0,0,0,0,0,0,0,-1,1252,1695,4.743,-14.4909
35,-671,5.33179,12.8856,0.00598184,-0.0391888,0.000153288,0.00598236,-0.0391893,0.00339348,0.0283316,0.0465795,1259,1695,5.33176,-12.8856
42,-671,6.00195,13.3677,0.017732,-0.0399873,-0.00107283,0.0177519,-0.0400072,-0.0185785,0.0341625,0.0460938,1266,1695,6.002,-13.3677
49,-671,6.1676,13.3054,0.0275436,-0.0394963,-0.00211418,0.0276102,-0.0395629,-0.0314945,0.0389865,0.0437896,1273,1695,6.16758,-13.3055
56,-671,6.35034,13.2867,0.0389804,-0.0380781,-0.0054719,0.039367,-0.0384647,-0.0705381,0.0449372,0.0466263,1280,1695,6.35029,-13.2867
63,-671,4.04895,13.3329,0.0509136,-0.035771,-0.00906048,0.0518505,-0.0367079,-0.103039,0.0513777,0.049936,1287,1695,4.04899,-13.3329
70,-671,4.39697,17.6855,0,0,0,0,0,0,0,-1,1294,1695,4.39693,-17.6855
77,-671,4.0813,17.0123,0.0744366,-0.0342078,-0.0124982,0.0758558,-0.0356271,-0.11307,0.0657467,0.0461489,1301,1695,4.08125,-17.0123
84,-671,3.62024,16.3492,0.0842239,-0.0307569,-0.0145675,0.0860409,-0.0325739,-0.124083,0.0707634,0.0468808,1308,1695,3.62028,-16.3493
91,-671,3.57959,16.0477,0.0914667,-0.0269092,-0.0181234,0.0941793,-0.0296217,-0.148568,0.0746456,0.0427257,1315,1695,3.57953,-16.0478
98,-671,3.77136,15.8375,0.0958404,-0.0243772,-0.0218558,0.0996906,-0.0282274,-0.174371,0.0776001,0.0417955,1322,1695,3.77132,-15.8376
105,-671,3.9342,15.6351,0,0,0,0,0,0,0,-1,1329,1695,3.9342,-15.6351
112,-671,11.6793,6.2439,0,0,0,0,0,0,0,-1,1336,1695,11.6793,-6.24395
119,-671,4.20679,13.9146,0,0,0,0,0,0,0,-1,1343,1695,4.20678,-13.9146
126,-671,4.35168,14.3694,0,0,0,0,0,0,0,-1,1350,1695,4.35172,-14.3694
133,-671,5.75464,14.1644,0,0,0,0,0,0,0,-1,1357,1695,5.75463,-14.1644
140,-671,5.90515,14.5272,0,0,0,0,0,0,0,-1,1364,1695,5.90518,-14.5272
147,-671,3.89417,12.4547,0,0,0,0,0,0,0,-1,1371,1695,3.89417,-12.4547
154,-671,9.62439,12.3804,0,0,0,0,0,0,0,-1,1378,1695,9.6244,-12.3803
161,-671,4.49292,4.91272,0,0,0,0,0,0,0,-1,1385,1695,4.49297,-4.91273
168,-671,5.17639,6.1416,0,0,0,0,0,0,0,-1,1392,1695,5.1764,-6.14164
175,-671,5.6731,1.64685,0,0,0,0,0,0,0,-1,1399,1695,5.67313,-1.64691
182,-671,5.56812,1.71692,0,0,0,0,0,0,0,-1,1406,1695,5.56809,-1.71686
189,-671,6.98315,6.36169,0,0,0,0,0,0,0,-1,1413,1695,6.98312,-6.36175
196,-671,5.38123,5.69775,0,0,0,0,0,0,0,-1,1420,1695,5.38125,-5.69769
203,-671,5.95117,8.11658,0,0,0,0,0,0,0,-1,1427,1695,5.9512,-8.11662
210,-671,4.73596,8.39624,0,0,0,0,0,0,0,-1,1434,1695,4.736,-8.39618
217,-671,5.37097,11.863,0,0,0,0,0,0,0,-1,1441,1695,5.37094,-11.863
224,-671,5.08167,13.6694,0,0,0,0,0,0,0,-1,1448,1695,5.08165,-13.6695
231,-671,4.95886,13.5889,0,0,0,0,0,0,0,-1,1455,1695,4.95886,-13.5889
238,-671,5.15808,12.608,0,0,0,0,0,0,0,-1,1462,1695,5.15802,-12.608
245,-671,4.9054,12.3986,0,0,0,0,0,0,0,-1,1469,1695,4.90544,-12.3986
252,-671,4.77002,13.5771,0,0,0,0,0,0,0,-1,1476,1695,4.77005,-13.5772
259,-671,4.83936,13.6096,0,0,0,0,0,0,0,-1,1483,1695,4.83941,-13.6097
266,-671,4.84399,13.7271,0.00231927,-0.00642556,0.00178559,0.00266981,-0.00677611,0.193853,0.00562275,0.0167149,1490,1695,4.84403,-13.727
273,-671,4.84253,13.6819,0.00240491,-0.00570923,0.00151446,0.00267836,-0.00598269,0.178635,0.00512033,0.00845153,1497,1695,4.84257,-13.6819
280,-671,4.83557,13.6133,0.00240069,-0.00472593,0.0010629,0.00255584,-0.00488108,0.144943,0.0043631,0.00875537,1504,1695,4.83551,-13.6132
287,-671,4.83398,13.5046,0.00225553,-0.00408174,0.000806045,0.00235645,-0.00418265,0.124549,0.00382411,0.0111918,1511,1695,4.83394,-13.5047
294,-671,4.83459,13.389,0.00204189,-0.00354286,0.000721061,0.00213349,-0.00363446,0.126352,0.0033675,0.0110123,1518,1695,4.83456,-13.389
301,-671,4.85791,13.3101,0.00177542,-0.0028228,0.000574215,0.00184604,-0.00289342,0.122374,0.00275851,0.00974386,1525,1695,4.8579,-13.31
308,-671,4.87561,13.2336,0.00155326,-0.00214805,0.000505455,0.00162104,-0.00221583,0.13331,0.00222408,0.0109851,1532,1695,4.87555,-13.2337
315,-671,4.88,13.1373,0.00147054,-0.00170571,0.000588186,0.00157596,-0.00181114,0.17735,0.00195711,0.0120174,1539,1695,4.87998,-13.1373
322,-671,4.88171,13.0245,0.0014592,-0.00125214,0.000732242,0.00164431,-0.00143726,0.247618,0.00178048,0.013996,1546,1695,4.88171,-13.0246
329,-671,4.84668,12.9205,0.00149891,-0.00101388,0.000844264,0.00175622,-0.00127119,0.295834,0.00175534,0.0138638,1553,1695,4.84663,-12.9206
336,-671,4.8584,12.7762,0.00142656,-0.000827935,0.00106968,0.00185331,-0.00125468,0.3796,0.00180546,0.0108705,1560,1695,4.85844,-12.7762
343,-671,4.88037,12.6625,0.00145986,-0.000733814,0.00128002,0.00204869,-0.00132265,0.431157,0.00196143,0.0106013,1567,1695,4.88031,-12.6625
350,-671,4.90344,12.5505,0.00161641,-0.000703713,0.00139493,0.00227061,-0.00135792,0.438533,0.00211691,0.0105485,1574,1695,4.90347,-12.5505
357,-671,4.88525,12.4147,0.00178621,-0.000731529,0.00141304,0.00241981,-0.00136513,0.421517,0.00221333,0.00984546,1581,1695,4.8853,-12.4147
364,-671,4.86914,12.3073,0.0018394,-0.000645916,0.00121436,0.00233423,-0.00114075,0.38694,0.00204534,0.0118226,1588,1695,4.86918,-12.3072
371,-671,4.86938,12.2335,0.00174992,6.44841e-06,0.000673049,0.00197951,-0.000223142,0.328742,0.00139999,0.014191,1595,1695,4.86941,-12.2336
378,-671,4.87573,12.1029,0.00168652,0.000631758,0.000124712,0.00170106,0.000617213,0.116104,0.000994351,0.0121925,1602,1695,4.87568,-12.1029
385,-671,4.86255,11.9471,0.00169862,0.00162732,-0.000694268,0.00235815,0.000967783,-0.759746,0.00136875,0.0138307,1609,1695,4.86249,-11.9472
392,-671,4.82483,11.8738,0.00182874,0.00304303,-0.00162694,0.00417242,0.000699343,-0.963987,0.00258029,0.0185004,1616,1695,4.8248,-11.8738
399,-671,4.84497,11.713,0.00175694,0.00468904,-0.00271748,0.00631071,0.000135271,-1.03277,0.00416278,0.0143383,1623,1695,4.84492,-11.713
406,-671,4.89783,11.531,0.00193129,0.00641568,-0.00384808,0.00862715,-0.000280181,-1.04919,0.00584706,0.0186454,1630,1695,4.89781,-11.531
413,-671,4.87598,11.425,0.0021023,0.0084912,-0.00554141,0.011693,-0.00109948,-1.04687,0.00818646,0.0274763,1637,1695,4.87599,-11.425
420,-671,4.68152,11.0834,0.00221797,0.0107496,-0.00683152,0.0145378,-0.00157021,-1.06449,0.0102554,0.0442667,1644,1695,4.68152,-11.0833
427,-671,4.76172,10.9994,0,0,0,0,0,0,0,-1,1651,1695,4.76169,-10.9993
434,-671,4.73096,10.8962,0,0,0,0,0,0,0,-1,1658,1695,4.73099,-10.8962
441,-671,4.7666,10.8263,0,0,0,0,0,0,0,-1,1665,1695,4.76656,-10.8263
448,-671,4.33752,8.12134,0,0,0,0,0,0,0,-1,1672,1695,4.33754,-8.12132
455,-671,3.40137,9.28076,0,0,0,0,0,0,0,-1,1679,1695,3.40135,-9.28082
462,-671,5.86255,4.47961,0,0,0,0,0,0,0,-1,1686,1695,5.8625,-4.4796
469,-671,3.71301,3.76978,0,0,0,0,0,0,0,-1,1693,1695,3.71297,-3.76974
476,-671,3.75574,3.18848,0,0,0,0,0,0,0,-1,1700,1695,3.7558,-3.18847
483,-671,3.56714,2.76868,0,0,0,0,0,0,0,-1,1707,1695,3.56713,-2.7687
490,-671,0,0,0,0,0,0,0,0,0,-1,1714,1695,0,0
497,-671,0,0,0,0,0,0,0,0,0,-1,1721,1695,0,0
504,-671,0,0,0,0,0,0,0,0,0,-1,1728,1695,0,0
511,-671,0,0,0,0,0,0,0,0,0,-1,1735,1695,0,0
518,-671,0,0,0,0,0,0,0,0,0,-1,1742,1695,0,0
525,-671,0,0,0,0,0,0,0,0,0,-1,1749,1695,0,0
532,-671,0,0,0,0,0,0,0,0,0,-1,1756,1695,0,0
539,-671,0,0,0,0,0,0,0,0,0,-1,1763,1695,0,0
546,-671,0,0,0,0,0,0,0,0,0,-1,1770,1695,0,0
553,-671,0,0,0,0,0,0,0,0,0,-1,1777,1695,0,0
560,-671,0,0,0,0,0,0,0,0,0,-1,1784,1695,0,0
567,-671,0,0,0,0,0,0,0,0,0,-1,1791,1695,0,0
574,-671,0,0,0,0,0,0,0,0,0,-1,1798,1695,0,0
581,-671,0,0,0,0,0,0,0,0,0,-1,1805,1695,0,0
588,-671,0,0,0,0,0,0,0,0,0,-1,1812,1695,0,0
595,-671,0,0,0,0,0,0,0,0,0,-1,1819,1695,0,0
602,-671,0,0,0,0,0,0,0,0,0,-1,1826,1695,0,0
609,-671,0,0,0,0,0,0,0,0,0,-1,1833,1695,0,0
616,-671,0,0,0,0,0,0,0,0,0,-1,1840,1695,0,0
623,-671,0,0,0,0,0,0,0,0,0,-1,1847,1695,0,0
630,-671,0,0,0,0,0,0,0,0,0,-1,1854,1695,0,0
637,-671,0,0,0,0,0,0,0,0,0,-1,1861,1695,0,0
644,-671,0,0,0,0,0,0,0,0,0,-1,1868,1695,0,0
651,-671,0,0,0,0,0,0,0,0,0,-1,1875,1695,0,0
658,-671,0,0,0,0,0,0,0,0,0,-1,1882,1695,0,0
665,-671,0,0,0,0,0,0,0,0,0,-1,1889,1695,0,0
672,-671,0,0,0,0,0,0,0,0,0,-1,1896,1695,0,0
679,-671,0,0,0,0,0,0,0,0,0,-1,1903,1695,0,0
686,-671,0,0,0,0,0,0,0,0,0,-1,1910,1695,0,0
693,-671,0,0,0,0,0,0,0,0,0,-1,1917,1695,0,0
700,-671,0,0,0,0,0,0,0,0,0,-1,1924,1695,0,0
707,-671,0,0,0,0,0,0,0,0,0,-1,1931,1695,0,0
714,-671,0,0,0,0,0,0,0,0,0,-1,1938,1695,0,0
721,-671,0,0,0,0,0,0,0,0,0,-1,1945,1695,0,0
728,-671,0,0,0,0,0,0,0,0,0,-1,1952,1695,0,0
735,-671,0,0,0,0,0,0,0,0,0,-1,1959,1695,0,0
742,-671,0,0,0,0,0,0,0,0,0,-1,1966,1695,0,0
749,-671,0,0,0,0,0,0,0,0,0,-1,1973,1695,0,0
756,-671,0,0,0,0,0,0,0,0,0,-1,1980,1695,0,0
763,-671,0,0,0,0,0,0,0,0,0,-1,1987,1695,0,0
770,-671,0,0,0,0,0,0,0,0,0,-1,1994,1695,0,0
777,-671,0,0,0,0,0,0,0,0,0,-1,2001,1695,0,0
784,-671,0,0,0,0,0,0,0,0,0,-1,2008,1695,0,0
791,-671,0,0,0,0,0,0,0,0,0,-1,2015,1695,0,0
798,-671,0,0,0,0,0,0,0,0,0,-1,2022,1695,0,0
805,-671,0,0,0,0,0,0,0,0,0,-1,2029,1695,0,0
812,-671,0,0,0,0,0,0,0,0,0,-1,2036,1695,0,0
-700,-678,0,0,0,0,0,0,0,0,0,-1,524,1702,0,0
-693,-678,0,0,0,0,0,0,0,0,0,-1,531,1702,0,0
-686,-678,0,0,0,0,0,0,0,0,0,-1,538,1702,0,0
-679,-678,0,0,0,0,0,0,0,0,0,-1,545,1702,0,0
-672,-678,0,0,0,0,0,0,0,0,0,-1,552,1702,0,0
-665,-678,0,0,0,0,0,0,0,0,0,-1,559,1702,0,0
-658,-678,0,0,0,0,0,0,0,0,0,-1,566,1702,0,0
-651,-678,0,0,0,0,0,0,0,0,0,-1,573,1702,0,0
-644,-678,0,0,0,0,0,0,0,0,0,-1,580,1702,0,0
-637,-678,0,0,0,0,0,0,0,0,0,-1,587,1702,0,0
-630,-678,0,0,0,0,0,0,0,0,0,-1,594,1702,0,0
-623,-678,0,0,0,0,0,0,0,0,0,-1,601,1702,0,0
-616,-678,0,0,0,0,0,0,0,0,0,-1,608,1702,0,0
-609,-678,0,0,0,0,0,0,0,0,0,-1,615,1702,0,0
-602,-678,0,0,0,0,0,0,0,0,0,-1,622,1702,0,0
-595,-678,0,0,0,0,0,0,0,0,0,-1,629,1702,0,0
-588,-678,0,0,0,0,0,0,0,0,0,-1,636,1702,0,0
-581,-678,0,0,0,0,0,0,0,0,0,-1,643,1702,0,0
-574,-678,0,0,0,0,0,0,0,0,0,-1,650,1702,0,0
-567,-678,0,0,0,0,0,0,0,0,0,-1,657,1702,0,0
-560,-678,0,0,0,0,0,0,0,0,0,-1,664,1702,0,0
-553,-678,0,0,0,0,0,0,0,0,0,-1,671,1702,0,0
-546,-678,0,0,0,0,0,0,0,0,0,-1,678,1702,0,0
-539,-678,0,0,0,0,0,0,0,0,0,-1,685,1702,0,0
-532,-678,0,0,0,0,0,0,0,0,0,-1,692,1702,0,0
-525,-678,0,0,0,0,0,0,0,0,0,-1,699,1702,0,0
-518,-678,0,0,0,0,0,0,0,0,0,-1,706,1702,0,0
-511,-678,0,0,0,0,0,0,0,0,0,-1,713,1702,0,0
-504,-678,0,0,0,0,0,0,0,0,0,-1,720,1702,0,0
-497,-678,0,0,0,0,0,0,0,0,0,-1,727,1702,0,0
-490,-678,0,0,0,0,0,0,0,0,0,-1,734,1702,0,0
-483,-678,0,0,0,0,0,0,0,0,0,-1,741,1702,0,0
-476,-678,0,0,0,0,0,0,0,0,0,-1,748,1702,0,0
-469,-678,0,0,0,0,0,0,0,0,0,-1,755,1702,0,0
-462,-678,0,0,0,0,0,0,0,0,0,-1,762,1702,0,0
-455,-678,0,0,0,0,0,0,0,0,0,-1,769,1702,0,0
-448,-678,0,0,0,0,0,0,0,0,0,-1,776,1702,0,0
-441,-678,0,0,0,0,0,0,0,0,0,-1,783,1702,0,0
-434,-678,0,0,0,0,0,0,0,0,0,-1,790,1702,0,0
-427,-678,0,0,0,0,0,0,0,0,0,-1,797,1702,0,0
-420,-678,0,0,0,0,0,0,0,0,0,-1,804,1702,0,0
-413,-678,0,0,0,0,0,0,0,0,0,-1,811,1702,0,0
-406,-678,0,0,0,0,0,0,0,0,0,-1,818,1702,0,0
-399,-678,0,0,0,0,0,0,0,0,0,-1,825,1702,0,0
-392,-678,0,0,0,0,0,0,0,0,0,-1,832,1702,0,0
-385,-678,0,0,0,0,0,0,0,0,0,-1,839,1702,0,0
-378,-678,0,0,0,0,0,0,0,0,0,-1,846,1702,0,0
-371,-678,0,0,0,0,0,0,0,0,0,-1,853,1702,0,0
-364,-678,0,0,0,0,0,0,0,0,0,-1,860,1702,0,0
-357,-678,0,0,0,0,0,0,0,0,0,-1,867,1702,0,0
-350,-678,-5.79944,6.11865,0,0,0,0,0,0,0,-1,874,1702,-5.79942,-6.11864
-343,-678,-6.44891,4.52759,0,0,0,0,0,0,0,-1,881,1702,-6.4489,-4.52758
-336,-678,-6.91888,2.99438,0,0,0,0,0,0,0,-1,888,1702,-6.9189,-2.99435
-329,-678,-7.14575,1.29761,0,0,0,0,0,0,0,-1,895,1702,-7.14577,-1.29755
-322,-678,-7.38513,-0.420044,0,0,0,0,0,0,0,-1,902,1702,-7.38514,0.420091
-315,-678,3.76923,12.7454,0,0,0,0,0,0,0,-1,909,1702,3.76925,-12.7453
-308,-678,3.6651,9.28723,0,0,0,0,0,0,0,-1,916,1702,3.66512,-9.28727
-301,-678,3.8219,9.33191,0,0,0,0,0,0,0,-1,923,1702,3.82189,-9.33193
-294,-678,3.56702,9.51978,0,0,0,0,0,0,0,-1,930,1702,3.567,-9.51978
-287,-678,3.56592,10.3938,0,0,0,0,0,0,0,-1,937,1702,3.56591,-10.3938
-280,-678,3.64417,10.5244,-0.00491695,-0.00278661,0.000926867,-0.0024398,-0.00526375,1.21276,0.00304173,0.0432538,944,1702,3.64419,-10.5244
-273,-678,3.73975,10.676,-0.00395544,-0.00344599,0.000253011,-0.00334169,-0.00405974,1.17978,0.00250173,0.0432691,951,1702,3.73974,-10.676
-266,-678,3.69604,10.7122,-0.00351957,-0.00395718,-0.000546309,-0.00314987,-0.00432687,-0.594922,0.00258323,0.0349267,958,1702,3.69605,-10.7122
-259,-678,3.62042,10.9689,-0.00333086,-0.00431149,-0.000938922,-0.00276194,-0.00488041,-0.544767,0.00282586,0.0229171,965,1702,3.62041,-10.9689
-252,-678,3.58026,11.0931,-0.00319773,-0.00443658,-0.0009969,-0.00264349,-0.00499082,-0.507414,0.00288314,0.0196855,972,1702,3.58027,-11.0932
-245,-678,3.63422,11.2301,-0.00302926,-0.00465593,-0.000998107,-0.00255507,-0.00513013,-0.443525,0.00296189,0.019149,979,1702,3.63419,-11.2301
-238,-678,3.65015,11.3998,-0.00286502,-0.00471488,-0.000841998,-0.00253917,-0.00504073,-0.369249,0.00291029,0.015495,986,1702,3.65017,-11.3997
-231,-678,3.59619,11.5576,-0.00253712,-0.00482395,-0.000495183,-0.0024345,-0.00492657,-0.204345,0.00284442,0.0137342,993,1702,3.59618,-11.5576
-224,-678,3.56573,11.687,-0.00225826,-0.0048347,-0.000445835,-0.0021833,-0.00490967,-0.166592,0.00284037,0.013562,1000,1702,3.56572,-11.687
-217,-678,3.5899,11.8365,-0.00219806,-0.00454419,-0.000358043,-0.00214464,-0.00459762,-0.148119,0.00265642,0.0137056,1007,1702,3.5899,-11.8365
-210,-678,3.5957,12.0033,-0.00212326,-0.00404592,-0.000141864,-0.00211285,-0.00405633,-0.0732566,0.0023426,0.0139556,1014,1702,3.59567,-12.0033
-203,-678,3.58923,12.106,-0.00168646,-0.00415422,2.61992e-05,-0.00168619,-0.00415449,0.010615,0.00241273,0.0163397,1021,1702,3.5892,-12.1059
-196,-678,3.59619,12.2299,-0.00110655,-0.00390891,0.000139771,-0.00109959,-0.00391587,0.0497115,0.00233212,0.0168904,1028,1702,3.59614,-12.2298
-189,-678,3.59082,12.3652,-0.000412929,-0.00370354,9.38322e-05,-0.000410255,-0.00370621,0.0284843,0.00234604,0.0108097,1035,1702,3.59081,-12.3653
-182,-678,3.58191,12.4972,0.00026556,-0.00307814,4.70787e-05,0.000266223,-0.0030788,0.0140761,0.00214678,0.00992364,1042,1702,3.58191,-12.4972
-175,-678,3.58044,12.6071,0.000877628,-0.00200866,-7.73133e-05,0.000879697,-0.00201073,-0.0267609,0.00171084,0.0104382,1049,1702,3.58048,-12.6071
-168,-678,3.58374,12.7313,0.0019153,-0.00107735,-5.8583e-05,0.00191644,-0.0010785,-0.0195657,0.00175154,0.0103461,1056,1702,3.58378,-12.7313
-161,-678,3.57617,12.8413,0.00302107,-0.000134628,9.79603e-05,0.00302411,-0.000137666,0.0310026,0.00206349,0.0088792,1063,1702,3.57623,-12.8414
-154,-678,3.57434,12.9475,0.00406178,0.000718653,0.000174583,0.00407088,0.00070956,0.0520328,0.00251104,0.00802944,1070,1702,3.57429,-12.9475
-147,-678,3.58643,13.062,0.00491811,0.00149559,0.000275174,0.0049401,0.00147361,0.0797185,0.0029285,0.00965914,1077,1702,3.5864,-13.062
-140,-678,3.60498,13.1744,0.00578292,0.00208887,0.00047233,0.00584236,0.00202943,0.12518,0.00342508,0.0111534,1084,1702,3.60503,-13.1745
-133,-678,3.61487,13.2871,0.00684188,0.00221266,0.000915113,0.00701621,0.00203833,0.188252,0.00416764,0.0122242,1091,1702,3.61487,-13.2871
-126,-678,3.61816,13.3877,0.00774928,0.00218932,0.00134766,0.00805872,0.00187988,0.225697,0.00486838,0.00928984,1098,1702,3.61816,-13.3877
-119,-678,3.66516,13.4999,0.00878737,0.00199087,0.00195614,0.00931016,0.00146808,0.261154,0.0057799,0.017082,1105,1702,3.66519,-13.4999
-112,-678,3.72327,13.5789,0.0096226,0.00115631,0.00251803,0.0103149,0.000464016,0.268307,0.00672726,0.0249449,1112,1702,3.72328,-13.5788
-105,-678,3.71338,13.6433,0.0100787,0.000273009,0.00315074,0.0110038,-0.000652106,0.285591,0.00756259,0.0270825,1119,1702,3.71339,-13.6433
-98,-678,3.6665,13.656,0.0105569,-0.000883267,0.00373655,0.0116692,-0.00199554,0.289322,0.00852287,0.0200031,1126,1702,3.66646,-13.656
-91,-678,3.70117,13.7781,0.0109571,-0.00250516,0.00413625,0.0121264,-0.00367445,0.275505,0.00954775,0.0191116,1133,1702,3.70123,-13.7781
-84,-678,3.77905,13.7292,0.011189,-0.00409667,0.00434262,0.0123366,-0.00524424,0.258353,0.010422,0.0301145,1140,1702,3.77903,-13.7293
-77,-678,3.70007,13.8739,0.0113994,-0.00654204,0.00406854,0.0122789,-0.00742154,0.212895,0.0114887,0.0405031,1147,1702,3.70009,-13.8739
-70,-678,3.76929,14.2603,0,0,0,0,0,0,0,-1,1154,1702,3.7693,-14.2602
-63,-678,3.41687,11.0365,0,0,0,0,0,0,0,-1,1161,1702,3.41682,-11.0365
-56,-678,1.72388,6.13159,0,0,0,0,0,0,0,-1,1168,1702,1.72388,-6.13157
-49,-678,-0.241699,5.29895,0,0,0,0,0,0,0,-1,1175,1702,-0.241682,-5.29897
-42,-678,0.297119,3.90649,0,0,0,0,0,0,0,-1,1182,1702,0.297139,-3.90655
-35,-678,0.498413,3.64038,0,0,0,0,0,0,0,-1,1189,1702,0.498471,-3.64038
-28,-678,0.132446,3.55994,0,0,0,0,0,0,0,-1,1196,1702,0.132432,-3.55993
-21,-678,4.03235,14.2761,0,0,0,0,0,0,0,-1,1203,1702,4.0323,-14.2761
-14,-678,4.09985,14.175,-0.00552898,-0.0106663,-0.0079337,0.000241512,-0.0164368,-0.62884,0.0110393,0.0435806,1210,1702,4.09979,-14.175
-7,-678,4.42529,13.9884,-0.00592181,-0.0143325,-0.00518118,-0.0034541,-0.0168002,-0.444494,0.0102447,0.0453774,1217,1702,4.42529,-13.9884
0,-678,5.20618,14.0691,0,0,0,0,0,0,0,-1,1224,1702,5.20621,-14.0691
7,-678,5.08044,14.0059,-0.00643735,-0.0225467,0.000176526,-0.00643541,-0.0225487,0.0109562,0.0134122,0.044795,1231,1702,5.08043,-14.0058
14,-678,5.07056,13.9617,-0.00635148,-0.0262725,0.00218731,-0.00611414,-0.0265098,0.108083,0.0160287,0.0440051,1238,1702,5.07057,-13.9616
21,-678,5.10742,13.902,-0.00603278,-0.0295547,0.00350784,-0.0055208,-0.0300667,0.14493,0.0184811,0.0414535,1245,1702,5.10736,-13.902
28,-678,4.52588,14.4938,-0.002642,-0.0319584,0.00345277,-0.00224083,-0.0323596,0.115668,0.0208662,0.04444,1252,1702,4.52586,-14.4938
35,-678,4.48132,14.4867,0,0,0,0,0,0,0,-1,1259,1702,4.48138,-14.4867
42,-678,4.349,14.9518,0.014532,-0.0329217,0.00189852,0.0146078,-0.0329975,0.0399228,0.0281602,0.0440759,1266,1702,4.34902,-14.9518
49,-678,4.26111,14.3414,0.0224119,-0.031805,0.00123305,0.0224399,-0.031833,0.0227273,0.0314906,0.0440004,1273,1702,4.26108,-14.3414
56,-678,3.99329,13.9365,0.0315927,-0.0300567,-0.00135992,0.0316227,-0.0300866,-0.0220447,0.0356316,0.0448023,1280,1702,3.99328,-13.9365
63,-678,4.12488,13.2489,0.0412262,-0.0277836,-0.00409686,0.0414686,-0.028026,-0.0590896,0.0403722,0.0492636,1287,1702,4.12483,-13.2489
70,-678,4.06018,12.8525,0,0,0,0,0,0,0,-1,1294,1702,4.06019,-12.8525
77,-678,3.15723,15.0586,0.0596998,-0.025691,-0.00657858,0.0602036,-0.0261949,-0.0764397,0.0511541,0.0451439,1301,1702,3.15722,-15.0586
84,-678,3.7384,15.974,0.0673899,-0.0230655,-0.00808618,0.068107,-0.0237827,-0.0884596,0.0550715,0.0458794,1308,1702,3.73841,-15.974
91,-678,3.67725,15.7711,0.0726819,-0.0206725,-0.0104058,0.0738277,-0.0218183,-0.109672,0.0578786,0.0445743,1315,1702,3.67731,-15.7711
98,-678,3.69617,15.2206,0.0754296,-0.0196309,-0.0127428,0.0771082,-0.0213094,-0.13097,0.0597881,0.0414827,1322,1702,3.69611,-15.2206
105,-678,3.81628,14.4481,0.0773256,-0.0188361,-0.0149597,0.0795991,-0.0211096,-0.150821,0.0613259,0.0419072,1329,1702,3.81623,-14.4481
112,-678,4.74731,14.2283,0,0,0,0,0,0,0,-1,1336,1702,4.74726,-14.2282
119,-678,4.83008,14.0376,0.0783449,-0.0173557,-0.0213181,0.0828789,-0.0218897,-0.20956,0.0638131,0.04436,1343,1702,4.83005,-14.0376
126,-678,4.21704,14.4709,0,0,0,0,0,0,0,-1,1350,1702,4.21709,-14.471
133,-678,5.30627,14.118,0,0,0,0,0,0,0,-1,1357,1702,5.30627,-14.118
140,-678,5.49841,13.6483,0,0,0,0,0,0,0,-1,1364,1702,5.4984,-13.6483
147,-678,4.13916,13.1779,0,0,0,0,0,0,0,-1,1371,1702,4.1391,-13.1778
154,-678,4.45667,13.5227,0,0,0,0,0,0,0,-1,1378,1702,4.4567,-13.5228
161,-678,3.44202,4.53992,0,0,0,0,0,0,0,-1,1385,1702,3.442,-4.53996
168,-678,4.21863,5.25781,0,0,0,0,0,0,0,-1,1392,1702,4.21865,-5.25781
175,-678,5.21899,5.9635,0,0,0,0,0,0,0,-1,1399,1702,5.21894,-5.96346
182,-678,7.31262,6.75122,0,0,0,0,0,0,0,-1,1406,1702,7.3126,-6.75123
189,-678,5.96021,6.36853,0,0,0,0,0,0,0,-1,1413,1702,5.96018,-6.36851
196,-678,5.01599,8.15771,0,0,0,0,0,0,0,-1,1420,1702,5.01596,-8.15767
203,-678,4.64771,13.0559,0,0,0,0,0,0,0,-1,1427,1702,4.64766,-13.0559
210,-678,4.7865,14.7021,0,0,0,0,0,0,0,-1,1434,1702,4.7865,-14.7022
217,-678,4.7085,14.1927,0,0,0,0,0,0,0,-1,1441,1702,4.70854,-14.1928
224,-678,4.68347,13.8682,-0.000645881,-0.00584375,0.00271809,0.000515832,-0.00700546,0.403902,0.0048514,0.0486152,1448,1702,4.68345,-13.8681
231,-678,4.64258,14.0267,0.000134441,-0.00519029,0.00226715,0.000968952,-0.0060248,0.352698,0.00437543,0.0448912,1455,1702,4.64252,-14.0268
238,-678,4.69812,14.0269,0,0,0,0,0,0,0,-1,1462,1702,4.69809,-14.0269
245,-678,4.69666,14.0022,0,0,0,0,0,0,0,-1,1469,1702,4.69663,-14.0022
252,-678,4.70959,13.9003,0.00134024,-0.00500194,0.00163348,0.00173623,-0.00539793,0.237833,0.00429595,0.0246048,1476,1702,4.70957,-13.9003
259,-678,4.71082,13.8705,0.00141167,-0.00478778,0.00148909,0.0017508,-0.0051269,0.22392,0.00412723,0.0144185,1483,1702,4.71079,-13.8704
266,-678,4.75134,13.7828,0.00148693,-0.00465174,0.00137299,0.00178003,-0.00494483,0.210314,0.00402336,0.0102788,1490,1702,4.75134,-13.7828
273,-678,4.75708,13.7012,0.00156556,-0.00403951,0.00111963,0.00178094,-0.00425488,0.190041,0.00358103,0.0106064,1497,1702,4.75709,-13.7011
280,-678,4.73865,13.6085,0.00156125,-0.00319571,0.000734062,0.00167195,-0.00330641,0.149676,0.00292544,0.011446,1504,1702,4.73871,-13.6085
287,-678,4.74927,13.5034,0.00147559,-0.00265788,0.000504853,0.00153636,-0.00271864,0.119792,0.00248804,0.0115387,1511,1702,4.74926,-13.5034
294,-678,4.74487,13.4034,0.00135478,-0.00216763,0.000396949,0.00139896,-0.00221181,0.11084,0.00210221,0.0119113,1518,1702,4.7449,-13.4034
301,-678,4.74463,13.3234,0.00116807,-0.00159565,0.000281988,0.00119655,-0.00162413,0.10065,0.00163474,0.0116068,1525,1702,4.74468,-13.3234
308,-678,4.7583,13.23,0.00106066,-0.00115658,0.000401044,0.00113097,-0.00122689,0.173553,0.00136168,0.0128212,1532,1702,4.7583,-13.2299
315,-678,4.76306,13.1311,0.00113822,-0.00103317,0.000650898,0.00131838,-0.00121334,0.270034,0.00146211,0.0136298,1539,1702,4.76302,-13.1311
322,-678,4.73462,13.0308,0.00128636,-0.000799085,0.000957988,0.00165963,-0.00117235,0.371535,0.00164309,0.0166423,1546,1702,4.73458,-13.0307
329,-678,4.73547,12.9236,0.00145998,-0.000845973,0.00123705,0.00199806,-0.00138405,0.41028,0.00196336,0.0149043,1553,1702,4.73545,-12.9236
336,-678,4.73938,12.7877,0.00156875,-0.000881734,0.00160971,0.00236647,-0.00167946,0.460097,0.00234712,0.0120828,1560,1702,4.7394,-12.7877
343,-678,4.74353,12.6753,0.00179729,-0.00101778,0.00198174,0.00282049,-0.00204097,0.476611,0.00281877,0.0117667,1567,1702,4.74357,-12.6753
350,-678,4.75854,12.5817,0.00213781,-0.00123249,0.00226222,0.00327354,-0.00236822,0.465281,0.00327122,0.0109969,1574,1702,4.75853,-12.5816
357,-678,4.77014,12.4474,0.00248947,-0.00145293,0.00241459,0.0036353,-0.00259877,0.443077,0.00361578,0.00871808,1581,1702,4.77017,-12.4474
364,-678,4.76501,12.3173,0.00269933,-0.00143981,0.00228325,0.00371137,-0.00245186,0.417224,0.00358302,0.0112183,1588,1702,4.765,-12.3173
371,-678,4.73474,12.21,0.00272597,-0.000674796,0.00168941,0.00342255,-0.00137137,0.391081,0.00285097,0.0120618,1595,1702,4.73477,-12.2099
378,-678,4.74329,12.0518,0.00276706,0.000146246,0.00101473,0.00311402,-0.000200708,0.329456,0.00214605,0.0129774,1602,1702,4.74328,-12.0518
385,-678,4.75659,11.9382,0.0028339,0.00147111,-4.88329e-05,0.00283565,0.00146936,-0.0357718,0.00163752,0.0157648,1609,1702,4.75663,-11.9382
392,-678,4.75806,11.8857,0.00300202,0.00336057,-0.00129791,0.00449153,0.00187106,-0.854027,0.00260519,0.0263778,1616,1702,4.75801,-11.8857
399,-678,4.76917,11.7327,0.00288019,0.00557178,-0.0027734,0.00730867,0.00114331,-1.01129,0.00453959,0.0359298,1623,1702,4.76914,-11.7326
406,-678,4.7677,11.5555,0.00303549,0.00791788,-0.00437513,0.0104868,0.000466573,-1.03987,0.00684098,0.0378714,1630,1702,4.76764,-11.5555
413,-678,4.79858,11.1735,0.00294738,0.0109369,-0.00694156,0.0149511,-0.00106682,-1.0465,0.0103413,0.0415395,1637,1702,4.79854,-11.1735
420,-678,4.82666,10.5961,0.00253819,0.0147065,-0.0090645,0.0195394,-0.00229471,-1.08097,0.0138547,0.0488834,1644,1702,4.82666,-10.5961
427,-678,4.57483,10.1555,0,0,0,0,0,0,0,-1,1651,1702,4.57485,-10.1555
434,-678,4.72046,10.1484,0,0,0,0,0,0,0,-1,1658,1702,4.72048,-10.1484
441,-678,4.81177,10.6176,0,0,0,0,0,0,0,-1,1665,1702,4.81178,-10.6175
448,-678,3.25525,9.74719,0,0,0,0,0,0,0,-1,1672,1702,3.25522,-9.7472
455,-678,5.44678,5.54297,0,0,0,0,0,0,0,-1,1679,1702,5.44676,-5.54294
462,-678,3.86792,2.87402,0,0,0,0,0,0,0,-1,1686,1702,3.86796,-2.87406
469,-678,2.26587,1.98755,0,0,0,0,0,0,0,-1,1693,1702,2.26592,-1.98755
476,-678,0,0,0,0,0,0,0,0,0,-1,1700,1702,0,0
483,-678,0,0,0,0,0,0,0,0,0,-1,1707,1702,0,0
490,-678,0,0,0,0,0,0,0,0,0,-1,1714,1702,0,0
497,-678,0,0,0,0,0,0,0,0,0,-1,1721,1702,0,0
504,-678,0,0,0,0,0,0,0,0,0,-1,1728,1702,0,0
511,-678,0,0,0,0,0,0,0,0,0,-1,1735,1702,0,0
518,-678,0,0,0,0,0,0,0,0,0,-1,1742,1702,0,0
525,-678,0,0,0,0,0,0,0,0,0,-1,1749,1702,0,0
532,-678,0,0,0,0,0,0,0,0,0,-1,1756,1702,0,0
539,-678,0,0,0,0,0,0,0,0,0,-1,1763,1702,0,0
546,-678,0,0,0,0,0,0,0,0,0,-1,1770,1702,0,0
553,-678,0,0,0,0,0,0,0,0,0,-1,1777,1702,0,0
560,-678,0,0,0,0,0,0,0,0,0,-1,1784,1702,0,0
567,-678,0,0,0,0,0,0,0,0,0,-1,1791,1702,0,0
574,-678,0,0,0,0,0,0,0,0,0,-1,1798,1702,0,0
581,-678,0,0,0,0,0,0,0,0,0,-1,1805,1702,0,0
588,-678,0,0,0,0,0,0,0,0,0,-1,1812,1702,0,0
595,-678,0,0,0,0,0,0,0,0,0,-1,1819,1702,0,0
602,-678,0,0,0,0,0,0,0,0,0,-1,1826,1702,0,0
609,-678,0,0,0,0,0,0,0,0,0,-1,1833,1702,0,0
616,-678,0,0,0,0,0,0,0,0,0,-1,1840,1702,0,0
623,-678,0,0,0,0,0,0,0,0,0,-1,1847,1702,0,0
630,-678,0,0,0,0,0,0,0,0,0,-1,1854,1702,0,0
637,-678,0,0,0,0,0,0,0,0,0,-1,1861,1702,0,0
644,-678,0,0,0,0,0,0,0,0,0,-1,1868,1702,0,0
651,-678,0,0,0,0,0,0,0,0,0,-1,1875,1702,0,0
658,-678,0,0,0,0,0,0,0,0,0,-1,1882,1702,0,0
665,-678,0,0,0,0,0,0,0,0,0,-1,1889,1702,0,0
672,-678,0,0,0,0,0,0,0,0,0,-1,1896,1702,0,0
679,-678,0,0,0,0,0,0,0,0,0,-1,1903,1702,0,0
686,-678,0,0,0,0,0,0,0,0,0,-1,1910,1702,0,0
693,-678,0,0,0,0,0,0,0,0,0,-1,1917,1702,0,0
700,-678,0,0,0,0,0,0,0,0,0,-1,1924,1702,0,0
707,-678,0,0,0,0,0,0,0,0,0,-1,1931,1702,0,0
714,-678,0,0,0,0,0,0,0,0,0,-1,1938,1702,0,0
721,-678,0,0,0,0,0,0,0,0,0,-1,1945,1702,0,0
728,-678,0,0,0,0,0,0,0,0,0,-1,1952,1702,0,0
735,-678,0,0,0,0,0,0,0,0,0,-1,1959,1702,0,0
742,-678,0,0,0,0,0,0,0,0,0,-1,1966,1702,0,0
749,-678,0,0,0,0,0,0,0,0,0,-1,1973,1702,0,0
756,-678,0,0,0,0,0,0,0,0,0,-1,1980,1702,0,0
763,-678,0,0,0,0,0,0,0,0,0,-1,1987,1702,0,0
770,-678,0,0,0,0,0,0,0,0,0,-1,1994,1702,0,0
777,-678,0,0,0,0,0,0,0,0,0,-1,2001,1702,0,0
784,-678,0,0,0,0,0,0,0,0,0,-1,2008,1702,0,0
791,-678,0,0,0,0,0,0,0,0,0,-1,2015,1702,0,0
798,-678,0,0,0,0,0,0,0,0,0,-1,2022,1702,0,0
805,-678,0,0,0,0,0,0,0,0,0,-1,2029,1702,0,0
812,-678,0,0,0,0,0,0,0,0,0,-1,2036,1702,0,0
-700,-685,0,0,0,0,0,0,0,0,0,-1,524,1709,0,0
-693,-685,0,0,0,0,0,0,0,0,0,-1,531,1709,0,0
-686,-685,0,0,0,0,0,0,0,0,0,-1,538,1709,0,0
-679,-685,0,0,0,0,0,0,0,0,0,-1,545,1709,0,0
-672,-685,0,0,0,0,0,0,0,0,0,-1,552,1709,0,0
-665,-685,0,0,0,0,0,0,0,0,0,-1,559,1709,0,0
-658,-685,0,0,0,0,0,0,0,0,0,-1,566,1709,0,0
-651,-685,0,0,0,0,0,0,0,0,0,-1,573,1709,0,0
-644,-685,0,0,0,0,0,0,0,0,0,-1,580,1709,0,0
-637,-685,0,0,0,0,0,0,0,0,0,-1,587,1709,0,0
-630,-685,0,0,0,0,0,0,0,0,0,-1,594,1709,0,0
-623,-685,0,0,0,0,0,0,0,0,0,-1,601,1709,0,0
-616,-685,0,0,0,0,0,0,0,0,0,-1,608,1709,0,0
-609,-685,0,0,0,0,0,0,0,0,0,-1,615,1709,0,0
-602,-685,0,0,0,0,0,0,0,0,0,-1,622,1709,0,0
-595,-685,0,0,0,0,0,0,0,0,0,-1,629,1709,0,0
-588,-685,0,0,0,0,0,0,0,0,0,-1,636,1709,0,0
-581,-685,0,0,0,0,0,0,0,0,0,-1,643,1709,0,0
-574,-685,0,0,0,0,0,0,0,0,0,-1,650,1709,0,0
-567,-685,0,0,0,0,0,0,0,0,0,-1,657,1709,0,0
-560,-685,0,0,0,0,0,0,0,0,0,-1,664,1709,0,0
-553,-685,0,0,0,0,0,0,0,0,0,-1,671,1709,0,0
-546,-685,0,0,0,0,0,0,0,0,0,-1,678,1709,0,0
-539,-685,0,0,0,0,0,0,0,0,0,-1,685,1709,0,0
-532,-685,0,0,0,0,0,0,0,0,0,-1,692,1709,0,0
-525,-685,0,0,0,0,0,0,0,0,0,-1,699,1709,0,0
-518,-685,0,0,0,0,0,0,0,0,0,-1,706,1709,0,0
-511,-685,0,0,0,0,0,0,0,0,0,-1,713,1709,0,0
-504,-685,0,0,0,0,0,0,0,0,0,-1,720,1709,0,0
-497,-685,0,0,0,0,0,0,0,0,0,-1,727,1709,0,0
-490,-685,0,0,0,0,0,0,0,0,0,-1,734,1709,0,0
-483,-685,0,0,0,0,0,0,0,0,0,-1,741,1709,0,0
-476,-685,0,0,0,0,0,0,0,0,0,-1,748,1709,0,0
-469,-685,0,0,0,0,0,0,0,0,0,-1,755,1709,0,0
-462,-685,0,0,0,0,0,0,0,0,0,-1,762,1709,0,0
-455,-685,0,0,0,0,0,0,0,0,0,-1,769,1709,0,0
-448,-685,0,0,0,0,0,0,0,0,0,-1,776,1709,0,0
-441,-685,0,0,0,0,0,0,0,0,0,-1,783,1709,0,0
-434,-685,0,0,0,0,0,0,0,0,0,-1,790,1709,0,0
-427,-685,0,0,0,0,0,0,0,0,0,-1,797,1709,0,0
-420,-685,0,0,0,0,0,0,0,0,0,-1,804,1709,0,0
-413,-685,0,0,0,0,0,0,0,0,0,-1,811,1709,0,0
-406,-685,0,0,0,0,0,0,0,0,0,-1,818,1709,0,0
-399,-685,0,0,0,0,0,0,0,0,0,-1,825,1709,0,0
-392,-685,0,0,0,0,0,0,0,0,0,-1,832,1709,0,0
-385,-685,0,0,0,0,0,0,0,0,0,-1,839,1709,0,0
-378,-685,0,0,0,0,0,0,0,0,0,-1,846,1709,0,0
-371,-685,0,0,0,0,0,0,0,0,0,-1,853,1709,0,0
-364,-685,0,0,0,0,0,0,0,0,0,-1,860,1709,0,0
-357,-685,0,0,0,0,0,0,0,0,0,-1,867,1709,0,0
-350,-685,0,0,0,0,0,0,0,0,0,-1,874,1709,0,0
-343,-685,-5.98505,6.56335,0,0,0,0,0,0,0,-1,881,1709,-5.98505,-6.56329
-336,-685,-6.51312,5.10571,0,0,0,0,0,0,0,-1,888,1709,-6.51311,-5.10575
-329,-685,-6.81384,3.34106,0,0,0,0,0,0,0,-1,895,1709,-6.81385,-3.341
-322,-685,3.48425,16.3307,0,0,0,0,0,0,0,-1,902,1709,3.48425,-16.3307
-315,-685,3.66089,14.3413,0,0,0,0,0,0,0,-1,909,1709,3.66091,-14.3413
-308,-685,4.00427,12.6189,0,0,0,0,0,0,0,-1,916,1709,4.00426,-12.6189
-301,-685,4.13641,9.20532,0,0,0,0,0,0,0,-1,923,1709,4.13638,-9.2053
-294,-685,3.164,9.35046,0,0,0,0,0,0,0,-1,930,1709,3.16399,-9.35047
-287,-685,3.92627,10.6166,-0.0103694,-0.00352168,0.00254851,-0.00267732,-0.0112138,1.25086,0.00676243,0.0486957,937,1709,3.92627,-10.6165
-280,-685,3.79559,10.6483,-0.00820491,-0.00382098,0.0017387,-0.00321513,-0.00881076,1.2355,0.00514841,0.0474325,944,1709,3.79561,-10.6483
-273,-685,3.88391,10.8499,-0.00649426,-0.00410673,0.00100615,-0.00373927,-0.00686171,1.22064,0.00396694,0.0499878,951,1709,3.88391,-10.8499
-266,-685,3.86475,10.6097,-0.00587178,-0.00436966,0.000103469,-0.00436257,-0.00587887,1.50234,0.00352427,0.0485467,958,1709,3.86474,-10.6097
-259,-685,4.03735,10.5616,-0.00581179,-0.00465114,-0.000363519,-0.00454669,-0.00591624,-1.29099,0.00357616,0.0420204,965,1709,4.03734,-10.5617
-252,-685,4.2207,11.1509,-0.00567854,-0.00464441,-0.00045814,-0.00447064,-0.00585231,-1.20827,0.00353224,0.036789,972,1709,4.22067,-11.1509
-245,-685,3.89563,11.222,-0.00552479,-0.00481267,-0.000500474,-0.00455452,-0.00578294,-1.09458,0.00351805,0.0348247,979,1709,3.89566,-11.2221
-238,-685,3.80066,11.3813,-0.00540801,-0.00490418,-0.000356288,-0.00471974,-0.00559244,-1.09312,0.00347413,0.0252326,986,1709,3.80066,-11.3813
-231,-685,3.74493,11.5637,-0.00512918,-0.00512625,2.3318e-06,-0.00512496,-0.00513047,1.06612,0.00341848,0.0168126,993,1709,3.74494,-11.5637
-224,-685,3.71869,11.7006,-0.00485014,-0.00524303,2.86914e-05,-0.00484806,-0.00524511,0.0725149,0.00337219,0.0147326,1000,1709,3.71871,-11.7005
-217,-685,3.72357,11.8549,-0.00483352,-0.0050472,9.4042e-05,-0.00479802,-0.00508269,0.360887,0.00329767,0.0113396,1007,1709,3.72354,-11.8549
-210,-685,3.72388,11.9985,-0.00484072,-0.00453407,0.000362411,-0.00429389,-0.00508091,0.985515,0.0031578,0.0151742,1014,1709,3.72388,-11.9985
-203,-685,3.71875,12.119,-0.00433644,-0.00461815,0.000610578,-0.00385068,-0.00510391,0.672036,0.00307131,0.0149165,1021,1709,3.71875,-12.119
-196,-685,3.70996,12.2266,-0.00359059,-0.00428229,0.000781871,-0.00308149,-0.00479139,0.577168,0.00280383,0.0128094,1028,1709,3.70993,-12.2265
-189,-685,3.70239,12.3577,-0.00268289,-0.00394903,0.00073895,-0.00234291,-0.00428901,0.431208,0.00247979,0.00891341,1035,1709,3.70244,-12.3577
-182,-685,3.7002,12.4771,-0.0017869,-0.00340861,0.000673362,-0.00154376,-0.00365175,0.346512,0.00211671,0.0127149,1042,1709,3.70022,-12.4771
-175,-685,3.69324,12.5881,-0.001154,-0.00223991,0.000495434,-0.000961937,-0.00243198,0.369833,0.00141428,0.0124324,1049,1709,3.69322,-12.5882
-168,-685,3.70166,12.731,-5.86011e-05,-0.00119943,0.000485612,0.000120112,-0.00137814,0.352634,0.000961301,0.00988369,1056,1709,3.70168,-12.731
-161,-685,3.69714,12.8524,0.00120843,-0.000229535,0.000578288,0.00141214,-0.00043324,0.338683,0.00111428,0.010672,1063,1709,3.69711,-12.8524
-154,-685,3.70471,12.9614,0.00235118,0.000571756,0.000534267,0.00249927,0.000423668,0.270391,0.00154445,0.00991609,1070,1709,3.70467,-12.9614
-147,-685,3.69385,13.0616,0.00311306,0.0011166,0.000448495,0.00320918,0.00102047,0.211132,0.0018933,0.00890204,1077,1709,3.69387,-13.0617
-140,-685,3.69556,13.172,0.00376838,0.00151466,0.000491777,0.00387102,0.00141202,0.205749,0.00226202,0.0114909,1084,1709,3.69551,-13.172
-133,-685,3.71143,13.2761,0.00457463,0.00149169,0.000780704,0.00476106,0.00130527,0.234404,0.00284073,0.0115558,1091,1709,3.71149,-13.2761
-126,-685,3.71497,13.3754,0.00526214,0.00137305,0.00112626,0.00556475,0.00107044,0.262488,0.0034095,0.00917142,1098,1709,3.71501,-13.3754
-119,-685,3.73914,13.4639,0.00598712,0.00107743,0.0015747,0.00644877,0.000615777,0.285177,0.00410933,0.0120602,1105,1709,3.73919,-13.4638
-112,-685,3.73633,13.5476,0.00659365,0.000295234,0.00199137,0.00717044,-0.000281555,0.28193,0.00487686,0.0118099,1112,1709,3.73632,-13.5476
-105,-685,3.71558,13.6243,0.00696823,-0.000483386,0.002385,0.00766621,-0.00118136,0.284702,0.00554669,0.0105724,1119,1709,3.71559,-13.6243
-98,-685,3.77271,13.6963,0.0072363,-0.00150388,0.00275505,0.00803225,-0.00229984,0.281249,0.0062638,0.0134962,1126,1709,3.7727,-13.6963
-91,-685,3.77954,13.8026,0.0074411,-0.00260534,0.00305668,0.00829802,-0.00346226,0.273327,0.00697852,0.0156165,1133,1709,3.77951,-13.8027
-84,-685,3.78809,13.8986,0.00750769,-0.00364447,0.00319271,0.00835703,-0.00449381,0.260004,0.00753036,0.0152366,1140,1709,3.78809,-13.8986
-77,-685,3.78088,14.0236,0.00753358,-0.00505788,0.00297281,0.00820016,-0.00572446,0.220578,0.00808163,0.0146737,1147,1709,3.78085,-14.0236
-70,-685,3.85498,14.1876,0.0070701,-0.00671341,0.00290915,0.00765895,-0.00730226,0.199715,0.00863868,0.0256562,1154,1709,3.85496,-14.1876
-63,-685,3.85205,14.459,0,0,0,0,0,0,0,-1,1161,1709,3.85201,-14.459
-56,-685,3.69727,14.8744,0,0,0,0,0,0,0,-1,1168,1709,3.69728,-14.8744
-49,-685,3.07471,9.86011,0,0,0,0,0,0,0,-1,1175,1709,3.07467,-9.86009
-42,-685,2.70618,7.54504,0,0,0,0,0,0,0,-1,1182,1709,2.7062,-7.54504
-35,-685,2.95264,7.91516,0,0,0,0,0,0,0,-1,1189,1709,2.95262,-7.91517
-28,-685,4.03467,14.165,0,0,0,0,0,0,0,-1,1196,1709,4.03472,-14.1651
-21,-685,4.03479,14.2777,-0.0038558,-0.00717887,-0.00598184,0.000690974,-0.0117256,-0.649932,0.0080573,0.0412651,1203,1709,4.03483,-14.2777
-14,-685,4.10901,14.2928,-0.00410816,-0.0103307,-0.00468375,-0.00159648,-0.0128424,-0.492227,0.00808215,0.0265583,1210,1709,4.10897,-14.2928
-7,-685,4.16821,14.2792,-0.00419516,-0.0135729,-0.00265407,-0.00349611,-0.0142719,-0.257537,0.00858976,0.039665,1217,1709,4.16823,-14.2791
0,-685,4.38037,14.2219,-0.00413745,-0.0171703,-0.000692882,-0.00410072,-0.0172071,-0.0529652,0.0103781,0.0411868,1224,1709,4.38041,-14.222
7,-685,4.41895,14.3503,-0.00432721,-0.0202823,0.00158597,-0.00417109,-0.0204384,0.0981229,0.01247,0.0371895,1231,1709,4.4189,-14.3503
14,-685,4.30042,14.5328,-0.00416819,-0.023075,0.00332027,-0.00360206,-0.0236411,0.168883,0.0147078,0.0387607,1238,1709,4.30038,-14.5328
21,-685,4.4353,14.4606,-0.0038664,-0.0254677,0.00447309,-0.00297677,-0.0263573,0.196323,0.0166681,0.0357283,1245,1709,4.43529,-14.4606
28,-685,4.33582,14.4814,-0.00127211,-0.0268215,0.00454773,-0.000486765,-0.0276069,0.171002,0.0182445,0.0379934,1252,1709,4.33576,-14.4814
35,-685,4.26697,14.5348,0.00485764,-0.0270345,0.00413595,0.00538528,-0.0275621,0.126889,0.0204081,0.0381775,1259,1709,4.26696,-14.5348
42,-685,4.35559,14.658,0.0124588,-0.0265741,0.00382748,0.0128305,-0.0269459,0.0968291,0.023442,0.0400164,1266,1709,4.35554,-14.6579
49,-685,4.27515,14.4539,0.0187609,-0.0249763,0.00347692,0.0190355,-0.025251,0.078836,0.0256526,0.0422007,1273,1709,4.2751,-14.4538
56,-685,4.04639,14.2456,0,0,0,0,0,0,0,-1,1280,1709,4.04638,-14.2456
63,-685,4.09668,13.1797,0,0,0,0,0,0,0,-1,1287,1709,4.09674,-13.1796
70,-685,3.60767,14.8575,0.0407058,-0.0197523,-0.000808955,0.0407167,-0.0197631,-0.0133772,0.0356097,0.0426964,1294,1709,3.60771,-14.8576
77,-685,3.70996,14.9186,0.0476765,-0.018074,-0.00200079,0.0477373,-0.0181348,-0.0303926,0.0392905,0.0403924,1301,1709,3.71,-14.9186
84,-685,3.77856,15.0557,0,0,0,0,0,0,0,-1,1308,1709,3.77859,-15.0557
91,-685,3.99146,15.2843,0.0568199,-0.0149244,-0.00435943,0.0570838,-0.0151883,-0.0604669,0.0440013,0.042109,1315,1709,3.99147,-15.2843
98,-685,3.98962,14.8995,0.0580989,-0.0149721,-0.0055143,0.0585127,-0.0153858,-0.0748996,0.0450221,0.0367755,1322,1709,3.98966,-14.8996
105,-685,3.87476,14.551,0.0585409,-0.0153062,-0.00643908,0.0590982,-0.0158635,-0.0863265,0.0456155,0.0412611,1329,1709,3.8747,-14.5511
112,-685,4.58948,14.392,0.0577052,-0.0163068,-0.00785713,0.0585302,-0.0171317,-0.104607,0.0458112,0.0441527,1336,1709,4.5895,-14.392
119,-685,4.58521,14.4572,0.056273,-0.0170975,-0.00935148,0.0574461,-0.0182706,-0.124798,0.0456238,0.03907,1343,1709,4.58523,-14.4571
126,-685,4.52039,14.5209,0,0,0,0,0,0,0,-1,1350,1709,4.52033,-14.5209
133,-685,4.72083,14.3107,0.0524514,-0.0158149,-0.0131925,0.0549122,-0.0182756,-0.184408,0.0439844,0.0444909,1357,1709,4.72082,-14.3107
140,-685,4.97009,14.1234,0.0482872,-0.0141145,-0.015446,0.0519012,-0.0177284,-0.22984,0.0417834,0.0453487,1364,1709,4.97013,-14.1234
147,-685,4.35828,13.8944,0.0447604,-0.0115138,-0.0180438,0.050049,-0.0168024,-0.285111,0.0401562,0.0406741,1371,1709,4.35834,-13.8944
154,-685,4.39929,13.8879,0,0,0,0,0,0,0,-1,1378,1709,4.39926,-13.8879
161,-685,4.98706,14.677,0,0,0,0,0,0,0,-1,1385,1709,4.98706,-14.677
168,-685,4.37524,10.8778,0,0,0,0,0,0,0,-1,1392,1709,4.37525,-10.8778
175,-685,3.97522,8.94324,0,0,0,0,0,0,0,-1,1399,1709,3.97519,-8.94328
182,-685,3.98218,9.19739,0,0,0,0,0,0,0,-1,1406,1709,3.98221,-9.1974
189,-685,4.53479,15.2343,0,0,0,0,0,0,0,-1,1413,1709,4.53474,-15.2343
196,-685,4.52173,14.5688,0,0,0,0,0,0,0,-1,1420,1709,4.5217,-14.5689
203,-685,4.54578,14.449,0,0,0,0,0,0,0,-1,1427,1709,4.54583,-14.449
210,-685,4.63208,14.4968,0.000466076,-0.00317284,0.00197167,0.00132951,-0.00403628,0.412762,0.00322665,0.0313129,1434,1709,4.63202,-14.4969
217,-685,4.60559,14.2404,-8.90041e-05,-0.00365677,0.00173362,0.000614619,-0.0043604,0.385555,0.00313197,0.0214239,1441,1709,4.60565,-14.2403
224,-685,4.55042,14.1455,-0.000327408,-0.00383769,0.00198766,0.000569113,-0.00473421,0.423721,0.00336194,0.0151714,1448,1709,4.55043,-14.1455
231,-685,4.59741,14.1033,3.75439e-05,-0.00360123,0.00172278,0.000723775,-0.00428746,0.379065,0.00312761,0.016151,1455,1709,4.59742,-14.1033
238,-685,4.61145,14.0338,0.000430574,-0.00337569,0.00144652,0.000917909,-0.00386302,0.324959,0.00292965,0.0192534,1462,1709,4.61141,-14.0338
245,-685,4.61707,13.9708,0.000667481,-0.00346412,0.00128817,0.00103621,-0.00383284,0.278785,0.00296168,0.0198662,1469,1709,4.61712,-13.9709
252,-685,4.64246,13.933,0.000819548,-0.00348096,0.00117378,0.00111906,-0.00378047,0.249838,0.0029646,0.0139283,1476,1709,4.64241,-13.9329
259,-685,4.64331,13.8783,0.000922634,-0.00328963,0.00100776,0.00115132,-0.00351831,0.223145,0.00280909,0.00961846,1483,1709,4.64331,-13.8783
266,-685,4.66382,13.7944,0.00103671,-0.00315638,0.000859695,0.00120612,-0.0033258,0.194571,0.00271023,0.0115347,1490,1709,4.66377,-13.7945
273,-685,4.66553,13.7008,0.0011267,-0.00266537,0.000632054,0.00122927,-0.00276795,0.160885,0.0023641,0.0147653,1497,1709,4.66548,-13.7009
280,-685,4.65417,13.5963,0.00112013,-0.00197214,0.000325677,0.00115406,-0.00200606,0.103802,0.00184647,0.0165884,1504,1709,4.65416,-13.5963
287,-685,4.64807,13.5138,0.00104236,-0.00155826,0.000161232,0.00105232,-0.00156822,0.061683,0.00152271,0.0118398,1511,1709,4.6481,-13.5139
294,-685,4.64502,13.4266,0.000970865,-0.00111813,4.76504e-05,0.000971952,-0.00111922,0.0227944,0.00120833,0.0101679,1518,1709,4.64497,-13.4266
301,-685,4.64783,13.3307,0.000802728,-0.000635641,-3.6518e-05,0.000803655,-0.000636568,-0.0253667,0.000833376,0.0123852,1525,1709,4.64784,-13.3307
308,-685,4.63745,13.2349,0.00078989,-0.000401755,0.000294916,0.000858883,-0.000470748,0.229809,0.000778489,0.0131618,1532,1709,4.63741,-13.2348
315,-685,4.64368,13.1198,0.00103386,-0.000574475,0.000735131,0.00131923,-0.000859851,0.37029,0.00126738,0.0118985,1539,1709,4.64368,-13.1197
322,-685,4.62927,13.0117,0.00134635,-0.000502512,0.00124194,0.00197014,-0.0011263,0.465462,0.00180972,0.0201664,1546,1709,4.62921,-13.0117
329,-685,4.62634,12.9132,0.00166924,-0.000818445,0.00174091,0.00256501,-0.00171421,0.475209,0.00248683,0.018781,1553,1709,4.6263,-12.9132
336,-685,4.64612,12.7983,0.00198846,-0.00106718,0.00232746,0.00324476,-0.00232347,0.494955,0.00322945,0.0129174,1560,1709,4.64609,-12.7983
343,-685,4.6405,12.6683,0.00245599,-0.00143281,0.00294498,0.00404056,-0.00301738,0.493627,0.00408915,0.0109201,1567,1709,4.64047,-12.6683
350,-685,4.64673,12.5494,0.00304058,-0.0019024,0.00349323,0.00484822,-0.00371004,0.477525,0.00495566,0.0107877,1574,1709,4.6467,-12.5495
357,-685,4.64648,12.4517,0.00364679,-0.00234142,0.00389142,0.00556265,-0.00425729,0.457493,0.00568622,0.00955311,1581,1709,4.64644,-12.4516
364,-685,4.63086,12.3121,0.00409548,-0.00244606,0.00394068,0.00594593,-0.00429651,0.439014,0.00593898,0.00988385,1588,1709,4.63086,-12.3121
371,-685,4.65002,12.1665,0.00431525,-0.00162623,0.00339028,0.0058522,-0.00316319,0.425629,0.00528165,0.0154432,1595,1709,4.64997,-12.1665
378,-685,4.60742,12.0623,0.00451286,-0.000671688,0.00267089,0.00564262,-0.00180145,0.400168,0.0044845,0.0207438,1602,1709,4.60737,-12.0623
385,-685,4.60754,11.9602,0.00467124,0.000943627,0.00137999,0.00512652,0.000488351,0.318669,0.00326709,0.0351169,1609,1709,4.60752,-11.9602
392,-685,4.62598,11.7646,0.00488366,0.00331741,-0.000219078,0.00491373,0.00328735,-0.136388,0.00289046,0.0395086,1616,1709,4.62592,-11.7646
399,-685,4.70728,11.7058,0,0,0,0,0,0,0,-1,1623,1709,4.70732,-11.7058
406,-685,4.64307,11.5842,0,0,0,0,0,0,0,-1,1630,1709,4.64307,-11.5842
413,-685,4.55457,11.1184,0,0,0,0,0,0,0,-1,1637,1709,4.55459,-11.1184
420,-685,4.84631,10.3781,0,0,0,0,0,0,0,-1,1644,1709,4.84634,-10.378
427,-685,6.05151,9.21155,0,0,0,0,0,0,0,-1,1651,1709,6.05156,-9.21156
434,-685,4.87769,8.91418,0,0,0,0,0,0,0,-1,1658,1709,4.87768,-8.91413
441,-685,5.62,8.75549,0,0,0,0,0,0,0,-1,1665,1709,5.61996,-8.75545
448,-685,6.4043,8.58972,0,0,0,0,0,0,0,-1,1672,1709,6.40435,-8.58971
455,-685,2.31958,4.09802,0,0,0,0,0,0,0,-1,1679,1709,2.31957,-4.09803
462,-685,0,0,0,0,0,0,0,0,0,-1,1686,1709,0,0
469,-685,0,0,0,0,0,0,0,0,0,-1,1693,1709,0,0
476,-685,0,0,0,0,0,0,0,0,0,-1,1700,1709,0,0
483,-685,0,0,0,0,0,0,0,0,0,-1,1707,1709,0,0
490,-685,0,0,0,0,0,0,0,0,0,-1,1714,1709,0,0
497,-685,0,0,0,0,0,0,0,0,0,-1,1721,1709,0,0
504,-685,0,0,0,0,0,0,0,0,0,-1,1728,1709,0,0
511,-685,0,0,0,0,0,0,0,0,0,-1,1735,1709,0,0
518,-685,0,0,0,0,0,0,0,0,0,-1,1742,1709,0,0
525,-685,0,0,0,0,0,0,0,0,0,-1,1749,1709,0,0
532,-685,0,0,0,0,0,0,0,0,0,-1,1756,1709,0,0
539,-685,0,0,0,0,0,0,0,0,0,-1,1763,1709,0,0
546,-685,0,0,0,0,0,0,0,0,0,-1,1770,1709,0,0
553,-685,0,0,0,0,0,0,0,0,0,-1,1777,1709,0,0
560,-685,0,0,0,0,0,0,0,0,0,-1,1784,1709,0,0
567,-685,0,0,0,0,0,0,0,0,0,-1,1791,1709,0,0
574,-685,0,0,0,0,0,0,0,0,0,-1,1798,1709,0,0
581,-685,0,0,0,0,0,0,0,0,0,-1,1805,1709,0,0
588,-685,0,0,0,0,0,0,0,0,0,-1,1812,1709,0,0
595,-685,0,0,0,0,0,0,0,0,0,-1,1819,1709,0,0
602,-685,0,0,0,0,0,0,0,0,0,-1,1826,1709,0,0
609,-685,0,0,0,0,0,0,0,0,0,-1,1833,1709,0,0
616,-685,0,0,0,0,0,0,0,0,0,-1,1840,1709,0,0
623,-685,0,0,0,0,0,0,0,0,0,-1,1847,1709,0,0
630,-685,0,0,0,0,0,0,0,0,0,-1,1854,1709,0,0
637,-685,0,0,0,0,0,0,0,0,0,-1,1861,1709,0,0
644,-685,0,0,0,0,0,0,0,0,0,-1,1868,1709,0,0
651,-685,0,0,0,0,0,0,0,0,0,-1,1875,1709,0,0
658,-685,0,0,0,0,0,0,0,0,0,-1,1882,1709,0,0
665,-685,0,0,0,0,0,0,0,0,0,-1,1889,1709,0,0
672,-685,0,0,0,0,0,0,0,0,0,-1,1896,1709,0,0
679,-685,0,0,0,0,0,0,0,0,0,-1,1903,1709,0,0
686,-685,0,0,0,0,0,0,0,0,0,-1,1910,1709,0,0
693,-685,0,0,0,0,0,0,0,0,0,-1,1917,1709,0,0
700,-685,0,0,0,0,0,0,0,0,0,-1,1924,1709,0,0
707,-685,0,0,0,0,0,0,0,0,0,-1,1931,1709,0,0
714,-685,0,0,0,0,0,0,0,0,0,-1,1938,1709,0,0
721,-685,0,0,0,0,0,0,0,0,0,-1,1945,1709,0,0
728,-685,0,0,0,0,0,0,0,0,0,-1,1952,1709,0,0
735,-685,0,0,0,0,0,0,0,0,0,-1,1959,1709,0,0
742,-685,0,0,0,0,0,0,0,0,0,-1,1966,1709,0,0
749,-685,0,0,0,0,0,0,0,0,0,-1,1973,1709,0,0
756,-685,0,0,0,0,0,0,0,0,0,-1,1980,1709,0,0
763,-685,0,0,0,0,0,0,0,0,0,-1,1987,1709,0,0
770,-685,0,0,0,0,0,0,0,0,0,-1,1994,1709,0,0
777,-685,0,0,0,0,0,0,0,0,0,-1,2001,1709,0,0
784,-685,0,0,0,0,0,0,0,0,0,-1,2008,1709,0,0
791,-685,0,0,0,0,0,0,0,0,0,-1,2015,1709,0,0
798,-685,0,0,0,0,0,0,0,0,0,-1,2022,1709,0,0
805,-685,0,0,0,0,0,0,0,0,0,-1,2029,1709,0,0
812,-685,0,0,0,0,0,0,0,0,0,-1,2036,1709,0,0
-700,-692,0,0,0,0,0,0,0,0,0,-1,524,1716,0,0
-693,-692,0,0,0,0,0,0,0,0,0,-1,531,1716,0,0
-686,-692,0,0,0,0,0,0,0,0,0,-1,538,1716,0,0
-679,-692,0,0,0,0,0,0,0,0,0,-1,545,1716,0,0
-672,-692,0,0,0,0,0,0,0,0,0,-1,552,1716,0,0
-665,-692,0,0,0,0,0,0,0,0,0,-1,559,1716,0,0
-658,-692,0,0,0,0,0,0,0,0,0,-1,566,1716,0,0
-651,-692,0,0,0,0,0,0,0,0,0,-1,573,1716,0,0
-644,-692,0,0,0,0,0,0,0,0,0,-1,580,1716,0,0
-637,-692,0,0,0,0,0,0,0,0,0,-1,587,1716,0,0
-630,-692,0,0,0,0,0,0,0,0,0,-1,594,1716,0,0
-623,-692,0,0,0,0,0,0,0,0,0,-1,601,1716,0,0
-616,-692,0,0,0,0,0,0,0,0,0,-1,608,1716,0,0
-609,-692,0,0,0,0,0,0,0,0,0,-1,615,1716,0,0
-602,-692,0,0,0,0,0,0,0,0,0,-1,622,1716,0,0
-595,-692,0,0,0,0,0,0,0,0,0,-1,629,1716,0,0
-588,-692,0,0,0,0,0,0,0,0,0,-1,636,1716,0,0
-581,-692,0,0,0,0,0,0,0,0,0,-1,643,1716,0,0
-574,-692,0,0,0,0,0,0,0,0,0,-1,650,1716,0,0
-567,-692,0,0,0,0,0,0,0,0,0,-1,657,1716,0,0
-560,-692,0,0,0,0,0,0,0,0,0,-1,664,1716,0,0
-553,-692,0,0,0,0,0,0,0,0,0,-1,671,1716,0,0
-546,-692,0,0,0,0,0,0,0,0,0,-1,678,1716,0,0
-539,-692,0,0,0,0,0,0,0,0,0,-1,685,1716,0,0
-532,-692,0,0,0,0,0,0,0,0,0,-1,692,1716,0,0
-525,-692,0,0,0,0,0,0,0,0,0,-1,699,1716,0,0
-518,-692,0,0,0,0,0,0,0,0,0,-1,706,1716,0,0
-511,-692,0,0,0,0,0,0,0,0,0,-1,713,1716,0,0
-504,-692,0,0,0,0,0,0,0,0,0,-1,720,1716,0,0
-497,-692,0,0,0,0,0,0,0,0,0,-1,727,1716,0,0
-490,-692,0,0,0,0,0,0,0,0,0,-1,734,1716,0,0
-483,-692,0,0,0,0,0,0,0,0,0,-1,741,1716,0,0
-476,-692,0,0,0,0,0,0,0,0,0,-1,748,1716,0,0
-469,-692,0,0,0,0,0,0,0,0,0,-1,755,1716,0,0
-462,-692,0,0,0,0,0,0,0,0,0,-1,762,1716,0,0
-455,-692,0,0,0,0,0,0,0,0,0,-1,769,1716,0,0
-448,-692,0,0,0,0,0,0,0,0,0,-1,776,1716,0,0
-441,-692,0,0,0,0,0,0,0,0,0,-1,783,1716,0,0
-434,-692,0,0,0,0,0,0,0,0,0,-1,790,1716,0,0
-427,-692,0,0,0,0,0,0,0,0,0,-1,797,1716,0,0
-420,-692,0,0,0,0,0,0,0,0,0,-1,804,1716,0,0
-413,-692,0,0,0,0,0,0,0,0,0,-1,811,1716,0,0
-406,-692,0,0,0,0,0,0,0,0,0,-1,818,1716,0,0
-399,-692,0,0,0,0,0,0,0,0,0,-1,825,1716,0,0
-392,-692,0,0,0,0,0,0,0,0,0,-1,832,1716,0,0
-385,-692,0,0,0,0,0,0,0,0,0,-1,839,1716,0,0
-378,-692,0,0,0,0,0,0,0,0,0,-1,846,1716,0,0
-371,-692,0,0,0,0,0,0,0,0,0,-1,853,1716,0,0
-364,-692,0,0,0,0,0,0,0,0,0,-1,860,1716,0,0
-357,-692,0,0,0,0,0,0,0,0,0,-1,867,1716,0,0
-350,-692,0,0,0,0,0,0,0,0,0,-1,874,1716,0,0
-343,-692,0,0,0,0,0,0,0,0,0,-1,881,1716,0,0
-336,-692,0,0,0,0,0,0,0,0,0,-1,888,1716,0,0
-329,-692,3.12396,3.50745,0,0,0,0,0,0,0,-1,895,1716,3.12398,-3.50748
-322,-692,3.67346,17.0139,0,0,0,0,0,0,0,-1,902,1716,3.67349,-17.0139
-315,-692,3.98718,15.2626,0,0,0,0,0,0,0,-1,909,1716,3.98716,-15.2626
-308,-692,4.28339,13.5061,0,0,0,0,0,0,0,-1,916,1716,4.2834,-13.5061
-301,-692,4.03302,12.2762,0,0,0,0,0,0,0,-1,923,1716,4.03304,-12.2762
-294,-692,4.33344,10.699,0,0,0,0,0,0,0,-1,930,1716,4.33345,-10.699
-287,-692,4.28918,10.5549,-0.0164354,-0.00544156,0.00400918,-0.00413483,-0.0177422,1.25572,0.010719,0.0496727,937,1716,4.28921,-10.5549
-280,-692,4.0614,10.5365,-0.0125512,-0.00552342,0.00311798,-0.00433951,-0.0137351,1.20791,0.00810706,0.0447866,944,1716,4.0614,-10.5366
-273,-692,3.97485,11.1053,-0.00995368,-0.00526324,0.00246387,-0.00420689,-0.01101,1.16576,0.00641529,0.0472344,951,1716,3.97488,-11.1054
-266,-692,4.34882,10.5146,-0.00920788,-0.00541746,0.00153765,-0.00487213,-0.0097532,1.22999,0.00563101,0.0470551,958,1716,4.34881,-10.5146
-259,-692,4.47308,10.0878,0,0,0,0,0,0,0,-1,965,1716,4.47306,-10.0878
-252,-692,4.211,10.7946,0,0,0,0,0,0,0,-1,972,1716,4.21098,-10.7946
-245,-692,4.05042,11.0724,-0.00882809,-0.00583005,0.000621009,-0.00570651,-0.00895163,1.37442,0.00523295,0.0488598,979,1716,4.05039,-11.0724
-238,-692,3.9245,11.3599,-0.00873603,-0.00601251,0.000710989,-0.00583808,-0.00891046,1.33021,0.00522641,0.0422904,986,1716,3.92448,-11.3598
-231,-692,3.95618,11.5709,-0.00847387,-0.00637165,0.00106877,-0.00592372,-0.00892179,1.17393,0.0052425,0.0331285,993,1716,3.95618,-11.5709
-224,-692,3.87665,11.7256,-0.0081458,-0.00660822,0.00105329,-0.006073,-0.00868102,1.10065,0.00514335,0.0170277,1000,1716,3.87663,-11.7255
-217,-692,3.84021,11.844,-0.00808644,-0.00647974,0.00108354,-0.00593422,-0.00863196,1.10439,0.00509909,0.0116571,1007,1716,3.84018,-11.844
-210,-692,3.84644,11.9764,-0.00801184,-0.00589116,0.00137376,-0.00521612,-0.00868688,1.11407,0.005049,0.0125173,1014,1716,3.84641,-11.9764
-203,-692,3.83533,12.1034,-0.00725436,-0.00583379,0.00167324,-0.00472632,-0.00836183,0.98612,0.00484138,0.0145705,1021,1716,3.83533,-12.1034
-196,-692,3.8241,12.2479,-0.00614702,-0.00529464,0.00185839,-0.0038142,-0.00762746,0.898115,0.00440372,0.0167232,1028,1716,3.82408,-12.248
-189,-692,3.81543,12.3492,-0.00483767,-0.00471852,0.00176471,-0.00301238,-0.00654381,0.80227,0.00378203,0.00906384,1035,1716,3.81539,-12.3492
-182,-692,3.81116,12.4677,-0.00355713,-0.00415661,0.00155045,-0.00227772,-0.00543603,0.689913,0.00315219,0.013364,1042,1716,3.81121,-12.4676
-175,-692,3.79321,12.6143,-0.00284022,-0.00269242,0.00119852,-0.00156552,-0.00396711,0.816188,0.00230731,0.0139195,1049,1716,3.79316,-12.6143
-168,-692,3.80518,12.7374,-0.00157315,-0.00147637,0.00103846,-0.000485175,-0.00256435,0.808681,0.00157298,0.0108145,1056,1716,3.80512,-12.7375
-161,-692,3.82019,12.868,-1.843e-05,-0.000314891,0.000968877,0.00081349,-0.00114681,0.709491,0.00113722,0.0128614,1063,1716,3.82023,-12.868
-154,-692,3.81775,12.9838,0.00127882,0.000582923,0.000760241,0.00176695,9.47876e-05,0.570787,0.00114768,0.0136208,1070,1716,3.81775,-12.9837
-147,-692,3.80591,13.0742,0.00193373,0.00102283,0.000437521,0.00210984,0.00084673,0.382662,0.001226,0.0122183,1077,1716,3.80587,-13.0743
-140,-692,3.81848,13.1752,0.0023116,0.00133621,0.000320391,0.00240742,0.00124039,0.290624,0.00139014,0.00991941,1084,1716,3.8185,-13.1752
-133,-692,3.82922,13.2798,0.00280707,0.00128397,0.000449722,0.00292995,0.00116109,0.266715,0.0017037,0.0099512,1091,1716,3.82918,-13.2798
-126,-692,3.82202,13.3665,0.0032379,0.00113068,0.000694119,0.00344599,0.000922591,0.291269,0.00205986,0.00771534,1098,1716,3.82206,-13.3664
-119,-692,3.83032,13.4399,0.00372338,0.000788274,0.00105337,0.00406229,0.000449365,0.311278,0.00257152,0.0107479,1105,1716,3.83035,-13.4399
-112,-692,3.82776,13.5369,0.00420868,8.20822e-05,0.00140242,0.00464018,-0.000349412,0.298485,0.00321626,0.0102178,1112,1716,3.82773,-13.5369
-105,-692,3.86963,13.642,0.00454488,-0.000572563,0.00169917,0.00505768,-0.00108536,0.293101,0.0037858,0.0146705,1119,1716,3.86965,-13.6419
-98,-692,3.88403,13.6876,0.00476724,-0.00142985,0.0019677,0.00533923,-0.00200184,0.282893,0.00438193,0.0162731,1126,1716,3.88403,-13.6876
-91,-692,3.86707,13.7587,0.00488507,-0.00216149,0.00222262,0.00552755,-0.00280397,0.281393,0.00489513,0.01819,1133,1716,3.86713,-13.7586
-84,-692,3.88293,13.8535,0.00490423,-0.00277555,0.00237175,0.00557765,-0.00344897,0.276652,0.00525961,0.0206906,1140,1716,3.88293,-13.8535
-77,-692,3.86951,13.9926,0.00491338,-0.00356077,0.00220403,0.00545235,-0.00409974,0.23983,0.0055333,0.0136967,1147,1716,3.86956,-13.9925
-70,-692,3.8833,14.0919,0.004594,-0.00437799,0.00214909,0.00508221,-0.00486621,0.223381,0.00574417,0.016825,1154,1716,3.88333,-14.0919
-63,-692,3.88708,14.1515,0.0036565,-0.00378622,0.000282824,0.00366723,-0.00379695,0.0379272,0.00430966,0.0239259,1161,1716,3.88713,-14.1514
-56,-692,3.82703,14.4254,0.0022966,-0.00431764,-0.00118274,0.00250173,-0.00452277,-0.17173,0.00411117,0.0452347,1168,1716,3.82699,-14.4255
-49,-692,3.79163,14.9133,0,0,0,0,0,0,0,-1,1175,1716,3.79166,-14.9133
-42,-692,3.95959,14.4146,0,0,0,0,0,0,0,-1,1182,1716,3.95965,-14.4145
-35,-692,3.97009,14.467,0,0,0,0,0,0,0,-1,1189,1716,3.97006,-14.467
-28,-692,3.91577,14.4368,-0.00182042,-0.00622907,-0.00142144,-0.00140186,-0.00664763,-0.286369,0.00404624,0.0393956,1196,1716,3.91576,-14.4368
-21,-692,4.02417,14.4108,-0.00251701,-0.00819664,-0.00122218,-0.00226518,-0.00844847,-0.203206,0.00504955,0.0263966,1203,1716,4.02416,-14.4107
-14,-692,4.03528,14.4304,-0.0027108,-0.0107382,-0.000371953,-0.0026936,-0.0107554,-0.0462034,0.00646232,0.015241,1210,1716,4.0353,-14.4304
-7,-692,4.02563,14.5153,-0.00268446,-0.0133212,0.000880224,-0.00261211,-0.0133935,0.08201,0.00819821,0.0152624,1217,1716,4.02562,-14.5152
0,-692,4.04395,14.5679,-0.00260262,-0.0161028,0.00205755,-0.002296,-0.0164095,0.147935,0.0102603,0.0178363,1224,1716,4.04394,-14.5679
7,-692,4.05603,14.5724,-0.00280216,-0.0182846,0.00365493,-0.00198271,-0.019104,0.220556,0.0121293,0.0214221,1231,1716,4.056,-14.5724
14,-692,4.13452,14.6105,-0.00269796,-0.0201065,0.00483212,-0.00144665,-0.0213578,0.253392,0.0137817,0.0221887,1238,1716,4.13453,-14.6105
21,-692,4.21399,14.5865,-0.00250906,-0.0215856,0.00554215,-0.00101583,-0.0230788,0.263182,0.0150587,0.0231469,1245,1716,4.21395,-14.5865
28,-692,4.14478,14.574,-0.000921922,-0.0220532,0.00560749,0.000473904,-0.023449,0.243964,0.015793,0.0235768,1252,1716,4.14477,-14.574
35,-692,4.14771,14.6852,0.00340163,-0.021686,0.00534615,0.00449338,-0.0227777,0.201443,0.0168834,0.0217835,1259,1716,4.14775,-14.6851
42,-692,4.24683,14.7628,0.00896816,-0.0207682,0.00526872,0.00987408,-0.0216741,0.170278,0.0186342,0.0199639,1266,1716,4.24682,-14.7629
49,-692,4.24072,14.7152,0.013584,-0.0187462,0.00498557,0.0143353,-0.0194975,0.14958,0.019609,0.0235607,1273,1716,4.24075,-14.7152
56,-692,4.17542,14.6942,0.0188203,-0.0166323,0.00359873,0.0191819,-0.0169939,0.100147,0.0208989,0.02974,1280,1716,4.17536,-14.6942
63,-692,4.23486,14.7483,0.0243435,-0.0144912,0.00232815,0.0244826,-0.0146303,0.0596653,0.0228194,0.0278124,1287,1716,4.23481,-14.7483
70,-692,4.26001,14.7719,0.0292266,-0.0133848,0.00223791,0.0293438,-0.013502,0.0523272,0.0252944,0.0242827,1294,1716,4.26,-14.7719
77,-692,4.24341,14.8087,0.034095,-0.0115634,0.00160222,0.0341511,-0.0116195,0.035034,0.0274723,0.0280309,1301,1716,4.24345,-14.8087
84,-692,4.26697,14.7645,0.0381652,-0.0102012,0.000977862,0.0381849,-0.010221,0.0202068,0.0294607,0.0332394,1308,1716,4.26691,-14.7646
91,-692,4.2655,14.7333,0.0402935,-0.00966708,0.000372767,0.0402963,-0.00966986,0.00746068,0.030601,0.0306666,1315,1716,4.26556,-14.7333
98,-692,4.30078,14.7299,0.0406719,-0.0102467,4.84449e-06,0.0406719,-0.0102467,9.51418e-05,0.0310981,0.0253364,1322,1716,4.30076,-14.7299
105,-692,4.37549,14.6815,0.0403509,-0.0110724,-0.000148216,0.0403513,-0.0110728,-0.00288225,0.0312527,0.0311186,1329,1716,4.37549,-14.6815
112,-692,4.43372,14.698,0.0388964,-0.0127074,-0.000674044,0.0389052,-0.0127162,-0.0130589,0.0310558,0.0343169,1336,1716,4.43371,-14.698
119,-692,4.33459,14.7366,0.0366606,-0.0144548,-0.000988546,0.0366797,-0.0144739,-0.0193299,0.030447,0.0280206,1343,1716,4.33455,-14.7365
126,-692,4.3457,14.7313,0.0338685,-0.0157282,-0.00137923,0.0339068,-0.0157665,-0.0277803,0.0293094,0.0266445,1350,1716,4.34568,-14.7313
133,-692,4.38098,14.7195,0.0310287,-0.0161175,-0.00179646,0.031097,-0.0161858,-0.0380307,0.0277475,0.0218473,1357,1716,4.38094,-14.7195
140,-692,4.39771,14.7001,0.0256479,-0.0159986,-0.00249027,0.0257963,-0.016147,-0.0595129,0.0244286,0.0267216,1364,1716,4.39768,-14.7001
147,-692,4.42029,14.6868,0.0207113,-0.0150489,-0.00372279,0.0210947,-0.0154323,-0.102638,0.0211732,0.029632,1371,1716,4.42028,-14.6868
154,-692,4.46301,14.7289,0.0200634,-0.0141887,-0.00517433,0.020828,-0.0149533,-0.146706,0.0207509,0.0277451,1378,1716,4.46303,-14.7289
161,-692,4.66272,14.6827,0.0183569,-0.0110912,-0.00421662,0.0189487,-0.0116831,-0.139456,0.0178503,0.0406813,1385,1716,4.66267,-14.6828
168,-692,4.84509,14.6461,0,0,0,0,0,0,0,-1,1392,1716,4.84505,-14.6461
175,-692,4.50073,14.5437,0,0,0,0,0,0,0,-1,1399,1716,4.50068,-14.5437
182,-692,4.47754,14.8635,0,0,0,0,0,0,0,-1,1406,1716,4.47755,-14.8635
189,-692,4.49084,14.566,0.00378967,-0.00355882,-0.00120637,0.00398265,-0.00375179,-0.158621,0.00446615,0.0470439,1413,1716,4.49081,-14.566
196,-692,4.46924,14.4679,-3.94042e-05,-0.00318458,0.00140149,0.000494474,-0.00371846,0.363965,0.00265917,0.0226413,1420,1716,4.46923,-14.4679
203,-692,4.50671,14.3987,0.000733363,-0.00146423,0.00173268,0.00168628,-0.00241715,0.502818,0.00238161,0.016261,1427,1716,4.50674,-14.3986
210,-692,4.55615,14.3594,0.0002585,-0.00199287,0.00158148,0.00107401,-0.00280838,0.4761,0.00231486,0.0164285,1434,1716,4.55618,-14.3594
217,-692,4.52368,14.2848,-0.000109061,-0.00237572,0.00137288,0.000537846,-0.00302263,0.440346,0.00221623,0.0163834,1441,1716,4.52363,-14.2848
224,-692,4.52014,14.222,-0.000212092,-0.00255641,0.00147171,0.000497208,-0.00326571,0.449109,0.0023604,0.0132249,1448,1716,4.52014,-14.222
231,-692,4.54248,14.1603,1.06711e-05,-0.00248386,0.00126263,0.000538206,-0.0030114,0.395761,0.00220896,0.0116967,1455,1716,4.54247,-14.1602
238,-692,4.55212,14.0295,0.000281743,-0.00236009,0.00101685,0.000627802,-0.00270615,0.328029,0.00204574,0.0180625,1462,1716,4.55213,-14.0295
245,-692,4.54333,13.9668,0.000484118,-0.00237752,0.000820236,0.000702551,-0.00259595,0.260264,0.00200625,0.0203183,1469,1716,4.54338,-13.9668
252,-692,4.55835,13.9438,0.00062318,-0.00230549,0.000644604,0.00075878,-0.00244109,0.207338,0.00193068,0.0163122,1476,1716,4.55833,-13.9439
259,-692,4.56116,13.8756,0.00074618,-0.00206938,0.000433074,0.000811288,-0.00213449,0.14922,0.00175701,0.00883705,1483,1716,4.5612,-13.8756
266,-692,4.55676,13.7943,0.000875097,-0.00186986,0.000228811,0.000894039,-0.0018888,0.0825973,0.00164053,0.00972879,1490,1716,4.5568,-13.7943
273,-692,4.55774,13.6903,0.000960609,-0.00139036,-1.8942e-05,0.000960761,-0.00139051,-0.0080564,0.00136504,0.0149643,1497,1716,4.55771,-13.6903
280,-692,4.57507,13.5939,0.000941542,-0.000753673,-0.000268712,0.000983116,-0.000795247,-0.1535,0.00102865,0.0147172,1504,1716,4.57501,-13.5939
287,-692,4.57324,13.5237,0.000867697,-0.000401857,-0.000364538,0.000964924,-0.000499084,-0.260646,0.000859391,0.011237,1511,1716,4.57329,-13.5237
294,-692,4.55945,13.4362,0.000829788,3.91301e-05,-0.00046952,0.00104825,-0.000179327,-0.435487,0.000765639,0.0103465,1518,1716,4.55948,-13.4361
301,-692,4.54346,13.3391,0.000645066,0.000498927,-0.000500652,0.00107795,6.604e-05,-0.712935,0.000697665,0.0126883,1525,1716,4.54342,-13.3392
308,-692,4.51917,13.2461,0.000719102,0.000557302,0.000109546,0.000774383,0.000502022,0.467349,0.000453597,0.0154007,1532,1716,4.51922,-13.2461
315,-692,4.52673,13.1246,0.00115553,0.000110632,0.000788988,0.00157937,-0.000313203,0.492954,0.00117136,0.014638,1539,1716,4.52672,-13.1246
322,-692,4.51184,12.9854,0.00165995,3.6341e-05,0.0015641,0.00261037,-0.000914077,0.546023,0.00211194,0.0193982,1546,1716,4.51181,-12.9853
329,-692,4.50806,12.8889,0.00216001,-0.000576315,0.00237956,0.0035367,-0.001953,0.524495,0.00321314,0.0167179,1553,1716,4.508,-12.889
336,-692,4.54028,12.7811,0.00273881,-0.00110319,0.00329714,0.00463375,-0.00299812,0.521625,0.00443987,0.0119667,1560,1716,4.54031,-12.7812
343,-692,4.5592,12.6527,0.00351016,-0.00179375,0.00430088,0.00591097,-0.00419456,0.509127,0.00586242,0.0121373,1567,1716,4.55922,-12.6527
350,-692,4.5752,12.5358,0.00442326,-0.00263534,0.00527721,0.00724258,-0.00545466,0.490665,0.00735494,0.0123393,1574,1716,4.57521,-12.5357
357,-692,4.55579,12.4574,0.00538682,-0.00342565,0.0060852,0.00849354,-0.00653237,0.472042,0.00869981,0.0166551,1581,1716,4.55577,-12.4574
364,-692,4.53137,12.3368,0.00619134,-0.003814,0.00648143,0.0093762,-0.00699886,0.45673,0.0094873,0.0231527,1588,1716,4.53138,-12.3368
371,-692,4.64441,12.1763,0.00672808,-0.00310397,0.00612362,0.00966483,-0.00604071,0.447176,0.00914771,0.033663,1595,1716,4.64446,-12.1763
378,-692,4.63953,12.0321,0.0071781,-0.00215258,0.0054474,0.00968489,-0.00465938,0.431289,0.00844939,0.0391744,1602,1716,4.63951,-12.0321
385,-692,4.52551,11.7437,0.00751937,-0.00031886,0.00393264,0.00915229,-0.00195178,0.39356,0.00684551,0.0447195,1609,1716,4.52548,-11.7437
392,-692,4.48987,11.3621,0,0,0,0,0,0,0,-1,1616,1716,4.48983,-11.3621
399,-692,5.2627,10.4279,0,0,0,0,0,0,0,-1,1623,1716,5.26267,-10.4278
406,-692,4.73633,10.6808,0,0,0,0,0,0,0,-1,1630,1716,4.73637,-10.6808
413,-692,4.25085,10.5685,0,0,0,0,0,0,0,-1,1637,1716,4.2508,-10.5685
420,-692,5.48901,10.4845,0,0,0,0,0,0,0,-1,1644,1716,5.48906,-10.4845
427,-692,3.79578,8.60339,0,0,0,0,0,0,0,-1,1651,1716,3.79577,-8.6034
434,-692,4.78516,8.64636,0,0,0,0,0,0,0,-1,1658,1716,4.78512,-8.64634
441,-692,5.8208,8.74036,0,0,0,0,0,0,0,-1,1665,1716,5.82084,-8.7404
448,-692,6.73792,8.51013,0,0,0,0,0,0,0,-1,1672,1716,6.73793,-8.5101
455,-692,0,0,0,0,0,0,0,0,0,-1,1679,1716,0,0
462,-692,0,0,0,0,0,0,0,0,0,-1,1686,1716,0,0
469,-692,0,0,0,0,0,0,0,0,0,-1,1693,1716,0,0
476,-692,0,0,0,0,0,0,0,0,0,-1,1700,1716,0,0
483,-692,0,0,0,0,0,0,0,0,0,-1,1707,1716,0,0
490,-692,0,0,0,0,0,0,0,0,0,-1,1714,1716,0,0
497,-692,0,0,0,0,0,0,0,0,0,-1,1721,1716,0,0
504,-692,0,0,0,0,0,0,0,0,0,-1,1728,1716,0,0
511,-692,0,0,0,0,0,0,0,0,0,-1,1735,1716,0,0
518,-692,0,0,0,0,0,0,0,0,0,-1,1742,1716,0,0
525,-692,0,0,0,0,0,0,0,0,0,-1,1749,1716,0,0
532,-692,0,0,0,0,0,0,0,0,0,-1,1756,1716,0,0
539,-692,0,0,0,0,0,0,0,0,0,-1,1763,1716,0,0
546,-692,0,0,0,0,0,0,0,0,0,-1,1770,1716,0,0
553,-692,0,0,0,0,0,0,0,0,0,-1,1777,1716,0,0
560,-692,0,0,0,0,0,0,0,0,0,-1,1784,1716,0,0
567,-692,0,0,0,0,0,0,0,0,0,-1,1791,1716,0,0
574,-692,0,0,0,0,0,0,0,0,0,-1,1798,1716,0,0
581,-692,0,0,0,0,0,0,0,0,0,-1,1805,1716,0,0
588,-692,0,0,0,0,0,0,0,0,0,-1,1812,1716,0,0
595,-692,0,0,0,0,0,0,0,0,0,-1,1819,1716,0,0
602,-692,0,0,0,0,0,0,0,0,0,-1,1826,1716,0,0
609,-692,0,0,0,0,0,0,0,0,0,-1,1833,1716,0,0
616,-692,0,0,0,0,0,0,0,0,0,-1,1840,1716,0,0
623,-692,0,0,0,0,0,0,0,0,0,-1,1847,1716,0,0
630,-692,0,0,0,0,0,0,0,0,0,-1,1854,1716,0,0
637,-692,0,0,0,0,0,0,0,0,0,-1,1861,1716,0,0
644,-692,0,0,0,0,0,0,0,0,0,-1,1868,1716,0,0
651,-692,0,0,0,0,0,0,0,0,0,-1,1875,1716,0,0
658,-692,0,0,0,0,0,0,0,0,0,-1,1882,1716,0,0
665,-692,0,0,0,0,0,0,0,0,0,-1,1889,1716,0,0
672,-692,0,0,0,0,0,0,0,0,0,-1,1896,1716,0,0
679,-692,0,0,0,0,0,0,0,0,0,-1,1903,1716,0,0
686,-692,0,0,0,0,0,0,0,0,0,-1,1910,1716,0,0
693,-692,0,0,0,0,0,0,0,0,0,-1,1917,1716,0,0
700,-692,0,0,0,0,0,0,0,0,0,-1,1924,1716,0,0
707,-692,0,0,0,0,0,0,0,0,0,-1,1931,1716,0,0
714,-692,0,0,0,0,0,0,0,0,0,-1,1938,1716,0,0
721,-692,0,0,0,0,0,0,0,0,0,-1,1945,1716,0,0
728,-692,0,0,0,0,0,0,0,0,0,-1,1952,1716,0,0
735,-692,0,0,0,0,0,0,0,0,0,-1,1959,1716,0,0
742,-692,0,0,0,0,0,0,0,0,0,-1,1966,1716,0,0
749,-692,0,0,0,0,0,0,0,0,0,-1,1973,1716,0,0
756,-692,0,0,0,0,0,0,0,0,0,-1,1980,1716,0,0
763,-692,0,0,0,0,0,0,0,0,0,-1,1987,1716,0,0
770,-692,0,0,0,0,0,0,0,0,0,-1,1994,1716,0,0
777,-692,0,0,0,0,0,0,0,0,0,-1,2001,1716,0,0
784,-692,0,0,0,0,0,0,0,0,0,-1,2008,1716,0,0
791,-692,0,0,0,0,0,0,0,0,0,-1,2015,1716,0,0
798,-692,0,0,0,0,0,0,0,0,0,-1,2022,1716,0,0
805,-692,0,0,0,0,0,0,0,0,0,-1,2029,1716,0,0
812,-692,0,0,0,0,0,0,0,0,0,-1,2036,1716,0,0
-700,-699,0,0,0,0,0,0,0,0,0,-1,524,1723,0,0
-693,-699,0,0,0,0,0,0,0,0,0,-1,531,1723,0,0
-686,-699,0,0,0,0,0,0,0,0,0,-1,538,1723,0,0
-679,-699,0,0,0,0,0,0,0,0,0,-1,545,1723,0,0
-672,-699,0,0,0,0,0,0,0,0,0,-1,552,1723,0,0
-665,-699,0,0,0,0,0,0,0,0,0,-1,559,1723,0,0
-658,-699,0,0,0,0,0,0,0,0,0,-1,566,1723,0,0
-651,-699,0,0,0,0,0,0,0,0,0,-1,573,1723,0,0
-644,-699,0,0,0,0,0,0,0,0,0,-1,580,1723,0,0
-637,-699,0,0,0,0,0,0,0,0,0,-1,587,1723,0,0
-630,-699,0,0,0,0,0,0,0,0,0,-1,594,1723,0,0
-623,-699,0,0,0,0,0,0,0,0,0,-1,601,1723,0,0
-616,-699,0,0,0,0,0,0,0,0,0,-1,608,1723,0,0
-609,-699,0,0,0,0,0,0,0,0,0,-1,615,1723,0,0
-602,-699,0,0,0,0,0,0,0,0,0,-1,622,1723,0,0
-595,-699,0,0,0,0,0,0,0,0,0,-1,629,1723,0,0
-588,-699,0,0,0,0,0,0,0,0,0,-1,636,1723,0,0
-581,-699,0,0,0,0,0,0,0,0,0,-1,643,1723,0,0
-574,-699,0,0,0,0,0,0,0,0,0,-1,650,1723,0,0
-567,-699,0,0,0,0,0,0,0,0,0,-1,657,1723,0,0
-560,-699,0,0,0,0,0,0,0,0,0,-1,664,1723,0,0
-553,-699,0,0,0,0,0,0,0,0,0,-1,671,1723,0,0
-546,-699,0,0,0,0,0,0,0,0,0,-1,678,1723,0,0
-539,-699,0,0,0,0,0,0,0,0,0,-1,685,1723,0,0
-532,-699,0,0,0,0,0,0,0,0,0,-1,692,1723,0,0
-525,-699,0,0,0,0,0,0,0,0,0,-1,699,1723,0,0
-518,-699,0,0,0,0,0,0,0,0,0,-1,706,1723,0,0
-511,-699,0,0,0,0,0,0,0,0,0,-1,713,1723,0,0
-504,-699,0,0,0,0,0,0,0,0,0,-1,720,1723,0,0
-497,-699,0,0,0,0,0,0,0,0,0,-1,727,1723,0,0
-490,-699,0,0,0,0,0,0,0,0,0,-1,734,1723,0,0
-483,-699,0,0,0,0,0,0,0,0,0,-1,741,1723,0,0
-476,-699,0,0,0,0,0,0,0,0,0,-1,748,1723,0,0
-469,-699,0,0,0,0,0,0,0,0,0,-1,755,1723,0,0
-462,-699,0,0,0,0,0,0,0,0,0,-1,762,1723,0,0
-455,-699,0,0,0,0,0,0,0,0,0,-1,769,1723,0,0
-448,-699,0,0,0,0,0,0,0,0,0,-1,776,1723,0,0
-441,-699,0,0,0,0,0,0,0,0,0,-1,783,1723,0,0
-434,-699,0,0,0,0,0,0,0,0,0,-1,790,1723,0,0
-427,-699,0,0,0,0,0,0,0,0,0,-1,797,1723,0,0
-420,-699,0,0,0,0,0,0,0,0,0,-1,804,1723,0,0
-413,-699,0,0,0,0,0,0,0,0,0,-1,811,1723,0,0
-406,-699,0,0,0,0,0,0,0,0,0,-1,818,1723,0,0
-399,-699,0,0,0,0,0,0,0,0,0,-1,825,1723,0,0
-392,-699,0,0,0,0,0,0,0,0,0,-1,832,1723,0,0
-385,-699,0,0,0,0,0,0,0,0,0,-1,839,1723,0,0
-378,-699,0,0,0,0,0,0,0,0,0,-1,846,1723,0,0
-371,-699,0,0,0,0,0,0,0,0,0,-1,853,1723,0,0
-364,-699,0,0,0,0,0,0,0,0,0,-1,860,1723,0,0
-357,-699,0,0,0,0,0,0,0,0,0,-1,867,1723,0,0
-350,-699,0,0,0,0,0,0,0,0,0,-1,874,1723,0,0
-343,-699,0,0,0,0,0,0,0,0,0,-1,881,1723,0,0
-336,-699,0,0,0,0,0,0,0,0,0,-1,888,1723,0,0
-329,-699,0,0,0,0,0,0,0,0,0,-1,895,1723,0,0
-322,-699,0,0,0,0,0,0,0,0,0,-1,902,1723,0,0
-315,-699,4.27734,16.1066,0,0,0,0,0,0,0,-1,909,1723,4.27737,-16.1066
-308,-699,4.55981,14.3354,0,0,0,0,0,0,0,-1,916,1723,4.55981,-14.3355
-301,-699,4.72729,12.8752,0,0,0,0,0,0,0,-1,923,1723,4.72732,-12.8752
-294,-699,4.01123,11.4454,0,0,0,0,0,0,0,-1,930,1723,4.0112,-11.4454
-287,-699,4.32794,10.511,0,0,0,0,0,0,0,-1,937,1723,4.32794,-10.511
-280,-699,4.34216,10.4484,-0.0181762,-0.00662624,0.00520665,-0.00462565,-0.0201768,1.20395,0.0122051,0.0441666,944,1723,4.34219,-10.4483
-273,-699,4.08521,11.1162,-0.0143107,-0.00564211,0.00452427,-0.00371102,-0.0162418,1.16738,0.00982727,0.0449133,951,1723,4.08523,-11.1163
-266,-699,3.90045,11.7505,-0.0132625,-0.005652,0.00342532,-0.00433742,-0.0145771,1.20435,0.008643,0.0495442,958,1723,3.90046,-11.7505
-259,-699,3.92102,12.2505,0,0,0,0,0,0,0,-1,965,1723,3.92104,-12.2504
-252,-699,4.95154,9.19482,0,0,0,0,0,0,0,-1,972,1723,4.95153,-9.19486
-245,-699,4.16742,10.9857,0,0,0,0,0,0,0,-1,979,1723,4.16741,-10.9857
-238,-699,4.02655,11.3324,0,0,0,0,0,0,0,-1,986,1723,4.02656,-11.3324
-231,-699,4.09076,11.5481,-0.0123595,-0.00748244,0.00211614,-0.00669227,-0.0131497,1.21343,0.00759238,0.0435021,993,1723,4.09074,-11.5481
-224,-699,3.99469,11.7772,-0.0120507,-0.00801006,0.00203936,-0.00715972,-0.012901,1.17575,0.0074634,0.0367066,1000,1723,3.99471,-11.7773
-217,-699,3.94427,11.8251,-0.0120161,-0.00810407,0.0020387,-0.0072348,-0.0128854,1.16775,0.00745811,0.0245248,1007,1723,3.94425,-11.8251
-210,-699,3.94452,11.9431,-0.0118915,-0.00757528,0.00236579,-0.00653114,-0.0129356,1.15516,0.0074685,0.0175975,1014,1723,3.94449,-11.9431
-203,-699,3.97607,12.0797,-0.0108421,-0.00741724,0.00274646,-0.00589308,-0.0123662,1.06416,0.00714225,0.0194998,1021,1723,3.97602,-12.0797
-196,-699,3.96252,12.214,-0.00930076,-0.00669977,0.0029589,-0.00476818,-0.0112324,0.99245,0.0065096,0.0164897,1028,1723,3.96252,-12.214
-189,-699,3.94299,12.3546,-0.00747161,-0.0058801,0.00279825,-0.00376666,-0.00958505,0.923929,0.00557603,0.009132,1035,1723,3.94301,-12.3546
-182,-699,3.93677,12.4657,-0.00566494,-0.00537168,0.00242735,-0.00308654,-0.00795008,0.815566,0.00462804,0.0118599,1042,1723,3.93672,-12.4657
-175,-699,3.93506,12.6084,-0.004757,-0.00354822,0.00187511,-0.00218251,-0.00612271,0.941303,0.00358318,0.0136254,1049,1723,3.93507,-12.6084
-168,-699,3.94995,12.7426,-0.00316372,-0.00207706,0.00154783,-0.00097997,-0.00426081,0.954193,0.00257676,0.0142436,1056,1723,3.94998,-12.7425
-161,-699,3.93884,12.8589,-0.00109606,-0.000632238,0.00131478,0.000470928,-0.00219923,0.872694,0.00164574,0.0130175,1063,1723,3.9389,-12.8588
-154,-699,3.91528,12.9712,0.000577181,0.000459366,0.000919578,0.00143974,-0.00040319,0.753412,0.00111871,0.0131377,1070,1723,3.91526,-12.9712
-147,-699,3.91016,13.0685,0.00119474,0.000814466,0.000338456,0.00139281,0.000616395,0.529479,0.000805905,0.0135387,1077,1723,3.91017,-13.0685
-140,-699,3.92444,13.1685,0.00131032,0.00105322,5.45241e-05,0.00132141,0.00104213,0.200567,0.000804177,0.00936581,1084,1723,3.92446,-13.1685
-133,-699,3.92871,13.2798,0.00150991,0.000992971,1.71923e-05,0.00151048,0.000992399,0.0332091,0.000886291,0.00902289,1091,1723,3.92874,-13.2798
-126,-699,3.93677,13.3728,0.0017164,0.000823296,0.000150898,0.00174121,0.000798489,0.162935,0.00100644,0.0114583,1098,1723,3.93671,-13.3728
-119,-699,3.92383,13.4524,0.00200014,0.000491259,0.000444431,0.00212132,0.000370086,0.266178,0.00130841,0.0162327,1105,1723,3.9238,-13.4524
-112,-699,3.91406,13.5258,0.00237867,-0.000101371,0.000752374,0.00258907,-0.00031177,0.272681,0.0018388,0.0110762,1112,1723,3.91403,-13.5257
-105,-699,3.93433,13.6407,0.00267178,-0.00059096,0.000997324,0.00295249,-0.000871663,0.274358,0.00231426,0.0119258,1119,1723,3.93434,-13.6407
-98,-699,3.96582,13.7266,0.00283781,-0.00123843,0.00120448,0.00316711,-0.00156773,0.266879,0.00278516,0.0138172,1126,1723,3.96579,-13.7266
-91,-699,3.97742,13.7723,0.00293322,-0.00164393,0.00142764,0.003342,-0.00205272,0.278873,0.00314415,0.0188375,1133,1723,3.97739,-13.7723
-84,-699,3.95923,13.8585,0.00296578,-0.00190721,0.00159814,0.00344314,-0.00238457,0.290263,0.00338308,0.0221907,1140,1723,3.95919,-13.8585
-77,-699,3.96423,13.9729,0.00301737,-0.00218672,0.00155722,0.00344774,-0.00261709,0.269643,0.00351247,0.0151206,1147,1723,3.96423,-13.9729
-70,-699,3.95557,14.0846,0.00288177,-0.00250576,0.00155697,0.00329936,-0.00292335,0.262039,0.00359487,0.0179609,1154,1723,3.95558,-14.0846
-63,-699,3.9613,14.1528,0.00248598,-0.00221789,0.000531877,0.00254537,-0.00227728,0.111202,0.00278579,0.0151393,1161,1723,3.9613,-14.1528
-56,-699,3.95386,14.1906,0.00214048,-0.00280233,-0.000259743,0.00215409,-0.00281595,-0.0523574,0.00287792,0.00955326,1168,1723,3.95381,-14.1905
-49,-699,3.97363,14.2457,0.00198646,-0.00298796,-0.000648774,0.00206968,-0.00307118,-0.127579,0.00298679,0.0205666,1175,1723,3.97359,-14.2457
-42,-699,4.01282,14.3573,0.00150265,-0.00343349,-0.000427147,0.00153934,-0.00347018,-0.0856858,0.00296299,0.0233164,1182,1723,4.01279,-14.3572
-35,-699,4.03418,14.4071,0.00105048,-0.00417801,-2.65657e-05,0.00105062,-0.00417815,-0.00508076,0.00319377,0.0204807,1189,1723,4.03415,-14.4071
-28,-699,4.05762,14.4401,0.00037375,-0.00517039,0.000182749,0.000379768,-0.00517641,0.032915,0.00358424,0.0163195,1196,1723,4.05767,-14.4401
-21,-699,4.03943,14.4463,-0.000197434,-0.00679831,0.000471738,-0.000163891,-0.00683185,0.0709852,0.00450093,0.0120171,1203,1723,4.03944,-14.4463
-14,-699,4.01917,14.5,-0.000400757,-0.00882308,0.00114435,-0.000248042,-0.00897579,0.132667,0.00590292,0.0110853,1210,1723,4.01913,-14.5
-7,-699,4.03711,14.5669,-0.000517902,-0.0108216,0.002056,-0.000122798,-0.0112167,0.189856,0.00743724,0.00841898,1217,1723,4.03706,-14.5669
0,-699,4.06616,14.6101,-0.000675344,-0.0129488,0.00293044,-1.15647e-05,-0.0136126,0.222753,0.00907122,0.00989074,1224,1723,4.06622,-14.6101
7,-699,4.07715,14.6372,-0.00108999,-0.0144717,0.0041958,0.000116773,-0.0156784,0.280053,0.0104914,0.0151381,1231,1723,4.07715,-14.6372
14,-699,4.1084,14.6841,-0.0012319,-0.0156617,0.00510976,0.000394264,-0.0172878,0.308112,0.0116589,0.0165956,1238,1723,4.10834,-14.6841
21,-699,4.12134,14.6975,-0.00128476,-0.0165571,0.00561306,0.000556286,-0.0183981,0.316936,0.012455,0.0151955,1245,1723,4.12137,-14.6975
28,-699,4.10657,14.6885,-0.000318898,-0.0165843,0.00574251,0.00150417,-0.0184073,0.307405,0.0128024,0.0145573,1252,1723,4.10655,-14.6885
35,-699,4.12927,14.7485,0.00249595,-0.016174,0.00572618,0.00411227,-0.0177903,0.275112,0.0134423,0.0126313,1259,1723,4.12925,-14.7485
42,-699,4.16846,14.7609,0.00622291,-0.0152195,0.00586267,0.00772117,-0.0167178,0.250203,0.014425,0.0120302,1266,1723,4.16851,-14.7609
49,-699,4.1626,14.7695,0.00938029,-0.0133436,0.00580564,0.0107776,-0.0147409,0.236193,0.0147922,0.0140757,1273,1723,4.16259,-14.7695
56,-699,4.17627,14.7981,0.0130187,-0.0115138,0.00492942,0.0139721,-0.0124672,0.191058,0.015273,0.0146903,1280,1723,4.17627,-14.7981
63,-699,4.22546,14.8053,0.0169232,-0.0097248,0.00415235,0.0175552,-0.0103568,0.151053,0.0162927,0.0121946,1287,1723,4.2255,-14.8053
70,-699,4.2511,14.808,0.0202974,-0.00871967,0.00419401,0.0208914,-0.0093137,0.140701,0.0178608,0.0103309,1294,1723,4.25115,-14.808
77,-699,4.20886,14.8116,0.0236843,-0.00721928,0.00385401,0.0241576,-0.00769267,0.122217,0.0191903,0.0108444,1301,1723,4.20891,-14.8117
84,-699,4.20044,14.7958,0.0264047,-0.00635071,0.00366579,0.02681,-0.00675595,0.110099,0.0204998,0.0138076,1308,1723,4.20042,-14.7958
91,-699,4.25818,14.7959,0.0275262,-0.00621145,0.00356102,0.027898,-0.00658323,0.104023,0.0211376,0.012582,1315,1723,4.25816,-14.7959
98,-699,4.28784,14.8098,0.0273568,-0.0069295,0.00351689,0.0277139,-0.00728652,0.10117,0.0213238,0.0109583,1322,1723,4.28783,-14.8098
105,-699,4.28833,14.8088,0.0265857,-0.00786679,0.00366996,0.0269723,-0.00825338,0.104953,0.0212732,0.0148754,1329,1723,4.28834,-14.8089
112,-699,4.28577,14.8195,0.024927,-0.00957032,0.00349593,0.0252777,-0.00992103,0.0999848,0.0209568,0.0193465,1336,1723,4.28573,-14.8195
119,-699,4.27539,14.7993,0.0224749,-0.0114848,0.00363621,0.0228599,-0.0118698,0.105481,0.0203831,0.0147886,1343,1723,4.27544,-14.7993
126,-699,4.30872,14.7902,0.0196707,-0.0130218,0.00381297,0.0201095,-0.0134607,0.114582,0.019508,0.0159796,1350,1723,4.3087,-14.7901
133,-699,4.34399,14.7596,0.0165316,-0.0140928,0.00391482,0.0170241,-0.0145853,0.125153,0.0182678,0.0144659,1357,1723,4.34404,-14.7596
140,-699,4.35498,14.7297,0.0118934,-0.0142761,0.00355474,0.0123676,-0.0147504,0.132634,0.0156767,0.0160762,1364,1723,4.35498,-14.7298
147,-699,4.3479,14.7296,0.00795687,-0.0140092,0.0027333,0.00829187,-0.0143442,0.121955,0.0132238,0.0140625,1371,1723,4.34786,-14.7296
154,-699,4.34229,14.7097,0.00699502,-0.0135497,0.00173337,0.00714024,-0.0136949,0.0835834,0.012226,0.0140896,1378,1723,4.34232,-14.7097
161,-699,4.36426,14.6699,0.00596264,-0.0110659,0.00200999,0.00619668,-0.0113,0.115914,0.0102439,0.00982765,1385,1723,4.36428,-14.6699
168,-699,4.38794,14.6246,0.00490707,-0.00863923,0.00165822,0.0051071,-0.00883926,0.12005,0.00814748,0.0112986,1392,1723,4.38791,-14.6247
175,-699,4.4071,14.5782,0.00360052,-0.00441862,-0.000770599,0.0036739,-0.004492,-0.0949374,0.00472246,0.0135054,1399,1723,4.40714,-14.5782
182,-699,4.42493,14.5394,0.00266867,-0.00359634,-0.000216349,0.00267613,-0.0036038,-0.0344782,0.00363888,0.0135262,1406,1723,4.42493,-14.5395
189,-699,4.4165,14.5,0.0010133,-0.00290168,0.000602797,0.00110401,-0.00299239,0.149365,0.00244739,0.0165706,1413,1723,4.4165,-14.5
196,-699,4.42468,14.4493,0.000205039,-0.00188059,0.000973981,0.000589144,-0.00226469,0.375641,0.00173975,0.0168948,1420,1723,4.42469,-14.4493
203,-699,4.4458,14.3838,0.000690815,-0.000719808,0.00113306,0.00132016,-0.00134915,0.507005,0.00154115,0.0137117,1427,1723,4.44575,-14.3838
210,-699,4.45471,14.3448,0.000377276,-0.00106156,0.000968314,0.000864172,-0.00154846,0.465908,0.00141149,0.0134669,1434,1723,4.45466,-14.3448
217,-699,4.46094,14.2928,0.000137526,-0.00134175,0.00074299,0.000446268,-0.00165049,0.39383,0.00127538,0.014085,1441,1723,4.46097,-14.2928
224,-699,4.45264,14.2334,9.98916e-05,-0.00148613,0.00070898,0.000370609,-0.00175685,0.364755,0.00131233,0.0156176,1448,1723,4.45258,-14.2334
231,-699,4.47729,14.1719,0.000222441,-0.00147615,0.000511106,0.000364373,-0.00161808,0.270871,0.00121848,0.0119335,1455,1723,4.47729,-14.1719
238,-699,4.47083,14.093,0.000397862,-0.00140203,0.000283727,0.000441528,-0.0014457,0.152704,0.00113985,0.0106085,1462,1723,4.47084,-14.0931
245,-699,4.46704,14.0127,0.000555997,-0.00134673,8.54717e-05,0.000559829,-0.00135057,0.0448003,0.00113402,0.0120846,1469,1723,4.46709,-14.0127
252,-699,4.46509,13.9482,0.00066228,-0.0011927,-0.000105162,0.000668223,-0.00119864,-0.0564507,0.00109224,0.00960365,1476,1723,4.4651,-13.9482
259,-699,4.45715,13.8857,0.000785849,-0.000902819,-0.000314019,0.000842352,-0.000959323,-0.178031,0.00104093,0.0100076,1483,1723,4.4572,-13.8857
266,-699,4.4613,13.7965,0.000924955,-0.000632025,-0.000530939,0.00108877,-0.000795842,-0.299275,0.00109245,0.0125954,1490,1723,4.4613,-13.7966
273,-699,4.47632,13.6863,0.00101952,-0.000122283,-0.000782395,0.00141716,-0.000519923,-0.470213,0.00115767,0.0114121,1497,1723,4.47627,-13.6863
280,-699,4.48328,13.5803,0.000994001,0.000499954,-0.000962497,0.00174067,-0.000246713,-0.659785,0.00125082,0.0123564,1504,1723,4.48331,-13.5803
287,-699,4.48108,13.4789,0.000916222,0.000796597,-0.000964293,0.00182256,-0.000109737,-0.754424,0.00125322,0.0109883,1511,1723,4.48109,-13.4789
294,-699,4.48303,13.395,0.000894702,0.00125615,-0.00104875,0.00213964,1.12199e-05,-0.870723,0.0014227,0.0106959,1518,1723,4.48306,-13.3951
301,-699,4.47546,13.3243,0.000677289,0.00171394,-0.00101726,0.00233732,5.39128e-05,-1.02102,0.00154056,0.0121778,1525,1723,4.47541,-13.3243
308,-699,4.46692,13.2351,0.0008421,0.00161644,-8.45729e-05,0.00162557,0.00083297,-1.46327,0.000938622,0.0164254,1532,1723,4.46698,-13.2351
315,-699,4.48291,13.1169,0.00148232,0.000902524,0.000894118,0.00213236,0.000252481,0.628631,0.00134534,0.0187796,1539,1723,4.48293,-13.117
322,-699,4.44409,13.0106,0.00220453,0.000690074,0.00202019,0.00360474,-0.000710142,0.606088,0.00267152,0.0189112,1546,1723,4.4441,-13.0107
329,-699,4.41602,12.8926,0.0029283,-0.00027621,0.00327577,0.00497267,-0.00232058,0.557944,0.00430256,0.0138267,1553,1723,4.41603,-12.8926
336,-699,4.45215,12.7891,0.0038479,-0.00118474,0.00468004,0.00664521,-0.00398205,0.538734,0.00619954,0.0122106,1560,1723,4.45214,-12.7891
343,-699,4.47156,12.6606,0.00503241,-0.00233168,0.0062555,0.00860906,-0.00590834,0.519397,0.00842983,0.0162055,1567,1723,4.47157,-12.6607
350,-699,4.47717,12.5396,0.00641315,-0.00366589,0.00785468,0.010706,-0.00795872,0.500176,0.0108149,0.0251276,1574,1723,4.47718,-12.5396
357,-699,4.44849,12.558,0.00789381,-0.00491109,0.00925218,0.0127428,-0.00976005,0.482732,0.01303,0.0363563,1581,1723,4.44847,-12.558
364,-699,4.56494,12.5878,0.00921762,-0.00575138,0.0101708,0.014361,-0.0108947,0.468196,0.0146271,0.039754,1588,1723,4.56499,-12.5877
371,-699,4.79236,12.5009,0,0,0,0,0,0,0,-1,1595,1723,4.79233,-12.5009
378,-699,4.95337,12.236,0,0,0,0,0,0,0,-1,1602,1723,4.95334,-12.236
385,-699,4.56274,11.676,0,0,0,0,0,0,0,-1,1609,1723,4.5627,-11.676
392,-699,4.98376,12.5409,0,0,0,0,0,0,0,-1,1616,1723,4.98372,-12.5409
399,-699,3.91516,9.81726,0,0,0,0,0,0,0,-1,1623,1723,3.9152,-9.81721
406,-699,5.50757,21.6672,0,0,0,0,0,0,0,-1,1630,1723,5.50755,-21.6672
413,-699,4.92773,3.5918,0,0,0,0,0,0,0,-1,1637,1723,4.92777,-3.59182
420,-699,2.15076,7.65527,0,0,0,0,0,0,0,-1,1644,1723,2.15079,-7.65522
427,-699,3.36328,8.2428,0,0,0,0,0,0,0,-1,1651,1723,3.36332,-8.24283
434,-699,4.66455,8.90222,0,0,0,0,0,0,0,-1,1658,1723,4.66456,-8.90223
441,-699,0,0,0,0,0,0,0,0,0,-1,1665,1723,0,0
448,-699,0,0,0,0,0,0,0,0,0,-1,1672,1723,0,0
455,-699,0,0,0,0,0,0,0,0,0,-1,1679,1723,0,0
462,-699,0,0,0,0,0,0,0,0,0,-1,1686,1723,0,0
469,-699,0,0,0,0,0,0,0,0,0,-1,1693,1723,0,0
476,-699,0,0,0,0,0,0,0,0,0,-1,1700,1723,0,0
483,-699,0,0,0,0,0,0,0,0,0,-1,1707,1723,0,0
490,-699,0,0,0,0,0,0,0,0,0,-1,1714,1723,0,0
497,-699,0,0,0,0,0,0,0,0,0,-1,1721,1723,0,0
504,-699,0,0,0,0,0,0,0,0,0,-1,1728,1723,0,0
511,-699,0,0,0,0,0,0,0,0,0,-1,1735,1723,0,0
518,-699,0,0,0,0,0,0,0,0,0,-1,1742,1723,0,0
525,-699,0,0,0,0,0,0,0,0,0,-1,1749,1723,0,0
532,-699,0,0,0,0,0,0,0,0,0,-1,1756,1723,0,0
539,-699,0,0,0,0,0,0,0,0,0,-1,1763,1723,0,0
546,-699,0,0,0,0,0,0,0,0,0,-1,1770,1723,0,0
553,-699,0,0,0,0,0,0,0,0,0,-1,1777,1723,0,0
560,-699,0,0,0,0,0,0,0,0,0,-1,1784,1723,0,0
567,-699,0,0,0,0,0,0,0,0,0,-1,1791,1723,0,0
574,-699,0,0,0,0,0,0,0,0,0,-1,1798,1723,0,0
581,-699,0,0,0,0,0,0,0,0,0,-1,1805,1723,0,0
588,-699,0,0,0,0,0,0,0,0,0,-1,1812,1723,0,0
595,-699,0,0,0,0,0,0,0,0,0,-1,1819,1723,0,0
602,-699,0,0,0,0,0,0,0,0,0,-1,1826,1723,0,0
609,-699,0,0,0,0,0,0,0,0,0,-1,1833,1723,0,0
616,-699,0,0,0,0,0,0,0,0,0,-1,1840,1723,0,0
623,-699,0,0,0,0,0,0,0,0,0,-1,1847,1723,0,0
630,-699,0,0,0,0,0,0,0,0,0,-1,1854,1723,0,0
637,-699,0,0,0,0,0,0,0,0,0,-1,1861,1723,0,0
644,-699,0,0,0,0,0,0,0,0,0,-1,1868,1723,0,0
651,-699,0,0,0,0,0,0,0,0,0,-1,1875,1723,0,0
658,-699,0,0,0,0,0,0,0,0,0,-1,1882,1723,0,0
665,-699,0,0,0,0,0,0,0,0,0,-1,1889,1723,0,0
672,-699,0,0,0,0,0,0,0,0,0,-1,1896,1723,0,0
679,-699,0,0,0,0,0,0,0,0,0,-1,1903,1723,0,0
686,-699,0,0,0,0,0,0,0,0,0,-1,1910,1723,0,0
693,-699,0,0,0,0,0,0,0,0,0,-1,1917,1723,0,0
700,-699,0,0,0,0,0,0,0,0,0,-1,1924,1723,0,0
707,-699,0,0,0,0,0,0,0,0,0,-1,1931,1723,0,0
714,-699,0,0,0,0,0,0,0,0,0,-1,1938,1723,0,0
721,-699,0,0,0,0,0,0,0,0,0,-1,1945,1723,0,0
728,-699,0,0,0,0,0,0,0,0,0,-1,1952,1723,0,0
735,-699,0,0,0,0,0,0,0,0,0,-1,1959,1723,0,0
742,-699,0,0,0,0,0,0,0,0,0,-1,1966,1723,0,0
749,-699,0,0,0,0,0,0,0,0,0,-1,1973,1723,0,0
756,-699,0,0,0,0,0,0,0,0,0,-1,1980,1723,0,0
763,-699,0,0,0,0,0,0,0,0,0,-1,1987,1723,0,0
770,-699,0,0,0,0,0,0,0,0,0,-1,1994,1723,0,0
777,-699,0,0,0,0,0,0,0,0,0,-1,2001,1723,0,0
784,-699,0,0,0,0,0,0,0,0,0,-1,2008,1723,0,0
791,-699,0,0,0,0,0,0,0,0,0,-1,2015,1723,0,0
798,-699,0,0,0,0,0,0,0,0,0,-1,2022,1723,0,0
805,-699,0,0,0,0,0,0,0,0,0,-1,2029,1723,0,0
812,-699,0,0,0,0,0,0,0,0,0,-1,2036,1723,0,0
-700,-706,0,0,0,0,0,0,0,0,0,-1,524,1730,0,0
-693,-706,0,0,0,0,0,0,0,0,0,-1,531,1730,0,0
-686,-706,0,0,0,0,0,0,0,0,0,-1,538,1730,0,0
-679,-706,0,0,0,0,0,0,0,0,0,-1,545,1730,0,0
-672,-706,0,0,0,0,0,0,0,0,0,-1,552,1730,0,0
-665,-706,0,0,0,0,0,0,0,0,0,-1,559,1730,0,0
-658,-706,0,0,0,0,0,0,0,0,0,-1,566,1730,0,0
-651,-706,0,0,0,0,0,0,0,0,0,-1,573,1730,0,0
-644,-706,0,0,0,0,0,0,0,0,0,-1,580,1730,0,0
-637,-706,0,0,0,0,0,0,0,0,0,-1,587,1730,0,0
-630,-706,0,0,0,0,0,0,0,0,0,-1,594,1730,0,0
-623,-706,0,0,0,0,0,0,0,0,0,-1,601,1730,0,0
-616,-706,0,0,0,0,0,0,0,0,0,-1,608,1730,0,0
-609,-706,0,0,0,0,0,0,0,0,0,-1,615,1730,0,0
-602,-706,0,0,0,0,0,0,0,0,0,-1,622,1730,0,0
-595,-706,0,0,0,0,0,0,0,0,0,-1,629,1730,0,0
-588,-706,0,0,0,0,0,0,0,0,0,-1,636,1730,0,0
-581,-706,0,0,0,0,0,0,0,0,0,-1,643,1730,0,0
-574,-706,0,0,0,0,0,0,0,0,0,-1,650,1730,0,0
-567,-706,0,0,0,0,0,0,0,0,0,-1,657,1730,0,0
-560,-706,0,0,0,0,0,0,0,0,0,-1,664,1730,0,0
-553,-706,0,0,0,0,0,0,0,0,0,-1,671,1730,0,0
-546,-706,0,0,0,0,0,0,0,0,0,-1,678,1730,0,0
-539,-706,0,0,0,0,0,0,0,0,0,-1,685,1730,0,0
-532,-706,0,0,0,0,0,0,0,0,0,-1,692,1730,0,0
-525,-706,0,0,0,0,0,0,0,0,0,-1,699,1730,0,0
-518,-706,0,0,0,0,0,0,0,0,0,-1,706,1730,0,0
-511,-706,0,0,0,0,0,0,0,0,0,-1,713,1730,0,0
-504,-706,0,0,0,0,0,0,0,0,0,-1,720,1730,0,0
-497,-706,0,0,0,0,0,0,0,0,0,-1,727,1730,0,0
-490,-706,0,0,0,0,0,0,0,0,0,-1,734,1730,0,0
-483,-706,0,0,0,0,0,0,0,0,0,-1,741,1730,0,0
-476,-706,0,0,0,0,0,0,0,0,0,-1,748,1730,0,0
-469,-706,0,0,0,0,0,0,0,0,0,-1,755,1730,0,0
-462,-706,0,0,0,0,0,0,0,0,0,-1,762,1730,0,0
-455,-706,0,0,0,0,0,0,0,0,0,-1,769,1730,0,0
-448,-706,0,0,0,0,0,0,0,0,0,-1,776,1730,0,0
-441,-706,0,0,0,0,0,0,0,0,0,-1,783,1730,0,0
-434,-706,0,0,0,0,0,0,0,0,0,-1,790,1730,0,0
-427,-706,0,0,0,0,0,0,0,0,0,-1,797,1730,0,0
-420,-706,0,0,0,0,0,0,0,0,0,-1,804,1730,0,0
-413,-706,0,0,0,0,0,0,0,0,0,-1,811,1730,0,0
-406,-706,0,0,0,0,0,0,0,0,0,-1,818,1730,0,0
-399,-706,0,0,0,0,0,0,0,0,0,-1,825,1730,0,0
-392,-706,0,0,0,0,0,0,0,0,0,-1,832,1730,0,0
-385,-706,0,0,0,0,0,0,0,0,0,-1,839,1730,0,0
-378,-706,0,0,0,0,0,0,0,0,0,-1,846,1730,0,0
-371,-706,0,0,0,0,0,0,0,0,0,-1,853,1730,0,0
-364,-706,0,0,0,0,0,0,0,0,0,-1,860,1730,0,0
-357,-706,0,0,0,0,0,0,0,0,0,-1,867,1730,0,0
-350,-706,0,0,0,0,0,0,0,0,0,-1,874,1730,0,0
-343,-706,0,0,0,0,0,0,0,0,0,-1,881,1730,0,0
-336,-706,0,0,0,0,0,0,0,0,0,-1,888,1730,0,0
-329,-706,0,0,0,0,0,0,0,0,0,-1,895,1730,0,0
-322,-706,0,0,0,0,0,0,0,0,0,-1,902,1730,0,0
-315,-706,0,0,0,0,0,0,0,0,0,-1,909,1730,0,0
-308,-706,5.08191,14.6245,0,0,0,0,0,0,0,-1,916,1730,5.08188,-14.6245
-301,-706,5.28516,13.4028,0,0,0,0,0,0,0,-1,923,1730,5.28516,-13.4029
-294,-706,5.65625,12.3273,0,0,0,0,0,0,0,-1,930,1730,5.65622,-12.3272
-287,-706,5.60236,10.157,0,0,0,0,0,0,0,-1,937,1730,5.60239,-10.157
-280,-706,4.75928,10.6311,-0.0255372,-0.00622287,0.00808511,-0.0032852,-0.0284748,1.22228,0.0179884,0.0455769,944,1730,4.75928,-10.631
-273,-706,4.21344,11.1731,-0.0201922,-0.00410338,0.00736652,-0.00124008,-0.0230555,1.20008,0.0149741,0.0446098,951,1730,4.21345,-11.1731
-266,-706,4.05865,11.5537,0,0,0,0,0,0,0,-1,958,1730,4.05868,-11.5537
-259,-706,3.3598,9.72961,0,0,0,0,0,0,0,-1,965,1730,3.35979,-9.72962
-252,-706,3.05963,10.0499,0,0,0,0,0,0,0,-1,972,1730,3.05962,-10.05
-245,-706,3.63794,9.28613,0,0,0,0,0,0,0,-1,979,1730,3.63792,-9.28608
-238,-706,3.37665,11.6481,0,0,0,0,0,0,0,-1,986,1730,3.37668,-11.648
-231,-706,4.12622,11.7556,-0.0174731,-0.00772449,0.00361225,-0.0065319,-0.0186657,1.25191,0.0109372,0.0430935,993,1730,4.12621,-11.7556
-224,-706,4.33044,11.8511,-0.0172826,-0.00879478,0.00347796,-0.0075517,-0.0185256,1.22753,0.0107564,0.0425451,1000,1730,4.33045,-11.8511
-217,-706,4.14087,11.8741,-0.0173465,-0.00937389,0.00345787,-0.00808312,-0.0186372,1.21353,0.0107917,0.0402599,1007,1730,4.14086,-11.8742
-210,-706,4.19055,11.8418,-0.017178,-0.00917149,0.00381156,-0.00764717,-0.0187023,1.19036,0.0108574,0.03907,1014,1730,4.19056,-11.8418
-203,-706,4.1394,12.0634,-0.0157727,-0.00902212,0.00425697,-0.00696471,-0.0178301,1.12059,0.010376,0.0291563,1021,1730,4.13946,-12.0634
-196,-706,4.09143,12.2216,-0.0136705,-0.00822891,0.00445143,-0.00573261,-0.0161668,1.05971,0.00946454,0.0212036,1028,1730,4.09137,-12.2216
-189,-706,4.05872,12.3538,-0.0111389,-0.00723629,0.0041427,-0.00460835,-0.0137669,1.0055,0.00809173,0.0185476,1035,1730,4.05868,-12.3538
-182,-706,4.03577,12.5016,-0.00860704,-0.00689234,0.00351302,-0.00413357,-0.0113658,0.905083,0.00664285,0.0138806,1042,1730,4.03574,-12.5016
-175,-706,4.03491,12.6163,-0.0073648,-0.00456448,0.00267796,-0.00294273,-0.00898654,1.02628,0.00529035,0.0143445,1049,1730,4.03497,-12.6163
-168,-706,4.06897,12.7418,-0.00520821,-0.00277743,0.0021028,-0.00156404,-0.00642159,1.04744,0.00386664,0.0151667,1056,1730,4.06892,-12.7418
-161,-706,4.05994,12.8689,-0.00227622,-0.000863693,0.00166897,0.000242301,-0.00338221,0.985559,0.00233976,0.013173,1063,1730,4.05991,-12.8689
-154,-706,4.03284,12.9592,5.86429e-05,0.00063169,0.00108468,0.00146705,-0.000776721,0.914526,0.00131572,0.0129186,1070,1730,4.0328,-12.9592
-147,-706,4.01758,13.0474,0.000694258,0.00101318,0.000242168,0.00114368,0.000563766,1.07655,0.000660323,0.0119228,1077,1730,4.01759,-13.0474
-140,-706,4.02307,13.1625,0.00053648,0.00126879,-0.000179432,0.0013104,0.000494878,-1.34297,0.000764069,0.0104823,1084,1730,4.02313,-13.1624
-133,-706,4.03479,13.2611,0.000436623,0.00126233,-0.000343963,0.00138684,0.000312114,-1.22349,0.000840077,0.00859647,1091,1730,4.03476,-13.2612
-126,-706,4.04529,13.3702,0.000422138,0.00111366,-0.000273057,0.00120848,0.000327319,-1.23657,0.000721728,0.013838,1098,1730,4.04529,-13.3702
-119,-706,4.0354,13.4696,0.000523633,0.000795216,7.73494e-06,0.000795436,0.000523412,1.54235,0.000466828,0.0183243,1105,1730,4.03541,-13.4696
-112,-706,4.00696,13.5563,0.000816817,0.000276738,0.000314777,0.000961514,0.000132041,0.430874,0.000601843,0.0128446,1112,1730,4.00698,-13.5563
-105,-706,4.02466,13.656,0.00108498,-0.000109223,0.000532509,0.00128794,-0.000312182,0.36414,0.000979412,0.00965011,1119,1730,4.0246,-13.6561
-98,-706,4.04578,13.7419,0.00122222,-0.000617887,0.000677899,0.00144499,-0.000840657,0.317501,0.00133491,0.011474,1126,1730,4.04575,-13.742
-91,-706,4.05591,13.8199,0.00132194,-0.00082661,0.000861578,0.00162476,-0.00112943,0.337983,0.00159868,0.0141579,1133,1730,4.05586,-13.82
-84,-706,4.03162,13.8998,0.00139186,-0.0008705,0.00104494,0.00180064,-0.00127927,0.372893,0.00178666,0.0159833,1140,1730,4.03164,-13.8998
-77,-706,4.03552,13.9847,0.00149612,-0.000922709,0.00109956,0.00192124,-0.00134783,0.368928,0.00189705,0.0147458,1147,1730,4.03558,-13.9847
-70,-706,4.02039,14.098,0.00154758,-0.00110941,0.00108634,0.00193519,-0.00149702,0.342727,0.00198697,0.0178913,1154,1730,4.02036,-14.0981
-63,-706,4.00867,14.1606,0.00155153,-0.000987787,0.000535163,0.00165971,-0.00109596,0.199451,0.00160205,0.0140005,1161,1730,4.00872,-14.1607
-56,-706,4.03333,14.2042,0.00162293,-0.00122035,6.59528e-05,0.00162446,-0.00122188,0.0231794,0.0016488,0.0125137,1168,1730,4.03337,-14.2042
-49,-706,4.02893,14.27,0.00177024,-0.00143081,-0.00017178,0.00177943,-0.00144,-0.0534589,0.00186218,0.0131293,1175,1730,4.02896,-14.27
-42,-706,4.05286,14.325,0.00168196,-0.00178579,-2.2853e-05,0.00168211,-0.00178594,-0.00658977,0.00200258,0.0176894,1182,1730,4.0528,-14.325
-35,-706,4.06091,14.3645,0.00161006,-0.00240361,0.000280131,0.00162951,-0.00242307,0.0693461,0.00235466,0.0158731,1189,1730,4.06094,-14.3645
-28,-706,4.07397,14.4277,0.00135092,-0.00317935,0.000527714,0.00141158,-0.00324001,0.114445,0.00275388,0.00974627,1196,1730,4.07398,-14.4277
-21,-706,4.07556,14.4639,0.00103739,-0.00435748,0.000858591,0.00117074,-0.00449083,0.15408,0.00345097,0.0101642,1203,1730,4.07559,-14.4638
-14,-706,4.07581,14.506,0.000944231,-0.00584854,0.0014202,0.0012292,-0.00613351,0.198028,0.00455438,0.010126,1210,1730,4.07581,-14.506
-7,-706,4.08447,14.5669,0.000835641,-0.00733569,0.00215319,0.0013683,-0.00786834,0.242511,0.00575613,0.00823568,1217,1730,4.08446,-14.5669
0,-706,4.10254,14.6222,0.000629912,-0.00896781,0.00288303,0.00142935,-0.00976724,0.270494,0.0070365,0.0112972,1224,1730,4.10258,-14.6222
7,-706,4.13,14.6669,0.000195464,-0.0100766,0.00396528,0.00154806,-0.0114292,0.328733,0.00818443,0.0132246,1231,1730,4.12997,-14.6668
14,-706,4.13489,14.6951,-4.62943e-05,-0.0109172,0.00477505,0.00175326,-0.0127167,0.360406,0.00911859,0.0137275,1238,1730,4.13495,-14.6951
21,-706,4.14233,14.697,-0.00020668,-0.0114956,0.00520798,0.0018289,-0.0135311,0.372601,0.00968811,0.010999,1245,1730,4.14232,-14.697
28,-706,4.14355,14.7189,7.19201e-05,-0.0113409,0.00552507,0.00230841,-0.0135773,0.384628,0.00991105,0.0111763,1252,1730,4.14353,-14.7188
35,-706,4.15125,14.7664,0.0016926,-0.0110521,0.00580199,0.00393824,-0.0132978,0.369291,0.0104288,0.0132183,1259,1730,4.15129,-14.7664
42,-706,4.16516,14.788,0.00403272,-0.0102138,0.0061049,0.00629085,-0.0124719,0.354283,0.0110269,0.0124822,1266,1730,4.16516,-14.788
49,-706,4.16064,14.7869,0.00592116,-0.00873743,0.00627217,0.00823856,-0.0110548,0.353917,0.0111785,0.0141409,1273,1730,4.16067,-14.7869
56,-706,4.18677,14.8042,0.00816918,-0.00728357,0.00579765,0.0101025,-0.00921688,0.321869,0.011158,0.0131343,1280,1730,4.18672,-14.8042
63,-706,4.21741,14.8179,0.0106474,-0.00591524,0.0053848,0.0122442,-0.00751199,0.288269,0.0115148,0.0115439,1287,1730,4.21744,-14.8179
70,-706,4.22058,14.8121,0.0125722,-0.00492621,0.00530042,0.0140525,-0.00640652,0.272343,0.0120839,0.0120145,1294,1730,4.22059,-14.8121
77,-706,4.21033,14.814,0.0145972,-0.00373439,0.00500745,0.0158759,-0.00501303,0.250006,0.0125921,0.0110227,1301,1730,4.21035,-14.814
84,-706,4.20166,14.8162,0.0161285,-0.00320588,0.00488556,0.0172929,-0.00437028,0.233969,0.0132282,0.0096273,1308,1730,4.20168,-14.8161
91,-706,4.24731,14.8409,0.0164473,-0.00324659,0.00483817,0.0175717,-0.00437098,0.228347,0.013411,0.0106775,1315,1730,4.24729,-14.8409
98,-706,4.25854,14.8568,0.0159092,-0.00390512,0.00468958,0.0169631,-0.00495898,0.221051,0.0132742,0.0140377,1322,1730,4.25853,-14.8569
105,-706,4.25305,14.8535,0.0149902,-0.00466621,0.00466394,0.0160407,-0.0057167,0.221539,0.0130245,0.0154642,1329,1730,4.25309,-14.8535
112,-706,4.23669,14.8367,0.0134708,-0.00606598,0.00434334,0.0143928,-0.00698805,0.209191,0.0125886,0.0145583,1336,1730,4.2367,-14.8367
119,-706,4.2677,14.8319,0.0113117,-0.00766113,0.00433914,0.012257,-0.00860641,0.214497,0.0121068,0.0122457,1343,1730,4.26765,-14.8319
126,-706,4.30334,14.8125,0.00899435,-0.00900232,0.00448516,0.0100502,-0.0100582,0.231201,0.0116096,0.01361,1350,1730,4.30338,-14.8125
133,-706,4.31274,14.7759,0.00666059,-0.010132,0.00441071,0.0077486,-0.0112201,0.241847,0.0110125,0.0124423,1357,1730,4.31279,-14.7759
140,-706,4.32446,14.7365,0.00337996,-0.0102163,0.00399553,0.00446718,-0.0113036,0.265677,0.00938607,0.0123726,1364,1730,4.32451,-14.7365
147,-706,4.35437,14.7015,0.000712136,-0.0101962,0.00347369,0.00172438,-0.0112084,0.283551,0.00810844,0.0213385,1371,1730,4.35435,-14.7015
154,-706,4.36633,14.687,0.000209696,-0.00985134,0.00279149,0.000932311,-0.010574,0.253303,0.00737973,0.021128,1378,1730,4.36628,-14.687
161,-706,4.34253,14.6705,1.44112e-06,-0.00809678,0.00280452,0.000877837,-0.00897318,0.30288,0.00629517,0.0106464,1385,1730,4.34254,-14.6706
168,-706,4.33289,14.6328,-0.000105617,-0.00629203,0.00238042,0.000704293,-0.00710193,0.327952,0.004986,0.0107799,1392,1730,4.33285,-14.6328
175,-706,4.34558,14.5942,0.000316205,-0.00412381,0.00128864,0.000663109,-0.00447072,0.262967,0.00322432,0.011313,1399,1730,4.34563,-14.5943
182,-706,4.35559,14.5464,0.000298539,-0.00312573,0.00108182,0.000611679,-0.00343887,0.281756,0.00252133,0.0112504,1406,1730,4.3556,-14.5463
189,-706,4.35962,14.494,0.000133497,-0.00197343,0.000758054,0.000377889,-0.00221783,0.311874,0.00161928,0.0131727,1413,1730,4.35964,-14.494
196,-706,4.37622,14.4463,0.000267187,-0.000986851,0.000403315,0.000385699,-0.00110536,0.285799,0.000893663,0.0121123,1420,1730,4.37624,-14.4463
203,-706,4.38135,14.3845,0.000583112,-0.00015967,0.000393235,0.000752614,-0.000329172,0.40698,0.00064032,0.0134022,1427,1730,4.38132,-14.3846
210,-706,4.37244,14.3278,0.000413246,-0.00033032,0.000200004,0.000463629,-0.000380703,0.246776,0.000488259,0.0126531,1434,1730,4.37244,-14.3278
217,-706,4.37244,14.2766,0.000301764,-0.000513101,-4.24362e-05,0.000303968,-0.000515305,-0.0518905,0.000478225,0.0138442,1441,1730,4.37248,-14.2767
224,-706,4.34717,14.2324,0.000337657,-0.000603675,-0.000175811,0.000369421,-0.000635439,-0.178743,0.000586894,0.0184403,1448,1730,4.34712,-14.2324
231,-706,4.37683,14.1584,0.000413626,-0.00062627,-0.000359653,0.000525894,-0.000738538,-0.30257,0.000733453,0.01314,1455,1730,4.37682,-14.1584
238,-706,4.38501,14.0955,0.000537695,-0.000579268,-0.000556836,0.000767863,-0.000809436,-0.391962,0.00091076,0.00867344,1462,1730,4.38501,-14.0955
245,-706,4.38623,14.0211,0.000658962,-0.000499114,-0.000743783,0.00102253,-0.000862677,-0.45465,0.00108973,0.0108342,1469,1730,4.38626,-14.0212
252,-706,4.38708,13.9408,0.000736076,-0.00033584,-0.000918145,0.00126325,-0.00086301,-0.521209,0.00123482,0.0104254,1476,1730,4.38707,-13.9407
259,-706,4.38501,13.8763,0.000870965,-5.61385e-06,-0.00109164,0.00160902,-0.000743667,-0.594501,0.00138861,0.0120538,1483,1730,4.38502,-13.8763
266,-706,4.38342,13.8148,0.00104437,0.000334879,-0.00130787,0.00204476,-0.000665506,-0.652965,0.00163091,0.012997,1490,1730,4.38347,-13.8148
273,-706,4.39343,13.7053,0.00118406,0.00089252,-0.00156925,0.0026143,-0.000537714,-0.739085,0.00194701,0.0117675,1497,1730,4.39339,-13.7053
280,-706,4.38477,13.5844,0.001188,0.00152616,-0.00168738,0.00305291,-0.000338753,-0.835333,0.00215707,0.0101491,1504,1730,4.38472,-13.5843
287,-706,4.35669,13.4813,0.00114034,0.0017944,-0.00159431,0.00309487,-0.000160133,-0.886558,0.00211864,0.011005,1511,1730,4.35668,-13.4814
294,-706,4.37732,13.4027,0.00117176,0.00232087,-0.00166183,0.00350467,-1.20365e-05,-0.951835,0.00234047,0.0104252,1518,1730,4.37731,-13.4028
301,-706,4.38098,13.3247,0.000948113,0.00282837,-0.00156898,0.00371732,5.91637e-05,-1.05531,0.00245873,0.00987843,1525,1730,4.38099,-13.3247
308,-706,4.40063,13.2255,0.00124064,0.00260532,-0.000261599,0.00265374,0.00119221,-1.38775,0.00153477,0.0116311,1532,1730,4.40058,-13.2255
315,-706,4.44373,13.1349,0.0021382,0.00166593,0.00106823,0.00299609,0.000808046,0.67662,0.00178991,0.0182278,1539,1730,4.4437,-13.1348
322,-706,4.42407,13.0094,0.00314125,0.00136929,0.0026252,0.00502594,-0.000515403,0.622654,0.00353497,0.0186258,1546,1730,4.42404,-13.0094
329,-706,4.36462,12.8885,0.00416779,1.84668e-05,0.00445496,0.00700749,-0.00282123,0.567483,0.00584366,0.0146859,1553,1730,4.36458,-12.8886
336,-706,4.36694,12.7875,0.00551757,-0.0013644,0.00651956,0.00944849,-0.00529532,0.54258,0.00862419,0.020558,1560,1730,4.36692,-12.7875
343,-706,4.38342,12.627,0.00722076,-0.00306602,0.00887597,0.0123359,-0.00818115,0.522803,0.0119262,0.0298909,1567,1730,4.38338,-12.6269
350,-706,4.40649,12.4557,0.00921062,-0.00498911,0.0113132,0.0154673,-0.0112458,0.505174,0.0154868,0.0371825,1574,1730,4.40647,-12.4556
357,-706,3.98071,12.7521,0.0113873,-0.00679943,0.0135331,0.0185984,-0.0140105,0.489578,0.0188887,0.0438118,1581,1730,3.98076,-12.7521
364,-706,4.32703,13.0535,0.0134232,-0.0083034,0.0152456,0.0212799,-0.0161601,0.475847,0.0216833,0.04726,1588,1730,4.32704,-13.0535
371,-706,4.53491,12.9889,0.015112,-0.00843947,0.015915,0.0231342,-0.0164616,0.46689,0.0229686,0.0482484,1595,1730,4.53486,-12.9889
378,-706,4.93066,12.5564,0,0,0,0,0,0,0,-1,1602,1730,4.93062,-12.5564
385,-706,4.21216,12.7593,0,0,0,0,0,0,0,-1,1609,1730,4.21221,-12.7592
392,-706,3.42236,11.9617,0,0,0,0,0,0,0,-1,1616,1730,3.42241,-11.9617
399,-706,3.21667,13.4043,0,0,0,0,0,0,0,-1,1623,1730,3.21671,-13.4043
406,-706,3.80188,18.3816,0,0,0,0,0,0,0,-1,1630,1730,3.80184,-18.3815
413,-706,4.23645,20.028,0,0,0,0,0,0,0,-1,1637,1730,4.23649,-20.0279
420,-706,5.7926,4.15125,0,0,0,0,0,0,0,-1,1644,1730,5.79255,-4.15128
427,-706,0,0,0,0,0,0,0,0,0,-1,1651,1730,0,0
434,-706,0,0,0,0,0,0,0,0,0,-1,1658,1730,0,0
441,-706,0,0,0,0,0,0,0,0,0,-1,1665,1730,0,0
448,-706,0,0,0,0,0,0,0,0,0,-1,1672,1730,0,0
455,-706,0,0,0,0,0,0,0,0,0,-1,1679,1730,0,0
462,-706,0,0,0,0,0,0,0,0,0,-1,1686,1730,0,0
469,-706,0,0,0,0,0,0,0,0,0,-1,1693,1730,0,0
476,-706,0,0,0,0,0,0,0,0,0,-1,1700,1730,0,0
483,-706,0,0,0,0,0,0,0,0,0,-1,1707,1730,0,0
490,-706,0,0,0,0,0,0,0,0,0,-1,1714,1730,0,0
497,-706,0,0,0,0,0,0,0,0,0,-1,1721,1730,0,0
504,-706,0,0,0,0,0,0,0,0,0,-1,1728,1730,0,0
511,-706,0,0,0,0,0,0,0,0,0,-1,1735,1730,0,0
518,-706,0,0,0,0,0,0,0,0,0,-1,1742,1730,0,0
525,-706,0,0,0,0,0,0,0,0,0,-1,1749,1730,0,0
532,-706,0,0,0,0,0,0,0,0,0,-1,1756,1730,0,0
539,-706,0,0,0,0,0,0,0,0,0,-1,1763,1730,0,0
546,-706,0,0,0,0,0,0,0,0,0,-1,1770,1730,0,0
553,-706,0,0,0,0,0,0,0,0,0,-1,1777,1730,0,0
560,-706,0,0,0,0,0,0,0,0,0,-1,1784,1730,0,0
567,-706,0,0,0,0,0,0,0,0,0,-1,1791,1730,0,0
574,-706,0,0,0,0,0,0,0,0,0,-1,1798,1730,0,0
581,-706,0,0,0,0,0,0,0,0,0,-1,1805,1730,0,0
588,-706,0,0,0,0,0,0,0,0,0,-1,1812,1730,0,0
595,-706,0,0,0,0,0,0,0,0,0,-1,1819,1730,0,0
602,-706,0,0,0,0,0,0,0,0,0,-1,1826,1730,0,0
609,-706,0,0,0,0,0,0,0,0,0,-1,1833,1730,0,0
616,-706,0,0,0,0,0,0,0,0,0,-1,1840,1730,0,0
623,-706,0,0,0,0,0,0,0,0,0,-1,1847,1730,0,0
630,-706,0,0,0,0,0,0,0,0,0,-1,1854,1730,0,0
637,-706,0,0,0,0,0,0,0,0,0,-1,1861,1730,0,0
644,-706,0,0,0,0,0,0,0,0,0,-1,1868,1730,0,0
651,-706,0,0,0,0,0,0,0,0,0,-1,1875,1730,0,0
658,-706,0,0,0,0,0,0,0,0,0,-1,1882,1730,0,0
665,-706,0,0,0,0,0,0,0,0,0,-1,1889,1730,0,0
672,-706,0,0,0,0,0,0,0,0,0,-1,1896,1730,0,0
679,-706,0,0,0,0,0,0,0,0,0,-1,1903,1730,0,0
686,-706,0,0,0,0,0,0,0,0,0,-1,1910,1730,0,0
693,-706,0,0,0,0,0,0,0,0,0,-1,1917,1730,0,0
700,-706,0,0,0,0,0,0,0,0,0,-1,1924,1730,0,0
707,-706,0,0,0,0,0,0,0,0,0,-1,1931,1730,0,0
714,-706,0,0,0,0,0,0,0,0,0,-1,1938,1730,0,0
721,-706,0,0,0,0,0,0,0,0,0,-1,1945,1730,0,0
728,-706,0,0,0,0,0,0,0,0,0,-1,1952,1730,0,0
735,-706,0,0,0,0,0,0,0,0,0,-1,1959,1730,0,0
742,-706,0,0,0,0,0,0,0,0,0,-1,1966,1730,0,0
749,-706,0,0,0,0,0,0,0,0,0,-1,1973,1730,0,0
756,-706,0,0,0,0,0,0,0,0,0,-1,1980,1730,0,0
763,-706,0,0,0,0,0,0,0,0,0,-1,1987,1730,0,0
770,-706,0,0,0,0,0,0,0,0,0,-1,1994,1730,0,0
777,-706,0,0,0,0,0,0,0,0,0,-1,2001,1730,0,0
784,-706,0,0,0,0,0,0,0,0,0,-1,2008,1730,0,0
791,-706,0,0,0,0,0,0,0,0,0,-1,2015,1730,0,0
798,-706,0,0,0,0,0,0,0,0,0,-1,2022,1730,0,0
805,-706,0,0,0,0,0,0,0,0,0,-1,2029,1730,0,0
812,-706,0,0,0,0,0,0,0,0,0,-1,2036,1730,0,0
-700,-713,0,0,0,0,0,0,0,0,0,-1,524,1737,0,0
-693,-713,0,0,0,0,0,0,0,0,0,-1,531,1737,0,0
-686,-713,0,0,0,0,0,0,0,0,0,-1,538,1737,0,0
-679,-713,0,0,0,0,0,0,0,0,0,-1,545,1737,0,0
-672,-713,0,0,0,0,0,0,0,0,0,-1,552,1737,0,0
-665,-713,0,0,0,0,0,0,0,0,0,-1,559,1737,0,0
-658,-713,0,0,0,0,0,0,0,0,0,-1,566,1737,0,0
-651,-713,0,0,0,0,0,0,0,0,0,-1,573,1737,0,0
-644,-713,0,0,0,0,0,0,0,0,0,-1,580,1737,0,0
-637,-713,0,0,0,0,0,0,0,0,0,-1,587,1737,0,0
-630,-713,0,0,0,0,0,0,0,0,0,-1,594,1737,0,0
-623,-713,0,0,0,0,0,0,0,0,0,-1,601,1737,0,0
-616,-713,0,0,0,0,0,0,0,0,0,-1,608,1737,0,0
-609,-713,0,0,0,0,0,0,0,0,0,-1,615,1737,0,0
-602,-713,0,0,0,0,0,0,0,0,0,-1,622,1737,0,0
-595,-713,0,0,0,0,0,0,0,0,0,-1,629,1737,0,0
-588,-713,0,0,0,0,0,0,0,0,0,-1,636,1737,0,0
-581,-713,0,0,0,0,0,0,0,0,0,-1,643,1737,0,0
-574,-713,0,0,0,0,0,0,0,0,0,-1,650,1737,0,0
-567,-713,0,0,0,0,0,0,0,0,0,-1,657,1737,0,0
-560,-713,0,0,0,0,0,0,0,0,0,-1,664,1737,0,0
-553,-713,0,0,0,0,0,0,0,0,0,-1,671,1737,0,0
-546,-713,0,0,0,0,0,0,0,0,0,-1,678,1737,0,0
-539,-713,0,0,0,0,0,0,0,0,0,-1,685,1737,0,0
-532,-713,0,0,0,0,0,0,0,0,0,-1,692,1737,0,0
-525,-713,0,0,0,0,0,0,0,0,0,-1,699,1737,0,0
-518,-713,0,0,0,0,0,0,0,0,0,-1,706,1737,0,0
-511,-713,0,0,0,0,0,0,0,0,0,-1,713,1737,0,0
-504,-713,0,0,0,0,0,0,0,0,0,-1,720,1737,0,0
-497,-713,0,0,0,0,0,0,0,0,0,-1,727,1737,0,0
-490,-713,0,0,0,0,0,0,0,0,0,-1,734,1737,0,0
-483,-713,0,0,0,0,0,0,0,0,0,-1,741,1737,0,0
-476,-713,0,0,0,0,0,0,0,0,0,-1,748,1737,0,0
-469,-713,0,0,0,0,0,0,0,0,0,-1,755,1737,0,0
-462,-713,0,0,0,0,0,0,0,0,0,-1,762,1737,0,0
-455,-713,0,0,0,0,0,0,0,0,0,-1,769,1737,0,0
-448,-713,0,0,0,0,0,0,0,0,0,-1,776,1737,0,0
-441,-713,0,0,0,0,0,0,0,0,0,-1,783,1737,0,0
-434,-713,0,0,0,0,0,0,0,0,0,-1,790,1737,0,0
-427,-713,0,0,0,0,0,0,0,0,0,-1,797,1737,0,0
-420,-713,0,0,0,0,0,0,0,0,0,-1,804,1737,0,0
-413,-713,0,0,0,0,0,0,0,0,0,-1,811,1737,0,0
-406,-713,0,0,0,0,0,0,0,0,0,-1,818,1737,0,0
-399,-713,0,0,0,0,0,0,0,0,0,-1,825,1737,0,0
-392,-713,0,0,0,0,0,0,0,0,0,-1,832,1737,0,0
-385,-713,0,0,0,0,0,0,0,0,0,-1,839,1737,0,0
-378,-713,0,0,0,0,0,0,0,0,0,-1,846,1737,0,0
-371,-713,0,0,0,0,0,0,0,0,0,-1,853,1737,0,0
-364,-713,0,0,0,0,0,0,0,0,0,-1,860,1737,0,0
-357,-713,0,0,0,0,0,0,0,0,0,-1,867,1737,0,0
-350,-713,0,0,0,0,0,0,0,0,0,-1,874,1737,0,0
-343,-713,0,0,0,0,0,0,0,0,0,-1,881,1737,0,0
-336,-713,0,0,0,0,0,0,0,0,0,-1,888,1737,0,0
-329,-713,0,0,0,0,0,0,0,0,0,-1,895,1737,0,0
-322,-713,0,0,0,0,0,0,0,0,0,-1,902,1737,0,0
-315,-713,0,0,0,0,0,0,0,0,0,-1,909,1737,0,0
-308,-713,0,0,0,0,0,0,0,0,0,-1,916,1737,0,0
-301,-713,0,0,0,0,0,0,0,0,0,-1,923,1737,0,0
-294,-713,6.3161,13.046,0,0,0,0,0,0,0,-1,930,1737,6.31612,-13.046
-287,-713,6.41205,10.0194,0,0,0,0,0,0,0,-1,937,1737,6.41203,-10.0194
-280,-713,5.19037,10.5022,0,0,0,0,0,0,0,-1,944,1737,5.19035,-10.5021
-273,-713,4.4538,11.0526,0,0,0,0,0,0,0,-1,951,1737,4.4538,-11.0526
-266,-713,3.72046,9.64844,0,0,0,0,0,0,0,-1,958,1737,3.72048,-9.64845
-259,-713,2.67322,10.5743,0,0,0,0,0,0,0,-1,965,1737,2.67324,-10.5743
-252,-713,3.55267,8.86694,0,0,0,0,0,0,0,-1,972,1737,3.55265,-8.86693
-245,-713,2.92108,11.5321,0,0,0,0,0,0,0,-1,979,1737,2.9211,-11.5321
-238,-713,3.7381,11.5844,0,0,0,0,0,0,0,-1,986,1737,3.7381,-11.5843
-231,-713,4.3269,11.8881,-0.0240147,-0.00649329,0.00565989,-0.00482402,-0.025684,1.284,0.0157627,0.045812,993,1737,4.3269,-11.888
-224,-713,4.95941,12.2369,-0.0241146,-0.00844645,0.00550194,-0.00670743,-0.0258536,1.26466,0.0154918,0.0463436,1000,1737,4.95941,-12.237
-217,-713,4.60699,12.0883,-0.0244075,-0.0098459,0.00550979,-0.0079961,-0.0262573,1.24689,0.015541,0.0471452,1007,1737,4.60701,-12.0883
-210,-713,4.50061,11.9694,-0.0242413,-0.0103047,0.00590516,-0.00813908,-0.0264069,1.2193,0.0156154,0.0484114,1014,1737,4.50062,-11.9694
-203,-713,3.91785,12.054,-0.022436,-0.0102672,0.00641023,-0.00751354,-0.0251896,1.16506,0.0149326,0.0406517,1021,1737,3.91782,-12.0539
-196,-713,3.79639,12.3003,-0.0196604,-0.00953715,0.00654102,-0.00632805,-0.0228695,1.11469,0.0136356,0.0392059,1028,1737,3.79641,-12.3003
-189,-713,3.9386,12.4385,-0.0162399,-0.00850147,0.00598208,-0.00524635,-0.019495,1.07246,0.0116486,0.0379355,1035,1737,3.93861,-12.4385
-182,-713,4.03015,12.6198,-0.0127749,-0.00855062,0.00492899,-0.0053003,-0.0160252,0.987821,0.00942722,0.0236971,1042,1737,4.03021,-12.6198
-175,-713,4.14087,12.641,-0.0110281,-0.00562767,0.00365519,-0.00378349,-0.0128723,1.10352,0.00763933,0.0208617,1049,1737,4.14093,-12.641
-168,-713,4.2063,12.7064,-0.00801583,-0.0035591,0.0027006,-0.0022862,-0.00928873,1.13034,0.00558853,0.0253058,1056,1737,4.20632,-12.7064
-161,-713,4.17615,12.8339,-0.00372283,-0.000988966,0.00198867,5.72568e-05,-0.00476905,1.08649,0.00319862,0.0137193,1063,1737,4.17614,-12.8339
-154,-713,4.14246,12.9264,-0.000312642,0.00114547,0.00119015,0.00181211,-0.000979287,1.06021,0.00163535,0.0122441,1070,1737,4.14241,-12.9264
-147,-713,4.12061,13.0762,0.000432972,0.00162972,5.7098e-05,0.00163244,0.000430254,1.52323,0.000976984,0.0194983,1077,1737,4.12057,-13.0762
-140,-713,4.13293,13.2173,2.83519e-05,0.00196335,-0.000496285,0.00208322,-9.15094e-05,-1.33382,0.0014203,0.017563,1084,1737,4.13295,-13.2173
-133,-713,4.12366,13.276,-0.00033075,0.00204913,-0.000777297,0.00228051,-0.000562129,-1.28148,0.00173828,0.0110661,1091,1737,4.1236,-13.276
-126,-713,4.11865,13.3453,-0.000517203,0.00193591,-0.000750303,0.00214719,-0.000728491,-1.2963,0.00172631,0.017523,1098,1737,4.11863,-13.3453
-119,-713,4.11987,13.4229,-0.000536981,0.00162041,-0.000462384,0.00171534,-0.000631905,-1.36832,0.00140248,0.0269625,1105,1737,4.11985,-13.4228
-112,-713,4.09045,13.5603,-0.000268132,0.00114089,-0.000140197,0.0011547,-0.000281946,-1.47258,0.000878987,0.0140438,1112,1737,4.09045,-13.5603
-105,-713,4.10657,13.6498,1.71489e-05,0.000797931,6.61237e-05,0.000803491,1.15886e-05,1.4869,0.00053184,0.0107456,1119,1737,4.1066,-13.6497
-98,-713,4.12915,13.7349,0.000153791,0.000349739,0.000171242,0.000449054,5.44765e-05,1.04524,0.000282964,0.0102091,1126,1737,4.12911,-13.7349
-91,-713,4.11267,13.8243,0.000277786,0.000240126,0.000340938,0.000600414,-8.25019e-05,0.757811,0.00043042,0.0105144,1133,1737,4.11271,-13.8244
-84,-713,4.10413,13.9069,0.000391673,0.000291695,0.000542034,0.000886019,-0.00020265,0.739416,0.000668547,0.0093985,1140,1737,4.10418,-13.9068
-77,-713,4.11951,13.9963,0.00054348,0.000248157,0.000692439,0.00110383,-0.00031219,0.680348,0.000859069,0.0120675,1147,1737,4.11947,-13.9963
-70,-713,4.10425,14.0671,0.000694943,-6.43349e-05,0.000694786,0.00110704,-0.000476436,0.535356,0.000938077,0.0142299,1154,1737,4.10427,-14.0672
-63,-713,4.09705,14.1407,0.000823738,-0.000138235,0.000443043,0.00099669,-0.000311187,0.372179,0.000788919,0.0129759,1161,1737,4.09703,-14.1408
-56,-713,4.11401,14.2096,0.000965696,-0.000309368,0.000287416,0.00102749,-0.000371161,0.21177,0.000836622,0.0125529,1168,1737,4.11402,-14.2096
-49,-713,4.08704,14.2673,0.00107148,-0.000552281,0.0002218,0.00110123,-0.000582033,0.133343,0.000987123,0.0149848,1175,1737,4.08701,-14.2673
-42,-713,4.09497,14.3059,0.00112819,-0.00088063,0.000384116,0.00119913,-0.000951573,0.182634,0.00124445,0.0180977,1182,1737,4.09498,-14.3059
-35,-713,4.10986,14.3572,0.00122504,-0.00141782,0.000641038,0.00137232,-0.0015651,0.225832,0.00169714,0.0146894,1189,1737,4.10982,-14.3572
-28,-713,4.11719,14.4218,0.00119386,-0.00201334,0.000861245,0.0014105,-0.00222998,0.246431,0.00211951,0.0119206,1196,1737,4.11716,-14.4217
-21,-713,4.1062,14.4779,0.00108578,-0.00285102,0.00118865,0.00141683,-0.00318207,0.271629,0.0027196,0.00884426,1203,1737,4.10623,-14.4779
-14,-713,4.12097,14.506,0.00106765,-0.00391508,0.00166139,0.0015708,-0.00441823,0.294068,0.00358567,0.010075,1210,1737,4.12095,-14.506
-7,-713,4.14209,14.5623,0.000982999,-0.00495434,0.00223806,0.00173211,-0.00570345,0.322994,0.00449239,0.00893634,1217,1737,4.14205,-14.5622
0,-713,4.14417,14.6221,0.000799538,-0.00611732,0.00281112,0.00179792,-0.0071157,0.341258,0.005443,0.0137705,1224,1737,4.1442,-14.6221
7,-713,4.16418,14.6521,0.000460086,-0.00689719,0.00361165,0.00193668,-0.00837378,0.388105,0.00632766,0.01677,1231,1737,4.16424,-14.6521
14,-713,4.19031,14.6781,0.000250687,-0.00747741,0.00418432,0.0020822,-0.00930892,0.412585,0.00700395,0.0126305,1238,1737,4.19027,-14.678
21,-713,4.17688,14.699,9.74123e-05,-0.0078563,0.00444162,0.00208238,-0.00984127,0.420275,0.00735392,0.01059,1245,1737,4.17692,-14.699
28,-713,4.14941,14.7256,4.14816e-05,-0.00755343,0.00463282,0.00223433,-0.00974627,0.442084,0.00735628,0.0107606,1252,1737,4.14941,-14.7256
35,-713,4.16199,14.7729,0.00087539,-0.00715805,0.00467404,0.00302152,-0.00930418,0.430444,0.007418,0.0112536,1259,1737,4.16199,-14.7729
42,-713,4.18726,14.8093,0.00218738,-0.00632798,0.00473375,0.00429651,-0.0084371,0.419148,0.00748019,0.0114038,1266,1737,4.18721,-14.8093
49,-713,4.18921,14.7924,0.00317348,-0.00509927,0.00473762,0.00532635,-0.00725214,0.426524,0.00729051,0.01122,1273,1737,4.18921,-14.7923
56,-713,4.20154,14.7861,0.00443908,-0.00392516,0.00424537,0.00621626,-0.00570235,0.396452,0.00688334,0.011436,1280,1737,4.20152,-14.7861
63,-713,4.20544,14.8196,0.00587374,-0.00278894,0.00386697,0.00734877,-0.00426397,0.364408,0.00678302,0.012061,1287,1737,4.20548,-14.8196
70,-713,4.20337,14.8406,0.00696302,-0.00175235,0.00357175,0.00823976,-0.0030291,0.343303,0.00673394,0.0119354,1294,1737,4.20333,-14.8406
77,-713,4.20886,14.8389,0.00812058,-0.000740957,0.00322893,0.0091723,-0.00179268,0.314881,0.00679175,0.0119112,1301,1737,4.20885,-14.8389
84,-713,4.22168,14.8542,0.00902794,-0.00027662,0.00302779,0.00992644,-0.00117513,0.288475,0.0070421,0.0124799,1308,1737,4.22169,-14.8542
91,-713,4.24011,14.8746,0.00917534,-0.000288611,0.00293566,0.010012,-0.00112527,0.277638,0.00707963,0.0130549,1315,1737,4.24015,-14.8747
98,-713,4.25049,14.8553,0.0088314,-0.000806954,0.00277446,0.00957299,-0.00154854,0.261185,0.00695587,0.0120753,1322,1737,4.25055,-14.8553
105,-713,4.24377,14.8606,0.00830671,-0.00137566,0.00269625,0.00900691,-0.00207585,0.254078,0.00680296,0.013168,1329,1737,4.24372,-14.8606
112,-713,4.2467,14.8579,0.00745615,-0.00240587,0.00243561,0.00802487,-0.00297459,0.229393,0.00656988,0.0135981,1336,1737,4.24675,-14.8579
119,-713,4.26038,14.8318,0.00616837,-0.00361918,0.00240361,0.00672678,-0.0041776,0.228274,0.00635273,0.0135696,1343,1737,4.26033,-14.8318
126,-713,4.2771,14.8231,0.00480735,-0.00469553,0.00249023,0.00542037,-0.00530856,0.241371,0.00619446,0.0129417,1350,1737,4.27706,-14.8231
133,-713,4.28296,14.8044,0.003573,-0.00573555,0.00238223,0.00414724,-0.00630979,0.236536,0.00608025,0.0127751,1357,1737,4.28293,-14.8044
140,-713,4.29822,14.7695,0.00179393,-0.00591019,0.00218928,0.00237259,-0.00648886,0.258408,0.00529695,0.013947,1364,1737,4.29821,-14.7695
147,-713,4.30603,14.7151,0.000424005,-0.00586881,0.00182136,0.000913148,-0.00635795,0.262369,0.00457351,0.0146342,1371,1737,4.30603,-14.7151
154,-713,4.29114,14.6995,0.000229461,-0.00551155,0.00138283,0.000545178,-0.00582727,0.224465,0.00407873,0.0144634,1378,1737,4.29114,-14.6994
161,-713,4.30493,14.6709,0.000111967,-0.00437692,0.00140378,0.000514807,-0.00477976,0.27946,0.00337124,0.0102772,1385,1737,4.30499,-14.6709
168,-713,4.29944,14.6249,4.35096e-05,-0.00328505,0.00103737,0.000340345,-0.00358189,0.278694,0.00250908,0.00998231,1392,1737,4.29943,-14.6249
175,-713,4.30066,14.5791,0.000257952,-0.00241329,0.000662023,0.000413022,-0.00256836,0.230087,0.00186522,0.0132127,1399,1737,4.30072,-14.5791
182,-713,4.29187,14.5306,0.000253022,-0.00175343,0.00043862,0.000344716,-0.00184513,0.206083,0.00135964,0.0116917,1406,1737,4.29189,-14.5307
189,-713,4.30249,14.5072,0.000176152,-0.00106495,0.000138425,0.000191403,-0.0010802,0.109737,0.000791686,0.0106217,1413,1737,4.30253,-14.5072
196,-713,4.32605,14.4647,0.000268609,-0.0004019,-0.000221009,0.000334902,-0.000468193,-0.291417,0.000465791,0.0129089,1420,1737,4.32609,-14.4648
203,-713,4.328,14.4156,0.00048637,0.00026666,-0.000408787,0.000799806,-4.67762e-05,-0.654132,0.00054946,0.017526,1427,1737,4.32805,-14.4157
210,-713,4.30286,14.3351,0.000450311,0.000258808,-0.000647928,0.00100953,-0.000300406,-0.712039,0.000792367,0.0142232,1434,1737,4.30281,-14.3351
217,-713,4.30029,14.2665,0.000466189,0.000165623,-0.000923685,0.00125174,-0.000619925,-0.704755,0.00110094,0.0114894,1441,1737,4.30028,-14.2665
224,-713,4.30237,14.2174,0.000576029,0.000139036,-0.00115294,0.00153099,-0.000815925,-0.691752,0.0013758,0.0116249,1448,1737,4.30235,-14.2174
231,-713,4.31348,14.1489,0.000674598,0.000154582,-0.00137033,0.00180937,-0.000980189,-0.691642,0.0016341,0.0104396,1455,1737,4.31349,-14.149
238,-713,4.3114,14.076,0.000828131,0.000212263,-0.00158788,0.00213766,-0.00109726,-0.689623,0.00189961,0.00819494,1462,1737,4.31144,-14.076
245,-713,4.32263,14.0155,0.000979165,0.000310144,-0.00178599,0.0024617,-0.00117239,-0.692822,0.00214171,0.0105467,1469,1737,4.32257,-14.0155
252,-713,4.3324,13.9373,0.00107689,0.00045394,-0.00195572,0.00274578,-0.00121496,-0.70643,0.00234298,0.0114952,1476,1737,4.33237,-13.9373
259,-713,4.33423,13.8615,0.00126814,0.000821292,-0.0020936,0.0031502,-0.00106077,-0.73224,0.002529,0.0122738,1483,1737,4.33423,-13.8615
266,-713,4.31921,13.825,0.00151944,0.00123123,-0.00230472,0.00368456,-0.000933886,-0.754175,0.0028197,0.0107791,1490,1737,4.31927,-13.8249
273,-713,4.30408,13.7257,0.00174901,0.00184203,-0.00256843,0.00436438,-0.000773336,-0.794451,0.00319868,0.0087037,1497,1737,4.30411,-13.7257
280,-713,4.28906,13.5996,0.00181661,0.00250026,-0.00261095,0.00479166,-0.000474793,-0.850487,0.00336389,0.00970593,1504,1737,4.28906,-13.5996
287,-713,4.28088,13.4969,0.00182358,0.00274461,-0.00239898,0.00472688,-0.000158688,-0.880226,0.00320546,0.0109894,1511,1737,4.28085,-13.4969
294,-713,4.2771,13.3976,0.00191355,0.00337685,-0.00243099,0.00518391,0.000106497,-0.93157,0.00342099,0.0151554,1518,1737,4.27715,-13.3976
301,-713,4.26086,13.2869,0.00167478,0.00397714,-0.00225625,0.00535892,0.000292998,-1.02129,0.00347906,0.0162712,1525,1737,4.2609,-13.2869
308,-713,4.24866,13.1824,0.00210051,0.0036533,-0.000504047,0.00380257,0.00195125,-1.28289,0.00219567,0.018191,1532,1737,4.24866,-13.1824
315,-713,4.31055,13.1228,0.00328614,0.00255639,0.00123748,0.00421142,0.00163111,0.642035,0.00245196,0.0251504,1539,1737,4.31051,-13.1228
322,-713,4.26917,12.9561,0.00462024,0.0022629,0.00331907,0.00696372,-8.05708e-05,0.614784,0.00466957,0.0313634,1546,1737,4.26922,-12.9561
329,-713,4.21167,12.8177,0.00602771,0.000499286,0.00589319,0.00977276,-0.00324577,0.566106,0.00782481,0.0351341,1553,1737,4.21167,-12.8178
336,-713,4.01489,13.026,0.00789547,-0.00143184,0.00882764,0.0132157,-0.00675202,0.542382,0.0117279,0.0416063,1560,1737,4.01484,-13.026
343,-713,3.77673,12.9741,0,0,0,0,0,0,0,-1,1567,1737,3.77668,-12.9742
350,-713,4.33997,12.358,0,0,0,0,0,0,0,-1,1574,1737,4.33994,-12.358
357,-713,3.17102,12.9446,0.0161375,-0.00901874,0.0191155,0.0264419,-0.0193231,0.494406,0.0265288,0.0462119,1581,1737,3.17097,-12.9445
364,-713,3.67163,13.3518,0.0191288,-0.0114849,0.022002,0.0306247,-0.0229808,0.48148,0.0310539,0.0439777,1588,1737,3.67169,-13.3517
371,-713,4.04688,12.8895,0.0217467,-0.0125491,0.0237373,0.0338821,-0.0246845,0.472595,0.0339521,0.0448312,1595,1737,4.04682,-12.8895
378,-713,4.10901,12.7183,0.0238596,-0.0124657,0.0240006,0.0357953,-0.0244014,0.461492,0.0349615,0.045167,1602,1737,4.10896,-12.7183
385,-713,4.16663,12.8469,0,0,0,0,0,0,0,-1,1609,1737,4.16662,-12.8469
392,-713,4.18201,13.3433,0,0,0,0,0,0,0,-1,1616,1737,4.18198,-13.3433
399,-713,1.93323,14.2748,0,0,0,0,0,0,0,-1,1623,1737,1.93325,-14.2748
406,-713,2.13525,15.2334,0,0,0,0,0,0,0,-1,1630,1737,2.13526,-15.2334
413,-713,2.59546,16.7579,0,0,0,0,0,0,0,-1,1637,1737,2.5955,-16.7579
420,-713,0,0,0,0,0,0,0,0,0,-1,1644,1737,0,0
427,-713,0,0,0,0,0,0,0,0,0,-1,1651,1737,0,0
434,-713,0,0,0,0,0,0,0,0,0,-1,1658,1737,0,0
441,-713,0,0,0,0,0,0,0,0,0,-1,1665,1737,0,0
448,-713,0,0,0,0,0,0,0,0,0,-1,1672,1737,0,0
455,-713,0,0,0,0,0,0,0,0,0,-1,1679,1737,0,0
462,-713,0,0,0,0,0,0,0,0,0,-1,1686,1737,0,0
469,-713,0,0,0,0,0,0,0,0,0,-1,1693,1737,0,0
476,-713,0,0,0,0,0,0,0,0,0,-1,1700,1737,0,0
483,-713,0,0,0,0,0,0,0,0,0,-1,1707,1737,0,0
490,-713,0,0,0,0,0,0,0,0,0,-1,1714,1737,0,0
497,-713,0,0,0,0,0,0,0,0,0,-1,1721,1737,0,0
504,-713,0,0,0,0,0,0,0,0,0,-1,1728,1737,0,0
511,-713,0,0,0,0,0,0,0,0,0,-1,1735,1737,0,0
518,-713,0,0,0,0,0,0,0,0,0,-1,1742,1737,0,0
525,-713,0,0,0,0,0,0,0,0,0,-1,1749,1737,0,0
532,-713,0,0,0,0,0,0,0,0,0,-1,1756,1737,0,0
539,-713,0,0,0,0,0,0,0,0,0,-1,1763,1737,0,0
546,-713,0,0,0,0,0,0,0,0,0,-1,1770,1737,0,0
553,-713,0,0,0,0,0,0,0,0,0,-1,1777,1737,0,0
560,-713,0,0,0,0,0,0,0,0,0,-1,1784,1737,0,0
567,-713,0,0,0,0,0,0,0,0,0,-1,1791,1737,0,0
574,-713,0,0,0,0,0,0,0,0,0,-1,1798,1737,0,0
581,-713,0,0,0,0,0,0,0,0,0,-1,1805,1737,0,0
588,-713,0,0,0,0,0,0,0,0,0,-1,1812,1737,0,0
595,-713,0,0,0,0,0,0,0,0,0,-1,1819,1737,0,0
602,-713,0,0,0,0,0,0,0,0,0,-1,1826,1737,0,0
609,-713,0,0,0,0,0,0,0,0,0,-1,1833,1737,0,0
616,-713,0,0,0,0,0,0,0,0,0,-1,1840,1737,0,0
623,-713,0,0,0,0,0,0,0,0,0,-1,1847,1737,0,0
630,-713,0,0,0,0,0,0,0,0,0,-1,1854,1737,0,0
637,-713,0,0,0,0,0,0,0,0,0,-1,1861,1737,0,0
644,-713,0,0,0,0,0,0,0,0,0,-1,1868,1737,0,0
651,-713,0,0,0,0,0,0,0,0,0,-1,1875,1737,0,0
658,-713,0,0,0,0,0,0,0,0,0,-1,1882,1737,0,0
665,-713,0,0,0,0,0,0,0,0,0,-1,1889,1737,0,0
672,-713,0,0,0,0,0,0,0,0,0,-1,1896,1737,0,0
679,-713,0,0,0,0,0,0,0,0,0,-1,1903,1737,0,0
686,-713,0,0,0,0,0,0,0,0,0,-1,1910,1737,0,0
693,-713,0,0,0,0,0,0,0,0,0,-1,1917,1737,0,0
700,-713,0,0,0,0,0,0,0,0,0,-1,1924,1737,0,0
707,-713,0,0,0,0,0,0,0,0,0,-1,1931,1737,0,0
714,-713,0,0,0,0,0,0,0,0,0,-1,1938,1737,0,0
721,-713,0,0,0,0,0,0,0,0,0,-1,1945,1737,0,0
728,-713,0,0,0,0,0,0,0,0,0,-1,1952,1737,0,0
735,-713,0,0,0,0,0,0,0,0,0,-1,1959,1737,0,0
742,-713,0,0,0,0,0,0,0,0,0,-1,1966,1737,0,0
749,-713,0,0,0,0,0,0,0,0,0,-1,1973,1737,0,0
756,-713,0,0,0,0,0,0,0,0,0,-1,1980,1737,0,0
763,-713,0,0,0,0,0,0,0,0,0,-1,1987,1737,0,0
770,-713,0,0,0,0,0,0,0,0,0,-1,1994,1737,0,0
777,-713,0,0,0,0,0,0,0,0,0,-1,2001,1737,0,0
784,-713,0,0,0,0,0,0,0,0,0,-1,2008,1737,0,0
791,-713,0,0,0,0,0,0,0,0,0,-1,2015,1737,0,0
798,-713,0,0,0,0,0,0,0,0,0,-1,2022,1737,0,0
805,-713,0,0,0,0,0,0,0,0,0,-1,2029,1737,0,0
812,-713,0,0,0,0,0,0,0,0,0,-1,2036,1737,0,0
-700,-720,0,0,0,0,0,0,0,0,0,-1,524,1744,0,0
-693,-720,0,0,0,0,0,0,0,0,0,-1,531,1744,0,0
-686,-720,0,0,0,0,0,0,0,0,0,-1,538,1744,0,0
-679,-720,0,0,0,0,0,0,0,0,0,-1,545,1744,0,0
-672,-720,0,0,0,0,0,0,0,0,0,-1,552,1744,0,0
-665,-720,0,0,0,0,0,0,0,0,0,-1,559,1744,0,0
-658,-720,0,0,0,0,0,0,0,0,0,-1,566,1744,0,0
-651,-720,0,0,0,0,0,0,0,0,0,-1,573,1744,0,0
-644,-720,0,0,0,0,0,0,0,0,0,-1,580,1744,0,0
-637,-720,0,0,0,0,0,0,0,0,0,-1,587,1744,0,0
-630,-720,0,0,0,0,0,0,0,0,0,-1,594,1744,0,0
-623,-720,0,0,0,0,0,0,0,0,0,-1,601,1744,0,0
-616,-720,0,0,0,0,0,0,0,0,0,-1,608,1744,0,0
-609,-720,0,0,0,0,0,0,0,0,0,-1,615,1744,0,0
-602,-720,0,0,0,0,0,0,0,0,0,-1,622,1744,0,0
-595,-720,0,0,0,0,0,0,0,0,0,-1,629,1744,0,0
-588,-720,0,0,0,0,0,0,0,0,0,-1,636,1744,0,0
-581,-720,0,0,0,0,0,0,0,0,0,-1,643,1744,0,0
-574,-720,0,0,0,0,0,0,0,0,0,-1,650,1744,0,0
-567,-720,0,0,0,0,0,0,0,0,0,-1,657,1744,0,0
-560,-720,0,0,0,0,0,0,0,0,0,-1,664,1744,0,0
-553,-720,0,0,0,0,0,0,0,0,0,-1,671,1744,0,0
-546,-720,0,0,0,0,0,0,0,0,0,-1,678,1744,0,0
-539,-720,0,0,0,0,0,0,0,0,0,-1,685,1744,0,0
-532,-720,0,0,0,0,0,0,0,0,0,-1,692,1744,0,0
-525,-720,0,0,0,0,0,0,0,0,0,-1,699,1744,0,0
-518,-720,0,0,0,0,0,0,0,0,0,-1,706,1744,0,0
-511,-720,0,0,0,0,0,0,0,0,0,-1,713,1744,0,0
-504,-720,0,0,0,0,0,0,0,0,0,-1,720,1744,0,0
-497,-720,0,0,0,0,0,0,0,0,0,-1,727,1744,0,0
-490,-720,0,0,0,0,0,0,0,0,0,-1,734,1744,0,0
-483,-720,0,0,0,0,0,0,0,0,0,-1,741,1744,0,0
-476,-720,0,0,0,0,0,0,0,0,0,-1,748,1744,0,0
-469,-720,0,0,0,0,0,0,0,0,0,-1,755,1744,0,0
-462,-720,0,0,0,0,0,0,0,0,0,-1,762,1744,0,0
-455,-720,0,0,0,0,0,0,0,0,0,-1,769,1744,0,0
-448,-720,0,0,0,0,0,0,0,0,0,-1,776,1744,0,0
-441,-720,0,0,0,0,0,0,0,0,0,-1,783,1744,0,0
-434,-720,0,0,0,0,0,0,0,0,0,-1,790,1744,0,0
-427,-720,0,0,0,0,0,0,0,0,0,-1,797,1744,0,0
-420,-720,0,0,0,0,0,0,0,0,0,-1,804,1744,0,0
-413,-720,0,0,0,0,0,0,0,0,0,-1,811,1744,0,0
-406,-720,0,0,0,0,0,0,0,0,0,-1,818,1744,0,0
-399,-720,0,0,0,0,0,0,0,0,0,-1,825,1744,0,0
-392,-720,0,0,0,0,0,0,0,0,0,-1,832,1744,0,0
-385,-720,0,0,0,0,0,0,0,0,0,-1,839,1744,0,0
-378,-720,0,0,0,0,0,0,0,0,0,-1,846,1744,0,0
-371,-720,0,0,0,0,0,0,0,0,0,-1,853,1744,0,0
-364,-720,0,0,0,0,0,0,0,0,0,-1,860,1744,0,0
-357,-720,0,0,0,0,0,0,0,0,0,-1,867,1744,0,0
-350,-720,0,0,0,0,0,0,0,0,0,-1,874,1744,0,0
-343,-720,0,0,0,0,0,0,0,0,0,-1,881,1744,0,0
-336,-720,0,0,0,0,0,0,0,0,0,-1,888,1744,0,0
-329,-720,0,0,0,0,0,0,0,0,0,-1,895,1744,0,0
-322,-720,0,0,0,0,0,0,0,0,0,-1,902,1744,0,0
-315,-720,0,0,0,0,0,0,0,0,0,-1,909,1744,0,0
-308,-720,0,0,0,0,0,0,0,0,0,-1,916,1744,0,0
-301,-720,0,0,0,0,0,0,0,0,0,-1,923,1744,0,0
-294,-720,0,0,0,0,0,0,0,0,0,-1,930,1744,0,0
-287,-720,0,0,0,0,0,0,0,0,0,-1,937,1744,0,0
-280,-720,5.52264,10.3418,0,0,0,0,0,0,0,-1,944,1744,5.52262,-10.3418
-273,-720,4.63739,8.22498,0,0,0,0,0,0,0,-1,951,1744,4.6374,-8.22496
-266,-720,4.37134,7.47217,0,0,0,0,0,0,0,-1,958,1744,4.37132,-7.47215
-259,-720,2.38904,5.20947,0,0,0,0,0,0,0,-1,965,1744,2.38906,-5.20952
-252,-720,3.71014,6.78967,0,0,0,0,0,0,0,-1,972,1744,3.71016,-6.78973
-245,-720,4.38489,14.8328,0,0,0,0,0,0,0,-1,979,1744,4.38488,-14.8328
-238,-720,5.09845,15.1926,0,0,0,0,0,0,0,-1,986,1744,5.09845,-15.1926
-231,-720,4.86639,11.8793,-0.0322036,-0.00310956,0.00838322,-0.000866877,-0.0344463,1.3094,0.0226808,0.0430758,993,1744,4.86638,-11.8792
-224,-720,5.46918,13.4226,-0.0328799,-0.00639612,0.00828222,-0.00401935,-0.0352567,1.29133,0.0222858,0.04803,1000,1744,5.46918,-13.4226
-217,-720,5.00275,12.9202,-0.0336273,-0.0090233,0.00842015,-0.00641765,-0.0362329,1.27069,0.0223257,0.0478106,1007,1744,5.00278,-12.9202
-210,-720,4.07477,12.3217,-0.0335646,-0.010535,0.00890841,-0.00749129,-0.0366083,1.24156,0.0223313,0.0468028,1014,1744,4.07476,-12.3217
-203,-720,3.16711,12.1758,-0.0313147,-0.0106818,0.00947356,-0.00699194,-0.0350046,1.19938,0.0213901,0.0474588,1021,1744,3.1671,-12.1758
-196,-720,3.57874,12.3666,0,0,0,0,0,0,0,-1,1028,1744,3.57878,-12.3666
-189,-720,3.78076,12.5142,-0.0232175,-0.00926301,0.00851187,-0.00523417,-0.0272463,1.12872,0.0166953,0.0480882,1035,1744,3.78074,-12.5142
-182,-720,3.90088,12.7299,-0.0185811,-0.0100972,0.0067631,-0.00635581,-0.0223225,1.06549,0.0132801,0.0378899,1042,1744,3.90086,-12.7298
-175,-720,4.3175,12.7648,-0.0161303,-0.0066116,0.00483571,-0.004586,-0.0181559,1.17412,0.0109017,0.0429781,1049,1744,4.31748,-12.7647
-168,-720,4.55664,12.7413,-0.0119684,-0.00450099,0.00330279,-0.00324982,-0.0132196,1.20868,0.00795426,0.0403621,1056,1744,4.55666,-12.7413
-161,-720,4.24072,12.8071,-0.00570611,-0.00117468,0.00218203,-0.000294806,-0.00658599,1.1875,0.00429576,0.0283635,1063,1744,4.24074,-12.8071
-154,-720,4.24963,12.9703,-0.000674861,0.00182606,0.00113087,0.00226157,-0.00111038,1.20319,0.00198425,0.0211162,1070,1744,4.24961,-12.9704
-147,-720,4.22949,13.1462,0.00025551,0.00246491,-0.000332967,0.002514,0.00020642,-1.42442,0.0016116,0.0215128,1077,1744,4.2295,-13.1462
-140,-720,4.23486,13.2612,-0.000386447,0.00292421,-0.00100597,0.00320591,-0.00066815,-1.29776,0.00239131,0.0169828,1084,1744,4.23487,-13.2613
-133,-720,4.21619,13.2856,-0.000966852,0.00312838,-0.00137124,0.00354512,-0.00138359,-1.27575,0.00293539,0.0121169,1091,1744,4.21616,-13.2856
-126,-720,4.2002,13.3662,-0.00126915,0.00305653,-0.00133911,0.00343752,-0.00165014,-1.29361,0.00299718,0.0122179,1098,1744,4.20017,-13.3662
-119,-720,4.18713,13.4425,-0.00133924,0.00272669,-0.00099388,0.00295663,-0.00156918,-1.34344,0.00265359,0.0152306,1105,1744,4.18713,-13.4425
-112,-720,4.17371,13.5414,-0.00103524,0.0022516,-0.000612691,0.00236209,-0.00114574,-1.39237,0.00206543,0.0142397,1112,1744,4.17368,-13.5414
-105,-720,4.17847,13.6393,-0.00069916,0.00189546,-0.000375075,0.00194859,-0.000752292,-1.43007,0.00160954,0.012803,1119,1744,4.17845,-13.6393
-98,-720,4.18994,13.7191,-0.000543412,0.00144707,-0.000272666,0.00148374,-0.000580087,-1.43709,0.00122904,0.0101652,1126,1744,4.19,-13.7191
-91,-720,4.18127,13.8093,-0.000388742,0.00136183,-9.18146e-05,0.00136663,-0.000393545,-1.51854,0.00106675,0.00966318,1133,1744,4.18126,-13.8093
-84,-720,4.17969,13.9048,-0.000233091,0.0014313,0.000139179,0.00144286,-0.000244649,1.48794,0.00105297,0.0100239,1140,1744,4.17963,-13.9048
-77,-720,4.1864,14.0073,-4.25228e-05,0.00129041,0.000404154,0.00140338,-0.000155491,1.29824,0.000991489,0.0121299,1147,1744,4.18641,-14.0073
-70,-720,4.18469,14.0732,0.000183873,0.000721544,0.000433558,0.000962851,-5.74338e-05,1.06292,0.000661877,0.0114268,1154,1744,4.18475,-14.0732
-63,-720,4.16211,14.1289,0.00029304,0.000535804,0.000193827,0.000643119,0.000185725,1.06514,0.000382188,0.0107568,1161,1744,4.16216,-14.129
-56,-720,4.17969,14.2096,0.000299348,0.000359808,0.000122804,0.000456049,0.000203108,0.906081,0.000263823,0.0117739,1168,1744,4.17967,-14.2095
-49,-720,4.15845,14.2604,0.000211098,0.000169289,9.72494e-05,0.000289664,9.07225e-05,0.679532,0.000171084,0.0186305,1175,1744,4.15841,-14.2604
-42,-720,4.1582,14.2897,0.000242505,-0.000116671,0.000293113,0.000406671,-0.000280837,0.510548,0.000399143,0.0223131,1182,1744,4.15817,-14.2896
-35,-720,4.16821,14.3429,0.000433249,-0.000618408,0.000574151,0.000685973,-0.000871132,0.41465,0.000901112,0.0192719,1189,1744,4.16825,-14.3429
-28,-720,4.17517,14.4089,0.000602575,-0.00111371,0.000766961,0.000895361,-0.0014065,0.364674,0.00133986,0.0100706,1196,1744,4.17523,-14.4089
-21,-720,4.15747,14.4856,0.000668051,-0.00176825,0.00111122,0.00109875,-0.00219896,0.369763,0.00193893,0.00867258,1203,1744,4.15749,-14.4856
-14,-720,4.16638,14.5092,0.000739419,-0.00257873,0.00158575,0.00137537,-0.00321468,0.381403,0.00272007,0.0105665,1210,1744,4.16642,-14.5091
-7,-720,4.19006,14.567,0.000733295,-0.00329961,0.00211672,0.0016403,-0.00420662,0.404826,0.00348242,0.0114089,1217,1744,4.19011,-14.567
0,-720,4.19751,14.6268,0.000633479,-0.00409773,0.00261046,0.00179074,-0.00525499,0.417282,0.00422858,0.0126269,1224,1744,4.1975,-14.6268
7,-720,4.19165,14.6453,0.000428531,-0.00463231,0.00318483,0.00196581,-0.00616958,0.449702,0.00490154,0.015214,1231,1744,4.19164,-14.6453
14,-720,4.21399,14.6732,0.000279574,-0.00502802,0.00356631,0.00207113,-0.00681958,0.465531,0.00537155,0.0149032,1238,1744,4.21401,-14.6732
21,-720,4.20459,14.7174,0.000152677,-0.00530895,0.0036762,0.00200136,-0.00715763,0.465948,0.00556026,0.0119116,1245,1744,4.20464,-14.7174
28,-720,4.17896,14.7405,0.000102661,-0.00500971,0.00367858,0.00202599,-0.00693303,0.481756,0.00542496,0.0114909,1252,1744,4.17896,-14.7405
35,-720,4.18542,14.7747,0.000145433,-0.00464911,0.00350696,0.00199618,-0.00649986,0.48559,0.00512977,0.0112023,1259,1744,4.18538,-14.7746
42,-720,4.19373,14.795,0.00020144,-0.00392012,0.00320274,0.00194912,-0.0056678,0.499523,0.00456899,0.0114654,1266,1744,4.19372,-14.7951
49,-720,4.19934,14.8007,0.000271118,-0.00288927,0.00277825,0.00188712,-0.00450527,0.526827,0.00379243,0.0117786,1273,1744,4.19936,-14.8007
56,-720,4.21338,14.813,0.000539215,-0.00199933,0.00211838,0.00173947,-0.00319958,0.515493,0.0028928,0.00992096,1280,1744,4.21343,-14.8129
63,-720,4.20801,14.8257,0.000841776,-0.00109373,0.00148877,0.00164968,-0.00190163,0.497198,0.00205207,0.0114764,1287,1744,4.20806,-14.8256
70,-720,4.21362,14.859,0.000938187,-0.000239322,0.000962628,0.00147783,-0.000778966,0.510941,0.00132362,0.0123865,1294,1744,4.21359,-14.859
77,-720,4.22693,14.8531,0.00112741,0.000563659,0.000472859,0.00139604,0.000295036,0.51662,0.000849596,0.0140027,1301,1744,4.22692,-14.8532
84,-720,4.23621,14.8354,0.00137104,0.000930983,0.000140873,0.00141227,0.000889749,0.284746,0.000824514,0.0139734,1308,1744,4.23622,-14.8354
91,-720,4.24866,14.8379,0.00131945,0.000897295,2.67963e-06,0.00131947,0.000897277,0.00634712,0.000778082,0.013495,1315,1744,4.24862,-14.8379
98,-720,4.23816,14.8486,0.00117947,0.000415574,-9.13352e-05,0.00119024,0.000404805,-0.117362,0.000698797,0.0120467,1322,1744,4.23813,-14.8487
105,-720,4.23401,14.8591,0.0011321,-8.703e-05,-3.87578e-05,0.00113333,-8.82609e-05,-0.0317487,0.000786625,0.0113202,1329,1744,4.23406,-14.8592
112,-720,4.24707,14.8533,0.00105797,-0.00087764,5.72067e-06,0.00105799,-0.000877657,0.00295545,0.00111916,0.0108753,1336,1744,4.24711,-14.8532
119,-720,4.25244,14.8306,0.000804455,-0.00182546,0.00022364,0.000823337,-0.00184434,0.084231,0.00157734,0.0106726,1343,1744,4.25239,-14.8306
126,-720,4.26025,14.8076,0.00057348,-0.0026779,0.000537536,0.000660044,-0.00276446,0.159667,0.00209789,0.0103316,1350,1744,4.26029,-14.8076
133,-720,4.25732,14.7906,0.000325914,-0.00352275,0.00073123,0.000460162,-0.00365699,0.18157,0.00260497,0.0120645,1357,1744,4.25732,-14.7907
140,-720,4.26001,14.7758,0.000140844,-0.00368767,0.0008493,0.000320791,-0.00386761,0.208789,0.00269172,0.0195924,1364,1744,4.25999,-14.7758
147,-720,4.25806,14.7455,5.42738e-05,-0.00361784,0.000846944,0.000240201,-0.00380377,0.216099,0.00261959,0.0209506,1371,1744,4.25809,-14.7454
154,-720,4.2522,14.6968,1.8082e-05,-0.00325934,0.00075395,0.000183204,-0.00342447,0.215605,0.00234643,0.0142235,1378,1744,4.2522,-14.6968
161,-720,4.26917,14.6666,-1.12186e-05,-0.00243355,0.000698144,0.000175588,-0.00262036,0.261451,0.00180828,0.00960266,1385,1744,4.26921,-14.6667
168,-720,4.27283,14.6235,-2.03156e-05,-0.00174445,0.000412782,7.3415e-05,-0.00183818,0.223284,0.00125064,0.00942049,1392,1744,4.27286,-14.6235
175,-720,4.26306,14.5674,9.32503e-05,-0.00128688,0.00011627,0.000102977,-0.0012966,0.0834618,0.000900692,0.0148278,1399,1744,4.26311,-14.5674
182,-720,4.25696,14.5265,0.000124938,-0.000863012,-0.000154576,0.000148559,-0.000886632,-0.151635,0.000646324,0.0144219,1406,1744,4.25694,-14.5265
189,-720,4.25867,14.5026,0.000142931,-0.000531103,-0.000477779,0.000390597,-0.000778768,-0.478234,0.00068742,0.0122419,1413,1744,4.25868,-14.5026
196,-720,4.2782,14.4476,0.000235163,-5.527e-05,-0.000909436,0.0010109,-0.00083101,-0.706228,0.00106512,0.014104,1420,1744,4.27824,-14.4476
203,-720,4.27075,14.3722,0.000408248,0.000586475,-0.00129287,0.0017933,-0.000798579,-0.819807,0.00153272,0.0168637,1427,1744,4.27077,-14.3722
210,-720,4.27698,14.3339,0.000496884,0.000731385,-0.00159967,0.00221809,-0.000989822,-0.821981,0.0018968,0.014096,1434,1744,4.27697,-14.3338
217,-720,4.2738,14.2736,0.000639189,0.000722451,-0.0019285,0.00260977,-0.00124813,-0.79619,0.00227314,0.0126212,1441,1744,4.2738,-14.2735
224,-720,4.24902,14.1962,0.00082676,0.000769973,-0.00225502,0.00305357,-0.00145684,-0.779103,0.00265792,0.0093039,1448,1744,4.24905,-14.1961
231,-720,4.25757,14.1211,0.000995146,0.000840309,-0.00252798,0.00344689,-0.00161144,-0.770091,0.00298383,0.00903026,1455,1744,4.25751,-14.1211
238,-720,4.24756,14.0527,0.00122296,0.000922792,-0.00278087,0.00385779,-0.00171204,-0.758439,0.00329433,0.00805967,1462,1744,4.24754,-14.0527
245,-720,4.24878,14.0049,0.00144208,0.00103884,-0.00299894,0.00424617,-0.00176524,-0.751833,0.00356785,0.0105147,1469,1744,4.24882,-14.0048
252,-720,4.25659,13.9321,0.00159274,0.0011567,-0.00317203,0.00455423,-0.0018048,-0.751086,0.00378405,0.0114119,1476,1744,4.25655,-13.9321
259,-720,4.26636,13.8586,0.00185574,0.00156459,-0.00327767,0.00499106,-0.00157074,-0.763206,0.00395629,0.0104657,1483,1744,4.26635,-13.8586
266,-720,4.25024,13.8032,0.00219266,0.00205094,-0.00348785,0.00561036,-0.00136677,-0.775242,0.00426939,0.00837466,1490,1744,4.25018,-13.8033
273,-720,4.22632,13.7012,0.00252228,0.00273277,-0.00375614,0.00638514,-0.00113008,-0.799405,0.00467916,0.0135926,1497,1744,4.22632,-13.7012
280,-720,4.19153,13.5834,0.00266358,0.00344945,-0.00372639,0.00680356,-0.000690532,-0.837928,0.00478253,0.0184524,1504,1744,4.19148,-13.5834
287,-720,4.20032,13.4631,0.00274871,0.00369233,-0.00339336,0.00664652,-0.000205486,-0.854475,0.00450107,0.0289347,1511,1744,4.20026,-13.4631
294,-720,4.23157,13.3457,0.00291509,0.00449936,-0.00338926,0.00718782,0.000226628,-0.900197,0.00471815,0.0343415,1518,1744,4.23157,-13.3457
301,-720,4.22705,13.2775,0.00267791,0.00526126,-0.003125,0.00735102,0.000588157,-0.981373,0.00471687,0.0352167,1525,1744,4.227,-13.2775
308,-720,4.1864,13.141,0.00328136,0.00487198,-0.000857808,0.00524643,0.0029069,-1.1592,0.00303493,0.0354081,1532,1744,4.18644,-13.141
315,-720,4.21643,12.9899,0.00484629,0.00373149,0.00135171,0.00575102,0.00282677,0.589837,0.00332051,0.0410771,1539,1744,4.21646,-12.9899
322,-720,4.39368,12.7998,0.00663375,0.00358129,0.00406409,0.00944874,0.000766296,0.605776,0.0060599,0.0498602,1546,1744,4.39364,-12.7998
329,-720,4.55383,12.9396,0,0,0,0,0,0,0,-1,1553,1744,4.55381,-12.9395
336,-720,3.81799,13.2739,0,0,0,0,0,0,0,-1,1560,1744,3.81801,-13.2739
343,-720,4.30798,12.6987,0,0,0,0,0,0,0,-1,1567,1744,4.30793,-12.6987
350,-720,4.0741,11.1836,0,0,0,0,0,0,0,-1,1574,1744,4.07412,-11.1836
357,-720,2.4635,13.1123,0,0,0,0,0,0,0,-1,1581,1744,2.46348,-13.1123
364,-720,3.36047,13.5446,0,0,0,0,0,0,0,-1,1588,1744,3.36049,-13.5446
371,-720,3.85864,13.2316,0,0,0,0,0,0,0,-1,1595,1744,3.85864,-13.2315
378,-720,3.94983,12.9945,0,0,0,0,0,0,0,-1,1602,1744,3.9498,-12.9944
385,-720,4.0564,13.0907,0,0,0,0,0,0,0,-1,1609,1744,4.05637,-13.0907
392,-720,0.0194092,12.0704,0,0,0,0,0,0,0,-1,1616,1744,0.019362,-12.0704
399,-720,-0.525269,12.6698,0,0,0,0,0,0,0,-1,1623,1744,-0.525208,-12.6698
406,-720,0,0,0,0,0,0,0,0,0,-1,1630,1744,0,0
413,-720,0,0,0,0,0,0,0,0,0,-1,1637,1744,0,0
420,-720,0,0,0,0,0,0,0,0,0,-1,1644,1744,0,0
427,-720,0,0,0,0,0,0,0,0,0,-1,1651,1744,0,0
434,-720,0,0,0,0,0,0,0,0,0,-1,1658,1744,0,0
441,-720,0,0,0,0,0,0,0,0,0,-1,1665,1744,0,0
448,-720,0,0,0,0,0,0,0,0,0,-1,1672,1744,0,0
455,-720,0,0,0,0,0,0,0,0,0,-1,1679,1744,0,0
462,-720,0,0,0,0,0,0,0,0,0,-1,1686,1744,0,0
469,-720,0,0,0,0,0,0,0,0,0,-1,1693,1744,0,0
476,-720,0,0,0,0,0,0,0,0,0,-1,1700,1744,0,0
483,-720,0,0,0,0,0,0,0,0,0,-1,1707,1744,0,0
490,-720,0,0,0,0,0,0,0,0,0,-1,1714,1744,0,0
497,-720,0,0,0,0,0,0,0,0,0,-1,1721,1744,0,0
504,-720,0,0,0,0,0,0,0,0,0,-1,1728,1744,0,0
511,-720,0,0,0,0,0,0,0,0,0,-1,1735,1744,0,0
518,-720,0,0,0,0,0,0,0,0,0,-1,1742,1744,0,0
525,-720,0,0,0,0,0,0,0,0,0,-1,1749,1744,0,0
532,-720,0,0,0,0,0,0,0,0,0,-1,1756,1744,0,0
539,-720,0,0,0,0,0,0,0,0,0,-1,1763,1744,0,0
546,-720,0,0,0,0,0,0,0,0,0,-1,1770,1744,0,0
553,-720,0,0,0,0,0,0,0,0,0,-1,1777,1744,0,0
560,-720,0,0,0,0,0,0,0,0,0,-1,1784,1744,0,0
567,-720,0,0,0,0,0,0,0,0,0,-1,1791,1744,0,0
574,-720,0,0,0,0,0,0,0,0,0,-1,1798,1744,0,0
581,-720,0,0,0,0,0,0,0,0,0,-1,1805,1744,0,0
588,-720,0,0,0,0,0,0,0,0,0,-1,1812,1744,0,0
595,-720,0,0,0,0,0,0,0,0,0,-1,1819,1744,0,0
602,-720,0,0,0,0,0,0,0,0,0,-1,1826,1744,0,0
609,-720,0,0,0,0,0,0,0,0,0,-1,1833,1744,0,0
616,-720,0,0,0,0,0,0,0,0,0,-1,1840,1744,0,0
623,-720,0,0,0,0,0,0,0,0,0,-1,1847,1744,0,0
630,-720,0,0,0,0,0,0,0,0,0,-1,1854,1744,0,0
637,-720,0,0,0,0,0,0,0,0,0,-1,1861,1744,0,0
644,-720,0,0,0,0,0,0,0,0,0,-1,1868,1744,0,0
651,-720,0,0,0,0,0,0,0,0,0,-1,1875,1744,0,0
658,-720,0,0,0,0,0,0,0,0,0,-1,1882,1744,0,0
665,-720,0,0,0,0,0,0,0,0,0,-1,1889,1744,0,0
672,-720,0,0,0,0,0,0,0,0,0,-1,1896,1744,0,0
679,-720,0,0,0,0,0,0,0,0,0,-1,1903,1744,0,0
686,-720,0,0,0,0,0,0,0,0,0,-1,1910,1744,0,0
693,-720,0,0,0,0,0,0,0,0,0,-1,1917,1744,0,0
700,-720,0,0,0,0,0,0,0,0,0,-1,1924,1744,0,0
707,-720,0,0,0,0,0,0,0,0,0,-1,1931,1744,0,0
714,-720,0,0,0,0,0,0,0,0,0,-1,1938,1744,0,0
721,-720,0,0,0,0,0,0,0,0,0,-1,1945,1744,0,0
728,-720,0,0,0,0,0,0,0,0,0,-1,1952,1744,0,0
735,-720,0,0,0,0,0,0,0,0,0,-1,1959,1744,0,0
742,-720,0,0,0,0,0,0,0,0,0,-1,1966,1744,0,0
749,-720,0,0,0,0,0,0,0,0,0,-1,1973,1744,0,0
756,-720,0,0,0,0,0,0,0,0,0,-1,1980,1744,0,0
763,-720,0,0,0,0,0,0,0,0,0,-1,1987,1744,0,0
770,-720,0,0,0,0,0,0,0,0,0,-1,1994,1744,0,0
777,-720,0,0,0,0,0,0,0,0,0,-1,2001,1744,0,0
784,-720,0,0,0,0,0,0,0,0,0,-1,2008,1744,0,0
791,-720,0,0,0,0,0,0,0,0,0,-1,2015,1744,0,0
798,-720,0,0,0,0,0,0,0,0,0,-1,2022,1744,0,0
805,-720,0,0,0,0,0,0,0,0,0,-1,2029,1744,0,0
812,-720,0,0,0,0,0,0,0,0,0,-1,2036,1744,0,0
-700,-727,0,0,0,0,0,0,0,0,0,-1,524,1751,0,0
-693,-727,0,0,0,0,0,0,0,0,0,-1,531,1751,0,0
-686,-727,0,0,0,0,0,0,0,0,0,-1,538,1751,0,0
-679,-727,0,0,0,0,0,0,0,0,0,-1,545,1751,0,0
-672,-727,0,0,0,0,0,0,0,0,0,-1,552,1751,0,0
-665,-727,0,0,0,0,0,0,0,0,0,-1,559,1751,0,0
-658,-727,0,0,0,0,0,0,0,0,0,-1,566,1751,0,0
-651,-727,0,0,0,0,0,0,0,0,0,-1,573,1751,0,0
-644,-727,0,0,0,0,0,0,0,0,0,-1,580,1751,0,0
-637,-727,0,0,0,0,0,0,0,0,0,-1,587,1751,0,0
-630,-727,0,0,0,0,0,0,0,0,0,-1,594,1751,0,0
-623,-727,0,0,0,0,0,0,0,0,0,-1,601,1751,0,0
-616,-727,0,0,0,0,0,0,0,0,0,-1,608,1751,0,0
-609,-727,0,0,0,0,0,0,0,0,0,-1,615,1751,0,0
-602,-727,0,0,0,0,0,0,0,0,0,-1,622,1751,0,0
-595,-727,0,0,0,0,0,0,0,0,0,-1,629,1751,0,0
-588,-727,0,0,0,0,0,0,0,0,0,-1,636,1751,0,0
-581,-727,0,0,0,0,0,0,0,0,0,-1,643,1751,0,0
-574,-727,0,0,0,0,0,0,0,0,0,-1,650,1751,0,0
-567,-727,0,0,0,0,0,0,0,0,0,-1,657,1751,0,0
-560,-727,0,0,0,0,0,0,0,0,0,-1,664,1751,0,0
-553,-727,0,0,0,0,0,0,0,0,0,-1,671,1751,0,0
-546,-727,0,0,0,0,0,0,0,0,0,-1,678,1751,0,0
-539,-727,0,0,0,0,0,0,0,0,0,-1,685,1751,0,0
-532,-727,0,0,0,0,0,0,0,0,0,-1,692,1751,0,0
-525,-727,0,0,0,0,0,0,0,0,0,-1,699,1751,0,0
-518,-727,0,0,0,0,0,0,0,0,0,-1,706,1751,0,0
-511,-727,0,0,0,0,0,0,0,0,0,-1,713,1751,0,0
-504,-727,0,0,0,0,0,0,0,0,0,-1,720,1751,0,0
-497,-727,0,0,0,0,0,0,0,0,0,-1,727,1751,0,0
-490,-727,0,0,0,0,0,0,0,0,0,-1,734,1751,0,0
-483,-727,0,0,0,0,0,0,0,0,0,-1,741,1751,0,0
-476,-727,0,0,0,0,0,0,0,0,0,-1,748,1751,0,0
-469,-727,0,0,0,0,0,0,0,0,0,-1,755,1751,0,0
-462,-727,0,0,0,0,0,0,0,0,0,-1,762,1751,0,0
-455,-727,0,0,0,0,0,0,0,0,0,-1,769,1751,0,0
-448,-727,0,0,0,0,0,0,0,0,0,-1,776,1751,0,0
-441,-727,0,0,0,0,0,0,0,0,0,-1,783,1751,0,0
-434,-727,0,0,0,0,0,0,0,0,0,-1,790,1751,0,0
-427,-727,0,0,0,0,0,0,0,0,0,-1,797,1751,0,0
-420,-727,0,0,0,0,0,0,0,0,0,-1,804,1751,0,0
-413,-727,0,0,0,0,0,0,0,0,0,-1,811,1751,0,0
-406,-727,0,0,0,0,0,0,0,0,0,-1,818,1751,0,0
-399,-727,0,0,0,0,0,0,0,0,0,-1,825,1751,0,0
-392,-727,0,0,0,0,0,0,0,0,0,-1,832,1751,0,0
-385,-727,0,0,0,0,0,0,0,0,0,-1,839,1751,0,0
-378,-727,0,0,0,0,0,0,0,0,0,-1,846,1751,0,0
-371,-727,0,0,0,0,0,0,0,0,0,-1,853,1751,0,0
-364,-727,0,0,0,0,0,0,0,0,0,-1,860,1751,0,0
-357,-727,0,0,0,0,0,0,0,0,0,-1,867,1751,0,0
-350,-727,0,0,0,0,0,0,0,0,0,-1,874,1751,0,0
-343,-727,0,0,0,0,0,0,0,0,0,-1,881,1751,0,0
-336,-727,0,0,0,0,0,0,0,0,0,-1,888,1751,0,0
-329,-727,0,0,0,0,0,0,0,0,0,-1,895,1751,0,0
-322,-727,0,0,0,0,0,0,0,0,0,-1,902,1751,0,0
-315,-727,0,0,0,0,0,0,0,0,0,-1,909,1751,0,0
-308,-727,0,0,0,0,0,0,0,0,0,-1,916,1751,0,0
-301,-727,0,0,0,0,0,0,0,0,0,-1,923,1751,0,0
-294,-727,0,0,0,0,0,0,0,0,0,-1,930,1751,0,0
-287,-727,0,0,0,0,0,0,0,0,0,-1,937,1751,0,0
-280,-727,0,0,0,0,0,0,0,0,0,-1,944,1751,0,0
-273,-727,0,0,0,0,0,0,0,0,0,-1,951,1751,0,0
-266,-727,4.24805,7.61145,0,0,0,0,0,0,0,-1,958,1751,4.24802,-7.6115
-259,-727,3.65228,5.4082,0,0,0,0,0,0,0,-1,965,1751,3.65229,-5.40818
-252,-727,7.05829,12.9366,0,0,0,0,0,0,0,-1,972,1751,7.0583,-12.9366
-245,-727,5.67279,14.0586,0,0,0,0,0,0,0,-1,979,1751,5.67278,-14.0586
-238,-727,5.31787,14.0461,-0.0403951,0.00899521,0.01207,0.0117871,-0.0431869,1.34349,0.0334205,0.0497633,986,1751,5.31787,-14.0461
-231,-727,5.17004,13.7301,-0.0423625,0.00322437,0.0119853,0.00618336,-0.0453215,1.32875,0.0324723,0.0492823,993,1751,5.17007,-13.7301
-224,-727,5.19128,13.5842,-0.0440775,-0.00200108,0.0121038,0.00123224,-0.0473109,1.30976,0.0319592,0.0491179,1000,1751,5.19126,-13.5843
-217,-727,5.07068,13.5989,-0.0456546,-0.00632311,0.0125583,-0.00265538,-0.0493224,1.28664,0.0320332,0.0496583,1007,1751,5.07068,-13.5989
-210,-727,3.69531,13.0624,-0.0458514,-0.0093042,0.013228,-0.00501886,-0.0501367,1.25751,0.0318835,0.0473999,1014,1751,3.6953,-13.0624
-203,-727,2.60638,12.6091,0,0,0,0,0,0,0,-1,1021,1751,2.6064,-12.6092
-196,-727,4.14832,12.3436,0,0,0,0,0,0,0,-1,1028,1751,4.14832,-12.3436
-189,-727,3.70801,12.5876,0,0,0,0,0,0,0,-1,1035,1751,3.70801,-12.5876
-182,-727,3.82349,12.9348,0,0,0,0,0,0,0,-1,1042,1751,3.82349,-12.9348
-175,-727,4.44202,12.9232,0,0,0,0,0,0,0,-1,1049,1751,4.44196,-12.9232
-168,-727,4.92737,12.8336,0,0,0,0,0,0,0,-1,1056,1751,4.92733,-12.8336
-161,-727,4.28931,12.8875,0,0,0,0,0,0,0,-1,1063,1751,4.28936,-12.8875
-154,-727,4.16956,12.5944,-0.00107645,0.00249947,0.000843128,0.00268829,-0.00126527,1.35048,0.00233135,0.044502,1070,1751,4.16957,-12.5944
-147,-727,4.26953,13.0535,9.25793e-05,0.00328174,-0.000999883,0.0035693,-0.000194981,-1.29076,0.00244712,0.0389382,1077,1751,4.26948,-13.0535
-140,-727,4.24683,13.0879,-0.000776983,0.00380483,-0.0018056,0.00443084,-0.001403,-1.23706,0.00351614,0.0252582,1084,1751,4.24689,-13.0879
-133,-727,4.31873,13.1891,-0.00150682,0.00404417,-0.00221615,0.00482039,-0.00228304,-1.23389,0.00418748,0.0184211,1091,1751,4.31867,-13.1891
-126,-727,4.24622,13.3181,-0.00190955,0.00399131,-0.00212437,0.00467654,-0.00259477,-1.25878,0.00425506,0.0135343,1098,1751,4.24618,-13.3181
-119,-727,4.25012,13.4663,-0.00199547,0.00361965,-0.0016658,0.00407664,-0.00245246,-1.30305,0.00380826,0.0117879,1105,1751,4.25017,-13.4663
-112,-727,4.26282,13.5549,-0.00162787,0.00312357,-0.00118002,0.00340049,-0.00190479,-1.34029,0.00310332,0.0130458,1112,1751,4.26285,-13.5549
-105,-727,4.25183,13.6541,-0.00121963,0.00271823,-0.000865296,0.00289998,-0.00140138,-1.36376,0.00253313,0.0131181,1119,1751,4.25178,-13.654
-98,-727,4.26355,13.7321,-0.00100891,0.00223204,-0.000722126,0.00238566,-0.00116253,-1.36119,0.00208872,0.0109779,1126,1751,4.2635,-13.732
-91,-727,4.26782,13.8171,-0.000783144,0.00209818,-0.00050477,0.00218405,-0.000869014,-1.40229,0.00181637,0.0104451,1133,1751,4.26778,-13.8171
-84,-727,4.24707,13.9045,-0.000546307,0.00211489,-0.000236408,0.00213573,-0.000567145,-1.48288,0.00164577,0.0107322,1140,1751,4.24705,-13.9045
-77,-727,4.24109,13.9948,-0.000288668,0.00182065,0.000160933,0.00183286,-0.000300876,1.49508,0.00133356,0.0112411,1147,1751,4.2411,-13.9948
-70,-727,4.24072,14.0762,1.58803e-05,0.000954304,0.00023052,0.00100787,-3.76882e-05,1.34247,0.000684824,0.0128232,1154,1751,4.24068,-14.0761
-63,-727,4.23596,14.131,1.39919e-05,0.00075493,-0.000120447,0.000774018,-5.09628e-06,-1.41363,0.000517719,0.0107308,1161,1751,4.23602,-14.131
-56,-727,4.22827,14.1946,-0.000221369,0.000720455,-0.000245241,0.000780486,-0.0002814,-1.33073,0.000635251,0.00984082,1168,1751,4.22821,-14.1945
-49,-727,4.22656,14.2598,-0.000858073,0.000725339,-0.00026637,0.000768948,-0.000901682,-1.40852,0.000965553,0.0128914,1175,1751,4.2266,-14.2598
-42,-727,4.22534,14.3158,-0.0011816,0.00061227,2.56631e-05,0.000612637,-0.00118197,1.55649,0.00105335,0.016742,1182,1751,4.22529,-14.3158
-35,-727,4.21252,14.3567,-0.000987387,0.000244117,0.00037486,0.000349246,-0.00109252,1.29737,0.000868491,0.0151467,1189,1751,4.21251,-14.3567
-28,-727,4.22205,14.4043,-0.000633676,-7.97081e-05,0.000482874,0.000199983,-0.000913367,1.04579,0.000685368,0.00871676,1196,1751,4.22206,-14.4042
-21,-727,4.2157,14.4735,-0.000474306,-0.000569703,0.000746758,0.000226276,-0.00127028,0.753505,0.000931488,0.0100445,1203,1751,4.21565,-14.4735
-14,-727,4.2218,14.5092,-0.000361923,-0.00119583,0.00116121,0.000454923,-0.00201267,0.613034,0.00151634,0.0116131,1210,1751,4.22175,-14.5091
-7,-727,4.24915,14.568,-0.000300831,-0.00172223,0.00159811,0.000737484,-0.00276055,0.576174,0.0021292,0.0150132,1217,1751,4.24913,-14.568
0,-727,4.25464,14.6223,-0.000300609,-0.00231557,0.00196435,0.00089955,-0.00351573,0.548447,0.0026942,0.0146627,1224,1751,4.25458,-14.6223
7,-727,4.23389,14.6295,-0.000330554,-0.00273405,0.0022748,0.00104042,-0.00410503,0.542388,0.00314146,0.0138666,1231,1751,4.23389,-14.6295
14,-727,4.23438,14.673,-0.000361527,-0.00308094,0.00238804,0.00102677,-0.00446924,0.526597,0.00337423,0.0143068,1238,1751,4.23434,-14.6729
21,-727,4.23047,14.7372,-0.000388706,-0.00337604,0.00229196,0.000853341,-0.00461809,0.496614,0.00339907,0.0123395,1245,1751,4.23047,-14.7372
28,-727,4.22949,14.7555,-0.000344469,-0.00333246,0.00210717,0.000744597,-0.00442153,0.477026,0.00322467,0.0109324,1252,1751,4.22951,-14.7555
35,-727,4.24097,14.7723,-0.000196749,-0.00321771,0.0017686,0.000618605,-0.00403306,0.431977,0.00291686,0.0118486,1259,1751,4.24101,-14.7723
42,-727,4.22192,14.7787,-5.74063e-05,-0.00278324,0.00123879,0.000421453,-0.0032621,0.368862,0.00232797,0.012569,1266,1751,4.22187,-14.7787
49,-727,4.2041,14.7948,6.23463e-05,-0.00212151,0.000512306,0.000176554,-0.00223572,0.219343,0.00155268,0.0111905,1273,1751,4.2041,-14.7948
56,-727,4.20325,14.8501,0.000396738,-0.00160447,-0.000218683,0.000420356,-0.00162809,-0.107584,0.00124931,0.00925047,1280,1751,4.2033,-14.8501
63,-727,4.21802,14.8448,0.000662348,-0.000934273,-0.000965232,0.00111662,-0.00138855,-0.439884,0.0014492,0.0111854,1287,1751,4.21805,-14.8448
70,-727,4.22778,14.8407,0.000695425,-0.00019906,-0.00158452,0.00189461,-0.00139824,-0.647848,0.00190832,0.0133603,1294,1751,4.22782,-14.8407
77,-727,4.24219,14.8577,0.00078823,0.000496637,-0.00204686,0.00269448,-0.00140961,-0.749843,0.00240789,0.0157919,1301,1751,4.2422,-14.8577
84,-727,4.23865,14.8406,0.000954602,0.000999892,-0.00234749,0.00332485,-0.00137035,-0.790221,0.00278797,0.0159238,1308,1751,4.23868,-14.8405
91,-727,4.24744,14.819,0.000924953,0.00119241,-0.00242332,0.00348569,-0.00136833,-0.812963,0.00288998,0.016179,1315,1751,4.24747,-14.819
98,-727,4.24487,14.8389,0.000804573,0.00100876,-0.00238452,0.00329337,-0.00148003,-0.806793,0.00282143,0.0133744,1322,1751,4.2449,-14.8389
105,-727,4.24487,14.8458,0.000704582,0.000856404,-0.00217982,0.00296163,-0.00140065,-0.802803,0.00257175,0.0126044,1329,1751,4.24486,-14.8458
112,-727,4.25452,14.8296,0.000518576,0.000476439,-0.00186911,0.00236674,-0.00137172,-0.779762,0.00218374,0.0114328,1336,1751,4.25447,-14.8296
119,-727,4.25098,14.8241,0.000276448,-7.77617e-05,-0.00143855,0.00154876,-0.00135007,-0.72415,0.00167495,0.00919591,1343,1751,4.25097,-14.824
126,-727,4.25488,14.7894,6.97938e-05,-0.000632167,-0.000974124,0.000754239,-0.00131661,-0.612486,0.00121021,0.0098245,1350,1751,4.25492,-14.7894
133,-727,4.24719,14.7726,-0.000145735,-0.00119259,-0.000578944,0.00011132,-0.00144964,-0.417859,0.00100559,0.0141937,1357,1751,4.24724,-14.7726
140,-727,4.24854,14.7683,-0.000309393,-0.00138782,-0.000242666,-0.000257304,-0.00143991,-0.211443,0.000886703,0.0211249,1364,1751,4.24852,-14.7683
147,-727,4.2522,14.7468,-0.000354256,-0.00141553,-1.16519e-05,-0.000354128,-0.00141566,-0.0109774,0.000850664,0.0190874,1371,1751,4.2522,-14.7469
154,-727,4.24365,14.6906,-0.000354295,-0.00125954,0.000108593,-0.000341451,-0.00127238,0.117735,0.000760436,0.0127159,1378,1751,4.24365,-14.6906
161,-727,4.23816,14.6622,-0.000303418,-0.000764702,3.63031e-05,-0.000300579,-0.000767542,0.0780597,0.000446597,0.00964658,1385,1751,4.23815,-14.6622
168,-727,4.22571,14.6338,-0.00023309,-0.000592098,-0.000149797,-0.000178797,-0.000646391,-0.347715,0.00038541,0.0118258,1392,1751,4.22574,-14.6338
175,-727,4.23914,14.573,-0.000132706,-0.000659435,-0.000363851,5.30931e-05,-0.000845235,-0.472129,0.000581995,0.0172852,1399,1751,4.23918,-14.5729
182,-727,4.23511,14.5366,-5.06467e-05,-0.000382784,-0.000711145,0.000513563,-0.000946993,-0.670692,0.00085554,0.0194179,1406,1751,4.23514,-14.5366
189,-727,4.21912,14.5071,6.64273e-05,-0.000322264,-0.00109879,0.000987923,-0.00124376,-0.697867,0.00129128,0.0116984,1413,1751,4.21911,-14.507
196,-727,4.22144,14.4475,0.000191135,8.50773e-05,-0.00167155,0.0018105,-0.00153429,-0.769541,0.00193331,0.0127783,1420,1751,4.22148,-14.4475
203,-727,4.20837,14.3645,0.000353974,0.000819373,-0.0022776,0.00287613,-0.00170278,-0.836306,0.00267241,0.0162452,1427,1751,4.20838,-14.3646
210,-727,4.20459,14.3246,0.00055733,0.00110879,-0.00267632,0.00352354,-0.00185742,-0.83673,0.00315595,0.0153858,1434,1751,4.20457,-14.3246
217,-727,4.19482,14.2703,0.000824143,0.00117941,-0.00308245,0.00408935,-0.00208579,-0.81418,0.00362723,0.011677,1441,1751,4.19481,-14.2702
224,-727,4.17163,14.1663,0.00108716,0.00131092,-0.00350926,0.00471008,-0.002312,-0.801333,0.00413225,0.0125109,1448,1751,4.17161,-14.1662
231,-727,4.18811,14.1067,0.00132984,0.00144436,-0.00385675,0.00524427,-0.00247008,-0.792821,0.00454887,0.00963791,1455,1751,4.18813,-14.1066
238,-727,4.19189,14.0457,0.00164723,0.00156244,-0.00416191,0.00576696,-0.00255729,-0.780305,0.00492366,0.0097067,1462,1751,4.19186,-14.0457
245,-727,4.18433,13.9845,0.00196268,0.00170445,-0.00441438,0.00624983,-0.00258271,-0.770778,0.00524393,0.0098833,1469,1751,4.18432,-13.9845
252,-727,4.17664,13.9131,0.00220437,0.00180475,-0.00460327,0.00661216,-0.00260304,-0.763709,0.00548567,0.0109344,1476,1751,4.17668,-13.9131
259,-727,4.19922,13.8276,0.00258199,0.00227008,-0.00468473,0.00711336,-0.00226129,-0.768759,0.00564894,0.0143416,1483,1751,4.19923,-13.8276
266,-727,4.24951,13.8035,0.00306088,0.00285708,-0.00490329,0.00786333,-0.00194537,-0.775008,0.00599679,0.0212337,1490,1751,4.24949,-13.8035
273,-727,4.32227,13.7555,0.00357166,0.0036505,-0.00517872,0.00878995,-0.00156779,-0.789204,0.00644642,0.0376148,1497,1751,4.32222,-13.7555
280,-727,4.20569,13.662,0,0,0,0,0,0,0,-1,1504,1751,4.20574,-13.6619
287,-727,4.11853,13.455,0,0,0,0,0,0,0,-1,1511,1751,4.11854,-13.455
294,-727,4.14478,13.3209,0,0,0,0,0,0,0,-1,1518,1751,4.1448,-13.3209
301,-727,4.23279,13.316,0,0,0,0,0,0,0,-1,1525,1751,4.23282,-13.316
308,-727,4.1593,12.9739,0.00520674,0.00641176,-0.00131234,0.00725329,0.00436521,-1.0006,0.00421653,0.0479736,1532,1751,4.15933,-12.9739
315,-727,4.26709,12.9067,0.00726287,0.00537769,0.00142185,0.00802619,0.00461438,0.492691,0.00465123,0.0464108,1539,1751,4.26704,-12.9067
322,-727,4.33435,13.1305,0,0,0,0,0,0,0,-1,1546,1751,4.33431,-13.1305
329,-727,6.61853,11.6267,0,0,0,0,0,0,0,-1,1553,1751,6.61859,-11.6267
336,-727,3.34875,7.61792,0,0,0,0,0,0,0,-1,1560,1751,3.34872,-7.61791
343,-727,2.41699,8.72095,0,0,0,0,0,0,0,-1,1567,1751,2.41702,-8.72098
350,-727,3.89783,7.50195,0,0,0,0,0,0,0,-1,1574,1751,3.89782,-7.50193
357,-727,4.48462,10.2948,0,0,0,0,0,0,0,-1,1581,1751,4.48464,-10.2948
364,-727,4.47852,11.4702,0,0,0,0,0,0,0,-1,1588,1751,4.47846,-11.4703
371,-727,4.24622,12.5217,0,0,0,0,0,0,0,-1,1595,1751,4.24625,-12.5218
378,-727,3.90942,13.2122,0,0,0,0,0,0,0,-1,1602,1751,3.90946,-13.2121
385,-727,3.59998,13.9175,0,0,0,0,0,0,0,-1,1609,1751,3.59997,-13.9175
392,-727,0,0,0,0,0,0,0,0,0,-1,1616,1751,0,0
399,-727,0,0,0,0,0,0,0,0,0,-1,1623,1751,0,0
406,-727,0,0,0,0,0,0,0,0,0,-1,1630,1751,0,0
413,-727,0,0,0,0,0,0,0,0,0,-1,1637,1751,0,0
420,-727,0,0,0,0,0,0,0,0,0,-1,1644,1751,0,0
427,-727,0,0,0,0,0,0,0,0,0,-1,1651,1751,0,0
434,-727,0,0,0,0,0,0,0,0,0,-1,1658,1751,0,0
441,-727,0,0,0,0,0,0,0,0,0,-1,1665,1751,0,0
448,-727,0,0,0,0,0,0,0,0,0,-1,1672,1751,0,0
455,-727,0,0,0,0,0,0,0,0,0,-1,1679,1751,0,0
462,-727,0,0,0,0,0,0,0,0,0,-1,1686,1751,0,0
469,-727,0,0,0,0,0,0,0,0,0,-1,1693,1751,0,0
476,-727,0,0,0,0,0,0,0,0,0,-1,1700,1751,0,0
483,-727,0,0,0,0,0,0,0,0,0,-1,1707,1751,0,0
490,-727,0,0,0,0,0,0,0,0,0,-1,1714,1751,0,0
497,-727,0,0,0,0,0,0,0,0,0,-1,1721,1751,0,0
504,-727,0,0,0,0,0,0,0,0,0,-1,1728,1751,0,0
511,-727,0,0,0,0,0,0,0,0,0,-1,1735,1751,0,0
518,-727,0,0,0,0,0,0,0,0,0,-1,1742,1751,0,0
525,-727,0,0,0,0,0,0,0,0,0,-1,1749,1751,0,0
532,-727,0,0,0,0,0,0,0,0,0,-1,1756,1751,0,0
539,-727,0,0,0,0,0,0,0,0,0,-1,1763,1751,0,0
546,-727,0,0,0,0,0,0,0,0,0,-1,1770,1751,0,0
553,-727,0,0,0,0,0,0,0,0,0,-1,1777,1751,0,0
560,-727,0,0,0,0,0,0,0,0,0,-1,1784,1751,0,0
567,-727,0,0,0,0,0,0,0,0,0,-1,1791,1751,0,0
574,-727,0,0,0,0,0,0,0,0,0,-1,1798,1751,0,0
581,-727,0,0,0,0,0,0,0,0,0,-1,1805,1751,0,0
588,-727,0,0,0,0,0,0,0,0,0,-1,1812,1751,0,0
595,-727,0,0,0,0,0,0,0,0,0,-1,1819,1751,0,0
602,-727,0,0,0,0,0,0,0,0,0,-1,1826,1751,0,0
609,-727,0,0,0,0,0,0,0,0,0,-1,1833,1751,0,0
616,-727,0,0,0,0,0,0,0,0,0,-1,1840,1751,0,0
623,-727,0,0,0,0,0,0,0,0,0,-1,1847,1751,0,0
630,-727,0,0,0,0,0,0,0,0,0,-1,1854,1751,0,0
637,-727,0,0,0,0,0,0,0,0,0,-1,1861,1751,0,0
644,-727,0,0,0,0,0,0,0,0,0,-1,1868,1751,0,0
651,-727,0,0,0,0,0,0,0,0,0,-1,1875,1751,0,0
658,-727,0,0,0,0,0,0,0,0,0,-1,1882,1751,0,0
665,-727,0,0,0,0,0,0,0,0,0,-1,1889,1751,0,0
672,-727,0,0,0,0,0,0,0,0,0,-1,1896,1751,0,0
679,-727,0,0,0,0,0,0,0,0,0,-1,1903,1751,0,0
686,-727,0,0,0,0,0,0,0,0,0,-1,1910,1751,0,0
693,-727,0,0,0,0,0,0,0,0,0,-1,1917,1751,0,0
700,-727,0,0,0,0,0,0,0,0,0,-1,1924,1751,0,0
707,-727,0,0,0,0,0,0,0,0,0,-1,1931,1751,0,0
714,-727,0,0,0,0,0,0,0,0,0,-1,1938,1751,0,0
721,-727,0,0,0,0,0,0,0,0,0,-1,1945,1751,0,0
728,-727,0,0,0,0,0,0,0,0,0,-1,1952,1751,0,0
735,-727,0,0,0,0,0,0,0,0,0,-1,1959,1751,0,0
742,-727,0,0,0,0,0,0,0,0,0,-1,1966,1751,0,0
749,-727,0,0,0,0,0,0,0,0,0,-1,1973,1751,0,0
756,-727,0,0,0,0,0,0,0,0,0,-1,1980,1751,0,0
763,-727,0,0,0,0,0,0,0,0,0,-1,1987,1751,0,0
770,-727,0,0,0,0,0,0,0,0,0,-1,1994,1751,0,0
777,-727,0,0,0,0,0,0,0,0,0,-1,2001,1751,0,0
784,-727,0,0,0,0,0,0,0,0,0,-1,2008,1751,0,0
791,-727,0,0,0,0,0,0,0,0,0,-1,2015,1751,0,0
798,-727,0,0,0,0,0,0,0,0,0,-1,2022,1751,0,0
805,-727,0,0,0,0,0,0,0,0,0,-1,2029,1751,0,0
812,-727,0,0,0,0,0,0,0,0,0,-1,2036,1751,0,0
-700,-734,0,0,0,0,0,0,0,0,0,-1,524,1758,0,0
-693,-734,0,0,0,0,0,0,0,0,0,-1,531,1758,0,0
-686,-734,0,0,0,0,0,0,0,0,0,-1,538,1758,0,0
-679,-734,0,0,0,0,0,0,0,0,0,-1,545,1758,0,0
-672,-734,0,0,0,0,0,0,0,0,0,-1,552,1758,0,0
-665,-734,0,0,0,0,0,0,0,0,0,-1,559,1758,0,0
-658,-734,0,0,0,0,0,0,0,0,0,-1,566,1758,0,0
-651,-734,0,0,0,0,0,0,0,0,0,-1,573,1758,0,0
-644,-734,0,0,0,0,0,0,0,0,0,-1,580,1758,0,0
-637,-734,0,0,0,0,0,0,0,0,0,-1,587,1758,0,0
-630,-734,0,0,0,0,0,0,0,0,0,-1,594,1758,0,0
-623,-734,0,0,0,0,0,0,0,0,0,-1,601,1758,0,0
-616,-734,0,0,0,0,0,0,0,0,0,-1,608,1758,0,0
-609,-734,0,0,0,0,0,0,0,0,0,-1,615,1758,0,0
-602,-734,0,0,0,0,0,0,0,0,0,-1,622,1758,0,0
-595,-734,0,0,0,0,0,0,0,0,0,-1,629,1758,0,0
-588,-734,0,0,0,0,0,0,0,0,0,-1,636,1758,0,0
-581,-734,0,0,0,0,0,0,0,0,0,-1,643,1758,0,0
-574,-734,0,0,0,0,0,0,0,0,0,-1,650,1758,0,0
-567,-734,0,0,0,0,0,0,0,0,0,-1,657,1758,0,0
-560,-734,0,0,0,0,0,0,0,0,0,-1,664,1758,0,0
-553,-734,0,0,0,0,0,0,0,0,0,-1,671,1758,0,0
-546,-734,0,0,0,0,0,0,0,0,0,-1,678,1758,0,0
-539,-734,0,0,0,0,0,0,0,0,0,-1,685,1758,0,0
-532,-734,0,0,0,0,0,0,0,0,0,-1,692,1758,0,0
-525,-734,0,0,0,0,0,0,0,0,0,-1,699,1758,0,0
-518,-734,0,0,0,0,0,0,0,0,0,-1,706,1758,0,0
-511,-734,0,0,0,0,0,0,0,0,0,-1,713,1758,0,0
-504,-734,0,0,0,0,0,0,0,0,0,-1,720,1758,0,0
-497,-734,0,0,0,0,0,0,0,0,0,-1,727,1758,0,0
-490,-734,0,0,0,0,0,0,0,0,0,-1,734,1758,0,0
-483,-734,0,0,0,0,0,0,0,0,0,-1,741,1758,0,0
-476,-734,0,0,0,0,0,0,0,0,0,-1,748,1758,0,0
-469,-734,0,0,0,0,0,0,0,0,0,-1,755,1758,0,0
-462,-734,0,0,0,0,0,0,0,0,0,-1,762,1758,0,0
-455,-734,0,0,0,0,0,0,0,0,0,-1,769,1758,0,0
-448,-734,0,0,0,0,0,0,0,0,0,-1,776,1758,0,0
-441,-734,0,0,0,0,0,0,0,0,0,-1,783,1758,0,0
-434,-734,0,0,0,0,0,0,0,0,0,-1,790,1758,0,0
-427,-734,0,0,0,0,0,0,0,0,0,-1,797,1758,0,0
-420,-734,0,0,0,0,0,0,0,0,0,-1,804,1758,0,0
-413,-734,0,0,0,0,0,0,0,0,0,-1,811,1758,0,0
-406,-734,0,0,0,0,0,0,0,0,0,-1,818,1758,0,0
-399,-734,0,0,0,0,0,0,0,0,0,-1,825,1758,0,0
-392,-734,0,0,0,0,0,0,0,0,0,-1,832,1758,0,0
-385,-734,0,0,0,0,0,0,0,0,0,-1,839,1758,0,0
-378,-734,0,0,0,0,0,0,0,0,0,-1,846,1758,0,0
-371,-734,0,0,0,0,0,0,0,0,0,-1,853,1758,0,0
-364,-734,0,0,0,0,0,0,0,0,0,-1,860,1758,0,0
-357,-734,0,0,0,0,0,0,0,0,0,-1,867,1758,0,0
-350,-734,0,0,0,0,0,0,0,0,0,-1,874,1758,0,0
-343,-734,0,0,0,0,0,0,0,0,0,-1,881,1758,0,0
-336,-734,0,0,0,0,0,0,0,0,0,-1,888,1758,0,0
-329,-734,0,0,0,0,0,0,0,0,0,-1,895,1758,0,0
-322,-734,0,0,0,0,0,0,0,0,0,-1,902,1758,0,0
-315,-734,0,0,0,0,0,0,0,0,0,-1,909,1758,0,0
-308,-734,0,0,0,0,0,0,0,0,0,-1,916,1758,0,0
-301,-734,0,0,0,0,0,0,0,0,0,-1,923,1758,0,0
-294,-734,0,0,0,0,0,0,0,0,0,-1,930,1758,0,0
-287,-734,0,0,0,0,0,0,0,0,0,-1,937,1758,0,0
-280,-734,0,0,0,0,0,0,0,0,0,-1,944,1758,0,0
-273,-734,0,0,0,0,0,0,0,0,0,-1,951,1758,0,0
-266,-734,0,0,0,0,0,0,0,0,0,-1,958,1758,0,0
-259,-734,0,0,0,0,0,0,0,0,0,-1,965,1758,0,0
-252,-734,6.44257,12.0737,0,0,0,0,0,0,0,-1,972,1758,6.44255,-12.0737
-245,-734,5.9212,12.6437,0,0,0,0,0,0,0,-1,979,1758,5.9212,-12.6437
-238,-734,5.40942,12.9744,-0.0514917,0.0225731,0.0168175,0.0262129,-0.0551315,1.35766,0.0479433,0.0467234,986,1758,5.40944,-12.9743
-231,-734,5.14728,13.052,-0.0550937,0.013633,0.0167902,0.0175156,-0.0589763,1.34355,0.0462746,0.0473256,993,1758,5.14725,-13.052
-224,-734,4.96967,13.2018,-0.0586272,0.00572923,0.0174224,0.0101431,-0.0630411,1.32267,0.0457845,0.0466191,1000,1758,4.96966,-13.2017
-217,-734,4.31427,13.1827,-0.0616258,-0.000733258,0.0184905,0.00444172,-0.0668008,1.29791,0.0460859,0.0449517,1007,1758,4.31428,-13.1827
-210,-734,3.39868,13.4318,-0.0622255,-0.00561758,0.0194626,0.00042823,-0.0682713,1.26961,0.0456576,0.047288,1014,1758,3.39871,-13.4318
-203,-734,2.51147,13.6238,0,0,0,0,0,0,0,-1,1021,1758,2.51149,-13.6238
-196,-734,2.77576,13.4458,0,0,0,0,0,0,0,-1,1028,1758,2.77574,-13.4457
-189,-734,2.37512,12.4214,0,0,0,0,0,0,0,-1,1035,1758,2.37514,-12.4214
-182,-734,3.55933,12.9976,0,0,0,0,0,0,0,-1,1042,1758,3.55929,-12.9975
-175,-734,4.53308,12.047,0,0,0,0,0,0,0,-1,1049,1758,4.53303,-12.0469
-168,-734,-0.634521,9.44177,0,0,0,0,0,0,0,-1,1056,1758,-0.63449,-9.4418
-161,-734,3.51257,9.94104,0,0,0,0,0,0,0,-1,1063,1758,3.51257,-9.94101
-154,-734,4.08875,12.2942,0,0,0,0,0,0,0,-1,1070,1758,4.0887,-12.2942
-147,-734,4.55432,13.2977,0,0,0,0,0,0,0,-1,1077,1758,4.55426,-13.2977
-140,-734,4.54333,13.2847,-0.00130465,0.00479692,-0.00296631,0.00600129,-0.00250901,-1.18512,0.00504944,0.04124,1084,1758,4.54329,-13.2846
-133,-734,4.48352,13.245,-0.00222226,0.00493725,-0.00334452,0.00625652,-0.00354153,-1.19508,0.00572884,0.0364277,1091,1758,4.48347,-13.2449
-126,-734,4.3562,13.2358,-0.00269826,0.00476753,-0.00311501,0.00589651,-0.00382724,-1.22309,0.00565622,0.0336591,1098,1758,4.35624,-13.2358
-119,-734,4.28455,13.4514,-0.00271683,0.00424042,-0.0024729,0.00502982,-0.00350623,-1.2618,0.00495439,0.0348869,1105,1758,4.28459,-13.4515
-112,-734,4.3269,13.5111,-0.00221191,0.00362936,-0.00182912,0.00415485,-0.0027374,-1.29104,0.0040072,0.0264839,1112,1758,4.32694,-13.5111
-105,-734,4.32764,13.6198,-0.00168184,0.00309677,-0.00138082,0.00346708,-0.00205214,-1.30878,0.00322124,0.019974,1119,1758,4.32768,-13.6197
-98,-734,4.35999,13.715,-0.00137938,0.00253522,-0.00113384,0.00283991,-0.00168408,-1.30827,0.00264019,0.0166677,1126,1758,4.36002,-13.715
-91,-734,4.36487,13.7792,-0.00107648,0.00229063,-0.000838987,0.0024881,-0.00127395,-1.33964,0.0022094,0.0191145,1133,1758,4.3649,-13.7792
-84,-734,4.31592,13.8766,-0.000775128,0.00220004,-0.000523522,0.00228948,-0.000864561,-1.4016,0.00188191,0.0165968,1140,1758,4.31593,-13.8766
-77,-734,4.30444,13.9822,-0.000466306,0.00171021,2.20344e-05,0.00171043,-0.00046653,1.56067,0.0013235,0.0146426,1147,1758,4.30441,-13.9821
-70,-734,4.28516,14.0223,-9.09018e-05,0.000527409,0.000140889,0.000557999,-0.000121492,1.357,0.000418418,0.0120661,1154,1758,4.28519,-14.0223
-63,-734,4.28906,14.111,-0.000164053,0.000343652,-0.000394436,0.000558863,-0.000379265,-1.07132,0.000544927,0.0117257,1161,1758,4.28903,-14.1109
-56,-734,4.29749,14.1849,-0.00109015,0.000365036,-0.000404078,0.000469711,-0.00119482,-1.31732,0.000990947,0.0110061,1168,1758,4.29746,-14.185
-49,-734,4.29187,14.2667,-0.00276429,0.000496002,-0.000276445,0.000519276,-0.00278756,-1.4868,0.00205347,0.0109522,1175,1758,4.29184,-14.2667
-42,-734,4.27332,14.3352,-0.00383662,0.000486571,0.000338864,0.000512971,-0.00386302,1.49305,0.00276226,0.0123695,1182,1758,4.27336,-14.3352
-35,-734,4.28223,14.3579,-0.00380569,0.000169231,0.000889198,0.000359079,-0.00399554,1.36045,0.00279109,0.0129342,1189,1758,4.28228,-14.3579
-28,-734,4.28687,14.4069,-0.00347137,5.2456e-06,0.000986097,0.000265463,-0.00373159,1.31279,0.00258077,0.00921975,1196,1758,4.28681,-14.4068
-21,-734,4.33472,14.4578,-0.00337504,-0.000311503,0.00121389,0.000111173,-0.00379772,1.23573,0.00256967,0.0150063,1203,1758,4.3347,-14.4578
-14,-734,4.27417,14.5345,-0.00321197,-0.000743571,0.00155333,6.18282e-06,-0.00396172,1.1211,0.00264321,0.0161704,1210,1758,4.27421,-14.5345
-7,-734,4.2876,14.5746,-0.00300175,-0.00111485,0.00185277,2.08521e-05,-0.00413745,1.02089,0.00276528,0.0178652,1217,1758,4.2876,-14.5746
0,-734,4.2832,14.6023,-0.00273683,-0.00156607,0.0020435,-2.57536e-05,-0.00427715,0.924893,0.00284289,0.0172348,1224,1758,4.28315,-14.6023
7,-734,4.25574,14.6248,-0.00244848,-0.00193356,0.00210336,-7.19624e-05,-0.00431008,0.846297,0.0028497,0.012828,1231,1758,4.25579,-14.6248
14,-734,4.24609,14.7042,-0.00214504,-0.00224384,0.00206328,-0.000130564,-0.00425831,0.77343,0.00279637,0.0131209,1238,1758,4.24608,-14.7042
21,-734,4.23682,14.7407,-0.00184822,-0.00257149,0.00181311,-0.000361032,-0.00405868,0.686962,0.00259383,0.0113012,1245,1758,4.2368,-14.7407
28,-734,4.24512,14.7607,-0.00159998,-0.00271615,0.00148085,-0.000575538,-0.00374059,0.605196,0.00232574,0.0105234,1252,1758,4.24512,-14.7607
35,-734,4.25623,14.7869,-0.00122429,-0.00270089,0.00101983,-0.00070357,-0.00322162,0.47209,0.00195587,0.0137344,1259,1758,4.25618,-14.7869
42,-734,4.26563,14.8024,-0.000882088,-0.00248401,0.000437418,-0.00077043,-0.00259566,0.249929,0.0015393,0.0121655,1266,1758,4.26566,-14.8024
49,-734,4.23401,14.8159,-0.000543674,-0.00204133,-0.000381729,-0.00045199,-0.00213301,-0.235716,0.00129785,0.0102856,1273,1758,4.234,-14.8159
56,-734,4.2124,14.8505,-7.54081e-05,-0.0016746,-0.00108024,0.000468976,-0.00221898,-0.466799,0.00165791,0.00945316,1280,1758,4.21244,-14.8505
63,-734,4.22388,14.842,0.000254314,-0.000962161,-0.00186819,0.00161078,-0.00231863,-0.628021,0.00228088,0.0125093,1287,1758,4.22382,-14.842
70,-734,4.224,14.8351,0.000292702,-3.96049e-05,-0.00257228,0.00270419,-0.00245109,-0.753146,0.0029776,0.0131747,1294,1758,4.22406,-14.8351
77,-734,4.23596,14.88,0.000352656,0.000793148,-0.00302423,0.00360514,-0.00245934,-0.821748,0.0035221,0.0176452,1301,1758,4.236,-14.88
84,-734,4.2168,14.8812,0.000522666,0.00160999,-0.00334935,0.00445951,-0.00232685,-0.865856,0.00398208,0.0169459,1308,1758,4.21676,-14.8812
91,-734,4.20947,14.8636,0.000568081,0.00216908,-0.00348761,0.00494687,-0.00220971,-0.898208,0.0042314,0.0172611,1315,1758,4.20945,-14.8637
98,-734,4.23962,14.8687,0.000552074,0.00240551,-0.00349383,0.00509344,-0.00213585,-0.915035,0.00428868,0.0127541,1322,1758,4.23959,-14.8687
105,-734,4.24622,14.8478,0.000493869,0.00267945,-0.00335144,0.00511176,-0.00193845,-0.942996,0.00420564,0.0138017,1329,1758,4.24618,-14.8478
112,-734,4.24133,14.8164,0.000327269,0.00270978,-0.00305209,0.00479486,-0.00175781,-0.971459,0.00391629,0.0126081,1336,1758,4.24139,-14.8164
119,-734,4.22363,14.7977,8.38826e-05,0.00245493,-0.00271712,0.00423389,-0.00169509,-0.991106,0.00352615,0.0132877,1343,1758,4.22369,-14.7977
126,-734,4.24719,14.757,-0.000168647,0.00209915,-0.00224741,0.00348251,-0.00155201,-1.01903,0.00297706,0.0149916,1350,1758,4.24715,-14.7569
133,-734,4.23267,14.7517,-0.000412613,0.00159871,-0.00178895,0.00264529,-0.0014592,-1.04146,0.00240248,0.013616,1357,1758,4.23268,-14.7517
140,-734,4.22217,14.7561,-0.000684815,0.00119236,-0.00136406,0.00190955,-0.00140201,-1.08674,0.0019194,0.0182434,1364,1758,4.22218,-14.7561
147,-734,4.23059,14.7252,-0.000808617,0.00097254,-0.00101661,0.00143349,-0.00126957,-1.1451,0.00156157,0.0139221,1371,1758,4.23057,-14.7252
154,-734,4.22144,14.709,-0.000876482,0.000801061,-0.000668088,0.00103461,-0.00111003,-1.23449,0.00123847,0.0101921,1378,1758,4.22146,-14.709
161,-734,4.20288,14.6791,-0.000774198,0.000899269,-0.000655558,0.00112549,-0.00100042,-1.23851,0.00122811,0.00910903,1385,1758,4.2029,-14.6791
168,-734,4.1665,14.6343,-0.000609057,0.000325776,-0.000694291,0.000695329,-0.00097861,-1.08166,0.000971051,0.0137187,1392,1758,4.16648,-14.6343
175,-734,4.19885,14.5834,-0.000392923,-0.000481818,-0.000778512,0.000342409,-0.00121715,-0.756882,0.000946446,0.0165886,1399,1758,4.19888,-14.5833
182,-734,4.21326,14.5259,-0.000257755,-0.00029483,-0.00121582,0.000939672,-0.00149226,-0.777775,0.0014161,0.015639,1406,1758,4.21323,-14.5258
189,-734,4.18591,14.4913,-4.29586e-05,-0.000476683,-0.00168632,0.00144039,-0.00196003,-0.721449,0.00197086,0.0111538,1413,1758,4.18591,-14.4913
196,-734,4.17688,14.4497,0.000131915,-6.84738e-05,-0.0024536,0.00248736,-0.00242392,-0.764992,0.00283561,0.0113715,1420,1758,4.17686,-14.4497
203,-734,4.17358,14.3873,0.00028911,0.000832647,-0.0032997,0.00387175,-0.00274999,-0.826486,0.00384131,0.0122784,1427,1758,4.17358,-14.3873
210,-734,4.17261,14.3271,0.000593966,0.00124035,-0.00381096,0.0047418,-0.00290748,-0.8277,0.00445844,0.0126328,1434,1758,4.17261,-14.3272
217,-734,4.12915,14.2599,0.000988559,0.00138957,-0.00433044,0.00552414,-0.00314601,-0.808533,0.00506809,0.0106993,1441,1758,4.12919,-14.2598
224,-734,4.14575,14.1869,0.00134018,0.00162762,-0.00488185,0.00636787,-0.00340006,-0.800113,0.00572563,0.0120857,1448,1758,4.14572,-14.1869
231,-734,4.15808,14.1366,0.00167901,0.00184719,-0.00533143,0.00709519,-0.00356899,-0.793283,0.00626816,0.0133363,1455,1758,4.15812,-14.1366
238,-734,4.15771,14.0548,0.00211611,0.00201378,-0.00571262,0.00777779,-0.0036479,-0.78092,0.00673874,0.0163966,1462,1758,4.15775,-14.0548
245,-734,4.16504,13.9369,0.00257138,0.00218342,-0.00602009,0.00840062,-0.00364581,-0.769293,0.00713331,0.0222589,1469,1758,4.165,-13.9369
252,-734,4.14966,13.856,0.00296215,0.00226574,-0.00624693,0.00887057,-0.00364268,-0.757557,0.00743173,0.0277545,1476,1758,4.14962,-13.856
259,-734,4.21838,13.8474,0.00352053,0.00281448,-0.00632938,0.00950671,-0.00317171,-0.757539,0.0076184,0.0376298,1483,1758,4.21843,-13.8474
266,-734,4.30139,13.9734,0.00422126,0.00355886,-0.00659523,0.0104936,-0.00271349,-0.76031,0.00805407,0.0487695,1490,1758,4.30133,-13.9734
273,-734,4.29761,14.168,0,0,0,0,0,0,0,-1,1497,1758,4.29758,-14.168
280,-734,16.6191,7.38013,0,0,0,0,0,0,0,-1,1504,1758,16.6192,-7.38011
287,-734,14.5862,6.93896,0,0,0,0,0,0,0,-1,1511,1758,14.5862,-6.93898
294,-734,4.57043,11.5205,0,0,0,0,0,0,0,-1,1518,1758,4.57042,-11.5205
301,-734,4.67419,11.4003,0,0,0,0,0,0,0,-1,1525,1758,4.67421,-11.4002
308,-734,4.14807,12.7288,0,0,0,0,0,0,0,-1,1532,1758,4.14804,-12.7288
315,-734,4.27441,13.0276,0,0,0,0,0,0,0,-1,1539,1758,4.27444,-13.0276
322,-734,4.17163,11.5508,0,0,0,0,0,0,0,-1,1546,1758,4.17163,-11.5508
329,-734,5.45972,12.4125,0,0,0,0,0,0,0,-1,1553,1758,5.45969,-12.4125
336,-734,5.92188,13.8751,0,0,0,0,0,0,0,-1,1560,1758,5.92183,-13.8751
343,-734,5.54968,5.14221,0,0,0,0,0,0,0,-1,1567,1758,5.54973,-5.14225
350,-734,5.07397,6.73242,0,0,0,0,0,0,0,-1,1574,1758,5.07402,-6.73243
357,-734,5.05542,7.19189,0,0,0,0,0,0,0,-1,1581,1758,5.05541,-7.19184
364,-734,4.43896,10.4904,0,0,0,0,0,0,0,-1,1588,1758,4.43893,-10.4904
371,-734,4.22766,11.9165,0,0,0,0,0,0,0,-1,1595,1758,4.22769,-11.9165
378,-734,0,0,0,0,0,0,0,0,0,-1,1602,1758,0,0
385,-734,0,0,0,0,0,0,0,0,0,-1,1609,1758,0,0
392,-734,0,0,0,0,0,0,0,0,0,-1,1616,1758,0,0
399,-734,0,0,0,0,0,0,0,0,0,-1,1623,1758,0,0
406,-734,0,0,0,0,0,0,0,0,0,-1,1630,1758,0,0
413,-734,0,0,0,0,0,0,0,0,0,-1,1637,1758,0,0
420,-734,0,0,0,0,0,0,0,0,0,-1,1644,1758,0,0
427,-734,0,0,0,0,0,0,0,0,0,-1,1651,1758,0,0
434,-734,0,0,0,0,0,0,0,0,0,-1,1658,1758,0,0
441,-734,0,0,0,0,0,0,0,0,0,-1,1665,1758,0,0
448,-734,0,0,0,0,0,0,0,0,0,-1,1672,1758,0,0
455,-734,0,0,0,0,0,0,0,0,0,-1,1679,1758,0,0
462,-734,0,0,0,0,0,0,0,0,0,-1,1686,1758,0,0
469,-734,0,0,0,0,0,0,0,0,0,-1,1693,1758,0,0
476,-734,0,0,0,0,0,0,0,0,0,-1,1700,1758,0,0
483,-734,0,0,0,0,0,0,0,0,0,-1,1707,1758,0,0
490,-734,0,0,0,0,0,0,0,0,0,-1,1714,1758,0,0
497,-734,0,0,0,0,0,0,0,0,0,-1,1721,1758,0,0
504,-734,0,0,0,0,0,0,0,0,0,-1,1728,1758,0,0
511,-734,0,0,0,0,0,0,0,0,0,-1,1735,1758,0,0
518,-734,0,0,0,0,0,0,0,0,0,-1,1742,1758,0,0
525,-734,0,0,0,0,0,0,0,0,0,-1,1749,1758,0,0
532,-734,0,0,0,0,0,0,0,0,0,-1,1756,1758,0,0
539,-734,0,0,0,0,0,0,0,0,0,-1,1763,1758,0,0
546,-734,0,0,0,0,0,0,0,0,0,-1,1770,1758,0,0
553,-734,0,0,0,0,0,0,0,0,0,-1,1777,1758,0,0
560,-734,0,0,0,0,0,0,0,0,0,-1,1784,1758,0,0
567,-734,0,0,0,0,0,0,0,0,0,-1,1791,1758,0,0
574,-734,0,0,0,0,0,0,0,0,0,-1,1798,1758,0,0
581,-734,0,0,0,0,0,0,0,0,0,-1,1805,1758,0,0
588,-734,0,0,0,0,0,0,0,0,0,-1,1812,1758,0,0
595,-734,0,0,0,0,0,0,0,0,0,-1,1819,1758,0,0
602,-734,0,0,0,0,0,0,0,0,0,-1,1826,1758,0,0
609,-734,0,0,0,0,0,0,0,0,0,-1,1833,1758,0,0
616,-734,0,0,0,0,0,0,0,0,0,-1,1840,1758,0,0
623,-734,0,0,0,0,0,0,0,0,0,-1,1847,1758,0,0
630,-734,0,0,0,0,0,0,0,0,0,-1,1854,1758,0,0
637,-734,0,0,0,0,0,0,0,0,0,-1,1861,1758,0,0
644,-734,0,0,0,0,0,0,0,0,0,-1,1868,1758,0,0
651,-734,0,0,0,0,0,0,0,0,0,-1,1875,1758,0,0
658,-734,0,0,0,0,0,0,0,0,0,-1,1882,1758,0,0
665,-734,0,0,0,0,0,0,0,0,0,-1,1889,1758,0,0
672,-734,0,0,0,0,0,0,0,0,0,-1,1896,1758,0,0
679,-734,0,0,0,0,0,0,0,0,0,-1,1903,1758,0,0
686,-734,0,0,0,0,0,0,0,0,0,-1,1910,1758,0,0
693,-734,0,0,0,0,0,0,0,0,0,-1,1917,1758,0,0
700,-734,0,0,0,0,0,0,0,0,0,-1,1924,1758,0,0
707,-734,0,0,0,0,0,0,0,0,0,-1,1931,1758,0,0
714,-734,0,0,0,0,0,0,0,0,0,-1,1938,1758,0,0
721,-734,0,0,0,0,0,0,0,0,0,-1,1945,1758,0,0
728,-734,0,0,0,0,0,0,0,0,0,-1,1952,1758,0,0
735,-734,0,0,0,0,0,0,0,0,0,-1,1959,1758,0,0
742,-734,0,0,0,0,0,0,0,0,0,-1,1966,1758,0,0
749,-734,0,0,0,0,0,0,0,0,0,-1,1973,1758,0,0
756,-734,0,0,0,0,0,0,0,0,0,-1,1980,1758,0,0
763,-734,0,0,0,0,0,0,0,0,0,-1,1987,1758,0,0
770,-734,0,0,0,0,0,0,0,0,0,-1,1994,1758,0,0
777,-734,0,0,0,0,0,0,0,0,0,-1,2001,1758,0,0
784,-734,0,0,0,0,0,0,0,0,0,-1,2008,1758,0,0
791,-734,0,0,0,0,0,0,0,0,0,-1,2015,1758,0,0
798,-734,0,0,0,0,0,0,0,0,0,-1,2022,1758,0,0
805,-734,0,0,0,0,0,0,0,0,0,-1,2029,1758,0,0
812,-734,0,0,0,0,0,0,0,0,0,-1,2036,1758,0,0
-700,-741,0,0,0,0,0,0,0,0,0,-1,524,1765,0,0
-693,-741,0,0,0,0,0,0,0,0,0,-1,531,1765,0,0
-686,-741,0,0,0,0,0,0,0,0,0,-1,538,1765,0,0
-679,-741,0,0,0,0,0,0,0,0,0,-1,545,1765,0,0
-672,-741,0,0,0,0,0,0,0,0,0,-1,552,1765,0,0
-665,-741,0,0,0,0,0,0,0,0,0,-1,559,1765,0,0
-658,-741,0,0,0,0,0,0,0,0,0,-1,566,1765,0,0
-651,-741,0,0,0,0,0,0,0,0,0,-1,573,1765,0,0
-644,-741,0,0,0,0,0,0,0,0,0,-1,580,1765,0,0
-637,-741,0,0,0,0,0,0,0,0,0,-1,587,1765,0,0
-630,-741,0,0,0,0,0,0,0,0,0,-1,594,1765,0,0
-623,-741,0,0,0,0,0,0,0,0,0,-1,601,1765,0,0
-616,-741,0,0,0,0,0,0,0,0,0,-1,608,1765,0,0
-609,-741,0,0,0,0,0,0,0,0,0,-1,615,1765,0,0
-602,-741,0,0,0,0,0,0,0,0,0,-1,622,1765,0,0
-595,-741,0,0,0,0,0,0,0,0,0,-1,629,1765,0,0
-588,-741,0,0,0,0,0,0,0,0,0,-1,636,1765,0,0
-581,-741,0,0,0,0,0,0,0,0,0,-1,643,1765,0,0
-574,-741,0,0,0,0,0,0,0,0,0,-1,650,1765,0,0
-567,-741,0,0,0,0,0,0,0,0,0,-1,657,1765,0,0
-560,-741,0,0,0,0,0,0,0,0,0,-1,664,1765,0,0
-553,-741,0,0,0,0,0,0,0,0,0,-1,671,1765,0,0
-546,-741,0,0,0,0,0,0,0,0,0,-1,678,1765,0,0
-539,-741,0,0,0,0,0,0,0,0,0,-1,685,1765,0,0
-532,-741,0,0,0,0,0,0,0,0,0,-1,692,1765,0,0
-525,-741,0,0,0,0,0,0,0,0,0,-1,699,1765,0,0
-518,-741,0,0,0,0,0,0,0,0,0,-1,706,1765,0,0
-511,-741,0,0,0,0,0,0,0,0,0,-1,713,1765,0,0
-504,-741,0,0,0,0,0,0,0,0,0,-1,720,1765,0,0
-497,-741,0,0,0,0,0,0,0,0,0,-1,727,1765,0,0
-490,-741,0,0,0,0,0,0,0,0,0,-1,734,1765,0,0
-483,-741,0,0,0,0,0,0,0,0,0,-1,741,1765,0,0
-476,-741,0,0,0,0,0,0,0,0,0,-1,748,1765,0,0
-469,-741,0,0,0,0,0,0,0,0,0,-1,755,1765,0,0
-462,-741,0,0,0,0,0,0,0,0,0,-1,762,1765,0,0
-455,-741,0,0,0,0,0,0,0,0,0,-1,769,1765,0,0
-448,-741,0,0,0,0,0,0,0,0,0,-1,776,1765,0,0
-441,-741,0,0,0,0,0,0,0,0,0,-1,783,1765,0,0
-434,-741,0,0,0,0,0,0,0,0,0,-1,790,1765,0,0
-427,-741,0,0,0,0,0,0,0,0,0,-1,797,1765,0,0
-420,-741,0,0,0,0,0,0,0,0,0,-1,804,1765,0,0
-413,-741,0,0,0,0,0,0,0,0,0,-1,811,1765,0,0
-406,-741,0,0,0,0,0,0,0,0,0,-1,818,1765,0,0
-399,-741,0,0,0,0,0,0,0,0,0,-1,825,1765,0,0
-392,-741,0,0,0,0,0,0,0,0,0,-1,832,1765,0,0
-385,-741,0,0,0,0,0,0,0,0,0,-1,839,1765,0,0
-378,-741,0,0,0,0,0,0,0,0,0,-1,846,1765,0,0
-371,-741,0,0,0,0,0,0,0,0,0,-1,853,1765,0,0
-364,-741,0,0,0,0,0,0,0,0,0,-1,860,1765,0,0
-357,-741,0,0,0,0,0,0,0,0,0,-1,867,1765,0,0
-350,-741,0,0,0,0,0,0,0,0,0,-1,874,1765,0,0
-343,-741,0,0,0,0,0,0,0,0,0,-1,881,1765,0,0
-336,-741,0,0,0,0,0,0,0,0,0,-1,888,1765,0,0
-329,-741,0,0,0,0,0,0,0,0,0,-1,895,1765,0,0
-322,-741,0,0,0,0,0,0,0,0,0,-1,902,1765,0,0
-315,-741,0,0,0,0,0,0,0,0,0,-1,909,1765,0,0
-308,-741,0,0,0,0,0,0,0,0,0,-1,916,1765,0,0
-301,-741,0,0,0,0,0,0,0,0,0,-1,923,1765,0,0
-294,-741,0,0,0,0,0,0,0,0,0,-1,930,1765,0,0
-287,-741,0,0,0,0,0,0,0,0,0,-1,937,1765,0,0
-280,-741,0,0,0,0,0,0,0,0,0,-1,944,1765,0,0
-273,-741,0,0,0,0,0,0,0,0,0,-1,951,1765,0,0
-266,-741,0,0,0,0,0,0,0,0,0,-1,958,1765,0,0
-259,-741,0,0,0,0,0,0,0,0,0,-1,965,1765,0,0
-252,-741,0,0,0,0,0,0,0,0,0,-1,972,1765,0,0
-245,-741,0,0,0,0,0,0,0,0,0,-1,979,1765,0,0
-238,-741,4.83972,11.8755,0,0,0,0,0,0,0,-1,986,1765,4.83972,-11.8754
-231,-741,4.96613,12.3427,0,0,0,0,0,0,0,-1,993,1765,4.96612,-12.3426
-224,-741,4.7652,12.8158,-0.0789351,0.0188042,0.0249665,0.0248123,-0.0849432,1.33464,0.0664618,0.0419369,1000,1765,4.76518,-12.8157
-217,-741,4.00354,13.4521,-0.0842885,0.00989065,0.0272083,0.017186,-0.0915839,1.30883,0.0675176,0.0416338,1007,1765,4.00353,-13.4521
-210,-741,3.0116,13.8497,0,0,0,0,0,0,0,-1,1014,1765,3.01157,-13.8497
-203,-741,2.88354,14.599,0,0,0,0,0,0,0,-1,1021,1765,2.88352,-14.599
-196,-741,2.35596,13.8475,0,0,0,0,0,0,0,-1,1028,1765,2.356,-13.8475
-189,-741,1.97144,12.9907,0,0,0,0,0,0,0,-1,1035,1765,1.97147,-12.9907
-182,-741,1.48218,11.8832,0,0,0,0,0,0,0,-1,1042,1765,1.48213,-11.8832
-175,-741,0.265747,10.8716,0,0,0,0,0,0,0,-1,1049,1765,0.26575,-10.8716
-168,-741,-0.978516,10.1857,0,0,0,0,0,0,0,-1,1056,1765,-0.978468,-10.1857
-161,-741,-2.14868,9.89905,0,0,0,0,0,0,0,-1,1063,1765,-2.14874,-9.89902
-154,-741,2.46143,9.75415,0,0,0,0,0,0,0,-1,1070,1765,2.46145,-9.75416
-147,-741,4.229,9.21167,0,0,0,0,0,0,0,-1,1077,1765,4.22896,-9.21167
-140,-741,4.76721,13.5487,0,0,0,0,0,0,0,-1,1084,1765,4.76719,-13.5487
-133,-741,4.86926,13.2743,-0.00311681,0.00601323,-0.00499171,0.00821257,-0.00531615,-1.15579,0.00787025,0.0486443,1091,1765,4.86929,-13.2743
-126,-741,4.86523,12.7614,-0.00359244,0.00562925,-0.00448796,0.00745282,-0.00541601,-1.18485,0.00746078,0.0432446,1098,1765,4.8652,-12.7613
-119,-741,4.3479,13.5062,-0.0034503,0.00487898,-0.00353478,0.00617684,-0.00474816,-1.21891,0.0063255,0.0455203,1105,1765,4.34794,-13.5063
-112,-741,4.36816,13.538,-0.00275145,0.00407825,-0.00264511,0.00498287,-0.00365607,-1.24127,0.00500727,0.0408843,1112,1765,4.36819,-13.5379
-105,-741,4.34534,13.5546,-0.00206176,0.00338218,-0.00198333,0.00402811,-0.00270768,-1.25595,0.00391374,0.0356318,1119,1765,4.34533,-13.5546
-98,-741,4.47913,13.7017,-0.00161185,0.00279209,-0.00154999,0.00328291,-0.00210268,-1.26412,0.00313416,0.0382682,1126,1765,4.47912,-13.7017
-91,-741,4.50574,13.663,-0.00118405,0.00246729,-0.00113422,0.00279093,-0.00150769,-1.29284,0.0025184,0.0477773,1133,1765,4.50573,-13.663
-84,-741,4.50574,13.5836,0,0,0,0,0,0,0,-1,1140,1765,4.50571,-13.5837
-77,-741,4.22961,13.941,0,0,0,0,0,0,0,-1,1147,1765,4.22959,-13.941
-70,-741,4.36072,13.9965,0,0,0,0,0,0,0,-1,1154,1765,4.36066,-13.9964
-63,-741,4.29846,14.0643,0,0,0,0,0,0,0,-1,1161,1765,4.29845,-14.0643
-56,-741,4.36951,14.1527,0,0,0,0,0,0,0,-1,1168,1765,4.36949,-14.1527
-49,-741,4.35486,14.2789,0,0,0,0,0,0,0,-1,1175,1765,4.35487,-14.279
-42,-741,4.31689,14.3495,0,0,0,0,0,0,0,-1,1182,1765,4.31694,-14.3495
-35,-741,4.34021,14.3545,-0.00836455,-0.00107988,0.00253588,-0.000284055,-0.00916038,1.2667,0.00601447,0.0181948,1189,1765,4.34015,-14.3545
-28,-741,4.34998,14.4276,-0.00794066,-0.00125739,0.00261124,-0.000358148,-0.00883991,1.23914,0.00577759,0.012576,1196,1765,4.35002,-14.4276
-21,-741,4.36206,14.4833,-0.00779824,-0.00135389,0.00278775,-0.000315317,-0.00883681,1.21418,0.00578896,0.0171515,1203,1765,4.36212,-14.4832
-14,-741,4.3114,14.5422,-0.00746014,-0.00152283,0.00303125,-0.00024868,-0.00873429,1.17288,0.00574176,0.0179578,1210,1765,4.31145,-14.5422
-7,-741,4.32227,14.5537,-0.0069916,-0.00167306,0.00314603,-0.000212961,-0.0084517,1.13627,0.00556484,0.0147399,1217,1765,4.32232,-14.5537
0,-741,4.3175,14.5823,-0.00638771,-0.00197786,0.00312652,-0.000356974,-0.00800859,1.09251,0.00522414,0.0148003,1224,1765,4.31747,-14.5823
7,-741,4.28101,14.6426,-0.00577514,-0.00230499,0.00295852,-0.000610292,-0.00746984,1.0506,0.00478944,0.0164787,1231,1765,4.28102,-14.6426
14,-741,4.28552,14.6917,-0.00509093,-0.00252911,0.0026889,-0.000831614,-0.00678843,1.00768,0.00427546,0.0156434,1238,1765,4.28547,-14.6917
21,-741,4.27649,14.7317,-0.00436276,-0.00284605,0.00223387,-0.00124532,-0.00596349,0.949035,0.00363242,0.012007,1245,1765,4.2765,-14.7317
28,-741,4.25574,14.7631,-0.00373713,-0.00301043,0.00175297,-0.00158356,-0.00516401,0.88759,0.00305484,0.0126215,1252,1765,4.25574,-14.763
35,-741,4.27051,14.7814,-0.00291935,-0.00292558,0.00114813,-0.00177433,-0.0040706,0.784042,0.00235659,0.0143089,1259,1765,4.27046,-14.7814
42,-741,4.27368,14.7982,-0.0021344,-0.00272309,0.000452124,-0.00188925,-0.00296824,0.496851,0.00173487,0.0147259,1266,1765,4.27367,-14.7983
49,-741,4.255,14.8181,-0.00125338,-0.00219298,-0.000579705,-0.000977008,-0.00246935,-0.444869,0.00143599,0.0103591,1273,1765,4.25501,-14.8181
56,-741,4.23242,14.8341,-0.000250603,-0.00173447,-0.00140251,0.000594127,-0.0025792,-0.542108,0.00194795,0.0104206,1280,1765,4.23243,-14.8342
63,-741,4.22168,14.8412,0.000465295,-0.000765929,-0.00236474,0.00229324,-0.00259387,-0.65806,0.00282335,0.0148768,1287,1765,4.22162,-14.8412
70,-741,4.22192,14.8463,0.000754661,0.000490861,-0.00326211,0.00388754,-0.00264201,-0.765192,0.00379263,0.0166679,1294,1765,4.22189,-14.8463
77,-741,4.22522,14.8811,0.00102571,0.00167027,-0.00383024,0.00519176,-0.00249579,-0.82737,0.00452847,0.0139299,1301,1765,4.22524,-14.8811
84,-741,4.20105,14.9008,0.00135384,0.00287395,-0.00429689,0.00647749,-0.0022497,-0.872935,0.00523202,0.0161351,1308,1765,4.20101,-14.9008
91,-741,4.19507,14.8887,0.00151379,0.00381732,-0.00459028,0.00739813,-0.00206702,-0.908317,0.00574638,0.0122599,1315,1765,4.19506,-14.8886
98,-741,4.21265,14.8615,0.00163403,0.0044812,-0.00473972,0.00800651,-0.00189128,-0.931288,0.00606717,0.00968369,1322,1765,4.21263,-14.8615
105,-741,4.22803,14.8341,0.00158661,0.0051229,-0.00475701,0.00842974,-0.00172023,-0.963332,0.00627237,0.0103282,1329,1765,4.22801,-14.8341
112,-741,4.22791,14.8063,0.00136737,0.00544765,-0.00456821,0.00841058,-0.00159556,-0.995408,0.00620764,0.0103385,1336,1765,4.22786,-14.8062
119,-741,4.21826,14.7788,0.000947119,0.00529046,-0.00430041,0.00793643,-0.00169885,-1.01921,0.00593879,0.0125633,1343,1765,4.21825,-14.7788
126,-741,4.21533,14.7368,0.000427788,0.00496498,-0.00383604,0.00715304,-0.00176027,-1.05243,0.00545102,0.0175964,1350,1765,4.21537,-14.7368
133,-741,4.21021,14.7314,-4.74178e-05,0.00430669,-0.00332393,0.00610306,-0.00184378,-1.07533,0.00480276,0.0147572,1357,1765,4.21021,-14.7314
140,-741,4.17737,14.7169,-0.000595884,0.00350081,-0.00279004,0.00491369,-0.00200876,-1.10204,0.0041123,0.0119736,1364,1765,4.17737,-14.7169
147,-741,4.18848,14.7106,-0.000984503,0.00284915,-0.00222103,0.00386613,-0.00200148,-1.1414,0.00344421,0.0109028,1371,1765,4.18847,-14.7106
154,-741,4.2002,14.7177,-0.00131725,0.00206905,-0.00146092,0.0026122,-0.0018604,-1.21485,0.00259439,0.00864125,1378,1765,4.20016,-14.7176
161,-741,4.1781,14.6738,-0.00144121,0.00161723,-0.00123831,0.00205573,-0.00187971,-1.23046,0.00227289,0.010031,1385,1765,4.17806,-14.6738
168,-741,4.15088,14.6394,-0.00128819,0.000203639,-0.0011609,0.000837609,-0.00192216,-1.07095,0.00163385,0.0216311,1392,1765,4.15094,-14.6394
175,-741,4.11938,14.6382,0,0,0,0,0,0,0,-1,1399,1765,4.11937,-14.6382
182,-741,4.1665,14.5266,0,0,0,0,0,0,0,-1,1406,1765,4.16654,-14.5267
189,-741,4.1416,14.479,0,0,0,0,0,0,0,-1,1413,1765,4.14162,-14.479
196,-741,4.1261,14.4617,0,0,0,0,0,0,0,-1,1420,1765,4.12612,-14.4616
203,-741,4.12292,14.4205,0,0,0,0,0,0,0,-1,1427,1765,4.12294,-14.4205
210,-741,4.05737,14.3081,0.000626698,0.001285,-0.00541944,0.00638528,-0.00447358,-0.815728,0.00630167,0.0320535,1434,1765,4.05737,-14.3081
217,-741,4.15723,14.2531,0.00116718,0.00152192,-0.00611563,0.00746275,-0.00477365,-0.799896,0.00712132,0.0200299,1441,1765,4.15725,-14.253
224,-741,4.21704,14.192,0.0016337,0.00189734,-0.00682096,0.00858776,-0.00505671,-0.79506,0.00796508,0.0261938,1448,1765,4.217,-14.192
231,-741,4.22974,14.1472,0.00210886,0.00224184,-0.00741725,0.0095929,-0.00524219,-0.78988,0.00868695,0.0356887,1455,1765,4.2297,-14.1472
238,-741,4.16174,14.0865,0.00272414,0.00249967,-0.00793334,0.010546,-0.00532223,-0.778325,0.00932555,0.03993,1462,1765,4.16179,-14.0866
245,-741,4.18066,13.9082,0.00340533,0.00273968,-0.00836874,0.0114479,-0.00530285,-0.765524,0.00988557,0.046485,1469,1765,4.18064,-13.9082
252,-741,4.32166,13.6384,0.00405343,0.00283778,-0.00870514,0.0121719,-0.00528072,-0.750543,0.0103348,0.049235,1476,1765,4.32162,-13.6384
259,-741,4.35583,13.6125,0,0,0,0,0,0,0,-1,1483,1765,4.35583,-13.6125
266,-741,4.30127,14.1871,0,0,0,0,0,0,0,-1,1490,1765,4.30131,-14.1871
273,-741,17.4285,7.24963,0,0,0,0,0,0,0,-1,1497,1765,17.4284,-7.24958
280,-741,15.996,7.22278,0,0,0,0,0,0,0,-1,1504,1765,15.9959,-7.22279
287,-741,14.0116,6.85144,0,0,0,0,0,0,0,-1,1511,1765,14.0116,-6.8514
294,-741,11.8184,6.48401,0,0,0,0,0,0,0,-1,1518,1765,11.8184,-6.48401
301,-741,4.90674,10.7687,0,0,0,0,0,0,0,-1,1525,1765,4.90672,-10.7687
308,-741,2.47021,11.4004,0,0,0,0,0,0,0,-1,1532,1765,2.47026,-11.4004
315,-741,7.94568,6.22974,0,0,0,0,0,0,0,-1,1539,1765,7.94567,-6.22972
322,-741,3.08521,12.3561,0,0,0,0,0,0,0,-1,1546,1765,3.08526,-12.3561
329,-741,4.46472,13.5316,0,0,0,0,0,0,0,-1,1553,1765,4.46467,-13.5316
336,-741,4.74475,14.6453,0,0,0,0,0,0,0,-1,1560,1765,4.7447,-14.6452
343,-741,5.42297,5.93701,0,0,0,0,0,0,0,-1,1567,1765,5.42296,-5.937
350,-741,4.90369,5.44666,0,0,0,0,0,0,0,-1,1574,1765,4.90368,-5.44664
357,-741,4.02063,5.16626,0,0,0,0,0,0,0,-1,1581,1765,4.02058,-5.1662
364,-741,0,0,0,0,0,0,0,0,0,-1,1588,1765,0,0
371,-741,0,0,0,0,0,0,0,0,0,-1,1595,1765,0,0
378,-741,0,0,0,0,0,0,0,0,0,-1,1602,1765,0,0
385,-741,0,0,0,0,0,0,0,0,0,-1,1609,1765,0,0
392,-741,0,0,0,0,0,0,0,0,0,-1,1616,1765,0,0
399,-741,0,0,0,0,0,0,0,0,0,-1,1623,1765,0,0
406,-741,0,0,0,0,0,0,0,0,0,-1,1630,1765,0,0
413,-741,0,0,0,0,0,0,0,0,0,-1,1637,1765,0,0
420,-741,0,0,0,0,0,0,0,0,0,-1,1644,1765,0,0
427,-741,0,0,0,0,0,0,0,0,0,-1,1651,1765,0,0
434,-741,0,0,0,0,0,0,0,0,0,-1,1658,1765,0,0
441,-741,0,0,0,0,0,0,0,0,0,-1,1665,1765,0,0
448,-741,0,0,0,0,0,0,0,0,0,-1,1672,1765,0,0
455,-741,0,0,0,0,0,0,0,0,0,-1,1679,1765,0,0
462,-741,0,0,0,0,0,0,0,0,0,-1,1686,1765,0,0
469,-741,0,0,0,0,0,0,0,0,0,-1,1693,1765,0,0
476,-741,0,0,0,0,0,0,0,0,0,-1,1700,1765,0,0
483,-741,0,0,0,0,0,0,0,0,0,-1,1707,1765,0,0
490,-741,0,0,0,0,0,0,0,0,0,-1,1714,1765,0,0
497,-741,0,0,0,0,0,0,0,0,0,-1,1721,1765,0,0
504,-741,0,0,0,0,0,0,0,0,0,-1,1728,1765,0,0
511,-741,0,0,0,0,0,0,0,0,0,-1,1735,1765,0,0
518,-741,0,0,0,0,0,0,0,0,0,-1,1742,1765,0,0
525,-741,0,0,0,0,0,0,0,0,0,-1,1749,1765,0,0
532,-741,0,0,0,0,0,0,0,0,0,-1,1756,1765,0,0
539,-741,0,0,0,0,0,0,0,0,0,-1,1763,1765,0,0
546,-741,0,0,0,0,0,0,0,0,0,-1,1770,1765,0,0
553,-741,0,0,0,0,0,0,0,0,0,-1,1777,1765,0,0
560,-741,0,0,0,0,0,0,0,0,0,-1,1784,1765,0,0
567,-741,0,0,0,0,0,0,0,0,0,-1,1791,1765,0,0
574,-741,0,0,0,0,0,0,0,0,0,-1,1798,1765,0,0
581,-741,0,0,0,0,0,0,0,0,0,-1,1805,1765,0,0
588,-741,0,0,0,0,0,0,0,0,0,-1,1812,1765,0,0
595,-741,0,0,0,0,0,0,0,0,0,-1,1819,1765,0,0
602,-741,0,0,0,0,0,0,0,0,0,-1,1826,1765,0,0
609,-741,0,0,0,0,0,0,0,0,0,-1,1833,1765,0,0
616,-741,0,0,0,0,0,0,0,0,0,-1,1840,1765,0,0
623,-741,0,0,0,0,0,0,0,0,0,-1,1847,1765,0,0
630,-741,0,0,0,0,0,0,0,0,0,-1,1854,1765,0,0
637,-741,0,0,0,0,0,0,0,0,0,-1,1861,1765,0,0
644,-741,0,0,0,0,0,0,0,0,0,-1,1868,1765,0,0
651,-741,0,0,0,0,0,0,0,0,0,-1,1875,1765,0,0
658,-741,0,0,0,0,0,0,0,0,0,-1,1882,1765,0,0
665,-741,0,0,0,0,0,0,0,0,0,-1,1889,1765,0,0
672,-741,0,0,0,0,0,0,0,0,0,-1,1896,1765,0,0
679,-741,0,0,0,0,0,0,0,0,0,-1,1903,1765,0,0
686,-741,0,0,0,0,0,0,0,0,0,-1,1910,1765,0,0
693,-741,0,0,0,0,0,0,0,0,0,-1,1917,1765,0,0
700,-741,0,0,0,0,0,0,0,0,0,-1,1924,1765,0,0
707,-741,0,0,0,0,0,0,0,0,0,-1,1931,1765,0,0
714,-741,0,0,0,0,0,0,0,0,0,-1,1938,1765,0,0
721,-741,0,0,0,0,0,0,0,0,0,-1,1945,1765,0,0
728,-741,0,0,0,0,0,0,0,0,0,-1,1952,1765,0,0
735,-741,0,0,0,0,0,0,0,0,0,-1,1959,1765,0,0
742,-741,0,0,0,0,0,0,0,0,0,-1,1966,1765,0,0
749,-741,0,0,0,0,0,0,0,0,0,-1,1973,1765,0,0
756,-741,0,0,0,0,0,0,0,0,0,-1,1980,1765,0,0
763,-741,0,0,0,0,0,0,0,0,0,-1,1987,1765,0,0
770,-741,0,0,0,0,0,0,0,0,0,-1,1994,1765,0,0
777,-741,0,0,0,0,0,0,0,0,0,-1,2001,1765,0,0
784,-741,0,0,0,0,0,0,0,0,0,-1,2008,1765,0,0
791,-741,0,0,0,0,0,0,0,0,0,-1,2015,1765,0,0
798,-741,0,0,0,0,0,0,0,0,0,-1,2022,1765,0,0
805,-741,0,0,0,0,0,0,0,0,0,-1,2029,1765,0,0
812,-741,0,0,0,0,0,0,0,0,0,-1,2036,1765,0,0
-700,-748,0,0,0,0,0,0,0,0,0,-1,524,1772,0,0
-693,-748,0,0,0,0,0,0,0,0,0,-1,531,1772,0,0
-686,-748,0,0,0,0,0,0,0,0,0,-1,538,1772,0,0
-679,-748,0,0,0,0,0,0,0,0,0,-1,545,1772,0,0
-672,-748,0,0,0,0,0,0,0,0,0,-1,552,1772,0,0
-665,-748,0,0,0,0,0,0,0,0,0,-1,559,1772,0,0
-658,-748,0,0,0,0,0,0,0,0,0,-1,566,1772,0,0
-651,-748,0,0,0,0,0,0,0,0,0,-1,573,1772,0,0
-644,-748,0,0,0,0,0,0,0,0,0,-1,580,1772,0,0
-637,-748,0,0,0,0,0,0,0,0,0,-1,587,1772,0,0
-630,-748,0,0,0,0,0,0,0,0,0,-1,594,1772,0,0
-623,-748,0,0,0,0,0,0,0,0,0,-1,601,1772,0,0
-616,-748,0,0,0,0,0,0,0,0,0,-1,608,1772,0,0
-609,-748,0,0,0,0,0,0,0,0,0,-1,615,1772,0,0
-602,-748,0,0,0,0,0,0,0,0,0,-1,622,1772,0,0
-595,-748,0,0,0,0,0,0,0,0,0,-1,629,1772,0,0
-588,-748,0,0,0,0,0,0,0,0,0,-1,636,1772,0,0
-581,-748,0,0,0,0,0,0,0,0,0,-1,643,1772,0,0
-574,-748,0,0,0,0,0,0,0,0,0,-1,650,1772,0,0
-567,-748,0,0,0,0,0,0,0,0,0,-1,657,1772,0,0
-560,-748,0,0,0,0,0,0,0,0,0,-1,664,1772,0,0
-553,-748,0,0,0,0,0,0,0,0,0,-1,671,1772,0,0
-546,-748,0,0,0,0,0,0,0,0,0,-1,678,1772,0,0
-539,-748,0,0,0,0,0,0,0,0,0,-1,685,1772,0,0
-532,-748,0,0,0,0,0,0,0,0,0,-1,692,1772,0,0
-525,-748,0,0,0,0,0,0,0,0,0,-1,699,1772,0,0
-518,-748,0,0,0,0,0,0,0,0,0,-1,706,1772,0,0
-511,-748,0,0,0,0,0,0,0,0,0,-1,713,1772,0,0
-504,-748,0,0,0,0,0,0,0,0,0,-1,720,1772,0,0
-497,-748,0,0,0,0,0,0,0,0,0,-1,727,1772,0,0
-490,-748,0,0,0,0,0,0,0,0,0,-1,734,1772,0,0
-483,-748,0,0,0,0,0,0,0,0,0,-1,741,1772,0,0
-476,-748,0,0,0,0,0,0,0,0,0,-1,748,1772,0,0
-469,-748,0,0,0,0,0,0,0,0,0,-1,755,1772,0,0
-462,-748,0,0,0,0,0,0,0,0,0,-1,762,1772,0,0
-455,-748,0,0,0,0,0,0,0,0,0,-1,769,1772,0,0
-448,-748,0,0,0,0,0,0,0,0,0,-1,776,1772,0,0
-441,-748,0,0,0,0,0,0,0,0,0,-1,783,1772,0,0
-434,-748,0,0,0,0,0,0,0,0,0,-1,790,1772,0,0
-427,-748,0,0,0,0,0,0,0,0,0,-1,797,1772,0,0
-420,-748,0,0,0,0,0,0,0,0,0,-1,804,1772,0,0
-413,-748,0,0,0,0,0,0,0,0,0,-1,811,1772,0,0
-406,-748,0,0,0,0,0,0,0,0,0,-1,818,1772,0,0
-399,-748,0,0,0,0,0,0,0,0,0,-1,825,1772,0,0
-392,-748,0,0,0,0,0,0,0,0,0,-1,832,1772,0,0
-385,-748,0,0,0,0,0,0,0,0,0,-1,839,1772,0,0
-378,-748,0,0,0,0,0,0,0,0,0,-1,846,1772,0,0
-371,-748,0,0,0,0,0,0,0,0,0,-1,853,1772,0,0
-364,-748,0,0,0,0,0,0,0,0,0,-1,860,1772,0,0
-357,-748,0,0,0,0,0,0,0,0,0,-1,867,1772,0,0
-350,-748,0,0,0,0,0,0,0,0,0,-1,874,1772,0,0
-343,-748,0,0,0,0,0,0,0,0,0,-1,881,1772,0,0
-336,-748,0,0,0,0,0,0,0,0,0,-1,888,1772,0,0
-329,-748,0,0,0,0,0,0,0,0,0,-1,895,1772,0,0
-322,-748,0,0,0,0,0,0,0,0,0,-1,902,1772,0,0
-315,-748,0,0,0,0,0,0,0,0,0,-1,909,1772,0,0
-308,-748,0,0,0,0,0,0,0,0,0,-1,916,1772,0,0
-301,-748,0,0,0,0,0,0,0,0,0,-1,923,1772,0,0
-294,-748,0,0,0,0,0,0,0,0,0,-1,930,1772,0,0
-287,-748,0,0,0,0,0,0,0,0,0,-1,937,1772,0,0
-280,-748,0,0,0,0,0,0,0,0,0,-1,944,1772,0,0
-273,-748,0,0,0,0,0,0,0,0,0,-1,951,1772,0,0
-266,-748,0,0,0,0,0,0,0,0,0,-1,958,1772,0,0
-259,-748,0,0,0,0,0,0,0,0,0,-1,965,1772,0,0
-252,-748,0,0,0,0,0,0,0,0,0,-1,972,1772,0,0
-245,-748,0,0,0,0,0,0,0,0,0,-1,979,1772,0,0
-238,-748,0,0,0,0,0,0,0,0,0,-1,986,1772,0,0
-231,-748,0,0,0,0,0,0,0,0,0,-1,993,1772,0,0
-224,-748,0,0,0,0,0,0,0,0,0,-1,1000,1772,0,0
-217,-748,3.58484,13.3735,0,0,0,0,0,0,0,-1,1007,1772,3.58485,-13.3735
-210,-748,8.3371,9.15466,0,0,0,0,0,0,0,-1,1014,1772,8.33709,-9.1547
-203,-748,4.65759,14.6309,0,0,0,0,0,0,0,-1,1021,1772,4.65762,-14.6309
-196,-748,1.93628,14.2493,0,0,0,0,0,0,0,-1,1028,1772,1.93626,-14.2493
-189,-748,2.37354,13.27,0,0,0,0,0,0,0,-1,1035,1772,2.37358,-13.27
-182,-748,1.1593,12.4589,0,0,0,0,0,0,0,-1,1042,1772,1.15932,-12.4589
-175,-748,-0.0640869,11.6606,0,0,0,0,0,0,0,-1,1049,1772,-0.0640899,-11.6606
-168,-748,-1.30481,10.9001,0,0,0,0,0,0,0,-1,1056,1772,-1.30482,-10.9001
-161,-748,-2.63501,10.4792,0,0,0,0,0,0,0,-1,1063,1772,-2.63505,-10.4793
-154,-748,-3.92529,10.2404,0,0,0,0,0,0,0,-1,1070,1772,-3.92526,-10.2404
-147,-748,-4.87122,10.7748,0,0,0,0,0,0,0,-1,1077,1772,-4.87117,-10.7748
-140,-748,5.38965,8.78552,0,0,0,0,0,0,0,-1,1084,1772,5.38969,-8.78552
-133,-748,5.13855,13.0842,0,0,0,0,0,0,0,-1,1091,1772,5.13855,-13.0842
-126,-748,5.146,12.3723,0,0,0,0,0,0,0,-1,1098,1772,5.14604,-12.3723
-119,-748,4.34167,13.5449,0,0,0,0,0,0,0,-1,1105,1772,4.34164,-13.5449
-112,-748,4.34839,13.5978,-0.00327358,0.0042426,-0.00372387,0.00577511,-0.00480608,-1.18038,0.00611759,0.0432531,1112,1772,4.34835,-13.5978
-105,-748,4.31812,13.5525,-0.00241196,0.00346115,-0.00273694,0.00453885,-0.00348966,-1.19568,0.00464843,0.046782,1119,1772,4.3181,-13.5525
-98,-748,4.42151,13.516,0,0,0,0,0,0,0,-1,1126,1772,4.42155,-13.516
-91,-748,4.76941,13.2303,0,0,0,0,0,0,0,-1,1133,1772,4.7694,-13.2303
-84,-748,-0.192017,7.26196,0,0,0,0,0,0,0,-1,1140,1772,-0.192047,-7.26201
-77,-748,4.42615,13.5537,0,0,0,0,0,0,0,-1,1147,1772,4.4261,-13.5538
-70,-748,4.46191,13.7446,0,0,0,0,0,0,0,-1,1154,1772,4.4619,-13.7446
-63,-748,4.49768,13.9355,0,0,0,0,0,0,0,-1,1161,1772,4.49769,-13.9355
-56,-748,3.05762,7.87817,0,0,0,0,0,0,0,-1,1168,1772,3.05768,-7.87822
-49,-748,3.04102,7.82471,0,0,0,0,0,0,0,-1,1175,1772,3.04096,-7.82468
-42,-748,3.62585,10.0979,0,0,0,0,0,0,0,-1,1182,1772,3.62584,-10.0979
-35,-748,4.28564,14.474,0,0,0,0,0,0,0,-1,1189,1772,4.28565,-14.474
-28,-748,4.36829,14.5131,-0.0146918,-0.00360243,0.00487441,-0.00176447,-0.0165298,1.21022,0.0104813,0.0470981,1196,1772,4.36833,-14.5131
-21,-748,4.39465,14.5214,-0.014223,-0.00347407,0.00502572,-0.00149035,-0.0162067,1.19486,0.0103435,0.021942,1203,1772,4.39469,-14.5214
-14,-748,4.37573,14.5244,-0.0133953,-0.00334795,0.0052102,-0.00113398,-0.0156093,1.16898,0.0100495,0.0159198,1210,1772,4.37577,-14.5245
-7,-748,4.375,14.5409,-0.012331,-0.00321493,0.00521758,-0.000844849,-0.0147011,1.14441,0.00953161,0.0149129,1217,1772,4.37505,-14.5409
0,-748,4.34778,14.5756,-0.0110897,-0.00329277,0.00505057,-0.000811093,-0.0135714,1.11408,0.00878972,0.0146402,1224,1772,4.34784,-14.5756
7,-748,4.32751,14.6157,-0.00986699,-0.00351699,0.0046781,-0.00103821,-0.0123458,1.08354,0.0079072,0.014264,1231,1772,4.32755,-14.6157
14,-748,4.32092,14.6774,-0.00855673,-0.00355366,0.00412422,-0.00123162,-0.0108788,1.05801,0.00687883,0.0153925,1238,1772,4.32094,-14.6774
21,-748,4.31628,14.7112,-0.00720116,-0.00370864,0.00336979,-0.00165952,-0.00925029,1.02445,0.00569486,0.0119572,1245,1772,4.31632,-14.7112
28,-748,4.29944,14.7507,-0.00597245,-0.00371067,0.00261957,-0.00198831,-0.00769481,0.989167,0.00461225,0.0120873,1252,1772,4.29939,-14.7507
35,-748,4.28796,14.7751,-0.00448132,-0.00335986,0.00174712,-0.00208569,-0.00575549,0.940677,0.00336463,0.0126986,1259,1772,4.28791,-14.7751
42,-748,4.26978,14.7941,-0.00313333,-0.00294424,0.00077724,-0.00225582,-0.00382175,0.845919,0.00221844,0.0131705,1266,1772,4.26979,-14.794
49,-748,4.26807,14.7885,-0.00149059,-0.00211157,-0.000652093,-0.00107884,-0.00252332,-0.563206,0.00146193,0.0101987,1273,1772,4.26804,-14.7884
56,-748,4.25598,14.8149,0.000338583,-0.00140466,-0.00197862,0.00162905,-0.00269513,-0.577926,0.00252173,0.0103439,1280,1772,4.256,-14.815
63,-748,4.23767,14.8253,0.00163953,-6.44269e-05,-0.00336587,0.00425958,-0.00268447,-0.66144,0.00404338,0.0121772,1287,1772,4.23761,-14.8254
70,-748,4.2323,14.8356,0.0022743,0.00159782,-0.0047133,0.00666148,-0.00278936,-0.749578,0.00560702,0.0136449,1294,1772,4.23232,-14.8355
77,-748,4.23779,14.8562,0.00285304,0.00321894,-0.005628,0.00866696,-0.00259498,-0.801646,0.00680982,0.0127973,1301,1772,4.23775,-14.8562
84,-748,4.21606,14.8688,0.00350668,0.00478714,-0.00643047,0.0106092,-0.00231535,-0.835016,0.00795765,0.0140829,1308,1772,4.21609,-14.8687
91,-748,4.20947,14.8632,0.00389044,0.00606719,-0.0070515,0.0121138,-0.00215618,-0.861967,0.00888227,0.0106139,1315,1772,4.20945,-14.8631
98,-748,4.20105,14.8384,0.00417948,0.00704531,-0.00749945,0.0132475,-0.00202272,-0.879795,0.00957738,0.0107354,1322,1772,4.20101,-14.8384
105,-748,4.1969,14.8137,0.00417649,0.00796668,-0.00778687,0.0140857,-0.00194257,-0.904763,0.0101005,0.0124932,1329,1772,4.19694,-14.8138
112,-748,4.23364,14.8246,0.00386502,0.00848589,-0.00778118,0.0142924,-0.0019415,-0.929715,0.010237,0.0144976,1336,1772,4.23364,-14.8245
119,-748,4.21375,14.8008,0.00322526,0.00833754,-0.00759454,0.0137946,-0.00223177,-0.947731,0.0100235,0.0122426,1343,1772,4.21377,-14.8008
126,-748,4.18958,14.7876,0.00234923,0.00794892,-0.00709849,0.0127798,-0.00248163,-0.973245,0.00945624,0.014451,1350,1772,4.18956,-14.7876
133,-748,4.15942,14.7706,0.00144155,0.00706936,-0.00642843,0.0112728,-0.00276186,-0.991699,0.00858518,0.00924216,1357,1772,4.15946,-14.7706
140,-748,4.14673,14.7521,0.000399151,0.00585445,-0.00566596,0.00941514,-0.00316154,-1.00973,0.00755444,0.0131836,1364,1772,4.14673,-14.7521
147,-748,4.16858,14.7217,-0.000312852,0.00475377,-0.00463991,0.0075069,-0.00306598,-1.03527,0.00628118,0.0144262,1371,1772,4.16852,-14.7217
154,-748,4.15381,14.7,-0.00117276,0.00352644,-0.00314195,0.00510016,-0.00274648,-1.10645,0.0045977,0.0112559,1378,1772,4.15382,-14.7
161,-748,4.14856,14.6698,-0.00188226,0.0026024,-0.00175478,0.00320741,-0.00248727,-1.23879,0.00329657,0.0189535,1385,1772,4.14855,-14.6698
168,-748,4.15295,14.6542,0,0,0,0,0,0,0,-1,1392,1772,4.15298,-14.6542
175,-748,4.22009,13.4792,0,0,0,0,0,0,0,-1,1399,1772,4.2201,-13.4793
182,-748,7.62476,10.3058,0,0,0,0,0,0,0,-1,1406,1772,7.62476,-10.3058
189,-748,6.15857,6.95898,0,0,0,0,0,0,0,-1,1413,1772,6.15862,-6.95896
196,-748,3.9425,8.46021,0,0,0,0,0,0,0,-1,1420,1772,3.9425,-8.46026
203,-748,3.9668,12.9835,0,0,0,0,0,0,0,-1,1427,1772,3.96678,-12.9836
210,-748,3.9386,14.188,0,0,0,0,0,0,0,-1,1434,1772,3.93857,-14.188
217,-748,4.31604,14.2572,0.00143123,0.00173441,-0.00841173,0.00999591,-0.00683027,-0.794408,0.00977174,0.0410651,1441,1772,4.31602,-14.2573
224,-748,4.28796,14.2507,0.00203339,0.00227239,-0.00932399,0.0114776,-0.00717187,-0.791806,0.0108625,0.0420486,1448,1772,4.28792,-14.2507
231,-748,4.24805,14.0499,0.00269285,0.00277636,-0.0101239,0.0128585,-0.00738934,-0.78746,0.0118314,0.0451636,1455,1772,4.24802,-14.05
238,-748,4.18909,14.0756,0,0,0,0,0,0,0,-1,1462,1772,4.18905,-14.0755
245,-748,4.21338,13.837,0,0,0,0,0,0,0,-1,1469,1772,4.21344,-13.837
252,-748,4.5188,13.3633,0,0,0,0,0,0,0,-1,1476,1772,4.51881,-13.3633
259,-748,19.7562,7.70105,0,0,0,0,0,0,0,-1,1483,1772,19.7562,-7.70105
266,-748,18.3119,7.38428,0,0,0,0,0,0,0,-1,1490,1772,18.3119,-7.38433
273,-748,16.87,7.15271,0,0,0,0,0,0,0,-1,1497,1772,16.87,-7.1527
280,-748,15.3959,7.00659,0,0,0,0,0,0,0,-1,1504,1772,15.3958,-7.00658
287,-748,13.4386,6.74158,0,0,0,0,0,0,0,-1,1511,1772,13.4386,-6.74154
294,-748,11.5533,6.49109,0,0,0,0,0,0,0,-1,1518,1772,11.5533,-6.49111
301,-748,9.90784,6.21448,0,0,0,0,0,0,0,-1,1525,1772,9.90789,-6.2145
308,-748,8.88904,6.61414,0,0,0,0,0,0,0,-1,1532,1772,8.889,-6.61419
315,-748,7.85876,6.81372,0,0,0,0,0,0,0,-1,1539,1772,7.85879,-6.81372
322,-748,2.9469,13.4518,0,0,0,0,0,0,0,-1,1546,1772,2.94694,-13.4518
329,-748,3.48315,14.6533,0,0,0,0,0,0,0,-1,1553,1772,3.48316,-14.6534
336,-748,3.76001,15.8163,0,0,0,0,0,0,0,-1,1560,1772,3.75995,-15.8163
343,-748,0,0,0,0,0,0,0,0,0,-1,1567,1772,0,0
350,-748,0,0,0,0,0,0,0,0,0,-1,1574,1772,0,0
357,-748,0,0,0,0,0,0,0,0,0,-1,1581,1772,0,0
364,-748,0,0,0,0,0,0,0,0,0,-1,1588,1772,0,0
371,-748,0,0,0,0,0,0,0,0,0,-1,1595,1772,0,0
378,-748,0,0,0,0,0,0,0,0,0,-1,1602,1772,0,0
385,-748,0,0,0,0,0,0,0,0,0,-1,1609,1772,0,0
392,-748,0,0,0,0,0,0,0,0,0,-1,1616,1772,0,0
399,-748,0,0,0,0,0,0,0,0,0,-1,1623,1772,0,0
406,-748,0,0,0,0,0,0,0,0,0,-1,1630,1772,0,0
413,-748,0,0,0,0,0,0,0,0,0,-1,1637,1772,0,0
420,-748,0,0,0,0,0,0,0,0,0,-1,1644,1772,0,0
427,-748,0,0,0,0,0,0,0,0,0,-1,1651,1772,0,0
434,-748,0,0,0,0,0,0,0,0,0,-1,1658,1772,0,0
441,-748,0,0,0,0,0,0,0,0,0,-1,1665,1772,0,0
448,-748,0,0,0,0,0,0,0,0,0,-1,1672,1772,0,0
455,-748,0,0,0,0,0,0,0,0,0,-1,1679,1772,0,0
462,-748,0,0,0,0,0,0,0,0,0,-1,1686,1772,0,0
469,-748,0,0,0,0,0,0,0,0,0,-1,1693,1772,0,0
476,-748,0,0,0,0,0,0,0,0,0,-1,1700,1772,0,0
483,-748,0,0,0,0,0,0,0,0,0,-1,1707,1772,0,0
490,-748,0,0,0,0,0,0,0,0,0,-1,1714,1772,0,0
497,-748,0,0,0,0,0,0,0,0,0,-1,1721,1772,0,0
504,-748,0,0,0,0,0,0,0,0,0,-1,1728,1772,0,0
511,-748,0,0,0,0,0,0,0,0,0,-1,1735,1772,0,0
518,-748,0,0,0,0,0,0,0,0,0,-1,1742,1772,0,0
525,-748,0,0,0,0,0,0,0,0,0,-1,1749,1772,0,0
532,-748,0,0,0,0,0,0,0,0,0,-1,1756,1772,0,0
539,-748,0,0,0,0,0,0,0,0,0,-1,1763,1772,0,0
546,-748,0,0,0,0,0,0,0,0,0,-1,1770,1772,0,0
553,-748,0,0,0,0,0,0,0,0,0,-1,1777,1772,0,0
560,-748,0,0,0,0,0,0,0,0,0,-1,1784,1772,0,0
567,-748,0,0,0,0,0,0,0,0,0,-1,1791,1772,0,0
574,-748,0,0,0,0,0,0,0,0,0,-1,1798,1772,0,0
581,-748,0,0,0,0,0,0,0,0,0,-1,1805,1772,0,0
588,-748,0,0,0,0,0,0,0,0,0,-1,1812,1772,0,0
595,-748,0,0,0,0,0,0,0,0,0,-1,1819,1772,0,0
602,-748,0,0,0,0,0,0,0,0,0,-1,1826,1772,0,0
609,-748,0,0,0,0,0,0,0,0,0,-1,1833,1772,0,0
616,-748,0,0,0,0,0,0,0,0,0,-1,1840,1772,0,0
623,-748,0,0,0,0,0,0,0,0,0,-1,1847,1772,0,0
630,-748,0,0,0,0,0,0,0,0,0,-1,1854,1772,0,0
637,-748,0,0,0,0,0,0,0,0,0,-1,1861,1772,0,0
644,-748,0,0,0,0,0,0,0,0,0,-1,1868,1772,0,0
651,-748,0,0,0,0,0,0,0,0,0,-1,1875,1772,0,0
658,-748,0,0,0,0,0,0,0,0,0,-1,1882,1772,0,0
665,-748,0,0,0,0,0,0,0,0,0,-1,1889,1772,0,0
672,-748,0,0,0,0,0,0,0,0,0,-1,1896,1772,0,0
679,-748,0,0,0,0,0,0,0,0,0,-1,1903,1772,0,0
686,-748,0,0,0,0,0,0,0,0,0,-1,1910,1772,0,0
693,-748,0,0,0,0,0,0,0,0,0,-1,1917,1772,0,0
700,-748,0,0,0,0,0,0,0,0,0,-1,1924,1772,0,0
707,-748,0,0,0,0,0,0,0,0,0,-1,1931,1772,0,0
714,-748,0,0,0,0,0,0,0,0,0,-1,1938,1772,0,0
721,-748,0,0,0,0,0,0,0,0,0,-1,1945,1772,0,0
728,-748,0,0,0,0,0,0,0,0,0,-1,1952,1772,0,0
735,-748,0,0,0,0,0,0,0,0,0,-1,1959,1772,0,0
742,-748,0,0,0,0,0,0,0,0,0,-1,1966,1772,0,0
749,-748,0,0,0,0,0,0,0,0,0,-1,1973,1772,0,0
756,-748,0,0,0,0,0,0,0,0,0,-1,1980,1772,0,0
763,-748,0,0,0,0,0,0,0,0,0,-1,1987,1772,0,0
770,-748,0,0,0,0,0,0,0,0,0,-1,1994,1772,0,0
777,-748,0,0,0,0,0,0,0,0,0,-1,2001,1772,0,0
784,-748,0,0,0,0,0,0,0,0,0,-1,2008,1772,0,0
791,-748,0,0,0,0,0,0,0,0,0,-1,2015,1772,0,0
798,-748,0,0,0,0,0,0,0,0,0,-1,2022,1772,0,0
805,-748,0,0,0,0,0,0,0,0,0,-1,2029,1772,0,0
812,-748,0,0,0,0,0,0,0,0,0,-1,2036,1772,0,0
-700,-755,0,0,0,0,0,0,0,0,0,-1,524,1779,0,0
-693,-755,0,0,0,0,0,0,0,0,0,-1,531,1779,0,0
-686,-755,0,0,0,0,0,0,0,0,0,-1,538,1779,0,0
-679,-755,0,0,0,0,0,0,0,0,0,-1,545,1779,0,0
-672,-755,0,0,0,0,0,0,0,0,0,-1,552,1779,0,0
-665,-755,0,0,0,0,0,0,0,0,0,-1,559,1779,0,0
-658,-755,0,0,0,0,0,0,0,0,0,-1,566,1779,0,0
-651,-755,0,0,0,0,0,0,0,0,0,-1,573,1779,0,0
-644,-755,0,0,0,0,0,0,0,0,0,-1,580,1779,0,0
-637,-755,0,0,0,0,0,0,0,0,0,-1,587,1779,0,0
-630,-755,0,0,0,0,0,0,0,0,0,-1,594,1779,0,0
-623,-755,0,0,0,0,0,0,0,0,0,-1,601,1779,0,0
-616,-755,0,0,0,0,0,0,0,0,0,-1,608,1779,0,0
-609,-755,0,0,0,0,0,0,0,0,0,-1,615,1779,0,0
-602,-755,0,0,0,0,0,0,0,0,0,-1,622,1779,0,0
-595,-755,0,0,0,0,0,0,0,0,0,-1,629,1779,0,0
-588,-755,0,0,0,0,0,0,0,0,0,-1,636,1779,0,0
-581,-755,0,0,0,0,0,0,0,0,0,-1,643,1779,0,0
-574,-755,0,0,0,0,0,0,0,0,0,-1,650,1779,0,0
-567,-755,0,0,0,0,0,0,0,0,0,-1,657,1779,0,0
-560,-755,0,0,0,0,0,0,0,0,0,-1,664,1779,0,0
-553,-755,0,0,0,0,0,0,0,0,0,-1,671,1779,0,0
-546,-755,0,0,0,0,0,0,0,0,0,-1,678,1779,0,0
-539,-755,0,0,0,0,0,0,0,0,0,-1,685,1779,0,0
-532,-755,0,0,0,0,0,0,0,0,0,-1,692,1779,0,0
-525,-755,0,0,0,0,0,0,0,0,0,-1,699,1779,0,0
-518,-755,0,0,0,0,0,0,0,0,0,-1,706,1779,0,0
-511,-755,0,0,0,0,0,0,0,0,0,-1,713,1779,0,0
-504,-755,0,0,0,0,0,0,0,0,0,-1,720,1779,0,0
-497,-755,0,0,0,0,0,0,0,0,0,-1,727,1779,0,0
-490,-755,0,0,0,0,0,0,0,0,0,-1,734,1779,0,0
-483,-755,0,0,0,0,0,0,0,0,0,-1,741,1779,0,0
-476,-755,0,0,0,0,0,0,0,0,0,-1,748,1779,0,0
-469,-755,0,0,0,0,0,0,0,0,0,-1,755,1779,0,0
-462,-755,0,0,0,0,0,0,0,0,0,-1,762,1779,0,0
-455,-755,0,0,0,0,0,0,0,0,0,-1,769,1779,0,0
-448,-755,0,0,0,0,0,0,0,0,0,-1,776,1779,0,0
-441,-755,0,0,0,0,0,0,0,0,0,-1,783,1779,0,0
-434,-755,0,0,0,0,0,0,0,0,0,-1,790,1779,0,0
-427,-755,0,0,0,0,0,0,0,0,0,-1,797,1779,0,0
-420,-755,0,0,0,0,0,0,0,0,0,-1,804,1779,0,0
-413,-755,0,0,0,0,0,0,0,0,0,-1,811,1779,0,0
-406,-755,0,0,0,0,0,0,0,0,0,-1,818,1779,0,0
-399,-755,0,0,0,0,0,0,0,0,0,-1,825,1779,0,0
-392,-755,0,0,0,0,0,0,0,0,0,-1,832,1779,0,0
-385,-755,0,0,0,0,0,0,0,0,0,-1,839,1779,0,0
-378,-755,0,0,0,0,0,0,0,0,0,-1,846,1779,0,0
-371,-755,0,0,0,0,0,0,0,0,0,-1,853,1779,0,0
-364,-755,0,0,0,0,0,0,0,0,0,-1,860,1779,0,0
-357,-755,0,0,0,0,0,0,0,0,0,-1,867,1779,0,0
-350,-755,0,0,0,0,0,0,0,0,0,-1,874,1779,0,0
-343,-755,0,0,0,0,0,0,0,0,0,-1,881,1779,0,0
-336,-755,0,0,0,0,0,0,0,0,0,-1,888,1779,0,0
-329,-755,0,0,0,0,0,0,0,0,0,-1,895,1779,0,0
-322,-755,0,0,0,0,0,0,0,0,0,-1,902,1779,0,0
-315,-755,0,0,0,0,0,0,0,0,0,-1,909,1779,0,0
-308,-755,0,0,0,0,0,0,0,0,0,-1,916,1779,0,0
-301,-755,0,0,0,0,0,0,0,0,0,-1,923,1779,0,0
-294,-755,0,0,0,0,0,0,0,0,0,-1,930,1779,0,0
-287,-755,0,0,0,0,0,0,0,0,0,-1,937,1779,0,0
-280,-755,0,0,0,0,0,0,0,0,0,-1,944,1779,0,0
-273,-755,0,0,0,0,0,0,0,0,0,-1,951,1779,0,0
-266,-755,0,0,0,0,0,0,0,0,0,-1,958,1779,0,0
-259,-755,0,0,0,0,0,0,0,0,0,-1,965,1779,0,0
-252,-755,0,0,0,0,0,0,0,0,0,-1,972,1779,0,0
-245,-755,0,0,0,0,0,0,0,0,0,-1,979,1779,0,0
-238,-755,0,0,0,0,0,0,0,0,0,-1,986,1779,0,0
-231,-755,0,0,0,0,0,0,0,0,0,-1,993,1779,0,0
-224,-755,0,0,0,0,0,0,0,0,0,-1,1000,1779,0,0
-217,-755,0,0,0,0,0,0,0,0,0,-1,1007,1779,0,0
-210,-755,0,0,0,0,0,0,0,0,0,-1,1014,1779,0,0
-203,-755,9.17322,10.2322,0,0,0,0,0,0,0,-1,1021,1779,9.17323,-10.2322
-196,-755,4.91333,14.9064,0,0,0,0,0,0,0,-1,1028,1779,4.91327,-14.9063
-189,-755,4.85864,12.9271,0,0,0,0,0,0,0,-1,1035,1779,4.85866,-12.9272
-182,-755,0.733154,13.2736,0,0,0,0,0,0,0,-1,1042,1779,0.733112,-13.2735
-175,-755,-0.495972,12.4688,0,0,0,0,0,0,0,-1,1049,1779,-0.495979,-12.4687
-168,-755,-1.77759,11.6711,0,0,0,0,0,0,0,-1,1056,1779,-1.77753,-11.6711
-161,-755,-3.06799,11.2112,0,0,0,0,0,0,0,-1,1063,1779,-3.06805,-11.2111
-154,-755,-4.35852,10.7511,0,0,0,0,0,0,0,-1,1070,1779,-4.35858,-10.7511
-147,-755,-5.40332,10.7094,0,0,0,0,0,0,0,-1,1077,1779,-5.40328,-10.7094
-140,-755,3.29346,10.2112,0,0,0,0,0,0,0,-1,1084,1779,3.2935,-10.2112
-133,-755,3.33801,10.3369,0,0,0,0,0,0,0,-1,1091,1779,3.33801,-10.3369
-126,-755,4.81348,13.7284,0,0,0,0,0,0,0,-1,1098,1779,4.81348,-13.7284
-119,-755,4.45703,13.6516,0,0,0,0,0,0,0,-1,1105,1779,4.45709,-13.6516
-112,-755,4.31763,13.6339,-0.00365162,0.00343659,-0.00494412,0.00597566,-0.00619069,-1.09636,0.00702461,0.044056,1112,1779,4.31765,-13.6339
-105,-755,4.34326,13.7085,-0.00254846,0.00255569,-0.00356232,0.00438576,-0.00437853,-1.09622,0.00506006,0.0479746,1119,1779,4.34327,-13.7084
-98,-755,4.38574,13.7893,0,0,0,0,0,0,0,-1,1126,1779,4.38571,-13.7893
-91,-755,0.160522,10.7096,0,0,0,0,0,0,0,-1,1133,1779,0.160512,-10.7096
-84,-755,0.169312,8.66443,0,0,0,0,0,0,0,-1,1140,1779,0.16932,-8.66446
-77,-755,-0.0491943,6.87439,0,0,0,0,0,0,0,-1,1147,1779,-0.0491385,-6.87443
-70,-755,4.5686,13.2169,0,0,0,0,0,0,0,-1,1154,1779,4.56865,-13.2169
-63,-755,-1.36316,7.3147,0,0,0,0,0,0,0,-1,1161,1779,-1.36312,-7.31473
-56,-755,0.0483398,5.06079,0,0,0,0,0,0,0,-1,1168,1779,0.0483138,-5.06084
-49,-755,-1.32263,5.33716,0,0,0,0,0,0,0,-1,1175,1779,-1.32264,-5.33718
-42,-755,-2.03613,4.01672,0,0,0,0,0,0,0,-1,1182,1779,-2.0361,-4.01671
-35,-755,-2.72498,2.37476,0,0,0,0,0,0,0,-1,1189,1779,-2.72502,-2.37473
-28,-755,4.26965,14.6561,0,0,0,0,0,0,0,-1,1196,1779,4.26965,-14.6561
-21,-755,4.49548,14.4779,0,0,0,0,0,0,0,-1,1203,1779,4.49552,-14.478
-14,-755,4.47656,14.5139,-0.020689,-0.00543026,0.00781487,-0.00213812,-0.0239811,1.17209,0.0153245,0.0317646,1210,1779,4.47657,-14.5139
-7,-755,4.41736,14.5282,-0.0188187,-0.00503106,0.00773286,-0.00156526,-0.0222845,1.14945,0.0143631,0.0224607,1217,1779,4.41735,-14.5282
0,-755,4.37976,14.5627,-0.0167748,-0.00493343,0.0074347,-0.00134994,-0.0203583,1.12166,0.0131453,0.014287,1224,1779,4.3798,-14.5628
7,-755,4.3595,14.6046,-0.0148335,-0.00511532,0.0068529,-0.00157364,-0.0183752,1.09379,0.0117607,0.0125759,1231,1779,4.35954,-14.6046
14,-755,4.36475,14.6614,-0.0128057,-0.00497171,0.00592471,-0.00178623,-0.0159911,1.07748,0.010118,0.0109255,1238,1779,4.36471,-14.6614
21,-755,4.34375,14.6915,-0.0107094,-0.00489228,0.00474856,-0.0022323,-0.0133694,1.06018,0.00826985,0.0160216,1245,1779,4.34372,-14.6915
28,-755,4.34387,14.7189,-0.00876121,-0.00461539,0.00362351,-0.00251376,-0.0108628,1.04521,0.00656637,0.018312,1252,1779,4.34381,-14.7188
35,-755,4.3147,14.7987,-0.00647342,-0.00384684,0.00244126,-0.00238804,-0.00793222,1.03217,0.00469895,0.0182351,1259,1779,4.3147,-14.7987
42,-755,4.29211,14.7963,-0.00446622,-0.00309941,0.00113319,-0.0024595,-0.00510613,1.05674,0.00294868,0.0132693,1266,1779,4.29213,-14.7963
49,-755,4.30481,14.7727,-0.00202614,-0.00188039,-0.000742966,-0.00120673,-0.0026998,-0.834288,0.00156165,0.00870577,1273,1779,4.30486,-14.7727
56,-755,4.28943,14.7993,0.000623065,-0.000822576,-0.00250827,0.00251059,-0.0027101,-0.645112,0.0030149,0.00880147,1280,1779,4.28939,-14.7993
63,-755,4.27673,14.8197,0.00252496,0.000977293,-0.00428828,0.00610867,-0.00260641,-0.696132,0.00516531,0.0104466,1287,1779,4.2767,-14.8197
70,-755,4.26196,14.8282,0.00352484,0.00312779,-0.00602809,0.00935767,-0.00270504,-0.768937,0.00730893,0.0131114,1294,1779,4.26193,-14.8282
77,-755,4.24414,14.8265,0.00447185,0.00527267,-0.00724168,0.012125,-0.00238049,-0.813016,0.0089826,0.0109268,1301,1779,4.24417,-14.8265
84,-755,4.26306,14.8282,0.0055151,0.00729356,-0.0083644,0.0148159,-0.00200721,-0.838355,0.0106098,0.0111533,1308,1779,4.26304,-14.8282
91,-755,4.24646,14.8287,0.00618297,0.00897084,-0.00929828,0.0169791,-0.00182528,-0.859801,0.0119743,0.0110265,1315,1779,4.24652,-14.8287
98,-755,4.21143,14.8386,0.00670658,0.0102866,-0.0100445,0.0186993,-0.00170613,-0.873576,0.0130721,0.0126287,1322,1779,4.21148,-14.8387
105,-755,4.22827,14.8485,0.00682054,0.0115255,-0.0106209,0.0200513,-0.00170535,-0.894385,0.0139708,0.0169537,1329,1779,4.22825,-14.8485
112,-755,4.27124,14.8314,0.00650248,0.0122725,-0.0108481,0.0206126,-0.00183766,-0.915363,0.0143935,0.0214698,1336,1779,4.2713,-14.8314
119,-755,4.22888,14.8181,0.00576645,0.0121951,-0.0108142,0.0202626,-0.00230105,-0.929855,0.0143371,0.0202435,1343,1779,4.22893,-14.8181
126,-755,4.14868,14.8571,0.00460307,0.0117692,-0.0104042,0.01919,-0.00281775,-0.951231,0.0138286,0.0225279,1350,1779,4.14865,-14.857
133,-755,4.08923,14.8412,0.00328026,0.0107316,-0.009761,0.0174538,-0.00344194,-0.967709,0.0129367,0.022872,1357,1779,4.08919,-14.8411
140,-755,4.09998,14.887,0.00167467,0.00922747,-0.00906351,0.0152698,-0.0043677,-0.982791,0.0119059,0.0290736,1364,1779,4.09995,-14.887
147,-755,4.09631,14.8971,0.000540478,0.00792772,-0.00766948,0.0127467,-0.00427847,-1.00981,0.0102267,0.0308904,1371,1779,4.09636,-14.8971
154,-755,4.10986,14.7386,-0.000971154,0.00660701,-0.00543366,0.00944227,-0.00380641,-1.08987,0.00787644,0.0327889,1378,1779,4.10981,-14.7386
161,-755,4.05908,14.7157,0,0,0,0,0,0,0,-1,1385,1779,4.05911,-14.7157
168,-755,3.98181,7.35901,0,0,0,0,0,0,0,-1,1392,1779,3.98184,-7.35904
175,-755,8.17065,1.34363,0,0,0,0,0,0,0,-1,1399,1779,8.1706,-1.34368
182,-755,8.09216,2.96924,0,0,0,0,0,0,0,-1,1406,1779,8.09213,-2.9693
189,-755,8.04419,4.68042,0,0,0,0,0,0,0,-1,1413,1779,8.04419,-4.68046
196,-755,7.74841,7.4541,0,0,0,0,0,0,0,-1,1420,1779,7.74842,-7.45405
203,-755,4.80554,6.88696,0,0,0,0,0,0,0,-1,1427,1779,4.80554,-6.88697
210,-755,3.07959,4.92688,0,0,0,0,0,0,0,-1,1434,1779,3.07955,-4.9269
217,-755,4.42773,14.2795,0,0,0,0,0,0,0,-1,1441,1779,4.42776,-14.2795
224,-755,4.36694,14.3455,0,0,0,0,0,0,0,-1,1448,1779,4.36689,-14.3454
231,-755,4.2262,13.9114,0,0,0,0,0,0,0,-1,1455,1779,4.2262,-13.9113
238,-755,4.16125,13.4133,0,0,0,0,0,0,0,-1,1462,1779,4.16131,-13.4133
245,-755,4.28406,12.2063,0,0,0,0,0,0,0,-1,1469,1779,4.28405,-12.2063
252,-755,4.57764,10.5864,0,0,0,0,0,0,0,-1,1476,1779,4.57761,-10.5864
259,-755,19.3054,7.79248,0,0,0,0,0,0,0,-1,1483,1779,19.3054,-7.79245
266,-755,17.8599,7.48157,0,0,0,0,0,0,0,-1,1490,1779,17.8598,-7.48152
273,-755,16.4017,7.30176,0,0,0,0,0,0,0,-1,1497,1779,16.4018,-7.30181
280,-755,14.868,7.03943,0,0,0,0,0,0,0,-1,1504,1779,14.868,-7.03948
287,-755,12.8143,6.74976,0,0,0,0,0,0,0,-1,1511,1779,12.8143,-6.74971
294,-755,10.1927,6.44788,0,0,0,0,0,0,0,-1,1518,1779,10.1928,-6.44785
301,-755,8.29565,6.27539,0,0,0,0,0,0,0,-1,1525,1779,8.29569,-6.27534
308,-755,8.76111,7.19995,0,0,0,0,0,0,0,-1,1532,1779,8.76106,-7.19997
315,-755,7.66003,7.40503,0,0,0,0,0,0,0,-1,1539,1779,7.66006,-7.40499
322,-755,0,0,0,0,0,0,0,0,0,-1,1546,1779,0,0
329,-755,0,0,0,0,0,0,0,0,0,-1,1553,1779,0,0
336,-755,0,0,0,0,0,0,0,0,0,-1,1560,1779,0,0
343,-755,0,0,0,0,0,0,0,0,0,-1,1567,1779,0,0
350,-755,0,0,0,0,0,0,0,0,0,-1,1574,1779,0,0
357,-755,0,0,0,0,0,0,0,0,0,-1,1581,1779,0,0
364,-755,0,0,0,0,0,0,0,0,0,-1,1588,1779,0,0
371,-755,0,0,0,0,0,0,0,0,0,-1,1595,1779,0,0
378,-755,0,0,0,0,0,0,0,0,0,-1,1602,1779,0,0
385,-755,0,0,0,0,0,0,0,0,0,-1,1609,1779,0,0
392,-755,0,0,0,0,0,0,0,0,0,-1,1616,1779,0,0
399,-755,0,0,0,0,0,0,0,0,0,-1,1623,1779,0,0
406,-755,0,0,0,0,0,0,0,0,0,-1,1630,1779,0,0
413,-755,0,0,0,0,0,0,0,0,0,-1,1637,1779,0,0
420,-755,0,0,0,0,0,0,0,0,0,-1,1644,1779,0,0
427,-755,0,0,0,0,0,0,0,0,0,-1,1651,1779,0,0
434,-755,0,0,0,0,0,0,0,0,0,-1,1658,1779,0,0
441,-755,0,0,0,0,0,0,0,0,0,-1,1665,1779,0,0
448,-755,0,0,0,0,0,0,0,0,0,-1,1672,1779,0,0
455,-755,0,0,0,0,0,0,0,0,0,-1,1679,1779,0,0
462,-755,0,0,0,0,0,0,0,0,0,-1,1686,1779,0,0
469,-755,0,0,0,0,0,0,0,0,0,-1,1693,1779,0,0
476,-755,0,0,0,0,0,0,0,0,0,-1,1700,1779,0,0
483,-755,0,0,0,0,0,0,0,0,0,-1,1707,1779,0,0
490,-755,0,0,0,0,0,0,0,0,0,-1,1714,1779,0,0
497,-755,0,0,0,0,0,0,0,0,0,-1,1721,1779,0,0
504,-755,0,0,0,0,0,0,0,0,0,-1,1728,1779,0,0
511,-755,0,0,0,0,0,0,0,0,0,-1,1735,1779,0,0
518,-755,0,0,0,0,0,0,0,0,0,-1,1742,1779,0,0
525,-755,0,0,0,0,0,0,0,0,0,-1,1749,1779,0,0
532,-755,0,0,0,0,0,0,0,0,0,-1,1756,1779,0,0
539,-755,0,0,0,0,0,0,0,0,0,-1,1763,1779,0,0
546,-755,0,0,0,0,0,0,0,0,0,-1,1770,1779,0,0
553,-755,0,0,0,0,0,0,0,0,0,-1,1777,1779,0,0
560,-755,0,0,0,0,0,0,0,0,0,-1,1784,1779,0,0
567,-755,0,0,0,0,0,0,0,0,0,-1,1791,1779,0,0
574,-755,0,0,0,0,0,0,0,0,0,-1,1798,1779,0,0
581,-755,0,0,0,0,0,0,0,0,0,-1,1805,1779,0,0
588,-755,0,0,0,0,0,0,0,0,0,-1,1812,1779,0,0
595,-755,0,0,0,0,0,0,0,0,0,-1,1819,1779,0,0
602,-755,0,0,0,0,0,0,0,0,0,-1,1826,1779,0,0
609,-755,0,0,0,0,0,0,0,0,0,-1,1833,1779,0,0
616,-755,0,0,0,0,0,0,0,0,0,-1,1840,1779,0,0
623,-755,0,0,0,0,0,0,0,0,0,-1,1847,1779,0,0
630,-755,0,0,0,0,0,0,0,0,0,-1,1854,1779,0,0
637,-755,0,0,0,0,0,0,0,0,0,-1,1861,1779,0,0
644,-755,0,0,0,0,0,0,0,0,0,-1,1868,1779,0,0
651,-755,0,0,0,0,0,0,0,0,0,-1,1875,1779,0,0
658,-755,0,0,0,0,0,0,0,0,0,-1,1882,1779,0,0
665,-755,0,0,0,0,0,0,0,0,0,-1,1889,1779,0,0
672,-755,0,0,0,0,0,0,0,0,0,-1,1896,1779,0,0
679,-755,0,0,0,0,0,0,0,0,0,-1,1903,1779,0,0
686,-755,0,0,0,0,0,0,0,0,0,-1,1910,1779,0,0
693,-755,0,0,0,0,0,0,0,0,0,-1,1917,1779,0,0
700,-755,0,0,0,0,0,0,0,0,0,-1,1924,1779,0,0
707,-755,0,0,0,0,0,0,0,0,0,-1,1931,1779,0,0
714,-755,0,0,0,0,0,0,0,0,0,-1,1938,1779,0,0
721,-755,0,0,0,0,0,0,0,0,0,-1,1945,1779,0,0
728,-755,0,0,0,0,0,0,0,0,0,-1,1952,1779,0,0
735,-755,0,0,0,0,0,0,0,0,0,-1,1959,1779,0,0
742,-755,0,0,0,0,0,0,0,0,0,-1,1966,1779,0,0
749,-755,0,0,0,0,0,0,0,0,0,-1,1973,1779,0,0
756,-755,0,0,0,0,0,0,0,0,0,-1,1980,1779,0,0
763,-755,0,0,0,0,0,0,0,0,0,-1,1987,1779,0,0
770,-755,0,0,0,0,0,0,0,0,0,-1,1994,1779,0,0
777,-755,0,0,0,0,0,0,0,0,0,-1,2001,1779,0,0
784,-755,0,0,0,0,0,0,0,0,0,-1,2008,1779,0,0
791,-755,0,0,0,0,0,0,0,0,0,-1,2015,1779,0,0
798,-755,0,0,0,0,0,0,0,0,0,-1,2022,1779,0,0
805,-755,0,0,0,0,0,0,0,0,0,-1,2029,1779,0,0
812,-755,0,0,0,0,0,0,0,0,0,-1,2036,1779,0,0
-700,-762,0,0,0,0,0,0,0,0,0,-1,524,1786,0,0
-693,-762,0,0,0,0,0,0,0,0,0,-1,531,1786,0,0
-686,-762,0,0,0,0,0,0,0,0,0,-1,538,1786,0,0
-679,-762,0,0,0,0,0,0,0,0,0,-1,545,1786,0,0
-672,-762,0,0,0,0,0,0,0,0,0,-1,552,1786,0,0
-665,-762,0,0,0,0,0,0,0,0,0,-1,559,1786,0,0
-658,-762,0,0,0,0,0,0,0,0,0,-1,566,1786,0,0
-651,-762,0,0,0,0,0,0,0,0,0,-1,573,1786,0,0
-644,-762,0,0,0,0,0,0,0,0,0,-1,580,1786,0,0
-637,-762,0,0,0,0,0,0,0,0,0,-1,587,1786,0,0
-630,-762,0,0,0,0,0,0,0,0,0,-1,594,1786,0,0
-623,-762,0,0,0,0,0,0,0,0,0,-1,601,1786,0,0
-616,-762,0,0,0,0,0,0,0,0,0,-1,608,1786,0,0
-609,-762,0,0,0,0,0,0,0,0,0,-1,615,1786,0,0
-602,-762,0,0,0,0,0,0,0,0,0,-1,622,1786,0,0
-595,-762,0,0,0,0,0,0,0,0,0,-1,629,1786,0,0
-588,-762,0,0,0,0,0,0,0,0,0,-1,636,1786,0,0
-581,-762,0,0,0,0,0,0,0,0,0,-1,643,1786,0,0
-574,-762,0,0,0,0,0,0,0,0,0,-1,650,1786,0,0
-567,-762,0,0,0,0,0,0,0,0,0,-1,657,1786,0,0
-560,-762,0,0,0,0,0,0,0,0,0,-1,664,1786,0,0
-553,-762,0,0,0,0,0,0,0,0,0,-1,671,1786,0,0
-546,-762,0,0,0,0,0,0,0,0,0,-1,678,1786,0,0
-539,-762,0,0,0,0,0,0,0,0,0,-1,685,1786,0,0
-532,-762,0,0,0,0,0,0,0,0,0,-1,692,1786,0,0
-525,-762,0,0,0,0,0,0,0,0,0,-1,699,1786,0,0
-518,-762,0,0,0,0,0,0,0,0,0,-1,706,1786,0,0
-511,-762,0,0,0,0,0,0,0,0,0,-1,713,1786,0,0
-504,-762,0,0,0,0,0,0,0,0,0,-1,720,1786,0,0
-497,-762,0,0,0,0,0,0,0,0,0,-1,727,1786,0,0
-490,-762,0,0,0,0,0,0,0,0,0,-1,734,1786,0,0
-483,-762,0,0,0,0,0,0,0,0,0,-1,741,1786,0,0
-476,-762,0,0,0,0,0,0,0,0,0,-1,748,1786,0,0
-469,-762,0,0,0,0,0,0,0,0,0,-1,755,1786,0,0
-462,-762,0,0,0,0,0,0,0,0,0,-1,762,1786,0,0
-455,-762,0,0,0,0,0,0,0,0,0,-1,769,1786,0,0
-448,-762,0,0,0,0,0,0,0,0,0,-1,776,1786,0,0
-441,-762,0,0,0,0,0,0,0,0,0,-1,783,1786,0,0
-434,-762,0,0,0,0,0,0,0,0,0,-1,790,1786,0,0
-427,-762,0,0,0,0,0,0,0,0,0,-1,797,1786,0,0
-420,-762,0,0,0,0,0,0,0,0,0,-1,804,1786,0,0
-413,-762,0,0,0,0,0,0,0,0,0,-1,811,1786,0,0
-406,-762,0,0,0,0,0,0,0,0,0,-1,818,1786,0,0
-399,-762,0,0,0,0,0,0,0,0,0,-1,825,1786,0,0
-392,-762,0,0,0,0,0,0,0,0,0,-1,832,1786,0,0
-385,-762,0,0,0,0,0,0,0,0,0,-1,839,1786,0,0
-378,-762,0,0,0,0,0,0,0,0,0,-1,846,1786,0,0
-371,-762,0,0,0,0,0,0,0,0,0,-1,853,1786,0,0
-364,-762,0,0,0,0,0,0,0,0,0,-1,860,1786,0,0
-357,-762,0,0,0,0,0,0,0,0,0,-1,867,1786,0,0
-350,-762,0,0,0,0,0,0,0,0,0,-1,874,1786,0,0
-343,-762,0,0,0,0,0,0,0,0,0,-1,881,1786,0,0
-336,-762,0,0,0,0,0,0,0,0,0,-1,888,1786,0,0
-329,-762,0,0,0,0,0,0,0,0,0,-1,895,1786,0,0
-322,-762,0,0,0,0,0,0,0,0,0,-1,902,1786,0,0
-315,-762,0,0,0,0,0,0,0,0,0,-1,909,1786,0,0
-308,-762,0,0,0,0,0,0,0,0,0,-1,916,1786,0,0
-301,-762,0,0,0,0,0,0,0,0,0,-1,923,1786,0,0
-294,-762,0,0,0,0,0,0,0,0,0,-1,930,1786,0,0
-287,-762,0,0,0,0,0,0,0,0,0,-1,937,1786,0,0
-280,-762,0,0,0,0,0,0,0,0,0,-1,944,1786,0,0
-273,-762,0,0,0,0,0,0,0,0,0,-1,951,1786,0,0
-266,-762,0,0,0,0,0,0,0,0,0,-1,958,1786,0,0
-259,-762,0,0,0,0,0,0,0,0,0,-1,965,1786,0,0
-252,-762,0,0,0,0,0,0,0,0,0,-1,972,1786,0,0
-245,-762,0,0,0,0,0,0,0,0,0,-1,979,1786,0,0
-238,-762,0,0,0,0,0,0,0,0,0,-1,986,1786,0,0
-231,-762,0,0,0,0,0,0,0,0,0,-1,993,1786,0,0
-224,-762,0,0,0,0,0,0,0,0,0,-1,1000,1786,0,0
-217,-762,0,0,0,0,0,0,0,0,0,-1,1007,1786,0,0
-210,-762,0,0,0,0,0,0,0,0,0,-1,1014,1786,0,0
-203,-762,0,0,0,0,0,0,0,0,0,-1,1021,1786,0,0
-196,-762,0,0,0,0,0,0,0,0,0,-1,1028,1786,0,0
-189,-762,0,0,0,0,0,0,0,0,0,-1,1035,1786,0,0
-182,-762,4.44226,13.2462,0,0,0,0,0,0,0,-1,1042,1786,4.44227,-13.2462
-175,-762,4.07861,11.6385,0,0,0,0,0,0,0,-1,1049,1786,4.07866,-11.6386
-168,-762,3.71509,10.031,0,0,0,0,0,0,0,-1,1056,1786,3.71504,-10.031
-161,-762,-3.43958,11.9911,0,0,0,0,0,0,0,-1,1063,1786,-3.43953,-11.9911
-154,-762,-4.57129,10.9923,0,0,0,0,0,0,0,-1,1070,1786,-4.57132,-10.9923
-147,-762,-1.09119,4.58313,0,0,0,0,0,0,0,-1,1077,1786,-1.09124,-4.58313
-140,-762,4.99792,5.28589,0,0,0,0,0,0,0,-1,1084,1786,4.99793,-5.28587
-133,-762,3.75159,9.08374,0,0,0,0,0,0,0,-1,1091,1786,3.75161,-9.08378
-126,-762,4.12476,10.2291,0,0,0,0,0,0,0,-1,1098,1786,4.1247,-10.2291
-119,-762,4.37219,12.9818,0,0,0,0,0,0,0,-1,1105,1786,4.37215,-12.9818
-112,-762,4.37378,13.5757,0,0,0,0,0,0,0,-1,1112,1786,4.37379,-13.5757
-105,-762,4.42432,13.6868,0,0,0,0,0,0,0,-1,1119,1786,4.42429,-13.6868
-98,-762,4.39526,13.8757,0,0,0,0,0,0,0,-1,1126,1786,4.39529,-13.8758
-91,-762,3.979,11.474,0,0,0,0,0,0,0,-1,1133,1786,3.97904,-11.474
-84,-762,0.415161,10.0322,0,0,0,0,0,0,0,-1,1140,1786,0.415179,-10.0322
-77,-762,0.305054,8.49365,0,0,0,0,0,0,0,-1,1147,1786,0.305008,-8.49362
-70,-762,0.183716,6.74622,0,0,0,0,0,0,0,-1,1154,1786,0.183696,-6.74621
-63,-762,0.350098,6.29749,0,0,0,0,0,0,0,-1,1161,1786,0.350114,-6.29743
-56,-762,-0.578979,5.10254,0,0,0,0,0,0,0,-1,1168,1786,-0.578951,-5.10249
-49,-762,-2.04541,3.66321,0,0,0,0,0,0,0,-1,1175,1786,-2.0454,-3.66319
-42,-762,-2.23462,3.474,0,0,0,0,0,0,0,-1,1182,1786,-2.23459,-3.47399
-35,-762,-3.28992,1.68164,0,0,0,0,0,0,0,-1,1189,1786,-3.28998,-1.68164
-28,-762,-3.75378,1.37769,0,0,0,0,0,0,0,-1,1196,1786,-3.75373,-1.37767
-21,-762,4.66626,14.4683,0,0,0,0,0,0,0,-1,1203,1786,4.66627,-14.4682
-14,-762,4.56494,14.573,-0.0303733,-0.00824145,0.0110345,-0.00367997,-0.0349348,1.17881,0.0221653,0.0490786,1210,1786,4.56488,-14.5731
-7,-762,4.44519,14.5081,-0.0273441,-0.00752269,0.0108829,-0.00271403,-0.0321527,1.15474,0.0205902,0.0459901,1217,1786,4.44523,-14.5081
0,-762,4.40186,14.5302,-0.0241936,-0.00722879,0.0104619,-0.00224259,-0.0291798,1.12604,0.0187504,0.0348068,1224,1786,4.40188,-14.5302
7,-762,4.40918,14.6282,-0.0212918,-0.00736849,0.00964157,-0.00243795,-0.0262224,1.09808,0.0167283,0.0205613,1231,1786,4.40913,-14.6282
14,-762,4.43347,14.769,-0.0183207,-0.00700321,0.00828446,-0.00262933,-0.0226946,1.08503,0.0143339,0.0332378,1238,1786,4.4335,-14.769
21,-762,4.41174,14.7816,-0.0152509,-0.00661587,0.00661482,-0.00303421,-0.0188325,1.07453,0.0116758,0.0402746,1245,1786,4.41168,-14.7816
28,-762,4.41895,14.8044,-0.0123567,-0.00598316,0.00503991,-0.00320702,-0.0151328,1.06732,0.00920762,0.0389939,1252,1786,4.41897,-14.8045
35,-762,4.19446,14.9158,-0.00903945,-0.00469114,0.0034795,-0.00276238,-0.0109682,1.06464,0.00658732,0.0437933,1259,1786,4.19451,-14.9158
42,-762,4.25769,14.8684,-0.00614682,-0.00353012,0.00176008,-0.00264537,-0.00703156,1.10501,0.00410093,0.0396695,1266,1786,4.25774,-14.8685
49,-762,4.30859,14.84,-0.00262876,-0.00185983,-0.000659626,-0.0014808,-0.00300778,-1.04926,0.00173661,0.0290719,1273,1786,4.30853,-14.84
56,-762,4.32373,14.8278,0.00113271,-0.000393895,-0.00300694,0.00347172,-0.0027329,-0.6611,0.00359069,0.0228257,1280,1786,4.32373,-14.8278
63,-762,4.32434,14.8273,0.00386215,0.00193458,-0.00529534,0.0082807,-0.00248397,-0.695381,0.00650842,0.0235059,1287,1786,4.32438,-14.8272
70,-762,4.29089,14.8422,0.00538758,0.00464302,-0.00757105,0.0125955,-0.00256489,-0.760832,0.00936972,0.0221075,1294,1786,4.29091,-14.8421
77,-762,4.27319,14.8096,0.00687576,0.00743474,-0.00921794,0.0163774,-0.00206693,-0.800554,0.0116684,0.026268,1301,1786,4.27314,-14.8096
84,-762,4.34949,14.7899,0.00848855,0.0100055,-0.0108076,0.0200812,-0.00158716,-0.82043,0.0139466,0.0327501,1308,1786,4.34946,-14.7899
91,-762,4.42139,14.7681,0.00958172,0.0121878,-0.0122068,0.0231609,-0.00139133,-0.838571,0.0159246,0.0416432,1315,1786,4.42133,-14.7681
98,-762,4.23755,14.8462,0.010456,0.0139565,-0.0134011,0.0257211,-0.0013086,-0.850334,0.0175998,0.0422047,1322,1786,4.23755,-14.8461
105,-762,4.29333,14.8359,0.0107602,0.0156324,-0.0144173,0.027818,-0.00142545,-0.869092,0.0190383,0.0408633,1329,1786,4.29329,-14.8359
112,-762,4.3114,14.7738,0.0104744,0.0167319,-0.0150169,0.0289426,-0.00173618,-0.888103,0.019899,0.043921,1336,1786,4.31144,-14.7738
119,-762,4.31165,14.7491,0.00965004,0.0168417,-0.0152688,0.0289323,-0.00244063,-0.901042,0.0201511,0.0438203,1343,1786,4.31165,-14.7491
126,-762,4.26782,14.804,0.00818918,0.0165241,-0.0150745,0.0279966,-0.00328337,-0.920257,0.0198496,0.044871,1350,1786,4.26779,-14.804
133,-762,4.25879,14.6716,0.0064362,0.0155492,-0.0145887,0.0262764,-0.00429104,-0.936763,0.0191092,0.0450887,1357,1786,4.25877,-14.6716
140,-762,4.02942,14.9756,0.0042073,0.0139886,-0.0141522,0.0240714,-0.00587542,-0.951763,0.0183228,0.0470718,1364,1786,4.02945,-14.9755
147,-762,4.07898,15.0284,0.00250684,0.0127499,-0.0124875,0.0211253,-0.00586856,-0.980004,0.0163936,0.0449363,1371,1786,4.07895,-15.0285
154,-762,4.04797,14.8058,0,0,0,0,0,0,0,-1,1378,1786,4.04792,-14.8057
161,-762,7.93408,-0.126221,0,0,0,0,0,0,0,-1,1385,1786,7.93402,0.126232
168,-762,8.19287,0.880615,0,0,0,0,0,0,0,-1,1392,1786,8.19291,-0.880603
175,-762,8.33997,1.95947,0,0,0,0,0,0,0,-1,1399,1786,8.33997,-1.95942
182,-762,8.28418,3.56482,0,0,0,0,0,0,0,-1,1406,1786,8.28415,-3.56485
189,-762,8.21179,5.23389,0,0,0,0,0,0,0,-1,1413,1786,8.21183,-5.23383
196,-762,8.05969,6.95483,0,0,0,0,0,0,0,-1,1420,1786,8.05972,-6.9548
203,-762,6.1261,3.35522,0,0,0,0,0,0,0,-1,1427,1786,6.12607,-3.35529
210,-762,3.74841,6.60901,0,0,0,0,0,0,0,-1,1434,1786,3.74835,-6.609
217,-762,1.37061,9.86267,0,0,0,0,0,0,0,-1,1441,1786,1.37064,-9.86271
224,-762,4.00732,17.3151,0,0,0,0,0,0,0,-1,1448,1786,4.00731,-17.315
231,-762,4.31372,14.12,0,0,0,0,0,0,0,-1,1455,1786,4.31368,-14.12
238,-762,4.49951,13.9564,0,0,0,0,0,0,0,-1,1462,1786,4.49956,-13.9565
245,-762,4.84253,12.049,0,0,0,0,0,0,0,-1,1469,1786,4.84256,-12.049
252,-762,20.6208,9.06189,0,0,0,0,0,0,0,-1,1476,1786,20.6208,-9.06185
259,-762,19.1664,8.13806,0,0,0,0,0,0,0,-1,1483,1786,19.1664,-8.13807
266,-762,17.4075,7.54456,0,0,0,0,0,0,0,-1,1490,1786,17.4075,-7.54455
273,-762,15.8035,7.57849,0,0,0,0,0,0,0,-1,1497,1786,15.8035,-7.57849
280,-762,14.5614,7.43396,0,0,0,0,0,0,0,-1,1504,1786,14.5614,-7.43401
287,-762,13.2286,6.92615,0,0,0,0,0,0,0,-1,1511,1786,13.2286,-6.92616
294,-762,11.8696,6.71265,0,0,0,0,0,0,0,-1,1518,1786,11.8696,-6.71262
301,-762,7.09546,7.00146,0,0,0,0,0,0,0,-1,1525,1786,7.0954,-7.00144
308,-762,0,0,0,0,0,0,0,0,0,-1,1532,1786,0,0
315,-762,0,0,0,0,0,0,0,0,0,-1,1539,1786,0,0
322,-762,0,0,0,0,0,0,0,0,0,-1,1546,1786,0,0
329,-762,0,0,0,0,0,0,0,0,0,-1,1553,1786,0,0
336,-762,0,0,0,0,0,0,0,0,0,-1,1560,1786,0,0
343,-762,0,0,0,0,0,0,0,0,0,-1,1567,1786,0,0
350,-762,0,0,0,0,0,0,0,0,0,-1,1574,1786,0,0
357,-762,0,0,0,0,0,0,0,0,0,-1,1581,1786,0,0
364,-762,0,0,0,0,0,0,0,0,0,-1,1588,1786,0,0
371,-762,0,0,0,0,0,0,0,0,0,-1,1595,1786,0,0
378,-762,0,0,0,0,0,0,0,0,0,-1,1602,1786,0,0
385,-762,0,0,0,0,0,0,0,0,0,-1,1609,1786,0,0
392,-762,0,0,0,0,0,0,0,0,0,-1,1616,1786,0,0
399,-762,0,0,0,0,0,0,0,0,0,-1,1623,1786,0,0
406,-762,0,0,0,0,0,0,0,0,0,-1,1630,1786,0,0
413,-762,0,0,0,0,0,0,0,0,0,-1,1637,1786,0,0
420,-762,0,0,0,0,0,0,0,0,0,-1,1644,1786,0,0
427,-762,0,0,0,0,0,0,0,0,0,-1,1651,1786,0,0
434,-762,0,0,0,0,0,0,0,0,0,-1,1658,1786,0,0
441,-762,0,0,0,0,0,0,0,0,0,-1,1665,1786,0,0
448,-762,0,0,0,0,0,0,0,0,0,-1,1672,1786,0,0
455,-762,0,0,0,0,0,0,0,0,0,-1,1679,1786,0,0
462,-762,0,0,0,0,0,0,0,0,0,-1,1686,1786,0,0
469,-762,0,0,0,0,0,0,0,0,0,-1,1693,1786,0,0
476,-762,0,0,0,0,0,0,0,0,0,-1,1700,1786,0,0
483,-762,0,0,0,0,0,0,0,0,0,-1,1707,1786,0,0
490,-762,0,0,0,0,0,0,0,0,0,-1,1714,1786,0,0
497,-762,0,0,0,0,0,0,0,0,0,-1,1721,1786,0,0
504,-762,0,0,0,0,0,0,0,0,0,-1,1728,1786,0,0
511,-762,0,0,0,0,0,0,0,0,0,-1,1735,1786,0,0
518,-762,0,0,0,0,0,0,0,0,0,-1,1742,1786,0,0
525,-762,0,0,0,0,0,0,0,0,0,-1,1749,1786,0,0
532,-762,0,0,0,0,0,0,0,0,0,-1,1756,1786,0,0
539,-762,0,0,0,0,0,0,0,0,0,-1,1763,1786,0,0
546,-762,0,0,0,0,0,0,0,0,0,-1,1770,1786,0,0
553,-762,0,0,0,0,0,0,0,0,0,-1,1777,1786,0,0
560,-762,0,0,0,0,0,0,0,0,0,-1,1784,1786,0,0
567,-762,0,0,0,0,0,0,0,0,0,-1,1791,1786,0,0
574,-762,0,0,0,0,0,0,0,0,0,-1,1798,1786,0,0
581,-762,0,0,0,0,0,0,0,0,0,-1,1805,1786,0,0
588,-762,0,0,0,0,0,0,0,0,0,-1,1812,1786,0,0
595,-762,0,0,0,0,0,0,0,0,0,-1,1819,1786,0,0
602,-762,0,0,0,0,0,0,0,0,0,-1,1826,1786,0,0
609,-762,0,0,0,0,0,0,0,0,0,-1,1833,1786,0,0
616,-762,0,0,0,0,0,0,0,0,0,-1,1840,1786,0,0
623,-762,0,0,0,0,0,0,0,0,0,-1,1847,1786,0,0
630,-762,0,0,0,0,0,0,0,0,0,-1,1854,1786,0,0
637,-762,0,0,0,0,0,0,0,0,0,-1,1861,1786,0,0
644,-762,0,0,0,0,0,0,0,0,0,-1,1868,1786,0,0
651,-762,0,0,0,0,0,0,0,0,0,-1,1875,1786,0,0
658,-762,0,0,0,0,0,0,0,0,0,-1,1882,1786,0,0
665,-762,0,0,0,0,0,0,0,0,0,-1,1889,1786,0,0
672,-762,0,0,0,0,0,0,0,0,0,-1,1896,1786,0,0
679,-762,0,0,0,0,0,0,0,0,0,-1,1903,1786,0,0
686,-762,0,0,0,0,0,0,0,0,0,-1,1910,1786,0,0
693,-762,0,0,0,0,0,0,0,0,0,-1,1917,1786,0,0
700,-762,0,0,0,0,0,0,0,0,0,-1,1924,1786,0,0
707,-762,0,0,0,0,0,0,0,0,0,-1,1931,1786,0,0
714,-762,0,0,0,0,0,0,0,0,0,-1,1938,1786,0,0
721,-762,0,0,0,0,0,0,0,0,0,-1,1945,1786,0,0
728,-762,0,0,0,0,0,0,0,0,0,-1,1952,1786,0,0
735,-762,0,0,0,0,0,0,0,0,0,-1,1959,1786,0,0
742,-762,0,0,0,0,0,0,0,0,0,-1,1966,1786,0,0
749,-762,0,0,0,0,0,0,0,0,0,-1,1973,1786,0,0
756,-762,0,0,0,0,0,0,0,0,0,-1,1980,1786,0,0
763,-762,0,0,0,0,0,0,0,0,0,-1,1987,1786,0,0
770,-762,0,0,0,0,0,0,0,0,0,-1,1994,1786,0,0
777,-762,0,0,0,0,0,0,0,0,0,-1,2001,1786,0,0
784,-762,0,0,0,0,0,0,0,0,0,-1,2008,1786,0,0
791,-762,0,0,0,0,0,0,0,0,0,-1,2015,1786,0,0
798,-762,0,0,0,0,0,0,0,0,0,-1,2022,1786,0,0
805,-762,0,0,0,0,0,0,0,0,0,-1,2029,1786,0,0
812,-762,0,0,0,0,0,0,0,0,0,-1,2036,1786,0,0
-700,-769,0,0,0,0,0,0,0,0,0,-1,524,1793,0,0
-693,-769,0,0,0,0,0,0,0,0,0,-1,531,1793,0,0
-686,-769,0,0,0,0,0,0,0,0,0,-1,538,1793,0,0
-679,-769,0,0,0,0,0,0,0,0,0,-1,545,1793,0,0
-672,-769,0,0,0,0,0,0,0,0,0,-1,552,1793,0,0
-665,-769,0,0,0,0,0,0,0,0,0,-1,559,1793,0,0
-658,-769,0,0,0,0,0,0,0,0,0,-1,566,1793,0,0
-651,-769,0,0,0,0,0,0,0,0,0,-1,573,1793,0,0
-644,-769,0,0,0,0,0,0,0,0,0,-1,580,1793,0,0
-637,-769,0,0,0,0,0,0,0,0,0,-1,587,1793,0,0
-630,-769,0,0,0,0,0,0,0,0,0,-1,594,1793,0,0
-623,-769,0,0,0,0,0,0,0,0,0,-1,601,1793,0,0
-616,-769,0,0,0,0,0,0,0,0,0,-1,608,1793,0,0
-609,-769,0,0,0,0,0,0,0,0,0,-1,615,1793,0,0
-602,-769,0,0,0,0,0,0,0,0,0,-1,622,1793,0,0
-595,-769,0,0,0,0,0,0,0,0,0,-1,629,1793,0,0
-588,-769,0,0,0,0,0,0,0,0,0,-1,636,1793,0,0
-581,-769,0,0,0,0,0,0,0,0,0,-1,643,1793,0,0
-574,-769,0,0,0,0,0,0,0,0,0,-1,650,1793,0,0
-567,-769,0,0,0,0,0,0,0,0,0,-1,657,1793,0,0
-560,-769,0,0,0,0,0,0,0,0,0,-1,664,1793,0,0
-553,-769,0,0,0,0,0,0,0,0,0,-1,671,1793,0,0
-546,-769,0,0,0,0,0,0,0,0,0,-1,678,1793,0,0
-539,-769,0,0,0,0,0,0,0,0,0,-1,685,1793,0,0
-532,-769,0,0,0,0,0,0,0,0,0,-1,692,1793,0,0
-525,-769,0,0,0,0,0,0,0,0,0,-1,699,1793,0,0
-518,-769,0,0,0,0,0,0,0,0,0,-1,706,1793,0,0
-511,-769,0,0,0,0,0,0,0,0,0,-1,713,1793,0,0
-504,-769,0,0,0,0,0,0,0,0,0,-1,720,1793,0,0
-497,-769,0,0,0,0,0,0,0,0,0,-1,727,1793,0,0
-490,-769,0,0,0,0,0,0,0,0,0,-1,734,1793,0,0
-483,-769,0,0,0,0,0,0,0,0,0,-1,741,1793,0,0
-476,-769,0,0,0,0,0,0,0,0,0,-1,748,1793,0,0
-469,-769,0,0,0,0,0,0,0,0,0,-1,755,1793,0,0
-462,-769,0,0,0,0,0,0,0,0,0,-1,762,1793,0,0
-455,-769,0,0,0,0,0,0,0,0,0,-1,769,1793,0,0
-448,-769,0,0,0,0,0,0,0,0,0,-1,776,1793,0,0
-441,-769,0,0,0,0,0,0,0,0,0,-1,783,1793,0,0
-434,-769,0,0,0,0,0,0,0,0,0,-1,790,1793,0,0
-427,-769,0,0,0,0,0,0,0,0,0,-1,797,1793,0,0
-420,-769,0,0,0,0,0,0,0,0,0,-1,804,1793,0,0
-413,-769,0,0,0,0,0,0,0,0,0,-1,811,1793,0,0
-406,-769,0,0,0,0,0,0,0,0,0,-1,818,1793,0,0
-399,-769,0,0,0,0,0,0,0,0,0,-1,825,1793,0,0
-392,-769,0,0,0,0,0,0,0,0,0,-1,832,1793,0,0
-385,-769,0,0,0,0,0,0,0,0,0,-1,839,1793,0,0
-378,-769,0,0,0,0,0,0,0,0,0,-1,846,1793,0,0
-371,-769,0,0,0,0,0,0,0,0,0,-1,853,1793,0,0
-364,-769,0,0,0,0,0,0,0,0,0,-1,860,1793,0,0
-357,-769,0,0,0,0,0,0,0,0,0,-1,867,1793,0,0
-350,-769,0,0,0,0,0,0,0,0,0,-1,874,1793,0,0
-343,-769,0,0,0,0,0,0,0,0,0,-1,881,1793,0,0
-336,-769,0,0,0,0,0,0,0,0,0,-1,888,1793,0,0
-329,-769,0,0,0,0,0,0,0,0,0,-1,895,1793,0,0
-322,-769,0,0,0,0,0,0,0,0,0,-1,902,1793,0,0
-315,-769,0,0,0,0,0,0,0,0,0,-1,909,1793,0,0
-308,-769,0,0,0,0,0,0,0,0,0,-1,916,1793,0,0
-301,-769,0,0,0,0,0,0,0,0,0,-1,923,1793,0,0
-294,-769,0,0,0,0,0,0,0,0,0,-1,930,1793,0,0
-287,-769,0,0,0,0,0,0,0,0,0,-1,937,1793,0,0
-280,-769,0,0,0,0,0,0,0,0,0,-1,944,1793,0,0
-273,-769,0,0,0,0,0,0,0,0,0,-1,951,1793,0,0
-266,-769,0,0,0,0,0,0,0,0,0,-1,958,1793,0,0
-259,-769,0,0,0,0,0,0,0,0,0,-1,965,1793,0,0
-252,-769,0,0,0,0,0,0,0,0,0,-1,972,1793,0,0
-245,-769,0,0,0,0,0,0,0,0,0,-1,979,1793,0,0
-238,-769,0,0,0,0,0,0,0,0,0,-1,986,1793,0,0
-231,-769,0,0,0,0,0,0,0,0,0,-1,993,1793,0,0
-224,-769,0,0,0,0,0,0,0,0,0,-1,1000,1793,0,0
-217,-769,0,0,0,0,0,0,0,0,0,-1,1007,1793,0,0
-210,-769,0,0,0,0,0,0,0,0,0,-1,1014,1793,0,0
-203,-769,0,0,0,0,0,0,0,0,0,-1,1021,1793,0,0
-196,-769,0,0,0,0,0,0,0,0,0,-1,1028,1793,0,0
-189,-769,0,0,0,0,0,0,0,0,0,-1,1035,1793,0,0
-182,-769,0,0,0,0,0,0,0,0,0,-1,1042,1793,0,0
-175,-769,0,0,0,0,0,0,0,0,0,-1,1049,1793,0,0
-168,-769,0,0,0,0,0,0,0,0,0,-1,1056,1793,0,0
-161,-769,-3.39258,12.5125,0,0,0,0,0,0,0,-1,1063,1793,-3.39257,-12.5125
-154,-769,-0.813232,5.32874,0,0,0,0,0,0,0,-1,1070,1793,-0.813269,-5.32872
-147,-769,4.26587,4.7002,0,0,0,0,0,0,0,-1,1077,1793,4.26593,-4.70022
-140,-769,4.10376,5.28589,0,0,0,0,0,0,0,-1,1084,1793,4.10371,-5.28584
-133,-769,6.422,8.21777,0,0,0,0,0,0,0,-1,1091,1793,6.42198,-8.21773
-126,-769,5.81738,11.5902,0,0,0,0,0,0,0,-1,1098,1793,5.81743,-11.5903
-119,-769,5.37231,13.1868,0,0,0,0,0,0,0,-1,1105,1793,5.3723,-13.1868
-112,-769,4.86646,13.4065,0,0,0,0,0,0,0,-1,1112,1793,4.86649,-13.4065
-105,-769,4.52856,13.6782,0,0,0,0,0,0,0,-1,1119,1793,4.52852,-13.6783
-98,-769,4.3728,13.6912,0,0,0,0,0,0,0,-1,1126,1793,4.37281,-13.6912
-91,-769,3.89648,12.8438,0,0,0,0,0,0,0,-1,1133,1793,3.89644,-12.8437
-84,-769,3.25684,11.7041,0,0,0,0,0,0,0,-1,1140,1793,3.25681,-11.7041
-77,-769,0.406616,9.9126,0,0,0,0,0,0,0,-1,1147,1793,0.406638,-9.91265
-70,-769,0.99707,7.63843,0,0,0,0,0,0,0,-1,1154,1793,0.997071,-7.63837
-63,-769,-1.5824,8.45093,0,0,0,0,0,0,0,-1,1161,1793,-1.58236,-8.45099
-56,-769,-4.21289,5.6886,0,0,0,0,0,0,0,-1,1168,1793,-4.21291,-5.68859
-49,-769,-2.41443,3.95471,0,0,0,0,0,0,0,-1,1175,1793,-2.41446,-3.95471
-42,-769,-3.1991,2.64941,0,0,0,0,0,0,0,-1,1182,1793,-3.19914,-2.64944
-35,-769,-3.50183,1.73389,0,0,0,0,0,0,0,-1,1189,1793,-3.50189,-1.7339
-28,-769,-3.96985,1.14075,0,0,0,0,0,0,0,-1,1196,1793,-3.96985,-1.14078
-21,-769,3.54541,10.4323,0,0,0,0,0,0,0,-1,1203,1793,3.54539,-10.4322
-14,-769,4.64526,14.6963,0,0,0,0,0,0,0,-1,1210,1793,4.6453,-14.6962
-7,-769,4.51624,14.5232,0,0,0,0,0,0,0,-1,1217,1793,4.51622,-14.5232
0,-769,4.50525,14.4471,-0.0334235,-0.0102128,0.0141016,-0.00355507,-0.0400812,1.1297,0.0256181,0.0460626,1224,1793,4.5053,-14.4472
7,-769,4.24524,14.5437,-0.0293165,-0.0103028,0.0130132,-0.0036937,-0.0359256,1.10087,0.022819,0.044742,1231,1793,4.24523,-14.5437
14,-769,4.06396,15.0527,-0.0251853,-0.00962285,0.0111188,-0.00383294,-0.0309752,1.0907,0.0194984,0.0425497,1238,1793,4.06401,-15.0527
21,-769,4.48743,14.9084,-0.0209009,-0.00875046,0.00885167,-0.00408975,-0.0255616,1.08615,0.0158546,0.0473121,1245,1793,4.48741,-14.9084
28,-769,4.49683,14.8698,0,0,0,0,0,0,0,-1,1252,1793,4.49683,-14.8698
35,-769,4.02747,15.0137,0,0,0,0,0,0,0,-1,1259,1793,4.02741,-15.0137
42,-769,4.21265,14.9313,0,0,0,0,0,0,0,-1,1266,1793,4.21269,-14.9312
49,-769,4.66638,15.0723,-0.00328603,-0.00162791,-0.000383454,-0.00154352,-0.00337041,-1.35419,0.0019482,0.0444621,1273,1793,4.66643,-15.0723
56,-769,4.64685,15.1091,0.00185015,0.00032878,-0.00339123,0.00456496,-0.00238603,-0.675069,0.00407835,0.0440825,1280,1793,4.64685,-15.1091
63,-769,4.50208,15.1074,0.00562703,0.00322143,-0.00622299,0.0107624,-0.00191393,-0.689934,0.00789066,0.0454149,1287,1793,4.5021,-15.1074
70,-769,4.45532,15.2166,0.00786827,0.00649656,-0.00909866,0.0163069,-0.00194205,-0.747779,0.0115731,0.0424417,1294,1793,4.45532,-15.2166
77,-769,4.073,14.7201,0,0,0,0,0,0,0,-1,1301,1793,4.073,-14.7201
84,-769,4.63245,14.6285,0.0125157,0.0131522,-0.013446,0.0262837,-0.000615782,-0.79723,0.0177313,0.0449522,1308,1793,4.63243,-14.6285
91,-769,4.85315,14.4747,0.0142315,0.0158846,-0.0154717,0.0305518,-0.000435635,-0.812084,0.0205146,0.0435856,1315,1793,4.85321,-14.4748
98,-769,4.76904,14.1809,0.0156075,0.018165,-0.0172902,0.0342237,-0.00045114,-0.82231,0.0229677,0.0434746,1322,1793,4.76899,-14.1809
105,-769,4.33313,14.7866,0,0,0,0,0,0,0,-1,1329,1793,4.33315,-14.7866
112,-769,4.35437,14.6895,0,0,0,0,0,0,0,-1,1336,1793,4.35442,-14.6895
119,-769,4.41235,14.6547,0,0,0,0,0,0,0,-1,1343,1793,4.41236,-14.6547
126,-769,4.37634,14.7695,0,0,0,0,0,0,0,-1,1350,1793,4.37634,-14.7695
133,-769,4.43872,14.5656,0,0,0,0,0,0,0,-1,1357,1793,4.4387,-14.5656
140,-769,3.97742,15.0813,0,0,0,0,0,0,0,-1,1364,1793,3.97747,-15.0813
147,-769,4.11035,15.1737,0,0,0,0,0,0,0,-1,1371,1793,4.11035,-15.1737
154,-769,6.37561,1.00024,0,0,0,0,0,0,0,-1,1378,1793,6.37566,-1.00028
161,-769,6.57019,1.53223,0,0,0,0,0,0,0,-1,1385,1793,6.57019,-1.53226
168,-769,8.27637,0.756958,0,0,0,0,0,0,0,-1,1392,1793,8.27639,-0.756944
175,-769,8.47144,2.41174,0,0,0,0,0,0,0,-1,1399,1793,8.47147,-2.4118
182,-769,8.41479,4.05994,0,0,0,0,0,0,0,-1,1406,1793,8.41479,-4.05997
189,-769,8.25049,5.68433,0,0,0,0,0,0,0,-1,1413,1793,8.25054,-5.68428
196,-769,7.97729,7.42847,0,0,0,0,0,0,0,-1,1420,1793,7.9773,-7.42848
203,-769,6.67419,5.07715,0,0,0,0,0,0,0,-1,1427,1793,6.67423,-5.07717
210,-769,4.46021,8.59021,0,0,0,0,0,0,0,-1,1434,1793,4.46023,-8.59018
217,-769,2.24622,12.1031,0,0,0,0,0,0,0,-1,1441,1793,2.24623,-12.1032
224,-769,3.1051,13.2957,0,0,0,0,0,0,0,-1,1448,1793,3.10508,-13.2957
231,-769,4.01929,16.109,0,0,0,0,0,0,0,-1,1455,1793,4.01931,-16.109
238,-769,4.84155,14.62,0,0,0,0,0,0,0,-1,1462,1793,4.84153,-14.6199
245,-769,21.1951,9.82092,0,0,0,0,0,0,0,-1,1469,1793,21.1951,-9.82096
252,-769,20.0562,9.15234,0,0,0,0,0,0,0,-1,1476,1793,20.0561,-9.15231
259,-769,18.5807,8.23254,0,0,0,0,0,0,0,-1,1483,1793,18.5807,-8.23251
266,-769,16.9462,7.63489,0,0,0,0,0,0,0,-1,1490,1793,16.9462,-7.63491
273,-769,15.2043,7.75403,0,0,0,0,0,0,0,-1,1497,1793,15.2043,-7.754
280,-769,13.75,7.79102,0,0,0,0,0,0,0,-1,1504,1793,13.75,-7.791
287,-769,0,0,0,0,0,0,0,0,0,-1,1511,1793,0,0
294,-769,0,0,0,0,0,0,0,0,0,-1,1518,1793,0,0
301,-769,0,0,0,0,0,0,0,0,0,-1,1525,1793,0,0
308,-769,0,0,0,0,0,0,0,0,0,-1,1532,1793,0,0
315,-769,0,0,0,0,0,0,0,0,0,-1,1539,1793,0,0
322,-769,0,0,0,0,0,0,0,0,0,-1,1546,1793,0,0
329,-769,0,0,0,0,0,0,0,0,0,-1,1553,1793,0,0
336,-769,0,0,0,0,0,0,0,0,0,-1,1560,1793,0,0
343,-769,0,0,0,0,0,0,0,0,0,-1,1567,1793,0,0
350,-769,0,0,0,0,0,0,0,0,0,-1,1574,1793,0,0
357,-769,0,0,0,0,0,0,0,0,0,-1,1581,1793,0,0
364,-769,0,0,0,0,0,0,0,0,0,-1,1588,1793,0,0
371,-769,0,0,0,0,0,0,0,0,0,-1,1595,1793,0,0
378,-769,0,0,0,0,0,0,0,0,0,-1,1602,1793,0,0
385,-769,0,0,0,0,0,0,0,0,0,-1,1609,1793,0,0
392,-769,0,0,0,0,0,0,0,0,0,-1,1616,1793,0,0
399,-769,0,0,0,0,0,0,0,0,0,-1,1623,1793,0,0
406,-769,0,0,0,0,0,0,0,0,0,-1,1630,1793,0,0
413,-769,0,0,0,0,0,0,0,0,0,-1,1637,1793,0,0
420,-769,0,0,0,0,0,0,0,0,0,-1,1644,1793,0,0
427,-769,0,0,0,0,0,0,0,0,0,-1,1651,1793,0,0
434,-769,0,0,0,0,0,0,0,0,0,-1,1658,1793,0,0
441,-769,0,0,0,0,0,0,0,0,0,-1,1665,1793,0,0
448,-769,0,0,0,0,0,0,0,0,0,-1,1672,1793,0,0
455,-769,0,0,0,0,0,0,0,0,0,-1,1679,1793,0,0
462,-769,0,0,0,0,0,0,0,0,0,-1,1686,1793,0,0
469,-769,0,0,0,0,0,0,0,0,0,-1,1693,1793,0,0
476,-769,0,0,0,0,0,0,0,0,0,-1,1700,1793,0,0
483,-769,0,0,0,0,0,0,0,0,0,-1,1707,1793,0,0
490,-769,0,0,0,0,0,0,0,0,0,-1,1714,1793,0,0
497,-769,0,0,0,0,0,0,0,0,0,-1,1721,1793,0,0
504,-769,0,0,0,0,0,0,0,0,0,-1,1728,1793,0,0
511,-769,0,0,0,0,0,0,0,0,0,-1,1735,1793,0,0
518,-769,0,0,0,0,0,0,0,0,0,-1,1742,1793,0,0
525,-769,0,0,0,0,0,0,0,0,0,-1,1749,1793,0,0
532,-769,0,0,0,0,0,0,0,0,0,-1,1756,1793,0,0
539,-769,0,0,0,0,0,0,0,0,0,-1,1763,1793,0,0
546,-769,0,0,0,0,0,0,0,0,0,-1,1770,1793,0,0
553,-769,0,0,0,0,0,0,0,0,0,-1,1777,1793,0,0
560,-769,0,0,0,0,0,0,0,0,0,-1,1784,1793,0,0
567,-769,0,0,0,0,0,0,0,0,0,-1,1791,1793,0,0
574,-769,0,0,0,0,0,0,0,0,0,-1,1798,1793,0,0
581,-769,0,0,0,0,0,0,0,0,0,-1,1805,1793,0,0
588,-769,0,0,0,0,0,0,0,0,0,-1,1812,1793,0,0
595,-769,0,0,0,0,0,0,0,0,0,-1,1819,1793,0,0
602,-769,0,0,0,0,0,0,0,0,0,-1,1826,1793,0,0
609,-769,0,0,0,0,0,0,0,0,0,-1,1833,1793,0,0
616,-769,0,0,0,0,0,0,0,0,0,-1,1840,1793,0,0
623,-769,0,0,0,0,0,0,0,0,0,-1,1847,1793,0,0
630,-769,0,0,0,0,0,0,0,0,0,-1,1854,1793,0,0
637,-769,0,0,0,0,0,0,0,0,0,-1,1861,1793,0,0
644,-769,0,0,0,0,0,0,0,0,0,-1,1868,1793,0,0
651,-769,0,0,0,0,0,0,0,0,0,-1,1875,1793,0,0
658,-769,0,0,0,0,0,0,0,0,0,-1,1882,1793,0,0
665,-769,0,0,0,0,0,0,0,0,0,-1,1889,1793,0,0
672,-769,0,0,0,0,0,0,0,0,0,-1,1896,1793,0,0
679,-769,0,0,0,0,0,0,0,0,0,-1,1903,1793,0,0
686,-769,0,0,0,0,0,0,0,0,0,-1,1910,1793,0,0
693,-769,0,0,0,0,0,0,0,0,0,-1,1917,1793,0,0
700,-769,0,0,0,0,0,0,0,0,0,-1,1924,1793,0,0
707,-769,0,0,0,0,0,0,0,0,0,-1,1931,1793,0,0
714,-769,0,0,0,0,0,0,0,0,0,-1,1938,1793,0,0
721,-769,0,0,0,0,0,0,0,0,0,-1,1945,1793,0,0
728,-769,0,0,0,0,0,0,0,0,0,-1,1952,1793,0,0
735,-769,0,0,0,0,0,0,0,0,0,-1,1959,1793,0,0
742,-769,0,0,0,0,0,0,0,0,0,-1,1966,1793,0,0
749,-769,0,0,0,0,0,0,0,0,0,-1,1973,1793,0,0
756,-769,0,0,0,0,0,0,0,0,0,-1,1980,1793,0,0
763,-769,0,0,0,0,0,0,0,0,0,-1,1987,1793,0,0
770,-769,0,0,0,0,0,0,0,0,0,-1,1994,1793,0,0
777,-769,0,0,0,0,0,0,0,0,0,-1,2001,1793,0,0
784,-769,0,0,0,0,0,0,0,0,0,-1,2008,1793,0,0
791,-769,0,0,0,0,0,0,0,0,0,-1,2015,1793,0,0
798,-769,0,0,0,0,0,0,0,0,0,-1,2022,1793,0,0
805,-769,0,0,0,0,0,0,0,0,0,-1,2029,1793,0,0
812,-769,0,0,0,0,0,0,0,0,0,-1,2036,1793,0,0
-700,-776,0,0,0,0,0,0,0,0,0,-1,524,1800,0,0
-693,-776,0,0,0,0,0,0,0,0,0,-1,531,1800,0,0
-686,-776,0,0,0,0,0,0,0,0,0,-1,538,1800,0,0
-679,-776,0,0,0,0,0,0,0,0,0,-1,545,1800,0,0
-672,-776,0,0,0,0,0,0,0,0,0,-1,552,1800,0,0
-665,-776,0,0,0,0,0,0,0,0,0,-1,559,1800,0,0
-658,-776,0,0,0,0,0,0,0,0,0,-1,566,1800,0,0
-651,-776,0,0,0,0,0,0,0,0,0,-1,573,1800,0,0
-644,-776,0,0,0,0,0,0,0,0,0,-1,580,1800,0,0
-637,-776,0,0,0,0,0,0,0,0,0,-1,587,1800,0,0
-630,-776,0,0,0,0,0,0,0,0,0,-1,594,1800,0,0
-623,-776,0,0,0,0,0,0,0,0,0,-1,601,1800,0,0
-616,-776,0,0,0,0,0,0,0,0,0,-1,608,1800,0,0
-609,-776,0,0,0,0,0,0,0,0,0,-1,615,1800,0,0
-602,-776,0,0,0,0,0,0,0,0,0,-1,622,1800,0,0
-595,-776,0,0,0,0,0,0,0,0,0,-1,629,1800,0,0
-588,-776,0,0,0,0,0,0,0,0,0,-1,636,1800,0,0
-581,-776,0,0,0,0,0,0,0,0,0,-1,643,1800,0,0
-574,-776,0,0,0,0,0,0,0,0,0,-1,650,1800,0,0
-567,-776,0,0,0,0,0,0,0,0,0,-1,657,1800,0,0
-560,-776,0,0,0,0,0,0,0,0,0,-1,664,1800,0,0
-553,-776,0,0,0,0,0,0,0,0,0,-1,671,1800,0,0
-546,-776,0,0,0,0,0,0,0,0,0,-1,678,1800,0,0
-539,-776,0,0,0,0,0,0,0,0,0,-1,685,1800,0,0
-532,-776,0,0,0,0,0,0,0,0,0,-1,692,1800,0,0
-525,-776,0,0,0,0,0,0,0,0,0,-1,699,1800,0,0
-518,-776,0,0,0,0,0,0,0,0,0,-1,706,1800,0,0
-511,-776,0,0,0,0,0,0,0,0,0,-1,713,1800,0,0
-504,-776,0,0,0,0,0,0,0,0,0,-1,720,1800,0,0
-497,-776,0,0,0,0,0,0,0,0,0,-1,727,1800,0,0
-490,-776,0,0,0,0,0,0,0,0,0,-1,734,1800,0,0
-483,-776,0,0,0,0,0,0,0,0,0,-1,741,1800,0,0
-476,-776,0,0,0,0,0,0,0,0,0,-1,748,1800,0,0
-469,-776,0,0,0,0,0,0,0,0,0,-1,755,1800,0,0
-462,-776,0,0,0,0,0,0,0,0,0,-1,762,1800,0,0
-455,-776,0,0,0,0,0,0,0,0,0,-1,769,1800,0,0
-448,-776,0,0,0,0,0,0,0,0,0,-1,776,1800,0,0
-441,-776,0,0,0,0,0,0,0,0,0,-1,783,1800,0,0
-434,-776,0,0,0,0,0,0,0,0,0,-1,790,1800,0,0
-427,-776,0,0,0,0,0,0,0,0,0,-1,797,1800,0,0
-420,-776,0,0,0,0,0,0,0,0,0,-1,804,1800,0,0
-413,-776,0,0,0,0,0,0,0,0,0,-1,811,1800,0,0
-406,-776,0,0,0,0,0,0,0,0,0,-1,818,1800,0,0
-399,-776,0,0,0,0,0,0,0,0,0,-1,825,1800,0,0
-392,-776,0,0,0,0,0,0,0,0,0,-1,832,1800,0,0
-385,-776,0,0,0,0,0,0,0,0,0,-1,839,1800,0,0
-378,-776,0,0,0,0,0,0,0,0,0,-1,846,1800,0,0
-371,-776,0,0,0,0,0,0,0,0,0,-1,853,1800,0,0
-364,-776,0,0,0,0,0,0,0,0,0,-1,860,1800,0,0
-357,-776,0,0,0,0,0,0,0,0,0,-1,867,1800,0,0
-350,-776,0,0,0,0,0,0,0,0,0,-1,874,1800,0,0
-343,-776,0,0,0,0,0,0,0,0,0,-1,881,1800,0,0
-336,-776,0,0,0,0,0,0,0,0,0,-1,888,1800,0,0
-329,-776,0,0,0,0,0,0,0,0,0,-1,895,1800,0,0
-322,-776,0,0,0,0,0,0,0,0,0,-1,902,1800,0,0
-315,-776,0,0,0,0,0,0,0,0,0,-1,909,1800,0,0
-308,-776,0,0,0,0,0,0,0,0,0,-1,916,1800,0,0
-301,-776,0,0,0,0,0,0,0,0,0,-1,923,1800,0,0
-294,-776,0,0,0,0,0,0,0,0,0,-1,930,1800,0,0
-287,-776,0,0,0,0,0,0,0,0,0,-1,937,1800,0,0
-280,-776,0,0,0,0,0,0,0,0,0,-1,944,1800,0,0
-273,-776,0,0,0,0,0,0,0,0,0,-1,951,1800,0,0
-266,-776,0,0,0,0,0,0,0,0,0,-1,958,1800,0,0
-259,-776,0,0,0,0,0,0,0,0,0,-1,965,1800,0,0
-252,-776,0,0,0,0,0,0,0,0,0,-1,972,1800,0,0
-245,-776,0,0,0,0,0,0,0,0,0,-1,979,1800,0,0
-238,-776,0,0,0,0,0,0,0,0,0,-1,986,1800,0,0
-231,-776,0,0,0,0,0,0,0,0,0,-1,993,1800,0,0
-224,-776,0,0,0,0,0,0,0,0,0,-1,1000,1800,0,0
-217,-776,0,0,0,0,0,0,0,0,0,-1,1007,1800,0,0
-210,-776,0,0,0,0,0,0,0,0,0,-1,1014,1800,0,0
-203,-776,0,0,0,0,0,0,0,0,0,-1,1021,1800,0,0
-196,-776,0,0,0,0,0,0,0,0,0,-1,1028,1800,0,0
-189,-776,0,0,0,0,0,0,0,0,0,-1,1035,1800,0,0
-182,-776,0,0,0,0,0,0,0,0,0,-1,1042,1800,0,0
-175,-776,0,0,0,0,0,0,0,0,0,-1,1049,1800,0,0
-168,-776,0,0,0,0,0,0,0,0,0,-1,1056,1800,0,0
-161,-776,0,0,0,0,0,0,0,0,0,-1,1063,1800,0,0
-154,-776,0,0,0,0,0,0,0,0,0,-1,1070,1800,0,0
-147,-776,0,0,0,0,0,0,0,0,0,-1,1077,1800,0,0
-140,-776,2.98499,5.20911,0,0,0,0,0,0,0,-1,1084,1800,2.98493,-5.2091
-133,-776,6.72363,9.35828,0,0,0,0,0,0,0,-1,1091,1800,6.72358,-9.35824
-126,-776,4.9613,13.2006,0,0,0,0,0,0,0,-1,1098,1800,4.96128,-13.2005
-119,-776,4.56226,13.1111,0,0,0,0,0,0,0,-1,1105,1800,4.56223,-13.111
-112,-776,4.80701,14.1293,0,0,0,0,0,0,0,-1,1112,1800,4.80698,-14.1292
-105,-776,4.47327,13.9043,0,0,0,0,0,0,0,-1,1119,1800,4.47331,-13.9044
-98,-776,4.35876,13.9633,0,0,0,0,0,0,0,-1,1126,1800,4.35879,-13.9633
-91,-776,3.81384,14.2134,0,0,0,0,0,0,0,-1,1133,1800,3.81384,-14.2134
-84,-776,0.175415,12.9197,0,0,0,0,0,0,0,-1,1140,1800,0.175445,-12.9197
-77,-776,0.580078,11.1272,0,0,0,0,0,0,0,-1,1147,1800,0.58002,-11.1272
-70,-776,-0.187744,12.3109,0,0,0,0,0,0,0,-1,1154,1800,-0.187766,-12.3109
-63,-776,-2.69922,9.16687,0,0,0,0,0,0,0,-1,1161,1800,-2.69921,-9.16686
-56,-776,-5.23718,6.32825,0,0,0,0,0,0,0,-1,1168,1800,-5.23714,-6.32822
-49,-776,-7.62952,3.1908,0,0,0,0,0,0,0,-1,1175,1800,-7.62955,-3.19076
-42,-776,-3.41272,3.0249,0,0,0,0,0,0,0,-1,1182,1800,-3.41269,-3.02488
-35,-776,-3.71753,1.63635,0,0,0,0,0,0,0,-1,1189,1800,-3.71755,-1.63631
-28,-776,-4.03979,0.716064,0,0,0,0,0,0,0,-1,1196,1800,-4.03977,-0.716055
-21,-776,3.37305,11.3751,0,0,0,0,0,0,0,-1,1203,1800,3.37306,-11.3751
-14,-776,6.74011,14.8035,0,0,0,0,0,0,0,-1,1210,1800,6.74008,-14.8035
-7,-776,4.85205,14.2847,0,0,0,0,0,0,0,-1,1217,1800,4.85202,-14.2846
0,-776,4.54016,14.3232,-0.044426,-0.0139509,0.0182748,-0.00539447,-0.0529824,1.13291,0.0336678,0.0451545,1224,1800,4.54017,-14.3233
7,-776,3.78003,14.3671,-0.0388725,-0.0140078,0.0169035,-0.00545705,-0.0474233,1.10247,0.0299626,0.0430021,1231,1800,3.78003,-14.3671
14,-776,3.63879,14.8043,-0.0333885,-0.0128894,0.0143566,-0.00549902,-0.0407788,1.0954,0.0255509,0.0432886,1238,1800,3.63875,-14.8044
21,-776,4.39343,14.7339,-0.0276639,-0.011297,0.0113993,-0.00544785,-0.033513,1.09671,0.0207656,0.0437566,1245,1800,4.39347,-14.7339
28,-776,4.28503,14.7429,0,0,0,0,0,0,0,-1,1252,1800,4.28498,-14.743
35,-776,4.24866,14.7987,0,0,0,0,0,0,0,-1,1259,1800,4.24865,-14.7987
42,-776,4.80615,15.4427,-0.0104998,-0.00391385,0.00367165,-0.00227482,-0.0121388,1.15094,0.00745095,0.0433505,1266,1800,4.80612,-15.4427
49,-776,4.67346,15.1947,-0.00401394,-0.00107595,0.000140226,-0.00106927,-0.00402062,1.52321,0.00240459,0.0440678,1273,1800,4.67345,-15.1947
56,-776,4.87878,15.3193,0,0,0,0,0,0,0,-1,1280,1800,4.87882,-15.3194
63,-776,4.3855,15.2433,0,0,0,0,0,0,0,-1,1287,1800,4.38549,-15.2432
70,-776,4.2605,15.2526,0,0,0,0,0,0,0,-1,1294,1800,4.26045,-15.2526
77,-776,5.11682,14.8784,0,0,0,0,0,0,0,-1,1301,1800,5.11681,-14.8784
84,-776,4.82922,14.6371,0,0,0,0,0,0,0,-1,1308,1800,4.82924,-14.6371
91,-776,4.96887,14.2268,0,0,0,0,0,0,0,-1,1315,1800,4.96885,-14.2268
98,-776,4.63171,13.3027,0.0223578,0.0228324,-0.0216738,0.0442702,0.000920039,-0.790872,0.0292116,0.0438372,1322,1800,4.63175,-13.3028
105,-776,4.5979,12.1495,0,0,0,0,0,0,0,-1,1329,1800,4.59792,-12.1496
112,-776,4.5,11.2612,0.0233725,0.0274723,-0.0262863,0.0517886,-0.000943683,-0.824311,0.0348445,0.048156,1336,1800,4.49996,-11.2612
119,-776,4.34729,10.3385,0.0227083,0.0283885,-0.027772,0.0534652,-0.00236846,-0.836354,0.0364586,0.0467359,1343,1800,4.34735,-10.3385
126,-776,4.08069,9.51208,0,0,0,0,0,0,0,-1,1350,1800,4.08071,-9.51214
133,-776,0.898315,15.8926,0,0,0,0,0,0,0,-1,1357,1800,0.898308,-15.8926
140,-776,4.39331,10.0631,0,0,0,0,0,0,0,-1,1364,1800,4.39332,-10.0631
147,-776,6.46301,-0.617188,0,0,0,0,0,0,0,-1,1371,1800,6.46305,0.61724
154,-776,6.43774,0.344116,0,0,0,0,0,0,0,-1,1378,1800,6.43776,-0.344162
161,-776,6.50293,1.1731,0,0,0,0,0,0,0,-1,1385,1800,6.5029,-1.17313
168,-776,8.44971,1.22913,0,0,0,0,0,0,0,-1,1392,1800,8.44974,-1.22915
175,-776,8.61523,2.87061,0,0,0,0,0,0,0,-1,1399,1800,8.6152,-2.87063
182,-776,8.54065,4.60645,0,0,0,0,0,0,0,-1,1406,1800,8.5407,-4.60643
189,-776,8.35303,6.28223,0,0,0,0,0,0,0,-1,1413,1800,8.35297,-6.28225
196,-776,8.0387,8.21704,0,0,0,0,0,0,0,-1,1420,1800,8.03865,-8.217
203,-776,7.91736,9.79919,0,0,0,0,0,0,0,-1,1427,1800,7.91735,-9.79922
210,-776,5.03577,10.4949,0,0,0,0,0,0,0,-1,1434,1800,5.03574,-10.4948
217,-776,1.48315,8.46082,0,0,0,0,0,0,0,-1,1441,1800,1.48314,-8.46081
224,-776,3.09253,14.9313,0,0,0,0,0,0,0,-1,1448,1800,3.09254,-14.9313
231,-776,14.7521,7.10779,0,0,0,0,0,0,0,-1,1455,1800,14.7521,-7.10776
238,-776,14.3297,7.43896,0,0,0,0,0,0,0,-1,1462,1800,14.3298,-7.43896
245,-776,20.6941,10.4924,0,0,0,0,0,0,0,-1,1469,1800,20.6941,-10.4924
252,-776,19.6592,9.16882,0,0,0,0,0,0,0,-1,1476,1800,19.6592,-9.16888
259,-776,14.1882,7.69055,0,0,0,0,0,0,0,-1,1483,1800,14.1882,-7.69061
266,-776,0,0,0,0,0,0,0,0,0,-1,1490,1800,0,0
273,-776,0,0,0,0,0,0,0,0,0,-1,1497,1800,0,0
280,-776,0,0,0,0,0,0,0,0,0,-1,1504,1800,0,0
287,-776,0,0,0,0,0,0,0,0,0,-1,1511,1800,0,0
294,-776,0,0,0,0,0,0,0,0,0,-1,1518,1800,0,0
301,-776,0,0,0,0,0,0,0,0,0,-1,1525,1800,0,0
308,-776,0,0,0,0,0,0,0,0,0,-1,1532,1800,0,0
315,-776,0,0,0,0,0,0,0,0,0,-1,1539,1800,0,0
322,-776,0,0,0,0,0,0,0,0,0,-1,1546,1800,0,0
329,-776,0,0,0,0,0,0,0,0,0,-1,1553,1800,0,0
336,-776,0,0,0,0,0,0,0,0,0,-1,1560,1800,0,0
343,-776,0,0,0,0,0,0,0,0,0,-1,1567,1800,0,0
350,-776,0,0,0,0,0,0,0,0,0,-1,1574,1800,0,0
357,-776,0,0,0,0,0,0,0,0,0,-1,1581,1800,0,0
364,-776,0,0,0,0,0,0,0,0,0,-1,1588,1800,0,0
371,-776,0,0,0,0,0,0,0,0,0,-1,1595,1800,0,0
378,-776,0,0,0,0,0,0,0,0,0,-1,1602,1800,0,0
385,-776,0,0,0,0,0,0,0,0,0,-1,1609,1800,0,0
392,-776,0,0,0,0,0,0,0,0,0,-1,1616,1800,0,0
399,-776,0,0,0,0,0,0,0,0,0,-1,1623,1800,0,0
406,-776,0,0,0,0,0,0,0,0,0,-1,1630,1800,0,0
413,-776,0,0,0,0,0,0,0,0,0,-1,1637,1800,0,0
420,-776,0,0,0,0,0,0,0,0,0,-1,1644,1800,0,0
427,-776,0,0,0,0,0,0,0,0,0,-1,1651,1800,0,0
434,-776,0,0,0,0,0,0,0,0,0,-1,1658,1800,0,0
441,-776,0,0,0,0,0,0,0,0,0,-1,1665,1800,0,0
448,-776,0,0,0,0,0,0,0,0,0,-1,1672,1800,0,0
455,-776,0,0,0,0,0,0,0,0,0,-1,1679,1800,0,0
462,-776,0,0,0,0,0,0,0,0,0,-1,1686,1800,0,0
469,-776,0,0,0,0,0,0,0,0,0,-1,1693,1800,0,0
476,-776,0,0,0,0,0,0,0,0,0,-1,1700,1800,0,0
483,-776,0,0,0,0,0,0,0,0,0,-1,1707,1800,0,0
490,-776,0,0,0,0,0,0,0,0,0,-1,1714,1800,0,0
497,-776,0,0,0,0,0,0,0,0,0,-1,1721,1800,0,0
504,-776,0,0,0,0,0,0,0,0,0,-1,1728,1800,0,0
511,-776,0,0,0,0,0,0,0,0,0,-1,1735,1800,0,0
518,-776,0,0,0,0,0,0,0,0,0,-1,1742,1800,0,0
525,-776,0,0,0,0,0,0,0,0,0,-1,1749,1800,0,0
532,-776,0,0,0,0,0,0,0,0,0,-1,1756,1800,0,0
539,-776,0,0,0,0,0,0,0,0,0,-1,1763,1800,0,0
546,-776,0,0,0,0,0,0,0,0,0,-1,1770,1800,0,0
553,-776,0,0,0,0,0,0,0,0,0,-1,1777,1800,0,0
560,-776,0,0,0,0,0,0,0,0,0,-1,1784,1800,0,0
567,-776,0,0,0,0,0,0,0,0,0,-1,1791,1800,0,0
574,-776,0,0,0,0,0,0,0,0,0,-1,1798,1800,0,0
581,-776,0,0,0,0,0,0,0,0,0,-1,1805,1800,0,0
588,-776,0,0,0,0,0,0,0,0,0,-1,1812,1800,0,0
595,-776,0,0,0,0,0,0,0,0,0,-1,1819,1800,0,0
602,-776,0,0,0,0,0,0,0,0,0,-1,1826,1800,0,0
609,-776,0,0,0,0,0,0,0,0,0,-1,1833,1800,0,0
616,-776,0,0,0,0,0,0,0,0,0,-1,1840,1800,0,0
623,-776,0,0,0,0,0,0,0,0,0,-1,1847,1800,0,0
630,-776,0,0,0,0,0,0,0,0,0,-1,1854,1800,0,0
637,-776,0,0,0,0,0,0,0,0,0,-1,1861,1800,0,0
644,-776,0,0,0,0,0,0,0,0,0,-1,1868,1800,0,0
651,-776,0,0,0,0,0,0,0,0,0,-1,1875,1800,0,0
658,-776,0,0,0,0,0,0,0,0,0,-1,1882,1800,0,0
665,-776,0,0,0,0,0,0,0,0,0,-1,1889,1800,0,0
672,-776,0,0,0,0,0,0,0,0,0,-1,1896,1800,0,0
679,-776,0,0,0,0,0,0,0,0,0,-1,1903,1800,0,0
686,-776,0,0,0,0,0,0,0,0,0,-1,1910,1800,0,0
693,-776,0,0,0,0,0,0,0,0,0,-1,1917,1800,0,0
700,-776,0,0,0,0,0,0,0,0,0,-1,1924,1800,0,0
707,-776,0,0,0,0,0,0,0,0,0,-1,1931,1800,0,0
714,-776,0,0,0,0,0,0,0,0,0,-1,1938,1800,0,0
721,-776,0,0,0,0,0,0,0,0,0,-1,1945,1800,0,0
728,-776,0,0,0,0,0,0,0,0,0,-1,1952,1800,0,0
735,-776,0,0,0,0,0,0,0,0,0,-1,1959,1800,0,0
742,-776,0,0,0,0,0,0,0,0,0,-1,1966,1800,0,0
749,-776,0,0,0,0,0,0,0,0,0,-1,1973,1800,0,0
756,-776,0,0,0,0,0,0,0,0,0,-1,1980,1800,0,0
763,-776,0,0,0,0,0,0,0,0,0,-1,1987,1800,0,0
770,-776,0,0,0,0,0,0,0,0,0,-1,1994,1800,0,0
777,-776,0,0,0,0,0,0,0,0,0,-1,2001,1800,0,0
784,-776,0,0,0,0,0,0,0,0,0,-1,2008,1800,0,0
791,-776,0,0,0,0,0,0,0,0,0,-1,2015,1800,0,0
798,-776,0,0,0,0,0,0,0,0,0,-1,2022,1800,0,0
805,-776,0,0,0,0,0,0,0,0,0,-1,2029,1800,0,0
812,-776,0,0,0,0,0,0,0,0,0,-1,2036,1800,0,0
-700,-783,0,0,0,0,0,0,0,0,0,-1,524,1807,0,0
-693,-783,0,0,0,0,0,0,0,0,0,-1,531,1807,0,0
-686,-783,0,0,0,0,0,0,0,0,0,-1,538,1807,0,0
-679,-783,0,0,0,0,0,0,0,0,0,-1,545,1807,0,0
-672,-783,0,0,0,0,0,0,0,0,0,-1,552,1807,0,0
-665,-783,0,0,0,0,0,0,0,0,0,-1,559,1807,0,0
-658,-783,0,0,0,0,0,0,0,0,0,-1,566,1807,0,0
-651,-783,0,0,0,0,0,0,0,0,0,-1,573,1807,0,0
-644,-783,0,0,0,0,0,0,0,0,0,-1,580,1807,0,0
-637,-783,0,0,0,0,0,0,0,0,0,-1,587,1807,0,0
-630,-783,0,0,0,0,0,0,0,0,0,-1,594,1807,0,0
-623,-783,0,0,0,0,0,0,0,0,0,-1,601,1807,0,0
-616,-783,0,0,0,0,0,0,0,0,0,-1,608,1807,0,0
-609,-783,0,0,0,0,0,0,0,0,0,-1,615,1807,0,0
-602,-783,0,0,0,0,0,0,0,0,0,-1,622,1807,0,0
-595,-783,0,0,0,0,0,0,0,0,0,-1,629,1807,0,0
-588,-783,0,0,0,0,0,0,0,0,0,-1,636,1807,0,0
-581,-783,0,0,0,0,0,0,0,0,0,-1,643,1807,0,0
-574,-783,0,0,0,0,0,0,0,0,0,-1,650,1807,0,0
-567,-783,0,0,0,0,0,0,0,0,0,-1,657,1807,0,0
-560,-783,0,0,0,0,0,0,0,0,0,-1,664,1807,0,0
-553,-783,0,0,0,0,0,0,0,0,0,-1,671,1807,0,0
-546,-783,0,0,0,0,0,0,0,0,0,-1,678,1807,0,0
-539,-783,0,0,0,0,0,0,0,0,0,-1,685,1807,0,0
-532,-783,0,0,0,0,0,0,0,0,0,-1,692,1807,0,0
-525,-783,0,0,0,0,0,0,0,0,0,-1,699,1807,0,0
-518,-783,0,0,0,0,0,0,0,0,0,-1,706,1807,0,0
-511,-783,0,0,0,0,0,0,0,0,0,-1,713,1807,0,0
-504,-783,0,0,0,0,0,0,0,0,0,-1,720,1807,0,0
-497,-783,0,0,0,0,0,0,0,0,0,-1,727,1807,0,0
-490,-783,0,0,0,0,0,0,0,0,0,-1,734,1807,0,0
-483,-783,0,0,0,0,0,0,0,0,0,-1,741,1807,0,0
-476,-783,0,0,0,0,0,0,0,0,0,-1,748,1807,0,0
-469,-783,0,0,0,0,0,0,0,0,0,-1,755,1807,0,0
-462,-783,0,0,0,0,0,0,0,0,0,-1,762,1807,0,0
-455,-783,0,0,0,0,0,0,0,0,0,-1,769,1807,0,0
-448,-783,0,0,0,0,0,0,0,0,0,-1,776,1807,0,0
-441,-783,0,0,0,0,0,0,0,0,0,-1,783,1807,0,0
-434,-783,0,0,0,0,0,0,0,0,0,-1,790,1807,0,0
-427,-783,0,0,0,0,0,0,0,0,0,-1,797,1807,0,0
-420,-783,0,0,0,0,0,0,0,0,0,-1,804,1807,0,0
-413,-783,0,0,0,0,0,0,0,0,0,-1,811,1807,0,0
-406,-783,0,0,0,0,0,0,0,0,0,-1,818,1807,0,0
-399,-783,0,0,0,0,0,0,0,0,0,-1,825,1807,0,0
-392,-783,0,0,0,0,0,0,0,0,0,-1,832,1807,0,0
-385,-783,0,0,0,0,0,0,0,0,0,-1,839,1807,0,0
-378,-783,0,0,0,0,0,0,0,0,0,-1,846,1807,0,0
-371,-783,0,0,0,0,0,0,0,0,0,-1,853,1807,0,0
-364,-783,0,0,0,0,0,0,0,0,0,-1,860,1807,0,0
-357,-783,0,0,0,0,0,0,0,0,0,-1,867,1807,0,0
-350,-783,0,0,0,0,0,0,0,0,0,-1,874,1807,0,0
-343,-783,0,0,0,0,0,0,0,0,0,-1,881,1807,0,0
-336,-783,0,0,0,0,0,0,0,0,0,-1,888,1807,0,0
-329,-783,0,0,0,0,0,0,0,0,0,-1,895,1807,0,0
-322,-783,0,0,0,0,0,0,0,0,0,-1,902,1807,0,0
-315,-783,0,0,0,0,0,0,0,0,0,-1,909,1807,0,0
-308,-783,0,0,0,0,0,0,0,0,0,-1,916,1807,0,0
-301,-783,0,0,0,0,0,0,0,0,0,-1,923,1807,0,0
-294,-783,0,0,0,0,0,0,0,0,0,-1,930,1807,0,0
-287,-783,0,0,0,0,0,0,0,0,0,-1,937,1807,0,0
-280,-783,0,0,0,0,0,0,0,0,0,-1,944,1807,0,0
-273,-783,0,0,0,0,0,0,0,0,0,-1,951,1807,0,0
-266,-783,0,0,0,0,0,0,0,0,0,-1,958,1807,0,0
-259,-783,0,0,0,0,0,0,0,0,0,-1,965,1807,0,0
-252,-783,0,0,0,0,0,0,0,0,0,-1,972,1807,0,0
-245,-783,0,0,0,0,0,0,0,0,0,-1,979,1807,0,0
-238,-783,0,0,0,0,0,0,0,0,0,-1,986,1807,0,0
-231,-783,0,0,0,0,0,0,0,0,0,-1,993,1807,0,0
-224,-783,0,0,0,0,0,0,0,0,0,-1,1000,1807,0,0
-217,-783,0,0,0,0,0,0,0,0,0,-1,1007,1807,0,0
-210,-783,0,0,0,0,0,0,0,0,0,-1,1014,1807,0,0
-203,-783,0,0,0,0,0,0,0,0,0,-1,1021,1807,0,0
-196,-783,0,0,0,0,0,0,0,0,0,-1,1028,1807,0,0
-189,-783,0,0,0,0,0,0,0,0,0,-1,1035,1807,0,0
-182,-783,0,0,0,0,0,0,0,0,0,-1,1042,1807,0,0
-175,-783,0,0,0,0,0,0,0,0,0,-1,1049,1807,0,0
-168,-783,0,0,0,0,0,0,0,0,0,-1,1056,1807,0,0
-161,-783,0,0,0,0,0,0,0,0,0,-1,1063,1807,0,0
-154,-783,0,0,0,0,0,0,0,0,0,-1,1070,1807,0,0
-147,-783,0,0,0,0,0,0,0,0,0,-1,1077,1807,0,0
-140,-783,0,0,0,0,0,0,0,0,0,-1,1084,1807,0,0
-133,-783,0,0,0,0,0,0,0,0,0,-1,1091,1807,0,0
-126,-783,0,0,0,0,0,0,0,0,0,-1,1098,1807,0,0
-119,-783,0,0,0,0,0,0,0,0,0,-1,1105,1807,0,0
-112,-783,5.35229,15.2482,0,0,0,0,0,0,0,-1,1112,1807,5.35229,-15.2482
-105,-783,4.41919,14.488,0,0,0,0,0,0,0,-1,1119,1807,4.41917,-14.4881
-98,-783,3.11047,14.0786,0,0,0,0,0,0,0,-1,1126,1807,3.11046,-14.0786
-91,-783,1.01868,14.7838,0,0,0,0,0,0,0,-1,1133,1807,1.01872,-14.7838
-84,-783,-0.0491943,14.5743,0,0,0,0,0,0,0,-1,1140,1807,-0.0491562,-14.5743
-77,-783,0.332764,12.7788,0,0,0,0,0,0,0,-1,1147,1807,0.332743,-12.7788
-70,-783,-1.93176,5.12817,0,0,0,0,0,0,0,-1,1154,1807,-1.93171,-5.12813
-63,-783,-3.81604,9.88269,0,0,0,0,0,0,0,-1,1161,1807,-3.81606,-9.88272
-56,-783,-6.26135,6.9679,0,0,0,0,0,0,0,-1,1168,1807,-6.26136,-6.96785
-49,-783,-3.17688,4.59705,0,0,0,0,0,0,0,-1,1175,1807,-3.17685,-4.5971
-42,-783,-3.72876,3.1405,0,0,0,0,0,0,0,-1,1182,1807,-3.72874,-3.14055
-35,-783,-3.97046,1.59399,0,0,0,0,0,0,0,-1,1189,1807,-3.97041,-1.59401
-28,-783,-4.12195,0.270386,0,0,0,0,0,0,0,-1,1196,1807,-4.12197,-0.270408
-21,-783,6.96204,14.9595,0,0,0,0,0,0,0,-1,1203,1807,6.96199,-14.9594
-14,-783,6.07129,14.7314,0,0,0,0,0,0,0,-1,1210,1807,6.07134,-14.7314
-7,-783,4.97998,14.5593,-0.0659142,-0.0197063,0.0234403,-0.00989768,-0.0757229,1.17448,0.0475275,0.0476254,1217,1807,4.98001,-14.5594
0,-783,4.08423,14.5601,-0.0570727,-0.0185365,0.0228878,-0.0078862,-0.067723,1.13527,0.042763,0.0437721,1224,1807,4.08419,-14.5601
7,-783,3.27637,14.4735,-0.0498341,-0.0186071,0.0212186,-0.00787646,-0.0605647,1.10259,0.0380239,0.0444211,1231,1807,3.27638,-14.4735
14,-783,3.33667,14.4425,0,0,0,0,0,0,0,-1,1238,1807,3.33663,-14.4425
21,-783,4.39893,14.7477,0,0,0,0,0,0,0,-1,1245,1807,4.39892,-14.7476
28,-783,4.27856,14.7552,0,0,0,0,0,0,0,-1,1252,1807,4.27858,-14.7553
35,-783,5.00562,15.5616,0,0,0,0,0,0,0,-1,1259,1807,5.00556,-15.5617
42,-783,4.68347,15.4569,-0.0131834,-0.00368023,0.00497747,-0.00155047,-0.0153131,1.16649,0.00973319,0.0430102,1266,1807,4.68342,-15.457
49,-783,4.38647,15.3446,-0.0048289,-0.000107884,0.000970084,8.36782e-05,-0.00502046,1.37584,0.00337521,0.0443869,1273,1807,4.38642,-15.3446
56,-783,4.12329,15.3275,0.00377992,0.00309226,-0.00349983,0.00695277,-8.05852e-05,-0.736434,0.00466227,0.0459618,1280,1807,4.12323,-15.3276
63,-783,3.96252,15.2627,0.0103511,0.00711828,-0.00741356,0.0163224,0.00114694,-0.678062,0.0105201,0.0477003,1287,1807,3.96254,-15.2627
70,-783,4.06116,14.9202,0.014734,0.0114177,-0.0116133,0.024807,0.00134475,-0.714488,0.0161084,0.0468177,1294,1807,4.0611,-14.9201
77,-783,4.3252,14.6436,0,0,0,0,0,0,0,-1,1301,1807,4.3252,-14.6436
84,-783,4.88794,14.9242,0.0241636,0.0206765,-0.0188508,0.0413513,0.00348878,-0.739283,0.0264813,0.0479258,1308,1807,4.88797,-14.9242
91,-783,5.1925,14.7568,0.0279467,0.0244723,-0.0227197,0.0489956,0.00342346,-0.747242,0.0315845,0.0458062,1315,1807,5.19248,-14.7568
98,-783,5.46436,14.3849,0.0309165,0.0277839,-0.0264905,0.055887,0.00281339,-0.755869,0.0363565,0.0464803,1322,1807,5.46442,-14.3849
105,-783,4.07886,11.3074,0,0,0,0,0,0,0,-1,1329,1807,4.07882,-11.3074
112,-783,4.00452,10.4254,0.0328012,0.0332498,-0.0335847,0.066611,-0.000559948,-0.788737,0.0445951,0.0487369,1336,1807,4.00447,-10.4254
119,-783,3.89844,9.54749,0.0324228,0.0347803,-0.0361332,0.0697539,-0.0025509,-0.801704,0.0473758,0.0458636,1343,1807,3.89844,-9.54743
126,-783,3.45007,8.65759,0,0,0,0,0,0,0,-1,1350,1807,3.45004,-8.65762
133,-783,0.94043,9.69946,0,0,0,0,0,0,0,-1,1357,1807,0.940411,-9.69948
140,-783,2.6543,15.261,0,0,0,0,0,0,0,-1,1364,1807,2.65435,-15.261
147,-783,6.45825,-1.2334,0,0,0,0,0,0,0,-1,1371,1807,6.45822,1.23339
154,-783,6.37024,-0.145874,0,0,0,0,0,0,0,-1,1378,1807,6.37018,0.145866
161,-783,6.57568,1.16174,0,0,0,0,0,0,0,-1,1385,1807,6.57562,-1.1617
168,-783,8.62561,1.79944,0,0,0,0,0,0,0,-1,1392,1807,8.62561,-1.79946
175,-783,8.78699,3.40857,0,0,0,0,0,0,0,-1,1399,1807,8.78697,-3.40854
182,-783,8.70984,5.14661,0,0,0,0,0,0,0,-1,1406,1807,8.70989,-5.14666
189,-783,8.55762,6.79871,0,0,0,0,0,0,0,-1,1413,1807,8.55766,-6.79872
196,-783,8.25488,8.66626,0,0,0,0,0,0,0,-1,1420,1807,8.25492,-8.66628
203,-783,7.86755,10.5735,0,0,0,0,0,0,0,-1,1427,1807,7.8676,-10.5734
210,-783,5.6969,8.99231,0,0,0,0,0,0,0,-1,1434,1807,5.69693,-8.99234
217,-783,5.28503,3.80872,0,0,0,0,0,0,0,-1,1441,1807,5.285,-3.80868
224,-783,3.22571,6.62903,0,0,0,0,0,0,0,-1,1448,1807,3.2257,-6.62907
231,-783,4.27942,4.56262,0,0,0,0,0,0,0,-1,1455,1807,4.27948,-4.56267
238,-783,0,0,0,0,0,0,0,0,0,-1,1462,1807,0,0
245,-783,0,0,0,0,0,0,0,0,0,-1,1469,1807,0,0
252,-783,0,0,0,0,0,0,0,0,0,-1,1476,1807,0,0
259,-783,0,0,0,0,0,0,0,0,0,-1,1483,1807,0,0
266,-783,0,0,0,0,0,0,0,0,0,-1,1490,1807,0,0
273,-783,0,0,0,0,0,0,0,0,0,-1,1497,1807,0,0
280,-783,0,0,0,0,0,0,0,0,0,-1,1504,1807,0,0
287,-783,0,0,0,0,0,0,0,0,0,-1,1511,1807,0,0
294,-783,0,0,0,0,0,0,0,0,0,-1,1518,1807,0,0
301,-783,0,0,0,0,0,0,0,0,0,-1,1525,1807,0,0
308,-783,0,0,0,0,0,0,0,0,0,-1,1532,1807,0,0
315,-783,0,0,0,0,0,0,0,0,0,-1,1539,1807,0,0
322,-783,0,0,0,0,0,0,0,0,0,-1,1546,1807,0,0
329,-783,0,0,0,0,0,0,0,0,0,-1,1553,1807,0,0
336,-783,0,0,0,0,0,0,0,0,0,-1,1560,1807,0,0
343,-783,0,0,0,0,0,0,0,0,0,-1,1567,1807,0,0
350,-783,0,0,0,0,0,0,0,0,0,-1,1574,1807,0,0
357,-783,0,0,0,0,0,0,0,0,0,-1,1581,1807,0,0
364,-783,0,0,0,0,0,0,0,0,0,-1,1588,1807,0,0
371,-783,0,0,0,0,0,0,0,0,0,-1,1595,1807,0,0
378,-783,0,0,0,0,0,0,0,0,0,-1,1602,1807,0,0
385,-783,0,0,0,0,0,0,0,0,0,-1,1609,1807,0,0
392,-783,0,0,0,0,0,0,0,0,0,-1,1616,1807,0,0
399,-783,0,0,0,0,0,0,0,0,0,-1,1623,1807,0,0
406,-783,0,0,0,0,0,0,0,0,0,-1,1630,1807,0,0
413,-783,0,0,0,0,0,0,0,0,0,-1,1637,1807,0,0
420,-783,0,0,0,0,0,0,0,0,0,-1,1644,1807,0,0
427,-783,0,0,0,0,0,0,0,0,0,-1,1651,1807,0,0
434,-783,0,0,0,0,0,0,0,0,0,-1,1658,1807,0,0
441,-783,0,0,0,0,0,0,0,0,0,-1,1665,1807,0,0
448,-783,0,0,0,0,0,0,0,0,0,-1,1672,1807,0,0
455,-783,0,0,0,0,0,0,0,0,0,-1,1679,1807,0,0
462,-783,0,0,0,0,0,0,0,0,0,-1,1686,1807,0,0
469,-783,0,0,0,0,0,0,0,0,0,-1,1693,1807,0,0
476,-783,0,0,0,0,0,0,0,0,0,-1,1700,1807,0,0
483,-783,0,0,0,0,0,0,0,0,0,-1,1707,1807,0,0
490,-783,0,0,0,0,0,0,0,0,0,-1,1714,1807,0,0
497,-783,0,0,0,0,0,0,0,0,0,-1,1721,1807,0,0
504,-783,0,0,0,0,0,0,0,0,0,-1,1728,1807,0,0
511,-783,0,0,0,0,0,0,0,0,0,-1,1735,1807,0,0
518,-783,0,0,0,0,0,0,0,0,0,-1,1742,1807,0,0
525,-783,0,0,0,0,0,0,0,0,0,-1,1749,1807,0,0
532,-783,0,0,0,0,0,0,0,0,0,-1,1756,1807,0,0
539,-783,0,0,0,0,0,0,0,0,0,-1,1763,1807,0,0
546,-783,0,0,0,0,0,0,0,0,0,-1,1770,1807,0,0
553,-783,0,0,0,0,0,0,0,0,0,-1,1777,1807,0,0
560,-783,0,0,0,0,0,0,0,0,0,-1,1784,1807,0,0
567,-783,0,0,0,0,0,0,0,0,0,-1,1791,1807,0,0
574,-783,0,0,0,0,0,0,0,0,0,-1,1798,1807,0,0
581,-783,0,0,0,0,0,0,0,0,0,-1,1805,1807,0,0
588,-783,0,0,0,0,0,0,0,0,0,-1,1812,1807,0,0
595,-783,0,0,0,0,0,0,0,0,0,-1,1819,1807,0,0
602,-783,0,0,0,0,0,0,0,0,0,-1,1826,1807,0,0
609,-783,0,0,0,0,0,0,0,0,0,-1,1833,1807,0,0
616,-783,0,0,0,0,0,0,0,0,0,-1,1840,1807,0,0
623,-783,0,0,0,0,0,0,0,0,0,-1,1847,1807,0,0
630,-783,0,0,0,0,0,0,0,0,0,-1,1854,1807,0,0
637,-783,0,0,0,0,0,0,0,0,0,-1,1861,1807,0,0
644,-783,0,0,0,0,0,0,0,0,0,-1,1868,1807,0,0
651,-783,0,0,0,0,0,0,0,0,0,-1,1875,1807,0,0
658,-783,0,0,0,0,0,0,0,0,0,-1,1882,1807,0,0
665,-783,0,0,0,0,0,0,0,0,0,-1,1889,1807,0,0
672,-783,0,0,0,0,0,0,0,0,0,-1,1896,1807,0,0
679,-783,0,0,0,0,0,0,0,0,0,-1,1903,1807,0,0
686,-783,0,0,0,0,0,0,0,0,0,-1,1910,1807,0,0
693,-783,0,0,0,0,0,0,0,0,0,-1,1917,1807,0,0
700,-783,0,0,0,0,0,0,0,0,0,-1,1924,1807,0,0
707,-783,0,0,0,0,0,0,0,0,0,-1,1931,1807,0,0
714,-783,0,0,0,0,0,0,0,0,0,-1,1938,1807,0,0
721,-783,0,0,0,0,0,0,0,0,0,-1,1945,1807,0,0
728,-783,0,0,0,0,0,0,0,0,0,-1,1952,1807,0,0
735,-783,0,0,0,0,0,0,0,0,0,-1,1959,1807,0,0
742,-783,0,0,0,0,0,0,0,0,0,-1,1966,1807,0,0
749,-783,0,0,0,0,0,0,0,0,0,-1,1973,1807,0,0
756,-783,0,0,0,0,0,0,0,0,0,-1,1980,1807,0,0
763,-783,0,0,0,0,0,0,0,0,0,-1,1987,1807,0,0
770,-783,0,0,0,0,0,0,0,0,0,-1,1994,1807,0,0
777,-783,0,0,0,0,0,0,0,0,0,-1,2001,1807,0,0
784,-783,0,0,0,0,0,0,0,0,0,-1,2008,1807,0,0
791,-783,0,0,0,0,0,0,0,0,0,-1,2015,1807,0,0
798,-783,0,0,0,0,0,0,0,0,0,-1,2022,1807,0,0
805,-783,0,0,0,0,0,0,0,0,0,-1,2029,1807,0,0
812,-783,0,0,0,0,0,0,0,0,0,-1,2036,1807,0,0
-700,-790,0,0,0,0,0,0,0,0,0,-1,524,1814,0,0
-693,-790,0,0,0,0,0,0,0,0,0,-1,531,1814,0,0
-686,-790,0,0,0,0,0,0,0,0,0,-1,538,1814,0,0
-679,-790,0,0,0,0,0,0,0,0,0,-1,545,1814,0,0
-672,-790,0,0,0,0,0,0,0,0,0,-1,552,1814,0,0
-665,-790,0,0,0,0,0,0,0,0,0,-1,559,1814,0,0
-658,-790,0,0,0,0,0,0,0,0,0,-1,566,1814,0,0
-651,-790,0,0,0,0,0,0,0,0,0,-1,573,1814,0,0
-644,-790,0,0,0,0,0,0,0,0,0,-1,580,1814,0,0
-637,-790,0,0,0,0,0,0,0,0,0,-1,587,1814,0,0
-630,-790,0,0,0,0,0,0,0,0,0,-1,594,1814,0,0
-623,-790,0,0,0,0,0,0,0,0,0,-1,601,1814,0,0
-616,-790,0,0,0,0,0,0,0,0,0,-1,608,1814,0,0
-609,-790,0,0,0,0,0,0,0,0,0,-1,615,1814,0,0
-602,-790,0,0,0,0,0,0,0,0,0,-1,622,1814,0,0
-595,-790,0,0,0,0,0,0,0,0,0,-1,629,1814,0,0
-588,-790,0,0,0,0,0,0,0,0,0,-1,636,1814,0,0
-581,-790,0,0,0,0,0,0,0,0,0,-1,643,1814,0,0
-574,-790,0,0,0,0,0,0,0,0,0,-1,650,1814,0,0
-567,-790,0,0,0,0,0,0,0,0,0,-1,657,1814,0,0
-560,-790,0,0,0,0,0,0,0,0,0,-1,664,1814,0,0
-553,-790,0,0,0,0,0,0,0,0,0,-1,671,1814,0,0
-546,-790,0,0,0,0,0,0,0,0,0,-1,678,1814,0,0
-539,-790,0,0,0,0,0,0,0,0,0,-1,685,1814,0,0
-532,-790,0,0,0,0,0,0,0,0,0,-1,692,1814,0,0
-525,-790,0,0,0,0,0,0,0,0,0,-1,699,1814,0,0
-518,-790,0,0,0,0,0,0,0,0,0,-1,706,1814,0,0
-511,-790,0,0,0,0,0,0,0,0,0,-1,713,1814,0,0
-504,-790,0,0,0,0,0,0,0,0,0,-1,720,1814,0,0
-497,-790,0,0,0,0,0,0,0,0,0,-1,727,1814,0,0
-490,-790,0,0,0,0,0,0,0,0,0,-1,734,1814,0,0
-483,-790,0,0,0,0,0,0,0,0,0,-1,741,1814,0,0
-476,-790,0,0,0,0,0,0,0,0,0,-1,748,1814,0,0
-469,-790,0,0,0,0,0,0,0,0,0,-1,755,1814,0,0
-462,-790,0,0,0,0,0,0,0,0,0,-1,762,1814,0,0
-455,-790,0,0,0,0,0,0,0,0,0,-1,769,1814,0,0
-448,-790,0,0,0,0,0,0,0,0,0,-1,776,1814,0,0
-441,-790,0,0,0,0,0,0,0,0,0,-1,783,1814,0,0
-434,-790,0,0,0,0,0,0,0,0,0,-1,790,1814,0,0
-427,-790,0,0,0,0,0,0,0,0,0,-1,797,1814,0,0
-420,-790,0,0,0,0,0,0,0,0,0,-1,804,1814,0,0
-413,-790,0,0,0,0,0,0,0,0,0,-1,811,1814,0,0
-406,-790,0,0,0,0,0,0,0,0,0,-1,818,1814,0,0
-399,-790,0,0,0,0,0,0,0,0,0,-1,825,1814,0,0
-392,-790,0,0,0,0,0,0,0,0,0,-1,832,1814,0,0
-385,-790,0,0,0,0,0,0,0,0,0,-1,839,1814,0,0
-378,-790,0,0,0,0,0,0,0,0,0,-1,846,1814,0,0
-371,-790,0,0,0,0,0,0,0,0,0,-1,853,1814,0,0
-364,-790,0,0,0,0,0,0,0,0,0,-1,860,1814,0,0
-357,-790,0,0,0,0,0,0,0,0,0,-1,867,1814,0,0
-350,-790,0,0,0,0,0,0,0,0,0,-1,874,1814,0,0
-343,-790,0,0,0,0,0,0,0,0,0,-1,881,1814,0,0
-336,-790,0,0,0,0,0,0,0,0,0,-1,888,1814,0,0
-329,-790,0,0,0,0,0,0,0,0,0,-1,895,1814,0,0
-322,-790,0,0,0,0,0,0,0,0,0,-1,902,1814,0,0
-315,-790,0,0,0,0,0,0,0,0,0,-1,909,1814,0,0
-308,-790,0,0,0,0,0,0,0,0,0,-1,916,1814,0,0
-301,-790,0,0,0,0,0,0,0,0,0,-1,923,1814,0,0
-294,-790,0,0,0,0,0,0,0,0,0,-1,930,1814,0,0
-287,-790,0,0,0,0,0,0,0,0,0,-1,937,1814,0,0
-280,-790,0,0,0,0,0,0,0,0,0,-1,944,1814,0,0
-273,-790,0,0,0,0,0,0,0,0,0,-1,951,1814,0,0
-266,-790,0,0,0,0,0,0,0,0,0,-1,958,1814,0,0
-259,-790,0,0,0,0,0,0,0,0,0,-1,965,1814,0,0
-252,-790,0,0,0,0,0,0,0,0,0,-1,972,1814,0,0
-245,-790,0,0,0,0,0,0,0,0,0,-1,979,1814,0,0
-238,-790,0,0,0,0,0,0,0,0,0,-1,986,1814,0,0
-231,-790,0,0,0,0,0,0,0,0,0,-1,993,1814,0,0
-224,-790,0,0,0,0,0,0,0,0,0,-1,1000,1814,0,0
-217,-790,0,0,0,0,0,0,0,0,0,-1,1007,1814,0,0
-210,-790,0,0,0,0,0,0,0,0,0,-1,1014,1814,0,0
-203,-790,0,0,0,0,0,0,0,0,0,-1,1021,1814,0,0
-196,-790,0,0,0,0,0,0,0,0,0,-1,1028,1814,0,0
-189,-790,0,0,0,0,0,0,0,0,0,-1,1035,1814,0,0
-182,-790,0,0,0,0,0,0,0,0,0,-1,1042,1814,0,0
-175,-790,0,0,0,0,0,0,0,0,0,-1,1049,1814,0,0
-168,-790,0,0,0,0,0,0,0,0,0,-1,1056,1814,0,0
-161,-790,0,0,0,0,0,0,0,0,0,-1,1063,1814,0,0
-154,-790,0,0,0,0,0,0,0,0,0,-1,1070,1814,0,0
-147,-790,0,0,0,0,0,0,0,0,0,-1,1077,1814,0,0
-140,-790,0,0,0,0,0,0,0,0,0,-1,1084,1814,0,0
-133,-790,0,0,0,0,0,0,0,0,0,-1,1091,1814,0,0
-126,-790,0,0,0,0,0,0,0,0,0,-1,1098,1814,0,0
-119,-790,0,0,0,0,0,0,0,0,0,-1,1105,1814,0,0
-112,-790,0,0,0,0,0,0,0,0,0,-1,1112,1814,0,0
-105,-790,0,0,0,0,0,0,0,0,0,-1,1119,1814,0,0
-98,-790,0,0,0,0,0,0,0,0,0,-1,1126,1814,0,0
-91,-790,0,0,0,0,0,0,0,0,0,-1,1133,1814,0,0
-84,-790,0,0,0,0,0,0,0,0,0,-1,1140,1814,0,0
-77,-790,-0.969238,5.30847,0,0,0,0,0,0,0,-1,1147,1814,-0.969277,-5.3085
-70,-790,-1.23169,4.98914,0,0,0,0,0,0,0,-1,1154,1814,-1.23163,-4.98916
-63,-790,-1.69128,4.32263,0,0,0,0,0,0,0,-1,1161,1814,-1.69128,-4.32258
-56,-790,-2.24756,3.75305,0,0,0,0,0,0,0,-1,1168,1814,-2.24758,-3.75302
-49,-790,-3.11011,3.35779,0,0,0,0,0,0,0,-1,1175,1814,-3.11006,-3.35781
-42,-790,0.593262,1.19165,0,0,0,0,0,0,0,-1,1182,1814,0.593225,-1.19165
-35,-790,0.307129,-0.20105,0,0,0,0,0,0,0,-1,1189,1814,0.307178,0.201006
-28,-790,-2.78467,0.785156,0,0,0,0,0,0,0,-1,1196,1814,-2.78471,-0.785183
-21,-790,6.35303,10.7018,0,0,0,0,0,0,0,-1,1203,1814,6.35298,-10.7017
-14,-790,5.41248,14.7036,0,0,0,0,0,0,0,-1,1210,1814,5.41252,-14.7037
-7,-790,4.34692,14.787,-0.0832337,-0.0254651,0.0283331,-0.0138887,-0.09481,1.18291,0.0591234,0.0474803,1217,1814,4.34698,-14.787
0,-790,3.60144,14.9265,-0.0710993,-0.0241017,0.0278225,-0.0111823,-0.0840187,1.13607,0.0526821,0.0457739,1224,1814,3.60147,-14.9265
7,-790,2.90649,14.717,-0.0619549,-0.0242677,0.0258257,-0.0111418,-0.0750808,1.10057,0.0467843,0.0457124,1231,1814,2.90646,-14.717
14,-790,2.45898,14.7332,-0.0533405,-0.0216073,0.0215313,-0.0107279,-0.0642199,1.10293,0.0397232,0.0468521,1238,1814,2.45896,-14.7332
21,-790,2.27722,14.8403,-0.0441902,-0.0175649,0.0170052,-0.00928115,-0.0524739,1.1175,0.032336,0.0441674,1245,1814,2.27725,-14.8403
28,-790,5.56299,15.4224,0,0,0,0,0,0,0,-1,1252,1814,5.56295,-15.4224
35,-790,5.21082,15.6172,0,0,0,0,0,0,0,-1,1259,1814,5.21081,-15.6172
42,-790,4.71216,15.656,-0.0161953,-0.00301041,0.0065419,-0.000315401,-0.0188903,1.18002,0.0124898,0.0439356,1266,1814,4.71211,-15.656
49,-790,4.30017,15.626,-0.0057498,0.00141316,0.00219514,0.00203235,-0.00636898,1.29587,0.00506133,0.0471062,1273,1814,4.30011,-15.6259
56,-790,3.95105,15.5566,0.00487417,0.00536676,-0.00300289,0.00813344,0.00210749,-0.826316,0.00487411,0.0487432,1280,1814,3.9511,-15.5567
63,-790,3.17834,15.0282,0.0131982,0.00989314,-0.00737765,0.0191061,0.0039852,-0.675222,0.0116387,0.0446652,1287,1814,3.17839,-15.0282
70,-790,4.02893,14.6439,0.0190924,0.0145617,-0.0122492,0.029284,0.00437015,-0.693962,0.0182413,0.0447607,1294,1814,4.02891,-14.6439
77,-790,4.37976,14.4774,0.0252827,0.0203728,-0.0164194,0.0394297,0.00622582,-0.711191,0.0244766,0.045618,1301,1814,4.37973,-14.4774
84,-790,4.6665,14.3735,0.0319771,0.0249069,-0.0212585,0.0499925,0.00689159,-0.703006,0.0312852,0.0484215,1308,1814,4.66654,-14.3736
91,-790,5.24219,14.9052,0.0373436,0.0290673,-0.0263975,0.0599253,0.00648553,-0.70765,0.0379734,0.0475228,1315,1814,5.24216,-14.9052
98,-790,5.68433,14.3499,0.0415263,0.032762,-0.0316357,0.0690818,0.0052064,-0.716576,0.0444209,0.0459143,1322,1814,5.68434,-14.3498
105,-790,6.1499,14.0087,0.043937,0.0360754,-0.0370883,0.0773022,0.00271017,-0.732603,0.0506556,0.0497688,1329,1814,6.14995,-14.0086
112,-790,3.5387,9.65576,0,0,0,0,0,0,0,-1,1336,1814,3.53866,-9.65575
119,-790,3.83557,8.75317,0,0,0,0,0,0,0,-1,1343,1814,3.83559,-8.75318
126,-790,2.7915,8.18884,0,0,0,0,0,0,0,-1,1350,1814,2.79153,-8.18888
133,-790,1.03784,8.38147,0,0,0,0,0,0,0,-1,1357,1814,1.03782,-8.38144
140,-790,-0.0360107,8.17932,0,0,0,0,0,0,0,-1,1364,1814,-0.036064,-8.17928
147,-790,3.4906,13.9751,0,0,0,0,0,0,0,-1,1371,1814,3.49064,-13.9751
154,-790,6.34485,-0.540405,0,0,0,0,0,0,0,-1,1378,1814,6.34482,0.540409
161,-790,6.62683,1.1134,0,0,0,0,0,0,0,-1,1385,1814,6.62682,-1.11344
168,-790,7.04077,2.23279,0,0,0,0,0,0,0,-1,1392,1814,7.04082,-2.23275
175,-790,9.03918,3.98535,0,0,0,0,0,0,0,-1,1399,1814,9.0392,-3.98535
182,-790,8.96997,5.67896,0,0,0,0,0,0,0,-1,1406,1814,8.97001,-5.6789
189,-790,8.59729,6.86975,0,0,0,0,0,0,0,-1,1413,1814,8.59728,-6.86972
196,-790,8.21924,9.29053,0,0,0,0,0,0,0,-1,1420,1814,8.21924,-9.29048
203,-790,0,0,0,0,0,0,0,0,0,-1,1427,1814,0,0
210,-790,0,0,0,0,0,0,0,0,0,-1,1434,1814,0,0
217,-790,0,0,0,0,0,0,0,0,0,-1,1441,1814,0,0
224,-790,0,0,0,0,0,0,0,0,0,-1,1448,1814,0,0
231,-790,0,0,0,0,0,0,0,0,0,-1,1455,1814,0,0
238,-790,0,0,0,0,0,0,0,0,0,-1,1462,1814,0,0
245,-790,0,0,0,0,0,0,0,0,0,-1,1469,1814,0,0
252,-790,0,0,0,0,0,0,0,0,0,-1,1476,1814,0,0
259,-790,0,0,0,0,0,0,0,0,0,-1,1483,1814,0,0
266,-790,0,0,0,0,0,0,0,0,0,-1,1490,1814,0,0
273,-790,0,0,0,0,0,0,0,0,0,-1,1497,1814,0,0
280,-790,0,0,0,0,0,0,0,0,0,-1,1504,1814,0,0
287,-790,0,0,0,0,0,0,0,0,0,-1,1511,1814,0,0
294,-790,0,0,0,0,0,0,0,0,0,-1,1518,1814,0,0
301,-790,0,0,0,0,0,0,0,0,0,-1,1525,1814,0,0
308,-790,0,0,0,0,0,0,0,0,0,-1,1532,1814,0,0
315,-790,0,0,0,0,0,0,0,0,0,-1,1539,1814,0,0
322,-790,0,0,0,0,0,0,0,0,0,-1,1546,1814,0,0
329,-790,0,0,0,0,0,0,0,0,0,-1,1553,1814,0,0
336,-790,0,0,0,0,0,0,0,0,0,-1,1560,1814,0,0
343,-790,0,0,0,0,0,0,0,0,0,-1,1567,1814,0,0
350,-790,0,0,0,0,0,0,0,0,0,-1,1574,1814,0,0
357,-790,0,0,0,0,0,0,0,0,0,-1,1581,1814,0,0
364,-790,0,0,0,0,0,0,0,0,0,-1,1588,1814,0,0
371,-790,0,0,0,0,0,0,0,0,0,-1,1595,1814,0,0
378,-790,0,0,0,0,0,0,0,0,0,-1,1602,1814,0,0
385,-790,0,0,0,0,0,0,0,0,0,-1,1609,1814,0,0
392,-790,0,0,0,0,0,0,0,0,0,-1,1616,1814,0,0
399,-790,0,0,0,0,0,0,0,0,0,-1,1623,1814,0,0
406,-790,0,0,0,0,0,0,0,0,0,-1,1630,1814,0,0
413,-790,0,0,0,0,0,0,0,0,0,-1,1637,1814,0,0
420,-790,0,0,0,0,0,0,0,0,0,-1,1644,1814,0,0
427,-790,0,0,0,0,0,0,0,0,0,-1,1651,1814,0,0
434,-790,0,0,0,0,0,0,0,0,0,-1,1658,1814,0,0
441,-790,0,0,0,0,0,0,0,0,0,-1,1665,1814,0,0
448,-790,0,0,0,0,0,0,0,0,0,-1,1672,1814,0,0
455,-790,0,0,0,0,0,0,0,0,0,-1,1679,1814,0,0
462,-790,0,0,0,0,0,0,0,0,0,-1,1686,1814,0,0
469,-790,0,0,0,0,0,0,0,0,0,-1,1693,1814,0,0
476,-790,0,0,0,0,0,0,0,0,0,-1,1700,1814,0,0
483,-790,0,0,0,0,0,0,0,0,0,-1,1707,1814,0,0
490,-790,0,0,0,0,0,0,0,0,0,-1,1714,1814,0,0
497,-790,0,0,0,0,0,0,0,0,0,-1,1721,1814,0,0
504,-790,0,0,0,0,0,0,0,0,0,-1,1728,1814,0,0
511,-790,0,0,0,0,0,0,0,0,0,-1,1735,1814,0,0
518,-790,0,0,0,0,0,0,0,0,0,-1,1742,1814,0,0
525,-790,0,0,0,0,0,0,0,0,0,-1,1749,1814,0,0
532,-790,0,0,0,0,0,0,0,0,0,-1,1756,1814,0,0
539,-790,0,0,0,0,0,0,0,0,0,-1,1763,1814,0,0
546,-790,0,0,0,0,0,0,0,0,0,-1,1770,1814,0,0
553,-790,0,0,0,0,0,0,0,0,0,-1,1777,1814,0,0
560,-790,0,0,0,0,0,0,0,0,0,-1,1784,1814,0,0
567,-790,0,0,0,0,0,0,0,0,0,-1,1791,1814,0,0
574,-790,0,0,0,0,0,0,0,0,0,-1,1798,1814,0,0
581,-790,0,0,0,0,0,0,0,0,0,-1,1805,1814,0,0
588,-790,0,0,0,0,0,0,0,0,0,-1,1812,1814,0,0
595,-790,0,0,0,0,0,0,0,0,0,-1,1819,1814,0,0
602,-790,0,0,0,0,0,0,0,0,0,-1,1826,1814,0,0
609,-790,0,0,0,0,0,0,0,0,0,-1,1833,1814,0,0
616,-790,0,0,0,0,0,0,0,0,0,-1,1840,1814,0,0
623,-790,0,0,0,0,0,0,0,0,0,-1,1847,1814,0,0
630,-790,0,0,0,0,0,0,0,0,0,-1,1854,1814,0,0
637,-790,0,0,0,0,0,0,0,0,0,-1,1861,1814,0,0
644,-790,0,0,0,0,0,0,0,0,0,-1,1868,1814,0,0
651,-790,0,0,0,0,0,0,0,0,0,-1,1875,1814,0,0
658,-790,0,0,0,0,0,0,0,0,0,-1,1882,1814,0,0
665,-790,0,0,0,0,0,0,0,0,0,-1,1889,1814,0,0
672,-790,0,0,0,0,0,0,0,0,0,-1,1896,1814,0,0
679,-790,0,0,0,0,0,0,0,0,0,-1,1903,1814,0,0
686,-790,0,0,0,0,0,0,0,0,0,-1,1910,1814,0,0
693,-790,0,0,0,0,0,0,0,0,0,-1,1917,1814,0,0
700,-790,0,0,0,0,0,0,0,0,0,-1,1924,1814,0,0
707,-790,0,0,0,0,0,0,0,0,0,-1,1931,1814,0,0
714,-790,0,0,0,0,0,0,0,0,0,-1,1938,1814,0,0
721,-790,0,0,0,0,0,0,0,0,0,-1,1945,1814,0,0
728,-790,0,0,0,0,0,0,0,0,0,-1,1952,1814,0,0
735,-790,0,0,0,0,0,0,0,0,0,-1,1959,1814,0,0
742,-790,0,0,0,0,0,0,0,0,0,-1,1966,1814,0,0
749,-790,0,0,0,0,0,0,0,0,0,-1,1973,1814,0,0
756,-790,0,0,0,0,0,0,0,0,0,-1,1980,1814,0,0
763,-790,0,0,0,0,0,0,0,0,0,-1,1987,1814,0,0
770,-790,0,0,0,0,0,0,0,0,0,-1,1994,1814,0,0
777,-790,0,0,0,0,0,0,0,0,0,-1,2001,1814,0,0
784,-790,0,0,0,0,0,0,0,0,0,-1,2008,1814,0,0
791,-790,0,0,0,0,0,0,0,0,0,-1,2015,1814,0,0
798,-790,0,0,0,0,0,0,0,0,0,-1,2022,1814,0,0
805,-790,0,0,0,0,0,0,0,0,0,-1,2029,1814,0,0
812,-790,0,0,0,0,0,0,0,0,0,-1,2036,1814,0,0
-700,-797,0,0,0,0,0,0,0,0,0,-1,524,1821,0,0
-693,-797,0,0,0,0,0,0,0,0,0,-1,531,1821,0,0
-686,-797,0,0,0,0,0,0,0,0,0,-1,538,1821,0,0
-679,-797,0,0,0,0,0,0,0,0,0,-1,545,1821,0,0
-672,-797,0,0,0,0,0,0,0,0,0,-1,552,1821,0,0
-665,-797,0,0,0,0,0,0,0,0,0,-1,559,1821,0,0
-658,-797,0,0,0,0,0,0,0,0,0,-1,566,1821,0,0
-651,-797,0,0,0,0,0,0,0,0,0,-1,573,1821,0,0
-644,-797,0,0,0,0,0,0,0,0,0,-1,580,1821,0,0
-637,-797,0,0,0,0,0,0,0,0,0,-1,587,1821,0,0
-630,-797,0,0,0,0,0,0,0,0,0,-1,594,1821,0,0
-623,-797,0,0,0,0,0,0,0,0,0,-1,601,1821,0,0
-616,-797,0,0,0,0,0,0,0,0,0,-1,608,1821,0,0
-609,-797,0,0,0,0,0,0,0,0,0,-1,615,1821,0,0
-602,-797,0,0,0,0,0,0,0,0,0,-1,622,1821,0,0
-595,-797,0,0,0,0,0,0,0,0,0,-1,629,1821,0,0
-588,-797,0,0,0,0,0,0,0,0,0,-1,636,1821,0,0
-581,-797,0,0,0,0,0,0,0,0,0,-1,643,1821,0,0
-574,-797,0,0,0,0,0,0,0,0,0,-1,650,1821,0,0
-567,-797,0,0,0,0,0,0,0,0,0,-1,657,1821,0,0
-560,-797,0,0,0,0,0,0,0,0,0,-1,664,1821,0,0
-553,-797,0,0,0,0,0,0,0,0,0,-1,671,1821,0,0
-546,-797,0,0,0,0,0,0,0,0,0,-1,678,1821,0,0
-539,-797,0,0,0,0,0,0,0,0,0,-1,685,1821,0,0
-532,-797,0,0,0,0,0,0,0,0,0,-1,692,1821,0,0
-525,-797,0,0,0,0,0,0,0,0,0,-1,699,1821,0,0
-518,-797,0,0,0,0,0,0,0,0,0,-1,706,1821,0,0
-511,-797,0,0,0,0,0,0,0,0,0,-1,713,1821,0,0
-504,-797,0,0,0,0,0,0,0,0,0,-1,720,1821,0,0
-497,-797,0,0,0,0,0,0,0,0,0,-1,727,1821,0,0
-490,-797,0,0,0,0,0,0,0,0,0,-1,734,1821,0,0
-483,-797,0,0,0,0,0,0,0,0,0,-1,741,1821,0,0
-476,-797,0,0,0,0,0,0,0,0,0,-1,748,1821,0,0
-469,-797,0,0,0,0,0,0,0,0,0,-1,755,1821,0,0
-462,-797,0,0,0,0,0,0,0,0,0,-1,762,1821,0,0
-455,-797,0,0,0,0,0,0,0,0,0,-1,769,1821,0,0
-448,-797,0,0,0,0,0,0,0,0,0,-1,776,1821,0,0
-441,-797,0,0,0,0,0,0,0,0,0,-1,783,1821,0,0
-434,-797,0,0,0,0,0,0,0,0,0,-1,790,1821,0,0
-427,-797,0,0,0,0,0,0,0,0,0,-1,797,1821,0,0
-420,-797,0,0,0,0,0,0,0,0,0,-1,804,1821,0,0
-413,-797,0,0,0,0,0,0,0,0,0,-1,811,1821,0,0
-406,-797,0,0,0,0,0,0,0,0,0,-1,818,1821,0,0
-399,-797,0,0,0,0,0,0,0,0,0,-1,825,1821,0,0
-392,-797,0,0,0,0,0,0,0,0,0,-1,832,1821,0,0
-385,-797,0,0,0,0,0,0,0,0,0,-1,839,1821,0,0
-378,-797,0,0,0,0,0,0,0,0,0,-1,846,1821,0,0
-371,-797,0,0,0,0,0,0,0,0,0,-1,853,1821,0,0
-364,-797,0,0,0,0,0,0,0,0,0,-1,860,1821,0,0
-357,-797,0,0,0,0,0,0,0,0,0,-1,867,1821,0,0
-350,-797,0,0,0,0,0,0,0,0,0,-1,874,1821,0,0
-343,-797,0,0,0,0,0,0,0,0,0,-1,881,1821,0,0
-336,-797,0,0,0,0,0,0,0,0,0,-1,888,1821,0,0
-329,-797,0,0,0,0,0,0,0,0,0,-1,895,1821,0,0
-322,-797,0,0,0,0,0,0,0,0,0,-1,902,1821,0,0
-315,-797,0,0,0,0,0,0,0,0,0,-1,909,1821,0,0
-308,-797,0,0,0,0,0,0,0,0,0,-1,916,1821,0,0
-301,-797,0,0,0,0,0,0,0,0,0,-1,923,1821,0,0
-294,-797,0,0,0,0,0,0,0,0,0,-1,930,1821,0,0
-287,-797,0,0,0,0,0,0,0,0,0,-1,937,1821,0,0
-280,-797,0,0,0,0,0,0,0,0,0,-1,944,1821,0,0
-273,-797,0,0,0,0,0,0,0,0,0,-1,951,1821,0,0
-266,-797,0,0,0,0,0,0,0,0,0,-1,958,1821,0,0
-259,-797,0,0,0,0,0,0,0,0,0,-1,965,1821,0,0
-252,-797,0,0,0,0,0,0,0,0,0,-1,972,1821,0,0
-245,-797,0,0,0,0,0,0,0,0,0,-1,979,1821,0,0
-238,-797,0,0,0,0,0,0,0,0,0,-1,986,1821,0,0
-231,-797,0,0,0,0,0,0,0,0,0,-1,993,1821,0,0
-224,-797,0,0,0,0,0,0,0,0,0,-1,1000,1821,0,0
-217,-797,0,0,0,0,0,0,0,0,0,-1,1007,1821,0,0
-210,-797,0,0,0,0,0,0,0,0,0,-1,1014,1821,0,0
-203,-797,0,0,0,0,0,0,0,0,0,-1,1021,1821,0,0
-196,-797,0,0,0,0,0,0,0,0,0,-1,1028,1821,0,0
-189,-797,0,0,0,0,0,0,0,0,0,-1,1035,1821,0,0
-182,-797,0,0,0,0,0,0,0,0,0,-1,1042,1821,0,0
-175,-797,0,0,0,0,0,0,0,0,0,-1,1049,1821,0,0
-168,-797,0,0,0,0,0,0,0,0,0,-1,1056,1821,0,0
-161,-797,0,0,0,0,0,0,0,0,0,-1,1063,1821,0,0
-154,-797,0,0,0,0,0,0,0,0,0,-1,1070,1821,0,0
-147,-797,0,0,0,0,0,0,0,0,0,-1,1077,1821,0,0
-140,-797,0,0,0,0,0,0,0,0,0,-1,1084,1821,0,0
-133,-797,0,0,0,0,0,0,0,0,0,-1,1091,1821,0,0
-126,-797,0,0,0,0,0,0,0,0,0,-1,1098,1821,0,0
-119,-797,0,0,0,0,0,0,0,0,0,-1,1105,1821,0,0
-112,-797,0,0,0,0,0,0,0,0,0,-1,1112,1821,0,0
-105,-797,0,0,0,0,0,0,0,0,0,-1,1119,1821,0,0
-98,-797,0,0,0,0,0,0,0,0,0,-1,1126,1821,0,0
-91,-797,0,0,0,0,0,0,0,0,0,-1,1133,1821,0,0
-84,-797,0,0,0,0,0,0,0,0,0,-1,1140,1821,0,0
-77,-797,0,0,0,0,0,0,0,0,0,-1,1147,1821,0,0
-70,-797,0,0,0,0,0,0,0,0,0,-1,1154,1821,0,0
-63,-797,0,0,0,0,0,0,0,0,0,-1,1161,1821,0,0
-56,-797,0,0,0,0,0,0,0,0,0,-1,1168,1821,0,0
-49,-797,0,0,0,0,0,0,0,0,0,-1,1175,1821,0,0
-42,-797,0.579834,0.692871,0,0,0,0,0,0,0,-1,1182,1821,0.579856,-0.692816
-35,-797,-0.185425,5.55396,0,0,0,0,0,0,0,-1,1189,1821,-0.18542,-5.55396
-28,-797,-0.310181,4.71509,0,0,0,0,0,0,0,-1,1196,1821,-0.310228,-4.71503
-21,-797,4.87366,13.1852,0,0,0,0,0,0,0,-1,1203,1821,4.87365,-13.1852
-14,-797,4.40417,14.1864,0,0,0,0,0,0,0,-1,1210,1821,4.40419,-14.1864
-7,-797,3.95496,15.1926,-0.101703,-0.0322899,0.0333158,-0.0188874,-0.115105,1.18832,0.0712802,0.044879,1217,1821,3.95492,-15.1927
0,-797,3.13379,15.067,-0.0858262,-0.030882,0.0327872,-0.0155789,-0.101129,1.13411,0.0628733,0.0497467,1224,1821,3.13384,-15.067
7,-797,2.39111,14.8099,-0.0747506,-0.0311968,0.0304484,-0.0155392,-0.0904081,1.09583,0.0558181,0.0482829,1231,1821,2.39117,-14.81
14,-797,1.96802,14.7246,-0.0645279,-0.0270525,0.0249585,-0.0145808,-0.0769996,1.10739,0.0472291,0.0462881,1238,1821,1.96801,-14.7246
21,-797,2.25317,15.4766,-0.0535454,-0.0210093,0.0196666,-0.0117543,-0.0628004,1.13095,0.0385508,0.0453445,1245,1821,2.25321,-15.4766
28,-797,2.5249,15.4432,0,0,0,0,0,0,0,-1,1252,1821,2.52486,-15.4432
35,-797,5.54895,15.8868,0,0,0,0,0,0,0,-1,1259,1821,5.54899,-15.8869
42,-797,4.71716,15.8287,0,0,0,0,0,0,0,-1,1266,1821,4.71722,-15.8287
49,-797,4.27356,16.0072,0,0,0,0,0,0,0,-1,1273,1821,4.27361,-16.0072
56,-797,3.78979,14.5609,0,0,0,0,0,0,0,-1,1280,1821,3.78979,-14.5609
63,-797,3.88989,14.351,0.0162264,0.0135611,-0.006619,0.0216455,0.0081419,-0.686058,0.0126242,0.0443748,1287,1821,3.88985,-14.3509
70,-797,3.96936,14.3121,0.0240018,0.0183843,-0.0121046,0.0336192,0.00876687,-0.671394,0.020137,0.0441517,1294,1821,3.96932,-14.3121
77,-797,4.18848,14.3329,0.0322604,0.0248205,-0.017045,0.0459867,0.0110942,-0.677962,0.0277102,0.0430705,1301,1821,4.18853,-14.3329
84,-797,4.76343,14.4332,0.0412459,0.0293982,-0.0230596,0.0591304,0.0115138,-0.65967,0.0361979,0.0480428,1308,1821,4.76349,-14.4332
91,-797,5.30042,14.4592,0,0,0,0,0,0,0,-1,1315,1821,5.30042,-14.4593
98,-797,5.60681,14.451,0.0545109,0.0375204,-0.036933,0.0839131,0.00811827,-0.672356,0.0534419,0.0463971,1322,1821,5.60686,-14.4511
105,-797,6.28186,13.9745,0.0581411,0.0407739,-0.0447756,0.0950674,0.00384759,-0.689619,0.0621355,0.0495336,1329,1821,6.28188,-13.9744
112,-797,5.01294,8.09485,0,0,0,0,0,0,0,-1,1336,1821,5.01298,-8.09489
119,-797,3.79468,7.71338,0,0,0,0,0,0,0,-1,1343,1821,3.79464,-7.71333
126,-797,2.51172,7.32361,0,0,0,0,0,0,0,-1,1350,1821,2.51173,-7.32366
133,-797,1.26062,6.92297,0,0,0,0,0,0,0,-1,1357,1821,1.26061,-6.923
140,-797,0.122559,6.55444,0,0,0,0,0,0,0,-1,1364,1821,0.122588,-6.55445
147,-797,4.15686,12.8721,0,0,0,0,0,0,0,-1,1371,1821,4.15692,-12.872
154,-797,14.49,10.5256,0,0,0,0,0,0,0,-1,1378,1821,14.49,-10.5256
161,-797,6.79199,1.12952,0,0,0,0,0,0,0,-1,1385,1821,6.79203,-1.12957
168,-797,0,0,0,0,0,0,0,0,0,-1,1392,1821,0,0
175,-797,0,0,0,0,0,0,0,0,0,-1,1399,1821,0,0
182,-797,0,0,0,0,0,0,0,0,0,-1,1406,1821,0,0
189,-797,0,0,0,0,0,0,0,0,0,-1,1413,1821,0,0
196,-797,0,0,0,0,0,0,0,0,0,-1,1420,1821,0,0
203,-797,0,0,0,0,0,0,0,0,0,-1,1427,1821,0,0
210,-797,0,0,0,0,0,0,0,0,0,-1,1434,1821,0,0
217,-797,0,0,0,0,0,0,0,0,0,-1,1441,1821,0,0
224,-797,0,0,0,0,0,0,0,0,0,-1,1448,1821,0,0
231,-797,0,0,0,0,0,0,0,0,0,-1,1455,1821,0,0
238,-797,0,0,0,0,0,0,0,0,0,-1,1462,1821,0,0
245,-797,0,0,0,0,0,0,0,0,0,-1,1469,1821,0,0
252,-797,0,0,0,0,0,0,0,0,0,-1,1476,1821,0,0
259,-797,0,0,0,0,0,0,0,0,0,-1,1483,1821,0,0
266,-797,0,0,0,0,0,0,0,0,0,-1,1490,1821,0,0
273,-797,0,0,0,0,0,0,0,0,0,-1,1497,1821,0,0
280,-797,0,0,0,0,0,0,0,0,0,-1,1504,1821,0,0
287,-797,0,0,0,0,0,0,0,0,0,-1,1511,1821,0,0
294,-797,0,0,0,0,0,0,0,0,0,-1,1518,1821,0,0
301,-797,0,0,0,0,0,0,0,0,0,-1,1525,1821,0,0
308,-797,0,0,0,0,0,0,0,0,0,-1,1532,1821,0,0
315,-797,0,0,0,0,0,0,0,0,0,-1,1539,1821,0,0
322,-797,0,0,0,0,0,0,0,0,0,-1,1546,1821,0,0
329,-797,0,0,0,0,0,0,0,0,0,-1,1553,1821,0,0
336,-797,0,0,0,0,0,0,0,0,0,-1,1560,1821,0,0
343,-797,0,0,0,0,0,0,0,0,0,-1,1567,1821,0,0
350,-797,0,0,0,0,0,0,0,0,0,-1,1574,1821,0,0
357,-797,0,0,0,0,0,0,0,0,0,-1,1581,1821,0,0
364,-797,0,0,0,0,0,0,0,0,0,-1,1588,1821,0,0
371,-797,0,0,0,0,0,0,0,0,0,-1,1595,1821,0,0
378,-797,0,0,0,0,0,0,0,0,0,-1,1602,1821,0,0
385,-797,0,0,0,0,0,0,0,0,0,-1,1609,1821,0,0
392,-797,0,0,0,0,0,0,0,0,0,-1,1616,1821,0,0
399,-797,0,0,0,0,0,0,0,0,0,-1,1623,1821,0,0
406,-797,0,0,0,0,0,0,0,0,0,-1,1630,1821,0,0
413,-797,0,0,0,0,0,0,0,0,0,-1,1637,1821,0,0
420,-797,0,0,0,0,0,0,0,0,0,-1,1644,1821,0,0
427,-797,0,0,0,0,0,0,0,0,0,-1,1651,1821,0,0
434,-797,0,0,0,0,0,0,0,0,0,-1,1658,1821,0,0
441,-797,0,0,0,0,0,0,0,0,0,-1,1665,1821,0,0
448,-797,0,0,0,0,0,0,0,0,0,-1,1672,1821,0,0
455,-797,0,0,0,0,0,0,0,0,0,-1,1679,1821,0,0
462,-797,0,0,0,0,0,0,0,0,0,-1,1686,1821,0,0
469,-797,0,0,0,0,0,0,0,0,0,-1,1693,1821,0,0
476,-797,0,0,0,0,0,0,0,0,0,-1,1700,1821,0,0
483,-797,0,0,0,0,0,0,0,0,0,-1,1707,1821,0,0
490,-797,0,0,0,0,0,0,0,0,0,-1,1714,1821,0,0
497,-797,0,0,0,0,0,0,0,0,0,-1,1721,1821,0,0
504,-797,0,0,0,0,0,0,0,0,0,-1,1728,1821,0,0
511,-797,0,0,0,0,0,0,0,0,0,-1,1735,1821,0,0
518,-797,0,0,0,0,0,0,0,0,0,-1,1742,1821,0,0
525,-797,0,0,0,0,0,0,0,0,0,-1,1749,1821,0,0
532,-797,0,0,0,0,0,0,0,0,0,-1,1756,1821,0,0
539,-797,0,0,0,0,0,0,0,0,0,-1,1763,1821,0,0
546,-797,0,0,0,0,0,0,0,0,0,-1,1770,1821,0,0
553,-797,0,0,0,0,0,0,0,0,0,-1,1777,1821,0,0
560,-797,0,0,0,0,0,0,0,0,0,-1,1784,1821,0,0
567,-797,0,0,0,0,0,0,0,0,0,-1,1791,1821,0,0
574,-797,0,0,0,0,0,0,0,0,0,-1,1798,1821,0,0
581,-797,0,0,0,0,0,0,0,0,0,-1,1805,1821,0,0
588,-797,0,0,0,0,0,0,0,0,0,-1,1812,1821,0,0
595,-797,0,0,0,0,0,0,0,0,0,-1,1819,1821,0,0
602,-797,0,0,0,0,0,0,0,0,0,-1,1826,1821,0,0
609,-797,0,0,0,0,0,0,0,0,0,-1,1833,1821,0,0
616,-797,0,0,0,0,0,0,0,0,0,-1,1840,1821,0,0
623,-797,0,0,0,0,0,0,0,0,0,-1,1847,1821,0,0
630,-797,0,0,0,0,0,0,0,0,0,-1,1854,1821,0,0
637,-797,0,0,0,0,0,0,0,0,0,-1,1861,1821,0,0
644,-797,0,0,0,0,0,0,0,0,0,-1,1868,1821,0,0
651,-797,0,0,0,0,0,0,0,0,0,-1,1875,1821,0,0
658,-797,0,0,0,0,0,0,0,0,0,-1,1882,1821,0,0
665,-797,0,0,0,0,0,0,0,0,0,-1,1889,1821,0,0
672,-797,0,0,0,0,0,0,0,0,0,-1,1896,1821,0,0
679,-797,0,0,0,0,0,0,0,0,0,-1,1903,1821,0,0
686,-797,0,0,0,0,0,0,0,0,0,-1,1910,1821,0,0
693,-797,0,0,0,0,0,0,0,0,0,-1,1917,1821,0,0
700,-797,0,0,0,0,0,0,0,0,0,-1,1924,1821,0,0
707,-797,0,0,0,0,0,0,0,0,0,-1,1931,1821,0,0
714,-797,0,0,0,0,0,0,0,0,0,-1,1938,1821,0,0
721,-797,0,0,0,0,0,0,0,0,0,-1,1945,1821,0,0
728,-797,0,0,0,0,0,0,0,0,0,-1,1952,1821,0,0
735,-797,0,0,0,0,0,0,0,0,0,-1,1959,1821,0,0
742,-797,0,0,0,0,0,0,0,0,0,-1,1966,1821,0,0
749,-797,0,0,0,0,0,0,0,0,0,-1,1973,1821,0,0
756,-797,0,0,0,0,0,0,0,0,0,-1,1980,1821,0,0
763,-797,0,0,0,0,0,0,0,0,0,-1,1987,1821,0,0
770,-797,0,0,0,0,0,0,0,0,0,-1,1994,1821,0,0
777,-797,0,0,0,0,0,0,0,0,0,-1,2001,1821,0,0
784,-797,0,0,0,0,0,0,0,0,0,-1,2008,1821,0,0
791,-797,0,0,0,0,0,0,0,0,0,-1,2015,1821,0,0
798,-797,0,0,0,0,0,0,0,0,0,-1,2022,1821,0,0
805,-797,0,0,0,0,0,0,0,0,0,-1,2029,1821,0,0
812,-797,0,0,0,0,0,0,0,0,0,-1,2036,1821,0,0
-700,-804,0,0,0,0,0,0,0,0,0,-1,524,1828,0,0
-693,-804,0,0,0,0,0,0,0,0,0,-1,531,1828,0,0
-686,-804,0,0,0,0,0,0,0,0,0,-1,538,1828,0,0
-679,-804,0,0,0,0,0,0,0,0,0,-1,545,1828,0,0
-672,-804,0,0,0,0,0,0,0,0,0,-1,552,1828,0,0
-665,-804,0,0,0,0,0,0,0,0,0,-1,559,1828,0,0
-658,-804,0,0,0,0,0,0,0,0,0,-1,566,1828,0,0
-651,-804,0,0,0,0,0,0,0,0,0,-1,573,1828,0,0
-644,-804,0,0,0,0,0,0,0,0,0,-1,580,1828,0,0
-637,-804,0,0,0,0,0,0,0,0,0,-1,587,1828,0,0
-630,-804,0,0,0,0,0,0,0,0,0,-1,594,1828,0,0
-623,-804,0,0,0,0,0,0,0,0,0,-1,601,1828,0,0
-616,-804,0,0,0,0,0,0,0,0,0,-1,608,1828,0,0
-609,-804,0,0,0,0,0,0,0,0,0,-1,615,1828,0,0
-602,-804,0,0,0,0,0,0,0,0,0,-1,622,1828,0,0
-595,-804,0,0,0,0,0,0,0,0,0,-1,629,1828,0,0
-588,-804,0,0,0,0,0,0,0,0,0,-1,636,1828,0,0
-581,-804,0,0,0,0,0,0,0,0,0,-1,643,1828,0,0
-574,-804,0,0,0,0,0,0,0,0,0,-1,650,1828,0,0
-567,-804,0,0,0,0,0,0,0,0,0,-1,657,1828,0,0
-560,-804,0,0,0,0,0,0,0,0,0,-1,664,1828,0,0
-553,-804,0,0,0,0,0,0,0,0,0,-1,671,1828,0,0
-546,-804,0,0,0,0,0,0,0,0,0,-1,678,1828,0,0
-539,-804,0,0,0,0,0,0,0,0,0,-1,685,1828,0,0
-532,-804,0,0,0,0,0,0,0,0,0,-1,692,1828,0,0
-525,-804,0,0,0,0,0,0,0,0,0,-1,699,1828,0,0
-518,-804,0,0,0,0,0,0,0,0,0,-1,706,1828,0,0
-511,-804,0,0,0,0,0,0,0,0,0,-1,713,1828,0,0
-504,-804,0,0,0,0,0,0,0,0,0,-1,720,1828,0,0
-497,-804,0,0,0,0,0,0,0,0,0,-1,727,1828,0,0
-490,-804,0,0,0,0,0,0,0,0,0,-1,734,1828,0,0
-483,-804,0,0,0,0,0,0,0,0,0,-1,741,1828,0,0
-476,-804,0,0,0,0,0,0,0,0,0,-1,748,1828,0,0
-469,-804,0,0,0,0,0,0,0,0,0,-1,755,1828,0,0
-462,-804,0,0,0,0,0,0,0,0,0,-1,762,1828,0,0
-455,-804,0,0,0,0,0,0,0,0,0,-1,769,1828,0,0
-448,-804,0,0,0,0,0,0,0,0,0,-1,776,1828,0,0
-441,-804,0,0,0,0,0,0,0,0,0,-1,783,1828,0,0
-434,-804,0,0,0,0,0,0,0,0,0,-1,790,1828,0,0
-427,-804,0,0,0,0,0,0,0,0,0,-1,797,1828,0,0
-420,-804,0,0,0,0,0,0,0,0,0,-1,804,1828,0,0
-413,-804,0,0,0,0,0,0,0,0,0,-1,811,1828,0,0
-406,-804,0,0,0,0,0,0,0,0,0,-1,818,1828,0,0
-399,-804,0,0,0,0,0,0,0,0,0,-1,825,1828,0,0
-392,-804,0,0,0,0,0,0,0,0,0,-1,832,1828,0,0
-385,-804,0,0,0,0,0,0,0,0,0,-1,839,1828,0,0
-378,-804,0,0,0,0,0,0,0,0,0,-1,846,1828,0,0
-371,-804,0,0,0,0,0,0,0,0,0,-1,853,1828,0,0
-364,-804,0,0,0,0,0,0,0,0,0,-1,860,1828,0,0
-357,-804,0,0,0,0,0,0,0,0,0,-1,867,1828,0,0
-350,-804,0,0,0,0,0,0,0,0,0,-1,874,1828,0,0
-343,-804,0,0,0,0,0,0,0,0,0,-1,881,1828,0,0
-336,-804,0,0,0,0,0,0,0,0,0,-1,888,1828,0,0
-329,-804,0,0,0,0,0,0,0,0,0,-1,895,1828,0,0
-322,-804,0,0,0,0,0,0,0,0,0,-1,902,1828,0,0
-315,-804,0,0,0,0,0,0,0,0,0,-1,909,1828,0,0
-308,-804,0,0,0,0,0,0,0,0,0,-1,916,1828,0,0
-301,-804,0,0,0,0,0,0,0,0,0,-1,923,1828,0,0
-294,-804,0,0,0,0,0,0,0,0,0,-1,930,1828,0,0
-287,-804,0,0,0,0,0,0,0,0,0,-1,937,1828,0,0
-280,-804,0,0,0,0,0,0,0,0,0,-1,944,1828,0,0
-273,-804,0,0,0,0,0,0,0,0,0,-1,951,1828,0,0
-266,-804,0,0,0,0,0,0,0,0,0,-1,958,1828,0,0
-259,-804,0,0,0,0,0,0,0,0,0,-1,965,1828,0,0
-252,-804,0,0,0,0,0,0,0,0,0,-1,972,1828,0,0
-245,-804,0,0,0,0,0,0,0,0,0,-1,979,1828,0,0
-238,-804,0,0,0,0,0,0,0,0,0,-1,986,1828,0,0
-231,-804,0,0,0,0,0,0,0,0,0,-1,993,1828,0,0
-224,-804,0,0,0,0,0,0,0,0,0,-1,1000,1828,0,0
-217,-804,0,0,0,0,0,0,0,0,0,-1,1007,1828,0,0
-210,-804,0,0,0,0,0,0,0,0,0,-1,1014,1828,0,0
-203,-804,0,0,0,0,0,0,0,0,0,-1,1021,1828,0,0
-196,-804,0,0,0,0,0,0,0,0,0,-1,1028,1828,0,0
-189,-804,0,0,0,0,0,0,0,0,0,-1,1035,1828,0,0
-182,-804,0,0,0,0,0,0,0,0,0,-1,1042,1828,0,0
-175,-804,0,0,0,0,0,0,0,0,0,-1,1049,1828,0,0
-168,-804,0,0,0,0,0,0,0,0,0,-1,1056,1828,0,0
-161,-804,0,0,0,0,0,0,0,0,0,-1,1063,1828,0,0
-154,-804,0,0,0,0,0,0,0,0,0,-1,1070,1828,0,0
-147,-804,0,0,0,0,0,0,0,0,0,-1,1077,1828,0,0
-140,-804,0,0,0,0,0,0,0,0,0,-1,1084,1828,0,0
-133,-804,0,0,0,0,0,0,0,0,0,-1,1091,1828,0,0
-126,-804,0,0,0,0,0,0,0,0,0,-1,1098,1828,0,0
-119,-804,0,0,0,0,0,0,0,0,0,-1,1105,1828,0,0
-112,-804,0,0,0,0,0,0,0,0,0,-1,1112,1828,0,0
-105,-804,0,0,0,0,0,0,0,0,0,-1,1119,1828,0,0
-98,-804,0,0,0,0,0,0,0,0,0,-1,1126,1828,0,0
-91,-804,0,0,0,0,0,0,0,0,0,-1,1133,1828,0,0
-84,-804,0,0,0,0,0,0,0,0,0,-1,1140,1828,0,0
-77,-804,0,0,0,0,0,0,0,0,0,-1,1147,1828,0,0
-70,-804,0,0,0,0,0,0,0,0,0,-1,1154,1828,0,0
-63,-804,0,0,0,0,0,0,0,0,0,-1,1161,1828,0,0
-56,-804,0,0,0,0,0,0,0,0,0,-1,1168,1828,0,0
-49,-804,0,0,0,0,0,0,0,0,0,-1,1175,1828,0,0
-42,-804,0,0,0,0,0,0,0,0,0,-1,1182,1828,0,0
-35,-804,0,0,0,0,0,0,0,0,0,-1,1189,1828,0,0
-28,-804,0,0,0,0,0,0,0,0,0,-1,1196,1828,0,0
-21,-804,0,0,0,0,0,0,0,0,0,-1,1203,1828,0,0
-14,-804,0,0,0,0,0,0,0,0,0,-1,1210,1828,0,0
-7,-804,0,0,0,0,0,0,0,0,0,-1,1217,1828,0,0
0,-804,0,0,0,0,0,0,0,0,0,-1,1224,1828,0,0
7,-804,0,0,0,0,0,0,0,0,0,-1,1231,1828,0,0
14,-804,0,0,0,0,0,0,0,0,0,-1,1238,1828,0,0
21,-804,0,0,0,0,0,0,0,0,0,-1,1245,1828,0,0
28,-804,0,0,0,0,0,0,0,0,0,-1,1252,1828,0,0
35,-804,4.38989,15.8191,0,0,0,0,0,0,0,-1,1259,1828,4.38986,-15.8191
42,-804,4.25476,15.6799,0,0,0,0,0,0,0,-1,1266,1828,4.25475,-15.6799
49,-804,4.22961,15.3361,0,0,0,0,0,0,0,-1,1273,1828,4.22965,-15.3361
56,-804,4.15259,14.9546,0,0,0,0,0,0,0,-1,1280,1828,4.15261,-14.9546
63,-804,4.21484,14.2803,0.019209,0.0186087,-0.00474507,0.0236634,0.0141543,-0.753812,0.0137496,0.0463194,1287,1828,4.2149,-14.2803
70,-804,3.9989,14.0026,0.02932,0.0231819,-0.0106668,0.0373505,0.0151515,-0.645321,0.0216919,0.0480843,1294,1828,3.9989,-14.0025
77,-804,4.08728,13.9944,0.040159,0.0299229,-0.016335,0.0521589,0.0179229,-0.633583,0.030601,0.0459233,1301,1828,4.08731,-13.9944
84,-804,4.37305,14.1833,0.0520084,0.0339664,-0.0236072,0.0682594,0.0177153,-0.602895,0.0409007,0.0448597,1308,1828,4.373,-14.1834
91,-804,0,0,0,0,0,0,0,0,0,-1,1315,1828,0,0
98,-804,0,0,0,0,0,0,0,0,0,-1,1322,1828,0,0
105,-804,0,0,0,0,0,0,0,0,0,-1,1329,1828,0,0
112,-804,0,0,0,0,0,0,0,0,0,-1,1336,1828,0,0
119,-804,0,0,0,0,0,0,0,0,0,-1,1343,1828,0,0
126,-804,0,0,0,0,0,0,0,0,0,-1,1350,1828,0,0
133,-804,0,0,0,0,0,0,0,0,0,-1,1357,1828,0,0
140,-804,0,0,0,0,0,0,0,0,0,-1,1364,1828,0,0
147,-804,0,0,0,0,0,0,0,0,0,-1,1371,1828,0,0
154,-804,0,0,0,0,0,0,0,0,0,-1,1378,1828,0,0
161,-804,0,0,0,0,0,0,0,0,0,-1,1385,1828,0,0
168,-804,0,0,0,0,0,0,0,0,0,-1,1392,1828,0,0
175,-804,0,0,0,0,0,0,0,0,0,-1,1399,1828,0,0
182,-804,0,0,0,0,0,0,0,0,0,-1,1406,1828,0,0
189,-804,0,0,0,0,0,0,0,0,0,-1,1413,1828,0,0
196,-804,0,0,0,0,0,0,0,0,0,-1,1420,1828,0,0
203,-804,0,0,0,0,0,0,0,0,0,-1,1427,1828,0,0
210,-804,0,0,0,0,0,0,0,0,0,-1,1434,1828,0,0
217,-804,0,0,0,0,0,0,0,0,0,-1,1441,1828,0,0
224,-804,0,0,0,0,0,0,0,0,0,-1,1448,1828,0,0
231,-804,0,0,0,0,0,0,0,0,0,-1,1455,1828,0,0
238,-804,0,0,0,0,0,0,0,0,0,-1,1462,1828,0,0
245,-804,0,0,0,0,0,0,0,0,0,-1,1469,1828,0,0
252,-804,0,0,0,0,0,0,0,0,0,-1,1476,1828,0,0
259,-804,0,0,0,0,0,0,0,0,0,-1,1483,1828,0,0
266,-804,0,0,0,0,0,0,0,0,0,-1,1490,1828,0,0
273,-804,0,0,0,0,0,0,0,0,0,-1,1497,1828,0,0
280,-804,0,0,0,0,0,0,0,0,0,-1,1504,1828,0,0
287,-804,0,0,0,0,0,0,0,0,0,-1,1511,1828,0,0
294,-804,0,0,0,0,0,0,0,0,0,-1,1518,1828,0,0
301,-804,0,0,0,0,0,0,0,0,0,-1,1525,1828,0,0
308,-804,0,0,0,0,0,0,0,0,0,-1,1532,1828,0,0
315,-804,0,0,0,0,0,0,0,0,0,-1,1539,1828,0,0
322,-804,0,0,0,0,0,0,0,0,0,-1,1546,1828,0,0
329,-804,0,0,0,0,0,0,0,0,0,-1,1553,1828,0,0
336,-804,0,0,0,0,0,0,0,0,0,-1,1560,1828,0,0
343,-804,0,0,0,0,0,0,0,0,0,-1,1567,1828,0,0
350,-804,0,0,0,0,0,0,0,0,0,-1,1574,1828,0,0
357,-804,0,0,0,0,0,0,0,0,0,-1,1581,1828,0,0
364,-804,0,0,0,0,0,0,0,0,0,-1,1588,1828,0,0
371,-804,0,0,0,0,0,0,0,0,0,-1,1595,1828,0,0
378,-804,0,0,0,0,0,0,0,0,0,-1,1602,1828,0,0
385,-804,0,0,0,0,0,0,0,0,0,-1,1609,1828,0,0
392,-804,0,0,0,0,0,0,0,0,0,-1,1616,1828,0,0
399,-804,0,0,0,0,0,0,0,0,0,-1,1623,1828,0,0
406,-804,0,0,0,0,0,0,0,0,0,-1,1630,1828,0,0
413,-804,0,0,0,0,0,0,0,0,0,-1,1637,1828,0,0
420,-804,0,0,0,0,0,0,0,0,0,-1,1644,1828,0,0
427,-804,0,0,0,0,0,0,0,0,0,-1,1651,1828,0,0
434,-804,0,0,0,0,0,0,0,0,0,-1,1658,1828,0,0
441,-804,0,0,0,0,0,0,0,0,0,-1,1665,1828,0,0
448,-804,0,0,0,0,0,0,0,0,0,-1,1672,1828,0,0
455,-804,0,0,0,0,0,0,0,0,0,-1,1679,1828,0,0
462,-804,0,0,0,0,0,0,0,0,0,-1,1686,1828,0,0
469,-804,0,0,0,0,0,0,0,0,0,-1,1693,1828,0,0
476,-804,0,0,0,0,0,0,0,0,0,-1,1700,1828,0,0
483,-804,0,0,0,0,0,0,0,0,0,-1,1707,1828,0,0
490,-804,0,0,0,0,0,0,0,0,0,-1,1714,1828,0,0
497,-804,0,0,0,0,0,0,0,0,0,-1,1721,1828,0,0
504,-804,0,0,0,0,0,0,0,0,0,-1,1728,1828,0,0
511,-804,0,0,0,0,0,0,0,0,0,-1,1735,1828,0,0
518,-804,0,0,0,0,0,0,0,0,0,-1,1742,1828,0,0
525,-804,0,0,0,0,0,0,0,0,0,-1,1749,1828,0,0
532,-804,0,0,0,0,0,0,0,0,0,-1,1756,1828,0,0
539,-804,0,0,0,0,0,0,0,0,0,-1,1763,1828,0,0
546,-804,0,0,0,0,0,0,0,0,0,-1,1770,1828,0,0
553,-804,0,0,0,0,0,0,0,0,0,-1,1777,1828,0,0
560,-804,0,0,0,0,0,0,0,0,0,-1,1784,1828,0,0
567,-804,0,0,0,0,0,0,0,0,0,-1,1791,1828,0,0
574,-804,0,0,0,0,0,0,0,0,0,-1,1798,1828,0,0
581,-804,0,0,0,0,0,0,0,0,0,-1,1805,1828,0,0
588,-804,0,0,0,0,0,0,0,0,0,-1,1812,1828,0,0
595,-804,0,0,0,0,0,0,0,0,0,-1,1819,1828,0,0
602,-804,0,0,0,0,0,0,0,0,0,-1,1826,1828,0,0
609,-804,0,0,0,0,0,0,0,0,0,-1,1833,1828,0,0
616,-804,0,0,0,0,0,0,0,0,0,-1,1840,1828,0,0
623,-804,0,0,0,0,0,0,0,0,0,-1,1847,1828,0,0
630,-804,0,0,0,0,0,0,0,0,0,-1,1854,1828,0,0
637,-804,0,0,0,0,0,0,0,0,0,-1,1861,1828,0,0
644,-804,0,0,0,0,0,0,0,0,0,-1,1868,1828,0,0
651,-804,0,0,0,0,0,0,0,0,0,-1,1875,1828,0,0
658,-804,0,0,0,0,0,0,0,0,0,-1,1882,1828,0,0
665,-804,0,0,0,0,0,0,0,0,0,-1,1889,1828,0,0
672,-804,0,0,0,0,0,0,0,0,0,-1,1896,1828,0,0
679,-804,0,0,0,0,0,0,0,0,0,-1,1903,1828,0,0
686,-804,0,0,0,0,0,0,0,0,0,-1,1910,1828,0,0
693,-804,0,0,0,0,0,0,0,0,0,-1,1917,1828,0,0
700,-804,0,0,0,0,0,0,0,0,0,-1,1924,1828,0,0
707,-804,0,0,0,0,0,0,0,0,0,-1,1931,1828,0,0
714,-804,0,0,0,0,0,0,0,0,0,-1,1938,1828,0,0
721,-804,0,0,0,0,0,0,0,0,0,-1,1945,1828,0,0
728,-804,0,0,0,0,0,0,0,0,0,-1,1952,1828,0,0
735,-804,0,0,0,0,0,0,0,0,0,-1,1959,1828,0,0
742,-804,0,0,0,0,0,0,0,0,0,-1,1966,1828,0,0
749,-804,0,0,0,0,0,0,0,0,0,-1,1973,1828,0,0
756,-804,0,0,0,0,0,0,0,0,0,-1,1980,1828,0,0
763,-804,0,0,0,0,0,0,0,0,0,-1,1987,1828,0,0
770,-804,0,0,0,0,0,0,0,0,0,-1,1994,1828,0,0
777,-804,0,0,0,0,0,0,0,0,0,-1,2001,1828,0,0
784,-804,0,0,0,0,0,0,0,0,0,-1,2008,1828,0,0
791,-804,0,0,0,0,0,0,0,0,0,-1,2015,1828,0,0
798,-804,0,0,0,0,0,0,0,0,0,-1,2022,1828,0,0
805,-804,0,0,0,0,0,0,0,0,0,-1,2029,1828,0,0
812,-804,0,0,0,0,0,0,0,0,0,-1,2036,1828,0,0

