 "x_c",  "y_c",  "u_c",  "v_c",  "exx",  "eyy",  "exy",  "e1",  "e2",  "gamma",  "e_vonmises",  "sigma",  "x",  "y",  "u",  "v"
-700,715,0,0,0,0,0,0,0,0,0,-1,524,309,0,0
-693,715,0,0,0,0,0,0,0,0,0,-1,531,309,0,0
-686,715,0,0,0,0,0,0,0,0,0,-1,538,309,0,0
-679,715,0,0,0,0,0,0,0,0,0,-1,545,309,0,0
-672,715,0,0,0,0,0,0,0,0,0,-1,552,309,0,0
-665,715,0,0,0,0,0,0,0,0,0,-1,559,309,0,0
-658,715,0,0,0,0,0,0,0,0,0,-1,566,309,0,0
-651,715,0,0,0,0,0,0,0,0,0,-1,573,309,0,0
-644,715,0,0,0,0,0,0,0,0,0,-1,580,309,0,0
-637,715,0,0,0,0,0,0,0,0,0,-1,587,309,0,0
-630,715,0,0,0,0,0,0,0,0,0,-1,594,309,0,0
-623,715,0,0,0,0,0,0,0,0,0,-1,601,309,0,0
-616,715,0,0,0,0,0,0,0,0,0,-1,608,309,0,0
-609,715,0,0,0,0,0,0,0,0,0,-1,615,309,0,0
-602,715,0,0,0,0,0,0,0,0,0,-1,622,309,0,0
-595,715,0,0,0,0,0,0,0,0,0,-1,629,309,0,0
-588,715,0,0,0,0,0,0,0,0,0,-1,636,309,0,0
-581,715,0,0,0,0,0,0,0,0,0,-1,643,309,0,0
-574,715,0,0,0,0,0,0,0,0,0,-1,650,309,0,0
-567,715,0,0,0,0,0,0,0,0,0,-1,657,309,0,0
-560,715,0,0,0,0,0,0,0,0,0,-1,664,309,0,0
-553,715,0,0,0,0,0,0,0,0,0,-1,671,309,0,0
-546,715,0,0,0,0,0,0,0,0,0,-1,678,309,0,0
-539,715,0,0,0,0,0,0,0,0,0,-1,685,309,0,0
-532,715,0,0,0,0,0,0,0,0,0,-1,692,309,0,0
-525,715,0,0,0,0,0,0,0,0,0,-1,699,309,0,0
-518,715,0,0,0,0,0,0,0,0,0,-1,706,309,0,0
-511,715,0,0,0,0,0,0,0,0,0,-1,713,309,0,0
-504,715,0,0,0,0,0,0,0,0,0,-1,720,309,0,0
-497,715,0,0,0,0,0,0,0,0,0,-1,727,309,0,0
-490,715,0,0,0,0,0,0,0,0,0,-1,734,309,0,0
-483,715,0,0,0,0,0,0,0,0,0,-1,741,309,0,0
-476,715,0,0,0,0,0,0,0,0,0,-1,748,309,0,0
-469,715,0,0,0,0,0,0,0,0,0,-1,755,309,0,0
-462,715,0,0,0,0,0,0,0,0,0,-1,762,309,0,0
-455,715,0,0,0,0,0,0,0,0,0,-1,769,309,0,0
-448,715,0,0,0,0,0,0,0,0,0,-1,776,309,0,0
-441,715,0,0,0,0,0,0,0,0,0,-1,783,309,0,0
-434,715,0,0,0,0,0,0,0,0,0,-1,790,309,0,0
-427,715,0,0,0,0,0,0,0,0,0,-1,797,309,0,0
-420,715,0,0,0,0,0,0,0,0,0,-1,804,309,0,0
-413,715,0,0,0,0,0,0,0,0,0,-1,811,309,0,0
-406,715,0,0,0,0,0,0,0,0,0,-1,818,309,0,0
-399,715,0,0,0,0,0,0,0,0,0,-1,825,309,0,0
-392,715,0,0,0,0,0,0,0,0,0,-1,832,309,0,0
-385,715,0,0,0,0,0,0,0,0,0,-1,839,309,0,0
-378,715,0,0,0,0,0,0,0,0,0,-1,846,309,0,0
-371,715,0,0,0,0,0,0,0,0,0,-1,853,309,0,0
-364,715,0,0,0,0,0,0,0,0,0,-1,860,309,0,0
-357,715,0,0,0,0,0,0,0,0,0,-1,867,309,0,0
-350,715,0,0,0,0,0,0,0,0,0,-1,874,309,0,0
-343,715,0,0,0,0,0,0,0,0,0,-1,881,309,0,0
-336,715,0,0,0,0,0,0,0,0,0,-1,888,309,0,0
-329,715,0,0,0,0,0,0,0,0,0,-1,895,309,0,0
-322,715,0,0,0,0,0,0,0,0,0,-1,902,309,0,0
-315,715,0,0,0,0,0,0,0,0,0,-1,909,309,0,0
-308,715,0,0,0,0,0,0,0,0,0,-1,916,309,0,0
-301,715,0,0,0,0,0,0,0,0,0,-1,923,309,0,0
-294,715,0,0,0,0,0,0,0,0,0,-1,930,309,0,0
-287,715,0,0,0,0,0,0,0,0,0,-1,937,309,0,0
-280,715,0,0,0,0,0,0,0,0,0,-1,944,309,0,0
-273,715,0,0,0,0,0,0,0,0,0,-1,951,309,0,0
-266,715,0,0,0,0,0,0,0,0,0,-1,958,309,0,0
-259,715,0,0,0,0,0,0,0,0,0,-1,965,309,0,0
-252,715,0,0,0,0,0,0,0,0,0,-1,972,309,0,0
-245,715,0,0,0,0,0,0,0,0,0,-1,979,309,0,0
-238,715,0,0,0,0,0,0,0,0,0,-1,986,309,0,0
-231,715,0,0,0,0,0,0,0,0,0,-1,993,309,0,0
-224,715,0,0,0,0,0,0,0,0,0,-1,1000,309,0,0
-217,715,0,0,0,0,0,0,0,0,0,-1,1007,309,0,0
-210,715,0,0,0,0,0,0,0,0,0,-1,1014,309,0,0
-203,715,0,0,0,0,0,0,0,0,0,-1,1021,309,0,0
-196,715,0,0,0,0,0,0,0,0,0,-1,1028,309,0,0
-189,715,0,0,0,0,0,0,0,0,0,-1,1035,309,0,0
-182,715,0,0,0,0,0,0,0,0,0,-1,1042,309,0,0
-175,715,0,0,0,0,0,0,0,0,0,-1,1049,309,0,0
-168,715,0,0,0,0,0,0,0,0,0,-1,1056,309,0,0
-161,715,0,0,0,0,0,0,0,0,0,-1,1063,309,0,0
-154,715,0,0,0,0,0,0,0,0,0,-1,1070,309,0,0
-147,715,0,0,0,0,0,0,0,0,0,-1,1077,309,0,0
-140,715,0,0,0,0,0,0,0,0,0,-1,1084,309,0,0
-133,715,0,0,0,0,0,0,0,0,0,-1,1091,309,0,0
-126,715,0,0,0,0,0,0,0,0,0,-1,1098,309,0,0
-119,715,0,0,0,0,0,0,0,0,0,-1,1105,309,0,0
-112,715,0,0,0,0,0,0,0,0,0,-1,1112,309,0,0
-105,715,0,0,0,0,0,0,0,0,0,-1,1119,309,0,0
-98,715,0,0,0,0,0,0,0,0,0,-1,1126,309,0,0
-91,715,0,0,0,0,0,0,0,0,0,-1,1133,309,0,0
-84,715,0,0,0,0,0,0,0,0,0,-1,1140,309,0,0
-77,715,0,0,0,0,0,0,0,0,0,-1,1147,309,0,0
-70,715,0,0,0,0,0,0,0,0,0,-1,1154,309,0,0
-63,715,0,0,0,0,0,0,0,0,0,-1,1161,309,0,0
-56,715,0,0,0,0,0,0,0,0,0,-1,1168,309,0,0
-49,715,0,0,0,0,0,0,0,0,0,-1,1175,309,0,0
-42,715,0,0,0,0,0,0,0,0,0,-1,1182,309,0,0
-35,715,0,0,0,0,0,0,0,0,0,-1,1189,309,0,0
-28,715,0,0,0,0,0,0,0,0,0,-1,1196,309,0,0
-21,715,0,0,0,0,0,0,0,0,0,-1,1203,309,0,0
-14,715,0,0,0,0,0,0,0,0,0,-1,1210,309,0,0
-7,715,0,0,0,0,0,0,0,0,0,-1,1217,309,0,0
0,715,0,0,0,0,0,0,0,0,0,-1,1224,309,0,0
7,715,0,0,0,0,0,0,0,0,0,-1,1231,309,0,0
14,715,0,0,0,0,0,0,0,0,0,-1,1238,309,0,0
21,715,0,0,0,0,0,0,0,0,0,-1,1245,309,0,0
28,715,0,0,0,0,0,0,0,0,0,-1,1252,309,0,0
35,715,0,0,0,0,0,0,0,0,0,-1,1259,309,0,0
42,715,0,0,0,0,0,0,0,0,0,-1,1266,309,0,0
49,715,0,0,0,0,0,0,0,0,0,-1,1273,309,0,0
56,715,0,0,0,0,0,0,0,0,0,-1,1280,309,0,0
63,715,4.39807,-45.7569,-0.116264,0.0444467,0.0103901,0.0451157,-0.116933,1.5065,0.0965729,0.0456983,1287,309,4.39801,45.7569
70,715,3.7334,-45.8,0,0,0,0,0,0,0,-1,1294,309,3.73346,45.8
77,715,0,0,0,0,0,0,0,0,0,-1,1301,309,0,0
84,715,0,0,0,0,0,0,0,0,0,-1,1308,309,0,0
91,715,0,0,0,0,0,0,0,0,0,-1,1315,309,0,0
98,715,0,0,0,0,0,0,0,0,0,-1,1322,309,0,0
105,715,0,0,0,0,0,0,0,0,0,-1,1329,309,0,0
112,715,0,0,0,0,0,0,0,0,0,-1,1336,309,0,0
119,715,0,0,0,0,0,0,0,0,0,-1,1343,309,0,0
126,715,0,0,0,0,0,0,0,0,0,-1,1350,309,0,0
133,715,0,0,0,0,0,0,0,0,0,-1,1357,309,0,0
140,715,0,0,0,0,0,0,0,0,0,-1,1364,309,0,0
147,715,0,0,0,0,0,0,0,0,0,-1,1371,309,0,0
154,715,0,0,0,0,0,0,0,0,0,-1,1378,309,0,0
161,715,0,0,0,0,0,0,0,0,0,-1,1385,309,0,0
168,715,0,0,0,0,0,0,0,0,0,-1,1392,309,0,0
175,715,0,0,0,0,0,0,0,0,0,-1,1399,309,0,0
182,715,0,0,0,0,0,0,0,0,0,-1,1406,309,0,0
189,715,0,0,0,0,0,0,0,0,0,-1,1413,309,0,0
196,715,0,0,0,0,0,0,0,0,0,-1,1420,309,0,0
203,715,0,0,0,0,0,0,0,0,0,-1,1427,309,0,0
210,715,0,0,0,0,0,0,0,0,0,-1,1434,309,0,0
217,715,0,0,0,0,0,0,0,0,0,-1,1441,309,0,0
224,715,0,0,0,0,0,0,0,0,0,-1,1448,309,0,0
231,715,0,0,0,0,0,0,0,0,0,-1,1455,309,0,0
238,715,0,0,0,0,0,0,0,0,0,-1,1462,309,0,0
245,715,0,0,0,0,0,0,0,0,0,-1,1469,309,0,0
252,715,0,0,0,0,0,0,0,0,0,-1,1476,309,0,0
259,715,0,0,0,0,0,0,0,0,0,-1,1483,309,0,0
266,715,0,0,0,0,0,0,0,0,0,-1,1490,309,0,0
273,715,0,0,0,0,0,0,0,0,0,-1,1497,309,0,0
280,715,0,0,0,0,0,0,0,0,0,-1,1504,309,0,0
287,715,0,0,0,0,0,0,0,0,0,-1,1511,309,0,0
294,715,0,0,0,0,0,0,0,0,0,-1,1518,309,0,0
301,715,0,0,0,0,0,0,0,0,0,-1,1525,309,0,0
308,715,0,0,0,0,0,0,0,0,0,-1,1532,309,0,0
315,715,0,0,0,0,0,0,0,0,0,-1,1539,309,0,0
322,715,0,0,0,0,0,0,0,0,0,-1,1546,309,0,0
329,715,0,0,0,0,0,0,0,0,0,-1,1553,309,0,0
336,715,0,0,0,0,0,0,0,0,0,-1,1560,309,0,0
343,715,0,0,0,0,0,0,0,0,0,-1,1567,309,0,0
350,715,0,0,0,0,0,0,0,0,0,-1,1574,309,0,0
357,715,0,0,0,0,0,0,0,0,0,-1,1581,309,0,0
364,715,0,0,0,0,0,0,0,0,0,-1,1588,309,0,0
371,715,0,0,0,0,0,0,0,0,0,-1,1595,309,0,0
378,715,0,0,0,0,0,0,0,0,0,-1,1602,309,0,0
385,715,0,0,0,0,0,0,0,0,0,-1,1609,309,0,0
392,715,0,0,0,0,0,0,0,0,0,-1,1616,309,0,0
399,715,0,0,0,0,0,0,0,0,0,-1,1623,309,0,0
406,715,0,0,0,0,0,0,0,0,0,-1,1630,309,0,0
413,715,0,0,0,0,0,0,0,0,0,-1,1637,309,0,0
420,715,0,0,0,0,0,0,0,0,0,-1,1644,309,0,0
427,715,0,0,0,0,0,0,0,0,0,-1,1651,309,0,0
434,715,0,0,0,0,0,0,0,0,0,-1,1658,309,0,0
441,715,0,0,0,0,0,0,0,0,0,-1,1665,309,0,0
448,715,0,0,0,0,0,0,0,0,0,-1,1672,309,0,0
455,715,0,0,0,0,0,0,0,0,0,-1,1679,309,0,0
462,715,0,0,0,0,0,0,0,0,0,-1,1686,309,0,0
469,715,0,0,0,0,0,0,0,0,0,-1,1693,309,0,0
476,715,0,0,0,0,0,0,0,0,0,-1,1700,309,0,0
483,715,0,0,0,0,0,0,0,0,0,-1,1707,309,0,0
490,715,0,0,0,0,0,0,0,0,0,-1,1714,309,0,0
497,715,0,0,0,0,0,0,0,0,0,-1,1721,309,0,0
504,715,0,0,0,0,0,0,0,0,0,-1,1728,309,0,0
511,715,0,0,0,0,0,0,0,0,0,-1,1735,309,0,0
518,715,0,0,0,0,0,0,0,0,0,-1,1742,309,0,0
525,715,0,0,0,0,0,0,0,0,0,-1,1749,309,0,0
532,715,0,0,0,0,0,0,0,0,0,-1,1756,309,0,0
539,715,0,0,0,0,0,0,0,0,0,-1,1763,309,0,0
546,715,0,0,0,0,0,0,0,0,0,-1,1770,309,0,0
553,715,0,0,0,0,0,0,0,0,0,-1,1777,309,0,0
560,715,0,0,0,0,0,0,0,0,0,-1,1784,309,0,0
567,715,0,0,0,0,0,0,0,0,0,-1,1791,309,0,0
574,715,0,0,0,0,0,0,0,0,0,-1,1798,309,0,0
581,715,0,0,0,0,0,0,0,0,0,-1,1805,309,0,0
588,715,0,0,0,0,0,0,0,0,0,-1,1812,309,0,0
595,715,0,0,0,0,0,0,0,0,0,-1,1819,309,0,0
602,715,0,0,0,0,0,0,0,0,0,-1,1826,309,0,0
609,715,0,0,0,0,0,0,0,0,0,-1,1833,309,0,0
616,715,0,0,0,0,0,0,0,0,0,-1,1840,309,0,0
623,715,0,0,0,0,0,0,0,0,0,-1,1847,309,0,0
630,715,0,0,0,0,0,0,0,0,0,-1,1854,309,0,0
637,715,0,0,0,0,0,0,0,0,0,-1,1861,309,0,0
644,715,0,0,0,0,0,0,0,0,0,-1,1868,309,0,0
651,715,0,0,0,0,0,0,0,0,0,-1,1875,309,0,0
658,715,0,0,0,0,0,0,0,0,0,-1,1882,309,0,0
665,715,0,0,0,0,0,0,0,0,0,-1,1889,309,0,0
672,715,0,0,0,0,0,0,0,0,0,-1,1896,309,0,0
679,715,0,0,0,0,0,0,0,0,0,-1,1903,309,0,0
686,715,0,0,0,0,0,0,0,0,0,-1,1910,309,0,0
693,715,0,0,0,0,0,0,0,0,0,-1,1917,309,0,0
700,715,0,0,0,0,0,0,0,0,0,-1,1924,309,0,0
707,715,0,0,0,0,0,0,0,0,0,-1,1931,309,0,0
714,715,0,0,0,0,0,0,0,0,0,-1,1938,309,0,0
721,715,0,0,0,0,0,0,0,0,0,-1,1945,309,0,0
728,715,0,0,0,0,0,0,0,0,0,-1,1952,309,0,0
735,715,0,0,0,0,0,0,0,0,0,-1,1959,309,0,0
742,715,0,0,0,0,0,0,0,0,0,-1,1966,309,0,0
749,715,0,0,0,0,0,0,0,0,0,-1,1973,309,0,0
756,715,0,0,0,0,0,0,0,0,0,-1,1980,309,0,0
763,715,0,0,0,0,0,0,0,0,0,-1,1987,309,0,0
770,715,0,0,0,0,0,0,0,0,0,-1,1994,309,0,0
777,715,0,0,0,0,0,0,0,0,0,-1,2001,309,0,0
784,715,0,0,0,0,0,0,0,0,0,-1,2008,309,0,0
791,715,0,0,0,0,0,0,0,0,0,-1,2015,309,0,0
798,715,0,0,0,0,0,0,0,0,0,-1,2022,309,0,0
805,715,0,0,0,0,0,0,0,0,0,-1,2029,309,0,0
812,715,0,0,0,0,0,0,0,0,0,-1,2036,309,0,0
-700,708,0,0,0,0,0,0,0,0,0,-1,524,316,0,0
-693,708,0,0,0,0,0,0,0,0,0,-1,531,316,0,0
-686,708,0,0,0,0,0,0,0,0,0,-1,538,316,0,0
-679,708,0,0,0,0,0,0,0,0,0,-1,545,316,0,0
-672,708,0,0,0,0,0,0,0,0,0,-1,552,316,0,0
-665,708,0,0,0,0,0,0,0,0,0,-1,559,316,0,0
-658,708,0,0,0,0,0,0,0,0,0,-1,566,316,0,0
-651,708,0,0,0,0,0,0,0,0,0,-1,573,316,0,0
-644,708,0,0,0,0,0,0,0,0,0,-1,580,316,0,0
-637,708,0,0,0,0,0,0,0,0,0,-1,587,316,0,0
-630,708,0,0,0,0,0,0,0,0,0,-1,594,316,0,0
-623,708,0,0,0,0,0,0,0,0,0,-1,601,316,0,0
-616,708,0,0,0,0,0,0,0,0,0,-1,608,316,0,0
-609,708,0,0,0,0,0,0,0,0,0,-1,615,316,0,0
-602,708,0,0,0,0,0,0,0,0,0,-1,622,316,0,0
-595,708,0,0,0,0,0,0,0,0,0,-1,629,316,0,0
-588,708,0,0,0,0,0,0,0,0,0,-1,636,316,0,0
-581,708,0,0,0,0,0,0,0,0,0,-1,643,316,0,0
-574,708,0,0,0,0,0,0,0,0,0,-1,650,316,0,0
-567,708,0,0,0,0,0,0,0,0,0,-1,657,316,0,0
-560,708,0,0,0,0,0,0,0,0,0,-1,664,316,0,0
-553,708,0,0,0,0,0,0,0,0,0,-1,671,316,0,0
-546,708,0,0,0,0,0,0,0,0,0,-1,678,316,0,0
-539,708,0,0,0,0,0,0,0,0,0,-1,685,316,0,0
-532,708,0,0,0,0,0,0,0,0,0,-1,692,316,0,0
-525,708,0,0,0,0,0,0,0,0,0,-1,699,316,0,0
-518,708,0,0,0,0,0,0,0,0,0,-1,706,316,0,0
-511,708,0,0,0,0,0,0,0,0,0,-1,713,316,0,0
-504,708,0,0,0,0,0,0,0,0,0,-1,720,316,0,0
-497,708,0,0,0,0,0,0,0,0,0,-1,727,316,0,0
-490,708,0,0,0,0,0,0,0,0,0,-1,734,316,0,0
-483,708,0,0,0,0,0,0,0,0,0,-1,741,316,0,0
-476,708,0,0,0,0,0,0,0,0,0,-1,748,316,0,0
-469,708,0,0,0,0,0,0,0,0,0,-1,755,316,0,0
-462,708,0,0,0,0,0,0,0,0,0,-1,762,316,0,0
-455,708,0,0,0,0,0,0,0,0,0,-1,769,316,0,0
-448,708,0,0,0,0,0,0,0,0,0,-1,776,316,0,0
-441,708,0,0,0,0,0,0,0,0,0,-1,783,316,0,0
-434,708,0,0,0,0,0,0,0,0,0,-1,790,316,0,0
-427,708,0,0,0,0,0,0,0,0,0,-1,797,316,0,0
-420,708,0,0,0,0,0,0,0,0,0,-1,804,316,0,0
-413,708,0,0,0,0,0,0,0,0,0,-1,811,316,0,0
-406,708,0,0,0,0,0,0,0,0,0,-1,818,316,0,0
-399,708,0,0,0,0,0,0,0,0,0,-1,825,316,0,0
-392,708,0,0,0,0,0,0,0,0,0,-1,832,316,0,0
-385,708,0,0,0,0,0,0,0,0,0,-1,839,316,0,0
-378,708,0,0,0,0,0,0,0,0,0,-1,846,316,0,0
-371,708,0,0,0,0,0,0,0,0,0,-1,853,316,0,0
-364,708,0,0,0,0,0,0,0,0,0,-1,860,316,0,0
-357,708,0,0,0,0,0,0,0,0,0,-1,867,316,0,0
-350,708,0,0,0,0,0,0,0,0,0,-1,874,316,0,0
-343,708,0,0,0,0,0,0,0,0,0,-1,881,316,0,0
-336,708,0,0,0,0,0,0,0,0,0,-1,888,316,0,0
-329,708,0,0,0,0,0,0,0,0,0,-1,895,316,0,0
-322,708,0,0,0,0,0,0,0,0,0,-1,902,316,0,0
-315,708,0,0,0,0,0,0,0,0,0,-1,909,316,0,0
-308,708,0,0,0,0,0,0,0,0,0,-1,916,316,0,0
-301,708,0,0,0,0,0,0,0,0,0,-1,923,316,0,0
-294,708,0,0,0,0,0,0,0,0,0,-1,930,316,0,0
-287,708,0,0,0,0,0,0,0,0,0,-1,937,316,0,0
-280,708,0,0,0,0,0,0,0,0,0,-1,944,316,0,0
-273,708,0,0,0,0,0,0,0,0,0,-1,951,316,0,0
-266,708,0,0,0,0,0,0,0,0,0,-1,958,316,0,0
-259,708,0,0,0,0,0,0,0,0,0,-1,965,316,0,0
-252,708,0,0,0,0,0,0,0,0,0,-1,972,316,0,0
-245,708,0,0,0,0,0,0,0,0,0,-1,979,316,0,0
-238,708,0,0,0,0,0,0,0,0,0,-1,986,316,0,0
-231,708,0,0,0,0,0,0,0,0,0,-1,993,316,0,0
-224,708,0,0,0,0,0,0,0,0,0,-1,1000,316,0,0
-217,708,0,0,0,0,0,0,0,0,0,-1,1007,316,0,0
-210,708,0,0,0,0,0,0,0,0,0,-1,1014,316,0,0
-203,708,0,0,0,0,0,0,0,0,0,-1,1021,316,0,0
-196,708,0,0,0,0,0,0,0,0,0,-1,1028,316,0,0
-189,708,0,0,0,0,0,0,0,0,0,-1,1035,316,0,0
-182,708,0,0,0,0,0,0,0,0,0,-1,1042,316,0,0
-175,708,0,0,0,0,0,0,0,0,0,-1,1049,316,0,0
-168,708,0,0,0,0,0,0,0,0,0,-1,1056,316,0,0
-161,708,0,0,0,0,0,0,0,0,0,-1,1063,316,0,0
-154,708,0,0,0,0,0,0,0,0,0,-1,1070,316,0,0
-147,708,0,0,0,0,0,0,0,0,0,-1,1077,316,0,0
-140,708,0,0,0,0,0,0,0,0,0,-1,1084,316,0,0
-133,708,0,0,0,0,0,0,0,0,0,-1,1091,316,0,0
-126,708,0,0,0,0,0,0,0,0,0,-1,1098,316,0,0
-119,708,0,0,0,0,0,0,0,0,0,-1,1105,316,0,0
-112,708,0,0,0,0,0,0,0,0,0,-1,1112,316,0,0
-105,708,0,0,0,0,0,0,0,0,0,-1,1119,316,0,0
-98,708,0,0,0,0,0,0,0,0,0,-1,1126,316,0,0
-91,708,0,0,0,0,0,0,0,0,0,-1,1133,316,0,0
-84,708,0,0,0,0,0,0,0,0,0,-1,1140,316,0,0
-77,708,0,0,0,0,0,0,0,0,0,-1,1147,316,0,0
-70,708,0,0,0,0,0,0,0,0,0,-1,1154,316,0,0
-63,708,0,0,0,0,0,0,0,0,0,-1,1161,316,0,0
-56,708,0,0,0,0,0,0,0,0,0,-1,1168,316,0,0
-49,708,0,0,0,0,0,0,0,0,0,-1,1175,316,0,0
-42,708,0,0,0,0,0,0,0,0,0,-1,1182,316,0,0
-35,708,-2.71204,-6.31558,0,0,0,0,0,0,0,-1,1189,316,-2.712,6.3156
-28,708,-2.92371,-5.53253,0,0,0,0,0,0,0,-1,1196,316,-2.92375,5.53254
-21,708,-0.417969,-24.5911,0,0,0,0,0,0,0,-1,1203,316,-0.418022,24.5911
-14,708,6.07666,-42.6233,0,0,0,0,0,0,0,-1,1210,316,6.0767,42.6233
-7,708,6.28638,-42.5939,0,0,0,0,0,0,0,-1,1217,316,6.28634,42.5939
0,708,6.49597,-42.5645,0,0,0,0,0,0,0,-1,1224,316,6.49598,42.5645
7,708,6.69495,-44.24,0.0299389,0.0391915,-0.0295857,0.0645104,0.00461999,-0.862956,0.0415526,0.0463044,1231,316,6.6949,44.2399
14,708,6.92139,-44.972,0.0155373,0.0295964,-0.0287978,0.0522102,-0.00707647,-0.905108,0.0373895,0.0454092,1238,316,6.92137,44.972
21,708,7.27881,-45.6591,-0.000253127,0.0220039,-0.028667,0.0416267,-0.0198759,-0.970544,0.0362412,0.0452437,1245,316,7.27881,45.659
28,708,7.34851,-45.8299,0,0,0,0,0,0,0,-1,1252,316,7.34855,45.8299
35,708,7.07373,-45.9423,-0.0366652,0.013356,-0.0282515,0.0260771,-0.0493862,-1.14771,0.0442561,0.0442776,1259,316,7.0737,45.9423
42,708,6.53308,-45.8651,-0.0537519,0.0155965,-0.0250798,0.023716,-0.0618713,-1.2577,0.0510244,0.0446102,1266,316,6.53307,45.865
49,708,5.69556,-45.756,-0.0699667,0.0224788,-0.0185082,0.0260466,-0.0735345,-1.38036,0.0596325,0.0443444,1273,316,5.69553,45.7561
56,708,4.91052,-45.7772,-0.0850332,0.0357142,-0.00896629,0.0363763,-0.0856953,-1.49708,0.0723701,0.0436054,1280,316,4.91047,45.7772
63,708,4.13879,-45.8405,-0.0984474,0.0506023,0.00174369,0.0506227,-0.0984678,1.5591,0.0875424,0.044175,1287,316,4.13885,45.8405
70,708,3.40076,-45.8705,0,0,0,0,0,0,0,-1,1294,316,3.40072,45.8705
77,708,2.82349,-45.9172,0,0,0,0,0,0,0,-1,1301,316,2.82352,45.9172
84,708,1.94116,-46.4235,0,0,0,0,0,0,0,-1,1308,316,1.9412,46.4235
91,708,2.25574,-45.884,-0.126859,0.126893,0.0555807,0.138533,-0.1385,1.36435,0.159945,0.0457889,1315,316,2.25579,45.884
98,708,1.71667,-45.9014,-0.130628,0.141886,0.0658982,0.156984,-0.145726,1.34556,0.17481,0.0456073,1322,316,1.71668,45.9014
105,708,0.487061,-45.2575,-0.132386,0.155154,0.0770566,0.174502,-0.151734,1.32479,0.188505,0.0481242,1329,316,0.48708,45.2575
112,708,-0.915039,-45.0612,-0.133456,0.165878,0.0853169,0.188487,-0.156065,1.31174,0.199221,0.0452241,1336,316,-0.915,45.0612
119,708,-2.13843,-45.1147,0,0,0,0,0,0,0,-1,1343,316,-2.13839,45.1147
126,708,-1.28271,-44.1097,0,0,0,0,0,0,0,-1,1350,316,-1.28272,44.1097
133,708,-1.47278,-43.6789,0,0,0,0,0,0,0,-1,1357,316,-1.47276,43.6789
140,708,-2.09204,-43.9983,0,0,0,0,0,0,0,-1,1364,316,-2.09204,43.9983
147,708,-2.97681,-43.7973,0,0,0,0,0,0,0,-1,1371,316,-2.97683,43.7973
154,708,0,0,0,0,0,0,0,0,0,-1,1378,316,0,0
161,708,0,0,0,0,0,0,0,0,0,-1,1385,316,0,0
168,708,0,0,0,0,0,0,0,0,0,-1,1392,316,0,0
175,708,0,0,0,0,0,0,0,0,0,-1,1399,316,0,0
182,708,0,0,0,0,0,0,0,0,0,-1,1406,316,0,0
189,708,0,0,0,0,0,0,0,0,0,-1,1413,316,0,0
196,708,0,0,0,0,0,0,0,0,0,-1,1420,316,0,0
203,708,0,0,0,0,0,0,0,0,0,-1,1427,316,0,0
210,708,0,0,0,0,0,0,0,0,0,-1,1434,316,0,0
217,708,0,0,0,0,0,0,0,0,0,-1,1441,316,0,0
224,708,0,0,0,0,0,0,0,0,0,-1,1448,316,0,0
231,708,0,0,0,0,0,0,0,0,0,-1,1455,316,0,0
238,708,0,0,0,0,0,0,0,0,0,-1,1462,316,0,0
245,708,0,0,0,0,0,0,0,0,0,-1,1469,316,0,0
252,708,0,0,0,0,0,0,0,0,0,-1,1476,316,0,0
259,708,0,0,0,0,0,0,0,0,0,-1,1483,316,0,0
266,708,0,0,0,0,0,0,0,0,0,-1,1490,316,0,0
273,708,0,0,0,0,0,0,0,0,0,-1,1497,316,0,0
280,708,0,0,0,0,0,0,0,0,0,-1,1504,316,0,0
287,708,0,0,0,0,0,0,0,0,0,-1,1511,316,0,0
294,708,0,0,0,0,0,0,0,0,0,-1,1518,316,0,0
301,708,0,0,0,0,0,0,0,0,0,-1,1525,316,0,0
308,708,0,0,0,0,0,0,0,0,0,-1,1532,316,0,0
315,708,0,0,0,0,0,0,0,0,0,-1,1539,316,0,0
322,708,0,0,0,0,0,0,0,0,0,-1,1546,316,0,0
329,708,0,0,0,0,0,0,0,0,0,-1,1553,316,0,0
336,708,0,0,0,0,0,0,0,0,0,-1,1560,316,0,0
343,708,0,0,0,0,0,0,0,0,0,-1,1567,316,0,0
350,708,0,0,0,0,0,0,0,0,0,-1,1574,316,0,0
357,708,0,0,0,0,0,0,0,0,0,-1,1581,316,0,0
364,708,0,0,0,0,0,0,0,0,0,-1,1588,316,0,0
371,708,0,0,0,0,0,0,0,0,0,-1,1595,316,0,0
378,708,0,0,0,0,0,0,0,0,0,-1,1602,316,0,0
385,708,0,0,0,0,0,0,0,0,0,-1,1609,316,0,0
392,708,0,0,0,0,0,0,0,0,0,-1,1616,316,0,0
399,708,0,0,0,0,0,0,0,0,0,-1,1623,316,0,0
406,708,0,0,0,0,0,0,0,0,0,-1,1630,316,0,0
413,708,0,0,0,0,0,0,0,0,0,-1,1637,316,0,0
420,708,0,0,0,0,0,0,0,0,0,-1,1644,316,0,0
427,708,0,0,0,0,0,0,0,0,0,-1,1651,316,0,0
434,708,0,0,0,0,0,0,0,0,0,-1,1658,316,0,0
441,708,0,0,0,0,0,0,0,0,0,-1,1665,316,0,0
448,708,0,0,0,0,0,0,0,0,0,-1,1672,316,0,0
455,708,0,0,0,0,0,0,0,0,0,-1,1679,316,0,0
462,708,0,0,0,0,0,0,0,0,0,-1,1686,316,0,0
469,708,0,0,0,0,0,0,0,0,0,-1,1693,316,0,0
476,708,0,0,0,0,0,0,0,0,0,-1,1700,316,0,0
483,708,0,0,0,0,0,0,0,0,0,-1,1707,316,0,0
490,708,0,0,0,0,0,0,0,0,0,-1,1714,316,0,0
497,708,0,0,0,0,0,0,0,0,0,-1,1721,316,0,0
504,708,0,0,0,0,0,0,0,0,0,-1,1728,316,0,0
511,708,0,0,0,0,0,0,0,0,0,-1,1735,316,0,0
518,708,0,0,0,0,0,0,0,0,0,-1,1742,316,0,0
525,708,0,0,0,0,0,0,0,0,0,-1,1749,316,0,0
532,708,0,0,0,0,0,0,0,0,0,-1,1756,316,0,0
539,708,0,0,0,0,0,0,0,0,0,-1,1763,316,0,0
546,708,0,0,0,0,0,0,0,0,0,-1,1770,316,0,0
553,708,0,0,0,0,0,0,0,0,0,-1,1777,316,0,0
560,708,0,0,0,0,0,0,0,0,0,-1,1784,316,0,0
567,708,0,0,0,0,0,0,0,0,0,-1,1791,316,0,0
574,708,0,0,0,0,0,0,0,0,0,-1,1798,316,0,0
581,708,0,0,0,0,0,0,0,0,0,-1,1805,316,0,0
588,708,0,0,0,0,0,0,0,0,0,-1,1812,316,0,0
595,708,0,0,0,0,0,0,0,0,0,-1,1819,316,0,0
602,708,0,0,0,0,0,0,0,0,0,-1,1826,316,0,0
609,708,0,0,0,0,0,0,0,0,0,-1,1833,316,0,0
616,708,0,0,0,0,0,0,0,0,0,-1,1840,316,0,0
623,708,0,0,0,0,0,0,0,0,0,-1,1847,316,0,0
630,708,0,0,0,0,0,0,0,0,0,-1,1854,316,0,0
637,708,0,0,0,0,0,0,0,0,0,-1,1861,316,0,0
644,708,0,0,0,0,0,0,0,0,0,-1,1868,316,0,0
651,708,0,0,0,0,0,0,0,0,0,-1,1875,316,0,0
658,708,0,0,0,0,0,0,0,0,0,-1,1882,316,0,0
665,708,0,0,0,0,0,0,0,0,0,-1,1889,316,0,0
672,708,0,0,0,0,0,0,0,0,0,-1,1896,316,0,0
679,708,0,0,0,0,0,0,0,0,0,-1,1903,316,0,0
686,708,0,0,0,0,0,0,0,0,0,-1,1910,316,0,0
693,708,0,0,0,0,0,0,0,0,0,-1,1917,316,0,0
700,708,0,0,0,0,0,0,0,0,0,-1,1924,316,0,0
707,708,0,0,0,0,0,0,0,0,0,-1,1931,316,0,0
714,708,0,0,0,0,0,0,0,0,0,-1,1938,316,0,0
721,708,0,0,0,0,0,0,0,0,0,-1,1945,316,0,0
728,708,0,0,0,0,0,0,0,0,0,-1,1952,316,0,0
735,708,0,0,0,0,0,0,0,0,0,-1,1959,316,0,0
742,708,0,0,0,0,0,0,0,0,0,-1,1966,316,0,0
749,708,0,0,0,0,0,0,0,0,0,-1,1973,316,0,0
756,708,0,0,0,0,0,0,0,0,0,-1,1980,316,0,0
763,708,0,0,0,0,0,0,0,0,0,-1,1987,316,0,0
770,708,0,0,0,0,0,0,0,0,0,-1,1994,316,0,0
777,708,0,0,0,0,0,0,0,0,0,-1,2001,316,0,0
784,708,0,0,0,0,0,0,0,0,0,-1,2008,316,0,0
791,708,0,0,0,0,0,0,0,0,0,-1,2015,316,0,0
798,708,0,0,0,0,0,0,0,0,0,-1,2022,316,0,0
805,708,0,0,0,0,0,0,0,0,0,-1,2029,316,0,0
812,708,0,0,0,0,0,0,0,0,0,-1,2036,316,0,0
-700,701,0,0,0,0,0,0,0,0,0,-1,524,323,0,0
-693,701,0,0,0,0,0,0,0,0,0,-1,531,323,0,0
-686,701,0,0,0,0,0,0,0,0,0,-1,538,323,0,0
-679,701,0,0,0,0,0,0,0,0,0,-1,545,323,0,0
-672,701,0,0,0,0,0,0,0,0,0,-1,552,323,0,0
-665,701,0,0,0,0,0,0,0,0,0,-1,559,323,0,0
-658,701,0,0,0,0,0,0,0,0,0,-1,566,323,0,0
-651,701,0,0,0,0,0,0,0,0,0,-1,573,323,0,0
-644,701,0,0,0,0,0,0,0,0,0,-1,580,323,0,0
-637,701,0,0,0,0,0,0,0,0,0,-1,587,323,0,0
-630,701,0,0,0,0,0,0,0,0,0,-1,594,323,0,0
-623,701,0,0,0,0,0,0,0,0,0,-1,601,323,0,0
-616,701,0,0,0,0,0,0,0,0,0,-1,608,323,0,0
-609,701,0,0,0,0,0,0,0,0,0,-1,615,323,0,0
-602,701,0,0,0,0,0,0,0,0,0,-1,622,323,0,0
-595,701,0,0,0,0,0,0,0,0,0,-1,629,323,0,0
-588,701,0,0,0,0,0,0,0,0,0,-1,636,323,0,0
-581,701,0,0,0,0,0,0,0,0,0,-1,643,323,0,0
-574,701,0,0,0,0,0,0,0,0,0,-1,650,323,0,0
-567,701,0,0,0,0,0,0,0,0,0,-1,657,323,0,0
-560,701,0,0,0,0,0,0,0,0,0,-1,664,323,0,0
-553,701,0,0,0,0,0,0,0,0,0,-1,671,323,0,0
-546,701,0,0,0,0,0,0,0,0,0,-1,678,323,0,0
-539,701,0,0,0,0,0,0,0,0,0,-1,685,323,0,0
-532,701,0,0,0,0,0,0,0,0,0,-1,692,323,0,0
-525,701,0,0,0,0,0,0,0,0,0,-1,699,323,0,0
-518,701,0,0,0,0,0,0,0,0,0,-1,706,323,0,0
-511,701,0,0,0,0,0,0,0,0,0,-1,713,323,0,0
-504,701,0,0,0,0,0,0,0,0,0,-1,720,323,0,0
-497,701,0,0,0,0,0,0,0,0,0,-1,727,323,0,0
-490,701,0,0,0,0,0,0,0,0,0,-1,734,323,0,0
-483,701,0,0,0,0,0,0,0,0,0,-1,741,323,0,0
-476,701,0,0,0,0,0,0,0,0,0,-1,748,323,0,0
-469,701,0,0,0,0,0,0,0,0,0,-1,755,323,0,0
-462,701,0,0,0,0,0,0,0,0,0,-1,762,323,0,0
-455,701,0,0,0,0,0,0,0,0,0,-1,769,323,0,0
-448,701,0,0,0,0,0,0,0,0,0,-1,776,323,0,0
-441,701,0,0,0,0,0,0,0,0,0,-1,783,323,0,0
-434,701,0,0,0,0,0,0,0,0,0,-1,790,323,0,0
-427,701,0,0,0,0,0,0,0,0,0,-1,797,323,0,0
-420,701,0,0,0,0,0,0,0,0,0,-1,804,323,0,0
-413,701,0,0,0,0,0,0,0,0,0,-1,811,323,0,0
-406,701,0,0,0,0,0,0,0,0,0,-1,818,323,0,0
-399,701,0,0,0,0,0,0,0,0,0,-1,825,323,0,0
-392,701,0,0,0,0,0,0,0,0,0,-1,832,323,0,0
-385,701,0,0,0,0,0,0,0,0,0,-1,839,323,0,0
-378,701,0,0,0,0,0,0,0,0,0,-1,846,323,0,0
-371,701,0,0,0,0,0,0,0,0,0,-1,853,323,0,0
-364,701,0,0,0,0,0,0,0,0,0,-1,860,323,0,0
-357,701,0,0,0,0,0,0,0,0,0,-1,867,323,0,0
-350,701,0,0,0,0,0,0,0,0,0,-1,874,323,0,0
-343,701,0,0,0,0,0,0,0,0,0,-1,881,323,0,0
-336,701,0,0,0,0,0,0,0,0,0,-1,888,323,0,0
-329,701,0,0,0,0,0,0,0,0,0,-1,895,323,0,0
-322,701,0,0,0,0,0,0,0,0,0,-1,902,323,0,0
-315,701,0,0,0,0,0,0,0,0,0,-1,909,323,0,0
-308,701,0,0,0,0,0,0,0,0,0,-1,916,323,0,0
-301,701,0,0,0,0,0,0,0,0,0,-1,923,323,0,0
-294,701,0,0,0,0,0,0,0,0,0,-1,930,323,0,0
-287,701,0,0,0,0,0,0,0,0,0,-1,937,323,0,0
-280,701,0,0,0,0,0,0,0,0,0,-1,944,323,0,0
-273,701,0,0,0,0,0,0,0,0,0,-1,951,323,0,0
-266,701,0,0,0,0,0,0,0,0,0,-1,958,323,0,0
-259,701,0,0,0,0,0,0,0,0,0,-1,965,323,0,0
-252,701,0,0,0,0,0,0,0,0,0,-1,972,323,0,0
-245,701,0,0,0,0,0,0,0,0,0,-1,979,323,0,0
-238,701,0,0,0,0,0,0,0,0,0,-1,986,323,0,0
-231,701,0,0,0,0,0,0,0,0,0,-1,993,323,0,0
-224,701,0,0,0,0,0,0,0,0,0,-1,1000,323,0,0
-217,701,0,0,0,0,0,0,0,0,0,-1,1007,323,0,0
-210,701,0,0,0,0,0,0,0,0,0,-1,1014,323,0,0
-203,701,0,0,0,0,0,0,0,0,0,-1,1021,323,0,0
-196,701,0,0,0,0,0,0,0,0,0,-1,1028,323,0,0
-189,701,0,0,0,0,0,0,0,0,0,-1,1035,323,0,0
-182,701,0,0,0,0,0,0,0,0,0,-1,1042,323,0,0
-175,701,0,0,0,0,0,0,0,0,0,-1,1049,323,0,0
-168,701,0,0,0,0,0,0,0,0,0,-1,1056,323,0,0
-161,701,0,0,0,0,0,0,0,0,0,-1,1063,323,0,0
-154,701,0,0,0,0,0,0,0,0,0,-1,1070,323,0,0
-147,701,0,0,0,0,0,0,0,0,0,-1,1077,323,0,0
-140,701,0,0,0,0,0,0,0,0,0,-1,1084,323,0,0
-133,701,0,0,0,0,0,0,0,0,0,-1,1091,323,0,0
-126,701,0,0,0,0,0,0,0,0,0,-1,1098,323,0,0
-119,701,0,0,0,0,0,0,0,0,0,-1,1105,323,0,0
-112,701,0,0,0,0,0,0,0,0,0,-1,1112,323,0,0
-105,701,0,0,0,0,0,0,0,0,0,-1,1119,323,0,0
-98,701,0,0,0,0,0,0,0,0,0,-1,1126,323,0,0
-91,701,0,0,0,0,0,0,0,0,0,-1,1133,323,0,0
-84,701,0,0,0,0,0,0,0,0,0,-1,1140,323,0,0
-77,701,0,0,0,0,0,0,0,0,0,-1,1147,323,0,0
-70,701,-12.7566,-30.413,0,0,0,0,0,0,0,-1,1154,323,-12.7566,30.413
-63,701,-18.3169,-21.2322,0,0,0,0,0,0,0,-1,1161,323,-18.3169,21.2322
-56,701,-0.420166,-0.101776,0,0,0,0,0,0,0,-1,1168,323,-0.420119,0.101777
-49,701,-1.09021,-0.155762,0,0,0,0,0,0,0,-1,1175,323,-1.09024,0.155768
-42,701,-0.210327,-0.299133,0,0,0,0,0,0,0,-1,1182,323,-0.210379,0.29914
-35,701,-2.9635,-7.98676,0,0,0,0,0,0,0,-1,1189,323,-2.9635,7.98676
-28,701,-6.64417,-5.4917,0,0,0,0,0,0,0,-1,1196,323,-6.64411,5.4917
-21,701,5.79614,-42.1316,0,0,0,0,0,0,0,-1,1203,323,5.7961,42.1316
-14,701,6.41809,-43.4722,0,0,0,0,0,0,0,-1,1210,323,6.41815,43.4722
-7,701,6.53088,-43.4614,0,0,0,0,0,0,0,-1,1217,323,6.53092,43.4614
0,701,6.69617,-43.4855,0,0,0,0,0,0,0,-1,1224,323,6.69612,43.4855
7,701,6.40027,-44.6061,0.0226076,0.0422808,-0.0257934,0.0600496,0.00483873,-0.967566,0.0385216,0.0430249,1231,323,6.40022,44.6061
14,701,6.77429,-45.333,0.0115269,0.034278,-0.0256015,0.0509174,-0.00511254,-0.994462,0.0357711,0.0483644,1238,323,6.77431,45.333
21,701,7.29065,-45.4797,-0.000822761,0.0281221,-0.0259865,0.0433945,-0.0160951,-1.03947,0.0355313,0.0494064,1245,323,7.29066,45.4797
28,701,7.49255,-45.8448,0,0,0,0,0,0,0,-1,1252,323,7.49255,45.8448
35,701,7.02295,-45.6443,-0.0295476,0.0211061,-0.0266099,0.0325153,-0.0409568,-1.16575,0.0425123,0.044626,1259,323,7.02293,45.6443
42,701,6.6593,-45.8326,-0.0433797,0.0224026,-0.0245065,0.0305285,-0.0515055,-1.25062,0.0478757,0.045956,1266,323,6.65935,45.8326
49,701,6.43591,-46.1283,-0.0569144,0.0276344,-0.0195527,0.0319372,-0.0612171,-1.35419,0.0546611,0.0461289,1273,323,6.4359,46.1283
56,701,4.65662,-45.8888,-0.0699541,0.0385424,-0.0118984,0.0398319,-0.0712437,-1.46284,0.0649787,0.0435995,1280,323,4.65666,45.8888
63,701,3.89734,-46.0101,-0.0820835,0.0514564,-0.00260575,0.0515073,-0.0821343,-1.55129,0.0778305,0.0444762,1287,323,3.89728,46.0101
70,701,3.11353,-46.2039,-0.0926489,0.0655894,0.00794569,0.0659874,-0.0930468,1.52075,0.0922604,0.0439537,1294,323,3.11357,46.2039
77,701,2.38171,-46.5869,-0.100514,0.0825694,0.0199525,0.0847186,-0.102663,1.46349,0.10835,0.0461437,1301,323,2.38175,46.5869
84,701,1.51294,-46.9695,0,0,0,0,0,0,0,-1,1308,323,1.51292,46.9695
91,701,0.884521,-46.9763,-0.10667,0.114518,0.0434227,0.122738,-0.114889,1.38373,0.137219,0.042471,1315,323,0.884485,46.9763
98,701,0.0782471,-46.6531,-0.109702,0.126853,0.0520947,0.137817,-0.120666,1.36336,0.149345,0.0427882,1322,323,0.0782208,46.6531
105,701,-0.772583,-46.3825,-0.110877,0.137859,0.0614489,0.152212,-0.125229,1.34134,0.160433,0.0469802,1329,323,-0.772532,46.3825
112,701,-1.5802,-46.1084,-0.111282,0.146701,0.06951,0.164237,-0.128818,1.32367,0.169607,0.0463565,1336,323,-1.58024,46.1084
119,701,-2.12,-45.7635,0,0,0,0,0,0,0,-1,1343,323,-2.12001,45.7635
126,701,-2.44482,-45.1119,0,0,0,0,0,0,0,-1,1350,323,-2.44486,45.1119
133,701,-2.83838,-44.6603,-0.111829,0.154588,0.0753638,0.17443,-0.131671,1.31337,0.177301,0.0456306,1357,323,-2.83833,44.6603
140,701,-3.70654,-44.6102,-0.11186,0.147554,0.0705121,0.165481,-0.129787,1.32183,0.170888,0.0493708,1364,323,-3.70656,44.6102
147,701,-4.72754,-44.6108,-0.112773,0.138924,0.0660198,0.155189,-0.129039,1.32923,0.164331,0.0480584,1371,323,-4.72752,44.6108
154,701,-5.64771,-44.5105,0,0,0,0,0,0,0,-1,1378,323,-5.64771,44.5105
161,701,4.09717,-35.8294,0,0,0,0,0,0,0,-1,1385,323,4.09715,35.8294
168,701,30.7272,1.76184,0,0,0,0,0,0,0,-1,1392,323,30.7272,-1.76184
175,701,31.5035,2.25711,0,0,0,0,0,0,0,-1,1399,323,31.5036,-2.25712
182,701,8.80652,5.42807,0,0,0,0,0,0,0,-1,1406,323,8.8065,-5.42808
189,701,8.58081,4.24493,0,0,0,0,0,0,0,-1,1413,323,8.58082,-4.24494
196,701,0,0,0,0,0,0,0,0,0,-1,1420,323,0,0
203,701,0,0,0,0,0,0,0,0,0,-1,1427,323,0,0
210,701,0,0,0,0,0,0,0,0,0,-1,1434,323,0,0
217,701,0,0,0,0,0,0,0,0,0,-1,1441,323,0,0
224,701,0,0,0,0,0,0,0,0,0,-1,1448,323,0,0
231,701,0,0,0,0,0,0,0,0,0,-1,1455,323,0,0
238,701,0,0,0,0,0,0,0,0,0,-1,1462,323,0,0
245,701,0,0,0,0,0,0,0,0,0,-1,1469,323,0,0
252,701,0,0,0,0,0,0,0,0,0,-1,1476,323,0,0
259,701,0,0,0,0,0,0,0,0,0,-1,1483,323,0,0
266,701,0,0,0,0,0,0,0,0,0,-1,1490,323,0,0
273,701,0,0,0,0,0,0,0,0,0,-1,1497,323,0,0
280,701,0,0,0,0,0,0,0,0,0,-1,1504,323,0,0
287,701,0,0,0,0,0,0,0,0,0,-1,1511,323,0,0
294,701,0,0,0,0,0,0,0,0,0,-1,1518,323,0,0
301,701,0,0,0,0,0,0,0,0,0,-1,1525,323,0,0
308,701,0,0,0,0,0,0,0,0,0,-1,1532,323,0,0
315,701,0,0,0,0,0,0,0,0,0,-1,1539,323,0,0
322,701,0,0,0,0,0,0,0,0,0,-1,1546,323,0,0
329,701,0,0,0,0,0,0,0,0,0,-1,1553,323,0,0
336,701,0,0,0,0,0,0,0,0,0,-1,1560,323,0,0
343,701,0,0,0,0,0,0,0,0,0,-1,1567,323,0,0
350,701,0,0,0,0,0,0,0,0,0,-1,1574,323,0,0
357,701,0,0,0,0,0,0,0,0,0,-1,1581,323,0,0
364,701,0,0,0,0,0,0,0,0,0,-1,1588,323,0,0
371,701,0,0,0,0,0,0,0,0,0,-1,1595,323,0,0
378,701,0,0,0,0,0,0,0,0,0,-1,1602,323,0,0
385,701,0,0,0,0,0,0,0,0,0,-1,1609,323,0,0
392,701,0,0,0,0,0,0,0,0,0,-1,1616,323,0,0
399,701,0,0,0,0,0,0,0,0,0,-1,1623,323,0,0
406,701,0,0,0,0,0,0,0,0,0,-1,1630,323,0,0
413,701,0,0,0,0,0,0,0,0,0,-1,1637,323,0,0
420,701,0,0,0,0,0,0,0,0,0,-1,1644,323,0,0
427,701,0,0,0,0,0,0,0,0,0,-1,1651,323,0,0
434,701,0,0,0,0,0,0,0,0,0,-1,1658,323,0,0
441,701,0,0,0,0,0,0,0,0,0,-1,1665,323,0,0
448,701,0,0,0,0,0,0,0,0,0,-1,1672,323,0,0
455,701,0,0,0,0,0,0,0,0,0,-1,1679,323,0,0
462,701,0,0,0,0,0,0,0,0,0,-1,1686,323,0,0
469,701,0,0,0,0,0,0,0,0,0,-1,1693,323,0,0
476,701,0,0,0,0,0,0,0,0,0,-1,1700,323,0,0
483,701,0,0,0,0,0,0,0,0,0,-1,1707,323,0,0
490,701,0,0,0,0,0,0,0,0,0,-1,1714,323,0,0
497,701,0,0,0,0,0,0,0,0,0,-1,1721,323,0,0
504,701,0,0,0,0,0,0,0,0,0,-1,1728,323,0,0
511,701,0,0,0,0,0,0,0,0,0,-1,1735,323,0,0
518,701,0,0,0,0,0,0,0,0,0,-1,1742,323,0,0
525,701,0,0,0,0,0,0,0,0,0,-1,1749,323,0,0
532,701,0,0,0,0,0,0,0,0,0,-1,1756,323,0,0
539,701,0,0,0,0,0,0,0,0,0,-1,1763,323,0,0
546,701,0,0,0,0,0,0,0,0,0,-1,1770,323,0,0
553,701,0,0,0,0,0,0,0,0,0,-1,1777,323,0,0
560,701,0,0,0,0,0,0,0,0,0,-1,1784,323,0,0
567,701,0,0,0,0,0,0,0,0,0,-1,1791,323,0,0
574,701,0,0,0,0,0,0,0,0,0,-1,1798,323,0,0
581,701,0,0,0,0,0,0,0,0,0,-1,1805,323,0,0
588,701,0,0,0,0,0,0,0,0,0,-1,1812,323,0,0
595,701,0,0,0,0,0,0,0,0,0,-1,1819,323,0,0
602,701,0,0,0,0,0,0,0,0,0,-1,1826,323,0,0
609,701,0,0,0,0,0,0,0,0,0,-1,1833,323,0,0
616,701,0,0,0,0,0,0,0,0,0,-1,1840,323,0,0
623,701,0,0,0,0,0,0,0,0,0,-1,1847,323,0,0
630,701,0,0,0,0,0,0,0,0,0,-1,1854,323,0,0
637,701,0,0,0,0,0,0,0,0,0,-1,1861,323,0,0
644,701,0,0,0,0,0,0,0,0,0,-1,1868,323,0,0
651,701,0,0,0,0,0,0,0,0,0,-1,1875,323,0,0
658,701,0,0,0,0,0,0,0,0,0,-1,1882,323,0,0
665,701,0,0,0,0,0,0,0,0,0,-1,1889,323,0,0
672,701,0,0,0,0,0,0,0,0,0,-1,1896,323,0,0
679,701,0,0,0,0,0,0,0,0,0,-1,1903,323,0,0
686,701,0,0,0,0,0,0,0,0,0,-1,1910,323,0,0
693,701,0,0,0,0,0,0,0,0,0,-1,1917,323,0,0
700,701,0,0,0,0,0,0,0,0,0,-1,1924,323,0,0
707,701,0,0,0,0,0,0,0,0,0,-1,1931,323,0,0
714,701,0,0,0,0,0,0,0,0,0,-1,1938,323,0,0
721,701,0,0,0,0,0,0,0,0,0,-1,1945,323,0,0
728,701,0,0,0,0,0,0,0,0,0,-1,1952,323,0,0
735,701,0,0,0,0,0,0,0,0,0,-1,1959,323,0,0
742,701,0,0,0,0,0,0,0,0,0,-1,1966,323,0,0
749,701,0,0,0,0,0,0,0,0,0,-1,1973,323,0,0
756,701,0,0,0,0,0,0,0,0,0,-1,1980,323,0,0
763,701,0,0,0,0,0,0,0,0,0,-1,1987,323,0,0
770,701,0,0,0,0,0,0,0,0,0,-1,1994,323,0,0
777,701,0,0,0,0,0,0,0,0,0,-1,2001,323,0,0
784,701,0,0,0,0,0,0,0,0,0,-1,2008,323,0,0
791,701,0,0,0,0,0,0,0,0,0,-1,2015,323,0,0
798,701,0,0,0,0,0,0,0,0,0,-1,2022,323,0,0
805,701,0,0,0,0,0,0,0,0,0,-1,2029,323,0,0
812,701,0,0,0,0,0,0,0,0,0,-1,2036,323,0,0
-700,694,0,0,0,0,0,0,0,0,0,-1,524,330,0,0
-693,694,0,0,0,0,0,0,0,0,0,-1,531,330,0,0
-686,694,0,0,0,0,0,0,0,0,0,-1,538,330,0,0
-679,694,0,0,0,0,0,0,0,0,0,-1,545,330,0,0
-672,694,0,0,0,0,0,0,0,0,0,-1,552,330,0,0
-665,694,0,0,0,0,0,0,0,0,0,-1,559,330,0,0
-658,694,0,0,0,0,0,0,0,0,0,-1,566,330,0,0
-651,694,0,0,0,0,0,0,0,0,0,-1,573,330,0,0
-644,694,0,0,0,0,0,0,0,0,0,-1,580,330,0,0
-637,694,0,0,0,0,0,0,0,0,0,-1,587,330,0,0
-630,694,0,0,0,0,0,0,0,0,0,-1,594,330,0,0
-623,694,0,0,0,0,0,0,0,0,0,-1,601,330,0,0
-616,694,0,0,0,0,0,0,0,0,0,-1,608,330,0,0
-609,694,0,0,0,0,0,0,0,0,0,-1,615,330,0,0
-602,694,0,0,0,0,0,0,0,0,0,-1,622,330,0,0
-595,694,0,0,0,0,0,0,0,0,0,-1,629,330,0,0
-588,694,0,0,0,0,0,0,0,0,0,-1,636,330,0,0
-581,694,0,0,0,0,0,0,0,0,0,-1,643,330,0,0
-574,694,0,0,0,0,0,0,0,0,0,-1,650,330,0,0
-567,694,0,0,0,0,0,0,0,0,0,-1,657,330,0,0
-560,694,0,0,0,0,0,0,0,0,0,-1,664,330,0,0
-553,694,0,0,0,0,0,0,0,0,0,-1,671,330,0,0
-546,694,0,0,0,0,0,0,0,0,0,-1,678,330,0,0
-539,694,0,0,0,0,0,0,0,0,0,-1,685,330,0,0
-532,694,0,0,0,0,0,0,0,0,0,-1,692,330,0,0
-525,694,0,0,0,0,0,0,0,0,0,-1,699,330,0,0
-518,694,0,0,0,0,0,0,0,0,0,-1,706,330,0,0
-511,694,0,0,0,0,0,0,0,0,0,-1,713,330,0,0
-504,694,0,0,0,0,0,0,0,0,0,-1,720,330,0,0
-497,694,0,0,0,0,0,0,0,0,0,-1,727,330,0,0
-490,694,0,0,0,0,0,0,0,0,0,-1,734,330,0,0
-483,694,0,0,0,0,0,0,0,0,0,-1,741,330,0,0
-476,694,0,0,0,0,0,0,0,0,0,-1,748,330,0,0
-469,694,0,0,0,0,0,0,0,0,0,-1,755,330,0,0
-462,694,0,0,0,0,0,0,0,0,0,-1,762,330,0,0
-455,694,0,0,0,0,0,0,0,0,0,-1,769,330,0,0
-448,694,0,0,0,0,0,0,0,0,0,-1,776,330,0,0
-441,694,0,0,0,0,0,0,0,0,0,-1,783,330,0,0
-434,694,0,0,0,0,0,0,0,0,0,-1,790,330,0,0
-427,694,0,0,0,0,0,0,0,0,0,-1,797,330,0,0
-420,694,0,0,0,0,0,0,0,0,0,-1,804,330,0,0
-413,694,0,0,0,0,0,0,0,0,0,-1,811,330,0,0
-406,694,0,0,0,0,0,0,0,0,0,-1,818,330,0,0
-399,694,0,0,0,0,0,0,0,0,0,-1,825,330,0,0
-392,694,0,0,0,0,0,0,0,0,0,-1,832,330,0,0
-385,694,0,0,0,0,0,0,0,0,0,-1,839,330,0,0
-378,694,0,0,0,0,0,0,0,0,0,-1,846,330,0,0
-371,694,0,0,0,0,0,0,0,0,0,-1,853,330,0,0
-364,694,0,0,0,0,0,0,0,0,0,-1,860,330,0,0
-357,694,0,0,0,0,0,0,0,0,0,-1,867,330,0,0
-350,694,0,0,0,0,0,0,0,0,0,-1,874,330,0,0
-343,694,0,0,0,0,0,0,0,0,0,-1,881,330,0,0
-336,694,0,0,0,0,0,0,0,0,0,-1,888,330,0,0
-329,694,0,0,0,0,0,0,0,0,0,-1,895,330,0,0
-322,694,0,0,0,0,0,0,0,0,0,-1,902,330,0,0
-315,694,0,0,0,0,0,0,0,0,0,-1,909,330,0,0
-308,694,0,0,0,0,0,0,0,0,0,-1,916,330,0,0
-301,694,0,0,0,0,0,0,0,0,0,-1,923,330,0,0
-294,694,0,0,0,0,0,0,0,0,0,-1,930,330,0,0
-287,694,0,0,0,0,0,0,0,0,0,-1,937,330,0,0
-280,694,0,0,0,0,0,0,0,0,0,-1,944,330,0,0
-273,694,0,0,0,0,0,0,0,0,0,-1,951,330,0,0
-266,694,0,0,0,0,0,0,0,0,0,-1,958,330,0,0
-259,694,0,0,0,0,0,0,0,0,0,-1,965,330,0,0
-252,694,0,0,0,0,0,0,0,0,0,-1,972,330,0,0
-245,694,0,0,0,0,0,0,0,0,0,-1,979,330,0,0
-238,694,0,0,0,0,0,0,0,0,0,-1,986,330,0,0
-231,694,0,0,0,0,0,0,0,0,0,-1,993,330,0,0
-224,694,0,0,0,0,0,0,0,0,0,-1,1000,330,0,0
-217,694,0,0,0,0,0,0,0,0,0,-1,1007,330,0,0
-210,694,0,0,0,0,0,0,0,0,0,-1,1014,330,0,0
-203,694,0,0,0,0,0,0,0,0,0,-1,1021,330,0,0
-196,694,0,0,0,0,0,0,0,0,0,-1,1028,330,0,0
-189,694,0,0,0,0,0,0,0,0,0,-1,1035,330,0,0
-182,694,0,0,0,0,0,0,0,0,0,-1,1042,330,0,0
-175,694,0,0,0,0,0,0,0,0,0,-1,1049,330,0,0
-168,694,0,0,0,0,0,0,0,0,0,-1,1056,330,0,0
-161,694,0,0,0,0,0,0,0,0,0,-1,1063,330,0,0
-154,694,0,0,0,0,0,0,0,0,0,-1,1070,330,0,0
-147,694,0,0,0,0,0,0,0,0,0,-1,1077,330,0,0
-140,694,0,0,0,0,0,0,0,0,0,-1,1084,330,0,0
-133,694,0,0,0,0,0,0,0,0,0,-1,1091,330,0,0
-126,694,0,0,0,0,0,0,0,0,0,-1,1098,330,0,0
-119,694,0,0,0,0,0,0,0,0,0,-1,1105,330,0,0
-112,694,0,0,0,0,0,0,0,0,0,-1,1112,330,0,0
-105,694,2.5188,-19.3963,0,0,0,0,0,0,0,-1,1119,330,2.51882,19.3963
-98,694,1.34875,-10.1051,0,0,0,0,0,0,0,-1,1126,330,1.34874,10.1051
-91,694,6.62366,-46.8039,0,0,0,0,0,0,0,-1,1133,330,6.62363,46.8039
-84,694,0.0577393,-40.8823,0,0,0,0,0,0,0,-1,1140,330,0.0577026,40.8823
-77,694,-5.51379,-31.2714,0,0,0,0,0,0,0,-1,1147,330,-5.51383,31.2714
-70,694,-11.9945,-25.5143,0,0,0,0,0,0,0,-1,1154,330,-11.9945,25.5143
-63,694,-18.4752,-19.7572,0,0,0,0,0,0,0,-1,1161,330,-18.4752,19.7572
-56,694,-6.50623,-0.649139,0,0,0,0,0,0,0,-1,1168,330,-6.5062,0.649126
-49,694,-1.11426,0.0341797,0,0,0,0,0,0,0,-1,1175,330,-1.11424,-0.0341846
-42,694,-0.346313,-0.709595,0,0,0,0,0,0,0,-1,1182,330,-0.346298,0.709581
-35,694,-0.459106,-1.24713,0,0,0,0,0,0,0,-1,1189,330,-0.459142,1.24714
-28,694,-6.48413,-3.95972,0,0,0,0,0,0,0,-1,1196,330,-6.48414,3.9597
-21,694,6.37646,-44.0666,0,0,0,0,0,0,0,-1,1203,330,6.37641,44.0666
-14,694,6.52332,-44.0936,0.0251363,0.0661777,-0.019682,0.0740908,0.0172232,-1.18853,0.044771,0.0499911,1210,330,6.52335,44.0936
-7,694,6.67017,-44.1169,0.0251512,0.0574176,-0.0205667,0.0674238,0.015145,-1.11799,0.0408477,0.0464268,1217,330,6.67015,44.117
0,694,6.54858,-44.4524,0,0,0,0,0,0,0,-1,1224,330,6.54864,44.4524
7,694,6.4198,-44.8431,0.0161781,0.0419467,-0.0218392,0.054419,0.00370582,-1.0519,0.0351093,0.0448844,1231,330,6.41975,44.8431
14,694,6.99292,-45.2274,0.00781285,0.0355696,-0.021943,0.0476547,-0.00427227,-1.06738,0.0332854,0.0466023,1238,330,6.99296,45.2274
21,694,7.40662,-45.4378,-0.00170098,0.0307633,-0.0225472,0.0423135,-0.0132511,-1.09738,0.033511,0.0487165,1245,330,7.40659,45.4378
28,694,7.74121,-45.6656,0,0,0,0,0,0,0,-1,1252,330,7.7412,45.6656
35,694,6.99658,-45.4649,-0.0239322,0.0253312,-0.0236527,0.0348488,-0.0334497,-1.18823,0.0394349,0.0455941,1259,330,6.99658,45.4649
42,694,6.81335,-45.7482,-0.034913,0.0260306,-0.0222775,0.0333055,-0.042188,-1.25515,0.0436866,0.0463527,1266,330,6.81341,45.7482
49,694,7.25012,-46.0222,-0.0459306,0.0299402,-0.0185783,0.0342451,-0.0502356,-1.3431,0.0490653,0.0430925,1273,330,7.25017,46.0222
56,694,4.68518,-45.5837,-0.0567911,0.0386533,-0.0125918,0.0402866,-0.0584243,-1.44181,0.0573106,0.0412573,1280,330,4.68516,45.5837
63,694,4.07422,-45.9458,-0.067318,0.049325,-0.0048557,0.0495268,-0.0675198,-1.52926,0.0678425,0.0442505,1287,330,4.07422,45.9458
70,694,3.39075,-46.4132,-0.0764599,0.0606097,0.00387588,0.0607192,-0.0765694,1.54255,0.0794395,0.0431792,1294,330,3.39077,46.4133
77,694,2.30945,-46.9258,-0.0831311,0.074074,0.0137114,0.075261,-0.084318,1.48445,0.0921824,0.0447809,1301,330,2.30944,46.9258
84,694,1.08459,-47.5155,0,0,0,0,0,0,0,-1,1308,330,1.08464,47.5155
91,694,-0.330811,-48.0869,0,0,0,0,0,0,0,-1,1315,330,-0.330822,48.0869
98,694,-1.21924,-47.7552,-0.0907165,0.110584,0.0407887,0.118535,-0.0986673,1.37828,0.125576,0.0452517,1322,330,-1.21927,47.7552
105,694,-1.88916,-47.713,-0.0915085,0.11975,0.0486333,0.130408,-0.102167,1.35506,0.134607,0.0440725,1329,330,-1.88911,47.713
112,694,-2.76343,-47.3676,-0.0915406,0.127009,0.0560503,0.140546,-0.105077,1.33383,0.142302,0.042688,1336,330,-2.76341,47.3676
119,694,-3.52795,-47.0863,0,0,0,0,0,0,0,-1,1343,330,-3.5279,47.0863
126,694,4.16919,-43.9522,0,0,0,0,0,0,0,-1,1350,330,4.16918,43.9522
133,694,-3.97974,-45.5686,-0.0898421,0.136458,0.0627707,0.152704,-0.106087,1.31755,0.150219,0.0451928,1357,330,-3.97977,45.5686
140,694,-4.62646,-45.2286,-0.0892245,0.131633,0.059236,0.146518,-0.104109,1.32462,0.145388,0.0451957,1364,330,-4.62642,45.2286
147,694,-5.41101,-45.3194,-0.0893917,0.125536,0.0557674,0.139145,-0.103,1.33145,0.14032,0.0468149,1371,330,-5.41102,45.3194
154,694,-6.03198,-45.461,0,0,0,0,0,0,0,-1,1378,330,-6.03194,45.461
161,694,4.76746,-36.9827,0,0,0,0,0,0,0,-1,1385,330,4.76745,36.9827
168,694,30.451,0.196686,0,0,0,0,0,0,0,-1,1392,330,30.4511,-0.196674
175,694,31.0701,0.869873,0,0,0,0,0,0,0,-1,1399,330,31.07,-0.869874
182,694,8.29028,5.75238,0,0,0,0,0,0,0,-1,1406,330,8.29034,-5.75237
189,694,7.9801,4.46118,0,0,0,0,0,0,0,-1,1413,330,7.9801,-4.46118
196,694,7.39331,3.32632,0,0,0,0,0,0,0,-1,1420,330,7.39329,-3.32633
203,694,7.04492,2.20529,0,0,0,0,0,0,0,-1,1427,330,7.04496,-2.20529
210,694,6.44714,0.646912,0,0,0,0,0,0,0,-1,1434,330,6.44717,-0.646903
217,694,7.12061,-0.644958,0,0,0,0,0,0,0,-1,1441,330,7.12059,0.644961
224,694,6.74011,-1.70544,0,0,0,0,0,0,0,-1,1448,330,6.74013,1.70546
231,694,0,0,0,0,0,0,0,0,0,-1,1455,330,0,0
238,694,0,0,0,0,0,0,0,0,0,-1,1462,330,0,0
245,694,0,0,0,0,0,0,0,0,0,-1,1469,330,0,0
252,694,0,0,0,0,0,0,0,0,0,-1,1476,330,0,0
259,694,0,0,0,0,0,0,0,0,0,-1,1483,330,0,0
266,694,0,0,0,0,0,0,0,0,0,-1,1490,330,0,0
273,694,0,0,0,0,0,0,0,0,0,-1,1497,330,0,0
280,694,0,0,0,0,0,0,0,0,0,-1,1504,330,0,0
287,694,0,0,0,0,0,0,0,0,0,-1,1511,330,0,0
294,694,0,0,0,0,0,0,0,0,0,-1,1518,330,0,0
301,694,0,0,0,0,0,0,0,0,0,-1,1525,330,0,0
308,694,0,0,0,0,0,0,0,0,0,-1,1532,330,0,0
315,694,0,0,0,0,0,0,0,0,0,-1,1539,330,0,0
322,694,0,0,0,0,0,0,0,0,0,-1,1546,330,0,0
329,694,0,0,0,0,0,0,0,0,0,-1,1553,330,0,0
336,694,0,0,0,0,0,0,0,0,0,-1,1560,330,0,0
343,694,0,0,0,0,0,0,0,0,0,-1,1567,330,0,0
350,694,0,0,0,0,0,0,0,0,0,-1,1574,330,0,0
357,694,0,0,0,0,0,0,0,0,0,-1,1581,330,0,0
364,694,0,0,0,0,0,0,0,0,0,-1,1588,330,0,0
371,694,0,0,0,0,0,0,0,0,0,-1,1595,330,0,0
378,694,0,0,0,0,0,0,0,0,0,-1,1602,330,0,0
385,694,0,0,0,0,0,0,0,0,0,-1,1609,330,0,0
392,694,0,0,0,0,0,0,0,0,0,-1,1616,330,0,0
399,694,0,0,0,0,0,0,0,0,0,-1,1623,330,0,0
406,694,0,0,0,0,0,0,0,0,0,-1,1630,330,0,0
413,694,0,0,0,0,0,0,0,0,0,-1,1637,330,0,0
420,694,0,0,0,0,0,0,0,0,0,-1,1644,330,0,0
427,694,0,0,0,0,0,0,0,0,0,-1,1651,330,0,0
434,694,0,0,0,0,0,0,0,0,0,-1,1658,330,0,0
441,694,0,0,0,0,0,0,0,0,0,-1,1665,330,0,0
448,694,0,0,0,0,0,0,0,0,0,-1,1672,330,0,0
455,694,0,0,0,0,0,0,0,0,0,-1,1679,330,0,0
462,694,0,0,0,0,0,0,0,0,0,-1,1686,330,0,0
469,694,0,0,0,0,0,0,0,0,0,-1,1693,330,0,0
476,694,0,0,0,0,0,0,0,0,0,-1,1700,330,0,0
483,694,0,0,0,0,0,0,0,0,0,-1,1707,330,0,0
490,694,0,0,0,0,0,0,0,0,0,-1,1714,330,0,0
497,694,0,0,0,0,0,0,0,0,0,-1,1721,330,0,0
504,694,0,0,0,0,0,0,0,0,0,-1,1728,330,0,0
511,694,0,0,0,0,0,0,0,0,0,-1,1735,330,0,0
518,694,0,0,0,0,0,0,0,0,0,-1,1742,330,0,0
525,694,0,0,0,0,0,0,0,0,0,-1,1749,330,0,0
532,694,0,0,0,0,0,0,0,0,0,-1,1756,330,0,0
539,694,0,0,0,0,0,0,0,0,0,-1,1763,330,0,0
546,694,0,0,0,0,0,0,0,0,0,-1,1770,330,0,0
553,694,0,0,0,0,0,0,0,0,0,-1,1777,330,0,0
560,694,0,0,0,0,0,0,0,0,0,-1,1784,330,0,0
567,694,0,0,0,0,0,0,0,0,0,-1,1791,330,0,0
574,694,0,0,0,0,0,0,0,0,0,-1,1798,330,0,0
581,694,0,0,0,0,0,0,0,0,0,-1,1805,330,0,0
588,694,0,0,0,0,0,0,0,0,0,-1,1812,330,0,0
595,694,0,0,0,0,0,0,0,0,0,-1,1819,330,0,0
602,694,0,0,0,0,0,0,0,0,0,-1,1826,330,0,0
609,694,0,0,0,0,0,0,0,0,0,-1,1833,330,0,0
616,694,0,0,0,0,0,0,0,0,0,-1,1840,330,0,0
623,694,0,0,0,0,0,0,0,0,0,-1,1847,330,0,0
630,694,0,0,0,0,0,0,0,0,0,-1,1854,330,0,0
637,694,0,0,0,0,0,0,0,0,0,-1,1861,330,0,0
644,694,0,0,0,0,0,0,0,0,0,-1,1868,330,0,0
651,694,0,0,0,0,0,0,0,0,0,-1,1875,330,0,0
658,694,0,0,0,0,0,0,0,0,0,-1,1882,330,0,0
665,694,0,0,0,0,0,0,0,0,0,-1,1889,330,0,0
672,694,0,0,0,0,0,0,0,0,0,-1,1896,330,0,0
679,694,0,0,0,0,0,0,0,0,0,-1,1903,330,0,0
686,694,0,0,0,0,0,0,0,0,0,-1,1910,330,0,0
693,694,0,0,0,0,0,0,0,0,0,-1,1917,330,0,0
700,694,0,0,0,0,0,0,0,0,0,-1,1924,330,0,0
707,694,0,0,0,0,0,0,0,0,0,-1,1931,330,0,0
714,694,0,0,0,0,0,0,0,0,0,-1,1938,330,0,0
721,694,0,0,0,0,0,0,0,0,0,-1,1945,330,0,0
728,694,0,0,0,0,0,0,0,0,0,-1,1952,330,0,0
735,694,0,0,0,0,0,0,0,0,0,-1,1959,330,0,0
742,694,0,0,0,0,0,0,0,0,0,-1,1966,330,0,0
749,694,0,0,0,0,0,0,0,0,0,-1,1973,330,0,0
756,694,0,0,0,0,0,0,0,0,0,-1,1980,330,0,0
763,694,0,0,0,0,0,0,0,0,0,-1,1987,330,0,0
770,694,0,0,0,0,0,0,0,0,0,-1,1994,330,0,0
777,694,0,0,0,0,0,0,0,0,0,-1,2001,330,0,0
784,694,0,0,0,0,0,0,0,0,0,-1,2008,330,0,0
791,694,0,0,0,0,0,0,0,0,0,-1,2015,330,0,0
798,694,0,0,0,0,0,0,0,0,0,-1,2022,330,0,0
805,694,0,0,0,0,0,0,0,0,0,-1,2029,330,0,0
812,694,0,0,0,0,0,0,0,0,0,-1,2036,330,0,0
-700,687,0,0,0,0,0,0,0,0,0,-1,524,337,0,0
-693,687,0,0,0,0,0,0,0,0,0,-1,531,337,0,0
-686,687,0,0,0,0,0,0,0,0,0,-1,538,337,0,0
-679,687,0,0,0,0,0,0,0,0,0,-1,545,337,0,0
-672,687,0,0,0,0,0,0,0,0,0,-1,552,337,0,0
-665,687,0,0,0,0,0,0,0,0,0,-1,559,337,0,0
-658,687,0,0,0,0,0,0,0,0,0,-1,566,337,0,0
-651,687,0,0,0,0,0,0,0,0,0,-1,573,337,0,0
-644,687,0,0,0,0,0,0,0,0,0,-1,580,337,0,0
-637,687,0,0,0,0,0,0,0,0,0,-1,587,337,0,0
-630,687,0,0,0,0,0,0,0,0,0,-1,594,337,0,0
-623,687,0,0,0,0,0,0,0,0,0,-1,601,337,0,0
-616,687,0,0,0,0,0,0,0,0,0,-1,608,337,0,0
-609,687,0,0,0,0,0,0,0,0,0,-1,615,337,0,0
-602,687,0,0,0,0,0,0,0,0,0,-1,622,337,0,0
-595,687,0,0,0,0,0,0,0,0,0,-1,629,337,0,0
-588,687,0,0,0,0,0,0,0,0,0,-1,636,337,0,0
-581,687,0,0,0,0,0,0,0,0,0,-1,643,337,0,0
-574,687,0,0,0,0,0,0,0,0,0,-1,650,337,0,0
-567,687,0,0,0,0,0,0,0,0,0,-1,657,337,0,0
-560,687,0,0,0,0,0,0,0,0,0,-1,664,337,0,0
-553,687,0,0,0,0,0,0,0,0,0,-1,671,337,0,0
-546,687,0,0,0,0,0,0,0,0,0,-1,678,337,0,0
-539,687,0,0,0,0,0,0,0,0,0,-1,685,337,0,0
-532,687,0,0,0,0,0,0,0,0,0,-1,692,337,0,0
-525,687,0,0,0,0,0,0,0,0,0,-1,699,337,0,0
-518,687,0,0,0,0,0,0,0,0,0,-1,706,337,0,0
-511,687,0,0,0,0,0,0,0,0,0,-1,713,337,0,0
-504,687,0,0,0,0,0,0,0,0,0,-1,720,337,0,0
-497,687,0,0,0,0,0,0,0,0,0,-1,727,337,0,0
-490,687,0,0,0,0,0,0,0,0,0,-1,734,337,0,0
-483,687,0,0,0,0,0,0,0,0,0,-1,741,337,0,0
-476,687,0,0,0,0,0,0,0,0,0,-1,748,337,0,0
-469,687,0,0,0,0,0,0,0,0,0,-1,755,337,0,0
-462,687,0,0,0,0,0,0,0,0,0,-1,762,337,0,0
-455,687,0,0,0,0,0,0,0,0,0,-1,769,337,0,0
-448,687,0,0,0,0,0,0,0,0,0,-1,776,337,0,0
-441,687,0,0,0,0,0,0,0,0,0,-1,783,337,0,0
-434,687,0,0,0,0,0,0,0,0,0,-1,790,337,0,0
-427,687,0,0,0,0,0,0,0,0,0,-1,797,337,0,0
-420,687,0,0,0,0,0,0,0,0,0,-1,804,337,0,0
-413,687,0,0,0,0,0,0,0,0,0,-1,811,337,0,0
-406,687,0,0,0,0,0,0,0,0,0,-1,818,337,0,0
-399,687,0,0,0,0,0,0,0,0,0,-1,825,337,0,0
-392,687,0,0,0,0,0,0,0,0,0,-1,832,337,0,0
-385,687,0,0,0,0,0,0,0,0,0,-1,839,337,0,0
-378,687,0,0,0,0,0,0,0,0,0,-1,846,337,0,0
-371,687,0,0,0,0,0,0,0,0,0,-1,853,337,0,0
-364,687,0,0,0,0,0,0,0,0,0,-1,860,337,0,0
-357,687,0,0,0,0,0,0,0,0,0,-1,867,337,0,0
-350,687,0,0,0,0,0,0,0,0,0,-1,874,337,0,0
-343,687,0,0,0,0,0,0,0,0,0,-1,881,337,0,0
-336,687,0,0,0,0,0,0,0,0,0,-1,888,337,0,0
-329,687,0,0,0,0,0,0,0,0,0,-1,895,337,0,0
-322,687,0,0,0,0,0,0,0,0,0,-1,902,337,0,0
-315,687,0,0,0,0,0,0,0,0,0,-1,909,337,0,0
-308,687,0,0,0,0,0,0,0,0,0,-1,916,337,0,0
-301,687,0,0,0,0,0,0,0,0,0,-1,923,337,0,0
-294,687,0,0,0,0,0,0,0,0,0,-1,930,337,0,0
-287,687,0,0,0,0,0,0,0,0,0,-1,937,337,0,0
-280,687,0,0,0,0,0,0,0,0,0,-1,944,337,0,0
-273,687,0,0,0,0,0,0,0,0,0,-1,951,337,0,0
-266,687,0,0,0,0,0,0,0,0,0,-1,958,337,0,0
-259,687,0,0,0,0,0,0,0,0,0,-1,965,337,0,0
-252,687,0,0,0,0,0,0,0,0,0,-1,972,337,0,0
-245,687,0,0,0,0,0,0,0,0,0,-1,979,337,0,0
-238,687,0,0,0,0,0,0,0,0,0,-1,986,337,0,0
-231,687,0,0,0,0,0,0,0,0,0,-1,993,337,0,0
-224,687,0,0,0,0,0,0,0,0,0,-1,1000,337,0,0
-217,687,0,0,0,0,0,0,0,0,0,-1,1007,337,0,0
-210,687,0,0,0,0,0,0,0,0,0,-1,1014,337,0,0
-203,687,0,0,0,0,0,0,0,0,0,-1,1021,337,0,0
-196,687,0,0,0,0,0,0,0,0,0,-1,1028,337,0,0
-189,687,0,0,0,0,0,0,0,0,0,-1,1035,337,0,0
-182,687,0,0,0,0,0,0,0,0,0,-1,1042,337,0,0
-175,687,0,0,0,0,0,0,0,0,0,-1,1049,337,0,0
-168,687,0,0,0,0,0,0,0,0,0,-1,1056,337,0,0
-161,687,0,0,0,0,0,0,0,0,0,-1,1063,337,0,0
-154,687,0,0,0,0,0,0,0,0,0,-1,1070,337,0,0
-147,687,0,0,0,0,0,0,0,0,0,-1,1077,337,0,0
-140,687,0,0,0,0,0,0,0,0,0,-1,1084,337,0,0
-133,687,7.93958,-37.548,0,0,0,0,0,0,0,-1,1091,337,7.93957,37.548
-126,687,0.688477,-38.7298,0,0,0,0,0,0,0,-1,1098,337,0.688509,38.7298
-119,687,7.70825,-33.9236,0,0,0,0,0,0,0,-1,1105,337,7.70826,33.9236
-112,687,7.99866,-32.2983,0,0,0,0,0,0,0,-1,1112,337,7.99866,32.2983
-105,687,1.3208,-29.8313,0,0,0,0,0,0,0,-1,1119,337,1.3208,29.8313
-98,687,13.7111,-47.5645,0,0,0,0,0,0,0,-1,1126,337,13.711,47.5645
-91,687,7.22083,-41.1667,0,0,0,0,0,0,0,-1,1133,337,7.22079,41.1666
-84,687,0.745117,-35.0345,0,0,0,0,0,0,0,-1,1140,337,0.745155,35.0345
-77,687,-5.74353,-28.9553,0,0,0,0,0,0,0,-1,1147,337,-5.74357,28.9553
-70,687,-11.6842,-19.8473,0,0,0,0,0,0,0,-1,1154,337,-11.6842,19.8473
-63,687,-17.6757,-14.8966,0,0,0,0,0,0,0,-1,1161,337,-17.6756,14.8966
-56,687,-18.104,7.81931,0,0,0,0,0,0,0,-1,1168,337,-18.104,-7.81931
-49,687,-15.6449,-9.94391,0,0,0,0,0,0,0,-1,1175,337,-15.6449,9.94392
-42,687,-4.2019,-0.405609,0,0,0,0,0,0,0,-1,1182,337,-4.20192,0.405614
-35,687,-4.42273,-0.688171,0,0,0,0,0,0,0,-1,1189,337,-4.42276,0.688178
-28,687,-1.14038,-1.39072,0,0,0,0,0,0,0,-1,1196,337,-1.14035,1.3907
-21,687,6.60486,-44.7534,0,0,0,0,0,0,0,-1,1203,337,6.60483,44.7534
-14,687,6.6615,-44.7268,0.0176476,0.0569871,-0.0158957,0.0626071,0.0120276,-1.23096,0.0383626,0.0452928,1210,337,6.66153,44.7268
-7,687,6.71472,-44.6871,0.0175153,0.0507887,-0.0164209,0.0575278,0.0107763,-1.18136,0.0353122,0.0477826,1217,337,6.71478,44.6871
0,687,6.78137,-44.6405,0,0,0,0,0,0,0,-1,1224,337,6.7814,44.6405
7,687,6.88623,-45.4835,0,0,0,0,0,0,0,-1,1231,337,6.88626,45.4835
14,687,7.39355,-45.7054,0.00472323,0.0347676,-0.0182147,0.0433556,-0.00386477,-1.13022,0.0302743,0.0487334,1238,337,7.3936,45.7054
21,687,7.81836,-45.8505,-0.00246232,0.0311627,-0.0188738,0.0396263,-0.0109259,-1.14925,0.0307143,0.0487853,1245,337,7.81837,45.8505
28,687,8.22351,-46.0646,0,0,0,0,0,0,0,-1,1252,337,8.22348,46.0646
35,687,7.01306,-45.3307,-0.0192912,0.0271565,-0.0201372,0.0346711,-0.0268058,-1.21363,0.0355904,0.0473437,1259,337,7.01302,45.3307
42,687,6.80188,-45.6044,-0.0278177,0.0274847,-0.0192697,0.0335368,-0.0338698,-1.26648,0.0389174,0.0456543,1266,337,6.80185,45.6044
49,687,7.24109,-45.8848,-0.0365595,0.0303419,-0.0165583,0.0342159,-0.0404334,-1.34097,0.0431486,0.0432752,1273,337,7.24112,45.8848
56,687,7.87878,-46.3255,-0.0452957,0.037105,-0.012007,0.038819,-0.0470097,-1.42901,0.0496284,0.0439423,1280,337,7.87877,46.3255
63,687,4.06543,-45.5313,0,0,0,0,0,0,0,-1,1287,337,4.06547,45.5313
70,687,3.39685,-46.421,-0.0617551,0.0542272,0.001129,0.0542382,-0.0617661,1.56106,0.0670221,0.0432655,1294,337,3.39688,46.421
77,687,2.59265,-46.9128,-0.0672769,0.0646209,0.00891413,0.0652206,-0.0678766,1.50362,0.0768488,0.0438632,1301,337,2.59267,46.9128
84,687,1.74292,-47.3045,0,0,0,0,0,0,0,-1,1308,337,1.74286,47.3045
91,687,1.21069,-48.0077,0,0,0,0,0,0,0,-1,1315,337,1.2107,48.0077
98,687,0.491455,-48.6784,0,0,0,0,0,0,0,-1,1322,337,0.491395,48.6784
105,687,-3.00024,-48.6107,0,0,0,0,0,0,0,-1,1329,337,-3.00019,48.6107
112,687,-3.99976,-48.6358,0,0,0,0,0,0,0,-1,1336,337,-3.99975,48.6358
119,687,4.10767,-44.4235,0,0,0,0,0,0,0,-1,1343,337,4.10763,44.4235
126,687,4.31653,-44.3625,0,0,0,0,0,0,0,-1,1350,337,4.3165,44.3625
133,687,4.49768,-44.2349,0,0,0,0,0,0,0,-1,1357,337,4.49771,44.2349
140,687,5.55066,-43.7546,0,0,0,0,0,0,0,-1,1364,337,5.55064,43.7546
147,687,5.37439,-43.74,0,0,0,0,0,0,0,-1,1371,337,5.37439,43.74
154,687,5.23108,-43.8322,0,0,0,0,0,0,0,-1,1378,337,5.23105,43.8322
161,687,29.3895,-1.90628,0,0,0,0,0,0,0,-1,1385,337,29.3895,1.90628
168,687,29.8564,-1.19434,0,0,0,0,0,0,0,-1,1392,337,29.8564,1.19434
175,687,30.3419,-0.453583,0,0,0,0,0,0,0,-1,1399,337,30.3419,0.45357
182,687,6.67249,0.289917,0,0,0,0,0,0,0,-1,1406,337,6.67247,-0.289916
189,687,7.76062,4.53635,0,0,0,0,0,0,0,-1,1413,337,7.76064,-4.53636
196,687,6.99048,3.2966,0,0,0,0,0,0,0,-1,1420,337,6.99046,-3.2966
203,687,6.36499,2.1445,0,0,0,0,0,0,0,-1,1427,337,6.36499,-2.14451
210,687,6.68066,0.674652,0,0,0,0,0,0,0,-1,1434,337,6.68062,-0.674655
217,687,5.99683,-0.630493,0,0,0,0,0,0,0,-1,1441,337,5.99684,0.630497
224,687,5.52917,0.524902,0,0,0,0,0,0,0,-1,1448,337,5.5292,-0.524915
231,687,5.85583,-1.73651,0,0,0,0,0,0,0,-1,1455,337,5.85577,1.73651
238,687,5.96582,-2.96774,0,0,0,0,0,0,0,-1,1462,337,5.96577,2.96773
245,687,1.28259,2.32211,0,0,0,0,0,0,0,-1,1469,337,1.28258,-2.32211
252,687,1.97278,3.88422,0,0,0,0,0,0,0,-1,1476,337,1.97281,-3.88421
259,687,0,0,0,0,0,0,0,0,0,-1,1483,337,0,0
266,687,0,0,0,0,0,0,0,0,0,-1,1490,337,0,0
273,687,0,0,0,0,0,0,0,0,0,-1,1497,337,0,0
280,687,0,0,0,0,0,0,0,0,0,-1,1504,337,0,0
287,687,0,0,0,0,0,0,0,0,0,-1,1511,337,0,0
294,687,0,0,0,0,0,0,0,0,0,-1,1518,337,0,0
301,687,0,0,0,0,0,0,0,0,0,-1,1525,337,0,0
308,687,0,0,0,0,0,0,0,0,0,-1,1532,337,0,0
315,687,0,0,0,0,0,0,0,0,0,-1,1539,337,0,0
322,687,0,0,0,0,0,0,0,0,0,-1,1546,337,0,0
329,687,0,0,0,0,0,0,0,0,0,-1,1553,337,0,0
336,687,0,0,0,0,0,0,0,0,0,-1,1560,337,0,0
343,687,0,0,0,0,0,0,0,0,0,-1,1567,337,0,0
350,687,0,0,0,0,0,0,0,0,0,-1,1574,337,0,0
357,687,0,0,0,0,0,0,0,0,0,-1,1581,337,0,0
364,687,0,0,0,0,0,0,0,0,0,-1,1588,337,0,0
371,687,0,0,0,0,0,0,0,0,0,-1,1595,337,0,0
378,687,0,0,0,0,0,0,0,0,0,-1,1602,337,0,0
385,687,0,0,0,0,0,0,0,0,0,-1,1609,337,0,0
392,687,0,0,0,0,0,0,0,0,0,-1,1616,337,0,0
399,687,0,0,0,0,0,0,0,0,0,-1,1623,337,0,0
406,687,0,0,0,0,0,0,0,0,0,-1,1630,337,0,0
413,687,0,0,0,0,0,0,0,0,0,-1,1637,337,0,0
420,687,0,0,0,0,0,0,0,0,0,-1,1644,337,0,0
427,687,0,0,0,0,0,0,0,0,0,-1,1651,337,0,0
434,687,0,0,0,0,0,0,0,0,0,-1,1658,337,0,0
441,687,0,0,0,0,0,0,0,0,0,-1,1665,337,0,0
448,687,0,0,0,0,0,0,0,0,0,-1,1672,337,0,0
455,687,0,0,0,0,0,0,0,0,0,-1,1679,337,0,0
462,687,0,0,0,0,0,0,0,0,0,-1,1686,337,0,0
469,687,0,0,0,0,0,0,0,0,0,-1,1693,337,0,0
476,687,0,0,0,0,0,0,0,0,0,-1,1700,337,0,0
483,687,0,0,0,0,0,0,0,0,0,-1,1707,337,0,0
490,687,0,0,0,0,0,0,0,0,0,-1,1714,337,0,0
497,687,0,0,0,0,0,0,0,0,0,-1,1721,337,0,0
504,687,0,0,0,0,0,0,0,0,0,-1,1728,337,0,0
511,687,0,0,0,0,0,0,0,0,0,-1,1735,337,0,0
518,687,0,0,0,0,0,0,0,0,0,-1,1742,337,0,0
525,687,0,0,0,0,0,0,0,0,0,-1,1749,337,0,0
532,687,0,0,0,0,0,0,0,0,0,-1,1756,337,0,0
539,687,0,0,0,0,0,0,0,0,0,-1,1763,337,0,0
546,687,0,0,0,0,0,0,0,0,0,-1,1770,337,0,0
553,687,0,0,0,0,0,0,0,0,0,-1,1777,337,0,0
560,687,0,0,0,0,0,0,0,0,0,-1,1784,337,0,0
567,687,0,0,0,0,0,0,0,0,0,-1,1791,337,0,0
574,687,0,0,0,0,0,0,0,0,0,-1,1798,337,0,0
581,687,0,0,0,0,0,0,0,0,0,-1,1805,337,0,0
588,687,0,0,0,0,0,0,0,0,0,-1,1812,337,0,0
595,687,0,0,0,0,0,0,0,0,0,-1,1819,337,0,0
602,687,0,0,0,0,0,0,0,0,0,-1,1826,337,0,0
609,687,0,0,0,0,0,0,0,0,0,-1,1833,337,0,0
616,687,0,0,0,0,0,0,0,0,0,-1,1840,337,0,0
623,687,0,0,0,0,0,0,0,0,0,-1,1847,337,0,0
630,687,0,0,0,0,0,0,0,0,0,-1,1854,337,0,0
637,687,0,0,0,0,0,0,0,0,0,-1,1861,337,0,0
644,687,0,0,0,0,0,0,0,0,0,-1,1868,337,0,0
651,687,0,0,0,0,0,0,0,0,0,-1,1875,337,0,0
658,687,0,0,0,0,0,0,0,0,0,-1,1882,337,0,0
665,687,0,0,0,0,0,0,0,0,0,-1,1889,337,0,0
672,687,0,0,0,0,0,0,0,0,0,-1,1896,337,0,0
679,687,0,0,0,0,0,0,0,0,0,-1,1903,337,0,0
686,687,0,0,0,0,0,0,0,0,0,-1,1910,337,0,0
693,687,0,0,0,0,0,0,0,0,0,-1,1917,337,0,0
700,687,0,0,0,0,0,0,0,0,0,-1,1924,337,0,0
707,687,0,0,0,0,0,0,0,0,0,-1,1931,337,0,0
714,687,0,0,0,0,0,0,0,0,0,-1,1938,337,0,0
721,687,0,0,0,0,0,0,0,0,0,-1,1945,337,0,0
728,687,0,0,0,0,0,0,0,0,0,-1,1952,337,0,0
735,687,0,0,0,0,0,0,0,0,0,-1,1959,337,0,0
742,687,0,0,0,0,0,0,0,0,0,-1,1966,337,0,0
749,687,0,0,0,0,0,0,0,0,0,-1,1973,337,0,0
756,687,0,0,0,0,0,0,0,0,0,-1,1980,337,0,0
763,687,0,0,0,0,0,0,0,0,0,-1,1987,337,0,0
770,687,0,0,0,0,0,0,0,0,0,-1,1994,337,0,0
777,687,0,0,0,0,0,0,0,0,0,-1,2001,337,0,0
784,687,0,0,0,0,0,0,0,0,0,-1,2008,337,0,0
791,687,0,0,0,0,0,0,0,0,0,-1,2015,337,0,0
798,687,0,0,0,0,0,0,0,0,0,-1,2022,337,0,0
805,687,0,0,0,0,0,0,0,0,0,-1,2029,337,0,0
812,687,0,0,0,0,0,0,0,0,0,-1,2036,337,0,0
-700,680,0,0,0,0,0,0,0,0,0,-1,524,344,0,0
-693,680,0,0,0,0,0,0,0,0,0,-1,531,344,0,0
-686,680,0,0,0,0,0,0,0,0,0,-1,538,344,0,0
-679,680,0,0,0,0,0,0,0,0,0,-1,545,344,0,0
-672,680,0,0,0,0,0,0,0,0,0,-1,552,344,0,0
-665,680,0,0,0,0,0,0,0,0,0,-1,559,344,0,0
-658,680,0,0,0,0,0,0,0,0,0,-1,566,344,0,0
-651,680,0,0,0,0,0,0,0,0,0,-1,573,344,0,0
-644,680,0,0,0,0,0,0,0,0,0,-1,580,344,0,0
-637,680,0,0,0,0,0,0,0,0,0,-1,587,344,0,0
-630,680,0,0,0,0,0,0,0,0,0,-1,594,344,0,0
-623,680,0,0,0,0,0,0,0,0,0,-1,601,344,0,0
-616,680,0,0,0,0,0,0,0,0,0,-1,608,344,0,0
-609,680,0,0,0,0,0,0,0,0,0,-1,615,344,0,0
-602,680,0,0,0,0,0,0,0,0,0,-1,622,344,0,0
-595,680,0,0,0,0,0,0,0,0,0,-1,629,344,0,0
-588,680,0,0,0,0,0,0,0,0,0,-1,636,344,0,0
-581,680,0,0,0,0,0,0,0,0,0,-1,643,344,0,0
-574,680,0,0,0,0,0,0,0,0,0,-1,650,344,0,0
-567,680,0,0,0,0,0,0,0,0,0,-1,657,344,0,0
-560,680,0,0,0,0,0,0,0,0,0,-1,664,344,0,0
-553,680,0,0,0,0,0,0,0,0,0,-1,671,344,0,0
-546,680,0,0,0,0,0,0,0,0,0,-1,678,344,0,0
-539,680,0,0,0,0,0,0,0,0,0,-1,685,344,0,0
-532,680,0,0,0,0,0,0,0,0,0,-1,692,344,0,0
-525,680,0,0,0,0,0,0,0,0,0,-1,699,344,0,0
-518,680,0,0,0,0,0,0,0,0,0,-1,706,344,0,0
-511,680,0,0,0,0,0,0,0,0,0,-1,713,344,0,0
-504,680,0,0,0,0,0,0,0,0,0,-1,720,344,0,0
-497,680,0,0,0,0,0,0,0,0,0,-1,727,344,0,0
-490,680,0,0,0,0,0,0,0,0,0,-1,734,344,0,0
-483,680,0,0,0,0,0,0,0,0,0,-1,741,344,0,0
-476,680,0,0,0,0,0,0,0,0,0,-1,748,344,0,0
-469,680,0,0,0,0,0,0,0,0,0,-1,755,344,0,0
-462,680,0,0,0,0,0,0,0,0,0,-1,762,344,0,0
-455,680,0,0,0,0,0,0,0,0,0,-1,769,344,0,0
-448,680,0,0,0,0,0,0,0,0,0,-1,776,344,0,0
-441,680,0,0,0,0,0,0,0,0,0,-1,783,344,0,0
-434,680,0,0,0,0,0,0,0,0,0,-1,790,344,0,0
-427,680,0,0,0,0,0,0,0,0,0,-1,797,344,0,0
-420,680,0,0,0,0,0,0,0,0,0,-1,804,344,0,0
-413,680,0,0,0,0,0,0,0,0,0,-1,811,344,0,0
-406,680,0,0,0,0,0,0,0,0,0,-1,818,344,0,0
-399,680,0,0,0,0,0,0,0,0,0,-1,825,344,0,0
-392,680,0,0,0,0,0,0,0,0,0,-1,832,344,0,0
-385,680,0,0,0,0,0,0,0,0,0,-1,839,344,0,0
-378,680,0,0,0,0,0,0,0,0,0,-1,846,344,0,0
-371,680,0,0,0,0,0,0,0,0,0,-1,853,344,0,0
-364,680,0,0,0,0,0,0,0,0,0,-1,860,344,0,0
-357,680,0,0,0,0,0,0,0,0,0,-1,867,344,0,0
-350,680,0,0,0,0,0,0,0,0,0,-1,874,344,0,0
-343,680,0,0,0,0,0,0,0,0,0,-1,881,344,0,0
-336,680,0,0,0,0,0,0,0,0,0,-1,888,344,0,0
-329,680,0,0,0,0,0,0,0,0,0,-1,895,344,0,0
-322,680,0,0,0,0,0,0,0,0,0,-1,902,344,0,0
-315,680,0,0,0,0,0,0,0,0,0,-1,909,344,0,0
-308,680,0,0,0,0,0,0,0,0,0,-1,916,344,0,0
-301,680,0,0,0,0,0,0,0,0,0,-1,923,344,0,0
-294,680,0,0,0,0,0,0,0,0,0,-1,930,344,0,0
-287,680,0,0,0,0,0,0,0,0,0,-1,937,344,0,0
-280,680,0,0,0,0,0,0,0,0,0,-1,944,344,0,0
-273,680,0,0,0,0,0,0,0,0,0,-1,951,344,0,0
-266,680,0,0,0,0,0,0,0,0,0,-1,958,344,0,0
-259,680,0,0,0,0,0,0,0,0,0,-1,965,344,0,0
-252,680,0,0,0,0,0,0,0,0,0,-1,972,344,0,0
-245,680,0,0,0,0,0,0,0,0,0,-1,979,344,0,0
-238,680,0,0,0,0,0,0,0,0,0,-1,986,344,0,0
-231,680,0,0,0,0,0,0,0,0,0,-1,993,344,0,0
-224,680,0,0,0,0,0,0,0,0,0,-1,1000,344,0,0
-217,680,0,0,0,0,0,0,0,0,0,-1,1007,344,0,0
-210,680,0,0,0,0,0,0,0,0,0,-1,1014,344,0,0
-203,680,0,0,0,0,0,0,0,0,0,-1,1021,344,0,0
-196,680,0,0,0,0,0,0,0,0,0,-1,1028,344,0,0
-189,680,0,0,0,0,0,0,0,0,0,-1,1035,344,0,0
-182,680,0,0,0,0,0,0,0,0,0,-1,1042,344,0,0
-175,680,0,0,0,0,0,0,0,0,0,-1,1049,344,0,0
-168,680,0,0,0,0,0,0,0,0,0,-1,1056,344,0,0
-161,680,0,0,0,0,0,0,0,0,0,-1,1063,344,0,0
-154,680,2.25244,-29.1442,0,0,0,0,0,0,0,-1,1070,344,2.25241,29.1442
-147,680,9.29614,-33.0369,0,0,0,0,0,0,0,-1,1077,344,9.29612,33.0369
-140,680,6.98022,-36.6899,0,0,0,0,0,0,0,-1,1084,344,6.98023,36.6899
-133,680,1.85693,-39.7233,0,0,0,0,0,0,0,-1,1091,344,1.85699,39.7233
-126,680,2.30017,-38.3751,0,0,0,0,0,0,0,-1,1098,344,2.30011,38.3751
-119,680,2.74329,-37.0269,0,0,0,0,0,0,0,-1,1105,344,2.74323,37.0269
-112,680,7.7467,-32.4407,0,0,0,0,0,0,0,-1,1112,344,7.74668,32.4407
-105,680,20.6371,-48.461,0,0,0,0,0,0,0,-1,1119,344,20.6371,48.461
-98,680,14.2684,-41.9997,0,0,0,0,0,0,0,-1,1126,344,14.2685,41.9997
-91,680,7.89648,-35.5147,0,0,0,0,0,0,0,-1,1133,344,7.8965,35.5147
-84,680,1.47168,-29.471,0,0,0,0,0,0,0,-1,1140,344,1.47163,29.471
-77,680,-4.95337,-23.3355,0,0,0,0,0,0,0,-1,1147,344,-4.9534,23.3356
-70,680,-11.5099,-17.4337,0,0,0,0,0,0,0,-1,1154,344,-11.5098,17.4338
-63,680,-17.2391,-1.43134,0,0,0,0,0,0,0,-1,1161,344,-17.2392,1.43133
-56,680,-6.96912,-8.83356,0,0,0,0,0,0,0,-1,1168,344,-6.96907,8.83354
-49,680,-6.7677,-2.24063,0,0,0,0,0,0,0,-1,1175,344,-6.76772,2.24063
-42,680,-1.02368,0.618805,0,0,0,0,0,0,0,-1,1182,344,-1.0237,-0.618797
-35,680,-0.947876,-0.942719,0,0,0,0,0,0,0,-1,1189,344,-0.947842,0.942731
-28,680,-1.46118,-1.10574,0,0,0,0,0,0,0,-1,1196,344,-1.4612,1.10575
-21,680,6.78687,-45.421,0,0,0,0,0,0,0,-1,1203,344,6.78684,45.421
-14,680,6.67468,-45.4696,0.011355,0.0481628,-0.0123852,0.0519422,0.00757561,-1.27462,0.0323995,0.0460447,1210,344,6.6747,45.4696
-7,680,6.56348,-45.5013,0.0113108,0.0438988,-0.0127239,0.0482782,0.00693136,-1.2393,0.0301419,0.0465017,1217,344,6.56343,45.5013
0,680,6.48706,-45.5562,0,0,0,0,0,0,0,-1,1224,344,6.48708,45.5562
7,680,7.13501,-45.4666,0,0,0,0,0,0,0,-1,1231,344,7.13505,45.4666
14,680,7.75232,-46.2231,0,0,0,0,0,0,0,-1,1238,344,7.75232,46.223
21,680,8.19238,-46.3639,0,0,0,0,0,0,0,-1,1245,344,8.19234,46.3639
28,680,6.65942,-46.3575,0,0,0,0,0,0,0,-1,1252,344,6.65945,46.3575
35,680,7.00903,-45.1338,0,0,0,0,0,0,0,-1,1259,344,7.00902,45.1338
42,680,6.0127,-46.2622,0,0,0,0,0,0,0,-1,1266,344,6.01265,46.2622
49,680,7.24268,-45.7792,0,0,0,0,0,0,0,-1,1273,344,7.24274,45.7792
56,680,7.93604,-46.1294,0,0,0,0,0,0,0,-1,1280,344,7.93605,46.1294
63,680,6.07556,-46.2116,0,0,0,0,0,0,0,-1,1287,344,6.07561,46.2116
70,680,3.39197,-46.3929,0,0,0,0,0,0,0,-1,1294,344,3.39202,46.3929
77,680,2.71558,-46.9171,0,0,0,0,0,0,0,-1,1301,344,2.71552,46.917
84,680,5.54114,-46.2606,0,0,0,0,0,0,0,-1,1308,344,5.5411,46.2606
91,680,2.33057,-47.8514,0,0,0,0,0,0,0,-1,1315,344,2.33061,47.8514
98,680,1.63538,-48.6177,0,0,0,0,0,0,0,-1,1322,344,1.63534,48.6177
105,680,0.918701,-49.3593,0,0,0,0,0,0,0,-1,1329,344,0.918709,49.3593
112,680,4.59485,-45.256,0,0,0,0,0,0,0,-1,1336,344,4.59483,45.256
119,680,4.53711,-45.1789,0,0,0,0,0,0,0,-1,1343,344,4.5371,45.1789
126,680,4.74023,-44.8759,0,0,0,0,0,0,0,-1,1350,344,4.74029,44.8759
133,680,4.92957,-44.5656,0,0,0,0,0,0,0,-1,1357,344,4.92954,44.5656
140,680,5.4231,-44.5391,-0.0533904,0.0949133,0.0379366,0.104054,-0.0625313,1.33435,0.097169,0.0489999,1364,344,5.42314,44.5391
147,680,5.30151,-44.5002,-0.0525867,0.0917002,0.0357597,0.100077,-0.060963,1.34071,0.0938859,0.0495686,1371,344,5.30154,44.5002
154,680,5.11523,-44.5284,-0.051911,0.0881116,0.0336741,0.095789,-0.0595883,1.34664,0.0905151,0.0479474,1378,344,5.11525,44.5284
161,680,5.01746,-44.5562,0,0,0,0,0,0,0,-1,1385,344,5.01747,44.5562
168,680,29.4142,-2.51651,0,0,0,0,0,0,0,-1,1392,344,29.4142,2.51652
175,680,6.66541,0.942078,0,0,0,0,0,0,0,-1,1399,344,6.66538,-0.942088
182,680,6.52917,0.532379,0,0,0,0,0,0,0,-1,1406,344,6.52922,-0.532385
189,680,7.55884,4.77695,0,0,0,0,0,0,0,-1,1413,344,7.55886,-4.77694
196,680,6.55627,3.35254,0,0,0,0,0,0,0,-1,1420,344,6.55622,-3.35255
203,680,5.7334,1.90753,0,0,0,0,0,0,0,-1,1427,344,5.73341,-1.90754
210,680,5.27515,0.493622,0,0,0,0,0,0,0,-1,1434,344,5.27514,-0.493632
217,680,6.56384,-0.374176,0,0,0,0,0,0,0,-1,1441,344,6.56379,0.374176
224,680,3.9491,-0.640228,0,0,0,0,0,0,0,-1,1448,344,3.94908,0.64024
231,680,4.24866,-1.96881,0,0,0,0,0,0,0,-1,1455,344,4.2486,1.96882
238,680,4.29333,-3.23984,0,0,0,0,0,0,0,-1,1462,344,4.29332,3.23984
245,680,2.44397,0.985382,0,0,0,0,0,0,0,-1,1469,344,2.44402,-0.985394
252,680,3.07349,2.18951,0,0,0,0,0,0,0,-1,1476,344,3.0735,-2.18952
259,680,2.82971,1.30682,0,0,0,0,0,0,0,-1,1483,344,2.82972,-1.30684
266,680,2.67554,1.44067,0,0,0,0,0,0,0,-1,1490,344,2.67551,-1.44066
273,680,2.46411,1.54666,0,0,0,0,0,0,0,-1,1497,344,2.46407,-1.54666
280,680,0,0,0,0,0,0,0,0,0,-1,1504,344,0,0
287,680,0,0,0,0,0,0,0,0,0,-1,1511,344,0,0
294,680,0,0,0,0,0,0,0,0,0,-1,1518,344,0,0
301,680,0,0,0,0,0,0,0,0,0,-1,1525,344,0,0
308,680,0,0,0,0,0,0,0,0,0,-1,1532,344,0,0
315,680,0,0,0,0,0,0,0,0,0,-1,1539,344,0,0
322,680,0,0,0,0,0,0,0,0,0,-1,1546,344,0,0
329,680,0,0,0,0,0,0,0,0,0,-1,1553,344,0,0
336,680,0,0,0,0,0,0,0,0,0,-1,1560,344,0,0
343,680,0,0,0,0,0,0,0,0,0,-1,1567,344,0,0
350,680,0,0,0,0,0,0,0,0,0,-1,1574,344,0,0
357,680,0,0,0,0,0,0,0,0,0,-1,1581,344,0,0
364,680,0,0,0,0,0,0,0,0,0,-1,1588,344,0,0
371,680,0,0,0,0,0,0,0,0,0,-1,1595,344,0,0
378,680,0,0,0,0,0,0,0,0,0,-1,1602,344,0,0
385,680,0,0,0,0,0,0,0,0,0,-1,1609,344,0,0
392,680,0,0,0,0,0,0,0,0,0,-1,1616,344,0,0
399,680,0,0,0,0,0,0,0,0,0,-1,1623,344,0,0
406,680,0,0,0,0,0,0,0,0,0,-1,1630,344,0,0
413,680,0,0,0,0,0,0,0,0,0,-1,1637,344,0,0
420,680,0,0,0,0,0,0,0,0,0,-1,1644,344,0,0
427,680,0,0,0,0,0,0,0,0,0,-1,1651,344,0,0
434,680,0,0,0,0,0,0,0,0,0,-1,1658,344,0,0
441,680,0,0,0,0,0,0,0,0,0,-1,1665,344,0,0
448,680,0,0,0,0,0,0,0,0,0,-1,1672,344,0,0
455,680,0,0,0,0,0,0,0,0,0,-1,1679,344,0,0
462,680,0,0,0,0,0,0,0,0,0,-1,1686,344,0,0
469,680,0,0,0,0,0,0,0,0,0,-1,1693,344,0,0
476,680,0,0,0,0,0,0,0,0,0,-1,1700,344,0,0
483,680,0,0,0,0,0,0,0,0,0,-1,1707,344,0,0
490,680,0,0,0,0,0,0,0,0,0,-1,1714,344,0,0
497,680,0,0,0,0,0,0,0,0,0,-1,1721,344,0,0
504,680,0,0,0,0,0,0,0,0,0,-1,1728,344,0,0
511,680,0,0,0,0,0,0,0,0,0,-1,1735,344,0,0
518,680,0,0,0,0,0,0,0,0,0,-1,1742,344,0,0
525,680,0,0,0,0,0,0,0,0,0,-1,1749,344,0,0
532,680,0,0,0,0,0,0,0,0,0,-1,1756,344,0,0
539,680,0,0,0,0,0,0,0,0,0,-1,1763,344,0,0
546,680,0,0,0,0,0,0,0,0,0,-1,1770,344,0,0
553,680,0,0,0,0,0,0,0,0,0,-1,1777,344,0,0
560,680,0,0,0,0,0,0,0,0,0,-1,1784,344,0,0
567,680,0,0,0,0,0,0,0,0,0,-1,1791,344,0,0
574,680,0,0,0,0,0,0,0,0,0,-1,1798,344,0,0
581,680,0,0,0,0,0,0,0,0,0,-1,1805,344,0,0
588,680,0,0,0,0,0,0,0,0,0,-1,1812,344,0,0
595,680,0,0,0,0,0,0,0,0,0,-1,1819,344,0,0
602,680,0,0,0,0,0,0,0,0,0,-1,1826,344,0,0
609,680,0,0,0,0,0,0,0,0,0,-1,1833,344,0,0
616,680,0,0,0,0,0,0,0,0,0,-1,1840,344,0,0
623,680,0,0,0,0,0,0,0,0,0,-1,1847,344,0,0
630,680,0,0,0,0,0,0,0,0,0,-1,1854,344,0,0
637,680,0,0,0,0,0,0,0,0,0,-1,1861,344,0,0
644,680,0,0,0,0,0,0,0,0,0,-1,1868,344,0,0
651,680,0,0,0,0,0,0,0,0,0,-1,1875,344,0,0
658,680,0,0,0,0,0,0,0,0,0,-1,1882,344,0,0
665,680,0,0,0,0,0,0,0,0,0,-1,1889,344,0,0
672,680,0,0,0,0,0,0,0,0,0,-1,1896,344,0,0
679,680,0,0,0,0,0,0,0,0,0,-1,1903,344,0,0
686,680,0,0,0,0,0,0,0,0,0,-1,1910,344,0,0
693,680,0,0,0,0,0,0,0,0,0,-1,1917,344,0,0
700,680,0,0,0,0,0,0,0,0,0,-1,1924,344,0,0
707,680,0,0,0,0,0,0,0,0,0,-1,1931,344,0,0
714,680,0,0,0,0,0,0,0,0,0,-1,1938,344,0,0
721,680,0,0,0,0,0,0,0,0,0,-1,1945,344,0,0
728,680,0,0,0,0,0,0,0,0,0,-1,1952,344,0,0
735,680,0,0,0,0,0,0,0,0,0,-1,1959,344,0,0
742,680,0,0,0,0,0,0,0,0,0,-1,1966,344,0,0
749,680,0,0,0,0,0,0,0,0,0,-1,1973,344,0,0
756,680,0,0,0,0,0,0,0,0,0,-1,1980,344,0,0
763,680,0,0,0,0,0,0,0,0,0,-1,1987,344,0,0
770,680,0,0,0,0,0,0,0,0,0,-1,1994,344,0,0
777,680,0,0,0,0,0,0,0,0,0,-1,2001,344,0,0
784,680,0,0,0,0,0,0,0,0,0,-1,2008,344,0,0
791,680,0,0,0,0,0,0,0,0,0,-1,2015,344,0,0
798,680,0,0,0,0,0,0,0,0,0,-1,2022,344,0,0
805,680,0,0,0,0,0,0,0,0,0,-1,2029,344,0,0
812,680,0,0,0,0,0,0,0,0,0,-1,2036,344,0,0
-700,673,0,0,0,0,0,0,0,0,0,-1,524,351,0,0
-693,673,0,0,0,0,0,0,0,0,0,-1,531,351,0,0
-686,673,0,0,0,0,0,0,0,0,0,-1,538,351,0,0
-679,673,0,0,0,0,0,0,0,0,0,-1,545,351,0,0
-672,673,0,0,0,0,0,0,0,0,0,-1,552,351,0,0
-665,673,0,0,0,0,0,0,0,0,0,-1,559,351,0,0
-658,673,0,0,0,0,0,0,0,0,0,-1,566,351,0,0
-651,673,0,0,0,0,0,0,0,0,0,-1,573,351,0,0
-644,673,0,0,0,0,0,0,0,0,0,-1,580,351,0,0
-637,673,0,0,0,0,0,0,0,0,0,-1,587,351,0,0
-630,673,0,0,0,0,0,0,0,0,0,-1,594,351,0,0
-623,673,0,0,0,0,0,0,0,0,0,-1,601,351,0,0
-616,673,0,0,0,0,0,0,0,0,0,-1,608,351,0,0
-609,673,0,0,0,0,0,0,0,0,0,-1,615,351,0,0
-602,673,0,0,0,0,0,0,0,0,0,-1,622,351,0,0
-595,673,0,0,0,0,0,0,0,0,0,-1,629,351,0,0
-588,673,0,0,0,0,0,0,0,0,0,-1,636,351,0,0
-581,673,0,0,0,0,0,0,0,0,0,-1,643,351,0,0
-574,673,0,0,0,0,0,0,0,0,0,-1,650,351,0,0
-567,673,0,0,0,0,0,0,0,0,0,-1,657,351,0,0
-560,673,0,0,0,0,0,0,0,0,0,-1,664,351,0,0
-553,673,0,0,0,0,0,0,0,0,0,-1,671,351,0,0
-546,673,0,0,0,0,0,0,0,0,0,-1,678,351,0,0
-539,673,0,0,0,0,0,0,0,0,0,-1,685,351,0,0
-532,673,0,0,0,0,0,0,0,0,0,-1,692,351,0,0
-525,673,0,0,0,0,0,0,0,0,0,-1,699,351,0,0
-518,673,0,0,0,0,0,0,0,0,0,-1,706,351,0,0
-511,673,0,0,0,0,0,0,0,0,0,-1,713,351,0,0
-504,673,0,0,0,0,0,0,0,0,0,-1,720,351,0,0
-497,673,0,0,0,0,0,0,0,0,0,-1,727,351,0,0
-490,673,0,0,0,0,0,0,0,0,0,-1,734,351,0,0
-483,673,0,0,0,0,0,0,0,0,0,-1,741,351,0,0
-476,673,0,0,0,0,0,0,0,0,0,-1,748,351,0,0
-469,673,0,0,0,0,0,0,0,0,0,-1,755,351,0,0
-462,673,0,0,0,0,0,0,0,0,0,-1,762,351,0,0
-455,673,0,0,0,0,0,0,0,0,0,-1,769,351,0,0
-448,673,0,0,0,0,0,0,0,0,0,-1,776,351,0,0
-441,673,0,0,0,0,0,0,0,0,0,-1,783,351,0,0
-434,673,0,0,0,0,0,0,0,0,0,-1,790,351,0,0
-427,673,0,0,0,0,0,0,0,0,0,-1,797,351,0,0
-420,673,0,0,0,0,0,0,0,0,0,-1,804,351,0,0
-413,673,0,0,0,0,0,0,0,0,0,-1,811,351,0,0
-406,673,0,0,0,0,0,0,0,0,0,-1,818,351,0,0
-399,673,0,0,0,0,0,0,0,0,0,-1,825,351,0,0
-392,673,0,0,0,0,0,0,0,0,0,-1,832,351,0,0
-385,673,0,0,0,0,0,0,0,0,0,-1,839,351,0,0
-378,673,0,0,0,0,0,0,0,0,0,-1,846,351,0,0
-371,673,0,0,0,0,0,0,0,0,0,-1,853,351,0,0
-364,673,0,0,0,0,0,0,0,0,0,-1,860,351,0,0
-357,673,0,0,0,0,0,0,0,0,0,-1,867,351,0,0
-350,673,0,0,0,0,0,0,0,0,0,-1,874,351,0,0
-343,673,0,0,0,0,0,0,0,0,0,-1,881,351,0,0
-336,673,0,0,0,0,0,0,0,0,0,-1,888,351,0,0
-329,673,0,0,0,0,0,0,0,0,0,-1,895,351,0,0
-322,673,0,0,0,0,0,0,0,0,0,-1,902,351,0,0
-315,673,0,0,0,0,0,0,0,0,0,-1,909,351,0,0
-308,673,0,0,0,0,0,0,0,0,0,-1,916,351,0,0
-301,673,0,0,0,0,0,0,0,0,0,-1,923,351,0,0
-294,673,0,0,0,0,0,0,0,0,0,-1,930,351,0,0
-287,673,0,0,0,0,0,0,0,0,0,-1,937,351,0,0
-280,673,0,0,0,0,0,0,0,0,0,-1,944,351,0,0
-273,673,0,0,0,0,0,0,0,0,0,-1,951,351,0,0
-266,673,0,0,0,0,0,0,0,0,0,-1,958,351,0,0
-259,673,0,0,0,0,0,0,0,0,0,-1,965,351,0,0
-252,673,0,0,0,0,0,0,0,0,0,-1,972,351,0,0
-245,673,0,0,0,0,0,0,0,0,0,-1,979,351,0,0
-238,673,0,0,0,0,0,0,0,0,0,-1,986,351,0,0
-231,673,0,0,0,0,0,0,0,0,0,-1,993,351,0,0
-224,673,0,0,0,0,0,0,0,0,0,-1,1000,351,0,0
-217,673,0,0,0,0,0,0,0,0,0,-1,1007,351,0,0
-210,673,0,0,0,0,0,0,0,0,0,-1,1014,351,0,0
-203,673,0,0,0,0,0,0,0,0,0,-1,1021,351,0,0
-196,673,0,0,0,0,0,0,0,0,0,-1,1028,351,0,0
-189,673,0,0,0,0,0,0,0,0,0,-1,1035,351,0,0
-182,673,0,0,0,0,0,0,0,0,0,-1,1042,351,0,0
-175,673,7.10449,-31.8279,0,0,0,0,0,0,0,-1,1049,351,7.10448,31.8279
-168,673,7.33081,-32.7122,0,0,0,0,0,0,0,-1,1056,351,7.33085,32.7122
-161,673,7.8938,-33.5352,0,0,0,0,0,0,0,-1,1063,351,7.89385,33.5352
-154,673,8.80566,-35.3518,0,0,0,0,0,0,0,-1,1070,351,8.80563,35.3518
-147,673,2.89221,-37.7351,0,0,0,0,0,0,0,-1,1077,351,2.89224,37.7351
-140,673,3.35046,-37.7151,0,0,0,0,0,0,0,-1,1084,351,3.35046,37.715
-133,673,3.35339,-39.0288,0,0,0,0,0,0,0,-1,1091,351,3.35342,39.0288
-126,673,3.7533,-38.0453,0,0,0,0,0,0,0,-1,1098,351,3.7533,38.0453
-119,673,4.1532,-37.0618,0,0,0,0,0,0,0,-1,1105,351,4.15318,37.0618
-112,673,7.27234,-32.5801,0,0,0,0,0,0,0,-1,1112,351,7.27231,32.5801
-105,673,21.1144,-43.3143,0,0,0,0,0,0,0,-1,1119,351,21.1143,43.3143
-98,673,14.8014,-36.7519,0,0,0,0,0,0,0,-1,1126,351,14.8014,36.7519
-91,673,8.54944,-29.9639,0,0,0,0,0,0,0,-1,1133,351,8.54949,29.9639
-84,673,2.17102,-24.3204,0,0,0,0,0,0,0,-1,1140,351,2.17107,24.3204
-77,673,-4.25378,-18.8346,0,0,0,0,0,0,0,-1,1147,351,-4.25381,18.8346
-70,673,-10.7933,-13.6681,0,0,0,0,0,0,0,-1,1154,351,-10.7934,13.6681
-63,673,-17.3896,-8.24469,0,0,0,0,0,0,0,-1,1161,351,-17.3896,8.2447
-56,673,-18.0282,2.79053,0,0,0,0,0,0,0,-1,1168,351,-18.0283,-2.79052
-49,673,-0.926758,-0.115448,0,0,0,0,0,0,0,-1,1175,351,-0.926732,0.115444
-42,673,-1.15015,0.289917,0,0,0,0,0,0,0,-1,1182,351,-1.15017,-0.289932
-35,673,-0.919556,-1.00711,0,0,0,0,0,0,0,-1,1189,351,-0.919514,1.00711
-28,673,5.28918,-39.2331,0,0,0,0,0,0,0,-1,1196,351,5.28924,39.2331
-21,673,6.81763,-45.6618,0,0,0,0,0,0,0,-1,1203,351,6.81767,45.6618
-14,673,6.59106,-45.8629,0.00637122,0.0397892,-0.00929734,0.0422016,0.00395873,-1.31691,0.0269121,0.0463904,1210,351,6.59103,45.8629
-7,673,6.55688,-46.1599,0.00650119,0.0370033,-0.00953061,0.0397363,0.00376816,-1.29153,0.0253284,0.0413364,1217,351,6.5569,46.1599
0,673,6.51038,-46.4239,0.00553667,0.0339743,-0.0099165,0.0370907,0.00242021,-1.2663,0.0239612,0.0456396,1224,351,6.51033,46.4239
7,673,6.47119,-46.4659,0,0,0,0,0,0,0,-1,1231,351,6.47121,46.4659
14,673,6.45764,-46.3098,0.000621666,0.0294196,-0.0113093,0.0333299,-0.00328865,-1.2379,0.0233933,0.0458988,1238,351,6.4576,46.3098
21,673,6.37378,-46.5662,-0.0031211,0.0276853,-0.0118461,0.0317137,-0.00714953,-1.243,0.023885,0.0362218,1245,351,6.37377,46.5662
28,673,6.38013,-46.6847,-0.00767003,0.0265168,-0.0124168,0.0305507,-0.0117039,-1.25668,0.0251916,0.0350767,1252,351,6.38011,46.6847
35,673,6.4054,-46.4778,0,0,0,0,0,0,0,-1,1259,351,6.40545,46.4778
42,673,5.98962,-46.7318,-0.0166605,0.0259107,-0.0126312,0.0293764,-0.0201261,-1.30302,0.0287461,0.0396776,1266,351,5.98965,46.7318
49,673,5.87,-46.8695,-0.0216801,0.0273257,-0.0112902,0.0298017,-0.0241561,-1.35491,0.0312094,0.0237623,1273,351,5.86996,46.8695
56,673,5.84546,-46.8627,-0.0267404,0.0310381,-0.00891468,0.0323823,-0.0280846,-1.42114,0.03494,0.0171508,1280,351,5.84544,46.8627
63,673,5.90479,-46.6375,-0.0321543,0.0357343,-0.00542124,0.0361645,-0.0325845,-1.49161,0.0397102,0.0215506,1287,351,5.90482,46.6375
70,673,5.82104,-46.5774,-0.0369373,0.0401931,-0.00152731,0.0402233,-0.0369675,-1.55101,0.0445794,0.0348698,1294,351,5.82111,46.5774
77,673,5.75281,-46.4554,-0.0403298,0.0458053,0.00285553,0.0458999,-0.0404243,1.53769,0.0498727,0.0414576,1301,351,5.75279,46.4555
84,673,5.65649,-46.6289,-0.041872,0.0520204,0.00796623,0.0526915,-0.042543,1.48675,0.0550876,0.0476202,1308,351,5.65647,46.6289
91,673,5.41553,-46.9764,0,0,0,0,0,0,0,-1,1315,351,5.41553,46.9764
98,673,5.44128,-46.8896,0,0,0,0,0,0,0,-1,1322,351,5.44129,46.8896
105,673,5.0719,-46.6387,0,0,0,0,0,0,0,-1,1329,351,5.07193,46.6387
112,673,4.72461,-46.0638,0,0,0,0,0,0,0,-1,1336,351,4.72465,46.0639
119,673,5.02246,-45.7307,0,0,0,0,0,0,0,-1,1343,351,5.02247,45.7307
126,673,4.96973,-45.5926,-0.0418659,0.0777517,0.0292802,0.0845344,-0.0486486,1.34316,0.0778181,0.0476817,1350,351,4.96974,45.5926
133,673,5.12085,-45.3323,-0.0403496,0.0784637,0.0299379,0.0855809,-0.0474669,1.3374,0.0778587,0.0469811,1357,351,5.1209,45.3323
140,673,5.2572,-45.2922,-0.0394356,0.0768401,0.0287314,0.0835521,-0.0461476,1.3413,0.075913,0.0459396,1364,351,5.25717,45.2922
147,673,5.104,-45.1387,-0.0385288,0.0744902,0.0270749,0.0806415,-0.0446801,1.34739,0.0733407,0.0443052,1371,351,5.10406,45.1387
154,673,4.67688,-44.82,-0.0376384,0.0716628,0.0254162,0.0772838,-0.0432594,1.35314,0.0705137,0.0397405,1378,351,4.67691,44.82
161,673,4.53027,-44.3157,0,0,0,0,0,0,0,-1,1385,351,4.53021,44.3157
168,673,6.87061,1.83954,0,0,0,0,0,0,0,-1,1392,351,6.87063,-1.83953
175,673,6.6228,1.1459,0,0,0,0,0,0,0,-1,1399,351,6.62276,-1.14591
182,673,6.37244,0.796112,0,0,0,0,0,0,0,-1,1406,351,6.3724,-0.796102
189,673,6.12097,0.265472,0,0,0,0,0,0,0,-1,1413,351,6.121,-0.265482
196,673,6.02173,3.12717,0,0,0,0,0,0,0,-1,1420,351,6.02176,-3.12717
203,673,5.04456,1.6351,0,0,0,0,0,0,0,-1,1427,351,5.04455,-1.63509
210,673,4.79224,0.447479,0,0,0,0,0,0,0,-1,1434,351,4.79229,-0.447469
217,673,2.01648,0.972687,0,0,0,0,0,0,0,-1,1441,351,2.01644,-0.972691
224,673,2.3689,-1.80539,0,0,0,0,0,0,0,-1,1448,351,2.36896,1.80539
231,673,2.65857,-2.18497,0,0,0,0,0,0,0,-1,1455,351,2.65852,2.18496
238,673,3.77844,-2.06088,0,0,0,0,0,0,0,-1,1462,351,3.77839,2.06088
245,673,3.5376,-0.190399,0,0,0,0,0,0,0,-1,1469,351,3.53759,0.1904
252,673,3.80518,0.55603,0,0,0,0,0,0,0,-1,1476,351,3.80519,-0.556022
259,673,3.88562,1.29617,0,0,0,0,0,0,0,-1,1483,351,3.88562,-1.29618
266,673,4.22424,2.04834,0,0,0,0,0,0,0,-1,1490,351,4.22429,-2.04834
273,673,6.07886,0.385895,0,0,0,0,0,0,0,-1,1497,351,6.0789,-0.385906
280,673,6.97534,-0.0820007,0,0,0,0,0,0,0,-1,1504,351,6.97536,0.0820122
287,673,7.66968,-0.348541,0,0,0,0,0,0,0,-1,1511,351,7.66969,0.348534
294,673,8.20996,0.28537,0,0,0,0,0,0,0,-1,1518,351,8.20993,-0.28536
301,673,0,0,0,0,0,0,0,0,0,-1,1525,351,0,0
308,673,0,0,0,0,0,0,0,0,0,-1,1532,351,0,0
315,673,0,0,0,0,0,0,0,0,0,-1,1539,351,0,0
322,673,0,0,0,0,0,0,0,0,0,-1,1546,351,0,0
329,673,0,0,0,0,0,0,0,0,0,-1,1553,351,0,0
336,673,0,0,0,0,0,0,0,0,0,-1,1560,351,0,0
343,673,0,0,0,0,0,0,0,0,0,-1,1567,351,0,0
350,673,0,0,0,0,0,0,0,0,0,-1,1574,351,0,0
357,673,0,0,0,0,0,0,0,0,0,-1,1581,351,0,0
364,673,0,0,0,0,0,0,0,0,0,-1,1588,351,0,0
371,673,0,0,0,0,0,0,0,0,0,-1,1595,351,0,0
378,673,0,0,0,0,0,0,0,0,0,-1,1602,351,0,0
385,673,0,0,0,0,0,0,0,0,0,-1,1609,351,0,0
392,673,0,0,0,0,0,0,0,0,0,-1,1616,351,0,0
399,673,0,0,0,0,0,0,0,0,0,-1,1623,351,0,0
406,673,0,0,0,0,0,0,0,0,0,-1,1630,351,0,0
413,673,0,0,0,0,0,0,0,0,0,-1,1637,351,0,0
420,673,0,0,0,0,0,0,0,0,0,-1,1644,351,0,0
427,673,0,0,0,0,0,0,0,0,0,-1,1651,351,0,0
434,673,0,0,0,0,0,0,0,0,0,-1,1658,351,0,0
441,673,0,0,0,0,0,0,0,0,0,-1,1665,351,0,0
448,673,0,0,0,0,0,0,0,0,0,-1,1672,351,0,0
455,673,0,0,0,0,0,0,0,0,0,-1,1679,351,0,0
462,673,0,0,0,0,0,0,0,0,0,-1,1686,351,0,0
469,673,0,0,0,0,0,0,0,0,0,-1,1693,351,0,0
476,673,0,0,0,0,0,0,0,0,0,-1,1700,351,0,0
483,673,0,0,0,0,0,0,0,0,0,-1,1707,351,0,0
490,673,0,0,0,0,0,0,0,0,0,-1,1714,351,0,0
497,673,0,0,0,0,0,0,0,0,0,-1,1721,351,0,0
504,673,0,0,0,0,0,0,0,0,0,-1,1728,351,0,0
511,673,0,0,0,0,0,0,0,0,0,-1,1735,351,0,0
518,673,0,0,0,0,0,0,0,0,0,-1,1742,351,0,0
525,673,0,0,0,0,0,0,0,0,0,-1,1749,351,0,0
532,673,0,0,0,0,0,0,0,0,0,-1,1756,351,0,0
539,673,0,0,0,0,0,0,0,0,0,-1,1763,351,0,0
546,673,0,0,0,0,0,0,0,0,0,-1,1770,351,0,0
553,673,0,0,0,0,0,0,0,0,0,-1,1777,351,0,0
560,673,0,0,0,0,0,0,0,0,0,-1,1784,351,0,0
567,673,0,0,0,0,0,0,0,0,0,-1,1791,351,0,0
574,673,0,0,0,0,0,0,0,0,0,-1,1798,351,0,0
581,673,0,0,0,0,0,0,0,0,0,-1,1805,351,0,0
588,673,0,0,0,0,0,0,0,0,0,-1,1812,351,0,0
595,673,0,0,0,0,0,0,0,0,0,-1,1819,351,0,0
602,673,0,0,0,0,0,0,0,0,0,-1,1826,351,0,0
609,673,0,0,0,0,0,0,0,0,0,-1,1833,351,0,0
616,673,0,0,0,0,0,0,0,0,0,-1,1840,351,0,0
623,673,0,0,0,0,0,0,0,0,0,-1,1847,351,0,0
630,673,0,0,0,0,0,0,0,0,0,-1,1854,351,0,0
637,673,0,0,0,0,0,0,0,0,0,-1,1861,351,0,0
644,673,0,0,0,0,0,0,0,0,0,-1,1868,351,0,0
651,673,0,0,0,0,0,0,0,0,0,-1,1875,351,0,0
658,673,0,0,0,0,0,0,0,0,0,-1,1882,351,0,0
665,673,0,0,0,0,0,0,0,0,0,-1,1889,351,0,0
672,673,0,0,0,0,0,0,0,0,0,-1,1896,351,0,0
679,673,0,0,0,0,0,0,0,0,0,-1,1903,351,0,0
686,673,0,0,0,0,0,0,0,0,0,-1,1910,351,0,0
693,673,0,0,0,0,0,0,0,0,0,-1,1917,351,0,0
700,673,0,0,0,0,0,0,0,0,0,-1,1924,351,0,0
707,673,0,0,0,0,0,0,0,0,0,-1,1931,351,0,0
714,673,0,0,0,0,0,0,0,0,0,-1,1938,351,0,0
721,673,0,0,0,0,0,0,0,0,0,-1,1945,351,0,0
728,673,0,0,0,0,0,0,0,0,0,-1,1952,351,0,0
735,673,0,0,0,0,0,0,0,0,0,-1,1959,351,0,0
742,673,0,0,0,0,0,0,0,0,0,-1,1966,351,0,0
749,673,0,0,0,0,0,0,0,0,0,-1,1973,351,0,0
756,673,0,0,0,0,0,0,0,0,0,-1,1980,351,0,0
763,673,0,0,0,0,0,0,0,0,0,-1,1987,351,0,0
770,673,0,0,0,0,0,0,0,0,0,-1,1994,351,0,0
777,673,0,0,0,0,0,0,0,0,0,-1,2001,351,0,0
784,673,0,0,0,0,0,0,0,0,0,-1,2008,351,0,0
791,673,0,0,0,0,0,0,0,0,0,-1,2015,351,0,0
798,673,0,0,0,0,0,0,0,0,0,-1,2022,351,0,0
805,673,0,0,0,0,0,0,0,0,0,-1,2029,351,0,0
812,673,0,0,0,0,0,0,0,0,0,-1,2036,351,0,0
-700,666,0,0,0,0,0,0,0,0,0,-1,524,358,0,0
-693,666,0,0,0,0,0,0,0,0,0,-1,531,358,0,0
-686,666,0,0,0,0,0,0,0,0,0,-1,538,358,0,0
-679,666,0,0,0,0,0,0,0,0,0,-1,545,358,0,0
-672,666,0,0,0,0,0,0,0,0,0,-1,552,358,0,0
-665,666,0,0,0,0,0,0,0,0,0,-1,559,358,0,0
-658,666,0,0,0,0,0,0,0,0,0,-1,566,358,0,0
-651,666,0,0,0,0,0,0,0,0,0,-1,573,358,0,0
-644,666,0,0,0,0,0,0,0,0,0,-1,580,358,0,0
-637,666,0,0,0,0,0,0,0,0,0,-1,587,358,0,0
-630,666,0,0,0,0,0,0,0,0,0,-1,594,358,0,0
-623,666,0,0,0,0,0,0,0,0,0,-1,601,358,0,0
-616,666,0,0,0,0,0,0,0,0,0,-1,608,358,0,0
-609,666,0,0,0,0,0,0,0,0,0,-1,615,358,0,0
-602,666,0,0,0,0,0,0,0,0,0,-1,622,358,0,0
-595,666,0,0,0,0,0,0,0,0,0,-1,629,358,0,0
-588,666,0,0,0,0,0,0,0,0,0,-1,636,358,0,0
-581,666,0,0,0,0,0,0,0,0,0,-1,643,358,0,0
-574,666,0,0,0,0,0,0,0,0,0,-1,650,358,0,0
-567,666,0,0,0,0,0,0,0,0,0,-1,657,358,0,0
-560,666,0,0,0,0,0,0,0,0,0,-1,664,358,0,0
-553,666,0,0,0,0,0,0,0,0,0,-1,671,358,0,0
-546,666,0,0,0,0,0,0,0,0,0,-1,678,358,0,0
-539,666,0,0,0,0,0,0,0,0,0,-1,685,358,0,0
-532,666,0,0,0,0,0,0,0,0,0,-1,692,358,0,0
-525,666,0,0,0,0,0,0,0,0,0,-1,699,358,0,0
-518,666,0,0,0,0,0,0,0,0,0,-1,706,358,0,0
-511,666,0,0,0,0,0,0,0,0,0,-1,713,358,0,0
-504,666,0,0,0,0,0,0,0,0,0,-1,720,358,0,0
-497,666,0,0,0,0,0,0,0,0,0,-1,727,358,0,0
-490,666,0,0,0,0,0,0,0,0,0,-1,734,358,0,0
-483,666,0,0,0,0,0,0,0,0,0,-1,741,358,0,0
-476,666,0,0,0,0,0,0,0,0,0,-1,748,358,0,0
-469,666,0,0,0,0,0,0,0,0,0,-1,755,358,0,0
-462,666,0,0,0,0,0,0,0,0,0,-1,762,358,0,0
-455,666,0,0,0,0,0,0,0,0,0,-1,769,358,0,0
-448,666,0,0,0,0,0,0,0,0,0,-1,776,358,0,0
-441,666,0,0,0,0,0,0,0,0,0,-1,783,358,0,0
-434,666,0,0,0,0,0,0,0,0,0,-1,790,358,0,0
-427,666,0,0,0,0,0,0,0,0,0,-1,797,358,0,0
-420,666,0,0,0,0,0,0,0,0,0,-1,804,358,0,0
-413,666,0,0,0,0,0,0,0,0,0,-1,811,358,0,0
-406,666,0,0,0,0,0,0,0,0,0,-1,818,358,0,0
-399,666,0,0,0,0,0,0,0,0,0,-1,825,358,0,0
-392,666,0,0,0,0,0,0,0,0,0,-1,832,358,0,0
-385,666,0,0,0,0,0,0,0,0,0,-1,839,358,0,0
-378,666,0,0,0,0,0,0,0,0,0,-1,846,358,0,0
-371,666,0,0,0,0,0,0,0,0,0,-1,853,358,0,0
-364,666,0,0,0,0,0,0,0,0,0,-1,860,358,0,0
-357,666,0,0,0,0,0,0,0,0,0,-1,867,358,0,0
-350,666,0,0,0,0,0,0,0,0,0,-1,874,358,0,0
-343,666,0,0,0,0,0,0,0,0,0,-1,881,358,0,0
-336,666,0,0,0,0,0,0,0,0,0,-1,888,358,0,0
-329,666,0,0,0,0,0,0,0,0,0,-1,895,358,0,0
-322,666,0,0,0,0,0,0,0,0,0,-1,902,358,0,0
-315,666,0,0,0,0,0,0,0,0,0,-1,909,358,0,0
-308,666,0,0,0,0,0,0,0,0,0,-1,916,358,0,0
-301,666,0,0,0,0,0,0,0,0,0,-1,923,358,0,0
-294,666,0,0,0,0,0,0,0,0,0,-1,930,358,0,0
-287,666,0,0,0,0,0,0,0,0,0,-1,937,358,0,0
-280,666,0,0,0,0,0,0,0,0,0,-1,944,358,0,0
-273,666,0,0,0,0,0,0,0,0,0,-1,951,358,0,0
-266,666,0,0,0,0,0,0,0,0,0,-1,958,358,0,0
-259,666,0,0,0,0,0,0,0,0,0,-1,965,358,0,0
-252,666,0,0,0,0,0,0,0,0,0,-1,972,358,0,0
-245,666,0,0,0,0,0,0,0,0,0,-1,979,358,0,0
-238,666,0,0,0,0,0,0,0,0,0,-1,986,358,0,0
-231,666,0,0,0,0,0,0,0,0,0,-1,993,358,0,0
-224,666,0,0,0,0,0,0,0,0,0,-1,1000,358,0,0
-217,666,0,0,0,0,0,0,0,0,0,-1,1007,358,0,0
-210,666,0,0,0,0,0,0,0,0,0,-1,1014,358,0,0
-203,666,0,0,0,0,0,0,0,0,0,-1,1021,358,0,0
-196,666,4.03418,-28.8724,0,0,0,0,0,0,0,-1,1028,358,4.03422,28.8724
-189,666,5.00366,-29.597,0,0,0,0,0,0,0,-1,1035,358,5.00363,29.597
-182,666,6.83252,-30.9843,0,0,0,0,0,0,0,-1,1042,358,6.83247,30.9844
-175,666,7.01611,-31.8763,0,0,0,0,0,0,0,-1,1049,358,7.01617,31.8762
-168,666,7.21545,-32.7414,0,0,0,0,0,0,0,-1,1056,358,7.2154,32.7414
-161,666,7.69116,-33.6269,0,0,0,0,0,0,0,-1,1063,358,7.69121,33.6269
-154,666,3.79041,-37.9204,0,0,0,0,0,0,0,-1,1070,358,3.79034,37.9204
-147,666,4.17908,-37.7466,0,0,0,0,0,0,0,-1,1077,358,4.17912,37.7466
-140,666,4.54309,-37.735,0,0,0,0,0,0,0,-1,1084,358,4.54304,37.735
-133,666,4.65723,-39.0643,0,0,0,0,0,0,0,-1,1091,358,4.65727,39.0643
-126,666,5.02368,-38.0699,0,0,0,0,0,0,0,-1,1098,358,5.02363,38.0698
-119,666,5.39001,-37.0754,0,0,0,0,0,0,0,-1,1105,358,5.38999,37.0754
-112,666,6.77014,-32.8165,0,0,0,0,0,0,0,-1,1112,358,6.77013,32.8165
-105,666,6.30908,-29.0855,0,0,0,0,0,0,0,-1,1119,358,6.30905,29.0855
-98,666,15.4427,-31.5168,0,0,0,0,0,0,0,-1,1126,358,15.4428,31.5168
-91,666,9.5127,-25.1347,0,0,0,0,0,0,0,-1,1133,358,9.51269,25.1347
-84,666,2.91589,-19.4071,0,0,0,0,0,0,0,-1,1140,358,2.91592,19.4071
-77,666,-3.48083,-14.0782,0,0,0,0,0,0,0,-1,1147,358,-3.48081,14.0782
-70,666,-9.99438,-8.90146,0,0,0,0,0,0,0,-1,1154,358,-9.99433,8.90146
-63,666,-11.7778,-0.975189,0,0,0,0,0,0,0,-1,1161,358,-11.7778,0.97519
-56,666,0.424683,-2.04132,0,0,0,0,0,0,0,-1,1168,358,0.424665,2.04132
-49,666,0.754395,-2.23169,0,0,0,0,0,0,0,-1,1175,358,0.754383,2.23169
-42,666,1.34473,-3.53897,0,0,0,0,0,0,0,-1,1182,358,1.34476,3.53896
-35,666,6.47083,-45.9054,0,0,0,0,0,0,0,-1,1189,358,6.47082,45.9054
-28,666,6.64587,-45.9381,0,0,0,0,0,0,0,-1,1196,358,6.6459,45.9381
-21,666,6.61426,-45.961,0.00241523,0.0335601,-0.00645351,0.0348444,0.00113096,-1.37436,0.0228619,0.0370839,1203,358,6.61427,45.961
-14,666,6.45251,-46.1696,0.00276891,0.0319473,-0.00669636,0.0334107,0.00130551,-1.35564,0.0218517,0.0331589,1210,358,6.45252,46.1696
-7,666,6.37109,-46.3776,0.00305008,0.0302809,-0.00687001,0.031916,0.00141504,-1.33715,0.0208217,0.0204992,1217,358,6.37111,46.3776
0,666,6.36792,-46.5753,0.00258422,0.0283042,-0.00716699,0.0301664,0.000721944,-1.31658,0.0198747,0.0135576,1224,358,6.36789,46.5753
7,666,6.28918,-46.6594,0.00141322,0.0270834,-0.00811985,0.0294362,-0.000939559,-1.28876,0.0199447,0.0196286,1231,358,6.28917,46.6594
14,666,6.23877,-46.7056,-0.000418378,0.0255237,-0.00839561,0.0280037,-0.00289836,-1.28357,0.0197064,0.0192948,1238,358,6.23878,46.7056
21,666,6.18005,-46.9151,-0.00294494,0.0244455,-0.00882324,0.0270417,-0.00554109,-1.28463,0.0201306,0.0165866,1245,358,6.18001,46.9151
28,666,6.13196,-47.0466,-0.00608035,0.0237409,-0.00929013,0.0263983,-0.00873769,-1.2922,0.0211227,0.0229832,1252,358,6.13198,47.0466
35,666,6.10095,-47.0154,-0.00896215,0.0234203,-0.0096984,0.0261027,-0.0116446,-1.30096,0.0223199,0.0206401,1259,358,6.10096,47.0154
42,666,5.98792,-47.1074,-0.0122805,0.0233876,-0.00953642,0.0257772,-0.0146701,-1.32527,0.0236439,0.0165692,1266,358,5.98793,47.1074
49,666,5.90356,-47.1699,-0.015872,0.0243367,-0.00863602,0.0261131,-0.0176484,-1.36793,0.0254228,0.0153878,1273,358,5.90362,47.1699
56,666,5.85706,-47.1949,-0.0194879,0.0269407,-0.00701488,0.0279775,-0.0205247,-1.42407,0.0281127,0.0159214,1280,358,5.85704,47.1949
63,666,5.81189,-47.2792,-0.0234302,0.0301915,-0.00455893,0.0305764,-0.0238151,-1.48658,0.0314837,0.018633,1287,358,5.81195,47.2792
70,666,5.77405,-47.2327,-0.0269468,0.0331398,-0.00182301,0.0331951,-0.0270021,-1.54049,0.0348161,0.0181864,1294,358,5.77407,47.2327
77,666,5.6991,-47.0935,-0.0294152,0.0370131,0.00127599,0.0370376,-0.0294397,1.5516,0.0384642,0.0220054,1301,358,5.69911,47.0935
84,666,5.66833,-47.1423,-0.030565,0.0414136,0.00492929,0.0417496,-0.030901,1.50274,0.0421004,0.0315626,1308,358,5.66837,47.1423
91,666,5.63989,-47.1602,-0.0313678,0.0462744,0.00851744,0.0471978,-0.0322912,1.46281,0.0461612,0.0273721,1315,358,5.63991,47.1602
98,666,5.4812,-47.0547,-0.032278,0.05042,0.0118145,0.0520748,-0.0339328,1.43164,0.0500234,0.023239,1322,358,5.48118,47.0547
105,666,5.31531,-46.8845,-0.0323084,0.0540122,0.0150071,0.0565468,-0.034843,1.40348,0.0532576,0.0257401,1329,358,5.31531,46.8845
112,666,5.2605,-46.7427,0,0,0,0,0,0,0,-1,1336,358,5.26049,46.7427
119,666,5.29187,-46.6297,0,0,0,0,0,0,0,-1,1343,358,5.2919,46.6297
126,666,5.09717,-46.1748,-0.0299417,0.0605275,0.0210597,0.0651895,-0.0346038,1.35293,0.0585108,0.0347725,1350,358,5.09718,46.1748
133,666,5.08276,-46.067,-0.0286828,0.0611304,0.0216071,0.0660582,-0.0336106,1.34657,0.0585515,0.031831,1357,358,5.08273,46.0671
140,666,4.98547,-46.0602,-0.0279743,0.0600852,0.0208831,0.0647866,-0.0326756,1.34936,0.0572788,0.02848,1364,358,4.98552,46.0602
147,666,4.8551,-45.8638,-0.0271692,0.0584302,0.0197108,0.0627509,-0.0314899,1.35501,0.0553988,0.0254341,1371,358,4.85516,45.8638
154,666,4.85913,-45.3824,-0.0263171,0.0562395,0.0184735,0.0601847,-0.0302623,1.3604,0.0531636,0.0239997,1378,358,4.85918,45.3825
161,666,4.85669,-45.0932,-0.0254173,0.0535268,0.0174871,0.057227,-0.0291175,1.36228,0.0507239,0.0321986,1385,358,4.85663,45.0932
168,666,4.797,-45.1951,0,0,0,0,0,0,0,-1,1392,358,4.79703,45.1951
175,666,4.90186,-45.0492,0,0,0,0,0,0,0,-1,1399,358,4.90185,45.0492
182,666,2.60876,-5.17068,0,0,0,0,0,0,0,-1,1406,358,2.6088,5.17068
189,666,2.46973,-5.49979,0,0,0,0,0,0,0,-1,1413,358,2.46975,5.49979
196,666,2.32458,-5.23651,0,0,0,0,0,0,0,-1,1420,358,2.32461,5.23653
203,666,2.28064,-3.88004,0,0,0,0,0,0,0,-1,1427,358,2.28059,3.88003
210,666,3.02576,-5.83548,0,0,0,0,0,0,0,-1,1434,358,3.02581,5.83547
217,666,2.30444,-5.36011,0,0,0,0,0,0,0,-1,1441,358,2.30447,5.3601
224,666,1.82324,-6.03101,0,0,0,0,0,0,0,-1,1448,358,1.82322,6.031
231,666,2.29797,-10.1093,0,0,0,0,0,0,0,-1,1455,358,2.29801,10.1093
238,666,2.52429,-6.10568,0,0,0,0,0,0,0,-1,1462,358,2.52423,6.10567
245,666,4.53345,-1.38205,0,0,0,0,0,0,0,-1,1469,358,4.53349,1.38204
252,666,4.77405,-0.246979,0,0,0,0,0,0,0,-1,1476,358,4.77405,0.246993
259,666,4.83655,1.14087,0,0,0,0,0,0,0,-1,1483,358,4.83652,-1.14087
266,666,6.14148,0.749512,0,0,0,0,0,0,0,-1,1490,358,6.14144,-0.749519
273,666,3.17737,-33.7881,0,0,0,0,0,0,0,-1,1497,358,3.17735,33.7881
280,666,3.37268,-35.2123,0,0,0,0,0,0,0,-1,1504,358,3.37266,35.2123
287,666,-7.06934,-20.3464,0,0,0,0,0,0,0,-1,1511,358,-7.06933,20.3464
294,666,-5.74683,-22.5017,0,0,0,0,0,0,0,-1,1518,358,-5.74685,22.5017
301,666,-6.6886,-23.5144,0,0,0,0,0,0,0,-1,1525,358,-6.68864,23.5144
308,666,-7.45471,-24.766,0,0,0,0,0,0,0,-1,1532,358,-7.45475,24.766
315,666,1.76294,-0.284027,0,0,0,0,0,0,0,-1,1539,358,1.76291,0.284016
322,666,0,0,0,0,0,0,0,0,0,-1,1546,358,0,0
329,666,0,0,0,0,0,0,0,0,0,-1,1553,358,0,0
336,666,0,0,0,0,0,0,0,0,0,-1,1560,358,0,0
343,666,0,0,0,0,0,0,0,0,0,-1,1567,358,0,0
350,666,0,0,0,0,0,0,0,0,0,-1,1574,358,0,0
357,666,0,0,0,0,0,0,0,0,0,-1,1581,358,0,0
364,666,0,0,0,0,0,0,0,0,0,-1,1588,358,0,0
371,666,0,0,0,0,0,0,0,0,0,-1,1595,358,0,0
378,666,0,0,0,0,0,0,0,0,0,-1,1602,358,0,0
385,666,0,0,0,0,0,0,0,0,0,-1,1609,358,0,0
392,666,0,0,0,0,0,0,0,0,0,-1,1616,358,0,0
399,666,0,0,0,0,0,0,0,0,0,-1,1623,358,0,0
406,666,0,0,0,0,0,0,0,0,0,-1,1630,358,0,0
413,666,0,0,0,0,0,0,0,0,0,-1,1637,358,0,0
420,666,0,0,0,0,0,0,0,0,0,-1,1644,358,0,0
427,666,0,0,0,0,0,0,0,0,0,-1,1651,358,0,0
434,666,0,0,0,0,0,0,0,0,0,-1,1658,358,0,0
441,666,0,0,0,0,0,0,0,0,0,-1,1665,358,0,0
448,666,0,0,0,0,0,0,0,0,0,-1,1672,358,0,0
455,666,0,0,0,0,0,0,0,0,0,-1,1679,358,0,0
462,666,0,0,0,0,0,0,0,0,0,-1,1686,358,0,0
469,666,0,0,0,0,0,0,0,0,0,-1,1693,358,0,0
476,666,0,0,0,0,0,0,0,0,0,-1,1700,358,0,0
483,666,0,0,0,0,0,0,0,0,0,-1,1707,358,0,0
490,666,0,0,0,0,0,0,0,0,0,-1,1714,358,0,0
497,666,0,0,0,0,0,0,0,0,0,-1,1721,358,0,0
504,666,0,0,0,0,0,0,0,0,0,-1,1728,358,0,0
511,666,0,0,0,0,0,0,0,0,0,-1,1735,358,0,0
518,666,0,0,0,0,0,0,0,0,0,-1,1742,358,0,0
525,666,0,0,0,0,0,0,0,0,0,-1,1749,358,0,0
532,666,0,0,0,0,0,0,0,0,0,-1,1756,358,0,0
539,666,0,0,0,0,0,0,0,0,0,-1,1763,358,0,0
546,666,0,0,0,0,0,0,0,0,0,-1,1770,358,0,0
553,666,0,0,0,0,0,0,0,0,0,-1,1777,358,0,0
560,666,0,0,0,0,0,0,0,0,0,-1,1784,358,0,0
567,666,0,0,0,0,0,0,0,0,0,-1,1791,358,0,0
574,666,0,0,0,0,0,0,0,0,0,-1,1798,358,0,0
581,666,0,0,0,0,0,0,0,0,0,-1,1805,358,0,0
588,666,0,0,0,0,0,0,0,0,0,-1,1812,358,0,0
595,666,0,0,0,0,0,0,0,0,0,-1,1819,358,0,0
602,666,0,0,0,0,0,0,0,0,0,-1,1826,358,0,0
609,666,0,0,0,0,0,0,0,0,0,-1,1833,358,0,0
616,666,0,0,0,0,0,0,0,0,0,-1,1840,358,0,0
623,666,0,0,0,0,0,0,0,0,0,-1,1847,358,0,0
630,666,0,0,0,0,0,0,0,0,0,-1,1854,358,0,0
637,666,0,0,0,0,0,0,0,0,0,-1,1861,358,0,0
644,666,0,0,0,0,0,0,0,0,0,-1,1868,358,0,0
651,666,0,0,0,0,0,0,0,0,0,-1,1875,358,0,0
658,666,0,0,0,0,0,0,0,0,0,-1,1882,358,0,0
665,666,0,0,0,0,0,0,0,0,0,-1,1889,358,0,0
672,666,0,0,0,0,0,0,0,0,0,-1,1896,358,0,0
679,666,0,0,0,0,0,0,0,0,0,-1,1903,358,0,0
686,666,0,0,0,0,0,0,0,0,0,-1,1910,358,0,0
693,666,0,0,0,0,0,0,0,0,0,-1,1917,358,0,0
700,666,0,0,0,0,0,0,0,0,0,-1,1924,358,0,0
707,666,0,0,0,0,0,0,0,0,0,-1,1931,358,0,0
714,666,0,0,0,0,0,0,0,0,0,-1,1938,358,0,0
721,666,0,0,0,0,0,0,0,0,0,-1,1945,358,0,0
728,666,0,0,0,0,0,0,0,0,0,-1,1952,358,0,0
735,666,0,0,0,0,0,0,0,0,0,-1,1959,358,0,0
742,666,0,0,0,0,0,0,0,0,0,-1,1966,358,0,0
749,666,0,0,0,0,0,0,0,0,0,-1,1973,358,0,0
756,666,0,0,0,0,0,0,0,0,0,-1,1980,358,0,0
763,666,0,0,0,0,0,0,0,0,0,-1,1987,358,0,0
770,666,0,0,0,0,0,0,0,0,0,-1,1994,358,0,0
777,666,0,0,0,0,0,0,0,0,0,-1,2001,358,0,0
784,666,0,0,0,0,0,0,0,0,0,-1,2008,358,0,0
791,666,0,0,0,0,0,0,0,0,0,-1,2015,358,0,0
798,666,0,0,0,0,0,0,0,0,0,-1,2022,358,0,0
805,666,0,0,0,0,0,0,0,0,0,-1,2029,358,0,0
812,666,0,0,0,0,0,0,0,0,0,-1,2036,358,0,0
-700,659,0,0,0,0,0,0,0,0,0,-1,524,365,0,0
-693,659,0,0,0,0,0,0,0,0,0,-1,531,365,0,0
-686,659,0,0,0,0,0,0,0,0,0,-1,538,365,0,0
-679,659,0,0,0,0,0,0,0,0,0,-1,545,365,0,0
-672,659,0,0,0,0,0,0,0,0,0,-1,552,365,0,0
-665,659,0,0,0,0,0,0,0,0,0,-1,559,365,0,0
-658,659,0,0,0,0,0,0,0,0,0,-1,566,365,0,0
-651,659,0,0,0,0,0,0,0,0,0,-1,573,365,0,0
-644,659,0,0,0,0,0,0,0,0,0,-1,580,365,0,0
-637,659,0,0,0,0,0,0,0,0,0,-1,587,365,0,0
-630,659,0,0,0,0,0,0,0,0,0,-1,594,365,0,0
-623,659,0,0,0,0,0,0,0,0,0,-1,601,365,0,0
-616,659,0,0,0,0,0,0,0,0,0,-1,608,365,0,0
-609,659,0,0,0,0,0,0,0,0,0,-1,615,365,0,0
-602,659,0,0,0,0,0,0,0,0,0,-1,622,365,0,0
-595,659,0,0,0,0,0,0,0,0,0,-1,629,365,0,0
-588,659,0,0,0,0,0,0,0,0,0,-1,636,365,0,0
-581,659,0,0,0,0,0,0,0,0,0,-1,643,365,0,0
-574,659,0,0,0,0,0,0,0,0,0,-1,650,365,0,0
-567,659,0,0,0,0,0,0,0,0,0,-1,657,365,0,0
-560,659,0,0,0,0,0,0,0,0,0,-1,664,365,0,0
-553,659,0,0,0,0,0,0,0,0,0,-1,671,365,0,0
-546,659,0,0,0,0,0,0,0,0,0,-1,678,365,0,0
-539,659,0,0,0,0,0,0,0,0,0,-1,685,365,0,0
-532,659,0,0,0,0,0,0,0,0,0,-1,692,365,0,0
-525,659,0,0,0,0,0,0,0,0,0,-1,699,365,0,0
-518,659,0,0,0,0,0,0,0,0,0,-1,706,365,0,0
-511,659,0,0,0,0,0,0,0,0,0,-1,713,365,0,0
-504,659,0,0,0,0,0,0,0,0,0,-1,720,365,0,0
-497,659,0,0,0,0,0,0,0,0,0,-1,727,365,0,0
-490,659,0,0,0,0,0,0,0,0,0,-1,734,365,0,0
-483,659,0,0,0,0,0,0,0,0,0,-1,741,365,0,0
-476,659,0,0,0,0,0,0,0,0,0,-1,748,365,0,0
-469,659,0,0,0,0,0,0,0,0,0,-1,755,365,0,0
-462,659,0,0,0,0,0,0,0,0,0,-1,762,365,0,0
-455,659,0,0,0,0,0,0,0,0,0,-1,769,365,0,0
-448,659,0,0,0,0,0,0,0,0,0,-1,776,365,0,0
-441,659,0,0,0,0,0,0,0,0,0,-1,783,365,0,0
-434,659,0,0,0,0,0,0,0,0,0,-1,790,365,0,0
-427,659,0,0,0,0,0,0,0,0,0,-1,797,365,0,0
-420,659,0,0,0,0,0,0,0,0,0,-1,804,365,0,0
-413,659,0,0,0,0,0,0,0,0,0,-1,811,365,0,0
-406,659,0,0,0,0,0,0,0,0,0,-1,818,365,0,0
-399,659,0,0,0,0,0,0,0,0,0,-1,825,365,0,0
-392,659,0,0,0,0,0,0,0,0,0,-1,832,365,0,0
-385,659,0,0,0,0,0,0,0,0,0,-1,839,365,0,0
-378,659,0,0,0,0,0,0,0,0,0,-1,846,365,0,0
-371,659,0,0,0,0,0,0,0,0,0,-1,853,365,0,0
-364,659,0,0,0,0,0,0,0,0,0,-1,860,365,0,0
-357,659,0,0,0,0,0,0,0,0,0,-1,867,365,0,0
-350,659,0,0,0,0,0,0,0,0,0,-1,874,365,0,0
-343,659,0,0,0,0,0,0,0,0,0,-1,881,365,0,0
-336,659,0,0,0,0,0,0,0,0,0,-1,888,365,0,0
-329,659,0,0,0,0,0,0,0,0,0,-1,895,365,0,0
-322,659,0,0,0,0,0,0,0,0,0,-1,902,365,0,0
-315,659,0,0,0,0,0,0,0,0,0,-1,909,365,0,0
-308,659,0,0,0,0,0,0,0,0,0,-1,916,365,0,0
-301,659,0,0,0,0,0,0,0,0,0,-1,923,365,0,0
-294,659,0,0,0,0,0,0,0,0,0,-1,930,365,0,0
-287,659,0,0,0,0,0,0,0,0,0,-1,937,365,0,0
-280,659,0,0,0,0,0,0,0,0,0,-1,944,365,0,0
-273,659,0,0,0,0,0,0,0,0,0,-1,951,365,0,0
-266,659,0,0,0,0,0,0,0,0,0,-1,958,365,0,0
-259,659,0,0,0,0,0,0,0,0,0,-1,965,365,0,0
-252,659,0,0,0,0,0,0,0,0,0,-1,972,365,0,0
-245,659,0,0,0,0,0,0,0,0,0,-1,979,365,0,0
-238,659,0,0,0,0,0,0,0,0,0,-1,986,365,0,0
-231,659,0,0,0,0,0,0,0,0,0,-1,993,365,0,0
-224,659,0,0,0,0,0,0,0,0,0,-1,1000,365,0,0
-217,659,10.1305,-25.2622,0,0,0,0,0,0,0,-1,1007,365,10.1305,25.2622
-210,659,9.65643,-25.515,0,0,0,0,0,0,0,-1,1014,365,9.65642,25.515
-203,659,8.58911,-25.7432,0,0,0,0,0,0,0,-1,1021,365,8.58916,25.7432
-196,659,2.68323,-27.8121,0,0,0,0,0,0,0,-1,1028,365,2.6832,27.8121
-189,659,6.88049,-28.9412,0,0,0,0,0,0,0,-1,1035,365,6.88045,28.9412
-182,659,6.94189,-30.6316,0,0,0,0,0,0,0,-1,1042,365,6.94189,30.6316
-175,659,6.948,-32.0092,0,0,0,0,0,0,0,-1,1049,365,6.94798,32.0093
-168,659,7.1416,-32.7405,0,0,0,0,0,0,0,-1,1056,365,7.14157,32.7405
-161,659,7.57361,-33.7099,0,0,0,0,0,0,0,-1,1063,365,7.57355,33.7099
-154,659,7.71448,-34.8995,0,0,0,0,0,0,0,-1,1070,365,7.7145,34.8995
-147,659,5.46606,-37.758,0,0,0,0,0,0,0,-1,1077,365,5.46601,37.758
-140,659,5.7356,-37.755,0,0,0,0,0,0,0,-1,1084,365,5.73562,37.755
-133,659,5.91455,-37.9017,0,0,0,0,0,0,0,-1,1091,365,5.9146,37.9017
-126,659,6.31226,-37.9904,0,0,0,0,0,0,0,-1,1098,365,6.3122,37.9904
-119,659,6.26941,-35.0837,0,0,0,0,0,0,0,-1,1105,365,6.26943,35.0837
-112,659,6.24353,-35.0562,0,0,0,0,0,0,0,-1,1112,365,6.24349,35.0562
-105,659,5.38696,-30.5854,0,0,0,0,0,0,0,-1,1119,365,5.387,30.5854
-98,659,4.68042,-26.2438,0,0,0,0,0,0,0,-1,1126,365,4.68041,26.2438
-91,659,4.20776,-20.8654,0,0,0,0,0,0,0,-1,1133,365,4.20777,20.8654
-84,659,2.8584,-17.8303,0,0,0,0,0,0,0,-1,1140,365,2.85836,17.8303
-77,659,2.80139,-15.3457,0,0,0,0,0,0,0,-1,1147,365,2.80139,15.3457
-70,659,2.9353,-12.7028,0,0,0,0,0,0,0,-1,1154,365,2.93533,12.7028
-63,659,2.11267,-9.7796,0,0,0,0,0,0,0,-1,1161,365,2.11266,9.7796
-56,659,2.11182,-9.91541,0,0,0,0,0,0,0,-1,1168,365,2.11178,9.91541
-49,659,6.58081,-45.2746,0,0,0,0,0,0,0,-1,1175,365,6.58083,45.2746
-42,659,6.57715,-45.5478,0,0,0,0,0,0,0,-1,1182,365,6.57712,45.5478
-35,659,6.48389,-45.8311,-0.00244016,0.0253125,-0.00384551,0.0258355,-0.00296315,-1.43563,0.0182916,0.0427906,1189,365,6.48383,45.8311
-28,659,6.4823,-45.9735,-0.000862679,0.0254623,-0.0042535,0.0261326,-0.00153288,-1.41452,0.0179545,0.0161379,1196,365,6.4823,45.9735
-21,659,6.42554,-46.1896,0.000115231,0.0257541,-0.00445847,0.0265073,-0.00063795,-1.40344,0.0178879,0.0127627,1203,365,6.42558,46.1896
-14,659,6.34155,-46.4193,0.000543078,0.024827,-0.00461435,0.0256742,-0.000304165,-1.38921,0.0172184,0.0113173,1210,365,6.3416,46.4193
-7,659,6.28528,-46.5931,0.000921899,0.0238456,-0.00473752,0.0247861,-1.85929e-05,-1.37482,0.0165303,0.0112903,1217,365,6.28528,46.5931
0,659,6.2522,-46.7418,0.000812669,0.02255,-0.00495415,0.0236258,-0.000263184,-1.35695,0.015839,0.00971088,1224,365,6.25216,46.7418
7,659,6.21228,-46.867,0.000236944,0.0218486,-0.00572282,0.0232704,-0.00118493,-1.32727,0.0159233,0.00940692,1231,365,6.2123,46.867
14,659,6.15137,-46.9456,-0.000746869,0.0209005,-0.00597918,0.0224422,-0.00228857,-1.31845,0.0157797,0.0118195,1238,365,6.15141,46.9456
21,659,6.1073,-47.0645,-0.00233942,0.0202677,-0.00630859,0.0219089,-0.0039807,-1.31627,0.0160978,0.0124427,1245,365,6.10729,47.0646
28,659,6.04224,-47.1786,-0.00437469,0.0198855,-0.00667924,0.0216029,-0.00609202,-1.31913,0.0168048,0.011677,1252,365,6.04219,47.1786
35,659,5.99915,-47.2479,-0.00621247,0.0197775,-0.00699869,0.0215423,-0.00797727,-1.32378,0.0176328,0.0124722,1259,365,5.99919,47.2479
42,659,5.95532,-47.3102,-0.00843247,0.0197731,-0.00691619,0.0213777,-0.0100371,-1.34282,0.0185271,0.0136469,1266,365,5.95537,47.3101
49,659,5.88208,-47.3582,-0.0108852,0.0204418,-0.00633272,0.0216735,-0.0121169,-1.37869,0.0197673,0.0145692,1273,365,5.88208,47.3582
56,659,5.80408,-47.3727,-0.0133564,0.0222638,-0.00526452,0.0230256,-0.0141182,-1.42709,0.0216496,0.0186158,1280,365,5.80413,47.3727
63,659,5.78638,-47.4104,-0.0160875,0.024465,-0.00360689,0.0247833,-0.0164058,-1.48277,0.0239439,0.0179451,1287,365,5.78639,47.4104
70,659,5.7522,-47.4037,-0.0185494,0.0263506,-0.00175912,0.0264194,-0.0186182,-1.5317,0.0261322,0.0175846,1294,365,5.75225,47.4038
77,659,5.67371,-47.3586,-0.0202523,0.0289465,0.000352742,0.028949,-0.0202548,1.56363,0.0285553,0.0171789,1301,365,5.67366,47.3586
84,659,5.62463,-47.358,-0.0210618,0.0319114,0.00284424,0.0320637,-0.0212141,1.51731,0.0309718,0.0132224,1308,365,5.62464,47.358
91,659,5.56946,-47.3027,-0.0216185,0.0353265,0.00540901,0.0358357,-0.0221277,1.47693,0.0337757,0.0121238,1315,365,5.56947,47.3027
98,659,5.52258,-47.198,-0.0222676,0.0382693,0.00784948,0.0392705,-0.0232689,1.44393,0.036499,0.00891486,1322,365,5.5226,47.198
105,659,5.4845,-47.0607,-0.0222572,0.0408265,0.0101813,0.0424289,-0.0238596,1.41468,0.038769,0.0100783,1329,365,5.48455,47.0607
112,659,5.45398,-46.9283,-0.0218495,0.0425692,0.0126445,0.0449622,-0.0242426,1.38375,0.0405479,0.014648,1336,365,5.45393,46.9283
119,659,5.38782,-46.7742,-0.0212147,0.0442007,0.0136725,0.0469434,-0.0239574,1.37282,0.0416455,0.0169529,1343,365,5.38782,46.7742
126,659,5.3092,-46.5825,-0.0202946,0.0452519,0.0144543,0.0482978,-0.0233405,1.36311,0.0421888,0.0157145,1350,365,5.30921,46.5825
133,659,5.24194,-46.4097,-0.0193748,0.0457568,0.0148883,0.0489987,-0.0226167,1.35639,0.042272,0.0142335,1357,365,5.24189,46.4097
140,659,5.19055,-46.2778,-0.0189077,0.0451843,0.0145299,0.0483244,-0.0220478,1.35795,0.0415628,0.0109197,1364,365,5.19053,46.2778
147,659,5.14282,-46.0789,-0.0183168,0.0441596,0.0137909,0.0470684,-0.0212256,1.36292,0.0403596,0.00971295,1371,365,5.14284,46.0789
154,659,5.06897,-45.8114,-0.0176544,0.0426379,0.0129634,0.045307,-0.0203234,1.36774,0.0387961,0.0115711,1378,365,5.069,45.8114
161,659,5.01501,-45.5516,-0.0169489,0.0407138,0.0122866,0.0432227,-0.0194577,1.36937,0.0370454,0.0132037,1385,365,5.01504,45.5516
168,659,4.9845,-45.2812,-0.0162088,0.0383205,0.0115756,0.0406761,-0.0185643,1.37005,0.0349876,0.0192931,1392,365,4.98446,45.2812
175,659,4.96216,-45.0198,-0.0161273,0.0364725,0.0113151,0.0388032,-0.0184581,1.36765,0.0337483,0.042466,1399,365,4.96217,45.0198
182,659,4.80896,-44.8311,0,0,0,0,0,0,0,-1,1406,365,4.80891,44.8311
189,659,4.83899,-44.3479,0,0,0,0,0,0,0,-1,1413,365,4.83896,44.3479
196,659,2.41248,-13.4371,0,0,0,0,0,0,0,-1,1420,365,2.41243,13.4371
203,659,2.38623,-12.2163,0,0,0,0,0,0,0,-1,1427,365,2.38617,12.2163
210,659,2.20789,-13.9792,0,0,0,0,0,0,0,-1,1434,365,2.20794,13.9792
217,659,2.24121,-13.487,0,0,0,0,0,0,0,-1,1441,365,2.24116,13.487
224,659,2.3479,-15.2926,0,0,0,0,0,0,0,-1,1448,365,2.34793,15.2926
231,659,2.47974,-17.8629,0,0,0,0,0,0,0,-1,1455,365,2.47976,17.8628
238,659,3.57886,-21.1258,0,0,0,0,0,0,0,-1,1462,365,3.57889,21.1258
245,659,3.29883,-25.0283,0,0,0,0,0,0,0,-1,1469,365,3.29889,25.0283
252,659,2.81909,-24.1604,0,0,0,0,0,0,0,-1,1476,365,2.81905,24.1604
259,659,2.33069,-3.36703,0,0,0,0,0,0,0,-1,1483,365,2.33073,3.36702
266,659,3.40918,-35.2544,0,0,0,0,0,0,0,-1,1490,365,3.40913,35.2544
273,659,3.73572,-39.0871,0,0,0,0,0,0,0,-1,1497,365,3.73571,39.0871
280,659,4.17102,-38.8643,0,0,0,0,0,0,0,-1,1504,365,4.17102,38.8643
287,659,4.36707,-36.4146,0,0,0,0,0,0,0,-1,1511,365,4.36704,36.4146
294,659,3.82178,-38.0821,0,0,0,0,0,0,0,-1,1518,365,3.8218,38.0821
301,659,-4.62512,-23.1952,0,0,0,0,0,0,0,-1,1525,365,-4.62517,23.1952
308,659,-5.4707,-23.9547,0,0,0,0,0,0,0,-1,1532,365,-5.47067,23.9547
315,659,-6.55835,-24.4516,0,0,0,0,0,0,0,-1,1539,365,-6.55841,24.4516
322,659,-4.974,-25.1078,0,0,0,0,0,0,0,-1,1546,365,-4.97395,25.1078
329,659,-7.67749,-23.0449,0,0,0,0,0,0,0,-1,1553,365,-7.67745,23.0449
336,659,-7.71436,-22.4188,0,0,0,0,0,0,0,-1,1560,365,-7.71432,22.4188
343,659,0,0,0,0,0,0,0,0,0,-1,1567,365,0,0
350,659,0,0,0,0,0,0,0,0,0,-1,1574,365,0,0
357,659,0,0,0,0,0,0,0,0,0,-1,1581,365,0,0
364,659,0,0,0,0,0,0,0,0,0,-1,1588,365,0,0
371,659,0,0,0,0,0,0,0,0,0,-1,1595,365,0,0
378,659,0,0,0,0,0,0,0,0,0,-1,1602,365,0,0
385,659,0,0,0,0,0,0,0,0,0,-1,1609,365,0,0
392,659,0,0,0,0,0,0,0,0,0,-1,1616,365,0,0
399,659,0,0,0,0,0,0,0,0,0,-1,1623,365,0,0
406,659,0,0,0,0,0,0,0,0,0,-1,1630,365,0,0
413,659,0,0,0,0,0,0,0,0,0,-1,1637,365,0,0
420,659,0,0,0,0,0,0,0,0,0,-1,1644,365,0,0
427,659,0,0,0,0,0,0,0,0,0,-1,1651,365,0,0
434,659,0,0,0,0,0,0,0,0,0,-1,1658,365,0,0
441,659,0,0,0,0,0,0,0,0,0,-1,1665,365,0,0
448,659,0,0,0,0,0,0,0,0,0,-1,1672,365,0,0
455,659,0,0,0,0,0,0,0,0,0,-1,1679,365,0,0
462,659,0,0,0,0,0,0,0,0,0,-1,1686,365,0,0
469,659,0,0,0,0,0,0,0,0,0,-1,1693,365,0,0
476,659,0,0,0,0,0,0,0,0,0,-1,1700,365,0,0
483,659,0,0,0,0,0,0,0,0,0,-1,1707,365,0,0
490,659,0,0,0,0,0,0,0,0,0,-1,1714,365,0,0
497,659,0,0,0,0,0,0,0,0,0,-1,1721,365,0,0
504,659,0,0,0,0,0,0,0,0,0,-1,1728,365,0,0
511,659,0,0,0,0,0,0,0,0,0,-1,1735,365,0,0
518,659,0,0,0,0,0,0,0,0,0,-1,1742,365,0,0
525,659,0,0,0,0,0,0,0,0,0,-1,1749,365,0,0
532,659,0,0,0,0,0,0,0,0,0,-1,1756,365,0,0
539,659,0,0,0,0,0,0,0,0,0,-1,1763,365,0,0
546,659,0,0,0,0,0,0,0,0,0,-1,1770,365,0,0
553,659,0,0,0,0,0,0,0,0,0,-1,1777,365,0,0
560,659,0,0,0,0,0,0,0,0,0,-1,1784,365,0,0
567,659,0,0,0,0,0,0,0,0,0,-1,1791,365,0,0
574,659,0,0,0,0,0,0,0,0,0,-1,1798,365,0,0
581,659,0,0,0,0,0,0,0,0,0,-1,1805,365,0,0
588,659,0,0,0,0,0,0,0,0,0,-1,1812,365,0,0
595,659,0,0,0,0,0,0,0,0,0,-1,1819,365,0,0
602,659,0,0,0,0,0,0,0,0,0,-1,1826,365,0,0
609,659,0,0,0,0,0,0,0,0,0,-1,1833,365,0,0
616,659,0,0,0,0,0,0,0,0,0,-1,1840,365,0,0
623,659,0,0,0,0,0,0,0,0,0,-1,1847,365,0,0
630,659,0,0,0,0,0,0,0,0,0,-1,1854,365,0,0
637,659,0,0,0,0,0,0,0,0,0,-1,1861,365,0,0
644,659,0,0,0,0,0,0,0,0,0,-1,1868,365,0,0
651,659,0,0,0,0,0,0,0,0,0,-1,1875,365,0,0
658,659,0,0,0,0,0,0,0,0,0,-1,1882,365,0,0
665,659,0,0,0,0,0,0,0,0,0,-1,1889,365,0,0
672,659,0,0,0,0,0,0,0,0,0,-1,1896,365,0,0
679,659,0,0,0,0,0,0,0,0,0,-1,1903,365,0,0
686,659,0,0,0,0,0,0,0,0,0,-1,1910,365,0,0
693,659,0,0,0,0,0,0,0,0,0,-1,1917,365,0,0
700,659,0,0,0,0,0,0,0,0,0,-1,1924,365,0,0
707,659,0,0,0,0,0,0,0,0,0,-1,1931,365,0,0
714,659,0,0,0,0,0,0,0,0,0,-1,1938,365,0,0
721,659,0,0,0,0,0,0,0,0,0,-1,1945,365,0,0
728,659,0,0,0,0,0,0,0,0,0,-1,1952,365,0,0
735,659,0,0,0,0,0,0,0,0,0,-1,1959,365,0,0
742,659,0,0,0,0,0,0,0,0,0,-1,1966,365,0,0
749,659,0,0,0,0,0,0,0,0,0,-1,1973,365,0,0
756,659,0,0,0,0,0,0,0,0,0,-1,1980,365,0,0
763,659,0,0,0,0,0,0,0,0,0,-1,1987,365,0,0
770,659,0,0,0,0,0,0,0,0,0,-1,1994,365,0,0
777,659,0,0,0,0,0,0,0,0,0,-1,2001,365,0,0
784,659,0,0,0,0,0,0,0,0,0,-1,2008,365,0,0
791,659,0,0,0,0,0,0,0,0,0,-1,2015,365,0,0
798,659,0,0,0,0,0,0,0,0,0,-1,2022,365,0,0
805,659,0,0,0,0,0,0,0,0,0,-1,2029,365,0,0
812,659,0,0,0,0,0,0,0,0,0,-1,2036,365,0,0
-700,652,0,0,0,0,0,0,0,0,0,-1,524,372,0,0
-693,652,0,0,0,0,0,0,0,0,0,-1,531,372,0,0
-686,652,0,0,0,0,0,0,0,0,0,-1,538,372,0,0
-679,652,0,0,0,0,0,0,0,0,0,-1,545,372,0,0
-672,652,0,0,0,0,0,0,0,0,0,-1,552,372,0,0
-665,652,0,0,0,0,0,0,0,0,0,-1,559,372,0,0
-658,652,0,0,0,0,0,0,0,0,0,-1,566,372,0,0
-651,652,0,0,0,0,0,0,0,0,0,-1,573,372,0,0
-644,652,0,0,0,0,0,0,0,0,0,-1,580,372,0,0
-637,652,0,0,0,0,0,0,0,0,0,-1,587,372,0,0
-630,652,0,0,0,0,0,0,0,0,0,-1,594,372,0,0
-623,652,0,0,0,0,0,0,0,0,0,-1,601,372,0,0
-616,652,0,0,0,0,0,0,0,0,0,-1,608,372,0,0
-609,652,0,0,0,0,0,0,0,0,0,-1,615,372,0,0
-602,652,0,0,0,0,0,0,0,0,0,-1,622,372,0,0
-595,652,0,0,0,0,0,0,0,0,0,-1,629,372,0,0
-588,652,0,0,0,0,0,0,0,0,0,-1,636,372,0,0
-581,652,0,0,0,0,0,0,0,0,0,-1,643,372,0,0
-574,652,0,0,0,0,0,0,0,0,0,-1,650,372,0,0
-567,652,0,0,0,0,0,0,0,0,0,-1,657,372,0,0
-560,652,0,0,0,0,0,0,0,0,0,-1,664,372,0,0
-553,652,0,0,0,0,0,0,0,0,0,-1,671,372,0,0
-546,652,0,0,0,0,0,0,0,0,0,-1,678,372,0,0
-539,652,0,0,0,0,0,0,0,0,0,-1,685,372,0,0
-532,652,0,0,0,0,0,0,0,0,0,-1,692,372,0,0
-525,652,0,0,0,0,0,0,0,0,0,-1,699,372,0,0
-518,652,0,0,0,0,0,0,0,0,0,-1,706,372,0,0
-511,652,0,0,0,0,0,0,0,0,0,-1,713,372,0,0
-504,652,0,0,0,0,0,0,0,0,0,-1,720,372,0,0
-497,652,0,0,0,0,0,0,0,0,0,-1,727,372,0,0
-490,652,0,0,0,0,0,0,0,0,0,-1,734,372,0,0
-483,652,0,0,0,0,0,0,0,0,0,-1,741,372,0,0
-476,652,0,0,0,0,0,0,0,0,0,-1,748,372,0,0
-469,652,0,0,0,0,0,0,0,0,0,-1,755,372,0,0
-462,652,0,0,0,0,0,0,0,0,0,-1,762,372,0,0
-455,652,0,0,0,0,0,0,0,0,0,-1,769,372,0,0
-448,652,0,0,0,0,0,0,0,0,0,-1,776,372,0,0
-441,652,0,0,0,0,0,0,0,0,0,-1,783,372,0,0
-434,652,0,0,0,0,0,0,0,0,0,-1,790,372,0,0
-427,652,0,0,0,0,0,0,0,0,0,-1,797,372,0,0
-420,652,0,0,0,0,0,0,0,0,0,-1,804,372,0,0
-413,652,0,0,0,0,0,0,0,0,0,-1,811,372,0,0
-406,652,0,0,0,0,0,0,0,0,0,-1,818,372,0,0
-399,652,0,0,0,0,0,0,0,0,0,-1,825,372,0,0
-392,652,0,0,0,0,0,0,0,0,0,-1,832,372,0,0
-385,652,0,0,0,0,0,0,0,0,0,-1,839,372,0,0
-378,652,0,0,0,0,0,0,0,0,0,-1,846,372,0,0
-371,652,0,0,0,0,0,0,0,0,0,-1,853,372,0,0
-364,652,0,0,0,0,0,0,0,0,0,-1,860,372,0,0
-357,652,0,0,0,0,0,0,0,0,0,-1,867,372,0,0
-350,652,0,0,0,0,0,0,0,0,0,-1,874,372,0,0
-343,652,0,0,0,0,0,0,0,0,0,-1,881,372,0,0
-336,652,0,0,0,0,0,0,0,0,0,-1,888,372,0,0
-329,652,0,0,0,0,0,0,0,0,0,-1,895,372,0,0
-322,652,0,0,0,0,0,0,0,0,0,-1,902,372,0,0
-315,652,0,0,0,0,0,0,0,0,0,-1,909,372,0,0
-308,652,0,0,0,0,0,0,0,0,0,-1,916,372,0,0
-301,652,0,0,0,0,0,0,0,0,0,-1,923,372,0,0
-294,652,0,0,0,0,0,0,0,0,0,-1,930,372,0,0
-287,652,0,0,0,0,0,0,0,0,0,-1,937,372,0,0
-280,652,0,0,0,0,0,0,0,0,0,-1,944,372,0,0
-273,652,0,0,0,0,0,0,0,0,0,-1,951,372,0,0
-266,652,0,0,0,0,0,0,0,0,0,-1,958,372,0,0
-259,652,0,0,0,0,0,0,0,0,0,-1,965,372,0,0
-252,652,0,0,0,0,0,0,0,0,0,-1,972,372,0,0
-245,652,0,0,0,0,0,0,0,0,0,-1,979,372,0,0
-238,652,0,0,0,0,0,0,0,0,0,-1,986,372,0,0
-231,652,8.79358,-27.1656,0,0,0,0,0,0,0,-1,993,372,8.79357,27.1656
-224,652,8.84552,-27.675,0,0,0,0,0,0,0,-1,1000,372,8.84555,27.675
-217,652,9.03113,-27.7474,0,0,0,0,0,0,0,-1,1007,372,9.0311,27.7474
-210,652,9.72803,-30.4624,0,0,0,0,0,0,0,-1,1014,372,9.72805,30.4624
-203,652,7.2677,-26.0732,0,0,0,0,0,0,0,-1,1021,372,7.26775,26.0732
-196,652,5.90686,-26.957,0,0,0,0,0,0,0,-1,1028,372,5.9068,26.957
-189,652,6.21326,-28.3035,0,0,0,0,0,0,0,-1,1035,372,6.21331,28.3035
-182,652,6.45068,-29.9377,0,0,0,0,0,0,0,-1,1042,372,6.45074,29.9377
-175,652,6.72559,-31.6948,0,0,0,0,0,0,0,-1,1049,372,6.72563,31.6948
-168,652,7.08533,-32.8669,0,0,0,0,0,0,0,-1,1056,372,7.08532,32.8669
-161,652,7.85291,-37.3545,0,0,0,0,0,0,0,-1,1063,372,7.85294,37.3545
-154,652,7.54639,-37.9586,0,0,0,0,0,0,0,-1,1070,372,7.54642,37.9586
-147,652,7.27979,-38.7013,0,0,0,0,0,0,0,-1,1077,372,7.27981,38.7013
-140,652,5.6842,-33.9781,0,0,0,0,0,0,0,-1,1084,372,5.68421,33.9781
-133,652,6.3009,-35.2887,0,0,0,0,0,0,0,-1,1091,372,6.30093,35.2887
-126,652,5.86841,-37.0981,0,0,0,0,0,0,0,-1,1098,372,5.86845,37.0981
-119,652,6.88171,-41.4936,0,0,0,0,0,0,0,-1,1105,372,6.88172,41.4936
-112,652,6.80884,-41.9458,0,0,0,0,0,0,0,-1,1112,372,6.80886,41.9458
-105,652,6.63855,-39.9965,0,0,0,0,0,0,0,-1,1119,372,6.63852,39.9965
-98,652,5.84302,-35.2455,0,0,0,0,0,0,0,-1,1126,372,5.84307,35.2455
-91,652,5.66296,-32.9003,0,0,0,0,0,0,0,-1,1133,372,5.66297,32.9003
-84,652,5.46057,-34.9186,0,0,0,0,0,0,0,-1,1140,372,5.46057,34.9186
-77,652,6.59497,-43.9658,0,0,0,0,0,0,0,-1,1147,372,6.59502,43.9658
-70,652,6.53638,-44.3814,0,0,0,0,0,0,0,-1,1154,372,6.53641,44.3814
-63,652,6.52759,-44.722,0,0,0,0,0,0,0,-1,1161,372,6.52758,44.722
-56,652,6.44775,-45.0479,0,0,0,0,0,0,0,-1,1168,372,6.44773,45.0479
-49,652,6.40027,-45.3159,-0.00540686,0.0160357,-0.00219654,0.0162584,-0.00562956,-1.46976,0.0131243,0.0379257,1175,372,6.40025,45.3159
-42,652,6.35083,-45.547,-0.00430591,0.0171215,-0.00233934,0.0173739,-0.00455833,-1.46331,0.0133637,0.0128852,1182,372,6.35083,45.547
-35,652,6.3252,-45.7937,-0.00313917,0.0181349,-0.00256091,0.0184388,-0.0034431,-1.45267,0.0135865,0.0102347,1189,372,6.32523,45.7937
-28,652,6.28027,-46.0194,-0.00200762,0.0186045,-0.00270565,0.0189537,-0.00235686,-1.44243,0.0134902,0.00793827,1196,372,6.28029,46.0194
-21,652,6.21497,-46.2471,-0.00122009,0.0189399,-0.00274004,0.0193057,-0.00158587,-1.43809,0.0134303,0.00782564,1203,372,6.21498,46.2471
-14,652,6.18494,-46.4506,-0.000697443,0.0185001,-0.00281119,0.0189033,-0.00110063,-1.42834,0.0129846,0.0104028,1210,372,6.18489,46.4506
-7,652,6.14636,-46.6367,-0.000181545,0.01797,-0.00288401,0.0184173,-0.000628752,-1.41696,0.012493,0.0139998,1217,372,6.14642,46.6367
0,652,6.09875,-46.7875,6.00375e-05,0.0171083,-0.0030216,0.017628,-0.000459664,-1.40047,0.0119082,0.0141738,1224,372,6.0988,46.7875
7,652,6.07739,-46.8752,2.50446e-06,0.016731,-0.00366067,0.017497,-0.000763479,-1.36453,0.0119273,0.0144223,1231,372,6.07738,46.8752
14,652,6.047,-46.9994,-0.000342858,0.016169,-0.00390332,0.0170452,-0.00121908,-1.34997,0.0117909,0.0119976,1238,372,6.04703,46.9994
21,652,5.98975,-47.1455,-0.00121266,0.0158157,-0.00417865,0.0167859,-0.0021828,-1.34267,0.0119846,0.0117299,1245,372,5.98974,47.1455
28,652,5.96094,-47.2652,-0.00240149,0.0156328,-0.00449319,0.0166903,-0.00345895,-1.33966,0.0124412,0.0110186,1252,372,5.96092,47.2652
35,652,5.91516,-47.3387,-0.00344122,0.0156576,-0.00475566,0.0167763,-0.00455987,-1.33977,0.012974,0.0108824,1259,372,5.91513,47.3387
42,652,5.87561,-47.3876,-0.00477338,0.0156144,-0.00478853,0.016683,-0.00584206,-1.35122,0.0134976,0.0116847,1266,372,5.8756,47.3876
49,652,5.85559,-47.4253,-0.00626946,0.0160076,-0.00453605,0.0168958,-0.00715767,-1.37743,0.0142616,0.0141355,1273,372,5.85553,47.4253
56,652,5.82373,-47.4283,-0.00773551,0.0171016,-0.0039992,0.0177296,-0.00836356,-1.41502,0.015385,0.0164669,1280,372,5.82375,47.4282
63,652,5.77429,-47.4643,-0.00931139,0.0183266,-0.00310463,0.018671,-0.00965585,-1.4603,0.0166283,0.0205591,1287,372,5.77433,47.4643
70,652,5.7644,-47.4332,-0.0107632,0.0192403,-0.00210837,0.0193877,-0.0109107,-1.50098,0.0177195,0.01822,1294,372,5.76435,47.4332
77,652,5.72375,-47.4084,-0.0116983,0.0206456,-0.000915864,0.0206716,-0.0117242,-1.54251,0.01894,0.0160695,1301,372,5.72372,47.4084
84,652,5.68396,-47.4037,-0.0121327,0.0223515,0.000547302,0.0223602,-0.0121414,1.55493,0.0202086,0.0138022,1308,372,5.68391,47.4037
91,652,5.61731,-47.3922,-0.0124571,0.0244091,0.00218194,0.0245378,-0.0125858,1.51189,0.0218005,0.0174284,1315,372,5.61727,47.3922
98,652,5.6062,-47.2893,-0.0129179,0.0262758,0.00384061,0.0266486,-0.0132907,1.47403,0.0234849,0.0140005,1322,372,5.60625,47.2893
105,652,5.57617,-47.1421,-0.012937,0.0280131,0.00544767,0.0287254,-0.0136493,1.44078,0.0249759,0.0113905,1329,372,5.57617,47.1421
112,652,5.54053,-46.9932,-0.0126606,0.0291857,0.00723027,0.0303998,-0.0138746,1.40444,0.0261486,0.00951507,1336,372,5.54048,46.9932
119,652,5.50903,-46.8428,-0.0122794,0.030353,0.00801576,0.0318103,-0.0137367,1.39095,0.0269778,0.0105329,1343,372,5.50898,46.8428
126,652,5.45215,-46.6818,-0.0117285,0.031281,0.00868094,0.0329671,-0.0134146,1.37896,0.0275602,0.0135095,1350,372,5.45217,46.6818
133,652,5.41394,-46.5164,-0.0112807,0.0318821,0.00916207,0.0337464,-0.013145,1.37006,0.0279301,0.0140799,1357,372,5.41397,46.5165
140,652,5.38013,-46.3374,-0.0112268,0.0318239,0.00917814,0.0336989,-0.0131018,1.36927,0.027879,0.0108871,1364,372,5.38009,46.3374
147,652,5.34375,-46.1211,-0.0110771,0.0315077,0.00892384,0.0333021,-0.0128715,1.37236,0.0275145,0.0098714,1371,372,5.3438,46.1211
154,652,5.28809,-45.8852,-0.010859,0.0307065,0.00858805,0.0324111,-0.0125635,1.37487,0.0267956,0.00936174,1378,372,5.28811,45.8852
161,652,5.2301,-45.6327,-0.0106257,0.0296563,0.00830907,0.0313029,-0.0122723,1.37516,0.0259456,0.011016,1385,372,5.23011,45.6327
168,652,5.18604,-45.3599,-0.0103814,0.0281556,0.00793314,0.0297248,-0.0119506,1.37551,0.02478,0.0122626,1392,372,5.18607,45.3599
175,652,5.15308,-45.0638,-0.0103623,0.026853,0.00782142,0.0284299,-0.0119393,1.37184,0.0239466,0.0127629,1399,372,5.15303,45.0638
182,652,5.08545,-44.8053,-0.01037,0.0252363,0.00772547,0.0268402,-0.011974,1.36609,0.0229507,0.0187524,1406,372,5.08549,44.8053
189,652,5.07275,-44.504,-0.00963329,0.0224905,0.00703397,0.0239632,-0.011106,1.36441,0.0206958,0.0310255,1413,372,5.07275,44.504
196,652,5.04248,-44.1712,0,0,0,0,0,0,0,-1,1420,372,5.04253,44.1712
203,652,4.97681,-43.815,0,0,0,0,0,0,0,-1,1427,372,4.97676,43.815
210,652,5.01294,-43.3286,0,0,0,0,0,0,0,-1,1434,372,5.01297,43.3287
217,652,4.89636,-43.0341,0,0,0,0,0,0,0,-1,1441,372,4.89634,43.034
224,652,3.63794,-31.2791,0,0,0,0,0,0,0,-1,1448,372,3.63799,31.2791
231,652,3.83936,-30.4812,0,0,0,0,0,0,0,-1,1455,372,3.8393,30.4812
238,652,4.42358,-36.4103,0,0,0,0,0,0,0,-1,1462,372,4.4236,36.4103
245,652,4.47998,-41.4346,0,0,0,0,0,0,0,-1,1469,372,4.47996,41.4346
252,652,4.65259,-40.9331,0,0,0,0,0,0,0,-1,1476,372,4.65257,40.9331
259,652,3.44922,-31.2655,0,0,0,0,0,0,0,-1,1483,372,3.44921,31.2655
266,652,4.06665,-39.5368,0,0,0,0,0,0,0,-1,1490,372,4.06668,39.5368
273,652,4.24939,-39.1519,0.0246643,0.0354658,0.00769842,0.0394689,0.0206611,1.09128,0.0227958,0.0483097,1497,372,4.2494,39.1519
280,652,4.61987,-38.9032,0.0273904,0.0391262,0.00936155,0.0443068,0.0222097,1.06535,0.0255806,0.0468486,1504,372,4.61983,38.9032
287,652,4.90161,-38.6077,0,0,0,0,0,0,0,-1,1511,372,4.90166,38.6077
294,652,-1.29785,-22.2879,0,0,0,0,0,0,0,-1,1518,372,-1.29784,22.2879
301,652,-2.1095,-23.0322,0,0,0,0,0,0,0,-1,1525,372,-2.10945,23.0322
308,652,-2.92908,-23.7858,0,0,0,0,0,0,0,-1,1532,372,-2.9291,23.7858
315,652,-3.74377,-24.4912,0,0,0,0,0,0,0,-1,1539,372,-3.74383,24.4912
322,652,-3.15454,-24.4286,0,0,0,0,0,0,0,-1,1546,372,-3.15457,24.4287
329,652,-3.75989,-24.8717,0,0,0,0,0,0,0,-1,1553,372,-3.75992,24.8717
336,652,-3.56519,-22.3688,0,0,0,0,0,0,0,-1,1560,372,-3.56517,22.3688
343,652,-3.58069,-21.9185,0,0,0,0,0,0,0,-1,1567,372,-3.58069,21.9185
350,652,5.28394,-25.6715,0,0,0,0,0,0,0,-1,1574,372,5.28393,25.6715
357,652,0,0,0,0,0,0,0,0,0,-1,1581,372,0,0
364,652,0,0,0,0,0,0,0,0,0,-1,1588,372,0,0
371,652,0,0,0,0,0,0,0,0,0,-1,1595,372,0,0
378,652,0,0,0,0,0,0,0,0,0,-1,1602,372,0,0
385,652,0,0,0,0,0,0,0,0,0,-1,1609,372,0,0
392,652,0,0,0,0,0,0,0,0,0,-1,1616,372,0,0
399,652,0,0,0,0,0,0,0,0,0,-1,1623,372,0,0
406,652,0,0,0,0,0,0,0,0,0,-1,1630,372,0,0
413,652,0,0,0,0,0,0,0,0,0,-1,1637,372,0,0
420,652,0,0,0,0,0,0,0,0,0,-1,1644,372,0,0
427,652,0,0,0,0,0,0,0,0,0,-1,1651,372,0,0
434,652,0,0,0,0,0,0,0,0,0,-1,1658,372,0,0
441,652,0,0,0,0,0,0,0,0,0,-1,1665,372,0,0
448,652,0,0,0,0,0,0,0,0,0,-1,1672,372,0,0
455,652,0,0,0,0,0,0,0,0,0,-1,1679,372,0,0
462,652,0,0,0,0,0,0,0,0,0,-1,1686,372,0,0
469,652,0,0,0,0,0,0,0,0,0,-1,1693,372,0,0
476,652,0,0,0,0,0,0,0,0,0,-1,1700,372,0,0
483,652,0,0,0,0,0,0,0,0,0,-1,1707,372,0,0
490,652,0,0,0,0,0,0,0,0,0,-1,1714,372,0,0
497,652,0,0,0,0,0,0,0,0,0,-1,1721,372,0,0
504,652,0,0,0,0,0,0,0,0,0,-1,1728,372,0,0
511,652,0,0,0,0,0,0,0,0,0,-1,1735,372,0,0
518,652,0,0,0,0,0,0,0,0,0,-1,1742,372,0,0
525,652,0,0,0,0,0,0,0,0,0,-1,1749,372,0,0
532,652,0,0,0,0,0,0,0,0,0,-1,1756,372,0,0
539,652,0,0,0,0,0,0,0,0,0,-1,1763,372,0,0
546,652,0,0,0,0,0,0,0,0,0,-1,1770,372,0,0
553,652,0,0,0,0,0,0,0,0,0,-1,1777,372,0,0
560,652,0,0,0,0,0,0,0,0,0,-1,1784,372,0,0
567,652,0,0,0,0,0,0,0,0,0,-1,1791,372,0,0
574,652,0,0,0,0,0,0,0,0,0,-1,1798,372,0,0
581,652,0,0,0,0,0,0,0,0,0,-1,1805,372,0,0
588,652,0,0,0,0,0,0,0,0,0,-1,1812,372,0,0
595,652,0,0,0,0,0,0,0,0,0,-1,1819,372,0,0
602,652,0,0,0,0,0,0,0,0,0,-1,1826,372,0,0
609,652,0,0,0,0,0,0,0,0,0,-1,1833,372,0,0
616,652,0,0,0,0,0,0,0,0,0,-1,1840,372,0,0
623,652,0,0,0,0,0,0,0,0,0,-1,1847,372,0,0
630,652,0,0,0,0,0,0,0,0,0,-1,1854,372,0,0
637,652,0,0,0,0,0,0,0,0,0,-1,1861,372,0,0
644,652,0,0,0,0,0,0,0,0,0,-1,1868,372,0,0
651,652,0,0,0,0,0,0,0,0,0,-1,1875,372,0,0
658,652,0,0,0,0,0,0,0,0,0,-1,1882,372,0,0
665,652,0,0,0,0,0,0,0,0,0,-1,1889,372,0,0
672,652,0,0,0,0,0,0,0,0,0,-1,1896,372,0,0
679,652,0,0,0,0,0,0,0,0,0,-1,1903,372,0,0
686,652,0,0,0,0,0,0,0,0,0,-1,1910,372,0,0
693,652,0,0,0,0,0,0,0,0,0,-1,1917,372,0,0
700,652,0,0,0,0,0,0,0,0,0,-1,1924,372,0,0
707,652,0,0,0,0,0,0,0,0,0,-1,1931,372,0,0
714,652,0,0,0,0,0,0,0,0,0,-1,1938,372,0,0
721,652,0,0,0,0,0,0,0,0,0,-1,1945,372,0,0
728,652,0,0,0,0,0,0,0,0,0,-1,1952,372,0,0
735,652,0,0,0,0,0,0,0,0,0,-1,1959,372,0,0
742,652,0,0,0,0,0,0,0,0,0,-1,1966,372,0,0
749,652,0,0,0,0,0,0,0,0,0,-1,1973,372,0,0
756,652,0,0,0,0,0,0,0,0,0,-1,1980,372,0,0
763,652,0,0,0,0,0,0,0,0,0,-1,1987,372,0,0
770,652,0,0,0,0,0,0,0,0,0,-1,1994,372,0,0
777,652,0,0,0,0,0,0,0,0,0,-1,2001,372,0,0
784,652,0,0,0,0,0,0,0,0,0,-1,2008,372,0,0
791,652,0,0,0,0,0,0,0,0,0,-1,2015,372,0,0
798,652,0,0,0,0,0,0,0,0,0,-1,2022,372,0,0
805,652,0,0,0,0,0,0,0,0,0,-1,2029,372,0,0
812,652,0,0,0,0,0,0,0,0,0,-1,2036,372,0,0
-700,645,0,0,0,0,0,0,0,0,0,-1,524,379,0,0
-693,645,0,0,0,0,0,0,0,0,0,-1,531,379,0,0
-686,645,0,0,0,0,0,0,0,0,0,-1,538,379,0,0
-679,645,0,0,0,0,0,0,0,0,0,-1,545,379,0,0
-672,645,0,0,0,0,0,0,0,0,0,-1,552,379,0,0
-665,645,0,0,0,0,0,0,0,0,0,-1,559,379,0,0
-658,645,0,0,0,0,0,0,0,0,0,-1,566,379,0,0
-651,645,0,0,0,0,0,0,0,0,0,-1,573,379,0,0
-644,645,0,0,0,0,0,0,0,0,0,-1,580,379,0,0
-637,645,0,0,0,0,0,0,0,0,0,-1,587,379,0,0
-630,645,0,0,0,0,0,0,0,0,0,-1,594,379,0,0
-623,645,0,0,0,0,0,0,0,0,0,-1,601,379,0,0
-616,645,0,0,0,0,0,0,0,0,0,-1,608,379,0,0
-609,645,0,0,0,0,0,0,0,0,0,-1,615,379,0,0
-602,645,0,0,0,0,0,0,0,0,0,-1,622,379,0,0
-595,645,0,0,0,0,0,0,0,0,0,-1,629,379,0,0
-588,645,0,0,0,0,0,0,0,0,0,-1,636,379,0,0
-581,645,0,0,0,0,0,0,0,0,0,-1,643,379,0,0
-574,645,0,0,0,0,0,0,0,0,0,-1,650,379,0,0
-567,645,0,0,0,0,0,0,0,0,0,-1,657,379,0,0
-560,645,0,0,0,0,0,0,0,0,0,-1,664,379,0,0
-553,645,0,0,0,0,0,0,0,0,0,-1,671,379,0,0
-546,645,0,0,0,0,0,0,0,0,0,-1,678,379,0,0
-539,645,0,0,0,0,0,0,0,0,0,-1,685,379,0,0
-532,645,0,0,0,0,0,0,0,0,0,-1,692,379,0,0
-525,645,0,0,0,0,0,0,0,0,0,-1,699,379,0,0
-518,645,0,0,0,0,0,0,0,0,0,-1,706,379,0,0
-511,645,0,0,0,0,0,0,0,0,0,-1,713,379,0,0
-504,645,0,0,0,0,0,0,0,0,0,-1,720,379,0,0
-497,645,0,0,0,0,0,0,0,0,0,-1,727,379,0,0
-490,645,0,0,0,0,0,0,0,0,0,-1,734,379,0,0
-483,645,0,0,0,0,0,0,0,0,0,-1,741,379,0,0
-476,645,0,0,0,0,0,0,0,0,0,-1,748,379,0,0
-469,645,0,0,0,0,0,0,0,0,0,-1,755,379,0,0
-462,645,0,0,0,0,0,0,0,0,0,-1,762,379,0,0
-455,645,0,0,0,0,0,0,0,0,0,-1,769,379,0,0
-448,645,0,0,0,0,0,0,0,0,0,-1,776,379,0,0
-441,645,0,0,0,0,0,0,0,0,0,-1,783,379,0,0
-434,645,0,0,0,0,0,0,0,0,0,-1,790,379,0,0
-427,645,0,0,0,0,0,0,0,0,0,-1,797,379,0,0
-420,645,0,0,0,0,0,0,0,0,0,-1,804,379,0,0
-413,645,0,0,0,0,0,0,0,0,0,-1,811,379,0,0
-406,645,0,0,0,0,0,0,0,0,0,-1,818,379,0,0
-399,645,0,0,0,0,0,0,0,0,0,-1,825,379,0,0
-392,645,0,0,0,0,0,0,0,0,0,-1,832,379,0,0
-385,645,0,0,0,0,0,0,0,0,0,-1,839,379,0,0
-378,645,0,0,0,0,0,0,0,0,0,-1,846,379,0,0
-371,645,0,0,0,0,0,0,0,0,0,-1,853,379,0,0
-364,645,0,0,0,0,0,0,0,0,0,-1,860,379,0,0
-357,645,0,0,0,0,0,0,0,0,0,-1,867,379,0,0
-350,645,0,0,0,0,0,0,0,0,0,-1,874,379,0,0
-343,645,0,0,0,0,0,0,0,0,0,-1,881,379,0,0
-336,645,0,0,0,0,0,0,0,0,0,-1,888,379,0,0
-329,645,0,0,0,0,0,0,0,0,0,-1,895,379,0,0
-322,645,0,0,0,0,0,0,0,0,0,-1,902,379,0,0
-315,645,0,0,0,0,0,0,0,0,0,-1,909,379,0,0
-308,645,0,0,0,0,0,0,0,0,0,-1,916,379,0,0
-301,645,0,0,0,0,0,0,0,0,0,-1,923,379,0,0
-294,645,0,0,0,0,0,0,0,0,0,-1,930,379,0,0
-287,645,0,0,0,0,0,0,0,0,0,-1,937,379,0,0
-280,645,0,0,0,0,0,0,0,0,0,-1,944,379,0,0
-273,645,0,0,0,0,0,0,0,0,0,-1,951,379,0,0
-266,645,0,0,0,0,0,0,0,0,0,-1,958,379,0,0
-259,645,0,0,0,0,0,0,0,0,0,-1,965,379,0,0
-252,645,2.95691,-26.9133,0,0,0,0,0,0,0,-1,972,379,2.9569,26.9133
-245,645,2.73169,-27.0215,0,0,0,0,0,0,0,-1,979,379,2.73172,27.0215
-238,645,2.6665,-26.9464,0,0,0,0,0,0,0,-1,986,379,2.66649,26.9464
-231,645,7.26807,-29.1054,0,0,0,0,0,0,0,-1,993,379,7.26806,29.1054
-224,645,7.69073,-29.5737,0,0,0,0,0,0,0,-1,1000,379,7.69071,29.5737
-217,645,8.65485,-33.4136,0,0,0,0,0,0,0,-1,1007,379,8.65487,33.4136
-210,645,9.21594,-32.5157,0,0,0,0,0,0,0,-1,1014,379,9.21591,32.5156
-203,645,9.77698,-31.6176,0,0,0,0,0,0,0,-1,1021,379,9.77696,31.6177
-196,645,10.2664,-29.7741,0,0,0,0,0,0,0,-1,1028,379,10.2664,29.7741
-189,645,5.88062,-28.2191,0,0,0,0,0,0,0,-1,1035,379,5.88062,28.2191
-182,645,6.34167,-29.2525,0,0,0,0,0,0,0,-1,1042,379,6.3417,29.2525
-175,645,6.36462,-35.5586,0,0,0,0,0,0,0,-1,1049,379,6.3646,35.5586
-168,645,7.00952,-39.0894,0,0,0,0,0,0,0,-1,1056,379,7.00951,39.0894
-161,645,7.22083,-37.6093,0,0,0,0,0,0,0,-1,1063,379,7.22085,37.6094
-154,645,6.97266,-38.081,0,0,0,0,0,0,0,-1,1070,379,6.97264,38.081
-147,645,6.80933,-38.6204,0,0,0,0,0,0,0,-1,1077,379,6.80938,38.6204
-140,645,6.70508,-40.1399,0,0,0,0,0,0,0,-1,1084,379,6.70505,40.1399
-133,645,6.71167,-40.8846,0,0,0,0,0,0,0,-1,1091,379,6.71168,40.8846
-126,645,6.6687,-41.33,0,0,0,0,0,0,0,-1,1098,379,6.66874,41.33
-119,645,6.57251,-41.7084,-0.00619567,0.0143091,-0.00569118,0.0157828,-0.00766937,-1.31742,0.0138075,0.028731,1105,379,6.57251,41.7084
-112,645,6.53064,-42.0956,-0.00611192,0.0127236,-0.0049563,0.0139482,-0.00733648,-1.32858,0.0124848,0.0249099,1112,379,6.53069,42.0956
-105,645,6.52075,-42.6893,0,0,0,0,0,0,0,-1,1119,379,6.52074,42.6893
-98,645,6.42517,-43.0767,0,0,0,0,0,0,0,-1,1126,379,6.42512,43.0767
-91,645,6.32886,-43.5007,0,0,0,0,0,0,0,-1,1133,379,6.32885,43.5007
-84,645,6.29822,-43.886,0,0,0,0,0,0,0,-1,1140,379,6.29819,43.886
-77,645,6.35461,-44.1566,-0.00535168,0.00545471,-0.00198859,0.00580903,-0.005706,-1.39447,0.0066483,0.0414762,1147,379,6.35465,44.1566
-70,645,6.26294,-44.4575,-0.00534376,0.00549959,-0.00179526,0.00578909,-0.00563326,-1.41091,0.0065949,0.0158423,1154,379,6.26292,44.4575
-63,645,6.23767,-44.7468,-0.0048556,0.00770003,-0.00182828,0.00796084,-0.0051164,-1.4291,0.00760945,0.0122943,1161,379,6.23769,44.7468
-56,645,6.20715,-45.0138,-0.00440826,0.00973209,-0.0017368,0.00994229,-0.00461846,-1.45036,0.00859192,0.0132773,1168,379,6.20717,45.0138
-49,645,6.17847,-45.2913,-0.00398875,0.0105829,-0.00160463,0.0107575,-0.00416336,-1.46241,0.00889054,0.0115802,1175,379,6.17849,45.2912
-42,645,6.12927,-45.5561,-0.00336872,0.0112517,-0.00152328,0.0114087,-0.00352574,-1.46808,0.00901389,0.0109432,1182,379,6.12925,45.5561
-35,645,6.09277,-45.8343,-0.0026799,0.0119568,-0.00151908,0.0121128,-0.00283589,-1.46846,0.00916789,0.0110638,1189,379,6.09273,45.8343
-28,645,6.05408,-46.0863,-0.00199771,0.0123079,-0.00151107,0.0124657,-0.00215558,-1.4667,0.00911438,0.00887347,1196,379,6.05404,46.0863
-21,645,6.01758,-46.2786,-0.00144306,0.0124547,-0.0014543,0.0126052,-0.00159361,-1.46764,0.00898195,0.0097018,1203,379,6.01752,46.2786
-14,645,6.01331,-46.4819,-0.00101566,0.0122037,-0.00144249,0.0123593,-0.00117123,-1.46336,0.0086564,0.0104019,1210,379,6.01328,46.4819
-7,645,6.01257,-46.6886,-0.000581622,0.0118749,-0.00145272,0.0120421,-0.000748798,-1.45622,0.00828895,0.0143757,1217,379,6.01252,46.6886
0,645,5.98218,-46.8134,-0.00022868,0.0113267,-0.00150898,0.0115205,-0.000422483,-1.44306,0.00782493,0.0261372,1224,379,5.98217,46.8134
7,645,5.92651,-46.9343,-2.66239e-06,0.0111471,-0.00193693,0.011474,-0.000329563,-1.4036,0.00776149,0.0176554,1231,379,5.92655,46.9343
14,645,5.9115,-47.0444,4.10077e-05,0.0108741,-0.00209207,0.0112641,-0.000348972,-1.3865,0.00762837,0.0164053,1238,379,5.91151,47.0444
21,645,5.87354,-47.1694,-0.000229746,0.0107533,-0.00224663,0.0111951,-0.000671536,-1.37663,0.00769699,0.0116129,1245,379,5.87349,47.1694
28,645,5.86877,-47.2948,-0.000661148,0.0107399,-0.00244353,0.0112415,-0.00116279,-1.36832,0.00791048,0.0105094,1252,379,5.8688,47.2948
35,645,5.84546,-47.3803,-0.00103452,0.0108629,-0.00260214,0.0114071,-0.00157875,-1.36462,0.0081819,0.00974963,1259,379,5.84546,47.3803
42,645,5.82471,-47.4451,-0.00157325,0.0108456,-0.00266617,0.0113938,-0.00212144,-1.36801,0.00839283,0.00894533,1266,379,5.82477,47.4451
49,645,5.84302,-47.4713,-0.00222749,0.0110682,-0.00260202,0.0115593,-0.00271858,-1.38426,0.00875424,0.0118155,1273,379,5.84297,47.4713
56,645,5.84399,-47.4687,-0.00287826,0.0116376,-0.00240647,0.0120261,-0.00326681,-1.41072,0.00929962,0.0123164,1280,379,5.84399,47.4687
63,645,5.80933,-47.5043,-0.00359034,0.0121665,-0.0020634,0.0124322,-0.00385606,-1.44272,0.00982895,0.0132126,1287,379,5.80933,47.5043
70,645,5.76453,-47.4822,-0.0042919,0.0124442,-0.00165059,0.0126055,-0.00445313,-1.47342,0.0102168,0.0167479,1294,379,5.76448,47.4822
77,645,5.75769,-47.4596,-0.00470469,0.0130549,-0.0011119,0.0131242,-0.00477404,-1.50851,0.0107019,0.017858,1301,379,5.75774,47.4596
84,645,5.75647,-47.4218,-0.00487572,0.0137869,-0.000499659,0.0138003,-0.00488909,-1.54405,0.0111917,0.013459,1308,379,5.75648,47.4218
91,645,5.6936,-47.3987,-0.0050447,0.0147285,0.000267905,0.0147321,-0.00504833,1.55725,0.0118676,0.0159308,1315,379,5.69358,47.3987
98,645,5.68079,-47.2995,-0.00532456,0.0156638,0.00113767,0.0157253,-0.00538605,1.5168,0.0126665,0.0139746,1322,379,5.68076,47.2995
105,645,5.67566,-47.1576,-0.00542872,0.0166566,0.00204913,0.0168451,-0.00561724,1.47906,0.0134979,0.0107374,1329,379,5.67562,47.1576
112,645,5.64722,-47.0093,-0.00531683,0.0173555,0.00314527,0.0177838,-0.00574507,1.43547,0.0141647,0.00900112,1336,379,5.64725,47.0093
119,645,5.63989,-46.8642,-0.00510984,0.0181463,0.00363032,0.0186998,-0.00566336,1.41949,0.014722,0.00907808,1343,379,5.63983,46.8642
126,645,5.6189,-46.7041,-0.00483307,0.0188946,0.00406413,0.0195714,-0.00550988,1.40578,0.0152204,0.0122076,1350,379,5.61886,46.7041
133,645,5.6145,-46.5367,-0.00469493,0.0195275,0.00447255,0.020327,-0.00549438,1.39392,0.0157064,0.0138448,1357,379,5.61451,46.5367
140,645,5.57947,-46.3643,-0.00480587,0.0198472,0.00470669,0.0207152,-0.0056739,1.38842,0.0160395,0.0136025,1364,379,5.57952,46.3643
147,645,5.52319,-46.1585,-0.00491542,0.0200743,0.00480278,0.0209655,-0.00580668,1.38731,0.0162619,0.0137519,1371,379,5.52322,46.1585
154,645,5.49878,-45.9398,-0.00496035,0.0198951,0.00480068,0.0207901,-0.00585535,1.38648,0.0161692,0.01228,1378,379,5.49872,45.9398
161,645,5.46484,-45.6866,-0.00500502,0.0195719,0.00480415,0.0204776,-0.00591073,1.38446,0.0159904,0.0147547,1385,379,5.4649,45.6865
168,645,5.4364,-45.4182,-0.00507346,0.0188819,0.00473249,0.0197829,-0.0059745,1.38265,0.0155671,0.0179073,1392,379,5.43639,45.4183
175,645,5.44519,-45.1358,-0.00526022,0.0181902,0.00477693,0.0191259,-0.00619596,1.37736,0.0152417,0.0159267,1399,379,5.44514,45.1358
182,645,5.39832,-44.8535,-0.00551134,0.017216,0.00485043,0.0182079,-0.00650322,1.36908,0.0147908,0.0115521,1406,379,5.39826,44.8535
189,645,5.36206,-44.4981,-0.00544792,0.0156526,0.00467088,0.0166403,-0.00643565,1.3624,0.0137503,0.0121195,1413,379,5.36205,44.4981
196,645,5.2998,-44.2043,-0.00494596,0.0137237,0.00441712,0.014716,-0.00593828,1.34981,0.0122785,0.0120562,1420,379,5.29976,44.2043
203,645,5.2417,-43.8405,-0.00405283,0.0119251,0.00416807,0.012947,-0.00507477,1.33036,0.0107307,0.0122154,1427,379,5.24173,43.8405
210,645,5.26233,-43.3832,-0.00344791,0.0106782,0.00389734,0.0116821,-0.00445183,1.31869,0.00962165,0.0231484,1434,379,5.26235,43.3832
217,645,5.24036,-43.1081,-0.00300652,0.0110648,0.00372382,0.0119895,-0.00393122,1.3274,0.00957628,0.0492503,1441,379,5.2403,43.1081
224,645,5.01721,-42.9721,0,0,0,0,0,0,0,-1,1448,379,5.01717,42.9721
231,645,5.03906,-42.255,0,0,0,0,0,0,0,-1,1455,379,5.03903,42.255
238,645,4.96912,-41.8665,0,0,0,0,0,0,0,-1,1462,379,4.96914,41.8665
245,645,4.93835,-41.4366,0.00671126,0.0188323,0.0044751,0.0203055,0.00523809,1.25278,0.0121726,0.0453813,1469,379,4.93836,41.4365
252,645,4.98535,-40.9078,0.00922962,0.0210355,0.00488128,0.0227923,0.00747282,1.22532,0.0134165,0.0381043,1476,379,4.9853,40.9078
259,645,4.64368,-40.2457,0,0,0,0,0,0,0,-1,1483,379,4.64364,40.2457
266,645,4.64148,-39.8498,0.0141494,0.0260334,0.00647266,0.0288779,0.0113049,1.15674,0.0168031,0.0400218,1490,379,4.64146,39.8498
273,645,4.73755,-39.4435,0.0163545,0.0288385,0.00768294,0.0324955,0.0126975,1.12654,0.01891,0.027265,1497,379,4.73751,39.4435
280,645,4.9834,-38.9716,0.0181239,0.0318279,0.00909876,0.0363662,0.0135857,1.10813,0.0212185,0.045349,1504,379,4.98335,38.9716
287,645,5.21924,-38.4929,0,0,0,0,0,0,0,-1,1511,379,5.21918,38.4929
294,645,1.17419,-22.4641,0,0,0,0,0,0,0,-1,1518,379,1.17425,22.4641
301,645,0.274048,-22.6582,0,0,0,0,0,0,0,-1,1525,379,0.274084,22.6582
308,645,-0.331177,-22.9902,0,0,0,0,0,0,0,-1,1532,379,-0.331159,22.9902
315,645,-0.66333,-23.3435,0,0,0,0,0,0,0,-1,1539,379,-0.663371,23.3435
322,645,2.70154,-35.9022,0,0,0,0,0,0,0,-1,1546,379,2.7015,35.9022
329,645,2.39136,-36.649,0,0,0,0,0,0,0,-1,1553,379,2.39135,36.649
336,645,3.36401,-31.6129,0,0,0,0,0,0,0,-1,1560,379,3.36405,31.6129
343,645,4.77185,-23.7191,0,0,0,0,0,0,0,-1,1567,379,4.77184,23.7191
350,645,4.76404,-22.1987,0,0,0,0,0,0,0,-1,1574,379,4.76399,22.1987
357,645,4.61316,-21.967,0,0,0,0,0,0,0,-1,1581,379,4.61316,21.967
364,645,-0.0794678,-3.22021,0,0,0,0,0,0,0,-1,1588,379,-0.0794987,3.22021
371,645,0,0,0,0,0,0,0,0,0,-1,1595,379,0,0
378,645,0,0,0,0,0,0,0,0,0,-1,1602,379,0,0
385,645,0,0,0,0,0,0,0,0,0,-1,1609,379,0,0
392,645,0,0,0,0,0,0,0,0,0,-1,1616,379,0,0
399,645,0,0,0,0,0,0,0,0,0,-1,1623,379,0,0
406,645,0,0,0,0,0,0,0,0,0,-1,1630,379,0,0
413,645,0,0,0,0,0,0,0,0,0,-1,1637,379,0,0
420,645,0,0,0,0,0,0,0,0,0,-1,1644,379,0,0
427,645,0,0,0,0,0,0,0,0,0,-1,1651,379,0,0
434,645,0,0,0,0,0,0,0,0,0,-1,1658,379,0,0
441,645,0,0,0,0,0,0,0,0,0,-1,1665,379,0,0
448,645,0,0,0,0,0,0,0,0,0,-1,1672,379,0,0
455,645,0,0,0,0,0,0,0,0,0,-1,1679,379,0,0
462,645,0,0,0,0,0,0,0,0,0,-1,1686,379,0,0
469,645,0,0,0,0,0,0,0,0,0,-1,1693,379,0,0
476,645,0,0,0,0,0,0,0,0,0,-1,1700,379,0,0
483,645,0,0,0,0,0,0,0,0,0,-1,1707,379,0,0
490,645,0,0,0,0,0,0,0,0,0,-1,1714,379,0,0
497,645,0,0,0,0,0,0,0,0,0,-1,1721,379,0,0
504,645,0,0,0,0,0,0,0,0,0,-1,1728,379,0,0
511,645,0,0,0,0,0,0,0,0,0,-1,1735,379,0,0
518,645,0,0,0,0,0,0,0,0,0,-1,1742,379,0,0
525,645,0,0,0,0,0,0,0,0,0,-1,1749,379,0,0
532,645,0,0,0,0,0,0,0,0,0,-1,1756,379,0,0
539,645,0,0,0,0,0,0,0,0,0,-1,1763,379,0,0
546,645,0,0,0,0,0,0,0,0,0,-1,1770,379,0,0
553,645,0,0,0,0,0,0,0,0,0,-1,1777,379,0,0
560,645,0,0,0,0,0,0,0,0,0,-1,1784,379,0,0
567,645,0,0,0,0,0,0,0,0,0,-1,1791,379,0,0
574,645,0,0,0,0,0,0,0,0,0,-1,1798,379,0,0
581,645,0,0,0,0,0,0,0,0,0,-1,1805,379,0,0
588,645,0,0,0,0,0,0,0,0,0,-1,1812,379,0,0
595,645,0,0,0,0,0,0,0,0,0,-1,1819,379,0,0
602,645,0,0,0,0,0,0,0,0,0,-1,1826,379,0,0
609,645,0,0,0,0,0,0,0,0,0,-1,1833,379,0,0
616,645,0,0,0,0,0,0,0,0,0,-1,1840,379,0,0
623,645,0,0,0,0,0,0,0,0,0,-1,1847,379,0,0
630,645,0,0,0,0,0,0,0,0,0,-1,1854,379,0,0
637,645,0,0,0,0,0,0,0,0,0,-1,1861,379,0,0
644,645,0,0,0,0,0,0,0,0,0,-1,1868,379,0,0
651,645,0,0,0,0,0,0,0,0,0,-1,1875,379,0,0
658,645,0,0,0,0,0,0,0,0,0,-1,1882,379,0,0
665,645,0,0,0,0,0,0,0,0,0,-1,1889,379,0,0
672,645,0,0,0,0,0,0,0,0,0,-1,1896,379,0,0
679,645,0,0,0,0,0,0,0,0,0,-1,1903,379,0,0
686,645,0,0,0,0,0,0,0,0,0,-1,1910,379,0,0
693,645,0,0,0,0,0,0,0,0,0,-1,1917,379,0,0
700,645,0,0,0,0,0,0,0,0,0,-1,1924,379,0,0
707,645,0,0,0,0,0,0,0,0,0,-1,1931,379,0,0
714,645,0,0,0,0,0,0,0,0,0,-1,1938,379,0,0
721,645,0,0,0,0,0,0,0,0,0,-1,1945,379,0,0
728,645,0,0,0,0,0,0,0,0,0,-1,1952,379,0,0
735,645,0,0,0,0,0,0,0,0,0,-1,1959,379,0,0
742,645,0,0,0,0,0,0,0,0,0,-1,1966,379,0,0
749,645,0,0,0,0,0,0,0,0,0,-1,1973,379,0,0
756,645,0,0,0,0,0,0,0,0,0,-1,1980,379,0,0
763,645,0,0,0,0,0,0,0,0,0,-1,1987,379,0,0
770,645,0,0,0,0,0,0,0,0,0,-1,1994,379,0,0
777,645,0,0,0,0,0,0,0,0,0,-1,2001,379,0,0
784,645,0,0,0,0,0,0,0,0,0,-1,2008,379,0,0
791,645,0,0,0,0,0,0,0,0,0,-1,2015,379,0,0
798,645,0,0,0,0,0,0,0,0,0,-1,2022,379,0,0
805,645,0,0,0,0,0,0,0,0,0,-1,2029,379,0,0
812,645,0,0,0,0,0,0,0,0,0,-1,2036,379,0,0
-700,638,0,0,0,0,0,0,0,0,0,-1,524,386,0,0
-693,638,0,0,0,0,0,0,0,0,0,-1,531,386,0,0
-686,638,0,0,0,0,0,0,0,0,0,-1,538,386,0,0
-679,638,0,0,0,0,0,0,0,0,0,-1,545,386,0,0
-672,638,0,0,0,0,0,0,0,0,0,-1,552,386,0,0
-665,638,0,0,0,0,0,0,0,0,0,-1,559,386,0,0
-658,638,0,0,0,0,0,0,0,0,0,-1,566,386,0,0
-651,638,0,0,0,0,0,0,0,0,0,-1,573,386,0,0
-644,638,0,0,0,0,0,0,0,0,0,-1,580,386,0,0
-637,638,0,0,0,0,0,0,0,0,0,-1,587,386,0,0
-630,638,0,0,0,0,0,0,0,0,0,-1,594,386,0,0
-623,638,0,0,0,0,0,0,0,0,0,-1,601,386,0,0
-616,638,0,0,0,0,0,0,0,0,0,-1,608,386,0,0
-609,638,0,0,0,0,0,0,0,0,0,-1,615,386,0,0
-602,638,0,0,0,0,0,0,0,0,0,-1,622,386,0,0
-595,638,0,0,0,0,0,0,0,0,0,-1,629,386,0,0
-588,638,0,0,0,0,0,0,0,0,0,-1,636,386,0,0
-581,638,0,0,0,0,0,0,0,0,0,-1,643,386,0,0
-574,638,0,0,0,0,0,0,0,0,0,-1,650,386,0,0
-567,638,0,0,0,0,0,0,0,0,0,-1,657,386,0,0
-560,638,0,0,0,0,0,0,0,0,0,-1,664,386,0,0
-553,638,0,0,0,0,0,0,0,0,0,-1,671,386,0,0
-546,638,0,0,0,0,0,0,0,0,0,-1,678,386,0,0
-539,638,0,0,0,0,0,0,0,0,0,-1,685,386,0,0
-532,638,0,0,0,0,0,0,0,0,0,-1,692,386,0,0
-525,638,0,0,0,0,0,0,0,0,0,-1,699,386,0,0
-518,638,0,0,0,0,0,0,0,0,0,-1,706,386,0,0
-511,638,0,0,0,0,0,0,0,0,0,-1,713,386,0,0
-504,638,0,0,0,0,0,0,0,0,0,-1,720,386,0,0
-497,638,0,0,0,0,0,0,0,0,0,-1,727,386,0,0
-490,638,0,0,0,0,0,0,0,0,0,-1,734,386,0,0
-483,638,0,0,0,0,0,0,0,0,0,-1,741,386,0,0
-476,638,0,0,0,0,0,0,0,0,0,-1,748,386,0,0
-469,638,0,0,0,0,0,0,0,0,0,-1,755,386,0,0
-462,638,0,0,0,0,0,0,0,0,0,-1,762,386,0,0
-455,638,0,0,0,0,0,0,0,0,0,-1,769,386,0,0
-448,638,0,0,0,0,0,0,0,0,0,-1,776,386,0,0
-441,638,0,0,0,0,0,0,0,0,0,-1,783,386,0,0
-434,638,0,0,0,0,0,0,0,0,0,-1,790,386,0,0
-427,638,0,0,0,0,0,0,0,0,0,-1,797,386,0,0
-420,638,0,0,0,0,0,0,0,0,0,-1,804,386,0,0
-413,638,0,0,0,0,0,0,0,0,0,-1,811,386,0,0
-406,638,0,0,0,0,0,0,0,0,0,-1,818,386,0,0
-399,638,0,0,0,0,0,0,0,0,0,-1,825,386,0,0
-392,638,0,0,0,0,0,0,0,0,0,-1,832,386,0,0
-385,638,0,0,0,0,0,0,0,0,0,-1,839,386,0,0
-378,638,0,0,0,0,0,0,0,0,0,-1,846,386,0,0
-371,638,0,0,0,0,0,0,0,0,0,-1,853,386,0,0
-364,638,0,0,0,0,0,0,0,0,0,-1,860,386,0,0
-357,638,0,0,0,0,0,0,0,0,0,-1,867,386,0,0
-350,638,0,0,0,0,0,0,0,0,0,-1,874,386,0,0
-343,638,0,0,0,0,0,0,0,0,0,-1,881,386,0,0
-336,638,0,0,0,0,0,0,0,0,0,-1,888,386,0,0
-329,638,0,0,0,0,0,0,0,0,0,-1,895,386,0,0
-322,638,0,0,0,0,0,0,0,0,0,-1,902,386,0,0
-315,638,0,0,0,0,0,0,0,0,0,-1,909,386,0,0
-308,638,0,0,0,0,0,0,0,0,0,-1,916,386,0,0
-301,638,0,0,0,0,0,0,0,0,0,-1,923,386,0,0
-294,638,0,0,0,0,0,0,0,0,0,-1,930,386,0,0
-287,638,0,0,0,0,0,0,0,0,0,-1,937,386,0,0
-280,638,0,0,0,0,0,0,0,0,0,-1,944,386,0,0
-273,638,0,0,0,0,0,0,0,0,0,-1,951,386,0,0
-266,638,10.1613,-36.3326,0,0,0,0,0,0,0,-1,958,386,10.1612,36.3326
-259,638,9.95282,-34.6103,0,0,0,0,0,0,0,-1,965,386,9.9528,34.6103
-252,638,9.95746,-33.6964,0,0,0,0,0,0,0,-1,972,386,9.95744,33.6965
-245,638,9.84143,-32.9009,0,0,0,0,0,0,0,-1,979,386,9.84145,32.9009
-238,638,2.93518,-26.3649,0,0,0,0,0,0,0,-1,986,386,2.93516,26.3649
-231,638,2.36829,-26.0088,0,0,0,0,0,0,0,-1,993,386,2.3683,26.0088
-224,638,6.3465,-30.9124,0,0,0,0,0,0,0,-1,1000,386,6.34648,30.9124
-217,638,7.41205,-32.7263,0,0,0,0,0,0,0,-1,1007,386,7.41204,32.7262
-210,638,8.7038,-34.5688,0,0,0,0,0,0,0,-1,1014,386,8.70378,34.5689
-203,638,4.32593,-27.5803,0,0,0,0,0,0,0,-1,1021,386,4.32594,27.5803
-196,638,6.0614,-28.4651,0,0,0,0,0,0,0,-1,1028,386,6.06143,28.4651
-189,638,11.4561,-30.1556,0,0,0,0,0,0,0,-1,1035,386,11.456,30.1556
-182,638,6.45471,-33.4271,0,0,0,0,0,0,0,-1,1042,386,6.45473,33.427
-175,638,6.34631,-38.1039,0,0,0,0,0,0,0,-1,1049,386,6.34636,38.104
-168,638,6.45154,-38.7813,0,0,0,0,0,0,0,-1,1056,386,6.4516,38.7813
-161,638,6.52661,-39.3608,0,0,0,0,0,0,0,-1,1063,386,6.52656,39.3608
-154,638,6.4707,-39.7921,0,0,0,0,0,0,0,-1,1070,386,6.47073,39.792
-147,638,6.44788,-40.2255,0,0,0,0,0,0,0,-1,1077,386,6.44785,40.2255
-140,638,6.40564,-40.3257,-0.0036682,0.0157247,-0.00728419,0.0181559,-0.00609942,-1.24865,0.0145691,0.0363056,1084,386,6.4056,40.3257
-133,638,6.32971,-41.0183,-0.00418797,0.0136137,-0.00603129,0.0154646,-0.00603894,-1.27303,0.0128065,0.0318522,1091,386,6.32975,41.0183
-126,638,6.29199,-41.4424,-0.00450627,0.0121663,-0.00512138,0.0136138,-0.00595376,-1.29534,0.0115823,0.0211045,1098,386,6.29203,41.4424
-119,638,6.23242,-41.8803,-0.00448869,0.010995,-0.00457065,0.0122436,-0.00573722,-1.30414,0.0106053,0.0184234,1105,386,6.23241,41.8803
-112,638,6.21118,-42.2933,-0.00433309,0.00979263,-0.00400952,0.0108514,-0.00539182,-1.31263,0.00955295,0.0169766,1112,386,6.21122,42.2933
-105,638,6.15027,-42.707,-0.00419973,0.00867824,-0.00352265,0.00957884,-0.00510033,-1.3205,0.0086055,0.0177943,1119,386,6.15031,42.707
-98,638,6.10571,-43.0876,-0.00410157,0.00747439,-0.00304167,0.00822494,-0.00485213,-1.32887,0.0076333,0.0172228,1126,386,6.10573,43.0876
-91,638,6.04797,-43.4521,-0.00398368,0.00634902,-0.00259421,0.00696377,-0.00459843,-1.33812,0.00672184,0.0131414,1133,386,6.04797,43.452
-84,638,6.00452,-43.8242,-0.003731,0.00480987,-0.0020565,0.00527924,-0.00420037,-1.3464,0.00548486,0.0148494,1140,386,6.00447,43.8243
-77,638,5.97925,-44.1606,-0.00349661,0.00421558,-0.00168913,0.00456931,-0.00385034,-1.36436,0.00486699,0.0123824,1147,386,5.9793,44.1606
-70,638,5.95154,-44.4856,-0.00339769,0.00408359,-0.0014757,0.00436415,-0.00367826,-1.38292,0.00464891,0.0119222,1154,386,5.95155,44.4856
-63,638,5.93994,-44.7886,-0.00314539,0.00481681,-0.00136041,0.00504283,-0.00337141,-1.40616,0.00488981,0.0121513,1161,386,5.93996,44.7886
-56,638,5.948,-45.0662,-0.00282182,0.00561936,-0.00117649,0.00578026,-0.00298273,-1.43487,0.00514454,0.0154893,1168,386,5.948,45.0662
-49,638,5.91797,-45.326,-0.00245661,0.00594185,-0.000988024,0.00605652,-0.00257128,-1.45525,0.00511494,0.0137108,1175,386,5.91795,45.326
-42,638,5.88647,-45.5922,-0.00207889,0.00613571,-0.000803748,0.00621361,-0.00215679,-1.47417,0.00501828,0.012342,1182,386,5.88646,45.5922
-35,638,5.85828,-45.8568,-0.00163613,0.00636124,-0.000664128,0.00641602,-0.00169091,-1.4885,0.00493844,0.0110763,1189,386,5.85822,45.8567
-28,638,5.84558,-46.0999,-0.00120314,0.00634712,-0.000542018,0.00638583,-0.00124185,-1.4995,0.00472588,0.0106239,1196,386,5.84559,46.0999
-21,638,5.82178,-46.2901,-0.000787153,0.00616055,-0.00043218,0.00618733,-0.000813934,-1.50891,0.00442124,0.0113615,1203,386,5.82175,46.2901
-14,638,5.81055,-46.5009,-0.000433489,0.00584432,-0.000368564,0.00586588,-0.000455053,-1.51235,0.00407076,0.0113481,1210,386,5.81059,46.501
-7,638,5.82874,-46.7395,-8.51481e-05,0.00546697,-0.000352929,0.00548931,-0.000107493,-1.50757,0.00369589,0.0170187,1217,386,5.82875,46.7395
0,638,5.81177,-46.7253,0.000281046,0.00502176,-0.000391988,0.00505395,0.000248853,-1.48885,0.00328949,0.0329148,1224,386,5.81172,46.7253
7,638,5.77563,-46.8985,0.000611666,0.00478381,-0.000601695,0.00486885,0.000526625,-1.43039,0.00308538,0.0263304,1231,386,5.77563,46.8985
14,638,5.74951,-47.1098,0.00082129,0.00458895,-0.000668233,0.00470395,0.000706282,-1.40036,0.00292907,0.0132777,1238,386,5.74948,47.1098
21,638,5.75647,-47.2203,0.000887263,0.00453597,-0.000718122,0.00467222,0.000751013,-1.38329,0.0028971,0.0111864,1245,386,5.75649,47.2203
28,638,5.77209,-47.3151,0.000921648,0.00459079,-0.000791849,0.00475439,0.000758051,-1.36706,0.00294956,0.00958402,1252,386,5.77208,47.3151
35,638,5.78027,-47.3823,0.000935622,0.00474701,-0.000842348,0.00492487,0.000757756,-1.3627,0.00306208,0.0115935,1259,386,5.78031,47.3823
42,638,5.7926,-47.4561,0.000844693,0.00485917,-0.00081069,0.0050167,0.000687162,-1.37887,0.00314057,0.0102442,1266,386,5.7926,47.4562
49,638,5.82971,-47.485,0.00069878,0.00507531,-0.00077675,0.00520908,0.000565011,-1.40025,0.00330054,0.0086031,1273,386,5.82975,47.485
56,638,5.82092,-47.501,0.00054454,0.00543144,-0.000709892,0.00553247,0.000443506,-1.42942,0.00354973,0.0115272,1280,386,5.82097,47.501
63,638,5.79138,-47.5207,0.000377799,0.00567781,-0.000646187,0.00575545,0.000300153,-1.45121,0.00374093,0.0145002,1287,386,5.79139,47.5207
70,638,5.7644,-47.519,0.000140815,0.00579373,-0.000542977,0.00584542,8.91339e-05,-1.4759,0.00386758,0.0184824,1294,386,5.76444,47.519
77,638,5.77454,-47.4834,4.54341e-05,0.00613069,-0.000387789,0.0061553,2.08213e-05,-1.50741,0.00409661,0.0173195,1301,386,5.77459,47.4834
84,638,5.82458,-47.4212,6.05691e-05,0.00638471,-0.000314425,0.00640031,4.4975e-05,-1.52124,0.00425196,0.0126733,1308,386,5.82463,47.4212
91,638,5.80396,-47.3588,-3.05691e-05,0.00661447,-0.000189976,0.00661989,-3.59961e-05,-1.54224,0.00442531,0.014642,1315,386,5.80399,47.3588
98,638,5.78113,-47.279,-0.00021792,0.0069195,3.68346e-05,0.00691969,-0.00021811,1.56564,0.00468752,0.0136035,1322,386,5.78114,47.279
105,638,5.77332,-47.1628,-0.000385562,0.00733637,0.000354277,0.00735259,-0.000401782,1.52505,0.005041,0.010448,1329,386,5.77335,47.1628
112,638,5.77234,-47.04,-0.000406338,0.00773875,0.000748779,0.00780702,-0.000474601,1.47988,0.00536988,0.00993902,1336,386,5.77228,47.04
119,638,5.79016,-46.8982,-0.000340363,0.00818539,0.000903852,0.00828016,-0.000435131,1.46633,0.00567072,0.0119479,1343,386,5.79021,46.8982
126,638,5.78857,-46.7372,-0.000313046,0.0087261,0.00107306,0.00885174,-0.000438684,1.45424,0.00605269,0.0161961,1350,386,5.78855,46.7372
133,638,5.77014,-46.5716,-0.000439943,0.00929958,0.00131124,0.00947303,-0.000613388,1.43928,0.00652942,0.0169206,1357,386,5.77016,46.5716
140,638,5.73035,-46.3912,-0.000656539,0.00980084,0.00156747,0.0100307,-0.000886437,1.42517,0.00700136,0.0177696,1364,386,5.73029,46.3912
147,638,5.71533,-46.1975,-0.000892198,0.0103025,0.00176913,0.0105754,-0.00116513,1.41773,0.007469,0.0199353,1371,386,5.7153,46.1975
154,638,5.73401,-45.9876,-0.0011226,0.0106216,0.00194641,0.0109358,-0.00143678,1.41076,0.00781361,0.0172575,1378,386,5.73397,45.9876
161,638,5.70776,-45.6944,-0.00136615,0.0108872,0.00212502,0.0112453,-0.00172421,1.40386,0.00813275,0.0187772,1385,386,5.70772,45.6944
168,638,5.73364,-45.388,-0.00166845,0.0109335,0.00228492,0.011335,-0.00206995,1.39685,0.00833276,0.0248781,1392,386,5.73364,45.388
175,638,5.75244,-45.1181,-0.00198367,0.0108617,0.00245854,0.0113162,-0.00243814,1.388,0.00847456,0.0212489,1399,386,5.75244,45.1181
182,638,5.68127,-44.8666,-0.00236651,0.010559,0.00265115,0.0110817,-0.00288915,1.37615,0.0085158,0.0138499,1406,386,5.68129,44.8666
189,638,5.65051,-44.5357,-0.00264791,0.0100412,0.00281069,0.0106359,-0.00324261,1.36228,0.00838319,0.0121089,1413,386,5.65046,44.5357
196,638,5.61108,-44.2086,-0.00263155,0.00927083,0.00289508,0.00993766,-0.00329838,1.34441,0.00795584,0.0145336,1420,386,5.61104,44.2086
203,638,5.57166,-43.878,-0.00242958,0.00867472,0.00294087,0.00940549,-0.00316035,1.32724,0.00754765,0.0206208,1427,386,5.57169,43.8779
210,638,5.56262,-43.5505,-0.00221245,0.00815137,0.00291899,0.00891696,-0.00297803,1.3143,0.00714721,0.0168531,1434,386,5.56262,43.5505
217,638,5.53088,-43.1879,-0.0020108,0.00866559,0.00288464,0.00939514,-0.00274035,1.32308,0.0073492,0.0125025,1441,386,5.53091,43.1879
224,638,5.49512,-42.7632,-0.000786463,0.0101618,0.00272329,0.0108017,-0.00142645,1.33998,0.0077207,0.0110297,1448,386,5.49513,42.7633
231,638,5.41077,-42.3263,0.00119196,0.0112393,0.00294469,0.0120387,0.000392535,1.3057,0.0078982,0.0119088,1455,386,5.41081,42.3262
238,638,5.36365,-41.942,0.00293555,0.0130078,0.00367055,0.0142034,0.00173986,1.25588,0.00894559,0.0132506,1462,386,5.36361,41.942
245,638,5.32849,-41.4966,0.00448424,0.0147081,0.00401584,0.0160969,0.0030955,1.23785,0.0098627,0.0157495,1469,386,5.32851,41.4967
252,638,5.34253,-41.0385,0.00616145,0.0165327,0.00447692,0.0181979,0.00449626,1.2147,0.0109454,0.0218353,1476,386,5.34251,41.0385
259,638,5.28442,-40.6516,0.0078483,0.0185578,0.0051585,0.0206384,0.00576777,1.18743,0.0122958,0.0209971,1483,386,5.28446,40.6516
266,638,5.17798,-40.1827,0.00941049,0.0207797,0.00604878,0.0233959,0.00679434,1.16258,0.0138976,0.0125134,1490,386,5.17801,40.1827
273,638,5.15796,-39.7194,0.0108272,0.0230842,0.00710468,0.0263384,0.00757298,1.14128,0.0156575,0.0124427,1497,386,5.15799,39.7194
280,638,5.23401,-39.1107,0.0119488,0.0254996,0.00828934,0.0294302,0.00801813,1.12802,0.0175683,0.0261203,1504,386,5.23402,39.1107
287,638,5.54907,-38.2864,0.0127815,0.0282058,0.00971359,0.0328965,0.00809081,1.12092,0.0197932,0.0463529,1511,386,5.54904,38.2864
294,638,5.06433,-37.9488,0,0,0,0,0,0,0,-1,1518,386,5.06436,37.9488
301,638,4.86865,-37.3076,0,0,0,0,0,0,0,-1,1525,386,4.86871,37.3076
308,638,5.06873,-36.5566,0,0,0,0,0,0,0,-1,1532,386,5.06869,36.5566
315,638,5.07227,-35.8701,0,0,0,0,0,0,0,-1,1539,386,5.07229,35.8701
322,638,3.84131,-35.7215,0,0,0,0,0,0,0,-1,1546,386,3.84132,35.7215
329,638,3.63818,-36.7592,0,0,0,0,0,0,0,-1,1553,386,3.63816,36.7592
336,638,5.02551,-34.1664,0,0,0,0,0,0,0,-1,1560,386,5.02554,34.1665
343,638,4.3252,-31.0667,0,0,0,0,0,0,0,-1,1567,386,4.3252,31.0667
350,638,5.91162,-19.0222,0,0,0,0,0,0,0,-1,1574,386,5.91165,19.0222
357,638,0.387329,-3.01077,0,0,0,0,0,0,0,-1,1581,386,0.387332,3.01077
364,638,3.78149,-6.45215,0,0,0,0,0,0,0,-1,1588,386,3.78155,6.45216
371,638,4.18604,-6.71164,0,0,0,0,0,0,0,-1,1595,386,4.18598,6.71164
378,638,4.59045,-6.97113,0,0,0,0,0,0,0,-1,1602,386,4.5904,6.97112
385,638,0,0,0,0,0,0,0,0,0,-1,1609,386,0,0
392,638,0,0,0,0,0,0,0,0,0,-1,1616,386,0,0
399,638,0,0,0,0,0,0,0,0,0,-1,1623,386,0,0
406,638,0,0,0,0,0,0,0,0,0,-1,1630,386,0,0
413,638,0,0,0,0,0,0,0,0,0,-1,1637,386,0,0
420,638,0,0,0,0,0,0,0,0,0,-1,1644,386,0,0
427,638,0,0,0,0,0,0,0,0,0,-1,1651,386,0,0
434,638,0,0,0,0,0,0,0,0,0,-1,1658,386,0,0
441,638,0,0,0,0,0,0,0,0,0,-1,1665,386,0,0
448,638,0,0,0,0,0,0,0,0,0,-1,1672,386,0,0
455,638,0,0,0,0,0,0,0,0,0,-1,1679,386,0,0
462,638,0,0,0,0,0,0,0,0,0,-1,1686,386,0,0
469,638,0,0,0,0,0,0,0,0,0,-1,1693,386,0,0
476,638,0,0,0,0,0,0,0,0,0,-1,1700,386,0,0
483,638,0,0,0,0,0,0,0,0,0,-1,1707,386,0,0
490,638,0,0,0,0,0,0,0,0,0,-1,1714,386,0,0
497,638,0,0,0,0,0,0,0,0,0,-1,1721,386,0,0
504,638,0,0,0,0,0,0,0,0,0,-1,1728,386,0,0
511,638,0,0,0,0,0,0,0,0,0,-1,1735,386,0,0
518,638,0,0,0,0,0,0,0,0,0,-1,1742,386,0,0
525,638,0,0,0,0,0,0,0,0,0,-1,1749,386,0,0
532,638,0,0,0,0,0,0,0,0,0,-1,1756,386,0,0
539,638,0,0,0,0,0,0,0,0,0,-1,1763,386,0,0
546,638,0,0,0,0,0,0,0,0,0,-1,1770,386,0,0
553,638,0,0,0,0,0,0,0,0,0,-1,1777,386,0,0
560,638,0,0,0,0,0,0,0,0,0,-1,1784,386,0,0
567,638,0,0,0,0,0,0,0,0,0,-1,1791,386,0,0
574,638,0,0,0,0,0,0,0,0,0,-1,1798,386,0,0
581,638,0,0,0,0,0,0,0,0,0,-1,1805,386,0,0
588,638,0,0,0,0,0,0,0,0,0,-1,1812,386,0,0
595,638,0,0,0,0,0,0,0,0,0,-1,1819,386,0,0
602,638,0,0,0,0,0,0,0,0,0,-1,1826,386,0,0
609,638,0,0,0,0,0,0,0,0,0,-1,1833,386,0,0
616,638,0,0,0,0,0,0,0,0,0,-1,1840,386,0,0
623,638,0,0,0,0,0,0,0,0,0,-1,1847,386,0,0
630,638,0,0,0,0,0,0,0,0,0,-1,1854,386,0,0
637,638,0,0,0,0,0,0,0,0,0,-1,1861,386,0,0
644,638,0,0,0,0,0,0,0,0,0,-1,1868,386,0,0
651,638,0,0,0,0,0,0,0,0,0,-1,1875,386,0,0
658,638,0,0,0,0,0,0,0,0,0,-1,1882,386,0,0
665,638,0,0,0,0,0,0,0,0,0,-1,1889,386,0,0
672,638,0,0,0,0,0,0,0,0,0,-1,1896,386,0,0
679,638,0,0,0,0,0,0,0,0,0,-1,1903,386,0,0
686,638,0,0,0,0,0,0,0,0,0,-1,1910,386,0,0
693,638,0,0,0,0,0,0,0,0,0,-1,1917,386,0,0
700,638,0,0,0,0,0,0,0,0,0,-1,1924,386,0,0
707,638,0,0,0,0,0,0,0,0,0,-1,1931,386,0,0
714,638,0,0,0,0,0,0,0,0,0,-1,1938,386,0,0
721,638,0,0,0,0,0,0,0,0,0,-1,1945,386,0,0
728,638,0,0,0,0,0,0,0,0,0,-1,1952,386,0,0
735,638,0,0,0,0,0,0,0,0,0,-1,1959,386,0,0
742,638,0,0,0,0,0,0,0,0,0,-1,1966,386,0,0
749,638,0,0,0,0,0,0,0,0,0,-1,1973,386,0,0
756,638,0,0,0,0,0,0,0,0,0,-1,1980,386,0,0
763,638,0,0,0,0,0,0,0,0,0,-1,1987,386,0,0
770,638,0,0,0,0,0,0,0,0,0,-1,1994,386,0,0
777,638,0,0,0,0,0,0,0,0,0,-1,2001,386,0,0
784,638,0,0,0,0,0,0,0,0,0,-1,2008,386,0,0
791,638,0,0,0,0,0,0,0,0,0,-1,2015,386,0,0
798,638,0,0,0,0,0,0,0,0,0,-1,2022,386,0,0
805,638,0,0,0,0,0,0,0,0,0,-1,2029,386,0,0
812,638,0,0,0,0,0,0,0,0,0,-1,2036,386,0,0
-700,631,0,0,0,0,0,0,0,0,0,-1,524,393,0,0
-693,631,0,0,0,0,0,0,0,0,0,-1,531,393,0,0
-686,631,0,0,0,0,0,0,0,0,0,-1,538,393,0,0
-679,631,0,0,0,0,0,0,0,0,0,-1,545,393,0,0
-672,631,0,0,0,0,0,0,0,0,0,-1,552,393,0,0
-665,631,0,0,0,0,0,0,0,0,0,-1,559,393,0,0
-658,631,0,0,0,0,0,0,0,0,0,-1,566,393,0,0
-651,631,0,0,0,0,0,0,0,0,0,-1,573,393,0,0
-644,631,0,0,0,0,0,0,0,0,0,-1,580,393,0,0
-637,631,0,0,0,0,0,0,0,0,0,-1,587,393,0,0
-630,631,0,0,0,0,0,0,0,0,0,-1,594,393,0,0
-623,631,0,0,0,0,0,0,0,0,0,-1,601,393,0,0
-616,631,0,0,0,0,0,0,0,0,0,-1,608,393,0,0
-609,631,0,0,0,0,0,0,0,0,0,-1,615,393,0,0
-602,631,0,0,0,0,0,0,0,0,0,-1,622,393,0,0
-595,631,0,0,0,0,0,0,0,0,0,-1,629,393,0,0
-588,631,0,0,0,0,0,0,0,0,0,-1,636,393,0,0
-581,631,0,0,0,0,0,0,0,0,0,-1,643,393,0,0
-574,631,0,0,0,0,0,0,0,0,0,-1,650,393,0,0
-567,631,0,0,0,0,0,0,0,0,0,-1,657,393,0,0
-560,631,0,0,0,0,0,0,0,0,0,-1,664,393,0,0
-553,631,0,0,0,0,0,0,0,0,0,-1,671,393,0,0
-546,631,0,0,0,0,0,0,0,0,0,-1,678,393,0,0
-539,631,0,0,0,0,0,0,0,0,0,-1,685,393,0,0
-532,631,0,0,0,0,0,0,0,0,0,-1,692,393,0,0
-525,631,0,0,0,0,0,0,0,0,0,-1,699,393,0,0
-518,631,0,0,0,0,0,0,0,0,0,-1,706,393,0,0
-511,631,0,0,0,0,0,0,0,0,0,-1,713,393,0,0
-504,631,0,0,0,0,0,0,0,0,0,-1,720,393,0,0
-497,631,0,0,0,0,0,0,0,0,0,-1,727,393,0,0
-490,631,0,0,0,0,0,0,0,0,0,-1,734,393,0,0
-483,631,0,0,0,0,0,0,0,0,0,-1,741,393,0,0
-476,631,0,0,0,0,0,0,0,0,0,-1,748,393,0,0
-469,631,0,0,0,0,0,0,0,0,0,-1,755,393,0,0
-462,631,0,0,0,0,0,0,0,0,0,-1,762,393,0,0
-455,631,0,0,0,0,0,0,0,0,0,-1,769,393,0,0
-448,631,0,0,0,0,0,0,0,0,0,-1,776,393,0,0
-441,631,0,0,0,0,0,0,0,0,0,-1,783,393,0,0
-434,631,0,0,0,0,0,0,0,0,0,-1,790,393,0,0
-427,631,0,0,0,0,0,0,0,0,0,-1,797,393,0,0
-420,631,0,0,0,0,0,0,0,0,0,-1,804,393,0,0
-413,631,0,0,0,0,0,0,0,0,0,-1,811,393,0,0
-406,631,0,0,0,0,0,0,0,0,0,-1,818,393,0,0
-399,631,0,0,0,0,0,0,0,0,0,-1,825,393,0,0
-392,631,0,0,0,0,0,0,0,0,0,-1,832,393,0,0
-385,631,0,0,0,0,0,0,0,0,0,-1,839,393,0,0
-378,631,0,0,0,0,0,0,0,0,0,-1,846,393,0,0
-371,631,0,0,0,0,0,0,0,0,0,-1,853,393,0,0
-364,631,0,0,0,0,0,0,0,0,0,-1,860,393,0,0
-357,631,0,0,0,0,0,0,0,0,0,-1,867,393,0,0
-350,631,0,0,0,0,0,0,0,0,0,-1,874,393,0,0
-343,631,0,0,0,0,0,0,0,0,0,-1,881,393,0,0
-336,631,0,0,0,0,0,0,0,0,0,-1,888,393,0,0
-329,631,0,0,0,0,0,0,0,0,0,-1,895,393,0,0
-322,631,0,0,0,0,0,0,0,0,0,-1,902,393,0,0
-315,631,0,0,0,0,0,0,0,0,0,-1,909,393,0,0
-308,631,0,0,0,0,0,0,0,0,0,-1,916,393,0,0
-301,631,0,0,0,0,0,0,0,0,0,-1,923,393,0,0
-294,631,0,0,0,0,0,0,0,0,0,-1,930,393,0,0
-287,631,0,0,0,0,0,0,0,0,0,-1,937,393,0,0
-280,631,7.71283,-34.969,0,0,0,0,0,0,0,-1,944,393,7.71282,34.969
-273,631,8.04437,-34.934,0,0,0,0,0,0,0,-1,951,393,8.04436,34.9339
-266,631,8.40277,-34.7584,0,0,0,0,0,0,0,-1,958,393,8.40275,34.7584
-259,631,8.56659,-34.037,0,0,0,0,0,0,0,-1,965,393,8.56662,34.037
-252,631,8.44446,-33.2643,0,0,0,0,0,0,0,-1,972,393,8.44445,33.2644
-245,631,8.34705,-32.527,0,0,0,0,0,0,0,-1,979,393,8.34704,32.527
-238,631,8.41888,-31.8855,0,0,0,0,0,0,0,-1,986,393,8.41887,31.8855
-231,631,2.14966,-25.2306,0,0,0,0,0,0,0,-1,993,393,2.14968,25.2306
-224,631,6.83575,-19.7909,0,0,0,0,0,0,0,-1,1000,393,6.83575,19.7909
-217,631,5.05188,-18.3867,0,0,0,0,0,0,0,-1,1007,393,5.0519,18.3866
-210,631,3.37842,-26.3769,0,0,0,0,0,0,0,-1,1014,393,3.37839,26.3769
-203,631,5.05298,-26.4169,0,0,0,0,0,0,0,-1,1021,393,5.05302,26.4169
-196,631,6.37903,-32.8375,0,0,0,0,0,0,0,-1,1028,393,6.37901,32.8375
-189,631,5.73315,-36.1099,0,0,0,0,0,0,0,-1,1035,393,5.73321,36.1099
-182,631,5.90674,-37.2643,0,0,0,0,0,0,0,-1,1042,393,5.90671,37.2643
-175,631,6.19299,-38.1174,0,0,0,0,0,0,0,-1,1049,393,6.19295,38.1174
-168,631,6.11987,-38.6907,-0.00107864,0.0194588,-0.0102386,0.0236909,-0.0053108,-1.17883,0.0178299,0.0267936,1056,393,6.11987,38.6908
-161,631,6.0863,-39.2571,-0.00153748,0.0175065,-0.00884419,0.0209802,-0.00501118,-1.19654,0.0159223,0.0160682,1063,393,6.08636,39.2571
-154,631,6.04102,-39.7604,-0.00188611,0.0156314,-0.00772042,0.0185483,-0.00480301,-1.20956,0.0142391,0.0155811,1070,393,6.041,39.7604
-147,631,6.00781,-40.2016,-0.00221123,0.0139516,-0.0066586,0.0163414,-0.00460102,-1.22621,0.0127087,0.0144743,1077,393,6.00783,40.2016
-140,631,5.9906,-40.6523,-0.00243267,0.0124958,-0.00570634,0.0144272,-0.00436402,-1.24444,0.0113558,0.011249,1084,393,5.99063,40.6523
-133,631,5.92285,-41.0834,-0.00275704,0.0106806,-0.00468133,0.0121506,-0.00422708,-1.26653,0.0098176,0.00830575,1091,393,5.92283,41.0834
-126,631,5.87817,-41.5085,-0.00294,0.00944743,-0.00395777,0.010604,-0.00409653,-1.2865,0.00876013,0.0119776,1098,393,5.87821,41.5085
-119,631,5.84082,-41.9146,-0.0028425,0.00846914,-0.00351783,0.00947391,-0.00384727,-1.29258,0.00791637,0.0154692,1105,393,5.84088,41.9146
-112,631,5.81812,-42.3187,-0.002634,0.00747618,-0.00307531,0.00833814,-0.00349596,-1.29752,0.00702048,0.0152385,1112,393,5.81808,42.3187
-105,631,5.84241,-42.7096,-0.00245884,0.00655601,-0.00270673,0.00730627,-0.00320911,-1.3004,0.00622278,0.0211605,1119,393,5.84242,42.7096
-98,631,5.80347,-43.0946,-0.00232141,0.00558507,-0.00235317,0.00623243,-0.00296877,-1.30234,0.00542257,0.0177575,1126,393,5.80344,43.0946
-91,631,5.74585,-43.4462,-0.00216789,0.00468892,-0.00201186,0.00523562,-0.0027146,-1.30546,0.00466635,0.0180887,1133,393,5.74581,43.4462
-84,631,5.71143,-43.8107,-0.00192254,0.00350057,-0.00160042,0.00393765,-0.00235962,-1.3042,0.00367358,0.0171524,1140,393,5.71147,43.8107
-77,631,5.68188,-44.1724,-0.00168389,0.00294719,-0.00129532,0.00328487,-0.00202158,-1.31578,0.00309248,0.0117364,1147,393,5.68193,44.1724
-70,631,5.65454,-44.4834,-0.00149843,0.0026651,-0.00107449,0.00292604,-0.00175937,-1.33256,0.00273293,0.0131369,1154,393,5.6545,44.4834
-63,631,5.64868,-44.7979,-0.00123287,0.00261549,-0.000901687,0.00281628,-0.00143367,-1.35169,0.00249662,0.0140204,1161,393,5.64871,44.7979
-56,631,5.64746,-45.113,-0.000901918,0.00255412,-0.000705054,0.00269242,-0.00104022,-1.3771,0.0022243,0.0151779,1168,393,5.64749,45.113
-49,631,5.63513,-45.3629,-0.000548564,0.00238422,-0.000479154,0.00246052,-0.000624863,-1.41289,0.0018835,0.0119842,1175,393,5.63519,45.3628
-42,631,5.63123,-45.607,-0.000138298,0.00207969,-0.000250997,0.00210774,-0.000166347,-1.45951,0.00146376,0.00984254,1182,393,5.63122,45.607
-35,631,5.62659,-45.8538,0.000261019,0.00169453,-5.6333e-05,0.00169674,0.000258808,-1.53158,0.00105552,0.01051,1189,393,5.62655,45.8538
-28,631,5.63623,-46.0947,0.000599758,0.00115337,0.000119228,0.00117796,0.000575173,1.36744,0.000680155,0.01349,1196,393,5.63629,46.0947
-21,631,5.61304,-46.3088,0.000963283,0.000475318,0.000244414,0.00106465,0.000373952,0.393141,0.000623677,0.0116958,1203,393,5.61309,46.3088
-14,631,5.59119,-46.5207,0.00130776,-0.00012879,0.000308715,0.0013713,-0.000192323,0.202964,0.000984587,0.0133428,1210,393,5.59121,46.5206
-7,631,5.63562,-46.7158,0.00164393,-0.000821827,0.000294225,0.00167855,-0.000856449,0.117134,0.00148902,0.0211411,1217,393,5.63568,46.7158
0,631,5.63269,-46.8471,0.00192802,-0.00142689,0.000226815,0.00194328,-0.00144216,0.0671994,0.00196171,0.0260872,1224,393,5.63266,46.8471
7,631,5.60547,-46.9906,0.0021111,-0.00194813,0.000185875,0.00211959,-0.00195662,0.0456634,0.00235403,0.0207085,1231,393,5.60547,46.9906
14,631,5.65161,-47.1593,0.0022338,-0.00231934,0.000150621,0.00223877,-0.00232432,0.0330325,0.00263465,0.0112881,1238,393,5.65161,47.1593
21,631,5.67908,-47.2515,0.0023107,-0.00251261,0.000143546,0.00231497,-0.00251688,0.0297257,0.00279048,0.0138139,1245,393,5.67906,47.2515
28,631,5.67749,-47.308,0.0024051,-0.00254565,0.000135705,0.00240882,-0.00254937,0.0273836,0.00286299,0.0158031,1252,393,5.67744,47.308
35,631,5.71155,-47.3738,0.00245112,-0.00244513,0.000146823,0.00245552,-0.00244953,0.0299509,0.00283193,0.0150442,1259,393,5.71153,47.3738
42,631,5.74585,-47.4464,0.0024486,-0.0022657,0.000208257,0.00245778,-0.00227488,0.0440612,0.00273308,0.0131903,1266,393,5.74582,47.4464
49,631,5.77051,-47.5006,0.00243681,-0.0019252,0.00024073,0.00245006,-0.00193845,0.0549652,0.00253944,0.0114923,1273,393,5.77051,47.5006
56,631,5.78711,-47.5432,0.0024409,-0.00151389,0.00026574,0.00245868,-0.00153167,0.0667942,0.00232446,0.0132326,1280,393,5.78716,47.5432
63,631,5.7854,-47.5755,0.00242155,-0.00113707,0.000224826,0.0024357,-0.00115122,0.0628446,0.00211471,0.0149983,1287,393,5.78545,47.5755
70,631,5.79395,-47.5398,0.00236172,-0.000779485,0.000183665,0.00237242,-0.000790187,0.0582052,0.00190058,0.0153989,1294,393,5.79398,47.5398
77,631,5.81409,-47.4839,0.00243474,-0.000263842,0.000161458,0.00244436,-0.000273468,0.0595478,0.00172796,0.0157001,1301,393,5.81413,47.4839
84,631,5.85852,-47.4364,0.00257578,3.08798e-05,5.09917e-05,0.0025768,2.98586e-05,0.0200261,0.001708,0.0130203,1308,393,5.85857,47.4364
91,631,5.85388,-47.3723,0.002517,3.87066e-05,-9.8482e-05,0.00252091,3.47995e-05,-0.0396544,0.00166913,0.0158439,1315,393,5.85388,47.3723
98,631,5.88196,-47.298,0.00233296,0.000163884,-0.000183664,0.00234841,0.000148443,-0.0838779,0.00151854,0.0135564,1322,393,5.8819,47.298
105,631,5.87781,-47.1918,0.00224367,0.000295064,-0.00019814,0.00226362,0.000275121,-0.100315,0.00142624,0.0111823,1329,393,5.8778,47.1918
112,631,5.89148,-47.0853,0.00229343,0.000554572,-0.00026033,0.00233156,0.000516433,-0.145466,0.00141402,0.0116932,1336,393,5.89144,47.0853
119,631,5.91687,-46.9361,0.00230758,0.000793064,-0.000282227,0.00235847,0.000742181,-0.178374,0.00139249,0.0126994,1343,393,5.91682,46.9361
126,631,5.91431,-46.7615,0.00219935,0.00114597,-0.000298837,0.00227823,0.0010671,-0.258047,0.00131621,0.0180694,1350,393,5.91436,46.7615
133,631,5.92151,-46.5917,0.00194701,0.00160252,-0.000226021,0.00205894,0.0014906,-0.459807,0.00122784,0.0192824,1357,393,5.92147,46.5917
140,631,5.89697,-46.4079,0.00168566,0.00211287,-6.89899e-05,0.00212373,0.00167479,-1.4146,0.00129243,0.0208195,1364,393,5.89691,46.4079
147,631,5.89514,-46.1913,0.00141721,0.00268815,9.77181e-05,0.00269562,0.00140974,1.49451,0.00155686,0.0244729,1371,393,5.89514,46.1913
154,631,5.95459,-45.9648,0.00116308,0.00323664,0.00026034,0.00326883,0.00113089,1.44779,0.00191688,0.0223424,1378,393,5.95463,45.9648
161,631,5.9801,-45.6589,0.000887809,0.00387177,0.000437627,0.00393463,0.000824951,1.42814,0.00239592,0.0233107,1385,393,5.98012,45.6589
168,631,5.99878,-45.3536,0.000543353,0.00443054,0.000646586,0.00453527,0.000438623,1.41022,0.00288843,0.0289281,1392,393,5.99877,45.3536
175,631,5.99719,-45.1549,0.000181998,0.00492755,0.000874887,0.00508371,2.58426e-05,1.39417,0.00338056,0.0224253,1399,393,5.99716,45.1549
182,631,5.94568,-44.9017,-0.000245881,0.00524894,0.0011043,0.00546257,-0.000459509,1.37971,0.00380414,0.0113516,1406,393,5.94571,44.9017
189,631,5.91907,-44.5728,-0.000640843,0.00550643,0.00133759,0.00578487,-0.000919278,1.36556,0.0041967,0.0107431,1413,393,5.91908,44.5728
196,631,5.90576,-44.2285,-0.000788909,0.00558828,0.00155907,0.00594903,-0.00114966,1.34341,0.0043996,0.0120851,1420,393,5.90573,44.2285
203,631,5.90332,-43.8935,-0.000826491,0.00572708,0.00175816,0.00616896,-0.00126837,1.32457,0.00459417,0.0144669,1427,393,5.90335,43.8935
210,631,5.88623,-43.573,-0.000891023,0.00576003,0.00190214,0.0062656,-0.00139659,1.31102,0.00471209,0.016091,1434,393,5.88625,43.573
217,631,5.87561,-43.2332,-0.00091505,0.006351,0.0019909,0.00686075,-0.0014248,1.32014,0.00511534,0.0164752,1441,393,5.87564,43.2332
224,631,5.85132,-42.8195,-0.000291325,0.00747343,0.00201707,0.00796615,-0.000784039,1.33122,0.00559047,0.0131322,1448,393,5.85127,42.8196
231,631,5.78296,-42.4056,0.000914126,0.00836038,0.0023028,0.00901499,0.00025952,1.29384,0.00592538,0.0116882,1455,393,5.78294,42.4056
238,631,5.76318,-41.9728,0.00205162,0.00974891,0.00294761,0.010748,0.00105254,1.244,0.00684152,0.0170489,1462,393,5.76322,41.9728
245,631,5.73962,-41.5602,0.00303434,0.0110944,0.00331057,0.0122799,0.00184892,1.22695,0.00764516,0.0174003,1469,393,5.73968,41.5602
252,631,5.70203,-41.1533,0.00410422,0.0125998,0.00376706,0.0140295,0.00267447,1.20805,0.00860125,0.0170766,1476,393,5.70202,41.1533
259,631,5.67236,-40.7033,0.00518727,0.0142761,0.00441428,0.0160671,0.00339627,1.18536,0.00977796,0.0127141,1483,393,5.67237,40.7033
266,631,5.64307,-40.2553,0.0061857,0.0161246,0.00520762,0.0183534,0.00395691,1.1664,0.0111531,0.0112226,1490,393,5.64308,40.2553
273,631,5.60571,-39.7714,0.00707586,0.0179914,0.00609724,0.0207168,0.0043505,1.15046,0.0126136,0.0145222,1497,393,5.60568,39.7714
280,631,5.56848,-39.2438,0.00777297,0.0199163,0.00706646,0.0231613,0.00452799,1.14031,0.0141747,0.0149135,1504,393,5.56847,39.2438
287,631,5.5509,-38.6988,0.00825797,0.0220315,0.00820917,0.0258601,0.00442943,1.13441,0.0159697,0.0185784,1511,393,5.55095,38.6988
294,631,5.47839,-38.105,0.00836603,0.0241201,0.00930829,0.028437,0.00404914,1.13655,0.0177628,0.0227511,1518,393,5.47836,38.105
301,631,5.38,-37.4776,0.00817898,0.0261112,0.0103195,0.0308156,0.0034746,1.14307,0.019489,0.0301499,1525,393,5.37999,37.4776
308,631,5.47876,-36.8383,0.00783682,0.028168,0.0113852,0.0332655,0.00273935,1.14983,0.0213226,0.0352826,1532,393,5.47879,36.8384
315,631,5.48169,-36.221,0.00727001,0.0301234,0.0124782,0.0356163,0.00177707,1.15612,0.0231746,0.0457481,1539,393,5.48165,36.221
322,631,5.45605,-35.7889,0,0,0,0,0,0,0,-1,1546,393,5.45611,35.7889
329,631,5.0365,-34.7094,0,0,0,0,0,0,0,-1,1553,393,5.03655,34.7093
336,631,5.66516,-34.4339,0,0,0,0,0,0,0,-1,1560,393,5.66511,34.4339
343,631,6.2937,-34.1584,0,0,0,0,0,0,0,-1,1567,393,6.29367,34.1584
350,631,2.1344,-9.23401,0,0,0,0,0,0,0,-1,1574,393,2.13439,9.23401
357,631,2.6449,-9.60303,0,0,0,0,0,0,0,-1,1581,393,2.64491,9.60304
364,631,3.39136,-5.7594,0,0,0,0,0,0,0,-1,1588,393,3.39137,5.75939
371,631,3.72839,-6.0574,0,0,0,0,0,0,0,-1,1595,393,3.72845,6.05742
378,631,4.06555,-6.35544,0,0,0,0,0,0,0,-1,1602,393,4.06553,6.35544
385,631,3.90442,-3.58298,0,0,0,0,0,0,0,-1,1609,393,3.90437,3.58299
392,631,0.352295,-2.21301,0,0,0,0,0,0,0,-1,1616,393,0.352345,2.213
399,631,0,0,0,0,0,0,0,0,0,-1,1623,393,0,0
406,631,0,0,0,0,0,0,0,0,0,-1,1630,393,0,0
413,631,0,0,0,0,0,0,0,0,0,-1,1637,393,0,0
420,631,0,0,0,0,0,0,0,0,0,-1,1644,393,0,0
427,631,0,0,0,0,0,0,0,0,0,-1,1651,393,0,0
434,631,0,0,0,0,0,0,0,0,0,-1,1658,393,0,0
441,631,0,0,0,0,0,0,0,0,0,-1,1665,393,0,0
448,631,0,0,0,0,0,0,0,0,0,-1,1672,393,0,0
455,631,0,0,0,0,0,0,0,0,0,-1,1679,393,0,0
462,631,0,0,0,0,0,0,0,0,0,-1,1686,393,0,0
469,631,0,0,0,0,0,0,0,0,0,-1,1693,393,0,0
476,631,0,0,0,0,0,0,0,0,0,-1,1700,393,0,0
483,631,0,0,0,0,0,0,0,0,0,-1,1707,393,0,0
490,631,0,0,0,0,0,0,0,0,0,-1,1714,393,0,0
497,631,0,0,0,0,0,0,0,0,0,-1,1721,393,0,0
504,631,0,0,0,0,0,0,0,0,0,-1,1728,393,0,0
511,631,0,0,0,0,0,0,0,0,0,-1,1735,393,0,0
518,631,0,0,0,0,0,0,0,0,0,-1,1742,393,0,0
525,631,0,0,0,0,0,0,0,0,0,-1,1749,393,0,0
532,631,0,0,0,0,0,0,0,0,0,-1,1756,393,0,0
539,631,0,0,0,0,0,0,0,0,0,-1,1763,393,0,0
546,631,0,0,0,0,0,0,0,0,0,-1,1770,393,0,0
553,631,0,0,0,0,0,0,0,0,0,-1,1777,393,0,0
560,631,0,0,0,0,0,0,0,0,0,-1,1784,393,0,0
567,631,0,0,0,0,0,0,0,0,0,-1,1791,393,0,0
574,631,0,0,0,0,0,0,0,0,0,-1,1798,393,0,0
581,631,0,0,0,0,0,0,0,0,0,-1,1805,393,0,0
588,631,0,0,0,0,0,0,0,0,0,-1,1812,393,0,0
595,631,0,0,0,0,0,0,0,0,0,-1,1819,393,0,0
602,631,0,0,0,0,0,0,0,0,0,-1,1826,393,0,0
609,631,0,0,0,0,0,0,0,0,0,-1,1833,393,0,0
616,631,0,0,0,0,0,0,0,0,0,-1,1840,393,0,0
623,631,0,0,0,0,0,0,0,0,0,-1,1847,393,0,0
630,631,0,0,0,0,0,0,0,0,0,-1,1854,393,0,0
637,631,0,0,0,0,0,0,0,0,0,-1,1861,393,0,0
644,631,0,0,0,0,0,0,0,0,0,-1,1868,393,0,0
651,631,0,0,0,0,0,0,0,0,0,-1,1875,393,0,0
658,631,0,0,0,0,0,0,0,0,0,-1,1882,393,0,0
665,631,0,0,0,0,0,0,0,0,0,-1,1889,393,0,0
672,631,0,0,0,0,0,0,0,0,0,-1,1896,393,0,0
679,631,0,0,0,0,0,0,0,0,0,-1,1903,393,0,0
686,631,0,0,0,0,0,0,0,0,0,-1,1910,393,0,0
693,631,0,0,0,0,0,0,0,0,0,-1,1917,393,0,0
700,631,0,0,0,0,0,0,0,0,0,-1,1924,393,0,0
707,631,0,0,0,0,0,0,0,0,0,-1,1931,393,0,0
714,631,0,0,0,0,0,0,0,0,0,-1,1938,393,0,0
721,631,0,0,0,0,0,0,0,0,0,-1,1945,393,0,0
728,631,0,0,0,0,0,0,0,0,0,-1,1952,393,0,0
735,631,0,0,0,0,0,0,0,0,0,-1,1959,393,0,0
742,631,0,0,0,0,0,0,0,0,0,-1,1966,393,0,0
749,631,0,0,0,0,0,0,0,0,0,-1,1973,393,0,0
756,631,0,0,0,0,0,0,0,0,0,-1,1980,393,0,0
763,631,0,0,0,0,0,0,0,0,0,-1,1987,393,0,0
770,631,0,0,0,0,0,0,0,0,0,-1,1994,393,0,0
777,631,0,0,0,0,0,0,0,0,0,-1,2001,393,0,0
784,631,0,0,0,0,0,0,0,0,0,-1,2008,393,0,0
791,631,0,0,0,0,0,0,0,0,0,-1,2015,393,0,0
798,631,0,0,0,0,0,0,0,0,0,-1,2022,393,0,0
805,631,0,0,0,0,0,0,0,0,0,-1,2029,393,0,0
812,631,0,0,0,0,0,0,0,0,0,-1,2036,393,0,0
-700,624,0,0,0,0,0,0,0,0,0,-1,524,400,0,0
-693,624,0,0,0,0,0,0,0,0,0,-1,531,400,0,0
-686,624,0,0,0,0,0,0,0,0,0,-1,538,400,0,0
-679,624,0,0,0,0,0,0,0,0,0,-1,545,400,0,0
-672,624,0,0,0,0,0,0,0,0,0,-1,552,400,0,0
-665,624,0,0,0,0,0,0,0,0,0,-1,559,400,0,0
-658,624,0,0,0,0,0,0,0,0,0,-1,566,400,0,0
-651,624,0,0,0,0,0,0,0,0,0,-1,573,400,0,0
-644,624,0,0,0,0,0,0,0,0,0,-1,580,400,0,0
-637,624,0,0,0,0,0,0,0,0,0,-1,587,400,0,0
-630,624,0,0,0,0,0,0,0,0,0,-1,594,400,0,0
-623,624,0,0,0,0,0,0,0,0,0,-1,601,400,0,0
-616,624,0,0,0,0,0,0,0,0,0,-1,608,400,0,0
-609,624,0,0,0,0,0,0,0,0,0,-1,615,400,0,0
-602,624,0,0,0,0,0,0,0,0,0,-1,622,400,0,0
-595,624,0,0,0,0,0,0,0,0,0,-1,629,400,0,0
-588,624,0,0,0,0,0,0,0,0,0,-1,636,400,0,0
-581,624,0,0,0,0,0,0,0,0,0,-1,643,400,0,0
-574,624,0,0,0,0,0,0,0,0,0,-1,650,400,0,0
-567,624,0,0,0,0,0,0,0,0,0,-1,657,400,0,0
-560,624,0,0,0,0,0,0,0,0,0,-1,664,400,0,0
-553,624,0,0,0,0,0,0,0,0,0,-1,671,400,0,0
-546,624,0,0,0,0,0,0,0,0,0,-1,678,400,0,0
-539,624,0,0,0,0,0,0,0,0,0,-1,685,400,0,0
-532,624,0,0,0,0,0,0,0,0,0,-1,692,400,0,0
-525,624,0,0,0,0,0,0,0,0,0,-1,699,400,0,0
-518,624,0,0,0,0,0,0,0,0,0,-1,706,400,0,0
-511,624,0,0,0,0,0,0,0,0,0,-1,713,400,0,0
-504,624,0,0,0,0,0,0,0,0,0,-1,720,400,0,0
-497,624,0,0,0,0,0,0,0,0,0,-1,727,400,0,0
-490,624,0,0,0,0,0,0,0,0,0,-1,734,400,0,0
-483,624,0,0,0,0,0,0,0,0,0,-1,741,400,0,0
-476,624,0,0,0,0,0,0,0,0,0,-1,748,400,0,0
-469,624,0,0,0,0,0,0,0,0,0,-1,755,400,0,0
-462,624,0,0,0,0,0,0,0,0,0,-1,762,400,0,0
-455,624,0,0,0,0,0,0,0,0,0,-1,769,400,0,0
-448,624,0,0,0,0,0,0,0,0,0,-1,776,400,0,0
-441,624,0,0,0,0,0,0,0,0,0,-1,783,400,0,0
-434,624,0,0,0,0,0,0,0,0,0,-1,790,400,0,0
-427,624,0,0,0,0,0,0,0,0,0,-1,797,400,0,0
-420,624,0,0,0,0,0,0,0,0,0,-1,804,400,0,0
-413,624,0,0,0,0,0,0,0,0,0,-1,811,400,0,0
-406,624,0,0,0,0,0,0,0,0,0,-1,818,400,0,0
-399,624,0,0,0,0,0,0,0,0,0,-1,825,400,0,0
-392,624,0,0,0,0,0,0,0,0,0,-1,832,400,0,0
-385,624,0,0,0,0,0,0,0,0,0,-1,839,400,0,0
-378,624,0,0,0,0,0,0,0,0,0,-1,846,400,0,0
-371,624,0,0,0,0,0,0,0,0,0,-1,853,400,0,0
-364,624,0,0,0,0,0,0,0,0,0,-1,860,400,0,0
-357,624,0,0,0,0,0,0,0,0,0,-1,867,400,0,0
-350,624,0,0,0,0,0,0,0,0,0,-1,874,400,0,0
-343,624,0,0,0,0,0,0,0,0,0,-1,881,400,0,0
-336,624,0,0,0,0,0,0,0,0,0,-1,888,400,0,0
-329,624,0,0,0,0,0,0,0,0,0,-1,895,400,0,0
-322,624,0,0,0,0,0,0,0,0,0,-1,902,400,0,0
-315,624,0,0,0,0,0,0,0,0,0,-1,909,400,0,0
-308,624,0,0,0,0,0,0,0,0,0,-1,916,400,0,0
-301,624,0,0,0,0,0,0,0,0,0,-1,923,400,0,0
-294,624,5.08527,-28.5311,0,0,0,0,0,0,0,-1,930,400,5.08525,28.5311
-287,624,6.70825,-33.8,0,0,0,0,0,0,0,-1,937,400,6.70827,33.8
-280,624,6.92474,-33.8738,0,0,0,0,0,0,0,-1,944,400,6.92477,33.8739
-273,624,7.09149,-33.6875,0,0,0,0,0,0,0,-1,951,400,7.09148,33.6875
-266,624,7.17694,-33.4507,0,0,0,0,0,0,0,-1,958,400,7.17693,33.4507
-259,624,7.33569,-33.1199,0,0,0,0,0,0,0,-1,965,400,7.33567,33.1199
-252,624,7.5528,-32.8158,0,0,0,0,0,0,0,-1,972,400,7.5528,32.8158
-245,624,6.8396,-32.02,0,0,0,0,0,0,0,-1,979,400,6.83963,32.02
-238,624,6.99402,-31.5278,0,0,0,0,0,0,0,-1,986,400,6.99404,31.5278
-231,624,3.86121,-29.6032,0,0,0,0,0,0,0,-1,993,400,3.86122,29.6032
-224,624,4.59351,-27.4048,0,0,0,0,0,0,0,-1,1000,400,4.59353,27.4048
-217,624,5.90167,-32.048,0,0,0,0,0,0,0,-1,1007,400,5.90167,32.048
-210,624,6.09369,-35.4896,0,0,0,0,0,0,0,-1,1014,400,6.09371,35.4896
-203,624,5.99927,-35.8923,0,0,0,0,0,0,0,-1,1021,400,5.9993,35.8923
-196,624,5.84204,-36.4672,0,0,0,0,0,0,0,-1,1028,400,5.84202,36.4672
-189,624,5.50452,-36.7364,0.000338817,0.0228129,-0.0115522,0.0276919,-0.00454013,-1.17118,0.0201459,0.0479588,1035,400,5.50452,36.7364
-182,624,5.6521,-37.5333,-3.70087e-05,0.0201543,-0.0104815,0.0246114,-0.00449414,-1.16872,0.0180927,0.0394697,1042,400,5.65212,37.5333
-175,624,5.77502,-38.2198,-0.000499766,0.0176502,-0.0092089,0.0215042,-0.00435378,-1.17444,0.0159863,0.0271164,1049,400,5.77499,38.2198
-168,624,5.70654,-38.7801,-0.000866742,0.0156975,-0.00800499,0.0189338,-0.00410301,-1.1866,0.0141893,0.014681,1056,400,5.70659,38.7801
-161,624,5.65552,-39.2967,-0.00109584,0.0140131,-0.00692913,0.0167096,-0.00379237,-1.19967,0.0125956,0.0111243,1063,400,5.6555,39.2967
-154,624,5.62195,-39.7438,-0.00125483,0.0123784,-0.00601955,0.0146558,-0.00353223,-1.20911,0.0111363,0.0101487,1070,400,5.62194,39.7438
-147,624,5.60034,-40.2151,-0.00141466,0.0108373,-0.00513719,0.0127062,-0.00328358,-1.22188,0.00975137,0.0113524,1077,400,5.60033,40.2151
-140,624,5.57544,-40.6678,-0.00150067,0.00941766,-0.00432084,0.0109207,-0.0030037,-1.23603,0.00846131,0.0103389,1084,400,5.5755,40.6678
-133,624,5.50903,-41.0969,-0.00168014,0.00772138,-0.00345317,0.00885342,-0.00281218,-1.25401,0.00702974,0.0108401,1091,400,5.50899,41.0969
-126,624,5.47253,-41.5174,-0.00175936,0.00652857,-0.00284888,0.00741338,-0.00264416,-1.26966,0.00602041,0.0126063,1098,400,5.47252,41.5174
-119,624,5.43286,-41.9276,-0.00160906,0.00558341,-0.00246387,0.00634648,-0.00237213,-1.27046,0.00520511,0.0141346,1105,400,5.43284,41.9276
-112,624,5.42969,-42.3214,-0.00136018,0.00468379,-0.0020935,0.0053381,-0.00201449,-1.26787,0.00438721,0.0176449,1112,400,5.42975,42.3214
-105,624,5.48206,-42.7178,-0.00113477,0.0038843,-0.0018036,0.00446519,-0.00171566,-1.25921,0.00368433,0.0146361,1119,400,5.48211,42.7178
-98,624,5.4436,-43.0879,-0.00093463,0.00309525,-0.00153985,0.00361627,-0.00145565,-1.24453,0.00301554,0.0140025,1126,400,5.44364,43.0879
-91,624,5.41235,-43.441,-0.000705363,0.0024325,-0.00128833,0.00289368,-0.00116654,-1.22704,0.00241383,0.0201423,1133,400,5.41234,43.441
-84,624,5.42603,-43.8101,-0.000394302,0.00163547,-0.000999168,0.00204478,-0.000803611,-1.182,0.00169576,0.0189875,1140,400,5.42603,43.81
-77,624,5.41125,-44.1697,-7.76776e-05,0.00125953,-0.000774716,0.00161426,-0.000432409,-1.1414,0.00124559,0.0141409,1147,400,5.41125,44.1697
-70,624,5.38135,-44.4729,0.000271888,0.00106254,-0.000581809,0.00137062,-3.6196e-05,-1.08381,0.000926047,0.0152915,1154,400,5.38134,44.4729
-63,624,5.38293,-44.7855,0.000729039,0.000819757,-0.000394635,0.00117163,0.000377165,-0.842616,0.000690595,0.0165259,1161,400,5.38289,44.7855
-56,624,5.36438,-45.0976,0.00118277,0.000258492,-0.000185288,0.00121853,0.000222732,-0.190656,0.000749227,0.013835,1168,400,5.36443,45.0976
-49,624,5.3739,-45.3812,0.00155406,-0.000330273,7.38903e-05,0.00155695,-0.000333166,0.039133,0.00116501,0.0113311,1175,400,5.3739,45.3812
-42,624,5.37671,-45.6122,0.00202624,-0.00109816,0.00036292,0.00206784,-0.00113976,0.114132,0.00187757,0.0101504,1182,400,5.3767,45.6122
-35,624,5.37329,-45.8465,0.00249253,-0.0020663,0.000574515,0.00256382,-0.00213759,0.123451,0.00271807,0.01471,1189,400,5.37334,45.8465
-28,624,5.37231,-46.1063,0.00283951,-0.00315541,0.000758685,0.00293404,-0.00324994,0.123951,0.00357187,0.0194647,1196,400,5.37227,46.1063
-21,624,5.38416,-46.3129,0.00320043,-0.00440269,0.000878724,0.00330067,-0.00450293,0.113579,0.00452319,0.0147275,1203,400,5.38415,46.3129
-14,624,5.42371,-46.5173,0.00357772,-0.00542078,0.000897145,0.00366629,-0.00550935,0.0984087,0.00533307,0.0154316,1210,400,5.42368,46.5173
-7,624,5.45557,-46.6655,0.00396568,-0.00656328,0.000815762,0.00402851,-0.0066261,0.0768666,0.00621209,0.0204341,1217,400,5.45563,46.6655
0,624,5.50317,-46.8153,0.00426341,-0.00751705,0.000661088,0.0043004,-0.00755403,0.0558835,0.00692956,0.0213536,1224,400,5.50313,46.8153
7,624,5.48816,-46.9768,0.00440931,-0.00838074,0.000556247,0.00443346,-0.00840489,0.0433814,0.00752951,0.0150666,1231,400,5.48815,46.9768
14,624,5.5708,-47.1564,0.00449791,-0.00904379,0.000438399,0.00451209,-0.00905797,0.0323288,0.00797987,0.0124119,1238,400,5.57076,47.1564
21,624,5.59875,-47.2612,0.00455316,-0.0095046,0.000338805,0.00456132,-0.00951276,0.0240823,0.0082916,0.0146454,1245,400,5.59878,47.2612
28,624,5.59741,-47.338,0.00462029,-0.00972999,0.000258226,0.00462493,-0.00973463,0.0179867,0.00846365,0.0137313,1252,400,5.59744,47.338
35,624,5.62488,-47.3826,0.0046288,-0.00972361,0.000230311,0.0046325,-0.0097273,0.0160414,0.00846279,0.0165275,1259,400,5.62492,47.3826
42,624,5.68298,-47.4587,0.00462512,-0.00950444,0.000236194,0.00462907,-0.00950838,0.0167101,0.00832273,0.0192653,1266,400,5.68301,47.4587
49,624,5.70813,-47.4873,0.00463169,-0.00902777,0.000218731,0.00463519,-0.00903127,0.0160077,0.00802525,0.0203274,1273,400,5.70814,47.4873
56,624,5.7605,-47.5326,0.00466408,-0.00848011,0.000209596,0.00466743,-0.00848345,0.0159405,0.00769848,0.0207498,1280,400,5.76045,47.5326
63,624,5.81848,-47.5558,0.00466127,-0.00790253,7.70338e-05,0.00466174,-0.007903,0.0061311,0.00733427,0.0159092,1287,400,5.81843,47.5558
70,624,5.82336,-47.5659,0.00463414,-0.00725266,-6.54991e-05,0.0046345,-0.00725302,-0.00551002,0.00691854,0.0132464,1294,400,5.82337,47.5659
77,624,5.85876,-47.5132,0.00477719,-0.00648538,-0.000171131,0.00477979,-0.00648798,-0.01519,0.00653032,0.0147007,1301,400,5.85877,47.5132
84,624,5.90735,-47.453,0.00502737,-0.00610763,-0.000382424,0.00504049,-0.00612075,-0.0342905,0.006454,0.0133686,1308,400,5.9074,47.453
91,624,5.92993,-47.3772,0.00498691,-0.00625264,-0.000689922,0.00502911,-0.00629483,-0.0610778,0.00655148,0.0135675,1315,400,5.92992,47.3772
98,624,5.95166,-47.3002,0.00475821,-0.00624695,-0.000968182,0.00484274,-0.00633148,-0.0870839,0.00647049,0.0126594,1322,400,5.95162,47.3002
105,624,5.99487,-47.2344,0.00469291,-0.00633087,-0.00116068,0.00481379,-0.00645175,-0.103772,0.00652704,0.0136352,1329,400,5.99483,47.2344
112,624,6.02905,-47.1307,0.00479836,-0.00627391,-0.00141885,0.00497729,-0.00645284,-0.125444,0.00661749,0.0146433,1336,400,6.0291,47.1307
119,624,6.05396,-46.9706,0.00481992,-0.00620274,-0.00158041,0.00504204,-0.00642486,-0.139632,0.00663644,0.0156899,1343,400,6.05392,46.9705
126,624,6.05237,-46.7908,0.00468099,-0.00595685,-0.00171456,0.0049505,-0.00622636,-0.155917,0.00646697,0.0190272,1350,400,6.05239,46.7908
133,624,6.1084,-46.5779,0.00437797,-0.00554083,-0.00173883,0.00467397,-0.00583682,-0.168611,0.00608077,0.0187598,1357,400,6.10845,46.5779
140,624,6.13672,-46.3871,0.00405513,-0.00499814,-0.00166474,0.00435154,-0.00529455,-0.176206,0.00557804,0.018278,1364,400,6.13666,46.3871
147,624,6.14539,-46.1808,0.00373506,-0.00433557,-0.00152514,0.00401365,-0.00461417,-0.180676,0.00498529,0.0224905,1371,400,6.14534,46.1809
154,624,6.19958,-45.9611,0.00344238,-0.00356349,-0.00137193,0.00370146,-0.00382257,-0.186644,0.00434419,0.0251473,1378,400,6.19954,45.9611
161,624,6.2146,-45.7097,0.00312338,-0.00257542,-0.00119442,0.00336359,-0.00281564,-0.198467,0.00357225,0.0246049,1385,400,6.21454,45.7097
168,624,6.2561,-45.4457,0.002727,-0.00152647,-0.000936734,0.00292416,-0.00172363,-0.207444,0.00271308,0.0247214,1392,400,6.25605,45.4457
175,624,6.27612,-45.2223,0.0023136,-0.000494507,-0.000657368,0.00245987,-0.000640775,-0.21894,0.00189006,0.0189109,1399,400,6.27617,45.2223
182,624,6.24268,-44.9293,0.00182752,0.000391089,-0.000400175,0.00193148,0.000287129,-0.254169,0.00120342,0.0113796,1406,400,6.24268,44.9293
189,624,6.20508,-44.6039,0.00130176,0.00136137,-0.000107119,0.00144275,0.00122038,-0.921095,0.000896946,0.0105354,1413,400,6.20514,44.6039
196,624,6.19373,-44.2581,0.00100549,0.00219549,0.000241113,0.00224249,0.000958489,1.37829,0.00129924,0.011781,1420,400,6.19375,44.2581
203,624,6.22986,-43.891,0.000774443,0.00298677,0.000570924,0.00312542,0.000635797,1.33256,0.00190734,0.015156,1427,400,6.22981,43.891
210,624,6.2489,-43.5762,0.000466232,0.00350334,0.000856898,0.00372842,0.000241145,1.31392,0.00240926,0.0188959,1434,400,6.24886,43.5762
217,624,6.22632,-43.2135,0.00019542,0.00418998,0.00107212,0.00445954,-7.41417e-05,1.32447,0.00299805,0.0207828,1441,400,6.22629,43.2135
224,624,6.1925,-42.8174,0.000310368,0.00511024,0.00126952,0.00542533,-4.72181e-06,1.32752,0.00361846,0.0156313,1448,400,6.19245,42.8174
231,624,6.19141,-42.4129,0.000883905,0.00591515,0.00161515,0.00638902,0.000410037,1.28541,0.00412946,0.012073,1455,400,6.1914,42.4129
238,624,6.16614,-41.9953,0.00154354,0.00703237,0.0021716,0.00778762,0.000788285,1.2361,0.00494995,0.0167843,1462,400,6.16613,41.9953
245,624,6.14832,-41.6082,0.00212559,0.00813759,0.00252991,0.00906052,0.00120266,1.22099,0.00568205,0.0165958,1469,400,6.14837,41.6082
252,624,6.11475,-41.1859,0.00277418,0.00939273,0.00295752,0.0105217,0.00164519,1.20613,0.00653548,0.012426,1476,400,6.11478,41.1859
259,624,6.104,-40.7309,0.00344451,0.0107712,0.0035444,0.0122052,0.00201051,1.18635,0.00755629,0.0091627,1483,400,6.10405,40.7309
266,624,6.08508,-40.2519,0.0040755,0.0122866,0.00423289,0.0140779,0.0022842,1.17046,0.00872414,0.0125103,1490,400,6.08511,40.2519
273,624,6.05237,-39.7699,0.00463404,0.0138092,0.00497971,0.0159924,0.00245084,1.15761,0.00994581,0.0154394,1497,400,6.05233,39.7699
280,624,6.00928,-39.304,0.00506923,0.0153625,0.00578052,0.0179555,0.00247621,1.14912,0.0112363,0.0142267,1504,400,6.00922,39.304
287,624,5.96899,-38.8393,0.005356,0.0170428,0.00670638,0.0200944,0.0023044,1.14377,0.012698,0.0112977,1511,400,5.96905,38.8393
294,624,5.93616,-38.3225,0.0053423,0.0186576,0.00756907,0.0220804,0.00191951,1.14611,0.0141239,0.0101048,1518,400,5.93613,38.3225
301,624,5.89209,-37.7538,0.00509362,0.0201403,0.00834358,0.0238516,0.00138238,1.15227,0.0154609,0.0118527,1525,400,5.89213,37.7538
308,624,5.85767,-37.1868,0.00472957,0.021604,0.00913618,0.0256029,0.000730695,1.15822,0.0168303,0.0156241,1532,400,5.85768,37.1868
315,624,5.86609,-36.6361,0.00420317,0.0229905,0.00991754,0.027257,-6.32647e-05,1.16454,0.0181924,0.0201357,1539,400,5.86604,36.6361
322,624,5.84058,-36.0975,0.00343857,0.024056,0.0106373,0.0285602,-0.00106558,1.17026,0.0194051,0.0388306,1546,400,5.84057,36.0975
329,624,5.79163,-35.5666,0,0,0,0,0,0,0,-1,1553,400,5.79158,35.5666
336,624,6.08276,-34.6721,0,0,0,0,0,0,0,-1,1560,400,6.08278,34.6721
343,624,6.48413,-34.2236,0,0,0,0,0,0,0,-1,1567,400,6.48409,34.2236
350,624,1.99194,-7.29742,0,0,0,0,0,0,0,-1,1574,400,1.99198,7.29741
357,624,2.64075,-3.13092,0,0,0,0,0,0,0,-1,1581,400,2.64076,3.13091
364,624,3.16565,-4.9458,0,0,0,0,0,0,0,-1,1588,400,3.16564,4.94579
371,624,3.37561,-5.23529,0,0,0,0,0,0,0,-1,1595,400,3.37563,5.23529
378,624,1.50439,-5.22165,0,0,0,0,0,0,0,-1,1602,400,1.50438,5.22164
385,624,1.2301,-10.5866,0,0,0,0,0,0,0,-1,1609,400,1.2301,10.5866
392,624,4.26819,-5.14236,0,0,0,0,0,0,0,-1,1616,400,4.26818,5.14236
399,624,2.22168,-9.19293,0,0,0,0,0,0,0,-1,1623,400,2.22173,9.19294
406,624,2.68213,-9.91171,0,0,0,0,0,0,0,-1,1630,400,2.68213,9.91171
413,624,0,0,0,0,0,0,0,0,0,-1,1637,400,0,0
420,624,0,0,0,0,0,0,0,0,0,-1,1644,400,0,0
427,624,0,0,0,0,0,0,0,0,0,-1,1651,400,0,0
434,624,0,0,0,0,0,0,0,0,0,-1,1658,400,0,0
441,624,0,0,0,0,0,0,0,0,0,-1,1665,400,0,0
448,624,0,0,0,0,0,0,0,0,0,-1,1672,400,0,0
455,624,0,0,0,0,0,0,0,0,0,-1,1679,400,0,0
462,624,0,0,0,0,0,0,0,0,0,-1,1686,400,0,0
469,624,0,0,0,0,0,0,0,0,0,-1,1693,400,0,0
476,624,0,0,0,0,0,0,0,0,0,-1,1700,400,0,0
483,624,0,0,0,0,0,0,0,0,0,-1,1707,400,0,0
490,624,0,0,0,0,0,0,0,0,0,-1,1714,400,0,0
497,624,0,0,0,0,0,0,0,0,0,-1,1721,400,0,0
504,624,0,0,0,0,0,0,0,0,0,-1,1728,400,0,0
511,624,0,0,0,0,0,0,0,0,0,-1,1735,400,0,0
518,624,0,0,0,0,0,0,0,0,0,-1,1742,400,0,0
525,624,0,0,0,0,0,0,0,0,0,-1,1749,400,0,0
532,624,0,0,0,0,0,0,0,0,0,-1,1756,400,0,0
539,624,0,0,0,0,0,0,0,0,0,-1,1763,400,0,0
546,624,0,0,0,0,0,0,0,0,0,-1,1770,400,0,0
553,624,0,0,0,0,0,0,0,0,0,-1,1777,400,0,0
560,624,0,0,0,0,0,0,0,0,0,-1,1784,400,0,0
567,624,0,0,0,0,0,0,0,0,0,-1,1791,400,0,0
574,624,0,0,0,0,0,0,0,0,0,-1,1798,400,0,0
581,624,0,0,0,0,0,0,0,0,0,-1,1805,400,0,0
588,624,0,0,0,0,0,0,0,0,0,-1,1812,400,0,0
595,624,0,0,0,0,0,0,0,0,0,-1,1819,400,0,0
602,624,0,0,0,0,0,0,0,0,0,-1,1826,400,0,0
609,624,0,0,0,0,0,0,0,0,0,-1,1833,400,0,0
616,624,0,0,0,0,0,0,0,0,0,-1,1840,400,0,0
623,624,0,0,0,0,0,0,0,0,0,-1,1847,400,0,0
630,624,0,0,0,0,0,0,0,0,0,-1,1854,400,0,0
637,624,0,0,0,0,0,0,0,0,0,-1,1861,400,0,0
644,624,0,0,0,0,0,0,0,0,0,-1,1868,400,0,0
651,624,0,0,0,0,0,0,0,0,0,-1,1875,400,0,0
658,624,0,0,0,0,0,0,0,0,0,-1,1882,400,0,0
665,624,0,0,0,0,0,0,0,0,0,-1,1889,400,0,0
672,624,0,0,0,0,0,0,0,0,0,-1,1896,400,0,0
679,624,0,0,0,0,0,0,0,0,0,-1,1903,400,0,0
686,624,0,0,0,0,0,0,0,0,0,-1,1910,400,0,0
693,624,0,0,0,0,0,0,0,0,0,-1,1917,400,0,0
700,624,0,0,0,0,0,0,0,0,0,-1,1924,400,0,0
707,624,0,0,0,0,0,0,0,0,0,-1,1931,400,0,0
714,624,0,0,0,0,0,0,0,0,0,-1,1938,400,0,0
721,624,0,0,0,0,0,0,0,0,0,-1,1945,400,0,0
728,624,0,0,0,0,0,0,0,0,0,-1,1952,400,0,0
735,624,0,0,0,0,0,0,0,0,0,-1,1959,400,0,0
742,624,0,0,0,0,0,0,0,0,0,-1,1966,400,0,0
749,624,0,0,0,0,0,0,0,0,0,-1,1973,400,0,0
756,624,0,0,0,0,0,0,0,0,0,-1,1980,400,0,0
763,624,0,0,0,0,0,0,0,0,0,-1,1987,400,0,0
770,624,0,0,0,0,0,0,0,0,0,-1,1994,400,0,0
777,624,0,0,0,0,0,0,0,0,0,-1,2001,400,0,0
784,624,0,0,0,0,0,0,0,0,0,-1,2008,400,0,0
791,624,0,0,0,0,0,0,0,0,0,-1,2015,400,0,0
798,624,0,0,0,0,0,0,0,0,0,-1,2022,400,0,0
805,624,0,0,0,0,0,0,0,0,0,-1,2029,400,0,0
812,624,0,0,0,0,0,0,0,0,0,-1,2036,400,0,0
-700,617,0,0,0,0,0,0,0,0,0,-1,524,407,0,0
-693,617,0,0,0,0,0,0,0,0,0,-1,531,407,0,0
-686,617,0,0,0,0,0,0,0,0,0,-1,538,407,0,0
-679,617,0,0,0,0,0,0,0,0,0,-1,545,407,0,0
-672,617,0,0,0,0,0,0,0,0,0,-1,552,407,0,0
-665,617,0,0,0,0,0,0,0,0,0,-1,559,407,0,0
-658,617,0,0,0,0,0,0,0,0,0,-1,566,407,0,0
-651,617,0,0,0,0,0,0,0,0,0,-1,573,407,0,0
-644,617,0,0,0,0,0,0,0,0,0,-1,580,407,0,0
-637,617,0,0,0,0,0,0,0,0,0,-1,587,407,0,0
-630,617,0,0,0,0,0,0,0,0,0,-1,594,407,0,0
-623,617,0,0,0,0,0,0,0,0,0,-1,601,407,0,0
-616,617,0,0,0,0,0,0,0,0,0,-1,608,407,0,0
-609,617,0,0,0,0,0,0,0,0,0,-1,615,407,0,0
-602,617,0,0,0,0,0,0,0,0,0,-1,622,407,0,0
-595,617,0,0,0,0,0,0,0,0,0,-1,629,407,0,0
-588,617,0,0,0,0,0,0,0,0,0,-1,636,407,0,0
-581,617,0,0,0,0,0,0,0,0,0,-1,643,407,0,0
-574,617,0,0,0,0,0,0,0,0,0,-1,650,407,0,0
-567,617,0,0,0,0,0,0,0,0,0,-1,657,407,0,0
-560,617,0,0,0,0,0,0,0,0,0,-1,664,407,0,0
-553,617,0,0,0,0,0,0,0,0,0,-1,671,407,0,0
-546,617,0,0,0,0,0,0,0,0,0,-1,678,407,0,0
-539,617,0,0,0,0,0,0,0,0,0,-1,685,407,0,0
-532,617,0,0,0,0,0,0,0,0,0,-1,692,407,0,0
-525,617,0,0,0,0,0,0,0,0,0,-1,699,407,0,0
-518,617,0,0,0,0,0,0,0,0,0,-1,706,407,0,0
-511,617,0,0,0,0,0,0,0,0,0,-1,713,407,0,0
-504,617,0,0,0,0,0,0,0,0,0,-1,720,407,0,0
-497,617,0,0,0,0,0,0,0,0,0,-1,727,407,0,0
-490,617,0,0,0,0,0,0,0,0,0,-1,734,407,0,0
-483,617,0,0,0,0,0,0,0,0,0,-1,741,407,0,0
-476,617,0,0,0,0,0,0,0,0,0,-1,748,407,0,0
-469,617,0,0,0,0,0,0,0,0,0,-1,755,407,0,0
-462,617,0,0,0,0,0,0,0,0,0,-1,762,407,0,0
-455,617,0,0,0,0,0,0,0,0,0,-1,769,407,0,0
-448,617,0,0,0,0,0,0,0,0,0,-1,776,407,0,0
-441,617,0,0,0,0,0,0,0,0,0,-1,783,407,0,0
-434,617,0,0,0,0,0,0,0,0,0,-1,790,407,0,0
-427,617,0,0,0,0,0,0,0,0,0,-1,797,407,0,0
-420,617,0,0,0,0,0,0,0,0,0,-1,804,407,0,0
-413,617,0,0,0,0,0,0,0,0,0,-1,811,407,0,0
-406,617,0,0,0,0,0,0,0,0,0,-1,818,407,0,0
-399,617,0,0,0,0,0,0,0,0,0,-1,825,407,0,0
-392,617,0,0,0,0,0,0,0,0,0,-1,832,407,0,0
-385,617,0,0,0,0,0,0,0,0,0,-1,839,407,0,0
-378,617,0,0,0,0,0,0,0,0,0,-1,846,407,0,0
-371,617,0,0,0,0,0,0,0,0,0,-1,853,407,0,0
-364,617,0,0,0,0,0,0,0,0,0,-1,860,407,0,0
-357,617,0,0,0,0,0,0,0,0,0,-1,867,407,0,0
-350,617,0,0,0,0,0,0,0,0,0,-1,874,407,0,0
-343,617,0,0,0,0,0,0,0,0,0,-1,881,407,0,0
-336,617,0,0,0,0,0,0,0,0,0,-1,888,407,0,0
-329,617,0,0,0,0,0,0,0,0,0,-1,895,407,0,0
-322,617,0,0,0,0,0,0,0,0,0,-1,902,407,0,0
-315,617,0,0,0,0,0,0,0,0,0,-1,909,407,0,0
-308,617,0,0,0,0,0,0,0,0,0,-1,916,407,0,0
-301,617,6.81897,-24.525,0,0,0,0,0,0,0,-1,923,407,6.81899,24.525
-294,617,6.19263,-26.917,0,0,0,0,0,0,0,-1,930,407,6.19261,26.917
-287,617,7.00409,-31.9773,0,0,0,0,0,0,0,-1,937,407,7.00406,31.9773
-280,617,6.16754,-32.5725,0,0,0,0,0,0,0,-1,944,407,6.16755,32.5725
-273,617,6.38348,-32.4419,0,0,0,0,0,0,0,-1,951,407,6.38345,32.4419
-266,617,6.39923,-32.2529,0,0,0,0,0,0,0,-1,958,407,6.39925,32.2529
-259,617,6.08789,-32.131,0,0,0,0,0,0,0,-1,965,407,6.08791,32.131
-252,617,5.92291,-32.3358,0,0,0,0,0,0,0,-1,972,407,5.9229,32.3358
-245,617,6.76099,-32.7803,0,0,0,0,0,0,0,-1,979,407,6.76098,32.7803
-238,617,5.56641,-32.5898,0,0,0,0,0,0,0,-1,986,407,5.56641,32.5899
-231,617,5.44623,-33.3363,0,0,0,0,0,0,0,-1,993,407,5.44622,33.3363
-224,617,5.4837,-34.0227,0,0,0,0,0,0,0,-1,1000,407,5.48371,34.0227
-217,617,5.5835,-34.9038,0,0,0,0,0,0,0,-1,1007,407,5.58349,34.9039
-210,617,5.54907,-35.6348,-4.79344e-05,0.0264685,-0.011403,0.0306977,-0.00427708,-1.21564,0.0220296,0.0375464,1014,407,5.5491,35.6348
-203,617,5.48059,-36.1886,2.21684e-05,0.0226854,-0.0103294,0.0266869,-0.00397928,-1.20121,0.0192552,0.0251116,1021,407,5.48061,36.1886
-196,617,5.35242,-36.7213,5.03108e-05,0.0198319,-0.0094108,0.0235936,-0.0037114,-1.19053,0.017101,0.0214982,1028,407,5.35236,36.7213
-189,617,5.28174,-37.2341,2.05188e-05,0.0177471,-0.00883615,0.0213992,-0.00363159,-1.17886,0.0156181,0.0206287,1035,407,5.28176,37.2341
-182,617,5.32031,-37.7957,-0.000124315,0.0156773,-0.00804569,0.0190529,-0.00349985,-1.17356,0.014015,0.0213947,1042,407,5.32034,37.7957
-175,617,5.28882,-38.2831,-0.000355056,0.0136169,-0.00707037,0.0165704,-0.0033086,-1.17509,0.012299,0.0173905,1049,407,5.28885,38.283
-168,617,5.24316,-38.8175,-0.000536639,0.0117695,-0.00610496,0.0142842,-0.00305137,-1.18006,0.0106862,0.0128195,1056,407,5.24319,38.8175
-161,617,5.20581,-39.3182,-0.000629244,0.0101275,-0.00519608,0.0122275,-0.00272926,-1.18671,0.00919739,0.0117069,1063,407,5.2058,39.3182
-154,617,5.18604,-39.7664,-0.000672045,0.00850377,-0.00438106,0.0102596,-0.00242784,-1.18963,0.00777637,0.0116769,1070,407,5.186,39.7664
-147,617,5.17175,-40.2097,-0.000724186,0.00691526,-0.00356797,0.00832246,-0.00213139,-1.19513,0.00637859,0.0169754,1077,407,5.17169,40.2097
-140,617,5.12891,-40.6877,-0.000721135,0.00538651,-0.00279294,0.00647109,-0.00180571,-1.20039,0.00502529,0.013229,1084,407,5.12885,40.6876
-133,617,5.09497,-41.1206,-0.000788943,0.00369623,-0.00200679,0.00446303,-0.00155574,-1.20581,0.00360754,0.0144511,1091,407,5.09495,41.1206
-126,617,5.08057,-41.5031,-0.000784405,0.00246217,-0.00145778,0.00302067,-0.0013429,-1.20493,0.00258064,0.0141135,1098,407,5.08054,41.503
-119,617,5.05298,-41.9264,-0.000595478,0.00149023,-0.00108573,0.00195281,-0.00105806,-1.16803,0.00176373,0.0139902,1105,407,5.05303,41.9264
-112,617,5.05347,-42.329,-0.000314353,0.000665052,-0.00076252,0.00108158,-0.000730877,-1.07084,0.00105293,0.0161363,1112,407,5.05342,42.329
-105,617,5.04614,-42.711,-4.24224e-05,1.06973e-05,-0.000536754,0.000521549,-0.000553274,-0.810119,0.000620639,0.0164645,1119,407,5.04609,42.711
-98,617,5.03589,-43.0832,0.000220058,-0.000556043,-0.000353209,0.000356735,-0.00069272,-0.369215,0.000616167,0.0131521,1126,407,5.03584,43.0832
-91,617,5.03003,-43.4326,0.000544001,-0.000892751,-0.000214733,0.000575408,-0.000924158,-0.14523,0.000873545,0.0187515,1133,407,5.02998,43.4326
-84,617,5.07263,-43.8048,0.000958318,-0.00113097,-0.000116814,0.000964829,-0.00113749,-0.0556795,0.00121514,0.0185002,1140,407,5.07267,43.8048
-77,617,5.07568,-44.1588,0.00138344,-0.00100959,-6.98624e-05,0.00138548,-0.00101163,-0.029161,0.00138957,0.0148044,1147,407,5.07571,44.1588
-70,617,5.08337,-44.4874,0.00194111,-0.000700688,-4.11465e-06,0.00194112,-0.000700695,-0.00155751,0.0015803,0.0159717,1154,407,5.08332,44.4874
-63,617,5.11694,-44.8112,0.00266177,-0.000819192,0.000166846,0.00266975,-0.000827171,0.0477851,0.0021103,0.0180062,1161,407,5.11692,44.8112
-56,617,5.09766,-45.0882,0.00329639,-0.00164384,0.000351814,0.00332132,-0.00166876,0.0707383,0.00293321,0.0135782,1168,407,5.09761,45.0882
-49,617,5.1062,-45.3673,0.00370631,-0.00259739,0.000622798,0.00376725,-0.00265834,0.0975422,0.00372819,0.0108479,1175,407,5.10624,45.3673
-42,617,5.12268,-45.639,0.00426127,-0.0038143,0.000978213,0.00437807,-0.0039311,0.118843,0.00479961,0.0117047,1182,407,5.1227,45.639
-35,617,5.15991,-45.8764,0.00480612,-0.00534719,0.00120847,0.00494797,-0.00548905,0.116847,0.00602851,0.016265,1189,407,5.15997,45.8764
-28,617,5.14258,-46.0963,0.0051688,-0.00699624,0.00140563,0.0053291,-0.00715654,0.113553,0.00723428,0.0187273,1196,407,5.14258,46.0963
-21,617,5.19958,-46.2842,0.00553864,-0.00886076,0.00153614,0.00570069,-0.00902281,0.105105,0.00857245,0.0140421,1203,407,5.19963,46.2842
-14,617,5.2522,-46.4799,0.00595346,-0.0103686,0.00151046,0.00609206,-0.0105072,0.0915054,0.00969596,0.0155886,1210,407,5.25215,46.4799
-7,617,5.24927,-46.6415,0.00639571,-0.0120451,0.00135166,0.00649426,-0.0121437,0.0727786,0.0109242,0.0188315,1217,407,5.2493,46.6415
0,617,5.32361,-46.7948,0.00670276,-0.0134373,0.00109487,0.0067621,-0.0134967,0.05415,0.0119099,0.016632,1224,407,5.32364,46.7948
7,617,5.38367,-46.9736,0.00679965,-0.0147381,0.000928392,0.00683959,-0.014778,0.042999,0.0127584,0.0125795,1231,407,5.38361,46.9736
14,617,5.42236,-47.1245,0.00684823,-0.0157499,0.000731274,0.00687187,-0.0157735,0.0323149,0.0134068,0.0145021,1238,407,5.42231,47.1245
21,617,5.48914,-47.2362,0.00687374,-0.0165032,0.000540033,0.00688621,-0.0165156,0.0230847,0.0138871,0.0134819,1245,407,5.48913,47.2362
28,617,5.53821,-47.3662,0.00690082,-0.0169036,0.000390864,0.00690723,-0.01691,0.0164139,0.0141494,0.0126373,1252,407,5.53825,47.3662
35,617,5.54895,-47.4494,0.00686165,-0.0169333,0.000326233,0.00686612,-0.0169378,0.0137067,0.0141473,0.015544,1259,407,5.54901,47.4494
42,617,5.65845,-47.4515,0.00685358,-0.0165948,0.000294581,0.00685728,-0.0165985,0.0125603,0.013926,0.0229556,1266,407,5.6585,47.4515
49,617,5.69775,-47.4781,0.0068768,-0.0158634,0.000246978,0.00687948,-0.0158661,0.0108592,0.0134695,0.0223202,1273,407,5.69771,47.4781
56,617,5.71826,-47.4998,0.00693449,-0.0149902,0.00021612,0.00693662,-0.0149924,0.00985611,0.0129423,0.0162225,1280,407,5.71825,47.4997
63,617,5.80542,-47.5279,0.00694709,-0.0140608,-3.2908e-05,0.00694714,-0.0140608,-0.00156646,0.0123586,0.011862,1287,407,5.80543,47.5279
70,617,5.82166,-47.5591,0.00695536,-0.0130231,-0.000306899,0.00696007,-0.0130278,-0.0153566,0.0117159,0.0152935,1294,407,5.82166,47.559
77,617,5.89282,-47.5116,0.00720909,-0.0118814,-0.000513919,0.00722291,-0.0118952,-0.0268943,0.0111472,0.0133129,1301,407,5.89281,47.5116
84,617,5.96143,-47.4577,0.00763761,-0.0113726,-0.000846408,0.00767522,-0.0114102,-0.0444068,0.0110891,0.0109835,1308,407,5.96141,47.4577
91,617,6.0293,-47.3692,0.00765854,-0.0116662,-0.00131879,0.00774812,-0.0117558,-0.0678245,0.0113396,0.0109223,1315,407,6.02935,47.3692
98,617,6.07446,-47.2817,0.00737417,-0.0117435,-0.00175634,0.00753418,-0.0119035,-0.0908566,0.0113165,0.0114816,1322,407,6.07449,47.2817
105,617,6.12109,-47.1898,0.00730885,-0.0120326,-0.00207719,0.00752942,-0.0122531,-0.105789,0.0115295,0.0129773,1329,407,6.12108,47.1898
112,617,6.18738,-47.0834,0.00747834,-0.0121727,-0.00253394,0.00779982,-0.0124942,-0.126197,0.0118208,0.0168011,1336,407,6.18737,47.0834
119,617,6.20532,-46.9464,0.00747807,-0.0123138,-0.00282541,0.00787351,-0.0127093,-0.139056,0.0119923,0.0204391,1343,407,6.20528,46.9464
126,617,6.19385,-46.7819,0.00727538,-0.0121975,-0.00306009,0.00774494,-0.0126671,-0.152258,0.0118985,0.022317,1350,407,6.19384,46.7819
133,617,6.27307,-46.5877,0.00688412,-0.011822,-0.00316081,0.00740377,-0.0123417,-0.162947,0.0115182,0.019088,1357,407,6.27309,46.5877
140,617,6.35474,-46.3984,0.00645554,-0.0112387,-0.0031489,0.00699922,-0.0117824,-0.170971,0.0109601,0.0155915,1364,407,6.35468,46.3984
147,617,6.40088,-46.1772,0.00603862,-0.0104807,-0.00303052,0.00657703,-0.0110191,-0.175828,0.0102665,0.0188588,1371,407,6.40085,46.1772
154,617,6.39038,-45.9735,0.0056712,-0.00949472,-0.00288617,0.00620188,-0.0100254,-0.181841,0.00945512,0.0228015,1378,407,6.39038,45.9735
161,617,6.41187,-45.7644,0.00528045,-0.00817352,-0.00271272,0.00580682,-0.00869988,-0.191656,0.00843079,0.0240628,1385,407,6.41188,45.7644
168,617,6.50537,-45.5481,0.00481225,-0.00666749,-0.00241129,0.00529817,-0.0071534,-0.198854,0.00721547,0.0223408,1392,407,6.5054,45.5481
175,617,6.5293,-45.2834,0.00433604,-0.00515461,-0.00209018,0.00477598,-0.00559455,-0.20745,0.00599364,0.0195297,1399,407,6.52926,45.2834
182,617,6.55615,-44.9236,0.00377547,-0.00380566,-0.00182152,0.00419041,-0.00422061,-0.22398,0.00485612,0.0131988,1406,407,6.55617,44.9236
189,617,6.52551,-44.6013,0.00310807,-0.0022306,-0.00149155,0.00349652,-0.00261905,-0.254777,0.00354292,0.0121398,1413,407,6.52553,44.6013
196,617,6.51953,-44.2659,0.00269871,-0.00084699,-0.00104035,0.00298142,-0.0011297,-0.265338,0.0024525,0.0156963,1420,407,6.51949,44.2659
203,617,6.54028,-43.9404,0.00234311,0.000435735,-0.000611828,0.00252249,0.000256349,-0.285203,0.00160306,0.0163908,1427,407,6.54023,43.9404
210,617,6.58801,-43.5748,0.00185171,0.00133706,-0.000228474,0.0019385,0.00125027,-0.363041,0.00113477,0.0160351,1434,407,6.58796,43.5748
217,617,6.57788,-43.1868,0.00132608,0.00213544,0.000112895,0.00215089,0.00131062,1.43477,0.00125168,0.0200998,1441,407,6.57783,43.1868
224,617,6.56873,-42.8423,0.00100789,0.00297711,0.000461599,0.00307995,0.000905059,1.3516,0.00182789,0.0185509,1448,407,6.56872,42.8423
231,617,6.59167,-42.4478,0.0010629,0.00376337,0.000860255,0.00401413,0.00081214,1.28716,0.00245065,0.0144083,1455,407,6.59167,42.4477
238,617,6.57104,-42.0239,0.00134013,0.00467589,0.00132666,0.00513918,0.000876844,1.23483,0.00317446,0.0149827,1462,407,6.57099,42.0239
245,617,6.57007,-41.6354,0.00163098,0.0055927,0.00166458,0.00619924,0.00102445,1.22137,0.0038372,0.0122817,1469,407,6.57002,41.6354
252,617,6.54199,-41.1995,0.00197665,0.00663135,0.00205315,0.00740754,0.00120045,1.20935,0.00459083,0.0132297,1476,407,6.54196,41.1994
259,617,6.51868,-40.72,0.00235297,0.00773429,0.00256935,0.00876401,0.00132325,1.18963,0.00545535,0.0116002,1483,407,6.51871,40.72
266,617,6.50476,-40.2444,0.00273784,0.00893773,0.0031529,0.0102594,0.0014162,1.17386,0.0064198,0.0136699,1490,407,6.5048,40.2444
273,617,6.49023,-39.7637,0.00309056,0.0101772,0.00377613,0.0118122,0.00145563,1.1622,0.0074372,0.0141259,1497,407,6.49023,39.7637
280,617,6.4646,-39.3145,0.00337181,0.0114433,0.00444327,0.0134101,0.00140507,1.15409,0.00851044,0.0126321,1504,407,6.46459,39.3145
287,617,6.43628,-38.8227,0.00355873,0.012801,0.00519993,0.0151364,0.00122327,1.14866,0.00970893,0.0118212,1511,407,6.43634,38.8227
294,617,6.40991,-38.3257,0.00351117,0.0140983,0.00589376,0.0167268,0.000882722,1.1513,0.0108689,0.00961414,1518,407,6.40993,38.3257
301,617,6.3678,-37.825,0.00327385,0.01527,0.00650924,0.0181233,0.000420536,1.15767,0.0119445,0.00801945,1525,407,6.36784,37.825
308,617,6.3252,-37.2858,0.00295138,0.0163872,0.0071253,0.0194621,-0.000123577,1.16339,0.0130162,0.00848452,1532,407,6.3252,37.2858
315,617,6.29443,-36.7519,0.00249865,0.0174634,0.00770878,0.020724,-0.000761939,1.17065,0.0140768,0.00974684,1539,407,6.29444,36.7519
322,617,6.23877,-36.2046,0.00182395,0.0182833,0.00819607,0.0216684,-0.00156115,1.17912,0.0149931,0.0152375,1546,407,6.23881,36.2046
329,617,6.2124,-35.6273,0.000845379,0.0189375,0.00876126,0.0224847,-0.00270185,1.18609,0.0159668,0.0204989,1553,407,6.21241,35.6273
336,617,6.29077,-34.9198,-0.000418064,0.0199764,0.0091576,0.0234848,-0.0039265,1.20493,0.0171162,0.0373713,1560,407,6.29073,34.9198
343,617,6.34363,-34.35,0,0,0,0,0,0,0,-1,1567,407,6.34366,34.35
350,617,6.01282,-33.9151,0,0,0,0,0,0,0,-1,1574,407,6.0128,33.9151
357,617,2.1748,-7.16504,0,0,0,0,0,0,0,-1,1581,407,2.1748,7.16505
364,617,2.30127,-7.60257,0,0,0,0,0,0,0,-1,1588,407,2.30125,7.60258
371,617,2.60266,-6.20667,0,0,0,0,0,0,0,-1,1595,407,2.60261,6.20668
378,617,1.56921,-10.3601,0,0,0,0,0,0,0,-1,1602,407,1.56918,10.3601
385,617,1.74146,-10.3561,0,0,0,0,0,0,0,-1,1609,407,1.7414,10.3561
392,617,1.96936,-5.10449,0,0,0,0,0,0,0,-1,1616,407,1.96931,5.10451
399,617,2.48889,-5.81256,0,0,0,0,0,0,0,-1,1623,407,2.48888,5.81255
406,617,3.01465,-6.51642,0,0,0,0,0,0,0,-1,1630,407,3.01461,6.51643
413,617,3.6427,-7.2074,0,0,0,0,0,0,0,-1,1637,407,3.64274,7.20739
420,617,3.42737,-4.47391,0,0,0,0,0,0,0,-1,1644,407,3.42737,4.47391
427,617,0,0,0,0,0,0,0,0,0,-1,1651,407,0,0
434,617,0,0,0,0,0,0,0,0,0,-1,1658,407,0,0
441,617,0,0,0,0,0,0,0,0,0,-1,1665,407,0,0
448,617,0,0,0,0,0,0,0,0,0,-1,1672,407,0,0
455,617,0,0,0,0,0,0,0,0,0,-1,1679,407,0,0
462,617,0,0,0,0,0,0,0,0,0,-1,1686,407,0,0
469,617,0,0,0,0,0,0,0,0,0,-1,1693,407,0,0
476,617,0,0,0,0,0,0,0,0,0,-1,1700,407,0,0
483,617,0,0,0,0,0,0,0,0,0,-1,1707,407,0,0
490,617,0,0,0,0,0,0,0,0,0,-1,1714,407,0,0
497,617,0,0,0,0,0,0,0,0,0,-1,1721,407,0,0
504,617,0,0,0,0,0,0,0,0,0,-1,1728,407,0,0
511,617,0,0,0,0,0,0,0,0,0,-1,1735,407,0,0
518,617,0,0,0,0,0,0,0,0,0,-1,1742,407,0,0
525,617,0,0,0,0,0,0,0,0,0,-1,1749,407,0,0
532,617,0,0,0,0,0,0,0,0,0,-1,1756,407,0,0
539,617,0,0,0,0,0,0,0,0,0,-1,1763,407,0,0
546,617,0,0,0,0,0,0,0,0,0,-1,1770,407,0,0
553,617,0,0,0,0,0,0,0,0,0,-1,1777,407,0,0
560,617,0,0,0,0,0,0,0,0,0,-1,1784,407,0,0
567,617,0,0,0,0,0,0,0,0,0,-1,1791,407,0,0
574,617,0,0,0,0,0,0,0,0,0,-1,1798,407,0,0
581,617,0,0,0,0,0,0,0,0,0,-1,1805,407,0,0
588,617,0,0,0,0,0,0,0,0,0,-1,1812,407,0,0
595,617,0,0,0,0,0,0,0,0,0,-1,1819,407,0,0
602,617,0,0,0,0,0,0,0,0,0,-1,1826,407,0,0
609,617,0,0,0,0,0,0,0,0,0,-1,1833,407,0,0
616,617,0,0,0,0,0,0,0,0,0,-1,1840,407,0,0
623,617,0,0,0,0,0,0,0,0,0,-1,1847,407,0,0
630,617,0,0,0,0,0,0,0,0,0,-1,1854,407,0,0
637,617,0,0,0,0,0,0,0,0,0,-1,1861,407,0,0
644,617,0,0,0,0,0,0,0,0,0,-1,1868,407,0,0
651,617,0,0,0,0,0,0,0,0,0,-1,1875,407,0,0
658,617,0,0,0,0,0,0,0,0,0,-1,1882,407,0,0
665,617,0,0,0,0,0,0,0,0,0,-1,1889,407,0,0
672,617,0,0,0,0,0,0,0,0,0,-1,1896,407,0,0
679,617,0,0,0,0,0,0,0,0,0,-1,1903,407,0,0
686,617,0,0,0,0,0,0,0,0,0,-1,1910,407,0,0
693,617,0,0,0,0,0,0,0,0,0,-1,1917,407,0,0
700,617,0,0,0,0,0,0,0,0,0,-1,1924,407,0,0
707,617,0,0,0,0,0,0,0,0,0,-1,1931,407,0,0
714,617,0,0,0,0,0,0,0,0,0,-1,1938,407,0,0
721,617,0,0,0,0,0,0,0,0,0,-1,1945,407,0,0
728,617,0,0,0,0,0,0,0,0,0,-1,1952,407,0,0
735,617,0,0,0,0,0,0,0,0,0,-1,1959,407,0,0
742,617,0,0,0,0,0,0,0,0,0,-1,1966,407,0,0
749,617,0,0,0,0,0,0,0,0,0,-1,1973,407,0,0
756,617,0,0,0,0,0,0,0,0,0,-1,1980,407,0,0
763,617,0,0,0,0,0,0,0,0,0,-1,1987,407,0,0
770,617,0,0,0,0,0,0,0,0,0,-1,1994,407,0,0
777,617,0,0,0,0,0,0,0,0,0,-1,2001,407,0,0
784,617,0,0,0,0,0,0,0,0,0,-1,2008,407,0,0
791,617,0,0,0,0,0,0,0,0,0,-1,2015,407,0,0
798,617,0,0,0,0,0,0,0,0,0,-1,2022,407,0,0
805,617,0,0,0,0,0,0,0,0,0,-1,2029,407,0,0
812,617,0,0,0,0,0,0,0,0,0,-1,2036,407,0,0
-700,610,0,0,0,0,0,0,0,0,0,-1,524,414,0,0
-693,610,0,0,0,0,0,0,0,0,0,-1,531,414,0,0
-686,610,0,0,0,0,0,0,0,0,0,-1,538,414,0,0
-679,610,0,0,0,0,0,0,0,0,0,-1,545,414,0,0
-672,610,0,0,0,0,0,0,0,0,0,-1,552,414,0,0
-665,610,0,0,0,0,0,0,0,0,0,-1,559,414,0,0
-658,610,0,0,0,0,0,0,0,0,0,-1,566,414,0,0
-651,610,0,0,0,0,0,0,0,0,0,-1,573,414,0,0
-644,610,0,0,0,0,0,0,0,0,0,-1,580,414,0,0
-637,610,0,0,0,0,0,0,0,0,0,-1,587,414,0,0
-630,610,0,0,0,0,0,0,0,0,0,-1,594,414,0,0
-623,610,0,0,0,0,0,0,0,0,0,-1,601,414,0,0
-616,610,0,0,0,0,0,0,0,0,0,-1,608,414,0,0
-609,610,0,0,0,0,0,0,0,0,0,-1,615,414,0,0
-602,610,0,0,0,0,0,0,0,0,0,-1,622,414,0,0
-595,610,0,0,0,0,0,0,0,0,0,-1,629,414,0,0
-588,610,0,0,0,0,0,0,0,0,0,-1,636,414,0,0
-581,610,0,0,0,0,0,0,0,0,0,-1,643,414,0,0
-574,610,0,0,0,0,0,0,0,0,0,-1,650,414,0,0
-567,610,0,0,0,0,0,0,0,0,0,-1,657,414,0,0
-560,610,0,0,0,0,0,0,0,0,0,-1,664,414,0,0
-553,610,0,0,0,0,0,0,0,0,0,-1,671,414,0,0
-546,610,0,0,0,0,0,0,0,0,0,-1,678,414,0,0
-539,610,0,0,0,0,0,0,0,0,0,-1,685,414,0,0
-532,610,0,0,0,0,0,0,0,0,0,-1,692,414,0,0
-525,610,0,0,0,0,0,0,0,0,0,-1,699,414,0,0
-518,610,0,0,0,0,0,0,0,0,0,-1,706,414,0,0
-511,610,0,0,0,0,0,0,0,0,0,-1,713,414,0,0
-504,610,0,0,0,0,0,0,0,0,0,-1,720,414,0,0
-497,610,0,0,0,0,0,0,0,0,0,-1,727,414,0,0
-490,610,0,0,0,0,0,0,0,0,0,-1,734,414,0,0
-483,610,0,0,0,0,0,0,0,0,0,-1,741,414,0,0
-476,610,0,0,0,0,0,0,0,0,0,-1,748,414,0,0
-469,610,0,0,0,0,0,0,0,0,0,-1,755,414,0,0
-462,610,0,0,0,0,0,0,0,0,0,-1,762,414,0,0
-455,610,0,0,0,0,0,0,0,0,0,-1,769,414,0,0
-448,610,0,0,0,0,0,0,0,0,0,-1,776,414,0,0
-441,610,0,0,0,0,0,0,0,0,0,-1,783,414,0,0
-434,610,0,0,0,0,0,0,0,0,0,-1,790,414,0,0
-427,610,0,0,0,0,0,0,0,0,0,-1,797,414,0,0
-420,610,0,0,0,0,0,0,0,0,0,-1,804,414,0,0
-413,610,0,0,0,0,0,0,0,0,0,-1,811,414,0,0
-406,610,0,0,0,0,0,0,0,0,0,-1,818,414,0,0
-399,610,0,0,0,0,0,0,0,0,0,-1,825,414,0,0
-392,610,0,0,0,0,0,0,0,0,0,-1,832,414,0,0
-385,610,0,0,0,0,0,0,0,0,0,-1,839,414,0,0
-378,610,0,0,0,0,0,0,0,0,0,-1,846,414,0,0
-371,610,0,0,0,0,0,0,0,0,0,-1,853,414,0,0
-364,610,0,0,0,0,0,0,0,0,0,-1,860,414,0,0
-357,610,0,0,0,0,0,0,0,0,0,-1,867,414,0,0
-350,610,0,0,0,0,0,0,0,0,0,-1,874,414,0,0
-343,610,0,0,0,0,0,0,0,0,0,-1,881,414,0,0
-336,610,0,0,0,0,0,0,0,0,0,-1,888,414,0,0
-329,610,0,0,0,0,0,0,0,0,0,-1,895,414,0,0
-322,610,0,0,0,0,0,0,0,0,0,-1,902,414,0,0
-315,610,7.68475,-21.5402,0,0,0,0,0,0,0,-1,909,414,7.68475,21.5402
-308,610,3.97211,-23.4133,0,0,0,0,0,0,0,-1,916,414,3.9721,23.4133
-301,610,7.38513,-22.4166,0,0,0,0,0,0,0,-1,923,414,7.38516,22.4166
-294,610,6.77832,-24.1945,0,0,0,0,0,0,0,-1,930,414,6.77829,24.1946
-287,610,3.39276,-28.5804,0,0,0,0,0,0,0,-1,937,414,3.39276,28.5803
-280,610,5.99969,-30.7691,0,0,0,0,0,0,0,-1,944,414,5.99967,30.7691
-273,610,5.56598,-30.9048,0,0,0,0,0,0,0,-1,951,414,5.56596,30.9047
-266,610,4.69922,-31.4197,0,0,0,0,0,0,0,-1,958,414,4.6992,31.4197
-259,610,4.85663,-31.544,0,0,0,0,0,0,0,-1,965,414,4.85663,31.544
-252,610,5.54523,-31.824,0,0,0,0,0,0,0,-1,972,414,5.54521,31.824
-245,610,5.76025,-32.631,0,0,0,0,0,0,0,-1,979,414,5.76024,32.6309
-238,610,5.02203,-33.0338,0,0,0,0,0,0,0,-1,986,414,5.02201,33.0337
-231,610,4.9809,-33.6688,-0.000936429,0.0313961,-0.0115565,0.0351019,-0.00464228,-1.26048,0.0250923,0.0423018,993,414,4.9809,33.6688
-224,610,5.01617,-34.349,-0.000661309,0.0277132,-0.0105673,0.0312163,-0.00416434,-1.2507,0.0223288,0.0285239,1000,414,5.01615,34.349
-217,610,5.04419,-35.0815,-0.000447094,0.0242279,-0.00970095,0.0275851,-0.00380425,-1.23763,0.0197805,0.0197569,1007,414,5.04418,35.0815
-210,610,4.99585,-35.7447,-0.00022518,0.0204078,-0.00879139,0.0236456,-0.00346297,-1.21792,0.0170358,0.0142427,1014,414,4.99583,35.7447
-203,610,4.95544,-36.2905,-8.82572e-05,0.0173277,-0.00787476,0.0203603,-0.00312084,-1.2032,0.0147245,0.0164148,1021,414,4.9555,36.2905
-196,610,4.91321,-36.7997,1.17235e-05,0.0150105,-0.00708491,0.017828,-0.0028057,-1.1923,0.0129225,0.014838,1028,414,4.91324,36.7997
-189,610,4.87268,-37.3412,8.59589e-05,0.0131545,-0.00655242,0.0158739,-0.00263347,-1.1774,0.0115609,0.0123917,1035,414,4.87267,37.3412
-182,610,4.84753,-37.8518,9.14424e-05,0.0112594,-0.00583245,0.0137499,-0.00239913,-1.16722,0.0100621,0.0138206,1042,414,4.84757,37.8518
-175,610,4.82922,-38.332,1.63954e-05,0.00925159,-0.00495817,0.0114094,-0.00214138,-1.16032,0.00841139,0.0142726,1049,414,4.82922,38.332
-168,610,4.76868,-38.8254,-6.09058e-05,0.00736068,-0.00409785,0.00917821,-0.00187844,-1.15333,0.00683159,0.0127884,1056,414,4.76862,38.8254
-161,610,4.74634,-39.3398,-8.24013e-05,0.0056537,-0.00326267,0.0071297,-0.00155839,-1.14596,0.00534881,0.0117796,1063,414,4.74638,39.3398
-154,610,4.75476,-39.7992,-5.92504e-05,0.00393895,-0.00248106,0.00512608,-0.00124638,-1.12452,0.00389981,0.0140954,1070,414,4.75478,39.7992
-147,610,4.7323,-40.2186,-4.48941e-05,0.00224236,-0.00170326,0.00315032,-0.000952848,-1.08105,0.00247962,0.0164363,1077,414,4.7323,40.2186
-140,610,4.69897,-40.677,8.83851e-06,0.000576097,-0.000959731,0.00129323,-0.000708297,-0.929074,0.00117192,0.0131828,1084,414,4.699,40.677
-133,610,4.68469,-41.089,1.50326e-05,-0.00112948,-0.000251694,6.79384e-05,-0.00118238,-0.207182,0.000811849,0.0143218,1091,414,4.68465,41.089
-126,610,4.68274,-41.482,7.77884e-05,-0.00240653,0.00023519,9.98576e-05,-0.0024286,0.0935623,0.00165335,0.0134671,1098,414,4.68276,41.482
-119,610,4.69934,-41.9056,0.000288981,-0.00340132,0.000573706,0.000376114,-0.00348846,0.150725,0.00246061,0.0115963,1105,414,4.69931,41.9056
-112,610,4.70349,-42.3186,0.000579039,-0.00413796,0.000828082,0.000720187,-0.0042791,0.16883,0.00312062,0.0190852,1112,414,4.70351,42.3186
-105,610,4.6731,-42.706,0.000877358,-0.0046172,0.000969605,0.00104344,-0.00478328,0.169643,0.00358761,0.0185246,1119,414,4.67308,42.706
-98,610,4.66943,-43.0735,0.00118486,-0.00493163,0.00105562,0.00136191,-0.00510869,0.166184,0.00393904,0.013478,1126,414,4.66937,43.0735
-91,610,4.68445,-43.4377,0.00159771,-0.00490017,0.00105699,0.00176533,-0.00506778,0.157267,0.0040958,0.0148733,1133,414,4.68439,43.4377
-84,610,4.72144,-43.7921,0.00212,-0.00453442,0.000938318,0.00224978,-0.0046642,0.137437,0.00407211,0.0151762,1140,414,4.72146,43.792
-77,610,4.70935,-44.1685,0.00266144,-0.00378004,0.000774053,0.00275315,-0.00387175,0.11793,0.00384302,0.0123601,1147,414,4.70933,44.1685
-70,610,4.75659,-44.512,0.00345347,-0.00270181,0.000672871,0.00352617,-0.00277451,0.107623,0.00364632,0.0150045,1154,414,4.75658,44.512
-63,610,4.79517,-44.8141,0.00451709,-0.00240669,0.000790378,0.00460617,-0.00249576,0.112231,0.00416021,0.0146894,1161,414,4.79515,44.8142
-56,610,4.83569,-45.074,0.0053929,-0.00337478,0.000908691,0.00548609,-0.00346797,0.102194,0.00521321,0.013022,1168,414,4.83568,45.074
-49,610,4.83936,-45.34,0.00584158,-0.00464923,0.00118448,0.00597365,-0.0047813,0.111044,0.00622208,0.0128553,1175,414,4.83932,45.34
-42,610,4.8501,-45.6205,0.00648133,-0.00629639,0.00162954,0.00668587,-0.00650093,0.124867,0.00761366,0.0157021,1182,414,4.85015,45.6205
-35,610,4.92053,-45.8643,0.00710985,-0.00837593,0.00189945,0.00733943,-0.00860551,0.120282,0.00921548,0.0158203,1189,414,4.92048,45.8643
-28,610,4.96301,-46.0739,0.00749556,-0.0106059,0.00212369,0.00774138,-0.0108517,0.115237,0.0107847,0.0131567,1196,414,4.96296,46.0739
-21,610,5.01379,-46.2512,0.00789124,-0.0131545,0.00229331,0.00813824,-0.0134015,0.10729,0.0125591,0.0110862,1203,414,5.01376,46.2512
-14,610,5.06494,-46.4362,0.00835754,-0.0152387,0.00223647,0.00856764,-0.0154488,0.0936694,0.0140543,0.0128057,1210,414,5.06495,46.4362
-7,610,5.11707,-46.5941,0.00886903,-0.0175478,0.00199172,0.00901835,-0.0176972,0.0748321,0.0156932,0.0156306,1217,414,5.11712,46.5941
0,610,5.17249,-46.7751,0.00919127,-0.0194794,0.00161628,0.0092821,-0.0195702,0.0561371,0.0170072,0.0124589,1224,414,5.17244,46.7751
7,610,5.22583,-46.9367,0.00922681,-0.0213239,0.00138409,0.00928939,-0.0213864,0.0451814,0.0181639,0.013851,1231,414,5.22581,46.9367
14,610,5.35425,-47.0164,0.00922619,-0.0227489,0.00110307,0.0092642,-0.0227869,0.0344434,0.0190458,0.0182906,1238,414,5.35423,47.0164
21,610,5.42249,-47.1087,0.00920704,-0.0238272,0.000815072,0.00922714,-0.0238473,0.0246536,0.0197076,0.0173198,1245,414,5.42251,47.1087
28,610,5.39978,-47.2573,0.00916946,-0.0243782,0.000596102,0.00918005,-0.0243888,0.0177614,0.020033,0.0185119,1252,414,5.39973,47.2573
35,610,5.57043,-47.3303,0.00907461,-0.0243751,0.000494148,0.00908191,-0.0243824,0.0147685,0.0199825,0.022266,1259,414,5.57045,47.3303
42,610,5.63135,-47.369,0.00905565,-0.0238287,0.000438931,0.00906151,-0.0238345,0.0133446,0.0196205,0.0198698,1266,414,5.63131,47.369
49,610,5.66333,-47.4756,0.00907164,-0.0227046,0.000379973,0.00907619,-0.0227091,0.0119555,0.0189055,0.0182783,1273,414,5.66336,47.4756
56,610,5.74426,-47.477,0.00912513,-0.0213485,0.000336293,0.00912885,-0.0213522,0.0110338,0.0180637,0.0175163,1280,414,5.74428,47.477
63,610,5.71912,-47.4226,0.00913883,-0.0199419,-6.35146e-05,0.00913897,-0.019942,-0.00218407,0.0171717,0.024096,1287,414,5.71917,47.4226
70,610,5.77161,-47.3756,0.00917779,-0.0184443,-0.000510039,0.00918721,-0.0184537,-0.0184565,0.0162547,0.0325694,1294,414,5.77166,47.3757
77,610,5.88086,-47.3471,0.00956613,-0.0167984,-0.000844539,0.00959316,-0.0168255,-0.0319894,0.0154421,0.0381753,1301,414,5.88091,47.3471
84,610,5.9574,-47.3406,0.0102209,-0.0161131,-0.0013443,0.0102893,-0.0161816,-0.0508717,0.0154087,0.0341123,1308,414,5.95738,47.3406
91,610,6.09839,-47.2916,0.010306,-0.0166024,-0.0020351,0.010459,-0.0167555,-0.0750617,0.0158518,0.0282198,1315,414,6.09836,47.2916
98,610,6.25208,-47.2761,0.00994129,-0.0167499,-0.00264636,0.0102011,-0.0170097,-0.0978775,0.0158733,0.0259273,1322,414,6.25206,47.2761
105,610,6.27991,-47.1391,0.00991912,-0.0171896,-0.00310843,0.010271,-0.0175415,-0.112716,0.0162394,0.0209496,1329,414,6.27991,47.1391
112,610,6.32349,-47.015,0.0102343,-0.0174267,-0.00380431,0.010748,-0.0179404,-0.134214,0.0167359,0.0145867,1336,414,6.32351,47.015
119,610,6.35376,-46.9084,0.0102409,-0.0177721,-0.00423447,0.010867,-0.0183982,-0.146793,0.0170818,0.0209759,1343,414,6.35381,46.9084
126,610,6.38818,-46.7689,0.0100001,-0.0177556,-0.00456281,0.0107309,-0.0184864,-0.158825,0.0170656,0.0290587,1350,414,6.38824,46.7689
133,610,6.52295,-46.5717,0.00953862,-0.01737,-0.00471676,0.0103415,-0.0181729,-0.168594,0.0166684,0.0226734,1357,414,6.52297,46.5718
140,610,6.60474,-46.3683,0.00900181,-0.0166873,-0.00473281,0.00984601,-0.0175315,-0.176516,0.0160127,0.0182792,1364,414,6.60471,46.3683
147,610,6.57971,-46.1427,0.00847859,-0.0157675,-0.00461102,0.00932588,-0.0166148,-0.181727,0.0151726,0.0191533,1371,414,6.57974,46.1427
154,610,6.55042,-45.9168,0.00802746,-0.0145302,-0.00445594,0.00887576,-0.0153785,-0.188125,0.01417,0.023407,1378,414,6.55044,45.9168
161,610,6.63062,-45.7049,0.00754934,-0.0128677,-0.00426705,0.00840525,-0.0137236,-0.197959,0.0128985,0.0268219,1385,414,6.63066,45.7049
168,610,6.76221,-45.4906,0.00698211,-0.010924,-0.00390791,0.00779782,-0.0117397,-0.205781,0.0113563,0.0270812,1392,414,6.7622,45.4906
175,610,6.82239,-45.2149,0.00641551,-0.00898725,-0.00353514,0.00718811,-0.00975986,-0.215168,0.0098224,0.0241561,1399,414,6.82242,45.2149
182,610,6.83374,-44.9045,0.00574047,-0.00732387,-0.00324086,0.00650025,-0.00808364,-0.230277,0.00843654,0.0173727,1406,414,6.83375,44.9045
189,610,6.85046,-44.5791,0.00489619,-0.00530691,-0.00287613,0.00565109,-0.0060618,-0.256679,0.00676382,0.0148312,1413,414,6.85046,44.5791
196,610,6.87012,-44.265,0.00437451,-0.00353882,-0.00232977,0.00500947,-0.00417378,-0.26608,0.00530926,0.0142606,1420,414,6.87014,44.265
203,610,6.88318,-43.9471,0.0039019,-0.00187864,-0.00182478,0.00442974,-0.00240648,-0.281578,0.0040041,0.0142492,1427,414,6.88313,43.9471
210,610,6.90173,-43.5972,0.00324098,-0.000699604,-0.00135268,0.00366063,-0.00111925,-0.300817,0.00288676,0.0114623,1434,414,6.90178,43.5972
217,610,6.95386,-43.1768,0.00244686,0.000207552,-0.000887384,0.00275587,-0.000101455,-0.335091,0.00187198,0.0178276,1441,414,6.95385,43.1768
224,610,6.97607,-42.8234,0.00175857,0.00108265,-0.000398048,0.00194278,0.000898444,-0.433428,0.00112272,0.0208403,1448,414,6.97606,42.8234
231,610,6.98206,-42.4613,0.00139673,0.00190708,5.75189e-05,0.00191348,0.00139033,1.45994,0.00114194,0.0168513,1455,414,6.982,42.4613
238,610,6.9718,-42.0279,0.00137578,0.00267173,0.000444862,0.00280974,0.00123777,1.26998,0.00162603,0.0117561,1462,414,6.97186,42.0279
245,610,6.9978,-41.6115,0.00145918,0.0034384,0.000759288,0.00369613,0.00120145,1.24357,0.00217706,0.0125074,1469,414,6.99784,41.6115
252,610,6.98291,-41.1823,0.00158506,0.00428261,0.00110906,0.00468003,0.00118764,1.22671,0.00280911,0.0144949,1476,414,6.98286,41.1823
259,610,6.96301,-40.7072,0.00175298,0.00510437,0.00155122,0.00571215,0.0011452,1.19737,0.00348958,0.0128243,1483,414,6.96296,40.7072
266,610,6.953,-40.237,0.0019714,0.00599354,0.00203285,0.00684199,0.00112295,1.1754,0.00423691,0.012848,1490,414,6.95296,40.237
273,610,6.94336,-39.7792,0.00219629,0.00696329,0.00255042,0.0080706,0.00108898,1.16119,0.00505664,0.0101635,1497,414,6.94339,39.7792
280,610,6.91113,-39.301,0.0023865,0.00796838,0.00311279,0.0093582,0.00099668,1.15087,0.00593454,0.00907463,1504,414,6.91118,39.301
287,610,6.89185,-38.7928,0.00252191,0.00904157,0.00373768,0.0107413,0.000822228,1.14401,0.0069031,0.0119598,1511,414,6.89181,38.7928
294,610,6.88196,-38.3042,0.0024791,0.0100867,0.0043155,0.0120355,0.000530287,1.14663,0.00785286,0.0106869,1518,414,6.88199,38.3042
301,610,6.87231,-37.8457,0.00228286,0.0110391,0.00483478,0.0131835,0.000138479,1.15333,0.00874322,0.0100029,1525,414,6.87235,37.8457
308,610,6.84497,-37.3092,0.00202346,0.0119299,0.00534929,0.014267,-0.000313679,1.15888,0.00961761,0.0119785,1532,414,6.84498,37.3092
315,610,6.79822,-36.7741,0.00164952,0.012836,0.0058239,0.0153175,-0.000832029,1.168,0.0105,0.0134899,1539,414,6.79817,36.7742
322,610,6.74365,-36.2289,0.00107192,0.0135629,0.00619916,0.0161171,-0.00148235,1.17996,0.0112714,0.0131844,1546,414,6.7436,36.2289
329,610,6.69995,-35.6864,0.000322102,0.0141144,0.00660051,0.0167641,-0.00232762,1.18905,0.0120273,0.0118719,1553,414,6.69991,35.6864
336,610,6.69446,-35.1414,-0.00055331,0.0149009,0.00691279,0.0175418,-0.00319417,1.20588,0.0128918,0.0121268,1560,414,6.6944,35.1413
343,610,6.64258,-34.5465,-0.001194,0.0154077,0.0069541,0.0179357,-0.00372198,1.22212,0.0133716,0.0166443,1567,414,6.64254,34.5465
350,610,6.56409,-33.986,-0.00144314,0.0166564,0.0075833,0.0194136,-0.00420035,1.22207,0.0145461,0.0374778,1574,414,6.56407,33.986
357,610,6.64832,-33.2292,0,0,0,0,0,0,0,-1,1581,414,6.64835,33.2292
364,610,6.76172,-32.5536,0,0,0,0,0,0,0,-1,1588,414,6.76172,32.5536
371,610,6.42639,-31.8676,0,0,0,0,0,0,0,-1,1595,414,6.42634,31.8675
378,610,3.5752,-12.1958,0,0,0,0,0,0,0,-1,1602,414,3.57517,12.1958
385,610,2.57104,-10.3878,0,0,0,0,0,0,0,-1,1609,414,2.57109,10.3878
392,610,1.99744,-1.83582,0,0,0,0,0,0,0,-1,1616,414,1.99741,1.8358
399,610,2.77136,-2.60333,0,0,0,0,0,0,0,-1,1623,414,2.77133,2.60332
406,610,3.54529,-3.37085,0,0,0,0,0,0,0,-1,1630,414,3.54525,3.37084
413,610,3.01929,-3.20306,0,0,0,0,0,0,0,-1,1637,414,3.01929,3.20306
420,610,4.78149,-3.64041,0,0,0,0,0,0,0,-1,1644,414,4.78152,3.64042
427,610,8.85168,-23.3853,0,0,0,0,0,0,0,-1,1651,414,8.85174,23.3853
434,610,8.73706,-22.6227,0,0,0,0,0,0,0,-1,1658,414,8.73703,22.6227
441,610,0,0,0,0,0,0,0,0,0,-1,1665,414,0,0
448,610,0,0,0,0,0,0,0,0,0,-1,1672,414,0,0
455,610,0,0,0,0,0,0,0,0,0,-1,1679,414,0,0
462,610,0,0,0,0,0,0,0,0,0,-1,1686,414,0,0
469,610,0,0,0,0,0,0,0,0,0,-1,1693,414,0,0
476,610,0,0,0,0,0,0,0,0,0,-1,1700,414,0,0
483,610,0,0,0,0,0,0,0,0,0,-1,1707,414,0,0
490,610,0,0,0,0,0,0,0,0,0,-1,1714,414,0,0
497,610,0,0,0,0,0,0,0,0,0,-1,1721,414,0,0
504,610,0,0,0,0,0,0,0,0,0,-1,1728,414,0,0
511,610,0,0,0,0,0,0,0,0,0,-1,1735,414,0,0
518,610,0,0,0,0,0,0,0,0,0,-1,1742,414,0,0
525,610,0,0,0,0,0,0,0,0,0,-1,1749,414,0,0
532,610,0,0,0,0,0,0,0,0,0,-1,1756,414,0,0
539,610,0,0,0,0,0,0,0,0,0,-1,1763,414,0,0
546,610,0,0,0,0,0,0,0,0,0,-1,1770,414,0,0
553,610,0,0,0,0,0,0,0,0,0,-1,1777,414,0,0
560,610,0,0,0,0,0,0,0,0,0,-1,1784,414,0,0
567,610,0,0,0,0,0,0,0,0,0,-1,1791,414,0,0
574,610,0,0,0,0,0,0,0,0,0,-1,1798,414,0,0
581,610,0,0,0,0,0,0,0,0,0,-1,1805,414,0,0
588,610,0,0,0,0,0,0,0,0,0,-1,1812,414,0,0
595,610,0,0,0,0,0,0,0,0,0,-1,1819,414,0,0
602,610,0,0,0,0,0,0,0,0,0,-1,1826,414,0,0
609,610,0,0,0,0,0,0,0,0,0,-1,1833,414,0,0
616,610,0,0,0,0,0,0,0,0,0,-1,1840,414,0,0
623,610,0,0,0,0,0,0,0,0,0,-1,1847,414,0,0
630,610,0,0,0,0,0,0,0,0,0,-1,1854,414,0,0
637,610,0,0,0,0,0,0,0,0,0,-1,1861,414,0,0
644,610,0,0,0,0,0,0,0,0,0,-1,1868,414,0,0
651,610,0,0,0,0,0,0,0,0,0,-1,1875,414,0,0
658,610,0,0,0,0,0,0,0,0,0,-1,1882,414,0,0
665,610,0,0,0,0,0,0,0,0,0,-1,1889,414,0,0
672,610,0,0,0,0,0,0,0,0,0,-1,1896,414,0,0
679,610,0,0,0,0,0,0,0,0,0,-1,1903,414,0,0
686,610,0,0,0,0,0,0,0,0,0,-1,1910,414,0,0
693,610,0,0,0,0,0,0,0,0,0,-1,1917,414,0,0
700,610,0,0,0,0,0,0,0,0,0,-1,1924,414,0,0
707,610,0,0,0,0,0,0,0,0,0,-1,1931,414,0,0
714,610,0,0,0,0,0,0,0,0,0,-1,1938,414,0,0
721,610,0,0,0,0,0,0,0,0,0,-1,1945,414,0,0
728,610,0,0,0,0,0,0,0,0,0,-1,1952,414,0,0
735,610,0,0,0,0,0,0,0,0,0,-1,1959,414,0,0
742,610,0,0,0,0,0,0,0,0,0,-1,1966,414,0,0
749,610,0,0,0,0,0,0,0,0,0,-1,1973,414,0,0
756,610,0,0,0,0,0,0,0,0,0,-1,1980,414,0,0
763,610,0,0,0,0,0,0,0,0,0,-1,1987,414,0,0
770,610,0,0,0,0,0,0,0,0,0,-1,1994,414,0,0
777,610,0,0,0,0,0,0,0,0,0,-1,2001,414,0,0
784,610,0,0,0,0,0,0,0,0,0,-1,2008,414,0,0
791,610,0,0,0,0,0,0,0,0,0,-1,2015,414,0,0
798,610,0,0,0,0,0,0,0,0,0,-1,2022,414,0,0
805,610,0,0,0,0,0,0,0,0,0,-1,2029,414,0,0
812,610,0,0,0,0,0,0,0,0,0,-1,2036,414,0,0
-700,603,0,0,0,0,0,0,0,0,0,-1,524,421,0,0
-693,603,0,0,0,0,0,0,0,0,0,-1,531,421,0,0
-686,603,0,0,0,0,0,0,0,0,0,-1,538,421,0,0
-679,603,0,0,0,0,0,0,0,0,0,-1,545,421,0,0
-672,603,0,0,0,0,0,0,0,0,0,-1,552,421,0,0
-665,603,0,0,0,0,0,0,0,0,0,-1,559,421,0,0
-658,603,0,0,0,0,0,0,0,0,0,-1,566,421,0,0
-651,603,0,0,0,0,0,0,0,0,0,-1,573,421,0,0
-644,603,0,0,0,0,0,0,0,0,0,-1,580,421,0,0
-637,603,0,0,0,0,0,0,0,0,0,-1,587,421,0,0
-630,603,0,0,0,0,0,0,0,0,0,-1,594,421,0,0
-623,603,0,0,0,0,0,0,0,0,0,-1,601,421,0,0
-616,603,0,0,0,0,0,0,0,0,0,-1,608,421,0,0
-609,603,0,0,0,0,0,0,0,0,0,-1,615,421,0,0
-602,603,0,0,0,0,0,0,0,0,0,-1,622,421,0,0
-595,603,0,0,0,0,0,0,0,0,0,-1,629,421,0,0
-588,603,0,0,0,0,0,0,0,0,0,-1,636,421,0,0
-581,603,0,0,0,0,0,0,0,0,0,-1,643,421,0,0
-574,603,0,0,0,0,0,0,0,0,0,-1,650,421,0,0
-567,603,0,0,0,0,0,0,0,0,0,-1,657,421,0,0
-560,603,0,0,0,0,0,0,0,0,0,-1,664,421,0,0
-553,603,0,0,0,0,0,0,0,0,0,-1,671,421,0,0
-546,603,0,0,0,0,0,0,0,0,0,-1,678,421,0,0
-539,603,0,0,0,0,0,0,0,0,0,-1,685,421,0,0
-532,603,0,0,0,0,0,0,0,0,0,-1,692,421,0,0
-525,603,0,0,0,0,0,0,0,0,0,-1,699,421,0,0
-518,603,0,0,0,0,0,0,0,0,0,-1,706,421,0,0
-511,603,0,0,0,0,0,0,0,0,0,-1,713,421,0,0
-504,603,0,0,0,0,0,0,0,0,0,-1,720,421,0,0
-497,603,0,0,0,0,0,0,0,0,0,-1,727,421,0,0
-490,603,0,0,0,0,0,0,0,0,0,-1,734,421,0,0
-483,603,0,0,0,0,0,0,0,0,0,-1,741,421,0,0
-476,603,0,0,0,0,0,0,0,0,0,-1,748,421,0,0
-469,603,0,0,0,0,0,0,0,0,0,-1,755,421,0,0
-462,603,0,0,0,0,0,0,0,0,0,-1,762,421,0,0
-455,603,0,0,0,0,0,0,0,0,0,-1,769,421,0,0
-448,603,0,0,0,0,0,0,0,0,0,-1,776,421,0,0
-441,603,0,0,0,0,0,0,0,0,0,-1,783,421,0,0
-434,603,0,0,0,0,0,0,0,0,0,-1,790,421,0,0
-427,603,0,0,0,0,0,0,0,0,0,-1,797,421,0,0
-420,603,0,0,0,0,0,0,0,0,0,-1,804,421,0,0
-413,603,0,0,0,0,0,0,0,0,0,-1,811,421,0,0
-406,603,0,0,0,0,0,0,0,0,0,-1,818,421,0,0
-399,603,0,0,0,0,0,0,0,0,0,-1,825,421,0,0
-392,603,0,0,0,0,0,0,0,0,0,-1,832,421,0,0
-385,603,0,0,0,0,0,0,0,0,0,-1,839,421,0,0
-378,603,0,0,0,0,0,0,0,0,0,-1,846,421,0,0
-371,603,0,0,0,0,0,0,0,0,0,-1,853,421,0,0
-364,603,0,0,0,0,0,0,0,0,0,-1,860,421,0,0
-357,603,0,0,0,0,0,0,0,0,0,-1,867,421,0,0
-350,603,0,0,0,0,0,0,0,0,0,-1,874,421,0,0
-343,603,0,0,0,0,0,0,0,0,0,-1,881,421,0,0
-336,603,0,0,0,0,0,0,0,0,0,-1,888,421,0,0
-329,603,4.09686,-17.9702,0,0,0,0,0,0,0,-1,895,421,4.09687,17.9702
-322,603,8.83179,-28.7376,0,0,0,0,0,0,0,-1,902,421,8.83179,28.7376
-315,603,5.99744,-20.4501,0,0,0,0,0,0,0,-1,909,421,5.99745,20.4501
-308,603,5.92249,-20.778,0,0,0,0,0,0,0,-1,916,421,5.92248,20.778
-301,603,2.72424,-20.9059,0,0,0,0,0,0,0,-1,923,421,2.72424,20.9059
-294,603,2.41553,-20.6767,0,0,0,0,0,0,0,-1,930,421,2.41554,20.6767
-287,603,1.91766,-21.2242,0,0,0,0,0,0,0,-1,937,421,1.91767,21.2242
-280,603,2.36121,-27.3314,0,0,0,0,0,0,0,-1,944,421,2.36119,27.3314
-273,603,4.85809,-31.9352,0,0,0,0,0,0,0,-1,951,421,4.85811,31.9351
-266,603,4.83575,-29.8555,0,0,0,0,0,0,0,-1,958,421,4.83577,29.8555
-259,603,4.79626,-30.7113,0,0,0,0,0,0,0,-1,965,421,4.79626,30.7113
-252,603,4.77173,-32.2574,0,0,0,0,0,0,0,-1,972,421,4.77175,32.2574
-245,603,4.75861,-32.7458,-0.00171647,0.0299613,-0.0105031,0.0331273,-0.00488247,-1.27802,0.0238793,0.0349118,979,421,4.75859,32.7458
-238,603,4.62946,-33.3633,-0.00128661,0.0272902,-0.00984926,0.0303559,-0.00435235,-1.26904,0.0218331,0.0232973,986,421,4.62945,33.3633
-231,603,4.55176,-34.031,-0.000866489,0.0241661,-0.0090332,0.0270854,-0.00378575,-1.25822,0.0194421,0.0146387,993,421,4.55177,34.031
-224,603,4.53485,-34.6412,-0.000627545,0.0212611,-0.00818585,0.0239838,-0.00335019,-1.2497,0.0172149,0.0142857,1000,421,4.53484,34.6412
-217,603,4.51971,-35.1953,-0.000403255,0.0184074,-0.00742038,0.0209821,-0.00297801,-1.23681,0.0150791,0.0130417,1007,421,4.51971,35.1953
-210,603,4.48212,-35.7534,-0.000169753,0.0151637,-0.00660675,0.0176177,-0.00262369,-1.21516,0.0127103,0.0112875,1014,421,4.48212,35.7534
-203,603,4.45227,-36.3158,6.45143e-06,0.0125306,-0.00578528,0.014794,-0.00225691,-1.19788,0.0106946,0.0175595,1021,421,4.45227,36.3158
-196,603,4.44922,-36.8679,0.000151398,0.0105248,-0.00506135,0.0125851,-0.0019089,-1.18421,0.00909343,0.0192793,1028,421,4.44922,36.8679
-189,603,4.427,-37.352,0.000290417,0.00877343,-0.0045115,0.0107242,-0.00166033,-1.16268,0.00776232,0.0164062,1035,421,4.42703,37.352
-182,603,4.38147,-37.8401,0.000407269,0.00691092,-0.00379233,0.00865471,-0.00133652,-1.13981,0.00626303,0.0122343,1042,421,4.38153,37.8402
-175,603,4.34607,-38.3352,0.000455362,0.00483172,-0.00294697,0.00631406,-0.00102699,-1.10475,0.00459016,0.0121131,1049,421,4.34604,38.3352
-168,603,4.29895,-38.8168,0.000454048,0.00281016,-0.00212718,0.00406371,-0.000799499,-1.03828,0.00301123,0.0146834,1056,421,4.29889,38.8168
-161,603,4.27637,-39.3154,0.00048106,0.000962264,-0.00130972,0.00205329,-0.00060997,-0.876238,0.00161115,0.0146078,1063,421,4.27643,39.3154
-154,603,4.2677,-39.7773,0.00055202,-0.000938491,-0.000514174,0.000712182,-0.00109865,-0.301968,0.00105339,0.0131526,1070,421,4.26773,39.7772
-147,603,4.26489,-40.2056,0.000615068,-0.00283399,0.000272535,0.00063647,-0.00285539,0.0783691,0.00214743,0.0142913,1077,421,4.26485,40.2056
-140,603,4.28186,-40.6527,0.000692851,-0.00474511,0.00102466,0.000879518,-0.00493178,0.180198,0.00361685,0.0125546,1084,421,4.28192,40.6527
-133,603,4.26611,-41.0628,0.000735997,-0.00657937,0.00169702,0.0011105,-0.00695387,0.217201,0.00504697,0.0135425,1091,421,4.26613,41.0628
-126,603,4.27563,-41.4597,0.000823259,-0.00800704,0.00215937,0.00132303,-0.00850681,0.227438,0.00615976,0.012152,1098,421,4.27562,41.4597
-119,603,4.3158,-41.8866,0.00103121,-0.00911714,0.00248712,0.00160796,-0.00969389,0.227869,0.00705989,0.0111487,1105,421,4.31578,41.8866
-112,603,4.32727,-42.3179,0.00130498,-0.00983337,0.00268647,0.00191908,-0.0104475,0.224727,0.00768496,0.0164094,1112,421,4.32729,42.3179
-105,603,4.31763,-42.7121,0.00160696,-0.0101789,0.00275286,0.00221825,-0.0107902,0.218511,0.00803558,0.0172481,1119,421,4.31764,42.7121
-98,603,4.30298,-43.0491,0.00193905,-0.0102763,0.00275211,0.00253046,-0.0108677,0.211676,0.00821952,0.0139833,1126,421,4.30297,43.0491
-91,603,4.3324,-43.4158,0.00243216,-0.00989422,0.00261403,0.0029636,-0.0104257,0.200569,0.00812061,0.0102776,1133,421,4.33235,43.4158
-84,603,4.36987,-43.787,0.0030605,-0.00892606,0.00225778,0.00347167,-0.00933723,0.180138,0.00764932,0.0117164,1140,421,4.36982,43.7871
-77,603,4.41248,-44.1632,0.003712,-0.00738288,0.00183362,0.00400718,-0.00767807,0.159615,0.00685655,0.0180134,1147,421,4.41252,44.1632
-70,603,4.44946,-44.5451,0,0,0,0,0,0,0,-1,1154,421,4.44947,44.5451
-63,603,4.44507,-44.7583,0,0,0,0,0,0,0,-1,1161,421,4.44505,44.7583
-56,603,4.52844,-45.0544,0,0,0,0,0,0,0,-1,1168,421,4.52849,45.0544
-49,603,4.57483,-45.3223,0,0,0,0,0,0,0,-1,1175,421,4.5748,45.3223
-42,603,4.5946,-45.5661,0,0,0,0,0,0,0,-1,1182,421,4.59462,45.5661
-35,603,4.59851,-45.7202,0.00962695,-0.0117576,0.00275353,0.00997581,-0.0121065,0.126024,0.012769,0.0421566,1189,421,4.59846,45.7203
-28,603,4.65454,-45.9253,0.010025,-0.0146827,0.00302838,0.0103908,-0.0150484,0.120198,0.0147692,0.0290589,1196,421,4.6546,45.9253
-21,603,4.72974,-46.1295,0.0104282,-0.0180772,0.00325378,0.0107948,-0.0184439,0.112223,0.0170725,0.0243679,1203,421,4.7297,46.1294
-14,603,4.84949,-46.3099,0.0109302,-0.0208914,0.00316385,0.0112417,-0.0212029,0.0981447,0.0190239,0.0227211,1210,421,4.84951,46.31
-7,603,4.94836,-46.4567,0.0114994,-0.0240086,0.00281113,0.0117206,-0.0242298,0.078517,0.0211706,0.0277825,1217,421,4.94838,46.4567
0,603,5.00208,-46.6376,0.0118018,-0.0266434,0.00228168,0.0119367,-0.0267784,0.0590725,0.0228931,0.0347773,1224,421,5.00202,46.6376
7,603,5.02856,-46.6203,0.0117152,-0.029206,0.00196638,0.0118095,-0.0293002,0.0479059,0.0244403,0.0430286,1231,421,5.02856,46.6203
14,603,5.32874,-46.5,0.0116223,-0.0312118,0.00157477,0.0116801,-0.0312696,0.0366984,0.0256424,0.0446563,1238,421,5.32879,46.5
21,603,5.32117,-46.6332,0.011499,-0.0327228,0.00115653,0.0115292,-0.032753,0.0261292,0.0265271,0.036012,1245,421,5.32112,46.6332
28,603,5.32434,-46.6843,0.0113356,-0.0335142,0.00084054,0.0113513,-0.03353,0.0187324,0.0269462,0.0404584,1252,421,5.32431,46.6843
35,603,5.6333,-47.091,0,0,0,0,0,0,0,-1,1259,421,5.63335,47.091
42,603,5.54565,-47.014,0.0110836,-0.0328167,0.000618589,0.0110923,-0.0328254,0.0140871,0.0263705,0.0461677,1266,421,5.5457,47.014
49,603,5.73328,-47.256,0.0110846,-0.0312666,0.000562132,0.0110921,-0.0312741,0.01327,0.0253684,0.022647,1273,421,5.73333,47.256
56,603,5.65588,-47.1686,0.011136,-0.0293529,0.000508915,0.0111424,-0.0293593,0.0125666,0.0241592,0.0463782,1280,421,5.65583,47.1686
63,603,5.57654,-47.254,0,0,0,0,0,0,0,-1,1287,421,5.57651,47.254
70,603,5.63782,-47.1536,0,0,0,0,0,0,0,-1,1294,421,5.63785,47.1536
77,603,5.86389,-47.1617,0,0,0,0,0,0,0,-1,1301,421,5.86391,47.1617
84,603,5.9552,-47.2167,0,0,0,0,0,0,0,-1,1308,421,5.95514,47.2167
91,603,6.14636,-47.149,0,0,0,0,0,0,0,-1,1315,421,6.14633,47.1491
98,603,6.43604,-47.2859,0,0,0,0,0,0,0,-1,1322,421,6.436,47.286
105,603,6.4447,-47.094,0,0,0,0,0,0,0,-1,1329,421,6.44473,47.094
112,603,6.65955,-46.7251,0.0131932,-0.0239793,-0.00553489,0.0139998,-0.024786,-0.144716,0.0226798,0.0446233,1336,421,6.65957,46.7251
119,603,6.78076,-46.5487,0.0131889,-0.0245243,-0.00615655,0.0141685,-0.0255039,-0.157791,0.0232144,0.0441745,1343,421,6.78078,46.5488
126,603,6.76392,-46.3205,0,0,0,0,0,0,0,-1,1350,421,6.76388,46.3205
133,603,6.73291,-46.1246,0.0123569,-0.0240907,-0.0068185,0.0135907,-0.0253245,-0.179014,0.0228056,0.0465264,1357,421,6.73297,46.1246
140,603,6.96179,-45.9371,0.0116862,-0.0231726,-0.00685165,0.0129845,-0.0244709,-0.187276,0.0219612,0.0366465,1364,421,6.96185,45.9371
147,603,6.84314,-45.8435,0.0110287,-0.0219463,-0.00670613,0.0123404,-0.023258,-0.193152,0.0208724,0.0288224,1371,421,6.8431,45.8435
154,603,6.7583,-45.7928,0.0104705,-0.0202929,-0.00650991,0.0117913,-0.0216138,-0.200183,0.0195624,0.0346194,1378,421,6.75831,45.7928
161,603,6.93762,-45.593,0.00988311,-0.0181137,-0.006261,0.0112195,-0.01945,-0.210289,0.0179183,0.0329612,1385,421,6.93764,45.593
168,603,7.12683,-45.3527,0.00920637,-0.0155589,-0.00578956,0.010493,-0.0168455,-0.218678,0.0159253,0.0353918,1392,421,7.12685,45.3527
175,603,7.30835,-45.0868,0.00854212,-0.01306,-0.00530688,0.00977542,-0.0142933,-0.228343,0.0139775,0.0408636,1399,421,7.30829,45.0868
182,603,7.32507,-44.8356,0.00774243,-0.0109828,-0.00491581,0.00895449,-0.0121948,-0.241742,0.0122582,0.04608,1406,421,7.32508,44.8356
189,603,7.27466,-44.495,0.00670095,-0.00843909,-0.00445471,0.00791442,-0.00965255,-0.265948,0.0101588,0.0388785,1413,421,7.2746,44.495
196,603,7.21997,-44.1294,0.00606179,-0.00621884,-0.00374807,0.00711533,-0.00727237,-0.274017,0.00830691,0.0289514,1420,421,7.22001,44.1294
203,603,7.24854,-43.8806,0.00545457,-0.00406682,-0.00311019,0.00638049,-0.00499274,-0.289348,0.00658261,0.0171061,1427,421,7.24848,43.8806
210,603,7.28455,-43.6332,0.00460357,-0.00259827,-0.00251299,0.00539375,-0.00338845,-0.304649,0.00511427,0.0133405,1434,421,7.2845,43.6332
217,603,7.29456,-43.2133,0.00352597,-0.00157022,-0.00192907,0.00417383,-0.00221808,-0.324003,0.00374751,0.014676,1441,421,7.29457,43.2133
224,603,7.35864,-42.8137,0.00251468,-0.000560734,-0.00130959,0.00299676,-0.00104282,-0.352726,0.00242149,0.018366,1448,421,7.35859,42.8137
231,603,7.37512,-42.434,0.00182599,0.000355266,-0.000789919,0.00216985,1.14008e-05,-0.410576,0.00144278,0.0162177,1455,421,7.37517,42.434
238,603,7.38806,-42.0204,0.00158696,0.00102609,-0.0004632,0.001848,0.00076505,-0.513198,0.0010722,0.0118545,1462,421,7.38806,42.0204
245,603,7.39661,-41.6105,0.00153591,0.00167118,-0.000169032,0.00178561,0.00142148,-0.975716,0.00108951,0.0121939,1469,421,7.39661,41.6105
252,603,7.41797,-41.1773,0.00151209,0.0023397,0.000148863,0.00236566,0.00148613,1.39813,0.0013807,0.0111178,1476,421,7.41803,41.1773
259,603,7.40967,-40.7311,0.00153608,0.00288542,0.000524867,0.00306554,0.00135596,1.24022,0.00177381,0.0108363,1483,421,7.40965,40.7311
266,603,7.39966,-40.2606,0.00164325,0.00346496,0.000917481,0.00384694,0.00126126,1.17629,0.00226448,0.0121269,1490,421,7.39971,40.2606
273,603,7.41431,-39.7871,0.00180199,0.00415627,0.00134848,0.00476912,0.00118914,1.14423,0.00286647,0.0112659,1497,421,7.41434,39.7871
280,603,7.3999,-39.2996,0.00194364,0.00490388,0.00182723,0.00577526,0.00107226,1.12581,0.00354719,0.011974,1504,421,7.39985,39.2996
287,603,7.3811,-38.7951,0.00205252,0.0057174,0.00234289,0.00685935,0.000910574,1.11727,0.00430162,0.0109985,1511,421,7.38109,38.7951
294,603,7.36035,-38.3009,0.00203317,0.00655126,0.00283421,0.00791658,0.000667848,1.12187,0.00506979,0.0096953,1518,421,7.36029,38.3009
301,603,7.34277,-37.8305,0.00188798,0.00733577,0.00329069,0.00888367,0.000340078,1.13112,0.0058124,0.0122945,1525,421,7.34282,37.8305
308,603,7.32312,-37.3087,0.0016926,0.00806228,0.00374108,0.00979057,-3.56962e-05,1.13803,0.00653898,0.0172511,1532,421,7.32317,37.3087
315,603,7.28174,-36.7847,0.00138814,0.00886511,0.00415244,0.010714,-0.000460773,1.15189,0.00730112,0.0156147,1539,421,7.28171,36.7847
322,603,7.25684,-36.2372,0.00089761,0.00955994,0.00448709,0.0114652,-0.00100765,1.16926,0.00800052,0.0151214,1546,421,7.25683,36.2372
329,603,7.21863,-35.6923,0.000298139,0.0100872,0.00482949,0.0120687,-0.00168341,1.18144,0.00866165,0.0110141,1553,421,7.21859,35.6923
336,603,7.20837,-35.1619,-0.000352689,0.0107759,0.00513903,0.012786,-0.00236276,1.19795,0.00941098,0.00950942,1560,421,7.20838,35.1619
343,603,7.1897,-34.5919,-0.000887484,0.011353,0.00530878,0.0133346,-0.00286912,1.21354,0.00998451,0.0111983,1567,421,7.18968,34.5919
350,603,7.14905,-34.0064,-0.00116778,0.0125204,0.005896,0.0147099,-0.0033572,1.21524,0.0110962,0.0173748,1574,421,7.1491,34.0064
357,603,7.13367,-33.3615,-0.00147756,0.0135412,0.00653004,0.0159833,-0.00391967,1.21292,0.0121743,0.0234589,1581,421,7.13368,33.3615
364,603,7.10156,-32.6848,-0.00182543,0.014622,0.00711387,0.0172719,-0.00447538,1.21421,0.0132606,0.0303178,1588,421,7.10151,32.6848
371,603,6.96362,-32.1002,-0.00206079,0.0159399,0.00782328,0.0188647,-0.00498562,1.21302,0.0145264,0.0438176,1595,421,6.96361,32.1002
378,603,6.95874,-31.717,0,0,0,0,0,0,0,-1,1602,421,6.95879,31.717
385,603,6.87378,-30.8148,0,0,0,0,0,0,0,-1,1609,421,6.87376,30.8148
392,603,4.90527,-19.605,0,0,0,0,0,0,0,-1,1616,421,4.90526,19.605
399,603,2.94299,0.638214,0,0,0,0,0,0,0,-1,1623,421,2.94293,-0.638215
406,603,3.01917,-2.37219,0,0,0,0,0,0,0,-1,1630,421,3.01915,2.37219
413,603,2.38928,-2.41275,0,0,0,0,0,0,0,-1,1637,421,2.38926,2.41274
420,603,8.22217,-23.7068,0,0,0,0,0,0,0,-1,1644,421,8.22215,23.7068
427,603,8.20386,-23.1278,0,0,0,0,0,0,0,-1,1651,421,8.2039,23.1278
434,603,8.01489,-22.5655,0,0,0,0,0,0,0,-1,1658,421,8.01493,22.5655
441,603,8.00122,-22.3072,0,0,0,0,0,0,0,-1,1665,421,8.00116,22.3071
448,603,1.14355,-4.59842,0,0,0,0,0,0,0,-1,1672,421,1.14355,4.59841
455,603,0,0,0,0,0,0,0,0,0,-1,1679,421,0,0
462,603,0,0,0,0,0,0,0,0,0,-1,1686,421,0,0
469,603,0,0,0,0,0,0,0,0,0,-1,1693,421,0,0
476,603,0,0,0,0,0,0,0,0,0,-1,1700,421,0,0
483,603,0,0,0,0,0,0,0,0,0,-1,1707,421,0,0
490,603,0,0,0,0,0,0,0,0,0,-1,1714,421,0,0
497,603,0,0,0,0,0,0,0,0,0,-1,1721,421,0,0
504,603,0,0,0,0,0,0,0,0,0,-1,1728,421,0,0
511,603,0,0,0,0,0,0,0,0,0,-1,1735,421,0,0
518,603,0,0,0,0,0,0,0,0,0,-1,1742,421,0,0
525,603,0,0,0,0,0,0,0,0,0,-1,1749,421,0,0
532,603,0,0,0,0,0,0,0,0,0,-1,1756,421,0,0
539,603,0,0,0,0,0,0,0,0,0,-1,1763,421,0,0
546,603,0,0,0,0,0,0,0,0,0,-1,1770,421,0,0
553,603,0,0,0,0,0,0,0,0,0,-1,1777,421,0,0
560,603,0,0,0,0,0,0,0,0,0,-1,1784,421,0,0
567,603,0,0,0,0,0,0,0,0,0,-1,1791,421,0,0
574,603,0,0,0,0,0,0,0,0,0,-1,1798,421,0,0
581,603,0,0,0,0,0,0,0,0,0,-1,1805,421,0,0
588,603,0,0,0,0,0,0,0,0,0,-1,1812,421,0,0
595,603,0,0,0,0,0,0,0,0,0,-1,1819,421,0,0
602,603,0,0,0,0,0,0,0,0,0,-1,1826,421,0,0
609,603,0,0,0,0,0,0,0,0,0,-1,1833,421,0,0
616,603,0,0,0,0,0,0,0,0,0,-1,1840,421,0,0
623,603,0,0,0,0,0,0,0,0,0,-1,1847,421,0,0
630,603,0,0,0,0,0,0,0,0,0,-1,1854,421,0,0
637,603,0,0,0,0,0,0,0,0,0,-1,1861,421,0,0
644,603,0,0,0,0,0,0,0,0,0,-1,1868,421,0,0
651,603,0,0,0,0,0,0,0,0,0,-1,1875,421,0,0
658,603,0,0,0,0,0,0,0,0,0,-1,1882,421,0,0
665,603,0,0,0,0,0,0,0,0,0,-1,1889,421,0,0
672,603,0,0,0,0,0,0,0,0,0,-1,1896,421,0,0
679,603,0,0,0,0,0,0,0,0,0,-1,1903,421,0,0
686,603,0,0,0,0,0,0,0,0,0,-1,1910,421,0,0
693,603,0,0,0,0,0,0,0,0,0,-1,1917,421,0,0
700,603,0,0,0,0,0,0,0,0,0,-1,1924,421,0,0
707,603,0,0,0,0,0,0,0,0,0,-1,1931,421,0,0
714,603,0,0,0,0,0,0,0,0,0,-1,1938,421,0,0
721,603,0,0,0,0,0,0,0,0,0,-1,1945,421,0,0
728,603,0,0,0,0,0,0,0,0,0,-1,1952,421,0,0
735,603,0,0,0,0,0,0,0,0,0,-1,1959,421,0,0
742,603,0,0,0,0,0,0,0,0,0,-1,1966,421,0,0
749,603,0,0,0,0,0,0,0,0,0,-1,1973,421,0,0
756,603,0,0,0,0,0,0,0,0,0,-1,1980,421,0,0
763,603,0,0,0,0,0,0,0,0,0,-1,1987,421,0,0
770,603,0,0,0,0,0,0,0,0,0,-1,1994,421,0,0
777,603,0,0,0,0,0,0,0,0,0,-1,2001,421,0,0
784,603,0,0,0,0,0,0,0,0,0,-1,2008,421,0,0
791,603,0,0,0,0,0,0,0,0,0,-1,2015,421,0,0
798,603,0,0,0,0,0,0,0,0,0,-1,2022,421,0,0
805,603,0,0,0,0,0,0,0,0,0,-1,2029,421,0,0
812,603,0,0,0,0,0,0,0,0,0,-1,2036,421,0,0
-700,596,0,0,0,0,0,0,0,0,0,-1,524,428,0,0
-693,596,0,0,0,0,0,0,0,0,0,-1,531,428,0,0
-686,596,0,0,0,0,0,0,0,0,0,-1,538,428,0,0
-679,596,0,0,0,0,0,0,0,0,0,-1,545,428,0,0
-672,596,0,0,0,0,0,0,0,0,0,-1,552,428,0,0
-665,596,0,0,0,0,0,0,0,0,0,-1,559,428,0,0
-658,596,0,0,0,0,0,0,0,0,0,-1,566,428,0,0
-651,596,0,0,0,0,0,0,0,0,0,-1,573,428,0,0
-644,596,0,0,0,0,0,0,0,0,0,-1,580,428,0,0
-637,596,0,0,0,0,0,0,0,0,0,-1,587,428,0,0
-630,596,0,0,0,0,0,0,0,0,0,-1,594,428,0,0
-623,596,0,0,0,0,0,0,0,0,0,-1,601,428,0,0
-616,596,0,0,0,0,0,0,0,0,0,-1,608,428,0,0
-609,596,0,0,0,0,0,0,0,0,0,-1,615,428,0,0
-602,596,0,0,0,0,0,0,0,0,0,-1,622,428,0,0
-595,596,0,0,0,0,0,0,0,0,0,-1,629,428,0,0
-588,596,0,0,0,0,0,0,0,0,0,-1,636,428,0,0
-581,596,0,0,0,0,0,0,0,0,0,-1,643,428,0,0
-574,596,0,0,0,0,0,0,0,0,0,-1,650,428,0,0
-567,596,0,0,0,0,0,0,0,0,0,-1,657,428,0,0
-560,596,0,0,0,0,0,0,0,0,0,-1,664,428,0,0
-553,596,0,0,0,0,0,0,0,0,0,-1,671,428,0,0
-546,596,0,0,0,0,0,0,0,0,0,-1,678,428,0,0
-539,596,0,0,0,0,0,0,0,0,0,-1,685,428,0,0
-532,596,0,0,0,0,0,0,0,0,0,-1,692,428,0,0
-525,596,0,0,0,0,0,0,0,0,0,-1,699,428,0,0
-518,596,0,0,0,0,0,0,0,0,0,-1,706,428,0,0
-511,596,0,0,0,0,0,0,0,0,0,-1,713,428,0,0
-504,596,0,0,0,0,0,0,0,0,0,-1,720,428,0,0
-497,596,0,0,0,0,0,0,0,0,0,-1,727,428,0,0
-490,596,0,0,0,0,0,0,0,0,0,-1,734,428,0,0
-483,596,0,0,0,0,0,0,0,0,0,-1,741,428,0,0
-476,596,0,0,0,0,0,0,0,0,0,-1,748,428,0,0
-469,596,0,0,0,0,0,0,0,0,0,-1,755,428,0,0
-462,596,0,0,0,0,0,0,0,0,0,-1,762,428,0,0
-455,596,0,0,0,0,0,0,0,0,0,-1,769,428,0,0
-448,596,0,0,0,0,0,0,0,0,0,-1,776,428,0,0
-441,596,0,0,0,0,0,0,0,0,0,-1,783,428,0,0
-434,596,0,0,0,0,0,0,0,0,0,-1,790,428,0,0
-427,596,0,0,0,0,0,0,0,0,0,-1,797,428,0,0
-420,596,0,0,0,0,0,0,0,0,0,-1,804,428,0,0
-413,596,0,0,0,0,0,0,0,0,0,-1,811,428,0,0
-406,596,0,0,0,0,0,0,0,0,0,-1,818,428,0,0
-399,596,0,0,0,0,0,0,0,0,0,-1,825,428,0,0
-392,596,0,0,0,0,0,0,0,0,0,-1,832,428,0,0
-385,596,0,0,0,0,0,0,0,0,0,-1,839,428,0,0
-378,596,0,0,0,0,0,0,0,0,0,-1,846,428,0,0
-371,596,0,0,0,0,0,0,0,0,0,-1,853,428,0,0
-364,596,0,0,0,0,0,0,0,0,0,-1,860,428,0,0
-357,596,0,0,0,0,0,0,0,0,0,-1,867,428,0,0
-350,596,0,0,0,0,0,0,0,0,0,-1,874,428,0,0
-343,596,0,0,0,0,0,0,0,0,0,-1,881,428,0,0
-336,596,6.81445,-30.5258,0,0,0,0,0,0,0,-1,888,428,6.81446,30.5258
-329,596,6.84772,-28.9253,0,0,0,0,0,0,0,-1,895,428,6.84773,28.9253
-322,596,6.97449,-27.9047,0,0,0,0,0,0,0,-1,902,428,6.97451,27.9047
-315,596,7.10132,-26.8841,0,0,0,0,0,0,0,-1,909,428,7.10129,26.8841
-308,596,0.254761,-20.841,0,0,0,0,0,0,0,-1,916,428,0.254731,20.841
-301,596,3.43213,-26.756,0,0,0,0,0,0,0,-1,923,428,3.43214,26.756
-294,596,4.1767,-27.6454,0,0,0,0,0,0,0,-1,930,428,4.17667,27.6454
-287,596,4.36041,-27.6119,0,0,0,0,0,0,0,-1,937,428,4.3604,27.6119
-280,596,4.24908,-30.2137,0,0,0,0,0,0,0,-1,944,428,4.24907,30.2136
-273,596,4.2583,-29.8489,0,0,0,0,0,0,0,-1,951,428,4.25833,29.8489
-266,596,4.22449,-30.4589,0.00134249,0.0295187,-0.0113022,0.033492,-0.00263078,-1.23274,0.0232546,0.0498234,958,428,4.22449,30.4589
-259,596,4.17371,-31.2237,0.000229747,0.0273321,-0.0103152,0.0308114,-0.00324959,-1.24548,0.0217054,0.042204,965,428,4.17374,31.2237
-252,596,4.10028,-32.2282,-0.001004,0.0251311,-0.00918708,0.0280374,-0.00391028,-1.26441,0.0201221,0.0216528,972,428,4.10029,32.2283
-245,596,4.09918,-32.9332,-0.00134626,0.0225675,-0.00829162,0.0251612,-0.00393991,-1.26763,0.0182299,0.0157253,979,428,4.09917,32.9332
-238,596,4.10645,-33.5333,-0.000974129,0.0204582,-0.00767659,0.0229241,-0.00344001,-1.25999,0.016549,0.0131499,986,428,4.10643,33.5333
-231,596,4.04333,-34.101,-0.000603934,0.017938,-0.00692388,0.0202381,-0.0029041,-1.25006,0.014557,0.0142672,993,428,4.04335,34.101
-224,596,4.03253,-34.6803,-0.000379232,0.0155363,-0.00614603,0.0176333,-0.00247631,-1.24198,0.012662,0.0140438,1000,428,4.03255,34.6803
-217,596,4.00507,-35.2421,-0.000143144,0.0130956,-0.00541223,0.0150265,-0.00207411,-1.22809,0.0107758,0.0135674,1007,428,4.00504,35.2421
-210,596,3.98871,-35.7726,9.9481e-05,0.0102702,-0.00463277,0.0120641,-0.00169436,-1.20137,0.00866291,0.0128571,1014,428,3.9887,35.7726
-203,596,3.96338,-36.3019,0.000304033,0.00796381,-0.00385564,0.00956844,-0.0013006,-1.17642,0.00685375,0.0175834,1021,428,3.96344,36.3019
-196,596,3.94678,-36.8262,0.00047702,0.00617042,-0.00315462,0.00757287,-0.000925435,-1.15247,0.00538364,0.0177521,1028,428,3.94675,36.8262
-189,596,3.90283,-37.3159,0.000650592,0.0044827,-0.00255026,0.00575649,-0.000623194,-1.10757,0.00406136,0.0135411,1035,428,3.90278,37.3159
-182,596,3.88098,-37.7991,0.000843174,0.00258081,-0.00179044,0.0037021,-0.000278115,-1.01129,0.0025658,0.0123161,1042,428,3.88095,37.7991
-175,596,3.86609,-38.3053,0.000981097,0.000341374,-0.00093029,0.00164498,-0.000322508,-0.619814,0.00121847,0.0149172,1049,428,3.86605,38.3053
-168,596,3.85876,-38.826,0.00102224,-0.00188884,-0.000112341,0.00102657,-0.00189317,-0.0385147,0.00171028,0.0173041,1056,428,3.85881,38.826
-161,596,3.85156,-39.3015,0.00106936,-0.00395921,0.000723771,0.00117146,-0.00406131,0.140143,0.003171,0.0159415,1063,428,3.85158,39.3016
-154,596,3.80176,-39.751,0.00116353,-0.00616236,0.00156389,0.00148341,-0.00648224,0.20176,0.00489153,0.0137758,1070,428,3.8017,39.751
-147,596,3.8335,-40.1899,0.0012498,-0.00839805,0.00239014,0.00180946,-0.00895771,0.230011,0.00665744,0.0140354,1077,428,3.83344,40.1899
-140,596,3.86401,-40.6185,0.00132345,-0.0106936,0.00320225,0.00212351,-0.0114936,0.24483,0.00845957,0.0146207,1084,428,3.86406,40.6185
-133,596,3.84668,-41.0358,0.00136693,-0.0128117,0.00389506,0.00236649,-0.0138113,0.251201,0.0100893,0.016572,1091,428,3.84669,41.0358
-126,596,3.86145,-41.4595,0.00144696,-0.0145318,0.00438154,0.00256955,-0.0156544,0.250815,0.0113898,0.012571,1098,428,3.8615,41.4595
-119,596,3.90479,-41.9064,0.00162571,-0.0158769,0.00472648,0.0028205,-0.0170717,0.247601,0.0124284,0.0143125,1105,428,3.90473,41.9064
-112,596,3.88171,-42.3125,0.00185375,-0.0166619,0.00488665,0.00306429,-0.0178725,0.242835,0.0130568,0.016428,1112,428,3.88174,42.3125
-105,596,3.89502,-42.7138,0.0021314,-0.016929,0.00488701,0.00331136,-0.0181089,0.236915,0.0133144,0.0208483,1119,428,3.89507,42.7138
-98,596,3.94446,-43.0753,0.00246516,-0.0168449,0.00480716,0.00359569,-0.0179755,0.230979,0.0133447,0.0236578,1126,428,3.94444,43.0753
-91,596,3.91614,-43.5257,0,0,0,0,0,0,0,-1,1133,428,3.91619,43.5257
-84,596,3.99463,-43.7785,0,0,0,0,0,0,0,-1,1140,428,3.99458,43.7785
-77,596,4.08252,-44.1849,0,0,0,0,0,0,0,-1,1147,428,4.08256,44.1849
-70,596,3.50696,-32.137,0,0,0,0,0,0,0,-1,1154,428,3.50696,32.137
-63,596,1.95569,-12.2758,0,0,0,0,0,0,0,-1,1161,428,1.95563,12.2759
-56,596,1.60107,-10.5827,0,0,0,0,0,0,0,-1,1168,428,1.60108,10.5827
-49,596,1.59473,-10.0393,0,0,0,0,0,0,0,-1,1175,428,1.59472,10.0393
-42,596,1.99585,-6.6246,0,0,0,0,0,0,0,-1,1182,428,1.99586,6.62459
-35,596,4.12708,-45.4273,0,0,0,0,0,0,0,-1,1189,428,4.12706,45.4273
-28,596,4.34961,-45.7369,0,0,0,0,0,0,0,-1,1196,428,4.34962,45.7369
-21,596,4.42346,-45.9529,0,0,0,0,0,0,0,-1,1203,428,4.42342,45.9529
-14,596,4.62097,-46.1157,0,0,0,0,0,0,0,-1,1210,428,4.62091,46.1157
-7,596,4.74841,-46.1971,0,0,0,0,0,0,0,-1,1217,428,4.74837,46.1971
0,596,4.828,-46.446,0,0,0,0,0,0,0,-1,1224,428,4.82796,46.446
7,596,4.82483,-46.2826,0,0,0,0,0,0,0,-1,1231,428,4.82485,46.2826
14,596,5.34338,-45.8567,0,0,0,0,0,0,0,-1,1238,428,5.34338,45.8566
21,596,5.27014,-45.9235,0,0,0,0,0,0,0,-1,1245,428,5.2702,45.9235
28,596,5.2002,-45.9187,0,0,0,0,0,0,0,-1,1252,428,5.20026,45.9187
35,596,5.48999,-46.1446,0,0,0,0,0,0,0,-1,1259,428,5.48995,46.1446
42,596,6.11646,-47.0017,0,0,0,0,0,0,0,-1,1266,428,6.11651,47.0017
49,596,5.79028,-47.0178,0,0,0,0,0,0,0,-1,1273,428,5.79033,47.0178
56,596,5.6427,-46.9019,0,0,0,0,0,0,0,-1,1280,428,5.64274,46.9019
63,596,6.36743,-46.6152,0,0,0,0,0,0,0,-1,1287,428,6.36747,46.6152
70,596,6.72839,-46.0722,0,0,0,0,0,0,0,-1,1294,428,6.7284,46.0722
77,596,6.60913,-46.2884,0,0,0,0,0,0,0,-1,1301,428,6.60913,46.2884
84,596,6.39758,-46.0242,0,0,0,0,0,0,0,-1,1308,428,6.39754,46.0242
91,596,6.40259,-46.2867,0,0,0,0,0,0,0,-1,1315,428,6.40257,46.2867
98,596,0.268799,-43.2001,0,0,0,0,0,0,0,-1,1322,428,0.268775,43.2001
105,596,-5.2782,-44.7745,0,0,0,0,0,0,0,-1,1329,428,-5.27816,44.7745
112,596,7.00562,-46.3936,0,0,0,0,0,0,0,-1,1336,428,7.00557,46.3937
119,596,7.30188,-45.9594,0,0,0,0,0,0,0,-1,1343,428,7.30193,45.9594
126,596,6.45776,-44.6136,0,0,0,0,0,0,0,-1,1350,428,6.45776,44.6136
133,596,6.97241,-45.5554,0,0,0,0,0,0,0,-1,1357,428,6.97245,45.5554
140,596,7.37097,-45.257,0,0,0,0,0,0,0,-1,1364,428,7.37099,45.257
147,596,7.09424,-45.1607,0,0,0,0,0,0,0,-1,1371,428,7.09429,45.1607
154,596,6.82959,-45.4253,0,0,0,0,0,0,0,-1,1378,428,6.82955,45.4253
161,596,7.33179,-45.2947,0,0,0,0,0,0,0,-1,1385,428,7.33179,45.2947
168,596,7.53955,-44.8674,0,0,0,0,0,0,0,-1,1392,428,7.53953,44.8674
175,596,7.67542,-44.6569,0,0,0,0,0,0,0,-1,1399,428,7.67544,44.6569
182,596,7.77185,-44.6882,0,0,0,0,0,0,0,-1,1406,428,7.77186,44.6882
189,596,7.65369,-44.4037,0,0,0,0,0,0,0,-1,1413,428,7.65369,44.4038
196,596,7.62573,-43.8942,0,0,0,0,0,0,0,-1,1420,428,7.62573,43.8942
203,596,7.58435,-43.8255,0,0,0,0,0,0,0,-1,1427,428,7.58438,43.8255
210,596,7.62109,-43.6482,0,0,0,0,0,0,0,-1,1434,428,7.62109,43.6482
217,596,7.66223,-43.2085,0,0,0,0,0,0,0,-1,1441,428,7.66219,43.2085
224,596,7.74341,-42.8076,0,0,0,0,0,0,0,-1,1448,428,7.74341,42.8076
231,596,7.82153,-42.4462,0.00260713,-0.000807112,-0.0018107,0.00338856,-0.00158854,-0.407417,0.00293551,0.0250623,1455,428,7.82148,42.4462
238,596,7.82642,-42.0032,0.00224669,-0.000176601,-0.00153128,0.00298771,-0.000917622,-0.450703,0.00235797,0.0163392,1462,428,7.82641,42.0032
245,596,7.82922,-41.5976,0.0021158,0.000359254,-0.00124757,0.00276324,-0.000288188,-0.478701,0.00194535,0.0134815,1469,428,7.82917,41.5976
252,596,7.83801,-41.1557,0.00195909,0.000848242,-0.000934618,0.00249086,0.000316464,-0.517298,0.00156579,0.0102229,1476,428,7.83802,41.1557
259,596,7.84888,-40.7099,0.00182965,0.00108644,-0.00058758,0.00215327,0.000762818,-0.503436,0.00126067,0.00932391,1483,428,7.84889,40.7099
266,596,7.85083,-40.2576,0.00179615,0.0013345,-0.00023642,0.00189574,0.00123491,-0.398687,0.00111111,0.0106431,1490,428,7.85082,40.2576
273,596,7.8783,-39.7901,0.0018481,0.00173536,0.000165112,0.0019662,0.00161726,0.620898,0.00121136,0.0125108,1497,428,7.8783,39.7901
280,596,7.88806,-39.3132,0.00189609,0.00222531,0.000616246,0.00269855,0.00142285,0.915908,0.00155878,0.0134398,1504,428,7.88805,39.3132
287,596,7.85449,-38.8123,0.00194125,0.00281758,0.00106914,0.00353485,0.00122397,0.979875,0.00207276,0.0120176,1511,428,7.85451,38.8123
294,596,7.82227,-38.3095,0.0019095,0.00349296,0.00151562,0.00441118,0.000991276,1.02609,0.00267236,0.00949266,1518,428,7.82224,38.3095
301,596,7.81824,-37.8327,0.00178533,0.00416266,0.00194546,0.00525385,0.000694146,1.05963,0.00329564,0.0113379,1525,428,7.81829,37.8327
308,596,7.81958,-37.3102,0.00163732,0.00476219,0.00235453,0.00602553,0.000373983,1.07833,0.00389834,0.0168668,1532,428,7.81953,37.3102
315,596,7.77112,-36.7712,0.00139799,0.00549937,0.00272149,0.00685629,4.1072e-05,1.10827,0.00455723,0.0156451,1539,428,7.77115,36.7712
322,596,7.76904,-36.2141,0.00100048,0.0061857,0.00304145,0.00758959,-0.00040342,1.13835,0.00519942,0.0134755,1546,428,7.76909,36.214
329,596,7.74646,-35.6842,0.000554171,0.00672747,0.00333712,0.00818657,-0.000904922,1.15861,0.005783,0.0102244,1553,428,7.74648,35.6842
336,596,7.71667,-35.1621,8.58547e-05,0.00736861,0.00363491,0.00887234,-0.00141788,1.17854,0.00643976,0.0089427,1560,428,7.71665,35.1621
343,596,7.70593,-34.6138,-0.000385517,0.00799308,0.00388128,0.0095147,-0.00190714,1.19717,0.00706517,0.0119202,1567,428,7.70593,34.6138
350,596,7.69128,-34.0132,-0.000684915,0.00909483,0.00442886,0.0108024,-0.00239244,1.20281,0.00811743,0.0121798,1574,428,7.69126,34.0132
357,596,7.65015,-33.4252,-0.000977833,0.0100909,0.00501506,0.0120252,-0.00291206,1.20269,0.00914338,0.00929502,1581,428,7.65011,33.4252
364,596,7.60278,-32.8098,-0.00127493,0.0111469,0.00557087,0.0132792,-0.00340728,1.20523,0.0101805,0.0116484,1588,428,7.60272,32.8098
371,596,7.57202,-32.2265,-0.00148151,0.0123918,0.00621809,0.0147708,-0.00386054,1.20538,0.011355,0.0137265,1595,428,7.57199,32.2265
378,596,7.50122,-31.6554,-0.00154523,0.0142424,0.00702506,0.0169157,-0.00421853,1.20718,0.012915,0.0180072,1602,428,7.50126,31.6554
385,596,7.48547,-30.8832,-0.000483669,0.016894,0.00770165,0.019816,-0.00340565,1.20818,0.01448,0.0427826,1609,428,7.48542,30.8832
392,596,7.45532,-30.2362,0,0,0,0,0,0,0,-1,1616,428,7.45526,30.2362
399,596,7.41614,-29.0515,0,0,0,0,0,0,0,-1,1623,428,7.41618,29.0515
406,596,3.60034,-10.1525,0,0,0,0,0,0,0,-1,1630,428,3.60028,10.1525
413,596,3.39124,-2.63528,0,0,0,0,0,0,0,-1,1637,428,3.39122,2.6353
420,596,2.6344,-3.06308,0,0,0,0,0,0,0,-1,1644,428,2.63439,3.06308
427,596,7.61975,-22.7222,0,0,0,0,0,0,0,-1,1651,428,7.61974,22.7222
434,596,5.09753,-22.5213,0,0,0,0,0,0,0,-1,1658,428,5.09755,22.5213
441,596,7.19043,-22.087,0,0,0,0,0,0,0,-1,1665,428,7.19046,22.087
448,596,1.0769,0.0083313,0,0,0,0,0,0,0,-1,1672,428,1.07684,-0.00832231
455,596,2.00769,-1.43329,0,0,0,0,0,0,0,-1,1679,428,2.00765,1.4333
462,596,0,0,0,0,0,0,0,0,0,-1,1686,428,0,0
469,596,0,0,0,0,0,0,0,0,0,-1,1693,428,0,0
476,596,0,0,0,0,0,0,0,0,0,-1,1700,428,0,0
483,596,0,0,0,0,0,0,0,0,0,-1,1707,428,0,0
490,596,0,0,0,0,0,0,0,0,0,-1,1714,428,0,0
497,596,0,0,0,0,0,0,0,0,0,-1,1721,428,0,0
504,596,0,0,0,0,0,0,0,0,0,-1,1728,428,0,0
511,596,0,0,0,0,0,0,0,0,0,-1,1735,428,0,0
518,596,0,0,0,0,0,0,0,0,0,-1,1742,428,0,0
525,596,0,0,0,0,0,0,0,0,0,-1,1749,428,0,0
532,596,0,0,0,0,0,0,0,0,0,-1,1756,428,0,0
539,596,0,0,0,0,0,0,0,0,0,-1,1763,428,0,0
546,596,0,0,0,0,0,0,0,0,0,-1,1770,428,0,0
553,596,0,0,0,0,0,0,0,0,0,-1,1777,428,0,0
560,596,0,0,0,0,0,0,0,0,0,-1,1784,428,0,0
567,596,0,0,0,0,0,0,0,0,0,-1,1791,428,0,0
574,596,0,0,0,0,0,0,0,0,0,-1,1798,428,0,0
581,596,0,0,0,0,0,0,0,0,0,-1,1805,428,0,0
588,596,0,0,0,0,0,0,0,0,0,-1,1812,428,0,0
595,596,0,0,0,0,0,0,0,0,0,-1,1819,428,0,0
602,596,0,0,0,0,0,0,0,0,0,-1,1826,428,0,0
609,596,0,0,0,0,0,0,0,0,0,-1,1833,428,0,0
616,596,0,0,0,0,0,0,0,0,0,-1,1840,428,0,0
623,596,0,0,0,0,0,0,0,0,0,-1,1847,428,0,0
630,596,0,0,0,0,0,0,0,0,0,-1,1854,428,0,0
637,596,0,0,0,0,0,0,0,0,0,-1,1861,428,0,0
644,596,0,0,0,0,0,0,0,0,0,-1,1868,428,0,0
651,596,0,0,0,0,0,0,0,0,0,-1,1875,428,0,0
658,596,0,0,0,0,0,0,0,0,0,-1,1882,428,0,0
665,596,0,0,0,0,0,0,0,0,0,-1,1889,428,0,0
672,596,0,0,0,0,0,0,0,0,0,-1,1896,428,0,0
679,596,0,0,0,0,0,0,0,0,0,-1,1903,428,0,0
686,596,0,0,0,0,0,0,0,0,0,-1,1910,428,0,0
693,596,0,0,0,0,0,0,0,0,0,-1,1917,428,0,0
700,596,0,0,0,0,0,0,0,0,0,-1,1924,428,0,0
707,596,0,0,0,0,0,0,0,0,0,-1,1931,428,0,0
714,596,0,0,0,0,0,0,0,0,0,-1,1938,428,0,0
721,596,0,0,0,0,0,0,0,0,0,-1,1945,428,0,0
728,596,0,0,0,0,0,0,0,0,0,-1,1952,428,0,0
735,596,0,0,0,0,0,0,0,0,0,-1,1959,428,0,0
742,596,0,0,0,0,0,0,0,0,0,-1,1966,428,0,0
749,596,0,0,0,0,0,0,0,0,0,-1,1973,428,0,0
756,596,0,0,0,0,0,0,0,0,0,-1,1980,428,0,0
763,596,0,0,0,0,0,0,0,0,0,-1,1987,428,0,0
770,596,0,0,0,0,0,0,0,0,0,-1,1994,428,0,0
777,596,0,0,0,0,0,0,0,0,0,-1,2001,428,0,0
784,596,0,0,0,0,0,0,0,0,0,-1,2008,428,0,0
791,596,0,0,0,0,0,0,0,0,0,-1,2015,428,0,0
798,596,0,0,0,0,0,0,0,0,0,-1,2022,428,0,0
805,596,0,0,0,0,0,0,0,0,0,-1,2029,428,0,0
812,596,0,0,0,0,0,0,0,0,0,-1,2036,428,0,0
-700,589,0,0,0,0,0,0,0,0,0,-1,524,435,0,0
-693,589,0,0,0,0,0,0,0,0,0,-1,531,435,0,0
-686,589,0,0,0,0,0,0,0,0,0,-1,538,435,0,0
-679,589,0,0,0,0,0,0,0,0,0,-1,545,435,0,0
-672,589,0,0,0,0,0,0,0,0,0,-1,552,435,0,0
-665,589,0,0,0,0,0,0,0,0,0,-1,559,435,0,0
-658,589,0,0,0,0,0,0,0,0,0,-1,566,435,0,0
-651,589,0,0,0,0,0,0,0,0,0,-1,573,435,0,0
-644,589,0,0,0,0,0,0,0,0,0,-1,580,435,0,0
-637,589,0,0,0,0,0,0,0,0,0,-1,587,435,0,0
-630,589,0,0,0,0,0,0,0,0,0,-1,594,435,0,0
-623,589,0,0,0,0,0,0,0,0,0,-1,601,435,0,0
-616,589,0,0,0,0,0,0,0,0,0,-1,608,435,0,0
-609,589,0,0,0,0,0,0,0,0,0,-1,615,435,0,0
-602,589,0,0,0,0,0,0,0,0,0,-1,622,435,0,0
-595,589,0,0,0,0,0,0,0,0,0,-1,629,435,0,0
-588,589,0,0,0,0,0,0,0,0,0,-1,636,435,0,0
-581,589,0,0,0,0,0,0,0,0,0,-1,643,435,0,0
-574,589,0,0,0,0,0,0,0,0,0,-1,650,435,0,0
-567,589,0,0,0,0,0,0,0,0,0,-1,657,435,0,0
-560,589,0,0,0,0,0,0,0,0,0,-1,664,435,0,0
-553,589,0,0,0,0,0,0,0,0,0,-1,671,435,0,0
-546,589,0,0,0,0,0,0,0,0,0,-1,678,435,0,0
-539,589,0,0,0,0,0,0,0,0,0,-1,685,435,0,0
-532,589,0,0,0,0,0,0,0,0,0,-1,692,435,0,0
-525,589,0,0,0,0,0,0,0,0,0,-1,699,435,0,0
-518,589,0,0,0,0,0,0,0,0,0,-1,706,435,0,0
-511,589,0,0,0,0,0,0,0,0,0,-1,713,435,0,0
-504,589,0,0,0,0,0,0,0,0,0,-1,720,435,0,0
-497,589,0,0,0,0,0,0,0,0,0,-1,727,435,0,0
-490,589,0,0,0,0,0,0,0,0,0,-1,734,435,0,0
-483,589,0,0,0,0,0,0,0,0,0,-1,741,435,0,0
-476,589,0,0,0,0,0,0,0,0,0,-1,748,435,0,0
-469,589,0,0,0,0,0,0,0,0,0,-1,755,435,0,0
-462,589,0,0,0,0,0,0,0,0,0,-1,762,435,0,0
-455,589,0,0,0,0,0,0,0,0,0,-1,769,435,0,0
-448,589,0,0,0,0,0,0,0,0,0,-1,776,435,0,0
-441,589,0,0,0,0,0,0,0,0,0,-1,783,435,0,0
-434,589,0,0,0,0,0,0,0,0,0,-1,790,435,0,0
-427,589,0,0,0,0,0,0,0,0,0,-1,797,435,0,0
-420,589,0,0,0,0,0,0,0,0,0,-1,804,435,0,0
-413,589,0,0,0,0,0,0,0,0,0,-1,811,435,0,0
-406,589,0,0,0,0,0,0,0,0,0,-1,818,435,0,0
-399,589,0,0,0,0,0,0,0,0,0,-1,825,435,0,0
-392,589,0,0,0,0,0,0,0,0,0,-1,832,435,0,0
-385,589,0,0,0,0,0,0,0,0,0,-1,839,435,0,0
-378,589,0,0,0,0,0,0,0,0,0,-1,846,435,0,0
-371,589,0,0,0,0,0,0,0,0,0,-1,853,435,0,0
-364,589,0,0,0,0,0,0,0,0,0,-1,860,435,0,0
-357,589,0,0,0,0,0,0,0,0,0,-1,867,435,0,0
-350,589,-0.799927,-20.664,0,0,0,0,0,0,0,-1,874,435,-0.799952,20.664
-343,589,5.15289,-30.4847,0,0,0,0,0,0,0,-1,881,435,5.15291,30.4847
-336,589,5.07684,-29.2368,0,0,0,0,0,0,0,-1,888,435,5.07687,29.2368
-329,589,4.9624,-28.1366,0,0,0,0,0,0,0,-1,895,435,4.96242,28.1366
-322,589,5.10156,-27.065,0,0,0,0,0,0,0,-1,902,435,5.10155,27.065
-315,589,4.76294,-26.8726,0,0,0,0,0,0,0,-1,909,435,4.76292,26.8726
-308,589,3.66315,-27.2359,0,0,0,0,0,0,0,-1,916,435,3.66312,27.2359
-301,589,4.03766,-27.9768,0,0,0,0,0,0,0,-1,923,435,4.03765,27.9768
-294,589,4.02966,-28.7744,0,0,0,0,0,0,0,-1,930,435,4.02966,28.7744
-287,589,3.73151,-29.2282,0,0,0,0,0,0,0,-1,937,435,3.73148,29.2282
-280,589,3.7345,-29.9626,0.00275596,0.0235336,-0.00900541,0.0268934,-0.000603857,-1.2137,0.0181336,0.0407401,944,435,3.7345,29.9626
-273,589,3.73615,-30.5475,0.00191754,0.0231793,-0.00912841,0.0265607,-0.00146384,-1.21604,0.0182147,0.0251241,951,435,3.73613,30.5474
-266,589,3.66382,-31.1436,0.00103855,0.0218234,-0.0087509,0.025017,-0.00215507,-1.22087,0.0174408,0.0244818,958,435,3.66381,31.1435
-259,589,3.60101,-31.7662,0.000243789,0.0201377,-0.00794672,0.0229223,-0.0025408,-1.23376,0.0161951,0.0210073,965,435,3.60099,31.7662
-252,589,3.60345,-32.4282,-0.000671743,0.0184036,-0.00698262,0.0206864,-0.00295457,-1.25482,0.014874,0.0112558,972,435,3.60348,32.4282
-245,589,3.61334,-33.0078,-0.000887111,0.0164168,-0.00622211,0.0184218,-0.00289213,-1.25906,0.0133501,0.00974086,979,435,3.61335,33.0078
-238,589,3.57745,-33.5723,-0.000544672,0.0146517,-0.00562963,0.01651,-0.00240298,-1.25196,0.0118889,0.0137575,986,435,3.57748,33.5723
-231,589,3.52673,-34.0988,-0.000211384,0.0125308,-0.00492551,0.0142128,-0.00189333,-1.24174,0.0101652,0.0155623,993,435,3.52672,34.0989
-224,589,3.49487,-34.6661,-5.72118e-06,0.0104683,-0.00420012,0.0119445,-0.00148193,-1.23281,0.00850017,0.0146504,1000,435,3.49484,34.6661
-217,589,3.47894,-35.2426,0.000223169,0.00832461,-0.00349773,0.00962576,-0.00107798,-1.21466,0.00680502,0.0154662,1007,435,3.47892,35.2426
-210,589,3.45898,-35.775,0.000457508,0.00584147,-0.00275833,0.00700372,-0.000704751,-1.17201,0.00492092,0.0157116,1014,435,3.45896,35.775
-203,589,3.44153,-36.2776,0.000673613,0.00379873,-0.00203463,0.00480158,-0.000329234,-1.11285,0.00331625,0.0122399,1021,435,3.44149,36.2776
-196,589,3.41357,-36.7811,0.000859339,0.00214858,-0.00136069,0.00300962,-1.7042e-06,-1.00661,0.00200698,0.0146403,1028,435,3.41354,36.7811
-189,589,3.37927,-37.3259,0.00105077,0.000472509,-0.000696469,0.00151574,7.53836e-06,-0.588656,0.00100799,0.0172994,1035,435,3.3793,37.3259
-182,589,3.3739,-37.777,0.0013013,-0.00155897,0.000131866,0.00130737,-0.00156503,0.0459728,0.0016606,0.0131307,1042,435,3.37394,37.777
-175,589,3.39819,-38.2741,0.00151283,-0.00406984,0.00105121,0.00170421,-0.00426122,0.180085,0.00354804,0.0168672,1049,435,3.39825,38.2741
-168,589,3.40442,-38.8112,0.00158457,-0.0066373,0.00190848,0.00200598,-0.00705871,0.217319,0.00549783,0.0140933,1056,435,3.40446,38.8111
-161,589,3.3988,-39.2718,0.00164393,-0.00906794,0.00282041,0.00234116,-0.00976516,0.242348,0.00741474,0.0128698,1063,435,3.39878,39.2718
-154,589,3.36438,-39.7126,0.00175769,-0.0117511,0.00376815,0.00273769,-0.0127311,0.254436,0.00953195,0.0133871,1070,435,3.36441,39.7126
-147,589,3.39172,-40.1488,0.00186646,-0.014557,0.00469364,0.00311321,-0.0158037,0.259629,0.0117123,0.0130724,1077,435,3.39174,40.1488
-140,589,3.41138,-40.5815,0.0019094,-0.0173971,0.00562441,0.0034284,-0.0189161,0.26378,0.0138952,0.0140362,1084,435,3.41141,40.5815
-133,589,3.40881,-41.0114,0.00191185,-0.0199857,0.00640776,0.0036491,-0.0217229,0.264752,0.015839,0.015021,1091,435,3.40884,41.0114
-126,589,3.44006,-41.4408,0.00194766,-0.022179,0.00698355,0.00382327,-0.0240546,0.262383,0.017451,0.0124156,1098,435,3.44,41.4408
-119,589,3.42322,-41.8692,0.00206666,-0.023919,0.00739144,0.00402197,-0.0258744,0.258613,0.0187347,0.0188071,1105,435,3.42322,41.8692
-112,589,3.4082,-42.3058,0.0022056,-0.0249007,0.00754745,0.00416541,-0.0268605,0.254055,0.0194447,0.0226529,1112,435,3.40818,42.3058
-105,589,3.36572,-42.753,0,0,0,0,0,0,0,-1,1119,435,3.36566,42.753
-98,589,3.52026,-43.2692,0,0,0,0,0,0,0,-1,1126,435,3.52031,43.2692
-91,589,3.39563,-37.8231,0,0,0,0,0,0,0,-1,1133,435,3.39565,37.8231
-84,589,2.76538,-22.6013,0,0,0,0,0,0,0,-1,1140,435,2.76539,22.6014
-77,589,2.18152,-14.8023,0,0,0,0,0,0,0,-1,1147,435,2.18155,14.8023
-70,589,1.48267,-9.90961,0,0,0,0,0,0,0,-1,1154,435,1.48264,9.9096
-63,589,0.880127,-5.50586,0,0,0,0,0,0,0,-1,1161,435,0.880186,5.50587
-56,589,-2.78052,-7.28082,0,0,0,0,0,0,0,-1,1168,435,-2.78053,7.28082
-49,589,-0.525757,-2.76703,0,0,0,0,0,0,0,-1,1175,435,-0.525771,2.76702
-42,589,-2.7738,-2.87921,0,0,0,0,0,0,0,-1,1182,435,-2.77383,2.87922
-35,589,-2.55225,-3.27551,0,0,0,0,0,0,0,-1,1189,435,-2.55223,3.27552
-28,589,-0.0632324,-3.42938,0,0,0,0,0,0,0,-1,1196,435,-0.063241,3.42938
-21,589,4.39221,-45.144,0,0,0,0,0,0,0,-1,1203,435,4.3922,45.144
-14,589,4.66956,-45.451,0,0,0,0,0,0,0,-1,1210,435,4.66954,45.451
-7,589,4.9469,-45.758,0,0,0,0,0,0,0,-1,1217,435,4.94688,45.758
0,589,3.73633,-46.3837,0,0,0,0,0,0,0,-1,1224,435,3.73631,46.3837
7,589,6.39404,-42.5045,0,0,0,0,0,0,0,-1,1231,435,6.39405,42.5045
14,589,5.69775,-43.9229,0,0,0,0,0,0,0,-1,1238,435,5.69774,43.9229
21,589,5.73962,-44.6516,0,0,0,0,0,0,0,-1,1245,435,5.73958,44.6516
28,589,5.73462,-45.3987,0,0,0,0,0,0,0,-1,1252,435,5.73463,45.3986
35,589,5.54956,-46.2658,0,0,0,0,0,0,0,-1,1259,435,5.5496,46.2658
42,589,5.78455,-46.7026,0,0,0,0,0,0,0,-1,1266,435,5.78454,46.7026
49,589,5.82776,-46.8791,0,0,0,0,0,0,0,-1,1273,435,5.82781,46.8791
56,589,6.3147,-47.2305,0,0,0,0,0,0,0,-1,1280,435,6.31475,47.2305
63,589,6.34192,-47.2574,0,0,0,0,0,0,0,-1,1287,435,6.34191,47.2574
70,589,6.36243,-47.2255,0,0,0,0,0,0,0,-1,1294,435,6.36243,47.2255
77,589,6.42249,-47.2733,0,0,0,0,0,0,0,-1,1301,435,6.42249,47.2733
84,589,6.36743,-47.1745,0,0,0,0,0,0,0,-1,1308,435,6.36741,47.1745
91,589,6.37292,-47.3277,0,0,0,0,0,0,0,-1,1315,435,6.37292,47.3277
98,589,6.18591,-47.221,0,0,0,0,0,0,0,-1,1322,435,6.18589,47.221
105,589,6.0658,-46.94,0,0,0,0,0,0,0,-1,1329,435,6.06584,46.94
112,589,6.49658,-46.3546,0,0,0,0,0,0,0,-1,1336,435,6.49658,46.3547
119,589,6.82361,-46.4847,0,0,0,0,0,0,0,-1,1343,435,6.82358,46.4847
126,589,6.875,-46.6172,0,0,0,0,0,0,0,-1,1350,435,6.87495,46.6172
133,589,7.1665,-46.7841,0,0,0,0,0,0,0,-1,1357,435,7.16648,46.7841
140,589,6.77466,-46.8274,0,0,0,0,0,0,0,-1,1364,435,6.77467,46.8274
147,589,6.51941,-47.1022,0,0,0,0,0,0,0,-1,1371,435,6.51937,47.1022
154,589,6.38428,-47.2149,0,0,0,0,0,0,0,-1,1378,435,6.38425,47.2149
161,589,6.19092,-47.3105,0,0,0,0,0,0,0,-1,1385,435,6.19087,47.3105
168,589,5.24756,-41.1662,0,0,0,0,0,0,0,-1,1392,435,5.2476,41.1662
175,589,8.66992,-7.65527,0,0,0,0,0,0,0,-1,1399,435,8.66994,7.65528
182,589,3.8136,-2.45389,0,0,0,0,0,0,0,-1,1406,435,3.81363,2.4539
189,589,3.69983,-3.68149,0,0,0,0,0,0,0,-1,1413,435,3.69987,3.68147
196,589,3.31055,-5.31677,0,0,0,0,0,0,0,-1,1420,435,3.31059,5.31678
203,589,2.72559,-8.84338,0,0,0,0,0,0,0,-1,1427,435,2.72558,8.84338
210,589,3.62378,-14.4032,0,0,0,0,0,0,0,-1,1434,435,3.62378,14.4032
217,589,4.65601,-22.3745,0,0,0,0,0,0,0,-1,1441,435,4.65607,22.3745
224,589,6.79028,-33.9412,0,0,0,0,0,0,0,-1,1448,435,6.79028,33.9412
231,589,8.2793,-42.4987,0,0,0,0,0,0,0,-1,1455,435,8.27929,42.4986
238,589,8.2594,-42.0019,0,0,0,0,0,0,0,-1,1462,435,8.2594,42.0019
245,589,8.2738,-41.5582,0,0,0,0,0,0,0,-1,1469,435,8.2738,41.5582
252,589,8.28687,-41.0996,0.00284339,0.000106259,-0.00199736,0.00389607,-0.000946422,-0.485041,0.00296366,0.0167894,1476,435,8.28683,41.0996
259,589,8.29993,-40.6859,0.00259043,-9.10757e-05,-0.0016957,0.00341139,-0.000912042,-0.450883,0.0026315,0.0103884,1483,435,8.29989,40.6859
266,589,8.31238,-40.232,0.00244687,-0.000273248,-0.00139819,0.00303737,-0.000863751,-0.39961,0.00236599,0.0101351,1490,435,8.31239,40.232
273,589,8.34253,-39.7955,0.00242594,-0.000257624,-0.00102946,0.00277536,-0.000607042,-0.327219,0.00208229,0.0119626,1497,435,8.34248,39.7955
280,589,8.34973,-39.3268,0.00240213,-8.95437e-05,-0.000603876,0.00254077,-0.000228183,-0.225672,0.00177481,0.0136769,1504,435,8.34973,39.3268
287,589,8.32996,-38.8316,0.0023785,0.000244221,-0.0002054,0.00239808,0.000224634,-0.0950759,0.00152935,0.0124411,1511,435,8.32995,38.8316
294,589,8.31641,-38.3073,0.0023192,0.000746679,0.000209991,0.00234676,0.000719121,0.130492,0.00138834,0.0108559,1518,435,8.31637,38.3072
301,589,8.31775,-37.7965,0.00218984,0.00129936,0.000628523,0.00251485,0.000974356,0.47723,0.00146416,0.0110442,1525,435,8.31774,37.7965
308,589,8.32422,-37.2755,0.0020299,0.0017647,0.000999476,0.00290554,0.000889069,0.71945,0.00171909,0.0104618,1532,435,8.32423,37.2755
315,589,8.31311,-36.7497,0.00179164,0.00246172,0.00133689,0.00350491,0.000748445,0.908176,0.00213139,0.0103259,1539,435,8.31316,36.7497
322,589,8.31641,-36.2148,0.00143743,0.00319306,0.00166598,0.00419834,0.000432146,1.02787,0.00266654,0.0114752,1546,435,8.31636,36.2149
329,589,8.29333,-35.6861,0.00103252,0.00380088,0.00197698,0.00483008,3.32016e-06,1.09081,0.00321895,0.0106862,1553,435,8.2933,35.6861
336,589,8.27246,-35.1657,0.000623319,0.00450094,0.0023032,0.00557273,-0.000448474,1.13525,0.00387331,0.00996299,1560,435,8.27243,35.1657
343,589,8.25085,-34.6266,0.000179924,0.00521827,0.00260593,0.00632361,-0.000925414,1.16963,0.00455565,0.0111597,1567,435,8.25091,34.6266
350,589,8.21423,-34.0407,-0.000135269,0.00631992,0.00313398,0.00759113,-0.00140648,1.18545,0.00558888,0.0163841,1574,435,8.21417,34.0407
357,589,8.19519,-33.4254,-0.000412991,0.00734853,0.00370576,0.00883368,-0.00189814,1.18963,0.00661326,0.0138601,1581,435,8.19515,33.4254
364,589,8.17297,-32.8266,-0.000671995,0.00842503,0.00426844,0.0101142,-0.00236116,1.19397,0.00765225,0.0118397,1588,435,8.17293,32.8266
371,589,8.13794,-32.2417,-0.0008534,0.00961698,0.00489836,0.0115512,-0.00278767,1.19471,0.00877884,0.0114455,1595,435,8.13794,32.2417
378,589,8.09265,-31.6397,-0.000943413,0.0111552,0.00560938,0.0133557,-0.00314391,1.19696,0.010116,0.01204,1602,435,8.09271,31.6397
385,589,8.07288,-31.0004,-0.000126708,0.01326,0.00618027,0.0156769,-0.00254361,1.19801,0.0113941,0.020906,1609,435,8.07291,31.0004
392,589,8.05688,-30.2361,0.00166116,0.0158167,0.00698937,0.0186861,-0.00120823,1.18124,0.0128791,0.0285727,1616,435,8.05684,30.2361
399,589,8.05896,-29.44,0.00372778,0.0185244,0.00810539,0.0221003,0.000151919,1.15531,0.0146831,0.0402137,1623,435,8.05895,29.44
406,589,8.08398,-28.7723,0,0,0,0,0,0,0,-1,1630,435,8.084,28.7723
413,589,5.61377,-19.0606,0,0,0,0,0,0,0,-1,1637,435,5.61372,19.0606
420,589,2.79724,-5.79956,0,0,0,0,0,0,0,-1,1644,435,2.7973,5.79955
427,589,7.13757,-26.4099,0,0,0,0,0,0,0,-1,1651,435,7.13761,26.4099
434,589,7.66675,-25.9594,0,0,0,0,0,0,0,-1,1658,435,7.6667,25.9594
441,589,8.12695,-25.2328,0,0,0,0,0,0,0,-1,1665,435,8.127,25.2327
448,589,0.453735,-3.2868,0,0,0,0,0,0,0,-1,1672,435,0.453701,3.28681
455,589,0.664307,-3.46848,0,0,0,0,0,0,0,-1,1679,435,0.66425,3.46846
462,589,3.46716,-4.41891,0,0,0,0,0,0,0,-1,1686,435,3.4672,4.41891
469,589,0.0238037,-3.81497,0,0,0,0,0,0,0,-1,1693,435,0.0237965,3.81498
476,589,0,0,0,0,0,0,0,0,0,-1,1700,435,0,0
483,589,0,0,0,0,0,0,0,0,0,-1,1707,435,0,0
490,589,0,0,0,0,0,0,0,0,0,-1,1714,435,0,0
497,589,0,0,0,0,0,0,0,0,0,-1,1721,435,0,0
504,589,0,0,0,0,0,0,0,0,0,-1,1728,435,0,0
511,589,0,0,0,0,0,0,0,0,0,-1,1735,435,0,0
518,589,0,0,0,0,0,0,0,0,0,-1,1742,435,0,0
525,589,0,0,0,0,0,0,0,0,0,-1,1749,435,0,0
532,589,0,0,0,0,0,0,0,0,0,-1,1756,435,0,0
539,589,0,0,0,0,0,0,0,0,0,-1,1763,435,0,0
546,589,0,0,0,0,0,0,0,0,0,-1,1770,435,0,0
553,589,0,0,0,0,0,0,0,0,0,-1,1777,435,0,0
560,589,0,0,0,0,0,0,0,0,0,-1,1784,435,0,0
567,589,0,0,0,0,0,0,0,0,0,-1,1791,435,0,0
574,589,0,0,0,0,0,0,0,0,0,-1,1798,435,0,0
581,589,0,0,0,0,0,0,0,0,0,-1,1805,435,0,0
588,589,0,0,0,0,0,0,0,0,0,-1,1812,435,0,0
595,589,0,0,0,0,0,0,0,0,0,-1,1819,435,0,0
602,589,0,0,0,0,0,0,0,0,0,-1,1826,435,0,0
609,589,0,0,0,0,0,0,0,0,0,-1,1833,435,0,0
616,589,0,0,0,0,0,0,0,0,0,-1,1840,435,0,0
623,589,0,0,0,0,0,0,0,0,0,-1,1847,435,0,0
630,589,0,0,0,0,0,0,0,0,0,-1,1854,435,0,0
637,589,0,0,0,0,0,0,0,0,0,-1,1861,435,0,0
644,589,0,0,0,0,0,0,0,0,0,-1,1868,435,0,0
651,589,0,0,0,0,0,0,0,0,0,-1,1875,435,0,0
658,589,0,0,0,0,0,0,0,0,0,-1,1882,435,0,0
665,589,0,0,0,0,0,0,0,0,0,-1,1889,435,0,0
672,589,0,0,0,0,0,0,0,0,0,-1,1896,435,0,0
679,589,0,0,0,0,0,0,0,0,0,-1,1903,435,0,0
686,589,0,0,0,0,0,0,0,0,0,-1,1910,435,0,0
693,589,0,0,0,0,0,0,0,0,0,-1,1917,435,0,0
700,589,0,0,0,0,0,0,0,0,0,-1,1924,435,0,0
707,589,0,0,0,0,0,0,0,0,0,-1,1931,435,0,0
714,589,0,0,0,0,0,0,0,0,0,-1,1938,435,0,0
721,589,0,0,0,0,0,0,0,0,0,-1,1945,435,0,0
728,589,0,0,0,0,0,0,0,0,0,-1,1952,435,0,0
735,589,0,0,0,0,0,0,0,0,0,-1,1959,435,0,0
742,589,0,0,0,0,0,0,0,0,0,-1,1966,435,0,0
749,589,0,0,0,0,0,0,0,0,0,-1,1973,435,0,0
756,589,0,0,0,0,0,0,0,0,0,-1,1980,435,0,0
763,589,0,0,0,0,0,0,0,0,0,-1,1987,435,0,0
770,589,0,0,0,0,0,0,0,0,0,-1,1994,435,0,0
777,589,0,0,0,0,0,0,0,0,0,-1,2001,435,0,0
784,589,0,0,0,0,0,0,0,0,0,-1,2008,435,0,0
791,589,0,0,0,0,0,0,0,0,0,-1,2015,435,0,0
798,589,0,0,0,0,0,0,0,0,0,-1,2022,435,0,0
805,589,0,0,0,0,0,0,0,0,0,-1,2029,435,0,0
812,589,0,0,0,0,0,0,0,0,0,-1,2036,435,0,0
-700,582,0,0,0,0,0,0,0,0,0,-1,524,442,0,0
-693,582,0,0,0,0,0,0,0,0,0,-1,531,442,0,0
-686,582,0,0,0,0,0,0,0,0,0,-1,538,442,0,0
-679,582,0,0,0,0,0,0,0,0,0,-1,545,442,0,0
-672,582,0,0,0,0,0,0,0,0,0,-1,552,442,0,0
-665,582,0,0,0,0,0,0,0,0,0,-1,559,442,0,0
-658,582,0,0,0,0,0,0,0,0,0,-1,566,442,0,0
-651,582,0,0,0,0,0,0,0,0,0,-1,573,442,0,0
-644,582,0,0,0,0,0,0,0,0,0,-1,580,442,0,0
-637,582,0,0,0,0,0,0,0,0,0,-1,587,442,0,0
-630,582,0,0,0,0,0,0,0,0,0,-1,594,442,0,0
-623,582,0,0,0,0,0,0,0,0,0,-1,601,442,0,0
-616,582,0,0,0,0,0,0,0,0,0,-1,608,442,0,0
-609,582,0,0,0,0,0,0,0,0,0,-1,615,442,0,0
-602,582,0,0,0,0,0,0,0,0,0,-1,622,442,0,0
-595,582,0,0,0,0,0,0,0,0,0,-1,629,442,0,0
-588,582,0,0,0,0,0,0,0,0,0,-1,636,442,0,0
-581,582,0,0,0,0,0,0,0,0,0,-1,643,442,0,0
-574,582,0,0,0,0,0,0,0,0,0,-1,650,442,0,0
-567,582,0,0,0,0,0,0,0,0,0,-1,657,442,0,0
-560,582,0,0,0,0,0,0,0,0,0,-1,664,442,0,0
-553,582,0,0,0,0,0,0,0,0,0,-1,671,442,0,0
-546,582,0,0,0,0,0,0,0,0,0,-1,678,442,0,0
-539,582,0,0,0,0,0,0,0,0,0,-1,685,442,0,0
-532,582,0,0,0,0,0,0,0,0,0,-1,692,442,0,0
-525,582,0,0,0,0,0,0,0,0,0,-1,699,442,0,0
-518,582,0,0,0,0,0,0,0,0,0,-1,706,442,0,0
-511,582,0,0,0,0,0,0,0,0,0,-1,713,442,0,0
-504,582,0,0,0,0,0,0,0,0,0,-1,720,442,0,0
-497,582,0,0,0,0,0,0,0,0,0,-1,727,442,0,0
-490,582,0,0,0,0,0,0,0,0,0,-1,734,442,0,0
-483,582,0,0,0,0,0,0,0,0,0,-1,741,442,0,0
-476,582,0,0,0,0,0,0,0,0,0,-1,748,442,0,0
-469,582,0,0,0,0,0,0,0,0,0,-1,755,442,0,0
-462,582,0,0,0,0,0,0,0,0,0,-1,762,442,0,0
-455,582,0,0,0,0,0,0,0,0,0,-1,769,442,0,0
-448,582,0,0,0,0,0,0,0,0,0,-1,776,442,0,0
-441,582,0,0,0,0,0,0,0,0,0,-1,783,442,0,0
-434,582,0,0,0,0,0,0,0,0,0,-1,790,442,0,0
-427,582,0,0,0,0,0,0,0,0,0,-1,797,442,0,0
-420,582,0,0,0,0,0,0,0,0,0,-1,804,442,0,0
-413,582,0,0,0,0,0,0,0,0,0,-1,811,442,0,0
-406,582,0,0,0,0,0,0,0,0,0,-1,818,442,0,0
-399,582,0,0,0,0,0,0,0,0,0,-1,825,442,0,0
-392,582,0,0,0,0,0,0,0,0,0,-1,832,442,0,0
-385,582,0,0,0,0,0,0,0,0,0,-1,839,442,0,0
-378,582,0,0,0,0,0,0,0,0,0,-1,846,442,0,0
-371,582,0,0,0,0,0,0,0,0,0,-1,853,442,0,0
-364,582,0,0,0,0,0,0,0,0,0,-1,860,442,0,0
-357,582,-1.4903,-21.5295,0,0,0,0,0,0,0,-1,867,442,-1.49031,21.5295
-350,582,-0.880859,-19.7966,0,0,0,0,0,0,0,-1,874,442,-0.880885,19.7966
-343,582,0.939941,-19.1705,0,0,0,0,0,0,0,-1,881,442,0.939935,19.1705
-336,582,3.33929,-27.9479,0,0,0,0,0,0,0,-1,888,442,3.33928,27.9479
-329,582,3.63544,-26.4736,0,0,0,0,0,0,0,-1,895,442,3.63546,26.4736
-322,582,3.44159,-26.4157,0,0,0,0,0,0,0,-1,902,442,3.44161,26.4157
-315,582,2.71008,-26.4723,0,0,0,0,0,0,0,-1,909,442,2.71007,26.4723
-308,582,3.04498,-27.215,0.00632634,0.0200116,-0.00523284,0.0217832,0.00455479,-1.24436,0.0132671,0.0489645,916,442,3.04499,27.215
-301,582,3.40771,-27.9546,0.00529385,0.0190715,-0.00632856,0.0215372,0.00282817,-1.19928,0.0135144,0.0443363,923,442,3.40772,27.9546
-294,582,3.3902,-28.7538,0.00403379,0.0183707,-0.00680208,0.0210843,0.00132019,-1.19121,0.0136374,0.0466415,930,442,3.39023,28.7538
-287,582,3.20844,-29.3103,0.00274662,0.0177845,-0.00690672,0.0204752,5.58952e-05,-1.1993,0.0136315,0.0408901,937,442,3.20846,29.3103
-280,582,3.23108,-29.8966,0.00181532,0.0175474,-0.00695382,0.0201804,-0.000817704,-1.20884,0.0137343,0.0200452,944,442,3.23109,29.8966
-273,582,3.20612,-30.5718,0.00137191,0.0171244,-0.00705746,0.0198238,-0.00132742,-1.20548,0.0136798,0.0122527,951,442,3.20614,30.5718
-266,582,3.15302,-31.2129,0.000849782,0.0158936,-0.00668779,0.0184368,-0.00169338,-1.20741,0.0128928,0.0113019,958,442,3.15301,31.2129
-259,582,3.10364,-31.8257,0.000327941,0.0144597,-0.00598543,0.0166541,-0.00186642,-1.2194,0.0117743,0.00890635,965,442,3.10361,31.8257
-252,582,3.07959,-32.4299,-0.000339205,0.0130572,-0.00511319,0.0147857,-0.00206779,-1.24479,0.0106138,0.00758635,972,442,3.07961,32.4299
-245,582,3.07532,-32.975,-0.000452132,0.0114134,-0.00442665,0.0128829,-0.00192159,-1.25029,0.00929557,0.0109914,979,442,3.0753,32.975
-238,582,3.03577,-33.5276,-0.000130154,0.00983838,-0.00384516,0.0111492,-0.00144098,-1.24225,0.00795674,0.0159623,986,442,3.03579,33.5276
-231,582,2.9978,-34.0791,0.000169149,0.00795087,-0.00317745,0.00908345,-0.000963433,-1.22839,0.00640099,0.0134063,993,442,2.99778,34.0791
-224,582,2.97827,-34.6477,0.000347135,0.00607942,-0.00249174,0.00701111,-0.000584553,-1.21298,0.00488061,0.0109791,1000,442,2.97824,34.6477
-217,582,2.93964,-35.2191,0.000549366,0.00410398,-0.0018171,0.00486846,-0.000215112,-1.17256,0.00331967,0.0135643,1007,442,2.93962,35.2191
-210,582,2.92383,-35.738,0.000757572,0.00185355,-0.00111423,0.00254726,6.38682e-05,-1.01394,0.00167729,0.0138685,1014,442,2.92382,35.738
-203,582,2.92743,-36.256,0.000972379,-2.399e-05,-0.000436834,0.00113677,-0.000188385,-0.359939,0.000827821,0.0100399,1021,442,2.92742,36.2559
-196,582,2.92175,-36.8141,0.00116786,-0.00163031,0.000223317,0.00118557,-0.00164802,0.0791407,0.00164322,0.0148754,1028,442,2.9218,36.8141
-189,582,2.88928,-37.3312,0.001373,-0.0033932,0.000974003,0.00156436,-0.00358456,0.193997,0.00304805,0.0216473,1035,442,2.88922,37.3312
-182,582,2.87634,-37.8164,0.00167308,-0.00565734,0.0019157,0.00214353,-0.00612779,0.24081,0.00495668,0.016151,1042,442,2.87633,37.8164
-175,582,2.89844,-38.2714,0.00195944,-0.00853833,0.00294895,0.00273111,-0.00931,0.255938,0.00728962,0.0140199,1049,442,2.89846,38.2714
-168,582,2.91138,-38.7803,0.00206789,-0.0115531,0.00391046,0.00311071,-0.0125959,0.26061,0.00960359,0.0115749,1056,442,2.91132,38.7803
-161,582,2.90283,-39.2447,0.00218035,-0.0144727,0.00501441,0.00357366,-0.015866,0.271026,0.0119481,0.012679,1063,442,2.90285,39.2447
-154,582,2.89355,-39.689,0.0023487,-0.0178397,0.0061522,0.00407578,-0.0195667,0.273681,0.014594,0.0124532,1070,442,2.8936,39.689
-147,582,2.92017,-40.1288,0.00245737,-0.0213855,0.00722855,0.00447769,-0.0234059,0.272537,0.0172908,0.0119998,1077,442,2.92022,40.1288
-140,582,2.91748,-40.5507,0.00243754,-0.0249857,0.00834788,0.00477882,-0.027327,0.273439,0.0200021,0.0130913,1084,442,2.91744,40.5507
-133,582,2.97754,-40.9758,0.002343,-0.0283265,0.00930841,0.00494707,-0.0309305,0.272781,0.0224518,0.0167832,1091,442,2.9776,40.9758
-126,582,3.01233,-41.3056,0.0022673,-0.0313439,0.0100702,0.00505344,-0.0341301,0.269921,0.0246114,0.0161419,1098,442,3.01235,41.3056
-119,582,2.92529,-41.6202,0.00225592,-0.0338716,0.0106167,0.0051448,-0.0367604,0.265676,0.0263896,0.0215839,1105,442,2.92524,41.6202
-112,582,2.80151,-42.1311,0.00219753,-0.0354906,0.010828,0.00508695,-0.03838,0.260771,0.02744,0.0445548,1112,442,2.80149,42.1311
-105,582,2.77966,-42.6657,0,0,0,0,0,0,0,-1,1119,442,2.77964,42.6657
-98,582,2.61938,-32.8673,0,0,0,0,0,0,0,-1,1126,442,2.61944,32.8673
-91,582,2.16492,-24.1119,0,0,0,0,0,0,0,-1,1133,442,2.16496,24.1119
-84,582,2.10278,-16.7533,0,0,0,0,0,0,0,-1,1140,442,2.10279,16.7533
-77,582,2.30212,-11.4907,0,0,0,0,0,0,0,-1,1147,442,2.30207,11.4907
-70,582,1.49255,-6.36548,0,0,0,0,0,0,0,-1,1154,442,1.49251,6.36549
-63,582,-4.62915,-4.0347,0,0,0,0,0,0,0,-1,1161,442,-4.6292,4.03471
-56,582,-5.81714,-5.24149,0,0,0,0,0,0,0,-1,1168,442,-5.81718,5.24149
-49,582,-3.88672,-10.1064,0,0,0,0,0,0,0,-1,1175,442,-3.88678,10.1064
-42,582,-0.948975,1.13968,0,0,0,0,0,0,0,-1,1182,442,-0.949003,-1.13969
-35,582,-2.58435,-3.86911,0,0,0,0,0,0,0,-1,1189,442,-2.58437,3.86912
-28,582,-0.825317,-3.45941,0,0,0,0,0,0,0,-1,1196,442,-0.825377,3.45942
-21,582,0.300049,-49.7279,0,0,0,0,0,0,0,-1,1203,442,0.300052,49.7279
-14,582,4.31946,-45.1663,0,0,0,0,0,0,0,-1,1210,442,4.31949,45.1663
-7,582,7.11792,-43.3581,0,0,0,0,0,0,0,-1,1217,442,7.11787,43.3581
0,582,6.09644,-43.0866,0,0,0,0,0,0,0,-1,1224,442,6.09646,43.0866
7,582,5.90466,-43.5353,0,0,0,0,0,0,0,-1,1231,442,5.90462,43.5353
14,582,5.64539,-44.3672,0,0,0,0,0,0,0,-1,1238,442,5.64535,44.3672
21,582,5.54846,-45.1526,0,0,0,0,0,0,0,-1,1245,442,5.54843,45.1526
28,582,5.56287,-45.8818,0,0,0,0,0,0,0,-1,1252,442,5.56282,45.8818
35,582,5.87244,-46.5216,0,0,0,0,0,0,0,-1,1259,442,5.8724,46.5216
42,582,5.81018,-46.9882,0,0,0,0,0,0,0,-1,1266,442,5.81022,46.9882
49,582,6.09607,-47.8441,0,0,0,0,0,0,0,-1,1273,442,6.09605,47.8441
56,582,6.43286,-48.528,0,0,0,0,0,0,0,-1,1280,442,6.4329,48.528
63,582,6.16614,-47.7297,0,0,0,0,0,0,0,-1,1287,442,6.16609,47.7297
70,582,6.14978,-47.6989,0,0,0,0,0,0,0,-1,1294,442,6.14975,47.6989
77,582,6.2301,-47.7191,0,0,0,0,0,0,0,-1,1301,442,6.23007,47.7192
84,582,6.56641,-47.8646,0,0,0,0,0,0,0,-1,1308,442,6.56643,47.8646
91,582,6.23401,-48.0794,0,0,0,0,0,0,0,-1,1315,442,6.23396,48.0794
98,582,6.24915,-47.8154,0,0,0,0,0,0,0,-1,1322,442,6.24917,47.8154
105,582,6.18738,-47.7294,0,0,0,0,0,0,0,-1,1329,442,6.18733,47.7294
112,582,6.47827,-47.5912,0,0,0,0,0,0,0,-1,1336,442,6.47822,47.5912
119,582,6.79016,-47.631,0,0,0,0,0,0,0,-1,1343,442,6.79012,47.631
126,582,6.95007,-47.8252,0,0,0,0,0,0,0,-1,1350,442,6.95005,47.8252
133,582,7.08118,-47.9879,0,0,0,0,0,0,0,-1,1357,442,7.08119,47.9879
140,582,6.78735,-48.2687,0,0,0,0,0,0,0,-1,1364,442,6.78737,48.2687
147,582,6.37451,-48.4746,0,0,0,0,0,0,0,-1,1371,442,6.37453,48.4746
154,582,6.09204,-48.5894,0,0,0,0,0,0,0,-1,1378,442,6.09202,48.5894
161,582,5.19104,-41.3028,0,0,0,0,0,0,0,-1,1385,442,5.19105,41.3028
168,582,0.081665,-40.4535,0,0,0,0,0,0,0,-1,1392,442,0.0816215,40.4535
175,582,6.50549,-2.00424,0,0,0,0,0,0,0,-1,1399,442,6.50546,2.00425
182,582,5.18958,-2.18652,0,0,0,0,0,0,0,-1,1406,442,5.1896,2.18652
189,582,6.19751,-0.880951,0,0,0,0,0,0,0,-1,1413,442,6.19754,0.88096
196,582,4.87354,-2.22327,0,0,0,0,0,0,0,-1,1420,442,4.87348,2.22325
203,582,3.11401,-4.48257,0,0,0,0,0,0,0,-1,1427,442,3.11404,4.48259
210,582,2.93115,-11.0731,0,0,0,0,0,0,0,-1,1434,442,2.93113,11.0731
217,582,4.94092,-16.5476,0,0,0,0,0,0,0,-1,1441,442,4.94087,16.5476
224,582,5.21008,-20.9908,0,0,0,0,0,0,0,-1,1448,442,5.21006,20.9908
231,582,5.70032,-25.622,0,0,0,0,0,0,0,-1,1455,442,5.70026,25.6221
238,582,6.44189,-30.7028,0,0,0,0,0,0,0,-1,1462,442,6.44195,30.7028
245,582,8.95996,-41.8239,0,0,0,0,0,0,0,-1,1469,442,8.95997,41.8238
252,582,8.83801,-41.2346,0.00388521,0.000318315,-0.00252078,0.00518965,-0.000986117,-0.477527,0.00383101,0.0420985,1476,442,8.83799,41.2346
259,582,8.76965,-40.6984,0.00366731,-0.000486386,-0.00229455,0.00468534,-0.00150441,-0.417579,0.00372763,0.0224843,1483,442,8.76963,40.6984
266,582,8.77039,-40.2195,0.00351065,-0.00122632,-0.00210794,0.00431283,-0.0020285,-0.363629,0.00373951,0.0134487,1490,442,8.77037,40.2195
273,582,8.81506,-39.7708,0.00347431,-0.00172336,-0.00183626,0.00405758,-0.00230663,-0.307561,0.00372044,0.0115715,1497,442,8.815,39.7707
280,582,8.82947,-39.3141,0.00338893,-0.00196976,-0.00150751,0.00378391,-0.00236474,-0.256248,0.0035813,0.0120498,1504,442,8.82952,39.314
287,582,8.82642,-38.8332,0.00326791,-0.00193241,-0.00123881,0.00354794,-0.00221243,-0.222309,0.00335541,0.0117314,1511,442,8.82646,38.8332
294,582,8.84021,-38.3065,0.0031344,-0.00162273,-0.000916878,0.003305,-0.00179333,-0.183961,0.00298634,0.00981034,1518,442,8.84026,38.3065
301,582,8.84692,-37.7717,0.00293948,-0.00119711,-0.000554616,0.00301255,-0.00127018,-0.130994,0.00253993,0.0104117,1525,442,8.84687,37.7717
308,582,8.85486,-37.2516,0.00270946,-0.000876172,-0.000255948,0.00272764,-0.00089435,-0.0709024,0.00217862,0.012675,1532,442,8.85484,37.2517
315,582,8.84973,-36.7423,0.00242178,-0.000226062,3.7192e-05,0.0024223,-0.000226584,0.0140425,0.00169545,0.0130492,1539,442,8.84971,36.7423
322,582,8.84302,-36.2004,0.00205632,0.000530066,0.000384993,0.00214793,0.000438451,0.233619,0.00131048,0.0102803,1546,442,8.84303,36.2004
329,582,8.82507,-35.6797,0.00165313,0.00120122,0.000727311,0.00218878,0.000665575,0.634788,0.00129563,0.0107085,1553,442,8.82505,35.6797
336,582,8.81433,-35.1562,0.00124825,0.00197559,0.00108138,0.00275282,0.000471022,0.947606,0.00170009,0.0115642,1560,442,8.81431,35.1562
343,582,8.797,-34.5919,0.00081755,0.00278411,0.00143626,0.00354142,6.02335e-05,1.08556,0.00234113,0.0134812,1567,442,8.79694,34.5919
350,582,8.77869,-34.0159,0.000455829,0.0038586,0.00193094,0.00473078,-0.000416354,1.14654,0.0033014,0.0163222,1574,442,8.77865,34.0159
357,582,8.76001,-33.3977,0.000145903,0.004878,0.00247316,0.00593462,-0.000910721,1.16703,0.00429231,0.0143216,1581,442,8.76007,33.3977
364,582,8.73022,-32.8097,-0.000140308,0.00593144,0.00302296,0.00717982,-0.00138869,1.17916,0.00531031,0.0112483,1588,442,8.73019,32.8097
371,582,8.69824,-32.2405,-0.000362634,0.00703202,0.00362116,0.00850992,-0.00184054,1.1833,0.00637597,0.0143261,1595,442,8.69828,32.2405
378,582,8.66052,-31.6561,-0.000532094,0.00833331,0.00425272,0.0100434,-0.00224223,1.18846,0.00755478,0.0150178,1602,442,8.6605,31.6561
385,582,8.63367,-31.0556,2.64362e-05,0.0100319,0.00475672,0.0119323,-0.001874,1.1907,0.0086475,0.0119595,1609,442,8.63367,31.0556
392,582,8.60376,-30.4424,0.00136876,0.0120216,0.00546199,0.0143243,-0.00093398,1.17181,0.0098756,0.010958,1616,442,8.60379,30.4424
399,582,8.56238,-29.8368,0.00288492,0.0140443,0.00639436,0.0169511,-2.19001e-05,1.14413,0.011308,0.0200712,1623,442,8.56235,29.8368
406,582,8.54419,-29.0747,0.00452681,0.016258,0.00725408,0.0197212,0.00106358,1.12538,0.0128077,0.0378189,1630,442,8.54416,29.0747
413,582,8.52515,-28.3,0,0,0,0,0,0,0,-1,1637,442,8.5251,28.3001
420,582,8.36829,-27.8813,0,0,0,0,0,0,0,-1,1644,442,8.36834,27.8813
427,582,8.38293,-27.1495,0,0,0,0,0,0,0,-1,1651,442,8.38298,27.1495
434,582,8.27881,-26.3021,0.0145371,0.022972,0.0100594,0.0296623,0.00784682,0.983897,0.0177472,0.0440044,1658,442,8.27879,26.3021
441,582,8.65906,-25.6143,0.017114,0.0235477,0.0105497,0.0313602,0.0093016,0.933382,0.0185985,0.0467758,1665,442,8.65907,25.6143
448,582,9.12292,-24.8981,0,0,0,0,0,0,0,-1,1672,442,9.12296,24.8981
455,582,6.4585,-19.4734,0,0,0,0,0,0,0,-1,1679,442,6.45854,19.4734
462,582,5.35022,-19.2616,0,0,0,0,0,0,0,-1,1686,442,5.35025,19.2616
469,582,6.28601,-21.5695,0,0,0,0,0,0,0,-1,1693,442,6.28597,21.5695
476,582,1.93579,-8.53891,0,0,0,0,0,0,0,-1,1700,442,1.93579,8.53892
483,582,0,0,0,0,0,0,0,0,0,-1,1707,442,0,0
490,582,0,0,0,0,0,0,0,0,0,-1,1714,442,0,0
497,582,0,0,0,0,0,0,0,0,0,-1,1721,442,0,0
504,582,0,0,0,0,0,0,0,0,0,-1,1728,442,0,0
511,582,0,0,0,0,0,0,0,0,0,-1,1735,442,0,0
518,582,0,0,0,0,0,0,0,0,0,-1,1742,442,0,0
525,582,0,0,0,0,0,0,0,0,0,-1,1749,442,0,0
532,582,0,0,0,0,0,0,0,0,0,-1,1756,442,0,0
539,582,0,0,0,0,0,0,0,0,0,-1,1763,442,0,0
546,582,0,0,0,0,0,0,0,0,0,-1,1770,442,0,0
553,582,0,0,0,0,0,0,0,0,0,-1,1777,442,0,0
560,582,0,0,0,0,0,0,0,0,0,-1,1784,442,0,0
567,582,0,0,0,0,0,0,0,0,0,-1,1791,442,0,0
574,582,0,0,0,0,0,0,0,0,0,-1,1798,442,0,0
581,582,0,0,0,0,0,0,0,0,0,-1,1805,442,0,0
588,582,0,0,0,0,0,0,0,0,0,-1,1812,442,0,0
595,582,0,0,0,0,0,0,0,0,0,-1,1819,442,0,0
602,582,0,0,0,0,0,0,0,0,0,-1,1826,442,0,0
609,582,0,0,0,0,0,0,0,0,0,-1,1833,442,0,0
616,582,0,0,0,0,0,0,0,0,0,-1,1840,442,0,0
623,582,0,0,0,0,0,0,0,0,0,-1,1847,442,0,0
630,582,0,0,0,0,0,0,0,0,0,-1,1854,442,0,0
637,582,0,0,0,0,0,0,0,0,0,-1,1861,442,0,0
644,582,0,0,0,0,0,0,0,0,0,-1,1868,442,0,0
651,582,0,0,0,0,0,0,0,0,0,-1,1875,442,0,0
658,582,0,0,0,0,0,0,0,0,0,-1,1882,442,0,0
665,582,0,0,0,0,0,0,0,0,0,-1,1889,442,0,0
672,582,0,0,0,0,0,0,0,0,0,-1,1896,442,0,0
679,582,0,0,0,0,0,0,0,0,0,-1,1903,442,0,0
686,582,0,0,0,0,0,0,0,0,0,-1,1910,442,0,0
693,582,0,0,0,0,0,0,0,0,0,-1,1917,442,0,0
700,582,0,0,0,0,0,0,0,0,0,-1,1924,442,0,0
707,582,0,0,0,0,0,0,0,0,0,-1,1931,442,0,0
714,582,0,0,0,0,0,0,0,0,0,-1,1938,442,0,0
721,582,0,0,0,0,0,0,0,0,0,-1,1945,442,0,0
728,582,0,0,0,0,0,0,0,0,0,-1,1952,442,0,0
735,582,0,0,0,0,0,0,0,0,0,-1,1959,442,0,0
742,582,0,0,0,0,0,0,0,0,0,-1,1966,442,0,0
749,582,0,0,0,0,0,0,0,0,0,-1,1973,442,0,0
756,582,0,0,0,0,0,0,0,0,0,-1,1980,442,0,0
763,582,0,0,0,0,0,0,0,0,0,-1,1987,442,0,0
770,582,0,0,0,0,0,0,0,0,0,-1,1994,442,0,0
777,582,0,0,0,0,0,0,0,0,0,-1,2001,442,0,0
784,582,0,0,0,0,0,0,0,0,0,-1,2008,442,0,0
791,582,0,0,0,0,0,0,0,0,0,-1,2015,442,0,0
798,582,0,0,0,0,0,0,0,0,0,-1,2022,442,0,0
805,582,0,0,0,0,0,0,0,0,0,-1,2029,442,0,0
812,582,0,0,0,0,0,0,0,0,0,-1,2036,442,0,0
-700,575,0,0,0,0,0,0,0,0,0,-1,524,449,0,0
-693,575,0,0,0,0,0,0,0,0,0,-1,531,449,0,0
-686,575,0,0,0,0,0,0,0,0,0,-1,538,449,0,0
-679,575,0,0,0,0,0,0,0,0,0,-1,545,449,0,0
-672,575,0,0,0,0,0,0,0,0,0,-1,552,449,0,0
-665,575,0,0,0,0,0,0,0,0,0,-1,559,449,0,0
-658,575,0,0,0,0,0,0,0,0,0,-1,566,449,0,0
-651,575,0,0,0,0,0,0,0,0,0,-1,573,449,0,0
-644,575,0,0,0,0,0,0,0,0,0,-1,580,449,0,0
-637,575,0,0,0,0,0,0,0,0,0,-1,587,449,0,0
-630,575,0,0,0,0,0,0,0,0,0,-1,594,449,0,0
-623,575,0,0,0,0,0,0,0,0,0,-1,601,449,0,0
-616,575,0,0,0,0,0,0,0,0,0,-1,608,449,0,0
-609,575,0,0,0,0,0,0,0,0,0,-1,615,449,0,0
-602,575,0,0,0,0,0,0,0,0,0,-1,622,449,0,0
-595,575,0,0,0,0,0,0,0,0,0,-1,629,449,0,0
-588,575,0,0,0,0,0,0,0,0,0,-1,636,449,0,0
-581,575,0,0,0,0,0,0,0,0,0,-1,643,449,0,0
-574,575,0,0,0,0,0,0,0,0,0,-1,650,449,0,0
-567,575,0,0,0,0,0,0,0,0,0,-1,657,449,0,0
-560,575,0,0,0,0,0,0,0,0,0,-1,664,449,0,0
-553,575,0,0,0,0,0,0,0,0,0,-1,671,449,0,0
-546,575,0,0,0,0,0,0,0,0,0,-1,678,449,0,0
-539,575,0,0,0,0,0,0,0,0,0,-1,685,449,0,0
-532,575,0,0,0,0,0,0,0,0,0,-1,692,449,0,0
-525,575,0,0,0,0,0,0,0,0,0,-1,699,449,0,0
-518,575,0,0,0,0,0,0,0,0,0,-1,706,449,0,0
-511,575,0,0,0,0,0,0,0,0,0,-1,713,449,0,0
-504,575,0,0,0,0,0,0,0,0,0,-1,720,449,0,0
-497,575,0,0,0,0,0,0,0,0,0,-1,727,449,0,0
-490,575,0,0,0,0,0,0,0,0,0,-1,734,449,0,0
-483,575,0,0,0,0,0,0,0,0,0,-1,741,449,0,0
-476,575,0,0,0,0,0,0,0,0,0,-1,748,449,0,0
-469,575,0,0,0,0,0,0,0,0,0,-1,755,449,0,0
-462,575,0,0,0,0,0,0,0,0,0,-1,762,449,0,0
-455,575,0,0,0,0,0,0,0,0,0,-1,769,449,0,0
-448,575,0,0,0,0,0,0,0,0,0,-1,776,449,0,0
-441,575,0,0,0,0,0,0,0,0,0,-1,783,449,0,0
-434,575,0,0,0,0,0,0,0,0,0,-1,790,449,0,0
-427,575,0,0,0,0,0,0,0,0,0,-1,797,449,0,0
-420,575,0,0,0,0,0,0,0,0,0,-1,804,449,0,0
-413,575,0,0,0,0,0,0,0,0,0,-1,811,449,0,0
-406,575,0,0,0,0,0,0,0,0,0,-1,818,449,0,0
-399,575,0,0,0,0,0,0,0,0,0,-1,825,449,0,0
-392,575,0,0,0,0,0,0,0,0,0,-1,832,449,0,0
-385,575,0,0,0,0,0,0,0,0,0,-1,839,449,0,0
-378,575,0,0,0,0,0,0,0,0,0,-1,846,449,0,0
-371,575,0.56897,-3.52304,0,0,0,0,0,0,0,-1,853,449,0.568955,3.52306
-364,575,1.49805,-4.67191,0,0,0,0,0,0,0,-1,860,449,1.49803,4.6719
-357,575,3.15521,-8.29892,0,0,0,0,0,0,0,-1,867,449,3.15521,8.29891
-350,575,-0.825928,-18.5347,0,0,0,0,0,0,0,-1,874,449,-0.825948,18.5347
-343,575,0.465393,-16.3569,0,0,0,0,0,0,0,-1,881,449,0.465397,16.3569
-336,575,3.1994,-17.5725,0,0,0,0,0,0,0,-1,888,449,3.19941,17.5725
-329,575,2.97552,-25.9951,0,0,0,0,0,0,0,-1,895,449,2.97555,25.9951
-322,575,2.271,-25.526,0,0,0,0,0,0,0,-1,902,449,2.27097,25.526
-315,575,2.47565,-26.2815,0,0,0,0,0,0,0,-1,909,449,2.47566,26.2815
-308,575,2.50073,-27.3,0.00384438,0.0164851,-0.00434434,0.0178342,0.0024953,-1.2697,0.0111511,0.0485719,916,449,2.50073,27.3
-301,575,2.77979,-28.0305,0.00321161,0.0151844,-0.00495469,0.0169689,0.00142718,-1.22511,0.0108681,0.0355507,923,449,2.7798,28.0305
-294,575,2.76398,-28.6948,0.00252403,0.014182,-0.00523739,0.0161893,0.000516738,-1.2048,0.0106248,0.0267318,930,449,2.76401,28.6948
-287,575,2.68579,-29.3694,0.00178732,0.013397,-0.00524068,0.0154127,-0.000228378,-1.20361,0.0103521,0.0208713,937,449,2.6858,29.3694
-280,575,2.67426,-29.9791,0.00127479,0.0129325,-0.00523634,0.0149392,-0.000731839,-1.20485,0.0102121,0.0158346,944,449,2.67428,29.9791
-273,575,2.65533,-30.6167,0.00110863,0.0124076,-0.00529214,0.0144991,-0.000982913,-1.19442,0.0100098,0.0126997,951,449,2.65534,30.6167
-266,575,2.60883,-31.2332,0.000813026,0.0112144,-0.00496578,0.0132044,-0.00117698,-1.18965,0.00922035,0.0132938,958,449,2.60884,31.2332
-259,575,2.55719,-31.8313,0.000463982,0.00990739,-0.00434586,0.0116029,-0.00123155,-1.19881,0.00817677,0.0122682,965,449,2.55722,31.8313
-252,575,2.50299,-32.4039,-8.87455e-06,0.0086584,-0.00353337,0.00991628,-0.00126676,-1.22879,0.00707103,0.0113335,972,449,2.50299,32.4039
-245,575,2.47552,-32.959,-4.59273e-05,0.00718703,-0.00288534,0.00819701,-0.00105591,-1.23409,0.0058485,0.014942,979,449,2.47554,32.9589
-238,575,2.46466,-33.5084,0.000255524,0.00568563,-0.0022945,0.00652533,-0.000584171,-1.21997,0.00455744,0.015491,986,449,2.46469,33.5084
-231,575,2.45288,-34.0596,0.000528819,0.00391319,-0.00163041,0.00457084,-0.000128832,-1.18739,0.00309107,0.0135423,993,449,2.45287,34.0596
-224,575,2.42572,-34.6168,0.000685799,0.00213039,-0.000943295,0.00259616,0.000220021,-1.11214,0.0016623,0.0128327,1000,449,2.4257,34.6168
-217,575,2.42188,-35.1646,0.00086918,0.00023422,-0.000250264,0.000955959,0.000147441,-0.333777,0.000594287,0.0107801,1007,449,2.42186,35.1647
-210,575,2.42358,-35.7197,0.00106193,-0.00185999,0.000458384,0.00113215,-0.00193021,0.152014,0.00178796,0.0091054,1014,449,2.42356,35.7197
-203,575,2.42053,-36.2445,0.0012859,-0.00363777,0.00112639,0.00153135,-0.00388322,0.214553,0.0032229,0.0120052,1021,449,2.42054,36.2445
-196,575,2.41321,-36.7904,0.00150268,-0.00525604,0.0017981,0.00195127,-0.00570463,0.244492,0.00459379,0.0161141,1028,449,2.41325,36.7904
-189,575,2.38843,-37.2919,0.00172552,-0.00714424,0.00264968,0.00245678,-0.00787549,0.269276,0.0062328,0.0171967,1035,449,2.38845,37.2919
-182,575,2.37341,-37.7701,0.00207123,-0.009727,0.00373156,0.00315238,-0.0108081,0.282009,0.00845445,0.0161295,1042,449,2.37338,37.7701
-175,575,2.40088,-38.2548,0.00241757,-0.0131052,0.00492209,0.00384673,-0.0145344,0.282585,0.0111943,0.0129684,1049,449,2.40087,38.2548
-168,575,2.39478,-38.7343,0.00254591,-0.0167114,0.00603364,0.00428017,-0.0184456,0.279887,0.0139445,0.0115918,1056,449,2.39473,38.7342
-161,575,2.40454,-39.2007,0.00269384,-0.0203169,0.00740069,0.00486852,-0.0224915,0.285804,0.0168533,0.0159812,1063,449,2.40459,39.2007
-154,575,2.4353,-39.6525,0.00290531,-0.0246732,0.00883074,0.0054906,-0.0272585,0.284801,0.0202521,0.0171964,1070,449,2.43532,39.6525
-147,575,2.47571,-40.0548,0.00300705,-0.0294027,0.0101794,0.00593899,-0.0323346,0.280437,0.0237845,0.01518,1077,449,2.47573,40.0548
-140,575,2.46692,-40.3948,0.00288621,-0.0342175,0.0116485,0.00624005,-0.0375713,0.280338,0.0273658,0.0211355,1084,449,2.46689,40.3948
-133,575,2.52441,-40.6018,0.00262838,-0.0388796,0.0129867,0.00635671,-0.0426079,0.279568,0.030744,0.0323363,1091,449,2.52444,40.6018
-126,575,2.59521,-40.6917,0.00237525,-0.0433934,0.0141642,0.00640404,-0.0474222,0.277117,0.0339514,0.0373763,1098,449,2.59527,40.6916
-119,575,2.48108,-41.0023,0.0021704,-0.0474038,0.0150579,0.00638572,-0.0516191,0.272954,0.0367268,0.0435992,1105,449,2.48114,41.0023
-112,575,2.26563,-41.7144,0,0,0,0,0,0,0,-1,1112,449,2.26565,41.7144
-105,575,2.18347,-36.5414,0,0,0,0,0,0,0,-1,1119,449,2.18351,36.5414
-98,575,1.521,-25.6961,0,0,0,0,0,0,0,-1,1126,449,1.52105,25.6961
-91,575,1.60803,-16.4247,0,0,0,0,0,0,0,-1,1133,449,1.60802,16.4247
-84,575,1.16553,-11.9056,0,0,0,0,0,0,0,-1,1140,449,1.16558,11.9056
-77,575,0.205078,-11.2584,0,0,0,0,0,0,0,-1,1147,449,0.205117,11.2584
-70,575,-4.2467,-1.78738,0,0,0,0,0,0,0,-1,1154,449,-4.24674,1.78739
-63,575,-4.52209,-3.48798,0,0,0,0,0,0,0,-1,1161,449,-4.5221,3.48796
-56,575,-5.5968,-5.4928,0,0,0,0,0,0,0,-1,1168,449,-5.59683,5.49281
-49,575,-5.96863,-7.17612,0,0,0,0,0,0,0,-1,1175,449,-5.96868,7.1761
-42,575,-0.830322,0.773499,0,0,0,0,0,0,0,-1,1182,449,-0.83038,-0.77351
-35,575,-0.62085,0.205139,0,0,0,0,0,0,0,-1,1189,449,-0.620855,-0.205126
-28,575,0.49292,-3.87988,0,0,0,0,0,0,0,-1,1196,449,0.492941,3.87989
-21,575,1.75684,-50.0212,0,0,0,0,0,0,0,-1,1203,449,1.75683,50.0212
-14,575,7.19189,-44.7001,0,0,0,0,0,0,0,-1,1210,449,7.1919,44.7001
-7,575,6.59692,-44.7794,0,0,0,0,0,0,0,-1,1217,449,6.59691,44.7794
0,575,5.97852,-44.7639,0,0,0,0,0,0,0,-1,1224,449,5.97853,44.764
7,575,5.3634,-44.6735,0,0,0,0,0,0,0,-1,1231,449,5.36344,44.6735
14,575,5.3573,-44.8615,0,0,0,0,0,0,0,-1,1238,449,5.35731,44.8615
21,575,5.17871,-45.5445,0,0,0,0,0,0,0,-1,1245,449,5.17869,45.5445
28,575,5.24512,-46.2941,0,0,0,0,0,0,0,-1,1252,449,5.24508,46.2941
35,575,5.78577,-46.5656,0,0,0,0,0,0,0,-1,1259,449,5.78572,46.5656
42,575,6.14465,-47.2947,0,0,0,0,0,0,0,-1,1266,449,6.1447,47.2947
49,575,6.41199,-48.2376,0,0,0,0,0,0,0,-1,1273,449,6.41193,48.2376
56,575,6.85327,-47.7612,0,0,0,0,0,0,0,-1,1280,449,6.85326,47.7612
63,575,6.49268,-47.899,0,0,0,0,0,0,0,-1,1287,449,6.49272,47.899
70,575,6.46655,-47.9088,0,0,0,0,0,0,0,-1,1294,449,6.46657,47.9088
77,575,6.25916,-47.9475,0,0,0,0,0,0,0,-1,1301,449,6.25917,47.9475
84,575,6.20239,-48.094,0,0,0,0,0,0,0,-1,1308,449,6.2024,48.094
91,575,6.18213,-48.223,0,0,0,0,0,0,0,-1,1315,449,6.18217,48.223
98,575,6.19788,-48.4194,0,0,0,0,0,0,0,-1,1322,449,6.19783,48.4194
105,575,6.2522,-48.4412,0,0,0,0,0,0,0,-1,1329,449,6.25223,48.4412
112,575,6.55859,-48.4909,0,0,0,0,0,0,0,-1,1336,449,6.55854,48.4909
119,575,7.23035,-49.0657,0,0,0,0,0,0,0,-1,1343,449,7.2303,49.0657
126,575,7.04712,-49.141,0,0,0,0,0,0,0,-1,1350,449,7.04708,49.141
133,575,6.88513,-49.2027,0,0,0,0,0,0,0,-1,1357,449,6.8851,49.2027
140,575,6.65295,-49.3766,0,0,0,0,0,0,0,-1,1364,449,6.653,49.3765
147,575,6.33899,-49.5155,0,0,0,0,0,0,0,-1,1371,449,6.33901,49.5155
154,575,5.89551,-49.6653,0,0,0,0,0,0,0,-1,1378,449,5.89553,49.6653
161,575,5.5083,-49.7667,0,0,0,0,0,0,0,-1,1385,449,5.50835,49.7667
168,575,7.5509,-35.3165,0,0,0,0,0,0,0,-1,1392,449,7.5509,35.3165
175,575,4.32617,1.93634,0,0,0,0,0,0,0,-1,1399,449,4.32612,-1.93634
182,575,6.3147,-2.88345,0,0,0,0,0,0,0,-1,1406,449,6.31466,2.88346
189,575,6.10449,-1.30817,0,0,0,0,0,0,0,-1,1413,449,6.10455,1.30817
196,575,5.79895,0.818359,0,0,0,0,0,0,0,-1,1420,449,5.79895,-0.81837
203,575,3.29724,-1.46378,0,0,0,0,0,0,0,-1,1427,449,3.29722,1.46377
210,575,2.32739,-7.74503,0,0,0,0,0,0,0,-1,1434,449,2.32741,7.74502
217,575,3.33618,-11.5521,0,0,0,0,0,0,0,-1,1441,449,3.3362,11.5521
224,575,5.51709,-16.3903,0,0,0,0,0,0,0,-1,1448,449,5.51713,16.3903
231,575,5.48572,-20.4595,0,0,0,0,0,0,0,-1,1455,449,5.48571,20.4595
238,575,5.33484,-22.3575,0,0,0,0,0,0,0,-1,1462,449,5.33478,22.3575
245,575,5.59741,-23.513,0,0,0,0,0,0,0,-1,1469,449,5.5974,23.513
252,575,9.38269,-41.5558,0,0,0,0,0,0,0,-1,1476,449,9.38273,41.5558
259,575,9.28577,-40.7881,0,0,0,0,0,0,0,-1,1483,449,9.28578,40.7881
266,575,9.28235,-40.1562,0.00424895,-0.00114916,-0.00268258,0.0053553,-0.00225551,-0.391168,0.00451396,0.0424434,1490,449,9.2823,40.1562
273,575,9.26526,-39.8057,0.00439158,-0.00228441,-0.00245042,0.00519445,-0.00308728,-0.316624,0.00483277,0.0342959,1497,449,9.26525,39.8057
280,575,9.28931,-39.2823,0,0,0,0,0,0,0,-1,1504,449,9.28934,39.2823
287,575,9.28223,-38.8364,0.00429378,-0.00335747,-0.00201343,0.00479126,-0.00385496,-0.242233,0.00500165,0.0228739,1511,449,9.28221,38.8364
294,575,9.3429,-38.3363,0.00416345,-0.00329717,-0.00177514,0.00456429,-0.00369801,-0.222079,0.00477897,0.0130556,1518,449,9.34292,38.3363
301,575,9.38196,-37.795,0.00393954,-0.00308111,-0.00147343,0.00423624,-0.00337781,-0.198704,0.00440527,0.0101998,1525,449,9.38191,37.795
308,575,9.39539,-37.261,0.00363469,-0.0030177,-0.00128039,0.00387262,-0.00325562,-0.183729,0.00412063,0.0105706,1532,449,9.39537,37.2611
315,575,9.38416,-36.7403,0.00327648,-0.00250657,-0.00106085,0.00346495,-0.00269503,-0.175818,0.00356571,0.0108403,1539,449,9.38419,36.7403
322,575,9.38159,-36.1982,0.00286848,-0.00181156,-0.000720432,0.00297687,-0.00191995,-0.149333,0.00284905,0.00988262,1546,449,9.38154,36.1981
329,575,9.38025,-35.664,0.00241833,-0.00114282,-0.000381066,0.00245865,-0.00118314,-0.105416,0.00214515,0.0105618,1553,449,9.3802,35.664
336,575,9.37158,-35.1204,0.00194938,-0.000335285,-4.19414e-05,0.00195015,-0.000336054,-0.0183495,0.00142539,0.0127605,1560,449,9.3716,35.1204
343,575,9.37219,-34.5478,0.00144223,0.000521082,0.000308692,0.00153611,0.000427202,0.295234,0.000915521,0.0136971,1567,449,9.37221,34.5478
350,575,9.35657,-33.9715,0.00101796,0.00156457,0.000773033,0.00211119,0.000471345,0.955315,0.00127962,0.0130879,1574,449,9.35654,33.9715
357,575,9.32849,-33.3747,0.000673036,0.00258645,0.00129412,0.0032391,2.03876e-05,1.1037,0.00215264,0.0124025,1581,449,9.32844,33.3747
364,575,9.29333,-32.7983,0.000365888,0.00364451,0.00184244,0.00447135,-0.000460956,1.14896,0.00314583,0.011151,1588,449,9.29335,32.7983
371,575,9.29272,-32.2373,0.000125654,0.00469484,0.00242492,0.00574185,-0.000921359,1.1632,0.0041691,0.0192544,1595,449,9.29272,32.2373
378,575,9.2522,-31.6441,-8.19098e-05,0.00583686,0.00300331,0.00709385,-0.0013389,1.17441,0.00523294,0.0184442,1602,449,9.25214,31.6441
385,575,9.21118,-31.0359,0.000280826,0.00723802,0.00347668,0.00867755,-0.0011587,1.17824,0.00620742,0.0116328,1609,449,9.21116,31.0358
392,575,9.18738,-30.4568,0.00127158,0.00879904,0.00411051,0.0106086,-0.000538013,1.15609,0.00725841,0.0098127,1616,449,9.18734,30.4568
399,575,9.14124,-29.8665,0.00239583,0.010356,0.00491799,0.0127027,4.9171e-05,1.12559,0.0084521,0.0105233,1623,449,9.1412,29.8664
406,575,9.10815,-29.1935,0.0035419,0.0120328,0.00563804,0.0148451,0.000729643,1.10811,0.0096627,0.0126176,1630,449,9.10819,29.1936
413,575,9.08032,-28.5341,0.0048024,0.0136661,0.00606097,0.0167427,0.00172582,1.10108,0.0106333,0.0159925,1637,449,9.08028,28.5341
420,575,9.01953,-27.8885,0.00634438,0.0150463,0.00655911,0.0185664,0.00282433,1.07825,0.0115518,0.0167195,1644,449,9.01951,27.8885
427,575,8.97595,-27.1783,0.00804415,0.015425,0.00735693,0.0199652,0.00350392,1.01787,0.0123095,0.0196976,1651,449,8.97598,27.1783
434,575,8.88062,-26.6345,0.00977832,0.0163001,0.0079899,0.0216689,0.00440951,0.979145,0.0132235,0.0273186,1658,449,8.88059,26.6345
441,575,9.04089,-26.0558,0.011156,0.0163714,0.00845863,0.0226152,0.00491225,0.93492,0.0137354,0.0467605,1665,449,9.04089,26.0558
448,575,9.42358,-25.1035,0,0,0,0,0,0,0,-1,1672,449,9.42354,25.1035
455,575,9.54468,-22.5141,0,0,0,0,0,0,0,-1,1679,449,9.54471,22.5141
462,575,7.12781,-21.7179,0,0,0,0,0,0,0,-1,1686,449,7.12778,21.7178
469,575,7.48694,-23.1209,0,0,0,0,0,0,0,-1,1693,449,7.48698,23.1209
476,575,8.40417,-22.4446,0,0,0,0,0,0,0,-1,1700,449,8.40417,22.4446
483,575,5.99207,-22.4558,0,0,0,0,0,0,0,-1,1707,449,5.99209,22.4558
490,575,5.29419,-21.9916,0,0,0,0,0,0,0,-1,1714,449,5.29413,21.9916
497,575,0,0,0,0,0,0,0,0,0,-1,1721,449,0,0
504,575,0,0,0,0,0,0,0,0,0,-1,1728,449,0,0
511,575,0,0,0,0,0,0,0,0,0,-1,1735,449,0,0
518,575,0,0,0,0,0,0,0,0,0,-1,1742,449,0,0
525,575,0,0,0,0,0,0,0,0,0,-1,1749,449,0,0
532,575,0,0,0,0,0,0,0,0,0,-1,1756,449,0,0
539,575,0,0,0,0,0,0,0,0,0,-1,1763,449,0,0
546,575,0,0,0,0,0,0,0,0,0,-1,1770,449,0,0
553,575,0,0,0,0,0,0,0,0,0,-1,1777,449,0,0
560,575,0,0,0,0,0,0,0,0,0,-1,1784,449,0,0
567,575,0,0,0,0,0,0,0,0,0,-1,1791,449,0,0
574,575,0,0,0,0,0,0,0,0,0,-1,1798,449,0,0
581,575,0,0,0,0,0,0,0,0,0,-1,1805,449,0,0
588,575,0,0,0,0,0,0,0,0,0,-1,1812,449,0,0
595,575,0,0,0,0,0,0,0,0,0,-1,1819,449,0,0
602,575,0,0,0,0,0,0,0,0,0,-1,1826,449,0,0
609,575,0,0,0,0,0,0,0,0,0,-1,1833,449,0,0
616,575,0,0,0,0,0,0,0,0,0,-1,1840,449,0,0
623,575,0,0,0,0,0,0,0,0,0,-1,1847,449,0,0
630,575,0,0,0,0,0,0,0,0,0,-1,1854,449,0,0
637,575,0,0,0,0,0,0,0,0,0,-1,1861,449,0,0
644,575,0,0,0,0,0,0,0,0,0,-1,1868,449,0,0
651,575,0,0,0,0,0,0,0,0,0,-1,1875,449,0,0
658,575,0,0,0,0,0,0,0,0,0,-1,1882,449,0,0
665,575,0,0,0,0,0,0,0,0,0,-1,1889,449,0,0
672,575,0,0,0,0,0,0,0,0,0,-1,1896,449,0,0
679,575,0,0,0,0,0,0,0,0,0,-1,1903,449,0,0
686,575,0,0,0,0,0,0,0,0,0,-1,1910,449,0,0
693,575,0,0,0,0,0,0,0,0,0,-1,1917,449,0,0
700,575,0,0,0,0,0,0,0,0,0,-1,1924,449,0,0
707,575,0,0,0,0,0,0,0,0,0,-1,1931,449,0,0
714,575,0,0,0,0,0,0,0,0,0,-1,1938,449,0,0
721,575,0,0,0,0,0,0,0,0,0,-1,1945,449,0,0
728,575,0,0,0,0,0,0,0,0,0,-1,1952,449,0,0
735,575,0,0,0,0,0,0,0,0,0,-1,1959,449,0,0
742,575,0,0,0,0,0,0,0,0,0,-1,1966,449,0,0
749,575,0,0,0,0,0,0,0,0,0,-1,1973,449,0,0
756,575,0,0,0,0,0,0,0,0,0,-1,1980,449,0,0
763,575,0,0,0,0,0,0,0,0,0,-1,1987,449,0,0
770,575,0,0,0,0,0,0,0,0,0,-1,1994,449,0,0
777,575,0,0,0,0,0,0,0,0,0,-1,2001,449,0,0
784,575,0,0,0,0,0,0,0,0,0,-1,2008,449,0,0
791,575,0,0,0,0,0,0,0,0,0,-1,2015,449,0,0
798,575,0,0,0,0,0,0,0,0,0,-1,2022,449,0,0
805,575,0,0,0,0,0,0,0,0,0,-1,2029,449,0,0
812,575,0,0,0,0,0,0,0,0,0,-1,2036,449,0,0
-700,568,0,0,0,0,0,0,0,0,0,-1,524,456,0,0
-693,568,0,0,0,0,0,0,0,0,0,-1,531,456,0,0
-686,568,0,0,0,0,0,0,0,0,0,-1,538,456,0,0
-679,568,0,0,0,0,0,0,0,0,0,-1,545,456,0,0
-672,568,0,0,0,0,0,0,0,0,0,-1,552,456,0,0
-665,568,0,0,0,0,0,0,0,0,0,-1,559,456,0,0
-658,568,0,0,0,0,0,0,0,0,0,-1,566,456,0,0
-651,568,0,0,0,0,0,0,0,0,0,-1,573,456,0,0
-644,568,0,0,0,0,0,0,0,0,0,-1,580,456,0,0
-637,568,0,0,0,0,0,0,0,0,0,-1,587,456,0,0
-630,568,0,0,0,0,0,0,0,0,0,-1,594,456,0,0
-623,568,0,0,0,0,0,0,0,0,0,-1,601,456,0,0
-616,568,0,0,0,0,0,0,0,0,0,-1,608,456,0,0
-609,568,0,0,0,0,0,0,0,0,0,-1,615,456,0,0
-602,568,0,0,0,0,0,0,0,0,0,-1,622,456,0,0
-595,568,0,0,0,0,0,0,0,0,0,-1,629,456,0,0
-588,568,0,0,0,0,0,0,0,0,0,-1,636,456,0,0
-581,568,0,0,0,0,0,0,0,0,0,-1,643,456,0,0
-574,568,0,0,0,0,0,0,0,0,0,-1,650,456,0,0
-567,568,0,0,0,0,0,0,0,0,0,-1,657,456,0,0
-560,568,0,0,0,0,0,0,0,0,0,-1,664,456,0,0
-553,568,0,0,0,0,0,0,0,0,0,-1,671,456,0,0
-546,568,0,0,0,0,0,0,0,0,0,-1,678,456,0,0
-539,568,0,0,0,0,0,0,0,0,0,-1,685,456,0,0
-532,568,0,0,0,0,0,0,0,0,0,-1,692,456,0,0
-525,568,0,0,0,0,0,0,0,0,0,-1,699,456,0,0
-518,568,0,0,0,0,0,0,0,0,0,-1,706,456,0,0
-511,568,0,0,0,0,0,0,0,0,0,-1,713,456,0,0
-504,568,0,0,0,0,0,0,0,0,0,-1,720,456,0,0
-497,568,0,0,0,0,0,0,0,0,0,-1,727,456,0,0
-490,568,0,0,0,0,0,0,0,0,0,-1,734,456,0,0
-483,568,0,0,0,0,0,0,0,0,0,-1,741,456,0,0
-476,568,0,0,0,0,0,0,0,0,0,-1,748,456,0,0
-469,568,0,0,0,0,0,0,0,0,0,-1,755,456,0,0
-462,568,0,0,0,0,0,0,0,0,0,-1,762,456,0,0
-455,568,0,0,0,0,0,0,0,0,0,-1,769,456,0,0
-448,568,0,0,0,0,0,0,0,0,0,-1,776,456,0,0
-441,568,0,0,0,0,0,0,0,0,0,-1,783,456,0,0
-434,568,0,0,0,0,0,0,0,0,0,-1,790,456,0,0
-427,568,0,0,0,0,0,0,0,0,0,-1,797,456,0,0
-420,568,0,0,0,0,0,0,0,0,0,-1,804,456,0,0
-413,568,0,0,0,0,0,0,0,0,0,-1,811,456,0,0
-406,568,0,0,0,0,0,0,0,0,0,-1,818,456,0,0
-399,568,0,0,0,0,0,0,0,0,0,-1,825,456,0,0
-392,568,0,0,0,0,0,0,0,0,0,-1,832,456,0,0
-385,568,0,0,0,0,0,0,0,0,0,-1,839,456,0,0
-378,568,0.321777,-7.29929,0,0,0,0,0,0,0,-1,846,456,0.321806,7.29927
-371,568,1.09595,-7.46707,0,0,0,0,0,0,0,-1,853,456,1.09597,7.46707
-364,568,1.87787,-7.61115,0,0,0,0,0,0,0,-1,860,456,1.87784,7.61116
-357,568,2.14166,-7.67645,0,0,0,0,0,0,0,-1,867,456,2.14167,7.67646
-350,568,2.7467,-11.2507,0,0,0,0,0,0,0,-1,874,456,2.7467,11.2507
-343,568,2.16516,-11.3762,0,0,0,0,0,0,0,-1,881,456,2.16514,11.3762
-336,568,2.58014,-25.1628,0,0,0,0,0,0,0,-1,888,456,2.58016,25.1627
-329,568,2.39313,-25.7238,0.00448954,0.0191076,-0.00314791,0.0197567,0.00384048,-1.36746,0.0120959,0.0492475,895,456,2.39313,25.7238
-322,568,2.16217,-25.7943,0.00362073,0.0161777,-0.00312592,0.0169128,0.00288561,-1.33982,0.010447,0.044736,902,456,2.16217,25.7943
-315,568,2.30664,-26.3647,0,0,0,0,0,0,0,-1,909,456,2.30666,26.3647
-308,568,2.27283,-27.3781,0.00231737,0.0134621,-0.00363506,0.0145429,0.00123655,-1.28179,0.00931049,0.0368861,916,456,2.27281,27.3781
-301,568,2.22919,-28.1196,0.00189279,0.0120129,-0.00387292,0.0133249,0.000580748,-1.24416,0.00869618,0.0215304,923,456,2.22921,28.1196
-294,568,2.16449,-28.732,0.00155496,0.0108599,-0.0039761,0.0123274,8.73869e-05,-1.21721,0.00818931,0.0139978,930,456,2.16449,28.732
-287,568,2.12329,-29.389,0.00118799,0.0099587,-0.00387557,0.0114258,-0.000279122,-1.20891,0.00771194,0.0114679,937,456,2.12326,29.389
-280,568,2.10919,-30.0199,0.00097013,0.00930555,-0.00380574,0.0107817,-0.000506045,-1.20078,0.0073623,0.0118598,944,456,2.10918,30.0199
-273,568,2.08429,-30.6227,0.000992925,0.00865562,-0.00378257,0.0102082,-0.00055969,-1.1813,0.00699952,0.0136121,951,456,2.08431,30.6227
-266,568,2.02362,-31.228,0.000866264,0.00743815,-0.00347485,0.00893468,-0.000630262,-1.16413,0.00617727,0.0122349,958,456,2.02364,31.228
-259,568,1.99054,-31.8201,0.000655319,0.00615887,-0.00291314,0.00741442,-0.000600228,-1.16386,0.00515468,0.0124736,965,456,1.99054,31.8201
-252,568,1.94977,-32.3803,0.000350583,0.00495619,-0.00214599,0.00580111,-0.000494338,-1.19571,0.00404228,0.0128276,972,456,1.94977,32.3803
-245,568,1.93158,-32.9203,0.000370451,0.0035536,-0.00152628,0.00416716,-0.000243117,-1.18857,0.00286259,0.015223,979,456,1.9316,32.9204
-238,568,1.92261,-33.4909,0.000626802,0.00203085,-0.000910747,0.00247873,0.000178914,-1.11374,0.0015962,0.0139963,986,456,1.9226,33.4909
-231,568,1.88873,-34.0489,0.000850315,0.000287649,-0.000234529,0.00093525,0.000202714,-0.347457,0.000568115,0.0121479,993,456,1.88874,34.0489
-224,568,1.85931,-34.601,0.000962672,-0.00147928,0.000468771,0.00104957,-0.00156618,0.183289,0.00151999,0.0133471,1000,456,1.8593,34.601
-217,568,1.88116,-35.1422,0.00110413,-0.00335961,0.00119129,0.00140217,-0.00365764,0.245146,0.00301648,0.0108963,1007,456,1.88117,35.1422
-210,568,1.90002,-35.6737,0.00127055,-0.00534644,0.00191141,0.001783,-0.00585889,0.261941,0.00461649,0.0111689,1014,456,1.90004,35.6737
-203,568,1.89142,-36.2054,0.00150406,-0.00705883,0.00257185,0.00221713,-0.0077719,0.270466,0.00605711,0.0106649,1021,456,1.89143,36.2054
-196,568,1.90881,-36.7022,0.0017587,-0.00870737,0.0032494,0.00268547,-0.00963415,0.277837,0.00748037,0.0147468,1028,456,1.90877,36.7022
-189,568,1.88367,-37.1999,0.00203097,-0.0107172,0.00418711,0.00328321,-0.0119694,0.290604,0.00926991,0.0150453,1035,456,1.88361,37.1999
-182,568,1.89087,-37.7309,0.00245744,-0.0136432,0.00540753,0.00410501,-0.0152908,0.295745,0.0118026,0.0172092,1042,456,1.8909,37.7309
-175,568,1.91333,-38.2059,0.00290265,-0.01759,0.00677837,0.00494182,-0.0196292,0.292223,0.0150071,0.0168126,1049,456,1.91337,38.2059
-168,568,1.90784,-38.5543,0.00308987,-0.0219794,0.00812621,0.00549352,-0.024383,0.28759,0.0183625,0.0223315,1056,456,1.90786,38.5542
-161,568,1.87488,-38.9744,0.00333883,-0.0265562,0.00988957,0.00631425,-0.0295316,0.29225,0.0220953,0.0325613,1063,456,1.87492,38.9744
-154,568,1.98499,-39.5825,0.0036558,-0.0323989,0.0117757,0.00716105,-0.0359042,0.289315,0.0266458,0.0357802,1070,456,1.985,39.5825
-147,568,2.02625,-39.9118,0.00375154,-0.0389719,0.0135567,0.00769017,-0.0429106,0.282746,0.0314851,0.0378407,1077,456,2.02629,39.9118
-140,568,1.96277,-40.0418,0.00346877,-0.0456154,0.0155954,0.00800468,-0.0501513,0.283041,0.036397,0.0393226,1084,456,1.96278,40.0418
-133,568,2.01477,-39.8042,0.00287088,-0.0523833,0.0176424,0.00802353,-0.0575359,0.284157,0.0412925,0.0418032,1091,456,2.01475,39.8042
-126,568,2.09583,-39.7627,0.00226,-0.0592074,0.0195683,0.00796086,-0.0649082,0.283486,0.0461552,0.0445023,1098,456,2.09587,39.7627
-119,568,1.98047,-40.2259,0,0,0,0,0,0,0,-1,1105,456,1.98048,40.2259
-112,568,1.98242,-35.0942,0,0,0,0,0,0,0,-1,1112,456,1.98247,35.0942
-105,568,2.02454,-25.038,0,0,0,0,0,0,0,-1,1119,456,2.02459,25.038
-98,568,1.58618,-14.7874,0,0,0,0,0,0,0,-1,1126,456,1.58617,14.7874
-91,568,1.11621,-11.1853,0,0,0,0,0,0,0,-1,1133,456,1.11626,11.1853
-84,568,0.461792,-9.7959,0,0,0,0,0,0,0,-1,1140,456,0.461793,9.7959
-77,568,-1.13806,-8.57822,0,0,0,0,0,0,0,-1,1147,456,-1.13807,8.57821
-70,568,-4.09766,-1.42911,0,0,0,0,0,0,0,-1,1154,456,-4.09767,1.4291
-63,568,-5.92273,-3.70752,0,0,0,0,0,0,0,-1,1161,456,-5.92272,3.70751
-56,568,-5.24158,-6.01385,0,0,0,0,0,0,0,-1,1168,456,-5.24161,6.01386
-49,568,-5.24365,-8.33557,0,0,0,0,0,0,0,-1,1175,456,-5.24371,8.33557
-42,568,-0.664795,0.521973,0,0,0,0,0,0,0,-1,1182,456,-0.664829,-0.521984
-35,568,-0.153076,-1.67731,0,0,0,0,0,0,0,-1,1189,456,-0.153068,1.67731
-28,568,1.25439,-4.48798,0,0,0,0,0,0,0,-1,1196,456,1.2544,4.48797
-21,568,7.22571,-46.055,0,0,0,0,0,0,0,-1,1203,456,7.22565,46.055
-14,568,6.69934,-45.9485,0,0,0,0,0,0,0,-1,1210,456,6.69939,45.9485
-7,568,6.11206,-46.1844,0,0,0,0,0,0,0,-1,1217,456,6.11205,46.1844
0,568,5.44604,-46.218,0,0,0,0,0,0,0,-1,1224,456,5.4461,46.218
7,568,5.06067,-45.8443,0,0,0,0,0,0,0,-1,1231,456,5.06067,45.8443
14,568,4.47803,-44.8122,0,0,0,0,0,0,0,-1,1238,456,4.47808,44.8122
21,568,4.94336,-45.5265,0,0,0,0,0,0,0,-1,1245,456,4.94334,45.5265
28,568,5.34473,-46.0677,0,0,0,0,0,0,0,-1,1252,456,5.34471,46.0677
35,568,5.56091,-46.4847,0,0,0,0,0,0,0,-1,1259,456,5.56086,46.4847
42,568,6.3291,-47.4297,0,0,0,0,0,0,0,-1,1266,456,6.32911,47.4296
49,568,7.14734,-49.0031,0,0,0,0,0,0,0,-1,1273,456,7.14739,49.0031
56,568,7.70593,-50.7417,0,0,0,0,0,0,0,-1,1280,456,7.70587,50.7417
63,568,6.80273,-48.0555,0,0,0,0,0,0,0,-1,1287,456,6.80279,48.0555
70,568,6.77429,-48.1091,0,0,0,0,0,0,0,-1,1294,456,6.77427,48.1091
77,568,6.12671,-47.9605,0,0,0,0,0,0,0,-1,1301,456,6.1267,47.9605
84,568,6.22009,-48.4071,0,0,0,0,0,0,0,-1,1308,456,6.22013,48.4071
91,568,6.26697,-48.6859,0,0,0,0,0,0,0,-1,1315,456,6.26697,48.6858
98,568,6.22827,-48.9003,0,0,0,0,0,0,0,-1,1322,456,6.22823,48.9003
105,568,6.07373,-48.883,0,0,0,0,0,0,0,-1,1329,456,6.07372,48.883
112,568,7.8335,-50.3987,0,0,0,0,0,0,0,-1,1336,456,7.83351,50.3987
119,568,7.66138,-50.7263,0,0,0,0,0,0,0,-1,1343,456,7.66142,50.7263
126,568,7.20142,-50.597,0,0,0,0,0,0,0,-1,1350,456,7.20143,50.5971
133,568,6.94385,-50.6172,0,0,0,0,0,0,0,-1,1357,456,6.94388,50.6171
140,568,6.84888,-50.8145,0,0,0,0,0,0,0,-1,1364,456,6.84884,50.8145
147,568,6.026,-50.493,0,0,0,0,0,0,0,-1,1371,456,6.02598,50.493
154,568,5.70117,-50.6464,0,0,0,0,0,0,0,-1,1378,456,5.70118,50.6464
161,568,5.32166,-50.6509,0,0,0,0,0,0,0,-1,1385,456,5.32161,50.6509
168,568,-1.74231,-39.2641,0,0,0,0,0,0,0,-1,1392,456,-1.74226,39.2641
175,568,10.5151,0.747498,0,0,0,0,0,0,0,-1,1399,456,10.5152,-0.747501
182,568,6.35095,-3.63361,0,0,0,0,0,0,0,-1,1406,456,6.35093,3.63359
189,568,6.17493,-1.70911,0,0,0,0,0,0,0,-1,1413,456,6.17497,1.70911
196,568,6.04724,0.200836,0,0,0,0,0,0,0,-1,1420,456,6.04724,-0.200835
203,568,5.9281,2.08649,0,0,0,0,0,0,0,-1,1427,456,5.92812,-2.08648
210,568,1.46216,-2.50446,0,0,0,0,0,0,0,-1,1434,456,1.46219,2.50446
217,568,2.62366,-7.86703,0,0,0,0,0,0,0,-1,1441,456,2.62365,7.86704
224,568,3.43494,-12.1555,0,0,0,0,0,0,0,-1,1448,456,3.43492,12.1555
231,568,4.38245,-9.3205,0,0,0,0,0,0,0,-1,1455,456,4.38244,9.32048
238,568,5.88879,-20.7448,0,0,0,0,0,0,0,-1,1462,456,5.88876,20.7449
245,568,3.34387,-10.6774,0,0,0,0,0,0,0,-1,1469,456,3.34389,10.6774
252,568,3.56946,-9.28928,0,0,0,0,0,0,0,-1,1476,456,3.56948,9.28928
259,568,3.38843,-8.73068,0,0,0,0,0,0,0,-1,1483,456,3.38842,8.73068
266,568,9.79736,-40.1186,0,0,0,0,0,0,0,-1,1490,456,9.79734,40.1186
273,568,9.58533,-39.9412,0,0,0,0,0,0,0,-1,1497,456,9.58537,39.9412
280,568,9.74719,-39.3666,0,0,0,0,0,0,0,-1,1504,456,9.74725,39.3666
287,568,9.79211,-38.9474,0,0,0,0,0,0,0,-1,1511,456,9.79208,38.9474
294,568,9.85864,-38.2033,0.0052565,-0.00482498,-0.00264983,0.00591056,-0.00547903,-0.241991,0.00657735,0.0395114,1518,456,9.8586,38.2033
301,568,9.86304,-37.7105,0.00502369,-0.00470199,-0.0023496,0.00556157,-0.00523988,-0.225048,0.00623714,0.021932,1525,456,9.863,37.7105
308,568,9.90588,-37.2167,0.00463209,-0.00484369,-0.00224464,0.00513691,-0.00534851,-0.221219,0.00605417,0.0139895,1532,456,9.90584,37.2167
315,568,9.91809,-36.724,0.00419361,-0.00441659,-0.00207632,0.00466815,-0.00489114,-0.224691,0.00551956,0.00867724,1539,456,9.9181,36.724
322,568,9.92175,-36.1891,0.00373915,-0.00374744,-0.00172709,0.00411837,-0.00412665,-0.216139,0.00476026,0.00988765,1546,456,9.92181,36.189
329,568,9.94299,-35.6275,0.00324477,-0.00306631,-0.00138152,0.00353394,-0.00335548,-0.206335,0.00397805,0.00966868,1553,456,9.94295,35.6275
336,568,9.93787,-35.0578,0.00270226,-0.0022401,-0.00106395,0.00292157,-0.0024594,-0.203278,0.00311052,0.0112622,1560,456,9.93792,35.0578
343,568,9.94434,-34.5056,0.00210967,-0.00138078,-0.000735498,0.00225832,-0.00152943,-0.199424,0.00220031,0.012632,1567,456,9.94435,34.5056
350,568,9.93176,-33.9577,0.00159563,-0.000436323,-0.000333062,0.00164883,-0.000489523,-0.158393,0.00129364,0.0114274,1574,456,9.93178,33.9577
357,568,9.89307,-33.3681,0.00118703,0.000541854,0.000151685,0.00122092,0.000507972,0.219767,0.0007082,0.0105546,1581,456,9.89311,33.3681
364,568,9.90369,-32.7976,0.000831652,0.00156977,0.000680258,0.00197463,0.000426789,1.03394,0.00119973,0.012224,1588,456,9.90375,32.7976
371,568,9.91821,-32.1908,0.000553138,0.0025491,0.00123712,0.00314059,-3.8353e-05,1.1248,0.00210663,0.0216203,1595,456,9.9182,32.1908
378,568,9.87512,-31.6071,0.000297128,0.00360026,0.00178172,0.00437814,-0.000480749,1.15915,0.00309149,0.0203571,1602,456,9.87516,31.6072
385,568,9.79456,-31.0188,0.000466974,0.00479289,0.00225393,0.0057538,-0.000493943,1.1678,0.00401067,0.00977,1609,456,9.79454,31.0188
392,568,9.74512,-30.4393,0.00112969,0.00603652,0.00284883,0.00734277,-0.00017656,1.14088,0.00495508,0.0107473,1616,456,9.74515,30.4393
399,568,9.672,-29.8637,0.00192537,0.0072857,0.00357882,0.00907669,0.000134376,1.10679,0.00600684,0.017901,1623,456,9.67197,29.8638
406,568,9.70801,-29.217,0.00270399,0.00862405,0.00422659,0.010824,0.000504001,1.09087,0.00705403,0.0165933,1630,456,9.70803,29.217
413,568,9.69519,-28.5482,0.00352865,0.0099405,0.00465236,0.0123846,0.00108458,1.08708,0.00791964,0.0126927,1637,456,9.69525,28.5482
420,568,9.64099,-27.8963,0.0044884,0.0109659,0.00511923,0.0137849,0.00166943,1.06744,0.00868708,0.0111375,1644,456,9.64095,27.8963
427,568,9.58826,-27.2227,0.00549631,0.0110619,0.00580827,0.0147196,0.00183862,1.0088,0.00926124,0.0140379,1651,456,9.58824,27.2227
434,568,9.56885,-26.5631,0.00652753,0.0115636,0.00637453,0.0158994,0.00219173,0.973499,0.00994982,0.0197441,1658,456,9.56889,26.5631
441,568,9.57129,-25.9654,0.00723747,0.0114538,0.00684072,0.0165038,0.00218743,0.934869,0.0103507,0.027281,1665,456,9.57124,25.9654
448,568,9.7959,-25.1389,0.00746338,0.0105831,0.0072823,0.0164707,0.00157573,0.890902,0.0104947,0.0437067,1672,456,9.79585,25.1389
455,568,9.92615,-24.2442,0,0,0,0,0,0,0,-1,1679,456,9.92613,24.2442
462,568,8.35291,-24.1036,0,0,0,0,0,0,0,-1,1686,456,8.35295,24.1036
469,568,8.66833,-23.2621,0,0,0,0,0,0,0,-1,1693,456,8.66832,23.2621
476,568,9.07361,-22.9592,0,0,0,0,0,0,0,-1,1700,456,9.07355,22.9592
483,568,8.92432,-21.3455,0,0,0,0,0,0,0,-1,1707,456,8.92431,21.3455
490,568,6.35107,-19.7683,0,0,0,0,0,0,0,-1,1714,456,6.35106,19.7683
497,568,5.18823,-19.5599,0,0,0,0,0,0,0,-1,1721,456,5.18818,19.5599
504,568,0,0,0,0,0,0,0,0,0,-1,1728,456,0,0
511,568,0,0,0,0,0,0,0,0,0,-1,1735,456,0,0
518,568,0,0,0,0,0,0,0,0,0,-1,1742,456,0,0
525,568,0,0,0,0,0,0,0,0,0,-1,1749,456,0,0
532,568,0,0,0,0,0,0,0,0,0,-1,1756,456,0,0
539,568,0,0,0,0,0,0,0,0,0,-1,1763,456,0,0
546,568,0,0,0,0,0,0,0,0,0,-1,1770,456,0,0
553,568,0,0,0,0,0,0,0,0,0,-1,1777,456,0,0
560,568,0,0,0,0,0,0,0,0,0,-1,1784,456,0,0
567,568,0,0,0,0,0,0,0,0,0,-1,1791,456,0,0
574,568,0,0,0,0,0,0,0,0,0,-1,1798,456,0,0
581,568,0,0,0,0,0,0,0,0,0,-1,1805,456,0,0
588,568,0,0,0,0,0,0,0,0,0,-1,1812,456,0,0
595,568,0,0,0,0,0,0,0,0,0,-1,1819,456,0,0
602,568,0,0,0,0,0,0,0,0,0,-1,1826,456,0,0
609,568,0,0,0,0,0,0,0,0,0,-1,1833,456,0,0
616,568,0,0,0,0,0,0,0,0,0,-1,1840,456,0,0
623,568,0,0,0,0,0,0,0,0,0,-1,1847,456,0,0
630,568,0,0,0,0,0,0,0,0,0,-1,1854,456,0,0
637,568,0,0,0,0,0,0,0,0,0,-1,1861,456,0,0
644,568,0,0,0,0,0,0,0,0,0,-1,1868,456,0,0
651,568,0,0,0,0,0,0,0,0,0,-1,1875,456,0,0
658,568,0,0,0,0,0,0,0,0,0,-1,1882,456,0,0
665,568,0,0,0,0,0,0,0,0,0,-1,1889,456,0,0
672,568,0,0,0,0,0,0,0,0,0,-1,1896,456,0,0
679,568,0,0,0,0,0,0,0,0,0,-1,1903,456,0,0
686,568,0,0,0,0,0,0,0,0,0,-1,1910,456,0,0
693,568,0,0,0,0,0,0,0,0,0,-1,1917,456,0,0
700,568,0,0,0,0,0,0,0,0,0,-1,1924,456,0,0
707,568,0,0,0,0,0,0,0,0,0,-1,1931,456,0,0
714,568,0,0,0,0,0,0,0,0,0,-1,1938,456,0,0
721,568,0,0,0,0,0,0,0,0,0,-1,1945,456,0,0
728,568,0,0,0,0,0,0,0,0,0,-1,1952,456,0,0
735,568,0,0,0,0,0,0,0,0,0,-1,1959,456,0,0
742,568,0,0,0,0,0,0,0,0,0,-1,1966,456,0,0
749,568,0,0,0,0,0,0,0,0,0,-1,1973,456,0,0
756,568,0,0,0,0,0,0,0,0,0,-1,1980,456,0,0
763,568,0,0,0,0,0,0,0,0,0,-1,1987,456,0,0
770,568,0,0,0,0,0,0,0,0,0,-1,1994,456,0,0
777,568,0,0,0,0,0,0,0,0,0,-1,2001,456,0,0
784,568,0,0,0,0,0,0,0,0,0,-1,2008,456,0,0
791,568,0,0,0,0,0,0,0,0,0,-1,2015,456,0,0
798,568,0,0,0,0,0,0,0,0,0,-1,2022,456,0,0
805,568,0,0,0,0,0,0,0,0,0,-1,2029,456,0,0
812,568,0,0,0,0,0,0,0,0,0,-1,2036,456,0,0
-700,561,0,0,0,0,0,0,0,0,0,-1,524,463,0,0
-693,561,0,0,0,0,0,0,0,0,0,-1,531,463,0,0
-686,561,0,0,0,0,0,0,0,0,0,-1,538,463,0,0
-679,561,0,0,0,0,0,0,0,0,0,-1,545,463,0,0
-672,561,0,0,0,0,0,0,0,0,0,-1,552,463,0,0
-665,561,0,0,0,0,0,0,0,0,0,-1,559,463,0,0
-658,561,0,0,0,0,0,0,0,0,0,-1,566,463,0,0
-651,561,0,0,0,0,0,0,0,0,0,-1,573,463,0,0
-644,561,0,0,0,0,0,0,0,0,0,-1,580,463,0,0
-637,561,0,0,0,0,0,0,0,0,0,-1,587,463,0,0
-630,561,0,0,0,0,0,0,0,0,0,-1,594,463,0,0
-623,561,0,0,0,0,0,0,0,0,0,-1,601,463,0,0
-616,561,0,0,0,0,0,0,0,0,0,-1,608,463,0,0
-609,561,0,0,0,0,0,0,0,0,0,-1,615,463,0,0
-602,561,0,0,0,0,0,0,0,0,0,-1,622,463,0,0
-595,561,0,0,0,0,0,0,0,0,0,-1,629,463,0,0
-588,561,0,0,0,0,0,0,0,0,0,-1,636,463,0,0
-581,561,0,0,0,0,0,0,0,0,0,-1,643,463,0,0
-574,561,0,0,0,0,0,0,0,0,0,-1,650,463,0,0
-567,561,0,0,0,0,0,0,0,0,0,-1,657,463,0,0
-560,561,0,0,0,0,0,0,0,0,0,-1,664,463,0,0
-553,561,0,0,0,0,0,0,0,0,0,-1,671,463,0,0
-546,561,0,0,0,0,0,0,0,0,0,-1,678,463,0,0
-539,561,0,0,0,0,0,0,0,0,0,-1,685,463,0,0
-532,561,0,0,0,0,0,0,0,0,0,-1,692,463,0,0
-525,561,0,0,0,0,0,0,0,0,0,-1,699,463,0,0
-518,561,0,0,0,0,0,0,0,0,0,-1,706,463,0,0
-511,561,0,0,0,0,0,0,0,0,0,-1,713,463,0,0
-504,561,0,0,0,0,0,0,0,0,0,-1,720,463,0,0
-497,561,0,0,0,0,0,0,0,0,0,-1,727,463,0,0
-490,561,0,0,0,0,0,0,0,0,0,-1,734,463,0,0
-483,561,0,0,0,0,0,0,0,0,0,-1,741,463,0,0
-476,561,0,0,0,0,0,0,0,0,0,-1,748,463,0,0
-469,561,0,0,0,0,0,0,0,0,0,-1,755,463,0,0
-462,561,0,0,0,0,0,0,0,0,0,-1,762,463,0,0
-455,561,0,0,0,0,0,0,0,0,0,-1,769,463,0,0
-448,561,0,0,0,0,0,0,0,0,0,-1,776,463,0,0
-441,561,0,0,0,0,0,0,0,0,0,-1,783,463,0,0
-434,561,0,0,0,0,0,0,0,0,0,-1,790,463,0,0
-427,561,0,0,0,0,0,0,0,0,0,-1,797,463,0,0
-420,561,0,0,0,0,0,0,0,0,0,-1,804,463,0,0
-413,561,0,0,0,0,0,0,0,0,0,-1,811,463,0,0
-406,561,0,0,0,0,0,0,0,0,0,-1,818,463,0,0
-399,561,0,0,0,0,0,0,0,0,0,-1,825,463,0,0
-392,561,4.92407,-2.54578,0,0,0,0,0,0,0,-1,832,463,4.92408,2.54576
-385,561,5.55634,-1.02338,0,0,0,0,0,0,0,-1,839,463,5.55634,1.02338
-378,561,0.160522,-4.51785,0,0,0,0,0,0,0,-1,846,463,0.160542,4.51785
-371,561,1.06299,-7.56818,0,0,0,0,0,0,0,-1,853,463,1.06297,7.56817
-364,561,1.45264,-7.57684,0,0,0,0,0,0,0,-1,860,463,1.45264,7.57684
-357,561,0.948242,-12.2803,0,0,0,0,0,0,0,-1,867,463,0.948262,12.2803
-350,561,1.33124,-11.9406,0,0,0,0,0,0,0,-1,874,463,1.33127,11.9406
-343,561,1.13214,-14.1837,0,0,0,0,0,0,0,-1,881,463,1.13217,14.1837
-336,561,1.94861,-25.0383,0,0,0,0,0,0,0,-1,888,463,1.94861,25.0383
-329,561,1.76544,-25.6887,0.00373522,0.0166096,-0.00398357,0.0177425,0.00260232,-1.29372,0.0110634,0.0463095,895,463,1.76542,25.6887
-322,561,1.58911,-26.0822,0.00275249,0.0139123,-0.00342046,0.0148772,0.00178755,-1.29584,0.00937924,0.0394166,902,463,1.58909,26.0822
-315,561,1.76947,-26.5313,0.00215871,0.0122285,-0.00318886,0.0131534,0.00123383,-1.28851,0.00838797,0.0264331,909,463,1.76949,26.5313
-308,561,1.70947,-27.3335,0.00146043,0.0109067,-0.00304837,0.011805,0.000562125,-1.28422,0.00768946,0.0233752,916,463,1.70946,27.3335
-301,561,1.63092,-28.148,0.00111565,0.00940391,-0.002997,0.0103741,0.000145503,-1.25774,0.00686805,0.0154892,923,463,1.63094,28.148
-294,561,1.57202,-28.782,0.000967709,0.00817583,-0.00293039,0.00921682,-7.32741e-05,-1.22946,0.00616911,0.0114824,930,463,1.572,28.782
-287,561,1.53564,-29.3839,0.000834544,0.00719918,-0.00272228,0.00820469,-0.000170971,-1.21697,0.00552767,0.00976191,937,463,1.53563,29.384
-280,561,1.50562,-29.9834,0.000810657,0.00637509,-0.00257032,0.00738066,-0.000194904,-1.19788,0.00498667,0.0121506,944,463,1.50564,29.9834
-273,561,1.4494,-30.5702,0.000956361,0.00558391,-0.00245246,0.00664179,-0.000101525,-1.16355,0.00446209,0.0162379,951,463,1.4494,30.5702
-266,561,1.42126,-31.1535,0.000951145,0.00431042,-0.0021476,0.0053572,-9.56401e-05,-1.11726,0.00360377,0.0103862,958,463,1.42124,31.1535
-259,561,1.41479,-31.7691,0.000853081,0.00300718,-0.00163098,0.00388465,-2.43861e-05,-1.07721,0.00259793,0.0105719,965,463,1.4148,31.7691
-252,561,1.40973,-32.3457,0.000701642,0.00178742,-0.000903288,0.00229841,0.000190653,-1.05598,0.00147284,0.0149191,972,463,1.40975,32.3457
-245,561,1.39178,-32.9018,0.000769657,0.000383534,-0.000304512,0.000937151,0.00021604,-0.502874,0.000566652,0.0171506,979,463,1.39178,32.9018
-238,561,1.37201,-33.4705,0.000999275,-0.00117608,0.000309432,0.00104243,-0.00121924,0.138583,0.00130711,0.01364,986,463,1.37201,33.4705
-231,561,1.33191,-34.0479,0.00119633,-0.00290991,0.00097238,0.00141496,-0.00312854,0.221157,0.00268466,0.0113562,993,463,1.3319,34.048
-224,561,1.30841,-34.5983,0.0012611,-0.00468196,0.0016853,0.00170574,-0.0051266,0.257958,0.00410616,0.0115777,1000,463,1.30844,34.5983
-217,561,1.34656,-35.113,0.00134226,-0.00656153,0.00243584,0.00203265,-0.00725191,0.276185,0.0056357,0.0118042,1007,463,1.34654,35.113
-210,561,1.36401,-35.6476,0.00145236,-0.00846894,0.00317948,0.00238383,-0.00940042,0.28499,0.00719443,0.0130672,1014,463,1.36403,35.6476
-203,561,1.3642,-36.1641,0.00164922,-0.0101486,0.00386109,0.0028005,-0.0112999,0.289781,0.00861975,0.0147347,1021,463,1.3642,36.1641
-196,561,1.29236,-36.6183,0.00188618,-0.0118658,0.00458569,0.00327504,-0.0132547,0.294087,0.0101066,0.0167861,1028,463,1.29236,36.6183
-189,561,1.36633,-37.0907,0.00213552,-0.0140524,0.00567008,0.00392397,-0.0158409,0.305542,0.0120828,0.0220023,1035,463,1.36633,37.0907
-182,561,1.46948,-37.5435,0.00255829,-0.0174212,0.00712412,0.00483834,-0.0197013,0.309746,0.0150092,0.0265384,1042,463,1.4695,37.5435
-175,561,1.36426,-37.9874,0.00302903,-0.0220991,0.00880199,0.00580546,-0.0248755,0.305554,0.0188197,0.0406711,1049,463,1.36424,37.9874
-168,561,1.24487,-38.4335,0,0,0,0,0,0,0,-1,1056,463,1.24486,38.4335
-161,561,1.34399,-38.7539,0,0,0,0,0,0,0,-1,1063,463,1.34394,38.7539
-154,561,1.57568,-39.5796,0,0,0,0,0,0,0,-1,1070,463,1.57563,39.5796
-147,561,1.547,-39.7795,0,0,0,0,0,0,0,-1,1077,463,1.54699,39.7795
-140,561,1.31055,-39.4908,0,0,0,0,0,0,0,-1,1084,463,1.31049,39.4908
-133,561,1.57727,-39.066,0,0,0,0,0,0,0,-1,1091,463,1.57723,39.066
-126,561,1.46387,-38.8408,0,0,0,0,0,0,0,-1,1098,463,1.46384,38.8408
-119,561,-0.336304,-35.422,0,0,0,0,0,0,0,-1,1105,463,-0.336245,35.422
-112,561,1.24365,-29.1982,0,0,0,0,0,0,0,-1,1112,463,1.2437,29.1981
-105,561,0.530518,-13.5379,0,0,0,0,0,0,0,-1,1119,463,0.530477,13.5379
-98,561,1.5387,-7.54352,0,0,0,0,0,0,0,-1,1126,463,1.53871,7.54351
-91,561,1.29553,-6.57968,0,0,0,0,0,0,0,-1,1133,463,1.29549,6.5797
-84,561,1.23364,-5.84555,0,0,0,0,0,0,0,-1,1140,463,1.23363,5.84556
-77,561,-2.36023,1.00204,0,0,0,0,0,0,0,-1,1147,463,-2.3602,-1.00205
-70,561,-3.90015,-1.41541,0,0,0,0,0,0,0,-1,1154,463,-3.90009,1.4154
-63,561,-6.95691,-4.02756,0,0,0,0,0,0,0,-1,1161,463,-6.95696,4.02756
-56,561,-5.37988,-6.66855,0,0,0,0,0,0,0,-1,1168,463,-5.37988,6.66854
-49,561,-5.7439,-9.11029,0,0,0,0,0,0,0,-1,1175,463,-5.74387,9.1103
-42,561,-1.72644,-5.63065,0,0,0,0,0,0,0,-1,1182,463,-1.72648,5.63064
-35,561,-1.65674,-4.87994,0,0,0,0,0,0,0,-1,1189,463,-1.6567,4.87993
-28,561,-1.91418,-3.86896,0,0,0,0,0,0,0,-1,1196,463,-1.91414,3.86895
-21,561,6.34827,-47.7477,0,0,0,0,0,0,0,-1,1203,463,6.34832,47.7477
-14,561,5.93347,-47.5749,0,0,0,0,0,0,0,-1,1210,463,5.93341,47.5749
-7,561,5.86414,-47.8115,0,0,0,0,0,0,0,-1,1217,463,5.86412,47.8115
0,561,4.90491,-47.5551,0,0,0,0,0,0,0,-1,1224,463,4.90493,47.5551
7,561,4.93835,-46.6908,0,0,0,0,0,0,0,-1,1231,463,4.93834,46.6908
14,561,4.20667,-44.4239,0,0,0,0,0,0,0,-1,1238,463,4.20671,44.4239
21,561,4.93518,-45.0746,0,0,0,0,0,0,0,-1,1245,463,4.93516,45.0746
28,561,5.16602,-45.6324,0,0,0,0,0,0,0,-1,1252,463,5.16603,45.6323
35,561,5.29944,-46.4765,0,0,0,0,0,0,0,-1,1259,463,5.29947,46.4765
42,561,6.3468,-47.8603,0,0,0,0,0,0,0,-1,1266,463,6.34684,47.8603
49,561,6.81238,-48.8193,0,0,0,0,0,0,0,-1,1273,463,6.81232,48.8193
56,561,6.99866,-48.0629,0,0,0,0,0,0,0,-1,1280,463,6.99862,48.0629
63,561,7.05151,-48.2245,0,0,0,0,0,0,0,-1,1287,463,7.05155,48.2245
70,561,7.02637,-48.2874,0,0,0,0,0,0,0,-1,1294,463,7.0264,48.2874
77,561,6.2301,-47.8947,0,0,0,0,0,0,0,-1,1301,463,6.23012,47.8947
84,561,6.38306,-48.8667,0,0,0,0,0,0,0,-1,1308,463,6.3831,48.8667
91,561,6.57666,-49.2046,0,0,0,0,0,0,0,-1,1315,463,6.5767,49.2046
98,561,6.59277,-49.3947,0,0,0,0,0,0,0,-1,1322,463,6.59283,49.3947
105,561,7.10315,-49.4702,0,0,0,0,0,0,0,-1,1329,463,7.10314,49.4702
112,561,7.65417,-49.1729,0,0,0,0,0,0,0,-1,1336,463,7.65421,49.1729
119,561,8.16699,-52.0677,0,0,0,0,0,0,0,-1,1343,463,8.16703,52.0677
126,561,7.80115,-51.7599,0,0,0,0,0,0,0,-1,1350,463,7.80114,51.76
133,561,7.10889,-51.5467,0,0,0,0,0,0,0,-1,1357,463,7.10884,51.5467
140,561,6.84985,-51.576,0,0,0,0,0,0,0,-1,1364,463,6.84988,51.576
147,561,6.07104,-52.0007,0,0,0,0,0,0,0,-1,1371,463,6.07103,52.0007
154,561,5.50378,-51.6412,0,0,0,0,0,0,0,-1,1378,463,5.5038,51.6412
161,561,6.25586,-52.2851,0,0,0,0,0,0,0,-1,1385,463,6.25589,52.2851
168,561,-1.06763,-38.7777,0,0,0,0,0,0,0,-1,1392,463,-1.06757,38.7777
175,561,10.4185,0.276398,0,0,0,0,0,0,0,-1,1399,463,10.4185,-0.276394
182,561,6.45703,-4.02127,0,0,0,0,0,0,0,-1,1406,463,6.45704,4.02127
189,561,6.50854,-2.08685,0,0,0,0,0,0,0,-1,1413,463,6.50851,2.08686
196,561,6.44775,-0.27182,0,0,0,0,0,0,0,-1,1420,463,6.44773,0.271814
203,561,6.18591,1.1301,0,0,0,0,0,0,0,-1,1427,463,6.18592,-1.13009
210,561,5.68713,2.68427,0,0,0,0,0,0,0,-1,1434,463,5.6871,-2.68425
217,561,3.61743,-7.33582,0,0,0,0,0,0,0,-1,1441,463,3.61738,7.33581
224,561,4.27466,-8.59171,0,0,0,0,0,0,0,-1,1448,463,4.27466,8.59171
231,561,4.93188,-9.8476,0,0,0,0,0,0,0,-1,1455,463,4.93193,9.84761
238,561,2.18018,-5.18359,0,0,0,0,0,0,0,-1,1462,463,2.18023,5.18359
245,561,3.07568,-3.50238,0,0,0,0,0,0,0,-1,1469,463,3.0757,3.50238
252,561,3.47412,-3.71109,0,0,0,0,0,0,0,-1,1476,463,3.47413,3.71109
259,561,3.42212,-3.2334,0,0,0,0,0,0,0,-1,1483,463,3.42214,3.2334
266,561,4.44373,-5.90027,0,0,0,0,0,0,0,-1,1490,463,4.44372,5.90026
273,561,2.59485,-3.65268,0,0,0,0,0,0,0,-1,1497,463,2.5948,3.65268
280,561,3.10767,-6.38235,0,0,0,0,0,0,0,-1,1504,463,3.10766,6.38235
287,561,4.91809,-14.429,0,0,0,0,0,0,0,-1,1511,463,4.9181,14.429
294,561,10.2913,-38.0008,0,0,0,0,0,0,0,-1,1518,463,10.2912,38.0008
301,561,10.3375,-37.457,0,0,0,0,0,0,0,-1,1525,463,10.3376,37.457
308,561,10.4019,-37.04,0.00580156,-0.00678033,-0.0031628,0.00655187,-0.00753064,-0.232924,0.00813709,0.0319241,1532,463,10.4018,37.04
315,561,10.4487,-36.6231,0.00524004,-0.00629087,-0.00303688,0.00599096,-0.00704179,-0.242404,0.00753261,0.018101,1539,463,10.4487,36.6231
322,561,10.4509,-36.1398,0.00470676,-0.00553895,-0.00267239,0.0053619,-0.00619409,-0.240413,0.00667762,0.0151102,1546,463,10.4509,36.1398
329,561,10.49,-35.6056,0.00415064,-0.00478072,-0.00231523,0.00471513,-0.00534521,-0.239149,0.00581213,0.0112671,1553,463,10.4899,35.6056
336,561,10.4954,-35.0348,0.00350722,-0.00391858,-0.00202746,0.00402471,-0.00443607,-0.249906,0.00488676,0.0111254,1560,463,10.4954,35.0348
343,561,10.4836,-34.5056,0.0027931,-0.00305217,-0.00173097,0.00326723,-0.00352631,-0.267356,0.0039232,0.0111137,1567,463,10.4836,34.5057
350,561,10.4661,-33.9277,0.00216649,-0.0022298,-0.00139884,0.00257384,-0.00263715,-0.283368,0.00300864,0.010551,1574,463,10.4661,33.9277
357,561,10.46,-33.3283,0.0016785,-0.00132017,-0.000954847,0.00195673,-0.0015984,-0.283537,0.00205603,0.0105585,1581,463,10.46,33.3284
364,561,10.4686,-32.7895,0.00126252,-0.000337042,-0.000449577,0.00138022,-0.000454741,-0.256052,0.00110342,0.00997745,1588,463,10.4686,32.7895
371,561,10.4631,-32.1879,0.000934004,0.000585809,8.51726e-05,0.000953722,0.000566092,0.227495,0.000553836,0.0164831,1595,463,10.4631,32.1879
378,561,10.4109,-31.6137,0.000622432,0.00160166,0.000606756,0.00189171,0.000332383,1.12488,0.00116624,0.0124779,1602,463,10.4109,31.6137
385,561,10.3828,-31.0125,0.00061116,0.00265425,0.00109093,0.00312726,0.000138156,1.16168,0.00204034,0.0107592,1609,463,10.3828,31.0125
392,561,10.3381,-30.3908,0.000975423,0.0036751,0.00165867,0.00446378,0.000186743,1.12695,0.0029156,0.0142294,1616,463,10.3381,30.3908
399,561,10.3221,-29.8021,0.00148474,0.00472484,0.00231366,0.00592925,0.000280324,1.09083,0.00386278,0.0200994,1623,463,10.3222,29.8021
406,561,10.3247,-29.1887,0.00198711,0.00585668,0.00290001,0.00740807,0.00043572,1.07957,0.00480007,0.0188714,1630,463,10.3248,29.1887
413,561,10.3123,-28.5526,0.00251723,0.00699719,0.00333846,0.00877751,0.00073691,1.08088,0.00562216,0.0173927,1637,463,10.3122,28.5526
420,561,10.2592,-27.9049,0.00310229,0.00782999,0.00378608,0.00992956,0.00100272,1.06446,0.00631207,0.013635,1644,463,10.2591,27.9049
427,561,10.23,-27.2199,0.0036932,0.00784042,0.00439928,0.0106303,0.000903322,1.00563,0.00680577,0.0108236,1651,463,10.23,27.2199
434,561,10.1926,-26.5544,0.00431175,0.00816522,0.0049215,0.0115237,0.000953272,0.971974,0.00738524,0.0125445,1658,463,10.1926,26.5544
441,561,10.1882,-25.9131,0.00466996,0.00802688,0.00539048,0.0119942,0.000702666,0.936328,0.00777248,0.0150489,1665,463,10.1882,25.9131
448,561,10.1837,-25.2401,0.00467929,0.00728713,0.00583465,0.0119618,4.63147e-06,0.895331,0.00797298,0.0238959,1672,463,10.1837,25.2401
455,561,10.1758,-24.507,0.00451202,0.00566893,0.00626566,0.0113828,-0.00120183,0.831429,0.00801921,0.0437568,1679,463,10.1758,24.507
462,561,9.82458,-23.8701,0.00434999,0.00362526,0.00713233,0.0111292,-0.0031539,0.760017,0.00866424,0.0433666,1686,463,9.82453,23.8701
469,561,9.83545,-23.3672,0.00400299,0.000842803,0.00812249,0.0106976,-0.00585186,0.689332,0.00969043,0.0272588,1693,463,9.83547,23.3672
476,561,9.79675,-22.7307,0.00371852,-0.00259403,0.00954293,0.0106136,-0.0094891,0.625689,0.0116123,0.0433355,1700,463,9.79671,22.7307
483,561,9.70996,-22.0668,0,0,0,0,0,0,0,-1,1707,463,9.71002,22.0668
490,561,7.37964,-17.5772,0,0,0,0,0,0,0,-1,1714,463,7.37969,17.5772
497,561,5.98865,-17.2072,0,0,0,0,0,0,0,-1,1721,463,5.98864,17.2072
504,561,10.0769,-0.811401,0,0,0,0,0,0,0,-1,1728,463,10.0769,0.8114
511,561,0,0,0,0,0,0,0,0,0,-1,1735,463,0,0
518,561,0,0,0,0,0,0,0,0,0,-1,1742,463,0,0
525,561,0,0,0,0,0,0,0,0,0,-1,1749,463,0,0
532,561,0,0,0,0,0,0,0,0,0,-1,1756,463,0,0
539,561,0,0,0,0,0,0,0,0,0,-1,1763,463,0,0
546,561,0,0,0,0,0,0,0,0,0,-1,1770,463,0,0
553,561,0,0,0,0,0,0,0,0,0,-1,1777,463,0,0
560,561,0,0,0,0,0,0,0,0,0,-1,1784,463,0,0
567,561,0,0,0,0,0,0,0,0,0,-1,1791,463,0,0
574,561,0,0,0,0,0,0,0,0,0,-1,1798,463,0,0
581,561,0,0,0,0,0,0,0,0,0,-1,1805,463,0,0
588,561,0,0,0,0,0,0,0,0,0,-1,1812,463,0,0
595,561,0,0,0,0,0,0,0,0,0,-1,1819,463,0,0
602,561,0,0,0,0,0,0,0,0,0,-1,1826,463,0,0
609,561,0,0,0,0,0,0,0,0,0,-1,1833,463,0,0
616,561,0,0,0,0,0,0,0,0,0,-1,1840,463,0,0
623,561,0,0,0,0,0,0,0,0,0,-1,1847,463,0,0
630,561,0,0,0,0,0,0,0,0,0,-1,1854,463,0,0
637,561,0,0,0,0,0,0,0,0,0,-1,1861,463,0,0
644,561,0,0,0,0,0,0,0,0,0,-1,1868,463,0,0
651,561,0,0,0,0,0,0,0,0,0,-1,1875,463,0,0
658,561,0,0,0,0,0,0,0,0,0,-1,1882,463,0,0
665,561,0,0,0,0,0,0,0,0,0,-1,1889,463,0,0
672,561,0,0,0,0,0,0,0,0,0,-1,1896,463,0,0
679,561,0,0,0,0,0,0,0,0,0,-1,1903,463,0,0
686,561,0,0,0,0,0,0,0,0,0,-1,1910,463,0,0
693,561,0,0,0,0,0,0,0,0,0,-1,1917,463,0,0
700,561,0,0,0,0,0,0,0,0,0,-1,1924,463,0,0
707,561,0,0,0,0,0,0,0,0,0,-1,1931,463,0,0
714,561,0,0,0,0,0,0,0,0,0,-1,1938,463,0,0
721,561,0,0,0,0,0,0,0,0,0,-1,1945,463,0,0
728,561,0,0,0,0,0,0,0,0,0,-1,1952,463,0,0
735,561,0,0,0,0,0,0,0,0,0,-1,1959,463,0,0
742,561,0,0,0,0,0,0,0,0,0,-1,1966,463,0,0
749,561,0,0,0,0,0,0,0,0,0,-1,1973,463,0,0
756,561,0,0,0,0,0,0,0,0,0,-1,1980,463,0,0
763,561,0,0,0,0,0,0,0,0,0,-1,1987,463,0,0
770,561,0,0,0,0,0,0,0,0,0,-1,1994,463,0,0
777,561,0,0,0,0,0,0,0,0,0,-1,2001,463,0,0
784,561,0,0,0,0,0,0,0,0,0,-1,2008,463,0,0
791,561,0,0,0,0,0,0,0,0,0,-1,2015,463,0,0
798,561,0,0,0,0,0,0,0,0,0,-1,2022,463,0,0
805,561,0,0,0,0,0,0,0,0,0,-1,2029,463,0,0
812,561,0,0,0,0,0,0,0,0,0,-1,2036,463,0,0
-700,554,0,0,0,0,0,0,0,0,0,-1,524,470,0,0
-693,554,0,0,0,0,0,0,0,0,0,-1,531,470,0,0
-686,554,0,0,0,0,0,0,0,0,0,-1,538,470,0,0
-679,554,0,0,0,0,0,0,0,0,0,-1,545,470,0,0
-672,554,0,0,0,0,0,0,0,0,0,-1,552,470,0,0
-665,554,0,0,0,0,0,0,0,0,0,-1,559,470,0,0
-658,554,0,0,0,0,0,0,0,0,0,-1,566,470,0,0
-651,554,0,0,0,0,0,0,0,0,0,-1,573,470,0,0
-644,554,0,0,0,0,0,0,0,0,0,-1,580,470,0,0
-637,554,0,0,0,0,0,0,0,0,0,-1,587,470,0,0
-630,554,0,0,0,0,0,0,0,0,0,-1,594,470,0,0
-623,554,0,0,0,0,0,0,0,0,0,-1,601,470,0,0
-616,554,0,0,0,0,0,0,0,0,0,-1,608,470,0,0
-609,554,0,0,0,0,0,0,0,0,0,-1,615,470,0,0
-602,554,0,0,0,0,0,0,0,0,0,-1,622,470,0,0
-595,554,0,0,0,0,0,0,0,0,0,-1,629,470,0,0
-588,554,0,0,0,0,0,0,0,0,0,-1,636,470,0,0
-581,554,0,0,0,0,0,0,0,0,0,-1,643,470,0,0
-574,554,0,0,0,0,0,0,0,0,0,-1,650,470,0,0
-567,554,0,0,0,0,0,0,0,0,0,-1,657,470,0,0
-560,554,0,0,0,0,0,0,0,0,0,-1,664,470,0,0
-553,554,0,0,0,0,0,0,0,0,0,-1,671,470,0,0
-546,554,0,0,0,0,0,0,0,0,0,-1,678,470,0,0
-539,554,0,0,0,0,0,0,0,0,0,-1,685,470,0,0
-532,554,0,0,0,0,0,0,0,0,0,-1,692,470,0,0
-525,554,0,0,0,0,0,0,0,0,0,-1,699,470,0,0
-518,554,0,0,0,0,0,0,0,0,0,-1,706,470,0,0
-511,554,0,0,0,0,0,0,0,0,0,-1,713,470,0,0
-504,554,0,0,0,0,0,0,0,0,0,-1,720,470,0,0
-497,554,0,0,0,0,0,0,0,0,0,-1,727,470,0,0
-490,554,0,0,0,0,0,0,0,0,0,-1,734,470,0,0
-483,554,0,0,0,0,0,0,0,0,0,-1,741,470,0,0
-476,554,0,0,0,0,0,0,0,0,0,-1,748,470,0,0
-469,554,0,0,0,0,0,0,0,0,0,-1,755,470,0,0
-462,554,0,0,0,0,0,0,0,0,0,-1,762,470,0,0
-455,554,0,0,0,0,0,0,0,0,0,-1,769,470,0,0
-448,554,0,0,0,0,0,0,0,0,0,-1,776,470,0,0
-441,554,0,0,0,0,0,0,0,0,0,-1,783,470,0,0
-434,554,0,0,0,0,0,0,0,0,0,-1,790,470,0,0
-427,554,0,0,0,0,0,0,0,0,0,-1,797,470,0,0
-420,554,0,0,0,0,0,0,0,0,0,-1,804,470,0,0
-413,554,0,0,0,0,0,0,0,0,0,-1,811,470,0,0
-406,554,0,0,0,0,0,0,0,0,0,-1,818,470,0,0
-399,554,-1.32275,-3.95142,0,0,0,0,0,0,0,-1,825,470,-1.32275,3.95141
-392,554,-1.35632,-3.7406,0,0,0,0,0,0,0,-1,832,470,-1.35632,3.7406
-385,554,-0.849243,-4.14447,0,0,0,0,0,0,0,-1,839,470,-0.849262,4.14446
-378,554,-0.982666,-4.55084,0,0,0,0,0,0,0,-1,846,470,-0.982671,4.55084
-371,554,-1.74542,-4.63467,0,0,0,0,0,0,0,-1,853,470,-1.74541,4.63468
-364,554,1.04883,-7.68756,0,0,0,0,0,0,0,-1,860,470,1.0488,7.68757
-357,554,2.08612,-21.4721,0,0,0,0,0,0,0,-1,867,470,2.08613,21.4721
-350,554,1.17157,-18.1341,0,0,0,0,0,0,0,-1,874,470,1.17156,18.1341
-343,554,1.48956,-24.4511,0,0,0,0,0,0,0,-1,881,470,1.48958,24.4511
-336,554,1.33881,-24.9278,0.00471673,0.0168779,-0.00548689,0.0189875,0.00260711,-1.20374,0.011885,0.0450489,888,470,1.33878,24.9278
-329,554,1.16425,-25.5714,0.00321187,0.014126,-0.00427287,0.0155998,0.00173807,-1.23865,0.00987166,0.022483,895,470,1.16427,25.5714
-322,554,1.06787,-26.2238,0.00219191,0.0116597,-0.00340256,0.0127557,0.00109595,-1.25919,0.00816304,0.0146043,902,470,1.06789,26.2238
-315,554,1.06635,-26.8605,0.00158968,0.00993645,-0.00286538,0.0108254,0.000700703,-1.26996,0.00699509,0.0140932,909,470,1.06637,26.8605
-308,554,1.03552,-27.4949,0.000928678,0.00859702,-0.00247128,0.00932444,0.000201262,-1.28453,0.0061503,0.0148614,916,470,1.03551,27.4949
-301,554,1.02545,-28.1425,0.000636936,0.00712415,-0.00222564,0.0078143,-5.32153e-05,-1.27011,0.00522736,0.0145357,923,470,1.02543,28.1425
-294,554,0.983887,-28.755,0.000617072,0.00590016,-0.00202774,0.00658871,-7.14737e-05,-1.24345,0.00441649,0.0124926,930,470,0.983871,28.755
-287,554,0.940369,-29.3663,0.000658195,0.00490466,-0.00173446,0.00552305,3.98082e-05,-1.22832,0.00366883,0.0125808,937,470,0.940379,29.3663
-280,554,0.911438,-29.9578,0.000775039,0.00392354,-0.00149515,0.0045204,0.000178173,-1.19098,0.002956,0.0117291,944,470,0.911444,29.9578
-273,554,0.85968,-30.5617,0.00100157,0.00298305,-0.00126881,0.0036021,0.000382513,-1.11687,0.0022846,0.0155713,951,470,0.85969,30.5617
-266,554,0.833557,-31.1462,0.0010859,0.00164493,-0.000959947,0.00236523,0.000365601,-0.927068,0.00147018,0.0123774,958,470,0.833557,31.1462
-259,554,0.823608,-31.7073,0.00107373,0.000301661,-0.000476148,0.00130067,7.47196e-05,-0.444769,0.000843312,0.0121884,965,470,0.823599,31.7073
-252,554,0.798584,-32.2793,0.00104506,-0.000964252,0.000215893,0.00106799,-0.000987187,0.105837,0.00118686,0.0151536,972,470,0.798601,32.2793
-245,554,0.773499,-32.8499,0.00113521,-0.00241142,0.000795245,0.00130536,-0.00258157,0.210783,0.00228408,0.0166219,979,470,0.773491,32.8499
-238,554,0.791199,-33.4482,0.00131304,-0.00400169,0.00139173,0.00165542,-0.00434408,0.241223,0.00357788,0.012521,986,470,0.791179,33.4482
-231,554,0.780945,-34.027,0.00145895,-0.00572101,0.00202566,0.00199102,-0.00625307,0.25686,0.00496723,0.0107631,993,470,0.78092,34.027
-224,554,0.772766,-34.5459,0.00144996,-0.00748996,0.00273117,0.0022183,-0.00825831,0.274236,0.00637495,0.0104193,1000,470,0.77277,34.5459
-217,554,0.794617,-35.0629,0.00144112,-0.009353,0.00349322,0.00247296,-0.0103849,0.287218,0.00787802,0.0103026,1007,470,0.794643,35.0629
-210,554,0.818542,-35.5836,0.00146769,-0.0111614,0.00424733,0.00276323,-0.0124569,0.29606,0.0093626,0.0145644,1014,470,0.818546,35.5836
-203,554,0.785706,-36.0317,0.00160338,-0.0127974,0.00494675,0.00313889,-0.0143329,0.300978,0.0107553,0.0242592,1021,470,0.785721,36.0317
-196,554,0.739624,-36.4268,0.00180943,-0.0146001,0.00572494,0.00360932,-0.0164,0.304609,0.0123141,0.0315709,1028,470,0.739668,36.4268
-189,554,0.792603,-36.8172,0.0020182,-0.0170289,0.00698909,0.00430758,-0.0193183,0.31655,0.0145292,0.0372292,1035,470,0.792582,36.8172
-182,554,0.860596,-37.2682,0.00240517,-0.0210073,0.00876452,0.00532264,-0.0239247,0.321336,0.0179885,0.0482162,1042,470,0.860593,37.2682
-175,554,0.820313,-37.7113,0,0,0,0,0,0,0,-1,1049,470,0.82033,37.7113
-168,554,1.0907,-36.5165,0,0,0,0,0,0,0,-1,1056,470,1.09066,36.5165
-161,554,0.988892,-37.3898,0,0,0,0,0,0,0,-1,1063,470,0.988906,37.3898
-154,554,0.849609,-39.1918,0,0,0,0,0,0,0,-1,1070,470,0.849629,39.1918
-147,554,1.34558,-35.0622,0,0,0,0,0,0,0,-1,1077,470,1.3456,35.0622
-140,554,0.428101,-38.9893,0,0,0,0,0,0,0,-1,1084,470,0.428152,38.9893
-133,554,2.67163,-32.8187,0,0,0,0,0,0,0,-1,1091,470,2.67161,32.8187
-126,554,0.851929,-33.5393,0,0,0,0,0,0,0,-1,1098,470,0.851942,33.5393
-119,554,-1.03479,-32.1628,0,0,0,0,0,0,0,-1,1105,470,-1.03476,32.1628
-112,554,1.03162,-24.5784,0,0,0,0,0,0,0,-1,1112,470,1.03156,24.5784
-105,554,0.608765,-21.0475,0,0,0,0,0,0,0,-1,1119,470,0.608728,21.0475
-98,554,1.51929,-7.3624,0,0,0,0,0,0,0,-1,1126,470,1.51928,7.36241
-91,554,1.41089,-6.5864,0,0,0,0,0,0,0,-1,1133,470,1.41093,6.58638
-84,554,1.62305,-5.87186,0,0,0,0,0,0,0,-1,1140,470,1.62299,5.87186
-77,554,-2.56958,1.33258,0,0,0,0,0,0,0,-1,1147,470,-2.56959,-1.33257
-70,554,-3.68164,-1.18332,0,0,0,0,0,0,0,-1,1154,470,-3.68158,1.18331
-63,554,-4.86853,-3.88708,0,0,0,0,0,0,0,-1,1161,470,-4.86853,3.88708
-56,554,-5.69958,-6.45422,0,0,0,0,0,0,0,-1,1168,470,-5.69955,6.45422
-49,554,-6.23645,-8.8569,0,0,0,0,0,0,0,-1,1175,470,-6.23643,8.85689
-42,554,-6.62524,-11.5382,0,0,0,0,0,0,0,-1,1182,470,-6.62522,11.5382
-35,554,-2.40173,-4.59482,0,0,0,0,0,0,0,-1,1189,470,-2.40169,4.59481
-28,554,-0.760132,-1.65555,0,0,0,0,0,0,0,-1,1196,470,-0.760095,1.65556
-21,554,1.69373,-43.5319,0,0,0,0,0,0,0,-1,1203,470,1.69367,43.5319
-14,554,5.21509,-49.0879,0,0,0,0,0,0,0,-1,1210,470,5.21509,49.0879
-7,554,5.4895,-49.7297,0,0,0,0,0,0,0,-1,1217,470,5.48947,49.7297
0,554,5.47925,-46.7126,0,0,0,0,0,0,0,-1,1224,470,5.47923,46.7126
7,554,4.69788,-47.4111,0,0,0,0,0,0,0,-1,1231,470,4.6979,47.4112
14,554,4.21106,-44.6845,0,0,0,0,0,0,0,-1,1238,470,4.21105,44.6845
21,554,4.81665,-44.8779,0,0,0,0,0,0,0,-1,1245,470,4.81665,44.8779
28,554,5.64661,-46.8663,0,0,0,0,0,0,0,-1,1252,470,5.64666,46.8663
35,554,6.09167,-47.6914,0,0,0,0,0,0,0,-1,1259,470,6.09165,47.6914
42,554,6.52686,-48.4929,0,0,0,0,0,0,0,-1,1266,470,6.52683,48.4929
49,554,6.9574,-49.3339,0,0,0,0,0,0,0,-1,1273,470,6.95739,49.3339
56,554,7.35913,-48.306,0,0,0,0,0,0,0,-1,1280,470,7.3591,48.306
63,554,7.36218,-48.352,0,0,0,0,0,0,0,-1,1287,470,7.36222,48.352
70,554,7.3623,-48.3903,0,0,0,0,0,0,0,-1,1294,470,7.36232,48.3903
77,554,6.18188,-48.621,0,0,0,0,0,0,0,-1,1301,470,6.18189,48.621
84,554,6.1554,-49.4167,0,0,0,0,0,0,0,-1,1308,470,6.15543,49.4167
91,554,6.17505,-50.1035,0,0,0,0,0,0,0,-1,1315,470,6.17506,50.1035
98,554,6.09863,-50.7861,0,0,0,0,0,0,0,-1,1322,470,6.09869,50.7861
105,554,6.07935,-51.2953,0,0,0,0,0,0,0,-1,1329,470,6.07932,51.2953
112,554,8.2959,-54.3538,0,0,0,0,0,0,0,-1,1336,470,8.29584,54.3538
119,554,8.67737,-53.75,0,0,0,0,0,0,0,-1,1343,470,8.67741,53.75
126,554,8.65503,-52.8864,0,0,0,0,0,0,0,-1,1350,470,8.65507,52.8864
133,554,8.09839,-52.9321,0,0,0,0,0,0,0,-1,1357,470,8.09835,52.9322
140,554,7.5647,-53.0539,0,0,0,0,0,0,0,-1,1364,470,7.56467,53.0539
147,554,7.07104,-53.3032,0,0,0,0,0,0,0,-1,1371,470,7.07102,53.3032
154,554,6.76782,-53.5549,0,0,0,0,0,0,0,-1,1378,470,6.76777,53.555
161,554,6.67505,-53.3302,0,0,0,0,0,0,0,-1,1385,470,6.67509,53.3302
168,554,6.79053,-53.3966,0,0,0,0,0,0,0,-1,1392,470,6.79053,53.3966
175,554,10.663,0.286957,0,0,0,0,0,0,0,-1,1399,470,10.663,-0.286966
182,554,6.71106,-4.50217,0,0,0,0,0,0,0,-1,1406,470,6.71107,4.50215
189,554,6.90479,-2.50348,0,0,0,0,0,0,0,-1,1413,470,6.90477,2.50348
196,554,6.96216,-0.740906,0,0,0,0,0,0,0,-1,1420,470,6.96214,0.740912
203,554,6.43518,0.414154,0,0,0,0,0,0,0,-1,1427,470,6.43523,-0.414141
210,554,6.21167,1.96707,0,0,0,0,0,0,0,-1,1434,470,6.21165,-1.96706
217,554,5.64551,3.4989,0,0,0,0,0,0,0,-1,1441,470,5.64555,-3.49891
224,554,4.85144,-8.85172,0,0,0,0,0,0,0,-1,1448,470,4.85146,8.85173
231,554,3.25073,-5.29642,0,0,0,0,0,0,0,-1,1455,470,3.25078,5.29642
238,554,4.28625,-3.25253,0,0,0,0,0,0,0,-1,1462,470,4.28622,3.25252
245,554,4.0752,-2.90033,0,0,0,0,0,0,0,-1,1469,470,4.07515,2.90032
252,554,3.52112,-0.934998,0,0,0,0,0,0,0,-1,1476,470,3.52113,0.934996
259,554,3.96448,-2.16425,0,0,0,0,0,0,0,-1,1483,470,3.96446,2.16424
266,554,3.0592,-2.71716,0,0,0,0,0,0,0,-1,1490,470,3.05923,2.71718
273,554,2.58521,-3.06876,0,0,0,0,0,0,0,-1,1497,470,2.58524,3.06874
280,554,2.83301,-0.991699,0,0,0,0,0,0,0,-1,1504,470,2.83303,0.991704
287,554,3.54126,-4.12277,0,0,0,0,0,0,0,-1,1511,470,3.54123,4.12277
294,554,3.62036,-8.50146,0,0,0,0,0,0,0,-1,1518,470,3.62031,8.50145
301,554,9.31323,-32.2134,0,0,0,0,0,0,0,-1,1525,470,9.31327,32.2134
308,554,10.8833,-36.8346,0,0,0,0,0,0,0,-1,1532,470,10.8834,36.8346
315,554,10.9961,-36.4966,0,0,0,0,0,0,0,-1,1539,470,10.9961,36.4966
322,554,10.9689,-35.925,0.00545816,-0.00746449,-0.00386549,0.00652615,-0.00853249,-0.269566,0.0087198,0.0434992,1546,470,10.9689,35.925
329,554,11.0415,-35.4509,0.0049014,-0.0065277,-0.00341561,0.00584436,-0.00747066,-0.269365,0.00770652,0.0271348,1553,470,11.0415,35.4509
336,554,11.0264,-34.9946,0.00420394,-0.00556528,-0.00309884,0.00510399,-0.00646533,-0.282668,0.00669494,0.0174377,1560,470,11.0263,34.9946
343,554,11.0349,-34.4982,0.00338966,-0.00463197,-0.0027847,0.00426159,-0.0055039,-0.303444,0.0056533,0.0124428,1567,470,11.0349,34.4982
350,554,11.0559,-33.8966,0.00266534,-0.00392654,-0.00249744,0.00350467,-0.00476587,-0.324216,0.00479346,0.00982415,1574,470,11.0559,33.8966
357,554,11.0571,-33.3107,0.0021182,-0.00306156,-0.00206532,0.00284087,-0.00378424,-0.336594,0.00383791,0.0112724,1581,470,11.0572,33.3107
364,554,11.0405,-32.7653,0.00165863,-0.0020939,-0.00156314,0.00222445,-0.00265972,-0.347304,0.00282361,0.00943453,1588,470,11.0406,32.7653
371,554,11.027,-32.1952,0.00129177,-0.00119555,-0.00103615,0.00166684,-0.00157062,-0.347313,0.00186942,0.00897843,1595,470,11.0269,32.1952
378,554,11.0092,-31.5939,0.000932541,-0.000140601,-0.000504067,0.00113217,-0.000340231,-0.377087,0.000890136,0.0104173,1602,470,11.0091,31.5939
385,554,10.9851,-30.9824,0.000756582,0.000838519,2.35595e-05,0.00084481,0.000750291,1.30985,0.000534494,0.00967326,1609,470,10.9851,30.9824
392,554,10.9659,-30.3523,0.00084345,0.00170443,0.00058074,0.00199684,0.000551042,1.10435,0.00119083,0.0126303,1616,470,10.9659,30.3523
399,554,10.9666,-29.738,0.00110684,0.00264158,0.00118287,0.00328419,0.000464235,1.07314,0.00205229,0.0164934,1623,470,10.9666,29.738
406,554,10.9398,-29.1432,0.00140102,0.00365854,0.00173171,0.00459688,0.00046268,1.07422,0.00292259,0.0157242,1630,470,10.9398,29.1432
413,554,10.9198,-28.5112,0.00173358,0.00471677,0.00220783,0.00588963,0.000560715,1.08248,0.0037535,0.0159826,1637,470,10.9198,28.5112
420,554,10.8964,-27.8699,0.00207121,0.00545831,0.00265475,0.0069137,0.000615822,1.06932,0.00441819,0.0167857,1644,470,10.8964,27.8699
427,554,10.8567,-27.2206,0.00240314,0.00550691,0.00321235,0.00752259,0.000387458,1.01042,0.00489102,0.0114053,1651,470,10.8567,27.2206
434,554,10.8062,-26.589,0.0027686,0.00577186,0.00369935,0.00826273,0.000277728,0.978197,0.00541828,0.00998945,1658,470,10.8061,26.589
441,554,10.7944,-25.9333,0.00294215,0.00568572,0.00416354,0.00869763,-6.97677e-05,0.944536,0.00582182,0.0114465,1665,470,10.7944,25.9334
448,554,10.7668,-25.2278,0.00287924,0.00510713,0.0045982,0.00872439,-0.000738021,0.904237,0.00607722,0.0186239,1672,470,10.7668,25.2277
455,554,10.7141,-24.5943,0.00276203,0.00391255,0.00505852,0.00842841,-0.00175383,0.842016,0.00628565,0.0201042,1679,470,10.7141,24.5943
462,554,10.6263,-23.9614,0.00277249,0.0023973,0.00591717,0.00850504,-0.00333525,0.769552,0.00704985,0.021658,1686,470,10.6264,23.9614
469,554,10.5089,-23.3002,0.00268327,0.00046637,0.00685316,0.00851704,-0.0053674,0.705221,0.00808465,0.0244753,1693,470,10.509,23.3002
476,554,10.3278,-22.2859,0.00261642,-0.00165076,0.00819219,0.0089483,-0.00798264,0.658007,0.00978038,0.043843,1700,470,10.3278,22.2859
483,554,10.1517,-21.258,0,0,0,0,0,0,0,-1,1707,470,10.1517,21.258
490,554,8.41553,-15.3876,0,0,0,0,0,0,0,-1,1714,470,8.41556,15.3876
497,554,11.4208,1.03592,0,0,0,0,0,0,0,-1,1721,470,11.4208,-1.03593
504,554,2.13257,-3.81628,0,0,0,0,0,0,0,-1,1728,470,2.1326,3.8163
511,554,1.31396,-4.02713,0,0,0,0,0,0,0,-1,1735,470,1.31398,4.02712
518,554,5.04236,-5.9472,0,0,0,0,0,0,0,-1,1742,470,5.04231,5.94721
525,554,0,0,0,0,0,0,0,0,0,-1,1749,470,0,0
532,554,0,0,0,0,0,0,0,0,0,-1,1756,470,0,0
539,554,0,0,0,0,0,0,0,0,0,-1,1763,470,0,0
546,554,0,0,0,0,0,0,0,0,0,-1,1770,470,0,0
553,554,0,0,0,0,0,0,0,0,0,-1,1777,470,0,0
560,554,0,0,0,0,0,0,0,0,0,-1,1784,470,0,0
567,554,0,0,0,0,0,0,0,0,0,-1,1791,470,0,0
574,554,0,0,0,0,0,0,0,0,0,-1,1798,470,0,0
581,554,0,0,0,0,0,0,0,0,0,-1,1805,470,0,0
588,554,0,0,0,0,0,0,0,0,0,-1,1812,470,0,0
595,554,0,0,0,0,0,0,0,0,0,-1,1819,470,0,0
602,554,0,0,0,0,0,0,0,0,0,-1,1826,470,0,0
609,554,0,0,0,0,0,0,0,0,0,-1,1833,470,0,0
616,554,0,0,0,0,0,0,0,0,0,-1,1840,470,0,0
623,554,0,0,0,0,0,0,0,0,0,-1,1847,470,0,0
630,554,0,0,0,0,0,0,0,0,0,-1,1854,470,0,0
637,554,0,0,0,0,0,0,0,0,0,-1,1861,470,0,0
644,554,0,0,0,0,0,0,0,0,0,-1,1868,470,0,0
651,554,0,0,0,0,0,0,0,0,0,-1,1875,470,0,0
658,554,0,0,0,0,0,0,0,0,0,-1,1882,470,0,0
665,554,0,0,0,0,0,0,0,0,0,-1,1889,470,0,0
672,554,0,0,0,0,0,0,0,0,0,-1,1896,470,0,0
679,554,0,0,0,0,0,0,0,0,0,-1,1903,470,0,0
686,554,0,0,0,0,0,0,0,0,0,-1,1910,470,0,0
693,554,0,0,0,0,0,0,0,0,0,-1,1917,470,0,0
700,554,0,0,0,0,0,0,0,0,0,-1,1924,470,0,0
707,554,0,0,0,0,0,0,0,0,0,-1,1931,470,0,0
714,554,0,0,0,0,0,0,0,0,0,-1,1938,470,0,0
721,554,0,0,0,0,0,0,0,0,0,-1,1945,470,0,0
728,554,0,0,0,0,0,0,0,0,0,-1,1952,470,0,0
735,554,0,0,0,0,0,0,0,0,0,-1,1959,470,0,0
742,554,0,0,0,0,0,0,0,0,0,-1,1966,470,0,0
749,554,0,0,0,0,0,0,0,0,0,-1,1973,470,0,0
756,554,0,0,0,0,0,0,0,0,0,-1,1980,470,0,0
763,554,0,0,0,0,0,0,0,0,0,-1,1987,470,0,0
770,554,0,0,0,0,0,0,0,0,0,-1,1994,470,0,0
777,554,0,0,0,0,0,0,0,0,0,-1,2001,470,0,0
784,554,0,0,0,0,0,0,0,0,0,-1,2008,470,0,0
791,554,0,0,0,0,0,0,0,0,0,-1,2015,470,0,0
798,554,0,0,0,0,0,0,0,0,0,-1,2022,470,0,0
805,554,0,0,0,0,0,0,0,0,0,-1,2029,470,0,0
812,554,0,0,0,0,0,0,0,0,0,-1,2036,470,0,0
-700,547,0,0,0,0,0,0,0,0,0,-1,524,477,0,0
-693,547,0,0,0,0,0,0,0,0,0,-1,531,477,0,0
-686,547,0,0,0,0,0,0,0,0,0,-1,538,477,0,0
-679,547,0,0,0,0,0,0,0,0,0,-1,545,477,0,0
-672,547,0,0,0,0,0,0,0,0,0,-1,552,477,0,0
-665,547,0,0,0,0,0,0,0,0,0,-1,559,477,0,0
-658,547,0,0,0,0,0,0,0,0,0,-1,566,477,0,0
-651,547,0,0,0,0,0,0,0,0,0,-1,573,477,0,0
-644,547,0,0,0,0,0,0,0,0,0,-1,580,477,0,0
-637,547,0,0,0,0,0,0,0,0,0,-1,587,477,0,0
-630,547,0,0,0,0,0,0,0,0,0,-1,594,477,0,0
-623,547,0,0,0,0,0,0,0,0,0,-1,601,477,0,0
-616,547,0,0,0,0,0,0,0,0,0,-1,608,477,0,0
-609,547,0,0,0,0,0,0,0,0,0,-1,615,477,0,0
-602,547,0,0,0,0,0,0,0,0,0,-1,622,477,0,0
-595,547,0,0,0,0,0,0,0,0,0,-1,629,477,0,0
-588,547,0,0,0,0,0,0,0,0,0,-1,636,477,0,0
-581,547,0,0,0,0,0,0,0,0,0,-1,643,477,0,0
-574,547,0,0,0,0,0,0,0,0,0,-1,650,477,0,0
-567,547,0,0,0,0,0,0,0,0,0,-1,657,477,0,0
-560,547,0,0,0,0,0,0,0,0,0,-1,664,477,0,0
-553,547,0,0,0,0,0,0,0,0,0,-1,671,477,0,0
-546,547,0,0,0,0,0,0,0,0,0,-1,678,477,0,0
-539,547,0,0,0,0,0,0,0,0,0,-1,685,477,0,0
-532,547,0,0,0,0,0,0,0,0,0,-1,692,477,0,0
-525,547,0,0,0,0,0,0,0,0,0,-1,699,477,0,0
-518,547,0,0,0,0,0,0,0,0,0,-1,706,477,0,0
-511,547,0,0,0,0,0,0,0,0,0,-1,713,477,0,0
-504,547,0,0,0,0,0,0,0,0,0,-1,720,477,0,0
-497,547,0,0,0,0,0,0,0,0,0,-1,727,477,0,0
-490,547,0,0,0,0,0,0,0,0,0,-1,734,477,0,0
-483,547,0,0,0,0,0,0,0,0,0,-1,741,477,0,0
-476,547,0,0,0,0,0,0,0,0,0,-1,748,477,0,0
-469,547,0,0,0,0,0,0,0,0,0,-1,755,477,0,0
-462,547,0,0,0,0,0,0,0,0,0,-1,762,477,0,0
-455,547,0,0,0,0,0,0,0,0,0,-1,769,477,0,0
-448,547,0,0,0,0,0,0,0,0,0,-1,776,477,0,0
-441,547,0,0,0,0,0,0,0,0,0,-1,783,477,0,0
-434,547,0,0,0,0,0,0,0,0,0,-1,790,477,0,0
-427,547,0,0,0,0,0,0,0,0,0,-1,797,477,0,0
-420,547,0,0,0,0,0,0,0,0,0,-1,804,477,0,0
-413,547,0,0,0,0,0,0,0,0,0,-1,811,477,0,0
-406,547,0.144592,-11.0292,0,0,0,0,0,0,0,-1,818,477,0.144583,11.0292
-399,547,0.775513,-10.0294,0,0,0,0,0,0,0,-1,825,477,0.775482,10.0295
-392,547,-1.52271,-4.41675,0,0,0,0,0,0,0,-1,832,477,-1.52273,4.41674
-385,547,-1.73743,-4.6431,0,0,0,0,0,0,0,-1,839,477,-1.73743,4.64308
-378,547,-2.41339,-4.60071,0,0,0,0,0,0,0,-1,846,477,-2.41337,4.60071
-371,547,1.64569,-11.1445,0,0,0,0,0,0,0,-1,853,477,1.64569,11.1445
-364,547,-0.240906,-22.0205,0,0,0,0,0,0,0,-1,860,477,-0.240925,22.0205
-357,547,-0.173767,-22.2643,0,0,0,0,0,0,0,-1,867,477,-0.173771,22.2642
-350,547,0.563599,-23.168,0,0,0,0,0,0,0,-1,874,477,0.563569,23.168
-343,547,0.566284,-24.0121,0.00616009,0.0169995,-0.00737042,0.0207284,0.00243123,-1.10242,0.013084,0.0499946,881,477,0.566277,24.0121
-336,547,0.648132,-24.8997,0.00414581,0.0141324,-0.00555602,0.0166092,0.00166902,-1.15145,0.0105605,0.0196001,888,477,0.648162,24.8997
-329,547,0.529114,-25.5727,0.00276821,0.0116716,-0.0042202,0.013354,0.00108577,-1.19144,0.00856373,0.0107546,895,477,0.529115,25.5727
-322,547,0.485962,-26.2251,0.00181197,0.00944349,-0.00319883,0.0106069,0.000648515,-1.22196,0.00686534,0.0113882,902,477,0.485972,26.2251
-315,547,0.444092,-26.8861,0.00125808,0.0077754,-0.00248418,0.00861431,0.000419183,-1.24512,0.00560837,0.0106434,909,477,0.444079,26.8861
-308,547,0.426453,-27.4953,0.000680735,0.00648935,-0.00193748,0.0070763,9.37916e-05,-1.27664,0.00468658,0.0118436,916,477,0.426426,27.4953
-301,547,0.414978,-28.1216,0.000456784,0.00511393,-0.00157083,0.00559423,-2.35117e-05,-1.27406,0.00373735,0.012011,923,477,0.414968,28.1216
-294,547,0.368286,-28.7316,0.000545592,0.00395029,-0.00127913,0.0043773,0.000118583,-1.2486,0.00287949,0.0108113,930,477,0.368279,28.7316
-287,547,0.327332,-29.3279,0.000725573,0.00297579,-0.000921087,0.00330473,0.000396628,-1.22779,0.00208357,0.012536,937,477,0.327311,29.3279
-280,547,0.323242,-29.9328,0.000946935,0.00189401,-0.000601067,0.00218566,0.00065528,-1.11904,0.00129517,0.0137794,944,477,0.323229,29.9328
-273,547,0.30188,-30.5321,0.00122469,0.000843277,-0.000269987,0.00136453,0.000703435,-0.477911,0.000787937,0.0126088,951,477,0.301864,30.5321
-266,547,0.264099,-31.1224,0.001367,-0.000530826,3.67729e-05,0.00136772,-0.000531539,0.0193666,0.00113141,0.0117757,958,477,0.264082,31.1224
-259,547,0.233643,-31.6918,0.00140466,-0.00188591,0.00048939,0.0014759,-0.00195715,0.144558,0.00198855,0.0109275,965,477,0.23366,31.6918
-252,547,0.234253,-32.2651,0.00145335,-0.00319616,0.00114337,0.00171931,-0.00346212,0.228543,0.00304739,0.0111978,972,477,0.234269,32.2651
-245,547,0.229553,-32.8388,0.00151445,-0.00471186,0.0017047,0.00195063,-0.00514803,0.250492,0.00423473,0.0125514,979,477,0.229583,32.8388
-238,547,0.235962,-33.4205,0.00159914,-0.00634356,0.00226554,0.00219991,-0.00694433,0.259212,0.00551121,0.00929428,986,477,0.235982,33.4205
-231,547,0.227539,-33.9784,0.00164463,-0.00806104,0.00285334,0.00242132,-0.00883773,0.265765,0.00684323,0.0087164,993,477,0.227557,33.9784
-224,547,0.210999,-34.477,0.00148989,-0.00984938,0.00354517,0.00250703,-0.0108665,0.279404,0.00820865,0.0110559,1000,477,0.210976,34.477
-217,547,0.225891,-34.9743,0.00129783,-0.0117242,0.00432338,0.0026025,-0.0130289,0.29308,0.00967087,0.0168355,1007,477,0.225895,34.9743
-210,547,0.230347,-35.3954,0.00114175,-0.0134582,0.00510277,0.0027484,-0.0150649,0.305031,0.0110736,0.0292039,1014,477,0.230345,35.3954
-203,547,0.27533,-35.5647,0.00111504,-0.0150858,0.00585028,0.00300675,-0.0169775,0.312742,0.0124423,0.0425855,1021,477,0.275342,35.5647
-196,547,0.195313,-36.0615,0,0,0,0,0,0,0,-1,1028,477,0.195366,36.0614
-189,547,0.110596,-36.3704,0,0,0,0,0,0,0,-1,1035,477,0.110553,36.3704
-182,547,0.215942,-36.9026,0,0,0,0,0,0,0,-1,1042,477,0.215924,36.9026
-175,547,-0.350098,-12.3584,0,0,0,0,0,0,0,-1,1049,477,-0.350098,12.3584
-168,547,0.761719,-32.9387,0,0,0,0,0,0,0,-1,1056,477,0.761738,32.9387
-161,547,0.0430908,-34.6016,0,0,0,0,0,0,0,-1,1063,477,0.0431231,34.6016
-154,547,-0.284424,-31.1176,0,0,0,0,0,0,0,-1,1070,477,-0.284395,31.1176
-147,547,3.69434,-26.413,0,0,0,0,0,0,0,-1,1077,477,3.69437,26.413
-140,547,1.55676,-22.5229,0,0,0,0,0,0,0,-1,1084,477,1.5568,22.5229
-133,547,2.31665,-17.9421,0,0,0,0,0,0,0,-1,1091,477,2.31667,17.9421
-126,547,-1.15271,-30.6984,0,0,0,0,0,0,0,-1,1098,477,-1.15267,30.6984
-119,547,0.967651,-24.9351,0,0,0,0,0,0,0,-1,1105,477,0.967657,24.9351
-112,547,1.15674,-22.2276,0,0,0,0,0,0,0,-1,1112,477,1.15677,22.2276
-105,547,0.966797,-20.5777,0,0,0,0,0,0,0,-1,1119,477,0.966804,20.5777
-98,547,0.70166,-18.9755,0,0,0,0,0,0,0,-1,1126,477,0.701713,18.9755
-91,547,1.37805,-7.12024,0,0,0,0,0,0,0,-1,1133,477,1.37804,7.12025
-84,547,1.94202,-6.66241,0,0,0,0,0,0,0,-1,1140,477,1.94201,6.66241
-77,547,-2.28357,1.8588,0,0,0,0,0,0,0,-1,1147,477,-2.28356,-1.85879
-70,547,-3.70178,-0.874908,0,0,0,0,0,0,0,-1,1154,477,-3.70182,0.874918
-63,547,-5.12012,-3.60861,0,0,0,0,0,0,0,-1,1161,477,-5.12009,3.60862
-56,547,-6.01917,-6.2399,0,0,0,0,0,0,0,-1,1168,477,-6.01921,6.23991
-49,547,-6.729,-8.60349,0,0,0,0,0,0,0,-1,1175,477,-6.72899,8.60348
-42,547,-2.41736,-5.53012,0,0,0,0,0,0,0,-1,1182,477,-2.41734,5.53011
-35,547,-2.96838,-4.45734,0,0,0,0,0,0,0,-1,1189,477,-2.96839,4.45734
-28,547,-0.869141,-1.29901,0,0,0,0,0,0,0,-1,1196,477,-0.869135,1.29901
-21,547,-7.68262,-30.8089,0,0,0,0,0,0,0,-1,1203,477,-7.68256,30.8089
-14,547,-1.34241,-40.7529,0,0,0,0,0,0,0,-1,1210,477,-1.34239,40.753
-7,547,-0.541138,-40.3384,0,0,0,0,0,0,0,-1,1217,477,-0.541079,40.3384
0,547,0.38501,-39.8217,0,0,0,0,0,0,0,-1,1224,477,0.385059,39.8217
7,547,4.40015,-48.2742,0,0,0,0,0,0,0,-1,1231,477,4.40018,48.2742
14,547,0,0,0,0,0,0,0,0,0,-1,1238,477,0,0
21,547,0,0,0,0,0,0,0,0,0,-1,1245,477,0,0
28,547,0,0,0,0,0,0,0,0,0,-1,1252,477,0,0
35,547,0,0,0,0,0,0,0,0,0,-1,1259,477,0,0
42,547,0,0,0,0,0,0,0,0,0,-1,1266,477,0,0
49,547,0,0,0,0,0,0,0,0,0,-1,1273,477,0,0
56,547,0,0,0,0,0,0,0,0,0,-1,1280,477,0,0
63,547,0,0,0,0,0,0,0,0,0,-1,1287,477,0,0
70,547,0,0,0,0,0,0,0,0,0,-1,1294,477,0,0
77,547,0,0,0,0,0,0,0,0,0,-1,1301,477,0,0
84,547,0,0,0,0,0,0,0,0,0,-1,1308,477,0,0
91,547,0,0,0,0,0,0,0,0,0,-1,1315,477,0,0
98,547,0,0,0,0,0,0,0,0,0,-1,1322,477,0,0
105,547,9.44141,-57.0211,0,0,0,0,0,0,0,-1,1329,477,9.44141,57.021
112,547,9.08655,-56.4836,0,0,0,0,0,0,0,-1,1336,477,9.08661,56.4836
119,547,9.0896,-55.5797,0,0,0,0,0,0,0,-1,1343,477,9.08961,55.5797
126,547,9.19116,-54.2896,0,0,0,0,0,0,0,-1,1350,477,9.19111,54.2896
133,547,8.18262,-54.4958,0,0,0,0,0,0,0,-1,1357,477,8.18266,54.4959
140,547,8.40552,-54.5666,0,0,0,0,0,0,0,-1,1364,477,8.40547,54.5666
147,547,8.0542,-55.0164,0,0,0,0,0,0,0,-1,1371,477,8.05415,55.0164
154,547,7.5332,-55.1329,0,0,0,0,0,0,0,-1,1378,477,7.53325,55.1329
161,547,7.13501,-55.2603,0,0,0,0,0,0,0,-1,1385,477,7.13498,55.2603
168,547,13.4181,-26.3557,0,0,0,0,0,0,0,-1,1392,477,13.4181,26.3557
175,547,3.35034,-0.26532,0,0,0,0,0,0,0,-1,1399,477,3.3503,0.265306
182,547,4.26038,3.72672,0,0,0,0,0,0,0,-1,1406,477,4.26039,-3.7267
189,547,3.40454,1.28671,0,0,0,0,0,0,0,-1,1413,477,3.40457,-1.28673
196,547,3.53931,1.87793,0,0,0,0,0,0,0,-1,1420,477,3.53928,-1.87794
203,547,6.49414,-0.425842,0,0,0,0,0,0,0,-1,1427,477,6.4941,0.425844
210,547,4.82092,0.53595,0,0,0,0,0,0,0,-1,1434,477,4.82096,-0.535942
217,547,4.68579,0.480072,0,0,0,0,0,0,0,-1,1441,477,4.68577,-0.480069
224,547,4.55615,0.739807,0,0,0,0,0,0,0,-1,1448,477,4.55613,-0.73981
231,547,5.90869,-3.57721,0,0,0,0,0,0,0,-1,1455,477,5.90871,3.57722
238,547,5.50049,-3.15356,0,0,0,0,0,0,0,-1,1462,477,5.50045,3.15356
245,547,5.13708,-2.65213,0,0,0,0,0,0,0,-1,1469,477,5.13708,2.65212
252,547,3.73511,-0.645233,0,0,0,0,0,0,0,-1,1476,477,3.73515,0.645237
259,547,5.86816,-3.20816,0,0,0,0,0,0,0,-1,1483,477,5.86815,3.20816
266,547,5.40222,-2.45731,0,0,0,0,0,0,0,-1,1490,477,5.40221,2.45732
273,547,3.05737,0.495789,0,0,0,0,0,0,0,-1,1497,477,3.05742,-0.49578
280,547,2.0885,1.47797,0,0,0,0,0,0,0,-1,1504,477,2.08848,-1.47795
287,547,2.31177,-2.21716,0,0,0,0,0,0,0,-1,1511,477,2.31174,2.21717
294,547,2.4823,-3.03659,0,0,0,0,0,0,0,-1,1518,477,2.48229,3.0366
301,547,4.72119,-3.93454,0,0,0,0,0,0,0,-1,1525,477,4.72119,3.93453
308,547,4.07471,-5.42175,0,0,0,0,0,0,0,-1,1532,477,4.07468,5.42174
315,547,3.58496,-6.62112,0,0,0,0,0,0,0,-1,1539,477,3.58497,6.62113
322,547,11.464,-35.7368,0,0,0,0,0,0,0,-1,1546,477,11.464,35.7368
329,547,11.5408,-35.3786,0,0,0,0,0,0,0,-1,1553,477,11.5408,35.3786
336,547,11.651,-35.0569,0.00480656,-0.00714086,-0.00423044,0.00615281,-0.00848711,-0.308096,0.0084881,0.0462764,1560,477,11.651,35.0569
343,547,11.6987,-34.5428,0.00385219,-0.00607078,-0.00388311,0.00519109,-0.00740968,-0.332036,0.00731255,0.0397221,1567,477,11.6987,34.5428
350,547,11.6522,-33.8953,0.00299329,-0.00550962,-0.00365809,0.00435045,-0.00686678,-0.35526,0.00653036,0.0261068,1574,477,11.6522,33.8953
357,547,11.6367,-33.3067,0.00238498,-0.00467297,-0.00323146,0.00364098,-0.00592897,-0.37071,0.0055776,0.0153356,1581,477,11.6367,33.3067
364,547,11.6125,-32.7334,0.00189846,-0.00370018,-0.00272657,0.00300687,-0.00480859,-0.386117,0.00455205,0.0101678,1588,477,11.6126,32.7334
371,547,11.6233,-32.1453,0.00151531,-0.00279571,-0.002196,0.00243692,-0.00371732,-0.397351,0.00357869,0.00947097,1595,477,11.6233,32.1453
378,547,11.6158,-31.5498,0.00113641,-0.00167753,-0.00163685,0.00188788,-0.00242899,-0.430389,0.00249887,0.0106088,1602,477,11.6159,31.5498
385,547,11.5798,-30.9365,0.000872652,-0.000729757,-0.00101842,0.00136725,-0.00122435,-0.452104,0.00149702,0.0108065,1609,477,11.5799,30.9365
392,547,11.5629,-30.3244,0.000763049,1.3403e-05,-0.000439523,0.00096587,-0.000189418,-0.432341,0.00071546,0.0116663,1616,477,11.5629,30.3244
399,547,11.5419,-29.7262,0.000849044,0.000898275,0.000141718,0.0010175,0.00072982,0.871388,0.000605659,0.0124705,1623,477,11.5418,29.7262
406,547,11.5359,-29.1162,0.00101877,0.00186713,0.000690075,0.00225297,0.000632932,1.06097,0.00134173,0.0123428,1630,477,11.5359,29.1162
413,547,11.5275,-28.4832,0.00124136,0.00291015,0.00123563,0.00356673,0.000584784,1.08237,0.00220885,0.0133607,1637,477,11.5275,28.4833
420,547,11.5104,-27.8754,0.0014255,0.00363779,0.00171047,0.00456862,0.000494676,1.07242,0.00289498,0.015634,1644,477,11.5103,27.8754
427,547,11.4954,-27.2155,0.00159347,0.00381358,0.00223605,0.00519995,0.000207102,1.01579,0.0033997,0.0142492,1651,477,11.4953,27.2155
434,547,11.4347,-26.5917,0.00179958,0.00409714,0.00270894,0.00589082,5.90505e-06,0.98594,0.00392524,0.00970153,1658,477,11.4347,26.5917
441,547,11.3807,-25.9726,0.00187241,0.0041149,0.00317843,0.00636406,-0.000376742,0.954967,0.0043737,0.010002,1665,477,11.3808,25.9726
448,547,11.3459,-25.2943,0.00179202,0.00371972,0.00361143,0.0064937,-0.000981962,0.915803,0.00469084,0.0110705,1672,477,11.346,25.2943
455,547,11.3239,-24.6269,0.00173095,0.00291291,0.00409521,0.00645956,-0.00181571,0.857059,0.00502224,0.0115078,1679,477,11.3239,24.6269
462,547,11.2721,-23.9618,0.00184995,0.00184931,0.00493755,0.00678718,-0.00308792,0.785366,0.00583321,0.011206,1686,477,11.2721,23.9618
469,547,11.1832,-23.2583,0.0018981,0.000567398,0.00582507,0.00709569,-0.00463019,0.728533,0.00681964,0.0194393,1693,477,11.1832,23.2583
476,547,10.8411,-22.0975,0,0,0,0,0,0,0,-1,1700,477,10.841,22.0975
483,547,11.1163,-21.7759,0,0,0,0,0,0,0,-1,1707,477,11.1163,21.7759
490,547,3.65271,-3.71707,0,0,0,0,0,0,0,-1,1714,477,3.65277,3.71708
497,547,2.55481,-3.81421,0,0,0,0,0,0,0,-1,1721,477,2.55476,3.8142
504,547,4.01953,-2.22714,0,0,0,0,0,0,0,-1,1728,477,4.0195,2.22713
511,547,5.2146,-6.9552,0,0,0,0,0,0,0,-1,1735,477,5.21464,6.95521
518,547,5.24243,-6.56122,0,0,0,0,0,0,0,-1,1742,477,5.24241,6.56121
525,547,5.89368,-5.49866,0,0,0,0,0,0,0,-1,1749,477,5.89372,5.49866
532,547,0,0,0,0,0,0,0,0,0,-1,1756,477,0,0
539,547,0,0,0,0,0,0,0,0,0,-1,1763,477,0,0
546,547,0,0,0,0,0,0,0,0,0,-1,1770,477,0,0
553,547,0,0,0,0,0,0,0,0,0,-1,1777,477,0,0
560,547,0,0,0,0,0,0,0,0,0,-1,1784,477,0,0
567,547,0,0,0,0,0,0,0,0,0,-1,1791,477,0,0
574,547,0,0,0,0,0,0,0,0,0,-1,1798,477,0,0
581,547,0,0,0,0,0,0,0,0,0,-1,1805,477,0,0
588,547,0,0,0,0,0,0,0,0,0,-1,1812,477,0,0
595,547,0,0,0,0,0,0,0,0,0,-1,1819,477,0,0
602,547,0,0,0,0,0,0,0,0,0,-1,1826,477,0,0
609,547,0,0,0,0,0,0,0,0,0,-1,1833,477,0,0
616,547,0,0,0,0,0,0,0,0,0,-1,1840,477,0,0
623,547,0,0,0,0,0,0,0,0,0,-1,1847,477,0,0
630,547,0,0,0,0,0,0,0,0,0,-1,1854,477,0,0
637,547,0,0,0,0,0,0,0,0,0,-1,1861,477,0,0
644,547,0,0,0,0,0,0,0,0,0,-1,1868,477,0,0
651,547,0,0,0,0,0,0,0,0,0,-1,1875,477,0,0
658,547,0,0,0,0,0,0,0,0,0,-1,1882,477,0,0
665,547,0,0,0,0,0,0,0,0,0,-1,1889,477,0,0
672,547,0,0,0,0,0,0,0,0,0,-1,1896,477,0,0
679,547,0,0,0,0,0,0,0,0,0,-1,1903,477,0,0
686,547,0,0,0,0,0,0,0,0,0,-1,1910,477,0,0
693,547,0,0,0,0,0,0,0,0,0,-1,1917,477,0,0
700,547,0,0,0,0,0,0,0,0,0,-1,1924,477,0,0
707,547,0,0,0,0,0,0,0,0,0,-1,1931,477,0,0
714,547,0,0,0,0,0,0,0,0,0,-1,1938,477,0,0
721,547,0,0,0,0,0,0,0,0,0,-1,1945,477,0,0
728,547,0,0,0,0,0,0,0,0,0,-1,1952,477,0,0
735,547,0,0,0,0,0,0,0,0,0,-1,1959,477,0,0
742,547,0,0,0,0,0,0,0,0,0,-1,1966,477,0,0
749,547,0,0,0,0,0,0,0,0,0,-1,1973,477,0,0
756,547,0,0,0,0,0,0,0,0,0,-1,1980,477,0,0
763,547,0,0,0,0,0,0,0,0,0,-1,1987,477,0,0
770,547,0,0,0,0,0,0,0,0,0,-1,1994,477,0,0
777,547,0,0,0,0,0,0,0,0,0,-1,2001,477,0,0
784,547,0,0,0,0,0,0,0,0,0,-1,2008,477,0,0
791,547,0,0,0,0,0,0,0,0,0,-1,2015,477,0,0
798,547,0,0,0,0,0,0,0,0,0,-1,2022,477,0,0
805,547,0,0,0,0,0,0,0,0,0,-1,2029,477,0,0
812,547,0,0,0,0,0,0,0,0,0,-1,2036,477,0,0
-700,540,0,0,0,0,0,0,0,0,0,-1,524,484,0,0
-693,540,0,0,0,0,0,0,0,0,0,-1,531,484,0,0
-686,540,0,0,0,0,0,0,0,0,0,-1,538,484,0,0
-679,540,0,0,0,0,0,0,0,0,0,-1,545,484,0,0
-672,540,0,0,0,0,0,0,0,0,0,-1,552,484,0,0
-665,540,0,0,0,0,0,0,0,0,0,-1,559,484,0,0
-658,540,0,0,0,0,0,0,0,0,0,-1,566,484,0,0
-651,540,0,0,0,0,0,0,0,0,0,-1,573,484,0,0
-644,540,0,0,0,0,0,0,0,0,0,-1,580,484,0,0
-637,540,0,0,0,0,0,0,0,0,0,-1,587,484,0,0
-630,540,0,0,0,0,0,0,0,0,0,-1,594,484,0,0
-623,540,0,0,0,0,0,0,0,0,0,-1,601,484,0,0
-616,540,0,0,0,0,0,0,0,0,0,-1,608,484,0,0
-609,540,0,0,0,0,0,0,0,0,0,-1,615,484,0,0
-602,540,0,0,0,0,0,0,0,0,0,-1,622,484,0,0
-595,540,0,0,0,0,0,0,0,0,0,-1,629,484,0,0
-588,540,0,0,0,0,0,0,0,0,0,-1,636,484,0,0
-581,540,0,0,0,0,0,0,0,0,0,-1,643,484,0,0
-574,540,0,0,0,0,0,0,0,0,0,-1,650,484,0,0
-567,540,0,0,0,0,0,0,0,0,0,-1,657,484,0,0
-560,540,0,0,0,0,0,0,0,0,0,-1,664,484,0,0
-553,540,0,0,0,0,0,0,0,0,0,-1,671,484,0,0
-546,540,0,0,0,0,0,0,0,0,0,-1,678,484,0,0
-539,540,0,0,0,0,0,0,0,0,0,-1,685,484,0,0
-532,540,0,0,0,0,0,0,0,0,0,-1,692,484,0,0
-525,540,0,0,0,0,0,0,0,0,0,-1,699,484,0,0
-518,540,0,0,0,0,0,0,0,0,0,-1,706,484,0,0
-511,540,0,0,0,0,0,0,0,0,0,-1,713,484,0,0
-504,540,0,0,0,0,0,0,0,0,0,-1,720,484,0,0
-497,540,0,0,0,0,0,0,0,0,0,-1,727,484,0,0
-490,540,0,0,0,0,0,0,0,0,0,-1,734,484,0,0
-483,540,0,0,0,0,0,0,0,0,0,-1,741,484,0,0
-476,540,0,0,0,0,0,0,0,0,0,-1,748,484,0,0
-469,540,0,0,0,0,0,0,0,0,0,-1,755,484,0,0
-462,540,0,0,0,0,0,0,0,0,0,-1,762,484,0,0
-455,540,0,0,0,0,0,0,0,0,0,-1,769,484,0,0
-448,540,0,0,0,0,0,0,0,0,0,-1,776,484,0,0
-441,540,0,0,0,0,0,0,0,0,0,-1,783,484,0,0
-434,540,0,0,0,0,0,0,0,0,0,-1,790,484,0,0
-427,540,0,0,0,0,0,0,0,0,0,-1,797,484,0,0
-420,540,0.227051,-10.0402,0,0,0,0,0,0,0,-1,804,484,0.227063,10.0402
-413,540,-0.0393677,-10.3862,0,0,0,0,0,0,0,-1,811,484,-0.0393683,10.3862
-406,540,-0.518372,-11.5288,0,0,0,0,0,0,0,-1,818,484,-0.518402,11.5288
-399,540,0.0863037,-11.3801,0,0,0,0,0,0,0,-1,825,484,0.0863201,11.3801
-392,540,-0.517395,-10.6735,0,0,0,0,0,0,0,-1,832,484,-0.517377,10.6735
-385,540,-2.29407,-5.03418,0,0,0,0,0,0,0,-1,839,484,-2.29408,5.03418
-378,540,1.06445,-10.5824,0,0,0,0,0,0,0,-1,846,484,1.06446,10.5824
-371,540,-0.993774,-21.3174,0,0,0,0,0,0,0,-1,853,484,-0.993784,21.3174
-364,540,-0.631165,-22.0405,0.0136175,0.0249532,-0.0150472,0.0353646,0.00320607,-0.965515,0.0225837,0.0488346,860,484,-0.631182,22.0405
-357,540,-0.364624,-22.4699,0.0105195,0.0208339,-0.0120118,0.0287488,0.00260465,-0.988171,0.0183594,0.0474531,867,484,-0.364646,22.4699
-350,540,0.0446777,-23.197,0.00769451,0.0172419,-0.00927001,0.0228952,0.00204127,-1.02317,0.0146306,0.0382437,874,484,0.0446726,23.197
-343,540,0.0161743,-24.1727,0.00539839,0.0141511,-0.00705566,0.0180775,0.00147206,-1.06299,0.0115922,0.0203167,881,484,0.016192,24.1727
-336,540,-0.0692749,-24.9833,0.00369328,0.0115462,-0.00527636,0.0141968,0.00104273,-1.10528,0.00913678,0.0133826,888,484,-0.0692454,24.9833
-329,540,-0.115784,-25.6133,0.00246522,0.00934216,-0.00391267,0.0111125,0.000694845,-1.14589,0.00718794,0.0103362,895,484,-0.115762,25.6133
-322,540,-0.149902,-26.2456,0.00159403,0.00732829,-0.00282712,0.0084877,0.000434619,-1.18161,0.0055193,0.0147278,902,484,-0.149932,26.2456
-315,540,-0.191101,-26.866,0.0010925,0.00568795,-0.00200192,0.00643772,0.000342728,-1.21244,0.00418226,0.0135949,909,484,-0.191099,26.866
-308,540,-0.191162,-27.471,0.000611366,0.00441868,-0.00135397,0.00485107,0.000178968,-1.26168,0.00317607,0.0126841,916,484,-0.191183,27.471
-301,540,-0.220276,-28.0659,0.000451572,0.00313491,-0.000898613,0.00340804,0.00017844,-1.27572,0.00221494,0.012974,923,484,-0.220272,28.0659
-294,540,-0.246216,-28.6811,0.000601373,0.0020638,-0.000524695,0.00223258,0.000432599,-1.25959,0.00136719,0.011982,930,484,-0.246195,28.6811
-287,540,-0.259338,-29.3043,0.000871325,0.0011573,-0.000122952,0.00120289,0.000825732,-1.21569,0.000710404,0.0087353,937,484,-0.259346,29.3043
-280,540,-0.277344,-29.9139,0.00115951,5.1617e-05,0.000261474,0.00121812,-6.99254e-06,0.220506,0.000814423,0.0103514,944,484,-0.277321,29.9139
-273,540,-0.286621,-30.518,0.00146469,-0.00100291,0.000669344,0.00163456,-0.00117278,0.248536,0.00162811,0.0121949,951,484,-0.286591,30.518
-266,540,-0.299133,-31.1067,0.00164318,-0.00227968,0.000929274,0.00185218,-0.00248868,0.221224,0.00251516,0.0130114,958,484,-0.299107,31.1067
-259,540,-0.325134,-31.6949,0.00171916,-0.00349862,0.00130337,0.00202662,-0.00380608,0.23166,0.00341935,0.012151,965,484,-0.325159,31.6949
-252,540,-0.326904,-32.2497,0.00184488,-0.00474495,0.00186021,0.00233373,-0.00523379,0.25698,0.00447477,0.0114152,972,484,-0.326882,32.2497
-245,540,-0.317688,-32.8027,0.00187924,-0.00627239,0.00234262,0.0025045,-0.00689766,0.260827,0.00562239,0.0120256,979,484,-0.317677,32.8027
-238,540,-0.345947,-33.3542,0.00185058,-0.00794076,0.00281479,0.00260209,-0.00869227,0.2609,0.0068295,0.00989739,986,484,-0.345947,33.3542
-231,540,-0.335266,-33.8857,0.00176896,-0.0096746,0.00330228,0.00265353,-0.0105592,0.261721,0.0080707,0.0140381,993,484,-0.335294,33.8857
-224,540,-0.34259,-34.3693,0.00141014,-0.0115307,0.00394438,0.00251761,-0.0126382,0.273725,0.009378,0.0231941,1000,484,-0.342569,34.3693
-217,540,-0.356445,-34.7257,0.000948603,-0.013472,0.00471538,0.00235359,-0.014877,0.289583,0.0107884,0.0342636,1007,484,-0.356438,34.7257
-210,540,-0.359375,-35.2122,0.00052079,-0.0153503,0.00553788,0.00226207,-0.0170916,0.304643,0.0122184,0.0444605,1014,484,-0.359397,35.2122
-203,540,-0.432434,-35.7391,0.000233277,-0.0171836,0.00640342,0.00233413,-0.0192845,0.317017,0.0137008,0.0480281,1021,484,-0.432463,35.7391
-196,540,-0.488403,-36.0306,0,0,0,0,0,0,0,-1,1028,484,-0.48841,36.0306
-189,540,-0.726807,-22.826,0,0,0,0,0,0,0,-1,1035,484,-0.72684,22.8259
-182,540,0.109375,-15.2948,0,0,0,0,0,0,0,-1,1042,484,0.109331,15.2948
-175,540,1.73413,-10.728,0,0,0,0,0,0,0,-1,1049,484,1.73414,10.728
-168,540,1.18164,-7.65347,0,0,0,0,0,0,0,-1,1056,484,1.18163,7.65347
-161,540,-0.405884,-9.86481,0,0,0,0,0,0,0,-1,1063,484,-0.405886,9.8648
-154,540,1.96863,-22.0727,0,0,0,0,0,0,0,-1,1070,484,1.96859,22.0727
-147,540,1.32764,-21.9952,0,0,0,0,0,0,0,-1,1077,484,1.32762,21.9952
-140,540,1.40735,-15.6289,0,0,0,0,0,0,0,-1,1084,484,1.4073,15.6289
-133,540,2.28345,-17.6413,0,0,0,0,0,0,0,-1,1091,484,2.2835,17.6413
-126,540,1.25293,-23.9108,0,0,0,0,0,0,0,-1,1098,484,1.25288,23.9108
-119,540,1.55969,-23.0125,0,0,0,0,0,0,0,-1,1105,484,1.55968,23.0125
-112,540,1.4801,-21.6515,0,0,0,0,0,0,0,-1,1112,484,1.4801,21.6515
-105,540,1.30078,-19.8938,0,0,0,0,0,0,0,-1,1119,484,1.30077,19.8938
-98,540,1.08105,-18.1304,0,0,0,0,0,0,0,-1,1126,484,1.08101,18.1304
-91,540,1.56519,-7.48666,0,0,0,0,0,0,0,-1,1133,484,1.56514,7.48667
-84,540,-0.945923,4.43073,0,0,0,0,0,0,0,-1,1140,484,-0.945891,-4.43074
-77,540,-2.28894,2.14368,0,0,0,0,0,0,0,-1,1147,484,-2.28894,-2.14368
-70,540,-3.75244,-0.452576,0,0,0,0,0,0,0,-1,1154,484,-3.75244,0.452576
-63,540,-5.26257,-3.04767,0,0,0,0,0,0,0,-1,1161,484,-5.26262,3.04766
-56,540,-5.19055,-6.12595,0,0,0,0,0,0,0,-1,1168,484,-5.19057,6.12595
-49,540,-5.63867,-8.52298,0,0,0,0,0,0,0,-1,1175,484,-5.63871,8.52298
-42,540,0,0,0,0,0,0,0,0,0,-1,1182,484,0,0
-35,540,0,0,0,0,0,0,0,0,0,-1,1189,484,0,0
-28,540,0,0,0,0,0,0,0,0,0,-1,1196,484,0,0
-21,540,0,0,0,0,0,0,0,0,0,-1,1203,484,0,0
-14,540,0,0,0,0,0,0,0,0,0,-1,1210,484,0,0
-7,540,0,0,0,0,0,0,0,0,0,-1,1217,484,0,0
0,540,0,0,0,0,0,0,0,0,0,-1,1224,484,0,0
7,540,0,0,0,0,0,0,0,0,0,-1,1231,484,0,0
14,540,0,0,0,0,0,0,0,0,0,-1,1238,484,0,0
21,540,0,0,0,0,0,0,0,0,0,-1,1245,484,0,0
28,540,0,0,0,0,0,0,0,0,0,-1,1252,484,0,0
35,540,0,0,0,0,0,0,0,0,0,-1,1259,484,0,0
42,540,0,0,0,0,0,0,0,0,0,-1,1266,484,0,0
49,540,0,0,0,0,0,0,0,0,0,-1,1273,484,0,0
56,540,0,0,0,0,0,0,0,0,0,-1,1280,484,0,0
63,540,0,0,0,0,0,0,0,0,0,-1,1287,484,0,0
70,540,0,0,0,0,0,0,0,0,0,-1,1294,484,0,0
77,540,0,0,0,0,0,0,0,0,0,-1,1301,484,0,0
84,540,0,0,0,0,0,0,0,0,0,-1,1308,484,0,0
91,540,0,0,0,0,0,0,0,0,0,-1,1315,484,0,0
98,540,0,0,0,0,0,0,0,0,0,-1,1322,484,0,0
105,540,0,0,0,0,0,0,0,0,0,-1,1329,484,0,0
112,540,0,0,0,0,0,0,0,0,0,-1,1336,484,0,0
119,540,0,0,0,0,0,0,0,0,0,-1,1343,484,0,0
126,540,0,0,0,0,0,0,0,0,0,-1,1350,484,0,0
133,540,0,0,0,0,0,0,0,0,0,-1,1357,484,0,0
140,540,0,0,0,0,0,0,0,0,0,-1,1364,484,0,0
147,540,0,0,0,0,0,0,0,0,0,-1,1371,484,0,0
154,540,0,0,0,0,0,0,0,0,0,-1,1378,484,0,0
161,540,0,0,0,0,0,0,0,0,0,-1,1385,484,0,0
168,540,3.05078,-0.0010376,0,0,0,0,0,0,0,-1,1392,484,3.05084,0.00102554
175,540,3.37708,0.617035,0,0,0,0,0,0,0,-1,1399,484,3.37707,-0.617046
182,540,3.32678,1.23267,0,0,0,0,0,0,0,-1,1406,484,3.32678,-1.23266
189,540,3.5813,2.15619,0,0,0,0,0,0,0,-1,1413,484,3.58129,-2.1562
196,540,1.84448,-0.801483,0,0,0,0,0,0,0,-1,1420,484,1.84446,0.80148
203,540,4.14648,0.702087,0,0,0,0,0,0,0,-1,1427,484,4.14645,-0.702089
210,540,4.50671,-0.56076,0,0,0,0,0,0,0,-1,1434,484,4.50667,0.560771
217,540,5.00452,-0.278717,0,0,0,0,0,0,0,-1,1441,484,5.00452,0.278709
224,540,6.44458,-2.83527,0,0,0,0,0,0,0,-1,1448,484,6.44457,2.83525
231,540,6.9231,-3.10504,0,0,0,0,0,0,0,-1,1455,484,6.92307,3.10505
238,540,6.4823,-2.58365,0,0,0,0,0,0,0,-1,1462,484,6.48225,2.58363
245,540,6.02087,-1.97916,0,0,0,0,0,0,0,-1,1469,484,6.02088,1.97915
252,540,6.50647,-3.56006,0,0,0,0,0,0,0,-1,1476,484,6.50649,3.56006
259,540,6.01941,-2.798,0,0,0,0,0,0,0,-1,1483,484,6.01941,2.79801
266,540,5.5332,-2.02853,0,0,0,0,0,0,0,-1,1490,484,5.53323,2.02855
273,540,5.06787,-1.28137,0,0,0,0,0,0,0,-1,1497,484,5.06786,1.28136
280,540,1.62903,-2.14609,0,0,0,0,0,0,0,-1,1504,484,1.62906,2.1461
287,540,1.97156,-2.45053,0,0,0,0,0,0,0,-1,1511,484,1.97159,2.45053
294,540,2.44165,-2.6185,0,0,0,0,0,0,0,-1,1518,484,2.44167,2.6185
301,540,4.36169,-2.54272,0,0,0,0,0,0,0,-1,1525,484,4.36165,2.54272
308,540,4.2019,-4.30469,0,0,0,0,0,0,0,-1,1532,484,4.20193,4.3047
315,540,4.45923,-5.32101,0,0,0,0,0,0,0,-1,1539,484,4.45923,5.32103
322,540,4.71655,-6.33737,0,0,0,0,0,0,0,-1,1546,484,4.71653,6.33736
329,540,5.8949,-12.9383,0,0,0,0,0,0,0,-1,1553,484,5.89492,12.9383
336,540,12.2727,-35.3146,0,0,0,0,0,0,0,-1,1560,484,12.2727,35.3146
343,540,12.364,-34.667,0,0,0,0,0,0,0,-1,1567,484,12.364,34.667
350,540,12.1786,-33.9316,0,0,0,0,0,0,0,-1,1574,484,12.1786,33.9316
357,540,12.2947,-33.0328,0.00257165,-0.00626844,-0.00449614,0.00445653,-0.00815332,-0.396966,0.00738385,0.0439814,1581,484,12.2947,33.0328
364,540,12.1781,-32.6405,0.00205271,-0.00523152,-0.00396369,0.00379352,-0.00697232,-0.413827,0.00630533,0.0250881,1588,484,12.1781,32.6405
371,540,12.1805,-32.1165,0.00164348,-0.00424775,-0.00340533,0.00320041,-0.00580469,-0.428829,0.00527107,0.0163849,1595,484,12.1805,32.1165
378,540,12.2036,-31.5157,0.0012425,-0.00298212,-0.00277961,0.00262133,-0.00436095,-0.460485,0.00407271,0.0131599,1602,484,12.2036,31.5157
385,540,12.2051,-30.9185,0.000903883,-0.00201526,-0.00204104,0.00195353,-0.00306491,-0.475,0.00292099,0.0148877,1609,484,12.205,30.9184
392,540,12.1705,-30.3013,0.000618067,-0.00139971,-0.00146029,0.00138409,-0.00216573,-0.483108,0.00206598,0.0131651,1616,484,12.1705,30.3013
399,540,12.13,-29.719,0.000564593,-0.000528179,-0.00090435,0.0010748,-0.00103839,-0.513656,0.00122011,0.016747,1623,484,12.13,29.719
406,540,12.1349,-29.1176,0.00067354,0.000420551,-0.000347418,0.000916775,0.000177316,-0.610808,0.00056149,0.0179505,1630,484,12.1349,29.1175
413,540,12.1229,-28.4602,0.00086253,0.00146772,0.000273552,0.00157304,0.000757211,1.20328,0.000908407,0.014719,1637,484,12.123,28.4602
420,540,12.1154,-27.826,0.000988228,0.00219972,0.000786833,0.00258697,0.000600982,1.11344,0.00156331,0.0138586,1644,484,12.1153,27.826
427,540,12.0782,-27.1839,0.00109537,0.0025222,0.00130458,0.00329569,0.000321879,1.03561,0.00209808,0.0138178,1651,484,12.0782,27.1839
434,540,12.0323,-26.5568,0.00121961,0.00284643,0.00178683,0.00399629,6.97575e-05,0.998993,0.00264125,0.0152272,1658,484,12.0324,26.5568
441,540,12.0399,-25.9292,0.00127045,0.00297748,0.00228827,0.00456623,-0.000318301,0.963905,0.00315561,0.0180559,1665,484,12.0399,25.9292
448,540,11.9999,-25.2761,0.00123666,0.00275276,0.00274907,0.00484638,-0.000856962,0.919928,0.00355121,0.0112032,1672,484,11.9999,25.2761
455,540,11.9677,-24.6057,0.00126094,0.00227697,0.00328126,0.00508931,-0.0015514,0.862199,0.00401128,0.0107308,1679,484,11.9676,24.6057
462,540,11.9127,-23.9373,0.00147088,0.00158422,0.00412644,0.00565438,-0.00259928,0.792264,0.00487285,0.0109737,1686,484,11.9128,23.9373
469,540,11.8541,-23.2566,0.00161592,0.000798018,0.00499994,0.00622361,-0.00380967,0.744593,0.00584833,0.0145277,1693,484,11.8541,23.2566
476,540,11.8262,-22.5883,0.00169418,0.000213354,0.00618228,0.00718023,-0.00527269,0.7258,0.00721776,0.0201721,1700,484,11.8262,22.5884
483,540,11.8516,-21.8305,0.00205503,-0.000548668,0.00763625,0.0084996,-0.00699325,0.700969,0.00895888,0.0337536,1707,484,11.8515,21.8305
490,540,12.0074,-21.0006,0,0,0,0,0,0,0,-1,1714,484,12.0074,21.0006
497,540,10.3452,-16.9359,0,0,0,0,0,0,0,-1,1721,484,10.3453,16.9359
504,540,12.519,-18.0764,0,0,0,0,0,0,0,-1,1728,484,12.519,18.0765
511,540,5.82471,-6.83521,0,0,0,0,0,0,0,-1,1735,484,5.82465,6.83522
518,540,9.98181,-12.4608,0,0,0,0,0,0,0,-1,1742,484,9.98187,12.4608
525,540,12.4843,-16.3481,0,0,0,0,0,0,0,-1,1749,484,12.4842,16.3481
532,540,2.84265,-1.07925,0,0,0,0,0,0,0,-1,1756,484,2.84269,1.07927
539,540,0,0,0,0,0,0,0,0,0,-1,1763,484,0,0
546,540,0,0,0,0,0,0,0,0,0,-1,1770,484,0,0
553,540,0,0,0,0,0,0,0,0,0,-1,1777,484,0,0
560,540,0,0,0,0,0,0,0,0,0,-1,1784,484,0,0
567,540,0,0,0,0,0,0,0,0,0,-1,1791,484,0,0
574,540,0,0,0,0,0,0,0,0,0,-1,1798,484,0,0
581,540,0,0,0,0,0,0,0,0,0,-1,1805,484,0,0
588,540,0,0,0,0,0,0,0,0,0,-1,1812,484,0,0
595,540,0,0,0,0,0,0,0,0,0,-1,1819,484,0,0
602,540,0,0,0,0,0,0,0,0,0,-1,1826,484,0,0
609,540,0,0,0,0,0,0,0,0,0,-1,1833,484,0,0
616,540,0,0,0,0,0,0,0,0,0,-1,1840,484,0,0
623,540,0,0,0,0,0,0,0,0,0,-1,1847,484,0,0
630,540,0,0,0,0,0,0,0,0,0,-1,1854,484,0,0
637,540,0,0,0,0,0,0,0,0,0,-1,1861,484,0,0
644,540,0,0,0,0,0,0,0,0,0,-1,1868,484,0,0
651,540,0,0,0,0,0,0,0,0,0,-1,1875,484,0,0
658,540,0,0,0,0,0,0,0,0,0,-1,1882,484,0,0
665,540,0,0,0,0,0,0,0,0,0,-1,1889,484,0,0
672,540,0,0,0,0,0,0,0,0,0,-1,1896,484,0,0
679,540,0,0,0,0,0,0,0,0,0,-1,1903,484,0,0
686,540,0,0,0,0,0,0,0,0,0,-1,1910,484,0,0
693,540,0,0,0,0,0,0,0,0,0,-1,1917,484,0,0
700,540,0,0,0,0,0,0,0,0,0,-1,1924,484,0,0
707,540,0,0,0,0,0,0,0,0,0,-1,1931,484,0,0
714,540,0,0,0,0,0,0,0,0,0,-1,1938,484,0,0
721,540,0,0,0,0,0,0,0,0,0,-1,1945,484,0,0
728,540,0,0,0,0,0,0,0,0,0,-1,1952,484,0,0
735,540,0,0,0,0,0,0,0,0,0,-1,1959,484,0,0
742,540,0,0,0,0,0,0,0,0,0,-1,1966,484,0,0
749,540,0,0,0,0,0,0,0,0,0,-1,1973,484,0,0
756,540,0,0,0,0,0,0,0,0,0,-1,1980,484,0,0
763,540,0,0,0,0,0,0,0,0,0,-1,1987,484,0,0
770,540,0,0,0,0,0,0,0,0,0,-1,1994,484,0,0
777,540,0,0,0,0,0,0,0,0,0,-1,2001,484,0,0
784,540,0,0,0,0,0,0,0,0,0,-1,2008,484,0,0
791,540,0,0,0,0,0,0,0,0,0,-1,2015,484,0,0
798,540,0,0,0,0,0,0,0,0,0,-1,2022,484,0,0
805,540,0,0,0,0,0,0,0,0,0,-1,2029,484,0,0
812,540,0,0,0,0,0,0,0,0,0,-1,2036,484,0,0
-700,533,0,0,0,0,0,0,0,0,0,-1,524,491,0,0
-693,533,0,0,0,0,0,0,0,0,0,-1,531,491,0,0
-686,533,0,0,0,0,0,0,0,0,0,-1,538,491,0,0
-679,533,0,0,0,0,0,0,0,0,0,-1,545,491,0,0
-672,533,0,0,0,0,0,0,0,0,0,-1,552,491,0,0
-665,533,0,0,0,0,0,0,0,0,0,-1,559,491,0,0
-658,533,0,0,0,0,0,0,0,0,0,-1,566,491,0,0
-651,533,0,0,0,0,0,0,0,0,0,-1,573,491,0,0
-644,533,0,0,0,0,0,0,0,0,0,-1,580,491,0,0
-637,533,0,0,0,0,0,0,0,0,0,-1,587,491,0,0
-630,533,0,0,0,0,0,0,0,0,0,-1,594,491,0,0
-623,533,0,0,0,0,0,0,0,0,0,-1,601,491,0,0
-616,533,0,0,0,0,0,0,0,0,0,-1,608,491,0,0
-609,533,0,0,0,0,0,0,0,0,0,-1,615,491,0,0
-602,533,0,0,0,0,0,0,0,0,0,-1,622,491,0,0
-595,533,0,0,0,0,0,0,0,0,0,-1,629,491,0,0
-588,533,0,0,0,0,0,0,0,0,0,-1,636,491,0,0
-581,533,0,0,0,0,0,0,0,0,0,-1,643,491,0,0
-574,533,0,0,0,0,0,0,0,0,0,-1,650,491,0,0
-567,533,0,0,0,0,0,0,0,0,0,-1,657,491,0,0
-560,533,0,0,0,0,0,0,0,0,0,-1,664,491,0,0
-553,533,0,0,0,0,0,0,0,0,0,-1,671,491,0,0
-546,533,0,0,0,0,0,0,0,0,0,-1,678,491,0,0
-539,533,0,0,0,0,0,0,0,0,0,-1,685,491,0,0
-532,533,0,0,0,0,0,0,0,0,0,-1,692,491,0,0
-525,533,0,0,0,0,0,0,0,0,0,-1,699,491,0,0
-518,533,0,0,0,0,0,0,0,0,0,-1,706,491,0,0
-511,533,0,0,0,0,0,0,0,0,0,-1,713,491,0,0
-504,533,0,0,0,0,0,0,0,0,0,-1,720,491,0,0
-497,533,0,0,0,0,0,0,0,0,0,-1,727,491,0,0
-490,533,0,0,0,0,0,0,0,0,0,-1,734,491,0,0
-483,533,0,0,0,0,0,0,0,0,0,-1,741,491,0,0
-476,533,0,0,0,0,0,0,0,0,0,-1,748,491,0,0
-469,533,0,0,0,0,0,0,0,0,0,-1,755,491,0,0
-462,533,0,0,0,0,0,0,0,0,0,-1,762,491,0,0
-455,533,0,0,0,0,0,0,0,0,0,-1,769,491,0,0
-448,533,0,0,0,0,0,0,0,0,0,-1,776,491,0,0
-441,533,0,0,0,0,0,0,0,0,0,-1,783,491,0,0
-434,533,0,0,0,0,0,0,0,0,0,-1,790,491,0,0
-427,533,0.559814,-4.40222,0,0,0,0,0,0,0,-1,797,491,0.559816,4.40222
-420,533,-1.11127,-10.9054,0,0,0,0,0,0,0,-1,804,491,-1.11124,10.9054
-413,533,-0.704773,-11.0942,0,0,0,0,0,0,0,-1,811,491,-0.704742,11.0942
-406,533,-0.670898,-12.0899,0,0,0,0,0,0,0,-1,818,491,-0.670908,12.0899
-399,533,-0.455017,-12.4423,0,0,0,0,0,0,0,-1,825,491,-0.455032,12.4423
-392,533,-1.89661,-10.3905,0,0,0,0,0,0,0,-1,832,491,-1.89661,10.3905
-385,533,0.797729,-17.0485,0,0,0,0,0,0,0,-1,839,491,0.797746,17.0485
-378,533,-2.22125,-20.0308,0,0,0,0,0,0,0,-1,846,491,-2.22126,20.0308
-371,533,-0.486511,-21.0417,0,0,0,0,0,0,0,-1,853,491,-0.486515,21.0417
-364,533,-0.918701,-22.1266,0.0108459,0.0206881,-0.0132604,0.0299111,0.00162289,-0.963078,0.0194224,0.0408306,860,491,-0.91868,22.1266
-357,533,-0.571411,-22.7792,0.00854382,0.0171975,-0.0106584,0.0243739,0.00136746,-0.978213,0.0158131,0.0269581,867,491,-0.571404,22.7792
-350,533,-0.564636,-23.5543,0.00638062,0.0141048,-0.0082772,0.0193766,0.00110884,-1.00368,0.0125644,0.0150067,874,491,-0.564633,23.5543
-343,533,-0.599426,-24.2739,0.004579,0.0113881,-0.00630124,0.0151457,0.000821372,-1.03308,0.00983477,0.0124854,881,491,-0.599415,24.2739
-336,533,-0.679077,-24.9557,0.0031809,0.00905795,-0.0046509,0.0116209,0.000617989,-1.06714,0.00754968,0.0159813,888,491,-0.679078,24.9557
-329,533,-0.728333,-25.5695,0.0021397,0.00712312,-0.00335119,0.00880743,0.000455394,-1.10507,0.00572586,0.0148282,895,491,-0.728354,25.5695
-322,533,-0.751221,-26.1996,0.00140063,0.00533943,-0.00229118,0.00639129,0.00034876,-1.14041,0.0041495,0.0118351,902,491,-0.751192,26.1996
-315,533,-0.803223,-26.8273,0.000987732,0.00384518,-0.00145503,0.00445566,0.000377251,-1.17354,0.00285302,0.0130391,909,491,-0.803249,26.8273
-308,533,-0.817932,-27.4438,0.00064518,0.00268631,-0.000798947,0.00296184,0.000369647,-1.2387,0.0018636,0.0123893,916,491,-0.817946,27.4439
-301,533,-0.854187,-28.0345,0.000575896,0.00156905,-0.000330657,0.00166906,0.000475881,-1.27707,0.000992854,0.0135578,923,491,-0.854177,28.0346
-294,533,-0.85199,-28.6506,0.000787628,0.000658826,8.27094e-05,0.000828052,0.000618402,0.454608,0.000497113,0.0130632,930,491,-0.851968,28.6506
-287,533,-0.849548,-29.2795,0.00113804,-0.000135833,0.000500242,0.00131099,-0.000308792,0.332884,0.000993061,0.0102414,937,491,-0.849537,29.2795
-280,533,-0.870728,-29.8938,0.00148006,-0.00125795,0.000951319,0.00177814,-0.00155604,0.303647,0.00192641,0.00981733,944,491,-0.870757,29.8938
-273,533,-0.895691,-30.4875,0.00179825,-0.00232704,0.0014341,0.00224781,-0.0027766,0.303773,0.00290619,0.013033,951,491,-0.895709,30.4875
-266,533,-0.901367,-31.0703,0.00198975,-0.003529,0.00165628,0.00244866,-0.00398792,0.270297,0.00375142,0.0122651,958,491,-0.901358,31.0703
-259,533,-0.896667,-31.6512,0.0020813,-0.00462965,0.00196679,0.00261523,-0.00516358,0.265084,0.00457072,0.0124843,965,491,-0.896667,31.6512
-252,533,-0.915955,-32.2391,0.00226165,-0.00586225,0.00242692,0.00293145,-0.00653204,0.269281,0.00559401,0.0190967,972,491,-0.915942,32.2392
-245,533,-0.986694,-32.7797,0.00222712,-0.00750536,0.00283591,0.00299317,-0.00827141,0.263828,0.00673739,0.0340898,979,491,-0.986673,32.7797
-238,533,-0.833496,-33.2573,0.00203117,-0.00930092,0.0031877,0.00286632,-0.0101361,0.256231,0.00788836,0.0367518,986,491,-0.833475,33.2573
-231,533,-0.762817,-33.5121,0.00176403,-0.0111056,0.00351562,0.00266178,-0.0120034,0.250015,0.00902137,0.0451647,993,491,-0.762832,33.5122
-224,533,-0.861145,-34.3094,0,0,0,0,0,0,0,-1,1000,491,-0.861167,34.3094
-217,533,-0.647522,-34.6738,0.00023347,-0.0150481,0.00477012,0.00160022,-0.0164148,0.279047,0.0115137,0.0436855,1007,491,-0.647506,34.6738
-210,533,-0.847229,-35.2509,-0.000591994,-0.0170441,0.00557623,0.00111988,-0.018756,0.297861,0.0128935,0.0480837,1014,491,-0.847225,35.2508
-203,533,-1.08063,-35.8121,0,0,0,0,0,0,0,-1,1021,491,-1.08061,35.8121
-196,533,0.688354,-19.5743,0,0,0,0,0,0,0,-1,1028,491,0.688406,19.5743
-189,533,-0.169189,-15.0303,0,0,0,0,0,0,0,-1,1035,491,-0.169241,15.0303
-182,533,1.26123,-11.4969,0,0,0,0,0,0,0,-1,1042,491,1.26128,11.4969
-175,533,0.937744,-7.36966,0,0,0,0,0,0,0,-1,1049,491,0.937769,7.36965
-168,533,2.64807,-2.7543,0,0,0,0,0,0,0,-1,1056,491,2.64812,2.7543
-161,533,1.91833,-1.76553,0,0,0,0,0,0,0,-1,1063,491,1.91836,1.76554
-154,533,0.376709,-11.0633,0,0,0,0,0,0,0,-1,1070,491,0.376715,11.0632
-147,533,0.383789,-12.1586,0,0,0,0,0,0,0,-1,1077,491,0.383829,12.1586
-140,533,1.14001,-15.4608,0,0,0,0,0,0,0,-1,1084,491,1.14005,15.4608
-133,533,0.189941,-16.0795,0,0,0,0,0,0,0,-1,1091,491,0.18994,16.0795
-126,533,2.89612,-2.59003,0,0,0,0,0,0,0,-1,1098,491,2.89608,2.59003
-119,533,1.78284,-22.5394,0,0,0,0,0,0,0,-1,1105,491,1.78279,22.5394
-112,533,1.83862,-21.2401,0,0,0,0,0,0,0,-1,1112,491,1.83859,21.24
-105,533,1.67554,-19.4018,0,0,0,0,0,0,0,-1,1119,491,1.6755,19.4018
-98,533,-1.39392,-5.16367,0,0,0,0,0,0,0,-1,1126,491,-1.39394,5.16367
-91,533,0.367432,4.49753,0,0,0,0,0,0,0,-1,1133,491,0.367468,-4.49754
-84,533,-0.88623,3.03604,0,0,0,0,0,0,0,-1,1140,491,-0.886288,-3.03605
-77,533,0,0,0,0,0,0,0,0,0,-1,1147,491,0,0
-70,533,0,0,0,0,0,0,0,0,0,-1,1154,491,0,0
-63,533,0,0,0,0,0,0,0,0,0,-1,1161,491,0,0
-56,533,0,0,0,0,0,0,0,0,0,-1,1168,491,0,0
-49,533,0,0,0,0,0,0,0,0,0,-1,1175,491,0,0
-42,533,0,0,0,0,0,0,0,0,0,-1,1182,491,0,0
-35,533,0,0,0,0,0,0,0,0,0,-1,1189,491,0,0
-28,533,0,0,0,0,0,0,0,0,0,-1,1196,491,0,0
-21,533,0,0,0,0,0,0,0,0,0,-1,1203,491,0,0
-14,533,0,0,0,0,0,0,0,0,0,-1,1210,491,0,0
-7,533,0,0,0,0,0,0,0,0,0,-1,1217,491,0,0
0,533,0,0,0,0,0,0,0,0,0,-1,1224,491,0,0
7,533,0,0,0,0,0,0,0,0,0,-1,1231,491,0,0
14,533,0,0,0,0,0,0,0,0,0,-1,1238,491,0,0
21,533,0,0,0,0,0,0,0,0,0,-1,1245,491,0,0
28,533,0,0,0,0,0,0,0,0,0,-1,1252,491,0,0
35,533,0,0,0,0,0,0,0,0,0,-1,1259,491,0,0
42,533,0,0,0,0,0,0,0,0,0,-1,1266,491,0,0
49,533,0,0,0,0,0,0,0,0,0,-1,1273,491,0,0
56,533,0,0,0,0,0,0,0,0,0,-1,1280,491,0,0
63,533,0,0,0,0,0,0,0,0,0,-1,1287,491,0,0
70,533,0,0,0,0,0,0,0,0,0,-1,1294,491,0,0
77,533,0,0,0,0,0,0,0,0,0,-1,1301,491,0,0
84,533,0,0,0,0,0,0,0,0,0,-1,1308,491,0,0
91,533,0,0,0,0,0,0,0,0,0,-1,1315,491,0,0
98,533,0,0,0,0,0,0,0,0,0,-1,1322,491,0,0
105,533,0,0,0,0,0,0,0,0,0,-1,1329,491,0,0
112,533,0,0,0,0,0,0,0,0,0,-1,1336,491,0,0
119,533,0,0,0,0,0,0,0,0,0,-1,1343,491,0,0
126,533,0,0,0,0,0,0,0,0,0,-1,1350,491,0,0
133,533,0,0,0,0,0,0,0,0,0,-1,1357,491,0,0
140,533,0,0,0,0,0,0,0,0,0,-1,1364,491,0,0
147,533,0,0,0,0,0,0,0,0,0,-1,1371,491,0,0
154,533,0,0,0,0,0,0,0,0,0,-1,1378,491,0,0
161,533,0,0,0,0,0,0,0,0,0,-1,1385,491,0,0
168,533,0,0,0,0,0,0,0,0,0,-1,1392,491,0,0
175,533,0,0,0,0,0,0,0,0,0,-1,1399,491,0,0
182,533,0,0,0,0,0,0,0,0,0,-1,1406,491,0,0
189,533,0,0,0,0,0,0,0,0,0,-1,1413,491,0,0
196,533,0,0,0,0,0,0,0,0,0,-1,1420,491,0,0
203,533,3.7887,1.16193,0,0,0,0,0,0,0,-1,1427,491,3.78872,-1.16193
210,533,5.09558,-0.216034,0,0,0,0,0,0,0,-1,1434,491,5.09559,0.216028
217,533,6.91614,-2.46814,0,0,0,0,0,0,0,-1,1441,491,6.91618,2.46814
224,533,7.23621,-2.1857,0,0,0,0,0,0,0,-1,1448,491,7.23621,2.1857
231,533,7.23474,-1.92282,0,0,0,0,0,0,0,-1,1455,491,7.2347,1.92282
238,533,7.23535,-1.67258,0,0,0,0,0,0,0,-1,1462,491,7.23539,1.67258
245,533,6.86682,-1.2301,0,0,0,0,0,0,0,-1,1469,491,6.86686,1.23011
252,533,6.63354,-3.07825,0,0,0,0,0,0,0,-1,1476,491,6.6335,3.07824
259,533,6.16431,-2.35037,0,0,0,0,0,0,0,-1,1483,491,6.1643,2.35037
266,533,5.68884,-1.6214,0,0,0,0,0,0,0,-1,1490,491,5.68885,1.6214
273,533,5.21399,-0.864227,0,0,0,0,0,0,0,-1,1497,491,5.21403,0.864227
280,533,1.41089,-1.97946,0,0,0,0,0,0,0,-1,1504,491,1.41087,1.97946
287,533,1.6814,-2.44443,0,0,0,0,0,0,0,-1,1511,491,1.6814,2.44444
294,533,2.2384,-2.57626,0,0,0,0,0,0,0,-1,1518,491,2.23839,2.57625
301,533,3.39941,-4.0817,0,0,0,0,0,0,0,-1,1525,491,3.3994,4.08171
308,533,4.13733,-4.14752,0,0,0,0,0,0,0,-1,1532,491,4.13727,4.14752
315,533,4.80762,-5.29349,0,0,0,0,0,0,0,-1,1539,491,4.80762,5.29347
322,533,5.47803,-6.43942,0,0,0,0,0,0,0,-1,1546,491,5.47798,6.43943
329,533,3.88477,-3.86301,0,0,0,0,0,0,0,-1,1553,491,3.88475,3.86299
336,533,6.70923,-13.2003,0,0,0,0,0,0,0,-1,1560,491,6.70926,13.2004
343,533,7.06677,-17.1133,0,0,0,0,0,0,0,-1,1567,491,7.06673,17.1133
350,533,10.0876,-23.7254,0,0,0,0,0,0,0,-1,1574,491,10.0877,23.7254
357,533,12.8693,-32.8129,0,0,0,0,0,0,0,-1,1581,491,12.8692,32.8129
364,533,12.698,-32.6604,0,0,0,0,0,0,0,-1,1588,491,12.698,32.6604
371,533,12.6655,-32.171,0,0,0,0,0,0,0,-1,1595,491,12.6655,32.1709
378,533,12.7139,-31.4559,0.00130932,-0.00363953,-0.00379746,0.00336738,-0.0056976,-0.496649,0.00529099,0.0379805,1602,491,12.7138,31.4559
385,533,12.8356,-30.861,0.00092766,-0.00269288,-0.00290301,0.00253859,-0.0043038,-0.506609,0.00399403,0.0251591,1609,491,12.8356,30.861
392,533,12.8209,-30.2918,0.00049563,-0.00227933,-0.00233159,0.00182135,-0.00360504,-0.517002,0.00318885,0.0136388,1616,491,12.8209,30.2918
399,533,12.7842,-29.7127,0.000334335,-0.00149326,-0.00181855,0.00145576,-0.00261469,-0.55258,0.00238162,0.013235,1623,491,12.7841,29.7127
406,533,12.7711,-29.1022,0.000425307,-0.000630512,-0.00126466,0.00126782,-0.00147302,-0.587676,0.0015839,0.0166235,1630,491,12.7711,29.1021
413,533,12.7441,-28.4438,0.000629913,0.000369815,-0.000579356,0.00109364,-9.39087e-05,-0.674992,0.000762325,0.0145722,1637,491,12.7442,28.4438
420,533,12.7139,-27.8049,0.000746906,0.00107511,-3.40568e-05,0.00107861,0.00074341,-1.46848,0.000637426,0.0142418,1644,491,12.7139,27.8049
427,533,12.6993,-27.1419,0.00083679,0.00152647,0.000476577,0.00176988,0.000593377,1.09858,0.00104016,0.0151495,1651,491,12.6994,27.1419
434,533,12.6708,-26.5273,0.000912772,0.00189253,0.000959611,0.00248007,0.000325231,1.0214,0.00155634,0.0133721,1658,491,12.6708,26.5273
441,533,12.6891,-25.8777,0.000966703,0.00211471,0.00147574,0.00312415,-4.27362e-05,0.970875,0.00209716,0.0150304,1665,491,12.6891,25.8778
448,533,12.6688,-25.2505,0.000990196,0.0020382,0.00195547,0.00353866,-0.000510263,0.916307,0.0025463,0.0169664,1672,491,12.6688,25.2505
455,533,12.6091,-24.5815,0.00107854,0.00183915,0.0025116,0.00399907,-0.00108139,0.860537,0.00309024,0.0165182,1679,491,12.6091,24.5815
462,533,12.5686,-23.8901,0.00132615,0.0014057,0.00330978,0.00467595,-0.0019441,0.791407,0.00392907,0.0151299,1686,491,12.5686,23.8901
469,533,12.5413,-23.2519,0.00150589,0.000945633,0.0041336,0.00536884,-0.00291731,0.751565,0.0048533,0.0100217,1693,491,12.5413,23.2519
476,533,12.521,-22.5437,0.00158804,0.000752109,0.00522926,0.00641601,-0.00407587,0.745519,0.00610751,0.0116441,1700,491,12.521,22.5437
483,533,12.5463,-21.8284,0.00190781,0.000424705,0.00651662,0.00772494,-0.00539243,0.728745,0.00761312,0.0198163,1707,491,12.5462,21.8284
490,533,12.6506,-20.9898,0,0,0,0,0,0,0,-1,1714,491,12.6506,20.9898
497,533,12.6981,-20.4078,0,0,0,0,0,0,0,-1,1721,491,12.6982,20.4078
504,533,12.9669,-18.957,0,0,0,0,0,0,0,-1,1728,491,12.9669,18.957
511,533,13.5292,-18.198,0,0,0,0,0,0,0,-1,1735,491,13.5291,18.198
518,533,13.6904,-18.4658,0,0,0,0,0,0,0,-1,1742,491,13.6904,18.4658
525,533,13.6729,-17.7436,0,0,0,0,0,0,0,-1,1749,491,13.6729,17.7435
532,533,13.7312,-16.857,0,0,0,0,0,0,0,-1,1756,491,13.7312,16.857
539,533,3.61609,1.62427,0,0,0,0,0,0,0,-1,1763,491,3.61606,-1.62426
546,533,3.59607,1.65799,0,0,0,0,0,0,0,-1,1770,491,3.59605,-1.658
553,533,0,0,0,0,0,0,0,0,0,-1,1777,491,0,0
560,533,0,0,0,0,0,0,0,0,0,-1,1784,491,0,0
567,533,0,0,0,0,0,0,0,0,0,-1,1791,491,0,0
574,533,0,0,0,0,0,0,0,0,0,-1,1798,491,0,0
581,533,0,0,0,0,0,0,0,0,0,-1,1805,491,0,0
588,533,0,0,0,0,0,0,0,0,0,-1,1812,491,0,0
595,533,0,0,0,0,0,0,0,0,0,-1,1819,491,0,0
602,533,0,0,0,0,0,0,0,0,0,-1,1826,491,0,0
609,533,0,0,0,0,0,0,0,0,0,-1,1833,491,0,0
616,533,0,0,0,0,0,0,0,0,0,-1,1840,491,0,0
623,533,0,0,0,0,0,0,0,0,0,-1,1847,491,0,0
630,533,0,0,0,0,0,0,0,0,0,-1,1854,491,0,0
637,533,0,0,0,0,0,0,0,0,0,-1,1861,491,0,0
644,533,0,0,0,0,0,0,0,0,0,-1,1868,491,0,0
651,533,0,0,0,0,0,0,0,0,0,-1,1875,491,0,0
658,533,0,0,0,0,0,0,0,0,0,-1,1882,491,0,0
665,533,0,0,0,0,0,0,0,0,0,-1,1889,491,0,0
672,533,0,0,0,0,0,0,0,0,0,-1,1896,491,0,0
679,533,0,0,0,0,0,0,0,0,0,-1,1903,491,0,0
686,533,0,0,0,0,0,0,0,0,0,-1,1910,491,0,0
693,533,0,0,0,0,0,0,0,0,0,-1,1917,491,0,0
700,533,0,0,0,0,0,0,0,0,0,-1,1924,491,0,0
707,533,0,0,0,0,0,0,0,0,0,-1,1931,491,0,0
714,533,0,0,0,0,0,0,0,0,0,-1,1938,491,0,0
721,533,0,0,0,0,0,0,0,0,0,-1,1945,491,0,0
728,533,0,0,0,0,0,0,0,0,0,-1,1952,491,0,0
735,533,0,0,0,0,0,0,0,0,0,-1,1959,491,0,0
742,533,0,0,0,0,0,0,0,0,0,-1,1966,491,0,0
749,533,0,0,0,0,0,0,0,0,0,-1,1973,491,0,0
756,533,0,0,0,0,0,0,0,0,0,-1,1980,491,0,0
763,533,0,0,0,0,0,0,0,0,0,-1,1987,491,0,0
770,533,0,0,0,0,0,0,0,0,0,-1,1994,491,0,0
777,533,0,0,0,0,0,0,0,0,0,-1,2001,491,0,0
784,533,0,0,0,0,0,0,0,0,0,-1,2008,491,0,0
791,533,0,0,0,0,0,0,0,0,0,-1,2015,491,0,0
798,533,0,0,0,0,0,0,0,0,0,-1,2022,491,0,0
805,533,0,0,0,0,0,0,0,0,0,-1,2029,491,0,0
812,533,0,0,0,0,0,0,0,0,0,-1,2036,491,0,0
-700,526,0,0,0,0,0,0,0,0,0,-1,524,498,0,0
-693,526,0,0,0,0,0,0,0,0,0,-1,531,498,0,0
-686,526,0,0,0,0,0,0,0,0,0,-1,538,498,0,0
-679,526,0,0,0,0,0,0,0,0,0,-1,545,498,0,0
-672,526,0,0,0,0,0,0,0,0,0,-1,552,498,0,0
-665,526,0,0,0,0,0,0,0,0,0,-1,559,498,0,0
-658,526,0,0,0,0,0,0,0,0,0,-1,566,498,0,0
-651,526,0,0,0,0,0,0,0,0,0,-1,573,498,0,0
-644,526,0,0,0,0,0,0,0,0,0,-1,580,498,0,0
-637,526,0,0,0,0,0,0,0,0,0,-1,587,498,0,0
-630,526,0,0,0,0,0,0,0,0,0,-1,594,498,0,0
-623,526,0,0,0,0,0,0,0,0,0,-1,601,498,0,0
-616,526,0,0,0,0,0,0,0,0,0,-1,608,498,0,0
-609,526,0,0,0,0,0,0,0,0,0,-1,615,498,0,0
-602,526,0,0,0,0,0,0,0,0,0,-1,622,498,0,0
-595,526,0,0,0,0,0,0,0,0,0,-1,629,498,0,0
-588,526,0,0,0,0,0,0,0,0,0,-1,636,498,0,0
-581,526,0,0,0,0,0,0,0,0,0,-1,643,498,0,0
-574,526,0,0,0,0,0,0,0,0,0,-1,650,498,0,0
-567,526,0,0,0,0,0,0,0,0,0,-1,657,498,0,0
-560,526,0,0,0,0,0,0,0,0,0,-1,664,498,0,0
-553,526,0,0,0,0,0,0,0,0,0,-1,671,498,0,0
-546,526,0,0,0,0,0,0,0,0,0,-1,678,498,0,0
-539,526,0,0,0,0,0,0,0,0,0,-1,685,498,0,0
-532,526,0,0,0,0,0,0,0,0,0,-1,692,498,0,0
-525,526,0,0,0,0,0,0,0,0,0,-1,699,498,0,0
-518,526,0,0,0,0,0,0,0,0,0,-1,706,498,0,0
-511,526,0,0,0,0,0,0,0,0,0,-1,713,498,0,0
-504,526,0,0,0,0,0,0,0,0,0,-1,720,498,0,0
-497,526,0,0,0,0,0,0,0,0,0,-1,727,498,0,0
-490,526,0,0,0,0,0,0,0,0,0,-1,734,498,0,0
-483,526,0,0,0,0,0,0,0,0,0,-1,741,498,0,0
-476,526,0,0,0,0,0,0,0,0,0,-1,748,498,0,0
-469,526,0,0,0,0,0,0,0,0,0,-1,755,498,0,0
-462,526,0,0,0,0,0,0,0,0,0,-1,762,498,0,0
-455,526,0,0,0,0,0,0,0,0,0,-1,769,498,0,0
-448,526,0,0,0,0,0,0,0,0,0,-1,776,498,0,0
-441,526,0,0,0,0,0,0,0,0,0,-1,783,498,0,0
-434,526,-0.153564,-5.96649,0,0,0,0,0,0,0,-1,790,498,-0.153589,5.9665
-427,526,1.23206,-4.59808,0,0,0,0,0,0,0,-1,797,498,1.23208,4.59809
-420,526,-1.76373,-11.6241,0,0,0,0,0,0,0,-1,804,498,-1.76373,11.6241
-413,526,-1.38965,-11.7916,0,0,0,0,0,0,0,-1,811,498,-1.38963,11.7916
-406,526,-1.35187,-12.5182,0,0,0,0,0,0,0,-1,818,498,-1.35185,12.5181
-399,526,-1.32715,-13.2116,0,0,0,0,0,0,0,-1,825,498,-1.32713,13.2116
-392,526,0.197571,-15.303,0,0,0,0,0,0,0,-1,832,498,0.197598,15.303
-385,526,-2.6778,-19.4188,0,0,0,0,0,0,0,-1,839,498,-2.67777,19.4188
-378,526,-1.09052,-20.1561,0,0,0,0,0,0,0,-1,846,498,-1.09053,20.1561
-371,526,-1.15106,-21.1163,0.00986915,0.0199285,-0.0136125,0.0294108,0.000386794,-0.962363,0.0194796,0.0403596,853,498,-1.15105,21.1164
-364,526,-1.23096,-22.1009,0.00818126,0.0167545,-0.0111195,0.024385,0.000550765,-0.969373,0.0160762,0.0216386,860,498,-1.23094,22.1009
-357,526,-1.17371,-22.8738,0.00652034,0.0138105,-0.00896396,0.0198421,0.00048867,-0.978505,0.0130682,0.0143756,867,498,-1.17373,22.8738
-350,526,-1.20074,-23.5298,0.00494257,0.0111812,-0.00698088,0.015708,0.00041578,-0.995507,0.0103362,0.0124812,874,498,-1.20072,23.5298
-343,526,-1.26001,-24.2289,0.00361475,0.00882464,-0.00528556,0.0121123,0.000327077,-1.01435,0.00796808,0.0156489,881,498,-1.26002,24.2289
-336,526,-1.29926,-24.8879,0.00253981,0.00675957,-0.00381839,0.00901222,0.000287152,-1.0378,0.00591475,0.0161525,888,498,-1.29925,24.8879
-329,526,-1.34186,-25.5306,0.00172834,0.00505832,-0.00264249,0.00651662,0.000270035,-1.06652,0.00425726,0.0164974,895,498,-1.34188,25.5306
-322,526,-1.35748,-26.1292,0.00117542,0.00349157,-0.00166659,0.00436295,0.000304048,-1.08904,0.00281277,0.0104907,902,498,-1.35747,26.1292
-315,526,-1.39404,-26.7787,0.00090451,0.00217867,-0.00087777,0.00262619,0.000456993,-1.09931,0.00162009,0.00894458,909,498,-1.39405,26.7787
-308,526,-1.42035,-27.4327,0.000773811,0.00115228,-0.000268412,0.00129145,0.000634632,-1.09244,0.000745658,0.00874062,916,498,-1.42032,27.4327
-301,526,-1.46265,-28.0278,0.000876215,0.000222782,0.000166412,0.000916155,0.000182843,0.235549,0.000559865,0.0105565,923,498,-1.46262,28.0278
-294,526,-1.46271,-28.6321,0.00120571,-0.000509412,0.000583264,0.00138526,-0.000688967,0.298638,0.00121984,0.0110019,930,498,-1.46272,28.6321
-287,526,-1.46515,-29.2379,0.00166366,-0.0011924,0.000989726,0.00197311,-0.00150185,0.30303,0.0020124,0.011015,937,498,-1.46518,29.2378
-280,526,-1.49207,-29.8297,0.00206378,-0.00237259,0.00152382,0.00253676,-0.00284558,0.300963,0.0031092,0.0139641,944,498,-1.49204,29.8296
-273,526,-1.49878,-30.4403,0.00240239,-0.00353724,0.00207178,0.00305363,-0.00418849,0.304561,0.00419832,0.0116607,951,498,-1.49878,30.4403
-266,526,-1.5105,-31.0275,0.00258092,-0.00475205,0.00223906,0.00321053,-0.00538166,0.274119,0.00501322,0.0141022,958,498,-1.51052,31.0274
-259,526,-1.47229,-31.5948,0.00263289,-0.0057892,0.0024727,0.0033052,-0.00646151,0.265475,0.00573613,0.0369341,965,498,-1.47232,31.5948
-252,526,-1.49609,-32.2471,0,0,0,0,0,0,0,-1,972,498,-1.49608,32.2472
-245,526,-1.53217,-32.9045,0,0,0,0,0,0,0,-1,979,498,-1.53215,32.9045
-238,526,-1.34082,-33.2964,0,0,0,0,0,0,0,-1,986,498,-1.34079,33.2964
-231,526,-1.11169,-33.1828,0,0,0,0,0,0,0,-1,993,498,-1.11172,33.1828
-224,526,-0.538879,-34.0855,0,0,0,0,0,0,0,-1,1000,498,-0.538893,34.0855
-217,526,-0.632813,-34.5173,0,0,0,0,0,0,0,-1,1007,498,-0.632788,34.5173
-210,526,-0.726685,-34.9491,0,0,0,0,0,0,0,-1,1014,498,-0.726683,34.9491
-203,526,-0.659302,-18.8818,0,0,0,0,0,0,0,-1,1021,498,-0.659273,18.8818
-196,526,-0.328247,-12.179,0,0,0,0,0,0,0,-1,1028,498,-0.328238,12.179
-189,526,0.401245,-5.96826,0,0,0,0,0,0,0,-1,1035,498,0.401197,5.96826
-182,526,1.7323,-2.99405,0,0,0,0,0,0,0,-1,1042,498,1.73226,2.99404
-175,526,2.27637,-2.07983,0,0,0,0,0,0,0,-1,1049,498,2.27639,2.07984
-168,526,2.12036,-1.66049,0,0,0,0,0,0,0,-1,1056,498,2.12035,1.66048
-161,526,2.09082,-1.20572,0,0,0,0,0,0,0,-1,1063,498,2.09086,1.2057
-154,526,-1.3446,-5.37799,0,0,0,0,0,0,0,-1,1070,498,-1.34457,5.37799
-147,526,-0.472656,-6.64996,0,0,0,0,0,0,0,-1,1077,498,-0.472659,6.64997
-140,526,0.422852,-8.03339,0,0,0,0,0,0,0,-1,1084,498,0.422844,8.0334
-133,526,1.09583,-9.2215,0,0,0,0,0,0,0,-1,1091,498,1.09581,9.2215
-126,526,3.42529,-2.36053,0,0,0,0,0,0,0,-1,1098,498,3.42523,2.36052
-119,526,2.7771,-0.764099,0,0,0,0,0,0,0,-1,1105,498,2.7771,0.764107
-112,526,2.57715,-1.1893,0,0,0,0,0,0,0,-1,1112,498,2.57718,1.1893
-105,526,0,0,0,0,0,0,0,0,0,-1,1119,498,0,0
-98,526,0,0,0,0,0,0,0,0,0,-1,1126,498,0,0
-91,526,0,0,0,0,0,0,0,0,0,-1,1133,498,0,0
-84,526,0,0,0,0,0,0,0,0,0,-1,1140,498,0,0
-77,526,0,0,0,0,0,0,0,0,0,-1,1147,498,0,0
-70,526,0,0,0,0,0,0,0,0,0,-1,1154,498,0,0
-63,526,0,0,0,0,0,0,0,0,0,-1,1161,498,0,0
-56,526,0,0,0,0,0,0,0,0,0,-1,1168,498,0,0
-49,526,0,0,0,0,0,0,0,0,0,-1,1175,498,0,0
-42,526,0,0,0,0,0,0,0,0,0,-1,1182,498,0,0
-35,526,0,0,0,0,0,0,0,0,0,-1,1189,498,0,0
-28,526,0,0,0,0,0,0,0,0,0,-1,1196,498,0,0
-21,526,0,0,0,0,0,0,0,0,0,-1,1203,498,0,0
-14,526,0,0,0,0,0,0,0,0,0,-1,1210,498,0,0
-7,526,0,0,0,0,0,0,0,0,0,-1,1217,498,0,0
0,526,0,0,0,0,0,0,0,0,0,-1,1224,498,0,0
7,526,0,0,0,0,0,0,0,0,0,-1,1231,498,0,0
14,526,0,0,0,0,0,0,0,0,0,-1,1238,498,0,0
21,526,0,0,0,0,0,0,0,0,0,-1,1245,498,0,0
28,526,0,0,0,0,0,0,0,0,0,-1,1252,498,0,0
35,526,0,0,0,0,0,0,0,0,0,-1,1259,498,0,0
42,526,0,0,0,0,0,0,0,0,0,-1,1266,498,0,0
49,526,0,0,0,0,0,0,0,0,0,-1,1273,498,0,0
56,526,0,0,0,0,0,0,0,0,0,-1,1280,498,0,0
63,526,0,0,0,0,0,0,0,0,0,-1,1287,498,0,0
70,526,0,0,0,0,0,0,0,0,0,-1,1294,498,0,0
77,526,0,0,0,0,0,0,0,0,0,-1,1301,498,0,0
84,526,0,0,0,0,0,0,0,0,0,-1,1308,498,0,0
91,526,0,0,0,0,0,0,0,0,0,-1,1315,498,0,0
98,526,0,0,0,0,0,0,0,0,0,-1,1322,498,0,0
105,526,0,0,0,0,0,0,0,0,0,-1,1329,498,0,0
112,526,0,0,0,0,0,0,0,0,0,-1,1336,498,0,0
119,526,0,0,0,0,0,0,0,0,0,-1,1343,498,0,0
126,526,0,0,0,0,0,0,0,0,0,-1,1350,498,0,0
133,526,0,0,0,0,0,0,0,0,0,-1,1357,498,0,0
140,526,0,0,0,0,0,0,0,0,0,-1,1364,498,0,0
147,526,0,0,0,0,0,0,0,0,0,-1,1371,498,0,0
154,526,0,0,0,0,0,0,0,0,0,-1,1378,498,0,0
161,526,0,0,0,0,0,0,0,0,0,-1,1385,498,0,0
168,526,0,0,0,0,0,0,0,0,0,-1,1392,498,0,0
175,526,0,0,0,0,0,0,0,0,0,-1,1399,498,0,0
182,526,0,0,0,0,0,0,0,0,0,-1,1406,498,0,0
189,526,0,0,0,0,0,0,0,0,0,-1,1413,498,0,0
196,526,0,0,0,0,0,0,0,0,0,-1,1420,498,0,0
203,526,0,0,0,0,0,0,0,0,0,-1,1427,498,0,0
210,526,0,0,0,0,0,0,0,0,0,-1,1434,498,0,0
217,526,0,0,0,0,0,0,0,0,0,-1,1441,498,0,0
224,526,0,0,0,0,0,0,0,0,0,-1,1448,498,0,0
231,526,7.93237,-1.30618,0,0,0,0,0,0,0,-1,1455,498,7.93238,1.30618
238,526,7.97717,-1.08197,0,0,0,0,0,0,0,-1,1462,498,7.97723,1.08196
245,526,7.2793,-0.792938,0,0,0,0,0,0,0,-1,1469,498,7.27931,0.792926
252,526,6.73523,-2.23608,0,0,0,0,0,0,0,-1,1476,498,6.73525,2.23608
259,526,6.22949,-1.84967,0,0,0,0,0,0,0,-1,1483,498,6.22953,1.84968
266,526,5.72375,-1.46329,0,0,0,0,0,0,0,-1,1490,498,5.72381,1.46328
273,526,4.33984,0.49173,0,0,0,0,0,0,0,-1,1497,498,4.33979,-0.491727
280,526,1.4585,-1.59897,0,0,0,0,0,0,0,-1,1504,498,1.45846,1.59895
287,526,1.46411,-2.40134,0,0,0,0,0,0,0,-1,1511,498,1.46406,2.40133
294,526,5.57471,-4.59085,0,0,0,0,0,0,0,-1,1518,498,5.57466,4.59084
301,526,4.42786,-3.99677,0,0,0,0,0,0,0,-1,1525,498,4.42788,3.99676
308,526,5.79529,-4.19366,0,0,0,0,0,0,0,-1,1532,498,5.79528,4.19368
315,526,5.09851,-5.20068,0,0,0,0,0,0,0,-1,1539,498,5.09851,5.20068
322,526,5.50708,-4.72348,0,0,0,0,0,0,0,-1,1546,498,5.50713,4.72347
329,526,3.88672,-4.345,0,0,0,0,0,0,0,-1,1553,498,3.88674,4.34501
336,526,4.97876,-2.23828,0,0,0,0,0,0,0,-1,1560,498,4.97877,2.23828
343,526,3.31665,-2.69696,0,0,0,0,0,0,0,-1,1567,498,3.31667,2.69696
350,526,6.06287,-6.12015,0,0,0,0,0,0,0,-1,1574,498,6.06286,6.12014
357,526,12.9944,-29.1665,0,0,0,0,0,0,0,-1,1581,498,12.9943,29.1665
364,526,13.2582,-29.5416,0,0,0,0,0,0,0,-1,1588,498,13.2581,29.5416
371,526,12.4481,-29.0131,0,0,0,0,0,0,0,-1,1595,498,12.4481,29.0131
378,526,13.1509,-31.7496,0,0,0,0,0,0,0,-1,1602,498,13.1509,31.7496
385,526,13.4121,-30.9308,0,0,0,0,0,0,0,-1,1609,498,13.4122,30.9309
392,526,13.516,-30.2963,0.000693469,-0.00250344,-0.00312571,0.00260573,-0.0044157,-0.549039,0.00409847,0.0354202,1616,498,13.516,30.2963
399,526,13.3915,-29.6795,0.00047056,-0.00178787,-0.00261555,0.00219025,-0.00350755,-0.581619,0.0033188,0.019925,1623,498,13.3915,29.6795
406,526,13.415,-29.0354,0.000566205,-0.00104024,-0.00203547,0.0019512,-0.00242524,-0.597471,0.00253168,0.0130894,1630,498,13.4151,29.0354
413,526,13.3761,-28.4239,0.000767424,-0.000154947,-0.00127744,0.00166438,-0.0010519,-0.612168,0.00158148,0.013108,1637,498,13.3761,28.4239
420,526,13.3528,-27.8014,0.000822955,0.000430557,-0.000708916,0.00136232,-0.000108809,-0.650398,0.000946571,0.0145051,1644,498,13.3528,27.8014
427,526,13.3569,-27.1504,0.000827558,0.000904006,-0.000221441,0.0010905,0.000641066,-0.870864,0.000632831,0.015994,1651,498,13.3569,27.1504
434,526,13.3286,-26.4938,0.000778827,0.00120694,0.00023974,0.00131428,0.000671487,1.14983,0.000758858,0.0135377,1658,498,13.3286,26.4938
441,526,13.3135,-25.8394,0.0007606,0.00140481,0.000742894,0.00189242,0.000272986,0.989955,0.00118118,0.0112904,1665,498,13.3135,25.8393
448,526,13.2947,-25.2012,0.000773518,0.00137412,0.00121443,0.00232483,-0.00017719,0.906606,0.0016122,0.011209,1672,498,13.2947,25.2012
455,526,13.2485,-24.5746,0.000857304,0.0013367,0.00176244,0.00287567,-0.000681665,0.852985,0.00218015,0.0142153,1679,498,13.2485,24.5747
462,526,13.2325,-23.8995,0.00108016,0.00108891,0.00249061,0.00357515,-0.00140608,0.786277,0.00296541,0.0104528,1686,498,13.2326,23.8995
469,526,13.21,-23.2448,0.00125081,0.000854855,0.00325064,0.00430949,-0.00220383,0.754984,0.00382541,0.00828511,1693,498,13.21,23.2448
476,526,13.1652,-22.5548,0.00131572,0.000909207,0.00424347,0.0053608,-0.00313588,0.761467,0.0049613,0.0103944,1700,498,13.1651,22.5548
483,526,13.1586,-21.8281,0.00158033,0.000849859,0.00536395,0.00659146,-0.00416127,0.751405,0.00626072,0.0138024,1707,498,13.1586,21.8281
490,526,13.2336,-21.0448,0.00196584,0.000890365,0.00688891,0.00833797,-0.00548176,0.746448,0.00803543,0.0302708,1714,498,13.2337,21.0448
497,526,13.1487,-20.573,0.00228608,0.000940552,0.0085562,0.0101959,-0.00696929,0.746165,0.00996853,0.0384001,1721,498,13.1487,20.573
504,526,13.2111,-19.8136,0.00254098,0.0014422,0.0104517,0.0124577,-0.00847455,0.75914,0.012158,0.0395718,1728,498,13.211,19.8136
511,526,13.6102,-19.0543,0.00292184,0.0023319,0.012773,0.0154033,-0.0101496,0.773854,0.0148565,0.0488584,1735,498,13.6102,19.0542
518,526,13.6769,-18.3943,0,0,0,0,0,0,0,-1,1742,498,13.6769,18.3943
525,526,13.6346,-17.6917,0,0,0,0,0,0,0,-1,1749,498,13.6347,17.6917
532,526,13.686,-16.8845,0,0,0,0,0,0,0,-1,1756,498,13.686,16.8845
539,526,13.8182,-15.952,0,0,0,0,0,0,0,-1,1763,498,13.8182,15.952
546,526,3.36731,1.07721,0,0,0,0,0,0,0,-1,1770,498,3.36735,-1.07719
553,526,3.40796,1.37137,0,0,0,0,0,0,0,-1,1777,498,3.40792,-1.37138
560,526,0,0,0,0,0,0,0,0,0,-1,1784,498,0,0
567,526,0,0,0,0,0,0,0,0,0,-1,1791,498,0,0
574,526,0,0,0,0,0,0,0,0,0,-1,1798,498,0,0
581,526,0,0,0,0,0,0,0,0,0,-1,1805,498,0,0
588,526,0,0,0,0,0,0,0,0,0,-1,1812,498,0,0
595,526,0,0,0,0,0,0,0,0,0,-1,1819,498,0,0
602,526,0,0,0,0,0,0,0,0,0,-1,1826,498,0,0
609,526,0,0,0,0,0,0,0,0,0,-1,1833,498,0,0
616,526,0,0,0,0,0,0,0,0,0,-1,1840,498,0,0
623,526,0,0,0,0,0,0,0,0,0,-1,1847,498,0,0
630,526,0,0,0,0,0,0,0,0,0,-1,1854,498,0,0
637,526,0,0,0,0,0,0,0,0,0,-1,1861,498,0,0
644,526,0,0,0,0,0,0,0,0,0,-1,1868,498,0,0
651,526,0,0,0,0,0,0,0,0,0,-1,1875,498,0,0
658,526,0,0,0,0,0,0,0,0,0,-1,1882,498,0,0
665,526,0,0,0,0,0,0,0,0,0,-1,1889,498,0,0
672,526,0,0,0,0,0,0,0,0,0,-1,1896,498,0,0
679,526,0,0,0,0,0,0,0,0,0,-1,1903,498,0,0
686,526,0,0,0,0,0,0,0,0,0,-1,1910,498,0,0
693,526,0,0,0,0,0,0,0,0,0,-1,1917,498,0,0
700,526,0,0,0,0,0,0,0,0,0,-1,1924,498,0,0
707,526,0,0,0,0,0,0,0,0,0,-1,1931,498,0,0
714,526,0,0,0,0,0,0,0,0,0,-1,1938,498,0,0
721,526,0,0,0,0,0,0,0,0,0,-1,1945,498,0,0
728,526,0,0,0,0,0,0,0,0,0,-1,1952,498,0,0
735,526,0,0,0,0,0,0,0,0,0,-1,1959,498,0,0
742,526,0,0,0,0,0,0,0,0,0,-1,1966,498,0,0
749,526,0,0,0,0,0,0,0,0,0,-1,1973,498,0,0
756,526,0,0,0,0,0,0,0,0,0,-1,1980,498,0,0
763,526,0,0,0,0,0,0,0,0,0,-1,1987,498,0,0
770,526,0,0,0,0,0,0,0,0,0,-1,1994,498,0,0
777,526,0,0,0,0,0,0,0,0,0,-1,2001,498,0,0
784,526,0,0,0,0,0,0,0,0,0,-1,2008,498,0,0
791,526,0,0,0,0,0,0,0,0,0,-1,2015,498,0,0
798,526,0,0,0,0,0,0,0,0,0,-1,2022,498,0,0
805,526,0,0,0,0,0,0,0,0,0,-1,2029,498,0,0
812,526,0,0,0,0,0,0,0,0,0,-1,2036,498,0,0
-700,519,0,0,0,0,0,0,0,0,0,-1,524,505,0,0
-693,519,0,0,0,0,0,0,0,0,0,-1,531,505,0,0
-686,519,0,0,0,0,0,0,0,0,0,-1,538,505,0,0
-679,519,0,0,0,0,0,0,0,0,0,-1,545,505,0,0
-672,519,0,0,0,0,0,0,0,0,0,-1,552,505,0,0
-665,519,0,0,0,0,0,0,0,0,0,-1,559,505,0,0
-658,519,0,0,0,0,0,0,0,0,0,-1,566,505,0,0
-651,519,0,0,0,0,0,0,0,0,0,-1,573,505,0,0
-644,519,0,0,0,0,0,0,0,0,0,-1,580,505,0,0
-637,519,0,0,0,0,0,0,0,0,0,-1,587,505,0,0
-630,519,0,0,0,0,0,0,0,0,0,-1,594,505,0,0
-623,519,0,0,0,0,0,0,0,0,0,-1,601,505,0,0
-616,519,0,0,0,0,0,0,0,0,0,-1,608,505,0,0
-609,519,0,0,0,0,0,0,0,0,0,-1,615,505,0,0
-602,519,0,0,0,0,0,0,0,0,0,-1,622,505,0,0
-595,519,0,0,0,0,0,0,0,0,0,-1,629,505,0,0
-588,519,0,0,0,0,0,0,0,0,0,-1,636,505,0,0
-581,519,0,0,0,0,0,0,0,0,0,-1,643,505,0,0
-574,519,0,0,0,0,0,0,0,0,0,-1,650,505,0,0
-567,519,0,0,0,0,0,0,0,0,0,-1,657,505,0,0
-560,519,0,0,0,0,0,0,0,0,0,-1,664,505,0,0
-553,519,0,0,0,0,0,0,0,0,0,-1,671,505,0,0
-546,519,0,0,0,0,0,0,0,0,0,-1,678,505,0,0
-539,519,0,0,0,0,0,0,0,0,0,-1,685,505,0,0
-532,519,0,0,0,0,0,0,0,0,0,-1,692,505,0,0
-525,519,0,0,0,0,0,0,0,0,0,-1,699,505,0,0
-518,519,0,0,0,0,0,0,0,0,0,-1,706,505,0,0
-511,519,0,0,0,0,0,0,0,0,0,-1,713,505,0,0
-504,519,0,0,0,0,0,0,0,0,0,-1,720,505,0,0
-497,519,0,0,0,0,0,0,0,0,0,-1,727,505,0,0
-490,519,0,0,0,0,0,0,0,0,0,-1,734,505,0,0
-483,519,0,0,0,0,0,0,0,0,0,-1,741,505,0,0
-476,519,0,0,0,0,0,0,0,0,0,-1,748,505,0,0
-469,519,0,0,0,0,0,0,0,0,0,-1,755,505,0,0
-462,519,0,0,0,0,0,0,0,0,0,-1,762,505,0,0
-455,519,0,0,0,0,0,0,0,0,0,-1,769,505,0,0
-448,519,0,0,0,0,0,0,0,0,0,-1,776,505,0,0
-441,519,1.34839,-5.29346,0,0,0,0,0,0,0,-1,783,505,1.3484,5.29347
-434,519,0.949585,-5.77313,0,0,0,0,0,0,0,-1,790,505,0.949598,5.77315
-427,519,-0.0523682,-9.31567,0,0,0,0,0,0,0,-1,797,505,-0.0523854,9.31568
-420,519,-2.38867,-12.1938,0,0,0,0,0,0,0,-1,804,505,-2.38867,12.1938
-413,519,-2.2298,-12.4998,0,0,0,0,0,0,0,-1,811,505,-2.22979,12.4998
-406,519,-1.44373,-12.3475,0,0,0,0,0,0,0,-1,818,505,-1.44376,12.3475
-399,519,-1.60516,-15.0849,0,0,0,0,0,0,0,-1,825,505,-1.60518,15.0849
-392,519,-1.36261,-18.9907,0,0,0,0,0,0,0,-1,832,505,-1.36259,18.9907
-385,519,-1.93036,-19.6528,0,0,0,0,0,0,0,-1,839,505,-1.93033,19.6528
-378,519,-1.86603,-20.4568,0.00818122,0.019079,-0.0130809,0.0278005,-0.000540279,-0.982745,0.0187163,0.0348979,846,505,-1.86604,20.4569
-371,519,-1.79059,-21.3176,0.00717213,0.0160183,-0.011041,0.0234892,-0.000298799,-0.975912,0.01576,0.0196967,853,505,-1.7906,21.3176
-364,519,-1.80035,-22.1442,0.00609167,0.0132402,-0.00905006,0.0193963,-6.43674e-05,-0.973469,0.0129524,0.011525,860,505,-1.80037,22.1442
-357,519,-1.79254,-22.863,0.00492789,0.0107297,-0.00725172,0.0156392,1.8381e-05,-0.975665,0.01042,0.0110563,867,505,-1.79256,22.863
-350,519,-1.82703,-23.515,0.00381182,0.00848829,-0.00560819,0.0122262,7.39419e-05,-0.982907,0.00812624,0.0125196,874,505,-1.827,23.5149
-343,519,-1.91876,-24.1671,0.00285382,0.00642822,-0.00416271,0.00917117,0.000110867,-0.988167,0.00607749,0.015461,881,505,-1.91875,24.167
-336,519,-1.98169,-24.843,0.00204921,0.00460088,-0.00287375,0.00646927,0.000180814,-0.994309,0.00425386,0.0163393,888,505,-1.98169,24.843
-329,519,-1.98224,-25.4775,0.00145478,0.00310073,-0.00183426,0.00428818,0.000267331,-0.996271,0.00277397,0.0144667,895,505,-1.98224,25.4776
-322,519,-1.97864,-26.1113,0.00109033,0.00174353,-0.000971907,0.00244224,0.000391613,-0.94749,0.00151459,0.0114067,902,505,-1.97862,26.1113
-315,519,-2.005,-26.7673,0.000970726,0.000613151,-0.000270337,0.00111605,0.000467829,-0.493241,0.00064715,0.00882693,909,505,-2.00501,26.7673
-308,519,-2.03137,-27.4263,0.00108489,-0.000285239,0.000243957,0.00112703,-0.00032738,0.171054,0.000880994,0.00803765,916,505,-2.03138,27.4263
-301,519,-2.08124,-28.04,0.00139293,-0.00101259,0.000601324,0.00153487,-0.00115454,0.231805,0.0015579,0.0128943,923,505,-2.08125,28.04
-294,519,-2.09052,-28.5978,0.00185152,-0.00155073,0.00098766,0.00211745,-0.00181665,0.263014,0.00227357,0.0161657,930,505,-2.09053,28.5978
-287,519,-2.10645,-29.205,0.00242696,-0.00210298,0.00133766,0.00279247,-0.00246849,0.266734,0.00303933,0.0118861,937,505,-2.10647,29.205
-280,519,-2.13953,-29.8104,0.0028972,-0.00334332,0.00193571,0.00344886,-0.00389498,0.27763,0.00424257,0.0200879,944,505,-2.13952,29.8104
-273,519,-2.11047,-30.436,0.00325435,-0.00463451,0.00253354,0.00399792,-0.00537808,0.285475,0.00543275,0.0407191,951,505,-2.11049,30.436
-266,519,-2.13635,-31.0718,0,0,0,0,0,0,0,-1,958,505,-2.13638,31.0718
-259,519,-2.01428,-31.7321,0,0,0,0,0,0,0,-1,965,505,-2.01428,31.7321
-252,519,-1.84009,-26.8372,0,0,0,0,0,0,0,-1,972,505,-1.8401,26.8372
-245,519,-1.23254,-23.2696,0,0,0,0,0,0,0,-1,979,505,-1.23256,23.2696
-238,519,-1.5415,-31.0349,0,0,0,0,0,0,0,-1,986,505,-1.5415,31.0348
-231,519,-0.726379,-33.2872,0,0,0,0,0,0,0,-1,993,505,-0.726352,33.2871
-224,519,-0.81958,-33.8002,-0.000394406,-0.0162968,0.00240969,-3.72864e-05,-0.016654,0.147131,0.0110902,0.0450241,1000,505,-0.81959,33.8002
-217,519,-0.797974,-34.3293,0,0,0,0,0,0,0,-1,1007,505,-0.79796,34.3293
-210,519,-0.883362,-34.799,0,0,0,0,0,0,0,-1,1014,505,-0.883379,34.799
-203,519,-0.513611,-5.39017,0,0,0,0,0,0,0,-1,1021,505,-0.513585,5.39017
-196,519,-0.374023,-5.41635,0,0,0,0,0,0,0,-1,1028,505,-0.374047,5.41635
-189,519,-0.234497,-5.44254,0,0,0,0,0,0,0,-1,1035,505,-0.234508,5.44253
-182,519,2.76697,-1.19659,0,0,0,0,0,0,0,-1,1042,505,2.76696,1.19661
-175,519,2.31323,-0.960938,0,0,0,0,0,0,0,-1,1049,505,2.31319,0.960941
-168,519,2.01074,-0.721405,0,0,0,0,0,0,0,-1,1056,505,2.01072,0.721407
-161,519,2.32056,-0.522339,0,0,0,0,0,0,0,-1,1063,505,2.32057,0.522328
-154,519,2.55566,0.116669,0,0,0,0,0,0,0,-1,1070,505,2.55563,-0.116661
-147,519,-0.55127,-6.14001,0,0,0,0,0,0,0,-1,1077,505,-0.551252,6.14001
-140,519,0.240601,-7.53503,0,0,0,0,0,0,0,-1,1084,505,0.240653,7.53501
-133,519,2.70911,-4.4516,0,0,0,0,0,0,0,-1,1091,505,2.70915,4.45161
-126,519,0,0,0,0,0,0,0,0,0,-1,1098,505,0,0
-119,519,0,0,0,0,0,0,0,0,0,-1,1105,505,0,0
-112,519,0,0,0,0,0,0,0,0,0,-1,1112,505,0,0
-105,519,0,0,0,0,0,0,0,0,0,-1,1119,505,0,0
-98,519,0,0,0,0,0,0,0,0,0,-1,1126,505,0,0
-91,519,0,0,0,0,0,0,0,0,0,-1,1133,505,0,0
-84,519,0,0,0,0,0,0,0,0,0,-1,1140,505,0,0
-77,519,0,0,0,0,0,0,0,0,0,-1,1147,505,0,0
-70,519,0,0,0,0,0,0,0,0,0,-1,1154,505,0,0
-63,519,0,0,0,0,0,0,0,0,0,-1,1161,505,0,0
-56,519,0,0,0,0,0,0,0,0,0,-1,1168,505,0,0
-49,519,0,0,0,0,0,0,0,0,0,-1,1175,505,0,0
-42,519,0,0,0,0,0,0,0,0,0,-1,1182,505,0,0
-35,519,0,0,0,0,0,0,0,0,0,-1,1189,505,0,0
-28,519,0,0,0,0,0,0,0,0,0,-1,1196,505,0,0
-21,519,0,0,0,0,0,0,0,0,0,-1,1203,505,0,0
-14,519,0,0,0,0,0,0,0,0,0,-1,1210,505,0,0
-7,519,0,0,0,0,0,0,0,0,0,-1,1217,505,0,0
0,519,0,0,0,0,0,0,0,0,0,-1,1224,505,0,0
7,519,0,0,0,0,0,0,0,0,0,-1,1231,505,0,0
14,519,0,0,0,0,0,0,0,0,0,-1,1238,505,0,0
21,519,0,0,0,0,0,0,0,0,0,-1,1245,505,0,0
28,519,0,0,0,0,0,0,0,0,0,-1,1252,505,0,0
35,519,0,0,0,0,0,0,0,0,0,-1,1259,505,0,0
42,519,0,0,0,0,0,0,0,0,0,-1,1266,505,0,0
49,519,0,0,0,0,0,0,0,0,0,-1,1273,505,0,0
56,519,0,0,0,0,0,0,0,0,0,-1,1280,505,0,0
63,519,0,0,0,0,0,0,0,0,0,-1,1287,505,0,0
70,519,0,0,0,0,0,0,0,0,0,-1,1294,505,0,0
77,519,0,0,0,0,0,0,0,0,0,-1,1301,505,0,0
84,519,0,0,0,0,0,0,0,0,0,-1,1308,505,0,0
91,519,0,0,0,0,0,0,0,0,0,-1,1315,505,0,0
98,519,0,0,0,0,0,0,0,0,0,-1,1322,505,0,0
105,519,0,0,0,0,0,0,0,0,0,-1,1329,505,0,0
112,519,0,0,0,0,0,0,0,0,0,-1,1336,505,0,0
119,519,0,0,0,0,0,0,0,0,0,-1,1343,505,0,0
126,519,0,0,0,0,0,0,0,0,0,-1,1350,505,0,0
133,519,0,0,0,0,0,0,0,0,0,-1,1357,505,0,0
140,519,0,0,0,0,0,0,0,0,0,-1,1364,505,0,0
147,519,0,0,0,0,0,0,0,0,0,-1,1371,505,0,0
154,519,0,0,0,0,0,0,0,0,0,-1,1378,505,0,0
161,519,0,0,0,0,0,0,0,0,0,-1,1385,505,0,0
168,519,0,0,0,0,0,0,0,0,0,-1,1392,505,0,0
175,519,0,0,0,0,0,0,0,0,0,-1,1399,505,0,0
182,519,0,0,0,0,0,0,0,0,0,-1,1406,505,0,0
189,519,0,0,0,0,0,0,0,0,0,-1,1413,505,0,0
196,519,0,0,0,0,0,0,0,0,0,-1,1420,505,0,0
203,519,0,0,0,0,0,0,0,0,0,-1,1427,505,0,0
210,519,0,0,0,0,0,0,0,0,0,-1,1434,505,0,0
217,519,0,0,0,0,0,0,0,0,0,-1,1441,505,0,0
224,519,0,0,0,0,0,0,0,0,0,-1,1448,505,0,0
231,519,0,0,0,0,0,0,0,0,0,-1,1455,505,0,0
238,519,0,0,0,0,0,0,0,0,0,-1,1462,505,0,0
245,519,0,0,0,0,0,0,0,0,0,-1,1469,505,0,0
252,519,5.26208,0.0938416,0,0,0,0,0,0,0,-1,1476,505,5.26207,-0.0938493
259,519,6.14246,-1.36441,0,0,0,0,0,0,0,-1,1483,505,6.14241,1.36441
266,519,5.31909,-0.400787,0,0,0,0,0,0,0,-1,1490,505,5.31912,0.400773
273,519,4.02393,0.325531,0,0,0,0,0,0,0,-1,1497,505,4.0239,-0.325522
280,519,4.68848,0.53006,0,0,0,0,0,0,0,-1,1504,505,4.68842,-0.530073
287,519,7.9519,-3.80801,0,0,0,0,0,0,0,-1,1511,505,7.95193,3.808
294,519,6.92273,-3.38889,0,0,0,0,0,0,0,-1,1518,505,6.92268,3.38888
301,519,5.35669,-2.92661,0,0,0,0,0,0,0,-1,1525,505,5.35675,2.9266
308,519,7.37549,-5.64529,0,0,0,0,0,0,0,-1,1532,505,7.3755,5.64529
315,519,6.30029,-4.53754,0,0,0,0,0,0,0,-1,1539,505,6.30024,4.53753
322,519,5.84302,-5.45117,0,0,0,0,0,0,0,-1,1546,505,5.84303,5.45116
329,519,4.92407,0.62384,0,0,0,0,0,0,0,-1,1553,505,4.92403,-0.623832
336,519,3.10095,-0.329285,0,0,0,0,0,0,0,-1,1560,505,3.1009,0.329283
343,519,2.49146,-2.31119,0,0,0,0,0,0,0,-1,1567,505,2.49145,2.31119
350,519,3.47729,-2.22516,0,0,0,0,0,0,0,-1,1574,505,3.47726,2.22515
357,519,13.271,-29.6344,0,0,0,0,0,0,0,-1,1581,505,13.271,29.6344
364,519,12.8292,-28.3627,0,0,0,0,0,0,0,-1,1588,505,12.8292,28.3627
371,519,12.3875,-27.0911,0,0,0,0,0,0,0,-1,1595,505,12.3874,27.091
378,519,6.36597,-10.0967,0,0,0,0,0,0,0,-1,1602,505,6.36597,10.0967
385,519,6.24756,-9.72186,0,0,0,0,0,0,0,-1,1609,505,6.24752,9.72183
392,519,14.0186,-30.4599,0,0,0,0,0,0,0,-1,1616,505,14.0185,30.4599
399,519,14.1388,-29.4669,0.00034573,-0.00204308,-0.00356759,0.00291354,-0.0046109,-0.623866,0.00438093,0.0469679,1623,505,14.1388,29.4669
406,519,14.0337,-29.0264,0.000590357,-0.00130681,-0.00287883,0.00267286,-0.00338931,-0.626248,0.00350813,0.0323571,1630,505,14.0337,29.0264
413,519,14.0792,-28.4214,0.000926268,-0.000458487,-0.00198454,0.00233574,-0.00186796,-0.617557,0.00243201,0.0152585,1637,505,14.0792,28.4215
420,519,14.0435,-27.7665,0.00105152,7.43002e-05,-0.00134654,0.00199536,-0.000869536,-0.611354,0.00169609,0.0160039,1644,505,14.0435,27.7666
427,519,14.0221,-27.1577,0.00107856,0.000609203,-0.000848145,0.0017239,-3.61312e-05,-0.650426,0.0011615,0.0152423,1651,505,14.0221,27.1577
434,519,13.9791,-26.5112,0.00097742,0.00087863,-0.00038473,0.00131591,0.000540136,-0.721553,0.000763792,0.0135396,1658,505,13.9791,26.5112
441,519,13.9403,-25.8134,0.000945618,0.00106655,0.000119227,0.00113977,0.000872402,1.02008,0.000688258,0.0120703,1665,505,13.9403,25.8134
448,519,13.9265,-25.1609,0.000976341,0.00107887,0.000591957,0.00162178,0.000433431,0.828589,0.000969557,0.00968428,1672,505,13.9265,25.1609
455,519,13.8982,-24.5497,0.00103655,0.00116272,0.00112286,0.00222426,-2.49968e-05,0.813461,0.00149124,0.0108455,1679,505,13.8982,24.5497
462,519,13.8853,-23.8854,0.00118668,0.00104735,0.00175322,0.00287162,-0.000637591,0.765541,0.00215856,0.00993087,1686,505,13.8853,23.8854
469,519,13.8728,-23.1907,0.00130645,0.000962003,0.00243931,0.00357961,-0.00131116,0.750155,0.00292318,0.0108559,1693,505,13.8729,23.1907
476,519,13.8429,-22.4982,0.00131835,0.0011515,0.00332001,0.00455598,-0.00208613,0.772837,0.0039222,0.013666,1700,505,13.8429,22.4982
483,519,13.8094,-21.8086,0.00148055,0.00124146,0.00426871,0.00563139,-0.00290938,0.7714,0.0050138,0.0151227,1707,505,13.8095,21.8086
490,519,13.7817,-21.0909,0.00171403,0.00148581,0.00552264,0.00712374,-0.00392389,0.775068,0.00646692,0.0134608,1714,505,13.7817,21.0909
497,519,13.7407,-20.512,0.00189117,0.00179168,0.00690084,0.00874244,-0.00505959,0.781794,0.00806262,0.0212759,1721,505,13.7407,20.512
504,519,13.6846,-19.777,0.00194312,0.0024019,0.00844464,0.0106203,-0.00627525,0.798977,0.00986156,0.0223111,1728,505,13.6846,19.777
511,519,13.7219,-19.0049,0.00196051,0.00328841,0.0102185,0.0128645,-0.00761554,0.81784,0.0119529,0.0284486,1735,505,13.7219,19.0049
518,519,13.6635,-18.3228,0,0,0,0,0,0,0,-1,1742,505,13.6634,18.3228
525,519,13.5964,-17.64,0,0,0,0,0,0,0,-1,1749,505,13.5965,17.6399
532,519,13.9631,-16.675,0,0,0,0,0,0,0,-1,1756,505,13.9631,16.6751
539,519,14.0621,-15.6428,0,0,0,0,0,0,0,-1,1763,505,14.0621,15.6428
546,519,13.7856,-15.7215,0,0,0,0,0,0,0,-1,1770,505,13.7856,15.7215
553,519,4.14136,0.0667419,0,0,0,0,0,0,0,-1,1777,505,4.14141,-0.0667503
560,519,3.77856,0.279724,0,0,0,0,0,0,0,-1,1784,505,3.77861,-0.279731
567,519,0,0,0,0,0,0,0,0,0,-1,1791,505,0,0
574,519,0,0,0,0,0,0,0,0,0,-1,1798,505,0,0
581,519,0,0,0,0,0,0,0,0,0,-1,1805,505,0,0
588,519,0,0,0,0,0,0,0,0,0,-1,1812,505,0,0
595,519,0,0,0,0,0,0,0,0,0,-1,1819,505,0,0
602,519,0,0,0,0,0,0,0,0,0,-1,1826,505,0,0
609,519,0,0,0,0,0,0,0,0,0,-1,1833,505,0,0
616,519,0,0,0,0,0,0,0,0,0,-1,1840,505,0,0
623,519,0,0,0,0,0,0,0,0,0,-1,1847,505,0,0
630,519,0,0,0,0,0,0,0,0,0,-1,1854,505,0,0
637,519,0,0,0,0,0,0,0,0,0,-1,1861,505,0,0
644,519,0,0,0,0,0,0,0,0,0,-1,1868,505,0,0
651,519,0,0,0,0,0,0,0,0,0,-1,1875,505,0,0
658,519,0,0,0,0,0,0,0,0,0,-1,1882,505,0,0
665,519,0,0,0,0,0,0,0,0,0,-1,1889,505,0,0
672,519,0,0,0,0,0,0,0,0,0,-1,1896,505,0,0
679,519,0,0,0,0,0,0,0,0,0,-1,1903,505,0,0
686,519,0,0,0,0,0,0,0,0,0,-1,1910,505,0,0
693,519,0,0,0,0,0,0,0,0,0,-1,1917,505,0,0
700,519,0,0,0,0,0,0,0,0,0,-1,1924,505,0,0
707,519,0,0,0,0,0,0,0,0,0,-1,1931,505,0,0
714,519,0,0,0,0,0,0,0,0,0,-1,1938,505,0,0
721,519,0,0,0,0,0,0,0,0,0,-1,1945,505,0,0
728,519,0,0,0,0,0,0,0,0,0,-1,1952,505,0,0
735,519,0,0,0,0,0,0,0,0,0,-1,1959,505,0,0
742,519,0,0,0,0,0,0,0,0,0,-1,1966,505,0,0
749,519,0,0,0,0,0,0,0,0,0,-1,1973,505,0,0
756,519,0,0,0,0,0,0,0,0,0,-1,1980,505,0,0
763,519,0,0,0,0,0,0,0,0,0,-1,1987,505,0,0
770,519,0,0,0,0,0,0,0,0,0,-1,1994,505,0,0
777,519,0,0,0,0,0,0,0,0,0,-1,2001,505,0,0
784,519,0,0,0,0,0,0,0,0,0,-1,2008,505,0,0
791,519,0,0,0,0,0,0,0,0,0,-1,2015,505,0,0
798,519,0,0,0,0,0,0,0,0,0,-1,2022,505,0,0
805,519,0,0,0,0,0,0,0,0,0,-1,2029,505,0,0
812,519,0,0,0,0,0,0,0,0,0,-1,2036,505,0,0
-700,512,0,0,0,0,0,0,0,0,0,-1,524,512,0,0
-693,512,0,0,0,0,0,0,0,0,0,-1,531,512,0,0
-686,512,0,0,0,0,0,0,0,0,0,-1,538,512,0,0
-679,512,0,0,0,0,0,0,0,0,0,-1,545,512,0,0
-672,512,0,0,0,0,0,0,0,0,0,-1,552,512,0,0
-665,512,0,0,0,0,0,0,0,0,0,-1,559,512,0,0
-658,512,0,0,0,0,0,0,0,0,0,-1,566,512,0,0
-651,512,0,0,0,0,0,0,0,0,0,-1,573,512,0,0
-644,512,0,0,0,0,0,0,0,0,0,-1,580,512,0,0
-637,512,0,0,0,0,0,0,0,0,0,-1,587,512,0,0
-630,512,0,0,0,0,0,0,0,0,0,-1,594,512,0,0
-623,512,0,0,0,0,0,0,0,0,0,-1,601,512,0,0
-616,512,0,0,0,0,0,0,0,0,0,-1,608,512,0,0
-609,512,0,0,0,0,0,0,0,0,0,-1,615,512,0,0
-602,512,0,0,0,0,0,0,0,0,0,-1,622,512,0,0
-595,512,0,0,0,0,0,0,0,0,0,-1,629,512,0,0
-588,512,0,0,0,0,0,0,0,0,0,-1,636,512,0,0
-581,512,0,0,0,0,0,0,0,0,0,-1,643,512,0,0
-574,512,0,0,0,0,0,0,0,0,0,-1,650,512,0,0
-567,512,0,0,0,0,0,0,0,0,0,-1,657,512,0,0
-560,512,0,0,0,0,0,0,0,0,0,-1,664,512,0,0
-553,512,0,0,0,0,0,0,0,0,0,-1,671,512,0,0
-546,512,0,0,0,0,0,0,0,0,0,-1,678,512,0,0
-539,512,0,0,0,0,0,0,0,0,0,-1,685,512,0,0
-532,512,0,0,0,0,0,0,0,0,0,-1,692,512,0,0
-525,512,0,0,0,0,0,0,0,0,0,-1,699,512,0,0
-518,512,0,0,0,0,0,0,0,0,0,-1,706,512,0,0
-511,512,0,0,0,0,0,0,0,0,0,-1,713,512,0,0
-504,512,0,0,0,0,0,0,0,0,0,-1,720,512,0,0
-497,512,0,0,0,0,0,0,0,0,0,-1,727,512,0,0
-490,512,0,0,0,0,0,0,0,0,0,-1,734,512,0,0
-483,512,0,0,0,0,0,0,0,0,0,-1,741,512,0,0
-476,512,0,0,0,0,0,0,0,0,0,-1,748,512,0,0
-469,512,0,0,0,0,0,0,0,0,0,-1,755,512,0,0
-462,512,0,0,0,0,0,0,0,0,0,-1,762,512,0,0
-455,512,0,0,0,0,0,0,0,0,0,-1,769,512,0,0
-448,512,1.96283,-4.15674,0,0,0,0,0,0,0,-1,776,512,1.96285,4.15677
-441,512,1.78198,-4.88824,0,0,0,0,0,0,0,-1,783,512,1.78201,4.88826
-434,512,0.0726929,-9.85822,0,0,0,0,0,0,0,-1,790,512,0.0727008,9.85819
-427,512,-0.384583,-9.94824,0,0,0,0,0,0,0,-1,797,512,-0.384552,9.94823
-420,512,-2.93219,-12.4855,0,0,0,0,0,0,0,-1,804,512,-2.93219,12.4855
-413,512,-2.22711,-11.4485,0,0,0,0,0,0,0,-1,811,512,-2.22712,11.4485
-406,512,-2.38037,-13.5743,0,0,0,0,0,0,0,-1,818,512,-2.38034,13.5743
-399,512,-2.48907,-18.1215,0,0,0,0,0,0,0,-1,825,512,-2.48907,18.1214
-392,512,-2.29846,-19.1252,0.00608171,0.0213324,-0.0135953,0.0292948,-0.00188074,-1.04098,0.020186,0.042769,832,512,-2.29846,19.1253
-385,512,-2.32031,-20.0521,0.00591373,0.0180464,-0.0118532,0.0252955,-0.00133533,-1.02192,0.0173259,0.0210201,839,512,-2.32032,20.052
-378,512,-2.39514,-20.75,0.00555879,0.0150972,-0.0102618,0.0216439,-0.000987955,-1.00292,0.0147696,0.0165613,846,512,-2.39511,20.75
-371,512,-2.42456,-21.4662,0.00512842,0.0124768,-0.00879483,0.0183341,-0.000728834,-0.983263,0.0124728,0.0135603,853,512,-2.42454,21.4663
-364,512,-2.44702,-22.2162,0.00453099,0.010069,-0.00724152,0.0150529,-0.00045287,-0.96801,0.0101896,0.010404,860,512,-2.44703,22.2162
-357,512,-2.45837,-22.8693,0.00383762,0.00793591,-0.00578148,0.0120206,-0.000247118,-0.955707,0.00809739,0.0117271,867,512,-2.45836,22.8694
-350,512,-2.48798,-23.5203,0.00314487,0.00603413,-0.00444764,0.00926587,-8.68686e-05,-0.942428,0.00620641,0.0115961,874,512,-2.48796,23.5204
-343,512,-2.55774,-24.177,0.00250482,0.00423606,-0.0032227,0.00670736,3.35115e-05,-0.916602,0.00446045,0.0129965,881,512,-2.55775,24.177
-336,512,-2.6264,-24.8414,0.00192077,0.00263005,-0.00208204,0.00438743,0.000163378,-0.869755,0.00287205,0.014576,888,512,-2.62642,24.8414
-329,512,-2.61243,-25.4698,0.00148551,0.00131763,-0.00113386,0.00253853,0.000264611,-0.748451,0.00161141,0.0161368,895,512,-2.61244,25.4699
-322,512,-2.61267,-26.0961,0.00123699,0.000174793,-0.000338457,0.00133567,7.61152e-05,-0.28369,0.000866189,0.0136233,902,512,-2.61266,26.0961
-315,512,-2.63733,-26.7471,0.00117499,-0.000758197,0.000323597,0.00122772,-0.000810926,0.161526,0.00118518,0.011143,909,512,-2.63735,26.7471
-308,512,-2.66907,-27.3921,0.00143788,-0.00152331,0.000788428,0.00163472,-0.00172015,0.244657,0.00193715,0.0108948,916,512,-2.66904,27.3921
-301,512,-2.71497,-28.0079,0.00183863,-0.00202721,0.00112177,0.00214056,-0.00232914,0.262922,0.00258135,0.015633,923,512,-2.71495,28.0079
-294,512,-2.70251,-28.5692,0.00226899,-0.00236052,0.00153921,0.00273403,-0.00282556,0.293409,0.00320998,0.0159045,930,512,-2.7025,28.5692
-287,512,-2.80493,-29.0975,0.00283784,-0.00278525,0.00184425,0.00338875,-0.00333616,0.290275,0.00388266,0.0279979,937,512,-2.80495,29.0975
-280,512,-2.7688,-29.8038,0,0,0,0,0,0,0,-1,944,512,-2.76882,29.8037
-273,512,-2.5578,-30.4907,0,0,0,0,0,0,0,-1,951,512,-2.55781,30.4907
-266,512,-2.33594,-25.9839,0,0,0,0,0,0,0,-1,958,512,-2.33592,25.9839
-259,512,-0.525452,-14.0815,0,0,0,0,0,0,0,-1,965,512,-0.525475,14.0815
-252,512,1.45941,-3.43475,0,0,0,0,0,0,0,-1,972,512,1.45938,3.43475
-245,512,-1.6731,-22.8959,0,0,0,0,0,0,0,-1,979,512,-1.67312,22.8959
-238,512,0.227051,-8.92969,0,0,0,0,0,0,0,-1,986,512,0.227073,8.92968
-231,512,-0.907349,-32.3113,0,0,0,0,0,0,0,-1,993,512,-0.907339,32.3113
-224,512,-1.29974,-33.6304,0,0,0,0,0,0,0,-1,1000,512,-1.29974,33.6304
-217,512,-0.963196,-34.1697,0,0,0,0,0,0,0,-1,1007,512,-0.963226,34.1697
-210,512,-3.76642,-1.94702,0,0,0,0,0,0,0,-1,1014,512,-3.76641,1.94702
-203,512,-2.48328,-5.19061,0,0,0,0,0,0,0,-1,1021,512,-2.48328,5.19059
-196,512,-1.14929,-4.63202,0,0,0,0,0,0,0,-1,1028,512,-1.14934,4.632
-189,512,0.197998,4.55505,0,0,0,0,0,0,0,-1,1035,512,0.197996,-4.55506
-182,512,2.73938,0.0778503,0,0,0,0,0,0,0,-1,1042,512,2.73944,-0.077852
-175,512,2.29565,0.209808,0,0,0,0,0,0,0,-1,1049,512,2.29565,-0.209813
-168,512,2.09399,-0.302856,0,0,0,0,0,0,0,-1,1056,512,2.09403,0.302826
-161,512,2.76636,0.0921021,0,0,0,0,0,0,0,-1,1063,512,2.76633,-0.0921104
-154,512,3.41382,0.466187,0,0,0,0,0,0,0,-1,1070,512,3.41382,-0.466178
-147,512,0,0,0,0,0,0,0,0,0,-1,1077,512,0,0
-140,512,0,0,0,0,0,0,0,0,0,-1,1084,512,0,0
-133,512,0,0,0,0,0,0,0,0,0,-1,1091,512,0,0
-126,512,0,0,0,0,0,0,0,0,0,-1,1098,512,0,0
-119,512,0,0,0,0,0,0,0,0,0,-1,1105,512,0,0
-112,512,0,0,0,0,0,0,0,0,0,-1,1112,512,0,0
-105,512,0,0,0,0,0,0,0,0,0,-1,1119,512,0,0
-98,512,0,0,0,0,0,0,0,0,0,-1,1126,512,0,0
-91,512,0,0,0,0,0,0,0,0,0,-1,1133,512,0,0
-84,512,0,0,0,0,0,0,0,0,0,-1,1140,512,0,0
-77,512,0,0,0,0,0,0,0,0,0,-1,1147,512,0,0
-70,512,0,0,0,0,0,0,0,0,0,-1,1154,512,0,0
-63,512,0,0,0,0,0,0,0,0,0,-1,1161,512,0,0
-56,512,0,0,0,0,0,0,0,0,0,-1,1168,512,0,0
-49,512,0,0,0,0,0,0,0,0,0,-1,1175,512,0,0
-42,512,0,0,0,0,0,0,0,0,0,-1,1182,512,0,0
-35,512,0,0,0,0,0,0,0,0,0,-1,1189,512,0,0
-28,512,0,0,0,0,0,0,0,0,0,-1,1196,512,0,0
-21,512,0,0,0,0,0,0,0,0,0,-1,1203,512,0,0
-14,512,0,0,0,0,0,0,0,0,0,-1,1210,512,0,0
-7,512,0,0,0,0,0,0,0,0,0,-1,1217,512,0,0
0,512,0,0,0,0,0,0,0,0,0,-1,1224,512,0,0
7,512,0,0,0,0,0,0,0,0,0,-1,1231,512,0,0
14,512,0,0,0,0,0,0,0,0,0,-1,1238,512,0,0
21,512,0,0,0,0,0,0,0,0,0,-1,1245,512,0,0
28,512,0,0,0,0,0,0,0,0,0,-1,1252,512,0,0
35,512,0,0,0,0,0,0,0,0,0,-1,1259,512,0,0
42,512,0,0,0,0,0,0,0,0,0,-1,1266,512,0,0
49,512,0,0,0,0,0,0,0,0,0,-1,1273,512,0,0
56,512,0,0,0,0,0,0,0,0,0,-1,1280,512,0,0
63,512,0,0,0,0,0,0,0,0,0,-1,1287,512,0,0
70,512,0,0,0,0,0,0,0,0,0,-1,1294,512,0,0
77,512,0,0,0,0,0,0,0,0,0,-1,1301,512,0,0
84,512,0,0,0,0,0,0,0,0,0,-1,1308,512,0,0
91,512,0,0,0,0,0,0,0,0,0,-1,1315,512,0,0
98,512,0,0,0,0,0,0,0,0,0,-1,1322,512,0,0
105,512,0,0,0,0,0,0,0,0,0,-1,1329,512,0,0
112,512,0,0,0,0,0,0,0,0,0,-1,1336,512,0,0
119,512,0,0,0,0,0,0,0,0,0,-1,1343,512,0,0
126,512,0,0,0,0,0,0,0,0,0,-1,1350,512,0,0
133,512,0,0,0,0,0,0,0,0,0,-1,1357,512,0,0
140,512,0,0,0,0,0,0,0,0,0,-1,1364,512,0,0
147,512,0,0,0,0,0,0,0,0,0,-1,1371,512,0,0
154,512,0,0,0,0,0,0,0,0,0,-1,1378,512,0,0
161,512,0,0,0,0,0,0,0,0,0,-1,1385,512,0,0
168,512,0,0,0,0,0,0,0,0,0,-1,1392,512,0,0
175,512,0,0,0,0,0,0,0,0,0,-1,1399,512,0,0
182,512,0,0,0,0,0,0,0,0,0,-1,1406,512,0,0
189,512,0,0,0,0,0,0,0,0,0,-1,1413,512,0,0
196,512,0,0,0,0,0,0,0,0,0,-1,1420,512,0,0
203,512,0,0,0,0,0,0,0,0,0,-1,1427,512,0,0
210,512,0,0,0,0,0,0,0,0,0,-1,1434,512,0,0
217,512,0,0,0,0,0,0,0,0,0,-1,1441,512,0,0
224,512,0,0,0,0,0,0,0,0,0,-1,1448,512,0,0
231,512,0,0,0,0,0,0,0,0,0,-1,1455,512,0,0
238,512,0,0,0,0,0,0,0,0,0,-1,1462,512,0,0
245,512,0,0,0,0,0,0,0,0,0,-1,1469,512,0,0
252,512,0,0,0,0,0,0,0,0,0,-1,1476,512,0,0
259,512,0,0,0,0,0,0,0,0,0,-1,1483,512,0,0
266,512,0,0,0,0,0,0,0,0,0,-1,1490,512,0,0
273,512,4.00745,0.618622,0,0,0,0,0,0,0,-1,1497,512,4.00747,-0.618611
280,512,4.49609,0.649841,0,0,0,0,0,0,0,-1,1504,512,4.49612,-0.649834
287,512,4.77234,0.458069,0,0,0,0,0,0,0,-1,1511,512,4.77233,-0.458083
294,512,8.54956,-2.36273,0,0,0,0,0,0,0,-1,1518,512,8.54952,2.36274
301,512,6.302,-1.69092,0,0,0,0,0,0,0,-1,1525,512,6.30196,1.69093
308,512,8.2439,-6.22754,0,0,0,0,0,0,0,-1,1532,512,8.24394,6.22757
315,512,7.53687,-6.04211,0,0,0,0,0,0,0,-1,1539,512,7.53691,6.04211
322,512,6.82983,-5.85663,0,0,0,0,0,0,0,-1,1546,512,6.82988,5.85666
329,512,4.38147,-0.329651,0,0,0,0,0,0,0,-1,1553,512,4.38144,0.329662
336,512,4.41467,-0.741455,0,0,0,0,0,0,0,-1,1560,512,4.41467,0.741442
343,512,4.44727,-1.21667,0,0,0,0,0,0,0,-1,1567,512,4.44732,1.21666
350,512,4.55469,-1.65082,0,0,0,0,0,0,0,-1,1574,512,4.5547,1.65083
357,512,5.79993,-2.67456,0,0,0,0,0,0,0,-1,1581,512,5.79991,2.67454
364,512,13.118,-28.5485,0,0,0,0,0,0,0,-1,1588,512,13.1181,28.5485
371,512,5.28467,-7.69269,0,0,0,0,0,0,0,-1,1595,512,5.28464,7.69269
378,512,6.29407,-9.88055,0,0,0,0,0,0,0,-1,1602,512,6.29412,9.88057
385,512,6.45569,-9.32233,0,0,0,0,0,0,0,-1,1609,512,6.45565,9.3223
392,512,6.35522,-8.98425,0,0,0,0,0,0,0,-1,1616,512,6.35526,8.98422
399,512,14.8899,-29.0853,0,0,0,0,0,0,0,-1,1623,512,14.8899,29.0853
406,512,14.7452,-29.098,0,0,0,0,0,0,0,-1,1630,512,14.7452,29.098
413,512,14.8109,-28.4539,0,0,0,0,0,0,0,-1,1637,512,14.811,28.4538
420,512,14.733,-27.7938,0.00158814,-0.000372761,-0.0018434,0.00269561,-0.00148023,-0.54099,0.00244473,0.026496,1644,512,14.733,27.7938
427,512,14.6866,-27.1249,0.00158607,0.000295524,-0.00136101,0.00244702,-0.000565428,-0.564036,0.00184887,0.0154236,1651,512,14.6867,27.1249
434,512,14.6411,-26.4887,0.00136997,0.000579328,-0.000933987,0.00198886,-3.95548e-05,-0.585199,0.00133928,0.0112524,1658,512,14.6411,26.4887
441,512,14.5929,-25.8118,0.00125827,0.000798572,-0.000459794,0.00154247,0.000514377,-0.553616,0.000906856,0.0127836,1665,512,14.5928,25.8118
448,512,14.5624,-25.1727,0.00124629,0.000875726,-9.23076e-06,0.00124652,0.000875496,-0.0248894,0.000739063,0.00937811,1672,512,14.5624,25.1727
455,512,14.5377,-24.5161,0.00122381,0.00107178,0.000477457,0.00163126,0.000664322,0.706458,0.000947197,0.00886112,1679,512,14.5378,24.5161
462,512,14.5221,-23.8435,0.00124974,0.00105504,0.000984312,0.0021415,0.000163272,0.736108,0.00137647,0.00927952,1686,512,14.5221,23.8435
469,512,14.4904,-23.1539,0.00128986,0.00106311,0.00159129,0.0027718,-0.000418835,0.749835,0.00200214,0.0111145,1693,512,14.4904,23.1538
476,512,14.4716,-22.4791,0.0012473,0.00130275,0.00236018,0.00363537,-0.00108531,0.791272,0.00285496,0.0144336,1700,512,14.4715,22.4791
483,512,14.4612,-21.78,0.00131379,0.00145418,0.00315946,0.00454422,-0.00177625,0.796505,0.00376396,0.0143199,1707,512,14.4612,21.78
490,512,14.4427,-21.1036,0.00139977,0.00177186,0.00418265,0.0057726,-0.00260097,0.807624,0.00494873,0.0112523,1714,512,14.4427,21.1037
497,512,14.3994,-20.4263,0.00144255,0.00217072,0.00532221,0.00714128,-0.00352802,0.819549,0.00627657,0.011544,1721,512,14.3994,20.4263
504,512,14.3407,-19.7088,0.00138177,0.00277878,0.00659417,0.00871133,-0.00455078,0.838165,0.00778147,0.0133865,1728,512,14.3407,19.7088
511,512,14.2921,-18.9695,0.00115448,0.00357681,0.00795043,0.0104078,-0.00567651,0.860987,0.00941925,0.0170338,1735,512,14.2921,18.9696
518,512,14.3265,-18.2557,0.000622886,0.00464433,0.00936722,0.0122142,-0.00694699,0.891121,0.0112012,0.0211434,1742,512,14.3266,18.2557
525,512,14.1124,-17.274,-0.000256836,0.00607527,0.0107031,0.0140708,-0.00825237,0.9292,0.0130334,0.0408716,1749,512,14.1124,17.274
532,512,14.1296,-16.4229,0,0,0,0,0,0,0,-1,1756,512,14.1297,16.4229
539,512,13.9465,-17.3884,0,0,0,0,0,0,0,-1,1763,512,13.9466,17.3884
546,512,2.77551,-0.66449,0,0,0,0,0,0,0,-1,1770,512,2.77548,0.664503
553,512,3.927,-0.448853,0,0,0,0,0,0,0,-1,1777,512,3.92704,0.448843
560,512,3.55762,-0.201233,0,0,0,0,0,0,0,-1,1784,512,3.55768,0.201259
567,512,3.09045,0.191193,0,0,0,0,0,0,0,-1,1791,512,3.09045,-0.191203
574,512,0,0,0,0,0,0,0,0,0,-1,1798,512,0,0
581,512,0,0,0,0,0,0,0,0,0,-1,1805,512,0,0
588,512,0,0,0,0,0,0,0,0,0,-1,1812,512,0,0
595,512,0,0,0,0,0,0,0,0,0,-1,1819,512,0,0
602,512,0,0,0,0,0,0,0,0,0,-1,1826,512,0,0
609,512,0,0,0,0,0,0,0,0,0,-1,1833,512,0,0
616,512,0,0,0,0,0,0,0,0,0,-1,1840,512,0,0
623,512,0,0,0,0,0,0,0,0,0,-1,1847,512,0,0
630,512,0,0,0,0,0,0,0,0,0,-1,1854,512,0,0
637,512,0,0,0,0,0,0,0,0,0,-1,1861,512,0,0
644,512,0,0,0,0,0,0,0,0,0,-1,1868,512,0,0
651,512,0,0,0,0,0,0,0,0,0,-1,1875,512,0,0
658,512,0,0,0,0,0,0,0,0,0,-1,1882,512,0,0
665,512,0,0,0,0,0,0,0,0,0,-1,1889,512,0,0
672,512,0,0,0,0,0,0,0,0,0,-1,1896,512,0,0
679,512,0,0,0,0,0,0,0,0,0,-1,1903,512,0,0
686,512,0,0,0,0,0,0,0,0,0,-1,1910,512,0,0
693,512,0,0,0,0,0,0,0,0,0,-1,1917,512,0,0
700,512,0,0,0,0,0,0,0,0,0,-1,1924,512,0,0
707,512,0,0,0,0,0,0,0,0,0,-1,1931,512,0,0
714,512,0,0,0,0,0,0,0,0,0,-1,1938,512,0,0
721,512,0,0,0,0,0,0,0,0,0,-1,1945,512,0,0
728,512,0,0,0,0,0,0,0,0,0,-1,1952,512,0,0
735,512,0,0,0,0,0,0,0,0,0,-1,1959,512,0,0
742,512,0,0,0,0,0,0,0,0,0,-1,1966,512,0,0
749,512,0,0,0,0,0,0,0,0,0,-1,1973,512,0,0
756,512,0,0,0,0,0,0,0,0,0,-1,1980,512,0,0
763,512,0,0,0,0,0,0,0,0,0,-1,1987,512,0,0
770,512,0,0,0,0,0,0,0,0,0,-1,1994,512,0,0
777,512,0,0,0,0,0,0,0,0,0,-1,2001,512,0,0
784,512,0,0,0,0,0,0,0,0,0,-1,2008,512,0,0
791,512,0,0,0,0,0,0,0,0,0,-1,2015,512,0,0
798,512,0,0,0,0,0,0,0,0,0,-1,2022,512,0,0
805,512,0,0,0,0,0,0,0,0,0,-1,2029,512,0,0
812,512,0,0,0,0,0,0,0,0,0,-1,2036,512,0,0
-700,505,0,0,0,0,0,0,0,0,0,-1,524,519,0,0
-693,505,0,0,0,0,0,0,0,0,0,-1,531,519,0,0
-686,505,0,0,0,0,0,0,0,0,0,-1,538,519,0,0
-679,505,0,0,0,0,0,0,0,0,0,-1,545,519,0,0
-672,505,0,0,0,0,0,0,0,0,0,-1,552,519,0,0
-665,505,0,0,0,0,0,0,0,0,0,-1,559,519,0,0
-658,505,0,0,0,0,0,0,0,0,0,-1,566,519,0,0
-651,505,0,0,0,0,0,0,0,0,0,-1,573,519,0,0
-644,505,0,0,0,0,0,0,0,0,0,-1,580,519,0,0
-637,505,0,0,0,0,0,0,0,0,0,-1,587,519,0,0
-630,505,0,0,0,0,0,0,0,0,0,-1,594,519,0,0
-623,505,0,0,0,0,0,0,0,0,0,-1,601,519,0,0
-616,505,0,0,0,0,0,0,0,0,0,-1,608,519,0,0
-609,505,0,0,0,0,0,0,0,0,0,-1,615,519,0,0
-602,505,0,0,0,0,0,0,0,0,0,-1,622,519,0,0
-595,505,0,0,0,0,0,0,0,0,0,-1,629,519,0,0
-588,505,0,0,0,0,0,0,0,0,0,-1,636,519,0,0
-581,505,0,0,0,0,0,0,0,0,0,-1,643,519,0,0
-574,505,0,0,0,0,0,0,0,0,0,-1,650,519,0,0
-567,505,0,0,0,0,0,0,0,0,0,-1,657,519,0,0
-560,505,0,0,0,0,0,0,0,0,0,-1,664,519,0,0
-553,505,0,0,0,0,0,0,0,0,0,-1,671,519,0,0
-546,505,0,0,0,0,0,0,0,0,0,-1,678,519,0,0
-539,505,0,0,0,0,0,0,0,0,0,-1,685,519,0,0
-532,505,0,0,0,0,0,0,0,0,0,-1,692,519,0,0
-525,505,0,0,0,0,0,0,0,0,0,-1,699,519,0,0
-518,505,0,0,0,0,0,0,0,0,0,-1,706,519,0,0
-511,505,0,0,0,0,0,0,0,0,0,-1,713,519,0,0
-504,505,0,0,0,0,0,0,0,0,0,-1,720,519,0,0
-497,505,0,0,0,0,0,0,0,0,0,-1,727,519,0,0
-490,505,0,0,0,0,0,0,0,0,0,-1,734,519,0,0
-483,505,0,0,0,0,0,0,0,0,0,-1,741,519,0,0
-476,505,0,0,0,0,0,0,0,0,0,-1,748,519,0,0
-469,505,0,0,0,0,0,0,0,0,0,-1,755,519,0,0
-462,505,0,0,0,0,0,0,0,0,0,-1,762,519,0,0
-455,505,2.72137,-3.26379,0,0,0,0,0,0,0,-1,769,519,2.72135,3.26377
-448,505,2.51111,-3.94989,0,0,0,0,0,0,0,-1,776,519,2.51112,3.94986
-441,505,2.80212,-6.8902,0,0,0,0,0,0,0,-1,783,519,2.80209,6.89019
-434,505,-0.155212,-10.6374,0,0,0,0,0,0,0,-1,790,519,-0.155194,10.6374
-427,505,-0.474426,-10.4702,0,0,0,0,0,0,0,-1,797,519,-0.474433,10.4702
-420,505,-0.922546,-10.1928,0,0,0,0,0,0,0,-1,804,519,-0.92257,10.1928
-413,505,-3.33948,-13.6183,0,0,0,0,0,0,0,-1,811,519,-3.33949,13.6184
-406,505,-2.86981,-15.8972,0,0,0,0,0,0,0,-1,818,519,-2.86981,15.8972
-399,505,-2.90204,-18.2971,0,0,0,0,0,0,0,-1,825,519,-2.90206,18.297
-392,505,-2.96472,-19.281,0.00370431,0.0168027,-0.0104078,0.0225504,-0.00204341,-1.06623,0.015759,0.0243552,832,519,-2.96473,19.281
-385,505,-3.01111,-20.1038,0.00376275,0.0140708,-0.00906083,0.0193409,-0.00150736,-1.04399,0.0134246,0.0108255,839,519,-3.0111,20.1038
-378,505,-3.04956,-20.813,0.00373321,0.0116472,-0.00783948,0.0164717,-0.00109134,-1.01912,0.0113624,0.0128858,846,519,-3.04958,20.8131
-371,505,-3.065,-21.5222,0.00357907,0.0093909,-0.00669241,0.0137811,-0.000811091,-0.990221,0.00946932,0.0156579,853,519,-3.06499,21.5222
-364,505,-3.10071,-22.2109,0.00326511,0.00724898,-0.00543726,0.0110477,-0.000533602,-0.96098,0.00754928,0.0159513,860,519,-3.10071,22.2109
-357,505,-3.11414,-22.8619,0.00287515,0.00540427,-0.00422879,0.00855353,-0.000274112,-0.930685,0.00579589,0.01311,867,519,-3.11415,22.8619
-350,505,-3.15924,-23.5082,0.00247862,0.00378158,-0.00313864,0.00633564,-7.5435e-05,-0.887729,0.00424913,0.0119439,874,519,-3.15925,23.5082
-343,505,-3.20453,-24.1588,0.00207476,0.00221953,-0.00210671,0.0042551,3.9191e-05,-0.802571,0.00282376,0.00989518,881,519,-3.2045,24.1588
-336,505,-3.25366,-24.8029,0.0016761,0.000827743,-0.00112074,0.00245025,5.35968e-05,-0.604488,0.00161593,0.0126115,888,519,-3.25368,24.8029
-329,505,-3.23523,-25.4296,0.00140359,-0.000295906,-0.000286863,0.0014507,-0.000343021,-0.162787,0.00109946,0.0178964,895,519,-3.23523,25.4296
-322,505,-3.24243,-26.0856,0.00130208,-0.00119459,0.000398894,0.00136426,-0.00125677,0.154643,0.00151368,0.0217141,902,519,-3.2424,26.0856
-315,505,-3.28186,-26.7313,0.00134363,-0.00188574,0.000964686,0.00160985,-0.00215196,0.26927,0.00217939,0.0162656,909,519,-3.28188,26.7312
-308,505,-3.3111,-27.3406,0.0018207,-0.00246464,0.00132337,0.00219643,-0.00284037,0.27664,0.00291591,0.0119654,916,519,-3.31107,27.3406
-301,505,-3.32996,-27.9636,0.00240353,-0.00266555,0.00158955,0.00286074,-0.00312276,0.280074,0.00345568,0.0170227,923,519,-3.32994,27.9636
-294,505,-3.31677,-28.5387,0,0,0,0,0,0,0,-1,930,519,-3.31677,28.5387
-287,505,-3.41754,-29.2031,0,0,0,0,0,0,0,-1,937,519,-3.41752,29.2031
-280,505,-2.79846,-27.7252,0,0,0,0,0,0,0,-1,944,519,-2.79845,27.7252
-273,505,-0.0680542,-9.44867,0,0,0,0,0,0,0,-1,951,519,-0.0680462,9.44866
-266,505,-0.036377,-9.07922,0,0,0,0,0,0,0,-1,958,519,-0.0364055,9.0792
-259,505,0.10321,-6.69824,0,0,0,0,0,0,0,-1,965,519,0.103235,6.69826
-252,505,6.82312,-15.6972,0,0,0,0,0,0,0,-1,972,519,6.82314,15.6972
-245,505,4.26727,-12.9861,0,0,0,0,0,0,0,-1,979,519,4.2673,12.9861
-238,505,1.67432,-11.2307,0,0,0,0,0,0,0,-1,986,519,1.67429,11.2307
-231,505,-0.958435,-8.3075,0,0,0,0,0,0,0,-1,993,519,-0.958421,8.30751
-224,505,-1.46399,-33.4399,0,0,0,0,0,0,0,-1,1000,519,-1.46397,33.4399
-217,505,-6.34302,-1.65533,0,0,0,0,0,0,0,-1,1007,519,-6.34299,1.65535
-210,505,-3.06128,-0.396301,0,0,0,0,0,0,0,-1,1014,519,-3.06129,0.396294
-203,505,-4.26465,2.03607,0,0,0,0,0,0,0,-1,1021,519,-4.26462,-2.03606
-196,505,-5.47595,4.27295,0,0,0,0,0,0,0,-1,1028,519,-5.47597,-4.27292
-189,505,1.51526,5.56207,0,0,0,0,0,0,0,-1,1035,519,1.51523,-5.56209
-182,505,2.97815,7.5097,0,0,0,0,0,0,0,-1,1042,519,2.97812,-7.5097
-175,505,-2.38416,-2.17548,0,0,0,0,0,0,0,-1,1049,519,-2.38411,2.1755
-168,505,0,0,0,0,0,0,0,0,0,-1,1056,519,0,0
-161,505,0,0,0,0,0,0,0,0,0,-1,1063,519,0,0
-154,505,0,0,0,0,0,0,0,0,0,-1,1070,519,0,0
-147,505,0,0,0,0,0,0,0,0,0,-1,1077,519,0,0
-140,505,0,0,0,0,0,0,0,0,0,-1,1084,519,0,0
-133,505,0,0,0,0,0,0,0,0,0,-1,1091,519,0,0
-126,505,0,0,0,0,0,0,0,0,0,-1,1098,519,0,0
-119,505,0,0,0,0,0,0,0,0,0,-1,1105,519,0,0
-112,505,0,0,0,0,0,0,0,0,0,-1,1112,519,0,0
-105,505,0,0,0,0,0,0,0,0,0,-1,1119,519,0,0
-98,505,0,0,0,0,0,0,0,0,0,-1,1126,519,0,0
-91,505,0,0,0,0,0,0,0,0,0,-1,1133,519,0,0
-84,505,0,0,0,0,0,0,0,0,0,-1,1140,519,0,0
-77,505,0,0,0,0,0,0,0,0,0,-1,1147,519,0,0
-70,505,0,0,0,0,0,0,0,0,0,-1,1154,519,0,0
-63,505,0,0,0,0,0,0,0,0,0,-1,1161,519,0,0
-56,505,0,0,0,0,0,0,0,0,0,-1,1168,519,0,0
-49,505,0,0,0,0,0,0,0,0,0,-1,1175,519,0,0
-42,505,0,0,0,0,0,0,0,0,0,-1,1182,519,0,0
-35,505,0,0,0,0,0,0,0,0,0,-1,1189,519,0,0
-28,505,0,0,0,0,0,0,0,0,0,-1,1196,519,0,0
-21,505,0,0,0,0,0,0,0,0,0,-1,1203,519,0,0
-14,505,0,0,0,0,0,0,0,0,0,-1,1210,519,0,0
-7,505,0,0,0,0,0,0,0,0,0,-1,1217,519,0,0
0,505,0,0,0,0,0,0,0,0,0,-1,1224,519,0,0
7,505,0,0,0,0,0,0,0,0,0,-1,1231,519,0,0
14,505,0,0,0,0,0,0,0,0,0,-1,1238,519,0,0
21,505,0,0,0,0,0,0,0,0,0,-1,1245,519,0,0
28,505,0,0,0,0,0,0,0,0,0,-1,1252,519,0,0
35,505,0,0,0,0,0,0,0,0,0,-1,1259,519,0,0
42,505,0,0,0,0,0,0,0,0,0,-1,1266,519,0,0
49,505,0,0,0,0,0,0,0,0,0,-1,1273,519,0,0
56,505,0,0,0,0,0,0,0,0,0,-1,1280,519,0,0
63,505,0,0,0,0,0,0,0,0,0,-1,1287,519,0,0
70,505,0,0,0,0,0,0,0,0,0,-1,1294,519,0,0
77,505,0,0,0,0,0,0,0,0,0,-1,1301,519,0,0
84,505,0,0,0,0,0,0,0,0,0,-1,1308,519,0,0
91,505,0,0,0,0,0,0,0,0,0,-1,1315,519,0,0
98,505,0,0,0,0,0,0,0,0,0,-1,1322,519,0,0
105,505,0,0,0,0,0,0,0,0,0,-1,1329,519,0,0
112,505,0,0,0,0,0,0,0,0,0,-1,1336,519,0,0
119,505,0,0,0,0,0,0,0,0,0,-1,1343,519,0,0
126,505,0,0,0,0,0,0,0,0,0,-1,1350,519,0,0
133,505,0,0,0,0,0,0,0,0,0,-1,1357,519,0,0
140,505,0,0,0,0,0,0,0,0,0,-1,1364,519,0,0
147,505,0,0,0,0,0,0,0,0,0,-1,1371,519,0,0
154,505,0,0,0,0,0,0,0,0,0,-1,1378,519,0,0
161,505,0,0,0,0,0,0,0,0,0,-1,1385,519,0,0
168,505,0,0,0,0,0,0,0,0,0,-1,1392,519,0,0
175,505,0,0,0,0,0,0,0,0,0,-1,1399,519,0,0
182,505,0,0,0,0,0,0,0,0,0,-1,1406,519,0,0
189,505,0,0,0,0,0,0,0,0,0,-1,1413,519,0,0
196,505,0,0,0,0,0,0,0,0,0,-1,1420,519,0,0
203,505,0,0,0,0,0,0,0,0,0,-1,1427,519,0,0
210,505,0,0,0,0,0,0,0,0,0,-1,1434,519,0,0
217,505,0,0,0,0,0,0,0,0,0,-1,1441,519,0,0
224,505,0,0,0,0,0,0,0,0,0,-1,1448,519,0,0
231,505,0,0,0,0,0,0,0,0,0,-1,1455,519,0,0
238,505,0,0,0,0,0,0,0,0,0,-1,1462,519,0,0
245,505,0,0,0,0,0,0,0,0,0,-1,1469,519,0,0
252,505,0,0,0,0,0,0,0,0,0,-1,1476,519,0,0
259,505,0,0,0,0,0,0,0,0,0,-1,1483,519,0,0
266,505,0,0,0,0,0,0,0,0,0,-1,1490,519,0,0
273,505,0,0,0,0,0,0,0,0,0,-1,1497,519,0,0
280,505,0,0,0,0,0,0,0,0,0,-1,1504,519,0,0
287,505,4.39478,0.499512,0,0,0,0,0,0,0,-1,1511,519,4.39476,-0.499506
294,505,4.88867,0.0822754,0,0,0,0,0,0,0,-1,1518,519,4.88871,-0.0822748
301,505,4.82153,-0.0704346,0,0,0,0,0,0,0,-1,1525,519,4.82156,0.0704312
308,505,4.67761,-0.29187,0,0,0,0,0,0,0,-1,1532,519,4.67762,0.291845
315,505,8.44055,-6.54352,0,0,0,0,0,0,0,-1,1539,519,8.44059,6.54349
322,505,4.78955,-0.594116,0,0,0,0,0,0,0,-1,1546,519,4.78957,0.594096
329,505,5.16321,0.434631,0,0,0,0,0,0,0,-1,1553,519,5.16316,-0.434614
336,505,4.94495,-0.920471,0,0,0,0,0,0,0,-1,1560,519,4.945,0.920495
343,505,5.01855,-1.4823,0,0,0,0,0,0,0,-1,1567,519,5.01851,1.48227
350,505,5.33154,-1.77838,0,0,0,0,0,0,0,-1,1574,519,5.33152,1.77838
357,505,5.56567,-1.9425,0,0,0,0,0,0,0,-1,1581,519,5.56562,1.94248
364,505,5.85205,-2.6579,0,0,0,0,0,0,0,-1,1588,519,5.85211,2.65788
371,505,5.88477,-7.00922,0,0,0,0,0,0,0,-1,1595,519,5.88473,7.00924
378,505,5.44104,-7.10162,0,0,0,0,0,0,0,-1,1602,519,5.44099,7.10162
385,505,6.64661,-8.65015,0,0,0,0,0,0,0,-1,1609,519,6.64662,8.65014
392,505,6.34558,-8.3429,0,0,0,0,0,0,0,-1,1616,519,6.34554,8.34288
399,505,7.45898,-9.70386,0,0,0,0,0,0,0,-1,1623,519,7.45899,9.70388
406,505,7.08679,-9.4928,0,0,0,0,0,0,0,-1,1630,519,7.08678,9.49278
413,505,8.4032,-14.0308,0,0,0,0,0,0,0,-1,1637,519,8.4032,14.0308
420,505,15.3661,-28.0344,0,0,0,0,0,0,0,-1,1644,519,15.3661,28.0343
427,505,15.3129,-27.2386,0.00188615,-0.000168683,-0.00197171,0.00308206,-0.0013646,-0.545214,0.00263034,0.0315683,1651,519,15.3128,27.2386
434,505,15.2864,-26.4849,0.00161285,0.000127281,-0.00156193,0.00259962,-0.000859489,-0.563448,0.00207964,0.0125009,1658,519,15.2864,26.4849
441,505,15.2723,-25.7756,0.00149987,0.000364968,-0.00109309,0.00216402,-0.000299186,-0.545983,0.00155205,0.010704,1665,519,15.2724,25.7756
448,505,15.2214,-25.1288,0.00151762,0.000524311,-0.000633911,0.00182626,0.000215665,-0.453107,0.00115237,0.0112212,1672,519,15.2214,25.1289
455,505,15.1987,-24.475,0.00146588,0.000846269,-0.000162035,0.0015057,0.000806454,-0.240946,0.00087005,0.0115917,1679,519,15.1988,24.475
462,505,15.1721,-23.8122,0.00140382,0.000945197,0.000248327,0.00151252,0.0008365,0.412593,0.000874891,0.0110496,1686,519,15.1722,23.8122
469,505,15.1361,-23.1389,0.00140322,0.00106012,0.000814568,0.00206411,0.000399233,0.681613,0.00126418,0.0106363,1693,519,15.1361,23.1389
476,505,15.1263,-22.473,0.00134608,0.00134594,0.0015109,0.00285691,-0.00016489,0.785374,0.00196188,0.01152,1700,519,15.1264,22.473
483,505,15.1271,-21.7922,0.00134269,0.0015609,0.00221615,0.00367062,-0.000767038,0.809994,0.0027388,0.013193,1707,519,15.1271,21.7922
490,505,15.1014,-21.1036,0.00130146,0.00194629,0.00307402,0.00471476,-0.00146701,0.837648,0.00372962,0.0121804,1714,519,15.1015,21.1036
497,505,15.0568,-20.4172,0.00121686,0.00241741,0.00404504,0.00590648,-0.0022722,0.859059,0.00487488,0.0117758,1721,519,15.0568,20.4172
504,505,15.0089,-19.7068,0.00103182,0.00296154,0.00509511,0.00718234,-0.00318898,0.878975,0.00613406,0.0125562,1728,519,15.0089,19.7068
511,505,14.973,-19.0117,0.000643483,0.00365702,0.00615383,0.00848587,-0.00418536,0.905461,0.00745486,0.0146036,1735,519,14.973,19.0117
518,505,15.0237,-18.304,-2.65487e-05,0.00455193,0.00714356,0.00976409,-0.00523871,0.940459,0.00879224,0.0243583,1742,519,15.0237,18.304
525,505,14.8031,-17.4963,-0.000930087,0.00561394,0.00803421,0.0110169,-0.00633302,0.978773,0.0101379,0.0336934,1749,519,14.803,17.4963
532,505,14.6975,-16.3959,0,0,0,0,0,0,0,-1,1756,519,14.6975,16.3959
539,505,13.9879,-13.9018,0,0,0,0,0,0,0,-1,1763,519,13.988,13.9018
546,505,7.94946,-6.64539,0,0,0,0,0,0,0,-1,1770,519,7.94947,6.64539
553,505,2.82837,0.162659,0,0,0,0,0,0,0,-1,1777,519,2.82841,-0.162672
560,505,3.66223,-0.479797,0,0,0,0,0,0,0,-1,1784,519,3.66219,0.47982
567,505,4.65271,-0.950256,0,0,0,0,0,0,0,-1,1791,519,4.65274,0.95028
574,505,5.54443,-1.19977,0,0,0,0,0,0,0,-1,1798,519,5.54443,1.19974
581,505,0,0,0,0,0,0,0,0,0,-1,1805,519,0,0
588,505,0,0,0,0,0,0,0,0,0,-1,1812,519,0,0
595,505,0,0,0,0,0,0,0,0,0,-1,1819,519,0,0
602,505,0,0,0,0,0,0,0,0,0,-1,1826,519,0,0
609,505,0,0,0,0,0,0,0,0,0,-1,1833,519,0,0
616,505,0,0,0,0,0,0,0,0,0,-1,1840,519,0,0
623,505,0,0,0,0,0,0,0,0,0,-1,1847,519,0,0
630,505,0,0,0,0,0,0,0,0,0,-1,1854,519,0,0
637,505,0,0,0,0,0,0,0,0,0,-1,1861,519,0,0
644,505,0,0,0,0,0,0,0,0,0,-1,1868,519,0,0
651,505,0,0,0,0,0,0,0,0,0,-1,1875,519,0,0
658,505,0,0,0,0,0,0,0,0,0,-1,1882,519,0,0
665,505,0,0,0,0,0,0,0,0,0,-1,1889,519,0,0
672,505,0,0,0,0,0,0,0,0,0,-1,1896,519,0,0
679,505,0,0,0,0,0,0,0,0,0,-1,1903,519,0,0
686,505,0,0,0,0,0,0,0,0,0,-1,1910,519,0,0
693,505,0,0,0,0,0,0,0,0,0,-1,1917,519,0,0
700,505,0,0,0,0,0,0,0,0,0,-1,1924,519,0,0
707,505,0,0,0,0,0,0,0,0,0,-1,1931,519,0,0
714,505,0,0,0,0,0,0,0,0,0,-1,1938,519,0,0
721,505,0,0,0,0,0,0,0,0,0,-1,1945,519,0,0
728,505,0,0,0,0,0,0,0,0,0,-1,1952,519,0,0
735,505,0,0,0,0,0,0,0,0,0,-1,1959,519,0,0
742,505,0,0,0,0,0,0,0,0,0,-1,1966,519,0,0
749,505,0,0,0,0,0,0,0,0,0,-1,1973,519,0,0
756,505,0,0,0,0,0,0,0,0,0,-1,1980,519,0,0
763,505,0,0,0,0,0,0,0,0,0,-1,1987,519,0,0
770,505,0,0,0,0,0,0,0,0,0,-1,1994,519,0,0
777,505,0,0,0,0,0,0,0,0,0,-1,2001,519,0,0
784,505,0,0,0,0,0,0,0,0,0,-1,2008,519,0,0
791,505,0,0,0,0,0,0,0,0,0,-1,2015,519,0,0
798,505,0,0,0,0,0,0,0,0,0,-1,2022,519,0,0
805,505,0,0,0,0,0,0,0,0,0,-1,2029,519,0,0
812,505,0,0,0,0,0,0,0,0,0,-1,2036,519,0,0
-700,498,0,0,0,0,0,0,0,0,0,-1,524,526,0,0
-693,498,0,0,0,0,0,0,0,0,0,-1,531,526,0,0
-686,498,0,0,0,0,0,0,0,0,0,-1,538,526,0,0
-679,498,0,0,0,0,0,0,0,0,0,-1,545,526,0,0
-672,498,0,0,0,0,0,0,0,0,0,-1,552,526,0,0
-665,498,0,0,0,0,0,0,0,0,0,-1,559,526,0,0
-658,498,0,0,0,0,0,0,0,0,0,-1,566,526,0,0
-651,498,0,0,0,0,0,0,0,0,0,-1,573,526,0,0
-644,498,0,0,0,0,0,0,0,0,0,-1,580,526,0,0
-637,498,0,0,0,0,0,0,0,0,0,-1,587,526,0,0
-630,498,0,0,0,0,0,0,0,0,0,-1,594,526,0,0
-623,498,0,0,0,0,0,0,0,0,0,-1,601,526,0,0
-616,498,0,0,0,0,0,0,0,0,0,-1,608,526,0,0
-609,498,0,0,0,0,0,0,0,0,0,-1,615,526,0,0
-602,498,0,0,0,0,0,0,0,0,0,-1,622,526,0,0
-595,498,0,0,0,0,0,0,0,0,0,-1,629,526,0,0
-588,498,0,0,0,0,0,0,0,0,0,-1,636,526,0,0
-581,498,0,0,0,0,0,0,0,0,0,-1,643,526,0,0
-574,498,0,0,0,0,0,0,0,0,0,-1,650,526,0,0
-567,498,0,0,0,0,0,0,0,0,0,-1,657,526,0,0
-560,498,0,0,0,0,0,0,0,0,0,-1,664,526,0,0
-553,498,0,0,0,0,0,0,0,0,0,-1,671,526,0,0
-546,498,0,0,0,0,0,0,0,0,0,-1,678,526,0,0
-539,498,0,0,0,0,0,0,0,0,0,-1,685,526,0,0
-532,498,0,0,0,0,0,0,0,0,0,-1,692,526,0,0
-525,498,0,0,0,0,0,0,0,0,0,-1,699,526,0,0
-518,498,0,0,0,0,0,0,0,0,0,-1,706,526,0,0
-511,498,0,0,0,0,0,0,0,0,0,-1,713,526,0,0
-504,498,0,0,0,0,0,0,0,0,0,-1,720,526,0,0
-497,498,0,0,0,0,0,0,0,0,0,-1,727,526,0,0
-490,498,0,0,0,0,0,0,0,0,0,-1,734,526,0,0
-483,498,0,0,0,0,0,0,0,0,0,-1,741,526,0,0
-476,498,0,0,0,0,0,0,0,0,0,-1,748,526,0,0
-469,498,0,0,0,0,0,0,0,0,0,-1,755,526,0,0
-462,498,6.81024,1.15515,0,0,0,0,0,0,0,-1,762,526,6.81026,-1.15514
-455,498,3.25757,-3.0592,0,0,0,0,0,0,0,-1,769,526,3.25754,3.05921
-448,498,3.05939,-3.74298,0,0,0,0,0,0,0,-1,776,526,3.05939,3.74296
-441,498,2.77191,-6.08209,0,0,0,0,0,0,0,-1,783,526,2.77189,6.08207
-434,498,2.10681,-6.95929,0,0,0,0,0,0,0,-1,790,526,2.10682,6.9593
-427,498,-0.368042,-10.7726,0,0,0,0,0,0,0,-1,797,526,-0.36807,10.7726
-420,498,-1.05035,-10.5142,0,0,0,0,0,0,0,-1,804,526,-1.05034,10.5142
-413,498,-3.41736,-14.6664,0,0,0,0,0,0,0,-1,811,526,-3.41735,14.6664
-406,498,-3.51001,-17.6896,0,0,0,0,0,0,0,-1,818,526,-3.51004,17.6897
-399,498,-3.55908,-18.5516,0.00191833,0.0153334,-0.00873426,0.0196385,-0.00238677,-1.11285,0.0139561,0.0273451,825,526,-3.55906,18.5516
-392,498,-3.6485,-19.3782,0.00219705,0.0129297,-0.00780083,0.0170317,-0.00190502,-1.08668,0.0120398,0.0145996,832,526,-3.64848,19.3782
-385,498,-3.67737,-20.1046,0.0024091,0.0106924,-0.00676864,0.014486,-0.00138446,-1.05996,0.0101503,0.0107149,839,526,-3.67736,20.1045
-378,498,-3.68536,-20.788,0.00255358,0.00866706,-0.00579497,0.0121621,-0.000941422,-1.02809,0.00843937,0.0117729,846,526,-3.68539,20.7879
-371,498,-3.6886,-21.4668,0.00257154,0.00673341,-0.00486916,0.00994766,-0.000642712,-0.987336,0.00685606,0.0171956,853,526,-3.68861,21.4668
-364,498,-3.73639,-22.1585,0.00245325,0.00485076,-0.00383405,0.00766909,-0.000365071,-0.936913,0.00523866,0.0167418,860,526,-3.73637,22.1585
-357,498,-3.77917,-22.822,0.00227546,0.00325522,-0.00283179,0.00563919,-0.000108513,-0.871047,0.00379615,0.0114305,867,526,-3.77918,22.8221
-350,498,-3.8147,-23.4715,0.00209113,0.00186953,-0.00194568,0.00392916,3.15009e-05,-0.756955,0.002609,0.0115105,874,526,-3.81468,23.4715
-343,498,-3.83948,-24.1044,0.00185407,0.000521109,-0.00108367,0.0024598,-8.46271e-05,-0.509703,0.00166879,0.0119143,881,526,-3.83951,24.1044
-336,498,-3.86035,-24.7495,0.00158356,-0.000678546,-0.000248309,0.0016105,-0.000705482,-0.108055,0.00137074,0.015672,888,526,-3.86036,24.7495
-329,498,-3.84766,-25.3875,0.00142288,-0.00165569,0.000472497,0.00149377,-0.00172658,0.148914,0.00186089,0.0232745,895,526,-3.84763,25.3875
-322,498,-3.89978,-26.046,0.00142295,-0.00234584,0.00104346,0.00169256,-0.00261545,0.252855,0.00250619,0.0256565,902,526,-3.8998,26.046
-315,498,-3.94714,-26.6879,0.0015219,-0.0028451,0.00149627,0.00198538,-0.00330858,0.300384,0.00308813,0.0196132,909,526,-3.94713,26.6878
-308,498,-3.95129,-27.3048,0.00219353,-0.00329259,0.00171885,0.00268757,-0.00378663,0.279881,0.0037558,0.0201941,916,526,-3.95132,27.3048
-301,498,-3.86542,-27.9738,0.0029562,-0.0032316,0.00191003,0.0034983,-0.0037737,0.276541,0.00419949,0.0416553,923,526,-3.86543,27.9738
-294,498,-3.81506,-28.6503,0,0,0,0,0,0,0,-1,930,526,-3.81508,28.6503
-287,498,-0.91394,-13.4327,0,0,0,0,0,0,0,-1,937,526,-0.913935,13.4327
-280,498,-0.341614,-8.66608,0,0,0,0,0,0,0,-1,944,526,-0.341589,8.66606
-273,498,-0.988892,-8.62921,0,0,0,0,0,0,0,-1,951,526,-0.988906,8.62922
-266,498,0.362488,-6.33545,0,0,0,0,0,0,0,-1,958,526,0.362478,6.33547
-259,498,10.9454,-17.3615,0,0,0,0,0,0,0,-1,965,526,10.9454,17.3614
-252,498,8.56586,-14.6886,0,0,0,0,0,0,0,-1,972,526,8.56584,14.6886
-245,498,5.97382,-11.928,0,0,0,0,0,0,0,-1,979,526,5.97381,11.928
-238,498,2.24841,-13.8145,0,0,0,0,0,0,0,-1,986,526,2.24838,13.8145
-231,498,0.665894,-10.4898,0,0,0,0,0,0,0,-1,993,526,0.665863,10.4898
-224,498,-2.11243,-4.76312,0,0,0,0,0,0,0,-1,1000,526,-2.11245,4.76314
-217,498,-3.82239,-1.42841,0,0,0,0,0,0,0,-1,1007,526,-3.82241,1.42843
-210,498,-1.80591,-0.358215,0,0,0,0,0,0,0,-1,1014,526,-1.8059,0.3582
-203,498,-3.17316,1.06641,0,0,0,0,0,0,0,-1,1021,526,-3.17313,-1.0664
-196,498,-0.103271,5.40527,0,0,0,0,0,0,0,-1,1028,526,-0.103285,-5.40528
-189,498,3.00256,6.47137,0,0,0,0,0,0,0,-1,1035,526,3.00256,-6.47139
-182,498,0,0,0,0,0,0,0,0,0,-1,1042,526,0,0
-175,498,0,0,0,0,0,0,0,0,0,-1,1049,526,0,0
-168,498,0,0,0,0,0,0,0,0,0,-1,1056,526,0,0
-161,498,0,0,0,0,0,0,0,0,0,-1,1063,526,0,0
-154,498,0,0,0,0,0,0,0,0,0,-1,1070,526,0,0
-147,498,0,0,0,0,0,0,0,0,0,-1,1077,526,0,0
-140,498,0,0,0,0,0,0,0,0,0,-1,1084,526,0,0
-133,498,0,0,0,0,0,0,0,0,0,-1,1091,526,0,0
-126,498,0,0,0,0,0,0,0,0,0,-1,1098,526,0,0
-119,498,0,0,0,0,0,0,0,0,0,-1,1105,526,0,0
-112,498,0,0,0,0,0,0,0,0,0,-1,1112,526,0,0
-105,498,0,0,0,0,0,0,0,0,0,-1,1119,526,0,0
-98,498,0,0,0,0,0,0,0,0,0,-1,1126,526,0,0
-91,498,0,0,0,0,0,0,0,0,0,-1,1133,526,0,0
-84,498,0,0,0,0,0,0,0,0,0,-1,1140,526,0,0
-77,498,0,0,0,0,0,0,0,0,0,-1,1147,526,0,0
-70,498,0,0,0,0,0,0,0,0,0,-1,1154,526,0,0
-63,498,0,0,0,0,0,0,0,0,0,-1,1161,526,0,0
-56,498,0,0,0,0,0,0,0,0,0,-1,1168,526,0,0
-49,498,0,0,0,0,0,0,0,0,0,-1,1175,526,0,0
-42,498,0,0,0,0,0,0,0,0,0,-1,1182,526,0,0
-35,498,0,0,0,0,0,0,0,0,0,-1,1189,526,0,0
-28,498,0,0,0,0,0,0,0,0,0,-1,1196,526,0,0
-21,498,0,0,0,0,0,0,0,0,0,-1,1203,526,0,0
-14,498,0,0,0,0,0,0,0,0,0,-1,1210,526,0,0
-7,498,0,0,0,0,0,0,0,0,0,-1,1217,526,0,0
0,498,0,0,0,0,0,0,0,0,0,-1,1224,526,0,0
7,498,0,0,0,0,0,0,0,0,0,-1,1231,526,0,0
14,498,0,0,0,0,0,0,0,0,0,-1,1238,526,0,0
21,498,0,0,0,0,0,0,0,0,0,-1,1245,526,0,0
28,498,0,0,0,0,0,0,0,0,0,-1,1252,526,0,0
35,498,0,0,0,0,0,0,0,0,0,-1,1259,526,0,0
42,498,0,0,0,0,0,0,0,0,0,-1,1266,526,0,0
49,498,0,0,0,0,0,0,0,0,0,-1,1273,526,0,0
56,498,0,0,0,0,0,0,0,0,0,-1,1280,526,0,0
63,498,0,0,0,0,0,0,0,0,0,-1,1287,526,0,0
70,498,0,0,0,0,0,0,0,0,0,-1,1294,526,0,0
77,498,0,0,0,0,0,0,0,0,0,-1,1301,526,0,0
84,498,0,0,0,0,0,0,0,0,0,-1,1308,526,0,0
91,498,0,0,0,0,0,0,0,0,0,-1,1315,526,0,0
98,498,0,0,0,0,0,0,0,0,0,-1,1322,526,0,0
105,498,0,0,0,0,0,0,0,0,0,-1,1329,526,0,0
112,498,0,0,0,0,0,0,0,0,0,-1,1336,526,0,0
119,498,0,0,0,0,0,0,0,0,0,-1,1343,526,0,0
126,498,0,0,0,0,0,0,0,0,0,-1,1350,526,0,0
133,498,0,0,0,0,0,0,0,0,0,-1,1357,526,0,0
140,498,0,0,0,0,0,0,0,0,0,-1,1364,526,0,0
147,498,0,0,0,0,0,0,0,0,0,-1,1371,526,0,0
154,498,0,0,0,0,0,0,0,0,0,-1,1378,526,0,0
161,498,0,0,0,0,0,0,0,0,0,-1,1385,526,0,0
168,498,0,0,0,0,0,0,0,0,0,-1,1392,526,0,0
175,498,0,0,0,0,0,0,0,0,0,-1,1399,526,0,0
182,498,0,0,0,0,0,0,0,0,0,-1,1406,526,0,0
189,498,0,0,0,0,0,0,0,0,0,-1,1413,526,0,0
196,498,0,0,0,0,0,0,0,0,0,-1,1420,526,0,0
203,498,0,0,0,0,0,0,0,0,0,-1,1427,526,0,0
210,498,0,0,0,0,0,0,0,0,0,-1,1434,526,0,0
217,498,0,0,0,0,0,0,0,0,0,-1,1441,526,0,0
224,498,0,0,0,0,0,0,0,0,0,-1,1448,526,0,0
231,498,0,0,0,0,0,0,0,0,0,-1,1455,526,0,0
238,498,0,0,0,0,0,0,0,0,0,-1,1462,526,0,0
245,498,0,0,0,0,0,0,0,0,0,-1,1469,526,0,0
252,498,0,0,0,0,0,0,0,0,0,-1,1476,526,0,0
259,498,0,0,0,0,0,0,0,0,0,-1,1483,526,0,0
266,498,0,0,0,0,0,0,0,0,0,-1,1490,526,0,0
273,498,0,0,0,0,0,0,0,0,0,-1,1497,526,0,0
280,498,0,0,0,0,0,0,0,0,0,-1,1504,526,0,0
287,498,0,0,0,0,0,0,0,0,0,-1,1511,526,0,0
294,498,0,0,0,0,0,0,0,0,0,-1,1518,526,0,0
301,498,0,0,0,0,0,0,0,0,0,-1,1525,526,0,0
308,498,4.77942,-0.293884,0,0,0,0,0,0,0,-1,1532,526,4.77939,0.293899
315,498,4.56091,-0.564148,0,0,0,0,0,0,0,-1,1539,526,4.56097,0.564142
322,498,4.52344,-0.447266,0,0,0,0,0,0,0,-1,1546,526,4.52341,0.447295
329,498,4.63232,-0.156982,0,0,0,0,0,0,0,-1,1553,526,4.63238,0.156991
336,498,5.22644,0.0925903,0,0,0,0,0,0,0,-1,1560,526,5.22648,-0.0926188
343,498,6.22607,-1.67615,0,0,0,0,0,0,0,-1,1567,526,6.22605,1.67617
350,498,6.19373,-1.59906,0,0,0,0,0,0,0,-1,1574,526,6.19367,1.59906
357,498,6.21472,-1.58929,0,0,0,0,0,0,0,-1,1581,526,6.21476,1.58927
364,498,5.73547,-1.2019,0,0,0,0,0,0,0,-1,1588,526,5.73547,1.20192
371,498,3.27087,-4.55334,0,0,0,0,0,0,0,-1,1595,526,3.27089,4.55332
378,498,8.42944,-4.70624,0,0,0,0,0,0,0,-1,1602,526,8.42942,4.70624
385,498,4.7793,-5.15314,0,0,0,0,0,0,0,-1,1609,526,4.77935,5.15311
392,498,9.12439,-8.57953,0,0,0,0,0,0,0,-1,1616,526,9.12443,8.57955
399,498,7.98938,-9.46021,0,0,0,0,0,0,0,-1,1623,526,7.98936,9.4602
406,498,7.58081,-9.26819,0,0,0,0,0,0,0,-1,1630,526,7.58085,9.26817
413,498,7.17236,-9.07611,0,0,0,0,0,0,0,-1,1637,526,7.17234,9.07614
420,498,11.4314,-16.1147,0,0,0,0,0,0,0,-1,1644,526,11.4313,16.1147
427,498,15.7939,-27.3138,0,0,0,0,0,0,0,-1,1651,526,15.794,27.3139
434,498,15.8076,-26.4707,0.00168315,-0.000559904,-0.00204562,0.00289451,-0.00177127,-0.534646,0.00271969,0.0384457,1658,526,15.8076,26.4707
441,498,15.9095,-25.7659,0.00154464,-0.000290774,-0.00159831,0.00246997,-0.00121611,-0.524793,0.00216881,0.0133336,1665,526,15.9095,25.7659
448,498,15.9017,-25.0948,0.00158397,-1.9187e-05,-0.00115295,0.0021866,-0.000621824,-0.481636,0.00170328,0.0112139,1672,526,15.9017,25.0948
455,498,15.8555,-24.4388,0.00149363,0.000438602,-0.000741562,0.00187616,5.60685e-05,-0.476246,0.00123251,0.0152068,1679,526,15.8554,24.4388
462,498,15.8387,-23.7903,0.00134778,0.000657133,-0.000481538,0.00159502,0.000409897,-0.474333,0.000956454,0.016422,1686,526,15.8387,23.7903
469,498,15.8203,-23.1448,0.00133822,0.000858602,-1.70219e-06,0.00133823,0.000858596,-0.00354898,0.000782885,0.0138209,1693,526,15.8203,23.1448
476,498,15.8241,-22.4748,0.00131968,0.00114742,0.000586685,0.00182653,0.000640578,0.712515,0.0010701,0.0107243,1700,526,15.8241,22.4748
483,498,15.8013,-21.7967,0.00129467,0.00139874,0.00119052,0.00253836,0.000155047,0.807236,0.001643,0.00915075,1707,526,15.8013,21.7967
490,498,15.7568,-21.0938,0.00118564,0.00181302,0.00189478,0.00341991,-0.000421245,0.867431,0.00243254,0.0110067,1714,526,15.7568,21.0937
497,498,15.7308,-20.3905,0.00104945,0.00232462,0.00273852,0.00449879,-0.00112473,0.899772,0.00343602,0.012706,1721,526,15.7308,20.3905
504,498,15.7113,-19.6981,0.000826388,0.00277772,0.00361883,0.0055501,-0.001946,0.917071,0.00449152,0.0151781,1728,526,15.7113,19.6981
511,498,15.6709,-19.0091,0.00040811,0.00334841,0.00447524,0.0065888,-0.00283227,0.944099,0.00558153,0.0168967,1735,526,15.6709,19.0091
518,498,15.6959,-18.2921,-0.000254828,0.00406963,0.00523232,0.00756889,-0.00375409,0.981334,0.00665985,0.0183958,1742,526,15.6959,18.2921
525,498,15.572,-17.5866,-0.00106165,0.00487088,0.00591323,0.00852012,-0.0047109,1.01787,0.00774374,0.0269862,1749,526,15.572,17.5866
532,498,15.4164,-16.8947,-0.00205419,0.00582804,0.0064803,0.00947156,-0.00569771,1.0586,0.00884787,0.0433886,1756,526,15.4164,16.8947
539,498,15.4419,-16.1962,0,0,0,0,0,0,0,-1,1763,526,15.4419,16.1962
546,498,10.2014,-8.47589,0,0,0,0,0,0,0,-1,1770,526,10.2014,8.47589
553,498,5.93958,-1.71448,0,0,0,0,0,0,0,-1,1777,526,5.93956,1.71447
560,498,3.69385,-0.615112,0,0,0,0,0,0,0,-1,1784,526,3.69381,0.615118
567,498,5.12695,-0.581604,0,0,0,0,0,0,0,-1,1791,526,5.12699,0.58159
574,498,3.88,0.0286255,0,0,0,0,0,0,0,-1,1798,526,3.87999,-0.0286535
581,498,10.8722,2.58551,0,0,0,0,0,0,0,-1,1805,526,10.8723,-2.58551
588,498,0,0,0,0,0,0,0,0,0,-1,1812,526,0,0
595,498,0,0,0,0,0,0,0,0,0,-1,1819,526,0,0
602,498,0,0,0,0,0,0,0,0,0,-1,1826,526,0,0
609,498,0,0,0,0,0,0,0,0,0,-1,1833,526,0,0
616,498,0,0,0,0,0,0,0,0,0,-1,1840,526,0,0
623,498,0,0,0,0,0,0,0,0,0,-1,1847,526,0,0
630,498,0,0,0,0,0,0,0,0,0,-1,1854,526,0,0
637,498,0,0,0,0,0,0,0,0,0,-1,1861,526,0,0
644,498,0,0,0,0,0,0,0,0,0,-1,1868,526,0,0
651,498,0,0,0,0,0,0,0,0,0,-1,1875,526,0,0
658,498,0,0,0,0,0,0,0,0,0,-1,1882,526,0,0
665,498,0,0,0,0,0,0,0,0,0,-1,1889,526,0,0
672,498,0,0,0,0,0,0,0,0,0,-1,1896,526,0,0
679,498,0,0,0,0,0,0,0,0,0,-1,1903,526,0,0
686,498,0,0,0,0,0,0,0,0,0,-1,1910,526,0,0
693,498,0,0,0,0,0,0,0,0,0,-1,1917,526,0,0
700,498,0,0,0,0,0,0,0,0,0,-1,1924,526,0,0
707,498,0,0,0,0,0,0,0,0,0,-1,1931,526,0,0
714,498,0,0,0,0,0,0,0,0,0,-1,1938,526,0,0
721,498,0,0,0,0,0,0,0,0,0,-1,1945,526,0,0
728,498,0,0,0,0,0,0,0,0,0,-1,1952,526,0,0
735,498,0,0,0,0,0,0,0,0,0,-1,1959,526,0,0
742,498,0,0,0,0,0,0,0,0,0,-1,1966,526,0,0
749,498,0,0,0,0,0,0,0,0,0,-1,1973,526,0,0
756,498,0,0,0,0,0,0,0,0,0,-1,1980,526,0,0
763,498,0,0,0,0,0,0,0,0,0,-1,1987,526,0,0
770,498,0,0,0,0,0,0,0,0,0,-1,1994,526,0,0
777,498,0,0,0,0,0,0,0,0,0,-1,2001,526,0,0
784,498,0,0,0,0,0,0,0,0,0,-1,2008,526,0,0
791,498,0,0,0,0,0,0,0,0,0,-1,2015,526,0,0
798,498,0,0,0,0,0,0,0,0,0,-1,2022,526,0,0
805,498,0,0,0,0,0,0,0,0,0,-1,2029,526,0,0
812,498,0,0,0,0,0,0,0,0,0,-1,2036,526,0,0
-700,491,0,0,0,0,0,0,0,0,0,-1,524,533,0,0
-693,491,0,0,0,0,0,0,0,0,0,-1,531,533,0,0
-686,491,0,0,0,0,0,0,0,0,0,-1,538,533,0,0
-679,491,0,0,0,0,0,0,0,0,0,-1,545,533,0,0
-672,491,0,0,0,0,0,0,0,0,0,-1,552,533,0,0
-665,491,0,0,0,0,0,0,0,0,0,-1,559,533,0,0
-658,491,0,0,0,0,0,0,0,0,0,-1,566,533,0,0
-651,491,0,0,0,0,0,0,0,0,0,-1,573,533,0,0
-644,491,0,0,0,0,0,0,0,0,0,-1,580,533,0,0
-637,491,0,0,0,0,0,0,0,0,0,-1,587,533,0,0
-630,491,0,0,0,0,0,0,0,0,0,-1,594,533,0,0
-623,491,0,0,0,0,0,0,0,0,0,-1,601,533,0,0
-616,491,0,0,0,0,0,0,0,0,0,-1,608,533,0,0
-609,491,0,0,0,0,0,0,0,0,0,-1,615,533,0,0
-602,491,0,0,0,0,0,0,0,0,0,-1,622,533,0,0
-595,491,0,0,0,0,0,0,0,0,0,-1,629,533,0,0
-588,491,0,0,0,0,0,0,0,0,0,-1,636,533,0,0
-581,491,0,0,0,0,0,0,0,0,0,-1,643,533,0,0
-574,491,0,0,0,0,0,0,0,0,0,-1,650,533,0,0
-567,491,0,0,0,0,0,0,0,0,0,-1,657,533,0,0
-560,491,0,0,0,0,0,0,0,0,0,-1,664,533,0,0
-553,491,0,0,0,0,0,0,0,0,0,-1,671,533,0,0
-546,491,0,0,0,0,0,0,0,0,0,-1,678,533,0,0
-539,491,0,0,0,0,0,0,0,0,0,-1,685,533,0,0
-532,491,0,0,0,0,0,0,0,0,0,-1,692,533,0,0
-525,491,0,0,0,0,0,0,0,0,0,-1,699,533,0,0
-518,491,0,0,0,0,0,0,0,0,0,-1,706,533,0,0
-511,491,0,0,0,0,0,0,0,0,0,-1,713,533,0,0
-504,491,0,0,0,0,0,0,0,0,0,-1,720,533,0,0
-497,491,0,0,0,0,0,0,0,0,0,-1,727,533,0,0
-490,491,0,0,0,0,0,0,0,0,0,-1,734,533,0,0
-483,491,0,0,0,0,0,0,0,0,0,-1,741,533,0,0
-476,491,0,0,0,0,0,0,0,0,0,-1,748,533,0,0
-469,491,-5.85913,4.55011,0,0,0,0,0,0,0,-1,755,533,-5.8591,-4.55009
-462,491,-9.93713,4.90381,0,0,0,0,0,0,0,-1,762,533,-9.93716,-4.9038
-455,491,1.9494,-0.27887,0,0,0,0,0,0,0,-1,769,533,1.94941,0.27885
-448,491,2.68909,-1.8999,0,0,0,0,0,0,0,-1,776,533,2.6891,1.89988
-441,491,3.46069,-3.51855,0,0,0,0,0,0,0,-1,783,533,3.46071,3.51854
-434,491,2.67145,-7.44061,0,0,0,0,0,0,0,-1,790,533,2.67146,7.44061
-427,491,2.27136,-8.34546,0,0,0,0,0,0,0,-1,797,533,2.27136,8.34546
-420,491,-4.51215,-16.0858,0,0,0,0,0,0,0,-1,804,533,-4.51213,16.0858
-413,491,-4.21698,-17.1251,0,0,0,0,0,0,0,-1,811,533,-4.21701,17.1251
-406,491,-4.19965,-17.9816,0.000798761,0.0140228,-0.00734193,0.0172912,-0.00246964,-1.15197,0.0124327,0.024578,818,533,-4.19965,17.9816
-399,491,-4.23236,-18.7464,0.00105975,0.0117779,-0.00652904,0.0148656,-0.00202795,-1.12905,0.0106509,0.0126799,825,533,-4.23237,18.7464
-392,491,-4.30341,-19.4475,0.00130516,0.00969314,-0.00570956,0.0125835,-0.00158524,-1.10217,0.00896429,0.0111844,832,533,-4.3034,19.4475
-385,491,-4.33594,-20.1062,0.00156602,0.00781268,-0.00488169,0.0104847,-0.001106,-1.06999,0.00738612,0.0100991,839,533,-4.33591,20.1062
-378,491,-4.34283,-20.7618,0.00179043,0.0060765,-0.00407457,0.00853724,-0.000670309,-1.0275,0.00592758,0.0140291,846,533,-4.34284,20.7619
-371,491,-4.36188,-21.4313,0.00191108,0.00439777,-0.00330777,0.00668816,-0.000379303,-0.965172,0.00459044,0.0147353,853,533,-4.36188,21.4313
-364,491,-4.41034,-22.1105,0.00192845,0.00274838,-0.00244582,0.00481836,-0.000141523,-0.868436,0.00326044,0.0140704,860,533,-4.41034,22.1105
-357,491,-4.43866,-22.7615,0.00191541,0.00137316,-0.00162178,0.00328857,3.25963e-09,-0.702574,0.00219238,0.0123043,867,533,-4.43864,22.7615
-350,491,-4.46008,-23.4116,0.00191362,0.000197024,-0.000924205,0.0023166,-0.00020596,-0.411178,0.00161743,0.0152143,874,533,-4.46007,23.4116
-343,491,-4.46777,-24.0486,0.00184033,-0.000933457,-0.000237626,0.00186054,-0.000953667,-0.0848445,0.00165267,0.0244167,881,533,-4.4678,24.0486
-336,491,-4.49799,-24.6772,0.00172413,-0.00192638,0.0004195,0.00177172,-0.00197396,0.112954,0.00216362,0.0255684,888,533,-4.49799,24.6772
-329,491,-4.54535,-25.3513,0.00171761,-0.00275618,0.000999537,0.00193077,-0.00296934,0.210112,0.00285018,0.0265125,895,533,-4.54538,25.3513
-322,491,-4.58893,-25.9741,0.00188276,-0.00322436,0.00141892,0.00225051,-0.00359211,0.253591,0.00340275,0.0231835,902,533,-4.58894,25.9741
-315,491,-4.60675,-26.5594,0.00211944,-0.00353744,0.00170772,0.002595,-0.00401299,0.271592,0.00384429,0.0212764,909,533,-4.60677,26.5594
-308,491,-4.57184,-27.2629,0,0,0,0,0,0,0,-1,916,533,-4.57182,27.263
-301,491,-4.51575,-28.3239,0,0,0,0,0,0,0,-1,923,533,-4.51574,28.3239
-294,491,-0.777283,-8.60913,0,0,0,0,0,0,0,-1,930,533,-0.777288,8.6091
-287,491,-0.26123,-8.69055,0,0,0,0,0,0,0,-1,937,533,-0.261204,8.69053
-280,491,0.2948,-5.99219,0,0,0,0,0,0,0,-1,944,533,0.294811,5.99221
-273,491,0.369995,-5.33691,0,0,0,0,0,0,0,-1,951,533,0.369985,5.33693
-266,491,1.1167,-5.0321,0,0,0,0,0,0,0,-1,958,533,1.11668,5.0321
-259,491,12.0862,-16.9615,0,0,0,0,0,0,0,-1,965,533,12.0862,16.9615
-252,491,9.72443,-13.8417,0,0,0,0,0,0,0,-1,972,533,9.72444,13.8418
-245,491,5.27258,-14.3619,0,0,0,0,0,0,0,-1,979,533,5.27255,14.3619
-238,491,3.65381,-11.1472,0,0,0,0,0,0,0,-1,986,533,3.6538,11.1472
-231,491,2.17719,-7.86835,0,0,0,0,0,0,0,-1,993,533,2.17719,7.86832
-224,491,0.554626,-4.61725,0,0,0,0,0,0,0,-1,1000,533,0.554608,4.61727
-217,491,-2.92743,-1.0766,0,0,0,0,0,0,0,-1,1007,533,-2.92743,1.07659
-210,491,-0.92395,0.374512,0,0,0,0,0,0,0,-1,1014,533,-0.923959,-0.374531
-203,491,0.417419,4.77161,0,0,0,0,0,0,0,-1,1021,533,0.417446,-4.77162
-196,491,0,0,0,0,0,0,0,0,0,-1,1028,533,0,0
-189,491,0,0,0,0,0,0,0,0,0,-1,1035,533,0,0
-182,491,0,0,0,0,0,0,0,0,0,-1,1042,533,0,0
-175,491,0,0,0,0,0,0,0,0,0,-1,1049,533,0,0
-168,491,0,0,0,0,0,0,0,0,0,-1,1056,533,0,0
-161,491,0,0,0,0,0,0,0,0,0,-1,1063,533,0,0
-154,491,0,0,0,0,0,0,0,0,0,-1,1070,533,0,0
-147,491,0,0,0,0,0,0,0,0,0,-1,1077,533,0,0
-140,491,0,0,0,0,0,0,0,0,0,-1,1084,533,0,0
-133,491,0,0,0,0,0,0,0,0,0,-1,1091,533,0,0
-126,491,0,0,0,0,0,0,0,0,0,-1,1098,533,0,0
-119,491,0,0,0,0,0,0,0,0,0,-1,1105,533,0,0
-112,491,0,0,0,0,0,0,0,0,0,-1,1112,533,0,0
-105,491,0,0,0,0,0,0,0,0,0,-1,1119,533,0,0
-98,491,0,0,0,0,0,0,0,0,0,-1,1126,533,0,0
-91,491,0,0,0,0,0,0,0,0,0,-1,1133,533,0,0
-84,491,0,0,0,0,0,0,0,0,0,-1,1140,533,0,0
-77,491,0,0,0,0,0,0,0,0,0,-1,1147,533,0,0
-70,491,0,0,0,0,0,0,0,0,0,-1,1154,533,0,0
-63,491,0,0,0,0,0,0,0,0,0,-1,1161,533,0,0
-56,491,0,0,0,0,0,0,0,0,0,-1,1168,533,0,0
-49,491,0,0,0,0,0,0,0,0,0,-1,1175,533,0,0
-42,491,0,0,0,0,0,0,0,0,0,-1,1182,533,0,0
-35,491,0,0,0,0,0,0,0,0,0,-1,1189,533,0,0
-28,491,0,0,0,0,0,0,0,0,0,-1,1196,533,0,0
-21,491,0,0,0,0,0,0,0,0,0,-1,1203,533,0,0
-14,491,0,0,0,0,0,0,0,0,0,-1,1210,533,0,0
-7,491,0,0,0,0,0,0,0,0,0,-1,1217,533,0,0
0,491,0,0,0,0,0,0,0,0,0,-1,1224,533,0,0
7,491,0,0,0,0,0,0,0,0,0,-1,1231,533,0,0
14,491,0,0,0,0,0,0,0,0,0,-1,1238,533,0,0
21,491,0,0,0,0,0,0,0,0,0,-1,1245,533,0,0
28,491,0,0,0,0,0,0,0,0,0,-1,1252,533,0,0
35,491,0,0,0,0,0,0,0,0,0,-1,1259,533,0,0
42,491,0,0,0,0,0,0,0,0,0,-1,1266,533,0,0
49,491,0,0,0,0,0,0,0,0,0,-1,1273,533,0,0
56,491,0,0,0,0,0,0,0,0,0,-1,1280,533,0,0
63,491,0,0,0,0,0,0,0,0,0,-1,1287,533,0,0
70,491,0,0,0,0,0,0,0,0,0,-1,1294,533,0,0
77,491,0,0,0,0,0,0,0,0,0,-1,1301,533,0,0
84,491,0,0,0,0,0,0,0,0,0,-1,1308,533,0,0
91,491,0,0,0,0,0,0,0,0,0,-1,1315,533,0,0
98,491,0,0,0,0,0,0,0,0,0,-1,1322,533,0,0
105,491,0,0,0,0,0,0,0,0,0,-1,1329,533,0,0
112,491,0,0,0,0,0,0,0,0,0,-1,1336,533,0,0
119,491,0,0,0,0,0,0,0,0,0,-1,1343,533,0,0
126,491,0,0,0,0,0,0,0,0,0,-1,1350,533,0,0
133,491,0,0,0,0,0,0,0,0,0,-1,1357,533,0,0
140,491,0,0,0,0,0,0,0,0,0,-1,1364,533,0,0
147,491,0,0,0,0,0,0,0,0,0,-1,1371,533,0,0
154,491,0,0,0,0,0,0,0,0,0,-1,1378,533,0,0
161,491,0,0,0,0,0,0,0,0,0,-1,1385,533,0,0
168,491,0,0,0,0,0,0,0,0,0,-1,1392,533,0,0
175,491,0,0,0,0,0,0,0,0,0,-1,1399,533,0,0
182,491,0,0,0,0,0,0,0,0,0,-1,1406,533,0,0
189,491,0,0,0,0,0,0,0,0,0,-1,1413,533,0,0
196,491,0,0,0,0,0,0,0,0,0,-1,1420,533,0,0
203,491,0,0,0,0,0,0,0,0,0,-1,1427,533,0,0
210,491,0,0,0,0,0,0,0,0,0,-1,1434,533,0,0
217,491,0,0,0,0,0,0,0,0,0,-1,1441,533,0,0
224,491,0,0,0,0,0,0,0,0,0,-1,1448,533,0,0
231,491,0,0,0,0,0,0,0,0,0,-1,1455,533,0,0
238,491,0,0,0,0,0,0,0,0,0,-1,1462,533,0,0
245,491,0,0,0,0,0,0,0,0,0,-1,1469,533,0,0
252,491,0,0,0,0,0,0,0,0,0,-1,1476,533,0,0
259,491,0,0,0,0,0,0,0,0,0,-1,1483,533,0,0
266,491,0,0,0,0,0,0,0,0,0,-1,1490,533,0,0
273,491,0,0,0,0,0,0,0,0,0,-1,1497,533,0,0
280,491,0,0,0,0,0,0,0,0,0,-1,1504,533,0,0
287,491,0,0,0,0,0,0,0,0,0,-1,1511,533,0,0
294,491,0,0,0,0,0,0,0,0,0,-1,1518,533,0,0
301,491,0,0,0,0,0,0,0,0,0,-1,1525,533,0,0
308,491,0,0,0,0,0,0,0,0,0,-1,1532,533,0,0
315,491,0,0,0,0,0,0,0,0,0,-1,1539,533,0,0
322,491,4.26331,-0.734314,0,0,0,0,0,0,0,-1,1546,533,4.26326,0.734324
329,491,4.25354,-0.783752,0,0,0,0,0,0,0,-1,1553,533,4.25359,0.783734
336,491,4.81604,-0.722107,0,0,0,0,0,0,0,-1,1560,533,4.81605,0.722115
343,491,6.14478,-1.44281,0,0,0,0,0,0,0,-1,1567,533,6.14474,1.44281
350,491,6.36353,-1.30792,0,0,0,0,0,0,0,-1,1574,533,6.36352,1.3079
357,491,6.69482,-1.06018,0,0,0,0,0,0,0,-1,1581,533,6.69489,1.06018
364,491,8.01086,-1.69604,0,0,0,0,0,0,0,-1,1588,533,8.01087,1.69607
371,491,8.2135,-0.539307,0,0,0,0,0,0,0,-1,1595,533,8.21348,0.53929
378,491,13.3589,2.17267,0,0,0,0,0,0,0,-1,1602,533,13.3589,-2.17264
385,491,8.08228,-4.95471,0,0,0,0,0,0,0,-1,1609,533,8.08227,4.95474
392,491,2.88721,-4.30988,0,0,0,0,0,0,0,-1,1616,533,2.88716,4.30986
399,491,8.95862,-8.55518,0,0,0,0,0,0,0,-1,1623,533,8.95864,8.55516
406,491,8.16541,-9.00806,0,0,0,0,0,0,0,-1,1630,533,8.16535,9.00807
413,491,5.31848,-3.7124,0,0,0,0,0,0,0,-1,1637,533,5.31849,3.7124
420,491,4.86389,-3.95892,0,0,0,0,0,0,0,-1,1644,533,4.86387,3.95893
427,491,11.5096,-15.2742,0,0,0,0,0,0,0,-1,1651,533,11.5096,15.2742
434,491,16.4033,-26.4335,0,0,0,0,0,0,0,-1,1658,533,16.4033,26.4335
441,491,16.595,-25.4926,0.00157211,-0.000932695,-0.00228838,0.00292839,-0.00228897,-0.53502,0.00301978,0.0420977,1665,533,16.595,25.4925
448,491,16.554,-25.1041,0.00159637,-0.000496599,-0.00180836,0.00263921,-0.00153944,-0.523096,0.00244024,0.0305191,1672,533,16.554,25.1041
455,491,16.5353,-24.4201,0.00144499,9.55282e-05,-0.00140237,0.0023265,-0.000785986,-0.561177,0.00186892,0.018979,1679,533,16.5352,24.4201
462,491,16.5386,-23.7516,0.00119891,0.000394379,-0.00123445,0.00209498,-0.000501691,-0.62789,0.00159048,0.0159755,1686,533,16.5386,23.7516
469,491,16.511,-23.1086,0.00116882,0.000614798,-0.000784422,0.00172371,5.99137e-05,-0.615662,0.0011297,0.0152148,1693,533,16.511,23.1086
476,491,16.5065,-22.441,0.00120389,0.000817137,-0.000248956,0.00132575,0.000695279,-0.455195,0.000765727,0.0112648,1700,533,16.5065,22.441
483,491,16.4722,-21.7531,0.00117498,0.00103839,0.000319984,0.00143388,0.000779495,0.680258,0.000828899,0.0125064,1707,533,16.4721,21.753
490,491,16.4291,-21.0824,0.00102776,0.00141594,0.000928033,0.00216996,0.000273737,0.888484,0.00136458,0.0109674,1714,533,16.4291,21.0824
497,491,16.423,-20.3815,0.000883262,0.00192441,0.00169866,0.00318048,-0.000372805,0.934085,0.00225488,0.01206,1721,533,16.423,20.3815
504,491,16.4235,-19.6866,0.000675196,0.00227137,0.0024603,0.00405978,-0.00111322,0.942236,0.00314399,0.0147406,1728,533,16.4235,19.6866
511,491,16.3591,-19.003,0.000292918,0.00272483,0.00317797,0.00491153,-0.00189378,0.968115,0.00405577,0.0140303,1735,533,16.3592,19.003
518,491,16.3132,-18.3054,-0.000291359,0.00330607,0.00379219,0.00570451,-0.0026898,1.00684,0.00494954,0.0107272,1742,533,16.3133,18.3054
525,491,16.296,-17.5804,-0.000944416,0.00393571,0.00434329,0.00647743,-0.00348613,1.04133,0.00583824,0.0105449,1749,533,16.296,17.5804
532,491,16.2679,-16.8785,-0.00167017,0.00470602,0.00483684,0.00731094,-0.00427508,1.07678,0.0067653,0.0225566,1756,533,16.268,16.8785
539,491,16.2892,-16.0658,0,0,0,0,0,0,0,-1,1763,533,16.2892,16.0658
546,491,15.3047,-14.703,0,0,0,0,0,0,0,-1,1770,533,15.3047,14.703
553,491,10.5021,-7.77869,0,0,0,0,0,0,0,-1,1777,533,10.502,7.77871
560,491,6.28455,-1.43585,0,0,0,0,0,0,0,-1,1784,533,6.28458,1.43586
567,491,5.67651,-1.3562,0,0,0,0,0,0,0,-1,1791,533,5.67649,1.3562
574,491,8.0719,1.58325,0,0,0,0,0,0,0,-1,1798,533,8.07195,-1.58326
581,491,9.44812,1.60931,0,0,0,0,0,0,0,-1,1805,533,9.44808,-1.60933
588,491,11.0497,1.54962,0,0,0,0,0,0,0,-1,1812,533,11.0496,-1.54963
595,491,0,0,0,0,0,0,0,0,0,-1,1819,533,0,0
602,491,0,0,0,0,0,0,0,0,0,-1,1826,533,0,0
609,491,0,0,0,0,0,0,0,0,0,-1,1833,533,0,0
616,491,0,0,0,0,0,0,0,0,0,-1,1840,533,0,0
623,491,0,0,0,0,0,0,0,0,0,-1,1847,533,0,0
630,491,0,0,0,0,0,0,0,0,0,-1,1854,533,0,0
637,491,0,0,0,0,0,0,0,0,0,-1,1861,533,0,0
644,491,0,0,0,0,0,0,0,0,0,-1,1868,533,0,0
651,491,0,0,0,0,0,0,0,0,0,-1,1875,533,0,0
658,491,0,0,0,0,0,0,0,0,0,-1,1882,533,0,0
665,491,0,0,0,0,0,0,0,0,0,-1,1889,533,0,0
672,491,0,0,0,0,0,0,0,0,0,-1,1896,533,0,0
679,491,0,0,0,0,0,0,0,0,0,-1,1903,533,0,0
686,491,0,0,0,0,0,0,0,0,0,-1,1910,533,0,0
693,491,0,0,0,0,0,0,0,0,0,-1,1917,533,0,0
700,491,0,0,0,0,0,0,0,0,0,-1,1924,533,0,0
707,491,0,0,0,0,0,0,0,0,0,-1,1931,533,0,0
714,491,0,0,0,0,0,0,0,0,0,-1,1938,533,0,0
721,491,0,0,0,0,0,0,0,0,0,-1,1945,533,0,0
728,491,0,0,0,0,0,0,0,0,0,-1,1952,533,0,0
735,491,0,0,0,0,0,0,0,0,0,-1,1959,533,0,0
742,491,0,0,0,0,0,0,0,0,0,-1,1966,533,0,0
749,491,0,0,0,0,0,0,0,0,0,-1,1973,533,0,0
756,491,0,0,0,0,0,0,0,0,0,-1,1980,533,0,0
763,491,0,0,0,0,0,0,0,0,0,-1,1987,533,0,0
770,491,0,0,0,0,0,0,0,0,0,-1,1994,533,0,0
777,491,0,0,0,0,0,0,0,0,0,-1,2001,533,0,0
784,491,0,0,0,0,0,0,0,0,0,-1,2008,533,0,0
791,491,0,0,0,0,0,0,0,0,0,-1,2015,533,0,0
798,491,0,0,0,0,0,0,0,0,0,-1,2022,533,0,0
805,491,0,0,0,0,0,0,0,0,0,-1,2029,533,0,0
812,491,0,0,0,0,0,0,0,0,0,-1,2036,533,0,0
-700,484,0,0,0,0,0,0,0,0,0,-1,524,540,0,0
-693,484,0,0,0,0,0,0,0,0,0,-1,531,540,0,0
-686,484,0,0,0,0,0,0,0,0,0,-1,538,540,0,0
-679,484,0,0,0,0,0,0,0,0,0,-1,545,540,0,0
-672,484,0,0,0,0,0,0,0,0,0,-1,552,540,0,0
-665,484,0,0,0,0,0,0,0,0,0,-1,559,540,0,0
-658,484,0,0,0,0,0,0,0,0,0,-1,566,540,0,0
-651,484,0,0,0,0,0,0,0,0,0,-1,573,540,0,0
-644,484,0,0,0,0,0,0,0,0,0,-1,580,540,0,0
-637,484,0,0,0,0,0,0,0,0,0,-1,587,540,0,0
-630,484,0,0,0,0,0,0,0,0,0,-1,594,540,0,0
-623,484,0,0,0,0,0,0,0,0,0,-1,601,540,0,0
-616,484,0,0,0,0,0,0,0,0,0,-1,608,540,0,0
-609,484,0,0,0,0,0,0,0,0,0,-1,615,540,0,0
-602,484,0,0,0,0,0,0,0,0,0,-1,622,540,0,0
-595,484,0,0,0,0,0,0,0,0,0,-1,629,540,0,0
-588,484,0,0,0,0,0,0,0,0,0,-1,636,540,0,0
-581,484,0,0,0,0,0,0,0,0,0,-1,643,540,0,0
-574,484,0,0,0,0,0,0,0,0,0,-1,650,540,0,0
-567,484,0,0,0,0,0,0,0,0,0,-1,657,540,0,0
-560,484,0,0,0,0,0,0,0,0,0,-1,664,540,0,0
-553,484,0,0,0,0,0,0,0,0,0,-1,671,540,0,0
-546,484,0,0,0,0,0,0,0,0,0,-1,678,540,0,0
-539,484,0,0,0,0,0,0,0,0,0,-1,685,540,0,0
-532,484,0,0,0,0,0,0,0,0,0,-1,692,540,0,0
-525,484,0,0,0,0,0,0,0,0,0,-1,699,540,0,0
-518,484,0,0,0,0,0,0,0,0,0,-1,706,540,0,0
-511,484,0,0,0,0,0,0,0,0,0,-1,713,540,0,0
-504,484,0,0,0,0,0,0,0,0,0,-1,720,540,0,0
-497,484,0,0,0,0,0,0,0,0,0,-1,727,540,0,0
-490,484,0,0,0,0,0,0,0,0,0,-1,734,540,0,0
-483,484,0,0,0,0,0,0,0,0,0,-1,741,540,0,0
-476,484,-8.46552,1.44702,0,0,0,0,0,0,0,-1,748,540,-8.46554,-1.44702
-469,484,-7.82343,1.70355,0,0,0,0,0,0,0,-1,755,540,-7.82345,-1.70355
-462,484,-8.36987,3.08612,0,0,0,0,0,0,0,-1,762,540,-8.36988,-3.0861
-455,484,-6.77197,2.07092,0,0,0,0,0,0,0,-1,769,540,-6.77197,-2.07094
-448,484,3.54895,-1.40106,0,0,0,0,0,0,0,-1,776,540,3.54897,1.40106
-441,484,4.28906,-3.05884,0,0,0,0,0,0,0,-1,783,540,4.28905,3.05883
-434,484,-2.17548,-5.07245,0,0,0,0,0,0,0,-1,790,540,-2.17546,5.07243
-427,484,-4.72888,-15.3578,0,0,0,0,0,0,0,-1,797,540,-4.72891,15.3578
-420,484,-4.71765,-16.2582,0,0,0,0,0,0,0,-1,804,540,-4.71765,16.2582
-413,484,-4.74847,-17.161,2.34298e-05,0.0125988,-0.00605545,0.0150406,-0.00241834,-1.1875,0.0109228,0.0299135,811,540,-4.74847,17.161
-406,484,-4.83038,-17.997,0.000249396,0.0106402,-0.00546214,0.0129832,-0.00209359,-1.16558,0.00943108,0.0157452,818,540,-4.83041,17.997
-399,484,-4.92218,-18.725,0.000416816,0.0087114,-0.00474384,0.0108652,-0.00173701,-1.1446,0.0078865,0.0171737,825,540,-4.92219,18.725
-392,484,-4.94446,-19.3916,0.000627652,0.00689281,-0.0040084,0.0088475,-0.00132704,-1.11708,0.0063868,0.0191639,832,540,-4.94446,19.3916
-385,484,-4.98492,-20.0842,0.000919928,0.00528955,-0.00332875,0.00708645,-0.000876963,-1.07581,0.0050421,0.0131344,839,540,-4.98492,20.0843
-378,484,-5.0368,-20.7383,0.00121242,0.00378889,-0.00264572,0.00544333,-0.000442024,-1.01196,0.00378484,0.0144239,846,540,-5.03682,20.7383
-371,484,-5.05878,-21.3948,0.00145453,0.00234145,-0.00200424,0.00395071,-0.000154721,-0.894275,0.00268686,0.0156783,853,540,-5.05879,21.3948
-364,484,-5.08691,-22.0565,0.00165393,0.000940164,-0.00130322,0.00264825,-5.41592e-05,-0.651751,0.00178383,0.0112468,860,540,-5.08693,22.0565
-357,484,-5.11469,-22.7037,0.00187797,-0.000189967,-0.00066334,0.00207246,-0.000384458,-0.285205,0.00152602,0.0125386,867,540,-5.11469,22.7037
-350,484,-5.13672,-23.3588,0.00215254,-0.00111416,-0.000173027,0.00216168,-0.0011233,-0.0527701,0.00192791,0.0148684,874,540,-5.13671,23.3588
-343,484,-5.14026,-24.0258,0.00236145,-0.00193845,0.000300709,0.00238238,-0.00195938,0.069483,0.00251068,0.0227744,881,540,-5.14028,24.0258
-336,484,-5.20313,-24.6889,0.00254233,-0.00261252,0.000717738,0.00264039,-0.00271058,0.135795,0.00308948,0.0265112,888,540,-5.20311,24.6889
-329,484,-5.23181,-25.2961,0.0028391,-0.00318634,0.00108762,0.00302941,-0.00337665,0.173225,0.00370035,0.0373861,895,540,-5.23179,25.2961
-322,484,-5.20227,-25.8906,0,0,0,0,0,0,0,-1,902,540,-5.20226,25.8906
-315,484,-5.07239,-26.5403,0,0,0,0,0,0,0,-1,909,540,-5.07239,26.5403
-308,484,-1.32623,-8.9317,0,0,0,0,0,0,0,-1,916,540,-1.32626,8.93173
-301,484,-1.33453,-6.52667,0,0,0,0,0,0,0,-1,923,540,-1.33454,6.5267
-294,484,-1.61224,-8.17059,0,0,0,0,0,0,0,-1,930,540,-1.61227,8.17058
-287,484,-0.715759,-5.62103,0,0,0,0,0,0,0,-1,937,540,-0.715772,5.62105
-280,484,2.66742,-1.6795,0,0,0,0,0,0,0,-1,944,540,2.6674,1.67949
-273,484,2.53125,-2.22296,0,0,0,0,0,0,0,-1,951,540,2.53128,2.22295
-266,484,2.6778,-2.72058,0,0,0,0,0,0,0,-1,958,540,2.6778,2.72061
-259,484,2.41718,-2.59894,0,0,0,0,0,0,0,-1,965,540,2.41717,2.59892
-252,484,10.6069,-11.696,0,0,0,0,0,0,0,-1,972,540,10.6069,11.696
-245,484,6.34106,-11.6107,0,0,0,0,0,0,0,-1,979,540,6.34104,11.6107
-238,484,4.89319,-8.54059,0,0,0,0,0,0,0,-1,986,540,4.89321,8.5406
-231,484,3.47675,-5.22064,0,0,0,0,0,0,0,-1,993,540,3.47676,5.22067
-224,484,1.71344,-2.03473,0,0,0,0,0,0,0,-1,1000,540,1.71342,2.03472
-217,484,-0.745056,1.17358,0,0,0,0,0,0,0,-1,1007,540,-0.745043,-1.17359
-210,484,0,0,0,0,0,0,0,0,0,-1,1014,540,0,0
-203,484,0,0,0,0,0,0,0,0,0,-1,1021,540,0,0
-196,484,0,0,0,0,0,0,0,0,0,-1,1028,540,0,0
-189,484,0,0,0,0,0,0,0,0,0,-1,1035,540,0,0
-182,484,0,0,0,0,0,0,0,0,0,-1,1042,540,0,0
-175,484,0,0,0,0,0,0,0,0,0,-1,1049,540,0,0
-168,484,0,0,0,0,0,0,0,0,0,-1,1056,540,0,0
-161,484,0,0,0,0,0,0,0,0,0,-1,1063,540,0,0
-154,484,0,0,0,0,0,0,0,0,0,-1,1070,540,0,0
-147,484,0,0,0,0,0,0,0,0,0,-1,1077,540,0,0
-140,484,0,0,0,0,0,0,0,0,0,-1,1084,540,0,0
-133,484,0,0,0,0,0,0,0,0,0,-1,1091,540,0,0
-126,484,0,0,0,0,0,0,0,0,0,-1,1098,540,0,0
-119,484,0,0,0,0,0,0,0,0,0,-1,1105,540,0,0
-112,484,0,0,0,0,0,0,0,0,0,-1,1112,540,0,0
-105,484,0,0,0,0,0,0,0,0,0,-1,1119,540,0,0
-98,484,0,0,0,0,0,0,0,0,0,-1,1126,540,0,0
-91,484,0,0,0,0,0,0,0,0,0,-1,1133,540,0,0
-84,484,0,0,0,0,0,0,0,0,0,-1,1140,540,0,0
-77,484,0,0,0,0,0,0,0,0,0,-1,1147,540,0,0
-70,484,0,0,0,0,0,0,0,0,0,-1,1154,540,0,0
-63,484,0,0,0,0,0,0,0,0,0,-1,1161,540,0,0
-56,484,0,0,0,0,0,0,0,0,0,-1,1168,540,0,0
-49,484,0,0,0,0,0,0,0,0,0,-1,1175,540,0,0
-42,484,0,0,0,0,0,0,0,0,0,-1,1182,540,0,0
-35,484,0,0,0,0,0,0,0,0,0,-1,1189,540,0,0
-28,484,0,0,0,0,0,0,0,0,0,-1,1196,540,0,0
-21,484,0,0,0,0,0,0,0,0,0,-1,1203,540,0,0
-14,484,0,0,0,0,0,0,0,0,0,-1,1210,540,0,0
-7,484,0,0,0,0,0,0,0,0,0,-1,1217,540,0,0
0,484,0,0,0,0,0,0,0,0,0,-1,1224,540,0,0
7,484,0,0,0,0,0,0,0,0,0,-1,1231,540,0,0
14,484,0,0,0,0,0,0,0,0,0,-1,1238,540,0,0
21,484,0,0,0,0,0,0,0,0,0,-1,1245,540,0,0
28,484,0,0,0,0,0,0,0,0,0,-1,1252,540,0,0
35,484,0,0,0,0,0,0,0,0,0,-1,1259,540,0,0
42,484,0,0,0,0,0,0,0,0,0,-1,1266,540,0,0
49,484,0,0,0,0,0,0,0,0,0,-1,1273,540,0,0
56,484,0,0,0,0,0,0,0,0,0,-1,1280,540,0,0
63,484,0,0,0,0,0,0,0,0,0,-1,1287,540,0,0
70,484,0,0,0,0,0,0,0,0,0,-1,1294,540,0,0
77,484,0,0,0,0,0,0,0,0,0,-1,1301,540,0,0
84,484,0,0,0,0,0,0,0,0,0,-1,1308,540,0,0
91,484,0,0,0,0,0,0,0,0,0,-1,1315,540,0,0
98,484,0,0,0,0,0,0,0,0,0,-1,1322,540,0,0
105,484,0,0,0,0,0,0,0,0,0,-1,1329,540,0,0
112,484,0,0,0,0,0,0,0,0,0,-1,1336,540,0,0
119,484,0,0,0,0,0,0,0,0,0,-1,1343,540,0,0
126,484,0,0,0,0,0,0,0,0,0,-1,1350,540,0,0
133,484,0,0,0,0,0,0,0,0,0,-1,1357,540,0,0
140,484,0,0,0,0,0,0,0,0,0,-1,1364,540,0,0
147,484,0,0,0,0,0,0,0,0,0,-1,1371,540,0,0
154,484,0,0,0,0,0,0,0,0,0,-1,1378,540,0,0
161,484,0,0,0,0,0,0,0,0,0,-1,1385,540,0,0
168,484,0,0,0,0,0,0,0,0,0,-1,1392,540,0,0
175,484,0,0,0,0,0,0,0,0,0,-1,1399,540,0,0
182,484,0,0,0,0,0,0,0,0,0,-1,1406,540,0,0
189,484,0,0,0,0,0,0,0,0,0,-1,1413,540,0,0
196,484,0,0,0,0,0,0,0,0,0,-1,1420,540,0,0
203,484,0,0,0,0,0,0,0,0,0,-1,1427,540,0,0
210,484,0,0,0,0,0,0,0,0,0,-1,1434,540,0,0
217,484,0,0,0,0,0,0,0,0,0,-1,1441,540,0,0
224,484,0,0,0,0,0,0,0,0,0,-1,1448,540,0,0
231,484,0,0,0,0,0,0,0,0,0,-1,1455,540,0,0
238,484,0,0,0,0,0,0,0,0,0,-1,1462,540,0,0
245,484,0,0,0,0,0,0,0,0,0,-1,1469,540,0,0
252,484,0,0,0,0,0,0,0,0,0,-1,1476,540,0,0
259,484,0,0,0,0,0,0,0,0,0,-1,1483,540,0,0
266,484,0,0,0,0,0,0,0,0,0,-1,1490,540,0,0
273,484,0,0,0,0,0,0,0,0,0,-1,1497,540,0,0
280,484,0,0,0,0,0,0,0,0,0,-1,1504,540,0,0
287,484,0,0,0,0,0,0,0,0,0,-1,1511,540,0,0
294,484,0,0,0,0,0,0,0,0,0,-1,1518,540,0,0
301,484,0,0,0,0,0,0,0,0,0,-1,1525,540,0,0
308,484,0,0,0,0,0,0,0,0,0,-1,1532,540,0,0
315,484,0,0,0,0,0,0,0,0,0,-1,1539,540,0,0
322,484,0,0,0,0,0,0,0,0,0,-1,1546,540,0,0
329,484,0,0,0,0,0,0,0,0,0,-1,1553,540,0,0
336,484,4.38708,-1.64136,0,0,0,0,0,0,0,-1,1560,540,4.38704,1.64138
343,484,7.57996,-1.05457,0,0,0,0,0,0,0,-1,1567,540,7.57995,1.05454
350,484,8.10425,-1.18878,0,0,0,0,0,0,0,-1,1574,540,8.1043,1.18877
357,484,7.74902,-3.80286,0,0,0,0,0,0,0,-1,1581,540,7.74901,3.80287
364,484,6.31262,-3.87213,0,0,0,0,0,0,0,-1,1588,540,6.31263,3.87215
371,484,7.21008,0.973511,0,0,0,0,0,0,0,-1,1595,540,7.21014,-0.973541
378,484,11.0563,1.5014,0,0,0,0,0,0,0,-1,1602,540,11.0563,-1.5014
385,484,14.3469,2.5545,0,0,0,0,0,0,0,-1,1609,540,14.3469,-2.55453
392,484,7.39453,-4.95026,0,0,0,0,0,0,0,-1,1616,540,7.39448,4.95023
399,484,7.14417,-2.5639,0,0,0,0,0,0,0,-1,1623,540,7.14417,2.56391
406,484,7.88953,-2.47321,0,0,0,0,0,0,0,-1,1630,540,7.88954,2.47323
413,484,4.4895,-1.08673,0,0,0,0,0,0,0,-1,1637,540,4.48952,1.08674
420,484,4.50012,-2.11255,0,0,0,0,0,0,0,-1,1644,540,4.50012,2.11256
427,484,5.28601,-3.54053,0,0,0,0,0,0,0,-1,1651,540,5.28599,3.54051
434,484,11.1488,-13.5359,0,0,0,0,0,0,0,-1,1658,540,11.1489,13.5359
441,484,17.198,-25.1523,0,0,0,0,0,0,0,-1,1665,540,17.198,25.1524
448,484,17.1764,-25.1728,0,0,0,0,0,0,0,-1,1672,540,17.1764,25.1728
455,484,17.2129,-24.4583,0,0,0,0,0,0,0,-1,1679,540,17.2129,24.4583
462,484,17.2306,-23.7085,0.00107711,8.9448e-05,-0.00204447,0.00268654,-0.00151998,-0.666896,0.00245957,0.0306471,1686,540,17.2306,23.7085
469,484,17.2131,-23.065,0.0010324,0.000370828,-0.0015584,0.00229474,-0.000891505,-0.68082,0.00189811,0.0186321,1693,540,17.2131,23.065
476,484,17.1877,-22.3635,0.00114961,0.000500583,-0.00100851,0.00188453,-0.000234341,-0.629743,0.00134131,0.0168504,1700,540,17.1878,22.3634
483,484,17.1615,-21.6953,0.00114068,0.000703413,-0.000409453,0.00138622,0.000457879,-0.540172,0.000815552,0.0129701,1707,540,17.1615,21.6953
490,484,17.1121,-21.0504,0.000981106,0.00105069,0.000154244,0.00117402,0.000857779,0.896326,0.000701445,0.0127625,1714,540,17.1121,21.0503
497,484,17.0957,-20.3549,0.00084997,0.0015602,0.000900284,0.00217287,0.000237294,0.973253,0.00137632,0.0136087,1721,540,17.0958,20.3549
504,484,17.0995,-19.6672,0.000667072,0.00180983,0.00158045,0.00291902,-0.000442112,0.958853,0.00210889,0.0169182,1728,540,17.0995,19.6672
511,484,17.069,-18.9861,0.000332086,0.00215675,0.00219718,0.00362348,-0.00113465,0.98218,0.00286965,0.0202456,1735,540,17.0689,18.9861
518,484,17.0127,-18.2851,-0.000163349,0.00261107,0.00271072,0.00426892,-0.00182119,1.0219,0.00360955,0.0171832,1742,540,17.0126,18.2851
525,484,16.96,-17.5687,-0.000683518,0.003092,0.00316112,0.00488613,-0.00247765,1.05457,0.00432661,0.0147942,1749,540,16.96,17.5687
532,484,16.9618,-16.8254,-0.00122715,0.00368371,0.00356713,0.00555882,-0.00310226,1.08683,0.00506708,0.0157785,1756,540,16.9618,16.8254
539,484,16.8883,-16.0692,-0.00185747,0.00432341,0.00385236,0.00617174,-0.00370581,1.12344,0.00576174,0.0388484,1763,540,16.8883,16.0692
546,484,16.8372,-15.2001,0,0,0,0,0,0,0,-1,1770,540,16.8372,15.2001
553,484,12.4246,-8.96423,0,0,0,0,0,0,0,-1,1777,540,12.4246,8.96422
560,484,10.0549,-5.47931,0,0,0,0,0,0,0,-1,1784,540,10.055,5.47928
567,484,7.78223,-1.38312,0,0,0,0,0,0,0,-1,1791,540,7.78224,1.38311
574,484,5.74463,1.50922,0,0,0,0,0,0,0,-1,1798,540,5.74463,-1.50924
581,484,10.34,2.9491,0,0,0,0,0,0,0,-1,1805,540,10.34,-2.94912
588,484,10.6669,2.88568,0,0,0,0,0,0,0,-1,1812,540,10.6669,-2.88567
595,484,10.7233,1.04767,0,0,0,0,0,0,0,-1,1819,540,10.7233,-1.04766
602,484,0,0,0,0,0,0,0,0,0,-1,1826,540,0,0
609,484,0,0,0,0,0,0,0,0,0,-1,1833,540,0,0
616,484,0,0,0,0,0,0,0,0,0,-1,1840,540,0,0
623,484,0,0,0,0,0,0,0,0,0,-1,1847,540,0,0
630,484,0,0,0,0,0,0,0,0,0,-1,1854,540,0,0
637,484,0,0,0,0,0,0,0,0,0,-1,1861,540,0,0
644,484,0,0,0,0,0,0,0,0,0,-1,1868,540,0,0
651,484,0,0,0,0,0,0,0,0,0,-1,1875,540,0,0
658,484,0,0,0,0,0,0,0,0,0,-1,1882,540,0,0
665,484,0,0,0,0,0,0,0,0,0,-1,1889,540,0,0
672,484,0,0,0,0,0,0,0,0,0,-1,1896,540,0,0
679,484,0,0,0,0,0,0,0,0,0,-1,1903,540,0,0
686,484,0,0,0,0,0,0,0,0,0,-1,1910,540,0,0
693,484,0,0,0,0,0,0,0,0,0,-1,1917,540,0,0
700,484,0,0,0,0,0,0,0,0,0,-1,1924,540,0,0
707,484,0,0,0,0,0,0,0,0,0,-1,1931,540,0,0
714,484,0,0,0,0,0,0,0,0,0,-1,1938,540,0,0
721,484,0,0,0,0,0,0,0,0,0,-1,1945,540,0,0
728,484,0,0,0,0,0,0,0,0,0,-1,1952,540,0,0
735,484,0,0,0,0,0,0,0,0,0,-1,1959,540,0,0
742,484,0,0,0,0,0,0,0,0,0,-1,1966,540,0,0
749,484,0,0,0,0,0,0,0,0,0,-1,1973,540,0,0
756,484,0,0,0,0,0,0,0,0,0,-1,1980,540,0,0
763,484,0,0,0,0,0,0,0,0,0,-1,1987,540,0,0
770,484,0,0,0,0,0,0,0,0,0,-1,1994,540,0,0
777,484,0,0,0,0,0,0,0,0,0,-1,2001,540,0,0
784,484,0,0,0,0,0,0,0,0,0,-1,2008,540,0,0
791,484,0,0,0,0,0,0,0,0,0,-1,2015,540,0,0
798,484,0,0,0,0,0,0,0,0,0,-1,2022,540,0,0
805,484,0,0,0,0,0,0,0,0,0,-1,2029,540,0,0
812,484,0,0,0,0,0,0,0,0,0,-1,2036,540,0,0
-700,477,0,0,0,0,0,0,0,0,0,-1,524,547,0,0
-693,477,0,0,0,0,0,0,0,0,0,-1,531,547,0,0
-686,477,0,0,0,0,0,0,0,0,0,-1,538,547,0,0
-679,477,0,0,0,0,0,0,0,0,0,-1,545,547,0,0
-672,477,0,0,0,0,0,0,0,0,0,-1,552,547,0,0
-665,477,0,0,0,0,0,0,0,0,0,-1,559,547,0,0
-658,477,0,0,0,0,0,0,0,0,0,-1,566,547,0,0
-651,477,0,0,0,0,0,0,0,0,0,-1,573,547,0,0
-644,477,0,0,0,0,0,0,0,0,0,-1,580,547,0,0
-637,477,0,0,0,0,0,0,0,0,0,-1,587,547,0,0
-630,477,0,0,0,0,0,0,0,0,0,-1,594,547,0,0
-623,477,0,0,0,0,0,0,0,0,0,-1,601,547,0,0
-616,477,0,0,0,0,0,0,0,0,0,-1,608,547,0,0
-609,477,0,0,0,0,0,0,0,0,0,-1,615,547,0,0
-602,477,0,0,0,0,0,0,0,0,0,-1,622,547,0,0
-595,477,0,0,0,0,0,0,0,0,0,-1,629,547,0,0
-588,477,0,0,0,0,0,0,0,0,0,-1,636,547,0,0
-581,477,0,0,0,0,0,0,0,0,0,-1,643,547,0,0
-574,477,0,0,0,0,0,0,0,0,0,-1,650,547,0,0
-567,477,0,0,0,0,0,0,0,0,0,-1,657,547,0,0
-560,477,0,0,0,0,0,0,0,0,0,-1,664,547,0,0
-553,477,0,0,0,0,0,0,0,0,0,-1,671,547,0,0
-546,477,0,0,0,0,0,0,0,0,0,-1,678,547,0,0
-539,477,0,0,0,0,0,0,0,0,0,-1,685,547,0,0
-532,477,0,0,0,0,0,0,0,0,0,-1,692,547,0,0
-525,477,0,0,0,0,0,0,0,0,0,-1,699,547,0,0
-518,477,0,0,0,0,0,0,0,0,0,-1,706,547,0,0
-511,477,0,0,0,0,0,0,0,0,0,-1,713,547,0,0
-504,477,0,0,0,0,0,0,0,0,0,-1,720,547,0,0
-497,477,0,0,0,0,0,0,0,0,0,-1,727,547,0,0
-490,477,0,0,0,0,0,0,0,0,0,-1,734,547,0,0
-483,477,-7.73151,-0.224182,0,0,0,0,0,0,0,-1,741,547,-7.73152,0.224176
-476,477,-6.25806,-0.310547,0,0,0,0,0,0,0,-1,748,547,-6.25804,0.310549
-469,477,-7.26617,0.525085,0,0,0,0,0,0,0,-1,755,547,-7.2662,-0.525111
-462,477,-6.65143,1.06042,0,0,0,0,0,0,0,-1,762,547,-6.65143,-1.06043
-455,477,-5.31757,0.429016,0,0,0,0,0,0,0,-1,769,547,-5.31756,-0.42902
-448,477,-4.0697,0.273376,0,0,0,0,0,0,0,-1,776,547,-4.06971,-0.273363
-441,477,-2.47504,-4.76971,0,0,0,0,0,0,0,-1,783,547,-2.47505,4.76973
-434,477,-5.17871,-15.3405,0,0,0,0,0,0,0,-1,790,547,-5.17873,15.3405
-427,477,-5.40466,-15.6707,7.54902e-05,0.0136005,-0.00570914,0.0156882,-0.00201218,-1.22023,0.01119,0.0449902,797,547,-5.40463,15.6707
-420,477,-5.48401,-16.2245,-5.29847e-05,0.0115739,-0.00513883,0.0135196,-0.00199864,-1.20886,0.0097478,0.0355445,804,547,-5.48402,16.2246
-413,477,-5.48718,-17.1943,-7.48301e-05,0.00955541,-0.00449894,0.0113301,-0.00184954,-1.19506,0.00823941,0.0207553,811,547,-5.48721,17.1943
-406,477,-5.55457,-17.9933,6.93344e-05,0.00791186,-0.0039381,0.00954801,-0.00156682,-1.17703,0.00694677,0.0113593,818,547,-5.55459,17.9933
-399,477,-5.58588,-18.6659,0.000243345,0.00628174,-0.00331443,0.00774596,-0.00122087,-1.15481,0.00561534,0.0193745,825,547,-5.58588,18.6659
-392,477,-5.63031,-19.3602,0.000466226,0.00471242,-0.00267966,0.00600811,-0.000829464,-1.12041,0.00430859,0.0180977,832,547,-5.6303,19.3602
-385,477,-5.64594,-20.0382,0.000809647,0.00335947,-0.00213996,0.0045755,-0.000406392,-1.05405,0.00319443,0.0142577,839,547,-5.64594,20.0382
-378,477,-5.69403,-20.7086,0.00117667,0.00206847,-0.00158073,0.00326499,-1.98508e-05,-0.922869,0.00218331,0.0130232,846,547,-5.69405,20.7086
-371,477,-5.72614,-21.3482,0.00153965,0.000833779,-0.00106135,0.00230521,6.82202e-05,-0.624882,0.00151458,0.0130617,853,547,-5.72614,21.3482
-364,477,-5.74237,-21.9977,0.00190987,-0.000336762,-0.000526111,0.00202697,-0.000453862,-0.219006,0.00152528,0.0125452,860,547,-5.74237,21.9977
-357,477,-5.78333,-22.6683,0.0023489,-0.0012765,-7.68107e-05,0.00235052,-0.00127812,-0.0211742,0.00212528,0.0112444,867,547,-5.7833,22.6683
-350,477,-5.81519,-23.3098,0.00287132,-0.00203478,0.00020593,0.00287995,-0.00204341,0.041876,0.00285615,0.0104102,874,547,-5.81518,23.3097
-343,477,-5.75623,-24.0004,0.00333332,-0.00265123,0.000472242,0.00337035,-0.00268827,0.0782648,0.00350533,0.018873,881,547,-5.75623,24.0004
-336,477,-5.66333,-24.6861,0.00380616,-0.00311491,0.000642675,0.00386534,-0.00317408,0.0918118,0.00407073,0.045095,888,547,-5.66333,24.6861
-329,477,-5.49103,-25.33,0,0,0,0,0,0,0,-1,895,547,-5.49104,25.33
-322,477,-5.51404,-25.9473,0,0,0,0,0,0,0,-1,902,547,-5.51405,25.9473
-315,477,-1.67358,-9.15253,0,0,0,0,0,0,0,-1,909,547,-1.67356,9.15253
-308,477,-1.30127,-6.55188,0,0,0,0,0,0,0,-1,916,547,-1.30128,6.55185
-301,477,-1.21185,-6.28351,0,0,0,0,0,0,0,-1,923,547,-1.21184,6.28352
-294,477,-0.352905,3.27142,0,0,0,0,0,0,0,-1,930,547,-0.35292,-3.27144
-287,477,3.54364,2.15399,0,0,0,0,0,0,0,-1,937,547,3.54362,-2.15396
-280,477,1.97308,-0.954163,0,0,0,0,0,0,0,-1,944,547,1.9731,0.954178
-273,477,2.11621,-3.76709,0,0,0,0,0,0,0,-1,951,547,2.11619,3.76706
-266,477,2.04669,-3.42389,0,0,0,0,0,0,0,-1,958,547,2.04671,3.42391
-259,477,-1.33478,-3.41205,0,0,0,0,0,0,0,-1,965,547,-1.3348,3.41206
-252,477,0.597168,-5.32922,0,0,0,0,0,0,0,-1,972,547,0.597144,5.32924
-245,477,8.2309,-8.48492,0,0,0,0,0,0,0,-1,979,547,8.23091,8.48494
-238,477,6.60938,-5.64063,0,0,0,0,0,0,0,-1,986,547,6.60938,5.64063
-231,477,4.71716,-2.52484,0,0,0,0,0,0,0,-1,993,547,4.71716,2.52483
-224,477,0,0,0,0,0,0,0,0,0,-1,1000,547,0,0
-217,477,0,0,0,0,0,0,0,0,0,-1,1007,547,0,0
-210,477,0,0,0,0,0,0,0,0,0,-1,1014,547,0,0
-203,477,0,0,0,0,0,0,0,0,0,-1,1021,547,0,0
-196,477,0,0,0,0,0,0,0,0,0,-1,1028,547,0,0
-189,477,0,0,0,0,0,0,0,0,0,-1,1035,547,0,0
-182,477,0,0,0,0,0,0,0,0,0,-1,1042,547,0,0
-175,477,0,0,0,0,0,0,0,0,0,-1,1049,547,0,0
-168,477,0,0,0,0,0,0,0,0,0,-1,1056,547,0,0
-161,477,0,0,0,0,0,0,0,0,0,-1,1063,547,0,0
-154,477,0,0,0,0,0,0,0,0,0,-1,1070,547,0,0
-147,477,0,0,0,0,0,0,0,0,0,-1,1077,547,0,0
-140,477,0,0,0,0,0,0,0,0,0,-1,1084,547,0,0
-133,477,0,0,0,0,0,0,0,0,0,-1,1091,547,0,0
-126,477,0,0,0,0,0,0,0,0,0,-1,1098,547,0,0
-119,477,0,0,0,0,0,0,0,0,0,-1,1105,547,0,0
-112,477,0,0,0,0,0,0,0,0,0,-1,1112,547,0,0
-105,477,0,0,0,0,0,0,0,0,0,-1,1119,547,0,0
-98,477,0,0,0,0,0,0,0,0,0,-1,1126,547,0,0
-91,477,0,0,0,0,0,0,0,0,0,-1,1133,547,0,0
-84,477,0,0,0,0,0,0,0,0,0,-1,1140,547,0,0
-77,477,0,0,0,0,0,0,0,0,0,-1,1147,547,0,0
-70,477,0,0,0,0,0,0,0,0,0,-1,1154,547,0,0
-63,477,0,0,0,0,0,0,0,0,0,-1,1161,547,0,0
-56,477,0,0,0,0,0,0,0,0,0,-1,1168,547,0,0
-49,477,0,0,0,0,0,0,0,0,0,-1,1175,547,0,0
-42,477,0,0,0,0,0,0,0,0,0,-1,1182,547,0,0
-35,477,0,0,0,0,0,0,0,0,0,-1,1189,547,0,0
-28,477,0,0,0,0,0,0,0,0,0,-1,1196,547,0,0
-21,477,0,0,0,0,0,0,0,0,0,-1,1203,547,0,0
-14,477,0,0,0,0,0,0,0,0,0,-1,1210,547,0,0
-7,477,0,0,0,0,0,0,0,0,0,-1,1217,547,0,0
0,477,0,0,0,0,0,0,0,0,0,-1,1224,547,0,0
7,477,0,0,0,0,0,0,0,0,0,-1,1231,547,0,0
14,477,0,0,0,0,0,0,0,0,0,-1,1238,547,0,0
21,477,0,0,0,0,0,0,0,0,0,-1,1245,547,0,0
28,477,0,0,0,0,0,0,0,0,0,-1,1252,547,0,0
35,477,0,0,0,0,0,0,0,0,0,-1,1259,547,0,0
42,477,0,0,0,0,0,0,0,0,0,-1,1266,547,0,0
49,477,0,0,0,0,0,0,0,0,0,-1,1273,547,0,0
56,477,0,0,0,0,0,0,0,0,0,-1,1280,547,0,0
63,477,0,0,0,0,0,0,0,0,0,-1,1287,547,0,0
70,477,0,0,0,0,0,0,0,0,0,-1,1294,547,0,0
77,477,0,0,0,0,0,0,0,0,0,-1,1301,547,0,0
84,477,0,0,0,0,0,0,0,0,0,-1,1308,547,0,0
91,477,0,0,0,0,0,0,0,0,0,-1,1315,547,0,0
98,477,0,0,0,0,0,0,0,0,0,-1,1322,547,0,0
105,477,0,0,0,0,0,0,0,0,0,-1,1329,547,0,0
112,477,0,0,0,0,0,0,0,0,0,-1,1336,547,0,0
119,477,0,0,0,0,0,0,0,0,0,-1,1343,547,0,0
126,477,0,0,0,0,0,0,0,0,0,-1,1350,547,0,0
133,477,0,0,0,0,0,0,0,0,0,-1,1357,547,0,0
140,477,0,0,0,0,0,0,0,0,0,-1,1364,547,0,0
147,477,0,0,0,0,0,0,0,0,0,-1,1371,547,0,0
154,477,0,0,0,0,0,0,0,0,0,-1,1378,547,0,0
161,477,0,0,0,0,0,0,0,0,0,-1,1385,547,0,0
168,477,0,0,0,0,0,0,0,0,0,-1,1392,547,0,0
175,477,0,0,0,0,0,0,0,0,0,-1,1399,547,0,0
182,477,0,0,0,0,0,0,0,0,0,-1,1406,547,0,0
189,477,0,0,0,0,0,0,0,0,0,-1,1413,547,0,0
196,477,0,0,0,0,0,0,0,0,0,-1,1420,547,0,0
203,477,0,0,0,0,0,0,0,0,0,-1,1427,547,0,0
210,477,0,0,0,0,0,0,0,0,0,-1,1434,547,0,0
217,477,0,0,0,0,0,0,0,0,0,-1,1441,547,0,0
224,477,0,0,0,0,0,0,0,0,0,-1,1448,547,0,0
231,477,0,0,0,0,0,0,0,0,0,-1,1455,547,0,0
238,477,0,0,0,0,0,0,0,0,0,-1,1462,547,0,0
245,477,0,0,0,0,0,0,0,0,0,-1,1469,547,0,0
252,477,0,0,0,0,0,0,0,0,0,-1,1476,547,0,0
259,477,0,0,0,0,0,0,0,0,0,-1,1483,547,0,0
266,477,0,0,0,0,0,0,0,0,0,-1,1490,547,0,0
273,477,0,0,0,0,0,0,0,0,0,-1,1497,547,0,0
280,477,0,0,0,0,0,0,0,0,0,-1,1504,547,0,0
287,477,0,0,0,0,0,0,0,0,0,-1,1511,547,0,0
294,477,0,0,0,0,0,0,0,0,0,-1,1518,547,0,0
301,477,0,0,0,0,0,0,0,0,0,-1,1525,547,0,0
308,477,0,0,0,0,0,0,0,0,0,-1,1532,547,0,0
315,477,0,0,0,0,0,0,0,0,0,-1,1539,547,0,0
322,477,0,0,0,0,0,0,0,0,0,-1,1546,547,0,0
329,477,0,0,0,0,0,0,0,0,0,-1,1553,547,0,0
336,477,0,0,0,0,0,0,0,0,0,-1,1560,547,0,0
343,477,0,0,0,0,0,0,0,0,0,-1,1567,547,0,0
350,477,1.7699,-3.32275,0,0,0,0,0,0,0,-1,1574,547,1.7699,3.32272
357,477,3.073,-4.83313,0,0,0,0,0,0,0,-1,1581,547,3.07303,4.83316
364,477,4.30127,-4.22864,0,0,0,0,0,0,0,-1,1588,547,4.30125,4.22865
371,477,4.57703,0.283264,0,0,0,0,0,0,0,-1,1595,547,4.57706,-0.283262
378,477,8.57947,1.05969,0,0,0,0,0,0,0,-1,1602,547,8.5795,-1.05972
385,477,12.3726,2.02356,0,0,0,0,0,0,0,-1,1609,547,12.3725,-2.02355
392,477,16.4678,2.76843,0,0,0,0,0,0,0,-1,1616,547,16.4678,-2.76845
399,477,8.00037,-2.29523,0,0,0,0,0,0,0,-1,1623,547,8.00031,2.2952
406,477,4.82495,2.7475,0,0,0,0,0,0,0,-1,1630,547,4.825,-2.74752
413,477,4.88171,-0.336426,0,0,0,0,0,0,0,-1,1637,547,4.88169,0.336398
420,477,3.34875,0.102722,0,0,0,0,0,0,0,-1,1644,547,3.34871,-0.1027
427,477,1.66772,-0.373108,0,0,0,0,0,0,0,-1,1651,547,1.66768,0.373104
434,477,3.76978,-2.30798,0,0,0,0,0,0,0,-1,1658,547,3.76974,2.30801
441,477,4.05444,-2.80402,0,0,0,0,0,0,0,-1,1665,547,4.05444,2.804
448,477,10.4247,-11.7421,0,0,0,0,0,0,0,-1,1672,547,10.4247,11.7421
455,477,13.3054,-16.8109,0,0,0,0,0,0,0,-1,1679,547,13.3054,16.8109
462,477,17.8721,-23.8832,0,0,0,0,0,0,0,-1,1686,547,17.8721,23.8832
469,477,17.8391,-23.1731,0,0,0,0,0,0,0,-1,1693,547,17.8391,23.1731
476,477,17.8679,-22.3779,0.00125643,0.000223609,-0.00160207,0.00242327,-0.000943222,-0.629486,0.00200528,0.0255785,1700,547,17.8679,22.3779
483,477,17.87,-21.6893,0.00131518,0.000427573,-0.00091672,0.00188988,-0.00014712,-0.559965,0.00131171,0.0125461,1707,547,17.87,21.6893
490,477,17.8153,-21.0263,0.00116862,0.000755778,-0.000370474,0.0013863,0.0005381,-0.531226,0.000807029,0.0125114,1714,547,17.8153,21.0263
497,477,17.7792,-20.3108,0.00106081,0.00128056,0.000381113,0.00156732,0.000774053,0.925741,0.000904917,0.0139074,1721,547,17.7792,20.3108
504,477,17.7728,-19.6324,0.000898667,0.00144922,0.000999495,0.00221065,0.000137235,0.919775,0.00143022,0.0181436,1728,547,17.7728,19.6325
511,477,17.7625,-18.9666,0.00059827,0.00170406,0.00153451,0.00278224,-0.000479911,0.958312,0.00203376,0.0242205,1735,547,17.7625,18.9665
518,477,17.699,-18.2803,0.000163969,0.00204951,0.00196902,0.00328982,-0.00107635,1.00867,0.00262657,0.0222123,1742,547,17.699,18.2803
525,477,17.6444,-17.5364,-0.000284855,0.00240826,0.00233124,0.00375389,-0.00163049,1.0473,0.00318823,0.0183494,1749,547,17.6444,17.5364
532,477,17.5959,-16.8237,-0.000742967,0.00284996,0.00265188,0.00425658,-0.00214959,1.08311,0.0037647,0.0190432,1756,547,17.5959,16.8237
539,477,17.5826,-16.0289,-0.00123843,0.00331156,0.00287205,0.00470048,-0.00262735,1.12036,0.00428679,0.0183589,1763,547,17.5827,16.0288
546,477,17.4994,-15.3988,-0.00173223,0.00393992,0.00307669,0.00528826,-0.00308057,1.15776,0.00488746,0.0426521,1770,547,17.4994,15.3988
553,477,17.5669,-14.566,0,0,0,0,0,0,0,-1,1777,547,17.567,14.5661
560,477,17.4967,-13.1639,0,0,0,0,0,0,0,-1,1784,547,17.4967,13.1639
567,477,13.9529,-8.70972,0,0,0,0,0,0,0,-1,1791,547,13.9529,8.7097
574,477,6.82593,-0.916992,0,0,0,0,0,0,0,-1,1798,547,6.82598,0.916977
581,477,9.29321,-0.557007,0,0,0,0,0,0,0,-1,1805,547,9.29324,0.55703
588,477,9.75195,0.422729,0,0,0,0,0,0,0,-1,1812,547,9.75198,-0.42273
595,477,9.89172,1.21326,0,0,0,0,0,0,0,-1,1819,547,9.89174,-1.21328
602,477,6.5271,-0.964417,0,0,0,0,0,0,0,-1,1826,547,6.52706,0.964427
609,477,0,0,0,0,0,0,0,0,0,-1,1833,547,0,0
616,477,0,0,0,0,0,0,0,0,0,-1,1840,547,0,0
623,477,0,0,0,0,0,0,0,0,0,-1,1847,547,0,0
630,477,0,0,0,0,0,0,0,0,0,-1,1854,547,0,0
637,477,0,0,0,0,0,0,0,0,0,-1,1861,547,0,0
644,477,0,0,0,0,0,0,0,0,0,-1,1868,547,0,0
651,477,0,0,0,0,0,0,0,0,0,-1,1875,547,0,0
658,477,0,0,0,0,0,0,0,0,0,-1,1882,547,0,0
665,477,0,0,0,0,0,0,0,0,0,-1,1889,547,0,0
672,477,0,0,0,0,0,0,0,0,0,-1,1896,547,0,0
679,477,0,0,0,0,0,0,0,0,0,-1,1903,547,0,0
686,477,0,0,0,0,0,0,0,0,0,-1,1910,547,0,0
693,477,0,0,0,0,0,0,0,0,0,-1,1917,547,0,0
700,477,0,0,0,0,0,0,0,0,0,-1,1924,547,0,0
707,477,0,0,0,0,0,0,0,0,0,-1,1931,547,0,0
714,477,0,0,0,0,0,0,0,0,0,-1,1938,547,0,0
721,477,0,0,0,0,0,0,0,0,0,-1,1945,547,0,0
728,477,0,0,0,0,0,0,0,0,0,-1,1952,547,0,0
735,477,0,0,0,0,0,0,0,0,0,-1,1959,547,0,0
742,477,0,0,0,0,0,0,0,0,0,-1,1966,547,0,0
749,477,0,0,0,0,0,0,0,0,0,-1,1973,547,0,0
756,477,0,0,0,0,0,0,0,0,0,-1,1980,547,0,0
763,477,0,0,0,0,0,0,0,0,0,-1,1987,547,0,0
770,477,0,0,0,0,0,0,0,0,0,-1,1994,547,0,0
777,477,0,0,0,0,0,0,0,0,0,-1,2001,547,0,0
784,477,0,0,0,0,0,0,0,0,0,-1,2008,547,0,0
791,477,0,0,0,0,0,0,0,0,0,-1,2015,547,0,0
798,477,0,0,0,0,0,0,0,0,0,-1,2022,547,0,0
805,477,0,0,0,0,0,0,0,0,0,-1,2029,547,0,0
812,477,0,0,0,0,0,0,0,0,0,-1,2036,547,0,0
-700,470,0,0,0,0,0,0,0,0,0,-1,524,554,0,0
-693,470,0,0,0,0,0,0,0,0,0,-1,531,554,0,0
-686,470,0,0,0,0,0,0,0,0,0,-1,538,554,0,0
-679,470,0,0,0,0,0,0,0,0,0,-1,545,554,0,0
-672,470,0,0,0,0,0,0,0,0,0,-1,552,554,0,0
-665,470,0,0,0,0,0,0,0,0,0,-1,559,554,0,0
-658,470,0,0,0,0,0,0,0,0,0,-1,566,554,0,0
-651,470,0,0,0,0,0,0,0,0,0,-1,573,554,0,0
-644,470,0,0,0,0,0,0,0,0,0,-1,580,554,0,0
-637,470,0,0,0,0,0,0,0,0,0,-1,587,554,0,0
-630,470,0,0,0,0,0,0,0,0,0,-1,594,554,0,0
-623,470,0,0,0,0,0,0,0,0,0,-1,601,554,0,0
-616,470,0,0,0,0,0,0,0,0,0,-1,608,554,0,0
-609,470,0,0,0,0,0,0,0,0,0,-1,615,554,0,0
-602,470,0,0,0,0,0,0,0,0,0,-1,622,554,0,0
-595,470,0,0,0,0,0,0,0,0,0,-1,629,554,0,0
-588,470,0,0,0,0,0,0,0,0,0,-1,636,554,0,0
-581,470,0,0,0,0,0,0,0,0,0,-1,643,554,0,0
-574,470,0,0,0,0,0,0,0,0,0,-1,650,554,0,0
-567,470,0,0,0,0,0,0,0,0,0,-1,657,554,0,0
-560,470,0,0,0,0,0,0,0,0,0,-1,664,554,0,0
-553,470,0,0,0,0,0,0,0,0,0,-1,671,554,0,0
-546,470,0,0,0,0,0,0,0,0,0,-1,678,554,0,0
-539,470,0,0,0,0,0,0,0,0,0,-1,685,554,0,0
-532,470,0,0,0,0,0,0,0,0,0,-1,692,554,0,0
-525,470,0,0,0,0,0,0,0,0,0,-1,699,554,0,0
-518,470,0,0,0,0,0,0,0,0,0,-1,706,554,0,0
-511,470,0,0,0,0,0,0,0,0,0,-1,713,554,0,0
-504,470,0,0,0,0,0,0,0,0,0,-1,720,554,0,0
-497,470,0,0,0,0,0,0,0,0,0,-1,727,554,0,0
-490,470,-9.13263,-1.03125,0,0,0,0,0,0,0,-1,734,554,-9.1326,1.03127
-483,470,-7.68677,-1.03955,0,0,0,0,0,0,0,-1,741,554,-7.68678,1.03958
-476,470,-6.17969,-1.03394,0,0,0,0,0,0,0,-1,748,554,-6.17971,1.03395
-469,470,-6.23016,-0.651855,0,0,0,0,0,0,0,-1,755,554,-6.23014,0.651829
-462,470,-4.87915,-1.03705,0,0,0,0,0,0,0,-1,762,554,-4.87914,1.03702
-455,470,-4.14777,-1.37079,0,0,0,0,0,0,0,-1,769,554,-4.14779,1.37078
-448,470,-2.9314,-5.74518,0,0,0,0,0,0,0,-1,776,554,-2.93137,5.74518
-441,470,-4.83759,-12.0768,0,0,0,0,0,0,0,-1,783,554,-4.83758,12.0768
-434,470,-6.14398,-15.0628,0,0,0,0,0,0,0,-1,790,554,-6.14396,15.0628
-427,470,-6.17004,-15.7735,5.5664e-06,0.010367,-0.00445634,0.01202,-0.00164737,-1.21561,0.00861509,0.0240005,797,554,-6.17007,15.7735
-420,470,-6.14392,-16.4979,2.42405e-05,0.00873089,-0.00391955,0.0102354,-0.00148027,-1.20429,0.00736677,0.0163315,804,554,-6.14393,16.4979
-413,470,-6.19696,-17.2369,3.45222e-05,0.00704404,-0.00326944,0.00833225,-0.00125369,-1.19546,0.00601642,0.013561,811,554,-6.19696,17.2369
-406,470,-6.23438,-17.9479,0.000203547,0.0056897,-0.00274805,0.00682944,-0.00093619,-1.17764,0.00489495,0.0115211,818,554,-6.23436,17.9479
-399,470,-6.25128,-18.647,0.000448897,0.00434468,-0.00221186,0.00534409,-0.000550516,-1.14641,0.00375969,0.0147124,825,554,-6.25126,18.647
-392,470,-6.28558,-19.3292,0.000727348,0.00301319,-0.00166856,0.00389273,-0.000152191,-1.08568,0.00264734,0.0133533,832,554,-6.28559,19.3292
-385,470,-6.33557,-20.002,0.00113409,0.00188331,-0.00125267,0.00281619,0.000201215,-0.93069,0.00181411,0.0105316,839,554,-6.33555,20.002
-378,470,-6.35461,-20.6652,0.0015638,0.000782956,-0.000815553,0.00207757,0.00026919,-0.562159,0.0013046,0.0153656,846,554,-6.35464,20.6652
-371,470,-6.37842,-21.3184,0.002012,-0.000253228,-0.000420816,0.00208765,-0.000328877,-0.177868,0.00151335,0.0140979,853,554,-6.37845,21.3184
-364,470,-6.41052,-21.9682,0.00249156,-0.00120074,-6.80669e-05,0.00249282,-0.001202,-0.0184265,0.00217616,0.0143315,860,554,-6.41049,21.9682
-357,470,-6.46112,-22.6423,0.00306043,-0.00199673,0.000162583,0.00306565,-0.00200195,0.0321049,0.00294719,0.0150348,867,554,-6.46111,22.6423
-350,470,-6.45471,-23.3145,0.00372177,-0.00268404,0.000212957,0.00372884,-0.00269111,0.0331955,0.00372267,0.0121053,874,554,-6.45472,23.3144
-343,470,-6.39758,-24.0554,0,0,0,0,0,0,0,-1,881,554,-6.39757,24.0554
-336,470,-6.06378,-24.7065,0,0,0,0,0,0,0,-1,888,554,-6.06379,24.7065
-329,470,-2.78516,-12.3594,0,0,0,0,0,0,0,-1,895,554,-2.78517,12.3594
-322,470,-2.30829,-11.4527,0,0,0,0,0,0,0,-1,902,554,-2.30827,11.4527
-315,470,-1.04797,-8.29529,0,0,0,0,0,0,0,-1,909,554,-1.04797,8.29526
-308,470,-1.39368,-6.68152,0,0,0,0,0,0,0,-1,916,554,-1.39369,6.68149
-301,470,-0.0340576,3.34888,0,0,0,0,0,0,0,-1,923,554,-0.0340496,-3.3489
-294,470,-1.18378,3.22266,0,0,0,0,0,0,0,-1,930,554,-1.18376,-3.22268
-287,470,-2.15454,3.2204,0,0,0,0,0,0,0,-1,937,554,-2.15452,-3.22037
-280,470,-3.00537,3.099,0,0,0,0,0,0,0,-1,944,554,-3.00536,-3.09898
-273,470,-12.3932,3.65009,0,0,0,0,0,0,0,-1,951,554,-12.3932,-3.65011
-266,470,-11.5706,1.16028,0,0,0,0,0,0,0,-1,958,554,-11.5706,-1.16031
-259,470,-7.50415,-2.77167,0,0,0,0,0,0,0,-1,965,554,-7.50413,2.7717
-252,470,-0.371155,-5.87823,0,0,0,0,0,0,0,-1,972,554,-0.37114,5.87821
-245,470,1.33221,-6.81122,0,0,0,0,0,0,0,-1,979,554,1.33223,6.8112
-238,470,0,0,0,0,0,0,0,0,0,-1,986,554,0,0
-231,470,0,0,0,0,0,0,0,0,0,-1,993,554,0,0
-224,470,0,0,0,0,0,0,0,0,0,-1,1000,554,0,0
-217,470,0,0,0,0,0,0,0,0,0,-1,1007,554,0,0
-210,470,0,0,0,0,0,0,0,0,0,-1,1014,554,0,0
-203,470,0,0,0,0,0,0,0,0,0,-1,1021,554,0,0
-196,470,0,0,0,0,0,0,0,0,0,-1,1028,554,0,0
-189,470,0,0,0,0,0,0,0,0,0,-1,1035,554,0,0
-182,470,0,0,0,0,0,0,0,0,0,-1,1042,554,0,0
-175,470,0,0,0,0,0,0,0,0,0,-1,1049,554,0,0
-168,470,0,0,0,0,0,0,0,0,0,-1,1056,554,0,0
-161,470,0,0,0,0,0,0,0,0,0,-1,1063,554,0,0
-154,470,0,0,0,0,0,0,0,0,0,-1,1070,554,0,0
-147,470,0,0,0,0,0,0,0,0,0,-1,1077,554,0,0
-140,470,0,0,0,0,0,0,0,0,0,-1,1084,554,0,0
-133,470,0,0,0,0,0,0,0,0,0,-1,1091,554,0,0
-126,470,0,0,0,0,0,0,0,0,0,-1,1098,554,0,0
-119,470,0,0,0,0,0,0,0,0,0,-1,1105,554,0,0
-112,470,0,0,0,0,0,0,0,0,0,-1,1112,554,0,0
-105,470,0,0,0,0,0,0,0,0,0,-1,1119,554,0,0
-98,470,0,0,0,0,0,0,0,0,0,-1,1126,554,0,0
-91,470,0,0,0,0,0,0,0,0,0,-1,1133,554,0,0
-84,470,0,0,0,0,0,0,0,0,0,-1,1140,554,0,0
-77,470,0,0,0,0,0,0,0,0,0,-1,1147,554,0,0
-70,470,0,0,0,0,0,0,0,0,0,-1,1154,554,0,0
-63,470,0,0,0,0,0,0,0,0,0,-1,1161,554,0,0
-56,470,0,0,0,0,0,0,0,0,0,-1,1168,554,0,0
-49,470,0,0,0,0,0,0,0,0,0,-1,1175,554,0,0
-42,470,0,0,0,0,0,0,0,0,0,-1,1182,554,0,0
-35,470,0,0,0,0,0,0,0,0,0,-1,1189,554,0,0
-28,470,0,0,0,0,0,0,0,0,0,-1,1196,554,0,0
-21,470,0,0,0,0,0,0,0,0,0,-1,1203,554,0,0
-14,470,0,0,0,0,0,0,0,0,0,-1,1210,554,0,0
-7,470,0,0,0,0,0,0,0,0,0,-1,1217,554,0,0
0,470,0,0,0,0,0,0,0,0,0,-1,1224,554,0,0
7,470,0,0,0,0,0,0,0,0,0,-1,1231,554,0,0
14,470,0,0,0,0,0,0,0,0,0,-1,1238,554,0,0
21,470,0,0,0,0,0,0,0,0,0,-1,1245,554,0,0
28,470,0,0,0,0,0,0,0,0,0,-1,1252,554,0,0
35,470,0,0,0,0,0,0,0,0,0,-1,1259,554,0,0
42,470,0,0,0,0,0,0,0,0,0,-1,1266,554,0,0
49,470,0,0,0,0,0,0,0,0,0,-1,1273,554,0,0
56,470,0,0,0,0,0,0,0,0,0,-1,1280,554,0,0
63,470,0,0,0,0,0,0,0,0,0,-1,1287,554,0,0
70,470,0,0,0,0,0,0,0,0,0,-1,1294,554,0,0
77,470,0,0,0,0,0,0,0,0,0,-1,1301,554,0,0
84,470,0,0,0,0,0,0,0,0,0,-1,1308,554,0,0
91,470,0,0,0,0,0,0,0,0,0,-1,1315,554,0,0
98,470,0,0,0,0,0,0,0,0,0,-1,1322,554,0,0
105,470,0,0,0,0,0,0,0,0,0,-1,1329,554,0,0
112,470,0,0,0,0,0,0,0,0,0,-1,1336,554,0,0
119,470,0,0,0,0,0,0,0,0,0,-1,1343,554,0,0
126,470,0,0,0,0,0,0,0,0,0,-1,1350,554,0,0
133,470,0,0,0,0,0,0,0,0,0,-1,1357,554,0,0
140,470,0,0,0,0,0,0,0,0,0,-1,1364,554,0,0
147,470,0,0,0,0,0,0,0,0,0,-1,1371,554,0,0
154,470,0,0,0,0,0,0,0,0,0,-1,1378,554,0,0
161,470,0,0,0,0,0,0,0,0,0,-1,1385,554,0,0
168,470,0,0,0,0,0,0,0,0,0,-1,1392,554,0,0
175,470,0,0,0,0,0,0,0,0,0,-1,1399,554,0,0
182,470,0,0,0,0,0,0,0,0,0,-1,1406,554,0,0
189,470,0,0,0,0,0,0,0,0,0,-1,1413,554,0,0
196,470,0,0,0,0,0,0,0,0,0,-1,1420,554,0,0
203,470,0,0,0,0,0,0,0,0,0,-1,1427,554,0,0
210,470,0,0,0,0,0,0,0,0,0,-1,1434,554,0,0
217,470,0,0,0,0,0,0,0,0,0,-1,1441,554,0,0
224,470,0,0,0,0,0,0,0,0,0,-1,1448,554,0,0
231,470,0,0,0,0,0,0,0,0,0,-1,1455,554,0,0
238,470,0,0,0,0,0,0,0,0,0,-1,1462,554,0,0
245,470,0,0,0,0,0,0,0,0,0,-1,1469,554,0,0
252,470,0,0,0,0,0,0,0,0,0,-1,1476,554,0,0
259,470,0,0,0,0,0,0,0,0,0,-1,1483,554,0,0
266,470,0,0,0,0,0,0,0,0,0,-1,1490,554,0,0
273,470,0,0,0,0,0,0,0,0,0,-1,1497,554,0,0
280,470,0,0,0,0,0,0,0,0,0,-1,1504,554,0,0
287,470,0,0,0,0,0,0,0,0,0,-1,1511,554,0,0
294,470,0,0,0,0,0,0,0,0,0,-1,1518,554,0,0
301,470,0,0,0,0,0,0,0,0,0,-1,1525,554,0,0
308,470,0,0,0,0,0,0,0,0,0,-1,1532,554,0,0
315,470,0,0,0,0,0,0,0,0,0,-1,1539,554,0,0
322,470,0,0,0,0,0,0,0,0,0,-1,1546,554,0,0
329,470,0,0,0,0,0,0,0,0,0,-1,1553,554,0,0
336,470,0,0,0,0,0,0,0,0,0,-1,1560,554,0,0
343,470,0,0,0,0,0,0,0,0,0,-1,1567,554,0,0
350,470,0,0,0,0,0,0,0,0,0,-1,1574,554,0,0
357,470,0,0,0,0,0,0,0,0,0,-1,1581,554,0,0
364,470,1.33423,0.293335,0,0,0,0,0,0,0,-1,1588,554,1.33422,-0.293348
371,470,2.22498,-0.0305176,0,0,0,0,0,0,0,-1,1595,554,2.22494,0.0305046
378,470,6.27051,0.710083,0,0,0,0,0,0,0,-1,1602,554,6.27054,-0.710093
385,470,10.3657,1.47296,0,0,0,0,0,0,0,-1,1609,554,10.3657,-1.47299
392,470,15.3881,3.01935,0,0,0,0,0,0,0,-1,1616,554,15.388,-3.01937
399,470,18.4479,2.93793,0,0,0,0,0,0,0,-1,1623,554,18.4479,-2.93792
406,470,15.1896,1.36676,0,0,0,0,0,0,0,-1,1630,554,15.1896,-1.36679
413,470,6.55383,1.99207,0,0,0,0,0,0,0,-1,1637,554,6.5538,-1.99208
420,470,4.47095,0.845703,0,0,0,0,0,0,0,-1,1644,554,4.47098,-0.845718
427,470,3.51038,1.19684,0,0,0,0,0,0,0,-1,1651,554,3.51039,-1.19684
434,470,3.31775,-1.37427,0,0,0,0,0,0,0,-1,1658,554,3.31781,1.37426
441,470,2.55457,-2.05902,0,0,0,0,0,0,0,-1,1665,554,2.55461,2.05904
448,470,3.27258,-2.64032,0,0,0,0,0,0,0,-1,1672,554,3.27257,2.64029
455,470,10.3658,-9.82233,0,0,0,0,0,0,0,-1,1679,554,10.3659,9.82233
462,470,11.0651,-11.9958,0,0,0,0,0,0,0,-1,1686,554,11.0651,11.9958
469,470,15.4242,-19.0521,0,0,0,0,0,0,0,-1,1693,554,15.4242,19.0521
476,470,18.5048,-22.4542,0,0,0,0,0,0,0,-1,1700,554,18.5048,22.4542
483,470,18.5594,-21.6747,0.00212582,0.000129562,-0.000940045,0.0024988,-0.00024342,-0.377719,0.00175265,0.0182322,1707,554,18.5594,21.6747
490,470,18.5005,-20.9889,0.00189214,0.000495156,-0.000477935,0.00204,0.000347295,-0.300035,0.00126029,0.0119864,1714,554,18.5005,20.9889
497,470,18.473,-20.2903,0.00167008,0.00108599,0.000214287,0.00174026,0.00101581,0.316508,0.00100943,0.0132133,1721,554,18.473,20.2904
504,470,18.4611,-19.5896,0.00137996,0.00122091,0.000694176,0.00199915,0.000601718,0.728365,0.00118429,0.0196691,1728,554,18.4611,19.5896
511,470,18.4066,-18.944,0.000983264,0.00142504,0.00108696,0.00231333,9.49684e-05,0.88564,0.00151156,0.0263665,1735,554,18.4066,18.944
518,470,18.4161,-18.2716,0.000503607,0.00169555,0.00141013,0.00263047,-0.000431319,0.985331,0.00191369,0.0267776,1742,554,18.4161,18.2716
525,470,18.3789,-17.486,2.9432e-05,0.00197135,0.00167041,0.00293249,-0.000931715,1.04866,0.00232855,0.0166341,1749,554,18.3789,17.4861
532,470,18.3036,-16.7189,-0.000424618,0.00230908,0.00190761,0.00328898,-0.00140453,1.09626,0.00278165,0.0135383,1756,554,18.3036,16.7189
539,470,18.2716,-16.004,-0.000854333,0.00265248,0.00207941,0.00361907,-0.00182092,1.13567,0.00319746,0.0166772,1763,554,18.2715,16.004
546,470,18.2645,-15.3141,-0.00124487,0.00313799,0.00224513,0.00408392,-0.00219079,1.17204,0.00367726,0.0158318,1770,554,18.2646,15.3141
553,470,18.2819,-14.5613,-0.00154344,0.00370456,0.00245915,0.00467677,-0.00251566,1.19431,0.00421457,0.026112,1777,554,18.2818,14.5614
560,470,18.248,-13.7562,-0.00170208,0.00438917,0.00271571,0.0054241,-0.00273701,1.2067,0.0047962,0.0475035,1784,554,18.2481,13.7563
567,470,18.0764,-12.7554,0,0,0,0,0,0,0,-1,1791,554,18.0764,12.7554
574,470,14.2793,-8.07147,0,0,0,0,0,0,0,-1,1798,554,14.2793,8.07147
581,470,8.24646,-4.06317,0,0,0,0,0,0,0,-1,1805,554,8.24648,4.06318
588,470,11.1803,1.74927,0,0,0,0,0,0,0,-1,1812,554,11.1803,-1.74926
595,470,4.72192,3.44116,0,0,0,0,0,0,0,-1,1819,554,4.72191,-3.44116
602,470,14.4307,2.76141,0,0,0,0,0,0,0,-1,1826,554,14.4306,-2.76139
609,470,20.9181,4.41058,0,0,0,0,0,0,0,-1,1833,554,20.9181,-4.4106
616,470,0,0,0,0,0,0,0,0,0,-1,1840,554,0,0
623,470,0,0,0,0,0,0,0,0,0,-1,1847,554,0,0
630,470,0,0,0,0,0,0,0,0,0,-1,1854,554,0,0
637,470,0,0,0,0,0,0,0,0,0,-1,1861,554,0,0
644,470,0,0,0,0,0,0,0,0,0,-1,1868,554,0,0
651,470,0,0,0,0,0,0,0,0,0,-1,1875,554,0,0
658,470,0,0,0,0,0,0,0,0,0,-1,1882,554,0,0
665,470,0,0,0,0,0,0,0,0,0,-1,1889,554,0,0
672,470,0,0,0,0,0,0,0,0,0,-1,1896,554,0,0
679,470,0,0,0,0,0,0,0,0,0,-1,1903,554,0,0
686,470,0,0,0,0,0,0,0,0,0,-1,1910,554,0,0
693,470,0,0,0,0,0,0,0,0,0,-1,1917,554,0,0
700,470,0,0,0,0,0,0,0,0,0,-1,1924,554,0,0
707,470,0,0,0,0,0,0,0,0,0,-1,1931,554,0,0
714,470,0,0,0,0,0,0,0,0,0,-1,1938,554,0,0
721,470,0,0,0,0,0,0,0,0,0,-1,1945,554,0,0
728,470,0,0,0,0,0,0,0,0,0,-1,1952,554,0,0
735,470,0,0,0,0,0,0,0,0,0,-1,1959,554,0,0
742,470,0,0,0,0,0,0,0,0,0,-1,1966,554,0,0
749,470,0,0,0,0,0,0,0,0,0,-1,1973,554,0,0
756,470,0,0,0,0,0,0,0,0,0,-1,1980,554,0,0
763,470,0,0,0,0,0,0,0,0,0,-1,1987,554,0,0
770,470,0,0,0,0,0,0,0,0,0,-1,1994,554,0,0
777,470,0,0,0,0,0,0,0,0,0,-1,2001,554,0,0
784,470,0,0,0,0,0,0,0,0,0,-1,2008,554,0,0
791,470,0,0,0,0,0,0,0,0,0,-1,2015,554,0,0
798,470,0,0,0,0,0,0,0,0,0,-1,2022,554,0,0
805,470,0,0,0,0,0,0,0,0,0,-1,2029,554,0,0
812,470,0,0,0,0,0,0,0,0,0,-1,2036,554,0,0
-700,463,0,0,0,0,0,0,0,0,0,-1,524,561,0,0
-693,463,0,0,0,0,0,0,0,0,0,-1,531,561,0,0
-686,463,0,0,0,0,0,0,0,0,0,-1,538,561,0,0
-679,463,0,0,0,0,0,0,0,0,0,-1,545,561,0,0
-672,463,0,0,0,0,0,0,0,0,0,-1,552,561,0,0
-665,463,0,0,0,0,0,0,0,0,0,-1,559,561,0,0
-658,463,0,0,0,0,0,0,0,0,0,-1,566,561,0,0
-651,463,0,0,0,0,0,0,0,0,0,-1,573,561,0,0
-644,463,0,0,0,0,0,0,0,0,0,-1,580,561,0,0
-637,463,0,0,0,0,0,0,0,0,0,-1,587,561,0,0
-630,463,0,0,0,0,0,0,0,0,0,-1,594,561,0,0
-623,463,0,0,0,0,0,0,0,0,0,-1,601,561,0,0
-616,463,0,0,0,0,0,0,0,0,0,-1,608,561,0,0
-609,463,0,0,0,0,0,0,0,0,0,-1,615,561,0,0
-602,463,0,0,0,0,0,0,0,0,0,-1,622,561,0,0
-595,463,0,0,0,0,0,0,0,0,0,-1,629,561,0,0
-588,463,0,0,0,0,0,0,0,0,0,-1,636,561,0,0
-581,463,0,0,0,0,0,0,0,0,0,-1,643,561,0,0
-574,463,0,0,0,0,0,0,0,0,0,-1,650,561,0,0
-567,463,0,0,0,0,0,0,0,0,0,-1,657,561,0,0
-560,463,0,0,0,0,0,0,0,0,0,-1,664,561,0,0
-553,463,0,0,0,0,0,0,0,0,0,-1,671,561,0,0
-546,463,0,0,0,0,0,0,0,0,0,-1,678,561,0,0
-539,463,0,0,0,0,0,0,0,0,0,-1,685,561,0,0
-532,463,0,0,0,0,0,0,0,0,0,-1,692,561,0,0
-525,463,0,0,0,0,0,0,0,0,0,-1,699,561,0,0
-518,463,0,0,0,0,0,0,0,0,0,-1,706,561,0,0
-511,463,0,0,0,0,0,0,0,0,0,-1,713,561,0,0
-504,463,0,0,0,0,0,0,0,0,0,-1,720,561,0,0
-497,463,-9.81451,-1.67126,0,0,0,0,0,0,0,-1,727,561,-9.81452,1.67127
-490,463,-8.57043,-1.58942,0,0,0,0,0,0,0,-1,734,561,-8.57045,1.58944
-483,463,-7.29224,-1.7226,0,0,0,0,0,0,0,-1,741,561,-7.29226,1.72261
-476,463,-5.77704,-1.7312,0,0,0,0,0,0,0,-1,748,561,-5.77703,1.73121
-469,463,-5.14545,-2.138,0,0,0,0,0,0,0,-1,755,561,-5.14546,2.13799
-462,463,-3.13672,-3.07977,0,0,0,0,0,0,0,-1,762,561,-3.13672,3.07974
-455,463,-2.91406,-5.61798,0,0,0,0,0,0,0,-1,769,561,-2.91406,5.61801
-448,463,-4.00177,-8.54681,0,0,0,0,0,0,0,-1,776,561,-4.00175,8.54683
-441,463,-6.89337,-14.164,0,0,0,0,0,0,0,-1,783,561,-6.89339,14.164
-434,463,-6.79285,-15.0844,0.000203883,0.00941539,-0.00412504,0.0109926,-0.00137332,-1.2056,0.00782643,0.0312471,790,561,-6.79285,15.0844
-427,463,-6.8194,-15.8068,0.000137651,0.00789613,-0.00348819,0.00923378,-0.0012,-1.20461,0.00659236,0.0112665,797,561,-6.81938,15.8068
-420,463,-6.81732,-16.4996,0.000187977,0.00649558,-0.00298456,0.00768391,-0.00100035,-1.19188,0.00548654,0.01028,804,561,-6.8173,16.4996
-413,463,-6.87091,-17.2007,0.000196409,0.00499242,-0.0023573,0.00595705,-0.000768218,-1.18238,0.00425064,0.0103091,811,561,-6.87092,17.2007
-406,463,-6.92584,-17.8991,0.000374486,0.00382477,-0.00188003,0.00465122,-0.000451966,-1.15663,0.00326192,0.0104941,818,561,-6.92584,17.8991
-399,463,-6.93829,-18.5898,0.000673493,0.00267622,-0.00142371,0.00341545,-6.57419e-05,-1.09188,0.0022992,0.0115558,825,561,-6.93832,18.5898
-392,463,-6.98151,-19.2774,0.00100768,0.00153342,-0.000965797,0.00227148,0.000269619,-0.91827,0.00143293,0.0111501,832,561,-6.9815,19.2774
-385,463,-7.02313,-19.9714,0.0014894,0.000594551,-0.000657762,0.00183749,0.000246463,-0.486734,0.00115166,0.0116795,839,561,-7.02312,19.9714
-378,463,-7.03961,-20.6319,0.00201056,-0.000312614,-0.000332242,0.00205714,-0.000359195,-0.139293,0.00150551,0.0124257,846,561,-7.03959,20.6319
-371,463,-7.04614,-21.3024,0.00259164,-0.00110988,-4.88997e-05,0.00259228,-0.00111053,-0.0132076,0.00219414,0.0120585,853,561,-7.04615,21.3024
-364,463,-7.06445,-21.9376,0.00324597,-0.00174506,0.00012668,0.00324918,-0.00174827,0.0253599,0.00292833,0.0143392,860,561,-7.06447,21.9376
-357,463,-7.11108,-22.5824,0.00401517,-0.00229853,0.000141692,0.00401835,-0.00230171,0.0224269,0.00369348,0.0219138,867,561,-7.11111,22.5824
-350,463,-7.0235,-23.3066,0.00489586,-0.0027629,-4.73717e-05,0.00489615,-0.00276319,-0.00618498,0.00447892,0.0444002,874,561,-7.02351,23.3066
-343,463,-6.67963,-24.0106,0,0,0,0,0,0,0,-1,881,561,-6.67963,24.0105
-336,463,-2.94928,-12.2127,0,0,0,0,0,0,0,-1,888,561,-2.94925,12.2127
-329,463,-2.64307,-12.7037,0,0,0,0,0,0,0,-1,895,561,-2.64307,12.7038
-322,463,-1.82898,-9.11957,0,0,0,0,0,0,0,-1,902,561,-1.829,9.11957
-315,463,-0.944763,-5.96234,0,0,0,0,0,0,0,-1,909,561,-0.94479,5.96237
-308,463,-1.1535,-3.17889,0,0,0,0,0,0,0,-1,916,561,-1.15352,3.17889
-301,463,-1.50366,-3.15338,0,0,0,0,0,0,0,-1,923,561,-1.50364,3.15341
-294,463,-2.35889,-3.93463,0,0,0,0,0,0,0,-1,930,561,-2.35886,3.93465
-287,463,-2.80322,2.73999,0,0,0,0,0,0,0,-1,937,561,-2.80322,-2.74
-280,463,-12.864,5.25146,0,0,0,0,0,0,0,-1,944,561,-12.864,-5.25149
-273,463,-12.4598,3.39178,0,0,0,0,0,0,0,-1,951,561,-12.4598,-3.3918
-266,463,-8.78101,-3.7356,0,0,0,0,0,0,0,-1,958,561,-8.78098,3.73562
-259,463,-6.23285,-5.68842,0,0,0,0,0,0,0,-1,965,561,-6.23288,5.68843
-252,463,0,0,0,0,0,0,0,0,0,-1,972,561,0,0
-245,463,0,0,0,0,0,0,0,0,0,-1,979,561,0,0
-238,463,0,0,0,0,0,0,0,0,0,-1,986,561,0,0
-231,463,0,0,0,0,0,0,0,0,0,-1,993,561,0,0
-224,463,0,0,0,0,0,0,0,0,0,-1,1000,561,0,0
-217,463,0,0,0,0,0,0,0,0,0,-1,1007,561,0,0
-210,463,0,0,0,0,0,0,0,0,0,-1,1014,561,0,0
-203,463,0,0,0,0,0,0,0,0,0,-1,1021,561,0,0
-196,463,0,0,0,0,0,0,0,0,0,-1,1028,561,0,0
-189,463,0,0,0,0,0,0,0,0,0,-1,1035,561,0,0
-182,463,0,0,0,0,0,0,0,0,0,-1,1042,561,0,0
-175,463,0,0,0,0,0,0,0,0,0,-1,1049,561,0,0
-168,463,0,0,0,0,0,0,0,0,0,-1,1056,561,0,0
-161,463,0,0,0,0,0,0,0,0,0,-1,1063,561,0,0
-154,463,0,0,0,0,0,0,0,0,0,-1,1070,561,0,0
-147,463,0,0,0,0,0,0,0,0,0,-1,1077,561,0,0
-140,463,0,0,0,0,0,0,0,0,0,-1,1084,561,0,0
-133,463,0,0,0,0,0,0,0,0,0,-1,1091,561,0,0
-126,463,0,0,0,0,0,0,0,0,0,-1,1098,561,0,0
-119,463,0,0,0,0,0,0,0,0,0,-1,1105,561,0,0
-112,463,0,0,0,0,0,0,0,0,0,-1,1112,561,0,0
-105,463,0,0,0,0,0,0,0,0,0,-1,1119,561,0,0
-98,463,0,0,0,0,0,0,0,0,0,-1,1126,561,0,0
-91,463,0,0,0,0,0,0,0,0,0,-1,1133,561,0,0
-84,463,0,0,0,0,0,0,0,0,0,-1,1140,561,0,0
-77,463,0,0,0,0,0,0,0,0,0,-1,1147,561,0,0
-70,463,0,0,0,0,0,0,0,0,0,-1,1154,561,0,0
-63,463,0,0,0,0,0,0,0,0,0,-1,1161,561,0,0
-56,463,0,0,0,0,0,0,0,0,0,-1,1168,561,0,0
-49,463,0,0,0,0,0,0,0,0,0,-1,1175,561,0,0
-42,463,0,0,0,0,0,0,0,0,0,-1,1182,561,0,0
-35,463,0,0,0,0,0,0,0,0,0,-1,1189,561,0,0
-28,463,0,0,0,0,0,0,0,0,0,-1,1196,561,0,0
-21,463,0,0,0,0,0,0,0,0,0,-1,1203,561,0,0
-14,463,0,0,0,0,0,0,0,0,0,-1,1210,561,0,0
-7,463,0,0,0,0,0,0,0,0,0,-1,1217,561,0,0
0,463,0,0,0,0,0,0,0,0,0,-1,1224,561,0,0
7,463,0,0,0,0,0,0,0,0,0,-1,1231,561,0,0
14,463,0,0,0,0,0,0,0,0,0,-1,1238,561,0,0
21,463,0,0,0,0,0,0,0,0,0,-1,1245,561,0,0
28,463,0,0,0,0,0,0,0,0,0,-1,1252,561,0,0
35,463,0,0,0,0,0,0,0,0,0,-1,1259,561,0,0
42,463,0,0,0,0,0,0,0,0,0,-1,1266,561,0,0
49,463,0,0,0,0,0,0,0,0,0,-1,1273,561,0,0
56,463,0,0,0,0,0,0,0,0,0,-1,1280,561,0,0
63,463,0,0,0,0,0,0,0,0,0,-1,1287,561,0,0
70,463,0,0,0,0,0,0,0,0,0,-1,1294,561,0,0
77,463,0,0,0,0,0,0,0,0,0,-1,1301,561,0,0
84,463,0,0,0,0,0,0,0,0,0,-1,1308,561,0,0
91,463,0,0,0,0,0,0,0,0,0,-1,1315,561,0,0
98,463,0,0,0,0,0,0,0,0,0,-1,1322,561,0,0
105,463,0,0,0,0,0,0,0,0,0,-1,1329,561,0,0
112,463,0,0,0,0,0,0,0,0,0,-1,1336,561,0,0
119,463,0,0,0,0,0,0,0,0,0,-1,1343,561,0,0
126,463,0,0,0,0,0,0,0,0,0,-1,1350,561,0,0
133,463,0,0,0,0,0,0,0,0,0,-1,1357,561,0,0
140,463,0,0,0,0,0,0,0,0,0,-1,1364,561,0,0
147,463,0,0,0,0,0,0,0,0,0,-1,1371,561,0,0
154,463,0,0,0,0,0,0,0,0,0,-1,1378,561,0,0
161,463,0,0,0,0,0,0,0,0,0,-1,1385,561,0,0
168,463,0,0,0,0,0,0,0,0,0,-1,1392,561,0,0
175,463,0,0,0,0,0,0,0,0,0,-1,1399,561,0,0
182,463,0,0,0,0,0,0,0,0,0,-1,1406,561,0,0
189,463,0,0,0,0,0,0,0,0,0,-1,1413,561,0,0
196,463,0,0,0,0,0,0,0,0,0,-1,1420,561,0,0
203,463,0,0,0,0,0,0,0,0,0,-1,1427,561,0,0
210,463,0,0,0,0,0,0,0,0,0,-1,1434,561,0,0
217,463,0,0,0,0,0,0,0,0,0,-1,1441,561,0,0
224,463,0,0,0,0,0,0,0,0,0,-1,1448,561,0,0
231,463,0,0,0,0,0,0,0,0,0,-1,1455,561,0,0
238,463,0,0,0,0,0,0,0,0,0,-1,1462,561,0,0
245,463,0,0,0,0,0,0,0,0,0,-1,1469,561,0,0
252,463,0,0,0,0,0,0,0,0,0,-1,1476,561,0,0
259,463,0,0,0,0,0,0,0,0,0,-1,1483,561,0,0
266,463,0,0,0,0,0,0,0,0,0,-1,1490,561,0,0
273,463,0,0,0,0,0,0,0,0,0,-1,1497,561,0,0
280,463,0,0,0,0,0,0,0,0,0,-1,1504,561,0,0
287,463,0,0,0,0,0,0,0,0,0,-1,1511,561,0,0
294,463,0,0,0,0,0,0,0,0,0,-1,1518,561,0,0
301,463,0,0,0,0,0,0,0,0,0,-1,1525,561,0,0
308,463,0,0,0,0,0,0,0,0,0,-1,1532,561,0,0
315,463,0,0,0,0,0,0,0,0,0,-1,1539,561,0,0
322,463,0,0,0,0,0,0,0,0,0,-1,1546,561,0,0
329,463,0,0,0,0,0,0,0,0,0,-1,1553,561,0,0
336,463,0,0,0,0,0,0,0,0,0,-1,1560,561,0,0
343,463,0,0,0,0,0,0,0,0,0,-1,1567,561,0,0
350,463,0,0,0,0,0,0,0,0,0,-1,1574,561,0,0
357,463,0,0,0,0,0,0,0,0,0,-1,1581,561,0,0
364,463,0,0,0,0,0,0,0,0,0,-1,1588,561,0,0
371,463,1.75842,0.152588,0,0,0,0,0,0,0,-1,1595,561,1.75844,-0.152558
378,463,4.58813,-0.0444336,0,0,0,0,0,0,0,-1,1602,561,4.58809,0.0444505
385,463,8.88574,1.65057,0,0,0,0,0,0,0,-1,1609,561,8.88575,-1.65055
392,463,14.0912,2.50513,0,0,0,0,0,0,0,-1,1616,561,14.0912,-2.5051
399,463,21.4769,2.7002,0,0,0,0,0,0,0,-1,1623,561,21.477,-2.70017
406,463,26.2987,4.32318,0,0,0,0,0,0,0,-1,1630,561,26.2987,-4.3232
413,463,26.5011,2.65222,0,0,0,0,0,0,0,-1,1637,561,26.5011,-2.65224
420,463,8.849,2.26611,0,0,0,0,0,0,0,-1,1644,561,8.84899,-2.26613
427,463,5.12207,1.69183,0,0,0,0,0,0,0,-1,1651,561,5.12206,-1.69184
434,463,4.59814,1.81995,0,0,0,0,0,0,0,-1,1658,561,4.59812,-1.81994
441,463,1.76392,-5.99225,0,0,0,0,0,0,0,-1,1665,561,1.7639,5.99225
448,463,2.49939,-4.30536,0,0,0,0,0,0,0,-1,1672,561,2.49941,4.30536
455,463,4.40295,-3.02557,0,0,0,0,0,0,0,-1,1679,561,4.40299,3.02558
462,463,5.38293,-4.06445,0,0,0,0,0,0,0,-1,1686,561,5.38289,4.06444
469,463,5.94373,-4.50647,0,0,0,0,0,0,0,-1,1693,561,5.94368,4.50646
476,463,15.2559,-17.3189,0,0,0,0,0,0,0,-1,1700,561,15.2558,17.3189
483,463,19.2209,-21.7281,0,0,0,0,0,0,0,-1,1707,561,19.221,21.7281
490,463,19.2219,-21.0166,0.00251881,0.000296583,-0.000293885,0.00255702,0.000258375,-0.129287,0.00162542,0.0280623,1714,561,19.2219,21.0166
497,463,19.1581,-20.2584,0.002303,0.000980979,0.000340241,0.00238543,0.000898552,0.23768,0.00139112,0.0138622,1721,561,19.1581,20.2584
504,463,19.1458,-19.5593,0.00198805,0.0010955,0.000683377,0.00235796,0.000725587,0.496144,0.00139452,0.016344,1728,561,19.1457,19.5593
511,463,19.1267,-18.8767,0.00158909,0.0012417,0.000946682,0.00237788,0.000452914,0.694669,0.00145793,0.0225865,1735,561,19.1268,18.8767
518,463,19.1334,-18.1763,0.00114224,0.00142344,0.00118213,0.00247331,9.23735e-05,0.844588,0.00161896,0.0244095,1742,561,19.1334,18.1763
525,463,19.0908,-17.445,0.000689509,0.00162495,0.00136046,0.00259584,-0.000281386,0.950966,0.00183157,0.0202254,1749,561,19.0909,17.445
532,463,19.0773,-16.7182,0.000262426,0.00188513,0.00152983,0.00280545,-0.000657893,1.02922,0.00212384,0.0173061,1756,561,19.0772,16.7182
539,463,19.0009,-15.9886,-0.000117294,0.00215123,0.00166613,0.00303254,-0.000998606,1.08425,0.00242412,0.0185865,1763,561,19.0009,15.9886
546,463,18.9629,-15.2955,-0.00044831,0.0025505,0.00181035,0.00340175,-0.00129956,1.13126,0.00280329,0.0147205,1770,561,18.9629,15.2955
553,463,18.9534,-14.5507,-0.000726815,0.00304182,0.00200428,0.00390846,-0.00159346,1.16268,0.00326892,0.0116976,1777,561,18.9534,14.5507
560,463,18.957,-13.7053,-0.000871357,0.00363948,0.00227879,0.00459027,-0.00182215,1.17552,0.00381547,0.0232032,1784,561,18.957,13.7052
567,463,18.7955,-12.9938,-0.000942217,0.0043053,0.00259896,0.0053746,-0.00201152,1.18047,0.00440927,0.0344313,1791,561,18.7955,12.9938
574,463,18.8959,-12.2806,0,0,0,0,0,0,0,-1,1798,561,18.8959,12.2806
581,463,9.4939,-3.88245,0,0,0,0,0,0,0,-1,1805,561,9.49392,3.88245
588,463,1.97424,2.16016,0,0,0,0,0,0,0,-1,1812,561,1.97422,-2.16013
595,463,9.98657,2.99854,0,0,0,0,0,0,0,-1,1819,561,9.98662,-2.99856
602,463,17.2202,4.91302,0,0,0,0,0,0,0,-1,1826,561,17.2202,-4.91305
609,463,17.96,4.03131,0,0,0,0,0,0,0,-1,1833,561,17.96,-4.03132
616,463,20.8352,3.15131,0,0,0,0,0,0,0,-1,1840,561,20.8352,-3.1513
623,463,0,0,0,0,0,0,0,0,0,-1,1847,561,0,0
630,463,0,0,0,0,0,0,0,0,0,-1,1854,561,0,0
637,463,0,0,0,0,0,0,0,0,0,-1,1861,561,0,0
644,463,0,0,0,0,0,0,0,0,0,-1,1868,561,0,0
651,463,0,0,0,0,0,0,0,0,0,-1,1875,561,0,0
658,463,0,0,0,0,0,0,0,0,0,-1,1882,561,0,0
665,463,0,0,0,0,0,0,0,0,0,-1,1889,561,0,0
672,463,0,0,0,0,0,0,0,0,0,-1,1896,561,0,0
679,463,0,0,0,0,0,0,0,0,0,-1,1903,561,0,0
686,463,0,0,0,0,0,0,0,0,0,-1,1910,561,0,0
693,463,0,0,0,0,0,0,0,0,0,-1,1917,561,0,0
700,463,0,0,0,0,0,0,0,0,0,-1,1924,561,0,0
707,463,0,0,0,0,0,0,0,0,0,-1,1931,561,0,0
714,463,0,0,0,0,0,0,0,0,0,-1,1938,561,0,0
721,463,0,0,0,0,0,0,0,0,0,-1,1945,561,0,0
728,463,0,0,0,0,0,0,0,0,0,-1,1952,561,0,0
735,463,0,0,0,0,0,0,0,0,0,-1,1959,561,0,0
742,463,0,0,0,0,0,0,0,0,0,-1,1966,561,0,0
749,463,0,0,0,0,0,0,0,0,0,-1,1973,561,0,0
756,463,0,0,0,0,0,0,0,0,0,-1,1980,561,0,0
763,463,0,0,0,0,0,0,0,0,0,-1,1987,561,0,0
770,463,0,0,0,0,0,0,0,0,0,-1,1994,561,0,0
777,463,0,0,0,0,0,0,0,0,0,-1,2001,561,0,0
784,463,0,0,0,0,0,0,0,0,0,-1,2008,561,0,0
791,463,0,0,0,0,0,0,0,0,0,-1,2015,561,0,0
798,463,0,0,0,0,0,0,0,0,0,-1,2022,561,0,0
805,463,0,0,0,0,0,0,0,0,0,-1,2029,561,0,0
812,463,0,0,0,0,0,0,0,0,0,-1,2036,561,0,0
-700,456,0,0,0,0,0,0,0,0,0,-1,524,568,0,0
-693,456,0,0,0,0,0,0,0,0,0,-1,531,568,0,0
-686,456,0,0,0,0,0,0,0,0,0,-1,538,568,0,0
-679,456,0,0,0,0,0,0,0,0,0,-1,545,568,0,0
-672,456,0,0,0,0,0,0,0,0,0,-1,552,568,0,0
-665,456,0,0,0,0,0,0,0,0,0,-1,559,568,0,0
-658,456,0,0,0,0,0,0,0,0,0,-1,566,568,0,0
-651,456,0,0,0,0,0,0,0,0,0,-1,573,568,0,0
-644,456,0,0,0,0,0,0,0,0,0,-1,580,568,0,0
-637,456,0,0,0,0,0,0,0,0,0,-1,587,568,0,0
-630,456,0,0,0,0,0,0,0,0,0,-1,594,568,0,0
-623,456,0,0,0,0,0,0,0,0,0,-1,601,568,0,0
-616,456,0,0,0,0,0,0,0,0,0,-1,608,568,0,0
-609,456,0,0,0,0,0,0,0,0,0,-1,615,568,0,0
-602,456,0,0,0,0,0,0,0,0,0,-1,622,568,0,0
-595,456,0,0,0,0,0,0,0,0,0,-1,629,568,0,0
-588,456,0,0,0,0,0,0,0,0,0,-1,636,568,0,0
-581,456,0,0,0,0,0,0,0,0,0,-1,643,568,0,0
-574,456,0,0,0,0,0,0,0,0,0,-1,650,568,0,0
-567,456,0,0,0,0,0,0,0,0,0,-1,657,568,0,0
-560,456,0,0,0,0,0,0,0,0,0,-1,664,568,0,0
-553,456,0,0,0,0,0,0,0,0,0,-1,671,568,0,0
-546,456,0,0,0,0,0,0,0,0,0,-1,678,568,0,0
-539,456,0,0,0,0,0,0,0,0,0,-1,685,568,0,0
-532,456,0,0,0,0,0,0,0,0,0,-1,692,568,0,0
-525,456,0,0,0,0,0,0,0,0,0,-1,699,568,0,0
-518,456,0,0,0,0,0,0,0,0,0,-1,706,568,0,0
-511,456,0,0,0,0,0,0,0,0,0,-1,713,568,0,0
-504,456,-10.3994,-2.34839,0,0,0,0,0,0,0,-1,720,568,-10.3994,2.3484
-497,456,-9.21375,-2.38068,0,0,0,0,0,0,0,-1,727,568,-9.21372,2.38069
-490,456,-8.09058,-2.31824,0,0,0,0,0,0,0,-1,734,568,-8.09057,2.31821
-483,456,-6.66119,-2.24329,0,0,0,0,0,0,0,-1,741,568,-6.66121,2.24331
-476,456,-5.1499,-2.21185,0,0,0,0,0,0,0,-1,748,568,-5.14992,2.21184
-469,456,-2.81238,-3.51501,0,0,0,0,0,0,0,-1,755,568,-2.81237,3.51501
-462,456,-4.2431,-5.27478,0,0,0,0,0,0,0,-1,762,568,-4.24312,5.27476
-455,456,-5.98364,-8.72119,0,0,0,0,0,0,0,-1,769,568,-5.98364,8.72122
-448,456,-7.49573,-13.1528,0,0,0,0,0,0,0,-1,776,568,-7.49576,13.1527
-441,456,-7.56213,-14.2569,0,0,0,0,0,0,0,-1,783,568,-7.56212,14.2569
-434,456,-7.47791,-15.06,0.000414377,0.00736897,-0.00346422,0.00880008,-0.00101673,-1.17904,0.00623333,0.0183891,790,568,-7.47788,15.06
-427,456,-7.49402,-15.7726,0.000361548,0.00594359,-0.00278778,0.00709738,-0.000792239,-1.17839,0.00501656,0.00931118,797,568,-7.49399,15.7726
-420,456,-7.52161,-16.4711,0.000428141,0.00467192,-0.00226353,0.0056526,-0.000552544,-1.16195,0.00396544,0.00915934,804,568,-7.52163,16.4711
-413,456,-7.55847,-17.1638,0.000427288,0.00327185,-0.00162566,0.00400958,-0.000310443,-1.14478,0.00278232,0.00949594,811,568,-7.55846,17.1638
-406,456,-7.62213,-17.8517,0.000597405,0.00220844,-0.0011578,0.00281337,-7.52392e-06,-1.08933,0.00187809,0.00984112,818,568,-7.62214,17.8517
-399,456,-7.63983,-18.5427,0.000921549,0.00119608,-0.000753552,0.00182476,0.000292861,-0.875488,0.00113159,0.0119263,825,568,-7.63986,18.5427
-392,456,-7.65253,-19.2291,0.00129409,0.000211013,-0.000370362,0.00140862,9.6478e-05,-0.299922,0.000908631,0.0116296,832,568,-7.65251,19.229
-385,456,-7.68951,-19.9091,0.00183118,-0.000567198,-0.000153888,0.00184101,-0.000577031,-0.0638145,0.00145825,0.0108469,839,568,-7.68954,19.909
-378,456,-7.72473,-20.5959,0.00242647,-0.00129109,6.93652e-05,0.00242776,-0.00129238,0.0186501,0.00218092,0.0112118,846,568,-7.72474,20.5959
-371,456,-7.72839,-21.2542,0.00312755,-0.00182749,0.000247971,0.00313993,-0.00183987,0.0498782,0.00290756,0.0118444,853,568,-7.7284,21.2542
-364,456,-7.71503,-21.8938,0.00394717,-0.00208599,0.000246049,0.00395719,-0.00209601,0.0406927,0.00354945,0.0269287,860,568,-7.71502,21.8938
-357,456,-7.71948,-22.5786,0,0,0,0,0,0,0,-1,867,568,-7.71946,22.5786
-350,456,-7.49976,-23.5067,0,0,0,0,0,0,0,-1,874,568,-7.49973,23.5067
-343,456,-3.39081,-12.0217,0,0,0,0,0,0,0,-1,881,568,-3.39078,12.0217
-336,456,-3.04517,-12.4623,0,0,0,0,0,0,0,-1,888,568,-3.04519,12.4624
-329,456,-1.06183,-10.7184,0,0,0,0,0,0,0,-1,895,568,-1.06184,10.7184
-322,456,-0.662537,-7.66632,0,0,0,0,0,0,0,-1,902,568,-0.662564,7.66633
-315,456,-0.675476,-3.38397,0,0,0,0,0,0,0,-1,909,568,-0.675473,3.38399
-308,456,-1.1618,-3.15314,0,0,0,0,0,0,0,-1,916,568,-1.16178,3.15314
-301,456,-1.83551,-3.26447,0,0,0,0,0,0,0,-1,923,568,-1.8355,3.26449
-294,456,-2.93414,-3.35449,0,0,0,0,0,0,0,-1,930,568,-2.93413,3.35451
-287,456,-3.7569,-3.53101,0,0,0,0,0,0,0,-1,937,568,-3.75692,3.53101
-280,456,-13.072,4.52856,0,0,0,0,0,0,0,-1,944,568,-13.072,-4.52855
-273,456,-8.26538,-6.66748,0,0,0,0,0,0,0,-1,951,568,-8.26536,6.66745
-266,456,-5.71527,-9.36884,0,0,0,0,0,0,0,-1,958,568,-5.71529,9.36885
-259,456,0,0,0,0,0,0,0,0,0,-1,965,568,0,0
-252,456,0,0,0,0,0,0,0,0,0,-1,972,568,0,0
-245,456,0,0,0,0,0,0,0,0,0,-1,979,568,0,0
-238,456,0,0,0,0,0,0,0,0,0,-1,986,568,0,0
-231,456,0,0,0,0,0,0,0,0,0,-1,993,568,0,0
-224,456,0,0,0,0,0,0,0,0,0,-1,1000,568,0,0
-217,456,0,0,0,0,0,0,0,0,0,-1,1007,568,0,0
-210,456,0,0,0,0,0,0,0,0,0,-1,1014,568,0,0
-203,456,0,0,0,0,0,0,0,0,0,-1,1021,568,0,0
-196,456,0,0,0,0,0,0,0,0,0,-1,1028,568,0,0
-189,456,0,0,0,0,0,0,0,0,0,-1,1035,568,0,0
-182,456,0,0,0,0,0,0,0,0,0,-1,1042,568,0,0
-175,456,0,0,0,0,0,0,0,0,0,-1,1049,568,0,0
-168,456,0,0,0,0,0,0,0,0,0,-1,1056,568,0,0
-161,456,0,0,0,0,0,0,0,0,0,-1,1063,568,0,0
-154,456,0,0,0,0,0,0,0,0,0,-1,1070,568,0,0
-147,456,0,0,0,0,0,0,0,0,0,-1,1077,568,0,0
-140,456,0,0,0,0,0,0,0,0,0,-1,1084,568,0,0
-133,456,0,0,0,0,0,0,0,0,0,-1,1091,568,0,0
-126,456,0,0,0,0,0,0,0,0,0,-1,1098,568,0,0
-119,456,0,0,0,0,0,0,0,0,0,-1,1105,568,0,0
-112,456,0,0,0,0,0,0,0,0,0,-1,1112,568,0,0
-105,456,0,0,0,0,0,0,0,0,0,-1,1119,568,0,0
-98,456,0,0,0,0,0,0,0,0,0,-1,1126,568,0,0
-91,456,0,0,0,0,0,0,0,0,0,-1,1133,568,0,0
-84,456,0,0,0,0,0,0,0,0,0,-1,1140,568,0,0
-77,456,0,0,0,0,0,0,0,0,0,-1,1147,568,0,0
-70,456,0,0,0,0,0,0,0,0,0,-1,1154,568,0,0
-63,456,0,0,0,0,0,0,0,0,0,-1,1161,568,0,0
-56,456,0,0,0,0,0,0,0,0,0,-1,1168,568,0,0
-49,456,0,0,0,0,0,0,0,0,0,-1,1175,568,0,0
-42,456,0,0,0,0,0,0,0,0,0,-1,1182,568,0,0
-35,456,0,0,0,0,0,0,0,0,0,-1,1189,568,0,0
-28,456,0,0,0,0,0,0,0,0,0,-1,1196,568,0,0
-21,456,0,0,0,0,0,0,0,0,0,-1,1203,568,0,0
-14,456,0,0,0,0,0,0,0,0,0,-1,1210,568,0,0
-7,456,0,0,0,0,0,0,0,0,0,-1,1217,568,0,0
0,456,0,0,0,0,0,0,0,0,0,-1,1224,568,0,0
7,456,0,0,0,0,0,0,0,0,0,-1,1231,568,0,0
14,456,0,0,0,0,0,0,0,0,0,-1,1238,568,0,0
21,456,0,0,0,0,0,0,0,0,0,-1,1245,568,0,0
28,456,0,0,0,0,0,0,0,0,0,-1,1252,568,0,0
35,456,0,0,0,0,0,0,0,0,0,-1,1259,568,0,0
42,456,0,0,0,0,0,0,0,0,0,-1,1266,568,0,0
49,456,0,0,0,0,0,0,0,0,0,-1,1273,568,0,0
56,456,0,0,0,0,0,0,0,0,0,-1,1280,568,0,0
63,456,0,0,0,0,0,0,0,0,0,-1,1287,568,0,0
70,456,0,0,0,0,0,0,0,0,0,-1,1294,568,0,0
77,456,0,0,0,0,0,0,0,0,0,-1,1301,568,0,0
84,456,0,0,0,0,0,0,0,0,0,-1,1308,568,0,0
91,456,0,0,0,0,0,0,0,0,0,-1,1315,568,0,0
98,456,0,0,0,0,0,0,0,0,0,-1,1322,568,0,0
105,456,0,0,0,0,0,0,0,0,0,-1,1329,568,0,0
112,456,0,0,0,0,0,0,0,0,0,-1,1336,568,0,0
119,456,0,0,0,0,0,0,0,0,0,-1,1343,568,0,0
126,456,0,0,0,0,0,0,0,0,0,-1,1350,568,0,0
133,456,0,0,0,0,0,0,0,0,0,-1,1357,568,0,0
140,456,0,0,0,0,0,0,0,0,0,-1,1364,568,0,0
147,456,0,0,0,0,0,0,0,0,0,-1,1371,568,0,0
154,456,0,0,0,0,0,0,0,0,0,-1,1378,568,0,0
161,456,0,0,0,0,0,0,0,0,0,-1,1385,568,0,0
168,456,0,0,0,0,0,0,0,0,0,-1,1392,568,0,0
175,456,0,0,0,0,0,0,0,0,0,-1,1399,568,0,0
182,456,0,0,0,0,0,0,0,0,0,-1,1406,568,0,0
189,456,0,0,0,0,0,0,0,0,0,-1,1413,568,0,0
196,456,0,0,0,0,0,0,0,0,0,-1,1420,568,0,0
203,456,0,0,0,0,0,0,0,0,0,-1,1427,568,0,0
210,456,0,0,0,0,0,0,0,0,0,-1,1434,568,0,0
217,456,0,0,0,0,0,0,0,0,0,-1,1441,568,0,0
224,456,0,0,0,0,0,0,0,0,0,-1,1448,568,0,0
231,456,0,0,0,0,0,0,0,0,0,-1,1455,568,0,0
238,456,0,0,0,0,0,0,0,0,0,-1,1462,568,0,0
245,456,0,0,0,0,0,0,0,0,0,-1,1469,568,0,0
252,456,0,0,0,0,0,0,0,0,0,-1,1476,568,0,0
259,456,0,0,0,0,0,0,0,0,0,-1,1483,568,0,0
266,456,0,0,0,0,0,0,0,0,0,-1,1490,568,0,0
273,456,0,0,0,0,0,0,0,0,0,-1,1497,568,0,0
280,456,0,0,0,0,0,0,0,0,0,-1,1504,568,0,0
287,456,0,0,0,0,0,0,0,0,0,-1,1511,568,0,0
294,456,0,0,0,0,0,0,0,0,0,-1,1518,568,0,0
301,456,0,0,0,0,0,0,0,0,0,-1,1525,568,0,0
308,456,0,0,0,0,0,0,0,0,0,-1,1532,568,0,0
315,456,0,0,0,0,0,0,0,0,0,-1,1539,568,0,0
322,456,0,0,0,0,0,0,0,0,0,-1,1546,568,0,0
329,456,0,0,0,0,0,0,0,0,0,-1,1553,568,0,0
336,456,0,0,0,0,0,0,0,0,0,-1,1560,568,0,0
343,456,0,0,0,0,0,0,0,0,0,-1,1567,568,0,0
350,456,0,0,0,0,0,0,0,0,0,-1,1574,568,0,0
357,456,0,0,0,0,0,0,0,0,0,-1,1581,568,0,0
364,456,0,0,0,0,0,0,0,0,0,-1,1588,568,0,0
371,456,0,0,0,0,0,0,0,0,0,-1,1595,568,0,0
378,456,0,0,0,0,0,0,0,0,0,-1,1602,568,0,0
385,456,5.66284,0.660645,0,0,0,0,0,0,0,-1,1609,568,5.66285,-0.660615
392,456,17.5027,4.32971,0,0,0,0,0,0,0,-1,1616,568,17.5026,-4.32971
399,456,24.1917,5.99652,0,0,0,0,0,0,0,-1,1623,568,24.1916,-5.99651
406,456,24.446,4.53003,0,0,0,0,0,0,0,-1,1630,568,24.446,-4.53005
413,456,24.9418,2.90521,0,0,0,0,0,0,0,-1,1637,568,24.9418,-2.90524
420,456,25.3048,1.04712,0,0,0,0,0,0,0,-1,1644,568,25.3048,-1.04713
427,456,6.21375,2.02905,0,0,0,0,0,0,0,-1,1651,568,6.21372,-2.02904
434,456,3.0719,-4.86285,0,0,0,0,0,0,0,-1,1658,568,3.07184,4.86287
441,456,2.90344,-4.70459,0,0,0,0,0,0,0,-1,1665,568,2.90346,4.7046
448,456,3.06995,-4.93689,0,0,0,0,0,0,0,-1,1672,568,3.06991,4.93687
455,456,3.46582,-3.43701,0,0,0,0,0,0,0,-1,1679,568,3.46585,3.43698
462,456,4.68445,-4.45831,0,0,0,0,0,0,0,-1,1686,568,4.68439,4.45833
469,456,4.93201,-2.289,0,0,0,0,0,0,0,-1,1693,568,4.93197,2.28903
476,456,4.8363,-2.79364,0,0,0,0,0,0,0,-1,1700,568,4.83636,2.79363
483,456,12.8522,-13.692,0,0,0,0,0,0,0,-1,1707,568,12.8522,13.6919
490,456,19.8051,-21.2288,0,0,0,0,0,0,0,-1,1714,568,19.805,21.2288
497,456,19.7505,-20.2189,0,0,0,0,0,0,0,-1,1721,568,19.7505,20.2189
504,456,19.8053,-19.552,0.00253896,0.00143992,0.00101189,0.00314092,0.000837964,0.536649,0.00187801,0.0150756,1728,568,19.8053,19.552
511,456,19.8319,-18.8392,0.00217907,0.00137936,0.00111511,0.00296385,0.00059458,0.613251,0.00181055,0.01439,1735,568,19.8319,18.8392
518,456,19.8208,-18.1235,0.00180097,0.0013468,0.00123216,0.0028268,0.000320969,0.694272,0.00178717,0.0177775,1742,568,19.8208,18.1235
525,456,19.7704,-17.4157,0.00137958,0.00138829,0.00128697,0.00267091,9.69646e-05,0.78709,0.00174918,0.0170169,1749,568,19.7703,17.4157
532,456,19.7562,-16.6879,0.000979639,0.0015053,0.00134558,0.00261348,-0.00012854,0.881849,0.00178671,0.0166704,1756,568,19.7562,16.6879
539,456,19.7119,-15.9543,0.000635911,0.00165286,0.00140329,0.00263695,-0.000348185,0.959213,0.00188478,0.0220957,1763,568,19.712,15.9544
546,456,19.635,-15.2148,0.000338739,0.00193821,0.00148034,0.00282102,-0.000544077,1.03306,0.00208583,0.0248085,1770,568,19.635,15.2148
553,456,19.5962,-14.4675,5.33061e-05,0.00234404,0.00161649,0.00317981,-0.000782467,1.09362,0.00242318,0.0147274,1777,568,19.5962,14.4675
560,456,19.6033,-13.79,-0.000123558,0.00285517,0.00185448,0.00374431,-0.0010127,1.12372,0.00289346,0.0107517,1784,568,19.6032,13.79
567,456,19.5796,-13.0441,-0.000175757,0.00351106,0.00220716,0.00454336,-0.00120806,1.13332,0.00350176,0.0204609,1791,568,19.5795,13.044
574,456,19.5626,-12.321,0,0,0,0,0,0,0,-1,1798,568,19.5627,12.321
581,456,16.2228,-9.08563,0,0,0,0,0,0,0,-1,1805,568,16.2228,9.08562
588,456,5.23901,-0.0901489,0,0,0,0,0,0,0,-1,1812,568,5.23906,0.0901656
595,456,6.90063,3.14886,0,0,0,0,0,0,0,-1,1819,568,6.90066,-3.14887
602,456,16.894,4.10938,0,0,0,0,0,0,0,-1,1826,568,16.8941,-4.1094
609,456,14.9966,3.5708,0,0,0,0,0,0,0,-1,1833,568,14.9966,-3.57083
616,456,17.7407,2.6579,0,0,0,0,0,0,0,-1,1840,568,17.7408,-2.6579
623,456,20.6838,1.7121,0,0,0,0,0,0,0,-1,1847,568,20.6838,-1.71208
630,456,0,0,0,0,0,0,0,0,0,-1,1854,568,0,0
637,456,0,0,0,0,0,0,0,0,0,-1,1861,568,0,0
644,456,0,0,0,0,0,0,0,0,0,-1,1868,568,0,0
651,456,0,0,0,0,0,0,0,0,0,-1,1875,568,0,0
658,456,0,0,0,0,0,0,0,0,0,-1,1882,568,0,0
665,456,0,0,0,0,0,0,0,0,0,-1,1889,568,0,0
672,456,0,0,0,0,0,0,0,0,0,-1,1896,568,0,0
679,456,0,0,0,0,0,0,0,0,0,-1,1903,568,0,0
686,456,0,0,0,0,0,0,0,0,0,-1,1910,568,0,0
693,456,0,0,0,0,0,0,0,0,0,-1,1917,568,0,0
700,456,0,0,0,0,0,0,0,0,0,-1,1924,568,0,0
707,456,0,0,0,0,0,0,0,0,0,-1,1931,568,0,0
714,456,0,0,0,0,0,0,0,0,0,-1,1938,568,0,0
721,456,0,0,0,0,0,0,0,0,0,-1,1945,568,0,0
728,456,0,0,0,0,0,0,0,0,0,-1,1952,568,0,0
735,456,0,0,0,0,0,0,0,0,0,-1,1959,568,0,0
742,456,0,0,0,0,0,0,0,0,0,-1,1966,568,0,0
749,456,0,0,0,0,0,0,0,0,0,-1,1973,568,0,0
756,456,0,0,0,0,0,0,0,0,0,-1,1980,568,0,0
763,456,0,0,0,0,0,0,0,0,0,-1,1987,568,0,0
770,456,0,0,0,0,0,0,0,0,0,-1,1994,568,0,0
777,456,0,0,0,0,0,0,0,0,0,-1,2001,568,0,0
784,456,0,0,0,0,0,0,0,0,0,-1,2008,568,0,0
791,456,0,0,0,0,0,0,0,0,0,-1,2015,568,0,0
798,456,0,0,0,0,0,0,0,0,0,-1,2022,568,0,0
805,456,0,0,0,0,0,0,0,0,0,-1,2029,568,0,0
812,456,0,0,0,0,0,0,0,0,0,-1,2036,568,0,0
-700,449,0,0,0,0,0,0,0,0,0,-1,524,575,0,0
-693,449,0,0,0,0,0,0,0,0,0,-1,531,575,0,0
-686,449,0,0,0,0,0,0,0,0,0,-1,538,575,0,0
-679,449,0,0,0,0,0,0,0,0,0,-1,545,575,0,0
-672,449,0,0,0,0,0,0,0,0,0,-1,552,575,0,0
-665,449,0,0,0,0,0,0,0,0,0,-1,559,575,0,0
-658,449,0,0,0,0,0,0,0,0,0,-1,566,575,0,0
-651,449,0,0,0,0,0,0,0,0,0,-1,573,575,0,0
-644,449,0,0,0,0,0,0,0,0,0,-1,580,575,0,0
-637,449,0,0,0,0,0,0,0,0,0,-1,587,575,0,0
-630,449,0,0,0,0,0,0,0,0,0,-1,594,575,0,0
-623,449,0,0,0,0,0,0,0,0,0,-1,601,575,0,0
-616,449,0,0,0,0,0,0,0,0,0,-1,608,575,0,0
-609,449,0,0,0,0,0,0,0,0,0,-1,615,575,0,0
-602,449,0,0,0,0,0,0,0,0,0,-1,622,575,0,0
-595,449,0,0,0,0,0,0,0,0,0,-1,629,575,0,0
-588,449,0,0,0,0,0,0,0,0,0,-1,636,575,0,0
-581,449,0,0,0,0,0,0,0,0,0,-1,643,575,0,0
-574,449,0,0,0,0,0,0,0,0,0,-1,650,575,0,0
-567,449,0,0,0,0,0,0,0,0,0,-1,657,575,0,0
-560,449,0,0,0,0,0,0,0,0,0,-1,664,575,0,0
-553,449,0,0,0,0,0,0,0,0,0,-1,671,575,0,0
-546,449,0,0,0,0,0,0,0,0,0,-1,678,575,0,0
-539,449,0,0,0,0,0,0,0,0,0,-1,685,575,0,0
-532,449,0,0,0,0,0,0,0,0,0,-1,692,575,0,0
-525,449,0,0,0,0,0,0,0,0,0,-1,699,575,0,0
-518,449,0,0,0,0,0,0,0,0,0,-1,706,575,0,0
-511,449,-0.941345,-4.4519,0,0,0,0,0,0,0,-1,713,575,-0.941356,4.45191
-504,449,-14.1078,0.318237,0,0,0,0,0,0,0,-1,720,575,-14.1078,-0.318231
-497,449,-8.61292,-3.09009,0,0,0,0,0,0,0,-1,727,575,-8.61291,3.09011
-490,449,-7.50995,-2.96252,0,0,0,0,0,0,0,-1,734,575,-7.50995,2.96251
-483,449,-5.77789,-2.50061,0,0,0,0,0,0,0,-1,741,575,-5.77792,2.50059
-476,449,-4.1723,-2.07739,0,0,0,0,0,0,0,-1,748,575,-4.17228,2.0774
-469,449,-5.0976,-5.78448,0,0,0,0,0,0,0,-1,755,575,-5.09758,5.78451
-462,449,-6.54181,-9.54535,0,0,0,0,0,0,0,-1,762,575,-6.54178,9.54536
-455,449,-8.3363,-12.4036,0,0,0,0,0,0,0,-1,769,575,-8.33632,12.4036
-448,449,-8.05359,-13.4391,0.000849806,0.00860494,-0.00453243,0.0106921,-0.00123739,-1.13924,0.00757432,0.0488298,776,575,-8.05359,13.4391
-441,449,-8.0741,-14.4019,0.000657291,0.006937,-0.0035958,0.00857087,-0.000976579,-1.1443,0.0060657,0.0235409,783,575,-8.07407,14.4019
-434,449,-8.16418,-15.0633,0.000553737,0.00550206,-0.00282269,0.00678144,-0.000725643,-1.14524,0.00478123,0.0148835,790,575,-8.16418,15.0633
-427,449,-8.20551,-15.7433,0.000514917,0.00423873,-0.00215826,0.00522723,-0.000473579,-1.14131,0.00365292,0.0124539,797,575,-8.20548,15.7434
-420,449,-8.2262,-16.4469,0.000599227,0.00312938,-0.001648,0.00394188,-0.000213276,-1.11275,0.00270182,0.0117874,804,575,-8.22622,16.4469
-413,449,-8.23743,-17.1273,0.000610658,0.00187711,-0.00103016,0.0024531,3.46701e-05,-1.06097,0.00162397,0.010579,811,575,-8.23744,17.1273
-406,449,-8.27972,-17.8272,0.000783871,0.000931601,-0.000581078,0.00144349,0.000271982,-0.848617,0.000885698,0.0100873,818,575,-8.27975,17.8272
-399,449,-8.32404,-18.5256,0.00113029,5.2667e-05,-0.000225182,0.00117545,7.50547e-06,-0.19793,0.000781145,0.00980373,825,575,-8.32402,18.5255
-392,449,-8.33337,-19.1987,0.00154498,-0.000777634,8.62998e-05,0.00154818,-0.000780836,0.0370881,0.00136877,0.0105452,832,575,-8.33339,19.1986
-385,449,-8.35205,-19.8619,0.00213294,-0.00144524,0.000235972,0.00214844,-0.00146073,0.065569,0.00209632,0.0110424,839,575,-8.35207,19.8619
-378,449,-8.40503,-20.5378,0.00280338,-0.00204674,0.000386265,0.00283395,-0.0020773,0.078977,0.00284671,0.0101393,846,575,-8.40503,20.5378
-371,449,-8.39349,-21.2371,0.00363163,-0.00239921,0.000496209,0.00367218,-0.00243977,0.0815478,0.00355257,0.0199954,853,575,-8.39348,21.237
-364,449,-8.35498,-21.9194,0,0,0,0,0,0,0,-1,860,575,-8.35501,21.9194
-357,449,-5.88049,-15.8704,0,0,0,0,0,0,0,-1,867,575,-5.88051,15.8704
-350,449,-2.8764,-9.90204,0,0,0,0,0,0,0,-1,874,575,-2.87638,9.90203
-343,449,-2.98492,-9.2254,0,0,0,0,0,0,0,-1,881,575,-2.98491,9.22541
-336,449,-1.29523,-9.54626,0,0,0,0,0,0,0,-1,888,575,-1.29525,9.54626
-329,449,-0.733398,-7.78937,0,0,0,0,0,0,0,-1,895,575,-0.733398,7.78937
-322,449,-0.628845,-3.16669,0,0,0,0,0,0,0,-1,902,575,-0.628861,3.16667
-315,449,-0.540344,-3.21918,0,0,0,0,0,0,0,-1,909,575,-0.540336,3.21917
-308,449,-1.04413,-2.99341,0,0,0,0,0,0,0,-1,916,575,-1.04415,2.99338
-301,449,-1.58691,-2.80725,0,0,0,0,0,0,0,-1,923,575,-1.58692,2.80728
-294,449,-3.71118,-2.76086,0,0,0,0,0,0,0,-1,930,575,-3.71119,2.76087
-287,449,-4.4082,-2.69525,0,0,0,0,0,0,0,-1,937,575,-4.40822,2.69526
-280,449,0.723999,-14.2697,0,0,0,0,0,0,0,-1,944,575,0.723977,14.2696
-273,449,0,0,0,0,0,0,0,0,0,-1,951,575,0,0
-266,449,0,0,0,0,0,0,0,0,0,-1,958,575,0,0
-259,449,0,0,0,0,0,0,0,0,0,-1,965,575,0,0
-252,449,0,0,0,0,0,0,0,0,0,-1,972,575,0,0
-245,449,0,0,0,0,0,0,0,0,0,-1,979,575,0,0
-238,449,0,0,0,0,0,0,0,0,0,-1,986,575,0,0
-231,449,0,0,0,0,0,0,0,0,0,-1,993,575,0,0
-224,449,0,0,0,0,0,0,0,0,0,-1,1000,575,0,0
-217,449,0,0,0,0,0,0,0,0,0,-1,1007,575,0,0
-210,449,0,0,0,0,0,0,0,0,0,-1,1014,575,0,0
-203,449,0,0,0,0,0,0,0,0,0,-1,1021,575,0,0
-196,449,0,0,0,0,0,0,0,0,0,-1,1028,575,0,0
-189,449,0,0,0,0,0,0,0,0,0,-1,1035,575,0,0
-182,449,0,0,0,0,0,0,0,0,0,-1,1042,575,0,0
-175,449,0,0,0,0,0,0,0,0,0,-1,1049,575,0,0
-168,449,0,0,0,0,0,0,0,0,0,-1,1056,575,0,0
-161,449,0,0,0,0,0,0,0,0,0,-1,1063,575,0,0
-154,449,0,0,0,0,0,0,0,0,0,-1,1070,575,0,0
-147,449,0,0,0,0,0,0,0,0,0,-1,1077,575,0,0
-140,449,0,0,0,0,0,0,0,0,0,-1,1084,575,0,0
-133,449,0,0,0,0,0,0,0,0,0,-1,1091,575,0,0
-126,449,0,0,0,0,0,0,0,0,0,-1,1098,575,0,0
-119,449,0,0,0,0,0,0,0,0,0,-1,1105,575,0,0
-112,449,0,0,0,0,0,0,0,0,0,-1,1112,575,0,0
-105,449,0,0,0,0,0,0,0,0,0,-1,1119,575,0,0
-98,449,0,0,0,0,0,0,0,0,0,-1,1126,575,0,0
-91,449,0,0,0,0,0,0,0,0,0,-1,1133,575,0,0
-84,449,0,0,0,0,0,0,0,0,0,-1,1140,575,0,0
-77,449,0,0,0,0,0,0,0,0,0,-1,1147,575,0,0
-70,449,0,0,0,0,0,0,0,0,0,-1,1154,575,0,0
-63,449,0,0,0,0,0,0,0,0,0,-1,1161,575,0,0
-56,449,0,0,0,0,0,0,0,0,0,-1,1168,575,0,0
-49,449,0,0,0,0,0,0,0,0,0,-1,1175,575,0,0
-42,449,0,0,0,0,0,0,0,0,0,-1,1182,575,0,0
-35,449,0,0,0,0,0,0,0,0,0,-1,1189,575,0,0
-28,449,0,0,0,0,0,0,0,0,0,-1,1196,575,0,0
-21,449,0,0,0,0,0,0,0,0,0,-1,1203,575,0,0
-14,449,0,0,0,0,0,0,0,0,0,-1,1210,575,0,0
-7,449,0,0,0,0,0,0,0,0,0,-1,1217,575,0,0
0,449,0,0,0,0,0,0,0,0,0,-1,1224,575,0,0
7,449,0,0,0,0,0,0,0,0,0,-1,1231,575,0,0
14,449,0,0,0,0,0,0,0,0,0,-1,1238,575,0,0
21,449,0,0,0,0,0,0,0,0,0,-1,1245,575,0,0
28,449,0,0,0,0,0,0,0,0,0,-1,1252,575,0,0
35,449,0,0,0,0,0,0,0,0,0,-1,1259,575,0,0
42,449,0,0,0,0,0,0,0,0,0,-1,1266,575,0,0
49,449,0,0,0,0,0,0,0,0,0,-1,1273,575,0,0
56,449,0,0,0,0,0,0,0,0,0,-1,1280,575,0,0
63,449,0,0,0,0,0,0,0,0,0,-1,1287,575,0,0
70,449,0,0,0,0,0,0,0,0,0,-1,1294,575,0,0
77,449,0,0,0,0,0,0,0,0,0,-1,1301,575,0,0
84,449,0,0,0,0,0,0,0,0,0,-1,1308,575,0,0
91,449,0,0,0,0,0,0,0,0,0,-1,1315,575,0,0
98,449,0,0,0,0,0,0,0,0,0,-1,1322,575,0,0
105,449,0,0,0,0,0,0,0,0,0,-1,1329,575,0,0
112,449,0,0,0,0,0,0,0,0,0,-1,1336,575,0,0
119,449,0,0,0,0,0,0,0,0,0,-1,1343,575,0,0
126,449,0,0,0,0,0,0,0,0,0,-1,1350,575,0,0
133,449,0,0,0,0,0,0,0,0,0,-1,1357,575,0,0
140,449,0,0,0,0,0,0,0,0,0,-1,1364,575,0,0
147,449,0,0,0,0,0,0,0,0,0,-1,1371,575,0,0
154,449,0,0,0,0,0,0,0,0,0,-1,1378,575,0,0
161,449,0,0,0,0,0,0,0,0,0,-1,1385,575,0,0
168,449,0,0,0,0,0,0,0,0,0,-1,1392,575,0,0
175,449,0,0,0,0,0,0,0,0,0,-1,1399,575,0,0
182,449,0,0,0,0,0,0,0,0,0,-1,1406,575,0,0
189,449,0,0,0,0,0,0,0,0,0,-1,1413,575,0,0
196,449,0,0,0,0,0,0,0,0,0,-1,1420,575,0,0
203,449,0,0,0,0,0,0,0,0,0,-1,1427,575,0,0
210,449,0,0,0,0,0,0,0,0,0,-1,1434,575,0,0
217,449,0,0,0,0,0,0,0,0,0,-1,1441,575,0,0
224,449,0,0,0,0,0,0,0,0,0,-1,1448,575,0,0
231,449,0,0,0,0,0,0,0,0,0,-1,1455,575,0,0
238,449,0,0,0,0,0,0,0,0,0,-1,1462,575,0,0
245,449,0,0,0,0,0,0,0,0,0,-1,1469,575,0,0
252,449,0,0,0,0,0,0,0,0,0,-1,1476,575,0,0
259,449,0,0,0,0,0,0,0,0,0,-1,1483,575,0,0
266,449,0,0,0,0,0,0,0,0,0,-1,1490,575,0,0
273,449,0,0,0,0,0,0,0,0,0,-1,1497,575,0,0
280,449,0,0,0,0,0,0,0,0,0,-1,1504,575,0,0
287,449,0,0,0,0,0,0,0,0,0,-1,1511,575,0,0
294,449,0,0,0,0,0,0,0,0,0,-1,1518,575,0,0
301,449,0,0,0,0,0,0,0,0,0,-1,1525,575,0,0
308,449,0,0,0,0,0,0,0,0,0,-1,1532,575,0,0
315,449,0,0,0,0,0,0,0,0,0,-1,1539,575,0,0
322,449,0,0,0,0,0,0,0,0,0,-1,1546,575,0,0
329,449,0,0,0,0,0,0,0,0,0,-1,1553,575,0,0
336,449,0,0,0,0,0,0,0,0,0,-1,1560,575,0,0
343,449,0,0,0,0,0,0,0,0,0,-1,1567,575,0,0
350,449,0,0,0,0,0,0,0,0,0,-1,1574,575,0,0
357,449,0,0,0,0,0,0,0,0,0,-1,1581,575,0,0
364,449,0,0,0,0,0,0,0,0,0,-1,1588,575,0,0
371,449,0,0,0,0,0,0,0,0,0,-1,1595,575,0,0
378,449,0,0,0,0,0,0,0,0,0,-1,1602,575,0,0
385,449,0,0,0,0,0,0,0,0,0,-1,1609,575,0,0
392,449,7.95471,3.66217,0,0,0,0,0,0,0,-1,1616,575,7.95471,-3.66218
399,449,19.9791,5.565,0,0,0,0,0,0,0,-1,1623,575,19.9791,-5.56499
406,449,24.9847,4.55969,0,0,0,0,0,0,0,-1,1630,575,24.9848,-4.55968
413,449,30.4159,3.15027,0,0,0,0,0,0,0,-1,1637,575,30.4159,-3.15028
420,449,23.9675,1.29718,0,0,0,0,0,0,0,-1,1644,575,23.9675,-1.29721
427,449,24.4276,-0.596558,0,0,0,0,0,0,0,-1,1651,575,24.4277,0.596569
434,449,25.61,-2.96594,0,0,0,0,0,0,0,-1,1658,575,25.61,2.96595
441,449,3.89856,-6.06458,0,0,0,0,0,0,0,-1,1665,575,3.89855,6.06459
448,449,4.03198,-5.18207,0,0,0,0,0,0,0,-1,1672,575,4.03197,5.18207
455,449,4.21948,-4.09467,0,0,0,0,0,0,0,-1,1679,575,4.21952,4.09465
462,449,4.23181,-2.96924,0,0,0,0,0,0,0,-1,1686,575,4.23185,2.96926
469,449,4.51672,-2.95135,0,0,0,0,0,0,0,-1,1693,575,4.51672,2.95135
476,449,4.71838,-1.86688,0,0,0,0,0,0,0,-1,1700,575,4.71842,1.86689
483,449,4.87878,-1.73126,0,0,0,0,0,0,0,-1,1707,575,4.87875,1.73128
490,449,5.73279,-2.74573,0,0,0,0,0,0,0,-1,1714,575,5.73282,2.74575
497,449,17.2095,-16.4381,0,0,0,0,0,0,0,-1,1721,575,17.2094,16.4381
504,449,20.4393,-19.5658,0,0,0,0,0,0,0,-1,1728,575,20.4394,19.5658
511,449,20.5244,-18.8086,0.00281186,0.00182098,0.00144856,0.00384736,0.000785471,0.620624,0.00234731,0.0141651,1735,575,20.5245,18.8086
518,449,20.5161,-18.101,0.00250147,0.00155005,0.00148114,0.00358142,0.000470094,0.630013,0.00224736,0.013793,1742,575,20.5161,18.101
525,449,20.4584,-17.3905,0.00208753,0.00143976,0.00143534,0.00323508,0.000292216,0.674432,0.00206621,0.0132282,1749,575,20.4583,17.3905
532,449,20.4152,-16.6636,0.00168557,0.00141889,0.00139695,0.00295553,0.00014893,0.737818,0.00192263,0.0113264,1756,575,20.4151,16.6636
539,449,20.3782,-15.9413,0.00134059,0.00146118,0.00138436,0.00278656,1.52127e-05,0.807162,0.00185266,0.0157599,1763,575,20.3782,15.9413
546,449,20.337,-15.1678,0.00102943,0.00162924,0.00138918,0.00275052,-9.18442e-05,0.891711,0.00186505,0.0279137,1770,575,20.337,15.1678
553,449,20.3054,-14.4846,0.000692449,0.00193126,0.00144829,0.00288703,-0.000263328,0.987467,0.0020182,0.0188017,1777,575,20.3054,14.4846
560,449,20.3373,-13.8049,0.0004247,0.00232453,0.00160283,0.00323779,-0.000488556,1.0529,0.00233845,0.0139174,1784,575,20.3373,13.8049
567,449,20.277,-13.0709,0.000280615,0.00288703,0.00188438,0.00387494,-0.000707295,1.08793,0.00284848,0.0104046,1791,575,20.2769,13.0709
574,449,20.2745,-12.3102,0.00011108,0.00355085,0.00221017,0.00463148,-0.000969547,1.11604,0.00345646,0.0242509,1798,575,20.2745,12.3102
581,449,20.2919,-11.4662,0,0,0,0,0,0,0,-1,1805,575,20.2919,11.4663
588,449,12.3274,-4.5672,0,0,0,0,0,0,0,-1,1812,575,12.3274,4.5672
595,449,15.9352,-5.65479,0,0,0,0,0,0,0,-1,1819,575,15.9352,5.65478
602,449,9.46167,4.17444,0,0,0,0,0,0,0,-1,1826,575,9.46164,-4.17442
609,449,12.2028,3.18652,0,0,0,0,0,0,0,-1,1833,575,12.2027,-3.18655
616,449,14.9438,2.19867,0,0,0,0,0,0,0,-1,1840,575,14.9438,-2.19867
623,449,9.83789,-0.0820313,0,0,0,0,0,0,0,-1,1847,575,9.83794,0.0820443
630,449,8.90686,4.99329,0,0,0,0,0,0,0,-1,1854,575,8.90685,-4.99327
637,449,0,0,0,0,0,0,0,0,0,-1,1861,575,0,0
644,449,0,0,0,0,0,0,0,0,0,-1,1868,575,0,0
651,449,0,0,0,0,0,0,0,0,0,-1,1875,575,0,0
658,449,0,0,0,0,0,0,0,0,0,-1,1882,575,0,0
665,449,0,0,0,0,0,0,0,0,0,-1,1889,575,0,0
672,449,0,0,0,0,0,0,0,0,0,-1,1896,575,0,0
679,449,0,0,0,0,0,0,0,0,0,-1,1903,575,0,0
686,449,0,0,0,0,0,0,0,0,0,-1,1910,575,0,0
693,449,0,0,0,0,0,0,0,0,0,-1,1917,575,0,0
700,449,0,0,0,0,0,0,0,0,0,-1,1924,575,0,0
707,449,0,0,0,0,0,0,0,0,0,-1,1931,575,0,0
714,449,0,0,0,0,0,0,0,0,0,-1,1938,575,0,0
721,449,0,0,0,0,0,0,0,0,0,-1,1945,575,0,0
728,449,0,0,0,0,0,0,0,0,0,-1,1952,575,0,0
735,449,0,0,0,0,0,0,0,0,0,-1,1959,575,0,0
742,449,0,0,0,0,0,0,0,0,0,-1,1966,575,0,0
749,449,0,0,0,0,0,0,0,0,0,-1,1973,575,0,0
756,449,0,0,0,0,0,0,0,0,0,-1,1980,575,0,0
763,449,0,0,0,0,0,0,0,0,0,-1,1987,575,0,0
770,449,0,0,0,0,0,0,0,0,0,-1,1994,575,0,0
777,449,0,0,0,0,0,0,0,0,0,-1,2001,575,0,0
784,449,0,0,0,0,0,0,0,0,0,-1,2008,575,0,0
791,449,0,0,0,0,0,0,0,0,0,-1,2015,575,0,0
798,449,0,0,0,0,0,0,0,0,0,-1,2022,575,0,0
805,449,0,0,0,0,0,0,0,0,0,-1,2029,575,0,0
812,449,0,0,0,0,0,0,0,0,0,-1,2036,575,0,0
-700,442,0,0,0,0,0,0,0,0,0,-1,524,582,0,0
-693,442,0,0,0,0,0,0,0,0,0,-1,531,582,0,0
-686,442,0,0,0,0,0,0,0,0,0,-1,538,582,0,0
-679,442,0,0,0,0,0,0,0,0,0,-1,545,582,0,0
-672,442,0,0,0,0,0,0,0,0,0,-1,552,582,0,0
-665,442,0,0,0,0,0,0,0,0,0,-1,559,582,0,0
-658,442,0,0,0,0,0,0,0,0,0,-1,566,582,0,0
-651,442,0,0,0,0,0,0,0,0,0,-1,573,582,0,0
-644,442,0,0,0,0,0,0,0,0,0,-1,580,582,0,0
-637,442,0,0,0,0,0,0,0,0,0,-1,587,582,0,0
-630,442,0,0,0,0,0,0,0,0,0,-1,594,582,0,0
-623,442,0,0,0,0,0,0,0,0,0,-1,601,582,0,0
-616,442,0,0,0,0,0,0,0,0,0,-1,608,582,0,0
-609,442,0,0,0,0,0,0,0,0,0,-1,615,582,0,0
-602,442,0,0,0,0,0,0,0,0,0,-1,622,582,0,0
-595,442,0,0,0,0,0,0,0,0,0,-1,629,582,0,0
-588,442,0,0,0,0,0,0,0,0,0,-1,636,582,0,0
-581,442,0,0,0,0,0,0,0,0,0,-1,643,582,0,0
-574,442,0,0,0,0,0,0,0,0,0,-1,650,582,0,0
-567,442,0,0,0,0,0,0,0,0,0,-1,657,582,0,0
-560,442,0,0,0,0,0,0,0,0,0,-1,664,582,0,0
-553,442,0,0,0,0,0,0,0,0,0,-1,671,582,0,0
-546,442,0,0,0,0,0,0,0,0,0,-1,678,582,0,0
-539,442,0,0,0,0,0,0,0,0,0,-1,685,582,0,0
-532,442,0,0,0,0,0,0,0,0,0,-1,692,582,0,0
-525,442,0,0,0,0,0,0,0,0,0,-1,699,582,0,0
-518,442,-0.493774,-5.72943,0,0,0,0,0,0,0,-1,706,582,-0.493791,5.72946
-511,442,-1.33008,-6.18512,0,0,0,0,0,0,0,-1,713,582,-1.33006,6.18511
-504,442,-3.20807,-6.34082,0,0,0,0,0,0,0,-1,720,582,-3.2081,6.34083
-497,442,-13.6886,-0.250122,0,0,0,0,0,0,0,-1,727,582,-13.6886,0.250143
-490,442,-9.09039,-3.64862,0,0,0,0,0,0,0,-1,734,582,-9.09037,3.64861
-483,442,-7.36499,-1.01892,0,0,0,0,0,0,0,-1,741,582,-7.365,1.01895
-476,442,-4.84784,-4.44141,0,0,0,0,0,0,0,-1,748,582,-4.84787,4.44138
-469,442,-8.88672,-10.6465,0,0,0,0,0,0,0,-1,755,582,-8.88673,10.6465
-462,442,-8.59888,-11.8783,0,0,0,0,0,0,0,-1,762,582,-8.59888,11.8783
-455,442,-8.77283,-12.7527,0,0,0,0,0,0,0,-1,769,582,-8.7728,12.7528
-448,442,-8.75574,-13.5695,0.000766863,0.00656842,-0.0036778,0.00835174,-0.00101645,-1.11931,0.00593573,0.0202429,776,582,-8.75574,13.5695
-441,442,-8.80273,-14.3248,0.000669133,0.00513665,-0.00286468,0.00653553,-0.000729745,-1.11654,0.00461952,0.0154799,783,582,-8.80274,14.3248
-434,442,-8.84216,-15.0283,0.000612904,0.00386889,-0.00215987,0.0049456,-0.000463802,-1.10835,0.00346204,0.0141338,790,582,-8.84214,15.0282
-427,442,-8.89532,-15.7275,0.000608712,0.00274019,-0.00154067,0.00354781,-0.000198906,-1.08798,0.00243422,0.0124889,797,582,-8.89531,15.7275
-420,442,-8.9126,-16.4233,0.00072157,0.00176589,-0.00106578,0.00243054,5.6911e-05,-1.01318,0.00160173,0.0127169,804,582,-8.91258,16.4233
-413,442,-8.92542,-17.1085,0.000767601,0.000664583,-0.000495965,0.00121472,0.000217459,-0.733656,0.000747943,0.0111921,811,582,-8.92543,17.1085
-406,442,-8.95782,-17.8118,0.000953138,-0.000175403,-7.82565e-05,0.000958538,-0.000180803,-0.0689036,0.000707042,0.00991736,818,582,-8.95783,17.8118
-399,442,-9.00806,-18.5086,0.00131343,-0.00093224,0.000223452,0.00133545,-0.000954258,0.0982205,0.00132805,0.00871319,825,582,-9.00805,18.5086
-392,442,-9.03418,-19.1586,0.00176733,-0.00159819,0.000452587,0.00182713,-0.00165799,0.131369,0.00201293,0.01043,832,582,-9.0342,19.1586
-385,442,-9.05438,-19.8156,0.00239161,-0.00217012,0.000536021,0.00245375,-0.00223226,0.11541,0.00270648,0.0126234,839,582,-9.05439,19.8156
-378,442,-9.06079,-20.5091,0.00312432,-0.00266528,0.000614814,0.00318889,-0.00272985,0.104638,0.00342061,0.017371,846,582,-9.06079,20.5091
-371,442,-9.02417,-21.3241,0,0,0,0,0,0,0,-1,853,582,-9.02417,21.3241
-364,442,-6.89764,-17.5333,0,0,0,0,0,0,0,-1,860,582,-6.89765,17.5333
-357,442,-4.9115,-11.2649,0,0,0,0,0,0,0,-1,867,582,-4.91147,11.2649
-350,442,-1.75372,-6.27618,0,0,0,0,0,0,0,-1,874,582,-1.75371,6.27618
-343,442,-1.4599,-4.63605,0,0,0,0,0,0,0,-1,881,582,-1.4599,4.63607
-336,442,-1.4054,-2.64313,0,0,0,0,0,0,0,-1,888,582,-1.40539,2.64315
-329,442,-0.952576,-2.76923,0,0,0,0,0,0,0,-1,895,582,-0.952571,2.7692
-322,442,-0.972534,-2.63208,0,0,0,0,0,0,0,-1,902,582,-0.972512,2.6321
-315,442,-0.445557,-2.89764,0,0,0,0,0,0,0,-1,909,582,-0.445582,2.89765
-308,442,-0.654175,-3.07831,0,0,0,0,0,0,0,-1,916,582,-0.654145,3.07832
-301,442,-1.37427,-2.41455,0,0,0,0,0,0,0,-1,923,582,-1.37425,2.41453
-294,442,-2.99963,-2.07855,0,0,0,0,0,0,0,-1,930,582,-2.99964,2.07857
-287,442,3.91034,-10.1913,0,0,0,0,0,0,0,-1,937,582,3.91034,10.1913
-280,442,0,0,0,0,0,0,0,0,0,-1,944,582,0,0
-273,442,0,0,0,0,0,0,0,0,0,-1,951,582,0,0
-266,442,0,0,0,0,0,0,0,0,0,-1,958,582,0,0
-259,442,0,0,0,0,0,0,0,0,0,-1,965,582,0,0
-252,442,0,0,0,0,0,0,0,0,0,-1,972,582,0,0
-245,442,0,0,0,0,0,0,0,0,0,-1,979,582,0,0
-238,442,0,0,0,0,0,0,0,0,0,-1,986,582,0,0
-231,442,0,0,0,0,0,0,0,0,0,-1,993,582,0,0
-224,442,0,0,0,0,0,0,0,0,0,-1,1000,582,0,0
-217,442,0,0,0,0,0,0,0,0,0,-1,1007,582,0,0
-210,442,0,0,0,0,0,0,0,0,0,-1,1014,582,0,0
-203,442,0,0,0,0,0,0,0,0,0,-1,1021,582,0,0
-196,442,0,0,0,0,0,0,0,0,0,-1,1028,582,0,0
-189,442,0,0,0,0,0,0,0,0,0,-1,1035,582,0,0
-182,442,0,0,0,0,0,0,0,0,0,-1,1042,582,0,0
-175,442,0,0,0,0,0,0,0,0,0,-1,1049,582,0,0
-168,442,0,0,0,0,0,0,0,0,0,-1,1056,582,0,0
-161,442,0,0,0,0,0,0,0,0,0,-1,1063,582,0,0
-154,442,0,0,0,0,0,0,0,0,0,-1,1070,582,0,0
-147,442,0,0,0,0,0,0,0,0,0,-1,1077,582,0,0
-140,442,0,0,0,0,0,0,0,0,0,-1,1084,582,0,0
-133,442,0,0,0,0,0,0,0,0,0,-1,1091,582,0,0
-126,442,0,0,0,0,0,0,0,0,0,-1,1098,582,0,0
-119,442,0,0,0,0,0,0,0,0,0,-1,1105,582,0,0
-112,442,0,0,0,0,0,0,0,0,0,-1,1112,582,0,0
-105,442,0,0,0,0,0,0,0,0,0,-1,1119,582,0,0
-98,442,0,0,0,0,0,0,0,0,0,-1,1126,582,0,0
-91,442,0,0,0,0,0,0,0,0,0,-1,1133,582,0,0
-84,442,0,0,0,0,0,0,0,0,0,-1,1140,582,0,0
-77,442,0,0,0,0,0,0,0,0,0,-1,1147,582,0,0
-70,442,0,0,0,0,0,0,0,0,0,-1,1154,582,0,0
-63,442,0,0,0,0,0,0,0,0,0,-1,1161,582,0,0
-56,442,0,0,0,0,0,0,0,0,0,-1,1168,582,0,0
-49,442,0,0,0,0,0,0,0,0,0,-1,1175,582,0,0
-42,442,0,0,0,0,0,0,0,0,0,-1,1182,582,0,0
-35,442,0,0,0,0,0,0,0,0,0,-1,1189,582,0,0
-28,442,0,0,0,0,0,0,0,0,0,-1,1196,582,0,0
-21,442,0,0,0,0,0,0,0,0,0,-1,1203,582,0,0
-14,442,0,0,0,0,0,0,0,0,0,-1,1210,582,0,0
-7,442,0,0,0,0,0,0,0,0,0,-1,1217,582,0,0
0,442,0,0,0,0,0,0,0,0,0,-1,1224,582,0,0
7,442,0,0,0,0,0,0,0,0,0,-1,1231,582,0,0
14,442,0,0,0,0,0,0,0,0,0,-1,1238,582,0,0
21,442,0,0,0,0,0,0,0,0,0,-1,1245,582,0,0
28,442,0,0,0,0,0,0,0,0,0,-1,1252,582,0,0
35,442,0,0,0,0,0,0,0,0,0,-1,1259,582,0,0
42,442,0,0,0,0,0,0,0,0,0,-1,1266,582,0,0
49,442,0,0,0,0,0,0,0,0,0,-1,1273,582,0,0
56,442,0,0,0,0,0,0,0,0,0,-1,1280,582,0,0
63,442,0,0,0,0,0,0,0,0,0,-1,1287,582,0,0
70,442,0,0,0,0,0,0,0,0,0,-1,1294,582,0,0
77,442,0,0,0,0,0,0,0,0,0,-1,1301,582,0,0
84,442,0,0,0,0,0,0,0,0,0,-1,1308,582,0,0
91,442,0,0,0,0,0,0,0,0,0,-1,1315,582,0,0
98,442,0,0,0,0,0,0,0,0,0,-1,1322,582,0,0
105,442,0,0,0,0,0,0,0,0,0,-1,1329,582,0,0
112,442,0,0,0,0,0,0,0,0,0,-1,1336,582,0,0
119,442,0,0,0,0,0,0,0,0,0,-1,1343,582,0,0
126,442,0,0,0,0,0,0,0,0,0,-1,1350,582,0,0
133,442,0,0,0,0,0,0,0,0,0,-1,1357,582,0,0
140,442,0,0,0,0,0,0,0,0,0,-1,1364,582,0,0
147,442,0,0,0,0,0,0,0,0,0,-1,1371,582,0,0
154,442,0,0,0,0,0,0,0,0,0,-1,1378,582,0,0
161,442,0,0,0,0,0,0,0,0,0,-1,1385,582,0,0
168,442,0,0,0,0,0,0,0,0,0,-1,1392,582,0,0
175,442,0,0,0,0,0,0,0,0,0,-1,1399,582,0,0
182,442,0,0,0,0,0,0,0,0,0,-1,1406,582,0,0
189,442,0,0,0,0,0,0,0,0,0,-1,1413,582,0,0
196,442,0,0,0,0,0,0,0,0,0,-1,1420,582,0,0
203,442,0,0,0,0,0,0,0,0,0,-1,1427,582,0,0
210,442,0,0,0,0,0,0,0,0,0,-1,1434,582,0,0
217,442,0,0,0,0,0,0,0,0,0,-1,1441,582,0,0
224,442,0,0,0,0,0,0,0,0,0,-1,1448,582,0,0
231,442,0,0,0,0,0,0,0,0,0,-1,1455,582,0,0
238,442,0,0,0,0,0,0,0,0,0,-1,1462,582,0,0
245,442,0,0,0,0,0,0,0,0,0,-1,1469,582,0,0
252,442,0,0,0,0,0,0,0,0,0,-1,1476,582,0,0
259,442,0,0,0,0,0,0,0,0,0,-1,1483,582,0,0
266,442,0,0,0,0,0,0,0,0,0,-1,1490,582,0,0
273,442,0,0,0,0,0,0,0,0,0,-1,1497,582,0,0
280,442,0,0,0,0,0,0,0,0,0,-1,1504,582,0,0
287,442,0,0,0,0,0,0,0,0,0,-1,1511,582,0,0
294,442,0,0,0,0,0,0,0,0,0,-1,1518,582,0,0
301,442,0,0,0,0,0,0,0,0,0,-1,1525,582,0,0
308,442,0,0,0,0,0,0,0,0,0,-1,1532,582,0,0
315,442,0,0,0,0,0,0,0,0,0,-1,1539,582,0,0
322,442,0,0,0,0,0,0,0,0,0,-1,1546,582,0,0
329,442,0,0,0,0,0,0,0,0,0,-1,1553,582,0,0
336,442,0,0,0,0,0,0,0,0,0,-1,1560,582,0,0
343,442,0,0,0,0,0,0,0,0,0,-1,1567,582,0,0
350,442,0,0,0,0,0,0,0,0,0,-1,1574,582,0,0
357,442,0,0,0,0,0,0,0,0,0,-1,1581,582,0,0
364,442,0,0,0,0,0,0,0,0,0,-1,1588,582,0,0
371,442,0,0,0,0,0,0,0,0,0,-1,1595,582,0,0
378,442,0,0,0,0,0,0,0,0,0,-1,1602,582,0,0
385,442,0,0,0,0,0,0,0,0,0,-1,1609,582,0,0
392,442,0,0,0,0,0,0,0,0,0,-1,1616,582,0,0
399,442,0,0,0,0,0,0,0,0,0,-1,1623,582,0,0
406,442,17.6321,4.08295,0,0,0,0,0,0,0,-1,1630,582,17.6321,-4.08293
413,442,25.4768,2.74445,0,0,0,0,0,0,0,-1,1637,582,25.4768,-2.74444
420,442,22.7478,1.55011,0,0,0,0,0,0,0,-1,1644,582,22.7478,-1.55009
427,442,23.2969,-0.456787,0,0,0,0,0,0,0,-1,1651,582,23.2968,0.456769
434,442,23.9512,-2.49365,0,0,0,0,0,0,0,-1,1658,582,23.9512,2.49366
441,442,24.8251,-4.43958,0,0,0,0,0,0,0,-1,1665,582,24.8251,4.43956
448,442,4.7749,-5.88562,0,0,0,0,0,0,0,-1,1672,582,4.7749,5.8856
455,442,4.87024,-4.60687,0,0,0,0,0,0,0,-1,1679,582,4.87019,4.60686
462,442,5.02307,-3.72821,0,0,0,0,0,0,0,-1,1686,582,5.02311,3.7282
469,442,5.12976,-2.98834,0,0,0,0,0,0,0,-1,1693,582,5.12971,2.98834
476,442,5.4624,1.76947,0,0,0,0,0,0,0,-1,1700,582,5.46234,-1.76944
483,442,5.98486,1.87042,0,0,0,0,0,0,0,-1,1707,582,5.98492,-1.87045
490,442,5.04407,-2.35834,0,0,0,0,0,0,0,-1,1714,582,5.04411,2.35837
497,442,6.20984,-3.07831,0,0,0,0,0,0,0,-1,1721,582,6.2098,3.07833
504,442,20.9276,-19.7709,0,0,0,0,0,0,0,-1,1728,582,20.9276,19.771
511,442,21.2238,-18.7909,0,0,0,0,0,0,0,-1,1735,582,21.2238,18.7909
518,442,21.2284,-18.0426,0.00315832,0.00200229,0.00179012,0.00446143,0.00069918,0.629236,0.00277079,0.0129568,1742,582,21.2284,18.0426
525,442,21.1726,-17.3505,0.00272722,0.00174087,0.00166835,0.00397376,0.000494334,0.641687,0.00250073,0.0107328,1749,582,21.1726,17.3505
532,442,21.142,-16.6328,0.00229931,0.00158323,0.00155156,0.0035336,0.000348932,0.672004,0.00224847,0.0112488,1756,582,21.1419,16.6328
539,442,21.113,-15.8846,0.00193975,0.00153244,0.00148445,0.00323445,0.000237739,0.717229,0.00208158,0.0138224,1763,582,21.1131,15.8846
546,442,21.0966,-15.1702,0.00161028,0.00158058,0.00142678,0.00302229,0.00016857,0.780194,0.00196109,0.0188157,1770,582,21.0966,15.1702
553,442,21.0436,-14.4854,0.00124048,0.00176282,0.00141298,0.00293857,6.47357e-05,0.876785,0.00193783,0.0186762,1777,582,21.0435,14.4853
560,442,21.0356,-13.7652,0.000918145,0.00201972,0.00147914,0.00304729,-0.000109428,0.96363,0.00206897,0.014338,1784,582,21.0356,13.7652
567,442,20.9941,-13.0563,0.000730459,0.0024427,0.001676,0.00346858,-0.000295423,1.02153,0.00241688,0.0104045,1791,582,20.9942,13.0564
574,442,20.9883,-12.3296,0.000567809,0.00296601,0.00192724,0.00403673,-0.000502913,1.06368,0.0028735,0.0130877,1798,582,20.9883,12.3296
581,442,21.0222,-11.4966,0.000557458,0.00370276,0.00241495,0.00501198,-0.000751767,1.07401,0.00361804,0.0274257,1805,582,21.0222,11.4966
588,442,21.0878,-10.6266,0,0,0,0,0,0,0,-1,1812,582,21.0878,10.6266
595,442,16.27,-6.47083,0,0,0,0,0,0,0,-1,1819,582,16.27,6.47082
602,442,16.2213,-4.49225,0,0,0,0,0,0,0,-1,1826,582,16.2213,4.49223
609,442,12.761,2.97223,0,0,0,0,0,0,0,-1,1833,582,12.761,-2.97221
616,442,9.78345,-0.103394,0,0,0,0,0,0,0,-1,1840,582,9.78341,0.103424
623,442,9.23828,0.326721,0,0,0,0,0,0,0,-1,1847,582,9.23829,-0.326727
630,442,7.74304,2.3924,0,0,0,0,0,0,0,-1,1854,582,7.7431,-2.39238
637,442,5.87805,1.84027,0,0,0,0,0,0,0,-1,1861,582,5.87807,-1.84025
644,442,0,0,0,0,0,0,0,0,0,-1,1868,582,0,0
651,442,0,0,0,0,0,0,0,0,0,-1,1875,582,0,0
658,442,0,0,0,0,0,0,0,0,0,-1,1882,582,0,0
665,442,0,0,0,0,0,0,0,0,0,-1,1889,582,0,0
672,442,0,0,0,0,0,0,0,0,0,-1,1896,582,0,0
679,442,0,0,0,0,0,0,0,0,0,-1,1903,582,0,0
686,442,0,0,0,0,0,0,0,0,0,-1,1910,582,0,0
693,442,0,0,0,0,0,0,0,0,0,-1,1917,582,0,0
700,442,0,0,0,0,0,0,0,0,0,-1,1924,582,0,0
707,442,0,0,0,0,0,0,0,0,0,-1,1931,582,0,0
714,442,0,0,0,0,0,0,0,0,0,-1,1938,582,0,0
721,442,0,0,0,0,0,0,0,0,0,-1,1945,582,0,0
728,442,0,0,0,0,0,0,0,0,0,-1,1952,582,0,0
735,442,0,0,0,0,0,0,0,0,0,-1,1959,582,0,0
742,442,0,0,0,0,0,0,0,0,0,-1,1966,582,0,0
749,442,0,0,0,0,0,0,0,0,0,-1,1973,582,0,0
756,442,0,0,0,0,0,0,0,0,0,-1,1980,582,0,0
763,442,0,0,0,0,0,0,0,0,0,-1,1987,582,0,0
770,442,0,0,0,0,0,0,0,0,0,-1,1994,582,0,0
777,442,0,0,0,0,0,0,0,0,0,-1,2001,582,0,0
784,442,0,0,0,0,0,0,0,0,0,-1,2008,582,0,0
791,442,0,0,0,0,0,0,0,0,0,-1,2015,582,0,0
798,442,0,0,0,0,0,0,0,0,0,-1,2022,582,0,0
805,442,0,0,0,0,0,0,0,0,0,-1,2029,582,0,0
812,442,0,0,0,0,0,0,0,0,0,-1,2036,582,0,0
-700,435,0,0,0,0,0,0,0,0,0,-1,524,589,0,0
-693,435,0,0,0,0,0,0,0,0,0,-1,531,589,0,0
-686,435,0,0,0,0,0,0,0,0,0,-1,538,589,0,0
-679,435,0,0,0,0,0,0,0,0,0,-1,545,589,0,0
-672,435,0,0,0,0,0,0,0,0,0,-1,552,589,0,0
-665,435,0,0,0,0,0,0,0,0,0,-1,559,589,0,0
-658,435,0,0,0,0,0,0,0,0,0,-1,566,589,0,0
-651,435,0,0,0,0,0,0,0,0,0,-1,573,589,0,0
-644,435,0,0,0,0,0,0,0,0,0,-1,580,589,0,0
-637,435,0,0,0,0,0,0,0,0,0,-1,587,589,0,0
-630,435,0,0,0,0,0,0,0,0,0,-1,594,589,0,0
-623,435,0,0,0,0,0,0,0,0,0,-1,601,589,0,0
-616,435,0,0,0,0,0,0,0,0,0,-1,608,589,0,0
-609,435,0,0,0,0,0,0,0,0,0,-1,615,589,0,0
-602,435,0,0,0,0,0,0,0,0,0,-1,622,589,0,0
-595,435,0,0,0,0,0,0,0,0,0,-1,629,589,0,0
-588,435,0,0,0,0,0,0,0,0,0,-1,636,589,0,0
-581,435,0,0,0,0,0,0,0,0,0,-1,643,589,0,0
-574,435,0,0,0,0,0,0,0,0,0,-1,650,589,0,0
-567,435,0,0,0,0,0,0,0,0,0,-1,657,589,0,0
-560,435,0,0,0,0,0,0,0,0,0,-1,664,589,0,0
-553,435,0,0,0,0,0,0,0,0,0,-1,671,589,0,0
-546,435,0,0,0,0,0,0,0,0,0,-1,678,589,0,0
-539,435,0,0,0,0,0,0,0,0,0,-1,685,589,0,0
-532,435,0,0,0,0,0,0,0,0,0,-1,692,589,0,0
-525,435,-10.0776,10.0547,0,0,0,0,0,0,0,-1,699,589,-10.0776,-10.0547
-518,435,-1.83093,-5.82367,0,0,0,0,0,0,0,-1,706,589,-1.83093,5.8237
-511,435,-2.45154,-5.33118,0,0,0,0,0,0,0,-1,713,589,-2.45151,5.33115
-504,435,-3.07208,-4.83862,0,0,0,0,0,0,0,-1,720,589,-3.0721,4.8386
-497,435,-6.31012,-5.84698,0,0,0,0,0,0,0,-1,727,589,-6.31012,5.84697
-490,435,-5.81903,-0.458679,0,0,0,0,0,0,0,-1,734,589,-5.81902,0.458684
-483,435,-6.96503,-3.01624,0,0,0,0,0,0,0,-1,741,589,-6.96505,3.01623
-476,435,-9.72784,-10.2202,0,0,0,0,0,0,0,-1,748,589,-9.72783,10.2202
-469,435,-9.4353,-11.0362,0.00067429,0.00921971,-0.00506832,0.011576,-0.00168202,-1.13561,0.00833478,0.0445731,755,589,-9.4353,11.0362
-462,435,-9.2865,-12.0906,0.000825555,0.00765553,-0.0044019,0.0098118,-0.00133071,-1.1153,0.0070269,0.0291431,762,589,-9.28647,12.0906
-455,435,-9.48511,-12.8264,0.0007881,0.00635042,-0.00365612,0.00816296,-0.00102444,-1.11055,0.00581361,0.0255927,769,589,-9.48512,12.8264
-448,435,-9.4682,-13.579,0.000678147,0.00491414,-0.00285783,0.00635327,-0.000760979,-1.10429,0.00451062,0.014874,776,589,-9.46821,13.579
-441,435,-9.49878,-14.2805,0.000642597,0.00367249,-0.0021655,0.00480036,-0.000485266,-1.09062,0.00337365,0.0125708,783,589,-9.49878,14.2805
-434,435,-9.53937,-14.9736,0.000632586,0.0025364,-0.00154075,0.00339558,-0.000226595,-1.06211,0.00234291,0.0121866,790,589,-9.53938,14.9736
-427,435,-9.58514,-15.7075,0.000667666,0.00150348,-0.000981419,0.00215226,1.88814e-05,-0.98668,0.00142859,0.0096354,797,589,-9.58517,15.7075
-420,435,-9.59668,-16.4016,0.000805884,0.000614075,-0.000546218,0.00126455,0.000155406,-0.698495,0.000796304,0.0104838,804,589,-9.59666,16.4016
-413,435,-9.61932,-17.0882,0.00089246,-0.000363746,-3.86262e-05,0.000893647,-0.000364933,-0.0307096,0.000747708,0.0115561,811,589,-9.61934,17.0882
-406,435,-9.6571,-17.7885,0.00108868,-0.00115219,0.000349868,0.00114203,-0.00120555,0.151333,0.00135554,0.0118782,818,589,-9.65713,17.7884
-399,435,-9.70203,-18.4686,0.00145158,-0.00185064,0.000609019,0.00156032,-0.00195938,0.176686,0.00203645,0.00960965,825,589,-9.70205,18.4686
-392,435,-9.74646,-19.1305,0.00194615,-0.00241127,0.000768944,0.00207786,-0.00254298,0.169644,0.00267234,0.0101268,832,589,-9.74644,19.1305
-385,435,-9.74426,-19.787,0.00259952,-0.00298828,0.00081921,0.00271714,-0.00310591,0.14261,0.00336444,0.021003,839,589,-9.74427,19.787
-378,435,-9.77588,-20.4019,0.00338201,-0.00349028,0.00087783,0.00349236,-0.00360063,0.12506,0.0040953,0.0497422,846,589,-9.7759,20.4019
-371,435,-10.0804,-21.1488,0,0,0,0,0,0,0,-1,853,589,-10.0804,21.1488
-364,435,-5.62848,-11.5937,0,0,0,0,0,0,0,-1,860,589,-5.62847,11.5937
-357,435,-5.57343,-10.9666,0,0,0,0,0,0,0,-1,867,589,-5.57342,10.9666
-350,435,-0.86676,-3.69836,0,0,0,0,0,0,0,-1,874,589,-0.866784,3.69834
-343,435,-1.60706,-2.36835,0,0,0,0,0,0,0,-1,881,589,-1.60706,2.36838
-336,435,-2.07263,-1.94012,0,0,0,0,0,0,0,-1,888,589,-2.07265,1.94014
-329,435,-2.55963,-1.5517,0,0,0,0,0,0,0,-1,895,589,-2.5596,1.55168
-322,435,-3.08545,-1.55255,0,0,0,0,0,0,0,-1,902,589,-3.08544,1.55254
-315,435,-0.404297,-2.63763,0,0,0,0,0,0,0,-1,909,589,-0.404276,2.63761
-308,435,-1.70056,-1.90369,0,0,0,0,0,0,0,-1,916,589,-1.70056,1.90367
-301,435,-1.19391,-2.41632,0,0,0,0,0,0,0,-1,923,589,-1.1939,2.41635
-294,435,2.95337,-8.14197,0,0,0,0,0,0,0,-1,930,589,2.95336,8.14198
-287,435,0,0,0,0,0,0,0,0,0,-1,937,589,0,0
-280,435,0,0,0,0,0,0,0,0,0,-1,944,589,0,0
-273,435,0,0,0,0,0,0,0,0,0,-1,951,589,0,0
-266,435,0,0,0,0,0,0,0,0,0,-1,958,589,0,0
-259,435,0,0,0,0,0,0,0,0,0,-1,965,589,0,0
-252,435,0,0,0,0,0,0,0,0,0,-1,972,589,0,0
-245,435,0,0,0,0,0,0,0,0,0,-1,979,589,0,0
-238,435,0,0,0,0,0,0,0,0,0,-1,986,589,0,0
-231,435,0,0,0,0,0,0,0,0,0,-1,993,589,0,0
-224,435,0,0,0,0,0,0,0,0,0,-1,1000,589,0,0
-217,435,0,0,0,0,0,0,0,0,0,-1,1007,589,0,0
-210,435,0,0,0,0,0,0,0,0,0,-1,1014,589,0,0
-203,435,0,0,0,0,0,0,0,0,0,-1,1021,589,0,0
-196,435,0,0,0,0,0,0,0,0,0,-1,1028,589,0,0
-189,435,0,0,0,0,0,0,0,0,0,-1,1035,589,0,0
-182,435,0,0,0,0,0,0,0,0,0,-1,1042,589,0,0
-175,435,0,0,0,0,0,0,0,0,0,-1,1049,589,0,0
-168,435,0,0,0,0,0,0,0,0,0,-1,1056,589,0,0
-161,435,0,0,0,0,0,0,0,0,0,-1,1063,589,0,0
-154,435,0,0,0,0,0,0,0,0,0,-1,1070,589,0,0
-147,435,0,0,0,0,0,0,0,0,0,-1,1077,589,0,0
-140,435,0,0,0,0,0,0,0,0,0,-1,1084,589,0,0
-133,435,0,0,0,0,0,0,0,0,0,-1,1091,589,0,0
-126,435,0,0,0,0,0,0,0,0,0,-1,1098,589,0,0
-119,435,0,0,0,0,0,0,0,0,0,-1,1105,589,0,0
-112,435,0,0,0,0,0,0,0,0,0,-1,1112,589,0,0
-105,435,0,0,0,0,0,0,0,0,0,-1,1119,589,0,0
-98,435,0,0,0,0,0,0,0,0,0,-1,1126,589,0,0
-91,435,0,0,0,0,0,0,0,0,0,-1,1133,589,0,0
-84,435,0,0,0,0,0,0,0,0,0,-1,1140,589,0,0
-77,435,0,0,0,0,0,0,0,0,0,-1,1147,589,0,0
-70,435,0,0,0,0,0,0,0,0,0,-1,1154,589,0,0
-63,435,0,0,0,0,0,0,0,0,0,-1,1161,589,0,0
-56,435,0,0,0,0,0,0,0,0,0,-1,1168,589,0,0
-49,435,0,0,0,0,0,0,0,0,0,-1,1175,589,0,0
-42,435,0,0,0,0,0,0,0,0,0,-1,1182,589,0,0
-35,435,0,0,0,0,0,0,0,0,0,-1,1189,589,0,0
-28,435,0,0,0,0,0,0,0,0,0,-1,1196,589,0,0
-21,435,0,0,0,0,0,0,0,0,0,-1,1203,589,0,0
-14,435,0,0,0,0,0,0,0,0,0,-1,1210,589,0,0
-7,435,0,0,0,0,0,0,0,0,0,-1,1217,589,0,0
0,435,0,0,0,0,0,0,0,0,0,-1,1224,589,0,0
7,435,0,0,0,0,0,0,0,0,0,-1,1231,589,0,0
14,435,0,0,0,0,0,0,0,0,0,-1,1238,589,0,0
21,435,0,0,0,0,0,0,0,0,0,-1,1245,589,0,0
28,435,0,0,0,0,0,0,0,0,0,-1,1252,589,0,0
35,435,0,0,0,0,0,0,0,0,0,-1,1259,589,0,0
42,435,0,0,0,0,0,0,0,0,0,-1,1266,589,0,0
49,435,0,0,0,0,0,0,0,0,0,-1,1273,589,0,0
56,435,0,0,0,0,0,0,0,0,0,-1,1280,589,0,0
63,435,0,0,0,0,0,0,0,0,0,-1,1287,589,0,0
70,435,0,0,0,0,0,0,0,0,0,-1,1294,589,0,0
77,435,0,0,0,0,0,0,0,0,0,-1,1301,589,0,0
84,435,0,0,0,0,0,0,0,0,0,-1,1308,589,0,0
91,435,0,0,0,0,0,0,0,0,0,-1,1315,589,0,0
98,435,0,0,0,0,0,0,0,0,0,-1,1322,589,0,0
105,435,0,0,0,0,0,0,0,0,0,-1,1329,589,0,0
112,435,0,0,0,0,0,0,0,0,0,-1,1336,589,0,0
119,435,0,0,0,0,0,0,0,0,0,-1,1343,589,0,0
126,435,0,0,0,0,0,0,0,0,0,-1,1350,589,0,0
133,435,0,0,0,0,0,0,0,0,0,-1,1357,589,0,0
140,435,0,0,0,0,0,0,0,0,0,-1,1364,589,0,0
147,435,0,0,0,0,0,0,0,0,0,-1,1371,589,0,0
154,435,0,0,0,0,0,0,0,0,0,-1,1378,589,0,0
161,435,0,0,0,0,0,0,0,0,0,-1,1385,589,0,0
168,435,0,0,0,0,0,0,0,0,0,-1,1392,589,0,0
175,435,0,0,0,0,0,0,0,0,0,-1,1399,589,0,0
182,435,0,0,0,0,0,0,0,0,0,-1,1406,589,0,0
189,435,0,0,0,0,0,0,0,0,0,-1,1413,589,0,0
196,435,0,0,0,0,0,0,0,0,0,-1,1420,589,0,0
203,435,0,0,0,0,0,0,0,0,0,-1,1427,589,0,0
210,435,0,0,0,0,0,0,0,0,0,-1,1434,589,0,0
217,435,0,0,0,0,0,0,0,0,0,-1,1441,589,0,0
224,435,0,0,0,0,0,0,0,0,0,-1,1448,589,0,0
231,435,0,0,0,0,0,0,0,0,0,-1,1455,589,0,0
238,435,0,0,0,0,0,0,0,0,0,-1,1462,589,0,0
245,435,0,0,0,0,0,0,0,0,0,-1,1469,589,0,0
252,435,0,0,0,0,0,0,0,0,0,-1,1476,589,0,0
259,435,0,0,0,0,0,0,0,0,0,-1,1483,589,0,0
266,435,0,0,0,0,0,0,0,0,0,-1,1490,589,0,0
273,435,0,0,0,0,0,0,0,0,0,-1,1497,589,0,0
280,435,0,0,0,0,0,0,0,0,0,-1,1504,589,0,0
287,435,0,0,0,0,0,0,0,0,0,-1,1511,589,0,0
294,435,0,0,0,0,0,0,0,0,0,-1,1518,589,0,0
301,435,0,0,0,0,0,0,0,0,0,-1,1525,589,0,0
308,435,0,0,0,0,0,0,0,0,0,-1,1532,589,0,0
315,435,0,0,0,0,0,0,0,0,0,-1,1539,589,0,0
322,435,0,0,0,0,0,0,0,0,0,-1,1546,589,0,0
329,435,0,0,0,0,0,0,0,0,0,-1,1553,589,0,0
336,435,0,0,0,0,0,0,0,0,0,-1,1560,589,0,0
343,435,0,0,0,0,0,0,0,0,0,-1,1567,589,0,0
350,435,0,0,0,0,0,0,0,0,0,-1,1574,589,0,0
357,435,0,0,0,0,0,0,0,0,0,-1,1581,589,0,0
364,435,0,0,0,0,0,0,0,0,0,-1,1588,589,0,0
371,435,0,0,0,0,0,0,0,0,0,-1,1595,589,0,0
378,435,0,0,0,0,0,0,0,0,0,-1,1602,589,0,0
385,435,0,0,0,0,0,0,0,0,0,-1,1609,589,0,0
392,435,0,0,0,0,0,0,0,0,0,-1,1616,589,0,0
399,435,0,0,0,0,0,0,0,0,0,-1,1623,589,0,0
406,435,0,0,0,0,0,0,0,0,0,-1,1630,589,0,0
413,435,20.4565,3.49835,0,0,0,0,0,0,0,-1,1637,589,20.4565,-3.49836
420,435,21.4015,1.49609,0,0,0,0,0,0,0,-1,1644,589,21.4015,-1.49609
427,435,22.0464,-0.373962,0,0,0,0,0,0,0,-1,1651,589,22.0464,0.373972
434,435,22.1863,-1.54407,0,0,0,0,0,0,0,-1,1658,589,22.1862,1.54405
441,435,22.3992,-2.38287,0,0,0,0,0,0,0,-1,1665,589,22.3992,2.38289
448,435,7.4585,-0.00292969,0,0,0,0,0,0,0,-1,1672,589,7.45848,0.00294131
455,435,5.49915,-5.047,0,0,0,0,0,0,0,-1,1679,589,5.49914,5.04703
462,435,5.60669,-4.71466,0,0,0,0,0,0,0,-1,1686,589,5.60675,4.71469
469,435,5.87708,1.22351,0,0,0,0,0,0,0,-1,1693,589,5.87703,-1.22351
476,435,6.14136,1.37714,0,0,0,0,0,0,0,-1,1700,589,6.14138,-1.37712
483,435,6.49243,1.36169,0,0,0,0,0,0,0,-1,1707,589,6.49242,-1.36171
490,435,4.38391,-1.36218,0,0,0,0,0,0,0,-1,1714,589,4.38389,1.3622
497,435,7.23499,-3.64551,0,0,0,0,0,0,0,-1,1721,589,7.23495,3.64551
504,435,7.31189,-3.75909,0,0,0,0,0,0,0,-1,1728,589,7.31184,3.75911
511,435,21.8024,-18.824,0,0,0,0,0,0,0,-1,1735,589,21.8024,18.824
518,435,21.9409,-18.0401,0.00411951,0.00255537,0.00226213,0.00573095,0.000943937,0.618969,0.00354809,0.029516,1742,589,21.9409,18.0401
525,435,21.8889,-17.3202,0.00353273,0.00212023,0.00199906,0.00494663,0.000706336,0.615596,0.00308934,0.0127396,1749,589,21.8889,17.3202
532,435,21.875,-16.5765,0.00297593,0.00181655,0.00174734,0.00423723,0.000555252,0.625234,0.00265913,0.0141395,1756,589,21.8749,16.5765
539,435,21.8488,-15.8306,0.00252051,0.00168652,0.00159006,0.00374734,0.000459681,0.657161,0.00235997,0.0156397,1763,589,21.8488,15.8306
546,435,21.8047,-15.154,0.00210344,0.00162142,0.00144916,0.0033315,0.00039336,0.702998,0.00210218,0.0166088,1770,589,21.8047,15.154
553,435,21.7688,-14.4598,0.00166043,0.00169614,0.00135756,0.00303596,0.000320612,0.791975,0.00192602,0.0119174,1777,589,21.7688,14.4598
560,435,21.7311,-13.7459,0.00126334,0.00184374,0.00134804,0.00293246,0.000174619,0.891417,0.00189944,0.00956606,1784,589,21.7311,13.7459
567,435,21.7264,-13.0083,0.00100917,0.00216577,0.00148155,0.00317789,-2.94624e-06,0.971471,0.00211958,0.0088468,1791,589,21.7264,13.0083
574,435,21.6895,-12.2883,0.000843488,0.00259448,0.00168831,0.00362079,-0.000182826,1.02459,0.00247705,0.0101221,1798,589,21.6895,12.2882
581,435,21.6371,-11.5593,0.000861157,0.00320748,0.00210161,0.0044412,-0.000372564,1.03996,0.00309248,0.0174366,1805,589,21.637,11.5593
588,435,21.5911,-10.8728,0.00116677,0.00406202,0.00273076,0.00570513,-0.000476342,1.02912,0.00397174,0.0451588,1812,589,21.5911,10.8728
595,435,21.618,-9.86877,0,0,0,0,0,0,0,-1,1819,589,21.618,9.86874
602,435,16.8671,-6.39026,0,0,0,0,0,0,0,-1,1826,589,16.867,6.39024
609,435,15.2611,-3.42242,0,0,0,0,0,0,0,-1,1833,589,15.2611,3.42242
616,435,5.05151,-2.75269,0,0,0,0,0,0,0,-1,1840,589,5.05157,2.7527
623,435,11.7588,3.9704,0,0,0,0,0,0,0,-1,1847,589,11.7587,-3.97043
630,435,4.72742,-0.87561,0,0,0,0,0,0,0,-1,1854,589,4.7274,0.875636
637,435,5.05286,1.48792,0,0,0,0,0,0,0,-1,1861,589,5.05291,-1.48792
644,435,0,0,0,0,0,0,0,0,0,-1,1868,589,0,0
651,435,0,0,0,0,0,0,0,0,0,-1,1875,589,0,0
658,435,0,0,0,0,0,0,0,0,0,-1,1882,589,0,0
665,435,0,0,0,0,0,0,0,0,0,-1,1889,589,0,0
672,435,0,0,0,0,0,0,0,0,0,-1,1896,589,0,0
679,435,0,0,0,0,0,0,0,0,0,-1,1903,589,0,0
686,435,0,0,0,0,0,0,0,0,0,-1,1910,589,0,0
693,435,0,0,0,0,0,0,0,0,0,-1,1917,589,0,0
700,435,0,0,0,0,0,0,0,0,0,-1,1924,589,0,0
707,435,0,0,0,0,0,0,0,0,0,-1,1931,589,0,0
714,435,0,0,0,0,0,0,0,0,0,-1,1938,589,0,0
721,435,0,0,0,0,0,0,0,0,0,-1,1945,589,0,0
728,435,0,0,0,0,0,0,0,0,0,-1,1952,589,0,0
735,435,0,0,0,0,0,0,0,0,0,-1,1959,589,0,0
742,435,0,0,0,0,0,0,0,0,0,-1,1966,589,0,0
749,435,0,0,0,0,0,0,0,0,0,-1,1973,589,0,0
756,435,0,0,0,0,0,0,0,0,0,-1,1980,589,0,0
763,435,0,0,0,0,0,0,0,0,0,-1,1987,589,0,0
770,435,0,0,0,0,0,0,0,0,0,-1,1994,589,0,0
777,435,0,0,0,0,0,0,0,0,0,-1,2001,589,0,0
784,435,0,0,0,0,0,0,0,0,0,-1,2008,589,0,0
791,435,0,0,0,0,0,0,0,0,0,-1,2015,589,0,0
798,435,0,0,0,0,0,0,0,0,0,-1,2022,589,0,0
805,435,0,0,0,0,0,0,0,0,0,-1,2029,589,0,0
812,435,0,0,0,0,0,0,0,0,0,-1,2036,589,0,0
-700,428,0,0,0,0,0,0,0,0,0,-1,524,596,0,0
-693,428,0,0,0,0,0,0,0,0,0,-1,531,596,0,0
-686,428,0,0,0,0,0,0,0,0,0,-1,538,596,0,0
-679,428,0,0,0,0,0,0,0,0,0,-1,545,596,0,0
-672,428,0,0,0,0,0,0,0,0,0,-1,552,596,0,0
-665,428,0,0,0,0,0,0,0,0,0,-1,559,596,0,0
-658,428,0,0,0,0,0,0,0,0,0,-1,566,596,0,0
-651,428,0,0,0,0,0,0,0,0,0,-1,573,596,0,0
-644,428,0,0,0,0,0,0,0,0,0,-1,580,596,0,0
-637,428,0,0,0,0,0,0,0,0,0,-1,587,596,0,0
-630,428,0,0,0,0,0,0,0,0,0,-1,594,596,0,0
-623,428,0,0,0,0,0,0,0,0,0,-1,601,596,0,0
-616,428,0,0,0,0,0,0,0,0,0,-1,608,596,0,0
-609,428,0,0,0,0,0,0,0,0,0,-1,615,596,0,0
-602,428,0,0,0,0,0,0,0,0,0,-1,622,596,0,0
-595,428,0,0,0,0,0,0,0,0,0,-1,629,596,0,0
-588,428,0,0,0,0,0,0,0,0,0,-1,636,596,0,0
-581,428,0,0,0,0,0,0,0,0,0,-1,643,596,0,0
-574,428,0,0,0,0,0,0,0,0,0,-1,650,596,0,0
-567,428,0,0,0,0,0,0,0,0,0,-1,657,596,0,0
-560,428,0,0,0,0,0,0,0,0,0,-1,664,596,0,0
-553,428,0,0,0,0,0,0,0,0,0,-1,671,596,0,0
-546,428,0,0,0,0,0,0,0,0,0,-1,678,596,0,0
-539,428,0,0,0,0,0,0,0,0,0,-1,685,596,0,0
-532,428,0,0,0,0,0,0,0,0,0,-1,692,596,0,0
-525,428,-9.59918,7.58618,0,0,0,0,0,0,0,-1,699,596,-9.59918,-7.5862
-518,428,-2.92285,-4.81854,0,0,0,0,0,0,0,-1,706,596,-2.92285,4.81856
-511,428,-3.68811,-4.79474,0,0,0,0,0,0,0,-1,713,596,-3.68811,4.79474
-504,428,-4.45337,-4.77094,0,0,0,0,0,0,0,-1,720,596,-4.45337,4.77092
-497,428,-2.98108,-3.77502,0,0,0,0,0,0,0,-1,727,596,-2.98106,3.77505
-490,428,-6.39044,-2.80481,0,0,0,0,0,0,0,-1,734,596,-6.39047,2.80483
-483,428,-10.8474,-9.11322,0,0,0,0,0,0,0,-1,741,596,-10.8473,9.11321
-476,428,-10.0557,-10.6042,0,0,0,0,0,0,0,-1,748,596,-10.0557,10.6042
-469,428,-9.96246,-11.3218,0.00041766,0.00708179,-0.00381818,0.00881738,-0.00131793,-1.14416,0.00636323,0.030312,755,596,-9.96246,11.3218
-462,428,-10.0796,-11.9796,0.000621283,0.00581068,-0.00332878,0.00743655,-0.00100459,-1.11645,0.00532425,0.0317131,762,596,-10.0796,11.9796
-455,428,-10.1718,-12.7794,0.000658449,0.00469228,-0.0027416,0.00607894,-0.000728213,-1.10253,0.00431589,0.0173648,769,596,-10.1718,12.7794
-448,428,-10.1872,-13.5109,0.000647753,0.00348618,-0.0021114,0.00461101,-0.000477078,-1.0813,0.00324474,0.0126797,776,596,-10.1872,13.5108
-441,428,-10.2104,-14.2221,0.000655917,0.00239548,-0.00151922,0.00327628,-0.00022489,-1.04538,0.00226288,0.0144849,783,596,-10.2105,14.2221
-434,428,-10.2366,-14.9678,0.00067166,0.00136441,-0.000958873,0.00203755,-1.4815e-06,-0.95872,0.00135886,0.0103366,790,596,-10.2366,14.9678
-427,428,-10.2733,-15.6854,0.000721842,0.00039924,-0.000447494,0.00103622,8.48635e-05,-0.61242,0.000664334,0.0104914,797,596,-10.2733,15.6854
-420,428,-10.289,-16.3489,0.000851403,-0.000449749,-3.17062e-05,0.000852175,-0.000450521,-0.0243485,0.000763935,0.0119543,804,596,-10.289,16.3489
-413,428,-10.3055,-17.0238,0.000955712,-0.00133012,0.000418584,0.00102995,-0.00140436,0.175535,0.00141098,0.0153294,811,596,-10.3055,17.0238
-406,428,-10.3517,-17.7154,0.00113324,-0.00212329,0.000787738,0.00131378,-0.00230383,0.225298,0.00211454,0.0175448,818,596,-10.3517,17.7154
-399,428,-10.3622,-18.4149,0.00145264,-0.00283295,0.00101516,0.00168094,-0.00306125,0.221217,0.0027763,0.0155944,825,596,-10.3622,18.4149
-392,428,-10.3685,-19.1319,0.00194739,-0.0033679,0.00112146,0.00217431,-0.00359482,0.199654,0.0033643,0.0314059,832,596,-10.3686,19.1319
-385,428,-10.4054,-19.7887,0,0,0,0,0,0,0,-1,839,596,-10.4054,19.7887
-378,428,-10.5993,-20.3502,0,0,0,0,0,0,0,-1,846,596,-10.5993,20.3502
-371,428,-5.96155,-11.0703,0,0,0,0,0,0,0,-1,853,596,-5.96154,11.0702
-364,428,-6.33643,-10.7223,0,0,0,0,0,0,0,-1,860,596,-6.33645,10.7223
-357,428,-3.20996,-4.70966,0,0,0,0,0,0,0,-1,867,596,-3.20997,4.70965
-350,428,-1.62793,-3.94055,0,0,0,0,0,0,0,-1,874,596,-1.62794,3.94055
-343,428,-0.0567017,-4.80994,0,0,0,0,0,0,0,-1,881,596,-0.0567096,4.80996
-336,428,-3.29175,-1.39569,0,0,0,0,0,0,0,-1,888,596,-3.29172,1.39568
-329,428,-3.71564,-0.791321,0,0,0,0,0,0,0,-1,895,596,-3.71564,0.791299
-322,428,-5.52863,-3.59827,0,0,0,0,0,0,0,-1,902,596,-5.52865,3.59829
-315,428,-4.57172,-1.22052,0,0,0,0,0,0,0,-1,909,596,-4.57171,1.22052
-308,428,-5.60742,-3.40961,0,0,0,0,0,0,0,-1,916,596,-5.60744,3.40959
-301,428,0,0,0,0,0,0,0,0,0,-1,923,596,0,0
-294,428,0,0,0,0,0,0,0,0,0,-1,930,596,0,0
-287,428,0,0,0,0,0,0,0,0,0,-1,937,596,0,0
-280,428,0,0,0,0,0,0,0,0,0,-1,944,596,0,0
-273,428,0,0,0,0,0,0,0,0,0,-1,951,596,0,0
-266,428,0,0,0,0,0,0,0,0,0,-1,958,596,0,0
-259,428,0,0,0,0,0,0,0,0,0,-1,965,596,0,0
-252,428,0,0,0,0,0,0,0,0,0,-1,972,596,0,0
-245,428,0,0,0,0,0,0,0,0,0,-1,979,596,0,0
-238,428,0,0,0,0,0,0,0,0,0,-1,986,596,0,0
-231,428,0,0,0,0,0,0,0,0,0,-1,993,596,0,0
-224,428,0,0,0,0,0,0,0,0,0,-1,1000,596,0,0
-217,428,0,0,0,0,0,0,0,0,0,-1,1007,596,0,0
-210,428,0,0,0,0,0,0,0,0,0,-1,1014,596,0,0
-203,428,0,0,0,0,0,0,0,0,0,-1,1021,596,0,0
-196,428,0,0,0,0,0,0,0,0,0,-1,1028,596,0,0
-189,428,0,0,0,0,0,0,0,0,0,-1,1035,596,0,0
-182,428,0,0,0,0,0,0,0,0,0,-1,1042,596,0,0
-175,428,0,0,0,0,0,0,0,0,0,-1,1049,596,0,0
-168,428,0,0,0,0,0,0,0,0,0,-1,1056,596,0,0
-161,428,0,0,0,0,0,0,0,0,0,-1,1063,596,0,0
-154,428,0,0,0,0,0,0,0,0,0,-1,1070,596,0,0
-147,428,0,0,0,0,0,0,0,0,0,-1,1077,596,0,0
-140,428,0,0,0,0,0,0,0,0,0,-1,1084,596,0,0
-133,428,0,0,0,0,0,0,0,0,0,-1,1091,596,0,0
-126,428,0,0,0,0,0,0,0,0,0,-1,1098,596,0,0
-119,428,0,0,0,0,0,0,0,0,0,-1,1105,596,0,0
-112,428,0,0,0,0,0,0,0,0,0,-1,1112,596,0,0
-105,428,0,0,0,0,0,0,0,0,0,-1,1119,596,0,0
-98,428,0,0,0,0,0,0,0,0,0,-1,1126,596,0,0
-91,428,0,0,0,0,0,0,0,0,0,-1,1133,596,0,0
-84,428,0,0,0,0,0,0,0,0,0,-1,1140,596,0,0
-77,428,0,0,0,0,0,0,0,0,0,-1,1147,596,0,0
-70,428,0,0,0,0,0,0,0,0,0,-1,1154,596,0,0
-63,428,0,0,0,0,0,0,0,0,0,-1,1161,596,0,0
-56,428,0,0,0,0,0,0,0,0,0,-1,1168,596,0,0
-49,428,0,0,0,0,0,0,0,0,0,-1,1175,596,0,0
-42,428,0,0,0,0,0,0,0,0,0,-1,1182,596,0,0
-35,428,0,0,0,0,0,0,0,0,0,-1,1189,596,0,0
-28,428,0,0,0,0,0,0,0,0,0,-1,1196,596,0,0
-21,428,0,0,0,0,0,0,0,0,0,-1,1203,596,0,0
-14,428,0,0,0,0,0,0,0,0,0,-1,1210,596,0,0
-7,428,0,0,0,0,0,0,0,0,0,-1,1217,596,0,0
0,428,0,0,0,0,0,0,0,0,0,-1,1224,596,0,0
7,428,0,0,0,0,0,0,0,0,0,-1,1231,596,0,0
14,428,0,0,0,0,0,0,0,0,0,-1,1238,596,0,0
21,428,0,0,0,0,0,0,0,0,0,-1,1245,596,0,0
28,428,0,0,0,0,0,0,0,0,0,-1,1252,596,0,0
35,428,0,0,0,0,0,0,0,0,0,-1,1259,596,0,0
42,428,0,0,0,0,0,0,0,0,0,-1,1266,596,0,0
49,428,0,0,0,0,0,0,0,0,0,-1,1273,596,0,0
56,428,0,0,0,0,0,0,0,0,0,-1,1280,596,0,0
63,428,0,0,0,0,0,0,0,0,0,-1,1287,596,0,0
70,428,0,0,0,0,0,0,0,0,0,-1,1294,596,0,0
77,428,0,0,0,0,0,0,0,0,0,-1,1301,596,0,0
84,428,0,0,0,0,0,0,0,0,0,-1,1308,596,0,0
91,428,0,0,0,0,0,0,0,0,0,-1,1315,596,0,0
98,428,0,0,0,0,0,0,0,0,0,-1,1322,596,0,0
105,428,0,0,0,0,0,0,0,0,0,-1,1329,596,0,0
112,428,0,0,0,0,0,0,0,0,0,-1,1336,596,0,0
119,428,0,0,0,0,0,0,0,0,0,-1,1343,596,0,0
126,428,0,0,0,0,0,0,0,0,0,-1,1350,596,0,0
133,428,0,0,0,0,0,0,0,0,0,-1,1357,596,0,0
140,428,0,0,0,0,0,0,0,0,0,-1,1364,596,0,0
147,428,0,0,0,0,0,0,0,0,0,-1,1371,596,0,0
154,428,0,0,0,0,0,0,0,0,0,-1,1378,596,0,0
161,428,0,0,0,0,0,0,0,0,0,-1,1385,596,0,0
168,428,0,0,0,0,0,0,0,0,0,-1,1392,596,0,0
175,428,0,0,0,0,0,0,0,0,0,-1,1399,596,0,0
182,428,0,0,0,0,0,0,0,0,0,-1,1406,596,0,0
189,428,0,0,0,0,0,0,0,0,0,-1,1413,596,0,0
196,428,0,0,0,0,0,0,0,0,0,-1,1420,596,0,0
203,428,0,0,0,0,0,0,0,0,0,-1,1427,596,0,0
210,428,0,0,0,0,0,0,0,0,0,-1,1434,596,0,0
217,428,0,0,0,0,0,0,0,0,0,-1,1441,596,0,0
224,428,0,0,0,0,0,0,0,0,0,-1,1448,596,0,0
231,428,0,0,0,0,0,0,0,0,0,-1,1455,596,0,0
238,428,0,0,0,0,0,0,0,0,0,-1,1462,596,0,0
245,428,0,0,0,0,0,0,0,0,0,-1,1469,596,0,0
252,428,0,0,0,0,0,0,0,0,0,-1,1476,596,0,0
259,428,0,0,0,0,0,0,0,0,0,-1,1483,596,0,0
266,428,0,0,0,0,0,0,0,0,0,-1,1490,596,0,0
273,428,0,0,0,0,0,0,0,0,0,-1,1497,596,0,0
280,428,0,0,0,0,0,0,0,0,0,-1,1504,596,0,0
287,428,0,0,0,0,0,0,0,0,0,-1,1511,596,0,0
294,428,0,0,0,0,0,0,0,0,0,-1,1518,596,0,0
301,428,0,0,0,0,0,0,0,0,0,-1,1525,596,0,0
308,428,0,0,0,0,0,0,0,0,0,-1,1532,596,0,0
315,428,0,0,0,0,0,0,0,0,0,-1,1539,596,0,0
322,428,0,0,0,0,0,0,0,0,0,-1,1546,596,0,0
329,428,0,0,0,0,0,0,0,0,0,-1,1553,596,0,0
336,428,0,0,0,0,0,0,0,0,0,-1,1560,596,0,0
343,428,0,0,0,0,0,0,0,0,0,-1,1567,596,0,0
350,428,0,0,0,0,0,0,0,0,0,-1,1574,596,0,0
357,428,0,0,0,0,0,0,0,0,0,-1,1581,596,0,0
364,428,0,0,0,0,0,0,0,0,0,-1,1588,596,0,0
371,428,0,0,0,0,0,0,0,0,0,-1,1595,596,0,0
378,428,0,0,0,0,0,0,0,0,0,-1,1602,596,0,0
385,428,0,0,0,0,0,0,0,0,0,-1,1609,596,0,0
392,428,0,0,0,0,0,0,0,0,0,-1,1616,596,0,0
399,428,0,0,0,0,0,0,0,0,0,-1,1623,596,0,0
406,428,0,0,0,0,0,0,0,0,0,-1,1630,596,0,0
413,428,0,0,0,0,0,0,0,0,0,-1,1637,596,0,0
420,428,19.8469,1.3399,0,0,0,0,0,0,0,-1,1644,596,19.8469,-1.33992
427,428,20.7299,-0.225281,0,0,0,0,0,0,0,-1,1651,596,20.7299,0.225262
434,428,19.8915,-0.583069,0,0,0,0,0,0,0,-1,1658,596,19.8915,0.583075
441,428,8.17993,0.607483,0,0,0,0,0,0,0,-1,1665,596,8.17997,-0.607513
448,428,7.84338,-0.385986,0,0,0,0,0,0,0,-1,1672,596,7.84336,0.385978
455,428,6.64038,2.1123,0,0,0,0,0,0,0,-1,1679,596,6.64037,-2.11229
462,428,4.84106,4.12341,0,0,0,0,0,0,0,-1,1686,596,4.84107,-4.12339
469,428,7.83789,3.10083,0,0,0,0,0,0,0,-1,1693,596,7.83785,-3.10086
476,428,7.61255,1.73956,0,0,0,0,0,0,0,-1,1700,596,7.61252,-1.73958
483,428,7.22766,1.05121,0,0,0,0,0,0,0,-1,1707,596,7.2277,-1.05121
490,428,5.4071,-3.2793,0,0,0,0,0,0,0,-1,1714,596,5.40707,3.27929
497,428,7.84106,-3.65491,0,0,0,0,0,0,0,-1,1721,596,7.84107,3.65491
504,428,6.92139,-2.83356,0,0,0,0,0,0,0,-1,1728,596,6.92137,2.83353
511,428,7.88501,-3.78723,0,0,0,0,0,0,0,-1,1735,596,7.88502,3.78722
518,428,22.619,-18.0943,0,0,0,0,0,0,0,-1,1742,596,22.619,18.0943
525,428,22.512,-17.3616,0.00446333,0.00258335,0.00255723,0.00624786,0.000798815,0.609272,0.00392615,0.0482191,1749,596,22.512,17.3615
532,428,22.568,-16.5073,0.00375048,0.00211595,0.00207622,0.0051645,0.000701932,0.597897,0.00323451,0.0209715,1756,596,22.568,16.5073
539,428,22.5729,-15.812,0.00317574,0.00190746,0.00177117,0.00442287,0.000660334,0.613491,0.00275498,0.0211576,1763,596,22.5728,15.812
546,428,22.5193,-15.1507,0.00264131,0.00171657,0.0015111,0.0037592,0.000598678,0.63693,0.00233233,0.0169575,1770,596,22.5192,15.1507
553,428,22.4742,-14.4465,0.00210783,0.00167575,0.00132043,0.00322978,0.000553807,0.70431,0.00199438,0.0110109,1777,596,22.4742,14.4465
560,428,22.4755,-13.7022,0.00162204,0.00171473,0.00122678,0.00289604,0.00044073,0.804278,0.00180184,0.0117885,1784,596,22.4755,13.7022
567,428,22.4436,-12.9794,0.00128534,0.00193441,0.00129346,0.00294343,0.000276317,0.908314,0.00187697,0.0111952,1791,596,22.4436,12.9794
574,428,22.402,-12.2532,0.00107836,0.00227092,0.00145704,0.00324897,0.000100312,0.979621,0.00213333,0.0132366,1798,596,22.402,12.2532
581,428,22.3394,-11.5189,0.00105089,0.00277471,0.0018102,0.00391772,-9.21241e-05,1.00759,0.00264306,0.0114448,1805,596,22.3393,11.5189
588,428,22.2975,-10.7833,0.00128327,0.00357202,0.00238755,0.00507528,-0.000219994,1.00888,0.00345918,0.0185207,1812,596,22.2975,10.7833
595,428,22.2384,-9.99689,0.00167241,0.00458052,0.00306875,0.00652228,-0.000269348,1.00664,0.00444069,0.030832,1819,596,22.2384,9.99688
602,428,22.3652,-9.15405,0,0,0,0,0,0,0,-1,1826,596,22.3652,9.15407
609,428,17.2073,-4.82446,0,0,0,0,0,0,0,-1,1833,596,17.2073,4.82447
616,428,15.7817,-3.09558,0,0,0,0,0,0,0,-1,1840,596,15.7817,3.09556
623,428,9.53577,1.12518,0,0,0,0,0,0,0,-1,1847,596,9.5358,-1.1252
630,428,7.07996,6.88562,0,0,0,0,0,0,0,-1,1854,596,7.0799,-6.88565
637,428,3.95435,1.90857,0,0,0,0,0,0,0,-1,1861,596,3.95439,-1.90858
644,428,5.75476,0.888977,0,0,0,0,0,0,0,-1,1868,596,5.75472,-0.888955
651,428,0,0,0,0,0,0,0,0,0,-1,1875,596,0,0
658,428,0,0,0,0,0,0,0,0,0,-1,1882,596,0,0
665,428,0,0,0,0,0,0,0,0,0,-1,1889,596,0,0
672,428,0,0,0,0,0,0,0,0,0,-1,1896,596,0,0
679,428,0,0,0,0,0,0,0,0,0,-1,1903,596,0,0
686,428,0,0,0,0,0,0,0,0,0,-1,1910,596,0,0
693,428,0,0,0,0,0,0,0,0,0,-1,1917,596,0,0
700,428,0,0,0,0,0,0,0,0,0,-1,1924,596,0,0
707,428,0,0,0,0,0,0,0,0,0,-1,1931,596,0,0
714,428,0,0,0,0,0,0,0,0,0,-1,1938,596,0,0
721,428,0,0,0,0,0,0,0,0,0,-1,1945,596,0,0
728,428,0,0,0,0,0,0,0,0,0,-1,1952,596,0,0
735,428,0,0,0,0,0,0,0,0,0,-1,1959,596,0,0
742,428,0,0,0,0,0,0,0,0,0,-1,1966,596,0,0
749,428,0,0,0,0,0,0,0,0,0,-1,1973,596,0,0
756,428,0,0,0,0,0,0,0,0,0,-1,1980,596,0,0
763,428,0,0,0,0,0,0,0,0,0,-1,1987,596,0,0
770,428,0,0,0,0,0,0,0,0,0,-1,1994,596,0,0
777,428,0,0,0,0,0,0,0,0,0,-1,2001,596,0,0
784,428,0,0,0,0,0,0,0,0,0,-1,2008,596,0,0
791,428,0,0,0,0,0,0,0,0,0,-1,2015,596,0,0
798,428,0,0,0,0,0,0,0,0,0,-1,2022,596,0,0
805,428,0,0,0,0,0,0,0,0,0,-1,2029,596,0,0
812,428,0,0,0,0,0,0,0,0,0,-1,2036,596,0,0
-700,421,0,0,0,0,0,0,0,0,0,-1,524,603,0,0
-693,421,0,0,0,0,0,0,0,0,0,-1,531,603,0,0
-686,421,0,0,0,0,0,0,0,0,0,-1,538,603,0,0
-679,421,0,0,0,0,0,0,0,0,0,-1,545,603,0,0
-672,421,0,0,0,0,0,0,0,0,0,-1,552,603,0,0
-665,421,0,0,0,0,0,0,0,0,0,-1,559,603,0,0
-658,421,0,0,0,0,0,0,0,0,0,-1,566,603,0,0
-651,421,0,0,0,0,0,0,0,0,0,-1,573,603,0,0
-644,421,0,0,0,0,0,0,0,0,0,-1,580,603,0,0
-637,421,0,0,0,0,0,0,0,0,0,-1,587,603,0,0
-630,421,0,0,0,0,0,0,0,0,0,-1,594,603,0,0
-623,421,0,0,0,0,0,0,0,0,0,-1,601,603,0,0
-616,421,0,0,0,0,0,0,0,0,0,-1,608,603,0,0
-609,421,0,0,0,0,0,0,0,0,0,-1,615,603,0,0
-602,421,0,0,0,0,0,0,0,0,0,-1,622,603,0,0
-595,421,0,0,0,0,0,0,0,0,0,-1,629,603,0,0
-588,421,0,0,0,0,0,0,0,0,0,-1,636,603,0,0
-581,421,0,0,0,0,0,0,0,0,0,-1,643,603,0,0
-574,421,0,0,0,0,0,0,0,0,0,-1,650,603,0,0
-567,421,0,0,0,0,0,0,0,0,0,-1,657,603,0,0
-560,421,0,0,0,0,0,0,0,0,0,-1,664,603,0,0
-553,421,0,0,0,0,0,0,0,0,0,-1,671,603,0,0
-546,421,0,0,0,0,0,0,0,0,0,-1,678,603,0,0
-539,421,0,0,0,0,0,0,0,0,0,-1,685,603,0,0
-532,421,-8.97382,6.95636,0,0,0,0,0,0,0,-1,692,603,-8.97384,-6.95634
-525,421,-2.11481,-8.04272,0,0,0,0,0,0,0,-1,699,603,-2.11483,8.0427
-518,421,-3.05908,-5.07233,0,0,0,0,0,0,0,-1,706,603,-3.0591,5.07235
-511,421,-4.63525,-4.08447,0,0,0,0,0,0,0,-1,713,603,-4.63524,4.08449
-504,421,-5.17029,-4.94458,0,0,0,0,0,0,0,-1,720,603,-5.17029,4.9446
-497,421,-6.63141,-2.32501,0,0,0,0,0,0,0,-1,727,603,-6.6314,2.32498
-490,421,-6.7616,-4.14783,0,0,0,0,0,0,0,-1,734,603,-6.76159,4.1478
-483,421,-10.5464,-10.1082,0,0,0,0,0,0,0,-1,741,603,-10.5464,10.1082
-476,421,-10.6616,-10.7463,0.000278999,0.00630576,-0.00319564,0.00768471,-0.00109995,-1.16342,0.0055264,0.0364266,748,603,-10.6615,10.7464
-469,421,-10.806,-11.2921,0.000375599,0.00517923,-0.00286502,0.00651601,-0.000961178,-1.13424,0.0046973,0.0288386,755,603,-10.806,11.2921
-462,421,-10.8223,-12.0706,0.000557187,0.00413895,-0.00249358,0.00541812,-0.000721977,-1.09682,0.00387522,0.0230165,762,603,-10.8223,12.0706
-455,421,-10.8438,-12.8052,0.000613145,0.00316806,-0.00202762,0.00428709,-0.000505884,-1.0665,0.00304075,0.021484,769,603,-10.8437,12.8053
-448,421,-10.8805,-13.4901,0.000647851,0.00213632,-0.00151454,0.0030796,-0.000295429,-1.01377,0.00215829,0.0201701,776,603,-10.8805,13.4901
-441,421,-10.9073,-14.2059,0.000668267,0.00116594,-0.000988717,0.00193665,-0.000102445,-0.908676,0.00132657,0.0148973,783,603,-10.9074,14.2059
-434,421,-10.9521,-14.9418,0.000686995,0.000228919,-0.000466062,0.000977256,-6.13426e-05,-0.557013,0.000672884,0.0105167,790,603,-10.9521,14.9419
-427,421,-10.9675,-15.6334,0.00072869,-0.000664726,2.78517e-05,0.000729247,-0.000665283,0.0199775,0.000805414,0.00985385,797,603,-10.9675,15.6334
-420,421,-10.9861,-16.3057,0.000817233,-0.00147561,0.000469767,0.000909748,-0.00156813,0.194449,0.00144734,0.0117778,804,603,-10.9861,16.3056
-413,421,-11.025,-16.9843,0.00091874,-0.00222549,0.000897105,0.00115669,-0.00246344,0.259274,0.00213499,0.0150266,811,603,-11.025,16.9843
-406,421,-11.0793,-17.6924,0.00106445,-0.00299706,0.00128392,0.00143628,-0.00336889,0.281894,0.00284807,0.0203878,818,603,-11.0793,17.6924
-399,421,-10.988,-18.4682,0.00131718,-0.00369326,0.00151824,0.00174133,-0.00411741,0.272422,0.00347403,0.0354498,825,603,-10.988,18.4682
-392,421,-10.8651,-19.1926,0,0,0,0,0,0,0,-1,832,603,-10.865,19.1926
-385,421,-11.5825,-18.8583,0,0,0,0,0,0,0,-1,839,603,-11.5825,18.8583
-378,421,-4.94733,-8.87909,0,0,0,0,0,0,0,-1,846,603,-4.94731,8.87906
-371,421,-5.65082,-7.01849,0,0,0,0,0,0,0,-1,853,603,-5.65082,7.0185
-364,421,-5.94189,-7.09875,0,0,0,0,0,0,0,-1,860,603,-5.94192,7.09878
-357,421,-7.62531,-8.26337,0,0,0,0,0,0,0,-1,867,603,-7.62532,8.26337
-350,421,-5.38019,-3.75024,0,0,0,0,0,0,0,-1,874,603,-5.38017,3.75026
-343,421,-6.22797,-2.57123,0,0,0,0,0,0,0,-1,881,603,-6.22798,2.57121
-336,421,-6.22882,-2.59369,0,0,0,0,0,0,0,-1,888,603,-6.22883,2.5937
-329,421,-4.50134,-1.49469,0,0,0,0,0,0,0,-1,895,603,-4.50137,1.49468
-322,421,-7.55817,1.13263,0,0,0,0,0,0,0,-1,902,603,-7.55818,-1.13263
-315,421,-4.47821,-1.26733,0,0,0,0,0,0,0,-1,909,603,-4.47824,1.26732
-308,421,0,0,0,0,0,0,0,0,0,-1,916,603,0,0
-301,421,0,0,0,0,0,0,0,0,0,-1,923,603,0,0
-294,421,0,0,0,0,0,0,0,0,0,-1,930,603,0,0
-287,421,0,0,0,0,0,0,0,0,0,-1,937,603,0,0
-280,421,0,0,0,0,0,0,0,0,0,-1,944,603,0,0
-273,421,0,0,0,0,0,0,0,0,0,-1,951,603,0,0
-266,421,0,0,0,0,0,0,0,0,0,-1,958,603,0,0
-259,421,0,0,0,0,0,0,0,0,0,-1,965,603,0,0
-252,421,0,0,0,0,0,0,0,0,0,-1,972,603,0,0
-245,421,0,0,0,0,0,0,0,0,0,-1,979,603,0,0
-238,421,0,0,0,0,0,0,0,0,0,-1,986,603,0,0
-231,421,0,0,0,0,0,0,0,0,0,-1,993,603,0,0
-224,421,0,0,0,0,0,0,0,0,0,-1,1000,603,0,0
-217,421,0,0,0,0,0,0,0,0,0,-1,1007,603,0,0
-210,421,0,0,0,0,0,0,0,0,0,-1,1014,603,0,0
-203,421,0,0,0,0,0,0,0,0,0,-1,1021,603,0,0
-196,421,0,0,0,0,0,0,0,0,0,-1,1028,603,0,0
-189,421,0,0,0,0,0,0,0,0,0,-1,1035,603,0,0
-182,421,0,0,0,0,0,0,0,0,0,-1,1042,603,0,0
-175,421,0,0,0,0,0,0,0,0,0,-1,1049,603,0,0
-168,421,0,0,0,0,0,0,0,0,0,-1,1056,603,0,0
-161,421,0,0,0,0,0,0,0,0,0,-1,1063,603,0,0
-154,421,0,0,0,0,0,0,0,0,0,-1,1070,603,0,0
-147,421,0,0,0,0,0,0,0,0,0,-1,1077,603,0,0
-140,421,0,0,0,0,0,0,0,0,0,-1,1084,603,0,0
-133,421,0,0,0,0,0,0,0,0,0,-1,1091,603,0,0
-126,421,0,0,0,0,0,0,0,0,0,-1,1098,603,0,0
-119,421,0,0,0,0,0,0,0,0,0,-1,1105,603,0,0
-112,421,0,0,0,0,0,0,0,0,0,-1,1112,603,0,0
-105,421,0,0,0,0,0,0,0,0,0,-1,1119,603,0,0
-98,421,0,0,0,0,0,0,0,0,0,-1,1126,603,0,0
-91,421,0,0,0,0,0,0,0,0,0,-1,1133,603,0,0
-84,421,0,0,0,0,0,0,0,0,0,-1,1140,603,0,0
-77,421,0,0,0,0,0,0,0,0,0,-1,1147,603,0,0
-70,421,0,0,0,0,0,0,0,0,0,-1,1154,603,0,0
-63,421,0,0,0,0,0,0,0,0,0,-1,1161,603,0,0
-56,421,0,0,0,0,0,0,0,0,0,-1,1168,603,0,0
-49,421,0,0,0,0,0,0,0,0,0,-1,1175,603,0,0
-42,421,0,0,0,0,0,0,0,0,0,-1,1182,603,0,0
-35,421,0,0,0,0,0,0,0,0,0,-1,1189,603,0,0
-28,421,0,0,0,0,0,0,0,0,0,-1,1196,603,0,0
-21,421,0,0,0,0,0,0,0,0,0,-1,1203,603,0,0
-14,421,0,0,0,0,0,0,0,0,0,-1,1210,603,0,0
-7,421,0,0,0,0,0,0,0,0,0,-1,1217,603,0,0
0,421,0,0,0,0,0,0,0,0,0,-1,1224,603,0,0
7,421,0,0,0,0,0,0,0,0,0,-1,1231,603,0,0
14,421,0,0,0,0,0,0,0,0,0,-1,1238,603,0,0
21,421,0,0,0,0,0,0,0,0,0,-1,1245,603,0,0
28,421,0,0,0,0,0,0,0,0,0,-1,1252,603,0,0
35,421,0,0,0,0,0,0,0,0,0,-1,1259,603,0,0
42,421,0,0,0,0,0,0,0,0,0,-1,1266,603,0,0
49,421,0,0,0,0,0,0,0,0,0,-1,1273,603,0,0
56,421,0,0,0,0,0,0,0,0,0,-1,1280,603,0,0
63,421,0,0,0,0,0,0,0,0,0,-1,1287,603,0,0
70,421,0,0,0,0,0,0,0,0,0,-1,1294,603,0,0
77,421,0,0,0,0,0,0,0,0,0,-1,1301,603,0,0
84,421,0,0,0,0,0,0,0,0,0,-1,1308,603,0,0
91,421,0,0,0,0,0,0,0,0,0,-1,1315,603,0,0
98,421,0,0,0,0,0,0,0,0,0,-1,1322,603,0,0
105,421,0,0,0,0,0,0,0,0,0,-1,1329,603,0,0
112,421,0,0,0,0,0,0,0,0,0,-1,1336,603,0,0
119,421,0,0,0,0,0,0,0,0,0,-1,1343,603,0,0
126,421,0,0,0,0,0,0,0,0,0,-1,1350,603,0,0
133,421,0,0,0,0,0,0,0,0,0,-1,1357,603,0,0
140,421,0,0,0,0,0,0,0,0,0,-1,1364,603,0,0
147,421,0,0,0,0,0,0,0,0,0,-1,1371,603,0,0
154,421,0,0,0,0,0,0,0,0,0,-1,1378,603,0,0
161,421,0,0,0,0,0,0,0,0,0,-1,1385,603,0,0
168,421,0,0,0,0,0,0,0,0,0,-1,1392,603,0,0
175,421,0,0,0,0,0,0,0,0,0,-1,1399,603,0,0
182,421,0,0,0,0,0,0,0,0,0,-1,1406,603,0,0
189,421,0,0,0,0,0,0,0,0,0,-1,1413,603,0,0
196,421,0,0,0,0,0,0,0,0,0,-1,1420,603,0,0
203,421,0,0,0,0,0,0,0,0,0,-1,1427,603,0,0
210,421,0,0,0,0,0,0,0,0,0,-1,1434,603,0,0
217,421,0,0,0,0,0,0,0,0,0,-1,1441,603,0,0
224,421,0,0,0,0,0,0,0,0,0,-1,1448,603,0,0
231,421,0,0,0,0,0,0,0,0,0,-1,1455,603,0,0
238,421,0,0,0,0,0,0,0,0,0,-1,1462,603,0,0
245,421,0,0,0,0,0,0,0,0,0,-1,1469,603,0,0
252,421,0,0,0,0,0,0,0,0,0,-1,1476,603,0,0
259,421,0,0,0,0,0,0,0,0,0,-1,1483,603,0,0
266,421,0,0,0,0,0,0,0,0,0,-1,1490,603,0,0
273,421,0,0,0,0,0,0,0,0,0,-1,1497,603,0,0
280,421,0,0,0,0,0,0,0,0,0,-1,1504,603,0,0
287,421,0,0,0,0,0,0,0,0,0,-1,1511,603,0,0
294,421,0,0,0,0,0,0,0,0,0,-1,1518,603,0,0
301,421,0,0,0,0,0,0,0,0,0,-1,1525,603,0,0
308,421,0,0,0,0,0,0,0,0,0,-1,1532,603,0,0
315,421,0,0,0,0,0,0,0,0,0,-1,1539,603,0,0
322,421,0,0,0,0,0,0,0,0,0,-1,1546,603,0,0
329,421,0,0,0,0,0,0,0,0,0,-1,1553,603,0,0
336,421,0,0,0,0,0,0,0,0,0,-1,1560,603,0,0
343,421,0,0,0,0,0,0,0,0,0,-1,1567,603,0,0
350,421,0,0,0,0,0,0,0,0,0,-1,1574,603,0,0
357,421,0,0,0,0,0,0,0,0,0,-1,1581,603,0,0
364,421,0,0,0,0,0,0,0,0,0,-1,1588,603,0,0
371,421,0,0,0,0,0,0,0,0,0,-1,1595,603,0,0
378,421,0,0,0,0,0,0,0,0,0,-1,1602,603,0,0
385,421,0,0,0,0,0,0,0,0,0,-1,1609,603,0,0
392,421,0,0,0,0,0,0,0,0,0,-1,1616,603,0,0
399,421,0,0,0,0,0,0,0,0,0,-1,1623,603,0,0
406,421,0,0,0,0,0,0,0,0,0,-1,1630,603,0,0
413,421,0,0,0,0,0,0,0,0,0,-1,1637,603,0,0
420,421,0,0,0,0,0,0,0,0,0,-1,1644,603,0,0
427,421,0,0,0,0,0,0,0,0,0,-1,1651,603,0,0
434,421,3.68176,-0.0327759,0,0,0,0,0,0,0,-1,1658,603,3.6818,0.0328037
441,421,8.06689,0.527832,0,0,0,0,0,0,0,-1,1665,603,8.06693,-0.527851
448,421,6.93921,0.802246,0,0,0,0,0,0,0,-1,1672,603,6.93923,-0.802251
455,421,7.29456,2.14825,0,0,0,0,0,0,0,-1,1679,603,7.29461,-2.14827
462,421,7.86902,3.53174,0,0,0,0,0,0,0,-1,1686,603,7.869,-3.53173
469,421,8.06604,2.81213,0,0,0,0,0,0,0,-1,1693,603,8.06606,-2.81212
476,421,8.26306,2.09253,0,0,0,0,0,0,0,-1,1700,603,8.26312,-2.09251
483,421,8.05322,0.798096,0,0,0,0,0,0,0,-1,1707,603,8.05323,-0.7981
490,421,7.51233,0.213074,0,0,0,0,0,0,0,-1,1714,603,7.51235,-0.213043
497,421,7.49634,-2.86688,0,0,0,0,0,0,0,-1,1721,603,7.4963,2.86688
504,421,6.90491,-2.18671,0,0,0,0,0,0,0,-1,1728,603,6.90491,2.18669
511,421,6.31348,-1.50653,0,0,0,0,0,0,0,-1,1735,603,6.31353,1.5065
518,421,6.27588,-2.49878,0,0,0,0,0,0,0,-1,1742,603,6.2759,2.4988
525,421,23.1206,-17.5782,0,0,0,0,0,0,0,-1,1749,603,23.1206,17.5782
532,421,23.1888,-16.5658,0.004566,0.00238847,0.00238011,0.00609455,0.000859923,0.570885,0.00380889,0.0446259,1756,603,23.1888,16.5658
539,421,23.2861,-15.8036,0.00383902,0.00213904,0.00193919,0.00510633,0.000871734,0.578849,0.00315406,0.0233792,1763,603,23.2861,15.8036
546,421,23.2469,-15.119,0.00315654,0.00183062,0.00157417,0.00420166,0.000785505,0.586096,0.00257945,0.0136755,1770,603,23.247,15.119
553,421,23.2172,-14.3812,0.00252406,0.00168431,0.00129948,0.00346981,0.000738556,0.629137,0.00211054,0.012241,1777,603,23.2172,14.3812
560,421,23.1964,-13.6384,0.00194675,0.00162406,0.00113568,0.00293249,0.000638318,0.714837,0.00178077,0.0149608,1784,603,23.1964,13.6384
567,421,23.1504,-12.9486,0.00152676,0.00173898,0.00114244,0.00278023,0.000485513,0.831704,0.00171471,0.0175377,1791,603,23.1504,12.9486
574,421,23.111,-12.2224,0.00127848,0.00199296,0.00127368,0.00295855,0.000312887,0.922124,0.00187678,0.0195766,1798,603,23.111,12.2223
581,421,23.0775,-11.4496,0.00121303,0.00240077,0.0015728,0.00348808,0.000125712,0.965917,0.00228464,0.0163888,1805,603,23.0775,11.4497
588,421,23.0311,-10.7761,0.00140033,0.00312205,0.00209025,0.00452178,6.08852e-07,0.980737,0.00301431,0.0122595,1812,603,23.0312,10.7761
595,421,23.0555,-10.019,0.00179082,0.00406009,0.00276235,0.00591175,-6.08386e-05,0.980267,0.0039616,0.0219459,1819,603,23.0556,10.0191
602,421,23.0198,-9.23279,0,0,0,0,0,0,0,-1,1826,603,23.0198,9.23281
609,421,22.8762,-8.37524,0,0,0,0,0,0,0,-1,1833,603,22.8762,8.37525
616,421,17.7633,-4.72491,0,0,0,0,0,0,0,-1,1840,603,17.7633,4.7249
623,421,6.19885,0.376648,0,0,0,0,0,0,0,-1,1847,603,6.19881,-0.376624
630,421,6.54993,0.778748,0,0,0,0,0,0,0,-1,1854,603,6.54991,-0.778744
637,421,3.74512,1.65405,0,0,0,0,0,0,0,-1,1861,603,3.74517,-1.65407
644,421,3.58081,0.354675,0,0,0,0,0,0,0,-1,1868,603,3.58082,-0.354704
651,421,3.28687,3.66351,0,0,0,0,0,0,0,-1,1875,603,3.28688,-3.66353
658,421,0,0,0,0,0,0,0,0,0,-1,1882,603,0,0
665,421,0,0,0,0,0,0,0,0,0,-1,1889,603,0,0
672,421,0,0,0,0,0,0,0,0,0,-1,1896,603,0,0
679,421,0,0,0,0,0,0,0,0,0,-1,1903,603,0,0
686,421,0,0,0,0,0,0,0,0,0,-1,1910,603,0,0
693,421,0,0,0,0,0,0,0,0,0,-1,1917,603,0,0
700,421,0,0,0,0,0,0,0,0,0,-1,1924,603,0,0
707,421,0,0,0,0,0,0,0,0,0,-1,1931,603,0,0
714,421,0,0,0,0,0,0,0,0,0,-1,1938,603,0,0
721,421,0,0,0,0,0,0,0,0,0,-1,1945,603,0,0
728,421,0,0,0,0,0,0,0,0,0,-1,1952,603,0,0
735,421,0,0,0,0,0,0,0,0,0,-1,1959,603,0,0
742,421,0,0,0,0,0,0,0,0,0,-1,1966,603,0,0
749,421,0,0,0,0,0,0,0,0,0,-1,1973,603,0,0
756,421,0,0,0,0,0,0,0,0,0,-1,1980,603,0,0
763,421,0,0,0,0,0,0,0,0,0,-1,1987,603,0,0
770,421,0,0,0,0,0,0,0,0,0,-1,1994,603,0,0
777,421,0,0,0,0,0,0,0,0,0,-1,2001,603,0,0
784,421,0,0,0,0,0,0,0,0,0,-1,2008,603,0,0
791,421,0,0,0,0,0,0,0,0,0,-1,2015,603,0,0
798,421,0,0,0,0,0,0,0,0,0,-1,2022,603,0,0
805,421,0,0,0,0,0,0,0,0,0,-1,2029,603,0,0
812,421,0,0,0,0,0,0,0,0,0,-1,2036,603,0,0
-700,414,0,0,0,0,0,0,0,0,0,-1,524,610,0,0
-693,414,0,0,0,0,0,0,0,0,0,-1,531,610,0,0
-686,414,0,0,0,0,0,0,0,0,0,-1,538,610,0,0
-679,414,0,0,0,0,0,0,0,0,0,-1,545,610,0,0
-672,414,0,0,0,0,0,0,0,0,0,-1,552,610,0,0
-665,414,0,0,0,0,0,0,0,0,0,-1,559,610,0,0
-658,414,0,0,0,0,0,0,0,0,0,-1,566,610,0,0
-651,414,0,0,0,0,0,0,0,0,0,-1,573,610,0,0
-644,414,0,0,0,0,0,0,0,0,0,-1,580,610,0,0
-637,414,0,0,0,0,0,0,0,0,0,-1,587,610,0,0
-630,414,0,0,0,0,0,0,0,0,0,-1,594,610,0,0
-623,414,0,0,0,0,0,0,0,0,0,-1,601,610,0,0
-616,414,0,0,0,0,0,0,0,0,0,-1,608,610,0,0
-609,414,0,0,0,0,0,0,0,0,0,-1,615,610,0,0
-602,414,0,0,0,0,0,0,0,0,0,-1,622,610,0,0
-595,414,0,0,0,0,0,0,0,0,0,-1,629,610,0,0
-588,414,0,0,0,0,0,0,0,0,0,-1,636,610,0,0
-581,414,0,0,0,0,0,0,0,0,0,-1,643,610,0,0
-574,414,0,0,0,0,0,0,0,0,0,-1,650,610,0,0
-567,414,0,0,0,0,0,0,0,0,0,-1,657,610,0,0
-560,414,0,0,0,0,0,0,0,0,0,-1,664,610,0,0
-553,414,0,0,0,0,0,0,0,0,0,-1,671,610,0,0
-546,414,0,0,0,0,0,0,0,0,0,-1,678,610,0,0
-539,414,-7.50146,5.65619,0,0,0,0,0,0,0,-1,685,610,-7.50149,-5.65617
-532,414,-8.15204,4.01605,0,0,0,0,0,0,0,-1,692,610,-8.15206,-4.01606
-525,414,-3.47137,-3.27924,0,0,0,0,0,0,0,-1,699,610,-3.47136,3.27922
-518,414,-4.12909,-4.36908,0,0,0,0,0,0,0,-1,706,610,-4.12909,4.36909
-511,414,-3.92542,-4.97021,0,0,0,0,0,0,0,-1,713,610,-3.92542,4.97023
-504,414,-9.35394,-5.49896,0,0,0,0,0,0,0,-1,720,610,-9.35394,5.49898
-497,414,-9.67627,-6.54761,0,0,0,0,0,0,0,-1,727,610,-9.6763,6.5476
-490,414,-10.9006,-8.3277,0,0,0,0,0,0,0,-1,734,610,-10.9006,8.3277
-483,414,-11.3271,-9.97382,0,0,0,0,0,0,0,-1,741,610,-11.3271,9.97384
-476,414,-11.4822,-10.665,0.000210214,0.00452292,-0.00224926,0.0054825,-0.000749361,-1.16756,0.00392868,0.0241863,748,610,-11.4823,10.665
-469,414,-11.5384,-11.3163,0.000339881,0.0036808,-0.00204936,0.00465426,-0.000633582,-1.12734,0.00333416,0.0149875,755,610,-11.5384,11.3163
-462,414,-11.5149,-12.0447,0.000515612,0.00286592,-0.00178622,0.00382889,-0.000447355,-1.07635,0.00271403,0.0245637,762,610,-11.5149,12.0447
-455,414,-11.5416,-12.7867,0.000592284,0.00203773,-0.00142658,0.00291421,-0.000284197,-1.01986,0.00204414,0.0261586,769,610,-11.5416,12.7868
-448,414,-11.5603,-13.4877,0.000682322,0.00117038,-0.00102788,0.0019828,-0.0001301,-0.901946,0.0013673,0.0257306,776,610,-11.5603,13.4878
-441,414,-11.579,-14.2112,0.000736147,0.000307461,-0.000577952,0.00113822,-9.46142e-05,-0.607827,0.000792238,0.0179787,783,610,-11.579,14.2112
-434,414,-11.6594,-14.8945,0.000777278,-0.000560631,-0.000104057,0.000785323,-0.000568676,-0.0771576,0.00078506,0.00963819,790,610,-11.6593,14.8945
-427,414,-11.6794,-15.5843,0.000819089,-0.00142761,0.000368364,0.000877944,-0.00148647,0.158433,0.00138008,0.0101363,797,610,-11.6795,15.5843
-420,414,-11.6919,-16.277,0.00086057,-0.00228502,0.000858388,0.00107957,-0.00250402,0.249795,0.00212277,0.0107413,804,610,-11.6919,16.2771
-413,414,-11.7461,-16.9805,0.00096398,-0.00299105,0.00128143,0.00134287,-0.00336994,0.287484,0.00280358,0.0113563,811,610,-11.7461,16.9805
-406,414,-11.7497,-17.7896,0.00107766,-0.0038604,0.00171677,0.00161585,-0.0043986,0.303789,0.0035942,0.0295249,818,610,-11.7497,17.7895
-399,414,-11.5983,-18.5038,0,0,0,0,0,0,0,-1,825,610,-11.5983,18.5038
-392,414,-9.43781,-14.5624,0,0,0,0,0,0,0,-1,832,610,-9.43779,14.5624
-385,414,-8.14691,-13.0653,0,0,0,0,0,0,0,-1,839,610,-8.14692,13.0653
-378,414,-8.04907,-11.3331,0,0,0,0,0,0,0,-1,846,610,-8.04905,11.3331
-371,414,-5.20886,-8.05151,0,0,0,0,0,0,0,-1,853,610,-5.20887,8.05153
-364,414,-6.76282,-6.58759,0,0,0,0,0,0,0,-1,860,610,-6.7628,6.58756
-357,414,-9.08685,-8.86188,0,0,0,0,0,0,0,-1,867,610,-9.08688,8.86187
-350,414,-6.4502,-2.41821,0,0,0,0,0,0,0,-1,874,610,-6.45021,2.41822
-343,414,-6.80249,-2.32117,0,0,0,0,0,0,0,-1,881,610,-6.80252,2.32116
-336,414,-7.11017,-2.52026,0,0,0,0,0,0,0,-1,888,610,-7.11016,2.52026
-329,414,-7.59747,-2.70313,0,0,0,0,0,0,0,-1,895,610,-7.59747,2.70315
-322,414,-4.42236,-1.29163,0,0,0,0,0,0,0,-1,902,610,-4.42238,1.2916
-315,414,0,0,0,0,0,0,0,0,0,-1,909,610,0,0
-308,414,0,0,0,0,0,0,0,0,0,-1,916,610,0,0
-301,414,0,0,0,0,0,0,0,0,0,-1,923,610,0,0
-294,414,0,0,0,0,0,0,0,0,0,-1,930,610,0,0
-287,414,0,0,0,0,0,0,0,0,0,-1,937,610,0,0
-280,414,0,0,0,0,0,0,0,0,0,-1,944,610,0,0
-273,414,0,0,0,0,0,0,0,0,0,-1,951,610,0,0
-266,414,0,0,0,0,0,0,0,0,0,-1,958,610,0,0
-259,414,0,0,0,0,0,0,0,0,0,-1,965,610,0,0
-252,414,0,0,0,0,0,0,0,0,0,-1,972,610,0,0
-245,414,0,0,0,0,0,0,0,0,0,-1,979,610,0,0
-238,414,0,0,0,0,0,0,0,0,0,-1,986,610,0,0
-231,414,0,0,0,0,0,0,0,0,0,-1,993,610,0,0
-224,414,0,0,0,0,0,0,0,0,0,-1,1000,610,0,0
-217,414,0,0,0,0,0,0,0,0,0,-1,1007,610,0,0
-210,414,0,0,0,0,0,0,0,0,0,-1,1014,610,0,0
-203,414,0,0,0,0,0,0,0,0,0,-1,1021,610,0,0
-196,414,0,0,0,0,0,0,0,0,0,-1,1028,610,0,0
-189,414,0,0,0,0,0,0,0,0,0,-1,1035,610,0,0
-182,414,0,0,0,0,0,0,0,0,0,-1,1042,610,0,0
-175,414,0,0,0,0,0,0,0,0,0,-1,1049,610,0,0
-168,414,0,0,0,0,0,0,0,0,0,-1,1056,610,0,0
-161,414,0,0,0,0,0,0,0,0,0,-1,1063,610,0,0
-154,414,0,0,0,0,0,0,0,0,0,-1,1070,610,0,0
-147,414,0,0,0,0,0,0,0,0,0,-1,1077,610,0,0
-140,414,0,0,0,0,0,0,0,0,0,-1,1084,610,0,0
-133,414,0,0,0,0,0,0,0,0,0,-1,1091,610,0,0
-126,414,0,0,0,0,0,0,0,0,0,-1,1098,610,0,0
-119,414,0,0,0,0,0,0,0,0,0,-1,1105,610,0,0
-112,414,0,0,0,0,0,0,0,0,0,-1,1112,610,0,0
-105,414,0,0,0,0,0,0,0,0,0,-1,1119,610,0,0
-98,414,0,0,0,0,0,0,0,0,0,-1,1126,610,0,0
-91,414,0,0,0,0,0,0,0,0,0,-1,1133,610,0,0
-84,414,0,0,0,0,0,0,0,0,0,-1,1140,610,0,0
-77,414,0,0,0,0,0,0,0,0,0,-1,1147,610,0,0
-70,414,0,0,0,0,0,0,0,0,0,-1,1154,610,0,0
-63,414,0,0,0,0,0,0,0,0,0,-1,1161,610,0,0
-56,414,0,0,0,0,0,0,0,0,0,-1,1168,610,0,0
-49,414,0,0,0,0,0,0,0,0,0,-1,1175,610,0,0
-42,414,0,0,0,0,0,0,0,0,0,-1,1182,610,0,0
-35,414,0,0,0,0,0,0,0,0,0,-1,1189,610,0,0
-28,414,0,0,0,0,0,0,0,0,0,-1,1196,610,0,0
-21,414,0,0,0,0,0,0,0,0,0,-1,1203,610,0,0
-14,414,0,0,0,0,0,0,0,0,0,-1,1210,610,0,0
-7,414,0,0,0,0,0,0,0,0,0,-1,1217,610,0,0
0,414,0,0,0,0,0,0,0,0,0,-1,1224,610,0,0
7,414,0,0,0,0,0,0,0,0,0,-1,1231,610,0,0
14,414,0,0,0,0,0,0,0,0,0,-1,1238,610,0,0
21,414,0,0,0,0,0,0,0,0,0,-1,1245,610,0,0
28,414,0,0,0,0,0,0,0,0,0,-1,1252,610,0,0
35,414,0,0,0,0,0,0,0,0,0,-1,1259,610,0,0
42,414,0,0,0,0,0,0,0,0,0,-1,1266,610,0,0
49,414,0,0,0,0,0,0,0,0,0,-1,1273,610,0,0
56,414,0,0,0,0,0,0,0,0,0,-1,1280,610,0,0
63,414,0,0,0,0,0,0,0,0,0,-1,1287,610,0,0
70,414,0,0,0,0,0,0,0,0,0,-1,1294,610,0,0
77,414,0,0,0,0,0,0,0,0,0,-1,1301,610,0,0
84,414,0,0,0,0,0,0,0,0,0,-1,1308,610,0,0
91,414,0,0,0,0,0,0,0,0,0,-1,1315,610,0,0
98,414,0,0,0,0,0,0,0,0,0,-1,1322,610,0,0
105,414,0,0,0,0,0,0,0,0,0,-1,1329,610,0,0
112,414,0,0,0,0,0,0,0,0,0,-1,1336,610,0,0
119,414,0,0,0,0,0,0,0,0,0,-1,1343,610,0,0
126,414,0,0,0,0,0,0,0,0,0,-1,1350,610,0,0
133,414,0,0,0,0,0,0,0,0,0,-1,1357,610,0,0
140,414,0,0,0,0,0,0,0,0,0,-1,1364,610,0,0
147,414,0,0,0,0,0,0,0,0,0,-1,1371,610,0,0
154,414,0,0,0,0,0,0,0,0,0,-1,1378,610,0,0
161,414,0,0,0,0,0,0,0,0,0,-1,1385,610,0,0
168,414,0,0,0,0,0,0,0,0,0,-1,1392,610,0,0
175,414,0,0,0,0,0,0,0,0,0,-1,1399,610,0,0
182,414,0,0,0,0,0,0,0,0,0,-1,1406,610,0,0
189,414,0,0,0,0,0,0,0,0,0,-1,1413,610,0,0
196,414,0,0,0,0,0,0,0,0,0,-1,1420,610,0,0
203,414,0,0,0,0,0,0,0,0,0,-1,1427,610,0,0
210,414,0,0,0,0,0,0,0,0,0,-1,1434,610,0,0
217,414,0,0,0,0,0,0,0,0,0,-1,1441,610,0,0
224,414,0,0,0,0,0,0,0,0,0,-1,1448,610,0,0
231,414,0,0,0,0,0,0,0,0,0,-1,1455,610,0,0
238,414,0,0,0,0,0,0,0,0,0,-1,1462,610,0,0
245,414,0,0,0,0,0,0,0,0,0,-1,1469,610,0,0
252,414,0,0,0,0,0,0,0,0,0,-1,1476,610,0,0
259,414,0,0,0,0,0,0,0,0,0,-1,1483,610,0,0
266,414,0,0,0,0,0,0,0,0,0,-1,1490,610,0,0
273,414,0,0,0,0,0,0,0,0,0,-1,1497,610,0,0
280,414,0,0,0,0,0,0,0,0,0,-1,1504,610,0,0
287,414,0,0,0,0,0,0,0,0,0,-1,1511,610,0,0
294,414,0,0,0,0,0,0,0,0,0,-1,1518,610,0,0
301,414,0,0,0,0,0,0,0,0,0,-1,1525,610,0,0
308,414,0,0,0,0,0,0,0,0,0,-1,1532,610,0,0
315,414,0,0,0,0,0,0,0,0,0,-1,1539,610,0,0
322,414,0,0,0,0,0,0,0,0,0,-1,1546,610,0,0
329,414,0,0,0,0,0,0,0,0,0,-1,1553,610,0,0
336,414,0,0,0,0,0,0,0,0,0,-1,1560,610,0,0
343,414,0,0,0,0,0,0,0,0,0,-1,1567,610,0,0
350,414,0,0,0,0,0,0,0,0,0,-1,1574,610,0,0
357,414,0,0,0,0,0,0,0,0,0,-1,1581,610,0,0
364,414,0,0,0,0,0,0,0,0,0,-1,1588,610,0,0
371,414,0,0,0,0,0,0,0,0,0,-1,1595,610,0,0
378,414,0,0,0,0,0,0,0,0,0,-1,1602,610,0,0
385,414,0,0,0,0,0,0,0,0,0,-1,1609,610,0,0
392,414,0,0,0,0,0,0,0,0,0,-1,1616,610,0,0
399,414,0,0,0,0,0,0,0,0,0,-1,1623,610,0,0
406,414,0,0,0,0,0,0,0,0,0,-1,1630,610,0,0
413,414,0,0,0,0,0,0,0,0,0,-1,1637,610,0,0
420,414,0,0,0,0,0,0,0,0,0,-1,1644,610,0,0
427,414,0,0,0,0,0,0,0,0,0,-1,1651,610,0,0
434,414,0,0,0,0,0,0,0,0,0,-1,1658,610,0,0
441,414,7.84375,0.584412,0,0,0,0,0,0,0,-1,1665,610,7.84379,-0.584394
448,414,7.40808,1.25446,0,0,0,0,0,0,0,-1,1672,610,7.40807,-1.25446
455,414,6.3512,1.73846,0,0,0,0,0,0,0,-1,1679,610,6.3512,-1.73847
462,414,8.18103,3.22113,0,0,0,0,0,0,0,-1,1686,610,8.18108,-3.22112
469,414,8.38513,2.49579,0,0,0,0,0,0,0,-1,1693,610,8.38516,-2.49576
476,414,8.64099,1.71161,0,0,0,0,0,0,0,-1,1700,610,8.64097,-1.71164
483,414,8.62744,0.687622,0,0,0,0,0,0,0,-1,1707,610,8.62749,-0.687615
490,414,8.38831,-0.0302734,0,0,0,0,0,0,0,-1,1714,610,8.38835,0.0302913
497,414,4.71094,-0.110046,0,0,0,0,0,0,0,-1,1721,610,4.71089,0.110024
504,414,7.19568,-1.43835,0,0,0,0,0,0,0,-1,1728,610,7.19563,1.43836
511,414,5.94153,-1.28772,0,0,0,0,0,0,0,-1,1735,610,5.94151,1.28769
518,414,4.53381,-0.0996704,0,0,0,0,0,0,0,-1,1742,610,4.53378,0.0996819
525,414,6.18811,-1.64056,0,0,0,0,0,0,0,-1,1749,610,6.18814,1.64055
532,414,23.8948,-16.8071,0,0,0,0,0,0,0,-1,1756,610,23.8948,16.8071
539,414,24.0111,-15.8185,0,0,0,0,0,0,0,-1,1763,610,24.0111,15.8185
546,414,23.9545,-15.0627,0.00377366,0.00210352,0.00182903,0.00494923,0.000927945,0.571248,0.00303779,0.015917,1770,610,23.9544,15.0627
553,414,23.9526,-14.3427,0.00297871,0.00182179,0.00142588,0.003939,0.0008615,0.592699,0.00239114,0.0134042,1777,610,23.9527,14.3427
560,414,23.926,-13.6144,0.00226944,0.00164057,0.00114941,0.00314664,0.000763363,0.651884,0.00189526,0.0157081,1784,610,23.926,13.6144
567,414,23.8838,-12.8945,0.0017361,0.00161916,0.00104654,0.0027258,0.000629461,0.757494,0.00164795,0.025321,1791,610,23.8838,12.8945
574,414,23.8269,-12.1964,0.00142075,0.00176917,0.00110079,0.00270945,0.000480475,0.863876,0.00166935,0.0229725,1798,610,23.8269,12.1964
581,414,23.8156,-11.4482,0.00128921,0.00207309,0.00130855,0.00304713,0.000315165,0.930907,0.00193494,0.016691,1805,610,23.8155,11.4482
588,414,23.7617,-10.7403,0.00139749,0.00268943,0.00172803,0.00388828,0.000198644,0.964265,0.00252857,0.0158835,1812,610,23.7618,10.7403
595,414,23.7374,-9.95459,0.00174801,0.0035344,0.0023363,0.00514242,0.000139983,0.96798,0.00338259,0.0217941,1819,610,23.7374,9.95458
602,414,23.6853,-9.20892,0.00236973,0.00470063,0.00314195,0.00688632,0.000184041,0.962998,0.00453078,0.0256925,1826,610,23.6853,9.20891
609,414,23.6635,-8.51721,0,0,0,0,0,0,0,-1,1833,610,23.6634,8.51724
616,414,23.9224,-7.50909,0,0,0,0,0,0,0,-1,1840,610,23.9224,7.50907
623,414,9.6969,0.0378418,0,0,0,0,0,0,0,-1,1847,610,9.69685,-0.0378644
630,414,5.47144,0.499329,0,0,0,0,0,0,0,-1,1854,610,5.47142,-0.499303
637,414,8.36707,4.16278,0,0,0,0,0,0,0,-1,1861,610,8.36709,-4.16278
644,414,5.87073,1.51422,0,0,0,0,0,0,0,-1,1868,610,5.87076,-1.51424
651,414,3.6377,0.820557,0,0,0,0,0,0,0,-1,1875,610,3.6377,-0.820543
658,414,2.29761,3.87323,0,0,0,0,0,0,0,-1,1882,610,2.29758,-3.87325
665,414,0,0,0,0,0,0,0,0,0,-1,1889,610,0,0
672,414,0,0,0,0,0,0,0,0,0,-1,1896,610,0,0
679,414,0,0,0,0,0,0,0,0,0,-1,1903,610,0,0
686,414,0,0,0,0,0,0,0,0,0,-1,1910,610,0,0
693,414,0,0,0,0,0,0,0,0,0,-1,1917,610,0,0
700,414,0,0,0,0,0,0,0,0,0,-1,1924,610,0,0
707,414,0,0,0,0,0,0,0,0,0,-1,1931,610,0,0
714,414,0,0,0,0,0,0,0,0,0,-1,1938,610,0,0
721,414,0,0,0,0,0,0,0,0,0,-1,1945,610,0,0
728,414,0,0,0,0,0,0,0,0,0,-1,1952,610,0,0
735,414,0,0,0,0,0,0,0,0,0,-1,1959,610,0,0
742,414,0,0,0,0,0,0,0,0,0,-1,1966,610,0,0
749,414,0,0,0,0,0,0,0,0,0,-1,1973,610,0,0
756,414,0,0,0,0,0,0,0,0,0,-1,1980,610,0,0
763,414,0,0,0,0,0,0,0,0,0,-1,1987,610,0,0
770,414,0,0,0,0,0,0,0,0,0,-1,1994,610,0,0
777,414,0,0,0,0,0,0,0,0,0,-1,2001,610,0,0
784,414,0,0,0,0,0,0,0,0,0,-1,2008,610,0,0
791,414,0,0,0,0,0,0,0,0,0,-1,2015,610,0,0
798,414,0,0,0,0,0,0,0,0,0,-1,2022,610,0,0
805,414,0,0,0,0,0,0,0,0,0,-1,2029,610,0,0
812,414,0,0,0,0,0,0,0,0,0,-1,2036,610,0,0
-700,407,0,0,0,0,0,0,0,0,0,-1,524,617,0,0
-693,407,0,0,0,0,0,0,0,0,0,-1,531,617,0,0
-686,407,0,0,0,0,0,0,0,0,0,-1,538,617,0,0
-679,407,0,0,0,0,0,0,0,0,0,-1,545,617,0,0
-672,407,0,0,0,0,0,0,0,0,0,-1,552,617,0,0
-665,407,0,0,0,0,0,0,0,0,0,-1,559,617,0,0
-658,407,0,0,0,0,0,0,0,0,0,-1,566,617,0,0
-651,407,0,0,0,0,0,0,0,0,0,-1,573,617,0,0
-644,407,0,0,0,0,0,0,0,0,0,-1,580,617,0,0
-637,407,0,0,0,0,0,0,0,0,0,-1,587,617,0,0
-630,407,0,0,0,0,0,0,0,0,0,-1,594,617,0,0
-623,407,0,0,0,0,0,0,0,0,0,-1,601,617,0,0
-616,407,0,0,0,0,0,0,0,0,0,-1,608,617,0,0
-609,407,0,0,0,0,0,0,0,0,0,-1,615,617,0,0
-602,407,0,0,0,0,0,0,0,0,0,-1,622,617,0,0
-595,407,0,0,0,0,0,0,0,0,0,-1,629,617,0,0
-588,407,0,0,0,0,0,0,0,0,0,-1,636,617,0,0
-581,407,0,0,0,0,0,0,0,0,0,-1,643,617,0,0
-574,407,0,0,0,0,0,0,0,0,0,-1,650,617,0,0
-567,407,0,0,0,0,0,0,0,0,0,-1,657,617,0,0
-560,407,0,0,0,0,0,0,0,0,0,-1,664,617,0,0
-553,407,0,0,0,0,0,0,0,0,0,-1,671,617,0,0
-546,407,-8.54517,-0.658142,0,0,0,0,0,0,0,-1,678,617,-8.54515,0.658112
-539,407,-6.09442,-1.01154,0,0,0,0,0,0,0,-1,685,617,-6.09441,1.01155
-532,407,-7.75665,1.62152,0,0,0,0,0,0,0,-1,692,617,-7.75667,-1.62154
-525,407,-3.78247,-2.67639,0,0,0,0,0,0,0,-1,699,617,-3.78246,2.67638
-518,407,-5.013,-5.87323,0,0,0,0,0,0,0,-1,706,617,-5.013,5.87324
-511,407,-9.42743,-4.94189,0,0,0,0,0,0,0,-1,713,617,-9.42745,4.94191
-504,407,-10.8291,-8.05927,0,0,0,0,0,0,0,-1,720,617,-10.8291,8.05927
-497,407,-9.84467,-6.81641,0,0,0,0,0,0,0,-1,727,617,-9.84468,6.8164
-490,407,-12.4349,-9.1731,0,0,0,0,0,0,0,-1,734,617,-12.4349,9.17311
-483,407,-12.0948,-9.82953,0,0,0,0,0,0,0,-1,741,617,-12.0948,9.82952
-476,407,-12.1501,-10.5627,0.000348016,0.00321042,-0.00165985,0.0039709,-0.000412457,-1.14118,0.00279491,0.016243,748,617,-12.1501,10.5628
-469,407,-12.2098,-11.2535,0.000487262,0.00258724,-0.00151921,0.00338399,-0.000309496,-1.08778,0.00236592,0.0132269,755,617,-12.2098,11.2535
-462,407,-12.2289,-12.0106,0.000639676,0.0019422,-0.00130631,0.00275059,-0.00016871,-1.01664,0.00189247,0.0211489,762,617,-12.2289,12.0106
-455,407,-12.2463,-12.7701,0.000721575,0.00121562,-0.00100561,0.0020041,-6.69102e-05,-0.905836,0.00135892,0.0227007,769,617,-12.2463,12.7701
-448,407,-12.2535,-13.4641,0.000840531,0.000475805,-0.000683171,0.00136526,-4.89237e-05,-0.654971,0.000926911,0.0196238,776,617,-12.2535,13.4641
-441,407,-12.305,-14.1235,0.000906374,-0.000312966,-0.000283534,0.00096908,-0.000375672,-0.217654,0.000801194,0.0151985,783,617,-12.305,14.1235
-434,407,-12.3755,-14.808,0.000950315,-0.00114707,0.000161556,0.000962686,-0.00115944,0.0764264,0.00122697,0.0107406,790,617,-12.3755,14.808
-427,407,-12.3984,-15.5209,0.000965862,-0.00204284,0.000633509,0.00109381,-0.00217079,0.199289,0.0019187,0.0114175,797,617,-12.3984,15.5209
-420,407,-12.3782,-16.225,0.00091193,-0.00304361,0.00120771,0.00125152,-0.00338319,0.274105,0.00276859,0.0121639,804,617,-12.3782,16.225
-413,407,-12.3982,-16.9124,0.000966304,-0.00381997,0.00166296,0.00148736,-0.00434103,0.303643,0.00349689,0.0161912,811,617,-12.3982,16.9124
-406,407,-12.5336,-17.4228,0.000961207,-0.00495945,0.00220545,0.00169243,-0.00569068,0.320147,0.00446613,0.0480538,818,617,-12.5336,17.4228
-399,407,-12.3859,-17.9554,0,0,0,0,0,0,0,-1,825,617,-12.3859,17.9554
-392,407,-8.33612,-12.195,0,0,0,0,0,0,0,-1,832,617,-8.33611,12.195
-385,407,-7.65765,-10.7744,0,0,0,0,0,0,0,-1,839,617,-7.65767,10.7744
-378,407,-6.08655,-7.42291,0,0,0,0,0,0,0,-1,846,617,-6.08652,7.42292
-371,407,-7.4007,-5.79449,0,0,0,0,0,0,0,-1,853,617,-7.40072,5.79447
-364,407,-10.0638,-6.6228,0,0,0,0,0,0,0,-1,860,617,-10.0639,6.62279
-357,407,-6.64447,-1.83337,0,0,0,0,0,0,0,-1,867,617,-6.64446,1.8334
-350,407,-7.03351,-1.77551,0,0,0,0,0,0,0,-1,874,617,-7.03349,1.77551
-343,407,-7.40967,-1.95026,0,0,0,0,0,0,0,-1,881,617,-7.40969,1.95026
-336,407,-8.10229,-2.40662,0,0,0,0,0,0,0,-1,888,617,-8.10229,2.40664
-329,407,-8.81232,-2.76331,0,0,0,0,0,0,0,-1,895,617,-8.81235,2.76331
-322,407,0,0,0,0,0,0,0,0,0,-1,902,617,0,0
-315,407,0,0,0,0,0,0,0,0,0,-1,909,617,0,0
-308,407,0,0,0,0,0,0,0,0,0,-1,916,617,0,0
-301,407,0,0,0,0,0,0,0,0,0,-1,923,617,0,0
-294,407,0,0,0,0,0,0,0,0,0,-1,930,617,0,0
-287,407,0,0,0,0,0,0,0,0,0,-1,937,617,0,0
-280,407,0,0,0,0,0,0,0,0,0,-1,944,617,0,0
-273,407,0,0,0,0,0,0,0,0,0,-1,951,617,0,0
-266,407,0,0,0,0,0,0,0,0,0,-1,958,617,0,0
-259,407,0,0,0,0,0,0,0,0,0,-1,965,617,0,0
-252,407,0,0,0,0,0,0,0,0,0,-1,972,617,0,0
-245,407,0,0,0,0,0,0,0,0,0,-1,979,617,0,0
-238,407,0,0,0,0,0,0,0,0,0,-1,986,617,0,0
-231,407,0,0,0,0,0,0,0,0,0,-1,993,617,0,0
-224,407,0,0,0,0,0,0,0,0,0,-1,1000,617,0,0
-217,407,0,0,0,0,0,0,0,0,0,-1,1007,617,0,0
-210,407,0,0,0,0,0,0,0,0,0,-1,1014,617,0,0
-203,407,0,0,0,0,0,0,0,0,0,-1,1021,617,0,0
-196,407,0,0,0,0,0,0,0,0,0,-1,1028,617,0,0
-189,407,0,0,0,0,0,0,0,0,0,-1,1035,617,0,0
-182,407,0,0,0,0,0,0,0,0,0,-1,1042,617,0,0
-175,407,0,0,0,0,0,0,0,0,0,-1,1049,617,0,0
-168,407,0,0,0,0,0,0,0,0,0,-1,1056,617,0,0
-161,407,0,0,0,0,0,0,0,0,0,-1,1063,617,0,0
-154,407,0,0,0,0,0,0,0,0,0,-1,1070,617,0,0
-147,407,0,0,0,0,0,0,0,0,0,-1,1077,617,0,0
-140,407,0,0,0,0,0,0,0,0,0,-1,1084,617,0,0
-133,407,0,0,0,0,0,0,0,0,0,-1,1091,617,0,0
-126,407,0,0,0,0,0,0,0,0,0,-1,1098,617,0,0
-119,407,0,0,0,0,0,0,0,0,0,-1,1105,617,0,0
-112,407,0,0,0,0,0,0,0,0,0,-1,1112,617,0,0
-105,407,0,0,0,0,0,0,0,0,0,-1,1119,617,0,0
-98,407,0,0,0,0,0,0,0,0,0,-1,1126,617,0,0
-91,407,0,0,0,0,0,0,0,0,0,-1,1133,617,0,0
-84,407,0,0,0,0,0,0,0,0,0,-1,1140,617,0,0
-77,407,0,0,0,0,0,0,0,0,0,-1,1147,617,0,0
-70,407,0,0,0,0,0,0,0,0,0,-1,1154,617,0,0
-63,407,0,0,0,0,0,0,0,0,0,-1,1161,617,0,0
-56,407,0,0,0,0,0,0,0,0,0,-1,1168,617,0,0
-49,407,0,0,0,0,0,0,0,0,0,-1,1175,617,0,0
-42,407,0,0,0,0,0,0,0,0,0,-1,1182,617,0,0
-35,407,0,0,0,0,0,0,0,0,0,-1,1189,617,0,0
-28,407,0,0,0,0,0,0,0,0,0,-1,1196,617,0,0
-21,407,0,0,0,0,0,0,0,0,0,-1,1203,617,0,0
-14,407,0,0,0,0,0,0,0,0,0,-1,1210,617,0,0
-7,407,0,0,0,0,0,0,0,0,0,-1,1217,617,0,0
0,407,0,0,0,0,0,0,0,0,0,-1,1224,617,0,0
7,407,0,0,0,0,0,0,0,0,0,-1,1231,617,0,0
14,407,0,0,0,0,0,0,0,0,0,-1,1238,617,0,0
21,407,0,0,0,0,0,0,0,0,0,-1,1245,617,0,0
28,407,0,0,0,0,0,0,0,0,0,-1,1252,617,0,0
35,407,0,0,0,0,0,0,0,0,0,-1,1259,617,0,0
42,407,0,0,0,0,0,0,0,0,0,-1,1266,617,0,0
49,407,0,0,0,0,0,0,0,0,0,-1,1273,617,0,0
56,407,0,0,0,0,0,0,0,0,0,-1,1280,617,0,0
63,407,0,0,0,0,0,0,0,0,0,-1,1287,617,0,0
70,407,0,0,0,0,0,0,0,0,0,-1,1294,617,0,0
77,407,0,0,0,0,0,0,0,0,0,-1,1301,617,0,0
84,407,0,0,0,0,0,0,0,0,0,-1,1308,617,0,0
91,407,0,0,0,0,0,0,0,0,0,-1,1315,617,0,0
98,407,0,0,0,0,0,0,0,0,0,-1,1322,617,0,0
105,407,0,0,0,0,0,0,0,0,0,-1,1329,617,0,0
112,407,0,0,0,0,0,0,0,0,0,-1,1336,617,0,0
119,407,0,0,0,0,0,0,0,0,0,-1,1343,617,0,0
126,407,0,0,0,0,0,0,0,0,0,-1,1350,617,0,0
133,407,0,0,0,0,0,0,0,0,0,-1,1357,617,0,0
140,407,0,0,0,0,0,0,0,0,0,-1,1364,617,0,0
147,407,0,0,0,0,0,0,0,0,0,-1,1371,617,0,0
154,407,0,0,0,0,0,0,0,0,0,-1,1378,617,0,0
161,407,0,0,0,0,0,0,0,0,0,-1,1385,617,0,0
168,407,0,0,0,0,0,0,0,0,0,-1,1392,617,0,0
175,407,0,0,0,0,0,0,0,0,0,-1,1399,617,0,0
182,407,0,0,0,0,0,0,0,0,0,-1,1406,617,0,0
189,407,0,0,0,0,0,0,0,0,0,-1,1413,617,0,0
196,407,0,0,0,0,0,0,0,0,0,-1,1420,617,0,0
203,407,0,0,0,0,0,0,0,0,0,-1,1427,617,0,0
210,407,0,0,0,0,0,0,0,0,0,-1,1434,617,0,0
217,407,0,0,0,0,0,0,0,0,0,-1,1441,617,0,0
224,407,0,0,0,0,0,0,0,0,0,-1,1448,617,0,0
231,407,0,0,0,0,0,0,0,0,0,-1,1455,617,0,0
238,407,0,0,0,0,0,0,0,0,0,-1,1462,617,0,0
245,407,0,0,0,0,0,0,0,0,0,-1,1469,617,0,0
252,407,0,0,0,0,0,0,0,0,0,-1,1476,617,0,0
259,407,0,0,0,0,0,0,0,0,0,-1,1483,617,0,0
266,407,0,0,0,0,0,0,0,0,0,-1,1490,617,0,0
273,407,0,0,0,0,0,0,0,0,0,-1,1497,617,0,0
280,407,0,0,0,0,0,0,0,0,0,-1,1504,617,0,0
287,407,0,0,0,0,0,0,0,0,0,-1,1511,617,0,0
294,407,0,0,0,0,0,0,0,0,0,-1,1518,617,0,0
301,407,0,0,0,0,0,0,0,0,0,-1,1525,617,0,0
308,407,0,0,0,0,0,0,0,0,0,-1,1532,617,0,0
315,407,0,0,0,0,0,0,0,0,0,-1,1539,617,0,0
322,407,0,0,0,0,0,0,0,0,0,-1,1546,617,0,0
329,407,0,0,0,0,0,0,0,0,0,-1,1553,617,0,0
336,407,0,0,0,0,0,0,0,0,0,-1,1560,617,0,0
343,407,0,0,0,0,0,0,0,0,0,-1,1567,617,0,0
350,407,0,0,0,0,0,0,0,0,0,-1,1574,617,0,0
357,407,0,0,0,0,0,0,0,0,0,-1,1581,617,0,0
364,407,0,0,0,0,0,0,0,0,0,-1,1588,617,0,0
371,407,0,0,0,0,0,0,0,0,0,-1,1595,617,0,0
378,407,0,0,0,0,0,0,0,0,0,-1,1602,617,0,0
385,407,0,0,0,0,0,0,0,0,0,-1,1609,617,0,0
392,407,0,0,0,0,0,0,0,0,0,-1,1616,617,0,0
399,407,0,0,0,0,0,0,0,0,0,-1,1623,617,0,0
406,407,0,0,0,0,0,0,0,0,0,-1,1630,617,0,0
413,407,0,0,0,0,0,0,0,0,0,-1,1637,617,0,0
420,407,0,0,0,0,0,0,0,0,0,-1,1644,617,0,0
427,407,0,0,0,0,0,0,0,0,0,-1,1651,617,0,0
434,407,0,0,0,0,0,0,0,0,0,-1,1658,617,0,0
441,407,0,0,0,0,0,0,0,0,0,-1,1665,617,0,0
448,407,7.02893,2.13843,0,0,0,0,0,0,0,-1,1672,617,7.02899,-2.13844
455,407,7.55237,2.29242,0,0,0,0,0,0,0,-1,1679,617,7.55236,-2.29244
462,407,8.2926,2.46173,0,0,0,0,0,0,0,-1,1686,617,8.29261,-2.46174
469,407,8.71509,2.22681,0,0,0,0,0,0,0,-1,1693,617,8.71511,-2.22681
476,407,8.89917,1.47766,0,0,0,0,0,0,0,-1,1700,617,8.89914,-1.47768
483,407,9.02612,0.682983,0,0,0,0,0,0,0,-1,1707,617,9.02608,-0.683004
490,407,9.12659,0.000671387,0,0,0,0,0,0,0,-1,1714,617,9.12653,-0.000675931
497,407,7.76819,0.855835,0,0,0,0,0,0,0,-1,1721,617,7.7682,-0.855865
504,407,4.69336,0.160706,0,0,0,0,0,0,0,-1,1728,617,4.69337,-0.1607
511,407,4.07104,-0.00140381,0,0,0,0,0,0,0,-1,1735,617,4.07109,0.00141425
518,407,6.09534,1.9411,0,0,0,0,0,0,0,-1,1742,617,6.09532,-1.94113
525,407,5.72534,-1.35986,0,0,0,0,0,0,0,-1,1749,617,5.72529,1.35988
532,407,18.5767,-10.6388,0,0,0,0,0,0,0,-1,1756,617,18.5766,10.6388
539,407,24.6281,-15.7901,0,0,0,0,0,0,0,-1,1763,617,24.6281,15.7901
546,407,24.6625,-15.0417,0.0042332,0.0025722,0.00215057,0.00570806,0.00109735,0.601131,0.00349745,0.024128,1770,617,24.6625,15.0417
553,407,24.6494,-14.3185,0.00332339,0.00208283,0.00160385,0.00442273,0.000983496,0.600884,0.00268146,0.0162502,1777,617,24.6494,14.3185
560,407,24.6488,-13.5662,0.00253784,0.00173773,0.00120048,0.00340317,0.000872401,0.624562,0.0020411,0.0171362,1784,617,24.6488,13.5662
567,407,24.6449,-12.8042,0.00192924,0.00153494,0.000974393,0.00272623,0.000737956,0.68558,0.00162823,0.0303222,1791,617,24.6449,12.8042
574,407,24.5831,-12.1294,0.00157293,0.00155973,0.000952202,0.00251856,0.000614107,0.781933,0.00151637,0.0279735,1798,617,24.5831,12.1294
581,407,24.5411,-11.425,0.00139546,0.00176409,0.00108365,0.00267899,0.000480569,0.869636,0.00164931,0.0184761,1805,617,24.5412,11.425
588,407,24.4758,-10.6893,0.00144826,0.00228361,0.00142798,0.00335374,0.000378122,0.927677,0.00212105,0.013557,1812,617,24.4758,10.6893
595,407,24.4844,-9.97949,0.00179195,0.00303751,0.00199207,0.00450188,0.000327574,0.936899,0.00289824,0.0261403,1819,617,24.4844,9.97948
602,407,24.4578,-9.20258,0.00246628,0.00408562,0.00277925,0.00617074,0.000381158,0.927139,0.00399285,0.0203577,1826,617,24.4577,9.20259
609,407,24.3595,-8.42346,0.00351189,0.005485,0.00385227,0.00847503,0.000521858,0.910752,0.00548435,0.0186644,1833,617,24.3595,8.42345
616,407,24.4022,-7.56879,0.00496901,0.00750265,0.00522256,0.0116098,0.000861823,0.904384,0.00746921,0.0330566,1840,617,24.4022,7.56879
623,407,24.7052,-6.60699,0,0,0,0,0,0,0,-1,1847,617,24.7052,6.60698
630,407,7.06177,0.814575,0,0,0,0,0,0,0,-1,1854,617,7.06178,-0.814579
637,407,9.76819,-0.110657,0,0,0,0,0,0,0,-1,1861,617,9.76814,0.11064
644,407,5.09766,2.27747,0,0,0,0,0,0,0,-1,1868,617,5.09764,-2.27746
651,407,7.37524,0.0513916,0,0,0,0,0,0,0,-1,1875,617,7.3752,-0.0513923
658,407,3.76685,0.594177,0,0,0,0,0,0,0,-1,1882,617,3.76683,-0.594184
665,407,5.76123,0.375061,0,0,0,0,0,0,0,-1,1889,617,5.76118,-0.37509
672,407,0,0,0,0,0,0,0,0,0,-1,1896,617,0,0
679,407,0,0,0,0,0,0,0,0,0,-1,1903,617,0,0
686,407,0,0,0,0,0,0,0,0,0,-1,1910,617,0,0
693,407,0,0,0,0,0,0,0,0,0,-1,1917,617,0,0
700,407,0,0,0,0,0,0,0,0,0,-1,1924,617,0,0
707,407,0,0,0,0,0,0,0,0,0,-1,1931,617,0,0
714,407,0,0,0,0,0,0,0,0,0,-1,1938,617,0,0
721,407,0,0,0,0,0,0,0,0,0,-1,1945,617,0,0
728,407,0,0,0,0,0,0,0,0,0,-1,1952,617,0,0
735,407,0,0,0,0,0,0,0,0,0,-1,1959,617,0,0
742,407,0,0,0,0,0,0,0,0,0,-1,1966,617,0,0
749,407,0,0,0,0,0,0,0,0,0,-1,1973,617,0,0
756,407,0,0,0,0,0,0,0,0,0,-1,1980,617,0,0
763,407,0,0,0,0,0,0,0,0,0,-1,1987,617,0,0
770,407,0,0,0,0,0,0,0,0,0,-1,1994,617,0,0
777,407,0,0,0,0,0,0,0,0,0,-1,2001,617,0,0
784,407,0,0,0,0,0,0,0,0,0,-1,2008,617,0,0
791,407,0,0,0,0,0,0,0,0,0,-1,2015,617,0,0
798,407,0,0,0,0,0,0,0,0,0,-1,2022,617,0,0
805,407,0,0,0,0,0,0,0,0,0,-1,2029,617,0,0
812,407,0,0,0,0,0,0,0,0,0,-1,2036,617,0,0
-700,400,0,0,0,0,0,0,0,0,0,-1,524,624,0,0
-693,400,0,0,0,0,0,0,0,0,0,-1,531,624,0,0
-686,400,0,0,0,0,0,0,0,0,0,-1,538,624,0,0
-679,400,0,0,0,0,0,0,0,0,0,-1,545,624,0,0
-672,400,0,0,0,0,0,0,0,0,0,-1,552,624,0,0
-665,400,0,0,0,0,0,0,0,0,0,-1,559,624,0,0
-658,400,0,0,0,0,0,0,0,0,0,-1,566,624,0,0
-651,400,0,0,0,0,0,0,0,0,0,-1,573,624,0,0
-644,400,0,0,0,0,0,0,0,0,0,-1,580,624,0,0
-637,400,0,0,0,0,0,0,0,0,0,-1,587,624,0,0
-630,400,0,0,0,0,0,0,0,0,0,-1,594,624,0,0
-623,400,0,0,0,0,0,0,0,0,0,-1,601,624,0,0
-616,400,0,0,0,0,0,0,0,0,0,-1,608,624,0,0
-609,400,0,0,0,0,0,0,0,0,0,-1,615,624,0,0
-602,400,0,0,0,0,0,0,0,0,0,-1,622,624,0,0
-595,400,0,0,0,0,0,0,0,0,0,-1,629,624,0,0
-588,400,0,0,0,0,0,0,0,0,0,-1,636,624,0,0
-581,400,0,0,0,0,0,0,0,0,0,-1,643,624,0,0
-574,400,0,0,0,0,0,0,0,0,0,-1,650,624,0,0
-567,400,0,0,0,0,0,0,0,0,0,-1,657,624,0,0
-560,400,0,0,0,0,0,0,0,0,0,-1,664,624,0,0
-553,400,0,0,0,0,0,0,0,0,0,-1,671,624,0,0
-546,400,-8.41174,-1.4599,0,0,0,0,0,0,0,-1,678,624,-8.41173,1.45989
-539,400,-5.69104,-1.7337,0,0,0,0,0,0,0,-1,685,624,-5.69103,1.7337
-532,400,-3.03632,-2.03912,0,0,0,0,0,0,0,-1,692,624,-3.03632,2.03909
-525,400,-6.20813,-7.04071,0,0,0,0,0,0,0,-1,699,624,-6.20814,7.04071
-518,400,-5.26544,-1.58661,0,0,0,0,0,0,0,-1,706,624,-5.26544,1.58658
-511,400,-10.6307,-6.7121,0,0,0,0,0,0,0,-1,713,624,-10.6307,6.71209
-504,400,-10.2663,-6.55109,0,0,0,0,0,0,0,-1,720,624,-10.2663,6.55106
-497,400,-13.0278,-8.16669,0,0,0,0,0,0,0,-1,727,624,-13.0277,8.16668
-490,400,-12.8116,-8.98187,0.000701803,0.0032327,-0.00161988,0.00402283,-8.83217e-05,-1.11698,0.00271181,0.0394535,734,624,-12.8116,8.98185
-483,400,-12.8393,-9.79352,0.000579873,0.00269608,-0.00142672,0.00341424,-0.00013829,-1.10446,0.00232363,0.0175224,741,624,-12.8393,9.79351
-476,400,-12.8565,-10.4958,0.00058639,0.00222741,-0.00129227,0.00293765,-0.000123853,-1.06825,0.002001,0.014595,748,624,-12.8565,10.4959
-469,400,-12.8942,-11.2291,0.000720218,0.00176393,-0.00118585,0.00253768,-5.35279e-05,-0.99268,0.00170991,0.0152619,755,624,-12.8942,11.2292
-462,400,-12.9285,-12.0041,0.000842811,0.00124499,-0.00100465,0.00206848,1.93268e-05,-0.884173,0.00137259,0.0209875,762,624,-12.9286,12.0041
-455,400,-12.945,-12.7245,0.000928713,0.000598864,-0.000748322,0.00153007,-2.49234e-06,-0.676936,0.00102088,0.0216622,769,624,-12.945,12.7246
-448,400,-12.9709,-13.4055,0.00106963,-4.10132e-05,-0.000484256,0.00125112,-0.000222499,-0.358572,0.000917285,0.0155222,776,624,-12.9709,13.4055
-441,400,-13.0175,-14.0467,0.00114651,-0.000771246,-0.000127948,0.00115501,-0.000779744,-0.0663258,0.00112401,0.0148285,783,624,-13.0175,14.0467
-434,400,-13.0643,-14.7416,0.0011934,-0.00157705,0.000292777,0.001224,-0.00160765,0.104146,0.00163985,0.0125125,790,624,-13.0643,14.7416
-427,400,-13.11,-15.4504,0.00118236,-0.0025105,0.000777292,0.0013393,-0.00266744,0.199226,0.00235528,0.0112458,797,624,-13.11,15.4505
-420,400,-13.0529,-16.1873,0.00101172,-0.00369127,0.00146481,0.00143064,-0.00411019,0.278554,0.00332135,0.0174756,804,624,-13.0528,16.1873
-413,400,-13.1832,-16.7587,0.000957594,-0.00459657,0.00199529,0.00160007,-0.00523905,0.311512,0.00413068,0.0435373,811,624,-13.1833,16.7587
-406,400,-13.1985,-16.9194,0,0,0,0,0,0,0,-1,818,624,-13.1985,16.9194
-399,400,-11.0176,-13.2944,0,0,0,0,0,0,0,-1,825,624,-11.0176,13.2944
-392,400,-4.92285,-6.63354,0,0,0,0,0,0,0,-1,832,624,-4.92285,6.63354
-385,400,-3.68738,-5.04205,0,0,0,0,0,0,0,-1,839,624,-3.68736,5.04207
-378,400,-6.84064,-1.28662,0,0,0,0,0,0,0,-1,846,624,-6.84062,1.28662
-371,400,-6.98865,-1.2572,0,0,0,0,0,0,0,-1,853,624,-6.98865,1.25721
-364,400,-6.97247,-1.24133,0,0,0,0,0,0,0,-1,860,624,-6.97249,1.24135
-357,400,-7.18329,-1.23218,0,0,0,0,0,0,0,-1,867,624,-7.18327,1.2322
-350,400,-7.40186,-1.19409,0,0,0,0,0,0,0,-1,874,624,-7.40187,1.19407
-343,400,-8.09357,-1.51147,0,0,0,0,0,0,0,-1,881,624,-8.09355,1.51148
-336,400,0,0,0,0,0,0,0,0,0,-1,888,624,0,0
-329,400,0,0,0,0,0,0,0,0,0,-1,895,624,0,0
-322,400,0,0,0,0,0,0,0,0,0,-1,902,624,0,0
-315,400,0,0,0,0,0,0,0,0,0,-1,909,624,0,0
-308,400,0,0,0,0,0,0,0,0,0,-1,916,624,0,0
-301,400,0,0,0,0,0,0,0,0,0,-1,923,624,0,0
-294,400,0,0,0,0,0,0,0,0,0,-1,930,624,0,0
-287,400,0,0,0,0,0,0,0,0,0,-1,937,624,0,0
-280,400,0,0,0,0,0,0,0,0,0,-1,944,624,0,0
-273,400,0,0,0,0,0,0,0,0,0,-1,951,624,0,0
-266,400,0,0,0,0,0,0,0,0,0,-1,958,624,0,0
-259,400,0,0,0,0,0,0,0,0,0,-1,965,624,0,0
-252,400,0,0,0,0,0,0,0,0,0,-1,972,624,0,0
-245,400,0,0,0,0,0,0,0,0,0,-1,979,624,0,0
-238,400,0,0,0,0,0,0,0,0,0,-1,986,624,0,0
-231,400,0,0,0,0,0,0,0,0,0,-1,993,624,0,0
-224,400,0,0,0,0,0,0,0,0,0,-1,1000,624,0,0
-217,400,0,0,0,0,0,0,0,0,0,-1,1007,624,0,0
-210,400,0,0,0,0,0,0,0,0,0,-1,1014,624,0,0
-203,400,0,0,0,0,0,0,0,0,0,-1,1021,624,0,0
-196,400,0,0,0,0,0,0,0,0,0,-1,1028,624,0,0
-189,400,0,0,0,0,0,0,0,0,0,-1,1035,624,0,0
-182,400,0,0,0,0,0,0,0,0,0,-1,1042,624,0,0
-175,400,0,0,0,0,0,0,0,0,0,-1,1049,624,0,0
-168,400,0,0,0,0,0,0,0,0,0,-1,1056,624,0,0
-161,400,0,0,0,0,0,0,0,0,0,-1,1063,624,0,0
-154,400,0,0,0,0,0,0,0,0,0,-1,1070,624,0,0
-147,400,0,0,0,0,0,0,0,0,0,-1,1077,624,0,0
-140,400,0,0,0,0,0,0,0,0,0,-1,1084,624,0,0
-133,400,0,0,0,0,0,0,0,0,0,-1,1091,624,0,0
-126,400,0,0,0,0,0,0,0,0,0,-1,1098,624,0,0
-119,400,0,0,0,0,0,0,0,0,0,-1,1105,624,0,0
-112,400,0,0,0,0,0,0,0,0,0,-1,1112,624,0,0
-105,400,0,0,0,0,0,0,0,0,0,-1,1119,624,0,0
-98,400,0,0,0,0,0,0,0,0,0,-1,1126,624,0,0
-91,400,0,0,0,0,0,0,0,0,0,-1,1133,624,0,0
-84,400,0,0,0,0,0,0,0,0,0,-1,1140,624,0,0
-77,400,0,0,0,0,0,0,0,0,0,-1,1147,624,0,0
-70,400,0,0,0,0,0,0,0,0,0,-1,1154,624,0,0
-63,400,0,0,0,0,0,0,0,0,0,-1,1161,624,0,0
-56,400,0,0,0,0,0,0,0,0,0,-1,1168,624,0,0
-49,400,0,0,0,0,0,0,0,0,0,-1,1175,624,0,0
-42,400,0,0,0,0,0,0,0,0,0,-1,1182,624,0,0
-35,400,0,0,0,0,0,0,0,0,0,-1,1189,624,0,0
-28,400,0,0,0,0,0,0,0,0,0,-1,1196,624,0,0
-21,400,0,0,0,0,0,0,0,0,0,-1,1203,624,0,0
-14,400,0,0,0,0,0,0,0,0,0,-1,1210,624,0,0
-7,400,0,0,0,0,0,0,0,0,0,-1,1217,624,0,0
0,400,0,0,0,0,0,0,0,0,0,-1,1224,624,0,0
7,400,0,0,0,0,0,0,0,0,0,-1,1231,624,0,0
14,400,0,0,0,0,0,0,0,0,0,-1,1238,624,0,0
21,400,0,0,0,0,0,0,0,0,0,-1,1245,624,0,0
28,400,0,0,0,0,0,0,0,0,0,-1,1252,624,0,0
35,400,0,0,0,0,0,0,0,0,0,-1,1259,624,0,0
42,400,0,0,0,0,0,0,0,0,0,-1,1266,624,0,0
49,400,0,0,0,0,0,0,0,0,0,-1,1273,624,0,0
56,400,0,0,0,0,0,0,0,0,0,-1,1280,624,0,0
63,400,0,0,0,0,0,0,0,0,0,-1,1287,624,0,0
70,400,0,0,0,0,0,0,0,0,0,-1,1294,624,0,0
77,400,0,0,0,0,0,0,0,0,0,-1,1301,624,0,0
84,400,0,0,0,0,0,0,0,0,0,-1,1308,624,0,0
91,400,0,0,0,0,0,0,0,0,0,-1,1315,624,0,0
98,400,0,0,0,0,0,0,0,0,0,-1,1322,624,0,0
105,400,0,0,0,0,0,0,0,0,0,-1,1329,624,0,0
112,400,0,0,0,0,0,0,0,0,0,-1,1336,624,0,0
119,400,0,0,0,0,0,0,0,0,0,-1,1343,624,0,0
126,400,0,0,0,0,0,0,0,0,0,-1,1350,624,0,0
133,400,0,0,0,0,0,0,0,0,0,-1,1357,624,0,0
140,400,0,0,0,0,0,0,0,0,0,-1,1364,624,0,0
147,400,0,0,0,0,0,0,0,0,0,-1,1371,624,0,0
154,400,0,0,0,0,0,0,0,0,0,-1,1378,624,0,0
161,400,0,0,0,0,0,0,0,0,0,-1,1385,624,0,0
168,400,0,0,0,0,0,0,0,0,0,-1,1392,624,0,0
175,400,0,0,0,0,0,0,0,0,0,-1,1399,624,0,0
182,400,0,0,0,0,0,0,0,0,0,-1,1406,624,0,0
189,400,0,0,0,0,0,0,0,0,0,-1,1413,624,0,0
196,400,0,0,0,0,0,0,0,0,0,-1,1420,624,0,0
203,400,0,0,0,0,0,0,0,0,0,-1,1427,624,0,0
210,400,0,0,0,0,0,0,0,0,0,-1,1434,624,0,0
217,400,0,0,0,0,0,0,0,0,0,-1,1441,624,0,0
224,400,0,0,0,0,0,0,0,0,0,-1,1448,624,0,0
231,400,0,0,0,0,0,0,0,0,0,-1,1455,624,0,0
238,400,0,0,0,0,0,0,0,0,0,-1,1462,624,0,0
245,400,0,0,0,0,0,0,0,0,0,-1,1469,624,0,0
252,400,0,0,0,0,0,0,0,0,0,-1,1476,624,0,0
259,400,0,0,0,0,0,0,0,0,0,-1,1483,624,0,0
266,400,0,0,0,0,0,0,0,0,0,-1,1490,624,0,0
273,400,0,0,0,0,0,0,0,0,0,-1,1497,624,0,0
280,400,0,0,0,0,0,0,0,0,0,-1,1504,624,0,0
287,400,0,0,0,0,0,0,0,0,0,-1,1511,624,0,0
294,400,0,0,0,0,0,0,0,0,0,-1,1518,624,0,0
301,400,0,0,0,0,0,0,0,0,0,-1,1525,624,0,0
308,400,0,0,0,0,0,0,0,0,0,-1,1532,624,0,0
315,400,0,0,0,0,0,0,0,0,0,-1,1539,624,0,0
322,400,0,0,0,0,0,0,0,0,0,-1,1546,624,0,0
329,400,0,0,0,0,0,0,0,0,0,-1,1553,624,0,0
336,400,0,0,0,0,0,0,0,0,0,-1,1560,624,0,0
343,400,0,0,0,0,0,0,0,0,0,-1,1567,624,0,0
350,400,0,0,0,0,0,0,0,0,0,-1,1574,624,0,0
357,400,0,0,0,0,0,0,0,0,0,-1,1581,624,0,0
364,400,0,0,0,0,0,0,0,0,0,-1,1588,624,0,0
371,400,0,0,0,0,0,0,0,0,0,-1,1595,624,0,0
378,400,0,0,0,0,0,0,0,0,0,-1,1602,624,0,0
385,400,0,0,0,0,0,0,0,0,0,-1,1609,624,0,0
392,400,0,0,0,0,0,0,0,0,0,-1,1616,624,0,0
399,400,0,0,0,0,0,0,0,0,0,-1,1623,624,0,0
406,400,0,0,0,0,0,0,0,0,0,-1,1630,624,0,0
413,400,0,0,0,0,0,0,0,0,0,-1,1637,624,0,0
420,400,0,0,0,0,0,0,0,0,0,-1,1644,624,0,0
427,400,0,0,0,0,0,0,0,0,0,-1,1651,624,0,0
434,400,0,0,0,0,0,0,0,0,0,-1,1658,624,0,0
441,400,0,0,0,0,0,0,0,0,0,-1,1665,624,0,0
448,400,0,0,0,0,0,0,0,0,0,-1,1672,624,0,0
455,400,8.91309,2.75885,0,0,0,0,0,0,0,-1,1679,624,8.91312,-2.75885
462,400,8.90356,2.37878,0,0,0,0,0,0,0,-1,1686,624,8.90353,-2.37878
469,400,9.14429,1.76849,0,0,0,0,0,0,0,-1,1693,624,9.14432,-1.76847
476,400,9.23254,1.25995,0,0,0,0,0,0,0,-1,1700,624,9.23252,-1.25994
483,400,9.59766,0.562439,0,0,0,0,0,0,0,-1,1707,624,9.59771,-0.56242
490,400,9.92578,-0.213745,0,0,0,0,0,0,0,-1,1714,624,9.92579,0.21376
497,400,9.19141,0.175232,0,0,0,0,0,0,0,-1,1721,624,9.19138,-0.175209
504,400,9.23438,0.00823975,0,0,0,0,0,0,0,-1,1728,624,9.23436,-0.00823766
511,400,6.16687,3.3501,0,0,0,0,0,0,0,-1,1735,624,6.16682,-3.35007
518,400,6.55237,1.74994,0,0,0,0,0,0,0,-1,1742,624,6.55236,-1.74993
525,400,6.99731,1.08783,0,0,0,0,0,0,0,-1,1749,624,6.99736,-1.08785
532,400,6.96582,-1.74982,0,0,0,0,0,0,0,-1,1756,624,6.96585,1.74983
539,400,21.2305,-10.5841,0,0,0,0,0,0,0,-1,1763,624,21.2304,10.5841
546,400,25.3807,-15.0117,0,0,0,0,0,0,0,-1,1770,624,25.3807,15.0117
553,400,25.2931,-14.3099,0.00376957,0.00244754,0.00173746,0.00496751,0.0012496,0.603628,0.00298368,0.0420744,1777,624,25.2931,14.3099
560,400,25.347,-13.515,0.00286356,0.00192399,0.00120378,0.00368598,0.00110157,0.599359,0.00218475,0.0163136,1784,624,25.347,13.515
567,400,25.3619,-12.7935,0.0021148,0.00151597,0.000846163,0.00271296,0.000917812,0.615349,0.0015934,0.0180647,1791,624,25.3619,12.7935
574,400,25.3135,-12.1172,0.0016543,0.00140643,0.000746088,0.00228668,0.000774055,0.703095,0.00134297,0.0211102,1798,624,25.3135,12.1172
581,400,25.2448,-11.3824,0.00137987,0.00151033,0.000811397,0.00225912,0.000631087,0.825509,0.00134597,0.0218179,1805,624,25.2448,11.3824
588,400,25.1864,-10.5944,0.00135223,0.00192076,0.00110061,0.00277322,0.00049977,0.911776,0.00170679,0.0185037,1812,624,25.1864,10.5944
595,400,25.1962,-9.89783,0.00164992,0.00257039,0.00162744,0.00380142,0.000418889,0.923199,0.00240683,0.0169037,1819,624,25.1961,9.89785
602,400,25.1875,-9.17987,0.00227823,0.00349294,0.00238819,0.0053498,0.00042138,0.909917,0.0034347,0.0151364,1826,624,25.1875,9.17989
609,400,25.0764,-8.41248,0.00319644,0.00470519,0.00336309,0.00739747,0.000504156,0.895727,0.00477248,0.0145196,1833,624,25.0765,8.41249
616,400,25.0342,-7.67712,0.00450381,0.00640381,0.00462115,0.0101716,0.000736023,0.886774,0.00654952,0.0191256,1840,624,25.0341,7.67711
623,400,25.0833,-6.93738,0,0,0,0,0,0,0,-1,1847,624,25.0832,6.93736
630,400,11.9432,0.09021,0,0,0,0,0,0,0,-1,1854,624,11.9432,-0.0902007
637,400,6.92896,1.01917,0,0,0,0,0,0,0,-1,1861,624,6.92899,-1.01918
644,400,8.65381,1.4599,0,0,0,0,0,0,0,-1,1868,624,8.65379,-1.45991
651,400,7.90601,0.424072,0,0,0,0,0,0,0,-1,1875,624,7.90598,-0.424097
658,400,8.69031,1.0484,0,0,0,0,0,0,0,-1,1882,624,8.6903,-1.0484
665,400,5.98438,0.522522,0,0,0,0,0,0,0,-1,1889,624,5.98442,-0.522552
672,400,0,0,0,0,0,0,0,0,0,-1,1896,624,0,0
679,400,0,0,0,0,0,0,0,0,0,-1,1903,624,0,0
686,400,0,0,0,0,0,0,0,0,0,-1,1910,624,0,0
693,400,0,0,0,0,0,0,0,0,0,-1,1917,624,0,0
700,400,0,0,0,0,0,0,0,0,0,-1,1924,624,0,0
707,400,0,0,0,0,0,0,0,0,0,-1,1931,624,0,0
714,400,0,0,0,0,0,0,0,0,0,-1,1938,624,0,0
721,400,0,0,0,0,0,0,0,0,0,-1,1945,624,0,0
728,400,0,0,0,0,0,0,0,0,0,-1,1952,624,0,0
735,400,0,0,0,0,0,0,0,0,0,-1,1959,624,0,0
742,400,0,0,0,0,0,0,0,0,0,-1,1966,624,0,0
749,400,0,0,0,0,0,0,0,0,0,-1,1973,624,0,0
756,400,0,0,0,0,0,0,0,0,0,-1,1980,624,0,0
763,400,0,0,0,0,0,0,0,0,0,-1,1987,624,0,0
770,400,0,0,0,0,0,0,0,0,0,-1,1994,624,0,0
777,400,0,0,0,0,0,0,0,0,0,-1,2001,624,0,0
784,400,0,0,0,0,0,0,0,0,0,-1,2008,624,0,0
791,400,0,0,0,0,0,0,0,0,0,-1,2015,624,0,0
798,400,0,0,0,0,0,0,0,0,0,-1,2022,624,0,0
805,400,0,0,0,0,0,0,0,0,0,-1,2029,624,0,0
812,400,0,0,0,0,0,0,0,0,0,-1,2036,624,0,0
-700,393,0,0,0,0,0,0,0,0,0,-1,524,631,0,0
-693,393,0,0,0,0,0,0,0,0,0,-1,531,631,0,0
-686,393,0,0,0,0,0,0,0,0,0,-1,538,631,0,0
-679,393,0,0,0,0,0,0,0,0,0,-1,545,631,0,0
-672,393,0,0,0,0,0,0,0,0,0,-1,552,631,0,0
-665,393,0,0,0,0,0,0,0,0,0,-1,559,631,0,0
-658,393,0,0,0,0,0,0,0,0,0,-1,566,631,0,0
-651,393,0,0,0,0,0,0,0,0,0,-1,573,631,0,0
-644,393,0,0,0,0,0,0,0,0,0,-1,580,631,0,0
-637,393,0,0,0,0,0,0,0,0,0,-1,587,631,0,0
-630,393,0,0,0,0,0,0,0,0,0,-1,594,631,0,0
-623,393,0,0,0,0,0,0,0,0,0,-1,601,631,0,0
-616,393,0,0,0,0,0,0,0,0,0,-1,608,631,0,0
-609,393,0,0,0,0,0,0,0,0,0,-1,615,631,0,0
-602,393,0,0,0,0,0,0,0,0,0,-1,622,631,0,0
-595,393,0,0,0,0,0,0,0,0,0,-1,629,631,0,0
-588,393,0,0,0,0,0,0,0,0,0,-1,636,631,0,0
-581,393,0,0,0,0,0,0,0,0,0,-1,643,631,0,0
-574,393,0,0,0,0,0,0,0,0,0,-1,650,631,0,0
-567,393,0,0,0,0,0,0,0,0,0,-1,657,631,0,0
-560,393,0,0,0,0,0,0,0,0,0,-1,664,631,0,0
-553,393,-2.35107,3.92633,0,0,0,0,0,0,0,-1,671,631,-2.35108,-3.92634
-546,393,-1.78778,2.4856,0,0,0,0,0,0,0,-1,678,631,-1.78778,-2.48557
-539,393,-5.2113,-2.20245,0,0,0,0,0,0,0,-1,685,631,-5.21128,2.20247
-532,393,-2.83643,-2.01624,0,0,0,0,0,0,0,-1,692,631,-2.83642,2.01626
-525,393,-5.9505,-0.952698,0,0,0,0,0,0,0,-1,699,631,-5.95053,0.95268
-518,393,-5.80219,-1.57739,0,0,0,0,0,0,0,-1,706,631,-5.80219,1.57738
-511,393,-6.15527,-2.09906,0,0,0,0,0,0,0,-1,713,631,-6.15526,2.09903
-504,393,-13.6063,-6.95947,0,0,0,0,0,0,0,-1,720,631,-13.6063,6.95946
-497,393,-13.5873,-8.23138,0,0,0,0,0,0,0,-1,727,631,-13.5873,8.23139
-490,393,-13.52,-9.01324,0.00106731,0.00223206,-0.00133098,0.0031025,0.000196867,-0.991627,0.00200593,0.0232166,734,631,-13.5199,9.01326
-483,393,-13.54,-9.75616,0.00089067,0.0018466,-0.00114097,0.00260567,0.000131601,-0.98375,0.00169495,0.019821,741,631,-13.54,9.75618
-476,393,-13.5622,-10.4597,0.000880941,0.00151329,-0.00102944,0.00227401,0.000120214,-0.934391,0.00147757,0.0168133,748,631,-13.5622,10.4596
-469,393,-13.5889,-11.1959,0.00098214,0.00116506,-0.000938963,0.00201701,0.000130194,-0.833948,0.00130344,0.0134398,755,631,-13.5889,11.1959
-462,393,-13.6366,-11.9667,0.00108291,0.000762812,-0.000798201,0.00173695,0.000108771,-0.686454,0.00112347,0.0159966,762,631,-13.6366,11.9668
-455,393,-13.6639,-12.679,0.00118415,0.000203448,-0.000602923,0.00147095,-8.33498e-05,-0.444002,0.00100956,0.0147837,769,631,-13.6639,12.679
-448,393,-13.7032,-13.364,0.00135492,-0.000334375,-0.00041475,0.00145125,-0.000430709,-0.228224,0.00113856,0.0136677,776,631,-13.7032,13.364
-441,393,-13.7366,-14.0328,0.00146325,-0.000986926,-0.000140261,0.00147125,-0.000994929,-0.0569973,0.00143267,0.0132861,783,631,-13.7366,14.0328
-434,393,-13.762,-14.7095,0.00153259,-0.00173337,0.000204165,0.00154531,-0.00174608,0.0621902,0.00190146,0.0129749,790,631,-13.762,14.7095
-427,393,-13.7477,-15.4442,0.00150445,-0.00268199,0.000658258,0.00160551,-0.00278306,0.15234,0.00256396,0.0215831,797,631,-13.7477,15.4442
-420,393,-13.7975,-16.0928,0.00119939,-0.00405882,0.00144923,0.00157236,-0.00443179,0.251891,0.00359515,0.0484187,804,631,-13.7975,16.0929
-413,393,-14.0095,-16.7559,0,0,0,0,0,0,0,-1,811,631,-14.0095,16.7559
-406,393,-11.826,-12.7987,0,0,0,0,0,0,0,-1,818,631,-11.8261,12.7987
-399,393,-5.07343,-5.92365,0,0,0,0,0,0,0,-1,825,631,-5.07344,5.92364
-392,393,-2.08063,-3.02386,0,0,0,0,0,0,0,-1,832,631,-2.08063,3.02384
-385,393,-3.16931,-0.624756,0,0,0,0,0,0,0,-1,839,631,-3.16928,0.624764
-378,393,-7.33081,-0.872314,0,0,0,0,0,0,0,-1,846,631,-7.33081,0.872325
-371,393,-7.47858,-0.811096,0,0,0,0,0,0,0,-1,853,631,-7.47859,0.811075
-364,393,-7.64917,-0.662415,0,0,0,0,0,0,0,-1,860,631,-7.64917,0.662406
-357,393,-8.09686,-0.726013,0,0,0,0,0,0,0,-1,867,631,-8.09689,0.726029
-350,393,-8.38788,-0.511841,0,0,0,0,0,0,0,-1,874,631,-8.38785,0.511811
-343,393,0,0,0,0,0,0,0,0,0,-1,881,631,0,0
-336,393,0,0,0,0,0,0,0,0,0,-1,888,631,0,0
-329,393,0,0,0,0,0,0,0,0,0,-1,895,631,0,0
-322,393,0,0,0,0,0,0,0,0,0,-1,902,631,0,0
-315,393,0,0,0,0,0,0,0,0,0,-1,909,631,0,0
-308,393,0,0,0,0,0,0,0,0,0,-1,916,631,0,0
-301,393,0,0,0,0,0,0,0,0,0,-1,923,631,0,0
-294,393,0,0,0,0,0,0,0,0,0,-1,930,631,0,0
-287,393,0,0,0,0,0,0,0,0,0,-1,937,631,0,0
-280,393,0,0,0,0,0,0,0,0,0,-1,944,631,0,0
-273,393,0,0,0,0,0,0,0,0,0,-1,951,631,0,0
-266,393,0,0,0,0,0,0,0,0,0,-1,958,631,0,0
-259,393,0,0,0,0,0,0,0,0,0,-1,965,631,0,0
-252,393,0,0,0,0,0,0,0,0,0,-1,972,631,0,0
-245,393,0,0,0,0,0,0,0,0,0,-1,979,631,0,0
-238,393,0,0,0,0,0,0,0,0,0,-1,986,631,0,0
-231,393,0,0,0,0,0,0,0,0,0,-1,993,631,0,0
-224,393,0,0,0,0,0,0,0,0,0,-1,1000,631,0,0
-217,393,0,0,0,0,0,0,0,0,0,-1,1007,631,0,0
-210,393,0,0,0,0,0,0,0,0,0,-1,1014,631,0,0
-203,393,0,0,0,0,0,0,0,0,0,-1,1021,631,0,0
-196,393,0,0,0,0,0,0,0,0,0,-1,1028,631,0,0
-189,393,0,0,0,0,0,0,0,0,0,-1,1035,631,0,0
-182,393,0,0,0,0,0,0,0,0,0,-1,1042,631,0,0
-175,393,0,0,0,0,0,0,0,0,0,-1,1049,631,0,0
-168,393,0,0,0,0,0,0,0,0,0,-1,1056,631,0,0
-161,393,0,0,0,0,0,0,0,0,0,-1,1063,631,0,0
-154,393,0,0,0,0,0,0,0,0,0,-1,1070,631,0,0
-147,393,0,0,0,0,0,0,0,0,0,-1,1077,631,0,0
-140,393,0,0,0,0,0,0,0,0,0,-1,1084,631,0,0
-133,393,0,0,0,0,0,0,0,0,0,-1,1091,631,0,0
-126,393,0,0,0,0,0,0,0,0,0,-1,1098,631,0,0
-119,393,0,0,0,0,0,0,0,0,0,-1,1105,631,0,0
-112,393,0,0,0,0,0,0,0,0,0,-1,1112,631,0,0
-105,393,0,0,0,0,0,0,0,0,0,-1,1119,631,0,0
-98,393,0,0,0,0,0,0,0,0,0,-1,1126,631,0,0
-91,393,0,0,0,0,0,0,0,0,0,-1,1133,631,0,0
-84,393,0,0,0,0,0,0,0,0,0,-1,1140,631,0,0
-77,393,0,0,0,0,0,0,0,0,0,-1,1147,631,0,0
-70,393,0,0,0,0,0,0,0,0,0,-1,1154,631,0,0
-63,393,0,0,0,0,0,0,0,0,0,-1,1161,631,0,0
-56,393,0,0,0,0,0,0,0,0,0,-1,1168,631,0,0
-49,393,0,0,0,0,0,0,0,0,0,-1,1175,631,0,0
-42,393,0,0,0,0,0,0,0,0,0,-1,1182,631,0,0
-35,393,0,0,0,0,0,0,0,0,0,-1,1189,631,0,0
-28,393,0,0,0,0,0,0,0,0,0,-1,1196,631,0,0
-21,393,0,0,0,0,0,0,0,0,0,-1,1203,631,0,0
-14,393,0,0,0,0,0,0,0,0,0,-1,1210,631,0,0
-7,393,0,0,0,0,0,0,0,0,0,-1,1217,631,0,0
0,393,0,0,0,0,0,0,0,0,0,-1,1224,631,0,0
7,393,0,0,0,0,0,0,0,0,0,-1,1231,631,0,0
14,393,0,0,0,0,0,0,0,0,0,-1,1238,631,0,0
21,393,0,0,0,0,0,0,0,0,0,-1,1245,631,0,0
28,393,0,0,0,0,0,0,0,0,0,-1,1252,631,0,0
35,393,0,0,0,0,0,0,0,0,0,-1,1259,631,0,0
42,393,0,0,0,0,0,0,0,0,0,-1,1266,631,0,0
49,393,0,0,0,0,0,0,0,0,0,-1,1273,631,0,0
56,393,0,0,0,0,0,0,0,0,0,-1,1280,631,0,0
63,393,0,0,0,0,0,0,0,0,0,-1,1287,631,0,0
70,393,0,0,0,0,0,0,0,0,0,-1,1294,631,0,0
77,393,0,0,0,0,0,0,0,0,0,-1,1301,631,0,0
84,393,0,0,0,0,0,0,0,0,0,-1,1308,631,0,0
91,393,0,0,0,0,0,0,0,0,0,-1,1315,631,0,0
98,393,0,0,0,0,0,0,0,0,0,-1,1322,631,0,0
105,393,0,0,0,0,0,0,0,0,0,-1,1329,631,0,0
112,393,0,0,0,0,0,0,0,0,0,-1,1336,631,0,0
119,393,0,0,0,0,0,0,0,0,0,-1,1343,631,0,0
126,393,0,0,0,0,0,0,0,0,0,-1,1350,631,0,0
133,393,0,0,0,0,0,0,0,0,0,-1,1357,631,0,0
140,393,0,0,0,0,0,0,0,0,0,-1,1364,631,0,0
147,393,0,0,0,0,0,0,0,0,0,-1,1371,631,0,0
154,393,0,0,0,0,0,0,0,0,0,-1,1378,631,0,0
161,393,0,0,0,0,0,0,0,0,0,-1,1385,631,0,0
168,393,0,0,0,0,0,0,0,0,0,-1,1392,631,0,0
175,393,0,0,0,0,0,0,0,0,0,-1,1399,631,0,0
182,393,0,0,0,0,0,0,0,0,0,-1,1406,631,0,0
189,393,0,0,0,0,0,0,0,0,0,-1,1413,631,0,0
196,393,0,0,0,0,0,0,0,0,0,-1,1420,631,0,0
203,393,0,0,0,0,0,0,0,0,0,-1,1427,631,0,0
210,393,0,0,0,0,0,0,0,0,0,-1,1434,631,0,0
217,393,0,0,0,0,0,0,0,0,0,-1,1441,631,0,0
224,393,0,0,0,0,0,0,0,0,0,-1,1448,631,0,0
231,393,0,0,0,0,0,0,0,0,0,-1,1455,631,0,0
238,393,0,0,0,0,0,0,0,0,0,-1,1462,631,0,0
245,393,0,0,0,0,0,0,0,0,0,-1,1469,631,0,0
252,393,0,0,0,0,0,0,0,0,0,-1,1476,631,0,0
259,393,0,0,0,0,0,0,0,0,0,-1,1483,631,0,0
266,393,0,0,0,0,0,0,0,0,0,-1,1490,631,0,0
273,393,0,0,0,0,0,0,0,0,0,-1,1497,631,0,0
280,393,0,0,0,0,0,0,0,0,0,-1,1504,631,0,0
287,393,0,0,0,0,0,0,0,0,0,-1,1511,631,0,0
294,393,0,0,0,0,0,0,0,0,0,-1,1518,631,0,0
301,393,0,0,0,0,0,0,0,0,0,-1,1525,631,0,0
308,393,0,0,0,0,0,0,0,0,0,-1,1532,631,0,0
315,393,0,0,0,0,0,0,0,0,0,-1,1539,631,0,0
322,393,0,0,0,0,0,0,0,0,0,-1,1546,631,0,0
329,393,0,0,0,0,0,0,0,0,0,-1,1553,631,0,0
336,393,0,0,0,0,0,0,0,0,0,-1,1560,631,0,0
343,393,0,0,0,0,0,0,0,0,0,-1,1567,631,0,0
350,393,0,0,0,0,0,0,0,0,0,-1,1574,631,0,0
357,393,0,0,0,0,0,0,0,0,0,-1,1581,631,0,0
364,393,0,0,0,0,0,0,0,0,0,-1,1588,631,0,0
371,393,0,0,0,0,0,0,0,0,0,-1,1595,631,0,0
378,393,0,0,0,0,0,0,0,0,0,-1,1602,631,0,0
385,393,0,0,0,0,0,0,0,0,0,-1,1609,631,0,0
392,393,0,0,0,0,0,0,0,0,0,-1,1616,631,0,0
399,393,0,0,0,0,0,0,0,0,0,-1,1623,631,0,0
406,393,0,0,0,0,0,0,0,0,0,-1,1630,631,0,0
413,393,0,0,0,0,0,0,0,0,0,-1,1637,631,0,0
420,393,0,0,0,0,0,0,0,0,0,-1,1644,631,0,0
427,393,0,0,0,0,0,0,0,0,0,-1,1651,631,0,0
434,393,0,0,0,0,0,0,0,0,0,-1,1658,631,0,0
441,393,0,0,0,0,0,0,0,0,0,-1,1665,631,0,0
448,393,0,0,0,0,0,0,0,0,0,-1,1672,631,0,0
455,393,0,0,0,0,0,0,0,0,0,-1,1679,631,0,0
462,393,8.51099,1.89502,0,0,0,0,0,0,0,-1,1686,631,8.51103,-1.89504
469,393,9.39465,1.51703,0,0,0,0,0,0,0,-1,1693,631,9.39465,-1.51703
476,393,9.95569,1.185,0,0,0,0,0,0,0,-1,1700,631,9.95575,-1.18497
483,393,10.5267,0.887329,0,0,0,0,0,0,0,-1,1707,631,10.5267,-0.887321
490,393,10.9303,0.761414,0,0,0,0,0,0,0,-1,1714,631,10.9303,-0.761386
497,393,8.32153,1.88104,0,0,0,0,0,0,0,-1,1721,631,8.32148,-1.88103
504,393,9.46985,1.78711,0,0,0,0,0,0,0,-1,1728,631,9.46986,-1.78713
511,393,9.66565,-0.375977,0,0,0,0,0,0,0,-1,1735,631,9.66571,0.375949
518,393,7.01599,1.62482,0,0,0,0,0,0,0,-1,1742,631,7.01597,-1.62483
525,393,7.88245,-1.13422,0,0,0,0,0,0,0,-1,1749,631,7.88246,1.13423
532,393,7.06335,-1.18103,0,0,0,0,0,0,0,-1,1756,631,7.06332,1.18101
539,393,9.91626,-2.46301,0,0,0,0,0,0,0,-1,1763,631,9.91625,2.46302
546,393,16.4094,-8.04651,0,0,0,0,0,0,0,-1,1770,631,16.4094,8.04649
553,393,26.0161,-14.602,0,0,0,0,0,0,0,-1,1777,631,26.0161,14.602
560,393,26.0941,-13.6173,0.0031516,0.00213787,0.00114826,0.00389989,0.00138958,0.57755,0.00228238,0.0473105,1784,631,26.0941,13.6173
567,393,26.0352,-12.8036,0.00221145,0.00149204,0.000648365,0.00259321,0.00111028,0.532141,0.00150233,0.0167566,1791,631,26.0351,12.8036
574,393,26.0488,-12.0943,0.00161212,0.00123217,0.000465993,0.00192537,0.000918918,0.591848,0.001112,0.0164111,1798,631,26.0489,12.0943
581,393,25.9641,-11.3107,0.00122526,0.00123122,0.000465456,0.00169371,0.000762775,0.788604,0.000979467,0.0173586,1805,631,25.9642,11.3107
588,393,25.9122,-10.5306,0.00113565,0.00152619,0.000704438,0.00206193,0.000599923,0.920603,0.00122464,0.019958,1812,631,25.9123,10.5306
595,393,25.9222,-9.87146,0.00141389,0.00207516,0.00118856,0.00297821,0.000510831,0.921058,0.001839,0.0165297,1819,631,25.9223,9.87149
602,393,25.9069,-9.15247,0.00203069,0.00288364,0.00190695,0.00441123,0.000503109,0.895409,0.00278829,0.0177111,1826,631,25.9068,9.15248
609,393,25.8386,-8.40295,0.00287898,0.00394714,0.00278606,0.00624985,0.000576266,0.880098,0.00398838,0.0172109,1833,631,25.8386,8.40297
616,393,25.7845,-7.65894,0.00403229,0.0053858,0.0038827,0.00865029,0.000767803,0.871682,0.00552872,0.0164894,1840,631,25.7845,7.65892
623,393,25.793,-6.81726,0.00551353,0.00704353,0.00521265,0.011547,0.00101004,0.858257,0.00738439,0.0340485,1847,631,25.7929,6.81725
630,393,25.8278,-5.83417,0,0,0,0,0,0,0,-1,1854,631,25.8277,5.83418
637,393,11.4626,0.608887,0,0,0,0,0,0,0,-1,1861,631,11.4627,-0.608904
644,393,8.97583,1.30585,0,0,0,0,0,0,0,-1,1868,631,8.97586,-1.30584
651,393,11.348,0.53302,0,0,0,0,0,0,0,-1,1875,631,11.348,-0.53305
658,393,9.21338,1.50836,0,0,0,0,0,0,0,-1,1882,631,9.21338,-1.50834
665,393,6.1001,2.32129,0,0,0,0,0,0,0,-1,1889,631,6.10012,-2.3213
672,393,7.14575,2.43225,0,0,0,0,0,0,0,-1,1896,631,7.14572,-2.43222
679,393,0,0,0,0,0,0,0,0,0,-1,1903,631,0,0
686,393,0,0,0,0,0,0,0,0,0,-1,1910,631,0,0
693,393,0,0,0,0,0,0,0,0,0,-1,1917,631,0,0
700,393,0,0,0,0,0,0,0,0,0,-1,1924,631,0,0
707,393,0,0,0,0,0,0,0,0,0,-1,1931,631,0,0
714,393,0,0,0,0,0,0,0,0,0,-1,1938,631,0,0
721,393,0,0,0,0,0,0,0,0,0,-1,1945,631,0,0
728,393,0,0,0,0,0,0,0,0,0,-1,1952,631,0,0
735,393,0,0,0,0,0,0,0,0,0,-1,1959,631,0,0
742,393,0,0,0,0,0,0,0,0,0,-1,1966,631,0,0
749,393,0,0,0,0,0,0,0,0,0,-1,1973,631,0,0
756,393,0,0,0,0,0,0,0,0,0,-1,1980,631,0,0
763,393,0,0,0,0,0,0,0,0,0,-1,1987,631,0,0
770,393,0,0,0,0,0,0,0,0,0,-1,1994,631,0,0
777,393,0,0,0,0,0,0,0,0,0,-1,2001,631,0,0
784,393,0,0,0,0,0,0,0,0,0,-1,2008,631,0,0
791,393,0,0,0,0,0,0,0,0,0,-1,2015,631,0,0
798,393,0,0,0,0,0,0,0,0,0,-1,2022,631,0,0
805,393,0,0,0,0,0,0,0,0,0,-1,2029,631,0,0
812,393,0,0,0,0,0,0,0,0,0,-1,2036,631,0,0
-700,386,0,0,0,0,0,0,0,0,0,-1,524,638,0,0
-693,386,0,0,0,0,0,0,0,0,0,-1,531,638,0,0
-686,386,0,0,0,0,0,0,0,0,0,-1,538,638,0,0
-679,386,0,0,0,0,0,0,0,0,0,-1,545,638,0,0
-672,386,0,0,0,0,0,0,0,0,0,-1,552,638,0,0
-665,386,0,0,0,0,0,0,0,0,0,-1,559,638,0,0
-658,386,0,0,0,0,0,0,0,0,0,-1,566,638,0,0
-651,386,0,0,0,0,0,0,0,0,0,-1,573,638,0,0
-644,386,0,0,0,0,0,0,0,0,0,-1,580,638,0,0
-637,386,0,0,0,0,0,0,0,0,0,-1,587,638,0,0
-630,386,0,0,0,0,0,0,0,0,0,-1,594,638,0,0
-623,386,0,0,0,0,0,0,0,0,0,-1,601,638,0,0
-616,386,0,0,0,0,0,0,0,0,0,-1,608,638,0,0
-609,386,0,0,0,0,0,0,0,0,0,-1,615,638,0,0
-602,386,0,0,0,0,0,0,0,0,0,-1,622,638,0,0
-595,386,0,0,0,0,0,0,0,0,0,-1,629,638,0,0
-588,386,0,0,0,0,0,0,0,0,0,-1,636,638,0,0
-581,386,0,0,0,0,0,0,0,0,0,-1,643,638,0,0
-574,386,0,0,0,0,0,0,0,0,0,-1,650,638,0,0
-567,386,0,0,0,0,0,0,0,0,0,-1,657,638,0,0
-560,386,-3.97229,-5.13898,0,0,0,0,0,0,0,-1,664,638,-3.97232,5.13897
-553,386,-4.94244,-5.54309,0,0,0,0,0,0,0,-1,671,638,-4.94242,5.5431
-546,386,-1.78668,1.72827,0,0,0,0,0,0,0,-1,678,638,-1.78668,-1.72829
-539,386,-0.879456,-2.90009,0,0,0,0,0,0,0,-1,685,638,-0.879442,2.90008
-532,386,-5.4884,1.73328,0,0,0,0,0,0,0,-1,692,638,-5.4884,-1.73325
-525,386,-6.64148,-1.50604,0,0,0,0,0,0,0,-1,699,638,-6.64149,1.50603
-518,386,-11.1217,-4.10382,0,0,0,0,0,0,0,-1,706,638,-11.1217,4.1038
-511,386,-13.0612,-5.05151,0,0,0,0,0,0,0,-1,713,638,-13.0612,5.05149
-504,386,-14.2438,-7.4137,0,0,0,0,0,0,0,-1,720,638,-14.2438,7.41372
-497,386,-14.2418,-8.2793,0.00165933,0.00178949,-0.00134298,0.00306896,0.000379857,-0.80961,0.00193184,0.022165,727,638,-14.2418,8.27927
-490,386,-14.2106,-9.0636,0.00135049,0.0015285,-0.00114337,0.00258632,0.000292672,-0.824242,0.00163541,0.0138123,734,638,-14.2106,9.06361
-483,386,-14.2276,-9.80054,0.00117406,0.00127529,-0.000993215,0.00221918,0.000230174,-0.810856,0.00140901,0.0175409,741,638,-14.2276,9.80054
-476,386,-14.2742,-10.5004,0.00117968,0.00106342,-0.000928859,0.00205223,0.000190874,-0.754148,0.00130917,0.015329,748,638,-14.2742,10.5004
-469,386,-14.3055,-11.1838,0.00128048,0.000821468,-0.000875343,0.0019559,0.000146044,-0.657189,0.00125808,0.0119988,755,638,-14.3055,11.1839
-462,386,-14.3342,-11.9232,0.00138891,0.000533747,-0.000785616,0.00185576,6.68901e-05,-0.536185,0.00121549,0.0119685,762,638,-14.3342,11.9232
-455,386,-14.364,-12.6301,0.00152419,6.51293e-05,-0.000651119,0.0017725,-0.00018318,-0.364332,0.00124722,0.0129283,769,638,-14.364,12.6301
-448,386,-14.4125,-13.3015,0.00173347,-0.000373802,-0.000529001,0.00185881,-0.000499145,-0.232652,0.00143483,0.0122091,776,638,-14.4125,13.3014
-441,386,-14.4579,-13.9837,0.00189459,-0.000936172,-0.000339703,0.00193478,-0.000976367,-0.117777,0.00171085,0.0135729,783,638,-14.4579,13.9837
-434,386,-14.4256,-14.7482,0.00200348,-0.00160195,-7.41184e-05,0.002005,-0.00160347,-0.0205459,0.00208765,0.0319952,790,638,-14.4256,14.7482
-427,386,-14.3359,-15.5985,0,0,0,0,0,0,0,-1,797,638,-14.3358,15.5985
-420,386,-14.5338,-16.0451,0,0,0,0,0,0,0,-1,804,638,-14.5338,16.0451
-413,386,-5.45691,-5.35785,0,0,0,0,0,0,0,-1,811,638,-5.45691,5.35783
-406,386,-4.51135,-4.10999,0,0,0,0,0,0,0,-1,818,638,-4.51135,4.10996
-399,386,-3.57117,-3.42126,0,0,0,0,0,0,0,-1,825,638,-3.57116,3.42129
-392,386,-4.00977,0.403625,0,0,0,0,0,0,0,-1,832,638,-4.0098,-0.403616
-385,386,-3.2406,-0.118469,0,0,0,0,0,0,0,-1,839,638,-3.24058,0.118485
-378,386,-2.55243,-1.22748,0,0,0,0,0,0,0,-1,846,638,-2.55243,1.22748
-371,386,-7.95807,-0.330261,0,0,0,0,0,0,0,-1,853,638,-7.95806,0.330284
-364,386,-8.90637,-0.665955,0,0,0,0,0,0,0,-1,860,638,-8.90635,0.665951
-357,386,-9.10364,-0.388733,0,0,0,0,0,0,0,-1,867,638,-9.10364,0.388744
-350,386,0,0,0,0,0,0,0,0,0,-1,874,638,0,0
-343,386,0,0,0,0,0,0,0,0,0,-1,881,638,0,0
-336,386,0,0,0,0,0,0,0,0,0,-1,888,638,0,0
-329,386,0,0,0,0,0,0,0,0,0,-1,895,638,0,0
-322,386,0,0,0,0,0,0,0,0,0,-1,902,638,0,0
-315,386,0,0,0,0,0,0,0,0,0,-1,909,638,0,0
-308,386,0,0,0,0,0,0,0,0,0,-1,916,638,0,0
-301,386,0,0,0,0,0,0,0,0,0,-1,923,638,0,0
-294,386,0,0,0,0,0,0,0,0,0,-1,930,638,0,0
-287,386,0,0,0,0,0,0,0,0,0,-1,937,638,0,0
-280,386,0,0,0,0,0,0,0,0,0,-1,944,638,0,0
-273,386,0,0,0,0,0,0,0,0,0,-1,951,638,0,0
-266,386,0,0,0,0,0,0,0,0,0,-1,958,638,0,0
-259,386,0,0,0,0,0,0,0,0,0,-1,965,638,0,0
-252,386,0,0,0,0,0,0,0,0,0,-1,972,638,0,0
-245,386,0,0,0,0,0,0,0,0,0,-1,979,638,0,0
-238,386,0,0,0,0,0,0,0,0,0,-1,986,638,0,0
-231,386,0,0,0,0,0,0,0,0,0,-1,993,638,0,0
-224,386,0,0,0,0,0,0,0,0,0,-1,1000,638,0,0
-217,386,0,0,0,0,0,0,0,0,0,-1,1007,638,0,0
-210,386,0,0,0,0,0,0,0,0,0,-1,1014,638,0,0
-203,386,0,0,0,0,0,0,0,0,0,-1,1021,638,0,0
-196,386,0,0,0,0,0,0,0,0,0,-1,1028,638,0,0
-189,386,0,0,0,0,0,0,0,0,0,-1,1035,638,0,0
-182,386,0,0,0,0,0,0,0,0,0,-1,1042,638,0,0
-175,386,0,0,0,0,0,0,0,0,0,-1,1049,638,0,0
-168,386,0,0,0,0,0,0,0,0,0,-1,1056,638,0,0
-161,386,0,0,0,0,0,0,0,0,0,-1,1063,638,0,0
-154,386,0,0,0,0,0,0,0,0,0,-1,1070,638,0,0
-147,386,0,0,0,0,0,0,0,0,0,-1,1077,638,0,0
-140,386,0,0,0,0,0,0,0,0,0,-1,1084,638,0,0
-133,386,0,0,0,0,0,0,0,0,0,-1,1091,638,0,0
-126,386,0,0,0,0,0,0,0,0,0,-1,1098,638,0,0
-119,386,0,0,0,0,0,0,0,0,0,-1,1105,638,0,0
-112,386,0,0,0,0,0,0,0,0,0,-1,1112,638,0,0
-105,386,0,0,0,0,0,0,0,0,0,-1,1119,638,0,0
-98,386,0,0,0,0,0,0,0,0,0,-1,1126,638,0,0
-91,386,0,0,0,0,0,0,0,0,0,-1,1133,638,0,0
-84,386,0,0,0,0,0,0,0,0,0,-1,1140,638,0,0
-77,386,0,0,0,0,0,0,0,0,0,-1,1147,638,0,0
-70,386,0,0,0,0,0,0,0,0,0,-1,1154,638,0,0
-63,386,0,0,0,0,0,0,0,0,0,-1,1161,638,0,0
-56,386,0,0,0,0,0,0,0,0,0,-1,1168,638,0,0
-49,386,0,0,0,0,0,0,0,0,0,-1,1175,638,0,0
-42,386,0,0,0,0,0,0,0,0,0,-1,1182,638,0,0
-35,386,0,0,0,0,0,0,0,0,0,-1,1189,638,0,0
-28,386,0,0,0,0,0,0,0,0,0,-1,1196,638,0,0
-21,386,0,0,0,0,0,0,0,0,0,-1,1203,638,0,0
-14,386,0,0,0,0,0,0,0,0,0,-1,1210,638,0,0
-7,386,0,0,0,0,0,0,0,0,0,-1,1217,638,0,0
0,386,0,0,0,0,0,0,0,0,0,-1,1224,638,0,0
7,386,0,0,0,0,0,0,0,0,0,-1,1231,638,0,0
14,386,0,0,0,0,0,0,0,0,0,-1,1238,638,0,0
21,386,0,0,0,0,0,0,0,0,0,-1,1245,638,0,0
28,386,0,0,0,0,0,0,0,0,0,-1,1252,638,0,0
35,386,0,0,0,0,0,0,0,0,0,-1,1259,638,0,0
42,386,0,0,0,0,0,0,0,0,0,-1,1266,638,0,0
49,386,0,0,0,0,0,0,0,0,0,-1,1273,638,0,0
56,386,0,0,0,0,0,0,0,0,0,-1,1280,638,0,0
63,386,0,0,0,0,0,0,0,0,0,-1,1287,638,0,0
70,386,0,0,0,0,0,0,0,0,0,-1,1294,638,0,0
77,386,0,0,0,0,0,0,0,0,0,-1,1301,638,0,0
84,386,0,0,0,0,0,0,0,0,0,-1,1308,638,0,0
91,386,0,0,0,0,0,0,0,0,0,-1,1315,638,0,0
98,386,0,0,0,0,0,0,0,0,0,-1,1322,638,0,0
105,386,0,0,0,0,0,0,0,0,0,-1,1329,638,0,0
112,386,0,0,0,0,0,0,0,0,0,-1,1336,638,0,0
119,386,0,0,0,0,0,0,0,0,0,-1,1343,638,0,0
126,386,0,0,0,0,0,0,0,0,0,-1,1350,638,0,0
133,386,0,0,0,0,0,0,0,0,0,-1,1357,638,0,0
140,386,0,0,0,0,0,0,0,0,0,-1,1364,638,0,0
147,386,0,0,0,0,0,0,0,0,0,-1,1371,638,0,0
154,386,0,0,0,0,0,0,0,0,0,-1,1378,638,0,0
161,386,0,0,0,0,0,0,0,0,0,-1,1385,638,0,0
168,386,0,0,0,0,0,0,0,0,0,-1,1392,638,0,0
175,386,0,0,0,0,0,0,0,0,0,-1,1399,638,0,0
182,386,0,0,0,0,0,0,0,0,0,-1,1406,638,0,0
189,386,0,0,0,0,0,0,0,0,0,-1,1413,638,0,0
196,386,0,0,0,0,0,0,0,0,0,-1,1420,638,0,0
203,386,0,0,0,0,0,0,0,0,0,-1,1427,638,0,0
210,386,0,0,0,0,0,0,0,0,0,-1,1434,638,0,0
217,386,0,0,0,0,0,0,0,0,0,-1,1441,638,0,0
224,386,0,0,0,0,0,0,0,0,0,-1,1448,638,0,0
231,386,0,0,0,0,0,0,0,0,0,-1,1455,638,0,0
238,386,0,0,0,0,0,0,0,0,0,-1,1462,638,0,0
245,386,0,0,0,0,0,0,0,0,0,-1,1469,638,0,0
252,386,0,0,0,0,0,0,0,0,0,-1,1476,638,0,0
259,386,0,0,0,0,0,0,0,0,0,-1,1483,638,0,0
266,386,0,0,0,0,0,0,0,0,0,-1,1490,638,0,0
273,386,0,0,0,0,0,0,0,0,0,-1,1497,638,0,0
280,386,0,0,0,0,0,0,0,0,0,-1,1504,638,0,0
287,386,0,0,0,0,0,0,0,0,0,-1,1511,638,0,0
294,386,0,0,0,0,0,0,0,0,0,-1,1518,638,0,0
301,386,0,0,0,0,0,0,0,0,0,-1,1525,638,0,0
308,386,0,0,0,0,0,0,0,0,0,-1,1532,638,0,0
315,386,0,0,0,0,0,0,0,0,0,-1,1539,638,0,0
322,386,0,0,0,0,0,0,0,0,0,-1,1546,638,0,0
329,386,0,0,0,0,0,0,0,0,0,-1,1553,638,0,0
336,386,0,0,0,0,0,0,0,0,0,-1,1560,638,0,0
343,386,0,0,0,0,0,0,0,0,0,-1,1567,638,0,0
350,386,0,0,0,0,0,0,0,0,0,-1,1574,638,0,0
357,386,0,0,0,0,0,0,0,0,0,-1,1581,638,0,0
364,386,0,0,0,0,0,0,0,0,0,-1,1588,638,0,0
371,386,0,0,0,0,0,0,0,0,0,-1,1595,638,0,0
378,386,0,0,0,0,0,0,0,0,0,-1,1602,638,0,0
385,386,0,0,0,0,0,0,0,0,0,-1,1609,638,0,0
392,386,0,0,0,0,0,0,0,0,0,-1,1616,638,0,0
399,386,0,0,0,0,0,0,0,0,0,-1,1623,638,0,0
406,386,0,0,0,0,0,0,0,0,0,-1,1630,638,0,0
413,386,0,0,0,0,0,0,0,0,0,-1,1637,638,0,0
420,386,0,0,0,0,0,0,0,0,0,-1,1644,638,0,0
427,386,0,0,0,0,0,0,0,0,0,-1,1651,638,0,0
434,386,0,0,0,0,0,0,0,0,0,-1,1658,638,0,0
441,386,0,0,0,0,0,0,0,0,0,-1,1665,638,0,0
448,386,0,0,0,0,0,0,0,0,0,-1,1672,638,0,0
455,386,0,0,0,0,0,0,0,0,0,-1,1679,638,0,0
462,386,0,0,0,0,0,0,0,0,0,-1,1686,638,0,0
469,386,9.84692,1.55804,0,0,0,0,0,0,0,-1,1693,638,9.84691,-1.55807
476,386,10.6145,0.986511,0,0,0,0,0,0,0,-1,1700,638,10.6145,-0.986529
483,386,11.4113,0.732971,0,0,0,0,0,0,0,-1,1707,638,11.4112,-0.732958
490,386,7.79785,1.79572,0,0,0,0,0,0,0,-1,1714,638,7.79788,-1.7957
497,386,8.96362,1.77081,0,0,0,0,0,0,0,-1,1721,638,8.96357,-1.77081
504,386,10.0555,1.69427,0,0,0,0,0,0,0,-1,1728,638,10.0555,-1.69426
511,386,11.2172,1.534,0,0,0,0,0,0,0,-1,1735,638,11.2172,-1.53398
518,386,7.41553,1.75238,0,0,0,0,0,0,0,-1,1742,638,7.41547,-1.75238
525,386,8.82422,-1.1449,0,0,0,0,0,0,0,-1,1749,638,8.82426,1.14492
532,386,10.6432,0.617371,0,0,0,0,0,0,0,-1,1756,638,10.6432,-0.617359
539,386,9.62061,-0.393616,0,0,0,0,0,0,0,-1,1763,638,9.62059,0.393634
546,386,10.7963,-2.854,0,0,0,0,0,0,0,-1,1770,638,10.7962,2.854
553,386,16.9939,-7.27942,0,0,0,0,0,0,0,-1,1777,638,16.9939,7.27944
560,386,26.7488,-13.9575,0,0,0,0,0,0,0,-1,1784,638,26.7488,13.9575
567,386,26.6685,-12.7682,0,0,0,0,0,0,0,-1,1791,638,26.6684,12.7682
574,386,26.741,-12.024,0.00160446,0.00106698,0.000221324,0.00168387,0.000987574,0.344472,0.000977018,0.0152515,1798,638,26.741,12.0241
581,386,26.6844,-11.3196,0.00106708,0.000953781,0.000121362,0.00114437,0.0008765,0.56703,0.000691147,0.0147961,1805,638,26.6845,11.3196
588,386,26.675,-10.5837,0.000890602,0.00111688,0.000284857,0.00131025,0.000697239,0.974436,0.000756992,0.0133333,1812,638,26.6751,10.5837
595,386,26.6429,-9.85272,0.00111583,0.001562,0.000697744,0.00207146,0.000606378,0.940122,0.00122973,0.014607,1819,638,26.6429,9.85274
602,386,26.6022,-9.14038,0.00167667,0.0022537,0.00133976,0.00333566,0.000594707,0.891453,0.00205443,0.0167418,1826,638,26.6021,9.14037
609,386,26.5907,-8.40112,0.0024366,0.00317131,0.00210985,0.00494555,0.000662362,0.871592,0.00309992,0.0170604,1833,638,26.5907,8.40115
616,386,26.5503,-7.64087,0.00346054,0.00437334,0.00305092,0.0070018,0.000832074,0.859644,0.00441671,0.0130245,1840,638,26.5503,7.64085
623,386,26.4921,-6.90338,0.00476249,0.0057494,0.00417287,0.00945789,0.001054,0.844252,0.00598495,0.0108958,1847,638,26.492,6.90336
630,386,26.5916,-6.09326,0.0063467,0.00723796,0.00540388,0.0122146,0.00137011,0.826538,0.00772693,0.0388081,1854,638,26.5916,6.09327
637,386,26.769,-5.2489,0,0,0,0,0,0,0,-1,1861,638,26.7691,5.2489
644,386,11.6521,0.723328,0,0,0,0,0,0,0,-1,1868,638,11.6521,-0.723355
651,386,9.3866,1.31097,0,0,0,0,0,0,0,-1,1875,638,9.3866,-1.31095
658,386,12.0731,-0.00415039,0,0,0,0,0,0,0,-1,1882,638,12.0731,0.00412803
665,386,6.33167,1.78601,0,0,0,0,0,0,0,-1,1889,638,6.33171,-1.78601
672,386,7.23352,2.14435,0,0,0,0,0,0,0,-1,1896,638,7.23353,-2.14433
679,386,8.07764,2.57104,0,0,0,0,0,0,0,-1,1903,638,8.07758,-2.57103
686,386,0,0,0,0,0,0,0,0,0,-1,1910,638,0,0
693,386,0,0,0,0,0,0,0,0,0,-1,1917,638,0,0
700,386,0,0,0,0,0,0,0,0,0,-1,1924,638,0,0
707,386,0,0,0,0,0,0,0,0,0,-1,1931,638,0,0
714,386,0,0,0,0,0,0,0,0,0,-1,1938,638,0,0
721,386,0,0,0,0,0,0,0,0,0,-1,1945,638,0,0
728,386,0,0,0,0,0,0,0,0,0,-1,1952,638,0,0
735,386,0,0,0,0,0,0,0,0,0,-1,1959,638,0,0
742,386,0,0,0,0,0,0,0,0,0,-1,1966,638,0,0
749,386,0,0,0,0,0,0,0,0,0,-1,1973,638,0,0
756,386,0,0,0,0,0,0,0,0,0,-1,1980,638,0,0
763,386,0,0,0,0,0,0,0,0,0,-1,1987,638,0,0
770,386,0,0,0,0,0,0,0,0,0,-1,1994,638,0,0
777,386,0,0,0,0,0,0,0,0,0,-1,2001,638,0,0
784,386,0,0,0,0,0,0,0,0,0,-1,2008,638,0,0
791,386,0,0,0,0,0,0,0,0,0,-1,2015,638,0,0
798,386,0,0,0,0,0,0,0,0,0,-1,2022,638,0,0
805,386,0,0,0,0,0,0,0,0,0,-1,2029,638,0,0
812,386,0,0,0,0,0,0,0,0,0,-1,2036,638,0,0
-700,379,0,0,0,0,0,0,0,0,0,-1,524,645,0,0
-693,379,0,0,0,0,0,0,0,0,0,-1,531,645,0,0
-686,379,0,0,0,0,0,0,0,0,0,-1,538,645,0,0
-679,379,0,0,0,0,0,0,0,0,0,-1,545,645,0,0
-672,379,0,0,0,0,0,0,0,0,0,-1,552,645,0,0
-665,379,0,0,0,0,0,0,0,0,0,-1,559,645,0,0
-658,379,0,0,0,0,0,0,0,0,0,-1,566,645,0,0
-651,379,0,0,0,0,0,0,0,0,0,-1,573,645,0,0
-644,379,0,0,0,0,0,0,0,0,0,-1,580,645,0,0
-637,379,0,0,0,0,0,0,0,0,0,-1,587,645,0,0
-630,379,0,0,0,0,0,0,0,0,0,-1,594,645,0,0
-623,379,0,0,0,0,0,0,0,0,0,-1,601,645,0,0
-616,379,0,0,0,0,0,0,0,0,0,-1,608,645,0,0
-609,379,0,0,0,0,0,0,0,0,0,-1,615,645,0,0
-602,379,0,0,0,0,0,0,0,0,0,-1,622,645,0,0
-595,379,0,0,0,0,0,0,0,0,0,-1,629,645,0,0
-588,379,0,0,0,0,0,0,0,0,0,-1,636,645,0,0
-581,379,0,0,0,0,0,0,0,0,0,-1,643,645,0,0
-574,379,0,0,0,0,0,0,0,0,0,-1,650,645,0,0
-567,379,-8.78058,0.59668,0,0,0,0,0,0,0,-1,657,645,-8.7806,-0.596692
-560,379,-9.53485,-0.211304,0,0,0,0,0,0,0,-1,664,645,-9.53487,0.211282
-553,379,-5.17108,-4.53119,0,0,0,0,0,0,0,-1,671,645,-5.17106,4.53117
-546,379,-6.23053,-4.92102,0,0,0,0,0,0,0,-1,678,645,-6.23054,4.92105
-539,379,-0.71698,-2.19427,0,0,0,0,0,0,0,-1,685,645,-0.716959,2.19427
-532,379,-7.69611,0.217224,0,0,0,0,0,0,0,-1,692,645,-7.69614,-0.217204
-525,379,-7.09833,-1.13043,0,0,0,0,0,0,0,-1,699,645,-7.0983,1.13041
-518,379,-13.126,-5.33893,0,0,0,0,0,0,0,-1,706,645,-13.126,5.33895
-511,379,-14.8657,-6.78174,0,0,0,0,0,0,0,-1,713,645,-14.8657,6.78176
-504,379,-14.8365,-7.59625,0.00242016,0.00147272,-0.00140434,0.00342852,0.000464357,-0.622729,0.00214769,0.031985,720,645,-14.8365,7.59623
-497,379,-14.9139,-8.28467,0.00173855,0.00111173,-0.000971859,0.00244628,0.000403997,-0.629421,0.00151426,0.0147474,727,645,-14.9139,8.28466
-490,379,-14.934,-9.03564,0.00142414,0.000920048,-0.000793515,0.00200468,0.000339513,-0.631621,0.00123889,0.0114307,734,645,-14.934,9.03567
-483,379,-14.9564,-9.76556,0.00128823,0.00078029,-0.000714068,0.00179215,0.000276374,-0.61454,0.00111413,0.0135102,741,645,-14.9563,9.76559
-476,379,-14.9752,-10.4481,0.00134769,0.000695868,-0.000739608,0.00183001,0.000213547,-0.577871,0.00115542,0.0137565,748,645,-14.9752,10.4481
-469,379,-15.0228,-11.1282,0.00151529,0.000591508,-0.000796775,0.00197437,0.000132425,-0.522718,0.0012744,0.0123378,755,645,-15.0228,11.1282
-462,379,-15.0681,-11.8399,0.00171563,0.000463548,-0.000847576,0.0021433,3.58745e-05,-0.467308,0.00141706,0.00968961,762,645,-15.068,11.8399
-455,379,-15.0991,-12.5602,0.00197395,0.000145493,-0.000870341,0.00232198,-0.000202542,-0.380405,0.00161973,0.0098974,769,645,-15.099,12.5602
-448,379,-15.1131,-13.2496,0.00231422,-0.00013283,-0.0009152,0.00261864,-0.000437246,-0.321111,0.00190828,0.011387,776,645,-15.1131,13.2496
-441,379,-15.1343,-13.9896,0.00263418,-0.00053532,-0.000928488,0.00288615,-0.000787285,-0.26499,0.00223327,0.0217953,783,645,-15.1344,13.9895
-434,379,-15.0129,-14.8113,0,0,0,0,0,0,0,-1,790,645,-15.0129,14.8113
-427,379,-4.16113,-4.13452,0,0,0,0,0,0,0,-1,797,645,-4.16116,4.1345
-420,379,-4.63953,-3.46869,0,0,0,0,0,0,0,-1,804,645,-4.63953,3.46872
-413,379,-4.62543,-3.7912,0,0,0,0,0,0,0,-1,811,645,-4.62541,3.79123
-406,379,-4.64063,-4.38489,0,0,0,0,0,0,0,-1,818,645,-4.64065,4.3849
-399,379,-2.93536,-1.40118,0,0,0,0,0,0,0,-1,825,645,-2.93534,1.40119
-392,379,-4.16711,-0.466003,0,0,0,0,0,0,0,-1,832,645,-4.16714,0.465992
-385,379,-3.51862,0.441101,0,0,0,0,0,0,0,-1,839,645,-3.51859,-0.441072
-378,379,-5.3504,0.212219,0,0,0,0,0,0,0,-1,846,645,-5.35038,-0.212241
-371,379,-4.32092,-0.186707,0,0,0,0,0,0,0,-1,853,645,-4.3209,0.186707
-364,379,-3.40887,-0.549805,0,0,0,0,0,0,0,-1,860,645,-3.4089,0.549802
-357,379,0,0,0,0,0,0,0,0,0,-1,867,645,0,0
-350,379,0,0,0,0,0,0,0,0,0,-1,874,645,0,0
-343,379,0,0,0,0,0,0,0,0,0,-1,881,645,0,0
-336,379,0,0,0,0,0,0,0,0,0,-1,888,645,0,0
-329,379,0,0,0,0,0,0,0,0,0,-1,895,645,0,0
-322,379,0,0,0,0,0,0,0,0,0,-1,902,645,0,0
-315,379,0,0,0,0,0,0,0,0,0,-1,909,645,0,0
-308,379,0,0,0,0,0,0,0,0,0,-1,916,645,0,0
-301,379,0,0,0,0,0,0,0,0,0,-1,923,645,0,0
-294,379,0,0,0,0,0,0,0,0,0,-1,930,645,0,0
-287,379,0,0,0,0,0,0,0,0,0,-1,937,645,0,0
-280,379,0,0,0,0,0,0,0,0,0,-1,944,645,0,0
-273,379,0,0,0,0,0,0,0,0,0,-1,951,645,0,0
-266,379,0,0,0,0,0,0,0,0,0,-1,958,645,0,0
-259,379,0,0,0,0,0,0,0,0,0,-1,965,645,0,0
-252,379,0,0,0,0,0,0,0,0,0,-1,972,645,0,0
-245,379,0,0,0,0,0,0,0,0,0,-1,979,645,0,0
-238,379,0,0,0,0,0,0,0,0,0,-1,986,645,0,0
-231,379,0,0,0,0,0,0,0,0,0,-1,993,645,0,0
-224,379,0,0,0,0,0,0,0,0,0,-1,1000,645,0,0
-217,379,0,0,0,0,0,0,0,0,0,-1,1007,645,0,0
-210,379,0,0,0,0,0,0,0,0,0,-1,1014,645,0,0
-203,379,0,0,0,0,0,0,0,0,0,-1,1021,645,0,0
-196,379,0,0,0,0,0,0,0,0,0,-1,1028,645,0,0
-189,379,0,0,0,0,0,0,0,0,0,-1,1035,645,0,0
-182,379,0,0,0,0,0,0,0,0,0,-1,1042,645,0,0
-175,379,0,0,0,0,0,0,0,0,0,-1,1049,645,0,0
-168,379,0,0,0,0,0,0,0,0,0,-1,1056,645,0,0
-161,379,0,0,0,0,0,0,0,0,0,-1,1063,645,0,0
-154,379,0,0,0,0,0,0,0,0,0,-1,1070,645,0,0
-147,379,0,0,0,0,0,0,0,0,0,-1,1077,645,0,0
-140,379,0,0,0,0,0,0,0,0,0,-1,1084,645,0,0
-133,379,0,0,0,0,0,0,0,0,0,-1,1091,645,0,0
-126,379,0,0,0,0,0,0,0,0,0,-1,1098,645,0,0
-119,379,0,0,0,0,0,0,0,0,0,-1,1105,645,0,0
-112,379,0,0,0,0,0,0,0,0,0,-1,1112,645,0,0
-105,379,0,0,0,0,0,0,0,0,0,-1,1119,645,0,0
-98,379,0,0,0,0,0,0,0,0,0,-1,1126,645,0,0
-91,379,0,0,0,0,0,0,0,0,0,-1,1133,645,0,0
-84,379,0,0,0,0,0,0,0,0,0,-1,1140,645,0,0
-77,379,0,0,0,0,0,0,0,0,0,-1,1147,645,0,0
-70,379,0,0,0,0,0,0,0,0,0,-1,1154,645,0,0
-63,379,0,0,0,0,0,0,0,0,0,-1,1161,645,0,0
-56,379,0,0,0,0,0,0,0,0,0,-1,1168,645,0,0
-49,379,0,0,0,0,0,0,0,0,0,-1,1175,645,0,0
-42,379,0,0,0,0,0,0,0,0,0,-1,1182,645,0,0
-35,379,0,0,0,0,0,0,0,0,0,-1,1189,645,0,0
-28,379,0,0,0,0,0,0,0,0,0,-1,1196,645,0,0
-21,379,0,0,0,0,0,0,0,0,0,-1,1203,645,0,0
-14,379,0,0,0,0,0,0,0,0,0,-1,1210,645,0,0
-7,379,0,0,0,0,0,0,0,0,0,-1,1217,645,0,0
0,379,0,0,0,0,0,0,0,0,0,-1,1224,645,0,0
7,379,0,0,0,0,0,0,0,0,0,-1,1231,645,0,0
14,379,0,0,0,0,0,0,0,0,0,-1,1238,645,0,0
21,379,0,0,0,0,0,0,0,0,0,-1,1245,645,0,0
28,379,0,0,0,0,0,0,0,0,0,-1,1252,645,0,0
35,379,0,0,0,0,0,0,0,0,0,-1,1259,645,0,0
42,379,0,0,0,0,0,0,0,0,0,-1,1266,645,0,0
49,379,0,0,0,0,0,0,0,0,0,-1,1273,645,0,0
56,379,0,0,0,0,0,0,0,0,0,-1,1280,645,0,0
63,379,0,0,0,0,0,0,0,0,0,-1,1287,645,0,0
70,379,0,0,0,0,0,0,0,0,0,-1,1294,645,0,0
77,379,0,0,0,0,0,0,0,0,0,-1,1301,645,0,0
84,379,0,0,0,0,0,0,0,0,0,-1,1308,645,0,0
91,379,0,0,0,0,0,0,0,0,0,-1,1315,645,0,0
98,379,0,0,0,0,0,0,0,0,0,-1,1322,645,0,0
105,379,0,0,0,0,0,0,0,0,0,-1,1329,645,0,0
112,379,0,0,0,0,0,0,0,0,0,-1,1336,645,0,0
119,379,0,0,0,0,0,0,0,0,0,-1,1343,645,0,0
126,379,0,0,0,0,0,0,0,0,0,-1,1350,645,0,0
133,379,0,0,0,0,0,0,0,0,0,-1,1357,645,0,0
140,379,0,0,0,0,0,0,0,0,0,-1,1364,645,0,0
147,379,0,0,0,0,0,0,0,0,0,-1,1371,645,0,0
154,379,0,0,0,0,0,0,0,0,0,-1,1378,645,0,0
161,379,0,0,0,0,0,0,0,0,0,-1,1385,645,0,0
168,379,0,0,0,0,0,0,0,0,0,-1,1392,645,0,0
175,379,0,0,0,0,0,0,0,0,0,-1,1399,645,0,0
182,379,0,0,0,0,0,0,0,0,0,-1,1406,645,0,0
189,379,0,0,0,0,0,0,0,0,0,-1,1413,645,0,0
196,379,0,0,0,0,0,0,0,0,0,-1,1420,645,0,0
203,379,0,0,0,0,0,0,0,0,0,-1,1427,645,0,0
210,379,0,0,0,0,0,0,0,0,0,-1,1434,645,0,0
217,379,0,0,0,0,0,0,0,0,0,-1,1441,645,0,0
224,379,0,0,0,0,0,0,0,0,0,-1,1448,645,0,0
231,379,0,0,0,0,0,0,0,0,0,-1,1455,645,0,0
238,379,0,0,0,0,0,0,0,0,0,-1,1462,645,0,0
245,379,0,0,0,0,0,0,0,0,0,-1,1469,645,0,0
252,379,0,0,0,0,0,0,0,0,0,-1,1476,645,0,0
259,379,0,0,0,0,0,0,0,0,0,-1,1483,645,0,0
266,379,0,0,0,0,0,0,0,0,0,-1,1490,645,0,0
273,379,0,0,0,0,0,0,0,0,0,-1,1497,645,0,0
280,379,0,0,0,0,0,0,0,0,0,-1,1504,645,0,0
287,379,0,0,0,0,0,0,0,0,0,-1,1511,645,0,0
294,379,0,0,0,0,0,0,0,0,0,-1,1518,645,0,0
301,379,0,0,0,0,0,0,0,0,0,-1,1525,645,0,0
308,379,0,0,0,0,0,0,0,0,0,-1,1532,645,0,0
315,379,0,0,0,0,0,0,0,0,0,-1,1539,645,0,0
322,379,0,0,0,0,0,0,0,0,0,-1,1546,645,0,0
329,379,0,0,0,0,0,0,0,0,0,-1,1553,645,0,0
336,379,0,0,0,0,0,0,0,0,0,-1,1560,645,0,0
343,379,0,0,0,0,0,0,0,0,0,-1,1567,645,0,0
350,379,0,0,0,0,0,0,0,0,0,-1,1574,645,0,0
357,379,0,0,0,0,0,0,0,0,0,-1,1581,645,0,0
364,379,0,0,0,0,0,0,0,0,0,-1,1588,645,0,0
371,379,0,0,0,0,0,0,0,0,0,-1,1595,645,0,0
378,379,0,0,0,0,0,0,0,0,0,-1,1602,645,0,0
385,379,0,0,0,0,0,0,0,0,0,-1,1609,645,0,0
392,379,0,0,0,0,0,0,0,0,0,-1,1616,645,0,0
399,379,0,0,0,0,0,0,0,0,0,-1,1623,645,0,0
406,379,0,0,0,0,0,0,0,0,0,-1,1630,645,0,0
413,379,0,0,0,0,0,0,0,0,0,-1,1637,645,0,0
420,379,0,0,0,0,0,0,0,0,0,-1,1644,645,0,0
427,379,0,0,0,0,0,0,0,0,0,-1,1651,645,0,0
434,379,0,0,0,0,0,0,0,0,0,-1,1658,645,0,0
441,379,0,0,0,0,0,0,0,0,0,-1,1665,645,0,0
448,379,0,0,0,0,0,0,0,0,0,-1,1672,645,0,0
455,379,0,0,0,0,0,0,0,0,0,-1,1679,645,0,0
462,379,0,0,0,0,0,0,0,0,0,-1,1686,645,0,0
469,379,0,0,0,0,0,0,0,0,0,-1,1693,645,0,0
476,379,11.1787,0.830383,0,0,0,0,0,0,0,-1,1700,645,11.1787,-0.830365
483,379,7.4231,1.54321,0,0,0,0,0,0,0,-1,1707,645,7.42314,-1.54324
490,379,8.52881,1.56677,0,0,0,0,0,0,0,-1,1714,645,8.52878,-1.56677
497,379,9.63599,1.49573,0,0,0,0,0,0,0,-1,1721,645,9.63604,-1.4957
504,379,10.0833,1.35229,0,0,0,0,0,0,0,-1,1728,645,10.0832,-1.35227
511,379,8.14343,1.59912,0,0,0,0,0,0,0,-1,1735,645,8.14347,-1.59912
518,379,12.7955,-0.324097,0,0,0,0,0,0,0,-1,1742,645,12.7955,0.324101
525,379,6.03711,1.10352,0,0,0,0,0,0,0,-1,1749,645,6.03711,-1.10351
532,379,8.70947,0.887817,0,0,0,0,0,0,0,-1,1756,645,8.70953,-0.887808
539,379,9.87097,0.111389,0,0,0,0,0,0,0,-1,1763,645,9.87095,-0.111395
546,379,8.42383,-0.730652,0,0,0,0,0,0,0,-1,1770,645,8.42378,0.730638
553,379,19.2905,-7.67834,0,0,0,0,0,0,0,-1,1777,645,19.2905,7.67837
560,379,22.5734,-10.4749,0,0,0,0,0,0,0,-1,1784,645,22.5734,10.4749
567,379,27.4574,-12.7759,0,0,0,0,0,0,0,-1,1791,645,27.4574,12.7759
574,379,27.4611,-11.9948,0.00153251,0.000718409,-0.000138899,0.00155555,0.000695363,-0.164422,0.000899777,0.0167604,1798,645,27.461,11.9948
581,379,27.449,-11.2867,0.000899088,0.000565431,-0.000265338,0.00104569,0.000418834,-0.504756,0.000607696,0.0152521,1805,645,27.4489,11.2867
588,379,27.4308,-10.5401,0.000677953,0.000637105,-0.000124368,0.000783563,0.000531496,-0.704014,0.000461879,0.0161834,1812,645,27.4307,10.5401
595,379,27.3926,-9.80194,0.000864318,0.00103144,0.000248172,0.00120974,0.000686017,0.947791,0.000700537,0.0135134,1819,645,27.3925,9.80197
602,379,27.3317,-9.09912,0.00136211,0.0016443,0.000825349,0.00234053,0.000665887,0.870056,0.00139251,0.0158836,1826,645,27.3316,9.09913
609,379,27.2831,-8.39612,0.00202903,0.00244512,0.00150791,0.00375927,0.000714886,0.853951,0.00230514,0.0181398,1833,645,27.283,8.3961
616,379,27.2454,-7.64935,0.00291428,0.00344769,0.00232069,0.00551695,0.00084502,0.84261,0.00343116,0.0138257,1840,645,27.2453,7.64936
623,379,27.2318,-6.86578,0.00404356,0.00458229,0.00327656,0.00760054,0.00102531,0.826411,0.00476219,0.0121546,1847,645,27.2319,6.86576
630,379,27.2152,-6.12939,0.00535004,0.0058156,0.00431709,0.00990618,0.00125946,0.812332,0.0062269,0.014676,1854,645,27.2153,6.12938
637,379,27.2336,-5.26154,0.00673193,0.00724204,0.0054395,0.0124325,0.00154151,0.808826,0.00782525,0.047339,1861,645,27.2337,5.26151
644,379,27.4888,-4.25122,0,0,0,0,0,0,0,-1,1868,645,27.4887,4.25119
651,379,12.9515,0.220825,0,0,0,0,0,0,0,-1,1875,645,12.9515,-0.220814
658,379,13.7498,0.37439,0,0,0,0,0,0,0,-1,1882,645,13.7498,-0.374371
665,379,11.9719,0.353333,0,0,0,0,0,0,0,-1,1889,645,11.9719,-0.353321
672,379,7.57605,2.15326,0,0,0,0,0,0,0,-1,1896,645,7.57599,-2.15326
679,379,8.55078,2.50409,0,0,0,0,0,0,0,-1,1903,645,8.55073,-2.50406
686,379,0,0,0,0,0,0,0,0,0,-1,1910,645,0,0
693,379,0,0,0,0,0,0,0,0,0,-1,1917,645,0,0
700,379,0,0,0,0,0,0,0,0,0,-1,1924,645,0,0
707,379,0,0,0,0,0,0,0,0,0,-1,1931,645,0,0
714,379,0,0,0,0,0,0,0,0,0,-1,1938,645,0,0
721,379,0,0,0,0,0,0,0,0,0,-1,1945,645,0,0
728,379,0,0,0,0,0,0,0,0,0,-1,1952,645,0,0
735,379,0,0,0,0,0,0,0,0,0,-1,1959,645,0,0
742,379,0,0,0,0,0,0,0,0,0,-1,1966,645,0,0
749,379,0,0,0,0,0,0,0,0,0,-1,1973,645,0,0
756,379,0,0,0,0,0,0,0,0,0,-1,1980,645,0,0
763,379,0,0,0,0,0,0,0,0,0,-1,1987,645,0,0
770,379,0,0,0,0,0,0,0,0,0,-1,1994,645,0,0
777,379,0,0,0,0,0,0,0,0,0,-1,2001,645,0,0
784,379,0,0,0,0,0,0,0,0,0,-1,2008,645,0,0
791,379,0,0,0,0,0,0,0,0,0,-1,2015,645,0,0
798,379,0,0,0,0,0,0,0,0,0,-1,2022,645,0,0
805,379,0,0,0,0,0,0,0,0,0,-1,2029,645,0,0
812,379,0,0,0,0,0,0,0,0,0,-1,2036,645,0,0
-700,372,0,0,0,0,0,0,0,0,0,-1,524,652,0,0
-693,372,0,0,0,0,0,0,0,0,0,-1,531,652,0,0
-686,372,0,0,0,0,0,0,0,0,0,-1,538,652,0,0
-679,372,0,0,0,0,0,0,0,0,0,-1,545,652,0,0
-672,372,0,0,0,0,0,0,0,0,0,-1,552,652,0,0
-665,372,0,0,0,0,0,0,0,0,0,-1,559,652,0,0
-658,372,0,0,0,0,0,0,0,0,0,-1,566,652,0,0
-651,372,0,0,0,0,0,0,0,0,0,-1,573,652,0,0
-644,372,0,0,0,0,0,0,0,0,0,-1,580,652,0,0
-637,372,0,0,0,0,0,0,0,0,0,-1,587,652,0,0
-630,372,0,0,0,0,0,0,0,0,0,-1,594,652,0,0
-623,372,0,0,0,0,0,0,0,0,0,-1,601,652,0,0
-616,372,0,0,0,0,0,0,0,0,0,-1,608,652,0,0
-609,372,0,0,0,0,0,0,0,0,0,-1,615,652,0,0
-602,372,0,0,0,0,0,0,0,0,0,-1,622,652,0,0
-595,372,0,0,0,0,0,0,0,0,0,-1,629,652,0,0
-588,372,0,0,0,0,0,0,0,0,0,-1,636,652,0,0
-581,372,0,0,0,0,0,0,0,0,0,-1,643,652,0,0
-574,372,0,0,0,0,0,0,0,0,0,-1,650,652,0,0
-567,372,-7.93744,0.73407,0,0,0,0,0,0,0,-1,657,652,-7.93741,-0.734076
-560,372,-8.78552,-0.158203,0,0,0,0,0,0,0,-1,664,652,-8.78552,0.158216
-553,372,-7.95551,1.61694,0,0,0,0,0,0,0,-1,671,652,-7.95552,-1.61697
-546,372,-4.2403,-3.75372,0,0,0,0,0,0,0,-1,678,652,-4.24028,3.75369
-539,372,-7.92285,-0.0650024,0,0,0,0,0,0,0,-1,685,652,-7.92287,0.0649772
-532,372,-8.59589,-0.419556,0,0,0,0,0,0,0,-1,692,652,-8.59591,0.419539
-525,372,-8.03674,-1.36804,0,0,0,0,0,0,0,-1,699,652,-8.03676,1.36806
-518,372,-15.5763,-5.97601,0,0,0,0,0,0,0,-1,706,652,-15.5763,5.97603
-511,372,-15.5522,-6.86121,0.00355994,0.00151846,-0.0017269,0.00454521,0.000533192,-0.51848,0.00286897,0.03835,713,652,-15.5522,6.8612
-504,372,-15.5925,-7.53143,0.00262608,0.00113137,-0.00125966,0.0033434,0.000414048,-0.517658,0.00210454,0.0178981,720,652,-15.5925,7.53143
-497,372,-15.5894,-8.26611,0.00203508,0.0007822,-0.000911175,0.00251439,0.000302898,-0.484251,0.00158497,0.0124937,727,652,-15.5894,8.26609
-490,372,-15.6301,-8.98334,0.00173996,0.000618283,-0.000782686,0.002142,0.000216242,-0.474523,0.00136166,0.0124687,734,652,-15.6301,8.98333
-483,372,-15.6699,-9.69501,0.00163175,0.000525915,-0.000733684,0.00199754,0.000160133,-0.462491,0.00128165,0.0129583,741,652,-15.6699,9.69501
-476,372,-15.687,-10.3774,0.00170551,0.000531251,-0.000791721,0.00210405,0.000132712,-0.46635,0.00136062,0.01448,748,652,-15.687,10.3774
-469,372,-15.7281,-11.0682,0.00188134,0.000544467,-0.000899234,0.00233337,9.24451e-05,-0.465785,0.0015257,0.0113853,755,652,-15.7281,11.0682
-462,372,-15.7662,-11.7897,0.00210602,0.000568109,-0.00102764,0.00262055,5.35819e-05,-0.4642,0.00172945,0.00985059,762,652,-15.7662,11.7897
-455,372,-15.7991,-12.5026,0.00241545,0.000413235,-0.00114919,0.00293843,-0.000109744,-0.427077,0.00199654,0.0106078,769,652,-15.7991,12.5025
-448,372,-15.8108,-13.2142,0.00280128,0.000319915,-0.00130115,0.00335846,-0.000237258,-0.404591,0.0023221,0.0138832,776,652,-15.8108,13.2142
-441,372,-15.6893,-14.0991,0,0,0,0,0,0,0,-1,783,652,-15.6893,14.099
-434,372,-9.86865,-9.68494,0,0,0,0,0,0,0,-1,790,652,-9.86863,9.68492
-427,372,-4.54248,-3.56268,0,0,0,0,0,0,0,-1,797,652,-4.54247,3.56266
-420,372,-4.66168,-2.93597,0,0,0,0,0,0,0,-1,804,652,-4.66166,2.93599
-413,372,-4.74762,-3.29541,0,0,0,0,0,0,0,-1,811,652,-4.74763,3.29542
-406,372,-0.885437,-0.583923,0,0,0,0,0,0,0,-1,818,652,-0.885437,0.5839
-399,372,-3.97357,-0.825012,0,0,0,0,0,0,0,-1,825,652,-3.97359,0.825037
-392,372,-7.64337,0.173035,0,0,0,0,0,0,0,-1,832,652,-7.64337,-0.173019
-385,372,-6.48871,-0.0271606,0,0,0,0,0,0,0,-1,839,652,-6.48874,0.0271353
-378,372,-5.33044,-0.242432,0,0,0,0,0,0,0,-1,846,652,-5.33042,0.242457
-371,372,-4.40802,-0.495667,0,0,0,0,0,0,0,-1,853,652,-4.40802,0.495661
-364,372,0,0,0,0,0,0,0,0,0,-1,860,652,0,0
-357,372,0,0,0,0,0,0,0,0,0,-1,867,652,0,0
-350,372,0,0,0,0,0,0,0,0,0,-1,874,652,0,0
-343,372,0,0,0,0,0,0,0,0,0,-1,881,652,0,0
-336,372,0,0,0,0,0,0,0,0,0,-1,888,652,0,0
-329,372,0,0,0,0,0,0,0,0,0,-1,895,652,0,0
-322,372,0,0,0,0,0,0,0,0,0,-1,902,652,0,0
-315,372,0,0,0,0,0,0,0,0,0,-1,909,652,0,0
-308,372,0,0,0,0,0,0,0,0,0,-1,916,652,0,0
-301,372,0,0,0,0,0,0,0,0,0,-1,923,652,0,0
-294,372,0,0,0,0,0,0,0,0,0,-1,930,652,0,0
-287,372,0,0,0,0,0,0,0,0,0,-1,937,652,0,0
-280,372,0,0,0,0,0,0,0,0,0,-1,944,652,0,0
-273,372,0,0,0,0,0,0,0,0,0,-1,951,652,0,0
-266,372,0,0,0,0,0,0,0,0,0,-1,958,652,0,0
-259,372,0,0,0,0,0,0,0,0,0,-1,965,652,0,0
-252,372,0,0,0,0,0,0,0,0,0,-1,972,652,0,0
-245,372,0,0,0,0,0,0,0,0,0,-1,979,652,0,0
-238,372,0,0,0,0,0,0,0,0,0,-1,986,652,0,0
-231,372,0,0,0,0,0,0,0,0,0,-1,993,652,0,0
-224,372,0,0,0,0,0,0,0,0,0,-1,1000,652,0,0
-217,372,0,0,0,0,0,0,0,0,0,-1,1007,652,0,0
-210,372,0,0,0,0,0,0,0,0,0,-1,1014,652,0,0
-203,372,0,0,0,0,0,0,0,0,0,-1,1021,652,0,0
-196,372,0,0,0,0,0,0,0,0,0,-1,1028,652,0,0
-189,372,0,0,0,0,0,0,0,0,0,-1,1035,652,0,0
-182,372,0,0,0,0,0,0,0,0,0,-1,1042,652,0,0
-175,372,0,0,0,0,0,0,0,0,0,-1,1049,652,0,0
-168,372,0,0,0,0,0,0,0,0,0,-1,1056,652,0,0
-161,372,0,0,0,0,0,0,0,0,0,-1,1063,652,0,0
-154,372,0,0,0,0,0,0,0,0,0,-1,1070,652,0,0
-147,372,0,0,0,0,0,0,0,0,0,-1,1077,652,0,0
-140,372,0,0,0,0,0,0,0,0,0,-1,1084,652,0,0
-133,372,0,0,0,0,0,0,0,0,0,-1,1091,652,0,0
-126,372,0,0,0,0,0,0,0,0,0,-1,1098,652,0,0
-119,372,0,0,0,0,0,0,0,0,0,-1,1105,652,0,0
-112,372,0,0,0,0,0,0,0,0,0,-1,1112,652,0,0
-105,372,0,0,0,0,0,0,0,0,0,-1,1119,652,0,0
-98,372,0,0,0,0,0,0,0,0,0,-1,1126,652,0,0
-91,372,0,0,0,0,0,0,0,0,0,-1,1133,652,0,0
-84,372,0,0,0,0,0,0,0,0,0,-1,1140,652,0,0
-77,372,0,0,0,0,0,0,0,0,0,-1,1147,652,0,0
-70,372,0,0,0,0,0,0,0,0,0,-1,1154,652,0,0
-63,372,0,0,0,0,0,0,0,0,0,-1,1161,652,0,0
-56,372,0,0,0,0,0,0,0,0,0,-1,1168,652,0,0
-49,372,0,0,0,0,0,0,0,0,0,-1,1175,652,0,0
-42,372,0,0,0,0,0,0,0,0,0,-1,1182,652,0,0
-35,372,0,0,0,0,0,0,0,0,0,-1,1189,652,0,0
-28,372,0,0,0,0,0,0,0,0,0,-1,1196,652,0,0
-21,372,0,0,0,0,0,0,0,0,0,-1,1203,652,0,0
-14,372,0,0,0,0,0,0,0,0,0,-1,1210,652,0,0
-7,372,0,0,0,0,0,0,0,0,0,-1,1217,652,0,0
0,372,0,0,0,0,0,0,0,0,0,-1,1224,652,0,0
7,372,0,0,0,0,0,0,0,0,0,-1,1231,652,0,0
14,372,0,0,0,0,0,0,0,0,0,-1,1238,652,0,0
21,372,0,0,0,0,0,0,0,0,0,-1,1245,652,0,0
28,372,0,0,0,0,0,0,0,0,0,-1,1252,652,0,0
35,372,0,0,0,0,0,0,0,0,0,-1,1259,652,0,0
42,372,0,0,0,0,0,0,0,0,0,-1,1266,652,0,0
49,372,0,0,0,0,0,0,0,0,0,-1,1273,652,0,0
56,372,0,0,0,0,0,0,0,0,0,-1,1280,652,0,0
63,372,0,0,0,0,0,0,0,0,0,-1,1287,652,0,0
70,372,0,0,0,0,0,0,0,0,0,-1,1294,652,0,0
77,372,0,0,0,0,0,0,0,0,0,-1,1301,652,0,0
84,372,0,0,0,0,0,0,0,0,0,-1,1308,652,0,0
91,372,0,0,0,0,0,0,0,0,0,-1,1315,652,0,0
98,372,0,0,0,0,0,0,0,0,0,-1,1322,652,0,0
105,372,0,0,0,0,0,0,0,0,0,-1,1329,652,0,0
112,372,0,0,0,0,0,0,0,0,0,-1,1336,652,0,0
119,372,0,0,0,0,0,0,0,0,0,-1,1343,652,0,0
126,372,0,0,0,0,0,0,0,0,0,-1,1350,652,0,0
133,372,0,0,0,0,0,0,0,0,0,-1,1357,652,0,0
140,372,0,0,0,0,0,0,0,0,0,-1,1364,652,0,0
147,372,0,0,0,0,0,0,0,0,0,-1,1371,652,0,0
154,372,0,0,0,0,0,0,0,0,0,-1,1378,652,0,0
161,372,0,0,0,0,0,0,0,0,0,-1,1385,652,0,0
168,372,0,0,0,0,0,0,0,0,0,-1,1392,652,0,0
175,372,0,0,0,0,0,0,0,0,0,-1,1399,652,0,0
182,372,0,0,0,0,0,0,0,0,0,-1,1406,652,0,0
189,372,0,0,0,0,0,0,0,0,0,-1,1413,652,0,0
196,372,0,0,0,0,0,0,0,0,0,-1,1420,652,0,0
203,372,0,0,0,0,0,0,0,0,0,-1,1427,652,0,0
210,372,0,0,0,0,0,0,0,0,0,-1,1434,652,0,0
217,372,0,0,0,0,0,0,0,0,0,-1,1441,652,0,0
224,372,0,0,0,0,0,0,0,0,0,-1,1448,652,0,0
231,372,0,0,0,0,0,0,0,0,0,-1,1455,652,0,0
238,372,0,0,0,0,0,0,0,0,0,-1,1462,652,0,0
245,372,0,0,0,0,0,0,0,0,0,-1,1469,652,0,0
252,372,0,0,0,0,0,0,0,0,0,-1,1476,652,0,0
259,372,0,0,0,0,0,0,0,0,0,-1,1483,652,0,0
266,372,0,0,0,0,0,0,0,0,0,-1,1490,652,0,0
273,372,0,0,0,0,0,0,0,0,0,-1,1497,652,0,0
280,372,0,0,0,0,0,0,0,0,0,-1,1504,652,0,0
287,372,0,0,0,0,0,0,0,0,0,-1,1511,652,0,0
294,372,0,0,0,0,0,0,0,0,0,-1,1518,652,0,0
301,372,0,0,0,0,0,0,0,0,0,-1,1525,652,0,0
308,372,0,0,0,0,0,0,0,0,0,-1,1532,652,0,0
315,372,0,0,0,0,0,0,0,0,0,-1,1539,652,0,0
322,372,0,0,0,0,0,0,0,0,0,-1,1546,652,0,0
329,372,0,0,0,0,0,0,0,0,0,-1,1553,652,0,0
336,372,0,0,0,0,0,0,0,0,0,-1,1560,652,0,0
343,372,0,0,0,0,0,0,0,0,0,-1,1567,652,0,0
350,372,0,0,0,0,0,0,0,0,0,-1,1574,652,0,0
357,372,0,0,0,0,0,0,0,0,0,-1,1581,652,0,0
364,372,0,0,0,0,0,0,0,0,0,-1,1588,652,0,0
371,372,0,0,0,0,0,0,0,0,0,-1,1595,652,0,0
378,372,0,0,0,0,0,0,0,0,0,-1,1602,652,0,0
385,372,0,0,0,0,0,0,0,0,0,-1,1609,652,0,0
392,372,0,0,0,0,0,0,0,0,0,-1,1616,652,0,0
399,372,0,0,0,0,0,0,0,0,0,-1,1623,652,0,0
406,372,0,0,0,0,0,0,0,0,0,-1,1630,652,0,0
413,372,0,0,0,0,0,0,0,0,0,-1,1637,652,0,0
420,372,0,0,0,0,0,0,0,0,0,-1,1644,652,0,0
427,372,0,0,0,0,0,0,0,0,0,-1,1651,652,0,0
434,372,0,0,0,0,0,0,0,0,0,-1,1658,652,0,0
441,372,0,0,0,0,0,0,0,0,0,-1,1665,652,0,0
448,372,0,0,0,0,0,0,0,0,0,-1,1672,652,0,0
455,372,0,0,0,0,0,0,0,0,0,-1,1679,652,0,0
462,372,0,0,0,0,0,0,0,0,0,-1,1686,652,0,0
469,372,0,0,0,0,0,0,0,0,0,-1,1693,652,0,0
476,372,0,0,0,0,0,0,0,0,0,-1,1700,652,0,0
483,372,8.74182,1.53125,0,0,0,0,0,0,0,-1,1707,652,8.74186,-1.53126
490,372,9.78455,1.67096,0,0,0,0,0,0,0,-1,1714,652,9.7846,-1.67093
497,372,9.97644,1.46069,0,0,0,0,0,0,0,-1,1721,652,9.97647,-1.46071
504,372,10.1216,1.28375,0,0,0,0,0,0,0,-1,1728,652,10.1216,-1.28376
511,372,11.7367,-0.0272217,0,0,0,0,0,0,0,-1,1735,652,11.7367,0.0272326
518,372,12.0657,-0.0995483,0,0,0,0,0,0,0,-1,1742,652,12.0657,0.0995285
525,372,12.3947,-0.171814,0,0,0,0,0,0,0,-1,1749,652,12.3946,0.171824
532,372,9.36597,1.72034,0,0,0,0,0,0,0,-1,1756,652,9.36597,-1.72036
539,372,7.82886,-0.0865479,0,0,0,0,0,0,0,-1,1763,652,7.82882,0.0865771
546,372,10.953,-0.187195,0,0,0,0,0,0,0,-1,1770,652,10.953,0.187181
553,372,14.1201,-4.83234,0,0,0,0,0,0,0,-1,1777,652,14.1201,4.83235
560,372,20.1057,-8.06934,0,0,0,0,0,0,0,-1,1784,652,20.1058,8.06936
567,372,28.2455,-12.8575,0,0,0,0,0,0,0,-1,1791,652,28.2455,12.8575
574,372,28.2267,-11.8704,0.00147067,0.000193735,-0.000662485,0.00175227,-8.78664e-05,-0.401928,0.00119855,0.0437284,1798,652,28.2267,11.8704
581,372,28.2056,-11.2416,0.000806973,4.23319e-05,-0.000741315,0.00125875,-0.000409444,-0.547321,0.00100388,0.0221795,1805,652,28.2056,11.2416
588,372,28.1669,-10.5126,0.00055952,3.67618e-05,-0.000590956,0.000944321,-0.000348039,-0.577183,0.000772164,0.0153903,1812,652,28.1669,10.5127
595,372,28.1128,-9.76941,0.00069043,0.000399729,-0.000247813,0.000832374,0.000257785,-0.520168,0.000492037,0.0132557,1819,652,28.1128,9.76939
602,372,28.0968,-9.06055,0.00109502,0.000946608,0.000269508,0.00130035,0.000741278,0.651055,0.000753212,0.0163186,1826,652,28.0968,9.06054
609,372,27.9796,-8.34033,0.00166178,0.00165413,0.000897073,0.00255503,0.000760872,0.783265,0.00151483,0.0179597,1833,652,27.9796,8.34032
616,372,27.9493,-7.58582,0.00239337,0.00250396,0.00162189,0.00407149,0.000825834,0.802439,0.00248521,0.016854,1840,652,27.9493,7.5858
623,372,27.9586,-6.81976,0.00331769,0.00346322,0.00246046,0.00585199,0.00092892,0.80018,0.00363151,0.0136588,1847,652,27.9586,6.81976
630,372,27.9478,-6.09235,0.00433608,0.00451548,0.00336727,0.00779424,0.00105732,0.798715,0.00488204,0.0180487,1854,652,27.9478,6.09235
637,372,28.0026,-5.37842,0.00538088,0.00565891,0.0043015,0.00982364,0.00121615,0.801552,0.0061837,0.0291667,1861,652,28.0026,5.37841
644,372,27.998,-4.52942,0,0,0,0,0,0,0,-1,1868,652,27.998,4.52942
651,372,21.3998,-0.888,0,0,0,0,0,0,0,-1,1875,652,21.3998,0.887992
658,372,14.157,0.280273,0,0,0,0,0,0,0,-1,1882,652,14.157,-0.280264
665,372,15.2286,0.463867,0,0,0,0,0,0,0,-1,1889,652,15.2287,-0.463854
672,372,9.34106,1.48444,0,0,0,0,0,0,0,-1,1896,652,9.34109,-1.48444
679,372,10.7308,2.32391,0,0,0,0,0,0,0,-1,1903,652,10.7309,-2.3239
686,372,11.6295,2.52997,0,0,0,0,0,0,0,-1,1910,652,11.6296,-2.52996
693,372,0,0,0,0,0,0,0,0,0,-1,1917,652,0,0
700,372,0,0,0,0,0,0,0,0,0,-1,1924,652,0,0
707,372,0,0,0,0,0,0,0,0,0,-1,1931,652,0,0
714,372,0,0,0,0,0,0,0,0,0,-1,1938,652,0,0
721,372,0,0,0,0,0,0,0,0,0,-1,1945,652,0,0
728,372,0,0,0,0,0,0,0,0,0,-1,1952,652,0,0
735,372,0,0,0,0,0,0,0,0,0,-1,1959,652,0,0
742,372,0,0,0,0,0,0,0,0,0,-1,1966,652,0,0
749,372,0,0,0,0,0,0,0,0,0,-1,1973,652,0,0
756,372,0,0,0,0,0,0,0,0,0,-1,1980,652,0,0
763,372,0,0,0,0,0,0,0,0,0,-1,1987,652,0,0
770,372,0,0,0,0,0,0,0,0,0,-1,1994,652,0,0
777,372,0,0,0,0,0,0,0,0,0,-1,2001,652,0,0
784,372,0,0,0,0,0,0,0,0,0,-1,2008,652,0,0
791,372,0,0,0,0,0,0,0,0,0,-1,2015,652,0,0
798,372,0,0,0,0,0,0,0,0,0,-1,2022,652,0,0
805,372,0,0,0,0,0,0,0,0,0,-1,2029,652,0,0
812,372,0,0,0,0,0,0,0,0,0,-1,2036,652,0,0
-700,365,0,0,0,0,0,0,0,0,0,-1,524,659,0,0
-693,365,0,0,0,0,0,0,0,0,0,-1,531,659,0,0
-686,365,0,0,0,0,0,0,0,0,0,-1,538,659,0,0
-679,365,0,0,0,0,0,0,0,0,0,-1,545,659,0,0
-672,365,0,0,0,0,0,0,0,0,0,-1,552,659,0,0
-665,365,0,0,0,0,0,0,0,0,0,-1,559,659,0,0
-658,365,0,0,0,0,0,0,0,0,0,-1,566,659,0,0
-651,365,0,0,0,0,0,0,0,0,0,-1,573,659,0,0
-644,365,0,0,0,0,0,0,0,0,0,-1,580,659,0,0
-637,365,0,0,0,0,0,0,0,0,0,-1,587,659,0,0
-630,365,0,0,0,0,0,0,0,0,0,-1,594,659,0,0
-623,365,0,0,0,0,0,0,0,0,0,-1,601,659,0,0
-616,365,0,0,0,0,0,0,0,0,0,-1,608,659,0,0
-609,365,0,0,0,0,0,0,0,0,0,-1,615,659,0,0
-602,365,0,0,0,0,0,0,0,0,0,-1,622,659,0,0
-595,365,0,0,0,0,0,0,0,0,0,-1,629,659,0,0
-588,365,0,0,0,0,0,0,0,0,0,-1,636,659,0,0
-581,365,0,0,0,0,0,0,0,0,0,-1,643,659,0,0
-574,365,-7.69281,1.59015,0,0,0,0,0,0,0,-1,650,659,-7.69282,-1.59018
-567,365,-8.2583,1.72638,0,0,0,0,0,0,0,-1,657,659,-8.25827,-1.72637
-560,365,-7.17767,0.275757,0,0,0,0,0,0,0,-1,664,659,-7.17768,-0.27577
-553,365,-10.0349,-0.169617,0,0,0,0,0,0,0,-1,671,659,-10.0349,0.169593
-546,365,-10.6303,-1.51642,0,0,0,0,0,0,0,-1,678,659,-10.6303,1.5164
-539,365,-8.38599,1.52936,0,0,0,0,0,0,0,-1,685,659,-8.38598,-1.52935
-532,365,-8.52863,0.166504,0,0,0,0,0,0,0,-1,692,659,-8.52863,-0.166501
-525,365,-9.28229,-2.62726,0,0,0,0,0,0,0,-1,699,659,-9.28227,2.62724
-518,365,-16.2443,-5.94434,0,0,0,0,0,0,0,-1,706,659,-16.2443,5.94434
-511,365,-16.2756,-6.77332,0.00379287,0.00137348,-0.00159738,0.00458692,0.000579433,-0.461319,0.00288427,0.0376522,713,659,-16.2757,6.77335
-504,365,-16.2526,-7.51294,0.00288233,0.00095482,-0.00121664,0.00347068,0.000366466,-0.450432,0.00220182,0.0142578,720,659,-16.2526,7.51295
-497,365,-16.275,-8.23419,0.00230003,0.000636252,-0.00093839,0.00272218,0.000214102,-0.422743,0.0017478,0.0135204,727,659,-16.275,8.23421
-490,365,-16.3318,-8.94977,0.00196454,0.000495612,-0.000834018,0.00234139,0.00011876,-0.424392,0.00152289,0.0140144,734,659,-16.3318,8.94978
-483,365,-16.3809,-9.65356,0.00185602,0.000446929,-0.000803085,0.00221981,8.31442e-05,-0.425333,0.00145295,0.0134673,741,659,-16.3809,9.65356
-476,365,-16.3472,-10.3569,0.00193611,0.000526567,-0.000878878,0.00235789,0.000104782,-0.447449,0.00153819,0.017821,748,659,-16.3471,10.3569
-469,365,-16.3972,-11.0581,0.00213446,0.000647771,-0.00101934,0.00265271,0.000129526,-0.470356,0.00172692,0.0179133,755,659,-16.3972,11.0581
-462,365,-16.4628,-11.747,0.00241381,0.000815507,-0.0012062,0.00306158,0.000167742,-0.492829,0.0019875,0.0154474,762,659,-16.4629,11.747
-455,365,-16.4885,-12.4553,0.00280782,0.000814718,-0.00140187,0.00353125,9.12831e-05,-0.476405,0.00232434,0.0179218,769,659,-16.4885,12.4553
-448,365,-16.4011,-13.2942,0.00324741,0.000900883,-0.00162705,0.0040801,6.81942e-05,-0.473025,0.00269762,0.0455195,776,659,-16.401,13.2942
-441,365,-16.1415,-14.2632,0,0,0,0,0,0,0,-1,783,659,-16.1415,14.2632
-434,365,-5.45056,-3.98041,0,0,0,0,0,0,0,-1,790,659,-5.45055,3.98042
-427,365,-5.05377,-4.74689,0,0,0,0,0,0,0,-1,797,659,-5.05376,4.7469
-420,365,-4.58813,-3.16376,0,0,0,0,0,0,0,-1,804,659,-4.58816,3.16374
-413,365,0.141357,0.672729,0,0,0,0,0,0,0,-1,811,659,0.141365,-0.672714
-406,365,-1.75067,-0.934448,0,0,0,0,0,0,0,-1,818,659,-1.7507,0.934424
-399,365,-4.10242,-1.25439,0,0,0,0,0,0,0,-1,825,659,-4.10244,1.25438
-392,365,-7.46545,-0.779724,0,0,0,0,0,0,0,-1,832,659,-7.46543,0.779744
-385,365,-6.27875,-0.887573,0,0,0,0,0,0,0,-1,839,659,-6.27874,0.887545
-378,365,-5.34503,-0.263306,0,0,0,0,0,0,0,-1,846,659,-5.34504,0.263275
-371,365,0,0,0,0,0,0,0,0,0,-1,853,659,0,0
-364,365,0,0,0,0,0,0,0,0,0,-1,860,659,0,0
-357,365,0,0,0,0,0,0,0,0,0,-1,867,659,0,0
-350,365,0,0,0,0,0,0,0,0,0,-1,874,659,0,0
-343,365,0,0,0,0,0,0,0,0,0,-1,881,659,0,0
-336,365,0,0,0,0,0,0,0,0,0,-1,888,659,0,0
-329,365,0,0,0,0,0,0,0,0,0,-1,895,659,0,0
-322,365,0,0,0,0,0,0,0,0,0,-1,902,659,0,0
-315,365,0,0,0,0,0,0,0,0,0,-1,909,659,0,0
-308,365,0,0,0,0,0,0,0,0,0,-1,916,659,0,0
-301,365,0,0,0,0,0,0,0,0,0,-1,923,659,0,0
-294,365,0,0,0,0,0,0,0,0,0,-1,930,659,0,0
-287,365,0,0,0,0,0,0,0,0,0,-1,937,659,0,0
-280,365,0,0,0,0,0,0,0,0,0,-1,944,659,0,0
-273,365,0,0,0,0,0,0,0,0,0,-1,951,659,0,0
-266,365,0,0,0,0,0,0,0,0,0,-1,958,659,0,0
-259,365,0,0,0,0,0,0,0,0,0,-1,965,659,0,0
-252,365,0,0,0,0,0,0,0,0,0,-1,972,659,0,0
-245,365,0,0,0,0,0,0,0,0,0,-1,979,659,0,0
-238,365,0,0,0,0,0,0,0,0,0,-1,986,659,0,0
-231,365,0,0,0,0,0,0,0,0,0,-1,993,659,0,0
-224,365,0,0,0,0,0,0,0,0,0,-1,1000,659,0,0
-217,365,0,0,0,0,0,0,0,0,0,-1,1007,659,0,0
-210,365,0,0,0,0,0,0,0,0,0,-1,1014,659,0,0
-203,365,0,0,0,0,0,0,0,0,0,-1,1021,659,0,0
-196,365,0,0,0,0,0,0,0,0,0,-1,1028,659,0,0
-189,365,0,0,0,0,0,0,0,0,0,-1,1035,659,0,0
-182,365,0,0,0,0,0,0,0,0,0,-1,1042,659,0,0
-175,365,0,0,0,0,0,0,0,0,0,-1,1049,659,0,0
-168,365,0,0,0,0,0,0,0,0,0,-1,1056,659,0,0
-161,365,0,0,0,0,0,0,0,0,0,-1,1063,659,0,0
-154,365,0,0,0,0,0,0,0,0,0,-1,1070,659,0,0
-147,365,0,0,0,0,0,0,0,0,0,-1,1077,659,0,0
-140,365,0,0,0,0,0,0,0,0,0,-1,1084,659,0,0
-133,365,0,0,0,0,0,0,0,0,0,-1,1091,659,0,0
-126,365,0,0,0,0,0,0,0,0,0,-1,1098,659,0,0
-119,365,0,0,0,0,0,0,0,0,0,-1,1105,659,0,0
-112,365,0,0,0,0,0,0,0,0,0,-1,1112,659,0,0
-105,365,0,0,0,0,0,0,0,0,0,-1,1119,659,0,0
-98,365,0,0,0,0,0,0,0,0,0,-1,1126,659,0,0
-91,365,0,0,0,0,0,0,0,0,0,-1,1133,659,0,0
-84,365,0,0,0,0,0,0,0,0,0,-1,1140,659,0,0
-77,365,0,0,0,0,0,0,0,0,0,-1,1147,659,0,0
-70,365,0,0,0,0,0,0,0,0,0,-1,1154,659,0,0
-63,365,0,0,0,0,0,0,0,0,0,-1,1161,659,0,0
-56,365,0,0,0,0,0,0,0,0,0,-1,1168,659,0,0
-49,365,0,0,0,0,0,0,0,0,0,-1,1175,659,0,0
-42,365,0,0,0,0,0,0,0,0,0,-1,1182,659,0,0
-35,365,0,0,0,0,0,0,0,0,0,-1,1189,659,0,0
-28,365,0,0,0,0,0,0,0,0,0,-1,1196,659,0,0
-21,365,0,0,0,0,0,0,0,0,0,-1,1203,659,0,0
-14,365,0,0,0,0,0,0,0,0,0,-1,1210,659,0,0
-7,365,0,0,0,0,0,0,0,0,0,-1,1217,659,0,0
0,365,0,0,0,0,0,0,0,0,0,-1,1224,659,0,0
7,365,0,0,0,0,0,0,0,0,0,-1,1231,659,0,0
14,365,0,0,0,0,0,0,0,0,0,-1,1238,659,0,0
21,365,0,0,0,0,0,0,0,0,0,-1,1245,659,0,0
28,365,0,0,0,0,0,0,0,0,0,-1,1252,659,0,0
35,365,0,0,0,0,0,0,0,0,0,-1,1259,659,0,0
42,365,0,0,0,0,0,0,0,0,0,-1,1266,659,0,0
49,365,0,0,0,0,0,0,0,0,0,-1,1273,659,0,0
56,365,0,0,0,0,0,0,0,0,0,-1,1280,659,0,0
63,365,0,0,0,0,0,0,0,0,0,-1,1287,659,0,0
70,365,0,0,0,0,0,0,0,0,0,-1,1294,659,0,0
77,365,0,0,0,0,0,0,0,0,0,-1,1301,659,0,0
84,365,0,0,0,0,0,0,0,0,0,-1,1308,659,0,0
91,365,0,0,0,0,0,0,0,0,0,-1,1315,659,0,0
98,365,0,0,0,0,0,0,0,0,0,-1,1322,659,0,0
105,365,0,0,0,0,0,0,0,0,0,-1,1329,659,0,0
112,365,0,0,0,0,0,0,0,0,0,-1,1336,659,0,0
119,365,0,0,0,0,0,0,0,0,0,-1,1343,659,0,0
126,365,0,0,0,0,0,0,0,0,0,-1,1350,659,0,0
133,365,0,0,0,0,0,0,0,0,0,-1,1357,659,0,0
140,365,0,0,0,0,0,0,0,0,0,-1,1364,659,0,0
147,365,0,0,0,0,0,0,0,0,0,-1,1371,659,0,0
154,365,0,0,0,0,0,0,0,0,0,-1,1378,659,0,0
161,365,0,0,0,0,0,0,0,0,0,-1,1385,659,0,0
168,365,0,0,0,0,0,0,0,0,0,-1,1392,659,0,0
175,365,0,0,0,0,0,0,0,0,0,-1,1399,659,0,0
182,365,0,0,0,0,0,0,0,0,0,-1,1406,659,0,0
189,365,0,0,0,0,0,0,0,0,0,-1,1413,659,0,0
196,365,0,0,0,0,0,0,0,0,0,-1,1420,659,0,0
203,365,0,0,0,0,0,0,0,0,0,-1,1427,659,0,0
210,365,0,0,0,0,0,0,0,0,0,-1,1434,659,0,0
217,365,0,0,0,0,0,0,0,0,0,-1,1441,659,0,0
224,365,0,0,0,0,0,0,0,0,0,-1,1448,659,0,0
231,365,0,0,0,0,0,0,0,0,0,-1,1455,659,0,0
238,365,0,0,0,0,0,0,0,0,0,-1,1462,659,0,0
245,365,0,0,0,0,0,0,0,0,0,-1,1469,659,0,0
252,365,0,0,0,0,0,0,0,0,0,-1,1476,659,0,0
259,365,0,0,0,0,0,0,0,0,0,-1,1483,659,0,0
266,365,0,0,0,0,0,0,0,0,0,-1,1490,659,0,0
273,365,0,0,0,0,0,0,0,0,0,-1,1497,659,0,0
280,365,0,0,0,0,0,0,0,0,0,-1,1504,659,0,0
287,365,0,0,0,0,0,0,0,0,0,-1,1511,659,0,0
294,365,0,0,0,0,0,0,0,0,0,-1,1518,659,0,0
301,365,0,0,0,0,0,0,0,0,0,-1,1525,659,0,0
308,365,0,0,0,0,0,0,0,0,0,-1,1532,659,0,0
315,365,0,0,0,0,0,0,0,0,0,-1,1539,659,0,0
322,365,0,0,0,0,0,0,0,0,0,-1,1546,659,0,0
329,365,0,0,0,0,0,0,0,0,0,-1,1553,659,0,0
336,365,0,0,0,0,0,0,0,0,0,-1,1560,659,0,0
343,365,0,0,0,0,0,0,0,0,0,-1,1567,659,0,0
350,365,0,0,0,0,0,0,0,0,0,-1,1574,659,0,0
357,365,0,0,0,0,0,0,0,0,0,-1,1581,659,0,0
364,365,0,0,0,0,0,0,0,0,0,-1,1588,659,0,0
371,365,0,0,0,0,0,0,0,0,0,-1,1595,659,0,0
378,365,0,0,0,0,0,0,0,0,0,-1,1602,659,0,0
385,365,0,0,0,0,0,0,0,0,0,-1,1609,659,0,0
392,365,0,0,0,0,0,0,0,0,0,-1,1616,659,0,0
399,365,0,0,0,0,0,0,0,0,0,-1,1623,659,0,0
406,365,0,0,0,0,0,0,0,0,0,-1,1630,659,0,0
413,365,0,0,0,0,0,0,0,0,0,-1,1637,659,0,0
420,365,0,0,0,0,0,0,0,0,0,-1,1644,659,0,0
427,365,0,0,0,0,0,0,0,0,0,-1,1651,659,0,0
434,365,0,0,0,0,0,0,0,0,0,-1,1658,659,0,0
441,365,0,0,0,0,0,0,0,0,0,-1,1665,659,0,0
448,365,0,0,0,0,0,0,0,0,0,-1,1672,659,0,0
455,365,0,0,0,0,0,0,0,0,0,-1,1679,659,0,0
462,365,0,0,0,0,0,0,0,0,0,-1,1686,659,0,0
469,365,0,0,0,0,0,0,0,0,0,-1,1693,659,0,0
476,365,0,0,0,0,0,0,0,0,0,-1,1700,659,0,0
483,365,0,0,0,0,0,0,0,0,0,-1,1707,659,0,0
490,365,8.39551,0.471252,0,0,0,0,0,0,0,-1,1714,659,8.39551,-0.471241
497,365,9.89233,1.35394,0,0,0,0,0,0,0,-1,1721,659,9.89237,-1.35396
504,365,10.1414,1.18005,0,0,0,0,0,0,0,-1,1728,659,10.1413,-1.18004
511,365,10.5151,0.993896,0,0,0,0,0,0,0,-1,1735,659,10.5152,-0.993894
518,365,11.2029,0.398132,0,0,0,0,0,0,0,-1,1742,659,11.2029,-0.398136
525,365,15.5748,3.85303,0,0,0,0,0,0,0,-1,1749,659,15.5748,-3.85303
532,365,11.2446,1.00629,0,0,0,0,0,0,0,-1,1756,659,11.2446,-1.00631
539,365,12.6301,1.03204,0,0,0,0,0,0,0,-1,1763,659,12.6302,-1.03204
546,365,11.647,0.84198,0,0,0,0,0,0,0,-1,1770,659,11.6469,-0.841955
553,365,12.028,-0.558899,0,0,0,0,0,0,0,-1,1777,659,12.028,0.558873
560,365,14.5372,-4.55548,0,0,0,0,0,0,0,-1,1784,659,14.5373,4.55547
567,365,20.5676,-7.53888,0,0,0,0,0,0,0,-1,1791,659,20.5676,7.53887
574,365,29.2306,-11.7756,0,0,0,0,0,0,0,-1,1798,659,29.2306,11.7756
581,365,28.9445,-11.1407,0,0,0,0,0,0,0,-1,1805,659,28.9444,11.1407
588,365,28.8568,-10.5426,0.000389974,-0.000522901,-0.00106079,0.00108836,-0.00122129,-0.582231,0.00133421,0.0250498,1812,659,28.8568,10.5426
595,365,28.8484,-9.75073,0.000441319,-0.000178061,-0.000729452,0.000924099,-0.00066084,-0.584653,0.000919263,0.0131822,1819,659,28.8484,9.7507
602,365,28.808,-9.00055,0.000733335,0.000299022,-0.000278351,0.000869217,0.00016314,-0.454137,0.000533479,0.0165031,1826,659,28.808,9.00053
609,365,28.7098,-8.24542,0.00123215,0.000918613,0.000311081,0.00142373,0.000727032,0.551998,0.000822054,0.0180799,1833,659,28.7099,8.24543
616,365,28.7084,-7.49255,0.00185981,0.00163802,0.000970069,0.0027253,0.000772529,0.728485,0.00162189,0.0189395,1840,659,28.7083,7.49257
623,365,28.7141,-6.76678,0.0026408,0.00244688,0.0017097,0.00425628,0.000831393,0.757072,0.002605,0.012355,1847,659,28.7142,6.76681
630,365,28.6805,-6.0647,0.00347889,0.00334801,0.0025136,0.00592791,0.000898992,0.772384,0.00368897,0.0162308,1854,659,28.6806,6.06469
637,365,28.6613,-5.36298,0.00431887,0.00427186,0.0033021,0.00759755,0.000993181,0.781839,0.00476857,0.0222497,1861,659,28.6613,5.36299
644,365,28.6396,-4.6264,0.0051278,0.00530957,0.0041352,0.00935488,0.00108249,0.796385,0.0059089,0.0271689,1868,659,28.6397,4.62639
651,365,28.8322,-3.70728,0,0,0,0,0,0,0,-1,1875,659,28.8321,3.70728
658,365,24.745,-2.13275,0,0,0,0,0,0,0,-1,1882,659,24.745,2.13277
665,365,14.0961,0.769043,0,0,0,0,0,0,0,-1,1889,659,14.0961,-0.769063
672,365,10.0579,2.15088,0,0,0,0,0,0,0,-1,1896,659,10.0579,-2.15088
679,365,10.9718,2.19208,0,0,0,0,0,0,0,-1,1903,659,10.9718,-2.19211
686,365,12.2134,2.17108,0,0,0,0,0,0,0,-1,1910,659,12.2134,-2.17109
693,365,13.7141,1.98279,0,0,0,0,0,0,0,-1,1917,659,13.7141,-1.98278
700,365,0,0,0,0,0,0,0,0,0,-1,1924,659,0,0
707,365,0,0,0,0,0,0,0,0,0,-1,1931,659,0,0
714,365,0,0,0,0,0,0,0,0,0,-1,1938,659,0,0
721,365,0,0,0,0,0,0,0,0,0,-1,1945,659,0,0
728,365,0,0,0,0,0,0,0,0,0,-1,1952,659,0,0
735,365,0,0,0,0,0,0,0,0,0,-1,1959,659,0,0
742,365,0,0,0,0,0,0,0,0,0,-1,1966,659,0,0
749,365,0,0,0,0,0,0,0,0,0,-1,1973,659,0,0
756,365,0,0,0,0,0,0,0,0,0,-1,1980,659,0,0
763,365,0,0,0,0,0,0,0,0,0,-1,1987,659,0,0
770,365,0,0,0,0,0,0,0,0,0,-1,1994,659,0,0
777,365,0,0,0,0,0,0,0,0,0,-1,2001,659,0,0
784,365,0,0,0,0,0,0,0,0,0,-1,2008,659,0,0
791,365,0,0,0,0,0,0,0,0,0,-1,2015,659,0,0
798,365,0,0,0,0,0,0,0,0,0,-1,2022,659,0,0
805,365,0,0,0,0,0,0,0,0,0,-1,2029,659,0,0
812,365,0,0,0,0,0,0,0,0,0,-1,2036,659,0,0
-700,358,0,0,0,0,0,0,0,0,0,-1,524,666,0,0
-693,358,0,0,0,0,0,0,0,0,0,-1,531,666,0,0
-686,358,0,0,0,0,0,0,0,0,0,-1,538,666,0,0
-679,358,0,0,0,0,0,0,0,0,0,-1,545,666,0,0
-672,358,0,0,0,0,0,0,0,0,0,-1,552,666,0,0
-665,358,0,0,0,0,0,0,0,0,0,-1,559,666,0,0
-658,358,0,0,0,0,0,0,0,0,0,-1,566,666,0,0
-651,358,0,0,0,0,0,0,0,0,0,-1,573,666,0,0
-644,358,0,0,0,0,0,0,0,0,0,-1,580,666,0,0
-637,358,0,0,0,0,0,0,0,0,0,-1,587,666,0,0
-630,358,0,0,0,0,0,0,0,0,0,-1,594,666,0,0
-623,358,0,0,0,0,0,0,0,0,0,-1,601,666,0,0
-616,358,0,0,0,0,0,0,0,0,0,-1,608,666,0,0
-609,358,0,0,0,0,0,0,0,0,0,-1,615,666,0,0
-602,358,0,0,0,0,0,0,0,0,0,-1,622,666,0,0
-595,358,0,0,0,0,0,0,0,0,0,-1,629,666,0,0
-588,358,0,0,0,0,0,0,0,0,0,-1,636,666,0,0
-581,358,-8.31616,1.61993,0,0,0,0,0,0,0,-1,643,666,-8.31614,-1.61993
-574,358,-8.22406,1.75385,0,0,0,0,0,0,0,-1,650,666,-8.22408,-1.75383
-567,358,-8.14215,1.91577,0,0,0,0,0,0,0,-1,657,666,-8.14214,-1.91579
-560,358,-10.6086,2.18872,0,0,0,0,0,0,0,-1,664,666,-10.6086,-2.18873
-553,358,-13.4767,1.09552,0,0,0,0,0,0,0,-1,671,666,-13.4767,-1.09551
-546,358,-13.3743,-0.185059,0,0,0,0,0,0,0,-1,678,666,-13.3743,0.185037
-539,358,-9.43884,-2.04785,0,0,0,0,0,0,0,-1,685,666,-9.43884,2.04785
-532,358,-12.4141,-2.36572,0,0,0,0,0,0,0,-1,692,666,-12.4141,2.3657
-525,358,-12.731,-3.88031,0,0,0,0,0,0,0,-1,699,666,-12.731,3.88029
-518,358,-16.9496,-6.02325,0,0,0,0,0,0,0,-1,706,666,-16.9496,6.02326
-511,358,-16.9722,-6.74164,0.0037795,0.00122868,-0.00136082,0.00436917,0.000639015,-0.408891,0.00272486,0.0184053,713,666,-16.9722,6.74163
-504,358,-16.9913,-7.46906,0.00290523,0.000821924,-0.00103048,0.00332882,0.000398338,-0.390002,0.00209907,0.0132206,720,666,-16.9913,7.46904
-497,358,-16.997,-8.19562,0.00235193,0.000550247,-0.000806366,0.00266011,0.000242063,-0.365058,0.00169848,0.0121632,727,666,-16.997,8.19563
-490,358,-17.0266,-8.90125,0.00201223,0.000441836,-0.000726845,0.00229701,0.000157062,-0.373413,0.00148176,0.0116523,734,666,-17.0266,8.90126
-483,358,-17.0788,-9.61267,0.001939,0.000445759,-0.000734004,0.00223937,0.000145381,-0.38844,0.00144689,0.010683,741,666,-17.0788,9.61267
-476,358,-17.0474,-10.3007,0.00207305,0.000595541,-0.000860743,0.00246859,0.000199995,-0.43076,0.00158328,0.0141283,748,666,-17.0473,10.3007
-469,358,-17.1075,-10.9948,0.00236878,0.000826222,-0.00108488,0.00292861,0.000266395,-0.476385,0.00186994,0.0180581,755,666,-17.1076,10.9948
-462,358,-17.1836,-11.7103,0.0027817,0.00113541,-0.00138216,0.00356726,0.000349849,-0.516828,0.00227056,0.0191662,762,666,-17.1836,11.7103
-455,358,-17.1378,-12.4797,0.0033627,0.0013346,-0.00171585,0.00434175,0.000355557,-0.518513,0.00278356,0.0496232,769,666,-17.1378,12.4797
-448,358,-16.9268,-13.5697,0,0,0,0,0,0,0,-1,776,666,-16.9268,13.5697
-441,358,-5.56293,-3.98041,0,0,0,0,0,0,0,-1,783,666,-5.56291,3.98043
-434,358,-5.21558,-4.43127,0,0,0,0,0,0,0,-1,790,666,-5.21559,4.43125
-427,358,-3.56189,-3.15729,0,0,0,0,0,0,0,-1,797,666,-3.56192,3.15729
-420,358,0.200195,1.08234,0,0,0,0,0,0,0,-1,804,666,0.200174,-1.08231
-413,358,0.0325317,0.161072,0,0,0,0,0,0,0,-1,811,666,0.0325501,-0.161098
-406,358,-3.85846,0.753113,0,0,0,0,0,0,0,-1,818,666,-3.85846,-0.753129
-399,358,-1.31213,0.190735,0,0,0,0,0,0,0,-1,825,666,-1.31215,-0.190763
-392,358,-3.73914,-0.832214,0,0,0,0,0,0,0,-1,832,666,-3.73915,0.832202
-385,358,-5.95178,-1.69141,0,0,0,0,0,0,0,-1,839,666,-5.9518,1.69143
-378,358,0,0,0,0,0,0,0,0,0,-1,846,666,0,0
-371,358,0,0,0,0,0,0,0,0,0,-1,853,666,0,0
-364,358,0,0,0,0,0,0,0,0,0,-1,860,666,0,0
-357,358,0,0,0,0,0,0,0,0,0,-1,867,666,0,0
-350,358,0,0,0,0,0,0,0,0,0,-1,874,666,0,0
-343,358,0,0,0,0,0,0,0,0,0,-1,881,666,0,0
-336,358,0,0,0,0,0,0,0,0,0,-1,888,666,0,0
-329,358,0,0,0,0,0,0,0,0,0,-1,895,666,0,0
-322,358,0,0,0,0,0,0,0,0,0,-1,902,666,0,0
-315,358,0,0,0,0,0,0,0,0,0,-1,909,666,0,0
-308,358,0,0,0,0,0,0,0,0,0,-1,916,666,0,0
-301,358,0,0,0,0,0,0,0,0,0,-1,923,666,0,0
-294,358,0,0,0,0,0,0,0,0,0,-1,930,666,0,0
-287,358,0,0,0,0,0,0,0,0,0,-1,937,666,0,0
-280,358,0,0,0,0,0,0,0,0,0,-1,944,666,0,0
-273,358,0,0,0,0,0,0,0,0,0,-1,951,666,0,0
-266,358,0,0,0,0,0,0,0,0,0,-1,958,666,0,0
-259,358,0,0,0,0,0,0,0,0,0,-1,965,666,0,0
-252,358,0,0,0,0,0,0,0,0,0,-1,972,666,0,0
-245,358,0,0,0,0,0,0,0,0,0,-1,979,666,0,0
-238,358,0,0,0,0,0,0,0,0,0,-1,986,666,0,0
-231,358,0,0,0,0,0,0,0,0,0,-1,993,666,0,0
-224,358,0,0,0,0,0,0,0,0,0,-1,1000,666,0,0
-217,358,0,0,0,0,0,0,0,0,0,-1,1007,666,0,0
-210,358,0,0,0,0,0,0,0,0,0,-1,1014,666,0,0
-203,358,0,0,0,0,0,0,0,0,0,-1,1021,666,0,0
-196,358,0,0,0,0,0,0,0,0,0,-1,1028,666,0,0
-189,358,0,0,0,0,0,0,0,0,0,-1,1035,666,0,0
-182,358,0,0,0,0,0,0,0,0,0,-1,1042,666,0,0
-175,358,0,0,0,0,0,0,0,0,0,-1,1049,666,0,0
-168,358,0,0,0,0,0,0,0,0,0,-1,1056,666,0,0
-161,358,0,0,0,0,0,0,0,0,0,-1,1063,666,0,0
-154,358,0,0,0,0,0,0,0,0,0,-1,1070,666,0,0
-147,358,0,0,0,0,0,0,0,0,0,-1,1077,666,0,0
-140,358,0,0,0,0,0,0,0,0,0,-1,1084,666,0,0
-133,358,0,0,0,0,0,0,0,0,0,-1,1091,666,0,0
-126,358,0,0,0,0,0,0,0,0,0,-1,1098,666,0,0
-119,358,0,0,0,0,0,0,0,0,0,-1,1105,666,0,0
-112,358,0,0,0,0,0,0,0,0,0,-1,1112,666,0,0
-105,358,0,0,0,0,0,0,0,0,0,-1,1119,666,0,0
-98,358,0,0,0,0,0,0,0,0,0,-1,1126,666,0,0
-91,358,0,0,0,0,0,0,0,0,0,-1,1133,666,0,0
-84,358,0,0,0,0,0,0,0,0,0,-1,1140,666,0,0
-77,358,0,0,0,0,0,0,0,0,0,-1,1147,666,0,0
-70,358,0,0,0,0,0,0,0,0,0,-1,1154,666,0,0
-63,358,0,0,0,0,0,0,0,0,0,-1,1161,666,0,0
-56,358,0,0,0,0,0,0,0,0,0,-1,1168,666,0,0
-49,358,0,0,0,0,0,0,0,0,0,-1,1175,666,0,0
-42,358,0,0,0,0,0,0,0,0,0,-1,1182,666,0,0
-35,358,0,0,0,0,0,0,0,0,0,-1,1189,666,0,0
-28,358,0,0,0,0,0,0,0,0,0,-1,1196,666,0,0
-21,358,0,0,0,0,0,0,0,0,0,-1,1203,666,0,0
-14,358,0,0,0,0,0,0,0,0,0,-1,1210,666,0,0
-7,358,0,0,0,0,0,0,0,0,0,-1,1217,666,0,0
0,358,0,0,0,0,0,0,0,0,0,-1,1224,666,0,0
7,358,0,0,0,0,0,0,0,0,0,-1,1231,666,0,0
14,358,0,0,0,0,0,0,0,0,0,-1,1238,666,0,0
21,358,0,0,0,0,0,0,0,0,0,-1,1245,666,0,0
28,358,0,0,0,0,0,0,0,0,0,-1,1252,666,0,0
35,358,0,0,0,0,0,0,0,0,0,-1,1259,666,0,0
42,358,0,0,0,0,0,0,0,0,0,-1,1266,666,0,0
49,358,0,0,0,0,0,0,0,0,0,-1,1273,666,0,0
56,358,0,0,0,0,0,0,0,0,0,-1,1280,666,0,0
63,358,0,0,0,0,0,0,0,0,0,-1,1287,666,0,0
70,358,0,0,0,0,0,0,0,0,0,-1,1294,666,0,0
77,358,0,0,0,0,0,0,0,0,0,-1,1301,666,0,0
84,358,0,0,0,0,0,0,0,0,0,-1,1308,666,0,0
91,358,0,0,0,0,0,0,0,0,0,-1,1315,666,0,0
98,358,0,0,0,0,0,0,0,0,0,-1,1322,666,0,0
105,358,0,0,0,0,0,0,0,0,0,-1,1329,666,0,0
112,358,0,0,0,0,0,0,0,0,0,-1,1336,666,0,0
119,358,0,0,0,0,0,0,0,0,0,-1,1343,666,0,0
126,358,0,0,0,0,0,0,0,0,0,-1,1350,666,0,0
133,358,0,0,0,0,0,0,0,0,0,-1,1357,666,0,0
140,358,0,0,0,0,0,0,0,0,0,-1,1364,666,0,0
147,358,0,0,0,0,0,0,0,0,0,-1,1371,666,0,0
154,358,0,0,0,0,0,0,0,0,0,-1,1378,666,0,0
161,358,0,0,0,0,0,0,0,0,0,-1,1385,666,0,0
168,358,0,0,0,0,0,0,0,0,0,-1,1392,666,0,0
175,358,0,0,0,0,0,0,0,0,0,-1,1399,666,0,0
182,358,0,0,0,0,0,0,0,0,0,-1,1406,666,0,0
189,358,0,0,0,0,0,0,0,0,0,-1,1413,666,0,0
196,358,0,0,0,0,0,0,0,0,0,-1,1420,666,0,0
203,358,0,0,0,0,0,0,0,0,0,-1,1427,666,0,0
210,358,0,0,0,0,0,0,0,0,0,-1,1434,666,0,0
217,358,0,0,0,0,0,0,0,0,0,-1,1441,666,0,0
224,358,0,0,0,0,0,0,0,0,0,-1,1448,666,0,0
231,358,0,0,0,0,0,0,0,0,0,-1,1455,666,0,0
238,358,0,0,0,0,0,0,0,0,0,-1,1462,666,0,0
245,358,0,0,0,0,0,0,0,0,0,-1,1469,666,0,0
252,358,0,0,0,0,0,0,0,0,0,-1,1476,666,0,0
259,358,0,0,0,0,0,0,0,0,0,-1,1483,666,0,0
266,358,0,0,0,0,0,0,0,0,0,-1,1490,666,0,0
273,358,0,0,0,0,0,0,0,0,0,-1,1497,666,0,0
280,358,0,0,0,0,0,0,0,0,0,-1,1504,666,0,0
287,358,0,0,0,0,0,0,0,0,0,-1,1511,666,0,0
294,358,0,0,0,0,0,0,0,0,0,-1,1518,666,0,0
301,358,0,0,0,0,0,0,0,0,0,-1,1525,666,0,0
308,358,0,0,0,0,0,0,0,0,0,-1,1532,666,0,0
315,358,0,0,0,0,0,0,0,0,0,-1,1539,666,0,0
322,358,0,0,0,0,0,0,0,0,0,-1,1546,666,0,0
329,358,0,0,0,0,0,0,0,0,0,-1,1553,666,0,0
336,358,0,0,0,0,0,0,0,0,0,-1,1560,666,0,0
343,358,0,0,0,0,0,0,0,0,0,-1,1567,666,0,0
350,358,0,0,0,0,0,0,0,0,0,-1,1574,666,0,0
357,358,0,0,0,0,0,0,0,0,0,-1,1581,666,0,0
364,358,0,0,0,0,0,0,0,0,0,-1,1588,666,0,0
371,358,0,0,0,0,0,0,0,0,0,-1,1595,666,0,0
378,358,0,0,0,0,0,0,0,0,0,-1,1602,666,0,0
385,358,0,0,0,0,0,0,0,0,0,-1,1609,666,0,0
392,358,0,0,0,0,0,0,0,0,0,-1,1616,666,0,0
399,358,0,0,0,0,0,0,0,0,0,-1,1623,666,0,0
406,358,0,0,0,0,0,0,0,0,0,-1,1630,666,0,0
413,358,0,0,0,0,0,0,0,0,0,-1,1637,666,0,0
420,358,0,0,0,0,0,0,0,0,0,-1,1644,666,0,0
427,358,0,0,0,0,0,0,0,0,0,-1,1651,666,0,0
434,358,0,0,0,0,0,0,0,0,0,-1,1658,666,0,0
441,358,0,0,0,0,0,0,0,0,0,-1,1665,666,0,0
448,358,0,0,0,0,0,0,0,0,0,-1,1672,666,0,0
455,358,0,0,0,0,0,0,0,0,0,-1,1679,666,0,0
462,358,0,0,0,0,0,0,0,0,0,-1,1686,666,0,0
469,358,0,0,0,0,0,0,0,0,0,-1,1693,666,0,0
476,358,0,0,0,0,0,0,0,0,0,-1,1700,666,0,0
483,358,0,0,0,0,0,0,0,0,0,-1,1707,666,0,0
490,358,0,0,0,0,0,0,0,0,0,-1,1714,666,0,0
497,358,8.57239,1.1322,0,0,0,0,0,0,0,-1,1721,666,8.57234,-1.13219
504,358,10.5972,0.832947,0,0,0,0,0,0,0,-1,1728,666,10.5972,-0.832968
511,358,10.6873,0.868469,0,0,0,0,0,0,0,-1,1735,666,10.6872,-0.868484
518,358,16.5884,2.34894,0,0,0,0,0,0,0,-1,1742,666,16.5884,-2.34894
525,358,15.7626,3.65344,0,0,0,0,0,0,0,-1,1749,666,15.7626,-3.65342
532,358,14.9368,4.95789,0,0,0,0,0,0,0,-1,1756,666,14.9367,-4.9579
539,358,15.1597,3.42694,0,0,0,0,0,0,0,-1,1763,666,15.1597,-3.42692
546,358,12.3792,1.53558,0,0,0,0,0,0,0,-1,1770,666,12.3792,-1.5356
553,358,11.6584,1.26172,0,0,0,0,0,0,0,-1,1777,666,11.6585,-1.26175
560,358,10.8234,1.43042,0,0,0,0,0,0,0,-1,1784,666,10.8233,-1.43041
567,358,10.1333,-0.955139,0,0,0,0,0,0,0,-1,1791,666,10.1333,0.955132
574,358,14.7886,-2.69293,0,0,0,0,0,0,0,-1,1798,666,14.7885,2.6929
581,358,20.1738,-6.76135,0,0,0,0,0,0,0,-1,1805,666,20.1738,6.76137
588,358,29.5701,-10.4998,0,0,0,0,0,0,0,-1,1812,666,29.5701,10.4998
595,358,29.5674,-9.72101,0.000239219,-0.000718445,-0.00112558,0.000983588,-0.00146281,-0.58429,0.00142144,0.0176343,1819,666,29.5674,9.72102
602,358,29.514,-8.93756,0.000443975,-0.000298737,-0.0007587,0.000917326,-0.000772088,-0.557807,0.000976585,0.0135068,1826,666,29.5141,8.93758
609,358,29.4437,-8.1958,0.000915381,0.000251918,-0.000199398,0.000970696,0.000196603,-0.270608,0.00059257,0.01746,1833,666,29.4437,8.19579
616,358,29.4247,-7.4649,0.00146696,0.000872682,0.000412563,0.00167825,0.000661391,0.473313,0.000976155,0.0167517,1840,666,29.4246,7.46489
623,358,29.4419,-6.75525,0.00211475,0.00156905,0.00106647,0.00294272,0.00074108,0.660165,0.00176736,0.0146179,1847,666,29.4419,6.75525
630,358,29.4113,-6.05737,0.00279453,0.00235651,0.00177699,0.00436595,0.000785088,0.724084,0.00268744,0.0176662,1854,666,29.4112,6.05739
637,358,29.3082,-5.36206,0.00346082,0.00312365,0.00244573,0.00574377,0.0008407,0.750987,0.00358198,0.0238955,1861,666,29.3082,5.36207
644,358,29.3013,-4.64899,0.0040826,0.0039392,0.00310965,0.00712137,0.000900427,0.773872,0.00447772,0.0187047,1868,666,29.3013,4.64902
651,358,29.4745,-3.72424,0.00461937,0.00474782,0.00373572,0.00841987,0.000947323,0.793993,0.00532563,0.0473482,1875,666,29.4745,3.72426
658,358,29.4979,-2.6214,0,0,0,0,0,0,0,-1,1882,666,29.4979,2.62142
665,358,28.0272,-2.07764,0,0,0,0,0,0,0,-1,1889,666,28.0272,2.07764
672,358,12.4299,1.47272,0,0,0,0,0,0,0,-1,1896,666,12.4299,-1.4727
679,358,12.1294,2.19702,0,0,0,0,0,0,0,-1,1903,666,12.1294,-2.19703
686,358,11.9557,2.2002,0,0,0,0,0,0,0,-1,1910,666,11.9557,-2.20021
693,358,13.188,2.52203,0,0,0,0,0,0,0,-1,1917,666,13.188,-2.52202
700,358,0,0,0,0,0,0,0,0,0,-1,1924,666,0,0
707,358,0,0,0,0,0,0,0,0,0,-1,1931,666,0,0
714,358,0,0,0,0,0,0,0,0,0,-1,1938,666,0,0
721,358,0,0,0,0,0,0,0,0,0,-1,1945,666,0,0
728,358,0,0,0,0,0,0,0,0,0,-1,1952,666,0,0
735,358,0,0,0,0,0,0,0,0,0,-1,1959,666,0,0
742,358,0,0,0,0,0,0,0,0,0,-1,1966,666,0,0
749,358,0,0,0,0,0,0,0,0,0,-1,1973,666,0,0
756,358,0,0,0,0,0,0,0,0,0,-1,1980,666,0,0
763,358,0,0,0,0,0,0,0,0,0,-1,1987,666,0,0
770,358,0,0,0,0,0,0,0,0,0,-1,1994,666,0,0
777,358,0,0,0,0,0,0,0,0,0,-1,2001,666,0,0
784,358,0,0,0,0,0,0,0,0,0,-1,2008,666,0,0
791,358,0,0,0,0,0,0,0,0,0,-1,2015,666,0,0
798,358,0,0,0,0,0,0,0,0,0,-1,2022,666,0,0
805,358,0,0,0,0,0,0,0,0,0,-1,2029,666,0,0
812,358,0,0,0,0,0,0,0,0,0,-1,2036,666,0,0
-700,351,0,0,0,0,0,0,0,0,0,-1,524,673,0,0
-693,351,0,0,0,0,0,0,0,0,0,-1,531,673,0,0
-686,351,0,0,0,0,0,0,0,0,0,-1,538,673,0,0
-679,351,0,0,0,0,0,0,0,0,0,-1,545,673,0,0
-672,351,0,0,0,0,0,0,0,0,0,-1,552,673,0,0
-665,351,0,0,0,0,0,0,0,0,0,-1,559,673,0,0
-658,351,0,0,0,0,0,0,0,0,0,-1,566,673,0,0
-651,351,0,0,0,0,0,0,0,0,0,-1,573,673,0,0
-644,351,0,0,0,0,0,0,0,0,0,-1,580,673,0,0
-637,351,0,0,0,0,0,0,0,0,0,-1,587,673,0,0
-630,351,0,0,0,0,0,0,0,0,0,-1,594,673,0,0
-623,351,0,0,0,0,0,0,0,0,0,-1,601,673,0,0
-616,351,0,0,0,0,0,0,0,0,0,-1,608,673,0,0
-609,351,0,0,0,0,0,0,0,0,0,-1,615,673,0,0
-602,351,0,0,0,0,0,0,0,0,0,-1,622,673,0,0
-595,351,0,0,0,0,0,0,0,0,0,-1,629,673,0,0
-588,351,0,0,0,0,0,0,0,0,0,-1,636,673,0,0
-581,351,-9.0647,1.71906,0,0,0,0,0,0,0,-1,643,673,-9.06472,-1.71908
-574,351,-8.23584,2.64764,0,0,0,0,0,0,0,-1,650,673,-8.23584,-2.64764
-567,351,-10.8027,4.56836,0,0,0,0,0,0,0,-1,657,673,-10.8027,-4.56839
-560,351,-14.2001,2.17084,0,0,0,0,0,0,0,-1,664,673,-14.2002,-2.17086
-553,351,-13.4979,0.779541,0,0,0,0,0,0,0,-1,671,673,-13.4978,-0.779519
-546,351,-14.0065,0.73645,0,0,0,0,0,0,0,-1,678,673,-14.0065,-0.736473
-539,351,-12.8123,-1.46393,0,0,0,0,0,0,0,-1,685,673,-12.8123,1.46395
-532,351,-16.0198,-4.03937,0,0,0,0,0,0,0,-1,692,673,-16.0198,4.03936
-525,351,-17.7365,-5.26288,0,0,0,0,0,0,0,-1,699,673,-17.7365,5.2629
-518,351,-17.6665,-5.95209,0.0047171,0.00164984,-0.00145074,0.00529455,0.00107239,-0.378815,0.00323209,0.0212254,706,673,-17.6665,5.95208
-511,351,-17.6634,-6.70917,0.00364551,0.00110596,-0.00110652,0.00405999,0.00069148,-0.358402,0.00250814,0.0121425,713,673,-17.6634,6.70918
-504,351,-17.7098,-7.42102,0.00282462,0.000689946,-0.000810978,0.00309776,0.000416801,-0.324876,0.00194122,0.0116251,720,673,-17.7099,7.42103
-497,351,-17.7306,-8.13922,0.00230703,0.000431599,-0.000623865,0.0024956,0.000243029,-0.293529,0.00158893,0.0116154,727,673,-17.7306,8.13924
-490,351,-17.751,-8.84576,0.00197977,0.000343939,-0.000571054,0.0021594,0.000164313,-0.304752,0.00138807,0.0112505,734,673,-17.751,8.84578
-483,351,-17.7782,-9.56189,0.00193724,0.000392939,-0.000622085,0.00215666,0.000173522,-0.339089,0.00138356,0.0129223,741,673,-17.7782,9.56187
-476,351,-17.8292,-10.2621,0.00211419,0.000608487,-0.000816415,0.00247189,0.000250789,-0.412941,0.00157101,0.0118419,748,673,-17.8293,10.2622
-469,351,-17.8668,-10.9316,0.00251117,0.000967818,-0.00115719,0.00313039,0.000348601,-0.491333,0.00198097,0.0136707,755,673,-17.8668,10.9316
-462,351,-17.8729,-11.7031,0.00308842,0.00145526,-0.00163496,0.00409938,0.000444296,-0.553795,0.00259752,0.0342085,762,673,-17.8729,11.7031
-455,351,-17.7339,-12.5641,0,0,0,0,0,0,0,-1,769,673,-17.734,12.5642
-448,351,-6.61456,-4.38654,0,0,0,0,0,0,0,-1,776,673,-6.61456,4.38654
-441,351,-4.31567,-2.3009,0,0,0,0,0,0,0,-1,783,673,-4.31565,2.30089
-434,351,-3.81708,-2.28003,0,0,0,0,0,0,0,-1,790,673,-3.81706,2.28006
-427,351,-2.05157,-2.7785,0,0,0,0,0,0,0,-1,797,673,-2.05157,2.77848
-420,351,-1.06989,-2.43665,0,0,0,0,0,0,0,-1,804,673,-1.06991,2.43663
-413,351,-0.392334,-2.06671,0,0,0,0,0,0,0,-1,811,673,-0.392363,2.06672
-406,351,-1.86316,-2.58105,0,0,0,0,0,0,0,-1,818,673,-1.86313,2.58106
-399,351,1.00952,-1.53455,0,0,0,0,0,0,0,-1,825,673,1.00954,1.53457
-392,351,-1.02197,0.877136,0,0,0,0,0,0,0,-1,832,673,-1.02195,-0.877143
-385,351,-1.47205,1.04437,0,0,0,0,0,0,0,-1,839,673,-1.47207,-1.04435
-378,351,0,0,0,0,0,0,0,0,0,-1,846,673,0,0
-371,351,0,0,0,0,0,0,0,0,0,-1,853,673,0,0
-364,351,0,0,0,0,0,0,0,0,0,-1,860,673,0,0
-357,351,0,0,0,0,0,0,0,0,0,-1,867,673,0,0
-350,351,0,0,0,0,0,0,0,0,0,-1,874,673,0,0
-343,351,0,0,0,0,0,0,0,0,0,-1,881,673,0,0
-336,351,0,0,0,0,0,0,0,0,0,-1,888,673,0,0
-329,351,0,0,0,0,0,0,0,0,0,-1,895,673,0,0
-322,351,0,0,0,0,0,0,0,0,0,-1,902,673,0,0
-315,351,0,0,0,0,0,0,0,0,0,-1,909,673,0,0
-308,351,0,0,0,0,0,0,0,0,0,-1,916,673,0,0
-301,351,0,0,0,0,0,0,0,0,0,-1,923,673,0,0
-294,351,0,0,0,0,0,0,0,0,0,-1,930,673,0,0
-287,351,0,0,0,0,0,0,0,0,0,-1,937,673,0,0
-280,351,0,0,0,0,0,0,0,0,0,-1,944,673,0,0
-273,351,0,0,0,0,0,0,0,0,0,-1,951,673,0,0
-266,351,0,0,0,0,0,0,0,0,0,-1,958,673,0,0
-259,351,0,0,0,0,0,0,0,0,0,-1,965,673,0,0
-252,351,0,0,0,0,0,0,0,0,0,-1,972,673,0,0
-245,351,0,0,0,0,0,0,0,0,0,-1,979,673,0,0
-238,351,0,0,0,0,0,0,0,0,0,-1,986,673,0,0
-231,351,0,0,0,0,0,0,0,0,0,-1,993,673,0,0
-224,351,0,0,0,0,0,0,0,0,0,-1,1000,673,0,0
-217,351,0,0,0,0,0,0,0,0,0,-1,1007,673,0,0
-210,351,0,0,0,0,0,0,0,0,0,-1,1014,673,0,0
-203,351,0,0,0,0,0,0,0,0,0,-1,1021,673,0,0
-196,351,0,0,0,0,0,0,0,0,0,-1,1028,673,0,0
-189,351,0,0,0,0,0,0,0,0,0,-1,1035,673,0,0
-182,351,0,0,0,0,0,0,0,0,0,-1,1042,673,0,0
-175,351,0,0,0,0,0,0,0,0,0,-1,1049,673,0,0
-168,351,0,0,0,0,0,0,0,0,0,-1,1056,673,0,0
-161,351,0,0,0,0,0,0,0,0,0,-1,1063,673,0,0
-154,351,0,0,0,0,0,0,0,0,0,-1,1070,673,0,0
-147,351,0,0,0,0,0,0,0,0,0,-1,1077,673,0,0
-140,351,0,0,0,0,0,0,0,0,0,-1,1084,673,0,0
-133,351,0,0,0,0,0,0,0,0,0,-1,1091,673,0,0
-126,351,0,0,0,0,0,0,0,0,0,-1,1098,673,0,0
-119,351,0,0,0,0,0,0,0,0,0,-1,1105,673,0,0
-112,351,0,0,0,0,0,0,0,0,0,-1,1112,673,0,0
-105,351,0,0,0,0,0,0,0,0,0,-1,1119,673,0,0
-98,351,0,0,0,0,0,0,0,0,0,-1,1126,673,0,0
-91,351,0,0,0,0,0,0,0,0,0,-1,1133,673,0,0
-84,351,0,0,0,0,0,0,0,0,0,-1,1140,673,0,0
-77,351,0,0,0,0,0,0,0,0,0,-1,1147,673,0,0
-70,351,0,0,0,0,0,0,0,0,0,-1,1154,673,0,0
-63,351,0,0,0,0,0,0,0,0,0,-1,1161,673,0,0
-56,351,0,0,0,0,0,0,0,0,0,-1,1168,673,0,0
-49,351,0,0,0,0,0,0,0,0,0,-1,1175,673,0,0
-42,351,0,0,0,0,0,0,0,0,0,-1,1182,673,0,0
-35,351,0,0,0,0,0,0,0,0,0,-1,1189,673,0,0
-28,351,0,0,0,0,0,0,0,0,0,-1,1196,673,0,0
-21,351,0,0,0,0,0,0,0,0,0,-1,1203,673,0,0
-14,351,0,0,0,0,0,0,0,0,0,-1,1210,673,0,0
-7,351,0,0,0,0,0,0,0,0,0,-1,1217,673,0,0
0,351,0,0,0,0,0,0,0,0,0,-1,1224,673,0,0
7,351,0,0,0,0,0,0,0,0,0,-1,1231,673,0,0
14,351,0,0,0,0,0,0,0,0,0,-1,1238,673,0,0
21,351,0,0,0,0,0,0,0,0,0,-1,1245,673,0,0
28,351,0,0,0,0,0,0,0,0,0,-1,1252,673,0,0
35,351,0,0,0,0,0,0,0,0,0,-1,1259,673,0,0
42,351,0,0,0,0,0,0,0,0,0,-1,1266,673,0,0
49,351,0,0,0,0,0,0,0,0,0,-1,1273,673,0,0
56,351,0,0,0,0,0,0,0,0,0,-1,1280,673,0,0
63,351,0,0,0,0,0,0,0,0,0,-1,1287,673,0,0
70,351,0,0,0,0,0,0,0,0,0,-1,1294,673,0,0
77,351,0,0,0,0,0,0,0,0,0,-1,1301,673,0,0
84,351,0,0,0,0,0,0,0,0,0,-1,1308,673,0,0
91,351,0,0,0,0,0,0,0,0,0,-1,1315,673,0,0
98,351,0,0,0,0,0,0,0,0,0,-1,1322,673,0,0
105,351,0,0,0,0,0,0,0,0,0,-1,1329,673,0,0
112,351,0,0,0,0,0,0,0,0,0,-1,1336,673,0,0
119,351,0,0,0,0,0,0,0,0,0,-1,1343,673,0,0
126,351,0,0,0,0,0,0,0,0,0,-1,1350,673,0,0
133,351,0,0,0,0,0,0,0,0,0,-1,1357,673,0,0
140,351,0,0,0,0,0,0,0,0,0,-1,1364,673,0,0
147,351,0,0,0,0,0,0,0,0,0,-1,1371,673,0,0
154,351,0,0,0,0,0,0,0,0,0,-1,1378,673,0,0
161,351,0,0,0,0,0,0,0,0,0,-1,1385,673,0,0
168,351,0,0,0,0,0,0,0,0,0,-1,1392,673,0,0
175,351,0,0,0,0,0,0,0,0,0,-1,1399,673,0,0
182,351,0,0,0,0,0,0,0,0,0,-1,1406,673,0,0
189,351,0,0,0,0,0,0,0,0,0,-1,1413,673,0,0
196,351,0,0,0,0,0,0,0,0,0,-1,1420,673,0,0
203,351,0,0,0,0,0,0,0,0,0,-1,1427,673,0,0
210,351,0,0,0,0,0,0,0,0,0,-1,1434,673,0,0
217,351,0,0,0,0,0,0,0,0,0,-1,1441,673,0,0
224,351,0,0,0,0,0,0,0,0,0,-1,1448,673,0,0
231,351,0,0,0,0,0,0,0,0,0,-1,1455,673,0,0
238,351,0,0,0,0,0,0,0,0,0,-1,1462,673,0,0
245,351,0,0,0,0,0,0,0,0,0,-1,1469,673,0,0
252,351,0,0,0,0,0,0,0,0,0,-1,1476,673,0,0
259,351,0,0,0,0,0,0,0,0,0,-1,1483,673,0,0
266,351,0,0,0,0,0,0,0,0,0,-1,1490,673,0,0
273,351,0,0,0,0,0,0,0,0,0,-1,1497,673,0,0
280,351,0,0,0,0,0,0,0,0,0,-1,1504,673,0,0
287,351,0,0,0,0,0,0,0,0,0,-1,1511,673,0,0
294,351,0,0,0,0,0,0,0,0,0,-1,1518,673,0,0
301,351,0,0,0,0,0,0,0,0,0,-1,1525,673,0,0
308,351,0,0,0,0,0,0,0,0,0,-1,1532,673,0,0
315,351,0,0,0,0,0,0,0,0,0,-1,1539,673,0,0
322,351,0,0,0,0,0,0,0,0,0,-1,1546,673,0,0
329,351,0,0,0,0,0,0,0,0,0,-1,1553,673,0,0
336,351,0,0,0,0,0,0,0,0,0,-1,1560,673,0,0
343,351,0,0,0,0,0,0,0,0,0,-1,1567,673,0,0
350,351,0,0,0,0,0,0,0,0,0,-1,1574,673,0,0
357,351,0,0,0,0,0,0,0,0,0,-1,1581,673,0,0
364,351,0,0,0,0,0,0,0,0,0,-1,1588,673,0,0
371,351,0,0,0,0,0,0,0,0,0,-1,1595,673,0,0
378,351,0,0,0,0,0,0,0,0,0,-1,1602,673,0,0
385,351,0,0,0,0,0,0,0,0,0,-1,1609,673,0,0
392,351,0,0,0,0,0,0,0,0,0,-1,1616,673,0,0
399,351,0,0,0,0,0,0,0,0,0,-1,1623,673,0,0
406,351,0,0,0,0,0,0,0,0,0,-1,1630,673,0,0
413,351,0,0,0,0,0,0,0,0,0,-1,1637,673,0,0
420,351,0,0,0,0,0,0,0,0,0,-1,1644,673,0,0
427,351,0,0,0,0,0,0,0,0,0,-1,1651,673,0,0
434,351,0,0,0,0,0,0,0,0,0,-1,1658,673,0,0
441,351,0,0,0,0,0,0,0,0,0,-1,1665,673,0,0
448,351,0,0,0,0,0,0,0,0,0,-1,1672,673,0,0
455,351,0,0,0,0,0,0,0,0,0,-1,1679,673,0,0
462,351,0,0,0,0,0,0,0,0,0,-1,1686,673,0,0
469,351,0,0,0,0,0,0,0,0,0,-1,1693,673,0,0
476,351,0,0,0,0,0,0,0,0,0,-1,1700,673,0,0
483,351,0,0,0,0,0,0,0,0,0,-1,1707,673,0,0
490,351,0,0,0,0,0,0,0,0,0,-1,1714,673,0,0
497,351,0,0,0,0,0,0,0,0,0,-1,1721,673,0,0
504,351,10.8842,1.61615,0,0,0,0,0,0,0,-1,1728,673,10.8842,-1.61618
511,351,15.4548,0.0236816,0,0,0,0,0,0,0,-1,1735,673,15.4549,-0.0236664
518,351,16.7448,2.49268,0,0,0,0,0,0,0,-1,1742,673,16.7448,-2.49269
525,351,16.0701,3.43225,0,0,0,0,0,0,0,-1,1749,673,16.07,-3.43227
532,351,32.3822,3.03021,0,0,0,0,0,0,0,-1,1756,673,32.3822,-3.03019
539,351,15.3387,3.54486,0,0,0,0,0,0,0,-1,1763,673,15.3387,-3.54485
546,351,13.9387,4.59357,0,0,0,0,0,0,0,-1,1770,673,13.9388,-4.59359
553,351,12.0682,2.02832,0,0,0,0,0,0,0,-1,1777,673,12.0683,-2.02831
560,351,12.0173,0.55304,0,0,0,0,0,0,0,-1,1784,673,12.0174,-0.553028
567,351,10.7827,0.130188,0,0,0,0,0,0,0,-1,1791,673,10.7827,-0.130183
574,351,13.405,-1.09204,0,0,0,0,0,0,0,-1,1798,673,13.405,1.09207
581,351,15.2351,-3.06049,0,0,0,0,0,0,0,-1,1805,673,15.2351,3.06046
588,351,29.9419,-10.5057,0,0,0,0,0,0,0,-1,1812,673,29.9419,10.5057
595,351,30.2719,-9.70923,0,0,0,0,0,0,0,-1,1819,673,30.2718,9.70925
602,351,30.2433,-8.91882,0.000211739,-0.000831234,-0.00114582,0.000949161,-0.00156866,-0.571846,0.00146826,0.0188422,1826,673,30.2433,8.91883
609,351,30.2417,-8.21002,0.000663567,-0.000358091,-0.000635016,0.000967717,-0.000662242,-0.446679,0.00094655,0.0174899,1833,673,30.2418,8.21
616,351,30.1802,-7.45972,0.00114687,0.000168257,-7.33011e-05,0.00115233,0.000162797,-0.0743504,0.000720112,0.0161036,1840,673,30.1802,7.45969
623,351,30.1814,-6.76147,0.0016647,0.000779524,0.000495084,0.00188618,0.000558038,0.420664,0.00111883,0.0165593,1847,673,30.1813,6.76145
630,351,30.1178,-6.07495,0.00220939,0.00147362,0.00111618,0.00301675,0.000666268,0.626208,0.00182996,0.0255517,1854,673,30.1178,6.07493
637,351,30.0208,-5.33392,0.00274667,0.00213976,0.00169631,0.00416646,0.000719973,0.69689,0.00257147,0.0296255,1861,673,30.0207,5.33393
644,351,30.0079,-4.58917,0.00324502,0.00281973,0.00225123,0.00529363,0.000771121,0.73831,0.00330219,0.0208857,1868,673,30.0079,4.58917
651,351,30.038,-3.7652,0.00369475,0.00351677,0.00277596,0.00638315,0.000828372,0.769375,0.00400794,0.0173974,1875,673,30.0379,3.76521
658,351,29.9601,-2.94891,0.00401899,0.0041835,0.00311732,0.00721965,0.000982846,0.798588,0.00452124,0.0396493,1882,673,29.96,2.94894
665,351,29.6798,-2.10657,0,0,0,0,0,0,0,-1,1889,673,29.6798,2.10654
672,351,27.876,-1.51941,0,0,0,0,0,0,0,-1,1896,673,27.8759,1.51941
679,351,14.1252,1.85681,0,0,0,0,0,0,0,-1,1903,673,14.1253,-1.85682
686,351,13.0294,2.1189,0,0,0,0,0,0,0,-1,1910,673,13.0294,-2.11892
693,351,13.5187,2.34595,0,0,0,0,0,0,0,-1,1917,673,13.5187,-2.34596
700,351,14.5629,-2.40173,0,0,0,0,0,0,0,-1,1924,673,14.5629,2.40172
707,351,0,0,0,0,0,0,0,0,0,-1,1931,673,0,0
714,351,0,0,0,0,0,0,0,0,0,-1,1938,673,0,0
721,351,0,0,0,0,0,0,0,0,0,-1,1945,673,0,0
728,351,0,0,0,0,0,0,0,0,0,-1,1952,673,0,0
735,351,0,0,0,0,0,0,0,0,0,-1,1959,673,0,0
742,351,0,0,0,0,0,0,0,0,0,-1,1966,673,0,0
749,351,0,0,0,0,0,0,0,0,0,-1,1973,673,0,0
756,351,0,0,0,0,0,0,0,0,0,-1,1980,673,0,0
763,351,0,0,0,0,0,0,0,0,0,-1,1987,673,0,0
770,351,0,0,0,0,0,0,0,0,0,-1,1994,673,0,0
777,351,0,0,0,0,0,0,0,0,0,-1,2001,673,0,0
784,351,0,0,0,0,0,0,0,0,0,-1,2008,673,0,0
791,351,0,0,0,0,0,0,0,0,0,-1,2015,673,0,0
798,351,0,0,0,0,0,0,0,0,0,-1,2022,673,0,0
805,351,0,0,0,0,0,0,0,0,0,-1,2029,673,0,0
812,351,0,0,0,0,0,0,0,0,0,-1,2036,673,0,0
-700,344,0,0,0,0,0,0,0,0,0,-1,524,680,0,0
-693,344,0,0,0,0,0,0,0,0,0,-1,531,680,0,0
-686,344,0,0,0,0,0,0,0,0,0,-1,538,680,0,0
-679,344,0,0,0,0,0,0,0,0,0,-1,545,680,0,0
-672,344,0,0,0,0,0,0,0,0,0,-1,552,680,0,0
-665,344,0,0,0,0,0,0,0,0,0,-1,559,680,0,0
-658,344,0,0,0,0,0,0,0,0,0,-1,566,680,0,0
-651,344,0,0,0,0,0,0,0,0,0,-1,573,680,0,0
-644,344,0,0,0,0,0,0,0,0,0,-1,580,680,0,0
-637,344,0,0,0,0,0,0,0,0,0,-1,587,680,0,0
-630,344,0,0,0,0,0,0,0,0,0,-1,594,680,0,0
-623,344,0,0,0,0,0,0,0,0,0,-1,601,680,0,0
-616,344,0,0,0,0,0,0,0,0,0,-1,608,680,0,0
-609,344,0,0,0,0,0,0,0,0,0,-1,615,680,0,0
-602,344,0,0,0,0,0,0,0,0,0,-1,622,680,0,0
-595,344,0,0,0,0,0,0,0,0,0,-1,629,680,0,0
-588,344,-9.27826,1.47302,0,0,0,0,0,0,0,-1,636,680,-9.27829,-1.473
-581,344,-10.0098,1.71753,0,0,0,0,0,0,0,-1,643,680,-10.0098,-1.7175
-574,344,-10.2208,3.04871,0,0,0,0,0,0,0,-1,650,680,-10.2208,-3.04869
-567,344,-14.3779,2.29016,0,0,0,0,0,0,0,-1,657,680,-14.3779,-2.29014
-560,344,-14.1238,1.8374,0,0,0,0,0,0,0,-1,664,680,-14.1238,-1.83743
-553,344,-14.7884,2.00116,0,0,0,0,0,0,0,-1,671,680,-14.7884,-2.00115
-546,344,-17.4192,0.157654,0,0,0,0,0,0,0,-1,678,680,-17.4192,-0.157635
-539,344,-17.2671,-2.75714,0,0,0,0,0,0,0,-1,685,680,-17.2671,2.75712
-532,344,-18.3452,-4.40283,0,0,0,0,0,0,0,-1,692,680,-18.3452,4.40281
-525,344,-18.4406,-5.14508,0.00552636,0.00231908,-0.00140776,0.0060566,0.00178884,-0.360223,0.00359308,0.0492982,699,680,-18.4406,5.14508
-518,344,-18.3751,-5.94849,0.00436711,0.00154796,-0.00112992,0.00476409,0.00115098,-0.337859,0.00287038,0.0191671,706,680,-18.375,5.94849
-511,344,-18.3917,-6.65839,0.00337068,0.000935823,-0.000817456,0.00361966,0.000686839,-0.295657,0.00221987,0.0169157,713,680,-18.3917,6.65836
-504,344,-18.399,-7.39606,0.00261772,0.000459702,-0.000557288,0.00275314,0.000324285,-0.238372,0.00173745,0.0181155,720,680,-18.399,7.39607
-497,344,-18.4313,-8.13464,0.00212642,0.000109308,-0.00030173,0.00217059,6.51404e-05,-0.145347,0.00142584,0.016321,727,680,-18.4313,8.13464
-490,344,-18.4841,-8.8396,0.00176591,-0.000358488,0.000214718,0.0017874,-0.000379973,0.0997281,0.00133639,0.0149409,734,680,-18.4841,8.83958
-483,344,-18.4936,-9.52863,0.00157772,-0.00103483,0.00116491,0.0020217,-0.0014788,0.364127,0.0020291,0.0147622,741,680,-18.4936,9.52864
-476,344,-18.5384,-10.2187,0.00153697,-0.00187339,0.00240465,0.00277966,-0.00311608,0.476988,0.00340576,0.0148463,748,680,-18.5384,10.2187
-469,344,-18.5757,-10.94,0.00161156,-0.00307091,0.00422604,0.00410156,-0.00556091,0.532443,0.0055998,0.0204652,755,680,-18.5758,10.94
-462,344,-18.5154,-11.7293,0,0,0,0,0,0,0,-1,762,680,-18.5154,11.7293
-455,344,-12.1653,-7.99176,0,0,0,0,0,0,0,-1,769,680,-12.1653,7.99174
-448,344,-5.67657,-2.72864,0,0,0,0,0,0,0,-1,776,680,-5.6766,2.72863
-441,344,-5.09229,-2.34167,0,0,0,0,0,0,0,-1,783,680,-5.09229,2.34168
-434,344,-4.28778,-2.08807,0,0,0,0,0,0,0,-1,790,680,-4.28778,2.08809
-427,344,-3.06506,-1.45404,0,0,0,0,0,0,0,-1,797,680,-3.06505,1.45402
-420,344,-1.96582,-1.57574,0,0,0,0,0,0,0,-1,804,680,-1.96579,1.57574
-413,344,-0.817993,-1.4751,0,0,0,0,0,0,0,-1,811,680,-0.818017,1.47511
-406,344,-0.00714111,-1.25189,0,0,0,0,0,0,0,-1,818,680,-0.00714956,1.25191
-399,344,0.240051,-1.75769,0,0,0,0,0,0,0,-1,825,680,0.240079,1.75767
-392,344,1.11353,-2.05615,0,0,0,0,0,0,0,-1,832,680,1.11351,2.05616
-385,344,0,0,0,0,0,0,0,0,0,-1,839,680,0,0
-378,344,0,0,0,0,0,0,0,0,0,-1,846,680,0,0
-371,344,0,0,0,0,0,0,0,0,0,-1,853,680,0,0
-364,344,0,0,0,0,0,0,0,0,0,-1,860,680,0,0
-357,344,0,0,0,0,0,0,0,0,0,-1,867,680,0,0
-350,344,0,0,0,0,0,0,0,0,0,-1,874,680,0,0
-343,344,0,0,0,0,0,0,0,0,0,-1,881,680,0,0
-336,344,0,0,0,0,0,0,0,0,0,-1,888,680,0,0
-329,344,0,0,0,0,0,0,0,0,0,-1,895,680,0,0
-322,344,0,0,0,0,0,0,0,0,0,-1,902,680,0,0
-315,344,0,0,0,0,0,0,0,0,0,-1,909,680,0,0
-308,344,0,0,0,0,0,0,0,0,0,-1,916,680,0,0
-301,344,0,0,0,0,0,0,0,0,0,-1,923,680,0,0
-294,344,0,0,0,0,0,0,0,0,0,-1,930,680,0,0
-287,344,0,0,0,0,0,0,0,0,0,-1,937,680,0,0
-280,344,0,0,0,0,0,0,0,0,0,-1,944,680,0,0
-273,344,0,0,0,0,0,0,0,0,0,-1,951,680,0,0
-266,344,0,0,0,0,0,0,0,0,0,-1,958,680,0,0
-259,344,0,0,0,0,0,0,0,0,0,-1,965,680,0,0
-252,344,0,0,0,0,0,0,0,0,0,-1,972,680,0,0
-245,344,0,0,0,0,0,0,0,0,0,-1,979,680,0,0
-238,344,0,0,0,0,0,0,0,0,0,-1,986,680,0,0
-231,344,0,0,0,0,0,0,0,0,0,-1,993,680,0,0
-224,344,0,0,0,0,0,0,0,0,0,-1,1000,680,0,0
-217,344,0,0,0,0,0,0,0,0,0,-1,1007,680,0,0
-210,344,0,0,0,0,0,0,0,0,0,-1,1014,680,0,0
-203,344,0,0,0,0,0,0,0,0,0,-1,1021,680,0,0
-196,344,0,0,0,0,0,0,0,0,0,-1,1028,680,0,0
-189,344,0,0,0,0,0,0,0,0,0,-1,1035,680,0,0
-182,344,0,0,0,0,0,0,0,0,0,-1,1042,680,0,0
-175,344,0,0,0,0,0,0,0,0,0,-1,1049,680,0,0
-168,344,0,0,0,0,0,0,0,0,0,-1,1056,680,0,0
-161,344,0,0,0,0,0,0,0,0,0,-1,1063,680,0,0
-154,344,0,0,0,0,0,0,0,0,0,-1,1070,680,0,0
-147,344,0,0,0,0,0,0,0,0,0,-1,1077,680,0,0
-140,344,0,0,0,0,0,0,0,0,0,-1,1084,680,0,0
-133,344,0,0,0,0,0,0,0,0,0,-1,1091,680,0,0
-126,344,0,0,0,0,0,0,0,0,0,-1,1098,680,0,0
-119,344,0,0,0,0,0,0,0,0,0,-1,1105,680,0,0
-112,344,0,0,0,0,0,0,0,0,0,-1,1112,680,0,0
-105,344,0,0,0,0,0,0,0,0,0,-1,1119,680,0,0
-98,344,0,0,0,0,0,0,0,0,0,-1,1126,680,0,0
-91,344,0,0,0,0,0,0,0,0,0,-1,1133,680,0,0
-84,344,0,0,0,0,0,0,0,0,0,-1,1140,680,0,0
-77,344,0,0,0,0,0,0,0,0,0,-1,1147,680,0,0
-70,344,0,0,0,0,0,0,0,0,0,-1,1154,680,0,0
-63,344,0,0,0,0,0,0,0,0,0,-1,1161,680,0,0
-56,344,0,0,0,0,0,0,0,0,0,-1,1168,680,0,0
-49,344,0,0,0,0,0,0,0,0,0,-1,1175,680,0,0
-42,344,0,0,0,0,0,0,0,0,0,-1,1182,680,0,0
-35,344,0,0,0,0,0,0,0,0,0,-1,1189,680,0,0
-28,344,0,0,0,0,0,0,0,0,0,-1,1196,680,0,0
-21,344,0,0,0,0,0,0,0,0,0,-1,1203,680,0,0
-14,344,0,0,0,0,0,0,0,0,0,-1,1210,680,0,0
-7,344,0,0,0,0,0,0,0,0,0,-1,1217,680,0,0
0,344,0,0,0,0,0,0,0,0,0,-1,1224,680,0,0
7,344,0,0,0,0,0,0,0,0,0,-1,1231,680,0,0
14,344,0,0,0,0,0,0,0,0,0,-1,1238,680,0,0
21,344,0,0,0,0,0,0,0,0,0,-1,1245,680,0,0
28,344,0,0,0,0,0,0,0,0,0,-1,1252,680,0,0
35,344,0,0,0,0,0,0,0,0,0,-1,1259,680,0,0
42,344,0,0,0,0,0,0,0,0,0,-1,1266,680,0,0
49,344,0,0,0,0,0,0,0,0,0,-1,1273,680,0,0
56,344,0,0,0,0,0,0,0,0,0,-1,1280,680,0,0
63,344,0,0,0,0,0,0,0,0,0,-1,1287,680,0,0
70,344,0,0,0,0,0,0,0,0,0,-1,1294,680,0,0
77,344,0,0,0,0,0,0,0,0,0,-1,1301,680,0,0
84,344,0,0,0,0,0,0,0,0,0,-1,1308,680,0,0
91,344,0,0,0,0,0,0,0,0,0,-1,1315,680,0,0
98,344,0,0,0,0,0,0,0,0,0,-1,1322,680,0,0
105,344,0,0,0,0,0,0,0,0,0,-1,1329,680,0,0
112,344,0,0,0,0,0,0,0,0,0,-1,1336,680,0,0
119,344,0,0,0,0,0,0,0,0,0,-1,1343,680,0,0
126,344,0,0,0,0,0,0,0,0,0,-1,1350,680,0,0
133,344,0,0,0,0,0,0,0,0,0,-1,1357,680,0,0
140,344,0,0,0,0,0,0,0,0,0,-1,1364,680,0,0
147,344,0,0,0,0,0,0,0,0,0,-1,1371,680,0,0
154,344,0,0,0,0,0,0,0,0,0,-1,1378,680,0,0
161,344,0,0,0,0,0,0,0,0,0,-1,1385,680,0,0
168,344,0,0,0,0,0,0,0,0,0,-1,1392,680,0,0
175,344,0,0,0,0,0,0,0,0,0,-1,1399,680,0,0
182,344,0,0,0,0,0,0,0,0,0,-1,1406,680,0,0
189,344,0,0,0,0,0,0,0,0,0,-1,1413,680,0,0
196,344,0,0,0,0,0,0,0,0,0,-1,1420,680,0,0
203,344,0,0,0,0,0,0,0,0,0,-1,1427,680,0,0
210,344,0,0,0,0,0,0,0,0,0,-1,1434,680,0,0
217,344,0,0,0,0,0,0,0,0,0,-1,1441,680,0,0
224,344,0,0,0,0,0,0,0,0,0,-1,1448,680,0,0
231,344,0,0,0,0,0,0,0,0,0,-1,1455,680,0,0
238,344,0,0,0,0,0,0,0,0,0,-1,1462,680,0,0
245,344,0,0,0,0,0,0,0,0,0,-1,1469,680,0,0
252,344,0,0,0,0,0,0,0,0,0,-1,1476,680,0,0
259,344,0,0,0,0,0,0,0,0,0,-1,1483,680,0,0
266,344,0,0,0,0,0,0,0,0,0,-1,1490,680,0,0
273,344,0,0,0,0,0,0,0,0,0,-1,1497,680,0,0
280,344,0,0,0,0,0,0,0,0,0,-1,1504,680,0,0
287,344,0,0,0,0,0,0,0,0,0,-1,1511,680,0,0
294,344,0,0,0,0,0,0,0,0,0,-1,1518,680,0,0
301,344,0,0,0,0,0,0,0,0,0,-1,1525,680,0,0
308,344,0,0,0,0,0,0,0,0,0,-1,1532,680,0,0
315,344,0,0,0,0,0,0,0,0,0,-1,1539,680,0,0
322,344,0,0,0,0,0,0,0,0,0,-1,1546,680,0,0
329,344,0,0,0,0,0,0,0,0,0,-1,1553,680,0,0
336,344,0,0,0,0,0,0,0,0,0,-1,1560,680,0,0
343,344,0,0,0,0,0,0,0,0,0,-1,1567,680,0,0
350,344,0,0,0,0,0,0,0,0,0,-1,1574,680,0,0
357,344,0,0,0,0,0,0,0,0,0,-1,1581,680,0,0
364,344,0,0,0,0,0,0,0,0,0,-1,1588,680,0,0
371,344,0,0,0,0,0,0,0,0,0,-1,1595,680,0,0
378,344,0,0,0,0,0,0,0,0,0,-1,1602,680,0,0
385,344,0,0,0,0,0,0,0,0,0,-1,1609,680,0,0
392,344,0,0,0,0,0,0,0,0,0,-1,1616,680,0,0
399,344,0,0,0,0,0,0,0,0,0,-1,1623,680,0,0
406,344,0,0,0,0,0,0,0,0,0,-1,1630,680,0,0
413,344,0,0,0,0,0,0,0,0,0,-1,1637,680,0,0
420,344,0,0,0,0,0,0,0,0,0,-1,1644,680,0,0
427,344,0,0,0,0,0,0,0,0,0,-1,1651,680,0,0
434,344,0,0,0,0,0,0,0,0,0,-1,1658,680,0,0
441,344,0,0,0,0,0,0,0,0,0,-1,1665,680,0,0
448,344,0,0,0,0,0,0,0,0,0,-1,1672,680,0,0
455,344,0,0,0,0,0,0,0,0,0,-1,1679,680,0,0
462,344,0,0,0,0,0,0,0,0,0,-1,1686,680,0,0
469,344,0,0,0,0,0,0,0,0,0,-1,1693,680,0,0
476,344,0,0,0,0,0,0,0,0,0,-1,1700,680,0,0
483,344,0,0,0,0,0,0,0,0,0,-1,1707,680,0,0
490,344,0,0,0,0,0,0,0,0,0,-1,1714,680,0,0
497,344,0,0,0,0,0,0,0,0,0,-1,1721,680,0,0
504,344,0,0,0,0,0,0,0,0,0,-1,1728,680,0,0
511,344,15.4819,0.452637,0,0,0,0,0,0,0,-1,1735,680,15.4819,-0.452656
518,344,17.1357,2.31207,0,0,0,0,0,0,0,-1,1742,680,17.1358,-2.31207
525,344,31.5201,2.6217,0,0,0,0,0,0,0,-1,1749,680,31.5201,-2.62168
532,344,31.9766,2.61047,0,0,0,0,0,0,0,-1,1756,680,31.9765,-2.6105
539,344,32.4379,2.65314,0,0,0,0,0,0,0,-1,1763,680,32.4378,-2.65316
546,344,14.6722,4.30243,0,0,0,0,0,0,0,-1,1770,680,14.6722,-4.30241
553,344,14.8136,4.35681,0,0,0,0,0,0,0,-1,1777,680,14.8136,-4.35679
560,344,11.9363,2.14185,0,0,0,0,0,0,0,-1,1784,680,11.9362,-2.14182
567,344,11.397,0.925842,0,0,0,0,0,0,0,-1,1791,680,11.397,-0.92583
574,344,10.0004,0.504639,0,0,0,0,0,0,0,-1,1798,680,10.0004,-0.504645
581,344,13.6709,-0.969604,0,0,0,0,0,0,0,-1,1805,680,13.6709,0.969629
588,344,16.1447,-3.15948,0,0,0,0,0,0,0,-1,1812,680,16.1447,3.15946
595,344,30.9241,-9.7547,0,0,0,0,0,0,0,-1,1819,680,30.9241,9.7547
602,344,31.0999,-8.86359,4.96595e-05,-0.00134524,-0.00154285,0.00104538,-0.00234096,-0.573118,0.00200223,0.040904,1826,680,31.0999,8.86357
609,344,30.9944,-8.17444,0.000571322,-0.000897261,-0.000998925,0.0010768,-0.00140274,-0.468456,0.00143568,0.0159482,1833,680,30.9944,8.17443
616,344,30.9424,-7.4032,0.00102256,-0.000415673,-0.000430702,0.00114168,-0.000534788,-0.269817,0.000988822,0.0233105,1840,680,30.9423,7.40317
623,344,30.9152,-6.7157,0.00141856,0.000147376,9.39045e-05,0.00142546,0.000140477,0.0733409,0.000907116,0.0209987,1847,680,30.9151,6.71568
630,344,30.8398,-6.03461,0.00183901,0.000761586,0.000651375,0.00214558,0.000455017,0.439893,0.00130542,0.0263643,1854,680,30.8398,6.03464
637,344,30.7859,-5.26849,0.00225918,0.00134648,0.00116796,0.00305678,0.000548879,0.599157,0.00188177,0.0257997,1861,680,30.7859,5.26851
644,344,30.8102,-4.50696,0.00265097,0.00192889,0.00164537,0.00397445,0.000605417,0.677395,0.00247266,0.0173582,1868,680,30.8101,4.50694
651,344,30.7848,-3.75562,0.00302647,0.00254227,0.00209623,0.00489453,0.000674204,0.727906,0.00306312,0.01224,1875,680,30.7848,3.75562
658,344,30.7578,-2.92303,0.00334046,0.00314815,0.00242865,0.00567486,0.000813748,0.765613,0.00354328,0.0251192,1882,680,30.7578,2.92305
665,344,30.5742,-2.21448,0.00377761,0.00364683,0.00274559,0.00645859,0.000965853,0.773492,0.00402261,0.0396572,1889,680,30.5742,2.21445
672,344,30.5721,-1.56531,0,0,0,0,0,0,0,-1,1896,680,30.5721,1.56533
679,344,28.2183,-0.882141,0,0,0,0,0,0,0,-1,1903,680,28.2183,0.88215
686,344,15.024,1.82709,0,0,0,0,0,0,0,-1,1910,680,15.024,-1.82706
693,344,12.4362,-1.42346,0,0,0,0,0,0,0,-1,1917,680,12.4361,1.42348
700,344,17.5396,2.61206,0,0,0,0,0,0,0,-1,1924,680,17.5396,-2.61204
707,344,18.5829,3.29352,0,0,0,0,0,0,0,-1,1931,680,18.5828,-3.2935
714,344,0,0,0,0,0,0,0,0,0,-1,1938,680,0,0
721,344,0,0,0,0,0,0,0,0,0,-1,1945,680,0,0
728,344,0,0,0,0,0,0,0,0,0,-1,1952,680,0,0
735,344,0,0,0,0,0,0,0,0,0,-1,1959,680,0,0
742,344,0,0,0,0,0,0,0,0,0,-1,1966,680,0,0
749,344,0,0,0,0,0,0,0,0,0,-1,1973,680,0,0
756,344,0,0,0,0,0,0,0,0,0,-1,1980,680,0,0
763,344,0,0,0,0,0,0,0,0,0,-1,1987,680,0,0
770,344,0,0,0,0,0,0,0,0,0,-1,1994,680,0,0
777,344,0,0,0,0,0,0,0,0,0,-1,2001,680,0,0
784,344,0,0,0,0,0,0,0,0,0,-1,2008,680,0,0
791,344,0,0,0,0,0,0,0,0,0,-1,2015,680,0,0
798,344,0,0,0,0,0,0,0,0,0,-1,2022,680,0,0
805,344,0,0,0,0,0,0,0,0,0,-1,2029,680,0,0
812,344,0,0,0,0,0,0,0,0,0,-1,2036,680,0,0
-700,337,0,0,0,0,0,0,0,0,0,-1,524,687,0,0
-693,337,0,0,0,0,0,0,0,0,0,-1,531,687,0,0
-686,337,0,0,0,0,0,0,0,0,0,-1,538,687,0,0
-679,337,0,0,0,0,0,0,0,0,0,-1,545,687,0,0
-672,337,0,0,0,0,0,0,0,0,0,-1,552,687,0,0
-665,337,0,0,0,0,0,0,0,0,0,-1,559,687,0,0
-658,337,0,0,0,0,0,0,0,0,0,-1,566,687,0,0
-651,337,0,0,0,0,0,0,0,0,0,-1,573,687,0,0
-644,337,0,0,0,0,0,0,0,0,0,-1,580,687,0,0
-637,337,0,0,0,0,0,0,0,0,0,-1,587,687,0,0
-630,337,0,0,0,0,0,0,0,0,0,-1,594,687,0,0
-623,337,0,0,0,0,0,0,0,0,0,-1,601,687,0,0
-616,337,0,0,0,0,0,0,0,0,0,-1,608,687,0,0
-609,337,0,0,0,0,0,0,0,0,0,-1,615,687,0,0
-602,337,0,0,0,0,0,0,0,0,0,-1,622,687,0,0
-595,337,0,0,0,0,0,0,0,0,0,-1,629,687,0,0
-588,337,-10.8413,1.27863,0,0,0,0,0,0,0,-1,636,687,-10.8413,-1.27861
-581,337,-11.2157,1.31567,0,0,0,0,0,0,0,-1,643,687,-11.2157,-1.3157
-574,337,-6.03339,2.0321,0,0,0,0,0,0,0,-1,650,687,-6.03337,-2.03213
-567,337,-13.8102,1.56787,0,0,0,0,0,0,0,-1,657,687,-13.8102,-1.56789
-560,337,-15.5435,2.34247,0,0,0,0,0,0,0,-1,664,687,-15.5435,-2.34247
-553,337,-18.0128,1.12927,0,0,0,0,0,0,0,-1,671,687,-18.0128,-1.12926
-546,337,-18.0244,-2.03845,0,0,0,0,0,0,0,-1,678,687,-18.0244,2.03846
-539,337,-18.8068,-3.26355,0,0,0,0,0,0,0,-1,685,687,-18.8068,3.26356
-532,337,-19.0978,-4.49146,0,0,0,0,0,0,0,-1,692,687,-19.0979,4.49149
-525,337,-19.0991,-5.20343,0.0047313,0.00207653,-0.00113194,0.0051484,0.00165943,-0.353046,0.00303435,0.0178175,699,687,-19.0991,5.20341
-518,337,-19.0667,-5.92328,0.00379048,0.00129217,-0.000852301,0.00405354,0.00102911,-0.299375,0.00243299,0.0226072,706,687,-19.0667,5.92326
-511,337,-19.1107,-6.62671,0.00299148,0.000636557,-0.000552508,0.00311467,0.000513373,-0.219367,0.00192824,0.0245607,713,687,-19.1106,6.62669
-504,337,-19.1202,-7.3877,0.00231419,8.0046e-05,-0.000238647,0.00233939,5.48385e-05,-0.105236,0.00154164,0.0242418,720,687,-19.1202,7.38771
-497,337,-19.1469,-8.11322,0.00174683,-0.000703928,0.00052892,0.00185611,-0.000813206,0.20374,0.00157985,0.0171908,727,687,-19.1468,8.11324
-490,337,-19.21,-8.8067,0.00121713,-0.00213642,0.00212551,0.00224763,-0.00316692,0.451436,0.00314108,0.0150254,734,687,-19.21,8.80669
-483,337,-19.2208,-9.51233,0.000737765,-0.0041817,0.00472028,0.00360075,-0.00704469,0.545206,0.00625244,0.0148014,741,687,-19.2208,9.51231
-476,337,-19.2372,-10.2433,0.000283122,-0.0067631,0.00796545,0.00546981,-0.0119498,0.577182,0.0102866,0.0166112,748,687,-19.2372,10.2433
-469,337,-19.2625,-10.9734,0,0,0,0,0,0,0,-1,755,687,-19.2624,10.9735
-462,337,-14.186,-8.89264,0,0,0,0,0,0,0,-1,762,687,-14.186,8.89266
-455,337,-6.00574,-3.12933,0,0,0,0,0,0,0,-1,769,687,-6.00576,3.12934
-448,337,-5.30627,-2.07202,0,0,0,0,0,0,0,-1,776,687,-5.30628,2.07205
-441,337,-4.24762,-1.49597,0,0,0,0,0,0,0,-1,783,687,-4.24762,1.49598
-434,337,-6.86908,1.37531,0,0,0,0,0,0,0,-1,790,687,-6.86908,-1.3753
-427,337,-9.92004,2.487,0,0,0,0,0,0,0,-1,797,687,-9.92002,-2.48701
-420,337,-2.95996,-1.76697,0,0,0,0,0,0,0,-1,804,687,-2.95998,1.76696
-413,337,-1.29169,-1.99487,0,0,0,0,0,0,0,-1,811,687,-1.29171,1.9949
-406,337,-1.02356,-1.89563,0,0,0,0,0,0,0,-1,818,687,-1.02357,1.89564
-399,337,-0.472839,-2.21338,0,0,0,0,0,0,0,-1,825,687,-0.472837,2.2134
-392,337,0,0,0,0,0,0,0,0,0,-1,832,687,0,0
-385,337,0,0,0,0,0,0,0,0,0,-1,839,687,0,0
-378,337,0,0,0,0,0,0,0,0,0,-1,846,687,0,0
-371,337,0,0,0,0,0,0,0,0,0,-1,853,687,0,0
-364,337,0,0,0,0,0,0,0,0,0,-1,860,687,0,0
-357,337,0,0,0,0,0,0,0,0,0,-1,867,687,0,0
-350,337,0,0,0,0,0,0,0,0,0,-1,874,687,0,0
-343,337,0,0,0,0,0,0,0,0,0,-1,881,687,0,0
-336,337,0,0,0,0,0,0,0,0,0,-1,888,687,0,0
-329,337,0,0,0,0,0,0,0,0,0,-1,895,687,0,0
-322,337,0,0,0,0,0,0,0,0,0,-1,902,687,0,0
-315,337,0,0,0,0,0,0,0,0,0,-1,909,687,0,0
-308,337,0,0,0,0,0,0,0,0,0,-1,916,687,0,0
-301,337,0,0,0,0,0,0,0,0,0,-1,923,687,0,0
-294,337,0,0,0,0,0,0,0,0,0,-1,930,687,0,0
-287,337,0,0,0,0,0,0,0,0,0,-1,937,687,0,0
-280,337,0,0,0,0,0,0,0,0,0,-1,944,687,0,0
-273,337,0,0,0,0,0,0,0,0,0,-1,951,687,0,0
-266,337,0,0,0,0,0,0,0,0,0,-1,958,687,0,0
-259,337,0,0,0,0,0,0,0,0,0,-1,965,687,0,0
-252,337,0,0,0,0,0,0,0,0,0,-1,972,687,0,0
-245,337,0,0,0,0,0,0,0,0,0,-1,979,687,0,0
-238,337,0,0,0,0,0,0,0,0,0,-1,986,687,0,0
-231,337,0,0,0,0,0,0,0,0,0,-1,993,687,0,0
-224,337,0,0,0,0,0,0,0,0,0,-1,1000,687,0,0
-217,337,0,0,0,0,0,0,0,0,0,-1,1007,687,0,0
-210,337,0,0,0,0,0,0,0,0,0,-1,1014,687,0,0
-203,337,0,0,0,0,0,0,0,0,0,-1,1021,687,0,0
-196,337,0,0,0,0,0,0,0,0,0,-1,1028,687,0,0
-189,337,0,0,0,0,0,0,0,0,0,-1,1035,687,0,0
-182,337,0,0,0,0,0,0,0,0,0,-1,1042,687,0,0
-175,337,0,0,0,0,0,0,0,0,0,-1,1049,687,0,0
-168,337,0,0,0,0,0,0,0,0,0,-1,1056,687,0,0
-161,337,0,0,0,0,0,0,0,0,0,-1,1063,687,0,0
-154,337,0,0,0,0,0,0,0,0,0,-1,1070,687,0,0
-147,337,0,0,0,0,0,0,0,0,0,-1,1077,687,0,0
-140,337,0,0,0,0,0,0,0,0,0,-1,1084,687,0,0
-133,337,0,0,0,0,0,0,0,0,0,-1,1091,687,0,0
-126,337,0,0,0,0,0,0,0,0,0,-1,1098,687,0,0
-119,337,0,0,0,0,0,0,0,0,0,-1,1105,687,0,0
-112,337,0,0,0,0,0,0,0,0,0,-1,1112,687,0,0
-105,337,0,0,0,0,0,0,0,0,0,-1,1119,687,0,0
-98,337,0,0,0,0,0,0,0,0,0,-1,1126,687,0,0
-91,337,0,0,0,0,0,0,0,0,0,-1,1133,687,0,0
-84,337,0,0,0,0,0,0,0,0,0,-1,1140,687,0,0
-77,337,0,0,0,0,0,0,0,0,0,-1,1147,687,0,0
-70,337,0,0,0,0,0,0,0,0,0,-1,1154,687,0,0
-63,337,0,0,0,0,0,0,0,0,0,-1,1161,687,0,0
-56,337,0,0,0,0,0,0,0,0,0,-1,1168,687,0,0
-49,337,0,0,0,0,0,0,0,0,0,-1,1175,687,0,0
-42,337,0,0,0,0,0,0,0,0,0,-1,1182,687,0,0
-35,337,0,0,0,0,0,0,0,0,0,-1,1189,687,0,0
-28,337,0,0,0,0,0,0,0,0,0,-1,1196,687,0,0
-21,337,0,0,0,0,0,0,0,0,0,-1,1203,687,0,0
-14,337,0,0,0,0,0,0,0,0,0,-1,1210,687,0,0
-7,337,0,0,0,0,0,0,0,0,0,-1,1217,687,0,0
0,337,0,0,0,0,0,0,0,0,0,-1,1224,687,0,0
7,337,0,0,0,0,0,0,0,0,0,-1,1231,687,0,0
14,337,0,0,0,0,0,0,0,0,0,-1,1238,687,0,0
21,337,0,0,0,0,0,0,0,0,0,-1,1245,687,0,0
28,337,0,0,0,0,0,0,0,0,0,-1,1252,687,0,0
35,337,0,0,0,0,0,0,0,0,0,-1,1259,687,0,0
42,337,0,0,0,0,0,0,0,0,0,-1,1266,687,0,0
49,337,0,0,0,0,0,0,0,0,0,-1,1273,687,0,0
56,337,0,0,0,0,0,0,0,0,0,-1,1280,687,0,0
63,337,0,0,0,0,0,0,0,0,0,-1,1287,687,0,0
70,337,0,0,0,0,0,0,0,0,0,-1,1294,687,0,0
77,337,0,0,0,0,0,0,0,0,0,-1,1301,687,0,0
84,337,0,0,0,0,0,0,0,0,0,-1,1308,687,0,0
91,337,0,0,0,0,0,0,0,0,0,-1,1315,687,0,0
98,337,0,0,0,0,0,0,0,0,0,-1,1322,687,0,0
105,337,0,0,0,0,0,0,0,0,0,-1,1329,687,0,0
112,337,0,0,0,0,0,0,0,0,0,-1,1336,687,0,0
119,337,0,0,0,0,0,0,0,0,0,-1,1343,687,0,0
126,337,0,0,0,0,0,0,0,0,0,-1,1350,687,0,0
133,337,0,0,0,0,0,0,0,0,0,-1,1357,687,0,0
140,337,0,0,0,0,0,0,0,0,0,-1,1364,687,0,0
147,337,0,0,0,0,0,0,0,0,0,-1,1371,687,0,0
154,337,0,0,0,0,0,0,0,0,0,-1,1378,687,0,0
161,337,0,0,0,0,0,0,0,0,0,-1,1385,687,0,0
168,337,0,0,0,0,0,0,0,0,0,-1,1392,687,0,0
175,337,0,0,0,0,0,0,0,0,0,-1,1399,687,0,0
182,337,0,0,0,0,0,0,0,0,0,-1,1406,687,0,0
189,337,0,0,0,0,0,0,0,0,0,-1,1413,687,0,0
196,337,0,0,0,0,0,0,0,0,0,-1,1420,687,0,0
203,337,0,0,0,0,0,0,0,0,0,-1,1427,687,0,0
210,337,0,0,0,0,0,0,0,0,0,-1,1434,687,0,0
217,337,0,0,0,0,0,0,0,0,0,-1,1441,687,0,0
224,337,0,0,0,0,0,0,0,0,0,-1,1448,687,0,0
231,337,0,0,0,0,0,0,0,0,0,-1,1455,687,0,0
238,337,0,0,0,0,0,0,0,0,0,-1,1462,687,0,0
245,337,0,0,0,0,0,0,0,0,0,-1,1469,687,0,0
252,337,0,0,0,0,0,0,0,0,0,-1,1476,687,0,0
259,337,0,0,0,0,0,0,0,0,0,-1,1483,687,0,0
266,337,0,0,0,0,0,0,0,0,0,-1,1490,687,0,0
273,337,0,0,0,0,0,0,0,0,0,-1,1497,687,0,0
280,337,0,0,0,0,0,0,0,0,0,-1,1504,687,0,0
287,337,0,0,0,0,0,0,0,0,0,-1,1511,687,0,0
294,337,0,0,0,0,0,0,0,0,0,-1,1518,687,0,0
301,337,0,0,0,0,0,0,0,0,0,-1,1525,687,0,0
308,337,0,0,0,0,0,0,0,0,0,-1,1532,687,0,0
315,337,0,0,0,0,0,0,0,0,0,-1,1539,687,0,0
322,337,0,0,0,0,0,0,0,0,0,-1,1546,687,0,0
329,337,0,0,0,0,0,0,0,0,0,-1,1553,687,0,0
336,337,0,0,0,0,0,0,0,0,0,-1,1560,687,0,0
343,337,0,0,0,0,0,0,0,0,0,-1,1567,687,0,0
350,337,0,0,0,0,0,0,0,0,0,-1,1574,687,0,0
357,337,0,0,0,0,0,0,0,0,0,-1,1581,687,0,0
364,337,0,0,0,0,0,0,0,0,0,-1,1588,687,0,0
371,337,0,0,0,0,0,0,0,0,0,-1,1595,687,0,0
378,337,0,0,0,0,0,0,0,0,0,-1,1602,687,0,0
385,337,0,0,0,0,0,0,0,0,0,-1,1609,687,0,0
392,337,0,0,0,0,0,0,0,0,0,-1,1616,687,0,0
399,337,0,0,0,0,0,0,0,0,0,-1,1623,687,0,0
406,337,0,0,0,0,0,0,0,0,0,-1,1630,687,0,0
413,337,0,0,0,0,0,0,0,0,0,-1,1637,687,0,0
420,337,0,0,0,0,0,0,0,0,0,-1,1644,687,0,0
427,337,0,0,0,0,0,0,0,0,0,-1,1651,687,0,0
434,337,0,0,0,0,0,0,0,0,0,-1,1658,687,0,0
441,337,0,0,0,0,0,0,0,0,0,-1,1665,687,0,0
448,337,0,0,0,0,0,0,0,0,0,-1,1672,687,0,0
455,337,0,0,0,0,0,0,0,0,0,-1,1679,687,0,0
462,337,0,0,0,0,0,0,0,0,0,-1,1686,687,0,0
469,337,0,0,0,0,0,0,0,0,0,-1,1693,687,0,0
476,337,0,0,0,0,0,0,0,0,0,-1,1700,687,0,0
483,337,0,0,0,0,0,0,0,0,0,-1,1707,687,0,0
490,337,0,0,0,0,0,0,0,0,0,-1,1714,687,0,0
497,337,0,0,0,0,0,0,0,0,0,-1,1721,687,0,0
504,337,0,0,0,0,0,0,0,0,0,-1,1728,687,0,0
511,337,0,0,0,0,0,0,0,0,0,-1,1735,687,0,0
518,337,18.0369,1.64581,0,0,0,0,0,0,0,-1,1742,687,18.0368,-1.64581
525,337,31.0717,2.13745,0,0,0,0,0,0,0,-1,1749,687,31.0717,-2.13747
532,337,31.5126,2.13904,0,0,0,0,0,0,0,-1,1756,687,31.5125,-2.13905
539,337,31.9684,2.15594,0,0,0,0,0,0,0,-1,1763,687,31.9684,-2.15596
546,337,32.3584,1.43719,0,0,0,0,0,0,0,-1,1770,687,32.3585,-1.43722
553,337,32.1809,1.36395,0,0,0,0,0,0,0,-1,1777,687,32.181,-1.36396
560,337,18.4053,3.62793,0,0,0,0,0,0,0,-1,1784,687,18.4052,-3.6279
567,337,11.9288,1.38776,0,0,0,0,0,0,0,-1,1791,687,11.9288,-1.38777
574,337,10.704,1.19476,0,0,0,0,0,0,0,-1,1798,687,10.704,-1.19478
581,337,8.50427,0.561768,0,0,0,0,0,0,0,-1,1805,687,8.5043,-0.561754
588,337,8.5885,-0.0536499,0,0,0,0,0,0,0,-1,1812,687,8.58844,0.0536788
595,337,13.8816,-1.70703,0,0,0,0,0,0,0,-1,1819,687,13.8816,1.70702
602,337,31.7338,-8.9234,0,0,0,0,0,0,0,-1,1826,687,31.7338,8.9234
609,337,31.7188,-8.1001,0.000630844,-0.00143196,-0.00132811,0.00128101,-0.00208212,-0.455247,0.00195998,0.0235138,1833,687,31.7187,8.1001
616,337,31.671,-7.38025,0.000994872,-0.000943224,-0.000717306,0.00123147,-0.00117982,-0.318605,0.00139227,0.0163586,1840,687,31.671,7.38024
623,337,31.6522,-6.66473,0.00125109,-0.000396585,-0.00021781,0.0012794,-0.000424892,-0.129235,0.00102437,0.0150236,1847,687,31.6522,6.66473
630,337,31.6166,-5.92548,0.00155096,0.000157556,0.000283135,0.00160629,0.000102221,0.193003,0.00103847,0.0201267,1854,687,31.6166,5.92547
637,337,31.5898,-5.19269,0.00186744,0.000696176,0.000750871,0.00223405,0.000329562,0.454205,0.00139257,0.0173683,1861,687,31.5898,5.19266
644,337,31.5731,-4.43622,0.00218457,0.00124518,0.00118482,0.0029894,0.000440353,0.596687,0.00186357,0.0110634,1868,687,31.5731,4.43621
651,337,31.5221,-3.70038,0.00251553,0.00182491,0.00159867,0.00380576,0.000534678,0.679034,0.00237906,0.0105241,1875,687,31.5221,3.70036
658,337,31.499,-2.96881,0.00284303,0.00241927,0.00195196,0.00459458,0.000667725,0.731336,0.00286652,0.0125951,1882,687,31.499,2.96883
665,337,31.4722,-2.24072,0.00330218,0.00296111,0.00229734,0.00543531,0.00082798,0.748351,0.0033815,0.0168582,1889,687,31.4722,2.24071
672,337,31.4303,-1.54095,0.00393703,0.00364775,0.00251555,0.00631209,0.00127269,0.75668,0.00385452,0.0375652,1896,687,31.4303,1.54093
679,337,31.7838,-0.84668,0,0,0,0,0,0,0,-1,1903,687,31.7839,0.846682
686,337,18.5614,1.68597,0,0,0,0,0,0,0,-1,1910,687,18.5614,-1.68598
693,337,16.5415,2.21411,0,0,0,0,0,0,0,-1,1917,687,16.5415,-2.2141
700,337,17.2661,2.44379,0,0,0,0,0,0,0,-1,1924,687,17.2661,-2.44378
707,337,17.3544,5.61853,0,0,0,0,0,0,0,-1,1931,687,17.3543,-5.61851
714,337,0,0,0,0,0,0,0,0,0,-1,1938,687,0,0
721,337,0,0,0,0,0,0,0,0,0,-1,1945,687,0,0
728,337,0,0,0,0,0,0,0,0,0,-1,1952,687,0,0
735,337,0,0,0,0,0,0,0,0,0,-1,1959,687,0,0
742,337,0,0,0,0,0,0,0,0,0,-1,1966,687,0,0
749,337,0,0,0,0,0,0,0,0,0,-1,1973,687,0,0
756,337,0,0,0,0,0,0,0,0,0,-1,1980,687,0,0
763,337,0,0,0,0,0,0,0,0,0,-1,1987,687,0,0
770,337,0,0,0,0,0,0,0,0,0,-1,1994,687,0,0
777,337,0,0,0,0,0,0,0,0,0,-1,2001,687,0,0
784,337,0,0,0,0,0,0,0,0,0,-1,2008,687,0,0
791,337,0,0,0,0,0,0,0,0,0,-1,2015,687,0,0
798,337,0,0,0,0,0,0,0,0,0,-1,2022,687,0,0
805,337,0,0,0,0,0,0,0,0,0,-1,2029,687,0,0
812,337,0,0,0,0,0,0,0,0,0,-1,2036,687,0,0
-700,330,0,0,0,0,0,0,0,0,0,-1,524,694,0,0
-693,330,0,0,0,0,0,0,0,0,0,-1,531,694,0,0
-686,330,0,0,0,0,0,0,0,0,0,-1,538,694,0,0
-679,330,0,0,0,0,0,0,0,0,0,-1,545,694,0,0
-672,330,0,0,0,0,0,0,0,0,0,-1,552,694,0,0
-665,330,0,0,0,0,0,0,0,0,0,-1,559,694,0,0
-658,330,0,0,0,0,0,0,0,0,0,-1,566,694,0,0
-651,330,0,0,0,0,0,0,0,0,0,-1,573,694,0,0
-644,330,0,0,0,0,0,0,0,0,0,-1,580,694,0,0
-637,330,0,0,0,0,0,0,0,0,0,-1,587,694,0,0
-630,330,0,0,0,0,0,0,0,0,0,-1,594,694,0,0
-623,330,0,0,0,0,0,0,0,0,0,-1,601,694,0,0
-616,330,0,0,0,0,0,0,0,0,0,-1,608,694,0,0
-609,330,0,0,0,0,0,0,0,0,0,-1,615,694,0,0
-602,330,0,0,0,0,0,0,0,0,0,-1,622,694,0,0
-595,330,-4.67883,1.65515,0,0,0,0,0,0,0,-1,629,694,-4.67881,-1.65515
-588,330,-8.5047,2.67346,0,0,0,0,0,0,0,-1,636,694,-8.50469,-2.67348
-581,330,-12.4227,0.947083,0,0,0,0,0,0,0,-1,643,694,-12.4227,-0.947109
-574,330,-9.02118,1.87952,0,0,0,0,0,0,0,-1,650,694,-9.02115,-1.87953
-567,330,-8.35577,0.909973,0,0,0,0,0,0,0,-1,657,694,-8.35575,-0.909945
-560,330,-13.1036,-0.584656,0,0,0,0,0,0,0,-1,664,694,-13.1035,0.584658
-553,330,-17.5484,-1.21545,0,0,0,0,0,0,0,-1,671,694,-17.5484,1.21547
-546,330,-19.5652,-2.80975,0,0,0,0,0,0,0,-1,678,694,-19.5652,2.80973
-539,330,-19.8237,-3.68774,0,0,0,0,0,0,0,-1,685,694,-19.8237,3.68776
-532,330,-19.7926,-4.45837,0.00471784,0.00253686,-0.000924356,0.0050569,0.0021978,-0.351564,0.00292791,0.0207766,692,694,-19.7926,4.45837
-525,330,-19.7654,-5.21631,0.00395918,0.00167405,-0.000750701,0.00418373,0.00144949,-0.290651,0.00245315,0.0104873,699,694,-19.7654,5.21631
-518,330,-19.7686,-5.87213,0.00321944,0.000931335,-0.000500821,0.00332426,0.000826516,-0.206314,0.00199847,0.0146521,706,694,-19.7686,5.87215
-511,330,-19.8188,-6.57977,0.00253668,0.00028623,-0.000237432,0.00256146,0.000261452,-0.103979,0.0016275,0.0211178,713,694,-19.8188,6.57975
-504,330,-19.8368,-7.34369,0.0018696,-0.000365025,0.000176905,0.00188352,-0.000378943,0.0785138,0.0013992,0.0183164,720,694,-19.8368,7.3437
-497,330,-19.8999,-8.03156,0.00124579,-0.00156997,0.00146953,0.00187301,-0.0021972,0.40341,0.00235242,0.0134309,727,694,-19.8999,8.03156
-490,330,-19.9054,-8.75098,0.000627709,-0.00383708,0.00403604,0.00300761,-0.00621698,0.532782,0.0054322,0.0142155,734,694,-19.9054,8.75096
-483,330,-19.911,-9.49536,-3.64557e-05,-0.00689583,0.00794006,0.00518298,-0.0121153,0.581528,0.010251,0.0146014,741,694,-19.911,9.49534
-476,330,-19.9755,-10.2474,0,0,0,0,0,0,0,-1,748,694,-19.9755,10.2474
-469,330,-16.1478,-9.23303,0,0,0,0,0,0,0,-1,755,694,-16.1478,9.23301
-462,330,-7.26733,-3.84833,0,0,0,0,0,0,0,-1,762,694,-7.26731,3.84832
-455,330,-5.04254,-1.79303,0,0,0,0,0,0,0,-1,769,694,-5.04252,1.79305
-448,330,-4.89886,-1.66156,0,0,0,0,0,0,0,-1,776,694,-4.89886,1.66157
-441,330,-5.30676,-2.34045,0,0,0,0,0,0,0,-1,783,694,-5.30679,2.34048
-434,330,-7.20428,1.00024,0,0,0,0,0,0,0,-1,790,694,-7.20431,-1.00027
-427,330,-16.0428,2.89258,0,0,0,0,0,0,0,-1,797,694,-16.0428,-2.89259
-420,330,-29.0331,0.271606,0,0,0,0,0,0,0,-1,804,694,-29.0331,-0.27158
-413,330,-29.0896,0.56366,0,0,0,0,0,0,0,-1,811,694,-29.0896,-0.563671
-406,330,-1.65375,-1.74371,0,0,0,0,0,0,0,-1,818,694,-1.65375,1.74371
-399,330,0,0,0,0,0,0,0,0,0,-1,825,694,0,0
-392,330,0,0,0,0,0,0,0,0,0,-1,832,694,0,0
-385,330,0,0,0,0,0,0,0,0,0,-1,839,694,0,0
-378,330,0,0,0,0,0,0,0,0,0,-1,846,694,0,0
-371,330,0,0,0,0,0,0,0,0,0,-1,853,694,0,0
-364,330,0,0,0,0,0,0,0,0,0,-1,860,694,0,0
-357,330,0,0,0,0,0,0,0,0,0,-1,867,694,0,0
-350,330,0,0,0,0,0,0,0,0,0,-1,874,694,0,0
-343,330,0,0,0,0,0,0,0,0,0,-1,881,694,0,0
-336,330,0,0,0,0,0,0,0,0,0,-1,888,694,0,0
-329,330,0,0,0,0,0,0,0,0,0,-1,895,694,0,0
-322,330,0,0,0,0,0,0,0,0,0,-1,902,694,0,0
-315,330,0,0,0,0,0,0,0,0,0,-1,909,694,0,0
-308,330,0,0,0,0,0,0,0,0,0,-1,916,694,0,0
-301,330,0,0,0,0,0,0,0,0,0,-1,923,694,0,0
-294,330,0,0,0,0,0,0,0,0,0,-1,930,694,0,0
-287,330,0,0,0,0,0,0,0,0,0,-1,937,694,0,0
-280,330,0,0,0,0,0,0,0,0,0,-1,944,694,0,0
-273,330,0,0,0,0,0,0,0,0,0,-1,951,694,0,0
-266,330,0,0,0,0,0,0,0,0,0,-1,958,694,0,0
-259,330,0,0,0,0,0,0,0,0,0,-1,965,694,0,0
-252,330,0,0,0,0,0,0,0,0,0,-1,972,694,0,0
-245,330,0,0,0,0,0,0,0,0,0,-1,979,694,0,0
-238,330,0,0,0,0,0,0,0,0,0,-1,986,694,0,0
-231,330,0,0,0,0,0,0,0,0,0,-1,993,694,0,0
-224,330,0,0,0,0,0,0,0,0,0,-1,1000,694,0,0
-217,330,0,0,0,0,0,0,0,0,0,-1,1007,694,0,0
-210,330,0,0,0,0,0,0,0,0,0,-1,1014,694,0,0
-203,330,0,0,0,0,0,0,0,0,0,-1,1021,694,0,0
-196,330,0,0,0,0,0,0,0,0,0,-1,1028,694,0,0
-189,330,0,0,0,0,0,0,0,0,0,-1,1035,694,0,0
-182,330,0,0,0,0,0,0,0,0,0,-1,1042,694,0,0
-175,330,0,0,0,0,0,0,0,0,0,-1,1049,694,0,0
-168,330,0,0,0,0,0,0,0,0,0,-1,1056,694,0,0
-161,330,0,0,0,0,0,0,0,0,0,-1,1063,694,0,0
-154,330,0,0,0,0,0,0,0,0,0,-1,1070,694,0,0
-147,330,0,0,0,0,0,0,0,0,0,-1,1077,694,0,0
-140,330,0,0,0,0,0,0,0,0,0,-1,1084,694,0,0
-133,330,0,0,0,0,0,0,0,0,0,-1,1091,694,0,0
-126,330,0,0,0,0,0,0,0,0,0,-1,1098,694,0,0
-119,330,0,0,0,0,0,0,0,0,0,-1,1105,694,0,0
-112,330,0,0,0,0,0,0,0,0,0,-1,1112,694,0,0
-105,330,0,0,0,0,0,0,0,0,0,-1,1119,694,0,0
-98,330,0,0,0,0,0,0,0,0,0,-1,1126,694,0,0
-91,330,0,0,0,0,0,0,0,0,0,-1,1133,694,0,0
-84,330,0,0,0,0,0,0,0,0,0,-1,1140,694,0,0
-77,330,0,0,0,0,0,0,0,0,0,-1,1147,694,0,0
-70,330,0,0,0,0,0,0,0,0,0,-1,1154,694,0,0
-63,330,0,0,0,0,0,0,0,0,0,-1,1161,694,0,0
-56,330,0,0,0,0,0,0,0,0,0,-1,1168,694,0,0
-49,330,0,0,0,0,0,0,0,0,0,-1,1175,694,0,0
-42,330,0,0,0,0,0,0,0,0,0,-1,1182,694,0,0
-35,330,0,0,0,0,0,0,0,0,0,-1,1189,694,0,0
-28,330,0,0,0,0,0,0,0,0,0,-1,1196,694,0,0
-21,330,0,0,0,0,0,0,0,0,0,-1,1203,694,0,0
-14,330,0,0,0,0,0,0,0,0,0,-1,1210,694,0,0
-7,330,0,0,0,0,0,0,0,0,0,-1,1217,694,0,0
0,330,0,0,0,0,0,0,0,0,0,-1,1224,694,0,0
7,330,0,0,0,0,0,0,0,0,0,-1,1231,694,0,0
14,330,0,0,0,0,0,0,0,0,0,-1,1238,694,0,0
21,330,0,0,0,0,0,0,0,0,0,-1,1245,694,0,0
28,330,0,0,0,0,0,0,0,0,0,-1,1252,694,0,0
35,330,0,0,0,0,0,0,0,0,0,-1,1259,694,0,0
42,330,0,0,0,0,0,0,0,0,0,-1,1266,694,0,0
49,330,0,0,0,0,0,0,0,0,0,-1,1273,694,0,0
56,330,0,0,0,0,0,0,0,0,0,-1,1280,694,0,0
63,330,0,0,0,0,0,0,0,0,0,-1,1287,694,0,0
70,330,0,0,0,0,0,0,0,0,0,-1,1294,694,0,0
77,330,0,0,0,0,0,0,0,0,0,-1,1301,694,0,0
84,330,0,0,0,0,0,0,0,0,0,-1,1308,694,0,0
91,330,0,0,0,0,0,0,0,0,0,-1,1315,694,0,0
98,330,0,0,0,0,0,0,0,0,0,-1,1322,694,0,0
105,330,0,0,0,0,0,0,0,0,0,-1,1329,694,0,0
112,330,0,0,0,0,0,0,0,0,0,-1,1336,694,0,0
119,330,0,0,0,0,0,0,0,0,0,-1,1343,694,0,0
126,330,0,0,0,0,0,0,0,0,0,-1,1350,694,0,0
133,330,0,0,0,0,0,0,0,0,0,-1,1357,694,0,0
140,330,0,0,0,0,0,0,0,0,0,-1,1364,694,0,0
147,330,0,0,0,0,0,0,0,0,0,-1,1371,694,0,0
154,330,0,0,0,0,0,0,0,0,0,-1,1378,694,0,0
161,330,0,0,0,0,0,0,0,0,0,-1,1385,694,0,0
168,330,0,0,0,0,0,0,0,0,0,-1,1392,694,0,0
175,330,0,0,0,0,0,0,0,0,0,-1,1399,694,0,0
182,330,0,0,0,0,0,0,0,0,0,-1,1406,694,0,0
189,330,0,0,0,0,0,0,0,0,0,-1,1413,694,0,0
196,330,0,0,0,0,0,0,0,0,0,-1,1420,694,0,0
203,330,0,0,0,0,0,0,0,0,0,-1,1427,694,0,0
210,330,0,0,0,0,0,0,0,0,0,-1,1434,694,0,0
217,330,0,0,0,0,0,0,0,0,0,-1,1441,694,0,0
224,330,0,0,0,0,0,0,0,0,0,-1,1448,694,0,0
231,330,0,0,0,0,0,0,0,0,0,-1,1455,694,0,0
238,330,0,0,0,0,0,0,0,0,0,-1,1462,694,0,0
245,330,0,0,0,0,0,0,0,0,0,-1,1469,694,0,0
252,330,0,0,0,0,0,0,0,0,0,-1,1476,694,0,0
259,330,0,0,0,0,0,0,0,0,0,-1,1483,694,0,0
266,330,0,0,0,0,0,0,0,0,0,-1,1490,694,0,0
273,330,0,0,0,0,0,0,0,0,0,-1,1497,694,0,0
280,330,0,0,0,0,0,0,0,0,0,-1,1504,694,0,0
287,330,0,0,0,0,0,0,0,0,0,-1,1511,694,0,0
294,330,0,0,0,0,0,0,0,0,0,-1,1518,694,0,0
301,330,0,0,0,0,0,0,0,0,0,-1,1525,694,0,0
308,330,0,0,0,0,0,0,0,0,0,-1,1532,694,0,0
315,330,0,0,0,0,0,0,0,0,0,-1,1539,694,0,0
322,330,0,0,0,0,0,0,0,0,0,-1,1546,694,0,0
329,330,0,0,0,0,0,0,0,0,0,-1,1553,694,0,0
336,330,0,0,0,0,0,0,0,0,0,-1,1560,694,0,0
343,330,0,0,0,0,0,0,0,0,0,-1,1567,694,0,0
350,330,0,0,0,0,0,0,0,0,0,-1,1574,694,0,0
357,330,0,0,0,0,0,0,0,0,0,-1,1581,694,0,0
364,330,0,0,0,0,0,0,0,0,0,-1,1588,694,0,0
371,330,0,0,0,0,0,0,0,0,0,-1,1595,694,0,0
378,330,0,0,0,0,0,0,0,0,0,-1,1602,694,0,0
385,330,0,0,0,0,0,0,0,0,0,-1,1609,694,0,0
392,330,0,0,0,0,0,0,0,0,0,-1,1616,694,0,0
399,330,0,0,0,0,0,0,0,0,0,-1,1623,694,0,0
406,330,0,0,0,0,0,0,0,0,0,-1,1630,694,0,0
413,330,0,0,0,0,0,0,0,0,0,-1,1637,694,0,0
420,330,0,0,0,0,0,0,0,0,0,-1,1644,694,0,0
427,330,0,0,0,0,0,0,0,0,0,-1,1651,694,0,0
434,330,0,0,0,0,0,0,0,0,0,-1,1658,694,0,0
441,330,0,0,0,0,0,0,0,0,0,-1,1665,694,0,0
448,330,0,0,0,0,0,0,0,0,0,-1,1672,694,0,0
455,330,0,0,0,0,0,0,0,0,0,-1,1679,694,0,0
462,330,0,0,0,0,0,0,0,0,0,-1,1686,694,0,0
469,330,0,0,0,0,0,0,0,0,0,-1,1693,694,0,0
476,330,0,0,0,0,0,0,0,0,0,-1,1700,694,0,0
483,330,0,0,0,0,0,0,0,0,0,-1,1707,694,0,0
490,330,0,0,0,0,0,0,0,0,0,-1,1714,694,0,0
497,330,0,0,0,0,0,0,0,0,0,-1,1721,694,0,0
504,330,0,0,0,0,0,0,0,0,0,-1,1728,694,0,0
511,330,0,0,0,0,0,0,0,0,0,-1,1735,694,0,0
518,330,0,0,0,0,0,0,0,0,0,-1,1742,694,0,0
525,330,30.6694,0.69519,0,0,0,0,0,0,0,-1,1749,694,30.6694,-0.695206
532,330,30.9469,1.32501,0,0,0,0,0,0,0,-1,1756,694,30.9469,-1.32501
539,330,31.5155,1.62506,0,0,0,0,0,0,0,-1,1763,694,31.5155,-1.62507
546,330,31.4187,1.85651,0,0,0,0,0,0,0,-1,1770,694,31.4187,-1.85651
553,330,31.8452,1.81476,0,0,0,0,0,0,0,-1,1777,694,31.8452,-1.81475
560,330,32.2401,2.43225,0,0,0,0,0,0,0,-1,1784,694,32.2401,-2.43227
567,330,18.0321,3.98578,0,0,0,0,0,0,0,-1,1791,694,18.0321,-3.98576
574,330,12.0454,2.1662,0,0,0,0,0,0,0,-1,1798,694,12.0455,-2.16618
581,330,11.4215,4.50836,0,0,0,0,0,0,0,-1,1805,694,11.4215,-4.50837
588,330,6.45667,-0.0630493,0,0,0,0,0,0,0,-1,1812,694,6.45661,0.0630695
595,330,8.23193,-0.258484,0,0,0,0,0,0,0,-1,1819,694,8.23188,0.258459
602,330,32.2861,-8.90039,0,0,0,0,0,0,0,-1,1826,694,32.2861,8.90036
609,330,32.3872,-8.08636,0.000900079,-0.00182992,-0.00145517,0.00153026,-0.0024601,-0.408681,0.00232459,0.0325128,1833,694,32.3872,8.08637
616,330,32.3976,-7.35474,0.00111738,-0.00136663,-0.000852127,0.0013816,-0.00163084,-0.300664,0.00174122,0.0111138,1840,694,32.3976,7.35471
623,330,32.3746,-6.62146,0.00119344,-0.000811088,-0.000401419,0.00127084,-0.000888486,-0.190474,0.00125319,0.0123628,1847,694,32.3746,6.62143
630,330,32.3584,-5.8797,0.00135535,-0.000292978,3.55031e-05,0.00135611,-0.000293743,0.0215256,0.00101624,0.0140157,1854,694,32.3584,5.87969
637,330,32.3392,-5.14124,0.00156792,0.000224089,0.000450655,0.00170505,8.69558e-05,0.295396,0.00110885,0.0126393,1861,694,32.3393,5.14126
644,330,32.2935,-4.40576,0.00180893,0.000757241,0.000844408,0.00227784,0.000288331,0.506912,0.00143216,0.00778949,1868,694,32.2935,4.40577
651,330,32.2593,-3.65869,0.00208572,0.00130984,0.00122422,0.002982,0.000413563,0.63196,0.00186549,0.0110005,1875,694,32.2593,3.65872
658,330,32.2156,-2.93091,0.00240311,0.00188693,0.00158178,0.00374772,0.000542318,0.704528,0.00233876,0.0124739,1882,694,32.2156,2.93088
665,330,32.1671,-2.2038,0.00284278,0.00244237,0.0019356,0.0045885,0.000696648,0.733865,0.00285525,0.0117794,1889,694,32.1672,2.2038
672,330,32.2258,-1.43024,0.00344496,0.00311194,0.00222953,0.00551419,0.00104271,0.748126,0.00338256,0.031063,1896,694,32.2258,1.43021
679,330,32.3657,-0.588379,0,0,0,0,0,0,0,-1,1903,694,32.3657,0.588407
686,330,30.6691,0.582825,0,0,0,0,0,0,0,-1,1910,694,30.6691,-0.582798
693,330,17.3999,2.5976,0,0,0,0,0,0,0,-1,1917,694,17.4,-2.59759
700,330,17.1072,4.13,0,0,0,0,0,0,0,-1,1924,694,17.1071,-4.13002
707,330,16.663,4.88672,0,0,0,0,0,0,0,-1,1931,694,16.6629,-4.88673
714,330,16.5454,5.80896,0,0,0,0,0,0,0,-1,1938,694,16.5454,-5.80899
721,330,0,0,0,0,0,0,0,0,0,-1,1945,694,0,0
728,330,0,0,0,0,0,0,0,0,0,-1,1952,694,0,0
735,330,0,0,0,0,0,0,0,0,0,-1,1959,694,0,0
742,330,0,0,0,0,0,0,0,0,0,-1,1966,694,0,0
749,330,0,0,0,0,0,0,0,0,0,-1,1973,694,0,0
756,330,0,0,0,0,0,0,0,0,0,-1,1980,694,0,0
763,330,0,0,0,0,0,0,0,0,0,-1,1987,694,0,0
770,330,0,0,0,0,0,0,0,0,0,-1,1994,694,0,0
777,330,0,0,0,0,0,0,0,0,0,-1,2001,694,0,0
784,330,0,0,0,0,0,0,0,0,0,-1,2008,694,0,0
791,330,0,0,0,0,0,0,0,0,0,-1,2015,694,0,0
798,330,0,0,0,0,0,0,0,0,0,-1,2022,694,0,0
805,330,0,0,0,0,0,0,0,0,0,-1,2029,694,0,0
812,330,0,0,0,0,0,0,0,0,0,-1,2036,694,0,0
-700,323,0,0,0,0,0,0,0,0,0,-1,524,701,0,0
-693,323,0,0,0,0,0,0,0,0,0,-1,531,701,0,0
-686,323,0,0,0,0,0,0,0,0,0,-1,538,701,0,0
-679,323,0,0,0,0,0,0,0,0,0,-1,545,701,0,0
-672,323,0,0,0,0,0,0,0,0,0,-1,552,701,0,0
-665,323,0,0,0,0,0,0,0,0,0,-1,559,701,0,0
-658,323,0,0,0,0,0,0,0,0,0,-1,566,701,0,0
-651,323,0,0,0,0,0,0,0,0,0,-1,573,701,0,0
-644,323,0,0,0,0,0,0,0,0,0,-1,580,701,0,0
-637,323,0,0,0,0,0,0,0,0,0,-1,587,701,0,0
-630,323,0,0,0,0,0,0,0,0,0,-1,594,701,0,0
-623,323,0,0,0,0,0,0,0,0,0,-1,601,701,0,0
-616,323,0,0,0,0,0,0,0,0,0,-1,608,701,0,0
-609,323,0,0,0,0,0,0,0,0,0,-1,615,701,0,0
-602,323,-4.15833,2.12256,0,0,0,0,0,0,0,-1,622,701,-4.1583,-2.12257
-595,323,-4.052,1.79156,0,0,0,0,0,0,0,-1,629,701,-4.05198,-1.79158
-588,323,-4.07019,1.94543,0,0,0,0,0,0,0,-1,636,701,-4.07019,-1.94542
-581,323,-6.63727,0.562805,0,0,0,0,0,0,0,-1,643,701,-6.63728,-0.56279
-574,323,-6.15887,0.426697,0,0,0,0,0,0,0,-1,650,701,-6.15887,-0.426727
-567,323,-10.0015,0.0371094,0,0,0,0,0,0,0,-1,657,701,-10.0015,-0.037126
-560,323,-16.3503,-1.16956,0,0,0,0,0,0,0,-1,664,701,-16.3503,1.16957
-553,323,-20.4172,-2.43573,0,0,0,0,0,0,0,-1,671,701,-20.4172,2.43576
-546,323,-20.4022,-3.03003,0.00438931,0.00394538,-0.000573104,0.00478193,0.00355276,-0.600642,0.00286744,0.0328221,678,701,-20.4022,3.03004
-539,323,-20.3889,-3.66022,0.00424595,0.00303146,-0.000643277,0.00452333,0.00275409,-0.407102,0.0026321,0.0251429,685,701,-20.3889,3.66024
-532,323,-20.4516,-4.43634,0.00382932,0.00217692,-0.000605974,0.00402773,0.00197852,-0.316411,0.00232553,0.0119156,692,701,-20.4516,4.43637
-525,323,-20.4965,-5.16925,0.00328367,0.00134274,-0.000456446,0.00338566,0.00124076,-0.219819,0.00197781,0.00772299,699,701,-20.4965,5.16926
-518,323,-20.5228,-5.84491,0.00270403,0.000578287,-0.000228395,0.00272829,0.000554025,-0.105833,0.0016652,0.0101509,706,701,-20.5228,5.84492
-511,323,-20.5662,-6.55872,0.00208347,-0.000128046,2.04263e-05,0.00208366,-0.000128235,0.00923529,0.00143377,0.0141778,713,701,-20.5661,6.55869
-504,323,-20.6083,-7.2605,0.00134064,-0.00100699,0.000608148,0.00148883,-0.00115517,0.239009,0.00153056,0.0144353,720,701,-20.6083,7.26052
-497,323,-20.6128,-7.96802,0.000570867,-0.00284703,0.00263729,0.0020045,-0.00428066,0.497917,0.00370721,0.0124247,727,701,-20.6128,7.96803
-490,323,-20.6418,-8.69269,-0.000196337,-0.00622133,0.00645902,0.00391817,-0.0103358,0.567194,0.00850304,0.0144547,734,701,-20.6418,8.69268
-483,323,-20.6431,-9.40302,-0.00105348,-0.0103816,0.0118258,0.00699484,-0.0184299,0.597566,0.0151658,0.0316542,741,701,-20.6431,9.403
-476,323,-20.6066,-10.1324,0,0,0,0,0,0,0,-1,748,701,-20.6065,10.1325
-469,323,-8.33301,-3.64001,0,0,0,0,0,0,0,-1,755,701,-8.33298,3.64
-462,323,-5.29431,-1.45697,0,0,0,0,0,0,0,-1,762,701,-5.29431,1.45699
-455,323,-5.0658,-1.36639,0,0,0,0,0,0,0,-1,769,701,-5.06578,1.3664
-448,323,-4.91608,-1.59601,0,0,0,0,0,0,0,-1,776,701,-4.91606,1.59604
-441,323,-14.4006,0.535217,0,0,0,0,0,0,0,-1,783,701,-14.4006,-0.535203
-434,323,-15.3158,2.479,0,0,0,0,0,0,0,-1,790,701,-15.3158,-2.47898
-427,323,-28.3923,1.16797,0,0,0,0,0,0,0,-1,797,701,-28.3923,-1.16796
-420,323,-28.7292,1.09302,0,0,0,0,0,0,0,-1,804,701,-28.7292,-1.09304
-413,323,-28.7955,1.22418,0,0,0,0,0,0,0,-1,811,701,-28.7956,-1.22419
-406,323,0,0,0,0,0,0,0,0,0,-1,818,701,0,0
-399,323,0,0,0,0,0,0,0,0,0,-1,825,701,0,0
-392,323,0,0,0,0,0,0,0,0,0,-1,832,701,0,0
-385,323,0,0,0,0,0,0,0,0,0,-1,839,701,0,0
-378,323,0,0,0,0,0,0,0,0,0,-1,846,701,0,0
-371,323,0,0,0,0,0,0,0,0,0,-1,853,701,0,0
-364,323,0,0,0,0,0,0,0,0,0,-1,860,701,0,0
-357,323,0,0,0,0,0,0,0,0,0,-1,867,701,0,0
-350,323,0,0,0,0,0,0,0,0,0,-1,874,701,0,0
-343,323,0,0,0,0,0,0,0,0,0,-1,881,701,0,0
-336,323,0,0,0,0,0,0,0,0,0,-1,888,701,0,0
-329,323,0,0,0,0,0,0,0,0,0,-1,895,701,0,0
-322,323,0,0,0,0,0,0,0,0,0,-1,902,701,0,0
-315,323,0,0,0,0,0,0,0,0,0,-1,909,701,0,0
-308,323,0,0,0,0,0,0,0,0,0,-1,916,701,0,0
-301,323,0,0,0,0,0,0,0,0,0,-1,923,701,0,0
-294,323,0,0,0,0,0,0,0,0,0,-1,930,701,0,0
-287,323,0,0,0,0,0,0,0,0,0,-1,937,701,0,0
-280,323,0,0,0,0,0,0,0,0,0,-1,944,701,0,0
-273,323,0,0,0,0,0,0,0,0,0,-1,951,701,0,0
-266,323,0,0,0,0,0,0,0,0,0,-1,958,701,0,0
-259,323,0,0,0,0,0,0,0,0,0,-1,965,701,0,0
-252,323,0,0,0,0,0,0,0,0,0,-1,972,701,0,0
-245,323,0,0,0,0,0,0,0,0,0,-1,979,701,0,0
-238,323,0,0,0,0,0,0,0,0,0,-1,986,701,0,0
-231,323,0,0,0,0,0,0,0,0,0,-1,993,701,0,0
-224,323,0,0,0,0,0,0,0,0,0,-1,1000,701,0,0
-217,323,0,0,0,0,0,0,0,0,0,-1,1007,701,0,0
-210,323,0,0,0,0,0,0,0,0,0,-1,1014,701,0,0
-203,323,0,0,0,0,0,0,0,0,0,-1,1021,701,0,0
-196,323,0,0,0,0,0,0,0,0,0,-1,1028,701,0,0
-189,323,0,0,0,0,0,0,0,0,0,-1,1035,701,0,0
-182,323,0,0,0,0,0,0,0,0,0,-1,1042,701,0,0
-175,323,0,0,0,0,0,0,0,0,0,-1,1049,701,0,0
-168,323,0,0,0,0,0,0,0,0,0,-1,1056,701,0,0
-161,323,0,0,0,0,0,0,0,0,0,-1,1063,701,0,0
-154,323,0,0,0,0,0,0,0,0,0,-1,1070,701,0,0
-147,323,0,0,0,0,0,0,0,0,0,-1,1077,701,0,0
-140,323,0,0,0,0,0,0,0,0,0,-1,1084,701,0,0
-133,323,0,0,0,0,0,0,0,0,0,-1,1091,701,0,0
-126,323,0,0,0,0,0,0,0,0,0,-1,1098,701,0,0
-119,323,0,0,0,0,0,0,0,0,0,-1,1105,701,0,0
-112,323,0,0,0,0,0,0,0,0,0,-1,1112,701,0,0
-105,323,0,0,0,0,0,0,0,0,0,-1,1119,701,0,0
-98,323,0,0,0,0,0,0,0,0,0,-1,1126,701,0,0
-91,323,0,0,0,0,0,0,0,0,0,-1,1133,701,0,0
-84,323,0,0,0,0,0,0,0,0,0,-1,1140,701,0,0
-77,323,0,0,0,0,0,0,0,0,0,-1,1147,701,0,0
-70,323,0,0,0,0,0,0,0,0,0,-1,1154,701,0,0
-63,323,0,0,0,0,0,0,0,0,0,-1,1161,701,0,0
-56,323,0,0,0,0,0,0,0,0,0,-1,1168,701,0,0
-49,323,0,0,0,0,0,0,0,0,0,-1,1175,701,0,0
-42,323,0,0,0,0,0,0,0,0,0,-1,1182,701,0,0
-35,323,0,0,0,0,0,0,0,0,0,-1,1189,701,0,0
-28,323,0,0,0,0,0,0,0,0,0,-1,1196,701,0,0
-21,323,0,0,0,0,0,0,0,0,0,-1,1203,701,0,0
-14,323,0,0,0,0,0,0,0,0,0,-1,1210,701,0,0
-7,323,0,0,0,0,0,0,0,0,0,-1,1217,701,0,0
0,323,0,0,0,0,0,0,0,0,0,-1,1224,701,0,0
7,323,0,0,0,0,0,0,0,0,0,-1,1231,701,0,0
14,323,0,0,0,0,0,0,0,0,0,-1,1238,701,0,0
21,323,0,0,0,0,0,0,0,0,0,-1,1245,701,0,0
28,323,0,0,0,0,0,0,0,0,0,-1,1252,701,0,0
35,323,0,0,0,0,0,0,0,0,0,-1,1259,701,0,0
42,323,0,0,0,0,0,0,0,0,0,-1,1266,701,0,0
49,323,0,0,0,0,0,0,0,0,0,-1,1273,701,0,0
56,323,0,0,0,0,0,0,0,0,0,-1,1280,701,0,0
63,323,0,0,0,0,0,0,0,0,0,-1,1287,701,0,0
70,323,0,0,0,0,0,0,0,0,0,-1,1294,701,0,0
77,323,0,0,0,0,0,0,0,0,0,-1,1301,701,0,0
84,323,0,0,0,0,0,0,0,0,0,-1,1308,701,0,0
91,323,0,0,0,0,0,0,0,0,0,-1,1315,701,0,0
98,323,0,0,0,0,0,0,0,0,0,-1,1322,701,0,0
105,323,0,0,0,0,0,0,0,0,0,-1,1329,701,0,0
112,323,0,0,0,0,0,0,0,0,0,-1,1336,701,0,0
119,323,0,0,0,0,0,0,0,0,0,-1,1343,701,0,0
126,323,0,0,0,0,0,0,0,0,0,-1,1350,701,0,0
133,323,0,0,0,0,0,0,0,0,0,-1,1357,701,0,0
140,323,0,0,0,0,0,0,0,0,0,-1,1364,701,0,0
147,323,0,0,0,0,0,0,0,0,0,-1,1371,701,0,0
154,323,0,0,0,0,0,0,0,0,0,-1,1378,701,0,0
161,323,0,0,0,0,0,0,0,0,0,-1,1385,701,0,0
168,323,0,0,0,0,0,0,0,0,0,-1,1392,701,0,0
175,323,0,0,0,0,0,0,0,0,0,-1,1399,701,0,0
182,323,0,0,0,0,0,0,0,0,0,-1,1406,701,0,0
189,323,0,0,0,0,0,0,0,0,0,-1,1413,701,0,0
196,323,0,0,0,0,0,0,0,0,0,-1,1420,701,0,0
203,323,0,0,0,0,0,0,0,0,0,-1,1427,701,0,0
210,323,0,0,0,0,0,0,0,0,0,-1,1434,701,0,0
217,323,0,0,0,0,0,0,0,0,0,-1,1441,701,0,0
224,323,0,0,0,0,0,0,0,0,0,-1,1448,701,0,0
231,323,0,0,0,0,0,0,0,0,0,-1,1455,701,0,0
238,323,0,0,0,0,0,0,0,0,0,-1,1462,701,0,0
245,323,0,0,0,0,0,0,0,0,0,-1,1469,701,0,0
252,323,0,0,0,0,0,0,0,0,0,-1,1476,701,0,0
259,323,0,0,0,0,0,0,0,0,0,-1,1483,701,0,0
266,323,0,0,0,0,0,0,0,0,0,-1,1490,701,0,0
273,323,0,0,0,0,0,0,0,0,0,-1,1497,701,0,0
280,323,0,0,0,0,0,0,0,0,0,-1,1504,701,0,0
287,323,0,0,0,0,0,0,0,0,0,-1,1511,701,0,0
294,323,0,0,0,0,0,0,0,0,0,-1,1518,701,0,0
301,323,0,0,0,0,0,0,0,0,0,-1,1525,701,0,0
308,323,0,0,0,0,0,0,0,0,0,-1,1532,701,0,0
315,323,0,0,0,0,0,0,0,0,0,-1,1539,701,0,0
322,323,0,0,0,0,0,0,0,0,0,-1,1546,701,0,0
329,323,0,0,0,0,0,0,0,0,0,-1,1553,701,0,0
336,323,0,0,0,0,0,0,0,0,0,-1,1560,701,0,0
343,323,0,0,0,0,0,0,0,0,0,-1,1567,701,0,0
350,323,0,0,0,0,0,0,0,0,0,-1,1574,701,0,0
357,323,0,0,0,0,0,0,0,0,0,-1,1581,701,0,0
364,323,0,0,0,0,0,0,0,0,0,-1,1588,701,0,0
371,323,0,0,0,0,0,0,0,0,0,-1,1595,701,0,0
378,323,0,0,0,0,0,0,0,0,0,-1,1602,701,0,0
385,323,0,0,0,0,0,0,0,0,0,-1,1609,701,0,0
392,323,0,0,0,0,0,0,0,0,0,-1,1616,701,0,0
399,323,0,0,0,0,0,0,0,0,0,-1,1623,701,0,0
406,323,0,0,0,0,0,0,0,0,0,-1,1630,701,0,0
413,323,0,0,0,0,0,0,0,0,0,-1,1637,701,0,0
420,323,0,0,0,0,0,0,0,0,0,-1,1644,701,0,0
427,323,0,0,0,0,0,0,0,0,0,-1,1651,701,0,0
434,323,0,0,0,0,0,0,0,0,0,-1,1658,701,0,0
441,323,0,0,0,0,0,0,0,0,0,-1,1665,701,0,0
448,323,0,0,0,0,0,0,0,0,0,-1,1672,701,0,0
455,323,0,0,0,0,0,0,0,0,0,-1,1679,701,0,0
462,323,0,0,0,0,0,0,0,0,0,-1,1686,701,0,0
469,323,0,0,0,0,0,0,0,0,0,-1,1693,701,0,0
476,323,0,0,0,0,0,0,0,0,0,-1,1700,701,0,0
483,323,0,0,0,0,0,0,0,0,0,-1,1707,701,0,0
490,323,0,0,0,0,0,0,0,0,0,-1,1714,701,0,0
497,323,0,0,0,0,0,0,0,0,0,-1,1721,701,0,0
504,323,0,0,0,0,0,0,0,0,0,-1,1728,701,0,0
511,323,0,0,0,0,0,0,0,0,0,-1,1735,701,0,0
518,323,0,0,0,0,0,0,0,0,0,-1,1742,701,0,0
525,323,0,0,0,0,0,0,0,0,0,-1,1749,701,0,0
532,323,33.6193,1.69446,0,0,0,0,0,0,0,-1,1756,701,33.6193,-1.69444
539,323,32.2698,2.44037,0,0,0,0,0,0,0,-1,1763,701,32.2697,-2.44036
546,323,31.1644,3.9444,0,0,0,0,0,0,0,-1,1770,701,31.1644,-3.94438
553,323,30.2488,5.8775,0,0,0,0,0,0,0,-1,1777,701,30.2487,-5.87752
560,323,40.6711,1.25153,0,0,0,0,0,0,0,-1,1784,701,40.6711,-1.25154
567,323,42.1637,2.01208,0,0,0,0,0,0,0,-1,1791,701,42.1637,-2.01207
574,323,12.514,5.89685,0,0,0,0,0,0,0,-1,1798,701,12.5141,-5.89683
581,323,11.821,5.3476,0,0,0,0,0,0,0,-1,1805,701,11.821,-5.34762
588,323,11.7933,7.00818,0,0,0,0,0,0,0,-1,1812,701,11.7933,-7.00819
595,323,6.67847,0.06604,0,0,0,0,0,0,0,-1,1819,701,6.67841,-0.0660418
602,323,32.8422,-8.67108,0,0,0,0,0,0,0,-1,1826,701,32.8421,8.67107
609,323,33.0601,-7.97076,0.00126028,-0.00219052,-0.00146146,0.00179604,-0.00272628,-0.351383,0.00262931,0.0459723,1833,701,33.0601,7.97074
616,323,33.14,-7.29431,0.00135447,-0.00176058,-0.000869206,0.00158059,-0.00198671,-0.254508,0.00206403,0.0135587,1840,701,33.14,7.29429
623,323,33.1063,-6.57361,0.00126702,-0.00119516,-0.000470375,0.00135382,-0.00128196,-0.182482,0.00152196,0.0137074,1847,701,33.1063,6.57359
630,323,33.0682,-5.82965,0.00131585,-0.000709843,-9.92099e-05,0.00132069,-0.00071469,-0.0488201,0.00119236,0.0143924,1854,701,33.0682,5.82963
637,323,33.0603,-5.0979,0.00144105,-0.00020281,0.000267511,0.00148349,-0.000245247,0.157327,0.00108006,0.0108497,1861,701,33.0603,5.09791
644,323,33.0211,-4.37146,0.00161738,0.000332182,0.000625795,0.00187175,7.78118e-05,0.386076,0.00122272,0.00812007,1868,701,33.0211,4.37148
651,323,32.9948,-3.62128,0.001837,0.000890708,0.00097576,0.00244828,0.000279431,0.559651,0.00154747,0.0111344,1875,701,32.9948,3.6213
658,323,32.9227,-2.87396,0.00209318,0.00150434,0.00131452,0.00314584,0.000451676,0.67523,0.00196406,0.0178777,1882,701,32.9227,2.87397
665,323,32.8651,-2.14697,0.00245306,0.00212563,0.00165516,0.00395258,0.000626104,0.736103,0.00245313,0.0148173,1889,701,32.8652,2.14695
672,323,32.8875,-1.37091,0.00292719,0.0028598,0.00197173,0.00486552,0.00092148,0.776855,0.00298432,0.0178552,1896,701,32.8874,1.3709
679,323,32.9387,-0.496033,0,0,0,0,0,0,0,-1,1903,701,32.9387,0.496037
686,323,30.4916,0.378235,0,0,0,0,0,0,0,-1,1910,701,30.4916,-0.37825
693,323,23.8806,1.08844,0,0,0,0,0,0,0,-1,1917,701,23.8806,-1.08845
700,323,10.7705,0.828613,0,0,0,0,0,0,0,-1,1924,701,10.7705,-0.828591
707,323,16.9005,4.79193,0,0,0,0,0,0,0,-1,1931,701,16.9005,-4.7919
714,323,16.2346,6.25958,0,0,0,0,0,0,0,-1,1938,701,16.2346,-6.25956
721,323,0,0,0,0,0,0,0,0,0,-1,1945,701,0,0
728,323,0,0,0,0,0,0,0,0,0,-1,1952,701,0,0
735,323,0,0,0,0,0,0,0,0,0,-1,1959,701,0,0
742,323,0,0,0,0,0,0,0,0,0,-1,1966,701,0,0
749,323,0,0,0,0,0,0,0,0,0,-1,1973,701,0,0
756,323,0,0,0,0,0,0,0,0,0,-1,1980,701,0,0
763,323,0,0,0,0,0,0,0,0,0,-1,1987,701,0,0
770,323,0,0,0,0,0,0,0,0,0,-1,1994,701,0,0
777,323,0,0,0,0,0,0,0,0,0,-1,2001,701,0,0
784,323,0,0,0,0,0,0,0,0,0,-1,2008,701,0,0
791,323,0,0,0,0,0,0,0,0,0,-1,2015,701,0,0
798,323,0,0,0,0,0,0,0,0,0,-1,2022,701,0,0
805,323,0,0,0,0,0,0,0,0,0,-1,2029,701,0,0
812,323,0,0,0,0,0,0,0,0,0,-1,2036,701,0,0
-700,316,0,0,0,0,0,0,0,0,0,-1,524,708,0,0
-693,316,0,0,0,0,0,0,0,0,0,-1,531,708,0,0
-686,316,0,0,0,0,0,0,0,0,0,-1,538,708,0,0
-679,316,0,0,0,0,0,0,0,0,0,-1,545,708,0,0
-672,316,0,0,0,0,0,0,0,0,0,-1,552,708,0,0
-665,316,0,0,0,0,0,0,0,0,0,-1,559,708,0,0
-658,316,0,0,0,0,0,0,0,0,0,-1,566,708,0,0
-651,316,0,0,0,0,0,0,0,0,0,-1,573,708,0,0
-644,316,0,0,0,0,0,0,0,0,0,-1,580,708,0,0
-637,316,0,0,0,0,0,0,0,0,0,-1,587,708,0,0
-630,316,0,0,0,0,0,0,0,0,0,-1,594,708,0,0
-623,316,0,0,0,0,0,0,0,0,0,-1,601,708,0,0
-616,316,0,0,0,0,0,0,0,0,0,-1,608,708,0,0
-609,316,0,0,0,0,0,0,0,0,0,-1,615,708,0,0
-602,316,-0.451782,-0.0494995,0,0,0,0,0,0,0,-1,622,708,-0.451768,0.0495022
-595,316,-3.3761,2.17188,0,0,0,0,0,0,0,-1,629,708,-3.37609,-2.17189
-588,316,-5.00177,2.60675,0,0,0,0,0,0,0,-1,636,708,-5.00175,-2.60676
-581,316,-3.94653,0.393433,0,0,0,0,0,0,0,-1,643,708,-3.94655,-0.39342
-574,316,-9.67395,1.06067,0,0,0,0,0,0,0,-1,650,708,-9.67396,-1.06065
-567,316,-10.1962,0.448425,0,0,0,0,0,0,0,-1,657,708,-10.1962,-0.448411
-560,316,-18.9941,-1.75067,0,0,0,0,0,0,0,-1,664,708,-18.9941,1.75068
-553,316,-21.2802,-2.26019,0,0,0,0,0,0,0,-1,671,708,-21.2801,2.26019
-546,316,-21.2266,-2.94708,0.00316518,0.00426008,-0.000451921,0.00442251,0.00300274,-1.22575,0.00260729,0.0370165,678,708,-21.2266,2.9471
-539,316,-21.1216,-3.70844,0.00322995,0.00305305,-0.000488864,0.0036383,0.0026447,-0.695906,0.00217148,0.0136507,685,708,-21.1216,3.70842
-532,316,-21.1586,-4.40985,0.0029994,0.00186841,-0.000437894,0.00314912,0.00171869,-0.329454,0.00182068,0.0108165,692,708,-21.1586,4.40987
-525,316,-21.1985,-5.10492,0.00257668,0.000904528,-0.000208703,0.00260233,0.000878873,-0.122312,0.0015286,0.00934017,699,708,-21.1985,5.10493
-518,316,-21.2043,-5.81195,0.00207288,1.69365e-05,8.5444e-05,0.00207642,1.33917e-05,0.0414643,0.00137984,0.009463,706,708,-21.2043,5.81197
-511,316,-21.2472,-6.52649,0.00148981,-0.000862181,0.000407766,0.0015585,-0.00093087,0.166885,0.00145238,0.0111758,713,708,-21.2472,6.52652
-504,316,-21.2897,-7.23376,0.000742805,-0.00207534,0.0012644,0.00122693,-0.00255946,0.365669,0.00223074,0.0151503,720,708,-21.2897,7.23378
-497,316,-21.2953,-7.92261,-5.14942e-05,-0.00460064,0.00405181,0.00232053,-0.00697266,0.529632,0.00558502,0.0134629,727,708,-21.2953,7.92259
-490,316,-21.3333,-8.65137,-0.000766528,-0.00886956,0.00885337,0.00491833,-0.0145544,0.57081,0.0116924,0.0186519,734,708,-21.3332,8.65138
-483,316,-21.2769,-9.36237,0,0,0,0,0,0,0,-1,741,708,-21.2769,9.36239
-476,316,-8.90894,-3.31207,0,0,0,0,0,0,0,-1,748,708,-8.90896,3.31206
-469,316,-6.24194,-1.42725,0,0,0,0,0,0,0,-1,755,708,-6.24192,1.42725
-462,316,-5.74237,-1.40039,0,0,0,0,0,0,0,-1,762,708,-5.74238,1.40039
-455,316,-5.44745,-1.21899,0,0,0,0,0,0,0,-1,769,708,-5.44746,1.21898
-448,316,-14.8945,0.655396,0,0,0,0,0,0,0,-1,776,708,-14.8946,-0.655396
-441,316,-14.9626,0.576111,0,0,0,0,0,0,0,-1,783,708,-14.9626,-0.576115
-434,316,-27.7723,1.15576,0,0,0,0,0,0,0,-1,790,708,-27.7723,-1.15579
-427,316,-28.0504,1.31427,0,0,0,0,0,0,0,-1,797,708,-28.0504,-1.31427
-420,316,-28.198,1.62891,0,0,0,0,0,0,0,-1,804,708,-28.198,-1.62889
-413,316,0,0,0,0,0,0,0,0,0,-1,811,708,0,0
-406,316,0,0,0,0,0,0,0,0,0,-1,818,708,0,0
-399,316,0,0,0,0,0,0,0,0,0,-1,825,708,0,0
-392,316,0,0,0,0,0,0,0,0,0,-1,832,708,0,0
-385,316,0,0,0,0,0,0,0,0,0,-1,839,708,0,0
-378,316,0,0,0,0,0,0,0,0,0,-1,846,708,0,0
-371,316,0,0,0,0,0,0,0,0,0,-1,853,708,0,0
-364,316,0,0,0,0,0,0,0,0,0,-1,860,708,0,0
-357,316,0,0,0,0,0,0,0,0,0,-1,867,708,0,0
-350,316,0,0,0,0,0,0,0,0,0,-1,874,708,0,0
-343,316,0,0,0,0,0,0,0,0,0,-1,881,708,0,0
-336,316,0,0,0,0,0,0,0,0,0,-1,888,708,0,0
-329,316,0,0,0,0,0,0,0,0,0,-1,895,708,0,0
-322,316,0,0,0,0,0,0,0,0,0,-1,902,708,0,0
-315,316,0,0,0,0,0,0,0,0,0,-1,909,708,0,0
-308,316,0,0,0,0,0,0,0,0,0,-1,916,708,0,0
-301,316,0,0,0,0,0,0,0,0,0,-1,923,708,0,0
-294,316,0,0,0,0,0,0,0,0,0,-1,930,708,0,0
-287,316,0,0,0,0,0,0,0,0,0,-1,937,708,0,0
-280,316,0,0,0,0,0,0,0,0,0,-1,944,708,0,0
-273,316,0,0,0,0,0,0,0,0,0,-1,951,708,0,0
-266,316,0,0,0,0,0,0,0,0,0,-1,958,708,0,0
-259,316,0,0,0,0,0,0,0,0,0,-1,965,708,0,0
-252,316,0,0,0,0,0,0,0,0,0,-1,972,708,0,0
-245,316,0,0,0,0,0,0,0,0,0,-1,979,708,0,0
-238,316,0,0,0,0,0,0,0,0,0,-1,986,708,0,0
-231,316,0,0,0,0,0,0,0,0,0,-1,993,708,0,0
-224,316,0,0,0,0,0,0,0,0,0,-1,1000,708,0,0
-217,316,0,0,0,0,0,0,0,0,0,-1,1007,708,0,0
-210,316,0,0,0,0,0,0,0,0,0,-1,1014,708,0,0
-203,316,0,0,0,0,0,0,0,0,0,-1,1021,708,0,0
-196,316,0,0,0,0,0,0,0,0,0,-1,1028,708,0,0
-189,316,0,0,0,0,0,0,0,0,0,-1,1035,708,0,0
-182,316,0,0,0,0,0,0,0,0,0,-1,1042,708,0,0
-175,316,0,0,0,0,0,0,0,0,0,-1,1049,708,0,0
-168,316,0,0,0,0,0,0,0,0,0,-1,1056,708,0,0
-161,316,0,0,0,0,0,0,0,0,0,-1,1063,708,0,0
-154,316,0,0,0,0,0,0,0,0,0,-1,1070,708,0,0
-147,316,0,0,0,0,0,0,0,0,0,-1,1077,708,0,0
-140,316,0,0,0,0,0,0,0,0,0,-1,1084,708,0,0
-133,316,0,0,0,0,0,0,0,0,0,-1,1091,708,0,0
-126,316,0,0,0,0,0,0,0,0,0,-1,1098,708,0,0
-119,316,0,0,0,0,0,0,0,0,0,-1,1105,708,0,0
-112,316,0,0,0,0,0,0,0,0,0,-1,1112,708,0,0
-105,316,0,0,0,0,0,0,0,0,0,-1,1119,708,0,0
-98,316,0,0,0,0,0,0,0,0,0,-1,1126,708,0,0
-91,316,0,0,0,0,0,0,0,0,0,-1,1133,708,0,0
-84,316,0,0,0,0,0,0,0,0,0,-1,1140,708,0,0
-77,316,0,0,0,0,0,0,0,0,0,-1,1147,708,0,0
-70,316,0,0,0,0,0,0,0,0,0,-1,1154,708,0,0
-63,316,0,0,0,0,0,0,0,0,0,-1,1161,708,0,0
-56,316,0,0,0,0,0,0,0,0,0,-1,1168,708,0,0
-49,316,0,0,0,0,0,0,0,0,0,-1,1175,708,0,0
-42,316,0,0,0,0,0,0,0,0,0,-1,1182,708,0,0
-35,316,0,0,0,0,0,0,0,0,0,-1,1189,708,0,0
-28,316,0,0,0,0,0,0,0,0,0,-1,1196,708,0,0
-21,316,0,0,0,0,0,0,0,0,0,-1,1203,708,0,0
-14,316,0,0,0,0,0,0,0,0,0,-1,1210,708,0,0
-7,316,0,0,0,0,0,0,0,0,0,-1,1217,708,0,0
0,316,0,0,0,0,0,0,0,0,0,-1,1224,708,0,0
7,316,0,0,0,0,0,0,0,0,0,-1,1231,708,0,0
14,316,0,0,0,0,0,0,0,0,0,-1,1238,708,0,0
21,316,0,0,0,0,0,0,0,0,0,-1,1245,708,0,0
28,316,0,0,0,0,0,0,0,0,0,-1,1252,708,0,0
35,316,0,0,0,0,0,0,0,0,0,-1,1259,708,0,0
42,316,0,0,0,0,0,0,0,0,0,-1,1266,708,0,0
49,316,0,0,0,0,0,0,0,0,0,-1,1273,708,0,0
56,316,0,0,0,0,0,0,0,0,0,-1,1280,708,0,0
63,316,0,0,0,0,0,0,0,0,0,-1,1287,708,0,0
70,316,0,0,0,0,0,0,0,0,0,-1,1294,708,0,0
77,316,0,0,0,0,0,0,0,0,0,-1,1301,708,0,0
84,316,0,0,0,0,0,0,0,0,0,-1,1308,708,0,0
91,316,0,0,0,0,0,0,0,0,0,-1,1315,708,0,0
98,316,0,0,0,0,0,0,0,0,0,-1,1322,708,0,0
105,316,0,0,0,0,0,0,0,0,0,-1,1329,708,0,0
112,316,0,0,0,0,0,0,0,0,0,-1,1336,708,0,0
119,316,0,0,0,0,0,0,0,0,0,-1,1343,708,0,0
126,316,0,0,0,0,0,0,0,0,0,-1,1350,708,0,0
133,316,0,0,0,0,0,0,0,0,0,-1,1357,708,0,0
140,316,0,0,0,0,0,0,0,0,0,-1,1364,708,0,0
147,316,0,0,0,0,0,0,0,0,0,-1,1371,708,0,0
154,316,0,0,0,0,0,0,0,0,0,-1,1378,708,0,0
161,316,0,0,0,0,0,0,0,0,0,-1,1385,708,0,0
168,316,0,0,0,0,0,0,0,0,0,-1,1392,708,0,0
175,316,0,0,0,0,0,0,0,0,0,-1,1399,708,0,0
182,316,0,0,0,0,0,0,0,0,0,-1,1406,708,0,0
189,316,0,0,0,0,0,0,0,0,0,-1,1413,708,0,0
196,316,0,0,0,0,0,0,0,0,0,-1,1420,708,0,0
203,316,0,0,0,0,0,0,0,0,0,-1,1427,708,0,0
210,316,0,0,0,0,0,0,0,0,0,-1,1434,708,0,0
217,316,0,0,0,0,0,0,0,0,0,-1,1441,708,0,0
224,316,0,0,0,0,0,0,0,0,0,-1,1448,708,0,0
231,316,0,0,0,0,0,0,0,0,0,-1,1455,708,0,0
238,316,0,0,0,0,0,0,0,0,0,-1,1462,708,0,0
245,316,0,0,0,0,0,0,0,0,0,-1,1469,708,0,0
252,316,0,0,0,0,0,0,0,0,0,-1,1476,708,0,0
259,316,0,0,0,0,0,0,0,0,0,-1,1483,708,0,0
266,316,0,0,0,0,0,0,0,0,0,-1,1490,708,0,0
273,316,0,0,0,0,0,0,0,0,0,-1,1497,708,0,0
280,316,0,0,0,0,0,0,0,0,0,-1,1504,708,0,0
287,316,0,0,0,0,0,0,0,0,0,-1,1511,708,0,0
294,316,0,0,0,0,0,0,0,0,0,-1,1518,708,0,0
301,316,0,0,0,0,0,0,0,0,0,-1,1525,708,0,0
308,316,0,0,0,0,0,0,0,0,0,-1,1532,708,0,0
315,316,0,0,0,0,0,0,0,0,0,-1,1539,708,0,0
322,316,0,0,0,0,0,0,0,0,0,-1,1546,708,0,0
329,316,0,0,0,0,0,0,0,0,0,-1,1553,708,0,0
336,316,0,0,0,0,0,0,0,0,0,-1,1560,708,0,0
343,316,0,0,0,0,0,0,0,0,0,-1,1567,708,0,0
350,316,0,0,0,0,0,0,0,0,0,-1,1574,708,0,0
357,316,0,0,0,0,0,0,0,0,0,-1,1581,708,0,0
364,316,0,0,0,0,0,0,0,0,0,-1,1588,708,0,0
371,316,0,0,0,0,0,0,0,0,0,-1,1595,708,0,0
378,316,0,0,0,0,0,0,0,0,0,-1,1602,708,0,0
385,316,0,0,0,0,0,0,0,0,0,-1,1609,708,0,0
392,316,0,0,0,0,0,0,0,0,0,-1,1616,708,0,0
399,316,0,0,0,0,0,0,0,0,0,-1,1623,708,0,0
406,316,0,0,0,0,0,0,0,0,0,-1,1630,708,0,0
413,316,0,0,0,0,0,0,0,0,0,-1,1637,708,0,0
420,316,0,0,0,0,0,0,0,0,0,-1,1644,708,0,0
427,316,0,0,0,0,0,0,0,0,0,-1,1651,708,0,0
434,316,0,0,0,0,0,0,0,0,0,-1,1658,708,0,0
441,316,0,0,0,0,0,0,0,0,0,-1,1665,708,0,0
448,316,0,0,0,0,0,0,0,0,0,-1,1672,708,0,0
455,316,0,0,0,0,0,0,0,0,0,-1,1679,708,0,0
462,316,0,0,0,0,0,0,0,0,0,-1,1686,708,0,0
469,316,0,0,0,0,0,0,0,0,0,-1,1693,708,0,0
476,316,0,0,0,0,0,0,0,0,0,-1,1700,708,0,0
483,316,0,0,0,0,0,0,0,0,0,-1,1707,708,0,0
490,316,0,0,0,0,0,0,0,0,0,-1,1714,708,0,0
497,316,0,0,0,0,0,0,0,0,0,-1,1721,708,0,0
504,316,0,0,0,0,0,0,0,0,0,-1,1728,708,0,0
511,316,0,0,0,0,0,0,0,0,0,-1,1735,708,0,0
518,316,0,0,0,0,0,0,0,0,0,-1,1742,708,0,0
525,316,0,0,0,0,0,0,0,0,0,-1,1749,708,0,0
532,316,33.8604,0.531128,0,0,0,0,0,0,0,-1,1756,708,33.8604,-0.531151
539,316,44.4543,2.73468,0,0,0,0,0,0,0,-1,1763,708,44.4543,-2.7347
546,316,44.713,3.35498,0,0,0,0,0,0,0,-1,1770,708,44.7131,-3.35501
553,316,39.9031,6.57275,0,0,0,0,0,0,0,-1,1777,708,39.9031,-6.57274
560,316,39.1196,1.10046,0,0,0,0,0,0,0,-1,1784,708,39.1197,-1.10048
567,316,47.3683,6.04919,0,0,0,0,0,0,0,-1,1791,708,47.3683,-6.04918
574,316,45.9872,6.7655,0,0,0,0,0,0,0,-1,1798,708,45.9871,-6.76552
581,316,24.6815,7.77496,0,0,0,0,0,0,0,-1,1805,708,24.6815,-7.77499
588,316,19.7659,2.90198,0,0,0,0,0,0,0,-1,1812,708,19.7659,-2.902
595,316,12.5363,1.50702,0,0,0,0,0,0,0,-1,1819,708,12.5363,-1.50701
602,316,7.79919,0.0422363,0,0,0,0,0,0,0,-1,1826,708,7.79923,-0.0422066
609,316,33.8691,-7.9458,0,0,0,0,0,0,0,-1,1833,708,33.8691,7.9458
616,316,33.8782,-7.23975,0.00164168,-0.00238679,-0.00114049,0.00194215,-0.00268726,-0.257604,0.0026843,0.0153968,1840,708,33.8782,7.23974
623,316,33.8539,-6.53583,0.00136181,-0.00173303,-0.000743525,0.00153117,-0.0019024,-0.22396,0.00198623,0.0117003,1847,708,33.8539,6.5358
630,316,33.7937,-5.8255,0.00129267,-0.00121729,-0.000388577,0.00135145,-0.00127607,-0.150133,0.00151721,0.0127337,1854,708,33.7937,5.82551
637,316,33.78,-5.05798,0.0013403,-0.00065423,-4.48947e-06,0.00134031,-0.00065424,-0.00225088,0.00117404,0.0117653,1861,708,33.7801,5.05798
644,316,33.76,-4.31073,0.0014667,-5.29646e-05,0.000386823,0.00155949,-0.000145762,0.235447,0.0010915,0.0117881,1868,708,33.76,4.31071
651,316,33.6936,-3.58124,0.00165128,0.000570178,0.000776751,0.00205706,0.000164402,0.481409,0.00131999,0.0154885,1875,708,33.6936,3.58122
658,316,33.6414,-2.83521,0.00188729,0.00125949,0.00115905,0.00277419,0.000372586,0.653158,0.00173862,0.0297531,1882,708,33.6414,2.83518
665,316,33.584,-2.09576,0.00223366,0.00197419,0.0015495,0.00365885,0.000549,0.743633,0.00227839,0.0210985,1889,708,33.584,2.09579
672,316,33.5931,-1.37878,0.00268079,0.00278809,0.00194371,0.00467889,0.000789993,0.799195,0.00289212,0.0130237,1896,708,33.5931,1.37878
679,316,33.6149,-0.545227,0.00316742,0.00370428,0.00238192,0.00583285,0.00103885,0.84151,0.0035927,0.049052,1903,708,33.6149,0.54521
686,316,33.6832,0.270874,0,0,0,0,0,0,0,-1,1910,708,33.6833,-0.270884
693,316,26.4315,1.80652,0,0,0,0,0,0,0,-1,1917,708,26.4315,-1.80651
700,316,12.8749,2.89136,0,0,0,0,0,0,0,-1,1924,708,12.8748,-2.89137
707,316,15.7089,5.41486,0,0,0,0,0,0,0,-1,1931,708,15.7088,-5.41487
714,316,16.1727,5.52045,0,0,0,0,0,0,0,-1,1938,708,16.1728,-5.52042
721,316,16.7094,6.53351,0,0,0,0,0,0,0,-1,1945,708,16.7094,-6.5335
728,316,0,0,0,0,0,0,0,0,0,-1,1952,708,0,0
735,316,0,0,0,0,0,0,0,0,0,-1,1959,708,0,0
742,316,0,0,0,0,0,0,0,0,0,-1,1966,708,0,0
749,316,0,0,0,0,0,0,0,0,0,-1,1973,708,0,0
756,316,0,0,0,0,0,0,0,0,0,-1,1980,708,0,0
763,316,0,0,0,0,0,0,0,0,0,-1,1987,708,0,0
770,316,0,0,0,0,0,0,0,0,0,-1,1994,708,0,0
777,316,0,0,0,0,0,0,0,0,0,-1,2001,708,0,0
784,316,0,0,0,0,0,0,0,0,0,-1,2008,708,0,0
791,316,0,0,0,0,0,0,0,0,0,-1,2015,708,0,0
798,316,0,0,0,0,0,0,0,0,0,-1,2022,708,0,0
805,316,0,0,0,0,0,0,0,0,0,-1,2029,708,0,0
812,316,0,0,0,0,0,0,0,0,0,-1,2036,708,0,0
-700,309,0,0,0,0,0,0,0,0,0,-1,524,715,0,0
-693,309,0,0,0,0,0,0,0,0,0,-1,531,715,0,0
-686,309,0,0,0,0,0,0,0,0,0,-1,538,715,0,0
-679,309,0,0,0,0,0,0,0,0,0,-1,545,715,0,0
-672,309,0,0,0,0,0,0,0,0,0,-1,552,715,0,0
-665,309,0,0,0,0,0,0,0,0,0,-1,559,715,0,0
-658,309,0,0,0,0,0,0,0,0,0,-1,566,715,0,0
-651,309,0,0,0,0,0,0,0,0,0,-1,573,715,0,0
-644,309,0,0,0,0,0,0,0,0,0,-1,580,715,0,0
-637,309,0,0,0,0,0,0,0,0,0,-1,587,715,0,0
-630,309,0,0,0,0,0,0,0,0,0,-1,594,715,0,0
-623,309,0,0,0,0,0,0,0,0,0,-1,601,715,0,0
-616,309,0,0,0,0,0,0,0,0,0,-1,608,715,0,0
-609,309,-5.95392,-3.93689,0,0,0,0,0,0,0,-1,615,715,-5.95392,3.93686
-602,309,-4.99786,-3.31287,0,0,0,0,0,0,0,-1,622,715,-4.99786,3.31284
-595,309,-6.80847,2.4046,0,0,0,0,0,0,0,-1,629,715,-6.80845,-2.40458
-588,309,-6.08795,2.19324,0,0,0,0,0,0,0,-1,636,715,-6.08793,-2.19325
-581,309,-5.97552,1.3277,0,0,0,0,0,0,0,-1,643,715,-5.97552,-1.32769
-574,309,-8.73602,0.208435,0,0,0,0,0,0,0,-1,650,715,-8.73604,-0.208437
-567,309,-10.3909,0.85968,0,0,0,0,0,0,0,-1,657,715,-10.3909,-0.859696
-560,309,-18.6088,-1.73389,0,0,0,0,0,0,0,-1,664,715,-18.6088,1.73389
-553,309,-21.9123,-2.16486,0,0,0,0,0,0,0,-1,671,715,-21.9123,2.16486
-546,309,-21.9315,-2.94543,0.00240512,0.00401666,-0.000128673,0.00402687,0.00239491,-1.49162,0.00233878,0.0293247,678,715,-21.9315,2.94543
-539,309,-21.8397,-3.66742,0.0024335,0.00267333,-0.000167223,0.00275919,0.00234764,-1.09645,0.00171878,0.0154355,685,715,-21.8397,3.66744
-532,309,-21.8409,-4.36627,0.00215404,0.00131302,-0.000118342,0.00217038,0.00129669,-0.137166,0.00126098,0.0123581,692,715,-21.8409,4.36629
-525,309,-21.8939,-5.0921,0.00180512,0.000286084,0.000144077,0.00181867,0.000272539,0.0937339,0.00113258,0.015803,699,715,-21.8939,5.09209
-518,309,-21.9286,-5.78088,0.00121616,-0.000602079,0.00044335,0.0013185,-0.000704423,0.226868,0.00118574,0.0156592,706,715,-21.9286,5.7809
-511,309,-21.9462,-6.48029,0.00013531,-0.00145742,0.000647042,0.000365035,-0.00168715,0.341156,0.00126413,0.0125772,713,715,-21.9461,6.4803
-504,309,-21.9955,-7.19019,-0.00134278,-0.0027577,0.00149228,-0.000398761,-0.00370172,0.564048,0.00234622,0.0103141,720,715,-21.9955,7.19018
-497,309,-22.0012,-7.88446,-0.00314383,-0.00560909,0.00459584,0.000381806,-0.00913473,0.654379,0.006221,0.0144973,727,715,-22.0012,7.88447
-490,309,-22.0063,-8.59564,0,0,0,0,0,0,0,-1,734,715,-22.0063,8.59563
-483,309,-17.7261,-7.75836,0,0,0,0,0,0,0,-1,741,715,-17.7261,7.75839
-476,309,-5.29486,-1.2262,0,0,0,0,0,0,0,-1,748,715,-5.29484,1.22622
-469,309,-4.22717,-0.592896,0,0,0,0,0,0,0,-1,755,715,-4.2272,0.592905
-462,309,-10.428,2.46948,0,0,0,0,0,0,0,-1,762,715,-10.428,-2.46947
-455,309,-15.8216,0.00915527,0,0,0,0,0,0,0,-1,769,715,-15.8216,-0.00913359
-448,309,-37.3543,-1.02441,0,0,0,0,0,0,0,-1,776,715,-37.3543,1.02444
-441,309,-19.8181,1.4425,0,0,0,0,0,0,0,-1,783,715,-19.8181,-1.44249
-434,309,-28.3196,0.95105,0,0,0,0,0,0,0,-1,790,715,-28.3196,-0.951068
-427,309,-27.8553,1.40332,0,0,0,0,0,0,0,-1,797,715,-27.8553,-1.40334
-420,309,-27.3148,1.90747,0,0,0,0,0,0,0,-1,804,715,-27.3148,-1.90745
-413,309,0,0,0,0,0,0,0,0,0,-1,811,715,0,0
-406,309,0,0,0,0,0,0,0,0,0,-1,818,715,0,0
-399,309,0,0,0,0,0,0,0,0,0,-1,825,715,0,0
-392,309,0,0,0,0,0,0,0,0,0,-1,832,715,0,0
-385,309,0,0,0,0,0,0,0,0,0,-1,839,715,0,0
-378,309,0,0,0,0,0,0,0,0,0,-1,846,715,0,0
-371,309,0,0,0,0,0,0,0,0,0,-1,853,715,0,0
-364,309,0,0,0,0,0,0,0,0,0,-1,860,715,0,0
-357,309,0,0,0,0,0,0,0,0,0,-1,867,715,0,0
-350,309,0,0,0,0,0,0,0,0,0,-1,874,715,0,0
-343,309,0,0,0,0,0,0,0,0,0,-1,881,715,0,0
-336,309,0,0,0,0,0,0,0,0,0,-1,888,715,0,0
-329,309,0,0,0,0,0,0,0,0,0,-1,895,715,0,0
-322,309,0,0,0,0,0,0,0,0,0,-1,902,715,0,0
-315,309,0,0,0,0,0,0,0,0,0,-1,909,715,0,0
-308,309,0,0,0,0,0,0,0,0,0,-1,916,715,0,0
-301,309,0,0,0,0,0,0,0,0,0,-1,923,715,0,0
-294,309,0,0,0,0,0,0,0,0,0,-1,930,715,0,0
-287,309,0,0,0,0,0,0,0,0,0,-1,937,715,0,0
-280,309,0,0,0,0,0,0,0,0,0,-1,944,715,0,0
-273,309,0,0,0,0,0,0,0,0,0,-1,951,715,0,0
-266,309,0,0,0,0,0,0,0,0,0,-1,958,715,0,0
-259,309,0,0,0,0,0,0,0,0,0,-1,965,715,0,0
-252,309,0,0,0,0,0,0,0,0,0,-1,972,715,0,0
-245,309,0,0,0,0,0,0,0,0,0,-1,979,715,0,0
-238,309,0,0,0,0,0,0,0,0,0,-1,986,715,0,0
-231,309,0,0,0,0,0,0,0,0,0,-1,993,715,0,0
-224,309,0,0,0,0,0,0,0,0,0,-1,1000,715,0,0
-217,309,0,0,0,0,0,0,0,0,0,-1,1007,715,0,0
-210,309,0,0,0,0,0,0,0,0,0,-1,1014,715,0,0
-203,309,0,0,0,0,0,0,0,0,0,-1,1021,715,0,0
-196,309,0,0,0,0,0,0,0,0,0,-1,1028,715,0,0
-189,309,0,0,0,0,0,0,0,0,0,-1,1035,715,0,0
-182,309,0,0,0,0,0,0,0,0,0,-1,1042,715,0,0
-175,309,0,0,0,0,0,0,0,0,0,-1,1049,715,0,0
-168,309,0,0,0,0,0,0,0,0,0,-1,1056,715,0,0
-161,309,0,0,0,0,0,0,0,0,0,-1,1063,715,0,0
-154,309,0,0,0,0,0,0,0,0,0,-1,1070,715,0,0
-147,309,0,0,0,0,0,0,0,0,0,-1,1077,715,0,0
-140,309,0,0,0,0,0,0,0,0,0,-1,1084,715,0,0
-133,309,0,0,0,0,0,0,0,0,0,-1,1091,715,0,0
-126,309,0,0,0,0,0,0,0,0,0,-1,1098,715,0,0
-119,309,0,0,0,0,0,0,0,0,0,-1,1105,715,0,0
-112,309,0,0,0,0,0,0,0,0,0,-1,1112,715,0,0
-105,309,0,0,0,0,0,0,0,0,0,-1,1119,715,0,0
-98,309,0,0,0,0,0,0,0,0,0,-1,1126,715,0,0
-91,309,0,0,0,0,0,0,0,0,0,-1,1133,715,0,0
-84,309,0,0,0,0,0,0,0,0,0,-1,1140,715,0,0
-77,309,0,0,0,0,0,0,0,0,0,-1,1147,715,0,0
-70,309,0,0,0,0,0,0,0,0,0,-1,1154,715,0,0
-63,309,0,0,0,0,0,0,0,0,0,-1,1161,715,0,0
-56,309,0,0,0,0,0,0,0,0,0,-1,1168,715,0,0
-49,309,0,0,0,0,0,0,0,0,0,-1,1175,715,0,0
-42,309,0,0,0,0,0,0,0,0,0,-1,1182,715,0,0
-35,309,0,0,0,0,0,0,0,0,0,-1,1189,715,0,0
-28,309,0,0,0,0,0,0,0,0,0,-1,1196,715,0,0
-21,309,0,0,0,0,0,0,0,0,0,-1,1203,715,0,0
-14,309,0,0,0,0,0,0,0,0,0,-1,1210,715,0,0
-7,309,0,0,0,0,0,0,0,0,0,-1,1217,715,0,0
0,309,0,0,0,0,0,0,0,0,0,-1,1224,715,0,0
7,309,0,0,0,0,0,0,0,0,0,-1,1231,715,0,0
14,309,0,0,0,0,0,0,0,0,0,-1,1238,715,0,0
21,309,0,0,0,0,0,0,0,0,0,-1,1245,715,0,0
28,309,0,0,0,0,0,0,0,0,0,-1,1252,715,0,0
35,309,0,0,0,0,0,0,0,0,0,-1,1259,715,0,0
42,309,0,0,0,0,0,0,0,0,0,-1,1266,715,0,0
49,309,0,0,0,0,0,0,0,0,0,-1,1273,715,0,0
56,309,0,0,0,0,0,0,0,0,0,-1,1280,715,0,0
63,309,0,0,0,0,0,0,0,0,0,-1,1287,715,0,0
70,309,0,0,0,0,0,0,0,0,0,-1,1294,715,0,0
77,309,0,0,0,0,0,0,0,0,0,-1,1301,715,0,0
84,309,0,0,0,0,0,0,0,0,0,-1,1308,715,0,0
91,309,0,0,0,0,0,0,0,0,0,-1,1315,715,0,0
98,309,0,0,0,0,0,0,0,0,0,-1,1322,715,0,0
105,309,0,0,0,0,0,0,0,0,0,-1,1329,715,0,0
112,309,0,0,0,0,0,0,0,0,0,-1,1336,715,0,0
119,309,0,0,0,0,0,0,0,0,0,-1,1343,715,0,0
126,309,0,0,0,0,0,0,0,0,0,-1,1350,715,0,0
133,309,0,0,0,0,0,0,0,0,0,-1,1357,715,0,0
140,309,0,0,0,0,0,0,0,0,0,-1,1364,715,0,0
147,309,0,0,0,0,0,0,0,0,0,-1,1371,715,0,0
154,309,0,0,0,0,0,0,0,0,0,-1,1378,715,0,0
161,309,0,0,0,0,0,0,0,0,0,-1,1385,715,0,0
168,309,0,0,0,0,0,0,0,0,0,-1,1392,715,0,0
175,309,0,0,0,0,0,0,0,0,0,-1,1399,715,0,0
182,309,0,0,0,0,0,0,0,0,0,-1,1406,715,0,0
189,309,0,0,0,0,0,0,0,0,0,-1,1413,715,0,0
196,309,0,0,0,0,0,0,0,0,0,-1,1420,715,0,0
203,309,0,0,0,0,0,0,0,0,0,-1,1427,715,0,0
210,309,0,0,0,0,0,0,0,0,0,-1,1434,715,0,0
217,309,0,0,0,0,0,0,0,0,0,-1,1441,715,0,0
224,309,0,0,0,0,0,0,0,0,0,-1,1448,715,0,0
231,309,0,0,0,0,0,0,0,0,0,-1,1455,715,0,0
238,309,0,0,0,0,0,0,0,0,0,-1,1462,715,0,0
245,309,0,0,0,0,0,0,0,0,0,-1,1469,715,0,0
252,309,0,0,0,0,0,0,0,0,0,-1,1476,715,0,0
259,309,0,0,0,0,0,0,0,0,0,-1,1483,715,0,0
266,309,0,0,0,0,0,0,0,0,0,-1,1490,715,0,0
273,309,0,0,0,0,0,0,0,0,0,-1,1497,715,0,0
280,309,0,0,0,0,0,0,0,0,0,-1,1504,715,0,0
287,309,0,0,0,0,0,0,0,0,0,-1,1511,715,0,0
294,309,0,0,0,0,0,0,0,0,0,-1,1518,715,0,0
301,309,0,0,0,0,0,0,0,0,0,-1,1525,715,0,0
308,309,0,0,0,0,0,0,0,0,0,-1,1532,715,0,0
315,309,0,0,0,0,0,0,0,0,0,-1,1539,715,0,0
322,309,0,0,0,0,0,0,0,0,0,-1,1546,715,0,0
329,309,0,0,0,0,0,0,0,0,0,-1,1553,715,0,0
336,309,0,0,0,0,0,0,0,0,0,-1,1560,715,0,0
343,309,0,0,0,0,0,0,0,0,0,-1,1567,715,0,0
350,309,0,0,0,0,0,0,0,0,0,-1,1574,715,0,0
357,309,0,0,0,0,0,0,0,0,0,-1,1581,715,0,0
364,309,0,0,0,0,0,0,0,0,0,-1,1588,715,0,0
371,309,0,0,0,0,0,0,0,0,0,-1,1595,715,0,0
378,309,0,0,0,0,0,0,0,0,0,-1,1602,715,0,0
385,309,0,0,0,0,0,0,0,0,0,-1,1609,715,0,0
392,309,0,0,0,0,0,0,0,0,0,-1,1616,715,0,0
399,309,0,0,0,0,0,0,0,0,0,-1,1623,715,0,0
406,309,0,0,0,0,0,0,0,0,0,-1,1630,715,0,0
413,309,0,0,0,0,0,0,0,0,0,-1,1637,715,0,0
420,309,0,0,0,0,0,0,0,0,0,-1,1644,715,0,0
427,309,0,0,0,0,0,0,0,0,0,-1,1651,715,0,0
434,309,0,0,0,0,0,0,0,0,0,-1,1658,715,0,0
441,309,0,0,0,0,0,0,0,0,0,-1,1665,715,0,0
448,309,0,0,0,0,0,0,0,0,0,-1,1672,715,0,0
455,309,0,0,0,0,0,0,0,0,0,-1,1679,715,0,0
462,309,0,0,0,0,0,0,0,0,0,-1,1686,715,0,0
469,309,0,0,0,0,0,0,0,0,0,-1,1693,715,0,0
476,309,0,0,0,0,0,0,0,0,0,-1,1700,715,0,0
483,309,0,0,0,0,0,0,0,0,0,-1,1707,715,0,0
490,309,0,0,0,0,0,0,0,0,0,-1,1714,715,0,0
497,309,0,0,0,0,0,0,0,0,0,-1,1721,715,0,0
504,309,0,0,0,0,0,0,0,0,0,-1,1728,715,0,0
511,309,0,0,0,0,0,0,0,0,0,-1,1735,715,0,0
518,309,0,0,0,0,0,0,0,0,0,-1,1742,715,0,0
525,309,0,0,0,0,0,0,0,0,0,-1,1749,715,0,0
532,309,0,0,0,0,0,0,0,0,0,-1,1756,715,0,0
539,309,44.2073,2.66235,0,0,0,0,0,0,0,-1,1763,715,44.2073,-2.66238
546,309,44.4976,3.25531,0,0,0,0,0,0,0,-1,1770,715,44.4976,-3.25533
553,309,47.9611,4.06433,0,0,0,0,0,0,0,-1,1777,715,47.9611,-4.06434
560,309,47.9784,4.64801,0,0,0,0,0,0,0,-1,1784,715,47.9784,-4.64799
567,309,47.0073,5.43121,0,0,0,0,0,0,0,-1,1791,715,47.0073,-5.43121
574,309,45.8746,6.53271,0,0,0,0,0,0,0,-1,1798,715,45.8747,-6.53269
581,309,45.0629,7.73468,0,0,0,0,0,0,0,-1,1805,715,45.0629,-7.73471
588,309,26.2064,7.76422,0,0,0,0,0,0,0,-1,1812,715,26.2064,-7.7642
595,309,19.585,3.71558,0,0,0,0,0,0,0,-1,1819,715,19.5849,-3.71555
602,309,11.0811,3.47772,0,0,0,0,0,0,0,-1,1826,715,11.0811,-3.47772
609,309,34.6036,-7.91248,0,0,0,0,0,0,0,-1,1833,715,34.6037,7.91248
616,309,34.6073,-7.20184,0.00173136,-0.00292154,-0.00140632,0.00212339,-0.00331356,-0.271858,0.003164,0.0249339,1840,715,34.6073,7.20185
623,309,34.5953,-6.49414,0.00132454,-0.00215024,-0.000957816,0.00157107,-0.00239677,-0.251919,0.00230731,0.0109637,1847,715,34.5953,6.49412
630,309,34.5325,-5.77625,0.00118351,-0.00159245,-0.000592517,0.00130469,-0.00171363,-0.201736,0.00174795,0.0105657,1854,715,34.5325,5.77623
637,309,34.4823,-5.02136,0.00119005,-0.00100053,-0.000199426,0.00120806,-0.00101854,-0.0900515,0.00128708,0.0134203,1861,715,34.4823,5.02136
644,309,34.428,-4.27911,0.0012974,-0.000367902,0.00019926,0.00132091,-0.000391413,0.117445,0.00103602,0.0144196,1868,715,34.428,4.27911
651,309,34.3934,-3.55969,0.00146745,0.000276909,0.00059392,0.00171307,3.12944e-05,0.392131,0.00113176,0.0145397,1875,715,34.3935,3.55966
658,309,34.3645,-2.82825,0.00169836,0.000985929,0.000978135,0.00238312,0.000301165,0.610774,0.00149848,0.0200636,1882,715,34.3645,2.82828
665,309,34.3772,-2.08093,0.00204745,0.00172651,0.00136745,0.00326381,0.000510142,0.72699,0.00202734,0.0172622,1889,715,34.3772,2.08096
672,309,34.337,-1.35083,0.00248422,0.00254412,0.00177106,0.00428548,0.00074286,0.793853,0.00264438,0.0153292,1896,715,34.337,1.35084
679,309,34.3281,-0.55072,0.00299165,0.00346529,0.00220891,0.00545004,0.00100691,0.8388,0.00334857,0.0249351,1903,715,34.3281,0.550709
686,309,34.3488,0.323914,0,0,0,0,0,0,0,-1,1910,715,34.3487,-0.323914
693,309,32.7026,1.51727,0,0,0,0,0,0,0,-1,1917,715,32.7026,-1.51727
700,309,23.0179,3.08337,0,0,0,0,0,0,0,-1,1924,715,23.018,-3.08336
707,309,15.6318,4.58655,0,0,0,0,0,0,0,-1,1931,715,15.6318,-4.58657
714,309,16.7573,6.68286,0,0,0,0,0,0,0,-1,1938,715,16.7574,-6.68284
721,309,16.8337,5.4458,0,0,0,0,0,0,0,-1,1945,715,16.8338,-5.44582
728,309,0,0,0,0,0,0,0,0,0,-1,1952,715,0,0
735,309,0,0,0,0,0,0,0,0,0,-1,1959,715,0,0
742,309,0,0,0,0,0,0,0,0,0,-1,1966,715,0,0
749,309,0,0,0,0,0,0,0,0,0,-1,1973,715,0,0
756,309,0,0,0,0,0,0,0,0,0,-1,1980,715,0,0
763,309,0,0,0,0,0,0,0,0,0,-1,1987,715,0,0
770,309,0,0,0,0,0,0,0,0,0,-1,1994,715,0,0
777,309,0,0,0,0,0,0,0,0,0,-1,2001,715,0,0
784,309,0,0,0,0,0,0,0,0,0,-1,2008,715,0,0
791,309,0,0,0,0,0,0,0,0,0,-1,2015,715,0,0
798,309,0,0,0,0,0,0,0,0,0,-1,2022,715,0,0
805,309,0,0,0,0,0,0,0,0,0,-1,2029,715,0,0
812,309,0,0,0,0,0,0,0,0,0,-1,2036,715,0,0
-700,302,0,0,0,0,0,0,0,0,0,-1,524,722,0,0
-693,302,0,0,0,0,0,0,0,0,0,-1,531,722,0,0
-686,302,0,0,0,0,0,0,0,0,0,-1,538,722,0,0
-679,302,0,0,0,0,0,0,0,0,0,-1,545,722,0,0
-672,302,0,0,0,0,0,0,0,0,0,-1,552,722,0,0
-665,302,0,0,0,0,0,0,0,0,0,-1,559,722,0,0
-658,302,0,0,0,0,0,0,0,0,0,-1,566,722,0,0
-651,302,0,0,0,0,0,0,0,0,0,-1,573,722,0,0
-644,302,0,0,0,0,0,0,0,0,0,-1,580,722,0,0
-637,302,0,0,0,0,0,0,0,0,0,-1,587,722,0,0
-630,302,0,0,0,0,0,0,0,0,0,-1,594,722,0,0
-623,302,0,0,0,0,0,0,0,0,0,-1,601,722,0,0
-616,302,0,0,0,0,0,0,0,0,0,-1,608,722,0,0
-609,302,-7.79266,-3.71649,0,0,0,0,0,0,0,-1,615,722,-7.79267,3.7165
-602,302,0.92865,-1.99158,0,0,0,0,0,0,0,-1,622,722,0.928637,1.99157
-595,302,-7.89941,2.13641,0,0,0,0,0,0,0,-1,629,722,-7.89939,-2.13639
-588,302,-7.10895,1.79163,0,0,0,0,0,0,0,-1,636,722,-7.10896,-1.79163
-581,302,-9.17566,1.09448,0,0,0,0,0,0,0,-1,643,722,-9.17569,-1.09445
-574,302,-11.5183,-0.344543,0,0,0,0,0,0,0,-1,650,722,-11.5183,0.344557
-567,302,-12.1534,-0.672241,0,0,0,0,0,0,0,-1,657,722,-12.1535,0.672246
-560,302,-22.6244,-1.45288,0,0,0,0,0,0,0,-1,664,722,-22.6244,1.45285
-553,302,-22.5433,-2.15491,0.00208642,0.00481219,0.000419383,0.00487526,0.00202336,1.42154,0.00282825,0.0304715,671,722,-22.5433,2.15491
-546,302,-22.5587,-2.90295,0.00204651,0.0033676,0.000149544,0.00338432,0.00202979,1.45948,0.00196686,0.0173647,678,722,-22.5587,2.90297
-539,302,-22.5756,-3.5907,0.00175746,0.00209547,0.000127554,0.00213821,0.00171473,1.24754,0.00130738,0.0160557,685,722,-22.5756,3.59071
-532,302,-22.575,-4.30383,0.00139566,0.000703697,0.000193919,0.0014463,0.000653058,0.255431,0.000836326,0.0146884,692,722,-22.5749,4.30382
-525,302,-22.5925,-5.05969,0.00108159,-0.000328403,0.00046879,0.00122323,-0.000470037,0.293407,0.00100933,0.0185914,699,722,-22.5925,5.05968
-518,302,-22.6284,-5.74194,0.000216847,-0.00106995,0.000758594,0.000568148,-0.00142125,0.43369,0.00118326,0.0203971,706,722,-22.6284,5.74195
-511,302,-22.6621,-6.43945,-0.00133066,-0.00180472,0.000850249,-0.000685017,-0.00245036,0.64946,0.00145983,0.0109249,713,722,-22.6621,6.43945
-504,302,-22.7073,-7.16046,-0.00313771,-0.00314177,0.00173118,-0.00140856,-0.00487092,0.784811,0.00289436,0.00966746,720,722,-22.7073,7.16047
-497,302,-22.7589,-7.84302,-0.00534093,-0.00606932,0.00499449,-0.000697373,-0.0107129,0.749003,0.00692118,0.0156802,727,722,-22.7589,7.84303
-490,302,-22.7978,-8.52808,0,0,0,0,0,0,0,-1,734,722,-22.7978,8.52811
-483,302,-9.53412,-3.1673,0,0,0,0,0,0,0,-1,741,722,-9.53411,3.1673
-476,302,-4.29749,-0.203491,0,0,0,0,0,0,0,-1,748,722,-4.29751,0.203464
-469,302,-12.369,1.42859,0,0,0,0,0,0,0,-1,755,722,-12.3689,-1.42857
-462,302,-17.4766,0.310791,0,0,0,0,0,0,0,-1,762,722,-17.4766,-0.310788
-455,302,-36.7368,-2.97418,0,0,0,0,0,0,0,-1,769,722,-36.7368,2.97416
-448,302,-42.1174,-1.44232,0,0,0,0,0,0,0,-1,776,722,-42.1174,1.44229
-441,302,-42.171,-0.834961,0,0,0,0,0,0,0,-1,783,722,-42.171,0.834972
-434,302,-42.7626,-0.210876,0,0,0,0,0,0,0,-1,790,722,-42.7626,0.210888
-427,302,-27.1735,1.81506,0,0,0,0,0,0,0,-1,797,722,-27.1735,-1.81504
-420,302,0,0,0,0,0,0,0,0,0,-1,804,722,0,0
-413,302,0,0,0,0,0,0,0,0,0,-1,811,722,0,0
-406,302,0,0,0,0,0,0,0,0,0,-1,818,722,0,0
-399,302,0,0,0,0,0,0,0,0,0,-1,825,722,0,0
-392,302,0,0,0,0,0,0,0,0,0,-1,832,722,0,0
-385,302,0,0,0,0,0,0,0,0,0,-1,839,722,0,0
-378,302,0,0,0,0,0,0,0,0,0,-1,846,722,0,0
-371,302,0,0,0,0,0,0,0,0,0,-1,853,722,0,0
-364,302,0,0,0,0,0,0,0,0,0,-1,860,722,0,0
-357,302,0,0,0,0,0,0,0,0,0,-1,867,722,0,0
-350,302,0,0,0,0,0,0,0,0,0,-1,874,722,0,0
-343,302,0,0,0,0,0,0,0,0,0,-1,881,722,0,0
-336,302,0,0,0,0,0,0,0,0,0,-1,888,722,0,0
-329,302,0,0,0,0,0,0,0,0,0,-1,895,722,0,0
-322,302,0,0,0,0,0,0,0,0,0,-1,902,722,0,0
-315,302,0,0,0,0,0,0,0,0,0,-1,909,722,0,0
-308,302,0,0,0,0,0,0,0,0,0,-1,916,722,0,0
-301,302,0,0,0,0,0,0,0,0,0,-1,923,722,0,0
-294,302,0,0,0,0,0,0,0,0,0,-1,930,722,0,0
-287,302,0,0,0,0,0,0,0,0,0,-1,937,722,0,0
-280,302,0,0,0,0,0,0,0,0,0,-1,944,722,0,0
-273,302,0,0,0,0,0,0,0,0,0,-1,951,722,0,0
-266,302,0,0,0,0,0,0,0,0,0,-1,958,722,0,0
-259,302,0,0,0,0,0,0,0,0,0,-1,965,722,0,0
-252,302,0,0,0,0,0,0,0,0,0,-1,972,722,0,0
-245,302,0,0,0,0,0,0,0,0,0,-1,979,722,0,0
-238,302,0,0,0,0,0,0,0,0,0,-1,986,722,0,0
-231,302,0,0,0,0,0,0,0,0,0,-1,993,722,0,0
-224,302,0,0,0,0,0,0,0,0,0,-1,1000,722,0,0
-217,302,0,0,0,0,0,0,0,0,0,-1,1007,722,0,0
-210,302,0,0,0,0,0,0,0,0,0,-1,1014,722,0,0
-203,302,0,0,0,0,0,0,0,0,0,-1,1021,722,0,0
-196,302,0,0,0,0,0,0,0,0,0,-1,1028,722,0,0
-189,302,0,0,0,0,0,0,0,0,0,-1,1035,722,0,0
-182,302,0,0,0,0,0,0,0,0,0,-1,1042,722,0,0
-175,302,0,0,0,0,0,0,0,0,0,-1,1049,722,0,0
-168,302,0,0,0,0,0,0,0,0,0,-1,1056,722,0,0
-161,302,0,0,0,0,0,0,0,0,0,-1,1063,722,0,0
-154,302,0,0,0,0,0,0,0,0,0,-1,1070,722,0,0
-147,302,0,0,0,0,0,0,0,0,0,-1,1077,722,0,0
-140,302,0,0,0,0,0,0,0,0,0,-1,1084,722,0,0
-133,302,0,0,0,0,0,0,0,0,0,-1,1091,722,0,0
-126,302,0,0,0,0,0,0,0,0,0,-1,1098,722,0,0
-119,302,0,0,0,0,0,0,0,0,0,-1,1105,722,0,0
-112,302,0,0,0,0,0,0,0,0,0,-1,1112,722,0,0
-105,302,0,0,0,0,0,0,0,0,0,-1,1119,722,0,0
-98,302,0,0,0,0,0,0,0,0,0,-1,1126,722,0,0
-91,302,0,0,0,0,0,0,0,0,0,-1,1133,722,0,0
-84,302,0,0,0,0,0,0,0,0,0,-1,1140,722,0,0
-77,302,0,0,0,0,0,0,0,0,0,-1,1147,722,0,0
-70,302,0,0,0,0,0,0,0,0,0,-1,1154,722,0,0
-63,302,0,0,0,0,0,0,0,0,0,-1,1161,722,0,0
-56,302,0,0,0,0,0,0,0,0,0,-1,1168,722,0,0
-49,302,0,0,0,0,0,0,0,0,0,-1,1175,722,0,0
-42,302,0,0,0,0,0,0,0,0,0,-1,1182,722,0,0
-35,302,0,0,0,0,0,0,0,0,0,-1,1189,722,0,0
-28,302,0,0,0,0,0,0,0,0,0,-1,1196,722,0,0
-21,302,0,0,0,0,0,0,0,0,0,-1,1203,722,0,0
-14,302,0,0,0,0,0,0,0,0,0,-1,1210,722,0,0
-7,302,0,0,0,0,0,0,0,0,0,-1,1217,722,0,0
0,302,0,0,0,0,0,0,0,0,0,-1,1224,722,0,0
7,302,0,0,0,0,0,0,0,0,0,-1,1231,722,0,0
14,302,0,0,0,0,0,0,0,0,0,-1,1238,722,0,0
21,302,0,0,0,0,0,0,0,0,0,-1,1245,722,0,0
28,302,0,0,0,0,0,0,0,0,0,-1,1252,722,0,0
35,302,0,0,0,0,0,0,0,0,0,-1,1259,722,0,0
42,302,0,0,0,0,0,0,0,0,0,-1,1266,722,0,0
49,302,0,0,0,0,0,0,0,0,0,-1,1273,722,0,0
56,302,0,0,0,0,0,0,0,0,0,-1,1280,722,0,0
63,302,0,0,0,0,0,0,0,0,0,-1,1287,722,0,0
70,302,0,0,0,0,0,0,0,0,0,-1,1294,722,0,0
77,302,0,0,0,0,0,0,0,0,0,-1,1301,722,0,0
84,302,0,0,0,0,0,0,0,0,0,-1,1308,722,0,0
91,302,0,0,0,0,0,0,0,0,0,-1,1315,722,0,0
98,302,0,0,0,0,0,0,0,0,0,-1,1322,722,0,0
105,302,0,0,0,0,0,0,0,0,0,-1,1329,722,0,0
112,302,0,0,0,0,0,0,0,0,0,-1,1336,722,0,0
119,302,0,0,0,0,0,0,0,0,0,-1,1343,722,0,0
126,302,0,0,0,0,0,0,0,0,0,-1,1350,722,0,0
133,302,0,0,0,0,0,0,0,0,0,-1,1357,722,0,0
140,302,0,0,0,0,0,0,0,0,0,-1,1364,722,0,0
147,302,0,0,0,0,0,0,0,0,0,-1,1371,722,0,0
154,302,0,0,0,0,0,0,0,0,0,-1,1378,722,0,0
161,302,0,0,0,0,0,0,0,0,0,-1,1385,722,0,0
168,302,0,0,0,0,0,0,0,0,0,-1,1392,722,0,0
175,302,0,0,0,0,0,0,0,0,0,-1,1399,722,0,0
182,302,0,0,0,0,0,0,0,0,0,-1,1406,722,0,0
189,302,0,0,0,0,0,0,0,0,0,-1,1413,722,0,0
196,302,0,0,0,0,0,0,0,0,0,-1,1420,722,0,0
203,302,0,0,0,0,0,0,0,0,0,-1,1427,722,0,0
210,302,0,0,0,0,0,0,0,0,0,-1,1434,722,0,0
217,302,0,0,0,0,0,0,0,0,0,-1,1441,722,0,0
224,302,0,0,0,0,0,0,0,0,0,-1,1448,722,0,0
231,302,0,0,0,0,0,0,0,0,0,-1,1455,722,0,0
238,302,0,0,0,0,0,0,0,0,0,-1,1462,722,0,0
245,302,0,0,0,0,0,0,0,0,0,-1,1469,722,0,0
252,302,0,0,0,0,0,0,0,0,0,-1,1476,722,0,0
259,302,0,0,0,0,0,0,0,0,0,-1,1483,722,0,0
266,302,0,0,0,0,0,0,0,0,0,-1,1490,722,0,0
273,302,0,0,0,0,0,0,0,0,0,-1,1497,722,0,0
280,302,0,0,0,0,0,0,0,0,0,-1,1504,722,0,0
287,302,0,0,0,0,0,0,0,0,0,-1,1511,722,0,0
294,302,0,0,0,0,0,0,0,0,0,-1,1518,722,0,0
301,302,0,0,0,0,0,0,0,0,0,-1,1525,722,0,0
308,302,0,0,0,0,0,0,0,0,0,-1,1532,722,0,0
315,302,0,0,0,0,0,0,0,0,0,-1,1539,722,0,0
322,302,0,0,0,0,0,0,0,0,0,-1,1546,722,0,0
329,302,0,0,0,0,0,0,0,0,0,-1,1553,722,0,0
336,302,0,0,0,0,0,0,0,0,0,-1,1560,722,0,0
343,302,0,0,0,0,0,0,0,0,0,-1,1567,722,0,0
350,302,0,0,0,0,0,0,0,0,0,-1,1574,722,0,0
357,302,0,0,0,0,0,0,0,0,0,-1,1581,722,0,0
364,302,0,0,0,0,0,0,0,0,0,-1,1588,722,0,0
371,302,0,0,0,0,0,0,0,0,0,-1,1595,722,0,0
378,302,0,0,0,0,0,0,0,0,0,-1,1602,722,0,0
385,302,0,0,0,0,0,0,0,0,0,-1,1609,722,0,0
392,302,0,0,0,0,0,0,0,0,0,-1,1616,722,0,0
399,302,0,0,0,0,0,0,0,0,0,-1,1623,722,0,0
406,302,0,0,0,0,0,0,0,0,0,-1,1630,722,0,0
413,302,0,0,0,0,0,0,0,0,0,-1,1637,722,0,0
420,302,0,0,0,0,0,0,0,0,0,-1,1644,722,0,0
427,302,0,0,0,0,0,0,0,0,0,-1,1651,722,0,0
434,302,0,0,0,0,0,0,0,0,0,-1,1658,722,0,0
441,302,0,0,0,0,0,0,0,0,0,-1,1665,722,0,0
448,302,0,0,0,0,0,0,0,0,0,-1,1672,722,0,0
455,302,0,0,0,0,0,0,0,0,0,-1,1679,722,0,0
462,302,0,0,0,0,0,0,0,0,0,-1,1686,722,0,0
469,302,0,0,0,0,0,0,0,0,0,-1,1693,722,0,0
476,302,0,0,0,0,0,0,0,0,0,-1,1700,722,0,0
483,302,0,0,0,0,0,0,0,0,0,-1,1707,722,0,0
490,302,0,0,0,0,0,0,0,0,0,-1,1714,722,0,0
497,302,0,0,0,0,0,0,0,0,0,-1,1721,722,0,0
504,302,0,0,0,0,0,0,0,0,0,-1,1728,722,0,0
511,302,0,0,0,0,0,0,0,0,0,-1,1735,722,0,0
518,302,0,0,0,0,0,0,0,0,0,-1,1742,722,0,0
525,302,0,0,0,0,0,0,0,0,0,-1,1749,722,0,0
532,302,0,0,0,0,0,0,0,0,0,-1,1756,722,0,0
539,302,0,0,0,0,0,0,0,0,0,-1,1763,722,0,0
546,302,48.9873,1.50562,0,0,0,0,0,0,0,-1,1770,722,48.9873,-1.50562
553,302,56.7844,3.46533,0,0,0,0,0,0,0,-1,1777,722,56.7844,-3.4653
560,302,56.7115,3.84808,0,0,0,0,0,0,0,-1,1784,722,56.7116,-3.84806
567,302,55.9475,4.24542,0,0,0,0,0,0,0,-1,1791,722,55.9475,-4.24542
574,302,45.9537,6.00867,0,0,0,0,0,0,0,-1,1798,722,45.9537,-6.00864
581,302,45.137,7.38043,0,0,0,0,0,0,0,-1,1805,722,45.1369,-7.38044
588,302,26.9731,7.19983,0,0,0,0,0,0,0,-1,1812,722,26.9732,-7.19981
595,302,27.3826,8.13104,0,0,0,0,0,0,0,-1,1819,722,27.3825,-8.13102
602,302,14.7349,5.21246,0,0,0,0,0,0,0,-1,1826,722,14.7349,-5.21247
609,302,31.1039,-6.34253,0,0,0,0,0,0,0,-1,1833,722,31.1039,6.34254
616,302,35.329,-7.15228,0,0,0,0,0,0,0,-1,1840,722,35.329,7.15227
623,302,35.2952,-6.42255,0.0020535,-0.00231447,-0.000935265,0.00224533,-0.00250631,-0.202305,0.00274474,0.0141215,1847,722,35.2951,6.42257
630,302,35.2413,-5.70758,0.00146136,-0.00189929,-0.000674687,0.00159175,-0.00202968,-0.190909,0.00209592,0.0115356,1854,722,35.2413,5.70758
637,302,35.1782,-4.97705,0.00113313,-0.00138859,-0.00035125,0.00118114,-0.0014366,-0.135845,0.00151375,0.0147231,1861,722,35.1782,4.97702
644,302,35.1495,-4.26019,0.00107323,-0.000771725,-1.23136e-05,0.00107332,-0.000771807,-0.00667377,0.00107001,0.0156592,1868,722,35.1495,4.26018
651,302,35.1401,-3.53162,0.00118796,-7.17078e-05,0.000363964,0.00128556,-0.000169308,0.261996,0.00091869,0.0159387,1875,722,35.1402,3.5316
658,302,35.1407,-2.81207,0.00137745,0.000681127,0.000724379,0.001833,0.000225584,0.56138,0.00115417,0.0169195,1882,722,35.1408,2.81207
665,302,35.1046,-2.07227,0.00169902,0.00145657,0.00108995,0.00267446,0.000481121,0.730015,0.00164621,0.0156674,1889,722,35.1046,2.07227
672,302,35.048,-1.34436,0.00212424,0.0022858,0.00149436,0.00370156,0.000708481,0.8124,0.00226873,0.0125134,1896,722,35.048,1.34438
679,302,35.0167,-0.575623,0.00264107,0.00320226,0.00191913,0.0048612,0.000982126,0.857988,0.00296809,0.0101725,1903,722,35.0167,0.575645
686,302,35.0333,0.206482,0.00326956,0.00423968,0.00236778,0.00617157,0.00133767,0.886429,0.00374891,0.0229362,1910,722,35.0333,-0.206471
693,302,35.0009,0.982483,0,0,0,0,0,0,0,-1,1917,722,35.0009,-0.982511
700,302,25.4069,1.97308,0,0,0,0,0,0,0,-1,1924,722,25.4068,-1.97311
707,302,16.7321,4.76685,0,0,0,0,0,0,0,-1,1931,722,16.7321,-4.76687
714,302,17.2,5.77594,0,0,0,0,0,0,0,-1,1938,722,17.2,-5.77595
721,302,17.7914,6.60394,0,0,0,0,0,0,0,-1,1945,722,17.7914,-6.60395
728,302,17.2798,4.81702,0,0,0,0,0,0,0,-1,1952,722,17.2798,-4.81703
735,302,0,0,0,0,0,0,0,0,0,-1,1959,722,0,0
742,302,0,0,0,0,0,0,0,0,0,-1,1966,722,0,0
749,302,0,0,0,0,0,0,0,0,0,-1,1973,722,0,0
756,302,0,0,0,0,0,0,0,0,0,-1,1980,722,0,0
763,302,0,0,0,0,0,0,0,0,0,-1,1987,722,0,0
770,302,0,0,0,0,0,0,0,0,0,-1,1994,722,0,0
777,302,0,0,0,0,0,0,0,0,0,-1,2001,722,0,0
784,302,0,0,0,0,0,0,0,0,0,-1,2008,722,0,0
791,302,0,0,0,0,0,0,0,0,0,-1,2015,722,0,0
798,302,0,0,0,0,0,0,0,0,0,-1,2022,722,0,0
805,302,0,0,0,0,0,0,0,0,0,-1,2029,722,0,0
812,302,0,0,0,0,0,0,0,0,0,-1,2036,722,0,0
-700,295,0,0,0,0,0,0,0,0,0,-1,524,729,0,0
-693,295,0,0,0,0,0,0,0,0,0,-1,531,729,0,0
-686,295,0,0,0,0,0,0,0,0,0,-1,538,729,0,0
-679,295,0,0,0,0,0,0,0,0,0,-1,545,729,0,0
-672,295,0,0,0,0,0,0,0,0,0,-1,552,729,0,0
-665,295,0,0,0,0,0,0,0,0,0,-1,559,729,0,0
-658,295,0,0,0,0,0,0,0,0,0,-1,566,729,0,0
-651,295,0,0,0,0,0,0,0,0,0,-1,573,729,0,0
-644,295,0,0,0,0,0,0,0,0,0,-1,580,729,0,0
-637,295,0,0,0,0,0,0,0,0,0,-1,587,729,0,0
-630,295,0,0,0,0,0,0,0,0,0,-1,594,729,0,0
-623,295,0,0,0,0,0,0,0,0,0,-1,601,729,0,0
-616,295,-13.4911,1.31738,0,0,0,0,0,0,0,-1,608,729,-13.4911,-1.3174
-609,295,-10.2864,0.832031,0,0,0,0,0,0,0,-1,615,729,-10.2863,-0.832034
-602,295,-8.19006,3.01587,0,0,0,0,0,0,0,-1,622,729,-8.19005,-3.01588
-595,295,-0.615479,-1.95447,0,0,0,0,0,0,0,-1,629,729,-0.615481,1.95445
-588,295,-7.98999,1.56903,0,0,0,0,0,0,0,-1,636,729,-7.98997,-1.56905
-581,295,-12.0404,0.150574,0,0,0,0,0,0,0,-1,643,729,-12.0404,-0.150604
-574,295,-12.1605,-0.0739746,0,0,0,0,0,0,0,-1,650,729,-12.1605,0.0739856
-567,295,-22.8978,-0.573608,0,0,0,0,0,0,0,-1,657,729,-22.8978,0.573593
-560,295,-23.1295,-1.46204,0.00261159,0.00582768,0.0010136,0.00612047,0.00231879,1.28958,0.00356806,0.0362966,664,729,-23.1295,1.46204
-553,295,-23.1797,-2.19806,0.00216044,0.00418463,0.000528837,0.00431446,0.00203061,1.33005,0.00249239,0.0194699,671,729,-23.1797,2.19808
-546,295,-23.2578,-2.88367,0.00176928,0.00272699,0.000366002,0.00285085,0.00164542,1.24449,0.00165246,0.021372,678,729,-23.2578,2.88368
-539,295,-23.3034,-3.55231,0.00116969,0.00147463,0.00039535,0.00174589,0.000898426,0.969437,0.00100813,0.019915,685,729,-23.3034,3.55231
-532,295,-23.3119,-4.24786,0.000731519,2.78153e-05,0.000511206,0.00100026,-0.000240923,0.48399,0.000759983,0.0158976,692,729,-23.3119,4.24784
-525,295,-23.3223,-4.99371,0.000444772,-0.00101063,0.000840699,0.000828973,-0.00139483,0.42866,0.00129769,0.013941,699,729,-23.3223,4.99372
-518,295,-23.3383,-5.7052,-0.000859749,-0.00150569,0.00113701,-7.26897e-07,-0.00236471,0.647017,0.00157623,0.0108118,706,729,-23.3383,5.70521
-511,295,-23.3555,-6.41016,-0.0030269,-0.00207179,0.00103205,-0.00141216,-0.00368653,1.00209,0.00214774,0.00965497,713,729,-23.3555,6.41014
-504,295,-23.3895,-7.099,-0.0051767,-0.00328533,0.00185522,-0.00214868,-0.00631336,1.0211,0.00370645,0.0114002,720,729,-23.3895,7.09898
-497,295,-23.4731,-7.71796,-0.0077928,-0.00605341,0.00505671,-0.00179215,-0.0120541,0.870559,0.00751027,0.0235089,727,729,-23.4731,7.71795
-490,295,-23.5521,-8.31201,0,0,0,0,0,0,0,-1,734,729,-23.5521,8.31201
-483,295,-6.84503,-0.454651,0,0,0,0,0,0,0,-1,741,729,-6.84505,0.454639
-476,295,-13.1738,-0.836243,0,0,0,0,0,0,0,-1,748,729,-13.1738,0.836223
-469,295,-26.5608,-0.466187,0,0,0,0,0,0,0,-1,755,729,-26.5608,0.466162
-462,295,-29.7701,-0.792664,0,0,0,0,0,0,0,-1,762,729,-29.7701,0.792642
-455,295,-43.0493,-1.30652,0,0,0,0,0,0,0,-1,769,729,-43.0493,1.30652
-448,295,-43.3267,-0.802002,-0.0111267,-0.058576,0.0693425,0.0384374,-0.10814,0.620571,0.0877581,0.0475134,776,729,-43.3266,0.80199
-441,295,-43.402,-0.192078,-0.00763047,-0.0733913,0.0883133,0.0537248,-0.134747,0.607191,0.112115,0.0472137,783,729,-43.402,0.192073
-434,295,-43.5654,0.210632,-0.00367627,-0.0868793,0.106065,0.0686541,-0.15921,0.598505,0.134976,0.0485991,790,729,-43.5654,-0.210646
-427,295,0,0,0,0,0,0,0,0,0,-1,797,729,0,0
-420,295,0,0,0,0,0,0,0,0,0,-1,804,729,0,0
-413,295,0,0,0,0,0,0,0,0,0,-1,811,729,0,0
-406,295,0,0,0,0,0,0,0,0,0,-1,818,729,0,0
-399,295,0,0,0,0,0,0,0,0,0,-1,825,729,0,0
-392,295,0,0,0,0,0,0,0,0,0,-1,832,729,0,0
-385,295,0,0,0,0,0,0,0,0,0,-1,839,729,0,0
-378,295,0,0,0,0,0,0,0,0,0,-1,846,729,0,0
-371,295,0,0,0,0,0,0,0,0,0,-1,853,729,0,0
-364,295,0,0,0,0,0,0,0,0,0,-1,860,729,0,0
-357,295,0,0,0,0,0,0,0,0,0,-1,867,729,0,0
-350,295,0,0,0,0,0,0,0,0,0,-1,874,729,0,0
-343,295,0,0,0,0,0,0,0,0,0,-1,881,729,0,0
-336,295,0,0,0,0,0,0,0,0,0,-1,888,729,0,0
-329,295,0,0,0,0,0,0,0,0,0,-1,895,729,0,0
-322,295,0,0,0,0,0,0,0,0,0,-1,902,729,0,0
-315,295,0,0,0,0,0,0,0,0,0,-1,909,729,0,0
-308,295,0,0,0,0,0,0,0,0,0,-1,916,729,0,0
-301,295,0,0,0,0,0,0,0,0,0,-1,923,729,0,0
-294,295,0,0,0,0,0,0,0,0,0,-1,930,729,0,0
-287,295,0,0,0,0,0,0,0,0,0,-1,937,729,0,0
-280,295,0,0,0,0,0,0,0,0,0,-1,944,729,0,0
-273,295,0,0,0,0,0,0,0,0,0,-1,951,729,0,0
-266,295,0,0,0,0,0,0,0,0,0,-1,958,729,0,0
-259,295,0,0,0,0,0,0,0,0,0,-1,965,729,0,0
-252,295,0,0,0,0,0,0,0,0,0,-1,972,729,0,0
-245,295,0,0,0,0,0,0,0,0,0,-1,979,729,0,0
-238,295,0,0,0,0,0,0,0,0,0,-1,986,729,0,0
-231,295,0,0,0,0,0,0,0,0,0,-1,993,729,0,0
-224,295,0,0,0,0,0,0,0,0,0,-1,1000,729,0,0
-217,295,0,0,0,0,0,0,0,0,0,-1,1007,729,0,0
-210,295,0,0,0,0,0,0,0,0,0,-1,1014,729,0,0
-203,295,0,0,0,0,0,0,0,0,0,-1,1021,729,0,0
-196,295,0,0,0,0,0,0,0,0,0,-1,1028,729,0,0
-189,295,0,0,0,0,0,0,0,0,0,-1,1035,729,0,0
-182,295,0,0,0,0,0,0,0,0,0,-1,1042,729,0,0
-175,295,0,0,0,0,0,0,0,0,0,-1,1049,729,0,0
-168,295,0,0,0,0,0,0,0,0,0,-1,1056,729,0,0
-161,295,0,0,0,0,0,0,0,0,0,-1,1063,729,0,0
-154,295,0,0,0,0,0,0,0,0,0,-1,1070,729,0,0
-147,295,0,0,0,0,0,0,0,0,0,-1,1077,729,0,0
-140,295,0,0,0,0,0,0,0,0,0,-1,1084,729,0,0
-133,295,0,0,0,0,0,0,0,0,0,-1,1091,729,0,0
-126,295,0,0,0,0,0,0,0,0,0,-1,1098,729,0,0
-119,295,0,0,0,0,0,0,0,0,0,-1,1105,729,0,0
-112,295,0,0,0,0,0,0,0,0,0,-1,1112,729,0,0
-105,295,0,0,0,0,0,0,0,0,0,-1,1119,729,0,0
-98,295,0,0,0,0,0,0,0,0,0,-1,1126,729,0,0
-91,295,0,0,0,0,0,0,0,0,0,-1,1133,729,0,0
-84,295,0,0,0,0,0,0,0,0,0,-1,1140,729,0,0
-77,295,0,0,0,0,0,0,0,0,0,-1,1147,729,0,0
-70,295,0,0,0,0,0,0,0,0,0,-1,1154,729,0,0
-63,295,0,0,0,0,0,0,0,0,0,-1,1161,729,0,0
-56,295,0,0,0,0,0,0,0,0,0,-1,1168,729,0,0
-49,295,0,0,0,0,0,0,0,0,0,-1,1175,729,0,0
-42,295,0,0,0,0,0,0,0,0,0,-1,1182,729,0,0
-35,295,0,0,0,0,0,0,0,0,0,-1,1189,729,0,0
-28,295,0,0,0,0,0,0,0,0,0,-1,1196,729,0,0
-21,295,0,0,0,0,0,0,0,0,0,-1,1203,729,0,0
-14,295,0,0,0,0,0,0,0,0,0,-1,1210,729,0,0
-7,295,0,0,0,0,0,0,0,0,0,-1,1217,729,0,0
0,295,0,0,0,0,0,0,0,0,0,-1,1224,729,0,0
7,295,0,0,0,0,0,0,0,0,0,-1,1231,729,0,0
14,295,0,0,0,0,0,0,0,0,0,-1,1238,729,0,0
21,295,0,0,0,0,0,0,0,0,0,-1,1245,729,0,0
28,295,0,0,0,0,0,0,0,0,0,-1,1252,729,0,0
35,295,0,0,0,0,0,0,0,0,0,-1,1259,729,0,0
42,295,0,0,0,0,0,0,0,0,0,-1,1266,729,0,0
49,295,0,0,0,0,0,0,0,0,0,-1,1273,729,0,0
56,295,0,0,0,0,0,0,0,0,0,-1,1280,729,0,0
63,295,0,0,0,0,0,0,0,0,0,-1,1287,729,0,0
70,295,0,0,0,0,0,0,0,0,0,-1,1294,729,0,0
77,295,0,0,0,0,0,0,0,0,0,-1,1301,729,0,0
84,295,0,0,0,0,0,0,0,0,0,-1,1308,729,0,0
91,295,0,0,0,0,0,0,0,0,0,-1,1315,729,0,0
98,295,0,0,0,0,0,0,0,0,0,-1,1322,729,0,0
105,295,0,0,0,0,0,0,0,0,0,-1,1329,729,0,0
112,295,0,0,0,0,0,0,0,0,0,-1,1336,729,0,0
119,295,0,0,0,0,0,0,0,0,0,-1,1343,729,0,0
126,295,0,0,0,0,0,0,0,0,0,-1,1350,729,0,0
133,295,0,0,0,0,0,0,0,0,0,-1,1357,729,0,0
140,295,0,0,0,0,0,0,0,0,0,-1,1364,729,0,0
147,295,0,0,0,0,0,0,0,0,0,-1,1371,729,0,0
154,295,0,0,0,0,0,0,0,0,0,-1,1378,729,0,0
161,295,0,0,0,0,0,0,0,0,0,-1,1385,729,0,0
168,295,0,0,0,0,0,0,0,0,0,-1,1392,729,0,0
175,295,0,0,0,0,0,0,0,0,0,-1,1399,729,0,0
182,295,0,0,0,0,0,0,0,0,0,-1,1406,729,0,0
189,295,0,0,0,0,0,0,0,0,0,-1,1413,729,0,0
196,295,0,0,0,0,0,0,0,0,0,-1,1420,729,0,0
203,295,0,0,0,0,0,0,0,0,0,-1,1427,729,0,0
210,295,0,0,0,0,0,0,0,0,0,-1,1434,729,0,0
217,295,0,0,0,0,0,0,0,0,0,-1,1441,729,0,0
224,295,0,0,0,0,0,0,0,0,0,-1,1448,729,0,0
231,295,0,0,0,0,0,0,0,0,0,-1,1455,729,0,0
238,295,0,0,0,0,0,0,0,0,0,-1,1462,729,0,0
245,295,0,0,0,0,0,0,0,0,0,-1,1469,729,0,0
252,295,0,0,0,0,0,0,0,0,0,-1,1476,729,0,0
259,295,0,0,0,0,0,0,0,0,0,-1,1483,729,0,0
266,295,0,0,0,0,0,0,0,0,0,-1,1490,729,0,0
273,295,0,0,0,0,0,0,0,0,0,-1,1497,729,0,0
280,295,0,0,0,0,0,0,0,0,0,-1,1504,729,0,0
287,295,0,0,0,0,0,0,0,0,0,-1,1511,729,0,0
294,295,0,0,0,0,0,0,0,0,0,-1,1518,729,0,0
301,295,0,0,0,0,0,0,0,0,0,-1,1525,729,0,0
308,295,0,0,0,0,0,0,0,0,0,-1,1532,729,0,0
315,295,0,0,0,0,0,0,0,0,0,-1,1539,729,0,0
322,295,0,0,0,0,0,0,0,0,0,-1,1546,729,0,0
329,295,0,0,0,0,0,0,0,0,0,-1,1553,729,0,0
336,295,0,0,0,0,0,0,0,0,0,-1,1560,729,0,0
343,295,0,0,0,0,0,0,0,0,0,-1,1567,729,0,0
350,295,0,0,0,0,0,0,0,0,0,-1,1574,729,0,0
357,295,0,0,0,0,0,0,0,0,0,-1,1581,729,0,0
364,295,0,0,0,0,0,0,0,0,0,-1,1588,729,0,0
371,295,0,0,0,0,0,0,0,0,0,-1,1595,729,0,0
378,295,0,0,0,0,0,0,0,0,0,-1,1602,729,0,0
385,295,0,0,0,0,0,0,0,0,0,-1,1609,729,0,0
392,295,0,0,0,0,0,0,0,0,0,-1,1616,729,0,0
399,295,0,0,0,0,0,0,0,0,0,-1,1623,729,0,0
406,295,0,0,0,0,0,0,0,0,0,-1,1630,729,0,0
413,295,0,0,0,0,0,0,0,0,0,-1,1637,729,0,0
420,295,0,0,0,0,0,0,0,0,0,-1,1644,729,0,0
427,295,0,0,0,0,0,0,0,0,0,-1,1651,729,0,0
434,295,0,0,0,0,0,0,0,0,0,-1,1658,729,0,0
441,295,0,0,0,0,0,0,0,0,0,-1,1665,729,0,0
448,295,0,0,0,0,0,0,0,0,0,-1,1672,729,0,0
455,295,0,0,0,0,0,0,0,0,0,-1,1679,729,0,0
462,295,0,0,0,0,0,0,0,0,0,-1,1686,729,0,0
469,295,0,0,0,0,0,0,0,0,0,-1,1693,729,0,0
476,295,0,0,0,0,0,0,0,0,0,-1,1700,729,0,0
483,295,0,0,0,0,0,0,0,0,0,-1,1707,729,0,0
490,295,0,0,0,0,0,0,0,0,0,-1,1714,729,0,0
497,295,0,0,0,0,0,0,0,0,0,-1,1721,729,0,0
504,295,0,0,0,0,0,0,0,0,0,-1,1728,729,0,0
511,295,0,0,0,0,0,0,0,0,0,-1,1735,729,0,0
518,295,0,0,0,0,0,0,0,0,0,-1,1742,729,0,0
525,295,0,0,0,0,0,0,0,0,0,-1,1749,729,0,0
532,295,0,0,0,0,0,0,0,0,0,-1,1756,729,0,0
539,295,0,0,0,0,0,0,0,0,0,-1,1763,729,0,0
546,295,57.4674,2.36884,0,0,0,0,0,0,0,-1,1770,729,57.4674,-2.36883
553,295,57.1969,2.73846,0,0,0,0,0,0,0,-1,1777,729,57.197,-2.73843
560,295,57.0291,3.27454,0,0,0,0,0,0,0,-1,1784,729,57.029,-3.27454
567,295,56.6243,3.88239,0,0,0,0,0,0,0,-1,1791,729,56.6242,-3.8824
574,295,56.5275,4.755,0,0,0,0,0,0,0,-1,1798,729,56.5274,-4.75501
581,295,37.8191,2.19592,0,0,0,0,0,0,0,-1,1805,729,37.8191,-2.19594
588,295,39.0542,2.45679,0,0,0,0,0,0,0,-1,1812,729,39.0542,-2.45676
595,295,27.2102,6.99121,0,0,0,0,0,0,0,-1,1819,729,27.2103,-6.99121
602,295,26.9065,7.82141,0,0,0,0,0,0,0,-1,1826,729,26.9064,-7.8214
609,295,11.7737,2.19989,0,0,0,0,0,0,0,-1,1833,729,11.7736,-2.19988
616,295,36.0245,-7.05145,0,0,0,0,0,0,0,-1,1840,729,36.0246,7.05143
623,295,35.9865,-6.36249,0.0027451,-0.00214864,1.24938e-05,0.00274513,-0.00214867,0.00255301,0.00283242,0.0315373,1847,729,35.9865,6.36248
630,295,35.96,-5.65936,0.00191424,-0.00192684,-0.000116814,0.00191779,-0.00193039,-0.0303744,0.00222175,0.0123604,1854,729,35.9599,5.65935
637,295,35.9307,-4.94226,0.00133876,-0.00157691,-5.22924e-05,0.0013397,-0.00157785,-0.0179273,0.00168632,0.0139314,1861,729,35.9306,4.94224
644,295,35.9124,-4.21442,0.00111747,-0.00104512,8.60429e-05,0.00112089,-0.00104853,0.0397033,0.00125275,0.0131623,1868,729,35.9124,4.21442
651,295,35.8976,-3.4823,0.00119416,-0.000326827,0.000327358,0.00126162,-0.000394291,0.20324,0.000998802,0.0138317,1875,729,35.8976,3.48232
658,295,35.8646,-2.73798,0.00135675,0.000421904,0.000609068,0.00165708,0.000121571,0.458114,0.00106651,0.0137724,1882,729,35.8647,2.73795
665,295,35.8242,-2.01984,0.00161263,0.00120372,0.000936639,0.00236687,0.000449478,0.677941,0.00145147,0.0122325,1889,729,35.8242,2.01981
672,295,35.7744,-1.31293,0.00195778,0.00201076,0.00131126,0.0032958,0.00067274,0.795498,0.00201082,0.0137416,1896,729,35.7744,1.3129
679,295,35.7411,-0.559143,0.00237329,0.00288651,0.00168094,0.00433032,0.000929478,0.861143,0.00263233,0.0110523,1903,729,35.7411,0.55917
686,295,35.7612,0.172485,0.00287984,0.0038543,0.00207148,0.00549508,0.00123906,0.900903,0.00332816,0.0122754,1910,729,35.7612,-0.172514
693,295,35.7841,0.897949,0,0,0,0,0,0,0,-1,1917,729,35.7841,-0.897942
700,295,31.3757,2.06982,0,0,0,0,0,0,0,-1,1924,729,31.3758,-2.0698
707,295,22.2661,3.05206,0,0,0,0,0,0,0,-1,1931,729,22.2662,-3.05207
714,295,17.4906,4.63068,0,0,0,0,0,0,0,-1,1938,729,17.4906,-4.63066
721,295,18.3792,5.32281,0,0,0,0,0,0,0,-1,1945,729,18.3791,-5.32283
728,295,17.379,3.74866,0,0,0,0,0,0,0,-1,1952,729,17.379,-3.74863
735,295,0,0,0,0,0,0,0,0,0,-1,1959,729,0,0
742,295,0,0,0,0,0,0,0,0,0,-1,1966,729,0,0
749,295,0,0,0,0,0,0,0,0,0,-1,1973,729,0,0
756,295,0,0,0,0,0,0,0,0,0,-1,1980,729,0,0
763,295,0,0,0,0,0,0,0,0,0,-1,1987,729,0,0
770,295,0,0,0,0,0,0,0,0,0,-1,1994,729,0,0
777,295,0,0,0,0,0,0,0,0,0,-1,2001,729,0,0
784,295,0,0,0,0,0,0,0,0,0,-1,2008,729,0,0
791,295,0,0,0,0,0,0,0,0,0,-1,2015,729,0,0
798,295,0,0,0,0,0,0,0,0,0,-1,2022,729,0,0
805,295,0,0,0,0,0,0,0,0,0,-1,2029,729,0,0
812,295,0,0,0,0,0,0,0,0,0,-1,2036,729,0,0
-700,288,0,0,0,0,0,0,0,0,0,-1,524,736,0,0
-693,288,0,0,0,0,0,0,0,0,0,-1,531,736,0,0
-686,288,0,0,0,0,0,0,0,0,0,-1,538,736,0,0
-679,288,0,0,0,0,0,0,0,0,0,-1,545,736,0,0
-672,288,0,0,0,0,0,0,0,0,0,-1,552,736,0,0
-665,288,0,0,0,0,0,0,0,0,0,-1,559,736,0,0
-658,288,0,0,0,0,0,0,0,0,0,-1,566,736,0,0
-651,288,0,0,0,0,0,0,0,0,0,-1,573,736,0,0
-644,288,0,0,0,0,0,0,0,0,0,-1,580,736,0,0
-637,288,0,0,0,0,0,0,0,0,0,-1,587,736,0,0
-630,288,0,0,0,0,0,0,0,0,0,-1,594,736,0,0
-623,288,0,0,0,0,0,0,0,0,0,-1,601,736,0,0
-616,288,-11.7584,2.4425,0,0,0,0,0,0,0,-1,608,736,-11.7584,-2.44251
-609,288,-10.3007,2.32178,0,0,0,0,0,0,0,-1,615,736,-10.3007,-2.32178
-602,288,-10.1458,-1.85559,0,0,0,0,0,0,0,-1,622,736,-10.1458,1.85556
-595,288,-7.63208,1.81769,0,0,0,0,0,0,0,-1,629,736,-7.63205,-1.81766
-588,288,-8.19269,1.50598,0,0,0,0,0,0,0,-1,636,736,-8.19268,-1.50601
-581,288,-13.1915,0.659241,0,0,0,0,0,0,0,-1,643,736,-13.1915,-0.659228
-574,288,-23.4306,-0.0130615,0,0,0,0,0,0,0,-1,650,736,-23.4306,0.0130552
-567,288,-23.6016,-0.751648,0.00434571,0.00757855,0.00118131,0.00796421,0.00396006,1.25524,0.00459816,0.0375856,657,736,-23.6015,0.751662
-560,288,-23.8741,-1.52509,0.00277413,0.00532652,0.000784045,0.00554812,0.00255253,1.29534,0.00320661,0.0172282,664,736,-23.8741,1.52507
-553,288,-23.8727,-2.159,0.00193439,0.00362575,0.000558013,0.00379325,0.00176688,1.27917,0.00219174,0.0183424,671,736,-23.8727,2.15903
-546,288,-23.938,-2.85437,0.00132979,0.00206622,0.00057818,0.00238348,0.00101253,1.06894,0.00138128,0.0203044,678,736,-23.938,2.85439
-539,288,-23.9866,-3.53125,0.000575935,0.000726868,0.0007411,0.00139633,-9.35313e-05,0.836138,0.000963581,0.0175276,685,736,-23.9866,3.53124
-532,288,-23.9625,-4.22717,0.000132338,-0.000813511,0.000975594,0.000743591,-0.00142476,0.559709,0.00127232,0.0142437,692,736,-23.9624,4.22716
-525,288,-24.0005,-4.95428,-5.30798e-05,-0.00178942,0.00140002,0.000726108,-0.0025686,0.507861,0.00199889,0.0125445,699,736,-24.0005,4.95429
-518,288,-24.0593,-5.6684,-0.00171178,-0.00191808,0.00168864,-0.000123137,-0.00350672,0.754894,0.00229787,0.0117166,706,736,-24.0592,5.66839
-511,288,-24.0872,-6.36542,-0.00409746,-0.00227545,0.00137982,-0.00153303,-0.00483989,1.07717,0.00285618,0.00942735,713,736,-24.0871,6.3654
-504,288,-24.0878,-7.05231,-0.00615611,-0.00327322,0.00206196,-0.00219882,-0.0072305,1.09045,0.00428,0.0115869,720,736,-24.0878,7.05233
-497,288,-24.1177,-7.54114,-0.00874689,-0.00567824,0.00494528,-0.00203473,-0.0123904,0.93582,0.00767249,0.0348739,727,736,-24.1177,7.54113
-490,288,-24.0664,-7.97766,0,0,0,0,0,0,0,-1,734,736,-24.0664,7.97769
-483,288,-17.3287,0.564758,0,0,0,0,0,0,0,-1,741,736,-17.3287,-0.56477
-476,288,-26.136,0.452148,0,0,0,0,0,0,0,-1,748,736,-26.136,-0.452177
-469,288,-27.7904,0.649841,0,0,0,0,0,0,0,-1,755,736,-27.7904,-0.649854
-462,288,-43.7048,-0.820862,0,0,0,0,0,0,0,-1,762,736,-43.7048,0.820842
-455,288,-44.0252,-0.553467,-0.0157229,-0.0450776,0.0508871,0.0225613,-0.0833618,0.644994,0.0644255,0.0496156,769,736,-44.0252,0.553495
-448,288,-44.3021,-0.129333,-0.0146746,-0.0570675,0.0653554,0.0328357,-0.104578,0.628587,0.0828616,0.0437659,776,736,-44.3021,0.12932
-441,288,-44.4026,0.474121,-0.0120485,-0.0703347,0.0813054,0.0451791,-0.127562,0.613311,0.103444,0.0425283,783,736,-44.4026,-0.474094
-434,288,-44.3885,0.647339,-0.00697117,-0.0817461,0.0944947,0.0572636,-0.145981,0.59702,0.121012,0.045119,790,736,-44.3885,-0.647318
-427,288,0,0,0,0,0,0,0,0,0,-1,797,736,0,0
-420,288,0,0,0,0,0,0,0,0,0,-1,804,736,0,0
-413,288,0,0,0,0,0,0,0,0,0,-1,811,736,0,0
-406,288,0,0,0,0,0,0,0,0,0,-1,818,736,0,0
-399,288,0,0,0,0,0,0,0,0,0,-1,825,736,0,0
-392,288,0,0,0,0,0,0,0,0,0,-1,832,736,0,0
-385,288,0,0,0,0,0,0,0,0,0,-1,839,736,0,0
-378,288,0,0,0,0,0,0,0,0,0,-1,846,736,0,0
-371,288,0,0,0,0,0,0,0,0,0,-1,853,736,0,0
-364,288,0,0,0,0,0,0,0,0,0,-1,860,736,0,0
-357,288,0,0,0,0,0,0,0,0,0,-1,867,736,0,0
-350,288,0,0,0,0,0,0,0,0,0,-1,874,736,0,0
-343,288,0,0,0,0,0,0,0,0,0,-1,881,736,0,0
-336,288,0,0,0,0,0,0,0,0,0,-1,888,736,0,0
-329,288,0,0,0,0,0,0,0,0,0,-1,895,736,0,0
-322,288,0,0,0,0,0,0,0,0,0,-1,902,736,0,0
-315,288,0,0,0,0,0,0,0,0,0,-1,909,736,0,0
-308,288,0,0,0,0,0,0,0,0,0,-1,916,736,0,0
-301,288,0,0,0,0,0,0,0,0,0,-1,923,736,0,0
-294,288,0,0,0,0,0,0,0,0,0,-1,930,736,0,0
-287,288,0,0,0,0,0,0,0,0,0,-1,937,736,0,0
-280,288,0,0,0,0,0,0,0,0,0,-1,944,736,0,0
-273,288,0,0,0,0,0,0,0,0,0,-1,951,736,0,0
-266,288,0,0,0,0,0,0,0,0,0,-1,958,736,0,0
-259,288,0,0,0,0,0,0,0,0,0,-1,965,736,0,0
-252,288,0,0,0,0,0,0,0,0,0,-1,972,736,0,0
-245,288,0,0,0,0,0,0,0,0,0,-1,979,736,0,0
-238,288,0,0,0,0,0,0,0,0,0,-1,986,736,0,0
-231,288,0,0,0,0,0,0,0,0,0,-1,993,736,0,0
-224,288,0,0,0,0,0,0,0,0,0,-1,1000,736,0,0
-217,288,0,0,0,0,0,0,0,0,0,-1,1007,736,0,0
-210,288,0,0,0,0,0,0,0,0,0,-1,1014,736,0,0
-203,288,0,0,0,0,0,0,0,0,0,-1,1021,736,0,0
-196,288,0,0,0,0,0,0,0,0,0,-1,1028,736,0,0
-189,288,0,0,0,0,0,0,0,0,0,-1,1035,736,0,0
-182,288,0,0,0,0,0,0,0,0,0,-1,1042,736,0,0
-175,288,0,0,0,0,0,0,0,0,0,-1,1049,736,0,0
-168,288,0,0,0,0,0,0,0,0,0,-1,1056,736,0,0
-161,288,0,0,0,0,0,0,0,0,0,-1,1063,736,0,0
-154,288,0,0,0,0,0,0,0,0,0,-1,1070,736,0,0
-147,288,0,0,0,0,0,0,0,0,0,-1,1077,736,0,0
-140,288,0,0,0,0,0,0,0,0,0,-1,1084,736,0,0
-133,288,0,0,0,0,0,0,0,0,0,-1,1091,736,0,0
-126,288,0,0,0,0,0,0,0,0,0,-1,1098,736,0,0
-119,288,0,0,0,0,0,0,0,0,0,-1,1105,736,0,0
-112,288,0,0,0,0,0,0,0,0,0,-1,1112,736,0,0
-105,288,0,0,0,0,0,0,0,0,0,-1,1119,736,0,0
-98,288,0,0,0,0,0,0,0,0,0,-1,1126,736,0,0
-91,288,0,0,0,0,0,0,0,0,0,-1,1133,736,0,0
-84,288,0,0,0,0,0,0,0,0,0,-1,1140,736,0,0
-77,288,0,0,0,0,0,0,0,0,0,-1,1147,736,0,0
-70,288,0,0,0,0,0,0,0,0,0,-1,1154,736,0,0
-63,288,0,0,0,0,0,0,0,0,0,-1,1161,736,0,0
-56,288,0,0,0,0,0,0,0,0,0,-1,1168,736,0,0
-49,288,0,0,0,0,0,0,0,0,0,-1,1175,736,0,0
-42,288,0,0,0,0,0,0,0,0,0,-1,1182,736,0,0
-35,288,0,0,0,0,0,0,0,0,0,-1,1189,736,0,0
-28,288,0,0,0,0,0,0,0,0,0,-1,1196,736,0,0
-21,288,0,0,0,0,0,0,0,0,0,-1,1203,736,0,0
-14,288,0,0,0,0,0,0,0,0,0,-1,1210,736,0,0
-7,288,0,0,0,0,0,0,0,0,0,-1,1217,736,0,0
0,288,0,0,0,0,0,0,0,0,0,-1,1224,736,0,0
7,288,0,0,0,0,0,0,0,0,0,-1,1231,736,0,0
14,288,0,0,0,0,0,0,0,0,0,-1,1238,736,0,0
21,288,0,0,0,0,0,0,0,0,0,-1,1245,736,0,0
28,288,0,0,0,0,0,0,0,0,0,-1,1252,736,0,0
35,288,0,0,0,0,0,0,0,0,0,-1,1259,736,0,0
42,288,0,0,0,0,0,0,0,0,0,-1,1266,736,0,0
49,288,0,0,0,0,0,0,0,0,0,-1,1273,736,0,0
56,288,0,0,0,0,0,0,0,0,0,-1,1280,736,0,0
63,288,0,0,0,0,0,0,0,0,0,-1,1287,736,0,0
70,288,0,0,0,0,0,0,0,0,0,-1,1294,736,0,0
77,288,0,0,0,0,0,0,0,0,0,-1,1301,736,0,0
84,288,0,0,0,0,0,0,0,0,0,-1,1308,736,0,0
91,288,0,0,0,0,0,0,0,0,0,-1,1315,736,0,0
98,288,0,0,0,0,0,0,0,0,0,-1,1322,736,0,0
105,288,0,0,0,0,0,0,0,0,0,-1,1329,736,0,0
112,288,0,0,0,0,0,0,0,0,0,-1,1336,736,0,0
119,288,0,0,0,0,0,0,0,0,0,-1,1343,736,0,0
126,288,0,0,0,0,0,0,0,0,0,-1,1350,736,0,0
133,288,0,0,0,0,0,0,0,0,0,-1,1357,736,0,0
140,288,0,0,0,0,0,0,0,0,0,-1,1364,736,0,0
147,288,0,0,0,0,0,0,0,0,0,-1,1371,736,0,0
154,288,0,0,0,0,0,0,0,0,0,-1,1378,736,0,0
161,288,0,0,0,0,0,0,0,0,0,-1,1385,736,0,0
168,288,0,0,0,0,0,0,0,0,0,-1,1392,736,0,0
175,288,0,0,0,0,0,0,0,0,0,-1,1399,736,0,0
182,288,0,0,0,0,0,0,0,0,0,-1,1406,736,0,0
189,288,0,0,0,0,0,0,0,0,0,-1,1413,736,0,0
196,288,0,0,0,0,0,0,0,0,0,-1,1420,736,0,0
203,288,0,0,0,0,0,0,0,0,0,-1,1427,736,0,0
210,288,0,0,0,0,0,0,0,0,0,-1,1434,736,0,0
217,288,0,0,0,0,0,0,0,0,0,-1,1441,736,0,0
224,288,0,0,0,0,0,0,0,0,0,-1,1448,736,0,0
231,288,0,0,0,0,0,0,0,0,0,-1,1455,736,0,0
238,288,0,0,0,0,0,0,0,0,0,-1,1462,736,0,0
245,288,0,0,0,0,0,0,0,0,0,-1,1469,736,0,0
252,288,0,0,0,0,0,0,0,0,0,-1,1476,736,0,0
259,288,0,0,0,0,0,0,0,0,0,-1,1483,736,0,0
266,288,0,0,0,0,0,0,0,0,0,-1,1490,736,0,0
273,288,0,0,0,0,0,0,0,0,0,-1,1497,736,0,0
280,288,0,0,0,0,0,0,0,0,0,-1,1504,736,0,0
287,288,0,0,0,0,0,0,0,0,0,-1,1511,736,0,0
294,288,0,0,0,0,0,0,0,0,0,-1,1518,736,0,0
301,288,0,0,0,0,0,0,0,0,0,-1,1525,736,0,0
308,288,0,0,0,0,0,0,0,0,0,-1,1532,736,0,0
315,288,0,0,0,0,0,0,0,0,0,-1,1539,736,0,0
322,288,0,0,0,0,0,0,0,0,0,-1,1546,736,0,0
329,288,0,0,0,0,0,0,0,0,0,-1,1553,736,0,0
336,288,0,0,0,0,0,0,0,0,0,-1,1560,736,0,0
343,288,0,0,0,0,0,0,0,0,0,-1,1567,736,0,0
350,288,0,0,0,0,0,0,0,0,0,-1,1574,736,0,0
357,288,0,0,0,0,0,0,0,0,0,-1,1581,736,0,0
364,288,0,0,0,0,0,0,0,0,0,-1,1588,736,0,0
371,288,0,0,0,0,0,0,0,0,0,-1,1595,736,0,0
378,288,0,0,0,0,0,0,0,0,0,-1,1602,736,0,0
385,288,0,0,0,0,0,0,0,0,0,-1,1609,736,0,0
392,288,0,0,0,0,0,0,0,0,0,-1,1616,736,0,0
399,288,0,0,0,0,0,0,0,0,0,-1,1623,736,0,0
406,288,0,0,0,0,0,0,0,0,0,-1,1630,736,0,0
413,288,0,0,0,0,0,0,0,0,0,-1,1637,736,0,0
420,288,0,0,0,0,0,0,0,0,0,-1,1644,736,0,0
427,288,0,0,0,0,0,0,0,0,0,-1,1651,736,0,0
434,288,0,0,0,0,0,0,0,0,0,-1,1658,736,0,0
441,288,0,0,0,0,0,0,0,0,0,-1,1665,736,0,0
448,288,0,0,0,0,0,0,0,0,0,-1,1672,736,0,0
455,288,0,0,0,0,0,0,0,0,0,-1,1679,736,0,0
462,288,0,0,0,0,0,0,0,0,0,-1,1686,736,0,0
469,288,0,0,0,0,0,0,0,0,0,-1,1693,736,0,0
476,288,0,0,0,0,0,0,0,0,0,-1,1700,736,0,0
483,288,0,0,0,0,0,0,0,0,0,-1,1707,736,0,0
490,288,0,0,0,0,0,0,0,0,0,-1,1714,736,0,0
497,288,0,0,0,0,0,0,0,0,0,-1,1721,736,0,0
504,288,0,0,0,0,0,0,0,0,0,-1,1728,736,0,0
511,288,0,0,0,0,0,0,0,0,0,-1,1735,736,0,0
518,288,0,0,0,0,0,0,0,0,0,-1,1742,736,0,0
525,288,0,0,0,0,0,0,0,0,0,-1,1749,736,0,0
532,288,0,0,0,0,0,0,0,0,0,-1,1756,736,0,0
539,288,0,0,0,0,0,0,0,0,0,-1,1763,736,0,0
546,288,0,0,0,0,0,0,0,0,0,-1,1770,736,0,0
553,288,57.4934,2.28064,0,0,0,0,0,0,0,-1,1777,736,57.4934,-2.28064
560,288,57.3807,3.02881,0,0,0,0,0,0,0,-1,1784,736,57.3808,-3.0288
567,288,57.2081,3.74274,0,0,0,0,0,0,0,-1,1791,736,57.2081,-3.74273
574,288,56.9817,4.36981,0,0,0,0,0,0,0,-1,1798,736,56.9816,-4.36984
581,288,53.4904,5.33215,0,0,0,0,0,0,0,-1,1805,736,53.4904,-5.33218
588,288,54.9313,3.29852,0,0,0,0,0,0,0,-1,1812,736,54.9313,-3.29849
595,288,47.035,3.35156,0,0,0,0,0,0,0,-1,1819,736,47.035,-3.35157
602,288,26.7634,7.61279,0,0,0,0,0,0,0,-1,1826,736,26.7635,-7.61279
609,288,17.5223,4.86414,0,0,0,0,0,0,0,-1,1833,736,17.5223,-4.86412
616,288,13.4886,0.801331,0,0,0,0,0,0,0,-1,1840,736,13.4886,-0.80132
623,288,36.6873,-6.33197,0,0,0,0,0,0,0,-1,1847,736,36.6872,6.33196
630,288,36.6975,-5.60614,0.00227295,-0.00193127,0.000451067,0.0023208,-0.00197912,0.105686,0.00248517,0.024868,1854,736,36.6975,5.60612
637,288,36.6755,-4.90906,0.00146616,-0.00175983,0.000293645,0.00149267,-0.00178634,0.0900387,0.00189567,0.0111911,1861,736,36.6755,4.90907
644,288,36.6523,-4.18274,0.00106236,-0.00135467,0.000221244,0.00108245,-0.00137475,0.0905329,0.00142201,0.0103736,1868,736,36.6523,4.18274
651,288,36.6206,-3.46136,0.0011256,-0.000640252,0.000308855,0.00117807,-0.000692714,0.168252,0.00109214,0.0111387,1875,736,36.6205,3.46138
658,288,36.5881,-2.68036,0.00130376,6.0639e-05,0.000515372,0.00148963,-0.000125232,0.346134,0.00103736,0.0164053,1882,736,36.5881,2.68036
665,288,36.5492,-1.94849,0.00154271,0.000842748,0.000846014,0.00210827,0.000277181,0.589276,0.00132284,0.0165987,1889,736,36.5492,1.94847
672,288,36.5181,-1.25482,0.00185509,0.00163585,0.00121321,0.00296362,0.000527319,0.740344,0.00182554,0.0161379,1896,736,36.5181,1.25482
679,288,36.4923,-0.513123,0.00222618,0.00248986,0.00155382,0.00391742,0.00079862,0.827723,0.0023903,0.0145128,1903,736,36.4923,0.513113
686,288,36.4453,0.173828,0.00267124,0.00342311,0.00190698,0.00499086,0.00110349,0.882719,0.00302721,0.0113354,1910,736,36.4453,-0.173804
693,288,36.4441,0.982483,0.00326249,0.00426417,0.0022356,0.00605434,0.00147232,0.895593,0.00364593,0.025261,1917,736,36.444,-0.982471
700,288,36.439,1.85455,0,0,0,0,0,0,0,-1,1924,736,36.4389,-1.85454
707,288,30.9496,3.07977,0,0,0,0,0,0,0,-1,1931,736,30.9496,-3.07975
714,288,23.0149,3.82544,0,0,0,0,0,0,0,-1,1938,736,23.0149,-3.82541
721,288,18.0732,3.69385,0,0,0,0,0,0,0,-1,1945,736,18.0732,-3.69387
728,288,19.3208,3.91455,0,0,0,0,0,0,0,-1,1952,736,19.3209,-3.91455
735,288,18.7712,3.51312,0,0,0,0,0,0,0,-1,1959,736,18.7713,-3.51309
742,288,0,0,0,0,0,0,0,0,0,-1,1966,736,0,0
749,288,0,0,0,0,0,0,0,0,0,-1,1973,736,0,0
756,288,0,0,0,0,0,0,0,0,0,-1,1980,736,0,0
763,288,0,0,0,0,0,0,0,0,0,-1,1987,736,0,0
770,288,0,0,0,0,0,0,0,0,0,-1,1994,736,0,0
777,288,0,0,0,0,0,0,0,0,0,-1,2001,736,0,0
784,288,0,0,0,0,0,0,0,0,0,-1,2008,736,0,0
791,288,0,0,0,0,0,0,0,0,0,-1,2015,736,0,0
798,288,0,0,0,0,0,0,0,0,0,-1,2022,736,0,0
805,288,0,0,0,0,0,0,0,0,0,-1,2029,736,0,0
812,288,0,0,0,0,0,0,0,0,0,-1,2036,736,0,0
-700,281,0,0,0,0,0,0,0,0,0,-1,524,743,0,0
-693,281,0,0,0,0,0,0,0,0,0,-1,531,743,0,0
-686,281,0,0,0,0,0,0,0,0,0,-1,538,743,0,0
-679,281,0,0,0,0,0,0,0,0,0,-1,545,743,0,0
-672,281,0,0,0,0,0,0,0,0,0,-1,552,743,0,0
-665,281,0,0,0,0,0,0,0,0,0,-1,559,743,0,0
-658,281,0,0,0,0,0,0,0,0,0,-1,566,743,0,0
-651,281,0,0,0,0,0,0,0,0,0,-1,573,743,0,0
-644,281,0,0,0,0,0,0,0,0,0,-1,580,743,0,0
-637,281,0,0,0,0,0,0,0,0,0,-1,587,743,0,0
-630,281,0,0,0,0,0,0,0,0,0,-1,594,743,0,0
-623,281,-19.1697,5.67017,0,0,0,0,0,0,0,-1,601,743,-19.1697,-5.67019
-616,281,-11.5906,2.6853,0,0,0,0,0,0,0,-1,608,743,-11.5906,-2.68529
-609,281,-16.1972,4.14838,0,0,0,0,0,0,0,-1,615,743,-16.1972,-4.14837
-602,281,-21.9772,6.77417,0,0,0,0,0,0,0,-1,622,743,-21.9771,-6.77415
-595,281,-10.4797,-1.07404,0,0,0,0,0,0,0,-1,629,743,-10.4798,1.07402
-588,281,-13.277,1.49817,0,0,0,0,0,0,0,-1,636,743,-13.2771,-1.49817
-581,281,-24.3927,0.665771,0,0,0,0,0,0,0,-1,643,743,-24.3927,-0.665741
-574,281,-24.3436,-0.0585327,0.00882126,0.00971763,0.00119157,0.0105425,0.00799638,0.965279,0.00635207,0.0428066,650,743,-24.3436,0.0585102
-567,281,-24.5388,-0.734436,0.00542269,0.00681259,0.000911218,0.00726362,0.00497166,1.11118,0.00428773,0.0212106,657,743,-24.5388,0.734451
-560,281,-24.6086,-1.44,0.00326468,0.00467304,0.000720559,0.00497637,0.00296135,1.17235,0.00289037,0.00893554,664,743,-24.6087,1.43998
-553,281,-24.5999,-2.13568,0.00194303,0.00293822,0.000689939,0.00329128,0.00158997,1.09781,0.00190058,0.0142834,671,743,-24.5999,2.13566
-546,281,-24.6352,-2.79877,0.00101961,0.00131532,0.000851465,0.00203167,0.000303258,0.871367,0.00126553,0.0158386,678,743,-24.6352,2.79877
-539,281,-24.6606,-3.50348,9.94116e-06,-7.61951e-05,0.00113402,0.00110171,-0.00116797,0.766418,0.00131059,0.0137013,685,743,-24.6606,3.5035
-532,281,-24.6754,-4.17828,-0.000545747,-0.00160068,0.0014639,0.000482811,-0.00262924,0.61248,0.00193396,0.0135377,692,743,-24.6754,4.17828
-525,281,-24.729,-4.91534,-0.000778923,-0.00234971,0.00196031,0.000547469,-0.00367611,0.594865,0.00265213,0.0154275,699,743,-24.729,4.91533
-518,281,-24.7692,-5.6571,-0.00287708,-0.00203683,0.00219964,-0.00021755,-0.00469636,0.87976,0.00306097,0.0129414,706,743,-24.7691,5.65708
-511,281,-24.7975,-6.34698,-0.00551342,-0.00218019,0.00167846,-0.00148147,-0.00621214,1.17633,0.00374655,0.0125334,713,743,-24.7975,6.34696
-504,281,-24.848,-7.02887,-0.00747538,-0.00296988,0.0021755,-0.0020909,-0.00835435,1.18682,0.00501991,0.0171041,720,743,-24.848,7.02889
-497,281,-24.747,-7.53278,0,0,0,0,0,0,0,-1,727,743,-24.747,7.53276
-490,281,-24.1506,-8.3985,0,0,0,0,0,0,0,-1,734,743,-24.1506,8.3985
-483,281,-22.1078,-2.34973,0,0,0,0,0,0,0,-1,741,743,-22.1078,2.3497
-476,281,-28.0016,2.17786,0,0,0,0,0,0,0,-1,748,743,-28.0016,-2.17786
-469,281,-34.6448,0.171692,0,0,0,0,0,0,0,-1,755,743,-34.6448,-0.171685
-462,281,-44.7831,0.0830688,0,0,0,0,0,0,0,-1,762,743,-44.7831,-0.0830539
-455,281,-44.8399,0.0640259,0,0,0,0,0,0,0,-1,769,743,-44.8399,-0.0640023
-448,281,-44.8966,0.0449219,0,0,0,0,0,0,0,-1,776,743,-44.8966,-0.0449506
-441,281,-45.1461,1.35651,0,0,0,0,0,0,0,-1,783,743,-45.146,-1.3565
-434,281,0,0,0,0,0,0,0,0,0,-1,790,743,0,0
-427,281,0,0,0,0,0,0,0,0,0,-1,797,743,0,0
-420,281,0,0,0,0,0,0,0,0,0,-1,804,743,0,0
-413,281,0,0,0,0,0,0,0,0,0,-1,811,743,0,0
-406,281,0,0,0,0,0,0,0,0,0,-1,818,743,0,0
-399,281,0,0,0,0,0,0,0,0,0,-1,825,743,0,0
-392,281,0,0,0,0,0,0,0,0,0,-1,832,743,0,0
-385,281,0,0,0,0,0,0,0,0,0,-1,839,743,0,0
-378,281,0,0,0,0,0,0,0,0,0,-1,846,743,0,0
-371,281,0,0,0,0,0,0,0,0,0,-1,853,743,0,0
-364,281,0,0,0,0,0,0,0,0,0,-1,860,743,0,0
-357,281,0,0,0,0,0,0,0,0,0,-1,867,743,0,0
-350,281,0,0,0,0,0,0,0,0,0,-1,874,743,0,0
-343,281,0,0,0,0,0,0,0,0,0,-1,881,743,0,0
-336,281,0,0,0,0,0,0,0,0,0,-1,888,743,0,0
-329,281,0,0,0,0,0,0,0,0,0,-1,895,743,0,0
-322,281,0,0,0,0,0,0,0,0,0,-1,902,743,0,0
-315,281,0,0,0,0,0,0,0,0,0,-1,909,743,0,0
-308,281,0,0,0,0,0,0,0,0,0,-1,916,743,0,0
-301,281,0,0,0,0,0,0,0,0,0,-1,923,743,0,0
-294,281,0,0,0,0,0,0,0,0,0,-1,930,743,0,0
-287,281,0,0,0,0,0,0,0,0,0,-1,937,743,0,0
-280,281,0,0,0,0,0,0,0,0,0,-1,944,743,0,0
-273,281,0,0,0,0,0,0,0,0,0,-1,951,743,0,0
-266,281,0,0,0,0,0,0,0,0,0,-1,958,743,0,0
-259,281,0,0,0,0,0,0,0,0,0,-1,965,743,0,0
-252,281,0,0,0,0,0,0,0,0,0,-1,972,743,0,0
-245,281,0,0,0,0,0,0,0,0,0,-1,979,743,0,0
-238,281,0,0,0,0,0,0,0,0,0,-1,986,743,0,0
-231,281,0,0,0,0,0,0,0,0,0,-1,993,743,0,0
-224,281,0,0,0,0,0,0,0,0,0,-1,1000,743,0,0
-217,281,0,0,0,0,0,0,0,0,0,-1,1007,743,0,0
-210,281,0,0,0,0,0,0,0,0,0,-1,1014,743,0,0
-203,281,0,0,0,0,0,0,0,0,0,-1,1021,743,0,0
-196,281,0,0,0,0,0,0,0,0,0,-1,1028,743,0,0
-189,281,0,0,0,0,0,0,0,0,0,-1,1035,743,0,0
-182,281,0,0,0,0,0,0,0,0,0,-1,1042,743,0,0
-175,281,0,0,0,0,0,0,0,0,0,-1,1049,743,0,0
-168,281,0,0,0,0,0,0,0,0,0,-1,1056,743,0,0
-161,281,0,0,0,0,0,0,0,0,0,-1,1063,743,0,0
-154,281,0,0,0,0,0,0,0,0,0,-1,1070,743,0,0
-147,281,0,0,0,0,0,0,0,0,0,-1,1077,743,0,0
-140,281,0,0,0,0,0,0,0,0,0,-1,1084,743,0,0
-133,281,0,0,0,0,0,0,0,0,0,-1,1091,743,0,0
-126,281,0,0,0,0,0,0,0,0,0,-1,1098,743,0,0
-119,281,0,0,0,0,0,0,0,0,0,-1,1105,743,0,0
-112,281,0,0,0,0,0,0,0,0,0,-1,1112,743,0,0
-105,281,0,0,0,0,0,0,0,0,0,-1,1119,743,0,0
-98,281,0,0,0,0,0,0,0,0,0,-1,1126,743,0,0
-91,281,0,0,0,0,0,0,0,0,0,-1,1133,743,0,0
-84,281,0,0,0,0,0,0,0,0,0,-1,1140,743,0,0
-77,281,0,0,0,0,0,0,0,0,0,-1,1147,743,0,0
-70,281,0,0,0,0,0,0,0,0,0,-1,1154,743,0,0
-63,281,0,0,0,0,0,0,0,0,0,-1,1161,743,0,0
-56,281,0,0,0,0,0,0,0,0,0,-1,1168,743,0,0
-49,281,0,0,0,0,0,0,0,0,0,-1,1175,743,0,0
-42,281,0,0,0,0,0,0,0,0,0,-1,1182,743,0,0
-35,281,0,0,0,0,0,0,0,0,0,-1,1189,743,0,0
-28,281,0,0,0,0,0,0,0,0,0,-1,1196,743,0,0
-21,281,0,0,0,0,0,0,0,0,0,-1,1203,743,0,0
-14,281,0,0,0,0,0,0,0,0,0,-1,1210,743,0,0
-7,281,0,0,0,0,0,0,0,0,0,-1,1217,743,0,0
0,281,0,0,0,0,0,0,0,0,0,-1,1224,743,0,0
7,281,0,0,0,0,0,0,0,0,0,-1,1231,743,0,0
14,281,0,0,0,0,0,0,0,0,0,-1,1238,743,0,0
21,281,0,0,0,0,0,0,0,0,0,-1,1245,743,0,0
28,281,0,0,0,0,0,0,0,0,0,-1,1252,743,0,0
35,281,0,0,0,0,0,0,0,0,0,-1,1259,743,0,0
42,281,0,0,0,0,0,0,0,0,0,-1,1266,743,0,0
49,281,0,0,0,0,0,0,0,0,0,-1,1273,743,0,0
56,281,0,0,0,0,0,0,0,0,0,-1,1280,743,0,0
63,281,0,0,0,0,0,0,0,0,0,-1,1287,743,0,0
70,281,0,0,0,0,0,0,0,0,0,-1,1294,743,0,0
77,281,0,0,0,0,0,0,0,0,0,-1,1301,743,0,0
84,281,0,0,0,0,0,0,0,0,0,-1,1308,743,0,0
91,281,0,0,0,0,0,0,0,0,0,-1,1315,743,0,0
98,281,0,0,0,0,0,0,0,0,0,-1,1322,743,0,0
105,281,0,0,0,0,0,0,0,0,0,-1,1329,743,0,0
112,281,0,0,0,0,0,0,0,0,0,-1,1336,743,0,0
119,281,0,0,0,0,0,0,0,0,0,-1,1343,743,0,0
126,281,0,0,0,0,0,0,0,0,0,-1,1350,743,0,0
133,281,0,0,0,0,0,0,0,0,0,-1,1357,743,0,0
140,281,0,0,0,0,0,0,0,0,0,-1,1364,743,0,0
147,281,0,0,0,0,0,0,0,0,0,-1,1371,743,0,0
154,281,0,0,0,0,0,0,0,0,0,-1,1378,743,0,0
161,281,0,0,0,0,0,0,0,0,0,-1,1385,743,0,0
168,281,0,0,0,0,0,0,0,0,0,-1,1392,743,0,0
175,281,0,0,0,0,0,0,0,0,0,-1,1399,743,0,0
182,281,0,0,0,0,0,0,0,0,0,-1,1406,743,0,0
189,281,0,0,0,0,0,0,0,0,0,-1,1413,743,0,0
196,281,0,0,0,0,0,0,0,0,0,-1,1420,743,0,0
203,281,0,0,0,0,0,0,0,0,0,-1,1427,743,0,0
210,281,0,0,0,0,0,0,0,0,0,-1,1434,743,0,0
217,281,0,0,0,0,0,0,0,0,0,-1,1441,743,0,0
224,281,0,0,0,0,0,0,0,0,0,-1,1448,743,0,0
231,281,0,0,0,0,0,0,0,0,0,-1,1455,743,0,0
238,281,0,0,0,0,0,0,0,0,0,-1,1462,743,0,0
245,281,0,0,0,0,0,0,0,0,0,-1,1469,743,0,0
252,281,0,0,0,0,0,0,0,0,0,-1,1476,743,0,0
259,281,0,0,0,0,0,0,0,0,0,-1,1483,743,0,0
266,281,0,0,0,0,0,0,0,0,0,-1,1490,743,0,0
273,281,0,0,0,0,0,0,0,0,0,-1,1497,743,0,0
280,281,0,0,0,0,0,0,0,0,0,-1,1504,743,0,0
287,281,0,0,0,0,0,0,0,0,0,-1,1511,743,0,0
294,281,0,0,0,0,0,0,0,0,0,-1,1518,743,0,0
301,281,0,0,0,0,0,0,0,0,0,-1,1525,743,0,0
308,281,0,0,0,0,0,0,0,0,0,-1,1532,743,0,0
315,281,0,0,0,0,0,0,0,0,0,-1,1539,743,0,0
322,281,0,0,0,0,0,0,0,0,0,-1,1546,743,0,0
329,281,0,0,0,0,0,0,0,0,0,-1,1553,743,0,0
336,281,0,0,0,0,0,0,0,0,0,-1,1560,743,0,0
343,281,0,0,0,0,0,0,0,0,0,-1,1567,743,0,0
350,281,0,0,0,0,0,0,0,0,0,-1,1574,743,0,0
357,281,0,0,0,0,0,0,0,0,0,-1,1581,743,0,0
364,281,0,0,0,0,0,0,0,0,0,-1,1588,743,0,0
371,281,0,0,0,0,0,0,0,0,0,-1,1595,743,0,0
378,281,0,0,0,0,0,0,0,0,0,-1,1602,743,0,0
385,281,0,0,0,0,0,0,0,0,0,-1,1609,743,0,0
392,281,0,0,0,0,0,0,0,0,0,-1,1616,743,0,0
399,281,0,0,0,0,0,0,0,0,0,-1,1623,743,0,0
406,281,0,0,0,0,0,0,0,0,0,-1,1630,743,0,0
413,281,0,0,0,0,0,0,0,0,0,-1,1637,743,0,0
420,281,0,0,0,0,0,0,0,0,0,-1,1644,743,0,0
427,281,0,0,0,0,0,0,0,0,0,-1,1651,743,0,0
434,281,0,0,0,0,0,0,0,0,0,-1,1658,743,0,0
441,281,0,0,0,0,0,0,0,0,0,-1,1665,743,0,0
448,281,0,0,0,0,0,0,0,0,0,-1,1672,743,0,0
455,281,0,0,0,0,0,0,0,0,0,-1,1679,743,0,0
462,281,0,0,0,0,0,0,0,0,0,-1,1686,743,0,0
469,281,0,0,0,0,0,0,0,0,0,-1,1693,743,0,0
476,281,0,0,0,0,0,0,0,0,0,-1,1700,743,0,0
483,281,0,0,0,0,0,0,0,0,0,-1,1707,743,0,0
490,281,0,0,0,0,0,0,0,0,0,-1,1714,743,0,0
497,281,0,0,0,0,0,0,0,0,0,-1,1721,743,0,0
504,281,0,0,0,0,0,0,0,0,0,-1,1728,743,0,0
511,281,0,0,0,0,0,0,0,0,0,-1,1735,743,0,0
518,281,0,0,0,0,0,0,0,0,0,-1,1742,743,0,0
525,281,0,0,0,0,0,0,0,0,0,-1,1749,743,0,0
532,281,0,0,0,0,0,0,0,0,0,-1,1756,743,0,0
539,281,0,0,0,0,0,0,0,0,0,-1,1763,743,0,0
546,281,0,0,0,0,0,0,0,0,0,-1,1770,743,0,0
553,281,0,0,0,0,0,0,0,0,0,-1,1777,743,0,0
560,281,57.8354,3.06482,0,0,0,0,0,0,0,-1,1784,743,57.8354,-3.06479
567,281,57.6156,3.64508,0,0,0,0,0,0,0,-1,1791,743,57.6156,-3.64511
574,281,57.3431,4.17767,0,0,0,0,0,0,0,-1,1798,743,57.3431,-4.17769
581,281,57.0648,4.53906,0,0,0,0,0,0,0,-1,1805,743,57.0648,-4.53908
588,281,53.5422,6.00092,0,0,0,0,0,0,0,-1,1812,743,53.5422,-6.00092
595,281,54.8569,3.32269,0,0,0,0,0,0,0,-1,1819,743,54.857,-3.32269
602,281,45.9985,3.98254,0,0,0,0,0,0,0,-1,1826,743,45.9985,-3.98254
609,281,32.7925,1.28723,0,0,0,0,0,0,0,-1,1833,743,32.7925,-1.28722
616,281,21.3191,-0.253906,0,0,0,0,0,0,0,-1,1840,743,21.3191,0.253931
623,281,31.8741,-4.74182,0,0,0,0,0,0,0,-1,1847,743,31.8741,4.74184
630,281,37.4147,-5.60437,0,0,0,0,0,0,0,-1,1854,743,37.4147,5.60435
637,281,37.364,-4.87366,0.00137881,-0.00198302,0.000524476,0.00145873,-0.00206294,0.151223,0.00204319,0.0171107,1861,743,37.364,4.87364
644,281,37.3457,-4.14984,0.000825459,-0.00176565,0.000295732,0.000858783,-0.00179897,0.112211,0.00156613,0.0105903,1868,743,37.3457,4.14983
651,281,37.3433,-3.43732,0.000866223,-0.00109002,0.000218309,0.000890289,-0.00111408,0.109797,0.00115963,0.0116043,1875,743,37.3433,3.4373
658,281,37.3199,-2.68384,0.00107143,-0.000448936,0.000341903,0.00114478,-0.000522285,0.211329,0.000984594,0.0201586,1882,743,37.3199,2.68381
665,281,37.2632,-1.9516,0.00129731,0.00037044,0.000689822,0.00166491,2.83564e-06,0.489618,0.001109,0.0204607,1889,743,37.2632,1.95158
672,281,37.2443,-1.2099,0.00159497,0.00121381,0.00105936,0.00248076,0.000328017,0.696399,0.00155607,0.013731,1896,743,37.2443,1.20988
679,281,37.2261,-0.518677,0.00195192,0.00210906,0.00138904,0.00342175,0.00063923,0.81365,0.00210076,0.0222808,1903,743,37.2261,0.518669
686,281,37.1371,0.177246,0.00238163,0.00307035,0.00172493,0.00448496,0.000967016,0.883921,0.00272543,0.0175774,1910,743,37.1371,-0.177231
693,281,37.1134,0.911377,0.0029388,0.00398022,0.00203836,0.00556333,0.00135569,0.910451,0.00334972,0.0126561,1917,743,37.1134,-0.911349
700,281,37.0632,1.70593,0.00369197,0.00532024,0.00240093,0.00704131,0.0019709,0.94886,0.00419454,0.038387,1924,743,37.0632,-1.70591
707,281,36.8713,2.60669,0,0,0,0,0,0,0,-1,1931,743,36.8714,-2.6067
714,281,25.0125,2.5105,0,0,0,0,0,0,0,-1,1938,743,25.0124,-2.51053
721,281,16.9656,3.22174,0,0,0,0,0,0,0,-1,1945,743,16.9656,-3.22172
728,281,19.0251,3.63934,0,0,0,0,0,0,0,-1,1952,743,19.0252,-3.63932
735,281,19.0869,2.50311,0,0,0,0,0,0,0,-1,1959,743,19.0869,-2.5031
742,281,0,0,0,0,0,0,0,0,0,-1,1966,743,0,0
749,281,0,0,0,0,0,0,0,0,0,-1,1973,743,0,0
756,281,0,0,0,0,0,0,0,0,0,-1,1980,743,0,0
763,281,0,0,0,0,0,0,0,0,0,-1,1987,743,0,0
770,281,0,0,0,0,0,0,0,0,0,-1,1994,743,0,0
777,281,0,0,0,0,0,0,0,0,0,-1,2001,743,0,0
784,281,0,0,0,0,0,0,0,0,0,-1,2008,743,0,0
791,281,0,0,0,0,0,0,0,0,0,-1,2015,743,0,0
798,281,0,0,0,0,0,0,0,0,0,-1,2022,743,0,0
805,281,0,0,0,0,0,0,0,0,0,-1,2029,743,0,0
812,281,0,0,0,0,0,0,0,0,0,-1,2036,743,0,0
-700,274,0,0,0,0,0,0,0,0,0,-1,524,750,0,0
-693,274,0,0,0,0,0,0,0,0,0,-1,531,750,0,0
-686,274,0,0,0,0,0,0,0,0,0,-1,538,750,0,0
-679,274,0,0,0,0,0,0,0,0,0,-1,545,750,0,0
-672,274,0,0,0,0,0,0,0,0,0,-1,552,750,0,0
-665,274,0,0,0,0,0,0,0,0,0,-1,559,750,0,0
-658,274,0,0,0,0,0,0,0,0,0,-1,566,750,0,0
-651,274,0,0,0,0,0,0,0,0,0,-1,573,750,0,0
-644,274,0,0,0,0,0,0,0,0,0,-1,580,750,0,0
-637,274,0,0,0,0,0,0,0,0,0,-1,587,750,0,0
-630,274,0,0,0,0,0,0,0,0,0,-1,594,750,0,0
-623,274,-19.6909,5.12701,0,0,0,0,0,0,0,-1,601,750,-19.6908,-5.12703
-616,274,-17.9133,3.9024,0,0,0,0,0,0,0,-1,608,750,-17.9133,-3.90239
-609,274,-24.6671,5.62262,0,0,0,0,0,0,0,-1,615,750,-24.6671,-5.62263
-602,274,-24.7317,4.41864,0,0,0,0,0,0,0,-1,622,750,-24.7317,-4.41867
-595,274,-24.7495,3.23431,0,0,0,0,0,0,0,-1,629,750,-24.7495,-3.23433
-588,274,-24.9805,2.2334,0,0,0,0,0,0,0,-1,636,750,-24.9805,-2.23341
-581,274,-25.0775,1.12262,0,0,0,0,0,0,0,-1,643,750,-25.0775,-1.12264
-574,274,-25.0355,-0.0543213,0.0104847,0.00842294,0.000783557,0.0107486,0.00815895,0.324967,0.00647745,0.0277808,650,750,-25.0355,0.0543492
-567,274,-25.2501,-0.761169,0.00645557,0.00589677,0.000728663,0.00695657,0.00539578,0.602322,0.0042149,0.0263446,657,750,-25.2501,0.761165
-560,274,-25.2923,-1.39215,0.00378343,0.00393266,0.000730391,0.00459224,0.00312385,0.836302,0.00270815,0.0144417,664,750,-25.2923,1.39214
-553,274,-25.314,-2.10388,0.00202701,0.00223174,0.000869667,0.00300505,0.00125371,0.843981,0.00174288,0.00996576,671,750,-25.314,2.10387
-546,274,-25.3587,-2.79578,0.000760856,0.000599449,0.00117259,0.00185551,-0.000495208,0.75104,0.00143093,0.0117971,678,750,-25.3587,2.79575
-539,274,-25.3799,-3.49231,-0.000495114,-0.000782843,0.00156521,0.000932832,-0.00221079,0.73957,0.00186429,0.0118689,685,750,-25.38,3.49232
-532,274,-25.4065,-4.16827,-0.00109509,-0.00217765,0.00196418,0.000401032,-0.00367377,0.650948,0.00259321,0.0125259,692,750,-25.4065,4.16826
-525,274,-25.447,-4.86035,-0.00129663,-0.00260369,0.00250517,0.000638857,-0.00453917,0.657806,0.00326,0.013303,699,750,-25.447,4.86036
-518,274,-25.4717,-5.60175,-0.00366953,-0.00187689,0.00268114,5.37923e-05,-0.00560021,0.946711,0.00375153,0.0134639,706,750,-25.4717,5.60173
-511,274,-25.485,-6.30054,-0.0063697,-0.00189428,0.00199116,-0.00113665,-0.00712733,1.20722,0.00442164,0.0155478,713,750,-25.485,6.30055
-504,274,-25.6043,-7.03204,-0.00814752,-0.00249936,0.00230434,-0.00167852,-0.00896836,1.2286,0.00550536,0.0305143,720,750,-25.6043,7.03207
-497,274,-25.79,-7.80823,0,0,0,0,0,0,0,-1,727,750,-25.79,7.80822
-490,274,-13.6545,-3.58826,0,0,0,0,0,0,0,-1,734,750,-13.6546,3.58825
-483,274,-27.8608,1.30981,0,0,0,0,0,0,0,-1,741,750,-27.8608,-1.30979
-476,274,-33.7561,-0.508606,0,0,0,0,0,0,0,-1,748,750,-33.7561,0.508636
-469,274,-41.1387,0.907715,0,0,0,0,0,0,0,-1,755,750,-41.1387,-0.907744
-462,274,-45.5392,0.443115,0,0,0,0,0,0,0,-1,762,750,-45.5393,-0.443139
-455,274,-45.2423,0.478577,0,0,0,0,0,0,0,-1,769,750,-45.2423,-0.478554
-448,274,-45.096,0.46228,0,0,0,0,0,0,0,-1,776,750,-45.096,-0.462279
-441,274,0,0,0,0,0,0,0,0,0,-1,783,750,0,0
-434,274,0,0,0,0,0,0,0,0,0,-1,790,750,0,0
-427,274,0,0,0,0,0,0,0,0,0,-1,797,750,0,0
-420,274,0,0,0,0,0,0,0,0,0,-1,804,750,0,0
-413,274,0,0,0,0,0,0,0,0,0,-1,811,750,0,0
-406,274,0,0,0,0,0,0,0,0,0,-1,818,750,0,0
-399,274,0,0,0,0,0,0,0,0,0,-1,825,750,0,0
-392,274,0,0,0,0,0,0,0,0,0,-1,832,750,0,0
-385,274,0,0,0,0,0,0,0,0,0,-1,839,750,0,0
-378,274,0,0,0,0,0,0,0,0,0,-1,846,750,0,0
-371,274,0,0,0,0,0,0,0,0,0,-1,853,750,0,0
-364,274,0,0,0,0,0,0,0,0,0,-1,860,750,0,0
-357,274,0,0,0,0,0,0,0,0,0,-1,867,750,0,0
-350,274,0,0,0,0,0,0,0,0,0,-1,874,750,0,0
-343,274,0,0,0,0,0,0,0,0,0,-1,881,750,0,0
-336,274,0,0,0,0,0,0,0,0,0,-1,888,750,0,0
-329,274,0,0,0,0,0,0,0,0,0,-1,895,750,0,0
-322,274,0,0,0,0,0,0,0,0,0,-1,902,750,0,0
-315,274,0,0,0,0,0,0,0,0,0,-1,909,750,0,0
-308,274,0,0,0,0,0,0,0,0,0,-1,916,750,0,0
-301,274,0,0,0,0,0,0,0,0,0,-1,923,750,0,0
-294,274,0,0,0,0,0,0,0,0,0,-1,930,750,0,0
-287,274,0,0,0,0,0,0,0,0,0,-1,937,750,0,0
-280,274,0,0,0,0,0,0,0,0,0,-1,944,750,0,0
-273,274,0,0,0,0,0,0,0,0,0,-1,951,750,0,0
-266,274,0,0,0,0,0,0,0,0,0,-1,958,750,0,0
-259,274,0,0,0,0,0,0,0,0,0,-1,965,750,0,0
-252,274,0,0,0,0,0,0,0,0,0,-1,972,750,0,0
-245,274,0,0,0,0,0,0,0,0,0,-1,979,750,0,0
-238,274,0,0,0,0,0,0,0,0,0,-1,986,750,0,0
-231,274,0,0,0,0,0,0,0,0,0,-1,993,750,0,0
-224,274,0,0,0,0,0,0,0,0,0,-1,1000,750,0,0
-217,274,0,0,0,0,0,0,0,0,0,-1,1007,750,0,0
-210,274,0,0,0,0,0,0,0,0,0,-1,1014,750,0,0
-203,274,0,0,0,0,0,0,0,0,0,-1,1021,750,0,0
-196,274,0,0,0,0,0,0,0,0,0,-1,1028,750,0,0
-189,274,0,0,0,0,0,0,0,0,0,-1,1035,750,0,0
-182,274,0,0,0,0,0,0,0,0,0,-1,1042,750,0,0
-175,274,0,0,0,0,0,0,0,0,0,-1,1049,750,0,0
-168,274,0,0,0,0,0,0,0,0,0,-1,1056,750,0,0
-161,274,0,0,0,0,0,0,0,0,0,-1,1063,750,0,0
-154,274,0,0,0,0,0,0,0,0,0,-1,1070,750,0,0
-147,274,0,0,0,0,0,0,0,0,0,-1,1077,750,0,0
-140,274,0,0,0,0,0,0,0,0,0,-1,1084,750,0,0
-133,274,0,0,0,0,0,0,0,0,0,-1,1091,750,0,0
-126,274,0,0,0,0,0,0,0,0,0,-1,1098,750,0,0
-119,274,0,0,0,0,0,0,0,0,0,-1,1105,750,0,0
-112,274,0,0,0,0,0,0,0,0,0,-1,1112,750,0,0
-105,274,0,0,0,0,0,0,0,0,0,-1,1119,750,0,0
-98,274,0,0,0,0,0,0,0,0,0,-1,1126,750,0,0
-91,274,0,0,0,0,0,0,0,0,0,-1,1133,750,0,0
-84,274,0,0,0,0,0,0,0,0,0,-1,1140,750,0,0
-77,274,0,0,0,0,0,0,0,0,0,-1,1147,750,0,0
-70,274,0,0,0,0,0,0,0,0,0,-1,1154,750,0,0
-63,274,0,0,0,0,0,0,0,0,0,-1,1161,750,0,0
-56,274,0,0,0,0,0,0,0,0,0,-1,1168,750,0,0
-49,274,0,0,0,0,0,0,0,0,0,-1,1175,750,0,0
-42,274,0,0,0,0,0,0,0,0,0,-1,1182,750,0,0
-35,274,0,0,0,0,0,0,0,0,0,-1,1189,750,0,0
-28,274,0,0,0,0,0,0,0,0,0,-1,1196,750,0,0
-21,274,0,0,0,0,0,0,0,0,0,-1,1203,750,0,0
-14,274,0,0,0,0,0,0,0,0,0,-1,1210,750,0,0
-7,274,0,0,0,0,0,0,0,0,0,-1,1217,750,0,0
0,274,0,0,0,0,0,0,0,0,0,-1,1224,750,0,0
7,274,0,0,0,0,0,0,0,0,0,-1,1231,750,0,0
14,274,0,0,0,0,0,0,0,0,0,-1,1238,750,0,0
21,274,0,0,0,0,0,0,0,0,0,-1,1245,750,0,0
28,274,0,0,0,0,0,0,0,0,0,-1,1252,750,0,0
35,274,0,0,0,0,0,0,0,0,0,-1,1259,750,0,0
42,274,0,0,0,0,0,0,0,0,0,-1,1266,750,0,0
49,274,0,0,0,0,0,0,0,0,0,-1,1273,750,0,0
56,274,0,0,0,0,0,0,0,0,0,-1,1280,750,0,0
63,274,0,0,0,0,0,0,0,0,0,-1,1287,750,0,0
70,274,0,0,0,0,0,0,0,0,0,-1,1294,750,0,0
77,274,0,0,0,0,0,0,0,0,0,-1,1301,750,0,0
84,274,0,0,0,0,0,0,0,0,0,-1,1308,750,0,0
91,274,0,0,0,0,0,0,0,0,0,-1,1315,750,0,0
98,274,0,0,0,0,0,0,0,0,0,-1,1322,750,0,0
105,274,0,0,0,0,0,0,0,0,0,-1,1329,750,0,0
112,274,0,0,0,0,0,0,0,0,0,-1,1336,750,0,0
119,274,0,0,0,0,0,0,0,0,0,-1,1343,750,0,0
126,274,0,0,0,0,0,0,0,0,0,-1,1350,750,0,0
133,274,0,0,0,0,0,0,0,0,0,-1,1357,750,0,0
140,274,0,0,0,0,0,0,0,0,0,-1,1364,750,0,0
147,274,0,0,0,0,0,0,0,0,0,-1,1371,750,0,0
154,274,0,0,0,0,0,0,0,0,0,-1,1378,750,0,0
161,274,0,0,0,0,0,0,0,0,0,-1,1385,750,0,0
168,274,0,0,0,0,0,0,0,0,0,-1,1392,750,0,0
175,274,0,0,0,0,0,0,0,0,0,-1,1399,750,0,0
182,274,0,0,0,0,0,0,0,0,0,-1,1406,750,0,0
189,274,0,0,0,0,0,0,0,0,0,-1,1413,750,0,0
196,274,0,0,0,0,0,0,0,0,0,-1,1420,750,0,0
203,274,0,0,0,0,0,0,0,0,0,-1,1427,750,0,0
210,274,0,0,0,0,0,0,0,0,0,-1,1434,750,0,0
217,274,0,0,0,0,0,0,0,0,0,-1,1441,750,0,0
224,274,0,0,0,0,0,0,0,0,0,-1,1448,750,0,0
231,274,0,0,0,0,0,0,0,0,0,-1,1455,750,0,0
238,274,0,0,0,0,0,0,0,0,0,-1,1462,750,0,0
245,274,0,0,0,0,0,0,0,0,0,-1,1469,750,0,0
252,274,0,0,0,0,0,0,0,0,0,-1,1476,750,0,0
259,274,0,0,0,0,0,0,0,0,0,-1,1483,750,0,0
266,274,0,0,0,0,0,0,0,0,0,-1,1490,750,0,0
273,274,0,0,0,0,0,0,0,0,0,-1,1497,750,0,0
280,274,0,0,0,0,0,0,0,0,0,-1,1504,750,0,0
287,274,0,0,0,0,0,0,0,0,0,-1,1511,750,0,0
294,274,0,0,0,0,0,0,0,0,0,-1,1518,750,0,0
301,274,0,0,0,0,0,0,0,0,0,-1,1525,750,0,0
308,274,0,0,0,0,0,0,0,0,0,-1,1532,750,0,0
315,274,0,0,0,0,0,0,0,0,0,-1,1539,750,0,0
322,274,0,0,0,0,0,0,0,0,0,-1,1546,750,0,0
329,274,0,0,0,0,0,0,0,0,0,-1,1553,750,0,0
336,274,0,0,0,0,0,0,0,0,0,-1,1560,750,0,0
343,274,0,0,0,0,0,0,0,0,0,-1,1567,750,0,0
350,274,0,0,0,0,0,0,0,0,0,-1,1574,750,0,0
357,274,0,0,0,0,0,0,0,0,0,-1,1581,750,0,0
364,274,0,0,0,0,0,0,0,0,0,-1,1588,750,0,0
371,274,0,0,0,0,0,0,0,0,0,-1,1595,750,0,0
378,274,0,0,0,0,0,0,0,0,0,-1,1602,750,0,0
385,274,0,0,0,0,0,0,0,0,0,-1,1609,750,0,0
392,274,0,0,0,0,0,0,0,0,0,-1,1616,750,0,0
399,274,0,0,0,0,0,0,0,0,0,-1,1623,750,0,0
406,274,0,0,0,0,0,0,0,0,0,-1,1630,750,0,0
413,274,0,0,0,0,0,0,0,0,0,-1,1637,750,0,0
420,274,0,0,0,0,0,0,0,0,0,-1,1644,750,0,0
427,274,0,0,0,0,0,0,0,0,0,-1,1651,750,0,0
434,274,0,0,0,0,0,0,0,0,0,-1,1658,750,0,0
441,274,0,0,0,0,0,0,0,0,0,-1,1665,750,0,0
448,274,0,0,0,0,0,0,0,0,0,-1,1672,750,0,0
455,274,0,0,0,0,0,0,0,0,0,-1,1679,750,0,0
462,274,0,0,0,0,0,0,0,0,0,-1,1686,750,0,0
469,274,0,0,0,0,0,0,0,0,0,-1,1693,750,0,0
476,274,0,0,0,0,0,0,0,0,0,-1,1700,750,0,0
483,274,0,0,0,0,0,0,0,0,0,-1,1707,750,0,0
490,274,0,0,0,0,0,0,0,0,0,-1,1714,750,0,0
497,274,0,0,0,0,0,0,0,0,0,-1,1721,750,0,0
504,274,0,0,0,0,0,0,0,0,0,-1,1728,750,0,0
511,274,0,0,0,0,0,0,0,0,0,-1,1735,750,0,0
518,274,0,0,0,0,0,0,0,0,0,-1,1742,750,0,0
525,274,0,0,0,0,0,0,0,0,0,-1,1749,750,0,0
532,274,0,0,0,0,0,0,0,0,0,-1,1756,750,0,0
539,274,0,0,0,0,0,0,0,0,0,-1,1763,750,0,0
546,274,0,0,0,0,0,0,0,0,0,-1,1770,750,0,0
553,274,0,0,0,0,0,0,0,0,0,-1,1777,750,0,0
560,274,57.9182,3.24518,0,0,0,0,0,0,0,-1,1784,750,57.9182,-3.24516
567,274,57.8315,3.4137,0,0,0,0,0,0,0,-1,1791,750,57.8315,-3.41368
574,274,58.2571,3.11115,0,0,0,0,0,0,0,-1,1798,750,58.2571,-3.11114
581,274,54.4941,4.68127,0,0,0,0,0,0,0,-1,1805,750,54.4941,-4.68125
588,274,53.9908,5.6676,0,0,0,0,0,0,0,-1,1812,750,53.9908,-5.66763
595,274,60.4402,2.6933,0,0,0,0,0,0,0,-1,1819,750,60.4402,-2.69333
602,274,55.6321,2.56519,0,0,0,0,0,0,0,-1,1826,750,55.6321,-2.56521
609,274,44.6676,3.10461,0,0,0,0,0,0,0,-1,1833,750,44.6676,-3.1046
616,274,32.7869,1.78436,0,0,0,0,0,0,0,-1,1840,750,32.7868,-1.78437
623,274,24.8231,-1.80353,0,0,0,0,0,0,0,-1,1847,750,24.8232,1.80351
630,274,38.2299,-5.59753,0,0,0,0,0,0,0,-1,1854,750,38.2298,5.59754
637,274,38.0608,-4.88843,0.000935521,-0.00212565,0.000637799,0.00106309,-0.00225322,0.197411,0.00195534,0.0232793,1861,750,38.0608,4.88844
644,274,38.0446,-4.11865,0.000252909,-0.00213616,0.000275295,0.000284221,-0.00216747,0.113254,0.00154844,0.0128192,1868,750,38.0446,4.11863
651,274,38.0471,-3.38,0.000213885,-0.00160871,-4.96657e-05,0.000215237,-0.00161006,-0.027223,0.00115184,0.0138519,1875,750,38.0471,3.38003
658,274,38.0145,-2.66852,0.000409197,-0.00110555,-0.000106645,0.000416668,-0.00111302,-0.0699444,0.000913159,0.0169694,1882,750,38.0145,2.66853
665,274,37.9706,-1.93323,0.000657592,-0.000284533,0.00023283,0.000711991,-0.000338932,0.229525,0.000619362,0.0167626,1889,750,37.9706,1.9332
672,274,37.9554,-1.20221,0.00103178,0.000618371,0.000609407,0.00146859,0.000181568,0.621892,0.000924497,0.014395,1896,750,37.9555,1.20219
679,274,37.9171,-0.473511,0.00147383,0.00154877,0.000956986,0.00246902,0.00055358,0.804965,0.00149602,0.0162617,1903,750,37.9171,0.473532
686,274,37.8741,0.24115,0.00200316,0.00254191,0.0013371,0.0036365,0.000908572,0.884799,0.00218537,0.0181577,1910,750,37.8741,-0.241152
693,274,37.8378,0.971008,0.00264731,0.00349332,0.00170822,0.00483013,0.0013105,0.906771,0.00288426,0.0133412,1917,750,37.8378,-0.971024
700,274,37.8312,1.7561,0.00346162,0.00468875,0.00211797,0.00628024,0.00187013,0.926386,0.00372344,0.0178169,1924,750,37.8312,-1.75608
707,274,37.6876,2.49884,0.0044346,0.00579395,0.00268874,0.00788759,0.00234096,0.909197,0.00467759,0.0359486,1931,750,37.6877,-2.49884
714,274,37.9111,3.19684,0,0,0,0,0,0,0,-1,1938,750,37.9112,-3.19682
721,274,25.6215,3.91144,0,0,0,0,0,0,0,-1,1945,750,25.6214,-3.91141
728,274,19.2209,3.95154,0,0,0,0,0,0,0,-1,1952,750,19.221,-3.95151
735,274,20.6608,4.10931,0,0,0,0,0,0,0,-1,1959,750,20.6607,-4.10932
742,274,11.7815,-0.740234,0,0,0,0,0,0,0,-1,1966,750,11.7815,0.740253
749,274,0,0,0,0,0,0,0,0,0,-1,1973,750,0,0
756,274,0,0,0,0,0,0,0,0,0,-1,1980,750,0,0
763,274,0,0,0,0,0,0,0,0,0,-1,1987,750,0,0
770,274,0,0,0,0,0,0,0,0,0,-1,1994,750,0,0
777,274,0,0,0,0,0,0,0,0,0,-1,2001,750,0,0
784,274,0,0,0,0,0,0,0,0,0,-1,2008,750,0,0
791,274,0,0,0,0,0,0,0,0,0,-1,2015,750,0,0
798,274,0,0,0,0,0,0,0,0,0,-1,2022,750,0,0
805,274,0,0,0,0,0,0,0,0,0,-1,2029,750,0,0
812,274,0,0,0,0,0,0,0,0,0,-1,2036,750,0,0
-700,267,0,0,0,0,0,0,0,0,0,-1,524,757,0,0
-693,267,0,0,0,0,0,0,0,0,0,-1,531,757,0,0
-686,267,0,0,0,0,0,0,0,0,0,-1,538,757,0,0
-679,267,0,0,0,0,0,0,0,0,0,-1,545,757,0,0
-672,267,0,0,0,0,0,0,0,0,0,-1,552,757,0,0
-665,267,0,0,0,0,0,0,0,0,0,-1,559,757,0,0
-658,267,0,0,0,0,0,0,0,0,0,-1,566,757,0,0
-651,267,0,0,0,0,0,0,0,0,0,-1,573,757,0,0
-644,267,0,0,0,0,0,0,0,0,0,-1,580,757,0,0
-637,267,0,0,0,0,0,0,0,0,0,-1,587,757,0,0
-630,267,-21.3979,5.17529,0,0,0,0,0,0,0,-1,594,757,-21.3979,-5.17529
-623,267,-20.043,4.43115,0,0,0,0,0,0,0,-1,601,757,-20.043,-4.43116
-616,267,-25.4471,6.28839,0,0,0,0,0,0,0,-1,608,757,-25.4471,-6.28839
-609,267,-25.3553,5.15082,0,0,0,0,0,0,0,-1,615,757,-25.3554,-5.15082
-602,267,-25.2829,3.95245,0,0,0,0,0,0,0,-1,622,757,-25.2829,-3.95245
-595,267,-25.7006,2.78857,0,0,0,0,0,0,0,-1,629,757,-25.7006,-2.78854
-588,267,-25.7109,1.87042,0.026844,0.0118782,0.000787784,0.0268854,0.0118369,0.0524458,0.0155592,0.0499406,636,757,-25.711,-1.8704
-581,267,-25.7548,0.90332,0.0176417,0.00917464,0.000507148,0.0176719,0.00914438,0.0596127,0.010205,0.0405812,643,757,-25.7547,-0.903315
-574,267,-25.8094,0.0315552,0.011298,0.00701513,0.000472985,0.0113497,0.00696352,0.10869,0.00660881,0.0237815,650,757,-25.8094,-0.0315689
-567,267,-25.9241,-0.627136,0.00697861,0.00491813,0.000575516,0.00712846,0.00476828,0.254719,0.00419317,0.0279449,657,757,-25.9241,0.627163
-560,267,-25.9692,-1.31165,0.00400158,0.00318077,0.000722406,0.00442202,0.00276033,0.52708,0.00257919,0.0232799,664,757,-25.9692,1.31167
-553,267,-26.0098,-2.05389,0.0019339,0.00156178,0.000999914,0.00276492,0.000730762,0.693412,0.00165439,0.0182047,671,757,-26.0098,2.05388
-546,267,-26.0477,-2.7608,0.000410275,-3.55616e-05,0.00143198,0.00163659,-0.00126187,0.708182,0.00167808,0.0122138,678,757,-26.0477,2.76081
-539,267,-26.0721,-3.4762,-0.00104495,-0.00138115,0.00194242,0.00073663,-0.00316274,0.742235,0.00239214,0.0117676,685,757,-26.0721,3.47619
-532,267,-26.0781,-4.16125,-0.0016506,-0.00261648,0.00239288,0.000307586,-0.00457467,0.685824,0.0031573,0.0124948,692,757,-26.078,4.16128
-525,267,-26.1334,-4.81213,-0.00177743,-0.00274393,0.00295599,0.000734548,-0.0052559,0.704374,0.0037727,0.0121141,699,757,-26.1334,4.81214
-518,267,-26.1667,-5.51477,-0.00432398,-0.00173975,0.00307892,0.000307195,-0.00637093,0.98407,0.0043533,0.0132265,706,757,-26.1667,5.51479
-511,267,-26.1672,-6.18835,-0.00699539,-0.00173274,0.00227052,-0.000888557,-0.00783956,1.21483,0.00495681,0.0233159,713,757,-26.1672,6.18833
-504,267,-26.3376,-6.64868,-0.00858686,-0.00218883,0.00241743,-0.00137815,-0.00939754,1.24723,0.00585992,0.0396128,720,757,-26.3376,6.6487
-497,267,-26.5944,-7.14178,0,0,0,0,0,0,0,-1,727,757,-26.5943,7.14179
-490,267,-23.4949,-0.494995,0,0,0,0,0,0,0,-1,734,757,-23.4949,0.494981
-483,267,-33.2785,-0.448425,0,0,0,0,0,0,0,-1,741,757,-33.2785,0.448407
-476,267,-40.2954,0.52002,0,0,0,0,0,0,0,-1,748,757,-40.2954,-0.520037
-469,267,-45.6231,0.494141,0,0,0,0,0,0,0,-1,755,757,-45.6231,-0.494127
-462,267,-45.4675,0.611755,-0.0218141,-0.0233643,0.023948,0.00137127,-0.0465498,0.769221,0.0315002,0.0459028,762,757,-45.4675,-0.611775
-455,267,-45.3558,0.707397,-0.021961,-0.0308565,0.0311986,0.00510536,-0.0579228,0.714594,0.0404246,0.0499956,769,757,-45.3558,-0.707408
-448,267,-45.2165,0.683533,0,0,0,0,0,0,0,-1,776,757,-45.2165,-0.683537
-441,267,0,0,0,0,0,0,0,0,0,-1,783,757,0,0
-434,267,0,0,0,0,0,0,0,0,0,-1,790,757,0,0
-427,267,0,0,0,0,0,0,0,0,0,-1,797,757,0,0
-420,267,0,0,0,0,0,0,0,0,0,-1,804,757,0,0
-413,267,0,0,0,0,0,0,0,0,0,-1,811,757,0,0
-406,267,0,0,0,0,0,0,0,0,0,-1,818,757,0,0
-399,267,0,0,0,0,0,0,0,0,0,-1,825,757,0,0
-392,267,0,0,0,0,0,0,0,0,0,-1,832,757,0,0
-385,267,0,0,0,0,0,0,0,0,0,-1,839,757,0,0
-378,267,0,0,0,0,0,0,0,0,0,-1,846,757,0,0
-371,267,0,0,0,0,0,0,0,0,0,-1,853,757,0,0
-364,267,0,0,0,0,0,0,0,0,0,-1,860,757,0,0
-357,267,0,0,0,0,0,0,0,0,0,-1,867,757,0,0
-350,267,0,0,0,0,0,0,0,0,0,-1,874,757,0,0
-343,267,0,0,0,0,0,0,0,0,0,-1,881,757,0,0
-336,267,0,0,0,0,0,0,0,0,0,-1,888,757,0,0
-329,267,0,0,0,0,0,0,0,0,0,-1,895,757,0,0
-322,267,0,0,0,0,0,0,0,0,0,-1,902,757,0,0
-315,267,0,0,0,0,0,0,0,0,0,-1,909,757,0,0
-308,267,0,0,0,0,0,0,0,0,0,-1,916,757,0,0
-301,267,0,0,0,0,0,0,0,0,0,-1,923,757,0,0
-294,267,0,0,0,0,0,0,0,0,0,-1,930,757,0,0
-287,267,0,0,0,0,0,0,0,0,0,-1,937,757,0,0
-280,267,0,0,0,0,0,0,0,0,0,-1,944,757,0,0
-273,267,0,0,0,0,0,0,0,0,0,-1,951,757,0,0
-266,267,0,0,0,0,0,0,0,0,0,-1,958,757,0,0
-259,267,0,0,0,0,0,0,0,0,0,-1,965,757,0,0
-252,267,0,0,0,0,0,0,0,0,0,-1,972,757,0,0
-245,267,0,0,0,0,0,0,0,0,0,-1,979,757,0,0
-238,267,0,0,0,0,0,0,0,0,0,-1,986,757,0,0
-231,267,0,0,0,0,0,0,0,0,0,-1,993,757,0,0
-224,267,0,0,0,0,0,0,0,0,0,-1,1000,757,0,0
-217,267,0,0,0,0,0,0,0,0,0,-1,1007,757,0,0
-210,267,0,0,0,0,0,0,0,0,0,-1,1014,757,0,0
-203,267,0,0,0,0,0,0,0,0,0,-1,1021,757,0,0
-196,267,0,0,0,0,0,0,0,0,0,-1,1028,757,0,0
-189,267,0,0,0,0,0,0,0,0,0,-1,1035,757,0,0
-182,267,0,0,0,0,0,0,0,0,0,-1,1042,757,0,0
-175,267,0,0,0,0,0,0,0,0,0,-1,1049,757,0,0
-168,267,0,0,0,0,0,0,0,0,0,-1,1056,757,0,0
-161,267,0,0,0,0,0,0,0,0,0,-1,1063,757,0,0
-154,267,0,0,0,0,0,0,0,0,0,-1,1070,757,0,0
-147,267,0,0,0,0,0,0,0,0,0,-1,1077,757,0,0
-140,267,0,0,0,0,0,0,0,0,0,-1,1084,757,0,0
-133,267,0,0,0,0,0,0,0,0,0,-1,1091,757,0,0
-126,267,0,0,0,0,0,0,0,0,0,-1,1098,757,0,0
-119,267,0,0,0,0,0,0,0,0,0,-1,1105,757,0,0
-112,267,0,0,0,0,0,0,0,0,0,-1,1112,757,0,0
-105,267,0,0,0,0,0,0,0,0,0,-1,1119,757,0,0
-98,267,0,0,0,0,0,0,0,0,0,-1,1126,757,0,0
-91,267,0,0,0,0,0,0,0,0,0,-1,1133,757,0,0
-84,267,0,0,0,0,0,0,0,0,0,-1,1140,757,0,0
-77,267,0,0,0,0,0,0,0,0,0,-1,1147,757,0,0
-70,267,0,0,0,0,0,0,0,0,0,-1,1154,757,0,0
-63,267,0,0,0,0,0,0,0,0,0,-1,1161,757,0,0
-56,267,0,0,0,0,0,0,0,0,0,-1,1168,757,0,0
-49,267,0,0,0,0,0,0,0,0,0,-1,1175,757,0,0
-42,267,0,0,0,0,0,0,0,0,0,-1,1182,757,0,0
-35,267,0,0,0,0,0,0,0,0,0,-1,1189,757,0,0
-28,267,0,0,0,0,0,0,0,0,0,-1,1196,757,0,0
-21,267,0,0,0,0,0,0,0,0,0,-1,1203,757,0,0
-14,267,0,0,0,0,0,0,0,0,0,-1,1210,757,0,0
-7,267,0,0,0,0,0,0,0,0,0,-1,1217,757,0,0
0,267,0,0,0,0,0,0,0,0,0,-1,1224,757,0,0
7,267,0,0,0,0,0,0,0,0,0,-1,1231,757,0,0
14,267,0,0,0,0,0,0,0,0,0,-1,1238,757,0,0
21,267,0,0,0,0,0,0,0,0,0,-1,1245,757,0,0
28,267,0,0,0,0,0,0,0,0,0,-1,1252,757,0,0
35,267,0,0,0,0,0,0,0,0,0,-1,1259,757,0,0
42,267,0,0,0,0,0,0,0,0,0,-1,1266,757,0,0
49,267,0,0,0,0,0,0,0,0,0,-1,1273,757,0,0
56,267,0,0,0,0,0,0,0,0,0,-1,1280,757,0,0
63,267,0,0,0,0,0,0,0,0,0,-1,1287,757,0,0
70,267,0,0,0,0,0,0,0,0,0,-1,1294,757,0,0
77,267,0,0,0,0,0,0,0,0,0,-1,1301,757,0,0
84,267,0,0,0,0,0,0,0,0,0,-1,1308,757,0,0
91,267,0,0,0,0,0,0,0,0,0,-1,1315,757,0,0
98,267,0,0,0,0,0,0,0,0,0,-1,1322,757,0,0
105,267,0,0,0,0,0,0,0,0,0,-1,1329,757,0,0
112,267,0,0,0,0,0,0,0,0,0,-1,1336,757,0,0
119,267,0,0,0,0,0,0,0,0,0,-1,1343,757,0,0
126,267,0,0,0,0,0,0,0,0,0,-1,1350,757,0,0
133,267,0,0,0,0,0,0,0,0,0,-1,1357,757,0,0
140,267,0,0,0,0,0,0,0,0,0,-1,1364,757,0,0
147,267,0,0,0,0,0,0,0,0,0,-1,1371,757,0,0
154,267,0,0,0,0,0,0,0,0,0,-1,1378,757,0,0
161,267,0,0,0,0,0,0,0,0,0,-1,1385,757,0,0
168,267,0,0,0,0,0,0,0,0,0,-1,1392,757,0,0
175,267,0,0,0,0,0,0,0,0,0,-1,1399,757,0,0
182,267,0,0,0,0,0,0,0,0,0,-1,1406,757,0,0
189,267,0,0,0,0,0,0,0,0,0,-1,1413,757,0,0
196,267,0,0,0,0,0,0,0,0,0,-1,1420,757,0,0
203,267,0,0,0,0,0,0,0,0,0,-1,1427,757,0,0
210,267,0,0,0,0,0,0,0,0,0,-1,1434,757,0,0
217,267,0,0,0,0,0,0,0,0,0,-1,1441,757,0,0
224,267,0,0,0,0,0,0,0,0,0,-1,1448,757,0,0
231,267,0,0,0,0,0,0,0,0,0,-1,1455,757,0,0
238,267,0,0,0,0,0,0,0,0,0,-1,1462,757,0,0
245,267,0,0,0,0,0,0,0,0,0,-1,1469,757,0,0
252,267,0,0,0,0,0,0,0,0,0,-1,1476,757,0,0
259,267,0,0,0,0,0,0,0,0,0,-1,1483,757,0,0
266,267,0,0,0,0,0,0,0,0,0,-1,1490,757,0,0
273,267,0,0,0,0,0,0,0,0,0,-1,1497,757,0,0
280,267,0,0,0,0,0,0,0,0,0,-1,1504,757,0,0
287,267,0,0,0,0,0,0,0,0,0,-1,1511,757,0,0
294,267,0,0,0,0,0,0,0,0,0,-1,1518,757,0,0
301,267,0,0,0,0,0,0,0,0,0,-1,1525,757,0,0
308,267,0,0,0,0,0,0,0,0,0,-1,1532,757,0,0
315,267,0,0,0,0,0,0,0,0,0,-1,1539,757,0,0
322,267,0,0,0,0,0,0,0,0,0,-1,1546,757,0,0
329,267,0,0,0,0,0,0,0,0,0,-1,1553,757,0,0
336,267,0,0,0,0,0,0,0,0,0,-1,1560,757,0,0
343,267,0,0,0,0,0,0,0,0,0,-1,1567,757,0,0
350,267,0,0,0,0,0,0,0,0,0,-1,1574,757,0,0
357,267,0,0,0,0,0,0,0,0,0,-1,1581,757,0,0
364,267,0,0,0,0,0,0,0,0,0,-1,1588,757,0,0
371,267,0,0,0,0,0,0,0,0,0,-1,1595,757,0,0
378,267,0,0,0,0,0,0,0,0,0,-1,1602,757,0,0
385,267,0,0,0,0,0,0,0,0,0,-1,1609,757,0,0
392,267,0,0,0,0,0,0,0,0,0,-1,1616,757,0,0
399,267,0,0,0,0,0,0,0,0,0,-1,1623,757,0,0
406,267,0,0,0,0,0,0,0,0,0,-1,1630,757,0,0
413,267,0,0,0,0,0,0,0,0,0,-1,1637,757,0,0
420,267,0,0,0,0,0,0,0,0,0,-1,1644,757,0,0
427,267,0,0,0,0,0,0,0,0,0,-1,1651,757,0,0
434,267,0,0,0,0,0,0,0,0,0,-1,1658,757,0,0
441,267,0,0,0,0,0,0,0,0,0,-1,1665,757,0,0
448,267,0,0,0,0,0,0,0,0,0,-1,1672,757,0,0
455,267,0,0,0,0,0,0,0,0,0,-1,1679,757,0,0
462,267,0,0,0,0,0,0,0,0,0,-1,1686,757,0,0
469,267,0,0,0,0,0,0,0,0,0,-1,1693,757,0,0
476,267,0,0,0,0,0,0,0,0,0,-1,1700,757,0,0
483,267,0,0,0,0,0,0,0,0,0,-1,1707,757,0,0
490,267,0,0,0,0,0,0,0,0,0,-1,1714,757,0,0
497,267,0,0,0,0,0,0,0,0,0,-1,1721,757,0,0
504,267,0,0,0,0,0,0,0,0,0,-1,1728,757,0,0
511,267,0,0,0,0,0,0,0,0,0,-1,1735,757,0,0
518,267,0,0,0,0,0,0,0,0,0,-1,1742,757,0,0
525,267,0,0,0,0,0,0,0,0,0,-1,1749,757,0,0
532,267,0,0,0,0,0,0,0,0,0,-1,1756,757,0,0
539,267,0,0,0,0,0,0,0,0,0,-1,1763,757,0,0
546,267,0,0,0,0,0,0,0,0,0,-1,1770,757,0,0
553,267,0,0,0,0,0,0,0,0,0,-1,1777,757,0,0
560,267,0,0,0,0,0,0,0,0,0,-1,1784,757,0,0
567,267,58.0104,3.24304,0,0,0,0,0,0,0,-1,1791,757,58.0104,-3.24306
574,267,59.396,2.79602,0,0,0,0,0,0,0,-1,1798,757,59.396,-2.79604
581,267,58.374,2.95636,0,0,0,0,0,0,0,-1,1805,757,58.3741,-2.95639
588,267,60.7747,2.37903,0,0,0,0,0,0,0,-1,1812,757,60.7747,-2.37901
595,267,60.452,2.49762,0,0,0,0,0,0,0,-1,1819,757,60.452,-2.49765
602,267,60.3282,2.34875,0,0,0,0,0,0,0,-1,1826,757,60.3282,-2.34878
609,267,54.5498,3.24054,0,0,0,0,0,0,0,-1,1833,757,54.5498,-3.24052
616,267,44.2543,3.28918,0,0,0,0,0,0,0,-1,1840,757,44.2542,-3.28918
623,267,24.1475,-1.1391,0,0,0,0,0,0,0,-1,1847,757,24.1475,1.13913
630,267,39.0667,-4.88318,0,0,0,0,0,0,0,-1,1854,757,39.0667,4.88315
637,267,38.8018,-4.57361,0.00090613,-0.00218305,0.000823389,0.00111189,-0.00238881,0.24488,0.00206546,0.0477325,1861,757,38.8018,4.57358
644,267,38.7665,-4.09265,0.000120098,-0.00230553,0.000368685,0.000174899,-0.00236033,0.147557,0.00163497,0.0163017,1868,757,38.7665,4.09268
651,267,38.7622,-3.32037,-7.59032e-05,-0.00194876,-0.000195103,-5.57945e-05,-0.00196887,-0.102705,0.00129438,0.0146656,1875,757,38.7621,3.32036
658,267,38.735,-2.60846,-3.48854e-05,-0.00164351,-0.000510577,0.000113487,-0.00179188,-0.282808,0.00123416,0.0154405,1882,757,38.735,2.60843
665,267,38.6862,-1.91022,8.33042e-05,-0.000914941,-0.000277701,0.000155357,-0.000986994,-0.253863,0.000715427,0.0161528,1889,757,38.6861,1.9102
672,267,38.6538,-1.1828,0.000428343,-2.97817e-05,4.43781e-05,0.000432603,-3.4041e-05,0.0956836,0.000300392,0.0143871,1896,757,38.6538,1.18282
679,267,38.6273,-0.438293,0.000906326,0.0008713,0.000394158,0.00128336,0.000494266,0.763197,0.000747437,0.0133314,1903,757,38.6273,0.438323
686,267,38.6044,0.294739,0.00152874,0.00184601,0.000834353,0.00253668,0.000838077,0.879343,0.00149238,0.0156879,1910,757,38.6044,-0.29471
693,267,38.5629,0.978027,0.00227108,0.00278756,0.00129228,0.00384715,0.0012115,0.884014,0.00227131,0.0154843,1917,757,38.5628,-0.978004
700,267,38.5369,1.72021,0.00317162,0.00382,0.00178243,0.00530749,0.00168414,0.875356,0.00313172,0.0150572,1924,757,38.5369,-1.72023
707,267,38.5183,2.43567,0.00422321,0.00476623,0.00239894,0.00690897,0.00208047,0.841747,0.00409272,0.0178612,1931,757,38.5183,-2.43569
714,267,38.5825,3.16693,0.00565412,0.00602786,0.00337315,0.00921931,0.00246267,0.81307,0.00551186,0.0432922,1938,757,38.5825,-3.16695
721,267,38.7535,3.93475,0,0,0,0,0,0,0,-1,1945,757,38.7535,-3.93477
728,267,26.7886,3.90027,0,0,0,0,0,0,0,-1,1952,757,26.7886,-3.90028
735,267,24.6713,2.82483,0,0,0,0,0,0,0,-1,1959,757,24.6713,-2.82483
742,267,18.1177,3.56561,0,0,0,0,0,0,0,-1,1966,757,18.1176,-3.56564
749,267,0,0,0,0,0,0,0,0,0,-1,1973,757,0,0
756,267,0,0,0,0,0,0,0,0,0,-1,1980,757,0,0
763,267,0,0,0,0,0,0,0,0,0,-1,1987,757,0,0
770,267,0,0,0,0,0,0,0,0,0,-1,1994,757,0,0
777,267,0,0,0,0,0,0,0,0,0,-1,2001,757,0,0
784,267,0,0,0,0,0,0,0,0,0,-1,2008,757,0,0
791,267,0,0,0,0,0,0,0,0,0,-1,2015,757,0,0
798,267,0,0,0,0,0,0,0,0,0,-1,2022,757,0,0
805,267,0,0,0,0,0,0,0,0,0,-1,2029,757,0,0
812,267,0,0,0,0,0,0,0,0,0,-1,2036,757,0,0
-700,260,0,0,0,0,0,0,0,0,0,-1,524,764,0,0
-693,260,0,0,0,0,0,0,0,0,0,-1,531,764,0,0
-686,260,0,0,0,0,0,0,0,0,0,-1,538,764,0,0
-679,260,0,0,0,0,0,0,0,0,0,-1,545,764,0,0
-672,260,0,0,0,0,0,0,0,0,0,-1,552,764,0,0
-665,260,0,0,0,0,0,0,0,0,0,-1,559,764,0,0
-658,260,0,0,0,0,0,0,0,0,0,-1,566,764,0,0
-651,260,0,0,0,0,0,0,0,0,0,-1,573,764,0,0
-644,260,0,0,0,0,0,0,0,0,0,-1,580,764,0,0
-637,260,0,0,0,0,0,0,0,0,0,-1,587,764,0,0
-630,260,-21.8905,4.49341,0,0,0,0,0,0,0,-1,594,764,-21.8905,-4.49342
-623,260,-20.3127,3.53546,0,0,0,0,0,0,0,-1,601,764,-20.3127,-3.53544
-616,260,-23.4346,3.65009,0,0,0,0,0,0,0,-1,608,764,-23.4345,-3.65008
-609,260,-26.0436,4.67902,0,0,0,0,0,0,0,-1,615,764,-26.0436,-4.67902
-602,260,-27.0319,3.25964,0,0,0,0,0,0,0,-1,622,764,-27.0318,-3.25962
-595,260,-27.6358,1.73914,0,0,0,0,0,0,0,-1,629,764,-27.6358,-1.73916
-588,260,-27.031,1.45355,0.0262136,0.00967518,0.000333032,0.0262203,0.00966848,0.020126,0.0153112,0.0438934,636,764,-27.031,-1.45352
-581,260,-26.5521,0.72876,0.0175572,0.00759119,0.000221841,0.0175621,0.00758625,0.0222451,0.0101707,0.0298246,643,764,-26.5521,-0.728741
-574,260,-26.5865,0.0500488,0.0113421,0.00581003,0.000327111,0.0113614,0.00579075,0.0588562,0.00655992,0.0198329,650,764,-26.5865,-0.0500782
-567,260,-26.629,-0.56488,0.0069514,0.00401172,0.000550596,0.00705115,0.00391198,0.179208,0.00407912,0.0191534,657,764,-26.629,0.564883
-560,260,-26.6652,-1.27692,0.00382309,0.00242331,0.000828333,0.00420763,0.00203877,0.434624,0.00242966,0.0221478,664,764,-26.6652,1.27692
-553,260,-26.6967,-2.01447,0.0015808,0.000826067,0.00123076,0.00249075,-8.38834e-05,0.636643,0.00168915,0.0178162,671,764,-26.6966,2.01449
-546,260,-26.724,-2.71155,-4.87072e-05,-0.000785433,0.00180348,0.00142365,-0.00225779,0.684658,0.00214359,0.0119493,678,764,-26.724,2.71154
-539,260,-26.745,-3.40527,-0.00147218,-0.00211733,0.00247376,0.000699946,-0.00428946,0.720564,0.00311924,0.0134556,685,764,-26.745,3.40529
-532,260,-26.7524,-4.06018,-0.00184683,-0.00321043,0.0029653,0.000514044,-0.0055713,0.672399,0.00389687,0.0180163,692,764,-26.7524,4.06021
-525,260,-26.8044,-4.78265,-0.00172105,-0.00314149,0.00352595,0.0011655,-0.00602804,0.686015,0.00445827,0.0159801,699,764,-26.8044,4.78263
-518,260,-26.8976,-5.44843,-0.00408088,-0.00206869,0.00362948,0.000691556,-0.00684113,0.920604,0.00480788,0.0222287,706,764,-26.8977,5.44842
-511,260,-26.8986,-6.0462,-0.00648992,-0.00209166,0.00281624,-0.00071765,-0.00786394,1.11688,0.00502054,0.0407432,713,764,-26.8986,6.04623
-504,260,-27.0339,-6.61761,0,0,0,0,0,0,0,-1,720,764,-27.0339,6.6176
-497,260,-16.6542,-3.67334,0,0,0,0,0,0,0,-1,727,764,-16.6542,3.67331
-490,260,-29.4557,0.921387,0,0,0,0,0,0,0,-1,734,764,-29.4557,-0.921369
-483,260,-40.8972,1.04193,0,0,0,0,0,0,0,-1,741,764,-40.8972,-1.04193
-476,260,-44.3115,1.53192,0,0,0,0,0,0,0,-1,748,764,-44.3115,-1.5319
-469,260,-43.5937,1.75269,-0.0203189,-0.0131646,0.0133648,-0.00290652,-0.0305771,0.91616,0.0194882,0.0480472,755,764,-43.5937,-1.75271
-462,260,-45.3784,0.7276,-0.0219396,-0.0184375,0.0179894,-0.00211416,-0.038263,0.833915,0.0248339,0.0428991,762,764,-45.3783,-0.727578
-455,260,-45.3288,0.717529,-0.0214097,-0.0254111,0.0234019,7.69068e-05,-0.0468976,0.742755,0.0312908,0.0464067,769,764,-45.3288,-0.717518
-448,260,0,0,0,0,0,0,0,0,0,-1,776,764,0,0
-441,260,0,0,0,0,0,0,0,0,0,-1,783,764,0,0
-434,260,0,0,0,0,0,0,0,0,0,-1,790,764,0,0
-427,260,0,0,0,0,0,0,0,0,0,-1,797,764,0,0
-420,260,0,0,0,0,0,0,0,0,0,-1,804,764,0,0
-413,260,0,0,0,0,0,0,0,0,0,-1,811,764,0,0
-406,260,0,0,0,0,0,0,0,0,0,-1,818,764,0,0
-399,260,0,0,0,0,0,0,0,0,0,-1,825,764,0,0
-392,260,0,0,0,0,0,0,0,0,0,-1,832,764,0,0
-385,260,0,0,0,0,0,0,0,0,0,-1,839,764,0,0
-378,260,0,0,0,0,0,0,0,0,0,-1,846,764,0,0
-371,260,0,0,0,0,0,0,0,0,0,-1,853,764,0,0
-364,260,0,0,0,0,0,0,0,0,0,-1,860,764,0,0
-357,260,0,0,0,0,0,0,0,0,0,-1,867,764,0,0
-350,260,0,0,0,0,0,0,0,0,0,-1,874,764,0,0
-343,260,0,0,0,0,0,0,0,0,0,-1,881,764,0,0
-336,260,0,0,0,0,0,0,0,0,0,-1,888,764,0,0
-329,260,0,0,0,0,0,0,0,0,0,-1,895,764,0,0
-322,260,0,0,0,0,0,0,0,0,0,-1,902,764,0,0
-315,260,0,0,0,0,0,0,0,0,0,-1,909,764,0,0
-308,260,0,0,0,0,0,0,0,0,0,-1,916,764,0,0
-301,260,0,0,0,0,0,0,0,0,0,-1,923,764,0,0
-294,260,0,0,0,0,0,0,0,0,0,-1,930,764,0,0
-287,260,0,0,0,0,0,0,0,0,0,-1,937,764,0,0
-280,260,0,0,0,0,0,0,0,0,0,-1,944,764,0,0
-273,260,0,0,0,0,0,0,0,0,0,-1,951,764,0,0
-266,260,0,0,0,0,0,0,0,0,0,-1,958,764,0,0
-259,260,0,0,0,0,0,0,0,0,0,-1,965,764,0,0
-252,260,0,0,0,0,0,0,0,0,0,-1,972,764,0,0
-245,260,0,0,0,0,0,0,0,0,0,-1,979,764,0,0
-238,260,0,0,0,0,0,0,0,0,0,-1,986,764,0,0
-231,260,0,0,0,0,0,0,0,0,0,-1,993,764,0,0
-224,260,0,0,0,0,0,0,0,0,0,-1,1000,764,0,0
-217,260,0,0,0,0,0,0,0,0,0,-1,1007,764,0,0
-210,260,0,0,0,0,0,0,0,0,0,-1,1014,764,0,0
-203,260,0,0,0,0,0,0,0,0,0,-1,1021,764,0,0
-196,260,0,0,0,0,0,0,0,0,0,-1,1028,764,0,0
-189,260,0,0,0,0,0,0,0,0,0,-1,1035,764,0,0
-182,260,0,0,0,0,0,0,0,0,0,-1,1042,764,0,0
-175,260,0,0,0,0,0,0,0,0,0,-1,1049,764,0,0
-168,260,0,0,0,0,0,0,0,0,0,-1,1056,764,0,0
-161,260,0,0,0,0,0,0,0,0,0,-1,1063,764,0,0
-154,260,0,0,0,0,0,0,0,0,0,-1,1070,764,0,0
-147,260,0,0,0,0,0,0,0,0,0,-1,1077,764,0,0
-140,260,0,0,0,0,0,0,0,0,0,-1,1084,764,0,0
-133,260,0,0,0,0,0,0,0,0,0,-1,1091,764,0,0
-126,260,0,0,0,0,0,0,0,0,0,-1,1098,764,0,0
-119,260,0,0,0,0,0,0,0,0,0,-1,1105,764,0,0
-112,260,0,0,0,0,0,0,0,0,0,-1,1112,764,0,0
-105,260,0,0,0,0,0,0,0,0,0,-1,1119,764,0,0
-98,260,0,0,0,0,0,0,0,0,0,-1,1126,764,0,0
-91,260,0,0,0,0,0,0,0,0,0,-1,1133,764,0,0
-84,260,0,0,0,0,0,0,0,0,0,-1,1140,764,0,0
-77,260,0,0,0,0,0,0,0,0,0,-1,1147,764,0,0
-70,260,0,0,0,0,0,0,0,0,0,-1,1154,764,0,0
-63,260,0,0,0,0,0,0,0,0,0,-1,1161,764,0,0
-56,260,0,0,0,0,0,0,0,0,0,-1,1168,764,0,0
-49,260,0,0,0,0,0,0,0,0,0,-1,1175,764,0,0
-42,260,0,0,0,0,0,0,0,0,0,-1,1182,764,0,0
-35,260,0,0,0,0,0,0,0,0,0,-1,1189,764,0,0
-28,260,0,0,0,0,0,0,0,0,0,-1,1196,764,0,0
-21,260,0,0,0,0,0,0,0,0,0,-1,1203,764,0,0
-14,260,0,0,0,0,0,0,0,0,0,-1,1210,764,0,0
-7,260,0,0,0,0,0,0,0,0,0,-1,1217,764,0,0
0,260,0,0,0,0,0,0,0,0,0,-1,1224,764,0,0
7,260,0,0,0,0,0,0,0,0,0,-1,1231,764,0,0
14,260,0,0,0,0,0,0,0,0,0,-1,1238,764,0,0
21,260,0,0,0,0,0,0,0,0,0,-1,1245,764,0,0
28,260,0,0,0,0,0,0,0,0,0,-1,1252,764,0,0
35,260,0,0,0,0,0,0,0,0,0,-1,1259,764,0,0
42,260,0,0,0,0,0,0,0,0,0,-1,1266,764,0,0
49,260,0,0,0,0,0,0,0,0,0,-1,1273,764,0,0
56,260,0,0,0,0,0,0,0,0,0,-1,1280,764,0,0
63,260,0,0,0,0,0,0,0,0,0,-1,1287,764,0,0
70,260,0,0,0,0,0,0,0,0,0,-1,1294,764,0,0
77,260,0,0,0,0,0,0,0,0,0,-1,1301,764,0,0
84,260,0,0,0,0,0,0,0,0,0,-1,1308,764,0,0
91,260,0,0,0,0,0,0,0,0,0,-1,1315,764,0,0
98,260,0,0,0,0,0,0,0,0,0,-1,1322,764,0,0
105,260,0,0,0,0,0,0,0,0,0,-1,1329,764,0,0
112,260,0,0,0,0,0,0,0,0,0,-1,1336,764,0,0
119,260,0,0,0,0,0,0,0,0,0,-1,1343,764,0,0
126,260,0,0,0,0,0,0,0,0,0,-1,1350,764,0,0
133,260,0,0,0,0,0,0,0,0,0,-1,1357,764,0,0
140,260,0,0,0,0,0,0,0,0,0,-1,1364,764,0,0
147,260,0,0,0,0,0,0,0,0,0,-1,1371,764,0,0
154,260,0,0,0,0,0,0,0,0,0,-1,1378,764,0,0
161,260,0,0,0,0,0,0,0,0,0,-1,1385,764,0,0
168,260,0,0,0,0,0,0,0,0,0,-1,1392,764,0,0
175,260,0,0,0,0,0,0,0,0,0,-1,1399,764,0,0
182,260,0,0,0,0,0,0,0,0,0,-1,1406,764,0,0
189,260,0,0,0,0,0,0,0,0,0,-1,1413,764,0,0
196,260,0,0,0,0,0,0,0,0,0,-1,1420,764,0,0
203,260,0,0,0,0,0,0,0,0,0,-1,1427,764,0,0
210,260,0,0,0,0,0,0,0,0,0,-1,1434,764,0,0
217,260,0,0,0,0,0,0,0,0,0,-1,1441,764,0,0
224,260,0,0,0,0,0,0,0,0,0,-1,1448,764,0,0
231,260,0,0,0,0,0,0,0,0,0,-1,1455,764,0,0
238,260,0,0,0,0,0,0,0,0,0,-1,1462,764,0,0
245,260,0,0,0,0,0,0,0,0,0,-1,1469,764,0,0
252,260,0,0,0,0,0,0,0,0,0,-1,1476,764,0,0
259,260,0,0,0,0,0,0,0,0,0,-1,1483,764,0,0
266,260,0,0,0,0,0,0,0,0,0,-1,1490,764,0,0
273,260,0,0,0,0,0,0,0,0,0,-1,1497,764,0,0
280,260,0,0,0,0,0,0,0,0,0,-1,1504,764,0,0
287,260,0,0,0,0,0,0,0,0,0,-1,1511,764,0,0
294,260,0,0,0,0,0,0,0,0,0,-1,1518,764,0,0
301,260,0,0,0,0,0,0,0,0,0,-1,1525,764,0,0
308,260,0,0,0,0,0,0,0,0,0,-1,1532,764,0,0
315,260,0,0,0,0,0,0,0,0,0,-1,1539,764,0,0
322,260,0,0,0,0,0,0,0,0,0,-1,1546,764,0,0
329,260,0,0,0,0,0,0,0,0,0,-1,1553,764,0,0
336,260,0,0,0,0,0,0,0,0,0,-1,1560,764,0,0
343,260,0,0,0,0,0,0,0,0,0,-1,1567,764,0,0
350,260,0,0,0,0,0,0,0,0,0,-1,1574,764,0,0
357,260,0,0,0,0,0,0,0,0,0,-1,1581,764,0,0
364,260,0,0,0,0,0,0,0,0,0,-1,1588,764,0,0
371,260,0,0,0,0,0,0,0,0,0,-1,1595,764,0,0
378,260,0,0,0,0,0,0,0,0,0,-1,1602,764,0,0
385,260,0,0,0,0,0,0,0,0,0,-1,1609,764,0,0
392,260,0,0,0,0,0,0,0,0,0,-1,1616,764,0,0
399,260,0,0,0,0,0,0,0,0,0,-1,1623,764,0,0
406,260,0,0,0,0,0,0,0,0,0,-1,1630,764,0,0
413,260,0,0,0,0,0,0,0,0,0,-1,1637,764,0,0
420,260,0,0,0,0,0,0,0,0,0,-1,1644,764,0,0
427,260,0,0,0,0,0,0,0,0,0,-1,1651,764,0,0
434,260,0,0,0,0,0,0,0,0,0,-1,1658,764,0,0
441,260,0,0,0,0,0,0,0,0,0,-1,1665,764,0,0
448,260,0,0,0,0,0,0,0,0,0,-1,1672,764,0,0
455,260,0,0,0,0,0,0,0,0,0,-1,1679,764,0,0
462,260,0,0,0,0,0,0,0,0,0,-1,1686,764,0,0
469,260,0,0,0,0,0,0,0,0,0,-1,1693,764,0,0
476,260,0,0,0,0,0,0,0,0,0,-1,1700,764,0,0
483,260,0,0,0,0,0,0,0,0,0,-1,1707,764,0,0
490,260,0,0,0,0,0,0,0,0,0,-1,1714,764,0,0
497,260,0,0,0,0,0,0,0,0,0,-1,1721,764,0,0
504,260,0,0,0,0,0,0,0,0,0,-1,1728,764,0,0
511,260,0,0,0,0,0,0,0,0,0,-1,1735,764,0,0
518,260,0,0,0,0,0,0,0,0,0,-1,1742,764,0,0
525,260,0,0,0,0,0,0,0,0,0,-1,1749,764,0,0
532,260,0,0,0,0,0,0,0,0,0,-1,1756,764,0,0
539,260,0,0,0,0,0,0,0,0,0,-1,1763,764,0,0
546,260,0,0,0,0,0,0,0,0,0,-1,1770,764,0,0
553,260,0,0,0,0,0,0,0,0,0,-1,1777,764,0,0
560,260,0,0,0,0,0,0,0,0,0,-1,1784,764,0,0
567,260,0,0,0,0,0,0,0,0,0,-1,1791,764,0,0
574,260,59.4022,2.70752,0,0,0,0,0,0,0,-1,1798,764,59.4022,-2.70754
581,260,59.2286,2.86621,0,0,0,0,0,0,0,-1,1805,764,59.2287,-2.86619
588,260,60.3771,2.09332,0,0,0,0,0,0,0,-1,1812,764,60.3771,-2.0933
595,260,60.2664,2.25916,0,0,0,0,0,0,0,-1,1819,764,60.2663,-2.25918
602,260,60.1056,2.40137,0,0,0,0,0,0,0,-1,1826,764,60.1056,-2.40135
609,260,59.8877,2.72388,0,0,0,0,0,0,0,-1,1833,764,59.8878,-2.72389
616,260,46.0709,2.74542,0,0,0,0,0,0,0,-1,1840,764,46.0709,-2.74545
623,260,32.2268,3.25836,0,0,0,0,0,0,0,-1,1847,764,32.2268,-3.25833
630,260,24.3739,-0.536316,0,0,0,0,0,0,0,-1,1854,764,24.3739,0.536343
637,260,39.5717,-4.27356,0,0,0,0,0,0,0,-1,1861,764,39.5716,4.27356
644,260,39.6401,-4.10913,-5.43116e-05,-0.00250669,0.000510082,4.75519e-05,-0.00260855,0.197107,0.0017551,0.0466123,1868,764,39.6401,4.10913
651,260,39.5527,-3.27893,-0.000381749,-0.0022844,-0.000183311,-0.000364249,-0.0023019,-0.0951785,0.00142874,0.0197978,1875,764,39.5527,3.27891
658,260,39.4673,-2.56879,-0.000524834,-0.00211988,-0.000717162,-0.000249807,-0.00239491,-0.366196,0.00152019,0.0164241,1882,764,39.4672,2.56877
665,260,39.4009,-1.86542,-0.000625945,-0.00148712,-0.000635819,-0.00028863,-0.00182443,-0.487764,0.0011324,0.0163098,1889,764,39.4008,1.86544
672,260,39.3715,-1.13214,-0.000384389,-0.000670246,-0.000445105,-5.98273e-05,-0.000994808,-0.630043,0.00064419,0.0147441,1896,764,39.3715,1.13214
679,260,39.335,-0.394226,0.000109688,0.000168358,-0.000165869,0.000307466,-2.94196e-05,-0.872922,0.000215455,0.0131836,1903,764,39.3349,0.394206
686,260,39.303,0.344238,0.000847539,0.00110859,0.000281874,0.00128869,0.000667436,1.00223,0.000744185,0.0189301,1910,764,39.303,-0.344212
693,260,39.2555,1.00049,0.001757,0.00203738,0.000789375,0.00269891,0.00109546,0.87328,0.00156739,0.018545,1917,764,39.2555,-1.00049
700,260,39.1907,1.71155,0.00282742,0.00293902,0.00131786,0.00420226,0.00156418,0.806557,0.00245244,0.0141971,1924,764,39.1906,-1.71154
707,260,39.1965,2.43872,0.00405787,0.0037654,0.00194186,0.00585899,0.00196428,0.747816,0.00344335,0.0154238,1931,764,39.1965,-2.43873
714,260,39.2582,3.15509,0.00564068,0.0047701,0.00286088,0.00809919,0.00231159,0.709901,0.00481748,0.032016,1938,764,39.2582,-3.1551
721,260,39.347,3.89026,0,0,0,0,0,0,0,-1,1945,764,39.347,-3.89025
728,260,33.4344,5.75409,0,0,0,0,0,0,0,-1,1952,764,33.4345,-5.75408
735,260,26.9788,4.85681,0,0,0,0,0,0,0,-1,1959,764,26.9787,-4.85678
742,260,32.1443,1.73688,0,0,0,0,0,0,0,-1,1966,764,32.1442,-1.73688
749,260,33.6013,2.94733,0,0,0,0,0,0,0,-1,1973,764,33.6013,-2.9473
756,260,0,0,0,0,0,0,0,0,0,-1,1980,764,0,0
763,260,0,0,0,0,0,0,0,0,0,-1,1987,764,0,0
770,260,0,0,0,0,0,0,0,0,0,-1,1994,764,0,0
777,260,0,0,0,0,0,0,0,0,0,-1,2001,764,0,0
784,260,0,0,0,0,0,0,0,0,0,-1,2008,764,0,0
791,260,0,0,0,0,0,0,0,0,0,-1,2015,764,0,0
798,260,0,0,0,0,0,0,0,0,0,-1,2022,764,0,0
805,260,0,0,0,0,0,0,0,0,0,-1,2029,764,0,0
812,260,0,0,0,0,0,0,0,0,0,-1,2036,764,0,0
-700,253,0,0,0,0,0,0,0,0,0,-1,524,771,0,0
-693,253,0,0,0,0,0,0,0,0,0,-1,531,771,0,0
-686,253,0,0,0,0,0,0,0,0,0,-1,538,771,0,0
-679,253,0,0,0,0,0,0,0,0,0,-1,545,771,0,0
-672,253,0,0,0,0,0,0,0,0,0,-1,552,771,0,0
-665,253,0,0,0,0,0,0,0,0,0,-1,559,771,0,0
-658,253,0,0,0,0,0,0,0,0,0,-1,566,771,0,0
-651,253,0,0,0,0,0,0,0,0,0,-1,573,771,0,0
-644,253,0,0,0,0,0,0,0,0,0,-1,580,771,0,0
-637,253,-24.7979,-0.491394,0,0,0,0,0,0,0,-1,587,771,-24.7978,0.491371
-630,253,-25.156,0.540405,0,0,0,0,0,0,0,-1,594,771,-25.156,-0.540421
-623,253,-20.808,2.84314,0,0,0,0,0,0,0,-1,601,771,-20.8081,-2.84312
-616,253,-25.0877,2.96875,0,0,0,0,0,0,0,-1,608,771,-25.0877,-2.96876
-609,253,-24.28,2.08228,0,0,0,0,0,0,0,-1,615,771,-24.2801,-2.08227
-602,253,-28.701,2.51532,0,0,0,0,0,0,0,-1,622,771,-28.701,-2.51534
-595,253,-28.129,1.93567,0.0349036,0.00905853,3.28906e-05,0.0349036,0.00905848,0.0012726,0.0209141,0.0483878,629,771,-28.129,-1.93568
-588,253,-27.4366,1.29889,0.0245497,0.00768725,5.25432e-05,0.0245498,0.00768709,0.00311596,0.0145001,0.0374099,636,771,-27.4366,-1.2989
-581,253,-27.2845,0.711914,0.0167179,0.0061349,3.19091e-05,0.016718,0.0061348,0.00301508,0.0097654,0.0254464,643,771,-27.2845,-0.711919
-574,253,-27.3081,0.0540771,0.0108723,0.00467881,0.000227671,0.0108807,0.00467045,0.0366937,0.00630288,0.0214143,650,771,-27.3081,-0.054083
-567,253,-27.3446,-0.638245,0.00658034,0.00314875,0.000537141,0.00666246,0.00306663,0.151696,0.00385061,0.0184044,657,771,-27.3446,0.638257
-560,253,-27.3583,-1.27576,0.00342042,0.001698,0.000921332,0.00382038,0.00129805,0.409558,0.00224313,0.0145537,664,771,-27.3583,1.27574
-553,253,-27.3766,-1.97382,0.00112628,0.000113186,0.00142036,0.00212772,-0.000888252,0.614112,0.00178962,0.0128581,671,771,-27.3767,1.97381
-546,253,-27.4168,-2.63751,-0.00049752,-0.00153951,0.00210311,0.00114817,-0.0031852,0.66398,0.00259238,0.0112407,678,771,-27.4168,2.63752
-539,253,-27.473,-3.35406,-0.0017609,-0.00282584,0.00289006,0.000645333,-0.00523207,0.6943,0.00372186,0.0131118,685,771,-27.473,3.35407
-532,253,-27.4701,-4.06146,-0.00187078,-0.00371793,0.00335848,0.000688801,-0.00627751,0.651216,0.00443248,0.0179581,692,771,-27.4701,4.06146
-525,253,-27.4816,-4.76984,-0.00157399,-0.00349264,0.0038922,0.00147536,-0.00654199,0.66457,0.0049273,0.0192514,699,771,-27.4816,4.76986
-518,253,-27.6275,-5.47552,-0.00364609,-0.00245463,0.00399714,0.000990927,-0.00709165,0.859373,0.00509033,0.0364699,706,771,-27.6275,5.47552
-511,253,-27.6722,-5.97815,0,0,0,0,0,0,0,-1,713,771,-27.6722,5.97818
-504,253,-19.317,-4.1723,0,0,0,0,0,0,0,-1,720,771,-19.317,4.1723
-497,253,-21.7737,-1.76837,0,0,0,0,0,0,0,-1,727,771,-21.7738,1.7684
-490,253,-29.7674,0.438354,0,0,0,0,0,0,0,-1,734,771,-29.7674,-0.438339
-483,253,-44.1232,1.72845,0,0,0,0,0,0,0,-1,741,771,-44.1232,-1.72847
-476,253,-44.3555,1.61084,-0.0165479,-0.00656322,0.0071182,-0.00286117,-0.0202499,1.09121,0.0126545,0.0484431,748,771,-44.3555,-1.61082
-469,253,-44.3847,1.40009,-0.0191104,-0.00951229,0.00945985,-0.00370381,-0.0249189,1.02014,0.0155259,0.0442333,755,771,-44.3847,-1.40006
-462,253,-45.3019,0.842346,-0.0205777,-0.0140298,0.0126039,-0.00428153,-0.0303259,0.912468,0.018952,0.0443915,762,771,-45.3019,-0.842325
-455,253,-45.198,0.979858,-0.018785,-0.0210097,0.0162598,-0.00359955,-0.0361951,0.751246,0.0230242,0.034522,769,771,-45.198,-0.979828
-448,253,0,0,0,0,0,0,0,0,0,-1,776,771,0,0
-441,253,0,0,0,0,0,0,0,0,0,-1,783,771,0,0
-434,253,0,0,0,0,0,0,0,0,0,-1,790,771,0,0
-427,253,0,0,0,0,0,0,0,0,0,-1,797,771,0,0
-420,253,0,0,0,0,0,0,0,0,0,-1,804,771,0,0
-413,253,0,0,0,0,0,0,0,0,0,-1,811,771,0,0
-406,253,0,0,0,0,0,0,0,0,0,-1,818,771,0,0
-399,253,0,0,0,0,0,0,0,0,0,-1,825,771,0,0
-392,253,0,0,0,0,0,0,0,0,0,-1,832,771,0,0
-385,253,0,0,0,0,0,0,0,0,0,-1,839,771,0,0
-378,253,0,0,0,0,0,0,0,0,0,-1,846,771,0,0
-371,253,0,0,0,0,0,0,0,0,0,-1,853,771,0,0
-364,253,0,0,0,0,0,0,0,0,0,-1,860,771,0,0
-357,253,0,0,0,0,0,0,0,0,0,-1,867,771,0,0
-350,253,0,0,0,0,0,0,0,0,0,-1,874,771,0,0
-343,253,0,0,0,0,0,0,0,0,0,-1,881,771,0,0
-336,253,0,0,0,0,0,0,0,0,0,-1,888,771,0,0
-329,253,0,0,0,0,0,0,0,0,0,-1,895,771,0,0
-322,253,0,0,0,0,0,0,0,0,0,-1,902,771,0,0
-315,253,0,0,0,0,0,0,0,0,0,-1,909,771,0,0
-308,253,0,0,0,0,0,0,0,0,0,-1,916,771,0,0
-301,253,0,0,0,0,0,0,0,0,0,-1,923,771,0,0
-294,253,0,0,0,0,0,0,0,0,0,-1,930,771,0,0
-287,253,0,0,0,0,0,0,0,0,0,-1,937,771,0,0
-280,253,0,0,0,0,0,0,0,0,0,-1,944,771,0,0
-273,253,0,0,0,0,0,0,0,0,0,-1,951,771,0,0
-266,253,0,0,0,0,0,0,0,0,0,-1,958,771,0,0
-259,253,0,0,0,0,0,0,0,0,0,-1,965,771,0,0
-252,253,0,0,0,0,0,0,0,0,0,-1,972,771,0,0
-245,253,0,0,0,0,0,0,0,0,0,-1,979,771,0,0
-238,253,0,0,0,0,0,0,0,0,0,-1,986,771,0,0
-231,253,0,0,0,0,0,0,0,0,0,-1,993,771,0,0
-224,253,0,0,0,0,0,0,0,0,0,-1,1000,771,0,0
-217,253,0,0,0,0,0,0,0,0,0,-1,1007,771,0,0
-210,253,0,0,0,0,0,0,0,0,0,-1,1014,771,0,0
-203,253,0,0,0,0,0,0,0,0,0,-1,1021,771,0,0
-196,253,0,0,0,0,0,0,0,0,0,-1,1028,771,0,0
-189,253,0,0,0,0,0,0,0,0,0,-1,1035,771,0,0
-182,253,0,0,0,0,0,0,0,0,0,-1,1042,771,0,0
-175,253,0,0,0,0,0,0,0,0,0,-1,1049,771,0,0
-168,253,0,0,0,0,0,0,0,0,0,-1,1056,771,0,0
-161,253,0,0,0,0,0,0,0,0,0,-1,1063,771,0,0
-154,253,0,0,0,0,0,0,0,0,0,-1,1070,771,0,0
-147,253,0,0,0,0,0,0,0,0,0,-1,1077,771,0,0
-140,253,0,0,0,0,0,0,0,0,0,-1,1084,771,0,0
-133,253,0,0,0,0,0,0,0,0,0,-1,1091,771,0,0
-126,253,0,0,0,0,0,0,0,0,0,-1,1098,771,0,0
-119,253,0,0,0,0,0,0,0,0,0,-1,1105,771,0,0
-112,253,0,0,0,0,0,0,0,0,0,-1,1112,771,0,0
-105,253,0,0,0,0,0,0,0,0,0,-1,1119,771,0,0
-98,253,0,0,0,0,0,0,0,0,0,-1,1126,771,0,0
-91,253,0,0,0,0,0,0,0,0,0,-1,1133,771,0,0
-84,253,0,0,0,0,0,0,0,0,0,-1,1140,771,0,0
-77,253,0,0,0,0,0,0,0,0,0,-1,1147,771,0,0
-70,253,0,0,0,0,0,0,0,0,0,-1,1154,771,0,0
-63,253,0,0,0,0,0,0,0,0,0,-1,1161,771,0,0
-56,253,0,0,0,0,0,0,0,0,0,-1,1168,771,0,0
-49,253,0,0,0,0,0,0,0,0,0,-1,1175,771,0,0
-42,253,0,0,0,0,0,0,0,0,0,-1,1182,771,0,0
-35,253,0,0,0,0,0,0,0,0,0,-1,1189,771,0,0
-28,253,0,0,0,0,0,0,0,0,0,-1,1196,771,0,0
-21,253,0,0,0,0,0,0,0,0,0,-1,1203,771,0,0
-14,253,0,0,0,0,0,0,0,0,0,-1,1210,771,0,0
-7,253,0,0,0,0,0,0,0,0,0,-1,1217,771,0,0
0,253,0,0,0,0,0,0,0,0,0,-1,1224,771,0,0
7,253,0,0,0,0,0,0,0,0,0,-1,1231,771,0,0
14,253,0,0,0,0,0,0,0,0,0,-1,1238,771,0,0
21,253,0,0,0,0,0,0,0,0,0,-1,1245,771,0,0
28,253,0,0,0,0,0,0,0,0,0,-1,1252,771,0,0
35,253,0,0,0,0,0,0,0,0,0,-1,1259,771,0,0
42,253,0,0,0,0,0,0,0,0,0,-1,1266,771,0,0
49,253,0,0,0,0,0,0,0,0,0,-1,1273,771,0,0
56,253,0,0,0,0,0,0,0,0,0,-1,1280,771,0,0
63,253,0,0,0,0,0,0,0,0,0,-1,1287,771,0,0
70,253,0,0,0,0,0,0,0,0,0,-1,1294,771,0,0
77,253,0,0,0,0,0,0,0,0,0,-1,1301,771,0,0
84,253,0,0,0,0,0,0,0,0,0,-1,1308,771,0,0
91,253,0,0,0,0,0,0,0,0,0,-1,1315,771,0,0
98,253,0,0,0,0,0,0,0,0,0,-1,1322,771,0,0
105,253,0,0,0,0,0,0,0,0,0,-1,1329,771,0,0
112,253,0,0,0,0,0,0,0,0,0,-1,1336,771,0,0
119,253,0,0,0,0,0,0,0,0,0,-1,1343,771,0,0
126,253,0,0,0,0,0,0,0,0,0,-1,1350,771,0,0
133,253,0,0,0,0,0,0,0,0,0,-1,1357,771,0,0
140,253,0,0,0,0,0,0,0,0,0,-1,1364,771,0,0
147,253,0,0,0,0,0,0,0,0,0,-1,1371,771,0,0
154,253,0,0,0,0,0,0,0,0,0,-1,1378,771,0,0
161,253,0,0,0,0,0,0,0,0,0,-1,1385,771,0,0
168,253,0,0,0,0,0,0,0,0,0,-1,1392,771,0,0
175,253,0,0,0,0,0,0,0,0,0,-1,1399,771,0,0
182,253,0,0,0,0,0,0,0,0,0,-1,1406,771,0,0
189,253,0,0,0,0,0,0,0,0,0,-1,1413,771,0,0
196,253,0,0,0,0,0,0,0,0,0,-1,1420,771,0,0
203,253,0,0,0,0,0,0,0,0,0,-1,1427,771,0,0
210,253,0,0,0,0,0,0,0,0,0,-1,1434,771,0,0
217,253,0,0,0,0,0,0,0,0,0,-1,1441,771,0,0
224,253,0,0,0,0,0,0,0,0,0,-1,1448,771,0,0
231,253,0,0,0,0,0,0,0,0,0,-1,1455,771,0,0
238,253,0,0,0,0,0,0,0,0,0,-1,1462,771,0,0
245,253,0,0,0,0,0,0,0,0,0,-1,1469,771,0,0
252,253,0,0,0,0,0,0,0,0,0,-1,1476,771,0,0
259,253,0,0,0,0,0,0,0,0,0,-1,1483,771,0,0
266,253,0,0,0,0,0,0,0,0,0,-1,1490,771,0,0
273,253,0,0,0,0,0,0,0,0,0,-1,1497,771,0,0
280,253,0,0,0,0,0,0,0,0,0,-1,1504,771,0,0
287,253,0,0,0,0,0,0,0,0,0,-1,1511,771,0,0
294,253,0,0,0,0,0,0,0,0,0,-1,1518,771,0,0
301,253,0,0,0,0,0,0,0,0,0,-1,1525,771,0,0
308,253,0,0,0,0,0,0,0,0,0,-1,1532,771,0,0
315,253,0,0,0,0,0,0,0,0,0,-1,1539,771,0,0
322,253,0,0,0,0,0,0,0,0,0,-1,1546,771,0,0
329,253,0,0,0,0,0,0,0,0,0,-1,1553,771,0,0
336,253,0,0,0,0,0,0,0,0,0,-1,1560,771,0,0
343,253,0,0,0,0,0,0,0,0,0,-1,1567,771,0,0
350,253,0,0,0,0,0,0,0,0,0,-1,1574,771,0,0
357,253,0,0,0,0,0,0,0,0,0,-1,1581,771,0,0
364,253,0,0,0,0,0,0,0,0,0,-1,1588,771,0,0
371,253,0,0,0,0,0,0,0,0,0,-1,1595,771,0,0
378,253,0,0,0,0,0,0,0,0,0,-1,1602,771,0,0
385,253,0,0,0,0,0,0,0,0,0,-1,1609,771,0,0
392,253,0,0,0,0,0,0,0,0,0,-1,1616,771,0,0
399,253,0,0,0,0,0,0,0,0,0,-1,1623,771,0,0
406,253,0,0,0,0,0,0,0,0,0,-1,1630,771,0,0
413,253,0,0,0,0,0,0,0,0,0,-1,1637,771,0,0
420,253,0,0,0,0,0,0,0,0,0,-1,1644,771,0,0
427,253,0,0,0,0,0,0,0,0,0,-1,1651,771,0,0
434,253,0,0,0,0,0,0,0,0,0,-1,1658,771,0,0
441,253,0,0,0,0,0,0,0,0,0,-1,1665,771,0,0
448,253,0,0,0,0,0,0,0,0,0,-1,1672,771,0,0
455,253,0,0,0,0,0,0,0,0,0,-1,1679,771,0,0
462,253,0,0,0,0,0,0,0,0,0,-1,1686,771,0,0
469,253,0,0,0,0,0,0,0,0,0,-1,1693,771,0,0
476,253,0,0,0,0,0,0,0,0,0,-1,1700,771,0,0
483,253,0,0,0,0,0,0,0,0,0,-1,1707,771,0,0
490,253,0,0,0,0,0,0,0,0,0,-1,1714,771,0,0
497,253,0,0,0,0,0,0,0,0,0,-1,1721,771,0,0
504,253,0,0,0,0,0,0,0,0,0,-1,1728,771,0,0
511,253,0,0,0,0,0,0,0,0,0,-1,1735,771,0,0
518,253,0,0,0,0,0,0,0,0,0,-1,1742,771,0,0
525,253,0,0,0,0,0,0,0,0,0,-1,1749,771,0,0
532,253,0,0,0,0,0,0,0,0,0,-1,1756,771,0,0
539,253,0,0,0,0,0,0,0,0,0,-1,1763,771,0,0
546,253,0,0,0,0,0,0,0,0,0,-1,1770,771,0,0
553,253,0,0,0,0,0,0,0,0,0,-1,1777,771,0,0
560,253,0,0,0,0,0,0,0,0,0,-1,1784,771,0,0
567,253,0,0,0,0,0,0,0,0,0,-1,1791,771,0,0
574,253,59.2257,2.58075,0,0,0,0,0,0,0,-1,1798,771,59.2257,-2.58075
581,253,59.1801,2.74994,0.014452,0.00121098,0.0034338,0.0152895,0.000373463,0.239232,0.0100708,0.0423086,1805,771,59.18,-2.74993
588,253,59.3616,2.74725,0.0109918,0.000209009,0.00383461,0.0122164,-0.00101559,0.309117,0.00850304,0.0453392,1812,771,59.3615,-2.74723
595,253,59.892,2.41113,0,0,0,0,0,0,0,-1,1819,771,59.892,-2.41114
602,253,59.6713,2.72034,0,0,0,0,0,0,0,-1,1826,771,59.6713,-2.72032
609,253,59.4506,3.02948,0,0,0,0,0,0,0,-1,1833,771,59.4505,-3.02949
616,253,58.416,2.69031,0,0,0,0,0,0,0,-1,1840,771,58.4161,-2.69031
623,253,48.8328,3.01001,0,0,0,0,0,0,0,-1,1847,771,48.8328,-3.01002
630,253,33.561,2.96838,0,0,0,0,0,0,0,-1,1854,771,33.561,-2.96836
637,253,22.3192,-0.604004,0,0,0,0,0,0,0,-1,1861,771,22.3192,0.603986
644,253,40.5555,-4.08936,0,0,0,0,0,0,0,-1,1868,771,40.5555,4.08936
651,253,40.2137,-3.16223,-0.000642534,-0.00238549,-0.000284854,-0.000597161,-0.00243086,-0.157958,0.00146273,0.0389668,1875,771,40.2138,3.16226
658,253,40.1261,-2.51678,-0.000952901,-0.00233642,-0.00093923,-0.000478176,-0.00281114,-0.467991,0.00173678,0.0203884,1882,771,40.1261,2.51678
665,253,40.0819,-1.82965,-0.00128965,-0.00185481,-0.000950599,-0.00058052,-0.00256394,-0.640926,0.0015524,0.0215199,1889,771,40.0819,1.82967
672,253,40.0828,-1.09082,-0.00120979,-0.00119937,-0.000872947,-0.000331618,-0.00207754,-0.788385,0.00128879,0.0182416,1896,771,40.0827,1.09079
679,253,40.0718,-0.349609,-0.00076733,-0.000500554,-0.000685514,6.44295e-05,-0.00133231,-0.881488,0.000910445,0.0136769,1903,771,40.0717,0.349617
686,253,40.0211,0.371216,1.22534e-05,0.000376174,-0.000267668,0.000517874,-0.000129447,-1.08392,0.000395523,0.021814,1910,771,40.0211,-0.37119
693,253,39.9393,1.05969,0.00107192,0.00127023,0.000230461,0.00142196,0.000920191,0.988547,0.000832733,0.0213498,1917,771,39.9394,-1.05971
700,253,39.9004,1.73499,0.00239234,0.00202035,0.000665348,0.0028972,0.00151549,0.649106,0.00167329,0.0155658,1924,771,39.9004,-1.73498
707,253,39.9016,2.45471,0.00401855,0.00272651,0.000984257,0.00454986,0.0021952,0.494985,0.0026274,0.0146016,1931,771,39.9016,-2.45469
714,253,39.9268,3.1731,0.00626146,0.0033985,0.0011637,0.00667479,0.00298517,0.341289,0.00386084,0.0229089,1938,771,39.9267,-3.1731
721,253,39.988,3.94568,0.00868918,0.0033599,0.00071774,0.00878415,0.00326493,0.131556,0.0051269,0.0417115,1945,771,39.988,-3.94569
728,253,40.0707,4.73083,0,0,0,0,0,0,0,-1,1952,771,40.0707,-4.73085
735,253,34.5735,6.15118,0,0,0,0,0,0,0,-1,1959,771,34.5734,-6.1512
742,253,31.0571,5.7337,0,0,0,0,0,0,0,-1,1966,771,31.0571,-5.73373
749,253,33.7754,3.21533,0,0,0,0,0,0,0,-1,1973,771,33.7754,-3.21533
756,253,0,0,0,0,0,0,0,0,0,-1,1980,771,0,0
763,253,0,0,0,0,0,0,0,0,0,-1,1987,771,0,0
770,253,0,0,0,0,0,0,0,0,0,-1,1994,771,0,0
777,253,0,0,0,0,0,0,0,0,0,-1,2001,771,0,0
784,253,0,0,0,0,0,0,0,0,0,-1,2008,771,0,0
791,253,0,0,0,0,0,0,0,0,0,-1,2015,771,0,0
798,253,0,0,0,0,0,0,0,0,0,-1,2022,771,0,0
805,253,0,0,0,0,0,0,0,0,0,-1,2029,771,0,0
812,253,0,0,0,0,0,0,0,0,0,-1,2036,771,0,0
-700,246,0,0,0,0,0,0,0,0,0,-1,524,778,0,0
-693,246,0,0,0,0,0,0,0,0,0,-1,531,778,0,0
-686,246,0,0,0,0,0,0,0,0,0,-1,538,778,0,0
-679,246,0,0,0,0,0,0,0,0,0,-1,545,778,0,0
-672,246,0,0,0,0,0,0,0,0,0,-1,552,778,0,0
-665,246,0,0,0,0,0,0,0,0,0,-1,559,778,0,0
-658,246,0,0,0,0,0,0,0,0,0,-1,566,778,0,0
-651,246,0,0,0,0,0,0,0,0,0,-1,573,778,0,0
-644,246,0,0,0,0,0,0,0,0,0,-1,580,778,0,0
-637,246,-24.1234,0.130432,0,0,0,0,0,0,0,-1,587,778,-24.1234,-0.130438
-630,246,-24.0781,1.38916,0,0,0,0,0,0,0,-1,594,778,-24.0781,-1.38913
-623,246,-23.9183,2.49573,0,0,0,0,0,0,0,-1,601,778,-23.9183,-2.49575
-616,246,-26.8182,2.0705,0,0,0,0,0,0,0,-1,608,778,-26.8182,-2.07052
-609,246,-26.0615,1.16388,0,0,0,0,0,0,0,-1,615,778,-26.0615,-1.16388
-602,246,-29.202,2.7193,0,0,0,0,0,0,0,-1,622,778,-29.202,-2.71931
-595,246,-28.6696,2.12054,0.0306551,0.00683217,-0.0004954,0.0306654,0.00682188,-0.0207831,0.0185916,0.0471689,629,778,-28.6696,-2.12056
-588,246,-27.9323,1.48541,0.0219849,0.00598619,-0.000345996,0.0219923,0.00597871,-0.021613,0.0131305,0.030173,636,778,-27.9322,-1.48539
-581,246,-28.0132,0.801025,0.0151379,0.00485457,-0.000213253,0.0151423,0.00485015,-0.0207258,0.00892866,0.0178322,643,778,-28.0132,-0.801032
-574,246,-27.9604,0.0436401,0.00980983,0.00366813,0.000110141,0.00981181,0.00366616,0.0179256,0.00572482,0.0184018,650,778,-27.9604,-0.0436292
-567,246,-28.0113,-0.613953,0.0057266,0.00237899,0.000525875,0.00580727,0.00229832,0.152207,0.00337702,0.0235873,657,778,-28.0113,0.61398
-560,246,-28.0657,-1.25305,0.00263343,0.00105009,0.00102154,0.00313415,0.000549363,0.455752,0.00193252,0.0186031,664,778,-28.0658,1.25303
-553,246,-28.0661,-1.909,0.000458436,-0.000545295,0.00161364,0.00164645,-0.00173331,0.634632,0.00195152,0.0137783,671,778,-28.0661,1.90901
-546,246,-28.1164,-2.58258,-0.00093742,-0.00225649,0.00236441,0.000857721,-0.00405163,0.649384,0.00302776,0.0113803,678,778,-28.1164,2.58256
-539,246,-28.148,-3.30945,-0.00185753,-0.00350248,0.00317197,0.000596863,-0.00595688,0.658544,0.00418442,0.0115051,685,778,-28.148,3.30944
-532,246,-28.1328,-4.04443,-0.00169309,-0.00420206,0.00353011,0.000798805,-0.00669396,0.614674,0.00475134,0.0181749,692,778,-28.1328,4.04442
-525,246,-28.1937,-4.72485,-0.00123785,-0.00395344,0.00400221,0.00163061,-0.00682191,0.62186,0.00517778,0.0371752,699,778,-28.1937,4.72484
-518,246,-28.3892,-5.58575,0,0,0,0,0,0,0,-1,706,778,-28.3892,5.58573
-511,246,-28.5886,-5.38635,0,0,0,0,0,0,0,-1,713,778,-28.5886,5.38633
-504,246,-20.0047,-2.88214,0,0,0,0,0,0,0,-1,720,778,-20.0047,2.88216
-497,246,-29.4669,1.82684,0,0,0,0,0,0,0,-1,727,778,-29.4669,-1.82687
-490,246,-40.4299,1.04309,0,0,0,0,0,0,0,-1,734,778,-40.4299,-1.04308
-483,246,-45.5724,1.24469,0,0,0,0,0,0,0,-1,741,778,-45.5725,-1.24469
-476,246,-44.665,1.49683,-0.0143579,-0.00472203,0.00517018,-0.00247291,-0.016607,1.16047,0.010346,0.0492637,748,778,-44.665,-1.49683
-469,246,-44.7383,1.34717,-0.0167963,-0.00687254,0.00642714,-0.00371479,-0.0199541,1.11412,0.0122536,0.0414946,755,778,-44.7384,-1.34718
-462,246,-45.2346,0.934387,-0.0177219,-0.0108117,0.00813616,-0.0054274,-0.0231062,0.986188,0.0139514,0.0473207,762,778,-45.2346,-0.934411
-455,246,0,0,0,0,0,0,0,0,0,-1,769,778,0,0
-448,246,0,0,0,0,0,0,0,0,0,-1,776,778,0,0
-441,246,0,0,0,0,0,0,0,0,0,-1,783,778,0,0
-434,246,0,0,0,0,0,0,0,0,0,-1,790,778,0,0
-427,246,0,0,0,0,0,0,0,0,0,-1,797,778,0,0
-420,246,0,0,0,0,0,0,0,0,0,-1,804,778,0,0
-413,246,0,0,0,0,0,0,0,0,0,-1,811,778,0,0
-406,246,0,0,0,0,0,0,0,0,0,-1,818,778,0,0
-399,246,0,0,0,0,0,0,0,0,0,-1,825,778,0,0
-392,246,0,0,0,0,0,0,0,0,0,-1,832,778,0,0
-385,246,0,0,0,0,0,0,0,0,0,-1,839,778,0,0
-378,246,0,0,0,0,0,0,0,0,0,-1,846,778,0,0
-371,246,0,0,0,0,0,0,0,0,0,-1,853,778,0,0
-364,246,0,0,0,0,0,0,0,0,0,-1,860,778,0,0
-357,246,0,0,0,0,0,0,0,0,0,-1,867,778,0,0
-350,246,0,0,0,0,0,0,0,0,0,-1,874,778,0,0
-343,246,0,0,0,0,0,0,0,0,0,-1,881,778,0,0
-336,246,0,0,0,0,0,0,0,0,0,-1,888,778,0,0
-329,246,0,0,0,0,0,0,0,0,0,-1,895,778,0,0
-322,246,0,0,0,0,0,0,0,0,0,-1,902,778,0,0
-315,246,0,0,0,0,0,0,0,0,0,-1,909,778,0,0
-308,246,0,0,0,0,0,0,0,0,0,-1,916,778,0,0
-301,246,0,0,0,0,0,0,0,0,0,-1,923,778,0,0
-294,246,0,0,0,0,0,0,0,0,0,-1,930,778,0,0
-287,246,0,0,0,0,0,0,0,0,0,-1,937,778,0,0
-280,246,0,0,0,0,0,0,0,0,0,-1,944,778,0,0
-273,246,0,0,0,0,0,0,0,0,0,-1,951,778,0,0
-266,246,0,0,0,0,0,0,0,0,0,-1,958,778,0,0
-259,246,0,0,0,0,0,0,0,0,0,-1,965,778,0,0
-252,246,0,0,0,0,0,0,0,0,0,-1,972,778,0,0
-245,246,0,0,0,0,0,0,0,0,0,-1,979,778,0,0
-238,246,0,0,0,0,0,0,0,0,0,-1,986,778,0,0
-231,246,0,0,0,0,0,0,0,0,0,-1,993,778,0,0
-224,246,0,0,0,0,0,0,0,0,0,-1,1000,778,0,0
-217,246,0,0,0,0,0,0,0,0,0,-1,1007,778,0,0
-210,246,0,0,0,0,0,0,0,0,0,-1,1014,778,0,0
-203,246,0,0,0,0,0,0,0,0,0,-1,1021,778,0,0
-196,246,0,0,0,0,0,0,0,0,0,-1,1028,778,0,0
-189,246,0,0,0,0,0,0,0,0,0,-1,1035,778,0,0
-182,246,0,0,0,0,0,0,0,0,0,-1,1042,778,0,0
-175,246,0,0,0,0,0,0,0,0,0,-1,1049,778,0,0
-168,246,0,0,0,0,0,0,0,0,0,-1,1056,778,0,0
-161,246,0,0,0,0,0,0,0,0,0,-1,1063,778,0,0
-154,246,0,0,0,0,0,0,0,0,0,-1,1070,778,0,0
-147,246,0,0,0,0,0,0,0,0,0,-1,1077,778,0,0
-140,246,0,0,0,0,0,0,0,0,0,-1,1084,778,0,0
-133,246,0,0,0,0,0,0,0,0,0,-1,1091,778,0,0
-126,246,0,0,0,0,0,0,0,0,0,-1,1098,778,0,0
-119,246,0,0,0,0,0,0,0,0,0,-1,1105,778,0,0
-112,246,0,0,0,0,0,0,0,0,0,-1,1112,778,0,0
-105,246,0,0,0,0,0,0,0,0,0,-1,1119,778,0,0
-98,246,0,0,0,0,0,0,0,0,0,-1,1126,778,0,0
-91,246,0,0,0,0,0,0,0,0,0,-1,1133,778,0,0
-84,246,0,0,0,0,0,0,0,0,0,-1,1140,778,0,0
-77,246,0,0,0,0,0,0,0,0,0,-1,1147,778,0,0
-70,246,0,0,0,0,0,0,0,0,0,-1,1154,778,0,0
-63,246,0,0,0,0,0,0,0,0,0,-1,1161,778,0,0
-56,246,0,0,0,0,0,0,0,0,0,-1,1168,778,0,0
-49,246,0,0,0,0,0,0,0,0,0,-1,1175,778,0,0
-42,246,0,0,0,0,0,0,0,0,0,-1,1182,778,0,0
-35,246,0,0,0,0,0,0,0,0,0,-1,1189,778,0,0
-28,246,0,0,0,0,0,0,0,0,0,-1,1196,778,0,0
-21,246,0,0,0,0,0,0,0,0,0,-1,1203,778,0,0
-14,246,0,0,0,0,0,0,0,0,0,-1,1210,778,0,0
-7,246,0,0,0,0,0,0,0,0,0,-1,1217,778,0,0
0,246,0,0,0,0,0,0,0,0,0,-1,1224,778,0,0
7,246,0,0,0,0,0,0,0,0,0,-1,1231,778,0,0
14,246,0,0,0,0,0,0,0,0,0,-1,1238,778,0,0
21,246,0,0,0,0,0,0,0,0,0,-1,1245,778,0,0
28,246,0,0,0,0,0,0,0,0,0,-1,1252,778,0,0
35,246,0,0,0,0,0,0,0,0,0,-1,1259,778,0,0
42,246,0,0,0,0,0,0,0,0,0,-1,1266,778,0,0
49,246,0,0,0,0,0,0,0,0,0,-1,1273,778,0,0
56,246,0,0,0,0,0,0,0,0,0,-1,1280,778,0,0
63,246,0,0,0,0,0,0,0,0,0,-1,1287,778,0,0
70,246,0,0,0,0,0,0,0,0,0,-1,1294,778,0,0
77,246,0,0,0,0,0,0,0,0,0,-1,1301,778,0,0
84,246,0,0,0,0,0,0,0,0,0,-1,1308,778,0,0
91,246,0,0,0,0,0,0,0,0,0,-1,1315,778,0,0
98,246,0,0,0,0,0,0,0,0,0,-1,1322,778,0,0
105,246,0,0,0,0,0,0,0,0,0,-1,1329,778,0,0
112,246,0,0,0,0,0,0,0,0,0,-1,1336,778,0,0
119,246,0,0,0,0,0,0,0,0,0,-1,1343,778,0,0
126,246,0,0,0,0,0,0,0,0,0,-1,1350,778,0,0
133,246,0,0,0,0,0,0,0,0,0,-1,1357,778,0,0
140,246,0,0,0,0,0,0,0,0,0,-1,1364,778,0,0
147,246,0,0,0,0,0,0,0,0,0,-1,1371,778,0,0
154,246,0,0,0,0,0,0,0,0,0,-1,1378,778,0,0
161,246,0,0,0,0,0,0,0,0,0,-1,1385,778,0,0
168,246,0,0,0,0,0,0,0,0,0,-1,1392,778,0,0
175,246,0,0,0,0,0,0,0,0,0,-1,1399,778,0,0
182,246,0,0,0,0,0,0,0,0,0,-1,1406,778,0,0
189,246,0,0,0,0,0,0,0,0,0,-1,1413,778,0,0
196,246,0,0,0,0,0,0,0,0,0,-1,1420,778,0,0
203,246,0,0,0,0,0,0,0,0,0,-1,1427,778,0,0
210,246,0,0,0,0,0,0,0,0,0,-1,1434,778,0,0
217,246,0,0,0,0,0,0,0,0,0,-1,1441,778,0,0
224,246,0,0,0,0,0,0,0,0,0,-1,1448,778,0,0
231,246,0,0,0,0,0,0,0,0,0,-1,1455,778,0,0
238,246,0,0,0,0,0,0,0,0,0,-1,1462,778,0,0
245,246,0,0,0,0,0,0,0,0,0,-1,1469,778,0,0
252,246,0,0,0,0,0,0,0,0,0,-1,1476,778,0,0
259,246,0,0,0,0,0,0,0,0,0,-1,1483,778,0,0
266,246,0,0,0,0,0,0,0,0,0,-1,1490,778,0,0
273,246,0,0,0,0,0,0,0,0,0,-1,1497,778,0,0
280,246,0,0,0,0,0,0,0,0,0,-1,1504,778,0,0
287,246,0,0,0,0,0,0,0,0,0,-1,1511,778,0,0
294,246,0,0,0,0,0,0,0,0,0,-1,1518,778,0,0
301,246,0,0,0,0,0,0,0,0,0,-1,1525,778,0,0
308,246,0,0,0,0,0,0,0,0,0,-1,1532,778,0,0
315,246,0,0,0,0,0,0,0,0,0,-1,1539,778,0,0
322,246,0,0,0,0,0,0,0,0,0,-1,1546,778,0,0
329,246,0,0,0,0,0,0,0,0,0,-1,1553,778,0,0
336,246,0,0,0,0,0,0,0,0,0,-1,1560,778,0,0
343,246,0,0,0,0,0,0,0,0,0,-1,1567,778,0,0
350,246,0,0,0,0,0,0,0,0,0,-1,1574,778,0,0
357,246,0,0,0,0,0,0,0,0,0,-1,1581,778,0,0
364,246,0,0,0,0,0,0,0,0,0,-1,1588,778,0,0
371,246,0,0,0,0,0,0,0,0,0,-1,1595,778,0,0
378,246,0,0,0,0,0,0,0,0,0,-1,1602,778,0,0
385,246,0,0,0,0,0,0,0,0,0,-1,1609,778,0,0
392,246,0,0,0,0,0,0,0,0,0,-1,1616,778,0,0
399,246,0,0,0,0,0,0,0,0,0,-1,1623,778,0,0
406,246,0,0,0,0,0,0,0,0,0,-1,1630,778,0,0
413,246,0,0,0,0,0,0,0,0,0,-1,1637,778,0,0
420,246,0,0,0,0,0,0,0,0,0,-1,1644,778,0,0
427,246,0,0,0,0,0,0,0,0,0,-1,1651,778,0,0
434,246,0,0,0,0,0,0,0,0,0,-1,1658,778,0,0
441,246,0,0,0,0,0,0,0,0,0,-1,1665,778,0,0
448,246,0,0,0,0,0,0,0,0,0,-1,1672,778,0,0
455,246,0,0,0,0,0,0,0,0,0,-1,1679,778,0,0
462,246,0,0,0,0,0,0,0,0,0,-1,1686,778,0,0
469,246,0,0,0,0,0,0,0,0,0,-1,1693,778,0,0
476,246,0,0,0,0,0,0,0,0,0,-1,1700,778,0,0
483,246,0,0,0,0,0,0,0,0,0,-1,1707,778,0,0
490,246,0,0,0,0,0,0,0,0,0,-1,1714,778,0,0
497,246,0,0,0,0,0,0,0,0,0,-1,1721,778,0,0
504,246,0,0,0,0,0,0,0,0,0,-1,1728,778,0,0
511,246,0,0,0,0,0,0,0,0,0,-1,1735,778,0,0
518,246,0,0,0,0,0,0,0,0,0,-1,1742,778,0,0
525,246,0,0,0,0,0,0,0,0,0,-1,1749,778,0,0
532,246,0,0,0,0,0,0,0,0,0,-1,1756,778,0,0
539,246,0,0,0,0,0,0,0,0,0,-1,1763,778,0,0
546,246,0,0,0,0,0,0,0,0,0,-1,1770,778,0,0
553,246,0,0,0,0,0,0,0,0,0,-1,1777,778,0,0
560,246,0,0,0,0,0,0,0,0,0,-1,1784,778,0,0
567,246,0,0,0,0,0,0,0,0,0,-1,1791,778,0,0
574,246,0,0,0,0,0,0,0,0,0,-1,1798,778,0,0
581,246,59.2031,2.72491,0.0109213,5.32838e-06,0.00304894,0.0117152,-0.000788535,0.254718,0.00808579,0.0399091,1805,778,59.2031,-2.72494
588,246,59.2968,2.67456,0.00885994,-0.000706507,0.0040177,0.0103234,-0.00216997,0.349317,0.00770809,0.04175,1812,778,59.2967,-2.67453
595,246,59.5159,2.60742,0.0069322,-0.00127405,0.00374402,0.00838365,-0.0027255,0.369834,0.00668543,0.0422994,1819,778,59.5158,-2.60741
602,246,59.4653,2.81476,0.00526474,-0.00174194,0.0032181,0.00651845,-0.00299566,0.371493,0.00561708,0.0463983,1826,778,59.4654,-2.81477
609,246,59.2594,3.06873,0,0,0,0,0,0,0,-1,1833,778,59.2594,-3.06872
616,246,58.4375,3.26837,0,0,0,0,0,0,0,-1,1840,778,58.4375,-3.26838
623,246,55.8947,3.95953,0,0,0,0,0,0,0,-1,1847,778,55.8947,-3.95952
630,246,49.5938,1.99902,0,0,0,0,0,0,0,-1,1854,778,49.5937,-1.999
637,246,29.5785,0.837585,0,0,0,0,0,0,0,-1,1861,778,29.5785,-0.837606
644,246,28.1232,-1.43188,0,0,0,0,0,0,0,-1,1868,778,28.1232,1.43188
651,246,40.8395,-3.06226,0,0,0,0,0,0,0,-1,1875,778,40.8395,3.06226
658,246,40.6799,-2.60571,-0.00137906,-0.00243835,-0.00120316,-0.00059413,-0.00322328,-0.578055,0.00198074,0.0445796,1882,778,40.6799,2.6057
665,246,40.7874,-1.79803,-0.00195743,-0.00214245,-0.00124439,-0.000802118,-0.00329776,-0.748297,0.00198589,0.0255258,1889,778,40.7873,1.79806
672,246,40.7838,-1.04987,-0.0021005,-0.00166023,-0.00123808,-0.000622863,-0.00313787,-0.873378,0.0019183,0.0224095,1896,778,40.7838,1.04988
679,246,40.7852,-0.353271,-0.00178011,-0.00111475,-0.00115052,-0.000249779,-0.00264509,-0.926137,0.00168631,0.0213878,1903,778,40.7852,0.353258
686,246,40.7682,0.391541,-0.00100088,-0.000302072,-0.000796524,0.000218315,-0.00152126,-0.992089,0.00109423,0.0221564,1910,778,40.7682,-0.391523
693,246,40.7086,1.07324,0.000214544,0.000568532,-0.000330248,0.000766225,1.68509e-05,-1.03139,0.000505293,0.017558,1917,778,40.7086,-1.07323
700,246,40.6697,1.77136,0.0018592,0.0011831,1.99724e-05,0.00185979,0.00118251,0.0295064,0.00108688,0.0140965,1924,778,40.6697,-1.77136
707,246,40.6316,2.49475,0.00397589,0.00176465,5.93816e-05,0.00397748,0.00176306,0.0268287,0.00230132,0.0131982,1931,778,40.6316,-2.49475
714,246,40.6104,3.22363,0.0069077,0.00213787,-0.000331928,0.00693069,0.00211488,-0.0691449,0.00410147,0.0140512,1938,778,40.6103,-3.22361
721,246,40.5725,3.91858,0.0102698,0.00184471,-0.00146533,0.0105174,0.00159713,-0.167378,0.00654452,0.0193792,1945,778,40.5725,-3.91858
728,246,40.6711,4.83643,0,0,0,0,0,0,0,-1,1952,778,40.6712,-4.83644
735,246,40.8759,5.86011,0,0,0,0,0,0,0,-1,1959,778,40.8759,-5.8601
742,246,31.7356,6.70013,0,0,0,0,0,0,0,-1,1966,778,31.7356,-6.70011
749,246,32.3883,7.69324,0,0,0,0,0,0,0,-1,1973,778,32.3883,-7.69322
756,246,33.6919,3.45264,0,0,0,0,0,0,0,-1,1980,778,33.6919,-3.45262
763,246,0,0,0,0,0,0,0,0,0,-1,1987,778,0,0
770,246,0,0,0,0,0,0,0,0,0,-1,1994,778,0,0
777,246,0,0,0,0,0,0,0,0,0,-1,2001,778,0,0
784,246,0,0,0,0,0,0,0,0,0,-1,2008,778,0,0
791,246,0,0,0,0,0,0,0,0,0,-1,2015,778,0,0
798,246,0,0,0,0,0,0,0,0,0,-1,2022,778,0,0
805,246,0,0,0,0,0,0,0,0,0,-1,2029,778,0,0
812,246,0,0,0,0,0,0,0,0,0,-1,2036,778,0,0
-700,239,0,0,0,0,0,0,0,0,0,-1,524,785,0,0
-693,239,0,0,0,0,0,0,0,0,0,-1,531,785,0,0
-686,239,0,0,0,0,0,0,0,0,0,-1,538,785,0,0
-679,239,0,0,0,0,0,0,0,0,0,-1,545,785,0,0
-672,239,0,0,0,0,0,0,0,0,0,-1,552,785,0,0
-665,239,0,0,0,0,0,0,0,0,0,-1,559,785,0,0
-658,239,0,0,0,0,0,0,0,0,0,-1,566,785,0,0
-651,239,0,0,0,0,0,0,0,0,0,-1,573,785,0,0
-644,239,0,0,0,0,0,0,0,0,0,-1,580,785,0,0
-637,239,-23.2709,0.465088,0,0,0,0,0,0,0,-1,587,785,-23.271,-0.465116
-630,239,-23.4006,0.956299,0,0,0,0,0,0,0,-1,594,785,-23.4005,-0.956285
-623,239,-30.6328,2.52185,0,0,0,0,0,0,0,-1,601,785,-30.6328,-2.52183
-616,239,-29.1425,1.42139,0,0,0,0,0,0,0,-1,608,785,-29.1425,-1.42139
-609,239,-27.8569,0.322937,0,0,0,0,0,0,0,-1,615,785,-27.857,-0.322963
-602,239,-27.9301,4.17188,0,0,0,0,0,0,0,-1,622,785,-27.93,-4.17185
-595,239,-29.0086,2.1947,0,0,0,0,0,0,0,-1,629,785,-29.0086,-2.1947
-588,239,-28.5519,1.64044,0.0188506,0.00473879,-0.000455056,0.0188653,0.00472413,-0.0322018,0.0113352,0.0208247,636,785,-28.5519,-1.64041
-581,239,-28.6765,0.824951,0.0130796,0.00388455,-0.000285179,0.0130884,0.00387571,-0.0309747,0.00776321,0.0110633,643,785,-28.6765,-0.824977
-574,239,-28.6778,0.0884399,0.00837968,0.00289272,8.52124e-05,0.008381,0.0028914,0.015525,0.00491567,0.0121271,650,785,-28.6778,-0.0884523
-567,239,-28.6995,-0.580444,0.00460094,0.00180691,0.000553709,0.00470667,0.00170118,0.188679,0.00275196,0.0170326,657,785,-28.6995,0.58045
-560,239,-28.76,-1.21985,0.0016852,0.000571316,0.00110603,0.0023666,-0.000110085,0.552156,0.00161568,0.0175652,664,785,-28.76,1.21985
-553,239,-28.7708,-1.88885,-0.000210693,-0.00109684,0.0017458,0.00114738,-0.00245491,0.661125,0.00212496,0.0147761,671,785,-28.7707,1.88887
-546,239,-28.8262,-2.56573,-0.00116216,-0.00291061,0.00254758,0.000657019,-0.00472979,0.620114,0.00339347,0.0159987,678,785,-28.8262,2.56575
-539,239,-28.9459,-3.24933,-0.00160508,-0.00414172,0.00337457,0.000731651,-0.00647845,0.605642,0.00458236,0.0185463,685,785,-28.9459,3.24933
-532,239,-28.9941,-3.91846,-0.00121402,-0.00477808,0.0036808,0.00109343,-0.00708554,0.559958,0.00512718,0.0242528,692,785,-28.9941,3.91847
-525,239,-29.0027,-4.36328,-0.000636999,-0.00463713,0.0041347,0.00195598,-0.00723011,0.560126,0.00558738,0.0380343,699,785,-29.0027,4.36331
-518,239,-29.2678,-4.71069,0,0,0,0,0,0,0,-1,706,785,-29.2678,4.71067
-511,239,-20.9849,-2.09235,0,0,0,0,0,0,0,-1,713,785,-20.9848,2.09234
-504,239,-25.5015,2.00421,0,0,0,0,0,0,0,-1,720,785,-25.5015,-2.00422
-497,239,-40.2453,1.4447,0,0,0,0,0,0,0,-1,727,785,-40.2453,-1.4447
-490,239,-44.8862,1.14978,0,0,0,0,0,0,0,-1,734,785,-44.8862,-1.14979
-483,239,-45.3364,1.14545,-0.00909467,-0.00305984,0.00327575,-0.00162356,-0.0105309,1.15758,0.00654689,0.0478752,741,785,-45.3364,-1.14546
-476,239,-45.0029,1.18652,-0.011767,-0.0030006,0.00283467,-0.00216386,-0.0126038,1.28377,0.00778215,0.0442608,748,785,-45.0029,-1.18651
-469,239,-45.1965,0.951172,-0.0140118,-0.0042697,0.00254406,-0.00364535,-0.0146361,1.33014,0.00879774,0.0443634,755,785,-45.1965,-0.95116
-462,239,-45.1579,1.11713,-0.0141261,-0.00764293,0.00216541,-0.0069862,-0.0147828,1.27633,0.00853913,0.0484975,762,785,-45.1579,-1.11714
-455,239,0,0,0,0,0,0,0,0,0,-1,769,785,0,0
-448,239,0,0,0,0,0,0,0,0,0,-1,776,785,0,0
-441,239,0,0,0,0,0,0,0,0,0,-1,783,785,0,0
-434,239,0,0,0,0,0,0,0,0,0,-1,790,785,0,0
-427,239,0,0,0,0,0,0,0,0,0,-1,797,785,0,0
-420,239,0,0,0,0,0,0,0,0,0,-1,804,785,0,0
-413,239,0,0,0,0,0,0,0,0,0,-1,811,785,0,0
-406,239,0,0,0,0,0,0,0,0,0,-1,818,785,0,0
-399,239,0,0,0,0,0,0,0,0,0,-1,825,785,0,0
-392,239,0,0,0,0,0,0,0,0,0,-1,832,785,0,0
-385,239,0,0,0,0,0,0,0,0,0,-1,839,785,0,0
-378,239,0,0,0,0,0,0,0,0,0,-1,846,785,0,0
-371,239,0,0,0,0,0,0,0,0,0,-1,853,785,0,0
-364,239,0,0,0,0,0,0,0,0,0,-1,860,785,0,0
-357,239,0,0,0,0,0,0,0,0,0,-1,867,785,0,0
-350,239,0,0,0,0,0,0,0,0,0,-1,874,785,0,0
-343,239,0,0,0,0,0,0,0,0,0,-1,881,785,0,0
-336,239,0,0,0,0,0,0,0,0,0,-1,888,785,0,0
-329,239,0,0,0,0,0,0,0,0,0,-1,895,785,0,0
-322,239,0,0,0,0,0,0,0,0,0,-1,902,785,0,0
-315,239,0,0,0,0,0,0,0,0,0,-1,909,785,0,0
-308,239,0,0,0,0,0,0,0,0,0,-1,916,785,0,0
-301,239,0,0,0,0,0,0,0,0,0,-1,923,785,0,0
-294,239,0,0,0,0,0,0,0,0,0,-1,930,785,0,0
-287,239,0,0,0,0,0,0,0,0,0,-1,937,785,0,0
-280,239,0,0,0,0,0,0,0,0,0,-1,944,785,0,0
-273,239,0,0,0,0,0,0,0,0,0,-1,951,785,0,0
-266,239,0,0,0,0,0,0,0,0,0,-1,958,785,0,0
-259,239,0,0,0,0,0,0,0,0,0,-1,965,785,0,0
-252,239,0,0,0,0,0,0,0,0,0,-1,972,785,0,0
-245,239,0,0,0,0,0,0,0,0,0,-1,979,785,0,0
-238,239,0,0,0,0,0,0,0,0,0,-1,986,785,0,0
-231,239,0,0,0,0,0,0,0,0,0,-1,993,785,0,0
-224,239,0,0,0,0,0,0,0,0,0,-1,1000,785,0,0
-217,239,0,0,0,0,0,0,0,0,0,-1,1007,785,0,0
-210,239,0,0,0,0,0,0,0,0,0,-1,1014,785,0,0
-203,239,0,0,0,0,0,0,0,0,0,-1,1021,785,0,0
-196,239,0,0,0,0,0,0,0,0,0,-1,1028,785,0,0
-189,239,0,0,0,0,0,0,0,0,0,-1,1035,785,0,0
-182,239,0,0,0,0,0,0,0,0,0,-1,1042,785,0,0
-175,239,0,0,0,0,0,0,0,0,0,-1,1049,785,0,0
-168,239,0,0,0,0,0,0,0,0,0,-1,1056,785,0,0
-161,239,0,0,0,0,0,0,0,0,0,-1,1063,785,0,0
-154,239,0,0,0,0,0,0,0,0,0,-1,1070,785,0,0
-147,239,0,0,0,0,0,0,0,0,0,-1,1077,785,0,0
-140,239,0,0,0,0,0,0,0,0,0,-1,1084,785,0,0
-133,239,0,0,0,0,0,0,0,0,0,-1,1091,785,0,0
-126,239,0,0,0,0,0,0,0,0,0,-1,1098,785,0,0
-119,239,0,0,0,0,0,0,0,0,0,-1,1105,785,0,0
-112,239,0,0,0,0,0,0,0,0,0,-1,1112,785,0,0
-105,239,0,0,0,0,0,0,0,0,0,-1,1119,785,0,0
-98,239,0,0,0,0,0,0,0,0,0,-1,1126,785,0,0
-91,239,0,0,0,0,0,0,0,0,0,-1,1133,785,0,0
-84,239,0,0,0,0,0,0,0,0,0,-1,1140,785,0,0
-77,239,0,0,0,0,0,0,0,0,0,-1,1147,785,0,0
-70,239,0,0,0,0,0,0,0,0,0,-1,1154,785,0,0
-63,239,0,0,0,0,0,0,0,0,0,-1,1161,785,0,0
-56,239,0,0,0,0,0,0,0,0,0,-1,1168,785,0,0
-49,239,0,0,0,0,0,0,0,0,0,-1,1175,785,0,0
-42,239,0,0,0,0,0,0,0,0,0,-1,1182,785,0,0
-35,239,0,0,0,0,0,0,0,0,0,-1,1189,785,0,0
-28,239,0,0,0,0,0,0,0,0,0,-1,1196,785,0,0
-21,239,0,0,0,0,0,0,0,0,0,-1,1203,785,0,0
-14,239,0,0,0,0,0,0,0,0,0,-1,1210,785,0,0
-7,239,0,0,0,0,0,0,0,0,0,-1,1217,785,0,0
0,239,0,0,0,0,0,0,0,0,0,-1,1224,785,0,0
7,239,0,0,0,0,0,0,0,0,0,-1,1231,785,0,0
14,239,0,0,0,0,0,0,0,0,0,-1,1238,785,0,0
21,239,0,0,0,0,0,0,0,0,0,-1,1245,785,0,0
28,239,0,0,0,0,0,0,0,0,0,-1,1252,785,0,0
35,239,0,0,0,0,0,0,0,0,0,-1,1259,785,0,0
42,239,0,0,0,0,0,0,0,0,0,-1,1266,785,0,0
49,239,0,0,0,0,0,0,0,0,0,-1,1273,785,0,0
56,239,0,0,0,0,0,0,0,0,0,-1,1280,785,0,0
63,239,0,0,0,0,0,0,0,0,0,-1,1287,785,0,0
70,239,0,0,0,0,0,0,0,0,0,-1,1294,785,0,0
77,239,0,0,0,0,0,0,0,0,0,-1,1301,785,0,0
84,239,0,0,0,0,0,0,0,0,0,-1,1308,785,0,0
91,239,0,0,0,0,0,0,0,0,0,-1,1315,785,0,0
98,239,0,0,0,0,0,0,0,0,0,-1,1322,785,0,0
105,239,0,0,0,0,0,0,0,0,0,-1,1329,785,0,0
112,239,0,0,0,0,0,0,0,0,0,-1,1336,785,0,0
119,239,0,0,0,0,0,0,0,0,0,-1,1343,785,0,0
126,239,0,0,0,0,0,0,0,0,0,-1,1350,785,0,0
133,239,0,0,0,0,0,0,0,0,0,-1,1357,785,0,0
140,239,0,0,0,0,0,0,0,0,0,-1,1364,785,0,0
147,239,0,0,0,0,0,0,0,0,0,-1,1371,785,0,0
154,239,0,0,0,0,0,0,0,0,0,-1,1378,785,0,0
161,239,0,0,0,0,0,0,0,0,0,-1,1385,785,0,0
168,239,0,0,0,0,0,0,0,0,0,-1,1392,785,0,0
175,239,0,0,0,0,0,0,0,0,0,-1,1399,785,0,0
182,239,0,0,0,0,0,0,0,0,0,-1,1406,785,0,0
189,239,0,0,0,0,0,0,0,0,0,-1,1413,785,0,0
196,239,0,0,0,0,0,0,0,0,0,-1,1420,785,0,0
203,239,0,0,0,0,0,0,0,0,0,-1,1427,785,0,0
210,239,0,0,0,0,0,0,0,0,0,-1,1434,785,0,0
217,239,0,0,0,0,0,0,0,0,0,-1,1441,785,0,0
224,239,0,0,0,0,0,0,0,0,0,-1,1448,785,0,0
231,239,0,0,0,0,0,0,0,0,0,-1,1455,785,0,0
238,239,0,0,0,0,0,0,0,0,0,-1,1462,785,0,0
245,239,0,0,0,0,0,0,0,0,0,-1,1469,785,0,0
252,239,0,0,0,0,0,0,0,0,0,-1,1476,785,0,0
259,239,0,0,0,0,0,0,0,0,0,-1,1483,785,0,0
266,239,0,0,0,0,0,0,0,0,0,-1,1490,785,0,0
273,239,0,0,0,0,0,0,0,0,0,-1,1497,785,0,0
280,239,0,0,0,0,0,0,0,0,0,-1,1504,785,0,0
287,239,0,0,0,0,0,0,0,0,0,-1,1511,785,0,0
294,239,0,0,0,0,0,0,0,0,0,-1,1518,785,0,0
301,239,0,0,0,0,0,0,0,0,0,-1,1525,785,0,0
308,239,0,0,0,0,0,0,0,0,0,-1,1532,785,0,0
315,239,0,0,0,0,0,0,0,0,0,-1,1539,785,0,0
322,239,0,0,0,0,0,0,0,0,0,-1,1546,785,0,0
329,239,0,0,0,0,0,0,0,0,0,-1,1553,785,0,0
336,239,0,0,0,0,0,0,0,0,0,-1,1560,785,0,0
343,239,0,0,0,0,0,0,0,0,0,-1,1567,785,0,0
350,239,0,0,0,0,0,0,0,0,0,-1,1574,785,0,0
357,239,0,0,0,0,0,0,0,0,0,-1,1581,785,0,0
364,239,0,0,0,0,0,0,0,0,0,-1,1588,785,0,0
371,239,0,0,0,0,0,0,0,0,0,-1,1595,785,0,0
378,239,0,0,0,0,0,0,0,0,0,-1,1602,785,0,0
385,239,0,0,0,0,0,0,0,0,0,-1,1609,785,0,0
392,239,0,0,0,0,0,0,0,0,0,-1,1616,785,0,0
399,239,0,0,0,0,0,0,0,0,0,-1,1623,785,0,0
406,239,0,0,0,0,0,0,0,0,0,-1,1630,785,0,0
413,239,0,0,0,0,0,0,0,0,0,-1,1637,785,0,0
420,239,0,0,0,0,0,0,0,0,0,-1,1644,785,0,0
427,239,0,0,0,0,0,0,0,0,0,-1,1651,785,0,0
434,239,0,0,0,0,0,0,0,0,0,-1,1658,785,0,0
441,239,0,0,0,0,0,0,0,0,0,-1,1665,785,0,0
448,239,0,0,0,0,0,0,0,0,0,-1,1672,785,0,0
455,239,0,0,0,0,0,0,0,0,0,-1,1679,785,0,0
462,239,0,0,0,0,0,0,0,0,0,-1,1686,785,0,0
469,239,0,0,0,0,0,0,0,0,0,-1,1693,785,0,0
476,239,0,0,0,0,0,0,0,0,0,-1,1700,785,0,0
483,239,0,0,0,0,0,0,0,0,0,-1,1707,785,0,0
490,239,0,0,0,0,0,0,0,0,0,-1,1714,785,0,0
497,239,0,0,0,0,0,0,0,0,0,-1,1721,785,0,0
504,239,0,0,0,0,0,0,0,0,0,-1,1728,785,0,0
511,239,0,0,0,0,0,0,0,0,0,-1,1735,785,0,0
518,239,0,0,0,0,0,0,0,0,0,-1,1742,785,0,0
525,239,0,0,0,0,0,0,0,0,0,-1,1749,785,0,0
532,239,0,0,0,0,0,0,0,0,0,-1,1756,785,0,0
539,239,0,0,0,0,0,0,0,0,0,-1,1763,785,0,0
546,239,0,0,0,0,0,0,0,0,0,-1,1770,785,0,0
553,239,0,0,0,0,0,0,0,0,0,-1,1777,785,0,0
560,239,0,0,0,0,0,0,0,0,0,-1,1784,785,0,0
567,239,0,0,0,0,0,0,0,0,0,-1,1791,785,0,0
574,239,0,0,0,0,0,0,0,0,0,-1,1798,785,0,0
581,239,59.1788,2.7251,0.00729554,0.000250536,0.0011537,0.00747966,6.64177e-05,0.158256,0.00496445,0.0380962,1805,785,59.1788,-2.72509
588,239,59.251,2.70166,0.00666927,-0.000683956,0.00330448,0.00793605,-0.00195073,0.366072,0.00604675,0.0382889,1812,785,59.251,-2.70164
595,239,59.3495,2.68091,0.00555618,-0.00146462,0.00344137,0.00696167,-0.00287011,0.387735,0.00583792,0.0342858,1819,785,59.3495,-2.68093
602,239,59.3038,2.75787,0.00434823,-0.00191537,0.0030512,0.00558885,-0.00315598,0.386182,0.00511354,0.039409,1826,785,59.3039,-2.75788
609,239,59.2183,2.87811,0,0,0,0,0,0,0,-1,1833,785,59.2183,-2.87812
616,239,55.8469,3.72443,0,0,0,0,0,0,0,-1,1840,785,55.8469,-3.72445
623,239,59.173,2.7973,0,0,0,0,0,0,0,-1,1847,785,59.173,-2.79731
630,239,54.5767,3.64667,0,0,0,0,0,0,0,-1,1854,785,54.5766,-3.64667
637,239,39.5542,2.54114,0,0,0,0,0,0,0,-1,1861,785,39.5543,-2.54114
644,239,18.3466,0.735413,0,0,0,0,0,0,0,-1,1868,785,18.3465,-0.735414
651,239,34.2471,-2.15778,0,0,0,0,0,0,0,-1,1875,785,34.2471,2.1578
658,239,41.4849,-2.53033,0,0,0,0,0,0,0,-1,1882,785,41.4849,2.53036
665,239,41.5229,-1.72754,-0.00262392,-0.00241577,-0.00146918,-0.00104698,-0.00399271,-0.820759,0.0023905,0.0293855,1889,785,41.523,1.72756
672,239,41.5045,-0.991455,-0.00296039,-0.00204725,-0.00156071,-0.000877699,-0.00412994,-0.927697,0.00251236,0.0210325,1896,785,41.5045,0.991439
679,239,41.4865,-0.279602,-0.00278349,-0.00160694,-0.001608,-0.000482987,-0.00390744,-0.960756,0.00245982,0.0225446,1903,785,41.4864,0.279577
686,239,41.4534,0.455933,-0.00204976,-0.000838592,-0.00135665,4.14952e-05,-0.00292985,-0.99532,0.00196721,0.0230729,1910,785,41.4534,-0.455909
693,239,41.4308,1.10944,-0.000736884,1.03578e-05,-0.000907918,0.000618524,-0.00134505,-0.980595,0.00115925,0.0149856,1917,785,41.4308,-1.10941
700,239,41.3975,1.80066,0.00121328,0.00051599,-0.000598092,0.00155693,0.000172343,-0.521512,0.00098554,0.0110407,1924,785,41.3975,-1.80063
707,239,41.353,2.52332,0.00394817,0.000965393,-0.000838902,0.00416792,0.000745643,-0.256193,0.00256643,0.0111668,1931,785,41.353,-2.52329
714,239,41.3287,3.21985,0.00745116,0.00109751,-0.00161639,0.00783873,0.00070994,-0.235333,0.00500598,0.0113005,1938,785,41.3287,-3.21982
721,239,41.2544,3.93982,0.0116437,0.000618219,-0.00320001,0.0125051,-0.000243238,-0.26297,0.00841899,0.0225162,1945,785,41.2544,-3.93984
728,239,41.1217,4.66693,0,0,0,0,0,0,0,-1,1952,785,41.1217,-4.66691
735,239,40.8903,5.36932,0,0,0,0,0,0,0,-1,1959,785,40.8903,-5.3693
742,239,32.4141,7.6665,0,0,0,0,0,0,0,-1,1966,785,32.4141,-7.6665
749,239,32.1489,3.4411,0,0,0,0,0,0,0,-1,1973,785,32.149,-3.44109
756,239,32.9064,3.6687,0,0,0,0,0,0,0,-1,1980,785,32.9063,-3.66873
763,239,0,0,0,0,0,0,0,0,0,-1,1987,785,0,0
770,239,0,0,0,0,0,0,0,0,0,-1,1994,785,0,0
777,239,0,0,0,0,0,0,0,0,0,-1,2001,785,0,0
784,239,0,0,0,0,0,0,0,0,0,-1,2008,785,0,0
791,239,0,0,0,0,0,0,0,0,0,-1,2015,785,0,0
798,239,0,0,0,0,0,0,0,0,0,-1,2022,785,0,0
805,239,0,0,0,0,0,0,0,0,0,-1,2029,785,0,0
812,239,0,0,0,0,0,0,0,0,0,-1,2036,785,0,0
-700,232,0,0,0,0,0,0,0,0,0,-1,524,792,0,0
-693,232,0,0,0,0,0,0,0,0,0,-1,531,792,0,0
-686,232,0,0,0,0,0,0,0,0,0,-1,538,792,0,0
-679,232,0,0,0,0,0,0,0,0,0,-1,545,792,0,0
-672,232,0,0,0,0,0,0,0,0,0,-1,552,792,0,0
-665,232,0,0,0,0,0,0,0,0,0,-1,559,792,0,0
-658,232,0,0,0,0,0,0,0,0,0,-1,566,792,0,0
-651,232,0,0,0,0,0,0,0,0,0,-1,573,792,0,0
-644,232,-31.7343,6.23914,0,0,0,0,0,0,0,-1,580,792,-31.7343,-6.23911
-637,232,-30.1556,5.06824,0,0,0,0,0,0,0,-1,587,792,-30.1556,-5.06823
-630,232,-32.2345,1.80212,0,0,0,0,0,0,0,-1,594,792,-32.2345,-1.80211
-623,232,-31.5665,1.05115,0,0,0,0,0,0,0,-1,601,792,-31.5664,-1.05112
-616,232,-30.6812,0.432861,0,0,0,0,0,0,0,-1,608,792,-30.6812,-0.432881
-609,232,-29.7142,-0.478943,0,0,0,0,0,0,0,-1,615,792,-29.7142,0.478965
-602,232,-30.0881,3.09283,0,0,0,0,0,0,0,-1,622,792,-30.0881,-3.09284
-595,232,-29.3767,2.43262,0,0,0,0,0,0,0,-1,629,792,-29.3767,-2.43259
-588,232,-29.2745,1.62994,0.015713,0.003818,-0.000376009,0.0157249,0.00380613,-0.0315687,0.00947294,0.0140062,636,792,-29.2745,-1.62992
-581,232,-29.3306,0.831482,0.0108858,0.0031473,-0.000227498,0.0108925,0.00314062,-0.0293644,0.0064739,0.00861437,643,792,-29.3306,-0.831479
-574,232,-29.3458,0.154419,0.0067665,0.00228798,0.000144878,0.00677118,0.00228329,0.0323043,0.00397781,0.00845196,650,792,-29.3458,-0.154434
-567,232,-29.3912,-0.527405,0.00334513,0.00134371,0.000641349,0.00353301,0.00115583,0.284974,0.00208002,0.0105576,657,792,-29.3912,0.527432
-560,232,-29.4457,-1.19269,0.000742377,0.000173507,0.00127858,0.00176778,-0.000851891,0.675949,0.00154297,0.0148063,664,792,-29.4457,1.1927
-553,232,-29.5002,-1.85608,-0.000700977,-0.00159181,0.00200486,0.000907351,-0.00320014,0.676089,0.00249157,0.0145206,671,792,-29.5003,1.85605
-546,232,-29.5331,-2.52289,-0.000999548,-0.00344061,0.00288618,0.000913567,-0.00535372,0.585358,0.00390942,0.0230897,678,792,-29.5331,2.52292
-539,232,-29.6959,-3.09802,-0.000882108,-0.00449379,0.00370941,0.00143768,-0.00681358,0.558872,0.00508975,0.0384091,685,792,-29.696,3.09801
-532,232,-29.9175,-3.73218,-0.000355314,-0.0050563,0.00399666,0.0019308,-0.00734241,0.519581,0.00564961,0.0390222,692,792,-29.9176,3.73215
-525,232,-29.9833,-4.47101,0,0,0,0,0,0,0,-1,699,792,-29.9833,4.47099
-518,232,-20.8098,-3.08154,0,0,0,0,0,0,0,-1,706,792,-20.8098,3.08155
-511,232,-21.6708,-0.962708,0,0,0,0,0,0,0,-1,713,792,-21.6708,0.962731
-504,232,-34.2155,0.346985,0,0,0,0,0,0,0,-1,720,792,-34.2155,-0.346955
-497,232,-44.9457,0.899414,0,0,0,0,0,0,0,-1,727,792,-44.9457,-0.899401
-490,232,-44.9397,1.02716,-0.00402317,-0.00371158,0.00344461,-0.000419249,-0.00731551,0.807997,0.00474343,0.0445177,734,792,-44.9397,-1.02718
-483,232,-45.153,1.11591,-0.00605815,-0.00230803,0.00235199,-0.00117515,-0.00719103,1.12192,0.00445428,0.0431655,741,792,-45.1529,-1.11594
-476,232,-45.1964,0.977356,-0.00831399,-0.00129461,0.000887418,-0.00118416,-0.00842445,1.44697,0.00526614,0.0363558,748,792,-45.1964,-0.977354
-469,232,-45.0942,1.15625,-0.00979978,-0.00178509,-0.000879038,-0.00168981,-0.00989506,-1.46283,0.00611181,0.0347746,755,792,-45.0942,-1.15623
-462,232,0,0,0,0,0,0,0,0,0,-1,762,792,0,0
-455,232,0,0,0,0,0,0,0,0,0,-1,769,792,0,0
-448,232,0,0,0,0,0,0,0,0,0,-1,776,792,0,0
-441,232,0,0,0,0,0,0,0,0,0,-1,783,792,0,0
-434,232,0,0,0,0,0,0,0,0,0,-1,790,792,0,0
-427,232,0,0,0,0,0,0,0,0,0,-1,797,792,0,0
-420,232,0,0,0,0,0,0,0,0,0,-1,804,792,0,0
-413,232,0,0,0,0,0,0,0,0,0,-1,811,792,0,0
-406,232,0,0,0,0,0,0,0,0,0,-1,818,792,0,0
-399,232,0,0,0,0,0,0,0,0,0,-1,825,792,0,0
-392,232,0,0,0,0,0,0,0,0,0,-1,832,792,0,0
-385,232,0,0,0,0,0,0,0,0,0,-1,839,792,0,0
-378,232,0,0,0,0,0,0,0,0,0,-1,846,792,0,0
-371,232,0,0,0,0,0,0,0,0,0,-1,853,792,0,0
-364,232,0,0,0,0,0,0,0,0,0,-1,860,792,0,0
-357,232,0,0,0,0,0,0,0,0,0,-1,867,792,0,0
-350,232,0,0,0,0,0,0,0,0,0,-1,874,792,0,0
-343,232,0,0,0,0,0,0,0,0,0,-1,881,792,0,0
-336,232,0,0,0,0,0,0,0,0,0,-1,888,792,0,0
-329,232,0,0,0,0,0,0,0,0,0,-1,895,792,0,0
-322,232,0,0,0,0,0,0,0,0,0,-1,902,792,0,0
-315,232,0,0,0,0,0,0,0,0,0,-1,909,792,0,0
-308,232,0,0,0,0,0,0,0,0,0,-1,916,792,0,0
-301,232,0,0,0,0,0,0,0,0,0,-1,923,792,0,0
-294,232,0,0,0,0,0,0,0,0,0,-1,930,792,0,0
-287,232,0,0,0,0,0,0,0,0,0,-1,937,792,0,0
-280,232,0,0,0,0,0,0,0,0,0,-1,944,792,0,0
-273,232,0,0,0,0,0,0,0,0,0,-1,951,792,0,0
-266,232,0,0,0,0,0,0,0,0,0,-1,958,792,0,0
-259,232,0,0,0,0,0,0,0,0,0,-1,965,792,0,0
-252,232,0,0,0,0,0,0,0,0,0,-1,972,792,0,0
-245,232,0,0,0,0,0,0,0,0,0,-1,979,792,0,0
-238,232,0,0,0,0,0,0,0,0,0,-1,986,792,0,0
-231,232,0,0,0,0,0,0,0,0,0,-1,993,792,0,0
-224,232,0,0,0,0,0,0,0,0,0,-1,1000,792,0,0
-217,232,0,0,0,0,0,0,0,0,0,-1,1007,792,0,0
-210,232,0,0,0,0,0,0,0,0,0,-1,1014,792,0,0
-203,232,0,0,0,0,0,0,0,0,0,-1,1021,792,0,0
-196,232,0,0,0,0,0,0,0,0,0,-1,1028,792,0,0
-189,232,0,0,0,0,0,0,0,0,0,-1,1035,792,0,0
-182,232,0,0,0,0,0,0,0,0,0,-1,1042,792,0,0
-175,232,0,0,0,0,0,0,0,0,0,-1,1049,792,0,0
-168,232,0,0,0,0,0,0,0,0,0,-1,1056,792,0,0
-161,232,0,0,0,0,0,0,0,0,0,-1,1063,792,0,0
-154,232,0,0,0,0,0,0,0,0,0,-1,1070,792,0,0
-147,232,0,0,0,0,0,0,0,0,0,-1,1077,792,0,0
-140,232,0,0,0,0,0,0,0,0,0,-1,1084,792,0,0
-133,232,0,0,0,0,0,0,0,0,0,-1,1091,792,0,0
-126,232,0,0,0,0,0,0,0,0,0,-1,1098,792,0,0
-119,232,0,0,0,0,0,0,0,0,0,-1,1105,792,0,0
-112,232,0,0,0,0,0,0,0,0,0,-1,1112,792,0,0
-105,232,0,0,0,0,0,0,0,0,0,-1,1119,792,0,0
-98,232,0,0,0,0,0,0,0,0,0,-1,1126,792,0,0
-91,232,0,0,0,0,0,0,0,0,0,-1,1133,792,0,0
-84,232,0,0,0,0,0,0,0,0,0,-1,1140,792,0,0
-77,232,0,0,0,0,0,0,0,0,0,-1,1147,792,0,0
-70,232,0,0,0,0,0,0,0,0,0,-1,1154,792,0,0
-63,232,0,0,0,0,0,0,0,0,0,-1,1161,792,0,0
-56,232,0,0,0,0,0,0,0,0,0,-1,1168,792,0,0
-49,232,0,0,0,0,0,0,0,0,0,-1,1175,792,0,0
-42,232,0,0,0,0,0,0,0,0,0,-1,1182,792,0,0
-35,232,0,0,0,0,0,0,0,0,0,-1,1189,792,0,0
-28,232,0,0,0,0,0,0,0,0,0,-1,1196,792,0,0
-21,232,0,0,0,0,0,0,0,0,0,-1,1203,792,0,0
-14,232,0,0,0,0,0,0,0,0,0,-1,1210,792,0,0
-7,232,0,0,0,0,0,0,0,0,0,-1,1217,792,0,0
0,232,0,0,0,0,0,0,0,0,0,-1,1224,792,0,0
7,232,0,0,0,0,0,0,0,0,0,-1,1231,792,0,0
14,232,0,0,0,0,0,0,0,0,0,-1,1238,792,0,0
21,232,0,0,0,0,0,0,0,0,0,-1,1245,792,0,0
28,232,0,0,0,0,0,0,0,0,0,-1,1252,792,0,0
35,232,0,0,0,0,0,0,0,0,0,-1,1259,792,0,0
42,232,0,0,0,0,0,0,0,0,0,-1,1266,792,0,0
49,232,0,0,0,0,0,0,0,0,0,-1,1273,792,0,0
56,232,0,0,0,0,0,0,0,0,0,-1,1280,792,0,0
63,232,0,0,0,0,0,0,0,0,0,-1,1287,792,0,0
70,232,0,0,0,0,0,0,0,0,0,-1,1294,792,0,0
77,232,0,0,0,0,0,0,0,0,0,-1,1301,792,0,0
84,232,0,0,0,0,0,0,0,0,0,-1,1308,792,0,0
91,232,0,0,0,0,0,0,0,0,0,-1,1315,792,0,0
98,232,0,0,0,0,0,0,0,0,0,-1,1322,792,0,0
105,232,0,0,0,0,0,0,0,0,0,-1,1329,792,0,0
112,232,0,0,0,0,0,0,0,0,0,-1,1336,792,0,0
119,232,0,0,0,0,0,0,0,0,0,-1,1343,792,0,0
126,232,0,0,0,0,0,0,0,0,0,-1,1350,792,0,0
133,232,0,0,0,0,0,0,0,0,0,-1,1357,792,0,0
140,232,0,0,0,0,0,0,0,0,0,-1,1364,792,0,0
147,232,0,0,0,0,0,0,0,0,0,-1,1371,792,0,0
154,232,0,0,0,0,0,0,0,0,0,-1,1378,792,0,0
161,232,0,0,0,0,0,0,0,0,0,-1,1385,792,0,0
168,232,0,0,0,0,0,0,0,0,0,-1,1392,792,0,0
175,232,0,0,0,0,0,0,0,0,0,-1,1399,792,0,0
182,232,0,0,0,0,0,0,0,0,0,-1,1406,792,0,0
189,232,0,0,0,0,0,0,0,0,0,-1,1413,792,0,0
196,232,0,0,0,0,0,0,0,0,0,-1,1420,792,0,0
203,232,0,0,0,0,0,0,0,0,0,-1,1427,792,0,0
210,232,0,0,0,0,0,0,0,0,0,-1,1434,792,0,0
217,232,0,0,0,0,0,0,0,0,0,-1,1441,792,0,0
224,232,0,0,0,0,0,0,0,0,0,-1,1448,792,0,0
231,232,0,0,0,0,0,0,0,0,0,-1,1455,792,0,0
238,232,0,0,0,0,0,0,0,0,0,-1,1462,792,0,0
245,232,0,0,0,0,0,0,0,0,0,-1,1469,792,0,0
252,232,0,0,0,0,0,0,0,0,0,-1,1476,792,0,0
259,232,0,0,0,0,0,0,0,0,0,-1,1483,792,0,0
266,232,0,0,0,0,0,0,0,0,0,-1,1490,792,0,0
273,232,0,0,0,0,0,0,0,0,0,-1,1497,792,0,0
280,232,0,0,0,0,0,0,0,0,0,-1,1504,792,0,0
287,232,0,0,0,0,0,0,0,0,0,-1,1511,792,0,0
294,232,0,0,0,0,0,0,0,0,0,-1,1518,792,0,0
301,232,0,0,0,0,0,0,0,0,0,-1,1525,792,0,0
308,232,0,0,0,0,0,0,0,0,0,-1,1532,792,0,0
315,232,0,0,0,0,0,0,0,0,0,-1,1539,792,0,0
322,232,0,0,0,0,0,0,0,0,0,-1,1546,792,0,0
329,232,0,0,0,0,0,0,0,0,0,-1,1553,792,0,0
336,232,0,0,0,0,0,0,0,0,0,-1,1560,792,0,0
343,232,0,0,0,0,0,0,0,0,0,-1,1567,792,0,0
350,232,0,0,0,0,0,0,0,0,0,-1,1574,792,0,0
357,232,0,0,0,0,0,0,0,0,0,-1,1581,792,0,0
364,232,0,0,0,0,0,0,0,0,0,-1,1588,792,0,0
371,232,0,0,0,0,0,0,0,0,0,-1,1595,792,0,0
378,232,0,0,0,0,0,0,0,0,0,-1,1602,792,0,0
385,232,0,0,0,0,0,0,0,0,0,-1,1609,792,0,0
392,232,0,0,0,0,0,0,0,0,0,-1,1616,792,0,0
399,232,0,0,0,0,0,0,0,0,0,-1,1623,792,0,0
406,232,0,0,0,0,0,0,0,0,0,-1,1630,792,0,0
413,232,0,0,0,0,0,0,0,0,0,-1,1637,792,0,0
420,232,0,0,0,0,0,0,0,0,0,-1,1644,792,0,0
427,232,0,0,0,0,0,0,0,0,0,-1,1651,792,0,0
434,232,0,0,0,0,0,0,0,0,0,-1,1658,792,0,0
441,232,0,0,0,0,0,0,0,0,0,-1,1665,792,0,0
448,232,0,0,0,0,0,0,0,0,0,-1,1672,792,0,0
455,232,0,0,0,0,0,0,0,0,0,-1,1679,792,0,0
462,232,0,0,0,0,0,0,0,0,0,-1,1686,792,0,0
469,232,0,0,0,0,0,0,0,0,0,-1,1693,792,0,0
476,232,0,0,0,0,0,0,0,0,0,-1,1700,792,0,0
483,232,0,0,0,0,0,0,0,0,0,-1,1707,792,0,0
490,232,0,0,0,0,0,0,0,0,0,-1,1714,792,0,0
497,232,0,0,0,0,0,0,0,0,0,-1,1721,792,0,0
504,232,0,0,0,0,0,0,0,0,0,-1,1728,792,0,0
511,232,0,0,0,0,0,0,0,0,0,-1,1735,792,0,0
518,232,0,0,0,0,0,0,0,0,0,-1,1742,792,0,0
525,232,0,0,0,0,0,0,0,0,0,-1,1749,792,0,0
532,232,0,0,0,0,0,0,0,0,0,-1,1756,792,0,0
539,232,0,0,0,0,0,0,0,0,0,-1,1763,792,0,0
546,232,0,0,0,0,0,0,0,0,0,-1,1770,792,0,0
553,232,0,0,0,0,0,0,0,0,0,-1,1777,792,0,0
560,232,0,0,0,0,0,0,0,0,0,-1,1784,792,0,0
567,232,0,0,0,0,0,0,0,0,0,-1,1791,792,0,0
574,232,0,0,0,0,0,0,0,0,0,-1,1798,792,0,0
581,232,0,0,0,0,0,0,0,0,0,-1,1805,792,0,0
588,232,59.2076,2.75421,0.00448872,0.000317955,0.00191651,0.00523562,-0.000428944,0.371612,0.00364183,0.038072,1812,792,59.2076,-2.7542
595,232,59.2101,2.79944,0.00413915,-0.00111122,0.00265385,0.00524686,-0.00221893,0.395413,0.00442697,0.0367956,1819,792,59.2101,-2.79942
602,232,59.1952,2.75543,0.00342466,-0.00179638,0.00259739,0.0044967,-0.00286842,0.391438,0.00428676,0.0365197,1826,792,59.1952,-2.75545
609,232,59.1713,2.742,0.00276662,-0.00186847,0.0023732,0.00376616,-0.00286802,0.398631,0.00384193,0.0452677,1833,792,59.1713,-2.74198
616,232,59.3247,2.59644,0,0,0,0,0,0,0,-1,1840,792,59.3247,-2.59644
623,232,59.1835,2.83429,0,0,0,0,0,0,0,-1,1847,792,59.1835,-2.83432
630,232,59.2681,2.9624,0,0,0,0,0,0,0,-1,1854,792,59.2681,-2.96239
637,232,47.0471,4.04309,0,0,0,0,0,0,0,-1,1861,792,47.0471,-4.04309
644,232,30.7756,4.24139,0,0,0,0,0,0,0,-1,1868,792,30.7757,-4.24141
651,232,31.6797,-0.564087,0,0,0,0,0,0,0,-1,1875,792,31.6797,0.564059
658,232,42.4791,-2.36609,0,0,0,0,0,0,0,-1,1882,792,42.4791,2.36609
665,232,42.3076,-1.68677,-0.00316047,-0.00222497,-0.00166459,-0.000963658,-0.00442178,-0.922366,0.00268491,0.0394724,1889,792,42.3077,1.68677
672,232,42.1432,-0.944092,-0.00365405,-0.00205099,-0.0018508,-0.00083561,-0.00486943,-0.989742,0.00300671,0.0421962,1896,792,42.1432,0.944075
679,232,42.1428,-0.20343,-0.00365642,-0.00183309,-0.00204897,-0.000502117,-0.00498739,-0.994717,0.00317083,0.0205039,1903,792,42.1429,0.203421
686,232,42.1377,0.52124,-0.0030595,-0.00124077,-0.00193145,-1.5313e-05,-0.00428496,-1.00541,0.00285155,0.018687,1910,792,42.1377,-0.521241
693,232,42.1101,1.16046,-0.00173807,-0.000514334,-0.00151784,0.000510323,-0.00276273,-0.976994,0.00203338,0.0105438,1917,792,42.1102,-1.16047
700,232,42.0801,1.84424,0.000400318,-0.000102169,-0.00120669,0.00138164,-0.00108349,-0.68276,0.00142671,0.0126645,1924,792,42.0801,-1.84424
707,232,42.0508,2.54944,0.00346488,0.000284164,-0.00151657,0.00407208,-0.000323029,-0.380827,0.00282855,0.0136103,1931,792,42.0508,-2.54946
714,232,42.0381,3.23895,0.00726515,0.000308069,-0.0024443,0.00803806,-0.000464844,-0.306261,0.00552018,0.0147525,1938,792,42.0381,-3.23892
721,232,41.9913,3.9566,0.0117979,-0.00016158,-0.00410833,0.0130732,-0.00143688,-0.300988,0.00923177,0.0220262,1945,792,41.9913,-3.95662
728,232,41.8842,4.71375,0,0,0,0,0,0,0,-1,1952,792,41.8841,-4.71376
735,232,41.8198,5.18842,0,0,0,0,0,0,0,-1,1959,792,41.8198,-5.18844
742,232,25.6461,6.00684,0,0,0,0,0,0,0,-1,1966,792,25.6461,-6.00684
749,232,31.2874,3.74713,0,0,0,0,0,0,0,-1,1973,792,31.2874,-3.74713
756,232,32.1207,3.896,0,0,0,0,0,0,0,-1,1980,792,32.1207,-3.89597
763,232,32.7255,4.05878,0,0,0,0,0,0,0,-1,1987,792,32.7255,-4.05881
770,232,0,0,0,0,0,0,0,0,0,-1,1994,792,0,0
777,232,0,0,0,0,0,0,0,0,0,-1,2001,792,0,0
784,232,0,0,0,0,0,0,0,0,0,-1,2008,792,0,0
791,232,0,0,0,0,0,0,0,0,0,-1,2015,792,0,0
798,232,0,0,0,0,0,0,0,0,0,-1,2022,792,0,0
805,232,0,0,0,0,0,0,0,0,0,-1,2029,792,0,0
812,232,0,0,0,0,0,0,0,0,0,-1,2036,792,0,0
-700,225,0,0,0,0,0,0,0,0,0,-1,524,799,0,0
-693,225,0,0,0,0,0,0,0,0,0,-1,531,799,0,0
-686,225,0,0,0,0,0,0,0,0,0,-1,538,799,0,0
-679,225,0,0,0,0,0,0,0,0,0,-1,545,799,0,0
-672,225,0,0,0,0,0,0,0,0,0,-1,552,799,0,0
-665,225,0,0,0,0,0,0,0,0,0,-1,559,799,0,0
-658,225,0,0,0,0,0,0,0,0,0,-1,566,799,0,0
-651,225,0,0,0,0,0,0,0,0,0,-1,573,799,0,0
-644,225,-31.6232,6.26855,0,0,0,0,0,0,0,-1,580,799,-31.6231,-6.26854
-637,225,-31.4901,6.06842,0,0,0,0,0,0,0,-1,587,799,-31.4901,-6.06839
-630,225,-29.8912,5.02606,0,0,0,0,0,0,0,-1,594,799,-29.8912,-5.02606
-623,225,-32.8276,-0.00836182,0,0,0,0,0,0,0,-1,601,799,-32.8276,0.00837668
-616,225,-32.0569,-0.549255,0,0,0,0,0,0,0,-1,608,799,-32.0569,0.549265
-609,225,-30.6374,3.49689,0,0,0,0,0,0,0,-1,615,799,-30.6374,-3.49687
-602,225,-30.4872,2.91718,0.0220919,0.00409487,4.1935e-05,0.022092,0.00409477,0.00233009,0.0135706,0.0493901,622,799,-30.4872,-2.91715
-595,225,-30.0961,2.34082,0.0172151,0.00328944,-0.000141856,0.0172166,0.003288,-0.0101852,0.0105538,0.0324228,629,799,-30.0962,-2.34084
-588,225,-29.9999,1.54279,0.0126986,0.00304844,-0.000193966,0.0127025,0.00304455,-0.0200888,0.00765798,0.0133839,636,799,-30,-1.54278
-581,225,-30.014,0.854797,0.00860166,0.00255933,-5.58072e-05,0.00860217,0.00255882,-0.00923499,0.00510048,0.0109341,643,799,-30.014,-0.854821
-574,225,-30.0374,0.186462,0.00495996,0.00182668,0.000313448,0.00499101,0.00179563,0.0987347,0.00291909,0.00874591,650,799,-30.0374,-0.186439
-567,225,-30.0688,-0.50177,0.00191638,0.000984175,0.000794342,0.00237127,0.000529283,0.520077,0.00143728,0.0117157,657,799,-30.0688,0.501762
-560,225,-30.1243,-1.16052,-0.000248974,-0.000131392,0.00143776,0.00124878,-0.00162915,0.805832,0.0016664,0.0136588,664,799,-30.1243,1.16054
-553,225,-30.1691,-1.81891,-0.00109777,-0.00187425,0.00214908,0.000697857,-0.00366988,0.696035,0.00270933,0.0124251,671,799,-30.1691,1.81891
-546,225,-30.2278,-2.43933,-0.000681158,-0.00352789,0.0029293,0.00115228,-0.00536132,0.559243,0.00401382,0.0232881,678,799,-30.2278,2.43935
-539,225,-30.6477,-2.87146,0,0,0,0,0,0,0,-1,685,799,-30.6477,2.87147
-532,225,-31.17,-3.54065,0,0,0,0,0,0,0,-1,692,799,-31.17,3.54067
-525,225,-29.1705,-3.88239,0,0,0,0,0,0,0,-1,699,799,-29.1705,3.88237
-518,225,-21.963,0.171326,0,0,0,0,0,0,0,-1,706,799,-21.9629,-0.171319
-511,225,-33.0002,0.660217,0,0,0,0,0,0,0,-1,713,799,-33.0002,-0.660239
-504,225,-45.5308,0.675049,0,0,0,0,0,0,0,-1,720,799,-45.5308,-0.675059
-497,225,-45.2287,0.788086,0,0,0,0,0,0,0,-1,727,799,-45.2287,-0.788061
-490,225,-45.0732,0.90686,-0.000989472,-0.00403042,0.00383043,0.00161122,-0.00663111,0.596462,0.00504433,0.0387653,734,799,-45.0732,-0.906839
-483,225,-45.1606,0.970459,-0.0022519,-0.00256062,0.00275818,0.000356233,-0.00516876,0.757445,0.00357051,0.035359,741,799,-45.1606,-0.970478
-476,225,-45.0975,1.08191,-0.00339448,-0.00147159,0.00131462,-0.000804355,-0.00406171,1.10113,0.0024835,0.0313537,748,799,-45.0975,-1.08192
-469,225,-44.9744,1.27307,-0.00300261,-0.00226605,-0.000474921,-0.00203335,-0.00323531,-1.11519,0.00188835,0.0349256,755,799,-44.9744,-1.27306
-462,225,0,0,0,0,0,0,0,0,0,-1,762,799,0,0
-455,225,0,0,0,0,0,0,0,0,0,-1,769,799,0,0
-448,225,0,0,0,0,0,0,0,0,0,-1,776,799,0,0
-441,225,0,0,0,0,0,0,0,0,0,-1,783,799,0,0
-434,225,0,0,0,0,0,0,0,0,0,-1,790,799,0,0
-427,225,0,0,0,0,0,0,0,0,0,-1,797,799,0,0
-420,225,0,0,0,0,0,0,0,0,0,-1,804,799,0,0
-413,225,0,0,0,0,0,0,0,0,0,-1,811,799,0,0
-406,225,0,0,0,0,0,0,0,0,0,-1,818,799,0,0
-399,225,0,0,0,0,0,0,0,0,0,-1,825,799,0,0
-392,225,0,0,0,0,0,0,0,0,0,-1,832,799,0,0
-385,225,0,0,0,0,0,0,0,0,0,-1,839,799,0,0
-378,225,0,0,0,0,0,0,0,0,0,-1,846,799,0,0
-371,225,0,0,0,0,0,0,0,0,0,-1,853,799,0,0
-364,225,0,0,0,0,0,0,0,0,0,-1,860,799,0,0
-357,225,0,0,0,0,0,0,0,0,0,-1,867,799,0,0
-350,225,0,0,0,0,0,0,0,0,0,-1,874,799,0,0
-343,225,0,0,0,0,0,0,0,0,0,-1,881,799,0,0
-336,225,0,0,0,0,0,0,0,0,0,-1,888,799,0,0
-329,225,0,0,0,0,0,0,0,0,0,-1,895,799,0,0
-322,225,0,0,0,0,0,0,0,0,0,-1,902,799,0,0
-315,225,0,0,0,0,0,0,0,0,0,-1,909,799,0,0
-308,225,0,0,0,0,0,0,0,0,0,-1,916,799,0,0
-301,225,0,0,0,0,0,0,0,0,0,-1,923,799,0,0
-294,225,0,0,0,0,0,0,0,0,0,-1,930,799,0,0
-287,225,0,0,0,0,0,0,0,0,0,-1,937,799,0,0
-280,225,0,0,0,0,0,0,0,0,0,-1,944,799,0,0
-273,225,0,0,0,0,0,0,0,0,0,-1,951,799,0,0
-266,225,0,0,0,0,0,0,0,0,0,-1,958,799,0,0
-259,225,0,0,0,0,0,0,0,0,0,-1,965,799,0,0
-252,225,0,0,0,0,0,0,0,0,0,-1,972,799,0,0
-245,225,0,0,0,0,0,0,0,0,0,-1,979,799,0,0
-238,225,0,0,0,0,0,0,0,0,0,-1,986,799,0,0
-231,225,0,0,0,0,0,0,0,0,0,-1,993,799,0,0
-224,225,0,0,0,0,0,0,0,0,0,-1,1000,799,0,0
-217,225,0,0,0,0,0,0,0,0,0,-1,1007,799,0,0
-210,225,0,0,0,0,0,0,0,0,0,-1,1014,799,0,0
-203,225,0,0,0,0,0,0,0,0,0,-1,1021,799,0,0
-196,225,0,0,0,0,0,0,0,0,0,-1,1028,799,0,0
-189,225,0,0,0,0,0,0,0,0,0,-1,1035,799,0,0
-182,225,0,0,0,0,0,0,0,0,0,-1,1042,799,0,0
-175,225,0,0,0,0,0,0,0,0,0,-1,1049,799,0,0
-168,225,0,0,0,0,0,0,0,0,0,-1,1056,799,0,0
-161,225,0,0,0,0,0,0,0,0,0,-1,1063,799,0,0
-154,225,0,0,0,0,0,0,0,0,0,-1,1070,799,0,0
-147,225,0,0,0,0,0,0,0,0,0,-1,1077,799,0,0
-140,225,0,0,0,0,0,0,0,0,0,-1,1084,799,0,0
-133,225,0,0,0,0,0,0,0,0,0,-1,1091,799,0,0
-126,225,0,0,0,0,0,0,0,0,0,-1,1098,799,0,0
-119,225,0,0,0,0,0,0,0,0,0,-1,1105,799,0,0
-112,225,0,0,0,0,0,0,0,0,0,-1,1112,799,0,0
-105,225,0,0,0,0,0,0,0,0,0,-1,1119,799,0,0
-98,225,0,0,0,0,0,0,0,0,0,-1,1126,799,0,0
-91,225,0,0,0,0,0,0,0,0,0,-1,1133,799,0,0
-84,225,0,0,0,0,0,0,0,0,0,-1,1140,799,0,0
-77,225,0,0,0,0,0,0,0,0,0,-1,1147,799,0,0
-70,225,0,0,0,0,0,0,0,0,0,-1,1154,799,0,0
-63,225,0,0,0,0,0,0,0,0,0,-1,1161,799,0,0
-56,225,0,0,0,0,0,0,0,0,0,-1,1168,799,0,0
-49,225,0,0,0,0,0,0,0,0,0,-1,1175,799,0,0
-42,225,0,0,0,0,0,0,0,0,0,-1,1182,799,0,0
-35,225,0,0,0,0,0,0,0,0,0,-1,1189,799,0,0
-28,225,0,0,0,0,0,0,0,0,0,-1,1196,799,0,0
-21,225,0,0,0,0,0,0,0,0,0,-1,1203,799,0,0
-14,225,0,0,0,0,0,0,0,0,0,-1,1210,799,0,0
-7,225,0,0,0,0,0,0,0,0,0,-1,1217,799,0,0
0,225,0,0,0,0,0,0,0,0,0,-1,1224,799,0,0
7,225,0,0,0,0,0,0,0,0,0,-1,1231,799,0,0
14,225,0,0,0,0,0,0,0,0,0,-1,1238,799,0,0
21,225,0,0,0,0,0,0,0,0,0,-1,1245,799,0,0
28,225,0,0,0,0,0,0,0,0,0,-1,1252,799,0,0
35,225,0,0,0,0,0,0,0,0,0,-1,1259,799,0,0
42,225,0,0,0,0,0,0,0,0,0,-1,1266,799,0,0
49,225,0,0,0,0,0,0,0,0,0,-1,1273,799,0,0
56,225,0,0,0,0,0,0,0,0,0,-1,1280,799,0,0
63,225,0,0,0,0,0,0,0,0,0,-1,1287,799,0,0
70,225,0,0,0,0,0,0,0,0,0,-1,1294,799,0,0
77,225,0,0,0,0,0,0,0,0,0,-1,1301,799,0,0
84,225,0,0,0,0,0,0,0,0,0,-1,1308,799,0,0
91,225,0,0,0,0,0,0,0,0,0,-1,1315,799,0,0
98,225,0,0,0,0,0,0,0,0,0,-1,1322,799,0,0
105,225,0,0,0,0,0,0,0,0,0,-1,1329,799,0,0
112,225,0,0,0,0,0,0,0,0,0,-1,1336,799,0,0
119,225,0,0,0,0,0,0,0,0,0,-1,1343,799,0,0
126,225,0,0,0,0,0,0,0,0,0,-1,1350,799,0,0
133,225,0,0,0,0,0,0,0,0,0,-1,1357,799,0,0
140,225,0,0,0,0,0,0,0,0,0,-1,1364,799,0,0
147,225,0,0,0,0,0,0,0,0,0,-1,1371,799,0,0
154,225,0,0,0,0,0,0,0,0,0,-1,1378,799,0,0
161,225,0,0,0,0,0,0,0,0,0,-1,1385,799,0,0
168,225,0,0,0,0,0,0,0,0,0,-1,1392,799,0,0
175,225,0,0,0,0,0,0,0,0,0,-1,1399,799,0,0
182,225,0,0,0,0,0,0,0,0,0,-1,1406,799,0,0
189,225,0,0,0,0,0,0,0,0,0,-1,1413,799,0,0
196,225,0,0,0,0,0,0,0,0,0,-1,1420,799,0,0
203,225,0,0,0,0,0,0,0,0,0,-1,1427,799,0,0
210,225,0,0,0,0,0,0,0,0,0,-1,1434,799,0,0
217,225,0,0,0,0,0,0,0,0,0,-1,1441,799,0,0
224,225,0,0,0,0,0,0,0,0,0,-1,1448,799,0,0
231,225,0,0,0,0,0,0,0,0,0,-1,1455,799,0,0
238,225,0,0,0,0,0,0,0,0,0,-1,1462,799,0,0
245,225,0,0,0,0,0,0,0,0,0,-1,1469,799,0,0
252,225,0,0,0,0,0,0,0,0,0,-1,1476,799,0,0
259,225,0,0,0,0,0,0,0,0,0,-1,1483,799,0,0
266,225,0,0,0,0,0,0,0,0,0,-1,1490,799,0,0
273,225,0,0,0,0,0,0,0,0,0,-1,1497,799,0,0
280,225,0,0,0,0,0,0,0,0,0,-1,1504,799,0,0
287,225,0,0,0,0,0,0,0,0,0,-1,1511,799,0,0
294,225,0,0,0,0,0,0,0,0,0,-1,1518,799,0,0
301,225,0,0,0,0,0,0,0,0,0,-1,1525,799,0,0
308,225,0,0,0,0,0,0,0,0,0,-1,1532,799,0,0
315,225,0,0,0,0,0,0,0,0,0,-1,1539,799,0,0
322,225,0,0,0,0,0,0,0,0,0,-1,1546,799,0,0
329,225,0,0,0,0,0,0,0,0,0,-1,1553,799,0,0
336,225,0,0,0,0,0,0,0,0,0,-1,1560,799,0,0
343,225,0,0,0,0,0,0,0,0,0,-1,1567,799,0,0
350,225,0,0,0,0,0,0,0,0,0,-1,1574,799,0,0
357,225,0,0,0,0,0,0,0,0,0,-1,1581,799,0,0
364,225,0,0,0,0,0,0,0,0,0,-1,1588,799,0,0
371,225,0,0,0,0,0,0,0,0,0,-1,1595,799,0,0
378,225,0,0,0,0,0,0,0,0,0,-1,1602,799,0,0
385,225,0,0,0,0,0,0,0,0,0,-1,1609,799,0,0
392,225,0,0,0,0,0,0,0,0,0,-1,1616,799,0,0
399,225,0,0,0,0,0,0,0,0,0,-1,1623,799,0,0
406,225,0,0,0,0,0,0,0,0,0,-1,1630,799,0,0
413,225,0,0,0,0,0,0,0,0,0,-1,1637,799,0,0
420,225,0,0,0,0,0,0,0,0,0,-1,1644,799,0,0
427,225,0,0,0,0,0,0,0,0,0,-1,1651,799,0,0
434,225,0,0,0,0,0,0,0,0,0,-1,1658,799,0,0
441,225,0,0,0,0,0,0,0,0,0,-1,1665,799,0,0
448,225,0,0,0,0,0,0,0,0,0,-1,1672,799,0,0
455,225,0,0,0,0,0,0,0,0,0,-1,1679,799,0,0
462,225,0,0,0,0,0,0,0,0,0,-1,1686,799,0,0
469,225,0,0,0,0,0,0,0,0,0,-1,1693,799,0,0
476,225,0,0,0,0,0,0,0,0,0,-1,1700,799,0,0
483,225,0,0,0,0,0,0,0,0,0,-1,1707,799,0,0
490,225,0,0,0,0,0,0,0,0,0,-1,1714,799,0,0
497,225,0,0,0,0,0,0,0,0,0,-1,1721,799,0,0
504,225,0,0,0,0,0,0,0,0,0,-1,1728,799,0,0
511,225,0,0,0,0,0,0,0,0,0,-1,1735,799,0,0
518,225,0,0,0,0,0,0,0,0,0,-1,1742,799,0,0
525,225,0,0,0,0,0,0,0,0,0,-1,1749,799,0,0
532,225,0,0,0,0,0,0,0,0,0,-1,1756,799,0,0
539,225,0,0,0,0,0,0,0,0,0,-1,1763,799,0,0
546,225,0,0,0,0,0,0,0,0,0,-1,1770,799,0,0
553,225,0,0,0,0,0,0,0,0,0,-1,1777,799,0,0
560,225,0,0,0,0,0,0,0,0,0,-1,1784,799,0,0
567,225,0,0,0,0,0,0,0,0,0,-1,1791,799,0,0
574,225,0,0,0,0,0,0,0,0,0,-1,1798,799,0,0
581,225,0,0,0,0,0,0,0,0,0,-1,1805,799,0,0
588,225,59.3076,2.77625,0.00268172,0.00220228,0.000713738,0.00319492,0.00168908,0.623385,0.0018456,0.0363062,1812,799,59.3076,-2.77623
595,225,59.2053,2.7915,0.0027988,0.000168435,0.00167418,0.0036126,-0.000645369,0.452459,0.00264985,0.0355297,1819,799,59.2053,-2.79152
602,225,59.1437,2.79474,0.00252854,-0.00098387,0.00193053,0.00338217,-0.00183749,0.416324,0.00305724,0.0353427,1826,799,59.1437,-2.79474
609,225,59.2115,2.74768,0.00216191,-0.00140886,0.00191791,0.00299683,-0.00224378,0.410585,0.00303606,0.0341473,1833,799,59.2116,-2.74769
616,225,59.2598,2.6499,0.00133513,-0.00179895,0.00139475,0.00186593,-0.00232975,0.363646,0.00242731,0.0394727,1840,799,59.2598,-2.6499
623,225,59.2377,2.74066,0.000429553,-0.00200629,0.000734625,0.000633956,-0.00221069,0.271377,0.0017244,0.0422228,1847,799,59.2376,-2.74065
630,225,59.2561,2.76044,0,0,0,0,0,0,0,-1,1854,799,59.2561,-2.76045
637,225,55.6359,2.8064,0,0,0,0,0,0,0,-1,1861,799,55.6359,-2.80637
644,225,42.0298,2.46411,0,0,0,0,0,0,0,-1,1868,799,42.0298,-2.4641
651,225,27.9657,0.579529,0,0,0,0,0,0,0,-1,1875,799,27.9657,-0.579541
658,225,44.1967,-1.59662,0,0,0,0,0,0,0,-1,1882,799,44.1966,1.59664
665,225,43.3715,-1.29901,-0.00370197,-0.00201657,-0.00187251,-0.000805871,-0.00491267,-0.99684,0.00304228,0.0415008,1889,799,43.3714,1.29903
672,225,42.8857,-0.760376,-0.00429838,-0.0019662,-0.00210324,-0.000727423,-0.00553716,-1.03851,0.00347444,0.0442337,1896,799,42.8857,0.760361
679,225,42.8357,-0.111389,-0.00447867,-0.00195424,-0.00242645,-0.000481337,-0.00595157,-1.02523,0.0038174,0.0279381,1903,799,42.8357,0.111364
686,225,42.8547,0.526245,-0.00407439,-0.00155303,-0.00244372,-6.39732e-05,-0.00556345,-1.02354,0.00368783,0.0116385,1910,799,42.8548,-0.526234
693,225,42.8146,1.18604,-0.00279054,-0.000973886,-0.00208849,0.000395255,-0.00415968,-0.99052,0.00291382,0.0101273,1917,799,42.8145,-1.18605
700,225,42.791,1.87262,-0.000466574,-0.000605243,-0.00176712,0.00123257,-0.00230438,-0.76579,0.00207308,0.0120576,1924,799,42.791,-1.87261
707,225,42.7468,2.5694,0.00294379,-0.000248345,-0.0020964,0.00398255,-0.0012871,-0.460039,0.00317233,0.0126715,1931,799,42.7469,-2.56939
714,225,42.7305,3.28754,0.00710572,-0.000248477,-0.00309041,0.00823192,-0.00137468,-0.349461,0.00599891,0.0137488,1938,799,42.7305,-3.28755
721,225,42.7244,3.98883,0.0120476,-0.000625307,-0.00474664,0.0136283,-0.002206,-0.321462,0.00990313,0.0169184,1945,799,42.7244,-3.98885
728,225,42.6191,4.49341,0.0183794,-0.00146563,-0.00767647,0.0210022,-0.00408841,-0.32923,0.0155445,0.0377329,1952,799,42.6191,-4.4934
735,225,42.8003,5.19824,0,0,0,0,0,0,0,-1,1959,799,42.8003,-5.19822
742,225,29.0922,3.2132,0,0,0,0,0,0,0,-1,1966,799,29.0921,-3.21322
749,225,29.9529,4.45538,0,0,0,0,0,0,0,-1,1973,799,29.9529,-4.45537
756,225,31.8855,3.83466,0,0,0,0,0,0,0,-1,1980,799,31.8855,-3.83463
763,225,29.4901,5.14417,0,0,0,0,0,0,0,-1,1987,799,29.4902,-5.14415
770,225,0,0,0,0,0,0,0,0,0,-1,1994,799,0,0
777,225,0,0,0,0,0,0,0,0,0,-1,2001,799,0,0
784,225,0,0,0,0,0,0,0,0,0,-1,2008,799,0,0
791,225,0,0,0,0,0,0,0,0,0,-1,2015,799,0,0
798,225,0,0,0,0,0,0,0,0,0,-1,2022,799,0,0
805,225,0,0,0,0,0,0,0,0,0,-1,2029,799,0,0
812,225,0,0,0,0,0,0,0,0,0,-1,2036,799,0,0
-700,218,0,0,0,0,0,0,0,0,0,-1,524,806,0,0
-693,218,0,0,0,0,0,0,0,0,0,-1,531,806,0,0
-686,218,0,0,0,0,0,0,0,0,0,-1,538,806,0,0
-679,218,0,0,0,0,0,0,0,0,0,-1,545,806,0,0
-672,218,0,0,0,0,0,0,0,0,0,-1,552,806,0,0
-665,218,0,0,0,0,0,0,0,0,0,-1,559,806,0,0
-658,218,0,0,0,0,0,0,0,0,0,-1,566,806,0,0
-651,218,-31.2516,6.36798,0,0,0,0,0,0,0,-1,573,806,-31.2517,-6.36799
-644,218,-31.3896,6.17743,0,0,0,0,0,0,0,-1,580,806,-31.3897,-6.17743
-637,218,-31.3395,5.94513,0,0,0,0,0,0,0,-1,587,806,-31.3395,-5.94511
-630,218,-29.7347,3.06238,0,0,0,0,0,0,0,-1,594,806,-29.7347,-3.06238
-623,218,-29.4469,4.34161,0,0,0,0,0,0,0,-1,601,806,-29.4469,-4.34164
-616,218,-20.0258,1.87585,0,0,0,0,0,0,0,-1,608,806,-20.0258,-1.87585
-609,218,-30.6716,3.43805,0,0,0,0,0,0,0,-1,615,806,-30.6716,-3.43805
-602,218,-30.7103,2.80066,0.0171003,0.00312816,7.33478e-05,0.0171006,0.00312777,0.0052494,0.0105141,0.0417834,622,806,-30.7103,-2.80066
-595,218,-30.7318,2.21661,0.0133632,0.00264849,-9.68555e-06,0.0133632,0.00264848,-0.000903945,0.00817036,0.019102,629,806,-30.7317,-2.21663
-588,218,-30.707,1.56226,0.00979599,0.00252945,3.71742e-05,0.00979618,0.00252926,0.00511563,0.00587216,0.012271,636,806,-30.707,-1.56223
-581,218,-30.7236,0.895508,0.0064298,0.00219889,0.000283397,0.0064487,0.00217999,0.066586,0.0037877,0.0115765,643,806,-30.7236,-0.895533
-574,218,-30.7543,0.22522,0.00335941,0.00162132,0.000754466,0.00364121,0.00133951,0.35747,0.00212658,0.0100131,650,806,-30.7542,-0.225221
-567,218,-30.7374,-0.469543,0.000888855,0.000904814,0.00129141,0.00218827,-0.000394604,0.788488,0.00160662,0.0172465,657,806,-30.7374,0.469566
-560,218,-30.778,-1.1308,-0.000683656,-0.000154421,0.00186212,0.00146179,-0.00229987,0.855978,0.00218969,0.018737,664,806,-30.7779,1.13083
-553,218,-30.7709,-1.91705,-0.000993128,-0.00175614,0.0024293,0.00108444,-0.00383371,0.707512,0.00298372,0.0195845,671,806,-30.7709,1.91704
-546,218,-30.9398,-2.71472,-0.000141225,-0.00313282,0.00300664,0.00172114,-0.00499519,0.554576,0.00402833,0.0262481,678,806,-30.9398,2.7147
-539,218,-31.0247,-3.30414,0.000605784,-0.0036627,0.00352635,0.00259345,-0.00565037,0.513271,0.00486743,0.0356438,685,806,-31.0247,3.30415
-532,218,-30.9197,-3.69965,0,0,0,0,0,0,0,-1,692,806,-30.9197,3.69963
-525,218,-29.3521,-3.64417,0,0,0,0,0,0,0,-1,699,806,-29.3521,3.64414
-518,218,-23.61,2.54181,0,0,0,0,0,0,0,-1,706,806,-23.61,-2.54183
-511,218,-41.0953,1.06879,0,0,0,0,0,0,0,-1,713,806,-41.0953,-1.06876
-504,218,-45.6094,0.232361,0,0,0,0,0,0,0,-1,720,806,-45.6094,-0.232364
-497,218,-45.3453,0.702515,0,0,0,0,0,0,0,-1,727,806,-45.3453,-0.702524
-490,218,-45.0879,0.933716,0.00162114,-0.00406573,0.00390233,0.00360609,-0.00605068,0.47055,0.00563457,0.0346494,734,806,-45.0879,-0.933739
-483,218,-45.1898,0.965393,0.00129454,-0.0024613,0.00276562,0.00275955,-0.00392632,0.487144,0.00387963,0.0328428,741,806,-45.1898,-0.965379
-476,218,-45.0756,1.07477,0.0015411,-0.00119323,0.00123993,0.00201962,-0.00167175,0.368317,0.00213437,0.0354794,748,806,-45.0756,-1.07475
-469,218,0,0,0,0,0,0,0,0,0,-1,755,806,0,0
-462,218,0,0,0,0,0,0,0,0,0,-1,762,806,0,0
-455,218,0,0,0,0,0,0,0,0,0,-1,769,806,0,0
-448,218,0,0,0,0,0,0,0,0,0,-1,776,806,0,0
-441,218,0,0,0,0,0,0,0,0,0,-1,783,806,0,0
-434,218,0,0,0,0,0,0,0,0,0,-1,790,806,0,0
-427,218,0,0,0,0,0,0,0,0,0,-1,797,806,0,0
-420,218,0,0,0,0,0,0,0,0,0,-1,804,806,0,0
-413,218,0,0,0,0,0,0,0,0,0,-1,811,806,0,0
-406,218,0,0,0,0,0,0,0,0,0,-1,818,806,0,0
-399,218,0,0,0,0,0,0,0,0,0,-1,825,806,0,0
-392,218,0,0,0,0,0,0,0,0,0,-1,832,806,0,0
-385,218,0,0,0,0,0,0,0,0,0,-1,839,806,0,0
-378,218,0,0,0,0,0,0,0,0,0,-1,846,806,0,0
-371,218,0,0,0,0,0,0,0,0,0,-1,853,806,0,0
-364,218,0,0,0,0,0,0,0,0,0,-1,860,806,0,0
-357,218,0,0,0,0,0,0,0,0,0,-1,867,806,0,0
-350,218,0,0,0,0,0,0,0,0,0,-1,874,806,0,0
-343,218,0,0,0,0,0,0,0,0,0,-1,881,806,0,0
-336,218,0,0,0,0,0,0,0,0,0,-1,888,806,0,0
-329,218,0,0,0,0,0,0,0,0,0,-1,895,806,0,0
-322,218,0,0,0,0,0,0,0,0,0,-1,902,806,0,0
-315,218,0,0,0,0,0,0,0,0,0,-1,909,806,0,0
-308,218,0,0,0,0,0,0,0,0,0,-1,916,806,0,0
-301,218,0,0,0,0,0,0,0,0,0,-1,923,806,0,0
-294,218,0,0,0,0,0,0,0,0,0,-1,930,806,0,0
-287,218,0,0,0,0,0,0,0,0,0,-1,937,806,0,0
-280,218,0,0,0,0,0,0,0,0,0,-1,944,806,0,0
-273,218,0,0,0,0,0,0,0,0,0,-1,951,806,0,0
-266,218,0,0,0,0,0,0,0,0,0,-1,958,806,0,0
-259,218,0,0,0,0,0,0,0,0,0,-1,965,806,0,0
-252,218,0,0,0,0,0,0,0,0,0,-1,972,806,0,0
-245,218,0,0,0,0,0,0,0,0,0,-1,979,806,0,0
-238,218,0,0,0,0,0,0,0,0,0,-1,986,806,0,0
-231,218,0,0,0,0,0,0,0,0,0,-1,993,806,0,0
-224,218,0,0,0,0,0,0,0,0,0,-1,1000,806,0,0
-217,218,0,0,0,0,0,0,0,0,0,-1,1007,806,0,0
-210,218,0,0,0,0,0,0,0,0,0,-1,1014,806,0,0
-203,218,0,0,0,0,0,0,0,0,0,-1,1021,806,0,0
-196,218,0,0,0,0,0,0,0,0,0,-1,1028,806,0,0
-189,218,0,0,0,0,0,0,0,0,0,-1,1035,806,0,0
-182,218,0,0,0,0,0,0,0,0,0,-1,1042,806,0,0
-175,218,0,0,0,0,0,0,0,0,0,-1,1049,806,0,0
-168,218,0,0,0,0,0,0,0,0,0,-1,1056,806,0,0
-161,218,0,0,0,0,0,0,0,0,0,-1,1063,806,0,0
-154,218,0,0,0,0,0,0,0,0,0,-1,1070,806,0,0
-147,218,0,0,0,0,0,0,0,0,0,-1,1077,806,0,0
-140,218,0,0,0,0,0,0,0,0,0,-1,1084,806,0,0
-133,218,0,0,0,0,0,0,0,0,0,-1,1091,806,0,0
-126,218,0,0,0,0,0,0,0,0,0,-1,1098,806,0,0
-119,218,0,0,0,0,0,0,0,0,0,-1,1105,806,0,0
-112,218,0,0,0,0,0,0,0,0,0,-1,1112,806,0,0
-105,218,0,0,0,0,0,0,0,0,0,-1,1119,806,0,0
-98,218,0,0,0,0,0,0,0,0,0,-1,1126,806,0,0
-91,218,0,0,0,0,0,0,0,0,0,-1,1133,806,0,0
-84,218,0,0,0,0,0,0,0,0,0,-1,1140,806,0,0
-77,218,0,0,0,0,0,0,0,0,0,-1,1147,806,0,0
-70,218,0,0,0,0,0,0,0,0,0,-1,1154,806,0,0
-63,218,0,0,0,0,0,0,0,0,0,-1,1161,806,0,0
-56,218,0,0,0,0,0,0,0,0,0,-1,1168,806,0,0
-49,218,0,0,0,0,0,0,0,0,0,-1,1175,806,0,0
-42,218,0,0,0,0,0,0,0,0,0,-1,1182,806,0,0
-35,218,0,0,0,0,0,0,0,0,0,-1,1189,806,0,0
-28,218,0,0,0,0,0,0,0,0,0,-1,1196,806,0,0
-21,218,0,0,0,0,0,0,0,0,0,-1,1203,806,0,0
-14,218,0,0,0,0,0,0,0,0,0,-1,1210,806,0,0
-7,218,0,0,0,0,0,0,0,0,0,-1,1217,806,0,0
0,218,0,0,0,0,0,0,0,0,0,-1,1224,806,0,0
7,218,0,0,0,0,0,0,0,0,0,-1,1231,806,0,0
14,218,0,0,0,0,0,0,0,0,0,-1,1238,806,0,0
21,218,0,0,0,0,0,0,0,0,0,-1,1245,806,0,0
28,218,0,0,0,0,0,0,0,0,0,-1,1252,806,0,0
35,218,0,0,0,0,0,0,0,0,0,-1,1259,806,0,0
42,218,0,0,0,0,0,0,0,0,0,-1,1266,806,0,0
49,218,0,0,0,0,0,0,0,0,0,-1,1273,806,0,0
56,218,0,0,0,0,0,0,0,0,0,-1,1280,806,0,0
63,218,0,0,0,0,0,0,0,0,0,-1,1287,806,0,0
70,218,0,0,0,0,0,0,0,0,0,-1,1294,806,0,0
77,218,0,0,0,0,0,0,0,0,0,-1,1301,806,0,0
84,218,0,0,0,0,0,0,0,0,0,-1,1308,806,0,0
91,218,0,0,0,0,0,0,0,0,0,-1,1315,806,0,0
98,218,0,0,0,0,0,0,0,0,0,-1,1322,806,0,0
105,218,0,0,0,0,0,0,0,0,0,-1,1329,806,0,0
112,218,0,0,0,0,0,0,0,0,0,-1,1336,806,0,0
119,218,0,0,0,0,0,0,0,0,0,-1,1343,806,0,0
126,218,0,0,0,0,0,0,0,0,0,-1,1350,806,0,0
133,218,0,0,0,0,0,0,0,0,0,-1,1357,806,0,0
140,218,0,0,0,0,0,0,0,0,0,-1,1364,806,0,0
147,218,0,0,0,0,0,0,0,0,0,-1,1371,806,0,0
154,218,0,0,0,0,0,0,0,0,0,-1,1378,806,0,0
161,218,0,0,0,0,0,0,0,0,0,-1,1385,806,0,0
168,218,0,0,0,0,0,0,0,0,0,-1,1392,806,0,0
175,218,0,0,0,0,0,0,0,0,0,-1,1399,806,0,0
182,218,0,0,0,0,0,0,0,0,0,-1,1406,806,0,0
189,218,0,0,0,0,0,0,0,0,0,-1,1413,806,0,0
196,218,0,0,0,0,0,0,0,0,0,-1,1420,806,0,0
203,218,0,0,0,0,0,0,0,0,0,-1,1427,806,0,0
210,218,0,0,0,0,0,0,0,0,0,-1,1434,806,0,0
217,218,0,0,0,0,0,0,0,0,0,-1,1441,806,0,0
224,218,0,0,0,0,0,0,0,0,0,-1,1448,806,0,0
231,218,0,0,0,0,0,0,0,0,0,-1,1455,806,0,0
238,218,0,0,0,0,0,0,0,0,0,-1,1462,806,0,0
245,218,0,0,0,0,0,0,0,0,0,-1,1469,806,0,0
252,218,0,0,0,0,0,0,0,0,0,-1,1476,806,0,0
259,218,0,0,0,0,0,0,0,0,0,-1,1483,806,0,0
266,218,0,0,0,0,0,0,0,0,0,-1,1490,806,0,0
273,218,0,0,0,0,0,0,0,0,0,-1,1497,806,0,0
280,218,0,0,0,0,0,0,0,0,0,-1,1504,806,0,0
287,218,0,0,0,0,0,0,0,0,0,-1,1511,806,0,0
294,218,0,0,0,0,0,0,0,0,0,-1,1518,806,0,0
301,218,0,0,0,0,0,0,0,0,0,-1,1525,806,0,0
308,218,0,0,0,0,0,0,0,0,0,-1,1532,806,0,0
315,218,0,0,0,0,0,0,0,0,0,-1,1539,806,0,0
322,218,0,0,0,0,0,0,0,0,0,-1,1546,806,0,0
329,218,0,0,0,0,0,0,0,0,0,-1,1553,806,0,0
336,218,0,0,0,0,0,0,0,0,0,-1,1560,806,0,0
343,218,0,0,0,0,0,0,0,0,0,-1,1567,806,0,0
350,218,0,0,0,0,0,0,0,0,0,-1,1574,806,0,0
357,218,0,0,0,0,0,0,0,0,0,-1,1581,806,0,0
364,218,0,0,0,0,0,0,0,0,0,-1,1588,806,0,0
371,218,0,0,0,0,0,0,0,0,0,-1,1595,806,0,0
378,218,0,0,0,0,0,0,0,0,0,-1,1602,806,0,0
385,218,0,0,0,0,0,0,0,0,0,-1,1609,806,0,0
392,218,0,0,0,0,0,0,0,0,0,-1,1616,806,0,0
399,218,0,0,0,0,0,0,0,0,0,-1,1623,806,0,0
406,218,0,0,0,0,0,0,0,0,0,-1,1630,806,0,0
413,218,0,0,0,0,0,0,0,0,0,-1,1637,806,0,0
420,218,0,0,0,0,0,0,0,0,0,-1,1644,806,0,0
427,218,0,0,0,0,0,0,0,0,0,-1,1651,806,0,0
434,218,0,0,0,0,0,0,0,0,0,-1,1658,806,0,0
441,218,0,0,0,0,0,0,0,0,0,-1,1665,806,0,0
448,218,0,0,0,0,0,0,0,0,0,-1,1672,806,0,0
455,218,0,0,0,0,0,0,0,0,0,-1,1679,806,0,0
462,218,0,0,0,0,0,0,0,0,0,-1,1686,806,0,0
469,218,0,0,0,0,0,0,0,0,0,-1,1693,806,0,0
476,218,0,0,0,0,0,0,0,0,0,-1,1700,806,0,0
483,218,0,0,0,0,0,0,0,0,0,-1,1707,806,0,0
490,218,0,0,0,0,0,0,0,0,0,-1,1714,806,0,0
497,218,0,0,0,0,0,0,0,0,0,-1,1721,806,0,0
504,218,0,0,0,0,0,0,0,0,0,-1,1728,806,0,0
511,218,0,0,0,0,0,0,0,0,0,-1,1735,806,0,0
518,218,0,0,0,0,0,0,0,0,0,-1,1742,806,0,0
525,218,0,0,0,0,0,0,0,0,0,-1,1749,806,0,0
532,218,0,0,0,0,0,0,0,0,0,-1,1756,806,0,0
539,218,0,0,0,0,0,0,0,0,0,-1,1763,806,0,0
546,218,0,0,0,0,0,0,0,0,0,-1,1770,806,0,0
553,218,0,0,0,0,0,0,0,0,0,-1,1777,806,0,0
560,218,0,0,0,0,0,0,0,0,0,-1,1784,806,0,0
567,218,0,0,0,0,0,0,0,0,0,-1,1791,806,0,0
574,218,0,0,0,0,0,0,0,0,0,-1,1798,806,0,0
581,218,0,0,0,0,0,0,0,0,0,-1,1805,806,0,0
588,218,0,0,0,0,0,0,0,0,0,-1,1812,806,0,0
595,218,59.2097,2.86646,0.00191228,0.00170629,0.000776824,0.00259291,0.00102566,0.71949,0.00150786,0.0374737,1819,806,59.2097,-2.86647
602,218,59.1407,2.86914,0.00187058,0.000213589,0.00120566,0.00250497,-0.000420797,0.484366,0.00182648,0.0348572,1826,806,59.1407,-2.86912
609,218,59.173,2.78564,0.00167625,-0.00066436,0.00137067,0.00230826,-0.00129637,0.432044,0.00210829,0.0299951,1833,806,59.173,-2.78566
616,218,59.1876,2.68567,0.000992511,-0.00131362,0.00103549,0.00138922,-0.00171033,0.365864,0.00179272,0.0319502,1840,806,59.1876,-2.68566
623,218,59.2051,2.68402,5.86044e-05,-0.0017434,0.000397902,0.000142555,-0.00182735,0.207932,0.00126842,0.0367046,1847,806,59.2051,-2.68405
630,218,59.3489,2.70813,-0.000926641,-0.0017574,-0.000129714,-0.000906858,-0.00177719,-0.151341,0.00102613,0.0421879,1854,806,59.3488,-2.7081
637,218,59.5591,2.63525,0,0,0,0,0,0,0,-1,1861,806,59.5591,-2.63527
644,218,52.4042,2.47949,0,0,0,0,0,0,0,-1,1868,806,52.4041,-2.47949
651,218,41.7338,1.99164,0,0,0,0,0,0,0,-1,1875,806,41.7338,-1.99162
658,218,28.41,0.514954,0,0,0,0,0,0,0,-1,1882,806,28.41,-0.514983
665,218,44.5635,-0.690125,0,0,0,0,0,0,0,-1,1889,806,44.5635,0.690106
672,218,43.9294,-0.619446,-0.00464563,-0.00195911,-0.00225154,-0.00068058,-0.00592416,-1.05436,0.00374326,0.0335936,1896,806,43.9294,0.619441
679,218,43.6927,-0.0791626,-0.00496768,-0.00202678,-0.00263848,-0.000476663,-0.0065178,-1.03962,0.00419535,0.0323446,1903,806,43.6927,0.0791414
686,218,43.5872,0.518433,-0.0047742,-0.00175349,-0.00277239,-0.000106736,-0.00642095,-1.03481,0.0042455,0.0144106,1910,806,43.5872,-0.518442
693,218,43.5519,1.20129,-0.00365327,-0.00131518,-0.00251108,0.00028564,-0.0052541,-1.00326,0.00360172,0.0116257,1917,806,43.5518,-1.2013
700,218,43.5027,1.88861,-0.00136685,-0.000978608,-0.00221088,0.00104666,-0.00339212,-0.829187,0.00267933,0.0103388,1924,806,43.5027,-1.8886
707,218,43.4562,2.58429,0.00218191,-0.000682956,-0.00253682,0.00366278,-0.00216383,-0.528385,0.0034009,0.00872986,1931,806,43.4562,-2.58428
714,218,43.427,3.30573,0.00658189,-0.000719601,-0.00354591,0.00802049,-0.0021582,-0.385416,0.00619304,0.0105031,1938,806,43.427,-3.30571
721,218,43.4178,3.99872,0.0118003,-0.00104599,-0.00516597,0.01362,-0.00286567,-0.338671,0.0101707,0.014189,1945,806,43.4178,-3.99874
728,218,43.422,4.71735,0.0183352,-0.00181933,-0.00798755,0.0211169,-0.004601,-0.335115,0.015836,0.0291452,1952,806,43.4219,-4.71734
735,218,43.5859,5.51392,0,0,0,0,0,0,0,-1,1959,806,43.5859,-5.5139
742,218,43.2921,6.23138,0,0,0,0,0,0,0,-1,1966,806,43.2921,-6.23141
749,218,42.0249,6.64703,0,0,0,0,0,0,0,-1,1973,806,42.0249,-6.64703
756,218,44.0059,6.09637,0,0,0,0,0,0,0,-1,1980,806,44.0058,-6.0964
763,218,40.3187,5.18854,0,0,0,0,0,0,0,-1,1987,806,40.3188,-5.18855
770,218,0,0,0,0,0,0,0,0,0,-1,1994,806,0,0
777,218,0,0,0,0,0,0,0,0,0,-1,2001,806,0,0
784,218,0,0,0,0,0,0,0,0,0,-1,2008,806,0,0
791,218,0,0,0,0,0,0,0,0,0,-1,2015,806,0,0
798,218,0,0,0,0,0,0,0,0,0,-1,2022,806,0,0
805,218,0,0,0,0,0,0,0,0,0,-1,2029,806,0,0
812,218,0,0,0,0,0,0,0,0,0,-1,2036,806,0,0
-700,211,0,0,0,0,0,0,0,0,0,-1,524,813,0,0
-693,211,0,0,0,0,0,0,0,0,0,-1,531,813,0,0
-686,211,0,0,0,0,0,0,0,0,0,-1,538,813,0,0
-679,211,0,0,0,0,0,0,0,0,0,-1,545,813,0,0
-672,211,0,0,0,0,0,0,0,0,0,-1,552,813,0,0
-665,211,0,0,0,0,0,0,0,0,0,-1,559,813,0,0
-658,211,0,0,0,0,0,0,0,0,0,-1,566,813,0,0
-651,211,-32.4163,6.39746,0,0,0,0,0,0,0,-1,573,813,-32.4163,-6.39747
-644,211,-31.1364,6.37982,0,0,0,0,0,0,0,-1,580,813,-31.1364,-6.37985
-637,211,-31.2496,6.42194,0,0,0,0,0,0,0,-1,587,813,-31.2496,-6.42195
-630,211,-26.2802,6.70776,0,0,0,0,0,0,0,-1,594,813,-26.2802,-6.70775
-623,211,-26.2827,6.96381,0,0,0,0,0,0,0,-1,601,813,-26.2827,-6.96378
-616,211,-31.3948,3.93903,0,0,0,0,0,0,0,-1,608,813,-31.3948,-3.93904
-609,211,-31.2867,3.40228,0.0159816,0.00198034,9.8224e-05,0.0159823,0.00197965,0.0070149,0.0100601,0.0404021,615,813,-31.2867,-3.40225
-602,211,-31.2925,2.86414,0.0128876,0.00185169,0.000114593,0.0128888,0.0018505,0.0103822,0.00804692,0.0225134,622,813,-31.2925,-2.86412
-595,211,-31.3588,2.24799,0.0100172,0.0016926,0.000157616,0.0100202,0.00168961,0.0189247,0.0061942,0.011734,629,813,-31.3588,-2.24796
-588,211,-31.3817,1.59698,0.00726269,0.00174367,0.000330496,0.00728241,0.00172395,0.0595992,0.00439449,0.0118078,636,813,-31.3817,-1.597
-581,211,-31.4142,0.940247,0.00462621,0.00165571,0.000694524,0.00478057,0.00150134,0.218702,0.00282297,0.0122484,643,813,-31.4142,-0.940262
-574,211,-31.4392,0.255981,0.00227059,0.00135885,0.00124044,0.00313627,0.00049316,0.609306,0.00194739,0.0127671,650,813,-31.4392,-0.255955
-567,211,-31.4532,-0.447937,0.000587129,0.000887526,0.00176409,0.0025078,-0.00103314,0.827867,0.00210262,0.019355,657,813,-31.4532,0.44794
-560,211,-31.4815,-1.14703,-0.00040972,-1.0613e-05,0.00221831,0.00201711,-0.00243744,0.830256,0.00257565,0.0285022,664,813,-31.4815,1.14703
-553,211,-31.3459,-2.07202,0,0,0,0,0,0,0,-1,671,813,-31.3459,2.07199
-546,211,-31.5453,-2.95947,0,0,0,0,0,0,0,-1,678,813,-31.5453,2.95946
-539,211,-31.6786,-3.10797,0,0,0,0,0,0,0,-1,685,813,-31.6786,3.10799
-532,211,-31.5237,-3.79712,0,0,0,0,0,0,0,-1,692,813,-31.5238,3.79709
-525,211,-14.3009,2.3233,0,0,0,0,0,0,0,-1,699,813,-14.3009,-2.3233
-518,211,-34.952,1.93011,0,0,0,0,0,0,0,-1,706,813,-34.952,-1.9301
-511,211,-45.4812,0.258606,0,0,0,0,0,0,0,-1,713,813,-45.4812,-0.258598
-504,211,-45.4844,0.403198,0.00325886,-0.00491197,0.00447509,0.00523291,-0.00688601,0.415443,0.00701853,0.0467673,720,813,-45.4844,-0.403222
-497,211,-45.369,0.67865,0.00360453,-0.00454121,0.00433386,0.00547898,-0.00641566,0.408217,0.00687447,0.0447998,727,813,-45.369,-0.67867
-490,211,-45.1453,1.05511,0.00399591,-0.00350333,0.00366543,0.00548986,-0.00499728,0.387022,0.00605698,0.0327336,734,813,-45.1453,-1.05511
-483,211,-45.114,1.12366,0.00454559,-0.00158915,0.00240588,0.00537656,-0.00242011,0.332561,0.00460802,0.0307816,741,813,-45.114,-1.12363
-476,211,-45.0126,1.20251,0.00604539,0.000197897,0.00080652,0.00615459,8.86964e-05,0.134579,0.00407382,0.0361086,748,813,-45.0126,-1.20249
-469,211,0,0,0,0,0,0,0,0,0,-1,755,813,0,0
-462,211,0,0,0,0,0,0,0,0,0,-1,762,813,0,0
-455,211,0,0,0,0,0,0,0,0,0,-1,769,813,0,0
-448,211,0,0,0,0,0,0,0,0,0,-1,776,813,0,0
-441,211,0,0,0,0,0,0,0,0,0,-1,783,813,0,0
-434,211,0,0,0,0,0,0,0,0,0,-1,790,813,0,0
-427,211,0,0,0,0,0,0,0,0,0,-1,797,813,0,0
-420,211,0,0,0,0,0,0,0,0,0,-1,804,813,0,0
-413,211,0,0,0,0,0,0,0,0,0,-1,811,813,0,0
-406,211,0,0,0,0,0,0,0,0,0,-1,818,813,0,0
-399,211,0,0,0,0,0,0,0,0,0,-1,825,813,0,0
-392,211,0,0,0,0,0,0,0,0,0,-1,832,813,0,0
-385,211,0,0,0,0,0,0,0,0,0,-1,839,813,0,0
-378,211,0,0,0,0,0,0,0,0,0,-1,846,813,0,0
-371,211,0,0,0,0,0,0,0,0,0,-1,853,813,0,0
-364,211,0,0,0,0,0,0,0,0,0,-1,860,813,0,0
-357,211,0,0,0,0,0,0,0,0,0,-1,867,813,0,0
-350,211,0,0,0,0,0,0,0,0,0,-1,874,813,0,0
-343,211,0,0,0,0,0,0,0,0,0,-1,881,813,0,0
-336,211,0,0,0,0,0,0,0,0,0,-1,888,813,0,0
-329,211,0,0,0,0,0,0,0,0,0,-1,895,813,0,0
-322,211,0,0,0,0,0,0,0,0,0,-1,902,813,0,0
-315,211,0,0,0,0,0,0,0,0,0,-1,909,813,0,0
-308,211,0,0,0,0,0,0,0,0,0,-1,916,813,0,0
-301,211,0,0,0,0,0,0,0,0,0,-1,923,813,0,0
-294,211,0,0,0,0,0,0,0,0,0,-1,930,813,0,0
-287,211,0,0,0,0,0,0,0,0,0,-1,937,813,0,0
-280,211,0,0,0,0,0,0,0,0,0,-1,944,813,0,0
-273,211,0,0,0,0,0,0,0,0,0,-1,951,813,0,0
-266,211,0,0,0,0,0,0,0,0,0,-1,958,813,0,0
-259,211,0,0,0,0,0,0,0,0,0,-1,965,813,0,0
-252,211,0,0,0,0,0,0,0,0,0,-1,972,813,0,0
-245,211,0,0,0,0,0,0,0,0,0,-1,979,813,0,0
-238,211,0,0,0,0,0,0,0,0,0,-1,986,813,0,0
-231,211,0,0,0,0,0,0,0,0,0,-1,993,813,0,0
-224,211,0,0,0,0,0,0,0,0,0,-1,1000,813,0,0
-217,211,0,0,0,0,0,0,0,0,0,-1,1007,813,0,0
-210,211,0,0,0,0,0,0,0,0,0,-1,1014,813,0,0
-203,211,0,0,0,0,0,0,0,0,0,-1,1021,813,0,0
-196,211,0,0,0,0,0,0,0,0,0,-1,1028,813,0,0
-189,211,0,0,0,0,0,0,0,0,0,-1,1035,813,0,0
-182,211,0,0,0,0,0,0,0,0,0,-1,1042,813,0,0
-175,211,0,0,0,0,0,0,0,0,0,-1,1049,813,0,0
-168,211,0,0,0,0,0,0,0,0,0,-1,1056,813,0,0
-161,211,0,0,0,0,0,0,0,0,0,-1,1063,813,0,0
-154,211,0,0,0,0,0,0,0,0,0,-1,1070,813,0,0
-147,211,0,0,0,0,0,0,0,0,0,-1,1077,813,0,0
-140,211,0,0,0,0,0,0,0,0,0,-1,1084,813,0,0
-133,211,0,0,0,0,0,0,0,0,0,-1,1091,813,0,0
-126,211,0,0,0,0,0,0,0,0,0,-1,1098,813,0,0
-119,211,0,0,0,0,0,0,0,0,0,-1,1105,813,0,0
-112,211,0,0,0,0,0,0,0,0,0,-1,1112,813,0,0
-105,211,0,0,0,0,0,0,0,0,0,-1,1119,813,0,0
-98,211,0,0,0,0,0,0,0,0,0,-1,1126,813,0,0
-91,211,0,0,0,0,0,0,0,0,0,-1,1133,813,0,0
-84,211,0,0,0,0,0,0,0,0,0,-1,1140,813,0,0
-77,211,0,0,0,0,0,0,0,0,0,-1,1147,813,0,0
-70,211,0,0,0,0,0,0,0,0,0,-1,1154,813,0,0
-63,211,0,0,0,0,0,0,0,0,0,-1,1161,813,0,0
-56,211,0,0,0,0,0,0,0,0,0,-1,1168,813,0,0
-49,211,0,0,0,0,0,0,0,0,0,-1,1175,813,0,0
-42,211,0,0,0,0,0,0,0,0,0,-1,1182,813,0,0
-35,211,0,0,0,0,0,0,0,0,0,-1,1189,813,0,0
-28,211,0,0,0,0,0,0,0,0,0,-1,1196,813,0,0
-21,211,0,0,0,0,0,0,0,0,0,-1,1203,813,0,0
-14,211,0,0,0,0,0,0,0,0,0,-1,1210,813,0,0
-7,211,0,0,0,0,0,0,0,0,0,-1,1217,813,0,0
0,211,0,0,0,0,0,0,0,0,0,-1,1224,813,0,0
7,211,0,0,0,0,0,0,0,0,0,-1,1231,813,0,0
14,211,0,0,0,0,0,0,0,0,0,-1,1238,813,0,0
21,211,0,0,0,0,0,0,0,0,0,-1,1245,813,0,0
28,211,0,0,0,0,0,0,0,0,0,-1,1252,813,0,0
35,211,0,0,0,0,0,0,0,0,0,-1,1259,813,0,0
42,211,0,0,0,0,0,0,0,0,0,-1,1266,813,0,0
49,211,0,0,0,0,0,0,0,0,0,-1,1273,813,0,0
56,211,0,0,0,0,0,0,0,0,0,-1,1280,813,0,0
63,211,0,0,0,0,0,0,0,0,0,-1,1287,813,0,0
70,211,0,0,0,0,0,0,0,0,0,-1,1294,813,0,0
77,211,0,0,0,0,0,0,0,0,0,-1,1301,813,0,0
84,211,0,0,0,0,0,0,0,0,0,-1,1308,813,0,0
91,211,0,0,0,0,0,0,0,0,0,-1,1315,813,0,0
98,211,0,0,0,0,0,0,0,0,0,-1,1322,813,0,0
105,211,0,0,0,0,0,0,0,0,0,-1,1329,813,0,0
112,211,0,0,0,0,0,0,0,0,0,-1,1336,813,0,0
119,211,0,0,0,0,0,0,0,0,0,-1,1343,813,0,0
126,211,0,0,0,0,0,0,0,0,0,-1,1350,813,0,0
133,211,0,0,0,0,0,0,0,0,0,-1,1357,813,0,0
140,211,0,0,0,0,0,0,0,0,0,-1,1364,813,0,0
147,211,0,0,0,0,0,0,0,0,0,-1,1371,813,0,0
154,211,0,0,0,0,0,0,0,0,0,-1,1378,813,0,0
161,211,0,0,0,0,0,0,0,0,0,-1,1385,813,0,0
168,211,0,0,0,0,0,0,0,0,0,-1,1392,813,0,0
175,211,0,0,0,0,0,0,0,0,0,-1,1399,813,0,0
182,211,0,0,0,0,0,0,0,0,0,-1,1406,813,0,0
189,211,0,0,0,0,0,0,0,0,0,-1,1413,813,0,0
196,211,0,0,0,0,0,0,0,0,0,-1,1420,813,0,0
203,211,0,0,0,0,0,0,0,0,0,-1,1427,813,0,0
210,211,0,0,0,0,0,0,0,0,0,-1,1434,813,0,0
217,211,0,0,0,0,0,0,0,0,0,-1,1441,813,0,0
224,211,0,0,0,0,0,0,0,0,0,-1,1448,813,0,0
231,211,0,0,0,0,0,0,0,0,0,-1,1455,813,0,0
238,211,0,0,0,0,0,0,0,0,0,-1,1462,813,0,0
245,211,0,0,0,0,0,0,0,0,0,-1,1469,813,0,0
252,211,0,0,0,0,0,0,0,0,0,-1,1476,813,0,0
259,211,0,0,0,0,0,0,0,0,0,-1,1483,813,0,0
266,211,0,0,0,0,0,0,0,0,0,-1,1490,813,0,0
273,211,0,0,0,0,0,0,0,0,0,-1,1497,813,0,0
280,211,0,0,0,0,0,0,0,0,0,-1,1504,813,0,0
287,211,0,0,0,0,0,0,0,0,0,-1,1511,813,0,0
294,211,0,0,0,0,0,0,0,0,0,-1,1518,813,0,0
301,211,0,0,0,0,0,0,0,0,0,-1,1525,813,0,0
308,211,0,0,0,0,0,0,0,0,0,-1,1532,813,0,0
315,211,0,0,0,0,0,0,0,0,0,-1,1539,813,0,0
322,211,0,0,0,0,0,0,0,0,0,-1,1546,813,0,0
329,211,0,0,0,0,0,0,0,0,0,-1,1553,813,0,0
336,211,0,0,0,0,0,0,0,0,0,-1,1560,813,0,0
343,211,0,0,0,0,0,0,0,0,0,-1,1567,813,0,0
350,211,0,0,0,0,0,0,0,0,0,-1,1574,813,0,0
357,211,0,0,0,0,0,0,0,0,0,-1,1581,813,0,0
364,211,0,0,0,0,0,0,0,0,0,-1,1588,813,0,0
371,211,0,0,0,0,0,0,0,0,0,-1,1595,813,0,0
378,211,0,0,0,0,0,0,0,0,0,-1,1602,813,0,0
385,211,0,0,0,0,0,0,0,0,0,-1,1609,813,0,0
392,211,0,0,0,0,0,0,0,0,0,-1,1616,813,0,0
399,211,0,0,0,0,0,0,0,0,0,-1,1623,813,0,0
406,211,0,0,0,0,0,0,0,0,0,-1,1630,813,0,0
413,211,0,0,0,0,0,0,0,0,0,-1,1637,813,0,0
420,211,0,0,0,0,0,0,0,0,0,-1,1644,813,0,0
427,211,0,0,0,0,0,0,0,0,0,-1,1651,813,0,0
434,211,0,0,0,0,0,0,0,0,0,-1,1658,813,0,0
441,211,0,0,0,0,0,0,0,0,0,-1,1665,813,0,0
448,211,0,0,0,0,0,0,0,0,0,-1,1672,813,0,0
455,211,0,0,0,0,0,0,0,0,0,-1,1679,813,0,0
462,211,0,0,0,0,0,0,0,0,0,-1,1686,813,0,0
469,211,0,0,0,0,0,0,0,0,0,-1,1693,813,0,0
476,211,0,0,0,0,0,0,0,0,0,-1,1700,813,0,0
483,211,0,0,0,0,0,0,0,0,0,-1,1707,813,0,0
490,211,0,0,0,0,0,0,0,0,0,-1,1714,813,0,0
497,211,0,0,0,0,0,0,0,0,0,-1,1721,813,0,0
504,211,0,0,0,0,0,0,0,0,0,-1,1728,813,0,0
511,211,0,0,0,0,0,0,0,0,0,-1,1735,813,0,0
518,211,0,0,0,0,0,0,0,0,0,-1,1742,813,0,0
525,211,0,0,0,0,0,0,0,0,0,-1,1749,813,0,0
532,211,0,0,0,0,0,0,0,0,0,-1,1756,813,0,0
539,211,0,0,0,0,0,0,0,0,0,-1,1763,813,0,0
546,211,0,0,0,0,0,0,0,0,0,-1,1770,813,0,0
553,211,0,0,0,0,0,0,0,0,0,-1,1777,813,0,0
560,211,0,0,0,0,0,0,0,0,0,-1,1784,813,0,0
567,211,0,0,0,0,0,0,0,0,0,-1,1791,813,0,0
574,211,0,0,0,0,0,0,0,0,0,-1,1798,813,0,0
581,211,0,0,0,0,0,0,0,0,0,-1,1805,813,0,0
588,211,0,0,0,0,0,0,0,0,0,-1,1812,813,0,0
595,211,59.2349,2.7561,0.00130037,0.00369846,-0.000183716,0.00371245,0.00128638,-1.49478,0.00217679,0.0395361,1819,813,59.2348,-2.75609
602,211,59.1567,2.83984,0.00136949,0.00187004,0.000409154,0.0020994,0.00114013,1.05989,0.00121359,0.0376175,1826,813,59.1568,-2.83984
609,211,59.1173,2.81073,0.00125865,0.000501249,0.000824248,0.00178703,-2.71322e-05,0.570055,0.0012005,0.0358895,1833,813,59.1173,-2.81071
616,211,59.1469,2.73547,0.000775752,-0.000413867,0.000873152,0.00123744,-0.000875558,0.486392,0.00122589,0.0316688,1840,813,59.1469,-2.7355
623,211,59.1726,2.7655,-0.000179972,-0.00108347,0.000376086,-4.39123e-05,-0.00121953,0.347128,0.000798782,0.0316377,1847,813,59.1726,-2.76547
630,211,59.1775,2.77856,-0.00130211,-0.00120316,-0.000122977,-0.00112008,-0.00138519,-0.976655,0.000849001,0.0366688,1854,813,59.1774,-2.77856
637,211,59.2314,2.74438,-0.00227372,-0.00136018,-0.00062797,-0.00104043,-0.00259347,-1.09983,0.00150706,0.0449461,1861,813,59.2314,-2.74437
644,211,59.2869,2.71075,0,0,0,0,0,0,0,-1,1868,813,59.2868,-2.71077
651,211,48.5043,2.95557,0,0,0,0,0,0,0,-1,1875,813,48.5043,-2.95558
658,211,27.7909,1.52234,0,0,0,0,0,0,0,-1,1882,813,27.7909,-1.52234
665,211,42.2053,-0.745605,0,0,0,0,0,0,0,-1,1889,813,42.2054,0.745605
672,211,44.8712,-0.532654,0,0,0,0,0,0,0,-1,1896,813,44.8713,0.532682
679,211,44.6218,-0.0274048,-0.00540566,-0.00189468,-0.00266574,-0.000458316,-0.00684203,-1.07657,0.00441651,0.0379441,1903,813,44.6218,0.0274233
686,211,44.2892,0.55896,-0.00540024,-0.00177509,-0.00293539,-0.000137744,-0.00703759,-1.06199,0.00464649,0.0163699,1910,813,44.2892,-0.558972
693,211,44.2358,1.22369,-0.00453225,-0.00151721,-0.00283385,0.000185151,-0.00623462,-1.02985,0.00421948,0.012647,1917,813,44.2359,-1.22371
700,211,44.1454,1.89996,-0.00246104,-0.00122734,-0.00260421,0.000832082,-0.00452045,-0.901688,0.00332587,0.0142731,1924,813,44.1454,-1.89996
707,211,44.1514,2.64636,0.00100222,-0.00101598,-0.00290314,0.00306664,-0.0030804,-0.618135,0.003549,0.0212721,1931,813,44.1514,-2.64636
714,211,44.1549,3.35553,0.00549634,-0.00106867,-0.00387777,0.00729438,-0.00286671,-0.434171,0.00604931,0.0219367,1938,813,44.1549,-3.3555
721,211,44.1329,3.9928,0.010862,-0.00135306,-0.00543742,0.0129318,-0.00342278,-0.363709,0.0099601,0.0171482,1945,813,44.1329,-3.9928
728,211,44.1384,4.67352,0.0174583,-0.00206878,-0.00811501,0.0203904,-0.00500091,-0.346725,0.0155313,0.0185162,1952,813,44.1384,-4.67352
735,211,44.2351,5.3703,0.0257334,-0.00309802,-0.0121374,0.0301626,-0.00752718,-0.349903,0.0230312,0.0329384,1959,813,44.2351,-5.37033
742,211,44.4155,6.06097,0,0,0,0,0,0,0,-1,1966,813,44.4155,-6.06099
749,211,44.413,6.0274,0,0,0,0,0,0,0,-1,1973,813,44.413,-6.02743
756,211,44.822,6.16949,0,0,0,0,0,0,0,-1,1980,813,44.822,-6.16951
763,211,45.2036,6.37634,0,0,0,0,0,0,0,-1,1987,813,45.2036,-6.37634
770,211,39.2373,7.45868,0,0,0,0,0,0,0,-1,1994,813,39.2373,-7.45868
777,211,0,0,0,0,0,0,0,0,0,-1,2001,813,0,0
784,211,0,0,0,0,0,0,0,0,0,-1,2008,813,0,0
791,211,0,0,0,0,0,0,0,0,0,-1,2015,813,0,0
798,211,0,0,0,0,0,0,0,0,0,-1,2022,813,0,0
805,211,0,0,0,0,0,0,0,0,0,-1,2029,813,0,0
812,211,0,0,0,0,0,0,0,0,0,-1,2036,813,0,0
-700,204,0,0,0,0,0,0,0,0,0,-1,524,820,0,0
-693,204,0,0,0,0,0,0,0,0,0,-1,531,820,0,0
-686,204,0,0,0,0,0,0,0,0,0,-1,538,820,0,0
-679,204,0,0,0,0,0,0,0,0,0,-1,545,820,0,0
-672,204,0,0,0,0,0,0,0,0,0,-1,552,820,0,0
-665,204,0,0,0,0,0,0,0,0,0,-1,559,820,0,0
-658,204,0,0,0,0,0,0,0,0,0,-1,566,820,0,0
-651,204,-30.8603,6.04706,0,0,0,0,0,0,0,-1,573,820,-30.8603,-6.04704
-644,204,-30.553,6.28735,0,0,0,0,0,0,0,-1,580,820,-30.5531,-6.28735
-637,204,-30.6819,7.18677,0,0,0,0,0,0,0,-1,587,820,-30.6819,-7.18676
-630,204,-26.3576,4.56836,0,0,0,0,0,0,0,-1,594,820,-26.3576,-4.56833
-623,204,-27.8553,4.75055,0,0,0,0,0,0,0,-1,601,820,-27.8554,-4.75058
-616,204,-32.128,3.72327,0,0,0,0,0,0,0,-1,608,820,-32.128,-3.72327
-609,204,-32.0071,3.35706,0.0115427,0.00125222,0.000160628,0.0115452,0.00124972,0.0156044,0.00731587,0.0360812,615,820,-32.0071,-3.35704
-602,204,-31.9848,2.94055,0.00902645,0.00125195,0.000260097,0.00903514,0.00124326,0.0334054,0.00565475,0.0174203,622,820,-31.9848,-2.94056
-595,204,-32.0385,2.26343,0.00676366,0.00126476,0.000422503,0.00679593,0.00123248,0.0762377,0.00418079,0.0162562,629,820,-32.0385,-2.26346
-588,204,-32.0563,1.58325,0.00465013,0.00137145,0.000717452,0.00480025,0.00122133,0.206267,0.00288069,0.0130522,636,820,-32.0563,-1.58327
-581,204,-32.0812,0.917969,0.00268508,0.00141068,0.00117961,0.00338859,0.000707174,0.537763,0.00206412,0.012557,643,820,-32.0812,-0.917956
-574,204,-32.0897,0.279297,0.00106468,0.00127533,0.00176806,0.0029412,-0.00060119,0.815148,0.00218889,0.0141274,650,820,-32.0897,-0.279279
-567,204,-32.0853,-0.377441,0.000192357,0.000868041,0.00219146,0.00274755,-0.00168715,0.861878,0.00258466,0.0146346,657,820,-32.0853,0.377427
-560,204,-32.0267,-1.11383,-0.000276481,-4.88957e-05,0.00241668,0.00225667,-0.00258204,0.808924,0.00279573,0.0243824,664,820,-32.0267,1.1138
-553,204,-32.2064,-1.77753,0,0,0,0,0,0,0,-1,671,820,-32.2064,1.77752
-546,204,-32.433,-2.2323,0,0,0,0,0,0,0,-1,678,820,-32.433,2.23228
-539,204,-32.2866,-2.95575,0,0,0,0,0,0,0,-1,685,820,-32.2866,2.95574
-532,204,-30.0565,-3.29065,0,0,0,0,0,0,0,-1,692,820,-30.0565,3.29063
-525,204,-25.7137,1.52496,0,0,0,0,0,0,0,-1,699,820,-25.7137,-1.52496
-518,204,-43.4591,0.383972,0,0,0,0,0,0,0,-1,706,820,-43.4591,-0.383942
-511,204,-45.3156,0.524292,0,0,0,0,0,0,0,-1,713,820,-45.3156,-0.524289
-504,204,-45.3148,0.670105,0.0047543,-0.00501117,0.00420411,0.00631483,-0.0065717,0.355428,0.00744053,0.0471596,720,820,-45.3148,-0.670084
-497,204,-45.3088,0.796936,0.00607155,-0.00452085,0.00410723,0.00747752,-0.00592682,0.329813,0.00775624,0.0379421,727,820,-45.3088,-0.79692
-490,204,-45.1843,1.05603,0.00767711,-0.00280181,0.00337021,0.00866744,-0.00379214,0.285803,0.00737482,0.0331644,734,820,-45.1843,-1.05606
-483,204,-45.0801,1.17627,0.00963369,0.00021102,0.00187866,0.00999444,-0.000149727,0.189715,0.00671343,0.0389461,741,820,-45.0801,-1.17626
-476,204,0,0,0,0,0,0,0,0,0,-1,748,820,0,0
-469,204,0,0,0,0,0,0,0,0,0,-1,755,820,0,0
-462,204,0,0,0,0,0,0,0,0,0,-1,762,820,0,0
-455,204,0,0,0,0,0,0,0,0,0,-1,769,820,0,0
-448,204,0,0,0,0,0,0,0,0,0,-1,776,820,0,0
-441,204,0,0,0,0,0,0,0,0,0,-1,783,820,0,0
-434,204,0,0,0,0,0,0,0,0,0,-1,790,820,0,0
-427,204,0,0,0,0,0,0,0,0,0,-1,797,820,0,0
-420,204,0,0,0,0,0,0,0,0,0,-1,804,820,0,0
-413,204,0,0,0,0,0,0,0,0,0,-1,811,820,0,0
-406,204,0,0,0,0,0,0,0,0,0,-1,818,820,0,0
-399,204,0,0,0,0,0,0,0,0,0,-1,825,820,0,0
-392,204,0,0,0,0,0,0,0,0,0,-1,832,820,0,0
-385,204,0,0,0,0,0,0,0,0,0,-1,839,820,0,0
-378,204,0,0,0,0,0,0,0,0,0,-1,846,820,0,0
-371,204,0,0,0,0,0,0,0,0,0,-1,853,820,0,0
-364,204,0,0,0,0,0,0,0,0,0,-1,860,820,0,0
-357,204,0,0,0,0,0,0,0,0,0,-1,867,820,0,0
-350,204,0,0,0,0,0,0,0,0,0,-1,874,820,0,0
-343,204,0,0,0,0,0,0,0,0,0,-1,881,820,0,0
-336,204,0,0,0,0,0,0,0,0,0,-1,888,820,0,0
-329,204,0,0,0,0,0,0,0,0,0,-1,895,820,0,0
-322,204,0,0,0,0,0,0,0,0,0,-1,902,820,0,0
-315,204,0,0,0,0,0,0,0,0,0,-1,909,820,0,0
-308,204,0,0,0,0,0,0,0,0,0,-1,916,820,0,0
-301,204,0,0,0,0,0,0,0,0,0,-1,923,820,0,0
-294,204,0,0,0,0,0,0,0,0,0,-1,930,820,0,0
-287,204,0,0,0,0,0,0,0,0,0,-1,937,820,0,0
-280,204,0,0,0,0,0,0,0,0,0,-1,944,820,0,0
-273,204,0,0,0,0,0,0,0,0,0,-1,951,820,0,0
-266,204,0,0,0,0,0,0,0,0,0,-1,958,820,0,0
-259,204,0,0,0,0,0,0,0,0,0,-1,965,820,0,0
-252,204,0,0,0,0,0,0,0,0,0,-1,972,820,0,0
-245,204,0,0,0,0,0,0,0,0,0,-1,979,820,0,0
-238,204,0,0,0,0,0,0,0,0,0,-1,986,820,0,0
-231,204,0,0,0,0,0,0,0,0,0,-1,993,820,0,0
-224,204,0,0,0,0,0,0,0,0,0,-1,1000,820,0,0
-217,204,0,0,0,0,0,0,0,0,0,-1,1007,820,0,0
-210,204,0,0,0,0,0,0,0,0,0,-1,1014,820,0,0
-203,204,0,0,0,0,0,0,0,0,0,-1,1021,820,0,0
-196,204,0,0,0,0,0,0,0,0,0,-1,1028,820,0,0
-189,204,0,0,0,0,0,0,0,0,0,-1,1035,820,0,0
-182,204,0,0,0,0,0,0,0,0,0,-1,1042,820,0,0
-175,204,0,0,0,0,0,0,0,0,0,-1,1049,820,0,0
-168,204,0,0,0,0,0,0,0,0,0,-1,1056,820,0,0
-161,204,0,0,0,0,0,0,0,0,0,-1,1063,820,0,0
-154,204,0,0,0,0,0,0,0,0,0,-1,1070,820,0,0
-147,204,0,0,0,0,0,0,0,0,0,-1,1077,820,0,0
-140,204,0,0,0,0,0,0,0,0,0,-1,1084,820,0,0
-133,204,0,0,0,0,0,0,0,0,0,-1,1091,820,0,0
-126,204,0,0,0,0,0,0,0,0,0,-1,1098,820,0,0
-119,204,0,0,0,0,0,0,0,0,0,-1,1105,820,0,0
-112,204,0,0,0,0,0,0,0,0,0,-1,1112,820,0,0
-105,204,0,0,0,0,0,0,0,0,0,-1,1119,820,0,0
-98,204,0,0,0,0,0,0,0,0,0,-1,1126,820,0,0
-91,204,0,0,0,0,0,0,0,0,0,-1,1133,820,0,0
-84,204,0,0,0,0,0,0,0,0,0,-1,1140,820,0,0
-77,204,0,0,0,0,0,0,0,0,0,-1,1147,820,0,0
-70,204,0,0,0,0,0,0,0,0,0,-1,1154,820,0,0
-63,204,0,0,0,0,0,0,0,0,0,-1,1161,820,0,0
-56,204,0,0,0,0,0,0,0,0,0,-1,1168,820,0,0
-49,204,0,0,0,0,0,0,0,0,0,-1,1175,820,0,0
-42,204,0,0,0,0,0,0,0,0,0,-1,1182,820,0,0
-35,204,0,0,0,0,0,0,0,0,0,-1,1189,820,0,0
-28,204,0,0,0,0,0,0,0,0,0,-1,1196,820,0,0
-21,204,0,0,0,0,0,0,0,0,0,-1,1203,820,0,0
-14,204,0,0,0,0,0,0,0,0,0,-1,1210,820,0,0
-7,204,0,0,0,0,0,0,0,0,0,-1,1217,820,0,0
0,204,0,0,0,0,0,0,0,0,0,-1,1224,820,0,0
7,204,0,0,0,0,0,0,0,0,0,-1,1231,820,0,0
14,204,0,0,0,0,0,0,0,0,0,-1,1238,820,0,0
21,204,0,0,0,0,0,0,0,0,0,-1,1245,820,0,0
28,204,0,0,0,0,0,0,0,0,0,-1,1252,820,0,0
35,204,0,0,0,0,0,0,0,0,0,-1,1259,820,0,0
42,204,0,0,0,0,0,0,0,0,0,-1,1266,820,0,0
49,204,0,0,0,0,0,0,0,0,0,-1,1273,820,0,0
56,204,0,0,0,0,0,0,0,0,0,-1,1280,820,0,0
63,204,0,0,0,0,0,0,0,0,0,-1,1287,820,0,0
70,204,0,0,0,0,0,0,0,0,0,-1,1294,820,0,0
77,204,0,0,0,0,0,0,0,0,0,-1,1301,820,0,0
84,204,0,0,0,0,0,0,0,0,0,-1,1308,820,0,0
91,204,0,0,0,0,0,0,0,0,0,-1,1315,820,0,0
98,204,0,0,0,0,0,0,0,0,0,-1,1322,820,0,0
105,204,0,0,0,0,0,0,0,0,0,-1,1329,820,0,0
112,204,0,0,0,0,0,0,0,0,0,-1,1336,820,0,0
119,204,0,0,0,0,0,0,0,0,0,-1,1343,820,0,0
126,204,0,0,0,0,0,0,0,0,0,-1,1350,820,0,0
133,204,0,0,0,0,0,0,0,0,0,-1,1357,820,0,0
140,204,0,0,0,0,0,0,0,0,0,-1,1364,820,0,0
147,204,0,0,0,0,0,0,0,0,0,-1,1371,820,0,0
154,204,0,0,0,0,0,0,0,0,0,-1,1378,820,0,0
161,204,0,0,0,0,0,0,0,0,0,-1,1385,820,0,0
168,204,0,0,0,0,0,0,0,0,0,-1,1392,820,0,0
175,204,0,0,0,0,0,0,0,0,0,-1,1399,820,0,0
182,204,0,0,0,0,0,0,0,0,0,-1,1406,820,0,0
189,204,0,0,0,0,0,0,0,0,0,-1,1413,820,0,0
196,204,0,0,0,0,0,0,0,0,0,-1,1420,820,0,0
203,204,0,0,0,0,0,0,0,0,0,-1,1427,820,0,0
210,204,0,0,0,0,0,0,0,0,0,-1,1434,820,0,0
217,204,0,0,0,0,0,0,0,0,0,-1,1441,820,0,0
224,204,0,0,0,0,0,0,0,0,0,-1,1448,820,0,0
231,204,0,0,0,0,0,0,0,0,0,-1,1455,820,0,0
238,204,0,0,0,0,0,0,0,0,0,-1,1462,820,0,0
245,204,0,0,0,0,0,0,0,0,0,-1,1469,820,0,0
252,204,0,0,0,0,0,0,0,0,0,-1,1476,820,0,0
259,204,0,0,0,0,0,0,0,0,0,-1,1483,820,0,0
266,204,0,0,0,0,0,0,0,0,0,-1,1490,820,0,0
273,204,0,0,0,0,0,0,0,0,0,-1,1497,820,0,0
280,204,0,0,0,0,0,0,0,0,0,-1,1504,820,0,0
287,204,0,0,0,0,0,0,0,0,0,-1,1511,820,0,0
294,204,0,0,0,0,0,0,0,0,0,-1,1518,820,0,0
301,204,0,0,0,0,0,0,0,0,0,-1,1525,820,0,0
308,204,0,0,0,0,0,0,0,0,0,-1,1532,820,0,0
315,204,0,0,0,0,0,0,0,0,0,-1,1539,820,0,0
322,204,0,0,0,0,0,0,0,0,0,-1,1546,820,0,0
329,204,0,0,0,0,0,0,0,0,0,-1,1553,820,0,0
336,204,0,0,0,0,0,0,0,0,0,-1,1560,820,0,0
343,204,0,0,0,0,0,0,0,0,0,-1,1567,820,0,0
350,204,0,0,0,0,0,0,0,0,0,-1,1574,820,0,0
357,204,0,0,0,0,0,0,0,0,0,-1,1581,820,0,0
364,204,0,0,0,0,0,0,0,0,0,-1,1588,820,0,0
371,204,0,0,0,0,0,0,0,0,0,-1,1595,820,0,0
378,204,0,0,0,0,0,0,0,0,0,-1,1602,820,0,0
385,204,0,0,0,0,0,0,0,0,0,-1,1609,820,0,0
392,204,0,0,0,0,0,0,0,0,0,-1,1616,820,0,0
399,204,0,0,0,0,0,0,0,0,0,-1,1623,820,0,0
406,204,0,0,0,0,0,0,0,0,0,-1,1630,820,0,0
413,204,0,0,0,0,0,0,0,0,0,-1,1637,820,0,0
420,204,0,0,0,0,0,0,0,0,0,-1,1644,820,0,0
427,204,0,0,0,0,0,0,0,0,0,-1,1651,820,0,0
434,204,0,0,0,0,0,0,0,0,0,-1,1658,820,0,0
441,204,0,0,0,0,0,0,0,0,0,-1,1665,820,0,0
448,204,0,0,0,0,0,0,0,0,0,-1,1672,820,0,0
455,204,0,0,0,0,0,0,0,0,0,-1,1679,820,0,0
462,204,0,0,0,0,0,0,0,0,0,-1,1686,820,0,0
469,204,0,0,0,0,0,0,0,0,0,-1,1693,820,0,0
476,204,0,0,0,0,0,0,0,0,0,-1,1700,820,0,0
483,204,0,0,0,0,0,0,0,0,0,-1,1707,820,0,0
490,204,0,0,0,0,0,0,0,0,0,-1,1714,820,0,0
497,204,0,0,0,0,0,0,0,0,0,-1,1721,820,0,0
504,204,0,0,0,0,0,0,0,0,0,-1,1728,820,0,0
511,204,0,0,0,0,0,0,0,0,0,-1,1735,820,0,0
518,204,0,0,0,0,0,0,0,0,0,-1,1742,820,0,0
525,204,0,0,0,0,0,0,0,0,0,-1,1749,820,0,0
532,204,0,0,0,0,0,0,0,0,0,-1,1756,820,0,0
539,204,0,0,0,0,0,0,0,0,0,-1,1763,820,0,0
546,204,0,0,0,0,0,0,0,0,0,-1,1770,820,0,0
553,204,0,0,0,0,0,0,0,0,0,-1,1777,820,0,0
560,204,0,0,0,0,0,0,0,0,0,-1,1784,820,0,0
567,204,0,0,0,0,0,0,0,0,0,-1,1791,820,0,0
574,204,0,0,0,0,0,0,0,0,0,-1,1798,820,0,0
581,204,0,0,0,0,0,0,0,0,0,-1,1805,820,0,0
588,204,0,0,0,0,0,0,0,0,0,-1,1812,820,0,0
595,204,0,0,0,0,0,0,0,0,0,-1,1819,820,0,0
602,204,59.1331,2.93896,0.0011862,0.00368711,6.58763e-05,0.00368884,0.00118447,1.54448,0.00217473,0.0382351,1826,820,59.133,-2.93895
609,204,59.1575,3.02521,0.001004,0.00187803,0.000375718,0.00201733,0.000864695,1.21573,0.00116866,0.0407612,1833,820,59.1574,-3.02523
616,204,59.1796,2.79041,0.000738045,0.000624776,0.000640145,0.00132406,3.87654e-05,0.741277,0.00087007,0.0399389,1840,820,59.1796,-2.7904
623,204,59.1677,2.76733,-0.000169714,-0.000376692,0.000288861,3.36371e-05,-0.000580043,0.613388,0.000398382,0.0290198,1847,820,59.1677,-2.76735
630,204,59.1316,2.79645,-0.00138853,-0.000681926,-0.000161075,-0.00064694,-0.00142352,-1.35692,0.000823003,0.028928,1854,820,59.1316,-2.79646
637,204,59.1563,2.77625,-0.00244231,-0.000935063,-0.000685957,-0.000669625,-0.00270774,-1.20158,0.00162851,0.036678,1861,820,59.1562,-2.77625
644,204,59.186,2.74597,0,0,0,0,0,0,0,-1,1868,820,59.186,-2.74595
651,204,53.7611,2.32251,0,0,0,0,0,0,0,-1,1875,820,53.7611,-2.32249
658,204,34.9631,1.64844,0,0,0,0,0,0,0,-1,1882,820,34.9631,-1.64842
665,204,21.8292,1.51099,0,0,0,0,0,0,0,-1,1889,820,21.8292,-1.51099
672,204,45.2133,-0.79071,0,0,0,0,0,0,0,-1,1896,820,45.2132,0.790689
679,204,45.1284,-0.144226,-0.00548564,-0.00171769,-0.00262554,-0.000370123,-0.0068332,-1.0966,0.00443724,0.0408549,1903,820,45.1284,0.14425
686,204,45.0205,0.576477,-0.00558586,-0.00172806,-0.00297807,-0.000108786,-0.00720514,-1.07278,0.00476758,0.0206009,1910,820,45.0205,-0.576471
693,204,44.8655,1.24536,-0.00496591,-0.00163532,-0.0030222,0.000150026,-0.00675125,-1.03721,0.00455167,0.018781,1917,820,44.8655,-1.24539
700,204,44.8651,1.94458,-0.00324431,-0.00143342,-0.00289435,0.000693804,-0.00537153,-0.936992,0.00383328,0.0176025,1924,820,44.8651,-1.94459
707,204,44.8538,2.68463,-0.000114992,-0.00130478,-0.00314375,0.00248965,-0.00390943,-0.691888,0.0037247,0.0151998,1931,820,44.8538,-2.68465
714,204,44.8615,3.38794,0.00422334,-0.00135195,-0.00401424,0.00632293,-0.00345154,-0.481906,0.00572388,0.024165,1938,820,44.8615,-3.38791
721,204,44.8231,4.02905,0.00954208,-0.00156852,-0.005443,0.0117642,-0.0037906,-0.387594,0.0093656,0.0221308,1945,820,44.8231,-4.02902
728,204,44.7765,4.70319,0.0159851,-0.00220782,-0.00788727,0.0189283,-0.00515107,-0.357161,0.0146411,0.0137447,1952,820,44.7765,-4.70316
735,204,44.6975,5.39728,0.0239001,-0.00318751,-0.0115416,0.0281508,-0.00743817,-0.352876,0.0216762,0.0165985,1959,820,44.6976,-5.3973
742,204,44.7194,5.95764,0.0339973,-0.00469555,-0.0169297,0.0403588,-0.011057,-0.359437,0.0312506,0.0329585,1966,820,44.7194,-5.95765
749,204,45.135,6.10834,0.0466576,-0.00671627,-0.0242508,0.0560302,-0.0160889,-0.368804,0.0437148,0.04603,1973,820,45.135,-6.10833
756,204,45.5686,6.25806,0.0626156,-0.00945372,-0.034171,0.0762413,-0.0230795,-0.37943,0.0600186,0.045051,1980,820,45.5686,-6.25806
763,204,45.9963,6.513,0.08195,-0.0127274,-0.0470924,0.101384,-0.0321618,-0.391395,0.0804815,0.0458287,1987,820,45.9964,-6.51303
770,204,46.4316,6.89795,0,0,0,0,0,0,0,-1,1994,820,46.4316,-6.89797
777,204,0,0,0,0,0,0,0,0,0,-1,2001,820,0,0
784,204,0,0,0,0,0,0,0,0,0,-1,2008,820,0,0
791,204,0,0,0,0,0,0,0,0,0,-1,2015,820,0,0
798,204,0,0,0,0,0,0,0,0,0,-1,2022,820,0,0
805,204,0,0,0,0,0,0,0,0,0,-1,2029,820,0,0
812,204,0,0,0,0,0,0,0,0,0,-1,2036,820,0,0
-700,197,0,0,0,0,0,0,0,0,0,-1,524,827,0,0
-693,197,0,0,0,0,0,0,0,0,0,-1,531,827,0,0
-686,197,0,0,0,0,0,0,0,0,0,-1,538,827,0,0
-679,197,0,0,0,0,0,0,0,0,0,-1,545,827,0,0
-672,197,0,0,0,0,0,0,0,0,0,-1,552,827,0,0
-665,197,0,0,0,0,0,0,0,0,0,-1,559,827,0,0
-658,197,-34.5739,5.17334,0,0,0,0,0,0,0,-1,566,827,-34.5738,-5.17337
-651,197,-34.4095,4.15332,0,0,0,0,0,0,0,-1,573,827,-34.4096,-4.15333
-644,197,-35.0823,3.64722,0,0,0,0,0,0,0,-1,580,827,-35.0823,-3.6472
-637,197,-27.6712,4.42389,0,0,0,0,0,0,0,-1,587,827,-27.6712,-4.42386
-630,197,-27.0933,4.53906,0,0,0,0,0,0,0,-1,594,827,-27.0933,-4.53909
-623,197,-32.1158,4.97101,0,0,0,0,0,0,0,-1,601,827,-32.1158,-4.97104
-616,197,-32.4056,4.26184,0,0,0,0,0,0,0,-1,608,827,-32.4056,-4.26184
-609,197,-32.4922,3.62164,0.00763163,0.00135201,0.000279293,0.00764403,0.00133961,0.0443593,0.00471337,0.034911,615,827,-32.4922,-3.62167
-602,197,-32.6262,2.96228,0.00562888,0.0013888,0.000517979,0.00569124,0.00132644,0.119815,0.00343839,0.0185075,622,827,-32.6262,-2.96226
-595,197,-32.7131,2.29279,0.00393151,0.001446,0.000837494,0.00418736,0.00119014,0.296498,0.00249149,0.0192486,629,827,-32.7132,-2.29276
-588,197,-32.7159,1.59967,0.00245142,0.00149446,0.00127748,0.00333709,0.000608791,0.60621,0.00205212,0.0201764,636,827,-32.7159,-1.59968
-581,197,-32.7473,0.929382,0.00119998,0.00150693,0.00181102,0.00317097,-0.000464056,0.82767,0.00228443,0.0115672,643,827,-32.7473,-0.929375
-574,197,-32.7562,0.304382,0.00032436,0.00136863,0.0023877,0.00329062,-0.00159763,0.893042,0.0028781,0.0134029,650,827,-32.7562,-0.3044
-567,197,-32.6964,-0.317383,0.000157798,0.00086789,0.00266619,0.00320257,-0.00217689,0.851592,0.0031246,0.0173315,657,827,-32.6964,0.317368
-560,197,-32.642,-1.01605,6.22244e-05,-0.000106491,0.0026767,0.0026559,-0.00270016,0.769646,0.00309236,0.0326415,664,827,-32.642,1.01605
-553,197,-33.1771,-1.4881,0,0,0,0,0,0,0,-1,671,827,-33.1771,1.4881
-546,197,-33.0991,-2.06989,0,0,0,0,0,0,0,-1,678,827,-33.0991,2.06991
-539,197,-32.8993,-2.61737,0,0,0,0,0,0,0,-1,685,827,-32.8993,2.61737
-532,197,-16.0519,0.0410156,0,0,0,0,0,0,0,-1,692,827,-16.0519,-0.0410415
-525,197,-35.3785,2.11829,0,0,0,0,0,0,0,-1,699,827,-35.3785,-2.11826
-518,197,-45.2727,0.566895,0,0,0,0,0,0,0,-1,706,827,-45.2727,-0.566895
-511,197,-45.2802,0.692627,0.00462308,-0.00482421,0.00352248,0.00579186,-0.00599299,0.320376,0.00680432,0.0431209,713,827,-45.2801,-0.692621
-504,197,-45.2476,0.859741,0.00596402,-0.00496987,0.00377698,0.00714186,-0.00614771,0.302288,0.00767989,0.0373296,720,827,-45.2476,-0.859716
-497,197,-45.1073,0.995056,0.00801121,-0.00394456,0.00342202,0.00892138,-0.00485473,0.259956,0.00806833,0.0389064,727,827,-45.1073,-0.995074
-490,197,-45.0083,1.09546,0.0105485,-0.000803503,0.00222436,0.0109688,-0.00122379,0.186748,0.00775271,0.0380475,734,827,-45.0083,-1.09544
-483,197,-45.0369,1.08044,0.013572,0.00411488,0.000138057,0.013574,0.00411286,0.0145941,0.00803717,0.0406203,741,827,-45.0369,-1.08042
-476,197,0,0,0,0,0,0,0,0,0,-1,748,827,0,0
-469,197,0,0,0,0,0,0,0,0,0,-1,755,827,0,0
-462,197,0,0,0,0,0,0,0,0,0,-1,762,827,0,0
-455,197,0,0,0,0,0,0,0,0,0,-1,769,827,0,0
-448,197,0,0,0,0,0,0,0,0,0,-1,776,827,0,0
-441,197,0,0,0,0,0,0,0,0,0,-1,783,827,0,0
-434,197,0,0,0,0,0,0,0,0,0,-1,790,827,0,0
-427,197,0,0,0,0,0,0,0,0,0,-1,797,827,0,0
-420,197,0,0,0,0,0,0,0,0,0,-1,804,827,0,0
-413,197,0,0,0,0,0,0,0,0,0,-1,811,827,0,0
-406,197,0,0,0,0,0,0,0,0,0,-1,818,827,0,0
-399,197,0,0,0,0,0,0,0,0,0,-1,825,827,0,0
-392,197,0,0,0,0,0,0,0,0,0,-1,832,827,0,0
-385,197,0,0,0,0,0,0,0,0,0,-1,839,827,0,0
-378,197,0,0,0,0,0,0,0,0,0,-1,846,827,0,0
-371,197,0,0,0,0,0,0,0,0,0,-1,853,827,0,0
-364,197,0,0,0,0,0,0,0,0,0,-1,860,827,0,0
-357,197,0,0,0,0,0,0,0,0,0,-1,867,827,0,0
-350,197,0,0,0,0,0,0,0,0,0,-1,874,827,0,0
-343,197,0,0,0,0,0,0,0,0,0,-1,881,827,0,0
-336,197,0,0,0,0,0,0,0,0,0,-1,888,827,0,0
-329,197,0,0,0,0,0,0,0,0,0,-1,895,827,0,0
-322,197,0,0,0,0,0,0,0,0,0,-1,902,827,0,0
-315,197,0,0,0,0,0,0,0,0,0,-1,909,827,0,0
-308,197,0,0,0,0,0,0,0,0,0,-1,916,827,0,0
-301,197,0,0,0,0,0,0,0,0,0,-1,923,827,0,0
-294,197,0,0,0,0,0,0,0,0,0,-1,930,827,0,0
-287,197,0,0,0,0,0,0,0,0,0,-1,937,827,0,0
-280,197,0,0,0,0,0,0,0,0,0,-1,944,827,0,0
-273,197,0,0,0,0,0,0,0,0,0,-1,951,827,0,0
-266,197,0,0,0,0,0,0,0,0,0,-1,958,827,0,0
-259,197,0,0,0,0,0,0,0,0,0,-1,965,827,0,0
-252,197,0,0,0,0,0,0,0,0,0,-1,972,827,0,0
-245,197,0,0,0,0,0,0,0,0,0,-1,979,827,0,0
-238,197,0,0,0,0,0,0,0,0,0,-1,986,827,0,0
-231,197,0,0,0,0,0,0,0,0,0,-1,993,827,0,0
-224,197,0,0,0,0,0,0,0,0,0,-1,1000,827,0,0
-217,197,0,0,0,0,0,0,0,0,0,-1,1007,827,0,0
-210,197,0,0,0,0,0,0,0,0,0,-1,1014,827,0,0
-203,197,0,0,0,0,0,0,0,0,0,-1,1021,827,0,0
-196,197,0,0,0,0,0,0,0,0,0,-1,1028,827,0,0
-189,197,0,0,0,0,0,0,0,0,0,-1,1035,827,0,0
-182,197,0,0,0,0,0,0,0,0,0,-1,1042,827,0,0
-175,197,0,0,0,0,0,0,0,0,0,-1,1049,827,0,0
-168,197,0,0,0,0,0,0,0,0,0,-1,1056,827,0,0
-161,197,0,0,0,0,0,0,0,0,0,-1,1063,827,0,0
-154,197,0,0,0,0,0,0,0,0,0,-1,1070,827,0,0
-147,197,0,0,0,0,0,0,0,0,0,-1,1077,827,0,0
-140,197,0,0,0,0,0,0,0,0,0,-1,1084,827,0,0
-133,197,0,0,0,0,0,0,0,0,0,-1,1091,827,0,0
-126,197,0,0,0,0,0,0,0,0,0,-1,1098,827,0,0
-119,197,0,0,0,0,0,0,0,0,0,-1,1105,827,0,0
-112,197,0,0,0,0,0,0,0,0,0,-1,1112,827,0,0
-105,197,0,0,0,0,0,0,0,0,0,-1,1119,827,0,0
-98,197,0,0,0,0,0,0,0,0,0,-1,1126,827,0,0
-91,197,0,0,0,0,0,0,0,0,0,-1,1133,827,0,0
-84,197,0,0,0,0,0,0,0,0,0,-1,1140,827,0,0
-77,197,0,0,0,0,0,0,0,0,0,-1,1147,827,0,0
-70,197,0,0,0,0,0,0,0,0,0,-1,1154,827,0,0
-63,197,0,0,0,0,0,0,0,0,0,-1,1161,827,0,0
-56,197,0,0,0,0,0,0,0,0,0,-1,1168,827,0,0
-49,197,0,0,0,0,0,0,0,0,0,-1,1175,827,0,0
-42,197,0,0,0,0,0,0,0,0,0,-1,1182,827,0,0
-35,197,0,0,0,0,0,0,0,0,0,-1,1189,827,0,0
-28,197,0,0,0,0,0,0,0,0,0,-1,1196,827,0,0
-21,197,0,0,0,0,0,0,0,0,0,-1,1203,827,0,0
-14,197,0,0,0,0,0,0,0,0,0,-1,1210,827,0,0
-7,197,0,0,0,0,0,0,0,0,0,-1,1217,827,0,0
0,197,0,0,0,0,0,0,0,0,0,-1,1224,827,0,0
7,197,0,0,0,0,0,0,0,0,0,-1,1231,827,0,0
14,197,0,0,0,0,0,0,0,0,0,-1,1238,827,0,0
21,197,0,0,0,0,0,0,0,0,0,-1,1245,827,0,0
28,197,0,0,0,0,0,0,0,0,0,-1,1252,827,0,0
35,197,0,0,0,0,0,0,0,0,0,-1,1259,827,0,0
42,197,0,0,0,0,0,0,0,0,0,-1,1266,827,0,0
49,197,0,0,0,0,0,0,0,0,0,-1,1273,827,0,0
56,197,0,0,0,0,0,0,0,0,0,-1,1280,827,0,0
63,197,0,0,0,0,0,0,0,0,0,-1,1287,827,0,0
70,197,0,0,0,0,0,0,0,0,0,-1,1294,827,0,0
77,197,0,0,0,0,0,0,0,0,0,-1,1301,827,0,0
84,197,0,0,0,0,0,0,0,0,0,-1,1308,827,0,0
91,197,0,0,0,0,0,0,0,0,0,-1,1315,827,0,0
98,197,0,0,0,0,0,0,0,0,0,-1,1322,827,0,0
105,197,0,0,0,0,0,0,0,0,0,-1,1329,827,0,0
112,197,0,0,0,0,0,0,0,0,0,-1,1336,827,0,0
119,197,0,0,0,0,0,0,0,0,0,-1,1343,827,0,0
126,197,0,0,0,0,0,0,0,0,0,-1,1350,827,0,0
133,197,0,0,0,0,0,0,0,0,0,-1,1357,827,0,0
140,197,0,0,0,0,0,0,0,0,0,-1,1364,827,0,0
147,197,0,0,0,0,0,0,0,0,0,-1,1371,827,0,0
154,197,0,0,0,0,0,0,0,0,0,-1,1378,827,0,0
161,197,0,0,0,0,0,0,0,0,0,-1,1385,827,0,0
168,197,0,0,0,0,0,0,0,0,0,-1,1392,827,0,0
175,197,0,0,0,0,0,0,0,0,0,-1,1399,827,0,0
182,197,0,0,0,0,0,0,0,0,0,-1,1406,827,0,0
189,197,0,0,0,0,0,0,0,0,0,-1,1413,827,0,0
196,197,0,0,0,0,0,0,0,0,0,-1,1420,827,0,0
203,197,0,0,0,0,0,0,0,0,0,-1,1427,827,0,0
210,197,0,0,0,0,0,0,0,0,0,-1,1434,827,0,0
217,197,0,0,0,0,0,0,0,0,0,-1,1441,827,0,0
224,197,0,0,0,0,0,0,0,0,0,-1,1448,827,0,0
231,197,0,0,0,0,0,0,0,0,0,-1,1455,827,0,0
238,197,0,0,0,0,0,0,0,0,0,-1,1462,827,0,0
245,197,0,0,0,0,0,0,0,0,0,-1,1469,827,0,0
252,197,0,0,0,0,0,0,0,0,0,-1,1476,827,0,0
259,197,0,0,0,0,0,0,0,0,0,-1,1483,827,0,0
266,197,0,0,0,0,0,0,0,0,0,-1,1490,827,0,0
273,197,0,0,0,0,0,0,0,0,0,-1,1497,827,0,0
280,197,0,0,0,0,0,0,0,0,0,-1,1504,827,0,0
287,197,0,0,0,0,0,0,0,0,0,-1,1511,827,0,0
294,197,0,0,0,0,0,0,0,0,0,-1,1518,827,0,0
301,197,0,0,0,0,0,0,0,0,0,-1,1525,827,0,0
308,197,0,0,0,0,0,0,0,0,0,-1,1532,827,0,0
315,197,0,0,0,0,0,0,0,0,0,-1,1539,827,0,0
322,197,0,0,0,0,0,0,0,0,0,-1,1546,827,0,0
329,197,0,0,0,0,0,0,0,0,0,-1,1553,827,0,0
336,197,0,0,0,0,0,0,0,0,0,-1,1560,827,0,0
343,197,0,0,0,0,0,0,0,0,0,-1,1567,827,0,0
350,197,0,0,0,0,0,0,0,0,0,-1,1574,827,0,0
357,197,0,0,0,0,0,0,0,0,0,-1,1581,827,0,0
364,197,0,0,0,0,0,0,0,0,0,-1,1588,827,0,0
371,197,0,0,0,0,0,0,0,0,0,-1,1595,827,0,0
378,197,0,0,0,0,0,0,0,0,0,-1,1602,827,0,0
385,197,0,0,0,0,0,0,0,0,0,-1,1609,827,0,0
392,197,0,0,0,0,0,0,0,0,0,-1,1616,827,0,0
399,197,0,0,0,0,0,0,0,0,0,-1,1623,827,0,0
406,197,0,0,0,0,0,0,0,0,0,-1,1630,827,0,0
413,197,0,0,0,0,0,0,0,0,0,-1,1637,827,0,0
420,197,0,0,0,0,0,0,0,0,0,-1,1644,827,0,0
427,197,0,0,0,0,0,0,0,0,0,-1,1651,827,0,0
434,197,0,0,0,0,0,0,0,0,0,-1,1658,827,0,0
441,197,0,0,0,0,0,0,0,0,0,-1,1665,827,0,0
448,197,0,0,0,0,0,0,0,0,0,-1,1672,827,0,0
455,197,0,0,0,0,0,0,0,0,0,-1,1679,827,0,0
462,197,0,0,0,0,0,0,0,0,0,-1,1686,827,0,0
469,197,0,0,0,0,0,0,0,0,0,-1,1693,827,0,0
476,197,0,0,0,0,0,0,0,0,0,-1,1700,827,0,0
483,197,0,0,0,0,0,0,0,0,0,-1,1707,827,0,0
490,197,0,0,0,0,0,0,0,0,0,-1,1714,827,0,0
497,197,0,0,0,0,0,0,0,0,0,-1,1721,827,0,0
504,197,0,0,0,0,0,0,0,0,0,-1,1728,827,0,0
511,197,0,0,0,0,0,0,0,0,0,-1,1735,827,0,0
518,197,0,0,0,0,0,0,0,0,0,-1,1742,827,0,0
525,197,0,0,0,0,0,0,0,0,0,-1,1749,827,0,0
532,197,0,0,0,0,0,0,0,0,0,-1,1756,827,0,0
539,197,0,0,0,0,0,0,0,0,0,-1,1763,827,0,0
546,197,0,0,0,0,0,0,0,0,0,-1,1770,827,0,0
553,197,0,0,0,0,0,0,0,0,0,-1,1777,827,0,0
560,197,0,0,0,0,0,0,0,0,0,-1,1784,827,0,0
567,197,0,0,0,0,0,0,0,0,0,-1,1791,827,0,0
574,197,0,0,0,0,0,0,0,0,0,-1,1798,827,0,0
581,197,0,0,0,0,0,0,0,0,0,-1,1805,827,0,0
588,197,0,0,0,0,0,0,0,0,0,-1,1812,827,0,0
595,197,0,0,0,0,0,0,0,0,0,-1,1819,827,0,0
602,197,59.1168,2.94641,0.00103876,0.00495089,0.000142023,0.00495604,0.00103361,1.53456,0.00301906,0.0394617,1826,827,59.1168,-2.94639
609,197,59.1512,3.03711,0.000759005,0.00308198,0.000298333,0.00311968,0.000721303,1.44509,0.00188591,0.041128,1833,827,59.1512,-3.03714
616,197,59.2268,2.74927,0.000654094,0.00173272,0.000618053,0.00201368,0.000373133,1.14413,0.00123698,0.0424774,1840,827,59.2268,-2.74928
623,197,59.1997,2.68616,-0.000130732,0.000495067,0.000386655,0.000679569,-0.000315234,1.12557,0.000587049,0.0362633,1847,827,59.1997,-2.68617
630,197,59.2379,2.68689,-0.00135841,-7.00672e-05,-3.38392e-05,-6.9179e-05,-0.0013593,-1.54455,0.000884041,0.030808,1854,827,59.2379,-2.68689
637,197,59.1848,2.73566,-0.00246033,-0.000461717,-0.000586849,-0.000302143,-0.00261991,-1.3053,0.00165511,0.0286989,1861,827,59.1848,-2.73567
644,197,59.1735,2.72266,-0.00330527,-0.000709453,-0.00102598,-0.000352912,-0.00366181,-1.23634,0.00233249,0.0326543,1868,827,59.1735,-2.72266
651,197,59.1907,2.72595,0,0,0,0,0,0,0,-1,1875,827,59.1906,-2.72595
658,197,40.4694,3.05927,0,0,0,0,0,0,0,-1,1882,827,40.4694,-3.05926
665,197,14.0618,1.80304,0,0,0,0,0,0,0,-1,1889,827,14.0617,-1.80303
672,197,46.1,-1.17743,0,0,0,0,0,0,0,-1,1896,827,46.1,1.17742
679,197,45.8567,-0.120239,-0.00545876,-0.00158329,-0.00252112,-0.000341267,-0.00670078,-1.11305,0.00435789,0.0487357,1903,827,45.8566,0.120209
686,197,45.692,0.644653,-0.00561713,-0.0016668,-0.00289677,-0.000135894,-0.00714804,-1.08462,0.00472072,0.0318968,1910,827,45.692,-0.644646
693,197,45.5642,1.40192,-0.00523016,-0.00168599,-0.00304626,6.61269e-05,-0.00698227,-1.04883,0.00467705,0.0247703,1917,827,45.5643,-1.40194
700,197,45.5465,2.02063,-0.00395036,-0.00157581,-0.00302206,0.000483837,-0.00601001,-0.972571,0.0041773,0.0250128,1924,827,45.5465,-2.02064
707,197,45.556,2.70892,-0.00136004,-0.0015209,-0.003215,0.00177554,-0.00465648,-0.772892,0.00383568,0.00978256,1931,827,45.5561,-2.70895
714,197,45.5165,3.38568,0.00264555,-0.00152648,-0.0039316,0.00501026,-0.00389118,-0.541494,0.00515277,0.0123059,1938,827,45.5164,-3.38568
721,197,45.4806,4.06439,0.0078019,-0.00165963,-0.00519388,0.0100966,-0.00395429,-0.416014,0.00836664,0.0127961,1945,827,45.4806,-4.0644
728,197,45.4355,4.75049,0.0140552,-0.00219926,-0.00736728,0.0168974,-0.00504148,-0.368196,0.0132686,0.0111314,1952,827,45.4356,-4.75052
735,197,45.3815,5.42291,0.0215811,-0.00308569,-0.0106035,0.0255126,-0.00701718,-0.35506,0.0197671,0.0120524,1959,827,45.3815,-5.42293
742,197,45.3779,6.0614,0.0309304,-0.00443311,-0.0152976,0.0366294,-0.0101322,-0.356616,0.0284059,0.022229,1966,827,45.3779,-6.06139
749,197,45.8202,6.28638,0.0424587,-0.00628512,-0.0216371,0.0506776,-0.0145039,-0.363014,0.0395171,0.0424542,1973,827,45.8202,-6.2864
756,197,46.437,6.22278,0.0568133,-0.0088638,-0.0302138,0.0685981,-0.0206486,-0.371897,0.0539486,0.0433019,1980,827,46.437,-6.22277
763,197,46.9114,6.62689,0.0742363,-0.0122189,-0.0416621,0.091045,-0.0290276,-0.38348,0.0723406,0.0456907,1987,827,46.9113,-6.62691
770,197,47.4323,6.99847,0,0,0,0,0,0,0,-1,1994,827,47.4322,-6.9985
777,197,0,0,0,0,0,0,0,0,0,-1,2001,827,0,0
784,197,0,0,0,0,0,0,0,0,0,-1,2008,827,0,0
791,197,0,0,0,0,0,0,0,0,0,-1,2015,827,0,0
798,197,0,0,0,0,0,0,0,0,0,-1,2022,827,0,0
805,197,0,0,0,0,0,0,0,0,0,-1,2029,827,0,0
812,197,0,0,0,0,0,0,0,0,0,-1,2036,827,0,0
-700,190,0,0,0,0,0,0,0,0,0,-1,524,834,0,0
-693,190,0,0,0,0,0,0,0,0,0,-1,531,834,0,0
-686,190,0,0,0,0,0,0,0,0,0,-1,538,834,0,0
-679,190,0,0,0,0,0,0,0,0,0,-1,545,834,0,0
-672,190,0,0,0,0,0,0,0,0,0,-1,552,834,0,0
-665,190,0,0,0,0,0,0,0,0,0,-1,559,834,0,0
-658,190,-34.7194,5.09772,0,0,0,0,0,0,0,-1,566,834,-34.7194,-5.09772
-651,190,-34.6227,4.48425,0,0,0,0,0,0,0,-1,573,834,-34.6227,-4.48426
-644,190,-30.975,7.90454,0,0,0,0,0,0,0,-1,580,834,-30.9751,-7.90454
-637,190,-31.7385,7.57587,0,0,0,0,0,0,0,-1,587,834,-31.7385,-7.57589
-630,190,-33.553,4.45648,0,0,0,0,0,0,0,-1,594,834,-33.553,-4.45646
-623,190,-33.3293,4.78827,0,0,0,0,0,0,0,-1,601,834,-33.3294,-4.78825
-616,190,-33.2467,4.21863,0.00724578,0.00127301,2.64748e-06,0.00724578,0.00127301,0.000443259,0.00446706,0.0454889,608,834,-33.2467,-4.21862
-609,190,-33.1673,3.56726,0.0048107,0.00158241,0.000402556,0.00486014,0.00153297,0.122204,0.00286903,0.0265299,615,834,-33.1673,-3.56729
-602,190,-33.2843,2.98669,0.00314545,0.00160883,0.000818147,0.00349949,0.00125479,0.408401,0.0020472,0.0182942,622,834,-33.2843,-2.98672
-595,190,-33.3571,2.32294,0.0018497,0.00165564,0.00131797,0.00307421,0.000431133,0.748654,0.00192195,0.0203993,629,834,-33.3571,-2.32295
-588,190,-33.3846,1.63495,0.000859846,0.00162606,0.00190773,0.00318877,-0.000702861,0.884489,0.00239476,0.0192994,636,834,-33.3846,-1.63497
-581,190,-33.41,0.974487,0.000165991,0.00160361,0.00247454,0.00346163,-0.00169202,0.92675,0.00303337,0.013765,643,834,-33.41,-0.974509
-574,190,-33.4103,0.336914,-0.000174712,0.00149816,0.00298039,0.00375726,-0.00243382,0.922202,0.00360154,0.0126928,650,834,-33.4103,-0.336905
-567,190,-33.2979,-0.399536,7.48954e-05,0.00098925,0.00307863,0.00364447,-0.00258032,0.85911,0.00361134,0.0267773,657,834,-33.2979,0.399507
-560,190,-33.3735,-0.991638,0.00015633,4.94237e-05,0.00291545,0.00301882,-0.00281307,0.776232,0.00336774,0.0477984,664,834,-33.3736,0.991657
-553,190,-33.9625,-1.6355,0,0,0,0,0,0,0,-1,671,834,-33.9625,1.63552
-546,190,-33.7621,-2.04889,0,0,0,0,0,0,0,-1,678,834,-33.7621,2.04886
-539,190,-16.4624,-0.542542,0,0,0,0,0,0,0,-1,685,834,-16.4624,0.542527
-532,190,-21.6292,2.06122,0,0,0,0,0,0,0,-1,692,834,-21.6292,-2.06123
-525,190,-38.9377,1.03369,0,0,0,0,0,0,0,-1,699,834,-38.9377,-1.0337
-518,190,-45.1582,0.715942,0,0,0,0,0,0,0,-1,706,834,-45.1582,-0.715933
-511,190,-45.1346,0.894348,0.00513473,-0.00448154,0.00318678,0.00609493,-0.00544175,0.292657,0.00666426,0.0424814,713,834,-45.1346,-0.894342
-504,190,-45.1592,0.975464,0.00691518,-0.00439044,0.00329574,0.00780578,-0.00528104,0.263923,0.00760241,0.0405936,720,834,-45.1593,-0.975468
-497,190,-44.9949,1.06018,0.00986836,-0.00263727,0.00261979,0.010395,-0.00316391,0.198379,0.00819092,0.0411097,727,834,-44.9949,-1.0602
-490,190,-44.8464,1.23944,0.0135252,0.00188412,0.00108629,0.0136257,0.00178362,0.092254,0.0085515,0.0419348,734,834,-44.8464,-1.23946
-483,190,0,0,0,0,0,0,0,0,0,-1,741,834,0,0
-476,190,0,0,0,0,0,0,0,0,0,-1,748,834,0,0
-469,190,0,0,0,0,0,0,0,0,0,-1,755,834,0,0
-462,190,0,0,0,0,0,0,0,0,0,-1,762,834,0,0
-455,190,0,0,0,0,0,0,0,0,0,-1,769,834,0,0
-448,190,0,0,0,0,0,0,0,0,0,-1,776,834,0,0
-441,190,0,0,0,0,0,0,0,0,0,-1,783,834,0,0
-434,190,0,0,0,0,0,0,0,0,0,-1,790,834,0,0
-427,190,0,0,0,0,0,0,0,0,0,-1,797,834,0,0
-420,190,0,0,0,0,0,0,0,0,0,-1,804,834,0,0
-413,190,0,0,0,0,0,0,0,0,0,-1,811,834,0,0
-406,190,0,0,0,0,0,0,0,0,0,-1,818,834,0,0
-399,190,0,0,0,0,0,0,0,0,0,-1,825,834,0,0
-392,190,0,0,0,0,0,0,0,0,0,-1,832,834,0,0
-385,190,0,0,0,0,0,0,0,0,0,-1,839,834,0,0
-378,190,0,0,0,0,0,0,0,0,0,-1,846,834,0,0
-371,190,0,0,0,0,0,0,0,0,0,-1,853,834,0,0
-364,190,0,0,0,0,0,0,0,0,0,-1,860,834,0,0
-357,190,0,0,0,0,0,0,0,0,0,-1,867,834,0,0
-350,190,0,0,0,0,0,0,0,0,0,-1,874,834,0,0
-343,190,0,0,0,0,0,0,0,0,0,-1,881,834,0,0
-336,190,0,0,0,0,0,0,0,0,0,-1,888,834,0,0
-329,190,0,0,0,0,0,0,0,0,0,-1,895,834,0,0
-322,190,0,0,0,0,0,0,0,0,0,-1,902,834,0,0
-315,190,0,0,0,0,0,0,0,0,0,-1,909,834,0,0
-308,190,0,0,0,0,0,0,0,0,0,-1,916,834,0,0
-301,190,0,0,0,0,0,0,0,0,0,-1,923,834,0,0
-294,190,0,0,0,0,0,0,0,0,0,-1,930,834,0,0
-287,190,0,0,0,0,0,0,0,0,0,-1,937,834,0,0
-280,190,0,0,0,0,0,0,0,0,0,-1,944,834,0,0
-273,190,0,0,0,0,0,0,0,0,0,-1,951,834,0,0
-266,190,0,0,0,0,0,0,0,0,0,-1,958,834,0,0
-259,190,0,0,0,0,0,0,0,0,0,-1,965,834,0,0
-252,190,0,0,0,0,0,0,0,0,0,-1,972,834,0,0
-245,190,0,0,0,0,0,0,0,0,0,-1,979,834,0,0
-238,190,0,0,0,0,0,0,0,0,0,-1,986,834,0,0
-231,190,0,0,0,0,0,0,0,0,0,-1,993,834,0,0
-224,190,0,0,0,0,0,0,0,0,0,-1,1000,834,0,0
-217,190,0,0,0,0,0,0,0,0,0,-1,1007,834,0,0
-210,190,0,0,0,0,0,0,0,0,0,-1,1014,834,0,0
-203,190,0,0,0,0,0,0,0,0,0,-1,1021,834,0,0
-196,190,0,0,0,0,0,0,0,0,0,-1,1028,834,0,0
-189,190,0,0,0,0,0,0,0,0,0,-1,1035,834,0,0
-182,190,0,0,0,0,0,0,0,0,0,-1,1042,834,0,0
-175,190,0,0,0,0,0,0,0,0,0,-1,1049,834,0,0
-168,190,0,0,0,0,0,0,0,0,0,-1,1056,834,0,0
-161,190,0,0,0,0,0,0,0,0,0,-1,1063,834,0,0
-154,190,0,0,0,0,0,0,0,0,0,-1,1070,834,0,0
-147,190,0,0,0,0,0,0,0,0,0,-1,1077,834,0,0
-140,190,0,0,0,0,0,0,0,0,0,-1,1084,834,0,0
-133,190,0,0,0,0,0,0,0,0,0,-1,1091,834,0,0
-126,190,0,0,0,0,0,0,0,0,0,-1,1098,834,0,0
-119,190,0,0,0,0,0,0,0,0,0,-1,1105,834,0,0
-112,190,0,0,0,0,0,0,0,0,0,-1,1112,834,0,0
-105,190,0,0,0,0,0,0,0,0,0,-1,1119,834,0,0
-98,190,0,0,0,0,0,0,0,0,0,-1,1126,834,0,0
-91,190,0,0,0,0,0,0,0,0,0,-1,1133,834,0,0
-84,190,0,0,0,0,0,0,0,0,0,-1,1140,834,0,0
-77,190,0,0,0,0,0,0,0,0,0,-1,1147,834,0,0
-70,190,0,0,0,0,0,0,0,0,0,-1,1154,834,0,0
-63,190,0,0,0,0,0,0,0,0,0,-1,1161,834,0,0
-56,190,0,0,0,0,0,0,0,0,0,-1,1168,834,0,0
-49,190,0,0,0,0,0,0,0,0,0,-1,1175,834,0,0
-42,190,0,0,0,0,0,0,0,0,0,-1,1182,834,0,0
-35,190,0,0,0,0,0,0,0,0,0,-1,1189,834,0,0
-28,190,0,0,0,0,0,0,0,0,0,-1,1196,834,0,0
-21,190,0,0,0,0,0,0,0,0,0,-1,1203,834,0,0
-14,190,0,0,0,0,0,0,0,0,0,-1,1210,834,0,0
-7,190,0,0,0,0,0,0,0,0,0,-1,1217,834,0,0
0,190,0,0,0,0,0,0,0,0,0,-1,1224,834,0,0
7,190,0,0,0,0,0,0,0,0,0,-1,1231,834,0,0
14,190,0,0,0,0,0,0,0,0,0,-1,1238,834,0,0
21,190,0,0,0,0,0,0,0,0,0,-1,1245,834,0,0
28,190,0,0,0,0,0,0,0,0,0,-1,1252,834,0,0
35,190,0,0,0,0,0,0,0,0,0,-1,1259,834,0,0
42,190,0,0,0,0,0,0,0,0,0,-1,1266,834,0,0
49,190,0,0,0,0,0,0,0,0,0,-1,1273,834,0,0
56,190,0,0,0,0,0,0,0,0,0,-1,1280,834,0,0
63,190,0,0,0,0,0,0,0,0,0,-1,1287,834,0,0
70,190,0,0,0,0,0,0,0,0,0,-1,1294,834,0,0
77,190,0,0,0,0,0,0,0,0,0,-1,1301,834,0,0
84,190,0,0,0,0,0,0,0,0,0,-1,1308,834,0,0
91,190,0,0,0,0,0,0,0,0,0,-1,1315,834,0,0
98,190,0,0,0,0,0,0,0,0,0,-1,1322,834,0,0
105,190,0,0,0,0,0,0,0,0,0,-1,1329,834,0,0
112,190,0,0,0,0,0,0,0,0,0,-1,1336,834,0,0
119,190,0,0,0,0,0,0,0,0,0,-1,1343,834,0,0
126,190,0,0,0,0,0,0,0,0,0,-1,1350,834,0,0
133,190,0,0,0,0,0,0,0,0,0,-1,1357,834,0,0
140,190,0,0,0,0,0,0,0,0,0,-1,1364,834,0,0
147,190,0,0,0,0,0,0,0,0,0,-1,1371,834,0,0
154,190,0,0,0,0,0,0,0,0,0,-1,1378,834,0,0
161,190,0,0,0,0,0,0,0,0,0,-1,1385,834,0,0
168,190,0,0,0,0,0,0,0,0,0,-1,1392,834,0,0
175,190,0,0,0,0,0,0,0,0,0,-1,1399,834,0,0
182,190,0,0,0,0,0,0,0,0,0,-1,1406,834,0,0
189,190,0,0,0,0,0,0,0,0,0,-1,1413,834,0,0
196,190,0,0,0,0,0,0,0,0,0,-1,1420,834,0,0
203,190,0,0,0,0,0,0,0,0,0,-1,1427,834,0,0
210,190,0,0,0,0,0,0,0,0,0,-1,1434,834,0,0
217,190,0,0,0,0,0,0,0,0,0,-1,1441,834,0,0
224,190,0,0,0,0,0,0,0,0,0,-1,1448,834,0,0
231,190,0,0,0,0,0,0,0,0,0,-1,1455,834,0,0
238,190,0,0,0,0,0,0,0,0,0,-1,1462,834,0,0
245,190,0,0,0,0,0,0,0,0,0,-1,1469,834,0,0
252,190,0,0,0,0,0,0,0,0,0,-1,1476,834,0,0
259,190,0,0,0,0,0,0,0,0,0,-1,1483,834,0,0
266,190,0,0,0,0,0,0,0,0,0,-1,1490,834,0,0
273,190,0,0,0,0,0,0,0,0,0,-1,1497,834,0,0
280,190,0,0,0,0,0,0,0,0,0,-1,1504,834,0,0
287,190,0,0,0,0,0,0,0,0,0,-1,1511,834,0,0
294,190,0,0,0,0,0,0,0,0,0,-1,1518,834,0,0
301,190,0,0,0,0,0,0,0,0,0,-1,1525,834,0,0
308,190,0,0,0,0,0,0,0,0,0,-1,1532,834,0,0
315,190,0,0,0,0,0,0,0,0,0,-1,1539,834,0,0
322,190,0,0,0,0,0,0,0,0,0,-1,1546,834,0,0
329,190,0,0,0,0,0,0,0,0,0,-1,1553,834,0,0
336,190,0,0,0,0,0,0,0,0,0,-1,1560,834,0,0
343,190,0,0,0,0,0,0,0,0,0,-1,1567,834,0,0
350,190,0,0,0,0,0,0,0,0,0,-1,1574,834,0,0
357,190,0,0,0,0,0,0,0,0,0,-1,1581,834,0,0
364,190,0,0,0,0,0,0,0,0,0,-1,1588,834,0,0
371,190,0,0,0,0,0,0,0,0,0,-1,1595,834,0,0
378,190,0,0,0,0,0,0,0,0,0,-1,1602,834,0,0
385,190,0,0,0,0,0,0,0,0,0,-1,1609,834,0,0
392,190,0,0,0,0,0,0,0,0,0,-1,1616,834,0,0
399,190,0,0,0,0,0,0,0,0,0,-1,1623,834,0,0
406,190,0,0,0,0,0,0,0,0,0,-1,1630,834,0,0
413,190,0,0,0,0,0,0,0,0,0,-1,1637,834,0,0
420,190,0,0,0,0,0,0,0,0,0,-1,1644,834,0,0
427,190,0,0,0,0,0,0,0,0,0,-1,1651,834,0,0
434,190,0,0,0,0,0,0,0,0,0,-1,1658,834,0,0
441,190,0,0,0,0,0,0,0,0,0,-1,1665,834,0,0
448,190,0,0,0,0,0,0,0,0,0,-1,1672,834,0,0
455,190,0,0,0,0,0,0,0,0,0,-1,1679,834,0,0
462,190,0,0,0,0,0,0,0,0,0,-1,1686,834,0,0
469,190,0,0,0,0,0,0,0,0,0,-1,1693,834,0,0
476,190,0,0,0,0,0,0,0,0,0,-1,1700,834,0,0
483,190,0,0,0,0,0,0,0,0,0,-1,1707,834,0,0
490,190,0,0,0,0,0,0,0,0,0,-1,1714,834,0,0
497,190,0,0,0,0,0,0,0,0,0,-1,1721,834,0,0
504,190,0,0,0,0,0,0,0,0,0,-1,1728,834,0,0
511,190,0,0,0,0,0,0,0,0,0,-1,1735,834,0,0
518,190,0,0,0,0,0,0,0,0,0,-1,1742,834,0,0
525,190,0,0,0,0,0,0,0,0,0,-1,1749,834,0,0
532,190,0,0,0,0,0,0,0,0,0,-1,1756,834,0,0
539,190,0,0,0,0,0,0,0,0,0,-1,1763,834,0,0
546,190,0,0,0,0,0,0,0,0,0,-1,1770,834,0,0
553,190,0,0,0,0,0,0,0,0,0,-1,1777,834,0,0
560,190,0,0,0,0,0,0,0,0,0,-1,1784,834,0,0
567,190,0,0,0,0,0,0,0,0,0,-1,1791,834,0,0
574,190,0,0,0,0,0,0,0,0,0,-1,1798,834,0,0
581,190,0,0,0,0,0,0,0,0,0,-1,1805,834,0,0
588,190,0,0,0,0,0,0,0,0,0,-1,1812,834,0,0
595,190,0,0,0,0,0,0,0,0,0,-1,1819,834,0,0
602,190,59.209,2.72449,0.00109979,0.00596708,0.000551027,0.00602868,0.00103819,1.45946,0.00372164,0.0440053,1826,834,59.209,-2.72447
609,190,59.2572,2.83978,0.000840876,0.00410973,0.000584438,0.00421108,0.000739527,1.39909,0.00259623,0.041694,1833,834,59.2573,-2.83975
616,190,59.3312,2.76013,0.000751036,0.00270269,0.000768181,0.00296877,0.000484953,1.23735,0.00183897,0.040782,1840,834,59.3312,-2.76014
623,190,59.3429,2.70972,-7.96967e-06,0.00130855,0.000562722,0.0015163,-0.000215713,1.21714,0.00108991,0.0370491,1847,834,59.3429,-2.7097
630,190,59.3275,2.7439,-0.00126443,0.000468344,0.00013134,0.000478243,-0.00127433,1.49557,0.00104607,0.0370023,1854,834,59.3275,-2.74389
637,190,59.2253,2.74255,-0.00246931,-7.49985e-05,-0.000446829,5.67106e-06,-0.00254998,-1.39218,0.00170188,0.0332149,1861,834,59.2253,-2.74258
644,190,59.137,2.81775,-0.00340037,-0.000425188,-0.00090558,-0.000171228,-0.00365433,-1.29738,0.0023812,0.0283511,1868,834,59.137,-2.81777
651,190,59.152,2.88806,0,0,0,0,0,0,0,-1,1875,834,59.1519,-2.88804
658,190,54.0599,3.0943,0,0,0,0,0,0,0,-1,1882,834,54.0599,-3.09428
665,190,25.9916,3.05157,0,0,0,0,0,0,0,-1,1889,834,25.9916,-3.05156
672,190,27.2662,1.70862,0,0,0,0,0,0,0,-1,1896,834,27.2662,-1.70861
679,190,46.5929,0.385742,0,0,0,0,0,0,0,-1,1903,834,46.5929,-0.385712
686,190,46.338,0.790344,-0.00570382,-0.00141713,-0.00271438,-0.000101895,-0.00701905,-1.11959,0.00464577,0.0274937,1910,834,46.338,-0.790349
693,190,46.3672,1.4292,-0.00543541,-0.00142824,-0.00290469,9.68538e-05,-0.0069605,-1.08731,0.00467295,0.0266498,1917,834,46.3672,-1.42918
700,190,46.191,2.07202,-0.00450996,-0.00133546,-0.00294397,0.000421886,-0.0062673,-1.03264,0.00432569,0.0173563,1924,834,46.191,-2.07203
707,190,46.2126,2.73987,-0.00251246,-0.00132669,-0.0030804,0.00121736,-0.00505651,-0.880471,0.00384164,0.0134579,1931,834,46.2126,-2.73988
714,190,46.2047,3.39252,0.00101466,-0.00131684,-0.00362228,0.00365415,-0.00395634,-0.629718,0.00439507,0.0119704,1938,834,46.2047,-3.39252
721,190,46.1781,4.07239,0.00581434,-0.00143854,-0.0046897,0.00811617,-0.00374037,-0.456282,0.00699905,0.0112299,1945,834,46.1781,-4.07242
728,190,46.1285,4.72479,0.0116669,-0.00191503,-0.006551,0.0143116,-0.00455979,-0.383708,0.01137,0.0135875,1952,834,46.1286,-4.72477
735,190,46.0751,5.38422,0.0186375,-0.00270927,-0.00934242,0.0221487,-0.00622045,-0.3595,0.017218,0.0128448,1959,834,46.0751,-5.3842
742,190,46.0686,6.09747,0.0270274,-0.0038926,-0.0133209,0.0319747,-0.00883989,-0.355605,0.0247941,0.0175351,1966,834,46.0686,-6.09748
749,190,46.119,6.81689,0.0371501,-0.00554581,-0.0186664,0.04416,-0.0125557,-0.359241,0.0343978,0.0406578,1973,834,46.119,-6.8169
756,190,47.2285,6.38043,0.0495322,-0.00790056,-0.0258853,0.0594769,-0.0178452,-0.366797,0.0467491,0.0443295,1980,834,47.2285,-6.38044
763,190,47.8848,6.60449,0,0,0,0,0,0,0,-1,1987,834,47.8848,-6.6045
770,190,45.1699,8.8703,0,0,0,0,0,0,0,-1,1994,834,45.17,-8.87029
777,190,40.5735,6.99371,0,0,0,0,0,0,0,-1,2001,834,40.5735,-6.99373
784,190,0,0,0,0,0,0,0,0,0,-1,2008,834,0,0
791,190,0,0,0,0,0,0,0,0,0,-1,2015,834,0,0
798,190,0,0,0,0,0,0,0,0,0,-1,2022,834,0,0
805,190,0,0,0,0,0,0,0,0,0,-1,2029,834,0,0
812,190,0,0,0,0,0,0,0,0,0,-1,2036,834,0,0
-700,183,0,0,0,0,0,0,0,0,0,-1,524,841,0,0
-693,183,0,0,0,0,0,0,0,0,0,-1,531,841,0,0
-686,183,0,0,0,0,0,0,0,0,0,-1,538,841,0,0
-679,183,0,0,0,0,0,0,0,0,0,-1,545,841,0,0
-672,183,0,0,0,0,0,0,0,0,0,-1,552,841,0,0
-665,183,0,0,0,0,0,0,0,0,0,-1,559,841,0,0
-658,183,-36.417,6.85272,0,0,0,0,0,0,0,-1,566,841,-36.417,-6.85271
-651,183,-31.6644,6.85107,0,0,0,0,0,0,0,-1,573,841,-31.6644,-6.8511
-644,183,-34.4819,6.58923,0,0,0,0,0,0,0,-1,580,841,-34.4819,-6.58922
-637,183,-34.4163,5.90198,0,0,0,0,0,0,0,-1,587,841,-34.4163,-5.90199
-630,183,-34.0972,5.4035,0,0,0,0,0,0,0,-1,594,841,-34.0972,-5.40348
-623,183,-34.0309,4.79138,0.0075459,0.00102679,-0.000289458,0.00755872,0.00101396,-0.0442853,0.00473747,0.0461005,601,841,-34.031,-4.79141
-616,183,-33.9756,4.19122,0.00486352,0.00113702,-9.42445e-05,0.0048659,0.00113464,-0.0252688,0.00293964,0.0370457,608,841,-33.9756,-4.19121
-609,183,-33.9543,3.59595,0.00300754,0.00146883,0.000570003,0.00319568,0.00128069,0.318822,0.0018571,0.0176972,615,841,-33.9543,-3.59592
-602,183,-33.9841,2.97821,0.00181349,0.00156821,0.00121927,0.00291627,0.000465424,0.735276,0.00180911,0.0124298,622,841,-33.9841,-2.9782
-595,183,-34.0206,2.31689,0.000555496,0.00157012,0.00192325,0.00305184,-0.000926226,0.91435,0.00240355,0.0122434,629,841,-34.0206,-2.3169
-588,183,-34.0347,1.65631,-0.000281005,0.00148297,0.00263429,0.003379,-0.00217704,0.946937,0.0032327,0.0136832,636,841,-34.0347,-1.65628
-581,183,-34.0844,1.02246,-0.000683664,0.00147749,0.00313467,0.00371261,-0.00291878,0.951379,0.00383777,0.0145642,643,841,-34.0844,-1.02244
-574,183,-34.0701,0.40387,-0.000677504,0.00146709,0.0034553,0.00401265,-0.00322307,0.935853,0.00418583,0.017015,650,841,-34.0701,-0.4039
-567,183,-33.9818,-0.214355,0,0,0,0,0,0,0,-1,657,841,-33.9818,0.214377
-560,183,-34.0303,-1.05511,0,0,0,0,0,0,0,-1,664,841,-34.0303,1.05511
-553,183,-32.2224,-1.71942,0,0,0,0,0,0,0,-1,671,841,-32.2224,1.71944
-546,183,-27.8053,-1.91199,0,0,0,0,0,0,0,-1,678,841,-27.8053,1.91201
-539,183,-16.8032,-0.417297,0,0,0,0,0,0,0,-1,685,841,-16.8032,0.41732
-532,183,-29.9686,0.953613,0,0,0,0,0,0,0,-1,692,841,-29.9686,-0.953627
-525,183,-45.1828,0.535828,0,0,0,0,0,0,0,-1,699,841,-45.1828,-0.535829
-518,183,-45.2039,0.761963,0.00463599,-0.0031165,0.00267259,0.00546804,-0.00394855,0.301815,0.00546021,0.0468381,706,841,-45.2039,-0.761987
-511,183,-45.0458,1.02173,0.00530728,-0.00390294,0.00261735,0.00599911,-0.00459477,0.258415,0.00613426,0.0413308,713,841,-45.0458,-1.02172
-504,183,-45.2815,1.29211,0.0074656,-0.00337155,0.00254696,0.00803434,-0.0039403,0.219698,0.00704696,0.0411402,720,841,-45.2815,-1.29211
-497,183,-45.2104,1.33942,0.0111017,-0.000740377,0.00161332,0.0113176,-0.000956236,0.133008,0.00788314,0.0406062,727,841,-45.2104,-1.33942
-490,183,-44.8549,1.29053,0.0155763,0.00497956,-9.56421e-05,0.0155772,0.00497869,-0.00902463,0.0091865,0.0429625,734,841,-44.8549,-1.29054
-483,183,0,0,0,0,0,0,0,0,0,-1,741,841,0,0
-476,183,0,0,0,0,0,0,0,0,0,-1,748,841,0,0
-469,183,0,0,0,0,0,0,0,0,0,-1,755,841,0,0
-462,183,0,0,0,0,0,0,0,0,0,-1,762,841,0,0
-455,183,0,0,0,0,0,0,0,0,0,-1,769,841,0,0
-448,183,0,0,0,0,0,0,0,0,0,-1,776,841,0,0
-441,183,0,0,0,0,0,0,0,0,0,-1,783,841,0,0
-434,183,0,0,0,0,0,0,0,0,0,-1,790,841,0,0
-427,183,0,0,0,0,0,0,0,0,0,-1,797,841,0,0
-420,183,0,0,0,0,0,0,0,0,0,-1,804,841,0,0
-413,183,0,0,0,0,0,0,0,0,0,-1,811,841,0,0
-406,183,0,0,0,0,0,0,0,0,0,-1,818,841,0,0
-399,183,0,0,0,0,0,0,0,0,0,-1,825,841,0,0
-392,183,0,0,0,0,0,0,0,0,0,-1,832,841,0,0
-385,183,0,0,0,0,0,0,0,0,0,-1,839,841,0,0
-378,183,0,0,0,0,0,0,0,0,0,-1,846,841,0,0
-371,183,0,0,0,0,0,0,0,0,0,-1,853,841,0,0
-364,183,0,0,0,0,0,0,0,0,0,-1,860,841,0,0
-357,183,0,0,0,0,0,0,0,0,0,-1,867,841,0,0
-350,183,0,0,0,0,0,0,0,0,0,-1,874,841,0,0
-343,183,0,0,0,0,0,0,0,0,0,-1,881,841,0,0
-336,183,0,0,0,0,0,0,0,0,0,-1,888,841,0,0
-329,183,0,0,0,0,0,0,0,0,0,-1,895,841,0,0
-322,183,0,0,0,0,0,0,0,0,0,-1,902,841,0,0
-315,183,0,0,0,0,0,0,0,0,0,-1,909,841,0,0
-308,183,0,0,0,0,0,0,0,0,0,-1,916,841,0,0
-301,183,0,0,0,0,0,0,0,0,0,-1,923,841,0,0
-294,183,0,0,0,0,0,0,0,0,0,-1,930,841,0,0
-287,183,0,0,0,0,0,0,0,0,0,-1,937,841,0,0
-280,183,0,0,0,0,0,0,0,0,0,-1,944,841,0,0
-273,183,0,0,0,0,0,0,0,0,0,-1,951,841,0,0
-266,183,0,0,0,0,0,0,0,0,0,-1,958,841,0,0
-259,183,0,0,0,0,0,0,0,0,0,-1,965,841,0,0
-252,183,0,0,0,0,0,0,0,0,0,-1,972,841,0,0
-245,183,0,0,0,0,0,0,0,0,0,-1,979,841,0,0
-238,183,0,0,0,0,0,0,0,0,0,-1,986,841,0,0
-231,183,0,0,0,0,0,0,0,0,0,-1,993,841,0,0
-224,183,0,0,0,0,0,0,0,0,0,-1,1000,841,0,0
-217,183,0,0,0,0,0,0,0,0,0,-1,1007,841,0,0
-210,183,0,0,0,0,0,0,0,0,0,-1,1014,841,0,0
-203,183,0,0,0,0,0,0,0,0,0,-1,1021,841,0,0
-196,183,0,0,0,0,0,0,0,0,0,-1,1028,841,0,0
-189,183,0,0,0,0,0,0,0,0,0,-1,1035,841,0,0
-182,183,0,0,0,0,0,0,0,0,0,-1,1042,841,0,0
-175,183,0,0,0,0,0,0,0,0,0,-1,1049,841,0,0
-168,183,0,0,0,0,0,0,0,0,0,-1,1056,841,0,0
-161,183,0,0,0,0,0,0,0,0,0,-1,1063,841,0,0
-154,183,0,0,0,0,0,0,0,0,0,-1,1070,841,0,0
-147,183,0,0,0,0,0,0,0,0,0,-1,1077,841,0,0
-140,183,0,0,0,0,0,0,0,0,0,-1,1084,841,0,0
-133,183,0,0,0,0,0,0,0,0,0,-1,1091,841,0,0
-126,183,0,0,0,0,0,0,0,0,0,-1,1098,841,0,0
-119,183,0,0,0,0,0,0,0,0,0,-1,1105,841,0,0
-112,183,0,0,0,0,0,0,0,0,0,-1,1112,841,0,0
-105,183,0,0,0,0,0,0,0,0,0,-1,1119,841,0,0
-98,183,0,0,0,0,0,0,0,0,0,-1,1126,841,0,0
-91,183,0,0,0,0,0,0,0,0,0,-1,1133,841,0,0
-84,183,0,0,0,0,0,0,0,0,0,-1,1140,841,0,0
-77,183,0,0,0,0,0,0,0,0,0,-1,1147,841,0,0
-70,183,0,0,0,0,0,0,0,0,0,-1,1154,841,0,0
-63,183,0,0,0,0,0,0,0,0,0,-1,1161,841,0,0
-56,183,0,0,0,0,0,0,0,0,0,-1,1168,841,0,0
-49,183,0,0,0,0,0,0,0,0,0,-1,1175,841,0,0
-42,183,0,0,0,0,0,0,0,0,0,-1,1182,841,0,0
-35,183,0,0,0,0,0,0,0,0,0,-1,1189,841,0,0
-28,183,0,0,0,0,0,0,0,0,0,-1,1196,841,0,0
-21,183,0,0,0,0,0,0,0,0,0,-1,1203,841,0,0
-14,183,0,0,0,0,0,0,0,0,0,-1,1210,841,0,0
-7,183,0,0,0,0,0,0,0,0,0,-1,1217,841,0,0
0,183,0,0,0,0,0,0,0,0,0,-1,1224,841,0,0
7,183,0,0,0,0,0,0,0,0,0,-1,1231,841,0,0
14,183,0,0,0,0,0,0,0,0,0,-1,1238,841,0,0
21,183,0,0,0,0,0,0,0,0,0,-1,1245,841,0,0
28,183,0,0,0,0,0,0,0,0,0,-1,1252,841,0,0
35,183,0,0,0,0,0,0,0,0,0,-1,1259,841,0,0
42,183,0,0,0,0,0,0,0,0,0,-1,1266,841,0,0
49,183,0,0,0,0,0,0,0,0,0,-1,1273,841,0,0
56,183,0,0,0,0,0,0,0,0,0,-1,1280,841,0,0
63,183,0,0,0,0,0,0,0,0,0,-1,1287,841,0,0
70,183,0,0,0,0,0,0,0,0,0,-1,1294,841,0,0
77,183,0,0,0,0,0,0,0,0,0,-1,1301,841,0,0
84,183,0,0,0,0,0,0,0,0,0,-1,1308,841,0,0
91,183,0,0,0,0,0,0,0,0,0,-1,1315,841,0,0
98,183,0,0,0,0,0,0,0,0,0,-1,1322,841,0,0
105,183,0,0,0,0,0,0,0,0,0,-1,1329,841,0,0
112,183,0,0,0,0,0,0,0,0,0,-1,1336,841,0,0
119,183,0,0,0,0,0,0,0,0,0,-1,1343,841,0,0
126,183,0,0,0,0,0,0,0,0,0,-1,1350,841,0,0
133,183,0,0,0,0,0,0,0,0,0,-1,1357,841,0,0
140,183,0,0,0,0,0,0,0,0,0,-1,1364,841,0,0
147,183,0,0,0,0,0,0,0,0,0,-1,1371,841,0,0
154,183,0,0,0,0,0,0,0,0,0,-1,1378,841,0,0
161,183,0,0,0,0,0,0,0,0,0,-1,1385,841,0,0
168,183,0,0,0,0,0,0,0,0,0,-1,1392,841,0,0
175,183,0,0,0,0,0,0,0,0,0,-1,1399,841,0,0
182,183,0,0,0,0,0,0,0,0,0,-1,1406,841,0,0
189,183,0,0,0,0,0,0,0,0,0,-1,1413,841,0,0
196,183,0,0,0,0,0,0,0,0,0,-1,1420,841,0,0
203,183,0,0,0,0,0,0,0,0,0,-1,1427,841,0,0
210,183,0,0,0,0,0,0,0,0,0,-1,1434,841,0,0
217,183,0,0,0,0,0,0,0,0,0,-1,1441,841,0,0
224,183,0,0,0,0,0,0,0,0,0,-1,1448,841,0,0
231,183,0,0,0,0,0,0,0,0,0,-1,1455,841,0,0
238,183,0,0,0,0,0,0,0,0,0,-1,1462,841,0,0
245,183,0,0,0,0,0,0,0,0,0,-1,1469,841,0,0
252,183,0,0,0,0,0,0,0,0,0,-1,1476,841,0,0
259,183,0,0,0,0,0,0,0,0,0,-1,1483,841,0,0
266,183,0,0,0,0,0,0,0,0,0,-1,1490,841,0,0
273,183,0,0,0,0,0,0,0,0,0,-1,1497,841,0,0
280,183,0,0,0,0,0,0,0,0,0,-1,1504,841,0,0
287,183,0,0,0,0,0,0,0,0,0,-1,1511,841,0,0
294,183,0,0,0,0,0,0,0,0,0,-1,1518,841,0,0
301,183,0,0,0,0,0,0,0,0,0,-1,1525,841,0,0
308,183,0,0,0,0,0,0,0,0,0,-1,1532,841,0,0
315,183,0,0,0,0,0,0,0,0,0,-1,1539,841,0,0
322,183,0,0,0,0,0,0,0,0,0,-1,1546,841,0,0
329,183,0,0,0,0,0,0,0,0,0,-1,1553,841,0,0
336,183,0,0,0,0,0,0,0,0,0,-1,1560,841,0,0
343,183,0,0,0,0,0,0,0,0,0,-1,1567,841,0,0
350,183,0,0,0,0,0,0,0,0,0,-1,1574,841,0,0
357,183,0,0,0,0,0,0,0,0,0,-1,1581,841,0,0
364,183,0,0,0,0,0,0,0,0,0,-1,1588,841,0,0
371,183,0,0,0,0,0,0,0,0,0,-1,1595,841,0,0
378,183,0,0,0,0,0,0,0,0,0,-1,1602,841,0,0
385,183,0,0,0,0,0,0,0,0,0,-1,1609,841,0,0
392,183,0,0,0,0,0,0,0,0,0,-1,1616,841,0,0
399,183,0,0,0,0,0,0,0,0,0,-1,1623,841,0,0
406,183,0,0,0,0,0,0,0,0,0,-1,1630,841,0,0
413,183,0,0,0,0,0,0,0,0,0,-1,1637,841,0,0
420,183,0,0,0,0,0,0,0,0,0,-1,1644,841,0,0
427,183,0,0,0,0,0,0,0,0,0,-1,1651,841,0,0
434,183,0,0,0,0,0,0,0,0,0,-1,1658,841,0,0
441,183,0,0,0,0,0,0,0,0,0,-1,1665,841,0,0
448,183,0,0,0,0,0,0,0,0,0,-1,1672,841,0,0
455,183,0,0,0,0,0,0,0,0,0,-1,1679,841,0,0
462,183,0,0,0,0,0,0,0,0,0,-1,1686,841,0,0
469,183,0,0,0,0,0,0,0,0,0,-1,1693,841,0,0
476,183,0,0,0,0,0,0,0,0,0,-1,1700,841,0,0
483,183,0,0,0,0,0,0,0,0,0,-1,1707,841,0,0
490,183,0,0,0,0,0,0,0,0,0,-1,1714,841,0,0
497,183,0,0,0,0,0,0,0,0,0,-1,1721,841,0,0
504,183,0,0,0,0,0,0,0,0,0,-1,1728,841,0,0
511,183,0,0,0,0,0,0,0,0,0,-1,1735,841,0,0
518,183,0,0,0,0,0,0,0,0,0,-1,1742,841,0,0
525,183,0,0,0,0,0,0,0,0,0,-1,1749,841,0,0
532,183,0,0,0,0,0,0,0,0,0,-1,1756,841,0,0
539,183,0,0,0,0,0,0,0,0,0,-1,1763,841,0,0
546,183,0,0,0,0,0,0,0,0,0,-1,1770,841,0,0
553,183,0,0,0,0,0,0,0,0,0,-1,1777,841,0,0
560,183,0,0,0,0,0,0,0,0,0,-1,1784,841,0,0
567,183,0,0,0,0,0,0,0,0,0,-1,1791,841,0,0
574,183,0,0,0,0,0,0,0,0,0,-1,1798,841,0,0
581,183,0,0,0,0,0,0,0,0,0,-1,1805,841,0,0
588,183,0,0,0,0,0,0,0,0,0,-1,1812,841,0,0
595,183,0,0,0,0,0,0,0,0,0,-1,1819,841,0,0
602,183,0,0,0,0,0,0,0,0,0,-1,1826,841,0,0
609,183,59.3112,2.68353,0.00118622,0.00495548,0.00134975,0.00538896,0.000752742,1.26004,0.00336987,0.0424302,1833,841,59.3112,-2.68351
616,183,59.3239,2.72662,0.00102739,0.00350925,0.00138164,0.00412542,0.000411219,1.1513,0.00262397,0.0393627,1840,841,59.3238,-2.72663
623,183,59.3203,2.81641,0.000331235,0.00209492,0.00115988,0.00267012,-0.00024396,1.11043,0.00186672,0.0398708,1847,841,59.3204,-2.8164
630,183,59.1989,2.84674,-0.000815633,0.00108193,0.000672325,0.001296,-0.0010297,1.26255,0.00134567,0.0373922,1854,841,59.1988,-2.84672
637,183,59.1642,2.82385,-0.00205177,0.00043838,4.82961e-05,0.000439316,-0.00205271,1.55141,0.001536,0.03384,1861,841,59.1642,-2.82386
644,183,59.1047,2.80542,-0.00306073,7.53904e-06,-0.000470251,7.79931e-05,-0.00313119,-1.42208,0.00211394,0.0290008,1868,841,59.1048,-2.8054
651,183,59.1536,2.80554,-0.00372281,-0.000406264,-0.000937488,-0.000159608,-0.00396946,-1.31352,0.00259474,0.0270813,1875,841,59.1536,-2.80554
658,183,59.2369,2.76471,0,0,0,0,0,0,0,-1,1882,841,59.237,-2.76468
665,183,38.4337,2.66992,0,0,0,0,0,0,0,-1,1889,841,38.4337,-2.6699
672,183,29.168,1.54572,0,0,0,0,0,0,0,-1,1896,841,29.168,-1.54574
679,183,47.2107,0.30481,0,0,0,0,0,0,0,-1,1903,841,47.2107,-0.30484
686,183,47.1586,0.867493,-0.0054077,-0.00111693,-0.00247318,1.17151e-05,-0.00653635,-1.14267,0.00436148,0.033503,1910,841,47.1586,-0.86752
693,183,47.1074,1.43188,-0.00519084,-0.00114895,-0.00272111,0.000219596,-0.00655938,-1.1048,0.00444793,0.0305004,1917,841,47.1074,-1.43191
700,183,46.9697,2.10815,-0.00457373,-0.00107823,-0.00283126,0.000501279,-0.00615324,-1.06192,0.00427905,0.0320547,1924,841,46.9698,-2.10816
707,183,46.8732,2.77667,-0.00323121,-0.00110195,-0.00293392,0.000954531,-0.00528768,-0.959445,0.00388261,0.0128827,1931,841,46.8732,-2.77668
714,183,46.884,3.41235,-0.000426165,-0.0010766,-0.00327902,0.00254373,-0.00404649,-0.735969,0.0038377,0.0165339,1938,841,46.8841,-3.41235
721,183,46.8521,4.06769,0.00374994,-0.00114873,-0.00407665,0.00605648,-0.00345527,-0.514887,0.00555964,0.0155372,1945,841,46.852,-4.06769
728,183,46.7976,4.72388,0.00897855,-0.00150595,-0.00555437,0.0113739,-0.00390125,-0.40715,0.0091641,0.0140658,1952,841,46.7976,-4.72386
735,183,46.7806,5.3869,0.0152375,-0.00214745,-0.00785296,0.0182594,-0.00516942,-0.367351,0.014213,0.0128108,1959,841,46.7807,-5.38688
742,183,46.7788,6.08746,0.0225807,-0.00310365,-0.0111244,0.0267289,-0.00725185,-0.356922,0.0206652,0.0132976,1966,841,46.7788,-6.08747
749,183,46.8484,7.00305,0.0312393,-0.00448532,-0.0155289,0.0370457,-0.0102918,-0.357816,0.0287485,0.0372795,1973,841,46.8483,-7.00307
756,183,46.9308,7.96875,0,0,0,0,0,0,0,-1,1980,841,46.9308,-7.96876
763,183,46.9092,8.95667,0,0,0,0,0,0,0,-1,1987,841,46.9091,-8.95667
770,183,41.0603,7.72028,0,0,0,0,0,0,0,-1,1994,841,41.0603,-7.72026
777,183,42.1948,7.22906,0,0,0,0,0,0,0,-1,2001,841,42.1948,-7.22905
784,183,0,0,0,0,0,0,0,0,0,-1,2008,841,0,0
791,183,0,0,0,0,0,0,0,0,0,-1,2015,841,0,0
798,183,0,0,0,0,0,0,0,0,0,-1,2022,841,0,0
805,183,0,0,0,0,0,0,0,0,0,-1,2029,841,0,0
812,183,0,0,0,0,0,0,0,0,0,-1,2036,841,0,0
-700,176,0,0,0,0,0,0,0,0,0,-1,524,848,0,0
-693,176,0,0,0,0,0,0,0,0,0,-1,531,848,0,0
-686,176,0,0,0,0,0,0,0,0,0,-1,538,848,0,0
-679,176,0,0,0,0,0,0,0,0,0,-1,545,848,0,0
-672,176,0,0,0,0,0,0,0,0,0,-1,552,848,0,0
-665,176,-43.8984,7.03381,0,0,0,0,0,0,0,-1,559,848,-43.8983,-7.0338
-658,176,-43.8357,7.30511,0,0,0,0,0,0,0,-1,566,848,-43.8357,-7.30509
-651,176,-35.3682,7.32111,0,0,0,0,0,0,0,-1,573,848,-35.3682,-7.3211
-644,176,-35.1989,6.68085,0,0,0,0,0,0,0,-1,580,848,-35.1989,-6.68082
-637,176,-35.0944,6.02094,0.00275228,-0.00238326,-0.00123969,0.00303588,-0.00266685,-0.224892,0.00329477,0.0492615,587,848,-35.0944,-6.02094
-630,176,-34.9689,5.41443,0,0,0,0,0,0,0,-1,594,848,-34.9688,-5.41442
-623,176,-34.7791,4.81268,0.00465549,0.00109095,-0.000729023,0.00479882,0.000947615,-0.194139,0.00293479,0.0419028,601,848,-34.7791,-4.8127
-616,176,-34.6366,4.28021,0.00274354,0.00119699,-0.000216919,0.00277339,0.00116714,-0.136745,0.00160789,0.0263904,608,848,-34.6366,-4.28024
-609,176,-34.6113,3.62347,0.00129637,0.00145997,0.000703644,0.00208655,0.00066979,0.843263,0.00123014,0.0112339,615,848,-34.6113,-3.62345
-602,176,-34.6383,2.98029,0.000410708,0.00154184,0.00159486,0.00266845,-0.000715899,0.95579,0.0020595,0.0126422,622,848,-34.6383,-2.98029
-595,176,-34.6788,2.32428,-0.000660135,0.00148842,0.00251594,0.00314983,-0.00232155,0.987175,0.00317095,0.0124046,629,848,-34.6789,-2.32426
-588,176,-34.6858,1.68341,-0.00117578,0.00134864,0.00332274,0.00364083,-0.00346798,0.966915,0.00410468,0.0132538,636,848,-34.6858,-1.68342
-581,176,-34.7429,1.08624,-0.00118059,0.00134268,0.0037314,0.00401997,-0.00385787,0.948421,0.00454859,0.0122571,643,848,-34.7428,-1.08625
-574,176,-34.8125,0.468811,-0.000865227,0.00129323,0.00392299,0.00428274,-0.00385473,0.91963,0.00470034,0.0258118,650,848,-34.8125,-0.468785
-567,176,-34.8105,-0.263489,0,0,0,0,0,0,0,-1,657,848,-34.8106,0.263503
-560,176,-31.6935,-0.0994873,0,0,0,0,0,0,0,-1,664,848,-31.6936,0.0994584
-553,176,-29.4605,-1.50214,0,0,0,0,0,0,0,-1,671,848,-29.4605,1.50211
-546,176,-16.657,-0.403198,0,0,0,0,0,0,0,-1,678,848,-16.657,0.403182
-539,176,-22.7061,1.48657,0,0,0,0,0,0,0,-1,685,848,-22.7061,-1.48657
-532,176,-38.8326,1.29749,0,0,0,0,0,0,0,-1,692,848,-38.8326,-1.29747
-525,176,-45.0613,0.878418,0,0,0,0,0,0,0,-1,699,848,-45.0613,-0.87843
-518,176,-45.2288,0.928955,0.00510583,-0.00278478,0.00242079,0.00578931,-0.00346826,0.275175,0.00540057,0.043585,706,848,-45.2288,-0.928946
-511,176,-45.2294,0.792297,0.00589073,-0.00332334,0.00218127,0.00638102,-0.00381363,0.221098,0.00594777,0.040281,713,848,-45.2294,-0.792284
-504,176,-45.2767,1.15112,0.00838772,-0.00203568,0.00185516,0.00870806,-0.00235602,0.170988,0.00672962,0.0403565,720,848,-45.2767,-1.15114
-497,176,-45.2993,1.17163,0.0121228,0.0015402,0.000709972,0.0121702,0.00149278,0.0666901,0.00766451,0.041681,727,848,-45.2993,-1.17165
-490,176,-44.9725,0.960144,0.0164599,0.00794491,-0.000998382,0.0165754,0.00782941,-0.115168,0.00957471,0.0382435,734,848,-44.9726,-0.960141
-483,176,0,0,0,0,0,0,0,0,0,-1,741,848,0,0
-476,176,0,0,0,0,0,0,0,0,0,-1,748,848,0,0
-469,176,0,0,0,0,0,0,0,0,0,-1,755,848,0,0
-462,176,0,0,0,0,0,0,0,0,0,-1,762,848,0,0
-455,176,0,0,0,0,0,0,0,0,0,-1,769,848,0,0
-448,176,0,0,0,0,0,0,0,0,0,-1,776,848,0,0
-441,176,0,0,0,0,0,0,0,0,0,-1,783,848,0,0
-434,176,0,0,0,0,0,0,0,0,0,-1,790,848,0,0
-427,176,0,0,0,0,0,0,0,0,0,-1,797,848,0,0
-420,176,0,0,0,0,0,0,0,0,0,-1,804,848,0,0
-413,176,0,0,0,0,0,0,0,0,0,-1,811,848,0,0
-406,176,0,0,0,0,0,0,0,0,0,-1,818,848,0,0
-399,176,0,0,0,0,0,0,0,0,0,-1,825,848,0,0
-392,176,0,0,0,0,0,0,0,0,0,-1,832,848,0,0
-385,176,0,0,0,0,0,0,0,0,0,-1,839,848,0,0
-378,176,0,0,0,0,0,0,0,0,0,-1,846,848,0,0
-371,176,0,0,0,0,0,0,0,0,0,-1,853,848,0,0
-364,176,0,0,0,0,0,0,0,0,0,-1,860,848,0,0
-357,176,0,0,0,0,0,0,0,0,0,-1,867,848,0,0
-350,176,0,0,0,0,0,0,0,0,0,-1,874,848,0,0
-343,176,0,0,0,0,0,0,0,0,0,-1,881,848,0,0
-336,176,0,0,0,0,0,0,0,0,0,-1,888,848,0,0
-329,176,0,0,0,0,0,0,0,0,0,-1,895,848,0,0
-322,176,0,0,0,0,0,0,0,0,0,-1,902,848,0,0
-315,176,0,0,0,0,0,0,0,0,0,-1,909,848,0,0
-308,176,0,0,0,0,0,0,0,0,0,-1,916,848,0,0
-301,176,0,0,0,0,0,0,0,0,0,-1,923,848,0,0
-294,176,0,0,0,0,0,0,0,0,0,-1,930,848,0,0
-287,176,0,0,0,0,0,0,0,0,0,-1,937,848,0,0
-280,176,0,0,0,0,0,0,0,0,0,-1,944,848,0,0
-273,176,0,0,0,0,0,0,0,0,0,-1,951,848,0,0
-266,176,0,0,0,0,0,0,0,0,0,-1,958,848,0,0
-259,176,0,0,0,0,0,0,0,0,0,-1,965,848,0,0
-252,176,0,0,0,0,0,0,0,0,0,-1,972,848,0,0
-245,176,0,0,0,0,0,0,0,0,0,-1,979,848,0,0
-238,176,0,0,0,0,0,0,0,0,0,-1,986,848,0,0
-231,176,0,0,0,0,0,0,0,0,0,-1,993,848,0,0
-224,176,0,0,0,0,0,0,0,0,0,-1,1000,848,0,0
-217,176,0,0,0,0,0,0,0,0,0,-1,1007,848,0,0
-210,176,0,0,0,0,0,0,0,0,0,-1,1014,848,0,0
-203,176,0,0,0,0,0,0,0,0,0,-1,1021,848,0,0
-196,176,0,0,0,0,0,0,0,0,0,-1,1028,848,0,0
-189,176,0,0,0,0,0,0,0,0,0,-1,1035,848,0,0
-182,176,0,0,0,0,0,0,0,0,0,-1,1042,848,0,0
-175,176,0,0,0,0,0,0,0,0,0,-1,1049,848,0,0
-168,176,0,0,0,0,0,0,0,0,0,-1,1056,848,0,0
-161,176,0,0,0,0,0,0,0,0,0,-1,1063,848,0,0
-154,176,0,0,0,0,0,0,0,0,0,-1,1070,848,0,0
-147,176,0,0,0,0,0,0,0,0,0,-1,1077,848,0,0
-140,176,0,0,0,0,0,0,0,0,0,-1,1084,848,0,0
-133,176,0,0,0,0,0,0,0,0,0,-1,1091,848,0,0
-126,176,0,0,0,0,0,0,0,0,0,-1,1098,848,0,0
-119,176,0,0,0,0,0,0,0,0,0,-1,1105,848,0,0
-112,176,0,0,0,0,0,0,0,0,0,-1,1112,848,0,0
-105,176,0,0,0,0,0,0,0,0,0,-1,1119,848,0,0
-98,176,0,0,0,0,0,0,0,0,0,-1,1126,848,0,0
-91,176,0,0,0,0,0,0,0,0,0,-1,1133,848,0,0
-84,176,0,0,0,0,0,0,0,0,0,-1,1140,848,0,0
-77,176,0,0,0,0,0,0,0,0,0,-1,1147,848,0,0
-70,176,0,0,0,0,0,0,0,0,0,-1,1154,848,0,0
-63,176,0,0,0,0,0,0,0,0,0,-1,1161,848,0,0
-56,176,0,0,0,0,0,0,0,0,0,-1,1168,848,0,0
-49,176,0,0,0,0,0,0,0,0,0,-1,1175,848,0,0
-42,176,0,0,0,0,0,0,0,0,0,-1,1182,848,0,0
-35,176,0,0,0,0,0,0,0,0,0,-1,1189,848,0,0
-28,176,0,0,0,0,0,0,0,0,0,-1,1196,848,0,0
-21,176,0,0,0,0,0,0,0,0,0,-1,1203,848,0,0
-14,176,0,0,0,0,0,0,0,0,0,-1,1210,848,0,0
-7,176,0,0,0,0,0,0,0,0,0,-1,1217,848,0,0
0,176,0,0,0,0,0,0,0,0,0,-1,1224,848,0,0
7,176,0,0,0,0,0,0,0,0,0,-1,1231,848,0,0
14,176,0,0,0,0,0,0,0,0,0,-1,1238,848,0,0
21,176,0,0,0,0,0,0,0,0,0,-1,1245,848,0,0
28,176,0,0,0,0,0,0,0,0,0,-1,1252,848,0,0
35,176,0,0,0,0,0,0,0,0,0,-1,1259,848,0,0
42,176,0,0,0,0,0,0,0,0,0,-1,1266,848,0,0
49,176,0,0,0,0,0,0,0,0,0,-1,1273,848,0,0
56,176,0,0,0,0,0,0,0,0,0,-1,1280,848,0,0
63,176,0,0,0,0,0,0,0,0,0,-1,1287,848,0,0
70,176,0,0,0,0,0,0,0,0,0,-1,1294,848,0,0
77,176,0,0,0,0,0,0,0,0,0,-1,1301,848,0,0
84,176,0,0,0,0,0,0,0,0,0,-1,1308,848,0,0
91,176,0,0,0,0,0,0,0,0,0,-1,1315,848,0,0
98,176,0,0,0,0,0,0,0,0,0,-1,1322,848,0,0
105,176,0,0,0,0,0,0,0,0,0,-1,1329,848,0,0
112,176,0,0,0,0,0,0,0,0,0,-1,1336,848,0,0
119,176,0,0,0,0,0,0,0,0,0,-1,1343,848,0,0
126,176,0,0,0,0,0,0,0,0,0,-1,1350,848,0,0
133,176,0,0,0,0,0,0,0,0,0,-1,1357,848,0,0
140,176,0,0,0,0,0,0,0,0,0,-1,1364,848,0,0
147,176,0,0,0,0,0,0,0,0,0,-1,1371,848,0,0
154,176,0,0,0,0,0,0,0,0,0,-1,1378,848,0,0
161,176,0,0,0,0,0,0,0,0,0,-1,1385,848,0,0
168,176,0,0,0,0,0,0,0,0,0,-1,1392,848,0,0
175,176,0,0,0,0,0,0,0,0,0,-1,1399,848,0,0
182,176,0,0,0,0,0,0,0,0,0,-1,1406,848,0,0
189,176,0,0,0,0,0,0,0,0,0,-1,1413,848,0,0
196,176,0,0,0,0,0,0,0,0,0,-1,1420,848,0,0
203,176,0,0,0,0,0,0,0,0,0,-1,1427,848,0,0
210,176,0,0,0,0,0,0,0,0,0,-1,1434,848,0,0
217,176,0,0,0,0,0,0,0,0,0,-1,1441,848,0,0
224,176,0,0,0,0,0,0,0,0,0,-1,1448,848,0,0
231,176,0,0,0,0,0,0,0,0,0,-1,1455,848,0,0
238,176,0,0,0,0,0,0,0,0,0,-1,1462,848,0,0
245,176,0,0,0,0,0,0,0,0,0,-1,1469,848,0,0
252,176,0,0,0,0,0,0,0,0,0,-1,1476,848,0,0
259,176,0,0,0,0,0,0,0,0,0,-1,1483,848,0,0
266,176,0,0,0,0,0,0,0,0,0,-1,1490,848,0,0
273,176,0,0,0,0,0,0,0,0,0,-1,1497,848,0,0
280,176,0,0,0,0,0,0,0,0,0,-1,1504,848,0,0
287,176,0,0,0,0,0,0,0,0,0,-1,1511,848,0,0
294,176,0,0,0,0,0,0,0,0,0,-1,1518,848,0,0
301,176,0,0,0,0,0,0,0,0,0,-1,1525,848,0,0
308,176,0,0,0,0,0,0,0,0,0,-1,1532,848,0,0
315,176,0,0,0,0,0,0,0,0,0,-1,1539,848,0,0
322,176,0,0,0,0,0,0,0,0,0,-1,1546,848,0,0
329,176,0,0,0,0,0,0,0,0,0,-1,1553,848,0,0
336,176,0,0,0,0,0,0,0,0,0,-1,1560,848,0,0
343,176,0,0,0,0,0,0,0,0,0,-1,1567,848,0,0
350,176,0,0,0,0,0,0,0,0,0,-1,1574,848,0,0
357,176,0,0,0,0,0,0,0,0,0,-1,1581,848,0,0
364,176,0,0,0,0,0,0,0,0,0,-1,1588,848,0,0
371,176,0,0,0,0,0,0,0,0,0,-1,1595,848,0,0
378,176,0,0,0,0,0,0,0,0,0,-1,1602,848,0,0
385,176,0,0,0,0,0,0,0,0,0,-1,1609,848,0,0
392,176,0,0,0,0,0,0,0,0,0,-1,1616,848,0,0
399,176,0,0,0,0,0,0,0,0,0,-1,1623,848,0,0
406,176,0,0,0,0,0,0,0,0,0,-1,1630,848,0,0
413,176,0,0,0,0,0,0,0,0,0,-1,1637,848,0,0
420,176,0,0,0,0,0,0,0,0,0,-1,1644,848,0,0
427,176,0,0,0,0,0,0,0,0,0,-1,1651,848,0,0
434,176,0,0,0,0,0,0,0,0,0,-1,1658,848,0,0
441,176,0,0,0,0,0,0,0,0,0,-1,1665,848,0,0
448,176,0,0,0,0,0,0,0,0,0,-1,1672,848,0,0
455,176,0,0,0,0,0,0,0,0,0,-1,1679,848,0,0
462,176,0,0,0,0,0,0,0,0,0,-1,1686,848,0,0
469,176,0,0,0,0,0,0,0,0,0,-1,1693,848,0,0
476,176,0,0,0,0,0,0,0,0,0,-1,1700,848,0,0
483,176,0,0,0,0,0,0,0,0,0,-1,1707,848,0,0
490,176,0,0,0,0,0,0,0,0,0,-1,1714,848,0,0
497,176,0,0,0,0,0,0,0,0,0,-1,1721,848,0,0
504,176,0,0,0,0,0,0,0,0,0,-1,1728,848,0,0
511,176,0,0,0,0,0,0,0,0,0,-1,1735,848,0,0
518,176,0,0,0,0,0,0,0,0,0,-1,1742,848,0,0
525,176,0,0,0,0,0,0,0,0,0,-1,1749,848,0,0
532,176,0,0,0,0,0,0,0,0,0,-1,1756,848,0,0
539,176,0,0,0,0,0,0,0,0,0,-1,1763,848,0,0
546,176,0,0,0,0,0,0,0,0,0,-1,1770,848,0,0
553,176,0,0,0,0,0,0,0,0,0,-1,1777,848,0,0
560,176,0,0,0,0,0,0,0,0,0,-1,1784,848,0,0
567,176,0,0,0,0,0,0,0,0,0,-1,1791,848,0,0
574,176,0,0,0,0,0,0,0,0,0,-1,1798,848,0,0
581,176,0,0,0,0,0,0,0,0,0,-1,1805,848,0,0
588,176,0,0,0,0,0,0,0,0,0,-1,1812,848,0,0
595,176,0,0,0,0,0,0,0,0,0,-1,1819,848,0,0
602,176,0,0,0,0,0,0,0,0,0,-1,1826,848,0,0
609,176,59.2488,2.58868,0.0013793,0.00567361,0.00236791,0.0067229,0.00033001,1.15367,0.00437608,0.0419266,1833,848,59.2488,-2.58871
616,176,59.2716,2.50128,0.00108146,0.00411263,0.00223246,0.00529536,-0.000101267,1.08361,0.00356447,0.0402125,1840,848,59.2716,-2.50125
623,176,59.2089,2.55273,0.000478521,0.00272583,0.00195948,0.00386097,-0.000656617,1.04573,0.00281846,0.040485,1847,848,59.2089,-2.55276
630,176,59.2057,2.67297,-0.000403819,0.0016608,0.00137937,0.00235137,-0.00109439,1.10663,0.00203306,0.037312,1854,848,59.2057,-2.67299
637,176,59.1809,2.68457,-0.0015194,0.000997921,0.000686613,0.00117302,-0.0016945,1.3211,0.00166466,0.0309737,1861,848,59.1809,-2.68457
644,176,59.1038,2.65704,-0.00252566,0.000531421,7.88028e-05,0.000533451,-0.00252769,1.54504,0.00188823,0.030869,1868,848,59.1038,-2.65707
651,176,59.1567,2.68219,-0.00324433,7.18004e-05,-0.00047418,0.000138272,-0.0033108,-1.43152,0.0022547,0.0328117,1875,848,59.1567,-2.6822
658,176,59.2157,2.70599,0,0,0,0,0,0,0,-1,1882,848,59.2157,-2.70598
665,176,54.3333,2.34277,0,0,0,0,0,0,0,-1,1889,848,54.3333,-2.34279
672,176,16.9304,2.80719,0,0,0,0,0,0,0,-1,1896,848,16.9305,-2.80719
679,176,48.1069,0.217651,0,0,0,0,0,0,0,-1,1903,848,48.107,-0.217624
686,176,48.0072,0.942017,-0.00490131,-0.000880227,-0.00215624,5.739e-05,-0.00583893,-1.16062,0.00391189,0.0477733,1910,848,48.0072,-0.942015
693,176,47.8108,1.57892,-0.0046972,-0.000990415,-0.00244376,0.000223284,-0.0059109,-1.10983,0.0040171,0.0277818,1917,848,47.8108,-1.5789
700,176,47.613,2.27515,-0.0042863,-0.000998164,-0.00260778,0.000440535,-0.005725,-1.06665,0.00397166,0.0341046,1924,848,47.613,-2.27514
707,176,47.6307,2.8725,-0.00348487,-0.00109679,-0.00270259,0.00066378,-0.00524544,-0.993411,0.00373792,0.0201444,1931,848,47.6307,-2.87248
714,176,47.5557,3.46246,-0.00146679,-0.00107926,-0.00290191,0.00163534,-0.0041814,-0.818735,0.00346387,0.0126053,1938,848,47.5557,-3.46249
721,176,47.5248,4.10516,0.00185536,-0.00106523,-0.00345807,0.00414882,-0.00335869,-0.585614,0.00434246,0.0131917,1945,848,47.5248,-4.10518
728,176,47.4625,4.77734,0.00621544,-0.0012332,-0.00456284,0.00838094,-0.00339871,-0.443119,0.00700082,0.0163563,1952,848,47.4626,-4.77737
735,176,47.4503,5.45148,0.0115648,-0.00162869,-0.00637183,0.0141396,-0.00420349,-0.384028,0.0110962,0.0147201,1959,848,47.4503,-5.4515
742,176,47.4417,6.10773,0.0177839,-0.00227759,-0.00898374,0.0212188,-0.00571248,-0.365195,0.0163854,0.0243002,1966,848,47.4416,-6.10771
749,176,47.7808,6.97211,0.0249101,-0.00329741,-0.0125031,0.0296542,-0.0080416,-0.362657,0.0229251,0.0381187,1973,848,47.7808,-6.97213
756,176,48.239,7.90472,0,0,0,0,0,0,0,-1,1980,848,48.239,-7.9047
763,176,44.4343,7.70581,0,0,0,0,0,0,0,-1,1987,848,44.4343,-7.70578
770,176,36.4186,4.25641,0,0,0,0,0,0,0,-1,1994,848,36.4186,-4.25639
777,176,43.8328,7.50177,0,0,0,0,0,0,0,-1,2001,848,43.8328,-7.50178
784,176,0,0,0,0,0,0,0,0,0,-1,2008,848,0,0
791,176,0,0,0,0,0,0,0,0,0,-1,2015,848,0,0
798,176,0,0,0,0,0,0,0,0,0,-1,2022,848,0,0
805,176,0,0,0,0,0,0,0,0,0,-1,2029,848,0,0
812,176,0,0,0,0,0,0,0,0,0,-1,2036,848,0,0
-700,169,0,0,0,0,0,0,0,0,0,-1,524,855,0,0
-693,169,0,0,0,0,0,0,0,0,0,-1,531,855,0,0
-686,169,0,0,0,0,0,0,0,0,0,-1,538,855,0,0
-679,169,0,0,0,0,0,0,0,0,0,-1,545,855,0,0
-672,169,0,0,0,0,0,0,0,0,0,-1,552,855,0,0
-665,169,-43.2675,6.61096,0,0,0,0,0,0,0,-1,559,855,-43.2675,-6.61099
-658,169,-43.3649,6.99109,0,0,0,0,0,0,0,-1,566,855,-43.3649,-6.9911
-651,169,-34.9583,5.58118,0,0,0,0,0,0,0,-1,573,855,-34.9583,-5.5812
-644,169,-35.916,6.7724,0,0,0,0,0,0,0,-1,580,855,-35.9159,-6.77241
-637,169,-35.6885,6.07581,0,0,0,0,0,0,0,-1,587,855,-35.6885,-6.07579
-630,169,-35.4789,5.71594,0,0,0,0,0,0,0,-1,594,855,-35.479,-5.71596
-623,169,-35.3888,4.96942,-0.00271538,-0.00144085,-0.00154094,-0.000410599,-0.00374563,-0.981467,0.00237209,0.0377062,601,855,-35.3888,-4.96943
-616,169,-35.2753,4.28229,-0.00153643,0.000198788,-0.00045405,0.000310417,-0.00164806,-1.32973,0.00121546,0.0216573,608,855,-35.2753,-4.28226
-609,169,-35.2686,3.66858,-0.00132527,0.00106079,0.00081878,0.00131473,-0.00157921,1.27006,0.00167314,0.012713,615,855,-35.2686,-3.66859
-602,169,-35.3083,3.00482,-0.00128629,0.00137398,0.00196022,0.00241275,-0.00232506,1.08349,0.00273553,0.0133892,622,855,-35.3083,-3.00482
-595,169,-35.3352,2.34668,-0.00183238,0.00123409,0.0030627,0.0031259,-0.00372419,1.01747,0.00395992,0.0125038,629,855,-35.3352,-2.34668
-588,169,-35.3293,1.72064,-0.00194725,0.000956898,0.00387965,0.00364731,-0.00463766,0.964468,0.00479471,0.0104843,636,855,-35.3293,-1.72067
-581,169,-35.3864,1.10846,-0.00168737,0.00086969,0.00419533,0.00397698,-0.00479466,0.933303,0.00507164,0.0192868,643,855,-35.3863,-1.10846
-574,169,-35.6882,0.469421,-0.00126987,0.000775093,0.00431438,0.0041865,-0.00468128,0.901748,0.00512247,0.0363026,650,855,-35.6882,-0.4694
-567,169,-35.4872,-0.0915527,-0.000511591,0.000374153,0.00411062,0.00406569,-0.00420313,0.83906,0.00477422,0.0406783,657,855,-35.4873,0.0915764
-560,169,-35.5418,-0.633057,0,0,0,0,0,0,0,-1,664,855,-35.5418,0.633061
-553,169,-32.1944,-0.787964,0,0,0,0,0,0,0,-1,671,855,-32.1944,0.787959
-546,169,-19.0852,-1.05609,0,0,0,0,0,0,0,-1,678,855,-19.0852,1.05612
-539,169,-33.2307,1.10706,0,0,0,0,0,0,0,-1,685,855,-33.2307,-1.10708
-532,169,-45.0347,0.836304,0,0,0,0,0,0,0,-1,692,855,-45.0347,-0.836301
-525,169,-45.0566,0.878052,0.0042692,-0.00198402,0.00262008,0.00522186,-0.00293668,0.348741,0.00477153,0.0447531,699,855,-45.0566,-0.878047
-518,169,-45.1141,1.12402,0.00501017,-0.00241054,0.00220077,0.00561376,-0.00301413,0.267681,0.00505613,0.0429979,706,855,-45.1141,-1.12401
-511,169,-45.0659,0.890137,0.00608448,-0.00233962,0.00170508,0.00641651,-0.00267165,0.192323,0.0053935,0.0424533,713,855,-45.0659,-0.890132
-504,169,-45.1422,0.752014,0.00918464,-5.67673e-05,0.000981625,0.00928776,-0.000159885,0.104664,0.00624581,0.0423022,720,855,-45.1421,-0.752042
-497,169,-45.1513,0.829895,0.0131877,0.00394999,-0.000329493,0.0131994,0.00393825,-0.0356079,0.00782452,0.0421916,727,855,-45.1513,-0.829921
-490,169,0,0,0,0,0,0,0,0,0,-1,734,855,0,0
-483,169,0,0,0,0,0,0,0,0,0,-1,741,855,0,0
-476,169,0,0,0,0,0,0,0,0,0,-1,748,855,0,0
-469,169,0,0,0,0,0,0,0,0,0,-1,755,855,0,0
-462,169,0,0,0,0,0,0,0,0,0,-1,762,855,0,0
-455,169,0,0,0,0,0,0,0,0,0,-1,769,855,0,0
-448,169,0,0,0,0,0,0,0,0,0,-1,776,855,0,0
-441,169,0,0,0,0,0,0,0,0,0,-1,783,855,0,0
-434,169,0,0,0,0,0,0,0,0,0,-1,790,855,0,0
-427,169,0,0,0,0,0,0,0,0,0,-1,797,855,0,0
-420,169,0,0,0,0,0,0,0,0,0,-1,804,855,0,0
-413,169,0,0,0,0,0,0,0,0,0,-1,811,855,0,0
-406,169,0,0,0,0,0,0,0,0,0,-1,818,855,0,0
-399,169,0,0,0,0,0,0,0,0,0,-1,825,855,0,0
-392,169,0,0,0,0,0,0,0,0,0,-1,832,855,0,0
-385,169,0,0,0,0,0,0,0,0,0,-1,839,855,0,0
-378,169,0,0,0,0,0,0,0,0,0,-1,846,855,0,0
-371,169,0,0,0,0,0,0,0,0,0,-1,853,855,0,0
-364,169,0,0,0,0,0,0,0,0,0,-1,860,855,0,0
-357,169,0,0,0,0,0,0,0,0,0,-1,867,855,0,0
-350,169,0,0,0,0,0,0,0,0,0,-1,874,855,0,0
-343,169,0,0,0,0,0,0,0,0,0,-1,881,855,0,0
-336,169,0,0,0,0,0,0,0,0,0,-1,888,855,0,0
-329,169,0,0,0,0,0,0,0,0,0,-1,895,855,0,0
-322,169,0,0,0,0,0,0,0,0,0,-1,902,855,0,0
-315,169,0,0,0,0,0,0,0,0,0,-1,909,855,0,0
-308,169,0,0,0,0,0,0,0,0,0,-1,916,855,0,0
-301,169,0,0,0,0,0,0,0,0,0,-1,923,855,0,0
-294,169,0,0,0,0,0,0,0,0,0,-1,930,855,0,0
-287,169,0,0,0,0,0,0,0,0,0,-1,937,855,0,0
-280,169,0,0,0,0,0,0,0,0,0,-1,944,855,0,0
-273,169,0,0,0,0,0,0,0,0,0,-1,951,855,0,0
-266,169,0,0,0,0,0,0,0,0,0,-1,958,855,0,0
-259,169,0,0,0,0,0,0,0,0,0,-1,965,855,0,0
-252,169,0,0,0,0,0,0,0,0,0,-1,972,855,0,0
-245,169,0,0,0,0,0,0,0,0,0,-1,979,855,0,0
-238,169,0,0,0,0,0,0,0,0,0,-1,986,855,0,0
-231,169,0,0,0,0,0,0,0,0,0,-1,993,855,0,0
-224,169,0,0,0,0,0,0,0,0,0,-1,1000,855,0,0
-217,169,0,0,0,0,0,0,0,0,0,-1,1007,855,0,0
-210,169,0,0,0,0,0,0,0,0,0,-1,1014,855,0,0
-203,169,0,0,0,0,0,0,0,0,0,-1,1021,855,0,0
-196,169,0,0,0,0,0,0,0,0,0,-1,1028,855,0,0
-189,169,0,0,0,0,0,0,0,0,0,-1,1035,855,0,0
-182,169,0,0,0,0,0,0,0,0,0,-1,1042,855,0,0
-175,169,0,0,0,0,0,0,0,0,0,-1,1049,855,0,0
-168,169,0,0,0,0,0,0,0,0,0,-1,1056,855,0,0
-161,169,0,0,0,0,0,0,0,0,0,-1,1063,855,0,0
-154,169,0,0,0,0,0,0,0,0,0,-1,1070,855,0,0
-147,169,0,0,0,0,0,0,0,0,0,-1,1077,855,0,0
-140,169,0,0,0,0,0,0,0,0,0,-1,1084,855,0,0
-133,169,0,0,0,0,0,0,0,0,0,-1,1091,855,0,0
-126,169,0,0,0,0,0,0,0,0,0,-1,1098,855,0,0
-119,169,0,0,0,0,0,0,0,0,0,-1,1105,855,0,0
-112,169,0,0,0,0,0,0,0,0,0,-1,1112,855,0,0
-105,169,0,0,0,0,0,0,0,0,0,-1,1119,855,0,0
-98,169,0,0,0,0,0,0,0,0,0,-1,1126,855,0,0
-91,169,0,0,0,0,0,0,0,0,0,-1,1133,855,0,0
-84,169,0,0,0,0,0,0,0,0,0,-1,1140,855,0,0
-77,169,0,0,0,0,0,0,0,0,0,-1,1147,855,0,0
-70,169,0,0,0,0,0,0,0,0,0,-1,1154,855,0,0
-63,169,0,0,0,0,0,0,0,0,0,-1,1161,855,0,0
-56,169,0,0,0,0,0,0,0,0,0,-1,1168,855,0,0
-49,169,0,0,0,0,0,0,0,0,0,-1,1175,855,0,0
-42,169,0,0,0,0,0,0,0,0,0,-1,1182,855,0,0
-35,169,0,0,0,0,0,0,0,0,0,-1,1189,855,0,0
-28,169,0,0,0,0,0,0,0,0,0,-1,1196,855,0,0
-21,169,0,0,0,0,0,0,0,0,0,-1,1203,855,0,0
-14,169,0,0,0,0,0,0,0,0,0,-1,1210,855,0,0
-7,169,0,0,0,0,0,0,0,0,0,-1,1217,855,0,0
0,169,0,0,0,0,0,0,0,0,0,-1,1224,855,0,0
7,169,0,0,0,0,0,0,0,0,0,-1,1231,855,0,0
14,169,0,0,0,0,0,0,0,0,0,-1,1238,855,0,0
21,169,0,0,0,0,0,0,0,0,0,-1,1245,855,0,0
28,169,0,0,0,0,0,0,0,0,0,-1,1252,855,0,0
35,169,0,0,0,0,0,0,0,0,0,-1,1259,855,0,0
42,169,0,0,0,0,0,0,0,0,0,-1,1266,855,0,0
49,169,0,0,0,0,0,0,0,0,0,-1,1273,855,0,0
56,169,0,0,0,0,0,0,0,0,0,-1,1280,855,0,0
63,169,0,0,0,0,0,0,0,0,0,-1,1287,855,0,0
70,169,0,0,0,0,0,0,0,0,0,-1,1294,855,0,0
77,169,0,0,0,0,0,0,0,0,0,-1,1301,855,0,0
84,169,0,0,0,0,0,0,0,0,0,-1,1308,855,0,0
91,169,0,0,0,0,0,0,0,0,0,-1,1315,855,0,0
98,169,0,0,0,0,0,0,0,0,0,-1,1322,855,0,0
105,169,0,0,0,0,0,0,0,0,0,-1,1329,855,0,0
112,169,0,0,0,0,0,0,0,0,0,-1,1336,855,0,0
119,169,0,0,0,0,0,0,0,0,0,-1,1343,855,0,0
126,169,0,0,0,0,0,0,0,0,0,-1,1350,855,0,0
133,169,0,0,0,0,0,0,0,0,0,-1,1357,855,0,0
140,169,0,0,0,0,0,0,0,0,0,-1,1364,855,0,0
147,169,0,0,0,0,0,0,0,0,0,-1,1371,855,0,0
154,169,0,0,0,0,0,0,0,0,0,-1,1378,855,0,0
161,169,0,0,0,0,0,0,0,0,0,-1,1385,855,0,0
168,169,0,0,0,0,0,0,0,0,0,-1,1392,855,0,0
175,169,0,0,0,0,0,0,0,0,0,-1,1399,855,0,0
182,169,0,0,0,0,0,0,0,0,0,-1,1406,855,0,0
189,169,0,0,0,0,0,0,0,0,0,-1,1413,855,0,0
196,169,0,0,0,0,0,0,0,0,0,-1,1420,855,0,0
203,169,0,0,0,0,0,0,0,0,0,-1,1427,855,0,0
210,169,0,0,0,0,0,0,0,0,0,-1,1434,855,0,0
217,169,0,0,0,0,0,0,0,0,0,-1,1441,855,0,0
224,169,0,0,0,0,0,0,0,0,0,-1,1448,855,0,0
231,169,0,0,0,0,0,0,0,0,0,-1,1455,855,0,0
238,169,0,0,0,0,0,0,0,0,0,-1,1462,855,0,0
245,169,0,0,0,0,0,0,0,0,0,-1,1469,855,0,0
252,169,0,0,0,0,0,0,0,0,0,-1,1476,855,0,0
259,169,0,0,0,0,0,0,0,0,0,-1,1483,855,0,0
266,169,0,0,0,0,0,0,0,0,0,-1,1490,855,0,0
273,169,0,0,0,0,0,0,0,0,0,-1,1497,855,0,0
280,169,0,0,0,0,0,0,0,0,0,-1,1504,855,0,0
287,169,0,0,0,0,0,0,0,0,0,-1,1511,855,0,0
294,169,0,0,0,0,0,0,0,0,0,-1,1518,855,0,0
301,169,0,0,0,0,0,0,0,0,0,-1,1525,855,0,0
308,169,0,0,0,0,0,0,0,0,0,-1,1532,855,0,0
315,169,0,0,0,0,0,0,0,0,0,-1,1539,855,0,0
322,169,0,0,0,0,0,0,0,0,0,-1,1546,855,0,0
329,169,0,0,0,0,0,0,0,0,0,-1,1553,855,0,0
336,169,0,0,0,0,0,0,0,0,0,-1,1560,855,0,0
343,169,0,0,0,0,0,0,0,0,0,-1,1567,855,0,0
350,169,0,0,0,0,0,0,0,0,0,-1,1574,855,0,0
357,169,0,0,0,0,0,0,0,0,0,-1,1581,855,0,0
364,169,0,0,0,0,0,0,0,0,0,-1,1588,855,0,0
371,169,0,0,0,0,0,0,0,0,0,-1,1595,855,0,0
378,169,0,0,0,0,0,0,0,0,0,-1,1602,855,0,0
385,169,0,0,0,0,0,0,0,0,0,-1,1609,855,0,0
392,169,0,0,0,0,0,0,0,0,0,-1,1616,855,0,0
399,169,0,0,0,0,0,0,0,0,0,-1,1623,855,0,0
406,169,0,0,0,0,0,0,0,0,0,-1,1630,855,0,0
413,169,0,0,0,0,0,0,0,0,0,-1,1637,855,0,0
420,169,0,0,0,0,0,0,0,0,0,-1,1644,855,0,0
427,169,0,0,0,0,0,0,0,0,0,-1,1651,855,0,0
434,169,0,0,0,0,0,0,0,0,0,-1,1658,855,0,0
441,169,0,0,0,0,0,0,0,0,0,-1,1665,855,0,0
448,169,0,0,0,0,0,0,0,0,0,-1,1672,855,0,0
455,169,0,0,0,0,0,0,0,0,0,-1,1679,855,0,0
462,169,0,0,0,0,0,0,0,0,0,-1,1686,855,0,0
469,169,0,0,0,0,0,0,0,0,0,-1,1693,855,0,0
476,169,0,0,0,0,0,0,0,0,0,-1,1700,855,0,0
483,169,0,0,0,0,0,0,0,0,0,-1,1707,855,0,0
490,169,0,0,0,0,0,0,0,0,0,-1,1714,855,0,0
497,169,0,0,0,0,0,0,0,0,0,-1,1721,855,0,0
504,169,0,0,0,0,0,0,0,0,0,-1,1728,855,0,0
511,169,0,0,0,0,0,0,0,0,0,-1,1735,855,0,0
518,169,0,0,0,0,0,0,0,0,0,-1,1742,855,0,0
525,169,0,0,0,0,0,0,0,0,0,-1,1749,855,0,0
532,169,0,0,0,0,0,0,0,0,0,-1,1756,855,0,0
539,169,0,0,0,0,0,0,0,0,0,-1,1763,855,0,0
546,169,0,0,0,0,0,0,0,0,0,-1,1770,855,0,0
553,169,0,0,0,0,0,0,0,0,0,-1,1777,855,0,0
560,169,0,0,0,0,0,0,0,0,0,-1,1784,855,0,0
567,169,0,0,0,0,0,0,0,0,0,-1,1791,855,0,0
574,169,0,0,0,0,0,0,0,0,0,-1,1798,855,0,0
581,169,0,0,0,0,0,0,0,0,0,-1,1805,855,0,0
588,169,0,0,0,0,0,0,0,0,0,-1,1812,855,0,0
595,169,0,0,0,0,0,0,0,0,0,-1,1819,855,0,0
602,169,0,0,0,0,0,0,0,0,0,-1,1826,855,0,0
609,169,0,0,0,0,0,0,0,0,0,-1,1833,855,0,0
616,169,59.0845,2.69263,0.00087138,0.00443012,0.00299492,0.00613438,-0.000832884,1.05344,0.00439361,0.0419098,1840,855,59.0844,-2.69265
623,169,59.1793,2.62622,0.000290077,0.00301708,0.00259516,0.00458513,-0.00127797,1.02728,0.00356004,0.0435815,1847,855,59.1793,-2.6262
630,169,59.2927,2.73596,-0.000196692,0.0019288,0.00197981,0.00311307,-0.00138096,1.03172,0.00265809,0.0408979,1854,855,59.2927,-2.73598
637,169,59.2262,2.64929,-0.000961294,0.00129358,0.00132719,0.00190756,-0.00157528,1.1375,0.00201387,0.0368041,1861,855,59.2262,-2.64927
644,169,59.1908,2.68347,-0.00179229,0.000815007,0.000708086,0.000994897,-0.00197218,1.32201,0.00174374,0.037342,1868,855,59.1908,-2.68348
651,169,59.1702,2.76898,-0.00248118,0.000323775,0.000122078,0.000329078,-0.00248648,1.52738,0.00177753,0.0379008,1875,855,59.1701,-2.769
658,169,59.1926,2.73804,-0.00318861,-8.01177e-05,-0.00048008,-7.66211e-06,-0.00326106,-1.421,0.00217149,0.0376694,1882,855,59.1926,-2.73804
665,169,59.2994,2.59393,0,0,0,0,0,0,0,-1,1889,855,59.2994,-2.59394
672,169,31.2465,2.96387,0,0,0,0,0,0,0,-1,1896,855,31.2464,-2.9639
679,169,38.4297,1.08197,0,0,0,0,0,0,0,-1,1903,855,38.4296,-1.08194
686,169,48.8177,1.05969,0,0,0,0,0,0,0,-1,1910,855,48.8177,-1.05969
693,169,48.5375,1.62573,-0.00408491,-0.000991765,-0.00194206,-5.56982e-05,-0.00502097,-1.12166,0.0033289,0.0310223,1917,855,48.5375,-1.62571
700,169,48.5194,2.36786,-0.00385291,-0.00103087,-0.00215382,0.000132977,-0.00501676,-1.07538,0.0033897,0.0271737,1924,855,48.5194,-2.36784
707,169,48.4003,2.98425,-0.0034859,-0.00115017,-0.00228351,0.000246795,-0.00488286,-1.02177,0.00334055,0.0269953,1931,855,48.4002,-2.98428
714,169,48.1859,3.47339,-0.0021798,-0.00109841,-0.00243707,0.000857227,-0.00413544,-0.894561,0.00308269,0.0162202,1938,855,48.1859,-3.47337
721,169,48.1948,4.15668,0.000239904,-0.000996245,-0.00283633,0.00252472,-0.00328106,-0.678118,0.00336144,0.0176789,1945,855,48.1949,-4.15668
728,169,48.1575,4.83496,0.00367401,-0.000972239,-0.00363356,0.00566361,-0.00296184,-0.500971,0.00506069,0.0147588,1952,855,48.1574,-4.83498
735,169,48.1066,5.47241,0.00808024,-0.00112905,-0.00500269,0.0102748,-0.00332364,-0.413403,0.00818586,0.0195551,1959,855,48.1066,-5.47244
742,169,48.121,6.14075,0.0132018,-0.0014866,-0.00701016,0.0160104,-0.00429522,-0.381066,0.0123567,0.0185118,1966,855,48.1209,-6.14077
749,169,48.1238,6.78461,0.0188754,-0.00218358,-0.00972414,0.0226787,-0.00598689,-0.372828,0.0174603,0.0310909,1973,855,48.1237,-6.78458
756,169,47.8282,7.14404,0,0,0,0,0,0,0,-1,1980,855,47.8282,-7.14402
763,169,45.1978,7.5675,0,0,0,0,0,0,0,-1,1987,855,45.1977,-7.56751
770,169,37.2059,3.97021,0,0,0,0,0,0,0,-1,1994,855,37.2059,-3.97022
777,169,41.7505,8.7085,0,0,0,0,0,0,0,-1,2001,855,41.7505,-8.70852
784,169,40.0581,9.47473,0,0,0,0,0,0,0,-1,2008,855,40.058,-9.47476
791,169,0,0,0,0,0,0,0,0,0,-1,2015,855,0,0
798,169,0,0,0,0,0,0,0,0,0,-1,2022,855,0,0
805,169,0,0,0,0,0,0,0,0,0,-1,2029,855,0,0
812,169,0,0,0,0,0,0,0,0,0,-1,2036,855,0,0
-700,162,0,0,0,0,0,0,0,0,0,-1,524,862,0,0
-693,162,0,0,0,0,0,0,0,0,0,-1,531,862,0,0
-686,162,0,0,0,0,0,0,0,0,0,-1,538,862,0,0
-679,162,0,0,0,0,0,0,0,0,0,-1,545,862,0,0
-672,162,0,0,0,0,0,0,0,0,0,-1,552,862,0,0
-665,162,-42.992,5.87714,0,0,0,0,0,0,0,-1,559,862,-42.992,-5.87712
-658,162,-41.2422,5.24969,0,0,0,0,0,0,0,-1,566,862,-41.2422,-5.24971
-651,162,-36.1316,4.7345,0,0,0,0,0,0,0,-1,573,862,-36.1316,-4.7345
-644,162,-36.3086,4.18707,0,0,0,0,0,0,0,-1,580,862,-36.3086,-4.18704
-637,162,-36.2163,6.05066,0,0,0,0,0,0,0,-1,587,862,-36.2163,-6.05069
-630,162,-35.9142,5.67041,0,0,0,0,0,0,0,-1,594,862,-35.9142,-5.67043
-623,162,-35.8835,4.96472,-0.00860003,-0.00405275,-0.00273705,-0.00276818,-0.0098846,-1.13199,0.00588806,0.0333704,601,862,-35.8835,-4.96473
-616,162,-35.8871,4.28925,-0.00489391,-0.000970318,-0.000978057,-0.000740029,-0.0051242,-1.33955,0.00319813,0.0192554,608,862,-35.8871,-4.28923
-609,162,-35.9338,3.6554,-0.00314432,0.000624296,0.000753942,0.000769531,-0.00328955,1.38049,0.00248951,0.0133449,615,862,-35.9339,-3.6554
-602,162,-35.9772,3.02173,-0.00231448,0.00124943,0.00225441,0.0023411,-0.00340616,1.11984,0.00333712,0.0120173,622,862,-35.9771,-3.0217
-595,162,-35.9837,2.40088,-0.00245255,0.00102455,0.00357223,0.00325883,-0.00468683,1.01187,0.00461206,0.0114972,629,862,-35.9837,-2.40089
-588,162,-35.9695,1.77924,-0.00230044,0.000613234,0.00435807,0.00375152,-0.00543873,0.946701,0.00533572,0.0134241,636,862,-35.9696,-1.77927
-581,162,-36.1885,1.15802,-0.00194891,0.000429863,0.00455416,0.00394738,-0.00546643,0.913128,0.00545861,0.0333125,643,862,-36.1885,-1.15804
-574,162,-36.4995,0.523926,-0.00153259,0.000319566,0.00460664,0.00409229,-0.00530532,0.884592,0.00544076,0.047327,650,862,-36.4995,-0.523911
-567,162,-36.5178,-0.143799,-0.000808778,3.73083e-06,0.0044376,0.00405363,-0.00485868,0.831045,0.00515252,0.0493586,657,862,-36.5178,0.14379
-560,162,-36.2239,-0.84491,-0.000316582,-0.000579265,0.00414198,0.00369614,-0.00459199,0.769549,0.00479446,0.0464125,664,862,-36.2239,0.844933
-553,162,-35.7198,-1.65411,0,0,0,0,0,0,0,-1,671,862,-35.7198,1.65412
-546,162,-22.8181,-1.51154,0,0,0,0,0,0,0,-1,678,862,-22.8181,1.51155
-539,162,-44.9648,0.938171,0,0,0,0,0,0,0,-1,685,862,-44.9648,-0.938184
-532,162,-45.0063,0.912476,0.00276421,-0.0014338,0.00316337,0.00446162,-0.00313121,0.492483,0.0044061,0.042106,692,862,-45.0064,-0.912491
-525,162,-45.0624,0.844971,0.00407056,-0.0018133,0.00268862,0.00511406,-0.0028568,0.37022,0.00466308,0.0382034,699,862,-45.0624,-0.844996
-518,162,-44.9956,0.937073,0.00481607,-0.00191477,0.00207212,0.00540283,-0.00250154,0.275945,0.00466493,0.0378362,706,862,-44.9956,-0.937073
-511,162,-45.0754,0.742798,0,0,0,0,0,0,0,-1,713,862,-45.0754,-0.742777
-504,162,-45.1119,0.7323,0.00968553,0.00217163,0.000368465,0.00970356,0.0021536,0.0488815,0.00588404,0.0442066,720,862,-45.1119,-0.732288
-497,162,-45.1409,0.737854,0.013766,0.00617877,-0.0008237,0.0138544,0.00609038,-0.106905,0.00801824,0.042751,727,862,-45.1409,-0.737836
-490,162,0,0,0,0,0,0,0,0,0,-1,734,862,0,0
-483,162,0,0,0,0,0,0,0,0,0,-1,741,862,0,0
-476,162,0,0,0,0,0,0,0,0,0,-1,748,862,0,0
-469,162,0,0,0,0,0,0,0,0,0,-1,755,862,0,0
-462,162,0,0,0,0,0,0,0,0,0,-1,762,862,0,0
-455,162,0,0,0,0,0,0,0,0,0,-1,769,862,0,0
-448,162,0,0,0,0,0,0,0,0,0,-1,776,862,0,0
-441,162,0,0,0,0,0,0,0,0,0,-1,783,862,0,0
-434,162,0,0,0,0,0,0,0,0,0,-1,790,862,0,0
-427,162,0,0,0,0,0,0,0,0,0,-1,797,862,0,0
-420,162,0,0,0,0,0,0,0,0,0,-1,804,862,0,0
-413,162,0,0,0,0,0,0,0,0,0,-1,811,862,0,0
-406,162,0,0,0,0,0,0,0,0,0,-1,818,862,0,0
-399,162,0,0,0,0,0,0,0,0,0,-1,825,862,0,0
-392,162,0,0,0,0,0,0,0,0,0,-1,832,862,0,0
-385,162,0,0,0,0,0,0,0,0,0,-1,839,862,0,0
-378,162,0,0,0,0,0,0,0,0,0,-1,846,862,0,0
-371,162,0,0,0,0,0,0,0,0,0,-1,853,862,0,0
-364,162,0,0,0,0,0,0,0,0,0,-1,860,862,0,0
-357,162,0,0,0,0,0,0,0,0,0,-1,867,862,0,0
-350,162,0,0,0,0,0,0,0,0,0,-1,874,862,0,0
-343,162,0,0,0,0,0,0,0,0,0,-1,881,862,0,0
-336,162,0,0,0,0,0,0,0,0,0,-1,888,862,0,0
-329,162,0,0,0,0,0,0,0,0,0,-1,895,862,0,0
-322,162,0,0,0,0,0,0,0,0,0,-1,902,862,0,0
-315,162,0,0,0,0,0,0,0,0,0,-1,909,862,0,0
-308,162,0,0,0,0,0,0,0,0,0,-1,916,862,0,0
-301,162,0,0,0,0,0,0,0,0,0,-1,923,862,0,0
-294,162,0,0,0,0,0,0,0,0,0,-1,930,862,0,0
-287,162,0,0,0,0,0,0,0,0,0,-1,937,862,0,0
-280,162,0,0,0,0,0,0,0,0,0,-1,944,862,0,0
-273,162,0,0,0,0,0,0,0,0,0,-1,951,862,0,0
-266,162,0,0,0,0,0,0,0,0,0,-1,958,862,0,0
-259,162,0,0,0,0,0,0,0,0,0,-1,965,862,0,0
-252,162,0,0,0,0,0,0,0,0,0,-1,972,862,0,0
-245,162,0,0,0,0,0,0,0,0,0,-1,979,862,0,0
-238,162,0,0,0,0,0,0,0,0,0,-1,986,862,0,0
-231,162,0,0,0,0,0,0,0,0,0,-1,993,862,0,0
-224,162,0,0,0,0,0,0,0,0,0,-1,1000,862,0,0
-217,162,0,0,0,0,0,0,0,0,0,-1,1007,862,0,0
-210,162,0,0,0,0,0,0,0,0,0,-1,1014,862,0,0
-203,162,0,0,0,0,0,0,0,0,0,-1,1021,862,0,0
-196,162,0,0,0,0,0,0,0,0,0,-1,1028,862,0,0
-189,162,0,0,0,0,0,0,0,0,0,-1,1035,862,0,0
-182,162,0,0,0,0,0,0,0,0,0,-1,1042,862,0,0
-175,162,0,0,0,0,0,0,0,0,0,-1,1049,862,0,0
-168,162,0,0,0,0,0,0,0,0,0,-1,1056,862,0,0
-161,162,0,0,0,0,0,0,0,0,0,-1,1063,862,0,0
-154,162,0,0,0,0,0,0,0,0,0,-1,1070,862,0,0
-147,162,0,0,0,0,0,0,0,0,0,-1,1077,862,0,0
-140,162,0,0,0,0,0,0,0,0,0,-1,1084,862,0,0
-133,162,0,0,0,0,0,0,0,0,0,-1,1091,862,0,0
-126,162,0,0,0,0,0,0,0,0,0,-1,1098,862,0,0
-119,162,0,0,0,0,0,0,0,0,0,-1,1105,862,0,0
-112,162,0,0,0,0,0,0,0,0,0,-1,1112,862,0,0
-105,162,0,0,0,0,0,0,0,0,0,-1,1119,862,0,0
-98,162,0,0,0,0,0,0,0,0,0,-1,1126,862,0,0
-91,162,0,0,0,0,0,0,0,0,0,-1,1133,862,0,0
-84,162,0,0,0,0,0,0,0,0,0,-1,1140,862,0,0
-77,162,0,0,0,0,0,0,0,0,0,-1,1147,862,0,0
-70,162,0,0,0,0,0,0,0,0,0,-1,1154,862,0,0
-63,162,0,0,0,0,0,0,0,0,0,-1,1161,862,0,0
-56,162,0,0,0,0,0,0,0,0,0,-1,1168,862,0,0
-49,162,0,0,0,0,0,0,0,0,0,-1,1175,862,0,0
-42,162,0,0,0,0,0,0,0,0,0,-1,1182,862,0,0
-35,162,0,0,0,0,0,0,0,0,0,-1,1189,862,0,0
-28,162,0,0,0,0,0,0,0,0,0,-1,1196,862,0,0
-21,162,0,0,0,0,0,0,0,0,0,-1,1203,862,0,0
-14,162,0,0,0,0,0,0,0,0,0,-1,1210,862,0,0
-7,162,0,0,0,0,0,0,0,0,0,-1,1217,862,0,0
0,162,0,0,0,0,0,0,0,0,0,-1,1224,862,0,0
7,162,0,0,0,0,0,0,0,0,0,-1,1231,862,0,0
14,162,0,0,0,0,0,0,0,0,0,-1,1238,862,0,0
21,162,0,0,0,0,0,0,0,0,0,-1,1245,862,0,0
28,162,0,0,0,0,0,0,0,0,0,-1,1252,862,0,0
35,162,0,0,0,0,0,0,0,0,0,-1,1259,862,0,0
42,162,0,0,0,0,0,0,0,0,0,-1,1266,862,0,0
49,162,0,0,0,0,0,0,0,0,0,-1,1273,862,0,0
56,162,0,0,0,0,0,0,0,0,0,-1,1280,862,0,0
63,162,0,0,0,0,0,0,0,0,0,-1,1287,862,0,0
70,162,0,0,0,0,0,0,0,0,0,-1,1294,862,0,0
77,162,0,0,0,0,0,0,0,0,0,-1,1301,862,0,0
84,162,0,0,0,0,0,0,0,0,0,-1,1308,862,0,0
91,162,0,0,0,0,0,0,0,0,0,-1,1315,862,0,0
98,162,0,0,0,0,0,0,0,0,0,-1,1322,862,0,0
105,162,0,0,0,0,0,0,0,0,0,-1,1329,862,0,0
112,162,0,0,0,0,0,0,0,0,0,-1,1336,862,0,0
119,162,0,0,0,0,0,0,0,0,0,-1,1343,862,0,0
126,162,0,0,0,0,0,0,0,0,0,-1,1350,862,0,0
133,162,0,0,0,0,0,0,0,0,0,-1,1357,862,0,0
140,162,0,0,0,0,0,0,0,0,0,-1,1364,862,0,0
147,162,0,0,0,0,0,0,0,0,0,-1,1371,862,0,0
154,162,0,0,0,0,0,0,0,0,0,-1,1378,862,0,0
161,162,0,0,0,0,0,0,0,0,0,-1,1385,862,0,0
168,162,0,0,0,0,0,0,0,0,0,-1,1392,862,0,0
175,162,0,0,0,0,0,0,0,0,0,-1,1399,862,0,0
182,162,0,0,0,0,0,0,0,0,0,-1,1406,862,0,0
189,162,0,0,0,0,0,0,0,0,0,-1,1413,862,0,0
196,162,0,0,0,0,0,0,0,0,0,-1,1420,862,0,0
203,162,0,0,0,0,0,0,0,0,0,-1,1427,862,0,0
210,162,0,0,0,0,0,0,0,0,0,-1,1434,862,0,0
217,162,0,0,0,0,0,0,0,0,0,-1,1441,862,0,0
224,162,0,0,0,0,0,0,0,0,0,-1,1448,862,0,0
231,162,0,0,0,0,0,0,0,0,0,-1,1455,862,0,0
238,162,0,0,0,0,0,0,0,0,0,-1,1462,862,0,0
245,162,0,0,0,0,0,0,0,0,0,-1,1469,862,0,0
252,162,0,0,0,0,0,0,0,0,0,-1,1476,862,0,0
259,162,0,0,0,0,0,0,0,0,0,-1,1483,862,0,0
266,162,0,0,0,0,0,0,0,0,0,-1,1490,862,0,0
273,162,0,0,0,0,0,0,0,0,0,-1,1497,862,0,0
280,162,0,0,0,0,0,0,0,0,0,-1,1504,862,0,0
287,162,0,0,0,0,0,0,0,0,0,-1,1511,862,0,0
294,162,0,0,0,0,0,0,0,0,0,-1,1518,862,0,0
301,162,0,0,0,0,0,0,0,0,0,-1,1525,862,0,0
308,162,0,0,0,0,0,0,0,0,0,-1,1532,862,0,0
315,162,0,0,0,0,0,0,0,0,0,-1,1539,862,0,0
322,162,0,0,0,0,0,0,0,0,0,-1,1546,862,0,0
329,162,0,0,0,0,0,0,0,0,0,-1,1553,862,0,0
336,162,0,0,0,0,0,0,0,0,0,-1,1560,862,0,0
343,162,0,0,0,0,0,0,0,0,0,-1,1567,862,0,0
350,162,0,0,0,0,0,0,0,0,0,-1,1574,862,0,0
357,162,0,0,0,0,0,0,0,0,0,-1,1581,862,0,0
364,162,0,0,0,0,0,0,0,0,0,-1,1588,862,0,0
371,162,0,0,0,0,0,0,0,0,0,-1,1595,862,0,0
378,162,0,0,0,0,0,0,0,0,0,-1,1602,862,0,0
385,162,0,0,0,0,0,0,0,0,0,-1,1609,862,0,0
392,162,0,0,0,0,0,0,0,0,0,-1,1616,862,0,0
399,162,0,0,0,0,0,0,0,0,0,-1,1623,862,0,0
406,162,0,0,0,0,0,0,0,0,0,-1,1630,862,0,0
413,162,0,0,0,0,0,0,0,0,0,-1,1637,862,0,0
420,162,0,0,0,0,0,0,0,0,0,-1,1644,862,0,0
427,162,0,0,0,0,0,0,0,0,0,-1,1651,862,0,0
434,162,0,0,0,0,0,0,0,0,0,-1,1658,862,0,0
441,162,0,0,0,0,0,0,0,0,0,-1,1665,862,0,0
448,162,0,0,0,0,0,0,0,0,0,-1,1672,862,0,0
455,162,0,0,0,0,0,0,0,0,0,-1,1679,862,0,0
462,162,0,0,0,0,0,0,0,0,0,-1,1686,862,0,0
469,162,0,0,0,0,0,0,0,0,0,-1,1693,862,0,0
476,162,0,0,0,0,0,0,0,0,0,-1,1700,862,0,0
483,162,0,0,0,0,0,0,0,0,0,-1,1707,862,0,0
490,162,0,0,0,0,0,0,0,0,0,-1,1714,862,0,0
497,162,0,0,0,0,0,0,0,0,0,-1,1721,862,0,0
504,162,0,0,0,0,0,0,0,0,0,-1,1728,862,0,0
511,162,0,0,0,0,0,0,0,0,0,-1,1735,862,0,0
518,162,0,0,0,0,0,0,0,0,0,-1,1742,862,0,0
525,162,0,0,0,0,0,0,0,0,0,-1,1749,862,0,0
532,162,0,0,0,0,0,0,0,0,0,-1,1756,862,0,0
539,162,0,0,0,0,0,0,0,0,0,-1,1763,862,0,0
546,162,0,0,0,0,0,0,0,0,0,-1,1770,862,0,0
553,162,0,0,0,0,0,0,0,0,0,-1,1777,862,0,0
560,162,0,0,0,0,0,0,0,0,0,-1,1784,862,0,0
567,162,0,0,0,0,0,0,0,0,0,-1,1791,862,0,0
574,162,0,0,0,0,0,0,0,0,0,-1,1798,862,0,0
581,162,0,0,0,0,0,0,0,0,0,-1,1805,862,0,0
588,162,0,0,0,0,0,0,0,0,0,-1,1812,862,0,0
595,162,0,0,0,0,0,0,0,0,0,-1,1819,862,0,0
602,162,0,0,0,0,0,0,0,0,0,-1,1826,862,0,0
609,162,0,0,0,0,0,0,0,0,0,-1,1833,862,0,0
616,162,58.9869,3.06061,0,0,0,0,0,0,0,-1,1840,862,58.987,-3.06059
623,162,59.2661,2.76233,0,0,0,0,0,0,0,-1,1847,862,59.2661,-2.7623
630,162,59.2623,2.69098,-0.000408801,0.00172796,0.00259956,0.00347012,-0.00215097,0.980368,0.00327499,0.0413521,1854,862,59.2623,-2.69098
637,162,59.2477,2.72986,-0.000871569,0.00106782,0.00190217,0.0022332,-0.00203695,1.02112,0.00246624,0.0419164,1861,862,59.2476,-2.72987
644,162,59.2588,2.82031,-0.00145475,0.000531773,0.00123439,0.0011229,-0.00204587,1.12418,0.00185518,0.0411122,1868,862,59.2588,-2.82031
651,162,59.1935,2.8443,-0.00202546,-1.29858e-05,0.000602033,0.000153362,-0.00219181,1.30121,0.00151492,0.0373833,1875,862,59.1935,-2.84427
658,162,59.1697,2.78284,-0.00273887,-0.000440368,-4.51597e-05,-0.000439481,-0.00273976,-1.55116,0.00169907,0.03778,1882,862,59.1696,-2.78285
665,162,59.1908,2.74536,0,0,0,0,0,0,0,-1,1889,862,59.1907,-2.74534
672,162,56.9712,3.04034,0,0,0,0,0,0,0,-1,1896,862,56.9711,-3.04034
679,162,26.5077,2.54785,0,0,0,0,0,0,0,-1,1903,862,26.5077,-2.54787
686,162,47.8885,1.21661,0,0,0,0,0,0,0,-1,1910,862,47.8886,-1.21664
693,162,49.2957,1.69696,0,0,0,0,0,0,0,-1,1917,862,49.2956,-1.69694
700,162,49.1925,2.35602,-0.0034377,-0.00136942,-0.00178794,-0.000338087,-0.00446903,-1.04759,0.0028733,0.033178,1924,862,49.1925,-2.35599
707,162,49.0625,2.95721,-0.00334218,-0.00137057,-0.00194453,-0.00017623,-0.00453652,-1.02,0.00296735,0.0236108,1931,862,49.0625,-2.95721
714,162,48.8755,3.48224,-0.00262904,-0.00119426,-0.00207336,0.000282314,-0.00410561,-0.951954,0.00283587,0.026031,1938,862,48.8755,-3.48226
721,162,48.7451,4.24512,-0.00108308,-0.000941054,-0.00233436,0.00132337,-0.0033475,-0.800604,0.00277986,0.0311364,1945,862,48.7451,-4.24511
728,162,48.759,4.8924,0.0013538,-0.000716457,-0.00289001,0.00338847,-0.00275113,-0.613429,0.00355106,0.0245523,1952,862,48.7591,-4.89237
735,162,48.7883,5.50806,0.00474687,-0.000648688,-0.00387928,0.00677422,-0.00267604,-0.481571,0.00562452,0.011231,1959,862,48.7883,-5.50808
742,162,48.7649,6.13007,0.00881404,-0.000733919,-0.00535665,0.0112153,-0.00313521,-0.421425,0.00871208,0.0128787,1966,862,48.765,-6.13004
749,162,48.6912,6.75073,0.0132093,-0.00112385,-0.00736574,0.0163196,-0.00423414,-0.399551,0.0125319,0.0203379,1973,862,48.6911,-6.75073
756,162,48.5083,7.22858,0.0179156,-0.00195288,-0.0100556,0.0221166,-0.00615385,-0.395734,0.0171674,0.0477163,1980,862,48.5083,-7.22855
763,162,48.913,7.95508,0,0,0,0,0,0,0,-1,1987,862,48.913,-7.95505
770,162,48.002,9.22675,0,0,0,0,0,0,0,-1,1994,862,48.0019,-9.22675
777,162,47.9099,9.68317,0,0,0,0,0,0,0,-1,2001,862,47.91,-9.68317
784,162,47.8518,10.4689,0,0,0,0,0,0,0,-1,2008,862,47.8517,-10.4689
791,162,0,0,0,0,0,0,0,0,0,-1,2015,862,0,0
798,162,0,0,0,0,0,0,0,0,0,-1,2022,862,0,0
805,162,0,0,0,0,0,0,0,0,0,-1,2029,862,0,0
812,162,0,0,0,0,0,0,0,0,0,-1,2036,862,0,0
-700,155,0,0,0,0,0,0,0,0,0,-1,524,869,0,0
-693,155,0,0,0,0,0,0,0,0,0,-1,531,869,0,0
-686,155,0,0,0,0,0,0,0,0,0,-1,538,869,0,0
-679,155,0,0,0,0,0,0,0,0,0,-1,545,869,0,0
-672,155,0,0,0,0,0,0,0,0,0,-1,552,869,0,0
-665,155,-42.738,5.5318,0,0,0,0,0,0,0,-1,559,869,-42.738,-5.53182
-658,155,-41.7332,4.93372,0,0,0,0,0,0,0,-1,566,869,-41.7332,-4.93369
-651,155,-37.4589,3.59467,0,0,0,0,0,0,0,-1,573,869,-37.4588,-3.59469
-644,155,-37.6277,3.03357,0,0,0,0,0,0,0,-1,580,869,-37.6277,-3.03355
-637,155,-36.8124,5.15515,0,0,0,0,0,0,0,-1,587,869,-36.8125,-5.15516
-630,155,-36.671,5.09564,0,0,0,0,0,0,0,-1,594,869,-36.671,-5.09566
-623,155,-36.4385,5.02057,-0.0128509,-0.00571487,-0.00273089,-0.00478973,-0.013776,-1.24416,0.00807568,0.0275674,601,869,-36.4385,-5.02055
-616,155,-36.5067,4.32025,-0.00777346,-0.00187743,-0.000787042,-0.00177418,-0.00787671,-1.44035,0.004771,0.0154148,608,869,-36.5067,-4.32026
-609,155,-36.5765,3.63885,-0.00497568,0.000184993,0.00107285,0.00039914,-0.00518983,1.37378,0.00360032,0.0141064,615,869,-36.5765,-3.63886
-602,155,-36.6153,3.02008,-0.0034887,0.00103382,0.00270367,0.0022972,-0.00475208,1.13366,0.00415135,0.0135851,622,869,-36.6153,-3.02005
-595,155,-36.6429,2.41479,-0.00314644,0.000841002,0.00402916,0.00334273,-0.00564817,1.01515,0.00524748,0.0133283,629,869,-36.6429,-2.41477
-588,155,-36.6162,1.84296,-0.00266198,0.000384648,0.00465936,0.00376338,-0.00604072,0.943389,0.00571107,0.0196374,636,869,-36.6162,-1.84297
-581,155,-36.9116,1.38464,-0.00228122,0.000119076,0.00469881,0.00376859,-0.00593073,0.910432,0.00564609,0.0380919,643,869,-36.9116,-1.38464
-574,155,-37.2003,1.04834,0,0,0,0,0,0,0,-1,650,869,-37.2003,-1.04831
-567,155,-37.3806,-0.15271,0,0,0,0,0,0,0,-1,657,869,-37.3806,0.152713
-560,155,-36.8511,-0.726746,0,0,0,0,0,0,0,-1,664,869,-36.8511,0.726742
-553,155,-36.4947,-1.74133,0,0,0,0,0,0,0,-1,671,869,-36.4947,1.74136
-546,155,-22.7988,0.873657,0,0,0,0,0,0,0,-1,678,869,-22.7988,-0.873645
-539,155,-45.0406,0.798706,0,0,0,0,0,0,0,-1,685,869,-45.0406,-0.798712
-532,155,-45.0256,0.846741,0.00211066,-0.00123323,0.00306301,0.00392834,-0.0030509,0.535573,0.00404007,0.0371967,692,869,-45.0256,-0.846722
-525,155,-45.0293,0.867615,0.00333345,-0.00145163,0.00241513,0.00434049,-0.00245866,0.395049,0.00397529,0.0392154,699,869,-45.0293,-0.867642
-518,155,-45.0236,0.868225,0.00404886,-0.00120111,0.00160737,0.00450189,-0.00165414,0.274719,0.00367876,0.0403112,706,869,-45.0236,-0.868242
-511,155,-45.0008,0.853027,0.00568903,0.000208247,0.000846466,0.00581678,8.04944e-05,0.149794,0.0038513,0.041857,713,869,-45.0008,-0.853055
-504,155,-44.9908,0.76123,0.00934445,0.00315426,-0.000118367,0.00934671,0.003152,-0.0191124,0.00549081,0.0439276,720,869,-44.9908,-0.761246
-497,155,0,0,0,0,0,0,0,0,0,-1,727,869,0,0
-490,155,0,0,0,0,0,0,0,0,0,-1,734,869,0,0
-483,155,0,0,0,0,0,0,0,0,0,-1,741,869,0,0
-476,155,0,0,0,0,0,0,0,0,0,-1,748,869,0,0
-469,155,0,0,0,0,0,0,0,0,0,-1,755,869,0,0
-462,155,0,0,0,0,0,0,0,0,0,-1,762,869,0,0
-455,155,0,0,0,0,0,0,0,0,0,-1,769,869,0,0
-448,155,0,0,0,0,0,0,0,0,0,-1,776,869,0,0
-441,155,0,0,0,0,0,0,0,0,0,-1,783,869,0,0
-434,155,0,0,0,0,0,0,0,0,0,-1,790,869,0,0
-427,155,0,0,0,0,0,0,0,0,0,-1,797,869,0,0
-420,155,0,0,0,0,0,0,0,0,0,-1,804,869,0,0
-413,155,0,0,0,0,0,0,0,0,0,-1,811,869,0,0
-406,155,0,0,0,0,0,0,0,0,0,-1,818,869,0,0
-399,155,0,0,0,0,0,0,0,0,0,-1,825,869,0,0
-392,155,0,0,0,0,0,0,0,0,0,-1,832,869,0,0
-385,155,0,0,0,0,0,0,0,0,0,-1,839,869,0,0
-378,155,0,0,0,0,0,0,0,0,0,-1,846,869,0,0
-371,155,0,0,0,0,0,0,0,0,0,-1,853,869,0,0
-364,155,0,0,0,0,0,0,0,0,0,-1,860,869,0,0
-357,155,0,0,0,0,0,0,0,0,0,-1,867,869,0,0
-350,155,0,0,0,0,0,0,0,0,0,-1,874,869,0,0
-343,155,0,0,0,0,0,0,0,0,0,-1,881,869,0,0
-336,155,0,0,0,0,0,0,0,0,0,-1,888,869,0,0
-329,155,0,0,0,0,0,0,0,0,0,-1,895,869,0,0
-322,155,0,0,0,0,0,0,0,0,0,-1,902,869,0,0
-315,155,0,0,0,0,0,0,0,0,0,-1,909,869,0,0
-308,155,0,0,0,0,0,0,0,0,0,-1,916,869,0,0
-301,155,0,0,0,0,0,0,0,0,0,-1,923,869,0,0
-294,155,0,0,0,0,0,0,0,0,0,-1,930,869,0,0
-287,155,0,0,0,0,0,0,0,0,0,-1,937,869,0,0
-280,155,0,0,0,0,0,0,0,0,0,-1,944,869,0,0
-273,155,0,0,0,0,0,0,0,0,0,-1,951,869,0,0
-266,155,0,0,0,0,0,0,0,0,0,-1,958,869,0,0
-259,155,0,0,0,0,0,0,0,0,0,-1,965,869,0,0
-252,155,0,0,0,0,0,0,0,0,0,-1,972,869,0,0
-245,155,0,0,0,0,0,0,0,0,0,-1,979,869,0,0
-238,155,0,0,0,0,0,0,0,0,0,-1,986,869,0,0
-231,155,0,0,0,0,0,0,0,0,0,-1,993,869,0,0
-224,155,0,0,0,0,0,0,0,0,0,-1,1000,869,0,0
-217,155,0,0,0,0,0,0,0,0,0,-1,1007,869,0,0
-210,155,0,0,0,0,0,0,0,0,0,-1,1014,869,0,0
-203,155,0,0,0,0,0,0,0,0,0,-1,1021,869,0,0
-196,155,0,0,0,0,0,0,0,0,0,-1,1028,869,0,0
-189,155,0,0,0,0,0,0,0,0,0,-1,1035,869,0,0
-182,155,0,0,0,0,0,0,0,0,0,-1,1042,869,0,0
-175,155,0,0,0,0,0,0,0,0,0,-1,1049,869,0,0
-168,155,0,0,0,0,0,0,0,0,0,-1,1056,869,0,0
-161,155,0,0,0,0,0,0,0,0,0,-1,1063,869,0,0
-154,155,0,0,0,0,0,0,0,0,0,-1,1070,869,0,0
-147,155,0,0,0,0,0,0,0,0,0,-1,1077,869,0,0
-140,155,0,0,0,0,0,0,0,0,0,-1,1084,869,0,0
-133,155,0,0,0,0,0,0,0,0,0,-1,1091,869,0,0
-126,155,0,0,0,0,0,0,0,0,0,-1,1098,869,0,0
-119,155,0,0,0,0,0,0,0,0,0,-1,1105,869,0,0
-112,155,0,0,0,0,0,0,0,0,0,-1,1112,869,0,0
-105,155,0,0,0,0,0,0,0,0,0,-1,1119,869,0,0
-98,155,0,0,0,0,0,0,0,0,0,-1,1126,869,0,0
-91,155,0,0,0,0,0,0,0,0,0,-1,1133,869,0,0
-84,155,0,0,0,0,0,0,0,0,0,-1,1140,869,0,0
-77,155,0,0,0,0,0,0,0,0,0,-1,1147,869,0,0
-70,155,0,0,0,0,0,0,0,0,0,-1,1154,869,0,0
-63,155,0,0,0,0,0,0,0,0,0,-1,1161,869,0,0
-56,155,0,0,0,0,0,0,0,0,0,-1,1168,869,0,0
-49,155,0,0,0,0,0,0,0,0,0,-1,1175,869,0,0
-42,155,0,0,0,0,0,0,0,0,0,-1,1182,869,0,0
-35,155,0,0,0,0,0,0,0,0,0,-1,1189,869,0,0
-28,155,0,0,0,0,0,0,0,0,0,-1,1196,869,0,0
-21,155,0,0,0,0,0,0,0,0,0,-1,1203,869,0,0
-14,155,0,0,0,0,0,0,0,0,0,-1,1210,869,0,0
-7,155,0,0,0,0,0,0,0,0,0,-1,1217,869,0,0
0,155,0,0,0,0,0,0,0,0,0,-1,1224,869,0,0
7,155,0,0,0,0,0,0,0,0,0,-1,1231,869,0,0
14,155,0,0,0,0,0,0,0,0,0,-1,1238,869,0,0
21,155,0,0,0,0,0,0,0,0,0,-1,1245,869,0,0
28,155,0,0,0,0,0,0,0,0,0,-1,1252,869,0,0
35,155,0,0,0,0,0,0,0,0,0,-1,1259,869,0,0
42,155,0,0,0,0,0,0,0,0,0,-1,1266,869,0,0
49,155,0,0,0,0,0,0,0,0,0,-1,1273,869,0,0
56,155,0,0,0,0,0,0,0,0,0,-1,1280,869,0,0
63,155,0,0,0,0,0,0,0,0,0,-1,1287,869,0,0
70,155,0,0,0,0,0,0,0,0,0,-1,1294,869,0,0
77,155,0,0,0,0,0,0,0,0,0,-1,1301,869,0,0
84,155,0,0,0,0,0,0,0,0,0,-1,1308,869,0,0
91,155,0,0,0,0,0,0,0,0,0,-1,1315,869,0,0
98,155,0,0,0,0,0,0,0,0,0,-1,1322,869,0,0
105,155,0,0,0,0,0,0,0,0,0,-1,1329,869,0,0
112,155,0,0,0,0,0,0,0,0,0,-1,1336,869,0,0
119,155,0,0,0,0,0,0,0,0,0,-1,1343,869,0,0
126,155,0,0,0,0,0,0,0,0,0,-1,1350,869,0,0
133,155,0,0,0,0,0,0,0,0,0,-1,1357,869,0,0
140,155,0,0,0,0,0,0,0,0,0,-1,1364,869,0,0
147,155,0,0,0,0,0,0,0,0,0,-1,1371,869,0,0
154,155,0,0,0,0,0,0,0,0,0,-1,1378,869,0,0
161,155,0,0,0,0,0,0,0,0,0,-1,1385,869,0,0
168,155,0,0,0,0,0,0,0,0,0,-1,1392,869,0,0
175,155,0,0,0,0,0,0,0,0,0,-1,1399,869,0,0
182,155,0,0,0,0,0,0,0,0,0,-1,1406,869,0,0
189,155,0,0,0,0,0,0,0,0,0,-1,1413,869,0,0
196,155,0,0,0,0,0,0,0,0,0,-1,1420,869,0,0
203,155,0,0,0,0,0,0,0,0,0,-1,1427,869,0,0
210,155,0,0,0,0,0,0,0,0,0,-1,1434,869,0,0
217,155,0,0,0,0,0,0,0,0,0,-1,1441,869,0,0
224,155,0,0,0,0,0,0,0,0,0,-1,1448,869,0,0
231,155,0,0,0,0,0,0,0,0,0,-1,1455,869,0,0
238,155,0,0,0,0,0,0,0,0,0,-1,1462,869,0,0
245,155,0,0,0,0,0,0,0,0,0,-1,1469,869,0,0
252,155,0,0,0,0,0,0,0,0,0,-1,1476,869,0,0
259,155,0,0,0,0,0,0,0,0,0,-1,1483,869,0,0
266,155,0,0,0,0,0,0,0,0,0,-1,1490,869,0,0
273,155,0,0,0,0,0,0,0,0,0,-1,1497,869,0,0
280,155,0,0,0,0,0,0,0,0,0,-1,1504,869,0,0
287,155,0,0,0,0,0,0,0,0,0,-1,1511,869,0,0
294,155,0,0,0,0,0,0,0,0,0,-1,1518,869,0,0
301,155,0,0,0,0,0,0,0,0,0,-1,1525,869,0,0
308,155,0,0,0,0,0,0,0,0,0,-1,1532,869,0,0
315,155,0,0,0,0,0,0,0,0,0,-1,1539,869,0,0
322,155,0,0,0,0,0,0,0,0,0,-1,1546,869,0,0
329,155,0,0,0,0,0,0,0,0,0,-1,1553,869,0,0
336,155,0,0,0,0,0,0,0,0,0,-1,1560,869,0,0
343,155,0,0,0,0,0,0,0,0,0,-1,1567,869,0,0
350,155,0,0,0,0,0,0,0,0,0,-1,1574,869,0,0
357,155,0,0,0,0,0,0,0,0,0,-1,1581,869,0,0
364,155,0,0,0,0,0,0,0,0,0,-1,1588,869,0,0
371,155,0,0,0,0,0,0,0,0,0,-1,1595,869,0,0
378,155,0,0,0,0,0,0,0,0,0,-1,1602,869,0,0
385,155,0,0,0,0,0,0,0,0,0,-1,1609,869,0,0
392,155,0,0,0,0,0,0,0,0,0,-1,1616,869,0,0
399,155,0,0,0,0,0,0,0,0,0,-1,1623,869,0,0
406,155,0,0,0,0,0,0,0,0,0,-1,1630,869,0,0
413,155,0,0,0,0,0,0,0,0,0,-1,1637,869,0,0
420,155,0,0,0,0,0,0,0,0,0,-1,1644,869,0,0
427,155,0,0,0,0,0,0,0,0,0,-1,1651,869,0,0
434,155,0,0,0,0,0,0,0,0,0,-1,1658,869,0,0
441,155,0,0,0,0,0,0,0,0,0,-1,1665,869,0,0
448,155,0,0,0,0,0,0,0,0,0,-1,1672,869,0,0
455,155,0,0,0,0,0,0,0,0,0,-1,1679,869,0,0
462,155,0,0,0,0,0,0,0,0,0,-1,1686,869,0,0
469,155,0,0,0,0,0,0,0,0,0,-1,1693,869,0,0
476,155,0,0,0,0,0,0,0,0,0,-1,1700,869,0,0
483,155,0,0,0,0,0,0,0,0,0,-1,1707,869,0,0
490,155,0,0,0,0,0,0,0,0,0,-1,1714,869,0,0
497,155,0,0,0,0,0,0,0,0,0,-1,1721,869,0,0
504,155,0,0,0,0,0,0,0,0,0,-1,1728,869,0,0
511,155,0,0,0,0,0,0,0,0,0,-1,1735,869,0,0
518,155,0,0,0,0,0,0,0,0,0,-1,1742,869,0,0
525,155,0,0,0,0,0,0,0,0,0,-1,1749,869,0,0
532,155,0,0,0,0,0,0,0,0,0,-1,1756,869,0,0
539,155,0,0,0,0,0,0,0,0,0,-1,1763,869,0,0
546,155,0,0,0,0,0,0,0,0,0,-1,1770,869,0,0
553,155,0,0,0,0,0,0,0,0,0,-1,1777,869,0,0
560,155,0,0,0,0,0,0,0,0,0,-1,1784,869,0,0
567,155,0,0,0,0,0,0,0,0,0,-1,1791,869,0,0
574,155,0,0,0,0,0,0,0,0,0,-1,1798,869,0,0
581,155,0,0,0,0,0,0,0,0,0,-1,1805,869,0,0
588,155,0,0,0,0,0,0,0,0,0,-1,1812,869,0,0
595,155,0,0,0,0,0,0,0,0,0,-1,1819,869,0,0
602,155,0,0,0,0,0,0,0,0,0,-1,1826,869,0,0
609,155,0,0,0,0,0,0,0,0,0,-1,1833,869,0,0
616,155,59.2723,2.66754,0,0,0,0,0,0,0,-1,1840,869,59.2724,-2.66752
623,155,59.1664,2.61365,-0.00059387,0.00295655,0.00454756,0.00606311,-0.00370043,0.971485,0.00569173,0.0440038,1847,869,59.1664,-2.61366
630,155,59.1741,2.62732,-0.000804524,0.00168325,0.00352123,0.00417384,-0.00329511,0.955184,0.00432214,0.0431447,1854,869,59.174,-2.62733
637,155,59.2258,2.71906,-0.000957668,0.000935764,0.00260145,0.00275741,-0.00277931,0.959908,0.00319663,0.0414048,1861,869,59.2258,-2.71907
644,155,59.2037,2.776,-0.00122186,0.000309075,0.00173044,0.00143579,-0.00234858,0.993636,0.00220599,0.0394249,1868,869,59.2038,-2.77598
651,155,59.1821,2.71173,-0.00159553,-0.00029417,0.000950389,0.000206942,-0.00209664,1.08557,0.0014716,0.0363992,1875,869,59.1822,-2.71172
658,155,59.1821,2.69482,-0.0022656,-0.000751658,0.000211641,-0.000722628,-0.00229463,1.43448,0.00135472,0.0299676,1882,869,59.1822,-2.69484
665,155,59.1344,2.71722,-0.00292055,-0.00119911,-0.000121162,-0.00119062,-0.00292904,-1.50087,0.00170091,0.0358549,1889,869,59.1344,-2.71724
672,155,59.0967,2.74396,0,0,0,0,0,0,0,-1,1896,869,59.0967,-2.74398
679,155,35.1565,2.78528,0,0,0,0,0,0,0,-1,1903,869,35.1565,-2.7853
686,155,43.6101,1.63361,0,0,0,0,0,0,0,-1,1910,869,43.6101,-1.63362
693,155,49.7699,1.94104,0,0,0,0,0,0,0,-1,1917,869,49.7699,-1.94106
700,155,49.8693,2.45844,-0.00302656,-0.00161709,-0.00164835,-0.000529147,-0.00411451,-0.987407,0.00258474,0.0457108,1924,869,49.8692,-2.45845
707,155,49.8348,3.08679,-0.00305751,-0.00151617,-0.00180518,-0.000324032,-0.00424965,-0.987147,0.0027315,0.0282793,1931,869,49.8349,-3.08681
714,155,49.6202,3.50433,0,0,0,0,0,0,0,-1,1938,869,49.6202,-3.50431
721,155,49.4615,4.21301,-0.00185088,-0.000832043,-0.00205806,0.000778702,-0.00346163,-0.906722,0.00260639,0.0377923,1945,869,49.4615,-4.21301
728,155,49.415,4.90588,-0.000309997,-0.00040618,-0.00242874,0.00207113,-0.00278731,-0.775499,0.00281516,0.020162,1952,869,49.415,-4.90589
735,155,49.4374,5.53979,0.00204693,-0.000108839,-0.00311969,0.0042697,-0.00233161,-0.619064,0.00386563,0.0166939,1959,869,49.4374,-5.53979
742,155,49.4402,6.17273,0.00503669,0.000115849,-0.00417395,0.00742143,-0.00226889,-0.519078,0.0058524,0.0189382,1966,869,49.4401,-6.17271
749,155,49.3307,6.76312,0.00825193,9.03294e-05,-0.00562965,0.0111242,-0.00278199,-0.471785,0.00849669,0.0177569,1973,869,49.3306,-6.76314
756,155,49.2163,7.37463,0.0114794,-0.000248402,-0.00753372,0.0151623,-0.00393134,-0.454697,0.0116421,0.0310884,1980,869,49.2163,-7.37461
763,155,49.1257,7.92181,0.0142512,-0.000775851,-0.0101489,0.0193651,-0.00588976,-0.466756,0.0152571,0.0482431,1987,869,49.1258,-7.92183
770,155,48.9221,8.46991,0,0,0,0,0,0,0,-1,1994,869,48.9222,-8.46989
777,155,47.6638,9.99725,0,0,0,0,0,0,0,-1,2001,869,47.6639,-9.99728
784,155,47.7854,11.1166,0,0,0,0,0,0,0,-1,2008,869,47.7855,-11.1166
791,155,0,0,0,0,0,0,0,0,0,-1,2015,869,0,0
798,155,0,0,0,0,0,0,0,0,0,-1,2022,869,0,0
805,155,0,0,0,0,0,0,0,0,0,-1,2029,869,0,0
812,155,0,0,0,0,0,0,0,0,0,-1,2036,869,0,0
-700,148,0,0,0,0,0,0,0,0,0,-1,524,876,0,0
-693,148,0,0,0,0,0,0,0,0,0,-1,531,876,0,0
-686,148,0,0,0,0,0,0,0,0,0,-1,538,876,0,0
-679,148,0,0,0,0,0,0,0,0,0,-1,545,876,0,0
-672,148,-41.7661,5.76233,0,0,0,0,0,0,0,-1,552,876,-41.766,-5.76233
-665,148,-42.2538,5.20978,0,0,0,0,0,0,0,-1,559,876,-42.2539,-5.2098
-658,148,-42.1098,4.78577,0,0,0,0,0,0,0,-1,566,876,-42.1098,-4.78577
-651,148,-42.8254,4.26196,0,0,0,0,0,0,0,-1,573,876,-42.8254,-4.26195
-644,148,-39.1178,2.20972,0,0,0,0,0,0,0,-1,580,876,-39.1178,-2.20972
-637,148,-43.4385,2.36011,0,0,0,0,0,0,0,-1,587,876,-43.4385,-2.36011
-630,148,-36.7125,5.98639,0,0,0,0,0,0,0,-1,594,876,-36.7125,-5.98639
-623,148,-36.9282,5.11243,-0.0157868,-0.00614305,-0.00288511,-0.00534582,-0.016584,-1.3012,0.00977415,0.0269371,601,876,-36.9282,-5.11243
-616,148,-37.1035,4.3092,-0.00994058,-0.00218991,-0.00061159,-0.00214194,-0.00998855,-1.49253,0.00607231,0.0147064,608,876,-37.1035,-4.30919
-609,148,-37.2086,3.64484,-0.00625467,8.08128e-05,0.00134994,0.000356459,-0.00653032,1.36937,0.0044771,0.0135784,615,876,-37.2086,-3.64484
-602,148,-37.2631,3.0376,-0.00420038,0.00095434,0.00302921,0.00235428,-0.00560031,1.13789,0.00471832,0.0158955,622,876,-37.2631,-3.03757
-595,148,-37.2836,2.43884,-0.00348216,0.000706869,0.00425986,0.00335929,-0.00613458,1.01389,0.0055588,0.0143525,629,876,-37.2836,-2.43884
-588,148,-37.2927,1.7655,-0.00285559,0.000194155,0.00474911,0.0036572,-0.00631863,0.940742,0.00582747,0.0281494,636,876,-37.2927,-1.76552
-581,148,-37.4902,1.35663,-0.00261857,-9.13518e-05,0.00463748,0.00345159,-0.00616152,0.918408,0.00562316,0.0443375,643,876,-37.4902,-1.35661
-574,148,-37.5969,1.1452,0,0,0,0,0,0,0,-1,650,876,-37.5969,-1.1452
-567,148,-35.6293,0.615784,0,0,0,0,0,0,0,-1,657,876,-35.6293,-0.615792
-560,148,-37.5001,-0.597229,0,0,0,0,0,0,0,-1,664,876,-37.5001,0.597226
-553,148,-18.3896,-0.00280762,0,0,0,0,0,0,0,-1,671,876,-18.3897,0.00278524
-546,148,-45.0408,0.727478,0,0,0,0,0,0,0,-1,678,876,-45.0408,-0.727493
-539,148,-45.0118,0.764221,0.000240703,-0.00129885,0.00348621,0.00304112,-0.00409926,0.676739,0.00413756,0.0424627,685,876,-45.0118,-0.764248
-532,148,-45.0071,0.830872,0.00133644,-0.00114363,0.00286486,0.00321812,-0.00302531,0.58115,0.00360522,0.0358653,692,876,-45.0071,-0.83088
-525,148,-45.0052,0.897644,0.00245768,-0.00126305,0.00206769,0.00337874,-0.00218411,0.419065,0.00323631,0.0390023,699,876,-45.0052,-0.897648
-518,148,-44.9955,0.986755,0.00318786,-0.00081091,0.00112645,0.00348334,-0.00110639,0.256535,0.0027658,0.0433018,706,876,-44.9955,-0.98674
-511,148,-44.9415,1.05261,0.00503898,0.000772329,0.000354274,0.0050682,0.000743112,0.0822823,0.00316035,0.0432423,713,876,-44.9415,-1.05264
-504,148,-44.7552,0.833862,0.00855115,0.00322912,-0.000612429,0.00862071,0.00315955,-0.113105,0.00503595,0.0463956,720,876,-44.7552,-0.833844
-497,148,0,0,0,0,0,0,0,0,0,-1,727,876,0,0
-490,148,0,0,0,0,0,0,0,0,0,-1,734,876,0,0
-483,148,0,0,0,0,0,0,0,0,0,-1,741,876,0,0
-476,148,0,0,0,0,0,0,0,0,0,-1,748,876,0,0
-469,148,0,0,0,0,0,0,0,0,0,-1,755,876,0,0
-462,148,0,0,0,0,0,0,0,0,0,-1,762,876,0,0
-455,148,0,0,0,0,0,0,0,0,0,-1,769,876,0,0
-448,148,0,0,0,0,0,0,0,0,0,-1,776,876,0,0
-441,148,0,0,0,0,0,0,0,0,0,-1,783,876,0,0
-434,148,0,0,0,0,0,0,0,0,0,-1,790,876,0,0
-427,148,0,0,0,0,0,0,0,0,0,-1,797,876,0,0
-420,148,0,0,0,0,0,0,0,0,0,-1,804,876,0,0
-413,148,0,0,0,0,0,0,0,0,0,-1,811,876,0,0
-406,148,0,0,0,0,0,0,0,0,0,-1,818,876,0,0
-399,148,0,0,0,0,0,0,0,0,0,-1,825,876,0,0
-392,148,0,0,0,0,0,0,0,0,0,-1,832,876,0,0
-385,148,0,0,0,0,0,0,0,0,0,-1,839,876,0,0
-378,148,0,0,0,0,0,0,0,0,0,-1,846,876,0,0
-371,148,0,0,0,0,0,0,0,0,0,-1,853,876,0,0
-364,148,0,0,0,0,0,0,0,0,0,-1,860,876,0,0
-357,148,0,0,0,0,0,0,0,0,0,-1,867,876,0,0
-350,148,0,0,0,0,0,0,0,0,0,-1,874,876,0,0
-343,148,0,0,0,0,0,0,0,0,0,-1,881,876,0,0
-336,148,0,0,0,0,0,0,0,0,0,-1,888,876,0,0
-329,148,0,0,0,0,0,0,0,0,0,-1,895,876,0,0
-322,148,0,0,0,0,0,0,0,0,0,-1,902,876,0,0
-315,148,0,0,0,0,0,0,0,0,0,-1,909,876,0,0
-308,148,0,0,0,0,0,0,0,0,0,-1,916,876,0,0
-301,148,0,0,0,0,0,0,0,0,0,-1,923,876,0,0
-294,148,0,0,0,0,0,0,0,0,0,-1,930,876,0,0
-287,148,0,0,0,0,0,0,0,0,0,-1,937,876,0,0
-280,148,0,0,0,0,0,0,0,0,0,-1,944,876,0,0
-273,148,0,0,0,0,0,0,0,0,0,-1,951,876,0,0
-266,148,0,0,0,0,0,0,0,0,0,-1,958,876,0,0
-259,148,0,0,0,0,0,0,0,0,0,-1,965,876,0,0
-252,148,0,0,0,0,0,0,0,0,0,-1,972,876,0,0
-245,148,0,0,0,0,0,0,0,0,0,-1,979,876,0,0
-238,148,0,0,0,0,0,0,0,0,0,-1,986,876,0,0
-231,148,0,0,0,0,0,0,0,0,0,-1,993,876,0,0
-224,148,0,0,0,0,0,0,0,0,0,-1,1000,876,0,0
-217,148,0,0,0,0,0,0,0,0,0,-1,1007,876,0,0
-210,148,0,0,0,0,0,0,0,0,0,-1,1014,876,0,0
-203,148,0,0,0,0,0,0,0,0,0,-1,1021,876,0,0
-196,148,0,0,0,0,0,0,0,0,0,-1,1028,876,0,0
-189,148,0,0,0,0,0,0,0,0,0,-1,1035,876,0,0
-182,148,0,0,0,0,0,0,0,0,0,-1,1042,876,0,0
-175,148,0,0,0,0,0,0,0,0,0,-1,1049,876,0,0
-168,148,0,0,0,0,0,0,0,0,0,-1,1056,876,0,0
-161,148,0,0,0,0,0,0,0,0,0,-1,1063,876,0,0
-154,148,0,0,0,0,0,0,0,0,0,-1,1070,876,0,0
-147,148,0,0,0,0,0,0,0,0,0,-1,1077,876,0,0
-140,148,0,0,0,0,0,0,0,0,0,-1,1084,876,0,0
-133,148,0,0,0,0,0,0,0,0,0,-1,1091,876,0,0
-126,148,0,0,0,0,0,0,0,0,0,-1,1098,876,0,0
-119,148,0,0,0,0,0,0,0,0,0,-1,1105,876,0,0
-112,148,0,0,0,0,0,0,0,0,0,-1,1112,876,0,0
-105,148,0,0,0,0,0,0,0,0,0,-1,1119,876,0,0
-98,148,0,0,0,0,0,0,0,0,0,-1,1126,876,0,0
-91,148,0,0,0,0,0,0,0,0,0,-1,1133,876,0,0
-84,148,0,0,0,0,0,0,0,0,0,-1,1140,876,0,0
-77,148,0,0,0,0,0,0,0,0,0,-1,1147,876,0,0
-70,148,0,0,0,0,0,0,0,0,0,-1,1154,876,0,0
-63,148,0,0,0,0,0,0,0,0,0,-1,1161,876,0,0
-56,148,0,0,0,0,0,0,0,0,0,-1,1168,876,0,0
-49,148,0,0,0,0,0,0,0,0,0,-1,1175,876,0,0
-42,148,0,0,0,0,0,0,0,0,0,-1,1182,876,0,0
-35,148,0,0,0,0,0,0,0,0,0,-1,1189,876,0,0
-28,148,0,0,0,0,0,0,0,0,0,-1,1196,876,0,0
-21,148,0,0,0,0,0,0,0,0,0,-1,1203,876,0,0
-14,148,0,0,0,0,0,0,0,0,0,-1,1210,876,0,0
-7,148,0,0,0,0,0,0,0,0,0,-1,1217,876,0,0
0,148,0,0,0,0,0,0,0,0,0,-1,1224,876,0,0
7,148,0,0,0,0,0,0,0,0,0,-1,1231,876,0,0
14,148,0,0,0,0,0,0,0,0,0,-1,1238,876,0,0
21,148,0,0,0,0,0,0,0,0,0,-1,1245,876,0,0
28,148,0,0,0,0,0,0,0,0,0,-1,1252,876,0,0
35,148,0,0,0,0,0,0,0,0,0,-1,1259,876,0,0
42,148,0,0,0,0,0,0,0,0,0,-1,1266,876,0,0
49,148,0,0,0,0,0,0,0,0,0,-1,1273,876,0,0
56,148,0,0,0,0,0,0,0,0,0,-1,1280,876,0,0
63,148,0,0,0,0,0,0,0,0,0,-1,1287,876,0,0
70,148,0,0,0,0,0,0,0,0,0,-1,1294,876,0,0
77,148,0,0,0,0,0,0,0,0,0,-1,1301,876,0,0
84,148,0,0,0,0,0,0,0,0,0,-1,1308,876,0,0
91,148,0,0,0,0,0,0,0,0,0,-1,1315,876,0,0
98,148,0,0,0,0,0,0,0,0,0,-1,1322,876,0,0
105,148,0,0,0,0,0,0,0,0,0,-1,1329,876,0,0
112,148,0,0,0,0,0,0,0,0,0,-1,1336,876,0,0
119,148,0,0,0,0,0,0,0,0,0,-1,1343,876,0,0
126,148,0,0,0,0,0,0,0,0,0,-1,1350,876,0,0
133,148,0,0,0,0,0,0,0,0,0,-1,1357,876,0,0
140,148,0,0,0,0,0,0,0,0,0,-1,1364,876,0,0
147,148,0,0,0,0,0,0,0,0,0,-1,1371,876,0,0
154,148,0,0,0,0,0,0,0,0,0,-1,1378,876,0,0
161,148,0,0,0,0,0,0,0,0,0,-1,1385,876,0,0
168,148,0,0,0,0,0,0,0,0,0,-1,1392,876,0,0
175,148,0,0,0,0,0,0,0,0,0,-1,1399,876,0,0
182,148,0,0,0,0,0,0,0,0,0,-1,1406,876,0,0
189,148,0,0,0,0,0,0,0,0,0,-1,1413,876,0,0
196,148,0,0,0,0,0,0,0,0,0,-1,1420,876,0,0
203,148,0,0,0,0,0,0,0,0,0,-1,1427,876,0,0
210,148,0,0,0,0,0,0,0,0,0,-1,1434,876,0,0
217,148,0,0,0,0,0,0,0,0,0,-1,1441,876,0,0
224,148,0,0,0,0,0,0,0,0,0,-1,1448,876,0,0
231,148,0,0,0,0,0,0,0,0,0,-1,1455,876,0,0
238,148,0,0,0,0,0,0,0,0,0,-1,1462,876,0,0
245,148,0,0,0,0,0,0,0,0,0,-1,1469,876,0,0
252,148,0,0,0,0,0,0,0,0,0,-1,1476,876,0,0
259,148,0,0,0,0,0,0,0,0,0,-1,1483,876,0,0
266,148,0,0,0,0,0,0,0,0,0,-1,1490,876,0,0
273,148,0,0,0,0,0,0,0,0,0,-1,1497,876,0,0
280,148,0,0,0,0,0,0,0,0,0,-1,1504,876,0,0
287,148,0,0,0,0,0,0,0,0,0,-1,1511,876,0,0
294,148,0,0,0,0,0,0,0,0,0,-1,1518,876,0,0
301,148,0,0,0,0,0,0,0,0,0,-1,1525,876,0,0
308,148,0,0,0,0,0,0,0,0,0,-1,1532,876,0,0
315,148,0,0,0,0,0,0,0,0,0,-1,1539,876,0,0
322,148,0,0,0,0,0,0,0,0,0,-1,1546,876,0,0
329,148,0,0,0,0,0,0,0,0,0,-1,1553,876,0,0
336,148,0,0,0,0,0,0,0,0,0,-1,1560,876,0,0
343,148,0,0,0,0,0,0,0,0,0,-1,1567,876,0,0
350,148,0,0,0,0,0,0,0,0,0,-1,1574,876,0,0
357,148,0,0,0,0,0,0,0,0,0,-1,1581,876,0,0
364,148,0,0,0,0,0,0,0,0,0,-1,1588,876,0,0
371,148,0,0,0,0,0,0,0,0,0,-1,1595,876,0,0
378,148,0,0,0,0,0,0,0,0,0,-1,1602,876,0,0
385,148,0,0,0,0,0,0,0,0,0,-1,1609,876,0,0
392,148,0,0,0,0,0,0,0,0,0,-1,1616,876,0,0
399,148,0,0,0,0,0,0,0,0,0,-1,1623,876,0,0
406,148,0,0,0,0,0,0,0,0,0,-1,1630,876,0,0
413,148,0,0,0,0,0,0,0,0,0,-1,1637,876,0,0
420,148,0,0,0,0,0,0,0,0,0,-1,1644,876,0,0
427,148,0,0,0,0,0,0,0,0,0,-1,1651,876,0,0
434,148,0,0,0,0,0,0,0,0,0,-1,1658,876,0,0
441,148,0,0,0,0,0,0,0,0,0,-1,1665,876,0,0
448,148,0,0,0,0,0,0,0,0,0,-1,1672,876,0,0
455,148,0,0,0,0,0,0,0,0,0,-1,1679,876,0,0
462,148,0,0,0,0,0,0,0,0,0,-1,1686,876,0,0
469,148,0,0,0,0,0,0,0,0,0,-1,1693,876,0,0
476,148,0,0,0,0,0,0,0,0,0,-1,1700,876,0,0
483,148,0,0,0,0,0,0,0,0,0,-1,1707,876,0,0
490,148,0,0,0,0,0,0,0,0,0,-1,1714,876,0,0
497,148,0,0,0,0,0,0,0,0,0,-1,1721,876,0,0
504,148,0,0,0,0,0,0,0,0,0,-1,1728,876,0,0
511,148,0,0,0,0,0,0,0,0,0,-1,1735,876,0,0
518,148,0,0,0,0,0,0,0,0,0,-1,1742,876,0,0
525,148,0,0,0,0,0,0,0,0,0,-1,1749,876,0,0
532,148,0,0,0,0,0,0,0,0,0,-1,1756,876,0,0
539,148,0,0,0,0,0,0,0,0,0,-1,1763,876,0,0
546,148,0,0,0,0,0,0,0,0,0,-1,1770,876,0,0
553,148,0,0,0,0,0,0,0,0,0,-1,1777,876,0,0
560,148,0,0,0,0,0,0,0,0,0,-1,1784,876,0,0
567,148,0,0,0,0,0,0,0,0,0,-1,1791,876,0,0
574,148,0,0,0,0,0,0,0,0,0,-1,1798,876,0,0
581,148,0,0,0,0,0,0,0,0,0,-1,1805,876,0,0
588,148,0,0,0,0,0,0,0,0,0,-1,1812,876,0,0
595,148,0,0,0,0,0,0,0,0,0,-1,1819,876,0,0
602,148,0,0,0,0,0,0,0,0,0,-1,1826,876,0,0
609,148,0,0,0,0,0,0,0,0,0,-1,1833,876,0,0
616,148,0,0,0,0,0,0,0,0,0,-1,1840,876,0,0
623,148,59.1475,2.64258,-0.00161055,0.00399621,0.00575072,0.00759047,-0.0052048,1.01219,0.00743003,0.0429259,1847,876,59.1475,-2.64255
630,148,59.0931,2.68756,-0.00150483,0.00239107,0.00454311,0.00538623,-0.00449998,0.987928,0.00571545,0.0415585,1854,876,59.0931,-2.68755
637,148,59.1639,2.73431,-0.00132212,0.00137417,0.00341017,0.00369301,-0.00364096,0.973636,0.00423431,0.0368348,1861,876,59.1639,-2.73432
644,148,59.1067,2.71344,-0.00124051,0.000544231,0.00232524,0.00214246,-0.00283874,0.968619,0.00288525,0.036882,1868,876,59.1066,-2.71343
651,148,59.1417,2.60846,-0.00136736,-0.000158955,0.00136106,0.000725984,-0.0022523,0.994292,0.0017932,0.0387509,1875,876,59.1418,-2.60847
658,148,59.1526,2.64539,-0.00193456,-0.000642457,0.000504815,-0.000468618,-0.0021084,1.23915,0.00127835,0.0336004,1882,876,59.1526,-2.64538
665,148,59.084,2.76392,-0.00256833,-0.00114489,9.33483e-05,-0.0011388,-0.00257443,1.50559,0.00148964,0.0260702,1889,876,59.084,-2.7639
672,148,59.1365,2.68219,-0.00284636,-0.00136152,-0.000275153,-0.00131217,-0.00289571,-1.39334,0.00167429,0.0358547,1896,876,59.1365,-2.68219
679,148,58.8929,2.95038,0,0,0,0,0,0,0,-1,1903,876,58.893,-2.95035
686,148,21.6195,2.40845,0,0,0,0,0,0,0,-1,1910,876,21.6196,-2.40846
693,148,48.1387,1.97351,0,0,0,0,0,0,0,-1,1917,876,48.1387,-1.97351
700,148,50.741,2.54303,0,0,0,0,0,0,0,-1,1924,876,50.7409,-2.54303
707,148,50.5813,3.31818,-0.00288985,-0.00141558,-0.0015873,-0.0004026,-0.00390282,-1.00278,0.00247861,0.0348597,1931,876,50.5813,-3.31818
714,148,50.4484,3.77673,-0.00277844,-0.00110918,-0.00164601,-9.82835e-05,-0.00378933,-1.02004,0.00249411,0.0346745,1938,876,50.4484,-3.77671
721,148,50.12,4.3302,-0.00237568,-0.000635889,-0.00173007,0.000430674,-0.00344224,-1.01834,0.00245103,0.0271222,1945,876,50.12,-4.33019
728,148,50.1086,4.9201,-0.00154083,-7.55592e-05,-0.00192704,0.00125342,-0.00286981,-0.967053,0.00244076,0.0211403,1952,876,50.1087,-4.92008
735,148,50.1346,5.57196,-0.00014099,0.000443996,-0.00230166,0.00247168,-0.00216867,-0.848599,0.00268101,0.0211293,1959,876,50.1347,-5.57195
742,148,50.0653,6.20239,0.00175237,0.00102743,-0.0028753,0.00428795,-0.00150815,-0.722698,0.0034723,0.023302,1966,876,50.0653,-6.20239
749,148,49.9508,6.78094,0.00384194,0.00144433,-0.00371315,0.00654501,-0.00125874,-0.629253,0.00483782,0.0217009,1973,876,49.9508,-6.78095
756,148,49.8706,7.44818,0.00584077,0.00167691,-0.00484386,0.00903116,-0.00151348,-0.58243,0.00658352,0.0269987,1980,876,49.8706,-7.44818
763,148,49.853,8.29968,0.00732023,0.00192651,-0.00643436,0.0116,-0.00235331,-0.586952,0.00862549,0.0470421,1987,876,49.853,-8.29966
770,148,49.8104,9.12305,0,0,0,0,0,0,0,-1,1994,876,49.8104,-9.12304
777,148,49.1331,10.9149,0,0,0,0,0,0,0,-1,2001,876,49.1331,-10.9149
784,148,47.7195,11.8007,0,0,0,0,0,0,0,-1,2008,876,47.7195,-11.8007
791,148,47.6521,12.6907,0,0,0,0,0,0,0,-1,2015,876,47.6521,-12.6908
798,148,0,0,0,0,0,0,0,0,0,-1,2022,876,0,0
805,148,0,0,0,0,0,0,0,0,0,-1,2029,876,0,0
812,148,0,0,0,0,0,0,0,0,0,-1,2036,876,0,0
-700,141,0,0,0,0,0,0,0,0,0,-1,524,883,0,0
-693,141,0,0,0,0,0,0,0,0,0,-1,531,883,0,0
-686,141,0,0,0,0,0,0,0,0,0,-1,538,883,0,0
-679,141,0,0,0,0,0,0,0,0,0,-1,545,883,0,0
-672,141,-41.152,4.50354,0,0,0,0,0,0,0,-1,552,883,-41.152,-4.50355
-665,141,-41.9105,5.0307,0,0,0,0,0,0,0,-1,559,883,-41.9105,-5.03071
-658,141,-41.4936,2.7467,0,0,0,0,0,0,0,-1,566,883,-41.4936,-2.74671
-651,141,-42.5008,2.03564,0,0,0,0,0,0,0,-1,573,883,-42.5008,-2.03566
-644,141,-43.742,2.88318,0,0,0,0,0,0,0,-1,580,883,-43.742,-2.88319
-637,141,-38.8842,6.77856,0,0,0,0,0,0,0,-1,587,883,-38.8842,-6.77857
-630,141,-38.2661,6.04797,0,0,0,0,0,0,0,-1,594,883,-38.266,-6.04797
-623,141,-37.4906,4.98718,-0.0166609,-0.00441515,-0.00286359,-0.00377861,-0.0172975,-1.35206,0.0105012,0.0323332,601,883,-37.4906,-4.98719
-616,141,-37.7328,4.25519,-0.0108544,-0.00117643,-0.00029614,-0.00116738,-0.0108635,-1.54024,0.00688625,0.0144177,608,883,-37.7329,-4.2552
-609,141,-37.8356,3.66309,-0.00695069,0.000565437,0.00174482,0.000950735,-0.00733598,1.35346,0.00523642,0.0142689,615,883,-37.8356,-3.66308
-602,141,-37.8724,3.07135,-0.00479955,0.00100404,0.00331492,0.00250782,-0.00630334,1.14492,0.00524209,0.0158822,622,883,-37.8724,-3.07137
-595,141,-37.8537,2.45654,-0.00398937,0.000552857,0.004315,0.00315793,-0.00659444,1.02764,0.00574588,0.0166275,629,883,-37.8537,-2.45654
-588,141,-38.2162,1.82288,-0.00334469,-5.79664e-05,0.00463447,0.00321588,-0.00661854,0.95578,0.00579008,0.0326197,636,883,-38.2162,-1.82286
-581,141,-38.1574,1.26752,-0.00318457,-0.000341158,0.00443662,0.00289598,-0.00642171,0.940453,0.00550645,0.043501,643,883,-38.1574,-1.2675
-574,141,-37.7935,0.821716,0,0,0,0,0,0,0,-1,650,883,-37.7935,-0.821704
-567,141,-30.5335,0.480103,0,0,0,0,0,0,0,-1,657,883,-30.5335,-0.480081
-560,141,-30.5542,0.23175,0,0,0,0,0,0,0,-1,664,883,-30.5542,-0.231742
-553,141,-32.0876,1.39459,0,0,0,0,0,0,0,-1,671,883,-32.0876,-1.3946
-546,141,-45.0483,0.754517,0,0,0,0,0,0,0,-1,678,883,-45.0483,-0.754513
-539,141,-44.9612,0.828247,-0.000486153,-0.00133799,0.00324755,0.00236329,-0.00418744,0.720195,0.00383063,0.0287378,685,883,-44.9612,-0.828265
-532,141,-45.0143,0.865417,0.000669212,-0.00104206,0.00257003,0.00252229,-0.00289514,0.624705,0.00313023,0.0278747,692,883,-45.0143,-0.865425
-525,141,-45.0433,0.90155,0.00172016,-0.00100316,0.00170588,0.00254119,-0.00182419,0.448572,0.00253166,0.0361754,699,883,-45.0434,-0.901558
-518,141,-45.0333,0.972656,0.0024155,-0.000307695,0.000775089,0.00262066,-0.000512849,0.258751,0.00194077,0.0414776,706,883,-45.0332,-0.972629
-511,141,-45.0361,0.987671,0.00435088,0.00141149,0.000149691,0.00435849,0.00140388,0.0507506,0.00256892,0.0411921,713,883,-45.0361,-0.987677
-504,141,-44.8964,1.02203,0.00787241,0.00354784,-0.000730616,0.00799251,0.00342774,-0.162923,0.00463002,0.045377,720,883,-44.8964,-1.02204
-497,141,0,0,0,0,0,0,0,0,0,-1,727,883,0,0
-490,141,0,0,0,0,0,0,0,0,0,-1,734,883,0,0
-483,141,0,0,0,0,0,0,0,0,0,-1,741,883,0,0
-476,141,0,0,0,0,0,0,0,0,0,-1,748,883,0,0
-469,141,0,0,0,0,0,0,0,0,0,-1,755,883,0,0
-462,141,0,0,0,0,0,0,0,0,0,-1,762,883,0,0
-455,141,0,0,0,0,0,0,0,0,0,-1,769,883,0,0
-448,141,0,0,0,0,0,0,0,0,0,-1,776,883,0,0
-441,141,0,0,0,0,0,0,0,0,0,-1,783,883,0,0
-434,141,0,0,0,0,0,0,0,0,0,-1,790,883,0,0
-427,141,0,0,0,0,0,0,0,0,0,-1,797,883,0,0
-420,141,0,0,0,0,0,0,0,0,0,-1,804,883,0,0
-413,141,0,0,0,0,0,0,0,0,0,-1,811,883,0,0
-406,141,0,0,0,0,0,0,0,0,0,-1,818,883,0,0
-399,141,0,0,0,0,0,0,0,0,0,-1,825,883,0,0
-392,141,0,0,0,0,0,0,0,0,0,-1,832,883,0,0
-385,141,0,0,0,0,0,0,0,0,0,-1,839,883,0,0
-378,141,0,0,0,0,0,0,0,0,0,-1,846,883,0,0
-371,141,0,0,0,0,0,0,0,0,0,-1,853,883,0,0
-364,141,0,0,0,0,0,0,0,0,0,-1,860,883,0,0
-357,141,0,0,0,0,0,0,0,0,0,-1,867,883,0,0
-350,141,0,0,0,0,0,0,0,0,0,-1,874,883,0,0
-343,141,0,0,0,0,0,0,0,0,0,-1,881,883,0,0
-336,141,0,0,0,0,0,0,0,0,0,-1,888,883,0,0
-329,141,0,0,0,0,0,0,0,0,0,-1,895,883,0,0
-322,141,0,0,0,0,0,0,0,0,0,-1,902,883,0,0
-315,141,0,0,0,0,0,0,0,0,0,-1,909,883,0,0
-308,141,0,0,0,0,0,0,0,0,0,-1,916,883,0,0
-301,141,0,0,0,0,0,0,0,0,0,-1,923,883,0,0
-294,141,0,0,0,0,0,0,0,0,0,-1,930,883,0,0
-287,141,0,0,0,0,0,0,0,0,0,-1,937,883,0,0
-280,141,0,0,0,0,0,0,0,0,0,-1,944,883,0,0
-273,141,0,0,0,0,0,0,0,0,0,-1,951,883,0,0
-266,141,0,0,0,0,0,0,0,0,0,-1,958,883,0,0
-259,141,0,0,0,0,0,0,0,0,0,-1,965,883,0,0
-252,141,0,0,0,0,0,0,0,0,0,-1,972,883,0,0
-245,141,0,0,0,0,0,0,0,0,0,-1,979,883,0,0
-238,141,0,0,0,0,0,0,0,0,0,-1,986,883,0,0
-231,141,0,0,0,0,0,0,0,0,0,-1,993,883,0,0
-224,141,0,0,0,0,0,0,0,0,0,-1,1000,883,0,0
-217,141,0,0,0,0,0,0,0,0,0,-1,1007,883,0,0
-210,141,0,0,0,0,0,0,0,0,0,-1,1014,883,0,0
-203,141,0,0,0,0,0,0,0,0,0,-1,1021,883,0,0
-196,141,0,0,0,0,0,0,0,0,0,-1,1028,883,0,0
-189,141,0,0,0,0,0,0,0,0,0,-1,1035,883,0,0
-182,141,0,0,0,0,0,0,0,0,0,-1,1042,883,0,0
-175,141,0,0,0,0,0,0,0,0,0,-1,1049,883,0,0
-168,141,0,0,0,0,0,0,0,0,0,-1,1056,883,0,0
-161,141,0,0,0,0,0,0,0,0,0,-1,1063,883,0,0
-154,141,0,0,0,0,0,0,0,0,0,-1,1070,883,0,0
-147,141,0,0,0,0,0,0,0,0,0,-1,1077,883,0,0
-140,141,0,0,0,0,0,0,0,0,0,-1,1084,883,0,0
-133,141,0,0,0,0,0,0,0,0,0,-1,1091,883,0,0
-126,141,0,0,0,0,0,0,0,0,0,-1,1098,883,0,0
-119,141,0,0,0,0,0,0,0,0,0,-1,1105,883,0,0
-112,141,0,0,0,0,0,0,0,0,0,-1,1112,883,0,0
-105,141,0,0,0,0,0,0,0,0,0,-1,1119,883,0,0
-98,141,0,0,0,0,0,0,0,0,0,-1,1126,883,0,0
-91,141,0,0,0,0,0,0,0,0,0,-1,1133,883,0,0
-84,141,0,0,0,0,0,0,0,0,0,-1,1140,883,0,0
-77,141,0,0,0,0,0,0,0,0,0,-1,1147,883,0,0
-70,141,0,0,0,0,0,0,0,0,0,-1,1154,883,0,0
-63,141,0,0,0,0,0,0,0,0,0,-1,1161,883,0,0
-56,141,0,0,0,0,0,0,0,0,0,-1,1168,883,0,0
-49,141,0,0,0,0,0,0,0,0,0,-1,1175,883,0,0
-42,141,0,0,0,0,0,0,0,0,0,-1,1182,883,0,0
-35,141,0,0,0,0,0,0,0,0,0,-1,1189,883,0,0
-28,141,0,0,0,0,0,0,0,0,0,-1,1196,883,0,0
-21,141,0,0,0,0,0,0,0,0,0,-1,1203,883,0,0
-14,141,0,0,0,0,0,0,0,0,0,-1,1210,883,0,0
-7,141,0,0,0,0,0,0,0,0,0,-1,1217,883,0,0
0,141,0,0,0,0,0,0,0,0,0,-1,1224,883,0,0
7,141,0,0,0,0,0,0,0,0,0,-1,1231,883,0,0
14,141,0,0,0,0,0,0,0,0,0,-1,1238,883,0,0
21,141,0,0,0,0,0,0,0,0,0,-1,1245,883,0,0
28,141,0,0,0,0,0,0,0,0,0,-1,1252,883,0,0
35,141,0,0,0,0,0,0,0,0,0,-1,1259,883,0,0
42,141,0,0,0,0,0,0,0,0,0,-1,1266,883,0,0
49,141,0,0,0,0,0,0,0,0,0,-1,1273,883,0,0
56,141,0,0,0,0,0,0,0,0,0,-1,1280,883,0,0
63,141,0,0,0,0,0,0,0,0,0,-1,1287,883,0,0
70,141,0,0,0,0,0,0,0,0,0,-1,1294,883,0,0
77,141,0,0,0,0,0,0,0,0,0,-1,1301,883,0,0
84,141,0,0,0,0,0,0,0,0,0,-1,1308,883,0,0
91,141,0,0,0,0,0,0,0,0,0,-1,1315,883,0,0
98,141,0,0,0,0,0,0,0,0,0,-1,1322,883,0,0
105,141,0,0,0,0,0,0,0,0,0,-1,1329,883,0,0
112,141,0,0,0,0,0,0,0,0,0,-1,1336,883,0,0
119,141,0,0,0,0,0,0,0,0,0,-1,1343,883,0,0
126,141,0,0,0,0,0,0,0,0,0,-1,1350,883,0,0
133,141,0,0,0,0,0,0,0,0,0,-1,1357,883,0,0
140,141,0,0,0,0,0,0,0,0,0,-1,1364,883,0,0
147,141,0,0,0,0,0,0,0,0,0,-1,1371,883,0,0
154,141,0,0,0,0,0,0,0,0,0,-1,1378,883,0,0
161,141,0,0,0,0,0,0,0,0,0,-1,1385,883,0,0
168,141,0,0,0,0,0,0,0,0,0,-1,1392,883,0,0
175,141,0,0,0,0,0,0,0,0,0,-1,1399,883,0,0
182,141,0,0,0,0,0,0,0,0,0,-1,1406,883,0,0
189,141,0,0,0,0,0,0,0,0,0,-1,1413,883,0,0
196,141,0,0,0,0,0,0,0,0,0,-1,1420,883,0,0
203,141,0,0,0,0,0,0,0,0,0,-1,1427,883,0,0
210,141,0,0,0,0,0,0,0,0,0,-1,1434,883,0,0
217,141,0,0,0,0,0,0,0,0,0,-1,1441,883,0,0
224,141,0,0,0,0,0,0,0,0,0,-1,1448,883,0,0
231,141,0,0,0,0,0,0,0,0,0,-1,1455,883,0,0
238,141,0,0,0,0,0,0,0,0,0,-1,1462,883,0,0
245,141,0,0,0,0,0,0,0,0,0,-1,1469,883,0,0
252,141,0,0,0,0,0,0,0,0,0,-1,1476,883,0,0
259,141,0,0,0,0,0,0,0,0,0,-1,1483,883,0,0
266,141,0,0,0,0,0,0,0,0,0,-1,1490,883,0,0
273,141,0,0,0,0,0,0,0,0,0,-1,1497,883,0,0
280,141,0,0,0,0,0,0,0,0,0,-1,1504,883,0,0
287,141,0,0,0,0,0,0,0,0,0,-1,1511,883,0,0
294,141,0,0,0,0,0,0,0,0,0,-1,1518,883,0,0
301,141,0,0,0,0,0,0,0,0,0,-1,1525,883,0,0
308,141,0,0,0,0,0,0,0,0,0,-1,1532,883,0,0
315,141,0,0,0,0,0,0,0,0,0,-1,1539,883,0,0
322,141,0,0,0,0,0,0,0,0,0,-1,1546,883,0,0
329,141,0,0,0,0,0,0,0,0,0,-1,1553,883,0,0
336,141,0,0,0,0,0,0,0,0,0,-1,1560,883,0,0
343,141,0,0,0,0,0,0,0,0,0,-1,1567,883,0,0
350,141,0,0,0,0,0,0,0,0,0,-1,1574,883,0,0
357,141,0,0,0,0,0,0,0,0,0,-1,1581,883,0,0
364,141,0,0,0,0,0,0,0,0,0,-1,1588,883,0,0
371,141,0,0,0,0,0,0,0,0,0,-1,1595,883,0,0
378,141,0,0,0,0,0,0,0,0,0,-1,1602,883,0,0
385,141,0,0,0,0,0,0,0,0,0,-1,1609,883,0,0
392,141,0,0,0,0,0,0,0,0,0,-1,1616,883,0,0
399,141,0,0,0,0,0,0,0,0,0,-1,1623,883,0,0
406,141,0,0,0,0,0,0,0,0,0,-1,1630,883,0,0
413,141,0,0,0,0,0,0,0,0,0,-1,1637,883,0,0
420,141,0,0,0,0,0,0,0,0,0,-1,1644,883,0,0
427,141,0,0,0,0,0,0,0,0,0,-1,1651,883,0,0
434,141,0,0,0,0,0,0,0,0,0,-1,1658,883,0,0
441,141,0,0,0,0,0,0,0,0,0,-1,1665,883,0,0
448,141,0,0,0,0,0,0,0,0,0,-1,1672,883,0,0
455,141,0,0,0,0,0,0,0,0,0,-1,1679,883,0,0
462,141,0,0,0,0,0,0,0,0,0,-1,1686,883,0,0
469,141,0,0,0,0,0,0,0,0,0,-1,1693,883,0,0
476,141,0,0,0,0,0,0,0,0,0,-1,1700,883,0,0
483,141,0,0,0,0,0,0,0,0,0,-1,1707,883,0,0
490,141,0,0,0,0,0,0,0,0,0,-1,1714,883,0,0
497,141,0,0,0,0,0,0,0,0,0,-1,1721,883,0,0
504,141,0,0,0,0,0,0,0,0,0,-1,1728,883,0,0
511,141,0,0,0,0,0,0,0,0,0,-1,1735,883,0,0
518,141,0,0,0,0,0,0,0,0,0,-1,1742,883,0,0
525,141,0,0,0,0,0,0,0,0,0,-1,1749,883,0,0
532,141,0,0,0,0,0,0,0,0,0,-1,1756,883,0,0
539,141,0,0,0,0,0,0,0,0,0,-1,1763,883,0,0
546,141,0,0,0,0,0,0,0,0,0,-1,1770,883,0,0
553,141,0,0,0,0,0,0,0,0,0,-1,1777,883,0,0
560,141,0,0,0,0,0,0,0,0,0,-1,1784,883,0,0
567,141,0,0,0,0,0,0,0,0,0,-1,1791,883,0,0
574,141,0,0,0,0,0,0,0,0,0,-1,1798,883,0,0
581,141,0,0,0,0,0,0,0,0,0,-1,1805,883,0,0
588,141,0,0,0,0,0,0,0,0,0,-1,1812,883,0,0
595,141,0,0,0,0,0,0,0,0,0,-1,1819,883,0,0
602,141,0,0,0,0,0,0,0,0,0,-1,1826,883,0,0
609,141,0,0,0,0,0,0,0,0,0,-1,1833,883,0,0
616,141,0,0,0,0,0,0,0,0,0,-1,1840,883,0,0
623,141,59.1895,2.60999,-0.00310911,0.00484352,0.0069431,0.00886832,-0.00713391,1.04545,0.00925696,0.0449999,1847,883,59.1895,-2.60996
630,141,59.1498,2.70172,-0.00254724,0.00304492,0.00548716,0.00640733,-0.00590965,1.02103,0.00711315,0.045033,1854,883,59.1497,-2.70174
637,141,59.092,2.7807,-0.00194019,0.00183966,0.00415812,0.0045172,-0.00461774,0.998699,0.00527416,0.0426028,1861,883,59.0921,-2.7807
644,141,59.0314,2.73462,-0.00142131,0.000829962,0.00290887,0.00282339,-0.00341474,0.970009,0.00360698,0.0392607,1868,883,59.0314,-2.73462
651,141,59.1833,2.6308,-0.00117814,5.11936e-06,0.00180258,0.00131067,-0.00248369,0.943966,0.0022253,0.0385797,1875,883,59.1833,-2.63078
658,141,59.2373,2.66467,-0.0015067,-0.000528347,0.000850669,-3.62328e-05,-0.00199881,1.04633,0.00132063,0.0372788,1882,883,59.2373,-2.66467
665,141,59.116,2.70935,-0.00202968,-0.00109942,0.000365918,-0.000972741,-0.00215636,1.23751,0.00124696,0.0286336,1889,883,59.116,-2.70938
672,141,59.111,2.73291,-0.00230159,-0.00137609,-4.65722e-05,-0.00137375,-0.00230393,-1.52064,0.00133836,0.0208953,1896,883,59.1109,-2.73293
679,141,59.049,2.80225,-0.00240154,-0.00156288,-0.000363943,-0.00142697,-0.00253745,-1.21339,0.00146879,0.0413537,1903,883,59.049,-2.80226
686,141,58.9596,2.8894,0,0,0,0,0,0,0,-1,1910,883,58.9596,-2.88943
693,141,51.1885,1.7326,0,0,0,0,0,0,0,-1,1917,883,51.1884,-1.73258
700,141,51.1967,2.5498,0,0,0,0,0,0,0,-1,1924,883,51.1966,-2.54983
707,141,51.0187,3.30774,-0.00271652,-0.00146548,-0.00131102,-0.000638394,-0.0035436,-1.00799,0.00218097,0.0356516,1931,883,51.0187,-3.30774
714,141,50.7328,3.76233,-0.00279174,-0.00111246,-0.00137072,-0.000344662,-0.00355954,-1.0602,0.00226689,0.0326003,1938,883,50.7328,-3.76233
721,141,50.6965,4.31378,-0.00276287,-0.000558426,-0.00144612,0.000157637,-0.00347893,-1.11103,0.00237358,0.0185419,1945,883,50.6965,-4.31377
728,141,50.799,4.88934,-0.00244634,0.000125481,-0.00158411,0.000879906,-0.00320077,-1.12633,0.00247974,0.0167745,1952,883,50.7989,-4.88931
735,141,50.7754,5.60504,-0.00172428,0.000862082,-0.00180446,0.0017889,-0.00265109,-1.09631,0.00257949,0.0186307,1959,883,50.7754,-5.60504
742,141,50.6764,6.21899,-0.000588098,0.00199252,-0.00215239,0.00321173,-0.00180731,-1.05542,0.00293531,0.0196036,1966,883,50.6764,-6.21897
749,141,50.6388,6.77466,0.000890182,0.00343524,-0.00280463,0.00524253,-0.000917107,-0.998372,0.00383743,0.0158719,1973,883,50.6387,-6.77463
756,141,50.6289,7.43835,0.00248008,0.00493803,-0.00373604,0.00764204,-0.000223933,-0.944299,0.00517095,0.0229731,1980,883,50.6289,-7.43835
763,141,50.5956,8.18152,0.00409149,0.00707009,-0.00526575,0.0110531,0.000108481,-0.923212,0.00733284,0.0462532,1987,883,50.5956,-8.18154
770,141,50.537,8.87811,0,0,0,0,0,0,0,-1,1994,883,50.537,-8.87814
777,141,50.6152,11.2401,0,0,0,0,0,0,0,-1,2001,883,50.6153,-11.2401
784,141,47.7581,12.4807,0,0,0,0,0,0,0,-1,2008,883,47.7581,-12.4807
791,141,42.5815,7.74707,0,0,0,0,0,0,0,-1,2015,883,42.5815,-7.74706
798,141,0,0,0,0,0,0,0,0,0,-1,2022,883,0,0
805,141,0,0,0,0,0,0,0,0,0,-1,2029,883,0,0
812,141,0,0,0,0,0,0,0,0,0,-1,2036,883,0,0
-700,134,0,0,0,0,0,0,0,0,0,-1,524,890,0,0
-693,134,0,0,0,0,0,0,0,0,0,-1,531,890,0,0
-686,134,0,0,0,0,0,0,0,0,0,-1,538,890,0,0
-679,134,0,0,0,0,0,0,0,0,0,-1,545,890,0,0
-672,134,-40.9723,4.59613,0,0,0,0,0,0,0,-1,552,890,-40.9723,-4.59612
-665,134,-41.1643,3.7749,0,0,0,0,0,0,0,-1,559,890,-41.1643,-3.7749
-658,134,-42.1624,3.07721,-0.0661827,-0.0388972,-0.0224485,-0.026271,-0.0788089,-1.05844,0.0463351,0.0467131,566,890,-42.1623,-3.0772
-651,134,-43.1669,2.3775,0,0,0,0,0,0,0,-1,573,890,-43.1669,-2.37752
-644,134,-44.1289,1.64502,0,0,0,0,0,0,0,-1,580,890,-44.1289,-1.64503
-637,134,-44.0023,1.39087,0,0,0,0,0,0,0,-1,587,890,-44.0023,-1.39087
-630,134,-37.9926,5.284,0,0,0,0,0,0,0,-1,594,890,-37.9926,-5.28401
-623,134,-38.1675,4.80273,-0.0168213,-0.00252459,-0.0027796,-0.00200319,-0.0173427,-1.38537,0.0109553,0.0302655,601,890,-38.1675,-4.80271
-616,134,-38.3911,4.2334,-0.0113883,-0.000148549,-1.63502e-05,-0.000148526,-0.0113884,-1.56934,0.00754322,0.0134191,608,890,-38.3911,-4.23341
-609,134,-38.4942,3.67194,-0.00745395,0.000912184,0.00206972,0.00139621,-0.00793798,1.34106,0.00581355,0.0116886,615,890,-38.4942,-3.67196
-602,134,-38.4992,3.07898,-0.00531749,0.000851332,0.00345682,0.00239976,-0.00686592,1.14966,0.00555283,0.0131091,622,890,-38.4992,-3.07897
-595,134,-38.4048,2.54132,-0.00447341,0.000239295,0.00422959,0.00272462,-0.00695874,1.03954,0.00576609,0.0249519,629,890,-38.4048,-2.54131
-588,134,-38.8989,2.00525,-0.00384365,-0.000388868,0.00440369,0.00261411,-0.00684663,0.972306,0.00564142,0.0406781,636,890,-38.8989,-2.00528
-581,134,-39.0443,1.38623,0,0,0,0,0,0,0,-1,643,890,-39.0443,-1.38621
-574,134,-31.1517,0.757751,0,0,0,0,0,0,0,-1,650,890,-31.1517,-0.757758
-567,134,-30.9003,0.296326,0,0,0,0,0,0,0,-1,657,890,-30.9002,-0.296302
-560,134,-22.9123,0.106567,0,0,0,0,0,0,0,-1,664,890,-22.9123,-0.106594
-553,134,-44.9349,0.83252,0,0,0,0,0,0,0,-1,671,890,-44.9349,-0.832501
-546,134,-45.0032,0.805603,-0.00179939,-0.00142119,0.00314063,0.00153603,-0.00475662,0.815467,0.00378835,0.0330743,678,890,-45.0031,-0.805633
-539,134,-45.0109,0.825745,-0.00126784,-0.00127816,0.00277828,0.00150528,-0.00405128,0.784469,0.00331844,0.0181324,685,890,-45.0109,-0.825731
-532,134,-45.0201,0.872986,-0.000112224,-0.000785672,0.0020323,0.00161105,-0.00250895,0.703301,0.00239744,0.0217092,692,890,-45.0201,-0.872982
-525,134,-45.0852,0.865601,0.000816993,-0.000458722,0.00109503,0.0014464,-0.00108813,0.521671,0.00146817,0.0318205,699,890,-45.0852,-0.865571
-518,134,-45.0775,0.960754,0.00140612,0.000606994,0.000141715,0.00143051,0.000582607,0.170416,0.000830626,0.0389515,706,890,-45.0775,-0.960769
-511,134,-45.0818,1.10846,0.00320928,0.00253955,-0.000450871,0.00343603,0.0023128,-0.465992,0.00202303,0.042385,713,890,-45.0819,-1.10846
-504,134,0,0,0,0,0,0,0,0,0,-1,720,890,0,0
-497,134,0,0,0,0,0,0,0,0,0,-1,727,890,0,0
-490,134,0,0,0,0,0,0,0,0,0,-1,734,890,0,0
-483,134,0,0,0,0,0,0,0,0,0,-1,741,890,0,0
-476,134,0,0,0,0,0,0,0,0,0,-1,748,890,0,0
-469,134,0,0,0,0,0,0,0,0,0,-1,755,890,0,0
-462,134,0,0,0,0,0,0,0,0,0,-1,762,890,0,0
-455,134,0,0,0,0,0,0,0,0,0,-1,769,890,0,0
-448,134,0,0,0,0,0,0,0,0,0,-1,776,890,0,0
-441,134,0,0,0,0,0,0,0,0,0,-1,783,890,0,0
-434,134,0,0,0,0,0,0,0,0,0,-1,790,890,0,0
-427,134,0,0,0,0,0,0,0,0,0,-1,797,890,0,0
-420,134,0,0,0,0,0,0,0,0,0,-1,804,890,0,0
-413,134,0,0,0,0,0,0,0,0,0,-1,811,890,0,0
-406,134,0,0,0,0,0,0,0,0,0,-1,818,890,0,0
-399,134,0,0,0,0,0,0,0,0,0,-1,825,890,0,0
-392,134,0,0,0,0,0,0,0,0,0,-1,832,890,0,0
-385,134,0,0,0,0,0,0,0,0,0,-1,839,890,0,0
-378,134,0,0,0,0,0,0,0,0,0,-1,846,890,0,0
-371,134,0,0,0,0,0,0,0,0,0,-1,853,890,0,0
-364,134,0,0,0,0,0,0,0,0,0,-1,860,890,0,0
-357,134,0,0,0,0,0,0,0,0,0,-1,867,890,0,0
-350,134,0,0,0,0,0,0,0,0,0,-1,874,890,0,0
-343,134,0,0,0,0,0,0,0,0,0,-1,881,890,0,0
-336,134,0,0,0,0,0,0,0,0,0,-1,888,890,0,0
-329,134,0,0,0,0,0,0,0,0,0,-1,895,890,0,0
-322,134,0,0,0,0,0,0,0,0,0,-1,902,890,0,0
-315,134,0,0,0,0,0,0,0,0,0,-1,909,890,0,0
-308,134,0,0,0,0,0,0,0,0,0,-1,916,890,0,0
-301,134,0,0,0,0,0,0,0,0,0,-1,923,890,0,0
-294,134,0,0,0,0,0,0,0,0,0,-1,930,890,0,0
-287,134,0,0,0,0,0,0,0,0,0,-1,937,890,0,0
-280,134,0,0,0,0,0,0,0,0,0,-1,944,890,0,0
-273,134,0,0,0,0,0,0,0,0,0,-1,951,890,0,0
-266,134,0,0,0,0,0,0,0,0,0,-1,958,890,0,0
-259,134,0,0,0,0,0,0,0,0,0,-1,965,890,0,0
-252,134,0,0,0,0,0,0,0,0,0,-1,972,890,0,0
-245,134,0,0,0,0,0,0,0,0,0,-1,979,890,0,0
-238,134,0,0,0,0,0,0,0,0,0,-1,986,890,0,0
-231,134,0,0,0,0,0,0,0,0,0,-1,993,890,0,0
-224,134,0,0,0,0,0,0,0,0,0,-1,1000,890,0,0
-217,134,0,0,0,0,0,0,0,0,0,-1,1007,890,0,0
-210,134,0,0,0,0,0,0,0,0,0,-1,1014,890,0,0
-203,134,0,0,0,0,0,0,0,0,0,-1,1021,890,0,0
-196,134,0,0,0,0,0,0,0,0,0,-1,1028,890,0,0
-189,134,0,0,0,0,0,0,0,0,0,-1,1035,890,0,0
-182,134,0,0,0,0,0,0,0,0,0,-1,1042,890,0,0
-175,134,0,0,0,0,0,0,0,0,0,-1,1049,890,0,0
-168,134,0,0,0,0,0,0,0,0,0,-1,1056,890,0,0
-161,134,0,0,0,0,0,0,0,0,0,-1,1063,890,0,0
-154,134,0,0,0,0,0,0,0,0,0,-1,1070,890,0,0
-147,134,0,0,0,0,0,0,0,0,0,-1,1077,890,0,0
-140,134,0,0,0,0,0,0,0,0,0,-1,1084,890,0,0
-133,134,0,0,0,0,0,0,0,0,0,-1,1091,890,0,0
-126,134,0,0,0,0,0,0,0,0,0,-1,1098,890,0,0
-119,134,0,0,0,0,0,0,0,0,0,-1,1105,890,0,0
-112,134,0,0,0,0,0,0,0,0,0,-1,1112,890,0,0
-105,134,0,0,0,0,0,0,0,0,0,-1,1119,890,0,0
-98,134,0,0,0,0,0,0,0,0,0,-1,1126,890,0,0
-91,134,0,0,0,0,0,0,0,0,0,-1,1133,890,0,0
-84,134,0,0,0,0,0,0,0,0,0,-1,1140,890,0,0
-77,134,0,0,0,0,0,0,0,0,0,-1,1147,890,0,0
-70,134,0,0,0,0,0,0,0,0,0,-1,1154,890,0,0
-63,134,0,0,0,0,0,0,0,0,0,-1,1161,890,0,0
-56,134,0,0,0,0,0,0,0,0,0,-1,1168,890,0,0
-49,134,0,0,0,0,0,0,0,0,0,-1,1175,890,0,0
-42,134,0,0,0,0,0,0,0,0,0,-1,1182,890,0,0
-35,134,0,0,0,0,0,0,0,0,0,-1,1189,890,0,0
-28,134,0,0,0,0,0,0,0,0,0,-1,1196,890,0,0
-21,134,0,0,0,0,0,0,0,0,0,-1,1203,890,0,0
-14,134,0,0,0,0,0,0,0,0,0,-1,1210,890,0,0
-7,134,0,0,0,0,0,0,0,0,0,-1,1217,890,0,0
0,134,0,0,0,0,0,0,0,0,0,-1,1224,890,0,0
7,134,0,0,0,0,0,0,0,0,0,-1,1231,890,0,0
14,134,0,0,0,0,0,0,0,0,0,-1,1238,890,0,0
21,134,0,0,0,0,0,0,0,0,0,-1,1245,890,0,0
28,134,0,0,0,0,0,0,0,0,0,-1,1252,890,0,0
35,134,0,0,0,0,0,0,0,0,0,-1,1259,890,0,0
42,134,0,0,0,0,0,0,0,0,0,-1,1266,890,0,0
49,134,0,0,0,0,0,0,0,0,0,-1,1273,890,0,0
56,134,0,0,0,0,0,0,0,0,0,-1,1280,890,0,0
63,134,0,0,0,0,0,0,0,0,0,-1,1287,890,0,0
70,134,0,0,0,0,0,0,0,0,0,-1,1294,890,0,0
77,134,0,0,0,0,0,0,0,0,0,-1,1301,890,0,0
84,134,0,0,0,0,0,0,0,0,0,-1,1308,890,0,0
91,134,0,0,0,0,0,0,0,0,0,-1,1315,890,0,0
98,134,0,0,0,0,0,0,0,0,0,-1,1322,890,0,0
105,134,0,0,0,0,0,0,0,0,0,-1,1329,890,0,0
112,134,0,0,0,0,0,0,0,0,0,-1,1336,890,0,0
119,134,0,0,0,0,0,0,0,0,0,-1,1343,890,0,0
126,134,0,0,0,0,0,0,0,0,0,-1,1350,890,0,0
133,134,0,0,0,0,0,0,0,0,0,-1,1357,890,0,0
140,134,0,0,0,0,0,0,0,0,0,-1,1364,890,0,0
147,134,0,0,0,0,0,0,0,0,0,-1,1371,890,0,0
154,134,0,0,0,0,0,0,0,0,0,-1,1378,890,0,0
161,134,0,0,0,0,0,0,0,0,0,-1,1385,890,0,0
168,134,0,0,0,0,0,0,0,0,0,-1,1392,890,0,0
175,134,0,0,0,0,0,0,0,0,0,-1,1399,890,0,0
182,134,0,0,0,0,0,0,0,0,0,-1,1406,890,0,0
189,134,0,0,0,0,0,0,0,0,0,-1,1413,890,0,0
196,134,0,0,0,0,0,0,0,0,0,-1,1420,890,0,0
203,134,0,0,0,0,0,0,0,0,0,-1,1427,890,0,0
210,134,0,0,0,0,0,0,0,0,0,-1,1434,890,0,0
217,134,0,0,0,0,0,0,0,0,0,-1,1441,890,0,0
224,134,0,0,0,0,0,0,0,0,0,-1,1448,890,0,0
231,134,0,0,0,0,0,0,0,0,0,-1,1455,890,0,0
238,134,0,0,0,0,0,0,0,0,0,-1,1462,890,0,0
245,134,0,0,0,0,0,0,0,0,0,-1,1469,890,0,0
252,134,0,0,0,0,0,0,0,0,0,-1,1476,890,0,0
259,134,0,0,0,0,0,0,0,0,0,-1,1483,890,0,0
266,134,0,0,0,0,0,0,0,0,0,-1,1490,890,0,0
273,134,0,0,0,0,0,0,0,0,0,-1,1497,890,0,0
280,134,0,0,0,0,0,0,0,0,0,-1,1504,890,0,0
287,134,0,0,0,0,0,0,0,0,0,-1,1511,890,0,0
294,134,0,0,0,0,0,0,0,0,0,-1,1518,890,0,0
301,134,0,0,0,0,0,0,0,0,0,-1,1525,890,0,0
308,134,0,0,0,0,0,0,0,0,0,-1,1532,890,0,0
315,134,0,0,0,0,0,0,0,0,0,-1,1539,890,0,0
322,134,0,0,0,0,0,0,0,0,0,-1,1546,890,0,0
329,134,0,0,0,0,0,0,0,0,0,-1,1553,890,0,0
336,134,0,0,0,0,0,0,0,0,0,-1,1560,890,0,0
343,134,0,0,0,0,0,0,0,0,0,-1,1567,890,0,0
350,134,0,0,0,0,0,0,0,0,0,-1,1574,890,0,0
357,134,0,0,0,0,0,0,0,0,0,-1,1581,890,0,0
364,134,0,0,0,0,0,0,0,0,0,-1,1588,890,0,0
371,134,0,0,0,0,0,0,0,0,0,-1,1595,890,0,0
378,134,0,0,0,0,0,0,0,0,0,-1,1602,890,0,0
385,134,0,0,0,0,0,0,0,0,0,-1,1609,890,0,0
392,134,0,0,0,0,0,0,0,0,0,-1,1616,890,0,0
399,134,0,0,0,0,0,0,0,0,0,-1,1623,890,0,0
406,134,0,0,0,0,0,0,0,0,0,-1,1630,890,0,0
413,134,0,0,0,0,0,0,0,0,0,-1,1637,890,0,0
420,134,0,0,0,0,0,0,0,0,0,-1,1644,890,0,0
427,134,0,0,0,0,0,0,0,0,0,-1,1651,890,0,0
434,134,0,0,0,0,0,0,0,0,0,-1,1658,890,0,0
441,134,0,0,0,0,0,0,0,0,0,-1,1665,890,0,0
448,134,0,0,0,0,0,0,0,0,0,-1,1672,890,0,0
455,134,0,0,0,0,0,0,0,0,0,-1,1679,890,0,0
462,134,0,0,0,0,0,0,0,0,0,-1,1686,890,0,0
469,134,0,0,0,0,0,0,0,0,0,-1,1693,890,0,0
476,134,0,0,0,0,0,0,0,0,0,-1,1700,890,0,0
483,134,0,0,0,0,0,0,0,0,0,-1,1707,890,0,0
490,134,0,0,0,0,0,0,0,0,0,-1,1714,890,0,0
497,134,0,0,0,0,0,0,0,0,0,-1,1721,890,0,0
504,134,0,0,0,0,0,0,0,0,0,-1,1728,890,0,0
511,134,0,0,0,0,0,0,0,0,0,-1,1735,890,0,0
518,134,0,0,0,0,0,0,0,0,0,-1,1742,890,0,0
525,134,0,0,0,0,0,0,0,0,0,-1,1749,890,0,0
532,134,0,0,0,0,0,0,0,0,0,-1,1756,890,0,0
539,134,0,0,0,0,0,0,0,0,0,-1,1763,890,0,0
546,134,0,0,0,0,0,0,0,0,0,-1,1770,890,0,0
553,134,0,0,0,0,0,0,0,0,0,-1,1777,890,0,0
560,134,0,0,0,0,0,0,0,0,0,-1,1784,890,0,0
567,134,0,0,0,0,0,0,0,0,0,-1,1791,890,0,0
574,134,0,0,0,0,0,0,0,0,0,-1,1798,890,0,0
581,134,0,0,0,0,0,0,0,0,0,-1,1805,890,0,0
588,134,0,0,0,0,0,0,0,0,0,-1,1812,890,0,0
595,134,0,0,0,0,0,0,0,0,0,-1,1819,890,0,0
602,134,0,0,0,0,0,0,0,0,0,-1,1826,890,0,0
609,134,0,0,0,0,0,0,0,0,0,-1,1833,890,0,0
616,134,0,0,0,0,0,0,0,0,0,-1,1840,890,0,0
623,134,59.1516,2.50781,-0.00452387,0.00507544,0.00774906,0.00939086,-0.00883929,1.06267,0.0105268,0.0475997,1847,890,59.1516,-2.5078
630,134,59.2283,2.68414,-0.00348249,0.00320813,0.00604197,0.00676909,-0.00704345,1.03823,0.0079752,0.0476439,1854,890,59.2283,-2.68411
637,134,59.0671,2.80042,-0.0025473,0.00195302,0.00456765,0.00479468,-0.00538896,1.01427,0.00588286,0.0450457,1861,890,59.0671,-2.80044
644,134,59.0321,2.85211,-0.0017254,0.000864069,0.00326943,0.0030858,-0.00394713,0.97393,0.0040706,0.0374264,1868,890,59.0321,-2.85211
651,134,59.2288,2.76947,-0.00117711,-3.40957e-05,0.00215625,0.0016251,-0.00283631,0.914943,0.00260725,0.0393452,1875,890,59.2287,-2.76947
658,134,59.171,2.79968,-0.00123511,-0.000619064,0.00121107,0.000322541,-0.00217671,0.909927,0.00156974,0.0397084,1882,890,59.1711,-2.79968
665,134,59.1273,2.63776,-0.0016057,-0.00124864,0.00071482,-0.000690393,-0.00216395,0.907771,0.00127634,0.0337402,1889,890,59.1273,-2.63777
672,134,59.153,2.66388,-0.00188261,-0.00157617,0.000319029,-0.00137548,-0.00208331,1.00927,0.00122321,0.0225648,1896,890,59.1529,-2.66385
679,134,59.1356,2.6817,-0.00202948,-0.00178428,2.62176e-05,-0.00178151,-0.00203225,1.46546,0.00127947,0.0222875,1903,890,59.1356,-2.68169
686,134,59.1001,2.72437,0,0,0,0,0,0,0,-1,1910,890,59.1001,-2.72439
693,134,34.5778,2.48096,0,0,0,0,0,0,0,-1,1917,890,34.5777,-2.48099
700,134,51.4066,2.17096,0,0,0,0,0,0,0,-1,1924,890,51.4066,-2.17098
707,134,51.2032,2.78845,0,0,0,0,0,0,0,-1,1931,890,51.2033,-2.78848
714,134,51.077,3.47064,0,0,0,0,0,0,0,-1,1938,890,51.077,-3.47062
721,134,51.3788,4.21582,-0.00308747,-0.000436553,-0.00108431,-4.95347e-05,-0.00347449,-1.22797,0.00229999,0.0238211,1945,890,51.3788,-4.21583
728,134,51.4547,4.85492,-0.00313604,0.00033464,-0.00123402,0.000728668,-0.00353007,-1.26172,0.00263013,0.0210764,1952,890,51.4547,-4.85489
735,134,51.4335,5.61432,-0.00294675,0.00119969,-0.00141882,0.0016387,-0.00338576,-1.27072,0.00295875,0.0261683,1959,890,51.4335,-5.61432
742,134,51.3588,6.25891,-0.00245847,0.00279438,-0.00173989,0.00331841,-0.00298249,-1.27826,0.00363955,0.0179349,1966,890,51.3588,-6.2589
749,134,51.3342,6.81055,-0.0015455,0.00522431,-0.0024583,0.0060228,-0.00234399,-1.25673,0.00498379,0.0137947,1973,890,51.3343,-6.81052
756,134,51.2893,7.36249,-0.00039876,0.00793313,-0.00341182,0.00915194,-0.00161757,-1.22769,0.00670584,0.0172817,1980,890,51.2893,-7.36248
763,134,51.2743,8.03265,0.00106562,0.0115936,-0.00513397,0.0136826,-0.00102344,-1.18435,0.00948133,0.0375317,1987,890,51.2743,-8.03267
770,134,51.2566,8.7088,0,0,0,0,0,0,0,-1,1994,890,51.2566,-8.7088
777,134,43.6969,5.94574,0,0,0,0,0,0,0,-1,2001,890,43.697,-5.94577
784,134,42.3352,7.4964,0,0,0,0,0,0,0,-1,2008,890,42.3352,-7.49641
791,134,42.2061,9.63593,0,0,0,0,0,0,0,-1,2015,890,42.2061,-9.63591
798,134,0,0,0,0,0,0,0,0,0,-1,2022,890,0,0
805,134,0,0,0,0,0,0,0,0,0,-1,2029,890,0,0
812,134,0,0,0,0,0,0,0,0,0,-1,2036,890,0,0
-700,127,0,0,0,0,0,0,0,0,0,-1,524,897,0,0
-693,127,0,0,0,0,0,0,0,0,0,-1,531,897,0,0
-686,127,0,0,0,0,0,0,0,0,0,-1,538,897,0,0
-679,127,-40.9533,5.45935,0,0,0,0,0,0,0,-1,545,897,-40.9533,-5.45936
-672,127,-41.3356,4.98877,0,0,0,0,0,0,0,-1,552,897,-41.3356,-4.98878
-665,127,-42.2753,4.39288,0,0,0,0,0,0,0,-1,559,897,-42.2753,-4.39289
-658,127,-42.8547,3.3717,0,0,0,0,0,0,0,-1,566,897,-42.8547,-3.3717
-651,127,-43.8073,2.68134,0,0,0,0,0,0,0,-1,573,897,-43.8073,-2.68131
-644,127,-44.5754,2.17377,0,0,0,0,0,0,0,-1,580,897,-44.5754,-2.17376
-637,127,-44.7166,1.10236,0,0,0,0,0,0,0,-1,587,897,-44.7166,-1.10233
-630,127,-38.7926,5.31445,0,0,0,0,0,0,0,-1,594,897,-38.7926,-5.31446
-623,127,-38.958,4.72473,-0.0164964,-0.000956513,-0.00231571,-0.000618773,-0.0168342,-1.42597,0.0110223,0.0180378,601,897,-38.958,-4.72472
-616,127,-39.0411,4.22681,-0.0115042,0.000640979,0.000464185,0.000658694,-0.0115219,1.53265,0.00790998,0.010716,608,897,-39.0411,-4.2268
-609,127,-39.1105,3.67383,-0.00782809,0.00116356,0.00235131,0.0017413,-0.00840584,1.32986,0.00626551,0.0139381,615,897,-39.1105,-3.67383
-602,127,-39.1407,3.11517,-0.00594001,0.000869137,0.00336316,0.00225016,-0.00732104,1.18116,0.00577867,0.0165604,622,897,-39.1407,-3.11519
-595,127,-39.0618,2.599,-0.00521933,0.000266532,0.00388153,0.00227649,-0.00722929,1.09299,0.0057311,0.0319281,629,897,-39.0618,-2.59901
-588,127,-38.9778,2.34192,0,0,0,0,0,0,0,-1,636,897,-38.9779,-2.34189
-581,127,-37.6928,1.24866,0,0,0,0,0,0,0,-1,643,897,-37.6928,-1.24867
-574,127,-25.2603,0.511169,0,0,0,0,0,0,0,-1,650,897,-25.2603,-0.51117
-567,127,-24.5417,-0.0447388,0,0,0,0,0,0,0,-1,657,897,-24.5417,0.0447226
-560,127,-18.9678,1.21667,0,0,0,0,0,0,0,-1,664,897,-18.9677,-1.2167
-553,127,-44.9818,0.817078,0,0,0,0,0,0,0,-1,671,897,-44.9817,-0.817062
-546,127,-44.9986,0.818787,-0.00275603,-0.00111356,0.00244668,0.000646035,-0.00451563,0.947316,0.00324725,0.0229377,678,897,-44.9986,-0.818815
-539,127,-44.9786,0.828796,-0.00227346,-0.000902546,0.0019995,0.000525728,-0.00370173,0.950527,0.00266044,0.0201446,685,897,-44.9786,-0.82882
-532,127,-44.9543,0.872925,-0.00111806,-0.000303211,0.00120961,0.000565747,-0.00198702,0.947843,0.00154811,0.0168523,692,897,-44.9543,-0.872922
-525,127,-45.0897,0.963318,-0.000201872,0.000143307,0.000272559,0.000293325,-0.000351891,1.06764,0.000373027,0.0312973,699,897,-45.0897,-0.963299
-518,127,-45.1177,1.0838,0.000406918,0.00124727,-0.000625927,0.00158097,7.32153e-05,-1.08099,0.00103044,0.0387528,706,897,-45.1177,-1.08377
-511,127,-45.1519,1.29584,0.00195956,0.00307376,-0.00125346,0.00388834,0.00114497,-0.994512,0.0023073,0.0413115,713,897,-45.1519,-1.29583
-504,127,0,0,0,0,0,0,0,0,0,-1,720,897,0,0
-497,127,0,0,0,0,0,0,0,0,0,-1,727,897,0,0
-490,127,0,0,0,0,0,0,0,0,0,-1,734,897,0,0
-483,127,0,0,0,0,0,0,0,0,0,-1,741,897,0,0
-476,127,0,0,0,0,0,0,0,0,0,-1,748,897,0,0
-469,127,0,0,0,0,0,0,0,0,0,-1,755,897,0,0
-462,127,0,0,0,0,0,0,0,0,0,-1,762,897,0,0
-455,127,0,0,0,0,0,0,0,0,0,-1,769,897,0,0
-448,127,0,0,0,0,0,0,0,0,0,-1,776,897,0,0
-441,127,0,0,0,0,0,0,0,0,0,-1,783,897,0,0
-434,127,0,0,0,0,0,0,0,0,0,-1,790,897,0,0
-427,127,0,0,0,0,0,0,0,0,0,-1,797,897,0,0
-420,127,0,0,0,0,0,0,0,0,0,-1,804,897,0,0
-413,127,0,0,0,0,0,0,0,0,0,-1,811,897,0,0
-406,127,0,0,0,0,0,0,0,0,0,-1,818,897,0,0
-399,127,0,0,0,0,0,0,0,0,0,-1,825,897,0,0
-392,127,0,0,0,0,0,0,0,0,0,-1,832,897,0,0
-385,127,0,0,0,0,0,0,0,0,0,-1,839,897,0,0
-378,127,0,0,0,0,0,0,0,0,0,-1,846,897,0,0
-371,127,0,0,0,0,0,0,0,0,0,-1,853,897,0,0
-364,127,0,0,0,0,0,0,0,0,0,-1,860,897,0,0
-357,127,0,0,0,0,0,0,0,0,0,-1,867,897,0,0
-350,127,0,0,0,0,0,0,0,0,0,-1,874,897,0,0
-343,127,0,0,0,0,0,0,0,0,0,-1,881,897,0,0
-336,127,0,0,0,0,0,0,0,0,0,-1,888,897,0,0
-329,127,0,0,0,0,0,0,0,0,0,-1,895,897,0,0
-322,127,0,0,0,0,0,0,0,0,0,-1,902,897,0,0
-315,127,0,0,0,0,0,0,0,0,0,-1,909,897,0,0
-308,127,0,0,0,0,0,0,0,0,0,-1,916,897,0,0
-301,127,0,0,0,0,0,0,0,0,0,-1,923,897,0,0
-294,127,0,0,0,0,0,0,0,0,0,-1,930,897,0,0
-287,127,0,0,0,0,0,0,0,0,0,-1,937,897,0,0
-280,127,0,0,0,0,0,0,0,0,0,-1,944,897,0,0
-273,127,0,0,0,0,0,0,0,0,0,-1,951,897,0,0
-266,127,0,0,0,0,0,0,0,0,0,-1,958,897,0,0
-259,127,0,0,0,0,0,0,0,0,0,-1,965,897,0,0
-252,127,0,0,0,0,0,0,0,0,0,-1,972,897,0,0
-245,127,0,0,0,0,0,0,0,0,0,-1,979,897,0,0
-238,127,0,0,0,0,0,0,0,0,0,-1,986,897,0,0
-231,127,0,0,0,0,0,0,0,0,0,-1,993,897,0,0
-224,127,0,0,0,0,0,0,0,0,0,-1,1000,897,0,0
-217,127,0,0,0,0,0,0,0,0,0,-1,1007,897,0,0
-210,127,0,0,0,0,0,0,0,0,0,-1,1014,897,0,0
-203,127,0,0,0,0,0,0,0,0,0,-1,1021,897,0,0
-196,127,0,0,0,0,0,0,0,0,0,-1,1028,897,0,0
-189,127,0,0,0,0,0,0,0,0,0,-1,1035,897,0,0
-182,127,0,0,0,0,0,0,0,0,0,-1,1042,897,0,0
-175,127,0,0,0,0,0,0,0,0,0,-1,1049,897,0,0
-168,127,0,0,0,0,0,0,0,0,0,-1,1056,897,0,0
-161,127,0,0,0,0,0,0,0,0,0,-1,1063,897,0,0
-154,127,0,0,0,0,0,0,0,0,0,-1,1070,897,0,0
-147,127,0,0,0,0,0,0,0,0,0,-1,1077,897,0,0
-140,127,0,0,0,0,0,0,0,0,0,-1,1084,897,0,0
-133,127,0,0,0,0,0,0,0,0,0,-1,1091,897,0,0
-126,127,0,0,0,0,0,0,0,0,0,-1,1098,897,0,0
-119,127,0,0,0,0,0,0,0,0,0,-1,1105,897,0,0
-112,127,0,0,0,0,0,0,0,0,0,-1,1112,897,0,0
-105,127,0,0,0,0,0,0,0,0,0,-1,1119,897,0,0
-98,127,0,0,0,0,0,0,0,0,0,-1,1126,897,0,0
-91,127,0,0,0,0,0,0,0,0,0,-1,1133,897,0,0
-84,127,0,0,0,0,0,0,0,0,0,-1,1140,897,0,0
-77,127,0,0,0,0,0,0,0,0,0,-1,1147,897,0,0
-70,127,0,0,0,0,0,0,0,0,0,-1,1154,897,0,0
-63,127,0,0,0,0,0,0,0,0,0,-1,1161,897,0,0
-56,127,0,0,0,0,0,0,0,0,0,-1,1168,897,0,0
-49,127,0,0,0,0,0,0,0,0,0,-1,1175,897,0,0
-42,127,0,0,0,0,0,0,0,0,0,-1,1182,897,0,0
-35,127,0,0,0,0,0,0,0,0,0,-1,1189,897,0,0
-28,127,0,0,0,0,0,0,0,0,0,-1,1196,897,0,0
-21,127,0,0,0,0,0,0,0,0,0,-1,1203,897,0,0
-14,127,0,0,0,0,0,0,0,0,0,-1,1210,897,0,0
-7,127,0,0,0,0,0,0,0,0,0,-1,1217,897,0,0
0,127,0,0,0,0,0,0,0,0,0,-1,1224,897,0,0
7,127,0,0,0,0,0,0,0,0,0,-1,1231,897,0,0
14,127,0,0,0,0,0,0,0,0,0,-1,1238,897,0,0
21,127,0,0,0,0,0,0,0,0,0,-1,1245,897,0,0
28,127,0,0,0,0,0,0,0,0,0,-1,1252,897,0,0
35,127,0,0,0,0,0,0,0,0,0,-1,1259,897,0,0
42,127,0,0,0,0,0,0,0,0,0,-1,1266,897,0,0
49,127,0,0,0,0,0,0,0,0,0,-1,1273,897,0,0
56,127,0,0,0,0,0,0,0,0,0,-1,1280,897,0,0
63,127,0,0,0,0,0,0,0,0,0,-1,1287,897,0,0
70,127,0,0,0,0,0,0,0,0,0,-1,1294,897,0,0
77,127,0,0,0,0,0,0,0,0,0,-1,1301,897,0,0
84,127,0,0,0,0,0,0,0,0,0,-1,1308,897,0,0
91,127,0,0,0,0,0,0,0,0,0,-1,1315,897,0,0
98,127,0,0,0,0,0,0,0,0,0,-1,1322,897,0,0
105,127,0,0,0,0,0,0,0,0,0,-1,1329,897,0,0
112,127,0,0,0,0,0,0,0,0,0,-1,1336,897,0,0
119,127,0,0,0,0,0,0,0,0,0,-1,1343,897,0,0
126,127,0,0,0,0,0,0,0,0,0,-1,1350,897,0,0
133,127,0,0,0,0,0,0,0,0,0,-1,1357,897,0,0
140,127,0,0,0,0,0,0,0,0,0,-1,1364,897,0,0
147,127,0,0,0,0,0,0,0,0,0,-1,1371,897,0,0
154,127,0,0,0,0,0,0,0,0,0,-1,1378,897,0,0
161,127,0,0,0,0,0,0,0,0,0,-1,1385,897,0,0
168,127,0,0,0,0,0,0,0,0,0,-1,1392,897,0,0
175,127,0,0,0,0,0,0,0,0,0,-1,1399,897,0,0
182,127,0,0,0,0,0,0,0,0,0,-1,1406,897,0,0
189,127,0,0,0,0,0,0,0,0,0,-1,1413,897,0,0
196,127,0,0,0,0,0,0,0,0,0,-1,1420,897,0,0
203,127,0,0,0,0,0,0,0,0,0,-1,1427,897,0,0
210,127,0,0,0,0,0,0,0,0,0,-1,1434,897,0,0
217,127,0,0,0,0,0,0,0,0,0,-1,1441,897,0,0
224,127,0,0,0,0,0,0,0,0,0,-1,1448,897,0,0
231,127,0,0,0,0,0,0,0,0,0,-1,1455,897,0,0
238,127,0,0,0,0,0,0,0,0,0,-1,1462,897,0,0
245,127,0,0,0,0,0,0,0,0,0,-1,1469,897,0,0
252,127,0,0,0,0,0,0,0,0,0,-1,1476,897,0,0
259,127,0,0,0,0,0,0,0,0,0,-1,1483,897,0,0
266,127,0,0,0,0,0,0,0,0,0,-1,1490,897,0,0
273,127,0,0,0,0,0,0,0,0,0,-1,1497,897,0,0
280,127,0,0,0,0,0,0,0,0,0,-1,1504,897,0,0
287,127,0,0,0,0,0,0,0,0,0,-1,1511,897,0,0
294,127,0,0,0,0,0,0,0,0,0,-1,1518,897,0,0
301,127,0,0,0,0,0,0,0,0,0,-1,1525,897,0,0
308,127,0,0,0,0,0,0,0,0,0,-1,1532,897,0,0
315,127,0,0,0,0,0,0,0,0,0,-1,1539,897,0,0
322,127,0,0,0,0,0,0,0,0,0,-1,1546,897,0,0
329,127,0,0,0,0,0,0,0,0,0,-1,1553,897,0,0
336,127,0,0,0,0,0,0,0,0,0,-1,1560,897,0,0
343,127,0,0,0,0,0,0,0,0,0,-1,1567,897,0,0
350,127,0,0,0,0,0,0,0,0,0,-1,1574,897,0,0
357,127,0,0,0,0,0,0,0,0,0,-1,1581,897,0,0
364,127,0,0,0,0,0,0,0,0,0,-1,1588,897,0,0
371,127,0,0,0,0,0,0,0,0,0,-1,1595,897,0,0
378,127,0,0,0,0,0,0,0,0,0,-1,1602,897,0,0
385,127,0,0,0,0,0,0,0,0,0,-1,1609,897,0,0
392,127,0,0,0,0,0,0,0,0,0,-1,1616,897,0,0
399,127,0,0,0,0,0,0,0,0,0,-1,1623,897,0,0
406,127,0,0,0,0,0,0,0,0,0,-1,1630,897,0,0
413,127,0,0,0,0,0,0,0,0,0,-1,1637,897,0,0
420,127,0,0,0,0,0,0,0,0,0,-1,1644,897,0,0
427,127,0,0,0,0,0,0,0,0,0,-1,1651,897,0,0
434,127,0,0,0,0,0,0,0,0,0,-1,1658,897,0,0
441,127,0,0,0,0,0,0,0,0,0,-1,1665,897,0,0
448,127,0,0,0,0,0,0,0,0,0,-1,1672,897,0,0
455,127,0,0,0,0,0,0,0,0,0,-1,1679,897,0,0
462,127,0,0,0,0,0,0,0,0,0,-1,1686,897,0,0
469,127,0,0,0,0,0,0,0,0,0,-1,1693,897,0,0
476,127,0,0,0,0,0,0,0,0,0,-1,1700,897,0,0
483,127,0,0,0,0,0,0,0,0,0,-1,1707,897,0,0
490,127,0,0,0,0,0,0,0,0,0,-1,1714,897,0,0
497,127,0,0,0,0,0,0,0,0,0,-1,1721,897,0,0
504,127,0,0,0,0,0,0,0,0,0,-1,1728,897,0,0
511,127,0,0,0,0,0,0,0,0,0,-1,1735,897,0,0
518,127,0,0,0,0,0,0,0,0,0,-1,1742,897,0,0
525,127,0,0,0,0,0,0,0,0,0,-1,1749,897,0,0
532,127,0,0,0,0,0,0,0,0,0,-1,1756,897,0,0
539,127,0,0,0,0,0,0,0,0,0,-1,1763,897,0,0
546,127,0,0,0,0,0,0,0,0,0,-1,1770,897,0,0
553,127,0,0,0,0,0,0,0,0,0,-1,1777,897,0,0
560,127,0,0,0,0,0,0,0,0,0,-1,1784,897,0,0
567,127,0,0,0,0,0,0,0,0,0,-1,1791,897,0,0
574,127,0,0,0,0,0,0,0,0,0,-1,1798,897,0,0
581,127,0,0,0,0,0,0,0,0,0,-1,1805,897,0,0
588,127,0,0,0,0,0,0,0,0,0,-1,1812,897,0,0
595,127,0,0,0,0,0,0,0,0,0,-1,1819,897,0,0
602,127,0,0,0,0,0,0,0,0,0,-1,1826,897,0,0
609,127,0,0,0,0,0,0,0,0,0,-1,1833,897,0,0
616,127,0,0,0,0,0,0,0,0,0,-1,1840,897,0,0
623,127,0,0,0,0,0,0,0,0,0,-1,1847,897,0,0
630,127,59.0992,2.60657,-0.0042933,0.00343882,0.00598383,0.00669685,-0.00755133,1.07221,0.00823112,0.0431966,1854,897,59.0992,-2.60655
637,127,58.9512,2.659,-0.00318894,0.00206137,0.00450744,0.00465239,-0.00577996,1.04909,0.00603484,0.0390022,1861,897,58.9511,-2.65899
644,127,59.0001,2.93054,-0.00216724,0.000876783,0.00329775,0.0029868,-0.00427726,1.0016,0.00421591,0.0361714,1868,897,59.0002,-2.93055
651,127,59.0913,2.86725,-0.00136455,-5.64066e-05,0.00229142,0.00167247,-0.00309342,0.924423,0.00279206,0.0407865,1875,897,59.0913,-2.86723
658,127,59.0737,2.6861,-0.00110246,-0.000642347,0.00144063,0.00058648,-0.00233128,0.864575,0.00178214,0.0408014,1882,897,59.0737,-2.68608
665,127,59.1017,2.61646,-0.001229,-0.00123175,0.000976575,-0.000253798,-0.00220695,0.784695,0.00139442,0.0378977,1889,897,59.1017,-2.61644
672,127,59.0884,2.5675,-0.00144848,-0.00154553,0.000620684,-0.000874427,-0.00211958,0.74639,0.00122997,0.0336102,1896,897,59.0883,-2.56751
679,127,59.1403,2.65839,-0.00161207,-0.00173104,0.000357377,-0.00130926,-0.00203385,0.702932,0.0011903,0.0250873,1903,897,59.1403,-2.65841
686,127,59.1592,2.61615,-0.00164964,-0.00180472,8.65464e-05,-0.00161098,-0.00184338,0.420116,0.00115924,0.0498997,1910,897,59.1592,-2.61618
693,127,59.2523,2.33673,0,0,0,0,0,0,0,-1,1917,897,59.2524,-2.33674
700,127,51.3696,2.11884,0,0,0,0,0,0,0,-1,1924,897,51.3696,-2.11884
707,127,51.748,2.71863,0,0,0,0,0,0,0,-1,1931,897,51.7481,-2.71861
714,127,52.0682,3.56128,-0.00265824,-0.00085437,-0.000816985,-0.000539362,-0.00297325,-1.20279,0.00182908,0.0244139,1938,897,52.0682,-3.56128
721,127,52.1791,4.36176,-0.00300269,-0.000155308,-0.000939575,0.000126784,-0.00328478,-1.27912,0.00223331,0.0228532,1945,897,52.1791,-4.36173
728,127,52.0822,4.94397,-0.0032012,0.000603655,-0.00113835,0.000918225,-0.00351577,-1.30119,0.00270243,0.0202154,1952,897,52.0821,-4.94396
735,127,52.0487,5.63196,-0.00320371,0.00146954,-0.00142524,0.00186991,-0.00360408,-1.29694,0.00321284,0.0211264,1959,897,52.0488,-5.63197
742,127,52.0189,6.26318,-0.00289667,0.00328169,-0.00190705,0.00382292,-0.0034379,-1.29426,0.004194,0.0205944,1966,897,52.0189,-6.26316
749,127,51.9666,6.80988,-0.0019922,0.00625632,-0.00282586,0.00713156,-0.00286744,-1.27044,0.00594533,0.0140083,1973,897,51.9665,-6.80988
756,127,51.895,7.34772,-0.000676905,0.00971426,-0.00395493,0.0110483,-0.00201091,-1.24548,0.00811926,0.0150451,1980,897,51.8951,-7.34772
763,127,51.8373,7.89868,0.00119071,0.0141643,-0.00586314,0.0164213,-0.00106635,-1.20332,0.0113198,0.0247061,1987,897,51.8373,-7.89866
770,127,51.8295,8.45917,0,0,0,0,0,0,0,-1,1994,897,51.8294,-8.45914
777,127,42.703,5.33789,0,0,0,0,0,0,0,-1,2001,897,42.7031,-5.33791
784,127,42.6145,8.47131,0,0,0,0,0,0,0,-1,2008,897,42.6146,-8.47131
791,127,42.5813,5.51636,0,0,0,0,0,0,0,-1,2015,897,42.5813,-5.51633
798,127,0,0,0,0,0,0,0,0,0,-1,2022,897,0,0
805,127,0,0,0,0,0,0,0,0,0,-1,2029,897,0,0
812,127,0,0,0,0,0,0,0,0,0,-1,2036,897,0,0
-700,120,0,0,0,0,0,0,0,0,0,-1,524,904,0,0
-693,120,0,0,0,0,0,0,0,0,0,-1,531,904,0,0
-686,120,0,0,0,0,0,0,0,0,0,-1,538,904,0,0
-679,120,-41.0841,5.99487,-0.0886553,-0.0588122,-0.0402151,-0.0308396,-0.116628,-0.963047,0.0697819,0.0432216,545,904,-41.0841,-5.99488
-672,120,-41.6924,5.37347,-0.0768196,-0.0450918,-0.0348604,-0.0226555,-0.099256,-0.998929,0.0600604,0.0429836,552,904,-41.6924,-5.37348
-665,120,-42.6136,4.70087,-0.0643992,-0.0322664,-0.0295363,-0.0147096,-0.081956,-1.03449,0.050454,0.0443075,559,904,-42.6136,-4.70085
-658,120,-43.4814,3.79822,-0.0528941,-0.0216432,-0.024141,-0.008512,-0.0660253,-1.07262,0.0414718,0.0477597,566,904,-43.4814,-3.79823
-651,120,-44.356,3.05328,-0.0426335,-0.0133291,-0.0188439,-0.00411129,-0.0518514,-1.11585,0.0332819,0.0481997,573,904,-44.3559,-3.05329
-644,120,-45.0175,2.1684,0,0,0,0,0,0,0,-1,580,904,-45.0175,-2.16837
-637,120,-39.5494,5.6452,0,0,0,0,0,0,0,-1,587,904,-39.5494,-5.64521
-630,120,-39.5373,5.22235,-0.0207623,-0.000667497,-0.00517126,0.000585199,-0.022015,-1.33313,0.0148755,0.031603,594,904,-39.5373,-5.22235
-623,120,-39.6088,4.73126,-0.0157671,0.000751942,-0.00169269,0.000923607,-0.0159387,-1.46973,0.0109467,0.0120903,601,904,-39.6087,-4.73127
-616,120,-39.6611,4.22217,-0.0112883,0.00147592,0.000982802,0.00155115,-0.0113636,1.4944,0.00814216,0.0109173,608,904,-39.6611,-4.22216
-609,120,-39.6896,3.6745,-0.00797603,0.00141916,0.0025952,0.00208835,-0.00864523,1.31843,0.00657117,0.0145283,615,904,-39.6897,-3.67448
-602,120,-39.7183,3.11896,-0.00634422,0.000807763,0.0032643,0.00207361,-0.00761006,1.20086,0.00588758,0.0168146,622,904,-39.7183,-3.11895
-595,120,-39.6226,2.64575,-0.00570302,0.000150765,0.00359666,0.00186097,-0.00741323,1.12694,0.00566529,0.0333416,629,904,-39.6226,-2.64573
-588,120,-39.504,1.91919,-0.00522499,-0.00030224,0.00357671,0.00157818,-0.00710541,1.08677,0.00534129,0.0456644,636,904,-39.504,-1.91921
-581,120,-39.0931,1.02002,0,0,0,0,0,0,0,-1,643,904,-39.0931,-1.02004
-574,120,-27.5438,0.505066,0,0,0,0,0,0,0,-1,650,904,-27.5438,-0.505085
-567,120,-25.2822,-0.410645,0,0,0,0,0,0,0,-1,657,904,-25.2821,0.410629
-560,120,-27.3358,1.10327,0,0,0,0,0,0,0,-1,664,904,-27.3358,-1.10324
-553,120,-45.0367,0.74762,0,0,0,0,0,0,0,-1,671,904,-45.0367,-0.747639
-546,120,-44.9894,0.880859,-0.00351481,-0.000980561,0.00189758,3.40689e-05,-0.00452944,1.07978,0.00303105,0.0334872,678,904,-44.9894,-0.880844
-539,120,-44.9429,0.866394,-0.0030676,-0.000684628,0.00141336,-2.75421e-05,-0.00372468,1.13561,0.00247399,0.0260747,685,904,-44.9429,-0.866398
-532,120,-44.9599,0.95874,-0.00195999,8.44215e-06,0.000656803,0.000207473,-0.00215902,1.27656,0.00151325,0.028134,692,904,-44.9599,-0.958728
-525,120,-45.0372,1.01825,-0.00112443,0.000528653,-0.000201065,0.000552757,-0.00114853,-1.45148,0.00100212,0.035798,699,904,-45.0372,-1.01828
-518,120,-45.0623,1.10297,-0.000652055,0.00153077,-0.00103245,0.00194174,-0.00106302,-1.19197,0.00175935,0.039538,706,904,-45.0623,-1.10298
-511,120,-44.8831,1.02222,0.000534479,0.00299281,-0.00170407,0.00386476,-0.000337477,-1.09784,0.00269605,0.0413632,713,904,-44.883,-1.0222
-504,120,0,0,0,0,0,0,0,0,0,-1,720,904,0,0
-497,120,0,0,0,0,0,0,0,0,0,-1,727,904,0,0
-490,120,0,0,0,0,0,0,0,0,0,-1,734,904,0,0
-483,120,0,0,0,0,0,0,0,0,0,-1,741,904,0,0
-476,120,0,0,0,0,0,0,0,0,0,-1,748,904,0,0
-469,120,0,0,0,0,0,0,0,0,0,-1,755,904,0,0
-462,120,0,0,0,0,0,0,0,0,0,-1,762,904,0,0
-455,120,0,0,0,0,0,0,0,0,0,-1,769,904,0,0
-448,120,0,0,0,0,0,0,0,0,0,-1,776,904,0,0
-441,120,0,0,0,0,0,0,0,0,0,-1,783,904,0,0
-434,120,0,0,0,0,0,0,0,0,0,-1,790,904,0,0
-427,120,0,0,0,0,0,0,0,0,0,-1,797,904,0,0
-420,120,0,0,0,0,0,0,0,0,0,-1,804,904,0,0
-413,120,0,0,0,0,0,0,0,0,0,-1,811,904,0,0
-406,120,0,0,0,0,0,0,0,0,0,-1,818,904,0,0
-399,120,0,0,0,0,0,0,0,0,0,-1,825,904,0,0
-392,120,0,0,0,0,0,0,0,0,0,-1,832,904,0,0
-385,120,0,0,0,0,0,0,0,0,0,-1,839,904,0,0
-378,120,0,0,0,0,0,0,0,0,0,-1,846,904,0,0
-371,120,0,0,0,0,0,0,0,0,0,-1,853,904,0,0
-364,120,0,0,0,0,0,0,0,0,0,-1,860,904,0,0
-357,120,0,0,0,0,0,0,0,0,0,-1,867,904,0,0
-350,120,0,0,0,0,0,0,0,0,0,-1,874,904,0,0
-343,120,0,0,0,0,0,0,0,0,0,-1,881,904,0,0
-336,120,0,0,0,0,0,0,0,0,0,-1,888,904,0,0
-329,120,0,0,0,0,0,0,0,0,0,-1,895,904,0,0
-322,120,0,0,0,0,0,0,0,0,0,-1,902,904,0,0
-315,120,0,0,0,0,0,0,0,0,0,-1,909,904,0,0
-308,120,0,0,0,0,0,0,0,0,0,-1,916,904,0,0
-301,120,0,0,0,0,0,0,0,0,0,-1,923,904,0,0
-294,120,0,0,0,0,0,0,0,0,0,-1,930,904,0,0
-287,120,0,0,0,0,0,0,0,0,0,-1,937,904,0,0
-280,120,0,0,0,0,0,0,0,0,0,-1,944,904,0,0
-273,120,0,0,0,0,0,0,0,0,0,-1,951,904,0,0
-266,120,0,0,0,0,0,0,0,0,0,-1,958,904,0,0
-259,120,0,0,0,0,0,0,0,0,0,-1,965,904,0,0
-252,120,0,0,0,0,0,0,0,0,0,-1,972,904,0,0
-245,120,0,0,0,0,0,0,0,0,0,-1,979,904,0,0
-238,120,0,0,0,0,0,0,0,0,0,-1,986,904,0,0
-231,120,0,0,0,0,0,0,0,0,0,-1,993,904,0,0
-224,120,0,0,0,0,0,0,0,0,0,-1,1000,904,0,0
-217,120,0,0,0,0,0,0,0,0,0,-1,1007,904,0,0
-210,120,0,0,0,0,0,0,0,0,0,-1,1014,904,0,0
-203,120,0,0,0,0,0,0,0,0,0,-1,1021,904,0,0
-196,120,0,0,0,0,0,0,0,0,0,-1,1028,904,0,0
-189,120,0,0,0,0,0,0,0,0,0,-1,1035,904,0,0
-182,120,0,0,0,0,0,0,0,0,0,-1,1042,904,0,0
-175,120,0,0,0,0,0,0,0,0,0,-1,1049,904,0,0
-168,120,0,0,0,0,0,0,0,0,0,-1,1056,904,0,0
-161,120,0,0,0,0,0,0,0,0,0,-1,1063,904,0,0
-154,120,0,0,0,0,0,0,0,0,0,-1,1070,904,0,0
-147,120,0,0,0,0,0,0,0,0,0,-1,1077,904,0,0
-140,120,0,0,0,0,0,0,0,0,0,-1,1084,904,0,0
-133,120,0,0,0,0,0,0,0,0,0,-1,1091,904,0,0
-126,120,0,0,0,0,0,0,0,0,0,-1,1098,904,0,0
-119,120,0,0,0,0,0,0,0,0,0,-1,1105,904,0,0
-112,120,0,0,0,0,0,0,0,0,0,-1,1112,904,0,0
-105,120,0,0,0,0,0,0,0,0,0,-1,1119,904,0,0
-98,120,0,0,0,0,0,0,0,0,0,-1,1126,904,0,0
-91,120,0,0,0,0,0,0,0,0,0,-1,1133,904,0,0
-84,120,0,0,0,0,0,0,0,0,0,-1,1140,904,0,0
-77,120,0,0,0,0,0,0,0,0,0,-1,1147,904,0,0
-70,120,0,0,0,0,0,0,0,0,0,-1,1154,904,0,0
-63,120,0,0,0,0,0,0,0,0,0,-1,1161,904,0,0
-56,120,0,0,0,0,0,0,0,0,0,-1,1168,904,0,0
-49,120,0,0,0,0,0,0,0,0,0,-1,1175,904,0,0
-42,120,0,0,0,0,0,0,0,0,0,-1,1182,904,0,0
-35,120,0,0,0,0,0,0,0,0,0,-1,1189,904,0,0
-28,120,0,0,0,0,0,0,0,0,0,-1,1196,904,0,0
-21,120,0,0,0,0,0,0,0,0,0,-1,1203,904,0,0
-14,120,0,0,0,0,0,0,0,0,0,-1,1210,904,0,0
-7,120,0,0,0,0,0,0,0,0,0,-1,1217,904,0,0
0,120,0,0,0,0,0,0,0,0,0,-1,1224,904,0,0
7,120,0,0,0,0,0,0,0,0,0,-1,1231,904,0,0
14,120,0,0,0,0,0,0,0,0,0,-1,1238,904,0,0
21,120,0,0,0,0,0,0,0,0,0,-1,1245,904,0,0
28,120,0,0,0,0,0,0,0,0,0,-1,1252,904,0,0
35,120,0,0,0,0,0,0,0,0,0,-1,1259,904,0,0
42,120,0,0,0,0,0,0,0,0,0,-1,1266,904,0,0
49,120,0,0,0,0,0,0,0,0,0,-1,1273,904,0,0
56,120,0,0,0,0,0,0,0,0,0,-1,1280,904,0,0
63,120,0,0,0,0,0,0,0,0,0,-1,1287,904,0,0
70,120,0,0,0,0,0,0,0,0,0,-1,1294,904,0,0
77,120,0,0,0,0,0,0,0,0,0,-1,1301,904,0,0
84,120,0,0,0,0,0,0,0,0,0,-1,1308,904,0,0
91,120,0,0,0,0,0,0,0,0,0,-1,1315,904,0,0
98,120,0,0,0,0,0,0,0,0,0,-1,1322,904,0,0
105,120,0,0,0,0,0,0,0,0,0,-1,1329,904,0,0
112,120,0,0,0,0,0,0,0,0,0,-1,1336,904,0,0
119,120,0,0,0,0,0,0,0,0,0,-1,1343,904,0,0
126,120,0,0,0,0,0,0,0,0,0,-1,1350,904,0,0
133,120,0,0,0,0,0,0,0,0,0,-1,1357,904,0,0
140,120,0,0,0,0,0,0,0,0,0,-1,1364,904,0,0
147,120,0,0,0,0,0,0,0,0,0,-1,1371,904,0,0
154,120,0,0,0,0,0,0,0,0,0,-1,1378,904,0,0
161,120,0,0,0,0,0,0,0,0,0,-1,1385,904,0,0
168,120,0,0,0,0,0,0,0,0,0,-1,1392,904,0,0
175,120,0,0,0,0,0,0,0,0,0,-1,1399,904,0,0
182,120,0,0,0,0,0,0,0,0,0,-1,1406,904,0,0
189,120,0,0,0,0,0,0,0,0,0,-1,1413,904,0,0
196,120,0,0,0,0,0,0,0,0,0,-1,1420,904,0,0
203,120,0,0,0,0,0,0,0,0,0,-1,1427,904,0,0
210,120,0,0,0,0,0,0,0,0,0,-1,1434,904,0,0
217,120,0,0,0,0,0,0,0,0,0,-1,1441,904,0,0
224,120,0,0,0,0,0,0,0,0,0,-1,1448,904,0,0
231,120,0,0,0,0,0,0,0,0,0,-1,1455,904,0,0
238,120,0,0,0,0,0,0,0,0,0,-1,1462,904,0,0
245,120,0,0,0,0,0,0,0,0,0,-1,1469,904,0,0
252,120,0,0,0,0,0,0,0,0,0,-1,1476,904,0,0
259,120,0,0,0,0,0,0,0,0,0,-1,1483,904,0,0
266,120,0,0,0,0,0,0,0,0,0,-1,1490,904,0,0
273,120,0,0,0,0,0,0,0,0,0,-1,1497,904,0,0
280,120,0,0,0,0,0,0,0,0,0,-1,1504,904,0,0
287,120,0,0,0,0,0,0,0,0,0,-1,1511,904,0,0
294,120,0,0,0,0,0,0,0,0,0,-1,1518,904,0,0
301,120,0,0,0,0,0,0,0,0,0,-1,1525,904,0,0
308,120,0,0,0,0,0,0,0,0,0,-1,1532,904,0,0
315,120,0,0,0,0,0,0,0,0,0,-1,1539,904,0,0
322,120,0,0,0,0,0,0,0,0,0,-1,1546,904,0,0
329,120,0,0,0,0,0,0,0,0,0,-1,1553,904,0,0
336,120,0,0,0,0,0,0,0,0,0,-1,1560,904,0,0
343,120,0,0,0,0,0,0,0,0,0,-1,1567,904,0,0
350,120,0,0,0,0,0,0,0,0,0,-1,1574,904,0,0
357,120,0,0,0,0,0,0,0,0,0,-1,1581,904,0,0
364,120,0,0,0,0,0,0,0,0,0,-1,1588,904,0,0
371,120,0,0,0,0,0,0,0,0,0,-1,1595,904,0,0
378,120,0,0,0,0,0,0,0,0,0,-1,1602,904,0,0
385,120,0,0,0,0,0,0,0,0,0,-1,1609,904,0,0
392,120,0,0,0,0,0,0,0,0,0,-1,1616,904,0,0
399,120,0,0,0,0,0,0,0,0,0,-1,1623,904,0,0
406,120,0,0,0,0,0,0,0,0,0,-1,1630,904,0,0
413,120,0,0,0,0,0,0,0,0,0,-1,1637,904,0,0
420,120,0,0,0,0,0,0,0,0,0,-1,1644,904,0,0
427,120,0,0,0,0,0,0,0,0,0,-1,1651,904,0,0
434,120,0,0,0,0,0,0,0,0,0,-1,1658,904,0,0
441,120,0,0,0,0,0,0,0,0,0,-1,1665,904,0,0
448,120,0,0,0,0,0,0,0,0,0,-1,1672,904,0,0
455,120,0,0,0,0,0,0,0,0,0,-1,1679,904,0,0
462,120,0,0,0,0,0,0,0,0,0,-1,1686,904,0,0
469,120,0,0,0,0,0,0,0,0,0,-1,1693,904,0,0
476,120,0,0,0,0,0,0,0,0,0,-1,1700,904,0,0
483,120,0,0,0,0,0,0,0,0,0,-1,1707,904,0,0
490,120,0,0,0,0,0,0,0,0,0,-1,1714,904,0,0
497,120,0,0,0,0,0,0,0,0,0,-1,1721,904,0,0
504,120,0,0,0,0,0,0,0,0,0,-1,1728,904,0,0
511,120,0,0,0,0,0,0,0,0,0,-1,1735,904,0,0
518,120,0,0,0,0,0,0,0,0,0,-1,1742,904,0,0
525,120,0,0,0,0,0,0,0,0,0,-1,1749,904,0,0
532,120,0,0,0,0,0,0,0,0,0,-1,1756,904,0,0
539,120,0,0,0,0,0,0,0,0,0,-1,1763,904,0,0
546,120,0,0,0,0,0,0,0,0,0,-1,1770,904,0,0
553,120,0,0,0,0,0,0,0,0,0,-1,1777,904,0,0
560,120,0,0,0,0,0,0,0,0,0,-1,1784,904,0,0
567,120,0,0,0,0,0,0,0,0,0,-1,1791,904,0,0
574,120,0,0,0,0,0,0,0,0,0,-1,1798,904,0,0
581,120,0,0,0,0,0,0,0,0,0,-1,1805,904,0,0
588,120,0,0,0,0,0,0,0,0,0,-1,1812,904,0,0
595,120,0,0,0,0,0,0,0,0,0,-1,1819,904,0,0
602,120,0,0,0,0,0,0,0,0,0,-1,1826,904,0,0
609,120,0,0,0,0,0,0,0,0,0,-1,1833,904,0,0
616,120,0,0,0,0,0,0,0,0,0,-1,1840,904,0,0
623,120,0,0,0,0,0,0,0,0,0,-1,1847,904,0,0
630,120,59.0731,2.54651,-0.00521496,0.00400537,0.00599565,0.00695837,-0.00816796,1.11315,0.00874249,0.0391663,1854,904,59.0731,-2.54653
637,120,58.9553,2.52716,-0.00396978,0.00248532,0.0044585,0.00476188,-0.00624634,1.09869,0.00637484,0.0391685,1861,904,58.9553,-2.52713
644,120,58.9856,2.86615,-0.00277122,0.00120609,0.00327991,0.00305314,-0.00461826,1.05792,0.0044597,0.0401273,1868,904,58.9856,-2.86617
651,120,59.0682,2.75873,-0.00172906,0.000230183,0.00233947,0.00178685,-0.00328573,0.983675,0.00297097,0.0421035,1875,904,59.0683,-2.75873
658,120,59.0696,2.65381,-0.00111681,-0.000377446,0.00157147,0.000867243,-0.0023615,0.90092,0.00192951,0.0406963,1882,904,59.0696,-2.65379
665,120,59.0975,2.6908,-0.000915441,-0.000934556,0.00113444,0.000209482,-0.00205948,0.781186,0.00144787,0.0373536,1889,904,59.0975,-2.69077
672,120,59.1101,2.56824,-0.00105072,-0.00126762,0.000819596,-0.000332427,-0.00198591,0.719619,0.00122822,0.0366531,1896,904,59.1102,-2.56825
679,120,59.087,2.57983,-0.00122409,-0.00146379,0.000596322,-0.000735692,-0.00195218,0.68623,0.00113843,0.0303193,1903,904,59.087,-2.57983
686,120,59.1162,2.69543,-0.00128131,-0.00154237,0.000329564,-0.00105736,-0.00176631,0.596841,0.00102637,0.0267608,1910,904,59.1162,-2.69544
693,120,59.1405,2.67828,0,0,0,0,0,0,0,-1,1917,904,59.1405,-2.6783
700,120,42.2007,3.00946,0,0,0,0,0,0,0,-1,1924,904,42.2007,-3.00944
707,120,52.645,3.25189,0,0,0,0,0,0,0,-1,1931,904,52.6451,-3.25188
714,120,52.8408,3.92712,-0.00256883,-0.00054953,-0.000712735,-0.000323305,-0.00279505,-1.26345,0.00176549,0.0240691,1938,904,52.8408,-3.9271
721,120,52.8014,4.51886,-0.00304943,0.000147446,-0.000843347,0.000356282,-0.00325826,-1.32805,0.00230015,0.0209188,1945,904,52.8014,-4.51888
728,120,52.7014,5.10309,-0.00337812,0.000868316,-0.00106923,0.00112235,-0.00363215,-1.33754,0.00286967,0.0140252,1952,904,52.7014,-5.10306
735,120,52.6671,5.63013,-0.00354632,0.00169773,-0.00144002,0.00206713,-0.00391573,-1.31968,0.00350874,0.0140623,1959,904,52.6671,-5.63013
742,120,52.6252,6.24091,-0.00341528,0.00362629,-0.00206068,0.00418501,-0.003974,-1.30603,0.00471113,0.0152899,1966,904,52.6252,-6.24091
749,120,52.5892,6.78583,-0.00253028,0.00701174,-0.0031785,0.00797357,-0.00349211,-1.27695,0.00678617,0.0116672,1973,904,52.5892,-6.78584
756,120,52.5151,7.35565,-0.00106594,0.0111035,-0.00452218,0.0125999,-0.00256238,-1.25123,0.00937159,0.0139872,1980,904,52.5151,-7.35564
763,120,52.3994,7.93433,0.00112847,0.016217,-0.0066508,0.0187301,-0.00138455,-1.20953,0.0129729,0.0306125,1987,904,52.3995,-7.93431
770,120,52.3126,8.52496,0,0,0,0,0,0,0,-1,1994,904,52.3126,-8.52498
777,120,41.3512,6.78638,0,0,0,0,0,0,0,-1,2001,904,41.3512,-6.78635
784,120,43.5239,5.77271,0,0,0,0,0,0,0,-1,2008,904,43.524,-5.77269
791,120,41.957,6.00659,0,0,0,0,0,0,0,-1,2015,904,41.957,-6.00662
798,120,42.4553,5.6944,0,0,0,0,0,0,0,-1,2022,904,42.4552,-5.69439
805,120,0,0,0,0,0,0,0,0,0,-1,2029,904,0,0
812,120,0,0,0,0,0,0,0,0,0,-1,2036,904,0,0
-700,113,0,0,0,0,0,0,0,0,0,-1,524,911,0,0
-693,113,0,0,0,0,0,0,0,0,0,-1,531,911,0,0
-686,113,0,0,0,0,0,0,0,0,0,-1,538,911,0,0
-679,113,-41.216,6.56787,-0.057634,-0.0253828,-0.0440574,0.00540736,-0.0884241,-0.960832,0.060832,0.04598,545,911,-41.216,-6.56785
-672,113,-42.035,5.94196,-0.0545414,-0.0200925,-0.0366348,0.00316505,-0.077799,-1.00515,0.0529525,0.0466961,552,911,-42.035,-5.94197
-665,113,-43.0297,5.28802,-0.0483845,-0.0133476,-0.0300131,0.00388571,-0.0656177,-1.04957,0.0450962,0.0463875,559,911,-43.0297,-5.28804
-658,113,-44.069,4.50525,-0.0412698,-0.00718716,-0.0238611,0.00509317,-0.0535501,-1.09549,0.0375132,0.0470097,566,911,-44.069,-4.50527
-651,113,-44.8052,3.29053,-0.0341303,-0.00228928,-0.0181415,0.00592683,-0.0423464,-1.14554,0.0303997,0.0472299,573,911,-44.8052,-3.29051
-644,113,-40.3176,5.96039,0,0,0,0,0,0,0,-1,580,911,-40.3176,-5.96038
-637,113,-40.2806,5.5257,-0.0219537,0.00306317,-0.00837733,0.00560933,-0.0244999,-1.27573,0.0184889,0.0444947,587,911,-40.2806,-5.52572
-630,113,-40.127,5.20709,-0.0178019,0.00345533,-0.00421798,0.0042617,-0.0186082,-1.3819,0.0140433,0.0209332,594,911,-40.127,-5.20712
-623,113,-40.2115,4.70789,-0.0139237,0.00296814,-0.000829598,0.00300878,-0.0139643,-1.52184,0.0104577,0.0122467,601,911,-40.2116,-4.70789
-616,113,-40.2426,4.21143,-0.0103836,0.00251502,0.00159655,0.0027097,-0.0105783,1.44946,0.00810777,0.0110738,608,911,-40.2426,-4.21144
-609,113,-40.2548,3.70447,-0.00778501,0.00167177,0.00284373,0.00246103,-0.00857427,1.30007,0.00668917,0.0119199,615,911,-40.2548,-3.70446
-602,113,-40.2684,3.13458,-0.0065649,0.000757838,0.00315712,0.00193103,-0.0077381,1.21501,0.00590855,0.0189152,622,911,-40.2684,-3.13456
-595,113,-40.2782,2.72516,-0.00609293,5.80294e-05,0.00329222,0.0014878,-0.0075227,1.16109,0.0055776,0.0269301,629,911,-40.2782,-2.72517
-588,113,-40.2193,2.14764,-0.0057184,-0.000333639,0.00316766,0.00113126,-0.0071833,1.13763,0.00520708,0.032716,636,911,-40.2193,-2.14763
-581,113,-40.255,1.59436,-0.00568906,-0.000471702,0.00281394,0.000756734,-0.0069175,1.15918,0.00488349,0.0338352,643,911,-40.255,-1.59433
-574,113,-40.2518,0.863647,0,0,0,0,0,0,0,-1,650,911,-40.2518,-0.86366
-567,113,-21.8396,0.437378,0,0,0,0,0,0,0,-1,657,911,-21.8396,-0.437351
-560,113,-44.9586,0.717834,0,0,0,0,0,0,0,-1,664,911,-44.9585,-0.717828
-553,113,-45.0367,0.752319,-0.00428376,-0.00097139,0.00173047,-0.000232275,-0.00502287,1.16713,0.0032739,0.0449675,671,911,-45.0367,-0.752336
-546,113,-44.9945,0.821167,-0.00412493,-0.00072432,0.00134283,-0.000258008,-0.00459124,1.23656,0.00297855,0.0392959,678,911,-44.9945,-0.821179
-539,113,-44.8986,0.90863,-0.00357769,-0.00025457,0.000891896,-3.0325e-05,-0.00380193,1.32448,0.00252457,0.0382841,685,911,-44.8986,-0.908651
-532,113,-44.9361,0.926636,-0.00229331,0.000597696,0.000303924,0.000629301,-0.00232491,1.46718,0.00179683,0.0384813,692,911,-44.9361,-0.926627
-525,113,-45.0781,0.879456,-0.00113668,0.00130046,-0.000267525,0.00132948,-0.0011657,-1.46274,0.00144163,0.0376904,699,911,-45.0781,-0.879447
-518,113,-45.0925,0.890442,-0.000418657,0.00241588,-0.000877502,0.00266554,-0.000668319,-1.29361,0.00203669,0.04082,706,911,-45.0925,-0.890428
-511,113,-45.0122,0.860596,0.000756093,0.00367842,-0.00156079,0.00435526,7.92528e-05,-1.16162,0.00287745,0.0430572,713,911,-45.0122,-0.86059
-504,113,0,0,0,0,0,0,0,0,0,-1,720,911,0,0
-497,113,0,0,0,0,0,0,0,0,0,-1,727,911,0,0
-490,113,0,0,0,0,0,0,0,0,0,-1,734,911,0,0
-483,113,0,0,0,0,0,0,0,0,0,-1,741,911,0,0
-476,113,0,0,0,0,0,0,0,0,0,-1,748,911,0,0
-469,113,0,0,0,0,0,0,0,0,0,-1,755,911,0,0
-462,113,0,0,0,0,0,0,0,0,0,-1,762,911,0,0
-455,113,0,0,0,0,0,0,0,0,0,-1,769,911,0,0
-448,113,0,0,0,0,0,0,0,0,0,-1,776,911,0,0
-441,113,0,0,0,0,0,0,0,0,0,-1,783,911,0,0
-434,113,0,0,0,0,0,0,0,0,0,-1,790,911,0,0
-427,113,0,0,0,0,0,0,0,0,0,-1,797,911,0,0
-420,113,0,0,0,0,0,0,0,0,0,-1,804,911,0,0
-413,113,0,0,0,0,0,0,0,0,0,-1,811,911,0,0
-406,113,0,0,0,0,0,0,0,0,0,-1,818,911,0,0
-399,113,0,0,0,0,0,0,0,0,0,-1,825,911,0,0
-392,113,0,0,0,0,0,0,0,0,0,-1,832,911,0,0
-385,113,0,0,0,0,0,0,0,0,0,-1,839,911,0,0
-378,113,0,0,0,0,0,0,0,0,0,-1,846,911,0,0
-371,113,0,0,0,0,0,0,0,0,0,-1,853,911,0,0
-364,113,0,0,0,0,0,0,0,0,0,-1,860,911,0,0
-357,113,0,0,0,0,0,0,0,0,0,-1,867,911,0,0
-350,113,0,0,0,0,0,0,0,0,0,-1,874,911,0,0
-343,113,0,0,0,0,0,0,0,0,0,-1,881,911,0,0
-336,113,0,0,0,0,0,0,0,0,0,-1,888,911,0,0
-329,113,0,0,0,0,0,0,0,0,0,-1,895,911,0,0
-322,113,0,0,0,0,0,0,0,0,0,-1,902,911,0,0
-315,113,0,0,0,0,0,0,0,0,0,-1,909,911,0,0
-308,113,0,0,0,0,0,0,0,0,0,-1,916,911,0,0
-301,113,0,0,0,0,0,0,0,0,0,-1,923,911,0,0
-294,113,0,0,0,0,0,0,0,0,0,-1,930,911,0,0
-287,113,0,0,0,0,0,0,0,0,0,-1,937,911,0,0
-280,113,0,0,0,0,0,0,0,0,0,-1,944,911,0,0
-273,113,0,0,0,0,0,0,0,0,0,-1,951,911,0,0
-266,113,0,0,0,0,0,0,0,0,0,-1,958,911,0,0
-259,113,0,0,0,0,0,0,0,0,0,-1,965,911,0,0
-252,113,0,0,0,0,0,0,0,0,0,-1,972,911,0,0
-245,113,0,0,0,0,0,0,0,0,0,-1,979,911,0,0
-238,113,0,0,0,0,0,0,0,0,0,-1,986,911,0,0
-231,113,0,0,0,0,0,0,0,0,0,-1,993,911,0,0
-224,113,0,0,0,0,0,0,0,0,0,-1,1000,911,0,0
-217,113,0,0,0,0,0,0,0,0,0,-1,1007,911,0,0
-210,113,0,0,0,0,0,0,0,0,0,-1,1014,911,0,0
-203,113,0,0,0,0,0,0,0,0,0,-1,1021,911,0,0
-196,113,0,0,0,0,0,0,0,0,0,-1,1028,911,0,0
-189,113,0,0,0,0,0,0,0,0,0,-1,1035,911,0,0
-182,113,0,0,0,0,0,0,0,0,0,-1,1042,911,0,0
-175,113,0,0,0,0,0,0,0,0,0,-1,1049,911,0,0
-168,113,0,0,0,0,0,0,0,0,0,-1,1056,911,0,0
-161,113,0,0,0,0,0,0,0,0,0,-1,1063,911,0,0
-154,113,0,0,0,0,0,0,0,0,0,-1,1070,911,0,0
-147,113,0,0,0,0,0,0,0,0,0,-1,1077,911,0,0
-140,113,0,0,0,0,0,0,0,0,0,-1,1084,911,0,0
-133,113,0,0,0,0,0,0,0,0,0,-1,1091,911,0,0
-126,113,0,0,0,0,0,0,0,0,0,-1,1098,911,0,0
-119,113,0,0,0,0,0,0,0,0,0,-1,1105,911,0,0
-112,113,0,0,0,0,0,0,0,0,0,-1,1112,911,0,0
-105,113,0,0,0,0,0,0,0,0,0,-1,1119,911,0,0
-98,113,0,0,0,0,0,0,0,0,0,-1,1126,911,0,0
-91,113,0,0,0,0,0,0,0,0,0,-1,1133,911,0,0
-84,113,0,0,0,0,0,0,0,0,0,-1,1140,911,0,0
-77,113,0,0,0,0,0,0,0,0,0,-1,1147,911,0,0
-70,113,0,0,0,0,0,0,0,0,0,-1,1154,911,0,0
-63,113,0,0,0,0,0,0,0,0,0,-1,1161,911,0,0
-56,113,0,0,0,0,0,0,0,0,0,-1,1168,911,0,0
-49,113,0,0,0,0,0,0,0,0,0,-1,1175,911,0,0
-42,113,0,0,0,0,0,0,0,0,0,-1,1182,911,0,0
-35,113,0,0,0,0,0,0,0,0,0,-1,1189,911,0,0
-28,113,0,0,0,0,0,0,0,0,0,-1,1196,911,0,0
-21,113,0,0,0,0,0,0,0,0,0,-1,1203,911,0,0
-14,113,0,0,0,0,0,0,0,0,0,-1,1210,911,0,0
-7,113,0,0,0,0,0,0,0,0,0,-1,1217,911,0,0
0,113,0,0,0,0,0,0,0,0,0,-1,1224,911,0,0
7,113,0,0,0,0,0,0,0,0,0,-1,1231,911,0,0
14,113,0,0,0,0,0,0,0,0,0,-1,1238,911,0,0
21,113,0,0,0,0,0,0,0,0,0,-1,1245,911,0,0
28,113,0,0,0,0,0,0,0,0,0,-1,1252,911,0,0
35,113,0,0,0,0,0,0,0,0,0,-1,1259,911,0,0
42,113,0,0,0,0,0,0,0,0,0,-1,1266,911,0,0
49,113,0,0,0,0,0,0,0,0,0,-1,1273,911,0,0
56,113,0,0,0,0,0,0,0,0,0,-1,1280,911,0,0
63,113,0,0,0,0,0,0,0,0,0,-1,1287,911,0,0
70,113,0,0,0,0,0,0,0,0,0,-1,1294,911,0,0
77,113,0,0,0,0,0,0,0,0,0,-1,1301,911,0,0
84,113,0,0,0,0,0,0,0,0,0,-1,1308,911,0,0
91,113,0,0,0,0,0,0,0,0,0,-1,1315,911,0,0
98,113,0,0,0,0,0,0,0,0,0,-1,1322,911,0,0
105,113,0,0,0,0,0,0,0,0,0,-1,1329,911,0,0
112,113,0,0,0,0,0,0,0,0,0,-1,1336,911,0,0
119,113,0,0,0,0,0,0,0,0,0,-1,1343,911,0,0
126,113,0,0,0,0,0,0,0,0,0,-1,1350,911,0,0
133,113,0,0,0,0,0,0,0,0,0,-1,1357,911,0,0
140,113,0,0,0,0,0,0,0,0,0,-1,1364,911,0,0
147,113,0,0,0,0,0,0,0,0,0,-1,1371,911,0,0
154,113,0,0,0,0,0,0,0,0,0,-1,1378,911,0,0
161,113,0,0,0,0,0,0,0,0,0,-1,1385,911,0,0
168,113,0,0,0,0,0,0,0,0,0,-1,1392,911,0,0
175,113,0,0,0,0,0,0,0,0,0,-1,1399,911,0,0
182,113,0,0,0,0,0,0,0,0,0,-1,1406,911,0,0
189,113,0,0,0,0,0,0,0,0,0,-1,1413,911,0,0
196,113,0,0,0,0,0,0,0,0,0,-1,1420,911,0,0
203,113,0,0,0,0,0,0,0,0,0,-1,1427,911,0,0
210,113,0,0,0,0,0,0,0,0,0,-1,1434,911,0,0
217,113,0,0,0,0,0,0,0,0,0,-1,1441,911,0,0
224,113,0,0,0,0,0,0,0,0,0,-1,1448,911,0,0
231,113,0,0,0,0,0,0,0,0,0,-1,1455,911,0,0
238,113,0,0,0,0,0,0,0,0,0,-1,1462,911,0,0
245,113,0,0,0,0,0,0,0,0,0,-1,1469,911,0,0
252,113,0,0,0,0,0,0,0,0,0,-1,1476,911,0,0
259,113,0,0,0,0,0,0,0,0,0,-1,1483,911,0,0
266,113,0,0,0,0,0,0,0,0,0,-1,1490,911,0,0
273,113,0,0,0,0,0,0,0,0,0,-1,1497,911,0,0
280,113,0,0,0,0,0,0,0,0,0,-1,1504,911,0,0
287,113,0,0,0,0,0,0,0,0,0,-1,1511,911,0,0
294,113,0,0,0,0,0,0,0,0,0,-1,1518,911,0,0
301,113,0,0,0,0,0,0,0,0,0,-1,1525,911,0,0
308,113,0,0,0,0,0,0,0,0,0,-1,1532,911,0,0
315,113,0,0,0,0,0,0,0,0,0,-1,1539,911,0,0
322,113,0,0,0,0,0,0,0,0,0,-1,1546,911,0,0
329,113,0,0,0,0,0,0,0,0,0,-1,1553,911,0,0
336,113,0,0,0,0,0,0,0,0,0,-1,1560,911,0,0
343,113,0,0,0,0,0,0,0,0,0,-1,1567,911,0,0
350,113,0,0,0,0,0,0,0,0,0,-1,1574,911,0,0
357,113,0,0,0,0,0,0,0,0,0,-1,1581,911,0,0
364,113,0,0,0,0,0,0,0,0,0,-1,1588,911,0,0
371,113,0,0,0,0,0,0,0,0,0,-1,1595,911,0,0
378,113,0,0,0,0,0,0,0,0,0,-1,1602,911,0,0
385,113,0,0,0,0,0,0,0,0,0,-1,1609,911,0,0
392,113,0,0,0,0,0,0,0,0,0,-1,1616,911,0,0
399,113,0,0,0,0,0,0,0,0,0,-1,1623,911,0,0
406,113,0,0,0,0,0,0,0,0,0,-1,1630,911,0,0
413,113,0,0,0,0,0,0,0,0,0,-1,1637,911,0,0
420,113,0,0,0,0,0,0,0,0,0,-1,1644,911,0,0
427,113,0,0,0,0,0,0,0,0,0,-1,1651,911,0,0
434,113,0,0,0,0,0,0,0,0,0,-1,1658,911,0,0
441,113,0,0,0,0,0,0,0,0,0,-1,1665,911,0,0
448,113,0,0,0,0,0,0,0,0,0,-1,1672,911,0,0
455,113,0,0,0,0,0,0,0,0,0,-1,1679,911,0,0
462,113,0,0,0,0,0,0,0,0,0,-1,1686,911,0,0
469,113,0,0,0,0,0,0,0,0,0,-1,1693,911,0,0
476,113,0,0,0,0,0,0,0,0,0,-1,1700,911,0,0
483,113,0,0,0,0,0,0,0,0,0,-1,1707,911,0,0
490,113,0,0,0,0,0,0,0,0,0,-1,1714,911,0,0
497,113,0,0,0,0,0,0,0,0,0,-1,1721,911,0,0
504,113,0,0,0,0,0,0,0,0,0,-1,1728,911,0,0
511,113,0,0,0,0,0,0,0,0,0,-1,1735,911,0,0
518,113,0,0,0,0,0,0,0,0,0,-1,1742,911,0,0
525,113,0,0,0,0,0,0,0,0,0,-1,1749,911,0,0
532,113,0,0,0,0,0,0,0,0,0,-1,1756,911,0,0
539,113,0,0,0,0,0,0,0,0,0,-1,1763,911,0,0
546,113,0,0,0,0,0,0,0,0,0,-1,1770,911,0,0
553,113,0,0,0,0,0,0,0,0,0,-1,1777,911,0,0
560,113,0,0,0,0,0,0,0,0,0,-1,1784,911,0,0
567,113,0,0,0,0,0,0,0,0,0,-1,1791,911,0,0
574,113,0,0,0,0,0,0,0,0,0,-1,1798,911,0,0
581,113,0,0,0,0,0,0,0,0,0,-1,1805,911,0,0
588,113,0,0,0,0,0,0,0,0,0,-1,1812,911,0,0
595,113,0,0,0,0,0,0,0,0,0,-1,1819,911,0,0
602,113,0,0,0,0,0,0,0,0,0,-1,1826,911,0,0
609,113,0,0,0,0,0,0,0,0,0,-1,1833,911,0,0
616,113,0,0,0,0,0,0,0,0,0,-1,1840,911,0,0
623,113,0,0,0,0,0,0,0,0,0,-1,1847,911,0,0
630,113,59.1812,2.49133,-0.00614484,0.00505309,0.00605666,0.00770225,-0.008794,1.15847,0.00953106,0.0395163,1854,911,59.1812,-2.49133
637,113,59.1273,2.60376,-0.00461698,0.00310079,0.00449072,0.00516285,-0.00667904,1.14033,0.00685557,0.0399262,1861,911,59.1273,-2.60376
644,113,59.1345,2.86902,-0.00325121,0.00158136,0.00332079,0.00327191,-0.00494176,1.09991,0.00477472,0.0413719,1868,911,59.1346,-2.86899
651,113,59.0974,2.84674,-0.00208815,0.000467904,0.0024138,0.00192113,-0.00354138,1.02887,0.00319969,0.0436881,1875,911,59.0974,-2.84675
658,113,58.9257,2.91614,-0.00127452,-0.000255156,0.0017213,0.00103033,-0.00256001,0.929337,0.00213467,0.0424286,1882,911,58.9256,-2.91612
665,113,59.0802,2.80688,-0.000837967,-0.000864615,0.00131845,0.000467225,-0.00216981,0.780345,0.00162483,0.0370375,1889,911,59.0802,-2.80687
672,113,59.0837,2.73029,-0.000895924,-0.00126194,0.00104961,-1.34819e-05,-0.00214438,0.699088,0.00142511,0.0361667,1896,911,59.0837,-2.73028
679,113,59.0264,2.69128,-0.0010667,-0.00150428,0.000872859,-0.000385628,-0.00218535,0.6626,0.00134689,0.0306634,1903,911,59.0263,-2.69128
686,113,59.1328,2.71796,-0.0011198,-0.00160899,0.000614419,-0.00070308,-0.00202571,0.595967,0.00118764,0.0245919,1910,911,59.1329,-2.71796
693,113,59.0549,2.7608,0,0,0,0,0,0,0,-1,1917,911,59.055,-2.7608
700,113,43.897,2.79669,0,0,0,0,0,0,0,-1,1924,911,43.897,-2.79671
707,113,53.2303,3.30438,0,0,0,0,0,0,0,-1,1931,911,53.2304,-3.30438
714,113,53.2786,3.87817,0,0,0,0,0,0,0,-1,1938,911,53.2786,-3.8782
721,113,53.2953,4.55878,0,0,0,0,0,0,0,-1,1945,911,53.2952,-4.55879
728,113,53.3339,5.10968,-0.00342557,0.00103466,-0.00090163,0.00121002,-0.00360093,-1.37869,0.00288968,0.0248924,1952,911,53.3338,-5.1097
735,113,53.274,5.66595,-0.00363086,0.00193544,-0.00136187,0.00225078,-0.0039462,-1.34326,0.00362219,0.0217195,1959,911,53.2741,-5.66597
742,113,53.2045,6.19617,-0.00356053,0.00398586,-0.00211625,0.00453881,-0.00411348,-1.31522,0.00499741,0.0134614,1966,911,53.2044,-6.19618
749,113,53.2145,6.75653,-0.00266573,0.00772361,-0.00342945,0.00875355,-0.00369567,-1.27904,0.00738264,0.00994517,1973,911,53.2145,-6.75653
756,113,53.1262,7.3595,-0.0010813,0.0124009,-0.00498714,0.0140451,-0.00272555,-1.25232,0.0103918,0.0146376,1980,911,53.1262,-7.35953
763,113,52.9601,8.03387,0.0013341,0.0181856,-0.00729017,0.0209016,-0.00138196,-1.21416,0.0144172,0.0331026,1987,911,52.9601,-8.03388
770,113,52.8408,8.71246,0,0,0,0,0,0,0,-1,1994,911,52.8408,-8.71249
777,113,51.8198,8.59198,0,0,0,0,0,0,0,-1,2001,911,51.8198,-8.59196
784,113,42.8354,6.22766,0,0,0,0,0,0,0,-1,2008,911,42.8355,-6.22766
791,113,41.7288,7.26263,0,0,0,0,0,0,0,-1,2015,911,41.7287,-7.26261
798,113,46.2527,8.20587,0,0,0,0,0,0,0,-1,2022,911,46.2528,-8.20587
805,113,0,0,0,0,0,0,0,0,0,-1,2029,911,0,0
812,113,0,0,0,0,0,0,0,0,0,-1,2036,911,0,0
-700,106,0,0,0,0,0,0,0,0,0,-1,524,918,0,0
-693,106,0,0,0,0,0,0,0,0,0,-1,531,918,0,0
-686,106,0,0,0,0,0,0,0,0,0,-1,538,918,0,0
-679,106,-41.5133,11.1434,0,0,0,0,0,0,0,-1,545,918,-41.5133,-11.1435
-672,106,-41.4426,10.0967,0,0,0,0,0,0,0,-1,552,918,-41.4426,-10.0968
-665,106,-43.3292,5.95367,0,0,0,0,0,0,0,-1,559,918,-43.3291,-5.95365
-658,106,-40.614,8.29987,0,0,0,0,0,0,0,-1,566,918,-40.614,-8.29988
-651,106,-39.6506,6.29767,0,0,0,0,0,0,0,-1,573,918,-39.6506,-6.29765
-644,106,-40.007,5.96533,-0.0194095,0.010708,-0.0135038,0.0158759,-0.0245775,-1.20529,0.0235352,0.0468195,580,918,-40.0069,-5.96533
-637,106,-40.3238,5.79327,-0.0160117,0.0096908,-0.00846091,0.012226,-0.0185469,-1.27968,0.0178912,0.0337202,587,918,-40.3238,-5.79326
-630,106,-40.6453,5.2923,-0.0138858,0.00759127,-0.00366768,0.00820033,-0.0144949,-1.40624,0.01327,0.0162163,594,918,-40.6453,-5.29233
-623,106,-40.8029,4.66534,-0.0116162,0.00511263,-2.28687e-05,0.00511266,-0.0116163,-1.56943,0.00989875,0.0166557,601,918,-40.8029,-4.66533
-616,106,-40.8497,4.14587,-0.0091467,0.00359641,0.00204383,0.00391619,-0.00946648,1.41559,0.0079449,0.0166296,608,918,-40.8497,-4.14587
-609,106,-40.8434,3.68036,-0.0073927,0.00212972,0.00288883,0.00293758,-0.00820055,1.29811,0.0066656,0.0126259,615,918,-40.8435,-3.68036
-602,106,-40.8615,3.15997,-0.00663965,0.00101433,0.00287911,0.0019764,-0.00760172,1.24831,0.00583919,0.0202536,622,918,-40.8615,-3.15999
-595,106,-40.9783,2.67609,-0.00638892,0.000295485,0.0028664,0.0013563,-0.00744974,1.21634,0.00547488,0.0257504,629,918,-40.9783,-2.67606
-588,106,-41.0521,2.15405,0,0,0,0,0,0,0,-1,636,918,-41.0521,-2.15405
-581,106,-40.7946,1.52338,0,0,0,0,0,0,0,-1,643,918,-40.7946,-1.52338
-574,106,-40.8489,0.975647,0,0,0,0,0,0,0,-1,650,918,-40.849,-0.975673
-567,106,-41.3706,0.420776,0,0,0,0,0,0,0,-1,657,918,-41.3706,-0.420794
-560,106,-44.938,0.709656,0,0,0,0,0,0,0,-1,664,918,-44.9381,-0.709658
-553,106,-45.0414,0.774292,-0.00504247,-0.000530247,0.00107797,-0.000285947,-0.00528677,1.34793,0.00343317,0.0377027,671,918,-45.0414,-0.774304
-546,106,-44.9128,0.819397,-0.00482162,-0.00016628,0.00071336,-5.94207e-05,-0.00492848,1.42211,0.00326602,0.0403224,678,918,-44.9128,-0.819404
-539,106,-44.7822,1.04144,-0.00408101,0.000450881,0.000322826,0.000473761,-0.00410389,1.50004,0.00290675,0.0408291,685,918,-44.7822,-1.04146
-532,106,-44.806,1.14215,-0.00241954,0.00137008,-7.50225e-05,0.00137156,-0.00242103,-1.55101,0.00221742,0.0405063,692,918,-44.806,-1.14214
-525,106,-45.1541,0.779358,-0.000708152,0.00221414,-0.000433015,0.00227695,-0.000770964,-1.42674,0.00182992,0.0382832,699,918,-45.1541,-0.779362
-518,106,-45.1901,0.784363,0.000347407,0.00355012,-0.000954649,0.00381309,8.44417e-05,-1.302,0.00251438,0.0396274,706,918,-45.19,-0.784364
-511,106,0,0,0,0,0,0,0,0,0,-1,713,918,0,0
-504,106,0,0,0,0,0,0,0,0,0,-1,720,918,0,0
-497,106,0,0,0,0,0,0,0,0,0,-1,727,918,0,0
-490,106,0,0,0,0,0,0,0,0,0,-1,734,918,0,0
-483,106,0,0,0,0,0,0,0,0,0,-1,741,918,0,0
-476,106,0,0,0,0,0,0,0,0,0,-1,748,918,0,0
-469,106,0,0,0,0,0,0,0,0,0,-1,755,918,0,0
-462,106,0,0,0,0,0,0,0,0,0,-1,762,918,0,0
-455,106,0,0,0,0,0,0,0,0,0,-1,769,918,0,0
-448,106,0,0,0,0,0,0,0,0,0,-1,776,918,0,0
-441,106,0,0,0,0,0,0,0,0,0,-1,783,918,0,0
-434,106,0,0,0,0,0,0,0,0,0,-1,790,918,0,0
-427,106,0,0,0,0,0,0,0,0,0,-1,797,918,0,0
-420,106,0,0,0,0,0,0,0,0,0,-1,804,918,0,0
-413,106,0,0,0,0,0,0,0,0,0,-1,811,918,0,0
-406,106,0,0,0,0,0,0,0,0,0,-1,818,918,0,0
-399,106,0,0,0,0,0,0,0,0,0,-1,825,918,0,0
-392,106,0,0,0,0,0,0,0,0,0,-1,832,918,0,0
-385,106,0,0,0,0,0,0,0,0,0,-1,839,918,0,0
-378,106,0,0,0,0,0,0,0,0,0,-1,846,918,0,0
-371,106,0,0,0,0,0,0,0,0,0,-1,853,918,0,0
-364,106,0,0,0,0,0,0,0,0,0,-1,860,918,0,0
-357,106,0,0,0,0,0,0,0,0,0,-1,867,918,0,0
-350,106,0,0,0,0,0,0,0,0,0,-1,874,918,0,0
-343,106,0,0,0,0,0,0,0,0,0,-1,881,918,0,0
-336,106,0,0,0,0,0,0,0,0,0,-1,888,918,0,0
-329,106,0,0,0,0,0,0,0,0,0,-1,895,918,0,0
-322,106,0,0,0,0,0,0,0,0,0,-1,902,918,0,0
-315,106,0,0,0,0,0,0,0,0,0,-1,909,918,0,0
-308,106,0,0,0,0,0,0,0,0,0,-1,916,918,0,0
-301,106,0,0,0,0,0,0,0,0,0,-1,923,918,0,0
-294,106,0,0,0,0,0,0,0,0,0,-1,930,918,0,0
-287,106,0,0,0,0,0,0,0,0,0,-1,937,918,0,0
-280,106,0,0,0,0,0,0,0,0,0,-1,944,918,0,0
-273,106,0,0,0,0,0,0,0,0,0,-1,951,918,0,0
-266,106,0,0,0,0,0,0,0,0,0,-1,958,918,0,0
-259,106,0,0,0,0,0,0,0,0,0,-1,965,918,0,0
-252,106,0,0,0,0,0,0,0,0,0,-1,972,918,0,0
-245,106,0,0,0,0,0,0,0,0,0,-1,979,918,0,0
-238,106,0,0,0,0,0,0,0,0,0,-1,986,918,0,0
-231,106,0,0,0,0,0,0,0,0,0,-1,993,918,0,0
-224,106,0,0,0,0,0,0,0,0,0,-1,1000,918,0,0
-217,106,0,0,0,0,0,0,0,0,0,-1,1007,918,0,0
-210,106,0,0,0,0,0,0,0,0,0,-1,1014,918,0,0
-203,106,0,0,0,0,0,0,0,0,0,-1,1021,918,0,0
-196,106,0,0,0,0,0,0,0,0,0,-1,1028,918,0,0
-189,106,0,0,0,0,0,0,0,0,0,-1,1035,918,0,0
-182,106,0,0,0,0,0,0,0,0,0,-1,1042,918,0,0
-175,106,0,0,0,0,0,0,0,0,0,-1,1049,918,0,0
-168,106,0,0,0,0,0,0,0,0,0,-1,1056,918,0,0
-161,106,0,0,0,0,0,0,0,0,0,-1,1063,918,0,0
-154,106,0,0,0,0,0,0,0,0,0,-1,1070,918,0,0
-147,106,0,0,0,0,0,0,0,0,0,-1,1077,918,0,0
-140,106,0,0,0,0,0,0,0,0,0,-1,1084,918,0,0
-133,106,0,0,0,0,0,0,0,0,0,-1,1091,918,0,0
-126,106,0,0,0,0,0,0,0,0,0,-1,1098,918,0,0
-119,106,0,0,0,0,0,0,0,0,0,-1,1105,918,0,0
-112,106,0,0,0,0,0,0,0,0,0,-1,1112,918,0,0
-105,106,0,0,0,0,0,0,0,0,0,-1,1119,918,0,0
-98,106,0,0,0,0,0,0,0,0,0,-1,1126,918,0,0
-91,106,0,0,0,0,0,0,0,0,0,-1,1133,918,0,0
-84,106,0,0,0,0,0,0,0,0,0,-1,1140,918,0,0
-77,106,0,0,0,0,0,0,0,0,0,-1,1147,918,0,0
-70,106,0,0,0,0,0,0,0,0,0,-1,1154,918,0,0
-63,106,0,0,0,0,0,0,0,0,0,-1,1161,918,0,0
-56,106,0,0,0,0,0,0,0,0,0,-1,1168,918,0,0
-49,106,0,0,0,0,0,0,0,0,0,-1,1175,918,0,0
-42,106,0,0,0,0,0,0,0,0,0,-1,1182,918,0,0
-35,106,0,0,0,0,0,0,0,0,0,-1,1189,918,0,0
-28,106,0,0,0,0,0,0,0,0,0,-1,1196,918,0,0
-21,106,0,0,0,0,0,0,0,0,0,-1,1203,918,0,0
-14,106,0,0,0,0,0,0,0,0,0,-1,1210,918,0,0
-7,106,0,0,0,0,0,0,0,0,0,-1,1217,918,0,0
0,106,0,0,0,0,0,0,0,0,0,-1,1224,918,0,0
7,106,0,0,0,0,0,0,0,0,0,-1,1231,918,0,0
14,106,0,0,0,0,0,0,0,0,0,-1,1238,918,0,0
21,106,0,0,0,0,0,0,0,0,0,-1,1245,918,0,0
28,106,0,0,0,0,0,0,0,0,0,-1,1252,918,0,0
35,106,0,0,0,0,0,0,0,0,0,-1,1259,918,0,0
42,106,0,0,0,0,0,0,0,0,0,-1,1266,918,0,0
49,106,0,0,0,0,0,0,0,0,0,-1,1273,918,0,0
56,106,0,0,0,0,0,0,0,0,0,-1,1280,918,0,0
63,106,0,0,0,0,0,0,0,0,0,-1,1287,918,0,0
70,106,0,0,0,0,0,0,0,0,0,-1,1294,918,0,0
77,106,0,0,0,0,0,0,0,0,0,-1,1301,918,0,0
84,106,0,0,0,0,0,0,0,0,0,-1,1308,918,0,0
91,106,0,0,0,0,0,0,0,0,0,-1,1315,918,0,0
98,106,0,0,0,0,0,0,0,0,0,-1,1322,918,0,0
105,106,0,0,0,0,0,0,0,0,0,-1,1329,918,0,0
112,106,0,0,0,0,0,0,0,0,0,-1,1336,918,0,0
119,106,0,0,0,0,0,0,0,0,0,-1,1343,918,0,0
126,106,0,0,0,0,0,0,0,0,0,-1,1350,918,0,0
133,106,0,0,0,0,0,0,0,0,0,-1,1357,918,0,0
140,106,0,0,0,0,0,0,0,0,0,-1,1364,918,0,0
147,106,0,0,0,0,0,0,0,0,0,-1,1371,918,0,0
154,106,0,0,0,0,0,0,0,0,0,-1,1378,918,0,0
161,106,0,0,0,0,0,0,0,0,0,-1,1385,918,0,0
168,106,0,0,0,0,0,0,0,0,0,-1,1392,918,0,0
175,106,0,0,0,0,0,0,0,0,0,-1,1399,918,0,0
182,106,0,0,0,0,0,0,0,0,0,-1,1406,918,0,0
189,106,0,0,0,0,0,0,0,0,0,-1,1413,918,0,0
196,106,0,0,0,0,0,0,0,0,0,-1,1420,918,0,0
203,106,0,0,0,0,0,0,0,0,0,-1,1427,918,0,0
210,106,0,0,0,0,0,0,0,0,0,-1,1434,918,0,0
217,106,0,0,0,0,0,0,0,0,0,-1,1441,918,0,0
224,106,0,0,0,0,0,0,0,0,0,-1,1448,918,0,0
231,106,0,0,0,0,0,0,0,0,0,-1,1455,918,0,0
238,106,0,0,0,0,0,0,0,0,0,-1,1462,918,0,0
245,106,0,0,0,0,0,0,0,0,0,-1,1469,918,0,0
252,106,0,0,0,0,0,0,0,0,0,-1,1476,918,0,0
259,106,0,0,0,0,0,0,0,0,0,-1,1483,918,0,0
266,106,0,0,0,0,0,0,0,0,0,-1,1490,918,0,0
273,106,0,0,0,0,0,0,0,0,0,-1,1497,918,0,0
280,106,0,0,0,0,0,0,0,0,0,-1,1504,918,0,0
287,106,0,0,0,0,0,0,0,0,0,-1,1511,918,0,0
294,106,0,0,0,0,0,0,0,0,0,-1,1518,918,0,0
301,106,0,0,0,0,0,0,0,0,0,-1,1525,918,0,0
308,106,0,0,0,0,0,0,0,0,0,-1,1532,918,0,0
315,106,0,0,0,0,0,0,0,0,0,-1,1539,918,0,0
322,106,0,0,0,0,0,0,0,0,0,-1,1546,918,0,0
329,106,0,0,0,0,0,0,0,0,0,-1,1553,918,0,0
336,106,0,0,0,0,0,0,0,0,0,-1,1560,918,0,0
343,106,0,0,0,0,0,0,0,0,0,-1,1567,918,0,0
350,106,0,0,0,0,0,0,0,0,0,-1,1574,918,0,0
357,106,0,0,0,0,0,0,0,0,0,-1,1581,918,0,0
364,106,0,0,0,0,0,0,0,0,0,-1,1588,918,0,0
371,106,0,0,0,0,0,0,0,0,0,-1,1595,918,0,0
378,106,0,0,0,0,0,0,0,0,0,-1,1602,918,0,0
385,106,0,0,0,0,0,0,0,0,0,-1,1609,918,0,0
392,106,0,0,0,0,0,0,0,0,0,-1,1616,918,0,0
399,106,0,0,0,0,0,0,0,0,0,-1,1623,918,0,0
406,106,0,0,0,0,0,0,0,0,0,-1,1630,918,0,0
413,106,0,0,0,0,0,0,0,0,0,-1,1637,918,0,0
420,106,0,0,0,0,0,0,0,0,0,-1,1644,918,0,0
427,106,0,0,0,0,0,0,0,0,0,-1,1651,918,0,0
434,106,0,0,0,0,0,0,0,0,0,-1,1658,918,0,0
441,106,0,0,0,0,0,0,0,0,0,-1,1665,918,0,0
448,106,0,0,0,0,0,0,0,0,0,-1,1672,918,0,0
455,106,0,0,0,0,0,0,0,0,0,-1,1679,918,0,0
462,106,0,0,0,0,0,0,0,0,0,-1,1686,918,0,0
469,106,0,0,0,0,0,0,0,0,0,-1,1693,918,0,0
476,106,0,0,0,0,0,0,0,0,0,-1,1700,918,0,0
483,106,0,0,0,0,0,0,0,0,0,-1,1707,918,0,0
490,106,0,0,0,0,0,0,0,0,0,-1,1714,918,0,0
497,106,0,0,0,0,0,0,0,0,0,-1,1721,918,0,0
504,106,0,0,0,0,0,0,0,0,0,-1,1728,918,0,0
511,106,0,0,0,0,0,0,0,0,0,-1,1735,918,0,0
518,106,0,0,0,0,0,0,0,0,0,-1,1742,918,0,0
525,106,0,0,0,0,0,0,0,0,0,-1,1749,918,0,0
532,106,0,0,0,0,0,0,0,0,0,-1,1756,918,0,0
539,106,0,0,0,0,0,0,0,0,0,-1,1763,918,0,0
546,106,0,0,0,0,0,0,0,0,0,-1,1770,918,0,0
553,106,0,0,0,0,0,0,0,0,0,-1,1777,918,0,0
560,106,0,0,0,0,0,0,0,0,0,-1,1784,918,0,0
567,106,0,0,0,0,0,0,0,0,0,-1,1791,918,0,0
574,106,0,0,0,0,0,0,0,0,0,-1,1798,918,0,0
581,106,0,0,0,0,0,0,0,0,0,-1,1805,918,0,0
588,106,0,0,0,0,0,0,0,0,0,-1,1812,918,0,0
595,106,0,0,0,0,0,0,0,0,0,-1,1819,918,0,0
602,106,0,0,0,0,0,0,0,0,0,-1,1826,918,0,0
609,106,0,0,0,0,0,0,0,0,0,-1,1833,918,0,0
616,106,0,0,0,0,0,0,0,0,0,-1,1840,918,0,0
623,106,0,0,0,0,0,0,0,0,0,-1,1847,918,0,0
630,106,59.2164,2.47241,-0.00646877,0.00544094,0.0058173,0.00781082,-0.00883866,1.18394,0.00961869,0.0421724,1854,918,59.2164,-2.47242
637,106,59.1459,2.70837,-0.00482356,0.00334566,0.00432814,0.00521225,-0.00669016,1.16363,0.00688949,0.0415448,1861,918,59.1458,-2.70837
644,106,59.1299,3.01764,-0.00340616,0.00174386,0.00322506,0.0032958,-0.0049581,1.12229,0.0047975,0.0407167,1868,918,59.1299,-3.01763
651,106,59.0695,3.17102,-0.00222939,0.000597394,0.0023947,0.0019647,-0.00359669,1.052,0.00325663,0.0433641,1875,918,59.0694,-3.17101
658,106,58.9474,3.09607,-0.00132784,-0.000151786,0.00181038,0.00116367,-0.0026433,0.942428,0.00225261,0.0436389,1882,918,58.9474,-3.09606
665,106,59.0565,2.94196,-0.000730209,-0.000739262,0.0014772,0.000742474,-0.00221195,0.783866,0.00177467,0.0423183,1889,918,59.0565,-2.94199
672,106,59.0504,2.90405,-0.000721441,-0.00115351,0.00127799,0.000358643,-0.0022336,0.701667,0.00162188,0.0404483,1896,918,59.0504,-2.90402
679,106,59.0216,2.89941,-0.000887954,-0.00143297,0.00115463,2.58889e-05,-0.00234682,0.669512,0.00157324,0.0346297,1903,918,59.0216,-2.89943
686,106,59.127,2.78436,-0.000928766,-0.00155863,0.000906045,-0.00028448,-0.00220292,0.618135,0.00138357,0.0279743,1910,918,59.127,-2.78438
693,106,59.0626,2.75281,-0.00103465,-0.00149096,0.000502887,-0.00071058,-0.00181502,0.572439,0.0010561,0.0355438,1917,918,59.0626,-2.75281
700,106,59.0718,2.78864,0,0,0,0,0,0,0,-1,1924,918,59.0717,-2.78861
707,106,53.7128,3.17902,0,0,0,0,0,0,0,-1,1931,918,53.7128,-3.17904
714,106,53.9565,3.85675,0,0,0,0,0,0,0,-1,1938,918,53.9566,-3.85676
721,106,53.9535,4.50427,-0.00299787,0.000451074,-0.000461838,0.000511847,-0.00305865,-1.43996,0.00222939,0.0314193,1945,918,53.9535,-4.50425
728,106,54.0021,5.14276,-0.00337767,0.00130135,-0.000710093,0.00140674,-0.00348306,-1.42345,0.00290673,0.0310616,1952,918,54.0021,-5.14275
735,106,53.9163,5.69434,-0.00358824,0.00229561,-0.0012691,0.00255767,-0.00385031,-1.36716,0.00372466,0.0270105,1959,918,53.9162,-5.69435
742,106,53.8384,6.18597,-0.00355302,0.00441659,-0.00213856,0.00495418,-0.00409062,-1.32452,0.00522995,0.0135883,1966,918,53.8384,-6.18598
749,106,53.8147,6.73682,-0.00267901,0.00835363,-0.00361173,0.00943081,-0.0037562,-1.28095,0.00784498,0.0105772,1973,918,53.8147,-6.7368
756,106,53.7349,7.2981,-0.00101168,0.0134714,-0.0053701,0.0152453,-0.00278556,-1.25175,0.011208,0.0141717,1980,918,53.7349,-7.29812
763,106,53.6289,7.95044,0.00157741,0.0198192,-0.00784901,0.0227315,-0.00133488,-1.2155,0.0156183,0.0277901,1987,918,53.6289,-7.95046
770,106,53.5288,8.4801,0.00533788,0.0273988,-0.011501,0.032304,0.000432694,-1.16766,0.0213932,0.0486766,1994,918,53.5288,-8.48012
777,106,53.5574,8.94495,0,0,0,0,0,0,0,-1,2001,918,53.5573,-8.94494
784,106,53.5664,10.0748,0,0,0,0,0,0,0,-1,2008,918,53.5663,-10.0749
791,106,52.2163,10.2778,0,0,0,0,0,0,0,-1,2015,918,52.2163,-10.2778
798,106,47.1345,8.55341,0,0,0,0,0,0,0,-1,2022,918,47.1345,-8.55342
805,106,0,0,0,0,0,0,0,0,0,-1,2029,918,0,0
812,106,0,0,0,0,0,0,0,0,0,-1,2036,918,0,0
-700,99,0,0,0,0,0,0,0,0,0,-1,524,925,0,0
-693,99,0,0,0,0,0,0,0,0,0,-1,531,925,0,0
-686,99,0,0,0,0,0,0,0,0,0,-1,538,925,0,0
-679,99,-41.6927,10.8157,-0.00173977,0.0474645,-0.0587231,0.0865308,-0.040806,-0.983766,0.0750813,0.0497648,545,925,-41.6927,-10.8157
-672,99,-41.6368,9.88971,-0.00814264,0.0392709,-0.0461212,0.0674214,-0.0362932,-1.02279,0.060772,0.049085,552,925,-41.6368,-9.88969
-665,99,-41.253,8.7486,0,0,0,0,0,0,0,-1,559,925,-41.253,-8.74862
-658,99,-41.0643,8.00665,0,0,0,0,0,0,0,-1,566,925,-41.0643,-8.00667
-651,99,-40.9772,7.38275,0,0,0,0,0,0,0,-1,573,925,-40.9772,-7.38275
-644,99,-40.9902,6.65741,-0.0114101,0.0202354,-0.0131469,0.0249845,-0.0161592,-1.22415,0.0239358,0.0470483,580,925,-40.9902,-6.65739
-637,99,-40.9954,5.8111,-0.0102729,0.0161986,-0.00789884,0.0183764,-0.0124507,-1.30177,0.0179073,0.032014,587,925,-40.9954,-5.81112
-630,99,-41.2131,5.24481,-0.0100788,0.0115452,-0.00292807,0.0119347,-0.0104683,-1.43856,0.0129436,0.0175411,594,925,-41.2132,-5.24484
-623,99,-41.4056,4.6731,-0.00936542,0.00736454,0.000634921,0.00738861,-0.00938949,1.53292,0.00970977,0.0123976,601,925,-41.4056,-4.67307
-616,99,-41.4243,4.15344,-0.00793077,0.0048297,0.00229779,0.00523086,-0.00833193,1.39796,0.00789841,0.0143049,608,925,-41.4243,-4.15342
-609,99,-41.4197,3.69525,-0.00684448,0.00276882,0.00275044,0.00350012,-0.00757577,1.31093,0.00653739,0.0125356,615,925,-41.4197,-3.69522
-602,99,-41.4147,3.2417,-0.00641098,0.00137915,0.00247376,0.0020983,-0.00713014,1.28788,0.00558581,0.0167487,622,925,-41.4147,-3.24171
-595,99,-41.5196,2.76208,-0.00632547,0.000495803,0.00231265,0.00120594,-0.00703561,1.27287,0.00513976,0.0230294,629,925,-41.5196,-2.76207
-588,99,-41.4914,2.22546,-0.0062214,8.78727e-05,0.00199978,0.00066832,-0.00680185,1.2883,0.00477296,0.026168,636,925,-41.4914,-2.22547
-581,99,-41.5047,1.57971,-0.00625431,-7.96386e-05,0.00161024,0.000315053,-0.006649,1.33042,0.00454133,0.021743,643,925,-41.5047,-1.5797
-574,99,-41.6594,0.966675,0,0,0,0,0,0,0,-1,650,925,-41.6594,-0.966687
-567,99,-44.2938,0.826538,0,0,0,0,0,0,0,-1,657,925,-44.2938,-0.826562
-560,99,-44.8896,0.67865,0,0,0,0,0,0,0,-1,664,925,-44.8897,-0.678647
-553,99,-45.023,0.756714,-0.0054511,-9.48102e-05,0.000297442,-7.83433e-05,-0.00546757,1.51549,0.00361921,0.0390684,671,925,-45.023,-0.756707
-546,99,-45.025,0.787537,-0.00511048,0.000407942,-9.77834e-06,0.000407959,-0.0051105,-1.56902,0.00355081,0.0437316,678,925,-45.025,-0.78752
-539,99,-44.8304,1.39282,0,0,0,0,0,0,0,-1,685,925,-44.8305,-1.3928
-532,99,-44.8453,1.23462,-0.00229779,0.00206948,-0.000488606,0.00212347,-0.00235178,-1.46073,0.00258491,0.0413744,692,925,-44.8453,-1.23461
-525,99,-45.0889,0.877747,-0.000455153,0.00307051,-0.00073203,0.00321645,-0.000601102,-1.374,0.00237022,0.0405111,699,925,-45.0889,-0.877736
-518,99,-45.1263,0.856689,0.000417261,0.00480756,-0.00121302,0.00512042,0.000104404,-1.31838,0.00337935,0.0399592,706,925,-45.1263,-0.856717
-511,99,0,0,0,0,0,0,0,0,0,-1,713,925,0,0
-504,99,0,0,0,0,0,0,0,0,0,-1,720,925,0,0
-497,99,0,0,0,0,0,0,0,0,0,-1,727,925,0,0
-490,99,0,0,0,0,0,0,0,0,0,-1,734,925,0,0
-483,99,0,0,0,0,0,0,0,0,0,-1,741,925,0,0
-476,99,0,0,0,0,0,0,0,0,0,-1,748,925,0,0
-469,99,0,0,0,0,0,0,0,0,0,-1,755,925,0,0
-462,99,0,0,0,0,0,0,0,0,0,-1,762,925,0,0
-455,99,0,0,0,0,0,0,0,0,0,-1,769,925,0,0
-448,99,0,0,0,0,0,0,0,0,0,-1,776,925,0,0
-441,99,0,0,0,0,0,0,0,0,0,-1,783,925,0,0
-434,99,0,0,0,0,0,0,0,0,0,-1,790,925,0,0
-427,99,0,0,0,0,0,0,0,0,0,-1,797,925,0,0
-420,99,0,0,0,0,0,0,0,0,0,-1,804,925,0,0
-413,99,0,0,0,0,0,0,0,0,0,-1,811,925,0,0
-406,99,0,0,0,0,0,0,0,0,0,-1,818,925,0,0
-399,99,0,0,0,0,0,0,0,0,0,-1,825,925,0,0
-392,99,0,0,0,0,0,0,0,0,0,-1,832,925,0,0
-385,99,0,0,0,0,0,0,0,0,0,-1,839,925,0,0
-378,99,0,0,0,0,0,0,0,0,0,-1,846,925,0,0
-371,99,0,0,0,0,0,0,0,0,0,-1,853,925,0,0
-364,99,0,0,0,0,0,0,0,0,0,-1,860,925,0,0
-357,99,0,0,0,0,0,0,0,0,0,-1,867,925,0,0
-350,99,0,0,0,0,0,0,0,0,0,-1,874,925,0,0
-343,99,0,0,0,0,0,0,0,0,0,-1,881,925,0,0
-336,99,0,0,0,0,0,0,0,0,0,-1,888,925,0,0
-329,99,0,0,0,0,0,0,0,0,0,-1,895,925,0,0
-322,99,0,0,0,0,0,0,0,0,0,-1,902,925,0,0
-315,99,0,0,0,0,0,0,0,0,0,-1,909,925,0,0
-308,99,0,0,0,0,0,0,0,0,0,-1,916,925,0,0
-301,99,0,0,0,0,0,0,0,0,0,-1,923,925,0,0
-294,99,0,0,0,0,0,0,0,0,0,-1,930,925,0,0
-287,99,0,0,0,0,0,0,0,0,0,-1,937,925,0,0
-280,99,0,0,0,0,0,0,0,0,0,-1,944,925,0,0
-273,99,0,0,0,0,0,0,0,0,0,-1,951,925,0,0
-266,99,0,0,0,0,0,0,0,0,0,-1,958,925,0,0
-259,99,0,0,0,0,0,0,0,0,0,-1,965,925,0,0
-252,99,0,0,0,0,0,0,0,0,0,-1,972,925,0,0
-245,99,0,0,0,0,0,0,0,0,0,-1,979,925,0,0
-238,99,0,0,0,0,0,0,0,0,0,-1,986,925,0,0
-231,99,0,0,0,0,0,0,0,0,0,-1,993,925,0,0
-224,99,0,0,0,0,0,0,0,0,0,-1,1000,925,0,0
-217,99,0,0,0,0,0,0,0,0,0,-1,1007,925,0,0
-210,99,0,0,0,0,0,0,0,0,0,-1,1014,925,0,0
-203,99,0,0,0,0,0,0,0,0,0,-1,1021,925,0,0
-196,99,0,0,0,0,0,0,0,0,0,-1,1028,925,0,0
-189,99,0,0,0,0,0,0,0,0,0,-1,1035,925,0,0
-182,99,0,0,0,0,0,0,0,0,0,-1,1042,925,0,0
-175,99,0,0,0,0,0,0,0,0,0,-1,1049,925,0,0
-168,99,0,0,0,0,0,0,0,0,0,-1,1056,925,0,0
-161,99,0,0,0,0,0,0,0,0,0,-1,1063,925,0,0
-154,99,0,0,0,0,0,0,0,0,0,-1,1070,925,0,0
-147,99,0,0,0,0,0,0,0,0,0,-1,1077,925,0,0
-140,99,0,0,0,0,0,0,0,0,0,-1,1084,925,0,0
-133,99,0,0,0,0,0,0,0,0,0,-1,1091,925,0,0
-126,99,0,0,0,0,0,0,0,0,0,-1,1098,925,0,0
-119,99,0,0,0,0,0,0,0,0,0,-1,1105,925,0,0
-112,99,0,0,0,0,0,0,0,0,0,-1,1112,925,0,0
-105,99,0,0,0,0,0,0,0,0,0,-1,1119,925,0,0
-98,99,0,0,0,0,0,0,0,0,0,-1,1126,925,0,0
-91,99,0,0,0,0,0,0,0,0,0,-1,1133,925,0,0
-84,99,0,0,0,0,0,0,0,0,0,-1,1140,925,0,0
-77,99,0,0,0,0,0,0,0,0,0,-1,1147,925,0,0
-70,99,0,0,0,0,0,0,0,0,0,-1,1154,925,0,0
-63,99,0,0,0,0,0,0,0,0,0,-1,1161,925,0,0
-56,99,0,0,0,0,0,0,0,0,0,-1,1168,925,0,0
-49,99,0,0,0,0,0,0,0,0,0,-1,1175,925,0,0
-42,99,0,0,0,0,0,0,0,0,0,-1,1182,925,0,0
-35,99,0,0,0,0,0,0,0,0,0,-1,1189,925,0,0
-28,99,0,0,0,0,0,0,0,0,0,-1,1196,925,0,0
-21,99,0,0,0,0,0,0,0,0,0,-1,1203,925,0,0
-14,99,0,0,0,0,0,0,0,0,0,-1,1210,925,0,0
-7,99,0,0,0,0,0,0,0,0,0,-1,1217,925,0,0
0,99,0,0,0,0,0,0,0,0,0,-1,1224,925,0,0
7,99,0,0,0,0,0,0,0,0,0,-1,1231,925,0,0
14,99,0,0,0,0,0,0,0,0,0,-1,1238,925,0,0
21,99,0,0,0,0,0,0,0,0,0,-1,1245,925,0,0
28,99,0,0,0,0,0,0,0,0,0,-1,1252,925,0,0
35,99,0,0,0,0,0,0,0,0,0,-1,1259,925,0,0
42,99,0,0,0,0,0,0,0,0,0,-1,1266,925,0,0
49,99,0,0,0,0,0,0,0,0,0,-1,1273,925,0,0
56,99,0,0,0,0,0,0,0,0,0,-1,1280,925,0,0
63,99,0,0,0,0,0,0,0,0,0,-1,1287,925,0,0
70,99,0,0,0,0,0,0,0,0,0,-1,1294,925,0,0
77,99,0,0,0,0,0,0,0,0,0,-1,1301,925,0,0
84,99,0,0,0,0,0,0,0,0,0,-1,1308,925,0,0
91,99,0,0,0,0,0,0,0,0,0,-1,1315,925,0,0
98,99,0,0,0,0,0,0,0,0,0,-1,1322,925,0,0
105,99,0,0,0,0,0,0,0,0,0,-1,1329,925,0,0
112,99,0,0,0,0,0,0,0,0,0,-1,1336,925,0,0
119,99,0,0,0,0,0,0,0,0,0,-1,1343,925,0,0
126,99,0,0,0,0,0,0,0,0,0,-1,1350,925,0,0
133,99,0,0,0,0,0,0,0,0,0,-1,1357,925,0,0
140,99,0,0,0,0,0,0,0,0,0,-1,1364,925,0,0
147,99,0,0,0,0,0,0,0,0,0,-1,1371,925,0,0
154,99,0,0,0,0,0,0,0,0,0,-1,1378,925,0,0
161,99,0,0,0,0,0,0,0,0,0,-1,1385,925,0,0
168,99,0,0,0,0,0,0,0,0,0,-1,1392,925,0,0
175,99,0,0,0,0,0,0,0,0,0,-1,1399,925,0,0
182,99,0,0,0,0,0,0,0,0,0,-1,1406,925,0,0
189,99,0,0,0,0,0,0,0,0,0,-1,1413,925,0,0
196,99,0,0,0,0,0,0,0,0,0,-1,1420,925,0,0
203,99,0,0,0,0,0,0,0,0,0,-1,1427,925,0,0
210,99,0,0,0,0,0,0,0,0,0,-1,1434,925,0,0
217,99,0,0,0,0,0,0,0,0,0,-1,1441,925,0,0
224,99,0,0,0,0,0,0,0,0,0,-1,1448,925,0,0
231,99,0,0,0,0,0,0,0,0,0,-1,1455,925,0,0
238,99,0,0,0,0,0,0,0,0,0,-1,1462,925,0,0
245,99,0,0,0,0,0,0,0,0,0,-1,1469,925,0,0
252,99,0,0,0,0,0,0,0,0,0,-1,1476,925,0,0
259,99,0,0,0,0,0,0,0,0,0,-1,1483,925,0,0
266,99,0,0,0,0,0,0,0,0,0,-1,1490,925,0,0
273,99,0,0,0,0,0,0,0,0,0,-1,1497,925,0,0
280,99,0,0,0,0,0,0,0,0,0,-1,1504,925,0,0
287,99,0,0,0,0,0,0,0,0,0,-1,1511,925,0,0
294,99,0,0,0,0,0,0,0,0,0,-1,1518,925,0,0
301,99,0,0,0,0,0,0,0,0,0,-1,1525,925,0,0
308,99,0,0,0,0,0,0,0,0,0,-1,1532,925,0,0
315,99,0,0,0,0,0,0,0,0,0,-1,1539,925,0,0
322,99,0,0,0,0,0,0,0,0,0,-1,1546,925,0,0
329,99,0,0,0,0,0,0,0,0,0,-1,1553,925,0,0
336,99,0,0,0,0,0,0,0,0,0,-1,1560,925,0,0
343,99,0,0,0,0,0,0,0,0,0,-1,1567,925,0,0
350,99,0,0,0,0,0,0,0,0,0,-1,1574,925,0,0
357,99,0,0,0,0,0,0,0,0,0,-1,1581,925,0,0
364,99,0,0,0,0,0,0,0,0,0,-1,1588,925,0,0
371,99,0,0,0,0,0,0,0,0,0,-1,1595,925,0,0
378,99,0,0,0,0,0,0,0,0,0,-1,1602,925,0,0
385,99,0,0,0,0,0,0,0,0,0,-1,1609,925,0,0
392,99,0,0,0,0,0,0,0,0,0,-1,1616,925,0,0
399,99,0,0,0,0,0,0,0,0,0,-1,1623,925,0,0
406,99,0,0,0,0,0,0,0,0,0,-1,1630,925,0,0
413,99,0,0,0,0,0,0,0,0,0,-1,1637,925,0,0
420,99,0,0,0,0,0,0,0,0,0,-1,1644,925,0,0
427,99,0,0,0,0,0,0,0,0,0,-1,1651,925,0,0
434,99,0,0,0,0,0,0,0,0,0,-1,1658,925,0,0
441,99,0,0,0,0,0,0,0,0,0,-1,1665,925,0,0
448,99,0,0,0,0,0,0,0,0,0,-1,1672,925,0,0
455,99,0,0,0,0,0,0,0,0,0,-1,1679,925,0,0
462,99,0,0,0,0,0,0,0,0,0,-1,1686,925,0,0
469,99,0,0,0,0,0,0,0,0,0,-1,1693,925,0,0
476,99,0,0,0,0,0,0,0,0,0,-1,1700,925,0,0
483,99,0,0,0,0,0,0,0,0,0,-1,1707,925,0,0
490,99,0,0,0,0,0,0,0,0,0,-1,1714,925,0,0
497,99,0,0,0,0,0,0,0,0,0,-1,1721,925,0,0
504,99,0,0,0,0,0,0,0,0,0,-1,1728,925,0,0
511,99,0,0,0,0,0,0,0,0,0,-1,1735,925,0,0
518,99,0,0,0,0,0,0,0,0,0,-1,1742,925,0,0
525,99,0,0,0,0,0,0,0,0,0,-1,1749,925,0,0
532,99,0,0,0,0,0,0,0,0,0,-1,1756,925,0,0
539,99,0,0,0,0,0,0,0,0,0,-1,1763,925,0,0
546,99,0,0,0,0,0,0,0,0,0,-1,1770,925,0,0
553,99,0,0,0,0,0,0,0,0,0,-1,1777,925,0,0
560,99,0,0,0,0,0,0,0,0,0,-1,1784,925,0,0
567,99,0,0,0,0,0,0,0,0,0,-1,1791,925,0,0
574,99,0,0,0,0,0,0,0,0,0,-1,1798,925,0,0
581,99,0,0,0,0,0,0,0,0,0,-1,1805,925,0,0
588,99,0,0,0,0,0,0,0,0,0,-1,1812,925,0,0
595,99,0,0,0,0,0,0,0,0,0,-1,1819,925,0,0
602,99,0,0,0,0,0,0,0,0,0,-1,1826,925,0,0
609,99,0,0,0,0,0,0,0,0,0,-1,1833,925,0,0
616,99,0,0,0,0,0,0,0,0,0,-1,1840,925,0,0
623,99,0,0,0,0,0,0,0,0,0,-1,1847,925,0,0
630,99,0,0,0,0,0,0,0,0,0,-1,1854,925,0,0
637,99,59.1763,2.63312,-0.00485187,0.00374685,0.00396324,0.00529486,-0.00639988,1.19843,0.006762,0.045842,1861,925,59.1763,-2.6331
644,99,59.0342,2.88495,-0.00344071,0.00211801,0.00295266,0.00339365,-0.00471635,1.16298,0.00470302,0.0410142,1868,925,59.0342,-2.88493
651,99,58.9797,2.91278,-0.00230223,0.000988905,0.00222146,0.00210789,-0.00342122,1.10418,0.00322211,0.0409222,1875,925,58.9797,-2.91275
658,99,59.0354,2.99915,-0.00140725,0.000289584,0.0017658,0.00140022,-0.00251788,1.00935,0.00229259,0.0433164,1882,925,59.0355,-2.99915
665,99,59.0558,3.01117,0,0,0,0,0,0,0,-1,1889,925,59.0558,-3.0112
672,99,59.1073,2.96722,0,0,0,0,0,0,0,-1,1896,925,59.1073,-2.96721
679,99,59.1075,2.77032,-0.000913204,-0.000847847,0.00138784,0.000507695,-0.00226875,0.797169,0.00170708,0.0374821,1903,925,59.1076,-2.77032
686,99,59.0662,2.69031,-0.000941629,-0.00100579,0.00116707,0.000193799,-0.00214122,0.771658,0.00149627,0.0290125,1910,925,59.0661,-2.69029
693,99,59.0876,2.78589,-0.00104686,-0.000968988,0.000790352,-0.000216614,-0.00179924,0.810011,0.0011342,0.0314587,1917,925,59.0876,-2.78587
700,99,59.0684,2.95306,0,0,0,0,0,0,0,-1,1924,925,59.0683,-2.95308
707,99,47.9915,3.27429,0,0,0,0,0,0,0,-1,1931,925,47.9914,-3.27427
714,99,54.3142,3.71466,0,0,0,0,0,0,0,-1,1938,925,54.3142,-3.71467
721,99,54.5597,4.46631,-0.00311149,0.00100401,-0.000277132,0.00102258,-0.00313007,-1.50386,0.00249834,0.0360537,1945,925,54.5597,-4.46633
728,99,54.5701,5.07849,-0.00346083,0.00189319,-0.000556121,0.00195035,-0.00351799,-1.46838,0.00320009,0.0298031,1952,925,54.5701,-5.07849
735,99,54.5216,5.67999,-0.00366073,0.0029288,-0.00122342,0.00314861,-0.00388054,-1.39302,0.00406561,0.0242933,1959,925,54.5216,-5.68
742,99,54.4517,6.21002,-0.00363982,0.00500649,-0.00222796,0.00554682,-0.00418015,-1.33287,0.00563431,0.0153851,1966,925,54.4517,-6.21005
749,99,54.3918,6.7428,-0.00280858,0.00886148,-0.00390029,0.010045,-0.00399208,-1.27619,0.00835168,0.0136828,1973,925,54.3918,-6.74278
756,99,54.3331,7.23773,-0.0011072,0.0139387,-0.00596164,0.0160145,-0.003183,-1.23573,0.0118803,0.0144838,1980,925,54.3331,-7.23771
763,99,54.2698,7.7641,0.00157737,0.020326,-0.00872509,0.0237581,-0.00185475,-1.19602,0.0164918,0.0168462,1987,925,54.2698,-7.76411
770,99,54.1997,8.40515,0.00534629,0.0277427,-0.0126198,0.0334163,-0.000327351,-1.14829,0.0223875,0.0303585,1994,925,54.1997,-8.40517
777,99,54.1804,9.05322,0.0105724,0.03686,-0.0183123,0.0462573,0.00117509,-1.09667,0.0304541,0.0432142,2001,925,54.1804,-9.05321
784,99,54.2617,9.74811,0.0184225,0.0483266,-0.0266215,0.0639077,0.00284153,-1.04127,0.0416902,0.0468685,2008,925,54.2616,-9.7481
791,99,54.2983,10.3456,0,0,0,0,0,0,0,-1,2015,925,54.2983,-10.3456
798,99,54.7317,11.1716,0,0,0,0,0,0,0,-1,2022,925,54.7316,-11.1716
805,99,0,0,0,0,0,0,0,0,0,-1,2029,925,0,0
812,99,0,0,0,0,0,0,0,0,0,-1,2036,925,0,0
-700,92,0,0,0,0,0,0,0,0,0,-1,524,932,0,0
-693,92,0,0,0,0,0,0,0,0,0,-1,531,932,0,0
-686,92,-43.8283,10.712,0,0,0,0,0,0,0,-1,538,932,-43.8283,-10.712
-679,92,-41.8893,10.5035,0.021471,0.0773834,-0.0643382,0.119577,-0.0207224,-0.990351,0.0874476,0.0489419,545,932,-41.8893,-10.5035
-672,92,-41.8481,9.56256,0.0118898,0.0646022,-0.0499431,0.0947169,-0.0182249,-1.02819,0.0700148,0.046075,552,932,-41.8481,-9.56259
-665,92,-41.7556,8.59668,0.00512554,0.0536994,-0.0379543,0.0744722,-0.0156473,-1.07002,0.0556027,0.047972,559,932,-41.7556,-8.59669
-658,92,-41.4882,7.66528,0.000539684,0.0442356,-0.0279181,0.0578383,-0.0130631,-1.11741,0.0435709,0.0468316,566,932,-41.4882,-7.66529
-651,92,-41.5243,6.88062,-0.00236373,0.0359535,-0.0195696,0.0441814,-0.0105917,-1.17279,0.0335469,0.0487926,573,932,-41.5243,-6.88062
-644,92,-41.6426,6.26849,-0.00402029,0.0286758,-0.0127493,0.0330594,-0.00840396,-1.23962,0.0253104,0.046607,580,932,-41.6427,-6.26847
-637,92,-41.6965,5.66846,-0.00493416,0.0220199,-0.00731237,0.0238758,-0.00679014,-1.32223,0.0185985,0.0283507,587,932,-41.6965,-5.66843
-630,92,-41.7967,5.12585,-0.00650961,0.0152581,-0.0021877,0.0154758,-0.0067273,-1.47162,0.0131464,0.0145578,594,932,-41.7967,-5.12585
-623,92,-41.9021,4.66656,-0.0072247,0.0094971,0.00130533,0.00959838,-0.00732598,1.49336,0.0098006,0.0102722,601,932,-41.9021,-4.66656
-616,92,-41.9424,4.18921,-0.00671418,0.0060166,0.00259299,0.00652448,-0.00722206,1.37738,0.00793997,0.00968878,608,932,-41.9425,-4.18919
-609,92,-41.9788,3.72101,-0.00622967,0.00338608,0.00274136,0.00411271,-0.0069563,1.31169,0.00646061,0.00999103,615,932,-41.9788,-3.72099
-602,92,-41.957,3.22974,-0.00613982,0.00167376,0.00225385,0.00227728,-0.00674333,1.30916,0.00541664,0.0115613,622,932,-41.957,-3.22972
-595,92,-41.8627,2.66547,-0.00629517,0.000571271,0.00191608,0.00106977,-0.00679367,1.31628,0.00492458,0.0230129,629,932,-41.8627,-2.66549
-588,92,-41.8874,2.22882,-0.00634565,7.4666e-05,0.00149184,0.00040438,-0.00667536,1.35328,0.00459097,0.0297275,636,932,-41.8874,-2.22884
-581,92,-42.3907,1.68945,-0.00640707,-0.000120972,0.00104217,4.73033e-05,-0.00657534,1.41071,0.00439941,0.0361694,643,932,-42.3908,-1.68946
-574,92,-42.9,1.0426,0,0,0,0,0,0,0,-1,650,932,-42.9,-1.04262
-567,92,-44.8757,0.807556,0,0,0,0,0,0,0,-1,657,932,-44.8757,-0.807556
-560,92,-44.8113,0.723145,-0.006006,-0.000159056,-9.42635e-05,-0.000157537,-0.00600751,-1.55468,0.00395354,0.0398932,664,932,-44.8113,-0.723134
-553,92,-44.9994,0.767883,-0.00581555,0.000193249,-0.000396178,0.000219258,-0.00584156,-1.50524,0.00396948,0.0387888,671,932,-44.9994,-0.7679
-546,92,-45.0435,0.767456,-0.00526155,0.000818161,-0.000655593,0.000888052,-0.00533144,-1.46459,0.0038843,0.0423674,678,932,-45.0434,-0.767431
-539,92,-44.9769,1.12164,-0.00398784,0.00167034,-0.00086166,0.00179865,-0.00411615,-1.42297,0.0035012,0.0411814,685,932,-44.9769,-1.12165
-532,92,-44.9474,1.10419,-0.00178605,0.00259907,-0.000949836,0.00279597,-0.00198295,-1.3664,0.00277239,0.0410537,692,932,-44.9474,-1.10418
-525,92,-45.009,0.988098,0.000234103,0.00373429,-0.00120113,0.00410682,-0.000138427,-1.27005,0.00278517,0.0377938,699,932,-45.009,-0.988098
-518,92,-45.0385,0.965088,0.000900772,0.00589062,-0.00170524,0.0064177,0.000373692,-1.27102,0.0041595,0.0391192,706,932,-45.0385,-0.965077
-511,92,0,0,0,0,0,0,0,0,0,-1,713,932,0,0
-504,92,0,0,0,0,0,0,0,0,0,-1,720,932,0,0
-497,92,0,0,0,0,0,0,0,0,0,-1,727,932,0,0
-490,92,0,0,0,0,0,0,0,0,0,-1,734,932,0,0
-483,92,0,0,0,0,0,0,0,0,0,-1,741,932,0,0
-476,92,0,0,0,0,0,0,0,0,0,-1,748,932,0,0
-469,92,0,0,0,0,0,0,0,0,0,-1,755,932,0,0
-462,92,0,0,0,0,0,0,0,0,0,-1,762,932,0,0
-455,92,0,0,0,0,0,0,0,0,0,-1,769,932,0,0
-448,92,0,0,0,0,0,0,0,0,0,-1,776,932,0,0
-441,92,0,0,0,0,0,0,0,0,0,-1,783,932,0,0
-434,92,0,0,0,0,0,0,0,0,0,-1,790,932,0,0
-427,92,0,0,0,0,0,0,0,0,0,-1,797,932,0,0
-420,92,0,0,0,0,0,0,0,0,0,-1,804,932,0,0
-413,92,0,0,0,0,0,0,0,0,0,-1,811,932,0,0
-406,92,0,0,0,0,0,0,0,0,0,-1,818,932,0,0
-399,92,0,0,0,0,0,0,0,0,0,-1,825,932,0,0
-392,92,0,0,0,0,0,0,0,0,0,-1,832,932,0,0
-385,92,0,0,0,0,0,0,0,0,0,-1,839,932,0,0
-378,92,0,0,0,0,0,0,0,0,0,-1,846,932,0,0
-371,92,0,0,0,0,0,0,0,0,0,-1,853,932,0,0
-364,92,0,0,0,0,0,0,0,0,0,-1,860,932,0,0
-357,92,0,0,0,0,0,0,0,0,0,-1,867,932,0,0
-350,92,0,0,0,0,0,0,0,0,0,-1,874,932,0,0
-343,92,0,0,0,0,0,0,0,0,0,-1,881,932,0,0
-336,92,0,0,0,0,0,0,0,0,0,-1,888,932,0,0
-329,92,0,0,0,0,0,0,0,0,0,-1,895,932,0,0
-322,92,0,0,0,0,0,0,0,0,0,-1,902,932,0,0
-315,92,0,0,0,0,0,0,0,0,0,-1,909,932,0,0
-308,92,0,0,0,0,0,0,0,0,0,-1,916,932,0,0
-301,92,0,0,0,0,0,0,0,0,0,-1,923,932,0,0
-294,92,0,0,0,0,0,0,0,0,0,-1,930,932,0,0
-287,92,0,0,0,0,0,0,0,0,0,-1,937,932,0,0
-280,92,0,0,0,0,0,0,0,0,0,-1,944,932,0,0
-273,92,0,0,0,0,0,0,0,0,0,-1,951,932,0,0
-266,92,0,0,0,0,0,0,0,0,0,-1,958,932,0,0
-259,92,0,0,0,0,0,0,0,0,0,-1,965,932,0,0
-252,92,0,0,0,0,0,0,0,0,0,-1,972,932,0,0
-245,92,0,0,0,0,0,0,0,0,0,-1,979,932,0,0
-238,92,0,0,0,0,0,0,0,0,0,-1,986,932,0,0
-231,92,0,0,0,0,0,0,0,0,0,-1,993,932,0,0
-224,92,0,0,0,0,0,0,0,0,0,-1,1000,932,0,0
-217,92,0,0,0,0,0,0,0,0,0,-1,1007,932,0,0
-210,92,0,0,0,0,0,0,0,0,0,-1,1014,932,0,0
-203,92,0,0,0,0,0,0,0,0,0,-1,1021,932,0,0
-196,92,0,0,0,0,0,0,0,0,0,-1,1028,932,0,0
-189,92,0,0,0,0,0,0,0,0,0,-1,1035,932,0,0
-182,92,0,0,0,0,0,0,0,0,0,-1,1042,932,0,0
-175,92,0,0,0,0,0,0,0,0,0,-1,1049,932,0,0
-168,92,0,0,0,0,0,0,0,0,0,-1,1056,932,0,0
-161,92,0,0,0,0,0,0,0,0,0,-1,1063,932,0,0
-154,92,0,0,0,0,0,0,0,0,0,-1,1070,932,0,0
-147,92,0,0,0,0,0,0,0,0,0,-1,1077,932,0,0
-140,92,0,0,0,0,0,0,0,0,0,-1,1084,932,0,0
-133,92,0,0,0,0,0,0,0,0,0,-1,1091,932,0,0
-126,92,0,0,0,0,0,0,0,0,0,-1,1098,932,0,0
-119,92,0,0,0,0,0,0,0,0,0,-1,1105,932,0,0
-112,92,0,0,0,0,0,0,0,0,0,-1,1112,932,0,0
-105,92,0,0,0,0,0,0,0,0,0,-1,1119,932,0,0
-98,92,0,0,0,0,0,0,0,0,0,-1,1126,932,0,0
-91,92,0,0,0,0,0,0,0,0,0,-1,1133,932,0,0
-84,92,0,0,0,0,0,0,0,0,0,-1,1140,932,0,0
-77,92,0,0,0,0,0,0,0,0,0,-1,1147,932,0,0
-70,92,0,0,0,0,0,0,0,0,0,-1,1154,932,0,0
-63,92,0,0,0,0,0,0,0,0,0,-1,1161,932,0,0
-56,92,0,0,0,0,0,0,0,0,0,-1,1168,932,0,0
-49,92,0,0,0,0,0,0,0,0,0,-1,1175,932,0,0
-42,92,0,0,0,0,0,0,0,0,0,-1,1182,932,0,0
-35,92,0,0,0,0,0,0,0,0,0,-1,1189,932,0,0
-28,92,0,0,0,0,0,0,0,0,0,-1,1196,932,0,0
-21,92,0,0,0,0,0,0,0,0,0,-1,1203,932,0,0
-14,92,0,0,0,0,0,0,0,0,0,-1,1210,932,0,0
-7,92,0,0,0,0,0,0,0,0,0,-1,1217,932,0,0
0,92,0,0,0,0,0,0,0,0,0,-1,1224,932,0,0
7,92,0,0,0,0,0,0,0,0,0,-1,1231,932,0,0
14,92,0,0,0,0,0,0,0,0,0,-1,1238,932,0,0
21,92,0,0,0,0,0,0,0,0,0,-1,1245,932,0,0
28,92,0,0,0,0,0,0,0,0,0,-1,1252,932,0,0
35,92,0,0,0,0,0,0,0,0,0,-1,1259,932,0,0
42,92,0,0,0,0,0,0,0,0,0,-1,1266,932,0,0
49,92,0,0,0,0,0,0,0,0,0,-1,1273,932,0,0
56,92,0,0,0,0,0,0,0,0,0,-1,1280,932,0,0
63,92,0,0,0,0,0,0,0,0,0,-1,1287,932,0,0
70,92,0,0,0,0,0,0,0,0,0,-1,1294,932,0,0
77,92,0,0,0,0,0,0,0,0,0,-1,1301,932,0,0
84,92,0,0,0,0,0,0,0,0,0,-1,1308,932,0,0
91,92,0,0,0,0,0,0,0,0,0,-1,1315,932,0,0
98,92,0,0,0,0,0,0,0,0,0,-1,1322,932,0,0
105,92,0,0,0,0,0,0,0,0,0,-1,1329,932,0,0
112,92,0,0,0,0,0,0,0,0,0,-1,1336,932,0,0
119,92,0,0,0,0,0,0,0,0,0,-1,1343,932,0,0
126,92,0,0,0,0,0,0,0,0,0,-1,1350,932,0,0
133,92,0,0,0,0,0,0,0,0,0,-1,1357,932,0,0
140,92,0,0,0,0,0,0,0,0,0,-1,1364,932,0,0
147,92,0,0,0,0,0,0,0,0,0,-1,1371,932,0,0
154,92,0,0,0,0,0,0,0,0,0,-1,1378,932,0,0
161,92,0,0,0,0,0,0,0,0,0,-1,1385,932,0,0
168,92,0,0,0,0,0,0,0,0,0,-1,1392,932,0,0
175,92,0,0,0,0,0,0,0,0,0,-1,1399,932,0,0
182,92,0,0,0,0,0,0,0,0,0,-1,1406,932,0,0
189,92,0,0,0,0,0,0,0,0,0,-1,1413,932,0,0
196,92,0,0,0,0,0,0,0,0,0,-1,1420,932,0,0
203,92,0,0,0,0,0,0,0,0,0,-1,1427,932,0,0
210,92,0,0,0,0,0,0,0,0,0,-1,1434,932,0,0
217,92,0,0,0,0,0,0,0,0,0,-1,1441,932,0,0
224,92,0,0,0,0,0,0,0,0,0,-1,1448,932,0,0
231,92,0,0,0,0,0,0,0,0,0,-1,1455,932,0,0
238,92,0,0,0,0,0,0,0,0,0,-1,1462,932,0,0
245,92,0,0,0,0,0,0,0,0,0,-1,1469,932,0,0
252,92,0,0,0,0,0,0,0,0,0,-1,1476,932,0,0
259,92,0,0,0,0,0,0,0,0,0,-1,1483,932,0,0
266,92,0,0,0,0,0,0,0,0,0,-1,1490,932,0,0
273,92,0,0,0,0,0,0,0,0,0,-1,1497,932,0,0
280,92,0,0,0,0,0,0,0,0,0,-1,1504,932,0,0
287,92,0,0,0,0,0,0,0,0,0,-1,1511,932,0,0
294,92,0,0,0,0,0,0,0,0,0,-1,1518,932,0,0
301,92,0,0,0,0,0,0,0,0,0,-1,1525,932,0,0
308,92,0,0,0,0,0,0,0,0,0,-1,1532,932,0,0
315,92,0,0,0,0,0,0,0,0,0,-1,1539,932,0,0
322,92,0,0,0,0,0,0,0,0,0,-1,1546,932,0,0
329,92,0,0,0,0,0,0,0,0,0,-1,1553,932,0,0
336,92,0,0,0,0,0,0,0,0,0,-1,1560,932,0,0
343,92,0,0,0,0,0,0,0,0,0,-1,1567,932,0,0
350,92,0,0,0,0,0,0,0,0,0,-1,1574,932,0,0
357,92,0,0,0,0,0,0,0,0,0,-1,1581,932,0,0
364,92,0,0,0,0,0,0,0,0,0,-1,1588,932,0,0
371,92,0,0,0,0,0,0,0,0,0,-1,1595,932,0,0
378,92,0,0,0,0,0,0,0,0,0,-1,1602,932,0,0
385,92,0,0,0,0,0,0,0,0,0,-1,1609,932,0,0
392,92,0,0,0,0,0,0,0,0,0,-1,1616,932,0,0
399,92,0,0,0,0,0,0,0,0,0,-1,1623,932,0,0
406,92,0,0,0,0,0,0,0,0,0,-1,1630,932,0,0
413,92,0,0,0,0,0,0,0,0,0,-1,1637,932,0,0
420,92,0,0,0,0,0,0,0,0,0,-1,1644,932,0,0
427,92,0,0,0,0,0,0,0,0,0,-1,1651,932,0,0
434,92,0,0,0,0,0,0,0,0,0,-1,1658,932,0,0
441,92,0,0,0,0,0,0,0,0,0,-1,1665,932,0,0
448,92,0,0,0,0,0,0,0,0,0,-1,1672,932,0,0
455,92,0,0,0,0,0,0,0,0,0,-1,1679,932,0,0
462,92,0,0,0,0,0,0,0,0,0,-1,1686,932,0,0
469,92,0,0,0,0,0,0,0,0,0,-1,1693,932,0,0
476,92,0,0,0,0,0,0,0,0,0,-1,1700,932,0,0
483,92,0,0,0,0,0,0,0,0,0,-1,1707,932,0,0
490,92,0,0,0,0,0,0,0,0,0,-1,1714,932,0,0
497,92,0,0,0,0,0,0,0,0,0,-1,1721,932,0,0
504,92,0,0,0,0,0,0,0,0,0,-1,1728,932,0,0
511,92,0,0,0,0,0,0,0,0,0,-1,1735,932,0,0
518,92,0,0,0,0,0,0,0,0,0,-1,1742,932,0,0
525,92,0,0,0,0,0,0,0,0,0,-1,1749,932,0,0
532,92,0,0,0,0,0,0,0,0,0,-1,1756,932,0,0
539,92,0,0,0,0,0,0,0,0,0,-1,1763,932,0,0
546,92,0,0,0,0,0,0,0,0,0,-1,1770,932,0,0
553,92,0,0,0,0,0,0,0,0,0,-1,1777,932,0,0
560,92,0,0,0,0,0,0,0,0,0,-1,1784,932,0,0
567,92,0,0,0,0,0,0,0,0,0,-1,1791,932,0,0
574,92,0,0,0,0,0,0,0,0,0,-1,1798,932,0,0
581,92,0,0,0,0,0,0,0,0,0,-1,1805,932,0,0
588,92,0,0,0,0,0,0,0,0,0,-1,1812,932,0,0
595,92,0,0,0,0,0,0,0,0,0,-1,1819,932,0,0
602,92,0,0,0,0,0,0,0,0,0,-1,1826,932,0,0
609,92,0,0,0,0,0,0,0,0,0,-1,1833,932,0,0
616,92,0,0,0,0,0,0,0,0,0,-1,1840,932,0,0
623,92,0,0,0,0,0,0,0,0,0,-1,1847,932,0,0
630,92,0,0,0,0,0,0,0,0,0,-1,1854,932,0,0
637,92,59.3115,2.36505,-0.00431488,0.00346517,0.00345937,0.00478087,-0.00563058,1.20736,0.00601772,0.0496645,1861,932,59.3115,-2.36503
644,92,59.0693,2.48151,-0.0030963,0.00194314,0.00256446,0.00301861,-0.00417177,1.1737,0.00416913,0.0428811,1868,932,59.0694,-2.48153
651,92,59.1954,2.48901,-0.00212437,0.000967982,0.00193373,0.00189768,-0.00305407,1.12264,0.00288476,0.0398975,1875,932,59.1954,-2.48903
658,92,59.0521,2.6308,0,0,0,0,0,0,0,-1,1882,932,59.0522,-2.63078
665,92,59.0397,2.50873,-0.000766078,0.000189405,0.00147636,0.00126339,-0.00184007,0.941878,0.00180207,0.0411937,1889,932,59.0397,-2.50873
672,92,59.1582,2.57202,-0.00071767,-3.64135e-05,0.00147692,0.00113865,-0.00189273,0.898734,0.00176813,0.0414986,1896,932,59.1582,-2.57202
679,92,59.1498,2.61603,-0.000861224,-0.000297158,0.0015015,0.000948565,-0.00210695,0.878234,0.00180586,0.037886,1903,932,59.1498,-2.616
686,92,59.0758,2.6153,-0.000846708,-0.000483035,0.00132079,0.000668379,-0.00199812,0.853804,0.00160204,0.0295697,1910,932,59.0758,-2.6153
693,92,59.1244,2.72961,-0.000923258,-0.000489207,0.000979759,0.000297276,-0.00170974,0.894393,0.00125075,0.0256243,1917,932,59.1243,-2.7296
700,92,59.1177,2.85425,0,0,0,0,0,0,0,-1,1924,932,59.1176,-2.85426
707,92,32.9893,3.26874,0,0,0,0,0,0,0,-1,1931,932,32.9893,-3.26874
714,92,55.4904,3.98798,0,0,0,0,0,0,0,-1,1938,932,55.4903,-3.988
721,92,55.2913,4.64948,-0.00302837,0.00143725,-0.000200756,0.00144626,-0.00303738,-1.52596,0.00264241,0.036342,1945,932,55.2912,-4.64948
728,92,55.0642,5.18915,-0.00336314,0.00234811,-0.000502665,0.00239202,-0.00340705,-1.48368,0.00336514,0.0282091,1952,932,55.0642,-5.18915
735,92,55.0435,5.69666,-0.0035657,0.00337903,-0.00126354,0.00360178,-0.00378844,-1.3963,0.0042672,0.0216532,1959,932,55.0435,-5.69668
742,92,55.0687,6.19861,-0.00360752,0.00534379,-0.00238293,0.00593862,-0.00420235,-1.32617,0.00588343,0.0211724,1966,932,55.0687,-6.19863
749,92,54.9908,6.72711,-0.002942,0.00894485,-0.00421686,0.0102888,-0.00428598,-1.26226,0.0086494,0.0191278,1973,932,54.9908,-6.72709
756,92,54.9131,7.21057,-0.00131883,0.0137153,-0.00656676,0.0161796,-0.00378317,-1.21178,0.0122439,0.0160946,1980,932,54.9131,-7.21058
763,92,54.8844,7.71271,0.001325,0.0198609,-0.0096311,0.0239591,-0.00277316,-1.16849,0.0169728,0.0178437,1987,932,54.8844,-7.71269
770,92,54.7888,8.32343,0.00501735,0.0268654,-0.013753,0.033505,-0.00162221,-1.12103,0.0228966,0.0263392,1994,932,54.7889,-8.3234
777,92,54.9497,9.00287,0.0100367,0.0350762,-0.019501,0.0457304,-0.000617487,-1.07077,0.0306948,0.0426094,2001,932,54.9498,-9.00286
784,92,55.3232,9.63995,0.017502,0.0450661,-0.0276231,0.0621544,0.000413671,-1.01679,0.041299,0.0463104,2008,932,55.3232,-9.63995
791,92,55.8577,10.2421,0.0281845,0.0571094,-0.0390564,0.084295,0.000998884,-0.962719,0.0558667,0.0454802,2015,932,55.8576,-10.2421
798,92,56.0679,10.7503,0.0416314,0.071689,-0.0544463,0.113143,0.000177816,-0.92006,0.0753692,0.0475209,2022,932,56.0678,-10.7503
805,92,0,0,0,0,0,0,0,0,0,-1,2029,932,0,0
812,92,0,0,0,0,0,0,0,0,0,-1,2036,932,0,0
-700,85,0,0,0,0,0,0,0,0,0,-1,524,939,0,0
-693,85,0,0,0,0,0,0,0,0,0,-1,531,939,0,0
-686,85,-43.7155,10.1433,0.0552881,0.115934,-0.0857876,0.1766,-0.00537799,-0.955277,0.119566,0.0469233,538,939,-43.7155,-10.1433
-679,85,-43.2523,9.51428,0.0407448,0.0981068,-0.066804,0.142126,-0.00327478,-0.988164,0.0958612,0.0453386,545,939,-43.2523,-9.51425
-672,85,-42.1114,9.17578,0.0287083,0.0820784,-0.0511407,0.113077,-0.0022908,-1.02586,0.0761601,0.0435945,552,939,-42.1114,-9.17576
-665,85,-42.072,8.18811,0.0192277,0.0679532,-0.0381843,0.0888849,-0.00170394,-1.06936,0.0598326,0.0428165,559,939,-42.072,-8.18812
-658,85,-42.0219,6.88055,0.0119467,0.055484,-0.0274716,0.0687662,-0.00133552,-1.12045,0.0462957,0.0476785,566,939,-42.0218,-6.88053
-651,85,-42.0895,6.38385,0.00653533,0.044515,-0.0187216,0.0521918,-0.00114148,-1.18165,0.0351812,0.0464088,573,939,-42.0896,-6.38383
-644,85,-42.1251,5.78235,0.00271524,0.0349377,-0.0117299,0.0387554,-0.00110246,-1.25614,0.0262122,0.0363373,580,939,-42.1251,-5.78238
-637,85,-42.2473,5.50214,4.05745e-05,0.0264551,-0.00638165,0.0279161,-0.0014204,-1.34574,0.0191018,0.0224699,587,939,-42.2473,-5.50212
-630,85,-42.3543,5.0426,-0.00310392,0.0181632,-0.00132378,0.0182452,-0.003186,-1.50887,0.0133528,0.0142015,594,939,-42.3543,-5.04261
-623,85,-42.4301,4.61176,-0.00511728,0.01124,0.00190175,0.0114582,-0.00533548,1.45656,0.00990833,0.0100408,601,939,-42.43,-4.61177
-616,85,-42.4556,4.18384,-0.00543904,0.00708981,0.00267523,0.00763713,-0.00598636,1.36899,0.00788475,0.0100098,608,939,-42.4555,-4.18385
-609,85,-42.4935,3.72424,-0.0054518,0.00407204,0.00248554,0.00468169,-0.00606145,1.33027,0.00621958,0.0130798,615,939,-42.4935,-3.72422
-602,85,-42.4907,3.23352,-0.00564372,0.0021178,0.00180812,0.00251835,-0.00604427,1.35279,0.00508142,0.0173113,622,939,-42.4907,-3.23351
-595,85,-42.4016,2.74713,-0.00604899,0.000841014,0.00128752,0.00107375,-0.00628173,1.39196,0.00458781,0.0200193,629,939,-42.4016,-2.74713
-588,85,-42.3963,2.30859,-0.00623518,0.000246178,0.00077611,0.000337817,-0.00632682,1.45327,0.00433488,0.0229372,636,939,-42.3963,-2.30859
-581,85,-42.8006,1.88385,-0.00631961,-4.44151e-06,0.000297063,9.50135e-06,-0.00633356,1.52389,0.00422554,0.035219,643,939,-42.8006,-1.88388
-574,85,-43.1884,1.15277,0,0,0,0,0,0,0,-1,650,939,-43.1884,-1.15276
-567,85,-44.845,0.796265,0,0,0,0,0,0,0,-1,657,939,-44.845,-0.796246
-560,85,-44.7904,0.736755,-0.00607718,8.43061e-05,-0.000845004,0.000198091,-0.00619097,-1.43695,0.0041949,0.0368655,664,939,-44.7904,-0.736768
-553,85,-44.8334,0.677917,-0.00577429,0.000543208,-0.00108931,0.00072576,-0.00595684,-1.40475,0.00423393,0.0403323,671,939,-44.8334,-0.677913
-546,85,-44.8917,0.922302,-0.00495313,0.00122382,-0.00124486,0.00146526,-0.00519457,-1.37922,0.00404101,0.0392315,678,939,-44.8918,-0.922307
-539,85,-44.9374,1.15839,-0.00335317,0.00205754,-0.00129589,0.00235189,-0.00364753,-1.34744,0.00349059,0.0372566,685,939,-44.9374,-1.15839
-532,85,-44.9245,0.980225,-0.000828969,0.00283566,-0.00125864,0.0032263,-0.00121961,-1.26985,0.00265257,0.0365994,692,939,-44.9245,-0.980195
-525,85,-44.9571,0.829041,0.00126781,0.00388771,-0.00157343,0.00462511,0.000530406,-1.13254,0.00292269,0.0357926,699,939,-44.9571,-0.829062
-518,85,-45.0139,0.828552,0.00170537,0.00621328,-0.00214377,0.00706995,0.000848687,-1.19062,0.00445742,0.0361427,706,939,-45.0139,-0.828581
-511,85,0,0,0,0,0,0,0,0,0,-1,713,939,0,0
-504,85,0,0,0,0,0,0,0,0,0,-1,720,939,0,0
-497,85,0,0,0,0,0,0,0,0,0,-1,727,939,0,0
-490,85,0,0,0,0,0,0,0,0,0,-1,734,939,0,0
-483,85,0,0,0,0,0,0,0,0,0,-1,741,939,0,0
-476,85,0,0,0,0,0,0,0,0,0,-1,748,939,0,0
-469,85,0,0,0,0,0,0,0,0,0,-1,755,939,0,0
-462,85,0,0,0,0,0,0,0,0,0,-1,762,939,0,0
-455,85,0,0,0,0,0,0,0,0,0,-1,769,939,0,0
-448,85,0,0,0,0,0,0,0,0,0,-1,776,939,0,0
-441,85,0,0,0,0,0,0,0,0,0,-1,783,939,0,0
-434,85,0,0,0,0,0,0,0,0,0,-1,790,939,0,0
-427,85,0,0,0,0,0,0,0,0,0,-1,797,939,0,0
-420,85,0,0,0,0,0,0,0,0,0,-1,804,939,0,0
-413,85,0,0,0,0,0,0,0,0,0,-1,811,939,0,0
-406,85,0,0,0,0,0,0,0,0,0,-1,818,939,0,0
-399,85,0,0,0,0,0,0,0,0,0,-1,825,939,0,0
-392,85,0,0,0,0,0,0,0,0,0,-1,832,939,0,0
-385,85,0,0,0,0,0,0,0,0,0,-1,839,939,0,0
-378,85,0,0,0,0,0,0,0,0,0,-1,846,939,0,0
-371,85,0,0,0,0,0,0,0,0,0,-1,853,939,0,0
-364,85,0,0,0,0,0,0,0,0,0,-1,860,939,0,0
-357,85,0,0,0,0,0,0,0,0,0,-1,867,939,0,0
-350,85,0,0,0,0,0,0,0,0,0,-1,874,939,0,0
-343,85,0,0,0,0,0,0,0,0,0,-1,881,939,0,0
-336,85,0,0,0,0,0,0,0,0,0,-1,888,939,0,0
-329,85,0,0,0,0,0,0,0,0,0,-1,895,939,0,0
-322,85,0,0,0,0,0,0,0,0,0,-1,902,939,0,0
-315,85,0,0,0,0,0,0,0,0,0,-1,909,939,0,0
-308,85,0,0,0,0,0,0,0,0,0,-1,916,939,0,0
-301,85,0,0,0,0,0,0,0,0,0,-1,923,939,0,0
-294,85,0,0,0,0,0,0,0,0,0,-1,930,939,0,0
-287,85,0,0,0,0,0,0,0,0,0,-1,937,939,0,0
-280,85,0,0,0,0,0,0,0,0,0,-1,944,939,0,0
-273,85,0,0,0,0,0,0,0,0,0,-1,951,939,0,0
-266,85,0,0,0,0,0,0,0,0,0,-1,958,939,0,0
-259,85,0,0,0,0,0,0,0,0,0,-1,965,939,0,0
-252,85,0,0,0,0,0,0,0,0,0,-1,972,939,0,0
-245,85,0,0,0,0,0,0,0,0,0,-1,979,939,0,0
-238,85,0,0,0,0,0,0,0,0,0,-1,986,939,0,0
-231,85,0,0,0,0,0,0,0,0,0,-1,993,939,0,0
-224,85,0,0,0,0,0,0,0,0,0,-1,1000,939,0,0
-217,85,0,0,0,0,0,0,0,0,0,-1,1007,939,0,0
-210,85,0,0,0,0,0,0,0,0,0,-1,1014,939,0,0
-203,85,0,0,0,0,0,0,0,0,0,-1,1021,939,0,0
-196,85,0,0,0,0,0,0,0,0,0,-1,1028,939,0,0
-189,85,0,0,0,0,0,0,0,0,0,-1,1035,939,0,0
-182,85,0,0,0,0,0,0,0,0,0,-1,1042,939,0,0
-175,85,0,0,0,0,0,0,0,0,0,-1,1049,939,0,0
-168,85,0,0,0,0,0,0,0,0,0,-1,1056,939,0,0
-161,85,0,0,0,0,0,0,0,0,0,-1,1063,939,0,0
-154,85,0,0,0,0,0,0,0,0,0,-1,1070,939,0,0
-147,85,0,0,0,0,0,0,0,0,0,-1,1077,939,0,0
-140,85,0,0,0,0,0,0,0,0,0,-1,1084,939,0,0
-133,85,0,0,0,0,0,0,0,0,0,-1,1091,939,0,0
-126,85,0,0,0,0,0,0,0,0,0,-1,1098,939,0,0
-119,85,0,0,0,0,0,0,0,0,0,-1,1105,939,0,0
-112,85,0,0,0,0,0,0,0,0,0,-1,1112,939,0,0
-105,85,0,0,0,0,0,0,0,0,0,-1,1119,939,0,0
-98,85,0,0,0,0,0,0,0,0,0,-1,1126,939,0,0
-91,85,0,0,0,0,0,0,0,0,0,-1,1133,939,0,0
-84,85,0,0,0,0,0,0,0,0,0,-1,1140,939,0,0
-77,85,0,0,0,0,0,0,0,0,0,-1,1147,939,0,0
-70,85,0,0,0,0,0,0,0,0,0,-1,1154,939,0,0
-63,85,0,0,0,0,0,0,0,0,0,-1,1161,939,0,0
-56,85,0,0,0,0,0,0,0,0,0,-1,1168,939,0,0
-49,85,0,0,0,0,0,0,0,0,0,-1,1175,939,0,0
-42,85,0,0,0,0,0,0,0,0,0,-1,1182,939,0,0
-35,85,0,0,0,0,0,0,0,0,0,-1,1189,939,0,0
-28,85,0,0,0,0,0,0,0,0,0,-1,1196,939,0,0
-21,85,0,0,0,0,0,0,0,0,0,-1,1203,939,0,0
-14,85,0,0,0,0,0,0,0,0,0,-1,1210,939,0,0
-7,85,0,0,0,0,0,0,0,0,0,-1,1217,939,0,0
0,85,0,0,0,0,0,0,0,0,0,-1,1224,939,0,0
7,85,0,0,0,0,0,0,0,0,0,-1,1231,939,0,0
14,85,0,0,0,0,0,0,0,0,0,-1,1238,939,0,0
21,85,0,0,0,0,0,0,0,0,0,-1,1245,939,0,0
28,85,0,0,0,0,0,0,0,0,0,-1,1252,939,0,0
35,85,0,0,0,0,0,0,0,0,0,-1,1259,939,0,0
42,85,0,0,0,0,0,0,0,0,0,-1,1266,939,0,0
49,85,0,0,0,0,0,0,0,0,0,-1,1273,939,0,0
56,85,0,0,0,0,0,0,0,0,0,-1,1280,939,0,0
63,85,0,0,0,0,0,0,0,0,0,-1,1287,939,0,0
70,85,0,0,0,0,0,0,0,0,0,-1,1294,939,0,0
77,85,0,0,0,0,0,0,0,0,0,-1,1301,939,0,0
84,85,0,0,0,0,0,0,0,0,0,-1,1308,939,0,0
91,85,0,0,0,0,0,0,0,0,0,-1,1315,939,0,0
98,85,0,0,0,0,0,0,0,0,0,-1,1322,939,0,0
105,85,0,0,0,0,0,0,0,0,0,-1,1329,939,0,0
112,85,0,0,0,0,0,0,0,0,0,-1,1336,939,0,0
119,85,0,0,0,0,0,0,0,0,0,-1,1343,939,0,0
126,85,0,0,0,0,0,0,0,0,0,-1,1350,939,0,0
133,85,0,0,0,0,0,0,0,0,0,-1,1357,939,0,0
140,85,0,0,0,0,0,0,0,0,0,-1,1364,939,0,0
147,85,0,0,0,0,0,0,0,0,0,-1,1371,939,0,0
154,85,0,0,0,0,0,0,0,0,0,-1,1378,939,0,0
161,85,0,0,0,0,0,0,0,0,0,-1,1385,939,0,0
168,85,0,0,0,0,0,0,0,0,0,-1,1392,939,0,0
175,85,0,0,0,0,0,0,0,0,0,-1,1399,939,0,0
182,85,0,0,0,0,0,0,0,0,0,-1,1406,939,0,0
189,85,0,0,0,0,0,0,0,0,0,-1,1413,939,0,0
196,85,0,0,0,0,0,0,0,0,0,-1,1420,939,0,0
203,85,0,0,0,0,0,0,0,0,0,-1,1427,939,0,0
210,85,0,0,0,0,0,0,0,0,0,-1,1434,939,0,0
217,85,0,0,0,0,0,0,0,0,0,-1,1441,939,0,0
224,85,0,0,0,0,0,0,0,0,0,-1,1448,939,0,0
231,85,0,0,0,0,0,0,0,0,0,-1,1455,939,0,0
238,85,0,0,0,0,0,0,0,0,0,-1,1462,939,0,0
245,85,0,0,0,0,0,0,0,0,0,-1,1469,939,0,0
252,85,0,0,0,0,0,0,0,0,0,-1,1476,939,0,0
259,85,0,0,0,0,0,0,0,0,0,-1,1483,939,0,0
266,85,0,0,0,0,0,0,0,0,0,-1,1490,939,0,0
273,85,0,0,0,0,0,0,0,0,0,-1,1497,939,0,0
280,85,0,0,0,0,0,0,0,0,0,-1,1504,939,0,0
287,85,0,0,0,0,0,0,0,0,0,-1,1511,939,0,0
294,85,0,0,0,0,0,0,0,0,0,-1,1518,939,0,0
301,85,0,0,0,0,0,0,0,0,0,-1,1525,939,0,0
308,85,0,0,0,0,0,0,0,0,0,-1,1532,939,0,0
315,85,0,0,0,0,0,0,0,0,0,-1,1539,939,0,0
322,85,0,0,0,0,0,0,0,0,0,-1,1546,939,0,0
329,85,0,0,0,0,0,0,0,0,0,-1,1553,939,0,0
336,85,0,0,0,0,0,0,0,0,0,-1,1560,939,0,0
343,85,0,0,0,0,0,0,0,0,0,-1,1567,939,0,0
350,85,0,0,0,0,0,0,0,0,0,-1,1574,939,0,0
357,85,0,0,0,0,0,0,0,0,0,-1,1581,939,0,0
364,85,0,0,0,0,0,0,0,0,0,-1,1588,939,0,0
371,85,0,0,0,0,0,0,0,0,0,-1,1595,939,0,0
378,85,0,0,0,0,0,0,0,0,0,-1,1602,939,0,0
385,85,0,0,0,0,0,0,0,0,0,-1,1609,939,0,0
392,85,0,0,0,0,0,0,0,0,0,-1,1616,939,0,0
399,85,0,0,0,0,0,0,0,0,0,-1,1623,939,0,0
406,85,0,0,0,0,0,0,0,0,0,-1,1630,939,0,0
413,85,0,0,0,0,0,0,0,0,0,-1,1637,939,0,0
420,85,0,0,0,0,0,0,0,0,0,-1,1644,939,0,0
427,85,0,0,0,0,0,0,0,0,0,-1,1651,939,0,0
434,85,0,0,0,0,0,0,0,0,0,-1,1658,939,0,0
441,85,0,0,0,0,0,0,0,0,0,-1,1665,939,0,0
448,85,0,0,0,0,0,0,0,0,0,-1,1672,939,0,0
455,85,0,0,0,0,0,0,0,0,0,-1,1679,939,0,0
462,85,0,0,0,0,0,0,0,0,0,-1,1686,939,0,0
469,85,0,0,0,0,0,0,0,0,0,-1,1693,939,0,0
476,85,0,0,0,0,0,0,0,0,0,-1,1700,939,0,0
483,85,0,0,0,0,0,0,0,0,0,-1,1707,939,0,0
490,85,0,0,0,0,0,0,0,0,0,-1,1714,939,0,0
497,85,0,0,0,0,0,0,0,0,0,-1,1721,939,0,0
504,85,0,0,0,0,0,0,0,0,0,-1,1728,939,0,0
511,85,0,0,0,0,0,0,0,0,0,-1,1735,939,0,0
518,85,0,0,0,0,0,0,0,0,0,-1,1742,939,0,0
525,85,0,0,0,0,0,0,0,0,0,-1,1749,939,0,0
532,85,0,0,0,0,0,0,0,0,0,-1,1756,939,0,0
539,85,0,0,0,0,0,0,0,0,0,-1,1763,939,0,0
546,85,0,0,0,0,0,0,0,0,0,-1,1770,939,0,0
553,85,0,0,0,0,0,0,0,0,0,-1,1777,939,0,0
560,85,0,0,0,0,0,0,0,0,0,-1,1784,939,0,0
567,85,0,0,0,0,0,0,0,0,0,-1,1791,939,0,0
574,85,0,0,0,0,0,0,0,0,0,-1,1798,939,0,0
581,85,0,0,0,0,0,0,0,0,0,-1,1805,939,0,0
588,85,0,0,0,0,0,0,0,0,0,-1,1812,939,0,0
595,85,0,0,0,0,0,0,0,0,0,-1,1819,939,0,0
602,85,0,0,0,0,0,0,0,0,0,-1,1826,939,0,0
609,85,0,0,0,0,0,0,0,0,0,-1,1833,939,0,0
616,85,0,0,0,0,0,0,0,0,0,-1,1840,939,0,0
623,85,0,0,0,0,0,0,0,0,0,-1,1847,939,0,0
630,85,0,0,0,0,0,0,0,0,0,-1,1854,939,0,0
637,85,59.2247,2.51929,-0.00340606,0.00261653,0.00279646,0.00371475,-0.00450428,1.19658,0.00475255,0.0498468,1861,939,59.2248,-2.51929
644,85,59.1875,2.48273,-0.00243643,0.00124708,0.00208162,0.00218475,-0.0033741,1.14757,0.0032338,0.0437674,1868,939,59.1875,-2.4827
651,85,59.3887,2.21362,-0.00164966,0.000449585,0.00157794,0.00129512,-0.0024952,1.07889,0.0022246,0.0424,1875,939,59.3886,-2.21361
658,85,59.2115,2.54449,-0.00104464,0.000134636,0.00138843,0.00105345,-0.00196345,0.986197,0.00176802,0.0421296,1882,939,59.2116,-2.54447
665,85,59.073,2.66113,-0.000562198,5.75846e-05,0.00142386,0.00120489,-0.0017095,0.892548,0.00169101,0.0441897,1889,939,59.073,-2.66111
672,85,59.0872,2.65729,-0.000562849,-4.23779e-05,0.0015645,0.00128338,-0.00188861,0.867813,0.00184242,0.0423645,1896,939,59.0871,-2.65728
679,85,59.1119,2.63251,-0.00073247,-0.000266999,0.00170236,0.00121846,-0.00221793,0.853334,0.00201178,0.0389027,1903,939,59.1119,-2.63248
686,85,59.1075,2.59387,-0.000722887,-0.000474779,0.00158796,0.000993968,-0.00219163,0.82438,0.00188204,0.0337307,1910,939,59.1076,-2.59389
693,85,59.1031,2.66602,-0.000813215,-0.00052674,0.00130358,0.00064145,-0.00198141,0.840119,0.0015788,0.0302274,1917,939,59.1032,-2.66599
700,85,59.1346,2.80145,-0.00129457,-0.000457487,0.00101962,0.00022615,-0.00197821,0.980157,0.00140029,0.0441223,1924,939,59.1346,-2.80145
707,85,59.2201,2.87988,0,0,0,0,0,0,0,-1,1931,939,59.2201,-2.8799
714,85,56.0994,4.14044,0,0,0,0,0,0,0,-1,1938,939,56.0993,-4.14042
721,85,55.8289,4.72644,-0.00304533,0.00135038,8.74196e-05,0.00135211,-0.00304706,1.55092,0.00260195,0.0331759,1945,939,55.8288,-4.72642
728,85,55.5597,5.35278,-0.00338732,0.00233051,-0.000229764,0.00233973,-0.00339654,-1.5307,0.00333051,0.0307998,1952,939,55.5597,-5.35279
735,85,55.5867,5.75824,-0.00360621,0.00345875,-0.00108862,0.00362268,-0.00377015,-1.42133,0.00426853,0.0289548,1959,939,55.5866,-5.75825
742,85,55.6671,6.21899,-0.0037,0.00539624,-0.00229396,0.005942,-0.00424576,-1.33723,0.00590902,0.0201327,1966,939,55.6672,-6.21897
749,85,55.5681,6.72095,-0.00317678,0.00882952,-0.00423207,0.0101713,-0.00451857,-1.26377,0.008688,0.0146542,1973,939,55.5682,-6.72095
756,85,55.4484,7.16742,-0.00170378,0.0133549,-0.00677356,0.0159534,-0.00430222,-1.20449,0.0123226,0.0135093,1980,939,55.4484,-7.16741
763,85,55.4139,7.62726,0.000780404,0.0192912,-0.0100428,0.0236931,-0.00362145,-1.15771,0.0171306,0.0144673,1987,939,55.4139,-7.62725
770,85,55.2998,8.12848,0.00430026,0.0259711,-0.0142934,0.0330719,-0.00280057,-1.10972,0.0230383,0.0199796,1994,939,55.2997,-8.12847
777,85,55.1521,8.90369,0.00903074,0.0334731,-0.0200601,0.0447416,-0.0022378,-1.05899,0.030601,0.0404623,2001,939,55.1522,-8.9037
784,85,55.1348,9.73291,0,0,0,0,0,0,0,-1,2008,939,55.1349,-9.73293
791,85,57.2686,9.82318,0.0259055,0.0523182,-0.0390645,0.0803482,-0.00212451,-0.9484,0.0542875,0.0497993,2015,939,57.2686,-9.82319
798,85,57.5803,10.017,0.0384083,0.0639812,-0.053695,0.106391,-0.00400169,-0.902287,0.0722983,0.0478516,2022,939,57.5804,-10.0169
805,85,57.9341,10.3158,0,0,0,0,0,0,0,-1,2029,939,57.934,-10.3158
812,85,0,0,0,0,0,0,0,0,0,-1,2036,939,0,0
-700,78,0,0,0,0,0,0,0,0,0,-1,524,946,0,0
-693,78,0,0,0,0,0,0,0,0,0,-1,531,946,0,0
-686,78,-43.9124,9.8324,0.0750889,0.133812,-0.0885065,0.1977,0.011201,-0.945559,0.12823,0.0404714,538,946,-43.9124,-9.83238
-679,78,-42.9093,8.91278,0.0586428,0.112882,-0.0679603,0.158934,0.0125907,-0.975241,0.102018,0.0471973,545,946,-42.9093,-8.91279
-672,78,-42.167,8.38098,0.0444117,0.0944492,-0.0513459,0.126547,0.0123135,-1.0121,0.0805746,0.0473942,552,946,-42.167,-8.38096
-665,78,-42.2115,7.5932,0.0325243,0.0781464,-0.0377608,0.0994514,0.0112193,-1.05711,0.0628956,0.0454679,559,946,-42.2115,-7.5932
-658,78,-42.6398,5.56641,0,0,0,0,0,0,0,-1,566,946,-42.6397,-5.56641
-651,78,-42.611,5.61084,0.0150748,0.0509314,-0.0177021,0.0581981,0.00780815,-1.18127,0.0364757,0.0446504,573,946,-42.611,-5.61084
-644,78,-42.5067,5.711,0.00918887,0.0397618,-0.0106782,0.0431221,0.00582863,-1.26592,0.0270156,0.029655,580,946,-42.5067,-5.71103
-637,78,-42.7404,5.35065,0.00485059,0.0299743,-0.00550059,0.0311258,0.00369907,-1.36443,0.019634,0.0196082,587,946,-42.7404,-5.35064
-630,78,-42.8885,4.9624,0.00028998,0.0204872,-0.000525285,0.0205008,0.000276328,-1.54481,0.013576,0.01815,594,946,-42.8886,-4.96243
-623,78,-42.9335,4.55383,-0.00303253,0.0127286,0.00243367,0.0130958,-0.00339975,1.42103,0.0100572,0.0144438,601,946,-42.9335,-4.5538
-616,78,-42.9554,4.12909,-0.00404654,0.00814106,0.00268157,0.00870498,-0.00461046,1.36352,0.00780788,0.012525,608,946,-42.9554,-4.12907
-609,78,-42.9298,3.72314,-0.00438461,0.00486575,0.00213654,0.00533538,-0.00485424,1.35443,0.00588517,0.012723,615,946,-42.9298,-3.72312
-602,78,-42.9448,3.26459,-0.00479146,0.00270379,0.00125562,0.00290855,-0.00499621,1.40915,0.00461656,0.0173117,622,946,-42.9448,-3.26458
-595,78,-42.8806,2.78546,-0.00538677,0.00125797,0.000533986,0.00130061,-0.00542941,1.49112,0.00412211,0.0174316,629,946,-42.8806,-2.78546
-588,78,-42.8513,2.42072,-0.00566087,0.000548464,-4.68276e-05,0.000548818,-0.00566123,-1.56326,0.00396976,0.0153934,636,946,-42.8513,-2.42072
-581,78,-42.7953,1.97266,0,0,0,0,0,0,0,-1,643,946,-42.7954,-1.97266
-574,78,-43.9265,1.43738,-0.00574504,1.83527e-05,-0.000902986,0.000156517,-0.0058832,-1.41897,0.00397533,0.0450644,650,946,-43.9265,-1.43736
-567,78,-44.8479,0.782104,-0.00575745,6.43041e-05,-0.00126985,0.000329229,-0.00602237,-1.36512,0.00412904,0.0357967,657,946,-44.8479,-0.782123
-560,78,-44.7761,0.733337,-0.00566756,0.000402226,-0.00151034,0.000757276,-0.00602261,-1.33991,0.00428984,0.0337381,664,946,-44.7762,-0.733362
-553,78,-44.7578,0.579041,-0.00527203,0.000908336,-0.00161888,0.00130671,-0.00567041,-1.32951,0.00428281,0.0414464,671,946,-44.7578,-0.579026
-546,78,-44.8373,0.737671,-0.00427224,0.00159186,-0.00159168,0.00199603,-0.00467641,-1.32213,0.00395459,0.0392279,678,946,-44.8374,-0.737684
-539,78,-44.8339,1.00793,-0.00247996,0.00233224,-0.00141296,0.00271644,-0.00286416,-1.3053,0.00322234,0.0352788,685,946,-44.8339,-1.00792
-532,78,-44.9128,0.847473,0.000298069,0.00289127,-0.00122983,0.00338175,-0.000192409,-1.19131,0.0023213,0.0356658,692,946,-44.9128,-0.847449
-525,78,-44.8997,0.796265,0.00257295,0.00380141,-0.00157828,0.00488077,0.00149359,-0.970969,0.00288774,0.0388427,699,946,-44.8997,-0.796262
-518,78,-44.8745,0.805115,0.0030245,0.00606022,-0.00216892,0.00718964,0.00189507,-1.0907,0.00430284,0.0403666,706,946,-44.8745,-0.805133
-511,78,0,0,0,0,0,0,0,0,0,-1,713,946,0,0
-504,78,0,0,0,0,0,0,0,0,0,-1,720,946,0,0
-497,78,0,0,0,0,0,0,0,0,0,-1,727,946,0,0
-490,78,0,0,0,0,0,0,0,0,0,-1,734,946,0,0
-483,78,0,0,0,0,0,0,0,0,0,-1,741,946,0,0
-476,78,0,0,0,0,0,0,0,0,0,-1,748,946,0,0
-469,78,0,0,0,0,0,0,0,0,0,-1,755,946,0,0
-462,78,0,0,0,0,0,0,0,0,0,-1,762,946,0,0
-455,78,0,0,0,0,0,0,0,0,0,-1,769,946,0,0
-448,78,0,0,0,0,0,0,0,0,0,-1,776,946,0,0
-441,78,0,0,0,0,0,0,0,0,0,-1,783,946,0,0
-434,78,0,0,0,0,0,0,0,0,0,-1,790,946,0,0
-427,78,0,0,0,0,0,0,0,0,0,-1,797,946,0,0
-420,78,0,0,0,0,0,0,0,0,0,-1,804,946,0,0
-413,78,0,0,0,0,0,0,0,0,0,-1,811,946,0,0
-406,78,0,0,0,0,0,0,0,0,0,-1,818,946,0,0
-399,78,0,0,0,0,0,0,0,0,0,-1,825,946,0,0
-392,78,0,0,0,0,0,0,0,0,0,-1,832,946,0,0
-385,78,0,0,0,0,0,0,0,0,0,-1,839,946,0,0
-378,78,0,0,0,0,0,0,0,0,0,-1,846,946,0,0
-371,78,0,0,0,0,0,0,0,0,0,-1,853,946,0,0
-364,78,0,0,0,0,0,0,0,0,0,-1,860,946,0,0
-357,78,0,0,0,0,0,0,0,0,0,-1,867,946,0,0
-350,78,0,0,0,0,0,0,0,0,0,-1,874,946,0,0
-343,78,0,0,0,0,0,0,0,0,0,-1,881,946,0,0
-336,78,0,0,0,0,0,0,0,0,0,-1,888,946,0,0
-329,78,0,0,0,0,0,0,0,0,0,-1,895,946,0,0
-322,78,0,0,0,0,0,0,0,0,0,-1,902,946,0,0
-315,78,0,0,0,0,0,0,0,0,0,-1,909,946,0,0
-308,78,0,0,0,0,0,0,0,0,0,-1,916,946,0,0
-301,78,0,0,0,0,0,0,0,0,0,-1,923,946,0,0
-294,78,0,0,0,0,0,0,0,0,0,-1,930,946,0,0
-287,78,0,0,0,0,0,0,0,0,0,-1,937,946,0,0
-280,78,0,0,0,0,0,0,0,0,0,-1,944,946,0,0
-273,78,0,0,0,0,0,0,0,0,0,-1,951,946,0,0
-266,78,0,0,0,0,0,0,0,0,0,-1,958,946,0,0
-259,78,0,0,0,0,0,0,0,0,0,-1,965,946,0,0
-252,78,0,0,0,0,0,0,0,0,0,-1,972,946,0,0
-245,78,0,0,0,0,0,0,0,0,0,-1,979,946,0,0
-238,78,0,0,0,0,0,0,0,0,0,-1,986,946,0,0
-231,78,0,0,0,0,0,0,0,0,0,-1,993,946,0,0
-224,78,0,0,0,0,0,0,0,0,0,-1,1000,946,0,0
-217,78,0,0,0,0,0,0,0,0,0,-1,1007,946,0,0
-210,78,0,0,0,0,0,0,0,0,0,-1,1014,946,0,0
-203,78,0,0,0,0,0,0,0,0,0,-1,1021,946,0,0
-196,78,0,0,0,0,0,0,0,0,0,-1,1028,946,0,0
-189,78,0,0,0,0,0,0,0,0,0,-1,1035,946,0,0
-182,78,0,0,0,0,0,0,0,0,0,-1,1042,946,0,0
-175,78,0,0,0,0,0,0,0,0,0,-1,1049,946,0,0
-168,78,0,0,0,0,0,0,0,0,0,-1,1056,946,0,0
-161,78,0,0,0,0,0,0,0,0,0,-1,1063,946,0,0
-154,78,0,0,0,0,0,0,0,0,0,-1,1070,946,0,0
-147,78,0,0,0,0,0,0,0,0,0,-1,1077,946,0,0
-140,78,0,0,0,0,0,0,0,0,0,-1,1084,946,0,0
-133,78,0,0,0,0,0,0,0,0,0,-1,1091,946,0,0
-126,78,0,0,0,0,0,0,0,0,0,-1,1098,946,0,0
-119,78,0,0,0,0,0,0,0,0,0,-1,1105,946,0,0
-112,78,0,0,0,0,0,0,0,0,0,-1,1112,946,0,0
-105,78,0,0,0,0,0,0,0,0,0,-1,1119,946,0,0
-98,78,0,0,0,0,0,0,0,0,0,-1,1126,946,0,0
-91,78,0,0,0,0,0,0,0,0,0,-1,1133,946,0,0
-84,78,0,0,0,0,0,0,0,0,0,-1,1140,946,0,0
-77,78,0,0,0,0,0,0,0,0,0,-1,1147,946,0,0
-70,78,0,0,0,0,0,0,0,0,0,-1,1154,946,0,0
-63,78,0,0,0,0,0,0,0,0,0,-1,1161,946,0,0
-56,78,0,0,0,0,0,0,0,0,0,-1,1168,946,0,0
-49,78,0,0,0,0,0,0,0,0,0,-1,1175,946,0,0
-42,78,0,0,0,0,0,0,0,0,0,-1,1182,946,0,0
-35,78,0,0,0,0,0,0,0,0,0,-1,1189,946,0,0
-28,78,0,0,0,0,0,0,0,0,0,-1,1196,946,0,0
-21,78,0,0,0,0,0,0,0,0,0,-1,1203,946,0,0
-14,78,0,0,0,0,0,0,0,0,0,-1,1210,946,0,0
-7,78,0,0,0,0,0,0,0,0,0,-1,1217,946,0,0
0,78,0,0,0,0,0,0,0,0,0,-1,1224,946,0,0
7,78,0,0,0,0,0,0,0,0,0,-1,1231,946,0,0
14,78,0,0,0,0,0,0,0,0,0,-1,1238,946,0,0
21,78,0,0,0,0,0,0,0,0,0,-1,1245,946,0,0
28,78,0,0,0,0,0,0,0,0,0,-1,1252,946,0,0
35,78,0,0,0,0,0,0,0,0,0,-1,1259,946,0,0
42,78,0,0,0,0,0,0,0,0,0,-1,1266,946,0,0
49,78,0,0,0,0,0,0,0,0,0,-1,1273,946,0,0
56,78,0,0,0,0,0,0,0,0,0,-1,1280,946,0,0
63,78,0,0,0,0,0,0,0,0,0,-1,1287,946,0,0
70,78,0,0,0,0,0,0,0,0,0,-1,1294,946,0,0
77,78,0,0,0,0,0,0,0,0,0,-1,1301,946,0,0
84,78,0,0,0,0,0,0,0,0,0,-1,1308,946,0,0
91,78,0,0,0,0,0,0,0,0,0,-1,1315,946,0,0
98,78,0,0,0,0,0,0,0,0,0,-1,1322,946,0,0
105,78,0,0,0,0,0,0,0,0,0,-1,1329,946,0,0
112,78,0,0,0,0,0,0,0,0,0,-1,1336,946,0,0
119,78,0,0,0,0,0,0,0,0,0,-1,1343,946,0,0
126,78,0,0,0,0,0,0,0,0,0,-1,1350,946,0,0
133,78,0,0,0,0,0,0,0,0,0,-1,1357,946,0,0
140,78,0,0,0,0,0,0,0,0,0,-1,1364,946,0,0
147,78,0,0,0,0,0,0,0,0,0,-1,1371,946,0,0
154,78,0,0,0,0,0,0,0,0,0,-1,1378,946,0,0
161,78,0,0,0,0,0,0,0,0,0,-1,1385,946,0,0
168,78,0,0,0,0,0,0,0,0,0,-1,1392,946,0,0
175,78,0,0,0,0,0,0,0,0,0,-1,1399,946,0,0
182,78,0,0,0,0,0,0,0,0,0,-1,1406,946,0,0
189,78,0,0,0,0,0,0,0,0,0,-1,1413,946,0,0
196,78,0,0,0,0,0,0,0,0,0,-1,1420,946,0,0
203,78,0,0,0,0,0,0,0,0,0,-1,1427,946,0,0
210,78,0,0,0,0,0,0,0,0,0,-1,1434,946,0,0
217,78,0,0,0,0,0,0,0,0,0,-1,1441,946,0,0
224,78,0,0,0,0,0,0,0,0,0,-1,1448,946,0,0
231,78,0,0,0,0,0,0,0,0,0,-1,1455,946,0,0
238,78,0,0,0,0,0,0,0,0,0,-1,1462,946,0,0
245,78,0,0,0,0,0,0,0,0,0,-1,1469,946,0,0
252,78,0,0,0,0,0,0,0,0,0,-1,1476,946,0,0
259,78,0,0,0,0,0,0,0,0,0,-1,1483,946,0,0
266,78,0,0,0,0,0,0,0,0,0,-1,1490,946,0,0
273,78,0,0,0,0,0,0,0,0,0,-1,1497,946,0,0
280,78,0,0,0,0,0,0,0,0,0,-1,1504,946,0,0
287,78,0,0,0,0,0,0,0,0,0,-1,1511,946,0,0
294,78,0,0,0,0,0,0,0,0,0,-1,1518,946,0,0
301,78,0,0,0,0,0,0,0,0,0,-1,1525,946,0,0
308,78,0,0,0,0,0,0,0,0,0,-1,1532,946,0,0
315,78,0,0,0,0,0,0,0,0,0,-1,1539,946,0,0
322,78,0,0,0,0,0,0,0,0,0,-1,1546,946,0,0
329,78,0,0,0,0,0,0,0,0,0,-1,1553,946,0,0
336,78,0,0,0,0,0,0,0,0,0,-1,1560,946,0,0
343,78,0,0,0,0,0,0,0,0,0,-1,1567,946,0,0
350,78,0,0,0,0,0,0,0,0,0,-1,1574,946,0,0
357,78,0,0,0,0,0,0,0,0,0,-1,1581,946,0,0
364,78,0,0,0,0,0,0,0,0,0,-1,1588,946,0,0
371,78,0,0,0,0,0,0,0,0,0,-1,1595,946,0,0
378,78,0,0,0,0,0,0,0,0,0,-1,1602,946,0,0
385,78,0,0,0,0,0,0,0,0,0,-1,1609,946,0,0
392,78,0,0,0,0,0,0,0,0,0,-1,1616,946,0,0
399,78,0,0,0,0,0,0,0,0,0,-1,1623,946,0,0
406,78,0,0,0,0,0,0,0,0,0,-1,1630,946,0,0
413,78,0,0,0,0,0,0,0,0,0,-1,1637,946,0,0
420,78,0,0,0,0,0,0,0,0,0,-1,1644,946,0,0
427,78,0,0,0,0,0,0,0,0,0,-1,1651,946,0,0
434,78,0,0,0,0,0,0,0,0,0,-1,1658,946,0,0
441,78,0,0,0,0,0,0,0,0,0,-1,1665,946,0,0
448,78,0,0,0,0,0,0,0,0,0,-1,1672,946,0,0
455,78,0,0,0,0,0,0,0,0,0,-1,1679,946,0,0
462,78,0,0,0,0,0,0,0,0,0,-1,1686,946,0,0
469,78,0,0,0,0,0,0,0,0,0,-1,1693,946,0,0
476,78,0,0,0,0,0,0,0,0,0,-1,1700,946,0,0
483,78,0,0,0,0,0,0,0,0,0,-1,1707,946,0,0
490,78,0,0,0,0,0,0,0,0,0,-1,1714,946,0,0
497,78,0,0,0,0,0,0,0,0,0,-1,1721,946,0,0
504,78,0,0,0,0,0,0,0,0,0,-1,1728,946,0,0
511,78,0,0,0,0,0,0,0,0,0,-1,1735,946,0,0
518,78,0,0,0,0,0,0,0,0,0,-1,1742,946,0,0
525,78,0,0,0,0,0,0,0,0,0,-1,1749,946,0,0
532,78,0,0,0,0,0,0,0,0,0,-1,1756,946,0,0
539,78,0,0,0,0,0,0,0,0,0,-1,1763,946,0,0
546,78,0,0,0,0,0,0,0,0,0,-1,1770,946,0,0
553,78,0,0,0,0,0,0,0,0,0,-1,1777,946,0,0
560,78,0,0,0,0,0,0,0,0,0,-1,1784,946,0,0
567,78,0,0,0,0,0,0,0,0,0,-1,1791,946,0,0
574,78,0,0,0,0,0,0,0,0,0,-1,1798,946,0,0
581,78,0,0,0,0,0,0,0,0,0,-1,1805,946,0,0
588,78,0,0,0,0,0,0,0,0,0,-1,1812,946,0,0
595,78,0,0,0,0,0,0,0,0,0,-1,1819,946,0,0
602,78,0,0,0,0,0,0,0,0,0,-1,1826,946,0,0
609,78,0,0,0,0,0,0,0,0,0,-1,1833,946,0,0
616,78,0,0,0,0,0,0,0,0,0,-1,1840,946,0,0
623,78,0,0,0,0,0,0,0,0,0,-1,1847,946,0,0
630,78,0,0,0,0,0,0,0,0,0,-1,1854,946,0,0
637,78,59.3123,2.75629,-0.00233885,0.00149135,0.00193212,0.00229667,-0.00314417,1.17588,0.00315395,0.0455191,1861,946,59.3122,-2.75627
644,78,59.3191,2.58209,-0.00170099,0.000305387,0.00147531,0.00108628,-0.00248188,1.08398,0.00211195,0.0434298,1868,946,59.3191,-2.58211
651,78,59.3433,2.13922,-0.00114276,-0.000329109,0.00111962,0.000455305,-0.00192718,0.959662,0.00146041,0.042447,1875,946,59.3432,-2.13924
658,78,59.1174,2.70947,-0.000737053,-0.000471601,0.00107636,0.000480185,-0.00168884,0.846744,0.0013155,0.0408392,1882,946,59.1175,-2.70944
665,78,59.1357,3.01813,-0.00045619,-0.000332814,0.00130309,0.000910043,-0.00169905,0.809051,0.00152915,0.0433913,1889,946,59.1357,-3.01811
672,78,59.0878,2.62488,-0.000573108,-0.000224856,0.00163465,0.00124491,-0.00204288,0.838459,0.00191675,0.0423581,1896,946,59.0877,-2.62486
679,78,59.0886,2.54462,-0.000800544,-0.000311437,0.00193549,0.00139489,-0.00250687,0.848241,0.00228298,0.0407052,1903,946,59.0887,-2.54459
686,78,59.0721,2.62347,-0.000837901,-0.000446648,0.00194987,0.00131739,-0.00260194,0.835395,0.00230298,0.0373804,1910,946,59.0722,-2.62346
693,78,59.0779,2.61902,-0.000967463,-0.000478956,0.00176945,0.00106302,-0.00250944,0.853984,0.00211816,0.0312074,1917,946,59.0779,-2.619
700,78,59.0957,2.67749,-0.00145776,-0.000406152,0.0015444,0.000699497,-0.00256341,0.949473,0.00198365,0.0264716,1924,946,59.0957,-2.67748
707,78,59.1388,2.77075,0,0,0,0,0,0,0,-1,1931,946,59.1388,-2.77074
714,78,56.3341,4.32587,0,0,0,0,0,0,0,-1,1938,946,56.3342,-4.32589
721,78,56.2166,4.80225,-0.0032253,0.00140729,0.000538573,0.00146908,-0.00328709,1.45657,0.00281205,0.0313645,1945,946,56.2166,-4.80226
728,78,56.1027,5.38635,-0.00354184,0.00247153,0.00018834,0.00247742,-0.00354773,1.53952,0.00349687,0.0366248,1952,946,56.1027,-5.38635
735,78,56.1921,5.82294,-0.00375249,0.00370451,-0.00078501,0.00378626,-0.00383424,-1.46704,0.00439972,0.026037,1959,946,56.1921,-5.82294
742,78,56.2156,6.23364,-0.00387607,0.0056169,-0.00209129,0.00605719,-0.00431636,-1.36329,0.00601721,0.0196854,1966,946,56.2155,-6.23364
749,78,56.0792,6.69434,-0.00342604,0.00877221,-0.00412156,0.0100342,-0.00468807,-1.27366,0.00868473,0.0155812,1973,946,56.0792,-6.69433
756,78,56.0168,7.10577,-0.00202475,0.0127944,-0.00684886,0.0154748,-0.0047052,-1.19775,0.0121915,0.0149234,1980,946,56.0169,-7.10577
763,78,55.913,7.48035,0.000382628,0.0180425,-0.0103512,0.0228183,-0.00439316,-1.13852,0.0168684,0.0163339,1987,946,55.913,-7.48036
770,78,55.7998,7.88654,0.00383074,0.0239052,-0.0147295,0.0316923,-0.00395631,-1.08448,0.0225629,0.0221811,1994,946,55.7999,-7.88652
777,78,55.7856,8.65363,0.00844675,0.0300636,-0.020477,0.0424096,-0.00389927,-1.02823,0.0296584,0.0409507,2001,946,55.7857,-8.65362
784,78,55.8413,9.49323,0,0,0,0,0,0,0,-1,2008,946,55.8414,-9.4932
791,78,58.2832,9.38354,0,0,0,0,0,0,0,-1,2015,946,58.2831,-9.38354
798,78,58.6025,9.51666,0,0,0,0,0,0,0,-1,2022,946,58.6025,-9.51663
805,78,50.8481,6.75513,0,0,0,0,0,0,0,-1,2029,946,50.848,-6.75512
812,78,0,0,0,0,0,0,0,0,0,-1,2036,946,0,0
-700,71,0,0,0,0,0,0,0,0,0,-1,524,953,0,0
-693,71,0,0,0,0,0,0,0,0,0,-1,531,953,0,0
-686,71,-42.6564,8.65094,0.0875493,0.13976,-0.0848928,0.20247,0.0248386,-0.934563,0.12751,0.0437668,538,953,-42.6564,-8.65092
-679,71,-42.5087,8.13904,0.0703501,0.118035,-0.0643829,0.162848,0.0255367,-0.962729,0.101134,0.0476039,545,953,-42.5087,-8.13901
-672,71,-42.4131,7.68848,0.0549968,0.0990633,-0.0480321,0.129875,0.0241855,-1.00044,0.0797532,0.0464677,552,953,-42.4131,-7.6885
-665,71,-43.8625,6.16473,0,0,0,0,0,0,0,-1,559,953,-43.8625,-6.16472
-658,71,-43.6525,5.99072,0,0,0,0,0,0,0,-1,566,953,-43.6525,-5.99074
-651,71,-43.3775,5.81506,0.0210359,0.0538941,-0.015521,0.0600662,0.0148638,-1.1923,0.0361237,0.0434576,573,953,-43.3775,-5.81506
-644,71,-43.0096,5.66748,0.013639,0.0421251,-0.00890969,0.0446822,0.0110818,-1.2913,0.0268671,0.0330219,580,953,-43.0097,-5.66747
-637,71,-43.23,5.28223,0.00805475,0.0318601,-0.00422462,0.0325876,0.00732726,-1.40027,0.0197412,0.0176316,587,953,-43.2301,-5.28221
-630,71,-43.3516,4.88483,0.00239116,0.0217369,0.000460383,0.0217478,0.00238021,1.54702,0.0137739,0.0172521,594,953,-43.3516,-4.88482
-623,71,-43.4092,4.49963,-0.0019331,0.0135831,0.00306762,0.0141676,-0.00251757,1.38253,0.0103865,0.0162904,601,953,-43.4093,-4.49966
-616,71,-43.4278,4.05432,-0.00343724,0.00885007,0.00277521,0.0094478,-0.00403497,1.35865,0.00799065,0.0156994,608,953,-43.4278,-4.05432
-609,71,-43.3679,3.68671,-0.00398597,0.00546658,0.00186764,0.00582221,-0.0043416,1.38263,0.0058888,0.0161254,615,953,-43.3679,-3.68668
-602,71,-43.3394,3.30237,-0.00444584,0.00316752,0.000802462,0.00325118,-0.0045295,1.46692,0.00451234,0.0176929,622,953,-43.3394,-3.3024
-595,71,-43.3503,2.93365,-0.00513547,0.00156489,-0.000120548,0.00156705,-0.00513764,-1.55281,0.0040498,0.0202224,629,953,-43.3504,-2.93365
-588,71,-43.3118,2.5882,-0.00539288,0.000713548,-0.000789371,0.000813938,-0.00549327,-1.4443,0.00396146,0.0248248,636,953,-43.3118,-2.58822
-581,71,-43.1312,2.18488,0,0,0,0,0,0,0,-1,643,953,-43.1312,-2.1849
-574,71,-44.4946,1.15973,-0.00540773,9.75505e-05,-0.00162908,0.000543491,-0.00585367,-1.3036,0.00409565,0.0455753,650,953,-44.4946,-1.15974
-567,71,-44.8746,0.761719,-0.00541884,0.000175811,-0.00192814,0.000775946,-0.00601897,-1.26905,0.00429473,0.0201683,657,953,-44.8745,-0.761691
-560,71,-44.8734,0.811157,-0.00527357,0.000543269,-0.00204824,0.00119212,-0.00592242,-1.26401,0.00439982,0.0275345,664,953,-44.8734,-0.811148
-553,71,-44.8297,0.614685,-0.00474022,0.00110044,-0.00199767,0.00171833,-0.00535811,-1.27082,0.00426192,0.04029,671,953,-44.8296,-0.614693
-546,71,-44.9258,0.692566,-0.00355365,0.00181018,-0.00176535,0.00233905,-0.00408252,-1.27972,0.00375276,0.0399898,678,953,-44.9258,-0.692596
-539,71,-44.9715,0.7099,-0.00156846,0.00251939,-0.00134323,0.00292126,-0.00197033,-1.28009,0.00284189,0.0382434,685,953,-44.9715,-0.709909
-532,71,-45.087,0.602783,0,0,0,0,0,0,0,-1,692,953,-45.087,-0.602802
-525,71,-44.8215,0.967346,0,0,0,0,0,0,0,-1,699,953,-44.8215,-0.967355
-518,71,0,0,0,0,0,0,0,0,0,-1,706,953,0,0
-511,71,0,0,0,0,0,0,0,0,0,-1,713,953,0,0
-504,71,0,0,0,0,0,0,0,0,0,-1,720,953,0,0
-497,71,0,0,0,0,0,0,0,0,0,-1,727,953,0,0
-490,71,0,0,0,0,0,0,0,0,0,-1,734,953,0,0
-483,71,0,0,0,0,0,0,0,0,0,-1,741,953,0,0
-476,71,0,0,0,0,0,0,0,0,0,-1,748,953,0,0
-469,71,0,0,0,0,0,0,0,0,0,-1,755,953,0,0
-462,71,0,0,0,0,0,0,0,0,0,-1,762,953,0,0
-455,71,0,0,0,0,0,0,0,0,0,-1,769,953,0,0
-448,71,0,0,0,0,0,0,0,0,0,-1,776,953,0,0
-441,71,0,0,0,0,0,0,0,0,0,-1,783,953,0,0
-434,71,0,0,0,0,0,0,0,0,0,-1,790,953,0,0
-427,71,0,0,0,0,0,0,0,0,0,-1,797,953,0,0
-420,71,0,0,0,0,0,0,0,0,0,-1,804,953,0,0
-413,71,0,0,0,0,0,0,0,0,0,-1,811,953,0,0
-406,71,0,0,0,0,0,0,0,0,0,-1,818,953,0,0
-399,71,0,0,0,0,0,0,0,0,0,-1,825,953,0,0
-392,71,0,0,0,0,0,0,0,0,0,-1,832,953,0,0
-385,71,0,0,0,0,0,0,0,0,0,-1,839,953,0,0
-378,71,0,0,0,0,0,0,0,0,0,-1,846,953,0,0
-371,71,0,0,0,0,0,0,0,0,0,-1,853,953,0,0
-364,71,0,0,0,0,0,0,0,0,0,-1,860,953,0,0
-357,71,0,0,0,0,0,0,0,0,0,-1,867,953,0,0
-350,71,0,0,0,0,0,0,0,0,0,-1,874,953,0,0
-343,71,0,0,0,0,0,0,0,0,0,-1,881,953,0,0
-336,71,0,0,0,0,0,0,0,0,0,-1,888,953,0,0
-329,71,0,0,0,0,0,0,0,0,0,-1,895,953,0,0
-322,71,0,0,0,0,0,0,0,0,0,-1,902,953,0,0
-315,71,0,0,0,0,0,0,0,0,0,-1,909,953,0,0
-308,71,0,0,0,0,0,0,0,0,0,-1,916,953,0,0
-301,71,0,0,0,0,0,0,0,0,0,-1,923,953,0,0
-294,71,0,0,0,0,0,0,0,0,0,-1,930,953,0,0
-287,71,0,0,0,0,0,0,0,0,0,-1,937,953,0,0
-280,71,0,0,0,0,0,0,0,0,0,-1,944,953,0,0
-273,71,0,0,0,0,0,0,0,0,0,-1,951,953,0,0
-266,71,0,0,0,0,0,0,0,0,0,-1,958,953,0,0
-259,71,0,0,0,0,0,0,0,0,0,-1,965,953,0,0
-252,71,0,0,0,0,0,0,0,0,0,-1,972,953,0,0
-245,71,0,0,0,0,0,0,0,0,0,-1,979,953,0,0
-238,71,0,0,0,0,0,0,0,0,0,-1,986,953,0,0
-231,71,0,0,0,0,0,0,0,0,0,-1,993,953,0,0
-224,71,0,0,0,0,0,0,0,0,0,-1,1000,953,0,0
-217,71,0,0,0,0,0,0,0,0,0,-1,1007,953,0,0
-210,71,0,0,0,0,0,0,0,0,0,-1,1014,953,0,0
-203,71,0,0,0,0,0,0,0,0,0,-1,1021,953,0,0
-196,71,0,0,0,0,0,0,0,0,0,-1,1028,953,0,0
-189,71,0,0,0,0,0,0,0,0,0,-1,1035,953,0,0
-182,71,0,0,0,0,0,0,0,0,0,-1,1042,953,0,0
-175,71,0,0,0,0,0,0,0,0,0,-1,1049,953,0,0
-168,71,0,0,0,0,0,0,0,0,0,-1,1056,953,0,0
-161,71,0,0,0,0,0,0,0,0,0,-1,1063,953,0,0
-154,71,0,0,0,0,0,0,0,0,0,-1,1070,953,0,0
-147,71,0,0,0,0,0,0,0,0,0,-1,1077,953,0,0
-140,71,0,0,0,0,0,0,0,0,0,-1,1084,953,0,0
-133,71,0,0,0,0,0,0,0,0,0,-1,1091,953,0,0
-126,71,0,0,0,0,0,0,0,0,0,-1,1098,953,0,0
-119,71,0,0,0,0,0,0,0,0,0,-1,1105,953,0,0
-112,71,0,0,0,0,0,0,0,0,0,-1,1112,953,0,0
-105,71,0,0,0,0,0,0,0,0,0,-1,1119,953,0,0
-98,71,0,0,0,0,0,0,0,0,0,-1,1126,953,0,0
-91,71,0,0,0,0,0,0,0,0,0,-1,1133,953,0,0
-84,71,0,0,0,0,0,0,0,0,0,-1,1140,953,0,0
-77,71,0,0,0,0,0,0,0,0,0,-1,1147,953,0,0
-70,71,0,0,0,0,0,0,0,0,0,-1,1154,953,0,0
-63,71,0,0,0,0,0,0,0,0,0,-1,1161,953,0,0
-56,71,0,0,0,0,0,0,0,0,0,-1,1168,953,0,0
-49,71,0,0,0,0,0,0,0,0,0,-1,1175,953,0,0
-42,71,0,0,0,0,0,0,0,0,0,-1,1182,953,0,0
-35,71,0,0,0,0,0,0,0,0,0,-1,1189,953,0,0
-28,71,0,0,0,0,0,0,0,0,0,-1,1196,953,0,0
-21,71,0,0,0,0,0,0,0,0,0,-1,1203,953,0,0
-14,71,0,0,0,0,0,0,0,0,0,-1,1210,953,0,0
-7,71,0,0,0,0,0,0,0,0,0,-1,1217,953,0,0
0,71,0,0,0,0,0,0,0,0,0,-1,1224,953,0,0
7,71,0,0,0,0,0,0,0,0,0,-1,1231,953,0,0
14,71,0,0,0,0,0,0,0,0,0,-1,1238,953,0,0
21,71,0,0,0,0,0,0,0,0,0,-1,1245,953,0,0
28,71,0,0,0,0,0,0,0,0,0,-1,1252,953,0,0
35,71,0,0,0,0,0,0,0,0,0,-1,1259,953,0,0
42,71,0,0,0,0,0,0,0,0,0,-1,1266,953,0,0
49,71,0,0,0,0,0,0,0,0,0,-1,1273,953,0,0
56,71,0,0,0,0,0,0,0,0,0,-1,1280,953,0,0
63,71,0,0,0,0,0,0,0,0,0,-1,1287,953,0,0
70,71,0,0,0,0,0,0,0,0,0,-1,1294,953,0,0
77,71,0,0,0,0,0,0,0,0,0,-1,1301,953,0,0
84,71,0,0,0,0,0,0,0,0,0,-1,1308,953,0,0
91,71,0,0,0,0,0,0,0,0,0,-1,1315,953,0,0
98,71,0,0,0,0,0,0,0,0,0,-1,1322,953,0,0
105,71,0,0,0,0,0,0,0,0,0,-1,1329,953,0,0
112,71,0,0,0,0,0,0,0,0,0,-1,1336,953,0,0
119,71,0,0,0,0,0,0,0,0,0,-1,1343,953,0,0
126,71,0,0,0,0,0,0,0,0,0,-1,1350,953,0,0
133,71,0,0,0,0,0,0,0,0,0,-1,1357,953,0,0
140,71,0,0,0,0,0,0,0,0,0,-1,1364,953,0,0
147,71,0,0,0,0,0,0,0,0,0,-1,1371,953,0,0
154,71,0,0,0,0,0,0,0,0,0,-1,1378,953,0,0
161,71,0,0,0,0,0,0,0,0,0,-1,1385,953,0,0
168,71,0,0,0,0,0,0,0,0,0,-1,1392,953,0,0
175,71,0,0,0,0,0,0,0,0,0,-1,1399,953,0,0
182,71,0,0,0,0,0,0,0,0,0,-1,1406,953,0,0
189,71,0,0,0,0,0,0,0,0,0,-1,1413,953,0,0
196,71,0,0,0,0,0,0,0,0,0,-1,1420,953,0,0
203,71,0,0,0,0,0,0,0,0,0,-1,1427,953,0,0
210,71,0,0,0,0,0,0,0,0,0,-1,1434,953,0,0
217,71,0,0,0,0,0,0,0,0,0,-1,1441,953,0,0
224,71,0,0,0,0,0,0,0,0,0,-1,1448,953,0,0
231,71,0,0,0,0,0,0,0,0,0,-1,1455,953,0,0
238,71,0,0,0,0,0,0,0,0,0,-1,1462,953,0,0
245,71,0,0,0,0,0,0,0,0,0,-1,1469,953,0,0
252,71,0,0,0,0,0,0,0,0,0,-1,1476,953,0,0
259,71,0,0,0,0,0,0,0,0,0,-1,1483,953,0,0
266,71,0,0,0,0,0,0,0,0,0,-1,1490,953,0,0
273,71,0,0,0,0,0,0,0,0,0,-1,1497,953,0,0
280,71,0,0,0,0,0,0,0,0,0,-1,1504,953,0,0
287,71,0,0,0,0,0,0,0,0,0,-1,1511,953,0,0
294,71,0,0,0,0,0,0,0,0,0,-1,1518,953,0,0
301,71,0,0,0,0,0,0,0,0,0,-1,1525,953,0,0
308,71,0,0,0,0,0,0,0,0,0,-1,1532,953,0,0
315,71,0,0,0,0,0,0,0,0,0,-1,1539,953,0,0
322,71,0,0,0,0,0,0,0,0,0,-1,1546,953,0,0
329,71,0,0,0,0,0,0,0,0,0,-1,1553,953,0,0
336,71,0,0,0,0,0,0,0,0,0,-1,1560,953,0,0
343,71,0,0,0,0,0,0,0,0,0,-1,1567,953,0,0
350,71,0,0,0,0,0,0,0,0,0,-1,1574,953,0,0
357,71,0,0,0,0,0,0,0,0,0,-1,1581,953,0,0
364,71,0,0,0,0,0,0,0,0,0,-1,1588,953,0,0
371,71,0,0,0,0,0,0,0,0,0,-1,1595,953,0,0
378,71,0,0,0,0,0,0,0,0,0,-1,1602,953,0,0
385,71,0,0,0,0,0,0,0,0,0,-1,1609,953,0,0
392,71,0,0,0,0,0,0,0,0,0,-1,1616,953,0,0
399,71,0,0,0,0,0,0,0,0,0,-1,1623,953,0,0
406,71,0,0,0,0,0,0,0,0,0,-1,1630,953,0,0
413,71,0,0,0,0,0,0,0,0,0,-1,1637,953,0,0
420,71,0,0,0,0,0,0,0,0,0,-1,1644,953,0,0
427,71,0,0,0,0,0,0,0,0,0,-1,1651,953,0,0
434,71,0,0,0,0,0,0,0,0,0,-1,1658,953,0,0
441,71,0,0,0,0,0,0,0,0,0,-1,1665,953,0,0
448,71,0,0,0,0,0,0,0,0,0,-1,1672,953,0,0
455,71,0,0,0,0,0,0,0,0,0,-1,1679,953,0,0
462,71,0,0,0,0,0,0,0,0,0,-1,1686,953,0,0
469,71,0,0,0,0,0,0,0,0,0,-1,1693,953,0,0
476,71,0,0,0,0,0,0,0,0,0,-1,1700,953,0,0
483,71,0,0,0,0,0,0,0,0,0,-1,1707,953,0,0
490,71,0,0,0,0,0,0,0,0,0,-1,1714,953,0,0
497,71,0,0,0,0,0,0,0,0,0,-1,1721,953,0,0
504,71,0,0,0,0,0,0,0,0,0,-1,1728,953,0,0
511,71,0,0,0,0,0,0,0,0,0,-1,1735,953,0,0
518,71,0,0,0,0,0,0,0,0,0,-1,1742,953,0,0
525,71,0,0,0,0,0,0,0,0,0,-1,1749,953,0,0
532,71,0,0,0,0,0,0,0,0,0,-1,1756,953,0,0
539,71,0,0,0,0,0,0,0,0,0,-1,1763,953,0,0
546,71,0,0,0,0,0,0,0,0,0,-1,1770,953,0,0
553,71,0,0,0,0,0,0,0,0,0,-1,1777,953,0,0
560,71,0,0,0,0,0,0,0,0,0,-1,1784,953,0,0
567,71,0,0,0,0,0,0,0,0,0,-1,1791,953,0,0
574,71,0,0,0,0,0,0,0,0,0,-1,1798,953,0,0
581,71,0,0,0,0,0,0,0,0,0,-1,1805,953,0,0
588,71,0,0,0,0,0,0,0,0,0,-1,1812,953,0,0
595,71,0,0,0,0,0,0,0,0,0,-1,1819,953,0,0
602,71,0,0,0,0,0,0,0,0,0,-1,1826,953,0,0
609,71,0,0,0,0,0,0,0,0,0,-1,1833,953,0,0
616,71,0,0,0,0,0,0,0,0,0,-1,1840,953,0,0
623,71,0,0,0,0,0,0,0,0,0,-1,1847,953,0,0
630,71,0,0,0,0,0,0,0,0,0,-1,1854,953,0,0
637,71,59.3348,2.62402,-0.000493663,0.000622027,0.00153935,0.00170149,-0.00157313,0.959234,0.00189108,0.0404347,1861,953,59.3348,-2.62403
644,71,59.3199,2.56372,-0.000477672,-0.000401554,0.00120565,0.000766635,-0.00164586,0.801177,0.00142335,0.0411333,1868,953,59.3199,-2.56374
651,71,59.2695,2.47687,-0.000317684,-0.000910488,0.000884169,0.000318442,-0.00154661,0.623669,0.00115199,0.0405402,1875,953,59.2695,-2.47686
658,71,59.2014,2.59967,-0.000212156,-0.00094639,0.000879525,0.000373796,-0.00153234,0.587689,0.0011663,0.0384342,1882,953,59.2014,-2.59966
665,71,59.2277,2.66333,-0.000205789,-0.000644207,0.00119066,0.000785669,-0.00163567,0.694364,0.00142638,0.0393031,1889,953,59.2277,-2.66332
672,71,59.1219,2.29578,-0.000488388,-0.000326504,0.00163424,0.0012288,-0.00204369,0.810142,0.0019088,0.0395586,1896,953,59.122,-2.29576
679,71,59.0861,2.44647,-0.000795792,-0.000239893,0.00205081,0.00155172,-0.00258741,0.852753,0.00241453,0.039264,1903,953,59.0861,-2.44648
686,71,59.0309,2.55652,-0.000891423,-0.000263851,0.00217986,0.0016247,-0.00277997,0.856881,0.00257203,0.0382046,1910,953,59.0309,-2.55653
693,71,59.103,2.48181,-0.00105495,-0.000243227,0.00209785,0.00148766,-0.00278584,0.880951,0.00250497,0.0324705,1917,953,59.1031,-2.48179
700,71,59.1093,2.50848,-0.00154383,-0.000142379,0.00192312,0.0012037,-0.00288991,0.960107,0.00242936,0.0278609,1924,953,59.1092,-2.50847
707,71,59.1106,2.6853,0,0,0,0,0,0,0,-1,1931,953,59.1106,-2.68532
714,71,57.1008,4.47577,0,0,0,0,0,0,0,-1,1938,953,57.1008,-4.47579
721,71,56.8011,4.89923,-0.00328369,0.00169327,0.000873466,0.00184212,-0.00343253,1.40201,0.00309112,0.0411208,1945,953,56.8011,-4.89921
728,71,56.5881,5.42987,-0.00359294,0.00281565,0.000494569,0.00285359,-0.00363088,1.49423,0.00375276,0.0304688,1952,953,56.5881,-5.42988
735,71,56.6238,5.90521,-0.00382193,0.00411497,-0.000564809,0.00415496,-0.00386192,-1.50011,0.00462958,0.0222162,1959,953,56.6238,-5.90522
742,71,56.6567,6.27722,-0.00402108,0.00596176,-0.00193502,0.00632371,-0.00438303,-1.38588,0.0062153,0.0217997,1966,953,56.6568,-6.27724
749,71,56.6023,6.6908,-0.003589,0.00874228,-0.00401519,0.00993442,-0.00478114,-1.28218,0.00866794,0.0198823,1973,953,56.6022,-6.69081
756,71,56.5524,7.04926,-0.00213708,0.0121403,-0.00689785,0.0149284,-0.00492518,-1.18668,0.0119376,0.0177404,1980,953,56.5524,-7.04928
763,71,56.4713,7.44666,0.000401568,0.0165039,-0.0106669,0.0218171,-0.00491158,-1.10867,0.0164285,0.0201548,1987,953,56.4713,-7.44663
770,71,56.2266,7.75195,0.00410758,0.0213215,-0.0152601,0.0302345,-0.0048055,-1.04217,0.0219344,0.024352,1994,953,56.2265,-7.75194
777,71,56.2327,8.21356,0.0090964,0.0260015,-0.0211065,0.040285,-0.0051871,-0.975855,0.0287422,0.0443057,2001,953,56.2327,-8.21354
784,71,56.3198,8.71326,0,0,0,0,0,0,0,-1,2008,953,56.3198,-8.71326
791,71,58.905,8.70728,0,0,0,0,0,0,0,-1,2015,953,58.905,-8.70727
798,71,59.2974,9.13574,0,0,0,0,0,0,0,-1,2022,953,59.2973,-9.13574
805,71,45.0161,6.63287,0,0,0,0,0,0,0,-1,2029,953,45.0161,-6.63289
812,71,0,0,0,0,0,0,0,0,0,-1,2036,953,0,0
-700,64,0,0,0,0,0,0,0,0,0,-1,524,960,0,0
-693,64,0,0,0,0,0,0,0,0,0,-1,531,960,0,0
-686,64,-42.6245,8.1875,0.0987201,0.142962,-0.0794695,0.203332,0.0383504,-0.921142,0.124752,0.0470631,538,960,-42.6244,-8.1875
-679,64,-42.6003,7.46509,0.0810624,0.120965,-0.0594058,0.16368,0.0383471,-0.947404,0.0988491,0.0457256,545,960,-42.6003,-7.46507
-672,64,-42.5972,6.8064,0.0648149,0.101853,-0.043669,0.130767,0.0359003,-0.985941,0.0780152,0.0483387,552,960,-42.5972,-6.80641
-665,64,-42.5404,6.08228,0.0503352,0.0849107,-0.0310922,0.103198,0.0320478,-1.03912,0.0609905,0.0462263,559,960,-42.5404,-6.08227
-658,64,-44.2597,5.62628,0,0,0,0,0,0,0,-1,566,960,-44.2597,-5.62628
-651,64,-44.0747,5.4527,0.0269162,0.0561737,-0.0130421,0.0611434,0.0219465,-1.20674,0.0357664,0.0423284,573,960,-44.0747,-5.45267
-644,64,-43.7719,5.32843,0.0180985,0.0440654,-0.00694728,0.0458073,0.0163566,-1.32514,0.0268046,0.0337484,580,960,-43.7719,-5.32846
-637,64,-43.7111,5.08191,0.0112216,0.033464,-0.00279773,0.0338106,0.0108751,-1.44757,0.0199302,0.0182228,587,960,-43.7111,-5.08189
-630,64,-43.7853,4.76147,0.00446334,0.0228553,0.00152722,0.0229812,0.00433738,1.48851,0.0140992,0.0144307,594,960,-43.7854,-4.7615
-623,64,-43.8243,4.44672,-0.000866307,0.0143907,0.00372844,0.015253,-0.0017287,1.34349,0.0107912,0.0148476,601,960,-43.8243,-4.44674
-616,64,-43.8538,4.08191,-0.00287253,0.00951424,0.00290485,0.0101616,-0.00351991,1.35152,0.00820343,0.018337,608,960,-43.8538,-4.08188
-609,64,-43.8024,3.75067,-0.00360312,0.00603609,0.00165065,0.00631091,-0.00387795,1.40581,0.00593818,0.0183185,615,960,-43.8024,-3.75065
-602,64,-43.7751,3.38794,-0.00407601,0.00362272,0.000410441,0.00364454,-0.00409783,1.51768,0.00447261,0.0173087,622,960,-43.7751,-3.38797
-595,64,-43.7934,3.05902,-0.00477808,0.00189378,-0.000683448,0.00196307,-0.00484737,-1.46976,0.00404785,0.0220898,629,960,-43.7934,-3.05904
-588,64,-43.7048,2.8006,-0.00492455,0.0008772,-0.00143497,0.00121272,-0.00526007,-1.34111,0.00397313,0.0345189,636,960,-43.7048,-2.80058
-581,64,-43.5439,2.53162,0,0,0,0,0,0,0,-1,643,960,-43.5439,-2.53159
-574,64,-44.7025,1.0127,-0.00482916,9.50407e-05,-0.00227544,0.00098549,-0.00571961,-1.19779,0.00418047,0.044784,650,960,-44.7025,-1.01271
-567,64,-44.8482,0.774353,-0.00482908,0.000123061,-0.00250261,0.0011675,-0.00587352,-1.17543,0.0043573,0.0240296,657,960,-44.8482,-0.774339
-560,64,-44.8561,0.911072,-0.00466621,0.000420119,-0.00249789,0.00144166,-0.00568775,-1.18259,0.00435271,0.0330453,664,960,-44.8561,-0.911074
-553,64,-44.832,0.907043,-0.00407287,0.000903192,-0.00229045,0.00179695,-0.00496663,-1.19876,0.00404536,0.0375539,671,960,-44.832,-0.90704
-546,64,-44.9542,0.7005,-0.00283187,0.0014884,-0.0018581,0.0021776,-0.00352107,-1.21561,0.00332047,0.0382138,678,960,-44.9542,-0.70048
-539,64,-45.2535,0.539307,-0.000834853,0.00198057,-0.00120453,0.00242557,-0.00127985,-1.21691,0.00217315,0.0390773,685,960,-45.2535,-0.539294
-532,64,-45.0317,0.854248,0.00210595,0.00216931,-0.000748121,0.00288642,0.00138884,-0.806558,0.00166687,0.0409267,692,960,-45.0317,-0.854262
-525,64,-44.7789,1.02356,0.00434958,0.00302464,-0.00108091,0.00495488,0.00241934,-0.510479,0.00286096,0.0447723,699,960,-44.7789,-1.02357
-518,64,0,0,0,0,0,0,0,0,0,-1,706,960,0,0
-511,64,0,0,0,0,0,0,0,0,0,-1,713,960,0,0
-504,64,0,0,0,0,0,0,0,0,0,-1,720,960,0,0
-497,64,0,0,0,0,0,0,0,0,0,-1,727,960,0,0
-490,64,0,0,0,0,0,0,0,0,0,-1,734,960,0,0
-483,64,0,0,0,0,0,0,0,0,0,-1,741,960,0,0
-476,64,0,0,0,0,0,0,0,0,0,-1,748,960,0,0
-469,64,0,0,0,0,0,0,0,0,0,-1,755,960,0,0
-462,64,0,0,0,0,0,0,0,0,0,-1,762,960,0,0
-455,64,0,0,0,0,0,0,0,0,0,-1,769,960,0,0
-448,64,0,0,0,0,0,0,0,0,0,-1,776,960,0,0
-441,64,0,0,0,0,0,0,0,0,0,-1,783,960,0,0
-434,64,0,0,0,0,0,0,0,0,0,-1,790,960,0,0
-427,64,0,0,0,0,0,0,0,0,0,-1,797,960,0,0
-420,64,0,0,0,0,0,0,0,0,0,-1,804,960,0,0
-413,64,0,0,0,0,0,0,0,0,0,-1,811,960,0,0
-406,64,0,0,0,0,0,0,0,0,0,-1,818,960,0,0
-399,64,0,0,0,0,0,0,0,0,0,-1,825,960,0,0
-392,64,0,0,0,0,0,0,0,0,0,-1,832,960,0,0
-385,64,0,0,0,0,0,0,0,0,0,-1,839,960,0,0
-378,64,0,0,0,0,0,0,0,0,0,-1,846,960,0,0
-371,64,0,0,0,0,0,0,0,0,0,-1,853,960,0,0
-364,64,0,0,0,0,0,0,0,0,0,-1,860,960,0,0
-357,64,0,0,0,0,0,0,0,0,0,-1,867,960,0,0
-350,64,0,0,0,0,0,0,0,0,0,-1,874,960,0,0
-343,64,0,0,0,0,0,0,0,0,0,-1,881,960,0,0
-336,64,0,0,0,0,0,0,0,0,0,-1,888,960,0,0
-329,64,0,0,0,0,0,0,0,0,0,-1,895,960,0,0
-322,64,0,0,0,0,0,0,0,0,0,-1,902,960,0,0
-315,64,0,0,0,0,0,0,0,0,0,-1,909,960,0,0
-308,64,0,0,0,0,0,0,0,0,0,-1,916,960,0,0
-301,64,0,0,0,0,0,0,0,0,0,-1,923,960,0,0
-294,64,0,0,0,0,0,0,0,0,0,-1,930,960,0,0
-287,64,0,0,0,0,0,0,0,0,0,-1,937,960,0,0
-280,64,0,0,0,0,0,0,0,0,0,-1,944,960,0,0
-273,64,0,0,0,0,0,0,0,0,0,-1,951,960,0,0
-266,64,0,0,0,0,0,0,0,0,0,-1,958,960,0,0
-259,64,0,0,0,0,0,0,0,0,0,-1,965,960,0,0
-252,64,0,0,0,0,0,0,0,0,0,-1,972,960,0,0
-245,64,0,0,0,0,0,0,0,0,0,-1,979,960,0,0
-238,64,0,0,0,0,0,0,0,0,0,-1,986,960,0,0
-231,64,0,0,0,0,0,0,0,0,0,-1,993,960,0,0
-224,64,0,0,0,0,0,0,0,0,0,-1,1000,960,0,0
-217,64,0,0,0,0,0,0,0,0,0,-1,1007,960,0,0
-210,64,0,0,0,0,0,0,0,0,0,-1,1014,960,0,0
-203,64,0,0,0,0,0,0,0,0,0,-1,1021,960,0,0
-196,64,0,0,0,0,0,0,0,0,0,-1,1028,960,0,0
-189,64,0,0,0,0,0,0,0,0,0,-1,1035,960,0,0
-182,64,0,0,0,0,0,0,0,0,0,-1,1042,960,0,0
-175,64,0,0,0,0,0,0,0,0,0,-1,1049,960,0,0
-168,64,0,0,0,0,0,0,0,0,0,-1,1056,960,0,0
-161,64,0,0,0,0,0,0,0,0,0,-1,1063,960,0,0
-154,64,0,0,0,0,0,0,0,0,0,-1,1070,960,0,0
-147,64,0,0,0,0,0,0,0,0,0,-1,1077,960,0,0
-140,64,0,0,0,0,0,0,0,0,0,-1,1084,960,0,0
-133,64,0,0,0,0,0,0,0,0,0,-1,1091,960,0,0
-126,64,0,0,0,0,0,0,0,0,0,-1,1098,960,0,0
-119,64,0,0,0,0,0,0,0,0,0,-1,1105,960,0,0
-112,64,0,0,0,0,0,0,0,0,0,-1,1112,960,0,0
-105,64,0,0,0,0,0,0,0,0,0,-1,1119,960,0,0
-98,64,0,0,0,0,0,0,0,0,0,-1,1126,960,0,0
-91,64,0,0,0,0,0,0,0,0,0,-1,1133,960,0,0
-84,64,0,0,0,0,0,0,0,0,0,-1,1140,960,0,0
-77,64,0,0,0,0,0,0,0,0,0,-1,1147,960,0,0
-70,64,0,0,0,0,0,0,0,0,0,-1,1154,960,0,0
-63,64,0,0,0,0,0,0,0,0,0,-1,1161,960,0,0
-56,64,0,0,0,0,0,0,0,0,0,-1,1168,960,0,0
-49,64,0,0,0,0,0,0,0,0,0,-1,1175,960,0,0
-42,64,0,0,0,0,0,0,0,0,0,-1,1182,960,0,0
-35,64,0,0,0,0,0,0,0,0,0,-1,1189,960,0,0
-28,64,0,0,0,0,0,0,0,0,0,-1,1196,960,0,0
-21,64,0,0,0,0,0,0,0,0,0,-1,1203,960,0,0
-14,64,0,0,0,0,0,0,0,0,0,-1,1210,960,0,0
-7,64,0,0,0,0,0,0,0,0,0,-1,1217,960,0,0
0,64,0,0,0,0,0,0,0,0,0,-1,1224,960,0,0
7,64,0,0,0,0,0,0,0,0,0,-1,1231,960,0,0
14,64,0,0,0,0,0,0,0,0,0,-1,1238,960,0,0
21,64,0,0,0,0,0,0,0,0,0,-1,1245,960,0,0
28,64,0,0,0,0,0,0,0,0,0,-1,1252,960,0,0
35,64,0,0,0,0,0,0,0,0,0,-1,1259,960,0,0
42,64,0,0,0,0,0,0,0,0,0,-1,1266,960,0,0
49,64,0,0,0,0,0,0,0,0,0,-1,1273,960,0,0
56,64,0,0,0,0,0,0,0,0,0,-1,1280,960,0,0
63,64,0,0,0,0,0,0,0,0,0,-1,1287,960,0,0
70,64,0,0,0,0,0,0,0,0,0,-1,1294,960,0,0
77,64,0,0,0,0,0,0,0,0,0,-1,1301,960,0,0
84,64,0,0,0,0,0,0,0,0,0,-1,1308,960,0,0
91,64,0,0,0,0,0,0,0,0,0,-1,1315,960,0,0
98,64,0,0,0,0,0,0,0,0,0,-1,1322,960,0,0
105,64,0,0,0,0,0,0,0,0,0,-1,1329,960,0,0
112,64,0,0,0,0,0,0,0,0,0,-1,1336,960,0,0
119,64,0,0,0,0,0,0,0,0,0,-1,1343,960,0,0
126,64,0,0,0,0,0,0,0,0,0,-1,1350,960,0,0
133,64,0,0,0,0,0,0,0,0,0,-1,1357,960,0,0
140,64,0,0,0,0,0,0,0,0,0,-1,1364,960,0,0
147,64,0,0,0,0,0,0,0,0,0,-1,1371,960,0,0
154,64,0,0,0,0,0,0,0,0,0,-1,1378,960,0,0
161,64,0,0,0,0,0,0,0,0,0,-1,1385,960,0,0
168,64,0,0,0,0,0,0,0,0,0,-1,1392,960,0,0
175,64,0,0,0,0,0,0,0,0,0,-1,1399,960,0,0
182,64,0,0,0,0,0,0,0,0,0,-1,1406,960,0,0
189,64,0,0,0,0,0,0,0,0,0,-1,1413,960,0,0
196,64,0,0,0,0,0,0,0,0,0,-1,1420,960,0,0
203,64,0,0,0,0,0,0,0,0,0,-1,1427,960,0,0
210,64,0,0,0,0,0,0,0,0,0,-1,1434,960,0,0
217,64,0,0,0,0,0,0,0,0,0,-1,1441,960,0,0
224,64,0,0,0,0,0,0,0,0,0,-1,1448,960,0,0
231,64,0,0,0,0,0,0,0,0,0,-1,1455,960,0,0
238,64,0,0,0,0,0,0,0,0,0,-1,1462,960,0,0
245,64,0,0,0,0,0,0,0,0,0,-1,1469,960,0,0
252,64,0,0,0,0,0,0,0,0,0,-1,1476,960,0,0
259,64,0,0,0,0,0,0,0,0,0,-1,1483,960,0,0
266,64,0,0,0,0,0,0,0,0,0,-1,1490,960,0,0
273,64,0,0,0,0,0,0,0,0,0,-1,1497,960,0,0
280,64,0,0,0,0,0,0,0,0,0,-1,1504,960,0,0
287,64,0,0,0,0,0,0,0,0,0,-1,1511,960,0,0
294,64,0,0,0,0,0,0,0,0,0,-1,1518,960,0,0
301,64,0,0,0,0,0,0,0,0,0,-1,1525,960,0,0
308,64,0,0,0,0,0,0,0,0,0,-1,1532,960,0,0
315,64,0,0,0,0,0,0,0,0,0,-1,1539,960,0,0
322,64,0,0,0,0,0,0,0,0,0,-1,1546,960,0,0
329,64,0,0,0,0,0,0,0,0,0,-1,1553,960,0,0
336,64,0,0,0,0,0,0,0,0,0,-1,1560,960,0,0
343,64,0,0,0,0,0,0,0,0,0,-1,1567,960,0,0
350,64,0,0,0,0,0,0,0,0,0,-1,1574,960,0,0
357,64,0,0,0,0,0,0,0,0,0,-1,1581,960,0,0
364,64,0,0,0,0,0,0,0,0,0,-1,1588,960,0,0
371,64,0,0,0,0,0,0,0,0,0,-1,1595,960,0,0
378,64,0,0,0,0,0,0,0,0,0,-1,1602,960,0,0
385,64,0,0,0,0,0,0,0,0,0,-1,1609,960,0,0
392,64,0,0,0,0,0,0,0,0,0,-1,1616,960,0,0
399,64,0,0,0,0,0,0,0,0,0,-1,1623,960,0,0
406,64,0,0,0,0,0,0,0,0,0,-1,1630,960,0,0
413,64,0,0,0,0,0,0,0,0,0,-1,1637,960,0,0
420,64,0,0,0,0,0,0,0,0,0,-1,1644,960,0,0
427,64,0,0,0,0,0,0,0,0,0,-1,1651,960,0,0
434,64,0,0,0,0,0,0,0,0,0,-1,1658,960,0,0
441,64,0,0,0,0,0,0,0,0,0,-1,1665,960,0,0
448,64,0,0,0,0,0,0,0,0,0,-1,1672,960,0,0
455,64,0,0,0,0,0,0,0,0,0,-1,1679,960,0,0
462,64,0,0,0,0,0,0,0,0,0,-1,1686,960,0,0
469,64,0,0,0,0,0,0,0,0,0,-1,1693,960,0,0
476,64,0,0,0,0,0,0,0,0,0,-1,1700,960,0,0
483,64,0,0,0,0,0,0,0,0,0,-1,1707,960,0,0
490,64,0,0,0,0,0,0,0,0,0,-1,1714,960,0,0
497,64,0,0,0,0,0,0,0,0,0,-1,1721,960,0,0
504,64,0,0,0,0,0,0,0,0,0,-1,1728,960,0,0
511,64,0,0,0,0,0,0,0,0,0,-1,1735,960,0,0
518,64,0,0,0,0,0,0,0,0,0,-1,1742,960,0,0
525,64,0,0,0,0,0,0,0,0,0,-1,1749,960,0,0
532,64,0,0,0,0,0,0,0,0,0,-1,1756,960,0,0
539,64,0,0,0,0,0,0,0,0,0,-1,1763,960,0,0
546,64,0,0,0,0,0,0,0,0,0,-1,1770,960,0,0
553,64,0,0,0,0,0,0,0,0,0,-1,1777,960,0,0
560,64,0,0,0,0,0,0,0,0,0,-1,1784,960,0,0
567,64,0,0,0,0,0,0,0,0,0,-1,1791,960,0,0
574,64,0,0,0,0,0,0,0,0,0,-1,1798,960,0,0
581,64,0,0,0,0,0,0,0,0,0,-1,1805,960,0,0
588,64,0,0,0,0,0,0,0,0,0,-1,1812,960,0,0
595,64,0,0,0,0,0,0,0,0,0,-1,1819,960,0,0
602,64,0,0,0,0,0,0,0,0,0,-1,1826,960,0,0
609,64,0,0,0,0,0,0,0,0,0,-1,1833,960,0,0
616,64,0,0,0,0,0,0,0,0,0,-1,1840,960,0,0
623,64,0,0,0,0,0,0,0,0,0,-1,1847,960,0,0
630,64,0,0,0,0,0,0,0,0,0,-1,1854,960,0,0
637,64,0,0,0,0,0,0,0,0,0,-1,1861,960,0,0
644,64,59.0862,2.59985,0.00097443,-0.0003164,0.00130984,0.00178923,-0.0011312,0.556485,0.00170032,0.0384326,1868,960,59.0861,-2.59982
651,64,59.1578,2.61444,0.000695039,-0.000682112,0.000913206,0.00115018,-0.00113725,0.462364,0.00132065,0.0387042,1875,960,59.1578,-2.61444
658,64,59.1781,2.64355,0.00048384,-0.000655114,0.000847118,0.000935104,-0.00110638,0.489468,0.00118003,0.0377975,1882,960,59.178,-2.64358
665,64,59.1594,2.74091,0.000223851,-0.000305631,0.00114931,0.00113852,-0.0012203,0.672199,0.00136214,0.0417194,1889,960,59.1594,-2.74093
672,64,59.2393,2.27411,-0.000209391,9.12409e-05,0.00163022,0.00157806,-0.00169622,0.831371,0.00189082,0.0423241,1896,960,59.2392,-2.27409
679,64,59.1613,2.4552,-0.000584518,0.000221978,0.00212076,0.00197749,-0.00234003,0.879348,0.00249565,0.0401981,1903,960,59.1613,-2.45523
686,64,59.1051,2.5379,-0.000722212,0.000193366,0.00235291,0.00213261,-0.00266146,0.881479,0.00277346,0.0370843,1910,960,59.1052,-2.53792
693,64,59.1243,2.50232,-0.00090594,0.000159804,0.0023685,0.00205463,-0.00280077,0.896047,0.00281428,0.0329849,1917,960,59.1243,-2.50234
700,64,59.1438,2.52948,-0.00138141,0.000223247,0.00224317,0.00180326,-0.00296142,0.957147,0.00277784,0.0292713,1924,960,59.1438,-2.5295
707,64,58.9974,2.95984,-0.00194879,0.00049528,0.00193527,0.00156205,-0.00301556,1.06701,0.00268693,0.0439043,1931,960,58.9975,-2.95984
714,64,58.8116,3.75513,0,0,0,0,0,0,0,-1,1938,960,58.8116,-3.75516
721,64,57.1505,4.94012,0,0,0,0,0,0,0,-1,1945,960,57.1505,-4.94013
728,64,57.004,5.4646,-0.00344375,0.00304294,0.00076207,0.00313126,-0.00353208,1.45541,0.0038494,0.0229481,1952,960,57.004,-5.4646
735,64,56.9653,5.95813,-0.00374098,0.0043691,-0.000363907,0.0043854,-0.00375728,-1.52605,0.00470584,0.0309928,1959,960,56.9653,-5.95814
742,64,57.0796,6.25665,-0.00406664,0.0061396,-0.00177029,0.00643793,-0.00436498,-1.40384,0.00627522,0.0264451,1966,960,57.0796,-6.25663
749,64,57.0446,6.64386,-0.00360192,0.00851558,-0.00389967,0.00966209,-0.00474844,-1.28485,0.00847961,0.0166724,1973,960,57.0445,-6.64387
756,64,56.9958,7.01044,-0.00199595,0.0112918,-0.00696109,0.0142707,-0.00497486,-1.16644,0.0115354,0.0161437,1980,960,56.9958,-7.01042
763,64,56.9651,7.40283,0.000911476,0.0147282,-0.0110952,0.02089,-0.00525034,-1.06385,0.0159672,0.0181537,1987,960,56.9651,-7.40286
770,64,56.7285,7.67999,0.00519902,0.0183902,-0.0160344,0.0291326,-0.00554335,-0.980519,0.0215089,0.0190936,1994,960,56.7286,-7.68001
777,64,56.6313,7.9873,0.0110353,0.0215663,-0.0221704,0.0390879,-0.00648634,-0.901989,0.0284681,0.0346252,2001,960,56.6315,-7.98732
784,64,56.6206,8.29126,0.0191506,0.0239635,-0.0300385,0.0516918,-0.00857763,-0.825369,0.0376476,0.0423092,2008,960,56.6205,-8.29126
791,64,56.5659,8.61346,0,0,0,0,0,0,0,-1,2015,960,56.5658,-8.61348
798,64,57.4175,6.76154,0,0,0,0,0,0,0,-1,2022,960,57.4174,-6.76156
805,64,57.7939,6.56946,0,0,0,0,0,0,0,-1,2029,960,57.7939,-6.56944
812,64,0,0,0,0,0,0,0,0,0,-1,2036,960,0,0
-700,57,0,0,0,0,0,0,0,0,0,-1,524,967,0,0
-693,57,0,0,0,0,0,0,0,0,0,-1,531,967,0,0
-686,57,-42.5987,7.78638,0.107718,0.140791,-0.0721767,0.198301,0.0502078,-0.898007,0.119048,0.0461274,538,967,-42.5987,-7.78638
-679,57,-42.5253,2.35681,0.0889349,0.118857,-0.05304,0.159006,0.0487865,-0.922864,0.0940583,0.0413154,545,967,-42.5253,-2.35681
-672,57,-43.026,5.659,0,0,0,0,0,0,0,-1,552,967,-43.026,-5.65898
-665,57,-43.3985,5.21771,0,0,0,0,0,0,0,-1,559,967,-43.3985,-5.21774
-658,57,-44.8101,5.30194,0,0,0,0,0,0,0,-1,566,967,-44.8101,-5.30196
-651,57,-44.5964,5.133,0.0306379,0.0555645,-0.0101804,0.0591939,0.0270085,-1.22834,0.0342191,0.0471156,573,967,-44.5964,-5.13298
-644,57,-44.2246,5.03235,0.0208506,0.0437312,-0.00477232,0.0446867,0.0198951,-1.3732,0.0258515,0.0362713,580,967,-44.2246,-5.03233
-637,57,-44.1137,4.88159,0.0131015,0.0333119,-0.00127774,0.0333924,0.0130211,-1.50791,0.0194342,0.0209013,587,967,-44.1137,-4.88162
-630,57,-44.1882,4.63287,0.00567055,0.0227838,0.00249535,0.0231402,0.00531411,1.42892,0.0139959,0.0136721,594,967,-44.1882,-4.63285
-623,57,-44.2164,4.3927,-0.000310334,0.0144972,0.00420342,0.0156072,-0.00142035,1.31262,0.0109091,0.013069,601,967,-44.2164,-4.39269
-616,57,-44.2209,4.09082,-0.00258518,0.00970808,0.00289554,0.0103559,-0.00323305,1.35067,0.00819701,0.0151221,608,967,-44.221,-4.09083
-609,57,-44.2066,3.77997,-0.00331117,0.00632875,0.00134506,0.00651291,-0.00349533,1.43473,0.00586515,0.0153602,615,967,-44.2066,-3.77997
-602,57,-44.1924,3.44897,-0.00365211,0.00391988,-3.51816e-05,0.00392004,-0.00365228,-1.56615,0.00437279,0.0114273,622,967,-44.1924,-3.449
-595,57,-44.1774,3.12793,-0.00423509,0.00212951,-0.00123879,0.00236213,-0.0044677,-1.38518,0.00400518,0.0153571,629,967,-44.1774,-3.12793
-588,57,-44.0884,2.91907,-0.00420323,0.000983894,-0.00203044,0.00168415,-0.00490349,-1.23869,0.00395187,0.0254375,636,967,-44.0884,-2.91904
-581,57,-44.3267,1.89166,-0.00399382,0.000356677,-0.00258098,0.0015568,-0.00519395,-1.13555,0.00408176,0.0388358,643,967,-44.3267,-1.89167
-574,57,-44.7577,0.779236,0,0,0,0,0,0,0,-1,650,967,-44.7577,-0.779256
-567,57,-44.8498,0.733643,-0.00386869,1.8617e-05,-0.00300796,0.00165625,-0.00550633,-1.07224,0.00432988,0.0303593,657,967,-44.8498,-0.733639
-560,57,-44.9102,0.625671,-0.00368287,0.000249382,-0.00289273,0.0017809,-0.00521439,-1.08388,0.00419777,0.0385574,664,967,-44.9101,-0.625687
-553,57,-44.8177,0.633301,-0.00307548,0.000643708,-0.00254885,0.00193922,-0.004371,-1.10055,0.0037323,0.0376676,671,967,-44.8178,-0.633292
-546,57,-44.9523,0.681702,-0.00185246,0.00107635,-0.00195747,0.00205657,-0.00283268,-1.10654,0.00283464,0.0396558,678,967,-44.9523,-0.681698
-539,57,-45.1874,0.641296,9.68351e-05,0.00130536,-0.00115381,0.00200356,-0.000601367,-1.02662,0.00157491,0.0421244,685,967,-45.1875,-0.641304
-532,57,-45.1753,0.780701,0.00303136,0.00116241,-0.00075282,0.00329687,0.000896894,-0.339076,0.00196829,0.0407145,692,967,-45.1753,-0.780703
-525,57,-44.8965,1.06561,0.00519374,0.00183893,-0.00127228,0.00562166,0.00141101,-0.324454,0.00337716,0.0428814,699,967,-44.8965,-1.06559
-518,57,0,0,0,0,0,0,0,0,0,-1,706,967,0,0
-511,57,0,0,0,0,0,0,0,0,0,-1,713,967,0,0
-504,57,0,0,0,0,0,0,0,0,0,-1,720,967,0,0
-497,57,0,0,0,0,0,0,0,0,0,-1,727,967,0,0
-490,57,0,0,0,0,0,0,0,0,0,-1,734,967,0,0
-483,57,0,0,0,0,0,0,0,0,0,-1,741,967,0,0
-476,57,0,0,0,0,0,0,0,0,0,-1,748,967,0,0
-469,57,0,0,0,0,0,0,0,0,0,-1,755,967,0,0
-462,57,0,0,0,0,0,0,0,0,0,-1,762,967,0,0
-455,57,0,0,0,0,0,0,0,0,0,-1,769,967,0,0
-448,57,0,0,0,0,0,0,0,0,0,-1,776,967,0,0
-441,57,0,0,0,0,0,0,0,0,0,-1,783,967,0,0
-434,57,0,0,0,0,0,0,0,0,0,-1,790,967,0,0
-427,57,0,0,0,0,0,0,0,0,0,-1,797,967,0,0
-420,57,0,0,0,0,0,0,0,0,0,-1,804,967,0,0
-413,57,0,0,0,0,0,0,0,0,0,-1,811,967,0,0
-406,57,0,0,0,0,0,0,0,0,0,-1,818,967,0,0
-399,57,0,0,0,0,0,0,0,0,0,-1,825,967,0,0
-392,57,0,0,0,0,0,0,0,0,0,-1,832,967,0,0
-385,57,0,0,0,0,0,0,0,0,0,-1,839,967,0,0
-378,57,0,0,0,0,0,0,0,0,0,-1,846,967,0,0
-371,57,0,0,0,0,0,0,0,0,0,-1,853,967,0,0
-364,57,0,0,0,0,0,0,0,0,0,-1,860,967,0,0
-357,57,0,0,0,0,0,0,0,0,0,-1,867,967,0,0
-350,57,0,0,0,0,0,0,0,0,0,-1,874,967,0,0
-343,57,0,0,0,0,0,0,0,0,0,-1,881,967,0,0
-336,57,0,0,0,0,0,0,0,0,0,-1,888,967,0,0
-329,57,0,0,0,0,0,0,0,0,0,-1,895,967,0,0
-322,57,0,0,0,0,0,0,0,0,0,-1,902,967,0,0
-315,57,0,0,0,0,0,0,0,0,0,-1,909,967,0,0
-308,57,0,0,0,0,0,0,0,0,0,-1,916,967,0,0
-301,57,0,0,0,0,0,0,0,0,0,-1,923,967,0,0
-294,57,0,0,0,0,0,0,0,0,0,-1,930,967,0,0
-287,57,0,0,0,0,0,0,0,0,0,-1,937,967,0,0
-280,57,0,0,0,0,0,0,0,0,0,-1,944,967,0,0
-273,57,0,0,0,0,0,0,0,0,0,-1,951,967,0,0
-266,57,0,0,0,0,0,0,0,0,0,-1,958,967,0,0
-259,57,0,0,0,0,0,0,0,0,0,-1,965,967,0,0
-252,57,0,0,0,0,0,0,0,0,0,-1,972,967,0,0
-245,57,0,0,0,0,0,0,0,0,0,-1,979,967,0,0
-238,57,0,0,0,0,0,0,0,0,0,-1,986,967,0,0
-231,57,0,0,0,0,0,0,0,0,0,-1,993,967,0,0
-224,57,0,0,0,0,0,0,0,0,0,-1,1000,967,0,0
-217,57,0,0,0,0,0,0,0,0,0,-1,1007,967,0,0
-210,57,0,0,0,0,0,0,0,0,0,-1,1014,967,0,0
-203,57,0,0,0,0,0,0,0,0,0,-1,1021,967,0,0
-196,57,0,0,0,0,0,0,0,0,0,-1,1028,967,0,0
-189,57,0,0,0,0,0,0,0,0,0,-1,1035,967,0,0
-182,57,0,0,0,0,0,0,0,0,0,-1,1042,967,0,0
-175,57,0,0,0,0,0,0,0,0,0,-1,1049,967,0,0
-168,57,0,0,0,0,0,0,0,0,0,-1,1056,967,0,0
-161,57,0,0,0,0,0,0,0,0,0,-1,1063,967,0,0
-154,57,0,0,0,0,0,0,0,0,0,-1,1070,967,0,0
-147,57,0,0,0,0,0,0,0,0,0,-1,1077,967,0,0
-140,57,0,0,0,0,0,0,0,0,0,-1,1084,967,0,0
-133,57,0,0,0,0,0,0,0,0,0,-1,1091,967,0,0
-126,57,0,0,0,0,0,0,0,0,0,-1,1098,967,0,0
-119,57,0,0,0,0,0,0,0,0,0,-1,1105,967,0,0
-112,57,0,0,0,0,0,0,0,0,0,-1,1112,967,0,0
-105,57,0,0,0,0,0,0,0,0,0,-1,1119,967,0,0
-98,57,0,0,0,0,0,0,0,0,0,-1,1126,967,0,0
-91,57,0,0,0,0,0,0,0,0,0,-1,1133,967,0,0
-84,57,0,0,0,0,0,0,0,0,0,-1,1140,967,0,0
-77,57,0,0,0,0,0,0,0,0,0,-1,1147,967,0,0
-70,57,0,0,0,0,0,0,0,0,0,-1,1154,967,0,0
-63,57,0,0,0,0,0,0,0,0,0,-1,1161,967,0,0
-56,57,0,0,0,0,0,0,0,0,0,-1,1168,967,0,0
-49,57,0,0,0,0,0,0,0,0,0,-1,1175,967,0,0
-42,57,0,0,0,0,0,0,0,0,0,-1,1182,967,0,0
-35,57,0,0,0,0,0,0,0,0,0,-1,1189,967,0,0
-28,57,0,0,0,0,0,0,0,0,0,-1,1196,967,0,0
-21,57,0,0,0,0,0,0,0,0,0,-1,1203,967,0,0
-14,57,0,0,0,0,0,0,0,0,0,-1,1210,967,0,0
-7,57,0,0,0,0,0,0,0,0,0,-1,1217,967,0,0
0,57,0,0,0,0,0,0,0,0,0,-1,1224,967,0,0
7,57,0,0,0,0,0,0,0,0,0,-1,1231,967,0,0
14,57,0,0,0,0,0,0,0,0,0,-1,1238,967,0,0
21,57,0,0,0,0,0,0,0,0,0,-1,1245,967,0,0
28,57,0,0,0,0,0,0,0,0,0,-1,1252,967,0,0
35,57,0,0,0,0,0,0,0,0,0,-1,1259,967,0,0
42,57,0,0,0,0,0,0,0,0,0,-1,1266,967,0,0
49,57,0,0,0,0,0,0,0,0,0,-1,1273,967,0,0
56,57,0,0,0,0,0,0,0,0,0,-1,1280,967,0,0
63,57,0,0,0,0,0,0,0,0,0,-1,1287,967,0,0
70,57,0,0,0,0,0,0,0,0,0,-1,1294,967,0,0
77,57,0,0,0,0,0,0,0,0,0,-1,1301,967,0,0
84,57,0,0,0,0,0,0,0,0,0,-1,1308,967,0,0
91,57,0,0,0,0,0,0,0,0,0,-1,1315,967,0,0
98,57,0,0,0,0,0,0,0,0,0,-1,1322,967,0,0
105,57,0,0,0,0,0,0,0,0,0,-1,1329,967,0,0
112,57,0,0,0,0,0,0,0,0,0,-1,1336,967,0,0
119,57,0,0,0,0,0,0,0,0,0,-1,1343,967,0,0
126,57,0,0,0,0,0,0,0,0,0,-1,1350,967,0,0
133,57,0,0,0,0,0,0,0,0,0,-1,1357,967,0,0
140,57,0,0,0,0,0,0,0,0,0,-1,1364,967,0,0
147,57,0,0,0,0,0,0,0,0,0,-1,1371,967,0,0
154,57,0,0,0,0,0,0,0,0,0,-1,1378,967,0,0
161,57,0,0,0,0,0,0,0,0,0,-1,1385,967,0,0
168,57,0,0,0,0,0,0,0,0,0,-1,1392,967,0,0
175,57,0,0,0,0,0,0,0,0,0,-1,1399,967,0,0
182,57,0,0,0,0,0,0,0,0,0,-1,1406,967,0,0
189,57,0,0,0,0,0,0,0,0,0,-1,1413,967,0,0
196,57,0,0,0,0,0,0,0,0,0,-1,1420,967,0,0
203,57,0,0,0,0,0,0,0,0,0,-1,1427,967,0,0
210,57,0,0,0,0,0,0,0,0,0,-1,1434,967,0,0
217,57,0,0,0,0,0,0,0,0,0,-1,1441,967,0,0
224,57,0,0,0,0,0,0,0,0,0,-1,1448,967,0,0
231,57,0,0,0,0,0,0,0,0,0,-1,1455,967,0,0
238,57,0,0,0,0,0,0,0,0,0,-1,1462,967,0,0
245,57,0,0,0,0,0,0,0,0,0,-1,1469,967,0,0
252,57,0,0,0,0,0,0,0,0,0,-1,1476,967,0,0
259,57,0,0,0,0,0,0,0,0,0,-1,1483,967,0,0
266,57,0,0,0,0,0,0,0,0,0,-1,1490,967,0,0
273,57,0,0,0,0,0,0,0,0,0,-1,1497,967,0,0
280,57,0,0,0,0,0,0,0,0,0,-1,1504,967,0,0
287,57,0,0,0,0,0,0,0,0,0,-1,1511,967,0,0
294,57,0,0,0,0,0,0,0,0,0,-1,1518,967,0,0
301,57,0,0,0,0,0,0,0,0,0,-1,1525,967,0,0
308,57,0,0,0,0,0,0,0,0,0,-1,1532,967,0,0
315,57,0,0,0,0,0,0,0,0,0,-1,1539,967,0,0
322,57,0,0,0,0,0,0,0,0,0,-1,1546,967,0,0
329,57,0,0,0,0,0,0,0,0,0,-1,1553,967,0,0
336,57,0,0,0,0,0,0,0,0,0,-1,1560,967,0,0
343,57,0,0,0,0,0,0,0,0,0,-1,1567,967,0,0
350,57,0,0,0,0,0,0,0,0,0,-1,1574,967,0,0
357,57,0,0,0,0,0,0,0,0,0,-1,1581,967,0,0
364,57,0,0,0,0,0,0,0,0,0,-1,1588,967,0,0
371,57,0,0,0,0,0,0,0,0,0,-1,1595,967,0,0
378,57,0,0,0,0,0,0,0,0,0,-1,1602,967,0,0
385,57,0,0,0,0,0,0,0,0,0,-1,1609,967,0,0
392,57,0,0,0,0,0,0,0,0,0,-1,1616,967,0,0
399,57,0,0,0,0,0,0,0,0,0,-1,1623,967,0,0
406,57,0,0,0,0,0,0,0,0,0,-1,1630,967,0,0
413,57,0,0,0,0,0,0,0,0,0,-1,1637,967,0,0
420,57,0,0,0,0,0,0,0,0,0,-1,1644,967,0,0
427,57,0,0,0,0,0,0,0,0,0,-1,1651,967,0,0
434,57,0,0,0,0,0,0,0,0,0,-1,1658,967,0,0
441,57,0,0,0,0,0,0,0,0,0,-1,1665,967,0,0
448,57,0,0,0,0,0,0,0,0,0,-1,1672,967,0,0
455,57,0,0,0,0,0,0,0,0,0,-1,1679,967,0,0
462,57,0,0,0,0,0,0,0,0,0,-1,1686,967,0,0
469,57,0,0,0,0,0,0,0,0,0,-1,1693,967,0,0
476,57,0,0,0,0,0,0,0,0,0,-1,1700,967,0,0
483,57,0,0,0,0,0,0,0,0,0,-1,1707,967,0,0
490,57,0,0,0,0,0,0,0,0,0,-1,1714,967,0,0
497,57,0,0,0,0,0,0,0,0,0,-1,1721,967,0,0
504,57,0,0,0,0,0,0,0,0,0,-1,1728,967,0,0
511,57,0,0,0,0,0,0,0,0,0,-1,1735,967,0,0
518,57,0,0,0,0,0,0,0,0,0,-1,1742,967,0,0
525,57,0,0,0,0,0,0,0,0,0,-1,1749,967,0,0
532,57,0,0,0,0,0,0,0,0,0,-1,1756,967,0,0
539,57,0,0,0,0,0,0,0,0,0,-1,1763,967,0,0
546,57,0,0,0,0,0,0,0,0,0,-1,1770,967,0,0
553,57,0,0,0,0,0,0,0,0,0,-1,1777,967,0,0
560,57,0,0,0,0,0,0,0,0,0,-1,1784,967,0,0
567,57,0,0,0,0,0,0,0,0,0,-1,1791,967,0,0
574,57,0,0,0,0,0,0,0,0,0,-1,1798,967,0,0
581,57,0,0,0,0,0,0,0,0,0,-1,1805,967,0,0
588,57,0,0,0,0,0,0,0,0,0,-1,1812,967,0,0
595,57,0,0,0,0,0,0,0,0,0,-1,1819,967,0,0
602,57,0,0,0,0,0,0,0,0,0,-1,1826,967,0,0
609,57,0,0,0,0,0,0,0,0,0,-1,1833,967,0,0
616,57,0,0,0,0,0,0,0,0,0,-1,1840,967,0,0
623,57,0,0,0,0,0,0,0,0,0,-1,1847,967,0,0
630,57,0,0,0,0,0,0,0,0,0,-1,1854,967,0,0
637,57,0,0,0,0,0,0,0,0,0,-1,1861,967,0,0
644,57,58.9733,2.64551,0.00276418,0.000229351,0.0011651,0.00321834,-0.000224806,0.371682,0.00222428,0.0379746,1868,967,58.9733,-2.64548
651,57,58.9906,2.7666,0.00196719,5.88779e-06,0.000783269,0.0022416,-0.000268526,0.336981,0.00159148,0.0336162,1875,967,58.9905,-2.76658
658,57,59.1075,2.80981,0.00138791,5.3216e-05,0.000719583,0.00170197,-0.000260839,0.411521,0.00123084,0.0349808,1882,967,59.1075,-2.80982
665,57,59.0243,2.97791,0.000832041,0.000374895,0.00105674,0.00168464,-0.000477705,0.678888,0.00131165,0.0441736,1889,967,59.0243,-2.9779
672,57,59.1567,2.53894,0.000212065,0.000743316,0.00159652,0.00209616,-0.00114078,0.867832,0.00189578,0.0429505,1896,967,59.1567,-2.53894
679,57,59.119,2.71423,-0.000263984,0.000827226,0.00216772,0.00251695,-0.0019537,0.908685,0.00258795,0.0405222,1903,967,59.119,-2.71425
686,57,59.1113,2.66583,-0.000470524,0.000724812,0.00251421,0.00271142,-0.00245713,0.90209,0.00298526,0.0387901,1910,967,59.1113,-2.66583
693,57,59.1296,2.59277,-0.00069694,0.000581324,0.00263991,0.00265837,-0.00277398,0.904165,0.00313661,0.0332719,1917,967,59.1296,-2.59276
700,57,59.1195,2.61475,-0.00118201,0.000562322,0.00258113,0.00241466,-0.00303434,0.948326,0.00315275,0.025323,1924,967,59.1195,-2.61473
707,57,59.0465,2.92499,-0.00176169,0.000766934,0.00231191,0.00213766,-0.00313242,1.03562,0.0030607,0.0470158,1931,967,59.0465,-2.92501
714,57,58.9457,3.34674,0,0,0,0,0,0,0,-1,1938,967,58.9456,-3.34675
721,57,57.5591,5.14459,0,0,0,0,0,0,0,-1,1945,967,57.5591,-5.14459
728,57,57.4342,5.56647,-0.0033535,0.00318574,0.00105673,0.00335226,-0.00352003,1.4145,0.00396811,0.0238601,1952,967,57.4342,-5.56648
735,57,57.4646,5.9765,-0.00376184,0.00452629,-0.000137815,0.00452858,-0.00376414,-1.55417,0.00479458,0.0293934,1959,967,57.4646,-5.97653
742,57,57.5065,6.22565,-0.00426061,0.00622564,-0.00157155,0.0064561,-0.00449107,-1.42519,0.00635421,0.0208626,1966,967,57.5065,-6.22565
749,57,57.4385,6.625,-0.00354622,0.00813004,-0.00374919,0.00923022,-0.0046464,-1.28536,0.00815607,0.0156959,1973,967,57.4385,-6.62498
756,57,57.3765,6.96667,-0.00143513,0.0102754,-0.00702934,0.0135687,-0.0047284,-1.13266,0.0109671,0.0124922,1980,967,57.3765,-6.96669
763,57,57.2905,7.31287,0.00206021,0.0128135,-0.0114633,0.0200984,-0.00522469,-1.00468,0.0154381,0.0123253,1987,967,57.2905,-7.31287
770,57,57.1743,7.59418,0.00734234,0.0153354,-0.0167493,0.0285584,-0.00588066,-0.902512,0.0212718,0.0122766,1994,967,57.1742,-7.5942
777,57,57.1211,7.81,0.0145417,0.017132,-0.0232192,0.0390921,-0.00741845,-0.813258,0.0288539,0.0263907,2001,967,57.121,-7.81
784,57,57.1567,7.63757,0.024253,0.0177594,-0.031332,0.052506,-0.0104936,-0.73377,0.0389756,0.042963,2008,967,57.1567,-7.63757
791,57,57.1943,7.5722,0,0,0,0,0,0,0,-1,2015,967,57.1943,-7.57219
798,57,57.5122,6.69086,0,0,0,0,0,0,0,-1,2022,967,57.5122,-6.69084
805,57,57.6455,6.18982,0,0,0,0,0,0,0,-1,2029,967,57.6455,-6.1898
812,57,0,0,0,0,0,0,0,0,0,-1,2036,967,0,0
-700,50,0,0,0,0,0,0,0,0,0,-1,524,974,0,0
-693,50,-44.2322,3.89905,0,0,0,0,0,0,0,-1,531,974,-44.2322,-3.89903
-686,50,-43.522,3.25629,0.110505,0.12379,-0.059583,0.1771,0.0571955,-0.840909,0.104363,0.0431848,538,974,-43.522,-3.25628
-679,50,-42.9118,2.57941,0.0910923,0.104345,-0.0429905,0.141217,0.0542204,-0.861863,0.0822603,0.0424961,545,974,-42.9118,-2.57943
-672,50,-42.2893,1.74933,0,0,0,0,0,0,0,-1,552,974,-42.2893,-1.74935
-665,50,-41.8081,1.10791,0,0,0,0,0,0,0,-1,559,974,-41.8081,-1.10789
-658,50,-43.6907,3.98877,0,0,0,0,0,0,0,-1,566,974,-43.6907,-3.98875
-651,50,-44.2648,5.10144,0,0,0,0,0,0,0,-1,573,974,-44.2648,-5.10143
-644,50,-44.3386,4.80212,0.0214725,0.039449,-0.00244866,0.0397766,0.021145,-1.43781,0.0229803,0.0335418,580,974,-44.3385,-4.80209
-637,50,-44.4427,4.73102,0.0134508,0.0303564,0.000112051,0.0303571,0.0134501,1.56417,0.0175645,0.0195853,587,974,-44.4427,-4.73105
-630,50,-44.5239,4.53217,0.00585963,0.0208636,0.00311912,0.0214862,0.00523704,1.37378,0.0129367,0.0117284,594,974,-44.5238,-4.53217
-623,50,-44.5676,4.32196,-0.000209816,0.0136147,0.00427988,0.0148324,-0.00142754,1.2936,0.0103968,0.0125725,601,974,-44.5676,-4.32198
-616,50,-44.5803,4.08795,-0.0024151,0.00926839,0.0026226,0.00983008,-0.00297679,1.35981,0.0077389,0.0128396,608,974,-44.5803,-4.08794
-609,50,-44.5582,3.76501,-0.00294418,0.00621387,0.000900617,0.00630159,-0.0030319,1.47369,0.00549781,0.0117745,615,974,-44.5582,-3.76501
-602,50,-44.5524,3.46936,-0.0030443,0.0039595,-0.000500233,0.00399504,-0.00307985,-1.49985,0.00409607,0.0120796,622,974,-44.5524,-3.46939
-595,50,-44.5565,3.19672,-0.00343724,0.00218104,-0.00171609,0.00266374,-0.00391994,-1.2966,0.00382408,0.0143882,629,974,-44.5565,-3.19674
-588,50,-44.5612,2.75671,-0.00321682,0.000940251,-0.00250204,0.00211449,-0.00439106,-1.132,0.00383187,0.023635,636,974,-44.5612,-2.75673
-581,50,-44.7419,1.54761,-0.00286184,0.000278626,-0.00304838,0.00213743,-0.00472064,-1.02323,0.00405205,0.0292914,643,974,-44.7419,-1.54762
-574,50,-44.8894,0.390015,0,0,0,0,0,0,0,-1,650,974,-44.8894,-0.390025
-567,50,-44.8301,0.802429,-0.0026985,-6.45354e-05,-0.00334823,0.00221641,-0.00497945,-0.972773,0.00425539,0.0349141,657,974,-44.8301,-0.802424
-560,50,-44.7976,0.764282,-0.0025045,0.000177335,-0.00311712,0.00222972,-0.00455688,-0.988523,0.00399429,0.0399189,664,974,-44.7976,-0.76426
-553,50,-44.8058,0.707947,-0.00194678,0.000577233,-0.00264288,0.00224396,-0.00361351,-1.00815,0.00341248,0.0385564,671,974,-44.8059,-0.707976
-546,50,-44.8594,0.695374,-0.000820912,0.000973544,-0.00190674,0.0021836,-0.00203097,-1.00531,0.00243382,0.0392232,678,974,-44.8594,-0.695384
-539,50,-44.7573,0.830627,0.00101556,0.00110091,-0.000979652,0.00203881,7.76517e-05,-0.807166,0.00133408,0.0446125,685,974,-44.7573,-0.830603
-532,50,-44.7115,0.808289,0.0039279,0.000821505,-0.000637441,0.00405362,0.000695788,-0.194722,0.00250293,0.0449264,692,974,-44.7116,-0.808262
-525,50,-44.8581,0.898132,0.00611772,0.00152055,-0.00125508,0.00643805,0.00120022,-0.249892,0.00395316,0.0428884,699,974,-44.8581,-0.898155
-518,50,0,0,0,0,0,0,0,0,0,-1,706,974,0,0
-511,50,0,0,0,0,0,0,0,0,0,-1,713,974,0,0
-504,50,0,0,0,0,0,0,0,0,0,-1,720,974,0,0
-497,50,0,0,0,0,0,0,0,0,0,-1,727,974,0,0
-490,50,0,0,0,0,0,0,0,0,0,-1,734,974,0,0
-483,50,0,0,0,0,0,0,0,0,0,-1,741,974,0,0
-476,50,0,0,0,0,0,0,0,0,0,-1,748,974,0,0
-469,50,0,0,0,0,0,0,0,0,0,-1,755,974,0,0
-462,50,0,0,0,0,0,0,0,0,0,-1,762,974,0,0
-455,50,0,0,0,0,0,0,0,0,0,-1,769,974,0,0
-448,50,0,0,0,0,0,0,0,0,0,-1,776,974,0,0
-441,50,0,0,0,0,0,0,0,0,0,-1,783,974,0,0
-434,50,0,0,0,0,0,0,0,0,0,-1,790,974,0,0
-427,50,0,0,0,0,0,0,0,0,0,-1,797,974,0,0
-420,50,0,0,0,0,0,0,0,0,0,-1,804,974,0,0
-413,50,0,0,0,0,0,0,0,0,0,-1,811,974,0,0
-406,50,0,0,0,0,0,0,0,0,0,-1,818,974,0,0
-399,50,0,0,0,0,0,0,0,0,0,-1,825,974,0,0
-392,50,0,0,0,0,0,0,0,0,0,-1,832,974,0,0
-385,50,0,0,0,0,0,0,0,0,0,-1,839,974,0,0
-378,50,0,0,0,0,0,0,0,0,0,-1,846,974,0,0
-371,50,0,0,0,0,0,0,0,0,0,-1,853,974,0,0
-364,50,0,0,0,0,0,0,0,0,0,-1,860,974,0,0
-357,50,0,0,0,0,0,0,0,0,0,-1,867,974,0,0
-350,50,0,0,0,0,0,0,0,0,0,-1,874,974,0,0
-343,50,0,0,0,0,0,0,0,0,0,-1,881,974,0,0
-336,50,0,0,0,0,0,0,0,0,0,-1,888,974,0,0
-329,50,0,0,0,0,0,0,0,0,0,-1,895,974,0,0
-322,50,0,0,0,0,0,0,0,0,0,-1,902,974,0,0
-315,50,0,0,0,0,0,0,0,0,0,-1,909,974,0,0
-308,50,0,0,0,0,0,0,0,0,0,-1,916,974,0,0
-301,50,0,0,0,0,0,0,0,0,0,-1,923,974,0,0
-294,50,0,0,0,0,0,0,0,0,0,-1,930,974,0,0
-287,50,0,0,0,0,0,0,0,0,0,-1,937,974,0,0
-280,50,0,0,0,0,0,0,0,0,0,-1,944,974,0,0
-273,50,0,0,0,0,0,0,0,0,0,-1,951,974,0,0
-266,50,0,0,0,0,0,0,0,0,0,-1,958,974,0,0
-259,50,0,0,0,0,0,0,0,0,0,-1,965,974,0,0
-252,50,0,0,0,0,0,0,0,0,0,-1,972,974,0,0
-245,50,0,0,0,0,0,0,0,0,0,-1,979,974,0,0
-238,50,0,0,0,0,0,0,0,0,0,-1,986,974,0,0
-231,50,0,0,0,0,0,0,0,0,0,-1,993,974,0,0
-224,50,0,0,0,0,0,0,0,0,0,-1,1000,974,0,0
-217,50,0,0,0,0,0,0,0,0,0,-1,1007,974,0,0
-210,50,0,0,0,0,0,0,0,0,0,-1,1014,974,0,0
-203,50,0,0,0,0,0,0,0,0,0,-1,1021,974,0,0
-196,50,0,0,0,0,0,0,0,0,0,-1,1028,974,0,0
-189,50,0,0,0,0,0,0,0,0,0,-1,1035,974,0,0
-182,50,0,0,0,0,0,0,0,0,0,-1,1042,974,0,0
-175,50,0,0,0,0,0,0,0,0,0,-1,1049,974,0,0
-168,50,0,0,0,0,0,0,0,0,0,-1,1056,974,0,0
-161,50,0,0,0,0,0,0,0,0,0,-1,1063,974,0,0
-154,50,0,0,0,0,0,0,0,0,0,-1,1070,974,0,0
-147,50,0,0,0,0,0,0,0,0,0,-1,1077,974,0,0
-140,50,0,0,0,0,0,0,0,0,0,-1,1084,974,0,0
-133,50,0,0,0,0,0,0,0,0,0,-1,1091,974,0,0
-126,50,0,0,0,0,0,0,0,0,0,-1,1098,974,0,0
-119,50,0,0,0,0,0,0,0,0,0,-1,1105,974,0,0
-112,50,0,0,0,0,0,0,0,0,0,-1,1112,974,0,0
-105,50,0,0,0,0,0,0,0,0,0,-1,1119,974,0,0
-98,50,0,0,0,0,0,0,0,0,0,-1,1126,974,0,0
-91,50,0,0,0,0,0,0,0,0,0,-1,1133,974,0,0
-84,50,0,0,0,0,0,0,0,0,0,-1,1140,974,0,0
-77,50,0,0,0,0,0,0,0,0,0,-1,1147,974,0,0
-70,50,0,0,0,0,0,0,0,0,0,-1,1154,974,0,0
-63,50,0,0,0,0,0,0,0,0,0,-1,1161,974,0,0
-56,50,0,0,0,0,0,0,0,0,0,-1,1168,974,0,0
-49,50,0,0,0,0,0,0,0,0,0,-1,1175,974,0,0
-42,50,0,0,0,0,0,0,0,0,0,-1,1182,974,0,0
-35,50,0,0,0,0,0,0,0,0,0,-1,1189,974,0,0
-28,50,0,0,0,0,0,0,0,0,0,-1,1196,974,0,0
-21,50,0,0,0,0,0,0,0,0,0,-1,1203,974,0,0
-14,50,0,0,0,0,0,0,0,0,0,-1,1210,974,0,0
-7,50,0,0,0,0,0,0,0,0,0,-1,1217,974,0,0
0,50,0,0,0,0,0,0,0,0,0,-1,1224,974,0,0
7,50,0,0,0,0,0,0,0,0,0,-1,1231,974,0,0
14,50,0,0,0,0,0,0,0,0,0,-1,1238,974,0,0
21,50,0,0,0,0,0,0,0,0,0,-1,1245,974,0,0
28,50,0,0,0,0,0,0,0,0,0,-1,1252,974,0,0
35,50,0,0,0,0,0,0,0,0,0,-1,1259,974,0,0
42,50,0,0,0,0,0,0,0,0,0,-1,1266,974,0,0
49,50,0,0,0,0,0,0,0,0,0,-1,1273,974,0,0
56,50,0,0,0,0,0,0,0,0,0,-1,1280,974,0,0
63,50,0,0,0,0,0,0,0,0,0,-1,1287,974,0,0
70,50,0,0,0,0,0,0,0,0,0,-1,1294,974,0,0
77,50,0,0,0,0,0,0,0,0,0,-1,1301,974,0,0
84,50,0,0,0,0,0,0,0,0,0,-1,1308,974,0,0
91,50,0,0,0,0,0,0,0,0,0,-1,1315,974,0,0
98,50,0,0,0,0,0,0,0,0,0,-1,1322,974,0,0
105,50,0,0,0,0,0,0,0,0,0,-1,1329,974,0,0
112,50,0,0,0,0,0,0,0,0,0,-1,1336,974,0,0
119,50,0,0,0,0,0,0,0,0,0,-1,1343,974,0,0
126,50,0,0,0,0,0,0,0,0,0,-1,1350,974,0,0
133,50,0,0,0,0,0,0,0,0,0,-1,1357,974,0,0
140,50,0,0,0,0,0,0,0,0,0,-1,1364,974,0,0
147,50,0,0,0,0,0,0,0,0,0,-1,1371,974,0,0
154,50,0,0,0,0,0,0,0,0,0,-1,1378,974,0,0
161,50,0,0,0,0,0,0,0,0,0,-1,1385,974,0,0
168,50,0,0,0,0,0,0,0,0,0,-1,1392,974,0,0
175,50,0,0,0,0,0,0,0,0,0,-1,1399,974,0,0
182,50,0,0,0,0,0,0,0,0,0,-1,1406,974,0,0
189,50,0,0,0,0,0,0,0,0,0,-1,1413,974,0,0
196,50,0,0,0,0,0,0,0,0,0,-1,1420,974,0,0
203,50,0,0,0,0,0,0,0,0,0,-1,1427,974,0,0
210,50,0,0,0,0,0,0,0,0,0,-1,1434,974,0,0
217,50,0,0,0,0,0,0,0,0,0,-1,1441,974,0,0
224,50,0,0,0,0,0,0,0,0,0,-1,1448,974,0,0
231,50,0,0,0,0,0,0,0,0,0,-1,1455,974,0,0
238,50,0,0,0,0,0,0,0,0,0,-1,1462,974,0,0
245,50,0,0,0,0,0,0,0,0,0,-1,1469,974,0,0
252,50,0,0,0,0,0,0,0,0,0,-1,1476,974,0,0
259,50,0,0,0,0,0,0,0,0,0,-1,1483,974,0,0
266,50,0,0,0,0,0,0,0,0,0,-1,1490,974,0,0
273,50,0,0,0,0,0,0,0,0,0,-1,1497,974,0,0
280,50,0,0,0,0,0,0,0,0,0,-1,1504,974,0,0
287,50,0,0,0,0,0,0,0,0,0,-1,1511,974,0,0
294,50,0,0,0,0,0,0,0,0,0,-1,1518,974,0,0
301,50,0,0,0,0,0,0,0,0,0,-1,1525,974,0,0
308,50,0,0,0,0,0,0,0,0,0,-1,1532,974,0,0
315,50,0,0,0,0,0,0,0,0,0,-1,1539,974,0,0
322,50,0,0,0,0,0,0,0,0,0,-1,1546,974,0,0
329,50,0,0,0,0,0,0,0,0,0,-1,1553,974,0,0
336,50,0,0,0,0,0,0,0,0,0,-1,1560,974,0,0
343,50,0,0,0,0,0,0,0,0,0,-1,1567,974,0,0
350,50,0,0,0,0,0,0,0,0,0,-1,1574,974,0,0
357,50,0,0,0,0,0,0,0,0,0,-1,1581,974,0,0
364,50,0,0,0,0,0,0,0,0,0,-1,1588,974,0,0
371,50,0,0,0,0,0,0,0,0,0,-1,1595,974,0,0
378,50,0,0,0,0,0,0,0,0,0,-1,1602,974,0,0
385,50,0,0,0,0,0,0,0,0,0,-1,1609,974,0,0
392,50,0,0,0,0,0,0,0,0,0,-1,1616,974,0,0
399,50,0,0,0,0,0,0,0,0,0,-1,1623,974,0,0
406,50,0,0,0,0,0,0,0,0,0,-1,1630,974,0,0
413,50,0,0,0,0,0,0,0,0,0,-1,1637,974,0,0
420,50,0,0,0,0,0,0,0,0,0,-1,1644,974,0,0
427,50,0,0,0,0,0,0,0,0,0,-1,1651,974,0,0
434,50,0,0,0,0,0,0,0,0,0,-1,1658,974,0,0
441,50,0,0,0,0,0,0,0,0,0,-1,1665,974,0,0
448,50,0,0,0,0,0,0,0,0,0,-1,1672,974,0,0
455,50,0,0,0,0,0,0,0,0,0,-1,1679,974,0,0
462,50,0,0,0,0,0,0,0,0,0,-1,1686,974,0,0
469,50,0,0,0,0,0,0,0,0,0,-1,1693,974,0,0
476,50,0,0,0,0,0,0,0,0,0,-1,1700,974,0,0
483,50,0,0,0,0,0,0,0,0,0,-1,1707,974,0,0
490,50,0,0,0,0,0,0,0,0,0,-1,1714,974,0,0
497,50,0,0,0,0,0,0,0,0,0,-1,1721,974,0,0
504,50,0,0,0,0,0,0,0,0,0,-1,1728,974,0,0
511,50,0,0,0,0,0,0,0,0,0,-1,1735,974,0,0
518,50,0,0,0,0,0,0,0,0,0,-1,1742,974,0,0
525,50,0,0,0,0,0,0,0,0,0,-1,1749,974,0,0
532,50,0,0,0,0,0,0,0,0,0,-1,1756,974,0,0
539,50,0,0,0,0,0,0,0,0,0,-1,1763,974,0,0
546,50,0,0,0,0,0,0,0,0,0,-1,1770,974,0,0
553,50,0,0,0,0,0,0,0,0,0,-1,1777,974,0,0
560,50,0,0,0,0,0,0,0,0,0,-1,1784,974,0,0
567,50,0,0,0,0,0,0,0,0,0,-1,1791,974,0,0
574,50,0,0,0,0,0,0,0,0,0,-1,1798,974,0,0
581,50,0,0,0,0,0,0,0,0,0,-1,1805,974,0,0
588,50,0,0,0,0,0,0,0,0,0,-1,1812,974,0,0
595,50,0,0,0,0,0,0,0,0,0,-1,1819,974,0,0
602,50,0,0,0,0,0,0,0,0,0,-1,1826,974,0,0
609,50,0,0,0,0,0,0,0,0,0,-1,1833,974,0,0
616,50,0,0,0,0,0,0,0,0,0,-1,1840,974,0,0
623,50,0,0,0,0,0,0,0,0,0,-1,1847,974,0,0
630,50,0,0,0,0,0,0,0,0,0,-1,1854,974,0,0
637,50,0,0,0,0,0,0,0,0,0,-1,1861,974,0,0
644,50,58.9771,2.55963,0.00412267,-1.1507e-05,0.000858704,0.00429393,-0.000182773,0.196863,0.00292545,0.0364727,1868,974,58.977,-2.55963
651,50,58.9846,2.61902,0.00288601,-0.000139875,0.00055569,0.00298483,-0.000238698,0.175998,0.00207404,0.0312267,1875,974,58.9846,-2.61903
658,50,59.2003,2.56598,0.00203431,-7.92703e-05,0.000529411,0.0021595,-0.000204462,0.232209,0.00151243,0.0377225,1882,974,59.2003,-2.56598
665,50,59.249,2.55219,0.00129229,0.000243634,0.000915405,0.0018229,-0.000286971,0.525315,0.00132135,0.0417685,1889,974,59.2491,-2.55216
672,50,58.9366,2.57269,0.000563339,0.000636737,0.00152284,0.00212332,-0.000923246,0.797445,0.00180385,0.0391954,1896,974,58.9366,-2.57271
679,50,58.929,2.83716,2.64793e-05,0.0007515,0.00217106,0.00259011,-0.00181213,0.868122,0.00255483,0.0389704,1903,974,58.929,-2.83715
686,50,59.0497,2.65747,-0.000225842,0.000656708,0.00262497,0.00287724,-0.00244637,0.868673,0.00307694,0.0419354,1910,974,59.0497,-2.65745
693,50,59.0514,2.54309,-0.000481167,0.000492271,0.00285091,0.00289771,-0.00288661,0.869945,0.00333958,0.0408252,1917,974,59.0514,-2.54306
700,50,59.0304,2.65356,-0.000962802,0.000450877,0.00285132,0.00268166,-0.00319359,0.906898,0.00339637,0.0213983,1924,974,59.0304,-2.65356
707,50,59.0643,2.78802,-0.00156444,0.000666054,0.00261322,0.00239206,-0.00329044,0.987083,0.00329443,0.031924,1931,974,59.0643,-2.78801
714,50,58.994,2.94946,0,0,0,0,0,0,0,-1,1938,974,58.994,-2.94946
721,50,57.8275,5.18744,0,0,0,0,0,0,0,-1,1945,974,57.8275,-5.18743
728,50,57.8479,5.59235,-0.00338015,0.00317777,0.00131626,0.0034321,-0.00363447,1.37993,0.00408044,0.0224073,1952,974,57.8479,-5.59237
735,50,57.896,5.93671,-0.00393515,0.00456674,9.93025e-05,0.0045679,-0.00393631,1.55912,0.00491442,0.0206262,1959,974,57.896,-5.9367
742,50,57.8981,6.29089,-0.00465746,0.00622318,-0.00132266,0.00638165,-0.00481594,-1.45155,0.00648596,0.0158733,1966,974,57.898,-6.29087
749,50,57.837,6.57666,-0.00378266,0.00773162,-0.00349759,0.00871078,-0.00476183,-1.29783,0.00788901,0.0172956,1973,974,57.837,-6.57666
756,50,57.766,6.89539,-0.00121861,0.00934997,-0.00693332,0.0127832,-0.00465181,-1.11102,0.0104246,0.014457,1980,974,57.766,-6.89537
763,50,57.666,7.21088,0.00289717,0.0111527,-0.0117073,0.0194386,-0.00538869,-0.954885,0.0150797,0.0139318,1987,974,57.666,-7.21085
770,50,57.5732,7.47327,0.00912042,0.0127127,-0.0173648,0.028374,-0.00654092,-0.836932,0.0214317,0.0129687,1994,974,57.5733,-7.47327
777,50,57.5146,7.70795,0.017659,0.0134034,-0.0242648,0.0398892,-0.00882674,-0.741664,0.0299714,0.0246518,2001,974,57.5146,-7.70793
784,50,57.6189,7.36792,0.0288566,0.0127275,-0.0327431,0.0545137,-0.0129296,-0.664653,0.041332,0.0405934,2008,974,57.6189,-7.36795
791,50,57.6282,7.21155,0.0431895,0.0105131,-0.0431532,0.0729939,-0.0192913,-0.604432,0.0562076,0.0441,2015,974,57.6281,-7.21153
798,50,57.7297,6.91681,0.0602292,0.00679453,-0.0555908,0.0951897,-0.028166,-0.561391,0.0746414,0.0437156,2022,974,57.7296,-6.91681
805,50,57.9082,6.43365,0.0793354,0.00185157,-0.0700521,0.120645,-0.0394579,-0.532809,0.0963155,0.0475579,2029,974,57.9082,-6.43368
812,50,0,0,0,0,0,0,0,0,0,-1,2036,974,0,0
-700,43,0,0,0,0,0,0,0,0,0,-1,524,981,0,0
-693,43,-44.3148,3.08093,0,0,0,0,0,0,0,-1,531,981,-44.3148,-3.08092
-686,43,-43.7689,2.90356,0.113504,0.105295,-0.0452251,0.154811,0.0639888,-0.740143,0.0898264,0.0466491,538,981,-43.7689,-2.90358
-679,43,-43.2933,2.81274,0.0932865,0.088477,-0.0315854,0.122559,0.0592049,-0.747404,0.0707727,0.0429544,545,981,-43.2933,-2.81272
-672,43,-42.2618,3.17114,0,0,0,0,0,0,0,-1,552,981,-42.2618,-3.17116
-665,43,-41.2979,3.07727,0,0,0,0,0,0,0,-1,559,981,-41.2978,-3.07727
-658,43,-44.3096,5.11865,0,0,0,0,0,0,0,-1,566,981,-44.3096,-5.11867
-651,43,-44.4627,4.95782,0.0319021,0.042752,-0.00305746,0.0435543,0.0310999,-1.31419,0.0259028,0.0450255,573,981,-44.4627,-4.95783
-644,43,-44.6384,4.81097,0.0215398,0.0341381,0.000118199,0.0341392,0.0215387,1.56142,0.0199342,0.0264452,580,981,-44.6384,-4.81097
-637,43,-44.7659,4.62823,0.0131905,0.0265211,0.00162345,0.026716,0.0129956,1.45134,0.0154264,0.0196798,587,981,-44.7659,-4.62825
-630,43,-44.8081,4.42969,0.00549419,0.0183445,0.0036724,0.01932,0.00451873,1.31117,0.0116691,0.0152412,594,981,-44.8081,-4.42969
-623,43,-44.8173,4.24384,-0.000586339,0.0123682,0.00413862,0.0135775,-0.00179563,1.28651,0.00970572,0.012204,601,981,-44.8172,-4.24386
-616,43,-44.8294,4.01434,-0.00261347,0.00853391,0.00217951,0.0089449,-0.00302446,1.38442,0.00718678,0.0118304,608,981,-44.8294,-4.01435
-609,43,-44.8372,3.75122,-0.00287939,0.00591798,0.000378255,0.00593422,-0.00289562,1.52791,0.00519755,0.0143211,615,981,-44.8371,-3.75122
-602,43,-44.8083,3.50806,-0.00268827,0.00393078,-0.000937279,0.00406094,-0.00281843,-1.43281,0.00399334,0.017324,622,981,-44.8083,-3.50805
-595,43,-44.9122,3.28204,-0.00283251,0.00222649,-0.00206575,0.00296282,-0.00356885,-1.22839,0.00377647,0.0174636,629,981,-44.9123,-3.28202
-588,43,-45.102,3.13727,0,0,0,0,0,0,0,-1,636,981,-45.102,-3.13725
-581,43,-44.8443,1.27087,0,0,0,0,0,0,0,-1,643,981,-44.8443,-1.27086
-574,43,-44.7839,0.0643311,0,0,0,0,0,0,0,-1,650,981,-44.7839,-0.06433
-567,43,-44.7902,1.0307,-0.00159226,2.30857e-05,-0.00346152,0.00276991,-0.00433908,-0.900012,0.00413757,0.0371034,657,981,-44.7901,-1.0307
-560,43,-44.7318,1.24414,-0.00136997,0.000282076,-0.00311839,0.00268199,-0.00376989,-0.914869,0.0037426,0.0404138,664,981,-44.7318,-1.24411
-553,43,-44.7921,1.15698,-0.000855033,0.000686558,-0.00252331,0.00255417,-0.00272265,-0.933632,0.00304709,0.0408595,671,981,-44.7921,-1.15701
-546,43,-44.8558,0.946655,0.00015891,0.00104005,-0.00166,0.00231695,-0.00111799,-0.91511,0.00202303,0.0413099,678,981,-44.8558,-0.946633
-539,43,-44.6918,0.905762,0.00183303,0.00106323,-0.00063749,0.0021928,0.000703452,-0.513804,0.00129283,0.0441151,685,981,-44.6918,-0.905751
-532,43,-44.566,0.836609,0.00459391,0.000688135,-0.00039504,0.00463346,0.000648581,-0.099796,0.00289708,0.0452159,692,981,-44.566,-0.83658
-525,43,-44.5906,0.739746,0.00664744,0.00150597,-0.00115797,0.0068962,0.00125721,-0.211612,0.00424098,0.0430253,699,981,-44.5906,-0.739751
-518,43,0,0,0,0,0,0,0,0,0,-1,706,981,0,0
-511,43,0,0,0,0,0,0,0,0,0,-1,713,981,0,0
-504,43,0,0,0,0,0,0,0,0,0,-1,720,981,0,0
-497,43,0,0,0,0,0,0,0,0,0,-1,727,981,0,0
-490,43,0,0,0,0,0,0,0,0,0,-1,734,981,0,0
-483,43,0,0,0,0,0,0,0,0,0,-1,741,981,0,0
-476,43,0,0,0,0,0,0,0,0,0,-1,748,981,0,0
-469,43,0,0,0,0,0,0,0,0,0,-1,755,981,0,0
-462,43,0,0,0,0,0,0,0,0,0,-1,762,981,0,0
-455,43,0,0,0,0,0,0,0,0,0,-1,769,981,0,0
-448,43,0,0,0,0,0,0,0,0,0,-1,776,981,0,0
-441,43,0,0,0,0,0,0,0,0,0,-1,783,981,0,0
-434,43,0,0,0,0,0,0,0,0,0,-1,790,981,0,0
-427,43,0,0,0,0,0,0,0,0,0,-1,797,981,0,0
-420,43,0,0,0,0,0,0,0,0,0,-1,804,981,0,0
-413,43,0,0,0,0,0,0,0,0,0,-1,811,981,0,0
-406,43,0,0,0,0,0,0,0,0,0,-1,818,981,0,0
-399,43,0,0,0,0,0,0,0,0,0,-1,825,981,0,0
-392,43,0,0,0,0,0,0,0,0,0,-1,832,981,0,0
-385,43,0,0,0,0,0,0,0,0,0,-1,839,981,0,0
-378,43,0,0,0,0,0,0,0,0,0,-1,846,981,0,0
-371,43,0,0,0,0,0,0,0,0,0,-1,853,981,0,0
-364,43,0,0,0,0,0,0,0,0,0,-1,860,981,0,0
-357,43,0,0,0,0,0,0,0,0,0,-1,867,981,0,0
-350,43,0,0,0,0,0,0,0,0,0,-1,874,981,0,0
-343,43,0,0,0,0,0,0,0,0,0,-1,881,981,0,0
-336,43,0,0,0,0,0,0,0,0,0,-1,888,981,0,0
-329,43,0,0,0,0,0,0,0,0,0,-1,895,981,0,0
-322,43,0,0,0,0,0,0,0,0,0,-1,902,981,0,0
-315,43,0,0,0,0,0,0,0,0,0,-1,909,981,0,0
-308,43,0,0,0,0,0,0,0,0,0,-1,916,981,0,0
-301,43,0,0,0,0,0,0,0,0,0,-1,923,981,0,0
-294,43,0,0,0,0,0,0,0,0,0,-1,930,981,0,0
-287,43,0,0,0,0,0,0,0,0,0,-1,937,981,0,0
-280,43,0,0,0,0,0,0,0,0,0,-1,944,981,0,0
-273,43,0,0,0,0,0,0,0,0,0,-1,951,981,0,0
-266,43,0,0,0,0,0,0,0,0,0,-1,958,981,0,0
-259,43,0,0,0,0,0,0,0,0,0,-1,965,981,0,0
-252,43,0,0,0,0,0,0,0,0,0,-1,972,981,0,0
-245,43,0,0,0,0,0,0,0,0,0,-1,979,981,0,0
-238,43,0,0,0,0,0,0,0,0,0,-1,986,981,0,0
-231,43,0,0,0,0,0,0,0,0,0,-1,993,981,0,0
-224,43,0,0,0,0,0,0,0,0,0,-1,1000,981,0,0
-217,43,0,0,0,0,0,0,0,0,0,-1,1007,981,0,0
-210,43,0,0,0,0,0,0,0,0,0,-1,1014,981,0,0
-203,43,0,0,0,0,0,0,0,0,0,-1,1021,981,0,0
-196,43,0,0,0,0,0,0,0,0,0,-1,1028,981,0,0
-189,43,0,0,0,0,0,0,0,0,0,-1,1035,981,0,0
-182,43,0,0,0,0,0,0,0,0,0,-1,1042,981,0,0
-175,43,0,0,0,0,0,0,0,0,0,-1,1049,981,0,0
-168,43,0,0,0,0,0,0,0,0,0,-1,1056,981,0,0
-161,43,0,0,0,0,0,0,0,0,0,-1,1063,981,0,0
-154,43,0,0,0,0,0,0,0,0,0,-1,1070,981,0,0
-147,43,0,0,0,0,0,0,0,0,0,-1,1077,981,0,0
-140,43,0,0,0,0,0,0,0,0,0,-1,1084,981,0,0
-133,43,0,0,0,0,0,0,0,0,0,-1,1091,981,0,0
-126,43,0,0,0,0,0,0,0,0,0,-1,1098,981,0,0
-119,43,0,0,0,0,0,0,0,0,0,-1,1105,981,0,0
-112,43,0,0,0,0,0,0,0,0,0,-1,1112,981,0,0
-105,43,0,0,0,0,0,0,0,0,0,-1,1119,981,0,0
-98,43,0,0,0,0,0,0,0,0,0,-1,1126,981,0,0
-91,43,0,0,0,0,0,0,0,0,0,-1,1133,981,0,0
-84,43,0,0,0,0,0,0,0,0,0,-1,1140,981,0,0
-77,43,0,0,0,0,0,0,0,0,0,-1,1147,981,0,0
-70,43,0,0,0,0,0,0,0,0,0,-1,1154,981,0,0
-63,43,0,0,0,0,0,0,0,0,0,-1,1161,981,0,0
-56,43,0,0,0,0,0,0,0,0,0,-1,1168,981,0,0
-49,43,0,0,0,0,0,0,0,0,0,-1,1175,981,0,0
-42,43,0,0,0,0,0,0,0,0,0,-1,1182,981,0,0
-35,43,0,0,0,0,0,0,0,0,0,-1,1189,981,0,0
-28,43,0,0,0,0,0,0,0,0,0,-1,1196,981,0,0
-21,43,0,0,0,0,0,0,0,0,0,-1,1203,981,0,0
-14,43,0,0,0,0,0,0,0,0,0,-1,1210,981,0,0
-7,43,0,0,0,0,0,0,0,0,0,-1,1217,981,0,0
0,43,0,0,0,0,0,0,0,0,0,-1,1224,981,0,0
7,43,0,0,0,0,0,0,0,0,0,-1,1231,981,0,0
14,43,0,0,0,0,0,0,0,0,0,-1,1238,981,0,0
21,43,0,0,0,0,0,0,0,0,0,-1,1245,981,0,0
28,43,0,0,0,0,0,0,0,0,0,-1,1252,981,0,0
35,43,0,0,0,0,0,0,0,0,0,-1,1259,981,0,0
42,43,0,0,0,0,0,0,0,0,0,-1,1266,981,0,0
49,43,0,0,0,0,0,0,0,0,0,-1,1273,981,0,0
56,43,0,0,0,0,0,0,0,0,0,-1,1280,981,0,0
63,43,0,0,0,0,0,0,0,0,0,-1,1287,981,0,0
70,43,0,0,0,0,0,0,0,0,0,-1,1294,981,0,0
77,43,0,0,0,0,0,0,0,0,0,-1,1301,981,0,0
84,43,0,0,0,0,0,0,0,0,0,-1,1308,981,0,0
91,43,0,0,0,0,0,0,0,0,0,-1,1315,981,0,0
98,43,0,0,0,0,0,0,0,0,0,-1,1322,981,0,0
105,43,0,0,0,0,0,0,0,0,0,-1,1329,981,0,0
112,43,0,0,0,0,0,0,0,0,0,-1,1336,981,0,0
119,43,0,0,0,0,0,0,0,0,0,-1,1343,981,0,0
126,43,0,0,0,0,0,0,0,0,0,-1,1350,981,0,0
133,43,0,0,0,0,0,0,0,0,0,-1,1357,981,0,0
140,43,0,0,0,0,0,0,0,0,0,-1,1364,981,0,0
147,43,0,0,0,0,0,0,0,0,0,-1,1371,981,0,0
154,43,0,0,0,0,0,0,0,0,0,-1,1378,981,0,0
161,43,0,0,0,0,0,0,0,0,0,-1,1385,981,0,0
168,43,0,0,0,0,0,0,0,0,0,-1,1392,981,0,0
175,43,0,0,0,0,0,0,0,0,0,-1,1399,981,0,0
182,43,0,0,0,0,0,0,0,0,0,-1,1406,981,0,0
189,43,0,0,0,0,0,0,0,0,0,-1,1413,981,0,0
196,43,0,0,0,0,0,0,0,0,0,-1,1420,981,0,0
203,43,0,0,0,0,0,0,0,0,0,-1,1427,981,0,0
210,43,0,0,0,0,0,0,0,0,0,-1,1434,981,0,0
217,43,0,0,0,0,0,0,0,0,0,-1,1441,981,0,0
224,43,0,0,0,0,0,0,0,0,0,-1,1448,981,0,0
231,43,0,0,0,0,0,0,0,0,0,-1,1455,981,0,0
238,43,0,0,0,0,0,0,0,0,0,-1,1462,981,0,0
245,43,0,0,0,0,0,0,0,0,0,-1,1469,981,0,0
252,43,0,0,0,0,0,0,0,0,0,-1,1476,981,0,0
259,43,0,0,0,0,0,0,0,0,0,-1,1483,981,0,0
266,43,0,0,0,0,0,0,0,0,0,-1,1490,981,0,0
273,43,0,0,0,0,0,0,0,0,0,-1,1497,981,0,0
280,43,0,0,0,0,0,0,0,0,0,-1,1504,981,0,0
287,43,0,0,0,0,0,0,0,0,0,-1,1511,981,0,0
294,43,0,0,0,0,0,0,0,0,0,-1,1518,981,0,0
301,43,0,0,0,0,0,0,0,0,0,-1,1525,981,0,0
308,43,0,0,0,0,0,0,0,0,0,-1,1532,981,0,0
315,43,0,0,0,0,0,0,0,0,0,-1,1539,981,0,0
322,43,0,0,0,0,0,0,0,0,0,-1,1546,981,0,0
329,43,0,0,0,0,0,0,0,0,0,-1,1553,981,0,0
336,43,0,0,0,0,0,0,0,0,0,-1,1560,981,0,0
343,43,0,0,0,0,0,0,0,0,0,-1,1567,981,0,0
350,43,0,0,0,0,0,0,0,0,0,-1,1574,981,0,0
357,43,0,0,0,0,0,0,0,0,0,-1,1581,981,0,0
364,43,0,0,0,0,0,0,0,0,0,-1,1588,981,0,0
371,43,0,0,0,0,0,0,0,0,0,-1,1595,981,0,0
378,43,0,0,0,0,0,0,0,0,0,-1,1602,981,0,0
385,43,0,0,0,0,0,0,0,0,0,-1,1609,981,0,0
392,43,0,0,0,0,0,0,0,0,0,-1,1616,981,0,0
399,43,0,0,0,0,0,0,0,0,0,-1,1623,981,0,0
406,43,0,0,0,0,0,0,0,0,0,-1,1630,981,0,0
413,43,0,0,0,0,0,0,0,0,0,-1,1637,981,0,0
420,43,0,0,0,0,0,0,0,0,0,-1,1644,981,0,0
427,43,0,0,0,0,0,0,0,0,0,-1,1651,981,0,0
434,43,0,0,0,0,0,0,0,0,0,-1,1658,981,0,0
441,43,0,0,0,0,0,0,0,0,0,-1,1665,981,0,0
448,43,0,0,0,0,0,0,0,0,0,-1,1672,981,0,0
455,43,0,0,0,0,0,0,0,0,0,-1,1679,981,0,0
462,43,0,0,0,0,0,0,0,0,0,-1,1686,981,0,0
469,43,0,0,0,0,0,0,0,0,0,-1,1693,981,0,0
476,43,0,0,0,0,0,0,0,0,0,-1,1700,981,0,0
483,43,0,0,0,0,0,0,0,0,0,-1,1707,981,0,0
490,43,0,0,0,0,0,0,0,0,0,-1,1714,981,0,0
497,43,0,0,0,0,0,0,0,0,0,-1,1721,981,0,0
504,43,0,0,0,0,0,0,0,0,0,-1,1728,981,0,0
511,43,0,0,0,0,0,0,0,0,0,-1,1735,981,0,0
518,43,0,0,0,0,0,0,0,0,0,-1,1742,981,0,0
525,43,0,0,0,0,0,0,0,0,0,-1,1749,981,0,0
532,43,0,0,0,0,0,0,0,0,0,-1,1756,981,0,0
539,43,0,0,0,0,0,0,0,0,0,-1,1763,981,0,0
546,43,0,0,0,0,0,0,0,0,0,-1,1770,981,0,0
553,43,0,0,0,0,0,0,0,0,0,-1,1777,981,0,0
560,43,0,0,0,0,0,0,0,0,0,-1,1784,981,0,0
567,43,0,0,0,0,0,0,0,0,0,-1,1791,981,0,0
574,43,0,0,0,0,0,0,0,0,0,-1,1798,981,0,0
581,43,0,0,0,0,0,0,0,0,0,-1,1805,981,0,0
588,43,0,0,0,0,0,0,0,0,0,-1,1812,981,0,0
595,43,0,0,0,0,0,0,0,0,0,-1,1819,981,0,0
602,43,0,0,0,0,0,0,0,0,0,-1,1826,981,0,0
609,43,0,0,0,0,0,0,0,0,0,-1,1833,981,0,0
616,43,0,0,0,0,0,0,0,0,0,-1,1840,981,0,0
623,43,0,0,0,0,0,0,0,0,0,-1,1847,981,0,0
630,43,0,0,0,0,0,0,0,0,0,-1,1854,981,0,0
637,43,0,0,0,0,0,0,0,0,0,-1,1861,981,0,0
644,43,58.9558,2.60345,0.00550948,-0.000911415,0.000892203,0.00563115,-0.00103308,0.135533,0.00414164,0.037497,1868,981,58.9558,-2.60347
651,43,59.0408,2.58325,0.00382259,-0.000951313,0.000519641,0.0038785,-0.00100722,0.107178,0.00297872,0.0352684,1875,981,59.0408,-2.58323
658,43,59.2662,2.4892,0.00269112,-0.000845824,0.000416994,0.00273962,-0.000894322,0.115782,0.00218636,0.0375915,1882,981,59.2663,-2.48918
665,43,59.0627,2.40308,0.00176077,-0.000491514,0.00075137,0.00198842,-0.000719163,0.294188,0.00161947,0.0402399,1889,981,59.0627,-2.4031
672,43,59.0339,2.58405,0.000920632,-3.14422e-05,0.00134124,0.00186781,-0.000978622,0.614872,0.0016699,0.0396391,1896,981,59.0339,-2.58405
679,43,59.0109,2.62122,0.000312714,0.000188532,0.00200634,0.00225792,-0.00175668,0.769929,0.00232385,0.0391477,1903,981,59.0108,-2.62121
686,43,58.944,2.51349,5.05259e-06,0.000182365,0.00252222,0.00261749,-0.00243007,0.802966,0.00291488,0.0411241,1910,981,58.944,-2.51348
693,43,58.9797,2.45294,-0.000285891,8.01082e-05,0.00282914,0.00273216,-0.00293794,0.817695,0.00327436,0.0391651,1917,981,58.9797,-2.45296
700,43,59.0601,2.50787,-0.000759702,7.35862e-05,0.00288566,0.00257253,-0.00325864,0.857095,0.00337439,0.0323088,1924,981,59.0601,-2.50787
707,43,59.1243,2.59229,-0.00138415,0.000372099,0.0026865,0.00232035,-0.0033324,0.943357,0.003281,0.0266447,1931,981,59.1243,-2.59229
714,43,59.026,2.87744,0,0,0,0,0,0,0,-1,1938,981,59.026,-2.87745
721,43,58.2574,5.24054,0,0,0,0,0,0,0,-1,1945,981,58.2574,-5.24056
728,43,58.2582,5.6123,-0.00354372,0.00317917,0.00140469,0.00346087,-0.00382541,1.37288,0.00420849,0.0209775,1952,981,58.2582,-5.61231
735,43,58.2621,5.96759,-0.00426582,0.00461931,0.000219187,0.00462472,-0.00427123,1.54615,0.00513742,0.0147254,1959,981,58.2621,-5.96757
742,43,58.2101,6.28131,-0.00521011,0.00625904,-0.00113382,0.00637005,-0.00532112,-1.4732,0.00675895,0.0159417,1966,981,58.21,-6.28134
749,43,58.1637,6.55035,-0.00412162,0.00739474,-0.00326041,0.00825372,-0.00498061,-1.31319,0.00771835,0.0185733,1973,981,58.1637,-6.55033
756,43,58.1403,6.80804,-0.00117237,0.00857678,-0.00677288,0.0120469,-0.00464246,-1.09732,0.00994667,0.021606,1980,981,58.1402,-6.80806
763,43,58.0784,7.05554,0.00338251,0.00978551,-0.0117315,0.0187445,-0.00557651,-0.918603,0.0147118,0.0251106,1987,981,58.0784,-7.05556
770,43,57.9749,7.36761,0.0104065,0.0105174,-0.0176506,0.0281126,-0.00718875,-0.786969,0.0215416,0.0200536,1994,981,57.9749,-7.36759
777,43,57.9729,7.6474,0.020219,0.0102208,-0.0249342,0.0406503,-0.0102106,-0.686464,0.0310681,0.0246307,2001,981,57.9728,-7.64739
784,43,58.0693,7.40027,0.0328443,0.00841136,-0.0337489,0.0565198,-0.0152641,-0.611744,0.0436664,0.0438744,2008,981,58.0692,-7.40029
791,43,58.1001,7.31274,0.0487685,0.00487584,-0.0444311,0.0763778,-0.0227335,-0.556004,0.0599508,0.0465262,2015,981,58.1001,-7.31275
798,43,58.0664,7.10925,0.0675258,-0.000308755,-0.0570201,0.0999537,-0.0327366,-0.517094,0.079818,0.0431654,2022,981,58.0664,-7.10925
805,43,58.1836,6.63019,0.0884478,-0.00682981,-0.0714596,0.126692,-0.0450743,-0.491402,0.102834,0.0463206,2029,981,58.1837,-6.63019
812,43,59.0786,5.90497,0,0,0,0,0,0,0,-1,2036,981,59.0787,-5.90499
-700,36,0,0,0,0,0,0,0,0,0,-1,524,988,0,0
-693,36,-44.9297,3.60437,0,0,0,0,0,0,0,-1,531,988,-44.9297,-3.6044
-686,36,-44.3907,3.40466,0.114903,0.0848852,-0.0305856,0.133964,0.0658243,-0.557303,0.0773478,0.0458413,538,988,-44.3907,-3.40467
-679,36,-43.7973,3.25684,0.094316,0.0715695,-0.0204898,0.106377,0.059508,-0.532035,0.0615613,0.0448407,545,988,-43.7973,-3.25684
-672,36,-43.0686,3.34186,0.0756047,0.0605655,-0.012843,0.0829675,0.0532027,-0.520554,0.0485343,0.0437195,552,988,-43.0686,-3.34188
-665,36,-42.2838,3.30109,0.058992,0.051108,-0.00707766,0.0631514,0.0469486,-0.531311,0.0378734,0.046973,559,988,-42.2838,-3.3011
-658,36,-44.5094,4.8573,0,0,0,0,0,0,0,-1,566,988,-44.5094,-4.85729
-651,36,-44.6879,4.70178,0.0319508,0.0353061,0.000254927,0.0353253,0.0319316,1.49539,0.0225044,0.0422079,573,988,-44.6879,-4.70178
-644,36,-44.9052,4.55341,0.0213481,0.0283658,0.00231858,0.0290627,0.0206512,1.27884,0.0172682,0.0279341,580,988,-44.9052,-4.55341
-637,36,-45.0619,4.42847,0.0127215,0.0222865,0.00284936,0.023071,0.011937,1.30214,0.0133227,0.0225379,587,988,-45.0619,-4.42848
-630,36,-45.0488,4.33997,0.00502137,0.0155448,0.00400298,0.0168944,0.00367178,1.24562,0.0102604,0.0166718,594,988,-45.0488,-4.33998
-623,36,-45.0712,4.17767,-0.000964987,0.0108726,0.0038394,0.0120088,-0.0021012,1.28307,0.00879038,0.012643,601,988,-45.0712,-4.17764
-616,36,-45.0756,4.00513,-0.00278585,0.0075836,0.00168466,0.00785043,-0.00305268,1.41371,0.00649489,0.0108571,608,988,-45.0756,-4.0051
-609,36,-45.0439,3.80811,-0.00279967,0.00543852,-0.000137412,0.00544081,-0.00280196,-1.55412,0.00483957,0.0170384,615,988,-45.0439,-3.80813
-602,36,-45.0718,3.56616,-0.00232746,0.00376319,-0.00128352,0.00402262,-0.00258689,-1.37136,0.00384589,0.0217185,622,988,-45.0719,-3.56618
-595,36,-45.2507,3.35645,-0.00222667,0.00215638,-0.00226837,0.00311894,-0.00318923,-1.16948,0.0036421,0.024496,629,988,-45.2507,-3.35644
-588,36,-45.1334,2.34357,-0.0015747,0.00095716,-0.00297711,0.00292631,-0.00354386,-0.986427,0.00374122,0.0420901,636,988,-45.1334,-2.34355
-581,36,-44.8265,1.10541,0,0,0,0,0,0,0,-1,643,988,-44.8265,-1.10541
-574,36,-44.7621,0.769958,-0.000653834,-6.46043e-05,-0.00355557,0.00320853,-0.00392697,-0.826734,0.00412664,0.0291908,650,988,-44.7622,-0.769955
-567,36,-44.7731,0.900146,-0.000540304,-4.99749e-05,-0.00342819,0.00314181,-0.00373208,-0.821095,0.00397352,0.0353164,657,988,-44.7731,-0.90015
-560,36,-44.6865,1.20447,-0.00033269,0.000221525,-0.00301276,0.00296989,-0.00308106,-0.831258,0.00349372,0.038615,664,988,-44.6865,-1.20448
-553,36,-44.6736,1.32819,7.47318e-05,0.000624415,-0.00235936,0.00272489,-0.00202574,-0.843382,0.00275266,0.0429922,671,988,-44.6737,-1.32816
-546,36,-44.9,0.945313,0.000875928,0.000924635,-0.00145907,0.00235955,-0.000558987,-0.793743,0.00178872,0.0456166,678,988,-44.9,-0.9453
-539,36,-44.6663,0.883667,0.0022379,0.000833808,-0.000475516,0.00238378,0.000687924,-0.297674,0.00141669,0.0421106,685,988,-44.6663,-0.883657
-532,36,-44.4422,0.687622,0.00472836,0.000347072,-0.000477966,0.0047799,0.000295536,-0.107409,0.0030928,0.0442458,692,988,-44.4422,-0.687592
-525,36,-44.5627,0.682068,0.00669894,0.00117895,-0.00144194,0.0070529,0.000824986,-0.24072,0.00445249,0.0436104,699,988,-44.5627,-0.682062
-518,36,0,0,0,0,0,0,0,0,0,-1,706,988,0,0
-511,36,0,0,0,0,0,0,0,0,0,-1,713,988,0,0
-504,36,0,0,0,0,0,0,0,0,0,-1,720,988,0,0
-497,36,0,0,0,0,0,0,0,0,0,-1,727,988,0,0
-490,36,0,0,0,0,0,0,0,0,0,-1,734,988,0,0
-483,36,0,0,0,0,0,0,0,0,0,-1,741,988,0,0
-476,36,0,0,0,0,0,0,0,0,0,-1,748,988,0,0
-469,36,0,0,0,0,0,0,0,0,0,-1,755,988,0,0
-462,36,0,0,0,0,0,0,0,0,0,-1,762,988,0,0
-455,36,0,0,0,0,0,0,0,0,0,-1,769,988,0,0
-448,36,0,0,0,0,0,0,0,0,0,-1,776,988,0,0
-441,36,0,0,0,0,0,0,0,0,0,-1,783,988,0,0
-434,36,0,0,0,0,0,0,0,0,0,-1,790,988,0,0
-427,36,0,0,0,0,0,0,0,0,0,-1,797,988,0,0
-420,36,0,0,0,0,0,0,0,0,0,-1,804,988,0,0
-413,36,0,0,0,0,0,0,0,0,0,-1,811,988,0,0
-406,36,0,0,0,0,0,0,0,0,0,-1,818,988,0,0
-399,36,0,0,0,0,0,0,0,0,0,-1,825,988,0,0
-392,36,0,0,0,0,0,0,0,0,0,-1,832,988,0,0
-385,36,0,0,0,0,0,0,0,0,0,-1,839,988,0,0
-378,36,0,0,0,0,0,0,0,0,0,-1,846,988,0,0
-371,36,0,0,0,0,0,0,0,0,0,-1,853,988,0,0
-364,36,0,0,0,0,0,0,0,0,0,-1,860,988,0,0
-357,36,0,0,0,0,0,0,0,0,0,-1,867,988,0,0
-350,36,0,0,0,0,0,0,0,0,0,-1,874,988,0,0
-343,36,0,0,0,0,0,0,0,0,0,-1,881,988,0,0
-336,36,0,0,0,0,0,0,0,0,0,-1,888,988,0,0
-329,36,0,0,0,0,0,0,0,0,0,-1,895,988,0,0
-322,36,0,0,0,0,0,0,0,0,0,-1,902,988,0,0
-315,36,0,0,0,0,0,0,0,0,0,-1,909,988,0,0
-308,36,0,0,0,0,0,0,0,0,0,-1,916,988,0,0
-301,36,0,0,0,0,0,0,0,0,0,-1,923,988,0,0
-294,36,0,0,0,0,0,0,0,0,0,-1,930,988,0,0
-287,36,0,0,0,0,0,0,0,0,0,-1,937,988,0,0
-280,36,0,0,0,0,0,0,0,0,0,-1,944,988,0,0
-273,36,0,0,0,0,0,0,0,0,0,-1,951,988,0,0
-266,36,0,0,0,0,0,0,0,0,0,-1,958,988,0,0
-259,36,0,0,0,0,0,0,0,0,0,-1,965,988,0,0
-252,36,0,0,0,0,0,0,0,0,0,-1,972,988,0,0
-245,36,0,0,0,0,0,0,0,0,0,-1,979,988,0,0
-238,36,0,0,0,0,0,0,0,0,0,-1,986,988,0,0
-231,36,0,0,0,0,0,0,0,0,0,-1,993,988,0,0
-224,36,0,0,0,0,0,0,0,0,0,-1,1000,988,0,0
-217,36,0,0,0,0,0,0,0,0,0,-1,1007,988,0,0
-210,36,0,0,0,0,0,0,0,0,0,-1,1014,988,0,0
-203,36,0,0,0,0,0,0,0,0,0,-1,1021,988,0,0
-196,36,0,0,0,0,0,0,0,0,0,-1,1028,988,0,0
-189,36,0,0,0,0,0,0,0,0,0,-1,1035,988,0,0
-182,36,0,0,0,0,0,0,0,0,0,-1,1042,988,0,0
-175,36,0,0,0,0,0,0,0,0,0,-1,1049,988,0,0
-168,36,0,0,0,0,0,0,0,0,0,-1,1056,988,0,0
-161,36,0,0,0,0,0,0,0,0,0,-1,1063,988,0,0
-154,36,0,0,0,0,0,0,0,0,0,-1,1070,988,0,0
-147,36,0,0,0,0,0,0,0,0,0,-1,1077,988,0,0
-140,36,0,0,0,0,0,0,0,0,0,-1,1084,988,0,0
-133,36,0,0,0,0,0,0,0,0,0,-1,1091,988,0,0
-126,36,0,0,0,0,0,0,0,0,0,-1,1098,988,0,0
-119,36,0,0,0,0,0,0,0,0,0,-1,1105,988,0,0
-112,36,0,0,0,0,0,0,0,0,0,-1,1112,988,0,0
-105,36,0,0,0,0,0,0,0,0,0,-1,1119,988,0,0
-98,36,0,0,0,0,0,0,0,0,0,-1,1126,988,0,0
-91,36,0,0,0,0,0,0,0,0,0,-1,1133,988,0,0
-84,36,0,0,0,0,0,0,0,0,0,-1,1140,988,0,0
-77,36,0,0,0,0,0,0,0,0,0,-1,1147,988,0,0
-70,36,0,0,0,0,0,0,0,0,0,-1,1154,988,0,0
-63,36,0,0,0,0,0,0,0,0,0,-1,1161,988,0,0
-56,36,0,0,0,0,0,0,0,0,0,-1,1168,988,0,0
-49,36,0,0,0,0,0,0,0,0,0,-1,1175,988,0,0
-42,36,0,0,0,0,0,0,0,0,0,-1,1182,988,0,0
-35,36,0,0,0,0,0,0,0,0,0,-1,1189,988,0,0
-28,36,0,0,0,0,0,0,0,0,0,-1,1196,988,0,0
-21,36,0,0,0,0,0,0,0,0,0,-1,1203,988,0,0
-14,36,0,0,0,0,0,0,0,0,0,-1,1210,988,0,0
-7,36,0,0,0,0,0,0,0,0,0,-1,1217,988,0,0
0,36,0,0,0,0,0,0,0,0,0,-1,1224,988,0,0
7,36,0,0,0,0,0,0,0,0,0,-1,1231,988,0,0
14,36,0,0,0,0,0,0,0,0,0,-1,1238,988,0,0
21,36,0,0,0,0,0,0,0,0,0,-1,1245,988,0,0
28,36,0,0,0,0,0,0,0,0,0,-1,1252,988,0,0
35,36,0,0,0,0,0,0,0,0,0,-1,1259,988,0,0
42,36,0,0,0,0,0,0,0,0,0,-1,1266,988,0,0
49,36,0,0,0,0,0,0,0,0,0,-1,1273,988,0,0
56,36,0,0,0,0,0,0,0,0,0,-1,1280,988,0,0
63,36,0,0,0,0,0,0,0,0,0,-1,1287,988,0,0
70,36,0,0,0,0,0,0,0,0,0,-1,1294,988,0,0
77,36,0,0,0,0,0,0,0,0,0,-1,1301,988,0,0
84,36,0,0,0,0,0,0,0,0,0,-1,1308,988,0,0
91,36,0,0,0,0,0,0,0,0,0,-1,1315,988,0,0
98,36,0,0,0,0,0,0,0,0,0,-1,1322,988,0,0
105,36,0,0,0,0,0,0,0,0,0,-1,1329,988,0,0
112,36,0,0,0,0,0,0,0,0,0,-1,1336,988,0,0
119,36,0,0,0,0,0,0,0,0,0,-1,1343,988,0,0
126,36,0,0,0,0,0,0,0,0,0,-1,1350,988,0,0
133,36,0,0,0,0,0,0,0,0,0,-1,1357,988,0,0
140,36,0,0,0,0,0,0,0,0,0,-1,1364,988,0,0
147,36,0,0,0,0,0,0,0,0,0,-1,1371,988,0,0
154,36,0,0,0,0,0,0,0,0,0,-1,1378,988,0,0
161,36,0,0,0,0,0,0,0,0,0,-1,1385,988,0,0
168,36,0,0,0,0,0,0,0,0,0,-1,1392,988,0,0
175,36,0,0,0,0,0,0,0,0,0,-1,1399,988,0,0
182,36,0,0,0,0,0,0,0,0,0,-1,1406,988,0,0
189,36,0,0,0,0,0,0,0,0,0,-1,1413,988,0,0
196,36,0,0,0,0,0,0,0,0,0,-1,1420,988,0,0
203,36,0,0,0,0,0,0,0,0,0,-1,1427,988,0,0
210,36,0,0,0,0,0,0,0,0,0,-1,1434,988,0,0
217,36,0,0,0,0,0,0,0,0,0,-1,1441,988,0,0
224,36,0,0,0,0,0,0,0,0,0,-1,1448,988,0,0
231,36,0,0,0,0,0,0,0,0,0,-1,1455,988,0,0
238,36,0,0,0,0,0,0,0,0,0,-1,1462,988,0,0
245,36,0,0,0,0,0,0,0,0,0,-1,1469,988,0,0
252,36,0,0,0,0,0,0,0,0,0,-1,1476,988,0,0
259,36,0,0,0,0,0,0,0,0,0,-1,1483,988,0,0
266,36,0,0,0,0,0,0,0,0,0,-1,1490,988,0,0
273,36,0,0,0,0,0,0,0,0,0,-1,1497,988,0,0
280,36,0,0,0,0,0,0,0,0,0,-1,1504,988,0,0
287,36,0,0,0,0,0,0,0,0,0,-1,1511,988,0,0
294,36,0,0,0,0,0,0,0,0,0,-1,1518,988,0,0
301,36,0,0,0,0,0,0,0,0,0,-1,1525,988,0,0
308,36,0,0,0,0,0,0,0,0,0,-1,1532,988,0,0
315,36,0,0,0,0,0,0,0,0,0,-1,1539,988,0,0
322,36,0,0,0,0,0,0,0,0,0,-1,1546,988,0,0
329,36,0,0,0,0,0,0,0,0,0,-1,1553,988,0,0
336,36,0,0,0,0,0,0,0,0,0,-1,1560,988,0,0
343,36,0,0,0,0,0,0,0,0,0,-1,1567,988,0,0
350,36,0,0,0,0,0,0,0,0,0,-1,1574,988,0,0
357,36,0,0,0,0,0,0,0,0,0,-1,1581,988,0,0
364,36,0,0,0,0,0,0,0,0,0,-1,1588,988,0,0
371,36,0,0,0,0,0,0,0,0,0,-1,1595,988,0,0
378,36,0,0,0,0,0,0,0,0,0,-1,1602,988,0,0
385,36,0,0,0,0,0,0,0,0,0,-1,1609,988,0,0
392,36,0,0,0,0,0,0,0,0,0,-1,1616,988,0,0
399,36,0,0,0,0,0,0,0,0,0,-1,1623,988,0,0
406,36,0,0,0,0,0,0,0,0,0,-1,1630,988,0,0
413,36,0,0,0,0,0,0,0,0,0,-1,1637,988,0,0
420,36,0,0,0,0,0,0,0,0,0,-1,1644,988,0,0
427,36,0,0,0,0,0,0,0,0,0,-1,1651,988,0,0
434,36,0,0,0,0,0,0,0,0,0,-1,1658,988,0,0
441,36,0,0,0,0,0,0,0,0,0,-1,1665,988,0,0
448,36,0,0,0,0,0,0,0,0,0,-1,1672,988,0,0
455,36,0,0,0,0,0,0,0,0,0,-1,1679,988,0,0
462,36,0,0,0,0,0,0,0,0,0,-1,1686,988,0,0
469,36,0,0,0,0,0,0,0,0,0,-1,1693,988,0,0
476,36,0,0,0,0,0,0,0,0,0,-1,1700,988,0,0
483,36,0,0,0,0,0,0,0,0,0,-1,1707,988,0,0
490,36,0,0,0,0,0,0,0,0,0,-1,1714,988,0,0
497,36,0,0,0,0,0,0,0,0,0,-1,1721,988,0,0
504,36,0,0,0,0,0,0,0,0,0,-1,1728,988,0,0
511,36,0,0,0,0,0,0,0,0,0,-1,1735,988,0,0
518,36,0,0,0,0,0,0,0,0,0,-1,1742,988,0,0
525,36,0,0,0,0,0,0,0,0,0,-1,1749,988,0,0
532,36,0,0,0,0,0,0,0,0,0,-1,1756,988,0,0
539,36,0,0,0,0,0,0,0,0,0,-1,1763,988,0,0
546,36,0,0,0,0,0,0,0,0,0,-1,1770,988,0,0
553,36,0,0,0,0,0,0,0,0,0,-1,1777,988,0,0
560,36,0,0,0,0,0,0,0,0,0,-1,1784,988,0,0
567,36,0,0,0,0,0,0,0,0,0,-1,1791,988,0,0
574,36,0,0,0,0,0,0,0,0,0,-1,1798,988,0,0
581,36,0,0,0,0,0,0,0,0,0,-1,1805,988,0,0
588,36,0,0,0,0,0,0,0,0,0,-1,1812,988,0,0
595,36,0,0,0,0,0,0,0,0,0,-1,1819,988,0,0
602,36,0,0,0,0,0,0,0,0,0,-1,1826,988,0,0
609,36,0,0,0,0,0,0,0,0,0,-1,1833,988,0,0
616,36,0,0,0,0,0,0,0,0,0,-1,1840,988,0,0
623,36,0,0,0,0,0,0,0,0,0,-1,1847,988,0,0
630,36,0,0,0,0,0,0,0,0,0,-1,1854,988,0,0
637,36,0,0,0,0,0,0,0,0,0,-1,1861,988,0,0
644,36,59.0165,2.7923,0.00657882,-0.000685539,0.00100023,0.00671402,-0.000820743,0.134359,0.00477317,0.0407484,1868,988,59.0164,-2.79232
651,36,59.0782,2.68188,0.00446898,-0.000688244,0.000527119,0.0045223,-0.000741569,0.100821,0.00329003,0.038211,1875,988,59.0783,-2.68188
658,36,59.2206,2.63068,0.00309768,-0.000614505,0.000316868,0.00312453,-0.000641358,0.0845437,0.00232647,0.0365407,1882,988,59.2205,-2.63069
665,36,59.1761,2.69354,0.00202518,-0.00033563,0.0005705,0.00215582,-0.000466266,0.225103,0.00161522,0.0391572,1889,988,59.1762,-2.69354
672,36,59.1715,2.74188,0.00112127,5.76487e-05,0.00111085,0.00182105,-0.00064213,0.562149,0.00147542,0.0416955,1896,988,59.1715,-2.74187
679,36,59.1798,2.44177,0,0,0,0,0,0,0,-1,1903,988,59.1798,-2.44176
686,36,58.9766,2.41241,0.000160469,0.000233943,0.00231192,0.00250942,-0.00211501,0.793343,0.00267315,0.0368611,1910,988,58.9765,-2.41243
693,36,59.0903,2.40253,-0.000132633,0.00011042,0.0026839,0.00267555,-0.00269776,0.808023,0.00310229,0.0380238,1917,988,59.0903,-2.40255
700,36,59.1438,2.48444,-0.000563237,7.42211e-05,0.00279459,0.0025682,-0.00305722,0.842179,0.00325193,0.0361407,1924,988,59.1438,-2.48441
707,36,59.1342,2.58551,-0.00117299,0.000385666,0.00264837,0.00236699,-0.00315432,0.928492,0.00319851,0.0265078,1931,988,59.1342,-2.58549
714,36,59.0056,3.11365,-0.0019124,0.000974991,0.00227638,0.00222688,-0.00316429,1.06799,0.00312824,0.0382123,1938,988,59.0056,-3.11367
721,36,58.5431,5.34436,0,0,0,0,0,0,0,-1,1945,988,58.5431,-5.34433
728,36,58.5012,5.71704,-0.00366723,0.00328952,0.00142669,0.00357074,-0.00394845,1.37618,0.00434303,0.0223512,1952,988,58.5012,-5.71703
735,36,58.5096,6.06982,-0.004513,0.00468969,0.000320755,0.00470086,-0.00452417,1.536,0.0053264,0.0200627,1959,988,58.5097,-6.06981
742,36,58.4611,6.26593,-0.00559914,0.00622284,-0.000897951,0.00629065,-0.00566695,-1.49542,0.00690686,0.0166849,1966,988,58.4611,-6.26593
749,36,58.4294,6.52203,-0.00434813,0.00700784,-0.00290004,0.00770557,-0.00504587,-1.33469,0.00741523,0.0186221,1973,988,58.4294,-6.52205
756,36,58.4012,6.76422,-0.00111116,0.0078133,-0.00639206,0.0111466,-0.00444444,-1.09012,0.00927457,0.0178339,1980,988,58.4013,-6.7642
763,36,58.3018,6.96954,0.00377129,0.00848243,-0.0114122,0.0177796,-0.00552589,-0.887173,0.0140617,0.0200661,1987,988,58.3018,-6.96957
770,36,58.2407,7.21594,0.0114681,0.00836843,-0.0174616,0.0274485,-0.00761191,-0.741135,0.0212947,0.0164743,1994,988,58.2407,-7.21597
777,36,58.2698,7.51434,0.0224937,0.0069828,-0.0250425,0.0409542,-0.0114777,-0.635236,0.0318262,0.0252876,2001,988,58.2698,-7.51437
784,36,58.4585,7.44116,0,0,0,0,0,0,0,-1,2008,988,58.4586,-7.44118
791,36,58.4202,7.38824,0,0,0,0,0,0,0,-1,2015,988,58.4202,-7.38826
798,36,58.4485,7.26276,0,0,0,0,0,0,0,-1,2022,988,58.4484,-7.26275
805,36,58.2576,6.50665,0,0,0,0,0,0,0,-1,2029,988,58.2576,-6.50666
812,36,58.1711,5.26349,0,0,0,0,0,0,0,-1,2036,988,58.171,-5.26351
-700,29,0,0,0,0,0,0,0,0,0,-1,524,995,0,0
-693,29,-46.4123,3.98236,0,0,0,0,0,0,0,-1,531,995,-46.4123,-3.98236
-686,29,-45.9961,4.43848,0,0,0,0,0,0,0,-1,538,995,-45.9961,-4.43847
-679,29,-45.5856,4.45844,0.0941556,0.0566176,-0.0101772,0.0967373,0.0540359,-0.24843,0.0559789,0.0473306,545,995,-45.5856,-4.45842
-672,29,-43.9226,3.49091,0.0752538,0.0480726,-0.00499838,0.0761438,0.0471826,-0.176214,0.0443792,0.0448461,552,995,-43.9226,-3.49089
-665,29,-43.2285,3.52985,0.0585204,0.0408105,-0.00123164,0.0586056,0.0407252,-0.0691021,0.0346823,0.0448887,559,995,-43.2285,-3.52985
-658,29,-43.0775,3.57776,0,0,0,0,0,0,0,-1,566,995,-43.0774,-3.57776
-651,29,-44.8877,4.3595,0,0,0,0,0,0,0,-1,573,995,-44.8877,-4.35947
-644,29,-45.0245,4.09125,0.0206662,0.0233021,0.00410039,0.0262911,0.0176771,0.940893,0.0154769,0.0452495,580,995,-45.0245,-4.09124
-637,29,-45.2476,4.22925,0.0118367,0.0186649,0.00370265,0.0202873,0.0102144,1.15784,0.0117129,0.0261267,587,995,-45.2476,-4.22925
-630,29,-45.2473,4.20148,0.0042137,0.0130497,0.00403286,0.0146136,0.00264984,1.20087,0.00899024,0.0131845,594,995,-45.2473,-4.2015
-623,29,-45.245,4.12622,-0.00145704,0.00950577,0.0033881,0.0104684,-0.00241962,1.29398,0.00790979,0.0118459,601,995,-45.245,-4.12622
-616,29,-45.2816,3.98718,-0.0030047,0.00662131,0.00116236,0.00675968,-0.00314307,1.45231,0.00584307,0.0151455,608,995,-45.2816,-3.9872
-609,29,-45.3057,3.8808,-0.00280216,0.00476604,-0.00061502,0.00481569,-0.00285182,-1.49024,0.00447498,0.0238251,615,995,-45.3057,-3.88079
-602,29,-45.3882,3.72974,-0.00213599,0.00328973,-0.00160014,0.00372648,-0.00257275,-1.30434,0.00365714,0.024783,622,995,-45.3882,-3.72973
-595,29,-45.5341,3.46112,-0.00185685,0.00177239,-0.00243644,0.00299571,-0.00308017,-1.10548,0.00350802,0.0262076,629,995,-45.5341,-3.46113
-588,29,-45.1457,2.57245,-0.00106343,0.000564503,-0.00308104,0.00293728,-0.00343622,-0.914541,0.0036835,0.049738,636,995,-45.1457,-2.57248
-581,29,-44.7716,1.1629,0,0,0,0,0,0,0,-1,643,995,-44.7716,-1.16291
-574,29,-44.7233,0.786377,1.76219e-05,-0.000520985,-0.00355085,0.00330937,-0.00381273,-0.74755,0.00411537,0.0317071,650,995,-44.7233,-0.786355
-567,29,-44.7368,0.715698,0.000158382,-0.000503943,-0.0033614,0.00320489,-0.00355045,-0.736297,0.0039019,0.0329704,657,995,-44.7367,-0.715691
-560,29,-44.721,0.904236,0.000357725,-0.000213545,-0.00289561,0.00298175,-0.00283757,-0.736235,0.00336013,0.0369639,664,995,-44.721,-0.904236
-553,29,-44.822,1.12122,0.000674112,0.000202297,-0.00221306,0.0026638,-0.00178739,-0.7323,0.00258645,0.0409859,671,995,-44.822,-1.12123
-546,29,-44.8874,0.791138,0.00129353,0.000473956,-0.00131,0.00225634,-0.000488853,-0.633812,0.0016909,0.0437261,678,995,-44.8874,-0.791128
-539,29,-44.7994,0.966187,0.00239488,0.000299629,-0.0004156,0.0024743,0.000220204,-0.188833,0.00158125,0.0410363,685,995,-44.7994,-0.96618
-532,29,-44.6918,1.12103,0.00463721,-0.000273587,-0.000665265,0.00472574,-0.000362115,-0.132294,0.00327787,0.0435575,692,995,-44.6917,-1.12105
-525,29,-44.7317,0.837891,0.00651093,0.000472048,-0.00172793,0.00697039,1.25875e-05,-0.259889,0.00464274,0.0424324,699,995,-44.7317,-0.837889
-518,29,0,0,0,0,0,0,0,0,0,-1,706,995,0,0
-511,29,0,0,0,0,0,0,0,0,0,-1,713,995,0,0
-504,29,0,0,0,0,0,0,0,0,0,-1,720,995,0,0
-497,29,0,0,0,0,0,0,0,0,0,-1,727,995,0,0
-490,29,0,0,0,0,0,0,0,0,0,-1,734,995,0,0
-483,29,0,0,0,0,0,0,0,0,0,-1,741,995,0,0
-476,29,0,0,0,0,0,0,0,0,0,-1,748,995,0,0
-469,29,0,0,0,0,0,0,0,0,0,-1,755,995,0,0
-462,29,0,0,0,0,0,0,0,0,0,-1,762,995,0,0
-455,29,0,0,0,0,0,0,0,0,0,-1,769,995,0,0
-448,29,0,0,0,0,0,0,0,0,0,-1,776,995,0,0
-441,29,0,0,0,0,0,0,0,0,0,-1,783,995,0,0
-434,29,0,0,0,0,0,0,0,0,0,-1,790,995,0,0
-427,29,0,0,0,0,0,0,0,0,0,-1,797,995,0,0
-420,29,0,0,0,0,0,0,0,0,0,-1,804,995,0,0
-413,29,0,0,0,0,0,0,0,0,0,-1,811,995,0,0
-406,29,0,0,0,0,0,0,0,0,0,-1,818,995,0,0
-399,29,0,0,0,0,0,0,0,0,0,-1,825,995,0,0
-392,29,0,0,0,0,0,0,0,0,0,-1,832,995,0,0
-385,29,0,0,0,0,0,0,0,0,0,-1,839,995,0,0
-378,29,0,0,0,0,0,0,0,0,0,-1,846,995,0,0
-371,29,0,0,0,0,0,0,0,0,0,-1,853,995,0,0
-364,29,0,0,0,0,0,0,0,0,0,-1,860,995,0,0
-357,29,0,0,0,0,0,0,0,0,0,-1,867,995,0,0
-350,29,0,0,0,0,0,0,0,0,0,-1,874,995,0,0
-343,29,0,0,0,0,0,0,0,0,0,-1,881,995,0,0
-336,29,0,0,0,0,0,0,0,0,0,-1,888,995,0,0
-329,29,0,0,0,0,0,0,0,0,0,-1,895,995,0,0
-322,29,0,0,0,0,0,0,0,0,0,-1,902,995,0,0
-315,29,0,0,0,0,0,0,0,0,0,-1,909,995,0,0
-308,29,0,0,0,0,0,0,0,0,0,-1,916,995,0,0
-301,29,0,0,0,0,0,0,0,0,0,-1,923,995,0,0
-294,29,0,0,0,0,0,0,0,0,0,-1,930,995,0,0
-287,29,0,0,0,0,0,0,0,0,0,-1,937,995,0,0
-280,29,0,0,0,0,0,0,0,0,0,-1,944,995,0,0
-273,29,0,0,0,0,0,0,0,0,0,-1,951,995,0,0
-266,29,0,0,0,0,0,0,0,0,0,-1,958,995,0,0
-259,29,0,0,0,0,0,0,0,0,0,-1,965,995,0,0
-252,29,0,0,0,0,0,0,0,0,0,-1,972,995,0,0
-245,29,0,0,0,0,0,0,0,0,0,-1,979,995,0,0
-238,29,0,0,0,0,0,0,0,0,0,-1,986,995,0,0
-231,29,0,0,0,0,0,0,0,0,0,-1,993,995,0,0
-224,29,0,0,0,0,0,0,0,0,0,-1,1000,995,0,0
-217,29,0,0,0,0,0,0,0,0,0,-1,1007,995,0,0
-210,29,0,0,0,0,0,0,0,0,0,-1,1014,995,0,0
-203,29,0,0,0,0,0,0,0,0,0,-1,1021,995,0,0
-196,29,0,0,0,0,0,0,0,0,0,-1,1028,995,0,0
-189,29,0,0,0,0,0,0,0,0,0,-1,1035,995,0,0
-182,29,0,0,0,0,0,0,0,0,0,-1,1042,995,0,0
-175,29,0,0,0,0,0,0,0,0,0,-1,1049,995,0,0
-168,29,0,0,0,0,0,0,0,0,0,-1,1056,995,0,0
-161,29,0,0,0,0,0,0,0,0,0,-1,1063,995,0,0
-154,29,0,0,0,0,0,0,0,0,0,-1,1070,995,0,0
-147,29,0,0,0,0,0,0,0,0,0,-1,1077,995,0,0
-140,29,0,0,0,0,0,0,0,0,0,-1,1084,995,0,0
-133,29,0,0,0,0,0,0,0,0,0,-1,1091,995,0,0
-126,29,0,0,0,0,0,0,0,0,0,-1,1098,995,0,0
-119,29,0,0,0,0,0,0,0,0,0,-1,1105,995,0,0
-112,29,0,0,0,0,0,0,0,0,0,-1,1112,995,0,0
-105,29,0,0,0,0,0,0,0,0,0,-1,1119,995,0,0
-98,29,0,0,0,0,0,0,0,0,0,-1,1126,995,0,0
-91,29,0,0,0,0,0,0,0,0,0,-1,1133,995,0,0
-84,29,0,0,0,0,0,0,0,0,0,-1,1140,995,0,0
-77,29,0,0,0,0,0,0,0,0,0,-1,1147,995,0,0
-70,29,0,0,0,0,0,0,0,0,0,-1,1154,995,0,0
-63,29,0,0,0,0,0,0,0,0,0,-1,1161,995,0,0
-56,29,0,0,0,0,0,0,0,0,0,-1,1168,995,0,0
-49,29,0,0,0,0,0,0,0,0,0,-1,1175,995,0,0
-42,29,0,0,0,0,0,0,0,0,0,-1,1182,995,0,0
-35,29,0,0,0,0,0,0,0,0,0,-1,1189,995,0,0
-28,29,0,0,0,0,0,0,0,0,0,-1,1196,995,0,0
-21,29,0,0,0,0,0,0,0,0,0,-1,1203,995,0,0
-14,29,0,0,0,0,0,0,0,0,0,-1,1210,995,0,0
-7,29,0,0,0,0,0,0,0,0,0,-1,1217,995,0,0
0,29,0,0,0,0,0,0,0,0,0,-1,1224,995,0,0
7,29,0,0,0,0,0,0,0,0,0,-1,1231,995,0,0
14,29,0,0,0,0,0,0,0,0,0,-1,1238,995,0,0
21,29,0,0,0,0,0,0,0,0,0,-1,1245,995,0,0
28,29,0,0,0,0,0,0,0,0,0,-1,1252,995,0,0
35,29,0,0,0,0,0,0,0,0,0,-1,1259,995,0,0
42,29,0,0,0,0,0,0,0,0,0,-1,1266,995,0,0
49,29,0,0,0,0,0,0,0,0,0,-1,1273,995,0,0
56,29,0,0,0,0,0,0,0,0,0,-1,1280,995,0,0
63,29,0,0,0,0,0,0,0,0,0,-1,1287,995,0,0
70,29,0,0,0,0,0,0,0,0,0,-1,1294,995,0,0
77,29,0,0,0,0,0,0,0,0,0,-1,1301,995,0,0
84,29,0,0,0,0,0,0,0,0,0,-1,1308,995,0,0
91,29,0,0,0,0,0,0,0,0,0,-1,1315,995,0,0
98,29,0,0,0,0,0,0,0,0,0,-1,1322,995,0,0
105,29,0,0,0,0,0,0,0,0,0,-1,1329,995,0,0
112,29,0,0,0,0,0,0,0,0,0,-1,1336,995,0,0
119,29,0,0,0,0,0,0,0,0,0,-1,1343,995,0,0
126,29,0,0,0,0,0,0,0,0,0,-1,1350,995,0,0
133,29,0,0,0,0,0,0,0,0,0,-1,1357,995,0,0
140,29,0,0,0,0,0,0,0,0,0,-1,1364,995,0,0
147,29,0,0,0,0,0,0,0,0,0,-1,1371,995,0,0
154,29,0,0,0,0,0,0,0,0,0,-1,1378,995,0,0
161,29,0,0,0,0,0,0,0,0,0,-1,1385,995,0,0
168,29,0,0,0,0,0,0,0,0,0,-1,1392,995,0,0
175,29,0,0,0,0,0,0,0,0,0,-1,1399,995,0,0
182,29,0,0,0,0,0,0,0,0,0,-1,1406,995,0,0
189,29,0,0,0,0,0,0,0,0,0,-1,1413,995,0,0
196,29,0,0,0,0,0,0,0,0,0,-1,1420,995,0,0
203,29,0,0,0,0,0,0,0,0,0,-1,1427,995,0,0
210,29,0,0,0,0,0,0,0,0,0,-1,1434,995,0,0
217,29,0,0,0,0,0,0,0,0,0,-1,1441,995,0,0
224,29,0,0,0,0,0,0,0,0,0,-1,1448,995,0,0
231,29,0,0,0,0,0,0,0,0,0,-1,1455,995,0,0
238,29,0,0,0,0,0,0,0,0,0,-1,1462,995,0,0
245,29,0,0,0,0,0,0,0,0,0,-1,1469,995,0,0
252,29,0,0,0,0,0,0,0,0,0,-1,1476,995,0,0
259,29,0,0,0,0,0,0,0,0,0,-1,1483,995,0,0
266,29,0,0,0,0,0,0,0,0,0,-1,1490,995,0,0
273,29,0,0,0,0,0,0,0,0,0,-1,1497,995,0,0
280,29,0,0,0,0,0,0,0,0,0,-1,1504,995,0,0
287,29,0,0,0,0,0,0,0,0,0,-1,1511,995,0,0
294,29,0,0,0,0,0,0,0,0,0,-1,1518,995,0,0
301,29,0,0,0,0,0,0,0,0,0,-1,1525,995,0,0
308,29,0,0,0,0,0,0,0,0,0,-1,1532,995,0,0
315,29,0,0,0,0,0,0,0,0,0,-1,1539,995,0,0
322,29,0,0,0,0,0,0,0,0,0,-1,1546,995,0,0
329,29,0,0,0,0,0,0,0,0,0,-1,1553,995,0,0
336,29,0,0,0,0,0,0,0,0,0,-1,1560,995,0,0
343,29,0,0,0,0,0,0,0,0,0,-1,1567,995,0,0
350,29,0,0,0,0,0,0,0,0,0,-1,1574,995,0,0
357,29,0,0,0,0,0,0,0,0,0,-1,1581,995,0,0
364,29,0,0,0,0,0,0,0,0,0,-1,1588,995,0,0
371,29,0,0,0,0,0,0,0,0,0,-1,1595,995,0,0
378,29,0,0,0,0,0,0,0,0,0,-1,1602,995,0,0
385,29,0,0,0,0,0,0,0,0,0,-1,1609,995,0,0
392,29,0,0,0,0,0,0,0,0,0,-1,1616,995,0,0
399,29,0,0,0,0,0,0,0,0,0,-1,1623,995,0,0
406,29,0,0,0,0,0,0,0,0,0,-1,1630,995,0,0
413,29,0,0,0,0,0,0,0,0,0,-1,1637,995,0,0
420,29,0,0,0,0,0,0,0,0,0,-1,1644,995,0,0
427,29,0,0,0,0,0,0,0,0,0,-1,1651,995,0,0
434,29,0,0,0,0,0,0,0,0,0,-1,1658,995,0,0
441,29,0,0,0,0,0,0,0,0,0,-1,1665,995,0,0
448,29,0,0,0,0,0,0,0,0,0,-1,1672,995,0,0
455,29,0,0,0,0,0,0,0,0,0,-1,1679,995,0,0
462,29,0,0,0,0,0,0,0,0,0,-1,1686,995,0,0
469,29,0,0,0,0,0,0,0,0,0,-1,1693,995,0,0
476,29,0,0,0,0,0,0,0,0,0,-1,1700,995,0,0
483,29,0,0,0,0,0,0,0,0,0,-1,1707,995,0,0
490,29,0,0,0,0,0,0,0,0,0,-1,1714,995,0,0
497,29,0,0,0,0,0,0,0,0,0,-1,1721,995,0,0
504,29,0,0,0,0,0,0,0,0,0,-1,1728,995,0,0
511,29,0,0,0,0,0,0,0,0,0,-1,1735,995,0,0
518,29,0,0,0,0,0,0,0,0,0,-1,1742,995,0,0
525,29,0,0,0,0,0,0,0,0,0,-1,1749,995,0,0
532,29,0,0,0,0,0,0,0,0,0,-1,1756,995,0,0
539,29,0,0,0,0,0,0,0,0,0,-1,1763,995,0,0
546,29,0,0,0,0,0,0,0,0,0,-1,1770,995,0,0
553,29,0,0,0,0,0,0,0,0,0,-1,1777,995,0,0
560,29,0,0,0,0,0,0,0,0,0,-1,1784,995,0,0
567,29,0,0,0,0,0,0,0,0,0,-1,1791,995,0,0
574,29,0,0,0,0,0,0,0,0,0,-1,1798,995,0,0
581,29,0,0,0,0,0,0,0,0,0,-1,1805,995,0,0
588,29,0,0,0,0,0,0,0,0,0,-1,1812,995,0,0
595,29,0,0,0,0,0,0,0,0,0,-1,1819,995,0,0
602,29,0,0,0,0,0,0,0,0,0,-1,1826,995,0,0
609,29,0,0,0,0,0,0,0,0,0,-1,1833,995,0,0
616,29,0,0,0,0,0,0,0,0,0,-1,1840,995,0,0
623,29,0,0,0,0,0,0,0,0,0,-1,1847,995,0,0
630,29,0,0,0,0,0,0,0,0,0,-1,1854,995,0,0
637,29,0,0,0,0,0,0,0,0,0,-1,1861,995,0,0
644,29,59.0701,2.85571,0.00671069,0.000699943,0.00090328,0.0068435,0.000567135,0.145983,0.00438553,0.0423511,1868,995,59.0701,-2.85569
651,29,59.0957,2.76746,0.00450878,0.000522732,0.000387346,0.00454608,0.00048544,0.0959788,0.00288256,0.0429004,1875,995,59.0957,-2.76747
658,29,59.2416,2.67365,0.00310349,0.000356344,0.00011246,0.00310808,0.000351748,0.0408458,0.00196533,0.0444264,1882,995,59.2415,-2.67364
665,29,59.1561,2.99036,0.00203333,0.000398927,0.000318374,0.00209315,0.000339099,0.185751,0.00129726,0.042997,1889,995,59.1561,-2.99037
672,29,59.0267,2.84808,0.00116216,0.00058547,0.000828449,0.00175101,-3.38093e-06,0.617929,0.00116847,0.0434349,1896,995,59.0267,-2.84811
679,29,59.0048,2.62439,0.000556194,0.000649613,0.00147699,0.00208063,-0.000874823,0.801205,0.00175303,0.0400384,1903,995,59.0047,-2.6244
686,29,59.0122,2.60907,0.000193193,0.000505796,0.00204607,0.00240153,-0.00170254,0.82352,0.00238091,0.03634,1910,995,59.0122,-2.6091
693,29,59.1263,2.46307,-0.000116928,0.000279457,0.00246717,0.00255638,-0.00239385,0.825478,0.00285853,0.0367022,1917,995,59.1263,-2.46307
700,29,59.1204,2.4563,-0.000519065,0.00015788,0.00262807,0.00246919,-0.00283037,0.849441,0.00306207,0.0345966,1924,995,59.1203,-2.45631
707,29,59.0651,2.62207,-0.00113777,0.000432414,0.00254579,0.00231142,-0.00301678,0.934966,0.00308521,0.0217189,1931,995,59.0651,-2.62205
714,29,58.9724,3.18048,-0.00192936,0.00101337,0.0022351,0.00221793,-0.00313393,1.07649,0.00310495,0.0428364,1938,995,58.9724,-3.18049
721,29,58.5549,5.54645,0,0,0,0,0,0,0,-1,1945,995,58.5549,-5.54645
728,29,58.7001,5.87323,-0.00395097,0.00335606,0.00140171,0.00361572,-0.00421064,1.38763,0.0045229,0.0321187,1952,995,58.7001,-5.87322
735,29,58.7145,6.15234,-0.00484795,0.00467445,0.000393941,0.00469072,-0.00486422,1.52952,0.00551685,0.0175712,1959,995,58.7145,-6.15233
742,29,58.6862,6.30725,-0.0059612,0.00608146,-0.000672373,0.00611889,-0.00599862,-1.51519,0.00699616,0.0150854,1966,995,58.6861,-6.30724
749,29,58.6482,6.51355,-0.00455244,0.00662237,-0.00251714,0.00716319,-0.00509325,-1.35916,0.00710982,0.0159868,1973,995,58.6482,-6.51353
756,29,58.6281,6.72852,-0.000965167,0.00718767,-0.00581358,0.0102116,-0.0039891,-1.09116,0.00845707,0.0150075,1980,995,58.6281,-6.72852
763,29,58.5779,6.85742,0.00433212,0.00772906,-0.0106736,0.0168385,-0.00477734,-0.8643,0.0131115,0.0134945,1987,995,58.5779,-6.85745
770,29,58.4976,6.96942,0.0127714,0.0072276,-0.0165775,0.0268072,-0.0068082,-0.702561,0.0205208,0.0175611,1994,995,58.4976,-6.9694
777,29,58.3574,7.20013,0.0251713,0.00536972,-0.024152,0.0413731,-0.0108321,-0.590877,0.0318135,0.0302144,2001,995,58.3574,-7.20013
784,29,58.2146,7.5155,0,0,0,0,0,0,0,-1,2008,995,58.2146,-7.51549
791,29,58.0862,7.79449,0,0,0,0,0,0,0,-1,2015,995,58.0862,-7.7945
798,29,57.6118,7.88397,0.0823471,-0.00963527,-0.0566804,0.109348,-0.0366363,-0.444568,0.0876998,0.0454823,2022,995,57.6119,-7.88395
805,29,57.999,6.55103,0.107558,-0.0173454,-0.0712104,0.139823,-0.0496097,-0.425416,0.113428,0.0460527,2029,995,57.999,-6.55102
812,29,58.1111,5.16632,0.135117,-0.0260765,-0.0883109,0.174081,-0.0650399,-0.415518,0.142761,0.0465761,2036,995,58.1111,-5.16631
-700,22,0,0,0,0,0,0,0,0,0,-1,524,1002,0,0
-693,22,-46.5912,3.52698,0.13455,0.0634762,-0.0099574,0.135919,0.0621075,-0.136597,0.0785696,0.0450977,531,1002,-46.5912,-3.527
-686,22,-46.1865,3.84729,0.113487,0.0520673,-0.00465415,0.113838,0.0517166,-0.0752036,0.0658157,0.0455496,538,1002,-46.1865,-3.84728
-679,22,-45.5148,3.83038,0.0924867,0.0440502,-0.000784678,0.0924994,0.0440375,-0.0161945,0.0534249,0.048272,545,1002,-45.5148,-3.83037
-672,22,-44.4721,3.52228,0.0736096,0.0377301,0.0019369,0.0737138,0.0376259,0.0537752,0.0425618,0.0485144,552,1002,-44.4721,-3.52225
-665,22,-44.1358,3.57733,0.0569681,0.0324132,0.00371982,0.0575192,0.031862,0.147094,0.0332731,0.0437224,559,1002,-44.1358,-3.57735
-658,22,-45.5189,2.76074,0,0,0,0,0,0,0,-1,566,1002,-45.5189,-2.76076
-651,22,-44.362,3.49957,0,0,0,0,0,0,0,-1,573,1002,-44.362,-3.49957
-644,22,-44.9978,3.82031,0.0195598,0.0194119,0.00508823,0.0245746,0.0143971,0.778135,0.0142577,0.0414389,580,1002,-44.9978,-3.82034
-637,22,-45.4044,4.05426,0.0106345,0.0159778,0.00395412,0.0180782,0.00853404,1.0825,0.0104429,0.0260196,587,1002,-45.4044,-4.05427
-630,22,-45.3981,4.07715,0.00325145,0.0110961,0.00363424,0.012521,0.00182659,1.19715,0.00780997,0.0134009,594,1002,-45.3981,-4.07713
-623,22,-45.4146,4.03149,-0.00193773,0.0084259,0.00258257,0.0090338,-0.00254564,1.33962,0.00702651,0.0120979,601,1002,-45.4145,-4.03152
-616,22,-45.4263,3.89703,-0.00316957,0.00580768,0.000461869,0.00583138,-0.00319327,1.51953,0.00528407,0.0200028,608,1002,-45.4263,-3.89703
-609,22,-45.5217,3.83124,-0.00274362,0.00415509,-0.00113623,0.00433741,-0.00292594,-1.41169,0.0042198,0.0315148,615,1002,-45.5217,-3.83125
-602,22,-45.6602,3.75891,-0.00190078,0.00281775,-0.00190067,0.00348812,-0.00257115,-1.23172,0.00351165,0.030765,622,1002,-45.6601,-3.7589
-595,22,-45.726,3.5202,-0.00146103,0.00135838,-0.00252556,0.00284103,-0.00294368,-1.03995,0.00333998,0.0323849,629,1002,-45.726,-3.52018
-588,22,-45.6394,3.18152,0,0,0,0,0,0,0,-1,636,1002,-45.6394,-3.18149
-581,22,-44.7726,0.751892,0,0,0,0,0,0,0,-1,643,1002,-44.7726,-0.751912
-574,22,-44.7298,0.836609,0.000633279,-0.000936022,-0.00343197,0.00336915,-0.0036719,-0.673015,0.0040664,0.0323573,650,1002,-44.7298,-0.836629
-567,22,-44.7222,0.81958,0.000779316,-0.000879819,-0.00318912,0.003245,-0.0033455,-0.658156,0.00380518,0.0321794,657,1002,-44.7223,-0.819557
-560,22,-44.7689,0.755432,0.000924308,-0.000525297,-0.00269115,0.00298655,-0.00258754,-0.653855,0.00322095,0.0379203,664,1002,-44.769,-0.755413
-553,22,-44.8343,0.875549,0.00106285,-4.42781e-05,-0.0020106,0.0025947,-0.00157613,-0.651065,0.00243185,0.0410679,671,1002,-44.8343,-0.875549
-546,22,-44.8397,0.744873,0.00135545,0.000256594,-0.00115416,0.00208428,-0.000472238,-0.563249,0.00157077,0.0400637,678,1002,-44.8397,-0.744896
-539,22,-44.8775,0.65564,0.00196597,7.07446e-05,-0.000395794,0.00204531,-8.59075e-06,-0.197825,0.00136641,0.0386256,685,1002,-44.8775,-0.655626
-532,22,-44.9105,0.924072,0.00359559,-0.000507311,-0.000856612,0.00376725,-0.000678975,-0.197778,0.00276575,0.0416714,692,1002,-44.9104,-0.924069
-525,22,0,0,0,0,0,0,0,0,0,-1,699,1002,0,0
-518,22,0,0,0,0,0,0,0,0,0,-1,706,1002,0,0
-511,22,0,0,0,0,0,0,0,0,0,-1,713,1002,0,0
-504,22,0,0,0,0,0,0,0,0,0,-1,720,1002,0,0
-497,22,0,0,0,0,0,0,0,0,0,-1,727,1002,0,0
-490,22,0,0,0,0,0,0,0,0,0,-1,734,1002,0,0
-483,22,0,0,0,0,0,0,0,0,0,-1,741,1002,0,0
-476,22,0,0,0,0,0,0,0,0,0,-1,748,1002,0,0
-469,22,0,0,0,0,0,0,0,0,0,-1,755,1002,0,0
-462,22,0,0,0,0,0,0,0,0,0,-1,762,1002,0,0
-455,22,0,0,0,0,0,0,0,0,0,-1,769,1002,0,0
-448,22,0,0,0,0,0,0,0,0,0,-1,776,1002,0,0
-441,22,0,0,0,0,0,0,0,0,0,-1,783,1002,0,0
-434,22,0,0,0,0,0,0,0,0,0,-1,790,1002,0,0
-427,22,0,0,0,0,0,0,0,0,0,-1,797,1002,0,0
-420,22,0,0,0,0,0,0,0,0,0,-1,804,1002,0,0
-413,22,0,0,0,0,0,0,0,0,0,-1,811,1002,0,0
-406,22,0,0,0,0,0,0,0,0,0,-1,818,1002,0,0
-399,22,0,0,0,0,0,0,0,0,0,-1,825,1002,0,0
-392,22,0,0,0,0,0,0,0,0,0,-1,832,1002,0,0
-385,22,0,0,0,0,0,0,0,0,0,-1,839,1002,0,0
-378,22,0,0,0,0,0,0,0,0,0,-1,846,1002,0,0
-371,22,0,0,0,0,0,0,0,0,0,-1,853,1002,0,0
-364,22,0,0,0,0,0,0,0,0,0,-1,860,1002,0,0
-357,22,0,0,0,0,0,0,0,0,0,-1,867,1002,0,0
-350,22,0,0,0,0,0,0,0,0,0,-1,874,1002,0,0
-343,22,0,0,0,0,0,0,0,0,0,-1,881,1002,0,0
-336,22,0,0,0,0,0,0,0,0,0,-1,888,1002,0,0
-329,22,0,0,0,0,0,0,0,0,0,-1,895,1002,0,0
-322,22,0,0,0,0,0,0,0,0,0,-1,902,1002,0,0
-315,22,0,0,0,0,0,0,0,0,0,-1,909,1002,0,0
-308,22,0,0,0,0,0,0,0,0,0,-1,916,1002,0,0
-301,22,0,0,0,0,0,0,0,0,0,-1,923,1002,0,0
-294,22,0,0,0,0,0,0,0,0,0,-1,930,1002,0,0
-287,22,0,0,0,0,0,0,0,0,0,-1,937,1002,0,0
-280,22,0,0,0,0,0,0,0,0,0,-1,944,1002,0,0
-273,22,0,0,0,0,0,0,0,0,0,-1,951,1002,0,0
-266,22,0,0,0,0,0,0,0,0,0,-1,958,1002,0,0
-259,22,0,0,0,0,0,0,0,0,0,-1,965,1002,0,0
-252,22,0,0,0,0,0,0,0,0,0,-1,972,1002,0,0
-245,22,0,0,0,0,0,0,0,0,0,-1,979,1002,0,0
-238,22,0,0,0,0,0,0,0,0,0,-1,986,1002,0,0
-231,22,0,0,0,0,0,0,0,0,0,-1,993,1002,0,0
-224,22,0,0,0,0,0,0,0,0,0,-1,1000,1002,0,0
-217,22,0,0,0,0,0,0,0,0,0,-1,1007,1002,0,0
-210,22,0,0,0,0,0,0,0,0,0,-1,1014,1002,0,0
-203,22,0,0,0,0,0,0,0,0,0,-1,1021,1002,0,0
-196,22,0,0,0,0,0,0,0,0,0,-1,1028,1002,0,0
-189,22,0,0,0,0,0,0,0,0,0,-1,1035,1002,0,0
-182,22,0,0,0,0,0,0,0,0,0,-1,1042,1002,0,0
-175,22,0,0,0,0,0,0,0,0,0,-1,1049,1002,0,0
-168,22,0,0,0,0,0,0,0,0,0,-1,1056,1002,0,0
-161,22,0,0,0,0,0,0,0,0,0,-1,1063,1002,0,0
-154,22,0,0,0,0,0,0,0,0,0,-1,1070,1002,0,0
-147,22,0,0,0,0,0,0,0,0,0,-1,1077,1002,0,0
-140,22,0,0,0,0,0,0,0,0,0,-1,1084,1002,0,0
-133,22,0,0,0,0,0,0,0,0,0,-1,1091,1002,0,0
-126,22,0,0,0,0,0,0,0,0,0,-1,1098,1002,0,0
-119,22,0,0,0,0,0,0,0,0,0,-1,1105,1002,0,0
-112,22,0,0,0,0,0,0,0,0,0,-1,1112,1002,0,0
-105,22,0,0,0,0,0,0,0,0,0,-1,1119,1002,0,0
-98,22,0,0,0,0,0,0,0,0,0,-1,1126,1002,0,0
-91,22,0,0,0,0,0,0,0,0,0,-1,1133,1002,0,0
-84,22,0,0,0,0,0,0,0,0,0,-1,1140,1002,0,0
-77,22,0,0,0,0,0,0,0,0,0,-1,1147,1002,0,0
-70,22,0,0,0,0,0,0,0,0,0,-1,1154,1002,0,0
-63,22,0,0,0,0,0,0,0,0,0,-1,1161,1002,0,0
-56,22,0,0,0,0,0,0,0,0,0,-1,1168,1002,0,0
-49,22,0,0,0,0,0,0,0,0,0,-1,1175,1002,0,0
-42,22,0,0,0,0,0,0,0,0,0,-1,1182,1002,0,0
-35,22,0,0,0,0,0,0,0,0,0,-1,1189,1002,0,0
-28,22,0,0,0,0,0,0,0,0,0,-1,1196,1002,0,0
-21,22,0,0,0,0,0,0,0,0,0,-1,1203,1002,0,0
-14,22,0,0,0,0,0,0,0,0,0,-1,1210,1002,0,0
-7,22,0,0,0,0,0,0,0,0,0,-1,1217,1002,0,0
0,22,0,0,0,0,0,0,0,0,0,-1,1224,1002,0,0
7,22,0,0,0,0,0,0,0,0,0,-1,1231,1002,0,0
14,22,0,0,0,0,0,0,0,0,0,-1,1238,1002,0,0
21,22,0,0,0,0,0,0,0,0,0,-1,1245,1002,0,0
28,22,0,0,0,0,0,0,0,0,0,-1,1252,1002,0,0
35,22,0,0,0,0,0,0,0,0,0,-1,1259,1002,0,0
42,22,0,0,0,0,0,0,0,0,0,-1,1266,1002,0,0
49,22,0,0,0,0,0,0,0,0,0,-1,1273,1002,0,0
56,22,0,0,0,0,0,0,0,0,0,-1,1280,1002,0,0
63,22,0,0,0,0,0,0,0,0,0,-1,1287,1002,0,0
70,22,0,0,0,0,0,0,0,0,0,-1,1294,1002,0,0
77,22,0,0,0,0,0,0,0,0,0,-1,1301,1002,0,0
84,22,0,0,0,0,0,0,0,0,0,-1,1308,1002,0,0
91,22,0,0,0,0,0,0,0,0,0,-1,1315,1002,0,0
98,22,0,0,0,0,0,0,0,0,0,-1,1322,1002,0,0
105,22,0,0,0,0,0,0,0,0,0,-1,1329,1002,0,0
112,22,0,0,0,0,0,0,0,0,0,-1,1336,1002,0,0
119,22,0,0,0,0,0,0,0,0,0,-1,1343,1002,0,0
126,22,0,0,0,0,0,0,0,0,0,-1,1350,1002,0,0
133,22,0,0,0,0,0,0,0,0,0,-1,1357,1002,0,0
140,22,0,0,0,0,0,0,0,0,0,-1,1364,1002,0,0
147,22,0,0,0,0,0,0,0,0,0,-1,1371,1002,0,0
154,22,0,0,0,0,0,0,0,0,0,-1,1378,1002,0,0
161,22,0,0,0,0,0,0,0,0,0,-1,1385,1002,0,0
168,22,0,0,0,0,0,0,0,0,0,-1,1392,1002,0,0
175,22,0,0,0,0,0,0,0,0,0,-1,1399,1002,0,0
182,22,0,0,0,0,0,0,0,0,0,-1,1406,1002,0,0
189,22,0,0,0,0,0,0,0,0,0,-1,1413,1002,0,0
196,22,0,0,0,0,0,0,0,0,0,-1,1420,1002,0,0
203,22,0,0,0,0,0,0,0,0,0,-1,1427,1002,0,0
210,22,0,0,0,0,0,0,0,0,0,-1,1434,1002,0,0
217,22,0,0,0,0,0,0,0,0,0,-1,1441,1002,0,0
224,22,0,0,0,0,0,0,0,0,0,-1,1448,1002,0,0
231,22,0,0,0,0,0,0,0,0,0,-1,1455,1002,0,0
238,22,0,0,0,0,0,0,0,0,0,-1,1462,1002,0,0
245,22,0,0,0,0,0,0,0,0,0,-1,1469,1002,0,0
252,22,0,0,0,0,0,0,0,0,0,-1,1476,1002,0,0
259,22,0,0,0,0,0,0,0,0,0,-1,1483,1002,0,0
266,22,0,0,0,0,0,0,0,0,0,-1,1490,1002,0,0
273,22,0,0,0,0,0,0,0,0,0,-1,1497,1002,0,0
280,22,0,0,0,0,0,0,0,0,0,-1,1504,1002,0,0
287,22,0,0,0,0,0,0,0,0,0,-1,1511,1002,0,0
294,22,0,0,0,0,0,0,0,0,0,-1,1518,1002,0,0
301,22,0,0,0,0,0,0,0,0,0,-1,1525,1002,0,0
308,22,0,0,0,0,0,0,0,0,0,-1,1532,1002,0,0
315,22,0,0,0,0,0,0,0,0,0,-1,1539,1002,0,0
322,22,0,0,0,0,0,0,0,0,0,-1,1546,1002,0,0
329,22,0,0,0,0,0,0,0,0,0,-1,1553,1002,0,0
336,22,0,0,0,0,0,0,0,0,0,-1,1560,1002,0,0
343,22,0,0,0,0,0,0,0,0,0,-1,1567,1002,0,0
350,22,0,0,0,0,0,0,0,0,0,-1,1574,1002,0,0
357,22,0,0,0,0,0,0,0,0,0,-1,1581,1002,0,0
364,22,0,0,0,0,0,0,0,0,0,-1,1588,1002,0,0
371,22,0,0,0,0,0,0,0,0,0,-1,1595,1002,0,0
378,22,0,0,0,0,0,0,0,0,0,-1,1602,1002,0,0
385,22,0,0,0,0,0,0,0,0,0,-1,1609,1002,0,0
392,22,0,0,0,0,0,0,0,0,0,-1,1616,1002,0,0
399,22,0,0,0,0,0,0,0,0,0,-1,1623,1002,0,0
406,22,0,0,0,0,0,0,0,0,0,-1,1630,1002,0,0
413,22,0,0,0,0,0,0,0,0,0,-1,1637,1002,0,0
420,22,0,0,0,0,0,0,0,0,0,-1,1644,1002,0,0
427,22,0,0,0,0,0,0,0,0,0,-1,1651,1002,0,0
434,22,0,0,0,0,0,0,0,0,0,-1,1658,1002,0,0
441,22,0,0,0,0,0,0,0,0,0,-1,1665,1002,0,0
448,22,0,0,0,0,0,0,0,0,0,-1,1672,1002,0,0
455,22,0,0,0,0,0,0,0,0,0,-1,1679,1002,0,0
462,22,0,0,0,0,0,0,0,0,0,-1,1686,1002,0,0
469,22,0,0,0,0,0,0,0,0,0,-1,1693,1002,0,0
476,22,0,0,0,0,0,0,0,0,0,-1,1700,1002,0,0
483,22,0,0,0,0,0,0,0,0,0,-1,1707,1002,0,0
490,22,0,0,0,0,0,0,0,0,0,-1,1714,1002,0,0
497,22,0,0,0,0,0,0,0,0,0,-1,1721,1002,0,0
504,22,0,0,0,0,0,0,0,0,0,-1,1728,1002,0,0
511,22,0,0,0,0,0,0,0,0,0,-1,1735,1002,0,0
518,22,0,0,0,0,0,0,0,0,0,-1,1742,1002,0,0
525,22,0,0,0,0,0,0,0,0,0,-1,1749,1002,0,0
532,22,0,0,0,0,0,0,0,0,0,-1,1756,1002,0,0
539,22,0,0,0,0,0,0,0,0,0,-1,1763,1002,0,0
546,22,0,0,0,0,0,0,0,0,0,-1,1770,1002,0,0
553,22,0,0,0,0,0,0,0,0,0,-1,1777,1002,0,0
560,22,0,0,0,0,0,0,0,0,0,-1,1784,1002,0,0
567,22,0,0,0,0,0,0,0,0,0,-1,1791,1002,0,0
574,22,0,0,0,0,0,0,0,0,0,-1,1798,1002,0,0
581,22,0,0,0,0,0,0,0,0,0,-1,1805,1002,0,0
588,22,0,0,0,0,0,0,0,0,0,-1,1812,1002,0,0
595,22,0,0,0,0,0,0,0,0,0,-1,1819,1002,0,0
602,22,0,0,0,0,0,0,0,0,0,-1,1826,1002,0,0
609,22,0,0,0,0,0,0,0,0,0,-1,1833,1002,0,0
616,22,0,0,0,0,0,0,0,0,0,-1,1840,1002,0,0
623,22,0,0,0,0,0,0,0,0,0,-1,1847,1002,0,0
630,22,0,0,0,0,0,0,0,0,0,-1,1854,1002,0,0
637,22,0,0,0,0,0,0,0,0,0,-1,1861,1002,0,0
644,22,58.9928,2.77063,0.00636972,0.00177554,0.00107192,0.00660751,0.00153775,0.218303,0.00399239,0.0415177,1868,1002,58.9928,-2.77065
651,22,59.066,2.8421,0.0042039,0.00136945,0.000498098,0.00428888,0.00128447,0.168988,0.00254169,0.0458262,1875,1002,59.066,-2.84211
658,22,59.1772,2.90582,0.00286841,0.000951291,0.000152333,0.00288044,0.000939262,0.0788002,0.00169623,0.0469338,1882,1002,59.1772,-2.90582
665,22,59.1183,3.09979,0.0018803,0.000766919,0.000286134,0.00194953,0.000697689,0.237389,0.00114062,0.0429112,1889,1002,59.1183,-3.09979
672,22,58.9872,2.80554,0.00109787,0.00077009,0.000736318,0.00168832,0.000179644,0.675892,0.0010707,0.0422965,1896,1002,58.9871,-2.80554
679,22,59.004,2.70709,0.000546317,0.000718114,0.00134135,0.00197631,-0.000711877,0.817374,0.00160824,0.0399019,1903,1002,59.004,-2.70712
686,22,59.0171,2.82568,0.000159359,0.000492476,0.0019004,0.0022336,-0.00158177,0.829109,0.00221349,0.038743,1910,1002,59.017,-2.8257
693,22,59.0532,2.68677,-0.000165729,0.000206665,0.00233373,0.00236161,-0.00232068,0.825206,0.00270336,0.0368481,1917,1002,59.0533,-2.68674
700,22,59.0863,2.62305,-0.000547071,2.82766e-05,0.00252732,0.00228424,-0.00280303,0.842067,0.00294222,0.0334303,1924,1002,59.0863,-2.62303
707,22,59.0479,2.66479,-0.00118137,0.000285614,0.00248562,0.00214371,-0.00303946,0.928873,0.00300736,0.0260809,1931,1002,59.0479,-2.66481
714,22,59.0065,2.78668,-0.00201348,0.000903889,0.00222675,0.00210719,-0.00321678,1.07537,0.00309597,0.0388509,1938,1002,59.0064,-2.78666
721,22,58.9454,3.20038,0,0,0,0,0,0,0,-1,1945,1002,58.9454,-3.20039
728,22,58.8329,6.12921,0,0,0,0,0,0,0,-1,1952,1002,58.8329,-6.12921
735,22,58.8737,6.2428,-0.00522038,0.00456916,0.000555479,0.00460058,-0.0052518,1.5143,0.00569241,0.017422,1959,1002,58.8736,-6.2428
742,22,58.906,6.3595,-0.00626769,0.0059118,-0.000374235,0.00592328,-0.00627918,-1.54011,0.00704609,0.0180629,1966,1002,58.906,-6.35949
749,22,58.8336,6.51202,-0.00470028,0.00636476,-0.0020612,0.00673625,-0.00507177,-1.39248,0.0068399,0.013856,1973,1002,58.8336,-6.51202
756,22,58.8319,6.63208,-0.00083271,0.00686106,-0.00514188,0.00943581,-0.00340746,-1.10656,0.00768252,0.0192133,1980,1002,58.8319,-6.63207
763,22,58.7662,6.7713,0.00493975,0.00759152,-0.00986703,0.0162214,-0.00369008,-0.852186,0.0122312,0.0215836,1987,1002,58.7662,-6.7713
770,22,58.5823,6.87964,0.0140875,0.0071761,-0.0156495,0.0266583,-0.00539466,-0.676733,0.0198167,0.0195823,1994,1002,58.5823,-6.87966
777,22,58.2617,6.8703,0.027961,0.00549463,-0.0233242,0.0426161,-0.00916048,-0.560984,0.0319056,0.0402709,2001,1002,58.2617,-6.87028
784,22,57.9775,6.88867,0,0,0,0,0,0,0,-1,2008,1002,57.9776,-6.88864
791,22,55.2192,9.80481,0,0,0,0,0,0,0,-1,2015,1002,55.2192,-9.8048
798,22,56.4783,8.31635,0.0907122,-0.0071785,-0.0561314,0.116241,-0.0327072,-0.42684,0.0903908,0.043023,2022,1002,56.4784,-8.31633
805,22,57.5769,6.74829,0.118617,-0.0133202,-0.0708914,0.149485,-0.0441888,-0.410677,0.117197,0.0437748,2029,1002,57.5768,-6.74826
812,22,57.8459,5.25842,0.149875,-0.019896,-0.0884814,0.187605,-0.0576258,-0.403069,0.148065,0.0440854,2036,1002,57.846,-5.25845
-700,15,0,0,0,0,0,0,0,0,0,-1,524,1009,0,0
-693,15,-46.6715,3.23926,0.13391,0.0428699,0.00656725,0.134381,0.0423986,0.0716415,0.0793259,0.0497633,531,1009,-46.6716,-3.23926
-686,15,-46.0862,3.29626,0.112326,0.036056,0.00778125,0.113111,0.0352702,0.100641,0.0668288,0.0487065,538,1009,-46.0862,-3.29627
-679,15,-45.501,3.40936,0.0911571,0.0314509,0.00847237,0.092336,0.0302719,0.138265,0.0543533,0.0498089,545,1009,-45.5011,-3.40938
-672,15,-44.9379,3.42664,0.0722344,0.0278503,0.00867831,0.0738709,0.0262138,0.186386,0.0432442,0.0443746,552,1009,-44.9379,-3.42664
-665,15,-45.6827,2.70184,0,0,0,0,0,0,0,-1,559,1009,-45.6827,-2.70187
-658,15,-45.4199,2.93182,0,0,0,0,0,0,0,-1,566,1009,-45.4198,-2.93184
-651,15,-44.5887,2.90082,0,0,0,0,0,0,0,-1,573,1009,-44.5887,-2.90085
-644,15,-45.1287,3.63477,0.0186576,0.016326,0.00592058,0.0235261,0.0114576,0.688187,0.0135843,0.0474456,580,1009,-45.1287,-3.63477
-637,15,-45.4181,3.99542,0.00969811,0.0139933,0.00407697,0.0164538,0.00723769,1.02781,0.00952244,0.029723,587,1009,-45.4181,-3.99542
-630,15,-45.4393,3.96942,0.00255548,0.0098747,0.00316953,0.0110564,0.00137375,1.21392,0.0069584,0.0155298,594,1009,-45.4393,-3.9694
-623,15,-45.4908,3.93457,-0.00223064,0.00775467,0.001729,0.00804558,-0.00252155,1.4041,0.00637275,0.0102482,601,1009,-45.4909,-3.93457
-616,15,-45.5157,3.89154,-0.00325864,0.0053014,-0.000227514,0.00530744,-0.00326468,-1.54424,0.00499574,0.0166503,608,1009,-45.5157,-3.89153
-609,15,-45.5956,3.87952,-0.00272623,0.00378205,-0.00160209,0.00415505,-0.00309922,-1.34205,0.00420302,0.0243387,615,1009,-45.5956,-3.87951
-602,15,-45.6652,3.83246,-0.00188337,0.00255566,-0.00216411,0.00343608,-0.0027638,-1.18442,0.00358651,0.0238976,622,1009,-45.6652,-3.83246
-595,15,-45.7328,3.73999,0,0,0,0,0,0,0,-1,629,1009,-45.7328,-3.73999
-588,15,-44.7437,0.797241,0,0,0,0,0,0,0,-1,636,1009,-44.7437,-0.797222
-581,15,-44.7416,0.836182,0.000522253,-0.000775652,-0.0032805,0.00321738,-0.00347078,-0.687748,0.00386233,0.0380124,643,1009,-44.7416,-0.836154
-574,15,-44.7036,0.88092,0.000852382,-0.00111118,-0.00325827,0.00327358,-0.00353238,-0.639065,0.00393037,0.0323922,650,1009,-44.7036,-0.880933
-567,15,-44.7475,0.796082,0.00101412,-0.00102409,-0.00296066,0.00312617,-0.00313613,-0.619642,0.00361554,0.0331875,657,1009,-44.7475,-0.796071
-560,15,-44.7737,0.821228,0.00115204,-0.000629568,-0.00242637,0.00284596,-0.00232349,-0.60947,0.00298966,0.037117,664,1009,-44.7738,-0.821235
-553,15,-44.7787,0.903625,0.00121762,-0.000126317,-0.00174244,0.00241317,-0.00132187,-0.601361,0.00218689,0.0380768,671,1009,-44.7787,-0.903656
-546,15,-44.7989,0.776917,0.00135579,0.00013469,-0.000942206,0.00186797,-0.000377491,-0.497915,0.00138835,0.0382628,678,1009,-44.7989,-0.776931
-539,15,-44.7778,0.74176,0.00171305,-0.000168752,-0.000327613,0.00176845,-0.000224157,-0.167531,0.00126035,0.0384981,685,1009,-44.7778,-0.741741
-532,15,-44.8256,0.818909,0.00297727,-0.000891237,-0.000916776,0.00318353,-0.0010975,-0.221304,0.0025676,0.040534,692,1009,-44.8256,-0.818934
-525,15,0,0,0,0,0,0,0,0,0,-1,699,1009,0,0
-518,15,0,0,0,0,0,0,0,0,0,-1,706,1009,0,0
-511,15,0,0,0,0,0,0,0,0,0,-1,713,1009,0,0
-504,15,0,0,0,0,0,0,0,0,0,-1,720,1009,0,0
-497,15,0,0,0,0,0,0,0,0,0,-1,727,1009,0,0
-490,15,0,0,0,0,0,0,0,0,0,-1,734,1009,0,0
-483,15,0,0,0,0,0,0,0,0,0,-1,741,1009,0,0
-476,15,0,0,0,0,0,0,0,0,0,-1,748,1009,0,0
-469,15,0,0,0,0,0,0,0,0,0,-1,755,1009,0,0
-462,15,0,0,0,0,0,0,0,0,0,-1,762,1009,0,0
-455,15,0,0,0,0,0,0,0,0,0,-1,769,1009,0,0
-448,15,0,0,0,0,0,0,0,0,0,-1,776,1009,0,0
-441,15,0,0,0,0,0,0,0,0,0,-1,783,1009,0,0
-434,15,0,0,0,0,0,0,0,0,0,-1,790,1009,0,0
-427,15,0,0,0,0,0,0,0,0,0,-1,797,1009,0,0
-420,15,0,0,0,0,0,0,0,0,0,-1,804,1009,0,0
-413,15,0,0,0,0,0,0,0,0,0,-1,811,1009,0,0
-406,15,0,0,0,0,0,0,0,0,0,-1,818,1009,0,0
-399,15,0,0,0,0,0,0,0,0,0,-1,825,1009,0,0
-392,15,0,0,0,0,0,0,0,0,0,-1,832,1009,0,0
-385,15,0,0,0,0,0,0,0,0,0,-1,839,1009,0,0
-378,15,0,0,0,0,0,0,0,0,0,-1,846,1009,0,0
-371,15,0,0,0,0,0,0,0,0,0,-1,853,1009,0,0
-364,15,0,0,0,0,0,0,0,0,0,-1,860,1009,0,0
-357,15,0,0,0,0,0,0,0,0,0,-1,867,1009,0,0
-350,15,0,0,0,0,0,0,0,0,0,-1,874,1009,0,0
-343,15,0,0,0,0,0,0,0,0,0,-1,881,1009,0,0
-336,15,0,0,0,0,0,0,0,0,0,-1,888,1009,0,0
-329,15,0,0,0,0,0,0,0,0,0,-1,895,1009,0,0
-322,15,0,0,0,0,0,0,0,0,0,-1,902,1009,0,0
-315,15,0,0,0,0,0,0,0,0,0,-1,909,1009,0,0
-308,15,0,0,0,0,0,0,0,0,0,-1,916,1009,0,0
-301,15,0,0,0,0,0,0,0,0,0,-1,923,1009,0,0
-294,15,0,0,0,0,0,0,0,0,0,-1,930,1009,0,0
-287,15,0,0,0,0,0,0,0,0,0,-1,937,1009,0,0
-280,15,0,0,0,0,0,0,0,0,0,-1,944,1009,0,0
-273,15,0,0,0,0,0,0,0,0,0,-1,951,1009,0,0
-266,15,0,0,0,0,0,0,0,0,0,-1,958,1009,0,0
-259,15,0,0,0,0,0,0,0,0,0,-1,965,1009,0,0
-252,15,0,0,0,0,0,0,0,0,0,-1,972,1009,0,0
-245,15,0,0,0,0,0,0,0,0,0,-1,979,1009,0,0
-238,15,0,0,0,0,0,0,0,0,0,-1,986,1009,0,0
-231,15,0,0,0,0,0,0,0,0,0,-1,993,1009,0,0
-224,15,0,0,0,0,0,0,0,0,0,-1,1000,1009,0,0
-217,15,0,0,0,0,0,0,0,0,0,-1,1007,1009,0,0
-210,15,0,0,0,0,0,0,0,0,0,-1,1014,1009,0,0
-203,15,0,0,0,0,0,0,0,0,0,-1,1021,1009,0,0
-196,15,0,0,0,0,0,0,0,0,0,-1,1028,1009,0,0
-189,15,0,0,0,0,0,0,0,0,0,-1,1035,1009,0,0
-182,15,0,0,0,0,0,0,0,0,0,-1,1042,1009,0,0
-175,15,0,0,0,0,0,0,0,0,0,-1,1049,1009,0,0
-168,15,0,0,0,0,0,0,0,0,0,-1,1056,1009,0,0
-161,15,0,0,0,0,0,0,0,0,0,-1,1063,1009,0,0
-154,15,0,0,0,0,0,0,0,0,0,-1,1070,1009,0,0
-147,15,0,0,0,0,0,0,0,0,0,-1,1077,1009,0,0
-140,15,0,0,0,0,0,0,0,0,0,-1,1084,1009,0,0
-133,15,0,0,0,0,0,0,0,0,0,-1,1091,1009,0,0
-126,15,0,0,0,0,0,0,0,0,0,-1,1098,1009,0,0
-119,15,0,0,0,0,0,0,0,0,0,-1,1105,1009,0,0
-112,15,0,0,0,0,0,0,0,0,0,-1,1112,1009,0,0
-105,15,0,0,0,0,0,0,0,0,0,-1,1119,1009,0,0
-98,15,0,0,0,0,0,0,0,0,0,-1,1126,1009,0,0
-91,15,0,0,0,0,0,0,0,0,0,-1,1133,1009,0,0
-84,15,0,0,0,0,0,0,0,0,0,-1,1140,1009,0,0
-77,15,0,0,0,0,0,0,0,0,0,-1,1147,1009,0,0
-70,15,0,0,0,0,0,0,0,0,0,-1,1154,1009,0,0
-63,15,0,0,0,0,0,0,0,0,0,-1,1161,1009,0,0
-56,15,0,0,0,0,0,0,0,0,0,-1,1168,1009,0,0
-49,15,0,0,0,0,0,0,0,0,0,-1,1175,1009,0,0
-42,15,0,0,0,0,0,0,0,0,0,-1,1182,1009,0,0
-35,15,0,0,0,0,0,0,0,0,0,-1,1189,1009,0,0
-28,15,0,0,0,0,0,0,0,0,0,-1,1196,1009,0,0
-21,15,0,0,0,0,0,0,0,0,0,-1,1203,1009,0,0
-14,15,0,0,0,0,0,0,0,0,0,-1,1210,1009,0,0
-7,15,0,0,0,0,0,0,0,0,0,-1,1217,1009,0,0
0,15,0,0,0,0,0,0,0,0,0,-1,1224,1009,0,0
7,15,0,0,0,0,0,0,0,0,0,-1,1231,1009,0,0
14,15,0,0,0,0,0,0,0,0,0,-1,1238,1009,0,0
21,15,0,0,0,0,0,0,0,0,0,-1,1245,1009,0,0
28,15,0,0,0,0,0,0,0,0,0,-1,1252,1009,0,0
35,15,0,0,0,0,0,0,0,0,0,-1,1259,1009,0,0
42,15,0,0,0,0,0,0,0,0,0,-1,1266,1009,0,0
49,15,0,0,0,0,0,0,0,0,0,-1,1273,1009,0,0
56,15,0,0,0,0,0,0,0,0,0,-1,1280,1009,0,0
63,15,0,0,0,0,0,0,0,0,0,-1,1287,1009,0,0
70,15,0,0,0,0,0,0,0,0,0,-1,1294,1009,0,0
77,15,0,0,0,0,0,0,0,0,0,-1,1301,1009,0,0
84,15,0,0,0,0,0,0,0,0,0,-1,1308,1009,0,0
91,15,0,0,0,0,0,0,0,0,0,-1,1315,1009,0,0
98,15,0,0,0,0,0,0,0,0,0,-1,1322,1009,0,0
105,15,0,0,0,0,0,0,0,0,0,-1,1329,1009,0,0
112,15,0,0,0,0,0,0,0,0,0,-1,1336,1009,0,0
119,15,0,0,0,0,0,0,0,0,0,-1,1343,1009,0,0
126,15,0,0,0,0,0,0,0,0,0,-1,1350,1009,0,0
133,15,0,0,0,0,0,0,0,0,0,-1,1357,1009,0,0
140,15,0,0,0,0,0,0,0,0,0,-1,1364,1009,0,0
147,15,0,0,0,0,0,0,0,0,0,-1,1371,1009,0,0
154,15,0,0,0,0,0,0,0,0,0,-1,1378,1009,0,0
161,15,0,0,0,0,0,0,0,0,0,-1,1385,1009,0,0
168,15,0,0,0,0,0,0,0,0,0,-1,1392,1009,0,0
175,15,0,0,0,0,0,0,0,0,0,-1,1399,1009,0,0
182,15,0,0,0,0,0,0,0,0,0,-1,1406,1009,0,0
189,15,0,0,0,0,0,0,0,0,0,-1,1413,1009,0,0
196,15,0,0,0,0,0,0,0,0,0,-1,1420,1009,0,0
203,15,0,0,0,0,0,0,0,0,0,-1,1427,1009,0,0
210,15,0,0,0,0,0,0,0,0,0,-1,1434,1009,0,0
217,15,0,0,0,0,0,0,0,0,0,-1,1441,1009,0,0
224,15,0,0,0,0,0,0,0,0,0,-1,1448,1009,0,0
231,15,0,0,0,0,0,0,0,0,0,-1,1455,1009,0,0
238,15,0,0,0,0,0,0,0,0,0,-1,1462,1009,0,0
245,15,0,0,0,0,0,0,0,0,0,-1,1469,1009,0,0
252,15,0,0,0,0,0,0,0,0,0,-1,1476,1009,0,0
259,15,0,0,0,0,0,0,0,0,0,-1,1483,1009,0,0
266,15,0,0,0,0,0,0,0,0,0,-1,1490,1009,0,0
273,15,0,0,0,0,0,0,0,0,0,-1,1497,1009,0,0
280,15,0,0,0,0,0,0,0,0,0,-1,1504,1009,0,0
287,15,0,0,0,0,0,0,0,0,0,-1,1511,1009,0,0
294,15,0,0,0,0,0,0,0,0,0,-1,1518,1009,0,0
301,15,0,0,0,0,0,0,0,0,0,-1,1525,1009,0,0
308,15,0,0,0,0,0,0,0,0,0,-1,1532,1009,0,0
315,15,0,0,0,0,0,0,0,0,0,-1,1539,1009,0,0
322,15,0,0,0,0,0,0,0,0,0,-1,1546,1009,0,0
329,15,0,0,0,0,0,0,0,0,0,-1,1553,1009,0,0
336,15,0,0,0,0,0,0,0,0,0,-1,1560,1009,0,0
343,15,0,0,0,0,0,0,0,0,0,-1,1567,1009,0,0
350,15,0,0,0,0,0,0,0,0,0,-1,1574,1009,0,0
357,15,0,0,0,0,0,0,0,0,0,-1,1581,1009,0,0
364,15,0,0,0,0,0,0,0,0,0,-1,1588,1009,0,0
371,15,0,0,0,0,0,0,0,0,0,-1,1595,1009,0,0
378,15,0,0,0,0,0,0,0,0,0,-1,1602,1009,0,0
385,15,0,0,0,0,0,0,0,0,0,-1,1609,1009,0,0
392,15,0,0,0,0,0,0,0,0,0,-1,1616,1009,0,0
399,15,0,0,0,0,0,0,0,0,0,-1,1623,1009,0,0
406,15,0,0,0,0,0,0,0,0,0,-1,1630,1009,0,0
413,15,0,0,0,0,0,0,0,0,0,-1,1637,1009,0,0
420,15,0,0,0,0,0,0,0,0,0,-1,1644,1009,0,0
427,15,0,0,0,0,0,0,0,0,0,-1,1651,1009,0,0
434,15,0,0,0,0,0,0,0,0,0,-1,1658,1009,0,0
441,15,0,0,0,0,0,0,0,0,0,-1,1665,1009,0,0
448,15,0,0,0,0,0,0,0,0,0,-1,1672,1009,0,0
455,15,0,0,0,0,0,0,0,0,0,-1,1679,1009,0,0
462,15,0,0,0,0,0,0,0,0,0,-1,1686,1009,0,0
469,15,0,0,0,0,0,0,0,0,0,-1,1693,1009,0,0
476,15,0,0,0,0,0,0,0,0,0,-1,1700,1009,0,0
483,15,0,0,0,0,0,0,0,0,0,-1,1707,1009,0,0
490,15,0,0,0,0,0,0,0,0,0,-1,1714,1009,0,0
497,15,0,0,0,0,0,0,0,0,0,-1,1721,1009,0,0
504,15,0,0,0,0,0,0,0,0,0,-1,1728,1009,0,0
511,15,0,0,0,0,0,0,0,0,0,-1,1735,1009,0,0
518,15,0,0,0,0,0,0,0,0,0,-1,1742,1009,0,0
525,15,0,0,0,0,0,0,0,0,0,-1,1749,1009,0,0
532,15,0,0,0,0,0,0,0,0,0,-1,1756,1009,0,0
539,15,0,0,0,0,0,0,0,0,0,-1,1763,1009,0,0
546,15,0,0,0,0,0,0,0,0,0,-1,1770,1009,0,0
553,15,0,0,0,0,0,0,0,0,0,-1,1777,1009,0,0
560,15,0,0,0,0,0,0,0,0,0,-1,1784,1009,0,0
567,15,0,0,0,0,0,0,0,0,0,-1,1791,1009,0,0
574,15,0,0,0,0,0,0,0,0,0,-1,1798,1009,0,0
581,15,0,0,0,0,0,0,0,0,0,-1,1805,1009,0,0
588,15,0,0,0,0,0,0,0,0,0,-1,1812,1009,0,0
595,15,0,0,0,0,0,0,0,0,0,-1,1819,1009,0,0
602,15,0,0,0,0,0,0,0,0,0,-1,1826,1009,0,0
609,15,0,0,0,0,0,0,0,0,0,-1,1833,1009,0,0
616,15,0,0,0,0,0,0,0,0,0,-1,1840,1009,0,0
623,15,0,0,0,0,0,0,0,0,0,-1,1847,1009,0,0
630,15,0,0,0,0,0,0,0,0,0,-1,1854,1009,0,0
637,15,0,0,0,0,0,0,0,0,0,-1,1861,1009,0,0
644,15,58.9193,2.59351,0.00565359,0.00228751,0.000788554,0.00582916,0.00211193,0.219078,0.00340774,0.0425205,1868,1009,58.9193,-2.59348
651,15,59.0337,2.65009,0.00363743,0.00185751,0.000282404,0.00368116,0.00181378,0.153636,0.00212539,0.0418063,1875,1009,59.0337,-2.65006
658,15,59.1523,2.83405,0.00245088,0.00136947,-4.20663e-05,0.00245251,0.00136784,-0.0388215,0.0014191,0.0413122,1882,1009,59.1523,-2.83407
665,15,59.0962,2.84076,0.00159473,0.00108174,7.94175e-05,0.00160675,0.00106973,0.150131,0.000944498,0.0409603,1889,1009,59.0961,-2.84077
672,15,59.0085,2.75183,0.000939069,0.000989112,0.000519351,0.00148404,0.000444138,0.809469,0.000879526,0.0413126,1896,1009,59.0085,-2.75181
679,15,59.0851,2.72949,0.000484975,0.000874232,0.00111551,0.00181196,-0.000452755,0.871767,0.00138381,0.0403289,1903,1009,59.085,-2.7295
686,15,59.0895,2.86157,0.000116478,0.000596884,0.00167983,0.0020536,-0.00134024,0.856413,0.00197381,0.0427467,1910,1009,59.0895,-2.86159
693,15,59.0222,2.71521,-0.000196626,0.000276655,0.00214324,0.00219628,-0.00211625,0.840382,0.00248998,0.0392243,1917,1009,59.0222,-2.71522
700,15,59.0421,2.6424,-0.000535658,4.78262e-05,0.00239396,0.00216775,-0.00265558,0.846032,0.0027895,0.030097,1924,1009,59.0422,-2.64239
707,15,59.0477,2.64301,-0.00116868,0.000287621,0.00240111,0.00206856,-0.00294962,0.932618,0.0029121,0.0246094,1931,1009,59.0477,-2.64301
714,15,59.0421,2.6897,-0.00202574,0.000927873,0.00220271,0.00210303,-0.0032009,1.08071,0.00308401,0.0258815,1938,1009,59.0422,-2.68971
721,15,58.9749,2.70868,0,0,0,0,0,0,0,-1,1945,1009,58.9749,-2.70869
728,15,59.0189,6.19867,0,0,0,0,0,0,0,-1,1952,1009,59.0189,-6.19867
735,15,58.9552,6.32196,-0.00542654,0.00455423,0.000817465,0.00462074,-0.00549305,1.48961,0.00584644,0.0199295,1959,1009,58.9551,-6.32195
742,15,58.9921,6.46765,-0.00636726,0.00583418,5.24546e-05,0.0058344,-0.00636749,1.5665,0.007047,0.0398307,1966,1009,58.992,-6.46765
749,15,58.9839,6.54077,-0.00471838,0.00624959,-0.00144031,0.00643558,-0.00490437,-1.44238,0.00656699,0.0249432,1973,1009,58.9839,-6.54077
756,15,58.9967,6.51794,-0.00076479,0.00673577,-0.00423555,0.00864274,-0.00267176,-1.14775,0.00682891,0.0186949,1980,1009,58.9967,-6.51797
763,15,58.8984,6.62994,0.00509387,0.00760569,-0.00863665,0.0150773,-0.00237771,-0.8576,0.0109306,0.0154122,1987,1009,58.8985,-6.62995
770,15,58.7227,6.66022,0.0145264,0.00731451,-0.01409,0.0254645,-0.00362363,-0.660126,0.0183042,0.0197922,1994,1009,58.7226,-6.66022
777,15,58.3394,6.67639,0.0293948,0.00582856,-0.0215909,0.0422086,-0.00698521,-0.535612,0.0307332,0.0431221,2001,1009,58.3394,-6.6764
784,15,57.9954,6.70038,0,0,0,0,0,0,0,-1,2008,1009,57.9954,-6.70038
791,15,54.7566,10.7156,0,0,0,0,0,0,0,-1,2015,1009,54.7567,-10.7156
798,15,55.9805,9.0943,0.0960085,-0.00483106,-0.0538139,0.119332,-0.0281547,-0.408975,0.0904129,0.0460579,2022,1009,55.9805,-9.09428
805,15,57.1633,7.08173,0.125871,-0.00964085,-0.0684633,0.154438,-0.0382077,-0.395295,0.117779,0.0451285,2029,1009,57.1633,-7.08173
812,15,57.9465,5.26196,0.159918,-0.0142766,-0.0861201,0.195306,-0.0496645,-0.389879,0.149534,0.0426073,2036,1009,57.9466,-5.26198
-700,8,0,0,0,0,0,0,0,0,0,-1,524,1016,0,0
-693,8,-46.6876,2.84143,0,0,0,0,0,0,0,-1,531,1016,-46.6876,-2.84145
-686,8,-45.8,2.86157,0,0,0,0,0,0,0,-1,538,1016,-45.8,-2.86159
-679,8,-45.5267,2.92358,0.0902178,0.0240042,0.0131772,0.0927438,0.0214782,0.189399,0.0560585,0.0485277,545,1016,-45.5267,-2.92361
-672,8,-45.2634,2.96844,0.0713577,0.0216904,0.0121317,0.0741626,0.0188855,0.227211,0.0445029,0.0454737,552,1016,-45.2634,-2.96847
-665,8,-45.3931,2.92969,0.0548111,0.0197248,0.0108617,0.0579014,0.0166345,0.277188,0.0344229,0.0475576,559,1016,-45.3932,-2.92967
-658,8,-45.372,3.09979,0.0405362,0.0178484,0.00945548,0.0439602,0.0144244,0.347427,0.0258754,0.040006,566,1016,-45.372,-3.09979
-651,8,-44.9018,3.49231,0,0,0,0,0,0,0,-1,573,1016,-44.9018,-3.49231
-644,8,-44.9694,3.68048,0,0,0,0,0,0,0,-1,580,1016,-44.9694,-3.68048
-637,8,-45.2482,3.7099,0.00902628,0.0121166,0.00393634,0.0148002,0.00634269,0.972425,0.00857392,0.0419625,587,1016,-45.2482,-3.70992
-630,8,-45.4554,3.88312,0.00199318,0.00856786,0.00270762,0.00953937,0.00102167,1.2263,0.00604785,0.0246407,594,1016,-45.4554,-3.88314
-623,8,-45.4435,3.93011,-0.00247583,0.00706366,0.000811381,0.00713218,-0.00254435,1.48655,0.00579227,0.0159702,601,1016,-45.4435,-3.93014
-616,8,-45.5004,3.89575,-0.00331886,0.00475163,-0.0010663,0.00489014,-0.00345737,-1.44163,0.00484304,0.0173198,608,1016,-45.5004,-3.89575
-609,8,-45.566,3.81647,-0.00275815,0.00332667,-0.00233107,0.00411704,-0.00354852,-1.2439,0.00442977,0.0206271,615,1016,-45.566,-3.81649
-602,8,-45.5399,3.87976,-0.00196034,0.0021004,-0.00276834,0.00350312,-0.00336307,-1.1018,0.00396447,0.0248425,622,1016,-45.5398,-3.87975
-595,8,-45.597,3.82825,0,0,0,0,0,0,0,-1,629,1016,-45.597,-3.82824
-588,8,-44.6521,0.626099,0,0,0,0,0,0,0,-1,636,1016,-44.6521,-0.626071
-581,8,-44.7271,0.790833,0.000524999,-0.00121005,-0.00342425,0.00318991,-0.00387496,-0.661335,0.00408529,0.0328714,643,1016,-44.727,-0.790845
-574,8,-44.7402,0.740356,0.000863771,-0.00155565,-0.00330221,0.00317087,-0.00386275,-0.609822,0.00406741,0.0359772,650,1016,-44.7402,-0.740374
-567,8,-44.9537,0.323425,0,0,0,0,0,0,0,-1,657,1016,-44.9537,-0.323401
-560,8,-44.8294,0.691711,0.00116139,-0.00102592,-0.00224024,0.00256067,-0.00242521,-0.558322,0.00287895,0.0378596,664,1016,-44.8294,-0.691698
-553,8,-44.6729,0.812622,0.00117963,-0.000453416,-0.00145086,0.00202795,-0.00130174,-0.529095,0.00193758,0.0371914,671,1016,-44.6729,-0.812594
-546,8,-44.7259,1.01324,0.00122077,-0.000112465,-0.000589167,0.00144381,-0.000335509,-0.361901,0.0010917,0.0370451,678,1016,-44.7259,-1.01323
-539,8,-44.8033,1.14136,0.00139599,-0.000340556,-5.97985e-05,0.00139805,-0.000342613,-0.0343811,0.00106477,0.0410042,685,1016,-44.8033,-1.14134
-532,8,-44.673,0.822815,0.00235098,-0.000956667,-0.000662969,0.00247891,-0.0010846,-0.190628,0.00210924,0.0421438,692,1016,-44.673,-0.822796
-525,8,0,0,0,0,0,0,0,0,0,-1,699,1016,0,0
-518,8,0,0,0,0,0,0,0,0,0,-1,706,1016,0,0
-511,8,0,0,0,0,0,0,0,0,0,-1,713,1016,0,0
-504,8,0,0,0,0,0,0,0,0,0,-1,720,1016,0,0
-497,8,0,0,0,0,0,0,0,0,0,-1,727,1016,0,0
-490,8,0,0,0,0,0,0,0,0,0,-1,734,1016,0,0
-483,8,0,0,0,0,0,0,0,0,0,-1,741,1016,0,0
-476,8,0,0,0,0,0,0,0,0,0,-1,748,1016,0,0
-469,8,0,0,0,0,0,0,0,0,0,-1,755,1016,0,0
-462,8,0,0,0,0,0,0,0,0,0,-1,762,1016,0,0
-455,8,0,0,0,0,0,0,0,0,0,-1,769,1016,0,0
-448,8,0,0,0,0,0,0,0,0,0,-1,776,1016,0,0
-441,8,0,0,0,0,0,0,0,0,0,-1,783,1016,0,0
-434,8,0,0,0,0,0,0,0,0,0,-1,790,1016,0,0
-427,8,0,0,0,0,0,0,0,0,0,-1,797,1016,0,0
-420,8,0,0,0,0,0,0,0,0,0,-1,804,1016,0,0
-413,8,0,0,0,0,0,0,0,0,0,-1,811,1016,0,0
-406,8,0,0,0,0,0,0,0,0,0,-1,818,1016,0,0
-399,8,0,0,0,0,0,0,0,0,0,-1,825,1016,0,0
-392,8,0,0,0,0,0,0,0,0,0,-1,832,1016,0,0
-385,8,0,0,0,0,0,0,0,0,0,-1,839,1016,0,0
-378,8,0,0,0,0,0,0,0,0,0,-1,846,1016,0,0
-371,8,0,0,0,0,0,0,0,0,0,-1,853,1016,0,0
-364,8,0,0,0,0,0,0,0,0,0,-1,860,1016,0,0
-357,8,0,0,0,0,0,0,0,0,0,-1,867,1016,0,0
-350,8,0,0,0,0,0,0,0,0,0,-1,874,1016,0,0
-343,8,0,0,0,0,0,0,0,0,0,-1,881,1016,0,0
-336,8,0,0,0,0,0,0,0,0,0,-1,888,1016,0,0
-329,8,0,0,0,0,0,0,0,0,0,-1,895,1016,0,0
-322,8,0,0,0,0,0,0,0,0,0,-1,902,1016,0,0
-315,8,0,0,0,0,0,0,0,0,0,-1,909,1016,0,0
-308,8,0,0,0,0,0,0,0,0,0,-1,916,1016,0,0
-301,8,0,0,0,0,0,0,0,0,0,-1,923,1016,0,0
-294,8,0,0,0,0,0,0,0,0,0,-1,930,1016,0,0
-287,8,0,0,0,0,0,0,0,0,0,-1,937,1016,0,0
-280,8,0,0,0,0,0,0,0,0,0,-1,944,1016,0,0
-273,8,0,0,0,0,0,0,0,0,0,-1,951,1016,0,0
-266,8,0,0,0,0,0,0,0,0,0,-1,958,1016,0,0
-259,8,0,0,0,0,0,0,0,0,0,-1,965,1016,0,0
-252,8,0,0,0,0,0,0,0,0,0,-1,972,1016,0,0
-245,8,0,0,0,0,0,0,0,0,0,-1,979,1016,0,0
-238,8,0,0,0,0,0,0,0,0,0,-1,986,1016,0,0
-231,8,0,0,0,0,0,0,0,0,0,-1,993,1016,0,0
-224,8,0,0,0,0,0,0,0,0,0,-1,1000,1016,0,0
-217,8,0,0,0,0,0,0,0,0,0,-1,1007,1016,0,0
-210,8,0,0,0,0,0,0,0,0,0,-1,1014,1016,0,0
-203,8,0,0,0,0,0,0,0,0,0,-1,1021,1016,0,0
-196,8,0,0,0,0,0,0,0,0,0,-1,1028,1016,0,0
-189,8,0,0,0,0,0,0,0,0,0,-1,1035,1016,0,0
-182,8,0,0,0,0,0,0,0,0,0,-1,1042,1016,0,0
-175,8,0,0,0,0,0,0,0,0,0,-1,1049,1016,0,0
-168,8,0,0,0,0,0,0,0,0,0,-1,1056,1016,0,0
-161,8,0,0,0,0,0,0,0,0,0,-1,1063,1016,0,0
-154,8,0,0,0,0,0,0,0,0,0,-1,1070,1016,0,0
-147,8,0,0,0,0,0,0,0,0,0,-1,1077,1016,0,0
-140,8,0,0,0,0,0,0,0,0,0,-1,1084,1016,0,0
-133,8,0,0,0,0,0,0,0,0,0,-1,1091,1016,0,0
-126,8,0,0,0,0,0,0,0,0,0,-1,1098,1016,0,0
-119,8,0,0,0,0,0,0,0,0,0,-1,1105,1016,0,0
-112,8,0,0,0,0,0,0,0,0,0,-1,1112,1016,0,0
-105,8,0,0,0,0,0,0,0,0,0,-1,1119,1016,0,0
-98,8,0,0,0,0,0,0,0,0,0,-1,1126,1016,0,0
-91,8,0,0,0,0,0,0,0,0,0,-1,1133,1016,0,0
-84,8,0,0,0,0,0,0,0,0,0,-1,1140,1016,0,0
-77,8,0,0,0,0,0,0,0,0,0,-1,1147,1016,0,0
-70,8,0,0,0,0,0,0,0,0,0,-1,1154,1016,0,0
-63,8,0,0,0,0,0,0,0,0,0,-1,1161,1016,0,0
-56,8,0,0,0,0,0,0,0,0,0,-1,1168,1016,0,0
-49,8,0,0,0,0,0,0,0,0,0,-1,1175,1016,0,0
-42,8,0,0,0,0,0,0,0,0,0,-1,1182,1016,0,0
-35,8,0,0,0,0,0,0,0,0,0,-1,1189,1016,0,0
-28,8,0,0,0,0,0,0,0,0,0,-1,1196,1016,0,0
-21,8,0,0,0,0,0,0,0,0,0,-1,1203,1016,0,0
-14,8,0,0,0,0,0,0,0,0,0,-1,1210,1016,0,0
-7,8,0,0,0,0,0,0,0,0,0,-1,1217,1016,0,0
0,8,0,0,0,0,0,0,0,0,0,-1,1224,1016,0,0
7,8,0,0,0,0,0,0,0,0,0,-1,1231,1016,0,0
14,8,0,0,0,0,0,0,0,0,0,-1,1238,1016,0,0
21,8,0,0,0,0,0,0,0,0,0,-1,1245,1016,0,0
28,8,0,0,0,0,0,0,0,0,0,-1,1252,1016,0,0
35,8,0,0,0,0,0,0,0,0,0,-1,1259,1016,0,0
42,8,0,0,0,0,0,0,0,0,0,-1,1266,1016,0,0
49,8,0,0,0,0,0,0,0,0,0,-1,1273,1016,0,0
56,8,0,0,0,0,0,0,0,0,0,-1,1280,1016,0,0
63,8,0,0,0,0,0,0,0,0,0,-1,1287,1016,0,0
70,8,0,0,0,0,0,0,0,0,0,-1,1294,1016,0,0
77,8,0,0,0,0,0,0,0,0,0,-1,1301,1016,0,0
84,8,0,0,0,0,0,0,0,0,0,-1,1308,1016,0,0
91,8,0,0,0,0,0,0,0,0,0,-1,1315,1016,0,0
98,8,0,0,0,0,0,0,0,0,0,-1,1322,1016,0,0
105,8,0,0,0,0,0,0,0,0,0,-1,1329,1016,0,0
112,8,0,0,0,0,0,0,0,0,0,-1,1336,1016,0,0
119,8,0,0,0,0,0,0,0,0,0,-1,1343,1016,0,0
126,8,0,0,0,0,0,0,0,0,0,-1,1350,1016,0,0
133,8,0,0,0,0,0,0,0,0,0,-1,1357,1016,0,0
140,8,0,0,0,0,0,0,0,0,0,-1,1364,1016,0,0
147,8,0,0,0,0,0,0,0,0,0,-1,1371,1016,0,0
154,8,0,0,0,0,0,0,0,0,0,-1,1378,1016,0,0
161,8,0,0,0,0,0,0,0,0,0,-1,1385,1016,0,0
168,8,0,0,0,0,0,0,0,0,0,-1,1392,1016,0,0
175,8,0,0,0,0,0,0,0,0,0,-1,1399,1016,0,0
182,8,0,0,0,0,0,0,0,0,0,-1,1406,1016,0,0
189,8,0,0,0,0,0,0,0,0,0,-1,1413,1016,0,0
196,8,0,0,0,0,0,0,0,0,0,-1,1420,1016,0,0
203,8,0,0,0,0,0,0,0,0,0,-1,1427,1016,0,0
210,8,0,0,0,0,0,0,0,0,0,-1,1434,1016,0,0
217,8,0,0,0,0,0,0,0,0,0,-1,1441,1016,0,0
224,8,0,0,0,0,0,0,0,0,0,-1,1448,1016,0,0
231,8,0,0,0,0,0,0,0,0,0,-1,1455,1016,0,0
238,8,0,0,0,0,0,0,0,0,0,-1,1462,1016,0,0
245,8,0,0,0,0,0,0,0,0,0,-1,1469,1016,0,0
252,8,0,0,0,0,0,0,0,0,0,-1,1476,1016,0,0
259,8,0,0,0,0,0,0,0,0,0,-1,1483,1016,0,0
266,8,0,0,0,0,0,0,0,0,0,-1,1490,1016,0,0
273,8,0,0,0,0,0,0,0,0,0,-1,1497,1016,0,0
280,8,0,0,0,0,0,0,0,0,0,-1,1504,1016,0,0
287,8,0,0,0,0,0,0,0,0,0,-1,1511,1016,0,0
294,8,0,0,0,0,0,0,0,0,0,-1,1518,1016,0,0
301,8,0,0,0,0,0,0,0,0,0,-1,1525,1016,0,0
308,8,0,0,0,0,0,0,0,0,0,-1,1532,1016,0,0
315,8,0,0,0,0,0,0,0,0,0,-1,1539,1016,0,0
322,8,0,0,0,0,0,0,0,0,0,-1,1546,1016,0,0
329,8,0,0,0,0,0,0,0,0,0,-1,1553,1016,0,0
336,8,0,0,0,0,0,0,0,0,0,-1,1560,1016,0,0
343,8,0,0,0,0,0,0,0,0,0,-1,1567,1016,0,0
350,8,0,0,0,0,0,0,0,0,0,-1,1574,1016,0,0
357,8,0,0,0,0,0,0,0,0,0,-1,1581,1016,0,0
364,8,0,0,0,0,0,0,0,0,0,-1,1588,1016,0,0
371,8,0,0,0,0,0,0,0,0,0,-1,1595,1016,0,0
378,8,0,0,0,0,0,0,0,0,0,-1,1602,1016,0,0
385,8,0,0,0,0,0,0,0,0,0,-1,1609,1016,0,0
392,8,0,0,0,0,0,0,0,0,0,-1,1616,1016,0,0
399,8,0,0,0,0,0,0,0,0,0,-1,1623,1016,0,0
406,8,0,0,0,0,0,0,0,0,0,-1,1630,1016,0,0
413,8,0,0,0,0,0,0,0,0,0,-1,1637,1016,0,0
420,8,0,0,0,0,0,0,0,0,0,-1,1644,1016,0,0
427,8,0,0,0,0,0,0,0,0,0,-1,1651,1016,0,0
434,8,0,0,0,0,0,0,0,0,0,-1,1658,1016,0,0
441,8,0,0,0,0,0,0,0,0,0,-1,1665,1016,0,0
448,8,0,0,0,0,0,0,0,0,0,-1,1672,1016,0,0
455,8,0,0,0,0,0,0,0,0,0,-1,1679,1016,0,0
462,8,0,0,0,0,0,0,0,0,0,-1,1686,1016,0,0
469,8,0,0,0,0,0,0,0,0,0,-1,1693,1016,0,0
476,8,0,0,0,0,0,0,0,0,0,-1,1700,1016,0,0
483,8,0,0,0,0,0,0,0,0,0,-1,1707,1016,0,0
490,8,0,0,0,0,0,0,0,0,0,-1,1714,1016,0,0
497,8,0,0,0,0,0,0,0,0,0,-1,1721,1016,0,0
504,8,0,0,0,0,0,0,0,0,0,-1,1728,1016,0,0
511,8,0,0,0,0,0,0,0,0,0,-1,1735,1016,0,0
518,8,0,0,0,0,0,0,0,0,0,-1,1742,1016,0,0
525,8,0,0,0,0,0,0,0,0,0,-1,1749,1016,0,0
532,8,0,0,0,0,0,0,0,0,0,-1,1756,1016,0,0
539,8,0,0,0,0,0,0,0,0,0,-1,1763,1016,0,0
546,8,0,0,0,0,0,0,0,0,0,-1,1770,1016,0,0
553,8,0,0,0,0,0,0,0,0,0,-1,1777,1016,0,0
560,8,0,0,0,0,0,0,0,0,0,-1,1784,1016,0,0
567,8,0,0,0,0,0,0,0,0,0,-1,1791,1016,0,0
574,8,0,0,0,0,0,0,0,0,0,-1,1798,1016,0,0
581,8,0,0,0,0,0,0,0,0,0,-1,1805,1016,0,0
588,8,0,0,0,0,0,0,0,0,0,-1,1812,1016,0,0
595,8,0,0,0,0,0,0,0,0,0,-1,1819,1016,0,0
602,8,0,0,0,0,0,0,0,0,0,-1,1826,1016,0,0
609,8,0,0,0,0,0,0,0,0,0,-1,1833,1016,0,0
616,8,0,0,0,0,0,0,0,0,0,-1,1840,1016,0,0
623,8,0,0,0,0,0,0,0,0,0,-1,1847,1016,0,0
630,8,0,0,0,0,0,0,0,0,0,-1,1854,1016,0,0
637,8,0,0,0,0,0,0,0,0,0,-1,1861,1016,0,0
644,8,58.854,2.55359,0.00438289,0.00272775,0.000179087,0.00440205,0.0027086,0.106558,0.00256395,0.0449211,1868,1016,58.854,-2.55362
651,8,59.103,2.43658,0.00269804,0.00241265,-0.000128681,0.00274749,0.0023632,-0.366902,0.00171795,0.0390972,1875,1016,59.103,-2.43657
658,8,59.0554,2.57794,0.00176311,0.00198777,-0.000344615,0.0022379,0.00151298,-0.942944,0.00131849,0.0382549,1882,1016,59.0554,-2.57793
665,8,58.9987,2.50885,0.00111822,0.00167764,-0.000204983,0.00174471,0.00105115,-1.25458,0.00101434,0.0400173,1889,1016,58.9986,-2.50888
672,8,59.0004,2.41669,0.000636129,0.00153797,0.000225167,0.00159107,0.000583036,1.33923,0.000929463,0.0404721,1896,1016,59.0004,-2.41668
679,8,58.9946,2.51855,0.000311435,0.00137118,0.000793482,0.00179545,-0.00011283,1.07979,0.00123629,0.0379946,1903,1016,58.9947,-2.51854
686,8,59.0323,2.58478,-2.70129e-05,0.00101542,0.00133571,0.001928,-0.000939598,0.97142,0.00168807,0.0408444,1910,1016,59.0323,-2.58475
693,8,59.0624,2.50171,-0.00033317,0.0006048,0.00180993,0.00200552,-0.00173389,0.912169,0.00216085,0.0389095,1917,1016,59.0624,-2.50173
700,8,59.0719,2.53149,-0.000637393,0.000280256,0.00210753,0.00197833,-0.00233547,0.892579,0.00249342,0.0288744,1924,1016,59.0719,-2.5315
707,8,59.0602,2.59583,-0.00127317,0.000453533,0.00217119,0.00192673,-0.00274637,0.974633,0.00271181,0.0213936,1931,1016,59.0602,-2.59584
714,8,59.0525,2.60913,-0.0021658,0.0010499,0.00204994,0.00204733,-0.00316322,1.11796,0.00303122,0.0224125,1938,1016,59.0525,-2.60915
721,8,59.0464,2.60547,0,0,0,0,0,0,0,-1,1945,1016,59.0464,-2.6055
728,8,52.1681,5.36774,0,0,0,0,0,0,0,-1,1952,1016,52.168,-5.36773
735,8,59.0096,6.42206,0,0,0,0,0,0,0,-1,1959,1016,59.0096,-6.42204
742,8,58.9431,6.55383,0,0,0,0,0,0,0,-1,1966,1016,58.9431,-6.55381
749,8,59.1434,6.57581,0,0,0,0,0,0,0,-1,1973,1016,59.1435,-6.57583
756,8,59.0598,6.40631,-0.000996536,0.00653892,-0.0034365,0.00787073,-0.00232835,-1.20107,0.00617146,0.0353647,1980,1016,59.0598,-6.40633
763,8,58.9813,6.49213,0.00492481,0.00758075,-0.00751389,0.0138831,-0.00137755,-0.872863,0.0097471,0.0167406,1987,1016,58.9813,-6.49214
770,8,58.8572,6.45319,0.0145089,0.0074961,-0.0126119,0.0240927,-0.00208778,-0.649812,0.016801,0.0219051,1994,1016,58.8571,-6.45319
777,8,58.5198,6.44806,0.0301317,0.00636339,-0.0198433,0.0413774,-0.00488227,-0.515593,0.029348,0.0360417,2001,1016,58.5197,-6.44805
784,8,58.1797,6.44958,0,0,0,0,0,0,0,-1,2008,1016,58.1796,-6.44961
791,8,53.5525,11.5329,0,0,0,0,0,0,0,-1,2015,1016,53.5524,-11.5329
798,8,55.0149,9.83722,0.100048,-0.00161088,-0.0511181,0.121307,-0.0228696,-0.394115,0.0894738,0.0491453,2022,1016,55.015,-9.83724
805,8,56.6685,7.31506,0.1316,-0.00468722,-0.0654063,0.15791,-0.0309975,-0.382452,0.116983,0.047984,2029,1016,56.6685,-7.31505
812,8,57.5935,5.77295,0,0,0,0,0,0,0,-1,2036,1016,57.5934,-5.77293
-700,1,0,0,0,0,0,0,0,0,0,-1,524,1023,0,0
-693,1,-46.9055,2.49976,0.124428,0.027483,0.0278478,0.131858,0.0200531,0.260732,0.0820419,0.0408259,531,1023,-46.9055,-2.49978
-686,1,-46.1537,3.60822,0.104244,0.0243208,0.0244698,0.111141,0.0174241,0.274719,0.0690228,0.0454976,538,1023,-46.1537,-3.60824
-679,1,-45.0536,2.26526,0.0845094,0.0220656,0.021282,0.0910728,0.0155021,0.299148,0.0562643,0.0499459,545,1023,-45.0536,-2.26523
-672,1,-45.0134,2.89014,0.0667785,0.0202481,0.0182384,0.0730752,0.0139514,0.332434,0.0447965,0.0487026,552,1023,-45.0134,-2.89015
-665,1,-45.0378,3.00769,0.0511959,0.0186224,0.0153089,0.0572614,0.012557,0.377229,0.0347532,0.0470604,559,1023,-45.0378,-3.00768
-658,1,-45.2398,3.2533,0.0377776,0.0169968,0.0125323,0.0436666,0.0111078,0.439285,0.0262053,0.0366257,566,1023,-45.2398,-3.25328
-651,1,-45.1469,3.52618,0.026467,0.0152111,0.00991067,0.0322362,0.00944188,0.527168,0.0191364,0.0287736,573,1023,-45.1469,-3.52621
-644,1,-44.9014,3.77271,0,0,0,0,0,0,0,-1,580,1023,-44.9014,-3.77273
-637,1,-45.2307,3.66528,0.00797551,0.0113711,0.00439529,0.0143851,0.00496151,0.96971,0.00843739,0.0392582,587,1023,-45.2307,-3.66531
-630,1,-45.5101,3.75397,0.0014807,0.00813112,0.00255049,0.00899661,0.000615206,1.24364,0.00580355,0.0339769,594,1023,-45.5101,-3.75398
-623,1,-45.3799,3.91547,-0.002473,0.00674834,0.000180393,0.00675187,-0.00247653,1.55124,0.00551532,0.0173024,601,1023,-45.3799,-3.91545
-616,1,-45.5297,3.84656,-0.00320906,0.00432,-0.00150132,0.00460832,-0.00349739,-1.38106,0.00469446,0.0215149,608,1023,-45.5297,-3.84654
-609,1,-45.5492,3.9101,-0.00270214,0.00276714,-0.00262391,0.00382238,-0.00375738,-1.18843,0.00437623,0.0232548,615,1023,-45.5492,-3.91007
-602,1,-45.368,4.00446,-0.00197891,0.00150033,-0.00299428,0.00322366,-0.00370224,-1.04856,0.00400185,0.0160607,622,1023,-45.368,-4.00444
-595,1,-45.2057,4.05048,0,0,0,0,0,0,0,-1,629,1023,-45.2057,-4.05047
-588,1,-44.9758,4.18243,0,0,0,0,0,0,0,-1,636,1023,-44.9758,-4.18246
-581,1,-44.788,0.911804,0,0,0,0,0,0,0,-1,643,1023,-44.788,-0.911832
-574,1,-44.7408,0.656799,0.000768693,-0.00195351,-0.0030309,0.00273008,-0.0039149,-0.574355,0.00385676,0.0390848,650,1023,-44.7408,-0.656778
-567,1,-44.7571,0.331543,0.000925398,-0.00174548,-0.00253168,0.00245227,-0.00327235,-0.5427,0.00331639,0.0430891,657,1023,-44.7571,-0.331568
-560,1,-44.7375,0.464233,0.00102519,-0.00113635,-0.00179101,0.00203625,-0.00214741,-0.513924,0.00241573,0.0404944,664,1023,-44.7375,-0.464229
-553,1,-44.6122,0.762573,0.000990182,-0.000310676,-0.000898113,0.00144866,-0.000769149,-0.472001,0.00130033,0.0367916,671,1023,-44.6122,-0.762566
-546,1,-44.688,1.09167,0.000945235,0.000355043,7.31677e-05,0.00095417,0.000346108,0.121522,0.000557768,0.0392956,678,1023,-44.688,-1.09166
-539,1,-44.8237,1.20966,0.000932958,0.000480273,0.00066573,0.00140977,3.45986e-06,0.621533,0.000938696,0.0426844,685,1023,-44.8237,-1.20968
-532,1,-44.6634,0.880188,0.00156033,0.000229115,0.00035763,0.00165032,0.000139122,0.24652,0.0010569,0.043436,692,1023,-44.6634,-0.880199
-525,1,0,0,0,0,0,0,0,0,0,-1,699,1023,0,0
-518,1,0,0,0,0,0,0,0,0,0,-1,706,1023,0,0
-511,1,0,0,0,0,0,0,0,0,0,-1,713,1023,0,0
-504,1,0,0,0,0,0,0,0,0,0,-1,720,1023,0,0
-497,1,0,0,0,0,0,0,0,0,0,-1,727,1023,0,0
-490,1,0,0,0,0,0,0,0,0,0,-1,734,1023,0,0
-483,1,0,0,0,0,0,0,0,0,0,-1,741,1023,0,0
-476,1,0,0,0,0,0,0,0,0,0,-1,748,1023,0,0
-469,1,0,0,0,0,0,0,0,0,0,-1,755,1023,0,0
-462,1,0,0,0,0,0,0,0,0,0,-1,762,1023,0,0
-455,1,0,0,0,0,0,0,0,0,0,-1,769,1023,0,0
-448,1,0,0,0,0,0,0,0,0,0,-1,776,1023,0,0
-441,1,0,0,0,0,0,0,0,0,0,-1,783,1023,0,0
-434,1,0,0,0,0,0,0,0,0,0,-1,790,1023,0,0
-427,1,0,0,0,0,0,0,0,0,0,-1,797,1023,0,0
-420,1,0,0,0,0,0,0,0,0,0,-1,804,1023,0,0
-413,1,0,0,0,0,0,0,0,0,0,-1,811,1023,0,0
-406,1,0,0,0,0,0,0,0,0,0,-1,818,1023,0,0
-399,1,0,0,0,0,0,0,0,0,0,-1,825,1023,0,0
-392,1,0,0,0,0,0,0,0,0,0,-1,832,1023,0,0
-385,1,0,0,0,0,0,0,0,0,0,-1,839,1023,0,0
-378,1,0,0,0,0,0,0,0,0,0,-1,846,1023,0,0
-371,1,0,0,0,0,0,0,0,0,0,-1,853,1023,0,0
-364,1,0,0,0,0,0,0,0,0,0,-1,860,1023,0,0
-357,1,0,0,0,0,0,0,0,0,0,-1,867,1023,0,0
-350,1,0,0,0,0,0,0,0,0,0,-1,874,1023,0,0
-343,1,0,0,0,0,0,0,0,0,0,-1,881,1023,0,0
-336,1,0,0,0,0,0,0,0,0,0,-1,888,1023,0,0
-329,1,0,0,0,0,0,0,0,0,0,-1,895,1023,0,0
-322,1,0,0,0,0,0,0,0,0,0,-1,902,1023,0,0
-315,1,0,0,0,0,0,0,0,0,0,-1,909,1023,0,0
-308,1,0,0,0,0,0,0,0,0,0,-1,916,1023,0,0
-301,1,0,0,0,0,0,0,0,0,0,-1,923,1023,0,0
-294,1,0,0,0,0,0,0,0,0,0,-1,930,1023,0,0
-287,1,0,0,0,0,0,0,0,0,0,-1,937,1023,0,0
-280,1,0,0,0,0,0,0,0,0,0,-1,944,1023,0,0
-273,1,0,0,0,0,0,0,0,0,0,-1,951,1023,0,0
-266,1,0,0,0,0,0,0,0,0,0,-1,958,1023,0,0
-259,1,0,0,0,0,0,0,0,0,0,-1,965,1023,0,0
-252,1,0,0,0,0,0,0,0,0,0,-1,972,1023,0,0
-245,1,0,0,0,0,0,0,0,0,0,-1,979,1023,0,0
-238,1,0,0,0,0,0,0,0,0,0,-1,986,1023,0,0
-231,1,0,0,0,0,0,0,0,0,0,-1,993,1023,0,0
-224,1,0,0,0,0,0,0,0,0,0,-1,1000,1023,0,0
-217,1,0,0,0,0,0,0,0,0,0,-1,1007,1023,0,0
-210,1,0,0,0,0,0,0,0,0,0,-1,1014,1023,0,0
-203,1,0,0,0,0,0,0,0,0,0,-1,1021,1023,0,0
-196,1,0,0,0,0,0,0,0,0,0,-1,1028,1023,0,0
-189,1,0,0,0,0,0,0,0,0,0,-1,1035,1023,0,0
-182,1,0,0,0,0,0,0,0,0,0,-1,1042,1023,0,0
-175,1,0,0,0,0,0,0,0,0,0,-1,1049,1023,0,0
-168,1,0,0,0,0,0,0,0,0,0,-1,1056,1023,0,0
-161,1,0,0,0,0,0,0,0,0,0,-1,1063,1023,0,0
-154,1,0,0,0,0,0,0,0,0,0,-1,1070,1023,0,0
-147,1,0,0,0,0,0,0,0,0,0,-1,1077,1023,0,0
-140,1,0,0,0,0,0,0,0,0,0,-1,1084,1023,0,0
-133,1,0,0,0,0,0,0,0,0,0,-1,1091,1023,0,0
-126,1,0,0,0,0,0,0,0,0,0,-1,1098,1023,0,0
-119,1,0,0,0,0,0,0,0,0,0,-1,1105,1023,0,0
-112,1,0,0,0,0,0,0,0,0,0,-1,1112,1023,0,0
-105,1,0,0,0,0,0,0,0,0,0,-1,1119,1023,0,0
-98,1,0,0,0,0,0,0,0,0,0,-1,1126,1023,0,0
-91,1,0,0,0,0,0,0,0,0,0,-1,1133,1023,0,0
-84,1,0,0,0,0,0,0,0,0,0,-1,1140,1023,0,0
-77,1,0,0,0,0,0,0,0,0,0,-1,1147,1023,0,0
-70,1,0,0,0,0,0,0,0,0,0,-1,1154,1023,0,0
-63,1,0,0,0,0,0,0,0,0,0,-1,1161,1023,0,0
-56,1,0,0,0,0,0,0,0,0,0,-1,1168,1023,0,0
-49,1,0,0,0,0,0,0,0,0,0,-1,1175,1023,0,0
-42,1,0,0,0,0,0,0,0,0,0,-1,1182,1023,0,0
-35,1,0,0,0,0,0,0,0,0,0,-1,1189,1023,0,0
-28,1,0,0,0,0,0,0,0,0,0,-1,1196,1023,0,0
-21,1,0,0,0,0,0,0,0,0,0,-1,1203,1023,0,0
-14,1,0,0,0,0,0,0,0,0,0,-1,1210,1023,0,0
-7,1,0,0,0,0,0,0,0,0,0,-1,1217,1023,0,0
0,1,0,0,0,0,0,0,0,0,0,-1,1224,1023,0,0
7,1,0,0,0,0,0,0,0,0,0,-1,1231,1023,0,0
14,1,0,0,0,0,0,0,0,0,0,-1,1238,1023,0,0
21,1,0,0,0,0,0,0,0,0,0,-1,1245,1023,0,0
28,1,0,0,0,0,0,0,0,0,0,-1,1252,1023,0,0
35,1,0,0,0,0,0,0,0,0,0,-1,1259,1023,0,0
42,1,0,0,0,0,0,0,0,0,0,-1,1266,1023,0,0
49,1,0,0,0,0,0,0,0,0,0,-1,1273,1023,0,0
56,1,0,0,0,0,0,0,0,0,0,-1,1280,1023,0,0
63,1,0,0,0,0,0,0,0,0,0,-1,1287,1023,0,0
70,1,0,0,0,0,0,0,0,0,0,-1,1294,1023,0,0
77,1,0,0,0,0,0,0,0,0,0,-1,1301,1023,0,0
84,1,0,0,0,0,0,0,0,0,0,-1,1308,1023,0,0
91,1,0,0,0,0,0,0,0,0,0,-1,1315,1023,0,0
98,1,0,0,0,0,0,0,0,0,0,-1,1322,1023,0,0
105,1,0,0,0,0,0,0,0,0,0,-1,1329,1023,0,0
112,1,0,0,0,0,0,0,0,0,0,-1,1336,1023,0,0
119,1,0,0,0,0,0,0,0,0,0,-1,1343,1023,0,0
126,1,0,0,0,0,0,0,0,0,0,-1,1350,1023,0,0
133,1,0,0,0,0,0,0,0,0,0,-1,1357,1023,0,0
140,1,0,0,0,0,0,0,0,0,0,-1,1364,1023,0,0
147,1,0,0,0,0,0,0,0,0,0,-1,1371,1023,0,0
154,1,0,0,0,0,0,0,0,0,0,-1,1378,1023,0,0
161,1,0,0,0,0,0,0,0,0,0,-1,1385,1023,0,0
168,1,0,0,0,0,0,0,0,0,0,-1,1392,1023,0,0
175,1,0,0,0,0,0,0,0,0,0,-1,1399,1023,0,0
182,1,0,0,0,0,0,0,0,0,0,-1,1406,1023,0,0
189,1,0,0,0,0,0,0,0,0,0,-1,1413,1023,0,0
196,1,0,0,0,0,0,0,0,0,0,-1,1420,1023,0,0
203,1,0,0,0,0,0,0,0,0,0,-1,1427,1023,0,0
210,1,0,0,0,0,0,0,0,0,0,-1,1434,1023,0,0
217,1,0,0,0,0,0,0,0,0,0,-1,1441,1023,0,0
224,1,0,0,0,0,0,0,0,0,0,-1,1448,1023,0,0
231,1,0,0,0,0,0,0,0,0,0,-1,1455,1023,0,0
238,1,0,0,0,0,0,0,0,0,0,-1,1462,1023,0,0
245,1,0,0,0,0,0,0,0,0,0,-1,1469,1023,0,0
252,1,0,0,0,0,0,0,0,0,0,-1,1476,1023,0,0
259,1,0,0,0,0,0,0,0,0,0,-1,1483,1023,0,0
266,1,0,0,0,0,0,0,0,0,0,-1,1490,1023,0,0
273,1,0,0,0,0,0,0,0,0,0,-1,1497,1023,0,0
280,1,0,0,0,0,0,0,0,0,0,-1,1504,1023,0,0
287,1,0,0,0,0,0,0,0,0,0,-1,1511,1023,0,0
294,1,0,0,0,0,0,0,0,0,0,-1,1518,1023,0,0
301,1,0,0,0,0,0,0,0,0,0,-1,1525,1023,0,0
308,1,0,0,0,0,0,0,0,0,0,-1,1532,1023,0,0
315,1,0,0,0,0,0,0,0,0,0,-1,1539,1023,0,0
322,1,0,0,0,0,0,0,0,0,0,-1,1546,1023,0,0
329,1,0,0,0,0,0,0,0,0,0,-1,1553,1023,0,0
336,1,0,0,0,0,0,0,0,0,0,-1,1560,1023,0,0
343,1,0,0,0,0,0,0,0,0,0,-1,1567,1023,0,0
350,1,0,0,0,0,0,0,0,0,0,-1,1574,1023,0,0
357,1,0,0,0,0,0,0,0,0,0,-1,1581,1023,0,0
364,1,0,0,0,0,0,0,0,0,0,-1,1588,1023,0,0
371,1,0,0,0,0,0,0,0,0,0,-1,1595,1023,0,0
378,1,0,0,0,0,0,0,0,0,0,-1,1602,1023,0,0
385,1,0,0,0,0,0,0,0,0,0,-1,1609,1023,0,0
392,1,0,0,0,0,0,0,0,0,0,-1,1616,1023,0,0
399,1,0,0,0,0,0,0,0,0,0,-1,1623,1023,0,0
406,1,0,0,0,0,0,0,0,0,0,-1,1630,1023,0,0
413,1,0,0,0,0,0,0,0,0,0,-1,1637,1023,0,0
420,1,0,0,0,0,0,0,0,0,0,-1,1644,1023,0,0
427,1,0,0,0,0,0,0,0,0,0,-1,1651,1023,0,0
434,1,0,0,0,0,0,0,0,0,0,-1,1658,1023,0,0
441,1,0,0,0,0,0,0,0,0,0,-1,1665,1023,0,0
448,1,0,0,0,0,0,0,0,0,0,-1,1672,1023,0,0
455,1,0,0,0,0,0,0,0,0,0,-1,1679,1023,0,0
462,1,0,0,0,0,0,0,0,0,0,-1,1686,1023,0,0
469,1,0,0,0,0,0,0,0,0,0,-1,1693,1023,0,0
476,1,0,0,0,0,0,0,0,0,0,-1,1700,1023,0,0
483,1,0,0,0,0,0,0,0,0,0,-1,1707,1023,0,0
490,1,0,0,0,0,0,0,0,0,0,-1,1714,1023,0,0
497,1,0,0,0,0,0,0,0,0,0,-1,1721,1023,0,0
504,1,0,0,0,0,0,0,0,0,0,-1,1728,1023,0,0
511,1,0,0,0,0,0,0,0,0,0,-1,1735,1023,0,0
518,1,0,0,0,0,0,0,0,0,0,-1,1742,1023,0,0
525,1,0,0,0,0,0,0,0,0,0,-1,1749,1023,0,0
532,1,0,0,0,0,0,0,0,0,0,-1,1756,1023,0,0
539,1,0,0,0,0,0,0,0,0,0,-1,1763,1023,0,0
546,1,0,0,0,0,0,0,0,0,0,-1,1770,1023,0,0
553,1,0,0,0,0,0,0,0,0,0,-1,1777,1023,0,0
560,1,0,0,0,0,0,0,0,0,0,-1,1784,1023,0,0
567,1,0,0,0,0,0,0,0,0,0,-1,1791,1023,0,0
574,1,0,0,0,0,0,0,0,0,0,-1,1798,1023,0,0
581,1,0,0,0,0,0,0,0,0,0,-1,1805,1023,0,0
588,1,0,0,0,0,0,0,0,0,0,-1,1812,1023,0,0
595,1,0,0,0,0,0,0,0,0,0,-1,1819,1023,0,0
602,1,0,0,0,0,0,0,0,0,0,-1,1826,1023,0,0
609,1,0,0,0,0,0,0,0,0,0,-1,1833,1023,0,0
616,1,0,0,0,0,0,0,0,0,0,-1,1840,1023,0,0
623,1,0,0,0,0,0,0,0,0,0,-1,1847,1023,0,0
630,1,0,0,0,0,0,0,0,0,0,-1,1854,1023,0,0
637,1,0,0,0,0,0,0,0,0,0,-1,1861,1023,0,0
644,1,0,0,0,0,0,0,0,0,0,-1,1868,1023,0,0
651,1,59.1267,2.45874,0.00146957,0.00256856,-0.000341336,0.00266595,0.00137218,-1.29287,0.00153941,0.0364531,1875,1023,59.1267,-2.45874
658,1,59.0248,2.52496,0.000890289,0.00217329,-0.00047902,0.0023324,0.000731175,-1.2501,0.00137749,0.0389854,1882,1023,59.0248,-2.52494
665,1,59.0006,2.36328,0.000518251,0.00184151,-0.000335671,0.00192179,0.000437972,-1.33604,0.00116302,0.0414512,1889,1023,59.0007,-2.36328
672,1,59.0804,2.33862,0.000250426,0.00166411,7.55612e-05,0.00166814,0.000246399,1.51755,0.00103974,0.0395828,1896,1023,59.0804,-2.3386
679,1,58.9622,2.474,8.55351e-05,0.00146623,0.000612262,0.00169862,-0.000146855,1.20803,0.0011844,0.0363377,1903,1023,58.9622,-2.47399
686,1,58.9174,2.52405,-0.000211138,0.0010614,0.00113149,0.00172325,-0.000872988,1.04153,0.0015255,0.0374048,1910,1023,58.9174,-2.52405
693,1,58.98,2.5614,-0.000504524,0.000603336,0.0016036,0.00174599,-0.00164717,0.951696,0.00195932,0.0368012,1917,1023,58.98,-2.56138
700,1,59.0682,2.60413,-0.000779137,0.000228237,0.00193143,0.00172058,-0.00227148,0.91295,0.00231212,0.0304007,1924,1023,59.0683,-2.6041
707,1,59.0538,2.58466,-0.00140899,0.000359793,0.00204718,0.00170544,-0.00275464,0.989293,0.00259867,0.0230808,1931,1023,59.0539,-2.58464
714,1,59.0364,2.55847,-0.00231284,0.000920402,0.00199408,0.00187085,-0.00326328,1.12602,0.00300031,0.0214468,1938,1023,59.0364,-2.55848
721,1,59.0687,2.56488,0,0,0,0,0,0,0,-1,1945,1023,59.0688,-2.56485
728,1,52.4639,5.59277,0,0,0,0,0,0,0,-1,1952,1023,52.4639,-5.59276
735,1,53.3617,6.10699,0,0,0,0,0,0,0,-1,1959,1023,53.3617,-6.10698
742,1,52.4393,5.81525,0,0,0,0,0,0,0,-1,1966,1023,52.4393,-5.81527
749,1,59.1912,6.35663,0,0,0,0,0,0,0,-1,1973,1023,59.1911,-6.35664
756,1,59.1414,6.39813,-0.00145419,0.00641969,-0.00261064,0.00720662,-0.00224112,-1.27803,0.00570025,0.0375868,1980,1023,59.1413,-6.39811
763,1,58.9382,6.37836,0.00421247,0.00781379,-0.00629649,0.012562,-0.000535777,-0.92467,0.00855887,0.0180545,1987,1023,58.9383,-6.37837
770,1,58.8914,6.32318,0.0133754,0.00822402,-0.0109231,0.0220224,-0.000422916,-0.669611,0.0148246,0.0195554,1994,1023,58.8915,-6.32318
777,1,58.6248,6.20929,0.0287893,0.00792553,-0.0176546,0.0388637,-0.00214887,-0.518552,0.0266543,0.0272416,2001,1023,58.6247,-6.20931
784,1,58.394,6.07001,0,0,0,0,0,0,0,-1,2008,1023,58.3941,-6.06999
791,1,57.2935,5.30225,0,0,0,0,0,0,0,-1,2015,1023,57.2934,-5.30223
798,1,55.2976,9.01141,0,0,0,0,0,0,0,-1,2022,1023,55.2975,-9.01142
805,1,56.241,7.38562,0.128398,0.00371826,-0.0606276,0.153018,-0.0209014,-0.385737,0.109645,0.049387,2029,1023,56.241,-7.38563
812,1,57.239,5.68378,0.164262,0.00481615,-0.0770532,0.195412,-0.0263345,-0.384186,0.139882,0.047598,2036,1023,57.239,-5.68378
-700,-6,0,0,0,0,0,0,0,0,0,-1,524,1030,0,0
-693,-6,-46.8833,2.72583,0.117839,0.0310316,0.0251915,0.12462,0.0242507,0.262942,0.076292,0.0377928,531,1030,-46.8833,-2.72582
-686,-6,-46.1675,3.72876,0.099162,0.0288044,0.022453,0.105717,0.0222497,0.284037,0.0643563,0.0414902,538,1030,-46.1675,-3.72878
-679,-6,-45.2608,4.80798,0.0807552,0.026494,0.0197282,0.0871697,0.0200796,0.314361,0.0527106,0.045546,545,1030,-45.2608,-4.80797
-672,-6,-44.3956,2.79578,0,0,0,0,0,0,0,-1,552,1030,-44.3956,-2.79579
-665,-6,-45.0058,3.12109,0.0492326,0.0219193,0.0143733,0.0554026,0.0157493,0.405481,0.0329642,0.0490465,559,1030,-45.0058,-3.12105
-658,-6,-45.0095,3.41357,0.0364524,0.0196089,0.0117842,0.0425149,0.0135464,0.475149,0.0250785,0.0418389,566,1030,-45.0095,-3.41354
-651,-6,-45.1812,3.25525,0.0256753,0.0171738,0.0092915,0.0316423,0.0112069,0.570866,0.0185258,0.0441589,573,1030,-45.1812,-3.2552
-644,-6,-45.0543,4.13171,0,0,0,0,0,0,0,-1,580,1030,-45.0543,-4.13173
-637,-6,-45.1934,3.8064,0.00786996,0.0120072,0.00405381,0.0144897,0.00538747,1.02132,0.00845677,0.0443373,587,1030,-45.1934,-3.80635
-630,-6,-45.3356,3.73376,0.00163751,0.00844773,0.0023728,0.00919292,0.000892323,1.2665,0.00585388,0.0250536,594,1030,-45.3357,-3.73373
-623,-6,-45.3077,3.82886,-0.00200793,0.00653537,-2.13645e-05,0.00653542,-0.00200798,-1.5683,0.00515824,0.0190602,601,1030,-45.3077,-3.82887
-616,-6,-45.3734,3.84802,-0.00272172,0.00394809,-0.00157137,0.00429975,-0.00307339,-1.35063,0.00427647,0.0216828,608,1030,-45.3734,-3.84808
-609,-6,-45.3586,3.98218,-0.00231463,0.00226631,-0.00265036,0.00347879,-0.00352711,-1.14174,0.00404489,0.0212165,615,1030,-45.3586,-3.98219
-602,-6,-45.2601,4.09497,-0.00167374,0.000987046,-0.00311385,0.00304281,-0.0037295,-0.987286,0.00391669,0.0146334,622,1030,-45.2601,-4.09492
-595,-6,-45.2629,4.17236,0,0,0,0,0,0,0,-1,629,1030,-45.263,-4.17231
-588,-6,-44.9025,2.28906,0,0,0,0,0,0,0,-1,636,1030,-44.9024,-2.28906
-581,-6,-44.7428,0.847534,0.000492564,-0.00195509,-0.00323249,0.00272514,-0.00418767,-0.604435,0.00402078,0.0262365,643,1030,-44.7428,-0.847553
-574,-6,-44.734,0.773438,0.000870993,-0.00213175,-0.00301682,0.00273939,-0.00400015,-0.554509,0.0039137,0.0335836,650,1030,-44.734,-0.773402
-567,-6,-44.6816,0.487305,0.00105645,-0.00178305,-0.00252584,0.00253421,-0.00326081,-0.529358,0.00335451,0.0413063,657,1030,-44.6815,-0.487344
-560,-6,-44.5801,0.360107,0.00118326,-0.00100704,-0.00178765,0.00218455,-0.00200833,-0.510576,0.00242147,0.0418232,664,1030,-44.5802,-0.360119
-553,-6,-44.519,0.643433,0.00120272,-8.4829e-06,-0.000862082,0.00165065,-0.000456418,-0.479202,0.00127999,0.039468,671,1030,-44.519,-0.643422
-546,-6,-44.7446,0.999146,0.00124894,0.0008027,0.000208735,0.00133136,0.000720283,0.376049,0.000769521,0.0407234,678,1030,-44.7446,-0.999114
-539,-6,-44.8742,1.04041,0.00131748,0.000978675,0.000954985,0.00211797,0.000178185,0.697616,0.00135649,0.042934,685,1030,-44.8742,-1.04036
-532,-6,-44.7048,0.824951,0.00192944,0.000687289,0.00109606,0.00256816,4.85682e-05,0.527633,0.00169615,0.0411555,692,1030,-44.7047,-0.825007
-525,-6,0,0,0,0,0,0,0,0,0,-1,699,1030,0,0
-518,-6,0,0,0,0,0,0,0,0,0,-1,706,1030,0,0
-511,-6,0,0,0,0,0,0,0,0,0,-1,713,1030,0,0
-504,-6,0,0,0,0,0,0,0,0,0,-1,720,1030,0,0
-497,-6,0,0,0,0,0,0,0,0,0,-1,727,1030,0,0
-490,-6,0,0,0,0,0,0,0,0,0,-1,734,1030,0,0
-483,-6,0,0,0,0,0,0,0,0,0,-1,741,1030,0,0
-476,-6,0,0,0,0,0,0,0,0,0,-1,748,1030,0,0
-469,-6,0,0,0,0,0,0,0,0,0,-1,755,1030,0,0
-462,-6,0,0,0,0,0,0,0,0,0,-1,762,1030,0,0
-455,-6,0,0,0,0,0,0,0,0,0,-1,769,1030,0,0
-448,-6,0,0,0,0,0,0,0,0,0,-1,776,1030,0,0
-441,-6,0,0,0,0,0,0,0,0,0,-1,783,1030,0,0
-434,-6,0,0,0,0,0,0,0,0,0,-1,790,1030,0,0
-427,-6,0,0,0,0,0,0,0,0,0,-1,797,1030,0,0
-420,-6,0,0,0,0,0,0,0,0,0,-1,804,1030,0,0
-413,-6,0,0,0,0,0,0,0,0,0,-1,811,1030,0,0
-406,-6,0,0,0,0,0,0,0,0,0,-1,818,1030,0,0
-399,-6,0,0,0,0,0,0,0,0,0,-1,825,1030,0,0
-392,-6,0,0,0,0,0,0,0,0,0,-1,832,1030,0,0
-385,-6,0,0,0,0,0,0,0,0,0,-1,839,1030,0,0
-378,-6,0,0,0,0,0,0,0,0,0,-1,846,1030,0,0
-371,-6,0,0,0,0,0,0,0,0,0,-1,853,1030,0,0
-364,-6,0,0,0,0,0,0,0,0,0,-1,860,1030,0,0
-357,-6,0,0,0,0,0,0,0,0,0,-1,867,1030,0,0
-350,-6,0,0,0,0,0,0,0,0,0,-1,874,1030,0,0
-343,-6,0,0,0,0,0,0,0,0,0,-1,881,1030,0,0
-336,-6,0,0,0,0,0,0,0,0,0,-1,888,1030,0,0
-329,-6,0,0,0,0,0,0,0,0,0,-1,895,1030,0,0
-322,-6,0,0,0,0,0,0,0,0,0,-1,902,1030,0,0
-315,-6,0,0,0,0,0,0,0,0,0,-1,909,1030,0,0
-308,-6,0,0,0,0,0,0,0,0,0,-1,916,1030,0,0
-301,-6,0,0,0,0,0,0,0,0,0,-1,923,1030,0,0
-294,-6,0,0,0,0,0,0,0,0,0,-1,930,1030,0,0
-287,-6,0,0,0,0,0,0,0,0,0,-1,937,1030,0,0
-280,-6,0,0,0,0,0,0,0,0,0,-1,944,1030,0,0
-273,-6,0,0,0,0,0,0,0,0,0,-1,951,1030,0,0
-266,-6,0,0,0,0,0,0,0,0,0,-1,958,1030,0,0
-259,-6,0,0,0,0,0,0,0,0,0,-1,965,1030,0,0
-252,-6,0,0,0,0,0,0,0,0,0,-1,972,1030,0,0
-245,-6,0,0,0,0,0,0,0,0,0,-1,979,1030,0,0
-238,-6,0,0,0,0,0,0,0,0,0,-1,986,1030,0,0
-231,-6,0,0,0,0,0,0,0,0,0,-1,993,1030,0,0
-224,-6,0,0,0,0,0,0,0,0,0,-1,1000,1030,0,0
-217,-6,0,0,0,0,0,0,0,0,0,-1,1007,1030,0,0
-210,-6,0,0,0,0,0,0,0,0,0,-1,1014,1030,0,0
-203,-6,0,0,0,0,0,0,0,0,0,-1,1021,1030,0,0
-196,-6,0,0,0,0,0,0,0,0,0,-1,1028,1030,0,0
-189,-6,0,0,0,0,0,0,0,0,0,-1,1035,1030,0,0
-182,-6,0,0,0,0,0,0,0,0,0,-1,1042,1030,0,0
-175,-6,0,0,0,0,0,0,0,0,0,-1,1049,1030,0,0
-168,-6,0,0,0,0,0,0,0,0,0,-1,1056,1030,0,0
-161,-6,0,0,0,0,0,0,0,0,0,-1,1063,1030,0,0
-154,-6,0,0,0,0,0,0,0,0,0,-1,1070,1030,0,0
-147,-6,0,0,0,0,0,0,0,0,0,-1,1077,1030,0,0
-140,-6,0,0,0,0,0,0,0,0,0,-1,1084,1030,0,0
-133,-6,0,0,0,0,0,0,0,0,0,-1,1091,1030,0,0
-126,-6,0,0,0,0,0,0,0,0,0,-1,1098,1030,0,0
-119,-6,0,0,0,0,0,0,0,0,0,-1,1105,1030,0,0
-112,-6,0,0,0,0,0,0,0,0,0,-1,1112,1030,0,0
-105,-6,0,0,0,0,0,0,0,0,0,-1,1119,1030,0,0
-98,-6,0,0,0,0,0,0,0,0,0,-1,1126,1030,0,0
-91,-6,0,0,0,0,0,0,0,0,0,-1,1133,1030,0,0
-84,-6,0,0,0,0,0,0,0,0,0,-1,1140,1030,0,0
-77,-6,0,0,0,0,0,0,0,0,0,-1,1147,1030,0,0
-70,-6,0,0,0,0,0,0,0,0,0,-1,1154,1030,0,0
-63,-6,0,0,0,0,0,0,0,0,0,-1,1161,1030,0,0
-56,-6,0,0,0,0,0,0,0,0,0,-1,1168,1030,0,0
-49,-6,0,0,0,0,0,0,0,0,0,-1,1175,1030,0,0
-42,-6,0,0,0,0,0,0,0,0,0,-1,1182,1030,0,0
-35,-6,0,0,0,0,0,0,0,0,0,-1,1189,1030,0,0
-28,-6,0,0,0,0,0,0,0,0,0,-1,1196,1030,0,0
-21,-6,0,0,0,0,0,0,0,0,0,-1,1203,1030,0,0
-14,-6,0,0,0,0,0,0,0,0,0,-1,1210,1030,0,0
-7,-6,0,0,0,0,0,0,0,0,0,-1,1217,1030,0,0
0,-6,0,0,0,0,0,0,0,0,0,-1,1224,1030,0,0
7,-6,0,0,0,0,0,0,0,0,0,-1,1231,1030,0,0
14,-6,0,0,0,0,0,0,0,0,0,-1,1238,1030,0,0
21,-6,0,0,0,0,0,0,0,0,0,-1,1245,1030,0,0
28,-6,0,0,0,0,0,0,0,0,0,-1,1252,1030,0,0
35,-6,0,0,0,0,0,0,0,0,0,-1,1259,1030,0,0
42,-6,0,0,0,0,0,0,0,0,0,-1,1266,1030,0,0
49,-6,0,0,0,0,0,0,0,0,0,-1,1273,1030,0,0
56,-6,0,0,0,0,0,0,0,0,0,-1,1280,1030,0,0
63,-6,0,0,0,0,0,0,0,0,0,-1,1287,1030,0,0
70,-6,0,0,0,0,0,0,0,0,0,-1,1294,1030,0,0
77,-6,0,0,0,0,0,0,0,0,0,-1,1301,1030,0,0
84,-6,0,0,0,0,0,0,0,0,0,-1,1308,1030,0,0
91,-6,0,0,0,0,0,0,0,0,0,-1,1315,1030,0,0
98,-6,0,0,0,0,0,0,0,0,0,-1,1322,1030,0,0
105,-6,0,0,0,0,0,0,0,0,0,-1,1329,1030,0,0
112,-6,0,0,0,0,0,0,0,0,0,-1,1336,1030,0,0
119,-6,0,0,0,0,0,0,0,0,0,-1,1343,1030,0,0
126,-6,0,0,0,0,0,0,0,0,0,-1,1350,1030,0,0
133,-6,0,0,0,0,0,0,0,0,0,-1,1357,1030,0,0
140,-6,0,0,0,0,0,0,0,0,0,-1,1364,1030,0,0
147,-6,0,0,0,0,0,0,0,0,0,-1,1371,1030,0,0
154,-6,0,0,0,0,0,0,0,0,0,-1,1378,1030,0,0
161,-6,0,0,0,0,0,0,0,0,0,-1,1385,1030,0,0
168,-6,0,0,0,0,0,0,0,0,0,-1,1392,1030,0,0
175,-6,0,0,0,0,0,0,0,0,0,-1,1399,1030,0,0
182,-6,0,0,0,0,0,0,0,0,0,-1,1406,1030,0,0
189,-6,0,0,0,0,0,0,0,0,0,-1,1413,1030,0,0
196,-6,0,0,0,0,0,0,0,0,0,-1,1420,1030,0,0
203,-6,0,0,0,0,0,0,0,0,0,-1,1427,1030,0,0
210,-6,0,0,0,0,0,0,0,0,0,-1,1434,1030,0,0
217,-6,0,0,0,0,0,0,0,0,0,-1,1441,1030,0,0
224,-6,0,0,0,0,0,0,0,0,0,-1,1448,1030,0,0
231,-6,0,0,0,0,0,0,0,0,0,-1,1455,1030,0,0
238,-6,0,0,0,0,0,0,0,0,0,-1,1462,1030,0,0
245,-6,0,0,0,0,0,0,0,0,0,-1,1469,1030,0,0
252,-6,0,0,0,0,0,0,0,0,0,-1,1476,1030,0,0
259,-6,0,0,0,0,0,0,0,0,0,-1,1483,1030,0,0
266,-6,0,0,0,0,0,0,0,0,0,-1,1490,1030,0,0
273,-6,0,0,0,0,0,0,0,0,0,-1,1497,1030,0,0
280,-6,0,0,0,0,0,0,0,0,0,-1,1504,1030,0,0
287,-6,0,0,0,0,0,0,0,0,0,-1,1511,1030,0,0
294,-6,0,0,0,0,0,0,0,0,0,-1,1518,1030,0,0
301,-6,0,0,0,0,0,0,0,0,0,-1,1525,1030,0,0
308,-6,0,0,0,0,0,0,0,0,0,-1,1532,1030,0,0
315,-6,0,0,0,0,0,0,0,0,0,-1,1539,1030,0,0
322,-6,0,0,0,0,0,0,0,0,0,-1,1546,1030,0,0
329,-6,0,0,0,0,0,0,0,0,0,-1,1553,1030,0,0
336,-6,0,0,0,0,0,0,0,0,0,-1,1560,1030,0,0
343,-6,0,0,0,0,0,0,0,0,0,-1,1567,1030,0,0
350,-6,0,0,0,0,0,0,0,0,0,-1,1574,1030,0,0
357,-6,0,0,0,0,0,0,0,0,0,-1,1581,1030,0,0
364,-6,0,0,0,0,0,0,0,0,0,-1,1588,1030,0,0
371,-6,0,0,0,0,0,0,0,0,0,-1,1595,1030,0,0
378,-6,0,0,0,0,0,0,0,0,0,-1,1602,1030,0,0
385,-6,0,0,0,0,0,0,0,0,0,-1,1609,1030,0,0
392,-6,0,0,0,0,0,0,0,0,0,-1,1616,1030,0,0
399,-6,0,0,0,0,0,0,0,0,0,-1,1623,1030,0,0
406,-6,0,0,0,0,0,0,0,0,0,-1,1630,1030,0,0
413,-6,0,0,0,0,0,0,0,0,0,-1,1637,1030,0,0
420,-6,0,0,0,0,0,0,0,0,0,-1,1644,1030,0,0
427,-6,0,0,0,0,0,0,0,0,0,-1,1651,1030,0,0
434,-6,0,0,0,0,0,0,0,0,0,-1,1658,1030,0,0
441,-6,0,0,0,0,0,0,0,0,0,-1,1665,1030,0,0
448,-6,0,0,0,0,0,0,0,0,0,-1,1672,1030,0,0
455,-6,0,0,0,0,0,0,0,0,0,-1,1679,1030,0,0
462,-6,0,0,0,0,0,0,0,0,0,-1,1686,1030,0,0
469,-6,0,0,0,0,0,0,0,0,0,-1,1693,1030,0,0
476,-6,0,0,0,0,0,0,0,0,0,-1,1700,1030,0,0
483,-6,0,0,0,0,0,0,0,0,0,-1,1707,1030,0,0
490,-6,0,0,0,0,0,0,0,0,0,-1,1714,1030,0,0
497,-6,0,0,0,0,0,0,0,0,0,-1,1721,1030,0,0
504,-6,0,0,0,0,0,0,0,0,0,-1,1728,1030,0,0
511,-6,0,0,0,0,0,0,0,0,0,-1,1735,1030,0,0
518,-6,0,0,0,0,0,0,0,0,0,-1,1742,1030,0,0
525,-6,0,0,0,0,0,0,0,0,0,-1,1749,1030,0,0
532,-6,0,0,0,0,0,0,0,0,0,-1,1756,1030,0,0
539,-6,0,0,0,0,0,0,0,0,0,-1,1763,1030,0,0
546,-6,0,0,0,0,0,0,0,0,0,-1,1770,1030,0,0
553,-6,0,0,0,0,0,0,0,0,0,-1,1777,1030,0,0
560,-6,0,0,0,0,0,0,0,0,0,-1,1784,1030,0,0
567,-6,0,0,0,0,0,0,0,0,0,-1,1791,1030,0,0
574,-6,0,0,0,0,0,0,0,0,0,-1,1798,1030,0,0
581,-6,0,0,0,0,0,0,0,0,0,-1,1805,1030,0,0
588,-6,0,0,0,0,0,0,0,0,0,-1,1812,1030,0,0
595,-6,0,0,0,0,0,0,0,0,0,-1,1819,1030,0,0
602,-6,0,0,0,0,0,0,0,0,0,-1,1826,1030,0,0
609,-6,0,0,0,0,0,0,0,0,0,-1,1833,1030,0,0
616,-6,0,0,0,0,0,0,0,0,0,-1,1840,1030,0,0
623,-6,0,0,0,0,0,0,0,0,0,-1,1847,1030,0,0
630,-6,0,0,0,0,0,0,0,0,0,-1,1854,1030,0,0
637,-6,0,0,0,0,0,0,0,0,0,-1,1861,1030,0,0
644,-6,0,0,0,0,0,0,0,0,0,-1,1868,1030,0,0
651,-6,59.0159,2.79126,0.00019086,0.00245242,-0.000473563,0.00254758,9.57013e-05,-1.3725,0.0016674,0.0357107,1875,1030,59.0159,-2.79122
658,-6,58.9629,2.75757,2.35328e-05,0.00199781,-0.000575126,0.00215313,-0.000131788,-1.30703,0.0014813,0.0397295,1882,1030,58.9628,-2.75753
665,-6,59.064,2.63367,-5.77222e-05,0.00160407,-0.000441158,0.00171392,-0.000167575,-1.32675,0.00120237,0.0444254,1889,1030,59.064,-2.6337
672,-6,59.2147,2.59265,-0.000109122,0.00137473,-4.92197e-05,0.00137636,-0.000110753,-1.53767,0.00095663,0.0404737,1896,1030,59.2148,-2.59263
679,-6,59.1849,2.75513,-0.000115945,0.00115011,0.000461092,0.00130024,-0.000266071,1.25603,0.000967786,0.0386491,1903,1030,59.185,-2.75512
686,-6,58.8942,2.56726,-0.000360949,0.000736738,0.000959978,0.00129369,-0.000917903,1.04508,0.00128299,0.0371938,1910,1030,58.8941,-2.56724
693,-6,58.9152,2.67053,-0.00063294,0.000291766,0.00142525,0.00132778,-0.00166895,0.942244,0.0017339,0.0370438,1917,1030,58.9152,-2.67051
700,-6,59.0525,2.67078,-0.000886489,-6.89148e-05,0.00178019,0.00134882,-0.00230422,0.898257,0.00213299,0.0318341,1924,1030,59.0525,-2.67081
707,-6,59.0376,2.57947,-0.00150462,6.06595e-05,0.00194951,0.00137877,-0.00282272,0.976277,0.00247302,0.0247274,1931,1030,59.0376,-2.57947
714,-6,59.0144,2.52966,-0.00239699,0.000611839,0.00196931,0.00158562,-0.00337077,1.11158,0.00292278,0.0268201,1938,1030,59.0144,-2.52962
721,-6,59.0447,2.51416,0,0,0,0,0,0,0,-1,1945,1030,59.0446,-2.51419
728,-6,53.1713,6.25494,0,0,0,0,0,0,0,-1,1952,1030,53.1713,-6.25495
735,-6,58.9896,6.52057,0,0,0,0,0,0,0,-1,1959,1030,58.9897,-6.52055
742,-6,59.0581,6.67426,0,0,0,0,0,0,0,-1,1966,1030,59.0581,-6.67428
749,-6,59.068,6.29706,0,0,0,0,0,0,0,-1,1973,1030,59.068,-6.29706
756,-6,59.0687,6.33643,-0.00182352,0.00645236,-0.00175182,0.0068079,-0.00217907,-1.37056,0.00541318,0.0306396,1980,1030,59.0688,-6.33645
763,-6,58.8907,6.19641,0.00364855,0.0083176,-0.00509045,0.0115833,0.000382837,-1.00039,0.00759781,0.0210126,1987,1030,58.8907,-6.19644
770,-6,58.7922,6.12488,0.0124075,0.00937682,-0.00928202,0.0202971,0.00148726,-0.704484,0.0130639,0.0181138,1994,1030,58.7922,-6.12486
777,-6,58.675,6.06567,0.0274552,0.0101894,-0.0155159,0.0365782,0.00106642,-0.53153,0.0240379,0.0207698,2001,1030,58.6752,-6.06566
784,-6,58.6128,5.70178,0.0458084,0.0107152,-0.0230657,0.057243,-0.000719391,-0.460234,0.038404,0.0471256,2008,1030,58.6127,-5.70183
791,-6,59.0815,5.22913,0,0,0,0,0,0,0,-1,2015,1030,59.0815,-5.22911
798,-6,58.9238,5.37146,0,0,0,0,0,0,0,-1,2022,1030,58.9238,-5.37147
805,-6,59.2678,5.56201,0,0,0,0,0,0,0,-1,2029,1030,59.2678,-5.56196
812,-6,57.4702,5.51147,0,0,0,0,0,0,0,-1,2036,1030,57.4701,-5.51148
-700,-13,0,0,0,0,0,0,0,0,0,-1,524,1037,0,0
-693,-13,-46.6818,3.21826,0.111695,0.0430018,0.0208477,0.117527,0.0371699,0.272768,0.0693645,0.0439578,531,1037,-46.6818,-3.2183
-686,-13,-46.0092,4.17383,0.0945446,0.0398964,0.0187297,0.100348,0.0340934,0.300452,0.0589193,0.0430607,538,1037,-46.0092,-4.17379
-679,-13,-45.3843,5.29041,0.0775157,0.0361061,0.0166579,0.0833848,0.030237,0.338753,0.0487442,0.0482234,545,1037,-45.3843,-5.29038
-672,-13,-44.7125,6.42554,0,0,0,0,0,0,0,-1,552,1037,-44.7125,-6.42553
-665,-13,-44.9426,3.4458,0.0478896,0.0282051,0.0124576,0.0539238,0.0221709,0.451073,0.0312964,0.0480406,559,1037,-44.9426,-3.44585
-658,-13,-44.6473,3.80872,0.0357381,0.0243712,0.0103086,0.0418262,0.0182831,0.533467,0.0242119,0.0488124,566,1037,-44.6473,-3.8087
-651,-13,-45.1049,2.89551,0.0254334,0.0206098,0.00816226,0.0315327,0.0145105,0.641746,0.0182247,0.0426688,573,1037,-45.1048,-2.89545
-644,-13,-44.8723,3.39075,0.0166261,0.0173595,0.00554823,0.0225531,0.0114325,0.818394,0.0130215,0.0351304,580,1037,-44.8722,-3.39069
-637,-13,-44.9862,3.53271,0.00820029,0.013174,0.00348325,0.014967,0.00640724,1.09541,0.00867095,0.0281889,587,1037,-44.9862,-3.53268
-630,-13,-45.1414,3.54858,0.0020975,0.00884662,0.00208403,0.00943828,0.00150585,1.29418,0.00585514,0.0173365,594,1037,-45.1413,-3.54856
-623,-13,-45.1713,3.72278,-0.00137838,0.00636798,-0.000294783,0.00637918,-0.00138959,-1.53282,0.00478374,0.0146821,601,1037,-45.1713,-3.72275
-616,-13,-45.1614,3.90137,-0.00211186,0.0037015,-0.00179388,0.00421048,-0.00262085,-1.29433,0.00397951,0.0135382,608,1037,-45.1614,-3.90142
-609,-13,-45.1236,4.05042,-0.00181901,0.0019163,-0.00291762,0.00351284,-0.00341555,-1.0701,0.00400024,0.0181023,615,1037,-45.1236,-4.05046
-602,-13,-45.1111,4.16467,-0.00128461,0.000536005,-0.00348379,0.00322646,-0.00397506,-0.91319,0.00416528,0.0140684,622,1037,-45.1111,-4.16462
-595,-13,-45.1414,4.26416,0,0,0,0,0,0,0,-1,629,1037,-45.1413,-4.26412
-588,-13,-44.6805,1.88623,0,0,0,0,0,0,0,-1,636,1037,-44.6805,-1.88628
-581,-13,-44.6968,0.709106,0.000555554,-0.00232599,-0.00347001,0.00287202,-0.00464246,-0.588625,0.00437844,0.0226668,643,1037,-44.6968,-0.7091
-574,-13,-44.7188,0.612061,0.000937496,-0.002488,-0.00320732,0.00286074,-0.00441124,-0.540156,0.00423017,0.0320624,650,1037,-44.7188,-0.612058
-567,-13,-44.7288,0.489136,0.00112242,-0.00213192,-0.00266519,0.0026179,-0.0036274,-0.511336,0.00362139,0.03957,657,1037,-44.7288,-0.489113
-560,-13,-44.7012,0.352173,0.001247,-0.00134403,-0.00183421,0.00219707,-0.0022941,-0.477925,0.00259318,0.0451247,664,1037,-44.7012,-0.35215
-553,-13,-44.6891,0.597534,0.00130194,-0.000328748,-0.0007393,0.00158721,-0.000614017,-0.368261,0.00131163,0.0445889,671,1037,-44.6892,-0.597585
-546,-13,-44.8792,0.980591,0.00142522,0.000524456,0.000614023,0.00173633,0.000213348,0.468971,0.0010934,0.0400404,678,1037,-44.8792,-0.980585
-539,-13,-44.8226,0.811768,0.00156261,0.0007507,0.00173022,0.00293386,-0.000620553,0.67017,0.00219223,0.0406661,685,1037,-44.8226,-0.811747
-532,-13,-44.6928,0.739868,0.00209461,0.000572088,0.00249005,0.00393717,-0.00127047,0.637049,0.00313528,0.0406758,692,1037,-44.6928,-0.739835
-525,-13,0,0,0,0,0,0,0,0,0,-1,699,1037,0,0
-518,-13,0,0,0,0,0,0,0,0,0,-1,706,1037,0,0
-511,-13,0,0,0,0,0,0,0,0,0,-1,713,1037,0,0
-504,-13,0,0,0,0,0,0,0,0,0,-1,720,1037,0,0
-497,-13,0,0,0,0,0,0,0,0,0,-1,727,1037,0,0
-490,-13,0,0,0,0,0,0,0,0,0,-1,734,1037,0,0
-483,-13,0,0,0,0,0,0,0,0,0,-1,741,1037,0,0
-476,-13,0,0,0,0,0,0,0,0,0,-1,748,1037,0,0
-469,-13,0,0,0,0,0,0,0,0,0,-1,755,1037,0,0
-462,-13,0,0,0,0,0,0,0,0,0,-1,762,1037,0,0
-455,-13,0,0,0,0,0,0,0,0,0,-1,769,1037,0,0
-448,-13,0,0,0,0,0,0,0,0,0,-1,776,1037,0,0
-441,-13,0,0,0,0,0,0,0,0,0,-1,783,1037,0,0
-434,-13,0,0,0,0,0,0,0,0,0,-1,790,1037,0,0
-427,-13,0,0,0,0,0,0,0,0,0,-1,797,1037,0,0
-420,-13,0,0,0,0,0,0,0,0,0,-1,804,1037,0,0
-413,-13,0,0,0,0,0,0,0,0,0,-1,811,1037,0,0
-406,-13,0,0,0,0,0,0,0,0,0,-1,818,1037,0,0
-399,-13,0,0,0,0,0,0,0,0,0,-1,825,1037,0,0
-392,-13,0,0,0,0,0,0,0,0,0,-1,832,1037,0,0
-385,-13,0,0,0,0,0,0,0,0,0,-1,839,1037,0,0
-378,-13,0,0,0,0,0,0,0,0,0,-1,846,1037,0,0
-371,-13,0,0,0,0,0,0,0,0,0,-1,853,1037,0,0
-364,-13,0,0,0,0,0,0,0,0,0,-1,860,1037,0,0
-357,-13,0,0,0,0,0,0,0,0,0,-1,867,1037,0,0
-350,-13,0,0,0,0,0,0,0,0,0,-1,874,1037,0,0
-343,-13,0,0,0,0,0,0,0,0,0,-1,881,1037,0,0
-336,-13,0,0,0,0,0,0,0,0,0,-1,888,1037,0,0
-329,-13,0,0,0,0,0,0,0,0,0,-1,895,1037,0,0
-322,-13,0,0,0,0,0,0,0,0,0,-1,902,1037,0,0
-315,-13,0,0,0,0,0,0,0,0,0,-1,909,1037,0,0
-308,-13,0,0,0,0,0,0,0,0,0,-1,916,1037,0,0
-301,-13,0,0,0,0,0,0,0,0,0,-1,923,1037,0,0
-294,-13,0,0,0,0,0,0,0,0,0,-1,930,1037,0,0
-287,-13,0,0,0,0,0,0,0,0,0,-1,937,1037,0,0
-280,-13,0,0,0,0,0,0,0,0,0,-1,944,1037,0,0
-273,-13,0,0,0,0,0,0,0,0,0,-1,951,1037,0,0
-266,-13,0,0,0,0,0,0,0,0,0,-1,958,1037,0,0
-259,-13,0,0,0,0,0,0,0,0,0,-1,965,1037,0,0
-252,-13,0,0,0,0,0,0,0,0,0,-1,972,1037,0,0
-245,-13,0,0,0,0,0,0,0,0,0,-1,979,1037,0,0
-238,-13,0,0,0,0,0,0,0,0,0,-1,986,1037,0,0
-231,-13,0,0,0,0,0,0,0,0,0,-1,993,1037,0,0
-224,-13,0,0,0,0,0,0,0,0,0,-1,1000,1037,0,0
-217,-13,0,0,0,0,0,0,0,0,0,-1,1007,1037,0,0
-210,-13,0,0,0,0,0,0,0,0,0,-1,1014,1037,0,0
-203,-13,0,0,0,0,0,0,0,0,0,-1,1021,1037,0,0
-196,-13,0,0,0,0,0,0,0,0,0,-1,1028,1037,0,0
-189,-13,0,0,0,0,0,0,0,0,0,-1,1035,1037,0,0
-182,-13,0,0,0,0,0,0,0,0,0,-1,1042,1037,0,0
-175,-13,0,0,0,0,0,0,0,0,0,-1,1049,1037,0,0
-168,-13,0,0,0,0,0,0,0,0,0,-1,1056,1037,0,0
-161,-13,0,0,0,0,0,0,0,0,0,-1,1063,1037,0,0
-154,-13,0,0,0,0,0,0,0,0,0,-1,1070,1037,0,0
-147,-13,0,0,0,0,0,0,0,0,0,-1,1077,1037,0,0
-140,-13,0,0,0,0,0,0,0,0,0,-1,1084,1037,0,0
-133,-13,0,0,0,0,0,0,0,0,0,-1,1091,1037,0,0
-126,-13,0,0,0,0,0,0,0,0,0,-1,1098,1037,0,0
-119,-13,0,0,0,0,0,0,0,0,0,-1,1105,1037,0,0
-112,-13,0,0,0,0,0,0,0,0,0,-1,1112,1037,0,0
-105,-13,0,0,0,0,0,0,0,0,0,-1,1119,1037,0,0
-98,-13,0,0,0,0,0,0,0,0,0,-1,1126,1037,0,0
-91,-13,0,0,0,0,0,0,0,0,0,-1,1133,1037,0,0
-84,-13,0,0,0,0,0,0,0,0,0,-1,1140,1037,0,0
-77,-13,0,0,0,0,0,0,0,0,0,-1,1147,1037,0,0
-70,-13,0,0,0,0,0,0,0,0,0,-1,1154,1037,0,0
-63,-13,0,0,0,0,0,0,0,0,0,-1,1161,1037,0,0
-56,-13,0,0,0,0,0,0,0,0,0,-1,1168,1037,0,0
-49,-13,0,0,0,0,0,0,0,0,0,-1,1175,1037,0,0
-42,-13,0,0,0,0,0,0,0,0,0,-1,1182,1037,0,0
-35,-13,0,0,0,0,0,0,0,0,0,-1,1189,1037,0,0
-28,-13,0,0,0,0,0,0,0,0,0,-1,1196,1037,0,0
-21,-13,0,0,0,0,0,0,0,0,0,-1,1203,1037,0,0
-14,-13,0,0,0,0,0,0,0,0,0,-1,1210,1037,0,0
-7,-13,0,0,0,0,0,0,0,0,0,-1,1217,1037,0,0
0,-13,0,0,0,0,0,0,0,0,0,-1,1224,1037,0,0
7,-13,0,0,0,0,0,0,0,0,0,-1,1231,1037,0,0
14,-13,0,0,0,0,0,0,0,0,0,-1,1238,1037,0,0
21,-13,0,0,0,0,0,0,0,0,0,-1,1245,1037,0,0
28,-13,0,0,0,0,0,0,0,0,0,-1,1252,1037,0,0
35,-13,0,0,0,0,0,0,0,0,0,-1,1259,1037,0,0
42,-13,0,0,0,0,0,0,0,0,0,-1,1266,1037,0,0
49,-13,0,0,0,0,0,0,0,0,0,-1,1273,1037,0,0
56,-13,0,0,0,0,0,0,0,0,0,-1,1280,1037,0,0
63,-13,0,0,0,0,0,0,0,0,0,-1,1287,1037,0,0
70,-13,0,0,0,0,0,0,0,0,0,-1,1294,1037,0,0
77,-13,0,0,0,0,0,0,0,0,0,-1,1301,1037,0,0
84,-13,0,0,0,0,0,0,0,0,0,-1,1308,1037,0,0
91,-13,0,0,0,0,0,0,0,0,0,-1,1315,1037,0,0
98,-13,0,0,0,0,0,0,0,0,0,-1,1322,1037,0,0
105,-13,0,0,0,0,0,0,0,0,0,-1,1329,1037,0,0
112,-13,0,0,0,0,0,0,0,0,0,-1,1336,1037,0,0
119,-13,0,0,0,0,0,0,0,0,0,-1,1343,1037,0,0
126,-13,0,0,0,0,0,0,0,0,0,-1,1350,1037,0,0
133,-13,0,0,0,0,0,0,0,0,0,-1,1357,1037,0,0
140,-13,0,0,0,0,0,0,0,0,0,-1,1364,1037,0,0
147,-13,0,0,0,0,0,0,0,0,0,-1,1371,1037,0,0
154,-13,0,0,0,0,0,0,0,0,0,-1,1378,1037,0,0
161,-13,0,0,0,0,0,0,0,0,0,-1,1385,1037,0,0
168,-13,0,0,0,0,0,0,0,0,0,-1,1392,1037,0,0
175,-13,0,0,0,0,0,0,0,0,0,-1,1399,1037,0,0
182,-13,0,0,0,0,0,0,0,0,0,-1,1406,1037,0,0
189,-13,0,0,0,0,0,0,0,0,0,-1,1413,1037,0,0
196,-13,0,0,0,0,0,0,0,0,0,-1,1420,1037,0,0
203,-13,0,0,0,0,0,0,0,0,0,-1,1427,1037,0,0
210,-13,0,0,0,0,0,0,0,0,0,-1,1434,1037,0,0
217,-13,0,0,0,0,0,0,0,0,0,-1,1441,1037,0,0
224,-13,0,0,0,0,0,0,0,0,0,-1,1448,1037,0,0
231,-13,0,0,0,0,0,0,0,0,0,-1,1455,1037,0,0
238,-13,0,0,0,0,0,0,0,0,0,-1,1462,1037,0,0
245,-13,0,0,0,0,0,0,0,0,0,-1,1469,1037,0,0
252,-13,0,0,0,0,0,0,0,0,0,-1,1476,1037,0,0
259,-13,0,0,0,0,0,0,0,0,0,-1,1483,1037,0,0
266,-13,0,0,0,0,0,0,0,0,0,-1,1490,1037,0,0
273,-13,0,0,0,0,0,0,0,0,0,-1,1497,1037,0,0
280,-13,0,0,0,0,0,0,0,0,0,-1,1504,1037,0,0
287,-13,0,0,0,0,0,0,0,0,0,-1,1511,1037,0,0
294,-13,0,0,0,0,0,0,0,0,0,-1,1518,1037,0,0
301,-13,0,0,0,0,0,0,0,0,0,-1,1525,1037,0,0
308,-13,0,0,0,0,0,0,0,0,0,-1,1532,1037,0,0
315,-13,0,0,0,0,0,0,0,0,0,-1,1539,1037,0,0
322,-13,0,0,0,0,0,0,0,0,0,-1,1546,1037,0,0
329,-13,0,0,0,0,0,0,0,0,0,-1,1553,1037,0,0
336,-13,0,0,0,0,0,0,0,0,0,-1,1560,1037,0,0
343,-13,0,0,0,0,0,0,0,0,0,-1,1567,1037,0,0
350,-13,0,0,0,0,0,0,0,0,0,-1,1574,1037,0,0
357,-13,0,0,0,0,0,0,0,0,0,-1,1581,1037,0,0
364,-13,0,0,0,0,0,0,0,0,0,-1,1588,1037,0,0
371,-13,0,0,0,0,0,0,0,0,0,-1,1595,1037,0,0
378,-13,0,0,0,0,0,0,0,0,0,-1,1602,1037,0,0
385,-13,0,0,0,0,0,0,0,0,0,-1,1609,1037,0,0
392,-13,0,0,0,0,0,0,0,0,0,-1,1616,1037,0,0
399,-13,0,0,0,0,0,0,0,0,0,-1,1623,1037,0,0
406,-13,0,0,0,0,0,0,0,0,0,-1,1630,1037,0,0
413,-13,0,0,0,0,0,0,0,0,0,-1,1637,1037,0,0
420,-13,0,0,0,0,0,0,0,0,0,-1,1644,1037,0,0
427,-13,0,0,0,0,0,0,0,0,0,-1,1651,1037,0,0
434,-13,0,0,0,0,0,0,0,0,0,-1,1658,1037,0,0
441,-13,0,0,0,0,0,0,0,0,0,-1,1665,1037,0,0
448,-13,0,0,0,0,0,0,0,0,0,-1,1672,1037,0,0
455,-13,0,0,0,0,0,0,0,0,0,-1,1679,1037,0,0
462,-13,0,0,0,0,0,0,0,0,0,-1,1686,1037,0,0
469,-13,0,0,0,0,0,0,0,0,0,-1,1693,1037,0,0
476,-13,0,0,0,0,0,0,0,0,0,-1,1700,1037,0,0
483,-13,0,0,0,0,0,0,0,0,0,-1,1707,1037,0,0
490,-13,0,0,0,0,0,0,0,0,0,-1,1714,1037,0,0
497,-13,0,0,0,0,0,0,0,0,0,-1,1721,1037,0,0
504,-13,0,0,0,0,0,0,0,0,0,-1,1728,1037,0,0
511,-13,0,0,0,0,0,0,0,0,0,-1,1735,1037,0,0
518,-13,0,0,0,0,0,0,0,0,0,-1,1742,1037,0,0
525,-13,0,0,0,0,0,0,0,0,0,-1,1749,1037,0,0
532,-13,0,0,0,0,0,0,0,0,0,-1,1756,1037,0,0
539,-13,0,0,0,0,0,0,0,0,0,-1,1763,1037,0,0
546,-13,0,0,0,0,0,0,0,0,0,-1,1770,1037,0,0
553,-13,0,0,0,0,0,0,0,0,0,-1,1777,1037,0,0
560,-13,0,0,0,0,0,0,0,0,0,-1,1784,1037,0,0
567,-13,0,0,0,0,0,0,0,0,0,-1,1791,1037,0,0
574,-13,0,0,0,0,0,0,0,0,0,-1,1798,1037,0,0
581,-13,0,0,0,0,0,0,0,0,0,-1,1805,1037,0,0
588,-13,0,0,0,0,0,0,0,0,0,-1,1812,1037,0,0
595,-13,0,0,0,0,0,0,0,0,0,-1,1819,1037,0,0
602,-13,0,0,0,0,0,0,0,0,0,-1,1826,1037,0,0
609,-13,0,0,0,0,0,0,0,0,0,-1,1833,1037,0,0
616,-13,0,0,0,0,0,0,0,0,0,-1,1840,1037,0,0
623,-13,0,0,0,0,0,0,0,0,0,-1,1847,1037,0,0
630,-13,0,0,0,0,0,0,0,0,0,-1,1854,1037,0,0
637,-13,0,0,0,0,0,0,0,0,0,-1,1861,1037,0,0
644,-13,0,0,0,0,0,0,0,0,0,-1,1868,1037,0,0
651,-13,59.022,2.89307,-0.0010899,0.0021698,-0.000411167,0.00222086,-0.00114096,-1.44724,0.00197404,0.039501,1875,1037,59.022,-2.89309
658,-13,58.9069,2.67261,-0.000824867,0.00177589,-0.000500109,0.00186874,-0.00091772,-1.38722,0.0016397,0.0446495,1882,1037,58.9069,-2.67258
665,-13,59.0032,2.61707,-0.000612135,0.00142206,-0.000388117,0.00149359,-0.00068367,-1.38853,0.00128571,0.0445404,1889,1037,59.0031,-2.61707
672,-13,59.2205,2.70068,-0.000450087,0.00121562,-2.50529e-05,0.001216,-0.000450464,-1.55576,0.000995395,0.0361772,1896,1037,59.2205,-2.70069
679,-13,59.1461,2.73376,-0.000299673,0.00102528,0.000446238,0.00116156,-0.000435948,1.27441,0.000953506,0.0364266,1903,1037,59.1462,-2.73381
686,-13,58.9677,2.73328,-0.000490414,0.000645476,0.000909713,0.00114998,-0.000994915,1.06445,0.00123943,0.0408898,1910,1037,58.9677,-2.73326
693,-13,58.974,2.71228,-0.000746535,0.00022377,0.00135089,0.00117399,-0.00169675,0.957793,0.00166656,0.0416068,1917,1037,58.974,-2.71232
700,-13,59.0226,2.59717,-0.000993766,-0.000122546,0.00171628,0.00121254,-0.00232885,0.909679,0.00207821,0.0369448,1924,1037,59.0226,-2.59722
707,-13,59.0437,2.6123,-0.00159628,-1.73417e-05,0.00192487,0.00127367,-0.00288729,0.980007,0.00246181,0.0291611,1931,1037,59.0437,-2.61229
714,-13,59.0051,2.75989,-0.00247138,0.000489668,0.00200043,0.00149785,-0.00347956,1.10397,0.00294865,0.0271952,1938,1037,59.0051,-2.7599
721,-13,58.8762,2.94165,0,0,0,0,0,0,0,-1,1945,1037,58.8763,-2.9416
728,-13,58.9418,6.61682,0,0,0,0,0,0,0,-1,1952,1037,58.9417,-6.61681
735,-13,58.8623,6.56836,-0.00593917,0.00365818,0.00172236,0.00395792,-0.00623891,1.39849,0.00593604,0.037047,1959,1037,58.8623,-6.56838
742,-13,58.8342,6.47668,-0.00657033,0.00477627,0.00143897,0.00495591,-0.00674998,1.4466,0.0067848,0.0236002,1966,1037,58.8343,-6.47669
749,-13,58.9126,6.34851,-0.00547134,0.0055154,0.000653631,0.00555415,-0.00551009,1.51158,0.00638796,0.0305238,1973,1037,58.9126,-6.34846
756,-13,58.902,6.2561,-0.00222267,0.00648326,-0.00100763,0.00659836,-0.00233777,-1.45706,0.00535118,0.0183855,1980,1037,58.902,-6.25605
763,-13,58.8386,6.11389,0.00296609,0.0087612,-0.00406668,0.010857,0.000870278,-1.09493,0.00696606,0.0272739,1987,1037,58.8386,-6.11384
770,-13,58.7285,6.0365,0.0111168,0.0104354,-0.00789948,0.0186829,0.00286929,-0.763849,0.0116176,0.0226645,1994,1037,58.7286,-6.03644
777,-13,58.5691,5.91028,0.0253042,0.0123324,-0.0137251,0.0339988,0.00363785,-0.564672,0.0215558,0.0168009,2001,1037,58.5692,-5.91023
784,-13,58.5723,5.70386,0.0426849,0.0141766,-0.0208714,0.0537051,0.00315636,-0.485803,0.034799,0.0363256,2008,1037,58.5722,-5.70384
791,-13,58.8491,5.30127,0.0638225,0.0161767,-0.0296978,0.0780718,0.00192742,-0.447365,0.0514175,0.0472919,2015,1037,58.8492,-5.30123
798,-13,59.1033,5.01843,0,0,0,0,0,0,0,-1,2022,1037,59.1032,-5.0184
805,-13,59.6587,5.04724,0,0,0,0,0,0,0,-1,2029,1037,59.6588,-5.04718
812,-13,60.1279,4.94751,0,0,0,0,0,0,0,-1,2036,1037,60.1279,-4.94756
-700,-20,-47.0658,2.70789,0,0,0,0,0,0,0,-1,524,1044,-47.0658,-2.70786
-693,-20,-46.4486,3.61938,0.105193,0.0585439,0.015837,0.110062,0.0536755,0.298239,0.0635507,0.0465611,531,1044,-46.4487,-3.61937
-686,-20,-45.5605,4.32092,0.08991,0.0533079,0.0147792,0.0951324,0.0480855,0.339667,0.0549258,0.045155,538,1044,-45.5605,-4.32089
-679,-20,-45.5375,5.75,0,0,0,0,0,0,0,-1,545,1044,-45.5375,-5.74999
-672,-20,-45.314,3.1283,0,0,0,0,0,0,0,-1,552,1044,-45.314,-3.12834
-665,-20,-44.778,3.96155,0,0,0,0,0,0,0,-1,559,1044,-44.778,-3.96149
-658,-20,-44.4999,4.09363,0,0,0,0,0,0,0,-1,566,1044,-44.4999,-4.09364
-651,-20,-44.7225,2.93604,0.0253937,0.0243201,0.00728499,0.0321616,0.0175521,0.748624,0.0185944,0.0417004,573,1044,-44.7225,-2.93598
-644,-20,-44.7128,3.04688,0.0169766,0.0199507,0.00485972,0.0235458,0.0133815,0.93387,0.0136364,0.0286439,580,1044,-44.7129,-3.04681
-637,-20,-44.8008,3.18689,0.00864671,0.0144308,0.00316619,0.0158269,0.00725055,1.15549,0.00914836,0.0202458,587,1044,-44.8009,-3.18692
-630,-20,-44.9092,3.47156,0.00265793,0.00933579,0.00200668,0.0098924,0.00210133,1.30022,0.00601805,0.0164638,594,1044,-44.9092,-3.47155
-623,-20,-44.96,3.71802,-0.000693654,0.00631414,-0.000353923,0.00633197,-0.000711484,-1.52046,0.00447736,0.0144631,601,1044,-44.96,-3.71803
-616,-20,-44.9627,3.89917,-0.00147001,0.00358335,-0.0017478,0.00412896,-0.00201561,-1.26822,0.00361683,0.0142077,608,1044,-44.9627,-3.8992
-609,-20,-44.997,4.04932,-0.00131019,0.00168451,-0.00287676,0.00343028,-0.00305595,-1.02535,0.0037469,0.0159383,615,1044,-44.997,-4.04934
-602,-20,-44.9741,4.1958,-0.000965594,0.000199622,-0.00359253,0.00325648,-0.00402245,-0.865784,0.00421024,0.014876,622,1044,-44.9741,-4.19578
-595,-20,-44.9481,4.31323,-0.000815025,-0.00110889,-0.00365372,0.00269472,-0.00461863,-0.765302,0.00427079,0.0387967,629,1044,-44.9481,-4.31324
-588,-20,-44.7723,4.16785,0,0,0,0,0,0,0,-1,636,1044,-44.7724,-4.16786
-581,-20,-44.6763,0.644897,0.000557256,-0.00260889,-0.00352602,0.00283928,-0.00489091,-0.5744,0.00451512,0.0299557,643,1044,-44.6762,-0.644904
-574,-20,-44.7456,0.688721,0.000964849,-0.00278775,-0.00327566,0.00286352,-0.00468643,-0.525308,0.00440111,0.0378219,650,1044,-44.7456,-0.688682
-567,-20,-44.69,1.07886,0.00119018,-0.00247817,-0.00276279,0.00267221,-0.0039602,-0.492361,0.00385322,0.0443427,657,1044,-44.69,-1.0788
-560,-20,-44.6215,0.900024,0.00137463,-0.00173331,-0.00195479,0.00231786,-0.00267654,-0.449569,0.002886,0.0448699,664,1044,-44.6215,-0.899968
-553,-20,-44.691,0.713013,0.00154632,-0.000729058,-0.00084383,0.0018251,-0.00100784,-0.319086,0.00165813,0.0438043,671,1044,-44.691,-0.712972
-546,-20,-44.7352,0.763428,0.00185319,0.00019568,0.000607991,0.00205229,-3.42028e-06,0.316467,0.00136934,0.0410134,678,1044,-44.7353,-0.763415
-539,-20,-44.7939,0.715088,0.00216977,0.000574692,0.00193574,0.00346583,-0.000721371,0.589991,0.00258479,0.0423566,685,1044,-44.794,-0.715067
-532,-20,-44.7818,0.763184,0.0026746,0.00074027,0.00324944,0.00509776,-0.00168289,0.640753,0.00407694,0.0436118,692,1044,-44.7818,-0.763225
-525,-20,0,0,0,0,0,0,0,0,0,-1,699,1044,0,0
-518,-20,0,0,0,0,0,0,0,0,0,-1,706,1044,0,0
-511,-20,0,0,0,0,0,0,0,0,0,-1,713,1044,0,0
-504,-20,0,0,0,0,0,0,0,0,0,-1,720,1044,0,0
-497,-20,0,0,0,0,0,0,0,0,0,-1,727,1044,0,0
-490,-20,0,0,0,0,0,0,0,0,0,-1,734,1044,0,0
-483,-20,0,0,0,0,0,0,0,0,0,-1,741,1044,0,0
-476,-20,0,0,0,0,0,0,0,0,0,-1,748,1044,0,0
-469,-20,0,0,0,0,0,0,0,0,0,-1,755,1044,0,0
-462,-20,0,0,0,0,0,0,0,0,0,-1,762,1044,0,0
-455,-20,0,0,0,0,0,0,0,0,0,-1,769,1044,0,0
-448,-20,0,0,0,0,0,0,0,0,0,-1,776,1044,0,0
-441,-20,0,0,0,0,0,0,0,0,0,-1,783,1044,0,0
-434,-20,0,0,0,0,0,0,0,0,0,-1,790,1044,0,0
-427,-20,0,0,0,0,0,0,0,0,0,-1,797,1044,0,0
-420,-20,0,0,0,0,0,0,0,0,0,-1,804,1044,0,0
-413,-20,0,0,0,0,0,0,0,0,0,-1,811,1044,0,0
-406,-20,0,0,0,0,0,0,0,0,0,-1,818,1044,0,0
-399,-20,0,0,0,0,0,0,0,0,0,-1,825,1044,0,0
-392,-20,0,0,0,0,0,0,0,0,0,-1,832,1044,0,0
-385,-20,0,0,0,0,0,0,0,0,0,-1,839,1044,0,0
-378,-20,0,0,0,0,0,0,0,0,0,-1,846,1044,0,0
-371,-20,0,0,0,0,0,0,0,0,0,-1,853,1044,0,0
-364,-20,0,0,0,0,0,0,0,0,0,-1,860,1044,0,0
-357,-20,0,0,0,0,0,0,0,0,0,-1,867,1044,0,0
-350,-20,0,0,0,0,0,0,0,0,0,-1,874,1044,0,0
-343,-20,0,0,0,0,0,0,0,0,0,-1,881,1044,0,0
-336,-20,0,0,0,0,0,0,0,0,0,-1,888,1044,0,0
-329,-20,0,0,0,0,0,0,0,0,0,-1,895,1044,0,0
-322,-20,0,0,0,0,0,0,0,0,0,-1,902,1044,0,0
-315,-20,0,0,0,0,0,0,0,0,0,-1,909,1044,0,0
-308,-20,0,0,0,0,0,0,0,0,0,-1,916,1044,0,0
-301,-20,0,0,0,0,0,0,0,0,0,-1,923,1044,0,0
-294,-20,0,0,0,0,0,0,0,0,0,-1,930,1044,0,0
-287,-20,0,0,0,0,0,0,0,0,0,-1,937,1044,0,0
-280,-20,0,0,0,0,0,0,0,0,0,-1,944,1044,0,0
-273,-20,0,0,0,0,0,0,0,0,0,-1,951,1044,0,0
-266,-20,0,0,0,0,0,0,0,0,0,-1,958,1044,0,0
-259,-20,0,0,0,0,0,0,0,0,0,-1,965,1044,0,0
-252,-20,0,0,0,0,0,0,0,0,0,-1,972,1044,0,0
-245,-20,0,0,0,0,0,0,0,0,0,-1,979,1044,0,0
-238,-20,0,0,0,0,0,0,0,0,0,-1,986,1044,0,0
-231,-20,0,0,0,0,0,0,0,0,0,-1,993,1044,0,0
-224,-20,0,0,0,0,0,0,0,0,0,-1,1000,1044,0,0
-217,-20,0,0,0,0,0,0,0,0,0,-1,1007,1044,0,0
-210,-20,0,0,0,0,0,0,0,0,0,-1,1014,1044,0,0
-203,-20,0,0,0,0,0,0,0,0,0,-1,1021,1044,0,0
-196,-20,0,0,0,0,0,0,0,0,0,-1,1028,1044,0,0
-189,-20,0,0,0,0,0,0,0,0,0,-1,1035,1044,0,0
-182,-20,0,0,0,0,0,0,0,0,0,-1,1042,1044,0,0
-175,-20,0,0,0,0,0,0,0,0,0,-1,1049,1044,0,0
-168,-20,0,0,0,0,0,0,0,0,0,-1,1056,1044,0,0
-161,-20,0,0,0,0,0,0,0,0,0,-1,1063,1044,0,0
-154,-20,0,0,0,0,0,0,0,0,0,-1,1070,1044,0,0
-147,-20,0,0,0,0,0,0,0,0,0,-1,1077,1044,0,0
-140,-20,0,0,0,0,0,0,0,0,0,-1,1084,1044,0,0
-133,-20,0,0,0,0,0,0,0,0,0,-1,1091,1044,0,0
-126,-20,0,0,0,0,0,0,0,0,0,-1,1098,1044,0,0
-119,-20,0,0,0,0,0,0,0,0,0,-1,1105,1044,0,0
-112,-20,0,0,0,0,0,0,0,0,0,-1,1112,1044,0,0
-105,-20,0,0,0,0,0,0,0,0,0,-1,1119,1044,0,0
-98,-20,0,0,0,0,0,0,0,0,0,-1,1126,1044,0,0
-91,-20,0,0,0,0,0,0,0,0,0,-1,1133,1044,0,0
-84,-20,0,0,0,0,0,0,0,0,0,-1,1140,1044,0,0
-77,-20,0,0,0,0,0,0,0,0,0,-1,1147,1044,0,0
-70,-20,0,0,0,0,0,0,0,0,0,-1,1154,1044,0,0
-63,-20,0,0,0,0,0,0,0,0,0,-1,1161,1044,0,0
-56,-20,0,0,0,0,0,0,0,0,0,-1,1168,1044,0,0
-49,-20,0,0,0,0,0,0,0,0,0,-1,1175,1044,0,0
-42,-20,0,0,0,0,0,0,0,0,0,-1,1182,1044,0,0
-35,-20,0,0,0,0,0,0,0,0,0,-1,1189,1044,0,0
-28,-20,0,0,0,0,0,0,0,0,0,-1,1196,1044,0,0
-21,-20,0,0,0,0,0,0,0,0,0,-1,1203,1044,0,0
-14,-20,0,0,0,0,0,0,0,0,0,-1,1210,1044,0,0
-7,-20,0,0,0,0,0,0,0,0,0,-1,1217,1044,0,0
0,-20,0,0,0,0,0,0,0,0,0,-1,1224,1044,0,0
7,-20,0,0,0,0,0,0,0,0,0,-1,1231,1044,0,0
14,-20,0,0,0,0,0,0,0,0,0,-1,1238,1044,0,0
21,-20,0,0,0,0,0,0,0,0,0,-1,1245,1044,0,0
28,-20,0,0,0,0,0,0,0,0,0,-1,1252,1044,0,0
35,-20,0,0,0,0,0,0,0,0,0,-1,1259,1044,0,0
42,-20,0,0,0,0,0,0,0,0,0,-1,1266,1044,0,0
49,-20,0,0,0,0,0,0,0,0,0,-1,1273,1044,0,0
56,-20,0,0,0,0,0,0,0,0,0,-1,1280,1044,0,0
63,-20,0,0,0,0,0,0,0,0,0,-1,1287,1044,0,0
70,-20,0,0,0,0,0,0,0,0,0,-1,1294,1044,0,0
77,-20,0,0,0,0,0,0,0,0,0,-1,1301,1044,0,0
84,-20,0,0,0,0,0,0,0,0,0,-1,1308,1044,0,0
91,-20,0,0,0,0,0,0,0,0,0,-1,1315,1044,0,0
98,-20,0,0,0,0,0,0,0,0,0,-1,1322,1044,0,0
105,-20,0,0,0,0,0,0,0,0,0,-1,1329,1044,0,0
112,-20,0,0,0,0,0,0,0,0,0,-1,1336,1044,0,0
119,-20,0,0,0,0,0,0,0,0,0,-1,1343,1044,0,0
126,-20,0,0,0,0,0,0,0,0,0,-1,1350,1044,0,0
133,-20,0,0,0,0,0,0,0,0,0,-1,1357,1044,0,0
140,-20,0,0,0,0,0,0,0,0,0,-1,1364,1044,0,0
147,-20,0,0,0,0,0,0,0,0,0,-1,1371,1044,0,0
154,-20,0,0,0,0,0,0,0,0,0,-1,1378,1044,0,0
161,-20,0,0,0,0,0,0,0,0,0,-1,1385,1044,0,0
168,-20,0,0,0,0,0,0,0,0,0,-1,1392,1044,0,0
175,-20,0,0,0,0,0,0,0,0,0,-1,1399,1044,0,0
182,-20,0,0,0,0,0,0,0,0,0,-1,1406,1044,0,0
189,-20,0,0,0,0,0,0,0,0,0,-1,1413,1044,0,0
196,-20,0,0,0,0,0,0,0,0,0,-1,1420,1044,0,0
203,-20,0,0,0,0,0,0,0,0,0,-1,1427,1044,0,0
210,-20,0,0,0,0,0,0,0,0,0,-1,1434,1044,0,0
217,-20,0,0,0,0,0,0,0,0,0,-1,1441,1044,0,0
224,-20,0,0,0,0,0,0,0,0,0,-1,1448,1044,0,0
231,-20,0,0,0,0,0,0,0,0,0,-1,1455,1044,0,0
238,-20,0,0,0,0,0,0,0,0,0,-1,1462,1044,0,0
245,-20,0,0,0,0,0,0,0,0,0,-1,1469,1044,0,0
252,-20,0,0,0,0,0,0,0,0,0,-1,1476,1044,0,0
259,-20,0,0,0,0,0,0,0,0,0,-1,1483,1044,0,0
266,-20,0,0,0,0,0,0,0,0,0,-1,1490,1044,0,0
273,-20,0,0,0,0,0,0,0,0,0,-1,1497,1044,0,0
280,-20,0,0,0,0,0,0,0,0,0,-1,1504,1044,0,0
287,-20,0,0,0,0,0,0,0,0,0,-1,1511,1044,0,0
294,-20,0,0,0,0,0,0,0,0,0,-1,1518,1044,0,0
301,-20,0,0,0,0,0,0,0,0,0,-1,1525,1044,0,0
308,-20,0,0,0,0,0,0,0,0,0,-1,1532,1044,0,0
315,-20,0,0,0,0,0,0,0,0,0,-1,1539,1044,0,0
322,-20,0,0,0,0,0,0,0,0,0,-1,1546,1044,0,0
329,-20,0,0,0,0,0,0,0,0,0,-1,1553,1044,0,0
336,-20,0,0,0,0,0,0,0,0,0,-1,1560,1044,0,0
343,-20,0,0,0,0,0,0,0,0,0,-1,1567,1044,0,0
350,-20,0,0,0,0,0,0,0,0,0,-1,1574,1044,0,0
357,-20,0,0,0,0,0,0,0,0,0,-1,1581,1044,0,0
364,-20,0,0,0,0,0,0,0,0,0,-1,1588,1044,0,0
371,-20,0,0,0,0,0,0,0,0,0,-1,1595,1044,0,0
378,-20,0,0,0,0,0,0,0,0,0,-1,1602,1044,0,0
385,-20,0,0,0,0,0,0,0,0,0,-1,1609,1044,0,0
392,-20,0,0,0,0,0,0,0,0,0,-1,1616,1044,0,0
399,-20,0,0,0,0,0,0,0,0,0,-1,1623,1044,0,0
406,-20,0,0,0,0,0,0,0,0,0,-1,1630,1044,0,0
413,-20,0,0,0,0,0,0,0,0,0,-1,1637,1044,0,0
420,-20,0,0,0,0,0,0,0,0,0,-1,1644,1044,0,0
427,-20,0,0,0,0,0,0,0,0,0,-1,1651,1044,0,0
434,-20,0,0,0,0,0,0,0,0,0,-1,1658,1044,0,0
441,-20,0,0,0,0,0,0,0,0,0,-1,1665,1044,0,0
448,-20,0,0,0,0,0,0,0,0,0,-1,1672,1044,0,0
455,-20,0,0,0,0,0,0,0,0,0,-1,1679,1044,0,0
462,-20,0,0,0,0,0,0,0,0,0,-1,1686,1044,0,0
469,-20,0,0,0,0,0,0,0,0,0,-1,1693,1044,0,0
476,-20,0,0,0,0,0,0,0,0,0,-1,1700,1044,0,0
483,-20,0,0,0,0,0,0,0,0,0,-1,1707,1044,0,0
490,-20,0,0,0,0,0,0,0,0,0,-1,1714,1044,0,0
497,-20,0,0,0,0,0,0,0,0,0,-1,1721,1044,0,0
504,-20,0,0,0,0,0,0,0,0,0,-1,1728,1044,0,0
511,-20,0,0,0,0,0,0,0,0,0,-1,1735,1044,0,0
518,-20,0,0,0,0,0,0,0,0,0,-1,1742,1044,0,0
525,-20,0,0,0,0,0,0,0,0,0,-1,1749,1044,0,0
532,-20,0,0,0,0,0,0,0,0,0,-1,1756,1044,0,0
539,-20,0,0,0,0,0,0,0,0,0,-1,1763,1044,0,0
546,-20,0,0,0,0,0,0,0,0,0,-1,1770,1044,0,0
553,-20,0,0,0,0,0,0,0,0,0,-1,1777,1044,0,0
560,-20,0,0,0,0,0,0,0,0,0,-1,1784,1044,0,0
567,-20,0,0,0,0,0,0,0,0,0,-1,1791,1044,0,0
574,-20,0,0,0,0,0,0,0,0,0,-1,1798,1044,0,0
581,-20,0,0,0,0,0,0,0,0,0,-1,1805,1044,0,0
588,-20,0,0,0,0,0,0,0,0,0,-1,1812,1044,0,0
595,-20,0,0,0,0,0,0,0,0,0,-1,1819,1044,0,0
602,-20,0,0,0,0,0,0,0,0,0,-1,1826,1044,0,0
609,-20,0,0,0,0,0,0,0,0,0,-1,1833,1044,0,0
616,-20,0,0,0,0,0,0,0,0,0,-1,1840,1044,0,0
623,-20,0,0,0,0,0,0,0,0,0,-1,1847,1044,0,0
630,-20,0,0,0,0,0,0,0,0,0,-1,1854,1044,0,0
637,-20,0,0,0,0,0,0,0,0,0,-1,1861,1044,0,0
644,-20,0,0,0,0,0,0,0,0,0,-1,1868,1044,0,0
651,-20,59.1195,2.7561,-0.00223623,0.00201422,-0.000262196,0.00203033,-0.00225234,-1.50942,0.00247371,0.040506,1875,1044,59.1194,-2.75615
658,-20,58.9397,2.4386,-0.00162927,0.00175242,-0.000403083,0.0017998,-0.00167665,-1.45378,0.00200755,0.0466677,1882,1044,58.9397,-2.43859
665,-20,58.9039,2.5094,-0.00116075,0.00149567,-0.000359411,0.00154344,-0.00120852,-1.43866,0.00159276,0.043017,1889,1044,58.9039,-2.50942
672,-20,59.0959,2.65857,0,0,0,0,0,0,0,-1,1896,1044,59.0959,-2.6586
679,-20,59.1155,2.5708,-0.00047292,0.00122759,0.000313764,0.00128363,-0.000528966,1.39404,0.00107632,0.0267628,1903,1044,59.1155,-2.57083
686,-20,59.1853,2.43591,-0.000586238,0.000885535,0.000726353,0.00118363,-0.000884333,1.18136,0.0011981,0.0378641,1910,1044,59.1853,-2.43592
693,-20,59.0256,2.58643,-0.000811245,0.000474632,0.00113848,0.00113918,-0.00147579,1.04244,0.00151391,0.0428599,1917,1044,59.0257,-2.58648
700,-20,59.0389,2.58911,-0.00104096,0.000122993,0.0015043,0.00115397,-0.00207193,0.969969,0.00188744,0.0392479,1924,1044,59.0389,-2.5891
707,-20,59.0242,2.63416,-0.00161214,0.000175218,0.00174883,0.00124548,-0.0026824,1.02161,0.00231779,0.0327354,1931,1044,59.0242,-2.6341
714,-20,59.0333,2.78528,-0.00245973,0.000603961,0.00188903,0.00150419,-0.00335996,1.12608,0.00287564,0.0275235,1938,1044,59.0333,-2.78522
721,-20,58.8931,2.85718,0,0,0,0,0,0,0,-1,1945,1044,58.8931,-2.85713
728,-20,59.2383,6.70642,0,0,0,0,0,0,0,-1,1952,1044,59.2383,-6.70646
735,-20,58.908,6.60938,-0.00581788,0.00347637,0.00179819,0.00381215,-0.00615365,1.38619,0.00580645,0.034087,1959,1044,58.908,-6.60935
742,-20,58.6572,6.40271,-0.00635817,0.0045045,0.00156975,0.00472679,-0.00658046,1.43012,0.00655742,0.0287383,1966,1044,58.6572,-6.4027
749,-20,58.766,6.297,-0.00549959,0.00527768,0.000909504,0.0053539,-0.0055758,1.48719,0.0063107,0.0291863,1973,1044,58.766,-6.29694
756,-20,58.7629,6.21155,-0.0026629,0.00632982,-0.000508803,0.00635852,-0.00269159,-1.51446,0.00536615,0.0183056,1980,1044,58.763,-6.21153
763,-20,58.6688,6.09766,0.00197236,0.00889222,-0.00319961,0.0101449,0.000719687,-1.19763,0.00653659,0.0277094,1987,1044,58.6689,-6.0977
770,-20,58.5579,6.03345,0.00918175,0.011087,-0.00661321,0.0168158,0.00345289,-0.85693,0.0102552,0.0232659,1994,1044,58.5578,-6.03348
777,-20,58.4341,5.81543,0.0218972,0.013967,-0.0119044,0.0304795,0.00538467,-0.624637,0.0187838,0.0160056,2001,1044,58.4341,-5.81546
784,-20,58.4294,5.6687,0.0375614,0.0170771,-0.0184201,0.0483954,0.00624313,-0.531667,0.030397,0.0210828,2008,1044,58.4295,-5.66869
791,-20,58.6248,5.37695,0.0567269,0.0206859,-0.0265074,0.0707592,0.00665364,-0.486869,0.0451188,0.0379148,2015,1044,58.6247,-5.37692
798,-20,58.7981,5.08154,0,0,0,0,0,0,0,-1,2022,1044,58.7981,-5.08154
805,-20,60.0083,4.44678,0.107543,0.0316385,-0.0486363,0.131282,0.00789911,-0.454084,0.0850109,0.0446503,2029,1044,60.0083,-4.44683
812,-20,60.7368,4.56213,0.139046,0.0415705,-0.0634448,0.170312,0.0103044,-0.457877,0.110267,0.0457977,2036,1044,60.7368,-4.56212
-700,-27,-46.8383,2.87451,0.109066,0.0784889,0.0116008,0.112969,0.0745858,0.324553,0.0663296,0.0485989,524,1051,-46.8383,-2.87457
-693,-27,-46.3492,3.97925,0.0974229,0.0747844,0.01088,0.101804,0.0704033,0.382806,0.0601972,0.0467838,531,1051,-46.3492,-3.97921
-686,-27,-44.9795,1.58594,0.084258,0.0671069,0.0111141,0.0897203,0.0616445,0.45681,0.0529948,0.0466448,538,1051,-44.9795,-1.58592
-679,-27,-44.8055,2.24341,0.0705452,0.0585827,0.0110048,0.0770892,0.0520388,0.536473,0.0454075,0.045966,545,1051,-44.8055,-2.24342
-672,-27,-44.605,3.28809,0.0573969,0.0501061,0.0105313,0.0648959,0.0426072,0.618778,0.0380749,0.0446828,552,1051,-44.605,-3.28815
-665,-27,-44.5629,4.3313,0,0,0,0,0,0,0,-1,559,1051,-44.5629,-4.33131
-658,-27,-44.5043,5.27332,0,0,0,0,0,0,0,-1,566,1051,-44.5043,-5.27328
-651,-27,-44.4232,2.88428,0.0250842,0.0279444,0.00694063,0.0336007,0.0194279,0.887,0.0194783,0.0345111,573,1051,-44.4231,-2.88429
-644,-27,-44.5162,2.87,0.0171422,0.0224719,0.00464567,0.0251628,0.0144514,1.04579,0.0145811,0.0182558,580,1051,-44.5162,-2.86999
-637,-27,-44.5858,3.05371,0.00903868,0.01556,0.00322707,0.016887,0.00771177,1.18069,0.00976188,0.0161074,587,1051,-44.5857,-3.05376
-630,-27,-44.6908,3.4541,0.00320659,0.00981525,0.00217468,0.0104667,0.00255518,1.27976,0.00630117,0.0194978,594,1051,-44.6908,-3.45416
-623,-27,-44.7226,3.71338,4.25163e-05,0.00625018,-0.000263427,0.00626134,3.13576e-05,-1.52846,0.00416381,0.0173543,601,1051,-44.7226,-3.7134
-616,-27,-44.7102,3.91931,-0.000816102,0.00350276,-0.00163517,0.00405201,-0.00136535,-1.24674,0.0032534,0.0152825,608,1051,-44.7102,-3.91926
-609,-27,-44.7028,4.08777,-0.000821189,0.00153143,-0.00281174,0.003403,-0.00269277,-0.983513,0.00352735,0.0149527,615,1051,-44.7028,-4.08773
-602,-27,-44.6733,4.30176,-0.000636022,-4.23056e-06,-0.0037183,0.00341157,-0.00405182,-0.827775,0.00431427,0.0137472,622,1051,-44.6733,-4.30171
-595,-27,-44.717,4.51807,-0.000617874,-0.00126624,-0.00382771,0.00289935,-0.00478347,-0.743152,0.00447992,0.0178609,629,1051,-44.717,-4.51812
-588,-27,-44.9382,4.67773,0,0,0,0,0,0,0,-1,636,1051,-44.9382,-4.67774
-581,-27,-44.6428,0.812134,0.000626993,-0.00262646,-0.00365953,0.00300506,-0.00500453,-0.576255,0.00467212,0.0242431,643,1051,-44.6428,-0.812111
-574,-27,-44.7102,0.90271,0.00106578,-0.00275261,-0.00342538,0.00307809,-0.00476493,-0.531157,0.00456294,0.035096,650,1051,-44.7102,-0.902735
-567,-27,-44.5399,1.27747,0.00135028,-0.00243005,-0.0029496,0.00296339,-0.00404315,-0.500451,0.00406121,0.0449083,657,1051,-44.5399,-1.27742
-560,-27,-44.4379,1.09766,0.00160334,-0.00168754,-0.00217421,0.00268456,-0.00276876,-0.46148,0.0031486,0.0446119,664,1051,-44.4379,-1.0977
-553,-27,-44.4373,0.558228,0.00188888,-0.00068476,-0.00105679,0.0022672,-0.00106308,-0.34378,0.00196419,0.0443898,671,1051,-44.4372,-0.558257
-546,-27,-44.454,0.506958,0.0023505,0.000273592,0.000479259,0.00245576,0.000168335,0.216193,0.00158405,0.0440694,678,1051,-44.4539,-0.506926
-539,-27,-44.7041,0.870483,0.00277321,0.000702302,0.00200313,0.00399269,-0.000517174,0.546853,0.00284987,0.0433669,685,1051,-44.7041,-0.870464
-532,-27,-44.8682,1.06665,0.00314693,0.00109845,0.00376893,0.00602832,-0.00178293,0.652723,0.00472664,0.0422756,692,1051,-44.8682,-1.06668
-525,-27,0,0,0,0,0,0,0,0,0,-1,699,1051,0,0
-518,-27,0,0,0,0,0,0,0,0,0,-1,706,1051,0,0
-511,-27,0,0,0,0,0,0,0,0,0,-1,713,1051,0,0
-504,-27,0,0,0,0,0,0,0,0,0,-1,720,1051,0,0
-497,-27,0,0,0,0,0,0,0,0,0,-1,727,1051,0,0
-490,-27,0,0,0,0,0,0,0,0,0,-1,734,1051,0,0
-483,-27,0,0,0,0,0,0,0,0,0,-1,741,1051,0,0
-476,-27,0,0,0,0,0,0,0,0,0,-1,748,1051,0,0
-469,-27,0,0,0,0,0,0,0,0,0,-1,755,1051,0,0
-462,-27,0,0,0,0,0,0,0,0,0,-1,762,1051,0,0
-455,-27,0,0,0,0,0,0,0,0,0,-1,769,1051,0,0
-448,-27,0,0,0,0,0,0,0,0,0,-1,776,1051,0,0
-441,-27,0,0,0,0,0,0,0,0,0,-1,783,1051,0,0
-434,-27,0,0,0,0,0,0,0,0,0,-1,790,1051,0,0
-427,-27,0,0,0,0,0,0,0,0,0,-1,797,1051,0,0
-420,-27,0,0,0,0,0,0,0,0,0,-1,804,1051,0,0
-413,-27,0,0,0,0,0,0,0,0,0,-1,811,1051,0,0
-406,-27,0,0,0,0,0,0,0,0,0,-1,818,1051,0,0
-399,-27,0,0,0,0,0,0,0,0,0,-1,825,1051,0,0
-392,-27,0,0,0,0,0,0,0,0,0,-1,832,1051,0,0
-385,-27,0,0,0,0,0,0,0,0,0,-1,839,1051,0,0
-378,-27,0,0,0,0,0,0,0,0,0,-1,846,1051,0,0
-371,-27,0,0,0,0,0,0,0,0,0,-1,853,1051,0,0
-364,-27,0,0,0,0,0,0,0,0,0,-1,860,1051,0,0
-357,-27,0,0,0,0,0,0,0,0,0,-1,867,1051,0,0
-350,-27,0,0,0,0,0,0,0,0,0,-1,874,1051,0,0
-343,-27,0,0,0,0,0,0,0,0,0,-1,881,1051,0,0
-336,-27,0,0,0,0,0,0,0,0,0,-1,888,1051,0,0
-329,-27,0,0,0,0,0,0,0,0,0,-1,895,1051,0,0
-322,-27,0,0,0,0,0,0,0,0,0,-1,902,1051,0,0
-315,-27,0,0,0,0,0,0,0,0,0,-1,909,1051,0,0
-308,-27,0,0,0,0,0,0,0,0,0,-1,916,1051,0,0
-301,-27,0,0,0,0,0,0,0,0,0,-1,923,1051,0,0
-294,-27,0,0,0,0,0,0,0,0,0,-1,930,1051,0,0
-287,-27,0,0,0,0,0,0,0,0,0,-1,937,1051,0,0
-280,-27,0,0,0,0,0,0,0,0,0,-1,944,1051,0,0
-273,-27,0,0,0,0,0,0,0,0,0,-1,951,1051,0,0
-266,-27,0,0,0,0,0,0,0,0,0,-1,958,1051,0,0
-259,-27,0,0,0,0,0,0,0,0,0,-1,965,1051,0,0
-252,-27,0,0,0,0,0,0,0,0,0,-1,972,1051,0,0
-245,-27,0,0,0,0,0,0,0,0,0,-1,979,1051,0,0
-238,-27,0,0,0,0,0,0,0,0,0,-1,986,1051,0,0
-231,-27,0,0,0,0,0,0,0,0,0,-1,993,1051,0,0
-224,-27,0,0,0,0,0,0,0,0,0,-1,1000,1051,0,0
-217,-27,0,0,0,0,0,0,0,0,0,-1,1007,1051,0,0
-210,-27,0,0,0,0,0,0,0,0,0,-1,1014,1051,0,0
-203,-27,0,0,0,0,0,0,0,0,0,-1,1021,1051,0,0
-196,-27,0,0,0,0,0,0,0,0,0,-1,1028,1051,0,0
-189,-27,0,0,0,0,0,0,0,0,0,-1,1035,1051,0,0
-182,-27,0,0,0,0,0,0,0,0,0,-1,1042,1051,0,0
-175,-27,0,0,0,0,0,0,0,0,0,-1,1049,1051,0,0
-168,-27,0,0,0,0,0,0,0,0,0,-1,1056,1051,0,0
-161,-27,0,0,0,0,0,0,0,0,0,-1,1063,1051,0,0
-154,-27,0,0,0,0,0,0,0,0,0,-1,1070,1051,0,0
-147,-27,0,0,0,0,0,0,0,0,0,-1,1077,1051,0,0
-140,-27,0,0,0,0,0,0,0,0,0,-1,1084,1051,0,0
-133,-27,0,0,0,0,0,0,0,0,0,-1,1091,1051,0,0
-126,-27,0,0,0,0,0,0,0,0,0,-1,1098,1051,0,0
-119,-27,0,0,0,0,0,0,0,0,0,-1,1105,1051,0,0
-112,-27,0,0,0,0,0,0,0,0,0,-1,1112,1051,0,0
-105,-27,0,0,0,0,0,0,0,0,0,-1,1119,1051,0,0
-98,-27,0,0,0,0,0,0,0,0,0,-1,1126,1051,0,0
-91,-27,0,0,0,0,0,0,0,0,0,-1,1133,1051,0,0
-84,-27,0,0,0,0,0,0,0,0,0,-1,1140,1051,0,0
-77,-27,0,0,0,0,0,0,0,0,0,-1,1147,1051,0,0
-70,-27,0,0,0,0,0,0,0,0,0,-1,1154,1051,0,0
-63,-27,0,0,0,0,0,0,0,0,0,-1,1161,1051,0,0
-56,-27,0,0,0,0,0,0,0,0,0,-1,1168,1051,0,0
-49,-27,0,0,0,0,0,0,0,0,0,-1,1175,1051,0,0
-42,-27,0,0,0,0,0,0,0,0,0,-1,1182,1051,0,0
-35,-27,0,0,0,0,0,0,0,0,0,-1,1189,1051,0,0
-28,-27,0,0,0,0,0,0,0,0,0,-1,1196,1051,0,0
-21,-27,0,0,0,0,0,0,0,0,0,-1,1203,1051,0,0
-14,-27,0,0,0,0,0,0,0,0,0,-1,1210,1051,0,0
-7,-27,0,0,0,0,0,0,0,0,0,-1,1217,1051,0,0
0,-27,0,0,0,0,0,0,0,0,0,-1,1224,1051,0,0
7,-27,0,0,0,0,0,0,0,0,0,-1,1231,1051,0,0
14,-27,0,0,0,0,0,0,0,0,0,-1,1238,1051,0,0
21,-27,0,0,0,0,0,0,0,0,0,-1,1245,1051,0,0
28,-27,0,0,0,0,0,0,0,0,0,-1,1252,1051,0,0
35,-27,0,0,0,0,0,0,0,0,0,-1,1259,1051,0,0
42,-27,0,0,0,0,0,0,0,0,0,-1,1266,1051,0,0
49,-27,0,0,0,0,0,0,0,0,0,-1,1273,1051,0,0
56,-27,0,0,0,0,0,0,0,0,0,-1,1280,1051,0,0
63,-27,0,0,0,0,0,0,0,0,0,-1,1287,1051,0,0
70,-27,0,0,0,0,0,0,0,0,0,-1,1294,1051,0,0
77,-27,0,0,0,0,0,0,0,0,0,-1,1301,1051,0,0
84,-27,0,0,0,0,0,0,0,0,0,-1,1308,1051,0,0
91,-27,0,0,0,0,0,0,0,0,0,-1,1315,1051,0,0
98,-27,0,0,0,0,0,0,0,0,0,-1,1322,1051,0,0
105,-27,0,0,0,0,0,0,0,0,0,-1,1329,1051,0,0
112,-27,0,0,0,0,0,0,0,0,0,-1,1336,1051,0,0
119,-27,0,0,0,0,0,0,0,0,0,-1,1343,1051,0,0
126,-27,0,0,0,0,0,0,0,0,0,-1,1350,1051,0,0
133,-27,0,0,0,0,0,0,0,0,0,-1,1357,1051,0,0
140,-27,0,0,0,0,0,0,0,0,0,-1,1364,1051,0,0
147,-27,0,0,0,0,0,0,0,0,0,-1,1371,1051,0,0
154,-27,0,0,0,0,0,0,0,0,0,-1,1378,1051,0,0
161,-27,0,0,0,0,0,0,0,0,0,-1,1385,1051,0,0
168,-27,0,0,0,0,0,0,0,0,0,-1,1392,1051,0,0
175,-27,0,0,0,0,0,0,0,0,0,-1,1399,1051,0,0
182,-27,0,0,0,0,0,0,0,0,0,-1,1406,1051,0,0
189,-27,0,0,0,0,0,0,0,0,0,-1,1413,1051,0,0
196,-27,0,0,0,0,0,0,0,0,0,-1,1420,1051,0,0
203,-27,0,0,0,0,0,0,0,0,0,-1,1427,1051,0,0
210,-27,0,0,0,0,0,0,0,0,0,-1,1434,1051,0,0
217,-27,0,0,0,0,0,0,0,0,0,-1,1441,1051,0,0
224,-27,0,0,0,0,0,0,0,0,0,-1,1448,1051,0,0
231,-27,0,0,0,0,0,0,0,0,0,-1,1455,1051,0,0
238,-27,0,0,0,0,0,0,0,0,0,-1,1462,1051,0,0
245,-27,0,0,0,0,0,0,0,0,0,-1,1469,1051,0,0
252,-27,0,0,0,0,0,0,0,0,0,-1,1476,1051,0,0
259,-27,0,0,0,0,0,0,0,0,0,-1,1483,1051,0,0
266,-27,0,0,0,0,0,0,0,0,0,-1,1490,1051,0,0
273,-27,0,0,0,0,0,0,0,0,0,-1,1497,1051,0,0
280,-27,0,0,0,0,0,0,0,0,0,-1,1504,1051,0,0
287,-27,0,0,0,0,0,0,0,0,0,-1,1511,1051,0,0
294,-27,0,0,0,0,0,0,0,0,0,-1,1518,1051,0,0
301,-27,0,0,0,0,0,0,0,0,0,-1,1525,1051,0,0
308,-27,0,0,0,0,0,0,0,0,0,-1,1532,1051,0,0
315,-27,0,0,0,0,0,0,0,0,0,-1,1539,1051,0,0
322,-27,0,0,0,0,0,0,0,0,0,-1,1546,1051,0,0
329,-27,0,0,0,0,0,0,0,0,0,-1,1553,1051,0,0
336,-27,0,0,0,0,0,0,0,0,0,-1,1560,1051,0,0
343,-27,0,0,0,0,0,0,0,0,0,-1,1567,1051,0,0
350,-27,0,0,0,0,0,0,0,0,0,-1,1574,1051,0,0
357,-27,0,0,0,0,0,0,0,0,0,-1,1581,1051,0,0
364,-27,0,0,0,0,0,0,0,0,0,-1,1588,1051,0,0
371,-27,0,0,0,0,0,0,0,0,0,-1,1595,1051,0,0
378,-27,0,0,0,0,0,0,0,0,0,-1,1602,1051,0,0
385,-27,0,0,0,0,0,0,0,0,0,-1,1609,1051,0,0
392,-27,0,0,0,0,0,0,0,0,0,-1,1616,1051,0,0
399,-27,0,0,0,0,0,0,0,0,0,-1,1623,1051,0,0
406,-27,0,0,0,0,0,0,0,0,0,-1,1630,1051,0,0
413,-27,0,0,0,0,0,0,0,0,0,-1,1637,1051,0,0
420,-27,0,0,0,0,0,0,0,0,0,-1,1644,1051,0,0
427,-27,0,0,0,0,0,0,0,0,0,-1,1651,1051,0,0
434,-27,0,0,0,0,0,0,0,0,0,-1,1658,1051,0,0
441,-27,0,0,0,0,0,0,0,0,0,-1,1665,1051,0,0
448,-27,0,0,0,0,0,0,0,0,0,-1,1672,1051,0,0
455,-27,0,0,0,0,0,0,0,0,0,-1,1679,1051,0,0
462,-27,0,0,0,0,0,0,0,0,0,-1,1686,1051,0,0
469,-27,0,0,0,0,0,0,0,0,0,-1,1693,1051,0,0
476,-27,0,0,0,0,0,0,0,0,0,-1,1700,1051,0,0
483,-27,0,0,0,0,0,0,0,0,0,-1,1707,1051,0,0
490,-27,0,0,0,0,0,0,0,0,0,-1,1714,1051,0,0
497,-27,0,0,0,0,0,0,0,0,0,-1,1721,1051,0,0
504,-27,0,0,0,0,0,0,0,0,0,-1,1728,1051,0,0
511,-27,0,0,0,0,0,0,0,0,0,-1,1735,1051,0,0
518,-27,0,0,0,0,0,0,0,0,0,-1,1742,1051,0,0
525,-27,0,0,0,0,0,0,0,0,0,-1,1749,1051,0,0
532,-27,0,0,0,0,0,0,0,0,0,-1,1756,1051,0,0
539,-27,0,0,0,0,0,0,0,0,0,-1,1763,1051,0,0
546,-27,0,0,0,0,0,0,0,0,0,-1,1770,1051,0,0
553,-27,0,0,0,0,0,0,0,0,0,-1,1777,1051,0,0
560,-27,0,0,0,0,0,0,0,0,0,-1,1784,1051,0,0
567,-27,0,0,0,0,0,0,0,0,0,-1,1791,1051,0,0
574,-27,0,0,0,0,0,0,0,0,0,-1,1798,1051,0,0
581,-27,0,0,0,0,0,0,0,0,0,-1,1805,1051,0,0
588,-27,0,0,0,0,0,0,0,0,0,-1,1812,1051,0,0
595,-27,0,0,0,0,0,0,0,0,0,-1,1819,1051,0,0
602,-27,0,0,0,0,0,0,0,0,0,-1,1826,1051,0,0
609,-27,0,0,0,0,0,0,0,0,0,-1,1833,1051,0,0
616,-27,0,0,0,0,0,0,0,0,0,-1,1840,1051,0,0
623,-27,0,0,0,0,0,0,0,0,0,-1,1847,1051,0,0
630,-27,0,0,0,0,0,0,0,0,0,-1,1854,1051,0,0
637,-27,0,0,0,0,0,0,0,0,0,-1,1861,1051,0,0
644,-27,0,0,0,0,0,0,0,0,0,-1,1868,1051,0,0
651,-27,59.113,2.53186,-0.00295429,0.00217998,-3.54126e-05,0.00218022,-0.00295454,-1.5639,0.00297577,0.039591,1875,1051,59.113,-2.53189
658,-27,58.9744,2.61316,-0.00203792,0.00191072,-0.000248478,0.0019263,-0.0020535,-1.5082,0.00229813,0.0420878,1882,1051,58.9744,-2.61319
665,-27,58.8763,2.59229,-0.00136632,0.00166056,-0.000275224,0.00168538,-0.00139115,-1.48085,0.00177894,0.0405897,1889,1051,58.8764,-2.59228
672,-27,58.9125,2.68213,-0.000858725,0.00149444,-6.14781e-05,0.00149605,-0.00086033,-1.54469,0.00137686,0.029374,1896,1051,58.9125,-2.68212
679,-27,58.9298,2.50122,-0.000441938,0.00135711,0.000253529,0.00139216,-0.000476983,1.43344,0.00112144,0.026876,1903,1051,58.9298,-2.50121
686,-27,59.0284,2.54285,-0.000496272,0.00100191,0.00063567,0.00123527,-0.000729634,1.21896,0.00114689,0.0381753,1910,1051,59.0284,-2.5429
693,-27,59.0145,2.66296,-0.000690733,0.000581652,0.00103692,0.00116199,-0.00127107,1.06056,0.0014052,0.0429527,1917,1051,59.0145,-2.66299
700,-27,58.9816,2.65479,-0.000904313,0.000226446,0.00140852,0.00117882,-0.00185669,0.976255,0.00176706,0.0397286,1924,1051,58.9815,-2.65476
707,-27,58.994,2.55957,-0.00142615,0.000220348,0.00168646,0.00127377,-0.00247957,1.01246,0.00220395,0.0252967,1931,1051,58.994,-2.55952
714,-27,59.0436,2.63635,-0.00223404,0.000565152,0.00189301,0.00151978,-0.00318867,1.10372,0.00277476,0.0212901,1938,1051,59.0436,-2.63632
721,-27,58.9666,2.8064,0,0,0,0,0,0,0,-1,1945,1051,58.9666,-2.80638
728,-27,59.2314,6.78833,0,0,0,0,0,0,0,-1,1952,1051,59.2314,-6.78835
735,-27,58.7251,6.71228,-0.00544127,0.00314413,0.00197911,0.00357839,-0.00587553,1.3548,0.00551167,0.0348829,1959,1051,58.7251,-6.71232
742,-27,58.5092,6.55823,-0.00595148,0.00408328,0.0018004,0.00439652,-0.00626473,1.39854,0.0061867,0.0204011,1966,1051,58.5092,-6.55824
749,-27,58.5858,6.33301,-0.00540559,0.00494012,0.00125162,0.00508939,-0.00555485,1.4521,0.00614741,0.01567,1973,1051,58.5859,-6.33302
756,-27,58.567,6.16565,-0.00308908,0.00612189,4.35562e-05,0.0061221,-0.00308928,1.56607,0.00541342,0.0150692,1980,1051,58.567,-6.16569
763,-27,58.4899,5.99036,0.000879193,0.00898737,-0.00233775,0.0096131,0.000253463,-1.30926,0.00632594,0.0155762,1987,1051,58.4899,-5.99041
770,-27,58.4121,5.80896,0.00703442,0.011711,-0.0054499,0.015303,0.00344235,-0.988045,0.00927012,0.0162574,1994,1051,58.4121,-5.80895
777,-27,58.3142,5.70422,0.017898,0.0154437,-0.0102984,0.0270421,0.00629963,-0.726099,0.0163382,0.020193,2001,1051,58.3143,-5.70426
784,-27,58.251,5.6322,0.0314715,0.0196141,-0.0162834,0.042872,0.00821365,-0.610811,0.0262749,0.0303891,2008,1051,58.251,-5.63216
791,-27,58.3977,5.36121,0.0483908,0.0245088,-0.0237513,0.0630338,0.00986573,-0.552475,0.0391505,0.0444725,2015,1051,58.3978,-5.36121
798,-27,58.8679,5.0155,0.0695254,0.0306217,-0.0331564,0.0885147,0.0116324,-0.520118,0.0555399,0.0472461,2022,1051,58.8679,-5.01553
805,-27,59.3723,4.47412,0.0948363,0.0386603,-0.0445653,0.119427,0.01407,-0.50421,0.0753668,0.0457774,2029,1051,59.3724,-4.47415
812,-27,61.0911,3.3468,0.12427,0.0502326,-0.0586232,0.156585,0.0179184,-0.503778,0.0989592,0.0478807,2036,1051,61.091,-3.3468
-700,-34,-46.945,3.198,0.099931,0.0962946,0.00462645,0.103084,0.0931419,0.59817,0.0656599,0.0441018,524,1058,-46.945,-3.19796
-693,-34,-46.4008,4.30017,0.0909107,0.0903821,0.00532834,0.0959813,0.0853115,0.760613,0.0607441,0.045123,531,1058,-46.4007,-4.30016
-686,-34,-45.8492,5.37073,0,0,0,0,0,0,0,-1,538,1058,-45.8493,-5.37067
-679,-34,-44.3364,1.94482,0.0681981,0.0692667,0.00795637,0.0767067,0.0607581,0.818927,0.0467376,0.042233,545,1058,-44.3364,-1.94484
-672,-34,-44.2104,3.16394,0.0563424,0.0585578,0.00844038,0.0659629,0.0489373,0.850644,0.0395413,0.0492093,552,1058,-44.2104,-3.16399
-665,-34,-44.4313,4.51697,0,0,0,0,0,0,0,-1,559,1058,-44.4314,-4.51692
-658,-34,-44.7144,1.91357,0.0348188,0.0394413,0.00767187,0.0451425,0.0291176,0.931706,0.0264259,0.0429583,566,1058,-44.7144,-1.91352
-651,-34,-44.1884,2.59009,0.0257731,0.0312781,0.00656314,0.0356425,0.0214086,0.983951,0.0207167,0.0307076,573,1058,-44.1884,-2.59011
-644,-34,-44.3104,2.73181,0.0181525,0.0248024,0.00446639,0.0270455,0.0159093,1.10536,0.0156956,0.0151332,580,1058,-44.3104,-2.73186
-637,-34,-44.3602,2.97656,0.0102526,0.01656,0.00333752,0.0179981,0.0088145,1.16394,0.010392,0.0168913,587,1058,-44.3602,-2.97661
-630,-34,-44.403,3.35303,0.00448825,0.0102588,0.00236075,0.0111016,0.00364553,1.22793,0.00653413,0.019498,594,1058,-44.4029,-3.35302
-623,-34,-44.3999,3.63464,0.00128525,0.00616473,-0.000150812,0.00616939,0.00128059,-1.53993,0.00375948,0.0147719,601,1058,-44.3999,-3.63466
-616,-34,-44.3672,3.93958,0.000213408,0.00337809,-0.00153912,0.00400317,-0.000411666,-1.18502,0.00281605,0.0212133,608,1058,-44.3672,-3.93959
-609,-34,-44.3475,4.18091,3.11884e-05,0.00132121,-0.00279879,0.00354835,-0.00219595,-0.898651,0.00334697,0.020456,615,1058,-44.3475,-4.18085
-602,-34,-44.3676,4.37354,5.39931e-05,-0.000315596,-0.00389058,0.00376416,-0.00402577,-0.761667,0.00449836,0.0153802,622,1058,-44.3676,-4.37353
-595,-34,-44.4878,4.61023,-7.40125e-05,-0.00155553,-0.00407113,0.0033232,-0.00495274,-0.695406,0.00480889,0.0175699,629,1058,-44.4878,-4.61027
-588,-34,-44.7942,4.81677,0,0,0,0,0,0,0,-1,636,1058,-44.7942,-4.81679
-581,-34,-44.6194,0.883179,0.00105739,-0.00282345,-0.00389976,0.00347281,-0.00523887,-0.554546,0.00506402,0.0254754,643,1058,-44.6194,-0.883173
-574,-34,-44.6663,0.956299,0.00151754,-0.00293588,-0.00368621,0.00359738,-0.00501572,-0.513697,0.0049952,0.0346121,650,1058,-44.6663,-0.956245
-567,-34,-44.6265,1.00122,0.00185301,-0.00263098,-0.0032411,0.00355199,-0.00432996,-0.482819,0.00455803,0.0420434,657,1058,-44.6265,-1.00123
-560,-34,-44.5273,0.870361,0.00215719,-0.00193543,-0.00250087,0.00334225,-0.00312049,-0.442516,0.00373199,0.0431489,664,1058,-44.5273,-0.870412
-553,-34,-44.4909,0.425659,0.00253953,-0.000990763,-0.00140379,0.00302968,-0.00148092,-0.335929,0.00265487,0.0474567,671,1058,-44.4909,-0.425659
-546,-34,-44.571,0.499023,0.00315009,-7.235e-05,0.000147944,0.00315687,-7.91281e-05,0.0457823,0.00213145,0.0463933,678,1058,-44.5711,-0.499022
-539,-34,-44.5891,0.894165,0.00378308,0.000325574,0.00172967,0.0044998,-0.000391147,0.392832,0.00313838,0.0411654,685,1058,-44.589,-0.894216
-532,-34,-44.598,1.125,0.00428341,0.000752418,0.00361655,0.00654239,-0.00150656,0.558328,0.00494094,0.0399665,692,1058,-44.598,-1.12499
-525,-34,0,0,0,0,0,0,0,0,0,-1,699,1058,0,0
-518,-34,0,0,0,0,0,0,0,0,0,-1,706,1058,0,0
-511,-34,0,0,0,0,0,0,0,0,0,-1,713,1058,0,0
-504,-34,0,0,0,0,0,0,0,0,0,-1,720,1058,0,0
-497,-34,0,0,0,0,0,0,0,0,0,-1,727,1058,0,0
-490,-34,0,0,0,0,0,0,0,0,0,-1,734,1058,0,0
-483,-34,0,0,0,0,0,0,0,0,0,-1,741,1058,0,0
-476,-34,0,0,0,0,0,0,0,0,0,-1,748,1058,0,0
-469,-34,0,0,0,0,0,0,0,0,0,-1,755,1058,0,0
-462,-34,0,0,0,0,0,0,0,0,0,-1,762,1058,0,0
-455,-34,0,0,0,0,0,0,0,0,0,-1,769,1058,0,0
-448,-34,0,0,0,0,0,0,0,0,0,-1,776,1058,0,0
-441,-34,0,0,0,0,0,0,0,0,0,-1,783,1058,0,0
-434,-34,0,0,0,0,0,0,0,0,0,-1,790,1058,0,0
-427,-34,0,0,0,0,0,0,0,0,0,-1,797,1058,0,0
-420,-34,0,0,0,0,0,0,0,0,0,-1,804,1058,0,0
-413,-34,0,0,0,0,0,0,0,0,0,-1,811,1058,0,0
-406,-34,0,0,0,0,0,0,0,0,0,-1,818,1058,0,0
-399,-34,0,0,0,0,0,0,0,0,0,-1,825,1058,0,0
-392,-34,0,0,0,0,0,0,0,0,0,-1,832,1058,0,0
-385,-34,0,0,0,0,0,0,0,0,0,-1,839,1058,0,0
-378,-34,0,0,0,0,0,0,0,0,0,-1,846,1058,0,0
-371,-34,0,0,0,0,0,0,0,0,0,-1,853,1058,0,0
-364,-34,0,0,0,0,0,0,0,0,0,-1,860,1058,0,0
-357,-34,0,0,0,0,0,0,0,0,0,-1,867,1058,0,0
-350,-34,0,0,0,0,0,0,0,0,0,-1,874,1058,0,0
-343,-34,0,0,0,0,0,0,0,0,0,-1,881,1058,0,0
-336,-34,0,0,0,0,0,0,0,0,0,-1,888,1058,0,0
-329,-34,0,0,0,0,0,0,0,0,0,-1,895,1058,0,0
-322,-34,0,0,0,0,0,0,0,0,0,-1,902,1058,0,0
-315,-34,0,0,0,0,0,0,0,0,0,-1,909,1058,0,0
-308,-34,0,0,0,0,0,0,0,0,0,-1,916,1058,0,0
-301,-34,0,0,0,0,0,0,0,0,0,-1,923,1058,0,0
-294,-34,0,0,0,0,0,0,0,0,0,-1,930,1058,0,0
-287,-34,0,0,0,0,0,0,0,0,0,-1,937,1058,0,0
-280,-34,0,0,0,0,0,0,0,0,0,-1,944,1058,0,0
-273,-34,0,0,0,0,0,0,0,0,0,-1,951,1058,0,0
-266,-34,0,0,0,0,0,0,0,0,0,-1,958,1058,0,0
-259,-34,0,0,0,0,0,0,0,0,0,-1,965,1058,0,0
-252,-34,0,0,0,0,0,0,0,0,0,-1,972,1058,0,0
-245,-34,0,0,0,0,0,0,0,0,0,-1,979,1058,0,0
-238,-34,0,0,0,0,0,0,0,0,0,-1,986,1058,0,0
-231,-34,0,0,0,0,0,0,0,0,0,-1,993,1058,0,0
-224,-34,0,0,0,0,0,0,0,0,0,-1,1000,1058,0,0
-217,-34,0,0,0,0,0,0,0,0,0,-1,1007,1058,0,0
-210,-34,0,0,0,0,0,0,0,0,0,-1,1014,1058,0,0
-203,-34,0,0,0,0,0,0,0,0,0,-1,1021,1058,0,0
-196,-34,0,0,0,0,0,0,0,0,0,-1,1028,1058,0,0
-189,-34,0,0,0,0,0,0,0,0,0,-1,1035,1058,0,0
-182,-34,0,0,0,0,0,0,0,0,0,-1,1042,1058,0,0
-175,-34,0,0,0,0,0,0,0,0,0,-1,1049,1058,0,0
-168,-34,0,0,0,0,0,0,0,0,0,-1,1056,1058,0,0
-161,-34,0,0,0,0,0,0,0,0,0,-1,1063,1058,0,0
-154,-34,0,0,0,0,0,0,0,0,0,-1,1070,1058,0,0
-147,-34,0,0,0,0,0,0,0,0,0,-1,1077,1058,0,0
-140,-34,0,0,0,0,0,0,0,0,0,-1,1084,1058,0,0
-133,-34,0,0,0,0,0,0,0,0,0,-1,1091,1058,0,0
-126,-34,0,0,0,0,0,0,0,0,0,-1,1098,1058,0,0
-119,-34,0,0,0,0,0,0,0,0,0,-1,1105,1058,0,0
-112,-34,0,0,0,0,0,0,0,0,0,-1,1112,1058,0,0
-105,-34,0,0,0,0,0,0,0,0,0,-1,1119,1058,0,0
-98,-34,0,0,0,0,0,0,0,0,0,-1,1126,1058,0,0
-91,-34,0,0,0,0,0,0,0,0,0,-1,1133,1058,0,0
-84,-34,0,0,0,0,0,0,0,0,0,-1,1140,1058,0,0
-77,-34,0,0,0,0,0,0,0,0,0,-1,1147,1058,0,0
-70,-34,0,0,0,0,0,0,0,0,0,-1,1154,1058,0,0
-63,-34,0,0,0,0,0,0,0,0,0,-1,1161,1058,0,0
-56,-34,0,0,0,0,0,0,0,0,0,-1,1168,1058,0,0
-49,-34,0,0,0,0,0,0,0,0,0,-1,1175,1058,0,0
-42,-34,0,0,0,0,0,0,0,0,0,-1,1182,1058,0,0
-35,-34,0,0,0,0,0,0,0,0,0,-1,1189,1058,0,0
-28,-34,0,0,0,0,0,0,0,0,0,-1,1196,1058,0,0
-21,-34,0,0,0,0,0,0,0,0,0,-1,1203,1058,0,0
-14,-34,0,0,0,0,0,0,0,0,0,-1,1210,1058,0,0
-7,-34,0,0,0,0,0,0,0,0,0,-1,1217,1058,0,0
0,-34,0,0,0,0,0,0,0,0,0,-1,1224,1058,0,0
7,-34,0,0,0,0,0,0,0,0,0,-1,1231,1058,0,0
14,-34,0,0,0,0,0,0,0,0,0,-1,1238,1058,0,0
21,-34,0,0,0,0,0,0,0,0,0,-1,1245,1058,0,0
28,-34,0,0,0,0,0,0,0,0,0,-1,1252,1058,0,0
35,-34,0,0,0,0,0,0,0,0,0,-1,1259,1058,0,0
42,-34,0,0,0,0,0,0,0,0,0,-1,1266,1058,0,0
49,-34,0,0,0,0,0,0,0,0,0,-1,1273,1058,0,0
56,-34,0,0,0,0,0,0,0,0,0,-1,1280,1058,0,0
63,-34,0,0,0,0,0,0,0,0,0,-1,1287,1058,0,0
70,-34,0,0,0,0,0,0,0,0,0,-1,1294,1058,0,0
77,-34,0,0,0,0,0,0,0,0,0,-1,1301,1058,0,0
84,-34,0,0,0,0,0,0,0,0,0,-1,1308,1058,0,0
91,-34,0,0,0,0,0,0,0,0,0,-1,1315,1058,0,0
98,-34,0,0,0,0,0,0,0,0,0,-1,1322,1058,0,0
105,-34,0,0,0,0,0,0,0,0,0,-1,1329,1058,0,0
112,-34,0,0,0,0,0,0,0,0,0,-1,1336,1058,0,0
119,-34,0,0,0,0,0,0,0,0,0,-1,1343,1058,0,0
126,-34,0,0,0,0,0,0,0,0,0,-1,1350,1058,0,0
133,-34,0,0,0,0,0,0,0,0,0,-1,1357,1058,0,0
140,-34,0,0,0,0,0,0,0,0,0,-1,1364,1058,0,0
147,-34,0,0,0,0,0,0,0,0,0,-1,1371,1058,0,0
154,-34,0,0,0,0,0,0,0,0,0,-1,1378,1058,0,0
161,-34,0,0,0,0,0,0,0,0,0,-1,1385,1058,0,0
168,-34,0,0,0,0,0,0,0,0,0,-1,1392,1058,0,0
175,-34,0,0,0,0,0,0,0,0,0,-1,1399,1058,0,0
182,-34,0,0,0,0,0,0,0,0,0,-1,1406,1058,0,0
189,-34,0,0,0,0,0,0,0,0,0,-1,1413,1058,0,0
196,-34,0,0,0,0,0,0,0,0,0,-1,1420,1058,0,0
203,-34,0,0,0,0,0,0,0,0,0,-1,1427,1058,0,0
210,-34,0,0,0,0,0,0,0,0,0,-1,1434,1058,0,0
217,-34,0,0,0,0,0,0,0,0,0,-1,1441,1058,0,0
224,-34,0,0,0,0,0,0,0,0,0,-1,1448,1058,0,0
231,-34,0,0,0,0,0,0,0,0,0,-1,1455,1058,0,0
238,-34,0,0,0,0,0,0,0,0,0,-1,1462,1058,0,0
245,-34,0,0,0,0,0,0,0,0,0,-1,1469,1058,0,0
252,-34,0,0,0,0,0,0,0,0,0,-1,1476,1058,0,0
259,-34,0,0,0,0,0,0,0,0,0,-1,1483,1058,0,0
266,-34,0,0,0,0,0,0,0,0,0,-1,1490,1058,0,0
273,-34,0,0,0,0,0,0,0,0,0,-1,1497,1058,0,0
280,-34,0,0,0,0,0,0,0,0,0,-1,1504,1058,0,0
287,-34,0,0,0,0,0,0,0,0,0,-1,1511,1058,0,0
294,-34,0,0,0,0,0,0,0,0,0,-1,1518,1058,0,0
301,-34,0,0,0,0,0,0,0,0,0,-1,1525,1058,0,0
308,-34,0,0,0,0,0,0,0,0,0,-1,1532,1058,0,0
315,-34,0,0,0,0,0,0,0,0,0,-1,1539,1058,0,0
322,-34,0,0,0,0,0,0,0,0,0,-1,1546,1058,0,0
329,-34,0,0,0,0,0,0,0,0,0,-1,1553,1058,0,0
336,-34,0,0,0,0,0,0,0,0,0,-1,1560,1058,0,0
343,-34,0,0,0,0,0,0,0,0,0,-1,1567,1058,0,0
350,-34,0,0,0,0,0,0,0,0,0,-1,1574,1058,0,0
357,-34,0,0,0,0,0,0,0,0,0,-1,1581,1058,0,0
364,-34,0,0,0,0,0,0,0,0,0,-1,1588,1058,0,0
371,-34,0,0,0,0,0,0,0,0,0,-1,1595,1058,0,0
378,-34,0,0,0,0,0,0,0,0,0,-1,1602,1058,0,0
385,-34,0,0,0,0,0,0,0,0,0,-1,1609,1058,0,0
392,-34,0,0,0,0,0,0,0,0,0,-1,1616,1058,0,0
399,-34,0,0,0,0,0,0,0,0,0,-1,1623,1058,0,0
406,-34,0,0,0,0,0,0,0,0,0,-1,1630,1058,0,0
413,-34,0,0,0,0,0,0,0,0,0,-1,1637,1058,0,0
420,-34,0,0,0,0,0,0,0,0,0,-1,1644,1058,0,0
427,-34,0,0,0,0,0,0,0,0,0,-1,1651,1058,0,0
434,-34,0,0,0,0,0,0,0,0,0,-1,1658,1058,0,0
441,-34,0,0,0,0,0,0,0,0,0,-1,1665,1058,0,0
448,-34,0,0,0,0,0,0,0,0,0,-1,1672,1058,0,0
455,-34,0,0,0,0,0,0,0,0,0,-1,1679,1058,0,0
462,-34,0,0,0,0,0,0,0,0,0,-1,1686,1058,0,0
469,-34,0,0,0,0,0,0,0,0,0,-1,1693,1058,0,0
476,-34,0,0,0,0,0,0,0,0,0,-1,1700,1058,0,0
483,-34,0,0,0,0,0,0,0,0,0,-1,1707,1058,0,0
490,-34,0,0,0,0,0,0,0,0,0,-1,1714,1058,0,0
497,-34,0,0,0,0,0,0,0,0,0,-1,1721,1058,0,0
504,-34,0,0,0,0,0,0,0,0,0,-1,1728,1058,0,0
511,-34,0,0,0,0,0,0,0,0,0,-1,1735,1058,0,0
518,-34,0,0,0,0,0,0,0,0,0,-1,1742,1058,0,0
525,-34,0,0,0,0,0,0,0,0,0,-1,1749,1058,0,0
532,-34,0,0,0,0,0,0,0,0,0,-1,1756,1058,0,0
539,-34,0,0,0,0,0,0,0,0,0,-1,1763,1058,0,0
546,-34,0,0,0,0,0,0,0,0,0,-1,1770,1058,0,0
553,-34,0,0,0,0,0,0,0,0,0,-1,1777,1058,0,0
560,-34,0,0,0,0,0,0,0,0,0,-1,1784,1058,0,0
567,-34,0,0,0,0,0,0,0,0,0,-1,1791,1058,0,0
574,-34,0,0,0,0,0,0,0,0,0,-1,1798,1058,0,0
581,-34,0,0,0,0,0,0,0,0,0,-1,1805,1058,0,0
588,-34,0,0,0,0,0,0,0,0,0,-1,1812,1058,0,0
595,-34,0,0,0,0,0,0,0,0,0,-1,1819,1058,0,0
602,-34,0,0,0,0,0,0,0,0,0,-1,1826,1058,0,0
609,-34,0,0,0,0,0,0,0,0,0,-1,1833,1058,0,0
616,-34,0,0,0,0,0,0,0,0,0,-1,1840,1058,0,0
623,-34,0,0,0,0,0,0,0,0,0,-1,1847,1058,0,0
630,-34,0,0,0,0,0,0,0,0,0,-1,1854,1058,0,0
637,-34,0,0,0,0,0,0,0,0,0,-1,1861,1058,0,0
644,-34,0,0,0,0,0,0,0,0,0,-1,1868,1058,0,0
651,-34,59.011,2.57971,-0.00361177,0.0015623,2.90784e-05,0.00156246,-0.00361194,1.56518,0.00306456,0.0399054,1875,1058,59.011,-2.57973
658,-34,58.9332,2.63086,-0.00235371,0.00141688,-0.00017117,0.00142463,-0.00236146,-1.52552,0.0022081,0.0416968,1882,1058,58.9333,-2.6308
665,-34,58.96,2.62073,-0.00148177,0.00127246,-0.000207697,0.00128804,-0.00149735,-1.49595,0.00160965,0.0414317,1889,1058,58.96,-2.62075
672,-34,58.8542,2.59314,-0.000853631,0.00117242,-1.10149e-05,0.00117248,-0.000853691,-1.56536,0.00117462,0.0380991,1896,1058,58.8543,-2.59315
679,-34,58.8903,2.55371,-0.000367749,0.00109061,0.000280811,0.00114282,-0.000419951,1.387,0.000933884,0.0361702,1903,1058,58.8902,-2.55369
686,-34,58.9537,2.58325,-0.000376878,0.00077121,0.000672662,0.00108147,-0.000687142,1.13863,0.00102954,0.0411196,1910,1058,58.9537,-2.58326
693,-34,59.0592,2.66846,-0.000534497,0.000385535,0.00109866,0.0011166,-0.00126556,0.983661,0.00137624,0.0443498,1917,1058,59.0592,-2.66845
700,-34,58.9885,2.61511,-0.000713069,8.31869e-05,0.00150061,0.00123759,-0.00186747,0.915066,0.00180496,0.0401112,1924,1058,58.9885,-2.6151
707,-34,58.9423,2.6062,-0.00117099,5.16869e-05,0.00181235,0.00135303,-0.00247233,0.948065,0.00223987,0.0241597,1931,1058,58.9422,-2.60623
714,-34,58.9836,2.67224,-0.00191541,0.000334455,0.00207122,0.00156652,-0.00314747,1.03417,0.00277217,0.0198572,1938,1058,58.9836,-2.6722
721,-34,59.028,3.1167,0,0,0,0,0,0,0,-1,1945,1058,59.0279,-3.11675
728,-34,58.5226,6.94275,0,0,0,0,0,0,0,-1,1952,1058,58.5225,-6.94273
735,-34,58.342,6.77722,-0.00491219,0.00270744,0.00232536,0.00336103,-0.00556578,1.2968,0.00520603,0.022429,1959,1058,58.342,-6.77723
742,-34,58.2632,6.55493,-0.00544032,0.00358945,0.00217506,0.00408606,-0.00593693,1.34632,0.00581957,0.0169548,1966,1058,58.2631,-6.55498
749,-34,58.3007,6.3479,-0.00522518,0.00453483,0.00165833,0.0048089,-0.00549925,1.40701,0.00595586,0.0150074,1973,1058,58.3007,-6.34791
756,-34,58.3295,6.12476,-0.0034693,0.00584393,0.000556857,0.00587711,-0.00350247,1.51129,0.00547285,0.0119551,1980,1058,58.3295,-6.12478
763,-34,58.2496,5.91797,-0.000322549,0.00893171,-0.00165213,0.00921781,-0.000608655,-1.39932,0.00635781,0.0126314,1987,1058,58.2496,-5.91792
770,-34,58.1311,5.70068,0.00460505,0.0120337,-0.00464282,0.0142651,0.00237363,-1.12277,0.00882592,0.0176738,1994,1058,58.131,-5.70066
777,-34,58.0027,5.58789,0.013335,0.0162957,-0.00924963,0.0241827,0.00544803,-0.864746,0.0146475,0.0213968,2001,1058,58.0027,-5.58787
784,-34,57.8716,5.48242,0.0244525,0.0211397,-0.0148982,0.0377861,0.00780606,-0.730036,0.023034,0.0414885,2008,1058,57.8716,-5.48241
791,-34,58.0012,5.33069,0.0386275,0.0268867,-0.0219065,0.0554366,0.0100777,-0.654487,0.0340985,0.048706,2015,1058,58.0012,-5.3307
798,-34,58.5156,5.08838,0.0568156,0.0340692,-0.0307483,0.0782266,0.0126581,-0.608261,0.0484857,0.0496136,2022,1058,58.5155,-5.08838
805,-34,59.2334,4.48486,0.0791505,0.0433596,-0.0415295,0.106476,0.016034,-0.581966,0.066289,0.0486174,2029,1058,59.2334,-4.48483
812,-34,59.6399,4.11389,0,0,0,0,0,0,0,-1,2036,1058,59.6399,-4.11394
-700,-41,-46.8958,3.47534,0.0931829,0.102682,-0.00673469,0.106173,0.0896914,-1.09251,0.065978,0.0439771,524,1065,-46.8958,-3.47533
-693,-41,-46.3709,4.57703,0.0864391,0.0940672,-0.00461596,0.096241,0.0842654,-1.13068,0.0605647,0.0436073,531,1065,-46.3709,-4.57703
-686,-41,-47.138,-0.53125,0.077208,0.0828307,-0.00132776,0.0831285,0.0769102,-1.35018,0.0534669,0.0436861,538,1065,-47.138,0.531214
-679,-41,-46.5305,0.730103,0.0665135,0.0712947,0.00139585,0.0716724,0.0661358,1.30655,0.0460472,0.0422766,545,1065,-46.5305,-0.730143
-672,-41,-43.7754,3.10071,0,0,0,0,0,0,0,-1,552,1065,-43.7753,-3.1007
-665,-41,-44.4056,0.224854,0.044831,0.0498262,0.00469386,0.0526456,0.0420117,1.0299,0.0321442,0.0392476,559,1065,-44.4056,-0.22482
-658,-41,-44.056,1.33704,0.0349454,0.0403775,0.00518444,0.0435142,0.0318086,1.02668,0.0260013,0.0384631,566,1065,-44.056,-1.33708
-651,-41,-43.7966,2.23621,0.0261439,0.0318893,0.00498789,0.0347726,0.0232606,1.04667,0.0204544,0.033092,573,1065,-43.7966,-2.23617
-644,-41,-44.0029,2.66431,0.0188199,0.0251536,0.0035298,0.026729,0.0172445,1.15103,0.0156473,0.0166867,580,1065,-44.0029,-2.66427
-637,-41,-44.0784,2.94702,0.0111586,0.0164713,0.00308697,0.0178875,0.00974239,1.14068,0.0103411,0.0181462,587,1065,-44.0784,-2.94697
-630,-41,-44.0805,3.2771,0.00545018,0.0101662,0.00244154,0.0112025,0.00441388,1.16939,0.00651601,0.0165215,594,1065,-44.0805,-3.27713
-623,-41,-44.0677,3.58606,0.00219343,0.00582278,0.00010984,0.0058261,0.00219011,1.54057,0.00339805,0.0132108,601,1065,-44.0677,-3.58603
-616,-41,-44.0789,3.91785,0.000929705,0.00315121,-0.0012254,0.00369435,0.000386563,-1.15358,0.00234469,0.0167873,608,1065,-44.0788,-3.91782
-609,-41,-44.0359,4.20068,0.000624005,0.00106308,-0.00259998,0.00345278,-0.00176569,-0.827518,0.00306492,0.0210132,615,1065,-44.036,-4.20063
-602,-41,-44.053,4.45288,0.000596376,-0.000688744,-0.00383576,0.00384302,-0.00393539,-0.70241,0.00449097,0.0131003,622,1065,-44.053,-4.45287
-595,-41,-44.2181,4.68591,0.000386814,-0.00189095,-0.00410839,0.00351125,-0.00501539,-0.650189,0.00494832,0.0236118,629,1065,-44.2181,-4.68592
-588,-41,-44.5059,2.54089,0,0,0,0,0,0,0,-1,636,1065,-44.5059,-2.54094
-581,-41,-44.7075,0.574219,0,0,0,0,0,0,0,-1,643,1065,-44.7075,-0.57423
-574,-41,-44.6617,1.00598,0.00193233,-0.00316361,-0.00377736,0.00394074,-0.00517202,-0.488683,0.00527724,0.037502,650,1065,-44.6617,-1.00594
-567,-41,-44.7471,0.927246,0.00232192,-0.00287925,-0.00336769,0.00397626,-0.00453359,-0.456614,0.00491667,0.0429624,657,1065,-44.7471,-0.927264
-560,-41,-44.6805,0.704102,0.00268922,-0.00221167,-0.00265911,0.00385479,-0.00337724,-0.413107,0.00417845,0.0441101,664,1065,-44.6805,-0.704055
-553,-41,-44.6271,0.613647,0,0,0,0,0,0,0,-1,671,1065,-44.6271,-0.613688
-546,-41,-44.5907,0.859009,0.00395943,-0.000302686,5.40656e-05,0.00396012,-0.000303372,0.0126824,0.00274679,0.043289,678,1065,-44.5907,-0.859024
-539,-41,-44.5324,1.24451,0.00486571,0.000230981,0.00181634,0.00549271,-0.00039602,0.332391,0.0038007,0.0416469,685,1065,-44.5324,-1.24448
-532,-41,-44.4636,1.34583,0.00555165,0.000849425,0.00394725,0.00779494,-0.00139386,0.516797,0.00571815,0.0411676,692,1065,-44.4635,-1.34583
-525,-41,0,0,0,0,0,0,0,0,0,-1,699,1065,0,0
-518,-41,0,0,0,0,0,0,0,0,0,-1,706,1065,0,0
-511,-41,0,0,0,0,0,0,0,0,0,-1,713,1065,0,0
-504,-41,0,0,0,0,0,0,0,0,0,-1,720,1065,0,0
-497,-41,0,0,0,0,0,0,0,0,0,-1,727,1065,0,0
-490,-41,0,0,0,0,0,0,0,0,0,-1,734,1065,0,0
-483,-41,0,0,0,0,0,0,0,0,0,-1,741,1065,0,0
-476,-41,0,0,0,0,0,0,0,0,0,-1,748,1065,0,0
-469,-41,0,0,0,0,0,0,0,0,0,-1,755,1065,0,0
-462,-41,0,0,0,0,0,0,0,0,0,-1,762,1065,0,0
-455,-41,0,0,0,0,0,0,0,0,0,-1,769,1065,0,0
-448,-41,0,0,0,0,0,0,0,0,0,-1,776,1065,0,0
-441,-41,0,0,0,0,0,0,0,0,0,-1,783,1065,0,0
-434,-41,0,0,0,0,0,0,0,0,0,-1,790,1065,0,0
-427,-41,0,0,0,0,0,0,0,0,0,-1,797,1065,0,0
-420,-41,0,0,0,0,0,0,0,0,0,-1,804,1065,0,0
-413,-41,0,0,0,0,0,0,0,0,0,-1,811,1065,0,0
-406,-41,0,0,0,0,0,0,0,0,0,-1,818,1065,0,0
-399,-41,0,0,0,0,0,0,0,0,0,-1,825,1065,0,0
-392,-41,0,0,0,0,0,0,0,0,0,-1,832,1065,0,0
-385,-41,0,0,0,0,0,0,0,0,0,-1,839,1065,0,0
-378,-41,0,0,0,0,0,0,0,0,0,-1,846,1065,0,0
-371,-41,0,0,0,0,0,0,0,0,0,-1,853,1065,0,0
-364,-41,0,0,0,0,0,0,0,0,0,-1,860,1065,0,0
-357,-41,0,0,0,0,0,0,0,0,0,-1,867,1065,0,0
-350,-41,0,0,0,0,0,0,0,0,0,-1,874,1065,0,0
-343,-41,0,0,0,0,0,0,0,0,0,-1,881,1065,0,0
-336,-41,0,0,0,0,0,0,0,0,0,-1,888,1065,0,0
-329,-41,0,0,0,0,0,0,0,0,0,-1,895,1065,0,0
-322,-41,0,0,0,0,0,0,0,0,0,-1,902,1065,0,0
-315,-41,0,0,0,0,0,0,0,0,0,-1,909,1065,0,0
-308,-41,0,0,0,0,0,0,0,0,0,-1,916,1065,0,0
-301,-41,0,0,0,0,0,0,0,0,0,-1,923,1065,0,0
-294,-41,0,0,0,0,0,0,0,0,0,-1,930,1065,0,0
-287,-41,0,0,0,0,0,0,0,0,0,-1,937,1065,0,0
-280,-41,0,0,0,0,0,0,0,0,0,-1,944,1065,0,0
-273,-41,0,0,0,0,0,0,0,0,0,-1,951,1065,0,0
-266,-41,0,0,0,0,0,0,0,0,0,-1,958,1065,0,0
-259,-41,0,0,0,0,0,0,0,0,0,-1,965,1065,0,0
-252,-41,0,0,0,0,0,0,0,0,0,-1,972,1065,0,0
-245,-41,0,0,0,0,0,0,0,0,0,-1,979,1065,0,0
-238,-41,0,0,0,0,0,0,0,0,0,-1,986,1065,0,0
-231,-41,0,0,0,0,0,0,0,0,0,-1,993,1065,0,0
-224,-41,0,0,0,0,0,0,0,0,0,-1,1000,1065,0,0
-217,-41,0,0,0,0,0,0,0,0,0,-1,1007,1065,0,0
-210,-41,0,0,0,0,0,0,0,0,0,-1,1014,1065,0,0
-203,-41,0,0,0,0,0,0,0,0,0,-1,1021,1065,0,0
-196,-41,0,0,0,0,0,0,0,0,0,-1,1028,1065,0,0
-189,-41,0,0,0,0,0,0,0,0,0,-1,1035,1065,0,0
-182,-41,0,0,0,0,0,0,0,0,0,-1,1042,1065,0,0
-175,-41,0,0,0,0,0,0,0,0,0,-1,1049,1065,0,0
-168,-41,0,0,0,0,0,0,0,0,0,-1,1056,1065,0,0
-161,-41,0,0,0,0,0,0,0,0,0,-1,1063,1065,0,0
-154,-41,0,0,0,0,0,0,0,0,0,-1,1070,1065,0,0
-147,-41,0,0,0,0,0,0,0,0,0,-1,1077,1065,0,0
-140,-41,0,0,0,0,0,0,0,0,0,-1,1084,1065,0,0
-133,-41,0,0,0,0,0,0,0,0,0,-1,1091,1065,0,0
-126,-41,0,0,0,0,0,0,0,0,0,-1,1098,1065,0,0
-119,-41,0,0,0,0,0,0,0,0,0,-1,1105,1065,0,0
-112,-41,0,0,0,0,0,0,0,0,0,-1,1112,1065,0,0
-105,-41,0,0,0,0,0,0,0,0,0,-1,1119,1065,0,0
-98,-41,0,0,0,0,0,0,0,0,0,-1,1126,1065,0,0
-91,-41,0,0,0,0,0,0,0,0,0,-1,1133,1065,0,0
-84,-41,0,0,0,0,0,0,0,0,0,-1,1140,1065,0,0
-77,-41,0,0,0,0,0,0,0,0,0,-1,1147,1065,0,0
-70,-41,0,0,0,0,0,0,0,0,0,-1,1154,1065,0,0
-63,-41,0,0,0,0,0,0,0,0,0,-1,1161,1065,0,0
-56,-41,0,0,0,0,0,0,0,0,0,-1,1168,1065,0,0
-49,-41,0,0,0,0,0,0,0,0,0,-1,1175,1065,0,0
-42,-41,0,0,0,0,0,0,0,0,0,-1,1182,1065,0,0
-35,-41,0,0,0,0,0,0,0,0,0,-1,1189,1065,0,0
-28,-41,0,0,0,0,0,0,0,0,0,-1,1196,1065,0,0
-21,-41,0,0,0,0,0,0,0,0,0,-1,1203,1065,0,0
-14,-41,0,0,0,0,0,0,0,0,0,-1,1210,1065,0,0
-7,-41,0,0,0,0,0,0,0,0,0,-1,1217,1065,0,0
0,-41,0,0,0,0,0,0,0,0,0,-1,1224,1065,0,0
7,-41,0,0,0,0,0,0,0,0,0,-1,1231,1065,0,0
14,-41,0,0,0,0,0,0,0,0,0,-1,1238,1065,0,0
21,-41,0,0,0,0,0,0,0,0,0,-1,1245,1065,0,0
28,-41,0,0,0,0,0,0,0,0,0,-1,1252,1065,0,0
35,-41,0,0,0,0,0,0,0,0,0,-1,1259,1065,0,0
42,-41,0,0,0,0,0,0,0,0,0,-1,1266,1065,0,0
49,-41,0,0,0,0,0,0,0,0,0,-1,1273,1065,0,0
56,-41,0,0,0,0,0,0,0,0,0,-1,1280,1065,0,0
63,-41,0,0,0,0,0,0,0,0,0,-1,1287,1065,0,0
70,-41,0,0,0,0,0,0,0,0,0,-1,1294,1065,0,0
77,-41,0,0,0,0,0,0,0,0,0,-1,1301,1065,0,0
84,-41,0,0,0,0,0,0,0,0,0,-1,1308,1065,0,0
91,-41,0,0,0,0,0,0,0,0,0,-1,1315,1065,0,0
98,-41,0,0,0,0,0,0,0,0,0,-1,1322,1065,0,0
105,-41,0,0,0,0,0,0,0,0,0,-1,1329,1065,0,0
112,-41,0,0,0,0,0,0,0,0,0,-1,1336,1065,0,0
119,-41,0,0,0,0,0,0,0,0,0,-1,1343,1065,0,0
126,-41,0,0,0,0,0,0,0,0,0,-1,1350,1065,0,0
133,-41,0,0,0,0,0,0,0,0,0,-1,1357,1065,0,0
140,-41,0,0,0,0,0,0,0,0,0,-1,1364,1065,0,0
147,-41,0,0,0,0,0,0,0,0,0,-1,1371,1065,0,0
154,-41,0,0,0,0,0,0,0,0,0,-1,1378,1065,0,0
161,-41,0,0,0,0,0,0,0,0,0,-1,1385,1065,0,0
168,-41,0,0,0,0,0,0,0,0,0,-1,1392,1065,0,0
175,-41,0,0,0,0,0,0,0,0,0,-1,1399,1065,0,0
182,-41,0,0,0,0,0,0,0,0,0,-1,1406,1065,0,0
189,-41,0,0,0,0,0,0,0,0,0,-1,1413,1065,0,0
196,-41,0,0,0,0,0,0,0,0,0,-1,1420,1065,0,0
203,-41,0,0,0,0,0,0,0,0,0,-1,1427,1065,0,0
210,-41,0,0,0,0,0,0,0,0,0,-1,1434,1065,0,0
217,-41,0,0,0,0,0,0,0,0,0,-1,1441,1065,0,0
224,-41,0,0,0,0,0,0,0,0,0,-1,1448,1065,0,0
231,-41,0,0,0,0,0,0,0,0,0,-1,1455,1065,0,0
238,-41,0,0,0,0,0,0,0,0,0,-1,1462,1065,0,0
245,-41,0,0,0,0,0,0,0,0,0,-1,1469,1065,0,0
252,-41,0,0,0,0,0,0,0,0,0,-1,1476,1065,0,0
259,-41,0,0,0,0,0,0,0,0,0,-1,1483,1065,0,0
266,-41,0,0,0,0,0,0,0,0,0,-1,1490,1065,0,0
273,-41,0,0,0,0,0,0,0,0,0,-1,1497,1065,0,0
280,-41,0,0,0,0,0,0,0,0,0,-1,1504,1065,0,0
287,-41,0,0,0,0,0,0,0,0,0,-1,1511,1065,0,0
294,-41,0,0,0,0,0,0,0,0,0,-1,1518,1065,0,0
301,-41,0,0,0,0,0,0,0,0,0,-1,1525,1065,0,0
308,-41,0,0,0,0,0,0,0,0,0,-1,1532,1065,0,0
315,-41,0,0,0,0,0,0,0,0,0,-1,1539,1065,0,0
322,-41,0,0,0,0,0,0,0,0,0,-1,1546,1065,0,0
329,-41,0,0,0,0,0,0,0,0,0,-1,1553,1065,0,0
336,-41,0,0,0,0,0,0,0,0,0,-1,1560,1065,0,0
343,-41,0,0,0,0,0,0,0,0,0,-1,1567,1065,0,0
350,-41,0,0,0,0,0,0,0,0,0,-1,1574,1065,0,0
357,-41,0,0,0,0,0,0,0,0,0,-1,1581,1065,0,0
364,-41,0,0,0,0,0,0,0,0,0,-1,1588,1065,0,0
371,-41,0,0,0,0,0,0,0,0,0,-1,1595,1065,0,0
378,-41,0,0,0,0,0,0,0,0,0,-1,1602,1065,0,0
385,-41,0,0,0,0,0,0,0,0,0,-1,1609,1065,0,0
392,-41,0,0,0,0,0,0,0,0,0,-1,1616,1065,0,0
399,-41,0,0,0,0,0,0,0,0,0,-1,1623,1065,0,0
406,-41,0,0,0,0,0,0,0,0,0,-1,1630,1065,0,0
413,-41,0,0,0,0,0,0,0,0,0,-1,1637,1065,0,0
420,-41,0,0,0,0,0,0,0,0,0,-1,1644,1065,0,0
427,-41,0,0,0,0,0,0,0,0,0,-1,1651,1065,0,0
434,-41,0,0,0,0,0,0,0,0,0,-1,1658,1065,0,0
441,-41,0,0,0,0,0,0,0,0,0,-1,1665,1065,0,0
448,-41,0,0,0,0,0,0,0,0,0,-1,1672,1065,0,0
455,-41,0,0,0,0,0,0,0,0,0,-1,1679,1065,0,0
462,-41,0,0,0,0,0,0,0,0,0,-1,1686,1065,0,0
469,-41,0,0,0,0,0,0,0,0,0,-1,1693,1065,0,0
476,-41,0,0,0,0,0,0,0,0,0,-1,1700,1065,0,0
483,-41,0,0,0,0,0,0,0,0,0,-1,1707,1065,0,0
490,-41,0,0,0,0,0,0,0,0,0,-1,1714,1065,0,0
497,-41,0,0,0,0,0,0,0,0,0,-1,1721,1065,0,0
504,-41,0,0,0,0,0,0,0,0,0,-1,1728,1065,0,0
511,-41,0,0,0,0,0,0,0,0,0,-1,1735,1065,0,0
518,-41,0,0,0,0,0,0,0,0,0,-1,1742,1065,0,0
525,-41,0,0,0,0,0,0,0,0,0,-1,1749,1065,0,0
532,-41,0,0,0,0,0,0,0,0,0,-1,1756,1065,0,0
539,-41,0,0,0,0,0,0,0,0,0,-1,1763,1065,0,0
546,-41,0,0,0,0,0,0,0,0,0,-1,1770,1065,0,0
553,-41,0,0,0,0,0,0,0,0,0,-1,1777,1065,0,0
560,-41,0,0,0,0,0,0,0,0,0,-1,1784,1065,0,0
567,-41,0,0,0,0,0,0,0,0,0,-1,1791,1065,0,0
574,-41,0,0,0,0,0,0,0,0,0,-1,1798,1065,0,0
581,-41,0,0,0,0,0,0,0,0,0,-1,1805,1065,0,0
588,-41,0,0,0,0,0,0,0,0,0,-1,1812,1065,0,0
595,-41,0,0,0,0,0,0,0,0,0,-1,1819,1065,0,0
602,-41,0,0,0,0,0,0,0,0,0,-1,1826,1065,0,0
609,-41,0,0,0,0,0,0,0,0,0,-1,1833,1065,0,0
616,-41,0,0,0,0,0,0,0,0,0,-1,1840,1065,0,0
623,-41,0,0,0,0,0,0,0,0,0,-1,1847,1065,0,0
630,-41,0,0,0,0,0,0,0,0,0,-1,1854,1065,0,0
637,-41,0,0,0,0,0,0,0,0,0,-1,1861,1065,0,0
644,-41,0,0,0,0,0,0,0,0,0,-1,1868,1065,0,0
651,-41,58.9497,2.63342,-0.00416644,0.000359778,-0.000277155,0.000376686,-0.00418335,-1.50987,0.00292256,0.0358542,1875,1065,58.9498,-2.63341
658,-41,58.8813,2.69153,-0.0025957,0.000404495,-0.000336836,0.000441847,-0.00263305,-1.46036,0.00191967,0.0417425,1882,1065,58.8813,-2.69159
665,-41,59.1715,2.48743,-0.00155093,0.000414148,-0.000289911,0.000456027,-0.00159281,-1.42734,0.00124211,0.0396873,1889,1065,59.1715,-2.48749
672,-41,59.2395,2.36646,-0.000824444,0.000459856,-5.33311e-05,0.000462067,-0.000826655,-1.52937,0.000753904,0.0400652,1896,1065,59.2394,-2.3664
679,-41,58.9504,2.52747,-0.00031241,0.00052316,0.000249108,0.00059179,-0.000381039,1.30196,0.00056604,0.0402769,1903,1065,58.9504,-2.52745
686,-41,59.072,2.62756,-0.000312565,0.000319876,0.000649982,0.000726478,-0.000719167,1.0118,0.000834647,0.0412907,1910,1065,59.072,-2.62751
693,-41,59.0864,2.56628,-0.000433192,3.67006e-05,0.00107558,0.000902698,-0.00129919,0.892927,0.00127811,0.0450776,1917,1065,59.0864,-2.56632
700,-41,58.9968,2.55273,-0.000573367,-0.000156241,0.00148728,0.00113703,-0.00186664,0.855059,0.00175114,0.0394319,1924,1065,58.9969,-2.55278
707,-41,58.9741,2.59192,-0.000975011,-0.000154159,0.00181543,0.00129666,-0.00242583,0.896567,0.00218189,0.0272752,1931,1065,58.9742,-2.59193
714,-41,58.9943,2.63159,-0.00165019,0.00011293,0.00210813,0.0015164,-0.00305366,0.983435,0.00268783,0.024827,1938,1065,58.9943,-2.63157
721,-41,59.0018,2.67004,0,0,0,0,0,0,0,-1,1945,1065,59.0018,-2.66999
728,-41,58.2455,6.98499,0,0,0,0,0,0,0,-1,1952,1065,58.2455,-6.98494
735,-41,58.0902,6.76416,-0.00443356,0.00236127,0.0025154,0.00319111,-0.0052634,1.25214,0.00492985,0.0205748,1959,1065,58.0902,-6.76412
742,-41,57.9941,6.5343,-0.00498957,0.0032175,0.00239442,0.00386499,-0.00563707,1.3067,0.00551772,0.0165957,1966,1065,57.9942,-6.53429
749,-41,58.0026,6.34729,-0.00504197,0.00421764,0.00191048,0.00459633,-0.00542066,1.37511,0.00578984,0.0155228,1973,1065,58.0026,-6.34735
756,-41,58.0176,6.12891,-0.0038261,0.00559858,0.000878926,0.00567985,-0.00390737,1.4786,0.00556662,0.0149834,1980,1065,58.0176,-6.12896
763,-41,57.9443,5.85864,-0.00151368,0.00876048,-0.00119812,0.00889835,-0.00165155,-1.45623,0.0065525,0.0124558,1987,1065,57.9443,-5.85859
770,-41,57.8225,5.62695,0.00219492,0.0120469,-0.00408937,0.0135232,0.0007187,-1.22437,0.00878568,0.0143516,1994,1065,57.8224,-5.62692
777,-41,57.6875,5.40552,0.00881528,0.0165484,-0.00849444,0.0220149,0.00334879,-0.998978,0.0136975,0.0175227,2001,1065,57.6874,-5.40552
784,-41,57.6201,5.13342,0.0174359,0.021729,-0.0138694,0.033617,0.00554795,-0.862174,0.02081,0.0300966,2008,1065,57.62,-5.13339
791,-41,57.5049,5.5614,0,0,0,0,0,0,0,-1,2015,1065,57.5048,-5.56139
798,-41,57.821,5.38379,0,0,0,0,0,0,0,-1,2022,1065,57.8211,-5.38385
805,-41,58.5549,4.69275,0,0,0,0,0,0,0,-1,2029,1065,58.5549,-4.69275
812,-41,57.5137,3.3208,0,0,0,0,0,0,0,-1,2036,1065,57.5137,-3.32082
-700,-48,-46.896,-2.10815,0,0,0,0,0,0,0,-1,524,1072,-46.896,2.10814
-693,-48,-46.6916,-1.4696,0.0835009,0.0903963,-0.0179421,0.105219,0.0686782,-0.88032,0.0616855,0.0458908,531,1072,-46.6916,1.46963
-686,-48,-46.3308,-0.935181,0.0756589,0.0792569,-0.012229,0.0898185,0.0650973,-0.858429,0.0535748,0.0460605,538,1072,-46.3308,0.935193
-679,-48,-45.7419,-0.203247,0.0659547,0.0682143,-0.00727003,0.0744418,0.0597272,-0.862487,0.0455227,0.0458637,545,1072,-45.7419,0.203268
-672,-48,-44.9378,0.218628,0,0,0,0,0,0,0,-1,552,1072,-44.9378,-0.218626
-665,-48,-44.1457,0.31958,0.0453739,0.0478939,-0.000190568,0.0479082,0.0453596,-1.49574,0.0311241,0.0434069,559,1072,-44.1457,-0.319555
-658,-48,-43.6099,0.793213,0.0357139,0.0388848,0.00180208,0.0396996,0.0348991,1.14616,0.0250202,0.0446318,566,1072,-43.6099,-0.793187
-651,-48,-43.4844,1.75537,0.0269952,0.0307269,0.00281317,0.0322367,0.0254854,1.07821,0.0196316,0.037552,573,1072,-43.4844,-1.75536
-644,-48,-43.587,2.61194,0.019805,0.0241696,0.00224107,0.0251153,0.0188592,1.17146,0.0150966,0.022592,580,1072,-43.587,-2.61197
-637,-48,-43.6099,2.84595,0.0122034,0.0155879,0.0027038,0.0170854,0.0107059,1.06502,0.00996911,0.0228856,587,1072,-43.61,-2.84593
-630,-48,-43.6325,3.19983,0.00638136,0.00963126,0.00253061,0.0110137,0.00499891,1.07081,0.00636778,0.0254751,594,1072,-43.6325,-3.19985
-623,-48,-43.7533,3.53992,0.00298087,0.00530473,0.000465756,0.00539461,0.00289099,1.38018,0.00311725,0.0126723,601,1072,-43.7533,-3.53988
-616,-48,-43.7632,3.87695,0.0015071,0.00291014,-0.00078237,0.00325945,0.0011578,-1.15088,0.00190796,0.0116607,608,1072,-43.7632,-3.87691
-609,-48,-43.6862,4.22412,0.00110361,0.000879383,-0.00222593,0.00322024,-0.00123725,-0.760236,0.00265707,0.0127525,615,1072,-43.6862,-4.22407
-602,-48,-43.673,4.50671,0.00102586,-0.00085446,-0.00356275,0.00377041,-0.00359901,-0.656396,0.00425512,0.013209,622,1072,-43.673,-4.50666
-595,-48,-43.7303,4.77271,0.000740275,-0.00191705,-0.00393112,0.0035612,-0.00473798,-0.622432,0.00480756,0.0329986,629,1072,-43.7303,-4.77275
-588,-48,-43.9214,5.05261,0,0,0,0,0,0,0,-1,636,1072,-43.9214,-5.05266
-581,-48,-44.5728,0.723877,0,0,0,0,0,0,0,-1,643,1072,-44.5728,-0.7239
-574,-48,-44.5322,0.992676,0.00217813,-0.0029507,-0.00373751,0.0041464,-0.00491896,-0.48472,0.00524022,0.0383656,650,1072,-44.5322,-0.992653
-567,-48,-44.7602,1.08093,0.00257089,-0.00264803,-0.00341281,0.00425753,-0.00433468,-0.459006,0.00496078,0.0404998,657,1072,-44.7602,-1.08089
-560,-48,-45.0175,1.36646,0.00293108,-0.00197421,-0.00281508,0.00421209,-0.00325522,-0.427047,0.00432304,0.0451248,664,1072,-45.0175,-1.3664
-553,-48,-44.5361,0.090332,0.00343173,-0.00103142,-0.00182664,0.00408399,-0.00168369,-0.342973,0.00342475,0.043654,671,1072,-44.5361,-0.0903737
-546,-48,-44.5463,0.625366,0.0042255,-3.3326e-05,-0.000276963,0.00424344,-5.12621e-05,-0.0646696,0.0028462,0.0423379,678,1072,-44.5463,-0.625324
-539,-48,-44.7181,0.983276,0.00528919,0.000550613,0.00150822,0.00572851,0.000111299,0.283438,0.00378245,0.04319,685,1072,-44.7181,-0.983262
-532,-48,-44.7969,1.11316,0.00604123,0.00125987,0.00369847,0.00805441,-0.000753315,0.498479,0.00563751,0.0414049,692,1072,-44.7969,-1.11315
-525,-48,0,0,0,0,0,0,0,0,0,-1,699,1072,0,0
-518,-48,0,0,0,0,0,0,0,0,0,-1,706,1072,0,0
-511,-48,0,0,0,0,0,0,0,0,0,-1,713,1072,0,0
-504,-48,0,0,0,0,0,0,0,0,0,-1,720,1072,0,0
-497,-48,0,0,0,0,0,0,0,0,0,-1,727,1072,0,0
-490,-48,0,0,0,0,0,0,0,0,0,-1,734,1072,0,0
-483,-48,0,0,0,0,0,0,0,0,0,-1,741,1072,0,0
-476,-48,0,0,0,0,0,0,0,0,0,-1,748,1072,0,0
-469,-48,0,0,0,0,0,0,0,0,0,-1,755,1072,0,0
-462,-48,0,0,0,0,0,0,0,0,0,-1,762,1072,0,0
-455,-48,0,0,0,0,0,0,0,0,0,-1,769,1072,0,0
-448,-48,0,0,0,0,0,0,0,0,0,-1,776,1072,0,0
-441,-48,0,0,0,0,0,0,0,0,0,-1,783,1072,0,0
-434,-48,0,0,0,0,0,0,0,0,0,-1,790,1072,0,0
-427,-48,0,0,0,0,0,0,0,0,0,-1,797,1072,0,0
-420,-48,0,0,0,0,0,0,0,0,0,-1,804,1072,0,0
-413,-48,0,0,0,0,0,0,0,0,0,-1,811,1072,0,0
-406,-48,0,0,0,0,0,0,0,0,0,-1,818,1072,0,0
-399,-48,0,0,0,0,0,0,0,0,0,-1,825,1072,0,0
-392,-48,0,0,0,0,0,0,0,0,0,-1,832,1072,0,0
-385,-48,0,0,0,0,0,0,0,0,0,-1,839,1072,0,0
-378,-48,0,0,0,0,0,0,0,0,0,-1,846,1072,0,0
-371,-48,0,0,0,0,0,0,0,0,0,-1,853,1072,0,0
-364,-48,0,0,0,0,0,0,0,0,0,-1,860,1072,0,0
-357,-48,0,0,0,0,0,0,0,0,0,-1,867,1072,0,0
-350,-48,0,0,0,0,0,0,0,0,0,-1,874,1072,0,0
-343,-48,0,0,0,0,0,0,0,0,0,-1,881,1072,0,0
-336,-48,0,0,0,0,0,0,0,0,0,-1,888,1072,0,0
-329,-48,0,0,0,0,0,0,0,0,0,-1,895,1072,0,0
-322,-48,0,0,0,0,0,0,0,0,0,-1,902,1072,0,0
-315,-48,0,0,0,0,0,0,0,0,0,-1,909,1072,0,0
-308,-48,0,0,0,0,0,0,0,0,0,-1,916,1072,0,0
-301,-48,0,0,0,0,0,0,0,0,0,-1,923,1072,0,0
-294,-48,0,0,0,0,0,0,0,0,0,-1,930,1072,0,0
-287,-48,0,0,0,0,0,0,0,0,0,-1,937,1072,0,0
-280,-48,0,0,0,0,0,0,0,0,0,-1,944,1072,0,0
-273,-48,0,0,0,0,0,0,0,0,0,-1,951,1072,0,0
-266,-48,0,0,0,0,0,0,0,0,0,-1,958,1072,0,0
-259,-48,0,0,0,0,0,0,0,0,0,-1,965,1072,0,0
-252,-48,0,0,0,0,0,0,0,0,0,-1,972,1072,0,0
-245,-48,0,0,0,0,0,0,0,0,0,-1,979,1072,0,0
-238,-48,0,0,0,0,0,0,0,0,0,-1,986,1072,0,0
-231,-48,0,0,0,0,0,0,0,0,0,-1,993,1072,0,0
-224,-48,0,0,0,0,0,0,0,0,0,-1,1000,1072,0,0
-217,-48,0,0,0,0,0,0,0,0,0,-1,1007,1072,0,0
-210,-48,0,0,0,0,0,0,0,0,0,-1,1014,1072,0,0
-203,-48,0,0,0,0,0,0,0,0,0,-1,1021,1072,0,0
-196,-48,0,0,0,0,0,0,0,0,0,-1,1028,1072,0,0
-189,-48,0,0,0,0,0,0,0,0,0,-1,1035,1072,0,0
-182,-48,0,0,0,0,0,0,0,0,0,-1,1042,1072,0,0
-175,-48,0,0,0,0,0,0,0,0,0,-1,1049,1072,0,0
-168,-48,0,0,0,0,0,0,0,0,0,-1,1056,1072,0,0
-161,-48,0,0,0,0,0,0,0,0,0,-1,1063,1072,0,0
-154,-48,0,0,0,0,0,0,0,0,0,-1,1070,1072,0,0
-147,-48,0,0,0,0,0,0,0,0,0,-1,1077,1072,0,0
-140,-48,0,0,0,0,0,0,0,0,0,-1,1084,1072,0,0
-133,-48,0,0,0,0,0,0,0,0,0,-1,1091,1072,0,0
-126,-48,0,0,0,0,0,0,0,0,0,-1,1098,1072,0,0
-119,-48,0,0,0,0,0,0,0,0,0,-1,1105,1072,0,0
-112,-48,0,0,0,0,0,0,0,0,0,-1,1112,1072,0,0
-105,-48,0,0,0,0,0,0,0,0,0,-1,1119,1072,0,0
-98,-48,0,0,0,0,0,0,0,0,0,-1,1126,1072,0,0
-91,-48,0,0,0,0,0,0,0,0,0,-1,1133,1072,0,0
-84,-48,0,0,0,0,0,0,0,0,0,-1,1140,1072,0,0
-77,-48,0,0,0,0,0,0,0,0,0,-1,1147,1072,0,0
-70,-48,0,0,0,0,0,0,0,0,0,-1,1154,1072,0,0
-63,-48,0,0,0,0,0,0,0,0,0,-1,1161,1072,0,0
-56,-48,0,0,0,0,0,0,0,0,0,-1,1168,1072,0,0
-49,-48,0,0,0,0,0,0,0,0,0,-1,1175,1072,0,0
-42,-48,0,0,0,0,0,0,0,0,0,-1,1182,1072,0,0
-35,-48,0,0,0,0,0,0,0,0,0,-1,1189,1072,0,0
-28,-48,0,0,0,0,0,0,0,0,0,-1,1196,1072,0,0
-21,-48,0,0,0,0,0,0,0,0,0,-1,1203,1072,0,0
-14,-48,0,0,0,0,0,0,0,0,0,-1,1210,1072,0,0
-7,-48,0,0,0,0,0,0,0,0,0,-1,1217,1072,0,0
0,-48,0,0,0,0,0,0,0,0,0,-1,1224,1072,0,0
7,-48,0,0,0,0,0,0,0,0,0,-1,1231,1072,0,0
14,-48,0,0,0,0,0,0,0,0,0,-1,1238,1072,0,0
21,-48,0,0,0,0,0,0,0,0,0,-1,1245,1072,0,0
28,-48,0,0,0,0,0,0,0,0,0,-1,1252,1072,0,0
35,-48,0,0,0,0,0,0,0,0,0,-1,1259,1072,0,0
42,-48,0,0,0,0,0,0,0,0,0,-1,1266,1072,0,0
49,-48,0,0,0,0,0,0,0,0,0,-1,1273,1072,0,0
56,-48,0,0,0,0,0,0,0,0,0,-1,1280,1072,0,0
63,-48,0,0,0,0,0,0,0,0,0,-1,1287,1072,0,0
70,-48,0,0,0,0,0,0,0,0,0,-1,1294,1072,0,0
77,-48,0,0,0,0,0,0,0,0,0,-1,1301,1072,0,0
84,-48,0,0,0,0,0,0,0,0,0,-1,1308,1072,0,0
91,-48,0,0,0,0,0,0,0,0,0,-1,1315,1072,0,0
98,-48,0,0,0,0,0,0,0,0,0,-1,1322,1072,0,0
105,-48,0,0,0,0,0,0,0,0,0,-1,1329,1072,0,0
112,-48,0,0,0,0,0,0,0,0,0,-1,1336,1072,0,0
119,-48,0,0,0,0,0,0,0,0,0,-1,1343,1072,0,0
126,-48,0,0,0,0,0,0,0,0,0,-1,1350,1072,0,0
133,-48,0,0,0,0,0,0,0,0,0,-1,1357,1072,0,0
140,-48,0,0,0,0,0,0,0,0,0,-1,1364,1072,0,0
147,-48,0,0,0,0,0,0,0,0,0,-1,1371,1072,0,0
154,-48,0,0,0,0,0,0,0,0,0,-1,1378,1072,0,0
161,-48,0,0,0,0,0,0,0,0,0,-1,1385,1072,0,0
168,-48,0,0,0,0,0,0,0,0,0,-1,1392,1072,0,0
175,-48,0,0,0,0,0,0,0,0,0,-1,1399,1072,0,0
182,-48,0,0,0,0,0,0,0,0,0,-1,1406,1072,0,0
189,-48,0,0,0,0,0,0,0,0,0,-1,1413,1072,0,0
196,-48,0,0,0,0,0,0,0,0,0,-1,1420,1072,0,0
203,-48,0,0,0,0,0,0,0,0,0,-1,1427,1072,0,0
210,-48,0,0,0,0,0,0,0,0,0,-1,1434,1072,0,0
217,-48,0,0,0,0,0,0,0,0,0,-1,1441,1072,0,0
224,-48,0,0,0,0,0,0,0,0,0,-1,1448,1072,0,0
231,-48,0,0,0,0,0,0,0,0,0,-1,1455,1072,0,0
238,-48,0,0,0,0,0,0,0,0,0,-1,1462,1072,0,0
245,-48,0,0,0,0,0,0,0,0,0,-1,1469,1072,0,0
252,-48,0,0,0,0,0,0,0,0,0,-1,1476,1072,0,0
259,-48,0,0,0,0,0,0,0,0,0,-1,1483,1072,0,0
266,-48,0,0,0,0,0,0,0,0,0,-1,1490,1072,0,0
273,-48,0,0,0,0,0,0,0,0,0,-1,1497,1072,0,0
280,-48,0,0,0,0,0,0,0,0,0,-1,1504,1072,0,0
287,-48,0,0,0,0,0,0,0,0,0,-1,1511,1072,0,0
294,-48,0,0,0,0,0,0,0,0,0,-1,1518,1072,0,0
301,-48,0,0,0,0,0,0,0,0,0,-1,1525,1072,0,0
308,-48,0,0,0,0,0,0,0,0,0,-1,1532,1072,0,0
315,-48,0,0,0,0,0,0,0,0,0,-1,1539,1072,0,0
322,-48,0,0,0,0,0,0,0,0,0,-1,1546,1072,0,0
329,-48,0,0,0,0,0,0,0,0,0,-1,1553,1072,0,0
336,-48,0,0,0,0,0,0,0,0,0,-1,1560,1072,0,0
343,-48,0,0,0,0,0,0,0,0,0,-1,1567,1072,0,0
350,-48,0,0,0,0,0,0,0,0,0,-1,1574,1072,0,0
357,-48,0,0,0,0,0,0,0,0,0,-1,1581,1072,0,0
364,-48,0,0,0,0,0,0,0,0,0,-1,1588,1072,0,0
371,-48,0,0,0,0,0,0,0,0,0,-1,1595,1072,0,0
378,-48,0,0,0,0,0,0,0,0,0,-1,1602,1072,0,0
385,-48,0,0,0,0,0,0,0,0,0,-1,1609,1072,0,0
392,-48,0,0,0,0,0,0,0,0,0,-1,1616,1072,0,0
399,-48,0,0,0,0,0,0,0,0,0,-1,1623,1072,0,0
406,-48,0,0,0,0,0,0,0,0,0,-1,1630,1072,0,0
413,-48,0,0,0,0,0,0,0,0,0,-1,1637,1072,0,0
420,-48,0,0,0,0,0,0,0,0,0,-1,1644,1072,0,0
427,-48,0,0,0,0,0,0,0,0,0,-1,1651,1072,0,0
434,-48,0,0,0,0,0,0,0,0,0,-1,1658,1072,0,0
441,-48,0,0,0,0,0,0,0,0,0,-1,1665,1072,0,0
448,-48,0,0,0,0,0,0,0,0,0,-1,1672,1072,0,0
455,-48,0,0,0,0,0,0,0,0,0,-1,1679,1072,0,0
462,-48,0,0,0,0,0,0,0,0,0,-1,1686,1072,0,0
469,-48,0,0,0,0,0,0,0,0,0,-1,1693,1072,0,0
476,-48,0,0,0,0,0,0,0,0,0,-1,1700,1072,0,0
483,-48,0,0,0,0,0,0,0,0,0,-1,1707,1072,0,0
490,-48,0,0,0,0,0,0,0,0,0,-1,1714,1072,0,0
497,-48,0,0,0,0,0,0,0,0,0,-1,1721,1072,0,0
504,-48,0,0,0,0,0,0,0,0,0,-1,1728,1072,0,0
511,-48,0,0,0,0,0,0,0,0,0,-1,1735,1072,0,0
518,-48,0,0,0,0,0,0,0,0,0,-1,1742,1072,0,0
525,-48,0,0,0,0,0,0,0,0,0,-1,1749,1072,0,0
532,-48,0,0,0,0,0,0,0,0,0,-1,1756,1072,0,0
539,-48,0,0,0,0,0,0,0,0,0,-1,1763,1072,0,0
546,-48,0,0,0,0,0,0,0,0,0,-1,1770,1072,0,0
553,-48,0,0,0,0,0,0,0,0,0,-1,1777,1072,0,0
560,-48,0,0,0,0,0,0,0,0,0,-1,1784,1072,0,0
567,-48,0,0,0,0,0,0,0,0,0,-1,1791,1072,0,0
574,-48,0,0,0,0,0,0,0,0,0,-1,1798,1072,0,0
581,-48,0,0,0,0,0,0,0,0,0,-1,1805,1072,0,0
588,-48,0,0,0,0,0,0,0,0,0,-1,1812,1072,0,0
595,-48,0,0,0,0,0,0,0,0,0,-1,1819,1072,0,0
602,-48,0,0,0,0,0,0,0,0,0,-1,1826,1072,0,0
609,-48,0,0,0,0,0,0,0,0,0,-1,1833,1072,0,0
616,-48,0,0,0,0,0,0,0,0,0,-1,1840,1072,0,0
623,-48,0,0,0,0,0,0,0,0,0,-1,1847,1072,0,0
630,-48,0,0,0,0,0,0,0,0,0,-1,1854,1072,0,0
637,-48,0,0,0,0,0,0,0,0,0,-1,1861,1072,0,0
644,-48,0,0,0,0,0,0,0,0,0,-1,1868,1072,0,0
651,-48,58.9575,2.53723,-0.0047103,-0.000615981,-0.000194782,-0.000606736,-0.00471954,-1.52337,0.00296488,0.031986,1875,1072,58.9575,-2.53723
658,-48,58.8982,2.67029,-0.00285636,-0.000352774,-0.000257411,-0.000326582,-0.00288255,-1.46939,0.00182262,0.0397762,1882,1072,58.8982,-2.67024
665,-48,58.8243,2.77563,-0.00165369,-0.000183878,-0.000216814,-0.000152562,-0.001685,-1.42735,0.00107609,0.0450227,1889,1072,58.8244,-2.77569
672,-48,58.9501,2.48132,-0.000831354,5.43406e-06,-1.35637e-05,5.65388e-06,-0.000831574,-1.55459,0.000556277,0.041166,1896,1072,58.9501,-2.48134
679,-48,58.9041,2.44849,-0.000282224,0.000206077,0.000233956,0.000300075,-0.000376223,1.18876,0.000391285,0.0384254,1903,1072,58.9041,-2.44852
686,-48,58.9771,2.51782,-0.000232961,0.000111994,0.000584289,0.000548731,-0.000669697,0.928918,0.000704615,0.0393296,1910,1072,58.977,-2.51781
693,-48,59.0142,2.52722,-0.000282256,-9.12058e-05,0.000963203,0.000781198,-0.00115466,0.834824,0.00112458,0.0412124,1917,1072,59.0142,-2.52718
700,-48,59.0435,2.57703,-0.000346603,-0.00020699,0.00133564,0.00106066,-0.00161425,0.811507,0.00155535,0.0354413,1924,1072,59.0434,-2.57699
707,-48,59.0438,2.55261,-0.000666565,-0.000187062,0.00164871,0.00123923,-0.00209286,0.857601,0.00194471,0.0259456,1931,1072,59.0439,-2.5526
714,-48,59.009,2.61951,-0.00125846,4.57245e-05,0.00195722,0.00145662,-0.00266936,0.946201,0.0024162,0.0388051,1938,1072,59.009,-2.61949
721,-48,59.0305,2.74963,0,0,0,0,0,0,0,-1,1945,1072,59.0305,-2.7496
728,-48,57.9069,7.1582,0,0,0,0,0,0,0,-1,1952,1072,57.9069,-7.15816
735,-48,57.802,6.90967,-0.00382842,0.00205421,0.00247922,0.0029597,-0.0047339,1.22062,0.0044811,0.022258,1959,1072,57.802,-6.90969
742,-48,57.6913,6.62964,-0.0044741,0.00285554,0.0024093,0.00357656,-0.00519512,1.28001,0.00509299,0.0179877,1966,1072,57.6913,-6.62969
749,-48,57.7006,6.35461,-0.00480999,0.00383393,0.00195149,0.00425408,-0.00523015,1.35873,0.00548538,0.0156855,1973,1072,57.7006,-6.35459
756,-48,57.6666,6.09607,-0.00421096,0.00521783,0.000951257,0.00531284,-0.00430598,1.47124,0.00556356,0.0139428,1980,1072,57.6666,-6.09608
763,-48,57.592,5.82422,-0.00274714,0.00830265,-0.00108629,0.00840843,-0.00285292,-1.47373,0.00676032,0.0141972,1987,1072,57.5921,-5.82427
770,-48,57.5588,5.54749,-0.00027687,0.0116122,-0.00393542,0.0127968,-0.00146151,-1.2784,0.00905775,0.0159623,1994,1072,57.5589,-5.54749
777,-48,57.4456,5.26538,0.00429632,0.0160763,-0.00820677,0.020288,8.46777e-05,-1.09665,0.0134972,0.0139936,2001,1072,57.4455,-5.26536
784,-48,57.3376,4.94116,0.0104706,0.02124,-0.013426,0.0303208,0.00138974,-0.976111,0.0197669,0.0250891,2008,1072,57.3377,-4.94115
791,-48,57.2849,4.50671,0.0187404,0.0274593,-0.0198591,0.0434318,0.00276784,-0.893445,0.0280775,0.0411806,2015,1072,57.285,-4.50667
798,-48,57.1533,3.76196,0.0299395,0.0352752,-0.0279627,0.060697,0.00451764,-0.832958,0.039046,0.0458228,2022,1072,57.1533,-3.76194
805,-48,56.9016,3.19189,0.0443203,0.0453016,-0.0378561,0.0826702,0.00695167,-0.791879,0.0529486,0.0443265,2029,1072,56.9017,-3.19184
812,-48,56.8821,3.05725,0.0620822,0.0586435,-0.0499303,0.110323,0.010403,-0.768187,0.0703378,0.0466461,2036,1072,56.882,-3.05721
-700,-55,-45.1852,-2.10571,0.0812256,0.0893047,-0.0379717,0.123451,0.0470792,-0.838391,0.0719402,0.0481087,524,1079,-45.1852,2.10577
-693,-55,-45.4206,-1.59314,0.0789964,0.0798116,-0.030768,0.110175,0.0486333,-0.792021,0.0637548,0.0473404,531,1079,-45.4206,1.59313
-686,-55,-45.3376,-1.33447,0.0723564,0.0701499,-0.0229764,0.0942561,0.0482502,-0.761407,0.0544239,0.0454222,538,1079,-45.3376,1.33444
-679,-55,-45.1172,-0.803223,0.0636555,0.0607079,-0.0161134,0.0783623,0.046001,-0.739793,0.0454704,0.049778,545,1079,-45.1172,0.803262
-672,-55,-43.5903,-1.04944,0,0,0,0,0,0,0,-1,552,1079,-43.5903,1.04944
-665,-55,-43.4927,-0.354492,0.0444855,0.043208,-0.00565488,0.0495376,0.0381559,-0.729161,0.0299607,0.0492271,559,1079,-43.4927,0.354471
-658,-55,-43.4215,0.313232,0.0352554,0.0352648,-0.00222046,0.0374806,0.0330397,-0.786459,0.0236462,0.0473895,566,1079,-43.4215,-0.31327
-651,-55,-43.2722,1.37561,0.026849,0.0279872,3.61083e-05,0.0279883,0.0268478,1.53911,0.0182906,0.0408416,573,1079,-43.2721,-1.37563
-644,-55,-43.2612,2.49988,0.0199447,0.0220055,0.000454259,0.0221011,0.019849,1.36318,0.0140437,0.0256508,580,1079,-43.2611,-2.49983
-637,-55,-43.2807,2.77502,0.0126449,0.0140208,0.00192874,0.0153806,0.0112851,0.956715,0.00919771,0.0210688,587,1079,-43.2807,-2.77506
-630,-55,-43.3132,3.16418,0.0069399,0.00875491,0.00233555,0.0103531,0.00534174,0.970701,0.00597836,0.0231063,594,1079,-43.3131,-3.16417
-623,-55,-43.4639,3.5719,0.00350182,0.00467436,0.000703525,0.00500387,0.0031723,1.13277,0.00292335,0.0190547,601,1079,-43.4639,-3.57193
-616,-55,-43.4851,3.88806,0.00187338,0.00269445,-0.000347769,0.00282195,0.00174588,-1.21939,0.00164448,0.0177374,608,1079,-43.4851,-3.88804
-609,-55,-43.4005,4.28564,0.00145515,0.000813505,-0.00176571,0.00292895,-0.000660291,-0.69553,0.00220592,0.0183746,615,1079,-43.4005,-4.2856
-602,-55,-43.3298,4.6239,0.00137509,-0.000787867,-0.00311899,0.00359478,-0.00300755,-0.618514,0.00381688,0.0160137,622,1079,-43.3298,-4.62393
-595,-55,-43.2037,4.96228,0.00105053,-0.00166777,-0.00354047,0.00348377,-0.00410101,-0.602127,0.0043839,0.0341022,629,1079,-43.2037,-4.96234
-588,-55,-43.1929,5.3811,0,0,0,0,0,0,0,-1,636,1079,-43.1929,-5.38105
-581,-55,-44.5541,0.656006,0,0,0,0,0,0,0,-1,643,1079,-44.5541,-0.656016
-574,-55,-44.4396,0.835693,0.00237833,-0.00251271,-0.00352576,0.00422368,-0.00435807,-0.482185,0.00495487,0.0400129,650,1079,-44.4397,-0.835717
-567,-55,-44.6356,0.935791,0.00275633,-0.0022177,-0.00331634,0.0044146,-0.00387597,-0.463671,0.00478992,0.039941,657,1079,-44.6356,-0.935828
-560,-55,-44.8973,1.34985,0.00307593,-0.00160479,-0.00288089,0.00444728,-0.00297615,-0.444278,0.00431388,0.0429739,664,1079,-44.8973,-1.34981
-553,-55,-44.3834,-0.123535,0.00349915,-0.000781904,-0.00206782,0.00433482,-0.00161757,-0.384061,0.00355397,0.0472376,671,1079,-44.3833,0.123525
-546,-55,-44.4937,0.358643,0,0,0,0,0,0,0,-1,678,1079,-44.4937,-0.358631
-539,-55,-44.8876,0.766235,0,0,0,0,0,0,0,-1,685,1079,-44.8876,-0.76629
-532,-55,-44.955,0.965576,0,0,0,0,0,0,0,-1,692,1079,-44.955,-0.965637
-525,-55,0,0,0,0,0,0,0,0,0,-1,699,1079,0,0
-518,-55,0,0,0,0,0,0,0,0,0,-1,706,1079,0,0
-511,-55,0,0,0,0,0,0,0,0,0,-1,713,1079,0,0
-504,-55,0,0,0,0,0,0,0,0,0,-1,720,1079,0,0
-497,-55,0,0,0,0,0,0,0,0,0,-1,727,1079,0,0
-490,-55,0,0,0,0,0,0,0,0,0,-1,734,1079,0,0
-483,-55,0,0,0,0,0,0,0,0,0,-1,741,1079,0,0
-476,-55,0,0,0,0,0,0,0,0,0,-1,748,1079,0,0
-469,-55,0,0,0,0,0,0,0,0,0,-1,755,1079,0,0
-462,-55,0,0,0,0,0,0,0,0,0,-1,762,1079,0,0
-455,-55,0,0,0,0,0,0,0,0,0,-1,769,1079,0,0
-448,-55,0,0,0,0,0,0,0,0,0,-1,776,1079,0,0
-441,-55,0,0,0,0,0,0,0,0,0,-1,783,1079,0,0
-434,-55,0,0,0,0,0,0,0,0,0,-1,790,1079,0,0
-427,-55,0,0,0,0,0,0,0,0,0,-1,797,1079,0,0
-420,-55,0,0,0,0,0,0,0,0,0,-1,804,1079,0,0
-413,-55,0,0,0,0,0,0,0,0,0,-1,811,1079,0,0
-406,-55,0,0,0,0,0,0,0,0,0,-1,818,1079,0,0
-399,-55,0,0,0,0,0,0,0,0,0,-1,825,1079,0,0
-392,-55,0,0,0,0,0,0,0,0,0,-1,832,1079,0,0
-385,-55,0,0,0,0,0,0,0,0,0,-1,839,1079,0,0
-378,-55,0,0,0,0,0,0,0,0,0,-1,846,1079,0,0
-371,-55,0,0,0,0,0,0,0,0,0,-1,853,1079,0,0
-364,-55,0,0,0,0,0,0,0,0,0,-1,860,1079,0,0
-357,-55,0,0,0,0,0,0,0,0,0,-1,867,1079,0,0
-350,-55,0,0,0,0,0,0,0,0,0,-1,874,1079,0,0
-343,-55,0,0,0,0,0,0,0,0,0,-1,881,1079,0,0
-336,-55,0,0,0,0,0,0,0,0,0,-1,888,1079,0,0
-329,-55,0,0,0,0,0,0,0,0,0,-1,895,1079,0,0
-322,-55,0,0,0,0,0,0,0,0,0,-1,902,1079,0,0
-315,-55,0,0,0,0,0,0,0,0,0,-1,909,1079,0,0
-308,-55,0,0,0,0,0,0,0,0,0,-1,916,1079,0,0
-301,-55,0,0,0,0,0,0,0,0,0,-1,923,1079,0,0
-294,-55,0,0,0,0,0,0,0,0,0,-1,930,1079,0,0
-287,-55,0,0,0,0,0,0,0,0,0,-1,937,1079,0,0
-280,-55,0,0,0,0,0,0,0,0,0,-1,944,1079,0,0
-273,-55,0,0,0,0,0,0,0,0,0,-1,951,1079,0,0
-266,-55,0,0,0,0,0,0,0,0,0,-1,958,1079,0,0
-259,-55,0,0,0,0,0,0,0,0,0,-1,965,1079,0,0
-252,-55,0,0,0,0,0,0,0,0,0,-1,972,1079,0,0
-245,-55,0,0,0,0,0,0,0,0,0,-1,979,1079,0,0
-238,-55,0,0,0,0,0,0,0,0,0,-1,986,1079,0,0
-231,-55,0,0,0,0,0,0,0,0,0,-1,993,1079,0,0
-224,-55,0,0,0,0,0,0,0,0,0,-1,1000,1079,0,0
-217,-55,0,0,0,0,0,0,0,0,0,-1,1007,1079,0,0
-210,-55,0,0,0,0,0,0,0,0,0,-1,1014,1079,0,0
-203,-55,0,0,0,0,0,0,0,0,0,-1,1021,1079,0,0
-196,-55,0,0,0,0,0,0,0,0,0,-1,1028,1079,0,0
-189,-55,0,0,0,0,0,0,0,0,0,-1,1035,1079,0,0
-182,-55,0,0,0,0,0,0,0,0,0,-1,1042,1079,0,0
-175,-55,0,0,0,0,0,0,0,0,0,-1,1049,1079,0,0
-168,-55,0,0,0,0,0,0,0,0,0,-1,1056,1079,0,0
-161,-55,0,0,0,0,0,0,0,0,0,-1,1063,1079,0,0
-154,-55,0,0,0,0,0,0,0,0,0,-1,1070,1079,0,0
-147,-55,0,0,0,0,0,0,0,0,0,-1,1077,1079,0,0
-140,-55,0,0,0,0,0,0,0,0,0,-1,1084,1079,0,0
-133,-55,0,0,0,0,0,0,0,0,0,-1,1091,1079,0,0
-126,-55,0,0,0,0,0,0,0,0,0,-1,1098,1079,0,0
-119,-55,0,0,0,0,0,0,0,0,0,-1,1105,1079,0,0
-112,-55,0,0,0,0,0,0,0,0,0,-1,1112,1079,0,0
-105,-55,0,0,0,0,0,0,0,0,0,-1,1119,1079,0,0
-98,-55,0,0,0,0,0,0,0,0,0,-1,1126,1079,0,0
-91,-55,0,0,0,0,0,0,0,0,0,-1,1133,1079,0,0
-84,-55,0,0,0,0,0,0,0,0,0,-1,1140,1079,0,0
-77,-55,0,0,0,0,0,0,0,0,0,-1,1147,1079,0,0
-70,-55,0,0,0,0,0,0,0,0,0,-1,1154,1079,0,0
-63,-55,0,0,0,0,0,0,0,0,0,-1,1161,1079,0,0
-56,-55,0,0,0,0,0,0,0,0,0,-1,1168,1079,0,0
-49,-55,0,0,0,0,0,0,0,0,0,-1,1175,1079,0,0
-42,-55,0,0,0,0,0,0,0,0,0,-1,1182,1079,0,0
-35,-55,0,0,0,0,0,0,0,0,0,-1,1189,1079,0,0
-28,-55,0,0,0,0,0,0,0,0,0,-1,1196,1079,0,0
-21,-55,0,0,0,0,0,0,0,0,0,-1,1203,1079,0,0
-14,-55,0,0,0,0,0,0,0,0,0,-1,1210,1079,0,0
-7,-55,0,0,0,0,0,0,0,0,0,-1,1217,1079,0,0
0,-55,0,0,0,0,0,0,0,0,0,-1,1224,1079,0,0
7,-55,0,0,0,0,0,0,0,0,0,-1,1231,1079,0,0
14,-55,0,0,0,0,0,0,0,0,0,-1,1238,1079,0,0
21,-55,0,0,0,0,0,0,0,0,0,-1,1245,1079,0,0
28,-55,0,0,0,0,0,0,0,0,0,-1,1252,1079,0,0
35,-55,0,0,0,0,0,0,0,0,0,-1,1259,1079,0,0
42,-55,0,0,0,0,0,0,0,0,0,-1,1266,1079,0,0
49,-55,0,0,0,0,0,0,0,0,0,-1,1273,1079,0,0
56,-55,0,0,0,0,0,0,0,0,0,-1,1280,1079,0,0
63,-55,0,0,0,0,0,0,0,0,0,-1,1287,1079,0,0
70,-55,0,0,0,0,0,0,0,0,0,-1,1294,1079,0,0
77,-55,0,0,0,0,0,0,0,0,0,-1,1301,1079,0,0
84,-55,0,0,0,0,0,0,0,0,0,-1,1308,1079,0,0
91,-55,0,0,0,0,0,0,0,0,0,-1,1315,1079,0,0
98,-55,0,0,0,0,0,0,0,0,0,-1,1322,1079,0,0
105,-55,0,0,0,0,0,0,0,0,0,-1,1329,1079,0,0
112,-55,0,0,0,0,0,0,0,0,0,-1,1336,1079,0,0
119,-55,0,0,0,0,0,0,0,0,0,-1,1343,1079,0,0
126,-55,0,0,0,0,0,0,0,0,0,-1,1350,1079,0,0
133,-55,0,0,0,0,0,0,0,0,0,-1,1357,1079,0,0
140,-55,0,0,0,0,0,0,0,0,0,-1,1364,1079,0,0
147,-55,0,0,0,0,0,0,0,0,0,-1,1371,1079,0,0
154,-55,0,0,0,0,0,0,0,0,0,-1,1378,1079,0,0
161,-55,0,0,0,0,0,0,0,0,0,-1,1385,1079,0,0
168,-55,0,0,0,0,0,0,0,0,0,-1,1392,1079,0,0
175,-55,0,0,0,0,0,0,0,0,0,-1,1399,1079,0,0
182,-55,0,0,0,0,0,0,0,0,0,-1,1406,1079,0,0
189,-55,0,0,0,0,0,0,0,0,0,-1,1413,1079,0,0
196,-55,0,0,0,0,0,0,0,0,0,-1,1420,1079,0,0
203,-55,0,0,0,0,0,0,0,0,0,-1,1427,1079,0,0
210,-55,0,0,0,0,0,0,0,0,0,-1,1434,1079,0,0
217,-55,0,0,0,0,0,0,0,0,0,-1,1441,1079,0,0
224,-55,0,0,0,0,0,0,0,0,0,-1,1448,1079,0,0
231,-55,0,0,0,0,0,0,0,0,0,-1,1455,1079,0,0
238,-55,0,0,0,0,0,0,0,0,0,-1,1462,1079,0,0
245,-55,0,0,0,0,0,0,0,0,0,-1,1469,1079,0,0
252,-55,0,0,0,0,0,0,0,0,0,-1,1476,1079,0,0
259,-55,0,0,0,0,0,0,0,0,0,-1,1483,1079,0,0
266,-55,0,0,0,0,0,0,0,0,0,-1,1490,1079,0,0
273,-55,0,0,0,0,0,0,0,0,0,-1,1497,1079,0,0
280,-55,0,0,0,0,0,0,0,0,0,-1,1504,1079,0,0
287,-55,0,0,0,0,0,0,0,0,0,-1,1511,1079,0,0
294,-55,0,0,0,0,0,0,0,0,0,-1,1518,1079,0,0
301,-55,0,0,0,0,0,0,0,0,0,-1,1525,1079,0,0
308,-55,0,0,0,0,0,0,0,0,0,-1,1532,1079,0,0
315,-55,0,0,0,0,0,0,0,0,0,-1,1539,1079,0,0
322,-55,0,0,0,0,0,0,0,0,0,-1,1546,1079,0,0
329,-55,0,0,0,0,0,0,0,0,0,-1,1553,1079,0,0
336,-55,0,0,0,0,0,0,0,0,0,-1,1560,1079,0,0
343,-55,0,0,0,0,0,0,0,0,0,-1,1567,1079,0,0
350,-55,0,0,0,0,0,0,0,0,0,-1,1574,1079,0,0
357,-55,0,0,0,0,0,0,0,0,0,-1,1581,1079,0,0
364,-55,0,0,0,0,0,0,0,0,0,-1,1588,1079,0,0
371,-55,0,0,0,0,0,0,0,0,0,-1,1595,1079,0,0
378,-55,0,0,0,0,0,0,0,0,0,-1,1602,1079,0,0
385,-55,0,0,0,0,0,0,0,0,0,-1,1609,1079,0,0
392,-55,0,0,0,0,0,0,0,0,0,-1,1616,1079,0,0
399,-55,0,0,0,0,0,0,0,0,0,-1,1623,1079,0,0
406,-55,0,0,0,0,0,0,0,0,0,-1,1630,1079,0,0
413,-55,0,0,0,0,0,0,0,0,0,-1,1637,1079,0,0
420,-55,0,0,0,0,0,0,0,0,0,-1,1644,1079,0,0
427,-55,0,0,0,0,0,0,0,0,0,-1,1651,1079,0,0
434,-55,0,0,0,0,0,0,0,0,0,-1,1658,1079,0,0
441,-55,0,0,0,0,0,0,0,0,0,-1,1665,1079,0,0
448,-55,0,0,0,0,0,0,0,0,0,-1,1672,1079,0,0
455,-55,0,0,0,0,0,0,0,0,0,-1,1679,1079,0,0
462,-55,0,0,0,0,0,0,0,0,0,-1,1686,1079,0,0
469,-55,0,0,0,0,0,0,0,0,0,-1,1693,1079,0,0
476,-55,0,0,0,0,0,0,0,0,0,-1,1700,1079,0,0
483,-55,0,0,0,0,0,0,0,0,0,-1,1707,1079,0,0
490,-55,0,0,0,0,0,0,0,0,0,-1,1714,1079,0,0
497,-55,0,0,0,0,0,0,0,0,0,-1,1721,1079,0,0
504,-55,0,0,0,0,0,0,0,0,0,-1,1728,1079,0,0
511,-55,0,0,0,0,0,0,0,0,0,-1,1735,1079,0,0
518,-55,0,0,0,0,0,0,0,0,0,-1,1742,1079,0,0
525,-55,0,0,0,0,0,0,0,0,0,-1,1749,1079,0,0
532,-55,0,0,0,0,0,0,0,0,0,-1,1756,1079,0,0
539,-55,0,0,0,0,0,0,0,0,0,-1,1763,1079,0,0
546,-55,0,0,0,0,0,0,0,0,0,-1,1770,1079,0,0
553,-55,0,0,0,0,0,0,0,0,0,-1,1777,1079,0,0
560,-55,0,0,0,0,0,0,0,0,0,-1,1784,1079,0,0
567,-55,0,0,0,0,0,0,0,0,0,-1,1791,1079,0,0
574,-55,0,0,0,0,0,0,0,0,0,-1,1798,1079,0,0
581,-55,0,0,0,0,0,0,0,0,0,-1,1805,1079,0,0
588,-55,0,0,0,0,0,0,0,0,0,-1,1812,1079,0,0
595,-55,0,0,0,0,0,0,0,0,0,-1,1819,1079,0,0
602,-55,0,0,0,0,0,0,0,0,0,-1,1826,1079,0,0
609,-55,0,0,0,0,0,0,0,0,0,-1,1833,1079,0,0
616,-55,0,0,0,0,0,0,0,0,0,-1,1840,1079,0,0
623,-55,0,0,0,0,0,0,0,0,0,-1,1847,1079,0,0
630,-55,0,0,0,0,0,0,0,0,0,-1,1854,1079,0,0
637,-55,0,0,0,0,0,0,0,0,0,-1,1861,1079,0,0
644,-55,0,0,0,0,0,0,0,0,0,-1,1868,1079,0,0
651,-55,58.9875,2.46387,-0.00406771,-0.000906694,3.47522e-05,-0.000906312,-0.0040681,1.5598,0.00246611,0.0341389,1875,1079,58.9875,-2.4639
658,-55,58.9969,2.54871,-0.00235822,-0.000404211,-9.48059e-05,-0.000399622,-0.00236281,-1.52243,0.00146034,0.035049,1882,1079,58.9969,-2.54867
665,-55,58.8789,2.54431,-0.00126288,-8.39058e-05,-9.74268e-05,-7.5909e-05,-0.00127088,-1.4889,0.000823117,0.0396305,1889,1079,58.8789,-2.5443
672,-55,58.9092,2.61694,-0.000525018,0.000200263,4.36894e-05,0.000202886,-0.00052764,1.51085,0.00043544,0.0381611,1896,1079,58.9092,-2.61692
679,-55,58.9957,2.55957,-7.31947e-05,0.000466854,0.000219655,0.000544913,-0.000151253,1.22935,0.000422809,0.0373289,1903,1079,58.9957,-2.55958
686,-55,58.8562,2.51404,-4.28097e-05,0.000392945,0.00052699,0.000745321,-0.000395186,0.981416,0.000668735,0.0412331,1910,1079,58.8561,-2.51405
693,-55,58.9202,2.72974,-6.95093e-05,0.000183974,0.000871982,0.000938377,-0.000823913,0.857567,0.00101817,0.0400048,1917,1079,58.9202,-2.72974
700,-55,59.022,2.75928,-0.000102923,7.09675e-05,0.00120816,0.00119531,-0.00122727,0.821319,0.00139872,0.0335544,1924,1079,59.0219,-2.75922
707,-55,59.0752,2.5874,-0.000361303,7.44509e-05,0.00150891,0.00138113,-0.00166799,0.857099,0.001763,0.0228124,1931,1079,59.0752,-2.58743
714,-55,59.0223,2.64783,-0.00087684,0.000234259,0.00182929,0.0015905,-0.00223308,0.93282,0.00221792,0.0452153,1938,1079,59.0223,-2.64786
721,-55,59.0815,2.79382,0,0,0,0,0,0,0,-1,1945,1079,59.0815,-2.79382
728,-55,57.5054,7.25256,0,0,0,0,0,0,0,-1,1952,1079,57.5054,-7.25255
735,-55,57.4199,6.95068,-0.00330164,0.00185883,0.00245014,0.00283679,-0.00427961,1.19103,0.00413671,0.0224784,1959,1079,57.42,-6.95071
742,-55,57.4449,6.66895,-0.004062,0.00254925,0.00243938,0.00335188,-0.00486463,1.25293,0.00477053,0.0225354,1966,1079,57.445,-6.6689
749,-55,57.4539,6.36414,-0.00447105,0.00339588,0.00196768,0.00386058,-0.00493575,1.33888,0.0050912,0.0145369,1973,1079,57.4539,-6.36417
756,-55,57.311,6.07959,-0.00444206,0.00470648,0.000947675,0.00480362,-0.0045392,1.46865,0.0053948,0.0120585,1980,1079,57.311,-6.07961
763,-55,57.239,5.80359,-0.0039822,0.00753898,-0.00107524,0.00763847,-0.00408169,-1.47853,0.00686972,0.0160191,1987,1079,57.2391,-5.8036
770,-55,57.208,5.49597,-0.00277494,0.0106871,-0.0039736,0.0117725,-0.00386032,-1.30415,0.00940307,0.0173119,1994,1079,57.2079,-5.49597
777,-55,57.1399,5.17761,-0.000293281,0.0148635,-0.00824176,0.0184815,-0.00391126,-1.15714,0.0138106,0.0138543,2001,1079,57.14,-5.17761
784,-55,57.0496,4.80994,0.00327905,0.0196914,-0.0134383,0.027231,-0.00426059,-1.05951,0.0197282,0.0293452,2008,1079,57.0495,-4.80991
791,-55,56.9775,4.3429,0.00826429,0.0255082,-0.0198126,0.0384936,-0.00472108,-0.990627,0.0273721,0.0430329,2015,1079,56.9776,-4.34294
798,-55,56.8767,3.51892,0.0152886,0.0328196,-0.0278003,0.0532036,-0.00509537,-0.938116,0.0372838,0.0455316,2022,1079,56.8767,-3.51896
805,-55,56.8486,2.69067,0.0245545,0.0422232,-0.0375013,0.0719167,-0.00513898,-0.901077,0.049746,0.0443866,2029,1079,56.8486,-2.69064
812,-55,57.1235,2.27344,0.0361466,0.0547781,-0.0491683,0.0955054,-0.00458062,-0.879022,0.0652508,0.0442962,2036,1079,57.1236,-2.27342
-700,-62,-44.4559,-2.83716,0.0774768,0.0694232,-0.0517532,0.12536,0.0215404,-0.746572,0.0773986,0.0458537,524,1086,-44.4559,2.83711
-693,-62,-44.3861,-1.73425,0.0763246,0.0620782,-0.0428915,0.11268,0.0257224,-0.703112,0.0681831,0.0475555,531,1086,-44.3861,1.73424
-686,-62,-44.1822,-1.63306,0.0702796,0.0547416,-0.0336398,0.0970358,0.0279853,-0.671914,0.0576717,0.0462161,538,1086,-44.1822,1.63311
-679,-62,-43.5599,-1.97839,0.0621094,0.0476472,-0.0252684,0.081161,0.0285956,-0.646037,0.0475346,0.0428264,545,1086,-43.5599,1.9784
-672,-62,-43.5721,-1.41211,0,0,0,0,0,0,0,-1,552,1086,-43.5722,1.41212
-665,-62,-43.4892,-0.810425,0,0,0,0,0,0,0,-1,559,1086,-43.4892,0.810398
-658,-62,-43.3962,-0.112671,0,0,0,0,0,0,0,-1,566,1086,-43.3963,0.112619
-651,-62,-42.9222,1.66748,0.0266198,0.0227833,-0.00333447,0.0285484,0.0208546,-0.524376,0.0170562,0.0410383,573,1086,-42.9222,-1.66749
-644,-62,-42.9009,2.38672,0.0199306,0.0179853,-0.00179101,0.020996,0.0169199,-0.536649,0.0128559,0.0159302,580,1086,-42.9009,-2.38668
-637,-62,-42.9659,2.80713,0.0128768,0.0114198,0.000739094,0.0131861,0.0111106,0.396305,0.00818706,0.0144312,587,1086,-42.966,-2.80719
-630,-62,-43.037,3.17114,0.00727611,0.0073392,0.00187501,0.00918293,0.00543239,0.79381,0.00533132,0.0154754,594,1086,-43.0371,-3.17116
-623,-62,-43.0917,3.58435,0.00385656,0.00384385,0.000797479,0.00464771,0.0030527,0.781413,0.00272699,0.0176042,601,1086,-43.0917,-3.5843
-616,-62,-43.0924,3.98254,0.00214088,0.00236149,-3.02754e-05,0.00236557,0.0021368,-1.43686,0.00150659,0.0180874,608,1086,-43.0924,-3.98258
-609,-62,-43.0467,4.35168,0.00178468,0.0006731,-0.00138264,0.00271906,-0.000261277,-0.594293,0.00190578,0.018316,615,1086,-43.0467,-4.35171
-602,-62,-42.9443,4.69409,0.00176731,-0.00079538,-0.0026931,0.00346835,-0.00249643,-0.563353,0.00345897,0.0171297,622,1086,-42.9443,-4.69405
-595,-62,-42.8132,5.09082,0.0014135,-0.00154807,-0.00314803,0.00341163,-0.00354619,-0.56556,0.00401735,0.0387964,629,1086,-42.8132,-5.09077
-588,-62,-42.7427,5.5188,0,0,0,0,0,0,0,-1,636,1086,-42.7427,-5.5188
-581,-62,-44.5879,0.868042,0,0,0,0,0,0,0,-1,643,1086,-44.5879,-0.867987
-574,-62,-44.517,0.892212,0.00257831,-0.00239129,-0.00332243,0.00424234,-0.00405532,-0.464324,0.00479106,0.0371693,650,1086,-44.517,-0.892167
-567,-62,-44.5881,0.903931,0.0028907,-0.0021894,-0.00323085,0.00446043,-0.00375913,-0.452268,0.00475132,0.0387706,657,1086,-44.5881,-0.903883
-560,-62,-44.7431,1.20483,0.00310462,-0.00173946,-0.00296943,0.00451452,-0.00314937,-0.44329,0.00444809,0.040209,664,1086,-44.7431,-1.20486
-553,-62,-44.4193,-0.0625,0.00333356,-0.00114166,-0.00238307,0.00436488,-0.00217299,-0.408435,0.0038447,0.0418482,671,1086,-44.4192,0.0624428
-546,-62,-44.5762,0.760132,0.00383326,-0.000620288,-0.00131261,0.00419134,-0.000978369,-0.26632,0.00317106,0.0343632,678,1086,-44.5761,-0.760083
-539,-62,-44.6581,0.725342,0.00494765,-0.000728088,0.000132655,0.00495075,-0.000731187,0.0233553,0.00356928,0.0380868,685,1086,-44.6581,-0.725401
-532,-62,-44.467,0.734009,0.00551978,-0.000739802,0.00196398,0.00608496,-0.00130498,0.280201,0.00455438,0.0419557,692,1086,-44.4671,-0.734019
-525,-62,0,0,0,0,0,0,0,0,0,-1,699,1086,0,0
-518,-62,0,0,0,0,0,0,0,0,0,-1,706,1086,0,0
-511,-62,0,0,0,0,0,0,0,0,0,-1,713,1086,0,0
-504,-62,0,0,0,0,0,0,0,0,0,-1,720,1086,0,0
-497,-62,0,0,0,0,0,0,0,0,0,-1,727,1086,0,0
-490,-62,0,0,0,0,0,0,0,0,0,-1,734,1086,0,0
-483,-62,0,0,0,0,0,0,0,0,0,-1,741,1086,0,0
-476,-62,0,0,0,0,0,0,0,0,0,-1,748,1086,0,0
-469,-62,0,0,0,0,0,0,0,0,0,-1,755,1086,0,0
-462,-62,0,0,0,0,0,0,0,0,0,-1,762,1086,0,0
-455,-62,0,0,0,0,0,0,0,0,0,-1,769,1086,0,0
-448,-62,0,0,0,0,0,0,0,0,0,-1,776,1086,0,0
-441,-62,0,0,0,0,0,0,0,0,0,-1,783,1086,0,0
-434,-62,0,0,0,0,0,0,0,0,0,-1,790,1086,0,0
-427,-62,0,0,0,0,0,0,0,0,0,-1,797,1086,0,0
-420,-62,0,0,0,0,0,0,0,0,0,-1,804,1086,0,0
-413,-62,0,0,0,0,0,0,0,0,0,-1,811,1086,0,0
-406,-62,0,0,0,0,0,0,0,0,0,-1,818,1086,0,0
-399,-62,0,0,0,0,0,0,0,0,0,-1,825,1086,0,0
-392,-62,0,0,0,0,0,0,0,0,0,-1,832,1086,0,0
-385,-62,0,0,0,0,0,0,0,0,0,-1,839,1086,0,0
-378,-62,0,0,0,0,0,0,0,0,0,-1,846,1086,0,0
-371,-62,0,0,0,0,0,0,0,0,0,-1,853,1086,0,0
-364,-62,0,0,0,0,0,0,0,0,0,-1,860,1086,0,0
-357,-62,0,0,0,0,0,0,0,0,0,-1,867,1086,0,0
-350,-62,0,0,0,0,0,0,0,0,0,-1,874,1086,0,0
-343,-62,0,0,0,0,0,0,0,0,0,-1,881,1086,0,0
-336,-62,0,0,0,0,0,0,0,0,0,-1,888,1086,0,0
-329,-62,0,0,0,0,0,0,0,0,0,-1,895,1086,0,0
-322,-62,0,0,0,0,0,0,0,0,0,-1,902,1086,0,0
-315,-62,0,0,0,0,0,0,0,0,0,-1,909,1086,0,0
-308,-62,0,0,0,0,0,0,0,0,0,-1,916,1086,0,0
-301,-62,0,0,0,0,0,0,0,0,0,-1,923,1086,0,0
-294,-62,0,0,0,0,0,0,0,0,0,-1,930,1086,0,0
-287,-62,0,0,0,0,0,0,0,0,0,-1,937,1086,0,0
-280,-62,0,0,0,0,0,0,0,0,0,-1,944,1086,0,0
-273,-62,0,0,0,0,0,0,0,0,0,-1,951,1086,0,0
-266,-62,0,0,0,0,0,0,0,0,0,-1,958,1086,0,0
-259,-62,0,0,0,0,0,0,0,0,0,-1,965,1086,0,0
-252,-62,0,0,0,0,0,0,0,0,0,-1,972,1086,0,0
-245,-62,0,0,0,0,0,0,0,0,0,-1,979,1086,0,0
-238,-62,0,0,0,0,0,0,0,0,0,-1,986,1086,0,0
-231,-62,0,0,0,0,0,0,0,0,0,-1,993,1086,0,0
-224,-62,0,0,0,0,0,0,0,0,0,-1,1000,1086,0,0
-217,-62,0,0,0,0,0,0,0,0,0,-1,1007,1086,0,0
-210,-62,0,0,0,0,0,0,0,0,0,-1,1014,1086,0,0
-203,-62,0,0,0,0,0,0,0,0,0,-1,1021,1086,0,0
-196,-62,0,0,0,0,0,0,0,0,0,-1,1028,1086,0,0
-189,-62,0,0,0,0,0,0,0,0,0,-1,1035,1086,0,0
-182,-62,0,0,0,0,0,0,0,0,0,-1,1042,1086,0,0
-175,-62,0,0,0,0,0,0,0,0,0,-1,1049,1086,0,0
-168,-62,0,0,0,0,0,0,0,0,0,-1,1056,1086,0,0
-161,-62,0,0,0,0,0,0,0,0,0,-1,1063,1086,0,0
-154,-62,0,0,0,0,0,0,0,0,0,-1,1070,1086,0,0
-147,-62,0,0,0,0,0,0,0,0,0,-1,1077,1086,0,0
-140,-62,0,0,0,0,0,0,0,0,0,-1,1084,1086,0,0
-133,-62,0,0,0,0,0,0,0,0,0,-1,1091,1086,0,0
-126,-62,0,0,0,0,0,0,0,0,0,-1,1098,1086,0,0
-119,-62,0,0,0,0,0,0,0,0,0,-1,1105,1086,0,0
-112,-62,0,0,0,0,0,0,0,0,0,-1,1112,1086,0,0
-105,-62,0,0,0,0,0,0,0,0,0,-1,1119,1086,0,0
-98,-62,0,0,0,0,0,0,0,0,0,-1,1126,1086,0,0
-91,-62,0,0,0,0,0,0,0,0,0,-1,1133,1086,0,0
-84,-62,0,0,0,0,0,0,0,0,0,-1,1140,1086,0,0
-77,-62,0,0,0,0,0,0,0,0,0,-1,1147,1086,0,0
-70,-62,0,0,0,0,0,0,0,0,0,-1,1154,1086,0,0
-63,-62,0,0,0,0,0,0,0,0,0,-1,1161,1086,0,0
-56,-62,0,0,0,0,0,0,0,0,0,-1,1168,1086,0,0
-49,-62,0,0,0,0,0,0,0,0,0,-1,1175,1086,0,0
-42,-62,0,0,0,0,0,0,0,0,0,-1,1182,1086,0,0
-35,-62,0,0,0,0,0,0,0,0,0,-1,1189,1086,0,0
-28,-62,0,0,0,0,0,0,0,0,0,-1,1196,1086,0,0
-21,-62,0,0,0,0,0,0,0,0,0,-1,1203,1086,0,0
-14,-62,0,0,0,0,0,0,0,0,0,-1,1210,1086,0,0
-7,-62,0,0,0,0,0,0,0,0,0,-1,1217,1086,0,0
0,-62,0,0,0,0,0,0,0,0,0,-1,1224,1086,0,0
7,-62,0,0,0,0,0,0,0,0,0,-1,1231,1086,0,0
14,-62,0,0,0,0,0,0,0,0,0,-1,1238,1086,0,0
21,-62,0,0,0,0,0,0,0,0,0,-1,1245,1086,0,0
28,-62,0,0,0,0,0,0,0,0,0,-1,1252,1086,0,0
35,-62,0,0,0,0,0,0,0,0,0,-1,1259,1086,0,0
42,-62,0,0,0,0,0,0,0,0,0,-1,1266,1086,0,0
49,-62,0,0,0,0,0,0,0,0,0,-1,1273,1086,0,0
56,-62,0,0,0,0,0,0,0,0,0,-1,1280,1086,0,0
63,-62,0,0,0,0,0,0,0,0,0,-1,1287,1086,0,0
70,-62,0,0,0,0,0,0,0,0,0,-1,1294,1086,0,0
77,-62,0,0,0,0,0,0,0,0,0,-1,1301,1086,0,0
84,-62,0,0,0,0,0,0,0,0,0,-1,1308,1086,0,0
91,-62,0,0,0,0,0,0,0,0,0,-1,1315,1086,0,0
98,-62,0,0,0,0,0,0,0,0,0,-1,1322,1086,0,0
105,-62,0,0,0,0,0,0,0,0,0,-1,1329,1086,0,0
112,-62,0,0,0,0,0,0,0,0,0,-1,1336,1086,0,0
119,-62,0,0,0,0,0,0,0,0,0,-1,1343,1086,0,0
126,-62,0,0,0,0,0,0,0,0,0,-1,1350,1086,0,0
133,-62,0,0,0,0,0,0,0,0,0,-1,1357,1086,0,0
140,-62,0,0,0,0,0,0,0,0,0,-1,1364,1086,0,0
147,-62,0,0,0,0,0,0,0,0,0,-1,1371,1086,0,0
154,-62,0,0,0,0,0,0,0,0,0,-1,1378,1086,0,0
161,-62,0,0,0,0,0,0,0,0,0,-1,1385,1086,0,0
168,-62,0,0,0,0,0,0,0,0,0,-1,1392,1086,0,0
175,-62,0,0,0,0,0,0,0,0,0,-1,1399,1086,0,0
182,-62,0,0,0,0,0,0,0,0,0,-1,1406,1086,0,0
189,-62,0,0,0,0,0,0,0,0,0,-1,1413,1086,0,0
196,-62,0,0,0,0,0,0,0,0,0,-1,1420,1086,0,0
203,-62,0,0,0,0,0,0,0,0,0,-1,1427,1086,0,0
210,-62,0,0,0,0,0,0,0,0,0,-1,1434,1086,0,0
217,-62,0,0,0,0,0,0,0,0,0,-1,1441,1086,0,0
224,-62,0,0,0,0,0,0,0,0,0,-1,1448,1086,0,0
231,-62,0,0,0,0,0,0,0,0,0,-1,1455,1086,0,0
238,-62,0,0,0,0,0,0,0,0,0,-1,1462,1086,0,0
245,-62,0,0,0,0,0,0,0,0,0,-1,1469,1086,0,0
252,-62,0,0,0,0,0,0,0,0,0,-1,1476,1086,0,0
259,-62,0,0,0,0,0,0,0,0,0,-1,1483,1086,0,0
266,-62,0,0,0,0,0,0,0,0,0,-1,1490,1086,0,0
273,-62,0,0,0,0,0,0,0,0,0,-1,1497,1086,0,0
280,-62,0,0,0,0,0,0,0,0,0,-1,1504,1086,0,0
287,-62,0,0,0,0,0,0,0,0,0,-1,1511,1086,0,0
294,-62,0,0,0,0,0,0,0,0,0,-1,1518,1086,0,0
301,-62,0,0,0,0,0,0,0,0,0,-1,1525,1086,0,0
308,-62,0,0,0,0,0,0,0,0,0,-1,1532,1086,0,0
315,-62,0,0,0,0,0,0,0,0,0,-1,1539,1086,0,0
322,-62,0,0,0,0,0,0,0,0,0,-1,1546,1086,0,0
329,-62,0,0,0,0,0,0,0,0,0,-1,1553,1086,0,0
336,-62,0,0,0,0,0,0,0,0,0,-1,1560,1086,0,0
343,-62,0,0,0,0,0,0,0,0,0,-1,1567,1086,0,0
350,-62,0,0,0,0,0,0,0,0,0,-1,1574,1086,0,0
357,-62,0,0,0,0,0,0,0,0,0,-1,1581,1086,0,0
364,-62,0,0,0,0,0,0,0,0,0,-1,1588,1086,0,0
371,-62,0,0,0,0,0,0,0,0,0,-1,1595,1086,0,0
378,-62,0,0,0,0,0,0,0,0,0,-1,1602,1086,0,0
385,-62,0,0,0,0,0,0,0,0,0,-1,1609,1086,0,0
392,-62,0,0,0,0,0,0,0,0,0,-1,1616,1086,0,0
399,-62,0,0,0,0,0,0,0,0,0,-1,1623,1086,0,0
406,-62,0,0,0,0,0,0,0,0,0,-1,1630,1086,0,0
413,-62,0,0,0,0,0,0,0,0,0,-1,1637,1086,0,0
420,-62,0,0,0,0,0,0,0,0,0,-1,1644,1086,0,0
427,-62,0,0,0,0,0,0,0,0,0,-1,1651,1086,0,0
434,-62,0,0,0,0,0,0,0,0,0,-1,1658,1086,0,0
441,-62,0,0,0,0,0,0,0,0,0,-1,1665,1086,0,0
448,-62,0,0,0,0,0,0,0,0,0,-1,1672,1086,0,0
455,-62,0,0,0,0,0,0,0,0,0,-1,1679,1086,0,0
462,-62,0,0,0,0,0,0,0,0,0,-1,1686,1086,0,0
469,-62,0,0,0,0,0,0,0,0,0,-1,1693,1086,0,0
476,-62,0,0,0,0,0,0,0,0,0,-1,1700,1086,0,0
483,-62,0,0,0,0,0,0,0,0,0,-1,1707,1086,0,0
490,-62,0,0,0,0,0,0,0,0,0,-1,1714,1086,0,0
497,-62,0,0,0,0,0,0,0,0,0,-1,1721,1086,0,0
504,-62,0,0,0,0,0,0,0,0,0,-1,1728,1086,0,0
511,-62,0,0,0,0,0,0,0,0,0,-1,1735,1086,0,0
518,-62,0,0,0,0,0,0,0,0,0,-1,1742,1086,0,0
525,-62,0,0,0,0,0,0,0,0,0,-1,1749,1086,0,0
532,-62,0,0,0,0,0,0,0,0,0,-1,1756,1086,0,0
539,-62,0,0,0,0,0,0,0,0,0,-1,1763,1086,0,0
546,-62,0,0,0,0,0,0,0,0,0,-1,1770,1086,0,0
553,-62,0,0,0,0,0,0,0,0,0,-1,1777,1086,0,0
560,-62,0,0,0,0,0,0,0,0,0,-1,1784,1086,0,0
567,-62,0,0,0,0,0,0,0,0,0,-1,1791,1086,0,0
574,-62,0,0,0,0,0,0,0,0,0,-1,1798,1086,0,0
581,-62,0,0,0,0,0,0,0,0,0,-1,1805,1086,0,0
588,-62,0,0,0,0,0,0,0,0,0,-1,1812,1086,0,0
595,-62,0,0,0,0,0,0,0,0,0,-1,1819,1086,0,0
602,-62,0,0,0,0,0,0,0,0,0,-1,1826,1086,0,0
609,-62,0,0,0,0,0,0,0,0,0,-1,1833,1086,0,0
616,-62,0,0,0,0,0,0,0,0,0,-1,1840,1086,0,0
623,-62,0,0,0,0,0,0,0,0,0,-1,1847,1086,0,0
630,-62,0,0,0,0,0,0,0,0,0,-1,1854,1086,0,0
637,-62,0,0,0,0,0,0,0,0,0,-1,1861,1086,0,0
644,-62,0,0,0,0,0,0,0,0,0,-1,1868,1086,0,0
651,-62,59.0352,2.49463,-0.00302326,-0.000979287,-0.000651531,-0.000789271,-0.00321327,-1.28702,0.00193356,0.0397769,1875,1086,59.0352,-2.49465
658,-62,59.0508,2.64417,-0.00153738,-0.000352888,-0.000608045,-9.63259e-05,-0.00179394,-1.17152,0.00116518,0.0389912,1882,1086,59.0508,-2.64416
665,-62,58.963,2.62646,-0.000619055,3.68352e-05,-0.000456779,0.000271202,-0.000853421,-1.09673,0.000677685,0.0369854,1889,1086,58.963,-2.6265
672,-62,58.948,2.63904,-2.25372e-05,0.000356981,-0.000213418,0.000452801,-0.000118358,-1.14879,0.000348093,0.0355953,1896,1086,58.948,-2.63901
679,-62,59.0292,2.63184,0.000281208,0.000634815,3.80316e-05,0.000638859,0.000277164,1.46486,0.00036992,0.0376123,1903,1086,59.0292,-2.63179
686,-62,59.0101,2.57703,0.000268749,0.000549107,0.000399621,0.000832422,-1.45659e-05,0.954082,0.000559867,0.0413434,1910,1086,59.0102,-2.57699
693,-62,58.9963,2.59692,0.000248633,0.000325236,0.000768307,0.0010562,-0.000482326,0.810304,0.00090863,0.038723,1917,1086,58.9963,-2.59695
700,-62,59.0455,2.62451,0.000236688,0.000215086,0.00109821,0.00132415,-0.000872372,0.780481,0.00127707,0.0306092,1924,1086,59.0456,-2.62446
707,-62,59.0321,2.59814,-1.94335e-06,0.000211767,0.00141182,0.00152077,-0.00131094,0.823169,0.00163638,0.0196811,1931,1086,59.0321,-2.59818
714,-62,59.0254,2.60596,-0.000468407,0.000322341,0.00175295,0.00172395,-0.00187002,0.896316,0.00207555,0.0371747,1938,1086,59.0254,-2.60598
721,-62,59.0781,2.70203,0,0,0,0,0,0,0,-1,1945,1086,59.0782,-2.70199
728,-62,57.1692,7.39136,0,0,0,0,0,0,0,-1,1952,1086,57.1691,-7.39141
735,-62,57.108,6.96143,-0.00287065,0.00168175,0.00242671,0.00273271,-0.00392161,1.1621,0.00386226,0.0288305,1959,1086,57.108,-6.96145
742,-62,57.0771,6.68774,-0.00383145,0.00233672,0.00240389,0.00316291,-0.00465764,1.23975,0.00454261,0.0297539,1966,1086,57.0771,-6.68779
749,-62,57.0496,6.36572,-0.00438651,0.00310492,0.00190845,0.00356308,-0.00484467,1.33519,0.00487298,0.0219863,1973,1086,57.0496,-6.36574
756,-62,56.9384,6.10925,-0.00481611,0.00440831,0.0009127,0.00449775,-0.00490555,1.47311,0.0054307,0.0149721,1980,1086,56.9383,-6.10919
763,-62,56.9,5.77026,-0.00512725,0.00701205,-0.00116273,0.00712241,-0.00523762,-1.47616,0.00716367,0.0170537,1987,1086,56.9,-5.77023
770,-62,56.8799,5.41846,-0.00494302,0.0099964,-0.00413352,0.0110638,-0.00601044,-1.31808,0.0100007,0.0145805,1994,1086,56.8799,-5.41846
777,-62,56.7478,5.0376,-0.00401338,0.0138561,-0.00841187,0.0171929,-0.00735011,-1.19316,0.0145448,0.0149235,2001,1086,56.7479,-5.03766
784,-62,56.6711,4.63538,-0.00229587,0.0182482,-0.013609,0.0250266,-0.00907434,-1.10868,0.0203936,0.0288207,2008,1086,56.6711,-4.63536
791,-62,56.6023,4.23865,0.000429219,0.0234572,-0.0199782,0.0350018,-0.0111154,-1.04681,0.0277908,0.0455696,2015,1086,56.6023,-4.2387
798,-62,56.5486,3.86609,0,0,0,0,0,0,0,-1,2022,1086,56.5485,-3.86604
805,-62,57.0669,2.46606,0.0103721,0.0379639,-0.0375927,0.0642123,-0.0158762,-0.96126,0.0489658,0.0415574,2029,1086,57.0668,-2.46609
812,-62,57.0283,0.724487,0.017748,0.0485974,-0.0491269,0.0846642,-0.0183188,-0.937513,0.063437,0.0483997,2036,1086,57.0283,-0.724481
-700,-69,-43.5921,-3.39319,0,0,0,0,0,0,0,-1,524,1093,-43.5921,3.39318
-693,-69,-43.0959,-1.88123,0,0,0,0,0,0,0,-1,531,1093,-43.0959,1.88117
-686,-69,-43.0612,-1.99023,0,0,0,0,0,0,0,-1,538,1093,-43.0612,1.99027
-679,-69,-43.4629,-1.97107,0,0,0,0,0,0,0,-1,545,1093,-43.4629,1.9711
-672,-69,-43.5167,-1.5929,0,0,0,0,0,0,0,-1,552,1093,-43.5167,1.59294
-665,-69,-43.5956,-0.956299,0,0,0,0,0,0,0,-1,559,1093,-43.5956,0.956304
-658,-69,-43.0488,0.390991,0.0349094,0.019085,-0.0115147,0.0409683,0.0130261,-0.484377,0.02417,0.0441112,566,1093,-43.0487,-0.391019
-651,-69,-42.4621,1.89966,0.0267823,0.0155856,-0.00679452,0.0299877,0.0123801,-0.440812,0.0174009,0.0361379,573,1093,-42.4621,-1.89966
-644,-69,-42.4457,2.36023,0.020128,0.0123982,-0.00419548,0.0219674,0.0105588,-0.413195,0.0126861,0.0109775,580,1093,-42.4457,-2.36021
-637,-69,-42.4967,2.78943,0.0131476,0.00780695,-0.000705839,0.0132393,0.00771524,-0.129209,0.00767852,0.0120843,587,1093,-42.4967,-2.78937
-630,-69,-42.5524,3.15247,0.00755149,0.00533007,0.00113963,0.00803215,0.00484942,0.399125,0.00467052,0.0143659,594,1093,-42.5524,-3.15242
-623,-69,-42.5577,3.53784,0.00410838,0.00278345,0.000640415,0.00436732,0.00252451,0.384239,0.00253169,0.0168376,601,1093,-42.5577,-3.5378
-616,-69,-42.5863,3.91736,0.00235047,0.00187205,7.15643e-05,0.00236095,0.00186158,0.145348,0.00143673,0.0205877,608,1093,-42.5863,-3.91737
-609,-69,-42.5937,4.28528,0.00209712,0.000464172,-0.00116571,0.00270385,-0.000142555,-0.479898,0.00185191,0.0189505,615,1093,-42.5937,-4.28532
-602,-69,-42.542,4.73535,0.00215753,-0.000799938,-0.00234833,0.00345392,-0.00209633,-0.504414,0.00323624,0.0197799,622,1093,-42.542,-4.7353
-595,-69,-42.4347,5.09106,0.00175073,-0.00139613,-0.00277909,0.00337089,-0.0030163,-0.527813,0.00368954,0.0406831,629,1093,-42.4347,-5.09112
-588,-69,-42.4302,5.43396,0,0,0,0,0,0,0,-1,636,1093,-42.4302,-5.43399
-581,-69,-44.5842,0.86438,0,0,0,0,0,0,0,-1,643,1093,-44.5842,-0.864388
-574,-69,-44.5731,0.897583,0.00272278,-0.0021246,-0.0030473,0.00419272,-0.00359454,-0.449446,0.00450039,0.0318677,650,1093,-44.5731,-0.897523
-567,-69,-44.5871,1.04443,0.00296056,-0.00197844,-0.00303898,0.0044069,-0.00342478,-0.444207,0.00453346,0.0367267,657,1093,-44.5871,-1.04444
-560,-69,-44.624,1.22339,0.00306179,-0.00164358,-0.00292039,0.00445928,-0.00304107,-0.446323,0.00435605,0.0393672,664,1093,-44.624,-1.22337
-553,-69,-44.5454,0.992432,0.00304972,-0.0012229,-0.00255557,0.00424428,-0.00241747,-0.43726,0.00389407,0.0418055,671,1093,-44.5454,-0.992409
-546,-69,-44.5682,0.919922,0.00325805,-0.000964828,-0.00179748,0.00391953,-0.00162631,-0.352626,0.00329188,0.0389234,678,1093,-44.5682,-0.919873
-539,-69,-44.6577,0.78186,0.00415259,-0.00146363,-0.000675881,0.00423278,-0.00154383,-0.118098,0.00345347,0.0401397,685,1093,-44.6577,-0.781892
-532,-69,-44.4086,0.708252,0.00446602,-0.00190245,0.000763609,0.0045563,-0.00199273,0.117682,0.00387644,0.0439307,692,1093,-44.4086,-0.708299
-525,-69,0,0,0,0,0,0,0,0,0,-1,699,1093,0,0
-518,-69,0,0,0,0,0,0,0,0,0,-1,706,1093,0,0
-511,-69,0,0,0,0,0,0,0,0,0,-1,713,1093,0,0
-504,-69,0,0,0,0,0,0,0,0,0,-1,720,1093,0,0
-497,-69,0,0,0,0,0,0,0,0,0,-1,727,1093,0,0
-490,-69,0,0,0,0,0,0,0,0,0,-1,734,1093,0,0
-483,-69,0,0,0,0,0,0,0,0,0,-1,741,1093,0,0
-476,-69,0,0,0,0,0,0,0,0,0,-1,748,1093,0,0
-469,-69,0,0,0,0,0,0,0,0,0,-1,755,1093,0,0
-462,-69,0,0,0,0,0,0,0,0,0,-1,762,1093,0,0
-455,-69,0,0,0,0,0,0,0,0,0,-1,769,1093,0,0
-448,-69,0,0,0,0,0,0,0,0,0,-1,776,1093,0,0
-441,-69,0,0,0,0,0,0,0,0,0,-1,783,1093,0,0
-434,-69,0,0,0,0,0,0,0,0,0,-1,790,1093,0,0
-427,-69,0,0,0,0,0,0,0,0,0,-1,797,1093,0,0
-420,-69,0,0,0,0,0,0,0,0,0,-1,804,1093,0,0
-413,-69,0,0,0,0,0,0,0,0,0,-1,811,1093,0,0
-406,-69,0,0,0,0,0,0,0,0,0,-1,818,1093,0,0
-399,-69,0,0,0,0,0,0,0,0,0,-1,825,1093,0,0
-392,-69,0,0,0,0,0,0,0,0,0,-1,832,1093,0,0
-385,-69,0,0,0,0,0,0,0,0,0,-1,839,1093,0,0
-378,-69,0,0,0,0,0,0,0,0,0,-1,846,1093,0,0
-371,-69,0,0,0,0,0,0,0,0,0,-1,853,1093,0,0
-364,-69,0,0,0,0,0,0,0,0,0,-1,860,1093,0,0
-357,-69,0,0,0,0,0,0,0,0,0,-1,867,1093,0,0
-350,-69,0,0,0,0,0,0,0,0,0,-1,874,1093,0,0
-343,-69,0,0,0,0,0,0,0,0,0,-1,881,1093,0,0
-336,-69,0,0,0,0,0,0,0,0,0,-1,888,1093,0,0
-329,-69,0,0,0,0,0,0,0,0,0,-1,895,1093,0,0
-322,-69,0,0,0,0,0,0,0,0,0,-1,902,1093,0,0
-315,-69,0,0,0,0,0,0,0,0,0,-1,909,1093,0,0
-308,-69,0,0,0,0,0,0,0,0,0,-1,916,1093,0,0
-301,-69,0,0,0,0,0,0,0,0,0,-1,923,1093,0,0
-294,-69,0,0,0,0,0,0,0,0,0,-1,930,1093,0,0
-287,-69,0,0,0,0,0,0,0,0,0,-1,937,1093,0,0
-280,-69,0,0,0,0,0,0,0,0,0,-1,944,1093,0,0
-273,-69,0,0,0,0,0,0,0,0,0,-1,951,1093,0,0
-266,-69,0,0,0,0,0,0,0,0,0,-1,958,1093,0,0
-259,-69,0,0,0,0,0,0,0,0,0,-1,965,1093,0,0
-252,-69,0,0,0,0,0,0,0,0,0,-1,972,1093,0,0
-245,-69,0,0,0,0,0,0,0,0,0,-1,979,1093,0,0
-238,-69,0,0,0,0,0,0,0,0,0,-1,986,1093,0,0
-231,-69,0,0,0,0,0,0,0,0,0,-1,993,1093,0,0
-224,-69,0,0,0,0,0,0,0,0,0,-1,1000,1093,0,0
-217,-69,0,0,0,0,0,0,0,0,0,-1,1007,1093,0,0
-210,-69,0,0,0,0,0,0,0,0,0,-1,1014,1093,0,0
-203,-69,0,0,0,0,0,0,0,0,0,-1,1021,1093,0,0
-196,-69,0,0,0,0,0,0,0,0,0,-1,1028,1093,0,0
-189,-69,0,0,0,0,0,0,0,0,0,-1,1035,1093,0,0
-182,-69,0,0,0,0,0,0,0,0,0,-1,1042,1093,0,0
-175,-69,0,0,0,0,0,0,0,0,0,-1,1049,1093,0,0
-168,-69,0,0,0,0,0,0,0,0,0,-1,1056,1093,0,0
-161,-69,0,0,0,0,0,0,0,0,0,-1,1063,1093,0,0
-154,-69,0,0,0,0,0,0,0,0,0,-1,1070,1093,0,0
-147,-69,0,0,0,0,0,0,0,0,0,-1,1077,1093,0,0
-140,-69,0,0,0,0,0,0,0,0,0,-1,1084,1093,0,0
-133,-69,0,0,0,0,0,0,0,0,0,-1,1091,1093,0,0
-126,-69,0,0,0,0,0,0,0,0,0,-1,1098,1093,0,0
-119,-69,0,0,0,0,0,0,0,0,0,-1,1105,1093,0,0
-112,-69,0,0,0,0,0,0,0,0,0,-1,1112,1093,0,0
-105,-69,0,0,0,0,0,0,0,0,0,-1,1119,1093,0,0
-98,-69,0,0,0,0,0,0,0,0,0,-1,1126,1093,0,0
-91,-69,0,0,0,0,0,0,0,0,0,-1,1133,1093,0,0
-84,-69,0,0,0,0,0,0,0,0,0,-1,1140,1093,0,0
-77,-69,0,0,0,0,0,0,0,0,0,-1,1147,1093,0,0
-70,-69,0,0,0,0,0,0,0,0,0,-1,1154,1093,0,0
-63,-69,0,0,0,0,0,0,0,0,0,-1,1161,1093,0,0
-56,-69,0,0,0,0,0,0,0,0,0,-1,1168,1093,0,0
-49,-69,0,0,0,0,0,0,0,0,0,-1,1175,1093,0,0
-42,-69,0,0,0,0,0,0,0,0,0,-1,1182,1093,0,0
-35,-69,0,0,0,0,0,0,0,0,0,-1,1189,1093,0,0
-28,-69,0,0,0,0,0,0,0,0,0,-1,1196,1093,0,0
-21,-69,0,0,0,0,0,0,0,0,0,-1,1203,1093,0,0
-14,-69,0,0,0,0,0,0,0,0,0,-1,1210,1093,0,0
-7,-69,0,0,0,0,0,0,0,0,0,-1,1217,1093,0,0
0,-69,0,0,0,0,0,0,0,0,0,-1,1224,1093,0,0
7,-69,0,0,0,0,0,0,0,0,0,-1,1231,1093,0,0
14,-69,0,0,0,0,0,0,0,0,0,-1,1238,1093,0,0
21,-69,0,0,0,0,0,0,0,0,0,-1,1245,1093,0,0
28,-69,0,0,0,0,0,0,0,0,0,-1,1252,1093,0,0
35,-69,0,0,0,0,0,0,0,0,0,-1,1259,1093,0,0
42,-69,0,0,0,0,0,0,0,0,0,-1,1266,1093,0,0
49,-69,0,0,0,0,0,0,0,0,0,-1,1273,1093,0,0
56,-69,0,0,0,0,0,0,0,0,0,-1,1280,1093,0,0
63,-69,0,0,0,0,0,0,0,0,0,-1,1287,1093,0,0
70,-69,0,0,0,0,0,0,0,0,0,-1,1294,1093,0,0
77,-69,0,0,0,0,0,0,0,0,0,-1,1301,1093,0,0
84,-69,0,0,0,0,0,0,0,0,0,-1,1308,1093,0,0
91,-69,0,0,0,0,0,0,0,0,0,-1,1315,1093,0,0
98,-69,0,0,0,0,0,0,0,0,0,-1,1322,1093,0,0
105,-69,0,0,0,0,0,0,0,0,0,-1,1329,1093,0,0
112,-69,0,0,0,0,0,0,0,0,0,-1,1336,1093,0,0
119,-69,0,0,0,0,0,0,0,0,0,-1,1343,1093,0,0
126,-69,0,0,0,0,0,0,0,0,0,-1,1350,1093,0,0
133,-69,0,0,0,0,0,0,0,0,0,-1,1357,1093,0,0
140,-69,0,0,0,0,0,0,0,0,0,-1,1364,1093,0,0
147,-69,0,0,0,0,0,0,0,0,0,-1,1371,1093,0,0
154,-69,0,0,0,0,0,0,0,0,0,-1,1378,1093,0,0
161,-69,0,0,0,0,0,0,0,0,0,-1,1385,1093,0,0
168,-69,0,0,0,0,0,0,0,0,0,-1,1392,1093,0,0
175,-69,0,0,0,0,0,0,0,0,0,-1,1399,1093,0,0
182,-69,0,0,0,0,0,0,0,0,0,-1,1406,1093,0,0
189,-69,0,0,0,0,0,0,0,0,0,-1,1413,1093,0,0
196,-69,0,0,0,0,0,0,0,0,0,-1,1420,1093,0,0
203,-69,0,0,0,0,0,0,0,0,0,-1,1427,1093,0,0
210,-69,0,0,0,0,0,0,0,0,0,-1,1434,1093,0,0
217,-69,0,0,0,0,0,0,0,0,0,-1,1441,1093,0,0
224,-69,0,0,0,0,0,0,0,0,0,-1,1448,1093,0,0
231,-69,0,0,0,0,0,0,0,0,0,-1,1455,1093,0,0
238,-69,0,0,0,0,0,0,0,0,0,-1,1462,1093,0,0
245,-69,0,0,0,0,0,0,0,0,0,-1,1469,1093,0,0
252,-69,0,0,0,0,0,0,0,0,0,-1,1476,1093,0,0
259,-69,0,0,0,0,0,0,0,0,0,-1,1483,1093,0,0
266,-69,0,0,0,0,0,0,0,0,0,-1,1490,1093,0,0
273,-69,0,0,0,0,0,0,0,0,0,-1,1497,1093,0,0
280,-69,0,0,0,0,0,0,0,0,0,-1,1504,1093,0,0
287,-69,0,0,0,0,0,0,0,0,0,-1,1511,1093,0,0
294,-69,0,0,0,0,0,0,0,0,0,-1,1518,1093,0,0
301,-69,0,0,0,0,0,0,0,0,0,-1,1525,1093,0,0
308,-69,0,0,0,0,0,0,0,0,0,-1,1532,1093,0,0
315,-69,0,0,0,0,0,0,0,0,0,-1,1539,1093,0,0
322,-69,0,0,0,0,0,0,0,0,0,-1,1546,1093,0,0
329,-69,0,0,0,0,0,0,0,0,0,-1,1553,1093,0,0
336,-69,0,0,0,0,0,0,0,0,0,-1,1560,1093,0,0
343,-69,0,0,0,0,0,0,0,0,0,-1,1567,1093,0,0
350,-69,0,0,0,0,0,0,0,0,0,-1,1574,1093,0,0
357,-69,0,0,0,0,0,0,0,0,0,-1,1581,1093,0,0
364,-69,0,0,0,0,0,0,0,0,0,-1,1588,1093,0,0
371,-69,0,0,0,0,0,0,0,0,0,-1,1595,1093,0,0
378,-69,0,0,0,0,0,0,0,0,0,-1,1602,1093,0,0
385,-69,0,0,0,0,0,0,0,0,0,-1,1609,1093,0,0
392,-69,0,0,0,0,0,0,0,0,0,-1,1616,1093,0,0
399,-69,0,0,0,0,0,0,0,0,0,-1,1623,1093,0,0
406,-69,0,0,0,0,0,0,0,0,0,-1,1630,1093,0,0
413,-69,0,0,0,0,0,0,0,0,0,-1,1637,1093,0,0
420,-69,0,0,0,0,0,0,0,0,0,-1,1644,1093,0,0
427,-69,0,0,0,0,0,0,0,0,0,-1,1651,1093,0,0
434,-69,0,0,0,0,0,0,0,0,0,-1,1658,1093,0,0
441,-69,0,0,0,0,0,0,0,0,0,-1,1665,1093,0,0
448,-69,0,0,0,0,0,0,0,0,0,-1,1672,1093,0,0
455,-69,0,0,0,0,0,0,0,0,0,-1,1679,1093,0,0
462,-69,0,0,0,0,0,0,0,0,0,-1,1686,1093,0,0
469,-69,0,0,0,0,0,0,0,0,0,-1,1693,1093,0,0
476,-69,0,0,0,0,0,0,0,0,0,-1,1700,1093,0,0
483,-69,0,0,0,0,0,0,0,0,0,-1,1707,1093,0,0
490,-69,0,0,0,0,0,0,0,0,0,-1,1714,1093,0,0
497,-69,0,0,0,0,0,0,0,0,0,-1,1721,1093,0,0
504,-69,0,0,0,0,0,0,0,0,0,-1,1728,1093,0,0
511,-69,0,0,0,0,0,0,0,0,0,-1,1735,1093,0,0
518,-69,0,0,0,0,0,0,0,0,0,-1,1742,1093,0,0
525,-69,0,0,0,0,0,0,0,0,0,-1,1749,1093,0,0
532,-69,0,0,0,0,0,0,0,0,0,-1,1756,1093,0,0
539,-69,0,0,0,0,0,0,0,0,0,-1,1763,1093,0,0
546,-69,0,0,0,0,0,0,0,0,0,-1,1770,1093,0,0
553,-69,0,0,0,0,0,0,0,0,0,-1,1777,1093,0,0
560,-69,0,0,0,0,0,0,0,0,0,-1,1784,1093,0,0
567,-69,0,0,0,0,0,0,0,0,0,-1,1791,1093,0,0
574,-69,0,0,0,0,0,0,0,0,0,-1,1798,1093,0,0
581,-69,0,0,0,0,0,0,0,0,0,-1,1805,1093,0,0
588,-69,0,0,0,0,0,0,0,0,0,-1,1812,1093,0,0
595,-69,0,0,0,0,0,0,0,0,0,-1,1819,1093,0,0
602,-69,0,0,0,0,0,0,0,0,0,-1,1826,1093,0,0
609,-69,0,0,0,0,0,0,0,0,0,-1,1833,1093,0,0
616,-69,0,0,0,0,0,0,0,0,0,-1,1840,1093,0,0
623,-69,0,0,0,0,0,0,0,0,0,-1,1847,1093,0,0
630,-69,0,0,0,0,0,0,0,0,0,-1,1854,1093,0,0
637,-69,0,0,0,0,0,0,0,0,0,-1,1861,1093,0,0
644,-69,0,0,0,0,0,0,0,0,0,-1,1868,1093,0,0
651,-69,59.0359,2.78455,-0.00244677,-0.00130149,-0.00118114,-0.000561496,-0.00318677,-1.01111,0.00196428,0.0416473,1875,1093,59.0359,-2.78451
658,-69,59.0509,2.79993,-0.00114406,-0.000620275,-0.000992796,0.000144589,-0.00190893,-0.914358,0.00132345,0.0428203,1882,1093,59.0509,-2.79992
665,-69,59.027,2.76904,-0.000345308,-0.000182413,-0.000722982,0.000463695,-0.000991416,-0.841489,0.000858327,0.0407627,1889,1093,59.027,-2.769
672,-69,58.8868,2.66162,0.000168235,0.00018419,-0.000406452,0.000582743,-0.000230318,-0.79521,0.000483897,0.0353691,1896,1093,58.8869,-2.66161
679,-69,58.8846,2.57092,0.000386563,0.000487815,-0.000108876,0.00055726,0.000317118,-1.00302,0.000322756,0.036203,1903,1093,58.8846,-2.57088
686,-69,59.0328,2.53564,0.000388923,0.000427903,0.000281496,0.000690583,0.000126244,0.819962,0.00042461,0.0387718,1910,1093,59.0328,-2.53564
693,-69,59.015,2.46313,0.000416793,0.000221787,0.000648561,0.000975139,-0.000336559,0.710788,0.000786656,0.0358609,1917,1093,59.015,-2.4631
700,-69,59.0228,2.44653,0.000454981,0.000127696,0.000958722,0.00126393,-0.000681249,0.700869,0.00113972,0.0277099,1924,1093,59.0229,-2.44652
707,-69,59.0009,2.56848,0.000241687,0.000141842,0.00127235,0.00146509,-0.00108156,0.76579,0.00147586,0.0205117,1931,1093,59.0009,-2.56849
714,-69,58.9956,2.5354,-0.000194721,0.000250546,0.00162472,0.00166781,-0.00161199,0.853489,0.00189368,0.0302269,1938,1093,58.9956,-2.53536
721,-69,58.9738,2.48267,0,0,0,0,0,0,0,-1,1945,1093,58.9737,-2.48272
728,-69,56.3951,7.58154,0,0,0,0,0,0,0,-1,1952,1093,56.3951,-7.58148
735,-69,56.7245,7.12683,-0.00254683,0.00148652,0.00227963,0.00251348,-0.00357379,1.14753,0.00353221,0.0414633,1959,1093,56.7245,-7.12684
742,-69,56.6677,6.823,-0.00366763,0.00214902,0.00223355,0.00290773,-0.00442634,1.24334,0.00426447,0.030754,1966,1093,56.6678,-6.82297
749,-69,56.6501,6.42273,0,0,0,0,0,0,0,-1,1973,1093,56.6501,-6.42268
756,-69,56.5571,6.09265,-0.0052056,0.00413435,0.000735868,0.00419197,-0.00526323,1.49265,0.00547063,0.017516,1980,1093,56.5571,-6.09268
763,-69,56.5289,5.71472,-0.00620064,0.00651251,-0.00139165,0.00666306,-0.0063512,-1.46303,0.0075145,0.0186874,1987,1093,56.5289,-5.71467
770,-69,56.4463,5.39697,-0.00699463,0.00928803,-0.00446733,0.0104332,-0.00813976,-1.31987,0.0107503,0.0196565,1994,1093,56.4462,-5.397
777,-69,56.2944,5.04858,-0.00747169,0.0127621,-0.00881463,0.0160634,-0.010773,-1.21244,0.0155941,0.0240191,2001,1093,56.2944,-5.04856
784,-69,56.1863,4.39746,-0.00745633,0.0166392,-0.014077,0.02312,-0.0139372,-1.13934,0.0216128,0.0331337,2008,1093,56.1863,-4.39746
791,-69,56.1333,3.98486,-0.00683097,0.0211563,-0.0205292,0.0320076,-0.0176823,-1.08455,0.0290831,0.0451797,2015,1093,56.1334,-3.98484
798,-69,56.3042,3.37842,0,0,0,0,0,0,0,-1,2022,1093,56.3041,-3.37843
805,-69,56.3389,2.45435,0,0,0,0,0,0,0,-1,2029,1093,56.3388,-2.45437
812,-69,56.1189,1.20337,0,0,0,0,0,0,0,-1,2036,1093,56.1188,-1.2034
-700,-76,0,0,0,0,0,0,0,0,0,-1,524,1100,0,0
-693,-76,-41.3858,0.950806,0,0,0,0,0,0,0,-1,531,1100,-41.3858,-0.950821
-686,-76,-42.5787,-1.66846,0,0,0,0,0,0,0,-1,538,1100,-42.5787,1.66849
-679,-76,-42.3833,-0.703125,0,0,0,0,0,0,0,-1,545,1100,-42.3833,0.703137
-672,-76,-42.1674,0.318848,0,0,0,0,0,0,0,-1,552,1100,-42.1674,-0.318892
-665,-76,-43.8005,-1.08313,0,0,0,0,0,0,0,-1,559,1100,-43.8005,1.08313
-658,-76,-42.3392,0.683105,0.0351039,0.00691012,-0.0159797,0.042316,-0.000302006,-0.423959,0.0283119,0.0459154,566,1100,-42.3393,-0.683048
-651,-76,-41.9197,1.77356,0.0270426,0.00626008,-0.010323,0.0312986,0.00200404,-0.391053,0.0202308,0.0335822,573,1100,-41.9197,-1.77356
-644,-76,-41.9214,2.33301,0.0203836,0.00534631,-0.00674566,0.0229661,0.00276377,-0.365631,0.0144777,0.0124888,580,1100,-41.9214,-2.33307
-637,-76,-42.0154,2.7074,0.0134619,0.00342065,-0.00243948,0.0140232,0.00285936,-0.226149,0.00855644,0.0146991,587,1100,-42.0155,-2.70746
-630,-76,-42.0754,3.10974,0.00786696,0.00312363,7.19341e-05,0.00786805,0.00312254,0.0151607,0.00457472,0.0146096,594,1100,-42.0754,-3.10968
-623,-76,-42.1128,3.50586,0.00435481,0.00185692,0.000188879,0.00436901,0.00184272,0.0750469,0.00253272,0.0179814,601,1100,-42.1128,-3.50585
-616,-76,-42.1671,3.92517,0.00254874,0.00153278,-5.50194e-05,0.00255172,0.00152981,-0.0539448,0.00148293,0.0182333,608,1100,-42.1671,-3.9252
-609,-76,-42.1663,4.33301,0.00238303,0.00043967,-0.00109676,0.00287663,-5.39331e-05,-0.422898,0.00193598,0.0190132,615,1100,-42.1663,-4.33304
-602,-76,-42.0997,4.78613,0.00251797,-0.000598031,-0.00202802,0.00351736,-0.00159741,-0.457862,0.00302157,0.0192723,622,1100,-42.0997,-4.78608
-595,-76,-42.066,5.15308,0.00202075,-0.00106121,-0.0023247,0.00326883,-0.00230929,-0.492713,0.00323637,0.0352424,629,1100,-42.066,-5.15305
-588,-76,-42.0863,5.44531,0,0,0,0,0,0,0,-1,636,1100,-42.0863,-5.4453
-581,-76,-44.5344,0.78772,0,0,0,0,0,0,0,-1,643,1100,-44.5344,-0.787757
-574,-76,-44.5999,0.749512,0.00278981,-0.0016216,-0.00252874,0.00393965,-0.00277144,-0.426761,0.00389417,0.0337257,650,1100,-44.5999,-0.749496
-567,-76,-44.655,0.709351,0.00297211,-0.00148506,-0.00253889,0.00412177,-0.00263473,-0.425197,0.00393223,0.0404978,657,1100,-44.655,-0.709389
-560,-76,-44.5553,0.686768,0.00300228,-0.00120027,-0.00249689,0.00416441,-0.0023624,-0.435613,0.00381583,0.0435896,664,1100,-44.5553,-0.686784
-553,-76,-44.3582,0.779541,0.00280214,-0.000868563,-0.00229633,0.00390646,-0.00197288,-0.448255,0.00345509,0.0450331,671,1100,-44.3582,-0.779485
-546,-76,-44.4574,0.956177,0.00279676,-0.000763388,-0.00184289,0.00357889,-0.00154552,-0.401367,0.00303523,0.0432085,678,1100,-44.4574,-0.95619
-539,-76,-44.6943,0.828857,0.00361881,-0.00147219,-0.00111557,0.00385253,-0.00170591,-0.20652,0.00328797,0.0418425,685,1100,-44.6943,-0.828857
-532,-76,-44.5289,0.786133,0.00391942,-0.00216272,-0.00020602,0.00392639,-0.00216969,-0.0338213,0.00356795,0.0424186,692,1100,-44.5289,-0.786094
-525,-76,0,0,0,0,0,0,0,0,0,-1,699,1100,0,0
-518,-76,0,0,0,0,0,0,0,0,0,-1,706,1100,0,0
-511,-76,0,0,0,0,0,0,0,0,0,-1,713,1100,0,0
-504,-76,0,0,0,0,0,0,0,0,0,-1,720,1100,0,0
-497,-76,0,0,0,0,0,0,0,0,0,-1,727,1100,0,0
-490,-76,0,0,0,0,0,0,0,0,0,-1,734,1100,0,0
-483,-76,0,0,0,0,0,0,0,0,0,-1,741,1100,0,0
-476,-76,0,0,0,0,0,0,0,0,0,-1,748,1100,0,0
-469,-76,0,0,0,0,0,0,0,0,0,-1,755,1100,0,0
-462,-76,0,0,0,0,0,0,0,0,0,-1,762,1100,0,0
-455,-76,0,0,0,0,0,0,0,0,0,-1,769,1100,0,0
-448,-76,0,0,0,0,0,0,0,0,0,-1,776,1100,0,0
-441,-76,0,0,0,0,0,0,0,0,0,-1,783,1100,0,0
-434,-76,0,0,0,0,0,0,0,0,0,-1,790,1100,0,0
-427,-76,0,0,0,0,0,0,0,0,0,-1,797,1100,0,0
-420,-76,0,0,0,0,0,0,0,0,0,-1,804,1100,0,0
-413,-76,0,0,0,0,0,0,0,0,0,-1,811,1100,0,0
-406,-76,0,0,0,0,0,0,0,0,0,-1,818,1100,0,0
-399,-76,0,0,0,0,0,0,0,0,0,-1,825,1100,0,0
-392,-76,0,0,0,0,0,0,0,0,0,-1,832,1100,0,0
-385,-76,0,0,0,0,0,0,0,0,0,-1,839,1100,0,0
-378,-76,0,0,0,0,0,0,0,0,0,-1,846,1100,0,0
-371,-76,0,0,0,0,0,0,0,0,0,-1,853,1100,0,0
-364,-76,0,0,0,0,0,0,0,0,0,-1,860,1100,0,0
-357,-76,0,0,0,0,0,0,0,0,0,-1,867,1100,0,0
-350,-76,0,0,0,0,0,0,0,0,0,-1,874,1100,0,0
-343,-76,0,0,0,0,0,0,0,0,0,-1,881,1100,0,0
-336,-76,0,0,0,0,0,0,0,0,0,-1,888,1100,0,0
-329,-76,0,0,0,0,0,0,0,0,0,-1,895,1100,0,0
-322,-76,0,0,0,0,0,0,0,0,0,-1,902,1100,0,0
-315,-76,0,0,0,0,0,0,0,0,0,-1,909,1100,0,0
-308,-76,0,0,0,0,0,0,0,0,0,-1,916,1100,0,0
-301,-76,0,0,0,0,0,0,0,0,0,-1,923,1100,0,0
-294,-76,0,0,0,0,0,0,0,0,0,-1,930,1100,0,0
-287,-76,0,0,0,0,0,0,0,0,0,-1,937,1100,0,0
-280,-76,0,0,0,0,0,0,0,0,0,-1,944,1100,0,0
-273,-76,0,0,0,0,0,0,0,0,0,-1,951,1100,0,0
-266,-76,0,0,0,0,0,0,0,0,0,-1,958,1100,0,0
-259,-76,0,0,0,0,0,0,0,0,0,-1,965,1100,0,0
-252,-76,0,0,0,0,0,0,0,0,0,-1,972,1100,0,0
-245,-76,0,0,0,0,0,0,0,0,0,-1,979,1100,0,0
-238,-76,0,0,0,0,0,0,0,0,0,-1,986,1100,0,0
-231,-76,0,0,0,0,0,0,0,0,0,-1,993,1100,0,0
-224,-76,0,0,0,0,0,0,0,0,0,-1,1000,1100,0,0
-217,-76,0,0,0,0,0,0,0,0,0,-1,1007,1100,0,0
-210,-76,0,0,0,0,0,0,0,0,0,-1,1014,1100,0,0
-203,-76,0,0,0,0,0,0,0,0,0,-1,1021,1100,0,0
-196,-76,0,0,0,0,0,0,0,0,0,-1,1028,1100,0,0
-189,-76,0,0,0,0,0,0,0,0,0,-1,1035,1100,0,0
-182,-76,0,0,0,0,0,0,0,0,0,-1,1042,1100,0,0
-175,-76,0,0,0,0,0,0,0,0,0,-1,1049,1100,0,0
-168,-76,0,0,0,0,0,0,0,0,0,-1,1056,1100,0,0
-161,-76,0,0,0,0,0,0,0,0,0,-1,1063,1100,0,0
-154,-76,0,0,0,0,0,0,0,0,0,-1,1070,1100,0,0
-147,-76,0,0,0,0,0,0,0,0,0,-1,1077,1100,0,0
-140,-76,0,0,0,0,0,0,0,0,0,-1,1084,1100,0,0
-133,-76,0,0,0,0,0,0,0,0,0,-1,1091,1100,0,0
-126,-76,0,0,0,0,0,0,0,0,0,-1,1098,1100,0,0
-119,-76,0,0,0,0,0,0,0,0,0,-1,1105,1100,0,0
-112,-76,0,0,0,0,0,0,0,0,0,-1,1112,1100,0,0
-105,-76,0,0,0,0,0,0,0,0,0,-1,1119,1100,0,0
-98,-76,0,0,0,0,0,0,0,0,0,-1,1126,1100,0,0
-91,-76,0,0,0,0,0,0,0,0,0,-1,1133,1100,0,0
-84,-76,0,0,0,0,0,0,0,0,0,-1,1140,1100,0,0
-77,-76,0,0,0,0,0,0,0,0,0,-1,1147,1100,0,0
-70,-76,0,0,0,0,0,0,0,0,0,-1,1154,1100,0,0
-63,-76,0,0,0,0,0,0,0,0,0,-1,1161,1100,0,0
-56,-76,0,0,0,0,0,0,0,0,0,-1,1168,1100,0,0
-49,-76,0,0,0,0,0,0,0,0,0,-1,1175,1100,0,0
-42,-76,0,0,0,0,0,0,0,0,0,-1,1182,1100,0,0
-35,-76,0,0,0,0,0,0,0,0,0,-1,1189,1100,0,0
-28,-76,0,0,0,0,0,0,0,0,0,-1,1196,1100,0,0
-21,-76,0,0,0,0,0,0,0,0,0,-1,1203,1100,0,0
-14,-76,0,0,0,0,0,0,0,0,0,-1,1210,1100,0,0
-7,-76,0,0,0,0,0,0,0,0,0,-1,1217,1100,0,0
0,-76,0,0,0,0,0,0,0,0,0,-1,1224,1100,0,0
7,-76,0,0,0,0,0,0,0,0,0,-1,1231,1100,0,0
14,-76,0,0,0,0,0,0,0,0,0,-1,1238,1100,0,0
21,-76,0,0,0,0,0,0,0,0,0,-1,1245,1100,0,0
28,-76,0,0,0,0,0,0,0,0,0,-1,1252,1100,0,0
35,-76,0,0,0,0,0,0,0,0,0,-1,1259,1100,0,0
42,-76,0,0,0,0,0,0,0,0,0,-1,1266,1100,0,0
49,-76,0,0,0,0,0,0,0,0,0,-1,1273,1100,0,0
56,-76,0,0,0,0,0,0,0,0,0,-1,1280,1100,0,0
63,-76,0,0,0,0,0,0,0,0,0,-1,1287,1100,0,0
70,-76,0,0,0,0,0,0,0,0,0,-1,1294,1100,0,0
77,-76,0,0,0,0,0,0,0,0,0,-1,1301,1100,0,0
84,-76,0,0,0,0,0,0,0,0,0,-1,1308,1100,0,0
91,-76,0,0,0,0,0,0,0,0,0,-1,1315,1100,0,0
98,-76,0,0,0,0,0,0,0,0,0,-1,1322,1100,0,0
105,-76,0,0,0,0,0,0,0,0,0,-1,1329,1100,0,0
112,-76,0,0,0,0,0,0,0,0,0,-1,1336,1100,0,0
119,-76,0,0,0,0,0,0,0,0,0,-1,1343,1100,0,0
126,-76,0,0,0,0,0,0,0,0,0,-1,1350,1100,0,0
133,-76,0,0,0,0,0,0,0,0,0,-1,1357,1100,0,0
140,-76,0,0,0,0,0,0,0,0,0,-1,1364,1100,0,0
147,-76,0,0,0,0,0,0,0,0,0,-1,1371,1100,0,0
154,-76,0,0,0,0,0,0,0,0,0,-1,1378,1100,0,0
161,-76,0,0,0,0,0,0,0,0,0,-1,1385,1100,0,0
168,-76,0,0,0,0,0,0,0,0,0,-1,1392,1100,0,0
175,-76,0,0,0,0,0,0,0,0,0,-1,1399,1100,0,0
182,-76,0,0,0,0,0,0,0,0,0,-1,1406,1100,0,0
189,-76,0,0,0,0,0,0,0,0,0,-1,1413,1100,0,0
196,-76,0,0,0,0,0,0,0,0,0,-1,1420,1100,0,0
203,-76,0,0,0,0,0,0,0,0,0,-1,1427,1100,0,0
210,-76,0,0,0,0,0,0,0,0,0,-1,1434,1100,0,0
217,-76,0,0,0,0,0,0,0,0,0,-1,1441,1100,0,0
224,-76,0,0,0,0,0,0,0,0,0,-1,1448,1100,0,0
231,-76,0,0,0,0,0,0,0,0,0,-1,1455,1100,0,0
238,-76,0,0,0,0,0,0,0,0,0,-1,1462,1100,0,0
245,-76,0,0,0,0,0,0,0,0,0,-1,1469,1100,0,0
252,-76,0,0,0,0,0,0,0,0,0,-1,1476,1100,0,0
259,-76,0,0,0,0,0,0,0,0,0,-1,1483,1100,0,0
266,-76,0,0,0,0,0,0,0,0,0,-1,1490,1100,0,0
273,-76,0,0,0,0,0,0,0,0,0,-1,1497,1100,0,0
280,-76,0,0,0,0,0,0,0,0,0,-1,1504,1100,0,0
287,-76,0,0,0,0,0,0,0,0,0,-1,1511,1100,0,0
294,-76,0,0,0,0,0,0,0,0,0,-1,1518,1100,0,0
301,-76,0,0,0,0,0,0,0,0,0,-1,1525,1100,0,0
308,-76,0,0,0,0,0,0,0,0,0,-1,1532,1100,0,0
315,-76,0,0,0,0,0,0,0,0,0,-1,1539,1100,0,0
322,-76,0,0,0,0,0,0,0,0,0,-1,1546,1100,0,0
329,-76,0,0,0,0,0,0,0,0,0,-1,1553,1100,0,0
336,-76,0,0,0,0,0,0,0,0,0,-1,1560,1100,0,0
343,-76,0,0,0,0,0,0,0,0,0,-1,1567,1100,0,0
350,-76,0,0,0,0,0,0,0,0,0,-1,1574,1100,0,0
357,-76,0,0,0,0,0,0,0,0,0,-1,1581,1100,0,0
364,-76,0,0,0,0,0,0,0,0,0,-1,1588,1100,0,0
371,-76,0,0,0,0,0,0,0,0,0,-1,1595,1100,0,0
378,-76,0,0,0,0,0,0,0,0,0,-1,1602,1100,0,0
385,-76,0,0,0,0,0,0,0,0,0,-1,1609,1100,0,0
392,-76,0,0,0,0,0,0,0,0,0,-1,1616,1100,0,0
399,-76,0,0,0,0,0,0,0,0,0,-1,1623,1100,0,0
406,-76,0,0,0,0,0,0,0,0,0,-1,1630,1100,0,0
413,-76,0,0,0,0,0,0,0,0,0,-1,1637,1100,0,0
420,-76,0,0,0,0,0,0,0,0,0,-1,1644,1100,0,0
427,-76,0,0,0,0,0,0,0,0,0,-1,1651,1100,0,0
434,-76,0,0,0,0,0,0,0,0,0,-1,1658,1100,0,0
441,-76,0,0,0,0,0,0,0,0,0,-1,1665,1100,0,0
448,-76,0,0,0,0,0,0,0,0,0,-1,1672,1100,0,0
455,-76,0,0,0,0,0,0,0,0,0,-1,1679,1100,0,0
462,-76,0,0,0,0,0,0,0,0,0,-1,1686,1100,0,0
469,-76,0,0,0,0,0,0,0,0,0,-1,1693,1100,0,0
476,-76,0,0,0,0,0,0,0,0,0,-1,1700,1100,0,0
483,-76,0,0,0,0,0,0,0,0,0,-1,1707,1100,0,0
490,-76,0,0,0,0,0,0,0,0,0,-1,1714,1100,0,0
497,-76,0,0,0,0,0,0,0,0,0,-1,1721,1100,0,0
504,-76,0,0,0,0,0,0,0,0,0,-1,1728,1100,0,0
511,-76,0,0,0,0,0,0,0,0,0,-1,1735,1100,0,0
518,-76,0,0,0,0,0,0,0,0,0,-1,1742,1100,0,0
525,-76,0,0,0,0,0,0,0,0,0,-1,1749,1100,0,0
532,-76,0,0,0,0,0,0,0,0,0,-1,1756,1100,0,0
539,-76,0,0,0,0,0,0,0,0,0,-1,1763,1100,0,0
546,-76,0,0,0,0,0,0,0,0,0,-1,1770,1100,0,0
553,-76,0,0,0,0,0,0,0,0,0,-1,1777,1100,0,0
560,-76,0,0,0,0,0,0,0,0,0,-1,1784,1100,0,0
567,-76,0,0,0,0,0,0,0,0,0,-1,1791,1100,0,0
574,-76,0,0,0,0,0,0,0,0,0,-1,1798,1100,0,0
581,-76,0,0,0,0,0,0,0,0,0,-1,1805,1100,0,0
588,-76,0,0,0,0,0,0,0,0,0,-1,1812,1100,0,0
595,-76,0,0,0,0,0,0,0,0,0,-1,1819,1100,0,0
602,-76,0,0,0,0,0,0,0,0,0,-1,1826,1100,0,0
609,-76,0,0,0,0,0,0,0,0,0,-1,1833,1100,0,0
616,-76,0,0,0,0,0,0,0,0,0,-1,1840,1100,0,0
623,-76,0,0,0,0,0,0,0,0,0,-1,1847,1100,0,0
630,-76,0,0,0,0,0,0,0,0,0,-1,1854,1100,0,0
637,-76,0,0,0,0,0,0,0,0,0,-1,1861,1100,0,0
644,-76,0,0,0,0,0,0,0,0,0,-1,1868,1100,0,0
651,-76,58.9125,2.70422,-0.00186689,-0.00144108,-0.00145496,-0.00018353,-0.00312445,-0.858047,0.00202456,0.0425975,1875,1100,58.9125,-2.7042
658,-76,58.8673,2.6947,-0.000744843,-0.000710525,-0.00119906,0.000471504,-0.00192687,-0.792553,0.00146722,0.0424082,1882,1100,58.8673,-2.69469
665,-76,58.9727,2.53845,-7.08247e-05,-0.000232505,-0.000875924,0.000727982,-0.00103131,-0.739383,0.00102075,0.0387811,1889,1100,58.9727,-2.53847
672,-76,59.0295,2.6073,0.00034287,0.000153498,-0.000530698,0.000787262,-0.000290894,-0.697118,0.000644088,0.0353689,1896,1100,59.0295,-2.60728
679,-76,59.0646,2.64697,0.00046213,0.000440452,-0.000227732,0.000679281,0.000223301,-0.761618,0.000399779,0.03631,1903,1100,59.0645,-2.64697
686,-76,59.0902,2.56677,0.000488328,0.000376674,0.000154464,0.000596745,0.000268258,0.61199,0.000345115,0.037297,1910,1100,59.0902,-2.56674
693,-76,59.0299,2.48108,0.000565786,0.000179195,0.000499517,0.000908103,-0.000163122,0.600789,0.000666464,0.0364208,1917,1100,59.0299,-2.48104
700,-76,58.9955,2.41125,0.000660434,8.78849e-05,0.000769693,0.00119537,-0.000447047,0.607358,0.000980507,0.0309101,1924,1100,58.9955,-2.41129
707,-76,58.98,2.5636,0.00048063,0.000116658,0.0010746,0.00138855,-0.00079126,0.701518,0.00127416,0.0224248,1931,1100,58.98,-2.56355
714,-76,58.9985,2.49316,0,0,0,0,0,0,0,-1,1938,1100,58.9986,-2.49315
721,-76,45.1713,3.04919,0,0,0,0,0,0,0,-1,1945,1100,45.1713,-3.04915
728,-76,55.5125,7.58496,0,0,0,0,0,0,0,-1,1952,1100,55.5124,-7.58491
735,-76,55.9546,7.26953,-0.00214658,0.00128492,0.00204666,0.00223987,-0.00310153,1.13423,0.0030972,0.0482257,1959,1100,55.9546,-7.26953
742,-76,56.1821,6.88684,-0.00332939,0.00188897,0.00199967,0.00256712,-0.00400754,1.24384,0.00382612,0.0313173,1966,1100,56.1822,-6.88688
749,-76,56.1005,6.44849,-0.00413726,0.00253165,0.00150494,0.00285553,-0.00446115,1.35882,0.00425806,0.0293135,1973,1100,56.1004,-6.44843
756,-76,56.1477,6.08057,-0.005354,0.00371861,0.000540476,0.00375069,-0.00538609,1.5115,0.00530321,0.0178823,1980,1100,56.1477,-6.0806
763,-76,56.0948,5.69727,-0.0070456,0.00576523,-0.00163965,0.00597175,-0.00725213,-1.4455,0.00764673,0.0181826,1987,1100,56.0948,-5.6973
770,-76,55.9924,5.35999,-0.00885463,0.00816551,-0.00479158,0.00942174,-0.0101109,-1.31439,0.0112795,0.0190306,1994,1100,55.9924,-5.36
777,-76,55.8708,5.08679,-0.0107357,0.0110403,-0.00914779,0.0143731,-0.0140685,-1.22142,0.0164211,0.0228436,2001,1100,55.8708,-5.08678
784,-76,55.8293,4.45776,-0.0124395,0.0142195,-0.014446,0.0205461,-0.0187661,-1.15801,0.0227047,0.0339171,2008,1100,55.8294,-4.45782
791,-76,55.3086,3.87256,-0.0139681,0.017874,-0.0209839,0.0282931,-0.0243872,-1.10993,0.0304428,0.0419315,2015,1100,55.3085,-3.87253
798,-76,54.7917,3.26172,0,0,0,0,0,0,0,-1,2022,1100,54.7917,-3.26177
805,-76,55.9104,2.50208,-0.0161622,0.027408,-0.0388431,0.0501581,-0.0389122,-1.04096,0.0515612,0.0458336,2029,1100,55.9103,-2.50212
812,-76,55.4885,1.74915,-0.0172158,0.0340661,-0.0503525,0.0649303,-0.04808,-1.0209,0.0654879,0.0474908,2036,1100,55.4886,-1.74913
-700,-83,0,0,0,0,0,0,0,0,0,-1,524,1107,0,0
-693,-83,-48.6858,-8.57214,0,0,0,0,0,0,0,-1,531,1107,-48.6858,8.57209
-686,-83,-47.8683,-8.87781,0,0,0,0,0,0,0,-1,538,1107,-47.8683,8.87776
-679,-83,-46.9772,-9.16138,0,0,0,0,0,0,0,-1,545,1107,-46.9772,9.16133
-672,-83,-42.9031,0.115967,0,0,0,0,0,0,0,-1,552,1107,-42.9031,-0.115918
-665,-83,-42.522,0.584473,0,0,0,0,0,0,0,-1,559,1107,-42.522,-0.584423
-658,-83,-42.1582,0.933594,0.0355023,-0.00494349,-0.0201283,0.0438121,-0.0132533,-0.391526,0.0344854,0.0430641,566,1107,-42.1582,-0.933559
-651,-83,-41.535,1.5061,0.0273782,-0.00267514,-0.0135608,0.0325924,-0.00788941,-0.367083,0.0247803,0.0359682,573,1107,-41.535,-1.50605
-644,-83,-41.4578,2.1991,0.0206041,-0.00125047,-0.00899585,0.0238306,-0.00447702,-0.344378,0.0175706,0.0189135,580,1107,-41.4577,-2.19914
-637,-83,-41.5573,2.66614,0.0136544,-0.000574913,-0.00400809,0.0147057,-0.00162623,-0.25652,0.0103884,0.0136064,587,1107,-41.5572,-2.66619
-630,-83,-41.594,3.11865,0.00798593,0.00123757,-0.000950368,0.00811722,0.00110628,-0.137273,0.00508301,0.0174367,594,1107,-41.594,-3.11863
-623,-83,-41.662,3.49792,0.00437421,0.00114591,-0.000282184,0.00439869,0.00112143,-0.0865351,0.0026393,0.0186518,601,1107,-41.6621,-3.49792
-616,-83,-41.733,3.91296,0.00252374,0.00122338,-0.000262488,0.00257472,0.00117239,-0.191853,0.00148849,0.0162205,608,1107,-41.733,-3.91294
-609,-83,-41.6909,4.33948,0.00239642,0.000288656,-0.00110113,0.00286672,-0.000181649,-0.403659,0.00197449,0.0201106,615,1107,-41.6909,-4.33942
-602,-83,-41.6754,4.81702,0.00256521,-0.000639028,-0.00175917,0.00334248,-0.00141629,-0.416044,0.0028215,0.0183402,622,1107,-41.6754,-4.817
-595,-83,-41.6002,5.21448,0.00197284,-0.00105052,-0.00191975,0.00290465,-0.00198232,-0.451882,0.00283819,0.024469,629,1107,-41.6002,-5.21443
-588,-83,-41.6158,5.50403,0,0,0,0,0,0,0,-1,636,1107,-41.6158,-5.50407
-581,-83,-44.5293,0.765747,0,0,0,0,0,0,0,-1,643,1107,-44.5293,-0.765714
-574,-83,-44.5788,0.710327,0.00255671,-0.00156191,-0.00198288,0.00335618,-0.00236138,-0.383246,0.00331764,0.0361784,650,1107,-44.5788,-0.710337
-567,-83,-44.6956,0.673828,0.0027194,-0.0014448,-0.00197247,0.00350536,-0.00223076,-0.379183,0.00333889,0.0419992,657,1107,-44.6955,-0.673823
-560,-83,-44.7519,0.726074,0.00274126,-0.00117997,-0.00195632,0.00355034,-0.00198904,-0.392151,0.00324023,0.0443345,664,1107,-44.7519,-0.726107
-553,-83,-44.3591,0.674194,0.00242613,-0.000836971,-0.00187274,0.00327836,-0.00168919,-0.427059,0.00291652,0.0433615,671,1107,-44.3591,-0.67422
-546,-83,-44.4625,0.958862,0.00227565,-0.000649873,-0.00168685,0.00304563,-0.00141985,-0.428213,0.00263449,0.0405679,678,1107,-44.4625,-0.958817
-539,-83,-44.5994,0.838013,0.00307913,-0.0011495,-0.0013393,0.00346762,-0.00153799,-0.282324,0.00296071,0.0429657,685,1107,-44.5995,-0.838014
-532,-83,-44.4171,0.527466,0.00346545,-0.00166814,-0.000920852,0.00362563,-0.00182832,-0.172227,0.00320533,0.0443898,692,1107,-44.4171,-0.527473
-525,-83,0,0,0,0,0,0,0,0,0,-1,699,1107,0,0
-518,-83,0,0,0,0,0,0,0,0,0,-1,706,1107,0,0
-511,-83,0,0,0,0,0,0,0,0,0,-1,713,1107,0,0
-504,-83,0,0,0,0,0,0,0,0,0,-1,720,1107,0,0
-497,-83,0,0,0,0,0,0,0,0,0,-1,727,1107,0,0
-490,-83,0,0,0,0,0,0,0,0,0,-1,734,1107,0,0
-483,-83,0,0,0,0,0,0,0,0,0,-1,741,1107,0,0
-476,-83,0,0,0,0,0,0,0,0,0,-1,748,1107,0,0
-469,-83,0,0,0,0,0,0,0,0,0,-1,755,1107,0,0
-462,-83,0,0,0,0,0,0,0,0,0,-1,762,1107,0,0
-455,-83,0,0,0,0,0,0,0,0,0,-1,769,1107,0,0
-448,-83,0,0,0,0,0,0,0,0,0,-1,776,1107,0,0
-441,-83,0,0,0,0,0,0,0,0,0,-1,783,1107,0,0
-434,-83,0,0,0,0,0,0,0,0,0,-1,790,1107,0,0
-427,-83,0,0,0,0,0,0,0,0,0,-1,797,1107,0,0
-420,-83,0,0,0,0,0,0,0,0,0,-1,804,1107,0,0
-413,-83,0,0,0,0,0,0,0,0,0,-1,811,1107,0,0
-406,-83,0,0,0,0,0,0,0,0,0,-1,818,1107,0,0
-399,-83,0,0,0,0,0,0,0,0,0,-1,825,1107,0,0
-392,-83,0,0,0,0,0,0,0,0,0,-1,832,1107,0,0
-385,-83,0,0,0,0,0,0,0,0,0,-1,839,1107,0,0
-378,-83,0,0,0,0,0,0,0,0,0,-1,846,1107,0,0
-371,-83,0,0,0,0,0,0,0,0,0,-1,853,1107,0,0
-364,-83,0,0,0,0,0,0,0,0,0,-1,860,1107,0,0
-357,-83,0,0,0,0,0,0,0,0,0,-1,867,1107,0,0
-350,-83,0,0,0,0,0,0,0,0,0,-1,874,1107,0,0
-343,-83,0,0,0,0,0,0,0,0,0,-1,881,1107,0,0
-336,-83,0,0,0,0,0,0,0,0,0,-1,888,1107,0,0
-329,-83,0,0,0,0,0,0,0,0,0,-1,895,1107,0,0
-322,-83,0,0,0,0,0,0,0,0,0,-1,902,1107,0,0
-315,-83,0,0,0,0,0,0,0,0,0,-1,909,1107,0,0
-308,-83,0,0,0,0,0,0,0,0,0,-1,916,1107,0,0
-301,-83,0,0,0,0,0,0,0,0,0,-1,923,1107,0,0
-294,-83,0,0,0,0,0,0,0,0,0,-1,930,1107,0,0
-287,-83,0,0,0,0,0,0,0,0,0,-1,937,1107,0,0
-280,-83,0,0,0,0,0,0,0,0,0,-1,944,1107,0,0
-273,-83,0,0,0,0,0,0,0,0,0,-1,951,1107,0,0
-266,-83,0,0,0,0,0,0,0,0,0,-1,958,1107,0,0
-259,-83,0,0,0,0,0,0,0,0,0,-1,965,1107,0,0
-252,-83,0,0,0,0,0,0,0,0,0,-1,972,1107,0,0
-245,-83,0,0,0,0,0,0,0,0,0,-1,979,1107,0,0
-238,-83,0,0,0,0,0,0,0,0,0,-1,986,1107,0,0
-231,-83,0,0,0,0,0,0,0,0,0,-1,993,1107,0,0
-224,-83,0,0,0,0,0,0,0,0,0,-1,1000,1107,0,0
-217,-83,0,0,0,0,0,0,0,0,0,-1,1007,1107,0,0
-210,-83,0,0,0,0,0,0,0,0,0,-1,1014,1107,0,0
-203,-83,0,0,0,0,0,0,0,0,0,-1,1021,1107,0,0
-196,-83,0,0,0,0,0,0,0,0,0,-1,1028,1107,0,0
-189,-83,0,0,0,0,0,0,0,0,0,-1,1035,1107,0,0
-182,-83,0,0,0,0,0,0,0,0,0,-1,1042,1107,0,0
-175,-83,0,0,0,0,0,0,0,0,0,-1,1049,1107,0,0
-168,-83,0,0,0,0,0,0,0,0,0,-1,1056,1107,0,0
-161,-83,0,0,0,0,0,0,0,0,0,-1,1063,1107,0,0
-154,-83,0,0,0,0,0,0,0,0,0,-1,1070,1107,0,0
-147,-83,0,0,0,0,0,0,0,0,0,-1,1077,1107,0,0
-140,-83,0,0,0,0,0,0,0,0,0,-1,1084,1107,0,0
-133,-83,0,0,0,0,0,0,0,0,0,-1,1091,1107,0,0
-126,-83,0,0,0,0,0,0,0,0,0,-1,1098,1107,0,0
-119,-83,0,0,0,0,0,0,0,0,0,-1,1105,1107,0,0
-112,-83,0,0,0,0,0,0,0,0,0,-1,1112,1107,0,0
-105,-83,0,0,0,0,0,0,0,0,0,-1,1119,1107,0,0
-98,-83,0,0,0,0,0,0,0,0,0,-1,1126,1107,0,0
-91,-83,0,0,0,0,0,0,0,0,0,-1,1133,1107,0,0
-84,-83,0,0,0,0,0,0,0,0,0,-1,1140,1107,0,0
-77,-83,0,0,0,0,0,0,0,0,0,-1,1147,1107,0,0
-70,-83,0,0,0,0,0,0,0,0,0,-1,1154,1107,0,0
-63,-83,0,0,0,0,0,0,0,0,0,-1,1161,1107,0,0
-56,-83,0,0,0,0,0,0,0,0,0,-1,1168,1107,0,0
-49,-83,0,0,0,0,0,0,0,0,0,-1,1175,1107,0,0
-42,-83,0,0,0,0,0,0,0,0,0,-1,1182,1107,0,0
-35,-83,0,0,0,0,0,0,0,0,0,-1,1189,1107,0,0
-28,-83,0,0,0,0,0,0,0,0,0,-1,1196,1107,0,0
-21,-83,0,0,0,0,0,0,0,0,0,-1,1203,1107,0,0
-14,-83,0,0,0,0,0,0,0,0,0,-1,1210,1107,0,0
-7,-83,0,0,0,0,0,0,0,0,0,-1,1217,1107,0,0
0,-83,0,0,0,0,0,0,0,0,0,-1,1224,1107,0,0
7,-83,0,0,0,0,0,0,0,0,0,-1,1231,1107,0,0
14,-83,0,0,0,0,0,0,0,0,0,-1,1238,1107,0,0
21,-83,0,0,0,0,0,0,0,0,0,-1,1245,1107,0,0
28,-83,0,0,0,0,0,0,0,0,0,-1,1252,1107,0,0
35,-83,0,0,0,0,0,0,0,0,0,-1,1259,1107,0,0
42,-83,0,0,0,0,0,0,0,0,0,-1,1266,1107,0,0
49,-83,0,0,0,0,0,0,0,0,0,-1,1273,1107,0,0
56,-83,0,0,0,0,0,0,0,0,0,-1,1280,1107,0,0
63,-83,0,0,0,0,0,0,0,0,0,-1,1287,1107,0,0
70,-83,0,0,0,0,0,0,0,0,0,-1,1294,1107,0,0
77,-83,0,0,0,0,0,0,0,0,0,-1,1301,1107,0,0
84,-83,0,0,0,0,0,0,0,0,0,-1,1308,1107,0,0
91,-83,0,0,0,0,0,0,0,0,0,-1,1315,1107,0,0
98,-83,0,0,0,0,0,0,0,0,0,-1,1322,1107,0,0
105,-83,0,0,0,0,0,0,0,0,0,-1,1329,1107,0,0
112,-83,0,0,0,0,0,0,0,0,0,-1,1336,1107,0,0
119,-83,0,0,0,0,0,0,0,0,0,-1,1343,1107,0,0
126,-83,0,0,0,0,0,0,0,0,0,-1,1350,1107,0,0
133,-83,0,0,0,0,0,0,0,0,0,-1,1357,1107,0,0
140,-83,0,0,0,0,0,0,0,0,0,-1,1364,1107,0,0
147,-83,0,0,0,0,0,0,0,0,0,-1,1371,1107,0,0
154,-83,0,0,0,0,0,0,0,0,0,-1,1378,1107,0,0
161,-83,0,0,0,0,0,0,0,0,0,-1,1385,1107,0,0
168,-83,0,0,0,0,0,0,0,0,0,-1,1392,1107,0,0
175,-83,0,0,0,0,0,0,0,0,0,-1,1399,1107,0,0
182,-83,0,0,0,0,0,0,0,0,0,-1,1406,1107,0,0
189,-83,0,0,0,0,0,0,0,0,0,-1,1413,1107,0,0
196,-83,0,0,0,0,0,0,0,0,0,-1,1420,1107,0,0
203,-83,0,0,0,0,0,0,0,0,0,-1,1427,1107,0,0
210,-83,0,0,0,0,0,0,0,0,0,-1,1434,1107,0,0
217,-83,0,0,0,0,0,0,0,0,0,-1,1441,1107,0,0
224,-83,0,0,0,0,0,0,0,0,0,-1,1448,1107,0,0
231,-83,0,0,0,0,0,0,0,0,0,-1,1455,1107,0,0
238,-83,0,0,0,0,0,0,0,0,0,-1,1462,1107,0,0
245,-83,0,0,0,0,0,0,0,0,0,-1,1469,1107,0,0
252,-83,0,0,0,0,0,0,0,0,0,-1,1476,1107,0,0
259,-83,0,0,0,0,0,0,0,0,0,-1,1483,1107,0,0
266,-83,0,0,0,0,0,0,0,0,0,-1,1490,1107,0,0
273,-83,0,0,0,0,0,0,0,0,0,-1,1497,1107,0,0
280,-83,0,0,0,0,0,0,0,0,0,-1,1504,1107,0,0
287,-83,0,0,0,0,0,0,0,0,0,-1,1511,1107,0,0
294,-83,0,0,0,0,0,0,0,0,0,-1,1518,1107,0,0
301,-83,0,0,0,0,0,0,0,0,0,-1,1525,1107,0,0
308,-83,0,0,0,0,0,0,0,0,0,-1,1532,1107,0,0
315,-83,0,0,0,0,0,0,0,0,0,-1,1539,1107,0,0
322,-83,0,0,0,0,0,0,0,0,0,-1,1546,1107,0,0
329,-83,0,0,0,0,0,0,0,0,0,-1,1553,1107,0,0
336,-83,0,0,0,0,0,0,0,0,0,-1,1560,1107,0,0
343,-83,0,0,0,0,0,0,0,0,0,-1,1567,1107,0,0
350,-83,0,0,0,0,0,0,0,0,0,-1,1574,1107,0,0
357,-83,0,0,0,0,0,0,0,0,0,-1,1581,1107,0,0
364,-83,0,0,0,0,0,0,0,0,0,-1,1588,1107,0,0
371,-83,0,0,0,0,0,0,0,0,0,-1,1595,1107,0,0
378,-83,0,0,0,0,0,0,0,0,0,-1,1602,1107,0,0
385,-83,0,0,0,0,0,0,0,0,0,-1,1609,1107,0,0
392,-83,0,0,0,0,0,0,0,0,0,-1,1616,1107,0,0
399,-83,0,0,0,0,0,0,0,0,0,-1,1623,1107,0,0
406,-83,0,0,0,0,0,0,0,0,0,-1,1630,1107,0,0
413,-83,0,0,0,0,0,0,0,0,0,-1,1637,1107,0,0
420,-83,0,0,0,0,0,0,0,0,0,-1,1644,1107,0,0
427,-83,0,0,0,0,0,0,0,0,0,-1,1651,1107,0,0
434,-83,0,0,0,0,0,0,0,0,0,-1,1658,1107,0,0
441,-83,0,0,0,0,0,0,0,0,0,-1,1665,1107,0,0
448,-83,0,0,0,0,0,0,0,0,0,-1,1672,1107,0,0
455,-83,0,0,0,0,0,0,0,0,0,-1,1679,1107,0,0
462,-83,0,0,0,0,0,0,0,0,0,-1,1686,1107,0,0
469,-83,0,0,0,0,0,0,0,0,0,-1,1693,1107,0,0
476,-83,0,0,0,0,0,0,0,0,0,-1,1700,1107,0,0
483,-83,0,0,0,0,0,0,0,0,0,-1,1707,1107,0,0
490,-83,0,0,0,0,0,0,0,0,0,-1,1714,1107,0,0
497,-83,0,0,0,0,0,0,0,0,0,-1,1721,1107,0,0
504,-83,0,0,0,0,0,0,0,0,0,-1,1728,1107,0,0
511,-83,0,0,0,0,0,0,0,0,0,-1,1735,1107,0,0
518,-83,0,0,0,0,0,0,0,0,0,-1,1742,1107,0,0
525,-83,0,0,0,0,0,0,0,0,0,-1,1749,1107,0,0
532,-83,0,0,0,0,0,0,0,0,0,-1,1756,1107,0,0
539,-83,0,0,0,0,0,0,0,0,0,-1,1763,1107,0,0
546,-83,0,0,0,0,0,0,0,0,0,-1,1770,1107,0,0
553,-83,0,0,0,0,0,0,0,0,0,-1,1777,1107,0,0
560,-83,0,0,0,0,0,0,0,0,0,-1,1784,1107,0,0
567,-83,0,0,0,0,0,0,0,0,0,-1,1791,1107,0,0
574,-83,0,0,0,0,0,0,0,0,0,-1,1798,1107,0,0
581,-83,0,0,0,0,0,0,0,0,0,-1,1805,1107,0,0
588,-83,0,0,0,0,0,0,0,0,0,-1,1812,1107,0,0
595,-83,0,0,0,0,0,0,0,0,0,-1,1819,1107,0,0
602,-83,0,0,0,0,0,0,0,0,0,-1,1826,1107,0,0
609,-83,0,0,0,0,0,0,0,0,0,-1,1833,1107,0,0
616,-83,0,0,0,0,0,0,0,0,0,-1,1840,1107,0,0
623,-83,0,0,0,0,0,0,0,0,0,-1,1847,1107,0,0
630,-83,0,0,0,0,0,0,0,0,0,-1,1854,1107,0,0
637,-83,0,0,0,0,0,0,0,0,0,-1,1861,1107,0,0
644,-83,58.9043,2.44421,-0.00287669,-0.00193097,-0.00262644,0.000264834,-0.0050725,-0.874464,0.00347331,0.0366613,1868,1107,58.9042,-2.44416
651,-83,58.7773,2.48962,-0.00145923,-0.000927529,-0.00213301,0.00095613,-0.00334289,-0.847397,0.00260643,0.0423003,1875,1107,58.7774,-2.48964
658,-83,58.7045,2.46484,-0.000496362,-0.000329303,-0.00170332,0.00129254,-0.0021182,-0.809898,0.00198833,0.0435095,1882,1107,58.7044,-2.46486
665,-83,58.9167,2.48499,6.18509e-05,5.38043e-05,-0.00123444,0.00129227,-0.00117662,-0.783769,0.00142593,0.0384307,1889,1107,58.9167,-2.48493
672,-83,59.0807,2.66162,0.000371599,0.000342715,-0.000769333,0.00112663,-0.000412312,-0.776013,0.000919857,0.0361576,1896,1107,59.0807,-2.66164
679,-83,59.1097,2.7345,0.000373695,0.000515129,-0.000381135,0.000832052,5.67714e-05,-0.877127,0.000536779,0.0375312,1903,1107,59.1097,-2.73451
686,-83,59.0295,2.65283,0.000388023,0.00038316,3.29419e-05,0.000418623,0.00035256,0.748561,0.000259875,0.0359407,1910,1107,59.0295,-2.65285
693,-83,59.0059,2.67163,0.000486558,0.000164879,0.000377275,0.000735848,-8.44108e-05,0.583904,0.000520987,0.0360132,1917,1107,59.0059,-2.67168
700,-83,58.9983,2.57617,0.000620732,5.95679e-05,0.000619782,0.00102049,-0.000340186,0.572845,0.000817658,0.0315512,1924,1107,58.9983,-2.57615
707,-83,58.9757,2.57983,0.000465532,8.35288e-05,0.000932963,0.00122684,-0.000677784,0.68443,0.00111476,0.0238219,1931,1107,58.9757,-2.57989
714,-83,58.978,2.56641,0,0,0,0,0,0,0,-1,1938,1107,58.978,-2.56642
721,-83,49.1162,7.36719,0,0,0,0,0,0,0,-1,1945,1107,49.1162,-7.36721
728,-83,55.3394,7.59766,0,0,0,0,0,0,0,-1,1952,1107,55.3393,-7.59762
735,-83,55.499,7.24658,-0.00194495,0.00108125,0.00188743,0.00198722,-0.00285092,1.12328,0.00280809,0.0465365,1959,1107,55.499,-7.24652
742,-83,55.6453,6.88159,-0.00312239,0.00160737,0.00186487,0.0022542,-0.00376923,1.23693,0.0035141,0.0282241,1966,1107,55.6453,-6.88155
749,-83,55.7469,6.48743,-0.00400791,0.00218648,0.00142001,0.00249649,-0.00431792,1.35585,0.00398087,0.0194355,1973,1107,55.747,-6.4874
756,-83,55.7538,6.08655,-0.00557818,0.00331175,0.000544214,0.00334494,-0.00561137,1.50988,0.00522582,0.017712,1980,1107,55.7537,-6.08655
763,-83,55.7169,5.66675,-0.00801788,0.0050575,-0.00155719,0.00524039,-0.00820077,-1.45388,0.00782275,0.0126967,1987,1107,55.7169,-5.6667
770,-83,55.6267,5.32373,-0.0108846,0.00710288,-0.00455307,0.0081897,-0.0119714,-1.33648,0.0117081,0.0157909,1994,1107,55.6268,-5.32376
777,-83,55.5032,4.96301,-0.0141712,0.00945896,-0.0086084,0.0122624,-0.0169746,-1.25597,0.0169529,0.0184558,2001,1107,55.5031,-4.96297
784,-83,55.3181,4.6261,-0.0176697,0.0120506,-0.0135901,0.0173278,-0.022947,-1.2004,0.023328,0.028435,2008,1107,55.3182,-4.62609
791,-83,54.7231,3.93054,-0.0215284,0.0149808,-0.0197941,0.0236527,-0.0302003,-1.15788,0.0311685,0.0429299,2015,1107,54.7232,-3.93054
798,-83,53.822,3.44934,-0.0257931,0.0183466,-0.0274815,0.0315232,-0.0389697,-1.12371,0.0407747,0.0462588,2022,1107,53.8219,-3.4494
805,-83,55.4912,2.55933,-0.0305955,0.0223939,-0.0367192,0.0411791,-0.0493807,-1.09792,0.0523561,0.0469807,2029,1107,55.4912,-2.55934
812,-83,54.8401,1.84009,-0.0365971,0.0274161,-0.0475451,0.0527241,-0.0619051,-1.08165,0.0662519,0.0476743,2036,1107,54.8401,-1.84005
-700,-90,0,0,0,0,0,0,0,0,0,-1,524,1114,0,0
-693,-90,-47.4505,-7.51392,0.0771986,-0.0327948,-0.0828552,0.121648,-0.0772447,-0.492401,0.115781,0.0436349,531,1114,-47.4505,7.5139
-686,-90,-46.5735,-7.8772,0.0711327,-0.0329762,-0.0688859,0.10542,-0.0672637,-0.461841,0.100507,0.0417812,538,1114,-46.5735,7.87725
-679,-90,-45.6953,-8.1814,0.0629027,-0.0302797,-0.0558635,0.089054,-0.056431,-0.437827,0.0846968,0.0435889,545,1114,-45.6953,8.18134
-672,-90,-45.1419,-8.2522,0.05392,-0.0260814,-0.0440407,0.0734142,-0.0455756,-0.416717,0.0693227,0.0477226,552,1114,-45.1419,8.25218
-665,-90,-42.6581,0.26123,0,0,0,0,0,0,0,-1,559,1114,-42.6582,-0.261218
-658,-90,-40.5675,0.613281,0.0356282,-0.0160285,-0.0244491,0.0453647,-0.025765,-0.378986,0.0415832,0.0477356,566,1114,-40.5675,-0.613235
-651,-90,-40.9961,1.28479,0.027372,-0.0112213,-0.0169409,0.0337532,-0.0176026,-0.36024,0.030135,0.034818,573,1114,-40.9961,-1.28483
-644,-90,-41.0413,2.05542,0.0204587,-0.00761954,-0.011411,0.0245112,-0.0116721,-0.341249,0.0213243,0.017577,580,1114,-41.0413,-2.05548
-637,-90,-41.085,2.62048,0.0134394,-0.00463562,-0.00572042,0.0150977,-0.00629389,-0.282153,0.0126943,0.0141772,587,1114,-41.085,-2.62052
-630,-90,-41.1191,3.08411,0.00772793,-0.00112941,-0.00207228,0.00818879,-0.00159026,-0.21883,0.00605925,0.012989,594,1114,-41.1191,-3.08415
-623,-90,-41.1458,3.54163,0.00410613,7.94678e-05,-0.000831595,0.00427111,-8.55152e-05,-0.19585,0.00287634,0.0125154,601,1114,-41.1457,-3.54168
-616,-90,-41.1844,4.00842,0.00227067,0.000610563,-0.000541799,0.00243184,0.000449388,-0.289145,0.00149413,0.0143836,608,1114,-41.1845,-4.0084
-609,-90,-41.1569,4.43921,0.0021744,-8.09526e-05,-0.00114733,0.00265546,-0.000562008,-0.397018,0.00198435,0.0211473,615,1114,-41.1568,-4.43917
-602,-90,-41.2681,4.84521,0.00237685,-0.00084001,-0.00155185,0.00300344,-0.0014666,-0.383749,0.00263113,0.0226512,622,1114,-41.2681,-4.84523
-595,-90,-41.1587,5.36536,0.00170831,-0.00117486,-0.00159451,0.00241629,-0.00188284,-0.417862,0.00248846,0.0185438,629,1114,-41.1587,-5.36542
-588,-90,-41.2135,5.75439,0,0,0,0,0,0,0,-1,636,1114,-41.2135,-5.75442
-581,-90,-44.5937,0.942139,0,0,0,0,0,0,0,-1,643,1114,-44.5937,-0.942126
-574,-90,-44.5599,0.929565,0.0020889,-0.001558,-0.00154983,0.00265855,-0.00212765,-0.352231,0.00276897,0.0372002,650,1114,-44.5599,-0.92956
-567,-90,-44.594,0.921265,0.00223212,-0.00141767,-0.00152741,0.00278697,-0.00197253,-0.348445,0.00276128,0.0359682,657,1114,-44.594,-0.921253
-560,-90,-44.6208,0.942749,0.00224715,-0.00110348,-0.00153673,0.0028452,-0.00170153,-0.371139,0.0026526,0.0386366,664,1114,-44.6208,-0.942712
-553,-90,-44.4826,0.985962,0.00177483,-0.000641367,-0.00156939,0.00254726,-0.0014138,-0.457376,0.00231792,0.0387562,671,1114,-44.4826,-0.985983
-546,-90,-44.4603,1.10645,0.00133594,-0.000212404,-0.00164215,0.00237725,-0.00125372,-0.565129,0.00212953,0.0393851,678,1114,-44.4603,-1.1065
-539,-90,-44.458,1.21704,0,0,0,0,0,0,0,-1,685,1114,-44.458,-1.21707
-532,-90,-44.5775,0.57251,0,0,0,0,0,0,0,-1,692,1114,-44.5775,-0.572539
-525,-90,0,0,0,0,0,0,0,0,0,-1,699,1114,0,0
-518,-90,0,0,0,0,0,0,0,0,0,-1,706,1114,0,0
-511,-90,0,0,0,0,0,0,0,0,0,-1,713,1114,0,0
-504,-90,0,0,0,0,0,0,0,0,0,-1,720,1114,0,0
-497,-90,0,0,0,0,0,0,0,0,0,-1,727,1114,0,0
-490,-90,0,0,0,0,0,0,0,0,0,-1,734,1114,0,0
-483,-90,0,0,0,0,0,0,0,0,0,-1,741,1114,0,0
-476,-90,0,0,0,0,0,0,0,0,0,-1,748,1114,0,0
-469,-90,0,0,0,0,0,0,0,0,0,-1,755,1114,0,0
-462,-90,0,0,0,0,0,0,0,0,0,-1,762,1114,0,0
-455,-90,0,0,0,0,0,0,0,0,0,-1,769,1114,0,0
-448,-90,0,0,0,0,0,0,0,0,0,-1,776,1114,0,0
-441,-90,0,0,0,0,0,0,0,0,0,-1,783,1114,0,0
-434,-90,0,0,0,0,0,0,0,0,0,-1,790,1114,0,0
-427,-90,0,0,0,0,0,0,0,0,0,-1,797,1114,0,0
-420,-90,0,0,0,0,0,0,0,0,0,-1,804,1114,0,0
-413,-90,0,0,0,0,0,0,0,0,0,-1,811,1114,0,0
-406,-90,0,0,0,0,0,0,0,0,0,-1,818,1114,0,0
-399,-90,0,0,0,0,0,0,0,0,0,-1,825,1114,0,0
-392,-90,0,0,0,0,0,0,0,0,0,-1,832,1114,0,0
-385,-90,0,0,0,0,0,0,0,0,0,-1,839,1114,0,0
-378,-90,0,0,0,0,0,0,0,0,0,-1,846,1114,0,0
-371,-90,0,0,0,0,0,0,0,0,0,-1,853,1114,0,0
-364,-90,0,0,0,0,0,0,0,0,0,-1,860,1114,0,0
-357,-90,0,0,0,0,0,0,0,0,0,-1,867,1114,0,0
-350,-90,0,0,0,0,0,0,0,0,0,-1,874,1114,0,0
-343,-90,0,0,0,0,0,0,0,0,0,-1,881,1114,0,0
-336,-90,0,0,0,0,0,0,0,0,0,-1,888,1114,0,0
-329,-90,0,0,0,0,0,0,0,0,0,-1,895,1114,0,0
-322,-90,0,0,0,0,0,0,0,0,0,-1,902,1114,0,0
-315,-90,0,0,0,0,0,0,0,0,0,-1,909,1114,0,0
-308,-90,0,0,0,0,0,0,0,0,0,-1,916,1114,0,0
-301,-90,0,0,0,0,0,0,0,0,0,-1,923,1114,0,0
-294,-90,0,0,0,0,0,0,0,0,0,-1,930,1114,0,0
-287,-90,0,0,0,0,0,0,0,0,0,-1,937,1114,0,0
-280,-90,0,0,0,0,0,0,0,0,0,-1,944,1114,0,0
-273,-90,0,0,0,0,0,0,0,0,0,-1,951,1114,0,0
-266,-90,0,0,0,0,0,0,0,0,0,-1,958,1114,0,0
-259,-90,0,0,0,0,0,0,0,0,0,-1,965,1114,0,0
-252,-90,0,0,0,0,0,0,0,0,0,-1,972,1114,0,0
-245,-90,0,0,0,0,0,0,0,0,0,-1,979,1114,0,0
-238,-90,0,0,0,0,0,0,0,0,0,-1,986,1114,0,0
-231,-90,0,0,0,0,0,0,0,0,0,-1,993,1114,0,0
-224,-90,0,0,0,0,0,0,0,0,0,-1,1000,1114,0,0
-217,-90,0,0,0,0,0,0,0,0,0,-1,1007,1114,0,0
-210,-90,0,0,0,0,0,0,0,0,0,-1,1014,1114,0,0
-203,-90,0,0,0,0,0,0,0,0,0,-1,1021,1114,0,0
-196,-90,0,0,0,0,0,0,0,0,0,-1,1028,1114,0,0
-189,-90,0,0,0,0,0,0,0,0,0,-1,1035,1114,0,0
-182,-90,0,0,0,0,0,0,0,0,0,-1,1042,1114,0,0
-175,-90,0,0,0,0,0,0,0,0,0,-1,1049,1114,0,0
-168,-90,0,0,0,0,0,0,0,0,0,-1,1056,1114,0,0
-161,-90,0,0,0,0,0,0,0,0,0,-1,1063,1114,0,0
-154,-90,0,0,0,0,0,0,0,0,0,-1,1070,1114,0,0
-147,-90,0,0,0,0,0,0,0,0,0,-1,1077,1114,0,0
-140,-90,0,0,0,0,0,0,0,0,0,-1,1084,1114,0,0
-133,-90,0,0,0,0,0,0,0,0,0,-1,1091,1114,0,0
-126,-90,0,0,0,0,0,0,0,0,0,-1,1098,1114,0,0
-119,-90,0,0,0,0,0,0,0,0,0,-1,1105,1114,0,0
-112,-90,0,0,0,0,0,0,0,0,0,-1,1112,1114,0,0
-105,-90,0,0,0,0,0,0,0,0,0,-1,1119,1114,0,0
-98,-90,0,0,0,0,0,0,0,0,0,-1,1126,1114,0,0
-91,-90,0,0,0,0,0,0,0,0,0,-1,1133,1114,0,0
-84,-90,0,0,0,0,0,0,0,0,0,-1,1140,1114,0,0
-77,-90,0,0,0,0,0,0,0,0,0,-1,1147,1114,0,0
-70,-90,0,0,0,0,0,0,0,0,0,-1,1154,1114,0,0
-63,-90,0,0,0,0,0,0,0,0,0,-1,1161,1114,0,0
-56,-90,0,0,0,0,0,0,0,0,0,-1,1168,1114,0,0
-49,-90,0,0,0,0,0,0,0,0,0,-1,1175,1114,0,0
-42,-90,0,0,0,0,0,0,0,0,0,-1,1182,1114,0,0
-35,-90,0,0,0,0,0,0,0,0,0,-1,1189,1114,0,0
-28,-90,0,0,0,0,0,0,0,0,0,-1,1196,1114,0,0
-21,-90,0,0,0,0,0,0,0,0,0,-1,1203,1114,0,0
-14,-90,0,0,0,0,0,0,0,0,0,-1,1210,1114,0,0
-7,-90,0,0,0,0,0,0,0,0,0,-1,1217,1114,0,0
0,-90,0,0,0,0,0,0,0,0,0,-1,1224,1114,0,0
7,-90,0,0,0,0,0,0,0,0,0,-1,1231,1114,0,0
14,-90,0,0,0,0,0,0,0,0,0,-1,1238,1114,0,0
21,-90,0,0,0,0,0,0,0,0,0,-1,1245,1114,0,0
28,-90,0,0,0,0,0,0,0,0,0,-1,1252,1114,0,0
35,-90,0,0,0,0,0,0,0,0,0,-1,1259,1114,0,0
42,-90,0,0,0,0,0,0,0,0,0,-1,1266,1114,0,0
49,-90,0,0,0,0,0,0,0,0,0,-1,1273,1114,0,0
56,-90,0,0,0,0,0,0,0,0,0,-1,1280,1114,0,0
63,-90,0,0,0,0,0,0,0,0,0,-1,1287,1114,0,0
70,-90,0,0,0,0,0,0,0,0,0,-1,1294,1114,0,0
77,-90,0,0,0,0,0,0,0,0,0,-1,1301,1114,0,0
84,-90,0,0,0,0,0,0,0,0,0,-1,1308,1114,0,0
91,-90,0,0,0,0,0,0,0,0,0,-1,1315,1114,0,0
98,-90,0,0,0,0,0,0,0,0,0,-1,1322,1114,0,0
105,-90,0,0,0,0,0,0,0,0,0,-1,1329,1114,0,0
112,-90,0,0,0,0,0,0,0,0,0,-1,1336,1114,0,0
119,-90,0,0,0,0,0,0,0,0,0,-1,1343,1114,0,0
126,-90,0,0,0,0,0,0,0,0,0,-1,1350,1114,0,0
133,-90,0,0,0,0,0,0,0,0,0,-1,1357,1114,0,0
140,-90,0,0,0,0,0,0,0,0,0,-1,1364,1114,0,0
147,-90,0,0,0,0,0,0,0,0,0,-1,1371,1114,0,0
154,-90,0,0,0,0,0,0,0,0,0,-1,1378,1114,0,0
161,-90,0,0,0,0,0,0,0,0,0,-1,1385,1114,0,0
168,-90,0,0,0,0,0,0,0,0,0,-1,1392,1114,0,0
175,-90,0,0,0,0,0,0,0,0,0,-1,1399,1114,0,0
182,-90,0,0,0,0,0,0,0,0,0,-1,1406,1114,0,0
189,-90,0,0,0,0,0,0,0,0,0,-1,1413,1114,0,0
196,-90,0,0,0,0,0,0,0,0,0,-1,1420,1114,0,0
203,-90,0,0,0,0,0,0,0,0,0,-1,1427,1114,0,0
210,-90,0,0,0,0,0,0,0,0,0,-1,1434,1114,0,0
217,-90,0,0,0,0,0,0,0,0,0,-1,1441,1114,0,0
224,-90,0,0,0,0,0,0,0,0,0,-1,1448,1114,0,0
231,-90,0,0,0,0,0,0,0,0,0,-1,1455,1114,0,0
238,-90,0,0,0,0,0,0,0,0,0,-1,1462,1114,0,0
245,-90,0,0,0,0,0,0,0,0,0,-1,1469,1114,0,0
252,-90,0,0,0,0,0,0,0,0,0,-1,1476,1114,0,0
259,-90,0,0,0,0,0,0,0,0,0,-1,1483,1114,0,0
266,-90,0,0,0,0,0,0,0,0,0,-1,1490,1114,0,0
273,-90,0,0,0,0,0,0,0,0,0,-1,1497,1114,0,0
280,-90,0,0,0,0,0,0,0,0,0,-1,1504,1114,0,0
287,-90,0,0,0,0,0,0,0,0,0,-1,1511,1114,0,0
294,-90,0,0,0,0,0,0,0,0,0,-1,1518,1114,0,0
301,-90,0,0,0,0,0,0,0,0,0,-1,1525,1114,0,0
308,-90,0,0,0,0,0,0,0,0,0,-1,1532,1114,0,0
315,-90,0,0,0,0,0,0,0,0,0,-1,1539,1114,0,0
322,-90,0,0,0,0,0,0,0,0,0,-1,1546,1114,0,0
329,-90,0,0,0,0,0,0,0,0,0,-1,1553,1114,0,0
336,-90,0,0,0,0,0,0,0,0,0,-1,1560,1114,0,0
343,-90,0,0,0,0,0,0,0,0,0,-1,1567,1114,0,0
350,-90,0,0,0,0,0,0,0,0,0,-1,1574,1114,0,0
357,-90,0,0,0,0,0,0,0,0,0,-1,1581,1114,0,0
364,-90,0,0,0,0,0,0,0,0,0,-1,1588,1114,0,0
371,-90,0,0,0,0,0,0,0,0,0,-1,1595,1114,0,0
378,-90,0,0,0,0,0,0,0,0,0,-1,1602,1114,0,0
385,-90,0,0,0,0,0,0,0,0,0,-1,1609,1114,0,0
392,-90,0,0,0,0,0,0,0,0,0,-1,1616,1114,0,0
399,-90,0,0,0,0,0,0,0,0,0,-1,1623,1114,0,0
406,-90,0,0,0,0,0,0,0,0,0,-1,1630,1114,0,0
413,-90,0,0,0,0,0,0,0,0,0,-1,1637,1114,0,0
420,-90,0,0,0,0,0,0,0,0,0,-1,1644,1114,0,0
427,-90,0,0,0,0,0,0,0,0,0,-1,1651,1114,0,0
434,-90,0,0,0,0,0,0,0,0,0,-1,1658,1114,0,0
441,-90,0,0,0,0,0,0,0,0,0,-1,1665,1114,0,0
448,-90,0,0,0,0,0,0,0,0,0,-1,1672,1114,0,0
455,-90,0,0,0,0,0,0,0,0,0,-1,1679,1114,0,0
462,-90,0,0,0,0,0,0,0,0,0,-1,1686,1114,0,0
469,-90,0,0,0,0,0,0,0,0,0,-1,1693,1114,0,0
476,-90,0,0,0,0,0,0,0,0,0,-1,1700,1114,0,0
483,-90,0,0,0,0,0,0,0,0,0,-1,1707,1114,0,0
490,-90,0,0,0,0,0,0,0,0,0,-1,1714,1114,0,0
497,-90,0,0,0,0,0,0,0,0,0,-1,1721,1114,0,0
504,-90,0,0,0,0,0,0,0,0,0,-1,1728,1114,0,0
511,-90,0,0,0,0,0,0,0,0,0,-1,1735,1114,0,0
518,-90,0,0,0,0,0,0,0,0,0,-1,1742,1114,0,0
525,-90,0,0,0,0,0,0,0,0,0,-1,1749,1114,0,0
532,-90,0,0,0,0,0,0,0,0,0,-1,1756,1114,0,0
539,-90,0,0,0,0,0,0,0,0,0,-1,1763,1114,0,0
546,-90,0,0,0,0,0,0,0,0,0,-1,1770,1114,0,0
553,-90,0,0,0,0,0,0,0,0,0,-1,1777,1114,0,0
560,-90,0,0,0,0,0,0,0,0,0,-1,1784,1114,0,0
567,-90,0,0,0,0,0,0,0,0,0,-1,1791,1114,0,0
574,-90,0,0,0,0,0,0,0,0,0,-1,1798,1114,0,0
581,-90,0,0,0,0,0,0,0,0,0,-1,1805,1114,0,0
588,-90,0,0,0,0,0,0,0,0,0,-1,1812,1114,0,0
595,-90,0,0,0,0,0,0,0,0,0,-1,1819,1114,0,0
602,-90,0,0,0,0,0,0,0,0,0,-1,1826,1114,0,0
609,-90,0,0,0,0,0,0,0,0,0,-1,1833,1114,0,0
616,-90,0,0,0,0,0,0,0,0,0,-1,1840,1114,0,0
623,-90,0,0,0,0,0,0,0,0,0,-1,1847,1114,0,0
630,-90,0,0,0,0,0,0,0,0,0,-1,1854,1114,0,0
637,-90,0,0,0,0,0,0,0,0,0,-1,1861,1114,0,0
644,-90,58.9934,2.63049,-0.00254339,-0.00115377,-0.00338882,0.00161074,-0.0053079,-0.886511,0.00418026,0.0346774,1868,1114,58.9934,-2.63049
651,-90,58.9072,2.46558,-0.00129238,-0.000426835,-0.00267381,0.001849,-0.00356822,-0.86563,0.0031797,0.0397915,1875,1114,58.9072,-2.46554
658,-90,58.8485,2.38672,-0.000417935,-3.46417e-05,-0.00205712,0.00183974,-0.00229231,-0.831845,0.00239041,0.0440201,1882,1114,58.8485,-2.38678
665,-90,58.9497,2.46106,8.04017e-05,0.000215071,-0.0014375,0.00158681,-0.00129134,-0.808802,0.00166462,0.0409578,1889,1114,58.9497,-2.46108
672,-90,59.0568,2.62512,0.000323284,0.000390272,-0.000854603,0.00121204,-0.000498481,-0.804984,0.00101581,0.0428385,1896,1114,59.0567,-2.62518
679,-90,59.0415,2.68286,0.000227071,0.000442981,-0.000387512,0.000737294,-6.72417e-05,-0.921246,0.000515407,0.0422767,1903,1114,59.0415,-2.68287
686,-90,59.0635,2.78369,0.00020865,0.000259161,3.93444e-05,0.000280658,0.000187152,1.07073,0.000165018,0.0362878,1910,1114,59.0635,-2.78365
693,-90,59.0616,2.66309,0.000303929,3.31588e-05,0.000357333,0.000550664,-0.000213576,0.604316,0.000455317,0.0347464,1917,1114,59.0616,-2.66311
700,-90,58.9908,2.52136,0.000452865,-8.24747e-05,0.000561138,0.000806906,-0.000436515,0.562854,0.000728429,0.0314047,1924,1114,58.9908,-2.52135
707,-90,58.9836,2.53552,0.000297572,-5.78141e-05,0.000872773,0.00101056,-0.000770799,0.684973,0.00103157,0.0237255,1931,1114,58.9836,-2.53557
714,-90,59.0083,2.56006,0,0,0,0,0,0,0,-1,1938,1114,59.0083,-2.5601
721,-90,55.2223,8.18286,0,0,0,0,0,0,0,-1,1945,1114,55.2223,-8.18281
728,-90,55.2576,7.82947,-0.00105801,0.00049023,0.00156577,0.00146279,-0.00203057,1.01498,0.00202575,0.0403084,1952,1114,55.2575,-7.82948
735,-90,55.0153,7.36853,-0.00189362,0.000851591,0.00175314,0.00170554,-0.00274757,1.11752,0.00259437,0.0373957,1959,1114,55.0152,-7.36851
742,-90,55.1451,6.87708,-0.00302579,0.00135104,0.00173293,0.00195408,-0.00362883,1.23592,0.00327128,0.0340462,1966,1114,55.1452,-6.87711
749,-90,55.4658,6.33801,-0.00396761,0.00190387,0.00134915,0.00219904,-0.00426278,1.35541,0.00379363,0.0228752,1973,1114,55.4658,-6.33805
756,-90,55.4016,5.99756,-0.00580081,0.00302087,0.000575986,0.00305832,-0.00583826,1.50587,0.00521936,0.0187967,1980,1114,55.4016,-5.99762
763,-90,55.3228,5.62488,-0.00871484,0.00462073,-0.00145201,0.004777,-0.00887111,-1.46359,0.00799704,0.0124859,1987,1114,55.3228,-5.62492
770,-90,55.271,5.21558,-0.0122633,0.006491,-0.00424162,0.0074057,-0.013178,-1.3584,0.0120388,0.0158957,1994,1114,55.271,-5.21561
777,-90,55.144,4.87976,-0.0164174,0.00860095,-0.00796604,0.0109221,-0.0187385,-1.28727,0.0173216,0.0159185,2001,1114,55.1441,-4.87977
784,-90,54.9927,4.64258,-0.0210952,0.0109236,-0.0126086,0.0152925,-0.0254642,-1.23724,0.0237739,0.0305616,2008,1114,54.9927,-4.64253
791,-90,54.8298,4.4425,-0.0265402,0.0135117,-0.0184498,0.020715,-0.0337436,-1.19857,0.0317402,0.0473162,2015,1114,54.8299,-4.44256
798,-90,54.9741,3.71033,-0.032884,0.0164342,-0.0257013,0.0273929,-0.0438427,-1.16775,0.0414918,0.0471104,2022,1114,54.974,-3.71031
805,-90,54.9929,2.70593,-0.0403747,0.0198775,-0.0344259,0.0354978,-0.055995,-1.14484,0.0532634,0.0461892,2029,1114,54.993,-2.70599
812,-90,55.2534,1.87305,-0.0498881,0.0240185,-0.0445886,0.0449762,-0.0708459,-1.13142,0.0674236,0.0492703,2036,1114,55.2534,-1.87303
-700,-97,0,0,0,0,0,0,0,0,0,-1,524,1121,0,0
-693,-97,-46.1745,-6.56091,0.0776253,-0.065966,-0.0872838,0.118848,-0.107188,-0.441227,0.13056,0.0456683,531,1121,-46.1745,6.56086
-686,-97,-45.3329,-6.86218,0.070961,-0.061195,-0.0729043,0.103277,-0.0935108,-0.417238,0.113662,0.0447859,538,1121,-45.3329,6.86214
-679,-97,-44.485,-7.16626,0.06238,-0.0537541,-0.0594871,0.0874424,-0.0788165,-0.398739,0.0960326,0.0468207,545,1121,-44.485,7.1663
-672,-97,-44.0465,-7.24573,0.0532514,-0.0452138,-0.0472948,0.0722877,-0.0642501,-0.382663,0.0788757,0.0439171,552,1121,-44.0465,7.2457
-665,-97,-43.6285,-7.31885,0,0,0,0,0,0,0,-1,559,1121,-43.6285,7.3188
-658,-97,-40.0987,0.90332,0,0,0,0,0,0,0,-1,566,1121,-40.0987,-0.903295
-651,-97,-40.528,1.63708,0.0267324,-0.0200476,-0.0190779,0.0335262,-0.0268414,-0.342103,0.0349244,0.0342171,573,1121,-40.528,-1.63703
-644,-97,-40.5831,2.10291,0.0198202,-0.0139458,-0.0129856,0.0242365,-0.0183622,-0.327823,0.0246722,0.0134318,580,1121,-40.5831,-2.10286
-637,-97,-40.6056,2.59229,0.0128781,-0.00835596,-0.00706779,0.0150154,-0.0104933,-0.293668,0.0148044,0.0135755,587,1121,-40.6056,-2.59233
-630,-97,-40.6361,3.05127,0.00728677,-0.00332262,-0.00308197,0.00811709,-0.00415293,-0.263162,0.00720628,0.0110784,594,1121,-40.6361,-3.0513
-623,-97,-40.6641,3.49744,0.00373394,-0.000937591,-0.00132052,0.00408138,-0.00128503,-0.257275,0.00323547,0.0129023,601,1121,-40.6641,-3.4974
-616,-97,-40.7183,4.00049,0.00195561,-3.04562e-05,-0.000767437,0.0022176,-0.000292443,-0.328974,0.0015849,0.0206186,608,1121,-40.7183,-4.00048
-609,-97,-40.7932,4.51245,0.00190145,-0.00038812,-0.0010932,0.00233958,-0.000826252,-0.381177,0.00189613,0.0287032,615,1121,-40.7932,-4.51248
-602,-97,-40.8712,4.89612,0.00214456,-0.000878426,-0.00123778,0.00258671,-0.00132057,-0.343083,0.00229501,0.0287373,622,1121,-40.8712,-4.89614
-595,-97,-40.7593,5.40039,0.00140767,-0.00109086,-0.0011812,0.00187767,-0.00156087,-0.3787,0.00198805,0.0215229,629,1121,-40.7593,-5.40041
-588,-97,-40.8682,5.85754,0,0,0,0,0,0,0,-1,636,1121,-40.8682,-5.85753
-581,-97,-43.2128,2.65771,0,0,0,0,0,0,0,-1,643,1121,-43.2128,-2.65769
-574,-97,-44.5653,1.0575,0,0,0,0,0,0,0,-1,650,1121,-44.5653,-1.05745
-567,-97,-44.4507,0.885986,0.00165862,-0.00111982,-0.000976004,0.0019672,-0.0014284,-0.306219,0.00196866,0.0353011,657,1121,-44.4507,-0.885938
-560,-97,-44.415,0.925415,0.00166971,-0.000769402,-0.00100155,0.00202826,-0.00112796,-0.343781,0.00184679,0.0399038,664,1121,-44.4151,-0.925395
-553,-97,-44.5009,1.24182,0.000984009,-0.000254326,-0.00115543,0.00167571,-0.000946032,-0.539431,0.00153308,0.0434134,671,1121,-44.5009,-1.24179
-546,-97,-44.5128,1.16479,0.000130502,0.000229382,-0.00149289,0.00167365,-0.00131376,-0.801951,0.00172895,0.0430976,678,1121,-44.5128,-1.16482
-539,-97,-44.5716,0.986816,-2.96182e-05,0.00021754,-0.00181814,0.0019163,-0.00172838,-0.819331,0.00210519,0.0420613,685,1121,-44.5716,-0.986831
-532,-97,-44.6338,0.744629,-0.000381216,2.88969e-06,-0.00213442,0.00195388,-0.00233221,-0.830267,0.00247779,0.0397106,692,1121,-44.6338,-0.744621
-525,-97,0,0,0,0,0,0,0,0,0,-1,699,1121,0,0
-518,-97,0,0,0,0,0,0,0,0,0,-1,706,1121,0,0
-511,-97,0,0,0,0,0,0,0,0,0,-1,713,1121,0,0
-504,-97,0,0,0,0,0,0,0,0,0,-1,720,1121,0,0
-497,-97,0,0,0,0,0,0,0,0,0,-1,727,1121,0,0
-490,-97,0,0,0,0,0,0,0,0,0,-1,734,1121,0,0
-483,-97,0,0,0,0,0,0,0,0,0,-1,741,1121,0,0
-476,-97,0,0,0,0,0,0,0,0,0,-1,748,1121,0,0
-469,-97,0,0,0,0,0,0,0,0,0,-1,755,1121,0,0
-462,-97,0,0,0,0,0,0,0,0,0,-1,762,1121,0,0
-455,-97,0,0,0,0,0,0,0,0,0,-1,769,1121,0,0
-448,-97,0,0,0,0,0,0,0,0,0,-1,776,1121,0,0
-441,-97,0,0,0,0,0,0,0,0,0,-1,783,1121,0,0
-434,-97,0,0,0,0,0,0,0,0,0,-1,790,1121,0,0
-427,-97,0,0,0,0,0,0,0,0,0,-1,797,1121,0,0
-420,-97,0,0,0,0,0,0,0,0,0,-1,804,1121,0,0
-413,-97,0,0,0,0,0,0,0,0,0,-1,811,1121,0,0
-406,-97,0,0,0,0,0,0,0,0,0,-1,818,1121,0,0
-399,-97,0,0,0,0,0,0,0,0,0,-1,825,1121,0,0
-392,-97,0,0,0,0,0,0,0,0,0,-1,832,1121,0,0
-385,-97,0,0,0,0,0,0,0,0,0,-1,839,1121,0,0
-378,-97,0,0,0,0,0,0,0,0,0,-1,846,1121,0,0
-371,-97,0,0,0,0,0,0,0,0,0,-1,853,1121,0,0
-364,-97,0,0,0,0,0,0,0,0,0,-1,860,1121,0,0
-357,-97,0,0,0,0,0,0,0,0,0,-1,867,1121,0,0
-350,-97,0,0,0,0,0,0,0,0,0,-1,874,1121,0,0
-343,-97,0,0,0,0,0,0,0,0,0,-1,881,1121,0,0
-336,-97,0,0,0,0,0,0,0,0,0,-1,888,1121,0,0
-329,-97,0,0,0,0,0,0,0,0,0,-1,895,1121,0,0
-322,-97,0,0,0,0,0,0,0,0,0,-1,902,1121,0,0
-315,-97,0,0,0,0,0,0,0,0,0,-1,909,1121,0,0
-308,-97,0,0,0,0,0,0,0,0,0,-1,916,1121,0,0
-301,-97,0,0,0,0,0,0,0,0,0,-1,923,1121,0,0
-294,-97,0,0,0,0,0,0,0,0,0,-1,930,1121,0,0
-287,-97,0,0,0,0,0,0,0,0,0,-1,937,1121,0,0
-280,-97,0,0,0,0,0,0,0,0,0,-1,944,1121,0,0
-273,-97,0,0,0,0,0,0,0,0,0,-1,951,1121,0,0
-266,-97,0,0,0,0,0,0,0,0,0,-1,958,1121,0,0
-259,-97,0,0,0,0,0,0,0,0,0,-1,965,1121,0,0
-252,-97,0,0,0,0,0,0,0,0,0,-1,972,1121,0,0
-245,-97,0,0,0,0,0,0,0,0,0,-1,979,1121,0,0
-238,-97,0,0,0,0,0,0,0,0,0,-1,986,1121,0,0
-231,-97,0,0,0,0,0,0,0,0,0,-1,993,1121,0,0
-224,-97,0,0,0,0,0,0,0,0,0,-1,1000,1121,0,0
-217,-97,0,0,0,0,0,0,0,0,0,-1,1007,1121,0,0
-210,-97,0,0,0,0,0,0,0,0,0,-1,1014,1121,0,0
-203,-97,0,0,0,0,0,0,0,0,0,-1,1021,1121,0,0
-196,-97,0,0,0,0,0,0,0,0,0,-1,1028,1121,0,0
-189,-97,0,0,0,0,0,0,0,0,0,-1,1035,1121,0,0
-182,-97,0,0,0,0,0,0,0,0,0,-1,1042,1121,0,0
-175,-97,0,0,0,0,0,0,0,0,0,-1,1049,1121,0,0
-168,-97,0,0,0,0,0,0,0,0,0,-1,1056,1121,0,0
-161,-97,0,0,0,0,0,0,0,0,0,-1,1063,1121,0,0
-154,-97,0,0,0,0,0,0,0,0,0,-1,1070,1121,0,0
-147,-97,0,0,0,0,0,0,0,0,0,-1,1077,1121,0,0
-140,-97,0,0,0,0,0,0,0,0,0,-1,1084,1121,0,0
-133,-97,0,0,0,0,0,0,0,0,0,-1,1091,1121,0,0
-126,-97,0,0,0,0,0,0,0,0,0,-1,1098,1121,0,0
-119,-97,0,0,0,0,0,0,0,0,0,-1,1105,1121,0,0
-112,-97,0,0,0,0,0,0,0,0,0,-1,1112,1121,0,0
-105,-97,0,0,0,0,0,0,0,0,0,-1,1119,1121,0,0
-98,-97,0,0,0,0,0,0,0,0,0,-1,1126,1121,0,0
-91,-97,0,0,0,0,0,0,0,0,0,-1,1133,1121,0,0
-84,-97,0,0,0,0,0,0,0,0,0,-1,1140,1121,0,0
-77,-97,0,0,0,0,0,0,0,0,0,-1,1147,1121,0,0
-70,-97,0,0,0,0,0,0,0,0,0,-1,1154,1121,0,0
-63,-97,0,0,0,0,0,0,0,0,0,-1,1161,1121,0,0
-56,-97,0,0,0,0,0,0,0,0,0,-1,1168,1121,0,0
-49,-97,0,0,0,0,0,0,0,0,0,-1,1175,1121,0,0
-42,-97,0,0,0,0,0,0,0,0,0,-1,1182,1121,0,0
-35,-97,0,0,0,0,0,0,0,0,0,-1,1189,1121,0,0
-28,-97,0,0,0,0,0,0,0,0,0,-1,1196,1121,0,0
-21,-97,0,0,0,0,0,0,0,0,0,-1,1203,1121,0,0
-14,-97,0,0,0,0,0,0,0,0,0,-1,1210,1121,0,0
-7,-97,0,0,0,0,0,0,0,0,0,-1,1217,1121,0,0
0,-97,0,0,0,0,0,0,0,0,0,-1,1224,1121,0,0
7,-97,0,0,0,0,0,0,0,0,0,-1,1231,1121,0,0
14,-97,0,0,0,0,0,0,0,0,0,-1,1238,1121,0,0
21,-97,0,0,0,0,0,0,0,0,0,-1,1245,1121,0,0
28,-97,0,0,0,0,0,0,0,0,0,-1,1252,1121,0,0
35,-97,0,0,0,0,0,0,0,0,0,-1,1259,1121,0,0
42,-97,0,0,0,0,0,0,0,0,0,-1,1266,1121,0,0
49,-97,0,0,0,0,0,0,0,0,0,-1,1273,1121,0,0
56,-97,0,0,0,0,0,0,0,0,0,-1,1280,1121,0,0
63,-97,0,0,0,0,0,0,0,0,0,-1,1287,1121,0,0
70,-97,0,0,0,0,0,0,0,0,0,-1,1294,1121,0,0
77,-97,0,0,0,0,0,0,0,0,0,-1,1301,1121,0,0
84,-97,0,0,0,0,0,0,0,0,0,-1,1308,1121,0,0
91,-97,0,0,0,0,0,0,0,0,0,-1,1315,1121,0,0
98,-97,0,0,0,0,0,0,0,0,0,-1,1322,1121,0,0
105,-97,0,0,0,0,0,0,0,0,0,-1,1329,1121,0,0
112,-97,0,0,0,0,0,0,0,0,0,-1,1336,1121,0,0
119,-97,0,0,0,0,0,0,0,0,0,-1,1343,1121,0,0
126,-97,0,0,0,0,0,0,0,0,0,-1,1350,1121,0,0
133,-97,0,0,0,0,0,0,0,0,0,-1,1357,1121,0,0
140,-97,0,0,0,0,0,0,0,0,0,-1,1364,1121,0,0
147,-97,0,0,0,0,0,0,0,0,0,-1,1371,1121,0,0
154,-97,0,0,0,0,0,0,0,0,0,-1,1378,1121,0,0
161,-97,0,0,0,0,0,0,0,0,0,-1,1385,1121,0,0
168,-97,0,0,0,0,0,0,0,0,0,-1,1392,1121,0,0
175,-97,0,0,0,0,0,0,0,0,0,-1,1399,1121,0,0
182,-97,0,0,0,0,0,0,0,0,0,-1,1406,1121,0,0
189,-97,0,0,0,0,0,0,0,0,0,-1,1413,1121,0,0
196,-97,0,0,0,0,0,0,0,0,0,-1,1420,1121,0,0
203,-97,0,0,0,0,0,0,0,0,0,-1,1427,1121,0,0
210,-97,0,0,0,0,0,0,0,0,0,-1,1434,1121,0,0
217,-97,0,0,0,0,0,0,0,0,0,-1,1441,1121,0,0
224,-97,0,0,0,0,0,0,0,0,0,-1,1448,1121,0,0
231,-97,0,0,0,0,0,0,0,0,0,-1,1455,1121,0,0
238,-97,0,0,0,0,0,0,0,0,0,-1,1462,1121,0,0
245,-97,0,0,0,0,0,0,0,0,0,-1,1469,1121,0,0
252,-97,0,0,0,0,0,0,0,0,0,-1,1476,1121,0,0
259,-97,0,0,0,0,0,0,0,0,0,-1,1483,1121,0,0
266,-97,0,0,0,0,0,0,0,0,0,-1,1490,1121,0,0
273,-97,0,0,0,0,0,0,0,0,0,-1,1497,1121,0,0
280,-97,0,0,0,0,0,0,0,0,0,-1,1504,1121,0,0
287,-97,0,0,0,0,0,0,0,0,0,-1,1511,1121,0,0
294,-97,0,0,0,0,0,0,0,0,0,-1,1518,1121,0,0
301,-97,0,0,0,0,0,0,0,0,0,-1,1525,1121,0,0
308,-97,0,0,0,0,0,0,0,0,0,-1,1532,1121,0,0
315,-97,0,0,0,0,0,0,0,0,0,-1,1539,1121,0,0
322,-97,0,0,0,0,0,0,0,0,0,-1,1546,1121,0,0
329,-97,0,0,0,0,0,0,0,0,0,-1,1553,1121,0,0
336,-97,0,0,0,0,0,0,0,0,0,-1,1560,1121,0,0
343,-97,0,0,0,0,0,0,0,0,0,-1,1567,1121,0,0
350,-97,0,0,0,0,0,0,0,0,0,-1,1574,1121,0,0
357,-97,0,0,0,0,0,0,0,0,0,-1,1581,1121,0,0
364,-97,0,0,0,0,0,0,0,0,0,-1,1588,1121,0,0
371,-97,0,0,0,0,0,0,0,0,0,-1,1595,1121,0,0
378,-97,0,0,0,0,0,0,0,0,0,-1,1602,1121,0,0
385,-97,0,0,0,0,0,0,0,0,0,-1,1609,1121,0,0
392,-97,0,0,0,0,0,0,0,0,0,-1,1616,1121,0,0
399,-97,0,0,0,0,0,0,0,0,0,-1,1623,1121,0,0
406,-97,0,0,0,0,0,0,0,0,0,-1,1630,1121,0,0
413,-97,0,0,0,0,0,0,0,0,0,-1,1637,1121,0,0
420,-97,0,0,0,0,0,0,0,0,0,-1,1644,1121,0,0
427,-97,0,0,0,0,0,0,0,0,0,-1,1651,1121,0,0
434,-97,0,0,0,0,0,0,0,0,0,-1,1658,1121,0,0
441,-97,0,0,0,0,0,0,0,0,0,-1,1665,1121,0,0
448,-97,0,0,0,0,0,0,0,0,0,-1,1672,1121,0,0
455,-97,0,0,0,0,0,0,0,0,0,-1,1679,1121,0,0
462,-97,0,0,0,0,0,0,0,0,0,-1,1686,1121,0,0
469,-97,0,0,0,0,0,0,0,0,0,-1,1693,1121,0,0
476,-97,0,0,0,0,0,0,0,0,0,-1,1700,1121,0,0
483,-97,0,0,0,0,0,0,0,0,0,-1,1707,1121,0,0
490,-97,0,0,0,0,0,0,0,0,0,-1,1714,1121,0,0
497,-97,0,0,0,0,0,0,0,0,0,-1,1721,1121,0,0
504,-97,0,0,0,0,0,0,0,0,0,-1,1728,1121,0,0
511,-97,0,0,0,0,0,0,0,0,0,-1,1735,1121,0,0
518,-97,0,0,0,0,0,0,0,0,0,-1,1742,1121,0,0
525,-97,0,0,0,0,0,0,0,0,0,-1,1749,1121,0,0
532,-97,0,0,0,0,0,0,0,0,0,-1,1756,1121,0,0
539,-97,0,0,0,0,0,0,0,0,0,-1,1763,1121,0,0
546,-97,0,0,0,0,0,0,0,0,0,-1,1770,1121,0,0
553,-97,0,0,0,0,0,0,0,0,0,-1,1777,1121,0,0
560,-97,0,0,0,0,0,0,0,0,0,-1,1784,1121,0,0
567,-97,0,0,0,0,0,0,0,0,0,-1,1791,1121,0,0
574,-97,0,0,0,0,0,0,0,0,0,-1,1798,1121,0,0
581,-97,0,0,0,0,0,0,0,0,0,-1,1805,1121,0,0
588,-97,0,0,0,0,0,0,0,0,0,-1,1812,1121,0,0
595,-97,0,0,0,0,0,0,0,0,0,-1,1819,1121,0,0
602,-97,0,0,0,0,0,0,0,0,0,-1,1826,1121,0,0
609,-97,0,0,0,0,0,0,0,0,0,-1,1833,1121,0,0
616,-97,0,0,0,0,0,0,0,0,0,-1,1840,1121,0,0
623,-97,0,0,0,0,0,0,0,0,0,-1,1847,1121,0,0
630,-97,0,0,0,0,0,0,0,0,0,-1,1854,1121,0,0
637,-97,0,0,0,0,0,0,0,0,0,-1,1861,1121,0,0
644,-97,59.0973,2.66858,-0.00254367,-0.00100555,-0.0036341,0.00193997,-0.0054892,-0.889671,0.0044494,0.0369049,1868,1121,59.0973,-2.66853
651,-97,59.052,2.60547,-0.00140069,-0.000301832,-0.00291316,0.00211326,-0.00381578,-0.878604,0.00346985,0.0383164,1875,1121,59.052,-2.60549
658,-97,58.9493,2.44214,-0.000561005,6.71405e-05,-0.00224619,0.00202111,-0.00251497,-0.85486,0.00262408,0.0407602,1882,1121,58.9494,-2.44213
665,-97,58.9504,2.30847,-6.33966e-05,0.000301142,-0.00155852,0.00168801,-0.00145027,-0.843609,0.00181362,0.0424875,1889,1121,58.9505,-2.30846
672,-97,58.9362,2.49768,0.000177408,0.000448587,-0.000902141,0.00122527,-0.000599275,-0.859989,0.00107387,0.0435707,1896,1121,58.9361,-2.4977
679,-97,58.8879,2.82141,6.13795e-05,0.000441823,-0.000380526,0.000677023,-0.000173821,-1.01718,0.000519083,0.0444407,1903,1121,58.888,-2.82144
686,-97,58.9374,2.74341,8.31135e-05,0.00025573,4.92766e-05,0.000268806,7.00371e-05,1.31141,0.000161018,0.0381386,1910,1121,58.9374,-2.7434
693,-97,59.0088,2.5116,0.000212619,4.82852e-05,0.000340407,0.000480635,-0.000219731,0.666974,0.000413603,0.0339063,1917,1121,59.0088,-2.51158
700,-97,58.9711,2.47632,0.000394796,-8.29547e-05,0.000512743,0.000721576,-0.000409735,0.567409,0.000661383,0.0270302,1924,1121,58.9711,-2.47633
707,-97,58.9745,2.53943,0.00024862,-6.25516e-05,0.000828518,0.000936034,-0.000749966,0.692585,0.000975386,0.0238737,1931,1121,58.9745,-2.53948
714,-97,58.983,2.54395,0,0,0,0,0,0,0,-1,1938,1121,58.983,-2.54397
721,-97,54.9656,8.07788,0,0,0,0,0,0,0,-1,1945,1121,54.9656,-8.07787
728,-97,54.9026,7.79431,-0.000913724,0.000426641,0.00148646,0.00138701,-0.0018741,0.997182,0.00188979,0.0304215,1952,1121,54.9025,-7.79433
735,-97,54.8762,7.27051,-0.00166043,0.000714569,0.00168533,0.00158874,-0.00253461,1.0923,0.00240141,0.0279476,1959,1121,54.8762,-7.27056
742,-97,54.8583,6.84912,-0.00267908,0.00118778,0.00168111,0.00181644,-0.00330773,1.21294,0.00299992,0.0237027,1966,1121,54.8582,-6.84915
749,-97,54.9412,6.39197,-0.00357796,0.00171648,0.00139845,0.00206316,-0.00392464,1.32779,0.0035123,0.0252105,1973,1121,54.9411,-6.39199
756,-97,54.9358,5.96362,-0.00544644,0.00283346,0.000770917,0.00290462,-0.0055176,1.47874,0.00493997,0.0179495,1980,1121,54.9358,-5.96362
763,-97,54.8339,5.61536,-0.00851346,0.00432294,-0.00107386,0.00441215,-0.00860268,-1.48791,0.00764285,0.0134268,1987,1121,54.8338,-5.6153
770,-97,54.7844,5.24451,-0.0121936,0.00608721,-0.00353116,0.00674559,-0.012852,-1.38647,0.0114963,0.011911,1994,1121,54.7844,-5.24454
777,-97,54.7329,4.83545,-0.016497,0.00806496,-0.00678653,0.00981536,-0.0182474,-1.31838,0.016444,0.0162763,2001,1121,54.7328,-4.8354
784,-97,54.6543,4.4657,-0.0215035,0.0102592,-0.0109138,0.0136477,-0.024892,-1.26975,0.0225644,0.0376833,2008,1121,54.6543,-4.4657
791,-97,54.4487,4.35999,-0.0274943,0.0127039,-0.0161592,0.0183942,-0.0331846,-1.23222,0.0301844,0.0466586,2015,1121,54.4488,-4.35996
798,-97,54.4131,3.76538,-0.034666,0.0154775,-0.0227274,0.0242455,-0.043434,-1.2026,0.0395948,0.0460796,2022,1121,54.4131,-3.76535
805,-97,54.4438,2.70496,-0.043409,0.0187129,-0.0307006,0.0313247,-0.0560208,-1.18101,0.0510965,0.0466396,2029,1121,54.4438,-2.70493
812,-97,54.5159,1.65125,0,0,0,0,0,0,0,-1,2036,1121,54.5158,-1.65127
-700,-104,0,0,0,0,0,0,0,0,0,-1,524,1128,0,0
-693,-104,-43.9048,-6.66248,0.0793554,-0.0966494,-0.0906923,0.117724,-0.135018,-0.400225,0.146034,0.048341,531,1128,-43.9048,6.66243
-686,-104,-43.679,-6.39917,0.0719212,-0.0867103,-0.0759924,0.10245,-0.117239,-0.382002,0.126933,0.0488043,538,1128,-43.679,6.39916
-679,-104,-43.4166,-6.22778,0.0628524,-0.0746063,-0.0622351,0.0868427,-0.0985966,-0.367925,0.107135,0.0445558,545,1128,-43.4166,6.22779
-672,-104,-43.0579,-5.66101,0.0534665,-0.0619676,-0.0497253,0.0719325,-0.0804336,-0.355577,0.0880143,0.047475,552,1128,-43.0579,5.66101
-665,-104,-42.6714,-4.72656,0,0,0,0,0,0,0,-1,559,1128,-42.6714,4.72655
-658,-104,-40.0245,1.2981,0,0,0,0,0,0,0,-1,566,1128,-40.0245,-1.29815
-651,-104,-40.0579,1.68225,0.0267046,-0.0275138,-0.0206263,0.0336594,-0.0344686,-0.325208,0.0393346,0.0432082,573,1128,-40.0579,-1.68229
-644,-104,-40.0983,2.11462,0.0196786,-0.0191378,-0.0141845,0.0243095,-0.0237687,-0.315567,0.0277586,0.0164408,580,1128,-40.0983,-2.11461
-637,-104,-40.0972,2.58179,0.0127015,-0.0114099,-0.00802637,0.015129,-0.0138373,-0.293692,0.0167293,0.0119302,587,1128,-40.0972,-2.58184
-630,-104,-40.1203,2.9967,0.00711073,-0.00507985,-0.00383837,0.00821861,-0.00618773,-0.280996,0.00834501,0.0160637,594,1128,-40.1203,-2.99674
-623,-104,-40.1726,3.49585,0.00353128,-0.00172477,-0.00185458,0.00411977,-0.00231326,-0.307268,0.00376261,0.0174653,601,1128,-40.1726,-3.49584
-616,-104,-40.4529,4.07166,0.00177668,-0.000570979,-0.00119102,0.0022751,-0.00106939,-0.396333,0.00197232,0.0265185,608,1128,-40.4529,-4.07164
-609,-104,-40.8779,4.40894,0,0,0,0,0,0,0,-1,615,1128,-40.8779,-4.40899
-602,-104,-40.386,4.93652,0.00187559,-0.000977776,-0.00126136,0.00235323,-0.00145542,-0.361986,0.00221919,0.0304186,622,1128,-40.386,-4.93652
-595,-104,-40.2015,5.51001,0.00105274,-0.00109805,-0.0011242,0.00153308,-0.00157838,-0.403791,0.00179647,0.0215655,629,1128,-40.2015,-5.51
-588,-104,-40.1974,6.11426,0,0,0,0,0,0,0,-1,636,1128,-40.1974,-6.11429
-581,-104,-23.9373,2.85864,0,0,0,0,0,0,0,-1,643,1128,-23.9373,-2.85861
-574,-104,-44.4969,0.790527,0,0,0,0,0,0,0,-1,650,1128,-44.497,-0.790478
-567,-104,-44.4329,0.832275,0.0011056,-0.00107096,-0.000676208,0.00129857,-0.00126394,-0.277986,0.00147951,0.0372249,657,1128,-44.4329,-0.832242
-560,-104,-44.4651,0.828003,0.00120891,-0.000771376,-0.000612556,0.00138308,-0.000945538,-0.277011,0.00135231,0.0437993,664,1128,-44.4652,-0.828035
-553,-104,-44.5223,0.623901,0.000444142,-0.000334722,-0.000735419,0.000886875,-0.000777454,-0.541899,0.000961593,0.0481148,671,1128,-44.5223,-0.623946
-546,-104,-44.5471,0.661743,-0.000656847,2.96037e-05,-0.00115544,0.00089172,-0.00151896,-0.929773,0.00140743,0.0480212,678,1128,-44.5471,-0.661778
-539,-104,-44.6631,0.911133,-0.00124361,-0.000162096,-0.00164481,0.00102857,-0.00243427,-0.944215,0.00205345,0.0431277,685,1128,-44.6632,-0.911129
-532,-104,-44.7278,0.857056,-0.00190656,-0.000652601,-0.00215928,0.000968879,-0.00352805,-0.926696,0.00273285,0.0399806,692,1128,-44.7278,-0.857096
-525,-104,-44.7475,0.804688,-0.00276792,-0.00136804,-0.00270681,0.000727857,-0.00486382,-0.91192,0.00351041,0.0366466,699,1128,-44.7475,-0.804698
-518,-104,0,0,0,0,0,0,0,0,0,-1,706,1128,0,0
-511,-104,0,0,0,0,0,0,0,0,0,-1,713,1128,0,0
-504,-104,0,0,0,0,0,0,0,0,0,-1,720,1128,0,0
-497,-104,0,0,0,0,0,0,0,0,0,-1,727,1128,0,0
-490,-104,0,0,0,0,0,0,0,0,0,-1,734,1128,0,0
-483,-104,0,0,0,0,0,0,0,0,0,-1,741,1128,0,0
-476,-104,0,0,0,0,0,0,0,0,0,-1,748,1128,0,0
-469,-104,0,0,0,0,0,0,0,0,0,-1,755,1128,0,0
-462,-104,0,0,0,0,0,0,0,0,0,-1,762,1128,0,0
-455,-104,0,0,0,0,0,0,0,0,0,-1,769,1128,0,0
-448,-104,0,0,0,0,0,0,0,0,0,-1,776,1128,0,0
-441,-104,0,0,0,0,0,0,0,0,0,-1,783,1128,0,0
-434,-104,0,0,0,0,0,0,0,0,0,-1,790,1128,0,0
-427,-104,0,0,0,0,0,0,0,0,0,-1,797,1128,0,0
-420,-104,0,0,0,0,0,0,0,0,0,-1,804,1128,0,0
-413,-104,0,0,0,0,0,0,0,0,0,-1,811,1128,0,0
-406,-104,0,0,0,0,0,0,0,0,0,-1,818,1128,0,0
-399,-104,0,0,0,0,0,0,0,0,0,-1,825,1128,0,0
-392,-104,0,0,0,0,0,0,0,0,0,-1,832,1128,0,0
-385,-104,0,0,0,0,0,0,0,0,0,-1,839,1128,0,0
-378,-104,0,0,0,0,0,0,0,0,0,-1,846,1128,0,0
-371,-104,0,0,0,0,0,0,0,0,0,-1,853,1128,0,0
-364,-104,0,0,0,0,0,0,0,0,0,-1,860,1128,0,0
-357,-104,0,0,0,0,0,0,0,0,0,-1,867,1128,0,0
-350,-104,0,0,0,0,0,0,0,0,0,-1,874,1128,0,0
-343,-104,0,0,0,0,0,0,0,0,0,-1,881,1128,0,0
-336,-104,0,0,0,0,0,0,0,0,0,-1,888,1128,0,0
-329,-104,0,0,0,0,0,0,0,0,0,-1,895,1128,0,0
-322,-104,0,0,0,0,0,0,0,0,0,-1,902,1128,0,0
-315,-104,0,0,0,0,0,0,0,0,0,-1,909,1128,0,0
-308,-104,0,0,0,0,0,0,0,0,0,-1,916,1128,0,0
-301,-104,0,0,0,0,0,0,0,0,0,-1,923,1128,0,0
-294,-104,0,0,0,0,0,0,0,0,0,-1,930,1128,0,0
-287,-104,0,0,0,0,0,0,0,0,0,-1,937,1128,0,0
-280,-104,0,0,0,0,0,0,0,0,0,-1,944,1128,0,0
-273,-104,0,0,0,0,0,0,0,0,0,-1,951,1128,0,0
-266,-104,0,0,0,0,0,0,0,0,0,-1,958,1128,0,0
-259,-104,0,0,0,0,0,0,0,0,0,-1,965,1128,0,0
-252,-104,0,0,0,0,0,0,0,0,0,-1,972,1128,0,0
-245,-104,0,0,0,0,0,0,0,0,0,-1,979,1128,0,0
-238,-104,0,0,0,0,0,0,0,0,0,-1,986,1128,0,0
-231,-104,0,0,0,0,0,0,0,0,0,-1,993,1128,0,0
-224,-104,0,0,0,0,0,0,0,0,0,-1,1000,1128,0,0
-217,-104,0,0,0,0,0,0,0,0,0,-1,1007,1128,0,0
-210,-104,0,0,0,0,0,0,0,0,0,-1,1014,1128,0,0
-203,-104,0,0,0,0,0,0,0,0,0,-1,1021,1128,0,0
-196,-104,0,0,0,0,0,0,0,0,0,-1,1028,1128,0,0
-189,-104,0,0,0,0,0,0,0,0,0,-1,1035,1128,0,0
-182,-104,0,0,0,0,0,0,0,0,0,-1,1042,1128,0,0
-175,-104,0,0,0,0,0,0,0,0,0,-1,1049,1128,0,0
-168,-104,0,0,0,0,0,0,0,0,0,-1,1056,1128,0,0
-161,-104,0,0,0,0,0,0,0,0,0,-1,1063,1128,0,0
-154,-104,0,0,0,0,0,0,0,0,0,-1,1070,1128,0,0
-147,-104,0,0,0,0,0,0,0,0,0,-1,1077,1128,0,0
-140,-104,0,0,0,0,0,0,0,0,0,-1,1084,1128,0,0
-133,-104,0,0,0,0,0,0,0,0,0,-1,1091,1128,0,0
-126,-104,0,0,0,0,0,0,0,0,0,-1,1098,1128,0,0
-119,-104,0,0,0,0,0,0,0,0,0,-1,1105,1128,0,0
-112,-104,0,0,0,0,0,0,0,0,0,-1,1112,1128,0,0
-105,-104,0,0,0,0,0,0,0,0,0,-1,1119,1128,0,0
-98,-104,0,0,0,0,0,0,0,0,0,-1,1126,1128,0,0
-91,-104,0,0,0,0,0,0,0,0,0,-1,1133,1128,0,0
-84,-104,0,0,0,0,0,0,0,0,0,-1,1140,1128,0,0
-77,-104,0,0,0,0,0,0,0,0,0,-1,1147,1128,0,0
-70,-104,0,0,0,0,0,0,0,0,0,-1,1154,1128,0,0
-63,-104,0,0,0,0,0,0,0,0,0,-1,1161,1128,0,0
-56,-104,0,0,0,0,0,0,0,0,0,-1,1168,1128,0,0
-49,-104,0,0,0,0,0,0,0,0,0,-1,1175,1128,0,0
-42,-104,0,0,0,0,0,0,0,0,0,-1,1182,1128,0,0
-35,-104,0,0,0,0,0,0,0,0,0,-1,1189,1128,0,0
-28,-104,0,0,0,0,0,0,0,0,0,-1,1196,1128,0,0
-21,-104,0,0,0,0,0,0,0,0,0,-1,1203,1128,0,0
-14,-104,0,0,0,0,0,0,0,0,0,-1,1210,1128,0,0
-7,-104,0,0,0,0,0,0,0,0,0,-1,1217,1128,0,0
0,-104,0,0,0,0,0,0,0,0,0,-1,1224,1128,0,0
7,-104,0,0,0,0,0,0,0,0,0,-1,1231,1128,0,0
14,-104,0,0,0,0,0,0,0,0,0,-1,1238,1128,0,0
21,-104,0,0,0,0,0,0,0,0,0,-1,1245,1128,0,0
28,-104,0,0,0,0,0,0,0,0,0,-1,1252,1128,0,0
35,-104,0,0,0,0,0,0,0,0,0,-1,1259,1128,0,0
42,-104,0,0,0,0,0,0,0,0,0,-1,1266,1128,0,0
49,-104,0,0,0,0,0,0,0,0,0,-1,1273,1128,0,0
56,-104,0,0,0,0,0,0,0,0,0,-1,1280,1128,0,0
63,-104,0,0,0,0,0,0,0,0,0,-1,1287,1128,0,0
70,-104,0,0,0,0,0,0,0,0,0,-1,1294,1128,0,0
77,-104,0,0,0,0,0,0,0,0,0,-1,1301,1128,0,0
84,-104,0,0,0,0,0,0,0,0,0,-1,1308,1128,0,0
91,-104,0,0,0,0,0,0,0,0,0,-1,1315,1128,0,0
98,-104,0,0,0,0,0,0,0,0,0,-1,1322,1128,0,0
105,-104,0,0,0,0,0,0,0,0,0,-1,1329,1128,0,0
112,-104,0,0,0,0,0,0,0,0,0,-1,1336,1128,0,0
119,-104,0,0,0,0,0,0,0,0,0,-1,1343,1128,0,0
126,-104,0,0,0,0,0,0,0,0,0,-1,1350,1128,0,0
133,-104,0,0,0,0,0,0,0,0,0,-1,1357,1128,0,0
140,-104,0,0,0,0,0,0,0,0,0,-1,1364,1128,0,0
147,-104,0,0,0,0,0,0,0,0,0,-1,1371,1128,0,0
154,-104,0,0,0,0,0,0,0,0,0,-1,1378,1128,0,0
161,-104,0,0,0,0,0,0,0,0,0,-1,1385,1128,0,0
168,-104,0,0,0,0,0,0,0,0,0,-1,1392,1128,0,0
175,-104,0,0,0,0,0,0,0,0,0,-1,1399,1128,0,0
182,-104,0,0,0,0,0,0,0,0,0,-1,1406,1128,0,0
189,-104,0,0,0,0,0,0,0,0,0,-1,1413,1128,0,0
196,-104,0,0,0,0,0,0,0,0,0,-1,1420,1128,0,0
203,-104,0,0,0,0,0,0,0,0,0,-1,1427,1128,0,0
210,-104,0,0,0,0,0,0,0,0,0,-1,1434,1128,0,0
217,-104,0,0,0,0,0,0,0,0,0,-1,1441,1128,0,0
224,-104,0,0,0,0,0,0,0,0,0,-1,1448,1128,0,0
231,-104,0,0,0,0,0,0,0,0,0,-1,1455,1128,0,0
238,-104,0,0,0,0,0,0,0,0,0,-1,1462,1128,0,0
245,-104,0,0,0,0,0,0,0,0,0,-1,1469,1128,0,0
252,-104,0,0,0,0,0,0,0,0,0,-1,1476,1128,0,0
259,-104,0,0,0,0,0,0,0,0,0,-1,1483,1128,0,0
266,-104,0,0,0,0,0,0,0,0,0,-1,1490,1128,0,0
273,-104,0,0,0,0,0,0,0,0,0,-1,1497,1128,0,0
280,-104,0,0,0,0,0,0,0,0,0,-1,1504,1128,0,0
287,-104,0,0,0,0,0,0,0,0,0,-1,1511,1128,0,0
294,-104,0,0,0,0,0,0,0,0,0,-1,1518,1128,0,0
301,-104,0,0,0,0,0,0,0,0,0,-1,1525,1128,0,0
308,-104,0,0,0,0,0,0,0,0,0,-1,1532,1128,0,0
315,-104,0,0,0,0,0,0,0,0,0,-1,1539,1128,0,0
322,-104,0,0,0,0,0,0,0,0,0,-1,1546,1128,0,0
329,-104,0,0,0,0,0,0,0,0,0,-1,1553,1128,0,0
336,-104,0,0,0,0,0,0,0,0,0,-1,1560,1128,0,0
343,-104,0,0,0,0,0,0,0,0,0,-1,1567,1128,0,0
350,-104,0,0,0,0,0,0,0,0,0,-1,1574,1128,0,0
357,-104,0,0,0,0,0,0,0,0,0,-1,1581,1128,0,0
364,-104,0,0,0,0,0,0,0,0,0,-1,1588,1128,0,0
371,-104,0,0,0,0,0,0,0,0,0,-1,1595,1128,0,0
378,-104,0,0,0,0,0,0,0,0,0,-1,1602,1128,0,0
385,-104,0,0,0,0,0,0,0,0,0,-1,1609,1128,0,0
392,-104,0,0,0,0,0,0,0,0,0,-1,1616,1128,0,0
399,-104,0,0,0,0,0,0,0,0,0,-1,1623,1128,0,0
406,-104,0,0,0,0,0,0,0,0,0,-1,1630,1128,0,0
413,-104,0,0,0,0,0,0,0,0,0,-1,1637,1128,0,0
420,-104,0,0,0,0,0,0,0,0,0,-1,1644,1128,0,0
427,-104,0,0,0,0,0,0,0,0,0,-1,1651,1128,0,0
434,-104,0,0,0,0,0,0,0,0,0,-1,1658,1128,0,0
441,-104,0,0,0,0,0,0,0,0,0,-1,1665,1128,0,0
448,-104,0,0,0,0,0,0,0,0,0,-1,1672,1128,0,0
455,-104,0,0,0,0,0,0,0,0,0,-1,1679,1128,0,0
462,-104,0,0,0,0,0,0,0,0,0,-1,1686,1128,0,0
469,-104,0,0,0,0,0,0,0,0,0,-1,1693,1128,0,0
476,-104,0,0,0,0,0,0,0,0,0,-1,1700,1128,0,0
483,-104,0,0,0,0,0,0,0,0,0,-1,1707,1128,0,0
490,-104,0,0,0,0,0,0,0,0,0,-1,1714,1128,0,0
497,-104,0,0,0,0,0,0,0,0,0,-1,1721,1128,0,0
504,-104,0,0,0,0,0,0,0,0,0,-1,1728,1128,0,0
511,-104,0,0,0,0,0,0,0,0,0,-1,1735,1128,0,0
518,-104,0,0,0,0,0,0,0,0,0,-1,1742,1128,0,0
525,-104,0,0,0,0,0,0,0,0,0,-1,1749,1128,0,0
532,-104,0,0,0,0,0,0,0,0,0,-1,1756,1128,0,0
539,-104,0,0,0,0,0,0,0,0,0,-1,1763,1128,0,0
546,-104,0,0,0,0,0,0,0,0,0,-1,1770,1128,0,0
553,-104,0,0,0,0,0,0,0,0,0,-1,1777,1128,0,0
560,-104,0,0,0,0,0,0,0,0,0,-1,1784,1128,0,0
567,-104,0,0,0,0,0,0,0,0,0,-1,1791,1128,0,0
574,-104,0,0,0,0,0,0,0,0,0,-1,1798,1128,0,0
581,-104,0,0,0,0,0,0,0,0,0,-1,1805,1128,0,0
588,-104,0,0,0,0,0,0,0,0,0,-1,1812,1128,0,0
595,-104,0,0,0,0,0,0,0,0,0,-1,1819,1128,0,0
602,-104,0,0,0,0,0,0,0,0,0,-1,1826,1128,0,0
609,-104,0,0,0,0,0,0,0,0,0,-1,1833,1128,0,0
616,-104,0,0,0,0,0,0,0,0,0,-1,1840,1128,0,0
623,-104,0,0,0,0,0,0,0,0,0,-1,1847,1128,0,0
630,-104,0,0,0,0,0,0,0,0,0,-1,1854,1128,0,0
637,-104,0,0,0,0,0,0,0,0,0,-1,1861,1128,0,0
644,-104,58.9767,2.68311,-0.00224985,-0.00110061,-0.00372672,0.00209553,-0.00544599,-0.86189,0.00449505,0.0377256,1868,1128,58.9767,-2.68308
651,-104,59.0181,2.75769,-0.00131522,-0.00030544,-0.00307214,0.00230302,-0.00392368,-0.866843,0.00363535,0.0390036,1875,1128,59.018,-2.75768
658,-104,58.9482,2.58496,-0.000601909,0.000141674,-0.00240434,0.0022028,-0.00266303,-0.862107,0.00281347,0.0403772,1882,1128,58.9482,-2.58502
665,-104,58.9481,2.40283,-0.000175796,0.000438988,-0.00168694,0.00184631,-0.00158312,-0.875519,0.00198192,0.0424668,1889,1128,58.9481,-2.40284
672,-104,58.9559,2.47534,4.24679e-06,0.000625813,-0.00099153,0.00135412,-0.000724064,-0.937268,0.00121809,0.0426379,1896,1128,58.956,-2.4753
679,-104,58.908,2.63208,-0.000164523,0.000601305,-0.000434088,0.000797231,-0.000360449,-1.14682,0.00068406,0.0407617,1903,1128,58.9079,-2.63202
686,-104,58.9481,2.50854,-0.000136667,0.000416516,2.46451e-06,0.000416527,-0.000136678,1.56634,0.000332736,0.0386037,1910,1128,58.9482,-2.50852
693,-104,58.9742,2.5105,2.18475e-06,0.00022271,0.000283485,0.000416621,-0.000191726,0.970872,0.000359141,0.0345864,1917,1128,58.9742,-2.5105
700,-104,58.9974,2.51172,0.000201959,6.44018e-05,0.000442401,0.000580896,-0.000314535,0.708282,0.000524546,0.0244537,1924,1128,58.9974,-2.51174
707,-104,58.9744,2.54248,0,0,0,0,0,0,0,-1,1931,1128,58.9744,-2.54251
714,-104,45.5221,2.32166,0,0,0,0,0,0,0,-1,1938,1128,45.5221,-2.3216
721,-104,54.4034,8.23157,0,0,0,0,0,0,0,-1,1945,1128,54.4035,-8.2316
728,-104,54.5569,7.69373,0,0,0,0,0,0,0,-1,1952,1128,54.5569,-7.69376
735,-104,54.7113,7.09082,0,0,0,0,0,0,0,-1,1959,1128,54.7113,-7.09076
742,-104,54.517,6.85803,-0.00238695,0.00108068,0.00172145,0.00179012,-0.00309639,1.17989,0.00285463,0.0205807,1966,1128,54.517,-6.85806
749,-104,54.4108,6.44824,-0.00321124,0.00156519,0.00158607,0.00204389,-0.00368994,1.27768,0.00335559,0.0209815,1973,1128,54.4108,-6.44829
756,-104,54.4172,5.99744,-0.00505564,0.00267377,0.00112291,0.0028336,-0.00521547,1.42941,0.00471447,0.0179131,1980,1128,54.4173,-5.99743
763,-104,54.3428,5.59412,-0.00818786,0.00405077,-0.000491058,0.00407044,-0.00820753,-1.53076,0.00722159,0.0180059,1987,1128,54.3428,-5.59414
770,-104,54.2922,5.22754,-0.0118644,0.00571314,-0.00258899,0.00608653,-0.0122378,-1.42756,0.0107764,0.0159159,1994,1128,54.2922,-5.22753
777,-104,54.2007,4.78503,-0.0161716,0.00756407,-0.00539164,0.00873139,-0.0173389,-1.35758,0.0153227,0.0238315,2001,1128,54.2007,-4.78509
784,-104,54.1199,4.64246,-0.0213383,0.00962371,-0.00903566,0.0120677,-0.0237822,-1.30664,0.0210631,0.0413452,2008,1128,54.1199,-4.64246
791,-104,54.0718,4.51062,0,0,0,0,0,0,0,-1,2015,1128,54.0718,-4.51064
798,-104,53.8643,3.78357,0,0,0,0,0,0,0,-1,2022,1128,53.8642,-3.78355
805,-104,54.062,2.52869,-0.0447101,0.0176075,-0.0269579,0.0276506,-0.0547532,-1.21418,0.048426,0.0460507,2029,1128,54.062,-2.52864
812,-104,51.0203,1.38135,-0.0570833,0.0212436,-0.0355316,0.0349599,-0.0707996,-1.20239,0.062218,0.049621,2036,1128,51.0202,-1.38133
-700,-111,0,0,0,0,0,0,0,0,0,-1,524,1135,0,0
-693,-111,-42.9275,-5.64783,0.0828429,-0.115518,-0.0913834,0.118524,-0.151199,-0.372253,0.156105,0.0469119,531,1135,-42.9275,5.64781
-686,-111,-42.5498,-5.5033,0.0747075,-0.103084,-0.0770231,0.103434,-0.13181,-0.356982,0.136147,0.0479129,538,1135,-42.5498,5.50326
-679,-111,-42.2736,-5.26184,0.0649953,-0.0883655,-0.0634361,0.0878339,-0.111204,-0.345578,0.115178,0.0427245,545,1135,-42.2736,5.26179
-672,-111,-41.8181,-4.39917,0.0551171,-0.0732539,-0.0510221,0.0729257,-0.0910625,-0.335817,0.0948714,0.0492263,552,1135,-41.8181,4.39915
-665,-111,-41.4075,-3.37415,0,0,0,0,0,0,0,-1,559,1135,-41.4075,3.37412
-658,-111,-39.7767,1.29956,0,0,0,0,0,0,0,-1,566,1135,-39.7767,-1.29957
-651,-111,-39.5606,1.66443,0.0273379,-0.0326946,-0.0218388,0.0344419,-0.0397986,-0.314494,0.0428999,0.0462953,573,1135,-39.5606,-1.66442
-644,-111,-39.501,2.11304,0.019906,-0.0225429,-0.0151623,0.0247655,-0.0274023,-0.310155,0.0301319,0.0270649,580,1135,-39.5011,-2.11305
-637,-111,-39.5965,2.59802,0.012735,-0.0136406,-0.00896233,0.0154921,-0.0163978,-0.298449,0.0184141,0.0111932,587,1135,-39.5965,-2.59801
-630,-111,-39.6318,2.98169,0.00697414,-0.00626112,-0.00464058,0.00843909,-0.00772606,-0.305781,0.00933598,0.0219475,594,1135,-39.6318,-2.98175
-623,-111,-39.651,3.51453,0.00317892,-0.00210706,-0.0024275,0.00412455,-0.00305269,-0.371462,0.00415915,0.0185017,601,1135,-39.651,-3.51448
-616,-111,-39.9296,4.02112,0.00135445,-0.000864322,-0.00163711,0.00222265,-0.00173252,-0.487614,0.00228936,0.022402,608,1135,-39.9296,-4.02112
-609,-111,-40.1827,4.42542,0.00111232,-0.000831054,-0.00151822,0.00194318,-0.00166191,-0.500736,0.00208351,0.034256,615,1135,-40.1827,-4.42542
-602,-111,-40.0712,4.93542,0.00126902,-0.00101774,-0.00129377,0.00185224,-0.00160097,-0.423514,0.00199547,0.0405578,622,1135,-40.0712,-4.93545
-595,-111,-39.7516,5.52747,0.000413224,-0.00107172,-0.00109439,0.000993234,-0.00165173,-0.487346,0.00154276,0.0204702,629,1135,-39.7516,-5.52747
-588,-111,-39.4089,6.20862,0,0,0,0,0,0,0,-1,636,1135,-39.4089,-6.20867
-581,-111,-21.0555,3.14551,0,0,0,0,0,0,0,-1,643,1135,-21.0555,-3.14548
-574,-111,-44.4832,0.774902,0,0,0,0,0,0,0,-1,650,1135,-44.4832,-0.774873
-567,-111,-44.4395,0.839233,0.000357419,-0.000994452,-0.000419142,0.000476826,-0.00111386,-0.277531,0.000942611,0.0380957,657,1135,-44.4395,-0.839206
-560,-111,-44.4781,0.875366,0.000607109,-0.000718353,-0.000201932,0.000637191,-0.000748434,-0.14788,0.00080085,0.0404659,664,1135,-44.4782,-0.875423
-553,-111,-44.4614,0.473755,-0.000163621,-0.00022008,-0.000117197,-7.13019e-05,-0.000312399,-0.667213,0.000189036,0.0455853,671,1135,-44.4614,-0.473739
-546,-111,-44.3597,0.586792,-0.00142806,0.000307141,-0.00036766,0.000381827,-0.00150275,-1.37038,0.00115043,0.0440275,678,1135,-44.3597,-0.586739
-539,-111,-44.6163,0.846924,-0.00237795,0.00048452,-0.000695804,0.000644692,-0.00253813,-1.34454,0.00194297,0.042546,685,1135,-44.6163,-0.846922
-532,-111,-44.5911,0.901611,-0.00329413,0.000379264,-0.00111075,0.000689011,-0.00360388,-1.29884,0.00266214,0.0414948,692,1135,-44.5911,-0.901553
-525,-111,-44.8087,1.00159,-0.00434682,8.84392e-05,-0.00161694,0.000615326,-0.00487371,-1.25579,0.00347247,0.0403979,699,1135,-44.8087,-1.00156
-518,-111,0,0,0,0,0,0,0,0,0,-1,706,1135,0,0
-511,-111,0,0,0,0,0,0,0,0,0,-1,713,1135,0,0
-504,-111,0,0,0,0,0,0,0,0,0,-1,720,1135,0,0
-497,-111,0,0,0,0,0,0,0,0,0,-1,727,1135,0,0
-490,-111,0,0,0,0,0,0,0,0,0,-1,734,1135,0,0
-483,-111,0,0,0,0,0,0,0,0,0,-1,741,1135,0,0
-476,-111,0,0,0,0,0,0,0,0,0,-1,748,1135,0,0
-469,-111,0,0,0,0,0,0,0,0,0,-1,755,1135,0,0
-462,-111,0,0,0,0,0,0,0,0,0,-1,762,1135,0,0
-455,-111,0,0,0,0,0,0,0,0,0,-1,769,1135,0,0
-448,-111,0,0,0,0,0,0,0,0,0,-1,776,1135,0,0
-441,-111,0,0,0,0,0,0,0,0,0,-1,783,1135,0,0
-434,-111,0,0,0,0,0,0,0,0,0,-1,790,1135,0,0
-427,-111,0,0,0,0,0,0,0,0,0,-1,797,1135,0,0
-420,-111,0,0,0,0,0,0,0,0,0,-1,804,1135,0,0
-413,-111,0,0,0,0,0,0,0,0,0,-1,811,1135,0,0
-406,-111,0,0,0,0,0,0,0,0,0,-1,818,1135,0,0
-399,-111,0,0,0,0,0,0,0,0,0,-1,825,1135,0,0
-392,-111,0,0,0,0,0,0,0,0,0,-1,832,1135,0,0
-385,-111,0,0,0,0,0,0,0,0,0,-1,839,1135,0,0
-378,-111,0,0,0,0,0,0,0,0,0,-1,846,1135,0,0
-371,-111,0,0,0,0,0,0,0,0,0,-1,853,1135,0,0
-364,-111,0,0,0,0,0,0,0,0,0,-1,860,1135,0,0
-357,-111,0,0,0,0,0,0,0,0,0,-1,867,1135,0,0
-350,-111,0,0,0,0,0,0,0,0,0,-1,874,1135,0,0
-343,-111,0,0,0,0,0,0,0,0,0,-1,881,1135,0,0
-336,-111,0,0,0,0,0,0,0,0,0,-1,888,1135,0,0
-329,-111,0,0,0,0,0,0,0,0,0,-1,895,1135,0,0
-322,-111,0,0,0,0,0,0,0,0,0,-1,902,1135,0,0
-315,-111,0,0,0,0,0,0,0,0,0,-1,909,1135,0,0
-308,-111,0,0,0,0,0,0,0,0,0,-1,916,1135,0,0
-301,-111,0,0,0,0,0,0,0,0,0,-1,923,1135,0,0
-294,-111,0,0,0,0,0,0,0,0,0,-1,930,1135,0,0
-287,-111,0,0,0,0,0,0,0,0,0,-1,937,1135,0,0
-280,-111,0,0,0,0,0,0,0,0,0,-1,944,1135,0,0
-273,-111,0,0,0,0,0,0,0,0,0,-1,951,1135,0,0
-266,-111,0,0,0,0,0,0,0,0,0,-1,958,1135,0,0
-259,-111,0,0,0,0,0,0,0,0,0,-1,965,1135,0,0
-252,-111,0,0,0,0,0,0,0,0,0,-1,972,1135,0,0
-245,-111,0,0,0,0,0,0,0,0,0,-1,979,1135,0,0
-238,-111,0,0,0,0,0,0,0,0,0,-1,986,1135,0,0
-231,-111,0,0,0,0,0,0,0,0,0,-1,993,1135,0,0
-224,-111,0,0,0,0,0,0,0,0,0,-1,1000,1135,0,0
-217,-111,0,0,0,0,0,0,0,0,0,-1,1007,1135,0,0
-210,-111,0,0,0,0,0,0,0,0,0,-1,1014,1135,0,0
-203,-111,0,0,0,0,0,0,0,0,0,-1,1021,1135,0,0
-196,-111,0,0,0,0,0,0,0,0,0,-1,1028,1135,0,0
-189,-111,0,0,0,0,0,0,0,0,0,-1,1035,1135,0,0
-182,-111,0,0,0,0,0,0,0,0,0,-1,1042,1135,0,0
-175,-111,0,0,0,0,0,0,0,0,0,-1,1049,1135,0,0
-168,-111,0,0,0,0,0,0,0,0,0,-1,1056,1135,0,0
-161,-111,0,0,0,0,0,0,0,0,0,-1,1063,1135,0,0
-154,-111,0,0,0,0,0,0,0,0,0,-1,1070,1135,0,0
-147,-111,0,0,0,0,0,0,0,0,0,-1,1077,1135,0,0
-140,-111,0,0,0,0,0,0,0,0,0,-1,1084,1135,0,0
-133,-111,0,0,0,0,0,0,0,0,0,-1,1091,1135,0,0
-126,-111,0,0,0,0,0,0,0,0,0,-1,1098,1135,0,0
-119,-111,0,0,0,0,0,0,0,0,0,-1,1105,1135,0,0
-112,-111,0,0,0,0,0,0,0,0,0,-1,1112,1135,0,0
-105,-111,0,0,0,0,0,0,0,0,0,-1,1119,1135,0,0
-98,-111,0,0,0,0,0,0,0,0,0,-1,1126,1135,0,0
-91,-111,0,0,0,0,0,0,0,0,0,-1,1133,1135,0,0
-84,-111,0,0,0,0,0,0,0,0,0,-1,1140,1135,0,0
-77,-111,0,0,0,0,0,0,0,0,0,-1,1147,1135,0,0
-70,-111,0,0,0,0,0,0,0,0,0,-1,1154,1135,0,0
-63,-111,0,0,0,0,0,0,0,0,0,-1,1161,1135,0,0
-56,-111,0,0,0,0,0,0,0,0,0,-1,1168,1135,0,0
-49,-111,0,0,0,0,0,0,0,0,0,-1,1175,1135,0,0
-42,-111,0,0,0,0,0,0,0,0,0,-1,1182,1135,0,0
-35,-111,0,0,0,0,0,0,0,0,0,-1,1189,1135,0,0
-28,-111,0,0,0,0,0,0,0,0,0,-1,1196,1135,0,0
-21,-111,0,0,0,0,0,0,0,0,0,-1,1203,1135,0,0
-14,-111,0,0,0,0,0,0,0,0,0,-1,1210,1135,0,0
-7,-111,0,0,0,0,0,0,0,0,0,-1,1217,1135,0,0
0,-111,0,0,0,0,0,0,0,0,0,-1,1224,1135,0,0
7,-111,0,0,0,0,0,0,0,0,0,-1,1231,1135,0,0
14,-111,0,0,0,0,0,0,0,0,0,-1,1238,1135,0,0
21,-111,0,0,0,0,0,0,0,0,0,-1,1245,1135,0,0
28,-111,0,0,0,0,0,0,0,0,0,-1,1252,1135,0,0
35,-111,0,0,0,0,0,0,0,0,0,-1,1259,1135,0,0
42,-111,0,0,0,0,0,0,0,0,0,-1,1266,1135,0,0
49,-111,0,0,0,0,0,0,0,0,0,-1,1273,1135,0,0
56,-111,0,0,0,0,0,0,0,0,0,-1,1280,1135,0,0
63,-111,0,0,0,0,0,0,0,0,0,-1,1287,1135,0,0
70,-111,0,0,0,0,0,0,0,0,0,-1,1294,1135,0,0
77,-111,0,0,0,0,0,0,0,0,0,-1,1301,1135,0,0
84,-111,0,0,0,0,0,0,0,0,0,-1,1308,1135,0,0
91,-111,0,0,0,0,0,0,0,0,0,-1,1315,1135,0,0
98,-111,0,0,0,0,0,0,0,0,0,-1,1322,1135,0,0
105,-111,0,0,0,0,0,0,0,0,0,-1,1329,1135,0,0
112,-111,0,0,0,0,0,0,0,0,0,-1,1336,1135,0,0
119,-111,0,0,0,0,0,0,0,0,0,-1,1343,1135,0,0
126,-111,0,0,0,0,0,0,0,0,0,-1,1350,1135,0,0
133,-111,0,0,0,0,0,0,0,0,0,-1,1357,1135,0,0
140,-111,0,0,0,0,0,0,0,0,0,-1,1364,1135,0,0
147,-111,0,0,0,0,0,0,0,0,0,-1,1371,1135,0,0
154,-111,0,0,0,0,0,0,0,0,0,-1,1378,1135,0,0
161,-111,0,0,0,0,0,0,0,0,0,-1,1385,1135,0,0
168,-111,0,0,0,0,0,0,0,0,0,-1,1392,1135,0,0
175,-111,0,0,0,0,0,0,0,0,0,-1,1399,1135,0,0
182,-111,0,0,0,0,0,0,0,0,0,-1,1406,1135,0,0
189,-111,0,0,0,0,0,0,0,0,0,-1,1413,1135,0,0
196,-111,0,0,0,0,0,0,0,0,0,-1,1420,1135,0,0
203,-111,0,0,0,0,0,0,0,0,0,-1,1427,1135,0,0
210,-111,0,0,0,0,0,0,0,0,0,-1,1434,1135,0,0
217,-111,0,0,0,0,0,0,0,0,0,-1,1441,1135,0,0
224,-111,0,0,0,0,0,0,0,0,0,-1,1448,1135,0,0
231,-111,0,0,0,0,0,0,0,0,0,-1,1455,1135,0,0
238,-111,0,0,0,0,0,0,0,0,0,-1,1462,1135,0,0
245,-111,0,0,0,0,0,0,0,0,0,-1,1469,1135,0,0
252,-111,0,0,0,0,0,0,0,0,0,-1,1476,1135,0,0
259,-111,0,0,0,0,0,0,0,0,0,-1,1483,1135,0,0
266,-111,0,0,0,0,0,0,0,0,0,-1,1490,1135,0,0
273,-111,0,0,0,0,0,0,0,0,0,-1,1497,1135,0,0
280,-111,0,0,0,0,0,0,0,0,0,-1,1504,1135,0,0
287,-111,0,0,0,0,0,0,0,0,0,-1,1511,1135,0,0
294,-111,0,0,0,0,0,0,0,0,0,-1,1518,1135,0,0
301,-111,0,0,0,0,0,0,0,0,0,-1,1525,1135,0,0
308,-111,0,0,0,0,0,0,0,0,0,-1,1532,1135,0,0
315,-111,0,0,0,0,0,0,0,0,0,-1,1539,1135,0,0
322,-111,0,0,0,0,0,0,0,0,0,-1,1546,1135,0,0
329,-111,0,0,0,0,0,0,0,0,0,-1,1553,1135,0,0
336,-111,0,0,0,0,0,0,0,0,0,-1,1560,1135,0,0
343,-111,0,0,0,0,0,0,0,0,0,-1,1567,1135,0,0
350,-111,0,0,0,0,0,0,0,0,0,-1,1574,1135,0,0
357,-111,0,0,0,0,0,0,0,0,0,-1,1581,1135,0,0
364,-111,0,0,0,0,0,0,0,0,0,-1,1588,1135,0,0
371,-111,0,0,0,0,0,0,0,0,0,-1,1595,1135,0,0
378,-111,0,0,0,0,0,0,0,0,0,-1,1602,1135,0,0
385,-111,0,0,0,0,0,0,0,0,0,-1,1609,1135,0,0
392,-111,0,0,0,0,0,0,0,0,0,-1,1616,1135,0,0
399,-111,0,0,0,0,0,0,0,0,0,-1,1623,1135,0,0
406,-111,0,0,0,0,0,0,0,0,0,-1,1630,1135,0,0
413,-111,0,0,0,0,0,0,0,0,0,-1,1637,1135,0,0
420,-111,0,0,0,0,0,0,0,0,0,-1,1644,1135,0,0
427,-111,0,0,0,0,0,0,0,0,0,-1,1651,1135,0,0
434,-111,0,0,0,0,0,0,0,0,0,-1,1658,1135,0,0
441,-111,0,0,0,0,0,0,0,0,0,-1,1665,1135,0,0
448,-111,0,0,0,0,0,0,0,0,0,-1,1672,1135,0,0
455,-111,0,0,0,0,0,0,0,0,0,-1,1679,1135,0,0
462,-111,0,0,0,0,0,0,0,0,0,-1,1686,1135,0,0
469,-111,0,0,0,0,0,0,0,0,0,-1,1693,1135,0,0
476,-111,0,0,0,0,0,0,0,0,0,-1,1700,1135,0,0
483,-111,0,0,0,0,0,0,0,0,0,-1,1707,1135,0,0
490,-111,0,0,0,0,0,0,0,0,0,-1,1714,1135,0,0
497,-111,0,0,0,0,0,0,0,0,0,-1,1721,1135,0,0
504,-111,0,0,0,0,0,0,0,0,0,-1,1728,1135,0,0
511,-111,0,0,0,0,0,0,0,0,0,-1,1735,1135,0,0
518,-111,0,0,0,0,0,0,0,0,0,-1,1742,1135,0,0
525,-111,0,0,0,0,0,0,0,0,0,-1,1749,1135,0,0
532,-111,0,0,0,0,0,0,0,0,0,-1,1756,1135,0,0
539,-111,0,0,0,0,0,0,0,0,0,-1,1763,1135,0,0
546,-111,0,0,0,0,0,0,0,0,0,-1,1770,1135,0,0
553,-111,0,0,0,0,0,0,0,0,0,-1,1777,1135,0,0
560,-111,0,0,0,0,0,0,0,0,0,-1,1784,1135,0,0
567,-111,0,0,0,0,0,0,0,0,0,-1,1791,1135,0,0
574,-111,0,0,0,0,0,0,0,0,0,-1,1798,1135,0,0
581,-111,0,0,0,0,0,0,0,0,0,-1,1805,1135,0,0
588,-111,0,0,0,0,0,0,0,0,0,-1,1812,1135,0,0
595,-111,0,0,0,0,0,0,0,0,0,-1,1819,1135,0,0
602,-111,0,0,0,0,0,0,0,0,0,-1,1826,1135,0,0
609,-111,0,0,0,0,0,0,0,0,0,-1,1833,1135,0,0
616,-111,0,0,0,0,0,0,0,0,0,-1,1840,1135,0,0
623,-111,0,0,0,0,0,0,0,0,0,-1,1847,1135,0,0
630,-111,0,0,0,0,0,0,0,0,0,-1,1854,1135,0,0
637,-111,0,0,0,0,0,0,0,0,0,-1,1861,1135,0,0
644,-111,58.3677,3.6394,0,0,0,0,0,0,0,-1,1868,1135,58.3677,-3.63943
651,-111,58.6608,3.23291,-0.00122945,-0.000106798,-0.00293955,0.00232454,-0.0036608,-0.879741,0.00348423,0.0425704,1875,1135,58.6607,-3.23288
658,-111,58.9912,2.69873,-0.000642429,0.000334731,-0.00228326,0.0021811,-0.0024888,-0.8908,0.00269812,0.0416829,1882,1135,58.9912,-2.69876
665,-111,59.1129,2.45581,-0.000295823,0.000622248,-0.0015612,0.0017905,-0.00146408,-0.928382,0.00188218,0.0416296,1889,1135,59.1129,-2.45577
672,-111,59.0399,2.38965,-0.000198725,0.000784433,-0.000857178,0.00128099,-0.000695277,-1.04575,0.00115758,0.0429352,1896,1135,59.04,-2.38961
679,-111,59.0028,2.28809,0,0,0,0,0,0,0,-1,1903,1135,59.0028,-2.28806
686,-111,58.9202,2.4613,-0.000447845,0.000440266,0.000135301,0.000460421,-0.000468,1.42292,0.00053603,0.0354607,1910,1135,58.9201,-2.46132
693,-111,58.9114,2.57458,-0.000338054,0.00023614,0.000385921,0.000430042,-0.000531956,1.1052,0.000556447,0.0342696,1917,1135,58.9113,-2.57461
700,-111,58.9802,2.58032,-0.000142258,4.163e-05,0.000518739,0.000476511,-0.000577138,0.87311,0.000609248,0.0240465,1924,1135,58.9802,-2.58038
707,-111,58.9774,2.56152,0,0,0,0,0,0,0,-1,1931,1135,58.9774,-2.56147
714,-111,45.1654,7.39746,0,0,0,0,0,0,0,-1,1938,1135,45.1654,-7.39745
721,-111,53.9585,8.3446,0,0,0,0,0,0,0,-1,1945,1135,53.9585,-8.34461
728,-111,54.0529,7.76465,-0.00101715,0.000263004,0.00150423,0.00125767,-0.00201182,0.986553,0.00190431,0.0243775,1952,1135,54.0528,-7.76469
735,-111,54.0969,7.34949,-0.00142661,0.000425947,0.00169268,0.00142922,-0.00242988,1.03575,0.00225288,0.0263302,1959,1135,54.0969,-7.34951
742,-111,54.0089,6.93188,-0.00211848,0.000813631,0.00179166,0.00166261,-0.00296746,1.12829,0.00270832,0.0171684,1966,1135,54.0089,-6.93183
749,-111,53.9447,6.47314,-0.00282653,0.00130849,0.00177907,0.00196856,-0.0034866,1.21552,0.00318993,0.0176567,1973,1135,53.9447,-6.47318
756,-111,53.926,6.01685,-0.00453216,0.00247494,0.00145409,0.0027647,-0.00482192,1.3741,0.00443349,0.0168961,1980,1135,53.926,-6.01682
763,-111,53.8816,5.59253,-0.00754888,0.00381709,9.88052e-05,0.00381794,-0.00754974,1.5621,0.00667998,0.01593,1987,1135,53.8816,-5.59251
770,-111,53.8782,5.17346,-0.0110307,0.00545981,-0.00162426,0.00561827,-0.0111892,-1.47354,0.00987986,0.013955,1994,1135,53.8782,-5.1734
777,-111,53.686,4.73096,-0.0151957,0.00726231,-0.00396132,0.00794056,-0.0158739,-1.40122,0.0140013,0.0271974,2001,1135,53.6859,-4.73097
784,-111,53.5408,4.62402,-0.0204053,0.00925941,-0.00707411,0.01086,-0.0220059,-1.34828,0.0193354,0.0418743,2008,1135,53.5409,-4.62405
791,-111,52.5344,4.25293,-0.0268653,0.0114854,-0.0111325,0.0144827,-0.0298626,-1.30779,0.026111,0.0460025,2015,1135,52.5343,-4.2529
798,-111,51.6814,3.36609,0,0,0,0,0,0,0,-1,2022,1135,51.6813,-3.36612
805,-111,51.1494,2.36584,-0.045139,0.0169766,-0.0228272,0.0244632,-0.0526255,-1.25388,0.0454864,0.0457314,2029,1135,51.1494,-2.36581
812,-111,50.5186,1.36523,-0.0586064,0.0204947,-0.0304879,0.0308817,-0.0689934,-1.24244,0.0590458,0.0469715,2036,1135,50.5186,-1.36525
-700,-118,0,0,0,0,0,0,0,0,0,-1,524,1142,0,0
-693,-118,-42.0697,-4.74683,0.0804723,-0.125414,-0.0920359,0.115616,-0.160557,-0.364758,0.160151,0.0490858,531,1142,-42.0697,4.74685
-686,-118,-41.4463,-4.41089,0.0727352,-0.112143,-0.0772525,0.100766,-0.140173,-0.34807,0.139725,0.0483281,538,1142,-41.4463,4.41092
-679,-118,-41.1372,-3.9314,0.0633228,-0.096088,-0.0634754,0.0855099,-0.118275,-0.336263,0.118161,0.0440244,545,1142,-41.1372,3.9314
-672,-118,-40.8085,-3.2782,0.0537569,-0.0795592,-0.0510213,0.0710421,-0.0968444,-0.326648,0.0973102,0.0493974,552,1142,-40.8085,3.27821
-665,-118,-40.4687,-3.05469,0,0,0,0,0,0,0,-1,559,1142,-40.4687,3.05473
-658,-118,-40.1229,1.07239,0,0,0,0,0,0,0,-1,566,1142,-40.1228,-1.07238
-651,-118,-39.4616,1.59229,0.026781,-0.0354673,-0.0220684,0.0338109,-0.0424971,-0.308386,0.0441515,0.045932,573,1142,-39.4616,-1.59232
-644,-118,-38.886,2.09924,0.0194013,-0.0242608,-0.0153575,0.0242619,-0.0291215,-0.306526,0.0308635,0.0321102,580,1142,-38.886,-2.09922
-637,-118,-39.0809,2.63196,0.012349,-0.0147178,-0.00932126,0.0152485,-0.0176172,-0.301571,0.0189914,0.0165866,587,1142,-39.0809,-2.63193
-630,-118,-39.1348,3.0907,0.00665016,-0.00684202,-0.00505905,0.00833637,-0.00852823,-0.321726,0.009737,0.0226466,594,1142,-39.1348,-3.09076
-623,-118,-39.0997,3.55518,0.00267261,-0.00223709,-0.00273992,0.00389654,-0.00346102,-0.42011,0.00425037,0.0187612,601,1142,-39.0997,-3.55523
-616,-118,-39.2381,4.01538,0.000730851,-0.00102457,-0.00192634,0.00197002,-0.00226374,-0.571632,0.00244632,0.0261107,608,1142,-39.2381,-4.01534
-609,-118,-39.504,4.31909,0.000401774,-0.000961066,-0.00166727,0.0015215,-0.00208079,-0.591405,0.00208812,0.0401281,615,1142,-39.504,-4.31913
-602,-118,-39.3663,5.08191,0.000587981,-0.000919739,-0.00141788,0.00143995,-0.00177171,-0.541063,0.00185755,0.04088,622,1142,-39.3663,-5.08187
-595,-118,-39.5482,5.8551,0,0,0,0,0,0,0,-1,629,1142,-39.5482,-5.85509
-588,-118,-38.276,6.11401,0,0,0,0,0,0,0,-1,636,1142,-38.276,-6.11398
-581,-118,-24.6116,3.89648,0,0,0,0,0,0,0,-1,643,1142,-24.6116,-3.89645
-574,-118,-44.4894,0.848145,0,0,0,0,0,0,0,-1,650,1142,-44.4894,-0.848203
-567,-118,-44.4715,0.881836,-0.000160802,-0.000753126,-0.000514068,0.000136313,-0.00105024,-0.524062,0.00074974,0.0429286,657,1142,-44.4715,-0.881869
-560,-118,-44.4471,0.851074,0.000297349,-0.000476586,-0.000248993,0.000370535,-0.000549772,-0.285877,0.000534688,0.0383504,664,1142,-44.4471,-0.851089
-553,-118,-44.39,0.664917,-0.000303722,0.000121009,-9.34498e-05,0.00014066,-0.000323374,-1.36353,0.000274746,0.0410696,671,1142,-44.3899,-0.664911
-546,-118,-44.2967,0.831787,-0.00148957,0.000812785,-0.000287597,0.000848166,-0.00152495,-1.44839,0.00138857,0.0413917,678,1142,-44.2967,-0.831746
-539,-118,-44.3361,0.963379,-0.0025205,0.0012888,-0.000562507,0.00137013,-0.00260183,-1.42721,0.00232967,0.0423862,685,1142,-44.3361,-0.963384
-532,-118,-44.4661,1.11646,-0.00346293,0.00148183,-0.000922459,0.00164831,-0.00362941,-1.39224,0.00311783,0.0433238,692,1142,-44.4661,-1.11647
-525,-118,-44.6008,1.18005,-0.00448499,0.00151577,-0.00137369,0.00181529,-0.00478451,-1.35612,0.00393684,0.0438321,699,1142,-44.6008,-1.18001
-518,-118,0,0,0,0,0,0,0,0,0,-1,706,1142,0,0
-511,-118,0,0,0,0,0,0,0,0,0,-1,713,1142,0,0
-504,-118,0,0,0,0,0,0,0,0,0,-1,720,1142,0,0
-497,-118,0,0,0,0,0,0,0,0,0,-1,727,1142,0,0
-490,-118,0,0,0,0,0,0,0,0,0,-1,734,1142,0,0
-483,-118,0,0,0,0,0,0,0,0,0,-1,741,1142,0,0
-476,-118,0,0,0,0,0,0,0,0,0,-1,748,1142,0,0
-469,-118,0,0,0,0,0,0,0,0,0,-1,755,1142,0,0
-462,-118,0,0,0,0,0,0,0,0,0,-1,762,1142,0,0
-455,-118,0,0,0,0,0,0,0,0,0,-1,769,1142,0,0
-448,-118,0,0,0,0,0,0,0,0,0,-1,776,1142,0,0
-441,-118,0,0,0,0,0,0,0,0,0,-1,783,1142,0,0
-434,-118,0,0,0,0,0,0,0,0,0,-1,790,1142,0,0
-427,-118,0,0,0,0,0,0,0,0,0,-1,797,1142,0,0
-420,-118,0,0,0,0,0,0,0,0,0,-1,804,1142,0,0
-413,-118,0,0,0,0,0,0,0,0,0,-1,811,1142,0,0
-406,-118,0,0,0,0,0,0,0,0,0,-1,818,1142,0,0
-399,-118,0,0,0,0,0,0,0,0,0,-1,825,1142,0,0
-392,-118,0,0,0,0,0,0,0,0,0,-1,832,1142,0,0
-385,-118,0,0,0,0,0,0,0,0,0,-1,839,1142,0,0
-378,-118,0,0,0,0,0,0,0,0,0,-1,846,1142,0,0
-371,-118,0,0,0,0,0,0,0,0,0,-1,853,1142,0,0
-364,-118,0,0,0,0,0,0,0,0,0,-1,860,1142,0,0
-357,-118,0,0,0,0,0,0,0,0,0,-1,867,1142,0,0
-350,-118,0,0,0,0,0,0,0,0,0,-1,874,1142,0,0
-343,-118,0,0,0,0,0,0,0,0,0,-1,881,1142,0,0
-336,-118,0,0,0,0,0,0,0,0,0,-1,888,1142,0,0
-329,-118,0,0,0,0,0,0,0,0,0,-1,895,1142,0,0
-322,-118,0,0,0,0,0,0,0,0,0,-1,902,1142,0,0
-315,-118,0,0,0,0,0,0,0,0,0,-1,909,1142,0,0
-308,-118,0,0,0,0,0,0,0,0,0,-1,916,1142,0,0
-301,-118,0,0,0,0,0,0,0,0,0,-1,923,1142,0,0
-294,-118,0,0,0,0,0,0,0,0,0,-1,930,1142,0,0
-287,-118,0,0,0,0,0,0,0,0,0,-1,937,1142,0,0
-280,-118,0,0,0,0,0,0,0,0,0,-1,944,1142,0,0
-273,-118,0,0,0,0,0,0,0,0,0,-1,951,1142,0,0
-266,-118,0,0,0,0,0,0,0,0,0,-1,958,1142,0,0
-259,-118,0,0,0,0,0,0,0,0,0,-1,965,1142,0,0
-252,-118,0,0,0,0,0,0,0,0,0,-1,972,1142,0,0
-245,-118,0,0,0,0,0,0,0,0,0,-1,979,1142,0,0
-238,-118,0,0,0,0,0,0,0,0,0,-1,986,1142,0,0
-231,-118,0,0,0,0,0,0,0,0,0,-1,993,1142,0,0
-224,-118,0,0,0,0,0,0,0,0,0,-1,1000,1142,0,0
-217,-118,0,0,0,0,0,0,0,0,0,-1,1007,1142,0,0
-210,-118,0,0,0,0,0,0,0,0,0,-1,1014,1142,0,0
-203,-118,0,0,0,0,0,0,0,0,0,-1,1021,1142,0,0
-196,-118,0,0,0,0,0,0,0,0,0,-1,1028,1142,0,0
-189,-118,0,0,0,0,0,0,0,0,0,-1,1035,1142,0,0
-182,-118,0,0,0,0,0,0,0,0,0,-1,1042,1142,0,0
-175,-118,0,0,0,0,0,0,0,0,0,-1,1049,1142,0,0
-168,-118,0,0,0,0,0,0,0,0,0,-1,1056,1142,0,0
-161,-118,0,0,0,0,0,0,0,0,0,-1,1063,1142,0,0
-154,-118,0,0,0,0,0,0,0,0,0,-1,1070,1142,0,0
-147,-118,0,0,0,0,0,0,0,0,0,-1,1077,1142,0,0
-140,-118,0,0,0,0,0,0,0,0,0,-1,1084,1142,0,0
-133,-118,0,0,0,0,0,0,0,0,0,-1,1091,1142,0,0
-126,-118,0,0,0,0,0,0,0,0,0,-1,1098,1142,0,0
-119,-118,0,0,0,0,0,0,0,0,0,-1,1105,1142,0,0
-112,-118,0,0,0,0,0,0,0,0,0,-1,1112,1142,0,0
-105,-118,0,0,0,0,0,0,0,0,0,-1,1119,1142,0,0
-98,-118,0,0,0,0,0,0,0,0,0,-1,1126,1142,0,0
-91,-118,0,0,0,0,0,0,0,0,0,-1,1133,1142,0,0
-84,-118,0,0,0,0,0,0,0,0,0,-1,1140,1142,0,0
-77,-118,0,0,0,0,0,0,0,0,0,-1,1147,1142,0,0
-70,-118,0,0,0,0,0,0,0,0,0,-1,1154,1142,0,0
-63,-118,0,0,0,0,0,0,0,0,0,-1,1161,1142,0,0
-56,-118,0,0,0,0,0,0,0,0,0,-1,1168,1142,0,0
-49,-118,0,0,0,0,0,0,0,0,0,-1,1175,1142,0,0
-42,-118,0,0,0,0,0,0,0,0,0,-1,1182,1142,0,0
-35,-118,0,0,0,0,0,0,0,0,0,-1,1189,1142,0,0
-28,-118,0,0,0,0,0,0,0,0,0,-1,1196,1142,0,0
-21,-118,0,0,0,0,0,0,0,0,0,-1,1203,1142,0,0
-14,-118,0,0,0,0,0,0,0,0,0,-1,1210,1142,0,0
-7,-118,0,0,0,0,0,0,0,0,0,-1,1217,1142,0,0
0,-118,0,0,0,0,0,0,0,0,0,-1,1224,1142,0,0
7,-118,0,0,0,0,0,0,0,0,0,-1,1231,1142,0,0
14,-118,0,0,0,0,0,0,0,0,0,-1,1238,1142,0,0
21,-118,0,0,0,0,0,0,0,0,0,-1,1245,1142,0,0
28,-118,0,0,0,0,0,0,0,0,0,-1,1252,1142,0,0
35,-118,0,0,0,0,0,0,0,0,0,-1,1259,1142,0,0
42,-118,0,0,0,0,0,0,0,0,0,-1,1266,1142,0,0
49,-118,0,0,0,0,0,0,0,0,0,-1,1273,1142,0,0
56,-118,0,0,0,0,0,0,0,0,0,-1,1280,1142,0,0
63,-118,0,0,0,0,0,0,0,0,0,-1,1287,1142,0,0
70,-118,0,0,0,0,0,0,0,0,0,-1,1294,1142,0,0
77,-118,0,0,0,0,0,0,0,0,0,-1,1301,1142,0,0
84,-118,0,0,0,0,0,0,0,0,0,-1,1308,1142,0,0
91,-118,0,0,0,0,0,0,0,0,0,-1,1315,1142,0,0
98,-118,0,0,0,0,0,0,0,0,0,-1,1322,1142,0,0
105,-118,0,0,0,0,0,0,0,0,0,-1,1329,1142,0,0
112,-118,0,0,0,0,0,0,0,0,0,-1,1336,1142,0,0
119,-118,0,0,0,0,0,0,0,0,0,-1,1343,1142,0,0
126,-118,0,0,0,0,0,0,0,0,0,-1,1350,1142,0,0
133,-118,0,0,0,0,0,0,0,0,0,-1,1357,1142,0,0
140,-118,0,0,0,0,0,0,0,0,0,-1,1364,1142,0,0
147,-118,0,0,0,0,0,0,0,0,0,-1,1371,1142,0,0
154,-118,0,0,0,0,0,0,0,0,0,-1,1378,1142,0,0
161,-118,0,0,0,0,0,0,0,0,0,-1,1385,1142,0,0
168,-118,0,0,0,0,0,0,0,0,0,-1,1392,1142,0,0
175,-118,0,0,0,0,0,0,0,0,0,-1,1399,1142,0,0
182,-118,0,0,0,0,0,0,0,0,0,-1,1406,1142,0,0
189,-118,0,0,0,0,0,0,0,0,0,-1,1413,1142,0,0
196,-118,0,0,0,0,0,0,0,0,0,-1,1420,1142,0,0
203,-118,0,0,0,0,0,0,0,0,0,-1,1427,1142,0,0
210,-118,0,0,0,0,0,0,0,0,0,-1,1434,1142,0,0
217,-118,0,0,0,0,0,0,0,0,0,-1,1441,1142,0,0
224,-118,0,0,0,0,0,0,0,0,0,-1,1448,1142,0,0
231,-118,0,0,0,0,0,0,0,0,0,-1,1455,1142,0,0
238,-118,0,0,0,0,0,0,0,0,0,-1,1462,1142,0,0
245,-118,0,0,0,0,0,0,0,0,0,-1,1469,1142,0,0
252,-118,0,0,0,0,0,0,0,0,0,-1,1476,1142,0,0
259,-118,0,0,0,0,0,0,0,0,0,-1,1483,1142,0,0
266,-118,0,0,0,0,0,0,0,0,0,-1,1490,1142,0,0
273,-118,0,0,0,0,0,0,0,0,0,-1,1497,1142,0,0
280,-118,0,0,0,0,0,0,0,0,0,-1,1504,1142,0,0
287,-118,0,0,0,0,0,0,0,0,0,-1,1511,1142,0,0
294,-118,0,0,0,0,0,0,0,0,0,-1,1518,1142,0,0
301,-118,0,0,0,0,0,0,0,0,0,-1,1525,1142,0,0
308,-118,0,0,0,0,0,0,0,0,0,-1,1532,1142,0,0
315,-118,0,0,0,0,0,0,0,0,0,-1,1539,1142,0,0
322,-118,0,0,0,0,0,0,0,0,0,-1,1546,1142,0,0
329,-118,0,0,0,0,0,0,0,0,0,-1,1553,1142,0,0
336,-118,0,0,0,0,0,0,0,0,0,-1,1560,1142,0,0
343,-118,0,0,0,0,0,0,0,0,0,-1,1567,1142,0,0
350,-118,0,0,0,0,0,0,0,0,0,-1,1574,1142,0,0
357,-118,0,0,0,0,0,0,0,0,0,-1,1581,1142,0,0
364,-118,0,0,0,0,0,0,0,0,0,-1,1588,1142,0,0
371,-118,0,0,0,0,0,0,0,0,0,-1,1595,1142,0,0
378,-118,0,0,0,0,0,0,0,0,0,-1,1602,1142,0,0
385,-118,0,0,0,0,0,0,0,0,0,-1,1609,1142,0,0
392,-118,0,0,0,0,0,0,0,0,0,-1,1616,1142,0,0
399,-118,0,0,0,0,0,0,0,0,0,-1,1623,1142,0,0
406,-118,0,0,0,0,0,0,0,0,0,-1,1630,1142,0,0
413,-118,0,0,0,0,0,0,0,0,0,-1,1637,1142,0,0
420,-118,0,0,0,0,0,0,0,0,0,-1,1644,1142,0,0
427,-118,0,0,0,0,0,0,0,0,0,-1,1651,1142,0,0
434,-118,0,0,0,0,0,0,0,0,0,-1,1658,1142,0,0
441,-118,0,0,0,0,0,0,0,0,0,-1,1665,1142,0,0
448,-118,0,0,0,0,0,0,0,0,0,-1,1672,1142,0,0
455,-118,0,0,0,0,0,0,0,0,0,-1,1679,1142,0,0
462,-118,0,0,0,0,0,0,0,0,0,-1,1686,1142,0,0
469,-118,0,0,0,0,0,0,0,0,0,-1,1693,1142,0,0
476,-118,0,0,0,0,0,0,0,0,0,-1,1700,1142,0,0
483,-118,0,0,0,0,0,0,0,0,0,-1,1707,1142,0,0
490,-118,0,0,0,0,0,0,0,0,0,-1,1714,1142,0,0
497,-118,0,0,0,0,0,0,0,0,0,-1,1721,1142,0,0
504,-118,0,0,0,0,0,0,0,0,0,-1,1728,1142,0,0
511,-118,0,0,0,0,0,0,0,0,0,-1,1735,1142,0,0
518,-118,0,0,0,0,0,0,0,0,0,-1,1742,1142,0,0
525,-118,0,0,0,0,0,0,0,0,0,-1,1749,1142,0,0
532,-118,0,0,0,0,0,0,0,0,0,-1,1756,1142,0,0
539,-118,0,0,0,0,0,0,0,0,0,-1,1763,1142,0,0
546,-118,0,0,0,0,0,0,0,0,0,-1,1770,1142,0,0
553,-118,0,0,0,0,0,0,0,0,0,-1,1777,1142,0,0
560,-118,0,0,0,0,0,0,0,0,0,-1,1784,1142,0,0
567,-118,0,0,0,0,0,0,0,0,0,-1,1791,1142,0,0
574,-118,0,0,0,0,0,0,0,0,0,-1,1798,1142,0,0
581,-118,0,0,0,0,0,0,0,0,0,-1,1805,1142,0,0
588,-118,0,0,0,0,0,0,0,0,0,-1,1812,1142,0,0
595,-118,0,0,0,0,0,0,0,0,0,-1,1819,1142,0,0
602,-118,0,0,0,0,0,0,0,0,0,-1,1826,1142,0,0
609,-118,0,0,0,0,0,0,0,0,0,-1,1833,1142,0,0
616,-118,0,0,0,0,0,0,0,0,0,-1,1840,1142,0,0
623,-118,0,0,0,0,0,0,0,0,0,-1,1847,1142,0,0
630,-118,0,0,0,0,0,0,0,0,0,-1,1854,1142,0,0
637,-118,0,0,0,0,0,0,0,0,0,-1,1861,1142,0,0
644,-118,59.1398,2.83997,-0.00172379,-0.000238327,-0.00339485,0.00249409,-0.00445621,-0.893092,0.0040657,0.0405167,1868,1142,59.1397,-2.84002
651,-118,59.0347,2.90808,-0.0011668,0.000416728,-0.00277512,0.00251082,-0.00326089,-0.92436,0.00334167,0.0414121,1875,1142,59.0347,-2.90806
658,-118,59.1362,2.62292,-0.00070211,0.000714777,-0.00208124,0.00220485,-0.00219218,-0.949444,0.00253863,0.0417547,1882,1142,59.1363,-2.62293
665,-118,59.2683,2.43896,-0.000428509,0.000858565,-0.0013324,0.0016947,-0.00126464,-1.01037,0.00171458,0.0416549,1889,1142,59.2683,-2.43896
672,-118,59.0448,2.55347,-0.000413825,0.00087979,-0.000614785,0.00112535,-0.000659385,-1.19079,0.00104206,0.0451413,1896,1142,59.0448,-2.55343
679,-118,58.8949,2.63489,-0.000724093,0.000647786,-3.17556e-05,0.000648521,-0.000724827,-1.54767,0.000793311,0.0407202,1903,1142,58.8949,-2.63494
686,-118,58.8433,2.59106,-0.000753445,0.000322917,0.000350958,0.000427239,-0.000857767,1.28186,0.000755651,0.0336494,1910,1142,58.8433,-2.5911
693,-118,58.85,2.58447,-0.000662029,0.000125531,0.000543628,0.000403014,-0.000939512,1.09884,0.00079547,0.0322596,1917,1142,58.85,-2.58449
700,-118,58.9531,2.60632,-0.000465473,-8.02161e-05,0.000635204,0.000390924,-0.000936614,0.932618,0.000787743,0.0195823,1924,1142,58.9531,-2.60638
707,-118,59.0167,2.67456,0,0,0,0,0,0,0,-1,1931,1142,59.0167,-2.6746
714,-118,50.4819,8.53809,0,0,0,0,0,0,0,-1,1938,1142,50.4819,-8.53809
721,-118,53.4757,8.3949,0,0,0,0,0,0,0,-1,1945,1142,53.4757,-8.39492
728,-118,53.5677,7.87439,-0.00105937,4.87093e-05,0.00148121,0.00107611,-0.00208676,0.964365,0.0018569,0.0208012,1952,1142,53.5678,-7.8744
735,-118,53.5333,7.42273,-0.00125294,0.000171805,0.00164122,0.00124858,-0.00232972,0.990155,0.00209713,0.0207348,1959,1142,53.5334,-7.42276
742,-118,53.5441,6.97424,-0.00170739,0.000533182,0.00176432,0.00150284,-0.00267705,1.06827,0.00244479,0.0296235,1966,1142,53.5441,-6.97418
749,-118,53.4678,6.49866,-0.00227411,0.00107819,0.00183867,0.00189005,-0.00308597,1.15499,0.00290043,0.0225827,1973,1142,53.4678,-6.49864
756,-118,53.4684,6.03564,-0.00371426,0.00234228,0.001649,0.00276214,-0.00413412,1.32148,0.00400774,0.0180523,1980,1142,53.4684,-6.0356
763,-118,53.4624,5.57837,-0.00636325,0.00376184,0.000617652,0.00379938,-0.00640079,1.51009,0.00595257,0.010864,1987,1142,53.4624,-5.57839
770,-118,53.3827,5.16614,-0.00937594,0.00549285,-0.000674335,0.00552337,-0.00940646,-1.52557,0.00871638,0.0138423,1994,1142,53.3827,-5.16618
777,-118,53.2231,4.72876,-0.0130875,0.00740297,-0.00245381,0.00769272,-0.0133772,-1.45326,0.0123114,0.0288755,2001,1142,53.2231,-4.72877
784,-118,53.1343,4.24805,-0.0179122,0.00955987,-0.00486614,0.0103963,-0.0187487,-1.40056,0.0170556,0.0424085,2008,1142,53.1343,-4.24806
791,-118,52.752,3.67273,-0.0239872,0.0120267,-0.00804553,0.0137424,-0.0257029,-1.3607,0.0231201,0.0469577,2015,1142,52.752,-3.67267
798,-118,52.1479,2.93079,0,0,0,0,0,0,0,-1,2022,1142,52.148,-2.93075
805,-118,50.8398,2.34265,0,0,0,0,0,0,0,-1,2029,1142,50.8399,-2.34266
812,-118,50.0842,1.26587,0,0,0,0,0,0,0,-1,2036,1142,50.0842,-1.26582
-700,-125,0,0,0,0,0,0,0,0,0,-1,524,1149,0,0
-693,-125,-40.8734,-3.98816,0.0769951,-0.121714,-0.090865,0.11228,-0.156999,-0.370399,0.156181,0.0486557,531,1149,-40.8733,3.98819
-686,-125,-40.3321,-3.22278,0.0697941,-0.10992,-0.0766906,0.0980715,-0.138197,-0.353254,0.137064,0.0454928,538,1149,-40.3321,3.22284
-679,-125,-40.04,-2.80334,0.0608694,-0.0947702,-0.0633642,0.0834037,-0.117304,-0.341683,0.116429,0.0439616,545,1149,-40.04,2.80333
-672,-125,-39.7606,-2.59949,0.0517884,-0.0788801,-0.0512523,0.0694924,-0.0965841,-0.332598,0.0963087,0.0483455,552,1149,-39.7606,2.59945
-665,-125,-39.4634,-2.39978,0,0,0,0,0,0,0,-1,559,1149,-39.4634,2.39975
-658,-125,-39.8783,1.03931,0,0,0,0,0,0,0,-1,566,1149,-39.8783,-1.0393
-651,-125,-39.1366,1.62158,0.0260109,-0.0358278,-0.0227561,0.0334823,-0.0432991,-0.317234,0.0444504,0.041249,573,1149,-39.1366,-1.62161
-644,-125,-38.425,2.12256,0.0188019,-0.0246372,-0.0159845,0.0240498,-0.0298851,-0.317224,0.0312,0.0310732,580,1149,-38.425,-2.12251
-637,-125,-38.5485,2.61438,0.011917,-0.0150502,-0.00996899,0.0152021,-0.0183353,-0.318322,0.0193909,0.0144954,587,1149,-38.5485,-2.61439
-630,-125,-38.5646,3.09961,0.00626193,-0.00712812,-0.0055571,0.00826775,-0.00913394,-0.346394,0.010051,0.0146299,594,1149,-38.5646,-3.09958
-623,-125,-38.5551,3.58154,0.00211742,-0.00230363,-0.0030018,0.00363479,-0.00382101,-0.468028,0.00430505,0.0128956,601,1149,-38.5551,-3.58157
-616,-125,-38.6181,4.03699,3.26386e-05,-0.00110304,-0.00214828,0.00168685,-0.00275726,-0.656191,0.0025905,0.0271699,608,1149,-38.6181,-4.03702
-609,-125,-38.7948,4.43872,-0.0003406,-0.00119114,-0.00185543,0.00113768,-0.00266942,-0.672742,0.00225655,0.0478327,615,1149,-38.7948,-4.43876
-602,-125,-38.7542,5.14026,-0.000119532,-0.00103593,-0.00163067,0.00111609,-0.00227155,-0.648436,0.00199342,0.0394519,622,1149,-38.7542,-5.14027
-595,-125,-38.9412,5.77673,0,0,0,0,0,0,0,-1,629,1149,-38.9412,-5.77676
-588,-125,-37.5953,6.07361,0,0,0,0,0,0,0,-1,636,1149,-37.5953,-6.0736
-581,-125,-26.4055,4.83203,0,0,0,0,0,0,0,-1,643,1149,-26.4055,-4.83204
-574,-125,-37.674,0.655151,0,0,0,0,0,0,0,-1,650,1149,-37.674,-0.655195
-567,-125,-44.4636,0.860352,0,0,0,0,0,0,0,-1,657,1149,-44.4636,-0.860303
-560,-125,-44.4273,0.690674,2.59259e-06,-0.000676718,-0.000372493,0.000167037,-0.000841163,-0.415738,0.000623952,0.0396479,664,1149,-44.4273,-0.690659
-553,-125,-44.3577,0.671021,-0.000335772,-7.63485e-05,-0.000122867,-2.73948e-05,-0.000384726,-1.19164,0.000247857,0.0419108,671,1149,-44.3577,-0.670978
-546,-125,-44.3504,0.770996,-0.0012827,0.000705988,-0.000197686,0.000725449,-0.00130216,-1.47267,0.00118632,0.0417913,678,1149,-44.3504,-0.771027
-539,-125,-44.4028,1.06213,-0.0021528,0.00146453,-0.000355684,0.00149917,-0.00218744,-1.47371,0.0021408,0.0409434,685,1149,-44.4028,-1.06215
-532,-125,-44.4698,1.12915,-0.00286097,0.00196259,-0.000603072,0.00203685,-0.00293523,-1.44828,0.00288621,0.0393842,692,1149,-44.4698,-1.1291
-525,-125,-44.3967,1.01965,-0.003562,0.00231823,-0.000964502,0.00247239,-0.00371616,-1.4123,0.00359693,0.0424774,699,1149,-44.3966,-1.01967
-518,-125,0,0,0,0,0,0,0,0,0,-1,706,1149,0,0
-511,-125,0,0,0,0,0,0,0,0,0,-1,713,1149,0,0
-504,-125,0,0,0,0,0,0,0,0,0,-1,720,1149,0,0
-497,-125,0,0,0,0,0,0,0,0,0,-1,727,1149,0,0
-490,-125,0,0,0,0,0,0,0,0,0,-1,734,1149,0,0
-483,-125,0,0,0,0,0,0,0,0,0,-1,741,1149,0,0
-476,-125,0,0,0,0,0,0,0,0,0,-1,748,1149,0,0
-469,-125,0,0,0,0,0,0,0,0,0,-1,755,1149,0,0
-462,-125,0,0,0,0,0,0,0,0,0,-1,762,1149,0,0
-455,-125,0,0,0,0,0,0,0,0,0,-1,769,1149,0,0
-448,-125,0,0,0,0,0,0,0,0,0,-1,776,1149,0,0
-441,-125,0,0,0,0,0,0,0,0,0,-1,783,1149,0,0
-434,-125,0,0,0,0,0,0,0,0,0,-1,790,1149,0,0
-427,-125,0,0,0,0,0,0,0,0,0,-1,797,1149,0,0
-420,-125,0,0,0,0,0,0,0,0,0,-1,804,1149,0,0
-413,-125,0,0,0,0,0,0,0,0,0,-1,811,1149,0,0
-406,-125,0,0,0,0,0,0,0,0,0,-1,818,1149,0,0
-399,-125,0,0,0,0,0,0,0,0,0,-1,825,1149,0,0
-392,-125,0,0,0,0,0,0,0,0,0,-1,832,1149,0,0
-385,-125,0,0,0,0,0,0,0,0,0,-1,839,1149,0,0
-378,-125,0,0,0,0,0,0,0,0,0,-1,846,1149,0,0
-371,-125,0,0,0,0,0,0,0,0,0,-1,853,1149,0,0
-364,-125,0,0,0,0,0,0,0,0,0,-1,860,1149,0,0
-357,-125,0,0,0,0,0,0,0,0,0,-1,867,1149,0,0
-350,-125,0,0,0,0,0,0,0,0,0,-1,874,1149,0,0
-343,-125,0,0,0,0,0,0,0,0,0,-1,881,1149,0,0
-336,-125,0,0,0,0,0,0,0,0,0,-1,888,1149,0,0
-329,-125,0,0,0,0,0,0,0,0,0,-1,895,1149,0,0
-322,-125,0,0,0,0,0,0,0,0,0,-1,902,1149,0,0
-315,-125,0,0,0,0,0,0,0,0,0,-1,909,1149,0,0
-308,-125,0,0,0,0,0,0,0,0,0,-1,916,1149,0,0
-301,-125,0,0,0,0,0,0,0,0,0,-1,923,1149,0,0
-294,-125,0,0,0,0,0,0,0,0,0,-1,930,1149,0,0
-287,-125,0,0,0,0,0,0,0,0,0,-1,937,1149,0,0
-280,-125,0,0,0,0,0,0,0,0,0,-1,944,1149,0,0
-273,-125,0,0,0,0,0,0,0,0,0,-1,951,1149,0,0
-266,-125,0,0,0,0,0,0,0,0,0,-1,958,1149,0,0
-259,-125,0,0,0,0,0,0,0,0,0,-1,965,1149,0,0
-252,-125,0,0,0,0,0,0,0,0,0,-1,972,1149,0,0
-245,-125,0,0,0,0,0,0,0,0,0,-1,979,1149,0,0
-238,-125,0,0,0,0,0,0,0,0,0,-1,986,1149,0,0
-231,-125,0,0,0,0,0,0,0,0,0,-1,993,1149,0,0
-224,-125,0,0,0,0,0,0,0,0,0,-1,1000,1149,0,0
-217,-125,0,0,0,0,0,0,0,0,0,-1,1007,1149,0,0
-210,-125,0,0,0,0,0,0,0,0,0,-1,1014,1149,0,0
-203,-125,0,0,0,0,0,0,0,0,0,-1,1021,1149,0,0
-196,-125,0,0,0,0,0,0,0,0,0,-1,1028,1149,0,0
-189,-125,0,0,0,0,0,0,0,0,0,-1,1035,1149,0,0
-182,-125,0,0,0,0,0,0,0,0,0,-1,1042,1149,0,0
-175,-125,0,0,0,0,0,0,0,0,0,-1,1049,1149,0,0
-168,-125,0,0,0,0,0,0,0,0,0,-1,1056,1149,0,0
-161,-125,0,0,0,0,0,0,0,0,0,-1,1063,1149,0,0
-154,-125,0,0,0,0,0,0,0,0,0,-1,1070,1149,0,0
-147,-125,0,0,0,0,0,0,0,0,0,-1,1077,1149,0,0
-140,-125,0,0,0,0,0,0,0,0,0,-1,1084,1149,0,0
-133,-125,0,0,0,0,0,0,0,0,0,-1,1091,1149,0,0
-126,-125,0,0,0,0,0,0,0,0,0,-1,1098,1149,0,0
-119,-125,0,0,0,0,0,0,0,0,0,-1,1105,1149,0,0
-112,-125,0,0,0,0,0,0,0,0,0,-1,1112,1149,0,0
-105,-125,0,0,0,0,0,0,0,0,0,-1,1119,1149,0,0
-98,-125,0,0,0,0,0,0,0,0,0,-1,1126,1149,0,0
-91,-125,0,0,0,0,0,0,0,0,0,-1,1133,1149,0,0
-84,-125,0,0,0,0,0,0,0,0,0,-1,1140,1149,0,0
-77,-125,0,0,0,0,0,0,0,0,0,-1,1147,1149,0,0
-70,-125,0,0,0,0,0,0,0,0,0,-1,1154,1149,0,0
-63,-125,0,0,0,0,0,0,0,0,0,-1,1161,1149,0,0
-56,-125,0,0,0,0,0,0,0,0,0,-1,1168,1149,0,0
-49,-125,0,0,0,0,0,0,0,0,0,-1,1175,1149,0,0
-42,-125,0,0,0,0,0,0,0,0,0,-1,1182,1149,0,0
-35,-125,0,0,0,0,0,0,0,0,0,-1,1189,1149,0,0
-28,-125,0,0,0,0,0,0,0,0,0,-1,1196,1149,0,0
-21,-125,0,0,0,0,0,0,0,0,0,-1,1203,1149,0,0
-14,-125,0,0,0,0,0,0,0,0,0,-1,1210,1149,0,0
-7,-125,0,0,0,0,0,0,0,0,0,-1,1217,1149,0,0
0,-125,0,0,0,0,0,0,0,0,0,-1,1224,1149,0,0
7,-125,0,0,0,0,0,0,0,0,0,-1,1231,1149,0,0
14,-125,0,0,0,0,0,0,0,0,0,-1,1238,1149,0,0
21,-125,0,0,0,0,0,0,0,0,0,-1,1245,1149,0,0
28,-125,0,0,0,0,0,0,0,0,0,-1,1252,1149,0,0
35,-125,0,0,0,0,0,0,0,0,0,-1,1259,1149,0,0
42,-125,0,0,0,0,0,0,0,0,0,-1,1266,1149,0,0
49,-125,0,0,0,0,0,0,0,0,0,-1,1273,1149,0,0
56,-125,0,0,0,0,0,0,0,0,0,-1,1280,1149,0,0
63,-125,0,0,0,0,0,0,0,0,0,-1,1287,1149,0,0
70,-125,0,0,0,0,0,0,0,0,0,-1,1294,1149,0,0
77,-125,0,0,0,0,0,0,0,0,0,-1,1301,1149,0,0
84,-125,0,0,0,0,0,0,0,0,0,-1,1308,1149,0,0
91,-125,0,0,0,0,0,0,0,0,0,-1,1315,1149,0,0
98,-125,0,0,0,0,0,0,0,0,0,-1,1322,1149,0,0
105,-125,0,0,0,0,0,0,0,0,0,-1,1329,1149,0,0
112,-125,0,0,0,0,0,0,0,0,0,-1,1336,1149,0,0
119,-125,0,0,0,0,0,0,0,0,0,-1,1343,1149,0,0
126,-125,0,0,0,0,0,0,0,0,0,-1,1350,1149,0,0
133,-125,0,0,0,0,0,0,0,0,0,-1,1357,1149,0,0
140,-125,0,0,0,0,0,0,0,0,0,-1,1364,1149,0,0
147,-125,0,0,0,0,0,0,0,0,0,-1,1371,1149,0,0
154,-125,0,0,0,0,0,0,0,0,0,-1,1378,1149,0,0
161,-125,0,0,0,0,0,0,0,0,0,-1,1385,1149,0,0
168,-125,0,0,0,0,0,0,0,0,0,-1,1392,1149,0,0
175,-125,0,0,0,0,0,0,0,0,0,-1,1399,1149,0,0
182,-125,0,0,0,0,0,0,0,0,0,-1,1406,1149,0,0
189,-125,0,0,0,0,0,0,0,0,0,-1,1413,1149,0,0
196,-125,0,0,0,0,0,0,0,0,0,-1,1420,1149,0,0
203,-125,0,0,0,0,0,0,0,0,0,-1,1427,1149,0,0
210,-125,0,0,0,0,0,0,0,0,0,-1,1434,1149,0,0
217,-125,0,0,0,0,0,0,0,0,0,-1,1441,1149,0,0
224,-125,0,0,0,0,0,0,0,0,0,-1,1448,1149,0,0
231,-125,0,0,0,0,0,0,0,0,0,-1,1455,1149,0,0
238,-125,0,0,0,0,0,0,0,0,0,-1,1462,1149,0,0
245,-125,0,0,0,0,0,0,0,0,0,-1,1469,1149,0,0
252,-125,0,0,0,0,0,0,0,0,0,-1,1476,1149,0,0
259,-125,0,0,0,0,0,0,0,0,0,-1,1483,1149,0,0
266,-125,0,0,0,0,0,0,0,0,0,-1,1490,1149,0,0
273,-125,0,0,0,0,0,0,0,0,0,-1,1497,1149,0,0
280,-125,0,0,0,0,0,0,0,0,0,-1,1504,1149,0,0
287,-125,0,0,0,0,0,0,0,0,0,-1,1511,1149,0,0
294,-125,0,0,0,0,0,0,0,0,0,-1,1518,1149,0,0
301,-125,0,0,0,0,0,0,0,0,0,-1,1525,1149,0,0
308,-125,0,0,0,0,0,0,0,0,0,-1,1532,1149,0,0
315,-125,0,0,0,0,0,0,0,0,0,-1,1539,1149,0,0
322,-125,0,0,0,0,0,0,0,0,0,-1,1546,1149,0,0
329,-125,0,0,0,0,0,0,0,0,0,-1,1553,1149,0,0
336,-125,0,0,0,0,0,0,0,0,0,-1,1560,1149,0,0
343,-125,0,0,0,0,0,0,0,0,0,-1,1567,1149,0,0
350,-125,0,0,0,0,0,0,0,0,0,-1,1574,1149,0,0
357,-125,0,0,0,0,0,0,0,0,0,-1,1581,1149,0,0
364,-125,0,0,0,0,0,0,0,0,0,-1,1588,1149,0,0
371,-125,0,0,0,0,0,0,0,0,0,-1,1595,1149,0,0
378,-125,0,0,0,0,0,0,0,0,0,-1,1602,1149,0,0
385,-125,0,0,0,0,0,0,0,0,0,-1,1609,1149,0,0
392,-125,0,0,0,0,0,0,0,0,0,-1,1616,1149,0,0
399,-125,0,0,0,0,0,0,0,0,0,-1,1623,1149,0,0
406,-125,0,0,0,0,0,0,0,0,0,-1,1630,1149,0,0
413,-125,0,0,0,0,0,0,0,0,0,-1,1637,1149,0,0
420,-125,0,0,0,0,0,0,0,0,0,-1,1644,1149,0,0
427,-125,0,0,0,0,0,0,0,0,0,-1,1651,1149,0,0
434,-125,0,0,0,0,0,0,0,0,0,-1,1658,1149,0,0
441,-125,0,0,0,0,0,0,0,0,0,-1,1665,1149,0,0
448,-125,0,0,0,0,0,0,0,0,0,-1,1672,1149,0,0
455,-125,0,0,0,0,0,0,0,0,0,-1,1679,1149,0,0
462,-125,0,0,0,0,0,0,0,0,0,-1,1686,1149,0,0
469,-125,0,0,0,0,0,0,0,0,0,-1,1693,1149,0,0
476,-125,0,0,0,0,0,0,0,0,0,-1,1700,1149,0,0
483,-125,0,0,0,0,0,0,0,0,0,-1,1707,1149,0,0
490,-125,0,0,0,0,0,0,0,0,0,-1,1714,1149,0,0
497,-125,0,0,0,0,0,0,0,0,0,-1,1721,1149,0,0
504,-125,0,0,0,0,0,0,0,0,0,-1,1728,1149,0,0
511,-125,0,0,0,0,0,0,0,0,0,-1,1735,1149,0,0
518,-125,0,0,0,0,0,0,0,0,0,-1,1742,1149,0,0
525,-125,0,0,0,0,0,0,0,0,0,-1,1749,1149,0,0
532,-125,0,0,0,0,0,0,0,0,0,-1,1756,1149,0,0
539,-125,0,0,0,0,0,0,0,0,0,-1,1763,1149,0,0
546,-125,0,0,0,0,0,0,0,0,0,-1,1770,1149,0,0
553,-125,0,0,0,0,0,0,0,0,0,-1,1777,1149,0,0
560,-125,0,0,0,0,0,0,0,0,0,-1,1784,1149,0,0
567,-125,0,0,0,0,0,0,0,0,0,-1,1791,1149,0,0
574,-125,0,0,0,0,0,0,0,0,0,-1,1798,1149,0,0
581,-125,0,0,0,0,0,0,0,0,0,-1,1805,1149,0,0
588,-125,0,0,0,0,0,0,0,0,0,-1,1812,1149,0,0
595,-125,0,0,0,0,0,0,0,0,0,-1,1819,1149,0,0
602,-125,0,0,0,0,0,0,0,0,0,-1,1826,1149,0,0
609,-125,0,0,0,0,0,0,0,0,0,-1,1833,1149,0,0
616,-125,0,0,0,0,0,0,0,0,0,-1,1840,1149,0,0
623,-125,0,0,0,0,0,0,0,0,0,-1,1847,1149,0,0
630,-125,0,0,0,0,0,0,0,0,0,-1,1854,1149,0,0
637,-125,0,0,0,0,0,0,0,0,0,-1,1861,1149,0,0
644,-125,59.1898,2.70923,-0.00146429,-0.000105559,-0.0031253,0.00241336,-0.00398321,-0.892421,0.00372995,0.0407827,1868,1149,59.1898,-2.70926
651,-125,58.995,2.9248,-0.00107345,0.00045139,-0.00249389,0.0022968,-0.00291886,-0.933745,0.00301839,0.0430943,1875,1149,58.995,-2.92485
658,-125,59.1063,2.61328,-0.000722858,0.000693217,-0.00179374,0.00191361,-0.00194325,-0.973374,0.00222678,0.0437104,1882,1149,59.1063,-2.61327
665,-125,59.1514,2.37854,-0.000520824,0.000798851,-0.00105763,0.00138559,-0.00110757,-1.0643,0.00144241,0.0450524,1889,1149,59.1514,-2.37849
672,-125,58.9368,2.40173,-0.000595892,0.000795298,-0.00036568,0.000885562,-0.000686156,-1.3288,0.000909863,0.0446957,1896,1149,58.9367,-2.40179
679,-125,58.8866,2.62012,-0.000982186,0.000524016,0.000205886,0.000551651,-0.00100982,1.43736,0.000914362,0.0382768,1903,1149,58.8866,-2.62017
686,-125,58.882,2.70996,-0.00101381,0.000219123,0.000517812,0.00040774,-0.00120243,1.22148,0.000966636,0.0345676,1910,1149,58.882,-2.70994
693,-125,58.8485,2.59399,-0.000918889,7.01242e-05,0.000648634,0.000391254,-0.00124002,1.11109,0.000983393,0.0297526,1917,1149,58.8485,-2.59402
700,-125,58.9326,2.58899,-0.000728981,-0.000107348,0.000711846,0.00035858,-0.00119491,0.99124,0.000939232,0.0157908,1924,1149,58.9327,-2.58902
707,-125,59.0195,2.64172,0,0,0,0,0,0,0,-1,1931,1149,59.0195,-2.64177
714,-125,53.2393,8.88721,0,0,0,0,0,0,0,-1,1938,1149,53.2393,-8.88719
721,-125,53.1089,8.39697,-0.0013464,-0.000106042,0.00151203,0.000908055,-0.0023605,0.980016,0.00194822,0.0455164,1945,1149,53.1089,-8.39703
728,-125,53.0388,7.95325,-0.00100226,2.67607e-05,0.00141275,0.00101577,-0.00199127,0.960028,0.00176631,0.0203254,1952,1149,53.0388,-7.9533
735,-125,53.0421,7.50073,-0.000947596,0.000109942,0.00154284,0.00121211,-0.00204976,0.950487,0.00190383,0.0217873,1959,1149,53.0421,-7.50069
742,-125,53.0529,7.00684,-0.00113965,0.000444479,0.00171372,0.00154033,-0.0022355,1.00187,0.00219226,0.0308712,1966,1149,53.0528,-7.00678
749,-125,52.9628,6.5647,-0.00154513,0.00102862,0.00187541,0.00201621,-0.00253272,1.0861,0.00263197,0.0264244,1973,1149,52.9627,-6.56464
756,-125,52.9946,6.04883,-0.0025859,0.00240635,0.00175949,0.00296415,-0.00314369,1.2638,0.00352687,0.0219957,1980,1149,52.9947,-6.04882
763,-125,52.9641,5.58655,-0.00461337,0.00400132,0.000946382,0.00410406,-0.00471611,1.46266,0.00509642,0.012189,1987,1149,52.9641,-5.58653
770,-125,52.9059,5.10132,-0.00688403,0.00591307,-7.27893e-05,0.00591348,-0.00688445,-1.56511,0.00739597,0.0155505,1994,1149,52.9059,-5.10137
777,-125,52.8179,4.71509,-0.00976955,0.00805457,-0.00149956,0.00817985,-0.00989483,-1.48745,0.0104511,0.0316378,2001,1149,52.8179,-4.71503
784,-125,52.7688,4.25842,-0.0136262,0.0105288,-0.00345518,0.0110133,-0.0141107,-1.43148,0.014542,0.0457783,2008,1149,52.7688,-4.25839
791,-125,52.8696,3.7677,-0.0184846,0.0134433,-0.00606358,0.0145561,-0.0195974,-1.3893,0.01979,0.049828,2015,1149,52.8697,-3.76776
798,-125,52.7158,3.26709,0,0,0,0,0,0,0,-1,2022,1149,52.7157,-3.26713
805,-125,52.8708,4.4325,0,0,0,0,0,0,0,-1,2029,1149,52.8709,-4.43247
812,-125,55.0281,0.339966,0,0,0,0,0,0,0,-1,2036,1149,55.0281,-0.340009
-700,-132,0,0,0,0,0,0,0,0,0,-1,524,1156,0,0
-693,-132,-39.7588,-3.28125,0,0,0,0,0,0,0,-1,531,1156,-39.7588,3.28122
-686,-132,-39.7156,-2.4021,0,0,0,0,0,0,0,-1,538,1156,-39.7156,2.40206
-679,-132,-38.8518,-2.30981,0,0,0,0,0,0,0,-1,545,1156,-38.8518,2.30977
-672,-132,-38.76,-1.84277,0,0,0,0,0,0,0,-1,552,1156,-38.76,1.84278
-665,-132,-38.6682,-1.37573,0,0,0,0,0,0,0,-1,559,1156,-38.6682,1.37579
-658,-132,-38.7462,-0.143066,0,0,0,0,0,0,0,-1,566,1156,-38.7462,0.143108
-651,-132,-38.3873,1.2301,0.0256762,-0.0354801,-0.0236563,0.0337587,-0.0435626,-0.329228,0.0447609,0.0423222,573,1156,-38.3873,-1.23013
-644,-132,-37.9588,2.07275,0.0185602,-0.0245518,-0.0167084,0.0242775,-0.0302691,-0.329691,0.0315557,0.0243894,580,1156,-37.9588,-2.0727
-637,-132,-38.0194,2.57751,0.0117941,-0.0150998,-0.0106279,0.0154869,-0.0187926,-0.334417,0.019822,0.0131499,587,1156,-38.0194,-2.57746
-630,-132,-38.0168,3.07349,0.0061028,-0.00726661,-0.00599764,0.00839902,-0.00956283,-0.365638,0.0103775,0.0108247,594,1156,-38.0168,-3.07347
-623,-132,-38.0568,3.61194,0.00177468,-0.00225293,-0.00315806,0.00350637,-0.00398462,-0.501568,0.00432786,0.0154886,601,1156,-38.0568,-3.61196
-616,-132,-38.1182,4.03748,-0.000516863,-0.000951865,-0.00222315,0.0014994,-0.00296813,-0.736636,0.00262539,0.0352747,608,1156,-38.1182,-4.03742
-609,-132,-38.1087,4.7782,0,0,0,0,0,0,0,-1,615,1156,-38.1087,-4.77821
-602,-132,-38.0781,5.14722,-0.000700217,-0.00119493,-0.0017742,0.000843789,-0.00273894,-0.716135,0.0021628,0.0339059,622,1156,-38.0781,-5.14718
-595,-132,-38.2131,5.63525,-0.00118193,-0.00104443,-0.00147926,0.000367681,-0.00259404,-0.808621,0.00186405,0.0479274,629,1156,-38.2131,-5.6353
-588,-132,-38.2708,6.16211,0,0,0,0,0,0,0,-1,636,1156,-38.2708,-6.16216
-581,-132,-35.9343,6.42957,0,0,0,0,0,0,0,-1,643,1156,-35.9342,-6.42957
-574,-132,-33.2071,2.86963,0,0,0,0,0,0,0,-1,650,1156,-33.2071,-2.86963
-567,-132,-44.4205,0.789673,0,0,0,0,0,0,0,-1,657,1156,-44.4206,-0.789728
-560,-132,-44.4664,0.768066,-0.000377351,-0.00105203,-0.000484893,-0.000123997,-0.00130539,-0.481481,0.000832011,0.0354032,664,1156,-44.4664,-0.768125
-553,-132,-44.5089,0.785156,-0.000476861,-0.000558875,-0.000189294,-0.000324184,-0.000711553,-0.67873,0.000411355,0.0402236,671,1156,-44.5089,-0.785164
-546,-132,-44.5519,0.796753,-0.00110222,0.000199715,-0.000186499,0.000225904,-0.0011284,-1.43129,0.000837785,0.0431441,678,1156,-44.5519,-0.796737
-539,-132,-44.5105,0.87561,-0.00159461,0.00118418,-0.000317679,0.00122003,-0.00163047,-1.45841,0.00165142,0.0402908,685,1156,-44.5105,-0.875562
-532,-132,-44.4039,1.04907,-0.0018321,0.00200698,-0.000529979,0.0020788,-0.00190392,-1.4361,0.00230017,0.0392163,692,1156,-44.4039,-1.04905
-525,-132,-44.4583,1.13611,-0.0019817,0.00273554,-0.000854044,0.0028854,-0.00213157,-1.39709,0.00290743,0.0415823,699,1156,-44.4582,-1.13612
-518,-132,0,0,0,0,0,0,0,0,0,-1,706,1156,0,0
-511,-132,0,0,0,0,0,0,0,0,0,-1,713,1156,0,0
-504,-132,0,0,0,0,0,0,0,0,0,-1,720,1156,0,0
-497,-132,0,0,0,0,0,0,0,0,0,-1,727,1156,0,0
-490,-132,0,0,0,0,0,0,0,0,0,-1,734,1156,0,0
-483,-132,0,0,0,0,0,0,0,0,0,-1,741,1156,0,0
-476,-132,0,0,0,0,0,0,0,0,0,-1,748,1156,0,0
-469,-132,0,0,0,0,0,0,0,0,0,-1,755,1156,0,0
-462,-132,0,0,0,0,0,0,0,0,0,-1,762,1156,0,0
-455,-132,0,0,0,0,0,0,0,0,0,-1,769,1156,0,0
-448,-132,0,0,0,0,0,0,0,0,0,-1,776,1156,0,0
-441,-132,0,0,0,0,0,0,0,0,0,-1,783,1156,0,0
-434,-132,0,0,0,0,0,0,0,0,0,-1,790,1156,0,0
-427,-132,0,0,0,0,0,0,0,0,0,-1,797,1156,0,0
-420,-132,0,0,0,0,0,0,0,0,0,-1,804,1156,0,0
-413,-132,0,0,0,0,0,0,0,0,0,-1,811,1156,0,0
-406,-132,0,0,0,0,0,0,0,0,0,-1,818,1156,0,0
-399,-132,0,0,0,0,0,0,0,0,0,-1,825,1156,0,0
-392,-132,0,0,0,0,0,0,0,0,0,-1,832,1156,0,0
-385,-132,0,0,0,0,0,0,0,0,0,-1,839,1156,0,0
-378,-132,0,0,0,0,0,0,0,0,0,-1,846,1156,0,0
-371,-132,0,0,0,0,0,0,0,0,0,-1,853,1156,0,0
-364,-132,0,0,0,0,0,0,0,0,0,-1,860,1156,0,0
-357,-132,0,0,0,0,0,0,0,0,0,-1,867,1156,0,0
-350,-132,0,0,0,0,0,0,0,0,0,-1,874,1156,0,0
-343,-132,0,0,0,0,0,0,0,0,0,-1,881,1156,0,0
-336,-132,0,0,0,0,0,0,0,0,0,-1,888,1156,0,0
-329,-132,0,0,0,0,0,0,0,0,0,-1,895,1156,0,0
-322,-132,0,0,0,0,0,0,0,0,0,-1,902,1156,0,0
-315,-132,0,0,0,0,0,0,0,0,0,-1,909,1156,0,0
-308,-132,0,0,0,0,0,0,0,0,0,-1,916,1156,0,0
-301,-132,0,0,0,0,0,0,0,0,0,-1,923,1156,0,0
-294,-132,0,0,0,0,0,0,0,0,0,-1,930,1156,0,0
-287,-132,0,0,0,0,0,0,0,0,0,-1,937,1156,0,0
-280,-132,0,0,0,0,0,0,0,0,0,-1,944,1156,0,0
-273,-132,0,0,0,0,0,0,0,0,0,-1,951,1156,0,0
-266,-132,0,0,0,0,0,0,0,0,0,-1,958,1156,0,0
-259,-132,0,0,0,0,0,0,0,0,0,-1,965,1156,0,0
-252,-132,0,0,0,0,0,0,0,0,0,-1,972,1156,0,0
-245,-132,0,0,0,0,0,0,0,0,0,-1,979,1156,0,0
-238,-132,0,0,0,0,0,0,0,0,0,-1,986,1156,0,0
-231,-132,0,0,0,0,0,0,0,0,0,-1,993,1156,0,0
-224,-132,0,0,0,0,0,0,0,0,0,-1,1000,1156,0,0
-217,-132,0,0,0,0,0,0,0,0,0,-1,1007,1156,0,0
-210,-132,0,0,0,0,0,0,0,0,0,-1,1014,1156,0,0
-203,-132,0,0,0,0,0,0,0,0,0,-1,1021,1156,0,0
-196,-132,0,0,0,0,0,0,0,0,0,-1,1028,1156,0,0
-189,-132,0,0,0,0,0,0,0,0,0,-1,1035,1156,0,0
-182,-132,0,0,0,0,0,0,0,0,0,-1,1042,1156,0,0
-175,-132,0,0,0,0,0,0,0,0,0,-1,1049,1156,0,0
-168,-132,0,0,0,0,0,0,0,0,0,-1,1056,1156,0,0
-161,-132,0,0,0,0,0,0,0,0,0,-1,1063,1156,0,0
-154,-132,0,0,0,0,0,0,0,0,0,-1,1070,1156,0,0
-147,-132,0,0,0,0,0,0,0,0,0,-1,1077,1156,0,0
-140,-132,0,0,0,0,0,0,0,0,0,-1,1084,1156,0,0
-133,-132,0,0,0,0,0,0,0,0,0,-1,1091,1156,0,0
-126,-132,0,0,0,0,0,0,0,0,0,-1,1098,1156,0,0
-119,-132,0,0,0,0,0,0,0,0,0,-1,1105,1156,0,0
-112,-132,0,0,0,0,0,0,0,0,0,-1,1112,1156,0,0
-105,-132,0,0,0,0,0,0,0,0,0,-1,1119,1156,0,0
-98,-132,0,0,0,0,0,0,0,0,0,-1,1126,1156,0,0
-91,-132,0,0,0,0,0,0,0,0,0,-1,1133,1156,0,0
-84,-132,0,0,0,0,0,0,0,0,0,-1,1140,1156,0,0
-77,-132,0,0,0,0,0,0,0,0,0,-1,1147,1156,0,0
-70,-132,0,0,0,0,0,0,0,0,0,-1,1154,1156,0,0
-63,-132,0,0,0,0,0,0,0,0,0,-1,1161,1156,0,0
-56,-132,0,0,0,0,0,0,0,0,0,-1,1168,1156,0,0
-49,-132,0,0,0,0,0,0,0,0,0,-1,1175,1156,0,0
-42,-132,0,0,0,0,0,0,0,0,0,-1,1182,1156,0,0
-35,-132,0,0,0,0,0,0,0,0,0,-1,1189,1156,0,0
-28,-132,0,0,0,0,0,0,0,0,0,-1,1196,1156,0,0
-21,-132,0,0,0,0,0,0,0,0,0,-1,1203,1156,0,0
-14,-132,0,0,0,0,0,0,0,0,0,-1,1210,1156,0,0
-7,-132,0,0,0,0,0,0,0,0,0,-1,1217,1156,0,0
0,-132,0,0,0,0,0,0,0,0,0,-1,1224,1156,0,0
7,-132,0,0,0,0,0,0,0,0,0,-1,1231,1156,0,0
14,-132,0,0,0,0,0,0,0,0,0,-1,1238,1156,0,0
21,-132,0,0,0,0,0,0,0,0,0,-1,1245,1156,0,0
28,-132,0,0,0,0,0,0,0,0,0,-1,1252,1156,0,0
35,-132,0,0,0,0,0,0,0,0,0,-1,1259,1156,0,0
42,-132,0,0,0,0,0,0,0,0,0,-1,1266,1156,0,0
49,-132,0,0,0,0,0,0,0,0,0,-1,1273,1156,0,0
56,-132,0,0,0,0,0,0,0,0,0,-1,1280,1156,0,0
63,-132,0,0,0,0,0,0,0,0,0,-1,1287,1156,0,0
70,-132,0,0,0,0,0,0,0,0,0,-1,1294,1156,0,0
77,-132,0,0,0,0,0,0,0,0,0,-1,1301,1156,0,0
84,-132,0,0,0,0,0,0,0,0,0,-1,1308,1156,0,0
91,-132,0,0,0,0,0,0,0,0,0,-1,1315,1156,0,0
98,-132,0,0,0,0,0,0,0,0,0,-1,1322,1156,0,0
105,-132,0,0,0,0,0,0,0,0,0,-1,1329,1156,0,0
112,-132,0,0,0,0,0,0,0,0,0,-1,1336,1156,0,0
119,-132,0,0,0,0,0,0,0,0,0,-1,1343,1156,0,0
126,-132,0,0,0,0,0,0,0,0,0,-1,1350,1156,0,0
133,-132,0,0,0,0,0,0,0,0,0,-1,1357,1156,0,0
140,-132,0,0,0,0,0,0,0,0,0,-1,1364,1156,0,0
147,-132,0,0,0,0,0,0,0,0,0,-1,1371,1156,0,0
154,-132,0,0,0,0,0,0,0,0,0,-1,1378,1156,0,0
161,-132,0,0,0,0,0,0,0,0,0,-1,1385,1156,0,0
168,-132,0,0,0,0,0,0,0,0,0,-1,1392,1156,0,0
175,-132,0,0,0,0,0,0,0,0,0,-1,1399,1156,0,0
182,-132,0,0,0,0,0,0,0,0,0,-1,1406,1156,0,0
189,-132,0,0,0,0,0,0,0,0,0,-1,1413,1156,0,0
196,-132,0,0,0,0,0,0,0,0,0,-1,1420,1156,0,0
203,-132,0,0,0,0,0,0,0,0,0,-1,1427,1156,0,0
210,-132,0,0,0,0,0,0,0,0,0,-1,1434,1156,0,0
217,-132,0,0,0,0,0,0,0,0,0,-1,1441,1156,0,0
224,-132,0,0,0,0,0,0,0,0,0,-1,1448,1156,0,0
231,-132,0,0,0,0,0,0,0,0,0,-1,1455,1156,0,0
238,-132,0,0,0,0,0,0,0,0,0,-1,1462,1156,0,0
245,-132,0,0,0,0,0,0,0,0,0,-1,1469,1156,0,0
252,-132,0,0,0,0,0,0,0,0,0,-1,1476,1156,0,0
259,-132,0,0,0,0,0,0,0,0,0,-1,1483,1156,0,0
266,-132,0,0,0,0,0,0,0,0,0,-1,1490,1156,0,0
273,-132,0,0,0,0,0,0,0,0,0,-1,1497,1156,0,0
280,-132,0,0,0,0,0,0,0,0,0,-1,1504,1156,0,0
287,-132,0,0,0,0,0,0,0,0,0,-1,1511,1156,0,0
294,-132,0,0,0,0,0,0,0,0,0,-1,1518,1156,0,0
301,-132,0,0,0,0,0,0,0,0,0,-1,1525,1156,0,0
308,-132,0,0,0,0,0,0,0,0,0,-1,1532,1156,0,0
315,-132,0,0,0,0,0,0,0,0,0,-1,1539,1156,0,0
322,-132,0,0,0,0,0,0,0,0,0,-1,1546,1156,0,0
329,-132,0,0,0,0,0,0,0,0,0,-1,1553,1156,0,0
336,-132,0,0,0,0,0,0,0,0,0,-1,1560,1156,0,0
343,-132,0,0,0,0,0,0,0,0,0,-1,1567,1156,0,0
350,-132,0,0,0,0,0,0,0,0,0,-1,1574,1156,0,0
357,-132,0,0,0,0,0,0,0,0,0,-1,1581,1156,0,0
364,-132,0,0,0,0,0,0,0,0,0,-1,1588,1156,0,0
371,-132,0,0,0,0,0,0,0,0,0,-1,1595,1156,0,0
378,-132,0,0,0,0,0,0,0,0,0,-1,1602,1156,0,0
385,-132,0,0,0,0,0,0,0,0,0,-1,1609,1156,0,0
392,-132,0,0,0,0,0,0,0,0,0,-1,1616,1156,0,0
399,-132,0,0,0,0,0,0,0,0,0,-1,1623,1156,0,0
406,-132,0,0,0,0,0,0,0,0,0,-1,1630,1156,0,0
413,-132,0,0,0,0,0,0,0,0,0,-1,1637,1156,0,0
420,-132,0,0,0,0,0,0,0,0,0,-1,1644,1156,0,0
427,-132,0,0,0,0,0,0,0,0,0,-1,1651,1156,0,0
434,-132,0,0,0,0,0,0,0,0,0,-1,1658,1156,0,0
441,-132,0,0,0,0,0,0,0,0,0,-1,1665,1156,0,0
448,-132,0,0,0,0,0,0,0,0,0,-1,1672,1156,0,0
455,-132,0,0,0,0,0,0,0,0,0,-1,1679,1156,0,0
462,-132,0,0,0,0,0,0,0,0,0,-1,1686,1156,0,0
469,-132,0,0,0,0,0,0,0,0,0,-1,1693,1156,0,0
476,-132,0,0,0,0,0,0,0,0,0,-1,1700,1156,0,0
483,-132,0,0,0,0,0,0,0,0,0,-1,1707,1156,0,0
490,-132,0,0,0,0,0,0,0,0,0,-1,1714,1156,0,0
497,-132,0,0,0,0,0,0,0,0,0,-1,1721,1156,0,0
504,-132,0,0,0,0,0,0,0,0,0,-1,1728,1156,0,0
511,-132,0,0,0,0,0,0,0,0,0,-1,1735,1156,0,0
518,-132,0,0,0,0,0,0,0,0,0,-1,1742,1156,0,0
525,-132,0,0,0,0,0,0,0,0,0,-1,1749,1156,0,0
532,-132,0,0,0,0,0,0,0,0,0,-1,1756,1156,0,0
539,-132,0,0,0,0,0,0,0,0,0,-1,1763,1156,0,0
546,-132,0,0,0,0,0,0,0,0,0,-1,1770,1156,0,0
553,-132,0,0,0,0,0,0,0,0,0,-1,1777,1156,0,0
560,-132,0,0,0,0,0,0,0,0,0,-1,1784,1156,0,0
567,-132,0,0,0,0,0,0,0,0,0,-1,1791,1156,0,0
574,-132,0,0,0,0,0,0,0,0,0,-1,1798,1156,0,0
581,-132,0,0,0,0,0,0,0,0,0,-1,1805,1156,0,0
588,-132,0,0,0,0,0,0,0,0,0,-1,1812,1156,0,0
595,-132,0,0,0,0,0,0,0,0,0,-1,1819,1156,0,0
602,-132,0,0,0,0,0,0,0,0,0,-1,1826,1156,0,0
609,-132,0,0,0,0,0,0,0,0,0,-1,1833,1156,0,0
616,-132,0,0,0,0,0,0,0,0,0,-1,1840,1156,0,0
623,-132,0,0,0,0,0,0,0,0,0,-1,1847,1156,0,0
630,-132,0,0,0,0,0,0,0,0,0,-1,1854,1156,0,0
637,-132,0,0,0,0,0,0,0,0,0,-1,1861,1156,0,0
644,-132,59.0262,2.60437,-0.0014482,-0.000423472,-0.00276291,0.00187418,-0.00374585,-0.877078,0.00330416,0.0422651,1868,1156,59.0263,-2.60431
651,-132,58.8955,2.60632,-0.00113289,6.78755e-05,-0.00216639,0.00171554,-0.00278055,-0.920573,0.00261998,0.0430233,1875,1156,58.8956,-2.60635
658,-132,58.9343,2.51758,-0.000838541,0.000356421,-0.00150118,0.00137465,-0.00185677,-0.974792,0.00187258,0.0435836,1882,1156,58.9344,-2.51762
665,-132,58.9858,2.40967,-0.000660979,0.000563095,-0.000818328,0.000972944,-0.00107083,-1.10648,0.00118042,0.0432696,1889,1156,58.9858,-2.40961
672,-132,58.8937,2.47107,-0.000784529,0.000682228,-0.000183654,0.000704874,-0.000807175,-1.44811,0.000873647,0.0411504,1896,1156,58.8937,-2.47103
679,-132,58.9436,2.54004,-0.00121161,0.000488886,0.000361596,0.000562582,-0.00128531,1.36974,0.00109374,0.0396762,1903,1156,58.9436,-2.53999
686,-132,58.9789,2.65588,-0.00127752,0.000223665,0.000603058,0.000435916,-0.00148977,1.23238,0.00116597,0.0359417,1910,1156,58.9789,-2.65585
693,-132,58.8929,2.65479,-0.00119859,0.000106651,0.00068732,0.000401829,-0.00149377,1.16515,0.00115336,0.028072,1917,1156,58.893,-2.6548
700,-132,58.9109,2.53003,0,0,0,0,0,0,0,-1,1924,1156,58.9109,-2.53004
707,-132,57.9275,3.01367,0,0,0,0,0,0,0,-1,1931,1156,57.9275,-3.01369
714,-132,52.6322,8.74524,0,0,0,0,0,0,0,-1,1938,1156,52.6322,-8.74529
721,-132,52.6827,8.37305,-0.00142889,5.24088e-05,0.00143832,0.000929579,-0.00230606,1.02316,0.00192362,0.0405493,1945,1156,52.6828,-8.37299
728,-132,52.5439,7.99402,-0.00090999,0.000149696,0.00130672,0.00102991,-0.0017902,0.978006,0.0016478,0.0293042,1952,1156,52.544,-7.99398
735,-132,52.4697,7.55249,-0.000644977,0.000166459,0.00141223,0.0012301,-0.00170862,0.925275,0.00170415,0.0300384,1959,1156,52.4697,-7.55243
742,-132,52.5382,7.03467,-0.00060824,0.00043896,0.00164071,0.00163759,-0.00180687,0.939855,0.00198946,0.0236963,1966,1156,52.5382,-7.0347
749,-132,52.5115,6.54956,-0.000796775,0.00102415,0.00187332,0.00219654,-0.00196917,1.0116,0.00240627,0.0243898,1973,1156,52.5114,-6.54951
756,-132,52.4983,6.04688,-0.00121788,0.00251602,0.00182137,0.00325731,-0.00195916,1.18428,0.00304266,0.0243896,1980,1156,52.4983,-6.04693
763,-132,52.4529,5.60071,-0.0023071,0.00433042,0.00122092,0.00454787,-0.00252455,1.39454,0.00413859,0.014427,1987,1156,52.4528,-5.60075
770,-132,52.4585,5.1521,-0.00352357,0.00647488,0.000452776,0.00649534,-0.00354403,1.52563,0.00587913,0.0143754,1994,1156,52.4585,-5.15214
777,-132,52.4104,4.6908,-0.00524689,0.00892076,-0.0006496,0.00895048,-0.00527661,-1.52507,0.0083048,0.0258018,2001,1156,52.4104,-4.69075
784,-132,52.3433,4.62097,-0.00771877,0.0117832,-0.00217709,0.0120233,-0.00795885,-1.46096,0.011616,0.0442474,2008,1156,52.3434,-4.62094
791,-132,52.4773,4.65088,-0.0109702,0.0152038,-0.00427444,0.0158841,-0.0116506,-1.41295,0.0159597,0.0499456,2015,1156,52.4774,-4.6509
798,-132,52.5918,4.45349,0,0,0,0,0,0,0,-1,2022,1156,52.5919,-4.45344
805,-132,52.3667,4.13647,0,0,0,0,0,0,0,-1,2029,1156,52.3666,-4.13648
812,-132,52.1372,3.85999,0,0,0,0,0,0,0,-1,2036,1156,52.1373,-3.86003
-700,-139,0,0,0,0,0,0,0,0,0,-1,524,1163,0,0
-693,-139,-40.0337,-0.69812,0,0,0,0,0,0,0,-1,531,1163,-40.0337,0.698148
-686,-139,-38.9043,-1.73315,0,0,0,0,0,0,0,-1,538,1163,-38.9043,1.73312
-679,-139,-38.0038,-1.69458,0,0,0,0,0,0,0,-1,545,1163,-38.0039,1.69458
-672,-139,-37.8749,-1.19409,0.0493957,-0.073541,-0.0537421,0.0695764,-0.0937217,-0.359218,0.0946231,0.0460967,552,1163,-37.875,1.19408
-665,-139,-37.5415,-0.855347,0.0409551,-0.0600299,-0.0425452,0.0564898,-0.0755646,-0.350093,0.0765063,0.0461773,559,1163,-37.5415,0.855402
-658,-139,-37.7015,0.095459,0.0328004,-0.0470665,-0.0327284,0.0444986,-0.0587647,-0.343281,0.0598085,0.0499595,566,1163,-37.7015,-0.0954148
-651,-139,-37.5644,1.177,0.0251838,-0.0350961,-0.0242914,0.0337542,-0.0436665,-0.33918,0.0448208,0.0473974,573,1163,-37.5644,-1.17705
-644,-139,-37.388,2.06213,0.0182024,-0.0244623,-0.0171779,0.0242589,-0.0305188,-0.338968,0.0316947,0.024555,580,1163,-37.388,-2.06211
-637,-139,-37.4576,2.5481,0.0116063,-0.0152337,-0.0110728,0.0155847,-0.0192121,-0.34493,0.0201263,0.0135937,587,1163,-37.4576,-2.54815
-630,-139,-37.4809,3.05994,0.00595404,-0.00753501,-0.00631041,0.00844585,-0.0100268,-0.376079,0.0106782,0.011113,594,1163,-37.4809,-3.05988
-623,-139,-37.5057,3.59583,0.00148638,-0.00231891,-0.00328081,0.00337634,-0.00420886,-0.522632,0.0043881,0.0176818,601,1163,-37.5057,-3.59588
-616,-139,-37.5217,4.11951,-0.00108389,-0.000645006,-0.00228069,0.00142677,-0.00315567,-0.833359,0.00270771,0.0197454,608,1163,-37.5217,-4.11945
-609,-139,-37.421,4.55066,0,0,0,0,0,0,0,-1,615,1163,-37.4209,-4.5506
-602,-139,-37.4701,5.21655,-0.00143823,-0.00113898,-0.00194318,0.000660333,-0.00323754,-0.823822,0.00240883,0.037474,622,1163,-37.4701,-5.2165
-595,-139,-37.6658,5.74084,-0.00163046,-0.00112279,-0.00168277,0.000325176,-0.00307843,-0.860255,0.00216882,0.0471372,629,1163,-37.6658,-5.74081
-588,-139,-37.9449,6.16028,0,0,0,0,0,0,0,-1,636,1163,-37.9449,-6.16023
-581,-139,-34.4892,6.72473,0,0,0,0,0,0,0,-1,643,1163,-34.4892,-6.72476
-574,-139,-23.0725,2.4043,0,0,0,0,0,0,0,-1,650,1163,-23.0725,-2.40433
-567,-139,-44.4171,0.743896,0,0,0,0,0,0,0,-1,657,1163,-44.4171,-0.74389
-560,-139,-44.4968,0.897583,-0.00076468,-0.00126928,-0.000939112,-4.45668e-05,-0.00198939,-0.654168,0.00131166,0.0331321,664,1163,-44.4968,-0.897632
-553,-139,-44.5958,1.06702,-0.000634801,-0.000847563,-0.000668422,-6.43472e-05,-0.00141802,-0.706484,0.000924642,0.0374618,671,1163,-44.5958,-1.06704
-546,-139,-44.6746,0.951904,-0.000850965,-0.000112542,-0.000563398,0.000191845,-0.00115535,-1.07545,0.000841504,0.0428027,678,1163,-44.6745,-0.951961
-539,-139,-44.5432,0.945679,-0.000878746,0.00102181,-0.000534153,0.00116165,-0.00101858,-1.31475,0.00125966,0.040461,685,1163,-44.5432,-0.945703
-532,-139,-44.3566,0.56897,-0.000725674,0.00201633,-0.000556618,0.00212502,-0.000834358,-1.37797,0.00176193,0.0406106,692,1163,-44.3566,-0.568955
-525,-139,-44.4759,0.690063,-0.000430629,0.00294229,-0.000654713,0.00306492,-0.000553256,-1.38564,0.00225048,0.0424655,699,1163,-44.4759,-0.690092
-518,-139,0,0,0,0,0,0,0,0,0,-1,706,1163,0,0
-511,-139,0,0,0,0,0,0,0,0,0,-1,713,1163,0,0
-504,-139,0,0,0,0,0,0,0,0,0,-1,720,1163,0,0
-497,-139,0,0,0,0,0,0,0,0,0,-1,727,1163,0,0
-490,-139,0,0,0,0,0,0,0,0,0,-1,734,1163,0,0
-483,-139,0,0,0,0,0,0,0,0,0,-1,741,1163,0,0
-476,-139,0,0,0,0,0,0,0,0,0,-1,748,1163,0,0
-469,-139,0,0,0,0,0,0,0,0,0,-1,755,1163,0,0
-462,-139,0,0,0,0,0,0,0,0,0,-1,762,1163,0,0
-455,-139,0,0,0,0,0,0,0,0,0,-1,769,1163,0,0
-448,-139,0,0,0,0,0,0,0,0,0,-1,776,1163,0,0
-441,-139,0,0,0,0,0,0,0,0,0,-1,783,1163,0,0
-434,-139,0,0,0,0,0,0,0,0,0,-1,790,1163,0,0
-427,-139,0,0,0,0,0,0,0,0,0,-1,797,1163,0,0
-420,-139,0,0,0,0,0,0,0,0,0,-1,804,1163,0,0
-413,-139,0,0,0,0,0,0,0,0,0,-1,811,1163,0,0
-406,-139,0,0,0,0,0,0,0,0,0,-1,818,1163,0,0
-399,-139,0,0,0,0,0,0,0,0,0,-1,825,1163,0,0
-392,-139,0,0,0,0,0,0,0,0,0,-1,832,1163,0,0
-385,-139,0,0,0,0,0,0,0,0,0,-1,839,1163,0,0
-378,-139,0,0,0,0,0,0,0,0,0,-1,846,1163,0,0
-371,-139,0,0,0,0,0,0,0,0,0,-1,853,1163,0,0
-364,-139,0,0,0,0,0,0,0,0,0,-1,860,1163,0,0
-357,-139,0,0,0,0,0,0,0,0,0,-1,867,1163,0,0
-350,-139,0,0,0,0,0,0,0,0,0,-1,874,1163,0,0
-343,-139,0,0,0,0,0,0,0,0,0,-1,881,1163,0,0
-336,-139,0,0,0,0,0,0,0,0,0,-1,888,1163,0,0
-329,-139,0,0,0,0,0,0,0,0,0,-1,895,1163,0,0
-322,-139,0,0,0,0,0,0,0,0,0,-1,902,1163,0,0
-315,-139,0,0,0,0,0,0,0,0,0,-1,909,1163,0,0
-308,-139,0,0,0,0,0,0,0,0,0,-1,916,1163,0,0
-301,-139,0,0,0,0,0,0,0,0,0,-1,923,1163,0,0
-294,-139,0,0,0,0,0,0,0,0,0,-1,930,1163,0,0
-287,-139,0,0,0,0,0,0,0,0,0,-1,937,1163,0,0
-280,-139,0,0,0,0,0,0,0,0,0,-1,944,1163,0,0
-273,-139,0,0,0,0,0,0,0,0,0,-1,951,1163,0,0
-266,-139,0,0,0,0,0,0,0,0,0,-1,958,1163,0,0
-259,-139,0,0,0,0,0,0,0,0,0,-1,965,1163,0,0
-252,-139,0,0,0,0,0,0,0,0,0,-1,972,1163,0,0
-245,-139,0,0,0,0,0,0,0,0,0,-1,979,1163,0,0
-238,-139,0,0,0,0,0,0,0,0,0,-1,986,1163,0,0
-231,-139,0,0,0,0,0,0,0,0,0,-1,993,1163,0,0
-224,-139,0,0,0,0,0,0,0,0,0,-1,1000,1163,0,0
-217,-139,0,0,0,0,0,0,0,0,0,-1,1007,1163,0,0
-210,-139,0,0,0,0,0,0,0,0,0,-1,1014,1163,0,0
-203,-139,0,0,0,0,0,0,0,0,0,-1,1021,1163,0,0
-196,-139,0,0,0,0,0,0,0,0,0,-1,1028,1163,0,0
-189,-139,0,0,0,0,0,0,0,0,0,-1,1035,1163,0,0
-182,-139,0,0,0,0,0,0,0,0,0,-1,1042,1163,0,0
-175,-139,0,0,0,0,0,0,0,0,0,-1,1049,1163,0,0
-168,-139,0,0,0,0,0,0,0,0,0,-1,1056,1163,0,0
-161,-139,0,0,0,0,0,0,0,0,0,-1,1063,1163,0,0
-154,-139,0,0,0,0,0,0,0,0,0,-1,1070,1163,0,0
-147,-139,0,0,0,0,0,0,0,0,0,-1,1077,1163,0,0
-140,-139,0,0,0,0,0,0,0,0,0,-1,1084,1163,0,0
-133,-139,0,0,0,0,0,0,0,0,0,-1,1091,1163,0,0
-126,-139,0,0,0,0,0,0,0,0,0,-1,1098,1163,0,0
-119,-139,0,0,0,0,0,0,0,0,0,-1,1105,1163,0,0
-112,-139,0,0,0,0,0,0,0,0,0,-1,1112,1163,0,0
-105,-139,0,0,0,0,0,0,0,0,0,-1,1119,1163,0,0
-98,-139,0,0,0,0,0,0,0,0,0,-1,1126,1163,0,0
-91,-139,0,0,0,0,0,0,0,0,0,-1,1133,1163,0,0
-84,-139,0,0,0,0,0,0,0,0,0,-1,1140,1163,0,0
-77,-139,0,0,0,0,0,0,0,0,0,-1,1147,1163,0,0
-70,-139,0,0,0,0,0,0,0,0,0,-1,1154,1163,0,0
-63,-139,0,0,0,0,0,0,0,0,0,-1,1161,1163,0,0
-56,-139,0,0,0,0,0,0,0,0,0,-1,1168,1163,0,0
-49,-139,0,0,0,0,0,0,0,0,0,-1,1175,1163,0,0
-42,-139,0,0,0,0,0,0,0,0,0,-1,1182,1163,0,0
-35,-139,0,0,0,0,0,0,0,0,0,-1,1189,1163,0,0
-28,-139,0,0,0,0,0,0,0,0,0,-1,1196,1163,0,0
-21,-139,0,0,0,0,0,0,0,0,0,-1,1203,1163,0,0
-14,-139,0,0,0,0,0,0,0,0,0,-1,1210,1163,0,0
-7,-139,0,0,0,0,0,0,0,0,0,-1,1217,1163,0,0
0,-139,0,0,0,0,0,0,0,0,0,-1,1224,1163,0,0
7,-139,0,0,0,0,0,0,0,0,0,-1,1231,1163,0,0
14,-139,0,0,0,0,0,0,0,0,0,-1,1238,1163,0,0
21,-139,0,0,0,0,0,0,0,0,0,-1,1245,1163,0,0
28,-139,0,0,0,0,0,0,0,0,0,-1,1252,1163,0,0
35,-139,0,0,0,0,0,0,0,0,0,-1,1259,1163,0,0
42,-139,0,0,0,0,0,0,0,0,0,-1,1266,1163,0,0
49,-139,0,0,0,0,0,0,0,0,0,-1,1273,1163,0,0
56,-139,0,0,0,0,0,0,0,0,0,-1,1280,1163,0,0
63,-139,0,0,0,0,0,0,0,0,0,-1,1287,1163,0,0
70,-139,0,0,0,0,0,0,0,0,0,-1,1294,1163,0,0
77,-139,0,0,0,0,0,0,0,0,0,-1,1301,1163,0,0
84,-139,0,0,0,0,0,0,0,0,0,-1,1308,1163,0,0
91,-139,0,0,0,0,0,0,0,0,0,-1,1315,1163,0,0
98,-139,0,0,0,0,0,0,0,0,0,-1,1322,1163,0,0
105,-139,0,0,0,0,0,0,0,0,0,-1,1329,1163,0,0
112,-139,0,0,0,0,0,0,0,0,0,-1,1336,1163,0,0
119,-139,0,0,0,0,0,0,0,0,0,-1,1343,1163,0,0
126,-139,0,0,0,0,0,0,0,0,0,-1,1350,1163,0,0
133,-139,0,0,0,0,0,0,0,0,0,-1,1357,1163,0,0
140,-139,0,0,0,0,0,0,0,0,0,-1,1364,1163,0,0
147,-139,0,0,0,0,0,0,0,0,0,-1,1371,1163,0,0
154,-139,0,0,0,0,0,0,0,0,0,-1,1378,1163,0,0
161,-139,0,0,0,0,0,0,0,0,0,-1,1385,1163,0,0
168,-139,0,0,0,0,0,0,0,0,0,-1,1392,1163,0,0
175,-139,0,0,0,0,0,0,0,0,0,-1,1399,1163,0,0
182,-139,0,0,0,0,0,0,0,0,0,-1,1406,1163,0,0
189,-139,0,0,0,0,0,0,0,0,0,-1,1413,1163,0,0
196,-139,0,0,0,0,0,0,0,0,0,-1,1420,1163,0,0
203,-139,0,0,0,0,0,0,0,0,0,-1,1427,1163,0,0
210,-139,0,0,0,0,0,0,0,0,0,-1,1434,1163,0,0
217,-139,0,0,0,0,0,0,0,0,0,-1,1441,1163,0,0
224,-139,0,0,0,0,0,0,0,0,0,-1,1448,1163,0,0
231,-139,0,0,0,0,0,0,0,0,0,-1,1455,1163,0,0
238,-139,0,0,0,0,0,0,0,0,0,-1,1462,1163,0,0
245,-139,0,0,0,0,0,0,0,0,0,-1,1469,1163,0,0
252,-139,0,0,0,0,0,0,0,0,0,-1,1476,1163,0,0
259,-139,0,0,0,0,0,0,0,0,0,-1,1483,1163,0,0
266,-139,0,0,0,0,0,0,0,0,0,-1,1490,1163,0,0
273,-139,0,0,0,0,0,0,0,0,0,-1,1497,1163,0,0
280,-139,0,0,0,0,0,0,0,0,0,-1,1504,1163,0,0
287,-139,0,0,0,0,0,0,0,0,0,-1,1511,1163,0,0
294,-139,0,0,0,0,0,0,0,0,0,-1,1518,1163,0,0
301,-139,0,0,0,0,0,0,0,0,0,-1,1525,1163,0,0
308,-139,0,0,0,0,0,0,0,0,0,-1,1532,1163,0,0
315,-139,0,0,0,0,0,0,0,0,0,-1,1539,1163,0,0
322,-139,0,0,0,0,0,0,0,0,0,-1,1546,1163,0,0
329,-139,0,0,0,0,0,0,0,0,0,-1,1553,1163,0,0
336,-139,0,0,0,0,0,0,0,0,0,-1,1560,1163,0,0
343,-139,0,0,0,0,0,0,0,0,0,-1,1567,1163,0,0
350,-139,0,0,0,0,0,0,0,0,0,-1,1574,1163,0,0
357,-139,0,0,0,0,0,0,0,0,0,-1,1581,1163,0,0
364,-139,0,0,0,0,0,0,0,0,0,-1,1588,1163,0,0
371,-139,0,0,0,0,0,0,0,0,0,-1,1595,1163,0,0
378,-139,0,0,0,0,0,0,0,0,0,-1,1602,1163,0,0
385,-139,0,0,0,0,0,0,0,0,0,-1,1609,1163,0,0
392,-139,0,0,0,0,0,0,0,0,0,-1,1616,1163,0,0
399,-139,0,0,0,0,0,0,0,0,0,-1,1623,1163,0,0
406,-139,0,0,0,0,0,0,0,0,0,-1,1630,1163,0,0
413,-139,0,0,0,0,0,0,0,0,0,-1,1637,1163,0,0
420,-139,0,0,0,0,0,0,0,0,0,-1,1644,1163,0,0
427,-139,0,0,0,0,0,0,0,0,0,-1,1651,1163,0,0
434,-139,0,0,0,0,0,0,0,0,0,-1,1658,1163,0,0
441,-139,0,0,0,0,0,0,0,0,0,-1,1665,1163,0,0
448,-139,0,0,0,0,0,0,0,0,0,-1,1672,1163,0,0
455,-139,0,0,0,0,0,0,0,0,0,-1,1679,1163,0,0
462,-139,0,0,0,0,0,0,0,0,0,-1,1686,1163,0,0
469,-139,0,0,0,0,0,0,0,0,0,-1,1693,1163,0,0
476,-139,0,0,0,0,0,0,0,0,0,-1,1700,1163,0,0
483,-139,0,0,0,0,0,0,0,0,0,-1,1707,1163,0,0
490,-139,0,0,0,0,0,0,0,0,0,-1,1714,1163,0,0
497,-139,0,0,0,0,0,0,0,0,0,-1,1721,1163,0,0
504,-139,0,0,0,0,0,0,0,0,0,-1,1728,1163,0,0
511,-139,0,0,0,0,0,0,0,0,0,-1,1735,1163,0,0
518,-139,0,0,0,0,0,0,0,0,0,-1,1742,1163,0,0
525,-139,0,0,0,0,0,0,0,0,0,-1,1749,1163,0,0
532,-139,0,0,0,0,0,0,0,0,0,-1,1756,1163,0,0
539,-139,0,0,0,0,0,0,0,0,0,-1,1763,1163,0,0
546,-139,0,0,0,0,0,0,0,0,0,-1,1770,1163,0,0
553,-139,0,0,0,0,0,0,0,0,0,-1,1777,1163,0,0
560,-139,0,0,0,0,0,0,0,0,0,-1,1784,1163,0,0
567,-139,0,0,0,0,0,0,0,0,0,-1,1791,1163,0,0
574,-139,0,0,0,0,0,0,0,0,0,-1,1798,1163,0,0
581,-139,0,0,0,0,0,0,0,0,0,-1,1805,1163,0,0
588,-139,0,0,0,0,0,0,0,0,0,-1,1812,1163,0,0
595,-139,0,0,0,0,0,0,0,0,0,-1,1819,1163,0,0
602,-139,0,0,0,0,0,0,0,0,0,-1,1826,1163,0,0
609,-139,0,0,0,0,0,0,0,0,0,-1,1833,1163,0,0
616,-139,0,0,0,0,0,0,0,0,0,-1,1840,1163,0,0
623,-139,0,0,0,0,0,0,0,0,0,-1,1847,1163,0,0
630,-139,0,0,0,0,0,0,0,0,0,-1,1854,1163,0,0
637,-139,0,0,0,0,0,0,0,0,0,-1,1861,1163,0,0
644,-139,58.9319,2.5105,-0.00124705,-0.000327688,-0.00227544,0.00153404,-0.00310878,-0.885066,0.00273145,0.0390351,1868,1163,58.9319,-2.5105
651,-139,58.7711,2.48901,-0.0010384,3.66777e-05,-0.00176456,0.00134376,-0.00234548,-0.933247,0.002156,0.0380014,1875,1163,58.7711,-2.48907
658,-139,58.9039,2.40869,-0.000845921,0.000299935,-0.00117661,0.00103569,-0.00158168,-1.01197,0.00152206,0.0409981,1882,1163,58.904,-2.40866
665,-139,59.0071,2.45032,-0.000690727,0.00053234,-0.000571026,0.000757492,-0.00091588,-1.19522,0.000967563,0.0408918,1889,1163,59.0071,-2.45036
672,-139,58.9802,2.65845,-0.000825705,0.000701917,3.25891e-07,0.000701917,-0.000825705,1.57058,0.000882938,0.0390156,1896,1163,58.9802,-2.65846
679,-139,59.0452,2.71716,-0.00121429,0.000534515,0.000506804,0.000670771,-0.00135055,1.30815,0.0011888,0.0359378,1903,1163,59.0452,-2.71714
686,-139,58.9041,2.73645,-0.00123726,0.000277595,0.000685737,0.000541897,-0.00150157,1.20292,0.00122239,0.032618,1910,1163,58.904,-2.73644
693,-139,58.9194,2.69153,-0.00113408,0.000176912,0.000727576,0.000500723,-0.00145789,1.15206,0.00117496,0.0218701,1917,1163,58.9194,-2.69157
700,-139,58.9749,2.4939,0,0,0,0,0,0,0,-1,1924,1163,58.9749,-2.49386
707,-139,32.116,6.54346,0,0,0,0,0,0,0,-1,1931,1163,32.116,-6.54343
714,-139,52.0297,9.03748,0,0,0,0,0,0,0,-1,1938,1163,52.0297,-9.03748
721,-139,52.2032,8.43591,-0.00117084,0.000208834,0.00135433,0.0010389,-0.0020009,1.02095,0.00178408,0.036369,1945,1163,52.2033,-8.43596
728,-139,52.0153,8.07776,-0.000551522,0.000256033,0.00120279,0.00112101,-0.0014165,0.947338,0.00146834,0.0467377,1952,1163,52.0153,-8.0777
735,-139,51.8739,7.63611,-0.000197406,0.000210004,0.00129742,0.00131961,-0.00130701,0.863267,0.00151649,0.0344488,1959,1163,51.8739,-7.63614
742,-139,52.0156,7.01453,-5.85326e-05,0.000400418,0.00156733,0.00175498,-0.0014131,0.858087,0.00183264,0.0230921,1966,1163,52.0156,-7.01451
749,-139,52.0309,6.53528,-2.91334e-05,0.00098419,0.00184264,0.00238856,-0.0014335,0.919565,0.00222951,0.0193769,1973,1163,52.0309,-6.53529
756,-139,51.9672,6.06152,0.000155646,0.00261154,0.00188718,0.00363511,-0.00086792,1.07382,0.0027586,0.0117853,1980,1163,51.9672,-6.06157
763,-139,51.943,5.57336,-3.35996e-05,0.00464714,0.00155264,0.00511533,-0.000501794,1.27792,0.0035892,0.0121956,1987,1163,51.943,-5.57336
770,-139,51.9513,5.12659,-0.00024272,0.00705541,0.0011199,0.00722339,-0.000410703,1.42191,0.00495817,0.0131487,1994,1163,51.9513,-5.12655
777,-139,51.9517,4.73169,-0.000829073,0.0098526,0.000445545,0.00987115,-0.000847626,1.52918,0.00688074,0.0247151,2001,1163,51.9516,-4.73171
784,-139,51.8506,4.5686,-0.00187368,0.0131475,-0.000534813,0.0131665,-0.0018927,-1.53525,0.00947181,0.0414416,2008,1163,51.8505,-4.5686
791,-139,51.8486,4.39453,-0.00343615,0.0171235,-0.0019877,0.0173139,-0.00362656,-1.4753,0.0129222,0.0493214,2015,1163,51.8486,-4.39449
798,-139,51.7969,4.14136,0,0,0,0,0,0,0,-1,2022,1163,51.7968,-4.14133
805,-139,51.8623,3.84045,0,0,0,0,0,0,0,-1,2029,1163,51.8623,-3.84049
812,-139,0,0,0,0,0,0,0,0,0,-1,2036,1163,0,0
-700,-146,0,0,0,0,0,0,0,0,0,-1,524,1170,0,0
-693,-146,-41.1307,-1.16553,0,0,0,0,0,0,0,-1,531,1170,-41.1307,1.16551
-686,-146,-39.3552,0.0375977,0,0,0,0,0,0,0,-1,538,1170,-39.3551,-0.0376456
-679,-146,-37.2468,-1.08276,0,0,0,0,0,0,0,-1,545,1170,-37.2468,1.08273
-672,-146,-36.8981,-0.545288,0.0466678,-0.0706996,-0.0526497,0.0668243,-0.090856,-0.365627,0.0913885,0.0455676,552,1170,-36.8981,0.545279
-665,-146,-36.6259,0.18811,0.0390664,-0.0579049,-0.041723,0.0545468,-0.0733854,-0.355285,0.0741282,0.0459687,559,1170,-36.6259,-0.188098
-658,-146,-36.6008,0.825195,0.031661,-0.0456174,-0.0321645,0.0432965,-0.0572528,-0.347103,0.0582383,0.0471351,566,1170,-36.6009,-0.825142
-651,-146,-36.756,1.37476,0.0246322,-0.0341879,-0.0239223,0.0331329,-0.0426886,-0.341431,0.0438913,0.0415017,573,1170,-36.756,-1.37477
-644,-146,-36.8076,1.99353,0.018055,-0.0239463,-0.0169535,0.0240442,-0.0299354,-0.339583,0.0312269,0.0226919,580,1170,-36.8076,-1.99357
-637,-146,-36.8741,2.54504,0.0118177,-0.0150529,-0.0110743,0.0157935,-0.0190288,-0.344682,0.0201335,0.0118222,587,1170,-36.8741,-2.54507
-630,-146,-36.9099,3.06238,0.00627869,-0.00761571,-0.00637233,0.00875859,-0.0100956,-0.371133,0.0108946,0.0111495,594,1170,-36.9099,-3.06232
-623,-146,-36.954,3.58398,0.00166453,-0.00228284,-0.00331506,0.00354896,-0.00416727,-0.516894,0.00445973,0.0141889,601,1170,-36.954,-3.58402
-616,-146,-36.9985,4.12366,-0.00136574,-0.000186739,-0.00224964,0.00154935,-0.00310183,-0.913539,0.00273477,0.0195223,608,1170,-36.9985,-4.12369
-609,-146,-37.0434,4.67639,0,0,0,0,0,0,0,-1,615,1170,-37.0434,-4.67639
-602,-146,-36.9245,5.32874,0,0,0,0,0,0,0,-1,622,1170,-36.9245,-5.32869
-595,-146,-37.1379,5.79822,0,0,0,0,0,0,0,-1,629,1170,-37.1379,-5.79825
-588,-146,-37.4056,6.21558,0,0,0,0,0,0,0,-1,636,1170,-37.4056,-6.21562
-581,-146,-31.7815,6.30347,0,0,0,0,0,0,0,-1,643,1170,-31.7815,-6.3035
-574,-146,-17.9915,3.79114,0,0,0,0,0,0,0,-1,650,1170,-17.9915,-3.79118
-567,-146,-44.4572,0.6604,0,0,0,0,0,0,0,-1,657,1170,-44.4572,-0.660404
-560,-146,-44.5133,0.917969,-0.00115659,-0.00118181,-0.00127287,0.000103726,-0.00244213,-0.780446,0.00166374,0.0495683,664,1170,-44.5133,-0.917947
-553,-146,-44.5209,1.03149,-0.000917416,-0.000919069,-0.00109077,0.000172524,-0.00200901,-0.785019,0.00140039,0.0360516,671,1170,-44.521,-1.03155
-546,-146,-44.4929,0.963989,-0.000759486,-0.000376616,-0.000981933,0.000432369,-0.00156847,-0.881669,0.00121568,0.0400173,678,1170,-44.4929,-0.964035
-539,-146,-44.4833,0.732666,-0.000187991,0.000628989,-0.000948605,0.00125332,-0.00081232,-0.988709,0.00120162,0.039758,685,1170,-44.4833,-0.732628
-532,-146,-44.5189,0.417603,0.000524062,0.00153791,-0.000891859,0.00205684,5.12693e-06,-1.04382,0.00136952,0.0384763,692,1170,-44.5189,-0.417581
-525,-146,-44.6732,0.55896,0.0013808,0.00241364,-0.000859503,0.00289994,0.000894508,-1.05591,0.00171474,0.042875,699,1170,-44.6732,-0.558926
-518,-146,0,0,0,0,0,0,0,0,0,-1,706,1170,0,0
-511,-146,0,0,0,0,0,0,0,0,0,-1,713,1170,0,0
-504,-146,0,0,0,0,0,0,0,0,0,-1,720,1170,0,0
-497,-146,0,0,0,0,0,0,0,0,0,-1,727,1170,0,0
-490,-146,0,0,0,0,0,0,0,0,0,-1,734,1170,0,0
-483,-146,0,0,0,0,0,0,0,0,0,-1,741,1170,0,0
-476,-146,0,0,0,0,0,0,0,0,0,-1,748,1170,0,0
-469,-146,0,0,0,0,0,0,0,0,0,-1,755,1170,0,0
-462,-146,0,0,0,0,0,0,0,0,0,-1,762,1170,0,0
-455,-146,0,0,0,0,0,0,0,0,0,-1,769,1170,0,0
-448,-146,0,0,0,0,0,0,0,0,0,-1,776,1170,0,0
-441,-146,0,0,0,0,0,0,0,0,0,-1,783,1170,0,0
-434,-146,0,0,0,0,0,0,0,0,0,-1,790,1170,0,0
-427,-146,0,0,0,0,0,0,0,0,0,-1,797,1170,0,0
-420,-146,0,0,0,0,0,0,0,0,0,-1,804,1170,0,0
-413,-146,0,0,0,0,0,0,0,0,0,-1,811,1170,0,0
-406,-146,0,0,0,0,0,0,0,0,0,-1,818,1170,0,0
-399,-146,0,0,0,0,0,0,0,0,0,-1,825,1170,0,0
-392,-146,0,0,0,0,0,0,0,0,0,-1,832,1170,0,0
-385,-146,0,0,0,0,0,0,0,0,0,-1,839,1170,0,0
-378,-146,0,0,0,0,0,0,0,0,0,-1,846,1170,0,0
-371,-146,0,0,0,0,0,0,0,0,0,-1,853,1170,0,0
-364,-146,0,0,0,0,0,0,0,0,0,-1,860,1170,0,0
-357,-146,0,0,0,0,0,0,0,0,0,-1,867,1170,0,0
-350,-146,0,0,0,0,0,0,0,0,0,-1,874,1170,0,0
-343,-146,0,0,0,0,0,0,0,0,0,-1,881,1170,0,0
-336,-146,0,0,0,0,0,0,0,0,0,-1,888,1170,0,0
-329,-146,0,0,0,0,0,0,0,0,0,-1,895,1170,0,0
-322,-146,0,0,0,0,0,0,0,0,0,-1,902,1170,0,0
-315,-146,0,0,0,0,0,0,0,0,0,-1,909,1170,0,0
-308,-146,0,0,0,0,0,0,0,0,0,-1,916,1170,0,0
-301,-146,0,0,0,0,0,0,0,0,0,-1,923,1170,0,0
-294,-146,0,0,0,0,0,0,0,0,0,-1,930,1170,0,0
-287,-146,0,0,0,0,0,0,0,0,0,-1,937,1170,0,0
-280,-146,0,0,0,0,0,0,0,0,0,-1,944,1170,0,0
-273,-146,0,0,0,0,0,0,0,0,0,-1,951,1170,0,0
-266,-146,0,0,0,0,0,0,0,0,0,-1,958,1170,0,0
-259,-146,0,0,0,0,0,0,0,0,0,-1,965,1170,0,0
-252,-146,0,0,0,0,0,0,0,0,0,-1,972,1170,0,0
-245,-146,0,0,0,0,0,0,0,0,0,-1,979,1170,0,0
-238,-146,0,0,0,0,0,0,0,0,0,-1,986,1170,0,0
-231,-146,0,0,0,0,0,0,0,0,0,-1,993,1170,0,0
-224,-146,0,0,0,0,0,0,0,0,0,-1,1000,1170,0,0
-217,-146,0,0,0,0,0,0,0,0,0,-1,1007,1170,0,0
-210,-146,0,0,0,0,0,0,0,0,0,-1,1014,1170,0,0
-203,-146,0,0,0,0,0,0,0,0,0,-1,1021,1170,0,0
-196,-146,0,0,0,0,0,0,0,0,0,-1,1028,1170,0,0
-189,-146,0,0,0,0,0,0,0,0,0,-1,1035,1170,0,0
-182,-146,0,0,0,0,0,0,0,0,0,-1,1042,1170,0,0
-175,-146,0,0,0,0,0,0,0,0,0,-1,1049,1170,0,0
-168,-146,0,0,0,0,0,0,0,0,0,-1,1056,1170,0,0
-161,-146,0,0,0,0,0,0,0,0,0,-1,1063,1170,0,0
-154,-146,0,0,0,0,0,0,0,0,0,-1,1070,1170,0,0
-147,-146,0,0,0,0,0,0,0,0,0,-1,1077,1170,0,0
-140,-146,0,0,0,0,0,0,0,0,0,-1,1084,1170,0,0
-133,-146,0,0,0,0,0,0,0,0,0,-1,1091,1170,0,0
-126,-146,0,0,0,0,0,0,0,0,0,-1,1098,1170,0,0
-119,-146,0,0,0,0,0,0,0,0,0,-1,1105,1170,0,0
-112,-146,0,0,0,0,0,0,0,0,0,-1,1112,1170,0,0
-105,-146,0,0,0,0,0,0,0,0,0,-1,1119,1170,0,0
-98,-146,0,0,0,0,0,0,0,0,0,-1,1126,1170,0,0
-91,-146,0,0,0,0,0,0,0,0,0,-1,1133,1170,0,0
-84,-146,0,0,0,0,0,0,0,0,0,-1,1140,1170,0,0
-77,-146,0,0,0,0,0,0,0,0,0,-1,1147,1170,0,0
-70,-146,0,0,0,0,0,0,0,0,0,-1,1154,1170,0,0
-63,-146,0,0,0,0,0,0,0,0,0,-1,1161,1170,0,0
-56,-146,0,0,0,0,0,0,0,0,0,-1,1168,1170,0,0
-49,-146,0,0,0,0,0,0,0,0,0,-1,1175,1170,0,0
-42,-146,0,0,0,0,0,0,0,0,0,-1,1182,1170,0,0
-35,-146,0,0,0,0,0,0,0,0,0,-1,1189,1170,0,0
-28,-146,0,0,0,0,0,0,0,0,0,-1,1196,1170,0,0
-21,-146,0,0,0,0,0,0,0,0,0,-1,1203,1170,0,0
-14,-146,0,0,0,0,0,0,0,0,0,-1,1210,1170,0,0
-7,-146,0,0,0,0,0,0,0,0,0,-1,1217,1170,0,0
0,-146,0,0,0,0,0,0,0,0,0,-1,1224,1170,0,0
7,-146,0,0,0,0,0,0,0,0,0,-1,1231,1170,0,0
14,-146,0,0,0,0,0,0,0,0,0,-1,1238,1170,0,0
21,-146,0,0,0,0,0,0,0,0,0,-1,1245,1170,0,0
28,-146,0,0,0,0,0,0,0,0,0,-1,1252,1170,0,0
35,-146,0,0,0,0,0,0,0,0,0,-1,1259,1170,0,0
42,-146,0,0,0,0,0,0,0,0,0,-1,1266,1170,0,0
49,-146,0,0,0,0,0,0,0,0,0,-1,1273,1170,0,0
56,-146,0,0,0,0,0,0,0,0,0,-1,1280,1170,0,0
63,-146,0,0,0,0,0,0,0,0,0,-1,1287,1170,0,0
70,-146,0,0,0,0,0,0,0,0,0,-1,1294,1170,0,0
77,-146,0,0,0,0,0,0,0,0,0,-1,1301,1170,0,0
84,-146,0,0,0,0,0,0,0,0,0,-1,1308,1170,0,0
91,-146,0,0,0,0,0,0,0,0,0,-1,1315,1170,0,0
98,-146,0,0,0,0,0,0,0,0,0,-1,1322,1170,0,0
105,-146,0,0,0,0,0,0,0,0,0,-1,1329,1170,0,0
112,-146,0,0,0,0,0,0,0,0,0,-1,1336,1170,0,0
119,-146,0,0,0,0,0,0,0,0,0,-1,1343,1170,0,0
126,-146,0,0,0,0,0,0,0,0,0,-1,1350,1170,0,0
133,-146,0,0,0,0,0,0,0,0,0,-1,1357,1170,0,0
140,-146,0,0,0,0,0,0,0,0,0,-1,1364,1170,0,0
147,-146,0,0,0,0,0,0,0,0,0,-1,1371,1170,0,0
154,-146,0,0,0,0,0,0,0,0,0,-1,1378,1170,0,0
161,-146,0,0,0,0,0,0,0,0,0,-1,1385,1170,0,0
168,-146,0,0,0,0,0,0,0,0,0,-1,1392,1170,0,0
175,-146,0,0,0,0,0,0,0,0,0,-1,1399,1170,0,0
182,-146,0,0,0,0,0,0,0,0,0,-1,1406,1170,0,0
189,-146,0,0,0,0,0,0,0,0,0,-1,1413,1170,0,0
196,-146,0,0,0,0,0,0,0,0,0,-1,1420,1170,0,0
203,-146,0,0,0,0,0,0,0,0,0,-1,1427,1170,0,0
210,-146,0,0,0,0,0,0,0,0,0,-1,1434,1170,0,0
217,-146,0,0,0,0,0,0,0,0,0,-1,1441,1170,0,0
224,-146,0,0,0,0,0,0,0,0,0,-1,1448,1170,0,0
231,-146,0,0,0,0,0,0,0,0,0,-1,1455,1170,0,0
238,-146,0,0,0,0,0,0,0,0,0,-1,1462,1170,0,0
245,-146,0,0,0,0,0,0,0,0,0,-1,1469,1170,0,0
252,-146,0,0,0,0,0,0,0,0,0,-1,1476,1170,0,0
259,-146,0,0,0,0,0,0,0,0,0,-1,1483,1170,0,0
266,-146,0,0,0,0,0,0,0,0,0,-1,1490,1170,0,0
273,-146,0,0,0,0,0,0,0,0,0,-1,1497,1170,0,0
280,-146,0,0,0,0,0,0,0,0,0,-1,1504,1170,0,0
287,-146,0,0,0,0,0,0,0,0,0,-1,1511,1170,0,0
294,-146,0,0,0,0,0,0,0,0,0,-1,1518,1170,0,0
301,-146,0,0,0,0,0,0,0,0,0,-1,1525,1170,0,0
308,-146,0,0,0,0,0,0,0,0,0,-1,1532,1170,0,0
315,-146,0,0,0,0,0,0,0,0,0,-1,1539,1170,0,0
322,-146,0,0,0,0,0,0,0,0,0,-1,1546,1170,0,0
329,-146,0,0,0,0,0,0,0,0,0,-1,1553,1170,0,0
336,-146,0,0,0,0,0,0,0,0,0,-1,1560,1170,0,0
343,-146,0,0,0,0,0,0,0,0,0,-1,1567,1170,0,0
350,-146,0,0,0,0,0,0,0,0,0,-1,1574,1170,0,0
357,-146,0,0,0,0,0,0,0,0,0,-1,1581,1170,0,0
364,-146,0,0,0,0,0,0,0,0,0,-1,1588,1170,0,0
371,-146,0,0,0,0,0,0,0,0,0,-1,1595,1170,0,0
378,-146,0,0,0,0,0,0,0,0,0,-1,1602,1170,0,0
385,-146,0,0,0,0,0,0,0,0,0,-1,1609,1170,0,0
392,-146,0,0,0,0,0,0,0,0,0,-1,1616,1170,0,0
399,-146,0,0,0,0,0,0,0,0,0,-1,1623,1170,0,0
406,-146,0,0,0,0,0,0,0,0,0,-1,1630,1170,0,0
413,-146,0,0,0,0,0,0,0,0,0,-1,1637,1170,0,0
420,-146,0,0,0,0,0,0,0,0,0,-1,1644,1170,0,0
427,-146,0,0,0,0,0,0,0,0,0,-1,1651,1170,0,0
434,-146,0,0,0,0,0,0,0,0,0,-1,1658,1170,0,0
441,-146,0,0,0,0,0,0,0,0,0,-1,1665,1170,0,0
448,-146,0,0,0,0,0,0,0,0,0,-1,1672,1170,0,0
455,-146,0,0,0,0,0,0,0,0,0,-1,1679,1170,0,0
462,-146,0,0,0,0,0,0,0,0,0,-1,1686,1170,0,0
469,-146,0,0,0,0,0,0,0,0,0,-1,1693,1170,0,0
476,-146,0,0,0,0,0,0,0,0,0,-1,1700,1170,0,0
483,-146,0,0,0,0,0,0,0,0,0,-1,1707,1170,0,0
490,-146,0,0,0,0,0,0,0,0,0,-1,1714,1170,0,0
497,-146,0,0,0,0,0,0,0,0,0,-1,1721,1170,0,0
504,-146,0,0,0,0,0,0,0,0,0,-1,1728,1170,0,0
511,-146,0,0,0,0,0,0,0,0,0,-1,1735,1170,0,0
518,-146,0,0,0,0,0,0,0,0,0,-1,1742,1170,0,0
525,-146,0,0,0,0,0,0,0,0,0,-1,1749,1170,0,0
532,-146,0,0,0,0,0,0,0,0,0,-1,1756,1170,0,0
539,-146,0,0,0,0,0,0,0,0,0,-1,1763,1170,0,0
546,-146,0,0,0,0,0,0,0,0,0,-1,1770,1170,0,0
553,-146,0,0,0,0,0,0,0,0,0,-1,1777,1170,0,0
560,-146,0,0,0,0,0,0,0,0,0,-1,1784,1170,0,0
567,-146,0,0,0,0,0,0,0,0,0,-1,1791,1170,0,0
574,-146,0,0,0,0,0,0,0,0,0,-1,1798,1170,0,0
581,-146,0,0,0,0,0,0,0,0,0,-1,1805,1170,0,0
588,-146,0,0,0,0,0,0,0,0,0,-1,1812,1170,0,0
595,-146,0,0,0,0,0,0,0,0,0,-1,1819,1170,0,0
602,-146,0,0,0,0,0,0,0,0,0,-1,1826,1170,0,0
609,-146,0,0,0,0,0,0,0,0,0,-1,1833,1170,0,0
616,-146,0,0,0,0,0,0,0,0,0,-1,1840,1170,0,0
623,-146,0,0,0,0,0,0,0,0,0,-1,1847,1170,0,0
630,-146,0,0,0,0,0,0,0,0,0,-1,1854,1170,0,0
637,-146,59.0048,2.36011,-0.00103602,-0.000459099,-0.00190711,0.00118124,-0.00267636,-0.860457,0.00228227,0.0380961,1861,1170,59.0047,-2.36014
644,-146,58.9578,2.46362,-0.000889906,-0.000284252,-0.00151718,0.000960032,-0.00213419,-0.883903,0.00182882,0.0372169,1868,1170,58.9577,-2.46361
651,-146,58.8088,2.55066,-0.000792051,2.22537e-05,-0.00121026,0.000892011,-0.00166181,-0.94766,0.00149661,0.0349081,1875,1170,58.8088,-2.55065
658,-146,58.9728,2.48645,-0.000698834,0.000272906,-0.000812487,0.000733717,-0.00115965,-1.05487,0.00110231,0.0382315,1882,1170,58.9728,-2.48649
665,-146,59.0671,2.47925,-0.000599061,0.000518119,-0.000381599,0.000636021,-0.000716962,-1.27113,0.000781611,0.0416049,1889,1170,59.0672,-2.47926
672,-146,59.0015,2.6853,-0.000767836,0.000699098,4.6161e-05,0.000700549,-0.000769287,1.53937,0.00084892,0.039247,1896,1170,59.0015,-2.68531
679,-146,58.9823,2.68091,-0.00109281,0.000540471,0.000463196,0.000662687,-0.00121503,1.31282,0.00109962,0.0294018,1903,1170,58.9823,-2.68091
686,-146,58.8719,2.63269,-0.00105384,0.000280606,0.000592914,0.000505982,-0.00127922,1.20755,0.00106243,0.0218568,1910,1170,58.8719,-2.63273
693,-146,58.9297,2.56897,-0.000942429,0.000196498,0.000635418,0.00048029,-0.00122622,1.15075,0.00101614,0.0156349,1917,1170,58.9296,-2.56901
700,-146,58.9843,2.38281,0,0,0,0,0,0,0,-1,1924,1170,58.9843,-2.38281
707,-146,29.9441,6.94653,0,0,0,0,0,0,0,-1,1931,1170,29.9441,-6.94652
714,-146,31.325,6.13245,0,0,0,0,0,0,0,-1,1938,1170,31.325,-6.1325
721,-146,51.7139,8.34253,0,0,0,0,0,0,0,-1,1945,1170,51.7139,-8.34252
728,-146,51.5138,8.22705,0,0,0,0,0,0,0,-1,1952,1170,51.5138,-8.22702
735,-146,51.4248,7.5304,0.000179639,0.000121273,0.00121776,0.00136857,-0.00106766,0.773418,0.00141013,0.0354786,1959,1170,51.4248,-7.53038
742,-146,51.5304,6.98474,0.000390659,0.000253629,0.00152667,0.00185035,-0.00120606,0.762974,0.00177764,0.0174157,1966,1170,51.5303,-6.98468
749,-146,51.4911,6.54333,0.000632032,0.00087604,0.00179663,0.0025548,-0.00104673,0.8193,0.00213925,0.0160466,1973,1170,51.4911,-6.54339
756,-146,51.4551,6.05701,0.00142314,0.00263181,0.00184224,0.00396631,8.86425e-05,0.94389,0.00261516,0.0127513,1980,1170,51.4551,-6.05699
763,-146,51.4165,5.55371,0.00205704,0.00482503,0.00165834,0.00560102,0.00128105,1.13313,0.0033887,0.0125646,1987,1170,51.4165,-5.55375
770,-146,51.4069,5.08545,0.00282918,0.00742401,0.00143698,0.00783639,0.0024168,1.29133,0.00463374,0.0136585,1994,1170,51.4068,-5.0854
777,-146,51.447,4.74231,0.00342336,0.0104964,0.00107824,0.0106571,0.00326264,1.42283,0.00630517,0.0242009,2001,1170,51.4471,-4.74227
784,-146,51.4871,4.48608,0.00391195,0.0141176,0.000557361,0.0141479,0.0038816,1.5164,0.00844101,0.0406117,2008,1170,51.487,-4.48612
791,-146,51.5857,4.08069,0.00426122,0.0185655,-0.000271506,0.0185707,0.00425607,-1.55182,0.0112338,0.0444516,2015,1170,51.5857,-4.0807
798,-146,51.856,3.83154,0.00412476,0.0240325,-0.00154099,0.024151,0.00400618,-1.494,0.0149454,0.0484481,2022,1170,51.8559,-3.83154
805,-146,52.3049,3.49866,0.00277542,0.0305005,-0.0031723,0.0308589,0.00241708,-1.45831,0.0198161,0.0497593,2029,1170,52.3049,-3.49868
812,-146,0,0,0,0,0,0,0,0,0,-1,2036,1170,0,0
-700,-153,0,0,0,0,0,0,0,0,0,-1,524,1177,0,0
-693,-153,0,0,0,0,0,0,0,0,0,-1,531,1177,0,0
-686,-153,-37.3235,0.324219,0,0,0,0,0,0,0,-1,538,1177,-37.3235,-0.3242
-679,-153,-36.3239,-0.499268,0,0,0,0,0,0,0,-1,545,1177,-36.3239,0.499326
-672,-153,-35.7059,0.198364,0.0439753,-0.0684428,-0.0492289,0.0624854,-0.0869528,-0.359647,0.0866628,0.0488648,552,1177,-35.7059,-0.198376
-665,-153,-35.3765,1.00037,0.03717,-0.0558617,-0.0389323,0.0513126,-0.0700043,-0.34844,0.0703189,0.0482981,559,1177,-35.3765,-1.00033
-658,-153,-36.0308,1.11743,0,0,0,0,0,0,0,-1,566,1177,-36.0307,-1.1174
-651,-153,-36.5386,1.62061,0.0241377,-0.032922,-0.0222764,0.0318044,-0.0405887,-0.331465,0.0418986,0.0438943,573,1177,-36.5387,-1.62057
-644,-153,-36.2686,2.01355,0.0180559,-0.023065,-0.0157713,0.0234082,-0.0284172,-0.327169,0.029968,0.0296082,580,1177,-36.2685,-2.01356
-637,-153,-36.3153,2.57129,0.0122392,-0.0145091,-0.0104171,0.0158174,-0.0180873,-0.330871,0.0195895,0.0127757,587,1177,-36.3153,-2.57125
-630,-153,-36.3508,3.07849,0.00688414,-0.00743049,-0.0060129,0.00907467,-0.00962102,-0.349361,0.0107955,0.0104477,594,1177,-36.3508,-3.07844
-623,-153,-36.3808,3.60815,0.00225101,-0.0022349,-0.00320661,0.00392126,-0.00390515,-0.48021,0.00451858,0.0109753,601,1177,-36.3808,-3.6082
-616,-153,-36.4284,4.15405,-0.00121418,4.80817e-05,-0.00226831,0.00177143,-0.00293753,-0.921086,0.00274636,0.0141695,608,1177,-36.4284,-4.15409
-609,-153,-36.4213,4.65735,-0.002462,-0.000733834,-0.00210315,0.000675815,-0.00387165,-0.980312,0.00283337,0.0308569,615,1177,-36.4213,-4.65736
-602,-153,-36.3954,5.07166,0,0,0,0,0,0,0,-1,622,1177,-36.3955,-5.07161
-595,-153,-36.65,5.86987,0,0,0,0,0,0,0,-1,629,1177,-36.65,-5.86986
-588,-153,-32.348,5.51038,0,0,0,0,0,0,0,-1,636,1177,-32.348,-5.51034
-581,-153,-33.4568,6.41492,0,0,0,0,0,0,0,-1,643,1177,-33.4568,-6.41497
-574,-153,-25.4814,5.16956,0,0,0,0,0,0,0,-1,650,1177,-25.4814,-5.16961
-567,-153,-35.3121,1.09485,0,0,0,0,0,0,0,-1,657,1177,-35.3121,-1.09482
-560,-153,-44.4893,0.958496,0,0,0,0,0,0,0,-1,664,1177,-44.4893,-0.958436
-553,-153,-44.4641,0.898071,-0.00127677,-0.00147933,-0.00139072,1.63554e-05,-0.00277245,-0.749049,0.00185378,0.0362535,671,1177,-44.4641,-0.898072
-546,-153,-44.4278,0.782349,-0.000894917,-0.00121403,-0.0012582,0.000213801,-0.00232275,-0.722327,0.00162446,0.0380761,678,1177,-44.4278,-0.782299
-539,-153,-44.5218,0.555176,0.000153079,-0.000364945,-0.00116761,0.00109006,-0.00130193,-0.67625,0.00138282,0.037701,685,1177,-44.5218,-0.555119
-532,-153,-44.6497,0.496704,0.00138521,0.00057635,-0.000990296,0.00205048,-8.89164e-05,-0.591538,0.00139757,0.0389077,692,1177,-44.6497,-0.496716
-525,-153,-44.637,0.773193,0.00279415,0.00156962,-0.000842377,0.00322327,0.00114051,-0.471144,0.00188727,0.0401476,699,1177,-44.637,-0.773143
-518,-153,0,0,0,0,0,0,0,0,0,-1,706,1177,0,0
-511,-153,0,0,0,0,0,0,0,0,0,-1,713,1177,0,0
-504,-153,0,0,0,0,0,0,0,0,0,-1,720,1177,0,0
-497,-153,0,0,0,0,0,0,0,0,0,-1,727,1177,0,0
-490,-153,0,0,0,0,0,0,0,0,0,-1,734,1177,0,0
-483,-153,0,0,0,0,0,0,0,0,0,-1,741,1177,0,0
-476,-153,0,0,0,0,0,0,0,0,0,-1,748,1177,0,0
-469,-153,0,0,0,0,0,0,0,0,0,-1,755,1177,0,0
-462,-153,0,0,0,0,0,0,0,0,0,-1,762,1177,0,0
-455,-153,0,0,0,0,0,0,0,0,0,-1,769,1177,0,0
-448,-153,0,0,0,0,0,0,0,0,0,-1,776,1177,0,0
-441,-153,0,0,0,0,0,0,0,0,0,-1,783,1177,0,0
-434,-153,0,0,0,0,0,0,0,0,0,-1,790,1177,0,0
-427,-153,0,0,0,0,0,0,0,0,0,-1,797,1177,0,0
-420,-153,0,0,0,0,0,0,0,0,0,-1,804,1177,0,0
-413,-153,0,0,0,0,0,0,0,0,0,-1,811,1177,0,0
-406,-153,0,0,0,0,0,0,0,0,0,-1,818,1177,0,0
-399,-153,0,0,0,0,0,0,0,0,0,-1,825,1177,0,0
-392,-153,0,0,0,0,0,0,0,0,0,-1,832,1177,0,0
-385,-153,0,0,0,0,0,0,0,0,0,-1,839,1177,0,0
-378,-153,0,0,0,0,0,0,0,0,0,-1,846,1177,0,0
-371,-153,0,0,0,0,0,0,0,0,0,-1,853,1177,0,0
-364,-153,0,0,0,0,0,0,0,0,0,-1,860,1177,0,0
-357,-153,0,0,0,0,0,0,0,0,0,-1,867,1177,0,0
-350,-153,0,0,0,0,0,0,0,0,0,-1,874,1177,0,0
-343,-153,0,0,0,0,0,0,0,0,0,-1,881,1177,0,0
-336,-153,0,0,0,0,0,0,0,0,0,-1,888,1177,0,0
-329,-153,0,0,0,0,0,0,0,0,0,-1,895,1177,0,0
-322,-153,0,0,0,0,0,0,0,0,0,-1,902,1177,0,0
-315,-153,0,0,0,0,0,0,0,0,0,-1,909,1177,0,0
-308,-153,0,0,0,0,0,0,0,0,0,-1,916,1177,0,0
-301,-153,0,0,0,0,0,0,0,0,0,-1,923,1177,0,0
-294,-153,0,0,0,0,0,0,0,0,0,-1,930,1177,0,0
-287,-153,0,0,0,0,0,0,0,0,0,-1,937,1177,0,0
-280,-153,0,0,0,0,0,0,0,0,0,-1,944,1177,0,0
-273,-153,0,0,0,0,0,0,0,0,0,-1,951,1177,0,0
-266,-153,0,0,0,0,0,0,0,0,0,-1,958,1177,0,0
-259,-153,0,0,0,0,0,0,0,0,0,-1,965,1177,0,0
-252,-153,0,0,0,0,0,0,0,0,0,-1,972,1177,0,0
-245,-153,0,0,0,0,0,0,0,0,0,-1,979,1177,0,0
-238,-153,0,0,0,0,0,0,0,0,0,-1,986,1177,0,0
-231,-153,0,0,0,0,0,0,0,0,0,-1,993,1177,0,0
-224,-153,0,0,0,0,0,0,0,0,0,-1,1000,1177,0,0
-217,-153,0,0,0,0,0,0,0,0,0,-1,1007,1177,0,0
-210,-153,0,0,0,0,0,0,0,0,0,-1,1014,1177,0,0
-203,-153,0,0,0,0,0,0,0,0,0,-1,1021,1177,0,0
-196,-153,0,0,0,0,0,0,0,0,0,-1,1028,1177,0,0
-189,-153,0,0,0,0,0,0,0,0,0,-1,1035,1177,0,0
-182,-153,0,0,0,0,0,0,0,0,0,-1,1042,1177,0,0
-175,-153,0,0,0,0,0,0,0,0,0,-1,1049,1177,0,0
-168,-153,0,0,0,0,0,0,0,0,0,-1,1056,1177,0,0
-161,-153,0,0,0,0,0,0,0,0,0,-1,1063,1177,0,0
-154,-153,0,0,0,0,0,0,0,0,0,-1,1070,1177,0,0
-147,-153,0,0,0,0,0,0,0,0,0,-1,1077,1177,0,0
-140,-153,0,0,0,0,0,0,0,0,0,-1,1084,1177,0,0
-133,-153,0,0,0,0,0,0,0,0,0,-1,1091,1177,0,0
-126,-153,0,0,0,0,0,0,0,0,0,-1,1098,1177,0,0
-119,-153,0,0,0,0,0,0,0,0,0,-1,1105,1177,0,0
-112,-153,0,0,0,0,0,0,0,0,0,-1,1112,1177,0,0
-105,-153,0,0,0,0,0,0,0,0,0,-1,1119,1177,0,0
-98,-153,0,0,0,0,0,0,0,0,0,-1,1126,1177,0,0
-91,-153,0,0,0,0,0,0,0,0,0,-1,1133,1177,0,0
-84,-153,0,0,0,0,0,0,0,0,0,-1,1140,1177,0,0
-77,-153,0,0,0,0,0,0,0,0,0,-1,1147,1177,0,0
-70,-153,0,0,0,0,0,0,0,0,0,-1,1154,1177,0,0
-63,-153,0,0,0,0,0,0,0,0,0,-1,1161,1177,0,0
-56,-153,0,0,0,0,0,0,0,0,0,-1,1168,1177,0,0
-49,-153,0,0,0,0,0,0,0,0,0,-1,1175,1177,0,0
-42,-153,0,0,0,0,0,0,0,0,0,-1,1182,1177,0,0
-35,-153,0,0,0,0,0,0,0,0,0,-1,1189,1177,0,0
-28,-153,0,0,0,0,0,0,0,0,0,-1,1196,1177,0,0
-21,-153,0,0,0,0,0,0,0,0,0,-1,1203,1177,0,0
-14,-153,0,0,0,0,0,0,0,0,0,-1,1210,1177,0,0
-7,-153,0,0,0,0,0,0,0,0,0,-1,1217,1177,0,0
0,-153,0,0,0,0,0,0,0,0,0,-1,1224,1177,0,0
7,-153,0,0,0,0,0,0,0,0,0,-1,1231,1177,0,0
14,-153,0,0,0,0,0,0,0,0,0,-1,1238,1177,0,0
21,-153,0,0,0,0,0,0,0,0,0,-1,1245,1177,0,0
28,-153,0,0,0,0,0,0,0,0,0,-1,1252,1177,0,0
35,-153,0,0,0,0,0,0,0,0,0,-1,1259,1177,0,0
42,-153,0,0,0,0,0,0,0,0,0,-1,1266,1177,0,0
49,-153,0,0,0,0,0,0,0,0,0,-1,1273,1177,0,0
56,-153,0,0,0,0,0,0,0,0,0,-1,1280,1177,0,0
63,-153,0,0,0,0,0,0,0,0,0,-1,1287,1177,0,0
70,-153,0,0,0,0,0,0,0,0,0,-1,1294,1177,0,0
77,-153,0,0,0,0,0,0,0,0,0,-1,1301,1177,0,0
84,-153,0,0,0,0,0,0,0,0,0,-1,1308,1177,0,0
91,-153,0,0,0,0,0,0,0,0,0,-1,1315,1177,0,0
98,-153,0,0,0,0,0,0,0,0,0,-1,1322,1177,0,0
105,-153,0,0,0,0,0,0,0,0,0,-1,1329,1177,0,0
112,-153,0,0,0,0,0,0,0,0,0,-1,1336,1177,0,0
119,-153,0,0,0,0,0,0,0,0,0,-1,1343,1177,0,0
126,-153,0,0,0,0,0,0,0,0,0,-1,1350,1177,0,0
133,-153,0,0,0,0,0,0,0,0,0,-1,1357,1177,0,0
140,-153,0,0,0,0,0,0,0,0,0,-1,1364,1177,0,0
147,-153,0,0,0,0,0,0,0,0,0,-1,1371,1177,0,0
154,-153,0,0,0,0,0,0,0,0,0,-1,1378,1177,0,0
161,-153,0,0,0,0,0,0,0,0,0,-1,1385,1177,0,0
168,-153,0,0,0,0,0,0,0,0,0,-1,1392,1177,0,0
175,-153,0,0,0,0,0,0,0,0,0,-1,1399,1177,0,0
182,-153,0,0,0,0,0,0,0,0,0,-1,1406,1177,0,0
189,-153,0,0,0,0,0,0,0,0,0,-1,1413,1177,0,0
196,-153,0,0,0,0,0,0,0,0,0,-1,1420,1177,0,0
203,-153,0,0,0,0,0,0,0,0,0,-1,1427,1177,0,0
210,-153,0,0,0,0,0,0,0,0,0,-1,1434,1177,0,0
217,-153,0,0,0,0,0,0,0,0,0,-1,1441,1177,0,0
224,-153,0,0,0,0,0,0,0,0,0,-1,1448,1177,0,0
231,-153,0,0,0,0,0,0,0,0,0,-1,1455,1177,0,0
238,-153,0,0,0,0,0,0,0,0,0,-1,1462,1177,0,0
245,-153,0,0,0,0,0,0,0,0,0,-1,1469,1177,0,0
252,-153,0,0,0,0,0,0,0,0,0,-1,1476,1177,0,0
259,-153,0,0,0,0,0,0,0,0,0,-1,1483,1177,0,0
266,-153,0,0,0,0,0,0,0,0,0,-1,1490,1177,0,0
273,-153,0,0,0,0,0,0,0,0,0,-1,1497,1177,0,0
280,-153,0,0,0,0,0,0,0,0,0,-1,1504,1177,0,0
287,-153,0,0,0,0,0,0,0,0,0,-1,1511,1177,0,0
294,-153,0,0,0,0,0,0,0,0,0,-1,1518,1177,0,0
301,-153,0,0,0,0,0,0,0,0,0,-1,1525,1177,0,0
308,-153,0,0,0,0,0,0,0,0,0,-1,1532,1177,0,0
315,-153,0,0,0,0,0,0,0,0,0,-1,1539,1177,0,0
322,-153,0,0,0,0,0,0,0,0,0,-1,1546,1177,0,0
329,-153,0,0,0,0,0,0,0,0,0,-1,1553,1177,0,0
336,-153,0,0,0,0,0,0,0,0,0,-1,1560,1177,0,0
343,-153,0,0,0,0,0,0,0,0,0,-1,1567,1177,0,0
350,-153,0,0,0,0,0,0,0,0,0,-1,1574,1177,0,0
357,-153,0,0,0,0,0,0,0,0,0,-1,1581,1177,0,0
364,-153,0,0,0,0,0,0,0,0,0,-1,1588,1177,0,0
371,-153,0,0,0,0,0,0,0,0,0,-1,1595,1177,0,0
378,-153,0,0,0,0,0,0,0,0,0,-1,1602,1177,0,0
385,-153,0,0,0,0,0,0,0,0,0,-1,1609,1177,0,0
392,-153,0,0,0,0,0,0,0,0,0,-1,1616,1177,0,0
399,-153,0,0,0,0,0,0,0,0,0,-1,1623,1177,0,0
406,-153,0,0,0,0,0,0,0,0,0,-1,1630,1177,0,0
413,-153,0,0,0,0,0,0,0,0,0,-1,1637,1177,0,0
420,-153,0,0,0,0,0,0,0,0,0,-1,1644,1177,0,0
427,-153,0,0,0,0,0,0,0,0,0,-1,1651,1177,0,0
434,-153,0,0,0,0,0,0,0,0,0,-1,1658,1177,0,0
441,-153,0,0,0,0,0,0,0,0,0,-1,1665,1177,0,0
448,-153,0,0,0,0,0,0,0,0,0,-1,1672,1177,0,0
455,-153,0,0,0,0,0,0,0,0,0,-1,1679,1177,0,0
462,-153,0,0,0,0,0,0,0,0,0,-1,1686,1177,0,0
469,-153,0,0,0,0,0,0,0,0,0,-1,1693,1177,0,0
476,-153,0,0,0,0,0,0,0,0,0,-1,1700,1177,0,0
483,-153,0,0,0,0,0,0,0,0,0,-1,1707,1177,0,0
490,-153,0,0,0,0,0,0,0,0,0,-1,1714,1177,0,0
497,-153,0,0,0,0,0,0,0,0,0,-1,1721,1177,0,0
504,-153,0,0,0,0,0,0,0,0,0,-1,1728,1177,0,0
511,-153,0,0,0,0,0,0,0,0,0,-1,1735,1177,0,0
518,-153,0,0,0,0,0,0,0,0,0,-1,1742,1177,0,0
525,-153,0,0,0,0,0,0,0,0,0,-1,1749,1177,0,0
532,-153,0,0,0,0,0,0,0,0,0,-1,1756,1177,0,0
539,-153,0,0,0,0,0,0,0,0,0,-1,1763,1177,0,0
546,-153,0,0,0,0,0,0,0,0,0,-1,1770,1177,0,0
553,-153,0,0,0,0,0,0,0,0,0,-1,1777,1177,0,0
560,-153,0,0,0,0,0,0,0,0,0,-1,1784,1177,0,0
567,-153,0,0,0,0,0,0,0,0,0,-1,1791,1177,0,0
574,-153,0,0,0,0,0,0,0,0,0,-1,1798,1177,0,0
581,-153,0,0,0,0,0,0,0,0,0,-1,1805,1177,0,0
588,-153,0,0,0,0,0,0,0,0,0,-1,1812,1177,0,0
595,-153,0,0,0,0,0,0,0,0,0,-1,1819,1177,0,0
602,-153,0,0,0,0,0,0,0,0,0,-1,1826,1177,0,0
609,-153,0,0,0,0,0,0,0,0,0,-1,1833,1177,0,0
616,-153,0,0,0,0,0,0,0,0,0,-1,1840,1177,0,0
623,-153,0,0,0,0,0,0,0,0,0,-1,1847,1177,0,0
630,-153,0,0,0,0,0,0,0,0,0,-1,1854,1177,0,0
637,-153,59.0052,2.53589,-0.000171628,-0.00038808,-0.00132006,0.00104464,-0.00160434,-0.744497,0.00154073,0.0394274,1861,1177,59.0052,-2.53592
644,-153,59.0085,2.55969,-0.000253421,-0.000266075,-0.0011123,0.000852573,-0.00137207,-0.782554,0.00129602,0.0385334,1868,1177,59.0086,-2.55971
651,-153,58.9453,2.64197,-0.000333938,-2.6557e-06,-0.000925814,0.000772218,-0.00110881,-0.873919,0.00109179,0.0316067,1875,1177,58.9453,-2.64194
658,-153,59.0221,2.51917,-0.000356471,0.000238842,-0.000690859,0.000693439,-0.000811068,-0.988806,0.000869512,0.0351152,1882,1177,59.022,-2.5191
665,-153,59.0679,2.46606,-0.000314652,0.000427422,-0.000423068,0.000619106,-0.000506336,-1.14538,0.000650861,0.039169,1889,1177,59.0678,-2.46609
672,-153,58.9927,2.61523,-0.000473898,0.000524891,-0.000132984,0.000542294,-0.000491301,-1.44067,0.000596988,0.0379006,1896,1177,58.9927,-2.61528
679,-153,58.8995,2.62964,-0.000723459,0.000298799,0.000185756,0.000331506,-0.000756167,1.39651,0.000643725,0.0271541,1903,1177,58.8996,-2.62961
686,-153,58.9001,2.57458,-0.000668492,-8.9327e-06,0.000319243,0.000120276,-0.000797701,1.18621,0.000576093,0.0172916,1910,1177,58.9002,-2.57456
693,-153,58.9438,2.46326,-0.00056109,-0.000100291,0.000399671,0.000130635,-0.000792016,1.04687,0.00057651,0.0380847,1917,1177,58.9438,-2.46327
700,-153,58.9702,2.3092,0,0,0,0,0,0,0,-1,1924,1177,58.9702,-2.30915
707,-153,29.6483,6.6842,0,0,0,0,0,0,0,-1,1931,1177,29.6483,-6.68415
714,-153,36.0046,6.78418,0,0,0,0,0,0,0,-1,1938,1177,36.0046,-6.78418
721,-153,36.4866,6.47595,0,0,0,0,0,0,0,-1,1945,1177,36.4866,-6.47593
728,-153,47.7305,7.37024,0,0,0,0,0,0,0,-1,1952,1177,47.7304,-7.37022
735,-153,50.9473,7.50757,0,0,0,0,0,0,0,-1,1959,1177,50.9473,-7.50752
742,-153,50.9926,7.05432,0.000758016,7.56718e-06,0.00147391,0.00190372,-0.00113813,0.660757,0.00177466,0.0163527,1966,1177,50.9926,-7.05432
749,-153,50.9835,6.58215,0.00133142,0.000774176,0.00168062,0.00275636,-0.000650765,0.703253,0.00208857,0.0170793,1973,1177,50.9836,-6.58211
756,-153,50.9502,6.08167,0.00277096,0.00265705,0.00167045,0.00438542,0.00104259,0.768358,0.00264548,0.0116612,1980,1177,50.9502,-6.08163
763,-153,50.9066,5.57629,0.00431379,0.00494843,0.00144915,0.00611459,0.00314762,0.893182,0.00353077,0.0114955,1987,1177,50.9066,-5.57633
770,-153,50.9127,5.10608,0.00620018,0.00764328,0.00122497,0.00834341,0.00550004,1.05156,0.00489779,0.0122299,1994,1177,50.9127,-5.10606
777,-153,50.9556,4.63586,0.00817733,0.0108506,0.00091641,0.0111346,0.00789334,1.27029,0.00661294,0.0244597,2001,1177,50.9555,-4.63589
784,-153,51.062,4.3689,0.0104459,0.0146017,0.000529497,0.0146681,0.0103795,1.44604,0.00870859,0.0425874,2008,1177,51.0619,-4.36895
791,-153,51.4695,3.90479,0,0,0,0,0,0,0,-1,2015,1177,51.4695,-3.90484
798,-153,51.6943,3.61194,0.0162889,0.0250538,-0.00104098,0.0251757,0.0161669,-1.45419,0.0147297,0.0473009,2022,1177,51.6944,-3.61198
805,-153,51.9106,3.30725,0.0191723,0.0319486,-0.00227434,0.0323414,0.0187795,-1.39978,0.0187531,0.0488339,2029,1177,51.9106,-3.30724
812,-153,0,0,0,0,0,0,0,0,0,-1,2036,1177,0,0
-700,-160,0,0,0,0,0,0,0,0,0,-1,524,1184,0,0
-693,-160,0,0,0,0,0,0,0,0,0,-1,531,1184,0,0
-686,-160,-35.2914,0.501831,0,0,0,0,0,0,0,-1,538,1184,-35.2913,-0.501869
-679,-160,-35.1421,0.729736,0,0,0,0,0,0,0,-1,545,1184,-35.1421,-0.729796
-672,-160,-34.5574,1.32544,0.0432373,-0.0648338,-0.0490939,0.0622089,-0.0838054,-0.368759,0.0846082,0.0456634,552,1184,-34.5574,-1.32538
-665,-160,-34.1152,1.86145,0.0366093,-0.0529295,-0.0387489,0.0510495,-0.0673697,-0.356718,0.0685855,0.0489872,559,1184,-34.1152,-1.86141
-658,-160,-33.6149,2.37537,0,0,0,0,0,0,0,-1,566,1184,-33.6148,-2.37543
-651,-160,-35.9816,1.59082,0,0,0,0,0,0,0,-1,573,1184,-35.9816,-1.5908
-644,-160,-35.8085,2.08093,0.0182812,-0.0221254,-0.0156865,0.0236561,-0.0275003,-0.330102,0.0295629,0.0390332,580,1184,-35.8085,-2.08092
-637,-160,-35.7285,2.57654,0.0126638,-0.0140738,-0.0104639,0.016272,-0.017682,-0.332054,0.019609,0.0154452,587,1184,-35.7284,-2.57656
-630,-160,-35.8075,3.06348,0.00736716,-0.00743574,-0.00605211,0.00952655,-0.00959512,-0.342718,0.0110399,0.00895461,594,1184,-35.8075,-3.06348
-623,-160,-35.8492,3.58618,0.00274432,-0.00246594,-0.00327276,0.00432221,-0.00404383,-0.449248,0.00483103,0.0145219,601,1184,-35.8492,-3.58618
-616,-160,-35.8748,4.15332,-0.00105332,-4.66608e-05,-0.00236098,0.00186405,-0.00296403,-0.89042,0.0028115,0.0130349,608,1184,-35.8748,-4.15332
-609,-160,-35.9172,4.72705,-0.00278011,-0.000785368,-0.00223767,0.000667138,-0.00423262,-0.995043,0.0030684,0.0177782,615,1184,-35.9172,-4.727
-602,-160,-35.9698,5.30835,0,0,0,0,0,0,0,-1,622,1184,-35.9699,-5.3083
-595,-160,-33.0669,5.93445,0,0,0,0,0,0,0,-1,629,1184,-33.0669,-5.93446
-588,-160,-33.4845,5.66699,0,0,0,0,0,0,0,-1,636,1184,-33.4845,-5.66697
-581,-160,-33.1338,6.41174,0,0,0,0,0,0,0,-1,643,1184,-33.1338,-6.41176
-574,-160,-32.7831,7.15649,0,0,0,0,0,0,0,-1,650,1184,-32.7831,-7.15655
-567,-160,-29.5828,0.643921,0,0,0,0,0,0,0,-1,657,1184,-29.5828,-0.643968
-560,-160,-44.3915,0.843994,0,0,0,0,0,0,0,-1,664,1184,-44.3915,-0.843992
-553,-160,-44.421,0.861694,-0.00159992,-0.00200757,-0.00152602,-0.000264171,-0.00334332,-0.719009,0.00214625,0.0401141,671,1184,-44.421,-0.861658
-546,-160,-44.4313,0.765259,-0.00113135,-0.00197599,-0.00135765,-0.000131853,-0.00297549,-0.63461,0.0019412,0.0381667,678,1184,-44.4312,-0.765306
-539,-160,-44.4703,0.554199,0.000178842,-0.00131681,-0.00132998,0.000956821,-0.00209479,-0.529285,0.00180222,0.0398732,685,1184,-44.4703,-0.554188
-532,-160,-44.5615,0.713013,0.00180174,-0.000352167,-0.00125328,0.00237722,-0.000927645,-0.430461,0.0019683,0.0429618,692,1184,-44.5615,-0.713023
-525,-160,-44.3644,0.792603,0.00374144,0.000802281,-0.00124505,0.00419795,0.00034577,-0.351438,0.00269079,0.0401403,699,1184,-44.3644,-0.792604
-518,-160,-44.3287,0.876343,0.00585999,0.001994,-0.00126332,0.0062362,0.00161778,-0.289434,0.00373682,0.0397514,706,1184,-44.3287,-0.876329
-511,-160,0,0,0,0,0,0,0,0,0,-1,713,1184,0,0
-504,-160,0,0,0,0,0,0,0,0,0,-1,720,1184,0,0
-497,-160,0,0,0,0,0,0,0,0,0,-1,727,1184,0,0
-490,-160,0,0,0,0,0,0,0,0,0,-1,734,1184,0,0
-483,-160,0,0,0,0,0,0,0,0,0,-1,741,1184,0,0
-476,-160,0,0,0,0,0,0,0,0,0,-1,748,1184,0,0
-469,-160,0,0,0,0,0,0,0,0,0,-1,755,1184,0,0
-462,-160,0,0,0,0,0,0,0,0,0,-1,762,1184,0,0
-455,-160,0,0,0,0,0,0,0,0,0,-1,769,1184,0,0
-448,-160,0,0,0,0,0,0,0,0,0,-1,776,1184,0,0
-441,-160,0,0,0,0,0,0,0,0,0,-1,783,1184,0,0
-434,-160,0,0,0,0,0,0,0,0,0,-1,790,1184,0,0
-427,-160,0,0,0,0,0,0,0,0,0,-1,797,1184,0,0
-420,-160,0,0,0,0,0,0,0,0,0,-1,804,1184,0,0
-413,-160,0,0,0,0,0,0,0,0,0,-1,811,1184,0,0
-406,-160,0,0,0,0,0,0,0,0,0,-1,818,1184,0,0
-399,-160,0,0,0,0,0,0,0,0,0,-1,825,1184,0,0
-392,-160,0,0,0,0,0,0,0,0,0,-1,832,1184,0,0
-385,-160,0,0,0,0,0,0,0,0,0,-1,839,1184,0,0
-378,-160,0,0,0,0,0,0,0,0,0,-1,846,1184,0,0
-371,-160,0,0,0,0,0,0,0,0,0,-1,853,1184,0,0
-364,-160,0,0,0,0,0,0,0,0,0,-1,860,1184,0,0
-357,-160,0,0,0,0,0,0,0,0,0,-1,867,1184,0,0
-350,-160,0,0,0,0,0,0,0,0,0,-1,874,1184,0,0
-343,-160,0,0,0,0,0,0,0,0,0,-1,881,1184,0,0
-336,-160,0,0,0,0,0,0,0,0,0,-1,888,1184,0,0
-329,-160,0,0,0,0,0,0,0,0,0,-1,895,1184,0,0
-322,-160,0,0,0,0,0,0,0,0,0,-1,902,1184,0,0
-315,-160,0,0,0,0,0,0,0,0,0,-1,909,1184,0,0
-308,-160,0,0,0,0,0,0,0,0,0,-1,916,1184,0,0
-301,-160,0,0,0,0,0,0,0,0,0,-1,923,1184,0,0
-294,-160,0,0,0,0,0,0,0,0,0,-1,930,1184,0,0
-287,-160,0,0,0,0,0,0,0,0,0,-1,937,1184,0,0
-280,-160,0,0,0,0,0,0,0,0,0,-1,944,1184,0,0
-273,-160,0,0,0,0,0,0,0,0,0,-1,951,1184,0,0
-266,-160,0,0,0,0,0,0,0,0,0,-1,958,1184,0,0
-259,-160,0,0,0,0,0,0,0,0,0,-1,965,1184,0,0
-252,-160,0,0,0,0,0,0,0,0,0,-1,972,1184,0,0
-245,-160,0,0,0,0,0,0,0,0,0,-1,979,1184,0,0
-238,-160,0,0,0,0,0,0,0,0,0,-1,986,1184,0,0
-231,-160,0,0,0,0,0,0,0,0,0,-1,993,1184,0,0
-224,-160,0,0,0,0,0,0,0,0,0,-1,1000,1184,0,0
-217,-160,0,0,0,0,0,0,0,0,0,-1,1007,1184,0,0
-210,-160,0,0,0,0,0,0,0,0,0,-1,1014,1184,0,0
-203,-160,0,0,0,0,0,0,0,0,0,-1,1021,1184,0,0
-196,-160,0,0,0,0,0,0,0,0,0,-1,1028,1184,0,0
-189,-160,0,0,0,0,0,0,0,0,0,-1,1035,1184,0,0
-182,-160,0,0,0,0,0,0,0,0,0,-1,1042,1184,0,0
-175,-160,0,0,0,0,0,0,0,0,0,-1,1049,1184,0,0
-168,-160,0,0,0,0,0,0,0,0,0,-1,1056,1184,0,0
-161,-160,0,0,0,0,0,0,0,0,0,-1,1063,1184,0,0
-154,-160,0,0,0,0,0,0,0,0,0,-1,1070,1184,0,0
-147,-160,0,0,0,0,0,0,0,0,0,-1,1077,1184,0,0
-140,-160,0,0,0,0,0,0,0,0,0,-1,1084,1184,0,0
-133,-160,0,0,0,0,0,0,0,0,0,-1,1091,1184,0,0
-126,-160,0,0,0,0,0,0,0,0,0,-1,1098,1184,0,0
-119,-160,0,0,0,0,0,0,0,0,0,-1,1105,1184,0,0
-112,-160,0,0,0,0,0,0,0,0,0,-1,1112,1184,0,0
-105,-160,0,0,0,0,0,0,0,0,0,-1,1119,1184,0,0
-98,-160,0,0,0,0,0,0,0,0,0,-1,1126,1184,0,0
-91,-160,0,0,0,0,0,0,0,0,0,-1,1133,1184,0,0
-84,-160,0,0,0,0,0,0,0,0,0,-1,1140,1184,0,0
-77,-160,0,0,0,0,0,0,0,0,0,-1,1147,1184,0,0
-70,-160,0,0,0,0,0,0,0,0,0,-1,1154,1184,0,0
-63,-160,0,0,0,0,0,0,0,0,0,-1,1161,1184,0,0
-56,-160,0,0,0,0,0,0,0,0,0,-1,1168,1184,0,0
-49,-160,0,0,0,0,0,0,0,0,0,-1,1175,1184,0,0
-42,-160,0,0,0,0,0,0,0,0,0,-1,1182,1184,0,0
-35,-160,0,0,0,0,0,0,0,0,0,-1,1189,1184,0,0
-28,-160,0,0,0,0,0,0,0,0,0,-1,1196,1184,0,0
-21,-160,0,0,0,0,0,0,0,0,0,-1,1203,1184,0,0
-14,-160,0,0,0,0,0,0,0,0,0,-1,1210,1184,0,0
-7,-160,0,0,0,0,0,0,0,0,0,-1,1217,1184,0,0
0,-160,0,0,0,0,0,0,0,0,0,-1,1224,1184,0,0
7,-160,0,0,0,0,0,0,0,0,0,-1,1231,1184,0,0
14,-160,0,0,0,0,0,0,0,0,0,-1,1238,1184,0,0
21,-160,0,0,0,0,0,0,0,0,0,-1,1245,1184,0,0
28,-160,0,0,0,0,0,0,0,0,0,-1,1252,1184,0,0
35,-160,0,0,0,0,0,0,0,0,0,-1,1259,1184,0,0
42,-160,0,0,0,0,0,0,0,0,0,-1,1266,1184,0,0
49,-160,0,0,0,0,0,0,0,0,0,-1,1273,1184,0,0
56,-160,0,0,0,0,0,0,0,0,0,-1,1280,1184,0,0
63,-160,0,0,0,0,0,0,0,0,0,-1,1287,1184,0,0
70,-160,0,0,0,0,0,0,0,0,0,-1,1294,1184,0,0
77,-160,0,0,0,0,0,0,0,0,0,-1,1301,1184,0,0
84,-160,0,0,0,0,0,0,0,0,0,-1,1308,1184,0,0
91,-160,0,0,0,0,0,0,0,0,0,-1,1315,1184,0,0
98,-160,0,0,0,0,0,0,0,0,0,-1,1322,1184,0,0
105,-160,0,0,0,0,0,0,0,0,0,-1,1329,1184,0,0
112,-160,0,0,0,0,0,0,0,0,0,-1,1336,1184,0,0
119,-160,0,0,0,0,0,0,0,0,0,-1,1343,1184,0,0
126,-160,0,0,0,0,0,0,0,0,0,-1,1350,1184,0,0
133,-160,0,0,0,0,0,0,0,0,0,-1,1357,1184,0,0
140,-160,0,0,0,0,0,0,0,0,0,-1,1364,1184,0,0
147,-160,0,0,0,0,0,0,0,0,0,-1,1371,1184,0,0
154,-160,0,0,0,0,0,0,0,0,0,-1,1378,1184,0,0
161,-160,0,0,0,0,0,0,0,0,0,-1,1385,1184,0,0
168,-160,0,0,0,0,0,0,0,0,0,-1,1392,1184,0,0
175,-160,0,0,0,0,0,0,0,0,0,-1,1399,1184,0,0
182,-160,0,0,0,0,0,0,0,0,0,-1,1406,1184,0,0
189,-160,0,0,0,0,0,0,0,0,0,-1,1413,1184,0,0
196,-160,0,0,0,0,0,0,0,0,0,-1,1420,1184,0,0
203,-160,0,0,0,0,0,0,0,0,0,-1,1427,1184,0,0
210,-160,0,0,0,0,0,0,0,0,0,-1,1434,1184,0,0
217,-160,0,0,0,0,0,0,0,0,0,-1,1441,1184,0,0
224,-160,0,0,0,0,0,0,0,0,0,-1,1448,1184,0,0
231,-160,0,0,0,0,0,0,0,0,0,-1,1455,1184,0,0
238,-160,0,0,0,0,0,0,0,0,0,-1,1462,1184,0,0
245,-160,0,0,0,0,0,0,0,0,0,-1,1469,1184,0,0
252,-160,0,0,0,0,0,0,0,0,0,-1,1476,1184,0,0
259,-160,0,0,0,0,0,0,0,0,0,-1,1483,1184,0,0
266,-160,0,0,0,0,0,0,0,0,0,-1,1490,1184,0,0
273,-160,0,0,0,0,0,0,0,0,0,-1,1497,1184,0,0
280,-160,0,0,0,0,0,0,0,0,0,-1,1504,1184,0,0
287,-160,0,0,0,0,0,0,0,0,0,-1,1511,1184,0,0
294,-160,0,0,0,0,0,0,0,0,0,-1,1518,1184,0,0
301,-160,0,0,0,0,0,0,0,0,0,-1,1525,1184,0,0
308,-160,0,0,0,0,0,0,0,0,0,-1,1532,1184,0,0
315,-160,0,0,0,0,0,0,0,0,0,-1,1539,1184,0,0
322,-160,0,0,0,0,0,0,0,0,0,-1,1546,1184,0,0
329,-160,0,0,0,0,0,0,0,0,0,-1,1553,1184,0,0
336,-160,0,0,0,0,0,0,0,0,0,-1,1560,1184,0,0
343,-160,0,0,0,0,0,0,0,0,0,-1,1567,1184,0,0
350,-160,0,0,0,0,0,0,0,0,0,-1,1574,1184,0,0
357,-160,0,0,0,0,0,0,0,0,0,-1,1581,1184,0,0
364,-160,0,0,0,0,0,0,0,0,0,-1,1588,1184,0,0
371,-160,0,0,0,0,0,0,0,0,0,-1,1595,1184,0,0
378,-160,0,0,0,0,0,0,0,0,0,-1,1602,1184,0,0
385,-160,0,0,0,0,0,0,0,0,0,-1,1609,1184,0,0
392,-160,0,0,0,0,0,0,0,0,0,-1,1616,1184,0,0
399,-160,0,0,0,0,0,0,0,0,0,-1,1623,1184,0,0
406,-160,0,0,0,0,0,0,0,0,0,-1,1630,1184,0,0
413,-160,0,0,0,0,0,0,0,0,0,-1,1637,1184,0,0
420,-160,0,0,0,0,0,0,0,0,0,-1,1644,1184,0,0
427,-160,0,0,0,0,0,0,0,0,0,-1,1651,1184,0,0
434,-160,0,0,0,0,0,0,0,0,0,-1,1658,1184,0,0
441,-160,0,0,0,0,0,0,0,0,0,-1,1665,1184,0,0
448,-160,0,0,0,0,0,0,0,0,0,-1,1672,1184,0,0
455,-160,0,0,0,0,0,0,0,0,0,-1,1679,1184,0,0
462,-160,0,0,0,0,0,0,0,0,0,-1,1686,1184,0,0
469,-160,0,0,0,0,0,0,0,0,0,-1,1693,1184,0,0
476,-160,0,0,0,0,0,0,0,0,0,-1,1700,1184,0,0
483,-160,0,0,0,0,0,0,0,0,0,-1,1707,1184,0,0
490,-160,0,0,0,0,0,0,0,0,0,-1,1714,1184,0,0
497,-160,0,0,0,0,0,0,0,0,0,-1,1721,1184,0,0
504,-160,0,0,0,0,0,0,0,0,0,-1,1728,1184,0,0
511,-160,0,0,0,0,0,0,0,0,0,-1,1735,1184,0,0
518,-160,0,0,0,0,0,0,0,0,0,-1,1742,1184,0,0
525,-160,0,0,0,0,0,0,0,0,0,-1,1749,1184,0,0
532,-160,0,0,0,0,0,0,0,0,0,-1,1756,1184,0,0
539,-160,0,0,0,0,0,0,0,0,0,-1,1763,1184,0,0
546,-160,0,0,0,0,0,0,0,0,0,-1,1770,1184,0,0
553,-160,0,0,0,0,0,0,0,0,0,-1,1777,1184,0,0
560,-160,0,0,0,0,0,0,0,0,0,-1,1784,1184,0,0
567,-160,0,0,0,0,0,0,0,0,0,-1,1791,1184,0,0
574,-160,0,0,0,0,0,0,0,0,0,-1,1798,1184,0,0
581,-160,0,0,0,0,0,0,0,0,0,-1,1805,1184,0,0
588,-160,0,0,0,0,0,0,0,0,0,-1,1812,1184,0,0
595,-160,0,0,0,0,0,0,0,0,0,-1,1819,1184,0,0
602,-160,0,0,0,0,0,0,0,0,0,-1,1826,1184,0,0
609,-160,0,0,0,0,0,0,0,0,0,-1,1833,1184,0,0
616,-160,0,0,0,0,0,0,0,0,0,-1,1840,1184,0,0
623,-160,0,0,0,0,0,0,0,0,0,-1,1847,1184,0,0
630,-160,0,0,0,0,0,0,0,0,0,-1,1854,1184,0,0
637,-160,58.9554,2.71008,0.000249362,0.000245739,-0.00138373,0.00163129,-0.00113618,-0.784743,0.0016063,0.0416984,1861,1184,58.9554,-2.71014
644,-160,58.9802,2.64563,9.64888e-05,0.000123845,-0.0011386,0.00124885,-0.00102851,-0.791404,0.00131688,0.0434589,1868,1184,58.9802,-2.64557
651,-160,58.9991,2.69775,-4.49583e-05,0.000201495,-0.00093372,0.00102009,-0.000863548,-0.851006,0.00108877,0.041489,1875,1184,58.9991,-2.69776
658,-160,59.041,2.41724,-7.82854e-05,0.000307932,-0.000732859,0.000872698,-0.000643051,-0.91422,0.00087846,0.0401549,1882,1184,59.041,-2.41727
665,-160,59.0553,2.39185,-7.16538e-06,0.000341347,-0.000515345,0.000711099,-0.000376918,-0.948431,0.000637967,0.0375018,1889,1184,59.0552,-2.39186
672,-160,59.0044,2.56128,-7.26493e-05,0.000312053,-0.000285489,0.000463944,-0.000224541,-1.08185,0.000405428,0.0335311,1896,1184,59.0044,-2.56127
679,-160,58.9353,2.57959,-0.000198493,4.42292e-05,-4.56076e-05,5.2516e-05,-0.00020678,-1.39106,0.000158289,0.0255262,1903,1184,58.9353,-2.57963
686,-160,58.9216,2.55933,-0.000145758,-0.000245882,4.69601e-05,-0.00012718,-0.00026446,0.37672,0.000152723,0.0162249,1910,1184,58.9217,-2.55937
693,-160,58.9525,2.39722,0,0,0,0,0,0,0,-1,1917,1184,58.9525,-2.39718
700,-160,42.8784,2.44617,0,0,0,0,0,0,0,-1,1924,1184,42.8785,-2.4462
707,-160,24.5115,6.27405,0,0,0,0,0,0,0,-1,1931,1184,24.5115,-6.27401
714,-160,35.6892,6.8905,0,0,0,0,0,0,0,-1,1938,1184,35.6892,-6.89048
721,-160,36.2388,6.37878,0,0,0,0,0,0,0,-1,1945,1184,36.2388,-6.37876
728,-160,50.3132,8.19373,0,0,0,0,0,0,0,-1,1952,1184,50.3133,-8.19376
735,-160,50.5764,7.5321,0.000863758,-0.000352174,0.000983821,0.00141231,-0.000900722,0.508636,0.00134627,0.0443707,1959,1184,50.5765,-7.53214
742,-160,50.4885,7.03137,0.00125309,-2.63972e-06,0.00122949,0.00200575,-0.000755306,0.549325,0.00164769,0.0190292,1966,1184,50.4885,-7.03139
749,-160,50.4814,6.53748,0.00217337,0.000885781,0.0013811,0.00305336,5.79981e-06,0.567297,0.00203364,0.0191239,1973,1184,50.4814,-6.5375
756,-160,50.454,6.06042,0.00425894,0.00275321,0.00135334,0.00505473,0.00195742,0.531565,0.00294298,0.0115326,1980,1184,50.454,-6.06038
763,-160,50.3896,5.61438,0.00697259,0.00500904,0.00117933,0.00752532,0.00445631,0.43828,0.00436929,0.0122528,1987,1184,50.3897,-5.61444
770,-160,50.3129,5.09192,0.0103699,0.0076644,0.00100335,0.0107014,0.00733293,0.319084,0.00631821,0.0263343,1994,1184,50.3128,-5.0919
777,-160,50.4053,4.64636,0.0144192,0.0108685,0.000790531,0.0145872,0.0107004,0.209461,0.0087228,0.0372145,2001,1184,50.4053,-4.64637
784,-160,50.9609,4.09692,0.0194859,0.0146422,0.000567394,0.0195515,0.0145767,0.115065,0.011733,0.0441278,2008,1184,50.961,-4.09689
791,-160,51.2651,3.72827,0,0,0,0,0,0,0,-1,2015,1184,51.265,-3.72831
798,-160,51.4978,3.35913,0,0,0,0,0,0,0,-1,2022,1184,51.4978,-3.35915
805,-160,51.676,2.98267,0,0,0,0,0,0,0,-1,2029,1184,51.676,-2.98273
812,-160,0,0,0,0,0,0,0,0,0,-1,2036,1184,0,0
-700,-167,0,0,0,0,0,0,0,0,0,-1,524,1191,0,0
-693,-167,0,0,0,0,0,0,0,0,0,-1,531,1191,0,0
-686,-167,-33.2393,0.679688,0.0544244,-0.0818538,-0.0746499,0.0873573,-0.114787,-0.415482,0.117065,0.0459603,538,1191,-33.2393,-0.679659
-679,-167,-33.2229,1.18127,0.0482281,-0.0716503,-0.0603299,0.0733325,-0.0967547,-0.394323,0.0985097,0.0439053,545,1191,-33.2229,-1.18126
-672,-167,-32.907,1.70117,0.0417152,-0.0605823,-0.048287,0.0609073,-0.0797743,-0.378313,0.0814657,0.0432911,552,1191,-32.9071,-1.70112
-665,-167,-32.9084,2.57166,0.0354903,-0.0496577,-0.0379292,0.0499354,-0.0641028,-0.363883,0.0660091,0.0468653,559,1191,-32.9084,-2.5717
-658,-167,-32.4454,3.21204,0,0,0,0,0,0,0,-1,566,1191,-32.4454,-3.21208
-651,-167,-35.2966,1.53699,0,0,0,0,0,0,0,-1,573,1191,-35.2966,-1.53701
-644,-167,-35.1878,2.06812,0.0183466,-0.0210957,-0.0152443,0.0235516,-0.0263007,-0.329027,0.0287968,0.0436128,580,1191,-35.1878,-2.06807
-637,-167,-35.1378,2.58276,0.0130089,-0.0136197,-0.0101882,0.0164598,-0.0170705,-0.326582,0.0193598,0.0188801,587,1191,-35.1378,-2.58274
-630,-167,-35.2339,3.06628,0.00782909,-0.00745539,-0.00581465,0.00978966,-0.00941596,-0.325207,0.0110891,0.0095163,594,1191,-35.234,-3.0663
-623,-167,-35.2617,3.57654,0.00328668,-0.00274334,-0.00309876,0.00459516,-0.00405182,-0.399548,0.00499562,0.0139679,601,1191,-35.2617,-3.57657
-616,-167,-35.2811,4.14209,-0.000745717,-0.000289451,-0.00220738,0.00170155,-0.00273672,-0.83689,0.00258557,0.0180534,608,1191,-35.2811,-4.14213
-609,-167,-35.3214,4.74414,-0.00301332,-0.000895353,-0.00212132,0.000416622,-0.00432529,-1.01691,0.00303196,0.0146875,615,1191,-35.3214,-4.74419
-602,-167,-35.3755,5.28857,-0.00313608,-0.000913192,-0.00211078,0.000360881,-0.00441015,-1.02773,0.00306748,0.0201417,622,1191,-35.3755,-5.28863
-595,-167,-35.2092,5.75464,0,0,0,0,0,0,0,-1,629,1191,-35.2092,-5.7547
-588,-167,-35.522,6.33679,0,0,0,0,0,0,0,-1,636,1191,-35.522,-6.33679
-581,-167,-32.8646,6.30542,0,0,0,0,0,0,0,-1,643,1191,-32.8646,-6.30537
-574,-167,-32.4808,7.37524,0,0,0,0,0,0,0,-1,650,1191,-32.4808,-7.37525
-567,-167,-27.3643,2.55859,0,0,0,0,0,0,0,-1,657,1191,-27.3643,-2.55864
-560,-167,-44.2546,0.628052,0,0,0,0,0,0,0,-1,664,1191,-44.2546,-0.628097
-553,-167,-44.3235,0.706421,-0.00171369,-0.00194647,-0.00159724,-0.0002286,-0.00343156,-0.749027,0.00221544,0.0470044,671,1191,-44.3236,-0.706378
-546,-167,-44.3335,0.78479,-0.00126408,-0.00210098,-0.00143898,-0.00018394,-0.00318112,-0.643903,0.00206217,0.0368148,678,1191,-44.3335,-0.784767
-539,-167,-44.4052,0.866333,8.93925e-05,-0.00175186,-0.00148137,0.000912901,-0.00257537,-0.50737,0.0020888,0.0397725,685,1191,-44.4052,-0.866388
-532,-167,-44.4354,0.865479,0.0019356,-0.00103838,-0.00151053,0.00256824,-0.00167102,-0.396625,0.00246574,0.0431555,692,1191,-44.4353,-0.865475
-525,-167,-44.212,0.792603,0.00454704,7.73593e-05,-0.00162306,0.00507424,-0.000449836,-0.314065,0.0035423,0.0423257,699,1191,-44.212,-0.792602
-518,-167,-43.9826,0.726196,0.00736476,0.00120345,-0.00175918,0.00783166,0.000736554,-0.259427,0.00499373,0.0438958,706,1191,-43.9826,-0.726208
-511,-167,0,0,0,0,0,0,0,0,0,-1,713,1191,0,0
-504,-167,0,0,0,0,0,0,0,0,0,-1,720,1191,0,0
-497,-167,0,0,0,0,0,0,0,0,0,-1,727,1191,0,0
-490,-167,0,0,0,0,0,0,0,0,0,-1,734,1191,0,0
-483,-167,0,0,0,0,0,0,0,0,0,-1,741,1191,0,0
-476,-167,0,0,0,0,0,0,0,0,0,-1,748,1191,0,0
-469,-167,0,0,0,0,0,0,0,0,0,-1,755,1191,0,0
-462,-167,0,0,0,0,0,0,0,0,0,-1,762,1191,0,0
-455,-167,0,0,0,0,0,0,0,0,0,-1,769,1191,0,0
-448,-167,0,0,0,0,0,0,0,0,0,-1,776,1191,0,0
-441,-167,0,0,0,0,0,0,0,0,0,-1,783,1191,0,0
-434,-167,0,0,0,0,0,0,0,0,0,-1,790,1191,0,0
-427,-167,0,0,0,0,0,0,0,0,0,-1,797,1191,0,0
-420,-167,0,0,0,0,0,0,0,0,0,-1,804,1191,0,0
-413,-167,0,0,0,0,0,0,0,0,0,-1,811,1191,0,0
-406,-167,0,0,0,0,0,0,0,0,0,-1,818,1191,0,0
-399,-167,0,0,0,0,0,0,0,0,0,-1,825,1191,0,0
-392,-167,0,0,0,0,0,0,0,0,0,-1,832,1191,0,0
-385,-167,0,0,0,0,0,0,0,0,0,-1,839,1191,0,0
-378,-167,0,0,0,0,0,0,0,0,0,-1,846,1191,0,0
-371,-167,0,0,0,0,0,0,0,0,0,-1,853,1191,0,0
-364,-167,0,0,0,0,0,0,0,0,0,-1,860,1191,0,0
-357,-167,0,0,0,0,0,0,0,0,0,-1,867,1191,0,0
-350,-167,0,0,0,0,0,0,0,0,0,-1,874,1191,0,0
-343,-167,0,0,0,0,0,0,0,0,0,-1,881,1191,0,0
-336,-167,0,0,0,0,0,0,0,0,0,-1,888,1191,0,0
-329,-167,0,0,0,0,0,0,0,0,0,-1,895,1191,0,0
-322,-167,0,0,0,0,0,0,0,0,0,-1,902,1191,0,0
-315,-167,0,0,0,0,0,0,0,0,0,-1,909,1191,0,0
-308,-167,0,0,0,0,0,0,0,0,0,-1,916,1191,0,0
-301,-167,0,0,0,0,0,0,0,0,0,-1,923,1191,0,0
-294,-167,0,0,0,0,0,0,0,0,0,-1,930,1191,0,0
-287,-167,0,0,0,0,0,0,0,0,0,-1,937,1191,0,0
-280,-167,0,0,0,0,0,0,0,0,0,-1,944,1191,0,0
-273,-167,0,0,0,0,0,0,0,0,0,-1,951,1191,0,0
-266,-167,0,0,0,0,0,0,0,0,0,-1,958,1191,0,0
-259,-167,0,0,0,0,0,0,0,0,0,-1,965,1191,0,0
-252,-167,0,0,0,0,0,0,0,0,0,-1,972,1191,0,0
-245,-167,0,0,0,0,0,0,0,0,0,-1,979,1191,0,0
-238,-167,0,0,0,0,0,0,0,0,0,-1,986,1191,0,0
-231,-167,0,0,0,0,0,0,0,0,0,-1,993,1191,0,0
-224,-167,0,0,0,0,0,0,0,0,0,-1,1000,1191,0,0
-217,-167,0,0,0,0,0,0,0,0,0,-1,1007,1191,0,0
-210,-167,0,0,0,0,0,0,0,0,0,-1,1014,1191,0,0
-203,-167,0,0,0,0,0,0,0,0,0,-1,1021,1191,0,0
-196,-167,0,0,0,0,0,0,0,0,0,-1,1028,1191,0,0
-189,-167,0,0,0,0,0,0,0,0,0,-1,1035,1191,0,0
-182,-167,0,0,0,0,0,0,0,0,0,-1,1042,1191,0,0
-175,-167,0,0,0,0,0,0,0,0,0,-1,1049,1191,0,0
-168,-167,0,0,0,0,0,0,0,0,0,-1,1056,1191,0,0
-161,-167,0,0,0,0,0,0,0,0,0,-1,1063,1191,0,0
-154,-167,0,0,0,0,0,0,0,0,0,-1,1070,1191,0,0
-147,-167,0,0,0,0,0,0,0,0,0,-1,1077,1191,0,0
-140,-167,0,0,0,0,0,0,0,0,0,-1,1084,1191,0,0
-133,-167,0,0,0,0,0,0,0,0,0,-1,1091,1191,0,0
-126,-167,0,0,0,0,0,0,0,0,0,-1,1098,1191,0,0
-119,-167,0,0,0,0,0,0,0,0,0,-1,1105,1191,0,0
-112,-167,0,0,0,0,0,0,0,0,0,-1,1112,1191,0,0
-105,-167,0,0,0,0,0,0,0,0,0,-1,1119,1191,0,0
-98,-167,0,0,0,0,0,0,0,0,0,-1,1126,1191,0,0
-91,-167,0,0,0,0,0,0,0,0,0,-1,1133,1191,0,0
-84,-167,0,0,0,0,0,0,0,0,0,-1,1140,1191,0,0
-77,-167,0,0,0,0,0,0,0,0,0,-1,1147,1191,0,0
-70,-167,0,0,0,0,0,0,0,0,0,-1,1154,1191,0,0
-63,-167,0,0,0,0,0,0,0,0,0,-1,1161,1191,0,0
-56,-167,0,0,0,0,0,0,0,0,0,-1,1168,1191,0,0
-49,-167,0,0,0,0,0,0,0,0,0,-1,1175,1191,0,0
-42,-167,0,0,0,0,0,0,0,0,0,-1,1182,1191,0,0
-35,-167,0,0,0,0,0,0,0,0,0,-1,1189,1191,0,0
-28,-167,0,0,0,0,0,0,0,0,0,-1,1196,1191,0,0
-21,-167,0,0,0,0,0,0,0,0,0,-1,1203,1191,0,0
-14,-167,0,0,0,0,0,0,0,0,0,-1,1210,1191,0,0
-7,-167,0,0,0,0,0,0,0,0,0,-1,1217,1191,0,0
0,-167,0,0,0,0,0,0,0,0,0,-1,1224,1191,0,0
7,-167,0,0,0,0,0,0,0,0,0,-1,1231,1191,0,0
14,-167,0,0,0,0,0,0,0,0,0,-1,1238,1191,0,0
21,-167,0,0,0,0,0,0,0,0,0,-1,1245,1191,0,0
28,-167,0,0,0,0,0,0,0,0,0,-1,1252,1191,0,0
35,-167,0,0,0,0,0,0,0,0,0,-1,1259,1191,0,0
42,-167,0,0,0,0,0,0,0,0,0,-1,1266,1191,0,0
49,-167,0,0,0,0,0,0,0,0,0,-1,1273,1191,0,0
56,-167,0,0,0,0,0,0,0,0,0,-1,1280,1191,0,0
63,-167,0,0,0,0,0,0,0,0,0,-1,1287,1191,0,0
70,-167,0,0,0,0,0,0,0,0,0,-1,1294,1191,0,0
77,-167,0,0,0,0,0,0,0,0,0,-1,1301,1191,0,0
84,-167,0,0,0,0,0,0,0,0,0,-1,1308,1191,0,0
91,-167,0,0,0,0,0,0,0,0,0,-1,1315,1191,0,0
98,-167,0,0,0,0,0,0,0,0,0,-1,1322,1191,0,0
105,-167,0,0,0,0,0,0,0,0,0,-1,1329,1191,0,0
112,-167,0,0,0,0,0,0,0,0,0,-1,1336,1191,0,0
119,-167,0,0,0,0,0,0,0,0,0,-1,1343,1191,0,0
126,-167,0,0,0,0,0,0,0,0,0,-1,1350,1191,0,0
133,-167,0,0,0,0,0,0,0,0,0,-1,1357,1191,0,0
140,-167,0,0,0,0,0,0,0,0,0,-1,1364,1191,0,0
147,-167,0,0,0,0,0,0,0,0,0,-1,1371,1191,0,0
154,-167,0,0,0,0,0,0,0,0,0,-1,1378,1191,0,0
161,-167,0,0,0,0,0,0,0,0,0,-1,1385,1191,0,0
168,-167,0,0,0,0,0,0,0,0,0,-1,1392,1191,0,0
175,-167,0,0,0,0,0,0,0,0,0,-1,1399,1191,0,0
182,-167,0,0,0,0,0,0,0,0,0,-1,1406,1191,0,0
189,-167,0,0,0,0,0,0,0,0,0,-1,1413,1191,0,0
196,-167,0,0,0,0,0,0,0,0,0,-1,1420,1191,0,0
203,-167,0,0,0,0,0,0,0,0,0,-1,1427,1191,0,0
210,-167,0,0,0,0,0,0,0,0,0,-1,1434,1191,0,0
217,-167,0,0,0,0,0,0,0,0,0,-1,1441,1191,0,0
224,-167,0,0,0,0,0,0,0,0,0,-1,1448,1191,0,0
231,-167,0,0,0,0,0,0,0,0,0,-1,1455,1191,0,0
238,-167,0,0,0,0,0,0,0,0,0,-1,1462,1191,0,0
245,-167,0,0,0,0,0,0,0,0,0,-1,1469,1191,0,0
252,-167,0,0,0,0,0,0,0,0,0,-1,1476,1191,0,0
259,-167,0,0,0,0,0,0,0,0,0,-1,1483,1191,0,0
266,-167,0,0,0,0,0,0,0,0,0,-1,1490,1191,0,0
273,-167,0,0,0,0,0,0,0,0,0,-1,1497,1191,0,0
280,-167,0,0,0,0,0,0,0,0,0,-1,1504,1191,0,0
287,-167,0,0,0,0,0,0,0,0,0,-1,1511,1191,0,0
294,-167,0,0,0,0,0,0,0,0,0,-1,1518,1191,0,0
301,-167,0,0,0,0,0,0,0,0,0,-1,1525,1191,0,0
308,-167,0,0,0,0,0,0,0,0,0,-1,1532,1191,0,0
315,-167,0,0,0,0,0,0,0,0,0,-1,1539,1191,0,0
322,-167,0,0,0,0,0,0,0,0,0,-1,1546,1191,0,0
329,-167,0,0,0,0,0,0,0,0,0,-1,1553,1191,0,0
336,-167,0,0,0,0,0,0,0,0,0,-1,1560,1191,0,0
343,-167,0,0,0,0,0,0,0,0,0,-1,1567,1191,0,0
350,-167,0,0,0,0,0,0,0,0,0,-1,1574,1191,0,0
357,-167,0,0,0,0,0,0,0,0,0,-1,1581,1191,0,0
364,-167,0,0,0,0,0,0,0,0,0,-1,1588,1191,0,0
371,-167,0,0,0,0,0,0,0,0,0,-1,1595,1191,0,0
378,-167,0,0,0,0,0,0,0,0,0,-1,1602,1191,0,0
385,-167,0,0,0,0,0,0,0,0,0,-1,1609,1191,0,0
392,-167,0,0,0,0,0,0,0,0,0,-1,1616,1191,0,0
399,-167,0,0,0,0,0,0,0,0,0,-1,1623,1191,0,0
406,-167,0,0,0,0,0,0,0,0,0,-1,1630,1191,0,0
413,-167,0,0,0,0,0,0,0,0,0,-1,1637,1191,0,0
420,-167,0,0,0,0,0,0,0,0,0,-1,1644,1191,0,0
427,-167,0,0,0,0,0,0,0,0,0,-1,1651,1191,0,0
434,-167,0,0,0,0,0,0,0,0,0,-1,1658,1191,0,0
441,-167,0,0,0,0,0,0,0,0,0,-1,1665,1191,0,0
448,-167,0,0,0,0,0,0,0,0,0,-1,1672,1191,0,0
455,-167,0,0,0,0,0,0,0,0,0,-1,1679,1191,0,0
462,-167,0,0,0,0,0,0,0,0,0,-1,1686,1191,0,0
469,-167,0,0,0,0,0,0,0,0,0,-1,1693,1191,0,0
476,-167,0,0,0,0,0,0,0,0,0,-1,1700,1191,0,0
483,-167,0,0,0,0,0,0,0,0,0,-1,1707,1191,0,0
490,-167,0,0,0,0,0,0,0,0,0,-1,1714,1191,0,0
497,-167,0,0,0,0,0,0,0,0,0,-1,1721,1191,0,0
504,-167,0,0,0,0,0,0,0,0,0,-1,1728,1191,0,0
511,-167,0,0,0,0,0,0,0,0,0,-1,1735,1191,0,0
518,-167,0,0,0,0,0,0,0,0,0,-1,1742,1191,0,0
525,-167,0,0,0,0,0,0,0,0,0,-1,1749,1191,0,0
532,-167,0,0,0,0,0,0,0,0,0,-1,1756,1191,0,0
539,-167,0,0,0,0,0,0,0,0,0,-1,1763,1191,0,0
546,-167,0,0,0,0,0,0,0,0,0,-1,1770,1191,0,0
553,-167,0,0,0,0,0,0,0,0,0,-1,1777,1191,0,0
560,-167,0,0,0,0,0,0,0,0,0,-1,1784,1191,0,0
567,-167,0,0,0,0,0,0,0,0,0,-1,1791,1191,0,0
574,-167,0,0,0,0,0,0,0,0,0,-1,1798,1191,0,0
581,-167,0,0,0,0,0,0,0,0,0,-1,1805,1191,0,0
588,-167,0,0,0,0,0,0,0,0,0,-1,1812,1191,0,0
595,-167,0,0,0,0,0,0,0,0,0,-1,1819,1191,0,0
602,-167,0,0,0,0,0,0,0,0,0,-1,1826,1191,0,0
609,-167,0,0,0,0,0,0,0,0,0,-1,1833,1191,0,0
616,-167,0,0,0,0,0,0,0,0,0,-1,1840,1191,0,0
623,-167,0,0,0,0,0,0,0,0,0,-1,1847,1191,0,0
630,-167,0,0,0,0,0,0,0,0,0,-1,1854,1191,0,0
637,-167,58.9071,2.84875,-5.59896e-05,0.000454754,-0.000785206,0.00102507,-0.000626307,-0.942618,0.000962645,0.0418576,1861,1191,58.9071,-2.84881
644,-167,59.0022,2.67786,-6.07981e-05,0.000193557,-0.000650582,0.000729276,-0.000596516,-0.881922,0.000766725,0.0461501,1868,1191,59.0022,-2.67789
651,-167,58.885,2.44421,-4.99872e-05,0.000175421,-0.000595993,0.000669273,-0.000543839,-0.878846,0.000701637,0.0452029,1875,1191,58.8849,-2.44426
658,-167,58.9027,2.38562,9.98621e-05,0.000214398,-0.000573532,0.000733514,-0.000419254,-0.835159,0.000673744,0.043623,1882,1191,58.9027,-2.38565
665,-167,58.9637,2.51013,0.000335724,0.000180324,-0.000525691,0.000789426,-0.000273379,-0.712027,0.000637266,0.0356907,1889,1191,58.9638,-2.51018
672,-167,58.9316,2.60034,0.000437359,0.000122342,-0.000426444,0.000734453,-0.000174752,-0.608493,0.000557098,0.0267351,1896,1191,58.9317,-2.60028
679,-167,58.9048,2.57361,0.00041789,-7.57566e-05,-0.000288483,0.00055073,-0.000208597,-0.431533,0.000452989,0.0214752,1903,1191,58.9048,-2.57365
686,-167,58.8724,2.5769,0.00040846,-0.000312509,-0.000218981,0.000469759,-0.000373809,-0.272944,0.000488083,0.0281185,1910,1191,58.8725,-2.57695
693,-167,58.8065,2.60828,0,0,0,0,0,0,0,-1,1917,1191,58.8065,-2.6083
700,-167,28.0459,2.70508,0,0,0,0,0,0,0,-1,1924,1191,28.0459,-2.70513
707,-167,29.4708,7.10168,0,0,0,0,0,0,0,-1,1931,1191,29.4708,-7.10172
714,-167,35.9202,6.84668,0,0,0,0,0,0,0,-1,1938,1191,35.9202,-6.84664
721,-167,36.2072,6.38892,0,0,0,0,0,0,0,-1,1945,1191,36.2072,-6.38891
728,-167,49.8718,8.21802,0,0,0,0,0,0,0,-1,1952,1191,49.8718,-8.21797
735,-167,50.0157,7.73596,0.00120889,-0.00030442,0.000745114,0.00151418,-0.000609708,0.388857,0.00126275,0.0251425,1959,1191,50.0157,-7.73595
742,-167,49.9517,7.099,0.00175585,7.72784e-05,0.00101044,0.00223011,-0.000396975,0.438832,0.0016352,0.0176071,1966,1191,49.9517,-7.09895
749,-167,49.9449,6.56226,0.00309575,0.000976381,0.00119152,0.00363064,0.000441499,0.421946,0.0022875,0.0153431,1973,1191,49.945,-6.56222
756,-167,49.9589,6.08411,0.00572539,0.00265083,0.00116708,0.00611822,0.002258,0.324677,0.0035725,0.011484,1980,1191,49.9588,-6.08415
763,-167,49.8734,5.60364,0.00918755,0.00467995,0.00102603,0.00941011,0.00445739,0.213603,0.00543544,0.0139359,1987,1191,49.8734,-5.6036
770,-167,49.6953,5.2085,0.0134897,0.0070869,0.000818298,0.0135926,0.00698398,0.125125,0.00784868,0.0353994,1994,1191,49.6953,-5.20847
777,-167,50.1511,4.61963,0.018635,0.010078,0.000522843,0.0186668,0.0100462,0.0608001,0.0107877,0.0480737,2001,1191,50.1512,-4.61968
784,-167,50.6389,3.97168,0,0,0,0,0,0,0,-1,2008,1191,50.639,-3.97169
791,-167,51.0605,3.55176,0,0,0,0,0,0,0,-1,2015,1191,51.0605,-3.55178
798,-167,51.3059,3.14563,0,0,0,0,0,0,0,-1,2022,1191,51.3058,-3.14564
805,-167,49.6887,2.74561,0,0,0,0,0,0,0,-1,2029,1191,49.6887,-2.74561
812,-167,0,0,0,0,0,0,0,0,0,-1,2036,1191,0,0
-700,-174,0,0,0,0,0,0,0,0,0,-1,524,1198,0,0
-693,-174,0,0,0,0,0,0,0,0,0,-1,531,1198,0,0
-686,-174,-31.7058,1.17041,0.0510025,-0.0768806,-0.073044,0.084138,-0.110016,-0.425874,0.112426,0.0478059,538,1198,-31.7058,-1.17035
-679,-174,-31.2748,1.73816,0.045573,-0.0677448,-0.0575393,0.0696668,-0.0918386,-0.396554,0.0935376,0.0446188,545,1198,-31.2748,-1.73818
-672,-174,-30.8855,2.2854,0.0397154,-0.0574955,-0.0454822,0.0576766,-0.0754567,-0.376108,0.0770927,0.0455418,552,1198,-30.8855,-2.28534
-665,-174,-31.6978,3.37585,0,0,0,0,0,0,0,-1,559,1198,-31.6978,-3.37582
-658,-174,-34.3226,0.962646,0,0,0,0,0,0,0,-1,566,1198,-34.3226,-0.962591
-651,-174,-34.8052,1.66833,0,0,0,0,0,0,0,-1,573,1198,-34.8052,-1.66828
-644,-174,-34.6656,2.10266,0.018405,-0.0202619,-0.0142527,0.0230907,-0.0249476,-0.31763,0.0277418,0.047349,580,1198,-34.6657,-2.10266
-637,-174,-34.5294,2.55688,0.0134236,-0.0132009,-0.00957747,0.0165108,-0.0162882,-0.31183,0.0189367,0.0248446,587,1198,-34.5294,-2.55686
-630,-174,-34.6429,3.08569,0.00840894,-0.00742474,-0.0053821,0.0100652,-0.00908095,-0.29853,0.0110589,0.0132161,594,1198,-34.6429,-3.08571
-623,-174,-34.6731,3.61963,0.00408383,-0.00292111,-0.00285337,0.00509899,-0.00393627,-0.341812,0.00523089,0.0152064,601,1198,-34.6731,-3.61959
-616,-174,-34.6917,4.21045,8.95871e-05,-0.000378704,-0.00197959,0.00184883,-0.00213794,-0.726532,0.00230378,0.0206473,608,1198,-34.6917,-4.2104
-609,-174,-34.7563,4.78357,-0.00258843,-0.000760463,-0.00199221,0.000517418,-0.00386631,-1.00046,0.00276619,0.0207557,615,1198,-34.7563,-4.78356
-602,-174,-34.8098,5.27588,-0.00312733,-0.000693227,-0.00207674,0.000496805,-0.00431736,-1.05044,0.00305733,0.0180135,622,1198,-34.8097,-5.27589
-595,-174,-34.4957,5.71106,0,0,0,0,0,0,0,-1,629,1198,-34.4957,-5.711
-588,-174,-35.1963,6.3158,0,0,0,0,0,0,0,-1,636,1198,-35.1963,-6.31577
-581,-174,-35.2958,6.94104,0,0,0,0,0,0,0,-1,643,1198,-35.2958,-6.94107
-574,-174,-31.7448,7.09595,0,0,0,0,0,0,0,-1,650,1198,-31.7448,-7.09599
-567,-174,-26.6597,3.04041,0,0,0,0,0,0,0,-1,657,1198,-26.6597,-3.04039
-560,-174,-42.6953,1.07178,0,0,0,0,0,0,0,-1,664,1198,-42.6953,-1.07181
-553,-174,-44.2164,0.573853,0,0,0,0,0,0,0,-1,671,1198,-44.2163,-0.573873
-546,-174,-44.2869,0.776611,-0.00109141,-0.00193187,-0.00157299,0.000116515,-0.0031398,-0.65487,0.0021331,0.0322382,678,1198,-44.2869,-0.776597
-539,-174,-44.3939,0.985107,-5.99106e-05,-0.00190031,-0.00163124,0.000892782,-0.002853,-0.528593,0.00225918,0.0363065,685,1198,-44.3939,-0.985051
-532,-174,-44.4435,0.946655,0.00150156,-0.00166677,-0.00165598,0.00220908,-0.0023743,-0.40378,0.00264679,0.0430231,692,1198,-44.4435,-0.946706
-525,-174,-44.3143,0.967529,0.00424838,-0.00095168,-0.0018258,0.00482542,-0.00152871,-0.306108,0.00382961,0.044934,699,1198,-44.3143,-0.967501
-518,-174,-44.0032,0.599365,0.0074796,-3.00666e-05,-0.00204711,0.00800138,-0.000551849,-0.249573,0.0055274,0.0449038,706,1198,-44.0032,-0.599393
-511,-174,0,0,0,0,0,0,0,0,0,-1,713,1198,0,0
-504,-174,0,0,0,0,0,0,0,0,0,-1,720,1198,0,0
-497,-174,0,0,0,0,0,0,0,0,0,-1,727,1198,0,0
-490,-174,0,0,0,0,0,0,0,0,0,-1,734,1198,0,0
-483,-174,0,0,0,0,0,0,0,0,0,-1,741,1198,0,0
-476,-174,0,0,0,0,0,0,0,0,0,-1,748,1198,0,0
-469,-174,0,0,0,0,0,0,0,0,0,-1,755,1198,0,0
-462,-174,0,0,0,0,0,0,0,0,0,-1,762,1198,0,0
-455,-174,0,0,0,0,0,0,0,0,0,-1,769,1198,0,0
-448,-174,0,0,0,0,0,0,0,0,0,-1,776,1198,0,0
-441,-174,0,0,0,0,0,0,0,0,0,-1,783,1198,0,0
-434,-174,0,0,0,0,0,0,0,0,0,-1,790,1198,0,0
-427,-174,0,0,0,0,0,0,0,0,0,-1,797,1198,0,0
-420,-174,0,0,0,0,0,0,0,0,0,-1,804,1198,0,0
-413,-174,0,0,0,0,0,0,0,0,0,-1,811,1198,0,0
-406,-174,0,0,0,0,0,0,0,0,0,-1,818,1198,0,0
-399,-174,0,0,0,0,0,0,0,0,0,-1,825,1198,0,0
-392,-174,0,0,0,0,0,0,0,0,0,-1,832,1198,0,0
-385,-174,0,0,0,0,0,0,0,0,0,-1,839,1198,0,0
-378,-174,0,0,0,0,0,0,0,0,0,-1,846,1198,0,0
-371,-174,0,0,0,0,0,0,0,0,0,-1,853,1198,0,0
-364,-174,0,0,0,0,0,0,0,0,0,-1,860,1198,0,0
-357,-174,0,0,0,0,0,0,0,0,0,-1,867,1198,0,0
-350,-174,0,0,0,0,0,0,0,0,0,-1,874,1198,0,0
-343,-174,0,0,0,0,0,0,0,0,0,-1,881,1198,0,0
-336,-174,0,0,0,0,0,0,0,0,0,-1,888,1198,0,0
-329,-174,0,0,0,0,0,0,0,0,0,-1,895,1198,0,0
-322,-174,0,0,0,0,0,0,0,0,0,-1,902,1198,0,0
-315,-174,0,0,0,0,0,0,0,0,0,-1,909,1198,0,0
-308,-174,0,0,0,0,0,0,0,0,0,-1,916,1198,0,0
-301,-174,0,0,0,0,0,0,0,0,0,-1,923,1198,0,0
-294,-174,0,0,0,0,0,0,0,0,0,-1,930,1198,0,0
-287,-174,0,0,0,0,0,0,0,0,0,-1,937,1198,0,0
-280,-174,0,0,0,0,0,0,0,0,0,-1,944,1198,0,0
-273,-174,0,0,0,0,0,0,0,0,0,-1,951,1198,0,0
-266,-174,0,0,0,0,0,0,0,0,0,-1,958,1198,0,0
-259,-174,0,0,0,0,0,0,0,0,0,-1,965,1198,0,0
-252,-174,0,0,0,0,0,0,0,0,0,-1,972,1198,0,0
-245,-174,0,0,0,0,0,0,0,0,0,-1,979,1198,0,0
-238,-174,0,0,0,0,0,0,0,0,0,-1,986,1198,0,0
-231,-174,0,0,0,0,0,0,0,0,0,-1,993,1198,0,0
-224,-174,0,0,0,0,0,0,0,0,0,-1,1000,1198,0,0
-217,-174,0,0,0,0,0,0,0,0,0,-1,1007,1198,0,0
-210,-174,0,0,0,0,0,0,0,0,0,-1,1014,1198,0,0
-203,-174,0,0,0,0,0,0,0,0,0,-1,1021,1198,0,0
-196,-174,0,0,0,0,0,0,0,0,0,-1,1028,1198,0,0
-189,-174,0,0,0,0,0,0,0,0,0,-1,1035,1198,0,0
-182,-174,0,0,0,0,0,0,0,0,0,-1,1042,1198,0,0
-175,-174,0,0,0,0,0,0,0,0,0,-1,1049,1198,0,0
-168,-174,0,0,0,0,0,0,0,0,0,-1,1056,1198,0,0
-161,-174,0,0,0,0,0,0,0,0,0,-1,1063,1198,0,0
-154,-174,0,0,0,0,0,0,0,0,0,-1,1070,1198,0,0
-147,-174,0,0,0,0,0,0,0,0,0,-1,1077,1198,0,0
-140,-174,0,0,0,0,0,0,0,0,0,-1,1084,1198,0,0
-133,-174,0,0,0,0,0,0,0,0,0,-1,1091,1198,0,0
-126,-174,0,0,0,0,0,0,0,0,0,-1,1098,1198,0,0
-119,-174,0,0,0,0,0,0,0,0,0,-1,1105,1198,0,0
-112,-174,0,0,0,0,0,0,0,0,0,-1,1112,1198,0,0
-105,-174,0,0,0,0,0,0,0,0,0,-1,1119,1198,0,0
-98,-174,0,0,0,0,0,0,0,0,0,-1,1126,1198,0,0
-91,-174,0,0,0,0,0,0,0,0,0,-1,1133,1198,0,0
-84,-174,0,0,0,0,0,0,0,0,0,-1,1140,1198,0,0
-77,-174,0,0,0,0,0,0,0,0,0,-1,1147,1198,0,0
-70,-174,0,0,0,0,0,0,0,0,0,-1,1154,1198,0,0
-63,-174,0,0,0,0,0,0,0,0,0,-1,1161,1198,0,0
-56,-174,0,0,0,0,0,0,0,0,0,-1,1168,1198,0,0
-49,-174,0,0,0,0,0,0,0,0,0,-1,1175,1198,0,0
-42,-174,0,0,0,0,0,0,0,0,0,-1,1182,1198,0,0
-35,-174,0,0,0,0,0,0,0,0,0,-1,1189,1198,0,0
-28,-174,0,0,0,0,0,0,0,0,0,-1,1196,1198,0,0
-21,-174,0,0,0,0,0,0,0,0,0,-1,1203,1198,0,0
-14,-174,0,0,0,0,0,0,0,0,0,-1,1210,1198,0,0
-7,-174,0,0,0,0,0,0,0,0,0,-1,1217,1198,0,0
0,-174,0,0,0,0,0,0,0,0,0,-1,1224,1198,0,0
7,-174,0,0,0,0,0,0,0,0,0,-1,1231,1198,0,0
14,-174,0,0,0,0,0,0,0,0,0,-1,1238,1198,0,0
21,-174,0,0,0,0,0,0,0,0,0,-1,1245,1198,0,0
28,-174,0,0,0,0,0,0,0,0,0,-1,1252,1198,0,0
35,-174,0,0,0,0,0,0,0,0,0,-1,1259,1198,0,0
42,-174,0,0,0,0,0,0,0,0,0,-1,1266,1198,0,0
49,-174,0,0,0,0,0,0,0,0,0,-1,1273,1198,0,0
56,-174,0,0,0,0,0,0,0,0,0,-1,1280,1198,0,0
63,-174,0,0,0,0,0,0,0,0,0,-1,1287,1198,0,0
70,-174,0,0,0,0,0,0,0,0,0,-1,1294,1198,0,0
77,-174,0,0,0,0,0,0,0,0,0,-1,1301,1198,0,0
84,-174,0,0,0,0,0,0,0,0,0,-1,1308,1198,0,0
91,-174,0,0,0,0,0,0,0,0,0,-1,1315,1198,0,0
98,-174,0,0,0,0,0,0,0,0,0,-1,1322,1198,0,0
105,-174,0,0,0,0,0,0,0,0,0,-1,1329,1198,0,0
112,-174,0,0,0,0,0,0,0,0,0,-1,1336,1198,0,0
119,-174,0,0,0,0,0,0,0,0,0,-1,1343,1198,0,0
126,-174,0,0,0,0,0,0,0,0,0,-1,1350,1198,0,0
133,-174,0,0,0,0,0,0,0,0,0,-1,1357,1198,0,0
140,-174,0,0,0,0,0,0,0,0,0,-1,1364,1198,0,0
147,-174,0,0,0,0,0,0,0,0,0,-1,1371,1198,0,0
154,-174,0,0,0,0,0,0,0,0,0,-1,1378,1198,0,0
161,-174,0,0,0,0,0,0,0,0,0,-1,1385,1198,0,0
168,-174,0,0,0,0,0,0,0,0,0,-1,1392,1198,0,0
175,-174,0,0,0,0,0,0,0,0,0,-1,1399,1198,0,0
182,-174,0,0,0,0,0,0,0,0,0,-1,1406,1198,0,0
189,-174,0,0,0,0,0,0,0,0,0,-1,1413,1198,0,0
196,-174,0,0,0,0,0,0,0,0,0,-1,1420,1198,0,0
203,-174,0,0,0,0,0,0,0,0,0,-1,1427,1198,0,0
210,-174,0,0,0,0,0,0,0,0,0,-1,1434,1198,0,0
217,-174,0,0,0,0,0,0,0,0,0,-1,1441,1198,0,0
224,-174,0,0,0,0,0,0,0,0,0,-1,1448,1198,0,0
231,-174,0,0,0,0,0,0,0,0,0,-1,1455,1198,0,0
238,-174,0,0,0,0,0,0,0,0,0,-1,1462,1198,0,0
245,-174,0,0,0,0,0,0,0,0,0,-1,1469,1198,0,0
252,-174,0,0,0,0,0,0,0,0,0,-1,1476,1198,0,0
259,-174,0,0,0,0,0,0,0,0,0,-1,1483,1198,0,0
266,-174,0,0,0,0,0,0,0,0,0,-1,1490,1198,0,0
273,-174,0,0,0,0,0,0,0,0,0,-1,1497,1198,0,0
280,-174,0,0,0,0,0,0,0,0,0,-1,1504,1198,0,0
287,-174,0,0,0,0,0,0,0,0,0,-1,1511,1198,0,0
294,-174,0,0,0,0,0,0,0,0,0,-1,1518,1198,0,0
301,-174,0,0,0,0,0,0,0,0,0,-1,1525,1198,0,0
308,-174,0,0,0,0,0,0,0,0,0,-1,1532,1198,0,0
315,-174,0,0,0,0,0,0,0,0,0,-1,1539,1198,0,0
322,-174,0,0,0,0,0,0,0,0,0,-1,1546,1198,0,0
329,-174,0,0,0,0,0,0,0,0,0,-1,1553,1198,0,0
336,-174,0,0,0,0,0,0,0,0,0,-1,1560,1198,0,0
343,-174,0,0,0,0,0,0,0,0,0,-1,1567,1198,0,0
350,-174,0,0,0,0,0,0,0,0,0,-1,1574,1198,0,0
357,-174,0,0,0,0,0,0,0,0,0,-1,1581,1198,0,0
364,-174,0,0,0,0,0,0,0,0,0,-1,1588,1198,0,0
371,-174,0,0,0,0,0,0,0,0,0,-1,1595,1198,0,0
378,-174,0,0,0,0,0,0,0,0,0,-1,1602,1198,0,0
385,-174,0,0,0,0,0,0,0,0,0,-1,1609,1198,0,0
392,-174,0,0,0,0,0,0,0,0,0,-1,1616,1198,0,0
399,-174,0,0,0,0,0,0,0,0,0,-1,1623,1198,0,0
406,-174,0,0,0,0,0,0,0,0,0,-1,1630,1198,0,0
413,-174,0,0,0,0,0,0,0,0,0,-1,1637,1198,0,0
420,-174,0,0,0,0,0,0,0,0,0,-1,1644,1198,0,0
427,-174,0,0,0,0,0,0,0,0,0,-1,1651,1198,0,0
434,-174,0,0,0,0,0,0,0,0,0,-1,1658,1198,0,0
441,-174,0,0,0,0,0,0,0,0,0,-1,1665,1198,0,0
448,-174,0,0,0,0,0,0,0,0,0,-1,1672,1198,0,0
455,-174,0,0,0,0,0,0,0,0,0,-1,1679,1198,0,0
462,-174,0,0,0,0,0,0,0,0,0,-1,1686,1198,0,0
469,-174,0,0,0,0,0,0,0,0,0,-1,1693,1198,0,0
476,-174,0,0,0,0,0,0,0,0,0,-1,1700,1198,0,0
483,-174,0,0,0,0,0,0,0,0,0,-1,1707,1198,0,0
490,-174,0,0,0,0,0,0,0,0,0,-1,1714,1198,0,0
497,-174,0,0,0,0,0,0,0,0,0,-1,1721,1198,0,0
504,-174,0,0,0,0,0,0,0,0,0,-1,1728,1198,0,0
511,-174,0,0,0,0,0,0,0,0,0,-1,1735,1198,0,0
518,-174,0,0,0,0,0,0,0,0,0,-1,1742,1198,0,0
525,-174,0,0,0,0,0,0,0,0,0,-1,1749,1198,0,0
532,-174,0,0,0,0,0,0,0,0,0,-1,1756,1198,0,0
539,-174,0,0,0,0,0,0,0,0,0,-1,1763,1198,0,0
546,-174,0,0,0,0,0,0,0,0,0,-1,1770,1198,0,0
553,-174,0,0,0,0,0,0,0,0,0,-1,1777,1198,0,0
560,-174,0,0,0,0,0,0,0,0,0,-1,1784,1198,0,0
567,-174,0,0,0,0,0,0,0,0,0,-1,1791,1198,0,0
574,-174,0,0,0,0,0,0,0,0,0,-1,1798,1198,0,0
581,-174,0,0,0,0,0,0,0,0,0,-1,1805,1198,0,0
588,-174,0,0,0,0,0,0,0,0,0,-1,1812,1198,0,0
595,-174,0,0,0,0,0,0,0,0,0,-1,1819,1198,0,0
602,-174,0,0,0,0,0,0,0,0,0,-1,1826,1198,0,0
609,-174,0,0,0,0,0,0,0,0,0,-1,1833,1198,0,0
616,-174,0,0,0,0,0,0,0,0,0,-1,1840,1198,0,0
623,-174,0,0,0,0,0,0,0,0,0,-1,1847,1198,0,0
630,-174,0,0,0,0,0,0,0,0,0,-1,1854,1198,0,0
637,-174,58.843,2.79309,0.000236999,0.000164749,-0.000653546,0.000855418,-0.000453669,-0.757789,0.000767574,0.0375592,1861,1198,58.843,-2.79312
644,-174,58.936,2.66602,0.000286048,-6.41651e-05,-0.000617916,0.000753189,-0.000531307,-0.647327,0.000745283,0.0411274,1868,1198,58.936,-2.66601
651,-174,58.8866,2.47083,0.000325851,-3.82866e-05,-0.000668721,0.000836846,-0.000549281,-0.652488,0.000806001,0.0426484,1875,1198,58.8866,-2.4708
658,-174,58.7739,2.41479,0.000504413,-9.19847e-06,-0.000727031,0.00101866,-0.000523446,-0.615626,0.000905509,0.0399369,1882,1198,58.7739,-2.41475
665,-174,58.8452,2.54883,0.00072104,-9.71237e-05,-0.000717974,0.0011383,-0.00051438,-0.52645,0.000976575,0.0322813,1889,1198,58.8452,-2.54877
672,-174,58.885,2.60315,0.000825939,-0.000180521,-0.000615719,0.00111791,-0.000472495,-0.442796,0.000943089,0.025555,1896,1198,58.8851,-2.60311
679,-174,58.8737,2.52942,0.000818197,-0.000328456,-0.000461278,0.000980724,-0.000490984,-0.338759,0.000865231,0.0233165,1903,1198,58.8736,-2.52941
686,-174,58.8296,2.58752,0,0,0,0,0,0,0,-1,1910,1198,58.8296,-2.58752
693,-174,51.1324,2.57349,0,0,0,0,0,0,0,-1,1917,1198,51.1325,-2.57343
700,-174,25.4004,6.11792,0,0,0,0,0,0,0,-1,1924,1198,25.4004,-6.11797
707,-174,34.7908,7.34473,0,0,0,0,0,0,0,-1,1931,1198,34.7908,-7.34475
714,-174,40.1135,7.79871,0,0,0,0,0,0,0,-1,1938,1198,40.1135,-7.79875
721,-174,40.8693,7.59863,0,0,0,0,0,0,0,-1,1945,1198,40.8693,-7.59859
728,-174,49.3059,8.16064,0,0,0,0,0,0,0,-1,1952,1198,49.3059,-8.16058
735,-174,49.4141,7.66406,0.00144213,-0.000312679,0.000695398,0.00168429,-0.000554836,0.335095,0.00134646,0.0164011,1959,1198,49.4141,-7.66405
742,-174,49.4294,7.11035,0.00221459,0.000118576,0.000973024,0.00259665,-0.000263485,0.374157,0.00182528,0.0210468,1966,1198,49.4295,-7.11029
749,-174,49.4442,6.59717,0.00390865,0.00106009,0.00119588,0.00434412,0.000624616,0.349223,0.00271196,0.018604,1973,1198,49.4442,-6.59715
756,-174,49.4166,6.08228,0.00681389,0.00262382,0.00129099,0.00717971,0.002258,0.276128,0.00423924,0.0113495,1980,1198,49.4166,-6.08232
763,-174,49.3811,5.60034,0.0106105,0.00449991,0.00128765,0.0108708,0.00423966,0.199428,0.00632668,0.0161791,1987,1198,49.3811,-5.60035
770,-174,49.5543,5.12024,0.0153019,0.00675892,0.00122046,0.0154728,0.00658798,0.139154,0.008966,0.0391734,1994,1198,49.5543,-5.1203
777,-174,49.97,4.56372,0,0,0,0,0,0,0,-1,2001,1198,49.9699,-4.56377
784,-174,46.7341,3.90161,0,0,0,0,0,0,0,-1,2008,1198,46.734,-3.90159
791,-174,47.8416,0.155273,0,0,0,0,0,0,0,-1,2015,1198,47.8415,-0.155262
798,-174,47.6611,3.46655,0,0,0,0,0,0,0,-1,2022,1198,47.6612,-3.46657
805,-174,48.1497,3.96252,0,0,0,0,0,0,0,-1,2029,1198,48.1497,-3.96248
812,-174,0,0,0,0,0,0,0,0,0,-1,2036,1198,0,0
-700,-181,0,0,0,0,0,0,0,0,0,-1,524,1205,0,0
-693,-181,0,0,0,0,0,0,0,0,0,-1,531,1205,0,0
-686,-181,-30.038,1.60803,0.0475924,-0.0747424,-0.0679208,0.077829,-0.104979,-0.418833,0.105931,0.0482768,538,1205,-30.038,-1.60807
-679,-181,-29.1788,2,0.0430115,-0.0662038,-0.0513032,0.0633306,-0.0865228,-0.377104,0.0868626,0.0489653,545,1205,-29.1788,-2.00003
-672,-181,-29.0322,2.75,0.0379248,-0.0562677,-0.039937,0.0525782,-0.0709211,-0.351662,0.071564,0.049396,552,1205,-29.0322,-2.75001
-665,-181,-28.5155,3.30957,0,0,0,0,0,0,0,-1,559,1205,-28.5155,-3.30957
-658,-181,-34.4272,1.32373,0,0,0,0,0,0,0,-1,566,1205,-34.4272,-1.32368
-651,-181,-34.2749,1.72034,0,0,0,0,0,0,0,-1,573,1205,-34.2749,-1.72031
-644,-181,-34.1339,2.07483,0.0186787,-0.0198251,-0.0124586,0.0223582,-0.0235047,-0.28718,0.0264817,0.0472716,580,1205,-34.1338,-2.07481
-637,-181,-33.9896,2.49963,0.0139973,-0.0129574,-0.00838846,0.0163946,-0.0153547,-0.278368,0.0183337,0.0246746,587,1205,-33.9896,-2.49966
-630,-181,-34.0793,3.09436,0.00909951,-0.00741862,-0.00454982,0.0102698,-0.00858892,-0.251762,0.0109025,0.0137027,594,1205,-34.0793,-3.09431
-623,-181,-34.1377,3.63159,0.00497957,-0.00299651,-0.00239252,0.00564219,-0.00365913,-0.270181,0.00541065,0.0161955,601,1205,-34.1377,-3.63164
-616,-181,-34.1382,4.22705,0.00114367,-0.000384912,-0.00164146,0.00219005,-0.00143129,-0.567516,0.00210602,0.0155043,608,1205,-34.1382,-4.22703
-609,-181,-34.1381,4.81091,-0.00179029,-0.000585752,-0.0018913,0.000796855,-0.0031729,-0.939543,0.00242493,0.014393,615,1205,-34.138,-4.81089
-602,-181,-34.1241,5.35925,-0.00276871,-0.000591443,-0.00216151,0.000740098,-0.00410025,-1.01868,0.00301068,0.0173598,622,1205,-34.1242,-5.35921
-595,-181,-34.0201,5.89026,0,0,0,0,0,0,0,-1,629,1205,-34.0201,-5.8902
-588,-181,-34.6743,6.43054,0,0,0,0,0,0,0,-1,636,1205,-34.6742,-6.43054
-581,-181,-34.7369,7.20715,0,0,0,0,0,0,0,-1,643,1205,-34.7369,-7.20711
-574,-181,-31.4653,6.98145,0,0,0,0,0,0,0,-1,650,1205,-31.4653,-6.98148
-567,-181,-25.8839,3.34485,0,0,0,0,0,0,0,-1,657,1205,-25.8839,-3.3449
-560,-181,-31.7396,1.63306,0,0,0,0,0,0,0,-1,664,1205,-31.7396,-1.63303
-553,-181,-44.2047,0.537598,0,0,0,0,0,0,0,-1,671,1205,-44.2046,-0.537597
-546,-181,-44.3003,0.782227,-0.00086896,-0.00207102,-0.00191148,0.000533758,-0.00347374,-0.633077,0.00251271,0.03717,678,1205,-44.3003,-0.782176
-539,-181,-44.4043,0.965088,-0.00022342,-0.0021153,-0.00193476,0.000984262,-0.00332298,-0.558026,0.00260612,0.0392673,685,1205,-44.4043,-0.965044
-532,-181,-44.4945,1.09021,0.000718587,-0.00207853,-0.00187219,0.00165692,-0.00301687,-0.464603,0.00273622,0.0441302,692,1205,-44.4945,-1.09015
-525,-181,-44.4888,1.07251,0.00297117,-0.00169994,-0.00198294,0.00369941,-0.00242819,-0.351964,0.00356306,0.0422435,699,1205,-44.4888,-1.07247
-518,-181,-44.3746,0.948242,0.0061186,-0.00104249,-0.00223214,0.00675738,-0.00168127,-0.278726,0.00515752,0.0400179,706,1205,-44.3746,-0.948254
-511,-181,0,0,0,0,0,0,0,0,0,-1,713,1205,0,0
-504,-181,0,0,0,0,0,0,0,0,0,-1,720,1205,0,0
-497,-181,0,0,0,0,0,0,0,0,0,-1,727,1205,0,0
-490,-181,0,0,0,0,0,0,0,0,0,-1,734,1205,0,0
-483,-181,0,0,0,0,0,0,0,0,0,-1,741,1205,0,0
-476,-181,0,0,0,0,0,0,0,0,0,-1,748,1205,0,0
-469,-181,0,0,0,0,0,0,0,0,0,-1,755,1205,0,0
-462,-181,0,0,0,0,0,0,0,0,0,-1,762,1205,0,0
-455,-181,0,0,0,0,0,0,0,0,0,-1,769,1205,0,0
-448,-181,0,0,0,0,0,0,0,0,0,-1,776,1205,0,0
-441,-181,0,0,0,0,0,0,0,0,0,-1,783,1205,0,0
-434,-181,0,0,0,0,0,0,0,0,0,-1,790,1205,0,0
-427,-181,0,0,0,0,0,0,0,0,0,-1,797,1205,0,0
-420,-181,0,0,0,0,0,0,0,0,0,-1,804,1205,0,0
-413,-181,0,0,0,0,0,0,0,0,0,-1,811,1205,0,0
-406,-181,0,0,0,0,0,0,0,0,0,-1,818,1205,0,0
-399,-181,0,0,0,0,0,0,0,0,0,-1,825,1205,0,0
-392,-181,0,0,0,0,0,0,0,0,0,-1,832,1205,0,0
-385,-181,0,0,0,0,0,0,0,0,0,-1,839,1205,0,0
-378,-181,0,0,0,0,0,0,0,0,0,-1,846,1205,0,0
-371,-181,0,0,0,0,0,0,0,0,0,-1,853,1205,0,0
-364,-181,0,0,0,0,0,0,0,0,0,-1,860,1205,0,0
-357,-181,0,0,0,0,0,0,0,0,0,-1,867,1205,0,0
-350,-181,0,0,0,0,0,0,0,0,0,-1,874,1205,0,0
-343,-181,0,0,0,0,0,0,0,0,0,-1,881,1205,0,0
-336,-181,0,0,0,0,0,0,0,0,0,-1,888,1205,0,0
-329,-181,0,0,0,0,0,0,0,0,0,-1,895,1205,0,0
-322,-181,0,0,0,0,0,0,0,0,0,-1,902,1205,0,0
-315,-181,0,0,0,0,0,0,0,0,0,-1,909,1205,0,0
-308,-181,0,0,0,0,0,0,0,0,0,-1,916,1205,0,0
-301,-181,0,0,0,0,0,0,0,0,0,-1,923,1205,0,0
-294,-181,0,0,0,0,0,0,0,0,0,-1,930,1205,0,0
-287,-181,0,0,0,0,0,0,0,0,0,-1,937,1205,0,0
-280,-181,0,0,0,0,0,0,0,0,0,-1,944,1205,0,0
-273,-181,0,0,0,0,0,0,0,0,0,-1,951,1205,0,0
-266,-181,0,0,0,0,0,0,0,0,0,-1,958,1205,0,0
-259,-181,0,0,0,0,0,0,0,0,0,-1,965,1205,0,0
-252,-181,0,0,0,0,0,0,0,0,0,-1,972,1205,0,0
-245,-181,0,0,0,0,0,0,0,0,0,-1,979,1205,0,0
-238,-181,0,0,0,0,0,0,0,0,0,-1,986,1205,0,0
-231,-181,0,0,0,0,0,0,0,0,0,-1,993,1205,0,0
-224,-181,0,0,0,0,0,0,0,0,0,-1,1000,1205,0,0
-217,-181,0,0,0,0,0,0,0,0,0,-1,1007,1205,0,0
-210,-181,0,0,0,0,0,0,0,0,0,-1,1014,1205,0,0
-203,-181,0,0,0,0,0,0,0,0,0,-1,1021,1205,0,0
-196,-181,0,0,0,0,0,0,0,0,0,-1,1028,1205,0,0
-189,-181,0,0,0,0,0,0,0,0,0,-1,1035,1205,0,0
-182,-181,0,0,0,0,0,0,0,0,0,-1,1042,1205,0,0
-175,-181,0,0,0,0,0,0,0,0,0,-1,1049,1205,0,0
-168,-181,0,0,0,0,0,0,0,0,0,-1,1056,1205,0,0
-161,-181,0,0,0,0,0,0,0,0,0,-1,1063,1205,0,0
-154,-181,0,0,0,0,0,0,0,0,0,-1,1070,1205,0,0
-147,-181,0,0,0,0,0,0,0,0,0,-1,1077,1205,0,0
-140,-181,0,0,0,0,0,0,0,0,0,-1,1084,1205,0,0
-133,-181,0,0,0,0,0,0,0,0,0,-1,1091,1205,0,0
-126,-181,0,0,0,0,0,0,0,0,0,-1,1098,1205,0,0
-119,-181,0,0,0,0,0,0,0,0,0,-1,1105,1205,0,0
-112,-181,0,0,0,0,0,0,0,0,0,-1,1112,1205,0,0
-105,-181,0,0,0,0,0,0,0,0,0,-1,1119,1205,0,0
-98,-181,0,0,0,0,0,0,0,0,0,-1,1126,1205,0,0
-91,-181,0,0,0,0,0,0,0,0,0,-1,1133,1205,0,0
-84,-181,0,0,0,0,0,0,0,0,0,-1,1140,1205,0,0
-77,-181,0,0,0,0,0,0,0,0,0,-1,1147,1205,0,0
-70,-181,0,0,0,0,0,0,0,0,0,-1,1154,1205,0,0
-63,-181,0,0,0,0,0,0,0,0,0,-1,1161,1205,0,0
-56,-181,0,0,0,0,0,0,0,0,0,-1,1168,1205,0,0
-49,-181,0,0,0,0,0,0,0,0,0,-1,1175,1205,0,0
-42,-181,0,0,0,0,0,0,0,0,0,-1,1182,1205,0,0
-35,-181,0,0,0,0,0,0,0,0,0,-1,1189,1205,0,0
-28,-181,0,0,0,0,0,0,0,0,0,-1,1196,1205,0,0
-21,-181,0,0,0,0,0,0,0,0,0,-1,1203,1205,0,0
-14,-181,0,0,0,0,0,0,0,0,0,-1,1210,1205,0,0
-7,-181,0,0,0,0,0,0,0,0,0,-1,1217,1205,0,0
0,-181,0,0,0,0,0,0,0,0,0,-1,1224,1205,0,0
7,-181,0,0,0,0,0,0,0,0,0,-1,1231,1205,0,0
14,-181,0,0,0,0,0,0,0,0,0,-1,1238,1205,0,0
21,-181,0,0,0,0,0,0,0,0,0,-1,1245,1205,0,0
28,-181,0,0,0,0,0,0,0,0,0,-1,1252,1205,0,0
35,-181,0,0,0,0,0,0,0,0,0,-1,1259,1205,0,0
42,-181,0,0,0,0,0,0,0,0,0,-1,1266,1205,0,0
49,-181,0,0,0,0,0,0,0,0,0,-1,1273,1205,0,0
56,-181,0,0,0,0,0,0,0,0,0,-1,1280,1205,0,0
63,-181,0,0,0,0,0,0,0,0,0,-1,1287,1205,0,0
70,-181,0,0,0,0,0,0,0,0,0,-1,1294,1205,0,0
77,-181,0,0,0,0,0,0,0,0,0,-1,1301,1205,0,0
84,-181,0,0,0,0,0,0,0,0,0,-1,1308,1205,0,0
91,-181,0,0,0,0,0,0,0,0,0,-1,1315,1205,0,0
98,-181,0,0,0,0,0,0,0,0,0,-1,1322,1205,0,0
105,-181,0,0,0,0,0,0,0,0,0,-1,1329,1205,0,0
112,-181,0,0,0,0,0,0,0,0,0,-1,1336,1205,0,0
119,-181,0,0,0,0,0,0,0,0,0,-1,1343,1205,0,0
126,-181,0,0,0,0,0,0,0,0,0,-1,1350,1205,0,0
133,-181,0,0,0,0,0,0,0,0,0,-1,1357,1205,0,0
140,-181,0,0,0,0,0,0,0,0,0,-1,1364,1205,0,0
147,-181,0,0,0,0,0,0,0,0,0,-1,1371,1205,0,0
154,-181,0,0,0,0,0,0,0,0,0,-1,1378,1205,0,0
161,-181,0,0,0,0,0,0,0,0,0,-1,1385,1205,0,0
168,-181,0,0,0,0,0,0,0,0,0,-1,1392,1205,0,0
175,-181,0,0,0,0,0,0,0,0,0,-1,1399,1205,0,0
182,-181,0,0,0,0,0,0,0,0,0,-1,1406,1205,0,0
189,-181,0,0,0,0,0,0,0,0,0,-1,1413,1205,0,0
196,-181,0,0,0,0,0,0,0,0,0,-1,1420,1205,0,0
203,-181,0,0,0,0,0,0,0,0,0,-1,1427,1205,0,0
210,-181,0,0,0,0,0,0,0,0,0,-1,1434,1205,0,0
217,-181,0,0,0,0,0,0,0,0,0,-1,1441,1205,0,0
224,-181,0,0,0,0,0,0,0,0,0,-1,1448,1205,0,0
231,-181,0,0,0,0,0,0,0,0,0,-1,1455,1205,0,0
238,-181,0,0,0,0,0,0,0,0,0,-1,1462,1205,0,0
245,-181,0,0,0,0,0,0,0,0,0,-1,1469,1205,0,0
252,-181,0,0,0,0,0,0,0,0,0,-1,1476,1205,0,0
259,-181,0,0,0,0,0,0,0,0,0,-1,1483,1205,0,0
266,-181,0,0,0,0,0,0,0,0,0,-1,1490,1205,0,0
273,-181,0,0,0,0,0,0,0,0,0,-1,1497,1205,0,0
280,-181,0,0,0,0,0,0,0,0,0,-1,1504,1205,0,0
287,-181,0,0,0,0,0,0,0,0,0,-1,1511,1205,0,0
294,-181,0,0,0,0,0,0,0,0,0,-1,1518,1205,0,0
301,-181,0,0,0,0,0,0,0,0,0,-1,1525,1205,0,0
308,-181,0,0,0,0,0,0,0,0,0,-1,1532,1205,0,0
315,-181,0,0,0,0,0,0,0,0,0,-1,1539,1205,0,0
322,-181,0,0,0,0,0,0,0,0,0,-1,1546,1205,0,0
329,-181,0,0,0,0,0,0,0,0,0,-1,1553,1205,0,0
336,-181,0,0,0,0,0,0,0,0,0,-1,1560,1205,0,0
343,-181,0,0,0,0,0,0,0,0,0,-1,1567,1205,0,0
350,-181,0,0,0,0,0,0,0,0,0,-1,1574,1205,0,0
357,-181,0,0,0,0,0,0,0,0,0,-1,1581,1205,0,0
364,-181,0,0,0,0,0,0,0,0,0,-1,1588,1205,0,0
371,-181,0,0,0,0,0,0,0,0,0,-1,1595,1205,0,0
378,-181,0,0,0,0,0,0,0,0,0,-1,1602,1205,0,0
385,-181,0,0,0,0,0,0,0,0,0,-1,1609,1205,0,0
392,-181,0,0,0,0,0,0,0,0,0,-1,1616,1205,0,0
399,-181,0,0,0,0,0,0,0,0,0,-1,1623,1205,0,0
406,-181,0,0,0,0,0,0,0,0,0,-1,1630,1205,0,0
413,-181,0,0,0,0,0,0,0,0,0,-1,1637,1205,0,0
420,-181,0,0,0,0,0,0,0,0,0,-1,1644,1205,0,0
427,-181,0,0,0,0,0,0,0,0,0,-1,1651,1205,0,0
434,-181,0,0,0,0,0,0,0,0,0,-1,1658,1205,0,0
441,-181,0,0,0,0,0,0,0,0,0,-1,1665,1205,0,0
448,-181,0,0,0,0,0,0,0,0,0,-1,1672,1205,0,0
455,-181,0,0,0,0,0,0,0,0,0,-1,1679,1205,0,0
462,-181,0,0,0,0,0,0,0,0,0,-1,1686,1205,0,0
469,-181,0,0,0,0,0,0,0,0,0,-1,1693,1205,0,0
476,-181,0,0,0,0,0,0,0,0,0,-1,1700,1205,0,0
483,-181,0,0,0,0,0,0,0,0,0,-1,1707,1205,0,0
490,-181,0,0,0,0,0,0,0,0,0,-1,1714,1205,0,0
497,-181,0,0,0,0,0,0,0,0,0,-1,1721,1205,0,0
504,-181,0,0,0,0,0,0,0,0,0,-1,1728,1205,0,0
511,-181,0,0,0,0,0,0,0,0,0,-1,1735,1205,0,0
518,-181,0,0,0,0,0,0,0,0,0,-1,1742,1205,0,0
525,-181,0,0,0,0,0,0,0,0,0,-1,1749,1205,0,0
532,-181,0,0,0,0,0,0,0,0,0,-1,1756,1205,0,0
539,-181,0,0,0,0,0,0,0,0,0,-1,1763,1205,0,0
546,-181,0,0,0,0,0,0,0,0,0,-1,1770,1205,0,0
553,-181,0,0,0,0,0,0,0,0,0,-1,1777,1205,0,0
560,-181,0,0,0,0,0,0,0,0,0,-1,1784,1205,0,0
567,-181,0,0,0,0,0,0,0,0,0,-1,1791,1205,0,0
574,-181,0,0,0,0,0,0,0,0,0,-1,1798,1205,0,0
581,-181,0,0,0,0,0,0,0,0,0,-1,1805,1205,0,0
588,-181,0,0,0,0,0,0,0,0,0,-1,1812,1205,0,0
595,-181,0,0,0,0,0,0,0,0,0,-1,1819,1205,0,0
602,-181,0,0,0,0,0,0,0,0,0,-1,1826,1205,0,0
609,-181,0,0,0,0,0,0,0,0,0,-1,1833,1205,0,0
616,-181,0,0,0,0,0,0,0,0,0,-1,1840,1205,0,0
623,-181,0,0,0,0,0,0,0,0,0,-1,1847,1205,0,0
630,-181,58.9319,2.73975,0.000190587,0.000659145,-0.000741496,0.00120249,-0.00035276,-0.938412,0.00094154,0.0354978,1854,1205,58.9319,-2.7398
637,-181,58.8562,2.68701,0.000489763,0.000191843,-0.000803284,0.00115778,-0.000476176,-0.69372,0.00097034,0.0340923,1861,1205,58.8563,-2.687
644,-181,58.8392,2.64197,0.000585775,-7.10909e-05,-0.000826871,0.00114705,-0.000632368,-0.596353,0.00104158,0.0388342,1868,1205,58.8392,-2.64199
651,-181,58.9464,2.58423,0.000654421,-9.49622e-05,-0.000917903,0.00127116,-0.000711704,-0.591619,0.0011599,0.0401083,1875,1205,58.9464,-2.58425
658,-181,58.9087,2.547,0.000870057,-0.000188264,-0.000976663,0.0014517,-0.000769906,-0.537134,0.00130262,0.0350345,1882,1205,58.9087,-2.54696
665,-181,58.8953,2.60144,0.00106841,-0.000423102,-0.000939074,0.00152183,-0.000876517,-0.449819,0.00140129,0.0304729,1889,1205,58.8953,-2.60145
672,-181,58.8757,2.60962,0.00118542,-0.000597313,-0.000789807,0.00148499,-0.000896883,-0.362531,0.00138908,0.0229796,1896,1205,58.8757,-2.60967
679,-181,58.9072,2.53015,0.00119324,-0.000743352,-0.000603525,0.00136592,-0.000916037,-0.278683,0.001326,0.0297596,1903,1205,58.9072,-2.53015
686,-181,58.9259,2.41614,0,0,0,0,0,0,0,-1,1910,1205,58.9259,-2.41619
693,-181,36.1301,2.91016,0,0,0,0,0,0,0,-1,1917,1205,36.1302,-2.9102
700,-181,29.5845,6.58398,0,0,0,0,0,0,0,-1,1924,1205,29.5844,-6.58395
707,-181,49.4908,9.65027,0,0,0,0,0,0,0,-1,1931,1205,49.4909,-9.65023
714,-181,49.6974,9.38281,0,0,0,0,0,0,0,-1,1938,1205,49.6973,-9.38278
721,-181,46.834,8.7926,0,0,0,0,0,0,0,-1,1945,1205,46.834,-8.79256
728,-181,48.9147,8.17468,0,0,0,0,0,0,0,-1,1952,1205,48.9146,-8.17468
735,-181,48.9296,7.66431,0.00172414,-0.000409796,0.000699253,0.00193286,-0.000618515,0.290069,0.00153681,0.0131194,1959,1205,48.9296,-7.66428
742,-181,48.8799,7.17822,0.00261648,0.000180436,0.000988523,0.00296714,-0.000170221,0.340881,0.00203721,0.017334,1966,1205,48.8798,-7.17827
749,-181,48.8805,6.62207,0.0044094,0.00124068,0.00125816,0.00484819,0.000801886,0.33557,0.00300076,0.0162828,1973,1205,48.8805,-6.62212
756,-181,48.8771,6.08057,0.00728555,0.00280325,0.00147178,0.00772562,0.00236319,0.290538,0.00457105,0.0118758,1980,1205,48.8771,-6.08058
763,-181,48.8816,5.58081,0.0111445,0.00466669,0.00160914,0.0115222,0.00428899,0.230549,0.00672434,0.015077,1987,1205,48.8816,-5.58082
770,-181,49.15,4.9292,0.0159377,0.00692801,0.00168813,0.0162437,0.00662209,0.179269,0.00943142,0.0438886,1994,1205,49.1501,-4.92916
777,-181,49.5439,4.12146,0,0,0,0,0,0,0,-1,2001,1205,49.544,-4.12145
784,-181,49.4673,-0.801392,0,0,0,0,0,0,0,-1,2008,1205,49.4674,0.801388
791,-181,51.4558,0.762085,0,0,0,0,0,0,0,-1,2015,1205,51.4558,-0.762099
798,-181,45.8289,4.4198,0,0,0,0,0,0,0,-1,2022,1205,45.8288,-4.41985
805,-181,0,0,0,0,0,0,0,0,0,-1,2029,1205,0,0
812,-181,0,0,0,0,0,0,0,0,0,-1,2036,1205,0,0
-700,-188,0,0,0,0,0,0,0,0,0,-1,524,1212,0,0
-693,-188,0,0,0,0,0,0,0,0,0,-1,531,1212,0,0
-686,-188,0,0,0,0,0,0,0,0,0,-1,538,1212,0,0
-679,-188,-27.4191,2.41455,0,0,0,0,0,0,0,-1,545,1212,-27.4191,-2.41456
-672,-188,-27.1805,3.18652,0,0,0,0,0,0,0,-1,552,1212,-27.1805,-3.18649
-665,-188,-34.5872,1.93994,0,0,0,0,0,0,0,-1,559,1212,-34.5872,-1.93996
-658,-188,-32.5067,2.61304,0,0,0,0,0,0,0,-1,566,1212,-32.5067,-2.61298
-651,-188,-33.8275,1.6875,0,0,0,0,0,0,0,-1,573,1212,-33.8275,-1.68744
-644,-188,-33.6652,2.1073,0.0191347,-0.0200385,-0.00993052,0.0215083,-0.0224121,-0.234618,0.0253592,0.0463236,580,1212,-33.6652,-2.10724
-637,-188,-33.5193,2.52856,0.014692,-0.013066,-0.00669473,0.0162223,-0.0145963,-0.224719,0.0178014,0.0224999,587,1212,-33.5193,-2.5286
-630,-188,-33.5161,3.10779,0.00989026,-0.0075091,-0.00337382,0.0105216,-0.0081404,-0.184977,0.0108037,0.0108753,594,1212,-33.5161,-3.10775
-623,-188,-33.5532,3.67529,0.00598197,-0.00292301,-0.00165187,0.00627852,-0.00321956,-0.177629,0.00557771,0.011614,601,1212,-33.5532,-3.67533
-616,-188,-33.5599,4.24475,0.00236066,-0.000153713,-0.00105272,0.00274322,-0.000536265,-0.348556,0.0020313,0.0111541,608,1212,-33.5598,-4.24471
-609,-188,-33.5159,4.82495,-0.000617521,-0.000245868,-0.00159948,0.00117855,-0.00204194,-0.843229,0.00188149,0.0140973,615,1212,-33.5159,-4.82489
-602,-188,-33.5212,5.41199,-0.00196006,-0.000358395,-0.00204587,0.0010378,-0.00335625,-0.97195,0.002652,0.0195782,622,1212,-33.5212,-5.41204
-595,-188,-33.6663,5.91296,-0.00190402,-0.00114573,-0.0019966,0.000507406,-0.00355716,-0.879228,0.00255741,0.0318067,629,1212,-33.6662,-5.91298
-588,-188,-33.9109,6.526,-0.00191397,-0.000886127,-0.0021128,0.000774362,-0.00357446,-0.904702,0.00267866,0.0267024,636,1212,-33.9109,-6.52596
-581,-188,-33.8981,7.06616,0,0,0,0,0,0,0,-1,643,1212,-33.8981,-7.06615
-574,-188,-34.1296,7.51599,0,0,0,0,0,0,0,-1,650,1212,-34.1296,-7.516
-567,-188,-19.5786,4.10388,0,0,0,0,0,0,0,-1,657,1212,-19.5785,-4.10383
-560,-188,-23.9507,0.416626,0,0,0,0,0,0,0,-1,664,1212,-23.9508,-0.416602
-553,-188,-44.6763,1.55176,0,0,0,0,0,0,0,-1,671,1212,-44.6763,-1.55171
-546,-188,-44.475,1.18481,-0.000674069,-0.00215177,-0.00202922,0.000746628,-0.00357246,-0.610806,0.0026656,0.0452773,678,1212,-44.475,-1.18478
-539,-188,-44.3133,0.852295,-0.000388104,-0.00223765,-0.00204037,0.000927283,-0.00355303,-0.572627,0.00273078,0.0382133,685,1212,-44.3133,-0.852251
-532,-188,-44.406,0.89209,-9.66102e-06,-0.00229999,-0.00196392,0.00111859,-0.00342823,-0.521448,0.00273567,0.0418384,692,1212,-44.406,-0.89212
-525,-188,-44.3379,0.836182,0.00152915,-0.00227451,-0.00211444,0.00247123,-0.00321659,-0.419143,0.00329325,0.0408819,699,1212,-44.3379,-0.836238
-518,-188,-44.2792,0.787354,0.00432043,-0.00210935,-0.00247149,0.00516063,-0.00294955,-0.327701,0.00474007,0.0404148,706,1212,-44.2793,-0.787339
-511,-188,-44.2831,0.838501,0.00870507,-0.00153556,-0.00304789,0.00954355,-0.00237404,-0.268461,0.00728384,0.0389378,713,1212,-44.2831,-0.83846
-504,-188,0,0,0,0,0,0,0,0,0,-1,720,1212,0,0
-497,-188,0,0,0,0,0,0,0,0,0,-1,727,1212,0,0
-490,-188,0,0,0,0,0,0,0,0,0,-1,734,1212,0,0
-483,-188,0,0,0,0,0,0,0,0,0,-1,741,1212,0,0
-476,-188,0,0,0,0,0,0,0,0,0,-1,748,1212,0,0
-469,-188,0,0,0,0,0,0,0,0,0,-1,755,1212,0,0
-462,-188,0,0,0,0,0,0,0,0,0,-1,762,1212,0,0
-455,-188,0,0,0,0,0,0,0,0,0,-1,769,1212,0,0
-448,-188,0,0,0,0,0,0,0,0,0,-1,776,1212,0,0
-441,-188,0,0,0,0,0,0,0,0,0,-1,783,1212,0,0
-434,-188,0,0,0,0,0,0,0,0,0,-1,790,1212,0,0
-427,-188,0,0,0,0,0,0,0,0,0,-1,797,1212,0,0
-420,-188,0,0,0,0,0,0,0,0,0,-1,804,1212,0,0
-413,-188,0,0,0,0,0,0,0,0,0,-1,811,1212,0,0
-406,-188,0,0,0,0,0,0,0,0,0,-1,818,1212,0,0
-399,-188,0,0,0,0,0,0,0,0,0,-1,825,1212,0,0
-392,-188,0,0,0,0,0,0,0,0,0,-1,832,1212,0,0
-385,-188,0,0,0,0,0,0,0,0,0,-1,839,1212,0,0
-378,-188,0,0,0,0,0,0,0,0,0,-1,846,1212,0,0
-371,-188,0,0,0,0,0,0,0,0,0,-1,853,1212,0,0
-364,-188,0,0,0,0,0,0,0,0,0,-1,860,1212,0,0
-357,-188,0,0,0,0,0,0,0,0,0,-1,867,1212,0,0
-350,-188,0,0,0,0,0,0,0,0,0,-1,874,1212,0,0
-343,-188,0,0,0,0,0,0,0,0,0,-1,881,1212,0,0
-336,-188,0,0,0,0,0,0,0,0,0,-1,888,1212,0,0
-329,-188,0,0,0,0,0,0,0,0,0,-1,895,1212,0,0
-322,-188,0,0,0,0,0,0,0,0,0,-1,902,1212,0,0
-315,-188,0,0,0,0,0,0,0,0,0,-1,909,1212,0,0
-308,-188,0,0,0,0,0,0,0,0,0,-1,916,1212,0,0
-301,-188,0,0,0,0,0,0,0,0,0,-1,923,1212,0,0
-294,-188,0,0,0,0,0,0,0,0,0,-1,930,1212,0,0
-287,-188,0,0,0,0,0,0,0,0,0,-1,937,1212,0,0
-280,-188,0,0,0,0,0,0,0,0,0,-1,944,1212,0,0
-273,-188,0,0,0,0,0,0,0,0,0,-1,951,1212,0,0
-266,-188,0,0,0,0,0,0,0,0,0,-1,958,1212,0,0
-259,-188,0,0,0,0,0,0,0,0,0,-1,965,1212,0,0
-252,-188,0,0,0,0,0,0,0,0,0,-1,972,1212,0,0
-245,-188,0,0,0,0,0,0,0,0,0,-1,979,1212,0,0
-238,-188,0,0,0,0,0,0,0,0,0,-1,986,1212,0,0
-231,-188,0,0,0,0,0,0,0,0,0,-1,993,1212,0,0
-224,-188,0,0,0,0,0,0,0,0,0,-1,1000,1212,0,0
-217,-188,0,0,0,0,0,0,0,0,0,-1,1007,1212,0,0
-210,-188,0,0,0,0,0,0,0,0,0,-1,1014,1212,0,0
-203,-188,0,0,0,0,0,0,0,0,0,-1,1021,1212,0,0
-196,-188,0,0,0,0,0,0,0,0,0,-1,1028,1212,0,0
-189,-188,0,0,0,0,0,0,0,0,0,-1,1035,1212,0,0
-182,-188,0,0,0,0,0,0,0,0,0,-1,1042,1212,0,0
-175,-188,0,0,0,0,0,0,0,0,0,-1,1049,1212,0,0
-168,-188,0,0,0,0,0,0,0,0,0,-1,1056,1212,0,0
-161,-188,0,0,0,0,0,0,0,0,0,-1,1063,1212,0,0
-154,-188,0,0,0,0,0,0,0,0,0,-1,1070,1212,0,0
-147,-188,0,0,0,0,0,0,0,0,0,-1,1077,1212,0,0
-140,-188,0,0,0,0,0,0,0,0,0,-1,1084,1212,0,0
-133,-188,0,0,0,0,0,0,0,0,0,-1,1091,1212,0,0
-126,-188,0,0,0,0,0,0,0,0,0,-1,1098,1212,0,0
-119,-188,0,0,0,0,0,0,0,0,0,-1,1105,1212,0,0
-112,-188,0,0,0,0,0,0,0,0,0,-1,1112,1212,0,0
-105,-188,0,0,0,0,0,0,0,0,0,-1,1119,1212,0,0
-98,-188,0,0,0,0,0,0,0,0,0,-1,1126,1212,0,0
-91,-188,0,0,0,0,0,0,0,0,0,-1,1133,1212,0,0
-84,-188,0,0,0,0,0,0,0,0,0,-1,1140,1212,0,0
-77,-188,0,0,0,0,0,0,0,0,0,-1,1147,1212,0,0
-70,-188,0,0,0,0,0,0,0,0,0,-1,1154,1212,0,0
-63,-188,0,0,0,0,0,0,0,0,0,-1,1161,1212,0,0
-56,-188,0,0,0,0,0,0,0,0,0,-1,1168,1212,0,0
-49,-188,0,0,0,0,0,0,0,0,0,-1,1175,1212,0,0
-42,-188,0,0,0,0,0,0,0,0,0,-1,1182,1212,0,0
-35,-188,0,0,0,0,0,0,0,0,0,-1,1189,1212,0,0
-28,-188,0,0,0,0,0,0,0,0,0,-1,1196,1212,0,0
-21,-188,0,0,0,0,0,0,0,0,0,-1,1203,1212,0,0
-14,-188,0,0,0,0,0,0,0,0,0,-1,1210,1212,0,0
-7,-188,0,0,0,0,0,0,0,0,0,-1,1217,1212,0,0
0,-188,0,0,0,0,0,0,0,0,0,-1,1224,1212,0,0
7,-188,0,0,0,0,0,0,0,0,0,-1,1231,1212,0,0
14,-188,0,0,0,0,0,0,0,0,0,-1,1238,1212,0,0
21,-188,0,0,0,0,0,0,0,0,0,-1,1245,1212,0,0
28,-188,0,0,0,0,0,0,0,0,0,-1,1252,1212,0,0
35,-188,0,0,0,0,0,0,0,0,0,-1,1259,1212,0,0
42,-188,0,0,0,0,0,0,0,0,0,-1,1266,1212,0,0
49,-188,0,0,0,0,0,0,0,0,0,-1,1273,1212,0,0
56,-188,0,0,0,0,0,0,0,0,0,-1,1280,1212,0,0
63,-188,0,0,0,0,0,0,0,0,0,-1,1287,1212,0,0
70,-188,0,0,0,0,0,0,0,0,0,-1,1294,1212,0,0
77,-188,0,0,0,0,0,0,0,0,0,-1,1301,1212,0,0
84,-188,0,0,0,0,0,0,0,0,0,-1,1308,1212,0,0
91,-188,0,0,0,0,0,0,0,0,0,-1,1315,1212,0,0
98,-188,0,0,0,0,0,0,0,0,0,-1,1322,1212,0,0
105,-188,0,0,0,0,0,0,0,0,0,-1,1329,1212,0,0
112,-188,0,0,0,0,0,0,0,0,0,-1,1336,1212,0,0
119,-188,0,0,0,0,0,0,0,0,0,-1,1343,1212,0,0
126,-188,0,0,0,0,0,0,0,0,0,-1,1350,1212,0,0
133,-188,0,0,0,0,0,0,0,0,0,-1,1357,1212,0,0
140,-188,0,0,0,0,0,0,0,0,0,-1,1364,1212,0,0
147,-188,0,0,0,0,0,0,0,0,0,-1,1371,1212,0,0
154,-188,0,0,0,0,0,0,0,0,0,-1,1378,1212,0,0
161,-188,0,0,0,0,0,0,0,0,0,-1,1385,1212,0,0
168,-188,0,0,0,0,0,0,0,0,0,-1,1392,1212,0,0
175,-188,0,0,0,0,0,0,0,0,0,-1,1399,1212,0,0
182,-188,0,0,0,0,0,0,0,0,0,-1,1406,1212,0,0
189,-188,0,0,0,0,0,0,0,0,0,-1,1413,1212,0,0
196,-188,0,0,0,0,0,0,0,0,0,-1,1420,1212,0,0
203,-188,0,0,0,0,0,0,0,0,0,-1,1427,1212,0,0
210,-188,0,0,0,0,0,0,0,0,0,-1,1434,1212,0,0
217,-188,0,0,0,0,0,0,0,0,0,-1,1441,1212,0,0
224,-188,0,0,0,0,0,0,0,0,0,-1,1448,1212,0,0
231,-188,0,0,0,0,0,0,0,0,0,-1,1455,1212,0,0
238,-188,0,0,0,0,0,0,0,0,0,-1,1462,1212,0,0
245,-188,0,0,0,0,0,0,0,0,0,-1,1469,1212,0,0
252,-188,0,0,0,0,0,0,0,0,0,-1,1476,1212,0,0
259,-188,0,0,0,0,0,0,0,0,0,-1,1483,1212,0,0
266,-188,0,0,0,0,0,0,0,0,0,-1,1490,1212,0,0
273,-188,0,0,0,0,0,0,0,0,0,-1,1497,1212,0,0
280,-188,0,0,0,0,0,0,0,0,0,-1,1504,1212,0,0
287,-188,0,0,0,0,0,0,0,0,0,-1,1511,1212,0,0
294,-188,0,0,0,0,0,0,0,0,0,-1,1518,1212,0,0
301,-188,0,0,0,0,0,0,0,0,0,-1,1525,1212,0,0
308,-188,0,0,0,0,0,0,0,0,0,-1,1532,1212,0,0
315,-188,0,0,0,0,0,0,0,0,0,-1,1539,1212,0,0
322,-188,0,0,0,0,0,0,0,0,0,-1,1546,1212,0,0
329,-188,0,0,0,0,0,0,0,0,0,-1,1553,1212,0,0
336,-188,0,0,0,0,0,0,0,0,0,-1,1560,1212,0,0
343,-188,0,0,0,0,0,0,0,0,0,-1,1567,1212,0,0
350,-188,0,0,0,0,0,0,0,0,0,-1,1574,1212,0,0
357,-188,0,0,0,0,0,0,0,0,0,-1,1581,1212,0,0
364,-188,0,0,0,0,0,0,0,0,0,-1,1588,1212,0,0
371,-188,0,0,0,0,0,0,0,0,0,-1,1595,1212,0,0
378,-188,0,0,0,0,0,0,0,0,0,-1,1602,1212,0,0
385,-188,0,0,0,0,0,0,0,0,0,-1,1609,1212,0,0
392,-188,0,0,0,0,0,0,0,0,0,-1,1616,1212,0,0
399,-188,0,0,0,0,0,0,0,0,0,-1,1623,1212,0,0
406,-188,0,0,0,0,0,0,0,0,0,-1,1630,1212,0,0
413,-188,0,0,0,0,0,0,0,0,0,-1,1637,1212,0,0
420,-188,0,0,0,0,0,0,0,0,0,-1,1644,1212,0,0
427,-188,0,0,0,0,0,0,0,0,0,-1,1651,1212,0,0
434,-188,0,0,0,0,0,0,0,0,0,-1,1658,1212,0,0
441,-188,0,0,0,0,0,0,0,0,0,-1,1665,1212,0,0
448,-188,0,0,0,0,0,0,0,0,0,-1,1672,1212,0,0
455,-188,0,0,0,0,0,0,0,0,0,-1,1679,1212,0,0
462,-188,0,0,0,0,0,0,0,0,0,-1,1686,1212,0,0
469,-188,0,0,0,0,0,0,0,0,0,-1,1693,1212,0,0
476,-188,0,0,0,0,0,0,0,0,0,-1,1700,1212,0,0
483,-188,0,0,0,0,0,0,0,0,0,-1,1707,1212,0,0
490,-188,0,0,0,0,0,0,0,0,0,-1,1714,1212,0,0
497,-188,0,0,0,0,0,0,0,0,0,-1,1721,1212,0,0
504,-188,0,0,0,0,0,0,0,0,0,-1,1728,1212,0,0
511,-188,0,0,0,0,0,0,0,0,0,-1,1735,1212,0,0
518,-188,0,0,0,0,0,0,0,0,0,-1,1742,1212,0,0
525,-188,0,0,0,0,0,0,0,0,0,-1,1749,1212,0,0
532,-188,0,0,0,0,0,0,0,0,0,-1,1756,1212,0,0
539,-188,0,0,0,0,0,0,0,0,0,-1,1763,1212,0,0
546,-188,0,0,0,0,0,0,0,0,0,-1,1770,1212,0,0
553,-188,0,0,0,0,0,0,0,0,0,-1,1777,1212,0,0
560,-188,0,0,0,0,0,0,0,0,0,-1,1784,1212,0,0
567,-188,0,0,0,0,0,0,0,0,0,-1,1791,1212,0,0
574,-188,0,0,0,0,0,0,0,0,0,-1,1798,1212,0,0
581,-188,0,0,0,0,0,0,0,0,0,-1,1805,1212,0,0
588,-188,0,0,0,0,0,0,0,0,0,-1,1812,1212,0,0
595,-188,0,0,0,0,0,0,0,0,0,-1,1819,1212,0,0
602,-188,0,0,0,0,0,0,0,0,0,-1,1826,1212,0,0
609,-188,0,0,0,0,0,0,0,0,0,-1,1833,1212,0,0
616,-188,0,0,0,0,0,0,0,0,0,-1,1840,1212,0,0
623,-188,0,0,0,0,0,0,0,0,0,-1,1847,1212,0,0
630,-188,58.8773,2.599,0.000174461,0.000927932,-0.00069345,0.00134038,-0.000237982,-1.03423,0.000982565,0.0380561,1854,1212,58.8773,-2.59896
637,-188,58.8347,2.60925,0.00045587,0.000384072,-0.000839641,0.00126038,-0.000420437,-0.764033,0.00101,0.0384177,1861,1212,58.8347,-2.6093
644,-188,58.796,2.7301,0.000588296,6.49599e-05,-0.000957987,0.00131971,-0.000666453,-0.652079,0.0011672,0.0374288,1868,1212,58.796,-2.73013
651,-188,58.899,2.70801,0.000724174,-4.62915e-05,-0.0011225,0.0015257,-0.000847822,-0.6201,0.00138886,0.0335326,1875,1212,58.8991,-2.70806
658,-188,58.9255,2.63965,0.00103408,-0.000290373,-0.00118276,0.00172738,-0.000983677,-0.530192,0.00158474,0.0322178,1882,1212,58.9256,-2.63962
665,-188,58.8424,2.61584,0.00126811,-0.000660562,-0.00111997,0.0017817,-0.00117416,-0.429965,0.00171854,0.0304372,1889,1212,58.8424,-2.61587
672,-188,58.8677,2.5708,0.0014571,-0.000895491,-0.000953656,0.00179512,-0.0012335,-0.340624,0.00175857,0.0246416,1896,1212,58.8677,-2.57084
679,-188,58.9164,2.52393,0,0,0,0,0,0,0,-1,1903,1212,58.9164,-2.52394
686,-188,57.8209,3.00354,0,0,0,0,0,0,0,-1,1910,1212,57.8209,-3.0036
693,-188,35.9054,2.18042,0,0,0,0,0,0,0,-1,1917,1212,35.9054,-2.18038
700,-188,48.459,10.2456,0,0,0,0,0,0,0,-1,1924,1212,48.459,-10.2456
707,-188,48.5546,9.82214,0.00131249,-0.000930512,-1.08287e-05,0.00131254,-0.000930564,-0.00482764,0.0013013,0.0466884,1931,1212,48.5545,-9.82217
714,-188,48.7479,9.31213,0,0,0,0,0,0,0,-1,1938,1212,48.7479,-9.31216
721,-188,48.2305,8.9187,0,0,0,0,0,0,0,-1,1945,1212,48.2305,-8.91871
728,-188,48.3772,8.24744,0.00175218,-0.000766157,0.000327623,0.0017941,-0.000808081,0.127273,0.0015379,0.0219706,1952,1212,48.3772,-8.24738
735,-188,48.3673,7.6886,0.00219178,-0.000497988,0.000621709,0.00232853,-0.000634737,0.216509,0.00180159,0.0135464,1959,1212,48.3673,-7.68856
742,-188,48.335,7.17078,0.00302759,0.000198065,0.000955096,0.0033198,-9.41477e-05,0.296907,0.00224524,0.0152421,1966,1212,48.335,-7.17083
749,-188,48.3389,6.64697,0.00465493,0.00124173,0.00129476,0.0050905,0.000806161,0.324516,0.00315942,0.0144323,1973,1212,48.3389,-6.64693
756,-188,48.3378,6.09399,0.00728331,0.00266308,0.00160353,0.0077853,0.00216108,0.303389,0.00464071,0.0126816,1980,1212,48.3378,-6.094
763,-188,48.3374,5.56287,0.011034,0.00435756,0.00182998,0.0115027,0.00388888,0.250725,0.00675616,0.0168481,1987,1212,48.3374,-5.56281
770,-188,48.4061,4.96143,0.015791,0.00645952,0.0019684,0.0161892,0.0060613,0.199614,0.00944461,0.0374408,1994,1212,48.4061,-4.96141
777,-188,48.6125,4.35803,0,0,0,0,0,0,0,-1,2001,1212,48.6124,-4.35803
784,-188,50.2876,-0.510742,0,0,0,0,0,0,0,-1,2008,1212,50.2875,0.510762
791,-188,51.6936,0.835083,0,0,0,0,0,0,0,-1,2015,1212,51.6937,-0.835076
798,-188,52.3022,2.24426,0,0,0,0,0,0,0,-1,2022,1212,52.3023,-2.24429
805,-188,0,0,0,0,0,0,0,0,0,-1,2029,1212,0,0
812,-188,0,0,0,0,0,0,0,0,0,-1,2036,1212,0,0
-700,-195,0,0,0,0,0,0,0,0,0,-1,524,1219,0,0
-693,-195,0,0,0,0,0,0,0,0,0,-1,531,1219,0,0
-686,-195,0,0,0,0,0,0,0,0,0,-1,538,1219,0,0
-679,-195,-33.902,2.07129,0.0355905,-0.0732169,-0.0203481,0.0392713,-0.0768977,-0.178956,0.0682328,0.0460994,545,1219,-33.9021,-2.07135
-672,-195,-34.143,3.58301,0.0333335,-0.0609167,-0.0175664,0.0365011,-0.0640842,-0.178403,0.0587963,0.0478413,552,1219,-34.143,-3.58298
-665,-195,-34.4272,5.03674,0,0,0,0,0,0,0,-1,559,1219,-34.4272,-5.03679
-658,-195,-31.7175,2.38477,0,0,0,0,0,0,0,-1,566,1219,-31.7175,-2.38481
-651,-195,-33.6226,1.2439,0,0,0,0,0,0,0,-1,573,1219,-33.6226,-1.24394
-644,-195,-33.2524,1.93713,0.0194956,-0.0201691,-0.00670353,0.0205979,-0.0212714,-0.162977,0.0241743,0.0433752,580,1219,-33.2524,-1.93716
-637,-195,-32.8407,2.60669,0.0153316,-0.0128349,-0.0044117,0.0160064,-0.0135097,-0.151788,0.0170615,0.0230057,587,1219,-32.8407,-2.60667
-630,-195,-32.9327,3.12744,0.0106609,-0.00714108,-0.00172683,0.0108269,-0.00730704,-0.0958122,0.0105351,0.00879307,594,1219,-32.9327,-3.12739
-623,-195,-32.9577,3.69678,0.00697273,-0.00232263,-0.000563189,0.00700673,-0.00235663,-0.0602942,0.00562377,0.00837432,601,1219,-32.9577,-3.69681
-616,-195,-32.964,4.28491,0.00360641,0.000526053,-0.000292918,0.00363402,0.000498446,-0.0939701,0.0022748,0.00986291,608,1219,-32.964,-4.28487
-609,-195,-32.9503,4.88867,0.000767654,0.000252691,-0.00128506,0.00182077,-0.000800429,-0.686525,0.0015511,0.0179471,615,1219,-32.9502,-4.88863
-602,-195,-33.0012,5.42371,-0.000799554,-0.000215775,-0.00195494,0.00146895,-0.00248428,-0.859505,0.00230735,0.0219654,622,1219,-33.0013,-5.42367
-595,-195,-33.0682,6.00098,-0.00103684,-0.00115398,-0.00202164,0.000927081,-0.00311789,-0.770916,0.00244688,0.0272494,629,1219,-33.0681,-6.00101
-588,-195,-33.1212,6.69604,-0.00118315,-0.000942635,-0.00206169,0.0010023,-0.00312808,-0.81453,0.00248773,0.0275885,636,1219,-33.1212,-6.69601
-581,-195,-32.8647,7.35046,0,0,0,0,0,0,0,-1,643,1219,-32.8647,-7.35042
-574,-195,-32.7021,7.047,0,0,0,0,0,0,0,-1,650,1219,-32.7021,-7.04705
-567,-195,-20.6388,3.78369,0,0,0,0,0,0,0,-1,657,1219,-20.6388,-3.78369
-560,-195,-20.878,2.10388,0,0,0,0,0,0,0,-1,664,1219,-20.878,-2.10385
-553,-195,-41.595,0.613281,0,0,0,0,0,0,0,-1,671,1219,-41.595,-0.61334
-546,-195,-44.5903,1.45813,0,0,0,0,0,0,0,-1,678,1219,-44.5904,-1.45811
-539,-195,-44.318,0.968994,-0.000364474,-0.002591,-0.00201551,0.000824789,-0.00378026,-0.533076,0.00283538,0.0439606,685,1219,-44.318,-0.969003
-532,-195,-44.2725,0.735596,-0.000428034,-0.00253056,-0.00196328,0.000747724,-0.00370632,-0.539592,0.00275416,0.037294,692,1219,-44.2725,-0.735582
-525,-195,-44.2083,0.745361,0.00022109,-0.00236891,-0.00208928,0.00138416,-0.00353198,-0.507961,0.00292724,0.0383241,699,1219,-44.2083,-0.745417
-518,-195,-44.3547,0.961426,0.00208756,-0.00221688,-0.00242062,0.00317439,-0.00330371,-0.422013,0.00374038,0.038178,706,1219,-44.3547,-0.961418
-511,-195,-44.3805,0.947388,0.00620142,-0.00196952,-0.00312509,0.00725961,-0.00302771,-0.326493,0.00610461,0.0411026,713,1219,-44.3805,-0.94734
-504,-195,0,0,0,0,0,0,0,0,0,-1,720,1219,0,0
-497,-195,0,0,0,0,0,0,0,0,0,-1,727,1219,0,0
-490,-195,0,0,0,0,0,0,0,0,0,-1,734,1219,0,0
-483,-195,0,0,0,0,0,0,0,0,0,-1,741,1219,0,0
-476,-195,0,0,0,0,0,0,0,0,0,-1,748,1219,0,0
-469,-195,0,0,0,0,0,0,0,0,0,-1,755,1219,0,0
-462,-195,0,0,0,0,0,0,0,0,0,-1,762,1219,0,0
-455,-195,0,0,0,0,0,0,0,0,0,-1,769,1219,0,0
-448,-195,0,0,0,0,0,0,0,0,0,-1,776,1219,0,0
-441,-195,0,0,0,0,0,0,0,0,0,-1,783,1219,0,0
-434,-195,0,0,0,0,0,0,0,0,0,-1,790,1219,0,0
-427,-195,0,0,0,0,0,0,0,0,0,-1,797,1219,0,0
-420,-195,0,0,0,0,0,0,0,0,0,-1,804,1219,0,0
-413,-195,0,0,0,0,0,0,0,0,0,-1,811,1219,0,0
-406,-195,0,0,0,0,0,0,0,0,0,-1,818,1219,0,0
-399,-195,0,0,0,0,0,0,0,0,0,-1,825,1219,0,0
-392,-195,0,0,0,0,0,0,0,0,0,-1,832,1219,0,0
-385,-195,0,0,0,0,0,0,0,0,0,-1,839,1219,0,0
-378,-195,0,0,0,0,0,0,0,0,0,-1,846,1219,0,0
-371,-195,0,0,0,0,0,0,0,0,0,-1,853,1219,0,0
-364,-195,0,0,0,0,0,0,0,0,0,-1,860,1219,0,0
-357,-195,0,0,0,0,0,0,0,0,0,-1,867,1219,0,0
-350,-195,0,0,0,0,0,0,0,0,0,-1,874,1219,0,0
-343,-195,0,0,0,0,0,0,0,0,0,-1,881,1219,0,0
-336,-195,0,0,0,0,0,0,0,0,0,-1,888,1219,0,0
-329,-195,0,0,0,0,0,0,0,0,0,-1,895,1219,0,0
-322,-195,0,0,0,0,0,0,0,0,0,-1,902,1219,0,0
-315,-195,0,0,0,0,0,0,0,0,0,-1,909,1219,0,0
-308,-195,0,0,0,0,0,0,0,0,0,-1,916,1219,0,0
-301,-195,0,0,0,0,0,0,0,0,0,-1,923,1219,0,0
-294,-195,0,0,0,0,0,0,0,0,0,-1,930,1219,0,0
-287,-195,0,0,0,0,0,0,0,0,0,-1,937,1219,0,0
-280,-195,0,0,0,0,0,0,0,0,0,-1,944,1219,0,0
-273,-195,0,0,0,0,0,0,0,0,0,-1,951,1219,0,0
-266,-195,0,0,0,0,0,0,0,0,0,-1,958,1219,0,0
-259,-195,0,0,0,0,0,0,0,0,0,-1,965,1219,0,0
-252,-195,0,0,0,0,0,0,0,0,0,-1,972,1219,0,0
-245,-195,0,0,0,0,0,0,0,0,0,-1,979,1219,0,0
-238,-195,0,0,0,0,0,0,0,0,0,-1,986,1219,0,0
-231,-195,0,0,0,0,0,0,0,0,0,-1,993,1219,0,0
-224,-195,0,0,0,0,0,0,0,0,0,-1,1000,1219,0,0
-217,-195,0,0,0,0,0,0,0,0,0,-1,1007,1219,0,0
-210,-195,0,0,0,0,0,0,0,0,0,-1,1014,1219,0,0
-203,-195,0,0,0,0,0,0,0,0,0,-1,1021,1219,0,0
-196,-195,0,0,0,0,0,0,0,0,0,-1,1028,1219,0,0
-189,-195,0,0,0,0,0,0,0,0,0,-1,1035,1219,0,0
-182,-195,0,0,0,0,0,0,0,0,0,-1,1042,1219,0,0
-175,-195,0,0,0,0,0,0,0,0,0,-1,1049,1219,0,0
-168,-195,0,0,0,0,0,0,0,0,0,-1,1056,1219,0,0
-161,-195,0,0,0,0,0,0,0,0,0,-1,1063,1219,0,0
-154,-195,0,0,0,0,0,0,0,0,0,-1,1070,1219,0,0
-147,-195,0,0,0,0,0,0,0,0,0,-1,1077,1219,0,0
-140,-195,0,0,0,0,0,0,0,0,0,-1,1084,1219,0,0
-133,-195,0,0,0,0,0,0,0,0,0,-1,1091,1219,0,0
-126,-195,0,0,0,0,0,0,0,0,0,-1,1098,1219,0,0
-119,-195,0,0,0,0,0,0,0,0,0,-1,1105,1219,0,0
-112,-195,0,0,0,0,0,0,0,0,0,-1,1112,1219,0,0
-105,-195,0,0,0,0,0,0,0,0,0,-1,1119,1219,0,0
-98,-195,0,0,0,0,0,0,0,0,0,-1,1126,1219,0,0
-91,-195,0,0,0,0,0,0,0,0,0,-1,1133,1219,0,0
-84,-195,0,0,0,0,0,0,0,0,0,-1,1140,1219,0,0
-77,-195,0,0,0,0,0,0,0,0,0,-1,1147,1219,0,0
-70,-195,0,0,0,0,0,0,0,0,0,-1,1154,1219,0,0
-63,-195,0,0,0,0,0,0,0,0,0,-1,1161,1219,0,0
-56,-195,0,0,0,0,0,0,0,0,0,-1,1168,1219,0,0
-49,-195,0,0,0,0,0,0,0,0,0,-1,1175,1219,0,0
-42,-195,0,0,0,0,0,0,0,0,0,-1,1182,1219,0,0
-35,-195,0,0,0,0,0,0,0,0,0,-1,1189,1219,0,0
-28,-195,0,0,0,0,0,0,0,0,0,-1,1196,1219,0,0
-21,-195,0,0,0,0,0,0,0,0,0,-1,1203,1219,0,0
-14,-195,0,0,0,0,0,0,0,0,0,-1,1210,1219,0,0
-7,-195,0,0,0,0,0,0,0,0,0,-1,1217,1219,0,0
0,-195,0,0,0,0,0,0,0,0,0,-1,1224,1219,0,0
7,-195,0,0,0,0,0,0,0,0,0,-1,1231,1219,0,0
14,-195,0,0,0,0,0,0,0,0,0,-1,1238,1219,0,0
21,-195,0,0,0,0,0,0,0,0,0,-1,1245,1219,0,0
28,-195,0,0,0,0,0,0,0,0,0,-1,1252,1219,0,0
35,-195,0,0,0,0,0,0,0,0,0,-1,1259,1219,0,0
42,-195,0,0,0,0,0,0,0,0,0,-1,1266,1219,0,0
49,-195,0,0,0,0,0,0,0,0,0,-1,1273,1219,0,0
56,-195,0,0,0,0,0,0,0,0,0,-1,1280,1219,0,0
63,-195,0,0,0,0,0,0,0,0,0,-1,1287,1219,0,0
70,-195,0,0,0,0,0,0,0,0,0,-1,1294,1219,0,0
77,-195,0,0,0,0,0,0,0,0,0,-1,1301,1219,0,0
84,-195,0,0,0,0,0,0,0,0,0,-1,1308,1219,0,0
91,-195,0,0,0,0,0,0,0,0,0,-1,1315,1219,0,0
98,-195,0,0,0,0,0,0,0,0,0,-1,1322,1219,0,0
105,-195,0,0,0,0,0,0,0,0,0,-1,1329,1219,0,0
112,-195,0,0,0,0,0,0,0,0,0,-1,1336,1219,0,0
119,-195,0,0,0,0,0,0,0,0,0,-1,1343,1219,0,0
126,-195,0,0,0,0,0,0,0,0,0,-1,1350,1219,0,0
133,-195,0,0,0,0,0,0,0,0,0,-1,1357,1219,0,0
140,-195,0,0,0,0,0,0,0,0,0,-1,1364,1219,0,0
147,-195,0,0,0,0,0,0,0,0,0,-1,1371,1219,0,0
154,-195,0,0,0,0,0,0,0,0,0,-1,1378,1219,0,0
161,-195,0,0,0,0,0,0,0,0,0,-1,1385,1219,0,0
168,-195,0,0,0,0,0,0,0,0,0,-1,1392,1219,0,0
175,-195,0,0,0,0,0,0,0,0,0,-1,1399,1219,0,0
182,-195,0,0,0,0,0,0,0,0,0,-1,1406,1219,0,0
189,-195,0,0,0,0,0,0,0,0,0,-1,1413,1219,0,0
196,-195,0,0,0,0,0,0,0,0,0,-1,1420,1219,0,0
203,-195,0,0,0,0,0,0,0,0,0,-1,1427,1219,0,0
210,-195,0,0,0,0,0,0,0,0,0,-1,1434,1219,0,0
217,-195,0,0,0,0,0,0,0,0,0,-1,1441,1219,0,0
224,-195,0,0,0,0,0,0,0,0,0,-1,1448,1219,0,0
231,-195,0,0,0,0,0,0,0,0,0,-1,1455,1219,0,0
238,-195,0,0,0,0,0,0,0,0,0,-1,1462,1219,0,0
245,-195,0,0,0,0,0,0,0,0,0,-1,1469,1219,0,0
252,-195,0,0,0,0,0,0,0,0,0,-1,1476,1219,0,0
259,-195,0,0,0,0,0,0,0,0,0,-1,1483,1219,0,0
266,-195,0,0,0,0,0,0,0,0,0,-1,1490,1219,0,0
273,-195,0,0,0,0,0,0,0,0,0,-1,1497,1219,0,0
280,-195,0,0,0,0,0,0,0,0,0,-1,1504,1219,0,0
287,-195,0,0,0,0,0,0,0,0,0,-1,1511,1219,0,0
294,-195,0,0,0,0,0,0,0,0,0,-1,1518,1219,0,0
301,-195,0,0,0,0,0,0,0,0,0,-1,1525,1219,0,0
308,-195,0,0,0,0,0,0,0,0,0,-1,1532,1219,0,0
315,-195,0,0,0,0,0,0,0,0,0,-1,1539,1219,0,0
322,-195,0,0,0,0,0,0,0,0,0,-1,1546,1219,0,0
329,-195,0,0,0,0,0,0,0,0,0,-1,1553,1219,0,0
336,-195,0,0,0,0,0,0,0,0,0,-1,1560,1219,0,0
343,-195,0,0,0,0,0,0,0,0,0,-1,1567,1219,0,0
350,-195,0,0,0,0,0,0,0,0,0,-1,1574,1219,0,0
357,-195,0,0,0,0,0,0,0,0,0,-1,1581,1219,0,0
364,-195,0,0,0,0,0,0,0,0,0,-1,1588,1219,0,0
371,-195,0,0,0,0,0,0,0,0,0,-1,1595,1219,0,0
378,-195,0,0,0,0,0,0,0,0,0,-1,1602,1219,0,0
385,-195,0,0,0,0,0,0,0,0,0,-1,1609,1219,0,0
392,-195,0,0,0,0,0,0,0,0,0,-1,1616,1219,0,0
399,-195,0,0,0,0,0,0,0,0,0,-1,1623,1219,0,0
406,-195,0,0,0,0,0,0,0,0,0,-1,1630,1219,0,0
413,-195,0,0,0,0,0,0,0,0,0,-1,1637,1219,0,0
420,-195,0,0,0,0,0,0,0,0,0,-1,1644,1219,0,0
427,-195,0,0,0,0,0,0,0,0,0,-1,1651,1219,0,0
434,-195,0,0,0,0,0,0,0,0,0,-1,1658,1219,0,0
441,-195,0,0,0,0,0,0,0,0,0,-1,1665,1219,0,0
448,-195,0,0,0,0,0,0,0,0,0,-1,1672,1219,0,0
455,-195,0,0,0,0,0,0,0,0,0,-1,1679,1219,0,0
462,-195,0,0,0,0,0,0,0,0,0,-1,1686,1219,0,0
469,-195,0,0,0,0,0,0,0,0,0,-1,1693,1219,0,0
476,-195,0,0,0,0,0,0,0,0,0,-1,1700,1219,0,0
483,-195,0,0,0,0,0,0,0,0,0,-1,1707,1219,0,0
490,-195,0,0,0,0,0,0,0,0,0,-1,1714,1219,0,0
497,-195,0,0,0,0,0,0,0,0,0,-1,1721,1219,0,0
504,-195,0,0,0,0,0,0,0,0,0,-1,1728,1219,0,0
511,-195,0,0,0,0,0,0,0,0,0,-1,1735,1219,0,0
518,-195,0,0,0,0,0,0,0,0,0,-1,1742,1219,0,0
525,-195,0,0,0,0,0,0,0,0,0,-1,1749,1219,0,0
532,-195,0,0,0,0,0,0,0,0,0,-1,1756,1219,0,0
539,-195,0,0,0,0,0,0,0,0,0,-1,1763,1219,0,0
546,-195,0,0,0,0,0,0,0,0,0,-1,1770,1219,0,0
553,-195,0,0,0,0,0,0,0,0,0,-1,1777,1219,0,0
560,-195,0,0,0,0,0,0,0,0,0,-1,1784,1219,0,0
567,-195,0,0,0,0,0,0,0,0,0,-1,1791,1219,0,0
574,-195,0,0,0,0,0,0,0,0,0,-1,1798,1219,0,0
581,-195,0,0,0,0,0,0,0,0,0,-1,1805,1219,0,0
588,-195,0,0,0,0,0,0,0,0,0,-1,1812,1219,0,0
595,-195,0,0,0,0,0,0,0,0,0,-1,1819,1219,0,0
602,-195,0,0,0,0,0,0,0,0,0,-1,1826,1219,0,0
609,-195,0,0,0,0,0,0,0,0,0,-1,1833,1219,0,0
616,-195,0,0,0,0,0,0,0,0,0,-1,1840,1219,0,0
623,-195,0,0,0,0,0,0,0,0,0,-1,1847,1219,0,0
630,-195,58.8187,2.48462,0.000109232,0.00147662,-0.000483946,0.00163057,-4.4714e-05,-1.26281,0.00110225,0.0413412,1854,1219,58.8187,-2.48465
637,-195,58.9036,2.59363,0.000263898,0.000655922,-0.000694649,0.00118168,-0.000261864,-0.92291,0.000888042,0.0403927,1861,1219,58.9036,-2.59363
644,-195,58.8522,2.7124,0.000354448,7.1373e-05,-0.000892339,0.0011164,-0.000690584,-0.706746,0.00105288,0.0349944,1868,1219,58.8522,-2.71245
651,-195,58.9064,2.62671,0.000536261,-0.000275475,-0.00113473,0.00133552,-0.00107474,-0.613649,0.00139428,0.0272975,1875,1219,58.9064,-2.62666
658,-195,58.8763,2.62622,0.000945309,-0.000674035,-0.00121876,0.00159884,-0.00132756,-0.492203,0.00169197,0.025956,1882,1219,58.8763,-2.62626
665,-195,58.8536,2.59412,0.00124801,-0.00108605,-0.00117348,0.00173598,-0.00157402,-0.394077,0.00191179,0.0247988,1889,1219,58.8536,-2.59415
672,-195,58.8893,2.47534,0.00152313,-0.00127255,-0.00105085,0.00187407,-0.0016235,-0.322315,0.00202105,0.0365501,1896,1219,58.8892,-2.47535
679,-195,58.9091,2.38757,0,0,0,0,0,0,0,-1,1903,1219,58.9091,-2.3876
686,-195,51.2117,1.94312,0,0,0,0,0,0,0,-1,1910,1219,51.2117,-1.9431
693,-195,24.4368,5.68298,0,0,0,0,0,0,0,-1,1917,1219,24.4368,-5.68293
700,-195,47.962,10.495,0,0,0,0,0,0,0,-1,1924,1219,47.962,-10.495
707,-195,47.9645,9.86597,0,0,0,0,0,0,0,-1,1931,1219,47.9645,-9.86596
714,-195,47.9929,9.12488,0,0,0,0,0,0,0,-1,1938,1219,47.9929,-9.1249
721,-195,47.8411,8.78955,0.0018964,-0.000910254,6.69694e-05,0.001898,-0.000911851,0.0238429,0.00165524,0.0321221,1945,1219,47.8411,-8.78957
728,-195,47.8541,8.28735,0.00213213,-0.0010458,0.000291555,0.00215866,-0.00107233,0.0907344,0.00190023,0.0115439,1952,1219,47.8542,-8.28736
735,-195,47.8354,7.67334,0.00252215,-0.000705208,0.000648583,0.00264761,-0.000830672,0.191084,0.00209753,0.0130827,1959,1219,47.8355,-7.67333
742,-195,47.8124,7.15161,0.00326819,-6.81643e-05,0.00108073,0.00358767,-0.000387647,0.287431,0.00253091,0.0147226,1966,1219,47.8123,-7.15159
749,-195,47.8104,6.64087,0.00474797,0.000763336,0.00152998,0.00526766,0.000243649,0.327442,0.00343344,0.0145847,1973,1219,47.8104,-6.64083
756,-195,47.7958,6.11633,0.0072118,0.00183553,0.00193607,0.00783644,0.00121089,0.312087,0.00487109,0.0139683,1980,1219,47.7958,-6.11639
763,-195,47.8014,5.56433,0.0109597,0.00306731,0.00225737,0.0115597,0.00246728,0.259803,0.00702988,0.0199439,1987,1219,47.8014,-5.56428
770,-195,47.7622,5.07336,0.0158664,0.00464309,0.00245239,0.0163789,0.00413062,0.206002,0.00983587,0.0397216,1994,1219,47.7623,-5.07331
777,-195,47.7942,4.67175,0,0,0,0,0,0,0,-1,2001,1219,47.7941,-4.67174
784,-195,51.2444,-0.069458,0,0,0,0,0,0,0,-1,2008,1219,51.2443,0.0694704
791,-195,50.6421,1.65222,0,0,0,0,0,0,0,-1,2015,1219,50.6422,-1.65218
798,-195,53.3943,2.08484,0,0,0,0,0,0,0,-1,2022,1219,53.3943,-2.08489
805,-195,0,0,0,0,0,0,0,0,0,-1,2029,1219,0,0
812,-195,0,0,0,0,0,0,0,0,0,-1,2036,1219,0,0
-700,-202,0,0,0,0,0,0,0,0,0,-1,524,1226,0,0
-693,-202,0,0,0,0,0,0,0,0,0,-1,531,1226,0,0
-686,-202,0,0,0,0,0,0,0,0,0,-1,538,1226,0,0
-679,-202,-33.0636,2.95276,0.0275123,-0.084675,0.00511012,0.0277446,-0.0849073,0.0454245,0.0677732,0.0439143,545,1226,-33.0636,-2.95282
-672,-202,-33.1461,4.6261,0.0285791,-0.0682341,-0.00211821,0.0286254,-0.0682804,-0.0218654,0.0574888,0.0452109,552,1226,-33.146,-4.62605
-665,-202,-33.4502,6.08801,0.0277713,-0.0540421,-0.0049482,0.0280695,-0.0543403,-0.0601891,0.0483785,0.0464577,559,1226,-33.4502,-6.08804
-658,-202,-33.8228,7.50098,0,0,0,0,0,0,0,-1,566,1226,-33.8228,-7.50103
-651,-202,-33.5885,0.5896,0,0,0,0,0,0,0,-1,573,1226,-33.5885,-0.589651
-644,-202,-33.0456,1.53809,0.0195641,-0.020649,-0.00320414,0.0198178,-0.0209027,-0.0790145,0.0235128,0.0479504,580,1226,-33.0456,-1.53809
-637,-202,-32.1876,2.59375,0.015756,-0.0127011,-0.00187514,0.015879,-0.0128242,-0.0655158,0.0166031,0.0438424,587,1226,-32.1876,-2.59381
-630,-202,-32.3352,3.11646,0.0112927,-0.0067423,0.000118367,0.0112935,-0.00674307,0.00656278,0.0105233,0.0196344,594,1226,-32.3352,-3.11641
-623,-202,-32.3519,3.70288,0.00782062,-0.00161259,0.000679994,0.00786939,-0.00166136,0.0715918,0.00587882,0.00869683,601,1226,-32.3519,-3.70289
-616,-202,-32.3788,4.28894,0.00466778,0.00128636,0.000579961,0.00476449,0.00118965,0.165225,0.00286337,0.00837631,608,1226,-32.3789,-4.28895
-609,-202,-32.3856,4.90356,0.00197302,0.000838353,-0.000774227,0.00236552,0.000445844,-0.469206,0.00145141,0.0211011,615,1226,-32.3856,-4.90353
-602,-202,-32.4315,5.43579,0.000169487,-7.48956e-05,-0.0015726,0.00162463,-0.00153004,-0.746626,0.00182163,0.0203633,622,1226,-32.4315,-5.43583
-595,-202,-32.4999,6.02551,-0.000419878,-0.00127844,-0.00176384,0.000966166,-0.00266449,-0.666029,0.00217126,0.0157157,629,1226,-32.4999,-6.02546
-588,-202,-32.4695,6.59521,-0.000660842,-0.00127486,-0.0017745,0.000833011,-0.00276872,-0.69974,0.00217726,0.0195361,636,1226,-32.4695,-6.59522
-581,-202,-32.3422,7.18555,0,0,0,0,0,0,0,-1,643,1226,-32.3422,-7.18551
-574,-202,-26.922,5.99512,0,0,0,0,0,0,0,-1,650,1226,-26.922,-5.99512
-567,-202,-22.1768,4.56995,0,0,0,0,0,0,0,-1,657,1226,-22.1768,-4.56991
-560,-202,-10.929,2.73096,0,0,0,0,0,0,0,-1,664,1226,-10.929,-2.73092
-553,-202,-30.2701,1.474,0,0,0,0,0,0,0,-1,671,1226,-30.2701,-1.47395
-546,-202,-44.1683,0.663818,0,0,0,0,0,0,0,-1,678,1226,-44.1683,-0.663833
-539,-202,-44.1929,0.800049,-0.000295018,-0.00260233,-0.00174763,0.000645394,-0.00354274,-0.493667,0.00260376,0.0452996,685,1226,-44.1929,-0.800034
-532,-202,-44.2989,0.831787,-0.000649864,-0.00233691,-0.0018007,0.000495092,-0.00348187,-0.566356,0.00250266,0.0291307,692,1226,-44.2989,-0.831769
-525,-202,-44.3171,0.907104,-0.000689915,-0.00182466,-0.00204482,0.000864791,-0.00337936,-0.650069,0.00258976,0.031958,699,1226,-44.3171,-0.907127
-518,-202,-44.4377,1.0885,0.000158393,-0.00125925,-0.00247681,0.00202581,-0.00312667,-0.646031,0.00299733,0.0366346,706,1226,-44.4378,-1.08854
-511,-202,-44.4765,0.954346,0.00343005,-0.00073432,-0.00336924,0.00530859,-0.00261285,-0.508624,0.00466088,0.0416587,713,1226,-44.4765,-0.954341
-504,-202,0,0,0,0,0,0,0,0,0,-1,720,1226,0,0
-497,-202,0,0,0,0,0,0,0,0,0,-1,727,1226,0,0
-490,-202,0,0,0,0,0,0,0,0,0,-1,734,1226,0,0
-483,-202,0,0,0,0,0,0,0,0,0,-1,741,1226,0,0
-476,-202,0,0,0,0,0,0,0,0,0,-1,748,1226,0,0
-469,-202,0,0,0,0,0,0,0,0,0,-1,755,1226,0,0
-462,-202,0,0,0,0,0,0,0,0,0,-1,762,1226,0,0
-455,-202,0,0,0,0,0,0,0,0,0,-1,769,1226,0,0
-448,-202,0,0,0,0,0,0,0,0,0,-1,776,1226,0,0
-441,-202,0,0,0,0,0,0,0,0,0,-1,783,1226,0,0
-434,-202,0,0,0,0,0,0,0,0,0,-1,790,1226,0,0
-427,-202,0,0,0,0,0,0,0,0,0,-1,797,1226,0,0
-420,-202,0,0,0,0,0,0,0,0,0,-1,804,1226,0,0
-413,-202,0,0,0,0,0,0,0,0,0,-1,811,1226,0,0
-406,-202,0,0,0,0,0,0,0,0,0,-1,818,1226,0,0
-399,-202,0,0,0,0,0,0,0,0,0,-1,825,1226,0,0
-392,-202,0,0,0,0,0,0,0,0,0,-1,832,1226,0,0
-385,-202,0,0,0,0,0,0,0,0,0,-1,839,1226,0,0
-378,-202,0,0,0,0,0,0,0,0,0,-1,846,1226,0,0
-371,-202,0,0,0,0,0,0,0,0,0,-1,853,1226,0,0
-364,-202,0,0,0,0,0,0,0,0,0,-1,860,1226,0,0
-357,-202,0,0,0,0,0,0,0,0,0,-1,867,1226,0,0
-350,-202,0,0,0,0,0,0,0,0,0,-1,874,1226,0,0
-343,-202,0,0,0,0,0,0,0,0,0,-1,881,1226,0,0
-336,-202,0,0,0,0,0,0,0,0,0,-1,888,1226,0,0
-329,-202,0,0,0,0,0,0,0,0,0,-1,895,1226,0,0
-322,-202,0,0,0,0,0,0,0,0,0,-1,902,1226,0,0
-315,-202,0,0,0,0,0,0,0,0,0,-1,909,1226,0,0
-308,-202,0,0,0,0,0,0,0,0,0,-1,916,1226,0,0
-301,-202,0,0,0,0,0,0,0,0,0,-1,923,1226,0,0
-294,-202,0,0,0,0,0,0,0,0,0,-1,930,1226,0,0
-287,-202,0,0,0,0,0,0,0,0,0,-1,937,1226,0,0
-280,-202,0,0,0,0,0,0,0,0,0,-1,944,1226,0,0
-273,-202,0,0,0,0,0,0,0,0,0,-1,951,1226,0,0
-266,-202,0,0,0,0,0,0,0,0,0,-1,958,1226,0,0
-259,-202,0,0,0,0,0,0,0,0,0,-1,965,1226,0,0
-252,-202,0,0,0,0,0,0,0,0,0,-1,972,1226,0,0
-245,-202,0,0,0,0,0,0,0,0,0,-1,979,1226,0,0
-238,-202,0,0,0,0,0,0,0,0,0,-1,986,1226,0,0
-231,-202,0,0,0,0,0,0,0,0,0,-1,993,1226,0,0
-224,-202,0,0,0,0,0,0,0,0,0,-1,1000,1226,0,0
-217,-202,0,0,0,0,0,0,0,0,0,-1,1007,1226,0,0
-210,-202,0,0,0,0,0,0,0,0,0,-1,1014,1226,0,0
-203,-202,0,0,0,0,0,0,0,0,0,-1,1021,1226,0,0
-196,-202,0,0,0,0,0,0,0,0,0,-1,1028,1226,0,0
-189,-202,0,0,0,0,0,0,0,0,0,-1,1035,1226,0,0
-182,-202,0,0,0,0,0,0,0,0,0,-1,1042,1226,0,0
-175,-202,0,0,0,0,0,0,0,0,0,-1,1049,1226,0,0
-168,-202,0,0,0,0,0,0,0,0,0,-1,1056,1226,0,0
-161,-202,0,0,0,0,0,0,0,0,0,-1,1063,1226,0,0
-154,-202,0,0,0,0,0,0,0,0,0,-1,1070,1226,0,0
-147,-202,0,0,0,0,0,0,0,0,0,-1,1077,1226,0,0
-140,-202,0,0,0,0,0,0,0,0,0,-1,1084,1226,0,0
-133,-202,0,0,0,0,0,0,0,0,0,-1,1091,1226,0,0
-126,-202,0,0,0,0,0,0,0,0,0,-1,1098,1226,0,0
-119,-202,0,0,0,0,0,0,0,0,0,-1,1105,1226,0,0
-112,-202,0,0,0,0,0,0,0,0,0,-1,1112,1226,0,0
-105,-202,0,0,0,0,0,0,0,0,0,-1,1119,1226,0,0
-98,-202,0,0,0,0,0,0,0,0,0,-1,1126,1226,0,0
-91,-202,0,0,0,0,0,0,0,0,0,-1,1133,1226,0,0
-84,-202,0,0,0,0,0,0,0,0,0,-1,1140,1226,0,0
-77,-202,0,0,0,0,0,0,0,0,0,-1,1147,1226,0,0
-70,-202,0,0,0,0,0,0,0,0,0,-1,1154,1226,0,0
-63,-202,0,0,0,0,0,0,0,0,0,-1,1161,1226,0,0
-56,-202,0,0,0,0,0,0,0,0,0,-1,1168,1226,0,0
-49,-202,0,0,0,0,0,0,0,0,0,-1,1175,1226,0,0
-42,-202,0,0,0,0,0,0,0,0,0,-1,1182,1226,0,0
-35,-202,0,0,0,0,0,0,0,0,0,-1,1189,1226,0,0
-28,-202,0,0,0,0,0,0,0,0,0,-1,1196,1226,0,0
-21,-202,0,0,0,0,0,0,0,0,0,-1,1203,1226,0,0
-14,-202,0,0,0,0,0,0,0,0,0,-1,1210,1226,0,0
-7,-202,0,0,0,0,0,0,0,0,0,-1,1217,1226,0,0
0,-202,0,0,0,0,0,0,0,0,0,-1,1224,1226,0,0
7,-202,0,0,0,0,0,0,0,0,0,-1,1231,1226,0,0
14,-202,0,0,0,0,0,0,0,0,0,-1,1238,1226,0,0
21,-202,0,0,0,0,0,0,0,0,0,-1,1245,1226,0,0
28,-202,0,0,0,0,0,0,0,0,0,-1,1252,1226,0,0
35,-202,0,0,0,0,0,0,0,0,0,-1,1259,1226,0,0
42,-202,0,0,0,0,0,0,0,0,0,-1,1266,1226,0,0
49,-202,0,0,0,0,0,0,0,0,0,-1,1273,1226,0,0
56,-202,0,0,0,0,0,0,0,0,0,-1,1280,1226,0,0
63,-202,0,0,0,0,0,0,0,0,0,-1,1287,1226,0,0
70,-202,0,0,0,0,0,0,0,0,0,-1,1294,1226,0,0
77,-202,0,0,0,0,0,0,0,0,0,-1,1301,1226,0,0
84,-202,0,0,0,0,0,0,0,0,0,-1,1308,1226,0,0
91,-202,0,0,0,0,0,0,0,0,0,-1,1315,1226,0,0
98,-202,0,0,0,0,0,0,0,0,0,-1,1322,1226,0,0
105,-202,0,0,0,0,0,0,0,0,0,-1,1329,1226,0,0
112,-202,0,0,0,0,0,0,0,0,0,-1,1336,1226,0,0
119,-202,0,0,0,0,0,0,0,0,0,-1,1343,1226,0,0
126,-202,0,0,0,0,0,0,0,0,0,-1,1350,1226,0,0
133,-202,0,0,0,0,0,0,0,0,0,-1,1357,1226,0,0
140,-202,0,0,0,0,0,0,0,0,0,-1,1364,1226,0,0
147,-202,0,0,0,0,0,0,0,0,0,-1,1371,1226,0,0
154,-202,0,0,0,0,0,0,0,0,0,-1,1378,1226,0,0
161,-202,0,0,0,0,0,0,0,0,0,-1,1385,1226,0,0
168,-202,0,0,0,0,0,0,0,0,0,-1,1392,1226,0,0
175,-202,0,0,0,0,0,0,0,0,0,-1,1399,1226,0,0
182,-202,0,0,0,0,0,0,0,0,0,-1,1406,1226,0,0
189,-202,0,0,0,0,0,0,0,0,0,-1,1413,1226,0,0
196,-202,0,0,0,0,0,0,0,0,0,-1,1420,1226,0,0
203,-202,0,0,0,0,0,0,0,0,0,-1,1427,1226,0,0
210,-202,0,0,0,0,0,0,0,0,0,-1,1434,1226,0,0
217,-202,0,0,0,0,0,0,0,0,0,-1,1441,1226,0,0
224,-202,0,0,0,0,0,0,0,0,0,-1,1448,1226,0,0
231,-202,0,0,0,0,0,0,0,0,0,-1,1455,1226,0,0
238,-202,0,0,0,0,0,0,0,0,0,-1,1462,1226,0,0
245,-202,0,0,0,0,0,0,0,0,0,-1,1469,1226,0,0
252,-202,0,0,0,0,0,0,0,0,0,-1,1476,1226,0,0
259,-202,0,0,0,0,0,0,0,0,0,-1,1483,1226,0,0
266,-202,0,0,0,0,0,0,0,0,0,-1,1490,1226,0,0
273,-202,0,0,0,0,0,0,0,0,0,-1,1497,1226,0,0
280,-202,0,0,0,0,0,0,0,0,0,-1,1504,1226,0,0
287,-202,0,0,0,0,0,0,0,0,0,-1,1511,1226,0,0
294,-202,0,0,0,0,0,0,0,0,0,-1,1518,1226,0,0
301,-202,0,0,0,0,0,0,0,0,0,-1,1525,1226,0,0
308,-202,0,0,0,0,0,0,0,0,0,-1,1532,1226,0,0
315,-202,0,0,0,0,0,0,0,0,0,-1,1539,1226,0,0
322,-202,0,0,0,0,0,0,0,0,0,-1,1546,1226,0,0
329,-202,0,0,0,0,0,0,0,0,0,-1,1553,1226,0,0
336,-202,0,0,0,0,0,0,0,0,0,-1,1560,1226,0,0
343,-202,0,0,0,0,0,0,0,0,0,-1,1567,1226,0,0
350,-202,0,0,0,0,0,0,0,0,0,-1,1574,1226,0,0
357,-202,0,0,0,0,0,0,0,0,0,-1,1581,1226,0,0
364,-202,0,0,0,0,0,0,0,0,0,-1,1588,1226,0,0
371,-202,0,0,0,0,0,0,0,0,0,-1,1595,1226,0,0
378,-202,0,0,0,0,0,0,0,0,0,-1,1602,1226,0,0
385,-202,0,0,0,0,0,0,0,0,0,-1,1609,1226,0,0
392,-202,0,0,0,0,0,0,0,0,0,-1,1616,1226,0,0
399,-202,0,0,0,0,0,0,0,0,0,-1,1623,1226,0,0
406,-202,0,0,0,0,0,0,0,0,0,-1,1630,1226,0,0
413,-202,0,0,0,0,0,0,0,0,0,-1,1637,1226,0,0
420,-202,0,0,0,0,0,0,0,0,0,-1,1644,1226,0,0
427,-202,0,0,0,0,0,0,0,0,0,-1,1651,1226,0,0
434,-202,0,0,0,0,0,0,0,0,0,-1,1658,1226,0,0
441,-202,0,0,0,0,0,0,0,0,0,-1,1665,1226,0,0
448,-202,0,0,0,0,0,0,0,0,0,-1,1672,1226,0,0
455,-202,0,0,0,0,0,0,0,0,0,-1,1679,1226,0,0
462,-202,0,0,0,0,0,0,0,0,0,-1,1686,1226,0,0
469,-202,0,0,0,0,0,0,0,0,0,-1,1693,1226,0,0
476,-202,0,0,0,0,0,0,0,0,0,-1,1700,1226,0,0
483,-202,0,0,0,0,0,0,0,0,0,-1,1707,1226,0,0
490,-202,0,0,0,0,0,0,0,0,0,-1,1714,1226,0,0
497,-202,0,0,0,0,0,0,0,0,0,-1,1721,1226,0,0
504,-202,0,0,0,0,0,0,0,0,0,-1,1728,1226,0,0
511,-202,0,0,0,0,0,0,0,0,0,-1,1735,1226,0,0
518,-202,0,0,0,0,0,0,0,0,0,-1,1742,1226,0,0
525,-202,0,0,0,0,0,0,0,0,0,-1,1749,1226,0,0
532,-202,0,0,0,0,0,0,0,0,0,-1,1756,1226,0,0
539,-202,0,0,0,0,0,0,0,0,0,-1,1763,1226,0,0
546,-202,0,0,0,0,0,0,0,0,0,-1,1770,1226,0,0
553,-202,0,0,0,0,0,0,0,0,0,-1,1777,1226,0,0
560,-202,0,0,0,0,0,0,0,0,0,-1,1784,1226,0,0
567,-202,0,0,0,0,0,0,0,0,0,-1,1791,1226,0,0
574,-202,0,0,0,0,0,0,0,0,0,-1,1798,1226,0,0
581,-202,0,0,0,0,0,0,0,0,0,-1,1805,1226,0,0
588,-202,0,0,0,0,0,0,0,0,0,-1,1812,1226,0,0
595,-202,0,0,0,0,0,0,0,0,0,-1,1819,1226,0,0
602,-202,0,0,0,0,0,0,0,0,0,-1,1826,1226,0,0
609,-202,0,0,0,0,0,0,0,0,0,-1,1833,1226,0,0
616,-202,0,0,0,0,0,0,0,0,0,-1,1840,1226,0,0
623,-202,0,0,0,0,0,0,0,0,0,-1,1847,1226,0,0
630,-202,58.792,2.61316,9.28008e-05,0.00216149,-0.000318727,0.00220949,4.48073e-05,-1.42134,0.00145829,0.0390635,1854,1226,58.792,-2.61315
637,-202,58.974,2.74792,-7.57227e-05,0.000870296,-0.000541236,0.00111609,-0.000321514,-1.14451,0.000871234,0.036158,1861,1226,58.974,-2.74789
644,-202,58.9628,2.66541,-0.000203985,-0.000214061,-0.000794068,0.000585061,-0.00100311,-0.782226,0.000927457,0.0305817,1868,1226,58.9628,-2.66543
651,-202,58.9453,2.56348,-8.15748e-05,-0.000875851,-0.00108292,0.000674736,-0.00163216,-0.609649,0.00136959,0.02412,1875,1226,58.9453,-2.5635
658,-202,58.9204,2.57312,0.000392315,-0.00136284,-0.0011806,0.000985777,-0.0019563,-0.465788,0.00172914,0.0224314,1882,1226,58.9204,-2.57317
665,-202,58.9307,2.52649,0.000776584,-0.00171384,-0.00114875,0.00122553,-0.00216278,-0.372563,0.00198103,0.0217145,1889,1226,58.9307,-2.52653
672,-202,58.9482,2.45679,0.00111853,-0.00179653,-0.00105469,0.0014601,-0.0021381,-0.3132,0.00208968,0.043581,1896,1226,58.9482,-2.45673
679,-202,58.9891,2.37268,0,0,0,0,0,0,0,-1,1903,1226,58.9891,-2.37269
686,-202,49.1708,2.15198,0,0,0,0,0,0,0,-1,1910,1226,49.1708,-2.15195
693,-202,47.1107,11.2172,0,0,0,0,0,0,0,-1,1917,1226,47.1107,-11.2172
700,-202,47.2961,10.4974,0.0013993,-0.00175671,-0.000479932,0.00147066,-0.00182808,-0.147625,0.00190826,0.0466754,1924,1226,47.2962,-10.4974
707,-202,47.3999,9.70032,0.00158077,-0.00175413,-0.000198071,0.00159249,-0.00176585,-0.0591163,0.0019398,0.03235,1931,1226,47.3999,-9.70032
714,-202,47.3265,9.20947,0.00170585,-0.00161542,-1.45282e-05,0.00170591,-0.00161548,-0.00437419,0.00191784,0.0316021,1938,1226,47.3265,-9.20947
721,-202,47.3384,8.83826,0.00172429,-0.00141564,0.000166431,0.00173309,-0.00142444,0.0528076,0.0018259,0.0177762,1945,1226,47.3384,-8.83828
728,-202,47.3247,8.28052,0.00186467,-0.0014283,0.000506576,0.00194084,-0.00150447,0.14924,0.00199446,0.011452,1952,1226,47.3247,-8.28051
735,-202,47.3016,7.72046,0.0021785,-0.000967696,0.000959984,0.00244828,-0.00123748,0.273962,0.00216591,0.0114694,1959,1226,47.3017,-7.72042
742,-202,47.2804,7.17542,0.00284275,-0.000373187,0.00149837,0.00343266,-0.000963099,0.375066,0.00266806,0.0126016,1966,1226,47.2804,-7.17546
749,-202,47.2363,6.6488,0.00413396,0.000264833,0.00207356,0.00503527,-0.000636478,0.410031,0.00358788,0.0131212,1973,1226,47.2364,-6.64879
756,-202,47.2347,6.13086,0.00629281,0.000985285,0.00260842,0.00736011,-8.20165e-05,0.388391,0.00493431,0.0125819,1980,1226,47.2347,-6.13082
763,-202,47.318,5.64819,0.00979829,0.00168864,0.00311357,0.0108558,0.000631134,0.32742,0.00703626,0.0227214,1987,1226,47.318,-5.64814
770,-202,47.3921,5.21582,0,0,0,0,0,0,0,-1,1994,1226,47.3921,-5.2158
777,-202,53.3003,-4.00098,0,0,0,0,0,0,0,-1,2001,1226,53.3002,4.00099
784,-202,52.9231,-1.28162,0,0,0,0,0,0,0,-1,2008,1226,52.9232,1.28167
791,-202,52.2668,1.22656,0,0,0,0,0,0,0,-1,2015,1226,52.2668,-1.22651
798,-202,51.8999,3.58789,0,0,0,0,0,0,0,-1,2022,1226,51.9,-3.58791
805,-202,0,0,0,0,0,0,0,0,0,-1,2029,1226,0,0
812,-202,0,0,0,0,0,0,0,0,0,-1,2036,1226,0,0
-700,-209,0,0,0,0,0,0,0,0,0,-1,524,1233,0,0
-693,-209,0,0,0,0,0,0,0,0,0,-1,531,1233,0,0
-686,-209,0,0,0,0,0,0,0,0,0,-1,538,1233,0,0
-679,-209,-32.3835,4.06299,0,0,0,0,0,0,0,-1,545,1233,-32.3835,-4.06304
-672,-209,-32.7742,5.66345,0,0,0,0,0,0,0,-1,552,1233,-32.7742,-5.66349
-665,-209,-33.6583,6.54285,0,0,0,0,0,0,0,-1,559,1233,-33.6583,-6.54279
-658,-209,-34.0275,8.03223,0,0,0,0,0,0,0,-1,566,1233,-34.0275,-8.03219
-651,-209,-33.4877,-0.122192,0,0,0,0,0,0,0,-1,573,1233,-33.4877,0.122169
-644,-209,-32.9808,1.31396,0,0,0,0,0,0,0,-1,580,1233,-32.9808,-1.31401
-637,-209,-31.6765,2.58301,0,0,0,0,0,0,0,-1,587,1233,-31.6765,-2.58296
-630,-209,-31.6125,3.07361,0.0113509,-0.00623345,0.00197111,0.0115691,-0.00645169,0.110271,0.0105432,0.0338209,594,1233,-31.6125,-3.07361
-623,-209,-31.7364,3.70178,0.00811381,-0.000777696,0.00188179,0.00849567,-0.00115956,0.200206,0.00608723,0.0147446,601,1233,-31.7364,-3.7018
-616,-209,-31.7873,4.31677,0.00521775,0.00203671,0.00133887,0.00570625,0.00154821,0.349852,0.00340743,0.0116502,608,1233,-31.7873,-4.31672
-609,-209,-31.8233,4.90784,0.00279829,0.00143481,-0.000281816,0.00285424,0.00137886,-0.195992,0.00164821,0.0140883,615,1233,-31.8233,-4.90781
-602,-209,-31.843,5.47424,0.000996897,0.000257858,-0.00108207,0.0017708,-0.000516047,-0.62086,0.00138498,0.016188,622,1233,-31.843,-5.47421
-595,-209,-31.8508,6.04236,0.000222043,-0.00112471,-0.00138252,0.00108646,-0.00198912,-0.558776,0.001801,0.0120838,629,1233,-31.8508,-6.04232
-588,-209,-31.861,6.66711,-0.000113466,-0.00136481,-0.00143967,0.000830615,-0.00230889,-0.580415,0.00187838,0.0226919,636,1233,-31.861,-6.66711
-581,-209,-31.8582,7.29492,0,0,0,0,0,0,0,-1,643,1233,-31.8582,-7.29492
-574,-209,-26.2147,6.6123,0,0,0,0,0,0,0,-1,650,1233,-26.2147,-6.61234
-567,-209,-26.2951,6.92981,0,0,0,0,0,0,0,-1,657,1233,-26.2951,-6.92986
-560,-209,-13.9294,4.16626,0,0,0,0,0,0,0,-1,664,1233,-13.9294,-4.16621
-553,-209,-22.7542,0.748779,0,0,0,0,0,0,0,-1,671,1233,-22.7541,-0.748796
-546,-209,-44.1865,0.565186,0,0,0,0,0,0,0,-1,678,1233,-44.1864,-0.565183
-539,-209,-44.1834,0.714355,-0.00041986,-0.00211819,-0.00155005,0.000498384,-0.00303643,-0.53481,0.00220923,0.0446198,685,1233,-44.1834,-0.714364
-532,-209,-44.2239,0.918091,-0.000958255,-0.00164822,-0.0017318,0.000462588,-0.00306907,-0.687082,0.00221639,0.0320975,692,1233,-44.224,-0.91809
-525,-209,-44.3799,1.07764,-0.00140209,-0.000877108,-0.00208248,0.000959354,-0.00323856,-0.848092,0.00253995,0.0321444,699,1233,-44.3799,-1.07759
-518,-209,-44.524,1.12292,-0.001379,5.38959e-05,-0.00258238,0.00201737,-0.00334247,-0.920713,0.00312587,0.0392737,706,1233,-44.5241,-1.12292
-511,-209,-44.5222,0.921509,0.000523165,0.00095142,-0.0035657,0.00430941,-0.00283483,-0.815388,0.00415391,0.0414688,713,1233,-44.5222,-0.921524
-504,-209,0,0,0,0,0,0,0,0,0,-1,720,1233,0,0
-497,-209,0,0,0,0,0,0,0,0,0,-1,727,1233,0,0
-490,-209,0,0,0,0,0,0,0,0,0,-1,734,1233,0,0
-483,-209,0,0,0,0,0,0,0,0,0,-1,741,1233,0,0
-476,-209,0,0,0,0,0,0,0,0,0,-1,748,1233,0,0
-469,-209,0,0,0,0,0,0,0,0,0,-1,755,1233,0,0
-462,-209,0,0,0,0,0,0,0,0,0,-1,762,1233,0,0
-455,-209,0,0,0,0,0,0,0,0,0,-1,769,1233,0,0
-448,-209,0,0,0,0,0,0,0,0,0,-1,776,1233,0,0
-441,-209,0,0,0,0,0,0,0,0,0,-1,783,1233,0,0
-434,-209,0,0,0,0,0,0,0,0,0,-1,790,1233,0,0
-427,-209,0,0,0,0,0,0,0,0,0,-1,797,1233,0,0
-420,-209,0,0,0,0,0,0,0,0,0,-1,804,1233,0,0
-413,-209,0,0,0,0,0,0,0,0,0,-1,811,1233,0,0
-406,-209,0,0,0,0,0,0,0,0,0,-1,818,1233,0,0
-399,-209,0,0,0,0,0,0,0,0,0,-1,825,1233,0,0
-392,-209,0,0,0,0,0,0,0,0,0,-1,832,1233,0,0
-385,-209,0,0,0,0,0,0,0,0,0,-1,839,1233,0,0
-378,-209,0,0,0,0,0,0,0,0,0,-1,846,1233,0,0
-371,-209,0,0,0,0,0,0,0,0,0,-1,853,1233,0,0
-364,-209,0,0,0,0,0,0,0,0,0,-1,860,1233,0,0
-357,-209,0,0,0,0,0,0,0,0,0,-1,867,1233,0,0
-350,-209,0,0,0,0,0,0,0,0,0,-1,874,1233,0,0
-343,-209,0,0,0,0,0,0,0,0,0,-1,881,1233,0,0
-336,-209,0,0,0,0,0,0,0,0,0,-1,888,1233,0,0
-329,-209,0,0,0,0,0,0,0,0,0,-1,895,1233,0,0
-322,-209,0,0,0,0,0,0,0,0,0,-1,902,1233,0,0
-315,-209,0,0,0,0,0,0,0,0,0,-1,909,1233,0,0
-308,-209,0,0,0,0,0,0,0,0,0,-1,916,1233,0,0
-301,-209,0,0,0,0,0,0,0,0,0,-1,923,1233,0,0
-294,-209,0,0,0,0,0,0,0,0,0,-1,930,1233,0,0
-287,-209,0,0,0,0,0,0,0,0,0,-1,937,1233,0,0
-280,-209,0,0,0,0,0,0,0,0,0,-1,944,1233,0,0
-273,-209,0,0,0,0,0,0,0,0,0,-1,951,1233,0,0
-266,-209,0,0,0,0,0,0,0,0,0,-1,958,1233,0,0
-259,-209,0,0,0,0,0,0,0,0,0,-1,965,1233,0,0
-252,-209,0,0,0,0,0,0,0,0,0,-1,972,1233,0,0
-245,-209,0,0,0,0,0,0,0,0,0,-1,979,1233,0,0
-238,-209,0,0,0,0,0,0,0,0,0,-1,986,1233,0,0
-231,-209,0,0,0,0,0,0,0,0,0,-1,993,1233,0,0
-224,-209,0,0,0,0,0,0,0,0,0,-1,1000,1233,0,0
-217,-209,0,0,0,0,0,0,0,0,0,-1,1007,1233,0,0
-210,-209,0,0,0,0,0,0,0,0,0,-1,1014,1233,0,0
-203,-209,0,0,0,0,0,0,0,0,0,-1,1021,1233,0,0
-196,-209,0,0,0,0,0,0,0,0,0,-1,1028,1233,0,0
-189,-209,0,0,0,0,0,0,0,0,0,-1,1035,1233,0,0
-182,-209,0,0,0,0,0,0,0,0,0,-1,1042,1233,0,0
-175,-209,0,0,0,0,0,0,0,0,0,-1,1049,1233,0,0
-168,-209,0,0,0,0,0,0,0,0,0,-1,1056,1233,0,0
-161,-209,0,0,0,0,0,0,0,0,0,-1,1063,1233,0,0
-154,-209,0,0,0,0,0,0,0,0,0,-1,1070,1233,0,0
-147,-209,0,0,0,0,0,0,0,0,0,-1,1077,1233,0,0
-140,-209,0,0,0,0,0,0,0,0,0,-1,1084,1233,0,0
-133,-209,0,0,0,0,0,0,0,0,0,-1,1091,1233,0,0
-126,-209,0,0,0,0,0,0,0,0,0,-1,1098,1233,0,0
-119,-209,0,0,0,0,0,0,0,0,0,-1,1105,1233,0,0
-112,-209,0,0,0,0,0,0,0,0,0,-1,1112,1233,0,0
-105,-209,0,0,0,0,0,0,0,0,0,-1,1119,1233,0,0
-98,-209,0,0,0,0,0,0,0,0,0,-1,1126,1233,0,0
-91,-209,0,0,0,0,0,0,0,0,0,-1,1133,1233,0,0
-84,-209,0,0,0,0,0,0,0,0,0,-1,1140,1233,0,0
-77,-209,0,0,0,0,0,0,0,0,0,-1,1147,1233,0,0
-70,-209,0,0,0,0,0,0,0,0,0,-1,1154,1233,0,0
-63,-209,0,0,0,0,0,0,0,0,0,-1,1161,1233,0,0
-56,-209,0,0,0,0,0,0,0,0,0,-1,1168,1233,0,0
-49,-209,0,0,0,0,0,0,0,0,0,-1,1175,1233,0,0
-42,-209,0,0,0,0,0,0,0,0,0,-1,1182,1233,0,0
-35,-209,0,0,0,0,0,0,0,0,0,-1,1189,1233,0,0
-28,-209,0,0,0,0,0,0,0,0,0,-1,1196,1233,0,0
-21,-209,0,0,0,0,0,0,0,0,0,-1,1203,1233,0,0
-14,-209,0,0,0,0,0,0,0,0,0,-1,1210,1233,0,0
-7,-209,0,0,0,0,0,0,0,0,0,-1,1217,1233,0,0
0,-209,0,0,0,0,0,0,0,0,0,-1,1224,1233,0,0
7,-209,0,0,0,0,0,0,0,0,0,-1,1231,1233,0,0
14,-209,0,0,0,0,0,0,0,0,0,-1,1238,1233,0,0
21,-209,0,0,0,0,0,0,0,0,0,-1,1245,1233,0,0
28,-209,0,0,0,0,0,0,0,0,0,-1,1252,1233,0,0
35,-209,0,0,0,0,0,0,0,0,0,-1,1259,1233,0,0
42,-209,0,0,0,0,0,0,0,0,0,-1,1266,1233,0,0
49,-209,0,0,0,0,0,0,0,0,0,-1,1273,1233,0,0
56,-209,0,0,0,0,0,0,0,0,0,-1,1280,1233,0,0
63,-209,0,0,0,0,0,0,0,0,0,-1,1287,1233,0,0
70,-209,0,0,0,0,0,0,0,0,0,-1,1294,1233,0,0
77,-209,0,0,0,0,0,0,0,0,0,-1,1301,1233,0,0
84,-209,0,0,0,0,0,0,0,0,0,-1,1308,1233,0,0
91,-209,0,0,0,0,0,0,0,0,0,-1,1315,1233,0,0
98,-209,0,0,0,0,0,0,0,0,0,-1,1322,1233,0,0
105,-209,0,0,0,0,0,0,0,0,0,-1,1329,1233,0,0
112,-209,0,0,0,0,0,0,0,0,0,-1,1336,1233,0,0
119,-209,0,0,0,0,0,0,0,0,0,-1,1343,1233,0,0
126,-209,0,0,0,0,0,0,0,0,0,-1,1350,1233,0,0
133,-209,0,0,0,0,0,0,0,0,0,-1,1357,1233,0,0
140,-209,0,0,0,0,0,0,0,0,0,-1,1364,1233,0,0
147,-209,0,0,0,0,0,0,0,0,0,-1,1371,1233,0,0
154,-209,0,0,0,0,0,0,0,0,0,-1,1378,1233,0,0
161,-209,0,0,0,0,0,0,0,0,0,-1,1385,1233,0,0
168,-209,0,0,0,0,0,0,0,0,0,-1,1392,1233,0,0
175,-209,0,0,0,0,0,0,0,0,0,-1,1399,1233,0,0
182,-209,0,0,0,0,0,0,0,0,0,-1,1406,1233,0,0
189,-209,0,0,0,0,0,0,0,0,0,-1,1413,1233,0,0
196,-209,0,0,0,0,0,0,0,0,0,-1,1420,1233,0,0
203,-209,0,0,0,0,0,0,0,0,0,-1,1427,1233,0,0
210,-209,0,0,0,0,0,0,0,0,0,-1,1434,1233,0,0
217,-209,0,0,0,0,0,0,0,0,0,-1,1441,1233,0,0
224,-209,0,0,0,0,0,0,0,0,0,-1,1448,1233,0,0
231,-209,0,0,0,0,0,0,0,0,0,-1,1455,1233,0,0
238,-209,0,0,0,0,0,0,0,0,0,-1,1462,1233,0,0
245,-209,0,0,0,0,0,0,0,0,0,-1,1469,1233,0,0
252,-209,0,0,0,0,0,0,0,0,0,-1,1476,1233,0,0
259,-209,0,0,0,0,0,0,0,0,0,-1,1483,1233,0,0
266,-209,0,0,0,0,0,0,0,0,0,-1,1490,1233,0,0
273,-209,0,0,0,0,0,0,0,0,0,-1,1497,1233,0,0
280,-209,0,0,0,0,0,0,0,0,0,-1,1504,1233,0,0
287,-209,0,0,0,0,0,0,0,0,0,-1,1511,1233,0,0
294,-209,0,0,0,0,0,0,0,0,0,-1,1518,1233,0,0
301,-209,0,0,0,0,0,0,0,0,0,-1,1525,1233,0,0
308,-209,0,0,0,0,0,0,0,0,0,-1,1532,1233,0,0
315,-209,0,0,0,0,0,0,0,0,0,-1,1539,1233,0,0
322,-209,0,0,0,0,0,0,0,0,0,-1,1546,1233,0,0
329,-209,0,0,0,0,0,0,0,0,0,-1,1553,1233,0,0
336,-209,0,0,0,0,0,0,0,0,0,-1,1560,1233,0,0
343,-209,0,0,0,0,0,0,0,0,0,-1,1567,1233,0,0
350,-209,0,0,0,0,0,0,0,0,0,-1,1574,1233,0,0
357,-209,0,0,0,0,0,0,0,0,0,-1,1581,1233,0,0
364,-209,0,0,0,0,0,0,0,0,0,-1,1588,1233,0,0
371,-209,0,0,0,0,0,0,0,0,0,-1,1595,1233,0,0
378,-209,0,0,0,0,0,0,0,0,0,-1,1602,1233,0,0
385,-209,0,0,0,0,0,0,0,0,0,-1,1609,1233,0,0
392,-209,0,0,0,0,0,0,0,0,0,-1,1616,1233,0,0
399,-209,0,0,0,0,0,0,0,0,0,-1,1623,1233,0,0
406,-209,0,0,0,0,0,0,0,0,0,-1,1630,1233,0,0
413,-209,0,0,0,0,0,0,0,0,0,-1,1637,1233,0,0
420,-209,0,0,0,0,0,0,0,0,0,-1,1644,1233,0,0
427,-209,0,0,0,0,0,0,0,0,0,-1,1651,1233,0,0
434,-209,0,0,0,0,0,0,0,0,0,-1,1658,1233,0,0
441,-209,0,0,0,0,0,0,0,0,0,-1,1665,1233,0,0
448,-209,0,0,0,0,0,0,0,0,0,-1,1672,1233,0,0
455,-209,0,0,0,0,0,0,0,0,0,-1,1679,1233,0,0
462,-209,0,0,0,0,0,0,0,0,0,-1,1686,1233,0,0
469,-209,0,0,0,0,0,0,0,0,0,-1,1693,1233,0,0
476,-209,0,0,0,0,0,0,0,0,0,-1,1700,1233,0,0
483,-209,0,0,0,0,0,0,0,0,0,-1,1707,1233,0,0
490,-209,0,0,0,0,0,0,0,0,0,-1,1714,1233,0,0
497,-209,0,0,0,0,0,0,0,0,0,-1,1721,1233,0,0
504,-209,0,0,0,0,0,0,0,0,0,-1,1728,1233,0,0
511,-209,0,0,0,0,0,0,0,0,0,-1,1735,1233,0,0
518,-209,0,0,0,0,0,0,0,0,0,-1,1742,1233,0,0
525,-209,0,0,0,0,0,0,0,0,0,-1,1749,1233,0,0
532,-209,0,0,0,0,0,0,0,0,0,-1,1756,1233,0,0
539,-209,0,0,0,0,0,0,0,0,0,-1,1763,1233,0,0
546,-209,0,0,0,0,0,0,0,0,0,-1,1770,1233,0,0
553,-209,0,0,0,0,0,0,0,0,0,-1,1777,1233,0,0
560,-209,0,0,0,0,0,0,0,0,0,-1,1784,1233,0,0
567,-209,0,0,0,0,0,0,0,0,0,-1,1791,1233,0,0
574,-209,0,0,0,0,0,0,0,0,0,-1,1798,1233,0,0
581,-209,0,0,0,0,0,0,0,0,0,-1,1805,1233,0,0
588,-209,0,0,0,0,0,0,0,0,0,-1,1812,1233,0,0
595,-209,0,0,0,0,0,0,0,0,0,-1,1819,1233,0,0
602,-209,0,0,0,0,0,0,0,0,0,-1,1826,1233,0,0
609,-209,0,0,0,0,0,0,0,0,0,-1,1833,1233,0,0
616,-209,0,0,0,0,0,0,0,0,0,-1,1840,1233,0,0
623,-209,58.8464,2.68384,-0.000147155,0.00405826,-5.263e-05,0.00405891,-0.000147813,-1.55828,0.00275653,0.0350361,1847,1233,58.8465,-2.68381
630,-209,58.8662,2.64551,-0.000429892,0.00232657,-0.000206282,0.00234192,-0.000445244,-1.49651,0.00172891,0.037844,1854,1233,58.8662,-2.64553
637,-209,58.906,2.62451,-0.000676431,0.00074187,-0.000429164,0.00086162,-0.000796181,-1.29869,0.00095738,0.0355174,1861,1233,58.906,-2.62455
644,-209,58.9165,2.59399,-0.000816067,-0.000639012,-0.000721626,-5.03263e-07,-0.00145458,-0.846432,0.000969549,0.0296715,1868,1233,58.9165,-2.59398
651,-209,58.9353,2.57288,-0.000614807,-0.00137091,-0.000996351,7.28054e-05,-0.00205852,-0.604071,0.00139725,0.0231356,1875,1233,58.9353,-2.57283
658,-209,58.9375,2.57495,-6.38566e-05,-0.00181894,-0.00106774,0.000440679,-0.00232348,-0.44143,0.00171486,0.0204643,1882,1233,58.9375,-2.57495
665,-209,58.9657,2.54626,0.000370149,-0.00208048,-0.00102541,0.000742603,-0.00245294,-0.348407,0.00193102,0.0349996,1889,1233,58.9658,-2.54621
672,-209,59.0364,2.48657,0,0,0,0,0,0,0,-1,1896,1233,59.0364,-2.48661
679,-209,55.2465,2.78674,0,0,0,0,0,0,0,-1,1903,1233,55.2464,-2.78678
686,-209,33.3711,3.89856,0,0,0,0,0,0,0,-1,1910,1233,33.3711,-3.89855
693,-209,46.6221,11.2214,0,0,0,0,0,0,0,-1,1917,1233,46.6221,-11.2215
700,-209,46.7256,10.5052,0.0012419,-0.00206875,-0.000438432,0.00129898,-0.00212583,-0.129458,0.00199643,0.0436757,1924,1233,46.7256,-10.5052
707,-209,46.781,9.87952,0.00151026,-0.00208072,-0.000196726,0.001521,-0.00209147,-0.0545657,0.00209431,0.0365579,1931,1233,46.781,-9.87953
714,-209,46.7839,9.40247,0.00157055,-0.0019151,2.13323e-05,0.00157068,-0.00191523,0.00611975,0.00201586,0.0229683,1938,1233,46.7839,-9.40252
721,-209,46.8119,8.82178,0.00146459,-0.00163743,0.000335826,0.00150053,-0.00167337,0.106615,0.00183336,0.0130593,1945,1233,46.8119,-8.82173
728,-209,46.7991,8.29858,0.00148423,-0.00150137,0.000796038,0.00168321,-0.00170035,0.244947,0.00195351,0.0128349,1952,1233,46.7991,-8.29858
735,-209,46.7917,7.75378,0.00169052,-0.000990169,0.00134132,0.0022464,-0.00154605,0.392882,0.00220198,0.0152222,1959,1233,46.7917,-7.75378
742,-209,46.764,7.1936,0.00224923,-0.000456344,0.0019628,0.00328027,-0.00148738,0.483673,0.00281673,0.0151577,1966,1233,46.764,-7.19363
749,-209,46.6938,6.66504,0.00335766,1.38802e-06,0.00263729,0.00480545,-0.0014464,0.502052,0.00377919,0.0134919,1973,1233,46.6939,-6.66509
756,-209,46.6819,6.15308,0.00529974,0.00041024,0.00328366,0.00694879,-0.00123881,0.465406,0.00509591,0.012437,1980,1233,46.6818,-6.1531
763,-209,46.6753,5.72717,0.00863547,0.000622956,0.00396071,0.0102628,-0.00100437,0.38984,0.00720005,0.0233257,1987,1233,46.6752,-5.72714
770,-209,46.7622,5.42993,0,0,0,0,0,0,0,-1,1994,1233,46.7622,-5.42989
777,-209,49.8105,-3.45435,0,0,0,0,0,0,0,-1,2001,1233,49.8106,3.45429
784,-209,53.6729,-0.603394,0,0,0,0,0,0,0,-1,2008,1233,53.6728,0.603386
791,-209,53.6887,1.53479,0,0,0,0,0,0,0,-1,2015,1233,53.6887,-1.53478
798,-209,53.6404,3.71179,0,0,0,0,0,0,0,-1,2022,1233,53.6404,-3.71185
805,-209,0,0,0,0,0,0,0,0,0,-1,2029,1233,0,0
812,-209,0,0,0,0,0,0,0,0,0,-1,2036,1233,0,0
-700,-216,0,0,0,0,0,0,0,0,0,-1,524,1240,0,0
-693,-216,0,0,0,0,0,0,0,0,0,-1,531,1240,0,0
-686,-216,0,0,0,0,0,0,0,0,0,-1,538,1240,0,0
-679,-216,-31.6092,5.01587,0,0,0,0,0,0,0,-1,545,1240,-31.6092,-5.01584
-672,-216,-31.5978,6.61084,0,0,0,0,0,0,0,-1,552,1240,-31.5979,-6.61086
-665,-216,-33.8712,7.02039,0,0,0,0,0,0,0,-1,559,1240,-33.8712,-7.02044
-658,-216,-33.6844,9.34888,0,0,0,0,0,0,0,-1,566,1240,-33.6844,-9.34886
-651,-216,-37.6235,-3.32495,0,0,0,0,0,0,0,-1,573,1240,-37.6235,3.3249
-644,-216,-32.9091,1.35364,0,0,0,0,0,0,0,-1,580,1240,-32.9091,-1.35364
-637,-216,-30.8854,2.34253,0,0,0,0,0,0,0,-1,587,1240,-30.8854,-2.34251
-630,-216,-30.9584,3.07861,0.0112443,-0.00574991,0.00409487,0.0121795,-0.00668513,0.224537,0.0110444,0.0408989,594,1240,-30.9583,-3.07865
-623,-216,-31.1097,3.77722,0.00823873,-7.85786e-05,0.00328535,0.00937988,-0.00121973,0.334308,0.00669696,0.0183941,601,1240,-31.1097,-3.77719
-616,-216,-31.1997,4.34875,0.0055937,0.00254366,0.0021574,0.00671066,0.0014267,0.477735,0.00408218,0.0131696,608,1240,-31.1997,-4.34879
-609,-216,-31.2354,4.95032,0.00343319,0.00181836,0.000269788,0.00347707,0.00177448,0.161237,0.00200763,0.0134046,615,1240,-31.2354,-4.9503
-602,-216,-31.2521,5.49792,0.00173178,0.000536641,-0.000568744,0.00195917,0.00030925,-0.380344,0.00121621,0.0139136,622,1240,-31.2521,-5.49791
-595,-216,-31.2318,6.06287,0.000876359,-0.000865889,-0.000997389,0.00132949,-0.00131902,-0.426435,0.00152912,0.018831,629,1240,-31.2317,-6.06282
-588,-216,-31.2657,6.65759,0.000442875,-0.00128594,-0.00114102,0.00100995,-0.00185302,-0.461233,0.00167665,0.0211677,636,1240,-31.2658,-6.65761
-581,-216,-31.2653,7.27759,0.000358073,-0.00166538,-0.00108262,0.000828121,-0.00213543,-0.409617,0.00176563,0.0420217,643,1240,-31.2652,-7.27755
-574,-216,-31.7312,7.8927,0,0,0,0,0,0,0,-1,650,1240,-31.7312,-7.89264
-567,-216,-31.8317,8.88464,0,0,0,0,0,0,0,-1,657,1240,-31.8317,-8.88458
-560,-216,-16.5087,5.4574,0,0,0,0,0,0,0,-1,664,1240,-16.5087,-5.45746
-553,-216,-16.2355,1.22351,0,0,0,0,0,0,0,-1,671,1240,-16.2356,-1.22356
-546,-216,-37.1617,-0.25415,0,0,0,0,0,0,0,-1,678,1240,-37.1618,0.254161
-539,-216,-44.1417,0.65979,0,0,0,0,0,0,0,-1,685,1240,-44.1417,-0.65982
-532,-216,-44.1631,0.925293,0,0,0,0,0,0,0,-1,692,1240,-44.1631,-0.925339
-525,-216,-44.2676,1.05737,-0.00179632,0.000170221,-0.00222765,0.00162196,-0.00324805,-0.993234,0.00286347,0.0468457,699,1240,-44.2675,-1.05734
-518,-216,-44.4088,1.08752,-0.00220595,0.0014203,-0.00283765,0.00297462,-0.00376027,-1.06968,0.0038972,0.0406998,706,1240,-44.4088,-1.08749
-511,-216,-44.4147,0.98584,-0.00163452,0.00266015,-0.0037943,0.00487261,-0.00384697,-1.0429,0.00504585,0.0404597,713,1240,-44.4147,-0.985802
-504,-216,-44.2937,0.901978,0.00288573,0.00211823,-0.0046886,0.00720626,-0.0022023,-0.744565,0.00568236,0.0404766,720,1240,-44.2937,-0.901972
-497,-216,0,0,0,0,0,0,0,0,0,-1,727,1240,0,0
-490,-216,0,0,0,0,0,0,0,0,0,-1,734,1240,0,0
-483,-216,0,0,0,0,0,0,0,0,0,-1,741,1240,0,0
-476,-216,0,0,0,0,0,0,0,0,0,-1,748,1240,0,0
-469,-216,0,0,0,0,0,0,0,0,0,-1,755,1240,0,0
-462,-216,0,0,0,0,0,0,0,0,0,-1,762,1240,0,0
-455,-216,0,0,0,0,0,0,0,0,0,-1,769,1240,0,0
-448,-216,0,0,0,0,0,0,0,0,0,-1,776,1240,0,0
-441,-216,0,0,0,0,0,0,0,0,0,-1,783,1240,0,0
-434,-216,0,0,0,0,0,0,0,0,0,-1,790,1240,0,0
-427,-216,0,0,0,0,0,0,0,0,0,-1,797,1240,0,0
-420,-216,0,0,0,0,0,0,0,0,0,-1,804,1240,0,0
-413,-216,0,0,0,0,0,0,0,0,0,-1,811,1240,0,0
-406,-216,0,0,0,0,0,0,0,0,0,-1,818,1240,0,0
-399,-216,0,0,0,0,0,0,0,0,0,-1,825,1240,0,0
-392,-216,0,0,0,0,0,0,0,0,0,-1,832,1240,0,0
-385,-216,0,0,0,0,0,0,0,0,0,-1,839,1240,0,0
-378,-216,0,0,0,0,0,0,0,0,0,-1,846,1240,0,0
-371,-216,0,0,0,0,0,0,0,0,0,-1,853,1240,0,0
-364,-216,0,0,0,0,0,0,0,0,0,-1,860,1240,0,0
-357,-216,0,0,0,0,0,0,0,0,0,-1,867,1240,0,0
-350,-216,0,0,0,0,0,0,0,0,0,-1,874,1240,0,0
-343,-216,0,0,0,0,0,0,0,0,0,-1,881,1240,0,0
-336,-216,0,0,0,0,0,0,0,0,0,-1,888,1240,0,0
-329,-216,0,0,0,0,0,0,0,0,0,-1,895,1240,0,0
-322,-216,0,0,0,0,0,0,0,0,0,-1,902,1240,0,0
-315,-216,0,0,0,0,0,0,0,0,0,-1,909,1240,0,0
-308,-216,0,0,0,0,0,0,0,0,0,-1,916,1240,0,0
-301,-216,0,0,0,0,0,0,0,0,0,-1,923,1240,0,0
-294,-216,0,0,0,0,0,0,0,0,0,-1,930,1240,0,0
-287,-216,0,0,0,0,0,0,0,0,0,-1,937,1240,0,0
-280,-216,0,0,0,0,0,0,0,0,0,-1,944,1240,0,0
-273,-216,0,0,0,0,0,0,0,0,0,-1,951,1240,0,0
-266,-216,0,0,0,0,0,0,0,0,0,-1,958,1240,0,0
-259,-216,0,0,0,0,0,0,0,0,0,-1,965,1240,0,0
-252,-216,0,0,0,0,0,0,0,0,0,-1,972,1240,0,0
-245,-216,0,0,0,0,0,0,0,0,0,-1,979,1240,0,0
-238,-216,0,0,0,0,0,0,0,0,0,-1,986,1240,0,0
-231,-216,0,0,0,0,0,0,0,0,0,-1,993,1240,0,0
-224,-216,0,0,0,0,0,0,0,0,0,-1,1000,1240,0,0
-217,-216,0,0,0,0,0,0,0,0,0,-1,1007,1240,0,0
-210,-216,0,0,0,0,0,0,0,0,0,-1,1014,1240,0,0
-203,-216,0,0,0,0,0,0,0,0,0,-1,1021,1240,0,0
-196,-216,0,0,0,0,0,0,0,0,0,-1,1028,1240,0,0
-189,-216,0,0,0,0,0,0,0,0,0,-1,1035,1240,0,0
-182,-216,0,0,0,0,0,0,0,0,0,-1,1042,1240,0,0
-175,-216,0,0,0,0,0,0,0,0,0,-1,1049,1240,0,0
-168,-216,0,0,0,0,0,0,0,0,0,-1,1056,1240,0,0
-161,-216,0,0,0,0,0,0,0,0,0,-1,1063,1240,0,0
-154,-216,0,0,0,0,0,0,0,0,0,-1,1070,1240,0,0
-147,-216,0,0,0,0,0,0,0,0,0,-1,1077,1240,0,0
-140,-216,0,0,0,0,0,0,0,0,0,-1,1084,1240,0,0
-133,-216,0,0,0,0,0,0,0,0,0,-1,1091,1240,0,0
-126,-216,0,0,0,0,0,0,0,0,0,-1,1098,1240,0,0
-119,-216,0,0,0,0,0,0,0,0,0,-1,1105,1240,0,0
-112,-216,0,0,0,0,0,0,0,0,0,-1,1112,1240,0,0
-105,-216,0,0,0,0,0,0,0,0,0,-1,1119,1240,0,0
-98,-216,0,0,0,0,0,0,0,0,0,-1,1126,1240,0,0
-91,-216,0,0,0,0,0,0,0,0,0,-1,1133,1240,0,0
-84,-216,0,0,0,0,0,0,0,0,0,-1,1140,1240,0,0
-77,-216,0,0,0,0,0,0,0,0,0,-1,1147,1240,0,0
-70,-216,0,0,0,0,0,0,0,0,0,-1,1154,1240,0,0
-63,-216,0,0,0,0,0,0,0,0,0,-1,1161,1240,0,0
-56,-216,0,0,0,0,0,0,0,0,0,-1,1168,1240,0,0
-49,-216,0,0,0,0,0,0,0,0,0,-1,1175,1240,0,0
-42,-216,0,0,0,0,0,0,0,0,0,-1,1182,1240,0,0
-35,-216,0,0,0,0,0,0,0,0,0,-1,1189,1240,0,0
-28,-216,0,0,0,0,0,0,0,0,0,-1,1196,1240,0,0
-21,-216,0,0,0,0,0,0,0,0,0,-1,1203,1240,0,0
-14,-216,0,0,0,0,0,0,0,0,0,-1,1210,1240,0,0
-7,-216,0,0,0,0,0,0,0,0,0,-1,1217,1240,0,0
0,-216,0,0,0,0,0,0,0,0,0,-1,1224,1240,0,0
7,-216,0,0,0,0,0,0,0,0,0,-1,1231,1240,0,0
14,-216,0,0,0,0,0,0,0,0,0,-1,1238,1240,0,0
21,-216,0,0,0,0,0,0,0,0,0,-1,1245,1240,0,0
28,-216,0,0,0,0,0,0,0,0,0,-1,1252,1240,0,0
35,-216,0,0,0,0,0,0,0,0,0,-1,1259,1240,0,0
42,-216,0,0,0,0,0,0,0,0,0,-1,1266,1240,0,0
49,-216,0,0,0,0,0,0,0,0,0,-1,1273,1240,0,0
56,-216,0,0,0,0,0,0,0,0,0,-1,1280,1240,0,0
63,-216,0,0,0,0,0,0,0,0,0,-1,1287,1240,0,0
70,-216,0,0,0,0,0,0,0,0,0,-1,1294,1240,0,0
77,-216,0,0,0,0,0,0,0,0,0,-1,1301,1240,0,0
84,-216,0,0,0,0,0,0,0,0,0,-1,1308,1240,0,0
91,-216,0,0,0,0,0,0,0,0,0,-1,1315,1240,0,0
98,-216,0,0,0,0,0,0,0,0,0,-1,1322,1240,0,0
105,-216,0,0,0,0,0,0,0,0,0,-1,1329,1240,0,0
112,-216,0,0,0,0,0,0,0,0,0,-1,1336,1240,0,0
119,-216,0,0,0,0,0,0,0,0,0,-1,1343,1240,0,0
126,-216,0,0,0,0,0,0,0,0,0,-1,1350,1240,0,0
133,-216,0,0,0,0,0,0,0,0,0,-1,1357,1240,0,0
140,-216,0,0,0,0,0,0,0,0,0,-1,1364,1240,0,0
147,-216,0,0,0,0,0,0,0,0,0,-1,1371,1240,0,0
154,-216,0,0,0,0,0,0,0,0,0,-1,1378,1240,0,0
161,-216,0,0,0,0,0,0,0,0,0,-1,1385,1240,0,0
168,-216,0,0,0,0,0,0,0,0,0,-1,1392,1240,0,0
175,-216,0,0,0,0,0,0,0,0,0,-1,1399,1240,0,0
182,-216,0,0,0,0,0,0,0,0,0,-1,1406,1240,0,0
189,-216,0,0,0,0,0,0,0,0,0,-1,1413,1240,0,0
196,-216,0,0,0,0,0,0,0,0,0,-1,1420,1240,0,0
203,-216,0,0,0,0,0,0,0,0,0,-1,1427,1240,0,0
210,-216,0,0,0,0,0,0,0,0,0,-1,1434,1240,0,0
217,-216,0,0,0,0,0,0,0,0,0,-1,1441,1240,0,0
224,-216,0,0,0,0,0,0,0,0,0,-1,1448,1240,0,0
231,-216,0,0,0,0,0,0,0,0,0,-1,1455,1240,0,0
238,-216,0,0,0,0,0,0,0,0,0,-1,1462,1240,0,0
245,-216,0,0,0,0,0,0,0,0,0,-1,1469,1240,0,0
252,-216,0,0,0,0,0,0,0,0,0,-1,1476,1240,0,0
259,-216,0,0,0,0,0,0,0,0,0,-1,1483,1240,0,0
266,-216,0,0,0,0,0,0,0,0,0,-1,1490,1240,0,0
273,-216,0,0,0,0,0,0,0,0,0,-1,1497,1240,0,0
280,-216,0,0,0,0,0,0,0,0,0,-1,1504,1240,0,0
287,-216,0,0,0,0,0,0,0,0,0,-1,1511,1240,0,0
294,-216,0,0,0,0,0,0,0,0,0,-1,1518,1240,0,0
301,-216,0,0,0,0,0,0,0,0,0,-1,1525,1240,0,0
308,-216,0,0,0,0,0,0,0,0,0,-1,1532,1240,0,0
315,-216,0,0,0,0,0,0,0,0,0,-1,1539,1240,0,0
322,-216,0,0,0,0,0,0,0,0,0,-1,1546,1240,0,0
329,-216,0,0,0,0,0,0,0,0,0,-1,1553,1240,0,0
336,-216,0,0,0,0,0,0,0,0,0,-1,1560,1240,0,0
343,-216,0,0,0,0,0,0,0,0,0,-1,1567,1240,0,0
350,-216,0,0,0,0,0,0,0,0,0,-1,1574,1240,0,0
357,-216,0,0,0,0,0,0,0,0,0,-1,1581,1240,0,0
364,-216,0,0,0,0,0,0,0,0,0,-1,1588,1240,0,0
371,-216,0,0,0,0,0,0,0,0,0,-1,1595,1240,0,0
378,-216,0,0,0,0,0,0,0,0,0,-1,1602,1240,0,0
385,-216,0,0,0,0,0,0,0,0,0,-1,1609,1240,0,0
392,-216,0,0,0,0,0,0,0,0,0,-1,1616,1240,0,0
399,-216,0,0,0,0,0,0,0,0,0,-1,1623,1240,0,0
406,-216,0,0,0,0,0,0,0,0,0,-1,1630,1240,0,0
413,-216,0,0,0,0,0,0,0,0,0,-1,1637,1240,0,0
420,-216,0,0,0,0,0,0,0,0,0,-1,1644,1240,0,0
427,-216,0,0,0,0,0,0,0,0,0,-1,1651,1240,0,0
434,-216,0,0,0,0,0,0,0,0,0,-1,1658,1240,0,0
441,-216,0,0,0,0,0,0,0,0,0,-1,1665,1240,0,0
448,-216,0,0,0,0,0,0,0,0,0,-1,1672,1240,0,0
455,-216,0,0,0,0,0,0,0,0,0,-1,1679,1240,0,0
462,-216,0,0,0,0,0,0,0,0,0,-1,1686,1240,0,0
469,-216,0,0,0,0,0,0,0,0,0,-1,1693,1240,0,0
476,-216,0,0,0,0,0,0,0,0,0,-1,1700,1240,0,0
483,-216,0,0,0,0,0,0,0,0,0,-1,1707,1240,0,0
490,-216,0,0,0,0,0,0,0,0,0,-1,1714,1240,0,0
497,-216,0,0,0,0,0,0,0,0,0,-1,1721,1240,0,0
504,-216,0,0,0,0,0,0,0,0,0,-1,1728,1240,0,0
511,-216,0,0,0,0,0,0,0,0,0,-1,1735,1240,0,0
518,-216,0,0,0,0,0,0,0,0,0,-1,1742,1240,0,0
525,-216,0,0,0,0,0,0,0,0,0,-1,1749,1240,0,0
532,-216,0,0,0,0,0,0,0,0,0,-1,1756,1240,0,0
539,-216,0,0,0,0,0,0,0,0,0,-1,1763,1240,0,0
546,-216,0,0,0,0,0,0,0,0,0,-1,1770,1240,0,0
553,-216,0,0,0,0,0,0,0,0,0,-1,1777,1240,0,0
560,-216,0,0,0,0,0,0,0,0,0,-1,1784,1240,0,0
567,-216,0,0,0,0,0,0,0,0,0,-1,1791,1240,0,0
574,-216,0,0,0,0,0,0,0,0,0,-1,1798,1240,0,0
581,-216,0,0,0,0,0,0,0,0,0,-1,1805,1240,0,0
588,-216,0,0,0,0,0,0,0,0,0,-1,1812,1240,0,0
595,-216,0,0,0,0,0,0,0,0,0,-1,1819,1240,0,0
602,-216,0,0,0,0,0,0,0,0,0,-1,1826,1240,0,0
609,-216,0,0,0,0,0,0,0,0,0,-1,1833,1240,0,0
616,-216,0,0,0,0,0,0,0,0,0,-1,1840,1240,0,0
623,-216,58.9823,2.61743,-0.000368333,0.00418861,0.000101836,0.00419088,-0.000370608,1.54846,0.00292529,0.0397822,1847,1240,58.9823,-2.61748
630,-216,58.8777,2.5946,-0.000946616,0.00222886,-0.000105814,0.00223238,-0.000950138,-1.53752,0.00188649,0.0373331,1854,1240,58.8777,-2.59466
637,-216,58.9043,2.56714,-0.00142986,0.000327138,-0.000371793,0.000402573,-0.0015053,-1.37062,0.00116122,0.032728,1861,1240,58.9043,-2.56711
644,-216,58.9097,2.59949,-0.00159258,-0.00117405,-0.000729964,-0.000623948,-0.00214268,-0.924996,0.00127253,0.026672,1868,1240,58.9097,-2.59951
651,-216,58.8834,2.59863,-0.00129314,-0.00181116,-0.000956886,-0.000560828,-0.00254347,-0.653225,0.00154306,0.0225416,1875,1240,58.8834,-2.59862
658,-216,58.9242,2.64514,-0.000671111,-0.00215221,-0.000991308,-0.000174282,-0.00264904,-0.464595,0.00171089,0.0315597,1882,1240,58.9241,-2.64513
665,-216,59.0684,2.68384,-0.000185886,-0.00230351,-0.000936308,0.000168722,-0.00265812,-0.362036,0.00183091,0.0458175,1889,1240,59.0684,-2.68382
672,-216,59.2026,2.63367,0,0,0,0,0,0,0,-1,1896,1240,59.2026,-2.63371
679,-216,47.3159,3.82703,0,0,0,0,0,0,0,-1,1903,1240,47.316,-3.82708
686,-216,21.5172,6.19458,0,0,0,0,0,0,0,-1,1910,1240,21.5172,-6.19453
693,-216,46.5116,10.6926,0,0,0,0,0,0,0,-1,1917,1240,46.5115,-10.6926
700,-216,46.1256,10.2899,0,0,0,0,0,0,0,-1,1924,1240,46.1256,-10.2899
707,-216,46.2476,9.94788,0.00145968,-0.0020739,-0.000259514,0.00147863,-0.00209286,-0.072921,0.00207214,0.0418142,1931,1240,46.2475,-9.94793
714,-216,46.2676,9.39905,0.00139247,-0.00184993,2.62882e-05,0.00139268,-0.00185014,0.00810692,0.00187845,0.0164021,1938,1240,46.2676,-9.39902
721,-216,46.2852,8.86206,0.00116355,-0.00151157,0.000490472,0.00125064,-0.00159867,0.175733,0.00164913,0.0131106,1945,1240,46.2851,-8.86207
728,-216,46.2906,8.31665,0.00105328,-0.00128387,0.00107784,0.00147446,-0.00170505,0.372516,0.0018373,0.0129699,1952,1240,46.2906,-8.31659
735,-216,46.3081,7.78198,0.00110658,-0.000826216,0.00173079,0.0021225,-0.00184213,0.53078,0.00229089,0.014645,1959,1240,46.3081,-7.78193
742,-216,46.2217,7.25317,0.00150278,-0.000417236,0.00244688,0.00317124,-0.00208569,0.598455,0.00305658,0.0160556,1966,1240,46.2217,-7.25323
749,-216,46.1699,6.68506,0.00239064,-0.000117012,0.00321829,0.00459072,-0.00231709,0.599646,0.0040596,0.012369,1973,1240,46.17,-6.6851
756,-216,46.1378,6.14539,0.00402478,7.33191e-05,0.0040211,0.00652931,-0.00243122,0.55705,0.00535068,0.0116384,1980,1240,46.1378,-6.14533
763,-216,46.1238,5.70496,0.0069246,-5.38211e-05,0.00494864,0.00949045,-0.00261966,0.478333,0.00735732,0.0201865,1987,1240,46.1238,-5.70501
770,-216,46.3186,5.26306,0.0111528,-0.000439433,0.00592189,0.0136431,-0.00292967,0.398065,0.010213,0.0432832,1994,1240,46.3186,-5.26303
777,-216,46.5931,4.80798,0,0,0,0,0,0,0,-1,2001,1240,46.5931,-4.80799
784,-216,51.8208,-0.443726,0,0,0,0,0,0,0,-1,2008,1240,51.8208,0.443779
791,-216,55.1682,1.76636,0,0,0,0,0,0,0,-1,2015,1240,55.1682,-1.76635
798,-216,0,0,0,0,0,0,0,0,0,-1,2022,1240,0,0
805,-216,0,0,0,0,0,0,0,0,0,-1,2029,1240,0,0
812,-216,0,0,0,0,0,0,0,0,0,-1,2036,1240,0,0
-700,-223,0,0,0,0,0,0,0,0,0,-1,524,1247,0,0
-693,-223,0,0,0,0,0,0,0,0,0,-1,531,1247,0,0
-686,-223,0,0,0,0,0,0,0,0,0,-1,538,1247,0,0
-679,-223,0,0,0,0,0,0,0,0,0,-1,545,1247,0,0
-672,-223,-32.8738,7.12109,0,0,0,0,0,0,0,-1,552,1247,-32.8738,-7.12112
-665,-223,-33.3448,8.60742,0,0,0,0,0,0,0,-1,559,1247,-33.3448,-8.60737
-658,-223,-33.6129,10.1587,0,0,0,0,0,0,0,-1,566,1247,-33.6129,-10.1587
-651,-223,-36.411,6.55054,0,0,0,0,0,0,0,-1,573,1247,-36.411,-6.55056
-644,-223,-38.563,-3.12415,0,0,0,0,0,0,0,-1,580,1247,-38.563,3.12416
-637,-223,-37.1149,-1.51843,0,0,0,0,0,0,0,-1,587,1247,-37.1149,1.51847
-630,-223,-30.6037,3.02502,0,0,0,0,0,0,0,-1,594,1247,-30.6037,-3.02507
-623,-223,-30.6545,3.80688,0.00811345,0.000200964,0.00438582,0.0100638,-0.00174934,0.418424,0.00736189,0.0310849,601,1247,-30.6546,-3.80691
-616,-223,-30.6231,4.34607,0.00558918,0.00264273,0.00270304,0.0071944,0.0010375,0.53589,0.00449056,0.0153622,608,1247,-30.6231,-4.34601
-609,-223,-30.6166,4.94995,0.00364213,0.00190497,0.000709678,0.00389519,0.00165191,0.342528,0.00225751,0.0117751,615,1247,-30.6167,-4.94999
-602,-223,-30.6527,5.48584,0.00218714,0.000701665,-0.000126541,0.00219784,0.000690963,-0.0843759,0.00129774,0.0160485,622,1247,-30.6527,-5.48589
-595,-223,-30.6354,6.08606,0.00143498,-0.000588204,-0.000661864,0.00163227,-0.000785489,-0.289689,0.00142414,0.0217244,629,1247,-30.6354,-6.0861
-588,-223,-30.6523,6.68555,0.000997177,-0.00116062,-0.000938397,0.00134818,-0.00151162,-0.357932,0.001652,0.0232338,636,1247,-30.6523,-6.6855
-581,-223,-30.7529,7.29358,0.000912379,-0.00162182,-0.000921999,0.00121232,-0.00192177,-0.31452,0.00182485,0.0252046,643,1247,-30.7529,-7.29364
-574,-223,-30.8137,7.83923,0.000663063,-0.0019827,-0.000684487,0.000829658,-0.0021493,-0.238743,0.00177526,0.0306261,650,1247,-30.8137,-7.83927
-567,-223,-30.7818,8.50525,0.000429264,-0.00236914,-0.000521356,0.00052324,-0.00246311,-0.178337,0.00184144,0.0497583,657,1247,-30.7818,-8.50521
-560,-223,-30.9219,9.17786,0,0,0,0,0,0,0,-1,664,1247,-30.9219,-9.17784
-553,-223,-11.4025,4.14722,0,0,0,0,0,0,0,-1,671,1247,-11.4025,-4.14719
-546,-223,-26.9034,-0.148682,0,0,0,0,0,0,0,-1,678,1247,-26.9034,0.14867
-539,-223,-36.7405,0.35376,0,0,0,0,0,0,0,-1,685,1247,-36.7405,-0.353807
-532,-223,-43.371,0.851807,0,0,0,0,0,0,0,-1,692,1247,-43.371,-0.851812
-525,-223,-44.1844,0.981567,0,0,0,0,0,0,0,-1,699,1247,-44.1844,-0.981623
-518,-223,-44.439,1.0332,0,0,0,0,0,0,0,-1,706,1247,-44.439,-1.03324
-511,-223,-44.336,1.03186,-0.00206584,0.00464132,-0.00427377,0.00672019,-0.00414472,-1.11807,0.00633133,0.0397229,713,1247,-44.336,-1.03181
-504,-223,-44.3191,0.970947,-0.000125778,0.0052843,-0.00526531,0.00849878,-0.00334027,-1.02269,0.00704824,0.0392226,720,1247,-44.3191,-0.970954
-497,-223,0,0,0,0,0,0,0,0,0,-1,727,1247,0,0
-490,-223,0,0,0,0,0,0,0,0,0,-1,734,1247,0,0
-483,-223,0,0,0,0,0,0,0,0,0,-1,741,1247,0,0
-476,-223,0,0,0,0,0,0,0,0,0,-1,748,1247,0,0
-469,-223,0,0,0,0,0,0,0,0,0,-1,755,1247,0,0
-462,-223,0,0,0,0,0,0,0,0,0,-1,762,1247,0,0
-455,-223,0,0,0,0,0,0,0,0,0,-1,769,1247,0,0
-448,-223,0,0,0,0,0,0,0,0,0,-1,776,1247,0,0
-441,-223,0,0,0,0,0,0,0,0,0,-1,783,1247,0,0
-434,-223,0,0,0,0,0,0,0,0,0,-1,790,1247,0,0
-427,-223,0,0,0,0,0,0,0,0,0,-1,797,1247,0,0
-420,-223,0,0,0,0,0,0,0,0,0,-1,804,1247,0,0
-413,-223,0,0,0,0,0,0,0,0,0,-1,811,1247,0,0
-406,-223,0,0,0,0,0,0,0,0,0,-1,818,1247,0,0
-399,-223,0,0,0,0,0,0,0,0,0,-1,825,1247,0,0
-392,-223,0,0,0,0,0,0,0,0,0,-1,832,1247,0,0
-385,-223,0,0,0,0,0,0,0,0,0,-1,839,1247,0,0
-378,-223,0,0,0,0,0,0,0,0,0,-1,846,1247,0,0
-371,-223,0,0,0,0,0,0,0,0,0,-1,853,1247,0,0
-364,-223,0,0,0,0,0,0,0,0,0,-1,860,1247,0,0
-357,-223,0,0,0,0,0,0,0,0,0,-1,867,1247,0,0
-350,-223,0,0,0,0,0,0,0,0,0,-1,874,1247,0,0
-343,-223,0,0,0,0,0,0,0,0,0,-1,881,1247,0,0
-336,-223,0,0,0,0,0,0,0,0,0,-1,888,1247,0,0
-329,-223,0,0,0,0,0,0,0,0,0,-1,895,1247,0,0
-322,-223,0,0,0,0,0,0,0,0,0,-1,902,1247,0,0
-315,-223,0,0,0,0,0,0,0,0,0,-1,909,1247,0,0
-308,-223,0,0,0,0,0,0,0,0,0,-1,916,1247,0,0
-301,-223,0,0,0,0,0,0,0,0,0,-1,923,1247,0,0
-294,-223,0,0,0,0,0,0,0,0,0,-1,930,1247,0,0
-287,-223,0,0,0,0,0,0,0,0,0,-1,937,1247,0,0
-280,-223,0,0,0,0,0,0,0,0,0,-1,944,1247,0,0
-273,-223,0,0,0,0,0,0,0,0,0,-1,951,1247,0,0
-266,-223,0,0,0,0,0,0,0,0,0,-1,958,1247,0,0
-259,-223,0,0,0,0,0,0,0,0,0,-1,965,1247,0,0
-252,-223,0,0,0,0,0,0,0,0,0,-1,972,1247,0,0
-245,-223,0,0,0,0,0,0,0,0,0,-1,979,1247,0,0
-238,-223,0,0,0,0,0,0,0,0,0,-1,986,1247,0,0
-231,-223,0,0,0,0,0,0,0,0,0,-1,993,1247,0,0
-224,-223,0,0,0,0,0,0,0,0,0,-1,1000,1247,0,0
-217,-223,0,0,0,0,0,0,0,0,0,-1,1007,1247,0,0
-210,-223,0,0,0,0,0,0,0,0,0,-1,1014,1247,0,0
-203,-223,0,0,0,0,0,0,0,0,0,-1,1021,1247,0,0
-196,-223,0,0,0,0,0,0,0,0,0,-1,1028,1247,0,0
-189,-223,0,0,0,0,0,0,0,0,0,-1,1035,1247,0,0
-182,-223,0,0,0,0,0,0,0,0,0,-1,1042,1247,0,0
-175,-223,0,0,0,0,0,0,0,0,0,-1,1049,1247,0,0
-168,-223,0,0,0,0,0,0,0,0,0,-1,1056,1247,0,0
-161,-223,0,0,0,0,0,0,0,0,0,-1,1063,1247,0,0
-154,-223,0,0,0,0,0,0,0,0,0,-1,1070,1247,0,0
-147,-223,0,0,0,0,0,0,0,0,0,-1,1077,1247,0,0
-140,-223,0,0,0,0,0,0,0,0,0,-1,1084,1247,0,0
-133,-223,0,0,0,0,0,0,0,0,0,-1,1091,1247,0,0
-126,-223,0,0,0,0,0,0,0,0,0,-1,1098,1247,0,0
-119,-223,0,0,0,0,0,0,0,0,0,-1,1105,1247,0,0
-112,-223,0,0,0,0,0,0,0,0,0,-1,1112,1247,0,0
-105,-223,0,0,0,0,0,0,0,0,0,-1,1119,1247,0,0
-98,-223,0,0,0,0,0,0,0,0,0,-1,1126,1247,0,0
-91,-223,0,0,0,0,0,0,0,0,0,-1,1133,1247,0,0
-84,-223,0,0,0,0,0,0,0,0,0,-1,1140,1247,0,0
-77,-223,0,0,0,0,0,0,0,0,0,-1,1147,1247,0,0
-70,-223,0,0,0,0,0,0,0,0,0,-1,1154,1247,0,0
-63,-223,0,0,0,0,0,0,0,0,0,-1,1161,1247,0,0
-56,-223,0,0,0,0,0,0,0,0,0,-1,1168,1247,0,0
-49,-223,0,0,0,0,0,0,0,0,0,-1,1175,1247,0,0
-42,-223,0,0,0,0,0,0,0,0,0,-1,1182,1247,0,0
-35,-223,0,0,0,0,0,0,0,0,0,-1,1189,1247,0,0
-28,-223,0,0,0,0,0,0,0,0,0,-1,1196,1247,0,0
-21,-223,0,0,0,0,0,0,0,0,0,-1,1203,1247,0,0
-14,-223,0,0,0,0,0,0,0,0,0,-1,1210,1247,0,0
-7,-223,0,0,0,0,0,0,0,0,0,-1,1217,1247,0,0
0,-223,0,0,0,0,0,0,0,0,0,-1,1224,1247,0,0
7,-223,0,0,0,0,0,0,0,0,0,-1,1231,1247,0,0
14,-223,0,0,0,0,0,0,0,0,0,-1,1238,1247,0,0
21,-223,0,0,0,0,0,0,0,0,0,-1,1245,1247,0,0
28,-223,0,0,0,0,0,0,0,0,0,-1,1252,1247,0,0
35,-223,0,0,0,0,0,0,0,0,0,-1,1259,1247,0,0
42,-223,0,0,0,0,0,0,0,0,0,-1,1266,1247,0,0
49,-223,0,0,0,0,0,0,0,0,0,-1,1273,1247,0,0
56,-223,0,0,0,0,0,0,0,0,0,-1,1280,1247,0,0
63,-223,0,0,0,0,0,0,0,0,0,-1,1287,1247,0,0
70,-223,0,0,0,0,0,0,0,0,0,-1,1294,1247,0,0
77,-223,0,0,0,0,0,0,0,0,0,-1,1301,1247,0,0
84,-223,0,0,0,0,0,0,0,0,0,-1,1308,1247,0,0
91,-223,0,0,0,0,0,0,0,0,0,-1,1315,1247,0,0
98,-223,0,0,0,0,0,0,0,0,0,-1,1322,1247,0,0
105,-223,0,0,0,0,0,0,0,0,0,-1,1329,1247,0,0
112,-223,0,0,0,0,0,0,0,0,0,-1,1336,1247,0,0
119,-223,0,0,0,0,0,0,0,0,0,-1,1343,1247,0,0
126,-223,0,0,0,0,0,0,0,0,0,-1,1350,1247,0,0
133,-223,0,0,0,0,0,0,0,0,0,-1,1357,1247,0,0
140,-223,0,0,0,0,0,0,0,0,0,-1,1364,1247,0,0
147,-223,0,0,0,0,0,0,0,0,0,-1,1371,1247,0,0
154,-223,0,0,0,0,0,0,0,0,0,-1,1378,1247,0,0
161,-223,0,0,0,0,0,0,0,0,0,-1,1385,1247,0,0
168,-223,0,0,0,0,0,0,0,0,0,-1,1392,1247,0,0
175,-223,0,0,0,0,0,0,0,0,0,-1,1399,1247,0,0
182,-223,0,0,0,0,0,0,0,0,0,-1,1406,1247,0,0
189,-223,0,0,0,0,0,0,0,0,0,-1,1413,1247,0,0
196,-223,0,0,0,0,0,0,0,0,0,-1,1420,1247,0,0
203,-223,0,0,0,0,0,0,0,0,0,-1,1427,1247,0,0
210,-223,0,0,0,0,0,0,0,0,0,-1,1434,1247,0,0
217,-223,0,0,0,0,0,0,0,0,0,-1,1441,1247,0,0
224,-223,0,0,0,0,0,0,0,0,0,-1,1448,1247,0,0
231,-223,0,0,0,0,0,0,0,0,0,-1,1455,1247,0,0
238,-223,0,0,0,0,0,0,0,0,0,-1,1462,1247,0,0
245,-223,0,0,0,0,0,0,0,0,0,-1,1469,1247,0,0
252,-223,0,0,0,0,0,0,0,0,0,-1,1476,1247,0,0
259,-223,0,0,0,0,0,0,0,0,0,-1,1483,1247,0,0
266,-223,0,0,0,0,0,0,0,0,0,-1,1490,1247,0,0
273,-223,0,0,0,0,0,0,0,0,0,-1,1497,1247,0,0
280,-223,0,0,0,0,0,0,0,0,0,-1,1504,1247,0,0
287,-223,0,0,0,0,0,0,0,0,0,-1,1511,1247,0,0
294,-223,0,0,0,0,0,0,0,0,0,-1,1518,1247,0,0
301,-223,0,0,0,0,0,0,0,0,0,-1,1525,1247,0,0
308,-223,0,0,0,0,0,0,0,0,0,-1,1532,1247,0,0
315,-223,0,0,0,0,0,0,0,0,0,-1,1539,1247,0,0
322,-223,0,0,0,0,0,0,0,0,0,-1,1546,1247,0,0
329,-223,0,0,0,0,0,0,0,0,0,-1,1553,1247,0,0
336,-223,0,0,0,0,0,0,0,0,0,-1,1560,1247,0,0
343,-223,0,0,0,0,0,0,0,0,0,-1,1567,1247,0,0
350,-223,0,0,0,0,0,0,0,0,0,-1,1574,1247,0,0
357,-223,0,0,0,0,0,0,0,0,0,-1,1581,1247,0,0
364,-223,0,0,0,0,0,0,0,0,0,-1,1588,1247,0,0
371,-223,0,0,0,0,0,0,0,0,0,-1,1595,1247,0,0
378,-223,0,0,0,0,0,0,0,0,0,-1,1602,1247,0,0
385,-223,0,0,0,0,0,0,0,0,0,-1,1609,1247,0,0
392,-223,0,0,0,0,0,0,0,0,0,-1,1616,1247,0,0
399,-223,0,0,0,0,0,0,0,0,0,-1,1623,1247,0,0
406,-223,0,0,0,0,0,0,0,0,0,-1,1630,1247,0,0
413,-223,0,0,0,0,0,0,0,0,0,-1,1637,1247,0,0
420,-223,0,0,0,0,0,0,0,0,0,-1,1644,1247,0,0
427,-223,0,0,0,0,0,0,0,0,0,-1,1651,1247,0,0
434,-223,0,0,0,0,0,0,0,0,0,-1,1658,1247,0,0
441,-223,0,0,0,0,0,0,0,0,0,-1,1665,1247,0,0
448,-223,0,0,0,0,0,0,0,0,0,-1,1672,1247,0,0
455,-223,0,0,0,0,0,0,0,0,0,-1,1679,1247,0,0
462,-223,0,0,0,0,0,0,0,0,0,-1,1686,1247,0,0
469,-223,0,0,0,0,0,0,0,0,0,-1,1693,1247,0,0
476,-223,0,0,0,0,0,0,0,0,0,-1,1700,1247,0,0
483,-223,0,0,0,0,0,0,0,0,0,-1,1707,1247,0,0
490,-223,0,0,0,0,0,0,0,0,0,-1,1714,1247,0,0
497,-223,0,0,0,0,0,0,0,0,0,-1,1721,1247,0,0
504,-223,0,0,0,0,0,0,0,0,0,-1,1728,1247,0,0
511,-223,0,0,0,0,0,0,0,0,0,-1,1735,1247,0,0
518,-223,0,0,0,0,0,0,0,0,0,-1,1742,1247,0,0
525,-223,0,0,0,0,0,0,0,0,0,-1,1749,1247,0,0
532,-223,0,0,0,0,0,0,0,0,0,-1,1756,1247,0,0
539,-223,0,0,0,0,0,0,0,0,0,-1,1763,1247,0,0
546,-223,0,0,0,0,0,0,0,0,0,-1,1770,1247,0,0
553,-223,0,0,0,0,0,0,0,0,0,-1,1777,1247,0,0
560,-223,0,0,0,0,0,0,0,0,0,-1,1784,1247,0,0
567,-223,0,0,0,0,0,0,0,0,0,-1,1791,1247,0,0
574,-223,0,0,0,0,0,0,0,0,0,-1,1798,1247,0,0
581,-223,0,0,0,0,0,0,0,0,0,-1,1805,1247,0,0
588,-223,0,0,0,0,0,0,0,0,0,-1,1812,1247,0,0
595,-223,0,0,0,0,0,0,0,0,0,-1,1819,1247,0,0
602,-223,0,0,0,0,0,0,0,0,0,-1,1826,1247,0,0
609,-223,0,0,0,0,0,0,0,0,0,-1,1833,1247,0,0
616,-223,0,0,0,0,0,0,0,0,0,-1,1840,1247,0,0
623,-223,59.0366,2.61987,-0.000531023,0.00411444,0.000237897,0.00412659,-0.000543174,1.51976,0.00294884,0.0396622,1847,1247,59.0367,-2.61993
630,-223,58.9044,2.57654,-0.00134877,0.00194539,-9.65845e-06,0.00194542,-0.0013488,-1.56786,0.00191228,0.035488,1854,1247,58.9044,-2.57652
637,-223,58.8894,2.51563,-0.00204752,-0.000220431,-0.000318927,-0.000166361,-0.00210159,-1.40286,0.00134903,0.0285742,1861,1247,58.8895,-2.51557
644,-223,58.9019,2.58801,-0.0021862,-0.00165418,-0.00073524,-0.00113831,-0.00270207,-0.958973,0.00156648,0.0226492,1868,1247,58.9019,-2.58807
651,-223,58.853,2.59973,-0.00182331,-0.00212693,-0.000891191,-0.00107109,-0.00287915,-0.701035,0.00168033,0.0300121,1875,1247,58.853,-2.59976
658,-223,58.8271,2.62891,0,0,0,0,0,0,0,-1,1882,1247,58.8271,-2.62893
665,-223,59.1361,2.74744,0,0,0,0,0,0,0,-1,1889,1247,59.1362,-2.74747
672,-223,56.4625,2.72424,0,0,0,0,0,0,0,-1,1896,1247,56.4626,-2.72418
679,-223,43.2783,2.46973,0,0,0,0,0,0,0,-1,1903,1247,43.2784,-2.46978
686,-223,40.7926,10.0316,0,0,0,0,0,0,0,-1,1910,1247,40.7926,-10.0316
693,-223,46.3439,10.7623,0,0,0,0,0,0,0,-1,1917,1247,46.3439,-10.7623
700,-223,45.9221,10.4227,0.000903063,-0.00213288,-0.000525373,0.000991408,-0.00222122,-0.166599,0.00189957,0.0367401,1924,1247,45.9222,-10.4227
707,-223,45.7811,9.91663,0.00131694,-0.00197336,-0.000343413,0.0013524,-0.00200882,-0.102894,0.0019529,0.0332926,1931,1247,45.7811,-9.91659
714,-223,45.7463,9.40332,0.00106772,-0.00172182,8.27686e-05,0.00107017,-0.00172427,0.0296364,0.00162804,0.0124633,1938,1247,45.7464,-9.40327
721,-223,45.7361,8.85217,0.000700566,-0.00136524,0.000704267,0.000917815,-0.00158249,0.299214,0.00146046,0.0145072,1945,1247,45.7361,-8.85214
728,-223,45.7274,8.3208,0.00044742,-0.00109921,0.00140107,0.00127443,-0.00192621,0.533231,0.00186062,0.018755,1952,1247,45.7275,-8.32078
735,-223,45.7012,7.82715,0.000389408,-0.000696725,0.00212161,0.00203635,-0.00234367,0.660104,0.00253088,0.018122,1959,1247,45.7012,-7.8272
742,-223,45.619,7.3186,0.000656839,-0.000378893,0.00289369,0.00307864,-0.00280069,0.696854,0.0033957,0.0163883,1966,1247,45.619,-7.31855
749,-223,45.6018,6.69678,0.00138593,-0.000167266,0.00371686,0.00440646,-0.0031878,0.68241,0.00440332,0.01335,1973,1247,45.6018,-6.69682
756,-223,45.5533,6.14832,0.00280219,-9.19275e-05,0.00461582,0.00619246,-0.0034822,0.633501,0.00565826,0.0151559,1980,1247,45.5534,-6.14834
763,-223,45.5411,5.71558,0.0054087,-0.000367896,0.00568352,0.00889572,-0.00385492,0.55031,0.00755091,0.0219398,1987,1247,45.5412,-5.71553
770,-223,45.7937,5.27759,0.00931298,-0.000929947,0.00688131,0.0127695,-0.00438647,0.46549,0.0102916,0.0486419,1994,1247,45.7937,-5.27761
777,-223,46.0491,4.81018,0,0,0,0,0,0,0,-1,2001,1247,46.0491,-4.81013
784,-223,54.1208,-0.293457,0,0,0,0,0,0,0,-1,2008,1247,54.1208,0.293477
791,-223,34.7136,2.92554,0,0,0,0,0,0,0,-1,2015,1247,34.7137,-2.92555
798,-223,0,0,0,0,0,0,0,0,0,-1,2022,1247,0,0
805,-223,0,0,0,0,0,0,0,0,0,-1,2029,1247,0,0
812,-223,0,0,0,0,0,0,0,0,0,-1,2036,1247,0,0
-700,-230,0,0,0,0,0,0,0,0,0,-1,524,1254,0,0
-693,-230,0,0,0,0,0,0,0,0,0,-1,531,1254,0,0
-686,-230,0,0,0,0,0,0,0,0,0,-1,538,1254,0,0
-679,-230,0,0,0,0,0,0,0,0,0,-1,545,1254,0,0
-672,-230,-32.0929,7.96326,0,0,0,0,0,0,0,-1,552,1254,-32.0929,-7.96321
-665,-230,-33.1976,9.49695,0,0,0,0,0,0,0,-1,559,1254,-33.1976,-9.49691
-658,-230,-36.3386,5.94019,0,0,0,0,0,0,0,-1,566,1254,-36.3386,-5.9402
-651,-230,-37.3264,7.49634,0,0,0,0,0,0,0,-1,573,1254,-37.3264,-7.49634
-644,-230,-38.0501,9.0769,0,0,0,0,0,0,0,-1,580,1254,-38.0501,-9.07692
-637,-230,-38.0911,-1.91528,0,0,0,0,0,0,0,-1,587,1254,-38.0911,1.91533
-630,-230,-30.2368,3.05164,0,0,0,0,0,0,0,-1,594,1254,-30.2368,-3.05158
-623,-230,-30.0978,3.76599,0.00768154,0.000516515,0.00527456,0.0104752,-0.00227713,0.487081,0.00785333,0.0349148,601,1254,-30.0979,-3.76594
-616,-230,-30.0002,4.37634,0.00537898,0.00270445,0.00306924,0.00738963,0.000693802,0.579949,0.00471221,0.017115,608,1254,-30.0002,-4.37636
-609,-230,-29.9857,4.95557,0.00362779,0.00206853,0.0011106,0.00420509,0.00149123,0.479367,0.00246178,0.0122975,615,1254,-29.9857,-4.95557
-602,-230,-30.0112,5.51526,0.00239869,0.000942048,0.000304301,0.00245971,0.000881034,0.197883,0.00143903,0.0122738,622,1254,-30.0112,-5.51529
-595,-230,-30.0432,6.11121,0.0017906,-0.000213293,-0.000279591,0.00182887,-0.000251572,-0.136063,0.00131118,0.0187791,629,1254,-30.0431,-6.11123
-588,-230,-30.0535,6.75354,0.00143269,-0.000942195,-0.000671841,0.00160958,-0.00111908,-0.257442,0.00158385,0.0259675,636,1254,-30.0535,-6.75353
-581,-230,-30.0746,7.39014,0.00143361,-0.00150099,-0.000754218,0.0016161,-0.00168349,-0.237399,0.00190515,0.0251487,643,1254,-30.0746,-7.39015
-574,-230,-30.0951,7.88037,0.00112663,-0.00191518,-0.000592316,0.00123789,-0.00202645,-0.185689,0.00190291,0.0287478,650,1254,-30.0951,-7.88042
-567,-230,-30.067,8.37891,0.000708069,-0.00227362,-0.000422085,0.000766667,-0.00233222,-0.137949,0.0018637,0.0434598,657,1254,-30.0669,-8.37892
-560,-230,-30.2195,8.79529,0,0,0,0,0,0,0,-1,664,1254,-30.2195,-8.79528
-553,-230,-13.1939,4.9718,0,0,0,0,0,0,0,-1,671,1254,-13.1939,-4.97175
-546,-230,-15.23,0.453979,0,0,0,0,0,0,0,-1,678,1254,-15.23,-0.453996
-539,-230,-25.8232,0.512817,0,0,0,0,0,0,0,-1,685,1254,-25.8232,-0.512878
-532,-230,-21.1644,1.52966,0,0,0,0,0,0,0,-1,692,1254,-21.1644,-1.52969
-525,-230,-29.4775,0.731445,0,0,0,0,0,0,0,-1,699,1254,-29.4775,-0.731432
-518,-230,-44.2409,0.904053,0,0,0,0,0,0,0,-1,706,1254,-44.2409,-0.903999
-511,-230,-44.2794,0.807007,-0.00106995,0.00613285,-0.00454587,0.00833102,-0.00326813,-1.12039,0.00690614,0.0417314,713,1254,-44.2794,-0.806985
-504,-230,-44.2984,0.761841,-0.000533764,0.00803861,-0.00574323,0.0109187,-0.0034139,-1.10596,0.00864482,0.0379307,720,1254,-44.2984,-0.761819
-497,-230,0,0,0,0,0,0,0,0,0,-1,727,1254,0,0
-490,-230,0,0,0,0,0,0,0,0,0,-1,734,1254,0,0
-483,-230,0,0,0,0,0,0,0,0,0,-1,741,1254,0,0
-476,-230,0,0,0,0,0,0,0,0,0,-1,748,1254,0,0
-469,-230,0,0,0,0,0,0,0,0,0,-1,755,1254,0,0
-462,-230,0,0,0,0,0,0,0,0,0,-1,762,1254,0,0
-455,-230,0,0,0,0,0,0,0,0,0,-1,769,1254,0,0
-448,-230,0,0,0,0,0,0,0,0,0,-1,776,1254,0,0
-441,-230,0,0,0,0,0,0,0,0,0,-1,783,1254,0,0
-434,-230,0,0,0,0,0,0,0,0,0,-1,790,1254,0,0
-427,-230,0,0,0,0,0,0,0,0,0,-1,797,1254,0,0
-420,-230,0,0,0,0,0,0,0,0,0,-1,804,1254,0,0
-413,-230,0,0,0,0,0,0,0,0,0,-1,811,1254,0,0
-406,-230,0,0,0,0,0,0,0,0,0,-1,818,1254,0,0
-399,-230,0,0,0,0,0,0,0,0,0,-1,825,1254,0,0
-392,-230,0,0,0,0,0,0,0,0,0,-1,832,1254,0,0
-385,-230,0,0,0,0,0,0,0,0,0,-1,839,1254,0,0
-378,-230,0,0,0,0,0,0,0,0,0,-1,846,1254,0,0
-371,-230,0,0,0,0,0,0,0,0,0,-1,853,1254,0,0
-364,-230,0,0,0,0,0,0,0,0,0,-1,860,1254,0,0
-357,-230,0,0,0,0,0,0,0,0,0,-1,867,1254,0,0
-350,-230,0,0,0,0,0,0,0,0,0,-1,874,1254,0,0
-343,-230,0,0,0,0,0,0,0,0,0,-1,881,1254,0,0
-336,-230,0,0,0,0,0,0,0,0,0,-1,888,1254,0,0
-329,-230,0,0,0,0,0,0,0,0,0,-1,895,1254,0,0
-322,-230,0,0,0,0,0,0,0,0,0,-1,902,1254,0,0
-315,-230,0,0,0,0,0,0,0,0,0,-1,909,1254,0,0
-308,-230,0,0,0,0,0,0,0,0,0,-1,916,1254,0,0
-301,-230,0,0,0,0,0,0,0,0,0,-1,923,1254,0,0
-294,-230,0,0,0,0,0,0,0,0,0,-1,930,1254,0,0
-287,-230,0,0,0,0,0,0,0,0,0,-1,937,1254,0,0
-280,-230,0,0,0,0,0,0,0,0,0,-1,944,1254,0,0
-273,-230,0,0,0,0,0,0,0,0,0,-1,951,1254,0,0
-266,-230,0,0,0,0,0,0,0,0,0,-1,958,1254,0,0
-259,-230,0,0,0,0,0,0,0,0,0,-1,965,1254,0,0
-252,-230,0,0,0,0,0,0,0,0,0,-1,972,1254,0,0
-245,-230,0,0,0,0,0,0,0,0,0,-1,979,1254,0,0
-238,-230,0,0,0,0,0,0,0,0,0,-1,986,1254,0,0
-231,-230,0,0,0,0,0,0,0,0,0,-1,993,1254,0,0
-224,-230,0,0,0,0,0,0,0,0,0,-1,1000,1254,0,0
-217,-230,0,0,0,0,0,0,0,0,0,-1,1007,1254,0,0
-210,-230,0,0,0,0,0,0,0,0,0,-1,1014,1254,0,0
-203,-230,0,0,0,0,0,0,0,0,0,-1,1021,1254,0,0
-196,-230,0,0,0,0,0,0,0,0,0,-1,1028,1254,0,0
-189,-230,0,0,0,0,0,0,0,0,0,-1,1035,1254,0,0
-182,-230,0,0,0,0,0,0,0,0,0,-1,1042,1254,0,0
-175,-230,0,0,0,0,0,0,0,0,0,-1,1049,1254,0,0
-168,-230,0,0,0,0,0,0,0,0,0,-1,1056,1254,0,0
-161,-230,0,0,0,0,0,0,0,0,0,-1,1063,1254,0,0
-154,-230,0,0,0,0,0,0,0,0,0,-1,1070,1254,0,0
-147,-230,0,0,0,0,0,0,0,0,0,-1,1077,1254,0,0
-140,-230,0,0,0,0,0,0,0,0,0,-1,1084,1254,0,0
-133,-230,0,0,0,0,0,0,0,0,0,-1,1091,1254,0,0
-126,-230,0,0,0,0,0,0,0,0,0,-1,1098,1254,0,0
-119,-230,0,0,0,0,0,0,0,0,0,-1,1105,1254,0,0
-112,-230,0,0,0,0,0,0,0,0,0,-1,1112,1254,0,0
-105,-230,0,0,0,0,0,0,0,0,0,-1,1119,1254,0,0
-98,-230,0,0,0,0,0,0,0,0,0,-1,1126,1254,0,0
-91,-230,0,0,0,0,0,0,0,0,0,-1,1133,1254,0,0
-84,-230,0,0,0,0,0,0,0,0,0,-1,1140,1254,0,0
-77,-230,0,0,0,0,0,0,0,0,0,-1,1147,1254,0,0
-70,-230,0,0,0,0,0,0,0,0,0,-1,1154,1254,0,0
-63,-230,0,0,0,0,0,0,0,0,0,-1,1161,1254,0,0
-56,-230,0,0,0,0,0,0,0,0,0,-1,1168,1254,0,0
-49,-230,0,0,0,0,0,0,0,0,0,-1,1175,1254,0,0
-42,-230,0,0,0,0,0,0,0,0,0,-1,1182,1254,0,0
-35,-230,0,0,0,0,0,0,0,0,0,-1,1189,1254,0,0
-28,-230,0,0,0,0,0,0,0,0,0,-1,1196,1254,0,0
-21,-230,0,0,0,0,0,0,0,0,0,-1,1203,1254,0,0
-14,-230,0,0,0,0,0,0,0,0,0,-1,1210,1254,0,0
-7,-230,0,0,0,0,0,0,0,0,0,-1,1217,1254,0,0
0,-230,0,0,0,0,0,0,0,0,0,-1,1224,1254,0,0
7,-230,0,0,0,0,0,0,0,0,0,-1,1231,1254,0,0
14,-230,0,0,0,0,0,0,0,0,0,-1,1238,1254,0,0
21,-230,0,0,0,0,0,0,0,0,0,-1,1245,1254,0,0
28,-230,0,0,0,0,0,0,0,0,0,-1,1252,1254,0,0
35,-230,0,0,0,0,0,0,0,0,0,-1,1259,1254,0,0
42,-230,0,0,0,0,0,0,0,0,0,-1,1266,1254,0,0
49,-230,0,0,0,0,0,0,0,0,0,-1,1273,1254,0,0
56,-230,0,0,0,0,0,0,0,0,0,-1,1280,1254,0,0
63,-230,0,0,0,0,0,0,0,0,0,-1,1287,1254,0,0
70,-230,0,0,0,0,0,0,0,0,0,-1,1294,1254,0,0
77,-230,0,0,0,0,0,0,0,0,0,-1,1301,1254,0,0
84,-230,0,0,0,0,0,0,0,0,0,-1,1308,1254,0,0
91,-230,0,0,0,0,0,0,0,0,0,-1,1315,1254,0,0
98,-230,0,0,0,0,0,0,0,0,0,-1,1322,1254,0,0
105,-230,0,0,0,0,0,0,0,0,0,-1,1329,1254,0,0
112,-230,0,0,0,0,0,0,0,0,0,-1,1336,1254,0,0
119,-230,0,0,0,0,0,0,0,0,0,-1,1343,1254,0,0
126,-230,0,0,0,0,0,0,0,0,0,-1,1350,1254,0,0
133,-230,0,0,0,0,0,0,0,0,0,-1,1357,1254,0,0
140,-230,0,0,0,0,0,0,0,0,0,-1,1364,1254,0,0
147,-230,0,0,0,0,0,0,0,0,0,-1,1371,1254,0,0
154,-230,0,0,0,0,0,0,0,0,0,-1,1378,1254,0,0
161,-230,0,0,0,0,0,0,0,0,0,-1,1385,1254,0,0
168,-230,0,0,0,0,0,0,0,0,0,-1,1392,1254,0,0
175,-230,0,0,0,0,0,0,0,0,0,-1,1399,1254,0,0
182,-230,0,0,0,0,0,0,0,0,0,-1,1406,1254,0,0
189,-230,0,0,0,0,0,0,0,0,0,-1,1413,1254,0,0
196,-230,0,0,0,0,0,0,0,0,0,-1,1420,1254,0,0
203,-230,0,0,0,0,0,0,0,0,0,-1,1427,1254,0,0
210,-230,0,0,0,0,0,0,0,0,0,-1,1434,1254,0,0
217,-230,0,0,0,0,0,0,0,0,0,-1,1441,1254,0,0
224,-230,0,0,0,0,0,0,0,0,0,-1,1448,1254,0,0
231,-230,0,0,0,0,0,0,0,0,0,-1,1455,1254,0,0
238,-230,0,0,0,0,0,0,0,0,0,-1,1462,1254,0,0
245,-230,0,0,0,0,0,0,0,0,0,-1,1469,1254,0,0
252,-230,0,0,0,0,0,0,0,0,0,-1,1476,1254,0,0
259,-230,0,0,0,0,0,0,0,0,0,-1,1483,1254,0,0
266,-230,0,0,0,0,0,0,0,0,0,-1,1490,1254,0,0
273,-230,0,0,0,0,0,0,0,0,0,-1,1497,1254,0,0
280,-230,0,0,0,0,0,0,0,0,0,-1,1504,1254,0,0
287,-230,0,0,0,0,0,0,0,0,0,-1,1511,1254,0,0
294,-230,0,0,0,0,0,0,0,0,0,-1,1518,1254,0,0
301,-230,0,0,0,0,0,0,0,0,0,-1,1525,1254,0,0
308,-230,0,0,0,0,0,0,0,0,0,-1,1532,1254,0,0
315,-230,0,0,0,0,0,0,0,0,0,-1,1539,1254,0,0
322,-230,0,0,0,0,0,0,0,0,0,-1,1546,1254,0,0
329,-230,0,0,0,0,0,0,0,0,0,-1,1553,1254,0,0
336,-230,0,0,0,0,0,0,0,0,0,-1,1560,1254,0,0
343,-230,0,0,0,0,0,0,0,0,0,-1,1567,1254,0,0
350,-230,0,0,0,0,0,0,0,0,0,-1,1574,1254,0,0
357,-230,0,0,0,0,0,0,0,0,0,-1,1581,1254,0,0
364,-230,0,0,0,0,0,0,0,0,0,-1,1588,1254,0,0
371,-230,0,0,0,0,0,0,0,0,0,-1,1595,1254,0,0
378,-230,0,0,0,0,0,0,0,0,0,-1,1602,1254,0,0
385,-230,0,0,0,0,0,0,0,0,0,-1,1609,1254,0,0
392,-230,0,0,0,0,0,0,0,0,0,-1,1616,1254,0,0
399,-230,0,0,0,0,0,0,0,0,0,-1,1623,1254,0,0
406,-230,0,0,0,0,0,0,0,0,0,-1,1630,1254,0,0
413,-230,0,0,0,0,0,0,0,0,0,-1,1637,1254,0,0
420,-230,0,0,0,0,0,0,0,0,0,-1,1644,1254,0,0
427,-230,0,0,0,0,0,0,0,0,0,-1,1651,1254,0,0
434,-230,0,0,0,0,0,0,0,0,0,-1,1658,1254,0,0
441,-230,0,0,0,0,0,0,0,0,0,-1,1665,1254,0,0
448,-230,0,0,0,0,0,0,0,0,0,-1,1672,1254,0,0
455,-230,0,0,0,0,0,0,0,0,0,-1,1679,1254,0,0
462,-230,0,0,0,0,0,0,0,0,0,-1,1686,1254,0,0
469,-230,0,0,0,0,0,0,0,0,0,-1,1693,1254,0,0
476,-230,0,0,0,0,0,0,0,0,0,-1,1700,1254,0,0
483,-230,0,0,0,0,0,0,0,0,0,-1,1707,1254,0,0
490,-230,0,0,0,0,0,0,0,0,0,-1,1714,1254,0,0
497,-230,0,0,0,0,0,0,0,0,0,-1,1721,1254,0,0
504,-230,0,0,0,0,0,0,0,0,0,-1,1728,1254,0,0
511,-230,0,0,0,0,0,0,0,0,0,-1,1735,1254,0,0
518,-230,0,0,0,0,0,0,0,0,0,-1,1742,1254,0,0
525,-230,0,0,0,0,0,0,0,0,0,-1,1749,1254,0,0
532,-230,0,0,0,0,0,0,0,0,0,-1,1756,1254,0,0
539,-230,0,0,0,0,0,0,0,0,0,-1,1763,1254,0,0
546,-230,0,0,0,0,0,0,0,0,0,-1,1770,1254,0,0
553,-230,0,0,0,0,0,0,0,0,0,-1,1777,1254,0,0
560,-230,0,0,0,0,0,0,0,0,0,-1,1784,1254,0,0
567,-230,0,0,0,0,0,0,0,0,0,-1,1791,1254,0,0
574,-230,0,0,0,0,0,0,0,0,0,-1,1798,1254,0,0
581,-230,0,0,0,0,0,0,0,0,0,-1,1805,1254,0,0
588,-230,0,0,0,0,0,0,0,0,0,-1,1812,1254,0,0
595,-230,0,0,0,0,0,0,0,0,0,-1,1819,1254,0,0
602,-230,0,0,0,0,0,0,0,0,0,-1,1826,1254,0,0
609,-230,0,0,0,0,0,0,0,0,0,-1,1833,1254,0,0
616,-230,59.0208,2.66809,0.000251849,0.00595793,0.000494691,0.0060005,0.000209279,1.48495,0.00393243,0.0340145,1840,1254,59.0208,-2.66813
623,-230,58.9966,2.69446,-0.000974505,0.00360228,0.000352685,0.0036293,-0.00100152,1.49434,0.00281343,0.0342983,1847,1254,58.9966,-2.69445
630,-230,58.9177,2.69324,-0.00209157,0.00128018,7.78512e-05,0.00128197,-0.00209337,1.54772,0.00196743,0.030601,1854,1254,58.9177,-2.69326
637,-230,58.8468,2.58752,-0.00297751,-0.000994561,-0.000234675,-0.000967166,-0.00300491,-1.45459,0.00177121,0.0267216,1861,1254,58.8468,-2.58752
644,-230,58.8262,2.53198,-0.00298941,-0.00213416,-0.000639204,-0.00179273,-0.00333084,-1.0802,0.00192493,0.0211454,1868,1254,58.8262,-2.53195
651,-230,58.8599,2.61218,-0.00252274,-0.00239952,-0.00070137,-0.00175706,-0.0031652,-0.829205,0.00183113,0.0456891,1875,1254,58.8598,-2.61219
658,-230,58.8947,2.70251,0,0,0,0,0,0,0,-1,1882,1254,58.8946,-2.70256
665,-230,56.2585,2.51587,0,0,0,0,0,0,0,-1,1889,1254,56.2586,-2.51586
672,-230,43.0962,2.78699,0,0,0,0,0,0,0,-1,1896,1254,43.0962,-2.78698
679,-230,27.9967,2.37708,0,0,0,0,0,0,0,-1,1903,1254,27.9967,-2.3771
686,-230,40.8854,10.1788,0,0,0,0,0,0,0,-1,1910,1254,40.8853,-10.1788
693,-230,45.4768,11.0746,0,0,0,0,0,0,0,-1,1917,1254,45.4768,-11.0746
700,-230,45.3235,10.5352,0.000666819,-0.00206447,-0.000460831,0.000742477,-0.00214012,-0.162724,0.00172825,0.0384214,1924,1254,45.3235,-10.5351
707,-230,45.2218,9.99475,0.00109296,-0.00183595,-0.000293367,0.00112205,-0.00186505,-0.0988541,0.00174229,0.0181354,1931,1254,45.2218,-9.99478
714,-230,45.1829,9.43152,0.000614989,-0.00157327,0.000225019,0.000637888,-0.00159617,0.101416,0.0013288,0.012658,1938,1254,45.1828,-9.43155
721,-230,45.1694,8.88416,0.000117498,-0.00121837,0.000925542,0.00059095,-0.00169183,0.472837,0.00136809,0.0133584,1945,1254,45.1694,-8.88421
728,-230,45.1149,8.36328,-0.000250678,-0.000951342,0.0016533,0.001089,-0.00229102,0.680993,0.00199216,0.015003,1952,1254,45.1149,-8.36333
735,-230,45.0929,7.84106,-0.000420569,-0.000629235,0.00239568,0.00187305,-0.00292285,0.763637,0.00279094,0.0152678,1959,1254,45.0929,-7.84104
742,-230,45.0565,7.29224,-0.000279608,-0.00040326,0.00318967,0.00284884,-0.0035317,0.775708,0.00369083,0.0122436,1966,1254,45.0565,-7.29219
749,-230,45.0592,6.7041,0.000314732,-0.000276116,0.00402867,0.00405879,-0.00402018,0.748798,0.00466441,0.0120977,1973,1254,45.0592,-6.70411
756,-230,45.0039,6.1908,0.0015798,-0.000314018,0.00496792,0.00569024,-0.00442446,0.691225,0.00585495,0.016227,1980,1254,45.0038,-6.19081
763,-230,44.9634,5.69971,0.00404786,-0.000723519,0.00606724,0.0081816,-0.00485726,0.598079,0.00760911,0.0380313,1987,1254,44.9634,-5.69976
770,-230,45.2897,5.17065,0,0,0,0,0,0,0,-1,1994,1254,45.2896,-5.17063
777,-230,41.8693,3.74707,0,0,0,0,0,0,0,-1,2001,1254,41.8692,-3.74713
784,-230,35.8896,1.80334,0,0,0,0,0,0,0,-1,2008,1254,35.8897,-1.80338
791,-230,35.6028,2.20642,0,0,0,0,0,0,0,-1,2015,1254,35.6027,-2.2064
798,-230,0,0,0,0,0,0,0,0,0,-1,2022,1254,0,0
805,-230,0,0,0,0,0,0,0,0,0,-1,2029,1254,0,0
812,-230,0,0,0,0,0,0,0,0,0,-1,2036,1254,0,0
-700,-237,0,0,0,0,0,0,0,0,0,-1,524,1261,0,0
-693,-237,0,0,0,0,0,0,0,0,0,-1,531,1261,0,0
-686,-237,0,0,0,0,0,0,0,0,0,-1,538,1261,0,0
-679,-237,0,0,0,0,0,0,0,0,0,-1,545,1261,0,0
-672,-237,-34.37,3.95947,0,0,0,0,0,0,0,-1,552,1261,-34.37,-3.95951
-665,-237,-35.3574,5.78271,0,0,0,0,0,0,0,-1,559,1261,-35.3574,-5.78277
-658,-237,-36.8185,7.11401,0,0,0,0,0,0,0,-1,566,1261,-36.8185,-7.11399
-651,-237,-38.1342,8.50635,0,0,0,0,0,0,0,-1,573,1261,-38.1341,-8.5063
-644,-237,-39.1362,10.0416,0,0,0,0,0,0,0,-1,580,1261,-39.1362,-10.0416
-637,-237,-38.7684,-2.22546,0,0,0,0,0,0,0,-1,587,1261,-38.7684,2.22548
-630,-237,-29.3761,2.92297,0,0,0,0,0,0,0,-1,594,1261,-29.3761,-2.92295
-623,-237,-29.3329,3.66663,0.00727003,0.000874586,0.0059632,0.0108388,-0.00269417,0.539289,0.00827149,0.034035,601,1261,-29.3329,-3.66661
-616,-237,-29.3348,4.38391,0.00503612,0.00269481,0.00335275,0.00741671,0.000314224,0.617434,0.00484313,0.0152933,608,1261,-29.3348,-4.38387
-609,-237,-29.3691,4.96558,0.0034235,0.00214152,0.00146513,0.00438172,0.0011833,0.579194,0.00261745,0.0170889,615,1261,-29.3691,-4.96554
-602,-237,-29.4032,5.53796,0.00237929,0.00109851,0.000681277,0.00267391,0.000803895,0.408162,0.00158416,0.0123212,622,1261,-29.4032,-5.53802
-595,-237,-29.4473,6.16541,0.00189149,8.74885e-05,8.72435e-05,0.0018957,8.32792e-05,0.0482111,0.00123698,0.015361,629,1261,-29.4473,-6.16546
-588,-237,-29.4471,6.80212,0.00165032,-0.000721863,-0.000372581,0.00170746,-0.000779005,-0.152182,0.00146854,0.0270931,636,1261,-29.4471,-6.80208
-581,-237,-29.4556,7.41003,0.00179581,-0.00138402,-0.000544402,0.00188643,-0.00147464,-0.164948,0.00194537,0.0256525,643,1261,-29.4556,-7.41002
-574,-237,-29.4987,7.95801,0.00163244,-0.00194253,-0.000476582,0.00169488,-0.00200497,-0.13028,0.00213861,0.0216175,650,1261,-29.4987,-7.95797
-567,-237,-29.5126,8.56702,0.00126433,-0.00234888,-0.000363841,0.0013006,-0.00238515,-0.0993683,0.00215846,0.0358828,657,1261,-29.5126,-8.56705
-560,-237,-29.4198,8.94092,0,0,0,0,0,0,0,-1,664,1261,-29.4198,-8.94091
-553,-237,-20.6102,6.92139,0,0,0,0,0,0,0,-1,671,1261,-20.6102,-6.92138
-546,-237,-11.192,1.14014,0,0,0,0,0,0,0,-1,678,1261,-11.192,-1.14011
-539,-237,-16.512,1.53455,0,0,0,0,0,0,0,-1,685,1261,-16.512,-1.53457
-532,-237,-29.7025,1.23621,0,0,0,0,0,0,0,-1,692,1261,-29.7025,-1.23618
-525,-237,-37.9338,0.75708,0,0,0,0,0,0,0,-1,699,1261,-37.9339,-0.757056
-518,-237,-42.6297,1.00781,0,0,0,0,0,0,0,-1,706,1261,-42.6297,-1.00776
-511,-237,-44.1594,0.763306,0,0,0,0,0,0,0,-1,713,1261,-44.1594,-0.763367
-504,-237,-44.2459,0.742676,0.000419347,0.0102386,-0.00565908,0.0128209,-0.002163,-1.1427,0.00935205,0.0446245,720,1261,-44.2459,-0.74272
-497,-237,-44.2857,0.824829,0,0,0,0,0,0,0,-1,727,1261,-44.2857,-0.824847
-490,-237,0,0,0,0,0,0,0,0,0,-1,734,1261,0,0
-483,-237,0,0,0,0,0,0,0,0,0,-1,741,1261,0,0
-476,-237,0,0,0,0,0,0,0,0,0,-1,748,1261,0,0
-469,-237,0,0,0,0,0,0,0,0,0,-1,755,1261,0,0
-462,-237,0,0,0,0,0,0,0,0,0,-1,762,1261,0,0
-455,-237,0,0,0,0,0,0,0,0,0,-1,769,1261,0,0
-448,-237,0,0,0,0,0,0,0,0,0,-1,776,1261,0,0
-441,-237,0,0,0,0,0,0,0,0,0,-1,783,1261,0,0
-434,-237,0,0,0,0,0,0,0,0,0,-1,790,1261,0,0
-427,-237,0,0,0,0,0,0,0,0,0,-1,797,1261,0,0
-420,-237,0,0,0,0,0,0,0,0,0,-1,804,1261,0,0
-413,-237,0,0,0,0,0,0,0,0,0,-1,811,1261,0,0
-406,-237,0,0,0,0,0,0,0,0,0,-1,818,1261,0,0
-399,-237,0,0,0,0,0,0,0,0,0,-1,825,1261,0,0
-392,-237,0,0,0,0,0,0,0,0,0,-1,832,1261,0,0
-385,-237,0,0,0,0,0,0,0,0,0,-1,839,1261,0,0
-378,-237,0,0,0,0,0,0,0,0,0,-1,846,1261,0,0
-371,-237,0,0,0,0,0,0,0,0,0,-1,853,1261,0,0
-364,-237,0,0,0,0,0,0,0,0,0,-1,860,1261,0,0
-357,-237,0,0,0,0,0,0,0,0,0,-1,867,1261,0,0
-350,-237,0,0,0,0,0,0,0,0,0,-1,874,1261,0,0
-343,-237,0,0,0,0,0,0,0,0,0,-1,881,1261,0,0
-336,-237,0,0,0,0,0,0,0,0,0,-1,888,1261,0,0
-329,-237,0,0,0,0,0,0,0,0,0,-1,895,1261,0,0
-322,-237,0,0,0,0,0,0,0,0,0,-1,902,1261,0,0
-315,-237,0,0,0,0,0,0,0,0,0,-1,909,1261,0,0
-308,-237,0,0,0,0,0,0,0,0,0,-1,916,1261,0,0
-301,-237,0,0,0,0,0,0,0,0,0,-1,923,1261,0,0
-294,-237,0,0,0,0,0,0,0,0,0,-1,930,1261,0,0
-287,-237,0,0,0,0,0,0,0,0,0,-1,937,1261,0,0
-280,-237,0,0,0,0,0,0,0,0,0,-1,944,1261,0,0
-273,-237,0,0,0,0,0,0,0,0,0,-1,951,1261,0,0
-266,-237,0,0,0,0,0,0,0,0,0,-1,958,1261,0,0
-259,-237,0,0,0,0,0,0,0,0,0,-1,965,1261,0,0
-252,-237,0,0,0,0,0,0,0,0,0,-1,972,1261,0,0
-245,-237,0,0,0,0,0,0,0,0,0,-1,979,1261,0,0
-238,-237,0,0,0,0,0,0,0,0,0,-1,986,1261,0,0
-231,-237,0,0,0,0,0,0,0,0,0,-1,993,1261,0,0
-224,-237,0,0,0,0,0,0,0,0,0,-1,1000,1261,0,0
-217,-237,0,0,0,0,0,0,0,0,0,-1,1007,1261,0,0
-210,-237,0,0,0,0,0,0,0,0,0,-1,1014,1261,0,0
-203,-237,0,0,0,0,0,0,0,0,0,-1,1021,1261,0,0
-196,-237,0,0,0,0,0,0,0,0,0,-1,1028,1261,0,0
-189,-237,0,0,0,0,0,0,0,0,0,-1,1035,1261,0,0
-182,-237,0,0,0,0,0,0,0,0,0,-1,1042,1261,0,0
-175,-237,0,0,0,0,0,0,0,0,0,-1,1049,1261,0,0
-168,-237,0,0,0,0,0,0,0,0,0,-1,1056,1261,0,0
-161,-237,0,0,0,0,0,0,0,0,0,-1,1063,1261,0,0
-154,-237,0,0,0,0,0,0,0,0,0,-1,1070,1261,0,0
-147,-237,0,0,0,0,0,0,0,0,0,-1,1077,1261,0,0
-140,-237,0,0,0,0,0,0,0,0,0,-1,1084,1261,0,0
-133,-237,0,0,0,0,0,0,0,0,0,-1,1091,1261,0,0
-126,-237,0,0,0,0,0,0,0,0,0,-1,1098,1261,0,0
-119,-237,0,0,0,0,0,0,0,0,0,-1,1105,1261,0,0
-112,-237,0,0,0,0,0,0,0,0,0,-1,1112,1261,0,0
-105,-237,0,0,0,0,0,0,0,0,0,-1,1119,1261,0,0
-98,-237,0,0,0,0,0,0,0,0,0,-1,1126,1261,0,0
-91,-237,0,0,0,0,0,0,0,0,0,-1,1133,1261,0,0
-84,-237,0,0,0,0,0,0,0,0,0,-1,1140,1261,0,0
-77,-237,0,0,0,0,0,0,0,0,0,-1,1147,1261,0,0
-70,-237,0,0,0,0,0,0,0,0,0,-1,1154,1261,0,0
-63,-237,0,0,0,0,0,0,0,0,0,-1,1161,1261,0,0
-56,-237,0,0,0,0,0,0,0,0,0,-1,1168,1261,0,0
-49,-237,0,0,0,0,0,0,0,0,0,-1,1175,1261,0,0
-42,-237,0,0,0,0,0,0,0,0,0,-1,1182,1261,0,0
-35,-237,0,0,0,0,0,0,0,0,0,-1,1189,1261,0,0
-28,-237,0,0,0,0,0,0,0,0,0,-1,1196,1261,0,0
-21,-237,0,0,0,0,0,0,0,0,0,-1,1203,1261,0,0
-14,-237,0,0,0,0,0,0,0,0,0,-1,1210,1261,0,0
-7,-237,0,0,0,0,0,0,0,0,0,-1,1217,1261,0,0
0,-237,0,0,0,0,0,0,0,0,0,-1,1224,1261,0,0
7,-237,0,0,0,0,0,0,0,0,0,-1,1231,1261,0,0
14,-237,0,0,0,0,0,0,0,0,0,-1,1238,1261,0,0
21,-237,0,0,0,0,0,0,0,0,0,-1,1245,1261,0,0
28,-237,0,0,0,0,0,0,0,0,0,-1,1252,1261,0,0
35,-237,0,0,0,0,0,0,0,0,0,-1,1259,1261,0,0
42,-237,0,0,0,0,0,0,0,0,0,-1,1266,1261,0,0
49,-237,0,0,0,0,0,0,0,0,0,-1,1273,1261,0,0
56,-237,0,0,0,0,0,0,0,0,0,-1,1280,1261,0,0
63,-237,0,0,0,0,0,0,0,0,0,-1,1287,1261,0,0
70,-237,0,0,0,0,0,0,0,0,0,-1,1294,1261,0,0
77,-237,0,0,0,0,0,0,0,0,0,-1,1301,1261,0,0
84,-237,0,0,0,0,0,0,0,0,0,-1,1308,1261,0,0
91,-237,0,0,0,0,0,0,0,0,0,-1,1315,1261,0,0
98,-237,0,0,0,0,0,0,0,0,0,-1,1322,1261,0,0
105,-237,0,0,0,0,0,0,0,0,0,-1,1329,1261,0,0
112,-237,0,0,0,0,0,0,0,0,0,-1,1336,1261,0,0
119,-237,0,0,0,0,0,0,0,0,0,-1,1343,1261,0,0
126,-237,0,0,0,0,0,0,0,0,0,-1,1350,1261,0,0
133,-237,0,0,0,0,0,0,0,0,0,-1,1357,1261,0,0
140,-237,0,0,0,0,0,0,0,0,0,-1,1364,1261,0,0
147,-237,0,0,0,0,0,0,0,0,0,-1,1371,1261,0,0
154,-237,0,0,0,0,0,0,0,0,0,-1,1378,1261,0,0
161,-237,0,0,0,0,0,0,0,0,0,-1,1385,1261,0,0
168,-237,0,0,0,0,0,0,0,0,0,-1,1392,1261,0,0
175,-237,0,0,0,0,0,0,0,0,0,-1,1399,1261,0,0
182,-237,0,0,0,0,0,0,0,0,0,-1,1406,1261,0,0
189,-237,0,0,0,0,0,0,0,0,0,-1,1413,1261,0,0
196,-237,0,0,0,0,0,0,0,0,0,-1,1420,1261,0,0
203,-237,0,0,0,0,0,0,0,0,0,-1,1427,1261,0,0
210,-237,0,0,0,0,0,0,0,0,0,-1,1434,1261,0,0
217,-237,0,0,0,0,0,0,0,0,0,-1,1441,1261,0,0
224,-237,0,0,0,0,0,0,0,0,0,-1,1448,1261,0,0
231,-237,0,0,0,0,0,0,0,0,0,-1,1455,1261,0,0
238,-237,0,0,0,0,0,0,0,0,0,-1,1462,1261,0,0
245,-237,0,0,0,0,0,0,0,0,0,-1,1469,1261,0,0
252,-237,0,0,0,0,0,0,0,0,0,-1,1476,1261,0,0
259,-237,0,0,0,0,0,0,0,0,0,-1,1483,1261,0,0
266,-237,0,0,0,0,0,0,0,0,0,-1,1490,1261,0,0
273,-237,0,0,0,0,0,0,0,0,0,-1,1497,1261,0,0
280,-237,0,0,0,0,0,0,0,0,0,-1,1504,1261,0,0
287,-237,0,0,0,0,0,0,0,0,0,-1,1511,1261,0,0
294,-237,0,0,0,0,0,0,0,0,0,-1,1518,1261,0,0
301,-237,0,0,0,0,0,0,0,0,0,-1,1525,1261,0,0
308,-237,0,0,0,0,0,0,0,0,0,-1,1532,1261,0,0
315,-237,0,0,0,0,0,0,0,0,0,-1,1539,1261,0,0
322,-237,0,0,0,0,0,0,0,0,0,-1,1546,1261,0,0
329,-237,0,0,0,0,0,0,0,0,0,-1,1553,1261,0,0
336,-237,0,0,0,0,0,0,0,0,0,-1,1560,1261,0,0
343,-237,0,0,0,0,0,0,0,0,0,-1,1567,1261,0,0
350,-237,0,0,0,0,0,0,0,0,0,-1,1574,1261,0,0
357,-237,0,0,0,0,0,0,0,0,0,-1,1581,1261,0,0
364,-237,0,0,0,0,0,0,0,0,0,-1,1588,1261,0,0
371,-237,0,0,0,0,0,0,0,0,0,-1,1595,1261,0,0
378,-237,0,0,0,0,0,0,0,0,0,-1,1602,1261,0,0
385,-237,0,0,0,0,0,0,0,0,0,-1,1609,1261,0,0
392,-237,0,0,0,0,0,0,0,0,0,-1,1616,1261,0,0
399,-237,0,0,0,0,0,0,0,0,0,-1,1623,1261,0,0
406,-237,0,0,0,0,0,0,0,0,0,-1,1630,1261,0,0
413,-237,0,0,0,0,0,0,0,0,0,-1,1637,1261,0,0
420,-237,0,0,0,0,0,0,0,0,0,-1,1644,1261,0,0
427,-237,0,0,0,0,0,0,0,0,0,-1,1651,1261,0,0
434,-237,0,0,0,0,0,0,0,0,0,-1,1658,1261,0,0
441,-237,0,0,0,0,0,0,0,0,0,-1,1665,1261,0,0
448,-237,0,0,0,0,0,0,0,0,0,-1,1672,1261,0,0
455,-237,0,0,0,0,0,0,0,0,0,-1,1679,1261,0,0
462,-237,0,0,0,0,0,0,0,0,0,-1,1686,1261,0,0
469,-237,0,0,0,0,0,0,0,0,0,-1,1693,1261,0,0
476,-237,0,0,0,0,0,0,0,0,0,-1,1700,1261,0,0
483,-237,0,0,0,0,0,0,0,0,0,-1,1707,1261,0,0
490,-237,0,0,0,0,0,0,0,0,0,-1,1714,1261,0,0
497,-237,0,0,0,0,0,0,0,0,0,-1,1721,1261,0,0
504,-237,0,0,0,0,0,0,0,0,0,-1,1728,1261,0,0
511,-237,0,0,0,0,0,0,0,0,0,-1,1735,1261,0,0
518,-237,0,0,0,0,0,0,0,0,0,-1,1742,1261,0,0
525,-237,0,0,0,0,0,0,0,0,0,-1,1749,1261,0,0
532,-237,0,0,0,0,0,0,0,0,0,-1,1756,1261,0,0
539,-237,0,0,0,0,0,0,0,0,0,-1,1763,1261,0,0
546,-237,0,0,0,0,0,0,0,0,0,-1,1770,1261,0,0
553,-237,0,0,0,0,0,0,0,0,0,-1,1777,1261,0,0
560,-237,0,0,0,0,0,0,0,0,0,-1,1784,1261,0,0
567,-237,0,0,0,0,0,0,0,0,0,-1,1791,1261,0,0
574,-237,0,0,0,0,0,0,0,0,0,-1,1798,1261,0,0
581,-237,0,0,0,0,0,0,0,0,0,-1,1805,1261,0,0
588,-237,0,0,0,0,0,0,0,0,0,-1,1812,1261,0,0
595,-237,0,0,0,0,0,0,0,0,0,-1,1819,1261,0,0
602,-237,0,0,0,0,0,0,0,0,0,-1,1826,1261,0,0
609,-237,0,0,0,0,0,0,0,0,0,-1,1833,1261,0,0
616,-237,58.9626,2.63342,0.000541155,0.00548149,-5.10225e-05,0.00548202,0.000540628,-1.56047,0.00348846,0.0354141,1840,1261,58.9627,-2.63342
623,-237,58.9785,2.65601,-0.00110201,0.00316129,-1.98682e-05,0.00316138,-0.0011021,-1.56614,0.00255544,0.0311833,1847,1261,58.9785,-2.65597
630,-237,58.9193,2.67078,-0.00272999,0.000676261,-0.000145874,0.000682496,-0.00273623,-1.52808,0.00208915,0.0253713,1854,1261,58.9193,-2.67081
637,-237,58.8173,2.56323,-0.00381258,-0.00155218,-0.000319994,-0.00150776,-0.00385701,-1.43284,0.00224444,0.0213826,1861,1261,58.8173,-2.56329
644,-237,58.7645,2.48828,-0.00366512,-0.00231165,-0.000623757,-0.00206804,-0.00390873,-1.19845,0.00225798,0.0415202,1868,1261,58.7646,-2.48825
651,-237,58.8628,2.64209,0,0,0,0,0,0,0,-1,1875,1261,58.8628,-2.64205
658,-237,57.7922,3.16138,0,0,0,0,0,0,0,-1,1882,1261,57.7922,-3.16132
665,-237,57.9302,3.30676,0,0,0,0,0,0,0,-1,1889,1261,57.9302,-3.30671
672,-237,45.3922,1.95618,0,0,0,0,0,0,0,-1,1896,1261,45.3922,-1.95623
679,-237,23.1501,7.37488,0,0,0,0,0,0,0,-1,1903,1261,23.1502,-7.37493
686,-237,36.8348,9.99426,0,0,0,0,0,0,0,-1,1910,1261,36.8349,-9.99424
693,-237,44.4694,11.3226,0,0,0,0,0,0,0,-1,1917,1261,44.4693,-11.3226
700,-237,44.6777,10.5801,0.000479187,-0.00193088,-0.000386839,0.000539756,-0.00199144,-0.155314,0.00153942,0.0183613,1924,1261,44.6778,-10.58
707,-237,44.6449,10.0347,0.000931423,-0.00161855,-0.00020755,0.000948206,-0.00163533,-0.0806856,0.00150909,0.011389,1931,1261,44.6449,-10.0346
714,-237,44.6262,9.47388,0.000269282,-0.00133953,0.000358757,0.000345657,-0.00141591,0.209756,0.0010778,0.0154876,1938,1261,44.6262,-9.47391
721,-237,44.559,8.94153,-0.000333442,-0.000987432,0.00107474,0.000462951,-0.00178383,0.637721,0.00136986,0.0180423,1945,1261,44.559,-8.9415
728,-237,44.5529,8.36877,-0.000794392,-0.000724601,0.00179345,0.00103429,-0.00255329,0.795126,0.00213228,0.0154467,1952,1261,44.5529,-8.3688
735,-237,44.5367,7.7793,-0.00107121,-0.000464808,0.00252726,0.00177737,-0.00331339,0.845099,0.00298341,0.0191901,1959,1261,44.5367,-7.77925
742,-237,44.521,7.26367,-0.00107246,-0.00029885,0.00330928,0.00264615,-0.00401746,0.843577,0.0038743,0.0163049,1966,1261,44.521,-7.2637
749,-237,44.4655,6.73877,-0.000649323,-0.000220996,0.00412142,0.00369182,-0.00456214,0.811357,0.00477425,0.0116018,1973,1261,44.4655,-6.73881
756,-237,44.3629,6.24792,0.000394935,-0.000337723,0.00504878,0.00509066,-0.00503344,0.749183,0.00584518,0.018595,1980,1261,44.3629,-6.2479
763,-237,44.1669,5.71191,0.00263443,-0.000829328,0.00609606,0.00723985,-0.00543475,0.646996,0.00734238,0.0381411,1987,1261,44.1669,-5.71193
770,-237,44.25,5.09302,0,0,0,0,0,0,0,-1,1994,1261,44.25,-5.09299
777,-237,44.5345,4.35327,0,0,0,0,0,0,0,-1,2001,1261,44.5345,-4.35324
784,-237,36.3441,1.68591,0,0,0,0,0,0,0,-1,2008,1261,36.3441,-1.68592
791,-237,32.3025,6.03235,0,0,0,0,0,0,0,-1,2015,1261,32.3025,-6.03229
798,-237,0,0,0,0,0,0,0,0,0,-1,2022,1261,0,0
805,-237,0,0,0,0,0,0,0,0,0,-1,2029,1261,0,0
812,-237,0,0,0,0,0,0,0,0,0,-1,2036,1261,0,0
-700,-244,0,0,0,0,0,0,0,0,0,-1,524,1268,0,0
-693,-244,0,0,0,0,0,0,0,0,0,-1,531,1268,0,0
-686,-244,0,0,0,0,0,0,0,0,0,-1,538,1268,0,0
-679,-244,0,0,0,0,0,0,0,0,0,-1,545,1268,0,0
-672,-244,-37.6608,-8.39966,0,0,0,0,0,0,0,-1,552,1268,-37.6608,8.3996
-665,-244,-37.3451,-7.36536,0,0,0,0,0,0,0,-1,559,1268,-37.3451,7.36536
-658,-244,-37.2944,8.26355,0,0,0,0,0,0,0,-1,566,1268,-37.2944,-8.26352
-651,-244,-38.7541,9.51599,0,0,0,0,0,0,0,-1,573,1268,-38.7541,-9.51598
-644,-244,-39.7151,11.0574,0,0,0,0,0,0,0,-1,580,1268,-39.7152,-11.0574
-637,-244,-28.5396,1.99573,0,0,0,0,0,0,0,-1,587,1268,-28.5395,-1.99578
-630,-244,-28.8388,2.78662,0,0,0,0,0,0,0,-1,594,1268,-28.8388,-2.78662
-623,-244,-28.8047,3.65955,0.00660386,0.000952735,0.00614175,0.0105388,-0.00298224,0.569805,0.00820272,0.0345771,601,1268,-28.8047,-3.6596
-616,-244,-28.7357,4.39929,0.0045358,0.00253157,0.00358964,0.00726058,-0.00019321,0.649279,0.00490606,0.0173422,608,1268,-28.7357,-4.39928
-609,-244,-28.7951,4.97766,0.00312913,0.00210423,0.0017932,0.00448167,0.000751692,0.64622,0.00277141,0.0149213,615,1268,-28.7951,-4.97768
-602,-244,-28.8477,5.55273,0.00232013,0.00119254,0.00103199,0.00293229,0.000580376,0.535392,0.00179299,0.0157694,622,1268,-28.8476,-5.55274
-595,-244,-28.9,6.19373,0.00197847,0.000339565,0.00047309,0.00210523,0.000212806,0.261789,0.0013382,0.0168366,629,1268,-28.9,-6.19376
-588,-244,-28.8403,6.82996,0.00184657,-0.000413632,5.54439e-05,0.00184793,-0.000414991,0.0245108,0.00139107,0.0210374,636,1268,-28.8403,-6.83
-581,-244,-28.864,7.41528,0.00205549,-0.00109892,-8.40534e-05,0.00205773,-0.00110116,-0.0266211,0.00185145,0.0171766,643,1268,-28.8639,-7.41531
-574,-244,-28.928,8.005,0.00200687,-0.00176485,9.32053e-06,0.00200689,-0.00176487,0.00247114,0.00217912,0.0135108,650,1268,-28.928,-8.00497
-567,-244,-28.9312,8.60547,0.00173702,-0.00228108,0.000147781,0.00174244,-0.0022865,0.0367127,0.00233317,0.0228584,657,1268,-28.9311,-8.60548
-560,-244,-28.8144,9.15564,0.00146515,-0.00188442,-9.58306e-05,0.00146789,-0.00188716,-0.0285787,0.00194207,0.0431838,664,1268,-28.8144,-9.1556
-553,-244,-28.6425,9.70764,0,0,0,0,0,0,0,-1,671,1268,-28.6425,-9.70766
-546,-244,-11.2686,4.41772,0,0,0,0,0,0,0,-1,678,1268,-11.2686,-4.41767
-539,-244,-12.8706,0.3302,0,0,0,0,0,0,0,-1,685,1268,-12.8706,-0.330156
-532,-244,-18.1502,0.816528,0,0,0,0,0,0,0,-1,692,1268,-18.1502,-0.816514
-525,-244,-33.0835,0.693604,0,0,0,0,0,0,0,-1,699,1268,-33.0835,-0.69365
-518,-244,-38.1713,0.902832,0,0,0,0,0,0,0,-1,706,1268,-38.1713,-0.902888
-511,-244,-42.9409,1.26807,0,0,0,0,0,0,0,-1,713,1268,-42.9409,-1.26811
-504,-244,-44.1758,0.76001,0,0,0,0,0,0,0,-1,720,1268,-44.1758,-0.75997
-497,-244,-44.3069,0.823242,0,0,0,0,0,0,0,-1,727,1268,-44.3069,-0.823288
-490,-244,0,0,0,0,0,0,0,0,0,-1,734,1268,0,0
-483,-244,0,0,0,0,0,0,0,0,0,-1,741,1268,0,0
-476,-244,0,0,0,0,0,0,0,0,0,-1,748,1268,0,0
-469,-244,0,0,0,0,0,0,0,0,0,-1,755,1268,0,0
-462,-244,0,0,0,0,0,0,0,0,0,-1,762,1268,0,0
-455,-244,0,0,0,0,0,0,0,0,0,-1,769,1268,0,0
-448,-244,0,0,0,0,0,0,0,0,0,-1,776,1268,0,0
-441,-244,0,0,0,0,0,0,0,0,0,-1,783,1268,0,0
-434,-244,0,0,0,0,0,0,0,0,0,-1,790,1268,0,0
-427,-244,0,0,0,0,0,0,0,0,0,-1,797,1268,0,0
-420,-244,0,0,0,0,0,0,0,0,0,-1,804,1268,0,0
-413,-244,0,0,0,0,0,0,0,0,0,-1,811,1268,0,0
-406,-244,0,0,0,0,0,0,0,0,0,-1,818,1268,0,0
-399,-244,0,0,0,0,0,0,0,0,0,-1,825,1268,0,0
-392,-244,0,0,0,0,0,0,0,0,0,-1,832,1268,0,0
-385,-244,0,0,0,0,0,0,0,0,0,-1,839,1268,0,0
-378,-244,0,0,0,0,0,0,0,0,0,-1,846,1268,0,0
-371,-244,0,0,0,0,0,0,0,0,0,-1,853,1268,0,0
-364,-244,0,0,0,0,0,0,0,0,0,-1,860,1268,0,0
-357,-244,0,0,0,0,0,0,0,0,0,-1,867,1268,0,0
-350,-244,0,0,0,0,0,0,0,0,0,-1,874,1268,0,0
-343,-244,0,0,0,0,0,0,0,0,0,-1,881,1268,0,0
-336,-244,0,0,0,0,0,0,0,0,0,-1,888,1268,0,0
-329,-244,0,0,0,0,0,0,0,0,0,-1,895,1268,0,0
-322,-244,0,0,0,0,0,0,0,0,0,-1,902,1268,0,0
-315,-244,0,0,0,0,0,0,0,0,0,-1,909,1268,0,0
-308,-244,0,0,0,0,0,0,0,0,0,-1,916,1268,0,0
-301,-244,0,0,0,0,0,0,0,0,0,-1,923,1268,0,0
-294,-244,0,0,0,0,0,0,0,0,0,-1,930,1268,0,0
-287,-244,0,0,0,0,0,0,0,0,0,-1,937,1268,0,0
-280,-244,0,0,0,0,0,0,0,0,0,-1,944,1268,0,0
-273,-244,0,0,0,0,0,0,0,0,0,-1,951,1268,0,0
-266,-244,0,0,0,0,0,0,0,0,0,-1,958,1268,0,0
-259,-244,0,0,0,0,0,0,0,0,0,-1,965,1268,0,0
-252,-244,0,0,0,0,0,0,0,0,0,-1,972,1268,0,0
-245,-244,0,0,0,0,0,0,0,0,0,-1,979,1268,0,0
-238,-244,0,0,0,0,0,0,0,0,0,-1,986,1268,0,0
-231,-244,0,0,0,0,0,0,0,0,0,-1,993,1268,0,0
-224,-244,0,0,0,0,0,0,0,0,0,-1,1000,1268,0,0
-217,-244,0,0,0,0,0,0,0,0,0,-1,1007,1268,0,0
-210,-244,0,0,0,0,0,0,0,0,0,-1,1014,1268,0,0
-203,-244,0,0,0,0,0,0,0,0,0,-1,1021,1268,0,0
-196,-244,0,0,0,0,0,0,0,0,0,-1,1028,1268,0,0
-189,-244,0,0,0,0,0,0,0,0,0,-1,1035,1268,0,0
-182,-244,0,0,0,0,0,0,0,0,0,-1,1042,1268,0,0
-175,-244,0,0,0,0,0,0,0,0,0,-1,1049,1268,0,0
-168,-244,0,0,0,0,0,0,0,0,0,-1,1056,1268,0,0
-161,-244,0,0,0,0,0,0,0,0,0,-1,1063,1268,0,0
-154,-244,0,0,0,0,0,0,0,0,0,-1,1070,1268,0,0
-147,-244,0,0,0,0,0,0,0,0,0,-1,1077,1268,0,0
-140,-244,0,0,0,0,0,0,0,0,0,-1,1084,1268,0,0
-133,-244,0,0,0,0,0,0,0,0,0,-1,1091,1268,0,0
-126,-244,0,0,0,0,0,0,0,0,0,-1,1098,1268,0,0
-119,-244,0,0,0,0,0,0,0,0,0,-1,1105,1268,0,0
-112,-244,0,0,0,0,0,0,0,0,0,-1,1112,1268,0,0
-105,-244,0,0,0,0,0,0,0,0,0,-1,1119,1268,0,0
-98,-244,0,0,0,0,0,0,0,0,0,-1,1126,1268,0,0
-91,-244,0,0,0,0,0,0,0,0,0,-1,1133,1268,0,0
-84,-244,0,0,0,0,0,0,0,0,0,-1,1140,1268,0,0
-77,-244,0,0,0,0,0,0,0,0,0,-1,1147,1268,0,0
-70,-244,0,0,0,0,0,0,0,0,0,-1,1154,1268,0,0
-63,-244,0,0,0,0,0,0,0,0,0,-1,1161,1268,0,0
-56,-244,0,0,0,0,0,0,0,0,0,-1,1168,1268,0,0
-49,-244,0,0,0,0,0,0,0,0,0,-1,1175,1268,0,0
-42,-244,0,0,0,0,0,0,0,0,0,-1,1182,1268,0,0
-35,-244,0,0,0,0,0,0,0,0,0,-1,1189,1268,0,0
-28,-244,0,0,0,0,0,0,0,0,0,-1,1196,1268,0,0
-21,-244,0,0,0,0,0,0,0,0,0,-1,1203,1268,0,0
-14,-244,0,0,0,0,0,0,0,0,0,-1,1210,1268,0,0
-7,-244,0,0,0,0,0,0,0,0,0,-1,1217,1268,0,0
0,-244,0,0,0,0,0,0,0,0,0,-1,1224,1268,0,0
7,-244,0,0,0,0,0,0,0,0,0,-1,1231,1268,0,0
14,-244,0,0,0,0,0,0,0,0,0,-1,1238,1268,0,0
21,-244,0,0,0,0,0,0,0,0,0,-1,1245,1268,0,0
28,-244,0,0,0,0,0,0,0,0,0,-1,1252,1268,0,0
35,-244,0,0,0,0,0,0,0,0,0,-1,1259,1268,0,0
42,-244,0,0,0,0,0,0,0,0,0,-1,1266,1268,0,0
49,-244,0,0,0,0,0,0,0,0,0,-1,1273,1268,0,0
56,-244,0,0,0,0,0,0,0,0,0,-1,1280,1268,0,0
63,-244,0,0,0,0,0,0,0,0,0,-1,1287,1268,0,0
70,-244,0,0,0,0,0,0,0,0,0,-1,1294,1268,0,0
77,-244,0,0,0,0,0,0,0,0,0,-1,1301,1268,0,0
84,-244,0,0,0,0,0,0,0,0,0,-1,1308,1268,0,0
91,-244,0,0,0,0,0,0,0,0,0,-1,1315,1268,0,0
98,-244,0,0,0,0,0,0,0,0,0,-1,1322,1268,0,0
105,-244,0,0,0,0,0,0,0,0,0,-1,1329,1268,0,0
112,-244,0,0,0,0,0,0,0,0,0,-1,1336,1268,0,0
119,-244,0,0,0,0,0,0,0,0,0,-1,1343,1268,0,0
126,-244,0,0,0,0,0,0,0,0,0,-1,1350,1268,0,0
133,-244,0,0,0,0,0,0,0,0,0,-1,1357,1268,0,0
140,-244,0,0,0,0,0,0,0,0,0,-1,1364,1268,0,0
147,-244,0,0,0,0,0,0,0,0,0,-1,1371,1268,0,0
154,-244,0,0,0,0,0,0,0,0,0,-1,1378,1268,0,0
161,-244,0,0,0,0,0,0,0,0,0,-1,1385,1268,0,0
168,-244,0,0,0,0,0,0,0,0,0,-1,1392,1268,0,0
175,-244,0,0,0,0,0,0,0,0,0,-1,1399,1268,0,0
182,-244,0,0,0,0,0,0,0,0,0,-1,1406,1268,0,0
189,-244,0,0,0,0,0,0,0,0,0,-1,1413,1268,0,0
196,-244,0,0,0,0,0,0,0,0,0,-1,1420,1268,0,0
203,-244,0,0,0,0,0,0,0,0,0,-1,1427,1268,0,0
210,-244,0,0,0,0,0,0,0,0,0,-1,1434,1268,0,0
217,-244,0,0,0,0,0,0,0,0,0,-1,1441,1268,0,0
224,-244,0,0,0,0,0,0,0,0,0,-1,1448,1268,0,0
231,-244,0,0,0,0,0,0,0,0,0,-1,1455,1268,0,0
238,-244,0,0,0,0,0,0,0,0,0,-1,1462,1268,0,0
245,-244,0,0,0,0,0,0,0,0,0,-1,1469,1268,0,0
252,-244,0,0,0,0,0,0,0,0,0,-1,1476,1268,0,0
259,-244,0,0,0,0,0,0,0,0,0,-1,1483,1268,0,0
266,-244,0,0,0,0,0,0,0,0,0,-1,1490,1268,0,0
273,-244,0,0,0,0,0,0,0,0,0,-1,1497,1268,0,0
280,-244,0,0,0,0,0,0,0,0,0,-1,1504,1268,0,0
287,-244,0,0,0,0,0,0,0,0,0,-1,1511,1268,0,0
294,-244,0,0,0,0,0,0,0,0,0,-1,1518,1268,0,0
301,-244,0,0,0,0,0,0,0,0,0,-1,1525,1268,0,0
308,-244,0,0,0,0,0,0,0,0,0,-1,1532,1268,0,0
315,-244,0,0,0,0,0,0,0,0,0,-1,1539,1268,0,0
322,-244,0,0,0,0,0,0,0,0,0,-1,1546,1268,0,0
329,-244,0,0,0,0,0,0,0,0,0,-1,1553,1268,0,0
336,-244,0,0,0,0,0,0,0,0,0,-1,1560,1268,0,0
343,-244,0,0,0,0,0,0,0,0,0,-1,1567,1268,0,0
350,-244,0,0,0,0,0,0,0,0,0,-1,1574,1268,0,0
357,-244,0,0,0,0,0,0,0,0,0,-1,1581,1268,0,0
364,-244,0,0,0,0,0,0,0,0,0,-1,1588,1268,0,0
371,-244,0,0,0,0,0,0,0,0,0,-1,1595,1268,0,0
378,-244,0,0,0,0,0,0,0,0,0,-1,1602,1268,0,0
385,-244,0,0,0,0,0,0,0,0,0,-1,1609,1268,0,0
392,-244,0,0,0,0,0,0,0,0,0,-1,1616,1268,0,0
399,-244,0,0,0,0,0,0,0,0,0,-1,1623,1268,0,0
406,-244,0,0,0,0,0,0,0,0,0,-1,1630,1268,0,0
413,-244,0,0,0,0,0,0,0,0,0,-1,1637,1268,0,0
420,-244,0,0,0,0,0,0,0,0,0,-1,1644,1268,0,0
427,-244,0,0,0,0,0,0,0,0,0,-1,1651,1268,0,0
434,-244,0,0,0,0,0,0,0,0,0,-1,1658,1268,0,0
441,-244,0,0,0,0,0,0,0,0,0,-1,1665,1268,0,0
448,-244,0,0,0,0,0,0,0,0,0,-1,1672,1268,0,0
455,-244,0,0,0,0,0,0,0,0,0,-1,1679,1268,0,0
462,-244,0,0,0,0,0,0,0,0,0,-1,1686,1268,0,0
469,-244,0,0,0,0,0,0,0,0,0,-1,1693,1268,0,0
476,-244,0,0,0,0,0,0,0,0,0,-1,1700,1268,0,0
483,-244,0,0,0,0,0,0,0,0,0,-1,1707,1268,0,0
490,-244,0,0,0,0,0,0,0,0,0,-1,1714,1268,0,0
497,-244,0,0,0,0,0,0,0,0,0,-1,1721,1268,0,0
504,-244,0,0,0,0,0,0,0,0,0,-1,1728,1268,0,0
511,-244,0,0,0,0,0,0,0,0,0,-1,1735,1268,0,0
518,-244,0,0,0,0,0,0,0,0,0,-1,1742,1268,0,0
525,-244,0,0,0,0,0,0,0,0,0,-1,1749,1268,0,0
532,-244,0,0,0,0,0,0,0,0,0,-1,1756,1268,0,0
539,-244,0,0,0,0,0,0,0,0,0,-1,1763,1268,0,0
546,-244,0,0,0,0,0,0,0,0,0,-1,1770,1268,0,0
553,-244,0,0,0,0,0,0,0,0,0,-1,1777,1268,0,0
560,-244,0,0,0,0,0,0,0,0,0,-1,1784,1268,0,0
567,-244,0,0,0,0,0,0,0,0,0,-1,1791,1268,0,0
574,-244,0,0,0,0,0,0,0,0,0,-1,1798,1268,0,0
581,-244,0,0,0,0,0,0,0,0,0,-1,1805,1268,0,0
588,-244,0,0,0,0,0,0,0,0,0,-1,1812,1268,0,0
595,-244,0,0,0,0,0,0,0,0,0,-1,1819,1268,0,0
602,-244,0,0,0,0,0,0,0,0,0,-1,1826,1268,0,0
609,-244,0,0,0,0,0,0,0,0,0,-1,1833,1268,0,0
616,-244,58.8643,2.57458,0.000477081,0.0053473,-0.000469712,0.00539219,0.000432193,-1.47552,0.00345974,0.0335592,1840,1268,58.8643,-2.57464
623,-244,58.9128,2.64795,-0.00148279,0.00298383,-0.000371684,0.00301455,-0.00151351,-1.48834,0.00266172,0.0274482,1847,1268,58.9128,-2.64801
630,-244,58.8794,2.65784,-0.00350182,0.000334356,-0.00039653,0.000374915,-0.00354238,-1.46887,0.00249596,0.0249633,1854,1268,58.8795,-2.65785
637,-244,58.8257,2.62329,-0.00438287,-0.00161548,-0.00044453,-0.00154582,-0.00445252,-1.41537,0.00261038,0.0385867,1861,1268,58.8257,-2.6233
644,-244,58.7848,2.60596,-0.00401621,-0.00207737,-0.000647709,-0.0018809,-0.00421269,-1.27628,0.00243683,0.0448736,1868,1268,58.7848,-2.60597
651,-244,58.629,2.54968,-0.00348595,-0.00220479,-0.000493843,-0.00203653,-0.00365422,-1.24242,0.00211438,0.0488057,1875,1268,58.629,-2.54971
658,-244,58.4277,2.4696,0,0,0,0,0,0,0,-1,1882,1268,58.4277,-2.46961
665,-244,50.7988,1.09888,0,0,0,0,0,0,0,-1,1889,1268,50.7989,-1.09893
672,-244,32.224,3.6123,0,0,0,0,0,0,0,-1,1896,1268,32.224,-3.6123
679,-244,27.2593,7.90649,0,0,0,0,0,0,0,-1,1903,1268,27.2592,-7.9065
686,-244,44.0507,11.8754,0,0,0,0,0,0,0,-1,1910,1268,44.0507,-11.8754
693,-244,44.0153,11.2842,-0.000646686,-0.00296639,-0.000369494,-0.000589253,-0.00302383,-0.154202,0.001851,0.0302459,1917,1268,44.0152,-11.2842
700,-244,44.0514,10.6515,0.000240931,-0.00179799,-0.000366491,0.000304806,-0.00186187,-0.172554,0.00135433,0.0109381,1924,1268,44.0514,-10.6515
707,-244,44.0508,10.0858,0.000654511,-0.00136641,-0.000147837,0.000665268,-0.00137716,-0.072638,0.00120284,0.0110639,1931,1268,44.0508,-10.0858
714,-244,44.103,9.51099,-0.000111034,-0.00104909,0.000449729,6.97406e-05,-0.00122986,0.382199,0.000844117,0.0149262,1938,1268,44.103,-9.51096
721,-244,44.0159,9.00952,-0.00074604,-0.000694208,0.00115028,0.000430448,-0.0018707,0.796661,0.00141265,0.021303,1945,1268,44.0159,-9.00954
728,-244,43.9669,8.38269,-0.00124772,-0.000424956,0.00184361,0.00105261,-0.00272528,0.895169,0.0022513,0.0266589,1952,1268,43.967,-8.38273
735,-244,43.936,7.71094,-0.00158973,-0.000189973,0.0025511,0.00175551,-0.00353521,0.919276,0.00311167,0.0262596,1959,1268,43.9361,-7.7109
742,-244,43.8987,7.2876,-0.00168343,-3.43704e-05,0.00329498,0.00253768,-0.00425548,0.908,0.00396361,0.017981,1966,1268,43.8987,-7.28762
749,-244,43.7461,6.88843,-0.00137299,5.65989e-05,0.00404236,0.00344687,-0.00476327,0.872907,0.00476039,0.0258865,1973,1268,43.7461,-6.88848
756,-244,43.5521,6.48669,-0.00046957,-6.21703e-05,0.00490366,0.00464202,-0.00517376,0.806156,0.00566992,0.0355022,1980,1268,43.5521,-6.48672
763,-244,43.7606,5.75073,0.00158362,-0.00052225,0.00578495,0.00641067,-0.00534931,0.695377,0.00679884,0.0492415,1987,1268,43.7606,-5.75069
770,-244,44.2458,4.95886,0,0,0,0,0,0,0,-1,1994,1268,44.2458,-4.9588
777,-244,40.9116,3.7749,0,0,0,0,0,0,0,-1,2001,1268,40.9116,-3.77485
784,-244,31.7908,5.20081,0,0,0,0,0,0,0,-1,2008,1268,31.7907,-5.20083
791,-244,0,0,0,0,0,0,0,0,0,-1,2015,1268,0,0
798,-244,0,0,0,0,0,0,0,0,0,-1,2022,1268,0,0
805,-244,0,0,0,0,0,0,0,0,0,-1,2029,1268,0,0
812,-244,0,0,0,0,0,0,0,0,0,-1,2036,1268,0,0
-700,-251,0,0,0,0,0,0,0,0,0,-1,524,1275,0,0
-693,-251,0,0,0,0,0,0,0,0,0,-1,531,1275,0,0
-686,-251,0,0,0,0,0,0,0,0,0,-1,538,1275,0,0
-679,-251,0,0,0,0,0,0,0,0,0,-1,545,1275,0,0
-672,-251,0,0,0,0,0,0,0,0,0,-1,552,1275,0,0
-665,-251,-39.3416,-7.43286,0,0,0,0,0,0,0,-1,559,1275,-39.3415,7.43292
-658,-251,-39.3706,-6.07568,0,0,0,0,0,0,0,-1,566,1275,-39.3706,6.07565
-651,-251,-39.3334,10.5758,0,0,0,0,0,0,0,-1,573,1275,-39.3334,-10.5758
-644,-251,-39.4733,-3.44775,0,0,0,0,0,0,0,-1,580,1275,-39.4733,3.44771
-637,-251,-28.1947,0.930176,0,0,0,0,0,0,0,-1,587,1275,-28.1947,-0.930152
-630,-251,-28.144,3.04968,0,0,0,0,0,0,0,-1,594,1275,-28.144,-3.0497
-623,-251,-28.1774,3.72473,0.00575663,0.0014506,0.00617945,0.0101474,-0.00294016,0.617767,0.00792883,0.0400438,601,1275,-28.1774,-3.72469
-616,-251,-28.146,4.37292,0.00386189,0.00212086,0.00378063,0.00687093,-0.000888184,0.672242,0.00490357,0.0206976,608,1275,-28.146,-4.37294
-609,-251,-28.1865,4.97388,0.00269521,0.00187031,0.00208635,0.00440948,0.000156034,0.687812,0.00288905,0.0199653,615,1275,-28.1865,-4.97388
-602,-251,-28.2145,5.59192,0.00210197,0.00111879,0.00133147,0.0030297,0.000191064,0.608557,0.00195922,0.0151875,622,1275,-28.2145,-5.59194
-595,-251,-28.2351,6.21655,0.00188965,0.000385747,0.000774957,0.00221751,5.78889e-05,0.400231,0.00145943,0.0139363,629,1275,-28.2351,-6.21656
-588,-251,-28.2274,6.80981,0.00189465,-0.000323184,0.000381453,0.00195842,-0.000386958,0.165654,0.00145189,0.0158644,636,1275,-28.2274,-6.80986
-581,-251,-28.2548,7.4342,0.00216413,-0.00102713,0.00024101,0.00218223,-0.00104523,0.0749554,0.00190153,0.0138616,643,1275,-28.2548,-7.4342
-574,-251,-28.2823,8.06665,0.00232047,-0.00173037,0.000299415,0.00234248,-0.00175238,0.0733828,0.00237234,0.0116565,650,1275,-28.2823,-8.06664
-567,-251,-28.3,8.70178,0.00233919,-0.00227452,0.000418816,0.0023769,-0.00231223,0.0897982,0.00270736,0.0177047,657,1275,-28.3001,-8.70176
-560,-251,-28.2077,9.51257,0.0022415,-0.00189714,0.000233441,0.00225462,-0.00191027,0.0561678,0.00240734,0.0407713,664,1275,-28.2077,-9.5126
-553,-251,-28.0018,10.2401,0,0,0,0,0,0,0,-1,671,1275,-28.0018,-10.2401
-546,-251,-12.995,4.5675,0,0,0,0,0,0,0,-1,678,1275,-12.995,-4.56745
-539,-251,-10.7916,0.366333,0,0,0,0,0,0,0,-1,685,1275,-10.7916,-0.366282
-532,-251,-10.7391,-0.00769043,0,0,0,0,0,0,0,-1,692,1275,-10.7391,0.00773227
-525,-251,-29.4286,-0.250244,0,0,0,0,0,0,0,-1,699,1275,-29.4286,0.250266
-518,-251,-32.6981,0.678833,0,0,0,0,0,0,0,-1,706,1275,-32.6981,-0.678787
-511,-251,-29.4731,0.637085,0,0,0,0,0,0,0,-1,713,1275,-29.4731,-0.637025
-504,-251,-30.6428,0.792358,0,0,0,0,0,0,0,-1,720,1275,-30.6427,-0.792335
-497,-251,-43.2418,1.24744,0,0,0,0,0,0,0,-1,727,1275,-43.2418,-1.24738
-490,-251,0,0,0,0,0,0,0,0,0,-1,734,1275,0,0
-483,-251,0,0,0,0,0,0,0,0,0,-1,741,1275,0,0
-476,-251,0,0,0,0,0,0,0,0,0,-1,748,1275,0,0
-469,-251,0,0,0,0,0,0,0,0,0,-1,755,1275,0,0
-462,-251,0,0,0,0,0,0,0,0,0,-1,762,1275,0,0
-455,-251,0,0,0,0,0,0,0,0,0,-1,769,1275,0,0
-448,-251,0,0,0,0,0,0,0,0,0,-1,776,1275,0,0
-441,-251,0,0,0,0,0,0,0,0,0,-1,783,1275,0,0
-434,-251,0,0,0,0,0,0,0,0,0,-1,790,1275,0,0
-427,-251,0,0,0,0,0,0,0,0,0,-1,797,1275,0,0
-420,-251,0,0,0,0,0,0,0,0,0,-1,804,1275,0,0
-413,-251,0,0,0,0,0,0,0,0,0,-1,811,1275,0,0
-406,-251,0,0,0,0,0,0,0,0,0,-1,818,1275,0,0
-399,-251,0,0,0,0,0,0,0,0,0,-1,825,1275,0,0
-392,-251,0,0,0,0,0,0,0,0,0,-1,832,1275,0,0
-385,-251,0,0,0,0,0,0,0,0,0,-1,839,1275,0,0
-378,-251,0,0,0,0,0,0,0,0,0,-1,846,1275,0,0
-371,-251,0,0,0,0,0,0,0,0,0,-1,853,1275,0,0
-364,-251,0,0,0,0,0,0,0,0,0,-1,860,1275,0,0
-357,-251,0,0,0,0,0,0,0,0,0,-1,867,1275,0,0
-350,-251,0,0,0,0,0,0,0,0,0,-1,874,1275,0,0
-343,-251,0,0,0,0,0,0,0,0,0,-1,881,1275,0,0
-336,-251,0,0,0,0,0,0,0,0,0,-1,888,1275,0,0
-329,-251,0,0,0,0,0,0,0,0,0,-1,895,1275,0,0
-322,-251,0,0,0,0,0,0,0,0,0,-1,902,1275,0,0
-315,-251,0,0,0,0,0,0,0,0,0,-1,909,1275,0,0
-308,-251,0,0,0,0,0,0,0,0,0,-1,916,1275,0,0
-301,-251,0,0,0,0,0,0,0,0,0,-1,923,1275,0,0
-294,-251,0,0,0,0,0,0,0,0,0,-1,930,1275,0,0
-287,-251,0,0,0,0,0,0,0,0,0,-1,937,1275,0,0
-280,-251,0,0,0,0,0,0,0,0,0,-1,944,1275,0,0
-273,-251,0,0,0,0,0,0,0,0,0,-1,951,1275,0,0
-266,-251,0,0,0,0,0,0,0,0,0,-1,958,1275,0,0
-259,-251,0,0,0,0,0,0,0,0,0,-1,965,1275,0,0
-252,-251,0,0,0,0,0,0,0,0,0,-1,972,1275,0,0
-245,-251,0,0,0,0,0,0,0,0,0,-1,979,1275,0,0
-238,-251,0,0,0,0,0,0,0,0,0,-1,986,1275,0,0
-231,-251,0,0,0,0,0,0,0,0,0,-1,993,1275,0,0
-224,-251,0,0,0,0,0,0,0,0,0,-1,1000,1275,0,0
-217,-251,0,0,0,0,0,0,0,0,0,-1,1007,1275,0,0
-210,-251,0,0,0,0,0,0,0,0,0,-1,1014,1275,0,0
-203,-251,0,0,0,0,0,0,0,0,0,-1,1021,1275,0,0
-196,-251,0,0,0,0,0,0,0,0,0,-1,1028,1275,0,0
-189,-251,0,0,0,0,0,0,0,0,0,-1,1035,1275,0,0
-182,-251,0,0,0,0,0,0,0,0,0,-1,1042,1275,0,0
-175,-251,0,0,0,0,0,0,0,0,0,-1,1049,1275,0,0
-168,-251,0,0,0,0,0,0,0,0,0,-1,1056,1275,0,0
-161,-251,0,0,0,0,0,0,0,0,0,-1,1063,1275,0,0
-154,-251,0,0,0,0,0,0,0,0,0,-1,1070,1275,0,0
-147,-251,0,0,0,0,0,0,0,0,0,-1,1077,1275,0,0
-140,-251,0,0,0,0,0,0,0,0,0,-1,1084,1275,0,0
-133,-251,0,0,0,0,0,0,0,0,0,-1,1091,1275,0,0
-126,-251,0,0,0,0,0,0,0,0,0,-1,1098,1275,0,0
-119,-251,0,0,0,0,0,0,0,0,0,-1,1105,1275,0,0
-112,-251,0,0,0,0,0,0,0,0,0,-1,1112,1275,0,0
-105,-251,0,0,0,0,0,0,0,0,0,-1,1119,1275,0,0
-98,-251,0,0,0,0,0,0,0,0,0,-1,1126,1275,0,0
-91,-251,0,0,0,0,0,0,0,0,0,-1,1133,1275,0,0
-84,-251,0,0,0,0,0,0,0,0,0,-1,1140,1275,0,0
-77,-251,0,0,0,0,0,0,0,0,0,-1,1147,1275,0,0
-70,-251,0,0,0,0,0,0,0,0,0,-1,1154,1275,0,0
-63,-251,0,0,0,0,0,0,0,0,0,-1,1161,1275,0,0
-56,-251,0,0,0,0,0,0,0,0,0,-1,1168,1275,0,0
-49,-251,0,0,0,0,0,0,0,0,0,-1,1175,1275,0,0
-42,-251,0,0,0,0,0,0,0,0,0,-1,1182,1275,0,0
-35,-251,0,0,0,0,0,0,0,0,0,-1,1189,1275,0,0
-28,-251,0,0,0,0,0,0,0,0,0,-1,1196,1275,0,0
-21,-251,0,0,0,0,0,0,0,0,0,-1,1203,1275,0,0
-14,-251,0,0,0,0,0,0,0,0,0,-1,1210,1275,0,0
-7,-251,0,0,0,0,0,0,0,0,0,-1,1217,1275,0,0
0,-251,0,0,0,0,0,0,0,0,0,-1,1224,1275,0,0
7,-251,0,0,0,0,0,0,0,0,0,-1,1231,1275,0,0
14,-251,0,0,0,0,0,0,0,0,0,-1,1238,1275,0,0
21,-251,0,0,0,0,0,0,0,0,0,-1,1245,1275,0,0
28,-251,0,0,0,0,0,0,0,0,0,-1,1252,1275,0,0
35,-251,0,0,0,0,0,0,0,0,0,-1,1259,1275,0,0
42,-251,0,0,0,0,0,0,0,0,0,-1,1266,1275,0,0
49,-251,0,0,0,0,0,0,0,0,0,-1,1273,1275,0,0
56,-251,0,0,0,0,0,0,0,0,0,-1,1280,1275,0,0
63,-251,0,0,0,0,0,0,0,0,0,-1,1287,1275,0,0
70,-251,0,0,0,0,0,0,0,0,0,-1,1294,1275,0,0
77,-251,0,0,0,0,0,0,0,0,0,-1,1301,1275,0,0
84,-251,0,0,0,0,0,0,0,0,0,-1,1308,1275,0,0
91,-251,0,0,0,0,0,0,0,0,0,-1,1315,1275,0,0
98,-251,0,0,0,0,0,0,0,0,0,-1,1322,1275,0,0
105,-251,0,0,0,0,0,0,0,0,0,-1,1329,1275,0,0
112,-251,0,0,0,0,0,0,0,0,0,-1,1336,1275,0,0
119,-251,0,0,0,0,0,0,0,0,0,-1,1343,1275,0,0
126,-251,0,0,0,0,0,0,0,0,0,-1,1350,1275,0,0
133,-251,0,0,0,0,0,0,0,0,0,-1,1357,1275,0,0
140,-251,0,0,0,0,0,0,0,0,0,-1,1364,1275,0,0
147,-251,0,0,0,0,0,0,0,0,0,-1,1371,1275,0,0
154,-251,0,0,0,0,0,0,0,0,0,-1,1378,1275,0,0
161,-251,0,0,0,0,0,0,0,0,0,-1,1385,1275,0,0
168,-251,0,0,0,0,0,0,0,0,0,-1,1392,1275,0,0
175,-251,0,0,0,0,0,0,0,0,0,-1,1399,1275,0,0
182,-251,0,0,0,0,0,0,0,0,0,-1,1406,1275,0,0
189,-251,0,0,0,0,0,0,0,0,0,-1,1413,1275,0,0
196,-251,0,0,0,0,0,0,0,0,0,-1,1420,1275,0,0
203,-251,0,0,0,0,0,0,0,0,0,-1,1427,1275,0,0
210,-251,0,0,0,0,0,0,0,0,0,-1,1434,1275,0,0
217,-251,0,0,0,0,0,0,0,0,0,-1,1441,1275,0,0
224,-251,0,0,0,0,0,0,0,0,0,-1,1448,1275,0,0
231,-251,0,0,0,0,0,0,0,0,0,-1,1455,1275,0,0
238,-251,0,0,0,0,0,0,0,0,0,-1,1462,1275,0,0
245,-251,0,0,0,0,0,0,0,0,0,-1,1469,1275,0,0
252,-251,0,0,0,0,0,0,0,0,0,-1,1476,1275,0,0
259,-251,0,0,0,0,0,0,0,0,0,-1,1483,1275,0,0
266,-251,0,0,0,0,0,0,0,0,0,-1,1490,1275,0,0
273,-251,0,0,0,0,0,0,0,0,0,-1,1497,1275,0,0
280,-251,0,0,0,0,0,0,0,0,0,-1,1504,1275,0,0
287,-251,0,0,0,0,0,0,0,0,0,-1,1511,1275,0,0
294,-251,0,0,0,0,0,0,0,0,0,-1,1518,1275,0,0
301,-251,0,0,0,0,0,0,0,0,0,-1,1525,1275,0,0
308,-251,0,0,0,0,0,0,0,0,0,-1,1532,1275,0,0
315,-251,0,0,0,0,0,0,0,0,0,-1,1539,1275,0,0
322,-251,0,0,0,0,0,0,0,0,0,-1,1546,1275,0,0
329,-251,0,0,0,0,0,0,0,0,0,-1,1553,1275,0,0
336,-251,0,0,0,0,0,0,0,0,0,-1,1560,1275,0,0
343,-251,0,0,0,0,0,0,0,0,0,-1,1567,1275,0,0
350,-251,0,0,0,0,0,0,0,0,0,-1,1574,1275,0,0
357,-251,0,0,0,0,0,0,0,0,0,-1,1581,1275,0,0
364,-251,0,0,0,0,0,0,0,0,0,-1,1588,1275,0,0
371,-251,0,0,0,0,0,0,0,0,0,-1,1595,1275,0,0
378,-251,0,0,0,0,0,0,0,0,0,-1,1602,1275,0,0
385,-251,0,0,0,0,0,0,0,0,0,-1,1609,1275,0,0
392,-251,0,0,0,0,0,0,0,0,0,-1,1616,1275,0,0
399,-251,0,0,0,0,0,0,0,0,0,-1,1623,1275,0,0
406,-251,0,0,0,0,0,0,0,0,0,-1,1630,1275,0,0
413,-251,0,0,0,0,0,0,0,0,0,-1,1637,1275,0,0
420,-251,0,0,0,0,0,0,0,0,0,-1,1644,1275,0,0
427,-251,0,0,0,0,0,0,0,0,0,-1,1651,1275,0,0
434,-251,0,0,0,0,0,0,0,0,0,-1,1658,1275,0,0
441,-251,0,0,0,0,0,0,0,0,0,-1,1665,1275,0,0
448,-251,0,0,0,0,0,0,0,0,0,-1,1672,1275,0,0
455,-251,0,0,0,0,0,0,0,0,0,-1,1679,1275,0,0
462,-251,0,0,0,0,0,0,0,0,0,-1,1686,1275,0,0
469,-251,0,0,0,0,0,0,0,0,0,-1,1693,1275,0,0
476,-251,0,0,0,0,0,0,0,0,0,-1,1700,1275,0,0
483,-251,0,0,0,0,0,0,0,0,0,-1,1707,1275,0,0
490,-251,0,0,0,0,0,0,0,0,0,-1,1714,1275,0,0
497,-251,0,0,0,0,0,0,0,0,0,-1,1721,1275,0,0
504,-251,0,0,0,0,0,0,0,0,0,-1,1728,1275,0,0
511,-251,0,0,0,0,0,0,0,0,0,-1,1735,1275,0,0
518,-251,0,0,0,0,0,0,0,0,0,-1,1742,1275,0,0
525,-251,0,0,0,0,0,0,0,0,0,-1,1749,1275,0,0
532,-251,0,0,0,0,0,0,0,0,0,-1,1756,1275,0,0
539,-251,0,0,0,0,0,0,0,0,0,-1,1763,1275,0,0
546,-251,0,0,0,0,0,0,0,0,0,-1,1770,1275,0,0
553,-251,0,0,0,0,0,0,0,0,0,-1,1777,1275,0,0
560,-251,0,0,0,0,0,0,0,0,0,-1,1784,1275,0,0
567,-251,0,0,0,0,0,0,0,0,0,-1,1791,1275,0,0
574,-251,0,0,0,0,0,0,0,0,0,-1,1798,1275,0,0
581,-251,0,0,0,0,0,0,0,0,0,-1,1805,1275,0,0
588,-251,0,0,0,0,0,0,0,0,0,-1,1812,1275,0,0
595,-251,0,0,0,0,0,0,0,0,0,-1,1819,1275,0,0
602,-251,0,0,0,0,0,0,0,0,0,-1,1826,1275,0,0
609,-251,58.8417,2.52637,0.00258115,0.00778772,-0.0015597,0.00821919,0.00214968,-1.30091,0.00492195,0.0292021,1833,1275,58.8416,-2.52634
616,-251,58.8359,2.56873,0.000417637,0.00585208,-0.0011246,0.00607561,0.000194107,-1.37459,0.00398728,0.0277552,1840,1275,58.8359,-2.56874
623,-251,58.8623,2.63306,-0.00175118,0.00335237,-0.000920029,0.00351316,-0.00191197,-1.39778,0.00317735,0.0244335,1847,1275,58.8624,-2.63303
630,-251,58.8612,2.63049,-0.00376606,0.00070686,-0.000799777,0.000845563,-0.00390476,-1.39908,0.00292604,0.0354739,1854,1275,58.8612,-2.63055
637,-251,58.9788,2.65161,-0.00423819,-0.000893432,-0.000686724,-0.000757928,-0.00437369,-1.37598,0.00269886,0.0399475,1861,1275,58.9787,-2.65167
644,-251,58.7137,3.15515,-0.00385067,-0.00131319,-0.000751265,-0.00110745,-0.00405642,-1.30349,0.00242108,0.0434955,1868,1275,58.7138,-3.15514
651,-251,58.3757,2.67358,-0.00345252,-0.00158746,-0.000509653,-0.00145728,-0.0035827,-1.32071,0.00208043,0.048573,1875,1275,58.3758,-2.67361
658,-251,58.1687,1.95789,0,0,0,0,0,0,0,-1,1882,1275,58.1687,-1.95784
665,-251,32.9579,2.60229,0,0,0,0,0,0,0,-1,1889,1275,32.9579,-2.60231
672,-251,26.0721,4.53064,0,0,0,0,0,0,0,-1,1896,1275,26.0721,-4.53063
679,-251,29.1344,8.63782,0,0,0,0,0,0,0,-1,1903,1275,29.1344,-8.63778
686,-251,43.6383,11.8242,0,0,0,0,0,0,0,-1,1910,1275,43.6383,-11.8242
693,-251,43.5361,11.2683,-0.000741796,-0.00304898,-0.000288556,-0.000706255,-0.00308452,-0.122554,0.00186602,0.0182145,1917,1275,43.5361,-11.2683
700,-251,43.4883,10.688,0.000205899,-0.00164497,-0.000276318,0.00024627,-0.00168534,-0.145078,0.001214,0.00938626,1924,1275,43.4883,-10.688
707,-251,43.4944,10.1075,0.000533571,-0.00109219,-1.92712e-05,0.000533799,-0.00109242,-0.0118514,0.000957184,0.0116042,1931,1275,43.4943,-10.1075
714,-251,43.5164,9.53015,-0.000272378,-0.000746916,0.000551205,9.04564e-05,-0.00110975,0.582157,0.000771755,0.0148421,1938,1275,43.5163,-9.53018
721,-251,43.4249,9.00366,-0.000928221,-0.000408642,0.00118011,0.000539933,-0.0018768,0.89374,0.00146473,0.0232523,1945,1275,43.4249,-9.00364
728,-251,43.3824,8.48816,-0.00149372,-0.000151594,0.00180687,0.0011048,-0.00275012,0.963202,0.00229222,0.0275002,1952,1275,43.3825,-8.4881
735,-251,43.395,7.82129,-0.00192338,7.42088e-05,0.00244843,0.00171973,-0.00356889,0.979061,0.00311498,0.0215679,1959,1275,43.3951,-7.82124
742,-251,43.3123,7.36755,-0.00212412,0.00024198,0.0031139,0.00239,-0.00427214,0.966939,0.00389721,0.0187377,1966,1275,43.3123,-7.3675
749,-251,43.0656,7.05994,-0.00194207,0.000385007,0.00374912,0.00314699,-0.00470405,0.93586,0.00456242,0.0384695,1973,1275,43.0656,-7.05991
756,-251,42.7495,6.76147,0,0,0,0,0,0,0,-1,1980,1275,42.7495,-6.76147
763,-251,43.3652,5.7583,0,0,0,0,0,0,0,-1,1987,1275,43.3653,-5.75827
770,-251,40.5034,4.45117,0,0,0,0,0,0,0,-1,1994,1275,40.5034,-4.45113
777,-251,31.5731,4.33252,0,0,0,0,0,0,0,-1,2001,1275,31.5731,-4.33251
784,-251,32.0776,5.78247,0,0,0,0,0,0,0,-1,2008,1275,32.0776,-5.78247
791,-251,0,0,0,0,0,0,0,0,0,-1,2015,1275,0,0
798,-251,0,0,0,0,0,0,0,0,0,-1,2022,1275,0,0
805,-251,0,0,0,0,0,0,0,0,0,-1,2029,1275,0,0
812,-251,0,0,0,0,0,0,0,0,0,-1,2036,1275,0,0
-700,-258,0,0,0,0,0,0,0,0,0,-1,524,1282,0,0
-693,-258,0,0,0,0,0,0,0,0,0,-1,531,1282,0,0
-686,-258,0,0,0,0,0,0,0,0,0,-1,538,1282,0,0
-679,-258,0,0,0,0,0,0,0,0,0,-1,545,1282,0,0
-672,-258,0,0,0,0,0,0,0,0,0,-1,552,1282,0,0
-665,-258,-35.0007,-0.969238,0,0,0,0,0,0,0,-1,559,1282,-35.0008,0.969225
-658,-258,-39.6628,-6.20264,0,0,0,0,0,0,0,-1,566,1282,-39.6628,6.20262
-651,-258,-39.7765,-4.8811,0,0,0,0,0,0,0,-1,573,1282,-39.7765,4.88109
-644,-258,-39.832,-3.56323,0,0,0,0,0,0,0,-1,580,1282,-39.832,3.56317
-637,-258,-36.0912,-1.18311,0,0,0,0,0,0,0,-1,587,1282,-36.0912,1.18306
-630,-258,-27.9415,2.14343,0,0,0,0,0,0,0,-1,594,1282,-27.9414,-2.14338
-623,-258,-27.6801,3.77234,0,0,0,0,0,0,0,-1,601,1282,-27.6801,-3.77234
-616,-258,-27.5642,4.36328,0.00263362,0.00185883,0.0032005,0.00547009,-0.000977627,0.72517,0.0040125,0.0345634,608,1282,-27.5642,-4.3633
-609,-258,-27.5514,5.00586,0.00187753,0.00156799,0.0021782,0.00390645,-0.000460936,0.749931,0.00277075,0.0172038,615,1282,-27.5514,-5.00588
-602,-258,-27.569,5.64636,0.0016266,0.00101259,0.0015088,0.00285931,-0.000220124,0.68503,0.00198366,0.0137434,622,1282,-27.5689,-5.64634
-595,-258,-27.5872,6.24341,0.00160474,0.000423952,0.0010014,0.00217684,-0.000148141,0.519042,0.00150304,0.0112717,629,1282,-27.5872,-6.2434
-588,-258,-27.6099,6.84412,0.00181209,-0.000192034,0.000660289,0.00201007,-0.000390018,0.291314,0.0014872,0.0124411,636,1282,-27.6099,-6.84412
-581,-258,-27.6412,7.4541,0.00217824,-0.000855476,0.0004779,0.00225174,-0.000928979,0.152607,0.00188858,0.0140344,643,1282,-27.6412,-7.45407
-574,-258,-27.6378,8.08423,0.00255951,-0.00152072,0.000440613,0.00260655,-0.00156775,0.106354,0.00243479,0.013749,650,1282,-27.6377,-8.08421
-567,-258,-27.6917,8.73535,0.00295134,-0.00208755,0.000473039,0.00299537,-0.00213157,0.0927972,0.00297401,0.0145898,657,1282,-27.6917,-8.73536
-560,-258,-27.7036,9.38416,0.00322911,-0.0018302,0.000327138,0.00325018,-0.00185126,0.0643037,0.002982,0.043393,664,1282,-27.7036,-9.38417
-553,-258,-27.6196,10.0758,0,0,0,0,0,0,0,-1,671,1282,-27.6196,-10.0758
-546,-258,-14.2231,5.92029,0,0,0,0,0,0,0,-1,678,1282,-14.2231,-5.92028
-539,-258,-10.2228,4.05823,0,0,0,0,0,0,0,-1,685,1282,-10.2228,-4.05823
-532,-258,-10.2173,-0.353882,0,0,0,0,0,0,0,-1,692,1282,-10.2173,0.353836
-525,-258,-21.8661,-1.5929,0,0,0,0,0,0,0,-1,699,1282,-21.8661,1.59285
-518,-258,-29.2484,0.123169,0,0,0,0,0,0,0,-1,706,1282,-29.2484,-0.123186
-511,-258,-23.5061,1.16833,0,0,0,0,0,0,0,-1,713,1282,-23.5061,-1.16833
-504,-258,-22.9178,0.484131,0,0,0,0,0,0,0,-1,720,1282,-22.9178,-0.484106
-497,-258,-17.8047,0.730469,0,0,0,0,0,0,0,-1,727,1282,-17.8048,-0.730489
-490,-258,-15.4346,0.632935,0,0,0,0,0,0,0,-1,734,1282,-15.4346,-0.632917
-483,-258,0,0,0,0,0,0,0,0,0,-1,741,1282,0,0
-476,-258,0,0,0,0,0,0,0,0,0,-1,748,1282,0,0
-469,-258,0,0,0,0,0,0,0,0,0,-1,755,1282,0,0
-462,-258,0,0,0,0,0,0,0,0,0,-1,762,1282,0,0
-455,-258,0,0,0,0,0,0,0,0,0,-1,769,1282,0,0
-448,-258,0,0,0,0,0,0,0,0,0,-1,776,1282,0,0
-441,-258,0,0,0,0,0,0,0,0,0,-1,783,1282,0,0
-434,-258,0,0,0,0,0,0,0,0,0,-1,790,1282,0,0
-427,-258,0,0,0,0,0,0,0,0,0,-1,797,1282,0,0
-420,-258,0,0,0,0,0,0,0,0,0,-1,804,1282,0,0
-413,-258,0,0,0,0,0,0,0,0,0,-1,811,1282,0,0
-406,-258,0,0,0,0,0,0,0,0,0,-1,818,1282,0,0
-399,-258,0,0,0,0,0,0,0,0,0,-1,825,1282,0,0
-392,-258,0,0,0,0,0,0,0,0,0,-1,832,1282,0,0
-385,-258,0,0,0,0,0,0,0,0,0,-1,839,1282,0,0
-378,-258,0,0,0,0,0,0,0,0,0,-1,846,1282,0,0
-371,-258,0,0,0,0,0,0,0,0,0,-1,853,1282,0,0
-364,-258,0,0,0,0,0,0,0,0,0,-1,860,1282,0,0
-357,-258,0,0,0,0,0,0,0,0,0,-1,867,1282,0,0
-350,-258,0,0,0,0,0,0,0,0,0,-1,874,1282,0,0
-343,-258,0,0,0,0,0,0,0,0,0,-1,881,1282,0,0
-336,-258,0,0,0,0,0,0,0,0,0,-1,888,1282,0,0
-329,-258,0,0,0,0,0,0,0,0,0,-1,895,1282,0,0
-322,-258,0,0,0,0,0,0,0,0,0,-1,902,1282,0,0
-315,-258,0,0,0,0,0,0,0,0,0,-1,909,1282,0,0
-308,-258,0,0,0,0,0,0,0,0,0,-1,916,1282,0,0
-301,-258,0,0,0,0,0,0,0,0,0,-1,923,1282,0,0
-294,-258,0,0,0,0,0,0,0,0,0,-1,930,1282,0,0
-287,-258,0,0,0,0,0,0,0,0,0,-1,937,1282,0,0
-280,-258,0,0,0,0,0,0,0,0,0,-1,944,1282,0,0
-273,-258,0,0,0,0,0,0,0,0,0,-1,951,1282,0,0
-266,-258,0,0,0,0,0,0,0,0,0,-1,958,1282,0,0
-259,-258,0,0,0,0,0,0,0,0,0,-1,965,1282,0,0
-252,-258,0,0,0,0,0,0,0,0,0,-1,972,1282,0,0
-245,-258,0,0,0,0,0,0,0,0,0,-1,979,1282,0,0
-238,-258,0,0,0,0,0,0,0,0,0,-1,986,1282,0,0
-231,-258,0,0,0,0,0,0,0,0,0,-1,993,1282,0,0
-224,-258,0,0,0,0,0,0,0,0,0,-1,1000,1282,0,0
-217,-258,0,0,0,0,0,0,0,0,0,-1,1007,1282,0,0
-210,-258,0,0,0,0,0,0,0,0,0,-1,1014,1282,0,0
-203,-258,0,0,0,0,0,0,0,0,0,-1,1021,1282,0,0
-196,-258,0,0,0,0,0,0,0,0,0,-1,1028,1282,0,0
-189,-258,0,0,0,0,0,0,0,0,0,-1,1035,1282,0,0
-182,-258,0,0,0,0,0,0,0,0,0,-1,1042,1282,0,0
-175,-258,0,0,0,0,0,0,0,0,0,-1,1049,1282,0,0
-168,-258,0,0,0,0,0,0,0,0,0,-1,1056,1282,0,0
-161,-258,0,0,0,0,0,0,0,0,0,-1,1063,1282,0,0
-154,-258,0,0,0,0,0,0,0,0,0,-1,1070,1282,0,0
-147,-258,0,0,0,0,0,0,0,0,0,-1,1077,1282,0,0
-140,-258,0,0,0,0,0,0,0,0,0,-1,1084,1282,0,0
-133,-258,0,0,0,0,0,0,0,0,0,-1,1091,1282,0,0
-126,-258,0,0,0,0,0,0,0,0,0,-1,1098,1282,0,0
-119,-258,0,0,0,0,0,0,0,0,0,-1,1105,1282,0,0
-112,-258,0,0,0,0,0,0,0,0,0,-1,1112,1282,0,0
-105,-258,0,0,0,0,0,0,0,0,0,-1,1119,1282,0,0
-98,-258,0,0,0,0,0,0,0,0,0,-1,1126,1282,0,0
-91,-258,0,0,0,0,0,0,0,0,0,-1,1133,1282,0,0
-84,-258,0,0,0,0,0,0,0,0,0,-1,1140,1282,0,0
-77,-258,0,0,0,0,0,0,0,0,0,-1,1147,1282,0,0
-70,-258,0,0,0,0,0,0,0,0,0,-1,1154,1282,0,0
-63,-258,0,0,0,0,0,0,0,0,0,-1,1161,1282,0,0
-56,-258,0,0,0,0,0,0,0,0,0,-1,1168,1282,0,0
-49,-258,0,0,0,0,0,0,0,0,0,-1,1175,1282,0,0
-42,-258,0,0,0,0,0,0,0,0,0,-1,1182,1282,0,0
-35,-258,0,0,0,0,0,0,0,0,0,-1,1189,1282,0,0
-28,-258,0,0,0,0,0,0,0,0,0,-1,1196,1282,0,0
-21,-258,0,0,0,0,0,0,0,0,0,-1,1203,1282,0,0
-14,-258,0,0,0,0,0,0,0,0,0,-1,1210,1282,0,0
-7,-258,0,0,0,0,0,0,0,0,0,-1,1217,1282,0,0
0,-258,0,0,0,0,0,0,0,0,0,-1,1224,1282,0,0
7,-258,0,0,0,0,0,0,0,0,0,-1,1231,1282,0,0
14,-258,0,0,0,0,0,0,0,0,0,-1,1238,1282,0,0
21,-258,0,0,0,0,0,0,0,0,0,-1,1245,1282,0,0
28,-258,0,0,0,0,0,0,0,0,0,-1,1252,1282,0,0
35,-258,0,0,0,0,0,0,0,0,0,-1,1259,1282,0,0
42,-258,0,0,0,0,0,0,0,0,0,-1,1266,1282,0,0
49,-258,0,0,0,0,0,0,0,0,0,-1,1273,1282,0,0
56,-258,0,0,0,0,0,0,0,0,0,-1,1280,1282,0,0
63,-258,0,0,0,0,0,0,0,0,0,-1,1287,1282,0,0
70,-258,0,0,0,0,0,0,0,0,0,-1,1294,1282,0,0
77,-258,0,0,0,0,0,0,0,0,0,-1,1301,1282,0,0
84,-258,0,0,0,0,0,0,0,0,0,-1,1308,1282,0,0
91,-258,0,0,0,0,0,0,0,0,0,-1,1315,1282,0,0
98,-258,0,0,0,0,0,0,0,0,0,-1,1322,1282,0,0
105,-258,0,0,0,0,0,0,0,0,0,-1,1329,1282,0,0
112,-258,0,0,0,0,0,0,0,0,0,-1,1336,1282,0,0
119,-258,0,0,0,0,0,0,0,0,0,-1,1343,1282,0,0
126,-258,0,0,0,0,0,0,0,0,0,-1,1350,1282,0,0
133,-258,0,0,0,0,0,0,0,0,0,-1,1357,1282,0,0
140,-258,0,0,0,0,0,0,0,0,0,-1,1364,1282,0,0
147,-258,0,0,0,0,0,0,0,0,0,-1,1371,1282,0,0
154,-258,0,0,0,0,0,0,0,0,0,-1,1378,1282,0,0
161,-258,0,0,0,0,0,0,0,0,0,-1,1385,1282,0,0
168,-258,0,0,0,0,0,0,0,0,0,-1,1392,1282,0,0
175,-258,0,0,0,0,0,0,0,0,0,-1,1399,1282,0,0
182,-258,0,0,0,0,0,0,0,0,0,-1,1406,1282,0,0
189,-258,0,0,0,0,0,0,0,0,0,-1,1413,1282,0,0
196,-258,0,0,0,0,0,0,0,0,0,-1,1420,1282,0,0
203,-258,0,0,0,0,0,0,0,0,0,-1,1427,1282,0,0
210,-258,0,0,0,0,0,0,0,0,0,-1,1434,1282,0,0
217,-258,0,0,0,0,0,0,0,0,0,-1,1441,1282,0,0
224,-258,0,0,0,0,0,0,0,0,0,-1,1448,1282,0,0
231,-258,0,0,0,0,0,0,0,0,0,-1,1455,1282,0,0
238,-258,0,0,0,0,0,0,0,0,0,-1,1462,1282,0,0
245,-258,0,0,0,0,0,0,0,0,0,-1,1469,1282,0,0
252,-258,0,0,0,0,0,0,0,0,0,-1,1476,1282,0,0
259,-258,0,0,0,0,0,0,0,0,0,-1,1483,1282,0,0
266,-258,0,0,0,0,0,0,0,0,0,-1,1490,1282,0,0
273,-258,0,0,0,0,0,0,0,0,0,-1,1497,1282,0,0
280,-258,0,0,0,0,0,0,0,0,0,-1,1504,1282,0,0
287,-258,0,0,0,0,0,0,0,0,0,-1,1511,1282,0,0
294,-258,0,0,0,0,0,0,0,0,0,-1,1518,1282,0,0
301,-258,0,0,0,0,0,0,0,0,0,-1,1525,1282,0,0
308,-258,0,0,0,0,0,0,0,0,0,-1,1532,1282,0,0
315,-258,0,0,0,0,0,0,0,0,0,-1,1539,1282,0,0
322,-258,0,0,0,0,0,0,0,0,0,-1,1546,1282,0,0
329,-258,0,0,0,0,0,0,0,0,0,-1,1553,1282,0,0
336,-258,0,0,0,0,0,0,0,0,0,-1,1560,1282,0,0
343,-258,0,0,0,0,0,0,0,0,0,-1,1567,1282,0,0
350,-258,0,0,0,0,0,0,0,0,0,-1,1574,1282,0,0
357,-258,0,0,0,0,0,0,0,0,0,-1,1581,1282,0,0
364,-258,0,0,0,0,0,0,0,0,0,-1,1588,1282,0,0
371,-258,0,0,0,0,0,0,0,0,0,-1,1595,1282,0,0
378,-258,0,0,0,0,0,0,0,0,0,-1,1602,1282,0,0
385,-258,0,0,0,0,0,0,0,0,0,-1,1609,1282,0,0
392,-258,0,0,0,0,0,0,0,0,0,-1,1616,1282,0,0
399,-258,0,0,0,0,0,0,0,0,0,-1,1623,1282,0,0
406,-258,0,0,0,0,0,0,0,0,0,-1,1630,1282,0,0
413,-258,0,0,0,0,0,0,0,0,0,-1,1637,1282,0,0
420,-258,0,0,0,0,0,0,0,0,0,-1,1644,1282,0,0
427,-258,0,0,0,0,0,0,0,0,0,-1,1651,1282,0,0
434,-258,0,0,0,0,0,0,0,0,0,-1,1658,1282,0,0
441,-258,0,0,0,0,0,0,0,0,0,-1,1665,1282,0,0
448,-258,0,0,0,0,0,0,0,0,0,-1,1672,1282,0,0
455,-258,0,0,0,0,0,0,0,0,0,-1,1679,1282,0,0
462,-258,0,0,0,0,0,0,0,0,0,-1,1686,1282,0,0
469,-258,0,0,0,0,0,0,0,0,0,-1,1693,1282,0,0
476,-258,0,0,0,0,0,0,0,0,0,-1,1700,1282,0,0
483,-258,0,0,0,0,0,0,0,0,0,-1,1707,1282,0,0
490,-258,0,0,0,0,0,0,0,0,0,-1,1714,1282,0,0
497,-258,0,0,0,0,0,0,0,0,0,-1,1721,1282,0,0
504,-258,0,0,0,0,0,0,0,0,0,-1,1728,1282,0,0
511,-258,0,0,0,0,0,0,0,0,0,-1,1735,1282,0,0
518,-258,0,0,0,0,0,0,0,0,0,-1,1742,1282,0,0
525,-258,0,0,0,0,0,0,0,0,0,-1,1749,1282,0,0
532,-258,0,0,0,0,0,0,0,0,0,-1,1756,1282,0,0
539,-258,0,0,0,0,0,0,0,0,0,-1,1763,1282,0,0
546,-258,0,0,0,0,0,0,0,0,0,-1,1770,1282,0,0
553,-258,0,0,0,0,0,0,0,0,0,-1,1777,1282,0,0
560,-258,0,0,0,0,0,0,0,0,0,-1,1784,1282,0,0
567,-258,0,0,0,0,0,0,0,0,0,-1,1791,1282,0,0
574,-258,0,0,0,0,0,0,0,0,0,-1,1798,1282,0,0
581,-258,0,0,0,0,0,0,0,0,0,-1,1805,1282,0,0
588,-258,0,0,0,0,0,0,0,0,0,-1,1812,1282,0,0
595,-258,0,0,0,0,0,0,0,0,0,-1,1819,1282,0,0
602,-258,0,0,0,0,0,0,0,0,0,-1,1826,1282,0,0
609,-258,58.9188,2.6167,0.00327708,0.008621,-0.00240533,0.00954418,0.0023539,-1.20433,0.00574132,0.0253169,1833,1282,58.9189,-2.61672
616,-258,58.843,2.61865,0.00106295,0.0067309,-0.001966,0.00734606,0.000447783,-1.26754,0.00475515,0.024535,1840,1282,58.843,-2.61869
623,-258,58.8339,2.62756,-0.00117616,0.00429121,-0.0016817,0.00476707,-0.00165202,-1.29504,0.00384878,0.0340923,1847,1282,58.8339,-2.6276
630,-258,58.8512,2.54297,-0.00305415,0.00184087,-0.001355,0.00219092,-0.0034042,-1.31799,0.00325556,0.0437096,1854,1282,58.8512,-2.54298
637,-258,58.8497,2.4646,-0.00337908,0.000458635,-0.00104157,0.000723096,-0.00364354,-1.32214,0.0027025,0.0460847,1861,1282,58.8497,-2.46455
644,-258,58.9041,2.38647,0,0,0,0,0,0,0,-1,1868,1282,58.9041,-2.38645
651,-258,58.3621,2.84021,0,0,0,0,0,0,0,-1,1875,1282,58.3621,-2.8402
658,-258,45.4424,3.1405,0,0,0,0,0,0,0,-1,1882,1282,45.4423,-3.14046
665,-258,35.4747,1.1864,0,0,0,0,0,0,0,-1,1889,1282,35.4747,-1.18637
672,-258,22.703,2.80957,0,0,0,0,0,0,0,-1,1896,1282,22.703,-2.80962
679,-258,26.8693,8.19543,0,0,0,0,0,0,0,-1,1903,1282,26.8692,-8.19548
686,-258,43.0801,11.916,0,0,0,0,0,0,0,-1,1910,1282,43.0801,-11.916
693,-258,42.9891,11.2935,-0.000867679,-0.00293123,-0.000145861,-0.00085742,-0.00294149,-0.0702192,0.0017468,0.015403,1917,1282,42.9891,-11.2934
700,-258,42.9347,10.6946,7.56806e-05,-0.00132591,-0.000127643,8.72102e-05,-0.00133744,-0.090083,0.00092207,0.00933184,1924,1282,42.9347,-10.6945
707,-258,42.941,10.1273,0.000321318,-0.000734034,0.000157498,0.000344321,-0.000757037,0.145028,0.000650581,0.0115885,1931,1282,42.941,-10.1273
714,-258,42.9382,9.56323,-0.000437234,-0.000440848,0.000677283,0.000238244,-0.00111633,0.784064,0.000835039,0.0120068,1938,1282,42.9382,-9.56317
721,-258,42.9034,8.98425,-0.00107637,-0.000189171,0.00123857,0.000682842,-0.00194838,0.957358,0.00157662,0.020999,1945,1282,42.9035,-8.98426
728,-258,42.8324,8.45386,-0.00167882,-2.10397e-06,0.00180094,0.00114605,-0.00282698,1.00324,0.00236127,0.0207405,1952,1282,42.8324,-8.45386
735,-258,42.851,7.88403,-0.00219035,0.000171983,0.00237038,0.00163918,-0.00365755,1.01654,0.0031312,0.0180337,1959,1282,42.8509,-7.88409
742,-258,42.8206,7.36853,-0.00251135,0.000311845,0.00294592,0.00216691,-0.00436641,1.00882,0.00384261,0.0186487,1966,1282,42.8206,-7.36858
749,-258,42.6385,6.93933,-0.0024964,0.000475024,0.00344026,0.00273667,-0.00475805,0.989232,0.00437922,0.0416443,1973,1282,42.6385,-6.93938
756,-258,42.4781,6.37866,0,0,0,0,0,0,0,-1,1980,1282,42.4782,-6.37867
763,-258,39.3638,5.09753,0,0,0,0,0,0,0,-1,1987,1282,39.3638,-5.09751
770,-258,40.3713,4.08325,0,0,0,0,0,0,0,-1,1994,1282,40.3713,-4.08323
777,-258,31.912,4.83093,0,0,0,0,0,0,0,-1,2001,1282,31.912,-4.8309
784,-258,32.6525,6.43091,0,0,0,0,0,0,0,-1,2008,1282,32.6525,-6.43091
791,-258,0,0,0,0,0,0,0,0,0,-1,2015,1282,0,0
798,-258,0,0,0,0,0,0,0,0,0,-1,2022,1282,0,0
805,-258,0,0,0,0,0,0,0,0,0,-1,2029,1282,0,0
812,-258,0,0,0,0,0,0,0,0,0,-1,2036,1282,0,0
-700,-265,0,0,0,0,0,0,0,0,0,-1,524,1289,0,0
-693,-265,0,0,0,0,0,0,0,0,0,-1,531,1289,0,0
-686,-265,0,0,0,0,0,0,0,0,0,-1,538,1289,0,0
-679,-265,0,0,0,0,0,0,0,0,0,-1,545,1289,0,0
-672,-265,0,0,0,0,0,0,0,0,0,-1,552,1289,0,0
-665,-265,-35.2086,-0.556274,0,0,0,0,0,0,0,-1,559,1289,-35.2086,0.556237
-658,-265,-35.6984,-0.362793,0,0,0,0,0,0,0,-1,566,1289,-35.6984,0.362835
-651,-265,-36.0469,-0.512085,0,0,0,0,0,0,0,-1,573,1289,-36.0469,0.51209
-644,-265,-36.3206,-0.629395,0,0,0,0,0,0,0,-1,580,1289,-36.3206,0.629443
-637,-265,-36.59,-0.684814,0,0,0,0,0,0,0,-1,587,1289,-36.59,0.68479
-630,-265,-36.6934,-0.568481,0,0,0,0,0,0,0,-1,594,1289,-36.6934,0.568483
-623,-265,-26.9961,3.19299,0,0,0,0,0,0,0,-1,601,1289,-26.9961,-3.19303
-616,-265,-26.9409,4.06445,0.00313802,0.00168005,0.00382179,0.00629973,-0.00148166,0.691157,0.00477102,0.0454068,608,1289,-26.9409,-4.06441
-609,-265,-26.9269,4.99719,0.00218844,0.00157018,0.00263524,0.00453262,-0.000774004,0.727012,0.00331005,0.019047,615,1289,-26.9269,-4.99725
-602,-265,-26.9457,5.68323,0.0018235,0.00112582,0.00188169,0.00338842,-0.000439094,0.693745,0.00241863,0.0144526,622,1289,-26.9457,-5.68327
-595,-265,-26.9739,6.30164,0.00170659,0.000622719,0.00131644,0.00258828,-0.000258969,0.590136,0.001818,0.0122922,629,1289,-26.9739,-6.30167
-588,-265,-26.9931,6.88354,0.00183331,6.83704e-05,0.000926181,0.00223013,-0.000328442,0.40478,0.00160745,0.0112483,636,1289,-26.9931,-6.88359
-581,-265,-27.0124,7.48767,0.00216377,-0.000548558,0.00067533,0.00232261,-0.000707403,0.231012,0.00183036,0.0129859,643,1289,-27.0124,-7.48764
-574,-265,-27.0655,8.14795,0.00265867,-0.00119716,0.00054744,0.00273489,-0.00127337,0.138336,0.00236489,0.0143343,650,1289,-27.0655,-8.1479
-567,-265,-27.1306,8.79419,0.00332068,-0.0018366,0.000511326,0.00337089,-0.0018868,0.0978767,0.00307558,0.0207507,657,1289,-27.1306,-8.79422
-560,-265,-27.1537,9.41626,0.00402536,-0.00182475,0.000446276,0.00405921,-0.0018586,0.0757013,0.00349451,0.0261786,664,1289,-27.1537,-9.41625
-553,-265,-27.168,10.0365,0,0,0,0,0,0,0,-1,671,1289,-27.168,-10.0365
-546,-265,-24.2283,10.2581,0,0,0,0,0,0,0,-1,678,1289,-24.2283,-10.258
-539,-265,-13.7668,6.39917,0,0,0,0,0,0,0,-1,685,1289,-13.7668,-6.39915
-532,-265,-8.53998,3.41467,0,0,0,0,0,0,0,-1,692,1289,-8.53996,-3.41473
-525,-265,-12.1317,0.514648,0,0,0,0,0,0,0,-1,699,1289,-12.1317,-0.514634
-518,-265,-24.1604,0.712402,0,0,0,0,0,0,0,-1,706,1289,-24.1604,-0.712425
-511,-265,-23.233,0.791626,0,0,0,0,0,0,0,-1,713,1289,-23.233,-0.791617
-504,-265,-22.3056,0.87085,0,0,0,0,0,0,0,-1,720,1289,-22.3056,-0.87081
-497,-265,-18.689,-0.278442,0,0,0,0,0,0,0,-1,727,1289,-18.689,0.278423
-490,-265,-15.1696,0.492676,0,0,0,0,0,0,0,-1,734,1289,-15.1696,-0.492688
-483,-265,0,0,0,0,0,0,0,0,0,-1,741,1289,0,0
-476,-265,0,0,0,0,0,0,0,0,0,-1,748,1289,0,0
-469,-265,0,0,0,0,0,0,0,0,0,-1,755,1289,0,0
-462,-265,0,0,0,0,0,0,0,0,0,-1,762,1289,0,0
-455,-265,0,0,0,0,0,0,0,0,0,-1,769,1289,0,0
-448,-265,0,0,0,0,0,0,0,0,0,-1,776,1289,0,0
-441,-265,0,0,0,0,0,0,0,0,0,-1,783,1289,0,0
-434,-265,0,0,0,0,0,0,0,0,0,-1,790,1289,0,0
-427,-265,0,0,0,0,0,0,0,0,0,-1,797,1289,0,0
-420,-265,0,0,0,0,0,0,0,0,0,-1,804,1289,0,0
-413,-265,0,0,0,0,0,0,0,0,0,-1,811,1289,0,0
-406,-265,0,0,0,0,0,0,0,0,0,-1,818,1289,0,0
-399,-265,0,0,0,0,0,0,0,0,0,-1,825,1289,0,0
-392,-265,0,0,0,0,0,0,0,0,0,-1,832,1289,0,0
-385,-265,0,0,0,0,0,0,0,0,0,-1,839,1289,0,0
-378,-265,0,0,0,0,0,0,0,0,0,-1,846,1289,0,0
-371,-265,0,0,0,0,0,0,0,0,0,-1,853,1289,0,0
-364,-265,0,0,0,0,0,0,0,0,0,-1,860,1289,0,0
-357,-265,0,0,0,0,0,0,0,0,0,-1,867,1289,0,0
-350,-265,0,0,0,0,0,0,0,0,0,-1,874,1289,0,0
-343,-265,0,0,0,0,0,0,0,0,0,-1,881,1289,0,0
-336,-265,0,0,0,0,0,0,0,0,0,-1,888,1289,0,0
-329,-265,0,0,0,0,0,0,0,0,0,-1,895,1289,0,0
-322,-265,0,0,0,0,0,0,0,0,0,-1,902,1289,0,0
-315,-265,0,0,0,0,0,0,0,0,0,-1,909,1289,0,0
-308,-265,0,0,0,0,0,0,0,0,0,-1,916,1289,0,0
-301,-265,0,0,0,0,0,0,0,0,0,-1,923,1289,0,0
-294,-265,0,0,0,0,0,0,0,0,0,-1,930,1289,0,0
-287,-265,0,0,0,0,0,0,0,0,0,-1,937,1289,0,0
-280,-265,0,0,0,0,0,0,0,0,0,-1,944,1289,0,0
-273,-265,0,0,0,0,0,0,0,0,0,-1,951,1289,0,0
-266,-265,0,0,0,0,0,0,0,0,0,-1,958,1289,0,0
-259,-265,0,0,0,0,0,0,0,0,0,-1,965,1289,0,0
-252,-265,0,0,0,0,0,0,0,0,0,-1,972,1289,0,0
-245,-265,0,0,0,0,0,0,0,0,0,-1,979,1289,0,0
-238,-265,0,0,0,0,0,0,0,0,0,-1,986,1289,0,0
-231,-265,0,0,0,0,0,0,0,0,0,-1,993,1289,0,0
-224,-265,0,0,0,0,0,0,0,0,0,-1,1000,1289,0,0
-217,-265,0,0,0,0,0,0,0,0,0,-1,1007,1289,0,0
-210,-265,0,0,0,0,0,0,0,0,0,-1,1014,1289,0,0
-203,-265,0,0,0,0,0,0,0,0,0,-1,1021,1289,0,0
-196,-265,0,0,0,0,0,0,0,0,0,-1,1028,1289,0,0
-189,-265,0,0,0,0,0,0,0,0,0,-1,1035,1289,0,0
-182,-265,0,0,0,0,0,0,0,0,0,-1,1042,1289,0,0
-175,-265,0,0,0,0,0,0,0,0,0,-1,1049,1289,0,0
-168,-265,0,0,0,0,0,0,0,0,0,-1,1056,1289,0,0
-161,-265,0,0,0,0,0,0,0,0,0,-1,1063,1289,0,0
-154,-265,0,0,0,0,0,0,0,0,0,-1,1070,1289,0,0
-147,-265,0,0,0,0,0,0,0,0,0,-1,1077,1289,0,0
-140,-265,0,0,0,0,0,0,0,0,0,-1,1084,1289,0,0
-133,-265,0,0,0,0,0,0,0,0,0,-1,1091,1289,0,0
-126,-265,0,0,0,0,0,0,0,0,0,-1,1098,1289,0,0
-119,-265,0,0,0,0,0,0,0,0,0,-1,1105,1289,0,0
-112,-265,0,0,0,0,0,0,0,0,0,-1,1112,1289,0,0
-105,-265,0,0,0,0,0,0,0,0,0,-1,1119,1289,0,0
-98,-265,0,0,0,0,0,0,0,0,0,-1,1126,1289,0,0
-91,-265,0,0,0,0,0,0,0,0,0,-1,1133,1289,0,0
-84,-265,0,0,0,0,0,0,0,0,0,-1,1140,1289,0,0
-77,-265,0,0,0,0,0,0,0,0,0,-1,1147,1289,0,0
-70,-265,0,0,0,0,0,0,0,0,0,-1,1154,1289,0,0
-63,-265,0,0,0,0,0,0,0,0,0,-1,1161,1289,0,0
-56,-265,0,0,0,0,0,0,0,0,0,-1,1168,1289,0,0
-49,-265,0,0,0,0,0,0,0,0,0,-1,1175,1289,0,0
-42,-265,0,0,0,0,0,0,0,0,0,-1,1182,1289,0,0
-35,-265,0,0,0,0,0,0,0,0,0,-1,1189,1289,0,0
-28,-265,0,0,0,0,0,0,0,0,0,-1,1196,1289,0,0
-21,-265,0,0,0,0,0,0,0,0,0,-1,1203,1289,0,0
-14,-265,0,0,0,0,0,0,0,0,0,-1,1210,1289,0,0
-7,-265,0,0,0,0,0,0,0,0,0,-1,1217,1289,0,0
0,-265,0,0,0,0,0,0,0,0,0,-1,1224,1289,0,0
7,-265,0,0,0,0,0,0,0,0,0,-1,1231,1289,0,0
14,-265,0,0,0,0,0,0,0,0,0,-1,1238,1289,0,0
21,-265,0,0,0,0,0,0,0,0,0,-1,1245,1289,0,0
28,-265,0,0,0,0,0,0,0,0,0,-1,1252,1289,0,0
35,-265,0,0,0,0,0,0,0,0,0,-1,1259,1289,0,0
42,-265,0,0,0,0,0,0,0,0,0,-1,1266,1289,0,0
49,-265,0,0,0,0,0,0,0,0,0,-1,1273,1289,0,0
56,-265,0,0,0,0,0,0,0,0,0,-1,1280,1289,0,0
63,-265,0,0,0,0,0,0,0,0,0,-1,1287,1289,0,0
70,-265,0,0,0,0,0,0,0,0,0,-1,1294,1289,0,0
77,-265,0,0,0,0,0,0,0,0,0,-1,1301,1289,0,0
84,-265,0,0,0,0,0,0,0,0,0,-1,1308,1289,0,0
91,-265,0,0,0,0,0,0,0,0,0,-1,1315,1289,0,0
98,-265,0,0,0,0,0,0,0,0,0,-1,1322,1289,0,0
105,-265,0,0,0,0,0,0,0,0,0,-1,1329,1289,0,0
112,-265,0,0,0,0,0,0,0,0,0,-1,1336,1289,0,0
119,-265,0,0,0,0,0,0,0,0,0,-1,1343,1289,0,0
126,-265,0,0,0,0,0,0,0,0,0,-1,1350,1289,0,0
133,-265,0,0,0,0,0,0,0,0,0,-1,1357,1289,0,0
140,-265,0,0,0,0,0,0,0,0,0,-1,1364,1289,0,0
147,-265,0,0,0,0,0,0,0,0,0,-1,1371,1289,0,0
154,-265,0,0,0,0,0,0,0,0,0,-1,1378,1289,0,0
161,-265,0,0,0,0,0,0,0,0,0,-1,1385,1289,0,0
168,-265,0,0,0,0,0,0,0,0,0,-1,1392,1289,0,0
175,-265,0,0,0,0,0,0,0,0,0,-1,1399,1289,0,0
182,-265,0,0,0,0,0,0,0,0,0,-1,1406,1289,0,0
189,-265,0,0,0,0,0,0,0,0,0,-1,1413,1289,0,0
196,-265,0,0,0,0,0,0,0,0,0,-1,1420,1289,0,0
203,-265,0,0,0,0,0,0,0,0,0,-1,1427,1289,0,0
210,-265,0,0,0,0,0,0,0,0,0,-1,1434,1289,0,0
217,-265,0,0,0,0,0,0,0,0,0,-1,1441,1289,0,0
224,-265,0,0,0,0,0,0,0,0,0,-1,1448,1289,0,0
231,-265,0,0,0,0,0,0,0,0,0,-1,1455,1289,0,0
238,-265,0,0,0,0,0,0,0,0,0,-1,1462,1289,0,0
245,-265,0,0,0,0,0,0,0,0,0,-1,1469,1289,0,0
252,-265,0,0,0,0,0,0,0,0,0,-1,1476,1289,0,0
259,-265,0,0,0,0,0,0,0,0,0,-1,1483,1289,0,0
266,-265,0,0,0,0,0,0,0,0,0,-1,1490,1289,0,0
273,-265,0,0,0,0,0,0,0,0,0,-1,1497,1289,0,0
280,-265,0,0,0,0,0,0,0,0,0,-1,1504,1289,0,0
287,-265,0,0,0,0,0,0,0,0,0,-1,1511,1289,0,0
294,-265,0,0,0,0,0,0,0,0,0,-1,1518,1289,0,0
301,-265,0,0,0,0,0,0,0,0,0,-1,1525,1289,0,0
308,-265,0,0,0,0,0,0,0,0,0,-1,1532,1289,0,0
315,-265,0,0,0,0,0,0,0,0,0,-1,1539,1289,0,0
322,-265,0,0,0,0,0,0,0,0,0,-1,1546,1289,0,0
329,-265,0,0,0,0,0,0,0,0,0,-1,1553,1289,0,0
336,-265,0,0,0,0,0,0,0,0,0,-1,1560,1289,0,0
343,-265,0,0,0,0,0,0,0,0,0,-1,1567,1289,0,0
350,-265,0,0,0,0,0,0,0,0,0,-1,1574,1289,0,0
357,-265,0,0,0,0,0,0,0,0,0,-1,1581,1289,0,0
364,-265,0,0,0,0,0,0,0,0,0,-1,1588,1289,0,0
371,-265,0,0,0,0,0,0,0,0,0,-1,1595,1289,0,0
378,-265,0,0,0,0,0,0,0,0,0,-1,1602,1289,0,0
385,-265,0,0,0,0,0,0,0,0,0,-1,1609,1289,0,0
392,-265,0,0,0,0,0,0,0,0,0,-1,1616,1289,0,0
399,-265,0,0,0,0,0,0,0,0,0,-1,1623,1289,0,0
406,-265,0,0,0,0,0,0,0,0,0,-1,1630,1289,0,0
413,-265,0,0,0,0,0,0,0,0,0,-1,1637,1289,0,0
420,-265,0,0,0,0,0,0,0,0,0,-1,1644,1289,0,0
427,-265,0,0,0,0,0,0,0,0,0,-1,1651,1289,0,0
434,-265,0,0,0,0,0,0,0,0,0,-1,1658,1289,0,0
441,-265,0,0,0,0,0,0,0,0,0,-1,1665,1289,0,0
448,-265,0,0,0,0,0,0,0,0,0,-1,1672,1289,0,0
455,-265,0,0,0,0,0,0,0,0,0,-1,1679,1289,0,0
462,-265,0,0,0,0,0,0,0,0,0,-1,1686,1289,0,0
469,-265,0,0,0,0,0,0,0,0,0,-1,1693,1289,0,0
476,-265,0,0,0,0,0,0,0,0,0,-1,1700,1289,0,0
483,-265,0,0,0,0,0,0,0,0,0,-1,1707,1289,0,0
490,-265,0,0,0,0,0,0,0,0,0,-1,1714,1289,0,0
497,-265,0,0,0,0,0,0,0,0,0,-1,1721,1289,0,0
504,-265,0,0,0,0,0,0,0,0,0,-1,1728,1289,0,0
511,-265,0,0,0,0,0,0,0,0,0,-1,1735,1289,0,0
518,-265,0,0,0,0,0,0,0,0,0,-1,1742,1289,0,0
525,-265,0,0,0,0,0,0,0,0,0,-1,1749,1289,0,0
532,-265,0,0,0,0,0,0,0,0,0,-1,1756,1289,0,0
539,-265,0,0,0,0,0,0,0,0,0,-1,1763,1289,0,0
546,-265,0,0,0,0,0,0,0,0,0,-1,1770,1289,0,0
553,-265,0,0,0,0,0,0,0,0,0,-1,1777,1289,0,0
560,-265,0,0,0,0,0,0,0,0,0,-1,1784,1289,0,0
567,-265,0,0,0,0,0,0,0,0,0,-1,1791,1289,0,0
574,-265,0,0,0,0,0,0,0,0,0,-1,1798,1289,0,0
581,-265,0,0,0,0,0,0,0,0,0,-1,1805,1289,0,0
588,-265,0,0,0,0,0,0,0,0,0,-1,1812,1289,0,0
595,-265,0,0,0,0,0,0,0,0,0,-1,1819,1289,0,0
602,-265,58.8516,2.71777,0.00387002,0.0121711,-0.00193768,0.0126011,0.00343999,-1.35241,0.00752106,0.0272614,1826,1289,58.8515,-2.71774
609,-265,58.8713,2.61755,0.00279391,0.0108972,-0.00204271,0.011383,0.00230811,-1.33731,0.00694829,0.0280246,1833,1289,58.8713,-2.61751
616,-265,58.8037,2.60144,0.00115562,0.00889901,-0.00210745,0.00943542,0.00061921,-1.32156,0.00609437,0.0314944,1840,1289,58.8037,-2.60145
623,-265,58.9297,2.57739,-0.000444906,0.00637352,-0.0019856,0.0069096,-0.000980987,-1.3071,0.0049658,0.0444414,1847,1289,58.9297,-2.57744
630,-265,58.8893,2.53894,-0.00177091,0.00388547,-0.00163279,0.00432296,-0.00220839,-1.30901,0.00383619,0.0480895,1854,1289,58.8892,-2.53893
637,-265,58.7629,2.38306,-0.00195771,0.00217753,-0.00136831,0.00258929,-0.00236947,-1.27849,0.00286388,0.0484733,1861,1289,58.7629,-2.38305
644,-265,58.7644,2.11951,0,0,0,0,0,0,0,-1,1868,1289,58.7644,-2.11945
651,-265,53.6781,1.57166,0,0,0,0,0,0,0,-1,1875,1289,53.6781,-1.57167
658,-265,41.7163,3.71619,0,0,0,0,0,0,0,-1,1882,1289,41.7163,-3.71624
665,-265,34.7902,1.43164,0,0,0,0,0,0,0,-1,1889,1289,34.7901,-1.43162
672,-265,20.0045,6.62671,0,0,0,0,0,0,0,-1,1896,1289,20.0045,-6.62668
679,-265,42.3782,12.4945,0,0,0,0,0,0,0,-1,1903,1289,42.3781,-12.4945
686,-265,42.3923,11.88,-0.00184318,-0.00264877,-0.000108063,-0.00182894,-0.00266301,-0.131056,0.00157285,0.0417941,1910,1289,42.3923,-11.8799
693,-265,42.405,11.2976,-0.000830484,-0.00258197,-0.000161023,-0.000815803,-0.00259665,-0.0909195,0.0015333,0.0100311,1917,1289,42.405,-11.2977
700,-265,42.3755,10.7247,3.09495e-05,-0.000974135,-7.4829e-05,3.649e-05,-0.000979676,-0.0739074,0.000665614,0.0104643,1924,1289,42.3755,-10.7247
707,-265,42.3646,10.151,0.000171847,-0.000460506,0.000274876,0.000274627,-0.000563285,0.357817,0.000493245,0.0106204,1931,1289,42.3646,-10.151
714,-265,42.3447,9.5741,-0.000498206,-0.000240776,0.000760629,0.000401952,-0.00114093,0.869215,0.000924216,0.012613,1938,1289,42.3448,-9.57406
721,-265,42.287,8.99609,-0.00110097,-4.23158e-05,0.00126341,0.000798173,-0.00194146,0.983773,0.00162699,0.0141617,1945,1289,42.287,-8.99611
728,-265,42.2466,8.4541,-0.00170904,0.00012567,0.00176153,0.00119439,-0.00277776,1.02546,0.00235328,0.0152108,1952,1289,42.2466,-8.45408
735,-265,42.3009,7.896,-0.00226167,0.000299505,0.00224346,0.00160213,-0.0035643,1.04474,0.00305371,0.0174291,1959,1289,42.3009,-7.896
742,-265,42.2557,7.35681,-0.00265763,0.000456797,0.00269909,0.00201567,-0.00421651,1.04704,0.00367218,0.0210151,1966,1289,42.2558,-7.35685
749,-265,42.2188,6.73132,-0.00276583,0.000684605,0.00300174,0.00242159,-0.00450281,1.04622,0.00405755,0.0475707,1973,1289,42.2187,-6.73137
756,-265,42.355,6.0874,0,0,0,0,0,0,0,-1,1980,1289,42.355,-6.08736
763,-265,39.1299,4.9679,0,0,0,0,0,0,0,-1,1987,1289,39.1299,-4.96791
770,-265,35.1674,5.07715,0,0,0,0,0,0,0,-1,1994,1289,35.1673,-5.07718
777,-265,32.1664,5.3457,0,0,0,0,0,0,0,-1,2001,1289,32.1664,-5.34568
784,-265,0,0,0,0,0,0,0,0,0,-1,2008,1289,0,0
791,-265,0,0,0,0,0,0,0,0,0,-1,2015,1289,0,0
798,-265,0,0,0,0,0,0,0,0,0,-1,2022,1289,0,0
805,-265,0,0,0,0,0,0,0,0,0,-1,2029,1289,0,0
812,-265,0,0,0,0,0,0,0,0,0,-1,2036,1289,0,0
-700,-272,0,0,0,0,0,0,0,0,0,-1,524,1296,0,0
-693,-272,0,0,0,0,0,0,0,0,0,-1,531,1296,0,0
-686,-272,0,0,0,0,0,0,0,0,0,-1,538,1296,0,0
-679,-272,0,0,0,0,0,0,0,0,0,-1,545,1296,0,0
-672,-272,0,0,0,0,0,0,0,0,0,-1,552,1296,0,0
-665,-272,0,0,0,0,0,0,0,0,0,-1,559,1296,0,0
-658,-272,-36.5144,0.088501,0,0,0,0,0,0,0,-1,566,1296,-36.5144,-0.0884768
-651,-272,-36.4545,-0.0233154,0,0,0,0,0,0,0,-1,573,1296,-36.4545,0.023367
-644,-272,-37.3553,-1.27917,0,0,0,0,0,0,0,-1,580,1296,-37.3553,1.27916
-637,-272,-37.7366,-2.38599,0,0,0,0,0,0,0,-1,587,1296,-37.7366,2.38599
-630,-272,-37.0609,-0.684937,0,0,0,0,0,0,0,-1,594,1296,-37.0609,0.684889
-623,-272,-26.1271,3.20215,0,0,0,0,0,0,0,-1,601,1296,-26.1271,-3.20219
-616,-272,-26.1396,4.2793,0.00368844,0.00152675,0.00439656,0.00713506,-0.00191987,0.664869,0.00550933,0.0453027,608,1296,-26.1397,-4.27926
-609,-272,-26.2604,5.18835,0.00252145,0.00157366,0.00304607,0.00513027,-0.00103516,0.708229,0.00381237,0.0265681,615,1296,-26.2604,-5.18835
-602,-272,-26.2996,5.68213,0.00202821,0.00122197,0.00220889,0.00387047,-0.000620289,0.695142,0.00280999,0.0157005,622,1296,-26.2996,-5.68208
-595,-272,-26.3516,6.31409,0.00180595,0.0007865,0.00157917,0.00295562,-0.000363177,0.629288,0.00210196,0.0122556,629,1296,-26.3515,-6.31403
-588,-272,-26.3765,6.91541,0.00183744,0.000292025,0.0011394,0.00244143,-0.000311969,0.487436,0.00174095,0.0110535,636,1296,-26.3764,-6.91538
-581,-272,-26.3996,7.51318,0.00209446,-0.000261975,0.000854696,0.00237182,-0.000539333,0.31379,0.00178831,0.0101492,643,1296,-26.3996,-7.51318
-574,-272,-26.4624,8.15796,0.00257525,-0.000865217,0.000707924,0.00271523,-0.00100519,0.195202,0.00222233,0.0158709,650,1296,-26.4624,-8.15796
-567,-272,-26.5081,8.79175,0.00330823,-0.0015126,0.000693444,0.003406,-0.00161036,0.140061,0.0029574,0.0219173,657,1296,-26.5081,-8.79175
-560,-272,-26.5146,9.41455,0.00423711,-0.00173976,0.000777368,0.00433656,-0.00183921,0.127243,0.00366147,0.0205769,664,1296,-26.5147,-9.4146
-553,-272,-26.4391,10.0072,0.00489325,-0.00156631,0.000856386,0.00500486,-0.00167792,0.129594,0.00401451,0.0277988,671,1296,-26.4391,-10.0072
-546,-272,-26.4109,10.6492,0,0,0,0,0,0,0,-1,678,1296,-26.411,-10.6491
-539,-272,-24.1416,11.0325,0,0,0,0,0,0,0,-1,685,1296,-24.1416,-11.0324
-532,-272,-10.5572,4.53943,0,0,0,0,0,0,0,-1,692,1296,-10.5572,-4.53943
-525,-272,-11.9599,0.0393066,0,0,0,0,0,0,0,-1,699,1296,-11.9599,-0.0393577
-518,-272,-21.1357,-1.41382,0,0,0,0,0,0,0,-1,706,1296,-21.1357,1.41379
-511,-272,-23.2565,0.226318,0,0,0,0,0,0,0,-1,713,1296,-23.2565,-0.22626
-504,-272,-19.7397,0.114746,0,0,0,0,0,0,0,-1,720,1296,-19.7397,-0.114701
-497,-272,-19.2225,1.71301,0,0,0,0,0,0,0,-1,727,1296,-19.2225,-1.71302
-490,-272,-20.1948,2.4032,0,0,0,0,0,0,0,-1,734,1296,-20.1948,-2.40322
-483,-272,-15.3736,0.792603,0,0,0,0,0,0,0,-1,741,1296,-15.3736,-0.79263
-476,-272,0,0,0,0,0,0,0,0,0,-1,748,1296,0,0
-469,-272,0,0,0,0,0,0,0,0,0,-1,755,1296,0,0
-462,-272,0,0,0,0,0,0,0,0,0,-1,762,1296,0,0
-455,-272,0,0,0,0,0,0,0,0,0,-1,769,1296,0,0
-448,-272,0,0,0,0,0,0,0,0,0,-1,776,1296,0,0
-441,-272,0,0,0,0,0,0,0,0,0,-1,783,1296,0,0
-434,-272,0,0,0,0,0,0,0,0,0,-1,790,1296,0,0
-427,-272,0,0,0,0,0,0,0,0,0,-1,797,1296,0,0
-420,-272,0,0,0,0,0,0,0,0,0,-1,804,1296,0,0
-413,-272,0,0,0,0,0,0,0,0,0,-1,811,1296,0,0
-406,-272,0,0,0,0,0,0,0,0,0,-1,818,1296,0,0
-399,-272,0,0,0,0,0,0,0,0,0,-1,825,1296,0,0
-392,-272,0,0,0,0,0,0,0,0,0,-1,832,1296,0,0
-385,-272,0,0,0,0,0,0,0,0,0,-1,839,1296,0,0
-378,-272,0,0,0,0,0,0,0,0,0,-1,846,1296,0,0
-371,-272,0,0,0,0,0,0,0,0,0,-1,853,1296,0,0
-364,-272,0,0,0,0,0,0,0,0,0,-1,860,1296,0,0
-357,-272,0,0,0,0,0,0,0,0,0,-1,867,1296,0,0
-350,-272,0,0,0,0,0,0,0,0,0,-1,874,1296,0,0
-343,-272,0,0,0,0,0,0,0,0,0,-1,881,1296,0,0
-336,-272,0,0,0,0,0,0,0,0,0,-1,888,1296,0,0
-329,-272,0,0,0,0,0,0,0,0,0,-1,895,1296,0,0
-322,-272,0,0,0,0,0,0,0,0,0,-1,902,1296,0,0
-315,-272,0,0,0,0,0,0,0,0,0,-1,909,1296,0,0
-308,-272,0,0,0,0,0,0,0,0,0,-1,916,1296,0,0
-301,-272,0,0,0,0,0,0,0,0,0,-1,923,1296,0,0
-294,-272,0,0,0,0,0,0,0,0,0,-1,930,1296,0,0
-287,-272,0,0,0,0,0,0,0,0,0,-1,937,1296,0,0
-280,-272,0,0,0,0,0,0,0,0,0,-1,944,1296,0,0
-273,-272,0,0,0,0,0,0,0,0,0,-1,951,1296,0,0
-266,-272,0,0,0,0,0,0,0,0,0,-1,958,1296,0,0
-259,-272,0,0,0,0,0,0,0,0,0,-1,965,1296,0,0
-252,-272,0,0,0,0,0,0,0,0,0,-1,972,1296,0,0
-245,-272,0,0,0,0,0,0,0,0,0,-1,979,1296,0,0
-238,-272,0,0,0,0,0,0,0,0,0,-1,986,1296,0,0
-231,-272,0,0,0,0,0,0,0,0,0,-1,993,1296,0,0
-224,-272,0,0,0,0,0,0,0,0,0,-1,1000,1296,0,0
-217,-272,0,0,0,0,0,0,0,0,0,-1,1007,1296,0,0
-210,-272,0,0,0,0,0,0,0,0,0,-1,1014,1296,0,0
-203,-272,0,0,0,0,0,0,0,0,0,-1,1021,1296,0,0
-196,-272,0,0,0,0,0,0,0,0,0,-1,1028,1296,0,0
-189,-272,0,0,0,0,0,0,0,0,0,-1,1035,1296,0,0
-182,-272,0,0,0,0,0,0,0,0,0,-1,1042,1296,0,0
-175,-272,0,0,0,0,0,0,0,0,0,-1,1049,1296,0,0
-168,-272,0,0,0,0,0,0,0,0,0,-1,1056,1296,0,0
-161,-272,0,0,0,0,0,0,0,0,0,-1,1063,1296,0,0
-154,-272,0,0,0,0,0,0,0,0,0,-1,1070,1296,0,0
-147,-272,0,0,0,0,0,0,0,0,0,-1,1077,1296,0,0
-140,-272,0,0,0,0,0,0,0,0,0,-1,1084,1296,0,0
-133,-272,0,0,0,0,0,0,0,0,0,-1,1091,1296,0,0
-126,-272,0,0,0,0,0,0,0,0,0,-1,1098,1296,0,0
-119,-272,0,0,0,0,0,0,0,0,0,-1,1105,1296,0,0
-112,-272,0,0,0,0,0,0,0,0,0,-1,1112,1296,0,0
-105,-272,0,0,0,0,0,0,0,0,0,-1,1119,1296,0,0
-98,-272,0,0,0,0,0,0,0,0,0,-1,1126,1296,0,0
-91,-272,0,0,0,0,0,0,0,0,0,-1,1133,1296,0,0
-84,-272,0,0,0,0,0,0,0,0,0,-1,1140,1296,0,0
-77,-272,0,0,0,0,0,0,0,0,0,-1,1147,1296,0,0
-70,-272,0,0,0,0,0,0,0,0,0,-1,1154,1296,0,0
-63,-272,0,0,0,0,0,0,0,0,0,-1,1161,1296,0,0
-56,-272,0,0,0,0,0,0,0,0,0,-1,1168,1296,0,0
-49,-272,0,0,0,0,0,0,0,0,0,-1,1175,1296,0,0
-42,-272,0,0,0,0,0,0,0,0,0,-1,1182,1296,0,0
-35,-272,0,0,0,0,0,0,0,0,0,-1,1189,1296,0,0
-28,-272,0,0,0,0,0,0,0,0,0,-1,1196,1296,0,0
-21,-272,0,0,0,0,0,0,0,0,0,-1,1203,1296,0,0
-14,-272,0,0,0,0,0,0,0,0,0,-1,1210,1296,0,0
-7,-272,0,0,0,0,0,0,0,0,0,-1,1217,1296,0,0
0,-272,0,0,0,0,0,0,0,0,0,-1,1224,1296,0,0
7,-272,0,0,0,0,0,0,0,0,0,-1,1231,1296,0,0
14,-272,0,0,0,0,0,0,0,0,0,-1,1238,1296,0,0
21,-272,0,0,0,0,0,0,0,0,0,-1,1245,1296,0,0
28,-272,0,0,0,0,0,0,0,0,0,-1,1252,1296,0,0
35,-272,0,0,0,0,0,0,0,0,0,-1,1259,1296,0,0
42,-272,0,0,0,0,0,0,0,0,0,-1,1266,1296,0,0
49,-272,0,0,0,0,0,0,0,0,0,-1,1273,1296,0,0
56,-272,0,0,0,0,0,0,0,0,0,-1,1280,1296,0,0
63,-272,0,0,0,0,0,0,0,0,0,-1,1287,1296,0,0
70,-272,0,0,0,0,0,0,0,0,0,-1,1294,1296,0,0
77,-272,0,0,0,0,0,0,0,0,0,-1,1301,1296,0,0
84,-272,0,0,0,0,0,0,0,0,0,-1,1308,1296,0,0
91,-272,0,0,0,0,0,0,0,0,0,-1,1315,1296,0,0
98,-272,0,0,0,0,0,0,0,0,0,-1,1322,1296,0,0
105,-272,0,0,0,0,0,0,0,0,0,-1,1329,1296,0,0
112,-272,0,0,0,0,0,0,0,0,0,-1,1336,1296,0,0
119,-272,0,0,0,0,0,0,0,0,0,-1,1343,1296,0,0
126,-272,0,0,0,0,0,0,0,0,0,-1,1350,1296,0,0
133,-272,0,0,0,0,0,0,0,0,0,-1,1357,1296,0,0
140,-272,0,0,0,0,0,0,0,0,0,-1,1364,1296,0,0
147,-272,0,0,0,0,0,0,0,0,0,-1,1371,1296,0,0
154,-272,0,0,0,0,0,0,0,0,0,-1,1378,1296,0,0
161,-272,0,0,0,0,0,0,0,0,0,-1,1385,1296,0,0
168,-272,0,0,0,0,0,0,0,0,0,-1,1392,1296,0,0
175,-272,0,0,0,0,0,0,0,0,0,-1,1399,1296,0,0
182,-272,0,0,0,0,0,0,0,0,0,-1,1406,1296,0,0
189,-272,0,0,0,0,0,0,0,0,0,-1,1413,1296,0,0
196,-272,0,0,0,0,0,0,0,0,0,-1,1420,1296,0,0
203,-272,0,0,0,0,0,0,0,0,0,-1,1427,1296,0,0
210,-272,0,0,0,0,0,0,0,0,0,-1,1434,1296,0,0
217,-272,0,0,0,0,0,0,0,0,0,-1,1441,1296,0,0
224,-272,0,0,0,0,0,0,0,0,0,-1,1448,1296,0,0
231,-272,0,0,0,0,0,0,0,0,0,-1,1455,1296,0,0
238,-272,0,0,0,0,0,0,0,0,0,-1,1462,1296,0,0
245,-272,0,0,0,0,0,0,0,0,0,-1,1469,1296,0,0
252,-272,0,0,0,0,0,0,0,0,0,-1,1476,1296,0,0
259,-272,0,0,0,0,0,0,0,0,0,-1,1483,1296,0,0
266,-272,0,0,0,0,0,0,0,0,0,-1,1490,1296,0,0
273,-272,0,0,0,0,0,0,0,0,0,-1,1497,1296,0,0
280,-272,0,0,0,0,0,0,0,0,0,-1,1504,1296,0,0
287,-272,0,0,0,0,0,0,0,0,0,-1,1511,1296,0,0
294,-272,0,0,0,0,0,0,0,0,0,-1,1518,1296,0,0
301,-272,0,0,0,0,0,0,0,0,0,-1,1525,1296,0,0
308,-272,0,0,0,0,0,0,0,0,0,-1,1532,1296,0,0
315,-272,0,0,0,0,0,0,0,0,0,-1,1539,1296,0,0
322,-272,0,0,0,0,0,0,0,0,0,-1,1546,1296,0,0
329,-272,0,0,0,0,0,0,0,0,0,-1,1553,1296,0,0
336,-272,0,0,0,0,0,0,0,0,0,-1,1560,1296,0,0
343,-272,0,0,0,0,0,0,0,0,0,-1,1567,1296,0,0
350,-272,0,0,0,0,0,0,0,0,0,-1,1574,1296,0,0
357,-272,0,0,0,0,0,0,0,0,0,-1,1581,1296,0,0
364,-272,0,0,0,0,0,0,0,0,0,-1,1588,1296,0,0
371,-272,0,0,0,0,0,0,0,0,0,-1,1595,1296,0,0
378,-272,0,0,0,0,0,0,0,0,0,-1,1602,1296,0,0
385,-272,0,0,0,0,0,0,0,0,0,-1,1609,1296,0,0
392,-272,0,0,0,0,0,0,0,0,0,-1,1616,1296,0,0
399,-272,0,0,0,0,0,0,0,0,0,-1,1623,1296,0,0
406,-272,0,0,0,0,0,0,0,0,0,-1,1630,1296,0,0
413,-272,0,0,0,0,0,0,0,0,0,-1,1637,1296,0,0
420,-272,0,0,0,0,0,0,0,0,0,-1,1644,1296,0,0
427,-272,0,0,0,0,0,0,0,0,0,-1,1651,1296,0,0
434,-272,0,0,0,0,0,0,0,0,0,-1,1658,1296,0,0
441,-272,0,0,0,0,0,0,0,0,0,-1,1665,1296,0,0
448,-272,0,0,0,0,0,0,0,0,0,-1,1672,1296,0,0
455,-272,0,0,0,0,0,0,0,0,0,-1,1679,1296,0,0
462,-272,0,0,0,0,0,0,0,0,0,-1,1686,1296,0,0
469,-272,0,0,0,0,0,0,0,0,0,-1,1693,1296,0,0
476,-272,0,0,0,0,0,0,0,0,0,-1,1700,1296,0,0
483,-272,0,0,0,0,0,0,0,0,0,-1,1707,1296,0,0
490,-272,0,0,0,0,0,0,0,0,0,-1,1714,1296,0,0
497,-272,0,0,0,0,0,0,0,0,0,-1,1721,1296,0,0
504,-272,0,0,0,0,0,0,0,0,0,-1,1728,1296,0,0
511,-272,0,0,0,0,0,0,0,0,0,-1,1735,1296,0,0
518,-272,0,0,0,0,0,0,0,0,0,-1,1742,1296,0,0
525,-272,0,0,0,0,0,0,0,0,0,-1,1749,1296,0,0
532,-272,0,0,0,0,0,0,0,0,0,-1,1756,1296,0,0
539,-272,0,0,0,0,0,0,0,0,0,-1,1763,1296,0,0
546,-272,0,0,0,0,0,0,0,0,0,-1,1770,1296,0,0
553,-272,0,0,0,0,0,0,0,0,0,-1,1777,1296,0,0
560,-272,0,0,0,0,0,0,0,0,0,-1,1784,1296,0,0
567,-272,0,0,0,0,0,0,0,0,0,-1,1791,1296,0,0
574,-272,0,0,0,0,0,0,0,0,0,-1,1798,1296,0,0
581,-272,0,0,0,0,0,0,0,0,0,-1,1805,1296,0,0
588,-272,0,0,0,0,0,0,0,0,0,-1,1812,1296,0,0
595,-272,0,0,0,0,0,0,0,0,0,-1,1819,1296,0,0
602,-272,58.7816,2.63,0.00195525,0.01772,0.000165696,0.0177217,0.00195351,1.56029,0.0112201,0.0319132,1826,1296,58.7817,-2.62999
609,-272,58.7797,2.51086,0.00117069,0.0165174,-0.000375858,0.0165266,0.00116149,-1.54632,0.0106517,0.0380897,1833,1296,58.7797,-2.51087
616,-272,58.7415,2.40051,0.0003446,0.0138135,-0.00095553,0.0138809,0.000277149,-1.50032,0.00916296,0.0405194,1840,1296,58.7415,-2.40051
623,-272,59.0062,2.40991,-8.37299e-05,0.0103149,-0.00132061,0.01048,-0.000248825,-1.44643,0.00707106,0.0456031,1847,1296,59.0063,-2.40986
630,-272,58.9326,2.50354,0,0,0,0,0,0,0,-1,1854,1296,58.9326,-2.50359
637,-272,58.7844,2.21289,0,0,0,0,0,0,0,-1,1861,1296,58.7844,-2.21288
644,-272,53.563,1.44336,0,0,0,0,0,0,0,-1,1868,1296,53.5629,-1.4433
651,-272,41.9225,4.27161,0,0,0,0,0,0,0,-1,1875,1296,41.9225,-4.27157
658,-272,35.1527,2.10571,0,0,0,0,0,0,0,-1,1882,1296,35.1527,-2.10573
665,-272,22.0238,4.14417,0,0,0,0,0,0,0,-1,1889,1296,22.0238,-4.14421
672,-272,22.661,7.21765,0,0,0,0,0,0,0,-1,1896,1296,22.661,-7.21761
679,-272,41.8541,12.5441,0,0,0,0,0,0,0,-1,1903,1296,41.8541,-12.544
686,-272,41.8102,11.9329,-0.00175336,-0.00225341,-0.000276667,-0.00163048,-0.00237629,-0.417966,0.00140329,0.029048,1910,1296,41.8102,-11.9328
693,-272,41.8203,11.3206,-0.000685552,-0.00208667,-0.000274819,-0.000633577,-0.00213864,-0.186919,0.00126846,0.0118444,1917,1296,41.8203,-11.3206
700,-272,41.8066,10.7538,5.37087e-05,-0.000664318,-7.6024e-05,6.16698e-05,-0.000672279,-0.104338,0.000470093,0.0119064,1924,1296,41.8067,-10.7537
707,-272,41.7881,10.1699,8.70361e-05,-0.000280209,0.000347158,0.000296142,-0.000489315,0.542136,0.000458033,0.011223,1931,1296,41.7881,-10.1699
714,-272,41.7568,9.58508,-0.000510754,-0.000122762,0.000813246,0.000519306,-0.00115282,0.902483,0.00098823,0.0135834,1938,1296,41.7568,-9.58513
721,-272,41.7012,9.03528,-0.00113996,5.25409e-05,0.00127267,0.000861707,-0.00194913,1.00447,0.00166282,0.0173768,1945,1296,41.7011,-9.03528
728,-272,41.7094,8.42322,-0.00180616,0.000231821,0.00171276,0.00120579,-0.00278013,1.05374,0.00236035,0.0191237,1952,1296,41.7093,-8.42317
735,-272,41.7201,7.89587,-0.0024621,0.000434203,0.00211623,0.00155034,-0.00357824,1.08546,0.00303716,0.0175505,1959,1296,41.7201,-7.89589
742,-272,41.5601,7.42078,-0.00302297,0.000637342,0.00245991,0.00187323,-0.00425886,1.10522,0.00362858,0.0261093,1966,1296,41.5601,-7.42072
749,-272,41.5747,6.69751,-0.00339839,0.000962551,0.00257853,0.00215895,-0.00459479,1.13637,0.00398291,0.0482738,1973,1296,41.5747,-6.69757
756,-272,41.7744,6.01489,0,0,0,0,0,0,0,-1,1980,1296,41.7744,-6.01485
763,-272,34.3995,5.88416,0,0,0,0,0,0,0,-1,1987,1296,34.3996,-5.88419
770,-272,25.9485,3.67749,0,0,0,0,0,0,0,-1,1994,1296,25.9485,-3.67744
777,-272,32.3619,6.13257,0,0,0,0,0,0,0,-1,2001,1296,32.362,-6.1326
784,-272,0,0,0,0,0,0,0,0,0,-1,2008,1296,0,0
791,-272,0,0,0,0,0,0,0,0,0,-1,2015,1296,0,0
798,-272,0,0,0,0,0,0,0,0,0,-1,2022,1296,0,0
805,-272,0,0,0,0,0,0,0,0,0,-1,2029,1296,0,0
812,-272,0,0,0,0,0,0,0,0,0,-1,2036,1296,0,0
-700,-279,0,0,0,0,0,0,0,0,0,-1,524,1303,0,0
-693,-279,0,0,0,0,0,0,0,0,0,-1,531,1303,0,0
-686,-279,0,0,0,0,0,0,0,0,0,-1,538,1303,0,0
-679,-279,0,0,0,0,0,0,0,0,0,-1,545,1303,0,0
-672,-279,0,0,0,0,0,0,0,0,0,-1,552,1303,0,0
-665,-279,0,0,0,0,0,0,0,0,0,-1,559,1303,0,0
-658,-279,-37.5104,0.649658,0,0,0,0,0,0,0,-1,566,1303,-37.5105,-0.649669
-651,-279,-37.7213,0.227173,0,0,0,0,0,0,0,-1,573,1303,-37.7213,-0.227215
-644,-279,-37.8957,-0.373413,0,0,0,0,0,0,0,-1,580,1303,-37.8957,0.373419
-637,-279,-37.8995,-1.21082,0,0,0,0,0,0,0,-1,587,1303,-37.8995,1.21076
-630,-279,-37.8927,-1.96741,0,0,0,0,0,0,0,-1,594,1303,-37.8927,1.96745
-623,-279,-22.2665,2.68457,0,0,0,0,0,0,0,-1,601,1303,-22.2665,-2.68451
-616,-279,-25.8589,4.78076,0,0,0,0,0,0,0,-1,608,1303,-25.859,-4.7808
-609,-279,-25.7066,5.02148,0,0,0,0,0,0,0,-1,615,1303,-25.7066,-5.02152
-602,-279,-25.6646,5.69775,0.00218061,0.00138996,0.00255348,0.00436918,-0.000798614,0.708598,0.00321226,0.0159307,622,1303,-25.6646,-5.69781
-595,-279,-25.731,6.31482,0.00191056,0.00100752,0.00185561,0.00336879,-0.000450718,0.666054,0.00241019,0.0103229,629,1303,-25.7309,-6.3148
-588,-279,-25.755,6.92798,0.0018698,0.000545616,0.00136296,0.00272297,-0.000307556,0.559296,0.00192604,0.0107335,636,1303,-25.755,-6.92794
-581,-279,-25.796,7.52795,0.00206792,2.09304e-05,0.00105015,0.00251084,-0.000421981,0.399124,0.00183083,0.0123553,643,1303,-25.7959,-7.52797
-574,-279,-25.8423,8.15491,0.00247085,-0.00054962,0.000881842,0.00270945,-0.000788229,0.264253,0.0021185,0.0136119,650,1303,-25.8424,-8.15493
-567,-279,-25.8574,8.78479,0.00309113,-0.00115794,0.00084429,0.00325274,-0.00131955,0.189132,0.00271733,0.0184461,657,1303,-25.8573,-8.78477
-560,-279,-25.8522,9.4342,0.0039567,-0.00158973,0.000950402,0.00411504,-0.00174807,0.165082,0.0034758,0.0171198,664,1303,-25.8521,-9.43415
-553,-279,-25.8693,10.0665,0.00479114,-0.00180491,0.00113686,0.00498158,-0.00199535,0.165977,0.0041493,0.0149042,671,1303,-25.8693,-10.0665
-546,-279,-25.8789,10.6842,0.00574643,-0.00169004,0.00138082,0.00599454,-0.00193815,0.177789,0.00477537,0.0315413,678,1303,-25.8789,-10.6842
-539,-279,-26.2014,11.3932,0,0,0,0,0,0,0,-1,685,1303,-26.2014,-11.3932
-532,-279,-14.9813,7.89917,0,0,0,0,0,0,0,-1,692,1303,-14.9813,-7.89918
-525,-279,-11.7063,-0.539185,0,0,0,0,0,0,0,-1,699,1303,-11.7063,0.539166
-518,-279,-16.8138,1.11963,0,0,0,0,0,0,0,-1,706,1303,-16.8138,-1.11968
-511,-279,-20.1063,-1.37915,0,0,0,0,0,0,0,-1,713,1303,-20.1062,1.37918
-504,-279,-18.3766,1.04578,0,0,0,0,0,0,0,-1,720,1303,-18.3767,-1.04577
-497,-279,-19.0046,2.08911,0,0,0,0,0,0,0,-1,727,1303,-19.0046,-2.08905
-490,-279,-20.0176,2.55188,0,0,0,0,0,0,0,-1,734,1303,-20.0176,-2.55183
-483,-279,-20.8064,2.99792,0,0,0,0,0,0,0,-1,741,1303,-20.8064,-2.99797
-476,-279,0,0,0,0,0,0,0,0,0,-1,748,1303,0,0
-469,-279,0,0,0,0,0,0,0,0,0,-1,755,1303,0,0
-462,-279,0,0,0,0,0,0,0,0,0,-1,762,1303,0,0
-455,-279,0,0,0,0,0,0,0,0,0,-1,769,1303,0,0
-448,-279,0,0,0,0,0,0,0,0,0,-1,776,1303,0,0
-441,-279,0,0,0,0,0,0,0,0,0,-1,783,1303,0,0
-434,-279,0,0,0,0,0,0,0,0,0,-1,790,1303,0,0
-427,-279,0,0,0,0,0,0,0,0,0,-1,797,1303,0,0
-420,-279,0,0,0,0,0,0,0,0,0,-1,804,1303,0,0
-413,-279,0,0,0,0,0,0,0,0,0,-1,811,1303,0,0
-406,-279,0,0,0,0,0,0,0,0,0,-1,818,1303,0,0
-399,-279,0,0,0,0,0,0,0,0,0,-1,825,1303,0,0
-392,-279,0,0,0,0,0,0,0,0,0,-1,832,1303,0,0
-385,-279,0,0,0,0,0,0,0,0,0,-1,839,1303,0,0
-378,-279,0,0,0,0,0,0,0,0,0,-1,846,1303,0,0
-371,-279,0,0,0,0,0,0,0,0,0,-1,853,1303,0,0
-364,-279,0,0,0,0,0,0,0,0,0,-1,860,1303,0,0
-357,-279,0,0,0,0,0,0,0,0,0,-1,867,1303,0,0
-350,-279,0,0,0,0,0,0,0,0,0,-1,874,1303,0,0
-343,-279,0,0,0,0,0,0,0,0,0,-1,881,1303,0,0
-336,-279,0,0,0,0,0,0,0,0,0,-1,888,1303,0,0
-329,-279,0,0,0,0,0,0,0,0,0,-1,895,1303,0,0
-322,-279,0,0,0,0,0,0,0,0,0,-1,902,1303,0,0
-315,-279,0,0,0,0,0,0,0,0,0,-1,909,1303,0,0
-308,-279,0,0,0,0,0,0,0,0,0,-1,916,1303,0,0
-301,-279,0,0,0,0,0,0,0,0,0,-1,923,1303,0,0
-294,-279,0,0,0,0,0,0,0,0,0,-1,930,1303,0,0
-287,-279,0,0,0,0,0,0,0,0,0,-1,937,1303,0,0
-280,-279,0,0,0,0,0,0,0,0,0,-1,944,1303,0,0
-273,-279,0,0,0,0,0,0,0,0,0,-1,951,1303,0,0
-266,-279,0,0,0,0,0,0,0,0,0,-1,958,1303,0,0
-259,-279,0,0,0,0,0,0,0,0,0,-1,965,1303,0,0
-252,-279,0,0,0,0,0,0,0,0,0,-1,972,1303,0,0
-245,-279,0,0,0,0,0,0,0,0,0,-1,979,1303,0,0
-238,-279,0,0,0,0,0,0,0,0,0,-1,986,1303,0,0
-231,-279,0,0,0,0,0,0,0,0,0,-1,993,1303,0,0
-224,-279,0,0,0,0,0,0,0,0,0,-1,1000,1303,0,0
-217,-279,0,0,0,0,0,0,0,0,0,-1,1007,1303,0,0
-210,-279,0,0,0,0,0,0,0,0,0,-1,1014,1303,0,0
-203,-279,0,0,0,0,0,0,0,0,0,-1,1021,1303,0,0
-196,-279,0,0,0,0,0,0,0,0,0,-1,1028,1303,0,0
-189,-279,0,0,0,0,0,0,0,0,0,-1,1035,1303,0,0
-182,-279,0,0,0,0,0,0,0,0,0,-1,1042,1303,0,0
-175,-279,0,0,0,0,0,0,0,0,0,-1,1049,1303,0,0
-168,-279,0,0,0,0,0,0,0,0,0,-1,1056,1303,0,0
-161,-279,0,0,0,0,0,0,0,0,0,-1,1063,1303,0,0
-154,-279,0,0,0,0,0,0,0,0,0,-1,1070,1303,0,0
-147,-279,0,0,0,0,0,0,0,0,0,-1,1077,1303,0,0
-140,-279,0,0,0,0,0,0,0,0,0,-1,1084,1303,0,0
-133,-279,0,0,0,0,0,0,0,0,0,-1,1091,1303,0,0
-126,-279,0,0,0,0,0,0,0,0,0,-1,1098,1303,0,0
-119,-279,0,0,0,0,0,0,0,0,0,-1,1105,1303,0,0
-112,-279,0,0,0,0,0,0,0,0,0,-1,1112,1303,0,0
-105,-279,0,0,0,0,0,0,0,0,0,-1,1119,1303,0,0
-98,-279,0,0,0,0,0,0,0,0,0,-1,1126,1303,0,0
-91,-279,0,0,0,0,0,0,0,0,0,-1,1133,1303,0,0
-84,-279,0,0,0,0,0,0,0,0,0,-1,1140,1303,0,0
-77,-279,0,0,0,0,0,0,0,0,0,-1,1147,1303,0,0
-70,-279,0,0,0,0,0,0,0,0,0,-1,1154,1303,0,0
-63,-279,0,0,0,0,0,0,0,0,0,-1,1161,1303,0,0
-56,-279,0,0,0,0,0,0,0,0,0,-1,1168,1303,0,0
-49,-279,0,0,0,0,0,0,0,0,0,-1,1175,1303,0,0
-42,-279,0,0,0,0,0,0,0,0,0,-1,1182,1303,0,0
-35,-279,0,0,0,0,0,0,0,0,0,-1,1189,1303,0,0
-28,-279,0,0,0,0,0,0,0,0,0,-1,1196,1303,0,0
-21,-279,0,0,0,0,0,0,0,0,0,-1,1203,1303,0,0
-14,-279,0,0,0,0,0,0,0,0,0,-1,1210,1303,0,0
-7,-279,0,0,0,0,0,0,0,0,0,-1,1217,1303,0,0
0,-279,0,0,0,0,0,0,0,0,0,-1,1224,1303,0,0
7,-279,0,0,0,0,0,0,0,0,0,-1,1231,1303,0,0
14,-279,0,0,0,0,0,0,0,0,0,-1,1238,1303,0,0
21,-279,0,0,0,0,0,0,0,0,0,-1,1245,1303,0,0
28,-279,0,0,0,0,0,0,0,0,0,-1,1252,1303,0,0
35,-279,0,0,0,0,0,0,0,0,0,-1,1259,1303,0,0
42,-279,0,0,0,0,0,0,0,0,0,-1,1266,1303,0,0
49,-279,0,0,0,0,0,0,0,0,0,-1,1273,1303,0,0
56,-279,0,0,0,0,0,0,0,0,0,-1,1280,1303,0,0
63,-279,0,0,0,0,0,0,0,0,0,-1,1287,1303,0,0
70,-279,0,0,0,0,0,0,0,0,0,-1,1294,1303,0,0
77,-279,0,0,0,0,0,0,0,0,0,-1,1301,1303,0,0
84,-279,0,0,0,0,0,0,0,0,0,-1,1308,1303,0,0
91,-279,0,0,0,0,0,0,0,0,0,-1,1315,1303,0,0
98,-279,0,0,0,0,0,0,0,0,0,-1,1322,1303,0,0
105,-279,0,0,0,0,0,0,0,0,0,-1,1329,1303,0,0
112,-279,0,0,0,0,0,0,0,0,0,-1,1336,1303,0,0
119,-279,0,0,0,0,0,0,0,0,0,-1,1343,1303,0,0
126,-279,0,0,0,0,0,0,0,0,0,-1,1350,1303,0,0
133,-279,0,0,0,0,0,0,0,0,0,-1,1357,1303,0,0
140,-279,0,0,0,0,0,0,0,0,0,-1,1364,1303,0,0
147,-279,0,0,0,0,0,0,0,0,0,-1,1371,1303,0,0
154,-279,0,0,0,0,0,0,0,0,0,-1,1378,1303,0,0
161,-279,0,0,0,0,0,0,0,0,0,-1,1385,1303,0,0
168,-279,0,0,0,0,0,0,0,0,0,-1,1392,1303,0,0
175,-279,0,0,0,0,0,0,0,0,0,-1,1399,1303,0,0
182,-279,0,0,0,0,0,0,0,0,0,-1,1406,1303,0,0
189,-279,0,0,0,0,0,0,0,0,0,-1,1413,1303,0,0
196,-279,0,0,0,0,0,0,0,0,0,-1,1420,1303,0,0
203,-279,0,0,0,0,0,0,0,0,0,-1,1427,1303,0,0
210,-279,0,0,0,0,0,0,0,0,0,-1,1434,1303,0,0
217,-279,0,0,0,0,0,0,0,0,0,-1,1441,1303,0,0
224,-279,0,0,0,0,0,0,0,0,0,-1,1448,1303,0,0
231,-279,0,0,0,0,0,0,0,0,0,-1,1455,1303,0,0
238,-279,0,0,0,0,0,0,0,0,0,-1,1462,1303,0,0
245,-279,0,0,0,0,0,0,0,0,0,-1,1469,1303,0,0
252,-279,0,0,0,0,0,0,0,0,0,-1,1476,1303,0,0
259,-279,0,0,0,0,0,0,0,0,0,-1,1483,1303,0,0
266,-279,0,0,0,0,0,0,0,0,0,-1,1490,1303,0,0
273,-279,0,0,0,0,0,0,0,0,0,-1,1497,1303,0,0
280,-279,0,0,0,0,0,0,0,0,0,-1,1504,1303,0,0
287,-279,0,0,0,0,0,0,0,0,0,-1,1511,1303,0,0
294,-279,0,0,0,0,0,0,0,0,0,-1,1518,1303,0,0
301,-279,0,0,0,0,0,0,0,0,0,-1,1525,1303,0,0
308,-279,0,0,0,0,0,0,0,0,0,-1,1532,1303,0,0
315,-279,0,0,0,0,0,0,0,0,0,-1,1539,1303,0,0
322,-279,0,0,0,0,0,0,0,0,0,-1,1546,1303,0,0
329,-279,0,0,0,0,0,0,0,0,0,-1,1553,1303,0,0
336,-279,0,0,0,0,0,0,0,0,0,-1,1560,1303,0,0
343,-279,0,0,0,0,0,0,0,0,0,-1,1567,1303,0,0
350,-279,0,0,0,0,0,0,0,0,0,-1,1574,1303,0,0
357,-279,0,0,0,0,0,0,0,0,0,-1,1581,1303,0,0
364,-279,0,0,0,0,0,0,0,0,0,-1,1588,1303,0,0
371,-279,0,0,0,0,0,0,0,0,0,-1,1595,1303,0,0
378,-279,0,0,0,0,0,0,0,0,0,-1,1602,1303,0,0
385,-279,0,0,0,0,0,0,0,0,0,-1,1609,1303,0,0
392,-279,0,0,0,0,0,0,0,0,0,-1,1616,1303,0,0
399,-279,0,0,0,0,0,0,0,0,0,-1,1623,1303,0,0
406,-279,0,0,0,0,0,0,0,0,0,-1,1630,1303,0,0
413,-279,0,0,0,0,0,0,0,0,0,-1,1637,1303,0,0
420,-279,0,0,0,0,0,0,0,0,0,-1,1644,1303,0,0
427,-279,0,0,0,0,0,0,0,0,0,-1,1651,1303,0,0
434,-279,0,0,0,0,0,0,0,0,0,-1,1658,1303,0,0
441,-279,0,0,0,0,0,0,0,0,0,-1,1665,1303,0,0
448,-279,0,0,0,0,0,0,0,0,0,-1,1672,1303,0,0
455,-279,0,0,0,0,0,0,0,0,0,-1,1679,1303,0,0
462,-279,0,0,0,0,0,0,0,0,0,-1,1686,1303,0,0
469,-279,0,0,0,0,0,0,0,0,0,-1,1693,1303,0,0
476,-279,0,0,0,0,0,0,0,0,0,-1,1700,1303,0,0
483,-279,0,0,0,0,0,0,0,0,0,-1,1707,1303,0,0
490,-279,0,0,0,0,0,0,0,0,0,-1,1714,1303,0,0
497,-279,0,0,0,0,0,0,0,0,0,-1,1721,1303,0,0
504,-279,0,0,0,0,0,0,0,0,0,-1,1728,1303,0,0
511,-279,0,0,0,0,0,0,0,0,0,-1,1735,1303,0,0
518,-279,0,0,0,0,0,0,0,0,0,-1,1742,1303,0,0
525,-279,0,0,0,0,0,0,0,0,0,-1,1749,1303,0,0
532,-279,0,0,0,0,0,0,0,0,0,-1,1756,1303,0,0
539,-279,0,0,0,0,0,0,0,0,0,-1,1763,1303,0,0
546,-279,0,0,0,0,0,0,0,0,0,-1,1770,1303,0,0
553,-279,0,0,0,0,0,0,0,0,0,-1,1777,1303,0,0
560,-279,0,0,0,0,0,0,0,0,0,-1,1784,1303,0,0
567,-279,0,0,0,0,0,0,0,0,0,-1,1791,1303,0,0
574,-279,0,0,0,0,0,0,0,0,0,-1,1798,1303,0,0
581,-279,0,0,0,0,0,0,0,0,0,-1,1805,1303,0,0
588,-279,0,0,0,0,0,0,0,0,0,-1,1812,1303,0,0
595,-279,0,0,0,0,0,0,0,0,0,-1,1819,1303,0,0
602,-279,58.7959,2.54675,0,0,0,0,0,0,0,-1,1826,1303,58.7958,-2.54674
609,-279,58.6779,2.38538,0,0,0,0,0,0,0,-1,1833,1303,58.6778,-2.38537
616,-279,58.7574,2.15271,0,0,0,0,0,0,0,-1,1840,1303,58.7574,-2.15271
623,-279,59.1312,2.25195,0,0,0,0,0,0,0,-1,1847,1303,59.1313,-2.25194
630,-279,59.249,1.92749,0,0,0,0,0,0,0,-1,1854,1303,59.249,-1.92754
637,-279,57.9023,3.40161,0,0,0,0,0,0,0,-1,1861,1303,57.9023,-3.40156
644,-279,33.5021,3.40234,0,0,0,0,0,0,0,-1,1868,1303,33.5021,-3.40237
651,-279,29.8456,2.3562,0,0,0,0,0,0,0,-1,1875,1303,29.8455,-2.35615
658,-279,21.5076,7.65649,0,0,0,0,0,0,0,-1,1882,1303,21.5076,-7.65648
665,-279,18.9794,6.09607,0,0,0,0,0,0,0,-1,1889,1303,18.9793,-6.09601
672,-279,23.5206,8.32507,0,0,0,0,0,0,0,-1,1896,1303,23.5206,-8.32512
679,-279,41.152,12.5381,0,0,0,0,0,0,0,-1,1903,1303,41.152,-12.5381
686,-279,41.2192,11.9532,-0.0010586,-0.0018618,-0.000475628,-0.0008377,-0.0020827,-0.434792,0.00121009,0.0285744,1910,1303,41.2192,-11.9533
693,-279,41.2235,11.3522,-7.34921e-05,-0.00161841,-0.000389049,1.89491e-05,-0.00171085,-0.233282,0.00114693,0.0163774,1917,1303,41.2235,-11.3522
700,-279,41.2156,10.7893,0.000393106,-0.000442078,-8.85792e-05,0.000402397,-0.000451369,-0.10451,0.000493193,0.0120478,1924,1303,41.2155,-10.7893
707,-279,41.1929,10.2023,0.000235022,-0.000163357,0.000372118,0.000457909,-0.000386244,0.53966,0.000487957,0.00990314,1931,1303,41.1928,-10.2023
714,-279,41.1699,9.61084,-0.000373908,-4.62564e-05,0.000820434,0.000626549,-0.00104671,0.883943,0.000976157,0.0108064,1938,1303,41.17,-9.61087
721,-279,41.1793,9.02368,-0.00107796,9.50552e-05,0.00125818,0.000896716,-0.00187962,1.0035,0.00163606,0.0154811,1945,1303,41.1793,-9.0237
728,-279,41.1849,8.45837,-0.00183577,0.000257168,0.00166296,0.00117552,-0.00275413,1.06623,0.00232901,0.017923,1952,1303,41.1849,-8.45834
735,-279,41.1411,7.96362,-0.00264875,0.000461618,0.00201464,0.00145151,-0.00363863,1.1141,0.00302787,0.0169151,1959,1303,41.1412,-7.96364
742,-279,41.0115,7.46338,-0.00346914,0.000690915,0.0022721,0.0016913,-0.00446953,1.15604,0.00367554,0.0289496,1966,1303,41.0114,-7.46333
749,-279,41.0168,6.97644,0,0,0,0,0,0,0,-1,1973,1303,41.0169,-6.97638
756,-279,23.2091,4.43433,0,0,0,0,0,0,0,-1,1980,1303,23.2092,-4.43432
763,-279,27.1613,3.46265,0,0,0,0,0,0,0,-1,1987,1303,27.1613,-3.4627
770,-279,21.5828,3.54199,0,0,0,0,0,0,0,-1,1994,1303,21.5827,-3.54198
777,-279,32.5369,6.99609,0,0,0,0,0,0,0,-1,2001,1303,32.5369,-6.99608
784,-279,0,0,0,0,0,0,0,0,0,-1,2008,1303,0,0
791,-279,0,0,0,0,0,0,0,0,0,-1,2015,1303,0,0
798,-279,0,0,0,0,0,0,0,0,0,-1,2022,1303,0,0
805,-279,0,0,0,0,0,0,0,0,0,-1,2029,1303,0,0
812,-279,0,0,0,0,0,0,0,0,0,-1,2036,1303,0,0
-700,-286,0,0,0,0,0,0,0,0,0,-1,524,1310,0,0
-693,-286,0,0,0,0,0,0,0,0,0,-1,531,1310,0,0
-686,-286,0,0,0,0,0,0,0,0,0,-1,538,1310,0,0
-679,-286,0,0,0,0,0,0,0,0,0,-1,545,1310,0,0
-672,-286,0,0,0,0,0,0,0,0,0,-1,552,1310,0,0
-665,-286,0,0,0,0,0,0,0,0,0,-1,559,1310,0,0
-658,-286,-38.3453,0.977295,0,0,0,0,0,0,0,-1,566,1310,-38.3453,-0.977338
-651,-286,-38.598,0.329712,0,0,0,0,0,0,0,-1,573,1310,-38.598,-0.329668
-644,-286,-38.4286,0.334717,0,0,0,0,0,0,0,-1,580,1310,-38.4286,-0.334716
-637,-286,-38.3278,-0.351196,0,0,0,0,0,0,0,-1,587,1310,-38.3278,0.351213
-630,-286,-38.5034,-1.13623,0,0,0,0,0,0,0,-1,594,1310,-38.5034,1.13617
-623,-286,-20.1415,-1.72998,0,0,0,0,0,0,0,-1,601,1310,-20.1415,1.72995
-616,-286,-22.0634,2.37744,0,0,0,0,0,0,0,-1,608,1310,-22.0633,-2.37746
-609,-286,-25.2443,4.91101,0,0,0,0,0,0,0,-1,615,1310,-25.2442,-4.91099
-602,-286,-25.1163,5.67395,0.00244124,0.00137364,0.00275647,0.00471512,-0.000900243,0.689755,0.0034825,0.022805,622,1310,-25.1163,-5.67401
-595,-286,-25.1316,6.33752,0.00208372,0.00111587,0.00200997,0.00366719,-0.000467607,0.667265,0.00261464,0.0122717,629,1310,-25.1316,-6.33758
-588,-286,-25.1218,6.93469,0.00192338,0.000752141,0.00148297,0.00293217,-0.000256653,0.597349,0.00204571,0.0127781,636,1310,-25.1218,-6.93465
-581,-286,-25.1348,7.55103,0.00204049,0.000327037,0.00117136,0.00263499,-0.000267468,0.469656,0.00185227,0.0143614,643,1310,-25.1348,-7.551
-574,-286,-25.1929,8.18091,0.0023574,-0.000142544,0.00101145,0.00271537,-0.00050051,0.340156,0.00199809,0.0151309,650,1310,-25.1929,-8.18096
-567,-286,-25.2263,8.81934,0.00287578,-0.000642624,0.000980459,0.00313056,-0.000897396,0.254227,0.00244177,0.0152744,657,1310,-25.2263,-8.81934
-560,-286,-25.2355,9.46875,0.00366724,-0.00116806,0.00110632,0.00390835,-0.00140917,0.214578,0.00318108,0.0145584,664,1310,-25.2355,-9.4687
-553,-286,-25.2408,10.1013,0.00462264,-0.00168212,0.00138322,0.00491276,-0.00197224,0.206745,0.00409412,0.0104302,671,1310,-25.2409,-10.1014
-546,-286,-25.2484,10.7531,0.00581602,-0.00208534,0.00179314,0.00620391,-0.00247324,0.213039,0.00516179,0.0234653,678,1310,-25.2484,-10.7531
-539,-286,-25.3598,11.4663,0,0,0,0,0,0,0,-1,685,1310,-25.3598,-11.4663
-532,-286,-21.6771,10.4924,0,0,0,0,0,0,0,-1,692,1310,-21.6771,-10.4924
-525,-286,-11.4528,-1.11768,0,0,0,0,0,0,0,-1,699,1310,-11.4528,1.11769
-518,-286,-11.0701,1.37329,0,0,0,0,0,0,0,-1,706,1310,-11.0701,-1.37332
-511,-286,-17.7545,-0.0791016,0,0,0,0,0,0,0,-1,713,1310,-17.7544,0.0791606
-504,-286,-18.0455,1.29602,0,0,0,0,0,0,0,-1,720,1310,-18.0455,-1.29601
-497,-286,-18.3367,2.67114,0,0,0,0,0,0,0,-1,727,1310,-18.3366,-2.67118
-490,-286,-19.5795,2.47266,0,0,0,0,0,0,0,-1,734,1310,-19.5795,-2.4727
-483,-286,-19.7277,2.74744,0,0,0,0,0,0,0,-1,741,1310,-19.7277,-2.74747
-476,-286,-20.0391,3.06177,0,0,0,0,0,0,0,-1,748,1310,-20.0391,-3.06178
-469,-286,0,0,0,0,0,0,0,0,0,-1,755,1310,0,0
-462,-286,0,0,0,0,0,0,0,0,0,-1,762,1310,0,0
-455,-286,0,0,0,0,0,0,0,0,0,-1,769,1310,0,0
-448,-286,0,0,0,0,0,0,0,0,0,-1,776,1310,0,0
-441,-286,0,0,0,0,0,0,0,0,0,-1,783,1310,0,0
-434,-286,0,0,0,0,0,0,0,0,0,-1,790,1310,0,0
-427,-286,0,0,0,0,0,0,0,0,0,-1,797,1310,0,0
-420,-286,0,0,0,0,0,0,0,0,0,-1,804,1310,0,0
-413,-286,0,0,0,0,0,0,0,0,0,-1,811,1310,0,0
-406,-286,0,0,0,0,0,0,0,0,0,-1,818,1310,0,0
-399,-286,0,0,0,0,0,0,0,0,0,-1,825,1310,0,0
-392,-286,0,0,0,0,0,0,0,0,0,-1,832,1310,0,0
-385,-286,0,0,0,0,0,0,0,0,0,-1,839,1310,0,0
-378,-286,0,0,0,0,0,0,0,0,0,-1,846,1310,0,0
-371,-286,0,0,0,0,0,0,0,0,0,-1,853,1310,0,0
-364,-286,0,0,0,0,0,0,0,0,0,-1,860,1310,0,0
-357,-286,0,0,0,0,0,0,0,0,0,-1,867,1310,0,0
-350,-286,0,0,0,0,0,0,0,0,0,-1,874,1310,0,0
-343,-286,0,0,0,0,0,0,0,0,0,-1,881,1310,0,0
-336,-286,0,0,0,0,0,0,0,0,0,-1,888,1310,0,0
-329,-286,0,0,0,0,0,0,0,0,0,-1,895,1310,0,0
-322,-286,0,0,0,0,0,0,0,0,0,-1,902,1310,0,0
-315,-286,0,0,0,0,0,0,0,0,0,-1,909,1310,0,0
-308,-286,0,0,0,0,0,0,0,0,0,-1,916,1310,0,0
-301,-286,0,0,0,0,0,0,0,0,0,-1,923,1310,0,0
-294,-286,0,0,0,0,0,0,0,0,0,-1,930,1310,0,0
-287,-286,0,0,0,0,0,0,0,0,0,-1,937,1310,0,0
-280,-286,0,0,0,0,0,0,0,0,0,-1,944,1310,0,0
-273,-286,0,0,0,0,0,0,0,0,0,-1,951,1310,0,0
-266,-286,0,0,0,0,0,0,0,0,0,-1,958,1310,0,0
-259,-286,0,0,0,0,0,0,0,0,0,-1,965,1310,0,0
-252,-286,0,0,0,0,0,0,0,0,0,-1,972,1310,0,0
-245,-286,0,0,0,0,0,0,0,0,0,-1,979,1310,0,0
-238,-286,0,0,0,0,0,0,0,0,0,-1,986,1310,0,0
-231,-286,0,0,0,0,0,0,0,0,0,-1,993,1310,0,0
-224,-286,0,0,0,0,0,0,0,0,0,-1,1000,1310,0,0
-217,-286,0,0,0,0,0,0,0,0,0,-1,1007,1310,0,0
-210,-286,0,0,0,0,0,0,0,0,0,-1,1014,1310,0,0
-203,-286,0,0,0,0,0,0,0,0,0,-1,1021,1310,0,0
-196,-286,0,0,0,0,0,0,0,0,0,-1,1028,1310,0,0
-189,-286,0,0,0,0,0,0,0,0,0,-1,1035,1310,0,0
-182,-286,0,0,0,0,0,0,0,0,0,-1,1042,1310,0,0
-175,-286,0,0,0,0,0,0,0,0,0,-1,1049,1310,0,0
-168,-286,0,0,0,0,0,0,0,0,0,-1,1056,1310,0,0
-161,-286,0,0,0,0,0,0,0,0,0,-1,1063,1310,0,0
-154,-286,0,0,0,0,0,0,0,0,0,-1,1070,1310,0,0
-147,-286,0,0,0,0,0,0,0,0,0,-1,1077,1310,0,0
-140,-286,0,0,0,0,0,0,0,0,0,-1,1084,1310,0,0
-133,-286,0,0,0,0,0,0,0,0,0,-1,1091,1310,0,0
-126,-286,0,0,0,0,0,0,0,0,0,-1,1098,1310,0,0
-119,-286,0,0,0,0,0,0,0,0,0,-1,1105,1310,0,0
-112,-286,0,0,0,0,0,0,0,0,0,-1,1112,1310,0,0
-105,-286,0,0,0,0,0,0,0,0,0,-1,1119,1310,0,0
-98,-286,0,0,0,0,0,0,0,0,0,-1,1126,1310,0,0
-91,-286,0,0,0,0,0,0,0,0,0,-1,1133,1310,0,0
-84,-286,0,0,0,0,0,0,0,0,0,-1,1140,1310,0,0
-77,-286,0,0,0,0,0,0,0,0,0,-1,1147,1310,0,0
-70,-286,0,0,0,0,0,0,0,0,0,-1,1154,1310,0,0
-63,-286,0,0,0,0,0,0,0,0,0,-1,1161,1310,0,0
-56,-286,0,0,0,0,0,0,0,0,0,-1,1168,1310,0,0
-49,-286,0,0,0,0,0,0,0,0,0,-1,1175,1310,0,0
-42,-286,0,0,0,0,0,0,0,0,0,-1,1182,1310,0,0
-35,-286,0,0,0,0,0,0,0,0,0,-1,1189,1310,0,0
-28,-286,0,0,0,0,0,0,0,0,0,-1,1196,1310,0,0
-21,-286,0,0,0,0,0,0,0,0,0,-1,1203,1310,0,0
-14,-286,0,0,0,0,0,0,0,0,0,-1,1210,1310,0,0
-7,-286,0,0,0,0,0,0,0,0,0,-1,1217,1310,0,0
0,-286,0,0,0,0,0,0,0,0,0,-1,1224,1310,0,0
7,-286,0,0,0,0,0,0,0,0,0,-1,1231,1310,0,0
14,-286,0,0,0,0,0,0,0,0,0,-1,1238,1310,0,0
21,-286,0,0,0,0,0,0,0,0,0,-1,1245,1310,0,0
28,-286,0,0,0,0,0,0,0,0,0,-1,1252,1310,0,0
35,-286,0,0,0,0,0,0,0,0,0,-1,1259,1310,0,0
42,-286,0,0,0,0,0,0,0,0,0,-1,1266,1310,0,0
49,-286,0,0,0,0,0,0,0,0,0,-1,1273,1310,0,0
56,-286,0,0,0,0,0,0,0,0,0,-1,1280,1310,0,0
63,-286,0,0,0,0,0,0,0,0,0,-1,1287,1310,0,0
70,-286,0,0,0,0,0,0,0,0,0,-1,1294,1310,0,0
77,-286,0,0,0,0,0,0,0,0,0,-1,1301,1310,0,0
84,-286,0,0,0,0,0,0,0,0,0,-1,1308,1310,0,0
91,-286,0,0,0,0,0,0,0,0,0,-1,1315,1310,0,0
98,-286,0,0,0,0,0,0,0,0,0,-1,1322,1310,0,0
105,-286,0,0,0,0,0,0,0,0,0,-1,1329,1310,0,0
112,-286,0,0,0,0,0,0,0,0,0,-1,1336,1310,0,0
119,-286,0,0,0,0,0,0,0,0,0,-1,1343,1310,0,0
126,-286,0,0,0,0,0,0,0,0,0,-1,1350,1310,0,0
133,-286,0,0,0,0,0,0,0,0,0,-1,1357,1310,0,0
140,-286,0,0,0,0,0,0,0,0,0,-1,1364,1310,0,0
147,-286,0,0,0,0,0,0,0,0,0,-1,1371,1310,0,0
154,-286,0,0,0,0,0,0,0,0,0,-1,1378,1310,0,0
161,-286,0,0,0,0,0,0,0,0,0,-1,1385,1310,0,0
168,-286,0,0,0,0,0,0,0,0,0,-1,1392,1310,0,0
175,-286,0,0,0,0,0,0,0,0,0,-1,1399,1310,0,0
182,-286,0,0,0,0,0,0,0,0,0,-1,1406,1310,0,0
189,-286,0,0,0,0,0,0,0,0,0,-1,1413,1310,0,0
196,-286,0,0,0,0,0,0,0,0,0,-1,1420,1310,0,0
203,-286,0,0,0,0,0,0,0,0,0,-1,1427,1310,0,0
210,-286,0,0,0,0,0,0,0,0,0,-1,1434,1310,0,0
217,-286,0,0,0,0,0,0,0,0,0,-1,1441,1310,0,0
224,-286,0,0,0,0,0,0,0,0,0,-1,1448,1310,0,0
231,-286,0,0,0,0,0,0,0,0,0,-1,1455,1310,0,0
238,-286,0,0,0,0,0,0,0,0,0,-1,1462,1310,0,0
245,-286,0,0,0,0,0,0,0,0,0,-1,1469,1310,0,0
252,-286,0,0,0,0,0,0,0,0,0,-1,1476,1310,0,0
259,-286,0,0,0,0,0,0,0,0,0,-1,1483,1310,0,0
266,-286,0,0,0,0,0,0,0,0,0,-1,1490,1310,0,0
273,-286,0,0,0,0,0,0,0,0,0,-1,1497,1310,0,0
280,-286,0,0,0,0,0,0,0,0,0,-1,1504,1310,0,0
287,-286,0,0,0,0,0,0,0,0,0,-1,1511,1310,0,0
294,-286,0,0,0,0,0,0,0,0,0,-1,1518,1310,0,0
301,-286,0,0,0,0,0,0,0,0,0,-1,1525,1310,0,0
308,-286,0,0,0,0,0,0,0,0,0,-1,1532,1310,0,0
315,-286,0,0,0,0,0,0,0,0,0,-1,1539,1310,0,0
322,-286,0,0,0,0,0,0,0,0,0,-1,1546,1310,0,0
329,-286,0,0,0,0,0,0,0,0,0,-1,1553,1310,0,0
336,-286,0,0,0,0,0,0,0,0,0,-1,1560,1310,0,0
343,-286,0,0,0,0,0,0,0,0,0,-1,1567,1310,0,0
350,-286,0,0,0,0,0,0,0,0,0,-1,1574,1310,0,0
357,-286,0,0,0,0,0,0,0,0,0,-1,1581,1310,0,0
364,-286,0,0,0,0,0,0,0,0,0,-1,1588,1310,0,0
371,-286,0,0,0,0,0,0,0,0,0,-1,1595,1310,0,0
378,-286,0,0,0,0,0,0,0,0,0,-1,1602,1310,0,0
385,-286,0,0,0,0,0,0,0,0,0,-1,1609,1310,0,0
392,-286,0,0,0,0,0,0,0,0,0,-1,1616,1310,0,0
399,-286,0,0,0,0,0,0,0,0,0,-1,1623,1310,0,0
406,-286,0,0,0,0,0,0,0,0,0,-1,1630,1310,0,0
413,-286,0,0,0,0,0,0,0,0,0,-1,1637,1310,0,0
420,-286,0,0,0,0,0,0,0,0,0,-1,1644,1310,0,0
427,-286,0,0,0,0,0,0,0,0,0,-1,1651,1310,0,0
434,-286,0,0,0,0,0,0,0,0,0,-1,1658,1310,0,0
441,-286,0,0,0,0,0,0,0,0,0,-1,1665,1310,0,0
448,-286,0,0,0,0,0,0,0,0,0,-1,1672,1310,0,0
455,-286,0,0,0,0,0,0,0,0,0,-1,1679,1310,0,0
462,-286,0,0,0,0,0,0,0,0,0,-1,1686,1310,0,0
469,-286,0,0,0,0,0,0,0,0,0,-1,1693,1310,0,0
476,-286,0,0,0,0,0,0,0,0,0,-1,1700,1310,0,0
483,-286,0,0,0,0,0,0,0,0,0,-1,1707,1310,0,0
490,-286,0,0,0,0,0,0,0,0,0,-1,1714,1310,0,0
497,-286,0,0,0,0,0,0,0,0,0,-1,1721,1310,0,0
504,-286,0,0,0,0,0,0,0,0,0,-1,1728,1310,0,0
511,-286,0,0,0,0,0,0,0,0,0,-1,1735,1310,0,0
518,-286,0,0,0,0,0,0,0,0,0,-1,1742,1310,0,0
525,-286,0,0,0,0,0,0,0,0,0,-1,1749,1310,0,0
532,-286,0,0,0,0,0,0,0,0,0,-1,1756,1310,0,0
539,-286,0,0,0,0,0,0,0,0,0,-1,1763,1310,0,0
546,-286,0,0,0,0,0,0,0,0,0,-1,1770,1310,0,0
553,-286,0,0,0,0,0,0,0,0,0,-1,1777,1310,0,0
560,-286,0,0,0,0,0,0,0,0,0,-1,1784,1310,0,0
567,-286,0,0,0,0,0,0,0,0,0,-1,1791,1310,0,0
574,-286,0,0,0,0,0,0,0,0,0,-1,1798,1310,0,0
581,-286,0,0,0,0,0,0,0,0,0,-1,1805,1310,0,0
588,-286,0,0,0,0,0,0,0,0,0,-1,1812,1310,0,0
595,-286,58.9567,2.65564,0.000655998,0.034548,0.00347633,0.0349009,0.000303103,1.46963,0.0231669,0.0404195,1819,1310,58.9567,-2.65569
602,-286,59.0789,2.44788,0,0,0,0,0,0,0,-1,1826,1310,59.0788,-2.44792
609,-286,59.2463,2.3877,0,0,0,0,0,0,0,-1,1833,1310,59.2463,-2.38768
616,-286,58.9176,2.11011,0,0,0,0,0,0,0,-1,1840,1310,58.9177,-2.11016
623,-286,58.027,2.61914,0,0,0,0,0,0,0,-1,1847,1310,58.027,-2.61919
630,-286,58.093,2.81152,0,0,0,0,0,0,0,-1,1854,1310,58.093,-2.81151
637,-286,47.8409,3.69824,0,0,0,0,0,0,0,-1,1861,1310,47.841,-3.69823
644,-286,25.6433,1.33862,0,0,0,0,0,0,0,-1,1868,1310,25.6433,-1.33858
651,-286,25.2507,1.88245,0,0,0,0,0,0,0,-1,1875,1310,25.2508,-1.88245
658,-286,25.9475,9.43689,0,0,0,0,0,0,0,-1,1882,1310,25.9475,-9.43693
665,-286,24.9838,8.03101,0,0,0,0,0,0,0,-1,1889,1310,24.9837,-8.03104
672,-286,40.2175,12.9626,0,0,0,0,0,0,0,-1,1896,1310,40.2175,-12.9627
679,-286,40.6664,12.5699,0,0,0,0,0,0,0,-1,1903,1310,40.6664,-12.5699
686,-286,40.6799,11.9888,-0.000406979,-0.0014623,-0.000648855,-9.83156e-05,-0.00177097,-0.444023,0.00114928,0.0215637,1910,1310,40.6799,-11.9888
693,-286,40.6437,11.3953,0.000374541,-0.00119794,-0.00045824,0.000498332,-0.00132173,-0.263847,0.00108607,0.0160992,1917,1310,40.6437,-11.3952
700,-286,40.6259,10.8026,0.000595585,-0.000297423,-7.45272e-05,0.000601762,-0.0003036,-0.082694,0.000532076,0.0116103,1924,1310,40.6259,-10.8026
707,-286,40.6024,10.2463,0.000322487,-0.000108068,0.000403105,0.000564197,-0.000349779,0.540141,0.000532502,0.00913882,1931,1310,40.6024,-10.2463
714,-286,40.5946,9.66003,-0.000253842,-2.25414e-05,0.000830002,0.000699828,-0.000976212,0.854621,0.000972038,0.00947385,1938,1310,40.5946,-9.66008
721,-286,40.6006,9.07642,-0.000926379,9.07771e-05,0.00124622,0.000928197,-0.0017638,0.979132,0.00157899,0.0128665,1945,1310,40.6005,-9.07643
728,-286,40.5857,8.51868,-0.00166492,0.00023736,0.00161748,0.00116263,-0.00259019,1.05119,0.00221833,0.0159892,1952,1310,40.5857,-8.51869
735,-286,40.5804,7.97473,-0.00248897,0.000435898,0.00192414,0.00139029,-0.00344335,1.11035,0.00287339,0.0190236,1959,1310,40.5804,-7.97472
742,-286,40.5919,7.46277,-0.00335465,0.000678903,0.00210262,0.00157561,-0.00425136,1.16768,0.00348043,0.0417856,1966,1310,40.592,-7.46275
749,-286,40.7592,6.90344,0,0,0,0,0,0,0,-1,1973,1310,40.7592,-6.90349
756,-286,24.8226,4.43481,0,0,0,0,0,0,0,-1,1980,1310,24.8227,-4.43479
763,-286,20.6671,3.99683,0,0,0,0,0,0,0,-1,1987,1310,20.6671,-3.99683
770,-286,23.9147,4.45679,0,0,0,0,0,0,0,-1,1994,1310,23.9146,-4.45675
777,-286,0,0,0,0,0,0,0,0,0,-1,2001,1310,0,0
784,-286,0,0,0,0,0,0,0,0,0,-1,2008,1310,0,0
791,-286,0,0,0,0,0,0,0,0,0,-1,2015,1310,0,0
798,-286,0,0,0,0,0,0,0,0,0,-1,2022,1310,0,0
805,-286,0,0,0,0,0,0,0,0,0,-1,2029,1310,0,0
812,-286,0,0,0,0,0,0,0,0,0,-1,2036,1310,0,0
-700,-293,0,0,0,0,0,0,0,0,0,-1,524,1317,0,0
-693,-293,0,0,0,0,0,0,0,0,0,-1,531,1317,0,0
-686,-293,0,0,0,0,0,0,0,0,0,-1,538,1317,0,0
-679,-293,0,0,0,0,0,0,0,0,0,-1,545,1317,0,0
-672,-293,0,0,0,0,0,0,0,0,0,-1,552,1317,0,0
-665,-293,0,0,0,0,0,0,0,0,0,-1,559,1317,0,0
-658,-293,0,0,0,0,0,0,0,0,0,-1,566,1317,0,0
-651,-293,-38.4809,1.63257,0,0,0,0,0,0,0,-1,573,1317,-38.4809,-1.63252
-644,-293,-38.8182,0.873047,0,0,0,0,0,0,0,-1,580,1317,-38.8183,-0.873024
-637,-293,-38.7209,0.0534668,0,0,0,0,0,0,0,-1,587,1317,-38.7209,-0.0534282
-630,-293,-24.5684,-3.7887,0,0,0,0,0,0,0,-1,594,1317,-24.5684,3.78869
-623,-293,-15.6058,0.229614,0,0,0,0,0,0,0,-1,601,1317,-15.6058,-0.229666
-616,-293,-15.5056,2.17737,0,0,0,0,0,0,0,-1,608,1317,-15.5055,-2.17742
-609,-293,-22.9199,4.26501,0,0,0,0,0,0,0,-1,615,1317,-22.9199,-4.26502
-602,-293,-24.5716,5.7085,0,0,0,0,0,0,0,-1,622,1317,-24.5716,-5.70845
-595,-293,-24.5394,6.3313,0.00256395,0.00130812,0.00217188,0.00419686,-0.000324785,0.644679,0.00291221,0.0213309,629,1317,-24.5394,-6.3313
-588,-293,-24.4863,6.96252,0.0021998,0.00100988,0.00155881,0.00327333,-6.36516e-05,0.603094,0.00220374,0.0167668,636,1317,-24.4863,-6.96256
-581,-293,-24.4943,7.58643,0.00218552,0.000657349,0.00120555,0.00284873,-5.85895e-06,0.502944,0.00190111,0.0179073,643,1317,-24.4943,-7.58641
-574,-293,-24.5429,8.23584,0.00238139,0.000260479,0.00101435,0.0027884,-0.000146536,0.38159,0.00190966,0.0162022,650,1317,-24.5429,-8.23586
-567,-293,-24.5998,8.88599,0.00278568,-0.000159201,0.000964226,0.0030733,-0.000446821,0.289888,0.0022129,0.0159025,657,1317,-24.5998,-8.88602
-560,-293,-24.6205,9.52368,0.00344835,-0.000607724,0.00105055,0.0037043,-0.000863675,0.238978,0.00280215,0.0170597,664,1317,-24.6206,-9.52364
-553,-293,-24.607,10.1285,0.00438844,-0.00108537,0.00130613,0.00468413,-0.00138106,0.222633,0.00367076,0.0121674,671,1317,-24.607,-10.1285
-546,-293,-24.6186,10.786,0.0056148,-0.00151049,0.00171674,0.00600685,-0.00190254,0.22452,0.00476703,0.0150274,678,1317,-24.6186,-10.786
-539,-293,-24.5059,11.4266,0.00748689,-0.00182079,0.00235276,0.00804781,-0.0023817,0.23404,0.00631074,0.0453048,685,1317,-24.5059,-11.4266
-532,-293,-24.3014,12.0245,0,0,0,0,0,0,0,-1,692,1317,-24.3014,-12.0245
-525,-293,-8.20642,3.62256,0,0,0,0,0,0,0,-1,699,1317,-8.20639,-3.6226
-518,-293,-10.1053,0.314209,0,0,0,0,0,0,0,-1,706,1317,-10.1053,-0.314234
-511,-293,-11.6276,0.235352,0,0,0,0,0,0,0,-1,713,1317,-11.6276,-0.235372
-504,-293,-17.9086,1.25427,0,0,0,0,0,0,0,-1,720,1317,-17.9086,-1.25423
-497,-293,-18.8006,1.62122,0,0,0,0,0,0,0,-1,727,1317,-18.8006,-1.62119
-490,-293,-18.8961,1.99255,0,0,0,0,0,0,0,-1,734,1317,-18.8961,-1.99251
-483,-293,-19.0831,2.35498,0,0,0,0,0,0,0,-1,741,1317,-19.0831,-2.35497
-476,-293,-19.5228,2.61243,0,0,0,0,0,0,0,-1,748,1317,-19.5228,-2.61237
-469,-293,0,0,0,0,0,0,0,0,0,-1,755,1317,0,0
-462,-293,0,0,0,0,0,0,0,0,0,-1,762,1317,0,0
-455,-293,0,0,0,0,0,0,0,0,0,-1,769,1317,0,0
-448,-293,0,0,0,0,0,0,0,0,0,-1,776,1317,0,0
-441,-293,0,0,0,0,0,0,0,0,0,-1,783,1317,0,0
-434,-293,0,0,0,0,0,0,0,0,0,-1,790,1317,0,0
-427,-293,0,0,0,0,0,0,0,0,0,-1,797,1317,0,0
-420,-293,0,0,0,0,0,0,0,0,0,-1,804,1317,0,0
-413,-293,0,0,0,0,0,0,0,0,0,-1,811,1317,0,0
-406,-293,0,0,0,0,0,0,0,0,0,-1,818,1317,0,0
-399,-293,0,0,0,0,0,0,0,0,0,-1,825,1317,0,0
-392,-293,0,0,0,0,0,0,0,0,0,-1,832,1317,0,0
-385,-293,0,0,0,0,0,0,0,0,0,-1,839,1317,0,0
-378,-293,0,0,0,0,0,0,0,0,0,-1,846,1317,0,0
-371,-293,0,0,0,0,0,0,0,0,0,-1,853,1317,0,0
-364,-293,0,0,0,0,0,0,0,0,0,-1,860,1317,0,0
-357,-293,0,0,0,0,0,0,0,0,0,-1,867,1317,0,0
-350,-293,0,0,0,0,0,0,0,0,0,-1,874,1317,0,0
-343,-293,0,0,0,0,0,0,0,0,0,-1,881,1317,0,0
-336,-293,0,0,0,0,0,0,0,0,0,-1,888,1317,0,0
-329,-293,0,0,0,0,0,0,0,0,0,-1,895,1317,0,0
-322,-293,0,0,0,0,0,0,0,0,0,-1,902,1317,0,0
-315,-293,0,0,0,0,0,0,0,0,0,-1,909,1317,0,0
-308,-293,0,0,0,0,0,0,0,0,0,-1,916,1317,0,0
-301,-293,0,0,0,0,0,0,0,0,0,-1,923,1317,0,0
-294,-293,0,0,0,0,0,0,0,0,0,-1,930,1317,0,0
-287,-293,0,0,0,0,0,0,0,0,0,-1,937,1317,0,0
-280,-293,0,0,0,0,0,0,0,0,0,-1,944,1317,0,0
-273,-293,0,0,0,0,0,0,0,0,0,-1,951,1317,0,0
-266,-293,0,0,0,0,0,0,0,0,0,-1,958,1317,0,0
-259,-293,0,0,0,0,0,0,0,0,0,-1,965,1317,0,0
-252,-293,0,0,0,0,0,0,0,0,0,-1,972,1317,0,0
-245,-293,0,0,0,0,0,0,0,0,0,-1,979,1317,0,0
-238,-293,0,0,0,0,0,0,0,0,0,-1,986,1317,0,0
-231,-293,0,0,0,0,0,0,0,0,0,-1,993,1317,0,0
-224,-293,0,0,0,0,0,0,0,0,0,-1,1000,1317,0,0
-217,-293,0,0,0,0,0,0,0,0,0,-1,1007,1317,0,0
-210,-293,0,0,0,0,0,0,0,0,0,-1,1014,1317,0,0
-203,-293,0,0,0,0,0,0,0,0,0,-1,1021,1317,0,0
-196,-293,0,0,0,0,0,0,0,0,0,-1,1028,1317,0,0
-189,-293,0,0,0,0,0,0,0,0,0,-1,1035,1317,0,0
-182,-293,0,0,0,0,0,0,0,0,0,-1,1042,1317,0,0
-175,-293,0,0,0,0,0,0,0,0,0,-1,1049,1317,0,0
-168,-293,0,0,0,0,0,0,0,0,0,-1,1056,1317,0,0
-161,-293,0,0,0,0,0,0,0,0,0,-1,1063,1317,0,0
-154,-293,0,0,0,0,0,0,0,0,0,-1,1070,1317,0,0
-147,-293,0,0,0,0,0,0,0,0,0,-1,1077,1317,0,0
-140,-293,0,0,0,0,0,0,0,0,0,-1,1084,1317,0,0
-133,-293,0,0,0,0,0,0,0,0,0,-1,1091,1317,0,0
-126,-293,0,0,0,0,0,0,0,0,0,-1,1098,1317,0,0
-119,-293,0,0,0,0,0,0,0,0,0,-1,1105,1317,0,0
-112,-293,0,0,0,0,0,0,0,0,0,-1,1112,1317,0,0
-105,-293,0,0,0,0,0,0,0,0,0,-1,1119,1317,0,0
-98,-293,0,0,0,0,0,0,0,0,0,-1,1126,1317,0,0
-91,-293,0,0,0,0,0,0,0,0,0,-1,1133,1317,0,0
-84,-293,0,0,0,0,0,0,0,0,0,-1,1140,1317,0,0
-77,-293,0,0,0,0,0,0,0,0,0,-1,1147,1317,0,0
-70,-293,0,0,0,0,0,0,0,0,0,-1,1154,1317,0,0
-63,-293,0,0,0,0,0,0,0,0,0,-1,1161,1317,0,0
-56,-293,0,0,0,0,0,0,0,0,0,-1,1168,1317,0,0
-49,-293,0,0,0,0,0,0,0,0,0,-1,1175,1317,0,0
-42,-293,0,0,0,0,0,0,0,0,0,-1,1182,1317,0,0
-35,-293,0,0,0,0,0,0,0,0,0,-1,1189,1317,0,0
-28,-293,0,0,0,0,0,0,0,0,0,-1,1196,1317,0,0
-21,-293,0,0,0,0,0,0,0,0,0,-1,1203,1317,0,0
-14,-293,0,0,0,0,0,0,0,0,0,-1,1210,1317,0,0
-7,-293,0,0,0,0,0,0,0,0,0,-1,1217,1317,0,0
0,-293,0,0,0,0,0,0,0,0,0,-1,1224,1317,0,0
7,-293,0,0,0,0,0,0,0,0,0,-1,1231,1317,0,0
14,-293,0,0,0,0,0,0,0,0,0,-1,1238,1317,0,0
21,-293,0,0,0,0,0,0,0,0,0,-1,1245,1317,0,0
28,-293,0,0,0,0,0,0,0,0,0,-1,1252,1317,0,0
35,-293,0,0,0,0,0,0,0,0,0,-1,1259,1317,0,0
42,-293,0,0,0,0,0,0,0,0,0,-1,1266,1317,0,0
49,-293,0,0,0,0,0,0,0,0,0,-1,1273,1317,0,0
56,-293,0,0,0,0,0,0,0,0,0,-1,1280,1317,0,0
63,-293,0,0,0,0,0,0,0,0,0,-1,1287,1317,0,0
70,-293,0,0,0,0,0,0,0,0,0,-1,1294,1317,0,0
77,-293,0,0,0,0,0,0,0,0,0,-1,1301,1317,0,0
84,-293,0,0,0,0,0,0,0,0,0,-1,1308,1317,0,0
91,-293,0,0,0,0,0,0,0,0,0,-1,1315,1317,0,0
98,-293,0,0,0,0,0,0,0,0,0,-1,1322,1317,0,0
105,-293,0,0,0,0,0,0,0,0,0,-1,1329,1317,0,0
112,-293,0,0,0,0,0,0,0,0,0,-1,1336,1317,0,0
119,-293,0,0,0,0,0,0,0,0,0,-1,1343,1317,0,0
126,-293,0,0,0,0,0,0,0,0,0,-1,1350,1317,0,0
133,-293,0,0,0,0,0,0,0,0,0,-1,1357,1317,0,0
140,-293,0,0,0,0,0,0,0,0,0,-1,1364,1317,0,0
147,-293,0,0,0,0,0,0,0,0,0,-1,1371,1317,0,0
154,-293,0,0,0,0,0,0,0,0,0,-1,1378,1317,0,0
161,-293,0,0,0,0,0,0,0,0,0,-1,1385,1317,0,0
168,-293,0,0,0,0,0,0,0,0,0,-1,1392,1317,0,0
175,-293,0,0,0,0,0,0,0,0,0,-1,1399,1317,0,0
182,-293,0,0,0,0,0,0,0,0,0,-1,1406,1317,0,0
189,-293,0,0,0,0,0,0,0,0,0,-1,1413,1317,0,0
196,-293,0,0,0,0,0,0,0,0,0,-1,1420,1317,0,0
203,-293,0,0,0,0,0,0,0,0,0,-1,1427,1317,0,0
210,-293,0,0,0,0,0,0,0,0,0,-1,1434,1317,0,0
217,-293,0,0,0,0,0,0,0,0,0,-1,1441,1317,0,0
224,-293,0,0,0,0,0,0,0,0,0,-1,1448,1317,0,0
231,-293,0,0,0,0,0,0,0,0,0,-1,1455,1317,0,0
238,-293,0,0,0,0,0,0,0,0,0,-1,1462,1317,0,0
245,-293,0,0,0,0,0,0,0,0,0,-1,1469,1317,0,0
252,-293,0,0,0,0,0,0,0,0,0,-1,1476,1317,0,0
259,-293,0,0,0,0,0,0,0,0,0,-1,1483,1317,0,0
266,-293,0,0,0,0,0,0,0,0,0,-1,1490,1317,0,0
273,-293,0,0,0,0,0,0,0,0,0,-1,1497,1317,0,0
280,-293,0,0,0,0,0,0,0,0,0,-1,1504,1317,0,0
287,-293,0,0,0,0,0,0,0,0,0,-1,1511,1317,0,0
294,-293,0,0,0,0,0,0,0,0,0,-1,1518,1317,0,0
301,-293,0,0,0,0,0,0,0,0,0,-1,1525,1317,0,0
308,-293,0,0,0,0,0,0,0,0,0,-1,1532,1317,0,0
315,-293,0,0,0,0,0,0,0,0,0,-1,1539,1317,0,0
322,-293,0,0,0,0,0,0,0,0,0,-1,1546,1317,0,0
329,-293,0,0,0,0,0,0,0,0,0,-1,1553,1317,0,0
336,-293,0,0,0,0,0,0,0,0,0,-1,1560,1317,0,0
343,-293,0,0,0,0,0,0,0,0,0,-1,1567,1317,0,0
350,-293,0,0,0,0,0,0,0,0,0,-1,1574,1317,0,0
357,-293,0,0,0,0,0,0,0,0,0,-1,1581,1317,0,0
364,-293,0,0,0,0,0,0,0,0,0,-1,1588,1317,0,0
371,-293,0,0,0,0,0,0,0,0,0,-1,1595,1317,0,0
378,-293,0,0,0,0,0,0,0,0,0,-1,1602,1317,0,0
385,-293,0,0,0,0,0,0,0,0,0,-1,1609,1317,0,0
392,-293,0,0,0,0,0,0,0,0,0,-1,1616,1317,0,0
399,-293,0,0,0,0,0,0,0,0,0,-1,1623,1317,0,0
406,-293,0,0,0,0,0,0,0,0,0,-1,1630,1317,0,0
413,-293,0,0,0,0,0,0,0,0,0,-1,1637,1317,0,0
420,-293,0,0,0,0,0,0,0,0,0,-1,1644,1317,0,0
427,-293,0,0,0,0,0,0,0,0,0,-1,1651,1317,0,0
434,-293,0,0,0,0,0,0,0,0,0,-1,1658,1317,0,0
441,-293,0,0,0,0,0,0,0,0,0,-1,1665,1317,0,0
448,-293,0,0,0,0,0,0,0,0,0,-1,1672,1317,0,0
455,-293,0,0,0,0,0,0,0,0,0,-1,1679,1317,0,0
462,-293,0,0,0,0,0,0,0,0,0,-1,1686,1317,0,0
469,-293,0,0,0,0,0,0,0,0,0,-1,1693,1317,0,0
476,-293,0,0,0,0,0,0,0,0,0,-1,1700,1317,0,0
483,-293,0,0,0,0,0,0,0,0,0,-1,1707,1317,0,0
490,-293,0,0,0,0,0,0,0,0,0,-1,1714,1317,0,0
497,-293,0,0,0,0,0,0,0,0,0,-1,1721,1317,0,0
504,-293,0,0,0,0,0,0,0,0,0,-1,1728,1317,0,0
511,-293,0,0,0,0,0,0,0,0,0,-1,1735,1317,0,0
518,-293,0,0,0,0,0,0,0,0,0,-1,1742,1317,0,0
525,-293,0,0,0,0,0,0,0,0,0,-1,1749,1317,0,0
532,-293,0,0,0,0,0,0,0,0,0,-1,1756,1317,0,0
539,-293,0,0,0,0,0,0,0,0,0,-1,1763,1317,0,0
546,-293,0,0,0,0,0,0,0,0,0,-1,1770,1317,0,0
553,-293,0,0,0,0,0,0,0,0,0,-1,1777,1317,0,0
560,-293,0,0,0,0,0,0,0,0,0,-1,1784,1317,0,0
567,-293,0,0,0,0,0,0,0,0,0,-1,1791,1317,0,0
574,-293,0,0,0,0,0,0,0,0,0,-1,1798,1317,0,0
581,-293,0,0,0,0,0,0,0,0,0,-1,1805,1317,0,0
588,-293,0,0,0,0,0,0,0,0,0,-1,1812,1317,0,0
595,-293,59.283,2.56763,0,0,0,0,0,0,0,-1,1819,1317,59.2829,-2.56765
602,-293,59.3777,2.36902,0,0,0,0,0,0,0,-1,1826,1317,59.3777,-2.36901
609,-293,59.4404,2.1405,0,0,0,0,0,0,0,-1,1833,1317,59.4405,-2.1405
616,-293,58.429,2.23157,0,0,0,0,0,0,0,-1,1840,1317,58.4289,-2.23156
623,-293,58.4482,2.1488,0,0,0,0,0,0,0,-1,1847,1317,58.4482,-2.14877
630,-293,46.6716,3.21558,0,0,0,0,0,0,0,-1,1854,1317,46.6716,-3.2156
637,-293,42.7729,4.95544,0,0,0,0,0,0,0,-1,1861,1317,42.773,-4.95546
644,-293,24.4565,0.520752,0,0,0,0,0,0,0,-1,1868,1317,24.4566,-0.520709
651,-293,25.8926,9.51245,0,0,0,0,0,0,0,-1,1875,1317,25.8926,-9.51246
658,-293,25.4904,9.10205,0,0,0,0,0,0,0,-1,1882,1317,25.4904,-9.10209
665,-293,39.7999,13.4221,0,0,0,0,0,0,0,-1,1889,1317,39.8,-13.4221
672,-293,40.153,13.1932,0,0,0,0,0,0,0,-1,1896,1317,40.1529,-13.1932
679,-293,40.1289,12.5856,-0.000434551,-0.0012627,-0.000911069,0.000152126,-0.00184938,-0.572106,0.00128663,0.016637,1903,1317,40.1289,-12.5855
686,-293,40.1085,12.0007,0.000217229,-0.00103413,-0.000650707,0.000494264,-0.00131117,-0.402501,0.00107735,0.01694,1910,1317,40.1086,-12.0007
693,-293,40.0887,11.4119,0.000679216,-0.000830362,-0.000399553,0.000778446,-0.000929593,-0.243428,0.000987423,0.0125586,1917,1317,40.0887,-11.4119
700,-293,40.053,10.8201,0.000665908,-0.000235836,-7.73037e-06,0.000665974,-0.000235902,-0.00857185,0.000540073,0.011422,1924,1317,40.0529,-10.8201
707,-293,40.0287,10.2668,0.000330739,-0.000115057,0.000444495,0.000605092,-0.000389411,0.552989,0.00057866,0.0120773,1931,1317,40.0286,-10.2668
714,-293,40.0205,9.70264,-0.000184609,-4.84743e-05,0.000854163,0.000740329,-0.000973412,0.825159,0.000992475,0.008592,1938,1317,40.0205,-9.70264
721,-293,40.017,9.11548,-0.000782789,5.02985e-05,0.0012509,0.000952188,-0.00168468,0.946121,0.00154185,0.0103959,1945,1317,40.017,-9.11553
728,-293,39.9945,8.52527,-0.0014496,0.00020644,0.00159391,0.00117458,-0.00241774,1.02496,0.00211501,0.0129551,1952,1317,39.9945,-8.52529
735,-293,39.9702,7.95288,-0.00222721,0.000429976,0.00186696,0.00139283,-0.00319006,1.09464,0.0027129,0.0250245,1959,1317,39.9702,-7.95294
742,-293,40.181,7.44983,0,0,0,0,0,0,0,-1,1966,1317,40.181,-7.44981
749,-293,29.439,5.35339,0,0,0,0,0,0,0,-1,1973,1317,29.4389,-5.35334
756,-293,24.978,3.9718,0,0,0,0,0,0,0,-1,1980,1317,24.978,-3.97186
763,-293,26.6713,4.74097,0,0,0,0,0,0,0,-1,1987,1317,26.6713,-4.74098
770,-293,24.1349,4.69153,0,0,0,0,0,0,0,-1,1994,1317,24.1348,-4.69159
777,-293,0,0,0,0,0,0,0,0,0,-1,2001,1317,0,0
784,-293,0,0,0,0,0,0,0,0,0,-1,2008,1317,0,0
791,-293,0,0,0,0,0,0,0,0,0,-1,2015,1317,0,0
798,-293,0,0,0,0,0,0,0,0,0,-1,2022,1317,0,0
805,-293,0,0,0,0,0,0,0,0,0,-1,2029,1317,0,0
812,-293,0,0,0,0,0,0,0,0,0,-1,2036,1317,0,0
-700,-300,0,0,0,0,0,0,0,0,0,-1,524,1324,0,0
-693,-300,0,0,0,0,0,0,0,0,0,-1,531,1324,0,0
-686,-300,0,0,0,0,0,0,0,0,0,-1,538,1324,0,0
-679,-300,0,0,0,0,0,0,0,0,0,-1,545,1324,0,0
-672,-300,0,0,0,0,0,0,0,0,0,-1,552,1324,0,0
-665,-300,0,0,0,0,0,0,0,0,0,-1,559,1324,0,0
-658,-300,0,0,0,0,0,0,0,0,0,-1,566,1324,0,0
-651,-300,-39.1017,2.25647,0,0,0,0,0,0,0,-1,573,1324,-39.1017,-2.25649
-644,-300,-39.5129,1.53003,0,0,0,0,0,0,0,-1,580,1324,-39.5129,-1.53009
-637,-300,-24.088,-5.12695,0,0,0,0,0,0,0,-1,587,1324,-24.088,5.12694
-630,-300,-21.1108,2.26306,0,0,0,0,0,0,0,-1,594,1324,-21.1109,-2.2631
-623,-300,-12.7067,1.48462,0,0,0,0,0,0,0,-1,601,1324,-12.7067,-1.48462
-616,-300,-14.9988,1.68628,0,0,0,0,0,0,0,-1,608,1324,-14.9988,-1.68627
-609,-300,-15.5027,3.29907,0,0,0,0,0,0,0,-1,615,1324,-15.5027,-3.29902
-602,-300,-23.9354,5.41626,0,0,0,0,0,0,0,-1,622,1324,-23.9354,-5.41632
-595,-300,-23.9382,6.30591,0.00310571,0.00151435,0.00226889,0.0047144,-9.43381e-05,0.616753,0.00317484,0.0369936,629,1324,-23.9381,-6.30596
-588,-300,-23.8699,7.01318,0.00247122,0.0012589,0.00159275,0.00356925,0.000160864,0.603574,0.00232774,0.0213804,636,1324,-23.87,-7.01323
-581,-300,-23.8968,7.65234,0.00229011,0.000971592,0.00122332,0.00302051,0.000241196,0.538254,0.00193828,0.0209891,643,1324,-23.8968,-7.65233
-574,-300,-23.9215,8.28076,0.00233764,0.000645189,0.0010269,0.00282206,0.000160771,0.440777,0.00183014,0.0157765,650,1324,-23.9215,-8.28074
-567,-300,-23.9648,8.92676,0.00260985,0.000307846,0.000984128,0.00297321,-5.55214e-05,0.353701,0.00200091,0.0159818,657,1324,-23.9648,-8.92674
-560,-300,-23.9857,9.5675,0.00312798,-4.54907e-05,0.00106079,0.00344991,-0.000367422,0.294648,0.00243169,0.0156122,664,1324,-23.9857,-9.56756
-553,-300,-23.9777,10.1665,0.00392138,-0.000407122,0.00130903,0.00428647,-0.000772209,0.271987,0.00314679,0.0113159,671,1324,-23.9777,-10.1664
-546,-300,-24.0045,10.7883,0.00500334,-0.000749501,0.00171598,0.00547631,-0.00122247,0.268947,0.00411928,0.0106117,678,1324,-24.0045,-10.7883
-539,-300,-23.9322,11.4596,0.00662012,-0.000999111,0.00233792,0.0072803,-0.00165929,0.275212,0.00549085,0.0245972,685,1324,-23.9322,-11.4595
-532,-300,-23.8123,12.1066,0,0,0,0,0,0,0,-1,692,1324,-23.8122,-12.1066
-525,-300,-13.5115,6.27783,0,0,0,0,0,0,0,-1,699,1324,-13.5115,-6.2778
-518,-300,-9.8349,-0.537109,0,0,0,0,0,0,0,-1,706,1324,-9.83487,0.537068
-511,-300,-12.8644,0.081665,0,0,0,0,0,0,0,-1,713,1324,-12.8644,-0.0817016
-504,-300,-13.4829,-0.165527,0,0,0,0,0,0,0,-1,720,1324,-13.4829,0.165544
-497,-300,-18.1063,0.956543,0,0,0,0,0,0,0,-1,727,1324,-18.1063,-0.9565
-490,-300,-18.2293,1.53625,0,0,0,0,0,0,0,-1,734,1324,-18.2293,-1.53626
-483,-300,-18.3522,1.61084,0,0,0,0,0,0,0,-1,741,1324,-18.3522,-1.6108
-476,-300,-18.7489,1.96387,0,0,0,0,0,0,0,-1,748,1324,-18.7489,-1.96387
-469,-300,0,0,0,0,0,0,0,0,0,-1,755,1324,0,0
-462,-300,0,0,0,0,0,0,0,0,0,-1,762,1324,0,0
-455,-300,0,0,0,0,0,0,0,0,0,-1,769,1324,0,0
-448,-300,0,0,0,0,0,0,0,0,0,-1,776,1324,0,0
-441,-300,0,0,0,0,0,0,0,0,0,-1,783,1324,0,0
-434,-300,0,0,0,0,0,0,0,0,0,-1,790,1324,0,0
-427,-300,0,0,0,0,0,0,0,0,0,-1,797,1324,0,0
-420,-300,0,0,0,0,0,0,0,0,0,-1,804,1324,0,0
-413,-300,0,0,0,0,0,0,0,0,0,-1,811,1324,0,0
-406,-300,0,0,0,0,0,0,0,0,0,-1,818,1324,0,0
-399,-300,0,0,0,0,0,0,0,0,0,-1,825,1324,0,0
-392,-300,0,0,0,0,0,0,0,0,0,-1,832,1324,0,0
-385,-300,0,0,0,0,0,0,0,0,0,-1,839,1324,0,0
-378,-300,0,0,0,0,0,0,0,0,0,-1,846,1324,0,0
-371,-300,0,0,0,0,0,0,0,0,0,-1,853,1324,0,0
-364,-300,0,0,0,0,0,0,0,0,0,-1,860,1324,0,0
-357,-300,0,0,0,0,0,0,0,0,0,-1,867,1324,0,0
-350,-300,0,0,0,0,0,0,0,0,0,-1,874,1324,0,0
-343,-300,0,0,0,0,0,0,0,0,0,-1,881,1324,0,0
-336,-300,0,0,0,0,0,0,0,0,0,-1,888,1324,0,0
-329,-300,0,0,0,0,0,0,0,0,0,-1,895,1324,0,0
-322,-300,0,0,0,0,0,0,0,0,0,-1,902,1324,0,0
-315,-300,0,0,0,0,0,0,0,0,0,-1,909,1324,0,0
-308,-300,0,0,0,0,0,0,0,0,0,-1,916,1324,0,0
-301,-300,0,0,0,0,0,0,0,0,0,-1,923,1324,0,0
-294,-300,0,0,0,0,0,0,0,0,0,-1,930,1324,0,0
-287,-300,0,0,0,0,0,0,0,0,0,-1,937,1324,0,0
-280,-300,0,0,0,0,0,0,0,0,0,-1,944,1324,0,0
-273,-300,0,0,0,0,0,0,0,0,0,-1,951,1324,0,0
-266,-300,0,0,0,0,0,0,0,0,0,-1,958,1324,0,0
-259,-300,0,0,0,0,0,0,0,0,0,-1,965,1324,0,0
-252,-300,0,0,0,0,0,0,0,0,0,-1,972,1324,0,0
-245,-300,0,0,0,0,0,0,0,0,0,-1,979,1324,0,0
-238,-300,0,0,0,0,0,0,0,0,0,-1,986,1324,0,0
-231,-300,0,0,0,0,0,0,0,0,0,-1,993,1324,0,0
-224,-300,0,0,0,0,0,0,0,0,0,-1,1000,1324,0,0
-217,-300,0,0,0,0,0,0,0,0,0,-1,1007,1324,0,0
-210,-300,0,0,0,0,0,0,0,0,0,-1,1014,1324,0,0
-203,-300,0,0,0,0,0,0,0,0,0,-1,1021,1324,0,0
-196,-300,0,0,0,0,0,0,0,0,0,-1,1028,1324,0,0
-189,-300,0,0,0,0,0,0,0,0,0,-1,1035,1324,0,0
-182,-300,0,0,0,0,0,0,0,0,0,-1,1042,1324,0,0
-175,-300,0,0,0,0,0,0,0,0,0,-1,1049,1324,0,0
-168,-300,0,0,0,0,0,0,0,0,0,-1,1056,1324,0,0
-161,-300,0,0,0,0,0,0,0,0,0,-1,1063,1324,0,0
-154,-300,0,0,0,0,0,0,0,0,0,-1,1070,1324,0,0
-147,-300,0,0,0,0,0,0,0,0,0,-1,1077,1324,0,0
-140,-300,0,0,0,0,0,0,0,0,0,-1,1084,1324,0,0
-133,-300,0,0,0,0,0,0,0,0,0,-1,1091,1324,0,0
-126,-300,0,0,0,0,0,0,0,0,0,-1,1098,1324,0,0
-119,-300,0,0,0,0,0,0,0,0,0,-1,1105,1324,0,0
-112,-300,0,0,0,0,0,0,0,0,0,-1,1112,1324,0,0
-105,-300,0,0,0,0,0,0,0,0,0,-1,1119,1324,0,0
-98,-300,0,0,0,0,0,0,0,0,0,-1,1126,1324,0,0
-91,-300,0,0,0,0,0,0,0,0,0,-1,1133,1324,0,0
-84,-300,0,0,0,0,0,0,0,0,0,-1,1140,1324,0,0
-77,-300,0,0,0,0,0,0,0,0,0,-1,1147,1324,0,0
-70,-300,0,0,0,0,0,0,0,0,0,-1,1154,1324,0,0
-63,-300,0,0,0,0,0,0,0,0,0,-1,1161,1324,0,0
-56,-300,0,0,0,0,0,0,0,0,0,-1,1168,1324,0,0
-49,-300,0,0,0,0,0,0,0,0,0,-1,1175,1324,0,0
-42,-300,0,0,0,0,0,0,0,0,0,-1,1182,1324,0,0
-35,-300,0,0,0,0,0,0,0,0,0,-1,1189,1324,0,0
-28,-300,0,0,0,0,0,0,0,0,0,-1,1196,1324,0,0
-21,-300,0,0,0,0,0,0,0,0,0,-1,1203,1324,0,0
-14,-300,0,0,0,0,0,0,0,0,0,-1,1210,1324,0,0
-7,-300,0,0,0,0,0,0,0,0,0,-1,1217,1324,0,0
0,-300,0,0,0,0,0,0,0,0,0,-1,1224,1324,0,0
7,-300,0,0,0,0,0,0,0,0,0,-1,1231,1324,0,0
14,-300,0,0,0,0,0,0,0,0,0,-1,1238,1324,0,0
21,-300,0,0,0,0,0,0,0,0,0,-1,1245,1324,0,0
28,-300,0,0,0,0,0,0,0,0,0,-1,1252,1324,0,0
35,-300,0,0,0,0,0,0,0,0,0,-1,1259,1324,0,0
42,-300,0,0,0,0,0,0,0,0,0,-1,1266,1324,0,0
49,-300,0,0,0,0,0,0,0,0,0,-1,1273,1324,0,0
56,-300,0,0,0,0,0,0,0,0,0,-1,1280,1324,0,0
63,-300,0,0,0,0,0,0,0,0,0,-1,1287,1324,0,0
70,-300,0,0,0,0,0,0,0,0,0,-1,1294,1324,0,0
77,-300,0,0,0,0,0,0,0,0,0,-1,1301,1324,0,0
84,-300,0,0,0,0,0,0,0,0,0,-1,1308,1324,0,0
91,-300,0,0,0,0,0,0,0,0,0,-1,1315,1324,0,0
98,-300,0,0,0,0,0,0,0,0,0,-1,1322,1324,0,0
105,-300,0,0,0,0,0,0,0,0,0,-1,1329,1324,0,0
112,-300,0,0,0,0,0,0,0,0,0,-1,1336,1324,0,0
119,-300,0,0,0,0,0,0,0,0,0,-1,1343,1324,0,0
126,-300,0,0,0,0,0,0,0,0,0,-1,1350,1324,0,0
133,-300,0,0,0,0,0,0,0,0,0,-1,1357,1324,0,0
140,-300,0,0,0,0,0,0,0,0,0,-1,1364,1324,0,0
147,-300,0,0,0,0,0,0,0,0,0,-1,1371,1324,0,0
154,-300,0,0,0,0,0,0,0,0,0,-1,1378,1324,0,0
161,-300,0,0,0,0,0,0,0,0,0,-1,1385,1324,0,0
168,-300,0,0,0,0,0,0,0,0,0,-1,1392,1324,0,0
175,-300,0,0,0,0,0,0,0,0,0,-1,1399,1324,0,0
182,-300,0,0,0,0,0,0,0,0,0,-1,1406,1324,0,0
189,-300,0,0,0,0,0,0,0,0,0,-1,1413,1324,0,0
196,-300,0,0,0,0,0,0,0,0,0,-1,1420,1324,0,0
203,-300,0,0,0,0,0,0,0,0,0,-1,1427,1324,0,0
210,-300,0,0,0,0,0,0,0,0,0,-1,1434,1324,0,0
217,-300,0,0,0,0,0,0,0,0,0,-1,1441,1324,0,0
224,-300,0,0,0,0,0,0,0,0,0,-1,1448,1324,0,0
231,-300,0,0,0,0,0,0,0,0,0,-1,1455,1324,0,0
238,-300,0,0,0,0,0,0,0,0,0,-1,1462,1324,0,0
245,-300,0,0,0,0,0,0,0,0,0,-1,1469,1324,0,0
252,-300,0,0,0,0,0,0,0,0,0,-1,1476,1324,0,0
259,-300,0,0,0,0,0,0,0,0,0,-1,1483,1324,0,0
266,-300,0,0,0,0,0,0,0,0,0,-1,1490,1324,0,0
273,-300,0,0,0,0,0,0,0,0,0,-1,1497,1324,0,0
280,-300,0,0,0,0,0,0,0,0,0,-1,1504,1324,0,0
287,-300,0,0,0,0,0,0,0,0,0,-1,1511,1324,0,0
294,-300,0,0,0,0,0,0,0,0,0,-1,1518,1324,0,0
301,-300,0,0,0,0,0,0,0,0,0,-1,1525,1324,0,0
308,-300,0,0,0,0,0,0,0,0,0,-1,1532,1324,0,0
315,-300,0,0,0,0,0,0,0,0,0,-1,1539,1324,0,0
322,-300,0,0,0,0,0,0,0,0,0,-1,1546,1324,0,0
329,-300,0,0,0,0,0,0,0,0,0,-1,1553,1324,0,0
336,-300,0,0,0,0,0,0,0,0,0,-1,1560,1324,0,0
343,-300,0,0,0,0,0,0,0,0,0,-1,1567,1324,0,0
350,-300,0,0,0,0,0,0,0,0,0,-1,1574,1324,0,0
357,-300,0,0,0,0,0,0,0,0,0,-1,1581,1324,0,0
364,-300,0,0,0,0,0,0,0,0,0,-1,1588,1324,0,0
371,-300,0,0,0,0,0,0,0,0,0,-1,1595,1324,0,0
378,-300,0,0,0,0,0,0,0,0,0,-1,1602,1324,0,0
385,-300,0,0,0,0,0,0,0,0,0,-1,1609,1324,0,0
392,-300,0,0,0,0,0,0,0,0,0,-1,1616,1324,0,0
399,-300,0,0,0,0,0,0,0,0,0,-1,1623,1324,0,0
406,-300,0,0,0,0,0,0,0,0,0,-1,1630,1324,0,0
413,-300,0,0,0,0,0,0,0,0,0,-1,1637,1324,0,0
420,-300,0,0,0,0,0,0,0,0,0,-1,1644,1324,0,0
427,-300,0,0,0,0,0,0,0,0,0,-1,1651,1324,0,0
434,-300,0,0,0,0,0,0,0,0,0,-1,1658,1324,0,0
441,-300,0,0,0,0,0,0,0,0,0,-1,1665,1324,0,0
448,-300,0,0,0,0,0,0,0,0,0,-1,1672,1324,0,0
455,-300,0,0,0,0,0,0,0,0,0,-1,1679,1324,0,0
462,-300,0,0,0,0,0,0,0,0,0,-1,1686,1324,0,0
469,-300,0,0,0,0,0,0,0,0,0,-1,1693,1324,0,0
476,-300,0,0,0,0,0,0,0,0,0,-1,1700,1324,0,0
483,-300,0,0,0,0,0,0,0,0,0,-1,1707,1324,0,0
490,-300,0,0,0,0,0,0,0,0,0,-1,1714,1324,0,0
497,-300,0,0,0,0,0,0,0,0,0,-1,1721,1324,0,0
504,-300,0,0,0,0,0,0,0,0,0,-1,1728,1324,0,0
511,-300,0,0,0,0,0,0,0,0,0,-1,1735,1324,0,0
518,-300,0,0,0,0,0,0,0,0,0,-1,1742,1324,0,0
525,-300,0,0,0,0,0,0,0,0,0,-1,1749,1324,0,0
532,-300,0,0,0,0,0,0,0,0,0,-1,1756,1324,0,0
539,-300,0,0,0,0,0,0,0,0,0,-1,1763,1324,0,0
546,-300,0,0,0,0,0,0,0,0,0,-1,1770,1324,0,0
553,-300,0,0,0,0,0,0,0,0,0,-1,1777,1324,0,0
560,-300,0,0,0,0,0,0,0,0,0,-1,1784,1324,0,0
567,-300,0,0,0,0,0,0,0,0,0,-1,1791,1324,0,0
574,-300,0,0,0,0,0,0,0,0,0,-1,1798,1324,0,0
581,-300,0,0,0,0,0,0,0,0,0,-1,1805,1324,0,0
588,-300,59.1318,2.42944,0,0,0,0,0,0,0,-1,1812,1324,59.1319,-2.42945
595,-300,59.504,2.39404,0,0,0,0,0,0,0,-1,1819,1324,59.5041,-2.39405
602,-300,59.8762,2.35864,0,0,0,0,0,0,0,-1,1826,1324,59.8763,-2.35865
609,-300,56.6775,0.653809,0,0,0,0,0,0,0,-1,1833,1324,56.6774,-0.653846
616,-300,58.7729,2.15369,0,0,0,0,0,0,0,-1,1840,1324,58.7729,-2.15366
623,-300,47.4474,2.43188,0,0,0,0,0,0,0,-1,1847,1324,47.4474,-2.43194
630,-300,42.4099,3.9165,0,0,0,0,0,0,0,-1,1854,1324,42.4099,-3.91649
637,-300,31.1719,4.6366,0,0,0,0,0,0,0,-1,1861,1324,31.1718,-4.63665
644,-300,22.9836,3.44934,0,0,0,0,0,0,0,-1,1868,1324,22.9836,-3.4493
651,-300,25.5004,9.11853,0,0,0,0,0,0,0,-1,1875,1324,25.5004,-9.11851
658,-300,25.4012,9.20032,0,0,0,0,0,0,0,-1,1882,1324,25.4012,-9.20036
665,-300,39.6895,13.76,0,0,0,0,0,0,0,-1,1889,1324,39.6895,-13.76
672,-300,39.5438,13.2311,0.000432638,-0.000106232,-0.00118526,0.0013787,-0.00105229,-0.673636,0.00140775,0.029008,1896,1324,39.5438,-13.2311
679,-300,39.547,12.6024,0.000231856,-0.000549215,-0.000899746,0.000822168,-0.00113953,-0.580642,0.00113751,0.013284,1903,1324,39.547,-12.6025
686,-300,39.5154,12.0103,0.000637421,-0.000514853,-0.000565835,0.000868813,-0.000746245,-0.388189,0.000933349,0.0141627,1910,1324,39.5154,-12.0102
693,-300,39.4813,11.4331,0.000835268,-0.000489667,-0.000272286,0.000889042,-0.000543442,-0.194984,0.00083503,0.0118824,1917,1324,39.4813,-11.4331
700,-300,39.4563,10.8381,0.000706258,-0.000190552,9.24958e-05,0.000715699,-0.000199992,0.101712,0.00055592,0.0134759,1924,1324,39.4563,-10.8381
707,-300,39.4569,10.2578,0.000397121,-9.59593e-05,0.000471228,0.000682406,-0.000381244,0.544386,0.000622249,0.0100231,1931,1324,39.4569,-10.2578
714,-300,39.4562,9.7135,-5.20132e-05,-2.79516e-06,0.000835839,0.000808797,-0.000863606,0.800115,0.000965735,0.0111861,1938,1324,39.4561,-9.71347
721,-300,39.4435,9.13135,-0.000576769,0.000125444,0.00118448,0.00100976,-0.00146108,0.929484,0.00143445,0.0121785,1945,1324,39.4435,-9.13137
728,-300,39.4297,8.51941,-0.00122152,0.000345739,0.00148565,0.00124176,-0.00211754,1.02809,0.00196134,0.0175708,1952,1324,39.4297,-8.51938
735,-300,39.4673,7.96997,0,0,0,0,0,0,0,-1,1959,1324,39.4673,-7.96996
742,-300,38.8523,7.6875,0,0,0,0,0,0,0,-1,1966,1324,38.8522,-7.6875
749,-300,27.4065,5.9718,0,0,0,0,0,0,0,-1,1973,1324,27.4065,-5.97181
756,-300,22.1423,3.45642,0,0,0,0,0,0,0,-1,1980,1324,22.1423,-3.45638
763,-300,22.6136,5.1571,0,0,0,0,0,0,0,-1,1987,1324,22.6136,-5.15706
770,-300,24.859,4.77979,0,0,0,0,0,0,0,-1,1994,1324,24.859,-4.77972
777,-300,0,0,0,0,0,0,0,0,0,-1,2001,1324,0,0
784,-300,0,0,0,0,0,0,0,0,0,-1,2008,1324,0,0
791,-300,0,0,0,0,0,0,0,0,0,-1,2015,1324,0,0
798,-300,0,0,0,0,0,0,0,0,0,-1,2022,1324,0,0
805,-300,0,0,0,0,0,0,0,0,0,-1,2029,1324,0,0
812,-300,0,0,0,0,0,0,0,0,0,-1,2036,1324,0,0
-700,-307,0,0,0,0,0,0,0,0,0,-1,524,1331,0,0
-693,-307,0,0,0,0,0,0,0,0,0,-1,531,1331,0,0
-686,-307,0,0,0,0,0,0,0,0,0,-1,538,1331,0,0
-679,-307,0,0,0,0,0,0,0,0,0,-1,545,1331,0,0
-672,-307,0,0,0,0,0,0,0,0,0,-1,552,1331,0,0
-665,-307,0,0,0,0,0,0,0,0,0,-1,559,1331,0,0
-658,-307,0,0,0,0,0,0,0,0,0,-1,566,1331,0,0
-651,-307,-39.5316,2.82068,0,0,0,0,0,0,0,-1,573,1331,-39.5316,-2.82062
-644,-307,-39.322,2.05688,0,0,0,0,0,0,0,-1,580,1331,-39.3219,-2.05683
-637,-307,-21.0822,1.21277,0,0,0,0,0,0,0,-1,587,1331,-21.0821,-1.21273
-630,-307,-12.0005,0.767212,0,0,0,0,0,0,0,-1,594,1331,-12.0005,-0.767266
-623,-307,-12.2128,2.93811,0,0,0,0,0,0,0,-1,601,1331,-12.2128,-2.93813
-616,-307,-12.6612,2.08289,0,0,0,0,0,0,0,-1,608,1331,-12.6612,-2.08293
-609,-307,-12.2767,1.83228,0,0,0,0,0,0,0,-1,615,1331,-12.2768,-1.83224
-602,-307,-22.8475,5.62708,0,0,0,0,0,0,0,-1,622,1331,-22.8476,-5.6271
-595,-307,-23.4596,6.28748,0,0,0,0,0,0,0,-1,629,1331,-23.4596,-6.28751
-588,-307,-23.2717,7.07239,0.00293573,0.00161259,0.00185689,0.00424538,0.000302936,0.614271,0.00273487,0.0229375,636,1331,-23.2717,-7.07243
-581,-307,-23.2664,7.69995,0.00254163,0.00130365,0.00137388,0.00342952,0.000415761,0.573747,0.00216113,0.0178261,643,1331,-23.2663,-7.69993
-574,-307,-23.2993,8.30615,0.00240995,0.000953381,0.00108658,0.00298973,0.000373594,0.490157,0.00188103,0.013949,650,1331,-23.2992,-8.30615
-567,-307,-23.3181,8.94995,0.00252948,0.000601844,0.00096475,0.00292936,0.000201958,0.392941,0.00188919,0.0135625,657,1331,-23.3181,-8.94989
-560,-307,-23.3246,9.58374,0.00289536,0.000254558,0.000966513,0.0032113,-6.13801e-05,0.315936,0.00216161,0.0143683,664,1331,-23.3247,-9.58374
-553,-307,-23.3519,10.191,0.00353662,-8.84899e-05,0.00113962,0.00386511,-0.000416983,0.280641,0.00272639,0.0111471,671,1331,-23.3519,-10.191
-546,-307,-23.3946,10.8073,0.00446975,-0.000424882,0.00147086,0.00487774,-0.000832873,0.270581,0.00356205,0.0112036,678,1331,-23.3946,-10.8073
-539,-307,-23.3812,11.4695,0.00585534,-0.000678481,0.00200206,0.00642,-0.00124314,0.2749,0.00474893,0.0170048,685,1331,-23.3812,-11.4694
-532,-307,-23.3449,12.1331,0,0,0,0,0,0,0,-1,692,1331,-23.3449,-12.133
-525,-307,-13.2009,6.91309,0,0,0,0,0,0,0,-1,699,1331,-13.2009,-6.9131
-518,-307,-9.77777,-1.56653,0,0,0,0,0,0,0,-1,706,1331,-9.77777,1.56651
-511,-307,-12.5226,0.26709,0,0,0,0,0,0,0,-1,713,1331,-12.5226,-0.267038
-504,-307,-12.5913,-0.308105,0,0,0,0,0,0,0,-1,720,1331,-12.5913,0.308124
-497,-307,-13.8586,-0.115845,0,0,0,0,0,0,0,-1,727,1331,-13.8587,0.115861
-490,-307,-17.9429,0.982178,0,0,0,0,0,0,0,-1,734,1331,-17.9429,-0.982198
-483,-307,-18.1066,0.927612,0,0,0,0,0,0,0,-1,741,1331,-18.1066,-0.927609
-476,-307,-18.1288,1.1228,0,0,0,0,0,0,0,-1,748,1331,-18.1289,-1.12286
-469,-307,-18.2028,0.798584,0,0,0,0,0,0,0,-1,755,1331,-18.2027,-0.798546
-462,-307,0,0,0,0,0,0,0,0,0,-1,762,1331,0,0
-455,-307,0,0,0,0,0,0,0,0,0,-1,769,1331,0,0
-448,-307,0,0,0,0,0,0,0,0,0,-1,776,1331,0,0
-441,-307,0,0,0,0,0,0,0,0,0,-1,783,1331,0,0
-434,-307,0,0,0,0,0,0,0,0,0,-1,790,1331,0,0
-427,-307,0,0,0,0,0,0,0,0,0,-1,797,1331,0,0
-420,-307,0,0,0,0,0,0,0,0,0,-1,804,1331,0,0
-413,-307,0,0,0,0,0,0,0,0,0,-1,811,1331,0,0
-406,-307,0,0,0,0,0,0,0,0,0,-1,818,1331,0,0
-399,-307,0,0,0,0,0,0,0,0,0,-1,825,1331,0,0
-392,-307,0,0,0,0,0,0,0,0,0,-1,832,1331,0,0
-385,-307,0,0,0,0,0,0,0,0,0,-1,839,1331,0,0
-378,-307,0,0,0,0,0,0,0,0,0,-1,846,1331,0,0
-371,-307,0,0,0,0,0,0,0,0,0,-1,853,1331,0,0
-364,-307,0,0,0,0,0,0,0,0,0,-1,860,1331,0,0
-357,-307,0,0,0,0,0,0,0,0,0,-1,867,1331,0,0
-350,-307,0,0,0,0,0,0,0,0,0,-1,874,1331,0,0
-343,-307,0,0,0,0,0,0,0,0,0,-1,881,1331,0,0
-336,-307,0,0,0,0,0,0,0,0,0,-1,888,1331,0,0
-329,-307,0,0,0,0,0,0,0,0,0,-1,895,1331,0,0
-322,-307,0,0,0,0,0,0,0,0,0,-1,902,1331,0,0
-315,-307,0,0,0,0,0,0,0,0,0,-1,909,1331,0,0
-308,-307,0,0,0,0,0,0,0,0,0,-1,916,1331,0,0
-301,-307,0,0,0,0,0,0,0,0,0,-1,923,1331,0,0
-294,-307,0,0,0,0,0,0,0,0,0,-1,930,1331,0,0
-287,-307,0,0,0,0,0,0,0,0,0,-1,937,1331,0,0
-280,-307,0,0,0,0,0,0,0,0,0,-1,944,1331,0,0
-273,-307,0,0,0,0,0,0,0,0,0,-1,951,1331,0,0
-266,-307,0,0,0,0,0,0,0,0,0,-1,958,1331,0,0
-259,-307,0,0,0,0,0,0,0,0,0,-1,965,1331,0,0
-252,-307,0,0,0,0,0,0,0,0,0,-1,972,1331,0,0
-245,-307,0,0,0,0,0,0,0,0,0,-1,979,1331,0,0
-238,-307,0,0,0,0,0,0,0,0,0,-1,986,1331,0,0
-231,-307,0,0,0,0,0,0,0,0,0,-1,993,1331,0,0
-224,-307,0,0,0,0,0,0,0,0,0,-1,1000,1331,0,0
-217,-307,0,0,0,0,0,0,0,0,0,-1,1007,1331,0,0
-210,-307,0,0,0,0,0,0,0,0,0,-1,1014,1331,0,0
-203,-307,0,0,0,0,0,0,0,0,0,-1,1021,1331,0,0
-196,-307,0,0,0,0,0,0,0,0,0,-1,1028,1331,0,0
-189,-307,0,0,0,0,0,0,0,0,0,-1,1035,1331,0,0
-182,-307,0,0,0,0,0,0,0,0,0,-1,1042,1331,0,0
-175,-307,0,0,0,0,0,0,0,0,0,-1,1049,1331,0,0
-168,-307,0,0,0,0,0,0,0,0,0,-1,1056,1331,0,0
-161,-307,0,0,0,0,0,0,0,0,0,-1,1063,1331,0,0
-154,-307,0,0,0,0,0,0,0,0,0,-1,1070,1331,0,0
-147,-307,0,0,0,0,0,0,0,0,0,-1,1077,1331,0,0
-140,-307,0,0,0,0,0,0,0,0,0,-1,1084,1331,0,0
-133,-307,0,0,0,0,0,0,0,0,0,-1,1091,1331,0,0
-126,-307,0,0,0,0,0,0,0,0,0,-1,1098,1331,0,0
-119,-307,0,0,0,0,0,0,0,0,0,-1,1105,1331,0,0
-112,-307,0,0,0,0,0,0,0,0,0,-1,1112,1331,0,0
-105,-307,0,0,0,0,0,0,0,0,0,-1,1119,1331,0,0
-98,-307,0,0,0,0,0,0,0,0,0,-1,1126,1331,0,0
-91,-307,0,0,0,0,0,0,0,0,0,-1,1133,1331,0,0
-84,-307,0,0,0,0,0,0,0,0,0,-1,1140,1331,0,0
-77,-307,0,0,0,0,0,0,0,0,0,-1,1147,1331,0,0
-70,-307,0,0,0,0,0,0,0,0,0,-1,1154,1331,0,0
-63,-307,0,0,0,0,0,0,0,0,0,-1,1161,1331,0,0
-56,-307,0,0,0,0,0,0,0,0,0,-1,1168,1331,0,0
-49,-307,0,0,0,0,0,0,0,0,0,-1,1175,1331,0,0
-42,-307,0,0,0,0,0,0,0,0,0,-1,1182,1331,0,0
-35,-307,0,0,0,0,0,0,0,0,0,-1,1189,1331,0,0
-28,-307,0,0,0,0,0,0,0,0,0,-1,1196,1331,0,0
-21,-307,0,0,0,0,0,0,0,0,0,-1,1203,1331,0,0
-14,-307,0,0,0,0,0,0,0,0,0,-1,1210,1331,0,0
-7,-307,0,0,0,0,0,0,0,0,0,-1,1217,1331,0,0
0,-307,0,0,0,0,0,0,0,0,0,-1,1224,1331,0,0
7,-307,0,0,0,0,0,0,0,0,0,-1,1231,1331,0,0
14,-307,0,0,0,0,0,0,0,0,0,-1,1238,1331,0,0
21,-307,0,0,0,0,0,0,0,0,0,-1,1245,1331,0,0
28,-307,0,0,0,0,0,0,0,0,0,-1,1252,1331,0,0
35,-307,0,0,0,0,0,0,0,0,0,-1,1259,1331,0,0
42,-307,0,0,0,0,0,0,0,0,0,-1,1266,1331,0,0
49,-307,0,0,0,0,0,0,0,0,0,-1,1273,1331,0,0
56,-307,0,0,0,0,0,0,0,0,0,-1,1280,1331,0,0
63,-307,0,0,0,0,0,0,0,0,0,-1,1287,1331,0,0
70,-307,0,0,0,0,0,0,0,0,0,-1,1294,1331,0,0
77,-307,0,0,0,0,0,0,0,0,0,-1,1301,1331,0,0
84,-307,0,0,0,0,0,0,0,0,0,-1,1308,1331,0,0
91,-307,0,0,0,0,0,0,0,0,0,-1,1315,1331,0,0
98,-307,0,0,0,0,0,0,0,0,0,-1,1322,1331,0,0
105,-307,0,0,0,0,0,0,0,0,0,-1,1329,1331,0,0
112,-307,0,0,0,0,0,0,0,0,0,-1,1336,1331,0,0
119,-307,0,0,0,0,0,0,0,0,0,-1,1343,1331,0,0
126,-307,0,0,0,0,0,0,0,0,0,-1,1350,1331,0,0
133,-307,0,0,0,0,0,0,0,0,0,-1,1357,1331,0,0
140,-307,0,0,0,0,0,0,0,0,0,-1,1364,1331,0,0
147,-307,0,0,0,0,0,0,0,0,0,-1,1371,1331,0,0
154,-307,0,0,0,0,0,0,0,0,0,-1,1378,1331,0,0
161,-307,0,0,0,0,0,0,0,0,0,-1,1385,1331,0,0
168,-307,0,0,0,0,0,0,0,0,0,-1,1392,1331,0,0
175,-307,0,0,0,0,0,0,0,0,0,-1,1399,1331,0,0
182,-307,0,0,0,0,0,0,0,0,0,-1,1406,1331,0,0
189,-307,0,0,0,0,0,0,0,0,0,-1,1413,1331,0,0
196,-307,0,0,0,0,0,0,0,0,0,-1,1420,1331,0,0
203,-307,0,0,0,0,0,0,0,0,0,-1,1427,1331,0,0
210,-307,0,0,0,0,0,0,0,0,0,-1,1434,1331,0,0
217,-307,0,0,0,0,0,0,0,0,0,-1,1441,1331,0,0
224,-307,0,0,0,0,0,0,0,0,0,-1,1448,1331,0,0
231,-307,0,0,0,0,0,0,0,0,0,-1,1455,1331,0,0
238,-307,0,0,0,0,0,0,0,0,0,-1,1462,1331,0,0
245,-307,0,0,0,0,0,0,0,0,0,-1,1469,1331,0,0
252,-307,0,0,0,0,0,0,0,0,0,-1,1476,1331,0,0
259,-307,0,0,0,0,0,0,0,0,0,-1,1483,1331,0,0
266,-307,0,0,0,0,0,0,0,0,0,-1,1490,1331,0,0
273,-307,0,0,0,0,0,0,0,0,0,-1,1497,1331,0,0
280,-307,0,0,0,0,0,0,0,0,0,-1,1504,1331,0,0
287,-307,0,0,0,0,0,0,0,0,0,-1,1511,1331,0,0
294,-307,0,0,0,0,0,0,0,0,0,-1,1518,1331,0,0
301,-307,0,0,0,0,0,0,0,0,0,-1,1525,1331,0,0
308,-307,0,0,0,0,0,0,0,0,0,-1,1532,1331,0,0
315,-307,0,0,0,0,0,0,0,0,0,-1,1539,1331,0,0
322,-307,0,0,0,0,0,0,0,0,0,-1,1546,1331,0,0
329,-307,0,0,0,0,0,0,0,0,0,-1,1553,1331,0,0
336,-307,0,0,0,0,0,0,0,0,0,-1,1560,1331,0,0
343,-307,0,0,0,0,0,0,0,0,0,-1,1567,1331,0,0
350,-307,0,0,0,0,0,0,0,0,0,-1,1574,1331,0,0
357,-307,0,0,0,0,0,0,0,0,0,-1,1581,1331,0,0
364,-307,0,0,0,0,0,0,0,0,0,-1,1588,1331,0,0
371,-307,0,0,0,0,0,0,0,0,0,-1,1595,1331,0,0
378,-307,0,0,0,0,0,0,0,0,0,-1,1602,1331,0,0
385,-307,0,0,0,0,0,0,0,0,0,-1,1609,1331,0,0
392,-307,0,0,0,0,0,0,0,0,0,-1,1616,1331,0,0
399,-307,0,0,0,0,0,0,0,0,0,-1,1623,1331,0,0
406,-307,0,0,0,0,0,0,0,0,0,-1,1630,1331,0,0
413,-307,0,0,0,0,0,0,0,0,0,-1,1637,1331,0,0
420,-307,0,0,0,0,0,0,0,0,0,-1,1644,1331,0,0
427,-307,0,0,0,0,0,0,0,0,0,-1,1651,1331,0,0
434,-307,0,0,0,0,0,0,0,0,0,-1,1658,1331,0,0
441,-307,0,0,0,0,0,0,0,0,0,-1,1665,1331,0,0
448,-307,0,0,0,0,0,0,0,0,0,-1,1672,1331,0,0
455,-307,0,0,0,0,0,0,0,0,0,-1,1679,1331,0,0
462,-307,0,0,0,0,0,0,0,0,0,-1,1686,1331,0,0
469,-307,0,0,0,0,0,0,0,0,0,-1,1693,1331,0,0
476,-307,0,0,0,0,0,0,0,0,0,-1,1700,1331,0,0
483,-307,0,0,0,0,0,0,0,0,0,-1,1707,1331,0,0
490,-307,0,0,0,0,0,0,0,0,0,-1,1714,1331,0,0
497,-307,0,0,0,0,0,0,0,0,0,-1,1721,1331,0,0
504,-307,0,0,0,0,0,0,0,0,0,-1,1728,1331,0,0
511,-307,0,0,0,0,0,0,0,0,0,-1,1735,1331,0,0
518,-307,0,0,0,0,0,0,0,0,0,-1,1742,1331,0,0
525,-307,0,0,0,0,0,0,0,0,0,-1,1749,1331,0,0
532,-307,0,0,0,0,0,0,0,0,0,-1,1756,1331,0,0
539,-307,0,0,0,0,0,0,0,0,0,-1,1763,1331,0,0
546,-307,0,0,0,0,0,0,0,0,0,-1,1770,1331,0,0
553,-307,0,0,0,0,0,0,0,0,0,-1,1777,1331,0,0
560,-307,0,0,0,0,0,0,0,0,0,-1,1784,1331,0,0
567,-307,0,0,0,0,0,0,0,0,0,-1,1791,1331,0,0
574,-307,0,0,0,0,0,0,0,0,0,-1,1798,1331,0,0
581,-307,0,0,0,0,0,0,0,0,0,-1,1805,1331,0,0
588,-307,59.522,2.36218,-0.00246508,0.0631683,0.0108976,0.0649304,-0.00422718,1.41049,0.0447626,0.0450891,1812,1331,59.522,-2.3622
595,-307,59.7025,2.32031,0,0,0,0,0,0,0,-1,1819,1331,59.7026,-2.32034
602,-307,60.0997,2.24915,0,0,0,0,0,0,0,-1,1826,1331,60.0997,-2.24913
609,-307,56.5148,0.548096,0,0,0,0,0,0,0,-1,1833,1331,56.5147,-0.548109
616,-307,53.2878,0.135498,0,0,0,0,0,0,0,-1,1840,1331,53.2878,-0.135477
623,-307,44.3966,2.84888,0,0,0,0,0,0,0,-1,1847,1331,44.3966,-2.84884
630,-307,29.8116,1.51184,0,0,0,0,0,0,0,-1,1854,1331,29.8116,-1.51188
637,-307,24.6407,4.09106,0,0,0,0,0,0,0,-1,1861,1331,24.6407,-4.09103
644,-307,22.6885,5.80408,0,0,0,0,0,0,0,-1,1868,1331,22.6884,-5.80408
651,-307,17.5013,5.80078,0,0,0,0,0,0,0,-1,1875,1331,17.5014,-5.80072
658,-307,37.4427,13.9775,0,0,0,0,0,0,0,-1,1882,1331,37.4427,-13.9776
665,-307,39.0863,13.8064,0,0,0,0,0,0,0,-1,1889,1331,39.0863,-13.8064
672,-307,38.986,13.2119,0.00159093,0.000611651,-0.00118423,0.00238276,-0.000180173,-0.589367,0.00165184,0.0176706,1896,1331,38.986,-13.212
679,-307,38.9457,12.6234,0.00117015,1.08976e-05,-0.000799206,0.00157779,-0.000396743,-0.471661,0.00120606,0.0103369,1903,1331,38.9457,-12.6234
686,-307,38.9189,12.0381,0.00119919,-0.000171704,-0.000431556,0.00132373,-0.000296243,-0.280949,0.000996032,0.010376,1910,1331,38.9189,-12.0381
693,-307,38.9006,11.467,0.00107714,-0.00027409,-0.000116073,0.00108704,-0.000283989,-0.0850706,0.000835602,0.0126936,1917,1331,38.9006,-11.4671
700,-307,38.8959,10.8718,0.000818379,-0.000177026,0.000183948,0.000851284,-0.000209931,0.177011,0.00064892,0.0142352,1924,1331,38.8959,-10.8719
707,-307,38.8872,10.2568,0.000535459,-8.84751e-05,0.00049743,0.000810655,-0.000363671,0.505323,0.000694175,0.0157935,1931,1331,38.8872,-10.2568
714,-307,38.8704,9.71899,0.000178941,1.89671e-05,0.000817203,0.000920062,-0.000722154,0.736614,0.000950426,0.0131036,1938,1331,38.8704,-9.71895
721,-307,38.8905,9.14941,-0.000222631,0.000136959,0.00113036,0.00110174,-0.00118741,0.864267,0.00132195,0.0172282,1945,1331,38.8906,-9.14942
728,-307,38.8326,8.74353,-0.000732998,0.000342111,0.001396,0.00130048,-0.00169136,0.969182,0.00173225,0.0489369,1952,1331,38.8326,-8.74354
735,-307,38.8647,8.06506,0,0,0,0,0,0,0,-1,1959,1331,38.8648,-8.0651
742,-307,26.677,6.09192,0,0,0,0,0,0,0,-1,1966,1331,26.677,-6.0919
749,-307,26.7727,5.9032,0,0,0,0,0,0,0,-1,1973,1331,26.7727,-5.90323
756,-307,27.1556,5.74756,0,0,0,0,0,0,0,-1,1980,1331,27.1557,-5.7475
763,-307,18.7522,3.55298,0,0,0,0,0,0,0,-1,1987,1331,18.7522,-3.55301
770,-307,0,0,0,0,0,0,0,0,0,-1,1994,1331,0,0
777,-307,0,0,0,0,0,0,0,0,0,-1,2001,1331,0,0
784,-307,0,0,0,0,0,0,0,0,0,-1,2008,1331,0,0
791,-307,0,0,0,0,0,0,0,0,0,-1,2015,1331,0,0
798,-307,0,0,0,0,0,0,0,0,0,-1,2022,1331,0,0
805,-307,0,0,0,0,0,0,0,0,0,-1,2029,1331,0,0
812,-307,0,0,0,0,0,0,0,0,0,-1,2036,1331,0,0
-700,-314,0,0,0,0,0,0,0,0,0,-1,524,1338,0,0
-693,-314,0,0,0,0,0,0,0,0,0,-1,531,1338,0,0
-686,-314,0,0,0,0,0,0,0,0,0,-1,538,1338,0,0
-679,-314,0,0,0,0,0,0,0,0,0,-1,545,1338,0,0
-672,-314,0,0,0,0,0,0,0,0,0,-1,552,1338,0,0
-665,-314,0,0,0,0,0,0,0,0,0,-1,559,1338,0,0
-658,-314,0,0,0,0,0,0,0,0,0,-1,566,1338,0,0
-651,-314,0,0,0,0,0,0,0,0,0,-1,573,1338,0,0
-644,-314,-20.9896,-0.0299072,0,0,0,0,0,0,0,-1,580,1338,-20.9896,0.0299587
-637,-314,-18.8677,6.62646,0,0,0,0,0,0,0,-1,587,1338,-18.8677,-6.62651
-630,-314,-13.2771,2.98938,0,0,0,0,0,0,0,-1,594,1338,-13.2771,-2.98943
-623,-314,-13.3542,3.00903,0,0,0,0,0,0,0,-1,601,1338,-13.3542,-3.00907
-616,-314,-9.93311,1.15088,0,0,0,0,0,0,0,-1,608,1338,-9.93308,-1.15093
-609,-314,-9.4361,2.86292,0,0,0,0,0,0,0,-1,615,1338,-9.43612,-2.86286
-602,-314,-11.8027,2.42798,0,0,0,0,0,0,0,-1,622,1338,-11.8027,-2.42802
-595,-314,-22.8782,6.30701,0,0,0,0,0,0,0,-1,629,1338,-22.8783,-6.30703
-588,-314,-22.6892,7.0072,0.00330503,0.00194984,0.0020706,0.00480608,0.00044878,0.627267,0.00306543,0.0337383,636,1338,-22.6892,-7.00714
-581,-314,-22.6259,7.6936,0.00273275,0.00164306,0.00150318,0.00378679,0.000589025,0.611532,0.00235289,0.0138688,643,1338,-22.6259,-7.69354
-574,-314,-22.6684,8.30566,0.00246703,0.00126033,0.00115721,0.00316873,0.000558622,0.545095,0.00195309,0.0136008,650,1338,-22.6684,-8.30562
-567,-314,-22.6633,8.96094,0.00248358,0.000874343,0.000987469,0.00295273,0.000405185,0.44354,0.00184829,0.0155605,657,1338,-22.6633,-8.96097
-560,-314,-22.6606,9.58838,0.00276823,0.000512579,0.000955939,0.00311885,0.000161956,0.351548,0.00202741,0.0160256,664,1338,-22.6606,-9.58838
-553,-314,-22.7377,10.1969,0.00332429,0.00014709,0.00108903,0.00366173,-0.000190351,0.300473,0.00250702,0.0171774,671,1338,-22.7377,-10.1968
-546,-314,-22.8022,10.8391,0.00417345,-0.000206857,0.00137732,0.00457053,-0.000603938,0.280688,0.003267,0.0183094,678,1338,-22.8023,-10.8391
-539,-314,-22.7599,11.5034,0.00541344,-0.00047564,0.00185292,0.00594793,-0.00101013,0.280833,0.00434134,0.0179731,685,1338,-22.7599,-11.5034
-532,-314,-22.6923,12.1183,0,0,0,0,0,0,0,-1,692,1338,-22.6923,-12.1183
-525,-314,-13.3017,7.50671,0,0,0,0,0,0,0,-1,699,1338,-13.3017,-7.50669
-518,-314,-8.52753,4.70032,0,0,0,0,0,0,0,-1,706,1338,-8.52755,-4.70034
-511,-314,-11.8597,0.384888,0,0,0,0,0,0,0,-1,713,1338,-11.8597,-0.384927
-504,-314,-11.4322,-0.187378,0,0,0,0,0,0,0,-1,720,1338,-11.4322,0.187381
-497,-314,-11.0047,-0.759644,0,0,0,0,0,0,0,-1,727,1338,-11.0047,0.759689
-490,-314,-18.5143,0.471069,0,0,0,0,0,0,0,-1,734,1338,-18.5143,-0.47103
-483,-314,-17.8528,0.577271,0,0,0,0,0,0,0,-1,741,1338,-17.8528,-0.577327
-476,-314,-17.714,0.665405,0,0,0,0,0,0,0,-1,748,1338,-17.714,-0.665388
-469,-314,-17.7246,0.794678,0,0,0,0,0,0,0,-1,755,1338,-17.7246,-0.794645
-462,-314,0,0,0,0,0,0,0,0,0,-1,762,1338,0,0
-455,-314,0,0,0,0,0,0,0,0,0,-1,769,1338,0,0
-448,-314,0,0,0,0,0,0,0,0,0,-1,776,1338,0,0
-441,-314,0,0,0,0,0,0,0,0,0,-1,783,1338,0,0
-434,-314,0,0,0,0,0,0,0,0,0,-1,790,1338,0,0
-427,-314,0,0,0,0,0,0,0,0,0,-1,797,1338,0,0
-420,-314,0,0,0,0,0,0,0,0,0,-1,804,1338,0,0
-413,-314,0,0,0,0,0,0,0,0,0,-1,811,1338,0,0
-406,-314,0,0,0,0,0,0,0,0,0,-1,818,1338,0,0
-399,-314,0,0,0,0,0,0,0,0,0,-1,825,1338,0,0
-392,-314,0,0,0,0,0,0,0,0,0,-1,832,1338,0,0
-385,-314,0,0,0,0,0,0,0,0,0,-1,839,1338,0,0
-378,-314,0,0,0,0,0,0,0,0,0,-1,846,1338,0,0
-371,-314,0,0,0,0,0,0,0,0,0,-1,853,1338,0,0
-364,-314,0,0,0,0,0,0,0,0,0,-1,860,1338,0,0
-357,-314,0,0,0,0,0,0,0,0,0,-1,867,1338,0,0
-350,-314,0,0,0,0,0,0,0,0,0,-1,874,1338,0,0
-343,-314,0,0,0,0,0,0,0,0,0,-1,881,1338,0,0
-336,-314,0,0,0,0,0,0,0,0,0,-1,888,1338,0,0
-329,-314,0,0,0,0,0,0,0,0,0,-1,895,1338,0,0
-322,-314,0,0,0,0,0,0,0,0,0,-1,902,1338,0,0
-315,-314,0,0,0,0,0,0,0,0,0,-1,909,1338,0,0
-308,-314,0,0,0,0,0,0,0,0,0,-1,916,1338,0,0
-301,-314,0,0,0,0,0,0,0,0,0,-1,923,1338,0,0
-294,-314,0,0,0,0,0,0,0,0,0,-1,930,1338,0,0
-287,-314,0,0,0,0,0,0,0,0,0,-1,937,1338,0,0
-280,-314,0,0,0,0,0,0,0,0,0,-1,944,1338,0,0
-273,-314,0,0,0,0,0,0,0,0,0,-1,951,1338,0,0
-266,-314,0,0,0,0,0,0,0,0,0,-1,958,1338,0,0
-259,-314,0,0,0,0,0,0,0,0,0,-1,965,1338,0,0
-252,-314,0,0,0,0,0,0,0,0,0,-1,972,1338,0,0
-245,-314,0,0,0,0,0,0,0,0,0,-1,979,1338,0,0
-238,-314,0,0,0,0,0,0,0,0,0,-1,986,1338,0,0
-231,-314,0,0,0,0,0,0,0,0,0,-1,993,1338,0,0
-224,-314,0,0,0,0,0,0,0,0,0,-1,1000,1338,0,0
-217,-314,0,0,0,0,0,0,0,0,0,-1,1007,1338,0,0
-210,-314,0,0,0,0,0,0,0,0,0,-1,1014,1338,0,0
-203,-314,0,0,0,0,0,0,0,0,0,-1,1021,1338,0,0
-196,-314,0,0,0,0,0,0,0,0,0,-1,1028,1338,0,0
-189,-314,0,0,0,0,0,0,0,0,0,-1,1035,1338,0,0
-182,-314,0,0,0,0,0,0,0,0,0,-1,1042,1338,0,0
-175,-314,0,0,0,0,0,0,0,0,0,-1,1049,1338,0,0
-168,-314,0,0,0,0,0,0,0,0,0,-1,1056,1338,0,0
-161,-314,0,0,0,0,0,0,0,0,0,-1,1063,1338,0,0
-154,-314,0,0,0,0,0,0,0,0,0,-1,1070,1338,0,0
-147,-314,0,0,0,0,0,0,0,0,0,-1,1077,1338,0,0
-140,-314,0,0,0,0,0,0,0,0,0,-1,1084,1338,0,0
-133,-314,0,0,0,0,0,0,0,0,0,-1,1091,1338,0,0
-126,-314,0,0,0,0,0,0,0,0,0,-1,1098,1338,0,0
-119,-314,0,0,0,0,0,0,0,0,0,-1,1105,1338,0,0
-112,-314,0,0,0,0,0,0,0,0,0,-1,1112,1338,0,0
-105,-314,0,0,0,0,0,0,0,0,0,-1,1119,1338,0,0
-98,-314,0,0,0,0,0,0,0,0,0,-1,1126,1338,0,0
-91,-314,0,0,0,0,0,0,0,0,0,-1,1133,1338,0,0
-84,-314,0,0,0,0,0,0,0,0,0,-1,1140,1338,0,0
-77,-314,0,0,0,0,0,0,0,0,0,-1,1147,1338,0,0
-70,-314,0,0,0,0,0,0,0,0,0,-1,1154,1338,0,0
-63,-314,0,0,0,0,0,0,0,0,0,-1,1161,1338,0,0
-56,-314,0,0,0,0,0,0,0,0,0,-1,1168,1338,0,0
-49,-314,0,0,0,0,0,0,0,0,0,-1,1175,1338,0,0
-42,-314,0,0,0,0,0,0,0,0,0,-1,1182,1338,0,0
-35,-314,0,0,0,0,0,0,0,0,0,-1,1189,1338,0,0
-28,-314,0,0,0,0,0,0,0,0,0,-1,1196,1338,0,0
-21,-314,0,0,0,0,0,0,0,0,0,-1,1203,1338,0,0
-14,-314,0,0,0,0,0,0,0,0,0,-1,1210,1338,0,0
-7,-314,0,0,0,0,0,0,0,0,0,-1,1217,1338,0,0
0,-314,0,0,0,0,0,0,0,0,0,-1,1224,1338,0,0
7,-314,0,0,0,0,0,0,0,0,0,-1,1231,1338,0,0
14,-314,0,0,0,0,0,0,0,0,0,-1,1238,1338,0,0
21,-314,0,0,0,0,0,0,0,0,0,-1,1245,1338,0,0
28,-314,0,0,0,0,0,0,0,0,0,-1,1252,1338,0,0
35,-314,0,0,0,0,0,0,0,0,0,-1,1259,1338,0,0
42,-314,0,0,0,0,0,0,0,0,0,-1,1266,1338,0,0
49,-314,0,0,0,0,0,0,0,0,0,-1,1273,1338,0,0
56,-314,0,0,0,0,0,0,0,0,0,-1,1280,1338,0,0
63,-314,0,0,0,0,0,0,0,0,0,-1,1287,1338,0,0
70,-314,0,0,0,0,0,0,0,0,0,-1,1294,1338,0,0
77,-314,0,0,0,0,0,0,0,0,0,-1,1301,1338,0,0
84,-314,0,0,0,0,0,0,0,0,0,-1,1308,1338,0,0
91,-314,0,0,0,0,0,0,0,0,0,-1,1315,1338,0,0
98,-314,0,0,0,0,0,0,0,0,0,-1,1322,1338,0,0
105,-314,0,0,0,0,0,0,0,0,0,-1,1329,1338,0,0
112,-314,0,0,0,0,0,0,0,0,0,-1,1336,1338,0,0
119,-314,0,0,0,0,0,0,0,0,0,-1,1343,1338,0,0
126,-314,0,0,0,0,0,0,0,0,0,-1,1350,1338,0,0
133,-314,0,0,0,0,0,0,0,0,0,-1,1357,1338,0,0
140,-314,0,0,0,0,0,0,0,0,0,-1,1364,1338,0,0
147,-314,0,0,0,0,0,0,0,0,0,-1,1371,1338,0,0
154,-314,0,0,0,0,0,0,0,0,0,-1,1378,1338,0,0
161,-314,0,0,0,0,0,0,0,0,0,-1,1385,1338,0,0
168,-314,0,0,0,0,0,0,0,0,0,-1,1392,1338,0,0
175,-314,0,0,0,0,0,0,0,0,0,-1,1399,1338,0,0
182,-314,0,0,0,0,0,0,0,0,0,-1,1406,1338,0,0
189,-314,0,0,0,0,0,0,0,0,0,-1,1413,1338,0,0
196,-314,0,0,0,0,0,0,0,0,0,-1,1420,1338,0,0
203,-314,0,0,0,0,0,0,0,0,0,-1,1427,1338,0,0
210,-314,0,0,0,0,0,0,0,0,0,-1,1434,1338,0,0
217,-314,0,0,0,0,0,0,0,0,0,-1,1441,1338,0,0
224,-314,0,0,0,0,0,0,0,0,0,-1,1448,1338,0,0
231,-314,0,0,0,0,0,0,0,0,0,-1,1455,1338,0,0
238,-314,0,0,0,0,0,0,0,0,0,-1,1462,1338,0,0
245,-314,0,0,0,0,0,0,0,0,0,-1,1469,1338,0,0
252,-314,0,0,0,0,0,0,0,0,0,-1,1476,1338,0,0
259,-314,0,0,0,0,0,0,0,0,0,-1,1483,1338,0,0
266,-314,0,0,0,0,0,0,0,0,0,-1,1490,1338,0,0
273,-314,0,0,0,0,0,0,0,0,0,-1,1497,1338,0,0
280,-314,0,0,0,0,0,0,0,0,0,-1,1504,1338,0,0
287,-314,0,0,0,0,0,0,0,0,0,-1,1511,1338,0,0
294,-314,0,0,0,0,0,0,0,0,0,-1,1518,1338,0,0
301,-314,0,0,0,0,0,0,0,0,0,-1,1525,1338,0,0
308,-314,0,0,0,0,0,0,0,0,0,-1,1532,1338,0,0
315,-314,0,0,0,0,0,0,0,0,0,-1,1539,1338,0,0
322,-314,0,0,0,0,0,0,0,0,0,-1,1546,1338,0,0
329,-314,0,0,0,0,0,0,0,0,0,-1,1553,1338,0,0
336,-314,0,0,0,0,0,0,0,0,0,-1,1560,1338,0,0
343,-314,0,0,0,0,0,0,0,0,0,-1,1567,1338,0,0
350,-314,0,0,0,0,0,0,0,0,0,-1,1574,1338,0,0
357,-314,0,0,0,0,0,0,0,0,0,-1,1581,1338,0,0
364,-314,0,0,0,0,0,0,0,0,0,-1,1588,1338,0,0
371,-314,0,0,0,0,0,0,0,0,0,-1,1595,1338,0,0
378,-314,0,0,0,0,0,0,0,0,0,-1,1602,1338,0,0
385,-314,0,0,0,0,0,0,0,0,0,-1,1609,1338,0,0
392,-314,0,0,0,0,0,0,0,0,0,-1,1616,1338,0,0
399,-314,0,0,0,0,0,0,0,0,0,-1,1623,1338,0,0
406,-314,0,0,0,0,0,0,0,0,0,-1,1630,1338,0,0
413,-314,0,0,0,0,0,0,0,0,0,-1,1637,1338,0,0
420,-314,0,0,0,0,0,0,0,0,0,-1,1644,1338,0,0
427,-314,0,0,0,0,0,0,0,0,0,-1,1651,1338,0,0
434,-314,0,0,0,0,0,0,0,0,0,-1,1658,1338,0,0
441,-314,0,0,0,0,0,0,0,0,0,-1,1665,1338,0,0
448,-314,0,0,0,0,0,0,0,0,0,-1,1672,1338,0,0
455,-314,0,0,0,0,0,0,0,0,0,-1,1679,1338,0,0
462,-314,0,0,0,0,0,0,0,0,0,-1,1686,1338,0,0
469,-314,0,0,0,0,0,0,0,0,0,-1,1693,1338,0,0
476,-314,0,0,0,0,0,0,0,0,0,-1,1700,1338,0,0
483,-314,0,0,0,0,0,0,0,0,0,-1,1707,1338,0,0
490,-314,0,0,0,0,0,0,0,0,0,-1,1714,1338,0,0
497,-314,0,0,0,0,0,0,0,0,0,-1,1721,1338,0,0
504,-314,0,0,0,0,0,0,0,0,0,-1,1728,1338,0,0
511,-314,0,0,0,0,0,0,0,0,0,-1,1735,1338,0,0
518,-314,0,0,0,0,0,0,0,0,0,-1,1742,1338,0,0
525,-314,0,0,0,0,0,0,0,0,0,-1,1749,1338,0,0
532,-314,0,0,0,0,0,0,0,0,0,-1,1756,1338,0,0
539,-314,0,0,0,0,0,0,0,0,0,-1,1763,1338,0,0
546,-314,0,0,0,0,0,0,0,0,0,-1,1770,1338,0,0
553,-314,0,0,0,0,0,0,0,0,0,-1,1777,1338,0,0
560,-314,0,0,0,0,0,0,0,0,0,-1,1784,1338,0,0
567,-314,0,0,0,0,0,0,0,0,0,-1,1791,1338,0,0
574,-314,0,0,0,0,0,0,0,0,0,-1,1798,1338,0,0
581,-314,59.6042,2.26257,-0.00385293,0.066589,0.0130265,0.0689207,-0.00618467,1.39367,0.0481413,0.0411252,1805,1338,59.6042,-2.26255
588,-314,59.4537,2.27551,-0.00357156,0.0817249,0.0151012,0.0843196,-0.00616621,1.40064,0.0583771,0.0443618,1812,1338,59.4538,-2.27555
595,-314,59.8414,2.22742,0,0,0,0,0,0,0,-1,1819,1338,59.8415,-2.22739
602,-314,55.9962,-1.17151,0,0,0,0,0,0,0,-1,1826,1338,55.9962,1.17155
609,-314,56.6547,0.382813,0,0,0,0,0,0,0,-1,1833,1338,56.6547,-0.382865
616,-314,48.1149,3.005,0,0,0,0,0,0,0,-1,1840,1338,48.1149,-3.00505
623,-314,38.7728,2.71741,0,0,0,0,0,0,0,-1,1847,1338,38.7728,-2.71737
630,-314,29.4308,6.23206,0,0,0,0,0,0,0,-1,1854,1338,29.4308,-6.23202
637,-314,22.1349,5.16418,0,0,0,0,0,0,0,-1,1861,1338,22.1349,-5.16414
644,-314,18.7517,6.2605,0,0,0,0,0,0,0,-1,1868,1338,18.7517,-6.26053
651,-314,23.1317,8.005,0,0,0,0,0,0,0,-1,1875,1338,23.1317,-8.00506
658,-314,38.4247,14.4211,0,0,0,0,0,0,0,-1,1882,1338,38.4247,-14.4212
665,-314,38.3654,13.858,0.00183375,0.00121121,-0.00120071,0.00276288,0.000282078,-0.658572,0.00175546,0.031889,1889,1338,38.3653,-13.858
672,-314,38.3848,13.2871,0.00150751,0.000102364,-0.000972457,0.00200464,-0.000394763,-0.472573,0.0014856,0.0131809,1896,1338,38.3848,-13.2871
679,-314,38.3574,12.6735,0.00120482,-0.000232348,-0.000643551,0.00145087,-0.000478399,-0.365185,0.00116007,0.0107303,1903,1338,38.3574,-12.6735
686,-314,38.3247,12.0736,0.00122582,-0.000269102,-0.000342098,0.00130039,-0.000343669,-0.214611,0.00100134,0.0131434,1910,1338,38.3247,-12.0735
693,-314,38.3064,11.496,0.0011438,-0.000253226,-7.95065e-05,0.00114831,-0.000257736,-0.0566675,0.000864355,0.0132124,1917,1338,38.3064,-11.4959
700,-314,38.3018,10.9042,0.0009993,-0.000152236,0.000166925,0.00102301,-0.000175946,0.141091,0.000747588,0.0150423,1924,1338,38.3018,-10.9042
707,-314,38.302,10.2987,0.000819508,-5.37684e-05,0.000431306,0.000996611,-0.000230871,0.389628,0.000753252,0.0145091,1931,1338,38.302,-10.2987
714,-314,38.2637,9.75403,0.000568115,5.96751e-05,0.000709666,0.00106772,-0.00043993,0.613406,0.000895244,0.011513,1938,1338,38.2637,-9.75398
721,-314,38.2371,9.21497,0.000297014,0.000134227,0.00101067,0.00122956,-0.000798322,0.745218,0.00117959,0.0262455,1945,1338,38.237,-9.21501
728,-314,38.5051,8.96838,0,0,0,0,0,0,0,-1,1952,1338,38.5051,-8.96834
735,-314,26.3665,6.21582,0,0,0,0,0,0,0,-1,1959,1338,26.3664,-6.21581
742,-314,26.2235,6.0166,0,0,0,0,0,0,0,-1,1966,1338,26.2235,-6.01662
749,-314,26.2223,5.47046,0,0,0,0,0,0,0,-1,1973,1338,26.2223,-5.47041
756,-314,24.2521,5.93408,0,0,0,0,0,0,0,-1,1980,1338,24.252,-5.93413
763,-314,19.2207,4.07239,0,0,0,0,0,0,0,-1,1987,1338,19.2206,-4.07239
770,-314,0,0,0,0,0,0,0,0,0,-1,1994,1338,0,0
777,-314,0,0,0,0,0,0,0,0,0,-1,2001,1338,0,0
784,-314,0,0,0,0,0,0,0,0,0,-1,2008,1338,0,0
791,-314,0,0,0,0,0,0,0,0,0,-1,2015,1338,0,0
798,-314,0,0,0,0,0,0,0,0,0,-1,2022,1338,0,0
805,-314,0,0,0,0,0,0,0,0,0,-1,2029,1338,0,0
812,-314,0,0,0,0,0,0,0,0,0,-1,2036,1338,0,0
-700,-321,0,0,0,0,0,0,0,0,0,-1,524,1345,0,0
-693,-321,0,0,0,0,0,0,0,0,0,-1,531,1345,0,0
-686,-321,0,0,0,0,0,0,0,0,0,-1,538,1345,0,0
-679,-321,0,0,0,0,0,0,0,0,0,-1,545,1345,0,0
-672,-321,0,0,0,0,0,0,0,0,0,-1,552,1345,0,0
-665,-321,0,0,0,0,0,0,0,0,0,-1,559,1345,0,0
-658,-321,0,0,0,0,0,0,0,0,0,-1,566,1345,0,0
-651,-321,0,0,0,0,0,0,0,0,0,-1,573,1345,0,0
-644,-321,-17.2769,5.65454,0,0,0,0,0,0,0,-1,580,1345,-17.2768,-5.65454
-637,-321,-13.3991,3.59241,0,0,0,0,0,0,0,-1,587,1345,-13.3991,-3.59236
-630,-321,-13.2958,3.65039,0,0,0,0,0,0,0,-1,594,1345,-13.2958,-3.65042
-623,-321,-13.2242,3.14148,0,0,0,0,0,0,0,-1,601,1345,-13.2243,-3.14146
-616,-321,-11.6754,3.13794,0,0,0,0,0,0,0,-1,608,1345,-11.6754,-3.13789
-609,-321,-7.95209,1.14758,0,0,0,0,0,0,0,-1,615,1345,-7.95208,-1.14757
-602,-321,-8.85791,2.50049,0,0,0,0,0,0,0,-1,622,1345,-8.85791,-2.50048
-595,-321,-19.8463,5.36584,0,0,0,0,0,0,0,-1,629,1345,-19.8462,-5.36589
-588,-321,-22.1452,6.99805,0,0,0,0,0,0,0,-1,636,1345,-22.1452,-6.99804
-581,-321,-22.0289,7.703,0.00300007,0.00209764,0.00156977,0.00418219,0.000915522,0.645452,0.00253859,0.0134503,643,1345,-22.0289,-7.70301
-574,-321,-22.0593,8.33728,0.00259651,0.00164665,0.00122344,0.00343397,0.000809192,0.600254,0.00207292,0.0156326,650,1345,-22.0593,-8.33725
-567,-321,-22.0469,9.00256,0.00250019,0.00120839,0.00103719,0.00307616,0.000632431,0.506911,0.00187584,0.0235785,657,1345,-22.0469,-9.00252
-560,-321,-22.0477,9.68774,0.00268422,0.000817496,0.000995297,0.00311533,0.000386388,0.40875,0.00196082,0.0265694,664,1345,-22.0477,-9.6877
-553,-321,-22.1188,10.2726,0.00312149,0.000428983,0.00108962,0.0035072,4.32786e-05,0.340216,0.00232384,0.0271332,671,1345,-22.1188,-10.2726
-546,-321,-22.1841,10.8583,0.00383632,6.96192e-05,0.0013205,0.00425313,-0.000347189,0.305747,0.00295795,0.0275345,678,1345,-22.1841,-10.8583
-539,-321,-22.1667,11.4854,0.00488166,-0.000205973,0.00171829,0.00540762,-0.000731934,0.297039,0.00387219,0.0255873,685,1345,-22.1668,-11.4854
-532,-321,-22.0962,12.1252,0.00636882,-0.000364465,0.00233489,0.00709925,-0.0010949,0.303188,0.00513685,0.0358652,692,1345,-22.0962,-12.1252
-525,-321,-22.0516,12.7634,0,0,0,0,0,0,0,-1,699,1345,-22.0516,-12.7635
-518,-321,-10.3564,6.75696,0,0,0,0,0,0,0,-1,706,1345,-10.3564,-6.75694
-511,-321,-9.3302,5.29297,0,0,0,0,0,0,0,-1,713,1345,-9.33023,-5.29294
-504,-321,-10.4713,0.0145264,0,0,0,0,0,0,0,-1,720,1345,-10.4713,-0.0145296
-497,-321,-9.96771,0.313599,0,0,0,0,0,0,0,-1,727,1345,-9.96769,-0.313618
-490,-321,-10.7631,0.973511,0,0,0,0,0,0,0,-1,734,1345,-10.7631,-0.97353
-483,-321,-17.5908,0.2323,0,0,0,0,0,0,0,-1,741,1345,-17.5908,-0.232355
-476,-321,-17.2915,0.297363,0,0,0,0,0,0,0,-1,748,1345,-17.2915,-0.297342
-469,-321,-17.2441,0.478027,0,0,0,0,0,0,0,-1,755,1345,-17.2441,-0.477994
-462,-321,-17.1672,0.526489,0,0,0,0,0,0,0,-1,762,1345,-17.1672,-0.526533
-455,-321,0,0,0,0,0,0,0,0,0,-1,769,1345,0,0
-448,-321,0,0,0,0,0,0,0,0,0,-1,776,1345,0,0
-441,-321,0,0,0,0,0,0,0,0,0,-1,783,1345,0,0
-434,-321,0,0,0,0,0,0,0,0,0,-1,790,1345,0,0
-427,-321,0,0,0,0,0,0,0,0,0,-1,797,1345,0,0
-420,-321,0,0,0,0,0,0,0,0,0,-1,804,1345,0,0
-413,-321,0,0,0,0,0,0,0,0,0,-1,811,1345,0,0
-406,-321,0,0,0,0,0,0,0,0,0,-1,818,1345,0,0
-399,-321,0,0,0,0,0,0,0,0,0,-1,825,1345,0,0
-392,-321,0,0,0,0,0,0,0,0,0,-1,832,1345,0,0
-385,-321,0,0,0,0,0,0,0,0,0,-1,839,1345,0,0
-378,-321,0,0,0,0,0,0,0,0,0,-1,846,1345,0,0
-371,-321,0,0,0,0,0,0,0,0,0,-1,853,1345,0,0
-364,-321,0,0,0,0,0,0,0,0,0,-1,860,1345,0,0
-357,-321,0,0,0,0,0,0,0,0,0,-1,867,1345,0,0
-350,-321,0,0,0,0,0,0,0,0,0,-1,874,1345,0,0
-343,-321,0,0,0,0,0,0,0,0,0,-1,881,1345,0,0
-336,-321,0,0,0,0,0,0,0,0,0,-1,888,1345,0,0
-329,-321,0,0,0,0,0,0,0,0,0,-1,895,1345,0,0
-322,-321,0,0,0,0,0,0,0,0,0,-1,902,1345,0,0
-315,-321,0,0,0,0,0,0,0,0,0,-1,909,1345,0,0
-308,-321,0,0,0,0,0,0,0,0,0,-1,916,1345,0,0
-301,-321,0,0,0,0,0,0,0,0,0,-1,923,1345,0,0
-294,-321,0,0,0,0,0,0,0,0,0,-1,930,1345,0,0
-287,-321,0,0,0,0,0,0,0,0,0,-1,937,1345,0,0
-280,-321,0,0,0,0,0,0,0,0,0,-1,944,1345,0,0
-273,-321,0,0,0,0,0,0,0,0,0,-1,951,1345,0,0
-266,-321,0,0,0,0,0,0,0,0,0,-1,958,1345,0,0
-259,-321,0,0,0,0,0,0,0,0,0,-1,965,1345,0,0
-252,-321,0,0,0,0,0,0,0,0,0,-1,972,1345,0,0
-245,-321,0,0,0,0,0,0,0,0,0,-1,979,1345,0,0
-238,-321,0,0,0,0,0,0,0,0,0,-1,986,1345,0,0
-231,-321,0,0,0,0,0,0,0,0,0,-1,993,1345,0,0
-224,-321,0,0,0,0,0,0,0,0,0,-1,1000,1345,0,0
-217,-321,0,0,0,0,0,0,0,0,0,-1,1007,1345,0,0
-210,-321,0,0,0,0,0,0,0,0,0,-1,1014,1345,0,0
-203,-321,0,0,0,0,0,0,0,0,0,-1,1021,1345,0,0
-196,-321,0,0,0,0,0,0,0,0,0,-1,1028,1345,0,0
-189,-321,0,0,0,0,0,0,0,0,0,-1,1035,1345,0,0
-182,-321,0,0,0,0,0,0,0,0,0,-1,1042,1345,0,0
-175,-321,0,0,0,0,0,0,0,0,0,-1,1049,1345,0,0
-168,-321,0,0,0,0,0,0,0,0,0,-1,1056,1345,0,0
-161,-321,0,0,0,0,0,0,0,0,0,-1,1063,1345,0,0
-154,-321,0,0,0,0,0,0,0,0,0,-1,1070,1345,0,0
-147,-321,0,0,0,0,0,0,0,0,0,-1,1077,1345,0,0
-140,-321,0,0,0,0,0,0,0,0,0,-1,1084,1345,0,0
-133,-321,0,0,0,0,0,0,0,0,0,-1,1091,1345,0,0
-126,-321,0,0,0,0,0,0,0,0,0,-1,1098,1345,0,0
-119,-321,0,0,0,0,0,0,0,0,0,-1,1105,1345,0,0
-112,-321,0,0,0,0,0,0,0,0,0,-1,1112,1345,0,0
-105,-321,0,0,0,0,0,0,0,0,0,-1,1119,1345,0,0
-98,-321,0,0,0,0,0,0,0,0,0,-1,1126,1345,0,0
-91,-321,0,0,0,0,0,0,0,0,0,-1,1133,1345,0,0
-84,-321,0,0,0,0,0,0,0,0,0,-1,1140,1345,0,0
-77,-321,0,0,0,0,0,0,0,0,0,-1,1147,1345,0,0
-70,-321,0,0,0,0,0,0,0,0,0,-1,1154,1345,0,0
-63,-321,0,0,0,0,0,0,0,0,0,-1,1161,1345,0,0
-56,-321,0,0,0,0,0,0,0,0,0,-1,1168,1345,0,0
-49,-321,0,0,0,0,0,0,0,0,0,-1,1175,1345,0,0
-42,-321,0,0,0,0,0,0,0,0,0,-1,1182,1345,0,0
-35,-321,0,0,0,0,0,0,0,0,0,-1,1189,1345,0,0
-28,-321,0,0,0,0,0,0,0,0,0,-1,1196,1345,0,0
-21,-321,0,0,0,0,0,0,0,0,0,-1,1203,1345,0,0
-14,-321,0,0,0,0,0,0,0,0,0,-1,1210,1345,0,0
-7,-321,0,0,0,0,0,0,0,0,0,-1,1217,1345,0,0
0,-321,0,0,0,0,0,0,0,0,0,-1,1224,1345,0,0
7,-321,0,0,0,0,0,0,0,0,0,-1,1231,1345,0,0
14,-321,0,0,0,0,0,0,0,0,0,-1,1238,1345,0,0
21,-321,0,0,0,0,0,0,0,0,0,-1,1245,1345,0,0
28,-321,0,0,0,0,0,0,0,0,0,-1,1252,1345,0,0
35,-321,0,0,0,0,0,0,0,0,0,-1,1259,1345,0,0
42,-321,0,0,0,0,0,0,0,0,0,-1,1266,1345,0,0
49,-321,0,0,0,0,0,0,0,0,0,-1,1273,1345,0,0
56,-321,0,0,0,0,0,0,0,0,0,-1,1280,1345,0,0
63,-321,0,0,0,0,0,0,0,0,0,-1,1287,1345,0,0
70,-321,0,0,0,0,0,0,0,0,0,-1,1294,1345,0,0
77,-321,0,0,0,0,0,0,0,0,0,-1,1301,1345,0,0
84,-321,0,0,0,0,0,0,0,0,0,-1,1308,1345,0,0
91,-321,0,0,0,0,0,0,0,0,0,-1,1315,1345,0,0
98,-321,0,0,0,0,0,0,0,0,0,-1,1322,1345,0,0
105,-321,0,0,0,0,0,0,0,0,0,-1,1329,1345,0,0
112,-321,0,0,0,0,0,0,0,0,0,-1,1336,1345,0,0
119,-321,0,0,0,0,0,0,0,0,0,-1,1343,1345,0,0
126,-321,0,0,0,0,0,0,0,0,0,-1,1350,1345,0,0
133,-321,0,0,0,0,0,0,0,0,0,-1,1357,1345,0,0
140,-321,0,0,0,0,0,0,0,0,0,-1,1364,1345,0,0
147,-321,0,0,0,0,0,0,0,0,0,-1,1371,1345,0,0
154,-321,0,0,0,0,0,0,0,0,0,-1,1378,1345,0,0
161,-321,0,0,0,0,0,0,0,0,0,-1,1385,1345,0,0
168,-321,0,0,0,0,0,0,0,0,0,-1,1392,1345,0,0
175,-321,0,0,0,0,0,0,0,0,0,-1,1399,1345,0,0
182,-321,0,0,0,0,0,0,0,0,0,-1,1406,1345,0,0
189,-321,0,0,0,0,0,0,0,0,0,-1,1413,1345,0,0
196,-321,0,0,0,0,0,0,0,0,0,-1,1420,1345,0,0
203,-321,0,0,0,0,0,0,0,0,0,-1,1427,1345,0,0
210,-321,0,0,0,0,0,0,0,0,0,-1,1434,1345,0,0
217,-321,0,0,0,0,0,0,0,0,0,-1,1441,1345,0,0
224,-321,0,0,0,0,0,0,0,0,0,-1,1448,1345,0,0
231,-321,0,0,0,0,0,0,0,0,0,-1,1455,1345,0,0
238,-321,0,0,0,0,0,0,0,0,0,-1,1462,1345,0,0
245,-321,0,0,0,0,0,0,0,0,0,-1,1469,1345,0,0
252,-321,0,0,0,0,0,0,0,0,0,-1,1476,1345,0,0
259,-321,0,0,0,0,0,0,0,0,0,-1,1483,1345,0,0
266,-321,0,0,0,0,0,0,0,0,0,-1,1490,1345,0,0
273,-321,0,0,0,0,0,0,0,0,0,-1,1497,1345,0,0
280,-321,0,0,0,0,0,0,0,0,0,-1,1504,1345,0,0
287,-321,0,0,0,0,0,0,0,0,0,-1,1511,1345,0,0
294,-321,0,0,0,0,0,0,0,0,0,-1,1518,1345,0,0
301,-321,0,0,0,0,0,0,0,0,0,-1,1525,1345,0,0
308,-321,0,0,0,0,0,0,0,0,0,-1,1532,1345,0,0
315,-321,0,0,0,0,0,0,0,0,0,-1,1539,1345,0,0
322,-321,0,0,0,0,0,0,0,0,0,-1,1546,1345,0,0
329,-321,0,0,0,0,0,0,0,0,0,-1,1553,1345,0,0
336,-321,0,0,0,0,0,0,0,0,0,-1,1560,1345,0,0
343,-321,0,0,0,0,0,0,0,0,0,-1,1567,1345,0,0
350,-321,0,0,0,0,0,0,0,0,0,-1,1574,1345,0,0
357,-321,0,0,0,0,0,0,0,0,0,-1,1581,1345,0,0
364,-321,0,0,0,0,0,0,0,0,0,-1,1588,1345,0,0
371,-321,0,0,0,0,0,0,0,0,0,-1,1595,1345,0,0
378,-321,0,0,0,0,0,0,0,0,0,-1,1602,1345,0,0
385,-321,0,0,0,0,0,0,0,0,0,-1,1609,1345,0,0
392,-321,0,0,0,0,0,0,0,0,0,-1,1616,1345,0,0
399,-321,0,0,0,0,0,0,0,0,0,-1,1623,1345,0,0
406,-321,0,0,0,0,0,0,0,0,0,-1,1630,1345,0,0
413,-321,0,0,0,0,0,0,0,0,0,-1,1637,1345,0,0
420,-321,0,0,0,0,0,0,0,0,0,-1,1644,1345,0,0
427,-321,0,0,0,0,0,0,0,0,0,-1,1651,1345,0,0
434,-321,0,0,0,0,0,0,0,0,0,-1,1658,1345,0,0
441,-321,0,0,0,0,0,0,0,0,0,-1,1665,1345,0,0
448,-321,0,0,0,0,0,0,0,0,0,-1,1672,1345,0,0
455,-321,0,0,0,0,0,0,0,0,0,-1,1679,1345,0,0
462,-321,0,0,0,0,0,0,0,0,0,-1,1686,1345,0,0
469,-321,0,0,0,0,0,0,0,0,0,-1,1693,1345,0,0
476,-321,0,0,0,0,0,0,0,0,0,-1,1700,1345,0,0
483,-321,0,0,0,0,0,0,0,0,0,-1,1707,1345,0,0
490,-321,0,0,0,0,0,0,0,0,0,-1,1714,1345,0,0
497,-321,0,0,0,0,0,0,0,0,0,-1,1721,1345,0,0
504,-321,0,0,0,0,0,0,0,0,0,-1,1728,1345,0,0
511,-321,0,0,0,0,0,0,0,0,0,-1,1735,1345,0,0
518,-321,0,0,0,0,0,0,0,0,0,-1,1742,1345,0,0
525,-321,0,0,0,0,0,0,0,0,0,-1,1749,1345,0,0
532,-321,0,0,0,0,0,0,0,0,0,-1,1756,1345,0,0
539,-321,0,0,0,0,0,0,0,0,0,-1,1763,1345,0,0
546,-321,0,0,0,0,0,0,0,0,0,-1,1770,1345,0,0
553,-321,0,0,0,0,0,0,0,0,0,-1,1777,1345,0,0
560,-321,0,0,0,0,0,0,0,0,0,-1,1784,1345,0,0
567,-321,0,0,0,0,0,0,0,0,0,-1,1791,1345,0,0
574,-321,0,0,0,0,0,0,0,0,0,-1,1798,1345,0,0
581,-321,59.2018,1.7915,-0.00555675,0.0867945,0.0174164,0.0899699,-0.00873212,1.39046,0.0630924,0.0414611,1805,1345,59.2017,-1.79155
588,-321,58.9794,1.9939,-0.00415483,0.105132,0.0194512,0.108491,-0.00751358,1.39981,0.0749573,0.0481926,1812,1345,58.9793,-1.99388
595,-321,58.7632,2.00488,0,0,0,0,0,0,0,-1,1819,1345,58.7632,-2.00484
602,-321,58.7485,2.00928,0,0,0,0,0,0,0,-1,1826,1345,58.7485,-2.00923
609,-321,48.311,3.39575,0,0,0,0,0,0,0,-1,1833,1345,48.311,-3.39571
616,-321,37.8107,2.58704,0,0,0,0,0,0,0,-1,1840,1345,37.8106,-2.58705
623,-321,37.6854,3.68933,0,0,0,0,0,0,0,-1,1847,1345,37.6854,-3.68931
630,-321,23.6674,4.34106,0,0,0,0,0,0,0,-1,1854,1345,23.6674,-4.34112
637,-321,21.7925,6.79224,0,0,0,0,0,0,0,-1,1861,1345,21.7925,-6.7922
644,-321,16.8844,6.71973,0,0,0,0,0,0,0,-1,1868,1345,16.8844,-6.71971
651,-321,27.4924,10.0319,0,0,0,0,0,0,0,-1,1875,1345,27.4924,-10.0319
658,-321,37.6858,14.4938,0,0,0,0,0,0,0,-1,1882,1345,37.6858,-14.4938
665,-321,37.7463,13.9491,0.00168707,0.000479005,-0.000798532,0.00208429,8.17832e-05,-0.461597,0.00136308,0.023926,1889,1345,37.7463,-13.9491
672,-321,37.7943,13.3075,0.00140206,-0.000157535,-0.000669531,0.00165005,-0.00040553,-0.354732,0.0012572,0.0136101,1896,1345,37.7943,-13.3075
679,-321,37.7937,12.7009,0.00122721,-0.000258041,-0.000489602,0.00137408,-0.000404911,-0.291438,0.00107671,0.0118584,1903,1345,37.7938,-12.7009
686,-321,37.7217,12.1129,0.00127863,-0.000220548,-0.000307981,0.00133944,-0.000281351,-0.194919,0.00100002,0.0127525,1910,1345,37.7216,-12.113
693,-321,37.6974,11.5355,0.0013036,-0.000138415,-0.000142206,0.00131749,-0.000152305,-0.0973667,0.000933245,0.0125179,1917,1345,37.6974,-11.5355
700,-321,37.7043,10.9429,0.00131489,-2.29348e-05,3.13865e-05,0.00131562,-2.36707e-05,0.0234437,0.000885077,0.0130172,1924,1345,37.7043,-10.9429
707,-321,37.6974,10.3462,0.001269,0.00010339,0.000228664,0.00131226,6.01369e-05,0.186947,0.000855496,0.0152492,1931,1345,37.6973,-10.3462
714,-321,37.6675,9.74841,0.00113939,0.000251964,0.000446125,0.00132489,6.64639e-05,0.394054,0.00086196,0.0137607,1938,1345,37.6675,-9.7484
721,-321,37.5619,9.17749,0.000999213,0.000309464,0.000728979,0.00146078,-0.000152104,0.564453,0.00102831,0.0408638,1945,1345,37.5619,-9.17754
728,-321,37.5315,8.67651,0,0,0,0,0,0,0,-1,1952,1345,37.5315,-8.67646
735,-321,22.0081,5.65479,0,0,0,0,0,0,0,-1,1959,1345,22.008,-5.65481
742,-321,24.5398,5.05725,0,0,0,0,0,0,0,-1,1966,1345,24.5398,-5.05729
749,-321,24.0675,5.4458,0,0,0,0,0,0,0,-1,1973,1345,24.0675,-5.44581
756,-321,19.6251,4.98315,0,0,0,0,0,0,0,-1,1980,1345,19.6251,-4.98311
763,-321,19.6747,4.61438,0,0,0,0,0,0,0,-1,1987,1345,19.6747,-4.61436
770,-321,0,0,0,0,0,0,0,0,0,-1,1994,1345,0,0
777,-321,0,0,0,0,0,0,0,0,0,-1,2001,1345,0,0
784,-321,0,0,0,0,0,0,0,0,0,-1,2008,1345,0,0
791,-321,0,0,0,0,0,0,0,0,0,-1,2015,1345,0,0
798,-321,0,0,0,0,0,0,0,0,0,-1,2022,1345,0,0
805,-321,0,0,0,0,0,0,0,0,0,-1,2029,1345,0,0
812,-321,0,0,0,0,0,0,0,0,0,-1,2036,1345,0,0
-700,-328,0,0,0,0,0,0,0,0,0,-1,524,1352,0,0
-693,-328,0,0,0,0,0,0,0,0,0,-1,531,1352,0,0
-686,-328,0,0,0,0,0,0,0,0,0,-1,538,1352,0,0
-679,-328,0,0,0,0,0,0,0,0,0,-1,545,1352,0,0
-672,-328,0,0,0,0,0,0,0,0,0,-1,552,1352,0,0
-665,-328,0,0,0,0,0,0,0,0,0,-1,559,1352,0,0
-658,-328,0,0,0,0,0,0,0,0,0,-1,566,1352,0,0
-651,-328,0,0,0,0,0,0,0,0,0,-1,573,1352,0,0
-644,-328,0,0,0,0,0,0,0,0,0,-1,580,1352,0,0
-637,-328,-12.0695,1.02014,0,0,0,0,0,0,0,-1,587,1352,-12.0694,-1.02017
-630,-328,-13.3971,4.54578,0,0,0,0,0,0,0,-1,594,1352,-13.3971,-4.54572
-623,-328,-10.7739,4.55042,0,0,0,0,0,0,0,-1,601,1352,-10.7739,-4.55041
-616,-328,-8.22198,-0.25708,0,0,0,0,0,0,0,-1,608,1352,-8.22201,0.257067
-609,-328,-7.87439,0.192871,0,0,0,0,0,0,0,-1,615,1352,-7.87441,-0.192822
-602,-328,-7.63062,1.31665,0,0,0,0,0,0,0,-1,622,1352,-7.63064,-1.3166
-595,-328,-9.42639,2.93494,0,0,0,0,0,0,0,-1,629,1352,-9.42638,-2.93499
-588,-328,-21.5477,6.8064,0,0,0,0,0,0,0,-1,636,1352,-21.5477,-6.8064
-581,-328,-21.4203,7.6842,0.00357437,0.0028299,0.00176042,0.00500149,0.00140279,0.681209,0.00297894,0.0265654,643,1352,-21.4204,-7.68426
-574,-328,-21.4147,8.37598,0.00285632,0.00215761,0.00137221,0.00392295,0.00109098,0.660749,0.00233808,0.0150613,650,1352,-21.4146,-8.37596
-567,-328,-21.4321,9.03101,0.00254621,0.0015862,0.00114423,0.00330704,0.000825374,0.586798,0.00198754,0.02114,657,1352,-21.4321,-9.03104
-560,-328,-21.4077,9.71545,0.00256074,0.00109942,0.00107515,0.00313001,0.000530155,0.48695,0.00193433,0.0284194,664,1352,-21.4077,-9.71545
-553,-328,-21.4458,10.3429,0.00285145,0.000675134,0.00112915,0.00333144,0.000195148,0.401942,0.00215885,0.0297127,671,1352,-21.4458,-10.3429
-546,-328,-21.5071,10.9158,0.00342193,0.000313412,0.00130901,0.00389972,-0.000164382,0.349977,0.00265631,0.0286811,678,1352,-21.5071,-10.9157
-539,-328,-21.5522,11.5135,0.00428346,3.25284e-05,0.00164005,0.00484265,-0.00052666,0.328597,0.00341754,0.0252246,685,1352,-21.5522,-11.5136
-532,-328,-21.526,12.1648,0.00551203,-0.000135024,0.00215937,0.00624311,-0.000866098,0.326446,0.00447877,0.0202035,692,1352,-21.526,-12.1647
-525,-328,-21.5305,12.8615,0.00711382,-0.000377311,0.00284149,0.00806967,-0.00133316,0.3245,0.00587481,0.0341127,699,1352,-21.5305,-12.8614
-518,-328,-21.6118,13.5632,0,0,0,0,0,0,0,-1,706,1352,-21.6118,-13.5633
-511,-328,-9.39868,7.16113,0,0,0,0,0,0,0,-1,713,1352,-9.39869,-7.16113
-504,-328,-8.60626,-0.905762,0,0,0,0,0,0,0,-1,720,1352,-8.60623,0.905787
-497,-328,-9.29102,-0.0517578,0,0,0,0,0,0,0,-1,727,1352,-9.29104,0.0518175
-490,-328,-10.0663,0.882813,0,0,0,0,0,0,0,-1,734,1352,-10.0663,-0.882795
-483,-328,-10.8181,1.72375,0,0,0,0,0,0,0,-1,741,1352,-10.8181,-1.72374
-476,-328,-16.8951,-0.150757,0,0,0,0,0,0,0,-1,748,1352,-16.8951,0.150795
-469,-328,-16.8412,0.00158691,0,0,0,0,0,0,0,-1,755,1352,-16.8412,-0.00161515
-462,-328,-16.3546,-0.203491,0,0,0,0,0,0,0,-1,762,1352,-16.3545,0.203532
-455,-328,0,0,0,0,0,0,0,0,0,-1,769,1352,0,0
-448,-328,0,0,0,0,0,0,0,0,0,-1,776,1352,0,0
-441,-328,0,0,0,0,0,0,0,0,0,-1,783,1352,0,0
-434,-328,0,0,0,0,0,0,0,0,0,-1,790,1352,0,0
-427,-328,0,0,0,0,0,0,0,0,0,-1,797,1352,0,0
-420,-328,0,0,0,0,0,0,0,0,0,-1,804,1352,0,0
-413,-328,0,0,0,0,0,0,0,0,0,-1,811,1352,0,0
-406,-328,0,0,0,0,0,0,0,0,0,-1,818,1352,0,0
-399,-328,0,0,0,0,0,0,0,0,0,-1,825,1352,0,0
-392,-328,0,0,0,0,0,0,0,0,0,-1,832,1352,0,0
-385,-328,0,0,0,0,0,0,0,0,0,-1,839,1352,0,0
-378,-328,0,0,0,0,0,0,0,0,0,-1,846,1352,0,0
-371,-328,0,0,0,0,0,0,0,0,0,-1,853,1352,0,0
-364,-328,0,0,0,0,0,0,0,0,0,-1,860,1352,0,0
-357,-328,0,0,0,0,0,0,0,0,0,-1,867,1352,0,0
-350,-328,0,0,0,0,0,0,0,0,0,-1,874,1352,0,0
-343,-328,0,0,0,0,0,0,0,0,0,-1,881,1352,0,0
-336,-328,0,0,0,0,0,0,0,0,0,-1,888,1352,0,0
-329,-328,0,0,0,0,0,0,0,0,0,-1,895,1352,0,0
-322,-328,0,0,0,0,0,0,0,0,0,-1,902,1352,0,0
-315,-328,0,0,0,0,0,0,0,0,0,-1,909,1352,0,0
-308,-328,0,0,0,0,0,0,0,0,0,-1,916,1352,0,0
-301,-328,0,0,0,0,0,0,0,0,0,-1,923,1352,0,0
-294,-328,0,0,0,0,0,0,0,0,0,-1,930,1352,0,0
-287,-328,0,0,0,0,0,0,0,0,0,-1,937,1352,0,0
-280,-328,0,0,0,0,0,0,0,0,0,-1,944,1352,0,0
-273,-328,0,0,0,0,0,0,0,0,0,-1,951,1352,0,0
-266,-328,0,0,0,0,0,0,0,0,0,-1,958,1352,0,0
-259,-328,0,0,0,0,0,0,0,0,0,-1,965,1352,0,0
-252,-328,0,0,0,0,0,0,0,0,0,-1,972,1352,0,0
-245,-328,0,0,0,0,0,0,0,0,0,-1,979,1352,0,0
-238,-328,0,0,0,0,0,0,0,0,0,-1,986,1352,0,0
-231,-328,0,0,0,0,0,0,0,0,0,-1,993,1352,0,0
-224,-328,0,0,0,0,0,0,0,0,0,-1,1000,1352,0,0
-217,-328,0,0,0,0,0,0,0,0,0,-1,1007,1352,0,0
-210,-328,0,0,0,0,0,0,0,0,0,-1,1014,1352,0,0
-203,-328,0,0,0,0,0,0,0,0,0,-1,1021,1352,0,0
-196,-328,0,0,0,0,0,0,0,0,0,-1,1028,1352,0,0
-189,-328,0,0,0,0,0,0,0,0,0,-1,1035,1352,0,0
-182,-328,0,0,0,0,0,0,0,0,0,-1,1042,1352,0,0
-175,-328,0,0,0,0,0,0,0,0,0,-1,1049,1352,0,0
-168,-328,0,0,0,0,0,0,0,0,0,-1,1056,1352,0,0
-161,-328,0,0,0,0,0,0,0,0,0,-1,1063,1352,0,0
-154,-328,0,0,0,0,0,0,0,0,0,-1,1070,1352,0,0
-147,-328,0,0,0,0,0,0,0,0,0,-1,1077,1352,0,0
-140,-328,0,0,0,0,0,0,0,0,0,-1,1084,1352,0,0
-133,-328,0,0,0,0,0,0,0,0,0,-1,1091,1352,0,0
-126,-328,0,0,0,0,0,0,0,0,0,-1,1098,1352,0,0
-119,-328,0,0,0,0,0,0,0,0,0,-1,1105,1352,0,0
-112,-328,0,0,0,0,0,0,0,0,0,-1,1112,1352,0,0
-105,-328,0,0,0,0,0,0,0,0,0,-1,1119,1352,0,0
-98,-328,0,0,0,0,0,0,0,0,0,-1,1126,1352,0,0
-91,-328,0,0,0,0,0,0,0,0,0,-1,1133,1352,0,0
-84,-328,0,0,0,0,0,0,0,0,0,-1,1140,1352,0,0
-77,-328,0,0,0,0,0,0,0,0,0,-1,1147,1352,0,0
-70,-328,0,0,0,0,0,0,0,0,0,-1,1154,1352,0,0
-63,-328,0,0,0,0,0,0,0,0,0,-1,1161,1352,0,0
-56,-328,0,0,0,0,0,0,0,0,0,-1,1168,1352,0,0
-49,-328,0,0,0,0,0,0,0,0,0,-1,1175,1352,0,0
-42,-328,0,0,0,0,0,0,0,0,0,-1,1182,1352,0,0
-35,-328,0,0,0,0,0,0,0,0,0,-1,1189,1352,0,0
-28,-328,0,0,0,0,0,0,0,0,0,-1,1196,1352,0,0
-21,-328,0,0,0,0,0,0,0,0,0,-1,1203,1352,0,0
-14,-328,0,0,0,0,0,0,0,0,0,-1,1210,1352,0,0
-7,-328,0,0,0,0,0,0,0,0,0,-1,1217,1352,0,0
0,-328,0,0,0,0,0,0,0,0,0,-1,1224,1352,0,0
7,-328,0,0,0,0,0,0,0,0,0,-1,1231,1352,0,0
14,-328,0,0,0,0,0,0,0,0,0,-1,1238,1352,0,0
21,-328,0,0,0,0,0,0,0,0,0,-1,1245,1352,0,0
28,-328,0,0,0,0,0,0,0,0,0,-1,1252,1352,0,0
35,-328,0,0,0,0,0,0,0,0,0,-1,1259,1352,0,0
42,-328,0,0,0,0,0,0,0,0,0,-1,1266,1352,0,0
49,-328,0,0,0,0,0,0,0,0,0,-1,1273,1352,0,0
56,-328,0,0,0,0,0,0,0,0,0,-1,1280,1352,0,0
63,-328,0,0,0,0,0,0,0,0,0,-1,1287,1352,0,0
70,-328,0,0,0,0,0,0,0,0,0,-1,1294,1352,0,0
77,-328,0,0,0,0,0,0,0,0,0,-1,1301,1352,0,0
84,-328,0,0,0,0,0,0,0,0,0,-1,1308,1352,0,0
91,-328,0,0,0,0,0,0,0,0,0,-1,1315,1352,0,0
98,-328,0,0,0,0,0,0,0,0,0,-1,1322,1352,0,0
105,-328,0,0,0,0,0,0,0,0,0,-1,1329,1352,0,0
112,-328,0,0,0,0,0,0,0,0,0,-1,1336,1352,0,0
119,-328,0,0,0,0,0,0,0,0,0,-1,1343,1352,0,0
126,-328,0,0,0,0,0,0,0,0,0,-1,1350,1352,0,0
133,-328,0,0,0,0,0,0,0,0,0,-1,1357,1352,0,0
140,-328,0,0,0,0,0,0,0,0,0,-1,1364,1352,0,0
147,-328,0,0,0,0,0,0,0,0,0,-1,1371,1352,0,0
154,-328,0,0,0,0,0,0,0,0,0,-1,1378,1352,0,0
161,-328,0,0,0,0,0,0,0,0,0,-1,1385,1352,0,0
168,-328,0,0,0,0,0,0,0,0,0,-1,1392,1352,0,0
175,-328,0,0,0,0,0,0,0,0,0,-1,1399,1352,0,0
182,-328,0,0,0,0,0,0,0,0,0,-1,1406,1352,0,0
189,-328,0,0,0,0,0,0,0,0,0,-1,1413,1352,0,0
196,-328,0,0,0,0,0,0,0,0,0,-1,1420,1352,0,0
203,-328,0,0,0,0,0,0,0,0,0,-1,1427,1352,0,0
210,-328,0,0,0,0,0,0,0,0,0,-1,1434,1352,0,0
217,-328,0,0,0,0,0,0,0,0,0,-1,1441,1352,0,0
224,-328,0,0,0,0,0,0,0,0,0,-1,1448,1352,0,0
231,-328,0,0,0,0,0,0,0,0,0,-1,1455,1352,0,0
238,-328,0,0,0,0,0,0,0,0,0,-1,1462,1352,0,0
245,-328,0,0,0,0,0,0,0,0,0,-1,1469,1352,0,0
252,-328,0,0,0,0,0,0,0,0,0,-1,1476,1352,0,0
259,-328,0,0,0,0,0,0,0,0,0,-1,1483,1352,0,0
266,-328,0,0,0,0,0,0,0,0,0,-1,1490,1352,0,0
273,-328,0,0,0,0,0,0,0,0,0,-1,1497,1352,0,0
280,-328,0,0,0,0,0,0,0,0,0,-1,1504,1352,0,0
287,-328,0,0,0,0,0,0,0,0,0,-1,1511,1352,0,0
294,-328,0,0,0,0,0,0,0,0,0,-1,1518,1352,0,0
301,-328,0,0,0,0,0,0,0,0,0,-1,1525,1352,0,0
308,-328,0,0,0,0,0,0,0,0,0,-1,1532,1352,0,0
315,-328,0,0,0,0,0,0,0,0,0,-1,1539,1352,0,0
322,-328,0,0,0,0,0,0,0,0,0,-1,1546,1352,0,0
329,-328,0,0,0,0,0,0,0,0,0,-1,1553,1352,0,0
336,-328,0,0,0,0,0,0,0,0,0,-1,1560,1352,0,0
343,-328,0,0,0,0,0,0,0,0,0,-1,1567,1352,0,0
350,-328,0,0,0,0,0,0,0,0,0,-1,1574,1352,0,0
357,-328,0,0,0,0,0,0,0,0,0,-1,1581,1352,0,0
364,-328,0,0,0,0,0,0,0,0,0,-1,1588,1352,0,0
371,-328,0,0,0,0,0,0,0,0,0,-1,1595,1352,0,0
378,-328,0,0,0,0,0,0,0,0,0,-1,1602,1352,0,0
385,-328,0,0,0,0,0,0,0,0,0,-1,1609,1352,0,0
392,-328,0,0,0,0,0,0,0,0,0,-1,1616,1352,0,0
399,-328,0,0,0,0,0,0,0,0,0,-1,1623,1352,0,0
406,-328,0,0,0,0,0,0,0,0,0,-1,1630,1352,0,0
413,-328,0,0,0,0,0,0,0,0,0,-1,1637,1352,0,0
420,-328,0,0,0,0,0,0,0,0,0,-1,1644,1352,0,0
427,-328,0,0,0,0,0,0,0,0,0,-1,1651,1352,0,0
434,-328,0,0,0,0,0,0,0,0,0,-1,1658,1352,0,0
441,-328,0,0,0,0,0,0,0,0,0,-1,1665,1352,0,0
448,-328,0,0,0,0,0,0,0,0,0,-1,1672,1352,0,0
455,-328,0,0,0,0,0,0,0,0,0,-1,1679,1352,0,0
462,-328,0,0,0,0,0,0,0,0,0,-1,1686,1352,0,0
469,-328,0,0,0,0,0,0,0,0,0,-1,1693,1352,0,0
476,-328,0,0,0,0,0,0,0,0,0,-1,1700,1352,0,0
483,-328,0,0,0,0,0,0,0,0,0,-1,1707,1352,0,0
490,-328,0,0,0,0,0,0,0,0,0,-1,1714,1352,0,0
497,-328,0,0,0,0,0,0,0,0,0,-1,1721,1352,0,0
504,-328,0,0,0,0,0,0,0,0,0,-1,1728,1352,0,0
511,-328,0,0,0,0,0,0,0,0,0,-1,1735,1352,0,0
518,-328,0,0,0,0,0,0,0,0,0,-1,1742,1352,0,0
525,-328,0,0,0,0,0,0,0,0,0,-1,1749,1352,0,0
532,-328,0,0,0,0,0,0,0,0,0,-1,1756,1352,0,0
539,-328,0,0,0,0,0,0,0,0,0,-1,1763,1352,0,0
546,-328,0,0,0,0,0,0,0,0,0,-1,1770,1352,0,0
553,-328,0,0,0,0,0,0,0,0,0,-1,1777,1352,0,0
560,-328,0,0,0,0,0,0,0,0,0,-1,1784,1352,0,0
567,-328,0,0,0,0,0,0,0,0,0,-1,1791,1352,0,0
574,-328,58.4558,1.34363,-0.00721963,0.100999,0.01904,0.104252,-0.0104718,1.40162,0.0732416,0.04263,1798,1352,58.4558,-1.34364
581,-328,58.6575,1.03662,-0.00791424,0.114088,0.0217911,0.117863,-0.0116896,1.39925,0.0827475,0.0429752,1805,1352,58.6575,-1.03663
588,-328,58.8262,0.918213,-0.00437839,0.0991615,0.0177984,0.102136,-0.0073525,1.40523,0.0706689,0.0480133,1812,1352,58.8262,-0.918189
595,-328,59.0111,0.804443,0,0,0,0,0,0,0,-1,1819,1352,59.0111,-0.804433
602,-328,48.7734,3.66785,0,0,0,0,0,0,0,-1,1826,1352,48.7734,-3.66782
609,-328,37.0468,1.17407,0,0,0,0,0,0,0,-1,1833,1352,37.0468,-1.17407
616,-328,36.999,2.42859,0,0,0,0,0,0,0,-1,1840,1352,36.999,-2.42862
623,-328,34.345,5.14722,0,0,0,0,0,0,0,-1,1847,1352,34.3449,-5.14718
630,-328,22.0211,5.026,0,0,0,0,0,0,0,-1,1854,1352,22.0212,-5.02603
637,-328,21.15,5.53699,0,0,0,0,0,0,0,-1,1861,1352,21.15,-5.53704
644,-328,16.9579,6.3396,0,0,0,0,0,0,0,-1,1868,1352,16.9579,-6.33959
651,-328,36.2629,14.6906,0,0,0,0,0,0,0,-1,1875,1352,36.263,-14.6905
658,-328,37.208,14.5221,0,0,0,0,0,0,0,-1,1882,1352,37.208,-14.5221
665,-328,37.215,13.9354,0.000927087,-4.54433e-06,-0.000705141,0.00130638,-0.000383837,-0.493503,0.00102315,0.0150579,1889,1352,37.215,-13.9354
672,-328,37.2056,13.3423,0.00109599,-0.000155255,-0.000576371,0.00132102,-0.000380283,-0.372223,0.00103109,0.012736,1896,1352,37.2055,-13.3423
679,-328,37.2151,12.7289,0.00124924,-0.000149444,-0.00044201,0.00137722,-0.000277418,-0.281821,0.00102323,0.0149917,1903,1352,37.2151,-12.7289
686,-328,37.1534,12.1228,0.00142157,-0.000104027,-0.000325496,0.00148811,-0.000170571,-0.20166,0.00105355,0.0152654,1910,1352,37.1535,-12.1228
693,-328,37.1254,11.5363,0.00158662,-1.69555e-06,-0.000239084,0.00162182,-3.69038e-05,-0.146212,0.00109373,0.0102092,1917,1352,37.1253,-11.5363
700,-328,37.1099,10.9612,0.0017543,0.000146821,-0.000156874,0.00176947,0.000131655,-0.0963781,0.0011383,0.0135802,1924,1352,37.1099,-10.9611
707,-328,37.1003,10.3635,0.00185448,0.000326033,-4.99086e-05,0.00185611,0.000324405,-0.0326068,0.0011447,0.0160358,1931,1352,37.1003,-10.3635
714,-328,37.0812,9.75867,0.0018714,0.000559557,6.99607e-05,0.00187512,0.000555837,0.0531291,0.00111211,0.0166729,1938,1352,37.0812,-9.75863
721,-328,37.0333,9.20667,0,0,0,0,0,0,0,-1,1945,1352,37.0334,-9.20661
728,-328,29.2787,6.74695,0,0,0,0,0,0,0,-1,1952,1352,29.2787,-6.74693
735,-328,20.8927,5.23523,0,0,0,0,0,0,0,-1,1959,1352,20.8927,-5.23528
742,-328,20.3547,4.11316,0,0,0,0,0,0,0,-1,1966,1352,20.3547,-4.11321
749,-328,20.0669,5.66321,0,0,0,0,0,0,0,-1,1973,1352,20.0669,-5.66319
756,-328,19.9543,5.50464,0,0,0,0,0,0,0,-1,1980,1352,19.9543,-5.50463
763,-328,0,0,0,0,0,0,0,0,0,-1,1987,1352,0,0
770,-328,0,0,0,0,0,0,0,0,0,-1,1994,1352,0,0
777,-328,0,0,0,0,0,0,0,0,0,-1,2001,1352,0,0
784,-328,0,0,0,0,0,0,0,0,0,-1,2008,1352,0,0
791,-328,0,0,0,0,0,0,0,0,0,-1,2015,1352,0,0
798,-328,0,0,0,0,0,0,0,0,0,-1,2022,1352,0,0
805,-328,0,0,0,0,0,0,0,0,0,-1,2029,1352,0,0
812,-328,0,0,0,0,0,0,0,0,0,-1,2036,1352,0,0
-700,-335,0,0,0,0,0,0,0,0,0,-1,524,1359,0,0
-693,-335,0,0,0,0,0,0,0,0,0,-1,531,1359,0,0
-686,-335,0,0,0,0,0,0,0,0,0,-1,538,1359,0,0
-679,-335,0,0,0,0,0,0,0,0,0,-1,545,1359,0,0
-672,-335,0,0,0,0,0,0,0,0,0,-1,552,1359,0,0
-665,-335,0,0,0,0,0,0,0,0,0,-1,559,1359,0,0
-658,-335,0,0,0,0,0,0,0,0,0,-1,566,1359,0,0
-651,-335,0,0,0,0,0,0,0,0,0,-1,573,1359,0,0
-644,-335,0,0,0,0,0,0,0,0,0,-1,580,1359,0,0
-637,-335,-9.64746,3.53809,0,0,0,0,0,0,0,-1,587,1359,-9.64744,-3.53803
-630,-335,-6.07397,-2.99902,0,0,0,0,0,0,0,-1,594,1359,-6.07397,2.99902
-623,-335,-8.43304,1.09509,0,0,0,0,0,0,0,-1,601,1359,-8.43301,-1.09507
-616,-335,-7.80927,-0.485352,0,0,0,0,0,0,0,-1,608,1359,-7.80926,0.485291
-609,-335,-7.12256,-2.03601,0,0,0,0,0,0,0,-1,615,1359,-7.12253,2.03601
-602,-335,-9.39935,2.25146,0,0,0,0,0,0,0,-1,622,1359,-9.39935,-2.25145
-595,-335,-9.54767,3.01917,0,0,0,0,0,0,0,-1,629,1359,-9.54768,-3.01911
-588,-335,-20.8609,6.87903,0,0,0,0,0,0,0,-1,636,1359,-20.8609,-6.879
-581,-335,-20.763,7.79541,0.00404766,0.00319317,0.00200717,0.00567255,0.00156829,0.680533,0.00338239,0.0444527,643,1359,-20.763,-7.79538
-574,-335,-20.7767,8.37659,0.00308559,0.00247467,0.0015671,0.00437672,0.00118354,0.689145,0.00261419,0.0134849,650,1359,-20.7767,-8.37654
-567,-335,-20.7766,9.02954,0.00261525,0.00186499,0.00128193,0.00357581,0.000904424,0.643058,0.00214687,0.0168011,657,1359,-20.7766,-9.02953
-560,-335,-20.7685,9.65015,0.00251319,0.00135344,0.0011663,0.00323582,0.000630818,0.554698,0.00198071,0.025231,664,1359,-20.7685,-9.65012
-553,-335,-20.7829,10.3137,0.00269198,0.000914843,0.00117288,0.00327487,0.000331947,0.461227,0.00208144,0.0290968,671,1359,-20.7829,-10.3138
-546,-335,-20.8534,10.9684,0.00314192,0.000550805,0.00130297,0.00368381,8.92277e-06,0.394124,0.0024529,0.0265595,678,1359,-20.8534,-10.9684
-539,-335,-20.925,11.559,0.00385399,0.000266936,0.00157028,0.00444427,-0.000323344,0.359565,0.0030763,0.0214205,685,1359,-20.925,-11.559
-532,-335,-20.9357,12.2126,0.00487363,9.51271e-05,0.00200462,0.0056032,-0.00063444,0.349042,0.0039639,0.0161504,692,1359,-20.9357,-12.2126
-525,-335,-20.8892,12.8857,0.00620407,-8.7875e-05,0.00259072,0.00713351,-0.00101731,0.344454,0.00512852,0.0128652,699,1359,-20.8892,-12.8857
-518,-335,-20.8119,13.4797,0,0,0,0,0,0,0,-1,706,1359,-20.8119,-13.4797
-511,-335,-17.3098,11.6718,0,0,0,0,0,0,0,-1,713,1359,-17.3097,-11.6717
-504,-335,-9.35767,5.99695,0,0,0,0,0,0,0,-1,720,1359,-9.35767,-5.99694
-497,-335,-8.75024,-0.650513,0,0,0,0,0,0,0,-1,727,1359,-8.75024,0.650521
-490,-335,-9.51971,0.417603,0,0,0,0,0,0,0,-1,734,1359,-9.51974,-0.41765
-483,-335,-10.2883,1.29224,0,0,0,0,0,0,0,-1,741,1359,-10.2883,-1.2922
-476,-335,-11.9938,-0.173462,0,0,0,0,0,0,0,-1,748,1359,-11.9938,0.173429
-469,-335,-12.8704,-0.204102,0,0,0,0,0,0,0,-1,755,1359,-12.8704,0.204117
-462,-335,-13.486,0.0218506,0,0,0,0,0,0,0,-1,762,1359,-13.4859,-0.0217908
-455,-335,-14.1504,0.549561,0,0,0,0,0,0,0,-1,769,1359,-14.1504,-0.549583
-448,-335,0,0,0,0,0,0,0,0,0,-1,776,1359,0,0
-441,-335,0,0,0,0,0,0,0,0,0,-1,783,1359,0,0
-434,-335,0,0,0,0,0,0,0,0,0,-1,790,1359,0,0
-427,-335,0,0,0,0,0,0,0,0,0,-1,797,1359,0,0
-420,-335,0,0,0,0,0,0,0,0,0,-1,804,1359,0,0
-413,-335,0,0,0,0,0,0,0,0,0,-1,811,1359,0,0
-406,-335,0,0,0,0,0,0,0,0,0,-1,818,1359,0,0
-399,-335,0,0,0,0,0,0,0,0,0,-1,825,1359,0,0
-392,-335,0,0,0,0,0,0,0,0,0,-1,832,1359,0,0
-385,-335,0,0,0,0,0,0,0,0,0,-1,839,1359,0,0
-378,-335,0,0,0,0,0,0,0,0,0,-1,846,1359,0,0
-371,-335,0,0,0,0,0,0,0,0,0,-1,853,1359,0,0
-364,-335,0,0,0,0,0,0,0,0,0,-1,860,1359,0,0
-357,-335,0,0,0,0,0,0,0,0,0,-1,867,1359,0,0
-350,-335,0,0,0,0,0,0,0,0,0,-1,874,1359,0,0
-343,-335,0,0,0,0,0,0,0,0,0,-1,881,1359,0,0
-336,-335,0,0,0,0,0,0,0,0,0,-1,888,1359,0,0
-329,-335,0,0,0,0,0,0,0,0,0,-1,895,1359,0,0
-322,-335,0,0,0,0,0,0,0,0,0,-1,902,1359,0,0
-315,-335,0,0,0,0,0,0,0,0,0,-1,909,1359,0,0
-308,-335,0,0,0,0,0,0,0,0,0,-1,916,1359,0,0
-301,-335,0,0,0,0,0,0,0,0,0,-1,923,1359,0,0
-294,-335,0,0,0,0,0,0,0,0,0,-1,930,1359,0,0
-287,-335,0,0,0,0,0,0,0,0,0,-1,937,1359,0,0
-280,-335,0,0,0,0,0,0,0,0,0,-1,944,1359,0,0
-273,-335,0,0,0,0,0,0,0,0,0,-1,951,1359,0,0
-266,-335,0,0,0,0,0,0,0,0,0,-1,958,1359,0,0
-259,-335,0,0,0,0,0,0,0,0,0,-1,965,1359,0,0
-252,-335,0,0,0,0,0,0,0,0,0,-1,972,1359,0,0
-245,-335,0,0,0,0,0,0,0,0,0,-1,979,1359,0,0
-238,-335,0,0,0,0,0,0,0,0,0,-1,986,1359,0,0
-231,-335,0,0,0,0,0,0,0,0,0,-1,993,1359,0,0
-224,-335,0,0,0,0,0,0,0,0,0,-1,1000,1359,0,0
-217,-335,0,0,0,0,0,0,0,0,0,-1,1007,1359,0,0
-210,-335,0,0,0,0,0,0,0,0,0,-1,1014,1359,0,0
-203,-335,0,0,0,0,0,0,0,0,0,-1,1021,1359,0,0
-196,-335,0,0,0,0,0,0,0,0,0,-1,1028,1359,0,0
-189,-335,0,0,0,0,0,0,0,0,0,-1,1035,1359,0,0
-182,-335,0,0,0,0,0,0,0,0,0,-1,1042,1359,0,0
-175,-335,0,0,0,0,0,0,0,0,0,-1,1049,1359,0,0
-168,-335,0,0,0,0,0,0,0,0,0,-1,1056,1359,0,0
-161,-335,0,0,0,0,0,0,0,0,0,-1,1063,1359,0,0
-154,-335,0,0,0,0,0,0,0,0,0,-1,1070,1359,0,0
-147,-335,0,0,0,0,0,0,0,0,0,-1,1077,1359,0,0
-140,-335,0,0,0,0,0,0,0,0,0,-1,1084,1359,0,0
-133,-335,0,0,0,0,0,0,0,0,0,-1,1091,1359,0,0
-126,-335,0,0,0,0,0,0,0,0,0,-1,1098,1359,0,0
-119,-335,0,0,0,0,0,0,0,0,0,-1,1105,1359,0,0
-112,-335,0,0,0,0,0,0,0,0,0,-1,1112,1359,0,0
-105,-335,0,0,0,0,0,0,0,0,0,-1,1119,1359,0,0
-98,-335,0,0,0,0,0,0,0,0,0,-1,1126,1359,0,0
-91,-335,0,0,0,0,0,0,0,0,0,-1,1133,1359,0,0
-84,-335,0,0,0,0,0,0,0,0,0,-1,1140,1359,0,0
-77,-335,0,0,0,0,0,0,0,0,0,-1,1147,1359,0,0
-70,-335,0,0,0,0,0,0,0,0,0,-1,1154,1359,0,0
-63,-335,0,0,0,0,0,0,0,0,0,-1,1161,1359,0,0
-56,-335,0,0,0,0,0,0,0,0,0,-1,1168,1359,0,0
-49,-335,0,0,0,0,0,0,0,0,0,-1,1175,1359,0,0
-42,-335,0,0,0,0,0,0,0,0,0,-1,1182,1359,0,0
-35,-335,0,0,0,0,0,0,0,0,0,-1,1189,1359,0,0
-28,-335,0,0,0,0,0,0,0,0,0,-1,1196,1359,0,0
-21,-335,0,0,0,0,0,0,0,0,0,-1,1203,1359,0,0
-14,-335,0,0,0,0,0,0,0,0,0,-1,1210,1359,0,0
-7,-335,0,0,0,0,0,0,0,0,0,-1,1217,1359,0,0
0,-335,0,0,0,0,0,0,0,0,0,-1,1224,1359,0,0
7,-335,0,0,0,0,0,0,0,0,0,-1,1231,1359,0,0
14,-335,0,0,0,0,0,0,0,0,0,-1,1238,1359,0,0
21,-335,0,0,0,0,0,0,0,0,0,-1,1245,1359,0,0
28,-335,0,0,0,0,0,0,0,0,0,-1,1252,1359,0,0
35,-335,0,0,0,0,0,0,0,0,0,-1,1259,1359,0,0
42,-335,0,0,0,0,0,0,0,0,0,-1,1266,1359,0,0
49,-335,0,0,0,0,0,0,0,0,0,-1,1273,1359,0,0
56,-335,0,0,0,0,0,0,0,0,0,-1,1280,1359,0,0
63,-335,0,0,0,0,0,0,0,0,0,-1,1287,1359,0,0
70,-335,0,0,0,0,0,0,0,0,0,-1,1294,1359,0,0
77,-335,0,0,0,0,0,0,0,0,0,-1,1301,1359,0,0
84,-335,0,0,0,0,0,0,0,0,0,-1,1308,1359,0,0
91,-335,0,0,0,0,0,0,0,0,0,-1,1315,1359,0,0
98,-335,0,0,0,0,0,0,0,0,0,-1,1322,1359,0,0
105,-335,0,0,0,0,0,0,0,0,0,-1,1329,1359,0,0
112,-335,0,0,0,0,0,0,0,0,0,-1,1336,1359,0,0
119,-335,0,0,0,0,0,0,0,0,0,-1,1343,1359,0,0
126,-335,0,0,0,0,0,0,0,0,0,-1,1350,1359,0,0
133,-335,0,0,0,0,0,0,0,0,0,-1,1357,1359,0,0
140,-335,0,0,0,0,0,0,0,0,0,-1,1364,1359,0,0
147,-335,0,0,0,0,0,0,0,0,0,-1,1371,1359,0,0
154,-335,0,0,0,0,0,0,0,0,0,-1,1378,1359,0,0
161,-335,0,0,0,0,0,0,0,0,0,-1,1385,1359,0,0
168,-335,0,0,0,0,0,0,0,0,0,-1,1392,1359,0,0
175,-335,0,0,0,0,0,0,0,0,0,-1,1399,1359,0,0
182,-335,0,0,0,0,0,0,0,0,0,-1,1406,1359,0,0
189,-335,0,0,0,0,0,0,0,0,0,-1,1413,1359,0,0
196,-335,0,0,0,0,0,0,0,0,0,-1,1420,1359,0,0
203,-335,0,0,0,0,0,0,0,0,0,-1,1427,1359,0,0
210,-335,0,0,0,0,0,0,0,0,0,-1,1434,1359,0,0
217,-335,0,0,0,0,0,0,0,0,0,-1,1441,1359,0,0
224,-335,0,0,0,0,0,0,0,0,0,-1,1448,1359,0,0
231,-335,0,0,0,0,0,0,0,0,0,-1,1455,1359,0,0
238,-335,0,0,0,0,0,0,0,0,0,-1,1462,1359,0,0
245,-335,0,0,0,0,0,0,0,0,0,-1,1469,1359,0,0
252,-335,0,0,0,0,0,0,0,0,0,-1,1476,1359,0,0
259,-335,0,0,0,0,0,0,0,0,0,-1,1483,1359,0,0
266,-335,0,0,0,0,0,0,0,0,0,-1,1490,1359,0,0
273,-335,0,0,0,0,0,0,0,0,0,-1,1497,1359,0,0
280,-335,0,0,0,0,0,0,0,0,0,-1,1504,1359,0,0
287,-335,0,0,0,0,0,0,0,0,0,-1,1511,1359,0,0
294,-335,0,0,0,0,0,0,0,0,0,-1,1518,1359,0,0
301,-335,0,0,0,0,0,0,0,0,0,-1,1525,1359,0,0
308,-335,0,0,0,0,0,0,0,0,0,-1,1532,1359,0,0
315,-335,0,0,0,0,0,0,0,0,0,-1,1539,1359,0,0
322,-335,0,0,0,0,0,0,0,0,0,-1,1546,1359,0,0
329,-335,0,0,0,0,0,0,0,0,0,-1,1553,1359,0,0
336,-335,0,0,0,0,0,0,0,0,0,-1,1560,1359,0,0
343,-335,0,0,0,0,0,0,0,0,0,-1,1567,1359,0,0
350,-335,0,0,0,0,0,0,0,0,0,-1,1574,1359,0,0
357,-335,0,0,0,0,0,0,0,0,0,-1,1581,1359,0,0
364,-335,0,0,0,0,0,0,0,0,0,-1,1588,1359,0,0
371,-335,0,0,0,0,0,0,0,0,0,-1,1595,1359,0,0
378,-335,0,0,0,0,0,0,0,0,0,-1,1602,1359,0,0
385,-335,0,0,0,0,0,0,0,0,0,-1,1609,1359,0,0
392,-335,0,0,0,0,0,0,0,0,0,-1,1616,1359,0,0
399,-335,0,0,0,0,0,0,0,0,0,-1,1623,1359,0,0
406,-335,0,0,0,0,0,0,0,0,0,-1,1630,1359,0,0
413,-335,0,0,0,0,0,0,0,0,0,-1,1637,1359,0,0
420,-335,0,0,0,0,0,0,0,0,0,-1,1644,1359,0,0
427,-335,0,0,0,0,0,0,0,0,0,-1,1651,1359,0,0
434,-335,0,0,0,0,0,0,0,0,0,-1,1658,1359,0,0
441,-335,0,0,0,0,0,0,0,0,0,-1,1665,1359,0,0
448,-335,0,0,0,0,0,0,0,0,0,-1,1672,1359,0,0
455,-335,0,0,0,0,0,0,0,0,0,-1,1679,1359,0,0
462,-335,0,0,0,0,0,0,0,0,0,-1,1686,1359,0,0
469,-335,0,0,0,0,0,0,0,0,0,-1,1693,1359,0,0
476,-335,0,0,0,0,0,0,0,0,0,-1,1700,1359,0,0
483,-335,0,0,0,0,0,0,0,0,0,-1,1707,1359,0,0
490,-335,0,0,0,0,0,0,0,0,0,-1,1714,1359,0,0
497,-335,0,0,0,0,0,0,0,0,0,-1,1721,1359,0,0
504,-335,0,0,0,0,0,0,0,0,0,-1,1728,1359,0,0
511,-335,0,0,0,0,0,0,0,0,0,-1,1735,1359,0,0
518,-335,0,0,0,0,0,0,0,0,0,-1,1742,1359,0,0
525,-335,0,0,0,0,0,0,0,0,0,-1,1749,1359,0,0
532,-335,0,0,0,0,0,0,0,0,0,-1,1756,1359,0,0
539,-335,0,0,0,0,0,0,0,0,0,-1,1763,1359,0,0
546,-335,0,0,0,0,0,0,0,0,0,-1,1770,1359,0,0
553,-335,0,0,0,0,0,0,0,0,0,-1,1777,1359,0,0
560,-335,0,0,0,0,0,0,0,0,0,-1,1784,1359,0,0
567,-335,0,0,0,0,0,0,0,0,0,-1,1791,1359,0,0
574,-335,58.0887,0.573853,-0.0103029,0.128723,0.0214466,0.131957,-0.0135361,1.42117,0.0928127,0.044264,1798,1359,58.0887,-0.573905
581,-335,57.8474,0.28833,-0.0107277,0.142745,0.0247985,0.146652,-0.0146352,1.41451,0.102994,0.0453127,1805,1359,57.8474,-0.28839
588,-335,58.4113,0.081665,0,0,0,0,0,0,0,-1,1812,1359,58.4113,-0.0816863
595,-335,49.984,3.76465,0,0,0,0,0,0,0,-1,1819,1359,49.984,-3.76467
602,-335,36.5643,0.0861816,0,0,0,0,0,0,0,-1,1826,1359,36.5643,-0.0862283
609,-335,36.2933,0.993896,0,0,0,0,0,0,0,-1,1833,1359,36.2934,-0.993911
616,-335,34.6969,4.82666,0,0,0,0,0,0,0,-1,1840,1359,34.6969,-4.82667
623,-335,26.6051,6.54333,0,0,0,0,0,0,0,-1,1847,1359,26.6051,-6.54339
630,-335,19.1707,1.00952,0,0,0,0,0,0,0,-1,1854,1359,19.1707,-1.00953
637,-335,18.2009,6.65454,0,0,0,0,0,0,0,-1,1861,1359,18.2009,-6.6546
644,-335,28.1042,12.067,0,0,0,0,0,0,0,-1,1868,1359,28.1042,-12.067
651,-335,36.5165,15.319,0,0,0,0,0,0,0,-1,1875,1359,36.5165,-15.3189
658,-335,36.6204,14.6147,0.000587037,0.000589562,-0.000944978,0.00153328,-0.00035668,-0.786066,0.00115951,0.0333534,1882,1359,36.6203,-14.6147
665,-335,36.6362,13.9684,0.000754609,0.000142377,-0.000615873,0.00113625,-0.000239262,-0.554758,0.000848571,0.0153796,1889,1359,36.6362,-13.9684
672,-335,36.6075,13.368,0.00103136,-2.36732e-05,-0.000489573,0.00122353,-0.000215847,-0.374054,0.000896344,0.018353,1896,1359,36.6076,-13.368
679,-335,36.5961,12.7863,0.00132791,-6.62301e-05,-0.000400587,0.00143481,-0.000173136,-0.260795,0.00101917,0.0162014,1903,1359,36.5961,-12.7862
686,-335,36.5853,12.1522,0.00167095,-2.16974e-05,-0.000363327,0.00174565,-9.63893e-05,-0.202753,0.00119719,0.0138008,1910,1359,36.5854,-12.1523
693,-335,36.5437,11.5562,0.00204,9.42342e-05,-0.000370887,0.0021083,2.59361e-05,-0.182108,0.00139697,0.0113475,1917,1359,36.5437,-11.5562
700,-335,36.504,10.9954,0.00242895,0.000284542,-0.000406259,0.00250333,0.000210156,-0.181093,0.00160343,0.0114421,1924,1359,36.504,-10.9954
707,-335,36.4867,10.4053,0.00274216,0.000530785,-0.000418338,0.00281865,0.000454292,-0.180853,0.00174747,0.0146018,1931,1359,36.4867,-10.4053
714,-335,36.5048,9.7074,0.00301633,0.000887749,-0.000449224,0.00310726,0.000796827,-0.1997,0.00186357,0.0349681,1938,1359,36.5047,-9.70739
721,-335,36.4342,8.91504,0,0,0,0,0,0,0,-1,1945,1359,36.4342,-8.91501
728,-335,20.8126,5.21167,0,0,0,0,0,0,0,-1,1952,1359,20.8127,-5.21172
735,-335,20.2725,5.34729,0,0,0,0,0,0,0,-1,1959,1359,20.2724,-5.34734
742,-335,19.8624,4.72229,0,0,0,0,0,0,0,-1,1966,1359,19.8624,-4.72225
749,-335,20.5887,6.05322,0,0,0,0,0,0,0,-1,1973,1359,20.5887,-6.05322
756,-335,20.7832,6.00452,0,0,0,0,0,0,0,-1,1980,1359,20.7832,-6.00447
763,-335,0,0,0,0,0,0,0,0,0,-1,1987,1359,0,0
770,-335,0,0,0,0,0,0,0,0,0,-1,1994,1359,0,0
777,-335,0,0,0,0,0,0,0,0,0,-1,2001,1359,0,0
784,-335,0,0,0,0,0,0,0,0,0,-1,2008,1359,0,0
791,-335,0,0,0,0,0,0,0,0,0,-1,2015,1359,0,0
798,-335,0,0,0,0,0,0,0,0,0,-1,2022,1359,0,0
805,-335,0,0,0,0,0,0,0,0,0,-1,2029,1359,0,0
812,-335,0,0,0,0,0,0,0,0,0,-1,2036,1359,0,0
-700,-342,0,0,0,0,0,0,0,0,0,-1,524,1366,0,0
-693,-342,0,0,0,0,0,0,0,0,0,-1,531,1366,0,0
-686,-342,0,0,0,0,0,0,0,0,0,-1,538,1366,0,0
-679,-342,0,0,0,0,0,0,0,0,0,-1,545,1366,0,0
-672,-342,0,0,0,0,0,0,0,0,0,-1,552,1366,0,0
-665,-342,0,0,0,0,0,0,0,0,0,-1,559,1366,0,0
-658,-342,0,0,0,0,0,0,0,0,0,-1,566,1366,0,0
-651,-342,0,0,0,0,0,0,0,0,0,-1,573,1366,0,0
-644,-342,0,0,0,0,0,0,0,0,0,-1,580,1366,0,0
-637,-342,-8.67786,-4.58557,0,0,0,0,0,0,0,-1,587,1366,-8.67788,4.5856
-630,-342,-8.60132,2.71777,0,0,0,0,0,0,0,-1,594,1366,-8.60135,-2.71779
-623,-342,-8.41168,0.662476,0,0,0,0,0,0,0,-1,601,1366,-8.41168,-0.662442
-616,-342,-6.625,-1.28015,0,0,0,0,0,0,0,-1,608,1366,-6.62499,1.28011
-609,-342,-7.83154,0.674561,0,0,0,0,0,0,0,-1,615,1366,-7.83155,-0.674598
-602,-342,-9.65765,2.25195,0,0,0,0,0,0,0,-1,622,1366,-9.65767,-2.25192
-595,-342,-9.47687,3.00671,0,0,0,0,0,0,0,-1,629,1366,-9.47686,-3.00668
-588,-342,-9.78467,3.57727,0,0,0,0,0,0,0,-1,636,1366,-9.78468,-3.57723
-581,-342,-20.174,7.63086,0,0,0,0,0,0,0,-1,643,1366,-20.174,-7.63088
-574,-342,-20.1857,8.39941,0.00326078,0.00281831,0.00178281,0.00483603,0.00124306,0.723667,0.00289988,0.0160352,650,1366,-20.1857,-8.39943
-567,-342,-20.1157,9.05017,0.00265091,0.00215124,0.00142888,0.00385163,0.000950517,0.69885,0.00231684,0.0165645,657,1366,-20.1158,-9.05023
-560,-342,-20.1706,9.66357,0.00245215,0.00159798,0.00125276,0.00334862,0.000701507,0.621119,0.00203921,0.0248074,664,1366,-20.1706,-9.6636
-553,-342,-20.2321,10.2694,0.0025298,0.00113219,0.001201,0.0032205,0.000441487,0.521912,0.00201602,0.029099,671,1366,-20.2321,-10.2695
-546,-342,-20.2635,10.9091,0.00285953,0.000753673,0.00126943,0.00345588,0.000157323,0.439178,0.00225331,0.0290953,678,1366,-20.2635,-10.909
-539,-342,-20.2936,11.5913,0.00342392,0.000459518,0.00146119,0.00402306,-0.000139628,0.389131,0.00272978,0.0227917,685,1366,-20.2936,-11.5914
-532,-342,-20.2945,12.2681,0.00424489,0.000280428,0.00180277,0.00494207,-0.00041675,0.36901,0.00344205,0.0169665,692,1366,-20.2945,-12.268
-525,-342,-20.2488,12.927,0.00532084,0.000145137,0.00228793,0.0061872,-0.000721225,0.361981,0.00438503,0.0135438,699,1366,-20.2488,-12.927
-518,-342,-20.1919,13.5909,0.00676857,0.000352388,0.00296682,0.00793013,-0.000809171,0.373172,0.00557608,0.0366519,706,1366,-20.1919,-13.5909
-511,-342,-20.2028,14.2401,0,0,0,0,0,0,0,-1,713,1366,-20.2028,-14.2401
-504,-342,-8.95709,6.5719,0,0,0,0,0,0,0,-1,720,1366,-8.95707,-6.57192
-497,-342,-8.26587,-0.943604,0,0,0,0,0,0,0,-1,727,1366,-8.26586,0.943543
-490,-342,-9.07153,-0.0227051,0,0,0,0,0,0,0,-1,734,1366,-9.07155,0.0227087
-483,-342,-9.87726,0.898071,0,0,0,0,0,0,0,-1,741,1366,-9.87724,-0.898125
-476,-342,-11.6371,-0.736328,0,0,0,0,0,0,0,-1,748,1366,-11.6371,0.736281
-469,-342,-12.6245,-0.987549,0,0,0,0,0,0,0,-1,755,1366,-12.6245,0.987553
-462,-342,-13.0912,-0.533203,0,0,0,0,0,0,0,-1,762,1366,-13.0912,0.533224
-455,-342,-13.7612,0.122925,0,0,0,0,0,0,0,-1,769,1366,-13.7612,-0.122896
-448,-342,-14.5278,0.826904,0,0,0,0,0,0,0,-1,776,1366,-14.5277,-0.826861
-441,-342,0,0,0,0,0,0,0,0,0,-1,783,1366,0,0
-434,-342,0,0,0,0,0,0,0,0,0,-1,790,1366,0,0
-427,-342,0,0,0,0,0,0,0,0,0,-1,797,1366,0,0
-420,-342,0,0,0,0,0,0,0,0,0,-1,804,1366,0,0
-413,-342,0,0,0,0,0,0,0,0,0,-1,811,1366,0,0
-406,-342,0,0,0,0,0,0,0,0,0,-1,818,1366,0,0
-399,-342,0,0,0,0,0,0,0,0,0,-1,825,1366,0,0
-392,-342,0,0,0,0,0,0,0,0,0,-1,832,1366,0,0
-385,-342,0,0,0,0,0,0,0,0,0,-1,839,1366,0,0
-378,-342,0,0,0,0,0,0,0,0,0,-1,846,1366,0,0
-371,-342,0,0,0,0,0,0,0,0,0,-1,853,1366,0,0
-364,-342,0,0,0,0,0,0,0,0,0,-1,860,1366,0,0
-357,-342,0,0,0,0,0,0,0,0,0,-1,867,1366,0,0
-350,-342,0,0,0,0,0,0,0,0,0,-1,874,1366,0,0
-343,-342,0,0,0,0,0,0,0,0,0,-1,881,1366,0,0
-336,-342,0,0,0,0,0,0,0,0,0,-1,888,1366,0,0
-329,-342,0,0,0,0,0,0,0,0,0,-1,895,1366,0,0
-322,-342,0,0,0,0,0,0,0,0,0,-1,902,1366,0,0
-315,-342,0,0,0,0,0,0,0,0,0,-1,909,1366,0,0
-308,-342,0,0,0,0,0,0,0,0,0,-1,916,1366,0,0
-301,-342,0,0,0,0,0,0,0,0,0,-1,923,1366,0,0
-294,-342,0,0,0,0,0,0,0,0,0,-1,930,1366,0,0
-287,-342,0,0,0,0,0,0,0,0,0,-1,937,1366,0,0
-280,-342,0,0,0,0,0,0,0,0,0,-1,944,1366,0,0
-273,-342,0,0,0,0,0,0,0,0,0,-1,951,1366,0,0
-266,-342,0,0,0,0,0,0,0,0,0,-1,958,1366,0,0
-259,-342,0,0,0,0,0,0,0,0,0,-1,965,1366,0,0
-252,-342,0,0,0,0,0,0,0,0,0,-1,972,1366,0,0
-245,-342,0,0,0,0,0,0,0,0,0,-1,979,1366,0,0
-238,-342,0,0,0,0,0,0,0,0,0,-1,986,1366,0,0
-231,-342,0,0,0,0,0,0,0,0,0,-1,993,1366,0,0
-224,-342,0,0,0,0,0,0,0,0,0,-1,1000,1366,0,0
-217,-342,0,0,0,0,0,0,0,0,0,-1,1007,1366,0,0
-210,-342,0,0,0,0,0,0,0,0,0,-1,1014,1366,0,0
-203,-342,0,0,0,0,0,0,0,0,0,-1,1021,1366,0,0
-196,-342,0,0,0,0,0,0,0,0,0,-1,1028,1366,0,0
-189,-342,0,0,0,0,0,0,0,0,0,-1,1035,1366,0,0
-182,-342,0,0,0,0,0,0,0,0,0,-1,1042,1366,0,0
-175,-342,0,0,0,0,0,0,0,0,0,-1,1049,1366,0,0
-168,-342,0,0,0,0,0,0,0,0,0,-1,1056,1366,0,0
-161,-342,0,0,0,0,0,0,0,0,0,-1,1063,1366,0,0
-154,-342,0,0,0,0,0,0,0,0,0,-1,1070,1366,0,0
-147,-342,0,0,0,0,0,0,0,0,0,-1,1077,1366,0,0
-140,-342,0,0,0,0,0,0,0,0,0,-1,1084,1366,0,0
-133,-342,0,0,0,0,0,0,0,0,0,-1,1091,1366,0,0
-126,-342,0,0,0,0,0,0,0,0,0,-1,1098,1366,0,0
-119,-342,0,0,0,0,0,0,0,0,0,-1,1105,1366,0,0
-112,-342,0,0,0,0,0,0,0,0,0,-1,1112,1366,0,0
-105,-342,0,0,0,0,0,0,0,0,0,-1,1119,1366,0,0
-98,-342,0,0,0,0,0,0,0,0,0,-1,1126,1366,0,0
-91,-342,0,0,0,0,0,0,0,0,0,-1,1133,1366,0,0
-84,-342,0,0,0,0,0,0,0,0,0,-1,1140,1366,0,0
-77,-342,0,0,0,0,0,0,0,0,0,-1,1147,1366,0,0
-70,-342,0,0,0,0,0,0,0,0,0,-1,1154,1366,0,0
-63,-342,0,0,0,0,0,0,0,0,0,-1,1161,1366,0,0
-56,-342,0,0,0,0,0,0,0,0,0,-1,1168,1366,0,0
-49,-342,0,0,0,0,0,0,0,0,0,-1,1175,1366,0,0
-42,-342,0,0,0,0,0,0,0,0,0,-1,1182,1366,0,0
-35,-342,0,0,0,0,0,0,0,0,0,-1,1189,1366,0,0
-28,-342,0,0,0,0,0,0,0,0,0,-1,1196,1366,0,0
-21,-342,0,0,0,0,0,0,0,0,0,-1,1203,1366,0,0
-14,-342,0,0,0,0,0,0,0,0,0,-1,1210,1366,0,0
-7,-342,0,0,0,0,0,0,0,0,0,-1,1217,1366,0,0
0,-342,0,0,0,0,0,0,0,0,0,-1,1224,1366,0,0
7,-342,0,0,0,0,0,0,0,0,0,-1,1231,1366,0,0
14,-342,0,0,0,0,0,0,0,0,0,-1,1238,1366,0,0
21,-342,0,0,0,0,0,0,0,0,0,-1,1245,1366,0,0
28,-342,0,0,0,0,0,0,0,0,0,-1,1252,1366,0,0
35,-342,0,0,0,0,0,0,0,0,0,-1,1259,1366,0,0
42,-342,0,0,0,0,0,0,0,0,0,-1,1266,1366,0,0
49,-342,0,0,0,0,0,0,0,0,0,-1,1273,1366,0,0
56,-342,0,0,0,0,0,0,0,0,0,-1,1280,1366,0,0
63,-342,0,0,0,0,0,0,0,0,0,-1,1287,1366,0,0
70,-342,0,0,0,0,0,0,0,0,0,-1,1294,1366,0,0
77,-342,0,0,0,0,0,0,0,0,0,-1,1301,1366,0,0
84,-342,0,0,0,0,0,0,0,0,0,-1,1308,1366,0,0
91,-342,0,0,0,0,0,0,0,0,0,-1,1315,1366,0,0
98,-342,0,0,0,0,0,0,0,0,0,-1,1322,1366,0,0
105,-342,0,0,0,0,0,0,0,0,0,-1,1329,1366,0,0
112,-342,0,0,0,0,0,0,0,0,0,-1,1336,1366,0,0
119,-342,0,0,0,0,0,0,0,0,0,-1,1343,1366,0,0
126,-342,0,0,0,0,0,0,0,0,0,-1,1350,1366,0,0
133,-342,0,0,0,0,0,0,0,0,0,-1,1357,1366,0,0
140,-342,0,0,0,0,0,0,0,0,0,-1,1364,1366,0,0
147,-342,0,0,0,0,0,0,0,0,0,-1,1371,1366,0,0
154,-342,0,0,0,0,0,0,0,0,0,-1,1378,1366,0,0
161,-342,0,0,0,0,0,0,0,0,0,-1,1385,1366,0,0
168,-342,0,0,0,0,0,0,0,0,0,-1,1392,1366,0,0
175,-342,0,0,0,0,0,0,0,0,0,-1,1399,1366,0,0
182,-342,0,0,0,0,0,0,0,0,0,-1,1406,1366,0,0
189,-342,0,0,0,0,0,0,0,0,0,-1,1413,1366,0,0
196,-342,0,0,0,0,0,0,0,0,0,-1,1420,1366,0,0
203,-342,0,0,0,0,0,0,0,0,0,-1,1427,1366,0,0
210,-342,0,0,0,0,0,0,0,0,0,-1,1434,1366,0,0
217,-342,0,0,0,0,0,0,0,0,0,-1,1441,1366,0,0
224,-342,0,0,0,0,0,0,0,0,0,-1,1448,1366,0,0
231,-342,0,0,0,0,0,0,0,0,0,-1,1455,1366,0,0
238,-342,0,0,0,0,0,0,0,0,0,-1,1462,1366,0,0
245,-342,0,0,0,0,0,0,0,0,0,-1,1469,1366,0,0
252,-342,0,0,0,0,0,0,0,0,0,-1,1476,1366,0,0
259,-342,0,0,0,0,0,0,0,0,0,-1,1483,1366,0,0
266,-342,0,0,0,0,0,0,0,0,0,-1,1490,1366,0,0
273,-342,0,0,0,0,0,0,0,0,0,-1,1497,1366,0,0
280,-342,0,0,0,0,0,0,0,0,0,-1,1504,1366,0,0
287,-342,0,0,0,0,0,0,0,0,0,-1,1511,1366,0,0
294,-342,0,0,0,0,0,0,0,0,0,-1,1518,1366,0,0
301,-342,0,0,0,0,0,0,0,0,0,-1,1525,1366,0,0
308,-342,0,0,0,0,0,0,0,0,0,-1,1532,1366,0,0
315,-342,0,0,0,0,0,0,0,0,0,-1,1539,1366,0,0
322,-342,0,0,0,0,0,0,0,0,0,-1,1546,1366,0,0
329,-342,0,0,0,0,0,0,0,0,0,-1,1553,1366,0,0
336,-342,0,0,0,0,0,0,0,0,0,-1,1560,1366,0,0
343,-342,0,0,0,0,0,0,0,0,0,-1,1567,1366,0,0
350,-342,0,0,0,0,0,0,0,0,0,-1,1574,1366,0,0
357,-342,0,0,0,0,0,0,0,0,0,-1,1581,1366,0,0
364,-342,0,0,0,0,0,0,0,0,0,-1,1588,1366,0,0
371,-342,0,0,0,0,0,0,0,0,0,-1,1595,1366,0,0
378,-342,0,0,0,0,0,0,0,0,0,-1,1602,1366,0,0
385,-342,0,0,0,0,0,0,0,0,0,-1,1609,1366,0,0
392,-342,0,0,0,0,0,0,0,0,0,-1,1616,1366,0,0
399,-342,0,0,0,0,0,0,0,0,0,-1,1623,1366,0,0
406,-342,0,0,0,0,0,0,0,0,0,-1,1630,1366,0,0
413,-342,0,0,0,0,0,0,0,0,0,-1,1637,1366,0,0
420,-342,0,0,0,0,0,0,0,0,0,-1,1644,1366,0,0
427,-342,0,0,0,0,0,0,0,0,0,-1,1651,1366,0,0
434,-342,0,0,0,0,0,0,0,0,0,-1,1658,1366,0,0
441,-342,0,0,0,0,0,0,0,0,0,-1,1665,1366,0,0
448,-342,0,0,0,0,0,0,0,0,0,-1,1672,1366,0,0
455,-342,0,0,0,0,0,0,0,0,0,-1,1679,1366,0,0
462,-342,0,0,0,0,0,0,0,0,0,-1,1686,1366,0,0
469,-342,0,0,0,0,0,0,0,0,0,-1,1693,1366,0,0
476,-342,0,0,0,0,0,0,0,0,0,-1,1700,1366,0,0
483,-342,0,0,0,0,0,0,0,0,0,-1,1707,1366,0,0
490,-342,0,0,0,0,0,0,0,0,0,-1,1714,1366,0,0
497,-342,0,0,0,0,0,0,0,0,0,-1,1721,1366,0,0
504,-342,0,0,0,0,0,0,0,0,0,-1,1728,1366,0,0
511,-342,0,0,0,0,0,0,0,0,0,-1,1735,1366,0,0
518,-342,0,0,0,0,0,0,0,0,0,-1,1742,1366,0,0
525,-342,0,0,0,0,0,0,0,0,0,-1,1749,1366,0,0
532,-342,0,0,0,0,0,0,0,0,0,-1,1756,1366,0,0
539,-342,0,0,0,0,0,0,0,0,0,-1,1763,1366,0,0
546,-342,0,0,0,0,0,0,0,0,0,-1,1770,1366,0,0
553,-342,0,0,0,0,0,0,0,0,0,-1,1777,1366,0,0
560,-342,0,0,0,0,0,0,0,0,0,-1,1784,1366,0,0
567,-342,42.6652,5.53748,0,0,0,0,0,0,0,-1,1791,1366,42.6652,-5.53752
574,-342,57.798,-0.27356,0,0,0,0,0,0,0,-1,1798,1366,57.798,0.273534
581,-342,57.0219,-0.327759,0,0,0,0,0,0,0,-1,1805,1366,57.0219,0.327814
588,-342,43.9108,7.22559,0,0,0,0,0,0,0,-1,1812,1366,43.9107,-7.22554
595,-342,35.7993,0.709961,0,0,0,0,0,0,0,-1,1819,1366,35.7993,-0.709913
602,-342,36.3618,3.28723,0,0,0,0,0,0,0,-1,1826,1366,36.3619,-3.28719
609,-342,35.3777,4.14978,0,0,0,0,0,0,0,-1,1833,1366,35.3777,-4.14976
616,-342,34.199,5.8158,0,0,0,0,0,0,0,-1,1840,1366,34.199,-5.81579
623,-342,26.0299,6.86865,0,0,0,0,0,0,0,-1,1847,1366,26.0299,-6.86863
630,-342,17.3431,0.773071,0,0,0,0,0,0,0,-1,1854,1366,17.3432,-0.773095
637,-342,16.196,6.76172,0,0,0,0,0,0,0,-1,1861,1366,16.1961,-6.76174
644,-342,31.8916,14.0614,0,0,0,0,0,0,0,-1,1868,1366,31.8916,-14.0613
651,-342,36.0352,15.223,0,0,0,0,0,0,0,-1,1875,1366,36.0351,-15.223
658,-342,36.0582,14.6014,0.000291863,0.000542507,-0.00074051,0.00116822,-0.000333855,-0.869223,0.000910732,0.0214669,1882,1366,36.0582,-14.6015
665,-342,36.0516,13.9531,0.00063145,0.000164745,-0.000480157,0.000931955,-0.000135761,-0.559209,0.00067115,0.0178048,1889,1366,36.0516,-13.9531
672,-342,36.0248,13.3976,0.001055,8.91371e-07,-0.000367785,0.00117064,-0.000114746,-0.304628,0.00082135,0.0141342,1896,1366,36.0247,-13.3975
679,-342,35.9948,12.8337,0.00151953,-7.45479e-05,-0.000311446,0.00157822,-0.000133236,-0.186255,0.00109925,0.0143008,1903,1366,35.9947,-12.8337
686,-342,36.0031,12.2283,0.00204745,-4.20273e-05,-0.000332033,0.00209894,-9.35207e-05,-0.15386,0.00143149,0.0131189,1910,1366,36.003,-12.2283
693,-342,35.9562,11.6223,0.00259638,6.05639e-05,-0.000393609,0.00265607,8.73115e-07,-0.150503,0.00177042,0.0127157,1917,1366,35.9562,-11.6224
700,-342,35.9189,11.054,0.00318017,0.000262295,-0.000511954,0.00326738,0.000175078,-0.168742,0.0021223,0.0135121,1924,1366,35.9189,-11.0539
707,-342,35.9023,10.4041,0.00364896,0.000542295,-0.00061327,0.00376564,0.000425615,-0.188012,0.00238127,0.0136158,1931,1366,35.9024,-10.4041
714,-342,35.9885,9.62463,0,0,0,0,0,0,0,-1,1938,1366,35.9886,-9.62467
721,-342,22.4666,6.08679,0,0,0,0,0,0,0,-1,1945,1366,22.4666,-6.08678
728,-342,19.8912,5.26636,0,0,0,0,0,0,0,-1,1952,1366,19.8913,-5.26636
735,-342,19.481,4.41968,0,0,0,0,0,0,0,-1,1959,1366,19.4809,-4.41962
742,-342,19.309,2.66943,0,0,0,0,0,0,0,-1,1966,1366,19.3089,-2.66948
749,-342,21.0934,6.47729,0,0,0,0,0,0,0,-1,1973,1366,21.0934,-6.4773
756,-342,0,0,0,0,0,0,0,0,0,-1,1980,1366,0,0
763,-342,0,0,0,0,0,0,0,0,0,-1,1987,1366,0,0
770,-342,0,0,0,0,0,0,0,0,0,-1,1994,1366,0,0
777,-342,0,0,0,0,0,0,0,0,0,-1,2001,1366,0,0
784,-342,0,0,0,0,0,0,0,0,0,-1,2008,1366,0,0
791,-342,0,0,0,0,0,0,0,0,0,-1,2015,1366,0,0
798,-342,0,0,0,0,0,0,0,0,0,-1,2022,1366,0,0
805,-342,0,0,0,0,0,0,0,0,0,-1,2029,1366,0,0
812,-342,0,0,0,0,0,0,0,0,0,-1,2036,1366,0,0
-700,-349,0,0,0,0,0,0,0,0,0,-1,524,1373,0,0
-693,-349,0,0,0,0,0,0,0,0,0,-1,531,1373,0,0
-686,-349,0,0,0,0,0,0,0,0,0,-1,538,1373,0,0
-679,-349,0,0,0,0,0,0,0,0,0,-1,545,1373,0,0
-672,-349,0,0,0,0,0,0,0,0,0,-1,552,1373,0,0
-665,-349,0,0,0,0,0,0,0,0,0,-1,559,1373,0,0
-658,-349,0,0,0,0,0,0,0,0,0,-1,566,1373,0,0
-651,-349,0,0,0,0,0,0,0,0,0,-1,573,1373,0,0
-644,-349,0,0,0,0,0,0,0,0,0,-1,580,1373,0,0
-637,-349,0,0,0,0,0,0,0,0,0,-1,587,1373,0,0
-630,-349,-7.64117,-5.06177,0,0,0,0,0,0,0,-1,594,1373,-7.64118,5.0618
-623,-349,-8.63507,0.51123,0,0,0,0,0,0,0,-1,601,1373,-8.63505,-0.511275
-616,-349,-5.2066,-0.188232,0,0,0,0,0,0,0,-1,608,1373,-5.20659,0.188211
-609,-349,-7.12073,1.37048,0,0,0,0,0,0,0,-1,615,1373,-7.12072,-1.37044
-602,-349,-9.00623,3.39587,0,0,0,0,0,0,0,-1,622,1373,-9.0062,-3.39591
-595,-349,-9.50568,2.96912,0,0,0,0,0,0,0,-1,629,1373,-9.50569,-2.96906
-588,-349,-8.60046,3.56042,0,0,0,0,0,0,0,-1,636,1373,-8.60046,-3.56047
-581,-349,-19.4036,7.75208,0,0,0,0,0,0,0,-1,643,1373,-19.4035,-7.75202
-574,-349,-19.4716,8.34119,0.00366033,0.0032452,0.00217109,0.00563375,0.00127177,0.73774,0.00341186,0.0362419,650,1373,-19.4716,-8.34124
-567,-349,-19.5096,9.05078,0.00286725,0.00248069,0.00169493,0.00437988,0.000968061,0.728627,0.00265669,0.0177493,657,1373,-19.5096,-9.05082
-560,-349,-19.5475,9.70227,0.00252899,0.00185859,0.00141981,0.00365263,0.000734951,0.669478,0.00223083,0.0204488,664,1373,-19.5475,-9.70231
-553,-349,-19.5777,10.2998,0.00245811,0.00135183,0.00128532,0.00330426,0.000505677,0.582202,0.00205513,0.0264527,671,1373,-19.5777,-10.2998
-546,-349,-19.5714,10.9408,0.00261685,0.000943429,0.00126537,0.00329713,0.000263153,0.493281,0.00211583,0.0299941,678,1373,-19.5714,-10.9408
-539,-349,-19.6183,11.6056,0.0029848,0.000629693,0.00136323,0.00360864,5.85034e-06,0.429174,0.00240381,0.0228053,685,1373,-19.6183,-11.6055
-532,-349,-19.6576,12.2712,0.00356556,0.000428852,0.00159566,0.00423459,-0.000240177,0.397015,0.00290643,0.0169914,692,1373,-19.6576,-12.2712
-525,-349,-19.6463,12.9379,0.00435436,0.000308665,0.00196075,0.00514869,-0.000485662,0.384906,0.00360527,0.0151814,699,1373,-19.6463,-12.9379
-518,-349,-19.6373,13.6211,0.0054067,0.000452382,0.00247504,0.00643128,-0.000572196,0.392486,0.00449042,0.0236382,706,1373,-19.6373,-13.621
-511,-349,-19.59,14.3271,0,0,0,0,0,0,0,-1,713,1373,-19.59,-14.3271
-504,-349,-9.60516,7.88831,0,0,0,0,0,0,0,-1,720,1373,-9.60519,-7.88825
-497,-349,-7.9339,5.58789,0,0,0,0,0,0,0,-1,727,1373,-7.93388,-5.58785
-490,-349,-8.73969,-0.503784,0,0,0,0,0,0,0,-1,734,1373,-8.73966,0.503752
-483,-349,-5.66974,3.7395,0,0,0,0,0,0,0,-1,741,1373,-5.66975,-3.73949
-476,-349,-10.8496,1.15759,0,0,0,0,0,0,0,-1,748,1373,-10.8496,-1.15756
-469,-349,-12.3314,-1.74878,0,0,0,0,0,0,0,-1,755,1373,-12.3314,1.74882
-462,-349,-12.6559,-0.995361,0,0,0,0,0,0,0,-1,762,1373,-12.656,0.995351
-455,-349,-13.2897,-0.234253,0,0,0,0,0,0,0,-1,769,1373,-13.2897,0.234261
-448,-349,-14.045,0.712891,0,0,0,0,0,0,0,-1,776,1373,-14.045,-0.712838
-441,-349,0,0,0,0,0,0,0,0,0,-1,783,1373,0,0
-434,-349,0,0,0,0,0,0,0,0,0,-1,790,1373,0,0
-427,-349,0,0,0,0,0,0,0,0,0,-1,797,1373,0,0
-420,-349,0,0,0,0,0,0,0,0,0,-1,804,1373,0,0
-413,-349,0,0,0,0,0,0,0,0,0,-1,811,1373,0,0
-406,-349,0,0,0,0,0,0,0,0,0,-1,818,1373,0,0
-399,-349,0,0,0,0,0,0,0,0,0,-1,825,1373,0,0
-392,-349,0,0,0,0,0,0,0,0,0,-1,832,1373,0,0
-385,-349,0,0,0,0,0,0,0,0,0,-1,839,1373,0,0
-378,-349,0,0,0,0,0,0,0,0,0,-1,846,1373,0,0
-371,-349,0,0,0,0,0,0,0,0,0,-1,853,1373,0,0
-364,-349,0,0,0,0,0,0,0,0,0,-1,860,1373,0,0
-357,-349,0,0,0,0,0,0,0,0,0,-1,867,1373,0,0
-350,-349,0,0,0,0,0,0,0,0,0,-1,874,1373,0,0
-343,-349,0,0,0,0,0,0,0,0,0,-1,881,1373,0,0
-336,-349,0,0,0,0,0,0,0,0,0,-1,888,1373,0,0
-329,-349,0,0,0,0,0,0,0,0,0,-1,895,1373,0,0
-322,-349,0,0,0,0,0,0,0,0,0,-1,902,1373,0,0
-315,-349,0,0,0,0,0,0,0,0,0,-1,909,1373,0,0
-308,-349,0,0,0,0,0,0,0,0,0,-1,916,1373,0,0
-301,-349,0,0,0,0,0,0,0,0,0,-1,923,1373,0,0
-294,-349,0,0,0,0,0,0,0,0,0,-1,930,1373,0,0
-287,-349,0,0,0,0,0,0,0,0,0,-1,937,1373,0,0
-280,-349,0,0,0,0,0,0,0,0,0,-1,944,1373,0,0
-273,-349,0,0,0,0,0,0,0,0,0,-1,951,1373,0,0
-266,-349,0,0,0,0,0,0,0,0,0,-1,958,1373,0,0
-259,-349,0,0,0,0,0,0,0,0,0,-1,965,1373,0,0
-252,-349,0,0,0,0,0,0,0,0,0,-1,972,1373,0,0
-245,-349,0,0,0,0,0,0,0,0,0,-1,979,1373,0,0
-238,-349,0,0,0,0,0,0,0,0,0,-1,986,1373,0,0
-231,-349,0,0,0,0,0,0,0,0,0,-1,993,1373,0,0
-224,-349,0,0,0,0,0,0,0,0,0,-1,1000,1373,0,0
-217,-349,0,0,0,0,0,0,0,0,0,-1,1007,1373,0,0
-210,-349,0,0,0,0,0,0,0,0,0,-1,1014,1373,0,0
-203,-349,0,0,0,0,0,0,0,0,0,-1,1021,1373,0,0
-196,-349,0,0,0,0,0,0,0,0,0,-1,1028,1373,0,0
-189,-349,0,0,0,0,0,0,0,0,0,-1,1035,1373,0,0
-182,-349,0,0,0,0,0,0,0,0,0,-1,1042,1373,0,0
-175,-349,0,0,0,0,0,0,0,0,0,-1,1049,1373,0,0
-168,-349,0,0,0,0,0,0,0,0,0,-1,1056,1373,0,0
-161,-349,0,0,0,0,0,0,0,0,0,-1,1063,1373,0,0
-154,-349,0,0,0,0,0,0,0,0,0,-1,1070,1373,0,0
-147,-349,0,0,0,0,0,0,0,0,0,-1,1077,1373,0,0
-140,-349,0,0,0,0,0,0,0,0,0,-1,1084,1373,0,0
-133,-349,0,0,0,0,0,0,0,0,0,-1,1091,1373,0,0
-126,-349,0,0,0,0,0,0,0,0,0,-1,1098,1373,0,0
-119,-349,0,0,0,0,0,0,0,0,0,-1,1105,1373,0,0
-112,-349,0,0,0,0,0,0,0,0,0,-1,1112,1373,0,0
-105,-349,0,0,0,0,0,0,0,0,0,-1,1119,1373,0,0
-98,-349,0,0,0,0,0,0,0,0,0,-1,1126,1373,0,0
-91,-349,0,0,0,0,0,0,0,0,0,-1,1133,1373,0,0
-84,-349,0,0,0,0,0,0,0,0,0,-1,1140,1373,0,0
-77,-349,0,0,0,0,0,0,0,0,0,-1,1147,1373,0,0
-70,-349,0,0,0,0,0,0,0,0,0,-1,1154,1373,0,0
-63,-349,0,0,0,0,0,0,0,0,0,-1,1161,1373,0,0
-56,-349,0,0,0,0,0,0,0,0,0,-1,1168,1373,0,0
-49,-349,0,0,0,0,0,0,0,0,0,-1,1175,1373,0,0
-42,-349,0,0,0,0,0,0,0,0,0,-1,1182,1373,0,0
-35,-349,0,0,0,0,0,0,0,0,0,-1,1189,1373,0,0
-28,-349,0,0,0,0,0,0,0,0,0,-1,1196,1373,0,0
-21,-349,0,0,0,0,0,0,0,0,0,-1,1203,1373,0,0
-14,-349,0,0,0,0,0,0,0,0,0,-1,1210,1373,0,0
-7,-349,0,0,0,0,0,0,0,0,0,-1,1217,1373,0,0
0,-349,0,0,0,0,0,0,0,0,0,-1,1224,1373,0,0
7,-349,0,0,0,0,0,0,0,0,0,-1,1231,1373,0,0
14,-349,0,0,0,0,0,0,0,0,0,-1,1238,1373,0,0
21,-349,0,0,0,0,0,0,0,0,0,-1,1245,1373,0,0
28,-349,0,0,0,0,0,0,0,0,0,-1,1252,1373,0,0
35,-349,0,0,0,0,0,0,0,0,0,-1,1259,1373,0,0
42,-349,0,0,0,0,0,0,0,0,0,-1,1266,1373,0,0
49,-349,0,0,0,0,0,0,0,0,0,-1,1273,1373,0,0
56,-349,0,0,0,0,0,0,0,0,0,-1,1280,1373,0,0
63,-349,0,0,0,0,0,0,0,0,0,-1,1287,1373,0,0
70,-349,0,0,0,0,0,0,0,0,0,-1,1294,1373,0,0
77,-349,0,0,0,0,0,0,0,0,0,-1,1301,1373,0,0
84,-349,0,0,0,0,0,0,0,0,0,-1,1308,1373,0,0
91,-349,0,0,0,0,0,0,0,0,0,-1,1315,1373,0,0
98,-349,0,0,0,0,0,0,0,0,0,-1,1322,1373,0,0
105,-349,0,0,0,0,0,0,0,0,0,-1,1329,1373,0,0
112,-349,0,0,0,0,0,0,0,0,0,-1,1336,1373,0,0
119,-349,0,0,0,0,0,0,0,0,0,-1,1343,1373,0,0
126,-349,0,0,0,0,0,0,0,0,0,-1,1350,1373,0,0
133,-349,0,0,0,0,0,0,0,0,0,-1,1357,1373,0,0
140,-349,0,0,0,0,0,0,0,0,0,-1,1364,1373,0,0
147,-349,0,0,0,0,0,0,0,0,0,-1,1371,1373,0,0
154,-349,0,0,0,0,0,0,0,0,0,-1,1378,1373,0,0
161,-349,0,0,0,0,0,0,0,0,0,-1,1385,1373,0,0
168,-349,0,0,0,0,0,0,0,0,0,-1,1392,1373,0,0
175,-349,0,0,0,0,0,0,0,0,0,-1,1399,1373,0,0
182,-349,0,0,0,0,0,0,0,0,0,-1,1406,1373,0,0
189,-349,0,0,0,0,0,0,0,0,0,-1,1413,1373,0,0
196,-349,0,0,0,0,0,0,0,0,0,-1,1420,1373,0,0
203,-349,0,0,0,0,0,0,0,0,0,-1,1427,1373,0,0
210,-349,0,0,0,0,0,0,0,0,0,-1,1434,1373,0,0
217,-349,0,0,0,0,0,0,0,0,0,-1,1441,1373,0,0
224,-349,0,0,0,0,0,0,0,0,0,-1,1448,1373,0,0
231,-349,0,0,0,0,0,0,0,0,0,-1,1455,1373,0,0
238,-349,0,0,0,0,0,0,0,0,0,-1,1462,1373,0,0
245,-349,0,0,0,0,0,0,0,0,0,-1,1469,1373,0,0
252,-349,0,0,0,0,0,0,0,0,0,-1,1476,1373,0,0
259,-349,0,0,0,0,0,0,0,0,0,-1,1483,1373,0,0
266,-349,0,0,0,0,0,0,0,0,0,-1,1490,1373,0,0
273,-349,0,0,0,0,0,0,0,0,0,-1,1497,1373,0,0
280,-349,0,0,0,0,0,0,0,0,0,-1,1504,1373,0,0
287,-349,0,0,0,0,0,0,0,0,0,-1,1511,1373,0,0
294,-349,0,0,0,0,0,0,0,0,0,-1,1518,1373,0,0
301,-349,0,0,0,0,0,0,0,0,0,-1,1525,1373,0,0
308,-349,0,0,0,0,0,0,0,0,0,-1,1532,1373,0,0
315,-349,0,0,0,0,0,0,0,0,0,-1,1539,1373,0,0
322,-349,0,0,0,0,0,0,0,0,0,-1,1546,1373,0,0
329,-349,0,0,0,0,0,0,0,0,0,-1,1553,1373,0,0
336,-349,0,0,0,0,0,0,0,0,0,-1,1560,1373,0,0
343,-349,0,0,0,0,0,0,0,0,0,-1,1567,1373,0,0
350,-349,0,0,0,0,0,0,0,0,0,-1,1574,1373,0,0
357,-349,0,0,0,0,0,0,0,0,0,-1,1581,1373,0,0
364,-349,0,0,0,0,0,0,0,0,0,-1,1588,1373,0,0
371,-349,0,0,0,0,0,0,0,0,0,-1,1595,1373,0,0
378,-349,0,0,0,0,0,0,0,0,0,-1,1602,1373,0,0
385,-349,0,0,0,0,0,0,0,0,0,-1,1609,1373,0,0
392,-349,0,0,0,0,0,0,0,0,0,-1,1616,1373,0,0
399,-349,0,0,0,0,0,0,0,0,0,-1,1623,1373,0,0
406,-349,0,0,0,0,0,0,0,0,0,-1,1630,1373,0,0
413,-349,0,0,0,0,0,0,0,0,0,-1,1637,1373,0,0
420,-349,0,0,0,0,0,0,0,0,0,-1,1644,1373,0,0
427,-349,0,0,0,0,0,0,0,0,0,-1,1651,1373,0,0
434,-349,0,0,0,0,0,0,0,0,0,-1,1658,1373,0,0
441,-349,0,0,0,0,0,0,0,0,0,-1,1665,1373,0,0
448,-349,0,0,0,0,0,0,0,0,0,-1,1672,1373,0,0
455,-349,0,0,0,0,0,0,0,0,0,-1,1679,1373,0,0
462,-349,0,0,0,0,0,0,0,0,0,-1,1686,1373,0,0
469,-349,0,0,0,0,0,0,0,0,0,-1,1693,1373,0,0
476,-349,0,0,0,0,0,0,0,0,0,-1,1700,1373,0,0
483,-349,0,0,0,0,0,0,0,0,0,-1,1707,1373,0,0
490,-349,0,0,0,0,0,0,0,0,0,-1,1714,1373,0,0
497,-349,0,0,0,0,0,0,0,0,0,-1,1721,1373,0,0
504,-349,0,0,0,0,0,0,0,0,0,-1,1728,1373,0,0
511,-349,0,0,0,0,0,0,0,0,0,-1,1735,1373,0,0
518,-349,0,0,0,0,0,0,0,0,0,-1,1742,1373,0,0
525,-349,0,0,0,0,0,0,0,0,0,-1,1749,1373,0,0
532,-349,0,0,0,0,0,0,0,0,0,-1,1756,1373,0,0
539,-349,0,0,0,0,0,0,0,0,0,-1,1763,1373,0,0
546,-349,0,0,0,0,0,0,0,0,0,-1,1770,1373,0,0
553,-349,0,0,0,0,0,0,0,0,0,-1,1777,1373,0,0
560,-349,45.6893,3.53845,0,0,0,0,0,0,0,-1,1784,1373,45.6893,-3.5385
567,-349,41.9424,6.03833,0,0,0,0,0,0,0,-1,1791,1373,41.9423,-6.03834
574,-349,42.4165,6.17078,0,0,0,0,0,0,0,-1,1798,1373,42.4165,-6.17072
581,-349,42.8947,6.78381,0,0,0,0,0,0,0,-1,1805,1373,42.8946,-6.78376
588,-349,44.8121,5.06213,0,0,0,0,0,0,0,-1,1812,1373,44.8121,-5.06215
595,-349,44.4338,6.14099,0,0,0,0,0,0,0,-1,1819,1373,44.4338,-6.14095
602,-349,35.6641,3.26465,0,0,0,0,0,0,0,-1,1826,1373,35.6641,-3.26468
609,-349,34.7175,4.401,0,0,0,0,0,0,0,-1,1833,1373,34.7175,-4.40096
616,-349,27.1451,6.68274,0,0,0,0,0,0,0,-1,1840,1373,27.1451,-6.6828
623,-349,18.8478,2.75769,0,0,0,0,0,0,0,-1,1847,1373,18.8478,-2.75774
630,-349,15.4948,6.47644,0,0,0,0,0,0,0,-1,1854,1373,15.4947,-6.4765
637,-349,16.5161,6.92639,0,0,0,0,0,0,0,-1,1861,1373,16.5161,-6.92636
644,-349,35.5858,15.7968,0,0,0,0,0,0,0,-1,1868,1373,35.5858,-15.7968
651,-349,35.5778,15.1982,0.000110687,0.000939855,-0.00110599,0.00170641,-0.000655873,-0.964719,0.00140811,0.0417177,1875,1373,35.5777,-15.1982
658,-349,35.4521,14.5916,0.000308395,0.000514683,-0.000640344,0.00106014,-0.000237059,-0.86525,0.000797608,0.0274247,1882,1373,35.4521,-14.5915
665,-349,35.4353,13.9794,0.00070058,0.000150001,-0.000388993,0.00090184,-5.12593e-05,-0.477461,0.000619021,0.0222739,1889,1373,35.4353,-13.9794
672,-349,35.4163,13.4159,0.00119124,-5.91834e-05,-0.000241553,0.00123628,-0.000104224,-0.184344,0.000861031,0.0157992,1896,1373,35.4162,-13.4159
679,-349,35.3978,12.8347,0.0017637,-0.000206578,-0.000156449,0.00177604,-0.000218923,-0.0787471,0.00126334,0.0161743,1903,1373,35.3978,-12.8347
686,-349,35.4299,12.2478,0.00242845,-0.000245948,-0.00015608,0.00243753,-0.000255027,-0.0580981,0.00171635,0.0173679,1910,1373,35.4299,-12.2478
693,-349,35.3789,11.6588,0.00314799,-0.000208214,-0.000208613,0.00316091,-0.000221131,-0.0618401,0.00218471,0.0189333,1917,1373,35.3789,-11.6588
700,-349,35.339,11.0951,0.0039475,-4.80311e-05,-0.000346307,0.0039773,-7.78246e-05,-0.0858207,0.00267785,0.0168898,1924,1373,35.339,-11.0951
707,-349,35.3993,10.4457,0.00462044,0.000209724,-0.000479751,0.00467202,0.000158145,-0.107101,0.00306333,0.0344456,1931,1373,35.3993,-10.4457
714,-349,35.5088,9.67419,0,0,0,0,0,0,0,-1,1938,1373,35.5088,-9.67425
721,-349,19.6688,5.93604,0,0,0,0,0,0,0,-1,1945,1373,19.6688,-5.93606
728,-349,18.6333,3.73218,0,0,0,0,0,0,0,-1,1952,1373,18.6333,-3.73214
735,-349,18.1918,3.39954,0,0,0,0,0,0,0,-1,1959,1373,18.1918,-3.3995
742,-349,20.7345,2.07483,0,0,0,0,0,0,0,-1,1966,1373,20.7345,-2.07485
749,-349,21.9037,1.45789,0,0,0,0,0,0,0,-1,1973,1373,21.9037,-1.45788
756,-349,0,0,0,0,0,0,0,0,0,-1,1980,1373,0,0
763,-349,0,0,0,0,0,0,0,0,0,-1,1987,1373,0,0
770,-349,0,0,0,0,0,0,0,0,0,-1,1994,1373,0,0
777,-349,0,0,0,0,0,0,0,0,0,-1,2001,1373,0,0
784,-349,0,0,0,0,0,0,0,0,0,-1,2008,1373,0,0
791,-349,0,0,0,0,0,0,0,0,0,-1,2015,1373,0,0
798,-349,0,0,0,0,0,0,0,0,0,-1,2022,1373,0,0
805,-349,0,0,0,0,0,0,0,0,0,-1,2029,1373,0,0
812,-349,0,0,0,0,0,0,0,0,0,-1,2036,1373,0,0
-700,-356,0,0,0,0,0,0,0,0,0,-1,524,1380,0,0
-693,-356,0,0,0,0,0,0,0,0,0,-1,531,1380,0,0
-686,-356,0,0,0,0,0,0,0,0,0,-1,538,1380,0,0
-679,-356,0,0,0,0,0,0,0,0,0,-1,545,1380,0,0
-672,-356,0,0,0,0,0,0,0,0,0,-1,552,1380,0,0
-665,-356,0,0,0,0,0,0,0,0,0,-1,559,1380,0,0
-658,-356,0,0,0,0,0,0,0,0,0,-1,566,1380,0,0
-651,-356,0,0,0,0,0,0,0,0,0,-1,573,1380,0,0
-644,-356,0,0,0,0,0,0,0,0,0,-1,580,1380,0,0
-637,-356,0,0,0,0,0,0,0,0,0,-1,587,1380,0,0
-630,-356,-8.23126,-5.01917,0,0,0,0,0,0,0,-1,594,1380,-8.23124,5.0192
-623,-356,-0.263855,-0.675781,0,0,0,0,0,0,0,-1,601,1380,-0.263835,0.675841
-616,-356,-8.26532,-3.43945,0,0,0,0,0,0,0,-1,608,1380,-8.2653,3.43948
-609,-356,-4.88483,0.734497,0,0,0,0,0,0,0,-1,615,1380,-4.88485,-0.734532
-602,-356,-9.06635,2.4021,0,0,0,0,0,0,0,-1,622,1380,-9.06634,-2.40206
-595,-356,-8.45703,3.61853,0,0,0,0,0,0,0,-1,629,1380,-8.45706,-3.61848
-588,-356,-9.31738,4.14258,0,0,0,0,0,0,0,-1,636,1380,-9.31736,-4.14255
-581,-356,-16.5185,7.32312,0,0,0,0,0,0,0,-1,643,1380,-16.5185,-7.32306
-574,-356,-18.9149,8.35583,0,0,0,0,0,0,0,-1,650,1380,-18.9149,-8.35578
-567,-356,-18.9083,9.01563,0.00303301,0.00287975,0.00198065,0.00493851,0.00097425,0.766063,0.00302043,0.0220977,657,1380,-18.9083,-9.01568
-560,-356,-18.8732,9.7345,0.00259366,0.00215365,0.00160212,0.00399081,0.0007565,0.717165,0.00244766,0.0177128,664,1380,-18.8732,-9.73452
-553,-356,-18.9336,10.3988,0.00242331,0.00158559,0.00138859,0.00345484,0.000554056,0.638917,0.00214255,0.0204576,671,1380,-18.9336,-10.3988
-546,-356,-18.945,11.0277,0.00246391,0.00112841,0.00128316,0.00324267,0.000349654,0.545483,0.00205517,0.0222801,678,1380,-18.945,-11.0277
-539,-356,-18.9658,11.6581,0.00270215,0.000780745,0.00129753,0.00335593,0.000126969,0.466732,0.00219619,0.0152166,685,1380,-18.9658,-11.6581
-532,-356,-19.0435,12.3143,0.00313695,0.000571279,0.00145757,0.00379581,-8.75769e-05,0.424536,0.00256023,0.0151578,692,1380,-19.0435,-12.3143
-525,-356,-19.0543,12.9546,0.00374731,0.000467925,0.00174614,0.00450294,-0.000287711,0.408414,0.00310232,0.0139685,699,1380,-19.0543,-12.9546
-518,-356,-19.0252,13.6024,0.0045669,0.000577593,0.00218066,0.00552757,-0.000383074,0.414959,0.00381915,0.0137272,706,1380,-19.0252,-13.6025
-511,-356,-18.9888,14.2721,0,0,0,0,0,0,0,-1,713,1380,-18.9889,-14.2721
-504,-356,-14.3925,12.3971,0,0,0,0,0,0,0,-1,720,1380,-14.3925,-12.3971
-497,-356,-5.68604,4.96387,0,0,0,0,0,0,0,-1,727,1380,-5.68605,-4.96385
-490,-356,-7.95288,5.5625,0,0,0,0,0,0,0,-1,734,1380,-7.95285,-5.56246
-483,-356,-7.2627,4.07446,0,0,0,0,0,0,0,-1,741,1380,-7.2627,-4.07441
-476,-356,-5.1936,4.16016,0,0,0,0,0,0,0,-1,748,1380,-5.1936,-4.16012
-469,-356,-10.0883,0.536011,0,0,0,0,0,0,0,-1,755,1380,-10.0883,-0.535989
-462,-356,-12.3481,-0.215698,0,0,0,0,0,0,0,-1,762,1380,-12.3481,0.215641
-455,-356,-13.1367,-0.264648,0,0,0,0,0,0,0,-1,769,1380,-13.1367,0.264647
-448,-356,-13.9116,-0.310181,0,0,0,0,0,0,0,-1,776,1380,-13.9115,0.310207
-441,-356,-13.1602,3.05603,0,0,0,0,0,0,0,-1,783,1380,-13.1602,-3.05609
-434,-356,0,0,0,0,0,0,0,0,0,-1,790,1380,0,0
-427,-356,0,0,0,0,0,0,0,0,0,-1,797,1380,0,0
-420,-356,0,0,0,0,0,0,0,0,0,-1,804,1380,0,0
-413,-356,0,0,0,0,0,0,0,0,0,-1,811,1380,0,0
-406,-356,0,0,0,0,0,0,0,0,0,-1,818,1380,0,0
-399,-356,0,0,0,0,0,0,0,0,0,-1,825,1380,0,0
-392,-356,0,0,0,0,0,0,0,0,0,-1,832,1380,0,0
-385,-356,0,0,0,0,0,0,0,0,0,-1,839,1380,0,0
-378,-356,0,0,0,0,0,0,0,0,0,-1,846,1380,0,0
-371,-356,0,0,0,0,0,0,0,0,0,-1,853,1380,0,0
-364,-356,0,0,0,0,0,0,0,0,0,-1,860,1380,0,0
-357,-356,0,0,0,0,0,0,0,0,0,-1,867,1380,0,0
-350,-356,0,0,0,0,0,0,0,0,0,-1,874,1380,0,0
-343,-356,0,0,0,0,0,0,0,0,0,-1,881,1380,0,0
-336,-356,0,0,0,0,0,0,0,0,0,-1,888,1380,0,0
-329,-356,0,0,0,0,0,0,0,0,0,-1,895,1380,0,0
-322,-356,0,0,0,0,0,0,0,0,0,-1,902,1380,0,0
-315,-356,0,0,0,0,0,0,0,0,0,-1,909,1380,0,0
-308,-356,0,0,0,0,0,0,0,0,0,-1,916,1380,0,0
-301,-356,0,0,0,0,0,0,0,0,0,-1,923,1380,0,0
-294,-356,0,0,0,0,0,0,0,0,0,-1,930,1380,0,0
-287,-356,0,0,0,0,0,0,0,0,0,-1,937,1380,0,0
-280,-356,0,0,0,0,0,0,0,0,0,-1,944,1380,0,0
-273,-356,0,0,0,0,0,0,0,0,0,-1,951,1380,0,0
-266,-356,0,0,0,0,0,0,0,0,0,-1,958,1380,0,0
-259,-356,0,0,0,0,0,0,0,0,0,-1,965,1380,0,0
-252,-356,0,0,0,0,0,0,0,0,0,-1,972,1380,0,0
-245,-356,0,0,0,0,0,0,0,0,0,-1,979,1380,0,0
-238,-356,0,0,0,0,0,0,0,0,0,-1,986,1380,0,0
-231,-356,0,0,0,0,0,0,0,0,0,-1,993,1380,0,0
-224,-356,0,0,0,0,0,0,0,0,0,-1,1000,1380,0,0
-217,-356,0,0,0,0,0,0,0,0,0,-1,1007,1380,0,0
-210,-356,0,0,0,0,0,0,0,0,0,-1,1014,1380,0,0
-203,-356,0,0,0,0,0,0,0,0,0,-1,1021,1380,0,0
-196,-356,0,0,0,0,0,0,0,0,0,-1,1028,1380,0,0
-189,-356,0,0,0,0,0,0,0,0,0,-1,1035,1380,0,0
-182,-356,0,0,0,0,0,0,0,0,0,-1,1042,1380,0,0
-175,-356,0,0,0,0,0,0,0,0,0,-1,1049,1380,0,0
-168,-356,0,0,0,0,0,0,0,0,0,-1,1056,1380,0,0
-161,-356,0,0,0,0,0,0,0,0,0,-1,1063,1380,0,0
-154,-356,0,0,0,0,0,0,0,0,0,-1,1070,1380,0,0
-147,-356,0,0,0,0,0,0,0,0,0,-1,1077,1380,0,0
-140,-356,0,0,0,0,0,0,0,0,0,-1,1084,1380,0,0
-133,-356,0,0,0,0,0,0,0,0,0,-1,1091,1380,0,0
-126,-356,0,0,0,0,0,0,0,0,0,-1,1098,1380,0,0
-119,-356,0,0,0,0,0,0,0,0,0,-1,1105,1380,0,0
-112,-356,0,0,0,0,0,0,0,0,0,-1,1112,1380,0,0
-105,-356,0,0,0,0,0,0,0,0,0,-1,1119,1380,0,0
-98,-356,0,0,0,0,0,0,0,0,0,-1,1126,1380,0,0
-91,-356,0,0,0,0,0,0,0,0,0,-1,1133,1380,0,0
-84,-356,0,0,0,0,0,0,0,0,0,-1,1140,1380,0,0
-77,-356,0,0,0,0,0,0,0,0,0,-1,1147,1380,0,0
-70,-356,0,0,0,0,0,0,0,0,0,-1,1154,1380,0,0
-63,-356,0,0,0,0,0,0,0,0,0,-1,1161,1380,0,0
-56,-356,0,0,0,0,0,0,0,0,0,-1,1168,1380,0,0
-49,-356,0,0,0,0,0,0,0,0,0,-1,1175,1380,0,0
-42,-356,0,0,0,0,0,0,0,0,0,-1,1182,1380,0,0
-35,-356,0,0,0,0,0,0,0,0,0,-1,1189,1380,0,0
-28,-356,0,0,0,0,0,0,0,0,0,-1,1196,1380,0,0
-21,-356,0,0,0,0,0,0,0,0,0,-1,1203,1380,0,0
-14,-356,0,0,0,0,0,0,0,0,0,-1,1210,1380,0,0
-7,-356,0,0,0,0,0,0,0,0,0,-1,1217,1380,0,0
0,-356,0,0,0,0,0,0,0,0,0,-1,1224,1380,0,0
7,-356,0,0,0,0,0,0,0,0,0,-1,1231,1380,0,0
14,-356,0,0,0,0,0,0,0,0,0,-1,1238,1380,0,0
21,-356,0,0,0,0,0,0,0,0,0,-1,1245,1380,0,0
28,-356,0,0,0,0,0,0,0,0,0,-1,1252,1380,0,0
35,-356,0,0,0,0,0,0,0,0,0,-1,1259,1380,0,0
42,-356,0,0,0,0,0,0,0,0,0,-1,1266,1380,0,0
49,-356,0,0,0,0,0,0,0,0,0,-1,1273,1380,0,0
56,-356,0,0,0,0,0,0,0,0,0,-1,1280,1380,0,0
63,-356,0,0,0,0,0,0,0,0,0,-1,1287,1380,0,0
70,-356,0,0,0,0,0,0,0,0,0,-1,1294,1380,0,0
77,-356,0,0,0,0,0,0,0,0,0,-1,1301,1380,0,0
84,-356,0,0,0,0,0,0,0,0,0,-1,1308,1380,0,0
91,-356,0,0,0,0,0,0,0,0,0,-1,1315,1380,0,0
98,-356,0,0,0,0,0,0,0,0,0,-1,1322,1380,0,0
105,-356,0,0,0,0,0,0,0,0,0,-1,1329,1380,0,0
112,-356,0,0,0,0,0,0,0,0,0,-1,1336,1380,0,0
119,-356,0,0,0,0,0,0,0,0,0,-1,1343,1380,0,0
126,-356,0,0,0,0,0,0,0,0,0,-1,1350,1380,0,0
133,-356,0,0,0,0,0,0,0,0,0,-1,1357,1380,0,0
140,-356,0,0,0,0,0,0,0,0,0,-1,1364,1380,0,0
147,-356,0,0,0,0,0,0,0,0,0,-1,1371,1380,0,0
154,-356,0,0,0,0,0,0,0,0,0,-1,1378,1380,0,0
161,-356,0,0,0,0,0,0,0,0,0,-1,1385,1380,0,0
168,-356,0,0,0,0,0,0,0,0,0,-1,1392,1380,0,0
175,-356,0,0,0,0,0,0,0,0,0,-1,1399,1380,0,0
182,-356,0,0,0,0,0,0,0,0,0,-1,1406,1380,0,0
189,-356,0,0,0,0,0,0,0,0,0,-1,1413,1380,0,0
196,-356,0,0,0,0,0,0,0,0,0,-1,1420,1380,0,0
203,-356,0,0,0,0,0,0,0,0,0,-1,1427,1380,0,0
210,-356,0,0,0,0,0,0,0,0,0,-1,1434,1380,0,0
217,-356,0,0,0,0,0,0,0,0,0,-1,1441,1380,0,0
224,-356,0,0,0,0,0,0,0,0,0,-1,1448,1380,0,0
231,-356,0,0,0,0,0,0,0,0,0,-1,1455,1380,0,0
238,-356,0,0,0,0,0,0,0,0,0,-1,1462,1380,0,0
245,-356,0,0,0,0,0,0,0,0,0,-1,1469,1380,0,0
252,-356,0,0,0,0,0,0,0,0,0,-1,1476,1380,0,0
259,-356,0,0,0,0,0,0,0,0,0,-1,1483,1380,0,0
266,-356,0,0,0,0,0,0,0,0,0,-1,1490,1380,0,0
273,-356,0,0,0,0,0,0,0,0,0,-1,1497,1380,0,0
280,-356,0,0,0,0,0,0,0,0,0,-1,1504,1380,0,0
287,-356,0,0,0,0,0,0,0,0,0,-1,1511,1380,0,0
294,-356,0,0,0,0,0,0,0,0,0,-1,1518,1380,0,0
301,-356,0,0,0,0,0,0,0,0,0,-1,1525,1380,0,0
308,-356,0,0,0,0,0,0,0,0,0,-1,1532,1380,0,0
315,-356,0,0,0,0,0,0,0,0,0,-1,1539,1380,0,0
322,-356,0,0,0,0,0,0,0,0,0,-1,1546,1380,0,0
329,-356,0,0,0,0,0,0,0,0,0,-1,1553,1380,0,0
336,-356,0,0,0,0,0,0,0,0,0,-1,1560,1380,0,0
343,-356,0,0,0,0,0,0,0,0,0,-1,1567,1380,0,0
350,-356,0,0,0,0,0,0,0,0,0,-1,1574,1380,0,0
357,-356,0,0,0,0,0,0,0,0,0,-1,1581,1380,0,0
364,-356,0,0,0,0,0,0,0,0,0,-1,1588,1380,0,0
371,-356,0,0,0,0,0,0,0,0,0,-1,1595,1380,0,0
378,-356,0,0,0,0,0,0,0,0,0,-1,1602,1380,0,0
385,-356,0,0,0,0,0,0,0,0,0,-1,1609,1380,0,0
392,-356,0,0,0,0,0,0,0,0,0,-1,1616,1380,0,0
399,-356,0,0,0,0,0,0,0,0,0,-1,1623,1380,0,0
406,-356,0,0,0,0,0,0,0,0,0,-1,1630,1380,0,0
413,-356,0,0,0,0,0,0,0,0,0,-1,1637,1380,0,0
420,-356,0,0,0,0,0,0,0,0,0,-1,1644,1380,0,0
427,-356,0,0,0,0,0,0,0,0,0,-1,1651,1380,0,0
434,-356,0,0,0,0,0,0,0,0,0,-1,1658,1380,0,0
441,-356,0,0,0,0,0,0,0,0,0,-1,1665,1380,0,0
448,-356,0,0,0,0,0,0,0,0,0,-1,1672,1380,0,0
455,-356,0,0,0,0,0,0,0,0,0,-1,1679,1380,0,0
462,-356,0,0,0,0,0,0,0,0,0,-1,1686,1380,0,0
469,-356,0,0,0,0,0,0,0,0,0,-1,1693,1380,0,0
476,-356,0,0,0,0,0,0,0,0,0,-1,1700,1380,0,0
483,-356,0,0,0,0,0,0,0,0,0,-1,1707,1380,0,0
490,-356,0,0,0,0,0,0,0,0,0,-1,1714,1380,0,0
497,-356,0,0,0,0,0,0,0,0,0,-1,1721,1380,0,0
504,-356,0,0,0,0,0,0,0,0,0,-1,1728,1380,0,0
511,-356,0,0,0,0,0,0,0,0,0,-1,1735,1380,0,0
518,-356,0,0,0,0,0,0,0,0,0,-1,1742,1380,0,0
525,-356,0,0,0,0,0,0,0,0,0,-1,1749,1380,0,0
532,-356,0,0,0,0,0,0,0,0,0,-1,1756,1380,0,0
539,-356,0,0,0,0,0,0,0,0,0,-1,1763,1380,0,0
546,-356,0,0,0,0,0,0,0,0,0,-1,1770,1380,0,0
553,-356,0,0,0,0,0,0,0,0,0,-1,1777,1380,0,0
560,-356,45.7938,3.65295,0,0,0,0,0,0,0,-1,1784,1380,45.7938,-3.65294
567,-356,45.6788,3.51428,0,0,0,0,0,0,0,-1,1791,1380,45.6788,-3.51422
574,-356,45.5742,3.39575,0,0,0,0,0,0,0,-1,1798,1380,45.5742,-3.39574
581,-356,45.6708,3.64172,0,0,0,0,0,0,0,-1,1805,1380,45.6707,-3.64175
588,-356,44.4739,4.87085,0,0,0,0,0,0,0,-1,1812,1380,44.4739,-4.87086
595,-356,32.0834,5.86084,0,0,0,0,0,0,0,-1,1819,1380,32.0834,-5.86079
602,-356,30.1604,6.07104,0,0,0,0,0,0,0,-1,1826,1380,30.1604,-6.07104
609,-356,28.3435,6.48901,0,0,0,0,0,0,0,-1,1833,1380,28.3435,-6.48899
616,-356,26.9358,6.80872,0,0,0,0,0,0,0,-1,1840,1380,26.9358,-6.80877
623,-356,16.1803,1.07532,0,0,0,0,0,0,0,-1,1847,1380,16.1803,-1.07529
630,-356,16.4138,6.91553,0,0,0,0,0,0,0,-1,1854,1380,16.4138,-6.9155
637,-356,24.8021,12.0151,0,0,0,0,0,0,0,-1,1861,1380,24.8022,-12.0151
644,-356,34.964,15.8927,0,0,0,0,0,0,0,-1,1868,1380,34.964,-15.8926
651,-356,34.9204,15.2201,0.000255987,0.000861555,-0.000894944,0.00150355,-0.000386006,-0.948517,0.00115278,0.0201929,1875,1380,34.9205,-15.2201
658,-356,34.8607,14.5825,0.000451816,0.00044461,-0.000484372,0.000932598,-3.61724e-05,-0.781679,0.000634133,0.01606,1882,1380,34.8608,-14.5825
665,-356,34.8464,14.0334,0.000831012,7.87259e-05,-0.000236466,0.000899166,1.05719e-05,-0.280614,0.000595951,0.0158629,1889,1380,34.8465,-14.0334
672,-356,34.7944,13.4871,0.00132939,-0.000184785,-6.81129e-05,0.00133245,-0.000187843,-0.0448627,0.000957076,0.0162828,1896,1380,34.7945,-13.4871
679,-356,34.78,12.8712,0.00194641,-0.000399094,3.28458e-05,0.00194687,-0.000399554,0.0140001,0.00144957,0.0179185,1903,1380,34.78,-12.8713
686,-356,34.7784,12.2482,0.00268958,-0.000512299,4.32386e-05,0.00269016,-0.000512882,0.0135009,0.00198659,0.0188096,1910,1380,34.7785,-12.2481
693,-356,34.7739,11.6851,0.00354384,-0.000531171,-2.42405e-05,0.00354398,-0.000531315,-0.00594828,0.00255822,0.0162888,1917,1380,34.7739,-11.6851
700,-356,34.7761,11.1147,0.00455274,-0.000393082,-0.000204943,0.00456122,-0.00040156,-0.0413431,0.00318312,0.0222259,1924,1380,34.7761,-11.1147
707,-356,34.9083,10.3459,0,0,0,0,0,0,0,-1,1931,1380,34.9084,-10.3459
714,-356,19.6907,5.82129,0,0,0,0,0,0,0,-1,1938,1380,19.6907,-5.82132
721,-356,17.2948,4.1958,0,0,0,0,0,0,0,-1,1945,1380,17.2948,-4.19584
728,-356,19.1846,2.31519,0,0,0,0,0,0,0,-1,1952,1380,19.1846,-2.31514
735,-356,20.0731,2.50842,0,0,0,0,0,0,0,-1,1959,1380,20.0731,-2.50844
742,-356,21.0111,2.43762,0,0,0,0,0,0,0,-1,1966,1380,21.0112,-2.43762
749,-356,22.1411,1.83276,0,0,0,0,0,0,0,-1,1973,1380,22.1411,-1.83275
756,-356,0,0,0,0,0,0,0,0,0,-1,1980,1380,0,0
763,-356,0,0,0,0,0,0,0,0,0,-1,1987,1380,0,0
770,-356,0,0,0,0,0,0,0,0,0,-1,1994,1380,0,0
777,-356,0,0,0,0,0,0,0,0,0,-1,2001,1380,0,0
784,-356,0,0,0,0,0,0,0,0,0,-1,2008,1380,0,0
791,-356,0,0,0,0,0,0,0,0,0,-1,2015,1380,0,0
798,-356,0,0,0,0,0,0,0,0,0,-1,2022,1380,0,0
805,-356,0,0,0,0,0,0,0,0,0,-1,2029,1380,0,0
812,-356,0,0,0,0,0,0,0,0,0,-1,2036,1380,0,0
-700,-363,0,0,0,0,0,0,0,0,0,-1,524,1387,0,0
-693,-363,0,0,0,0,0,0,0,0,0,-1,531,1387,0,0
-686,-363,0,0,0,0,0,0,0,0,0,-1,538,1387,0,0
-679,-363,0,0,0,0,0,0,0,0,0,-1,545,1387,0,0
-672,-363,0,0,0,0,0,0,0,0,0,-1,552,1387,0,0
-665,-363,0,0,0,0,0,0,0,0,0,-1,559,1387,0,0
-658,-363,0,0,0,0,0,0,0,0,0,-1,566,1387,0,0
-651,-363,0,0,0,0,0,0,0,0,0,-1,573,1387,0,0
-644,-363,0,0,0,0,0,0,0,0,0,-1,580,1387,0,0
-637,-363,0,0,0,0,0,0,0,0,0,-1,587,1387,0,0
-630,-363,0,0,0,0,0,0,0,0,0,-1,594,1387,0,0
-623,-363,-9.67566,-5.91846,0,0,0,0,0,0,0,-1,601,1387,-9.67563,5.91847
-616,-363,-9.02985,-2.98083,0,0,0,0,0,0,0,-1,608,1387,-9.02987,2.98079
-609,-363,-4.90265,0.195679,0,0,0,0,0,0,0,-1,615,1387,-4.90263,-0.195721
-602,-363,-9.65009,3.5321,0,0,0,0,0,0,0,-1,622,1387,-9.65007,-3.53211
-595,-363,-8.00256,3.48853,0,0,0,0,0,0,0,-1,629,1387,-8.00256,-3.48855
-588,-363,-10.8846,4.49768,0,0,0,0,0,0,0,-1,636,1387,-10.8846,-4.49773
-581,-363,-11.7469,5.15161,0,0,0,0,0,0,0,-1,643,1387,-11.747,-5.15167
-574,-363,-17.8334,8.33801,0,0,0,0,0,0,0,-1,650,1387,-17.8334,-8.33804
-567,-363,-18.3271,9.03613,0,0,0,0,0,0,0,-1,657,1387,-18.3271,-9.03612
-560,-363,-18.2537,9.73486,0.00273807,0.00239346,0.00190081,0.00447437,0.000657159,0.740196,0.00278978,0.0132203,664,1387,-18.2537,-9.73487
-553,-363,-18.2911,10.421,0.00247194,0.00176477,0.00157528,0.00373283,0.000503876,0.674999,0.00233876,0.0130048,671,1387,-18.2912,-10.4211
-546,-363,-18.3246,11.0485,0.00240798,0.00126247,0.0013618,0.00331258,0.00035788,0.586335,0.00209928,0.0131906,678,1387,-18.3246,-11.0484
-539,-363,-18.337,11.6929,0.00252426,0.000888671,0.00127389,0.00322027,0.000192668,0.500044,0.00208559,0.0151221,685,1387,-18.337,-11.6929
-532,-363,-18.3851,12.3405,0.00281717,0.000674669,0.00133959,0.00346117,3.06708e-05,0.448123,0.00229729,0.0130555,692,1387,-18.385,-12.3404
-525,-363,-18.4016,12.9764,0.00325826,0.000582308,0.001534,0.0039558,-0.000115231,0.426773,0.00267644,0.0119852,699,1387,-18.4016,-12.9764
-518,-363,-18.3877,13.6117,0.00385455,0.000663663,0.00186674,0.00471474,-0.000196532,0.4318,0.00321068,0.0106493,706,1387,-18.3877,-13.6117
-511,-363,-18.3439,14.3163,0.00462565,0.000961217,0.00241828,0.00582742,-0.000240557,0.461208,0.00396757,0.0284553,713,1387,-18.3438,-14.3162
-504,-363,-18.2601,15.0719,0,0,0,0,0,0,0,-1,720,1387,-18.2601,-15.0719
-497,-363,-7.18842,7.29944,0,0,0,0,0,0,0,-1,727,1387,-7.18839,-7.29945
-490,-363,-5.42413,4.6958,0,0,0,0,0,0,0,-1,734,1387,-5.42412,-4.69583
-483,-363,-6.28375,4.1394,0,0,0,0,0,0,0,-1,741,1387,-6.28374,-4.13944
-476,-363,-5.83807,4.31018,0,0,0,0,0,0,0,-1,748,1387,-5.8381,-4.31013
-469,-363,-10.7125,0.697754,0,0,0,0,0,0,0,-1,755,1387,-10.7125,-0.697811
-462,-363,-9.55951,-0.0830078,0,0,0,0,0,0,0,-1,762,1387,-9.55949,0.0830163
-455,-363,-13.1008,-0.290894,0,0,0,0,0,0,0,-1,769,1387,-13.1008,0.290921
-448,-363,-11.7324,2.46606,0,0,0,0,0,0,0,-1,776,1387,-11.7324,-2.46605
-441,-363,-12.4464,2.5354,0,0,0,0,0,0,0,-1,783,1387,-12.4463,-2.53537
-434,-363,-13.6918,2.14661,0,0,0,0,0,0,0,-1,790,1387,-13.6918,-2.14662
-427,-363,0,0,0,0,0,0,0,0,0,-1,797,1387,0,0
-420,-363,0,0,0,0,0,0,0,0,0,-1,804,1387,0,0
-413,-363,0,0,0,0,0,0,0,0,0,-1,811,1387,0,0
-406,-363,0,0,0,0,0,0,0,0,0,-1,818,1387,0,0
-399,-363,0,0,0,0,0,0,0,0,0,-1,825,1387,0,0
-392,-363,0,0,0,0,0,0,0,0,0,-1,832,1387,0,0
-385,-363,0,0,0,0,0,0,0,0,0,-1,839,1387,0,0
-378,-363,0,0,0,0,0,0,0,0,0,-1,846,1387,0,0
-371,-363,0,0,0,0,0,0,0,0,0,-1,853,1387,0,0
-364,-363,0,0,0,0,0,0,0,0,0,-1,860,1387,0,0
-357,-363,0,0,0,0,0,0,0,0,0,-1,867,1387,0,0
-350,-363,0,0,0,0,0,0,0,0,0,-1,874,1387,0,0
-343,-363,0,0,0,0,0,0,0,0,0,-1,881,1387,0,0
-336,-363,0,0,0,0,0,0,0,0,0,-1,888,1387,0,0
-329,-363,0,0,0,0,0,0,0,0,0,-1,895,1387,0,0
-322,-363,0,0,0,0,0,0,0,0,0,-1,902,1387,0,0
-315,-363,0,0,0,0,0,0,0,0,0,-1,909,1387,0,0
-308,-363,0,0,0,0,0,0,0,0,0,-1,916,1387,0,0
-301,-363,0,0,0,0,0,0,0,0,0,-1,923,1387,0,0
-294,-363,0,0,0,0,0,0,0,0,0,-1,930,1387,0,0
-287,-363,0,0,0,0,0,0,0,0,0,-1,937,1387,0,0
-280,-363,0,0,0,0,0,0,0,0,0,-1,944,1387,0,0
-273,-363,0,0,0,0,0,0,0,0,0,-1,951,1387,0,0
-266,-363,0,0,0,0,0,0,0,0,0,-1,958,1387,0,0
-259,-363,0,0,0,0,0,0,0,0,0,-1,965,1387,0,0
-252,-363,0,0,0,0,0,0,0,0,0,-1,972,1387,0,0
-245,-363,0,0,0,0,0,0,0,0,0,-1,979,1387,0,0
-238,-363,0,0,0,0,0,0,0,0,0,-1,986,1387,0,0
-231,-363,0,0,0,0,0,0,0,0,0,-1,993,1387,0,0
-224,-363,0,0,0,0,0,0,0,0,0,-1,1000,1387,0,0
-217,-363,0,0,0,0,0,0,0,0,0,-1,1007,1387,0,0
-210,-363,0,0,0,0,0,0,0,0,0,-1,1014,1387,0,0
-203,-363,0,0,0,0,0,0,0,0,0,-1,1021,1387,0,0
-196,-363,0,0,0,0,0,0,0,0,0,-1,1028,1387,0,0
-189,-363,0,0,0,0,0,0,0,0,0,-1,1035,1387,0,0
-182,-363,0,0,0,0,0,0,0,0,0,-1,1042,1387,0,0
-175,-363,0,0,0,0,0,0,0,0,0,-1,1049,1387,0,0
-168,-363,0,0,0,0,0,0,0,0,0,-1,1056,1387,0,0
-161,-363,0,0,0,0,0,0,0,0,0,-1,1063,1387,0,0
-154,-363,0,0,0,0,0,0,0,0,0,-1,1070,1387,0,0
-147,-363,0,0,0,0,0,0,0,0,0,-1,1077,1387,0,0
-140,-363,0,0,0,0,0,0,0,0,0,-1,1084,1387,0,0
-133,-363,0,0,0,0,0,0,0,0,0,-1,1091,1387,0,0
-126,-363,0,0,0,0,0,0,0,0,0,-1,1098,1387,0,0
-119,-363,0,0,0,0,0,0,0,0,0,-1,1105,1387,0,0
-112,-363,0,0,0,0,0,0,0,0,0,-1,1112,1387,0,0
-105,-363,0,0,0,0,0,0,0,0,0,-1,1119,1387,0,0
-98,-363,0,0,0,0,0,0,0,0,0,-1,1126,1387,0,0
-91,-363,0,0,0,0,0,0,0,0,0,-1,1133,1387,0,0
-84,-363,0,0,0,0,0,0,0,0,0,-1,1140,1387,0,0
-77,-363,0,0,0,0,0,0,0,0,0,-1,1147,1387,0,0
-70,-363,0,0,0,0,0,0,0,0,0,-1,1154,1387,0,0
-63,-363,0,0,0,0,0,0,0,0,0,-1,1161,1387,0,0
-56,-363,0,0,0,0,0,0,0,0,0,-1,1168,1387,0,0
-49,-363,0,0,0,0,0,0,0,0,0,-1,1175,1387,0,0
-42,-363,0,0,0,0,0,0,0,0,0,-1,1182,1387,0,0
-35,-363,0,0,0,0,0,0,0,0,0,-1,1189,1387,0,0
-28,-363,0,0,0,0,0,0,0,0,0,-1,1196,1387,0,0
-21,-363,0,0,0,0,0,0,0,0,0,-1,1203,1387,0,0
-14,-363,0,0,0,0,0,0,0,0,0,-1,1210,1387,0,0
-7,-363,0,0,0,0,0,0,0,0,0,-1,1217,1387,0,0
0,-363,0,0,0,0,0,0,0,0,0,-1,1224,1387,0,0
7,-363,0,0,0,0,0,0,0,0,0,-1,1231,1387,0,0
14,-363,0,0,0,0,0,0,0,0,0,-1,1238,1387,0,0
21,-363,0,0,0,0,0,0,0,0,0,-1,1245,1387,0,0
28,-363,0,0,0,0,0,0,0,0,0,-1,1252,1387,0,0
35,-363,0,0,0,0,0,0,0,0,0,-1,1259,1387,0,0
42,-363,0,0,0,0,0,0,0,0,0,-1,1266,1387,0,0
49,-363,0,0,0,0,0,0,0,0,0,-1,1273,1387,0,0
56,-363,0,0,0,0,0,0,0,0,0,-1,1280,1387,0,0
63,-363,0,0,0,0,0,0,0,0,0,-1,1287,1387,0,0
70,-363,0,0,0,0,0,0,0,0,0,-1,1294,1387,0,0
77,-363,0,0,0,0,0,0,0,0,0,-1,1301,1387,0,0
84,-363,0,0,0,0,0,0,0,0,0,-1,1308,1387,0,0
91,-363,0,0,0,0,0,0,0,0,0,-1,1315,1387,0,0
98,-363,0,0,0,0,0,0,0,0,0,-1,1322,1387,0,0
105,-363,0,0,0,0,0,0,0,0,0,-1,1329,1387,0,0
112,-363,0,0,0,0,0,0,0,0,0,-1,1336,1387,0,0
119,-363,0,0,0,0,0,0,0,0,0,-1,1343,1387,0,0
126,-363,0,0,0,0,0,0,0,0,0,-1,1350,1387,0,0
133,-363,0,0,0,0,0,0,0,0,0,-1,1357,1387,0,0
140,-363,0,0,0,0,0,0,0,0,0,-1,1364,1387,0,0
147,-363,0,0,0,0,0,0,0,0,0,-1,1371,1387,0,0
154,-363,0,0,0,0,0,0,0,0,0,-1,1378,1387,0,0
161,-363,0,0,0,0,0,0,0,0,0,-1,1385,1387,0,0
168,-363,0,0,0,0,0,0,0,0,0,-1,1392,1387,0,0
175,-363,0,0,0,0,0,0,0,0,0,-1,1399,1387,0,0
182,-363,0,0,0,0,0,0,0,0,0,-1,1406,1387,0,0
189,-363,0,0,0,0,0,0,0,0,0,-1,1413,1387,0,0
196,-363,0,0,0,0,0,0,0,0,0,-1,1420,1387,0,0
203,-363,0,0,0,0,0,0,0,0,0,-1,1427,1387,0,0
210,-363,0,0,0,0,0,0,0,0,0,-1,1434,1387,0,0
217,-363,0,0,0,0,0,0,0,0,0,-1,1441,1387,0,0
224,-363,0,0,0,0,0,0,0,0,0,-1,1448,1387,0,0
231,-363,0,0,0,0,0,0,0,0,0,-1,1455,1387,0,0
238,-363,0,0,0,0,0,0,0,0,0,-1,1462,1387,0,0
245,-363,0,0,0,0,0,0,0,0,0,-1,1469,1387,0,0
252,-363,0,0,0,0,0,0,0,0,0,-1,1476,1387,0,0
259,-363,0,0,0,0,0,0,0,0,0,-1,1483,1387,0,0
266,-363,0,0,0,0,0,0,0,0,0,-1,1490,1387,0,0
273,-363,0,0,0,0,0,0,0,0,0,-1,1497,1387,0,0
280,-363,0,0,0,0,0,0,0,0,0,-1,1504,1387,0,0
287,-363,0,0,0,0,0,0,0,0,0,-1,1511,1387,0,0
294,-363,0,0,0,0,0,0,0,0,0,-1,1518,1387,0,0
301,-363,0,0,0,0,0,0,0,0,0,-1,1525,1387,0,0
308,-363,0,0,0,0,0,0,0,0,0,-1,1532,1387,0,0
315,-363,0,0,0,0,0,0,0,0,0,-1,1539,1387,0,0
322,-363,0,0,0,0,0,0,0,0,0,-1,1546,1387,0,0
329,-363,0,0,0,0,0,0,0,0,0,-1,1553,1387,0,0
336,-363,0,0,0,0,0,0,0,0,0,-1,1560,1387,0,0
343,-363,0,0,0,0,0,0,0,0,0,-1,1567,1387,0,0
350,-363,0,0,0,0,0,0,0,0,0,-1,1574,1387,0,0
357,-363,0,0,0,0,0,0,0,0,0,-1,1581,1387,0,0
364,-363,0,0,0,0,0,0,0,0,0,-1,1588,1387,0,0
371,-363,0,0,0,0,0,0,0,0,0,-1,1595,1387,0,0
378,-363,0,0,0,0,0,0,0,0,0,-1,1602,1387,0,0
385,-363,0,0,0,0,0,0,0,0,0,-1,1609,1387,0,0
392,-363,0,0,0,0,0,0,0,0,0,-1,1616,1387,0,0
399,-363,0,0,0,0,0,0,0,0,0,-1,1623,1387,0,0
406,-363,0,0,0,0,0,0,0,0,0,-1,1630,1387,0,0
413,-363,0,0,0,0,0,0,0,0,0,-1,1637,1387,0,0
420,-363,0,0,0,0,0,0,0,0,0,-1,1644,1387,0,0
427,-363,0,0,0,0,0,0,0,0,0,-1,1651,1387,0,0
434,-363,0,0,0,0,0,0,0,0,0,-1,1658,1387,0,0
441,-363,0,0,0,0,0,0,0,0,0,-1,1665,1387,0,0
448,-363,0,0,0,0,0,0,0,0,0,-1,1672,1387,0,0
455,-363,0,0,0,0,0,0,0,0,0,-1,1679,1387,0,0
462,-363,0,0,0,0,0,0,0,0,0,-1,1686,1387,0,0
469,-363,0,0,0,0,0,0,0,0,0,-1,1693,1387,0,0
476,-363,0,0,0,0,0,0,0,0,0,-1,1700,1387,0,0
483,-363,0,0,0,0,0,0,0,0,0,-1,1707,1387,0,0
490,-363,0,0,0,0,0,0,0,0,0,-1,1714,1387,0,0
497,-363,0,0,0,0,0,0,0,0,0,-1,1721,1387,0,0
504,-363,0,0,0,0,0,0,0,0,0,-1,1728,1387,0,0
511,-363,0,0,0,0,0,0,0,0,0,-1,1735,1387,0,0
518,-363,0,0,0,0,0,0,0,0,0,-1,1742,1387,0,0
525,-363,0,0,0,0,0,0,0,0,0,-1,1749,1387,0,0
532,-363,0,0,0,0,0,0,0,0,0,-1,1756,1387,0,0
539,-363,0,0,0,0,0,0,0,0,0,-1,1763,1387,0,0
546,-363,0,0,0,0,0,0,0,0,0,-1,1770,1387,0,0
553,-363,45.9076,3.64331,0,0,0,0,0,0,0,-1,1777,1387,45.9076,-3.64336
560,-363,45.9459,3.6875,0,0,0,0,0,0,0,-1,1784,1387,45.9459,-3.68756
567,-363,45.9266,3.32825,0,0,0,0,0,0,0,-1,1791,1387,45.9266,-3.32824
574,-363,45.7261,2.8075,0,0,0,0,0,0,0,-1,1798,1387,45.7261,-2.80754
581,-363,39.2413,1.97632,0,0,0,0,0,0,0,-1,1805,1387,39.2413,-1.97636
588,-363,32.5608,6.72131,0,0,0,0,0,0,0,-1,1812,1387,32.5608,-6.72131
595,-363,31.4688,6.95435,0,0,0,0,0,0,0,-1,1819,1387,31.4688,-6.95431
602,-363,25.7437,5.33667,0,0,0,0,0,0,0,-1,1826,1387,25.7437,-5.33667
609,-363,27.7048,7.06885,0,0,0,0,0,0,0,-1,1833,1387,27.7048,-7.06882
616,-363,16.229,1.08704,0,0,0,0,0,0,0,-1,1840,1387,16.229,-1.08706
623,-363,15.7283,7.16663,0,0,0,0,0,0,0,-1,1847,1387,15.7282,-7.16665
630,-363,18.3192,9.27844,0,0,0,0,0,0,0,-1,1854,1387,18.3192,-9.27843
637,-363,34.2524,16.6226,0,0,0,0,0,0,0,-1,1861,1387,34.2524,-16.6225
644,-363,34.2817,15.8884,0.00047621,0.00120026,-0.00119113,0.00208317,-0.000406696,-0.93293,0.00154232,0.0174792,1868,1387,34.2818,-15.8884
651,-363,34.2925,15.2279,0.00031986,0.000645887,-0.000659421,0.00116215,-0.000196398,-0.906572,0.000847846,0.0120934,1875,1387,34.2924,-15.2279
658,-363,34.2786,14.6199,0.000596139,0.000285684,-0.000316643,0.000793557,8.82664e-05,-0.557498,0.000502208,0.0129216,1882,1387,34.2785,-14.6198
665,-363,34.2452,14.0695,0.00103216,-4.63876e-05,-7.87352e-05,0.00103788,-5.2105e-05,-0.0724891,0.000709923,0.0125873,1889,1387,34.2452,-14.0695
672,-363,34.2032,13.5144,0.00161298,-0.00032615,9.93476e-05,0.00161806,-0.000331227,0.0510548,0.0012044,0.0140268,1896,1387,34.2033,-13.5144
679,-363,34.1842,12.906,0.00234611,-0.000561222,0.000204766,0.00236046,-0.000575573,0.0699705,0.0017965,0.0148396,1903,1387,34.1842,-12.906
686,-363,34.1737,12.3132,0.0032231,-0.000726643,0.00022715,0.00323612,-0.000739664,0.0572585,0.0024416,0.0146637,1910,1387,34.1737,-12.3132
693,-363,34.1543,11.7002,0.0042756,-0.000776807,0.000128063,0.00427885,-0.000780051,0.0253252,0.00314499,0.0135945,1917,1387,34.1542,-11.7002
700,-363,34.2729,11.0416,0.00557924,-0.000635873,-0.000133838,0.00558212,-0.000638754,-0.0215209,0.00395158,0.0272656,1924,1387,34.2729,-11.0416
707,-363,34.5247,10.4471,0,0,0,0,0,0,0,-1,1931,1387,34.5247,-10.4472
714,-363,16.5782,5.3147,0,0,0,0,0,0,0,-1,1938,1387,16.5783,-5.31472
721,-363,14.4045,4.51685,0,0,0,0,0,0,0,-1,1945,1387,14.4045,-4.51685
728,-363,19.9756,0.853027,0,0,0,0,0,0,0,-1,1952,1387,19.9756,-0.853059
735,-363,21.4297,1.2981,0,0,0,0,0,0,0,-1,1959,1387,21.4297,-1.29811
742,-363,21.3621,2.79663,0,0,0,0,0,0,0,-1,1966,1387,21.362,-2.7966
749,-363,0,0,0,0,0,0,0,0,0,-1,1973,1387,0,0
756,-363,0,0,0,0,0,0,0,0,0,-1,1980,1387,0,0
763,-363,0,0,0,0,0,0,0,0,0,-1,1987,1387,0,0
770,-363,0,0,0,0,0,0,0,0,0,-1,1994,1387,0,0
777,-363,0,0,0,0,0,0,0,0,0,-1,2001,1387,0,0
784,-363,0,0,0,0,0,0,0,0,0,-1,2008,1387,0,0
791,-363,0,0,0,0,0,0,0,0,0,-1,2015,1387,0,0
798,-363,0,0,0,0,0,0,0,0,0,-1,2022,1387,0,0
805,-363,0,0,0,0,0,0,0,0,0,-1,2029,1387,0,0
812,-363,0,0,0,0,0,0,0,0,0,-1,2036,1387,0,0
-700,-370,0,0,0,0,0,0,0,0,0,-1,524,1394,0,0
-693,-370,0,0,0,0,0,0,0,0,0,-1,531,1394,0,0
-686,-370,0,0,0,0,0,0,0,0,0,-1,538,1394,0,0
-679,-370,0,0,0,0,0,0,0,0,0,-1,545,1394,0,0
-672,-370,0,0,0,0,0,0,0,0,0,-1,552,1394,0,0
-665,-370,0,0,0,0,0,0,0,0,0,-1,559,1394,0,0
-658,-370,0,0,0,0,0,0,0,0,0,-1,566,1394,0,0
-651,-370,0,0,0,0,0,0,0,0,0,-1,573,1394,0,0
-644,-370,0,0,0,0,0,0,0,0,0,-1,580,1394,0,0
-637,-370,0,0,0,0,0,0,0,0,0,-1,587,1394,0,0
-630,-370,0,0,0,0,0,0,0,0,0,-1,594,1394,0,0
-623,-370,-10.1758,-7.10486,0,0,0,0,0,0,0,-1,601,1394,-10.1758,7.10483
-616,-370,-8.85925,-1.61475,0,0,0,0,0,0,0,-1,608,1394,-8.85925,1.61476
-609,-370,-5.39325,0.0421143,0,0,0,0,0,0,0,-1,615,1394,-5.39328,-0.0421372
-602,-370,-12.3151,3.44592,0,0,0,0,0,0,0,-1,622,1394,-12.3151,-3.44595
-595,-370,-7.53284,5.44214,0,0,0,0,0,0,0,-1,629,1394,-7.53284,-5.44216
-588,-370,-11.2422,4.50598,0,0,0,0,0,0,0,-1,636,1394,-11.2422,-4.50596
-581,-370,-13.1575,5.84888,0,0,0,0,0,0,0,-1,643,1394,-13.1575,-5.84887
-574,-370,-13.0107,6.69861,0,0,0,0,0,0,0,-1,650,1394,-13.0108,-6.69866
-567,-370,-17.626,8.98157,0,0,0,0,0,0,0,-1,657,1394,-17.626,-8.98153
-560,-370,-17.6833,9.71863,0.00295419,0.00259984,0.00219458,0.00497873,0.000575297,0.745119,0.00314498,0.0301013,664,1394,-17.6833,-9.71862
-553,-370,-17.6516,10.4374,0.00260475,0.00193048,0.00176182,0.00406141,0.000473829,0.690864,0.0025643,0.0107936,671,1394,-17.6516,-10.4374
-546,-370,-17.666,11.0953,0.00243822,0.00138963,0.00144469,0.00345081,0.000377039,0.611333,0.00218573,0.0147749,678,1394,-17.6659,-11.0954
-539,-370,-17.6678,11.7643,0.00242779,0.000990852,0.00126272,0.00316213,0.000256508,0.526748,0.002028,0.0190499,685,1394,-17.6678,-11.7643
-532,-370,-17.7192,12.366,0.00257883,0.000759553,0.00124077,0.00320768,0.000130702,0.469091,0.00209625,0.0202545,692,1394,-17.7192,-12.366
-525,-370,-17.7417,13.0005,0.00286178,0.0006672,0.00135567,0.00350859,2.03889e-05,0.445172,0.0023323,0.0191705,699,1394,-17.7417,-13.0005
-518,-370,-17.7511,13.618,0.00326798,0.000716219,0.00160366,0.00404139,-5.71951e-05,0.449371,0.00271353,0.0140454,706,1394,-17.7511,-13.618
-511,-370,-17.7658,14.2954,0.00382438,0.000972449,0.00203661,0.00488461,-8.77827e-05,0.47998,0.00328606,0.0156651,713,1394,-17.7658,-14.2955
-504,-370,-17.7734,14.9926,0,0,0,0,0,0,0,-1,720,1394,-17.7734,-14.9925
-497,-370,-12.3546,11.7982,0,0,0,0,0,0,0,-1,727,1394,-12.3546,-11.7983
-490,-370,-5.30695,4.5271,0,0,0,0,0,0,0,-1,734,1394,-5.30698,-4.52704
-483,-370,-6.02997,4.59253,0,0,0,0,0,0,0,-1,741,1394,-6.02994,-4.5925
-476,-370,-6.75293,4.65796,0,0,0,0,0,0,0,-1,748,1394,-6.7529,-4.65795
-469,-370,-10.584,1.14294,0,0,0,0,0,0,0,-1,755,1394,-10.584,-1.14293
-462,-370,-9.54462,0.387207,0,0,0,0,0,0,0,-1,762,1394,-9.5446,-0.387176
-455,-370,-8.50525,-0.36853,0,0,0,0,0,0,0,-1,769,1394,-8.50523,0.368582
-448,-370,-10.9543,2.28833,0,0,0,0,0,0,0,-1,776,1394,-10.9543,-2.28835
-441,-370,-11.8699,1.8313,0,0,0,0,0,0,0,-1,783,1394,-11.8699,-1.83127
-434,-370,-12.7855,1.37415,0,0,0,0,0,0,0,-1,790,1394,-12.7855,-1.37419
-427,-370,0,0,0,0,0,0,0,0,0,-1,797,1394,0,0
-420,-370,0,0,0,0,0,0,0,0,0,-1,804,1394,0,0
-413,-370,0,0,0,0,0,0,0,0,0,-1,811,1394,0,0
-406,-370,0,0,0,0,0,0,0,0,0,-1,818,1394,0,0
-399,-370,0,0,0,0,0,0,0,0,0,-1,825,1394,0,0
-392,-370,0,0,0,0,0,0,0,0,0,-1,832,1394,0,0
-385,-370,0,0,0,0,0,0,0,0,0,-1,839,1394,0,0
-378,-370,0,0,0,0,0,0,0,0,0,-1,846,1394,0,0
-371,-370,0,0,0,0,0,0,0,0,0,-1,853,1394,0,0
-364,-370,0,0,0,0,0,0,0,0,0,-1,860,1394,0,0
-357,-370,0,0,0,0,0,0,0,0,0,-1,867,1394,0,0
-350,-370,0,0,0,0,0,0,0,0,0,-1,874,1394,0,0
-343,-370,0,0,0,0,0,0,0,0,0,-1,881,1394,0,0
-336,-370,0,0,0,0,0,0,0,0,0,-1,888,1394,0,0
-329,-370,0,0,0,0,0,0,0,0,0,-1,895,1394,0,0
-322,-370,0,0,0,0,0,0,0,0,0,-1,902,1394,0,0
-315,-370,0,0,0,0,0,0,0,0,0,-1,909,1394,0,0
-308,-370,0,0,0,0,0,0,0,0,0,-1,916,1394,0,0
-301,-370,0,0,0,0,0,0,0,0,0,-1,923,1394,0,0
-294,-370,0,0,0,0,0,0,0,0,0,-1,930,1394,0,0
-287,-370,0,0,0,0,0,0,0,0,0,-1,937,1394,0,0
-280,-370,0,0,0,0,0,0,0,0,0,-1,944,1394,0,0
-273,-370,0,0,0,0,0,0,0,0,0,-1,951,1394,0,0
-266,-370,0,0,0,0,0,0,0,0,0,-1,958,1394,0,0
-259,-370,0,0,0,0,0,0,0,0,0,-1,965,1394,0,0
-252,-370,0,0,0,0,0,0,0,0,0,-1,972,1394,0,0
-245,-370,0,0,0,0,0,0,0,0,0,-1,979,1394,0,0
-238,-370,0,0,0,0,0,0,0,0,0,-1,986,1394,0,0
-231,-370,0,0,0,0,0,0,0,0,0,-1,993,1394,0,0
-224,-370,0,0,0,0,0,0,0,0,0,-1,1000,1394,0,0
-217,-370,0,0,0,0,0,0,0,0,0,-1,1007,1394,0,0
-210,-370,0,0,0,0,0,0,0,0,0,-1,1014,1394,0,0
-203,-370,0,0,0,0,0,0,0,0,0,-1,1021,1394,0,0
-196,-370,0,0,0,0,0,0,0,0,0,-1,1028,1394,0,0
-189,-370,0,0,0,0,0,0,0,0,0,-1,1035,1394,0,0
-182,-370,0,0,0,0,0,0,0,0,0,-1,1042,1394,0,0
-175,-370,0,0,0,0,0,0,0,0,0,-1,1049,1394,0,0
-168,-370,0,0,0,0,0,0,0,0,0,-1,1056,1394,0,0
-161,-370,0,0,0,0,0,0,0,0,0,-1,1063,1394,0,0
-154,-370,0,0,0,0,0,0,0,0,0,-1,1070,1394,0,0
-147,-370,0,0,0,0,0,0,0,0,0,-1,1077,1394,0,0
-140,-370,0,0,0,0,0,0,0,0,0,-1,1084,1394,0,0
-133,-370,0,0,0,0,0,0,0,0,0,-1,1091,1394,0,0
-126,-370,0,0,0,0,0,0,0,0,0,-1,1098,1394,0,0
-119,-370,0,0,0,0,0,0,0,0,0,-1,1105,1394,0,0
-112,-370,0,0,0,0,0,0,0,0,0,-1,1112,1394,0,0
-105,-370,0,0,0,0,0,0,0,0,0,-1,1119,1394,0,0
-98,-370,0,0,0,0,0,0,0,0,0,-1,1126,1394,0,0
-91,-370,0,0,0,0,0,0,0,0,0,-1,1133,1394,0,0
-84,-370,0,0,0,0,0,0,0,0,0,-1,1140,1394,0,0
-77,-370,0,0,0,0,0,0,0,0,0,-1,1147,1394,0,0
-70,-370,0,0,0,0,0,0,0,0,0,-1,1154,1394,0,0
-63,-370,0,0,0,0,0,0,0,0,0,-1,1161,1394,0,0
-56,-370,0,0,0,0,0,0,0,0,0,-1,1168,1394,0,0
-49,-370,0,0,0,0,0,0,0,0,0,-1,1175,1394,0,0
-42,-370,0,0,0,0,0,0,0,0,0,-1,1182,1394,0,0
-35,-370,0,0,0,0,0,0,0,0,0,-1,1189,1394,0,0
-28,-370,0,0,0,0,0,0,0,0,0,-1,1196,1394,0,0
-21,-370,0,0,0,0,0,0,0,0,0,-1,1203,1394,0,0
-14,-370,0,0,0,0,0,0,0,0,0,-1,1210,1394,0,0
-7,-370,0,0,0,0,0,0,0,0,0,-1,1217,1394,0,0
0,-370,0,0,0,0,0,0,0,0,0,-1,1224,1394,0,0
7,-370,0,0,0,0,0,0,0,0,0,-1,1231,1394,0,0
14,-370,0,0,0,0,0,0,0,0,0,-1,1238,1394,0,0
21,-370,0,0,0,0,0,0,0,0,0,-1,1245,1394,0,0
28,-370,0,0,0,0,0,0,0,0,0,-1,1252,1394,0,0
35,-370,0,0,0,0,0,0,0,0,0,-1,1259,1394,0,0
42,-370,0,0,0,0,0,0,0,0,0,-1,1266,1394,0,0
49,-370,0,0,0,0,0,0,0,0,0,-1,1273,1394,0,0
56,-370,0,0,0,0,0,0,0,0,0,-1,1280,1394,0,0
63,-370,0,0,0,0,0,0,0,0,0,-1,1287,1394,0,0
70,-370,0,0,0,0,0,0,0,0,0,-1,1294,1394,0,0
77,-370,0,0,0,0,0,0,0,0,0,-1,1301,1394,0,0
84,-370,0,0,0,0,0,0,0,0,0,-1,1308,1394,0,0
91,-370,0,0,0,0,0,0,0,0,0,-1,1315,1394,0,0
98,-370,0,0,0,0,0,0,0,0,0,-1,1322,1394,0,0
105,-370,0,0,0,0,0,0,0,0,0,-1,1329,1394,0,0
112,-370,0,0,0,0,0,0,0,0,0,-1,1336,1394,0,0
119,-370,0,0,0,0,0,0,0,0,0,-1,1343,1394,0,0
126,-370,0,0,0,0,0,0,0,0,0,-1,1350,1394,0,0
133,-370,0,0,0,0,0,0,0,0,0,-1,1357,1394,0,0
140,-370,0,0,0,0,0,0,0,0,0,-1,1364,1394,0,0
147,-370,0,0,0,0,0,0,0,0,0,-1,1371,1394,0,0
154,-370,0,0,0,0,0,0,0,0,0,-1,1378,1394,0,0
161,-370,0,0,0,0,0,0,0,0,0,-1,1385,1394,0,0
168,-370,0,0,0,0,0,0,0,0,0,-1,1392,1394,0,0
175,-370,0,0,0,0,0,0,0,0,0,-1,1399,1394,0,0
182,-370,0,0,0,0,0,0,0,0,0,-1,1406,1394,0,0
189,-370,0,0,0,0,0,0,0,0,0,-1,1413,1394,0,0
196,-370,0,0,0,0,0,0,0,0,0,-1,1420,1394,0,0
203,-370,0,0,0,0,0,0,0,0,0,-1,1427,1394,0,0
210,-370,0,0,0,0,0,0,0,0,0,-1,1434,1394,0,0
217,-370,0,0,0,0,0,0,0,0,0,-1,1441,1394,0,0
224,-370,0,0,0,0,0,0,0,0,0,-1,1448,1394,0,0
231,-370,0,0,0,0,0,0,0,0,0,-1,1455,1394,0,0
238,-370,0,0,0,0,0,0,0,0,0,-1,1462,1394,0,0
245,-370,0,0,0,0,0,0,0,0,0,-1,1469,1394,0,0
252,-370,0,0,0,0,0,0,0,0,0,-1,1476,1394,0,0
259,-370,0,0,0,0,0,0,0,0,0,-1,1483,1394,0,0
266,-370,0,0,0,0,0,0,0,0,0,-1,1490,1394,0,0
273,-370,0,0,0,0,0,0,0,0,0,-1,1497,1394,0,0
280,-370,0,0,0,0,0,0,0,0,0,-1,1504,1394,0,0
287,-370,0,0,0,0,0,0,0,0,0,-1,1511,1394,0,0
294,-370,0,0,0,0,0,0,0,0,0,-1,1518,1394,0,0
301,-370,0,0,0,0,0,0,0,0,0,-1,1525,1394,0,0
308,-370,0,0,0,0,0,0,0,0,0,-1,1532,1394,0,0
315,-370,0,0,0,0,0,0,0,0,0,-1,1539,1394,0,0
322,-370,0,0,0,0,0,0,0,0,0,-1,1546,1394,0,0
329,-370,0,0,0,0,0,0,0,0,0,-1,1553,1394,0,0
336,-370,0,0,0,0,0,0,0,0,0,-1,1560,1394,0,0
343,-370,0,0,0,0,0,0,0,0,0,-1,1567,1394,0,0
350,-370,0,0,0,0,0,0,0,0,0,-1,1574,1394,0,0
357,-370,0,0,0,0,0,0,0,0,0,-1,1581,1394,0,0
364,-370,0,0,0,0,0,0,0,0,0,-1,1588,1394,0,0
371,-370,0,0,0,0,0,0,0,0,0,-1,1595,1394,0,0
378,-370,0,0,0,0,0,0,0,0,0,-1,1602,1394,0,0
385,-370,0,0,0,0,0,0,0,0,0,-1,1609,1394,0,0
392,-370,0,0,0,0,0,0,0,0,0,-1,1616,1394,0,0
399,-370,0,0,0,0,0,0,0,0,0,-1,1623,1394,0,0
406,-370,0,0,0,0,0,0,0,0,0,-1,1630,1394,0,0
413,-370,0,0,0,0,0,0,0,0,0,-1,1637,1394,0,0
420,-370,0,0,0,0,0,0,0,0,0,-1,1644,1394,0,0
427,-370,0,0,0,0,0,0,0,0,0,-1,1651,1394,0,0
434,-370,0,0,0,0,0,0,0,0,0,-1,1658,1394,0,0
441,-370,0,0,0,0,0,0,0,0,0,-1,1665,1394,0,0
448,-370,0,0,0,0,0,0,0,0,0,-1,1672,1394,0,0
455,-370,0,0,0,0,0,0,0,0,0,-1,1679,1394,0,0
462,-370,0,0,0,0,0,0,0,0,0,-1,1686,1394,0,0
469,-370,0,0,0,0,0,0,0,0,0,-1,1693,1394,0,0
476,-370,0,0,0,0,0,0,0,0,0,-1,1700,1394,0,0
483,-370,0,0,0,0,0,0,0,0,0,-1,1707,1394,0,0
490,-370,0,0,0,0,0,0,0,0,0,-1,1714,1394,0,0
497,-370,0,0,0,0,0,0,0,0,0,-1,1721,1394,0,0
504,-370,0,0,0,0,0,0,0,0,0,-1,1728,1394,0,0
511,-370,0,0,0,0,0,0,0,0,0,-1,1735,1394,0,0
518,-370,0,0,0,0,0,0,0,0,0,-1,1742,1394,0,0
525,-370,0,0,0,0,0,0,0,0,0,-1,1749,1394,0,0
532,-370,0,0,0,0,0,0,0,0,0,-1,1756,1394,0,0
539,-370,0,0,0,0,0,0,0,0,0,-1,1763,1394,0,0
546,-370,27.4949,2.81201,0,0,0,0,0,0,0,-1,1770,1394,27.4948,-2.81198
553,-370,26.5985,1.99329,0,0,0,0,0,0,0,-1,1777,1394,26.5985,-1.99327
560,-370,46.0132,3.65686,0,0,0,0,0,0,0,-1,1784,1394,46.0132,-3.65689
567,-370,46.1089,3.11719,0,0,0,0,0,0,0,-1,1791,1394,46.1089,-3.1172
574,-370,38.8953,1.49353,0,0,0,0,0,0,0,-1,1798,1394,38.8952,-1.49348
581,-370,39.178,2.86145,0,0,0,0,0,0,0,-1,1805,1394,39.1779,-2.86145
588,-370,39.2102,4.27661,0,0,0,0,0,0,0,-1,1812,1394,39.2102,-4.27657
595,-370,25.793,4.5271,0,0,0,0,0,0,0,-1,1819,1394,25.793,-4.52711
602,-370,25.1077,5.34937,0,0,0,0,0,0,0,-1,1826,1394,25.1077,-5.34932
609,-370,16.712,0.993286,0,0,0,0,0,0,0,-1,1833,1394,16.7121,-0.99323
616,-370,16.7764,7.23315,0,0,0,0,0,0,0,-1,1840,1394,16.7764,-7.23313
623,-370,17.6625,8.94263,0,0,0,0,0,0,0,-1,1847,1394,17.6624,-8.94258
630,-370,20.9681,11.1785,0,0,0,0,0,0,0,-1,1854,1394,20.9681,-11.1784
637,-370,33.7006,16.4915,0,0,0,0,0,0,0,-1,1861,1394,33.7006,-16.4914
644,-370,33.7166,15.8708,0.000376148,0.000841875,-0.000810471,0.00145227,-0.000234249,-0.925289,0.00105497,0.0153304,1868,1394,33.7165,-15.8708
651,-370,33.7112,15.2626,0.000389209,0.000447726,-0.000420202,0.000839687,-2.75206e-06,-0.820157,0.000560711,0.013179,1875,1394,33.7112,-15.2626
658,-370,33.6853,14.6937,0.000732668,0.000143746,-0.000144483,0.000766204,0.000110209,-0.228077,0.000478318,0.0123749,1882,1394,33.6853,-14.6938
665,-370,33.6451,14.1025,0.00122082,-0.000164606,7.95292e-05,0.00122537,-0.000169157,0.0571541,0.00087874,0.0138993,1889,1394,33.6451,-14.1025
672,-370,33.6073,13.5033,0.00186841,-0.000474127,0.000272468,0.00189969,-0.000505401,0.114281,0.00146429,0.015684,1896,1394,33.6073,-13.5033
679,-370,33.5984,12.9272,0.00268409,-0.000782504,0.000420153,0.00273429,-0.0008327,0.118907,0.00215474,0.0144633,1903,1394,33.5984,-12.9273
686,-370,33.5646,12.3384,0.00366387,-0.00108084,0.000513372,0.00371878,-0.00113575,0.106556,0.00293203,0.0141933,1910,1394,33.5646,-12.3383
693,-370,33.5406,11.7021,0.00489072,-0.00128761,0.000464364,0.00492543,-0.00132231,0.0746016,0.00380183,0.0133192,1917,1394,33.5406,-11.7021
700,-370,33.6855,11.0049,0.00647919,-0.00135447,0.000248091,0.00648704,-0.00136232,0.0316277,0.00484309,0.0404822,1924,1394,33.6856,-11.0049
707,-370,33.9252,10.234,0,0,0,0,0,0,0,-1,1931,1394,33.9252,-10.234
714,-370,16.9116,5.93018,0,0,0,0,0,0,0,-1,1938,1394,16.9116,-5.93014
721,-370,17.2007,4.69153,0,0,0,0,0,0,0,-1,1945,1394,17.2007,-4.69158
728,-370,20.5315,-0.313354,0,0,0,0,0,0,0,-1,1952,1394,20.5315,0.313332
735,-370,22.3652,0.233398,0,0,0,0,0,0,0,-1,1959,1394,22.3652,-0.233355
742,-370,24.1989,0.780029,0,0,0,0,0,0,0,-1,1966,1394,24.1989,-0.780041
749,-370,0,0,0,0,0,0,0,0,0,-1,1973,1394,0,0
756,-370,0,0,0,0,0,0,0,0,0,-1,1980,1394,0,0
763,-370,0,0,0,0,0,0,0,0,0,-1,1987,1394,0,0
770,-370,0,0,0,0,0,0,0,0,0,-1,1994,1394,0,0
777,-370,0,0,0,0,0,0,0,0,0,-1,2001,1394,0,0
784,-370,0,0,0,0,0,0,0,0,0,-1,2008,1394,0,0
791,-370,0,0,0,0,0,0,0,0,0,-1,2015,1394,0,0
798,-370,0,0,0,0,0,0,0,0,0,-1,2022,1394,0,0
805,-370,0,0,0,0,0,0,0,0,0,-1,2029,1394,0,0
812,-370,0,0,0,0,0,0,0,0,0,-1,2036,1394,0,0
-700,-377,0,0,0,0,0,0,0,0,0,-1,524,1401,0,0
-693,-377,0,0,0,0,0,0,0,0,0,-1,531,1401,0,0
-686,-377,0,0,0,0,0,0,0,0,0,-1,538,1401,0,0
-679,-377,0,0,0,0,0,0,0,0,0,-1,545,1401,0,0
-672,-377,0,0,0,0,0,0,0,0,0,-1,552,1401,0,0
-665,-377,0,0,0,0,0,0,0,0,0,-1,559,1401,0,0
-658,-377,0,0,0,0,0,0,0,0,0,-1,566,1401,0,0
-651,-377,0,0,0,0,0,0,0,0,0,-1,573,1401,0,0
-644,-377,0,0,0,0,0,0,0,0,0,-1,580,1401,0,0
-637,-377,0,0,0,0,0,0,0,0,0,-1,587,1401,0,0
-630,-377,0,0,0,0,0,0,0,0,0,-1,594,1401,0,0
-623,-377,0,0,0,0,0,0,0,0,0,-1,601,1401,0,0
-616,-377,-9.43915,-2.4906,0,0,0,0,0,0,0,-1,608,1401,-9.43915,2.49062
-609,-377,-7.2821,-1.35278,0,0,0,0,0,0,0,-1,615,1401,-7.28208,1.35279
-602,-377,-14.9736,3.98279,0,0,0,0,0,0,0,-1,622,1401,-14.9737,-3.98276
-595,-377,-6.9082,1.18201,0,0,0,0,0,0,0,-1,629,1401,-6.90822,-1.18204
-588,-377,-12.8003,3.44751,0,0,0,0,0,0,0,-1,636,1401,-12.8003,-3.44754
-581,-377,-11.8243,6.21521,0,0,0,0,0,0,0,-1,643,1401,-11.8244,-6.21519
-574,-377,-12.2761,6.60547,0,0,0,0,0,0,0,-1,650,1401,-12.2761,-6.60552
-567,-377,-13.4844,7.41931,0,0,0,0,0,0,0,-1,657,1401,-13.4845,-7.41926
-560,-377,-17.0586,9.66614,0,0,0,0,0,0,0,-1,664,1401,-17.0586,-9.66609
-553,-377,-17.0259,10.4568,0.00290982,0.00223237,0.00204351,0.00464249,0.000499708,0.703267,0.0029426,0.0159829,671,1401,-17.0259,-10.4568
-546,-377,-17.0386,11.1744,0.00258892,0.00162262,0.00161901,0.00379534,0.000416207,0.640394,0.00240353,0.016637,678,1401,-17.0386,-11.1744
-539,-377,-17.0477,11.7532,0.0024228,0.00117683,0.00134382,0.00328102,0.000318609,0.568348,0.00208926,0.0216741,685,1401,-17.0477,-11.7532
-532,-377,-17.0725,12.3428,0.00240998,0.000895335,0.00122483,0.00309271,0.000212611,0.50851,0.00199472,0.0202009,692,1401,-17.0725,-12.3427
-525,-377,-17.0253,13.0313,0.00253048,0.000773646,0.00124979,0.00317967,0.000124452,0.47908,0.00207954,0.0243513,699,1401,-17.0253,-13.0312
-518,-377,-17.095,13.6538,0.00275962,0.000765182,0.00139804,0.00347965,4.51492e-05,0.4756,0.00230487,0.0165455,706,1401,-17.095,-13.6538
-511,-377,-17.1452,14.3153,0.00312156,0.000947814,0.0016985,0.00405117,1.82076e-05,0.500776,0.00269473,0.0124362,713,1401,-17.1452,-14.3153
-504,-377,-17.1616,14.9851,0.00362082,0.00133349,0.00221631,0.00497115,-1.68383e-05,0.547207,0.00331973,0.0157684,720,1401,-17.1616,-14.9851
-497,-377,-17.0051,15.689,0,0,0,0,0,0,0,-1,727,1401,-17.0051,-15.6889
-490,-377,-8.88409,10.1245,0,0,0,0,0,0,0,-1,734,1401,-8.8841,-10.1245
-483,-377,-5.6524,5.07324,0,0,0,0,0,0,0,-1,741,1401,-5.6524,-5.07325
-476,-377,-6.11682,5.10535,0,0,0,0,0,0,0,-1,748,1401,-6.11681,-5.10537
-469,-377,-10.3211,1.9281,0,0,0,0,0,0,0,-1,755,1401,-10.3211,-1.92808
-462,-377,-9.2204,1.0022,0,0,0,0,0,0,0,-1,762,1401,-9.22039,-1.00218
-455,-377,-8.11969,0.0762939,0,0,0,0,0,0,0,-1,769,1401,-8.11968,-0.0762759
-448,-377,-9.05334,0.877319,0,0,0,0,0,0,0,-1,776,1401,-9.05332,-0.877324
-441,-377,-11.212,0.763428,0,0,0,0,0,0,0,-1,783,1401,-11.212,-0.763415
-434,-377,-11.0984,0.996216,0,0,0,0,0,0,0,-1,790,1401,-11.0984,-0.996265
-427,-377,-11.1733,1.25732,0,0,0,0,0,0,0,-1,797,1401,-11.1733,-1.25732
-420,-377,0,0,0,0,0,0,0,0,0,-1,804,1401,0,0
-413,-377,0,0,0,0,0,0,0,0,0,-1,811,1401,0,0
-406,-377,0,0,0,0,0,0,0,0,0,-1,818,1401,0,0
-399,-377,0,0,0,0,0,0,0,0,0,-1,825,1401,0,0
-392,-377,0,0,0,0,0,0,0,0,0,-1,832,1401,0,0
-385,-377,0,0,0,0,0,0,0,0,0,-1,839,1401,0,0
-378,-377,0,0,0,0,0,0,0,0,0,-1,846,1401,0,0
-371,-377,0,0,0,0,0,0,0,0,0,-1,853,1401,0,0
-364,-377,0,0,0,0,0,0,0,0,0,-1,860,1401,0,0
-357,-377,0,0,0,0,0,0,0,0,0,-1,867,1401,0,0
-350,-377,0,0,0,0,0,0,0,0,0,-1,874,1401,0,0
-343,-377,0,0,0,0,0,0,0,0,0,-1,881,1401,0,0
-336,-377,0,0,0,0,0,0,0,0,0,-1,888,1401,0,0
-329,-377,0,0,0,0,0,0,0,0,0,-1,895,1401,0,0
-322,-377,0,0,0,0,0,0,0,0,0,-1,902,1401,0,0
-315,-377,0,0,0,0,0,0,0,0,0,-1,909,1401,0,0
-308,-377,0,0,0,0,0,0,0,0,0,-1,916,1401,0,0
-301,-377,0,0,0,0,0,0,0,0,0,-1,923,1401,0,0
-294,-377,0,0,0,0,0,0,0,0,0,-1,930,1401,0,0
-287,-377,0,0,0,0,0,0,0,0,0,-1,937,1401,0,0
-280,-377,0,0,0,0,0,0,0,0,0,-1,944,1401,0,0
-273,-377,0,0,0,0,0,0,0,0,0,-1,951,1401,0,0
-266,-377,0,0,0,0,0,0,0,0,0,-1,958,1401,0,0
-259,-377,0,0,0,0,0,0,0,0,0,-1,965,1401,0,0
-252,-377,0,0,0,0,0,0,0,0,0,-1,972,1401,0,0
-245,-377,0,0,0,0,0,0,0,0,0,-1,979,1401,0,0
-238,-377,0,0,0,0,0,0,0,0,0,-1,986,1401,0,0
-231,-377,0,0,0,0,0,0,0,0,0,-1,993,1401,0,0
-224,-377,0,0,0,0,0,0,0,0,0,-1,1000,1401,0,0
-217,-377,0,0,0,0,0,0,0,0,0,-1,1007,1401,0,0
-210,-377,0,0,0,0,0,0,0,0,0,-1,1014,1401,0,0
-203,-377,0,0,0,0,0,0,0,0,0,-1,1021,1401,0,0
-196,-377,0,0,0,0,0,0,0,0,0,-1,1028,1401,0,0
-189,-377,0,0,0,0,0,0,0,0,0,-1,1035,1401,0,0
-182,-377,0,0,0,0,0,0,0,0,0,-1,1042,1401,0,0
-175,-377,0,0,0,0,0,0,0,0,0,-1,1049,1401,0,0
-168,-377,0,0,0,0,0,0,0,0,0,-1,1056,1401,0,0
-161,-377,0,0,0,0,0,0,0,0,0,-1,1063,1401,0,0
-154,-377,0,0,0,0,0,0,0,0,0,-1,1070,1401,0,0
-147,-377,0,0,0,0,0,0,0,0,0,-1,1077,1401,0,0
-140,-377,0,0,0,0,0,0,0,0,0,-1,1084,1401,0,0
-133,-377,0,0,0,0,0,0,0,0,0,-1,1091,1401,0,0
-126,-377,0,0,0,0,0,0,0,0,0,-1,1098,1401,0,0
-119,-377,0,0,0,0,0,0,0,0,0,-1,1105,1401,0,0
-112,-377,0,0,0,0,0,0,0,0,0,-1,1112,1401,0,0
-105,-377,0,0,0,0,0,0,0,0,0,-1,1119,1401,0,0
-98,-377,0,0,0,0,0,0,0,0,0,-1,1126,1401,0,0
-91,-377,0,0,0,0,0,0,0,0,0,-1,1133,1401,0,0
-84,-377,0,0,0,0,0,0,0,0,0,-1,1140,1401,0,0
-77,-377,0,0,0,0,0,0,0,0,0,-1,1147,1401,0,0
-70,-377,0,0,0,0,0,0,0,0,0,-1,1154,1401,0,0
-63,-377,0,0,0,0,0,0,0,0,0,-1,1161,1401,0,0
-56,-377,0,0,0,0,0,0,0,0,0,-1,1168,1401,0,0
-49,-377,0,0,0,0,0,0,0,0,0,-1,1175,1401,0,0
-42,-377,0,0,0,0,0,0,0,0,0,-1,1182,1401,0,0
-35,-377,0,0,0,0,0,0,0,0,0,-1,1189,1401,0,0
-28,-377,0,0,0,0,0,0,0,0,0,-1,1196,1401,0,0
-21,-377,0,0,0,0,0,0,0,0,0,-1,1203,1401,0,0
-14,-377,0,0,0,0,0,0,0,0,0,-1,1210,1401,0,0
-7,-377,0,0,0,0,0,0,0,0,0,-1,1217,1401,0,0
0,-377,0,0,0,0,0,0,0,0,0,-1,1224,1401,0,0
7,-377,0,0,0,0,0,0,0,0,0,-1,1231,1401,0,0
14,-377,0,0,0,0,0,0,0,0,0,-1,1238,1401,0,0
21,-377,0,0,0,0,0,0,0,0,0,-1,1245,1401,0,0
28,-377,0,0,0,0,0,0,0,0,0,-1,1252,1401,0,0
35,-377,0,0,0,0,0,0,0,0,0,-1,1259,1401,0,0
42,-377,0,0,0,0,0,0,0,0,0,-1,1266,1401,0,0
49,-377,0,0,0,0,0,0,0,0,0,-1,1273,1401,0,0
56,-377,0,0,0,0,0,0,0,0,0,-1,1280,1401,0,0
63,-377,0,0,0,0,0,0,0,0,0,-1,1287,1401,0,0
70,-377,0,0,0,0,0,0,0,0,0,-1,1294,1401,0,0
77,-377,0,0,0,0,0,0,0,0,0,-1,1301,1401,0,0
84,-377,0,0,0,0,0,0,0,0,0,-1,1308,1401,0,0
91,-377,0,0,0,0,0,0,0,0,0,-1,1315,1401,0,0
98,-377,0,0,0,0,0,0,0,0,0,-1,1322,1401,0,0
105,-377,0,0,0,0,0,0,0,0,0,-1,1329,1401,0,0
112,-377,0,0,0,0,0,0,0,0,0,-1,1336,1401,0,0
119,-377,0,0,0,0,0,0,0,0,0,-1,1343,1401,0,0
126,-377,0,0,0,0,0,0,0,0,0,-1,1350,1401,0,0
133,-377,0,0,0,0,0,0,0,0,0,-1,1357,1401,0,0
140,-377,0,0,0,0,0,0,0,0,0,-1,1364,1401,0,0
147,-377,0,0,0,0,0,0,0,0,0,-1,1371,1401,0,0
154,-377,0,0,0,0,0,0,0,0,0,-1,1378,1401,0,0
161,-377,0,0,0,0,0,0,0,0,0,-1,1385,1401,0,0
168,-377,0,0,0,0,0,0,0,0,0,-1,1392,1401,0,0
175,-377,0,0,0,0,0,0,0,0,0,-1,1399,1401,0,0
182,-377,0,0,0,0,0,0,0,0,0,-1,1406,1401,0,0
189,-377,0,0,0,0,0,0,0,0,0,-1,1413,1401,0,0
196,-377,0,0,0,0,0,0,0,0,0,-1,1420,1401,0,0
203,-377,0,0,0,0,0,0,0,0,0,-1,1427,1401,0,0
210,-377,0,0,0,0,0,0,0,0,0,-1,1434,1401,0,0
217,-377,0,0,0,0,0,0,0,0,0,-1,1441,1401,0,0
224,-377,0,0,0,0,0,0,0,0,0,-1,1448,1401,0,0
231,-377,0,0,0,0,0,0,0,0,0,-1,1455,1401,0,0
238,-377,0,0,0,0,0,0,0,0,0,-1,1462,1401,0,0
245,-377,0,0,0,0,0,0,0,0,0,-1,1469,1401,0,0
252,-377,0,0,0,0,0,0,0,0,0,-1,1476,1401,0,0
259,-377,0,0,0,0,0,0,0,0,0,-1,1483,1401,0,0
266,-377,0,0,0,0,0,0,0,0,0,-1,1490,1401,0,0
273,-377,0,0,0,0,0,0,0,0,0,-1,1497,1401,0,0
280,-377,0,0,0,0,0,0,0,0,0,-1,1504,1401,0,0
287,-377,0,0,0,0,0,0,0,0,0,-1,1511,1401,0,0
294,-377,0,0,0,0,0,0,0,0,0,-1,1518,1401,0,0
301,-377,0,0,0,0,0,0,0,0,0,-1,1525,1401,0,0
308,-377,0,0,0,0,0,0,0,0,0,-1,1532,1401,0,0
315,-377,0,0,0,0,0,0,0,0,0,-1,1539,1401,0,0
322,-377,0,0,0,0,0,0,0,0,0,-1,1546,1401,0,0
329,-377,0,0,0,0,0,0,0,0,0,-1,1553,1401,0,0
336,-377,0,0,0,0,0,0,0,0,0,-1,1560,1401,0,0
343,-377,0,0,0,0,0,0,0,0,0,-1,1567,1401,0,0
350,-377,0,0,0,0,0,0,0,0,0,-1,1574,1401,0,0
357,-377,0,0,0,0,0,0,0,0,0,-1,1581,1401,0,0
364,-377,0,0,0,0,0,0,0,0,0,-1,1588,1401,0,0
371,-377,0,0,0,0,0,0,0,0,0,-1,1595,1401,0,0
378,-377,0,0,0,0,0,0,0,0,0,-1,1602,1401,0,0
385,-377,0,0,0,0,0,0,0,0,0,-1,1609,1401,0,0
392,-377,0,0,0,0,0,0,0,0,0,-1,1616,1401,0,0
399,-377,0,0,0,0,0,0,0,0,0,-1,1623,1401,0,0
406,-377,0,0,0,0,0,0,0,0,0,-1,1630,1401,0,0
413,-377,0,0,0,0,0,0,0,0,0,-1,1637,1401,0,0
420,-377,0,0,0,0,0,0,0,0,0,-1,1644,1401,0,0
427,-377,0,0,0,0,0,0,0,0,0,-1,1651,1401,0,0
434,-377,0,0,0,0,0,0,0,0,0,-1,1658,1401,0,0
441,-377,0,0,0,0,0,0,0,0,0,-1,1665,1401,0,0
448,-377,0,0,0,0,0,0,0,0,0,-1,1672,1401,0,0
455,-377,0,0,0,0,0,0,0,0,0,-1,1679,1401,0,0
462,-377,0,0,0,0,0,0,0,0,0,-1,1686,1401,0,0
469,-377,0,0,0,0,0,0,0,0,0,-1,1693,1401,0,0
476,-377,0,0,0,0,0,0,0,0,0,-1,1700,1401,0,0
483,-377,0,0,0,0,0,0,0,0,0,-1,1707,1401,0,0
490,-377,0,0,0,0,0,0,0,0,0,-1,1714,1401,0,0
497,-377,0,0,0,0,0,0,0,0,0,-1,1721,1401,0,0
504,-377,0,0,0,0,0,0,0,0,0,-1,1728,1401,0,0
511,-377,0,0,0,0,0,0,0,0,0,-1,1735,1401,0,0
518,-377,0,0,0,0,0,0,0,0,0,-1,1742,1401,0,0
525,-377,0,0,0,0,0,0,0,0,0,-1,1749,1401,0,0
532,-377,0,0,0,0,0,0,0,0,0,-1,1756,1401,0,0
539,-377,0,0,0,0,0,0,0,0,0,-1,1763,1401,0,0
546,-377,27.8485,2.34094,0,0,0,0,0,0,0,-1,1770,1401,27.8486,-2.34091
553,-377,27.2189,2.42493,0,0,0,0,0,0,0,-1,1777,1401,27.2188,-2.42498
560,-377,38.3577,-2.15015,0,0,0,0,0,0,0,-1,1784,1401,38.3576,2.1501
567,-377,38.4889,-0.285645,0,0,0,0,0,0,0,-1,1791,1401,38.4889,0.2857
574,-377,38.6221,1.61694,0,0,0,0,0,0,0,-1,1798,1401,38.6221,-1.61689
581,-377,39.1818,3.76367,0,0,0,0,0,0,0,-1,1805,1401,39.1818,-3.76366
588,-377,25.882,4.35217,0,0,0,0,0,0,0,-1,1812,1401,25.8819,-4.3522
595,-377,25.5392,5.11804,0,0,0,0,0,0,0,-1,1819,1401,25.5392,-5.11808
602,-377,24.816,5.79126,0,0,0,0,0,0,0,-1,1826,1401,24.816,-5.79124
609,-377,15.0223,4.76135,0,0,0,0,0,0,0,-1,1833,1401,15.0224,-4.76129
616,-377,14.1842,5.78992,0,0,0,0,0,0,0,-1,1840,1401,14.1842,-5.78987
623,-377,15.8248,8.76721,0,0,0,0,0,0,0,-1,1847,1401,15.8248,-8.76725
630,-377,32.6591,17.4821,0,0,0,0,0,0,0,-1,1854,1401,32.6591,-17.4821
637,-377,33.0099,16.5583,0.0009053,0.00199352,-0.000452121,0.00215685,0.000741972,-1.22414,0.0012653,0.0404319,1861,1401,33.0099,-16.5583
644,-377,33.1235,15.8922,0.000439057,0.000414126,-0.000445389,0.000872155,-1.89725e-05,-0.771408,0.000587863,0.014196,1868,1401,33.1236,-15.8922
651,-377,33.1185,15.2765,0.000553956,0.000168106,-0.000163235,0.000613748,0.000108314,-0.351115,0.000378266,0.0138723,1875,1401,33.1186,-15.2764
658,-377,33.0847,14.7094,0.000912641,-7.14098e-05,6.85116e-05,0.000917388,-7.61568e-05,0.0691772,0.000638494,0.0148453,1882,1401,33.0848,-14.7093
665,-377,33.0591,14.0946,0.00143988,-0.00035411,0.000280374,0.00148268,-0.000396907,0.151475,0.00114394,0.0192733,1889,1401,33.0591,-14.0946
672,-377,33.0262,13.493,0.00215153,-0.000696133,0.000493434,0.00223461,-0.00077921,0.166801,0.00180639,0.0197191,1896,1401,33.0263,-13.493
679,-377,32.9762,12.9413,0.00303738,-0.00108679,0.000699048,0.00315264,-0.00120206,0.163421,0.0025969,0.0177177,1903,1401,32.9762,-12.9413
686,-377,32.9401,12.3809,0.00410411,-0.00155222,0.00090401,0.00424508,-0.00169319,0.154691,0.00353241,0.0156717,1910,1401,32.94,-12.3808
693,-377,33.0065,11.7235,0.00550335,-0.00197071,0.000964345,0.00562577,-0.00209313,0.126271,0.00460945,0.018493,1917,1401,33.0064,-11.7235
700,-377,33.1564,11,0,0,0,0,0,0,0,-1,1924,1401,33.1564,-11
707,-377,28.6234,9.18152,0,0,0,0,0,0,0,-1,1931,1401,28.6234,-9.18151
714,-377,16.5369,5.45959,0,0,0,0,0,0,0,-1,1938,1401,16.5369,-5.4596
721,-377,17.0913,5.42529,0,0,0,0,0,0,0,-1,1945,1401,17.0914,-5.42529
728,-377,14.5396,2.79724,0,0,0,0,0,0,0,-1,1952,1401,14.5396,-2.7972
735,-377,23.2977,-0.991089,0,0,0,0,0,0,0,-1,1959,1401,23.2978,0.991076
742,-377,0,0,0,0,0,0,0,0,0,-1,1966,1401,0,0
749,-377,0,0,0,0,0,0,0,0,0,-1,1973,1401,0,0
756,-377,0,0,0,0,0,0,0,0,0,-1,1980,1401,0,0
763,-377,0,0,0,0,0,0,0,0,0,-1,1987,1401,0,0
770,-377,0,0,0,0,0,0,0,0,0,-1,1994,1401,0,0
777,-377,0,0,0,0,0,0,0,0,0,-1,2001,1401,0,0
784,-377,0,0,0,0,0,0,0,0,0,-1,2008,1401,0,0
791,-377,0,0,0,0,0,0,0,0,0,-1,2015,1401,0,0
798,-377,0,0,0,0,0,0,0,0,0,-1,2022,1401,0,0
805,-377,0,0,0,0,0,0,0,0,0,-1,2029,1401,0,0
812,-377,0,0,0,0,0,0,0,0,0,-1,2036,1401,0,0
-700,-384,0,0,0,0,0,0,0,0,0,-1,524,1408,0,0
-693,-384,0,0,0,0,0,0,0,0,0,-1,531,1408,0,0
-686,-384,0,0,0,0,0,0,0,0,0,-1,538,1408,0,0
-679,-384,0,0,0,0,0,0,0,0,0,-1,545,1408,0,0
-672,-384,0,0,0,0,0,0,0,0,0,-1,552,1408,0,0
-665,-384,0,0,0,0,0,0,0,0,0,-1,559,1408,0,0
-658,-384,0,0,0,0,0,0,0,0,0,-1,566,1408,0,0
-651,-384,0,0,0,0,0,0,0,0,0,-1,573,1408,0,0
-644,-384,0,0,0,0,0,0,0,0,0,-1,580,1408,0,0
-637,-384,0,0,0,0,0,0,0,0,0,-1,587,1408,0,0
-630,-384,0,0,0,0,0,0,0,0,0,-1,594,1408,0,0
-623,-384,0,0,0,0,0,0,0,0,0,-1,601,1408,0,0
-616,-384,-10.019,-3.36646,0,0,0,0,0,0,0,-1,608,1408,-10.019,3.36648
-609,-384,-7.72357,-2.3418,0,0,0,0,0,0,0,-1,615,1408,-7.72358,2.34182
-602,-384,-11.7632,-2.85156,0,0,0,0,0,0,0,-1,622,1408,-11.7632,2.85157
-595,-384,-10.2217,2.8855,0,0,0,0,0,0,0,-1,629,1408,-10.2218,-2.88548
-588,-384,-12.1653,2.29041,0,0,0,0,0,0,0,-1,636,1408,-12.1654,-2.29038
-581,-384,-11.9297,3.60376,0,0,0,0,0,0,0,-1,643,1408,-11.9298,-3.6038
-574,-384,-11.8677,6.02722,0,0,0,0,0,0,0,-1,650,1408,-11.8677,-6.02722
-567,-384,-12.0743,7.04639,0,0,0,0,0,0,0,-1,657,1408,-12.0743,-7.04641
-560,-384,-16.5862,9.69128,0,0,0,0,0,0,0,-1,664,1408,-16.5862,-9.6913
-553,-384,-16.4113,10.4718,0.00316556,0.00256009,0.00235775,0.00523993,0.000485714,0.721547,0.00334316,0.0427044,671,1408,-16.4113,-10.4718
-546,-384,-16.3763,11.1958,0.0027377,0.00186017,0.00181309,0.00416436,0.000433511,0.666681,0.00264361,0.015233,678,1408,-16.3763,-11.1958
-539,-384,-16.4323,11.7885,0.0024614,0.0013653,0.00144148,0.0034555,0.000371198,0.603737,0.00219045,0.0166498,685,1408,-16.4322,-11.7884
-532,-384,-16.4315,12.3633,0.00232578,0.0010296,0.00122283,0.00306164,0.000293736,0.541721,0.00195057,0.022522,692,1408,-16.4315,-12.3632
-525,-384,-16.4349,13.0417,0.00233271,0.000875693,0.00116647,0.00297947,0.000228929,0.506264,0.00191457,0.0229337,699,1408,-16.4349,-13.0417
-518,-384,-16.4679,13.7136,0.00243846,0.000830313,0.00123439,0.00310757,0.000161206,0.496721,0.00202012,0.0143068,706,1408,-16.4679,-13.7136
-511,-384,-16.5217,14.3628,0.00266678,0.00096133,0.00143986,0.00348747,0.000140636,0.518055,0.00227955,0.0111884,713,1408,-16.5217,-14.3628
-504,-384,-16.5117,15.0198,0.0030258,0.00127371,0.00182986,0.00417851,0.000120996,0.562147,0.00274623,0.0123835,720,1408,-16.5117,-15.0198
-497,-384,-16.496,15.6831,0.00356952,0.00175682,0.0024513,0.00527666,4.96807e-05,0.608321,0.00350133,0.0414285,727,1408,-16.4959,-15.6831
-490,-384,-16.3398,16.4567,0,0,0,0,0,0,0,-1,734,1408,-16.3398,-16.4567
-483,-384,-6.26471,7.61194,0,0,0,0,0,0,0,-1,741,1408,-6.26469,-7.61191
-476,-384,-6.02734,5.67761,0,0,0,0,0,0,0,-1,748,1408,-6.02736,-5.6776
-469,-384,-10.206,2.63721,0,0,0,0,0,0,0,-1,755,1408,-10.206,-2.6372
-462,-384,-9.04291,1.43542,0,0,0,0,0,0,0,-1,762,1408,-9.04293,-1.43545
-455,-384,-7.87988,0.233765,0,0,0,0,0,0,0,-1,769,1408,-7.87986,-0.233709
-448,-384,-9.35529,7.19226,0,0,0,0,0,0,0,-1,776,1408,-9.35531,-7.19226
-441,-384,-10.4697,1.79004,0,0,0,0,0,0,0,-1,783,1408,-10.4697,-1.79003
-434,-384,-10.6449,0.552246,0,0,0,0,0,0,0,-1,790,1408,-10.6449,-0.552216
-427,-384,-10.968,1.10583,0,0,0,0,0,0,0,-1,797,1408,-10.968,-1.10588
-420,-384,-12.5607,4.54858,0,0,0,0,0,0,0,-1,804,1408,-12.5607,-4.54859
-413,-384,0,0,0,0,0,0,0,0,0,-1,811,1408,0,0
-406,-384,0,0,0,0,0,0,0,0,0,-1,818,1408,0,0
-399,-384,0,0,0,0,0,0,0,0,0,-1,825,1408,0,0
-392,-384,0,0,0,0,0,0,0,0,0,-1,832,1408,0,0
-385,-384,0,0,0,0,0,0,0,0,0,-1,839,1408,0,0
-378,-384,0,0,0,0,0,0,0,0,0,-1,846,1408,0,0
-371,-384,0,0,0,0,0,0,0,0,0,-1,853,1408,0,0
-364,-384,0,0,0,0,0,0,0,0,0,-1,860,1408,0,0
-357,-384,0,0,0,0,0,0,0,0,0,-1,867,1408,0,0
-350,-384,0,0,0,0,0,0,0,0,0,-1,874,1408,0,0
-343,-384,0,0,0,0,0,0,0,0,0,-1,881,1408,0,0
-336,-384,0,0,0,0,0,0,0,0,0,-1,888,1408,0,0
-329,-384,0,0,0,0,0,0,0,0,0,-1,895,1408,0,0
-322,-384,0,0,0,0,0,0,0,0,0,-1,902,1408,0,0
-315,-384,0,0,0,0,0,0,0,0,0,-1,909,1408,0,0
-308,-384,0,0,0,0,0,0,0,0,0,-1,916,1408,0,0
-301,-384,0,0,0,0,0,0,0,0,0,-1,923,1408,0,0
-294,-384,0,0,0,0,0,0,0,0,0,-1,930,1408,0,0
-287,-384,0,0,0,0,0,0,0,0,0,-1,937,1408,0,0
-280,-384,0,0,0,0,0,0,0,0,0,-1,944,1408,0,0
-273,-384,0,0,0,0,0,0,0,0,0,-1,951,1408,0,0
-266,-384,0,0,0,0,0,0,0,0,0,-1,958,1408,0,0
-259,-384,0,0,0,0,0,0,0,0,0,-1,965,1408,0,0
-252,-384,0,0,0,0,0,0,0,0,0,-1,972,1408,0,0
-245,-384,0,0,0,0,0,0,0,0,0,-1,979,1408,0,0
-238,-384,0,0,0,0,0,0,0,0,0,-1,986,1408,0,0
-231,-384,0,0,0,0,0,0,0,0,0,-1,993,1408,0,0
-224,-384,0,0,0,0,0,0,0,0,0,-1,1000,1408,0,0
-217,-384,0,0,0,0,0,0,0,0,0,-1,1007,1408,0,0
-210,-384,0,0,0,0,0,0,0,0,0,-1,1014,1408,0,0
-203,-384,0,0,0,0,0,0,0,0,0,-1,1021,1408,0,0
-196,-384,0,0,0,0,0,0,0,0,0,-1,1028,1408,0,0
-189,-384,0,0,0,0,0,0,0,0,0,-1,1035,1408,0,0
-182,-384,0,0,0,0,0,0,0,0,0,-1,1042,1408,0,0
-175,-384,0,0,0,0,0,0,0,0,0,-1,1049,1408,0,0
-168,-384,0,0,0,0,0,0,0,0,0,-1,1056,1408,0,0
-161,-384,0,0,0,0,0,0,0,0,0,-1,1063,1408,0,0
-154,-384,0,0,0,0,0,0,0,0,0,-1,1070,1408,0,0
-147,-384,0,0,0,0,0,0,0,0,0,-1,1077,1408,0,0
-140,-384,0,0,0,0,0,0,0,0,0,-1,1084,1408,0,0
-133,-384,0,0,0,0,0,0,0,0,0,-1,1091,1408,0,0
-126,-384,0,0,0,0,0,0,0,0,0,-1,1098,1408,0,0
-119,-384,0,0,0,0,0,0,0,0,0,-1,1105,1408,0,0
-112,-384,0,0,0,0,0,0,0,0,0,-1,1112,1408,0,0
-105,-384,0,0,0,0,0,0,0,0,0,-1,1119,1408,0,0
-98,-384,0,0,0,0,0,0,0,0,0,-1,1126,1408,0,0
-91,-384,0,0,0,0,0,0,0,0,0,-1,1133,1408,0,0
-84,-384,0,0,0,0,0,0,0,0,0,-1,1140,1408,0,0
-77,-384,0,0,0,0,0,0,0,0,0,-1,1147,1408,0,0
-70,-384,0,0,0,0,0,0,0,0,0,-1,1154,1408,0,0
-63,-384,0,0,0,0,0,0,0,0,0,-1,1161,1408,0,0
-56,-384,0,0,0,0,0,0,0,0,0,-1,1168,1408,0,0
-49,-384,0,0,0,0,0,0,0,0,0,-1,1175,1408,0,0
-42,-384,0,0,0,0,0,0,0,0,0,-1,1182,1408,0,0
-35,-384,0,0,0,0,0,0,0,0,0,-1,1189,1408,0,0
-28,-384,0,0,0,0,0,0,0,0,0,-1,1196,1408,0,0
-21,-384,0,0,0,0,0,0,0,0,0,-1,1203,1408,0,0
-14,-384,0,0,0,0,0,0,0,0,0,-1,1210,1408,0,0
-7,-384,0,0,0,0,0,0,0,0,0,-1,1217,1408,0,0
0,-384,0,0,0,0,0,0,0,0,0,-1,1224,1408,0,0
7,-384,0,0,0,0,0,0,0,0,0,-1,1231,1408,0,0
14,-384,0,0,0,0,0,0,0,0,0,-1,1238,1408,0,0
21,-384,0,0,0,0,0,0,0,0,0,-1,1245,1408,0,0
28,-384,0,0,0,0,0,0,0,0,0,-1,1252,1408,0,0
35,-384,0,0,0,0,0,0,0,0,0,-1,1259,1408,0,0
42,-384,0,0,0,0,0,0,0,0,0,-1,1266,1408,0,0
49,-384,0,0,0,0,0,0,0,0,0,-1,1273,1408,0,0
56,-384,0,0,0,0,0,0,0,0,0,-1,1280,1408,0,0
63,-384,0,0,0,0,0,0,0,0,0,-1,1287,1408,0,0
70,-384,0,0,0,0,0,0,0,0,0,-1,1294,1408,0,0
77,-384,0,0,0,0,0,0,0,0,0,-1,1301,1408,0,0
84,-384,0,0,0,0,0,0,0,0,0,-1,1308,1408,0,0
91,-384,0,0,0,0,0,0,0,0,0,-1,1315,1408,0,0
98,-384,0,0,0,0,0,0,0,0,0,-1,1322,1408,0,0
105,-384,0,0,0,0,0,0,0,0,0,-1,1329,1408,0,0
112,-384,0,0,0,0,0,0,0,0,0,-1,1336,1408,0,0
119,-384,0,0,0,0,0,0,0,0,0,-1,1343,1408,0,0
126,-384,0,0,0,0,0,0,0,0,0,-1,1350,1408,0,0
133,-384,0,0,0,0,0,0,0,0,0,-1,1357,1408,0,0
140,-384,0,0,0,0,0,0,0,0,0,-1,1364,1408,0,0
147,-384,0,0,0,0,0,0,0,0,0,-1,1371,1408,0,0
154,-384,0,0,0,0,0,0,0,0,0,-1,1378,1408,0,0
161,-384,0,0,0,0,0,0,0,0,0,-1,1385,1408,0,0
168,-384,0,0,0,0,0,0,0,0,0,-1,1392,1408,0,0
175,-384,0,0,0,0,0,0,0,0,0,-1,1399,1408,0,0
182,-384,0,0,0,0,0,0,0,0,0,-1,1406,1408,0,0
189,-384,0,0,0,0,0,0,0,0,0,-1,1413,1408,0,0
196,-384,0,0,0,0,0,0,0,0,0,-1,1420,1408,0,0
203,-384,0,0,0,0,0,0,0,0,0,-1,1427,1408,0,0
210,-384,0,0,0,0,0,0,0,0,0,-1,1434,1408,0,0
217,-384,0,0,0,0,0,0,0,0,0,-1,1441,1408,0,0
224,-384,0,0,0,0,0,0,0,0,0,-1,1448,1408,0,0
231,-384,0,0,0,0,0,0,0,0,0,-1,1455,1408,0,0
238,-384,0,0,0,0,0,0,0,0,0,-1,1462,1408,0,0
245,-384,0,0,0,0,0,0,0,0,0,-1,1469,1408,0,0
252,-384,0,0,0,0,0,0,0,0,0,-1,1476,1408,0,0
259,-384,0,0,0,0,0,0,0,0,0,-1,1483,1408,0,0
266,-384,0,0,0,0,0,0,0,0,0,-1,1490,1408,0,0
273,-384,0,0,0,0,0,0,0,0,0,-1,1497,1408,0,0
280,-384,0,0,0,0,0,0,0,0,0,-1,1504,1408,0,0
287,-384,0,0,0,0,0,0,0,0,0,-1,1511,1408,0,0
294,-384,0,0,0,0,0,0,0,0,0,-1,1518,1408,0,0
301,-384,0,0,0,0,0,0,0,0,0,-1,1525,1408,0,0
308,-384,0,0,0,0,0,0,0,0,0,-1,1532,1408,0,0
315,-384,0,0,0,0,0,0,0,0,0,-1,1539,1408,0,0
322,-384,0,0,0,0,0,0,0,0,0,-1,1546,1408,0,0
329,-384,0,0,0,0,0,0,0,0,0,-1,1553,1408,0,0
336,-384,0,0,0,0,0,0,0,0,0,-1,1560,1408,0,0
343,-384,0,0,0,0,0,0,0,0,0,-1,1567,1408,0,0
350,-384,0,0,0,0,0,0,0,0,0,-1,1574,1408,0,0
357,-384,0,0,0,0,0,0,0,0,0,-1,1581,1408,0,0
364,-384,0,0,0,0,0,0,0,0,0,-1,1588,1408,0,0
371,-384,0,0,0,0,0,0,0,0,0,-1,1595,1408,0,0
378,-384,0,0,0,0,0,0,0,0,0,-1,1602,1408,0,0
385,-384,0,0,0,0,0,0,0,0,0,-1,1609,1408,0,0
392,-384,0,0,0,0,0,0,0,0,0,-1,1616,1408,0,0
399,-384,0,0,0,0,0,0,0,0,0,-1,1623,1408,0,0
406,-384,0,0,0,0,0,0,0,0,0,-1,1630,1408,0,0
413,-384,0,0,0,0,0,0,0,0,0,-1,1637,1408,0,0
420,-384,0,0,0,0,0,0,0,0,0,-1,1644,1408,0,0
427,-384,0,0,0,0,0,0,0,0,0,-1,1651,1408,0,0
434,-384,0,0,0,0,0,0,0,0,0,-1,1658,1408,0,0
441,-384,0,0,0,0,0,0,0,0,0,-1,1665,1408,0,0
448,-384,0,0,0,0,0,0,0,0,0,-1,1672,1408,0,0
455,-384,0,0,0,0,0,0,0,0,0,-1,1679,1408,0,0
462,-384,0,0,0,0,0,0,0,0,0,-1,1686,1408,0,0
469,-384,0,0,0,0,0,0,0,0,0,-1,1693,1408,0,0
476,-384,0,0,0,0,0,0,0,0,0,-1,1700,1408,0,0
483,-384,0,0,0,0,0,0,0,0,0,-1,1707,1408,0,0
490,-384,0,0,0,0,0,0,0,0,0,-1,1714,1408,0,0
497,-384,0,0,0,0,0,0,0,0,0,-1,1721,1408,0,0
504,-384,0,0,0,0,0,0,0,0,0,-1,1728,1408,0,0
511,-384,0,0,0,0,0,0,0,0,0,-1,1735,1408,0,0
518,-384,0,0,0,0,0,0,0,0,0,-1,1742,1408,0,0
525,-384,0,0,0,0,0,0,0,0,0,-1,1749,1408,0,0
532,-384,0,0,0,0,0,0,0,0,0,-1,1756,1408,0,0
539,-384,27.6886,2.85803,0,0,0,0,0,0,0,-1,1763,1408,27.6886,-2.85807
546,-384,27.5044,2.9425,0,0,0,0,0,0,0,-1,1770,1408,27.5044,-2.94255
553,-384,27.3052,2.78394,0,0,0,0,0,0,0,-1,1777,1408,27.3051,-2.78394
560,-384,26.833,3.19812,0,0,0,0,0,0,0,-1,1784,1408,26.833,-3.19816
567,-384,38.2566,0.109985,0,0,0,0,0,0,0,-1,1791,1408,38.2566,-0.110044
574,-384,38.4003,2.05945,0,0,0,0,0,0,0,-1,1798,1408,38.4003,-2.05949
581,-384,25.819,3.91846,0,0,0,0,0,0,0,-1,1805,1408,25.8189,-3.91848
588,-384,23.3721,4.25439,0,0,0,0,0,0,0,-1,1812,1408,23.3721,-4.25442
595,-384,24.981,5.59595,0,0,0,0,0,0,0,-1,1819,1408,24.981,-5.59598
602,-384,20.6605,4.17261,0,0,0,0,0,0,0,-1,1826,1408,20.6606,-4.17265
609,-384,14.158,5.49475,0,0,0,0,0,0,0,-1,1833,1408,14.158,-5.49474
616,-384,14.7997,7.6908,0,0,0,0,0,0,0,-1,1840,1408,14.7996,-7.69079
623,-384,16.4293,9.58899,0,0,0,0,0,0,0,-1,1847,1408,16.4294,-9.58901
630,-384,32.5613,17.0581,0,0,0,0,0,0,0,-1,1854,1408,32.5613,-17.0581
637,-384,32.5459,16.5154,0.000730136,-7.06836e-05,-0.000216642,0.000784987,-0.000125534,-0.247973,0.000569798,0.0233269,1861,1408,32.5459,-16.5153
644,-384,32.5079,15.9447,0.00060707,7.25514e-05,-0.000189987,0.000667717,1.19043e-05,-0.308992,0.00044123,0.0167678,1868,1408,32.508,-15.9447
651,-384,32.4893,15.3252,0.000776892,-7.94102e-05,1.92642e-05,0.000777325,-7.98434e-05,0.0224818,0.000546778,0.0157158,1875,1408,32.4892,-15.3252
658,-384,32.4606,14.7186,0.00112385,-0.00028316,0.000232549,0.00116129,-0.000320599,0.159625,0.00090029,0.016036,1882,1408,32.4606,-14.7186
665,-384,32.4469,14.1454,0.00165191,-0.000563145,0.000454804,0.00174165,-0.000652891,0.194826,0.00142933,0.0181345,1889,1408,32.4469,-14.1454
672,-384,32.4225,13.5414,0.00236485,-0.000943542,0.000719941,0.00251473,-0.00109342,0.205248,0.00213636,0.0165487,1896,1408,32.4225,-13.5414
679,-384,32.384,12.9468,0.00324804,-0.00142567,0.00102476,0.00346285,-0.00164048,0.206634,0.00300838,0.0156677,1903,1408,32.384,-12.9467
686,-384,32.3595,12.3934,0.00429769,-0.00207946,0.00141137,0.00459608,-0.00237785,0.208355,0.00409373,0.0130503,1910,1408,32.3595,-12.3934
693,-384,32.4202,11.787,0.00571958,-0.00273561,0.00168784,0.00604406,-0.00306009,0.189927,0.00534957,0.0280065,1917,1408,32.4202,-11.787
700,-384,32.5153,11.2054,0,0,0,0,0,0,0,-1,1924,1408,32.5153,-11.2055
707,-384,17.0566,6.62842,0,0,0,0,0,0,0,-1,1931,1408,17.0567,-6.62848
714,-384,16.038,5.0282,0,0,0,0,0,0,0,-1,1938,1408,16.038,-5.02819
721,-384,13.8843,2.8717,0,0,0,0,0,0,0,-1,1945,1408,13.8843,-2.87171
728,-384,15.4409,6.25745,0,0,0,0,0,0,0,-1,1952,1408,15.4409,-6.2574
735,-384,16.7598,6.71289,0,0,0,0,0,0,0,-1,1959,1408,16.7598,-6.71287
742,-384,0,0,0,0,0,0,0,0,0,-1,1966,1408,0,0
749,-384,0,0,0,0,0,0,0,0,0,-1,1973,1408,0,0
756,-384,0,0,0,0,0,0,0,0,0,-1,1980,1408,0,0
763,-384,0,0,0,0,0,0,0,0,0,-1,1987,1408,0,0
770,-384,0,0,0,0,0,0,0,0,0,-1,1994,1408,0,0
777,-384,0,0,0,0,0,0,0,0,0,-1,2001,1408,0,0
784,-384,0,0,0,0,0,0,0,0,0,-1,2008,1408,0,0
791,-384,0,0,0,0,0,0,0,0,0,-1,2015,1408,0,0
798,-384,0,0,0,0,0,0,0,0,0,-1,2022,1408,0,0
805,-384,0,0,0,0,0,0,0,0,0,-1,2029,1408,0,0
812,-384,0,0,0,0,0,0,0,0,0,-1,2036,1408,0,0
-700,-391,0,0,0,0,0,0,0,0,0,-1,524,1415,0,0
-693,-391,0,0,0,0,0,0,0,0,0,-1,531,1415,0,0
-686,-391,0,0,0,0,0,0,0,0,0,-1,538,1415,0,0
-679,-391,0,0,0,0,0,0,0,0,0,-1,545,1415,0,0
-672,-391,0,0,0,0,0,0,0,0,0,-1,552,1415,0,0
-665,-391,0,0,0,0,0,0,0,0,0,-1,559,1415,0,0
-658,-391,0,0,0,0,0,0,0,0,0,-1,566,1415,0,0
-651,-391,0,0,0,0,0,0,0,0,0,-1,573,1415,0,0
-644,-391,0,0,0,0,0,0,0,0,0,-1,580,1415,0,0
-637,-391,0,0,0,0,0,0,0,0,0,-1,587,1415,0,0
-630,-391,0,0,0,0,0,0,0,0,0,-1,594,1415,0,0
-623,-391,0,0,0,0,0,0,0,0,0,-1,601,1415,0,0
-616,-391,0,0,0,0,0,0,0,0,0,-1,608,1415,0,0
-609,-391,-7.71753,-3.69763,0,0,0,0,0,0,0,-1,615,1415,-7.71751,3.69759
-602,-391,-13.9493,-4.12805,0,0,0,0,0,0,0,-1,622,1415,-13.9493,4.12803
-595,-391,-10.8315,1.76172,0,0,0,0,0,0,0,-1,629,1415,-10.8315,-1.76171
-588,-391,-10.265,2.16431,0,0,0,0,0,0,0,-1,636,1415,-10.265,-2.16431
-581,-391,-11.3325,2.44836,0,0,0,0,0,0,0,-1,643,1415,-11.3325,-2.44842
-574,-391,-11.1471,6.19983,0,0,0,0,0,0,0,-1,650,1415,-11.1471,-6.19981
-567,-391,-11.5172,6.82458,0,0,0,0,0,0,0,-1,657,1415,-11.5171,-6.82454
-560,-391,-11.2459,7.37195,0,0,0,0,0,0,0,-1,664,1415,-11.2459,-7.37191
-553,-391,-15.8256,10.3195,0,0,0,0,0,0,0,-1,671,1415,-15.8256,-10.3195
-546,-391,-15.7499,11.1619,0.00305453,0.00222968,0.00213753,0.00481906,0.00046515,0.690096,0.00306943,0.0164533,678,1415,-15.7499,-11.1619
-539,-391,-15.7258,11.8247,0.00265166,0.00164231,0.00164399,0.00386669,0.000427278,0.636473,0.00244783,0.014507,685,1415,-15.7258,-11.8247
-532,-391,-15.7664,12.4309,0.00236947,0.00120905,0.00130569,0.00321806,0.000360461,0.576318,0.00203588,0.0245011,692,1415,-15.7663,-12.4309
-525,-391,-15.8063,13.1198,0.00224097,0.000989352,0.00115519,0.00292898,0.000301347,0.53716,0.00186036,0.0231497,699,1415,-15.8064,-13.1197
-518,-391,-15.8635,13.767,0.00220528,0.000898119,0.00113912,0.002865,0.000238402,0.524946,0.0018357,0.0146233,706,1415,-15.8635,-13.767
-511,-391,-15.8671,14.3911,0.00226769,0.000968473,0.00123963,0.00301761,0.000218554,0.544053,0.00194299,0.0136815,713,1415,-15.8671,-14.3911
-504,-391,-15.8731,15.042,0.00244693,0.00120766,0.00149673,0.00344722,0.000207367,0.589142,0.00223224,0.0122933,720,1415,-15.8731,-15.042
-497,-391,-15.9021,15.6812,0.00276238,0.00161227,0.00193988,0.00421064,0.000164006,0.641304,0.00275405,0.0136736,727,1415,-15.9021,-15.6811
-490,-391,-15.8982,16.3408,0,0,0,0,0,0,0,-1,734,1415,-15.8982,-16.3408
-483,-391,-11.1018,12.9382,0,0,0,0,0,0,0,-1,741,1415,-11.1018,-12.9382
-476,-391,-6.05731,6.85303,0,0,0,0,0,0,0,-1,748,1415,-6.05728,-6.85304
-469,-391,-3.88953,5.0979,0,0,0,0,0,0,0,-1,755,1415,-3.88955,-5.09794
-462,-391,-8.67688,2.03125,0,0,0,0,0,0,0,-1,762,1415,-8.67685,-2.03121
-455,-391,-8.65576,6.46997,0,0,0,0,0,0,0,-1,769,1415,-8.65579,-6.46999
-448,-391,-8.39618,4.38403,0,0,0,0,0,0,0,-1,776,1415,-8.39617,-4.38405
-441,-391,-9.77704,2.5946,0,0,0,0,0,0,0,-1,783,1415,-9.77702,-2.5946
-434,-391,-11.5403,2.12878,0,0,0,0,0,0,0,-1,790,1415,-11.5403,-2.12881
-427,-391,-10.5311,2.50403,0,0,0,0,0,0,0,-1,797,1415,-10.5311,-2.504
-420,-391,-14.7087,1.24365,0,0,0,0,0,0,0,-1,804,1415,-14.7088,-1.24365
-413,-391,0,0,0,0,0,0,0,0,0,-1,811,1415,0,0
-406,-391,0,0,0,0,0,0,0,0,0,-1,818,1415,0,0
-399,-391,0,0,0,0,0,0,0,0,0,-1,825,1415,0,0
-392,-391,0,0,0,0,0,0,0,0,0,-1,832,1415,0,0
-385,-391,0,0,0,0,0,0,0,0,0,-1,839,1415,0,0
-378,-391,0,0,0,0,0,0,0,0,0,-1,846,1415,0,0
-371,-391,0,0,0,0,0,0,0,0,0,-1,853,1415,0,0
-364,-391,0,0,0,0,0,0,0,0,0,-1,860,1415,0,0
-357,-391,0,0,0,0,0,0,0,0,0,-1,867,1415,0,0
-350,-391,0,0,0,0,0,0,0,0,0,-1,874,1415,0,0
-343,-391,0,0,0,0,0,0,0,0,0,-1,881,1415,0,0
-336,-391,0,0,0,0,0,0,0,0,0,-1,888,1415,0,0
-329,-391,0,0,0,0,0,0,0,0,0,-1,895,1415,0,0
-322,-391,0,0,0,0,0,0,0,0,0,-1,902,1415,0,0
-315,-391,0,0,0,0,0,0,0,0,0,-1,909,1415,0,0
-308,-391,0,0,0,0,0,0,0,0,0,-1,916,1415,0,0
-301,-391,0,0,0,0,0,0,0,0,0,-1,923,1415,0,0
-294,-391,0,0,0,0,0,0,0,0,0,-1,930,1415,0,0
-287,-391,0,0,0,0,0,0,0,0,0,-1,937,1415,0,0
-280,-391,0,0,0,0,0,0,0,0,0,-1,944,1415,0,0
-273,-391,0,0,0,0,0,0,0,0,0,-1,951,1415,0,0
-266,-391,0,0,0,0,0,0,0,0,0,-1,958,1415,0,0
-259,-391,0,0,0,0,0,0,0,0,0,-1,965,1415,0,0
-252,-391,0,0,0,0,0,0,0,0,0,-1,972,1415,0,0
-245,-391,0,0,0,0,0,0,0,0,0,-1,979,1415,0,0
-238,-391,0,0,0,0,0,0,0,0,0,-1,986,1415,0,0
-231,-391,0,0,0,0,0,0,0,0,0,-1,993,1415,0,0
-224,-391,0,0,0,0,0,0,0,0,0,-1,1000,1415,0,0
-217,-391,0,0,0,0,0,0,0,0,0,-1,1007,1415,0,0
-210,-391,0,0,0,0,0,0,0,0,0,-1,1014,1415,0,0
-203,-391,0,0,0,0,0,0,0,0,0,-1,1021,1415,0,0
-196,-391,0,0,0,0,0,0,0,0,0,-1,1028,1415,0,0
-189,-391,0,0,0,0,0,0,0,0,0,-1,1035,1415,0,0
-182,-391,0,0,0,0,0,0,0,0,0,-1,1042,1415,0,0
-175,-391,0,0,0,0,0,0,0,0,0,-1,1049,1415,0,0
-168,-391,0,0,0,0,0,0,0,0,0,-1,1056,1415,0,0
-161,-391,0,0,0,0,0,0,0,0,0,-1,1063,1415,0,0
-154,-391,0,0,0,0,0,0,0,0,0,-1,1070,1415,0,0
-147,-391,0,0,0,0,0,0,0,0,0,-1,1077,1415,0,0
-140,-391,0,0,0,0,0,0,0,0,0,-1,1084,1415,0,0
-133,-391,0,0,0,0,0,0,0,0,0,-1,1091,1415,0,0
-126,-391,0,0,0,0,0,0,0,0,0,-1,1098,1415,0,0
-119,-391,0,0,0,0,0,0,0,0,0,-1,1105,1415,0,0
-112,-391,0,0,0,0,0,0,0,0,0,-1,1112,1415,0,0
-105,-391,0,0,0,0,0,0,0,0,0,-1,1119,1415,0,0
-98,-391,0,0,0,0,0,0,0,0,0,-1,1126,1415,0,0
-91,-391,0,0,0,0,0,0,0,0,0,-1,1133,1415,0,0
-84,-391,0,0,0,0,0,0,0,0,0,-1,1140,1415,0,0
-77,-391,0,0,0,0,0,0,0,0,0,-1,1147,1415,0,0
-70,-391,0,0,0,0,0,0,0,0,0,-1,1154,1415,0,0
-63,-391,0,0,0,0,0,0,0,0,0,-1,1161,1415,0,0
-56,-391,0,0,0,0,0,0,0,0,0,-1,1168,1415,0,0
-49,-391,0,0,0,0,0,0,0,0,0,-1,1175,1415,0,0
-42,-391,0,0,0,0,0,0,0,0,0,-1,1182,1415,0,0
-35,-391,0,0,0,0,0,0,0,0,0,-1,1189,1415,0,0
-28,-391,0,0,0,0,0,0,0,0,0,-1,1196,1415,0,0
-21,-391,0,0,0,0,0,0,0,0,0,-1,1203,1415,0,0
-14,-391,0,0,0,0,0,0,0,0,0,-1,1210,1415,0,0
-7,-391,0,0,0,0,0,0,0,0,0,-1,1217,1415,0,0
0,-391,0,0,0,0,0,0,0,0,0,-1,1224,1415,0,0
7,-391,0,0,0,0,0,0,0,0,0,-1,1231,1415,0,0
14,-391,0,0,0,0,0,0,0,0,0,-1,1238,1415,0,0
21,-391,0,0,0,0,0,0,0,0,0,-1,1245,1415,0,0
28,-391,0,0,0,0,0,0,0,0,0,-1,1252,1415,0,0
35,-391,0,0,0,0,0,0,0,0,0,-1,1259,1415,0,0
42,-391,0,0,0,0,0,0,0,0,0,-1,1266,1415,0,0
49,-391,0,0,0,0,0,0,0,0,0,-1,1273,1415,0,0
56,-391,0,0,0,0,0,0,0,0,0,-1,1280,1415,0,0
63,-391,0,0,0,0,0,0,0,0,0,-1,1287,1415,0,0
70,-391,0,0,0,0,0,0,0,0,0,-1,1294,1415,0,0
77,-391,0,0,0,0,0,0,0,0,0,-1,1301,1415,0,0
84,-391,0,0,0,0,0,0,0,0,0,-1,1308,1415,0,0
91,-391,0,0,0,0,0,0,0,0,0,-1,1315,1415,0,0
98,-391,0,0,0,0,0,0,0,0,0,-1,1322,1415,0,0
105,-391,0,0,0,0,0,0,0,0,0,-1,1329,1415,0,0
112,-391,0,0,0,0,0,0,0,0,0,-1,1336,1415,0,0
119,-391,0,0,0,0,0,0,0,0,0,-1,1343,1415,0,0
126,-391,0,0,0,0,0,0,0,0,0,-1,1350,1415,0,0
133,-391,0,0,0,0,0,0,0,0,0,-1,1357,1415,0,0
140,-391,0,0,0,0,0,0,0,0,0,-1,1364,1415,0,0
147,-391,0,0,0,0,0,0,0,0,0,-1,1371,1415,0,0
154,-391,0,0,0,0,0,0,0,0,0,-1,1378,1415,0,0
161,-391,0,0,0,0,0,0,0,0,0,-1,1385,1415,0,0
168,-391,0,0,0,0,0,0,0,0,0,-1,1392,1415,0,0
175,-391,0,0,0,0,0,0,0,0,0,-1,1399,1415,0,0
182,-391,0,0,0,0,0,0,0,0,0,-1,1406,1415,0,0
189,-391,0,0,0,0,0,0,0,0,0,-1,1413,1415,0,0
196,-391,0,0,0,0,0,0,0,0,0,-1,1420,1415,0,0
203,-391,0,0,0,0,0,0,0,0,0,-1,1427,1415,0,0
210,-391,0,0,0,0,0,0,0,0,0,-1,1434,1415,0,0
217,-391,0,0,0,0,0,0,0,0,0,-1,1441,1415,0,0
224,-391,0,0,0,0,0,0,0,0,0,-1,1448,1415,0,0
231,-391,0,0,0,0,0,0,0,0,0,-1,1455,1415,0,0
238,-391,0,0,0,0,0,0,0,0,0,-1,1462,1415,0,0
245,-391,0,0,0,0,0,0,0,0,0,-1,1469,1415,0,0
252,-391,0,0,0,0,0,0,0,0,0,-1,1476,1415,0,0
259,-391,0,0,0,0,0,0,0,0,0,-1,1483,1415,0,0
266,-391,0,0,0,0,0,0,0,0,0,-1,1490,1415,0,0
273,-391,0,0,0,0,0,0,0,0,0,-1,1497,1415,0,0
280,-391,0,0,0,0,0,0,0,0,0,-1,1504,1415,0,0
287,-391,0,0,0,0,0,0,0,0,0,-1,1511,1415,0,0
294,-391,0,0,0,0,0,0,0,0,0,-1,1518,1415,0,0
301,-391,0,0,0,0,0,0,0,0,0,-1,1525,1415,0,0
308,-391,0,0,0,0,0,0,0,0,0,-1,1532,1415,0,0
315,-391,0,0,0,0,0,0,0,0,0,-1,1539,1415,0,0
322,-391,0,0,0,0,0,0,0,0,0,-1,1546,1415,0,0
329,-391,0,0,0,0,0,0,0,0,0,-1,1553,1415,0,0
336,-391,0,0,0,0,0,0,0,0,0,-1,1560,1415,0,0
343,-391,0,0,0,0,0,0,0,0,0,-1,1567,1415,0,0
350,-391,0,0,0,0,0,0,0,0,0,-1,1574,1415,0,0
357,-391,0,0,0,0,0,0,0,0,0,-1,1581,1415,0,0
364,-391,0,0,0,0,0,0,0,0,0,-1,1588,1415,0,0
371,-391,0,0,0,0,0,0,0,0,0,-1,1595,1415,0,0
378,-391,0,0,0,0,0,0,0,0,0,-1,1602,1415,0,0
385,-391,0,0,0,0,0,0,0,0,0,-1,1609,1415,0,0
392,-391,0,0,0,0,0,0,0,0,0,-1,1616,1415,0,0
399,-391,0,0,0,0,0,0,0,0,0,-1,1623,1415,0,0
406,-391,0,0,0,0,0,0,0,0,0,-1,1630,1415,0,0
413,-391,0,0,0,0,0,0,0,0,0,-1,1637,1415,0,0
420,-391,0,0,0,0,0,0,0,0,0,-1,1644,1415,0,0
427,-391,0,0,0,0,0,0,0,0,0,-1,1651,1415,0,0
434,-391,0,0,0,0,0,0,0,0,0,-1,1658,1415,0,0
441,-391,0,0,0,0,0,0,0,0,0,-1,1665,1415,0,0
448,-391,0,0,0,0,0,0,0,0,0,-1,1672,1415,0,0
455,-391,0,0,0,0,0,0,0,0,0,-1,1679,1415,0,0
462,-391,0,0,0,0,0,0,0,0,0,-1,1686,1415,0,0
469,-391,0,0,0,0,0,0,0,0,0,-1,1693,1415,0,0
476,-391,0,0,0,0,0,0,0,0,0,-1,1700,1415,0,0
483,-391,0,0,0,0,0,0,0,0,0,-1,1707,1415,0,0
490,-391,0,0,0,0,0,0,0,0,0,-1,1714,1415,0,0
497,-391,0,0,0,0,0,0,0,0,0,-1,1721,1415,0,0
504,-391,0,0,0,0,0,0,0,0,0,-1,1728,1415,0,0
511,-391,0,0,0,0,0,0,0,0,0,-1,1735,1415,0,0
518,-391,0,0,0,0,0,0,0,0,0,-1,1742,1415,0,0
525,-391,0,0,0,0,0,0,0,0,0,-1,1749,1415,0,0
532,-391,28.5959,3.02356,0,0,0,0,0,0,0,-1,1756,1415,28.596,-3.02358
539,-391,27.5881,3.25012,0,0,0,0,0,0,0,-1,1763,1415,27.5882,-3.25016
546,-391,27.2837,3.28064,0,0,0,0,0,0,0,-1,1770,1415,27.2837,-3.28064
553,-391,32.5952,5.04553,0,0,0,0,0,0,0,-1,1777,1415,32.5952,-5.04551
560,-391,31.2947,5.67017,0,0,0,0,0,0,0,-1,1784,1415,31.2947,-5.67011
567,-391,30.1473,6.17603,0,0,0,0,0,0,0,-1,1791,1415,30.1473,-6.17602
574,-391,27.5656,5.6842,0,0,0,0,0,0,0,-1,1798,1415,27.5655,-5.68422
581,-391,25.8883,5.76123,0,0,0,0,0,0,0,-1,1805,1415,25.8883,-5.76124
588,-391,24.2717,5.47986,0,0,0,0,0,0,0,-1,1812,1415,24.2717,-5.47982
595,-391,22.8827,6.1991,0,0,0,0,0,0,0,-1,1819,1415,22.8827,-6.19909
602,-391,15.1635,5.69849,0,0,0,0,0,0,0,-1,1826,1415,15.1635,-5.69847
609,-391,14.8285,7.50476,0,0,0,0,0,0,0,-1,1833,1415,14.8285,-7.50479
616,-391,20.7952,12.0503,0,0,0,0,0,0,0,-1,1840,1415,20.7952,-12.0503
623,-391,31.9144,17.6436,0,0,0,0,0,0,0,-1,1847,1415,31.9144,-17.6436
630,-391,32.0653,17.0237,0.000894477,-0.000415337,2.3396e-05,0.000894895,-0.000415755,0.0178545,0.000773375,0.0471075,1854,1415,32.0653,-17.0236
637,-391,31.9333,16.5425,0.000819615,-0.000236383,-3.73113e-05,0.000820932,-0.0002377,-0.0352741,0.000641375,0.015857,1861,1415,31.9334,-16.5424
644,-391,31.9142,15.9485,0.000779319,-0.000135993,-1.41649e-05,0.000779538,-0.000136212,-0.0154705,0.000570542,0.0157924,1868,1415,31.9142,-15.9484
651,-391,31.8834,15.377,0.000989073,-0.000230078,0.000142924,0.0010056,-0.000246609,0.115152,0.000765955,0.0174375,1875,1415,31.8835,-15.377
658,-391,31.8502,14.7827,0.0013494,-0.000396483,0.000328002,0.00140899,-0.000456071,0.179711,0.00112267,0.0188837,1882,1415,31.8502,-14.7827
665,-391,31.8362,14.1925,0.00189222,-0.000672935,0.000557508,0.00200815,-0.000788864,0.205019,0.00166522,0.0152814,1889,1415,31.8362,-14.1925
672,-391,31.8083,13.5917,0.00260106,-0.00109089,0.000879403,0.00279983,-0.00128966,0.222291,0.00241413,0.0126917,1896,1415,31.8084,-13.5916
679,-391,31.7839,12.967,0.00346107,-0.00167158,0.00130219,0.00377254,-0.00198305,0.234781,0.00337611,0.0118718,1903,1415,31.7839,-12.967
686,-391,31.7825,12.3849,0.00444641,-0.00255651,0.00192558,0.00494096,-0.00305106,0.251397,0.004657,0.0126313,1910,1415,31.7825,-12.3849
693,-391,31.8187,11.9819,0.00581057,-0.00352722,0.00251653,0.00644559,-0.00416224,0.247179,0.00617155,0.034986,1917,1415,31.8188,-11.9819
700,-391,31.9791,11.54,0,0,0,0,0,0,0,-1,1924,1415,31.9791,-11.54
707,-391,12.9524,5.96851,0,0,0,0,0,0,0,-1,1931,1415,12.9524,-5.96849
714,-391,15.6875,7.67896,0,0,0,0,0,0,0,-1,1938,1415,15.6875,-7.67893
721,-391,14.1808,8.08435,0,0,0,0,0,0,0,-1,1945,1415,14.1808,-8.08439
728,-391,13.8102,7.28174,0,0,0,0,0,0,0,-1,1952,1415,13.8102,-7.28174
735,-391,0,0,0,0,0,0,0,0,0,-1,1959,1415,0,0
742,-391,0,0,0,0,0,0,0,0,0,-1,1966,1415,0,0
749,-391,0,0,0,0,0,0,0,0,0,-1,1973,1415,0,0
756,-391,0,0,0,0,0,0,0,0,0,-1,1980,1415,0,0
763,-391,0,0,0,0,0,0,0,0,0,-1,1987,1415,0,0
770,-391,0,0,0,0,0,0,0,0,0,-1,1994,1415,0,0
777,-391,0,0,0,0,0,0,0,0,0,-1,2001,1415,0,0
784,-391,0,0,0,0,0,0,0,0,0,-1,2008,1415,0,0
791,-391,0,0,0,0,0,0,0,0,0,-1,2015,1415,0,0
798,-391,0,0,0,0,0,0,0,0,0,-1,2022,1415,0,0
805,-391,0,0,0,0,0,0,0,0,0,-1,2029,1415,0,0
812,-391,0,0,0,0,0,0,0,0,0,-1,2036,1415,0,0
-700,-398,0,0,0,0,0,0,0,0,0,-1,524,1422,0,0
-693,-398,0,0,0,0,0,0,0,0,0,-1,531,1422,0,0
-686,-398,0,0,0,0,0,0,0,0,0,-1,538,1422,0,0
-679,-398,0,0,0,0,0,0,0,0,0,-1,545,1422,0,0
-672,-398,0,0,0,0,0,0,0,0,0,-1,552,1422,0,0
-665,-398,0,0,0,0,0,0,0,0,0,-1,559,1422,0,0
-658,-398,0,0,0,0,0,0,0,0,0,-1,566,1422,0,0
-651,-398,0,0,0,0,0,0,0,0,0,-1,573,1422,0,0
-644,-398,0,0,0,0,0,0,0,0,0,-1,580,1422,0,0
-637,-398,0,0,0,0,0,0,0,0,0,-1,587,1422,0,0
-630,-398,0,0,0,0,0,0,0,0,0,-1,594,1422,0,0
-623,-398,0,0,0,0,0,0,0,0,0,-1,601,1422,0,0
-616,-398,0,0,0,0,0,0,0,0,0,-1,608,1422,0,0
-609,-398,-7.47125,-4.05322,0,0,0,0,0,0,0,-1,615,1422,-7.47128,4.05317
-602,-398,-4.58868,-2.77026,0,0,0,0,0,0,0,-1,622,1422,-4.58869,2.77023
-595,-398,-12.2224,-1.82007,0,0,0,0,0,0,0,-1,629,1422,-12.2224,1.82006
-588,-398,-10.6939,1.32336,0,0,0,0,0,0,0,-1,636,1422,-10.6939,-1.32337
-581,-398,-10.433,3.1123,0,0,0,0,0,0,0,-1,643,1422,-10.433,-3.11233
-574,-398,-10.4475,5.89807,0,0,0,0,0,0,0,-1,650,1422,-10.4475,-5.89802
-567,-398,-10.4904,6.80115,0,0,0,0,0,0,0,-1,657,1422,-10.4904,-6.80115
-560,-398,-10.5333,7.70435,0,0,0,0,0,0,0,-1,664,1422,-10.5333,-7.70429
-553,-398,-15.1183,10.3802,0,0,0,0,0,0,0,-1,671,1422,-15.1183,-10.3802
-546,-398,-15.1381,11.17,0.00342593,0.00265983,0.00256714,0.00563844,0.000447314,0.711339,0.00361908,0.0278434,678,1422,-15.1381,-11.17
-539,-398,-15.083,11.8734,0.00288356,0.00197965,0.0019528,0.00443602,0.000427192,0.671681,0.00282573,0.0128388,685,1422,-15.083,-11.8734
-532,-398,-15.1246,12.498,0.00243902,0.00142348,0.00147829,0.00349432,0.000368183,0.61997,0.00221703,0.0204124,692,1422,-15.1246,-12.498
-525,-398,-15.1793,13.1455,0.00217594,0.00112728,0.00122532,0.0029844,0.000318815,0.583232,0.0018923,0.0193808,699,1422,-15.1792,-13.1455
-518,-398,-15.1899,13.7981,0.00202001,0.000976987,0.00110739,0.00272255,0.000274451,0.565334,0.00173082,0.0172812,706,1422,-15.19,-13.7981
-511,-398,-15.1929,14.4143,0.0019526,0.000977731,0.00109684,0.00266544,0.000264897,0.576304,0.00169557,0.0139692,713,1422,-15.1929,-14.4143
-504,-398,-15.2267,15.0765,0.00199939,0.00114038,0.00122249,0.00286563,0.000274144,0.616466,0.00182591,0.0140723,720,1422,-15.2267,-15.0765
-497,-398,-15.2555,15.7103,0.00216985,0.00147041,0.0015029,0.00336318,0.00027708,0.671083,0.0021557,0.0102532,727,1422,-15.2555,-15.7103
-490,-398,-15.2791,16.3496,0.0025393,0.00204564,0.00193287,0.00424104,0.000343898,0.721892,0.00271998,0.0199341,734,1422,-15.2791,-16.3496
-483,-398,-15.1241,17.2336,0,0,0,0,0,0,0,-1,741,1422,-15.1241,-17.2336
-476,-398,-8.64392,11.9448,0,0,0,0,0,0,0,-1,748,1422,-8.6439,-11.9448
-469,-398,-8.91699,10.6276,0,0,0,0,0,0,0,-1,755,1422,-8.91697,-10.6275
-462,-398,-9.59753,9.32532,0,0,0,0,0,0,0,-1,762,1422,-9.59753,-9.32531
-455,-398,-8.08331,6.75024,0,0,0,0,0,0,0,-1,769,1422,-8.08333,-6.75022
-448,-398,-7.4505,5.25293,0,0,0,0,0,0,0,-1,776,1422,-7.4505,-5.25291
-441,-398,-7.61639,3.32141,0,0,0,0,0,0,0,-1,783,1422,-7.61637,-3.32145
-434,-398,-10.7618,3.297,0,0,0,0,0,0,0,-1,790,1422,-10.7618,-3.29704
-427,-398,-11.9061,2.24939,0,0,0,0,0,0,0,-1,797,1422,-11.9061,-2.24941
-420,-398,-13.467,2.32788,0,0,0,0,0,0,0,-1,804,1422,-13.467,-2.32787
-413,-398,-14.7983,2.15515,0,0,0,0,0,0,0,-1,811,1422,-14.7983,-2.15516
-406,-398,0,0,0,0,0,0,0,0,0,-1,818,1422,0,0
-399,-398,0,0,0,0,0,0,0,0,0,-1,825,1422,0,0
-392,-398,0,0,0,0,0,0,0,0,0,-1,832,1422,0,0
-385,-398,0,0,0,0,0,0,0,0,0,-1,839,1422,0,0
-378,-398,0,0,0,0,0,0,0,0,0,-1,846,1422,0,0
-371,-398,0,0,0,0,0,0,0,0,0,-1,853,1422,0,0
-364,-398,0,0,0,0,0,0,0,0,0,-1,860,1422,0,0
-357,-398,0,0,0,0,0,0,0,0,0,-1,867,1422,0,0
-350,-398,0,0,0,0,0,0,0,0,0,-1,874,1422,0,0
-343,-398,0,0,0,0,0,0,0,0,0,-1,881,1422,0,0
-336,-398,0,0,0,0,0,0,0,0,0,-1,888,1422,0,0
-329,-398,0,0,0,0,0,0,0,0,0,-1,895,1422,0,0
-322,-398,0,0,0,0,0,0,0,0,0,-1,902,1422,0,0
-315,-398,0,0,0,0,0,0,0,0,0,-1,909,1422,0,0
-308,-398,0,0,0,0,0,0,0,0,0,-1,916,1422,0,0
-301,-398,0,0,0,0,0,0,0,0,0,-1,923,1422,0,0
-294,-398,0,0,0,0,0,0,0,0,0,-1,930,1422,0,0
-287,-398,0,0,0,0,0,0,0,0,0,-1,937,1422,0,0
-280,-398,0,0,0,0,0,0,0,0,0,-1,944,1422,0,0
-273,-398,0,0,0,0,0,0,0,0,0,-1,951,1422,0,0
-266,-398,0,0,0,0,0,0,0,0,0,-1,958,1422,0,0
-259,-398,0,0,0,0,0,0,0,0,0,-1,965,1422,0,0
-252,-398,0,0,0,0,0,0,0,0,0,-1,972,1422,0,0
-245,-398,0,0,0,0,0,0,0,0,0,-1,979,1422,0,0
-238,-398,0,0,0,0,0,0,0,0,0,-1,986,1422,0,0
-231,-398,0,0,0,0,0,0,0,0,0,-1,993,1422,0,0
-224,-398,0,0,0,0,0,0,0,0,0,-1,1000,1422,0,0
-217,-398,0,0,0,0,0,0,0,0,0,-1,1007,1422,0,0
-210,-398,0,0,0,0,0,0,0,0,0,-1,1014,1422,0,0
-203,-398,0,0,0,0,0,0,0,0,0,-1,1021,1422,0,0
-196,-398,0,0,0,0,0,0,0,0,0,-1,1028,1422,0,0
-189,-398,0,0,0,0,0,0,0,0,0,-1,1035,1422,0,0
-182,-398,0,0,0,0,0,0,0,0,0,-1,1042,1422,0,0
-175,-398,0,0,0,0,0,0,0,0,0,-1,1049,1422,0,0
-168,-398,0,0,0,0,0,0,0,0,0,-1,1056,1422,0,0
-161,-398,0,0,0,0,0,0,0,0,0,-1,1063,1422,0,0
-154,-398,0,0,0,0,0,0,0,0,0,-1,1070,1422,0,0
-147,-398,0,0,0,0,0,0,0,0,0,-1,1077,1422,0,0
-140,-398,0,0,0,0,0,0,0,0,0,-1,1084,1422,0,0
-133,-398,0,0,0,0,0,0,0,0,0,-1,1091,1422,0,0
-126,-398,0,0,0,0,0,0,0,0,0,-1,1098,1422,0,0
-119,-398,0,0,0,0,0,0,0,0,0,-1,1105,1422,0,0
-112,-398,0,0,0,0,0,0,0,0,0,-1,1112,1422,0,0
-105,-398,0,0,0,0,0,0,0,0,0,-1,1119,1422,0,0
-98,-398,0,0,0,0,0,0,0,0,0,-1,1126,1422,0,0
-91,-398,0,0,0,0,0,0,0,0,0,-1,1133,1422,0,0
-84,-398,0,0,0,0,0,0,0,0,0,-1,1140,1422,0,0
-77,-398,0,0,0,0,0,0,0,0,0,-1,1147,1422,0,0
-70,-398,0,0,0,0,0,0,0,0,0,-1,1154,1422,0,0
-63,-398,0,0,0,0,0,0,0,0,0,-1,1161,1422,0,0
-56,-398,0,0,0,0,0,0,0,0,0,-1,1168,1422,0,0
-49,-398,0,0,0,0,0,0,0,0,0,-1,1175,1422,0,0
-42,-398,0,0,0,0,0,0,0,0,0,-1,1182,1422,0,0
-35,-398,0,0,0,0,0,0,0,0,0,-1,1189,1422,0,0
-28,-398,0,0,0,0,0,0,0,0,0,-1,1196,1422,0,0
-21,-398,0,0,0,0,0,0,0,0,0,-1,1203,1422,0,0
-14,-398,0,0,0,0,0,0,0,0,0,-1,1210,1422,0,0
-7,-398,0,0,0,0,0,0,0,0,0,-1,1217,1422,0,0
0,-398,0,0,0,0,0,0,0,0,0,-1,1224,1422,0,0
7,-398,0,0,0,0,0,0,0,0,0,-1,1231,1422,0,0
14,-398,0,0,0,0,0,0,0,0,0,-1,1238,1422,0,0
21,-398,0,0,0,0,0,0,0,0,0,-1,1245,1422,0,0
28,-398,0,0,0,0,0,0,0,0,0,-1,1252,1422,0,0
35,-398,0,0,0,0,0,0,0,0,0,-1,1259,1422,0,0
42,-398,0,0,0,0,0,0,0,0,0,-1,1266,1422,0,0
49,-398,0,0,0,0,0,0,0,0,0,-1,1273,1422,0,0
56,-398,0,0,0,0,0,0,0,0,0,-1,1280,1422,0,0
63,-398,0,0,0,0,0,0,0,0,0,-1,1287,1422,0,0
70,-398,0,0,0,0,0,0,0,0,0,-1,1294,1422,0,0
77,-398,0,0,0,0,0,0,0,0,0,-1,1301,1422,0,0
84,-398,0,0,0,0,0,0,0,0,0,-1,1308,1422,0,0
91,-398,0,0,0,0,0,0,0,0,0,-1,1315,1422,0,0
98,-398,0,0,0,0,0,0,0,0,0,-1,1322,1422,0,0
105,-398,0,0,0,0,0,0,0,0,0,-1,1329,1422,0,0
112,-398,0,0,0,0,0,0,0,0,0,-1,1336,1422,0,0
119,-398,0,0,0,0,0,0,0,0,0,-1,1343,1422,0,0
126,-398,0,0,0,0,0,0,0,0,0,-1,1350,1422,0,0
133,-398,0,0,0,0,0,0,0,0,0,-1,1357,1422,0,0
140,-398,0,0,0,0,0,0,0,0,0,-1,1364,1422,0,0
147,-398,0,0,0,0,0,0,0,0,0,-1,1371,1422,0,0
154,-398,0,0,0,0,0,0,0,0,0,-1,1378,1422,0,0
161,-398,0,0,0,0,0,0,0,0,0,-1,1385,1422,0,0
168,-398,0,0,0,0,0,0,0,0,0,-1,1392,1422,0,0
175,-398,0,0,0,0,0,0,0,0,0,-1,1399,1422,0,0
182,-398,0,0,0,0,0,0,0,0,0,-1,1406,1422,0,0
189,-398,0,0,0,0,0,0,0,0,0,-1,1413,1422,0,0
196,-398,0,0,0,0,0,0,0,0,0,-1,1420,1422,0,0
203,-398,0,0,0,0,0,0,0,0,0,-1,1427,1422,0,0
210,-398,0,0,0,0,0,0,0,0,0,-1,1434,1422,0,0
217,-398,0,0,0,0,0,0,0,0,0,-1,1441,1422,0,0
224,-398,0,0,0,0,0,0,0,0,0,-1,1448,1422,0,0
231,-398,0,0,0,0,0,0,0,0,0,-1,1455,1422,0,0
238,-398,0,0,0,0,0,0,0,0,0,-1,1462,1422,0,0
245,-398,0,0,0,0,0,0,0,0,0,-1,1469,1422,0,0
252,-398,0,0,0,0,0,0,0,0,0,-1,1476,1422,0,0
259,-398,0,0,0,0,0,0,0,0,0,-1,1483,1422,0,0
266,-398,0,0,0,0,0,0,0,0,0,-1,1490,1422,0,0
273,-398,0,0,0,0,0,0,0,0,0,-1,1497,1422,0,0
280,-398,0,0,0,0,0,0,0,0,0,-1,1504,1422,0,0
287,-398,0,0,0,0,0,0,0,0,0,-1,1511,1422,0,0
294,-398,0,0,0,0,0,0,0,0,0,-1,1518,1422,0,0
301,-398,0,0,0,0,0,0,0,0,0,-1,1525,1422,0,0
308,-398,0,0,0,0,0,0,0,0,0,-1,1532,1422,0,0
315,-398,0,0,0,0,0,0,0,0,0,-1,1539,1422,0,0
322,-398,0,0,0,0,0,0,0,0,0,-1,1546,1422,0,0
329,-398,0,0,0,0,0,0,0,0,0,-1,1553,1422,0,0
336,-398,0,0,0,0,0,0,0,0,0,-1,1560,1422,0,0
343,-398,0,0,0,0,0,0,0,0,0,-1,1567,1422,0,0
350,-398,0,0,0,0,0,0,0,0,0,-1,1574,1422,0,0
357,-398,0,0,0,0,0,0,0,0,0,-1,1581,1422,0,0
364,-398,0,0,0,0,0,0,0,0,0,-1,1588,1422,0,0
371,-398,0,0,0,0,0,0,0,0,0,-1,1595,1422,0,0
378,-398,0,0,0,0,0,0,0,0,0,-1,1602,1422,0,0
385,-398,0,0,0,0,0,0,0,0,0,-1,1609,1422,0,0
392,-398,0,0,0,0,0,0,0,0,0,-1,1616,1422,0,0
399,-398,0,0,0,0,0,0,0,0,0,-1,1623,1422,0,0
406,-398,0,0,0,0,0,0,0,0,0,-1,1630,1422,0,0
413,-398,0,0,0,0,0,0,0,0,0,-1,1637,1422,0,0
420,-398,0,0,0,0,0,0,0,0,0,-1,1644,1422,0,0
427,-398,0,0,0,0,0,0,0,0,0,-1,1651,1422,0,0
434,-398,0,0,0,0,0,0,0,0,0,-1,1658,1422,0,0
441,-398,0,0,0,0,0,0,0,0,0,-1,1665,1422,0,0
448,-398,0,0,0,0,0,0,0,0,0,-1,1672,1422,0,0
455,-398,0,0,0,0,0,0,0,0,0,-1,1679,1422,0,0
462,-398,0,0,0,0,0,0,0,0,0,-1,1686,1422,0,0
469,-398,0,0,0,0,0,0,0,0,0,-1,1693,1422,0,0
476,-398,0,0,0,0,0,0,0,0,0,-1,1700,1422,0,0
483,-398,0,0,0,0,0,0,0,0,0,-1,1707,1422,0,0
490,-398,0,0,0,0,0,0,0,0,0,-1,1714,1422,0,0
497,-398,0,0,0,0,0,0,0,0,0,-1,1721,1422,0,0
504,-398,0,0,0,0,0,0,0,0,0,-1,1728,1422,0,0
511,-398,0,0,0,0,0,0,0,0,0,-1,1735,1422,0,0
518,-398,0,0,0,0,0,0,0,0,0,-1,1742,1422,0,0
525,-398,0,0,0,0,0,0,0,0,0,-1,1749,1422,0,0
532,-398,28.4558,3.84094,0,0,0,0,0,0,0,-1,1756,1422,28.4558,-3.8409
539,-398,27.0594,3.33887,0,0,0,0,0,0,0,-1,1763,1422,27.0595,-3.3389
546,-398,31.6873,5.58582,0,0,0,0,0,0,0,-1,1770,1422,31.6872,-5.58585
553,-398,30.4392,5.92383,0,0,0,0,0,0,0,-1,1777,1422,30.4392,-5.92386
560,-398,29.1621,6.30469,0,0,0,0,0,0,0,-1,1784,1422,29.1621,-6.30469
567,-398,27.8411,6.55029,0,0,0,0,0,0,0,-1,1791,1422,27.8411,-6.55033
574,-398,26.411,6.8916,0,0,0,0,0,0,0,-1,1798,1422,26.411,-6.8916
581,-398,24.75,7.11145,0,0,0,0,0,0,0,-1,1805,1422,24.7499,-7.11142
588,-398,23.1649,7.67969,0,0,0,0,0,0,0,-1,1812,1422,23.1649,-7.67975
595,-398,21.4253,7.86023,0,0,0,0,0,0,0,-1,1819,1422,21.4253,-7.86029
602,-398,19.6857,8.04077,0,0,0,0,0,0,0,-1,1826,1422,19.6856,-8.04083
609,-398,21.1835,13.2628,0,0,0,0,0,0,0,-1,1833,1422,21.1835,-13.2628
616,-398,30.6785,18.6863,0,0,0,0,0,0,0,-1,1840,1422,30.6785,-18.6863
623,-398,31.3849,17.735,0,0,0,0,0,0,0,-1,1847,1422,31.3849,-17.7349
630,-398,31.374,17.1444,0.00103442,-0.000423289,3.41227e-05,0.00103522,-0.000424088,0.0233913,0.000866809,0.0140988,1854,1422,31.374,-17.1444
637,-398,31.3553,16.5662,0.000968979,-0.000281924,-1.1438e-05,0.000969083,-0.000282029,-0.00914279,0.000757766,0.0139149,1861,1422,31.3553,-16.5661
644,-398,31.272,15.9712,0.00101044,-0.000233199,1.63235e-05,0.00101065,-0.000233413,0.0131226,0.000763558,0.0196574,1868,1422,31.2719,-15.9712
651,-398,31.3253,15.4387,0.00127002,-0.00027348,0.000117273,0.00127888,-0.000282339,0.0754017,0.000960629,0.0295737,1875,1422,31.3254,-15.4387
658,-398,31.3051,14.8746,0.0016549,-0.000394135,0.000272809,0.0016906,-0.000429835,0.130121,0.00129435,0.0261431,1882,1422,31.3051,-14.8747
665,-398,31.2441,14.2318,0.0022155,-0.000643295,0.000501266,0.00230084,-0.00072864,0.168642,0.0018259,0.0168626,1889,1422,31.2441,-14.2318
672,-398,31.2202,13.6176,0.00291132,-0.00107282,0.000877285,0.00309594,-0.00125743,0.207416,0.00258706,0.0132982,1896,1422,31.2203,-13.6176
679,-398,31.1951,13.0021,0.00373104,-0.00171887,0.00141738,0.00407763,-0.00206545,0.239818,0.00360957,0.0123944,1903,1422,31.1951,-13.0021
686,-398,31.1912,12.4136,0.00461046,-0.00281222,0.00230216,0.00526649,-0.00346826,0.277608,0.00507851,0.0189251,1910,1422,31.1912,-12.4136
693,-398,31.1561,12.1381,0.00583073,-0.00407228,0.00325864,0.0068068,-0.00504835,0.291028,0.00686963,0.0454116,1917,1422,31.1561,-12.138
700,-398,31.22,11.9282,0,0,0,0,0,0,0,-1,1924,1422,31.2199,-11.9282
707,-398,10.9731,5.479,0,0,0,0,0,0,0,-1,1931,1422,10.9732,-5.47896
714,-398,11.7313,6.17346,0,0,0,0,0,0,0,-1,1938,1422,11.7313,-6.17348
721,-398,13.9371,8.05103,0,0,0,0,0,0,0,-1,1945,1422,13.9372,-8.05102
728,-398,14.786,7.0282,0,0,0,0,0,0,0,-1,1952,1422,14.786,-7.0282
735,-398,0,0,0,0,0,0,0,0,0,-1,1959,1422,0,0
742,-398,0,0,0,0,0,0,0,0,0,-1,1966,1422,0,0
749,-398,0,0,0,0,0,0,0,0,0,-1,1973,1422,0,0
756,-398,0,0,0,0,0,0,0,0,0,-1,1980,1422,0,0
763,-398,0,0,0,0,0,0,0,0,0,-1,1987,1422,0,0
770,-398,0,0,0,0,0,0,0,0,0,-1,1994,1422,0,0
777,-398,0,0,0,0,0,0,0,0,0,-1,2001,1422,0,0
784,-398,0,0,0,0,0,0,0,0,0,-1,2008,1422,0,0
791,-398,0,0,0,0,0,0,0,0,0,-1,2015,1422,0,0
798,-398,0,0,0,0,0,0,0,0,0,-1,2022,1422,0,0
805,-398,0,0,0,0,0,0,0,0,0,-1,2029,1422,0,0
812,-398,0,0,0,0,0,0,0,0,0,-1,2036,1422,0,0
-700,-405,0,0,0,0,0,0,0,0,0,-1,524,1429,0,0
-693,-405,0,0,0,0,0,0,0,0,0,-1,531,1429,0,0
-686,-405,0,0,0,0,0,0,0,0,0,-1,538,1429,0,0
-679,-405,0,0,0,0,0,0,0,0,0,-1,545,1429,0,0
-672,-405,0,0,0,0,0,0,0,0,0,-1,552,1429,0,0
-665,-405,0,0,0,0,0,0,0,0,0,-1,559,1429,0,0
-658,-405,0,0,0,0,0,0,0,0,0,-1,566,1429,0,0
-651,-405,0,0,0,0,0,0,0,0,0,-1,573,1429,0,0
-644,-405,0,0,0,0,0,0,0,0,0,-1,580,1429,0,0
-637,-405,0,0,0,0,0,0,0,0,0,-1,587,1429,0,0
-630,-405,0,0,0,0,0,0,0,0,0,-1,594,1429,0,0
-623,-405,0,0,0,0,0,0,0,0,0,-1,601,1429,0,0
-616,-405,0,0,0,0,0,0,0,0,0,-1,608,1429,0,0
-609,-405,0,0,0,0,0,0,0,0,0,-1,615,1429,0,0
-602,-405,-5.80988,-3.46594,0,0,0,0,0,0,0,-1,622,1429,-5.80987,3.46592
-595,-405,-9.35413,2.01477,0,0,0,0,0,0,0,-1,629,1429,-9.35411,-2.01476
-588,-405,-7.35693,0.507202,0,0,0,0,0,0,0,-1,636,1429,-7.35696,-0.507187
-581,-405,-10.1284,1.62927,0,0,0,0,0,0,0,-1,643,1429,-10.1284,-1.62922
-574,-405,-9.32074,3.05896,0,0,0,0,0,0,0,-1,650,1429,-9.32077,-3.0589
-567,-405,-9.68781,6.92163,0,0,0,0,0,0,0,-1,657,1429,-9.68782,-6.92166
-560,-405,-9.28674,7.20886,0,0,0,0,0,0,0,-1,664,1429,-9.28675,-7.20885
-553,-405,-14.431,10.4659,0,0,0,0,0,0,0,-1,671,1429,-14.431,-10.466
-546,-405,-14.4619,11.1707,0.00385658,0.00325223,0.00310628,0.00667535,0.000433463,0.736911,0.00431301,0.0423509,678,1429,-14.4619,-11.1707
-539,-405,-14.4915,11.8511,0.00316962,0.00248278,0.00237122,0.00522216,0.000430239,0.713485,0.00334726,0.0132169,685,1429,-14.4914,-11.8511
-532,-405,-14.5305,12.4874,0.00256838,0.00177604,0.00174411,0.00396075,0.000383668,0.673721,0.00252236,0.0161278,692,1429,-14.5305,-12.4874
-525,-405,-14.5445,13.1464,0.00219656,0.00137639,0.00138159,0.00322764,0.000345305,0.64113,0.00204639,0.014945,699,1429,-14.5445,-13.1463
-518,-405,-14.5376,13.8303,0.00194985,0.00114435,0.00116176,0.00277669,0.000317514,0.618544,0.00175489,0.016,706,1429,-14.5376,-13.8303
-511,-405,-14.5651,14.4551,0.00179516,0.00104612,0.00104891,0.00253441,0.00030687,0.613925,0.00159717,0.0169287,713,1429,-14.5651,-14.455
-504,-405,-14.5837,15.0787,0.00175745,0.0010995,0.00105684,0.00253533,0.000321614,0.634512,0.00159387,0.0190412,720,1429,-14.5837,-15.0787
-497,-405,-14.5925,15.7488,0.00184209,0.00131485,0.00120622,0.00281316,0.000343786,0.677815,0.00177199,0.0147578,727,1429,-14.5926,-15.7488
-490,-405,-14.6463,16.3893,0.00208223,0.00172715,0.00149291,0.00340811,0.00040126,0.726215,0.00215084,0.0128814,734,1429,-14.6463,-16.3892
-483,-405,-14.5704,17.1388,0.00237497,0.00237923,0.0019101,0.0042872,0.000467003,0.785955,0.00271588,0.0291746,741,1429,-14.5704,-17.1388
-476,-405,-14.3289,18.1089,0,0,0,0,0,0,0,-1,748,1429,-14.3289,-18.1089
-469,-405,-9.65692,12.8171,0,0,0,0,0,0,0,-1,755,1429,-9.65691,-12.8172
-462,-405,-9.14862,11.3597,0,0,0,0,0,0,0,-1,762,1429,-9.14865,-11.3597
-455,-405,-9.021,9.51111,0,0,0,0,0,0,0,-1,769,1429,-9.021,-9.51109
-448,-405,-8.4649,6.82813,0,0,0,0,0,0,0,-1,776,1429,-8.46492,-6.82817
-441,-405,-6.6712,4.23767,0,0,0,0,0,0,0,-1,783,1429,-6.67121,-4.23764
-434,-405,-9.62549,3.94189,0,0,0,0,0,0,0,-1,790,1429,-9.62546,-3.94191
-427,-405,-10.9764,3.73926,0,0,0,0,0,0,0,-1,797,1429,-10.9764,-3.73923
-420,-405,-12.1187,3.68506,0,0,0,0,0,0,0,-1,804,1429,-12.1187,-3.68512
-413,-405,-13.5353,3.75659,0,0,0,0,0,0,0,-1,811,1429,-13.5353,-3.75655
-406,-405,-14.7374,3.99817,0,0,0,0,0,0,0,-1,818,1429,-14.7374,-3.99814
-399,-405,0,0,0,0,0,0,0,0,0,-1,825,1429,0,0
-392,-405,0,0,0,0,0,0,0,0,0,-1,832,1429,0,0
-385,-405,0,0,0,0,0,0,0,0,0,-1,839,1429,0,0
-378,-405,0,0,0,0,0,0,0,0,0,-1,846,1429,0,0
-371,-405,0,0,0,0,0,0,0,0,0,-1,853,1429,0,0
-364,-405,0,0,0,0,0,0,0,0,0,-1,860,1429,0,0
-357,-405,0,0,0,0,0,0,0,0,0,-1,867,1429,0,0
-350,-405,0,0,0,0,0,0,0,0,0,-1,874,1429,0,0
-343,-405,0,0,0,0,0,0,0,0,0,-1,881,1429,0,0
-336,-405,0,0,0,0,0,0,0,0,0,-1,888,1429,0,0
-329,-405,0,0,0,0,0,0,0,0,0,-1,895,1429,0,0
-322,-405,0,0,0,0,0,0,0,0,0,-1,902,1429,0,0
-315,-405,0,0,0,0,0,0,0,0,0,-1,909,1429,0,0
-308,-405,0,0,0,0,0,0,0,0,0,-1,916,1429,0,0
-301,-405,0,0,0,0,0,0,0,0,0,-1,923,1429,0,0
-294,-405,0,0,0,0,0,0,0,0,0,-1,930,1429,0,0
-287,-405,0,0,0,0,0,0,0,0,0,-1,937,1429,0,0
-280,-405,0,0,0,0,0,0,0,0,0,-1,944,1429,0,0
-273,-405,0,0,0,0,0,0,0,0,0,-1,951,1429,0,0
-266,-405,0,0,0,0,0,0,0,0,0,-1,958,1429,0,0
-259,-405,0,0,0,0,0,0,0,0,0,-1,965,1429,0,0
-252,-405,0,0,0,0,0,0,0,0,0,-1,972,1429,0,0
-245,-405,0,0,0,0,0,0,0,0,0,-1,979,1429,0,0
-238,-405,0,0,0,0,0,0,0,0,0,-1,986,1429,0,0
-231,-405,0,0,0,0,0,0,0,0,0,-1,993,1429,0,0
-224,-405,0,0,0,0,0,0,0,0,0,-1,1000,1429,0,0
-217,-405,0,0,0,0,0,0,0,0,0,-1,1007,1429,0,0
-210,-405,0,0,0,0,0,0,0,0,0,-1,1014,1429,0,0
-203,-405,0,0,0,0,0,0,0,0,0,-1,1021,1429,0,0
-196,-405,0,0,0,0,0,0,0,0,0,-1,1028,1429,0,0
-189,-405,0,0,0,0,0,0,0,0,0,-1,1035,1429,0,0
-182,-405,0,0,0,0,0,0,0,0,0,-1,1042,1429,0,0
-175,-405,0,0,0,0,0,0,0,0,0,-1,1049,1429,0,0
-168,-405,0,0,0,0,0,0,0,0,0,-1,1056,1429,0,0
-161,-405,0,0,0,0,0,0,0,0,0,-1,1063,1429,0,0
-154,-405,0,0,0,0,0,0,0,0,0,-1,1070,1429,0,0
-147,-405,0,0,0,0,0,0,0,0,0,-1,1077,1429,0,0
-140,-405,0,0,0,0,0,0,0,0,0,-1,1084,1429,0,0
-133,-405,0,0,0,0,0,0,0,0,0,-1,1091,1429,0,0
-126,-405,0,0,0,0,0,0,0,0,0,-1,1098,1429,0,0
-119,-405,0,0,0,0,0,0,0,0,0,-1,1105,1429,0,0
-112,-405,0,0,0,0,0,0,0,0,0,-1,1112,1429,0,0
-105,-405,0,0,0,0,0,0,0,0,0,-1,1119,1429,0,0
-98,-405,0,0,0,0,0,0,0,0,0,-1,1126,1429,0,0
-91,-405,0,0,0,0,0,0,0,0,0,-1,1133,1429,0,0
-84,-405,0,0,0,0,0,0,0,0,0,-1,1140,1429,0,0
-77,-405,0,0,0,0,0,0,0,0,0,-1,1147,1429,0,0
-70,-405,0,0,0,0,0,0,0,0,0,-1,1154,1429,0,0
-63,-405,0,0,0,0,0,0,0,0,0,-1,1161,1429,0,0
-56,-405,0,0,0,0,0,0,0,0,0,-1,1168,1429,0,0
-49,-405,0,0,0,0,0,0,0,0,0,-1,1175,1429,0,0
-42,-405,0,0,0,0,0,0,0,0,0,-1,1182,1429,0,0
-35,-405,0,0,0,0,0,0,0,0,0,-1,1189,1429,0,0
-28,-405,0,0,0,0,0,0,0,0,0,-1,1196,1429,0,0
-21,-405,0,0,0,0,0,0,0,0,0,-1,1203,1429,0,0
-14,-405,0,0,0,0,0,0,0,0,0,-1,1210,1429,0,0
-7,-405,0,0,0,0,0,0,0,0,0,-1,1217,1429,0,0
0,-405,0,0,0,0,0,0,0,0,0,-1,1224,1429,0,0
7,-405,0,0,0,0,0,0,0,0,0,-1,1231,1429,0,0
14,-405,0,0,0,0,0,0,0,0,0,-1,1238,1429,0,0
21,-405,0,0,0,0,0,0,0,0,0,-1,1245,1429,0,0
28,-405,0,0,0,0,0,0,0,0,0,-1,1252,1429,0,0
35,-405,0,0,0,0,0,0,0,0,0,-1,1259,1429,0,0
42,-405,0,0,0,0,0,0,0,0,0,-1,1266,1429,0,0
49,-405,0,0,0,0,0,0,0,0,0,-1,1273,1429,0,0
56,-405,0,0,0,0,0,0,0,0,0,-1,1280,1429,0,0
63,-405,0,0,0,0,0,0,0,0,0,-1,1287,1429,0,0
70,-405,0,0,0,0,0,0,0,0,0,-1,1294,1429,0,0
77,-405,0,0,0,0,0,0,0,0,0,-1,1301,1429,0,0
84,-405,0,0,0,0,0,0,0,0,0,-1,1308,1429,0,0
91,-405,0,0,0,0,0,0,0,0,0,-1,1315,1429,0,0
98,-405,0,0,0,0,0,0,0,0,0,-1,1322,1429,0,0
105,-405,0,0,0,0,0,0,0,0,0,-1,1329,1429,0,0
112,-405,0,0,0,0,0,0,0,0,0,-1,1336,1429,0,0
119,-405,0,0,0,0,0,0,0,0,0,-1,1343,1429,0,0
126,-405,0,0,0,0,0,0,0,0,0,-1,1350,1429,0,0
133,-405,0,0,0,0,0,0,0,0,0,-1,1357,1429,0,0
140,-405,0,0,0,0,0,0,0,0,0,-1,1364,1429,0,0
147,-405,0,0,0,0,0,0,0,0,0,-1,1371,1429,0,0
154,-405,0,0,0,0,0,0,0,0,0,-1,1378,1429,0,0
161,-405,0,0,0,0,0,0,0,0,0,-1,1385,1429,0,0
168,-405,0,0,0,0,0,0,0,0,0,-1,1392,1429,0,0
175,-405,0,0,0,0,0,0,0,0,0,-1,1399,1429,0,0
182,-405,0,0,0,0,0,0,0,0,0,-1,1406,1429,0,0
189,-405,0,0,0,0,0,0,0,0,0,-1,1413,1429,0,0
196,-405,0,0,0,0,0,0,0,0,0,-1,1420,1429,0,0
203,-405,0,0,0,0,0,0,0,0,0,-1,1427,1429,0,0
210,-405,0,0,0,0,0,0,0,0,0,-1,1434,1429,0,0
217,-405,0,0,0,0,0,0,0,0,0,-1,1441,1429,0,0
224,-405,0,0,0,0,0,0,0,0,0,-1,1448,1429,0,0
231,-405,0,0,0,0,0,0,0,0,0,-1,1455,1429,0,0
238,-405,0,0,0,0,0,0,0,0,0,-1,1462,1429,0,0
245,-405,0,0,0,0,0,0,0,0,0,-1,1469,1429,0,0
252,-405,0,0,0,0,0,0,0,0,0,-1,1476,1429,0,0
259,-405,0,0,0,0,0,0,0,0,0,-1,1483,1429,0,0
266,-405,0,0,0,0,0,0,0,0,0,-1,1490,1429,0,0
273,-405,0,0,0,0,0,0,0,0,0,-1,1497,1429,0,0
280,-405,0,0,0,0,0,0,0,0,0,-1,1504,1429,0,0
287,-405,0,0,0,0,0,0,0,0,0,-1,1511,1429,0,0
294,-405,0,0,0,0,0,0,0,0,0,-1,1518,1429,0,0
301,-405,0,0,0,0,0,0,0,0,0,-1,1525,1429,0,0
308,-405,0,0,0,0,0,0,0,0,0,-1,1532,1429,0,0
315,-405,0,0,0,0,0,0,0,0,0,-1,1539,1429,0,0
322,-405,0,0,0,0,0,0,0,0,0,-1,1546,1429,0,0
329,-405,0,0,0,0,0,0,0,0,0,-1,1553,1429,0,0
336,-405,0,0,0,0,0,0,0,0,0,-1,1560,1429,0,0
343,-405,0,0,0,0,0,0,0,0,0,-1,1567,1429,0,0
350,-405,0,0,0,0,0,0,0,0,0,-1,1574,1429,0,0
357,-405,0,0,0,0,0,0,0,0,0,-1,1581,1429,0,0
364,-405,0,0,0,0,0,0,0,0,0,-1,1588,1429,0,0
371,-405,0,0,0,0,0,0,0,0,0,-1,1595,1429,0,0
378,-405,0,0,0,0,0,0,0,0,0,-1,1602,1429,0,0
385,-405,0,0,0,0,0,0,0,0,0,-1,1609,1429,0,0
392,-405,0,0,0,0,0,0,0,0,0,-1,1616,1429,0,0
399,-405,0,0,0,0,0,0,0,0,0,-1,1623,1429,0,0
406,-405,0,0,0,0,0,0,0,0,0,-1,1630,1429,0,0
413,-405,0,0,0,0,0,0,0,0,0,-1,1637,1429,0,0
420,-405,0,0,0,0,0,0,0,0,0,-1,1644,1429,0,0
427,-405,0,0,0,0,0,0,0,0,0,-1,1651,1429,0,0
434,-405,0,0,0,0,0,0,0,0,0,-1,1658,1429,0,0
441,-405,0,0,0,0,0,0,0,0,0,-1,1665,1429,0,0
448,-405,0,0,0,0,0,0,0,0,0,-1,1672,1429,0,0
455,-405,0,0,0,0,0,0,0,0,0,-1,1679,1429,0,0
462,-405,0,0,0,0,0,0,0,0,0,-1,1686,1429,0,0
469,-405,0,0,0,0,0,0,0,0,0,-1,1693,1429,0,0
476,-405,0,0,0,0,0,0,0,0,0,-1,1700,1429,0,0
483,-405,0,0,0,0,0,0,0,0,0,-1,1707,1429,0,0
490,-405,0,0,0,0,0,0,0,0,0,-1,1714,1429,0,0
497,-405,0,0,0,0,0,0,0,0,0,-1,1721,1429,0,0
504,-405,0,0,0,0,0,0,0,0,0,-1,1728,1429,0,0
511,-405,0,0,0,0,0,0,0,0,0,-1,1735,1429,0,0
518,-405,0,0,0,0,0,0,0,0,0,-1,1742,1429,0,0
525,-405,31.1563,-1.40942,0,0,0,0,0,0,0,-1,1749,1429,31.1563,1.40937
532,-405,28.156,4.8783,0,0,0,0,0,0,0,-1,1756,1429,28.1561,-4.87833
539,-405,26.5133,3.02454,0,0,0,0,0,0,0,-1,1763,1429,26.5133,-3.0246
546,-405,29.5735,6.53052,0,0,0,0,0,0,0,-1,1770,1429,29.5735,-6.53049
553,-405,28.2911,6.70654,0,0,0,0,0,0,0,-1,1777,1429,28.2912,-6.70656
560,-405,26.9299,7.08472,0,0,0,0,0,0,0,-1,1784,1429,26.9299,-7.08469
567,-405,25.804,7.14661,0,0,0,0,0,0,0,-1,1791,1429,25.8039,-7.14665
574,-405,25.1151,8.07971,0,0,0,0,0,0,0,-1,1798,1429,25.1151,-8.07965
581,-405,23.5055,8.505,0,0,0,0,0,0,0,-1,1805,1429,23.5054,-8.50501
588,-405,21.7491,8.98254,0,0,0,0,0,0,0,-1,1812,1429,21.7491,-8.98254
595,-405,21.6327,10.7795,0,0,0,0,0,0,0,-1,1819,1429,21.6327,-10.7796
602,-405,21.6461,13.9199,0,0,0,0,0,0,0,-1,1826,1429,21.6461,-13.92
609,-405,30.7261,19.1815,0,0,0,0,0,0,0,-1,1833,1429,30.7261,-19.1815
616,-405,30.761,18.5248,0,0,0,0,0,0,0,-1,1840,1429,30.761,-18.5247
623,-405,30.7501,17.8545,0.00170301,-0.000143544,-0.000351905,0.0017678,-0.000208334,-0.182075,0.00125376,0.014457,1847,1429,30.7501,-17.8545
630,-405,30.751,17.2014,0.00132775,-0.000286197,-0.000136039,0.00133913,-0.000297583,-0.0835049,0.00100672,0.0107754,1854,1429,30.751,-17.2014
637,-405,30.7439,16.5927,0.00126446,-0.000231659,-0.000128399,0.0012754,-0.000242598,-0.0849929,0.00094161,0.0117137,1861,1429,30.7439,-16.5926
644,-405,30.6934,16.0063,0.00136656,-0.000239336,-8.32148e-05,0.00137086,-0.000243637,-0.0516339,0.00100501,0.0306882,1868,1429,30.6934,-16.0063
651,-405,30.655,15.4269,0.00165363,-0.000247691,-2.22514e-05,0.00165389,-0.000247952,-0.011701,0.00119386,0.0358273,1875,1429,30.6551,-15.4269
658,-405,30.6721,14.8431,0.00204179,-0.000327019,0.000107932,0.0020467,-0.000331927,0.0454385,0.00148751,0.0263834,1882,1429,30.6721,-14.8432
665,-405,30.6241,14.2643,0.00259547,-0.000542306,0.000333927,0.00263062,-0.000577449,0.104857,0.00197458,0.0204109,1889,1429,30.6241,-14.2643
672,-405,30.6519,13.6599,0.00324001,-0.00096808,0.00076074,0.00337332,-0.00110138,0.173468,0.00269218,0.0242809,1896,1429,30.6519,-13.6599
679,-405,30.7264,13.0922,0.0039697,-0.00165799,0.00141206,0.00430413,-0.00199242,0.232553,0.00371609,0.0253189,1903,1429,30.7265,-13.0922
686,-405,30.5139,12.5768,0.00465757,-0.00296061,0.0025837,0.00545116,-0.00375421,0.298006,0.00534474,0.0408775,1910,1429,30.5139,-12.5768
693,-405,30.5228,12.2279,0,0,0,0,0,0,0,-1,1917,1429,30.5228,-12.2279
700,-405,9.1958,4.02026,0,0,0,0,0,0,0,-1,1924,1429,9.19579,-4.02025
707,-405,7.40308,3.83191,0,0,0,0,0,0,0,-1,1931,1429,7.40311,-3.83194
714,-405,7.33252,3.47388,0,0,0,0,0,0,0,-1,1938,1429,7.33255,-3.47383
721,-405,9.23523,0.993896,0,0,0,0,0,0,0,-1,1945,1429,9.23523,-0.993884
728,-405,0,0,0,0,0,0,0,0,0,-1,1952,1429,0,0
735,-405,0,0,0,0,0,0,0,0,0,-1,1959,1429,0,0
742,-405,0,0,0,0,0,0,0,0,0,-1,1966,1429,0,0
749,-405,0,0,0,0,0,0,0,0,0,-1,1973,1429,0,0
756,-405,0,0,0,0,0,0,0,0,0,-1,1980,1429,0,0
763,-405,0,0,0,0,0,0,0,0,0,-1,1987,1429,0,0
770,-405,0,0,0,0,0,0,0,0,0,-1,1994,1429,0,0
777,-405,0,0,0,0,0,0,0,0,0,-1,2001,1429,0,0
784,-405,0,0,0,0,0,0,0,0,0,-1,2008,1429,0,0
791,-405,0,0,0,0,0,0,0,0,0,-1,2015,1429,0,0
798,-405,0,0,0,0,0,0,0,0,0,-1,2022,1429,0,0
805,-405,0,0,0,0,0,0,0,0,0,-1,2029,1429,0,0
812,-405,0,0,0,0,0,0,0,0,0,-1,2036,1429,0,0
-700,-412,0,0,0,0,0,0,0,0,0,-1,524,1436,0,0
-693,-412,0,0,0,0,0,0,0,0,0,-1,531,1436,0,0
-686,-412,0,0,0,0,0,0,0,0,0,-1,538,1436,0,0
-679,-412,0,0,0,0,0,0,0,0,0,-1,545,1436,0,0
-672,-412,0,0,0,0,0,0,0,0,0,-1,552,1436,0,0
-665,-412,0,0,0,0,0,0,0,0,0,-1,559,1436,0,0
-658,-412,0,0,0,0,0,0,0,0,0,-1,566,1436,0,0
-651,-412,0,0,0,0,0,0,0,0,0,-1,573,1436,0,0
-644,-412,0,0,0,0,0,0,0,0,0,-1,580,1436,0,0
-637,-412,0,0,0,0,0,0,0,0,0,-1,587,1436,0,0
-630,-412,0,0,0,0,0,0,0,0,0,-1,594,1436,0,0
-623,-412,0,0,0,0,0,0,0,0,0,-1,601,1436,0,0
-616,-412,0,0,0,0,0,0,0,0,0,-1,608,1436,0,0
-609,-412,0,0,0,0,0,0,0,0,0,-1,615,1436,0,0
-602,-412,-3.72766,-3.50012,0,0,0,0,0,0,0,-1,622,1436,-3.72764,3.50017
-595,-412,-10.3706,0.65564,0,0,0,0,0,0,0,-1,629,1436,-10.3706,-0.655672
-588,-412,-8.17957,1.94934,0,0,0,0,0,0,0,-1,636,1436,-8.17956,-1.94939
-581,-412,-6.60065,-0.0554199,0,0,0,0,0,0,0,-1,643,1436,-6.60063,0.0554733
-574,-412,-8.34131,5.25012,0,0,0,0,0,0,0,-1,650,1436,-8.34129,-5.25012
-567,-412,-7.50354,3.65454,0,0,0,0,0,0,0,-1,657,1436,-7.50356,-3.65452
-560,-412,-8.52448,7.39014,0,0,0,0,0,0,0,-1,664,1436,-8.52447,-7.39019
-553,-412,-7.36761,6.54651,0,0,0,0,0,0,0,-1,671,1436,-7.36763,-6.54654
-546,-412,-13.7715,11.2393,0,0,0,0,0,0,0,-1,678,1436,-13.7716,-11.2392
-539,-412,-13.8352,11.8223,0.00355332,0.00321125,0.00286987,0.00625725,0.000507321,0.755635,0.0040131,0.0257066,685,1436,-13.8352,-11.8223
-532,-412,-13.8864,12.5294,0.0028369,0.00230634,0.00212239,0.00471053,0.000432717,0.723224,0.00300651,0.0147132,692,1436,-13.8864,-12.5295
-525,-412,-13.8909,13.1991,0.00237177,0.00177138,0.00167349,0.00377178,0.000371371,0.696651,0.00240033,0.0155086,699,1436,-13.891,-13.1991
-518,-412,-13.8754,13.8514,0.00203861,0.00142739,0.00136728,0.00313402,0.000331985,0.675447,0.00198795,0.0165006,706,1436,-13.8754,-13.8514
-511,-412,-13.9288,14.4503,0.00178554,0.00121537,0.00115797,0.00269301,0.000307904,0.664704,0.00170201,0.0206122,713,1436,-13.9288,-14.4503
-504,-412,-13.9581,15.1028,0.00162669,0.00114165,0.00104519,0.00245713,0.000311216,0.671399,0.00154483,0.0209588,720,1436,-13.9581,-15.1028
-497,-412,-13.9747,15.7787,0.00158778,0.00122004,0.00105478,0.0024746,0.000333222,0.699104,0.00155064,0.0151852,727,1436,-13.9747,-15.7787
-490,-412,-14.0126,16.415,0.00170977,0.00149351,0.00121095,0.0028174,0.000385877,0.740871,0.00176377,0.0124463,734,1436,-14.0126,-16.415
-483,-412,-14.0407,17.0441,0.00190697,0.00195722,0.00148015,0.00341246,0.000451732,0.793884,0.00214034,0.0107335,741,1436,-14.0407,-17.0441
-476,-412,-14.0278,17.7542,0,0,0,0,0,0,0,-1,748,1436,-14.0278,-17.7542
-469,-412,-12.7646,18.4785,0,0,0,0,0,0,0,-1,755,1436,-12.7647,-18.4785
-462,-412,-8.94659,13.3385,0,0,0,0,0,0,0,-1,762,1436,-8.94657,-13.3385
-455,-412,-8.25006,11.2572,0,0,0,0,0,0,0,-1,769,1436,-8.25007,-11.2572
-448,-412,-7.38086,8.78186,0,0,0,0,0,0,0,-1,776,1436,-7.38088,-8.78183
-441,-412,-8.79523,9.05286,0,0,0,0,0,0,0,-1,783,1436,-8.79521,-9.0529
-434,-412,-10.6305,8.03577,0,0,0,0,0,0,0,-1,790,1436,-10.6305,-8.0358
-427,-412,-10.0004,5.15271,0,0,0,0,0,0,0,-1,797,1436,-10.0004,-5.15266
-420,-412,-10.4468,4.9043,0,0,0,0,0,0,0,-1,804,1436,-10.4468,-4.90429
-413,-412,-11.5704,4.97766,0,0,0,0,0,0,0,-1,811,1436,-11.5704,-4.97771
-406,-412,-13.1968,5.70093,0,0,0,0,0,0,0,-1,818,1436,-13.1968,-5.70096
-399,-412,-10.5506,0.771973,0,0,0,0,0,0,0,-1,825,1436,-10.5506,-0.771954
-392,-412,0,0,0,0,0,0,0,0,0,-1,832,1436,0,0
-385,-412,0,0,0,0,0,0,0,0,0,-1,839,1436,0,0
-378,-412,0,0,0,0,0,0,0,0,0,-1,846,1436,0,0
-371,-412,0,0,0,0,0,0,0,0,0,-1,853,1436,0,0
-364,-412,0,0,0,0,0,0,0,0,0,-1,860,1436,0,0
-357,-412,0,0,0,0,0,0,0,0,0,-1,867,1436,0,0
-350,-412,0,0,0,0,0,0,0,0,0,-1,874,1436,0,0
-343,-412,0,0,0,0,0,0,0,0,0,-1,881,1436,0,0
-336,-412,0,0,0,0,0,0,0,0,0,-1,888,1436,0,0
-329,-412,0,0,0,0,0,0,0,0,0,-1,895,1436,0,0
-322,-412,0,0,0,0,0,0,0,0,0,-1,902,1436,0,0
-315,-412,0,0,0,0,0,0,0,0,0,-1,909,1436,0,0
-308,-412,0,0,0,0,0,0,0,0,0,-1,916,1436,0,0
-301,-412,0,0,0,0,0,0,0,0,0,-1,923,1436,0,0
-294,-412,0,0,0,0,0,0,0,0,0,-1,930,1436,0,0
-287,-412,0,0,0,0,0,0,0,0,0,-1,937,1436,0,0
-280,-412,0,0,0,0,0,0,0,0,0,-1,944,1436,0,0
-273,-412,0,0,0,0,0,0,0,0,0,-1,951,1436,0,0
-266,-412,0,0,0,0,0,0,0,0,0,-1,958,1436,0,0
-259,-412,0,0,0,0,0,0,0,0,0,-1,965,1436,0,0
-252,-412,0,0,0,0,0,0,0,0,0,-1,972,1436,0,0
-245,-412,0,0,0,0,0,0,0,0,0,-1,979,1436,0,0
-238,-412,0,0,0,0,0,0,0,0,0,-1,986,1436,0,0
-231,-412,0,0,0,0,0,0,0,0,0,-1,993,1436,0,0
-224,-412,0,0,0,0,0,0,0,0,0,-1,1000,1436,0,0
-217,-412,0,0,0,0,0,0,0,0,0,-1,1007,1436,0,0
-210,-412,0,0,0,0,0,0,0,0,0,-1,1014,1436,0,0
-203,-412,0,0,0,0,0,0,0,0,0,-1,1021,1436,0,0
-196,-412,0,0,0,0,0,0,0,0,0,-1,1028,1436,0,0
-189,-412,0,0,0,0,0,0,0,0,0,-1,1035,1436,0,0
-182,-412,0,0,0,0,0,0,0,0,0,-1,1042,1436,0,0
-175,-412,0,0,0,0,0,0,0,0,0,-1,1049,1436,0,0
-168,-412,0,0,0,0,0,0,0,0,0,-1,1056,1436,0,0
-161,-412,0,0,0,0,0,0,0,0,0,-1,1063,1436,0,0
-154,-412,0,0,0,0,0,0,0,0,0,-1,1070,1436,0,0
-147,-412,0,0,0,0,0,0,0,0,0,-1,1077,1436,0,0
-140,-412,0,0,0,0,0,0,0,0,0,-1,1084,1436,0,0
-133,-412,0,0,0,0,0,0,0,0,0,-1,1091,1436,0,0
-126,-412,0,0,0,0,0,0,0,0,0,-1,1098,1436,0,0
-119,-412,0,0,0,0,0,0,0,0,0,-1,1105,1436,0,0
-112,-412,0,0,0,0,0,0,0,0,0,-1,1112,1436,0,0
-105,-412,0,0,0,0,0,0,0,0,0,-1,1119,1436,0,0
-98,-412,0,0,0,0,0,0,0,0,0,-1,1126,1436,0,0
-91,-412,0,0,0,0,0,0,0,0,0,-1,1133,1436,0,0
-84,-412,0,0,0,0,0,0,0,0,0,-1,1140,1436,0,0
-77,-412,0,0,0,0,0,0,0,0,0,-1,1147,1436,0,0
-70,-412,0,0,0,0,0,0,0,0,0,-1,1154,1436,0,0
-63,-412,0,0,0,0,0,0,0,0,0,-1,1161,1436,0,0
-56,-412,0,0,0,0,0,0,0,0,0,-1,1168,1436,0,0
-49,-412,0,0,0,0,0,0,0,0,0,-1,1175,1436,0,0
-42,-412,0,0,0,0,0,0,0,0,0,-1,1182,1436,0,0
-35,-412,0,0,0,0,0,0,0,0,0,-1,1189,1436,0,0
-28,-412,0,0,0,0,0,0,0,0,0,-1,1196,1436,0,0
-21,-412,0,0,0,0,0,0,0,0,0,-1,1203,1436,0,0
-14,-412,0,0,0,0,0,0,0,0,0,-1,1210,1436,0,0
-7,-412,0,0,0,0,0,0,0,0,0,-1,1217,1436,0,0
0,-412,0,0,0,0,0,0,0,0,0,-1,1224,1436,0,0
7,-412,0,0,0,0,0,0,0,0,0,-1,1231,1436,0,0
14,-412,0,0,0,0,0,0,0,0,0,-1,1238,1436,0,0
21,-412,0,0,0,0,0,0,0,0,0,-1,1245,1436,0,0
28,-412,0,0,0,0,0,0,0,0,0,-1,1252,1436,0,0
35,-412,0,0,0,0,0,0,0,0,0,-1,1259,1436,0,0
42,-412,0,0,0,0,0,0,0,0,0,-1,1266,1436,0,0
49,-412,0,0,0,0,0,0,0,0,0,-1,1273,1436,0,0
56,-412,0,0,0,0,0,0,0,0,0,-1,1280,1436,0,0
63,-412,0,0,0,0,0,0,0,0,0,-1,1287,1436,0,0
70,-412,0,0,0,0,0,0,0,0,0,-1,1294,1436,0,0
77,-412,0,0,0,0,0,0,0,0,0,-1,1301,1436,0,0
84,-412,0,0,0,0,0,0,0,0,0,-1,1308,1436,0,0
91,-412,0,0,0,0,0,0,0,0,0,-1,1315,1436,0,0
98,-412,0,0,0,0,0,0,0,0,0,-1,1322,1436,0,0
105,-412,0,0,0,0,0,0,0,0,0,-1,1329,1436,0,0
112,-412,0,0,0,0,0,0,0,0,0,-1,1336,1436,0,0
119,-412,0,0,0,0,0,0,0,0,0,-1,1343,1436,0,0
126,-412,0,0,0,0,0,0,0,0,0,-1,1350,1436,0,0
133,-412,0,0,0,0,0,0,0,0,0,-1,1357,1436,0,0
140,-412,0,0,0,0,0,0,0,0,0,-1,1364,1436,0,0
147,-412,0,0,0,0,0,0,0,0,0,-1,1371,1436,0,0
154,-412,0,0,0,0,0,0,0,0,0,-1,1378,1436,0,0
161,-412,0,0,0,0,0,0,0,0,0,-1,1385,1436,0,0
168,-412,0,0,0,0,0,0,0,0,0,-1,1392,1436,0,0
175,-412,0,0,0,0,0,0,0,0,0,-1,1399,1436,0,0
182,-412,0,0,0,0,0,0,0,0,0,-1,1406,1436,0,0
189,-412,0,0,0,0,0,0,0,0,0,-1,1413,1436,0,0
196,-412,0,0,0,0,0,0,0,0,0,-1,1420,1436,0,0
203,-412,0,0,0,0,0,0,0,0,0,-1,1427,1436,0,0
210,-412,0,0,0,0,0,0,0,0,0,-1,1434,1436,0,0
217,-412,0,0,0,0,0,0,0,0,0,-1,1441,1436,0,0
224,-412,0,0,0,0,0,0,0,0,0,-1,1448,1436,0,0
231,-412,0,0,0,0,0,0,0,0,0,-1,1455,1436,0,0
238,-412,0,0,0,0,0,0,0,0,0,-1,1462,1436,0,0
245,-412,0,0,0,0,0,0,0,0,0,-1,1469,1436,0,0
252,-412,0,0,0,0,0,0,0,0,0,-1,1476,1436,0,0
259,-412,0,0,0,0,0,0,0,0,0,-1,1483,1436,0,0
266,-412,0,0,0,0,0,0,0,0,0,-1,1490,1436,0,0
273,-412,0,0,0,0,0,0,0,0,0,-1,1497,1436,0,0
280,-412,0,0,0,0,0,0,0,0,0,-1,1504,1436,0,0
287,-412,0,0,0,0,0,0,0,0,0,-1,1511,1436,0,0
294,-412,0,0,0,0,0,0,0,0,0,-1,1518,1436,0,0
301,-412,0,0,0,0,0,0,0,0,0,-1,1525,1436,0,0
308,-412,0,0,0,0,0,0,0,0,0,-1,1532,1436,0,0
315,-412,0,0,0,0,0,0,0,0,0,-1,1539,1436,0,0
322,-412,0,0,0,0,0,0,0,0,0,-1,1546,1436,0,0
329,-412,0,0,0,0,0,0,0,0,0,-1,1553,1436,0,0
336,-412,0,0,0,0,0,0,0,0,0,-1,1560,1436,0,0
343,-412,0,0,0,0,0,0,0,0,0,-1,1567,1436,0,0
350,-412,0,0,0,0,0,0,0,0,0,-1,1574,1436,0,0
357,-412,0,0,0,0,0,0,0,0,0,-1,1581,1436,0,0
364,-412,0,0,0,0,0,0,0,0,0,-1,1588,1436,0,0
371,-412,0,0,0,0,0,0,0,0,0,-1,1595,1436,0,0
378,-412,0,0,0,0,0,0,0,0,0,-1,1602,1436,0,0
385,-412,0,0,0,0,0,0,0,0,0,-1,1609,1436,0,0
392,-412,0,0,0,0,0,0,0,0,0,-1,1616,1436,0,0
399,-412,0,0,0,0,0,0,0,0,0,-1,1623,1436,0,0
406,-412,0,0,0,0,0,0,0,0,0,-1,1630,1436,0,0
413,-412,0,0,0,0,0,0,0,0,0,-1,1637,1436,0,0
420,-412,0,0,0,0,0,0,0,0,0,-1,1644,1436,0,0
427,-412,0,0,0,0,0,0,0,0,0,-1,1651,1436,0,0
434,-412,0,0,0,0,0,0,0,0,0,-1,1658,1436,0,0
441,-412,0,0,0,0,0,0,0,0,0,-1,1665,1436,0,0
448,-412,0,0,0,0,0,0,0,0,0,-1,1672,1436,0,0
455,-412,0,0,0,0,0,0,0,0,0,-1,1679,1436,0,0
462,-412,0,0,0,0,0,0,0,0,0,-1,1686,1436,0,0
469,-412,0,0,0,0,0,0,0,0,0,-1,1693,1436,0,0
476,-412,0,0,0,0,0,0,0,0,0,-1,1700,1436,0,0
483,-412,0,0,0,0,0,0,0,0,0,-1,1707,1436,0,0
490,-412,0,0,0,0,0,0,0,0,0,-1,1714,1436,0,0
497,-412,0,0,0,0,0,0,0,0,0,-1,1721,1436,0,0
504,-412,0,0,0,0,0,0,0,0,0,-1,1728,1436,0,0
511,-412,0,0,0,0,0,0,0,0,0,-1,1735,1436,0,0
518,-412,30.1038,-2.43384,0,0,0,0,0,0,0,-1,1742,1436,30.1038,2.43383
525,-412,29.5283,-1.42493,0,0,0,0,0,0,0,-1,1749,1436,29.5283,1.42495
532,-412,28.8533,-0.386597,0,0,0,0,0,0,0,-1,1756,1436,28.8533,0.386632
539,-412,25.8654,2.74683,0,0,0,0,0,0,0,-1,1763,1436,25.8654,-2.74685
546,-412,25.4265,2.4342,0,0,0,0,0,0,0,-1,1770,1436,25.4265,-2.4342
553,-412,26.3595,7.49255,0,0,0,0,0,0,0,-1,1777,1436,26.3595,-7.4925
560,-412,24.9116,7.94324,0,0,0,0,0,0,0,-1,1784,1436,24.9116,-7.94327
567,-412,23.668,7.94531,0,0,0,0,0,0,0,-1,1791,1436,23.6679,-7.94534
574,-412,23.0142,9.17236,0,0,0,0,0,0,0,-1,1798,1436,23.0141,-9.17235
581,-412,22.2615,10.0349,0,0,0,0,0,0,0,-1,1805,1436,22.2615,-10.0349
588,-412,21.6893,10.8069,0,0,0,0,0,0,0,-1,1812,1436,21.6893,-10.8069
595,-412,21.5137,14.3157,0,0,0,0,0,0,0,-1,1819,1436,21.5137,-14.3157
602,-412,30.1493,19.7596,0,0,0,0,0,0,0,-1,1826,1436,30.1493,-19.7596
609,-412,30.2004,19.0549,0.0034321,0.00135018,-0.00168402,0.00437091,0.000411365,-0.508572,0.00278696,0.0417358,1833,1436,30.2005,-19.0549
616,-412,30.2092,18.4564,0.00245985,0.00049662,-0.000945345,0.00284104,0.000115427,-0.383289,0.00185675,0.0127024,1840,1436,30.2092,-18.4564
623,-412,30.1677,17.8622,0.00180648,0.000104834,-0.000547355,0.00196734,-5.60231e-05,-0.285834,0.00133063,0.00949777,1847,1436,30.1677,-17.8622
630,-412,30.1632,17.2346,0.00154132,-9.56389e-05,-0.000340203,0.00160921,-0.000163527,-0.196963,0.00113126,0.0111446,1854,1436,30.1632,-17.2347
637,-412,30.1459,16.6025,0.00151383,-8.33434e-05,-0.000288083,0.0015642,-0.000133717,-0.173106,0.00109011,0.0137706,1861,1436,30.1458,-16.6025
644,-412,30.1328,16.0204,0.00169149,-0.000111606,-0.000226148,0.00171942,-0.000139538,-0.122887,0.00119551,0.0151913,1868,1436,30.1328,-16.0204
651,-412,30.1056,15.4388,0.00203466,-8.59373e-05,-0.000198381,0.00205306,-0.000104336,-0.0924803,0.00140478,0.0251301,1875,1436,30.1056,-15.4389
658,-412,30.0409,14.8439,0.00248699,-0.000116656,-0.00011858,0.00249238,-0.000122046,-0.0454184,0.00170373,0.0187092,1882,1436,30.0409,-14.8438
665,-412,30.0347,14.2783,0.00309313,-0.000286704,7.20612e-05,0.00309467,-0.00028824,0.021308,0.00216559,0.0242743,1889,1436,30.0347,-14.2783
672,-412,30.082,13.6791,0.00374452,-0.000694816,0.00049919,0.00379996,-0.000750256,0.110607,0.0028169,0.0303987,1896,1436,30.082,-13.6791
679,-412,30.1973,13.0953,0.00445082,-0.00140766,0.00118368,0.00468094,-0.00163778,0.192014,0.00378652,0.0474441,1903,1436,30.1972,-13.0953
686,-412,30.1715,12.4103,0,0,0,0,0,0,0,-1,1910,1436,30.1715,-12.4102
693,-412,11.9346,6.02344,0,0,0,0,0,0,0,-1,1917,1436,11.9346,-6.02343
700,-412,8.82764,5.8844,0,0,0,0,0,0,0,-1,1924,1436,8.82761,-5.88444
707,-412,6.59998,1.68994,0,0,0,0,0,0,0,-1,1931,1436,6.60002,-1.68995
714,-412,4.77283,-2.39832,0,0,0,0,0,0,0,-1,1938,1436,4.77288,2.39835
721,-412,0,0,0,0,0,0,0,0,0,-1,1945,1436,0,0
728,-412,0,0,0,0,0,0,0,0,0,-1,1952,1436,0,0
735,-412,0,0,0,0,0,0,0,0,0,-1,1959,1436,0,0
742,-412,0,0,0,0,0,0,0,0,0,-1,1966,1436,0,0
749,-412,0,0,0,0,0,0,0,0,0,-1,1973,1436,0,0
756,-412,0,0,0,0,0,0,0,0,0,-1,1980,1436,0,0
763,-412,0,0,0,0,0,0,0,0,0,-1,1987,1436,0,0
770,-412,0,0,0,0,0,0,0,0,0,-1,1994,1436,0,0
777,-412,0,0,0,0,0,0,0,0,0,-1,2001,1436,0,0
784,-412,0,0,0,0,0,0,0,0,0,-1,2008,1436,0,0
791,-412,0,0,0,0,0,0,0,0,0,-1,2015,1436,0,0
798,-412,0,0,0,0,0,0,0,0,0,-1,2022,1436,0,0
805,-412,0,0,0,0,0,0,0,0,0,-1,2029,1436,0,0
812,-412,0,0,0,0,0,0,0,0,0,-1,2036,1436,0,0
-700,-419,0,0,0,0,0,0,0,0,0,-1,524,1443,0,0
-693,-419,0,0,0,0,0,0,0,0,0,-1,531,1443,0,0
-686,-419,0,0,0,0,0,0,0,0,0,-1,538,1443,0,0
-679,-419,0,0,0,0,0,0,0,0,0,-1,545,1443,0,0
-672,-419,0,0,0,0,0,0,0,0,0,-1,552,1443,0,0
-665,-419,0,0,0,0,0,0,0,0,0,-1,559,1443,0,0
-658,-419,0,0,0,0,0,0,0,0,0,-1,566,1443,0,0
-651,-419,0,0,0,0,0,0,0,0,0,-1,573,1443,0,0
-644,-419,0,0,0,0,0,0,0,0,0,-1,580,1443,0,0
-637,-419,0,0,0,0,0,0,0,0,0,-1,587,1443,0,0
-630,-419,0,0,0,0,0,0,0,0,0,-1,594,1443,0,0
-623,-419,0,0,0,0,0,0,0,0,0,-1,601,1443,0,0
-616,-419,0,0,0,0,0,0,0,0,0,-1,608,1443,0,0
-609,-419,0,0,0,0,0,0,0,0,0,-1,615,1443,0,0
-602,-419,0,0,0,0,0,0,0,0,0,-1,622,1443,0,0
-595,-419,-11.4904,-0.622681,0,0,0,0,0,0,0,-1,629,1443,-11.4903,0.622714
-588,-419,-9.09369,0.742432,0,0,0,0,0,0,0,-1,636,1443,-9.09366,-0.742482
-581,-419,-6.39172,2.14673,0,0,0,0,0,0,0,-1,643,1443,-6.39175,-2.14668
-574,-419,-4.09772,3.54773,0,0,0,0,0,0,0,-1,650,1443,-4.09772,-3.54767
-567,-419,-6.14038,3.22498,0,0,0,0,0,0,0,-1,657,1443,-6.14037,-3.22497
-560,-419,-4.52814,5.22253,0,0,0,0,0,0,0,-1,664,1443,-4.52816,-5.22251
-553,-419,-5.08331,6.11829,0,0,0,0,0,0,0,-1,671,1443,-5.08331,-6.1183
-546,-419,-10.3732,9.23279,0,0,0,0,0,0,0,-1,678,1443,-10.3732,-9.23275
-539,-419,-13.2087,11.7614,0,0,0,0,0,0,0,-1,685,1443,-13.2087,-11.7614
-532,-419,-13.2393,12.5553,0.00326427,0.00285949,0.00268352,0.00575302,0.000370739,0.74776,0.00371794,0.0263303,692,1443,-13.2393,-12.5553
-525,-419,-13.2278,13.2458,0.00264715,0.00214101,0.00210456,0.00451381,0.000274355,0.725561,0.00292205,0.0139249,699,1443,-13.2278,-13.2459
-518,-419,-13.2262,13.8937,0.00220151,0.00166944,0.00168242,0.0036388,0.000232144,0.706985,0.00235231,0.0173244,706,1443,-13.2262,-13.8937
-511,-419,-13.2607,14.4977,0.00183872,0.00134576,0.00135346,0.00296796,0.000216517,0.695329,0.00191056,0.0202419,713,1443,-13.2607,-14.4977
-504,-419,-13.3019,15.1439,0.00156326,0.00117209,0.00111171,0.00249646,0.000238892,0.698324,0.00159067,0.0204593,720,1443,-13.3019,-15.144
-497,-419,-13.3331,15.7859,0.00141019,0.00115846,0.000979,0.00227138,0.000297267,0.721467,0.00142553,0.0138261,727,1443,-13.3331,-15.7859
-490,-419,-13.3573,16.4142,0.00141331,0.00135,0.00100006,0.00238222,0.00038109,0.769577,0.00147759,0.011049,734,1443,-13.3573,-16.4141
-483,-419,-13.3987,17.0585,0.00152054,0.00174664,0.00114203,0.0027812,0.000485981,0.834732,0.00171524,0.00977385,741,1443,-13.3987,-17.0584
-476,-419,-13.371,17.7509,0.00176814,0.00226092,0.00140686,0.0034428,0.00058626,0.872086,0.00212689,0.0187135,748,1443,-13.371,-17.7508
-469,-419,-13.3656,18.3239,0,0,0,0,0,0,0,-1,755,1443,-13.3656,-18.3239
-462,-419,-11.5347,18.1563,0,0,0,0,0,0,0,-1,762,1443,-11.5347,-18.1562
-455,-419,-7.35645,11.9451,0,0,0,0,0,0,0,-1,769,1443,-7.35646,-11.9451
-448,-419,-7.49109,9.92444,0,0,0,0,0,0,0,-1,776,1443,-7.49109,-9.92442
-441,-419,-7.65527,8.75574,0,0,0,0,0,0,0,-1,783,1443,-7.65525,-8.75568
-434,-419,-11.3724,12.3643,0,0,0,0,0,0,0,-1,790,1443,-11.3724,-12.3643
-427,-419,-8.23193,7.89404,0,0,0,0,0,0,0,-1,797,1443,-8.23193,-7.89404
-420,-419,-8.74091,6.36597,0,0,0,0,0,0,0,-1,804,1443,-8.74089,-6.366
-413,-419,-9.88391,6.53955,0,0,0,0,0,0,0,-1,811,1443,-9.8839,-6.53955
-406,-419,-10.3372,2.75195,0,0,0,0,0,0,0,-1,818,1443,-10.3372,-2.75201
-399,-419,-11.5999,1.40002,0,0,0,0,0,0,0,-1,825,1443,-11.5999,-1.39998
-392,-419,0,0,0,0,0,0,0,0,0,-1,832,1443,0,0
-385,-419,0,0,0,0,0,0,0,0,0,-1,839,1443,0,0
-378,-419,0,0,0,0,0,0,0,0,0,-1,846,1443,0,0
-371,-419,0,0,0,0,0,0,0,0,0,-1,853,1443,0,0
-364,-419,0,0,0,0,0,0,0,0,0,-1,860,1443,0,0
-357,-419,0,0,0,0,0,0,0,0,0,-1,867,1443,0,0
-350,-419,0,0,0,0,0,0,0,0,0,-1,874,1443,0,0
-343,-419,0,0,0,0,0,0,0,0,0,-1,881,1443,0,0
-336,-419,0,0,0,0,0,0,0,0,0,-1,888,1443,0,0
-329,-419,0,0,0,0,0,0,0,0,0,-1,895,1443,0,0
-322,-419,0,0,0,0,0,0,0,0,0,-1,902,1443,0,0
-315,-419,0,0,0,0,0,0,0,0,0,-1,909,1443,0,0
-308,-419,0,0,0,0,0,0,0,0,0,-1,916,1443,0,0
-301,-419,0,0,0,0,0,0,0,0,0,-1,923,1443,0,0
-294,-419,0,0,0,0,0,0,0,0,0,-1,930,1443,0,0
-287,-419,0,0,0,0,0,0,0,0,0,-1,937,1443,0,0
-280,-419,0,0,0,0,0,0,0,0,0,-1,944,1443,0,0
-273,-419,0,0,0,0,0,0,0,0,0,-1,951,1443,0,0
-266,-419,0,0,0,0,0,0,0,0,0,-1,958,1443,0,0
-259,-419,0,0,0,0,0,0,0,0,0,-1,965,1443,0,0
-252,-419,0,0,0,0,0,0,0,0,0,-1,972,1443,0,0
-245,-419,0,0,0,0,0,0,0,0,0,-1,979,1443,0,0
-238,-419,0,0,0,0,0,0,0,0,0,-1,986,1443,0,0
-231,-419,0,0,0,0,0,0,0,0,0,-1,993,1443,0,0
-224,-419,0,0,0,0,0,0,0,0,0,-1,1000,1443,0,0
-217,-419,0,0,0,0,0,0,0,0,0,-1,1007,1443,0,0
-210,-419,0,0,0,0,0,0,0,0,0,-1,1014,1443,0,0
-203,-419,0,0,0,0,0,0,0,0,0,-1,1021,1443,0,0
-196,-419,0,0,0,0,0,0,0,0,0,-1,1028,1443,0,0
-189,-419,0,0,0,0,0,0,0,0,0,-1,1035,1443,0,0
-182,-419,0,0,0,0,0,0,0,0,0,-1,1042,1443,0,0
-175,-419,0,0,0,0,0,0,0,0,0,-1,1049,1443,0,0
-168,-419,0,0,0,0,0,0,0,0,0,-1,1056,1443,0,0
-161,-419,0,0,0,0,0,0,0,0,0,-1,1063,1443,0,0
-154,-419,0,0,0,0,0,0,0,0,0,-1,1070,1443,0,0
-147,-419,0,0,0,0,0,0,0,0,0,-1,1077,1443,0,0
-140,-419,0,0,0,0,0,0,0,0,0,-1,1084,1443,0,0
-133,-419,0,0,0,0,0,0,0,0,0,-1,1091,1443,0,0
-126,-419,0,0,0,0,0,0,0,0,0,-1,1098,1443,0,0
-119,-419,0,0,0,0,0,0,0,0,0,-1,1105,1443,0,0
-112,-419,0,0,0,0,0,0,0,0,0,-1,1112,1443,0,0
-105,-419,0,0,0,0,0,0,0,0,0,-1,1119,1443,0,0
-98,-419,0,0,0,0,0,0,0,0,0,-1,1126,1443,0,0
-91,-419,0,0,0,0,0,0,0,0,0,-1,1133,1443,0,0
-84,-419,0,0,0,0,0,0,0,0,0,-1,1140,1443,0,0
-77,-419,0,0,0,0,0,0,0,0,0,-1,1147,1443,0,0
-70,-419,0,0,0,0,0,0,0,0,0,-1,1154,1443,0,0
-63,-419,0,0,0,0,0,0,0,0,0,-1,1161,1443,0,0
-56,-419,0,0,0,0,0,0,0,0,0,-1,1168,1443,0,0
-49,-419,0,0,0,0,0,0,0,0,0,-1,1175,1443,0,0
-42,-419,0,0,0,0,0,0,0,0,0,-1,1182,1443,0,0
-35,-419,0,0,0,0,0,0,0,0,0,-1,1189,1443,0,0
-28,-419,0,0,0,0,0,0,0,0,0,-1,1196,1443,0,0
-21,-419,0,0,0,0,0,0,0,0,0,-1,1203,1443,0,0
-14,-419,0,0,0,0,0,0,0,0,0,-1,1210,1443,0,0
-7,-419,0,0,0,0,0,0,0,0,0,-1,1217,1443,0,0
0,-419,0,0,0,0,0,0,0,0,0,-1,1224,1443,0,0
7,-419,0,0,0,0,0,0,0,0,0,-1,1231,1443,0,0
14,-419,0,0,0,0,0,0,0,0,0,-1,1238,1443,0,0
21,-419,0,0,0,0,0,0,0,0,0,-1,1245,1443,0,0
28,-419,0,0,0,0,0,0,0,0,0,-1,1252,1443,0,0
35,-419,0,0,0,0,0,0,0,0,0,-1,1259,1443,0,0
42,-419,0,0,0,0,0,0,0,0,0,-1,1266,1443,0,0
49,-419,0,0,0,0,0,0,0,0,0,-1,1273,1443,0,0
56,-419,0,0,0,0,0,0,0,0,0,-1,1280,1443,0,0
63,-419,0,0,0,0,0,0,0,0,0,-1,1287,1443,0,0
70,-419,0,0,0,0,0,0,0,0,0,-1,1294,1443,0,0
77,-419,0,0,0,0,0,0,0,0,0,-1,1301,1443,0,0
84,-419,0,0,0,0,0,0,0,0,0,-1,1308,1443,0,0
91,-419,0,0,0,0,0,0,0,0,0,-1,1315,1443,0,0
98,-419,0,0,0,0,0,0,0,0,0,-1,1322,1443,0,0
105,-419,0,0,0,0,0,0,0,0,0,-1,1329,1443,0,0
112,-419,0,0,0,0,0,0,0,0,0,-1,1336,1443,0,0
119,-419,0,0,0,0,0,0,0,0,0,-1,1343,1443,0,0
126,-419,0,0,0,0,0,0,0,0,0,-1,1350,1443,0,0
133,-419,0,0,0,0,0,0,0,0,0,-1,1357,1443,0,0
140,-419,0,0,0,0,0,0,0,0,0,-1,1364,1443,0,0
147,-419,0,0,0,0,0,0,0,0,0,-1,1371,1443,0,0
154,-419,0,0,0,0,0,0,0,0,0,-1,1378,1443,0,0
161,-419,0,0,0,0,0,0,0,0,0,-1,1385,1443,0,0
168,-419,0,0,0,0,0,0,0,0,0,-1,1392,1443,0,0
175,-419,0,0,0,0,0,0,0,0,0,-1,1399,1443,0,0
182,-419,0,0,0,0,0,0,0,0,0,-1,1406,1443,0,0
189,-419,0,0,0,0,0,0,0,0,0,-1,1413,1443,0,0
196,-419,0,0,0,0,0,0,0,0,0,-1,1420,1443,0,0
203,-419,0,0,0,0,0,0,0,0,0,-1,1427,1443,0,0
210,-419,0,0,0,0,0,0,0,0,0,-1,1434,1443,0,0
217,-419,0,0,0,0,0,0,0,0,0,-1,1441,1443,0,0
224,-419,0,0,0,0,0,0,0,0,0,-1,1448,1443,0,0
231,-419,0,0,0,0,0,0,0,0,0,-1,1455,1443,0,0
238,-419,0,0,0,0,0,0,0,0,0,-1,1462,1443,0,0
245,-419,0,0,0,0,0,0,0,0,0,-1,1469,1443,0,0
252,-419,0,0,0,0,0,0,0,0,0,-1,1476,1443,0,0
259,-419,0,0,0,0,0,0,0,0,0,-1,1483,1443,0,0
266,-419,0,0,0,0,0,0,0,0,0,-1,1490,1443,0,0
273,-419,0,0,0,0,0,0,0,0,0,-1,1497,1443,0,0
280,-419,0,0,0,0,0,0,0,0,0,-1,1504,1443,0,0
287,-419,0,0,0,0,0,0,0,0,0,-1,1511,1443,0,0
294,-419,0,0,0,0,0,0,0,0,0,-1,1518,1443,0,0
301,-419,0,0,0,0,0,0,0,0,0,-1,1525,1443,0,0
308,-419,0,0,0,0,0,0,0,0,0,-1,1532,1443,0,0
315,-419,0,0,0,0,0,0,0,0,0,-1,1539,1443,0,0
322,-419,0,0,0,0,0,0,0,0,0,-1,1546,1443,0,0
329,-419,0,0,0,0,0,0,0,0,0,-1,1553,1443,0,0
336,-419,0,0,0,0,0,0,0,0,0,-1,1560,1443,0,0
343,-419,0,0,0,0,0,0,0,0,0,-1,1567,1443,0,0
350,-419,0,0,0,0,0,0,0,0,0,-1,1574,1443,0,0
357,-419,0,0,0,0,0,0,0,0,0,-1,1581,1443,0,0
364,-419,0,0,0,0,0,0,0,0,0,-1,1588,1443,0,0
371,-419,0,0,0,0,0,0,0,0,0,-1,1595,1443,0,0
378,-419,0,0,0,0,0,0,0,0,0,-1,1602,1443,0,0
385,-419,0,0,0,0,0,0,0,0,0,-1,1609,1443,0,0
392,-419,0,0,0,0,0,0,0,0,0,-1,1616,1443,0,0
399,-419,0,0,0,0,0,0,0,0,0,-1,1623,1443,0,0
406,-419,0,0,0,0,0,0,0,0,0,-1,1630,1443,0,0
413,-419,0,0,0,0,0,0,0,0,0,-1,1637,1443,0,0
420,-419,0,0,0,0,0,0,0,0,0,-1,1644,1443,0,0
427,-419,0,0,0,0,0,0,0,0,0,-1,1651,1443,0,0
434,-419,0,0,0,0,0,0,0,0,0,-1,1658,1443,0,0
441,-419,0,0,0,0,0,0,0,0,0,-1,1665,1443,0,0
448,-419,0,0,0,0,0,0,0,0,0,-1,1672,1443,0,0
455,-419,0,0,0,0,0,0,0,0,0,-1,1679,1443,0,0
462,-419,0,0,0,0,0,0,0,0,0,-1,1686,1443,0,0
469,-419,0,0,0,0,0,0,0,0,0,-1,1693,1443,0,0
476,-419,0,0,0,0,0,0,0,0,0,-1,1700,1443,0,0
483,-419,0,0,0,0,0,0,0,0,0,-1,1707,1443,0,0
490,-419,0,0,0,0,0,0,0,0,0,-1,1714,1443,0,0
497,-419,0,0,0,0,0,0,0,0,0,-1,1721,1443,0,0
504,-419,0,0,0,0,0,0,0,0,0,-1,1728,1443,0,0
511,-419,20.3005,3.7959,0,0,0,0,0,0,0,-1,1735,1443,20.3005,-3.79584
518,-419,21.3154,2.03027,0,0,0,0,0,0,0,-1,1742,1443,21.3155,-2.03029
525,-419,28.3439,-1.24475,0,0,0,0,0,0,0,-1,1749,1443,28.3438,1.24471
532,-419,27.5902,-0.272583,0,0,0,0,0,0,0,-1,1756,1443,27.5902,0.272526
539,-419,26.5278,1.60583,0,0,0,0,0,0,0,-1,1763,1443,26.5279,-1.60579
546,-419,24.9509,2.77539,0,0,0,0,0,0,0,-1,1770,1443,24.9509,-2.77537
553,-419,24.118,3.75525,0,0,0,0,0,0,0,-1,1777,1443,24.1181,-3.75526
560,-419,11.8199,8.26343,0,0,0,0,0,0,0,-1,1784,1443,11.82,-8.26341
567,-419,21.5143,8.74719,0,0,0,0,0,0,0,-1,1791,1443,21.5143,-8.74722
574,-419,19.5886,6.46155,0,0,0,0,0,0,0,-1,1798,1443,19.5886,-6.46157
581,-419,20.7926,11.4265,0,0,0,0,0,0,0,-1,1805,1443,20.7926,-11.4265
588,-419,19.4242,12.5363,0,0,0,0,0,0,0,-1,1812,1443,19.4242,-12.5362
595,-419,22.9375,16.0151,0,0,0,0,0,0,0,-1,1819,1443,22.9375,-16.0152
602,-419,29.6168,19.7268,0,0,0,0,0,0,0,-1,1826,1443,29.6168,-19.7269
609,-419,29.614,19.0724,0.00309833,0.00119122,-0.00161471,0.00402002,0.000269532,-0.51868,0.00259484,0.0226554,1833,1443,29.6141,-19.0723
616,-419,29.5886,18.489,0.00234723,0.000593198,-0.00103503,0.00282684,0.000113585,-0.433926,0.00184786,0.0127536,1840,1443,29.5886,-18.489
623,-419,29.5724,17.8922,0.00187808,0.000289985,-0.000682736,0.00213124,3.68266e-05,-0.355083,0.00140871,0.0105075,1847,1443,29.5724,-17.8922
630,-419,29.5793,17.2672,0.00172506,9.52568e-05,-0.000496276,0.00186429,-4.39667e-05,-0.273506,0.00125777,0.0122386,1854,1443,29.5794,-17.2672
637,-419,29.5486,16.6743,0.00176226,0.000107937,-0.00042936,0.00186705,3.14036e-06,-0.239396,0.00124366,0.01337,1861,1443,29.5486,-16.6743
644,-419,29.5244,16.0851,0.00203013,0.00010164,-0.000372279,0.0020995,3.22706e-05,-0.184225,0.00138904,0.0123107,1868,1443,29.5245,-16.0851
651,-419,29.5031,15.4995,0.00245087,0.000186351,-0.000389462,0.00251598,0.000121242,-0.165646,0.0016384,0.0116147,1875,1443,29.5031,-15.4995
658,-419,29.4508,14.8795,0.00301928,0.000235657,-0.000386532,0.00307196,0.00018298,-0.135446,0.00198979,0.0136104,1882,1443,29.4509,-14.8795
665,-419,29.4543,14.2922,0.00373213,0.000152174,-0.000258541,0.0037507,0.000133599,-0.0717231,0.00245715,0.0208861,1889,1443,29.4543,-14.2923
672,-419,29.5111,13.6251,0.00443632,-0.000192553,0.000138324,0.00444045,-0.000196683,0.0298473,0.00302799,0.0331136,1896,1443,29.5111,-13.6252
679,-419,29.5729,12.9412,0,0,0,0,0,0,0,-1,1903,1443,29.5729,-12.9412
686,-419,17.4127,8.03076,0,0,0,0,0,0,0,-1,1910,1443,17.4127,-8.03071
693,-419,8.76086,5.60535,0,0,0,0,0,0,0,-1,1917,1443,8.76091,-5.6054
700,-419,11.0498,4.85156,0,0,0,0,0,0,0,-1,1924,1443,11.0498,-4.85153
707,-419,9.5752,1.80042,0,0,0,0,0,0,0,-1,1931,1443,9.57523,-1.80037
714,-419,5.77576,-1.25061,0,0,0,0,0,0,0,-1,1938,1443,5.7757,1.25056
721,-419,0,0,0,0,0,0,0,0,0,-1,1945,1443,0,0
728,-419,0,0,0,0,0,0,0,0,0,-1,1952,1443,0,0
735,-419,0,0,0,0,0,0,0,0,0,-1,1959,1443,0,0
742,-419,0,0,0,0,0,0,0,0,0,-1,1966,1443,0,0
749,-419,0,0,0,0,0,0,0,0,0,-1,1973,1443,0,0
756,-419,0,0,0,0,0,0,0,0,0,-1,1980,1443,0,0
763,-419,0,0,0,0,0,0,0,0,0,-1,1987,1443,0,0
770,-419,0,0,0,0,0,0,0,0,0,-1,1994,1443,0,0
777,-419,0,0,0,0,0,0,0,0,0,-1,2001,1443,0,0
784,-419,0,0,0,0,0,0,0,0,0,-1,2008,1443,0,0
791,-419,0,0,0,0,0,0,0,0,0,-1,2015,1443,0,0
798,-419,0,0,0,0,0,0,0,0,0,-1,2022,1443,0,0
805,-419,0,0,0,0,0,0,0,0,0,-1,2029,1443,0,0
812,-419,0,0,0,0,0,0,0,0,0,-1,2036,1443,0,0
-700,-426,0,0,0,0,0,0,0,0,0,-1,524,1450,0,0
-693,-426,0,0,0,0,0,0,0,0,0,-1,531,1450,0,0
-686,-426,0,0,0,0,0,0,0,0,0,-1,538,1450,0,0
-679,-426,0,0,0,0,0,0,0,0,0,-1,545,1450,0,0
-672,-426,0,0,0,0,0,0,0,0,0,-1,552,1450,0,0
-665,-426,0,0,0,0,0,0,0,0,0,-1,559,1450,0,0
-658,-426,0,0,0,0,0,0,0,0,0,-1,566,1450,0,0
-651,-426,0,0,0,0,0,0,0,0,0,-1,573,1450,0,0
-644,-426,0,0,0,0,0,0,0,0,0,-1,580,1450,0,0
-637,-426,0,0,0,0,0,0,0,0,0,-1,587,1450,0,0
-630,-426,0,0,0,0,0,0,0,0,0,-1,594,1450,0,0
-623,-426,0,0,0,0,0,0,0,0,0,-1,601,1450,0,0
-616,-426,0,0,0,0,0,0,0,0,0,-1,608,1450,0,0
-609,-426,0,0,0,0,0,0,0,0,0,-1,615,1450,0,0
-602,-426,0,0,0,0,0,0,0,0,0,-1,622,1450,0,0
-595,-426,0,0,0,0,0,0,0,0,0,-1,629,1450,0,0
-588,-426,-10.184,-0.554321,0,0,0,0,0,0,0,-1,636,1450,-10.184,0.554321
-581,-426,-7.3349,1.48157,0,0,0,0,0,0,0,-1,643,1450,-7.33491,-1.48152
-574,-426,-5.02856,2.89319,0,0,0,0,0,0,0,-1,650,1450,-5.02858,-2.89319
-567,-426,-3.04797,1.72644,0,0,0,0,0,0,0,-1,657,1450,-3.04797,-1.72639
-560,-426,-5.55682,3.44397,0,0,0,0,0,0,0,-1,664,1450,-5.55684,-3.44399
-553,-426,-4.67017,6.66614,0,0,0,0,0,0,0,-1,671,1450,-4.67015,-6.66619
-546,-426,-7.58752,8.28882,0,0,0,0,0,0,0,-1,678,1450,-7.58752,-8.28878
-539,-426,-10.436,10.7441,0,0,0,0,0,0,0,-1,685,1450,-10.436,-10.7441
-532,-426,-12.6139,12.5189,0,0,0,0,0,0,0,-1,692,1450,-12.6139,-12.5189
-525,-426,-12.6151,13.2059,0.00292646,0.00238991,0.00250654,0.00517904,0.000137327,0.732086,0.00340784,0.0210603,699,1450,-12.6151,-13.206
-518,-426,-12.6147,13.9222,0.00242787,0.00179857,0.00198594,0.00412393,0.000102512,0.706832,0.00271576,0.017195,706,1450,-12.6147,-13.9222
-511,-426,-12.6254,14.5708,0.00200378,0.00138897,0.001569,0.0032952,9.75429e-05,0.688661,0.00216502,0.0165385,713,1450,-12.6254,-14.5708
-504,-426,-12.6539,15.1918,0.00165002,0.00114701,0.0012365,0.00266034,0.000136699,0.685067,0.00172979,0.015847,720,1450,-12.6539,-15.1917
-497,-426,-12.6763,15.8126,0.00140463,0.00107723,0.00100494,0.00225912,0.000222744,0.704661,0.00143759,0.0125805,727,1450,-12.6763,-15.8126
-490,-426,-12.7103,16.4537,0.00130688,0.00121753,0.000932876,0.00219615,0.000328259,0.761473,0.00136787,0.0126694,734,1450,-12.7104,-16.4537
-483,-426,-12.751,17.0889,0.0013343,0.00157007,0.000993296,0.00245245,0.000451915,0.844462,0.00150708,0.0126061,741,1450,-12.751,-17.0888
-476,-426,-12.7658,17.7191,0.00151758,0.00209576,0.00121864,0.00305913,0.000554206,0.901857,0.00188209,0.00981313,748,1450,-12.7658,-17.7191
-469,-426,-12.7946,18.3514,0.00189266,0.00286499,0.00161837,0.00406864,0.000689008,0.931313,0.00251442,0.0124285,755,1450,-12.7945,-18.3514
-462,-426,-12.739,19.0245,0,0,0,0,0,0,0,-1,762,1450,-12.739,-19.0245
-455,-426,-10.215,17.7007,0,0,0,0,0,0,0,-1,769,1450,-10.215,-17.7007
-448,-426,-6.46545,10.1322,0,0,0,0,0,0,0,-1,776,1450,-6.46543,-10.1322
-441,-426,-10.9547,11.4747,0,0,0,0,0,0,0,-1,783,1450,-10.9546,-11.4748
-434,-426,-10.4998,13.6189,0,0,0,0,0,0,0,-1,790,1450,-10.4997,-13.6189
-427,-426,-9.36627,13.7396,0,0,0,0,0,0,0,-1,797,1450,-9.36628,-13.7396
-420,-426,-5.33765,7.95044,0,0,0,0,0,0,0,-1,804,1450,-5.33766,-7.95041
-413,-426,-10.1148,5.0415,0,0,0,0,0,0,0,-1,811,1450,-10.1148,-5.04152
-406,-426,-11.4199,3.6438,0,0,0,0,0,0,0,-1,818,1450,-11.4198,-3.64382
-399,-426,-12.7595,2.29004,0,0,0,0,0,0,0,-1,825,1450,-12.7595,-2.29003
-392,-426,-12.4147,0.537354,0,0,0,0,0,0,0,-1,832,1450,-12.4147,-0.53731
-385,-426,0,0,0,0,0,0,0,0,0,-1,839,1450,0,0
-378,-426,0,0,0,0,0,0,0,0,0,-1,846,1450,0,0
-371,-426,0,0,0,0,0,0,0,0,0,-1,853,1450,0,0
-364,-426,0,0,0,0,0,0,0,0,0,-1,860,1450,0,0
-357,-426,0,0,0,0,0,0,0,0,0,-1,867,1450,0,0
-350,-426,0,0,0,0,0,0,0,0,0,-1,874,1450,0,0
-343,-426,0,0,0,0,0,0,0,0,0,-1,881,1450,0,0
-336,-426,0,0,0,0,0,0,0,0,0,-1,888,1450,0,0
-329,-426,0,0,0,0,0,0,0,0,0,-1,895,1450,0,0
-322,-426,0,0,0,0,0,0,0,0,0,-1,902,1450,0,0
-315,-426,0,0,0,0,0,0,0,0,0,-1,909,1450,0,0
-308,-426,0,0,0,0,0,0,0,0,0,-1,916,1450,0,0
-301,-426,0,0,0,0,0,0,0,0,0,-1,923,1450,0,0
-294,-426,0,0,0,0,0,0,0,0,0,-1,930,1450,0,0
-287,-426,0,0,0,0,0,0,0,0,0,-1,937,1450,0,0
-280,-426,0,0,0,0,0,0,0,0,0,-1,944,1450,0,0
-273,-426,0,0,0,0,0,0,0,0,0,-1,951,1450,0,0
-266,-426,0,0,0,0,0,0,0,0,0,-1,958,1450,0,0
-259,-426,0,0,0,0,0,0,0,0,0,-1,965,1450,0,0
-252,-426,0,0,0,0,0,0,0,0,0,-1,972,1450,0,0
-245,-426,0,0,0,0,0,0,0,0,0,-1,979,1450,0,0
-238,-426,0,0,0,0,0,0,0,0,0,-1,986,1450,0,0
-231,-426,0,0,0,0,0,0,0,0,0,-1,993,1450,0,0
-224,-426,0,0,0,0,0,0,0,0,0,-1,1000,1450,0,0
-217,-426,0,0,0,0,0,0,0,0,0,-1,1007,1450,0,0
-210,-426,0,0,0,0,0,0,0,0,0,-1,1014,1450,0,0
-203,-426,0,0,0,0,0,0,0,0,0,-1,1021,1450,0,0
-196,-426,0,0,0,0,0,0,0,0,0,-1,1028,1450,0,0
-189,-426,0,0,0,0,0,0,0,0,0,-1,1035,1450,0,0
-182,-426,0,0,0,0,0,0,0,0,0,-1,1042,1450,0,0
-175,-426,0,0,0,0,0,0,0,0,0,-1,1049,1450,0,0
-168,-426,0,0,0,0,0,0,0,0,0,-1,1056,1450,0,0
-161,-426,0,0,0,0,0,0,0,0,0,-1,1063,1450,0,0
-154,-426,0,0,0,0,0,0,0,0,0,-1,1070,1450,0,0
-147,-426,0,0,0,0,0,0,0,0,0,-1,1077,1450,0,0
-140,-426,0,0,0,0,0,0,0,0,0,-1,1084,1450,0,0
-133,-426,0,0,0,0,0,0,0,0,0,-1,1091,1450,0,0
-126,-426,0,0,0,0,0,0,0,0,0,-1,1098,1450,0,0
-119,-426,0,0,0,0,0,0,0,0,0,-1,1105,1450,0,0
-112,-426,0,0,0,0,0,0,0,0,0,-1,1112,1450,0,0
-105,-426,0,0,0,0,0,0,0,0,0,-1,1119,1450,0,0
-98,-426,0,0,0,0,0,0,0,0,0,-1,1126,1450,0,0
-91,-426,0,0,0,0,0,0,0,0,0,-1,1133,1450,0,0
-84,-426,0,0,0,0,0,0,0,0,0,-1,1140,1450,0,0
-77,-426,0,0,0,0,0,0,0,0,0,-1,1147,1450,0,0
-70,-426,0,0,0,0,0,0,0,0,0,-1,1154,1450,0,0
-63,-426,0,0,0,0,0,0,0,0,0,-1,1161,1450,0,0
-56,-426,0,0,0,0,0,0,0,0,0,-1,1168,1450,0,0
-49,-426,0,0,0,0,0,0,0,0,0,-1,1175,1450,0,0
-42,-426,0,0,0,0,0,0,0,0,0,-1,1182,1450,0,0
-35,-426,0,0,0,0,0,0,0,0,0,-1,1189,1450,0,0
-28,-426,0,0,0,0,0,0,0,0,0,-1,1196,1450,0,0
-21,-426,0,0,0,0,0,0,0,0,0,-1,1203,1450,0,0
-14,-426,0,0,0,0,0,0,0,0,0,-1,1210,1450,0,0
-7,-426,0,0,0,0,0,0,0,0,0,-1,1217,1450,0,0
0,-426,0,0,0,0,0,0,0,0,0,-1,1224,1450,0,0
7,-426,0,0,0,0,0,0,0,0,0,-1,1231,1450,0,0
14,-426,0,0,0,0,0,0,0,0,0,-1,1238,1450,0,0
21,-426,0,0,0,0,0,0,0,0,0,-1,1245,1450,0,0
28,-426,0,0,0,0,0,0,0,0,0,-1,1252,1450,0,0
35,-426,0,0,0,0,0,0,0,0,0,-1,1259,1450,0,0
42,-426,0,0,0,0,0,0,0,0,0,-1,1266,1450,0,0
49,-426,0,0,0,0,0,0,0,0,0,-1,1273,1450,0,0
56,-426,0,0,0,0,0,0,0,0,0,-1,1280,1450,0,0
63,-426,0,0,0,0,0,0,0,0,0,-1,1287,1450,0,0
70,-426,0,0,0,0,0,0,0,0,0,-1,1294,1450,0,0
77,-426,0,0,0,0,0,0,0,0,0,-1,1301,1450,0,0
84,-426,0,0,0,0,0,0,0,0,0,-1,1308,1450,0,0
91,-426,0,0,0,0,0,0,0,0,0,-1,1315,1450,0,0
98,-426,0,0,0,0,0,0,0,0,0,-1,1322,1450,0,0
105,-426,0,0,0,0,0,0,0,0,0,-1,1329,1450,0,0
112,-426,0,0,0,0,0,0,0,0,0,-1,1336,1450,0,0
119,-426,0,0,0,0,0,0,0,0,0,-1,1343,1450,0,0
126,-426,0,0,0,0,0,0,0,0,0,-1,1350,1450,0,0
133,-426,0,0,0,0,0,0,0,0,0,-1,1357,1450,0,0
140,-426,0,0,0,0,0,0,0,0,0,-1,1364,1450,0,0
147,-426,0,0,0,0,0,0,0,0,0,-1,1371,1450,0,0
154,-426,0,0,0,0,0,0,0,0,0,-1,1378,1450,0,0
161,-426,0,0,0,0,0,0,0,0,0,-1,1385,1450,0,0
168,-426,0,0,0,0,0,0,0,0,0,-1,1392,1450,0,0
175,-426,0,0,0,0,0,0,0,0,0,-1,1399,1450,0,0
182,-426,0,0,0,0,0,0,0,0,0,-1,1406,1450,0,0
189,-426,0,0,0,0,0,0,0,0,0,-1,1413,1450,0,0
196,-426,0,0,0,0,0,0,0,0,0,-1,1420,1450,0,0
203,-426,0,0,0,0,0,0,0,0,0,-1,1427,1450,0,0
210,-426,0,0,0,0,0,0,0,0,0,-1,1434,1450,0,0
217,-426,0,0,0,0,0,0,0,0,0,-1,1441,1450,0,0
224,-426,0,0,0,0,0,0,0,0,0,-1,1448,1450,0,0
231,-426,0,0,0,0,0,0,0,0,0,-1,1455,1450,0,0
238,-426,0,0,0,0,0,0,0,0,0,-1,1462,1450,0,0
245,-426,0,0,0,0,0,0,0,0,0,-1,1469,1450,0,0
252,-426,0,0,0,0,0,0,0,0,0,-1,1476,1450,0,0
259,-426,0,0,0,0,0,0,0,0,0,-1,1483,1450,0,0
266,-426,0,0,0,0,0,0,0,0,0,-1,1490,1450,0,0
273,-426,0,0,0,0,0,0,0,0,0,-1,1497,1450,0,0
280,-426,0,0,0,0,0,0,0,0,0,-1,1504,1450,0,0
287,-426,0,0,0,0,0,0,0,0,0,-1,1511,1450,0,0
294,-426,0,0,0,0,0,0,0,0,0,-1,1518,1450,0,0
301,-426,0,0,0,0,0,0,0,0,0,-1,1525,1450,0,0
308,-426,0,0,0,0,0,0,0,0,0,-1,1532,1450,0,0
315,-426,0,0,0,0,0,0,0,0,0,-1,1539,1450,0,0
322,-426,0,0,0,0,0,0,0,0,0,-1,1546,1450,0,0
329,-426,0,0,0,0,0,0,0,0,0,-1,1553,1450,0,0
336,-426,0,0,0,0,0,0,0,0,0,-1,1560,1450,0,0
343,-426,0,0,0,0,0,0,0,0,0,-1,1567,1450,0,0
350,-426,0,0,0,0,0,0,0,0,0,-1,1574,1450,0,0
357,-426,0,0,0,0,0,0,0,0,0,-1,1581,1450,0,0
364,-426,0,0,0,0,0,0,0,0,0,-1,1588,1450,0,0
371,-426,0,0,0,0,0,0,0,0,0,-1,1595,1450,0,0
378,-426,0,0,0,0,0,0,0,0,0,-1,1602,1450,0,0
385,-426,0,0,0,0,0,0,0,0,0,-1,1609,1450,0,0
392,-426,0,0,0,0,0,0,0,0,0,-1,1616,1450,0,0
399,-426,0,0,0,0,0,0,0,0,0,-1,1623,1450,0,0
406,-426,0,0,0,0,0,0,0,0,0,-1,1630,1450,0,0
413,-426,0,0,0,0,0,0,0,0,0,-1,1637,1450,0,0
420,-426,0,0,0,0,0,0,0,0,0,-1,1644,1450,0,0
427,-426,0,0,0,0,0,0,0,0,0,-1,1651,1450,0,0
434,-426,0,0,0,0,0,0,0,0,0,-1,1658,1450,0,0
441,-426,0,0,0,0,0,0,0,0,0,-1,1665,1450,0,0
448,-426,0,0,0,0,0,0,0,0,0,-1,1672,1450,0,0
455,-426,0,0,0,0,0,0,0,0,0,-1,1679,1450,0,0
462,-426,0,0,0,0,0,0,0,0,0,-1,1686,1450,0,0
469,-426,0,0,0,0,0,0,0,0,0,-1,1693,1450,0,0
476,-426,0,0,0,0,0,0,0,0,0,-1,1700,1450,0,0
483,-426,0,0,0,0,0,0,0,0,0,-1,1707,1450,0,0
490,-426,0,0,0,0,0,0,0,0,0,-1,1714,1450,0,0
497,-426,0,0,0,0,0,0,0,0,0,-1,1721,1450,0,0
504,-426,20.6873,3.38367,0,0,0,0,0,0,0,-1,1728,1450,20.6873,-3.38361
511,-426,19.6676,3.53748,0,0,0,0,0,0,0,-1,1735,1450,19.6676,-3.53749
518,-426,18.6853,3.32288,0,0,0,0,0,0,0,-1,1742,1450,18.6853,-3.3229
525,-426,18.9552,2.71033,0,0,0,0,0,0,0,-1,1749,1450,18.9552,-2.71034
532,-426,19.4333,2.70764,0,0,0,0,0,0,0,-1,1756,1450,19.4334,-2.70764
539,-426,25.1482,2.56287,0,0,0,0,0,0,0,-1,1763,1450,25.1482,-2.56286
546,-426,24.1136,3.75659,0,0,0,0,0,0,0,-1,1770,1450,24.1136,-3.7566
553,-426,23.0791,4.95032,0,0,0,0,0,0,0,-1,1777,1450,23.0791,-4.95034
560,-426,12.9688,11.8289,0,0,0,0,0,0,0,-1,1784,1450,12.9688,-11.8288
567,-426,13.6388,11.5623,0,0,0,0,0,0,0,-1,1791,1450,13.6388,-11.5623
574,-426,14.3943,11.0286,0,0,0,0,0,0,0,-1,1798,1450,14.3942,-11.0285
581,-426,16.3879,11.4653,0,0,0,0,0,0,0,-1,1805,1450,16.3879,-11.4653
588,-426,18.1212,12.5547,0,0,0,0,0,0,0,-1,1812,1450,18.1212,-12.5547
595,-426,28.7675,20.3503,0,0,0,0,0,0,0,-1,1819,1450,28.7675,-20.3503
602,-426,28.9298,19.7324,0.00386805,0.00193684,-0.00228472,0.00538284,0.00042205,-0.585465,0.00345647,0.0468355,1826,1450,28.9299,-19.7324
609,-426,29.0132,19.0909,0.00303895,0.00125883,-0.00161659,0.0039943,0.000303467,-0.533755,0.0025677,0.014098,1833,1450,29.0132,-19.0909
616,-426,29.0002,18.4904,0.00236966,0.000761135,-0.00111312,0.00293867,0.000192124,-0.472555,0.00189832,0.0155335,1840,1450,29.0003,-18.4904
623,-426,28.9841,17.9008,0.0020185,0.000476978,-0.000795899,0.00235568,0.000139801,-0.400721,0.00152599,0.0125209,1847,1450,28.9842,-17.9008
630,-426,28.9905,17.3159,0.00195605,0.000260511,-0.000634106,0.00216696,4.96003e-05,-0.3211,0.00142839,0.0128977,1854,1450,28.9905,-17.316
637,-426,28.9572,16.7173,0.00204659,0.000249334,-0.00057093,0.00221262,8.33056e-05,-0.282999,0.00144811,0.0134519,1861,1450,28.9571,-16.7173
644,-426,28.9055,16.1132,0.00237817,0.000255157,-0.000530796,0.00250348,0.000129844,-0.23184,0.00162743,0.0137861,1868,1450,28.9055,-16.1132
651,-426,28.8732,15.5162,0.00286128,0.000392003,-0.000599233,0.00299902,0.000254267,-0.22593,0.00192021,0.0128841,1875,1450,28.8732,-15.5163
658,-426,28.875,14.8701,0.00355394,0.000527901,-0.000685835,0.00370213,0.000379717,-0.212793,0.00235175,0.0124225,1882,1450,28.8751,-14.8701
665,-426,28.9216,14.1949,0.00438358,0.00056253,-0.000628415,0.00448427,0.000461834,-0.158888,0.00284808,0.0274682,1889,1450,28.9217,-14.195
672,-426,29.0354,13.5374,0,0,0,0,0,0,0,-1,1896,1450,29.0354,-13.5374
679,-426,17.1522,8.15784,0,0,0,0,0,0,0,-1,1903,1450,17.1522,-8.15784
686,-426,13.5326,8.03711,0,0,0,0,0,0,0,-1,1910,1450,13.5326,-8.03717
693,-426,11.8607,6.45215,0,0,0,0,0,0,0,-1,1917,1450,11.8607,-6.45215
700,-426,9.24304,2.95447,0,0,0,0,0,0,0,-1,1924,1450,9.24305,-2.95442
707,-426,8.44519,-1.21448,0,0,0,0,0,0,0,-1,1931,1450,8.44514,1.21454
714,-426,0,0,0,0,0,0,0,0,0,-1,1938,1450,0,0
721,-426,0,0,0,0,0,0,0,0,0,-1,1945,1450,0,0
728,-426,0,0,0,0,0,0,0,0,0,-1,1952,1450,0,0
735,-426,0,0,0,0,0,0,0,0,0,-1,1959,1450,0,0
742,-426,0,0,0,0,0,0,0,0,0,-1,1966,1450,0,0
749,-426,0,0,0,0,0,0,0,0,0,-1,1973,1450,0,0
756,-426,0,0,0,0,0,0,0,0,0,-1,1980,1450,0,0
763,-426,0,0,0,0,0,0,0,0,0,-1,1987,1450,0,0
770,-426,0,0,0,0,0,0,0,0,0,-1,1994,1450,0,0
777,-426,0,0,0,0,0,0,0,0,0,-1,2001,1450,0,0
784,-426,0,0,0,0,0,0,0,0,0,-1,2008,1450,0,0
791,-426,0,0,0,0,0,0,0,0,0,-1,2015,1450,0,0
798,-426,0,0,0,0,0,0,0,0,0,-1,2022,1450,0,0
805,-426,0,0,0,0,0,0,0,0,0,-1,2029,1450,0,0
812,-426,0,0,0,0,0,0,0,0,0,-1,2036,1450,0,0
-700,-433,0,0,0,0,0,0,0,0,0,-1,524,1457,0,0
-693,-433,0,0,0,0,0,0,0,0,0,-1,531,1457,0,0
-686,-433,0,0,0,0,0,0,0,0,0,-1,538,1457,0,0
-679,-433,0,0,0,0,0,0,0,0,0,-1,545,1457,0,0
-672,-433,0,0,0,0,0,0,0,0,0,-1,552,1457,0,0
-665,-433,0,0,0,0,0,0,0,0,0,-1,559,1457,0,0
-658,-433,0,0,0,0,0,0,0,0,0,-1,566,1457,0,0
-651,-433,0,0,0,0,0,0,0,0,0,-1,573,1457,0,0
-644,-433,0,0,0,0,0,0,0,0,0,-1,580,1457,0,0
-637,-433,0,0,0,0,0,0,0,0,0,-1,587,1457,0,0
-630,-433,0,0,0,0,0,0,0,0,0,-1,594,1457,0,0
-623,-433,0,0,0,0,0,0,0,0,0,-1,601,1457,0,0
-616,-433,0,0,0,0,0,0,0,0,0,-1,608,1457,0,0
-609,-433,0,0,0,0,0,0,0,0,0,-1,615,1457,0,0
-602,-433,0,0,0,0,0,0,0,0,0,-1,622,1457,0,0
-595,-433,0,0,0,0,0,0,0,0,0,-1,629,1457,0,0
-588,-433,-10.3756,-0.467041,0,0,0,0,0,0,0,-1,636,1457,-10.3756,0.467081
-581,-433,-8.12201,0.884033,0,0,0,0,0,0,0,-1,643,1457,-8.12204,-0.884056
-574,-433,-5.86847,2.23523,0,0,0,0,0,0,0,-1,650,1457,-5.86844,-2.23519
-567,-433,-5.42255,1.16833,0,0,0,0,0,0,0,-1,657,1457,-5.42254,-1.1683
-560,-433,-6.84027,1.86414,0,0,0,0,0,0,0,-1,664,1457,-6.84026,-1.86412
-553,-433,-5.74017,1.79163,0,0,0,0,0,0,0,-1,671,1457,-5.74015,-1.79166
-546,-433,-6.9668,8.25073,0,0,0,0,0,0,0,-1,678,1457,-6.96679,-8.25074
-539,-433,-7.3136,8.75659,0,0,0,0,0,0,0,-1,685,1457,-7.31362,-8.75659
-532,-433,-11.4861,11.9918,0,0,0,0,0,0,0,-1,692,1457,-11.4861,-11.9918
-525,-433,-12.0023,13.1986,0,0,0,0,0,0,0,-1,699,1457,-12.0023,-13.1986
-518,-433,-11.984,13.9424,0.00285422,0.00209785,0.00254134,0.00504536,-9.32862e-05,0.711534,0.0033951,0.0184472,706,1457,-11.984,-13.9423
-511,-433,-12.0143,14.5884,0.00235198,0.00159039,0.00200196,0.00400903,-6.66699e-05,0.691415,0.00269519,0.0170699,713,1457,-12.0143,-14.5884
-504,-433,-12.0093,15.2089,0.0019018,0.00125159,0.00153848,0.00314915,4.23915e-06,0.681273,0.00209803,0.0136637,720,1457,-12.0093,-15.2088
-497,-433,-12.0279,15.8252,0.00155077,0.00108656,0.00117928,0.00252057,0.000116754,0.68823,0.00164285,0.014111,727,1457,-12.0279,-15.8252
-490,-433,-12.0884,16.4563,0.00134209,0.00112375,0.00097756,0.00221655,0.000249279,0.729791,0.00140202,0.0161167,734,1457,-12.0884,-16.4563
-483,-433,-12.1173,17.1196,0.00126492,0.00136224,0.000914712,0.00222959,0.000397576,0.81197,0.00137319,0.0168233,741,1457,-12.1173,-17.1196
-476,-433,-12.1287,17.7571,0.00133077,0.00179576,0.00103593,0.00262496,0.000501571,0.895785,0.00160906,0.0111319,748,1457,-12.1287,-17.7571
-469,-433,-12.1652,18.3947,0.00154571,0.00241898,0.00130695,0.00336031,0.000604389,0.946613,0.00206839,0.0112062,755,1457,-12.1651,-18.3946
-462,-433,-12.2147,19.0314,0,0,0,0,0,0,0,-1,762,1457,-12.2147,-19.0314
-455,-433,-11.2939,19.3905,0,0,0,0,0,0,0,-1,769,1457,-11.2939,-19.3905
-448,-433,-6.94812,14.5563,0,0,0,0,0,0,0,-1,776,1457,-6.94809,-14.5562
-441,-433,-9.97485,14.0258,0,0,0,0,0,0,0,-1,783,1457,-9.97488,-14.0257
-434,-433,-9.41205,14.2297,0,0,0,0,0,0,0,-1,790,1457,-9.41205,-14.2297
-427,-433,-8.67419,13.6827,0,0,0,0,0,0,0,-1,797,1457,-8.67422,-13.6827
-420,-433,-5.74658,9.49121,0,0,0,0,0,0,0,-1,804,1457,-5.7466,-9.49119
-413,-433,-3.63074,5.5813,0,0,0,0,0,0,0,-1,811,1457,-3.63072,-5.58129
-406,-433,-12.3472,4.69373,0,0,0,0,0,0,0,-1,818,1457,-12.3472,-4.69374
-399,-433,-12.055,2.83594,0,0,0,0,0,0,0,-1,825,1457,-12.055,-2.83594
-392,-433,-12.9772,1.6228,0,0,0,0,0,0,0,-1,832,1457,-12.9772,-1.62282
-385,-433,-13.7999,0.514771,0,0,0,0,0,0,0,-1,839,1457,-13.7999,-0.514788
-378,-433,0,0,0,0,0,0,0,0,0,-1,846,1457,0,0
-371,-433,0,0,0,0,0,0,0,0,0,-1,853,1457,0,0
-364,-433,0,0,0,0,0,0,0,0,0,-1,860,1457,0,0
-357,-433,0,0,0,0,0,0,0,0,0,-1,867,1457,0,0
-350,-433,0,0,0,0,0,0,0,0,0,-1,874,1457,0,0
-343,-433,0,0,0,0,0,0,0,0,0,-1,881,1457,0,0
-336,-433,0,0,0,0,0,0,0,0,0,-1,888,1457,0,0
-329,-433,0,0,0,0,0,0,0,0,0,-1,895,1457,0,0
-322,-433,0,0,0,0,0,0,0,0,0,-1,902,1457,0,0
-315,-433,0,0,0,0,0,0,0,0,0,-1,909,1457,0,0
-308,-433,0,0,0,0,0,0,0,0,0,-1,916,1457,0,0
-301,-433,0,0,0,0,0,0,0,0,0,-1,923,1457,0,0
-294,-433,0,0,0,0,0,0,0,0,0,-1,930,1457,0,0
-287,-433,0,0,0,0,0,0,0,0,0,-1,937,1457,0,0
-280,-433,0,0,0,0,0,0,0,0,0,-1,944,1457,0,0
-273,-433,0,0,0,0,0,0,0,0,0,-1,951,1457,0,0
-266,-433,0,0,0,0,0,0,0,0,0,-1,958,1457,0,0
-259,-433,0,0,0,0,0,0,0,0,0,-1,965,1457,0,0
-252,-433,0,0,0,0,0,0,0,0,0,-1,972,1457,0,0
-245,-433,0,0,0,0,0,0,0,0,0,-1,979,1457,0,0
-238,-433,0,0,0,0,0,0,0,0,0,-1,986,1457,0,0
-231,-433,0,0,0,0,0,0,0,0,0,-1,993,1457,0,0
-224,-433,0,0,0,0,0,0,0,0,0,-1,1000,1457,0,0
-217,-433,0,0,0,0,0,0,0,0,0,-1,1007,1457,0,0
-210,-433,0,0,0,0,0,0,0,0,0,-1,1014,1457,0,0
-203,-433,0,0,0,0,0,0,0,0,0,-1,1021,1457,0,0
-196,-433,0,0,0,0,0,0,0,0,0,-1,1028,1457,0,0
-189,-433,0,0,0,0,0,0,0,0,0,-1,1035,1457,0,0
-182,-433,0,0,0,0,0,0,0,0,0,-1,1042,1457,0,0
-175,-433,0,0,0,0,0,0,0,0,0,-1,1049,1457,0,0
-168,-433,0,0,0,0,0,0,0,0,0,-1,1056,1457,0,0
-161,-433,0,0,0,0,0,0,0,0,0,-1,1063,1457,0,0
-154,-433,0,0,0,0,0,0,0,0,0,-1,1070,1457,0,0
-147,-433,0,0,0,0,0,0,0,0,0,-1,1077,1457,0,0
-140,-433,0,0,0,0,0,0,0,0,0,-1,1084,1457,0,0
-133,-433,0,0,0,0,0,0,0,0,0,-1,1091,1457,0,0
-126,-433,0,0,0,0,0,0,0,0,0,-1,1098,1457,0,0
-119,-433,0,0,0,0,0,0,0,0,0,-1,1105,1457,0,0
-112,-433,0,0,0,0,0,0,0,0,0,-1,1112,1457,0,0
-105,-433,0,0,0,0,0,0,0,0,0,-1,1119,1457,0,0
-98,-433,0,0,0,0,0,0,0,0,0,-1,1126,1457,0,0
-91,-433,0,0,0,0,0,0,0,0,0,-1,1133,1457,0,0
-84,-433,0,0,0,0,0,0,0,0,0,-1,1140,1457,0,0
-77,-433,0,0,0,0,0,0,0,0,0,-1,1147,1457,0,0
-70,-433,0,0,0,0,0,0,0,0,0,-1,1154,1457,0,0
-63,-433,0,0,0,0,0,0,0,0,0,-1,1161,1457,0,0
-56,-433,0,0,0,0,0,0,0,0,0,-1,1168,1457,0,0
-49,-433,0,0,0,0,0,0,0,0,0,-1,1175,1457,0,0
-42,-433,0,0,0,0,0,0,0,0,0,-1,1182,1457,0,0
-35,-433,0,0,0,0,0,0,0,0,0,-1,1189,1457,0,0
-28,-433,0,0,0,0,0,0,0,0,0,-1,1196,1457,0,0
-21,-433,0,0,0,0,0,0,0,0,0,-1,1203,1457,0,0
-14,-433,0,0,0,0,0,0,0,0,0,-1,1210,1457,0,0
-7,-433,0,0,0,0,0,0,0,0,0,-1,1217,1457,0,0
0,-433,0,0,0,0,0,0,0,0,0,-1,1224,1457,0,0
7,-433,0,0,0,0,0,0,0,0,0,-1,1231,1457,0,0
14,-433,0,0,0,0,0,0,0,0,0,-1,1238,1457,0,0
21,-433,0,0,0,0,0,0,0,0,0,-1,1245,1457,0,0
28,-433,0,0,0,0,0,0,0,0,0,-1,1252,1457,0,0
35,-433,0,0,0,0,0,0,0,0,0,-1,1259,1457,0,0
42,-433,0,0,0,0,0,0,0,0,0,-1,1266,1457,0,0
49,-433,0,0,0,0,0,0,0,0,0,-1,1273,1457,0,0
56,-433,0,0,0,0,0,0,0,0,0,-1,1280,1457,0,0
63,-433,0,0,0,0,0,0,0,0,0,-1,1287,1457,0,0
70,-433,0,0,0,0,0,0,0,0,0,-1,1294,1457,0,0
77,-433,0,0,0,0,0,0,0,0,0,-1,1301,1457,0,0
84,-433,0,0,0,0,0,0,0,0,0,-1,1308,1457,0,0
91,-433,0,0,0,0,0,0,0,0,0,-1,1315,1457,0,0
98,-433,0,0,0,0,0,0,0,0,0,-1,1322,1457,0,0
105,-433,0,0,0,0,0,0,0,0,0,-1,1329,1457,0,0
112,-433,0,0,0,0,0,0,0,0,0,-1,1336,1457,0,0
119,-433,0,0,0,0,0,0,0,0,0,-1,1343,1457,0,0
126,-433,0,0,0,0,0,0,0,0,0,-1,1350,1457,0,0
133,-433,0,0,0,0,0,0,0,0,0,-1,1357,1457,0,0
140,-433,0,0,0,0,0,0,0,0,0,-1,1364,1457,0,0
147,-433,0,0,0,0,0,0,0,0,0,-1,1371,1457,0,0
154,-433,0,0,0,0,0,0,0,0,0,-1,1378,1457,0,0
161,-433,0,0,0,0,0,0,0,0,0,-1,1385,1457,0,0
168,-433,0,0,0,0,0,0,0,0,0,-1,1392,1457,0,0
175,-433,0,0,0,0,0,0,0,0,0,-1,1399,1457,0,0
182,-433,0,0,0,0,0,0,0,0,0,-1,1406,1457,0,0
189,-433,0,0,0,0,0,0,0,0,0,-1,1413,1457,0,0
196,-433,0,0,0,0,0,0,0,0,0,-1,1420,1457,0,0
203,-433,0,0,0,0,0,0,0,0,0,-1,1427,1457,0,0
210,-433,0,0,0,0,0,0,0,0,0,-1,1434,1457,0,0
217,-433,0,0,0,0,0,0,0,0,0,-1,1441,1457,0,0
224,-433,0,0,0,0,0,0,0,0,0,-1,1448,1457,0,0
231,-433,0,0,0,0,0,0,0,0,0,-1,1455,1457,0,0
238,-433,0,0,0,0,0,0,0,0,0,-1,1462,1457,0,0
245,-433,0,0,0,0,0,0,0,0,0,-1,1469,1457,0,0
252,-433,0,0,0,0,0,0,0,0,0,-1,1476,1457,0,0
259,-433,0,0,0,0,0,0,0,0,0,-1,1483,1457,0,0
266,-433,0,0,0,0,0,0,0,0,0,-1,1490,1457,0,0
273,-433,0,0,0,0,0,0,0,0,0,-1,1497,1457,0,0
280,-433,0,0,0,0,0,0,0,0,0,-1,1504,1457,0,0
287,-433,0,0,0,0,0,0,0,0,0,-1,1511,1457,0,0
294,-433,0,0,0,0,0,0,0,0,0,-1,1518,1457,0,0
301,-433,0,0,0,0,0,0,0,0,0,-1,1525,1457,0,0
308,-433,0,0,0,0,0,0,0,0,0,-1,1532,1457,0,0
315,-433,0,0,0,0,0,0,0,0,0,-1,1539,1457,0,0
322,-433,0,0,0,0,0,0,0,0,0,-1,1546,1457,0,0
329,-433,0,0,0,0,0,0,0,0,0,-1,1553,1457,0,0
336,-433,0,0,0,0,0,0,0,0,0,-1,1560,1457,0,0
343,-433,0,0,0,0,0,0,0,0,0,-1,1567,1457,0,0
350,-433,0,0,0,0,0,0,0,0,0,-1,1574,1457,0,0
357,-433,0,0,0,0,0,0,0,0,0,-1,1581,1457,0,0
364,-433,0,0,0,0,0,0,0,0,0,-1,1588,1457,0,0
371,-433,0,0,0,0,0,0,0,0,0,-1,1595,1457,0,0
378,-433,0,0,0,0,0,0,0,0,0,-1,1602,1457,0,0
385,-433,0,0,0,0,0,0,0,0,0,-1,1609,1457,0,0
392,-433,0,0,0,0,0,0,0,0,0,-1,1616,1457,0,0
399,-433,0,0,0,0,0,0,0,0,0,-1,1623,1457,0,0
406,-433,0,0,0,0,0,0,0,0,0,-1,1630,1457,0,0
413,-433,0,0,0,0,0,0,0,0,0,-1,1637,1457,0,0
420,-433,0,0,0,0,0,0,0,0,0,-1,1644,1457,0,0
427,-433,0,0,0,0,0,0,0,0,0,-1,1651,1457,0,0
434,-433,0,0,0,0,0,0,0,0,0,-1,1658,1457,0,0
441,-433,0,0,0,0,0,0,0,0,0,-1,1665,1457,0,0
448,-433,0,0,0,0,0,0,0,0,0,-1,1672,1457,0,0
455,-433,0,0,0,0,0,0,0,0,0,-1,1679,1457,0,0
462,-433,0,0,0,0,0,0,0,0,0,-1,1686,1457,0,0
469,-433,0,0,0,0,0,0,0,0,0,-1,1693,1457,0,0
476,-433,0,0,0,0,0,0,0,0,0,-1,1700,1457,0,0
483,-433,0,0,0,0,0,0,0,0,0,-1,1707,1457,0,0
490,-433,0,0,0,0,0,0,0,0,0,-1,1714,1457,0,0
497,-433,0,0,0,0,0,0,0,0,0,-1,1721,1457,0,0
504,-433,19.9058,3.03662,0,0,0,0,0,0,0,-1,1728,1457,19.9058,-3.03656
511,-433,19.0145,3.07837,0,0,0,0,0,0,0,-1,1735,1457,19.0146,-3.07834
518,-433,18.071,3.06433,0,0,0,0,0,0,0,-1,1742,1457,18.071,-3.06432
525,-433,17.2048,3.37085,0,0,0,0,0,0,0,-1,1749,1457,17.2049,-3.37083
532,-433,16.5637,3.36646,0,0,0,0,0,0,0,-1,1756,1457,16.5637,-3.36643
539,-433,15.9193,3.30396,0,0,0,0,0,0,0,-1,1763,1457,15.9193,-3.30394
546,-433,23.1903,4.81775,0,0,0,0,0,0,0,-1,1770,1457,23.1903,-4.81775
553,-433,13.9674,11.5781,0,0,0,0,0,0,0,-1,1777,1457,13.9674,-11.5781
560,-433,13.9855,11.7341,0,0,0,0,0,0,0,-1,1784,1457,13.9855,-11.7341
567,-433,13.9264,11.3364,0,0,0,0,0,0,0,-1,1791,1457,13.9263,-11.3364
574,-433,15.5305,12.3673,0,0,0,0,0,0,0,-1,1798,1457,15.5305,-12.3673
581,-433,16.6405,12.1898,0,0,0,0,0,0,0,-1,1805,1457,16.6405,-12.1898
588,-433,26.4386,19.7478,0,0,0,0,0,0,0,-1,1812,1457,26.4386,-19.7478
595,-433,28.433,20.4164,0,0,0,0,0,0,0,-1,1819,1457,28.433,-20.4164
602,-433,28.4103,19.7515,0.0035404,0.00187964,-0.00210708,0.00497482,0.00044522,-0.597697,0.00317855,0.0264489,1826,1457,28.4103,-19.7515
609,-433,28.4534,19.1052,0.00280709,0.00124397,-0.00150898,0.0037249,0.000326157,-0.546449,0.002382,0.0171672,1833,1457,28.4534,-19.1052
616,-433,28.4358,18.527,0.00224818,0.000792824,-0.00106325,0.00280892,0.000232085,-0.485312,0.00180024,0.0153524,1840,1457,28.4358,-18.527
623,-433,28.4031,17.9243,0.00202316,0.000519061,-0.000778336,0.00235341,0.000188804,-0.401287,0.00150995,0.0115722,1847,1457,28.4031,-17.9243
630,-433,28.3822,17.3425,0.00207947,0.000295337,-0.000641181,0.00228599,8.88155e-05,-0.311603,0.00149527,0.0142745,1854,1457,28.3822,-17.3426
637,-433,28.3485,16.7529,0.00227525,0.000278567,-0.000600052,0.00244171,0.000112114,-0.270595,0.00159175,0.0153298,1861,1457,28.3485,-16.753
644,-433,28.3015,16.1633,0.00272417,0.000324791,-0.000605581,0.00286835,0.000180612,-0.233733,0.00185496,0.0168166,1868,1457,28.3015,-16.1634
651,-433,28.2863,15.5342,0.00337586,0.00055402,-0.00076999,0.00357229,0.000357588,-0.249782,0.00227173,0.0131089,1875,1457,28.2862,-15.5342
658,-433,28.2378,14.8818,0.00432391,0.000821032,-0.00100294,0.00459075,0.000554197,-0.260029,0.00289351,0.0330151,1882,1457,28.2378,-14.8819
665,-433,28.5027,14.1115,0,0,0,0,0,0,0,-1,1889,1457,28.5027,-14.1114
672,-433,18.115,8.7207,0,0,0,0,0,0,0,-1,1896,1457,18.115,-8.72074
679,-433,17.2969,9.6355,0,0,0,0,0,0,0,-1,1903,1457,17.2968,-9.63548
686,-433,13.6356,8.61694,0,0,0,0,0,0,0,-1,1910,1457,13.6356,-8.61694
693,-433,13.4081,8.39624,0,0,0,0,0,0,0,-1,1917,1457,13.4081,-8.39624
700,-433,7.16809,-1.5166,0,0,0,0,0,0,0,-1,1924,1457,7.16806,1.51656
707,-433,8.68359,-2.82202,0,0,0,0,0,0,0,-1,1931,1457,8.68359,2.82197
714,-433,0,0,0,0,0,0,0,0,0,-1,1938,1457,0,0
721,-433,0,0,0,0,0,0,0,0,0,-1,1945,1457,0,0
728,-433,0,0,0,0,0,0,0,0,0,-1,1952,1457,0,0
735,-433,0,0,0,0,0,0,0,0,0,-1,1959,1457,0,0
742,-433,0,0,0,0,0,0,0,0,0,-1,1966,1457,0,0
749,-433,0,0,0,0,0,0,0,0,0,-1,1973,1457,0,0
756,-433,0,0,0,0,0,0,0,0,0,-1,1980,1457,0,0
763,-433,0,0,0,0,0,0,0,0,0,-1,1987,1457,0,0
770,-433,0,0,0,0,0,0,0,0,0,-1,1994,1457,0,0
777,-433,0,0,0,0,0,0,0,0,0,-1,2001,1457,0,0
784,-433,0,0,0,0,0,0,0,0,0,-1,2008,1457,0,0
791,-433,0,0,0,0,0,0,0,0,0,-1,2015,1457,0,0
798,-433,0,0,0,0,0,0,0,0,0,-1,2022,1457,0,0
805,-433,0,0,0,0,0,0,0,0,0,-1,2029,1457,0,0
812,-433,0,0,0,0,0,0,0,0,0,-1,2036,1457,0,0
-700,-440,0,0,0,0,0,0,0,0,0,-1,524,1464,0,0
-693,-440,0,0,0,0,0,0,0,0,0,-1,531,1464,0,0
-686,-440,0,0,0,0,0,0,0,0,0,-1,538,1464,0,0
-679,-440,0,0,0,0,0,0,0,0,0,-1,545,1464,0,0
-672,-440,0,0,0,0,0,0,0,0,0,-1,552,1464,0,0
-665,-440,0,0,0,0,0,0,0,0,0,-1,559,1464,0,0
-658,-440,0,0,0,0,0,0,0,0,0,-1,566,1464,0,0
-651,-440,0,0,0,0,0,0,0,0,0,-1,573,1464,0,0
-644,-440,0,0,0,0,0,0,0,0,0,-1,580,1464,0,0
-637,-440,0,0,0,0,0,0,0,0,0,-1,587,1464,0,0
-630,-440,0,0,0,0,0,0,0,0,0,-1,594,1464,0,0
-623,-440,0,0,0,0,0,0,0,0,0,-1,601,1464,0,0
-616,-440,0,0,0,0,0,0,0,0,0,-1,608,1464,0,0
-609,-440,0,0,0,0,0,0,0,0,0,-1,615,1464,0,0
-602,-440,0,0,0,0,0,0,0,0,0,-1,622,1464,0,0
-595,-440,0,0,0,0,0,0,0,0,0,-1,629,1464,0,0
-588,-440,0,0,0,0,0,0,0,0,0,-1,636,1464,0,0
-581,-440,-8.97278,0.254517,0,0,0,0,0,0,0,-1,643,1464,-8.97276,-0.254526
-574,-440,-7.00818,-0.918579,0,0,0,0,0,0,0,-1,650,1464,-7.00817,0.918538
-567,-440,-6.12152,-0.0766602,0,0,0,0,0,0,0,-1,657,1464,-6.12151,0.0767097
-560,-440,-5.46747,0.82251,0,0,0,0,0,0,0,-1,664,1464,-5.46748,-0.822551
-553,-440,-6.84729,0.0831299,0,0,0,0,0,0,0,-1,671,1464,-6.84732,-0.083136
-546,-440,-5.63446,-0.153198,0,0,0,0,0,0,0,-1,678,1464,-5.63447,0.153147
-539,-440,-6.80017,8.58252,0,0,0,0,0,0,0,-1,685,1464,-6.80015,-8.58257
-532,-440,-9.69647,11.3262,0,0,0,0,0,0,0,-1,692,1464,-9.69649,-11.3262
-525,-440,-11.4429,13.1642,0,0,0,0,0,0,0,-1,699,1464,-11.4428,-13.1642
-518,-440,-11.3908,13.8853,0.00344392,0.00232772,0.00322453,0.00615829,-0.000386655,0.699707,0.00424029,0.0253775,706,1464,-11.3908,-13.8852
-511,-440,-11.3493,14.5931,0.00282459,0.00172091,0.00252944,0.00486168,-0.00031618,0.677997,0.00335149,0.0169131,713,1464,-11.3493,-14.5931
-504,-440,-11.3597,15.251,0.00225062,0.00128224,0.00191584,0.00374251,-0.000209652,0.661625,0.00256774,0.0203675,720,1464,-11.3597,-15.251
-497,-440,-11.413,15.8992,0.00177918,0.00102689,0.00142352,0.00287541,-6.93413e-05,0.656233,0.00194047,0.0229346,727,1464,-11.413,-15.8991
-490,-440,-11.4295,16.4373,0.00145137,0.0009819,0.0010964,0.00233788,9.53829e-05,0.679943,0.00152779,0.0235192,734,1464,-11.4295,-16.4372
-483,-440,-11.4778,17.1086,0.00127261,0.00114416,0.000926823,0.00213743,0.000279339,0.750804,0.00134157,0.0207266,741,1464,-11.4779,-17.1086
-476,-440,-11.507,17.7583,0.00123996,0.00152036,0.000967552,0.00235782,0.000402507,0.857348,0.00145637,0.0135307,748,1464,-11.507,-17.7583
-469,-440,-11.54,18.4012,0.00133841,0.00211041,0.00116557,0.00295224,0.000496586,0.945299,0.00182529,0.0130866,755,1464,-11.54,-18.4012
-462,-440,-11.6072,19.0233,0.00164713,0.00296918,0.00161337,0.00405169,0.00056462,0.979825,0.00253398,0.0171427,762,1464,-11.6072,-19.0234
-455,-440,-11.5542,19.6903,0,0,0,0,0,0,0,-1,769,1464,-11.5542,-19.6903
-448,-440,-10.3802,20.1241,0,0,0,0,0,0,0,-1,776,1464,-10.3802,-20.1242
-441,-440,-7.28583,14.7465,0,0,0,0,0,0,0,-1,783,1464,-7.28584,-14.7464
-434,-440,-8.33636,14.5024,0,0,0,0,0,0,0,-1,790,1464,-8.33638,-14.5025
-427,-440,-8.28094,14.2512,0,0,0,0,0,0,0,-1,797,1464,-8.28094,-14.2512
-420,-440,-6.86603,8.09216,0,0,0,0,0,0,0,-1,804,1464,-6.86602,-8.09222
-413,-440,-3.46796,5.72278,0,0,0,0,0,0,0,-1,811,1464,-3.46797,-5.72276
-406,-440,-5.2887,5.20264,0,0,0,0,0,0,0,-1,818,1464,-5.2887,-5.20261
-399,-440,-12.7318,3.94421,0,0,0,0,0,0,0,-1,825,1464,-12.7318,-3.94419
-392,-440,-13.5565,2.51855,0,0,0,0,0,0,0,-1,832,1464,-13.5565,-2.51861
-385,-440,-14.6741,1.39795,0,0,0,0,0,0,0,-1,839,1464,-14.6741,-1.39801
-378,-440,-15.8063,0.293457,0,0,0,0,0,0,0,-1,846,1464,-15.8063,-0.293412
-371,-440,0,0,0,0,0,0,0,0,0,-1,853,1464,0,0
-364,-440,0,0,0,0,0,0,0,0,0,-1,860,1464,0,0
-357,-440,0,0,0,0,0,0,0,0,0,-1,867,1464,0,0
-350,-440,0,0,0,0,0,0,0,0,0,-1,874,1464,0,0
-343,-440,0,0,0,0,0,0,0,0,0,-1,881,1464,0,0
-336,-440,0,0,0,0,0,0,0,0,0,-1,888,1464,0,0
-329,-440,0,0,0,0,0,0,0,0,0,-1,895,1464,0,0
-322,-440,0,0,0,0,0,0,0,0,0,-1,902,1464,0,0
-315,-440,0,0,0,0,0,0,0,0,0,-1,909,1464,0,0
-308,-440,0,0,0,0,0,0,0,0,0,-1,916,1464,0,0
-301,-440,0,0,0,0,0,0,0,0,0,-1,923,1464,0,0
-294,-440,0,0,0,0,0,0,0,0,0,-1,930,1464,0,0
-287,-440,0,0,0,0,0,0,0,0,0,-1,937,1464,0,0
-280,-440,0,0,0,0,0,0,0,0,0,-1,944,1464,0,0
-273,-440,0,0,0,0,0,0,0,0,0,-1,951,1464,0,0
-266,-440,0,0,0,0,0,0,0,0,0,-1,958,1464,0,0
-259,-440,0,0,0,0,0,0,0,0,0,-1,965,1464,0,0
-252,-440,0,0,0,0,0,0,0,0,0,-1,972,1464,0,0
-245,-440,0,0,0,0,0,0,0,0,0,-1,979,1464,0,0
-238,-440,0,0,0,0,0,0,0,0,0,-1,986,1464,0,0
-231,-440,0,0,0,0,0,0,0,0,0,-1,993,1464,0,0
-224,-440,0,0,0,0,0,0,0,0,0,-1,1000,1464,0,0
-217,-440,0,0,0,0,0,0,0,0,0,-1,1007,1464,0,0
-210,-440,0,0,0,0,0,0,0,0,0,-1,1014,1464,0,0
-203,-440,0,0,0,0,0,0,0,0,0,-1,1021,1464,0,0
-196,-440,0,0,0,0,0,0,0,0,0,-1,1028,1464,0,0
-189,-440,0,0,0,0,0,0,0,0,0,-1,1035,1464,0,0
-182,-440,0,0,0,0,0,0,0,0,0,-1,1042,1464,0,0
-175,-440,0,0,0,0,0,0,0,0,0,-1,1049,1464,0,0
-168,-440,0,0,0,0,0,0,0,0,0,-1,1056,1464,0,0
-161,-440,0,0,0,0,0,0,0,0,0,-1,1063,1464,0,0
-154,-440,0,0,0,0,0,0,0,0,0,-1,1070,1464,0,0
-147,-440,0,0,0,0,0,0,0,0,0,-1,1077,1464,0,0
-140,-440,0,0,0,0,0,0,0,0,0,-1,1084,1464,0,0
-133,-440,0,0,0,0,0,0,0,0,0,-1,1091,1464,0,0
-126,-440,0,0,0,0,0,0,0,0,0,-1,1098,1464,0,0
-119,-440,0,0,0,0,0,0,0,0,0,-1,1105,1464,0,0
-112,-440,0,0,0,0,0,0,0,0,0,-1,1112,1464,0,0
-105,-440,0,0,0,0,0,0,0,0,0,-1,1119,1464,0,0
-98,-440,0,0,0,0,0,0,0,0,0,-1,1126,1464,0,0
-91,-440,0,0,0,0,0,0,0,0,0,-1,1133,1464,0,0
-84,-440,0,0,0,0,0,0,0,0,0,-1,1140,1464,0,0
-77,-440,0,0,0,0,0,0,0,0,0,-1,1147,1464,0,0
-70,-440,0,0,0,0,0,0,0,0,0,-1,1154,1464,0,0
-63,-440,0,0,0,0,0,0,0,0,0,-1,1161,1464,0,0
-56,-440,0,0,0,0,0,0,0,0,0,-1,1168,1464,0,0
-49,-440,0,0,0,0,0,0,0,0,0,-1,1175,1464,0,0
-42,-440,0,0,0,0,0,0,0,0,0,-1,1182,1464,0,0
-35,-440,0,0,0,0,0,0,0,0,0,-1,1189,1464,0,0
-28,-440,0,0,0,0,0,0,0,0,0,-1,1196,1464,0,0
-21,-440,0,0,0,0,0,0,0,0,0,-1,1203,1464,0,0
-14,-440,0,0,0,0,0,0,0,0,0,-1,1210,1464,0,0
-7,-440,0,0,0,0,0,0,0,0,0,-1,1217,1464,0,0
0,-440,0,0,0,0,0,0,0,0,0,-1,1224,1464,0,0
7,-440,0,0,0,0,0,0,0,0,0,-1,1231,1464,0,0
14,-440,0,0,0,0,0,0,0,0,0,-1,1238,1464,0,0
21,-440,0,0,0,0,0,0,0,0,0,-1,1245,1464,0,0
28,-440,0,0,0,0,0,0,0,0,0,-1,1252,1464,0,0
35,-440,0,0,0,0,0,0,0,0,0,-1,1259,1464,0,0
42,-440,0,0,0,0,0,0,0,0,0,-1,1266,1464,0,0
49,-440,0,0,0,0,0,0,0,0,0,-1,1273,1464,0,0
56,-440,0,0,0,0,0,0,0,0,0,-1,1280,1464,0,0
63,-440,0,0,0,0,0,0,0,0,0,-1,1287,1464,0,0
70,-440,0,0,0,0,0,0,0,0,0,-1,1294,1464,0,0
77,-440,0,0,0,0,0,0,0,0,0,-1,1301,1464,0,0
84,-440,0,0,0,0,0,0,0,0,0,-1,1308,1464,0,0
91,-440,0,0,0,0,0,0,0,0,0,-1,1315,1464,0,0
98,-440,0,0,0,0,0,0,0,0,0,-1,1322,1464,0,0
105,-440,0,0,0,0,0,0,0,0,0,-1,1329,1464,0,0
112,-440,0,0,0,0,0,0,0,0,0,-1,1336,1464,0,0
119,-440,0,0,0,0,0,0,0,0,0,-1,1343,1464,0,0
126,-440,0,0,0,0,0,0,0,0,0,-1,1350,1464,0,0
133,-440,0,0,0,0,0,0,0,0,0,-1,1357,1464,0,0
140,-440,0,0,0,0,0,0,0,0,0,-1,1364,1464,0,0
147,-440,0,0,0,0,0,0,0,0,0,-1,1371,1464,0,0
154,-440,0,0,0,0,0,0,0,0,0,-1,1378,1464,0,0
161,-440,0,0,0,0,0,0,0,0,0,-1,1385,1464,0,0
168,-440,0,0,0,0,0,0,0,0,0,-1,1392,1464,0,0
175,-440,0,0,0,0,0,0,0,0,0,-1,1399,1464,0,0
182,-440,0,0,0,0,0,0,0,0,0,-1,1406,1464,0,0
189,-440,0,0,0,0,0,0,0,0,0,-1,1413,1464,0,0
196,-440,0,0,0,0,0,0,0,0,0,-1,1420,1464,0,0
203,-440,0,0,0,0,0,0,0,0,0,-1,1427,1464,0,0
210,-440,0,0,0,0,0,0,0,0,0,-1,1434,1464,0,0
217,-440,0,0,0,0,0,0,0,0,0,-1,1441,1464,0,0
224,-440,0,0,0,0,0,0,0,0,0,-1,1448,1464,0,0
231,-440,0,0,0,0,0,0,0,0,0,-1,1455,1464,0,0
238,-440,0,0,0,0,0,0,0,0,0,-1,1462,1464,0,0
245,-440,0,0,0,0,0,0,0,0,0,-1,1469,1464,0,0
252,-440,0,0,0,0,0,0,0,0,0,-1,1476,1464,0,0
259,-440,0,0,0,0,0,0,0,0,0,-1,1483,1464,0,0
266,-440,0,0,0,0,0,0,0,0,0,-1,1490,1464,0,0
273,-440,0,0,0,0,0,0,0,0,0,-1,1497,1464,0,0
280,-440,0,0,0,0,0,0,0,0,0,-1,1504,1464,0,0
287,-440,0,0,0,0,0,0,0,0,0,-1,1511,1464,0,0
294,-440,0,0,0,0,0,0,0,0,0,-1,1518,1464,0,0
301,-440,0,0,0,0,0,0,0,0,0,-1,1525,1464,0,0
308,-440,0,0,0,0,0,0,0,0,0,-1,1532,1464,0,0
315,-440,0,0,0,0,0,0,0,0,0,-1,1539,1464,0,0
322,-440,0,0,0,0,0,0,0,0,0,-1,1546,1464,0,0
329,-440,0,0,0,0,0,0,0,0,0,-1,1553,1464,0,0
336,-440,0,0,0,0,0,0,0,0,0,-1,1560,1464,0,0
343,-440,0,0,0,0,0,0,0,0,0,-1,1567,1464,0,0
350,-440,0,0,0,0,0,0,0,0,0,-1,1574,1464,0,0
357,-440,0,0,0,0,0,0,0,0,0,-1,1581,1464,0,0
364,-440,0,0,0,0,0,0,0,0,0,-1,1588,1464,0,0
371,-440,0,0,0,0,0,0,0,0,0,-1,1595,1464,0,0
378,-440,0,0,0,0,0,0,0,0,0,-1,1602,1464,0,0
385,-440,0,0,0,0,0,0,0,0,0,-1,1609,1464,0,0
392,-440,0,0,0,0,0,0,0,0,0,-1,1616,1464,0,0
399,-440,0,0,0,0,0,0,0,0,0,-1,1623,1464,0,0
406,-440,0,0,0,0,0,0,0,0,0,-1,1630,1464,0,0
413,-440,0,0,0,0,0,0,0,0,0,-1,1637,1464,0,0
420,-440,0,0,0,0,0,0,0,0,0,-1,1644,1464,0,0
427,-440,0,0,0,0,0,0,0,0,0,-1,1651,1464,0,0
434,-440,0,0,0,0,0,0,0,0,0,-1,1658,1464,0,0
441,-440,0,0,0,0,0,0,0,0,0,-1,1665,1464,0,0
448,-440,0,0,0,0,0,0,0,0,0,-1,1672,1464,0,0
455,-440,0,0,0,0,0,0,0,0,0,-1,1679,1464,0,0
462,-440,0,0,0,0,0,0,0,0,0,-1,1686,1464,0,0
469,-440,0,0,0,0,0,0,0,0,0,-1,1693,1464,0,0
476,-440,0,0,0,0,0,0,0,0,0,-1,1700,1464,0,0
483,-440,0,0,0,0,0,0,0,0,0,-1,1707,1464,0,0
490,-440,0,0,0,0,0,0,0,0,0,-1,1714,1464,0,0
497,-440,16.965,-0.528442,0,0,0,0,0,0,0,-1,1721,1464,16.965,0.528492
504,-440,15.8052,0.670166,0,0,0,0,0,0,0,-1,1728,1464,15.8052,-0.670145
511,-440,17.5754,2.77832,0,0,0,0,0,0,0,-1,1735,1464,17.5754,-2.77826
518,-440,16.9017,3.07861,0,0,0,0,0,0,0,-1,1742,1464,16.9018,-3.07859
525,-440,18.4495,12.0867,0,0,0,0,0,0,0,-1,1749,1464,18.4495,-12.0867
532,-440,15.4319,3.64392,0,0,0,0,0,0,0,-1,1756,1464,15.4318,-3.64391
539,-440,14.8214,3.41321,0,0,0,0,0,0,0,-1,1763,1464,14.8214,-3.4132
546,-440,14.8651,10.7683,0,0,0,0,0,0,0,-1,1770,1464,14.8651,-10.7683
553,-440,15.1213,11.4121,0,0,0,0,0,0,0,-1,1777,1464,15.1213,-11.4121
560,-440,17.4325,12.5394,0,0,0,0,0,0,0,-1,1784,1464,17.4325,-12.5394
567,-440,16.9025,12.4249,0,0,0,0,0,0,0,-1,1791,1464,16.9025,-12.425
574,-440,19.2841,14.8679,0,0,0,0,0,0,0,-1,1798,1464,19.2841,-14.868
581,-440,26.4432,21.3477,0,0,0,0,0,0,0,-1,1805,1464,26.4432,-21.3476
588,-440,27.5531,21.1094,0,0,0,0,0,0,0,-1,1812,1464,27.5531,-21.1093
595,-440,27.7798,20.4325,0.00416322,0.00242046,-0.00253447,0.00597193,0.000611762,-0.619823,0.00379384,0.0304331,1819,1464,27.7798,-20.4325
602,-440,27.8611,19.7356,0.00330743,0.0016955,-0.00188081,0.00454769,0.000455237,-0.582973,0.00289202,0.0188401,1826,1464,27.8611,-19.7356
609,-440,27.8446,19.1403,0.00269532,0.00112807,-0.00136852,0.00348869,0.0003347,-0.525381,0.00222264,0.0166102,1833,1464,27.8446,-19.1403
616,-440,27.8047,18.5688,0.00225529,0.000751567,-0.00100085,0.00275523,0.000251632,-0.463256,0.00175895,0.019021,1840,1464,27.8046,-18.5689
623,-440,27.8053,17.9623,0.00214708,0.000511526,-0.000763381,0.00244801,0.000210594,-0.375504,0.00156654,0.0147165,1847,1464,27.8053,-17.9623
630,-440,27.7656,17.3428,0.00230516,0.000314777,-0.000656034,0.00250194,0.000118001,-0.291409,0.00163005,0.0117853,1854,1464,27.7657,-17.3427
637,-440,27.7435,16.7875,0.00258757,0.000315148,-0.000639259,0.00275506,0.000147662,-0.256242,0.00178951,0.0161097,1861,1464,27.7435,-16.7875
644,-440,27.7313,16.1978,0.00311362,0.000430688,-0.000689072,0.00328025,0.000264059,-0.237262,0.00210435,0.0157505,1868,1464,27.7313,-16.1978
651,-440,27.7471,15.5305,0.00388422,0.000764886,-0.00093537,0.0041432,0.000505905,-0.270109,0.00260989,0.0204229,1875,1464,27.747,-15.5305
658,-440,27.8397,14.7935,0,0,0,0,0,0,0,-1,1882,1464,27.8398,-14.7934
665,-440,24.2067,12.5813,0,0,0,0,0,0,0,-1,1889,1464,24.2067,-12.5813
672,-440,18.9385,9.6394,0,0,0,0,0,0,0,-1,1896,1464,18.9384,-9.63939
679,-440,16.9508,10.2336,0,0,0,0,0,0,0,-1,1903,1464,16.9508,-10.2337
686,-440,15.2556,8.44177,0,0,0,0,0,0,0,-1,1910,1464,15.2556,-8.44177
693,-440,9.88635,2.89795,0,0,0,0,0,0,0,-1,1917,1464,9.88638,-2.89798
700,-440,7.07825,-2.62061,0,0,0,0,0,0,0,-1,1924,1464,7.07829,2.62057
707,-440,0,0,0,0,0,0,0,0,0,-1,1931,1464,0,0
714,-440,0,0,0,0,0,0,0,0,0,-1,1938,1464,0,0
721,-440,0,0,0,0,0,0,0,0,0,-1,1945,1464,0,0
728,-440,0,0,0,0,0,0,0,0,0,-1,1952,1464,0,0
735,-440,0,0,0,0,0,0,0,0,0,-1,1959,1464,0,0
742,-440,0,0,0,0,0,0,0,0,0,-1,1966,1464,0,0
749,-440,0,0,0,0,0,0,0,0,0,-1,1973,1464,0,0
756,-440,0,0,0,0,0,0,0,0,0,-1,1980,1464,0,0
763,-440,0,0,0,0,0,0,0,0,0,-1,1987,1464,0,0
770,-440,0,0,0,0,0,0,0,0,0,-1,1994,1464,0,0
777,-440,0,0,0,0,0,0,0,0,0,-1,2001,1464,0,0
784,-440,0,0,0,0,0,0,0,0,0,-1,2008,1464,0,0
791,-440,0,0,0,0,0,0,0,0,0,-1,2015,1464,0,0
798,-440,0,0,0,0,0,0,0,0,0,-1,2022,1464,0,0
805,-440,0,0,0,0,0,0,0,0,0,-1,2029,1464,0,0
812,-440,0,0,0,0,0,0,0,0,0,-1,2036,1464,0,0
-700,-447,0,0,0,0,0,0,0,0,0,-1,524,1471,0,0
-693,-447,0,0,0,0,0,0,0,0,0,-1,531,1471,0,0
-686,-447,0,0,0,0,0,0,0,0,0,-1,538,1471,0,0
-679,-447,0,0,0,0,0,0,0,0,0,-1,545,1471,0,0
-672,-447,0,0,0,0,0,0,0,0,0,-1,552,1471,0,0
-665,-447,0,0,0,0,0,0,0,0,0,-1,559,1471,0,0
-658,-447,0,0,0,0,0,0,0,0,0,-1,566,1471,0,0
-651,-447,0,0,0,0,0,0,0,0,0,-1,573,1471,0,0
-644,-447,0,0,0,0,0,0,0,0,0,-1,580,1471,0,0
-637,-447,0,0,0,0,0,0,0,0,0,-1,587,1471,0,0
-630,-447,0,0,0,0,0,0,0,0,0,-1,594,1471,0,0
-623,-447,0,0,0,0,0,0,0,0,0,-1,601,1471,0,0
-616,-447,0,0,0,0,0,0,0,0,0,-1,608,1471,0,0
-609,-447,0,0,0,0,0,0,0,0,0,-1,615,1471,0,0
-602,-447,0,0,0,0,0,0,0,0,0,-1,622,1471,0,0
-595,-447,0,0,0,0,0,0,0,0,0,-1,629,1471,0,0
-588,-447,0,0,0,0,0,0,0,0,0,-1,636,1471,0,0
-581,-447,-7.06482,-1.50476,0,0,0,0,0,0,0,-1,643,1471,-7.0648,1.50474
-574,-447,-6.88092,-0.00585938,0,0,0,0,0,0,0,-1,650,1471,-6.88095,0.00589852
-567,-447,-6.8205,-1.32178,0,0,0,0,0,0,0,-1,657,1471,-6.82047,1.32172
-560,-447,-8.85748,2.80774,0,0,0,0,0,0,0,-1,664,1471,-8.85748,-2.80775
-553,-447,-7.60486,3.26794,0,0,0,0,0,0,0,-1,671,1471,-7.60487,-3.26799
-546,-447,-3.94501,1.8656,0,0,0,0,0,0,0,-1,678,1471,-3.945,-1.86554
-539,-447,-5.35492,4.50024,0,0,0,0,0,0,0,-1,685,1471,-5.35492,-4.50018
-532,-447,-6.12781,8.81091,0,0,0,0,0,0,0,-1,692,1471,-6.12781,-8.81094
-525,-447,-9.44501,12.098,0,0,0,0,0,0,0,-1,699,1471,-9.44502,-12.098
-518,-447,-10.7896,13.7268,0,0,0,0,0,0,0,-1,706,1471,-10.7896,-13.7268
-511,-447,-10.7288,14.5651,0.00317465,0.00161059,0.00291679,0.00541243,-0.000627185,0.654422,0.00383448,0.0238414,713,1471,-10.7288,-14.5651
-504,-447,-10.7283,15.3296,0.00250142,0.00107907,0.00217659,0.00408007,-0.000499582,0.627497,0.00290095,0.0215339,720,1471,-10.7283,-15.3296
-497,-447,-10.8196,15.9799,0.00193737,0.000759013,0.0015787,0.00303325,-0.00033687,0.606801,0.0021433,0.0256485,727,1471,-10.8196,-15.9798
-490,-447,-10.8251,16.4919,0.00154557,0.000668702,0.0011671,0.00235388,-0.0001396,0.605723,0.00161779,0.0255942,734,1471,-10.8251,-16.4919
-483,-447,-10.8591,17.1123,0.00133473,0.000815623,0.000947059,0.00205716,9.31933e-05,0.651652,0.00134145,0.0234751,741,1471,-10.859,-17.1123
-476,-447,-10.8752,17.7642,0.00128449,0.00120149,0.00096355,0.00220743,0.000278544,0.763876,0.00138812,0.0147753,748,1471,-10.8753,-17.7641
-469,-447,-10.9009,18.4045,0.0013814,0.00182705,0.00114354,0.00276927,0.000439182,0.881619,0.00171859,0.0138083,755,1471,-10.9009,-18.4046
-462,-447,-10.9257,19.0619,0.0016974,0.00269934,0.00156797,0.00384443,0.00055231,0.940023,0.00240013,0.0134479,762,1471,-10.9257,-19.0619
-455,-447,-10.9504,19.7169,0.00222936,0.00385897,0.00225118,0.00543826,0.000650067,0.959037,0.00342942,0.0229821,769,1471,-10.9505,-19.717
-448,-447,-10.8792,20.4133,0,0,0,0,0,0,0,-1,776,1471,-10.8791,-20.4133
-441,-447,-8.68506,19.0931,0,0,0,0,0,0,0,-1,783,1471,-8.68504,-19.0932
-434,-447,-7.43402,15.6273,0,0,0,0,0,0,0,-1,790,1471,-7.43404,-15.6274
-427,-447,-7.21832,14.691,0,0,0,0,0,0,0,-1,797,1471,-7.21834,-14.6911
-420,-447,-8.0545,12.8055,0,0,0,0,0,0,0,-1,804,1471,-8.05452,-12.8055
-413,-447,-4.27393,6.59705,0,0,0,0,0,0,0,-1,811,1471,-4.27392,-6.59707
-406,-447,-1.04279,6.18591,0,0,0,0,0,0,0,-1,818,1471,-1.04276,-6.18586
-399,-447,0.0134888,0.687622,0,0,0,0,0,0,0,-1,825,1471,0.0134841,-0.68767
-392,-447,-14.0646,3.76147,0,0,0,0,0,0,0,-1,832,1471,-14.0646,-3.7615
-385,-447,-15.1695,2.61865,0,0,0,0,0,0,0,-1,839,1471,-15.1695,-2.61871
-378,-447,-15.9424,1.49316,0,0,0,0,0,0,0,-1,846,1471,-15.9424,-1.49313
-371,-447,-17.3655,0.73291,0,0,0,0,0,0,0,-1,853,1471,-17.3655,-0.732946
-364,-447,0,0,0,0,0,0,0,0,0,-1,860,1471,0,0
-357,-447,0,0,0,0,0,0,0,0,0,-1,867,1471,0,0
-350,-447,0,0,0,0,0,0,0,0,0,-1,874,1471,0,0
-343,-447,0,0,0,0,0,0,0,0,0,-1,881,1471,0,0
-336,-447,0,0,0,0,0,0,0,0,0,-1,888,1471,0,0
-329,-447,0,0,0,0,0,0,0,0,0,-1,895,1471,0,0
-322,-447,0,0,0,0,0,0,0,0,0,-1,902,1471,0,0
-315,-447,0,0,0,0,0,0,0,0,0,-1,909,1471,0,0
-308,-447,0,0,0,0,0,0,0,0,0,-1,916,1471,0,0
-301,-447,0,0,0,0,0,0,0,0,0,-1,923,1471,0,0
-294,-447,0,0,0,0,0,0,0,0,0,-1,930,1471,0,0
-287,-447,0,0,0,0,0,0,0,0,0,-1,937,1471,0,0
-280,-447,0,0,0,0,0,0,0,0,0,-1,944,1471,0,0
-273,-447,0,0,0,0,0,0,0,0,0,-1,951,1471,0,0
-266,-447,0,0,0,0,0,0,0,0,0,-1,958,1471,0,0
-259,-447,0,0,0,0,0,0,0,0,0,-1,965,1471,0,0
-252,-447,0,0,0,0,0,0,0,0,0,-1,972,1471,0,0
-245,-447,0,0,0,0,0,0,0,0,0,-1,979,1471,0,0
-238,-447,0,0,0,0,0,0,0,0,0,-1,986,1471,0,0
-231,-447,0,0,0,0,0,0,0,0,0,-1,993,1471,0,0
-224,-447,0,0,0,0,0,0,0,0,0,-1,1000,1471,0,0
-217,-447,0,0,0,0,0,0,0,0,0,-1,1007,1471,0,0
-210,-447,0,0,0,0,0,0,0,0,0,-1,1014,1471,0,0
-203,-447,0,0,0,0,0,0,0,0,0,-1,1021,1471,0,0
-196,-447,0,0,0,0,0,0,0,0,0,-1,1028,1471,0,0
-189,-447,0,0,0,0,0,0,0,0,0,-1,1035,1471,0,0
-182,-447,0,0,0,0,0,0,0,0,0,-1,1042,1471,0,0
-175,-447,0,0,0,0,0,0,0,0,0,-1,1049,1471,0,0
-168,-447,0,0,0,0,0,0,0,0,0,-1,1056,1471,0,0
-161,-447,0,0,0,0,0,0,0,0,0,-1,1063,1471,0,0
-154,-447,0,0,0,0,0,0,0,0,0,-1,1070,1471,0,0
-147,-447,0,0,0,0,0,0,0,0,0,-1,1077,1471,0,0
-140,-447,0,0,0,0,0,0,0,0,0,-1,1084,1471,0,0
-133,-447,0,0,0,0,0,0,0,0,0,-1,1091,1471,0,0
-126,-447,0,0,0,0,0,0,0,0,0,-1,1098,1471,0,0
-119,-447,0,0,0,0,0,0,0,0,0,-1,1105,1471,0,0
-112,-447,0,0,0,0,0,0,0,0,0,-1,1112,1471,0,0
-105,-447,0,0,0,0,0,0,0,0,0,-1,1119,1471,0,0
-98,-447,0,0,0,0,0,0,0,0,0,-1,1126,1471,0,0
-91,-447,0,0,0,0,0,0,0,0,0,-1,1133,1471,0,0
-84,-447,0,0,0,0,0,0,0,0,0,-1,1140,1471,0,0
-77,-447,0,0,0,0,0,0,0,0,0,-1,1147,1471,0,0
-70,-447,0,0,0,0,0,0,0,0,0,-1,1154,1471,0,0
-63,-447,0,0,0,0,0,0,0,0,0,-1,1161,1471,0,0
-56,-447,0,0,0,0,0,0,0,0,0,-1,1168,1471,0,0
-49,-447,0,0,0,0,0,0,0,0,0,-1,1175,1471,0,0
-42,-447,0,0,0,0,0,0,0,0,0,-1,1182,1471,0,0
-35,-447,0,0,0,0,0,0,0,0,0,-1,1189,1471,0,0
-28,-447,0,0,0,0,0,0,0,0,0,-1,1196,1471,0,0
-21,-447,0,0,0,0,0,0,0,0,0,-1,1203,1471,0,0
-14,-447,0,0,0,0,0,0,0,0,0,-1,1210,1471,0,0
-7,-447,0,0,0,0,0,0,0,0,0,-1,1217,1471,0,0
0,-447,0,0,0,0,0,0,0,0,0,-1,1224,1471,0,0
7,-447,0,0,0,0,0,0,0,0,0,-1,1231,1471,0,0
14,-447,0,0,0,0,0,0,0,0,0,-1,1238,1471,0,0
21,-447,0,0,0,0,0,0,0,0,0,-1,1245,1471,0,0
28,-447,0,0,0,0,0,0,0,0,0,-1,1252,1471,0,0
35,-447,0,0,0,0,0,0,0,0,0,-1,1259,1471,0,0
42,-447,0,0,0,0,0,0,0,0,0,-1,1266,1471,0,0
49,-447,0,0,0,0,0,0,0,0,0,-1,1273,1471,0,0
56,-447,0,0,0,0,0,0,0,0,0,-1,1280,1471,0,0
63,-447,0,0,0,0,0,0,0,0,0,-1,1287,1471,0,0
70,-447,0,0,0,0,0,0,0,0,0,-1,1294,1471,0,0
77,-447,0,0,0,0,0,0,0,0,0,-1,1301,1471,0,0
84,-447,0,0,0,0,0,0,0,0,0,-1,1308,1471,0,0
91,-447,0,0,0,0,0,0,0,0,0,-1,1315,1471,0,0
98,-447,0,0,0,0,0,0,0,0,0,-1,1322,1471,0,0
105,-447,0,0,0,0,0,0,0,0,0,-1,1329,1471,0,0
112,-447,0,0,0,0,0,0,0,0,0,-1,1336,1471,0,0
119,-447,0,0,0,0,0,0,0,0,0,-1,1343,1471,0,0
126,-447,0,0,0,0,0,0,0,0,0,-1,1350,1471,0,0
133,-447,0,0,0,0,0,0,0,0,0,-1,1357,1471,0,0
140,-447,0,0,0,0,0,0,0,0,0,-1,1364,1471,0,0
147,-447,0,0,0,0,0,0,0,0,0,-1,1371,1471,0,0
154,-447,0,0,0,0,0,0,0,0,0,-1,1378,1471,0,0
161,-447,0,0,0,0,0,0,0,0,0,-1,1385,1471,0,0
168,-447,0,0,0,0,0,0,0,0,0,-1,1392,1471,0,0
175,-447,0,0,0,0,0,0,0,0,0,-1,1399,1471,0,0
182,-447,0,0,0,0,0,0,0,0,0,-1,1406,1471,0,0
189,-447,0,0,0,0,0,0,0,0,0,-1,1413,1471,0,0
196,-447,0,0,0,0,0,0,0,0,0,-1,1420,1471,0,0
203,-447,0,0,0,0,0,0,0,0,0,-1,1427,1471,0,0
210,-447,0,0,0,0,0,0,0,0,0,-1,1434,1471,0,0
217,-447,0,0,0,0,0,0,0,0,0,-1,1441,1471,0,0
224,-447,0,0,0,0,0,0,0,0,0,-1,1448,1471,0,0
231,-447,0,0,0,0,0,0,0,0,0,-1,1455,1471,0,0
238,-447,0,0,0,0,0,0,0,0,0,-1,1462,1471,0,0
245,-447,0,0,0,0,0,0,0,0,0,-1,1469,1471,0,0
252,-447,0,0,0,0,0,0,0,0,0,-1,1476,1471,0,0
259,-447,0,0,0,0,0,0,0,0,0,-1,1483,1471,0,0
266,-447,0,0,0,0,0,0,0,0,0,-1,1490,1471,0,0
273,-447,0,0,0,0,0,0,0,0,0,-1,1497,1471,0,0
280,-447,0,0,0,0,0,0,0,0,0,-1,1504,1471,0,0
287,-447,0,0,0,0,0,0,0,0,0,-1,1511,1471,0,0
294,-447,0,0,0,0,0,0,0,0,0,-1,1518,1471,0,0
301,-447,0,0,0,0,0,0,0,0,0,-1,1525,1471,0,0
308,-447,0,0,0,0,0,0,0,0,0,-1,1532,1471,0,0
315,-447,0,0,0,0,0,0,0,0,0,-1,1539,1471,0,0
322,-447,0,0,0,0,0,0,0,0,0,-1,1546,1471,0,0
329,-447,0,0,0,0,0,0,0,0,0,-1,1553,1471,0,0
336,-447,0,0,0,0,0,0,0,0,0,-1,1560,1471,0,0
343,-447,0,0,0,0,0,0,0,0,0,-1,1567,1471,0,0
350,-447,0,0,0,0,0,0,0,0,0,-1,1574,1471,0,0
357,-447,0,0,0,0,0,0,0,0,0,-1,1581,1471,0,0
364,-447,0,0,0,0,0,0,0,0,0,-1,1588,1471,0,0
371,-447,0,0,0,0,0,0,0,0,0,-1,1595,1471,0,0
378,-447,0,0,0,0,0,0,0,0,0,-1,1602,1471,0,0
385,-447,0,0,0,0,0,0,0,0,0,-1,1609,1471,0,0
392,-447,0,0,0,0,0,0,0,0,0,-1,1616,1471,0,0
399,-447,0,0,0,0,0,0,0,0,0,-1,1623,1471,0,0
406,-447,0,0,0,0,0,0,0,0,0,-1,1630,1471,0,0
413,-447,0,0,0,0,0,0,0,0,0,-1,1637,1471,0,0
420,-447,0,0,0,0,0,0,0,0,0,-1,1644,1471,0,0
427,-447,0,0,0,0,0,0,0,0,0,-1,1651,1471,0,0
434,-447,0,0,0,0,0,0,0,0,0,-1,1658,1471,0,0
441,-447,0,0,0,0,0,0,0,0,0,-1,1665,1471,0,0
448,-447,0,0,0,0,0,0,0,0,0,-1,1672,1471,0,0
455,-447,0,0,0,0,0,0,0,0,0,-1,1679,1471,0,0
462,-447,0,0,0,0,0,0,0,0,0,-1,1686,1471,0,0
469,-447,0,0,0,0,0,0,0,0,0,-1,1693,1471,0,0
476,-447,0,0,0,0,0,0,0,0,0,-1,1700,1471,0,0
483,-447,0,0,0,0,0,0,0,0,0,-1,1707,1471,0,0
490,-447,18.2214,-0.810303,0,0,0,0,0,0,0,-1,1714,1471,18.2215,0.810307
497,-447,17.0237,0.352417,0,0,0,0,0,0,0,-1,1721,1471,17.0237,-0.352442
504,-447,15.8998,1.53479,0,0,0,0,0,0,0,-1,1728,1471,15.8997,-1.53478
511,-447,14.7201,2.76111,0,0,0,0,0,0,0,-1,1735,1471,14.7201,-2.76107
518,-447,17.7618,13.2864,0,0,0,0,0,0,0,-1,1742,1471,17.7619,-13.2863
525,-447,17.1191,11.9014,0,0,0,0,0,0,0,-1,1749,1471,17.1191,-11.9013
532,-447,16.3959,10.0455,0,0,0,0,0,0,0,-1,1756,1471,16.3959,-10.0456
539,-447,14.1699,10.0204,0,0,0,0,0,0,0,-1,1763,1471,14.1699,-10.0204
546,-447,16.3715,11.8046,0,0,0,0,0,0,0,-1,1770,1471,16.3714,-11.8046
553,-447,17.5106,13.4012,0,0,0,0,0,0,0,-1,1777,1471,17.5107,-13.4012
560,-447,17.0187,13.168,0,0,0,0,0,0,0,-1,1784,1471,17.0187,-13.168
567,-447,18.9286,15.1703,0,0,0,0,0,0,0,-1,1791,1471,18.9286,-15.1703
574,-447,27.0027,22.6803,0,0,0,0,0,0,0,-1,1798,1471,27.0026,-22.6803
581,-447,27.0829,21.6375,0,0,0,0,0,0,0,-1,1805,1471,27.0828,-21.6374
588,-447,27.2542,20.9933,0.00484949,0.0026815,-0.00260183,0.00658411,0.000946885,-0.588019,0.0041103,0.0301718,1812,1471,27.2541,-20.9932
595,-447,27.2703,20.3684,0.0037748,0.00207852,-0.00212404,0.00521377,0.000639541,-0.595445,0.00328349,0.0141958,1819,1471,27.2702,-20.3684
602,-447,27.2544,19.7305,0.00308564,0.00147626,-0.00165253,0.00411899,0.000442918,-0.558824,0.0026109,0.0112097,1826,1471,27.2544,-19.7304
609,-447,27.2396,19.1241,0.00262077,0.00101523,-0.00125664,0.00330917,0.000326833,-0.501161,0.00210564,0.0122371,1833,1471,27.2397,-19.1242
616,-447,27.2084,18.5562,0.00232382,0.000718375,-0.000976466,0.00278516,0.000257038,-0.441371,0.0017773,0.0149546,1840,1471,27.2084,-18.5562
623,-447,27.2196,17.9982,0.00233932,0.000507708,-0.000780995,0.00262712,0.000219914,-0.353057,0.0016829,0.0166827,1847,1471,27.2196,-17.9981
630,-447,27.1729,17.3879,0.00259591,0.000341467,-0.000685097,0.00278777,0.000149603,-0.273059,0.00181071,0.00990392,1854,1471,27.1728,-17.3879
637,-447,27.1637,16.7892,0.00296004,0.00034617,-0.000672743,0.00312303,0.000183186,-0.237688,0.00202372,0.0107057,1861,1471,27.1637,-16.7892
644,-447,27.1704,16.1782,0.00354706,0.000516915,-0.000758201,0.00372619,0.000337788,-0.231999,0.00237953,0.0117645,1868,1471,27.1704,-16.1782
651,-447,27.2014,15.5103,0.00441298,0.000933791,-0.00107111,0.0047163,0.000630478,-0.275951,0.00295653,0.0482758,1875,1471,27.2014,-15.5103
658,-447,27.2886,14.7979,0,0,0,0,0,0,0,-1,1882,1471,27.2885,-14.7979
665,-447,18.4946,9.79919,0,0,0,0,0,0,0,-1,1889,1471,18.4946,-9.79922
672,-447,18.9784,9.66077,0,0,0,0,0,0,0,-1,1896,1471,18.9784,-9.66081
679,-447,14.844,7.4248,0,0,0,0,0,0,0,-1,1903,1471,14.844,-7.42477
686,-447,9.81079,4.30859,0,0,0,0,0,0,0,-1,1910,1471,9.8108,-4.30864
693,-447,10.48,2.08643,0,0,0,0,0,0,0,-1,1917,1471,10.48,-2.08642
700,-447,0,0,0,0,0,0,0,0,0,-1,1924,1471,0,0
707,-447,0,0,0,0,0,0,0,0,0,-1,1931,1471,0,0
714,-447,0,0,0,0,0,0,0,0,0,-1,1938,1471,0,0
721,-447,0,0,0,0,0,0,0,0,0,-1,1945,1471,0,0
728,-447,0,0,0,0,0,0,0,0,0,-1,1952,1471,0,0
735,-447,0,0,0,0,0,0,0,0,0,-1,1959,1471,0,0
742,-447,0,0,0,0,0,0,0,0,0,-1,1966,1471,0,0
749,-447,0,0,0,0,0,0,0,0,0,-1,1973,1471,0,0
756,-447,0,0,0,0,0,0,0,0,0,-1,1980,1471,0,0
763,-447,0,0,0,0,0,0,0,0,0,-1,1987,1471,0,0
770,-447,0,0,0,0,0,0,0,0,0,-1,1994,1471,0,0
777,-447,0,0,0,0,0,0,0,0,0,-1,2001,1471,0,0
784,-447,0,0,0,0,0,0,0,0,0,-1,2008,1471,0,0
791,-447,0,0,0,0,0,0,0,0,0,-1,2015,1471,0,0
798,-447,0,0,0,0,0,0,0,0,0,-1,2022,1471,0,0
805,-447,0,0,0,0,0,0,0,0,0,-1,2029,1471,0,0
812,-447,0,0,0,0,0,0,0,0,0,-1,2036,1471,0,0
-700,-454,0,0,0,0,0,0,0,0,0,-1,524,1478,0,0
-693,-454,0,0,0,0,0,0,0,0,0,-1,531,1478,0,0
-686,-454,0,0,0,0,0,0,0,0,0,-1,538,1478,0,0
-679,-454,0,0,0,0,0,0,0,0,0,-1,545,1478,0,0
-672,-454,0,0,0,0,0,0,0,0,0,-1,552,1478,0,0
-665,-454,0,0,0,0,0,0,0,0,0,-1,559,1478,0,0
-658,-454,0,0,0,0,0,0,0,0,0,-1,566,1478,0,0
-651,-454,0,0,0,0,0,0,0,0,0,-1,573,1478,0,0
-644,-454,0,0,0,0,0,0,0,0,0,-1,580,1478,0,0
-637,-454,0,0,0,0,0,0,0,0,0,-1,587,1478,0,0
-630,-454,0,0,0,0,0,0,0,0,0,-1,594,1478,0,0
-623,-454,0,0,0,0,0,0,0,0,0,-1,601,1478,0,0
-616,-454,0,0,0,0,0,0,0,0,0,-1,608,1478,0,0
-609,-454,0,0,0,0,0,0,0,0,0,-1,615,1478,0,0
-602,-454,0,0,0,0,0,0,0,0,0,-1,622,1478,0,0
-595,-454,0,0,0,0,0,0,0,0,0,-1,629,1478,0,0
-588,-454,0,0,0,0,0,0,0,0,0,-1,636,1478,0,0
-581,-454,0,0,0,0,0,0,0,0,0,-1,643,1478,0,0
-574,-454,-8.4881,-0.465942,0,0,0,0,0,0,0,-1,650,1478,-8.4881,0.465885
-567,-454,-8.10046,0.922974,0,0,0,0,0,0,0,-1,657,1478,-8.10047,-0.923034
-560,-454,-10.656,3.51172,0,0,0,0,0,0,0,-1,664,1478,-10.656,-3.51176
-553,-454,-9.01129,3.95251,0,0,0,0,0,0,0,-1,671,1478,-9.0113,-3.95256
-546,-454,-9.61896,6.05237,0,0,0,0,0,0,0,-1,678,1478,-9.61897,-6.05239
-539,-454,-7.72589,4.96533,0,0,0,0,0,0,0,-1,685,1478,-7.72592,-4.96532
-532,-454,-7.03931,7.59985,0,0,0,0,0,0,0,-1,692,1478,-7.03929,-7.59981
-525,-454,-5.78723,9.677,0,0,0,0,0,0,0,-1,699,1478,-5.78722,-9.67703
-518,-454,-9.82098,13.8295,0,0,0,0,0,0,0,-1,706,1478,-9.82098,-13.8295
-511,-454,-10.1788,14.592,0,0,0,0,0,0,0,-1,713,1478,-10.1788,-14.592
-504,-454,-10.1208,15.3108,0.00272016,0.000936574,0.00238245,0.00437225,-0.000715521,0.606312,0.00318029,0.0192902,720,1478,-10.1208,-15.3108
-497,-454,-10.1796,16.014,0.00205436,0.000558423,0.00167323,0.00313919,-0.000526407,0.575211,0.00228853,0.0198927,727,1478,-10.1796,-16.014
-490,-454,-10.1909,16.594,0.00159284,0.000406221,0.00117063,0.00231194,-0.000312871,0.55085,0.00165547,0.0182181,734,1478,-10.1908,-16.594
-483,-454,-10.2289,17.1876,0.00134511,0.00051614,0.00090674,0.00192761,-6.63591e-05,0.571021,0.00130775,0.016678,741,1478,-10.2289,-17.1876
-476,-454,-10.2507,17.7848,0.00127464,0.000872959,0.000902047,0.00199793,0.000149662,0.675861,0.00128498,0.0134463,748,1478,-10.2507,-17.7848
-469,-454,-10.2512,18.4333,0.00137133,0.00146651,0.00107674,0.00249671,0.000341126,0.807483,0.00156322,0.00996368,755,1478,-10.2512,-18.4333
-462,-454,-10.2863,19.1036,0.00167808,0.00226858,0.00148694,0.00348929,0.000457363,0.883405,0.00218972,0.0103973,762,1478,-10.2863,-19.1036
-455,-454,-10.3156,19.7395,0.0022117,0.00331739,0.00215259,0.004987,0.000542096,0.911095,0.00315951,0.0112902,769,1478,-10.3156,-19.7395
-448,-454,-10.3101,20.3921,0.00307385,0.00482358,0.00327093,0.00733462,0.00056281,0.916073,0.00471336,0.0226015,776,1478,-10.3101,-20.3921
-441,-454,-10.1707,21.1599,0,0,0,0,0,0,0,-1,783,1478,-10.1707,-21.1599
-434,-454,-7.55743,19.4857,0,0,0,0,0,0,0,-1,790,1478,-7.55746,-19.4858
-427,-454,-6.00183,15.8636,0,0,0,0,0,0,0,-1,797,1478,-6.00184,-15.8637
-420,-454,-6.28088,15.2135,0,0,0,0,0,0,0,-1,804,1478,-6.28087,-15.2135
-413,-454,-5.4408,13.674,0,0,0,0,0,0,0,-1,811,1478,-5.44079,-13.6739
-406,-454,-2.38208,10.0308,0,0,0,0,0,0,0,-1,818,1478,-2.38209,-10.0308
-399,-454,-1.21033,6.95447,0,0,0,0,0,0,0,-1,825,1478,-1.21035,-6.95452
-392,-454,0.0967407,0.985474,0,0,0,0,0,0,0,-1,832,1478,0.0967364,-0.985529
-385,-454,2.38629,3.297,0,0,0,0,0,0,0,-1,839,1478,2.38629,-3.29702
-378,-454,-15.9756,2.83997,0,0,0,0,0,0,0,-1,846,1478,-15.9756,-2.83994
-371,-454,-17.2753,2.01453,0,0,0,0,0,0,0,-1,853,1478,-17.2753,-2.01455
-364,-454,1.08124,0.819458,0,0,0,0,0,0,0,-1,860,1478,1.08124,-0.819513
-357,-454,0,0,0,0,0,0,0,0,0,-1,867,1478,0,0
-350,-454,0,0,0,0,0,0,0,0,0,-1,874,1478,0,0
-343,-454,0,0,0,0,0,0,0,0,0,-1,881,1478,0,0
-336,-454,0,0,0,0,0,0,0,0,0,-1,888,1478,0,0
-329,-454,0,0,0,0,0,0,0,0,0,-1,895,1478,0,0
-322,-454,0,0,0,0,0,0,0,0,0,-1,902,1478,0,0
-315,-454,0,0,0,0,0,0,0,0,0,-1,909,1478,0,0
-308,-454,0,0,0,0,0,0,0,0,0,-1,916,1478,0,0
-301,-454,0,0,0,0,0,0,0,0,0,-1,923,1478,0,0
-294,-454,0,0,0,0,0,0,0,0,0,-1,930,1478,0,0
-287,-454,0,0,0,0,0,0,0,0,0,-1,937,1478,0,0
-280,-454,0,0,0,0,0,0,0,0,0,-1,944,1478,0,0
-273,-454,0,0,0,0,0,0,0,0,0,-1,951,1478,0,0
-266,-454,0,0,0,0,0,0,0,0,0,-1,958,1478,0,0
-259,-454,0,0,0,0,0,0,0,0,0,-1,965,1478,0,0
-252,-454,0,0,0,0,0,0,0,0,0,-1,972,1478,0,0
-245,-454,0,0,0,0,0,0,0,0,0,-1,979,1478,0,0
-238,-454,0,0,0,0,0,0,0,0,0,-1,986,1478,0,0
-231,-454,0,0,0,0,0,0,0,0,0,-1,993,1478,0,0
-224,-454,0,0,0,0,0,0,0,0,0,-1,1000,1478,0,0
-217,-454,0,0,0,0,0,0,0,0,0,-1,1007,1478,0,0
-210,-454,0,0,0,0,0,0,0,0,0,-1,1014,1478,0,0
-203,-454,0,0,0,0,0,0,0,0,0,-1,1021,1478,0,0
-196,-454,0,0,0,0,0,0,0,0,0,-1,1028,1478,0,0
-189,-454,0,0,0,0,0,0,0,0,0,-1,1035,1478,0,0
-182,-454,0,0,0,0,0,0,0,0,0,-1,1042,1478,0,0
-175,-454,0,0,0,0,0,0,0,0,0,-1,1049,1478,0,0
-168,-454,0,0,0,0,0,0,0,0,0,-1,1056,1478,0,0
-161,-454,0,0,0,0,0,0,0,0,0,-1,1063,1478,0,0
-154,-454,0,0,0,0,0,0,0,0,0,-1,1070,1478,0,0
-147,-454,0,0,0,0,0,0,0,0,0,-1,1077,1478,0,0
-140,-454,0,0,0,0,0,0,0,0,0,-1,1084,1478,0,0
-133,-454,0,0,0,0,0,0,0,0,0,-1,1091,1478,0,0
-126,-454,0,0,0,0,0,0,0,0,0,-1,1098,1478,0,0
-119,-454,0,0,0,0,0,0,0,0,0,-1,1105,1478,0,0
-112,-454,0,0,0,0,0,0,0,0,0,-1,1112,1478,0,0
-105,-454,0,0,0,0,0,0,0,0,0,-1,1119,1478,0,0
-98,-454,0,0,0,0,0,0,0,0,0,-1,1126,1478,0,0
-91,-454,0,0,0,0,0,0,0,0,0,-1,1133,1478,0,0
-84,-454,0,0,0,0,0,0,0,0,0,-1,1140,1478,0,0
-77,-454,0,0,0,0,0,0,0,0,0,-1,1147,1478,0,0
-70,-454,0,0,0,0,0,0,0,0,0,-1,1154,1478,0,0
-63,-454,0,0,0,0,0,0,0,0,0,-1,1161,1478,0,0
-56,-454,0,0,0,0,0,0,0,0,0,-1,1168,1478,0,0
-49,-454,0,0,0,0,0,0,0,0,0,-1,1175,1478,0,0
-42,-454,0,0,0,0,0,0,0,0,0,-1,1182,1478,0,0
-35,-454,0,0,0,0,0,0,0,0,0,-1,1189,1478,0,0
-28,-454,0,0,0,0,0,0,0,0,0,-1,1196,1478,0,0
-21,-454,0,0,0,0,0,0,0,0,0,-1,1203,1478,0,0
-14,-454,0,0,0,0,0,0,0,0,0,-1,1210,1478,0,0
-7,-454,0,0,0,0,0,0,0,0,0,-1,1217,1478,0,0
0,-454,0,0,0,0,0,0,0,0,0,-1,1224,1478,0,0
7,-454,0,0,0,0,0,0,0,0,0,-1,1231,1478,0,0
14,-454,0,0,0,0,0,0,0,0,0,-1,1238,1478,0,0
21,-454,0,0,0,0,0,0,0,0,0,-1,1245,1478,0,0
28,-454,0,0,0,0,0,0,0,0,0,-1,1252,1478,0,0
35,-454,0,0,0,0,0,0,0,0,0,-1,1259,1478,0,0
42,-454,0,0,0,0,0,0,0,0,0,-1,1266,1478,0,0
49,-454,0,0,0,0,0,0,0,0,0,-1,1273,1478,0,0
56,-454,0,0,0,0,0,0,0,0,0,-1,1280,1478,0,0
63,-454,0,0,0,0,0,0,0,0,0,-1,1287,1478,0,0
70,-454,0,0,0,0,0,0,0,0,0,-1,1294,1478,0,0
77,-454,0,0,0,0,0,0,0,0,0,-1,1301,1478,0,0
84,-454,0,0,0,0,0,0,0,0,0,-1,1308,1478,0,0
91,-454,0,0,0,0,0,0,0,0,0,-1,1315,1478,0,0
98,-454,0,0,0,0,0,0,0,0,0,-1,1322,1478,0,0
105,-454,0,0,0,0,0,0,0,0,0,-1,1329,1478,0,0
112,-454,0,0,0,0,0,0,0,0,0,-1,1336,1478,0,0
119,-454,0,0,0,0,0,0,0,0,0,-1,1343,1478,0,0
126,-454,0,0,0,0,0,0,0,0,0,-1,1350,1478,0,0
133,-454,0,0,0,0,0,0,0,0,0,-1,1357,1478,0,0
140,-454,0,0,0,0,0,0,0,0,0,-1,1364,1478,0,0
147,-454,0,0,0,0,0,0,0,0,0,-1,1371,1478,0,0
154,-454,0,0,0,0,0,0,0,0,0,-1,1378,1478,0,0
161,-454,0,0,0,0,0,0,0,0,0,-1,1385,1478,0,0
168,-454,0,0,0,0,0,0,0,0,0,-1,1392,1478,0,0
175,-454,0,0,0,0,0,0,0,0,0,-1,1399,1478,0,0
182,-454,0,0,0,0,0,0,0,0,0,-1,1406,1478,0,0
189,-454,0,0,0,0,0,0,0,0,0,-1,1413,1478,0,0
196,-454,0,0,0,0,0,0,0,0,0,-1,1420,1478,0,0
203,-454,0,0,0,0,0,0,0,0,0,-1,1427,1478,0,0
210,-454,0,0,0,0,0,0,0,0,0,-1,1434,1478,0,0
217,-454,0,0,0,0,0,0,0,0,0,-1,1441,1478,0,0
224,-454,0,0,0,0,0,0,0,0,0,-1,1448,1478,0,0
231,-454,0,0,0,0,0,0,0,0,0,-1,1455,1478,0,0
238,-454,0,0,0,0,0,0,0,0,0,-1,1462,1478,0,0
245,-454,0,0,0,0,0,0,0,0,0,-1,1469,1478,0,0
252,-454,0,0,0,0,0,0,0,0,0,-1,1476,1478,0,0
259,-454,0,0,0,0,0,0,0,0,0,-1,1483,1478,0,0
266,-454,0,0,0,0,0,0,0,0,0,-1,1490,1478,0,0
273,-454,0,0,0,0,0,0,0,0,0,-1,1497,1478,0,0
280,-454,0,0,0,0,0,0,0,0,0,-1,1504,1478,0,0
287,-454,0,0,0,0,0,0,0,0,0,-1,1511,1478,0,0
294,-454,0,0,0,0,0,0,0,0,0,-1,1518,1478,0,0
301,-454,0,0,0,0,0,0,0,0,0,-1,1525,1478,0,0
308,-454,0,0,0,0,0,0,0,0,0,-1,1532,1478,0,0
315,-454,0,0,0,0,0,0,0,0,0,-1,1539,1478,0,0
322,-454,0,0,0,0,0,0,0,0,0,-1,1546,1478,0,0
329,-454,0,0,0,0,0,0,0,0,0,-1,1553,1478,0,0
336,-454,0,0,0,0,0,0,0,0,0,-1,1560,1478,0,0
343,-454,0,0,0,0,0,0,0,0,0,-1,1567,1478,0,0
350,-454,0,0,0,0,0,0,0,0,0,-1,1574,1478,0,0
357,-454,0,0,0,0,0,0,0,0,0,-1,1581,1478,0,0
364,-454,0,0,0,0,0,0,0,0,0,-1,1588,1478,0,0
371,-454,0,0,0,0,0,0,0,0,0,-1,1595,1478,0,0
378,-454,0,0,0,0,0,0,0,0,0,-1,1602,1478,0,0
385,-454,0,0,0,0,0,0,0,0,0,-1,1609,1478,0,0
392,-454,0,0,0,0,0,0,0,0,0,-1,1616,1478,0,0
399,-454,0,0,0,0,0,0,0,0,0,-1,1623,1478,0,0
406,-454,0,0,0,0,0,0,0,0,0,-1,1630,1478,0,0
413,-454,0,0,0,0,0,0,0,0,0,-1,1637,1478,0,0
420,-454,0,0,0,0,0,0,0,0,0,-1,1644,1478,0,0
427,-454,0,0,0,0,0,0,0,0,0,-1,1651,1478,0,0
434,-454,0,0,0,0,0,0,0,0,0,-1,1658,1478,0,0
441,-454,0,0,0,0,0,0,0,0,0,-1,1665,1478,0,0
448,-454,0,0,0,0,0,0,0,0,0,-1,1672,1478,0,0
455,-454,0,0,0,0,0,0,0,0,0,-1,1679,1478,0,0
462,-454,0,0,0,0,0,0,0,0,0,-1,1686,1478,0,0
469,-454,0,0,0,0,0,0,0,0,0,-1,1693,1478,0,0
476,-454,0,0,0,0,0,0,0,0,0,-1,1700,1478,0,0
483,-454,14.2399,3.97498,0,0,0,0,0,0,0,-1,1707,1478,14.2399,-3.97502
490,-454,18.1821,-0.175781,0,0,0,0,0,0,0,-1,1714,1478,18.1821,0.175822
497,-454,16.8854,1.01208,0,0,0,0,0,0,0,-1,1721,1478,16.8854,-1.01209
504,-454,15.587,2.05994,0,0,0,0,0,0,0,-1,1728,1478,15.5871,-2.05998
511,-454,17.0273,14.5258,0,0,0,0,0,0,0,-1,1735,1478,17.0273,-14.5258
518,-454,16.4158,13.1039,0,0,0,0,0,0,0,-1,1742,1478,16.4157,-13.1038
525,-454,15.7842,11.6628,0,0,0,0,0,0,0,-1,1749,1478,15.7841,-11.6629
532,-454,15.1094,10.2476,0,0,0,0,0,0,0,-1,1756,1478,15.1094,-10.2475
539,-454,13.7905,10.9373,0,0,0,0,0,0,0,-1,1763,1478,13.7906,-10.9372
546,-454,16.2002,13.2458,0,0,0,0,0,0,0,-1,1770,1478,16.2002,-13.2459
553,-454,15.6747,12.1868,0,0,0,0,0,0,0,-1,1777,1478,15.6747,-12.1868
560,-454,16.3895,14.0527,0,0,0,0,0,0,0,-1,1784,1478,16.3895,-14.0528
567,-454,26.8516,23.0834,0,0,0,0,0,0,0,-1,1791,1478,26.8516,-23.0834
574,-454,26.7053,22.2617,0.00658435,0.00328802,-0.0028406,0.00822031,0.00165206,-0.522525,0.00502095,0.0446167,1798,1478,26.7053,-22.2618
581,-454,26.6818,21.5947,0.0052759,0.0027913,-0.00248011,0.00680745,0.00125975,-0.553212,0.00418211,0.0272709,1805,1478,26.6818,-21.5948
588,-454,26.7278,20.9606,0.00419407,0.00225104,-0.00210966,0.00554516,0.000899947,-0.569619,0.0034363,0.0150904,1812,1478,26.7277,-20.9606
595,-454,26.6638,20.3701,0.00334801,0.00172273,-0.00174082,0.00445652,0.000614216,-0.567025,0.00278891,0.0128324,1819,1478,26.6639,-20.3701
602,-454,26.6458,19.7535,0.00279759,0.00121918,-0.00140148,0.0036168,0.00039997,-0.528968,0.00228955,0.00890438,1826,1478,26.6457,-19.7536
609,-454,26.645,19.171,0.00246334,0.000837867,-0.00109752,0.00301628,0.000284923,-0.466695,0.00192293,0.0112347,1833,1478,26.645,-19.171
616,-454,26.6307,18.5973,0.00229887,0.0005875,-0.000876667,0.00266824,0.000218138,-0.398754,0.00171075,0.014254,1840,1478,26.6307,-18.5973
623,-454,26.6195,18.026,0.00243844,0.000383196,-0.000704264,0.00265661,0.000165027,-0.300407,0.00171871,0.0139347,1847,1478,26.6195,-18.026
630,-454,26.5931,17.4235,0.00281429,0.000253435,-0.000605561,0.00295027,0.000117459,-0.220882,0.00192888,0.0136775,1854,1478,26.5932,-17.4235
637,-454,26.5459,16.8361,0.00331513,0.000280536,-0.000601168,0.00342988,0.000165781,-0.188618,0.00223338,0.0121956,1861,1478,26.5458,-16.8361
644,-454,26.626,16.2224,0.00405876,0.000524276,-0.00075258,0.00421233,0.000370706,-0.201295,0.00269317,0.0223215,1868,1478,26.6259,-16.2224
651,-454,26.7389,15.5553,0,0,0,0,0,0,0,-1,1875,1478,26.7389,-15.5552
658,-454,17.2583,10.0765,0,0,0,0,0,0,0,-1,1882,1478,17.2583,-10.0765
665,-454,17.683,9.67566,0,0,0,0,0,0,0,-1,1889,1478,17.683,-9.67572
672,-454,16.5476,6.41931,0,0,0,0,0,0,0,-1,1896,1478,16.5476,-6.41929
679,-454,14.2161,5.45007,0,0,0,0,0,0,0,-1,1903,1478,14.2161,-5.45013
686,-454,10.3767,2.12842,0,0,0,0,0,0,0,-1,1910,1478,10.3767,-2.12839
693,-454,11.1857,1.48486,0,0,0,0,0,0,0,-1,1917,1478,11.1857,-1.48487
700,-454,0,0,0,0,0,0,0,0,0,-1,1924,1478,0,0
707,-454,0,0,0,0,0,0,0,0,0,-1,1931,1478,0,0
714,-454,0,0,0,0,0,0,0,0,0,-1,1938,1478,0,0
721,-454,0,0,0,0,0,0,0,0,0,-1,1945,1478,0,0
728,-454,0,0,0,0,0,0,0,0,0,-1,1952,1478,0,0
735,-454,0,0,0,0,0,0,0,0,0,-1,1959,1478,0,0
742,-454,0,0,0,0,0,0,0,0,0,-1,1966,1478,0,0
749,-454,0,0,0,0,0,0,0,0,0,-1,1973,1478,0,0
756,-454,0,0,0,0,0,0,0,0,0,-1,1980,1478,0,0
763,-454,0,0,0,0,0,0,0,0,0,-1,1987,1478,0,0
770,-454,0,0,0,0,0,0,0,0,0,-1,1994,1478,0,0
777,-454,0,0,0,0,0,0,0,0,0,-1,2001,1478,0,0
784,-454,0,0,0,0,0,0,0,0,0,-1,2008,1478,0,0
791,-454,0,0,0,0,0,0,0,0,0,-1,2015,1478,0,0
798,-454,0,0,0,0,0,0,0,0,0,-1,2022,1478,0,0
805,-454,0,0,0,0,0,0,0,0,0,-1,2029,1478,0,0
812,-454,0,0,0,0,0,0,0,0,0,-1,2036,1478,0,0
-700,-461,0,0,0,0,0,0,0,0,0,-1,524,1485,0,0
-693,-461,0,0,0,0,0,0,0,0,0,-1,531,1485,0,0
-686,-461,0,0,0,0,0,0,0,0,0,-1,538,1485,0,0
-679,-461,0,0,0,0,0,0,0,0,0,-1,545,1485,0,0
-672,-461,0,0,0,0,0,0,0,0,0,-1,552,1485,0,0
-665,-461,0,0,0,0,0,0,0,0,0,-1,559,1485,0,0
-658,-461,0,0,0,0,0,0,0,0,0,-1,566,1485,0,0
-651,-461,0,0,0,0,0,0,0,0,0,-1,573,1485,0,0
-644,-461,0,0,0,0,0,0,0,0,0,-1,580,1485,0,0
-637,-461,0,0,0,0,0,0,0,0,0,-1,587,1485,0,0
-630,-461,0,0,0,0,0,0,0,0,0,-1,594,1485,0,0
-623,-461,0,0,0,0,0,0,0,0,0,-1,601,1485,0,0
-616,-461,0,0,0,0,0,0,0,0,0,-1,608,1485,0,0
-609,-461,0,0,0,0,0,0,0,0,0,-1,615,1485,0,0
-602,-461,0,0,0,0,0,0,0,0,0,-1,622,1485,0,0
-595,-461,0,0,0,0,0,0,0,0,0,-1,629,1485,0,0
-588,-461,0,0,0,0,0,0,0,0,0,-1,636,1485,0,0
-581,-461,0,0,0,0,0,0,0,0,0,-1,643,1485,0,0
-574,-461,0,0,0,0,0,0,0,0,0,-1,650,1485,0,0
-567,-461,-9.69031,0.513306,0,0,0,0,0,0,0,-1,657,1485,-9.69032,-0.513305
-560,-461,-7.28815,1.54004,0,0,0,0,0,0,0,-1,664,1485,-7.28817,-1.54005
-553,-461,-11.9607,5.27783,0,0,0,0,0,0,0,-1,671,1485,-11.9607,-5.27778
-546,-461,-11.4215,4.44666,0,0,0,0,0,0,0,-1,678,1485,-11.4215,-4.4467
-539,-461,-9.36493,5.23438,0,0,0,0,0,0,0,-1,685,1485,-9.3649,-5.23432
-532,-461,-7.82898,6.78357,0,0,0,0,0,0,0,-1,692,1485,-7.829,-6.78363
-525,-461,-6.37878,8.75659,0,0,0,0,0,0,0,-1,699,1485,-6.3788,-8.75659
-518,-461,-6.49695,10.886,0,0,0,0,0,0,0,-1,706,1485,-6.49696,-10.8859
-511,-461,-9.8042,14.5555,0,0,0,0,0,0,0,-1,713,1485,-9.80422,-14.5555
-504,-461,-9.58148,15.25,0.00252542,0.000993375,0.00265291,0.00452069,-0.0010019,0.644848,0.00339736,0.0331249,720,1485,-9.58147,-15.2501
-497,-461,-9.50928,15.9781,0.0016922,0.000523043,0.00176384,0.00296581,-0.00075057,0.625383,0.00226916,0.0114586,727,1485,-9.50928,-15.9781
-490,-461,-9.54852,16.62,0.00114024,0.00026469,0.0011201,0.00190508,-0.000500141,0.599106,0.00146549,0.0126203,734,1485,-9.54855,-16.6199
-483,-461,-9.59058,17.2418,0.000901364,0.000293857,0.000783572,0.001438,-0.000242777,0.60049,0.001049,0.0122424,741,1485,-9.59056,-17.2418
-476,-461,-9.63403,17.8536,0.000892808,0.000565479,0.000729847,0.00147712,-1.88294e-05,0.675101,0.00099108,0.0107923,748,1485,-9.634,-17.8536
-469,-461,-9.65613,18.479,0.00109438,0.00106365,0.000882385,0.00196153,0.000196497,0.77669,0.00124736,0.0128651,755,1485,-9.65612,-18.479
-462,-461,-9.65564,19.1292,0.001507,0.00174182,0.00125762,0.0028875,0.000361326,0.831943,0.00181658,0.0186083,762,1485,-9.65566,-19.1291
-455,-461,-9.68683,19.767,0.00213318,0.00263213,0.00186275,0.00426204,0.000503278,0.851966,0.00268934,0.0228482,769,1485,-9.68685,-19.767
-448,-461,-9.70575,20.4,0.0031035,0.00394218,0.00287685,0.00643009,0.000615586,0.85777,0.00409698,0.0208416,776,1485,-9.70576,-20.4
-441,-461,-9.61444,21.1145,0.00443012,0.00541567,0.00418294,0.00913476,0.000711025,0.844031,0.00586721,0.036088,783,1485,-9.61441,-21.1144
-434,-461,-9.41095,22.0396,0,0,0,0,0,0,0,-1,790,1485,-9.41094,-22.0396
-427,-461,-8.26154,21.546,0,0,0,0,0,0,0,-1,797,1485,-8.26153,-21.5461
-420,-461,-5.70355,16.6116,0,0,0,0,0,0,0,-1,804,1485,-5.70353,-16.6115
-413,-461,-5.98798,16.0605,0,0,0,0,0,0,0,-1,811,1485,-5.98796,-16.0605
-406,-461,-5.52667,14.839,0,0,0,0,0,0,0,-1,818,1485,-5.52666,-14.839
-399,-461,-1.93439,9.82849,0,0,0,0,0,0,0,-1,825,1485,-1.9344,-9.82846
-392,-461,-0.357544,5.55225,0,0,0,0,0,0,0,-1,832,1485,-0.357536,-5.55228
-385,-461,1.71509,3.35254,0,0,0,0,0,0,0,-1,839,1485,1.71511,-3.35255
-378,-461,1.95996,3.01111,0,0,0,0,0,0,0,-1,846,1485,1.95993,-3.01111
-371,-461,0.702881,2.33459,0,0,0,0,0,0,0,-1,853,1485,0.702859,-2.33459
-364,-461,-1.93097,2.56458,0,0,0,0,0,0,0,-1,860,1485,-1.93095,-2.56456
-357,-461,-2.41516,3.49487,0,0,0,0,0,0,0,-1,867,1485,-2.41517,-3.49487
-350,-461,0,0,0,0,0,0,0,0,0,-1,874,1485,0,0
-343,-461,0,0,0,0,0,0,0,0,0,-1,881,1485,0,0
-336,-461,0,0,0,0,0,0,0,0,0,-1,888,1485,0,0
-329,-461,0,0,0,0,0,0,0,0,0,-1,895,1485,0,0
-322,-461,0,0,0,0,0,0,0,0,0,-1,902,1485,0,0
-315,-461,0,0,0,0,0,0,0,0,0,-1,909,1485,0,0
-308,-461,0,0,0,0,0,0,0,0,0,-1,916,1485,0,0
-301,-461,0,0,0,0,0,0,0,0,0,-1,923,1485,0,0
-294,-461,0,0,0,0,0,0,0,0,0,-1,930,1485,0,0
-287,-461,0,0,0,0,0,0,0,0,0,-1,937,1485,0,0
-280,-461,0,0,0,0,0,0,0,0,0,-1,944,1485,0,0
-273,-461,0,0,0,0,0,0,0,0,0,-1,951,1485,0,0
-266,-461,0,0,0,0,0,0,0,0,0,-1,958,1485,0,0
-259,-461,0,0,0,0,0,0,0,0,0,-1,965,1485,0,0
-252,-461,0,0,0,0,0,0,0,0,0,-1,972,1485,0,0
-245,-461,0,0,0,0,0,0,0,0,0,-1,979,1485,0,0
-238,-461,0,0,0,0,0,0,0,0,0,-1,986,1485,0,0
-231,-461,0,0,0,0,0,0,0,0,0,-1,993,1485,0,0
-224,-461,0,0,0,0,0,0,0,0,0,-1,1000,1485,0,0
-217,-461,0,0,0,0,0,0,0,0,0,-1,1007,1485,0,0
-210,-461,0,0,0,0,0,0,0,0,0,-1,1014,1485,0,0
-203,-461,0,0,0,0,0,0,0,0,0,-1,1021,1485,0,0
-196,-461,0,0,0,0,0,0,0,0,0,-1,1028,1485,0,0
-189,-461,0,0,0,0,0,0,0,0,0,-1,1035,1485,0,0
-182,-461,0,0,0,0,0,0,0,0,0,-1,1042,1485,0,0
-175,-461,0,0,0,0,0,0,0,0,0,-1,1049,1485,0,0
-168,-461,0,0,0,0,0,0,0,0,0,-1,1056,1485,0,0
-161,-461,0,0,0,0,0,0,0,0,0,-1,1063,1485,0,0
-154,-461,0,0,0,0,0,0,0,0,0,-1,1070,1485,0,0
-147,-461,0,0,0,0,0,0,0,0,0,-1,1077,1485,0,0
-140,-461,0,0,0,0,0,0,0,0,0,-1,1084,1485,0,0
-133,-461,0,0,0,0,0,0,0,0,0,-1,1091,1485,0,0
-126,-461,0,0,0,0,0,0,0,0,0,-1,1098,1485,0,0
-119,-461,0,0,0,0,0,0,0,0,0,-1,1105,1485,0,0
-112,-461,0,0,0,0,0,0,0,0,0,-1,1112,1485,0,0
-105,-461,0,0,0,0,0,0,0,0,0,-1,1119,1485,0,0
-98,-461,0,0,0,0,0,0,0,0,0,-1,1126,1485,0,0
-91,-461,0,0,0,0,0,0,0,0,0,-1,1133,1485,0,0
-84,-461,0,0,0,0,0,0,0,0,0,-1,1140,1485,0,0
-77,-461,0,0,0,0,0,0,0,0,0,-1,1147,1485,0,0
-70,-461,0,0,0,0,0,0,0,0,0,-1,1154,1485,0,0
-63,-461,0,0,0,0,0,0,0,0,0,-1,1161,1485,0,0
-56,-461,0,0,0,0,0,0,0,0,0,-1,1168,1485,0,0
-49,-461,0,0,0,0,0,0,0,0,0,-1,1175,1485,0,0
-42,-461,0,0,0,0,0,0,0,0,0,-1,1182,1485,0,0
-35,-461,0,0,0,0,0,0,0,0,0,-1,1189,1485,0,0
-28,-461,0,0,0,0,0,0,0,0,0,-1,1196,1485,0,0
-21,-461,0,0,0,0,0,0,0,0,0,-1,1203,1485,0,0
-14,-461,0,0,0,0,0,0,0,0,0,-1,1210,1485,0,0
-7,-461,0,0,0,0,0,0,0,0,0,-1,1217,1485,0,0
0,-461,0,0,0,0,0,0,0,0,0,-1,1224,1485,0,0
7,-461,0,0,0,0,0,0,0,0,0,-1,1231,1485,0,0
14,-461,0,0,0,0,0,0,0,0,0,-1,1238,1485,0,0
21,-461,0,0,0,0,0,0,0,0,0,-1,1245,1485,0,0
28,-461,0,0,0,0,0,0,0,0,0,-1,1252,1485,0,0
35,-461,0,0,0,0,0,0,0,0,0,-1,1259,1485,0,0
42,-461,0,0,0,0,0,0,0,0,0,-1,1266,1485,0,0
49,-461,0,0,0,0,0,0,0,0,0,-1,1273,1485,0,0
56,-461,0,0,0,0,0,0,0,0,0,-1,1280,1485,0,0
63,-461,0,0,0,0,0,0,0,0,0,-1,1287,1485,0,0
70,-461,0,0,0,0,0,0,0,0,0,-1,1294,1485,0,0
77,-461,0,0,0,0,0,0,0,0,0,-1,1301,1485,0,0
84,-461,0,0,0,0,0,0,0,0,0,-1,1308,1485,0,0
91,-461,0,0,0,0,0,0,0,0,0,-1,1315,1485,0,0
98,-461,0,0,0,0,0,0,0,0,0,-1,1322,1485,0,0
105,-461,0,0,0,0,0,0,0,0,0,-1,1329,1485,0,0
112,-461,0,0,0,0,0,0,0,0,0,-1,1336,1485,0,0
119,-461,0,0,0,0,0,0,0,0,0,-1,1343,1485,0,0
126,-461,0,0,0,0,0,0,0,0,0,-1,1350,1485,0,0
133,-461,0,0,0,0,0,0,0,0,0,-1,1357,1485,0,0
140,-461,0,0,0,0,0,0,0,0,0,-1,1364,1485,0,0
147,-461,0,0,0,0,0,0,0,0,0,-1,1371,1485,0,0
154,-461,0,0,0,0,0,0,0,0,0,-1,1378,1485,0,0
161,-461,0,0,0,0,0,0,0,0,0,-1,1385,1485,0,0
168,-461,0,0,0,0,0,0,0,0,0,-1,1392,1485,0,0
175,-461,0,0,0,0,0,0,0,0,0,-1,1399,1485,0,0
182,-461,0,0,0,0,0,0,0,0,0,-1,1406,1485,0,0
189,-461,0,0,0,0,0,0,0,0,0,-1,1413,1485,0,0
196,-461,0,0,0,0,0,0,0,0,0,-1,1420,1485,0,0
203,-461,0,0,0,0,0,0,0,0,0,-1,1427,1485,0,0
210,-461,0,0,0,0,0,0,0,0,0,-1,1434,1485,0,0
217,-461,0,0,0,0,0,0,0,0,0,-1,1441,1485,0,0
224,-461,0,0,0,0,0,0,0,0,0,-1,1448,1485,0,0
231,-461,0,0,0,0,0,0,0,0,0,-1,1455,1485,0,0
238,-461,0,0,0,0,0,0,0,0,0,-1,1462,1485,0,0
245,-461,0,0,0,0,0,0,0,0,0,-1,1469,1485,0,0
252,-461,0,0,0,0,0,0,0,0,0,-1,1476,1485,0,0
259,-461,0,0,0,0,0,0,0,0,0,-1,1483,1485,0,0
266,-461,0,0,0,0,0,0,0,0,0,-1,1490,1485,0,0
273,-461,0,0,0,0,0,0,0,0,0,-1,1497,1485,0,0
280,-461,0,0,0,0,0,0,0,0,0,-1,1504,1485,0,0
287,-461,0,0,0,0,0,0,0,0,0,-1,1511,1485,0,0
294,-461,0,0,0,0,0,0,0,0,0,-1,1518,1485,0,0
301,-461,0,0,0,0,0,0,0,0,0,-1,1525,1485,0,0
308,-461,0,0,0,0,0,0,0,0,0,-1,1532,1485,0,0
315,-461,0,0,0,0,0,0,0,0,0,-1,1539,1485,0,0
322,-461,0,0,0,0,0,0,0,0,0,-1,1546,1485,0,0
329,-461,0,0,0,0,0,0,0,0,0,-1,1553,1485,0,0
336,-461,0,0,0,0,0,0,0,0,0,-1,1560,1485,0,0
343,-461,0,0,0,0,0,0,0,0,0,-1,1567,1485,0,0
350,-461,0,0,0,0,0,0,0,0,0,-1,1574,1485,0,0
357,-461,0,0,0,0,0,0,0,0,0,-1,1581,1485,0,0
364,-461,0,0,0,0,0,0,0,0,0,-1,1588,1485,0,0
371,-461,0,0,0,0,0,0,0,0,0,-1,1595,1485,0,0
378,-461,0,0,0,0,0,0,0,0,0,-1,1602,1485,0,0
385,-461,0,0,0,0,0,0,0,0,0,-1,1609,1485,0,0
392,-461,0,0,0,0,0,0,0,0,0,-1,1616,1485,0,0
399,-461,0,0,0,0,0,0,0,0,0,-1,1623,1485,0,0
406,-461,0,0,0,0,0,0,0,0,0,-1,1630,1485,0,0
413,-461,0,0,0,0,0,0,0,0,0,-1,1637,1485,0,0
420,-461,0,0,0,0,0,0,0,0,0,-1,1644,1485,0,0
427,-461,0,0,0,0,0,0,0,0,0,-1,1651,1485,0,0
434,-461,0,0,0,0,0,0,0,0,0,-1,1658,1485,0,0
441,-461,0,0,0,0,0,0,0,0,0,-1,1665,1485,0,0
448,-461,0,0,0,0,0,0,0,0,0,-1,1672,1485,0,0
455,-461,0,0,0,0,0,0,0,0,0,-1,1679,1485,0,0
462,-461,0,0,0,0,0,0,0,0,0,-1,1686,1485,0,0
469,-461,0,0,0,0,0,0,0,0,0,-1,1693,1485,0,0
476,-461,14.1906,0.690552,0,0,0,0,0,0,0,-1,1700,1485,14.1906,-0.690525
483,-461,10.6361,3.09106,0,0,0,0,0,0,0,-1,1707,1485,10.6361,-3.091
490,-461,17.9972,0.665894,0,0,0,0,0,0,0,-1,1714,1485,17.9972,-0.665876
497,-461,16.6829,1.87732,0,0,0,0,0,0,0,-1,1721,1485,16.6828,-1.87736
504,-461,15.3884,3.09216,0,0,0,0,0,0,0,-1,1728,1485,15.3885,-3.09212
511,-461,15.4292,14.3512,0,0,0,0,0,0,0,-1,1735,1485,15.4292,-14.3512
518,-461,14.8081,10.0085,0,0,0,0,0,0,0,-1,1742,1485,14.8081,-10.0086
525,-461,14.0022,10.8033,0,0,0,0,0,0,0,-1,1749,1485,14.0022,-10.8033
532,-461,17.1704,14.077,0,0,0,0,0,0,0,-1,1756,1485,17.1704,-14.077
539,-461,17.0229,14.7386,0,0,0,0,0,0,0,-1,1763,1485,17.0229,-14.7387
546,-461,16.2106,14.1372,0,0,0,0,0,0,0,-1,1770,1485,16.2106,-14.1372
553,-461,25.2617,23.6115,0,0,0,0,0,0,0,-1,1777,1485,25.2617,-23.6114
560,-461,25.9653,23.1121,0,0,0,0,0,0,0,-1,1784,1485,25.9654,-23.1121
567,-461,26.1472,22.6489,0.00699232,0.00347863,-0.00270313,0.00845935,0.0020116,-0.497235,0.00510296,0.034456,1791,1485,26.1473,-22.6489
574,-461,26.1722,22.1288,0.00558496,0.00285129,-0.00233372,0.00692265,0.0015136,-0.520483,0.00420243,0.0311061,1798,1485,26.1722,-22.1288
581,-461,26.1837,21.5424,0.0044897,0.00235729,-0.00202198,0.00570937,0.00113762,-0.542772,0.00348941,0.0188555,1805,1485,26.1837,-21.5424
588,-461,26.1416,20.9878,0.00361524,0.00184688,-0.00171239,0.00465825,0.000803869,-0.54708,0.00287525,0.0117534,1812,1485,26.1416,-20.9878
595,-461,26.0825,20.4115,0.0030053,0.0013754,-0.0014277,0.00383427,0.00054643,-0.526056,0.00239491,0.0091599,1819,1485,26.0825,-20.4115
602,-461,26.0676,19.7955,0.00261409,0.000946019,-0.00119251,0.00323528,0.000324829,-0.480237,0.00205715,0.0095775,1826,1485,26.0676,-19.7956
609,-461,26.0493,19.1935,0.00241531,0.000622994,-0.00096813,0.00283839,0.00019992,-0.411992,0.00182926,0.011733,1833,1485,26.0493,-19.1935
616,-461,26.0316,18.6128,0.0023849,0.000399742,-0.000796675,0.00266508,0.000119567,-0.338171,0.00173823,0.0132287,1840,1485,26.0317,-18.6127
623,-461,26.0208,18.051,0.0026347,0.000190555,-0.000645256,0.00279459,3.06662e-05,-0.242899,0.00185292,0.0154293,1847,1485,26.0207,-18.0511
630,-461,26.0011,17.4712,0.00312421,9.89288e-05,-0.000547875,0.00322037,2.76591e-06,-0.17375,0.00214599,0.0159666,1854,1485,26.0011,-17.4712
637,-461,25.9629,16.877,0.00380861,0.000162725,-0.000547609,0.00388908,8.2251e-05,-0.145911,0.00256574,0.0157228,1861,1485,25.9629,-16.877
644,-461,26.0298,16.3591,0.00472901,0.000437799,-0.000676165,0.00483303,0.000333777,-0.152644,0.00311673,0.0297687,1868,1485,26.0298,-16.3591
651,-461,26.1326,15.7972,0,0,0,0,0,0,0,-1,1875,1485,26.1326,-15.7973
658,-461,16.8987,10.1084,0,0,0,0,0,0,0,-1,1882,1485,16.8986,-10.1084
665,-461,17.2638,9.81384,0,0,0,0,0,0,0,-1,1889,1485,17.2638,-9.81385
672,-461,14.4877,6.89429,0,0,0,0,0,0,0,-1,1896,1485,14.4876,-6.89431
679,-461,10.0535,2.16321,0,0,0,0,0,0,0,-1,1903,1485,10.0535,-2.16317
686,-461,10.8195,1.84192,0,0,0,0,0,0,0,-1,1910,1485,10.8194,-1.84195
693,-461,0,0,0,0,0,0,0,0,0,-1,1917,1485,0,0
700,-461,0,0,0,0,0,0,0,0,0,-1,1924,1485,0,0
707,-461,0,0,0,0,0,0,0,0,0,-1,1931,1485,0,0
714,-461,0,0,0,0,0,0,0,0,0,-1,1938,1485,0,0
721,-461,0,0,0,0,0,0,0,0,0,-1,1945,1485,0,0
728,-461,0,0,0,0,0,0,0,0,0,-1,1952,1485,0,0
735,-461,0,0,0,0,0,0,0,0,0,-1,1959,1485,0,0
742,-461,0,0,0,0,0,0,0,0,0,-1,1966,1485,0,0
749,-461,0,0,0,0,0,0,0,0,0,-1,1973,1485,0,0
756,-461,0,0,0,0,0,0,0,0,0,-1,1980,1485,0,0
763,-461,0,0,0,0,0,0,0,0,0,-1,1987,1485,0,0
770,-461,0,0,0,0,0,0,0,0,0,-1,1994,1485,0,0
777,-461,0,0,0,0,0,0,0,0,0,-1,2001,1485,0,0
784,-461,0,0,0,0,0,0,0,0,0,-1,2008,1485,0,0
791,-461,0,0,0,0,0,0,0,0,0,-1,2015,1485,0,0
798,-461,0,0,0,0,0,0,0,0,0,-1,2022,1485,0,0
805,-461,0,0,0,0,0,0,0,0,0,-1,2029,1485,0,0
812,-461,0,0,0,0,0,0,0,0,0,-1,2036,1485,0,0
-700,-468,0,0,0,0,0,0,0,0,0,-1,524,1492,0,0
-693,-468,0,0,0,0,0,0,0,0,0,-1,531,1492,0,0
-686,-468,0,0,0,0,0,0,0,0,0,-1,538,1492,0,0
-679,-468,0,0,0,0,0,0,0,0,0,-1,545,1492,0,0
-672,-468,0,0,0,0,0,0,0,0,0,-1,552,1492,0,0
-665,-468,0,0,0,0,0,0,0,0,0,-1,559,1492,0,0
-658,-468,0,0,0,0,0,0,0,0,0,-1,566,1492,0,0
-651,-468,0,0,0,0,0,0,0,0,0,-1,573,1492,0,0
-644,-468,0,0,0,0,0,0,0,0,0,-1,580,1492,0,0
-637,-468,0,0,0,0,0,0,0,0,0,-1,587,1492,0,0
-630,-468,0,0,0,0,0,0,0,0,0,-1,594,1492,0,0
-623,-468,0,0,0,0,0,0,0,0,0,-1,601,1492,0,0
-616,-468,0,0,0,0,0,0,0,0,0,-1,608,1492,0,0
-609,-468,0,0,0,0,0,0,0,0,0,-1,615,1492,0,0
-602,-468,0,0,0,0,0,0,0,0,0,-1,622,1492,0,0
-595,-468,0,0,0,0,0,0,0,0,0,-1,629,1492,0,0
-588,-468,0,0,0,0,0,0,0,0,0,-1,636,1492,0,0
-581,-468,0,0,0,0,0,0,0,0,0,-1,643,1492,0,0
-574,-468,0,0,0,0,0,0,0,0,0,-1,650,1492,0,0
-567,-468,-11.2603,1.8042,0,0,0,0,0,0,0,-1,657,1492,-11.2603,-1.80424
-560,-468,-8.77441,2.23694,0,0,0,0,0,0,0,-1,664,1492,-8.77443,-2.23692
-553,-468,-5.94061,9.26318,0,0,0,0,0,0,0,-1,671,1492,-5.94062,-9.26322
-546,-468,-10.47,5.43237,0,0,0,0,0,0,0,-1,678,1492,-10.47,-5.4324
-539,-468,-10.2468,5.45203,0,0,0,0,0,0,0,-1,685,1492,-10.2468,-5.45197
-532,-468,-8.39795,6.02783,0,0,0,0,0,0,0,-1,692,1492,-8.39793,-6.02789
-525,-468,-6.59332,7.15405,0,0,0,0,0,0,0,-1,699,1492,-6.59331,-7.15411
-518,-468,-6.33588,8.65393,0,0,0,0,0,0,0,-1,706,1492,-6.33588,-8.65397
-511,-468,-8.05835,13.8282,0,0,0,0,0,0,0,-1,713,1492,-8.05835,-13.8283
-504,-468,-8.93958,15.1776,0,0,0,0,0,0,0,-1,720,1492,-8.93959,-15.1776
-497,-468,-8.91565,15.9343,0.00125473,2.99413e-05,0.00180208,0.00254562,-0.00126096,0.621607,0.00223906,0.0224436,727,1492,-8.91566,-15.9343
-490,-468,-8.90393,16.6459,0.000651511,-0.000287571,0.00106825,0.00134886,-0.000984915,0.578336,0.00135285,0.0085272,734,1492,-8.90392,-16.6458
-483,-468,-8.95221,17.2767,0.000431393,-0.00026056,0.000689529,0.000856876,-0.000686043,0.552872,0.000892623,0.00901552,741,1492,-8.95222,-17.2768
-476,-468,-8.99628,17.894,0.000464361,2.0417e-05,0.000596966,0.000879288,-0.00039451,0.607402,0.000752972,0.00957592,748,1492,-8.99629,-17.8941
-469,-468,-9.00879,18.5229,0.000724765,0.000537963,0.000727607,0.00136494,-0.000102213,0.721564,0.000945875,0.0138934,755,1492,-9.00882,-18.523
-462,-468,-8.98053,19.1791,0.0011797,0.00123773,0.00105922,0.00226833,0.000149098,0.799092,0.00146505,0.0238017,762,1492,-8.9805,-19.1791
-455,-468,-9.01483,19.7615,0.00182089,0.0021293,0.00158898,0.00357154,0.000378646,0.833771,0.00226539,0.0243165,769,1492,-9.01485,-19.7614
-448,-468,-9.0575,20.3931,0.00277598,0.00339339,0.002466,0.00556993,0.000599442,0.847666,0.00353048,0.0148376,776,1492,-9.05748,-20.3931
-441,-468,-9.07849,21.0143,0.00405333,0.00490853,0.00366264,0.00816844,0.00079342,0.843508,0.00520137,0.0155207,783,1492,-9.07852,-21.0142
-434,-468,-9.08392,21.7202,0.0056932,0.00701432,0.00529476,0.0116896,0.00101795,0.847456,0.00747686,0.0293188,790,1492,-9.08391,-21.7203
-427,-468,-8.90442,22.2968,0,0,0,0,0,0,0,-1,797,1492,-8.90445,-22.2968
-420,-468,-7.57581,22.0538,0,0,0,0,0,0,0,-1,804,1492,-7.57582,-22.0538
-413,-468,-5.30328,17.3519,0,0,0,0,0,0,0,-1,811,1492,-5.30329,-17.352
-406,-468,-2.2356,9.396,0,0,0,0,0,0,0,-1,818,1492,-2.2356,-9.396
-399,-468,-0.940369,8.1936,0,0,0,0,0,0,0,-1,825,1492,-0.940365,-8.19357
-392,-468,-0.35144,8.14673,0,0,0,0,0,0,0,-1,832,1492,-0.351449,-8.14674
-385,-468,0.465759,5.35864,0,0,0,0,0,0,0,-1,839,1492,0.465732,-5.35864
-378,-468,1.99835,3.25391,0,0,0,0,0,0,0,-1,846,1492,1.99837,-3.2539
-371,-468,-0.31842,3.1532,0,0,0,0,0,0,0,-1,853,1492,-0.318441,-3.15324
-364,-468,-0.966736,2.14563,0,0,0,0,0,0,0,-1,860,1492,-0.966735,-2.14557
-357,-468,-3.06787,3.22742,0,0,0,0,0,0,0,-1,867,1492,-3.06784,-3.2274
-350,-468,-3.18658,4.12659,0,0,0,0,0,0,0,-1,874,1492,-3.18659,-4.12658
-343,-468,0,0,0,0,0,0,0,0,0,-1,881,1492,0,0
-336,-468,0,0,0,0,0,0,0,0,0,-1,888,1492,0,0
-329,-468,0,0,0,0,0,0,0,0,0,-1,895,1492,0,0
-322,-468,0,0,0,0,0,0,0,0,0,-1,902,1492,0,0
-315,-468,0,0,0,0,0,0,0,0,0,-1,909,1492,0,0
-308,-468,0,0,0,0,0,0,0,0,0,-1,916,1492,0,0
-301,-468,0,0,0,0,0,0,0,0,0,-1,923,1492,0,0
-294,-468,0,0,0,0,0,0,0,0,0,-1,930,1492,0,0
-287,-468,0,0,0,0,0,0,0,0,0,-1,937,1492,0,0
-280,-468,0,0,0,0,0,0,0,0,0,-1,944,1492,0,0
-273,-468,0,0,0,0,0,0,0,0,0,-1,951,1492,0,0
-266,-468,0,0,0,0,0,0,0,0,0,-1,958,1492,0,0
-259,-468,0,0,0,0,0,0,0,0,0,-1,965,1492,0,0
-252,-468,0,0,0,0,0,0,0,0,0,-1,972,1492,0,0
-245,-468,0,0,0,0,0,0,0,0,0,-1,979,1492,0,0
-238,-468,0,0,0,0,0,0,0,0,0,-1,986,1492,0,0
-231,-468,0,0,0,0,0,0,0,0,0,-1,993,1492,0,0
-224,-468,0,0,0,0,0,0,0,0,0,-1,1000,1492,0,0
-217,-468,0,0,0,0,0,0,0,0,0,-1,1007,1492,0,0
-210,-468,0,0,0,0,0,0,0,0,0,-1,1014,1492,0,0
-203,-468,0,0,0,0,0,0,0,0,0,-1,1021,1492,0,0
-196,-468,0,0,0,0,0,0,0,0,0,-1,1028,1492,0,0
-189,-468,0,0,0,0,0,0,0,0,0,-1,1035,1492,0,0
-182,-468,0,0,0,0,0,0,0,0,0,-1,1042,1492,0,0
-175,-468,0,0,0,0,0,0,0,0,0,-1,1049,1492,0,0
-168,-468,0,0,0,0,0,0,0,0,0,-1,1056,1492,0,0
-161,-468,0,0,0,0,0,0,0,0,0,-1,1063,1492,0,0
-154,-468,0,0,0,0,0,0,0,0,0,-1,1070,1492,0,0
-147,-468,0,0,0,0,0,0,0,0,0,-1,1077,1492,0,0
-140,-468,0,0,0,0,0,0,0,0,0,-1,1084,1492,0,0
-133,-468,0,0,0,0,0,0,0,0,0,-1,1091,1492,0,0
-126,-468,0,0,0,0,0,0,0,0,0,-1,1098,1492,0,0
-119,-468,0,0,0,0,0,0,0,0,0,-1,1105,1492,0,0
-112,-468,0,0,0,0,0,0,0,0,0,-1,1112,1492,0,0
-105,-468,0,0,0,0,0,0,0,0,0,-1,1119,1492,0,0
-98,-468,0,0,0,0,0,0,0,0,0,-1,1126,1492,0,0
-91,-468,0,0,0,0,0,0,0,0,0,-1,1133,1492,0,0
-84,-468,0,0,0,0,0,0,0,0,0,-1,1140,1492,0,0
-77,-468,0,0,0,0,0,0,0,0,0,-1,1147,1492,0,0
-70,-468,0,0,0,0,0,0,0,0,0,-1,1154,1492,0,0
-63,-468,0,0,0,0,0,0,0,0,0,-1,1161,1492,0,0
-56,-468,0,0,0,0,0,0,0,0,0,-1,1168,1492,0,0
-49,-468,0,0,0,0,0,0,0,0,0,-1,1175,1492,0,0
-42,-468,0,0,0,0,0,0,0,0,0,-1,1182,1492,0,0
-35,-468,0,0,0,0,0,0,0,0,0,-1,1189,1492,0,0
-28,-468,0,0,0,0,0,0,0,0,0,-1,1196,1492,0,0
-21,-468,0,0,0,0,0,0,0,0,0,-1,1203,1492,0,0
-14,-468,0,0,0,0,0,0,0,0,0,-1,1210,1492,0,0
-7,-468,0,0,0,0,0,0,0,0,0,-1,1217,1492,0,0
0,-468,0,0,0,0,0,0,0,0,0,-1,1224,1492,0,0
7,-468,0,0,0,0,0,0,0,0,0,-1,1231,1492,0,0
14,-468,0,0,0,0,0,0,0,0,0,-1,1238,1492,0,0
21,-468,0,0,0,0,0,0,0,0,0,-1,1245,1492,0,0
28,-468,0,0,0,0,0,0,0,0,0,-1,1252,1492,0,0
35,-468,0,0,0,0,0,0,0,0,0,-1,1259,1492,0,0
42,-468,0,0,0,0,0,0,0,0,0,-1,1266,1492,0,0
49,-468,0,0,0,0,0,0,0,0,0,-1,1273,1492,0,0
56,-468,0,0,0,0,0,0,0,0,0,-1,1280,1492,0,0
63,-468,0,0,0,0,0,0,0,0,0,-1,1287,1492,0,0
70,-468,0,0,0,0,0,0,0,0,0,-1,1294,1492,0,0
77,-468,0,0,0,0,0,0,0,0,0,-1,1301,1492,0,0
84,-468,0,0,0,0,0,0,0,0,0,-1,1308,1492,0,0
91,-468,0,0,0,0,0,0,0,0,0,-1,1315,1492,0,0
98,-468,0,0,0,0,0,0,0,0,0,-1,1322,1492,0,0
105,-468,0,0,0,0,0,0,0,0,0,-1,1329,1492,0,0
112,-468,0,0,0,0,0,0,0,0,0,-1,1336,1492,0,0
119,-468,0,0,0,0,0,0,0,0,0,-1,1343,1492,0,0
126,-468,0,0,0,0,0,0,0,0,0,-1,1350,1492,0,0
133,-468,0,0,0,0,0,0,0,0,0,-1,1357,1492,0,0
140,-468,0,0,0,0,0,0,0,0,0,-1,1364,1492,0,0
147,-468,0,0,0,0,0,0,0,0,0,-1,1371,1492,0,0
154,-468,0,0,0,0,0,0,0,0,0,-1,1378,1492,0,0
161,-468,0,0,0,0,0,0,0,0,0,-1,1385,1492,0,0
168,-468,0,0,0,0,0,0,0,0,0,-1,1392,1492,0,0
175,-468,0,0,0,0,0,0,0,0,0,-1,1399,1492,0,0
182,-468,0,0,0,0,0,0,0,0,0,-1,1406,1492,0,0
189,-468,0,0,0,0,0,0,0,0,0,-1,1413,1492,0,0
196,-468,0,0,0,0,0,0,0,0,0,-1,1420,1492,0,0
203,-468,0,0,0,0,0,0,0,0,0,-1,1427,1492,0,0
210,-468,0,0,0,0,0,0,0,0,0,-1,1434,1492,0,0
217,-468,0,0,0,0,0,0,0,0,0,-1,1441,1492,0,0
224,-468,0,0,0,0,0,0,0,0,0,-1,1448,1492,0,0
231,-468,0,0,0,0,0,0,0,0,0,-1,1455,1492,0,0
238,-468,0,0,0,0,0,0,0,0,0,-1,1462,1492,0,0
245,-468,0,0,0,0,0,0,0,0,0,-1,1469,1492,0,0
252,-468,0,0,0,0,0,0,0,0,0,-1,1476,1492,0,0
259,-468,0,0,0,0,0,0,0,0,0,-1,1483,1492,0,0
266,-468,0,0,0,0,0,0,0,0,0,-1,1490,1492,0,0
273,-468,0,0,0,0,0,0,0,0,0,-1,1497,1492,0,0
280,-468,0,0,0,0,0,0,0,0,0,-1,1504,1492,0,0
287,-468,0,0,0,0,0,0,0,0,0,-1,1511,1492,0,0
294,-468,0,0,0,0,0,0,0,0,0,-1,1518,1492,0,0
301,-468,0,0,0,0,0,0,0,0,0,-1,1525,1492,0,0
308,-468,0,0,0,0,0,0,0,0,0,-1,1532,1492,0,0
315,-468,0,0,0,0,0,0,0,0,0,-1,1539,1492,0,0
322,-468,0,0,0,0,0,0,0,0,0,-1,1546,1492,0,0
329,-468,0,0,0,0,0,0,0,0,0,-1,1553,1492,0,0
336,-468,0,0,0,0,0,0,0,0,0,-1,1560,1492,0,0
343,-468,0,0,0,0,0,0,0,0,0,-1,1567,1492,0,0
350,-468,0,0,0,0,0,0,0,0,0,-1,1574,1492,0,0
357,-468,0,0,0,0,0,0,0,0,0,-1,1581,1492,0,0
364,-468,0,0,0,0,0,0,0,0,0,-1,1588,1492,0,0
371,-468,0,0,0,0,0,0,0,0,0,-1,1595,1492,0,0
378,-468,0,0,0,0,0,0,0,0,0,-1,1602,1492,0,0
385,-468,0,0,0,0,0,0,0,0,0,-1,1609,1492,0,0
392,-468,0,0,0,0,0,0,0,0,0,-1,1616,1492,0,0
399,-468,0,0,0,0,0,0,0,0,0,-1,1623,1492,0,0
406,-468,0,0,0,0,0,0,0,0,0,-1,1630,1492,0,0
413,-468,0,0,0,0,0,0,0,0,0,-1,1637,1492,0,0
420,-468,0,0,0,0,0,0,0,0,0,-1,1644,1492,0,0
427,-468,0,0,0,0,0,0,0,0,0,-1,1651,1492,0,0
434,-468,0,0,0,0,0,0,0,0,0,-1,1658,1492,0,0
441,-468,0,0,0,0,0,0,0,0,0,-1,1665,1492,0,0
448,-468,0,0,0,0,0,0,0,0,0,-1,1672,1492,0,0
455,-468,0,0,0,0,0,0,0,0,0,-1,1679,1492,0,0
462,-468,0,0,0,0,0,0,0,0,0,-1,1686,1492,0,0
469,-468,15.6879,1.2677,0,0,0,0,0,0,0,-1,1693,1492,15.6879,-1.26772
476,-468,14.9318,1.61865,0,0,0,0,0,0,0,-1,1700,1492,14.9318,-1.61869
483,-468,11.265,4.64795,0,0,0,0,0,0,0,-1,1707,1492,11.265,-4.64798
490,-468,12.1316,3.51624,0,0,0,0,0,0,0,-1,1714,1492,12.1316,-3.51628
497,-468,16.5355,3.14587,0,0,0,0,0,0,0,-1,1721,1492,16.5356,-3.14583
504,-468,15.0642,4.10437,0,0,0,0,0,0,0,-1,1728,1492,15.0643,-4.10431
511,-468,15.6877,9.4801,0,0,0,0,0,0,0,-1,1735,1492,15.6878,-9.48007
518,-468,13.759,11.0887,0,0,0,0,0,0,0,-1,1742,1492,13.759,-11.0887
525,-468,16.6531,14.2238,0,0,0,0,0,0,0,-1,1749,1492,16.653,-14.2237
532,-468,16.9696,15.9641,0,0,0,0,0,0,0,-1,1756,1492,16.9696,-15.9641
539,-468,21.5308,20.7551,0,0,0,0,0,0,0,-1,1763,1492,21.5308,-20.7551
546,-468,24.874,24.328,0,0,0,0,0,0,0,-1,1770,1492,24.874,-24.328
553,-468,25.3594,23.9672,0,0,0,0,0,0,0,-1,1777,1492,25.3594,-23.9671
560,-468,25.533,23.3373,0.00785127,0.00427096,-0.00326821,0.00978749,0.00233474,-0.534841,0.00590272,0.0418794,1784,1492,25.5329,-23.3373
567,-468,25.5438,22.7648,0.00613215,0.00317279,-0.00244051,0.00750651,0.00179843,-0.512878,0.00452559,0.0213805,1791,1492,25.5439,-22.7648
574,-468,25.5861,22.1346,0.00489767,0.00250483,-0.00204668,0.00607197,0.00133053,-0.520901,0.00368542,0.0168947,1798,1492,25.5861,-22.1347
581,-468,25.605,21.5731,0.0039262,0.00198875,-0.00173351,0.00494329,0.000971657,-0.530603,0.00302413,0.0169752,1805,1492,25.605,-21.5732
588,-468,25.5536,21.0231,0.00321446,0.00150381,-0.00147591,0.00406498,0.000653293,-0.522784,0.0025206,0.0126904,1812,1492,25.5536,-21.023
595,-468,25.5139,20.4323,0.00279909,0.00107807,-0.00125696,0.00346187,0.000415284,-0.485242,0.00218269,0.0107534,1819,1492,25.5139,-20.4322
602,-468,25.5016,19.8214,0.00255354,0.000709146,-0.00109718,0.0030646,0.000198079,-0.435917,0.00198035,0.00966145,1826,1492,25.5016,-19.8214
609,-468,25.4591,19.2135,0.00248502,0.000440471,-0.000935101,0.00284819,7.73001e-05,-0.370446,0.00187356,0.0102405,1833,1492,25.4591,-19.2135
616,-468,25.4211,18.6202,0.00259227,0.000233874,-0.000795637,0.00283558,-9.44163e-06,-0.296781,0.00189354,0.009831,1840,1492,25.4211,-18.6202
623,-468,25.4178,18.0522,0.00295338,4.14907e-06,-0.000645319,0.0030884,-0.000130871,-0.206255,0.00210391,0.0111199,1847,1492,25.4178,-18.0522
630,-468,25.4176,17.4637,0.00350819,-6.41888e-05,-0.000522358,0.003583,-0.000139002,-0.142255,0.00243632,0.0124513,1854,1492,25.4177,-17.4637
637,-468,25.3909,16.8557,0.00424223,-4.68987e-05,-0.000456188,0.00429021,-9.48817e-05,-0.104797,0.00289229,0.0147501,1861,1492,25.3908,-16.8557
644,-468,25.4438,16.3477,0.00515625,0.000140675,-0.000465599,0.0051991,9.78196e-05,-0.0917856,0.00343393,0.0375044,1868,1492,25.4439,-16.3476
651,-468,25.6227,15.8065,0,0,0,0,0,0,0,-1,1875,1492,25.6227,-15.8066
658,-468,16.4969,10.0774,0,0,0,0,0,0,0,-1,1882,1492,16.497,-10.0774
665,-468,15.4673,8.59546,0,0,0,0,0,0,0,-1,1889,1492,15.4672,-8.59548
672,-468,9.96814,3.61133,0,0,0,0,0,0,0,-1,1896,1492,9.96817,-3.61139
679,-468,11.2191,1.91968,0,0,0,0,0,0,0,-1,1903,1492,11.2191,-1.91965
686,-468,11.9252,1.42285,0,0,0,0,0,0,0,-1,1910,1492,11.9252,-1.42291
693,-468,0,0,0,0,0,0,0,0,0,-1,1917,1492,0,0
700,-468,0,0,0,0,0,0,0,0,0,-1,1924,1492,0,0
707,-468,0,0,0,0,0,0,0,0,0,-1,1931,1492,0,0
714,-468,0,0,0,0,0,0,0,0,0,-1,1938,1492,0,0
721,-468,0,0,0,0,0,0,0,0,0,-1,1945,1492,0,0
728,-468,0,0,0,0,0,0,0,0,0,-1,1952,1492,0,0
735,-468,0,0,0,0,0,0,0,0,0,-1,1959,1492,0,0
742,-468,0,0,0,0,0,0,0,0,0,-1,1966,1492,0,0
749,-468,0,0,0,0,0,0,0,0,0,-1,1973,1492,0,0
756,-468,0,0,0,0,0,0,0,0,0,-1,1980,1492,0,0
763,-468,0,0,0,0,0,0,0,0,0,-1,1987,1492,0,0
770,-468,0,0,0,0,0,0,0,0,0,-1,1994,1492,0,0
777,-468,0,0,0,0,0,0,0,0,0,-1,2001,1492,0,0
784,-468,0,0,0,0,0,0,0,0,0,-1,2008,1492,0,0
791,-468,0,0,0,0,0,0,0,0,0,-1,2015,1492,0,0
798,-468,0,0,0,0,0,0,0,0,0,-1,2022,1492,0,0
805,-468,0,0,0,0,0,0,0,0,0,-1,2029,1492,0,0
812,-468,0,0,0,0,0,0,0,0,0,-1,2036,1492,0,0
-700,-475,0,0,0,0,0,0,0,0,0,-1,524,1499,0,0
-693,-475,0,0,0,0,0,0,0,0,0,-1,531,1499,0,0
-686,-475,0,0,0,0,0,0,0,0,0,-1,538,1499,0,0
-679,-475,0,0,0,0,0,0,0,0,0,-1,545,1499,0,0
-672,-475,0,0,0,0,0,0,0,0,0,-1,552,1499,0,0
-665,-475,0,0,0,0,0,0,0,0,0,-1,559,1499,0,0
-658,-475,0,0,0,0,0,0,0,0,0,-1,566,1499,0,0
-651,-475,0,0,0,0,0,0,0,0,0,-1,573,1499,0,0
-644,-475,0,0,0,0,0,0,0,0,0,-1,580,1499,0,0
-637,-475,0,0,0,0,0,0,0,0,0,-1,587,1499,0,0
-630,-475,0,0,0,0,0,0,0,0,0,-1,594,1499,0,0
-623,-475,0,0,0,0,0,0,0,0,0,-1,601,1499,0,0
-616,-475,0,0,0,0,0,0,0,0,0,-1,608,1499,0,0
-609,-475,0,0,0,0,0,0,0,0,0,-1,615,1499,0,0
-602,-475,0,0,0,0,0,0,0,0,0,-1,622,1499,0,0
-595,-475,0,0,0,0,0,0,0,0,0,-1,629,1499,0,0
-588,-475,0,0,0,0,0,0,0,0,0,-1,636,1499,0,0
-581,-475,0,0,0,0,0,0,0,0,0,-1,643,1499,0,0
-574,-475,0,0,0,0,0,0,0,0,0,-1,650,1499,0,0
-567,-475,0,0,0,0,0,0,0,0,0,-1,657,1499,0,0
-560,-475,-9.42731,9.29517,0,0,0,0,0,0,0,-1,664,1499,-9.42731,-9.29519
-553,-475,-8.15131,8.78369,0,0,0,0,0,0,0,-1,671,1499,-8.15131,-8.78367
-546,-475,-8.41254,8.20654,0,0,0,0,0,0,0,-1,678,1499,-8.41251,-8.20655
-539,-475,-4.7345,4.17419,0,0,0,0,0,0,0,-1,685,1499,-4.73449,-4.17418
-532,-475,-7.07379,4.25024,0,0,0,0,0,0,0,-1,692,1499,-7.07378,-4.2503
-525,-475,-6.13147,5.82166,0,0,0,0,0,0,0,-1,699,1499,-6.1315,-5.8216
-518,-475,-7.28784,9.31506,0,0,0,0,0,0,0,-1,706,1499,-7.28782,-9.315
-511,-475,-6.84851,12.4244,0,0,0,0,0,0,0,-1,713,1499,-6.84851,-12.4244
-504,-475,-8.28845,15.3385,0,0,0,0,0,0,0,-1,720,1499,-8.28847,-15.3385
-497,-475,-8.31982,16.1343,0.00103454,-0.00113235,0.00164193,0.00191828,-0.00201608,0.49376,0.00227174,0.0453389,727,1499,-8.31981,-16.1343
-490,-475,-8.31702,16.6417,0.000388233,-0.0014408,0.000831547,0.000709762,-0.00176233,0.368958,0.00146976,0.0145785,734,1499,-8.31703,-16.6417
-483,-475,-8.31189,17.3055,0.000171586,-0.0013464,0.000425314,0.000282629,-0.00145744,0.255384,0.00107826,0.00936555,741,1499,-8.31189,-17.3055
-476,-475,-8.34149,17.9232,0.000189312,-0.000965342,0.000310218,0.00026738,-0.00104341,0.246534,0.000799773,0.0109385,748,1499,-8.34149,-17.9232
-469,-475,-8.36176,18.5441,0.00041674,-0.000335527,0.000445122,0.000623368,-0.000542154,0.434603,0.000673459,0.0130782,755,1499,-8.36178,-18.5441
-462,-475,-8.34204,19.1727,0.000805846,0.000483786,0.000765378,0.00142695,-0.000137318,0.681714,0.00100022,0.0178913,762,1499,-8.34201,-19.1727
-455,-475,-8.38098,19.8002,0.00134394,0.00147319,0.00125956,0.00266978,0.000147345,0.811029,0.00173283,0.0160106,769,1499,-8.38096,-19.8002
-448,-475,-8.44397,20.402,0.00215366,0.00278827,0.00205412,0.00454945,0.000392483,0.862029,0.00291097,0.013953,776,1499,-8.44395,-20.402
-441,-475,-8.46387,21.0079,0.0032317,0.00437763,0.00315849,0.0070147,0.000594629,0.875124,0.0044914,0.0159697,783,1499,-8.46389,-21.0079
-434,-475,-8.47833,21.6383,0.00457743,0.0064563,0.00462946,0.0102407,0.000793055,0.885502,0.00657872,0.011058,790,1499,-8.47834,-21.6383
-427,-475,-8.42908,22.3813,0.00619322,0.00870751,0.0063539,0.0139274,0.000973292,0.883064,0.00897813,0.0318722,797,1499,-8.42905,-22.3813
-420,-475,-8.33948,23.119,0,0,0,0,0,0,0,-1,804,1499,-8.33947,-23.1191
-413,-475,-6.46777,20.8481,0,0,0,0,0,0,0,-1,811,1499,-6.46776,-20.8481
-406,-475,-2.56116,12.4956,0,0,0,0,0,0,0,-1,818,1499,-2.56116,-12.4956
-399,-475,-1.39667,6.1615,0,0,0,0,0,0,0,-1,825,1499,-1.39664,-6.16155
-392,-475,0.217163,8.61389,0,0,0,0,0,0,0,-1,832,1499,0.217167,-8.6139
-385,-475,1.18372,2.73999,0,0,0,0,0,0,0,-1,839,1499,1.18372,-2.73995
-378,-475,1.31409,2.90149,0,0,0,0,0,0,0,-1,846,1499,1.31411,-2.90151
-371,-475,2.3476,3.31116,0,0,0,0,0,0,0,-1,853,1499,2.34761,-3.31121
-364,-475,1.04462,9.05823,0,0,0,0,0,0,0,-1,860,1499,1.04461,-9.05825
-357,-475,-0.262756,7.97205,0,0,0,0,0,0,0,-1,867,1499,-0.262784,-7.97205
-350,-475,-2.77173,4.35486,0,0,0,0,0,0,0,-1,874,1499,-2.77175,-4.35491
-343,-475,-6.38824,-1.48096,0,0,0,0,0,0,0,-1,881,1499,-6.38827,1.48097
-336,-475,0,0,0,0,0,0,0,0,0,-1,888,1499,0,0
-329,-475,0,0,0,0,0,0,0,0,0,-1,895,1499,0,0
-322,-475,0,0,0,0,0,0,0,0,0,-1,902,1499,0,0
-315,-475,0,0,0,0,0,0,0,0,0,-1,909,1499,0,0
-308,-475,0,0,0,0,0,0,0,0,0,-1,916,1499,0,0
-301,-475,0,0,0,0,0,0,0,0,0,-1,923,1499,0,0
-294,-475,0,0,0,0,0,0,0,0,0,-1,930,1499,0,0
-287,-475,0,0,0,0,0,0,0,0,0,-1,937,1499,0,0
-280,-475,0,0,0,0,0,0,0,0,0,-1,944,1499,0,0
-273,-475,0,0,0,0,0,0,0,0,0,-1,951,1499,0,0
-266,-475,0,0,0,0,0,0,0,0,0,-1,958,1499,0,0
-259,-475,0,0,0,0,0,0,0,0,0,-1,965,1499,0,0
-252,-475,0,0,0,0,0,0,0,0,0,-1,972,1499,0,0
-245,-475,0,0,0,0,0,0,0,0,0,-1,979,1499,0,0
-238,-475,0,0,0,0,0,0,0,0,0,-1,986,1499,0,0
-231,-475,0,0,0,0,0,0,0,0,0,-1,993,1499,0,0
-224,-475,0,0,0,0,0,0,0,0,0,-1,1000,1499,0,0
-217,-475,0,0,0,0,0,0,0,0,0,-1,1007,1499,0,0
-210,-475,0,0,0,0,0,0,0,0,0,-1,1014,1499,0,0
-203,-475,0,0,0,0,0,0,0,0,0,-1,1021,1499,0,0
-196,-475,0,0,0,0,0,0,0,0,0,-1,1028,1499,0,0
-189,-475,0,0,0,0,0,0,0,0,0,-1,1035,1499,0,0
-182,-475,0,0,0,0,0,0,0,0,0,-1,1042,1499,0,0
-175,-475,0,0,0,0,0,0,0,0,0,-1,1049,1499,0,0
-168,-475,0,0,0,0,0,0,0,0,0,-1,1056,1499,0,0
-161,-475,0,0,0,0,0,0,0,0,0,-1,1063,1499,0,0
-154,-475,0,0,0,0,0,0,0,0,0,-1,1070,1499,0,0
-147,-475,0,0,0,0,0,0,0,0,0,-1,1077,1499,0,0
-140,-475,0,0,0,0,0,0,0,0,0,-1,1084,1499,0,0
-133,-475,0,0,0,0,0,0,0,0,0,-1,1091,1499,0,0
-126,-475,0,0,0,0,0,0,0,0,0,-1,1098,1499,0,0
-119,-475,0,0,0,0,0,0,0,0,0,-1,1105,1499,0,0
-112,-475,0,0,0,0,0,0,0,0,0,-1,1112,1499,0,0
-105,-475,0,0,0,0,0,0,0,0,0,-1,1119,1499,0,0
-98,-475,0,0,0,0,0,0,0,0,0,-1,1126,1499,0,0
-91,-475,0,0,0,0,0,0,0,0,0,-1,1133,1499,0,0
-84,-475,0,0,0,0,0,0,0,0,0,-1,1140,1499,0,0
-77,-475,0,0,0,0,0,0,0,0,0,-1,1147,1499,0,0
-70,-475,0,0,0,0,0,0,0,0,0,-1,1154,1499,0,0
-63,-475,0,0,0,0,0,0,0,0,0,-1,1161,1499,0,0
-56,-475,0,0,0,0,0,0,0,0,0,-1,1168,1499,0,0
-49,-475,0,0,0,0,0,0,0,0,0,-1,1175,1499,0,0
-42,-475,0,0,0,0,0,0,0,0,0,-1,1182,1499,0,0
-35,-475,0,0,0,0,0,0,0,0,0,-1,1189,1499,0,0
-28,-475,0,0,0,0,0,0,0,0,0,-1,1196,1499,0,0
-21,-475,0,0,0,0,0,0,0,0,0,-1,1203,1499,0,0
-14,-475,0,0,0,0,0,0,0,0,0,-1,1210,1499,0,0
-7,-475,0,0,0,0,0,0,0,0,0,-1,1217,1499,0,0
0,-475,0,0,0,0,0,0,0,0,0,-1,1224,1499,0,0
7,-475,0,0,0,0,0,0,0,0,0,-1,1231,1499,0,0
14,-475,0,0,0,0,0,0,0,0,0,-1,1238,1499,0,0
21,-475,0,0,0,0,0,0,0,0,0,-1,1245,1499,0,0
28,-475,0,0,0,0,0,0,0,0,0,-1,1252,1499,0,0
35,-475,0,0,0,0,0,0,0,0,0,-1,1259,1499,0,0
42,-475,0,0,0,0,0,0,0,0,0,-1,1266,1499,0,0
49,-475,0,0,0,0,0,0,0,0,0,-1,1273,1499,0,0
56,-475,0,0,0,0,0,0,0,0,0,-1,1280,1499,0,0
63,-475,0,0,0,0,0,0,0,0,0,-1,1287,1499,0,0
70,-475,0,0,0,0,0,0,0,0,0,-1,1294,1499,0,0
77,-475,0,0,0,0,0,0,0,0,0,-1,1301,1499,0,0
84,-475,0,0,0,0,0,0,0,0,0,-1,1308,1499,0,0
91,-475,0,0,0,0,0,0,0,0,0,-1,1315,1499,0,0
98,-475,0,0,0,0,0,0,0,0,0,-1,1322,1499,0,0
105,-475,0,0,0,0,0,0,0,0,0,-1,1329,1499,0,0
112,-475,0,0,0,0,0,0,0,0,0,-1,1336,1499,0,0
119,-475,0,0,0,0,0,0,0,0,0,-1,1343,1499,0,0
126,-475,0,0,0,0,0,0,0,0,0,-1,1350,1499,0,0
133,-475,0,0,0,0,0,0,0,0,0,-1,1357,1499,0,0
140,-475,0,0,0,0,0,0,0,0,0,-1,1364,1499,0,0
147,-475,0,0,0,0,0,0,0,0,0,-1,1371,1499,0,0
154,-475,0,0,0,0,0,0,0,0,0,-1,1378,1499,0,0
161,-475,0,0,0,0,0,0,0,0,0,-1,1385,1499,0,0
168,-475,0,0,0,0,0,0,0,0,0,-1,1392,1499,0,0
175,-475,0,0,0,0,0,0,0,0,0,-1,1399,1499,0,0
182,-475,0,0,0,0,0,0,0,0,0,-1,1406,1499,0,0
189,-475,0,0,0,0,0,0,0,0,0,-1,1413,1499,0,0
196,-475,0,0,0,0,0,0,0,0,0,-1,1420,1499,0,0
203,-475,0,0,0,0,0,0,0,0,0,-1,1427,1499,0,0
210,-475,0,0,0,0,0,0,0,0,0,-1,1434,1499,0,0
217,-475,0,0,0,0,0,0,0,0,0,-1,1441,1499,0,0
224,-475,0,0,0,0,0,0,0,0,0,-1,1448,1499,0,0
231,-475,0,0,0,0,0,0,0,0,0,-1,1455,1499,0,0
238,-475,0,0,0,0,0,0,0,0,0,-1,1462,1499,0,0
245,-475,0,0,0,0,0,0,0,0,0,-1,1469,1499,0,0
252,-475,0,0,0,0,0,0,0,0,0,-1,1476,1499,0,0
259,-475,0,0,0,0,0,0,0,0,0,-1,1483,1499,0,0
266,-475,0,0,0,0,0,0,0,0,0,-1,1490,1499,0,0
273,-475,0,0,0,0,0,0,0,0,0,-1,1497,1499,0,0
280,-475,0,0,0,0,0,0,0,0,0,-1,1504,1499,0,0
287,-475,0,0,0,0,0,0,0,0,0,-1,1511,1499,0,0
294,-475,0,0,0,0,0,0,0,0,0,-1,1518,1499,0,0
301,-475,0,0,0,0,0,0,0,0,0,-1,1525,1499,0,0
308,-475,0,0,0,0,0,0,0,0,0,-1,1532,1499,0,0
315,-475,0,0,0,0,0,0,0,0,0,-1,1539,1499,0,0
322,-475,0,0,0,0,0,0,0,0,0,-1,1546,1499,0,0
329,-475,0,0,0,0,0,0,0,0,0,-1,1553,1499,0,0
336,-475,0,0,0,0,0,0,0,0,0,-1,1560,1499,0,0
343,-475,0,0,0,0,0,0,0,0,0,-1,1567,1499,0,0
350,-475,0,0,0,0,0,0,0,0,0,-1,1574,1499,0,0
357,-475,0,0,0,0,0,0,0,0,0,-1,1581,1499,0,0
364,-475,0,0,0,0,0,0,0,0,0,-1,1588,1499,0,0
371,-475,0,0,0,0,0,0,0,0,0,-1,1595,1499,0,0
378,-475,0,0,0,0,0,0,0,0,0,-1,1602,1499,0,0
385,-475,0,0,0,0,0,0,0,0,0,-1,1609,1499,0,0
392,-475,0,0,0,0,0,0,0,0,0,-1,1616,1499,0,0
399,-475,0,0,0,0,0,0,0,0,0,-1,1623,1499,0,0
406,-475,0,0,0,0,0,0,0,0,0,-1,1630,1499,0,0
413,-475,0,0,0,0,0,0,0,0,0,-1,1637,1499,0,0
420,-475,0,0,0,0,0,0,0,0,0,-1,1644,1499,0,0
427,-475,0,0,0,0,0,0,0,0,0,-1,1651,1499,0,0
434,-475,0,0,0,0,0,0,0,0,0,-1,1658,1499,0,0
441,-475,0,0,0,0,0,0,0,0,0,-1,1665,1499,0,0
448,-475,0,0,0,0,0,0,0,0,0,-1,1672,1499,0,0
455,-475,0,0,0,0,0,0,0,0,0,-1,1679,1499,0,0
462,-475,12.6372,0.275391,0,0,0,0,0,0,0,-1,1686,1499,12.6372,-0.27536
469,-475,15.6437,2.28296,0,0,0,0,0,0,0,-1,1693,1499,15.6437,-2.28293
476,-475,15.3302,2.71436,0,0,0,0,0,0,0,-1,1700,1499,15.3303,-2.7143
483,-475,10.7461,5.91479,0,0,0,0,0,0,0,-1,1707,1499,10.7461,-5.91476
490,-475,11.9305,4.4364,0,0,0,0,0,0,0,-1,1714,1499,11.9305,-4.43644
497,-475,15.3451,4.3479,0,0,0,0,0,0,0,-1,1721,1499,15.3451,-4.34789
504,-475,16.9646,7.71265,0,0,0,0,0,0,0,-1,1728,1499,16.9646,-7.71265
511,-475,18.941,12.7572,0,0,0,0,0,0,0,-1,1735,1499,18.941,-12.7572
518,-475,17.0021,13.8564,0,0,0,0,0,0,0,-1,1742,1499,17.0021,-13.8564
525,-475,17.5637,15.2103,0,0,0,0,0,0,0,-1,1749,1499,17.5637,-15.2103
532,-475,20.8623,20.8413,0,0,0,0,0,0,0,-1,1756,1499,20.8623,-20.8413
539,-475,20.5494,20.8519,0,0,0,0,0,0,0,-1,1763,1499,20.5494,-20.852
546,-475,20.4524,19.8799,0,0,0,0,0,0,0,-1,1770,1499,20.4524,-19.8798
553,-475,24.7335,24.1239,0,0,0,0,0,0,0,-1,1777,1499,24.7335,-24.1239
560,-475,24.8417,23.4774,0.00675973,0.00375298,-0.00296088,0.00857704,0.00193567,-0.550486,0.00519445,0.0298009,1784,1499,24.8417,-23.4774
567,-475,25.0087,22.7761,0.00534724,0.00275358,-0.00220144,0.00660543,0.00149539,-0.519221,0.00399945,0.0153859,1791,1499,25.0087,-22.7762
574,-475,24.9836,22.1777,0.00433946,0.00213587,-0.00182539,0.00536979,0.00110553,-0.513869,0.00327417,0.014769,1798,1499,24.9837,-22.1778
581,-475,24.9807,21.609,0.00353887,0.00164966,-0.00154047,0.00440129,0.000787245,-0.510367,0.00271016,0.0121281,1805,1499,24.9807,-21.609
588,-475,24.9509,21.0317,0.00298794,0.00122441,-0.0013451,0.00371453,0.000497824,-0.495267,0.00232822,0.0102423,1812,1499,24.9509,-21.0317
595,-475,24.9364,20.4341,0.00274179,0.000866558,-0.00119859,0.00332593,0.000282419,-0.453481,0.0021294,0.0115239,1819,1499,24.9364,-20.4341
602,-475,24.9139,19.8284,0.00263289,0.000576922,-0.00112334,0.00312762,8.21981e-05,-0.414846,0.00205823,0.0131244,1826,1499,24.914,-19.8283
609,-475,24.8749,19.2489,0.00268625,0.000374573,-0.00103245,0.00308022,-1.93978e-05,-0.364535,0.00205998,0.0121556,1833,1499,24.8749,-19.2489
616,-475,24.8279,18.6753,0.00293869,0.00017831,-0.000929091,0.00322227,-0.00010527,-0.296242,0.00218412,0.0115127,1840,1499,24.8279,-18.6753
623,-475,24.8395,18.0647,0.00341534,-9.31179e-05,-0.000772137,0.00357775,-0.00025553,-0.207319,0.00247475,0.0108901,1847,1499,24.8394,-18.0647
630,-475,24.8473,17.4647,0.00405296,-0.000150852,-0.000605881,0.00413854,-0.000236433,-0.140323,0.00284112,0.0129075,1854,1499,24.8473,-17.4647
637,-475,24.8094,16.9049,0.00483547,-0.000227864,-0.000418777,0.00486987,-0.000262266,-0.0819655,0.00333744,0.0242129,1861,1499,24.8095,-16.9049
644,-475,24.76,16.3424,0,0,0,0,0,0,0,-1,1868,1499,24.7601,-16.3424
651,-475,11.7965,7.57593,0,0,0,0,0,0,0,-1,1875,1499,11.7965,-7.5759
658,-475,14.6708,8.80322,0,0,0,0,0,0,0,-1,1882,1499,14.6708,-8.8032
665,-475,9.33435,5.43335,0,0,0,0,0,0,0,-1,1889,1499,9.33439,-5.43332
672,-475,9.38635,1.10474,0,0,0,0,0,0,0,-1,1896,1499,9.38629,-1.10475
679,-475,12.2594,1.31079,0,0,0,0,0,0,0,-1,1903,1499,12.2594,-1.31077
686,-475,0,0,0,0,0,0,0,0,0,-1,1910,1499,0,0
693,-475,0,0,0,0,0,0,0,0,0,-1,1917,1499,0,0
700,-475,0,0,0,0,0,0,0,0,0,-1,1924,1499,0,0
707,-475,0,0,0,0,0,0,0,0,0,-1,1931,1499,0,0
714,-475,0,0,0,0,0,0,0,0,0,-1,1938,1499,0,0
721,-475,0,0,0,0,0,0,0,0,0,-1,1945,1499,0,0
728,-475,0,0,0,0,0,0,0,0,0,-1,1952,1499,0,0
735,-475,0,0,0,0,0,0,0,0,0,-1,1959,1499,0,0
742,-475,0,0,0,0,0,0,0,0,0,-1,1966,1499,0,0
749,-475,0,0,0,0,0,0,0,0,0,-1,1973,1499,0,0
756,-475,0,0,0,0,0,0,0,0,0,-1,1980,1499,0,0
763,-475,0,0,0,0,0,0,0,0,0,-1,1987,1499,0,0
770,-475,0,0,0,0,0,0,0,0,0,-1,1994,1499,0,0
777,-475,0,0,0,0,0,0,0,0,0,-1,2001,1499,0,0
784,-475,0,0,0,0,0,0,0,0,0,-1,2008,1499,0,0
791,-475,0,0,0,0,0,0,0,0,0,-1,2015,1499,0,0
798,-475,0,0,0,0,0,0,0,0,0,-1,2022,1499,0,0
805,-475,0,0,0,0,0,0,0,0,0,-1,2029,1499,0,0
812,-475,0,0,0,0,0,0,0,0,0,-1,2036,1499,0,0
-700,-482,0,0,0,0,0,0,0,0,0,-1,524,1506,0,0
-693,-482,0,0,0,0,0,0,0,0,0,-1,531,1506,0,0
-686,-482,0,0,0,0,0,0,0,0,0,-1,538,1506,0,0
-679,-482,0,0,0,0,0,0,0,0,0,-1,545,1506,0,0
-672,-482,0,0,0,0,0,0,0,0,0,-1,552,1506,0,0
-665,-482,0,0,0,0,0,0,0,0,0,-1,559,1506,0,0
-658,-482,0,0,0,0,0,0,0,0,0,-1,566,1506,0,0
-651,-482,0,0,0,0,0,0,0,0,0,-1,573,1506,0,0
-644,-482,0,0,0,0,0,0,0,0,0,-1,580,1506,0,0
-637,-482,0,0,0,0,0,0,0,0,0,-1,587,1506,0,0
-630,-482,0,0,0,0,0,0,0,0,0,-1,594,1506,0,0
-623,-482,0,0,0,0,0,0,0,0,0,-1,601,1506,0,0
-616,-482,0,0,0,0,0,0,0,0,0,-1,608,1506,0,0
-609,-482,0,0,0,0,0,0,0,0,0,-1,615,1506,0,0
-602,-482,0,0,0,0,0,0,0,0,0,-1,622,1506,0,0
-595,-482,0,0,0,0,0,0,0,0,0,-1,629,1506,0,0
-588,-482,0,0,0,0,0,0,0,0,0,-1,636,1506,0,0
-581,-482,0,0,0,0,0,0,0,0,0,-1,643,1506,0,0
-574,-482,0,0,0,0,0,0,0,0,0,-1,650,1506,0,0
-567,-482,0,0,0,0,0,0,0,0,0,-1,657,1506,0,0
-560,-482,0,0,0,0,0,0,0,0,0,-1,664,1506,0,0
-553,-482,-9.06055,9.34314,0,0,0,0,0,0,0,-1,671,1506,-9.06056,-9.34312
-546,-482,-4.08624,8.34241,0,0,0,0,0,0,0,-1,678,1506,-4.08624,-8.3424
-539,-482,-4.29877,2.73499,0,0,0,0,0,0,0,-1,685,1506,-4.29879,-2.73494
-532,-482,-3.63611,4.23987,0,0,0,0,0,0,0,-1,692,1506,-3.63609,-4.23983
-525,-482,-6.19116,5.24927,0,0,0,0,0,0,0,-1,699,1506,-6.19117,-5.24927
-518,-482,-5.92957,6.39807,0,0,0,0,0,0,0,-1,706,1506,-5.92958,-6.39806
-511,-482,-7.74634,11.9137,0,0,0,0,0,0,0,-1,713,1506,-7.74633,-11.9137
-504,-482,-6.42358,13.4211,0,0,0,0,0,0,0,-1,720,1506,-6.42356,-13.4212
-497,-482,-7.79962,15.8136,0,0,0,0,0,0,0,-1,727,1506,-7.79962,-15.8136
-490,-482,-7.75983,16.6039,-0.000489549,-0.00257953,0.000378414,-0.000423144,-0.00264594,0.173716,0.0016412,0.0433592,734,1506,-7.75983,-16.6039
-483,-482,-7.70502,17.3167,-0.000584999,-0.00239015,2.09019e-05,-0.000584757,-0.00239039,0.011577,0.00143884,0.0105003,741,1506,-7.70499,-17.3167
-476,-482,-7.7171,17.9567,-0.000476519,-0.00192651,-7.04702e-05,-0.000473102,-0.00192993,-0.0484482,0.00116149,0.010267,748,1506,-7.71713,-17.9566
-469,-482,-7.74969,18.5909,-0.000173044,-0.00123634,0.000106062,-0.000162567,-0.00124681,0.0984563,0.000782669,0.0117772,755,1506,-7.74972,-18.5909
-462,-482,-7.76831,19.2032,0.000266106,-0.000365122,0.000436797,0.000489383,-0.000588399,0.472543,0.000623132,0.0126454,762,1506,-7.7683,-19.2033
-455,-482,-7.79108,19.7898,0.000825408,0.000648754,0.000909212,0.00165057,-0.000176411,0.736977,0.00116365,0.0136608,769,1506,-7.79106,-19.7898
-448,-482,-7.81555,20.4178,0.00161948,0.00193973,0.00163312,0.00342056,0.000138655,0.834265,0.00223559,0.0145306,776,1506,-7.81553,-20.4178
-441,-482,-7.83966,21.0454,0.00264433,0.00351093,0.00264941,0.00576224,0.000393024,0.866453,0.00371742,0.0127406,783,1506,-7.83965,-21.0454
-434,-482,-7.86292,21.6758,0.00387348,0.00546968,0.00396328,0.00871442,0.000628741,0.884757,0.00561178,0.0144607,790,1506,-7.86293,-21.6758
-427,-482,-7.89929,22.3326,0.00535971,0.00754415,0.00547736,0.0120371,0.000866735,0.883811,0.00775201,0.0189697,797,1506,-7.89932,-22.3326
-420,-482,-7.97571,23.0256,0,0,0,0,0,0,0,-1,804,1506,-7.97569,-23.0256
-413,-482,-6.56415,22.3163,0,0,0,0,0,0,0,-1,811,1506,-6.56417,-22.3163
-406,-482,-2.51373,12.7556,0,0,0,0,0,0,0,-1,818,1506,-2.51376,-12.7556
-399,-482,-1.3822,9.22595,0,0,0,0,0,0,0,-1,825,1506,-1.38221,-9.22598
-392,-482,-1.06836,9.22729,0,0,0,0,0,0,0,-1,832,1506,-1.06835,-9.2273
-385,-482,0.0647583,8.90649,0,0,0,0,0,0,0,-1,839,1506,0.0647778,-8.90644
-378,-482,0.215698,5.96948,0,0,0,0,0,0,0,-1,846,1506,0.215681,-5.9695
-371,-482,-0.10907,8.10437,0,0,0,0,0,0,0,-1,853,1506,-0.109063,-8.10433
-364,-482,-0.154968,10.5032,0,0,0,0,0,0,0,-1,860,1506,-0.154976,-10.5032
-357,-482,2.14807,4.60144,0,0,0,0,0,0,0,-1,867,1506,2.14807,-4.60144
-350,-482,-7.5813,-1.45935,0,0,0,0,0,0,0,-1,874,1506,-7.58133,1.45937
-343,-482,-7.19983,-1.26416,0,0,0,0,0,0,0,-1,881,1506,-7.19981,1.26414
-336,-482,-4.63293,0.319946,0,0,0,0,0,0,0,-1,888,1506,-4.63292,-0.319896
-329,-482,0,0,0,0,0,0,0,0,0,-1,895,1506,0,0
-322,-482,0,0,0,0,0,0,0,0,0,-1,902,1506,0,0
-315,-482,0,0,0,0,0,0,0,0,0,-1,909,1506,0,0
-308,-482,0,0,0,0,0,0,0,0,0,-1,916,1506,0,0
-301,-482,0,0,0,0,0,0,0,0,0,-1,923,1506,0,0
-294,-482,0,0,0,0,0,0,0,0,0,-1,930,1506,0,0
-287,-482,0,0,0,0,0,0,0,0,0,-1,937,1506,0,0
-280,-482,0,0,0,0,0,0,0,0,0,-1,944,1506,0,0
-273,-482,0,0,0,0,0,0,0,0,0,-1,951,1506,0,0
-266,-482,0,0,0,0,0,0,0,0,0,-1,958,1506,0,0
-259,-482,0,0,0,0,0,0,0,0,0,-1,965,1506,0,0
-252,-482,0,0,0,0,0,0,0,0,0,-1,972,1506,0,0
-245,-482,0,0,0,0,0,0,0,0,0,-1,979,1506,0,0
-238,-482,0,0,0,0,0,0,0,0,0,-1,986,1506,0,0
-231,-482,0,0,0,0,0,0,0,0,0,-1,993,1506,0,0
-224,-482,0,0,0,0,0,0,0,0,0,-1,1000,1506,0,0
-217,-482,0,0,0,0,0,0,0,0,0,-1,1007,1506,0,0
-210,-482,0,0,0,0,0,0,0,0,0,-1,1014,1506,0,0
-203,-482,0,0,0,0,0,0,0,0,0,-1,1021,1506,0,0
-196,-482,0,0,0,0,0,0,0,0,0,-1,1028,1506,0,0
-189,-482,0,0,0,0,0,0,0,0,0,-1,1035,1506,0,0
-182,-482,0,0,0,0,0,0,0,0,0,-1,1042,1506,0,0
-175,-482,0,0,0,0,0,0,0,0,0,-1,1049,1506,0,0
-168,-482,0,0,0,0,0,0,0,0,0,-1,1056,1506,0,0
-161,-482,0,0,0,0,0,0,0,0,0,-1,1063,1506,0,0
-154,-482,0,0,0,0,0,0,0,0,0,-1,1070,1506,0,0
-147,-482,0,0,0,0,0,0,0,0,0,-1,1077,1506,0,0
-140,-482,0,0,0,0,0,0,0,0,0,-1,1084,1506,0,0
-133,-482,0,0,0,0,0,0,0,0,0,-1,1091,1506,0,0
-126,-482,0,0,0,0,0,0,0,0,0,-1,1098,1506,0,0
-119,-482,0,0,0,0,0,0,0,0,0,-1,1105,1506,0,0
-112,-482,0,0,0,0,0,0,0,0,0,-1,1112,1506,0,0
-105,-482,0,0,0,0,0,0,0,0,0,-1,1119,1506,0,0
-98,-482,0,0,0,0,0,0,0,0,0,-1,1126,1506,0,0
-91,-482,0,0,0,0,0,0,0,0,0,-1,1133,1506,0,0
-84,-482,0,0,0,0,0,0,0,0,0,-1,1140,1506,0,0
-77,-482,0,0,0,0,0,0,0,0,0,-1,1147,1506,0,0
-70,-482,0,0,0,0,0,0,0,0,0,-1,1154,1506,0,0
-63,-482,0,0,0,0,0,0,0,0,0,-1,1161,1506,0,0
-56,-482,0,0,0,0,0,0,0,0,0,-1,1168,1506,0,0
-49,-482,0,0,0,0,0,0,0,0,0,-1,1175,1506,0,0
-42,-482,0,0,0,0,0,0,0,0,0,-1,1182,1506,0,0
-35,-482,0,0,0,0,0,0,0,0,0,-1,1189,1506,0,0
-28,-482,0,0,0,0,0,0,0,0,0,-1,1196,1506,0,0
-21,-482,0,0,0,0,0,0,0,0,0,-1,1203,1506,0,0
-14,-482,0,0,0,0,0,0,0,0,0,-1,1210,1506,0,0
-7,-482,0,0,0,0,0,0,0,0,0,-1,1217,1506,0,0
0,-482,0,0,0,0,0,0,0,0,0,-1,1224,1506,0,0
7,-482,0,0,0,0,0,0,0,0,0,-1,1231,1506,0,0
14,-482,0,0,0,0,0,0,0,0,0,-1,1238,1506,0,0
21,-482,0,0,0,0,0,0,0,0,0,-1,1245,1506,0,0
28,-482,0,0,0,0,0,0,0,0,0,-1,1252,1506,0,0
35,-482,0,0,0,0,0,0,0,0,0,-1,1259,1506,0,0
42,-482,0,0,0,0,0,0,0,0,0,-1,1266,1506,0,0
49,-482,0,0,0,0,0,0,0,0,0,-1,1273,1506,0,0
56,-482,0,0,0,0,0,0,0,0,0,-1,1280,1506,0,0
63,-482,0,0,0,0,0,0,0,0,0,-1,1287,1506,0,0
70,-482,0,0,0,0,0,0,0,0,0,-1,1294,1506,0,0
77,-482,0,0,0,0,0,0,0,0,0,-1,1301,1506,0,0
84,-482,0,0,0,0,0,0,0,0,0,-1,1308,1506,0,0
91,-482,0,0,0,0,0,0,0,0,0,-1,1315,1506,0,0
98,-482,0,0,0,0,0,0,0,0,0,-1,1322,1506,0,0
105,-482,0,0,0,0,0,0,0,0,0,-1,1329,1506,0,0
112,-482,0,0,0,0,0,0,0,0,0,-1,1336,1506,0,0
119,-482,0,0,0,0,0,0,0,0,0,-1,1343,1506,0,0
126,-482,0,0,0,0,0,0,0,0,0,-1,1350,1506,0,0
133,-482,0,0,0,0,0,0,0,0,0,-1,1357,1506,0,0
140,-482,0,0,0,0,0,0,0,0,0,-1,1364,1506,0,0
147,-482,0,0,0,0,0,0,0,0,0,-1,1371,1506,0,0
154,-482,0,0,0,0,0,0,0,0,0,-1,1378,1506,0,0
161,-482,0,0,0,0,0,0,0,0,0,-1,1385,1506,0,0
168,-482,0,0,0,0,0,0,0,0,0,-1,1392,1506,0,0
175,-482,0,0,0,0,0,0,0,0,0,-1,1399,1506,0,0
182,-482,0,0,0,0,0,0,0,0,0,-1,1406,1506,0,0
189,-482,0,0,0,0,0,0,0,0,0,-1,1413,1506,0,0
196,-482,0,0,0,0,0,0,0,0,0,-1,1420,1506,0,0
203,-482,0,0,0,0,0,0,0,0,0,-1,1427,1506,0,0
210,-482,0,0,0,0,0,0,0,0,0,-1,1434,1506,0,0
217,-482,0,0,0,0,0,0,0,0,0,-1,1441,1506,0,0
224,-482,0,0,0,0,0,0,0,0,0,-1,1448,1506,0,0
231,-482,0,0,0,0,0,0,0,0,0,-1,1455,1506,0,0
238,-482,0,0,0,0,0,0,0,0,0,-1,1462,1506,0,0
245,-482,0,0,0,0,0,0,0,0,0,-1,1469,1506,0,0
252,-482,0,0,0,0,0,0,0,0,0,-1,1476,1506,0,0
259,-482,0,0,0,0,0,0,0,0,0,-1,1483,1506,0,0
266,-482,0,0,0,0,0,0,0,0,0,-1,1490,1506,0,0
273,-482,0,0,0,0,0,0,0,0,0,-1,1497,1506,0,0
280,-482,0,0,0,0,0,0,0,0,0,-1,1504,1506,0,0
287,-482,0,0,0,0,0,0,0,0,0,-1,1511,1506,0,0
294,-482,0,0,0,0,0,0,0,0,0,-1,1518,1506,0,0
301,-482,0,0,0,0,0,0,0,0,0,-1,1525,1506,0,0
308,-482,0,0,0,0,0,0,0,0,0,-1,1532,1506,0,0
315,-482,0,0,0,0,0,0,0,0,0,-1,1539,1506,0,0
322,-482,0,0,0,0,0,0,0,0,0,-1,1546,1506,0,0
329,-482,0,0,0,0,0,0,0,0,0,-1,1553,1506,0,0
336,-482,0,0,0,0,0,0,0,0,0,-1,1560,1506,0,0
343,-482,0,0,0,0,0,0,0,0,0,-1,1567,1506,0,0
350,-482,0,0,0,0,0,0,0,0,0,-1,1574,1506,0,0
357,-482,0,0,0,0,0,0,0,0,0,-1,1581,1506,0,0
364,-482,0,0,0,0,0,0,0,0,0,-1,1588,1506,0,0
371,-482,0,0,0,0,0,0,0,0,0,-1,1595,1506,0,0
378,-482,0,0,0,0,0,0,0,0,0,-1,1602,1506,0,0
385,-482,0,0,0,0,0,0,0,0,0,-1,1609,1506,0,0
392,-482,0,0,0,0,0,0,0,0,0,-1,1616,1506,0,0
399,-482,0,0,0,0,0,0,0,0,0,-1,1623,1506,0,0
406,-482,0,0,0,0,0,0,0,0,0,-1,1630,1506,0,0
413,-482,0,0,0,0,0,0,0,0,0,-1,1637,1506,0,0
420,-482,0,0,0,0,0,0,0,0,0,-1,1644,1506,0,0
427,-482,0,0,0,0,0,0,0,0,0,-1,1651,1506,0,0
434,-482,0,0,0,0,0,0,0,0,0,-1,1658,1506,0,0
441,-482,0,0,0,0,0,0,0,0,0,-1,1665,1506,0,0
448,-482,4.24146,1.55383,0,0,0,0,0,0,0,-1,1672,1506,4.24149,-1.55381
455,-482,12.4122,1.09729,0,0,0,0,0,0,0,-1,1679,1506,12.4122,-1.09734
462,-482,15.0673,3.13135,0,0,0,0,0,0,0,-1,1686,1506,15.0672,-3.13134
469,-482,15.3793,3.46301,0,0,0,0,0,0,0,-1,1693,1506,15.3793,-3.46307
476,-482,8.69751,9.18738,0,0,0,0,0,0,0,-1,1700,1506,8.69753,-9.18739
483,-482,10.0902,7.17432,0,0,0,0,0,0,0,-1,1707,1506,10.0902,-7.1743
490,-482,11.6289,5.4928,0,0,0,0,0,0,0,-1,1714,1506,11.6289,-5.49283
497,-482,15.9539,7.40222,0,0,0,0,0,0,0,-1,1721,1506,15.9538,-7.40219
504,-482,20.4233,12.006,0,0,0,0,0,0,0,-1,1728,1506,20.4233,-12.006
511,-482,18.4937,12.9175,0,0,0,0,0,0,0,-1,1735,1506,18.4936,-12.9174
518,-482,16.6002,13.9679,0,0,0,0,0,0,0,-1,1742,1506,16.6003,-13.9679
525,-482,18.495,15.9618,0,0,0,0,0,0,0,-1,1749,1506,18.495,-15.9618
532,-482,19.9375,21.0775,0,0,0,0,0,0,0,-1,1756,1506,19.9375,-21.0775
539,-482,20.2291,20.5577,0,0,0,0,0,0,0,-1,1763,1506,20.2291,-20.5578
546,-482,24.3792,24.8668,0,0,0,0,0,0,0,-1,1770,1506,24.3791,-24.8668
553,-482,24.3318,24.0497,0,0,0,0,0,0,0,-1,1777,1506,24.3317,-24.0497
560,-482,24.3621,23.3934,0.00579078,0.00329809,-0.0026538,0.00747633,0.00161254,-0.565862,0.00454312,0.0156818,1784,1506,24.3621,-23.3934
567,-482,24.4358,22.7999,0.0046373,0.00241684,-0.00198563,0.005802,0.00125214,-0.530485,0.00352554,0.0152897,1791,1506,24.4358,-22.7999
574,-482,24.4167,22.2356,0.00384873,0.0018656,-0.00164886,0.00478121,0.000933117,-0.514687,0.00292645,0.0146629,1798,1506,24.4167,-22.2356
581,-482,24.375,21.6382,0.00323326,0.00142759,-0.00141138,0.00400587,0.000654986,-0.500854,0.00248124,0.010353,1805,1506,24.375,-21.6381
588,-482,24.3433,21.0359,0.00286204,0.00107012,-0.00129114,0.00353764,0.000394527,-0.482079,0.00223854,0.0104185,1812,1506,24.3433,-21.0359
595,-482,24.3396,20.4475,0.00280512,0.000791153,-0.0012354,0.00339194,0.000204326,-0.443456,0.00219636,0.0162628,1819,1506,24.3396,-20.4476
602,-482,24.3351,19.8579,0.00287,0.000592106,-0.0012673,0.00343494,2.71623e-05,-0.419344,0.00228096,0.0210057,1826,1506,24.335,-19.858
609,-482,24.3069,19.2819,0.00308308,0.000456217,-0.0012785,0.00360258,-6.32873e-05,-0.38596,0.00242309,0.0163635,1833,1506,24.3069,-19.2819
616,-482,24.2517,18.6992,0.00355064,0.000261605,-0.00124504,0.00396878,-0.000156537,-0.32401,0.00269955,0.0115584,1840,1506,24.2517,-18.6992
623,-482,24.2295,18.1075,0.00422524,-4.49371e-05,-0.00112996,0.00450582,-0.000325509,-0.24338,0.00311805,0.0172283,1847,1506,24.2295,-18.1076
630,-482,24.2267,17.5654,0.00500061,-8.82022e-05,-0.000964198,0.00517717,-0.000264767,-0.181114,0.003543,0.0380257,1854,1506,24.2267,-17.5654
637,-482,24.2488,16.9323,0,0,0,0,0,0,0,-1,1861,1506,24.2488,-16.9323
644,-482,17.5909,11.6163,0,0,0,0,0,0,0,-1,1868,1506,17.5909,-11.6163
651,-482,4.03845,7.05273,0,0,0,0,0,0,0,-1,1875,1506,4.03843,-7.05279
658,-482,10.0278,5.87903,0,0,0,0,0,0,0,-1,1882,1506,10.0279,-5.87902
665,-482,8.15198,3.22229,0,0,0,0,0,0,0,-1,1889,1506,8.15199,-3.22232
672,-482,9.87415,1.3147,0,0,0,0,0,0,0,-1,1896,1506,9.87416,-1.31473
679,-482,0,0,0,0,0,0,0,0,0,-1,1903,1506,0,0
686,-482,0,0,0,0,0,0,0,0,0,-1,1910,1506,0,0
693,-482,0,0,0,0,0,0,0,0,0,-1,1917,1506,0,0
700,-482,0,0,0,0,0,0,0,0,0,-1,1924,1506,0,0
707,-482,0,0,0,0,0,0,0,0,0,-1,1931,1506,0,0
714,-482,0,0,0,0,0,0,0,0,0,-1,1938,1506,0,0
721,-482,0,0,0,0,0,0,0,0,0,-1,1945,1506,0,0
728,-482,0,0,0,0,0,0,0,0,0,-1,1952,1506,0,0
735,-482,0,0,0,0,0,0,0,0,0,-1,1959,1506,0,0
742,-482,0,0,0,0,0,0,0,0,0,-1,1966,1506,0,0
749,-482,0,0,0,0,0,0,0,0,0,-1,1973,1506,0,0
756,-482,0,0,0,0,0,0,0,0,0,-1,1980,1506,0,0
763,-482,0,0,0,0,0,0,0,0,0,-1,1987,1506,0,0
770,-482,0,0,0,0,0,0,0,0,0,-1,1994,1506,0,0
777,-482,0,0,0,0,0,0,0,0,0,-1,2001,1506,0,0
784,-482,0,0,0,0,0,0,0,0,0,-1,2008,1506,0,0
791,-482,0,0,0,0,0,0,0,0,0,-1,2015,1506,0,0
798,-482,0,0,0,0,0,0,0,0,0,-1,2022,1506,0,0
805,-482,0,0,0,0,0,0,0,0,0,-1,2029,1506,0,0
812,-482,0,0,0,0,0,0,0,0,0,-1,2036,1506,0,0
-700,-489,0,0,0,0,0,0,0,0,0,-1,524,1513,0,0
-693,-489,0,0,0,0,0,0,0,0,0,-1,531,1513,0,0
-686,-489,0,0,0,0,0,0,0,0,0,-1,538,1513,0,0
-679,-489,0,0,0,0,0,0,0,0,0,-1,545,1513,0,0
-672,-489,0,0,0,0,0,0,0,0,0,-1,552,1513,0,0
-665,-489,0,0,0,0,0,0,0,0,0,-1,559,1513,0,0
-658,-489,0,0,0,0,0,0,0,0,0,-1,566,1513,0,0
-651,-489,0,0,0,0,0,0,0,0,0,-1,573,1513,0,0
-644,-489,0,0,0,0,0,0,0,0,0,-1,580,1513,0,0
-637,-489,0,0,0,0,0,0,0,0,0,-1,587,1513,0,0
-630,-489,0,0,0,0,0,0,0,0,0,-1,594,1513,0,0
-623,-489,0,0,0,0,0,0,0,0,0,-1,601,1513,0,0
-616,-489,0,0,0,0,0,0,0,0,0,-1,608,1513,0,0
-609,-489,0,0,0,0,0,0,0,0,0,-1,615,1513,0,0
-602,-489,0,0,0,0,0,0,0,0,0,-1,622,1513,0,0
-595,-489,0,0,0,0,0,0,0,0,0,-1,629,1513,0,0
-588,-489,0,0,0,0,0,0,0,0,0,-1,636,1513,0,0
-581,-489,0,0,0,0,0,0,0,0,0,-1,643,1513,0,0
-574,-489,0,0,0,0,0,0,0,0,0,-1,650,1513,0,0
-567,-489,0,0,0,0,0,0,0,0,0,-1,657,1513,0,0
-560,-489,0,0,0,0,0,0,0,0,0,-1,664,1513,0,0
-553,-489,-9.42206,8.5116,0,0,0,0,0,0,0,-1,671,1513,-9.42205,-8.51158
-546,-489,-7.80951,8.18506,0,0,0,0,0,0,0,-1,678,1513,-7.8095,-8.18503
-539,-489,-3.06879,2.82349,0,0,0,0,0,0,0,-1,685,1513,-3.06881,-2.82354
-532,-489,-3.14215,2.5835,0,0,0,0,0,0,0,-1,692,1513,-3.14213,-2.58353
-525,-489,-2.604,4.06274,0,0,0,0,0,0,0,-1,699,1513,-2.60399,-4.06274
-518,-489,-5.43774,7.48059,0,0,0,0,0,0,0,-1,706,1513,-5.43777,-7.48058
-511,-489,-7.52856,10.951,0,0,0,0,0,0,0,-1,713,1513,-7.52857,-10.951
-504,-489,-7.17352,12.8508,0,0,0,0,0,0,0,-1,720,1513,-7.17352,-12.8508
-497,-489,-5.51678,14.9254,0,0,0,0,0,0,0,-1,727,1513,-5.51681,-14.9254
-490,-489,-7.1405,16.3639,0,0,0,0,0,0,0,-1,734,1513,-7.14053,-16.3638
-483,-489,-7.12183,17.2638,-0.00159245,-0.0036782,-0.000489479,-0.00148329,-0.00378736,-0.219416,0.00220368,0.0236761,741,1513,-7.1218,-17.2638
-476,-489,-7.11322,17.9753,-0.00135563,-0.00309579,-0.000552498,-0.00119503,-0.00325639,-0.282877,0.00190212,0.0103648,748,1513,-7.11319,-17.9753
-469,-489,-7.12915,18.6099,-0.000958272,-0.00233337,-0.000337547,-0.000879882,-0.00241176,-0.228188,0.00140929,0.0105862,755,1513,-7.12916,-18.6098
-462,-489,-7.15424,19.2101,-0.000449416,-0.00137914,8.33481e-06,-0.000449341,-0.00137922,0.00896384,0.000812242,0.0154827,762,1513,-7.15424,-19.21
-455,-489,-7.16864,19.8231,0.000158174,-0.000315746,0.000468401,0.000446142,-0.000603714,0.551224,0.000608406,0.0209213,769,1513,-7.16866,-19.8231
-448,-489,-7.21564,20.458,0.00096157,0.000962828,0.00113517,0.00209737,-0.000172975,0.785675,0.00145933,0.0192292,776,1513,-7.21566,-20.458
-441,-489,-7.23761,21.0969,0.00196564,0.00250637,0.00207815,0.00433167,0.000140342,0.850084,0.00284215,0.0154263,783,1513,-7.23761,-21.0969
-434,-489,-7.28479,21.7214,0.00312913,0.00435738,0.00326715,0.00706763,0.000418891,0.878299,0.00457851,0.016722,790,1513,-7.28482,-21.7215
-427,-489,-7.32928,22.3397,0.00452273,0.00627895,0.00461884,0.0101024,0.000699265,0.879334,0.00651437,0.0184943,797,1513,-7.32926,-22.3397
-420,-489,-7.36255,23.0933,0.00603357,0.00885396,0.0063108,0.0139102,0.000977331,0.895321,0.00896547,0.0260146,804,1513,-7.36257,-23.0932
-413,-489,-7.2865,23.9166,0,0,0,0,0,0,0,-1,811,1513,-7.28651,-23.9167
-406,-489,-3.10559,15.8143,0,0,0,0,0,0,0,-1,818,1513,-3.10556,-15.8143
-399,-489,-1.41241,9.10718,0,0,0,0,0,0,0,-1,825,1513,-1.41244,-9.10722
-392,-489,-1.0368,9.30469,0,0,0,0,0,0,0,-1,832,1513,-1.03682,-9.30466
-385,-489,-1.75165,10.6559,0,0,0,0,0,0,0,-1,839,1513,-1.75165,-10.6559
-378,-489,-0.401428,9.87048,0,0,0,0,0,0,0,-1,846,1513,-0.401415,-9.87047
-371,-489,-1.11633,10.6606,0,0,0,0,0,0,0,-1,853,1513,-1.11633,-10.6606
-364,-489,-0.503113,8.98486,0,0,0,0,0,0,0,-1,860,1513,-0.503097,-8.98482
-357,-489,-0.609924,10.9606,0,0,0,0,0,0,0,-1,867,1513,-0.609947,-10.9605
-350,-489,-7.94659,-0.358887,0,0,0,0,0,0,0,-1,874,1513,-7.94657,0.358912
-343,-489,-7.49323,-0.437866,0,0,0,0,0,0,0,-1,881,1513,-7.49322,0.437823
-336,-489,-7.02332,-0.53125,0,0,0,0,0,0,0,-1,888,1513,-7.0233,0.531295
-329,-489,-12.7423,4.73523,0,0,0,0,0,0,0,-1,895,1513,-12.7423,-4.73521
-322,-489,0,0,0,0,0,0,0,0,0,-1,902,1513,0,0
-315,-489,0,0,0,0,0,0,0,0,0,-1,909,1513,0,0
-308,-489,0,0,0,0,0,0,0,0,0,-1,916,1513,0,0
-301,-489,0,0,0,0,0,0,0,0,0,-1,923,1513,0,0
-294,-489,0,0,0,0,0,0,0,0,0,-1,930,1513,0,0
-287,-489,0,0,0,0,0,0,0,0,0,-1,937,1513,0,0
-280,-489,0,0,0,0,0,0,0,0,0,-1,944,1513,0,0
-273,-489,0,0,0,0,0,0,0,0,0,-1,951,1513,0,0
-266,-489,0,0,0,0,0,0,0,0,0,-1,958,1513,0,0
-259,-489,0,0,0,0,0,0,0,0,0,-1,965,1513,0,0
-252,-489,0,0,0,0,0,0,0,0,0,-1,972,1513,0,0
-245,-489,0,0,0,0,0,0,0,0,0,-1,979,1513,0,0
-238,-489,0,0,0,0,0,0,0,0,0,-1,986,1513,0,0
-231,-489,0,0,0,0,0,0,0,0,0,-1,993,1513,0,0
-224,-489,0,0,0,0,0,0,0,0,0,-1,1000,1513,0,0
-217,-489,0,0,0,0,0,0,0,0,0,-1,1007,1513,0,0
-210,-489,0,0,0,0,0,0,0,0,0,-1,1014,1513,0,0
-203,-489,0,0,0,0,0,0,0,0,0,-1,1021,1513,0,0
-196,-489,0,0,0,0,0,0,0,0,0,-1,1028,1513,0,0
-189,-489,0,0,0,0,0,0,0,0,0,-1,1035,1513,0,0
-182,-489,0,0,0,0,0,0,0,0,0,-1,1042,1513,0,0
-175,-489,0,0,0,0,0,0,0,0,0,-1,1049,1513,0,0
-168,-489,0,0,0,0,0,0,0,0,0,-1,1056,1513,0,0
-161,-489,0,0,0,0,0,0,0,0,0,-1,1063,1513,0,0
-154,-489,0,0,0,0,0,0,0,0,0,-1,1070,1513,0,0
-147,-489,0,0,0,0,0,0,0,0,0,-1,1077,1513,0,0
-140,-489,0,0,0,0,0,0,0,0,0,-1,1084,1513,0,0
-133,-489,0,0,0,0,0,0,0,0,0,-1,1091,1513,0,0
-126,-489,0,0,0,0,0,0,0,0,0,-1,1098,1513,0,0
-119,-489,0,0,0,0,0,0,0,0,0,-1,1105,1513,0,0
-112,-489,0,0,0,0,0,0,0,0,0,-1,1112,1513,0,0
-105,-489,0,0,0,0,0,0,0,0,0,-1,1119,1513,0,0
-98,-489,0,0,0,0,0,0,0,0,0,-1,1126,1513,0,0
-91,-489,0,0,0,0,0,0,0,0,0,-1,1133,1513,0,0
-84,-489,0,0,0,0,0,0,0,0,0,-1,1140,1513,0,0
-77,-489,0,0,0,0,0,0,0,0,0,-1,1147,1513,0,0
-70,-489,0,0,0,0,0,0,0,0,0,-1,1154,1513,0,0
-63,-489,0,0,0,0,0,0,0,0,0,-1,1161,1513,0,0
-56,-489,0,0,0,0,0,0,0,0,0,-1,1168,1513,0,0
-49,-489,0,0,0,0,0,0,0,0,0,-1,1175,1513,0,0
-42,-489,0,0,0,0,0,0,0,0,0,-1,1182,1513,0,0
-35,-489,0,0,0,0,0,0,0,0,0,-1,1189,1513,0,0
-28,-489,0,0,0,0,0,0,0,0,0,-1,1196,1513,0,0
-21,-489,0,0,0,0,0,0,0,0,0,-1,1203,1513,0,0
-14,-489,0,0,0,0,0,0,0,0,0,-1,1210,1513,0,0
-7,-489,0,0,0,0,0,0,0,0,0,-1,1217,1513,0,0
0,-489,0,0,0,0,0,0,0,0,0,-1,1224,1513,0,0
7,-489,0,0,0,0,0,0,0,0,0,-1,1231,1513,0,0
14,-489,0,0,0,0,0,0,0,0,0,-1,1238,1513,0,0
21,-489,0,0,0,0,0,0,0,0,0,-1,1245,1513,0,0
28,-489,0,0,0,0,0,0,0,0,0,-1,1252,1513,0,0
35,-489,0,0,0,0,0,0,0,0,0,-1,1259,1513,0,0
42,-489,0,0,0,0,0,0,0,0,0,-1,1266,1513,0,0
49,-489,0,0,0,0,0,0,0,0,0,-1,1273,1513,0,0
56,-489,0,0,0,0,0,0,0,0,0,-1,1280,1513,0,0
63,-489,0,0,0,0,0,0,0,0,0,-1,1287,1513,0,0
70,-489,0,0,0,0,0,0,0,0,0,-1,1294,1513,0,0
77,-489,0,0,0,0,0,0,0,0,0,-1,1301,1513,0,0
84,-489,0,0,0,0,0,0,0,0,0,-1,1308,1513,0,0
91,-489,0,0,0,0,0,0,0,0,0,-1,1315,1513,0,0
98,-489,0,0,0,0,0,0,0,0,0,-1,1322,1513,0,0
105,-489,0,0,0,0,0,0,0,0,0,-1,1329,1513,0,0
112,-489,0,0,0,0,0,0,0,0,0,-1,1336,1513,0,0
119,-489,0,0,0,0,0,0,0,0,0,-1,1343,1513,0,0
126,-489,0,0,0,0,0,0,0,0,0,-1,1350,1513,0,0
133,-489,0,0,0,0,0,0,0,0,0,-1,1357,1513,0,0
140,-489,0,0,0,0,0,0,0,0,0,-1,1364,1513,0,0
147,-489,0,0,0,0,0,0,0,0,0,-1,1371,1513,0,0
154,-489,0,0,0,0,0,0,0,0,0,-1,1378,1513,0,0
161,-489,0,0,0,0,0,0,0,0,0,-1,1385,1513,0,0
168,-489,0,0,0,0,0,0,0,0,0,-1,1392,1513,0,0
175,-489,0,0,0,0,0,0,0,0,0,-1,1399,1513,0,0
182,-489,0,0,0,0,0,0,0,0,0,-1,1406,1513,0,0
189,-489,0,0,0,0,0,0,0,0,0,-1,1413,1513,0,0
196,-489,0,0,0,0,0,0,0,0,0,-1,1420,1513,0,0
203,-489,0,0,0,0,0,0,0,0,0,-1,1427,1513,0,0
210,-489,0,0,0,0,0,0,0,0,0,-1,1434,1513,0,0
217,-489,0,0,0,0,0,0,0,0,0,-1,1441,1513,0,0
224,-489,0,0,0,0,0,0,0,0,0,-1,1448,1513,0,0
231,-489,0,0,0,0,0,0,0,0,0,-1,1455,1513,0,0
238,-489,0,0,0,0,0,0,0,0,0,-1,1462,1513,0,0
245,-489,0,0,0,0,0,0,0,0,0,-1,1469,1513,0,0
252,-489,0,0,0,0,0,0,0,0,0,-1,1476,1513,0,0
259,-489,0,0,0,0,0,0,0,0,0,-1,1483,1513,0,0
266,-489,0,0,0,0,0,0,0,0,0,-1,1490,1513,0,0
273,-489,0,0,0,0,0,0,0,0,0,-1,1497,1513,0,0
280,-489,0,0,0,0,0,0,0,0,0,-1,1504,1513,0,0
287,-489,0,0,0,0,0,0,0,0,0,-1,1511,1513,0,0
294,-489,0,0,0,0,0,0,0,0,0,-1,1518,1513,0,0
301,-489,0,0,0,0,0,0,0,0,0,-1,1525,1513,0,0
308,-489,0,0,0,0,0,0,0,0,0,-1,1532,1513,0,0
315,-489,0,0,0,0,0,0,0,0,0,-1,1539,1513,0,0
322,-489,0,0,0,0,0,0,0,0,0,-1,1546,1513,0,0
329,-489,0,0,0,0,0,0,0,0,0,-1,1553,1513,0,0
336,-489,0,0,0,0,0,0,0,0,0,-1,1560,1513,0,0
343,-489,0,0,0,0,0,0,0,0,0,-1,1567,1513,0,0
350,-489,0,0,0,0,0,0,0,0,0,-1,1574,1513,0,0
357,-489,0,0,0,0,0,0,0,0,0,-1,1581,1513,0,0
364,-489,0,0,0,0,0,0,0,0,0,-1,1588,1513,0,0
371,-489,0,0,0,0,0,0,0,0,0,-1,1595,1513,0,0
378,-489,0,0,0,0,0,0,0,0,0,-1,1602,1513,0,0
385,-489,0,0,0,0,0,0,0,0,0,-1,1609,1513,0,0
392,-489,0,0,0,0,0,0,0,0,0,-1,1616,1513,0,0
399,-489,0,0,0,0,0,0,0,0,0,-1,1623,1513,0,0
406,-489,0,0,0,0,0,0,0,0,0,-1,1630,1513,0,0
413,-489,0,0,0,0,0,0,0,0,0,-1,1637,1513,0,0
420,-489,0,0,0,0,0,0,0,0,0,-1,1644,1513,0,0
427,-489,0,0,0,0,0,0,0,0,0,-1,1651,1513,0,0
434,-489,0,0,0,0,0,0,0,0,0,-1,1658,1513,0,0
441,-489,11.4602,2.56787,0,0,0,0,0,0,0,-1,1665,1513,11.4602,-2.56786
448,-489,12.4425,1.72351,0,0,0,0,0,0,0,-1,1672,1513,12.4425,-1.72349
455,-489,12.5575,1.37463,0,0,0,0,0,0,0,-1,1679,1513,12.5575,-1.37469
462,-489,14.9784,3.84888,0,0,0,0,0,0,0,-1,1686,1513,14.9784,-3.84892
469,-489,15.1367,4.53101,0,0,0,0,0,0,0,-1,1693,1513,15.1368,-4.531
476,-489,15.5536,5.09338,0,0,0,0,0,0,0,-1,1700,1513,15.5536,-5.09339
483,-489,8.96912,8.37805,0,0,0,0,0,0,0,-1,1707,1513,8.96909,-8.37809
490,-489,10.5366,7.49561,0,0,0,0,0,0,0,-1,1714,1513,10.5367,-7.49558
497,-489,14.6051,11.8397,0,0,0,0,0,0,0,-1,1721,1513,14.6051,-11.8397
504,-489,16.7527,14.1735,0,0,0,0,0,0,0,-1,1728,1513,16.7527,-14.1735
511,-489,17.83,17.7993,0,0,0,0,0,0,0,-1,1735,1513,17.83,-17.7993
518,-489,16.4751,14.3682,0,0,0,0,0,0,0,-1,1742,1513,16.4751,-14.3682
525,-489,17.2606,17.4949,0,0,0,0,0,0,0,-1,1749,1513,17.2606,-17.4949
532,-489,19.397,21.0182,0,0,0,0,0,0,0,-1,1756,1513,19.397,-21.0182
539,-489,23.6908,25.5388,0,0,0,0,0,0,0,-1,1763,1513,23.6908,-25.5388
546,-489,23.8654,24.7612,0.0079189,0.00541138,-0.00460693,0.0114396,0.00189066,-0.652542,0.00708084,0.0341011,1770,1513,23.8654,-24.7612
553,-489,23.8524,24.0237,0.0062575,0.00405057,-0.00332877,0.00866093,0.00164713,-0.625351,0.00531075,0.021313,1777,1513,23.8524,-24.0236
560,-489,23.858,23.3779,0.00498837,0.00297955,-0.00239784,0.00658367,0.00138425,-0.587059,0.00400818,0.014018,1784,1513,23.8581,-23.3779
567,-489,23.8746,22.7948,0.0040945,0.00219959,-0.00182444,0.00520283,0.00109126,-0.545909,0.00316808,0.0155495,1791,1513,23.8746,-22.7948
574,-489,23.8077,22.265,0.00352125,0.00169405,-0.00152662,0.00438677,0.000828539,-0.51576,0.00269119,0.0161086,1798,1513,23.8077,-22.265
581,-489,23.8013,21.6733,0.00310094,0.00128644,-0.00133683,0.00380931,0.000578067,-0.487269,0.00237046,0.0115699,1805,1513,23.8013,-21.6733
588,-489,23.7775,21.0869,0.00291879,0.000984492,-0.00129336,0.00356662,0.000336664,-0.464358,0.00227385,0.0131132,1812,1513,23.7774,-21.087
595,-489,23.7628,20.5282,0.00305114,0.000779192,-0.00133063,0.00366474,0.000165591,-0.432076,0.00238988,0.0192295,1819,1513,23.7628,-20.5282
602,-489,23.7462,19.9294,0.00330714,0.000676069,-0.00147234,0.00396605,1.71654e-05,-0.420791,0.00263833,0.0259216,1826,1513,23.7462,-19.9294
609,-489,23.7223,19.3281,0.00370351,0.000606665,-0.00160167,0.00438286,-7.26855e-05,-0.401151,0.00294643,0.0177467,1833,1513,23.7223,-19.3281
616,-489,23.7123,18.707,0.00443895,0.000450185,-0.00168195,0.00505349,-0.000164363,-0.350308,0.0034251,0.0187059,1840,1513,23.7123,-18.7071
623,-489,23.7678,18.0819,0,0,0,0,0,0,0,-1,1847,1513,23.7678,-18.0819
630,-489,23.7911,17.4631,0,0,0,0,0,0,0,-1,1854,1513,23.7912,-17.4631
637,-489,17.2048,11.8091,0,0,0,0,0,0,0,-1,1861,1513,17.2048,-11.8091
644,-489,9.67578,8.45874,0,0,0,0,0,0,0,-1,1868,1513,9.67576,-8.45879
651,-489,6.13818,6.85095,0,0,0,0,0,0,0,-1,1875,1513,6.13823,-6.85097
658,-489,5.43848,7.75513,0,0,0,0,0,0,0,-1,1882,1513,5.43844,-7.75509
665,-489,5.48438,8.59912,0,0,0,0,0,0,0,-1,1889,1513,5.48434,-8.59907
672,-489,0,0,0,0,0,0,0,0,0,-1,1896,1513,0,0
679,-489,0,0,0,0,0,0,0,0,0,-1,1903,1513,0,0
686,-489,0,0,0,0,0,0,0,0,0,-1,1910,1513,0,0
693,-489,0,0,0,0,0,0,0,0,0,-1,1917,1513,0,0
700,-489,0,0,0,0,0,0,0,0,0,-1,1924,1513,0,0
707,-489,0,0,0,0,0,0,0,0,0,-1,1931,1513,0,0
714,-489,0,0,0,0,0,0,0,0,0,-1,1938,1513,0,0
721,-489,0,0,0,0,0,0,0,0,0,-1,1945,1513,0,0
728,-489,0,0,0,0,0,0,0,0,0,-1,1952,1513,0,0
735,-489,0,0,0,0,0,0,0,0,0,-1,1959,1513,0,0
742,-489,0,0,0,0,0,0,0,0,0,-1,1966,1513,0,0
749,-489,0,0,0,0,0,0,0,0,0,-1,1973,1513,0,0
756,-489,0,0,0,0,0,0,0,0,0,-1,1980,1513,0,0
763,-489,0,0,0,0,0,0,0,0,0,-1,1987,1513,0,0
770,-489,0,0,0,0,0,0,0,0,0,-1,1994,1513,0,0
777,-489,0,0,0,0,0,0,0,0,0,-1,2001,1513,0,0
784,-489,0,0,0,0,0,0,0,0,0,-1,2008,1513,0,0
791,-489,0,0,0,0,0,0,0,0,0,-1,2015,1513,0,0
798,-489,0,0,0,0,0,0,0,0,0,-1,2022,1513,0,0
805,-489,0,0,0,0,0,0,0,0,0,-1,2029,1513,0,0
812,-489,0,0,0,0,0,0,0,0,0,-1,2036,1513,0,0
-700,-496,0,0,0,0,0,0,0,0,0,-1,524,1520,0,0
-693,-496,0,0,0,0,0,0,0,0,0,-1,531,1520,0,0
-686,-496,0,0,0,0,0,0,0,0,0,-1,538,1520,0,0
-679,-496,0,0,0,0,0,0,0,0,0,-1,545,1520,0,0
-672,-496,0,0,0,0,0,0,0,0,0,-1,552,1520,0,0
-665,-496,0,0,0,0,0,0,0,0,0,-1,559,1520,0,0
-658,-496,0,0,0,0,0,0,0,0,0,-1,566,1520,0,0
-651,-496,0,0,0,0,0,0,0,0,0,-1,573,1520,0,0
-644,-496,0,0,0,0,0,0,0,0,0,-1,580,1520,0,0
-637,-496,0,0,0,0,0,0,0,0,0,-1,587,1520,0,0
-630,-496,0,0,0,0,0,0,0,0,0,-1,594,1520,0,0
-623,-496,0,0,0,0,0,0,0,0,0,-1,601,1520,0,0
-616,-496,0,0,0,0,0,0,0,0,0,-1,608,1520,0,0
-609,-496,0,0,0,0,0,0,0,0,0,-1,615,1520,0,0
-602,-496,0,0,0,0,0,0,0,0,0,-1,622,1520,0,0
-595,-496,0,0,0,0,0,0,0,0,0,-1,629,1520,0,0
-588,-496,0,0,0,0,0,0,0,0,0,-1,636,1520,0,0
-581,-496,0,0,0,0,0,0,0,0,0,-1,643,1520,0,0
-574,-496,0,0,0,0,0,0,0,0,0,-1,650,1520,0,0
-567,-496,0,0,0,0,0,0,0,0,0,-1,657,1520,0,0
-560,-496,0,0,0,0,0,0,0,0,0,-1,664,1520,0,0
-553,-496,0,0,0,0,0,0,0,0,0,-1,671,1520,0,0
-546,-496,-8.09711,7.94836,0,0,0,0,0,0,0,-1,678,1520,-8.09712,-7.94842
-539,-496,-3.20129,1.16052,0,0,0,0,0,0,0,-1,685,1520,-3.20131,-1.16054
-532,-496,-2.98279,2.62146,0,0,0,0,0,0,0,-1,692,1520,-2.98278,-2.62151
-525,-496,-2.75201,4.08032,0,0,0,0,0,0,0,-1,699,1520,-2.75201,-4.08031
-518,-496,-2.6333,5.36072,0,0,0,0,0,0,0,-1,706,1520,-2.63328,-5.36077
-511,-496,-7.92126,9.68604,0,0,0,0,0,0,0,-1,713,1520,-7.92127,-9.68598
-504,-496,-7.51044,11.6274,0,0,0,0,0,0,0,-1,720,1520,-7.51042,-11.6275
-497,-496,-5.30933,14.4291,0,0,0,0,0,0,0,-1,727,1520,-5.30932,-14.4291
-490,-496,-6.29919,16.7181,0,0,0,0,0,0,0,-1,734,1520,-6.29917,-16.7181
-483,-496,-6.37897,17.4839,-0.00277052,-0.00507048,-0.000990126,-0.002403,-0.005438,-0.355422,0.00314669,0.0393621,741,1520,-6.37896,-17.4839
-476,-496,-6.51746,17.99,-0.0022809,-0.00428184,-0.000958712,-0.00189571,-0.00466703,-0.382044,0.00271028,0.016971,748,1520,-6.51748,-17.99
-469,-496,-6.52423,18.6343,-0.00172925,-0.00340342,-0.000674338,-0.00149142,-0.00364125,-0.339066,0.0021137,0.0107844,755,1520,-6.5242,-18.6343
-462,-496,-6.54962,19.2521,-0.0011175,-0.00233587,-0.000305111,-0.00104536,-0.002408,-0.232164,0.00139428,0.0159056,762,1520,-6.54961,-19.252
-455,-496,-6.56799,19.8849,-0.000460472,-0.00121486,0.000129995,-0.0004387,-0.00123663,0.165945,0.00072394,0.0218984,769,1520,-6.56801,-19.8849
-448,-496,-6.60681,20.5327,0.000325078,3.03832e-05,0.00070814,0.000901037,-0.000545576,0.682823,0.000843566,0.0206297,776,1520,-6.60681,-20.5328
-441,-496,-6.62146,21.1368,0.00127619,0.00150031,0.00153315,0.00292549,-0.000148995,0.821878,0.00200184,0.0147361,783,1520,-6.62145,-21.1368
-434,-496,-6.64954,21.7457,0.00234408,0.00320489,0.00256029,0.0053707,0.000178271,0.868674,0.00352254,0.013828,790,1520,-6.64951,-21.7457
-427,-496,-6.6828,22.3767,0.00360364,0.00494578,0.00372518,0.00805985,0.00048957,0.874514,0.0052177,0.0180258,797,1520,-6.68278,-22.3767
-420,-496,-6.685,22.9772,0.0050181,0.00711116,0.00518494,0.0113541,0.000775123,0.884981,0.00732473,0.01811,804,1520,-6.68497,-22.9771
-413,-496,-6.62799,23.6442,0.00690474,0.00923443,0.0071727,0.0153363,0.000802908,0.865895,0.00996732,0.0312318,811,1520,-6.62802,-23.6442
-406,-496,-6.49445,24.5323,0,0,0,0,0,0,0,-1,818,1520,-6.49446,-24.5324
-399,-496,-6.14471,25.4143,0,0,0,0,0,0,0,-1,825,1520,-6.14473,-25.4143
-392,-496,-1.49786,12.387,0,0,0,0,0,0,0,-1,832,1520,-1.49788,-12.387
-385,-496,-1.72437,11.4985,0,0,0,0,0,0,0,-1,839,1520,-1.72436,-11.4985
-378,-496,-1.45532,14.0719,0,0,0,0,0,0,0,-1,846,1520,-1.45533,-14.0719
-371,-496,0.0877075,12.5299,0,0,0,0,0,0,0,-1,853,1520,0.0876896,-12.5299
-364,-496,0.0881348,10.6422,0,0,0,0,0,0,0,-1,860,1520,0.0881368,-10.6423
-357,-496,0.323792,7.56812,0,0,0,0,0,0,0,-1,867,1520,0.323782,-7.56806
-350,-496,2.1535,7.18945,0,0,0,0,0,0,0,-1,874,1520,2.15348,-7.1894
-343,-496,-7.56244,0.335327,0,0,0,0,0,0,0,-1,881,1520,-7.56242,-0.335322
-336,-496,-3.99249,6.02222,0,0,0,0,0,0,0,-1,888,1520,-3.99246,-6.0222
-329,-496,-6.93689,-0.100342,0,0,0,0,0,0,0,-1,895,1520,-6.93686,0.1003
-322,-496,-6.17505,0.494385,0,0,0,0,0,0,0,-1,902,1520,-6.17507,-0.49437
-315,-496,-7.539,5.78638,0,0,0,0,0,0,0,-1,909,1520,-7.53898,-5.78633
-308,-496,0,0,0,0,0,0,0,0,0,-1,916,1520,0,0
-301,-496,0,0,0,0,0,0,0,0,0,-1,923,1520,0,0
-294,-496,0,0,0,0,0,0,0,0,0,-1,930,1520,0,0
-287,-496,0,0,0,0,0,0,0,0,0,-1,937,1520,0,0
-280,-496,0,0,0,0,0,0,0,0,0,-1,944,1520,0,0
-273,-496,0,0,0,0,0,0,0,0,0,-1,951,1520,0,0
-266,-496,0,0,0,0,0,0,0,0,0,-1,958,1520,0,0
-259,-496,0,0,0,0,0,0,0,0,0,-1,965,1520,0,0
-252,-496,0,0,0,0,0,0,0,0,0,-1,972,1520,0,0
-245,-496,0,0,0,0,0,0,0,0,0,-1,979,1520,0,0
-238,-496,0,0,0,0,0,0,0,0,0,-1,986,1520,0,0
-231,-496,0,0,0,0,0,0,0,0,0,-1,993,1520,0,0
-224,-496,0,0,0,0,0,0,0,0,0,-1,1000,1520,0,0
-217,-496,0,0,0,0,0,0,0,0,0,-1,1007,1520,0,0
-210,-496,0,0,0,0,0,0,0,0,0,-1,1014,1520,0,0
-203,-496,0,0,0,0,0,0,0,0,0,-1,1021,1520,0,0
-196,-496,0,0,0,0,0,0,0,0,0,-1,1028,1520,0,0
-189,-496,0,0,0,0,0,0,0,0,0,-1,1035,1520,0,0
-182,-496,0,0,0,0,0,0,0,0,0,-1,1042,1520,0,0
-175,-496,0,0,0,0,0,0,0,0,0,-1,1049,1520,0,0
-168,-496,0,0,0,0,0,0,0,0,0,-1,1056,1520,0,0
-161,-496,0,0,0,0,0,0,0,0,0,-1,1063,1520,0,0
-154,-496,0,0,0,0,0,0,0,0,0,-1,1070,1520,0,0
-147,-496,0,0,0,0,0,0,0,0,0,-1,1077,1520,0,0
-140,-496,0,0,0,0,0,0,0,0,0,-1,1084,1520,0,0
-133,-496,0,0,0,0,0,0,0,0,0,-1,1091,1520,0,0
-126,-496,0,0,0,0,0,0,0,0,0,-1,1098,1520,0,0
-119,-496,0,0,0,0,0,0,0,0,0,-1,1105,1520,0,0
-112,-496,0,0,0,0,0,0,0,0,0,-1,1112,1520,0,0
-105,-496,0,0,0,0,0,0,0,0,0,-1,1119,1520,0,0
-98,-496,0,0,0,0,0,0,0,0,0,-1,1126,1520,0,0
-91,-496,0,0,0,0,0,0,0,0,0,-1,1133,1520,0,0
-84,-496,0,0,0,0,0,0,0,0,0,-1,1140,1520,0,0
-77,-496,0,0,0,0,0,0,0,0,0,-1,1147,1520,0,0
-70,-496,0,0,0,0,0,0,0,0,0,-1,1154,1520,0,0
-63,-496,0,0,0,0,0,0,0,0,0,-1,1161,1520,0,0
-56,-496,0,0,0,0,0,0,0,0,0,-1,1168,1520,0,0
-49,-496,0,0,0,0,0,0,0,0,0,-1,1175,1520,0,0
-42,-496,0,0,0,0,0,0,0,0,0,-1,1182,1520,0,0
-35,-496,0,0,0,0,0,0,0,0,0,-1,1189,1520,0,0
-28,-496,0,0,0,0,0,0,0,0,0,-1,1196,1520,0,0
-21,-496,0,0,0,0,0,0,0,0,0,-1,1203,1520,0,0
-14,-496,0,0,0,0,0,0,0,0,0,-1,1210,1520,0,0
-7,-496,0,0,0,0,0,0,0,0,0,-1,1217,1520,0,0
0,-496,0,0,0,0,0,0,0,0,0,-1,1224,1520,0,0
7,-496,0,0,0,0,0,0,0,0,0,-1,1231,1520,0,0
14,-496,0,0,0,0,0,0,0,0,0,-1,1238,1520,0,0
21,-496,0,0,0,0,0,0,0,0,0,-1,1245,1520,0,0
28,-496,0,0,0,0,0,0,0,0,0,-1,1252,1520,0,0
35,-496,0,0,0,0,0,0,0,0,0,-1,1259,1520,0,0
42,-496,0,0,0,0,0,0,0,0,0,-1,1266,1520,0,0
49,-496,0,0,0,0,0,0,0,0,0,-1,1273,1520,0,0
56,-496,0,0,0,0,0,0,0,0,0,-1,1280,1520,0,0
63,-496,0,0,0,0,0,0,0,0,0,-1,1287,1520,0,0
70,-496,0,0,0,0,0,0,0,0,0,-1,1294,1520,0,0
77,-496,0,0,0,0,0,0,0,0,0,-1,1301,1520,0,0
84,-496,0,0,0,0,0,0,0,0,0,-1,1308,1520,0,0
91,-496,0,0,0,0,0,0,0,0,0,-1,1315,1520,0,0
98,-496,0,0,0,0,0,0,0,0,0,-1,1322,1520,0,0
105,-496,0,0,0,0,0,0,0,0,0,-1,1329,1520,0,0
112,-496,0,0,0,0,0,0,0,0,0,-1,1336,1520,0,0
119,-496,0,0,0,0,0,0,0,0,0,-1,1343,1520,0,0
126,-496,0,0,0,0,0,0,0,0,0,-1,1350,1520,0,0
133,-496,0,0,0,0,0,0,0,0,0,-1,1357,1520,0,0
140,-496,0,0,0,0,0,0,0,0,0,-1,1364,1520,0,0
147,-496,0,0,0,0,0,0,0,0,0,-1,1371,1520,0,0
154,-496,0,0,0,0,0,0,0,0,0,-1,1378,1520,0,0
161,-496,0,0,0,0,0,0,0,0,0,-1,1385,1520,0,0
168,-496,0,0,0,0,0,0,0,0,0,-1,1392,1520,0,0
175,-496,0,0,0,0,0,0,0,0,0,-1,1399,1520,0,0
182,-496,0,0,0,0,0,0,0,0,0,-1,1406,1520,0,0
189,-496,0,0,0,0,0,0,0,0,0,-1,1413,1520,0,0
196,-496,0,0,0,0,0,0,0,0,0,-1,1420,1520,0,0
203,-496,0,0,0,0,0,0,0,0,0,-1,1427,1520,0,0
210,-496,0,0,0,0,0,0,0,0,0,-1,1434,1520,0,0
217,-496,0,0,0,0,0,0,0,0,0,-1,1441,1520,0,0
224,-496,0,0,0,0,0,0,0,0,0,-1,1448,1520,0,0
231,-496,0,0,0,0,0,0,0,0,0,-1,1455,1520,0,0
238,-496,0,0,0,0,0,0,0,0,0,-1,1462,1520,0,0
245,-496,0,0,0,0,0,0,0,0,0,-1,1469,1520,0,0
252,-496,0,0,0,0,0,0,0,0,0,-1,1476,1520,0,0
259,-496,0,0,0,0,0,0,0,0,0,-1,1483,1520,0,0
266,-496,0,0,0,0,0,0,0,0,0,-1,1490,1520,0,0
273,-496,0,0,0,0,0,0,0,0,0,-1,1497,1520,0,0
280,-496,0,0,0,0,0,0,0,0,0,-1,1504,1520,0,0
287,-496,0,0,0,0,0,0,0,0,0,-1,1511,1520,0,0
294,-496,0,0,0,0,0,0,0,0,0,-1,1518,1520,0,0
301,-496,0,0,0,0,0,0,0,0,0,-1,1525,1520,0,0
308,-496,0,0,0,0,0,0,0,0,0,-1,1532,1520,0,0
315,-496,0,0,0,0,0,0,0,0,0,-1,1539,1520,0,0
322,-496,0,0,0,0,0,0,0,0,0,-1,1546,1520,0,0
329,-496,0,0,0,0,0,0,0,0,0,-1,1553,1520,0,0
336,-496,0,0,0,0,0,0,0,0,0,-1,1560,1520,0,0
343,-496,0,0,0,0,0,0,0,0,0,-1,1567,1520,0,0
350,-496,0,0,0,0,0,0,0,0,0,-1,1574,1520,0,0
357,-496,0,0,0,0,0,0,0,0,0,-1,1581,1520,0,0
364,-496,0,0,0,0,0,0,0,0,0,-1,1588,1520,0,0
371,-496,0,0,0,0,0,0,0,0,0,-1,1595,1520,0,0
378,-496,0,0,0,0,0,0,0,0,0,-1,1602,1520,0,0
385,-496,0,0,0,0,0,0,0,0,0,-1,1609,1520,0,0
392,-496,0,0,0,0,0,0,0,0,0,-1,1616,1520,0,0
399,-496,0,0,0,0,0,0,0,0,0,-1,1623,1520,0,0
406,-496,0,0,0,0,0,0,0,0,0,-1,1630,1520,0,0
413,-496,0,0,0,0,0,0,0,0,0,-1,1637,1520,0,0
420,-496,0,0,0,0,0,0,0,0,0,-1,1644,1520,0,0
427,-496,0,0,0,0,0,0,0,0,0,-1,1651,1520,0,0
434,-496,11.0457,3.37732,0,0,0,0,0,0,0,-1,1658,1520,11.0456,-3.37736
441,-496,11.788,2.75488,0,0,0,0,0,0,0,-1,1665,1520,11.7879,-2.75485
448,-496,12.2146,2.18494,0,0,0,0,0,0,0,-1,1672,1520,12.2146,-2.18489
455,-496,12.3489,1.65173,0,0,0,0,0,0,0,-1,1679,1520,12.3489,-1.65178
462,-496,12.1912,1.32361,0,0,0,0,0,0,0,-1,1686,1520,12.1911,-1.32357
469,-496,14.8138,5.77954,0,0,0,0,0,0,0,-1,1693,1520,14.8138,-5.77958
476,-496,15.2449,6.27942,0,0,0,0,0,0,0,-1,1700,1520,15.2449,-6.27936
483,-496,9.19812,6.88367,0,0,0,0,0,0,0,-1,1707,1520,9.19812,-6.88361
490,-496,10.2123,7.97144,0,0,0,0,0,0,0,-1,1714,1520,10.2122,-7.97145
497,-496,13.9297,12.2981,0,0,0,0,0,0,0,-1,1721,1520,13.9297,-12.2982
504,-496,16.3271,16.6501,0,0,0,0,0,0,0,-1,1728,1520,16.3272,-16.6502
511,-496,17.6753,18.0685,0,0,0,0,0,0,0,-1,1735,1520,17.6753,-18.0685
518,-496,17.0537,17.3118,0,0,0,0,0,0,0,-1,1742,1520,17.0538,-17.3118
525,-496,18.2721,19.3259,0,0,0,0,0,0,0,-1,1749,1520,18.2721,-19.3259
532,-496,23.3738,25.4086,0,0,0,0,0,0,0,-1,1756,1520,23.3738,-25.4086
539,-496,23.0227,25.4137,0,0,0,0,0,0,0,-1,1763,1520,23.0227,-25.4137
546,-496,23.2073,24.6567,0.00677404,0.00483455,-0.00407943,0.00999741,0.00161119,-0.668706,0.00619808,0.020735,1770,1520,23.2073,-24.6567
553,-496,23.3113,23.975,0.00534063,0.00361585,-0.00293838,0.00754056,0.00141592,-0.642661,0.00462784,0.0164407,1777,1520,23.3113,-23.975
560,-496,23.3019,23.4072,0.00428628,0.00264663,-0.00211153,0.00573155,0.00120136,-0.600225,0.00349019,0.0151645,1784,1520,23.3019,-23.4072
567,-496,23.2777,22.8245,0.00363478,0.00197705,-0.00165839,0.0046599,0.000951927,-0.553654,0.00284292,0.0123512,1791,1520,23.2777,-22.8245
574,-496,23.2389,22.2429,0.00327993,0.00153426,-0.00143222,0.00408432,0.000729869,-0.511736,0.00251514,0.0133756,1798,1520,23.2389,-22.2429
581,-496,23.2109,21.6952,0.00307799,0.00118282,-0.00132395,0.00375852,0.000502289,-0.474796,0.00235617,0.014573,1805,1520,23.2109,-21.6952
588,-496,23.2206,21.1191,0.00311334,0.000963595,-0.00138849,0.00379439,0.000282549,-0.456014,0.00244087,0.016692,1812,1520,23.2206,-21.1191
595,-496,23.1809,20.5474,0.00345992,0.000864453,-0.00155059,0.00418418,0.000140197,-0.43697,0.00274392,0.0185966,1819,1520,23.1809,-20.5474
602,-496,23.1581,19.9631,0.0039469,0.000907096,-0.00183463,0.00480943,4.45647e-05,-0.439474,0.00319153,0.0201378,1826,1520,23.158,-19.9631
609,-496,23.165,19.3323,0.00456334,0.00095387,-0.00212181,0.00554413,-2.69173e-05,-0.432987,0.00370509,0.0176666,1833,1520,23.1651,-19.3323
616,-496,23.2397,18.6222,0.00564162,0.000918288,-0.00237386,0.00662849,-6.85796e-05,-0.393986,0.00444203,0.0413592,1840,1520,23.2397,-18.6221
623,-496,23.2391,18.058,0,0,0,0,0,0,0,-1,1847,1520,23.2392,-18.058
630,-496,18.5656,13.8966,0,0,0,0,0,0,0,-1,1854,1520,18.5655,-13.8967
637,-496,14.6411,10.1016,0,0,0,0,0,0,0,-1,1861,1520,14.6411,-10.1016
644,-496,12.4537,10.087,0,0,0,0,0,0,0,-1,1868,1520,12.4537,-10.0871
651,-496,8.18506,5.47803,0,0,0,0,0,0,0,-1,1875,1520,8.18505,-5.47806
658,-496,7.79993,4.02563,0,0,0,0,0,0,0,-1,1882,1520,7.79997,-4.02568
665,-496,5.47583,7.90625,0,0,0,0,0,0,0,-1,1889,1520,5.47581,-7.90628
672,-496,0,0,0,0,0,0,0,0,0,-1,1896,1520,0,0
679,-496,0,0,0,0,0,0,0,0,0,-1,1903,1520,0,0
686,-496,0,0,0,0,0,0,0,0,0,-1,1910,1520,0,0
693,-496,0,0,0,0,0,0,0,0,0,-1,1917,1520,0,0
700,-496,0,0,0,0,0,0,0,0,0,-1,1924,1520,0,0
707,-496,0,0,0,0,0,0,0,0,0,-1,1931,1520,0,0
714,-496,0,0,0,0,0,0,0,0,0,-1,1938,1520,0,0
721,-496,0,0,0,0,0,0,0,0,0,-1,1945,1520,0,0
728,-496,0,0,0,0,0,0,0,0,0,-1,1952,1520,0,0
735,-496,0,0,0,0,0,0,0,0,0,-1,1959,1520,0,0
742,-496,0,0,0,0,0,0,0,0,0,-1,1966,1520,0,0
749,-496,0,0,0,0,0,0,0,0,0,-1,1973,1520,0,0
756,-496,0,0,0,0,0,0,0,0,0,-1,1980,1520,0,0
763,-496,0,0,0,0,0,0,0,0,0,-1,1987,1520,0,0
770,-496,0,0,0,0,0,0,0,0,0,-1,1994,1520,0,0
777,-496,0,0,0,0,0,0,0,0,0,-1,2001,1520,0,0
784,-496,0,0,0,0,0,0,0,0,0,-1,2008,1520,0,0
791,-496,0,0,0,0,0,0,0,0,0,-1,2015,1520,0,0
798,-496,0,0,0,0,0,0,0,0,0,-1,2022,1520,0,0
805,-496,0,0,0,0,0,0,0,0,0,-1,2029,1520,0,0
812,-496,0,0,0,0,0,0,0,0,0,-1,2036,1520,0,0
-700,-503,0,0,0,0,0,0,0,0,0,-1,524,1527,0,0
-693,-503,0,0,0,0,0,0,0,0,0,-1,531,1527,0,0
-686,-503,0,0,0,0,0,0,0,0,0,-1,538,1527,0,0
-679,-503,0,0,0,0,0,0,0,0,0,-1,545,1527,0,0
-672,-503,0,0,0,0,0,0,0,0,0,-1,552,1527,0,0
-665,-503,0,0,0,0,0,0,0,0,0,-1,559,1527,0,0
-658,-503,0,0,0,0,0,0,0,0,0,-1,566,1527,0,0
-651,-503,0,0,0,0,0,0,0,0,0,-1,573,1527,0,0
-644,-503,0,0,0,0,0,0,0,0,0,-1,580,1527,0,0
-637,-503,0,0,0,0,0,0,0,0,0,-1,587,1527,0,0
-630,-503,0,0,0,0,0,0,0,0,0,-1,594,1527,0,0
-623,-503,0,0,0,0,0,0,0,0,0,-1,601,1527,0,0
-616,-503,0,0,0,0,0,0,0,0,0,-1,608,1527,0,0
-609,-503,0,0,0,0,0,0,0,0,0,-1,615,1527,0,0
-602,-503,0,0,0,0,0,0,0,0,0,-1,622,1527,0,0
-595,-503,0,0,0,0,0,0,0,0,0,-1,629,1527,0,0
-588,-503,0,0,0,0,0,0,0,0,0,-1,636,1527,0,0
-581,-503,0,0,0,0,0,0,0,0,0,-1,643,1527,0,0
-574,-503,0,0,0,0,0,0,0,0,0,-1,650,1527,0,0
-567,-503,0,0,0,0,0,0,0,0,0,-1,657,1527,0,0
-560,-503,0,0,0,0,0,0,0,0,0,-1,664,1527,0,0
-553,-503,0,0,0,0,0,0,0,0,0,-1,671,1527,0,0
-546,-503,0,0,0,0,0,0,0,0,0,-1,678,1527,0,0
-539,-503,3.50177,4.26428,0,0,0,0,0,0,0,-1,685,1527,3.50177,-4.26424
-532,-503,-3.13196,1.05298,0,0,0,0,0,0,0,-1,692,1527,-3.13194,-1.05299
-525,-503,-2.94293,2.59314,0,0,0,0,0,0,0,-1,699,1527,-2.94296,-2.59314
-518,-503,-2.7395,4.05872,0,0,0,0,0,0,0,-1,706,1527,-2.73948,-4.05871
-511,-503,-1.60022,7.23877,0,0,0,0,0,0,0,-1,713,1527,-1.60023,-7.23872
-504,-503,-8.1402,10.1541,0,0,0,0,0,0,0,-1,720,1527,-8.14017,-10.1541
-497,-503,-4.51758,14.0781,0,0,0,0,0,0,0,-1,727,1527,-4.5176,-14.0782
-490,-503,-4.24194,16.1982,0,0,0,0,0,0,0,-1,734,1527,-4.24196,-16.1982
-483,-503,-5.742,17.6873,0,0,0,0,0,0,0,-1,741,1527,-5.74201,-17.6873
-476,-503,-5.7782,18.1177,-0.00323997,-0.00578768,-0.00149916,-0.00254655,-0.00648111,-0.433235,0.00377036,0.0310691,748,1527,-5.7782,-18.1177
-469,-503,-5.91278,18.6619,-0.00254641,-0.00471337,-0.00112682,-0.00206667,-0.00519311,-0.402502,0.00301898,0.0124722,755,1527,-5.91276,-18.6619
-462,-503,-5.9375,19.2999,-0.00185353,-0.0034735,-0.000728953,-0.00157381,-0.00375322,-0.366396,0.0021763,0.0124487,762,1527,-5.93749,-19.2999
-455,-503,-5.9563,19.9348,-0.00114895,-0.00221902,-0.000288914,-0.00107593,-0.00229204,-0.247563,0.00132414,0.0181525,769,1527,-5.95631,-19.9348
-448,-503,-5.95776,20.5591,-0.000383916,-0.000946425,0.000228581,-0.000302743,-0.0010276,0.341224,0.00060974,0.0165902,776,1527,-5.95778,-20.559
-441,-503,-5.96362,21.1508,0.000520597,0.000496664,0.000965941,0.00147464,-0.000457384,0.779204,0.00116586,0.0128741,783,1527,-5.9636,-21.1507
-434,-503,-6.01062,21.7566,0.00152125,0.00210755,0.00188065,0.00371776,-8.89597e-05,0.862714,0.00250869,0.0116262,790,1527,-6.01065,-21.7566
-427,-503,-6.08099,22.3849,0.00268649,0.0037306,0.00291797,0.00617284,0.000244244,0.873917,0.00403628,0.0186263,797,1527,-6.08098,-22.3849
-420,-503,-6.05914,22.9683,0.00404294,0.00560572,0.00421556,0.0091117,0.000536961,0.877037,0.00590363,0.0176062,804,1527,-6.05917,-22.9683
-413,-503,-6.07977,23.5948,0.00569311,0.00751346,0.00585572,0.0125293,0.000677256,0.862498,0.00813653,0.0147684,811,1527,-6.07977,-23.5949
-406,-503,-6.08197,24.218,0.00770224,0.00976418,0.00778484,0.016586,0.000880393,0.851232,0.0107759,0.025174,818,1527,-6.08197,-24.2181
-399,-503,-5.93744,25.0272,0.0100536,0.0125846,0.0101634,0.0215609,0.00107722,0.847338,0.0140287,0.0417799,825,1527,-5.93743,-25.0272
-392,-503,-5.60089,26.0691,0,0,0,0,0,0,0,-1,832,1527,-5.60091,-26.0691
-385,-503,-2.00403,14.1218,0,0,0,0,0,0,0,-1,839,1527,-2.00403,-14.1218
-378,-503,-2.07043,13.8632,0,0,0,0,0,0,0,-1,846,1527,-2.07043,-13.8631
-371,-503,-1.67285,13.8081,0,0,0,0,0,0,0,-1,853,1527,-1.67285,-13.8081
-364,-503,0.181396,12.3768,0,0,0,0,0,0,0,-1,860,1527,0.18138,-12.3768
-357,-503,0.558533,9.25452,0,0,0,0,0,0,0,-1,867,1527,0.558542,-9.25446
-350,-503,0.219971,6.84827,0,0,0,0,0,0,0,-1,874,1527,0.21996,-6.84831
-343,-503,-3.5802,4.43274,0,0,0,0,0,0,0,-1,881,1527,-3.58018,-4.43276
-336,-503,-3.2384,6.40637,0,0,0,0,0,0,0,-1,888,1527,-3.2384,-6.40643
-329,-503,-1.70691,11.886,0,0,0,0,0,0,0,-1,895,1527,-1.70689,-11.886
-322,-503,-3.31317,8.81519,0,0,0,0,0,0,0,-1,902,1527,-3.31315,-8.81524
-315,-503,-3.90265,7.73853,0,0,0,0,0,0,0,-1,909,1527,-3.90264,-7.73854
-308,-503,-1.70264,7.35413,0,0,0,0,0,0,0,-1,916,1527,-1.70262,-7.35416
-301,-503,0,0,0,0,0,0,0,0,0,-1,923,1527,0,0
-294,-503,0,0,0,0,0,0,0,0,0,-1,930,1527,0,0
-287,-503,0,0,0,0,0,0,0,0,0,-1,937,1527,0,0
-280,-503,0,0,0,0,0,0,0,0,0,-1,944,1527,0,0
-273,-503,0,0,0,0,0,0,0,0,0,-1,951,1527,0,0
-266,-503,0,0,0,0,0,0,0,0,0,-1,958,1527,0,0
-259,-503,0,0,0,0,0,0,0,0,0,-1,965,1527,0,0
-252,-503,0,0,0,0,0,0,0,0,0,-1,972,1527,0,0
-245,-503,0,0,0,0,0,0,0,0,0,-1,979,1527,0,0
-238,-503,0,0,0,0,0,0,0,0,0,-1,986,1527,0,0
-231,-503,0,0,0,0,0,0,0,0,0,-1,993,1527,0,0
-224,-503,0,0,0,0,0,0,0,0,0,-1,1000,1527,0,0
-217,-503,0,0,0,0,0,0,0,0,0,-1,1007,1527,0,0
-210,-503,0,0,0,0,0,0,0,0,0,-1,1014,1527,0,0
-203,-503,0,0,0,0,0,0,0,0,0,-1,1021,1527,0,0
-196,-503,0,0,0,0,0,0,0,0,0,-1,1028,1527,0,0
-189,-503,0,0,0,0,0,0,0,0,0,-1,1035,1527,0,0
-182,-503,0,0,0,0,0,0,0,0,0,-1,1042,1527,0,0
-175,-503,0,0,0,0,0,0,0,0,0,-1,1049,1527,0,0
-168,-503,0,0,0,0,0,0,0,0,0,-1,1056,1527,0,0
-161,-503,0,0,0,0,0,0,0,0,0,-1,1063,1527,0,0
-154,-503,0,0,0,0,0,0,0,0,0,-1,1070,1527,0,0
-147,-503,0,0,0,0,0,0,0,0,0,-1,1077,1527,0,0
-140,-503,0,0,0,0,0,0,0,0,0,-1,1084,1527,0,0
-133,-503,0,0,0,0,0,0,0,0,0,-1,1091,1527,0,0
-126,-503,0,0,0,0,0,0,0,0,0,-1,1098,1527,0,0
-119,-503,0,0,0,0,0,0,0,0,0,-1,1105,1527,0,0
-112,-503,0,0,0,0,0,0,0,0,0,-1,1112,1527,0,0
-105,-503,0,0,0,0,0,0,0,0,0,-1,1119,1527,0,0
-98,-503,0,0,0,0,0,0,0,0,0,-1,1126,1527,0,0
-91,-503,0,0,0,0,0,0,0,0,0,-1,1133,1527,0,0
-84,-503,0,0,0,0,0,0,0,0,0,-1,1140,1527,0,0
-77,-503,0,0,0,0,0,0,0,0,0,-1,1147,1527,0,0
-70,-503,0,0,0,0,0,0,0,0,0,-1,1154,1527,0,0
-63,-503,0,0,0,0,0,0,0,0,0,-1,1161,1527,0,0
-56,-503,0,0,0,0,0,0,0,0,0,-1,1168,1527,0,0
-49,-503,0,0,0,0,0,0,0,0,0,-1,1175,1527,0,0
-42,-503,0,0,0,0,0,0,0,0,0,-1,1182,1527,0,0
-35,-503,0,0,0,0,0,0,0,0,0,-1,1189,1527,0,0
-28,-503,0,0,0,0,0,0,0,0,0,-1,1196,1527,0,0
-21,-503,0,0,0,0,0,0,0,0,0,-1,1203,1527,0,0
-14,-503,0,0,0,0,0,0,0,0,0,-1,1210,1527,0,0
-7,-503,0,0,0,0,0,0,0,0,0,-1,1217,1527,0,0
0,-503,0,0,0,0,0,0,0,0,0,-1,1224,1527,0,0
7,-503,0,0,0,0,0,0,0,0,0,-1,1231,1527,0,0
14,-503,0,0,0,0,0,0,0,0,0,-1,1238,1527,0,0
21,-503,0,0,0,0,0,0,0,0,0,-1,1245,1527,0,0
28,-503,0,0,0,0,0,0,0,0,0,-1,1252,1527,0,0
35,-503,0,0,0,0,0,0,0,0,0,-1,1259,1527,0,0
42,-503,0,0,0,0,0,0,0,0,0,-1,1266,1527,0,0
49,-503,0,0,0,0,0,0,0,0,0,-1,1273,1527,0,0
56,-503,0,0,0,0,0,0,0,0,0,-1,1280,1527,0,0
63,-503,0,0,0,0,0,0,0,0,0,-1,1287,1527,0,0
70,-503,0,0,0,0,0,0,0,0,0,-1,1294,1527,0,0
77,-503,0,0,0,0,0,0,0,0,0,-1,1301,1527,0,0
84,-503,0,0,0,0,0,0,0,0,0,-1,1308,1527,0,0
91,-503,0,0,0,0,0,0,0,0,0,-1,1315,1527,0,0
98,-503,0,0,0,0,0,0,0,0,0,-1,1322,1527,0,0
105,-503,0,0,0,0,0,0,0,0,0,-1,1329,1527,0,0
112,-503,0,0,0,0,0,0,0,0,0,-1,1336,1527,0,0
119,-503,0,0,0,0,0,0,0,0,0,-1,1343,1527,0,0
126,-503,0,0,0,0,0,0,0,0,0,-1,1350,1527,0,0
133,-503,0,0,0,0,0,0,0,0,0,-1,1357,1527,0,0
140,-503,0,0,0,0,0,0,0,0,0,-1,1364,1527,0,0
147,-503,0,0,0,0,0,0,0,0,0,-1,1371,1527,0,0
154,-503,0,0,0,0,0,0,0,0,0,-1,1378,1527,0,0
161,-503,0,0,0,0,0,0,0,0,0,-1,1385,1527,0,0
168,-503,0,0,0,0,0,0,0,0,0,-1,1392,1527,0,0
175,-503,0,0,0,0,0,0,0,0,0,-1,1399,1527,0,0
182,-503,0,0,0,0,0,0,0,0,0,-1,1406,1527,0,0
189,-503,0,0,0,0,0,0,0,0,0,-1,1413,1527,0,0
196,-503,0,0,0,0,0,0,0,0,0,-1,1420,1527,0,0
203,-503,0,0,0,0,0,0,0,0,0,-1,1427,1527,0,0
210,-503,0,0,0,0,0,0,0,0,0,-1,1434,1527,0,0
217,-503,0,0,0,0,0,0,0,0,0,-1,1441,1527,0,0
224,-503,0,0,0,0,0,0,0,0,0,-1,1448,1527,0,0
231,-503,0,0,0,0,0,0,0,0,0,-1,1455,1527,0,0
238,-503,0,0,0,0,0,0,0,0,0,-1,1462,1527,0,0
245,-503,0,0,0,0,0,0,0,0,0,-1,1469,1527,0,0
252,-503,0,0,0,0,0,0,0,0,0,-1,1476,1527,0,0
259,-503,0,0,0,0,0,0,0,0,0,-1,1483,1527,0,0
266,-503,0,0,0,0,0,0,0,0,0,-1,1490,1527,0,0
273,-503,0,0,0,0,0,0,0,0,0,-1,1497,1527,0,0
280,-503,0,0,0,0,0,0,0,0,0,-1,1504,1527,0,0
287,-503,0,0,0,0,0,0,0,0,0,-1,1511,1527,0,0
294,-503,0,0,0,0,0,0,0,0,0,-1,1518,1527,0,0
301,-503,0,0,0,0,0,0,0,0,0,-1,1525,1527,0,0
308,-503,0,0,0,0,0,0,0,0,0,-1,1532,1527,0,0
315,-503,0,0,0,0,0,0,0,0,0,-1,1539,1527,0,0
322,-503,0,0,0,0,0,0,0,0,0,-1,1546,1527,0,0
329,-503,0,0,0,0,0,0,0,0,0,-1,1553,1527,0,0
336,-503,0,0,0,0,0,0,0,0,0,-1,1560,1527,0,0
343,-503,0,0,0,0,0,0,0,0,0,-1,1567,1527,0,0
350,-503,0,0,0,0,0,0,0,0,0,-1,1574,1527,0,0
357,-503,0,0,0,0,0,0,0,0,0,-1,1581,1527,0,0
364,-503,0,0,0,0,0,0,0,0,0,-1,1588,1527,0,0
371,-503,0,0,0,0,0,0,0,0,0,-1,1595,1527,0,0
378,-503,0,0,0,0,0,0,0,0,0,-1,1602,1527,0,0
385,-503,0,0,0,0,0,0,0,0,0,-1,1609,1527,0,0
392,-503,0,0,0,0,0,0,0,0,0,-1,1616,1527,0,0
399,-503,0,0,0,0,0,0,0,0,0,-1,1623,1527,0,0
406,-503,0,0,0,0,0,0,0,0,0,-1,1630,1527,0,0
413,-503,0,0,0,0,0,0,0,0,0,-1,1637,1527,0,0
420,-503,0,0,0,0,0,0,0,0,0,-1,1644,1527,0,0
427,-503,10.5968,4.9856,0,0,0,0,0,0,0,-1,1651,1527,10.5969,-4.98563
434,-503,11.4329,3.97217,0,0,0,0,0,0,0,-1,1658,1527,11.4328,-3.97222
441,-503,12.0957,2.96509,0,0,0,0,0,0,0,-1,1665,1527,12.0957,-2.96512
448,-503,12.3259,2.53894,0,0,0,0,0,0,0,-1,1672,1527,12.326,-2.53895
455,-503,12.1669,2.18762,0,0,0,0,0,0,0,-1,1679,1527,12.1668,-2.18767
462,-503,11.59,2.60791,0,0,0,0,0,0,0,-1,1686,1527,11.5899,-2.60794
469,-503,11.1625,1.61853,0,0,0,0,0,0,0,-1,1693,1527,11.1625,-1.61856
476,-503,9.07703,5.81042,0,0,0,0,0,0,0,-1,1700,1527,9.07699,-5.81047
483,-503,9.74414,6.92432,0,0,0,0,0,0,0,-1,1707,1527,9.74417,-6.9243
490,-503,10.5033,10.1071,0,0,0,0,0,0,0,-1,1714,1527,10.5032,-10.107
497,-503,15.0057,17.9476,0,0,0,0,0,0,0,-1,1721,1527,15.0058,-17.9476
504,-503,16.4764,18.4486,0,0,0,0,0,0,0,-1,1728,1527,16.4764,-18.4486
511,-503,16.8276,18.3271,0,0,0,0,0,0,0,-1,1735,1527,16.8276,-18.3272
518,-503,17.2533,18.2738,0,0,0,0,0,0,0,-1,1742,1527,17.2533,-18.2738
525,-503,21.2887,26.5785,0,0,0,0,0,0,0,-1,1749,1527,21.2887,-26.5785
532,-503,22.666,25.8397,0,0,0,0,0,0,0,-1,1756,1527,22.6661,-25.8397
539,-503,22.6698,25.2335,0.00744092,0.00555519,-0.00482513,0.0114144,0.00158167,-0.688911,0.00714103,0.0258391,1763,1527,22.6698,-25.2335
546,-503,22.7067,24.5759,0.00573979,0.00427035,-0.00354788,0.00862823,0.00138191,-0.683298,0.00535133,0.0142203,1770,1527,22.7067,-24.576
553,-503,22.7211,24.0165,0.00454117,0.00318428,-0.00255604,0.00650727,0.00121818,-0.655676,0.00399452,0.0147264,1777,1527,22.721,-24.0165
560,-503,22.6923,23.4451,0.00370261,0.00231126,-0.0018356,0.00496994,0.00104393,-0.604267,0.00302595,0.0138561,1784,1527,22.6922,-23.4451
567,-503,22.6853,22.8462,0.00327696,0.00174993,-0.00149458,0.00419176,0.000835131,-0.549252,0.00256191,0.0121611,1791,1527,22.6853,-22.8462
574,-503,22.6674,22.2654,0.00313656,0.00137722,-0.00134379,0.00386299,0.000650784,-0.495591,0.00238814,0.0127983,1798,1527,22.6674,-22.2654
581,-503,22.634,21.7229,0.00316515,0.00110085,-0.00132671,0.00381392,0.000452076,-0.454815,0.00240612,0.0142722,1805,1527,22.634,-21.723
588,-503,22.6158,21.1765,0.0034342,0.000988872,-0.00150714,0.00415225,0.000270817,-0.444618,0.00268246,0.0178389,1812,1527,22.6159,-21.1765
595,-503,22.6029,20.5688,0.0040028,0.00102533,-0.0018045,0.00485342,0.000174715,-0.440495,0.00317897,0.014396,1819,1527,22.6029,-20.5689
602,-503,22.6471,19.9261,0.00474147,0.00125879,-0.00224414,0.00584063,0.000159631,-0.455447,0.00384165,0.0268696,1826,1527,22.6471,-19.9261
609,-503,22.6492,19.2985,0,0,0,0,0,0,0,-1,1833,1527,22.6491,-19.2984
616,-503,22.7561,18.6953,0,0,0,0,0,0,0,-1,1840,1527,22.7561,-18.6953
623,-503,18.7351,15.5999,0,0,0,0,0,0,0,-1,1847,1527,18.7351,-15.5999
630,-503,20.6721,13.9077,0,0,0,0,0,0,0,-1,1854,1527,20.6721,-13.9077
637,-503,14.5564,9.20496,0,0,0,0,0,0,0,-1,1861,1527,14.5564,-9.2049
644,-503,11.4802,7.57214,0,0,0,0,0,0,0,-1,1868,1527,11.4802,-7.57215
651,-503,11.5718,6.5448,0,0,0,0,0,0,0,-1,1875,1527,11.5718,-6.54476
658,-503,8.25635,3.10498,0,0,0,0,0,0,0,-1,1882,1527,8.2563,-3.10493
665,-503,0,0,0,0,0,0,0,0,0,-1,1889,1527,0,0
672,-503,0,0,0,0,0,0,0,0,0,-1,1896,1527,0,0
679,-503,0,0,0,0,0,0,0,0,0,-1,1903,1527,0,0
686,-503,0,0,0,0,0,0,0,0,0,-1,1910,1527,0,0
693,-503,0,0,0,0,0,0,0,0,0,-1,1917,1527,0,0
700,-503,0,0,0,0,0,0,0,0,0,-1,1924,1527,0,0
707,-503,0,0,0,0,0,0,0,0,0,-1,1931,1527,0,0
714,-503,0,0,0,0,0,0,0,0,0,-1,1938,1527,0,0
721,-503,0,0,0,0,0,0,0,0,0,-1,1945,1527,0,0
728,-503,0,0,0,0,0,0,0,0,0,-1,1952,1527,0,0
735,-503,0,0,0,0,0,0,0,0,0,-1,1959,1527,0,0
742,-503,0,0,0,0,0,0,0,0,0,-1,1966,1527,0,0
749,-503,0,0,0,0,0,0,0,0,0,-1,1973,1527,0,0
756,-503,0,0,0,0,0,0,0,0,0,-1,1980,1527,0,0
763,-503,0,0,0,0,0,0,0,0,0,-1,1987,1527,0,0
770,-503,0,0,0,0,0,0,0,0,0,-1,1994,1527,0,0
777,-503,0,0,0,0,0,0,0,0,0,-1,2001,1527,0,0
784,-503,0,0,0,0,0,0,0,0,0,-1,2008,1527,0,0
791,-503,0,0,0,0,0,0,0,0,0,-1,2015,1527,0,0
798,-503,0,0,0,0,0,0,0,0,0,-1,2022,1527,0,0
805,-503,0,0,0,0,0,0,0,0,0,-1,2029,1527,0,0
812,-503,0,0,0,0,0,0,0,0,0,-1,2036,1527,0,0
-700,-510,0,0,0,0,0,0,0,0,0,-1,524,1534,0,0
-693,-510,0,0,0,0,0,0,0,0,0,-1,531,1534,0,0
-686,-510,0,0,0,0,0,0,0,0,0,-1,538,1534,0,0
-679,-510,0,0,0,0,0,0,0,0,0,-1,545,1534,0,0
-672,-510,0,0,0,0,0,0,0,0,0,-1,552,1534,0,0
-665,-510,0,0,0,0,0,0,0,0,0,-1,559,1534,0,0
-658,-510,0,0,0,0,0,0,0,0,0,-1,566,1534,0,0
-651,-510,0,0,0,0,0,0,0,0,0,-1,573,1534,0,0
-644,-510,0,0,0,0,0,0,0,0,0,-1,580,1534,0,0
-637,-510,0,0,0,0,0,0,0,0,0,-1,587,1534,0,0
-630,-510,0,0,0,0,0,0,0,0,0,-1,594,1534,0,0
-623,-510,0,0,0,0,0,0,0,0,0,-1,601,1534,0,0
-616,-510,0,0,0,0,0,0,0,0,0,-1,608,1534,0,0
-609,-510,0,0,0,0,0,0,0,0,0,-1,615,1534,0,0
-602,-510,0,0,0,0,0,0,0,0,0,-1,622,1534,0,0
-595,-510,0,0,0,0,0,0,0,0,0,-1,629,1534,0,0
-588,-510,0,0,0,0,0,0,0,0,0,-1,636,1534,0,0
-581,-510,0,0,0,0,0,0,0,0,0,-1,643,1534,0,0
-574,-510,0,0,0,0,0,0,0,0,0,-1,650,1534,0,0
-567,-510,0,0,0,0,0,0,0,0,0,-1,657,1534,0,0
-560,-510,0,0,0,0,0,0,0,0,0,-1,664,1534,0,0
-553,-510,0,0,0,0,0,0,0,0,0,-1,671,1534,0,0
-546,-510,0,0,0,0,0,0,0,0,0,-1,678,1534,0,0
-539,-510,0,0,0,0,0,0,0,0,0,-1,685,1534,0,0
-532,-510,-3.95129,4.52014,0,0,0,0,0,0,0,-1,692,1534,-3.95131,-4.5202
-525,-510,-2.77411,0.316772,0,0,0,0,0,0,0,-1,699,1534,-2.77409,-0.3168
-518,-510,-2.86847,2.71423,0,0,0,0,0,0,0,-1,706,1534,-2.86849,-2.71424
-511,-510,-2.28571,4.48083,0,0,0,0,0,0,0,-1,713,1534,-2.28571,-4.48086
-504,-510,-4.86731,10.8224,0,0,0,0,0,0,0,-1,720,1534,-4.8673,-10.8224
-497,-510,-3.42352,15.5178,0,0,0,0,0,0,0,-1,727,1534,-3.42352,-15.5178
-490,-510,-4.74847,16.3676,0,0,0,0,0,0,0,-1,734,1534,-4.74847,-16.3675
-483,-510,-4.66467,17.1331,0,0,0,0,0,0,0,-1,741,1534,-4.66466,-17.1331
-476,-510,-4.88544,17.9897,-0.00410585,-0.00766416,-0.00193725,-0.00325474,-0.00851528,-0.413955,0.00496155,0.0429918,748,1534,-4.88541,-17.9897
-469,-510,-5.27991,18.6968,-0.00326521,-0.00625959,-0.00147377,-0.00266155,-0.00686325,-0.388757,0.00399562,0.016379,755,1534,-5.27989,-18.6968
-462,-510,-5.31152,19.3071,-0.00249046,-0.00475238,-0.0010502,-0.00207804,-0.00516479,-0.374194,0.00300079,0.0114401,762,1534,-5.3115,-19.3071
-455,-510,-5.33435,19.951,-0.00174467,-0.00330322,-0.000617523,-0.00152966,-0.00351823,-0.335054,0.00203701,0.0139822,769,1534,-5.33433,-19.9511
-448,-510,-5.32721,20.5808,-0.00100889,-0.00195055,-0.000167973,-0.000979823,-0.00197962,-0.171341,0.00114295,0.0132445,776,1534,-5.32721,-20.5808
-441,-510,-5.35645,21.1858,-0.000161593,-0.000507056,0.000464633,0.000161377,-0.000830025,0.607435,0.00061425,0.0136046,783,1534,-5.35647,-21.1858
-434,-510,-5.42902,21.7765,0.000764126,0.00103217,0.00125179,0.00215709,-0.000360793,0.838728,0.00157219,0.0152724,790,1534,-5.42905,-21.7765
-427,-510,-5.48334,22.3501,0.00182209,0.00256178,0.00214804,0.00437158,1.22865e-05,0.870651,0.0029103,0.0238453,797,1534,-5.48332,-22.3501
-420,-510,-5.47821,22.979,0.00308577,0.00421024,0.00327316,0.0069691,0.000326905,0.870454,0.00454102,0.0215282,804,1534,-5.47818,-22.979
-413,-510,-5.47589,23.6207,0.0044879,0.00597375,0.00460565,0.00989601,0.000565639,0.865363,0.00641711,0.0101191,811,1534,-5.47587,-23.6207
-406,-510,-5.5116,24.2216,0.00613584,0.00793398,0.00619116,0.013291,0.00077881,0.857503,0.00861281,0.010085,818,1534,-5.51159,-24.2215
-399,-510,-5.52985,24.8151,0.00802024,0.0102992,0.0080772,0.0173169,0.00100256,0.855474,0.0112254,0.0148671,825,1534,-5.52986,-24.8151
-392,-510,-5.35297,25.6771,0.0102249,0.0133162,0.010394,0.0222788,0.00126224,0.859211,0.0144502,0.0483881,832,1534,-5.35299,-25.6771
-385,-510,-5.02313,26.6163,0,0,0,0,0,0,0,-1,839,1534,-5.02312,-26.6163
-378,-510,-1.78308,13.8044,0,0,0,0,0,0,0,-1,846,1534,-1.78309,-13.8044
-371,-510,-1.74982,13.8027,0,0,0,0,0,0,0,-1,853,1534,-1.74981,-13.8028
-364,-510,-1.3479,13.7771,0,0,0,0,0,0,0,-1,860,1534,-1.34791,-13.7771
-357,-510,-0.254395,8.89575,0,0,0,0,0,0,0,-1,867,1534,-0.254397,-8.89569
-350,-510,0.471191,6.06458,0,0,0,0,0,0,0,-1,874,1534,0.47118,-6.06453
-343,-510,-6.96869,26.3074,0,0,0,0,0,0,0,-1,881,1534,-6.9687,-26.3074
-336,-510,-5.60437,29.5996,0,0,0,0,0,0,0,-1,888,1534,-5.60435,-29.5996
-329,-510,-4.87781,20.6893,0,0,0,0,0,0,0,-1,895,1534,-4.87782,-20.6894
-322,-510,-0.251526,11.973,0,0,0,0,0,0,0,-1,902,1534,-0.251497,-11.9731
-315,-510,-1.73047,10.9796,0,0,0,0,0,0,0,-1,909,1534,-1.73049,-10.9796
-308,-510,-2.05328,9.72034,0,0,0,0,0,0,0,-1,916,1534,-2.05327,-9.72036
-301,-510,-1.85437,11.5869,0,0,0,0,0,0,0,-1,923,1534,-1.85437,-11.5869
-294,-510,0,0,0,0,0,0,0,0,0,-1,930,1534,0,0
-287,-510,0,0,0,0,0,0,0,0,0,-1,937,1534,0,0
-280,-510,0,0,0,0,0,0,0,0,0,-1,944,1534,0,0
-273,-510,0,0,0,0,0,0,0,0,0,-1,951,1534,0,0
-266,-510,0,0,0,0,0,0,0,0,0,-1,958,1534,0,0
-259,-510,0,0,0,0,0,0,0,0,0,-1,965,1534,0,0
-252,-510,0,0,0,0,0,0,0,0,0,-1,972,1534,0,0
-245,-510,0,0,0,0,0,0,0,0,0,-1,979,1534,0,0
-238,-510,0,0,0,0,0,0,0,0,0,-1,986,1534,0,0
-231,-510,0,0,0,0,0,0,0,0,0,-1,993,1534,0,0
-224,-510,0,0,0,0,0,0,0,0,0,-1,1000,1534,0,0
-217,-510,0,0,0,0,0,0,0,0,0,-1,1007,1534,0,0
-210,-510,0,0,0,0,0,0,0,0,0,-1,1014,1534,0,0
-203,-510,0,0,0,0,0,0,0,0,0,-1,1021,1534,0,0
-196,-510,0,0,0,0,0,0,0,0,0,-1,1028,1534,0,0
-189,-510,0,0,0,0,0,0,0,0,0,-1,1035,1534,0,0
-182,-510,0,0,0,0,0,0,0,0,0,-1,1042,1534,0,0
-175,-510,0,0,0,0,0,0,0,0,0,-1,1049,1534,0,0
-168,-510,0,0,0,0,0,0,0,0,0,-1,1056,1534,0,0
-161,-510,0,0,0,0,0,0,0,0,0,-1,1063,1534,0,0
-154,-510,0,0,0,0,0,0,0,0,0,-1,1070,1534,0,0
-147,-510,0,0,0,0,0,0,0,0,0,-1,1077,1534,0,0
-140,-510,0,0,0,0,0,0,0,0,0,-1,1084,1534,0,0
-133,-510,0,0,0,0,0,0,0,0,0,-1,1091,1534,0,0
-126,-510,0,0,0,0,0,0,0,0,0,-1,1098,1534,0,0
-119,-510,0,0,0,0,0,0,0,0,0,-1,1105,1534,0,0
-112,-510,0,0,0,0,0,0,0,0,0,-1,1112,1534,0,0
-105,-510,0,0,0,0,0,0,0,0,0,-1,1119,1534,0,0
-98,-510,0,0,0,0,0,0,0,0,0,-1,1126,1534,0,0
-91,-510,0,0,0,0,0,0,0,0,0,-1,1133,1534,0,0
-84,-510,0,0,0,0,0,0,0,0,0,-1,1140,1534,0,0
-77,-510,0,0,0,0,0,0,0,0,0,-1,1147,1534,0,0
-70,-510,0,0,0,0,0,0,0,0,0,-1,1154,1534,0,0
-63,-510,0,0,0,0,0,0,0,0,0,-1,1161,1534,0,0
-56,-510,0,0,0,0,0,0,0,0,0,-1,1168,1534,0,0
-49,-510,0,0,0,0,0,0,0,0,0,-1,1175,1534,0,0
-42,-510,0,0,0,0,0,0,0,0,0,-1,1182,1534,0,0
-35,-510,0,0,0,0,0,0,0,0,0,-1,1189,1534,0,0
-28,-510,0,0,0,0,0,0,0,0,0,-1,1196,1534,0,0
-21,-510,0,0,0,0,0,0,0,0,0,-1,1203,1534,0,0
-14,-510,0,0,0,0,0,0,0,0,0,-1,1210,1534,0,0
-7,-510,0,0,0,0,0,0,0,0,0,-1,1217,1534,0,0
0,-510,0,0,0,0,0,0,0,0,0,-1,1224,1534,0,0
7,-510,0,0,0,0,0,0,0,0,0,-1,1231,1534,0,0
14,-510,0,0,0,0,0,0,0,0,0,-1,1238,1534,0,0
21,-510,0,0,0,0,0,0,0,0,0,-1,1245,1534,0,0
28,-510,0,0,0,0,0,0,0,0,0,-1,1252,1534,0,0
35,-510,0,0,0,0,0,0,0,0,0,-1,1259,1534,0,0
42,-510,0,0,0,0,0,0,0,0,0,-1,1266,1534,0,0
49,-510,0,0,0,0,0,0,0,0,0,-1,1273,1534,0,0
56,-510,0,0,0,0,0,0,0,0,0,-1,1280,1534,0,0
63,-510,0,0,0,0,0,0,0,0,0,-1,1287,1534,0,0
70,-510,0,0,0,0,0,0,0,0,0,-1,1294,1534,0,0
77,-510,0,0,0,0,0,0,0,0,0,-1,1301,1534,0,0
84,-510,0,0,0,0,0,0,0,0,0,-1,1308,1534,0,0
91,-510,0,0,0,0,0,0,0,0,0,-1,1315,1534,0,0
98,-510,0,0,0,0,0,0,0,0,0,-1,1322,1534,0,0
105,-510,0,0,0,0,0,0,0,0,0,-1,1329,1534,0,0
112,-510,0,0,0,0,0,0,0,0,0,-1,1336,1534,0,0
119,-510,0,0,0,0,0,0,0,0,0,-1,1343,1534,0,0
126,-510,0,0,0,0,0,0,0,0,0,-1,1350,1534,0,0
133,-510,0,0,0,0,0,0,0,0,0,-1,1357,1534,0,0
140,-510,0,0,0,0,0,0,0,0,0,-1,1364,1534,0,0
147,-510,0,0,0,0,0,0,0,0,0,-1,1371,1534,0,0
154,-510,0,0,0,0,0,0,0,0,0,-1,1378,1534,0,0
161,-510,0,0,0,0,0,0,0,0,0,-1,1385,1534,0,0
168,-510,0,0,0,0,0,0,0,0,0,-1,1392,1534,0,0
175,-510,0,0,0,0,0,0,0,0,0,-1,1399,1534,0,0
182,-510,0,0,0,0,0,0,0,0,0,-1,1406,1534,0,0
189,-510,0,0,0,0,0,0,0,0,0,-1,1413,1534,0,0
196,-510,0,0,0,0,0,0,0,0,0,-1,1420,1534,0,0
203,-510,0,0,0,0,0,0,0,0,0,-1,1427,1534,0,0
210,-510,0,0,0,0,0,0,0,0,0,-1,1434,1534,0,0
217,-510,0,0,0,0,0,0,0,0,0,-1,1441,1534,0,0
224,-510,0,0,0,0,0,0,0,0,0,-1,1448,1534,0,0
231,-510,0,0,0,0,0,0,0,0,0,-1,1455,1534,0,0
238,-510,0,0,0,0,0,0,0,0,0,-1,1462,1534,0,0
245,-510,0,0,0,0,0,0,0,0,0,-1,1469,1534,0,0
252,-510,0,0,0,0,0,0,0,0,0,-1,1476,1534,0,0
259,-510,0,0,0,0,0,0,0,0,0,-1,1483,1534,0,0
266,-510,0,0,0,0,0,0,0,0,0,-1,1490,1534,0,0
273,-510,0,0,0,0,0,0,0,0,0,-1,1497,1534,0,0
280,-510,0,0,0,0,0,0,0,0,0,-1,1504,1534,0,0
287,-510,0,0,0,0,0,0,0,0,0,-1,1511,1534,0,0
294,-510,0,0,0,0,0,0,0,0,0,-1,1518,1534,0,0
301,-510,0,0,0,0,0,0,0,0,0,-1,1525,1534,0,0
308,-510,0,0,0,0,0,0,0,0,0,-1,1532,1534,0,0
315,-510,0,0,0,0,0,0,0,0,0,-1,1539,1534,0,0
322,-510,0,0,0,0,0,0,0,0,0,-1,1546,1534,0,0
329,-510,0,0,0,0,0,0,0,0,0,-1,1553,1534,0,0
336,-510,0,0,0,0,0,0,0,0,0,-1,1560,1534,0,0
343,-510,0,0,0,0,0,0,0,0,0,-1,1567,1534,0,0
350,-510,0,0,0,0,0,0,0,0,0,-1,1574,1534,0,0
357,-510,0,0,0,0,0,0,0,0,0,-1,1581,1534,0,0
364,-510,0,0,0,0,0,0,0,0,0,-1,1588,1534,0,0
371,-510,0,0,0,0,0,0,0,0,0,-1,1595,1534,0,0
378,-510,0,0,0,0,0,0,0,0,0,-1,1602,1534,0,0
385,-510,0,0,0,0,0,0,0,0,0,-1,1609,1534,0,0
392,-510,0,0,0,0,0,0,0,0,0,-1,1616,1534,0,0
399,-510,0,0,0,0,0,0,0,0,0,-1,1623,1534,0,0
406,-510,0,0,0,0,0,0,0,0,0,-1,1630,1534,0,0
413,-510,0,0,0,0,0,0,0,0,0,-1,1637,1534,0,0
420,-510,14.1888,6.71936,0,0,0,0,0,0,0,-1,1644,1534,14.1889,-6.71939
427,-510,10.2134,5.59485,0,0,0,0,0,0,0,-1,1651,1534,10.2134,-5.59485
434,-510,11.8219,4.07898,0,0,0,0,0,0,0,-1,1658,1534,11.8219,-4.07895
441,-510,12.6812,3.02991,0,0,0,0,0,0,0,-1,1665,1534,12.6811,-3.0299
448,-510,13.2379,2.2804,0,0,0,0,0,0,0,-1,1672,1534,13.2379,-2.28037
455,-510,9.76892,2.20642,0,0,0,0,0,0,0,-1,1679,1534,9.76894,-2.20647
462,-510,9.84692,2.49182,0,0,0,0,0,0,0,-1,1686,1534,9.84695,-2.49185
469,-510,16.6072,7.26941,0,0,0,0,0,0,0,-1,1693,1534,16.6072,-7.26945
476,-510,15.9199,7.8645,0,0,0,0,0,0,0,-1,1700,1534,15.9199,-7.86455
483,-510,13.0833,8.10938,0,0,0,0,0,0,0,-1,1707,1534,13.0833,-8.10932
490,-510,13.0841,15.3286,0,0,0,0,0,0,0,-1,1714,1534,13.0841,-15.3286
497,-510,15.5652,18.823,0,0,0,0,0,0,0,-1,1721,1534,15.5652,-18.823
504,-510,15.998,18.7478,0,0,0,0,0,0,0,-1,1728,1534,15.998,-18.7478
511,-510,15.9443,18.0476,0,0,0,0,0,0,0,-1,1735,1534,15.9443,-18.0476
518,-510,21.5343,27.1368,0,0,0,0,0,0,0,-1,1742,1534,21.5342,-27.1368
525,-510,21.7968,26.64,0,0,0,0,0,0,0,-1,1749,1534,21.7967,-26.64
532,-510,22.1207,25.8143,0.00808044,0.00642963,-0.00546594,0.012783,0.00172712,-0.71046,0.00800858,0.0264167,1756,1534,22.1207,-25.8143
539,-510,22.1981,25.1298,0.00619094,0.00484072,-0.00404697,0.00961872,0.00141294,-0.70275,0.00599724,0.0141474,1763,1534,22.1982,-25.1297
546,-510,22.1567,24.6163,0.00482756,0.00363685,-0.00297887,0.00726999,0.00119442,-0.686768,0.00450165,0.013661,1770,1534,22.1567,-24.6163
553,-510,22.1332,24.0422,0.00383803,0.00262423,-0.00211099,0.00542763,0.00103463,-0.645425,0.0033276,0.0141922,1777,1534,22.1332,-24.0422
560,-510,22.0909,23.4335,0.00319275,0.00181735,-0.00148148,0.00413837,0.000871734,-0.568099,0.00251912,0.013602,1784,1534,22.0909,-23.4334
567,-510,22.0764,22.8459,0.00296396,0.00134566,-0.0012335,0.00363003,0.000679596,-0.495115,0.0022283,0.0125383,1791,1534,22.0764,-22.846
574,-510,22.0699,22.2939,0.00302051,0.00104954,-0.00115919,0.00355651,0.000513544,-0.433109,0.00221971,0.0132792,1798,1534,22.0699,-22.2939
581,-510,22.0475,21.7697,0.00328967,0.000878249,-0.00125635,0.00382527,0.00034265,-0.402982,0.00244398,0.011806,1805,1534,22.0475,-21.7697
588,-510,22.0439,21.2029,0.0038184,0.000926614,-0.00158576,0.00451849,0.000226525,-0.41575,0.00293973,0.0132664,1812,1534,22.044,-21.2029
595,-510,22.1663,20.4957,0.00462705,0.00118004,-0.00206953,0.00559676,0.000210331,-0.438186,0.00366308,0.0216659,1819,1534,22.1663,-20.4957
602,-510,22.2114,19.7592,0,0,0,0,0,0,0,-1,1826,1534,22.2115,-19.7591
609,-510,21.259,19.222,0,0,0,0,0,0,0,-1,1833,1534,21.259,-19.222
616,-510,18.7024,16.2474,0,0,0,0,0,0,0,-1,1840,1534,18.7024,-16.2474
623,-510,19.6013,14.6211,0,0,0,0,0,0,0,-1,1847,1534,19.6013,-14.6211
630,-510,13.7461,9.30334,0,0,0,0,0,0,0,-1,1854,1534,13.7461,-9.30335
637,-510,11.0155,7.38464,0,0,0,0,0,0,0,-1,1861,1534,11.0155,-7.38463
644,-510,11.5809,7.17126,0,0,0,0,0,0,0,-1,1868,1534,11.5809,-7.17123
651,-510,8.70471,3.5061,0,0,0,0,0,0,0,-1,1875,1534,8.70475,-3.50611
658,-510,0,0,0,0,0,0,0,0,0,-1,1882,1534,0,0
665,-510,0,0,0,0,0,0,0,0,0,-1,1889,1534,0,0
672,-510,0,0,0,0,0,0,0,0,0,-1,1896,1534,0,0
679,-510,0,0,0,0,0,0,0,0,0,-1,1903,1534,0,0
686,-510,0,0,0,0,0,0,0,0,0,-1,1910,1534,0,0
693,-510,0,0,0,0,0,0,0,0,0,-1,1917,1534,0,0
700,-510,0,0,0,0,0,0,0,0,0,-1,1924,1534,0,0
707,-510,0,0,0,0,0,0,0,0,0,-1,1931,1534,0,0
714,-510,0,0,0,0,0,0,0,0,0,-1,1938,1534,0,0
721,-510,0,0,0,0,0,0,0,0,0,-1,1945,1534,0,0
728,-510,0,0,0,0,0,0,0,0,0,-1,1952,1534,0,0
735,-510,0,0,0,0,0,0,0,0,0,-1,1959,1534,0,0
742,-510,0,0,0,0,0,0,0,0,0,-1,1966,1534,0,0
749,-510,0,0,0,0,0,0,0,0,0,-1,1973,1534,0,0
756,-510,0,0,0,0,0,0,0,0,0,-1,1980,1534,0,0
763,-510,0,0,0,0,0,0,0,0,0,-1,1987,1534,0,0
770,-510,0,0,0,0,0,0,0,0,0,-1,1994,1534,0,0
777,-510,0,0,0,0,0,0,0,0,0,-1,2001,1534,0,0
784,-510,0,0,0,0,0,0,0,0,0,-1,2008,1534,0,0
791,-510,0,0,0,0,0,0,0,0,0,-1,2015,1534,0,0
798,-510,0,0,0,0,0,0,0,0,0,-1,2022,1534,0,0
805,-510,0,0,0,0,0,0,0,0,0,-1,2029,1534,0,0
812,-510,0,0,0,0,0,0,0,0,0,-1,2036,1534,0,0
-700,-517,0,0,0,0,0,0,0,0,0,-1,524,1541,0,0
-693,-517,0,0,0,0,0,0,0,0,0,-1,531,1541,0,0
-686,-517,0,0,0,0,0,0,0,0,0,-1,538,1541,0,0
-679,-517,0,0,0,0,0,0,0,0,0,-1,545,1541,0,0
-672,-517,0,0,0,0,0,0,0,0,0,-1,552,1541,0,0
-665,-517,0,0,0,0,0,0,0,0,0,-1,559,1541,0,0
-658,-517,0,0,0,0,0,0,0,0,0,-1,566,1541,0,0
-651,-517,0,0,0,0,0,0,0,0,0,-1,573,1541,0,0
-644,-517,0,0,0,0,0,0,0,0,0,-1,580,1541,0,0
-637,-517,0,0,0,0,0,0,0,0,0,-1,587,1541,0,0
-630,-517,0,0,0,0,0,0,0,0,0,-1,594,1541,0,0
-623,-517,0,0,0,0,0,0,0,0,0,-1,601,1541,0,0
-616,-517,0,0,0,0,0,0,0,0,0,-1,608,1541,0,0
-609,-517,0,0,0,0,0,0,0,0,0,-1,615,1541,0,0
-602,-517,0,0,0,0,0,0,0,0,0,-1,622,1541,0,0
-595,-517,0,0,0,0,0,0,0,0,0,-1,629,1541,0,0
-588,-517,0,0,0,0,0,0,0,0,0,-1,636,1541,0,0
-581,-517,0,0,0,0,0,0,0,0,0,-1,643,1541,0,0
-574,-517,0,0,0,0,0,0,0,0,0,-1,650,1541,0,0
-567,-517,0,0,0,0,0,0,0,0,0,-1,657,1541,0,0
-560,-517,0,0,0,0,0,0,0,0,0,-1,664,1541,0,0
-553,-517,0,0,0,0,0,0,0,0,0,-1,671,1541,0,0
-546,-517,0,0,0,0,0,0,0,0,0,-1,678,1541,0,0
-539,-517,0,0,0,0,0,0,0,0,0,-1,685,1541,0,0
-532,-517,0,0,0,0,0,0,0,0,0,-1,692,1541,0,0
-525,-517,-3.62903,4.3606,0,0,0,0,0,0,0,-1,699,1541,-3.62904,-4.36056
-518,-517,-1.664,2.27209,0,0,0,0,0,0,0,-1,706,1541,-1.66399,-2.27207
-511,-517,-0.999146,5.52063,0,0,0,0,0,0,0,-1,713,1541,-0.999126,-5.52059
-504,-517,-1.06946,8.67432,0,0,0,0,0,0,0,-1,720,1541,-1.06947,-8.6743
-497,-517,-3.87305,15.0215,0,0,0,0,0,0,0,-1,727,1541,-3.87307,-15.0215
-490,-517,-3.40405,16.9758,0,0,0,0,0,0,0,-1,734,1541,-3.40406,-16.9759
-483,-517,-3.75726,17.4686,0,0,0,0,0,0,0,-1,741,1541,-3.75725,-17.4687
-476,-517,-4.44012,18.035,0,0,0,0,0,0,0,-1,748,1541,-4.44015,-18.0351
-469,-517,-4.58887,18.7474,-0.00383267,-0.0079151,-0.00173016,-0.00319807,-0.0085497,-0.351552,0.0049881,0.0221301,755,1541,-4.58885,-18.7474
-462,-517,-4.72205,19.3199,-0.00299861,-0.00605859,-0.00128643,-0.00252966,-0.00652755,-0.349568,0.00380033,0.0204706,762,1541,-4.72205,-19.3199
-455,-517,-4.72632,19.9723,-0.0022433,-0.00435884,-0.000872458,-0.00192992,-0.00467222,-0.344844,0.00271107,0.0147618,769,1541,-4.72631,-19.9723
-448,-517,-4.73157,20.6147,-0.00156518,-0.00290546,-0.000506826,-0.0013951,-0.00307553,-0.323761,0.0017782,0.0133403,776,1541,-4.73157,-20.6148
-441,-517,-4.77948,21.2195,-0.000806453,-0.0014631,4.37632e-06,-0.000806424,-0.00146313,0.00666424,0.000846212,0.0120313,783,1541,-4.77951,-21.2195
-434,-517,-4.80255,21.8107,3.1064e-05,-2.30448e-06,0.000659341,0.000673931,-0.000645172,0.772749,0.000761645,0.0143785,790,1541,-4.80258,-21.8106
-427,-517,-4.83807,22.4038,0.00097658,0.00143658,0.00142321,0.00264825,-0.000235091,0.865509,0.00184885,0.0140656,797,1541,-4.83807,-22.4039
-420,-517,-4.89539,23.0353,0.00213705,0.00288257,0.00238748,0.00492622,9.34035e-05,0.862839,0.00325346,0.0207921,804,1541,-4.89538,-23.0353
-413,-517,-4.87238,23.6348,0.00332406,0.00451763,0.00346395,0.00743583,0.000405861,0.870703,0.00482763,0.0107394,811,1541,-4.87235,-23.6347
-406,-517,-4.90955,24.2384,0.00469149,0.00622322,0.00477624,0.0102946,0.0006201,0.864896,0.00666599,0.0106424,818,1541,-4.90952,-24.2384
-399,-517,-4.92578,24.8512,0.00623026,0.00819752,0.00628126,0.0135717,0.000856075,0.863066,0.00877637,0.0107504,825,1541,-4.92577,-24.8512
-392,-517,-4.91693,25.4691,0.00796623,0.0105743,0.00803113,0.0174066,0.00113396,0.865882,0.0112455,0.0172984,832,1541,-4.91692,-25.4691
-385,-517,-4.81836,26.3846,0.0098665,0.0130557,0.00999637,0.0215839,0.00133835,0.864491,0.0139645,0.0438664,839,1541,-4.81839,-26.3847
-378,-517,-4.68317,27.4457,0,0,0,0,0,0,0,-1,846,1541,-4.68318,-27.4457
-371,-517,-1.37585,13.2646,0,0,0,0,0,0,0,-1,853,1541,-1.37586,-13.2647
-364,-517,-1.26245,12.6289,0,0,0,0,0,0,0,-1,860,1541,-1.26243,-12.6289
-357,-517,-1.23889,12.979,0,0,0,0,0,0,0,-1,867,1541,-1.23891,-12.979
-350,-517,-5.40198,23.8954,0,0,0,0,0,0,0,-1,874,1541,-5.40196,-23.8954
-343,-517,-5.45844,29.2598,0,0,0,0,0,0,0,-1,881,1541,-5.45842,-29.2598
-336,-517,-4.53223,29.6708,0,0,0,0,0,0,0,-1,888,1541,-4.53221,-29.6708
-329,-517,-3.60602,30.0817,0,0,0,0,0,0,0,-1,895,1541,-3.60601,-30.0817
-322,-517,-4.21246,19.5819,0,0,0,0,0,0,0,-1,902,1541,-4.21244,-19.5819
-315,-517,-0.987976,7.29749,0,0,0,0,0,0,0,-1,909,1541,-0.987993,-7.29743
-308,-517,3.27911,17.621,0,0,0,0,0,0,0,-1,916,1541,3.27913,-17.621
-301,-517,-1.69141,8.87488,0,0,0,0,0,0,0,-1,923,1541,-1.69141,-8.87485
-294,-517,-1.72583,9.92566,0,0,0,0,0,0,0,-1,930,1541,-1.72584,-9.92571
-287,-517,-3.09045,12.1472,0,0,0,0,0,0,0,-1,937,1541,-3.09043,-12.1472
-280,-517,0,0,0,0,0,0,0,0,0,-1,944,1541,0,0
-273,-517,0,0,0,0,0,0,0,0,0,-1,951,1541,0,0
-266,-517,0,0,0,0,0,0,0,0,0,-1,958,1541,0,0
-259,-517,0,0,0,0,0,0,0,0,0,-1,965,1541,0,0
-252,-517,0,0,0,0,0,0,0,0,0,-1,972,1541,0,0
-245,-517,0,0,0,0,0,0,0,0,0,-1,979,1541,0,0
-238,-517,0,0,0,0,0,0,0,0,0,-1,986,1541,0,0
-231,-517,0,0,0,0,0,0,0,0,0,-1,993,1541,0,0
-224,-517,0,0,0,0,0,0,0,0,0,-1,1000,1541,0,0
-217,-517,0,0,0,0,0,0,0,0,0,-1,1007,1541,0,0
-210,-517,0,0,0,0,0,0,0,0,0,-1,1014,1541,0,0
-203,-517,0,0,0,0,0,0,0,0,0,-1,1021,1541,0,0
-196,-517,0,0,0,0,0,0,0,0,0,-1,1028,1541,0,0
-189,-517,0,0,0,0,0,0,0,0,0,-1,1035,1541,0,0
-182,-517,0,0,0,0,0,0,0,0,0,-1,1042,1541,0,0
-175,-517,0,0,0,0,0,0,0,0,0,-1,1049,1541,0,0
-168,-517,0,0,0,0,0,0,0,0,0,-1,1056,1541,0,0
-161,-517,0,0,0,0,0,0,0,0,0,-1,1063,1541,0,0
-154,-517,0,0,0,0,0,0,0,0,0,-1,1070,1541,0,0
-147,-517,0,0,0,0,0,0,0,0,0,-1,1077,1541,0,0
-140,-517,0,0,0,0,0,0,0,0,0,-1,1084,1541,0,0
-133,-517,0,0,0,0,0,0,0,0,0,-1,1091,1541,0,0
-126,-517,0,0,0,0,0,0,0,0,0,-1,1098,1541,0,0
-119,-517,0,0,0,0,0,0,0,0,0,-1,1105,1541,0,0
-112,-517,0,0,0,0,0,0,0,0,0,-1,1112,1541,0,0
-105,-517,0,0,0,0,0,0,0,0,0,-1,1119,1541,0,0
-98,-517,0,0,0,0,0,0,0,0,0,-1,1126,1541,0,0
-91,-517,0,0,0,0,0,0,0,0,0,-1,1133,1541,0,0
-84,-517,0,0,0,0,0,0,0,0,0,-1,1140,1541,0,0
-77,-517,0,0,0,0,0,0,0,0,0,-1,1147,1541,0,0
-70,-517,0,0,0,0,0,0,0,0,0,-1,1154,1541,0,0
-63,-517,0,0,0,0,0,0,0,0,0,-1,1161,1541,0,0
-56,-517,0,0,0,0,0,0,0,0,0,-1,1168,1541,0,0
-49,-517,0,0,0,0,0,0,0,0,0,-1,1175,1541,0,0
-42,-517,0,0,0,0,0,0,0,0,0,-1,1182,1541,0,0
-35,-517,0,0,0,0,0,0,0,0,0,-1,1189,1541,0,0
-28,-517,0,0,0,0,0,0,0,0,0,-1,1196,1541,0,0
-21,-517,0,0,0,0,0,0,0,0,0,-1,1203,1541,0,0
-14,-517,0,0,0,0,0,0,0,0,0,-1,1210,1541,0,0
-7,-517,0,0,0,0,0,0,0,0,0,-1,1217,1541,0,0
0,-517,0,0,0,0,0,0,0,0,0,-1,1224,1541,0,0
7,-517,0,0,0,0,0,0,0,0,0,-1,1231,1541,0,0
14,-517,0,0,0,0,0,0,0,0,0,-1,1238,1541,0,0
21,-517,0,0,0,0,0,0,0,0,0,-1,1245,1541,0,0
28,-517,0,0,0,0,0,0,0,0,0,-1,1252,1541,0,0
35,-517,0,0,0,0,0,0,0,0,0,-1,1259,1541,0,0
42,-517,0,0,0,0,0,0,0,0,0,-1,1266,1541,0,0
49,-517,0,0,0,0,0,0,0,0,0,-1,1273,1541,0,0
56,-517,0,0,0,0,0,0,0,0,0,-1,1280,1541,0,0
63,-517,0,0,0,0,0,0,0,0,0,-1,1287,1541,0,0
70,-517,0,0,0,0,0,0,0,0,0,-1,1294,1541,0,0
77,-517,0,0,0,0,0,0,0,0,0,-1,1301,1541,0,0
84,-517,0,0,0,0,0,0,0,0,0,-1,1308,1541,0,0
91,-517,0,0,0,0,0,0,0,0,0,-1,1315,1541,0,0
98,-517,0,0,0,0,0,0,0,0,0,-1,1322,1541,0,0
105,-517,0,0,0,0,0,0,0,0,0,-1,1329,1541,0,0
112,-517,0,0,0,0,0,0,0,0,0,-1,1336,1541,0,0
119,-517,0,0,0,0,0,0,0,0,0,-1,1343,1541,0,0
126,-517,0,0,0,0,0,0,0,0,0,-1,1350,1541,0,0
133,-517,0,0,0,0,0,0,0,0,0,-1,1357,1541,0,0
140,-517,0,0,0,0,0,0,0,0,0,-1,1364,1541,0,0
147,-517,0,0,0,0,0,0,0,0,0,-1,1371,1541,0,0
154,-517,0,0,0,0,0,0,0,0,0,-1,1378,1541,0,0
161,-517,0,0,0,0,0,0,0,0,0,-1,1385,1541,0,0
168,-517,0,0,0,0,0,0,0,0,0,-1,1392,1541,0,0
175,-517,0,0,0,0,0,0,0,0,0,-1,1399,1541,0,0
182,-517,0,0,0,0,0,0,0,0,0,-1,1406,1541,0,0
189,-517,0,0,0,0,0,0,0,0,0,-1,1413,1541,0,0
196,-517,0,0,0,0,0,0,0,0,0,-1,1420,1541,0,0
203,-517,0,0,0,0,0,0,0,0,0,-1,1427,1541,0,0
210,-517,0,0,0,0,0,0,0,0,0,-1,1434,1541,0,0
217,-517,0,0,0,0,0,0,0,0,0,-1,1441,1541,0,0
224,-517,0,0,0,0,0,0,0,0,0,-1,1448,1541,0,0
231,-517,0,0,0,0,0,0,0,0,0,-1,1455,1541,0,0
238,-517,0,0,0,0,0,0,0,0,0,-1,1462,1541,0,0
245,-517,0,0,0,0,0,0,0,0,0,-1,1469,1541,0,0
252,-517,0,0,0,0,0,0,0,0,0,-1,1476,1541,0,0
259,-517,0,0,0,0,0,0,0,0,0,-1,1483,1541,0,0
266,-517,0,0,0,0,0,0,0,0,0,-1,1490,1541,0,0
273,-517,0,0,0,0,0,0,0,0,0,-1,1497,1541,0,0
280,-517,0,0,0,0,0,0,0,0,0,-1,1504,1541,0,0
287,-517,0,0,0,0,0,0,0,0,0,-1,1511,1541,0,0
294,-517,0,0,0,0,0,0,0,0,0,-1,1518,1541,0,0
301,-517,0,0,0,0,0,0,0,0,0,-1,1525,1541,0,0
308,-517,0,0,0,0,0,0,0,0,0,-1,1532,1541,0,0
315,-517,0,0,0,0,0,0,0,0,0,-1,1539,1541,0,0
322,-517,0,0,0,0,0,0,0,0,0,-1,1546,1541,0,0
329,-517,0,0,0,0,0,0,0,0,0,-1,1553,1541,0,0
336,-517,0,0,0,0,0,0,0,0,0,-1,1560,1541,0,0
343,-517,0,0,0,0,0,0,0,0,0,-1,1567,1541,0,0
350,-517,0,0,0,0,0,0,0,0,0,-1,1574,1541,0,0
357,-517,0,0,0,0,0,0,0,0,0,-1,1581,1541,0,0
364,-517,0,0,0,0,0,0,0,0,0,-1,1588,1541,0,0
371,-517,0,0,0,0,0,0,0,0,0,-1,1595,1541,0,0
378,-517,0,0,0,0,0,0,0,0,0,-1,1602,1541,0,0
385,-517,0,0,0,0,0,0,0,0,0,-1,1609,1541,0,0
392,-517,0,0,0,0,0,0,0,0,0,-1,1616,1541,0,0
399,-517,0,0,0,0,0,0,0,0,0,-1,1623,1541,0,0
406,-517,13.1395,7.01978,0,0,0,0,0,0,0,-1,1630,1541,13.1396,-7.01981
413,-517,12.8859,6.31592,0,0,0,0,0,0,0,-1,1637,1541,12.8858,-6.31588
420,-517,12.4789,6.20337,0,0,0,0,0,0,0,-1,1644,1541,12.4789,-6.20333
427,-517,11.647,4.66516,0,0,0,0,0,0,0,-1,1651,1541,11.647,-4.66519
434,-517,12.3719,3.92773,0,0,0,0,0,0,0,-1,1658,1541,12.3719,-3.92776
441,-517,13.146,3.14124,0,0,0,0,0,0,0,-1,1665,1541,13.146,-3.14121
448,-517,13.8861,2.36682,0,0,0,0,0,0,0,-1,1672,1541,13.8861,-2.36684
455,-517,13.6012,4.06335,0,0,0,0,0,0,0,-1,1679,1541,13.6012,-4.06335
462,-517,14.8956,7.0752,0,0,0,0,0,0,0,-1,1686,1541,14.8956,-7.07525
469,-517,13.6292,6.87744,0,0,0,0,0,0,0,-1,1693,1541,13.6292,-6.87739
476,-517,17.1632,14.1487,0,0,0,0,0,0,0,-1,1700,1541,17.1632,-14.1487
483,-517,16.5157,15.0776,0,0,0,0,0,0,0,-1,1707,1541,16.5157,-15.0777
490,-517,15.5439,18.0258,0,0,0,0,0,0,0,-1,1714,1541,15.5439,-18.0258
497,-517,16.0292,18.7786,0,0,0,0,0,0,0,-1,1721,1541,16.0291,-18.7786
504,-517,17.3815,22.3873,0,0,0,0,0,0,0,-1,1728,1541,17.3814,-22.3873
511,-517,16.9674,21.8491,0,0,0,0,0,0,0,-1,1735,1541,16.9674,-21.8491
518,-517,21.2634,26.9728,0,0,0,0,0,0,0,-1,1742,1541,21.2634,-26.9727
525,-517,21.4604,26.3606,0.0086744,0.00764089,-0.00618518,0.0143644,0.00195091,-0.743721,0.00899673,0.0249265,1749,1541,21.4605,-26.3606
532,-517,21.631,25.6881,0.00667998,0.00585525,-0.00472002,0.0110056,0.00152962,-0.741826,0.00688408,0.0128096,1756,1541,21.6309,-25.6881
539,-517,21.6482,25.1398,0.00510645,0.00430897,-0.00347049,0.00820103,0.00121439,-0.728202,0.00511088,0.0136536,1763,1541,21.6483,-25.1398
546,-517,21.6215,24.6107,0.00394658,0.00302313,-0.00248239,0.00600982,0.000959887,-0.693448,0.003728,0.0142586,1770,1541,21.6215,-24.6107
553,-517,21.577,24.0416,0.0030703,0.00191995,-0.00163023,0.00422385,0.000766402,-0.615807,0.00259838,0.0180799,1777,1541,21.5771,-24.0416
560,-517,21.5604,23.4709,0.00254181,0.00103019,-0.000995341,0.00303578,0.000536218,-0.46067,0.0018709,0.0164225,1784,1541,21.5605,-23.4709
567,-517,21.5378,22.9042,0.00243805,0.000499728,-0.000735322,0.00268543,0.000252348,-0.32453,0.00171238,0.0129161,1791,1541,21.5378,-22.9042
574,-517,21.5123,22.3204,0.00263835,0.000160388,-0.000648301,0.00279772,1.02411e-06,-0.241038,0.0018648,0.0143946,1798,1541,21.5124,-22.3204
581,-517,21.4855,21.7592,0.00313222,2.02767e-06,-0.000793141,0.00332172,-0.000187469,-0.234523,0.00227954,0.0151275,1805,1541,21.4855,-21.7591
588,-517,21.4766,21.1947,0.00394209,0.000141349,-0.00121636,0.00429803,-0.000214591,-0.284679,0.00293949,0.0159668,1812,1541,21.4766,-21.1947
595,-517,21.5604,20.5836,0.00501816,0.000563525,-0.00186318,0.0056947,-0.000113012,-0.348305,0.00383469,0.048254,1819,1541,21.5605,-20.5836
602,-517,22.0057,19.7418,0,0,0,0,0,0,0,-1,1826,1541,22.0058,-19.7418
609,-517,12.6417,10.8751,0,0,0,0,0,0,0,-1,1833,1541,12.6417,-10.8751
616,-517,14.205,10.3193,0,0,0,0,0,0,0,-1,1840,1541,14.205,-10.3194
623,-517,12.578,10.0779,0,0,0,0,0,0,0,-1,1847,1541,12.578,-10.0779
630,-517,11.7035,7.47815,0,0,0,0,0,0,0,-1,1854,1541,11.7035,-7.47812
637,-517,11.5172,5.79822,0,0,0,0,0,0,0,-1,1861,1541,11.5173,-5.79825
644,-517,11.4232,3.30579,0,0,0,0,0,0,0,-1,1868,1541,11.4232,-3.30574
651,-517,0,0,0,0,0,0,0,0,0,-1,1875,1541,0,0
658,-517,0,0,0,0,0,0,0,0,0,-1,1882,1541,0,0
665,-517,0,0,0,0,0,0,0,0,0,-1,1889,1541,0,0
672,-517,0,0,0,0,0,0,0,0,0,-1,1896,1541,0,0
679,-517,0,0,0,0,0,0,0,0,0,-1,1903,1541,0,0
686,-517,0,0,0,0,0,0,0,0,0,-1,1910,1541,0,0
693,-517,0,0,0,0,0,0,0,0,0,-1,1917,1541,0,0
700,-517,0,0,0,0,0,0,0,0,0,-1,1924,1541,0,0
707,-517,0,0,0,0,0,0,0,0,0,-1,1931,1541,0,0
714,-517,0,0,0,0,0,0,0,0,0,-1,1938,1541,0,0
721,-517,0,0,0,0,0,0,0,0,0,-1,1945,1541,0,0
728,-517,0,0,0,0,0,0,0,0,0,-1,1952,1541,0,0
735,-517,0,0,0,0,0,0,0,0,0,-1,1959,1541,0,0
742,-517,0,0,0,0,0,0,0,0,0,-1,1966,1541,0,0
749,-517,0,0,0,0,0,0,0,0,0,-1,1973,1541,0,0
756,-517,0,0,0,0,0,0,0,0,0,-1,1980,1541,0,0
763,-517,0,0,0,0,0,0,0,0,0,-1,1987,1541,0,0
770,-517,0,0,0,0,0,0,0,0,0,-1,1994,1541,0,0
777,-517,0,0,0,0,0,0,0,0,0,-1,2001,1541,0,0
784,-517,0,0,0,0,0,0,0,0,0,-1,2008,1541,0,0
791,-517,0,0,0,0,0,0,0,0,0,-1,2015,1541,0,0
798,-517,0,0,0,0,0,0,0,0,0,-1,2022,1541,0,0
805,-517,0,0,0,0,0,0,0,0,0,-1,2029,1541,0,0
812,-517,0,0,0,0,0,0,0,0,0,-1,2036,1541,0,0
-700,-524,0,0,0,0,0,0,0,0,0,-1,524,1548,0,0
-693,-524,0,0,0,0,0,0,0,0,0,-1,531,1548,0,0
-686,-524,0,0,0,0,0,0,0,0,0,-1,538,1548,0,0
-679,-524,0,0,0,0,0,0,0,0,0,-1,545,1548,0,0
-672,-524,0,0,0,0,0,0,0,0,0,-1,552,1548,0,0
-665,-524,0,0,0,0,0,0,0,0,0,-1,559,1548,0,0
-658,-524,0,0,0,0,0,0,0,0,0,-1,566,1548,0,0
-651,-524,0,0,0,0,0,0,0,0,0,-1,573,1548,0,0
-644,-524,0,0,0,0,0,0,0,0,0,-1,580,1548,0,0
-637,-524,0,0,0,0,0,0,0,0,0,-1,587,1548,0,0
-630,-524,0,0,0,0,0,0,0,0,0,-1,594,1548,0,0
-623,-524,0,0,0,0,0,0,0,0,0,-1,601,1548,0,0
-616,-524,0,0,0,0,0,0,0,0,0,-1,608,1548,0,0
-609,-524,0,0,0,0,0,0,0,0,0,-1,615,1548,0,0
-602,-524,0,0,0,0,0,0,0,0,0,-1,622,1548,0,0
-595,-524,0,0,0,0,0,0,0,0,0,-1,629,1548,0,0
-588,-524,0,0,0,0,0,0,0,0,0,-1,636,1548,0,0
-581,-524,0,0,0,0,0,0,0,0,0,-1,643,1548,0,0
-574,-524,0,0,0,0,0,0,0,0,0,-1,650,1548,0,0
-567,-524,0,0,0,0,0,0,0,0,0,-1,657,1548,0,0
-560,-524,0,0,0,0,0,0,0,0,0,-1,664,1548,0,0
-553,-524,0,0,0,0,0,0,0,0,0,-1,671,1548,0,0
-546,-524,0,0,0,0,0,0,0,0,0,-1,678,1548,0,0
-539,-524,0,0,0,0,0,0,0,0,0,-1,685,1548,0,0
-532,-524,0,0,0,0,0,0,0,0,0,-1,692,1548,0,0
-525,-524,-0.215515,3.97131,0,0,0,0,0,0,0,-1,699,1548,-0.215501,-3.97136
-518,-524,-0.806274,4.35632,0,0,0,0,0,0,0,-1,706,1548,-0.806259,-4.35633
-511,-524,-1.08301,4.29004,0,0,0,0,0,0,0,-1,713,1548,-1.08301,-4.29006
-504,-524,-1.28821,3.98145,0,0,0,0,0,0,0,-1,720,1548,-1.28822,-3.98151
-497,-524,-0.328491,8.63416,0,0,0,0,0,0,0,-1,727,1548,-0.328487,-8.63411
-490,-524,-3.28113,17.4874,0,0,0,0,0,0,0,-1,734,1548,-3.28115,-17.4875
-483,-524,-3.75378,17.9661,0,0,0,0,0,0,0,-1,741,1548,-3.75379,-17.966
-476,-524,-4.37946,18.7155,0,0,0,0,0,0,0,-1,748,1548,-4.37943,-18.7155
-469,-524,-4.32587,19.1987,-0.00421867,-0.0093698,-0.00182522,-0.0036375,-0.00995097,-0.30826,0.00581403,0.0394332,755,1548,-4.32585,-19.1987
-462,-524,-4.07477,19.5868,-0.00336944,-0.00716628,-0.00138502,-0.00291791,-0.00761782,-0.315147,0.00443808,0.0335437,762,1548,-4.07474,-19.5868
-455,-524,-4.16876,20.0139,-0.0026287,-0.00519914,-0.000991265,-0.00229084,-0.005537,-0.328491,0.00321261,0.0263338,769,1548,-4.16879,-20.0139
-448,-524,-4.14166,20.6299,-0.00203697,-0.00367454,-0.00072607,-0.00176141,-0.0039501,-0.362727,0.00228503,0.0135164,776,1548,-4.14164,-20.6299
-441,-524,-4.15851,21.2423,-0.00136143,-0.00225999,-0.000337193,-0.00124897,-0.00237245,-0.321915,0.00137037,0.0111153,783,1548,-4.15853,-21.2423
-434,-524,-4.15997,21.8341,-0.000595743,-0.000894848,0.00018892,-0.000504346,-0.000986245,0.450593,0.000569458,0.0129045,790,1548,-4.15999,-21.8341
-427,-524,-4.18689,22.4449,0.000253381,0.000452642,0.000833048,0.001192,-0.000485973,0.844914,0.000996951,0.0135156,797,1548,-4.18691,-22.4449
-420,-524,-4.25073,23.0646,0.00131153,0.0017137,0.00164129,0.00316618,-0.00014095,0.846352,0.00215931,0.0114213,804,1548,-4.25072,-23.0646
-413,-524,-4.26135,23.6633,0.00231421,0.0032212,0.00249037,0.00529903,0.000236382,0.875461,0.00345659,0.0106068,811,1548,-4.26135,-23.6634
-406,-524,-4.29504,24.2649,0.00346287,0.00469388,0.00356096,0.00769214,0.000464608,0.870977,0.00498045,0.0108701,818,1548,-4.29505,-24.2649
-399,-524,-4.323,24.8583,0.00474106,0.00632845,0.00474312,0.0103438,0.000725684,0.868298,0.00666717,0.00933384,825,1548,-4.32301,-24.8583
-392,-524,-4.32794,25.4402,0.00612969,0.00818524,0.00603043,0.0132749,0.00104008,0.869803,0.00852439,0.0106223,832,1548,-4.32793,-25.4401
-385,-524,-4.35632,26.0614,0.00762725,0.0101274,0.00744632,0.0164278,0.00132678,0.86856,0.0105375,0.0164372,839,1548,-4.35634,-26.0614
-378,-524,-4.38782,26.7224,0,0,0,0,0,0,0,-1,846,1548,-4.38785,-26.7224
-371,-524,-3.99176,27.826,0,0,0,0,0,0,0,-1,853,1548,-3.99175,-27.826
-364,-524,-0.712097,14.9871,0,0,0,0,0,0,0,-1,860,1548,-0.712116,-14.9871
-357,-524,-1.34052,14.7448,0,0,0,0,0,0,0,-1,867,1548,-1.34054,-14.7447
-350,-524,-4.31909,25.032,0,0,0,0,0,0,0,-1,874,1548,-4.31906,-25.0319
-343,-524,-3.69696,28.6923,0,0,0,0,0,0,0,-1,881,1548,-3.69694,-28.6922
-336,-524,-3.4873,29.655,0,0,0,0,0,0,0,-1,888,1548,-3.48728,-29.6551
-329,-524,-3.21936,30.5509,0,0,0,0,0,0,0,-1,895,1548,-3.21933,-30.5509
-322,-524,-4.31378,25.6389,0,0,0,0,0,0,0,-1,902,1548,-4.31379,-25.639
-315,-524,-1.90839,19.4824,0,0,0,0,0,0,0,-1,909,1548,-1.90838,-19.4824
-308,-524,-2.36938,19.3059,0,0,0,0,0,0,0,-1,916,1548,-2.3694,-19.3058
-301,-524,2.72394,17.7618,0,0,0,0,0,0,0,-1,923,1548,2.72396,-17.7619
-294,-524,-1.52515,9.05408,0,0,0,0,0,0,0,-1,930,1548,-1.52512,-9.05411
-287,-524,-0.962219,10.3199,0,0,0,0,0,0,0,-1,937,1548,-0.962241,-10.32
-280,-524,-1.36255,10.3859,0,0,0,0,0,0,0,-1,944,1548,-1.36253,-10.3859
-273,-524,0,0,0,0,0,0,0,0,0,-1,951,1548,0,0
-266,-524,0,0,0,0,0,0,0,0,0,-1,958,1548,0,0
-259,-524,0,0,0,0,0,0,0,0,0,-1,965,1548,0,0
-252,-524,0,0,0,0,0,0,0,0,0,-1,972,1548,0,0
-245,-524,0,0,0,0,0,0,0,0,0,-1,979,1548,0,0
-238,-524,0,0,0,0,0,0,0,0,0,-1,986,1548,0,0
-231,-524,0,0,0,0,0,0,0,0,0,-1,993,1548,0,0
-224,-524,0,0,0,0,0,0,0,0,0,-1,1000,1548,0,0
-217,-524,0,0,0,0,0,0,0,0,0,-1,1007,1548,0,0
-210,-524,0,0,0,0,0,0,0,0,0,-1,1014,1548,0,0
-203,-524,0,0,0,0,0,0,0,0,0,-1,1021,1548,0,0
-196,-524,0,0,0,0,0,0,0,0,0,-1,1028,1548,0,0
-189,-524,0,0,0,0,0,0,0,0,0,-1,1035,1548,0,0
-182,-524,0,0,0,0,0,0,0,0,0,-1,1042,1548,0,0
-175,-524,0,0,0,0,0,0,0,0,0,-1,1049,1548,0,0
-168,-524,0,0,0,0,0,0,0,0,0,-1,1056,1548,0,0
-161,-524,0,0,0,0,0,0,0,0,0,-1,1063,1548,0,0
-154,-524,0,0,0,0,0,0,0,0,0,-1,1070,1548,0,0
-147,-524,0,0,0,0,0,0,0,0,0,-1,1077,1548,0,0
-140,-524,0,0,0,0,0,0,0,0,0,-1,1084,1548,0,0
-133,-524,0,0,0,0,0,0,0,0,0,-1,1091,1548,0,0
-126,-524,0,0,0,0,0,0,0,0,0,-1,1098,1548,0,0
-119,-524,0,0,0,0,0,0,0,0,0,-1,1105,1548,0,0
-112,-524,0,0,0,0,0,0,0,0,0,-1,1112,1548,0,0
-105,-524,0,0,0,0,0,0,0,0,0,-1,1119,1548,0,0
-98,-524,0,0,0,0,0,0,0,0,0,-1,1126,1548,0,0
-91,-524,0,0,0,0,0,0,0,0,0,-1,1133,1548,0,0
-84,-524,0,0,0,0,0,0,0,0,0,-1,1140,1548,0,0
-77,-524,0,0,0,0,0,0,0,0,0,-1,1147,1548,0,0
-70,-524,0,0,0,0,0,0,0,0,0,-1,1154,1548,0,0
-63,-524,0,0,0,0,0,0,0,0,0,-1,1161,1548,0,0
-56,-524,0,0,0,0,0,0,0,0,0,-1,1168,1548,0,0
-49,-524,0,0,0,0,0,0,0,0,0,-1,1175,1548,0,0
-42,-524,0,0,0,0,0,0,0,0,0,-1,1182,1548,0,0
-35,-524,0,0,0,0,0,0,0,0,0,-1,1189,1548,0,0
-28,-524,0,0,0,0,0,0,0,0,0,-1,1196,1548,0,0
-21,-524,0,0,0,0,0,0,0,0,0,-1,1203,1548,0,0
-14,-524,0,0,0,0,0,0,0,0,0,-1,1210,1548,0,0
-7,-524,0,0,0,0,0,0,0,0,0,-1,1217,1548,0,0
0,-524,0,0,0,0,0,0,0,0,0,-1,1224,1548,0,0
7,-524,0,0,0,0,0,0,0,0,0,-1,1231,1548,0,0
14,-524,0,0,0,0,0,0,0,0,0,-1,1238,1548,0,0
21,-524,0,0,0,0,0,0,0,0,0,-1,1245,1548,0,0
28,-524,0,0,0,0,0,0,0,0,0,-1,1252,1548,0,0
35,-524,0,0,0,0,0,0,0,0,0,-1,1259,1548,0,0
42,-524,0,0,0,0,0,0,0,0,0,-1,1266,1548,0,0
49,-524,0,0,0,0,0,0,0,0,0,-1,1273,1548,0,0
56,-524,0,0,0,0,0,0,0,0,0,-1,1280,1548,0,0
63,-524,0,0,0,0,0,0,0,0,0,-1,1287,1548,0,0
70,-524,0,0,0,0,0,0,0,0,0,-1,1294,1548,0,0
77,-524,0,0,0,0,0,0,0,0,0,-1,1301,1548,0,0
84,-524,0,0,0,0,0,0,0,0,0,-1,1308,1548,0,0
91,-524,0,0,0,0,0,0,0,0,0,-1,1315,1548,0,0
98,-524,0,0,0,0,0,0,0,0,0,-1,1322,1548,0,0
105,-524,0,0,0,0,0,0,0,0,0,-1,1329,1548,0,0
112,-524,0,0,0,0,0,0,0,0,0,-1,1336,1548,0,0
119,-524,0,0,0,0,0,0,0,0,0,-1,1343,1548,0,0
126,-524,0,0,0,0,0,0,0,0,0,-1,1350,1548,0,0
133,-524,0,0,0,0,0,0,0,0,0,-1,1357,1548,0,0
140,-524,0,0,0,0,0,0,0,0,0,-1,1364,1548,0,0
147,-524,0,0,0,0,0,0,0,0,0,-1,1371,1548,0,0
154,-524,0,0,0,0,0,0,0,0,0,-1,1378,1548,0,0
161,-524,0,0,0,0,0,0,0,0,0,-1,1385,1548,0,0
168,-524,0,0,0,0,0,0,0,0,0,-1,1392,1548,0,0
175,-524,0,0,0,0,0,0,0,0,0,-1,1399,1548,0,0
182,-524,0,0,0,0,0,0,0,0,0,-1,1406,1548,0,0
189,-524,0,0,0,0,0,0,0,0,0,-1,1413,1548,0,0
196,-524,0,0,0,0,0,0,0,0,0,-1,1420,1548,0,0
203,-524,0,0,0,0,0,0,0,0,0,-1,1427,1548,0,0
210,-524,0,0,0,0,0,0,0,0,0,-1,1434,1548,0,0
217,-524,0,0,0,0,0,0,0,0,0,-1,1441,1548,0,0
224,-524,0,0,0,0,0,0,0,0,0,-1,1448,1548,0,0
231,-524,0,0,0,0,0,0,0,0,0,-1,1455,1548,0,0
238,-524,0,0,0,0,0,0,0,0,0,-1,1462,1548,0,0
245,-524,0,0,0,0,0,0,0,0,0,-1,1469,1548,0,0
252,-524,0,0,0,0,0,0,0,0,0,-1,1476,1548,0,0
259,-524,0,0,0,0,0,0,0,0,0,-1,1483,1548,0,0
266,-524,0,0,0,0,0,0,0,0,0,-1,1490,1548,0,0
273,-524,0,0,0,0,0,0,0,0,0,-1,1497,1548,0,0
280,-524,0,0,0,0,0,0,0,0,0,-1,1504,1548,0,0
287,-524,0,0,0,0,0,0,0,0,0,-1,1511,1548,0,0
294,-524,0,0,0,0,0,0,0,0,0,-1,1518,1548,0,0
301,-524,0,0,0,0,0,0,0,0,0,-1,1525,1548,0,0
308,-524,0,0,0,0,0,0,0,0,0,-1,1532,1548,0,0
315,-524,0,0,0,0,0,0,0,0,0,-1,1539,1548,0,0
322,-524,0,0,0,0,0,0,0,0,0,-1,1546,1548,0,0
329,-524,0,0,0,0,0,0,0,0,0,-1,1553,1548,0,0
336,-524,0,0,0,0,0,0,0,0,0,-1,1560,1548,0,0
343,-524,0,0,0,0,0,0,0,0,0,-1,1567,1548,0,0
350,-524,0,0,0,0,0,0,0,0,0,-1,1574,1548,0,0
357,-524,0,0,0,0,0,0,0,0,0,-1,1581,1548,0,0
364,-524,0,0,0,0,0,0,0,0,0,-1,1588,1548,0,0
371,-524,0,0,0,0,0,0,0,0,0,-1,1595,1548,0,0
378,-524,0,0,0,0,0,0,0,0,0,-1,1602,1548,0,0
385,-524,0,0,0,0,0,0,0,0,0,-1,1609,1548,0,0
392,-524,0,0,0,0,0,0,0,0,0,-1,1616,1548,0,0
399,-524,8.81848,5.05774,0,0,0,0,0,0,0,-1,1623,1548,8.81843,-5.05769
406,-524,8.64294,6.06799,0,0,0,0,0,0,0,-1,1630,1548,8.6429,-6.06805
413,-524,11.677,6.41858,0,0,0,0,0,0,0,-1,1637,1548,11.677,-6.41864
420,-524,11.4913,6.36401,0,0,0,0,0,0,0,-1,1644,1548,11.4913,-6.36402
427,-524,7.68335,6.17249,0,0,0,0,0,0,0,-1,1651,1548,7.68341,-6.17245
434,-524,10.432,11.6801,0,0,0,0,0,0,0,-1,1658,1548,10.432,-11.68
441,-524,8.78552,4.12305,0,0,0,0,0,0,0,-1,1665,1548,8.78553,-4.12301
448,-524,14.1854,4.78674,0,0,0,0,0,0,0,-1,1672,1548,14.1854,-4.78674
455,-524,12.4784,3.65576,0,0,0,0,0,0,0,-1,1679,1548,12.4784,-3.65572
462,-524,14.7551,9.29395,0,0,0,0,0,0,0,-1,1686,1548,14.7552,-9.29397
469,-524,16.3314,14.3779,0,0,0,0,0,0,0,-1,1693,1548,16.3314,-14.3779
476,-524,15.9106,15.1875,0,0,0,0,0,0,0,-1,1700,1548,15.9107,-15.1876
483,-524,15.2776,16.2268,0,0,0,0,0,0,0,-1,1707,1548,15.2776,-16.2269
490,-524,15.2563,18.5848,0,0,0,0,0,0,0,-1,1714,1548,15.2564,-18.5848
497,-524,17.5173,22.6123,0,0,0,0,0,0,0,-1,1721,1548,17.5174,-22.6123
504,-524,20.6201,28.4677,0,0,0,0,0,0,0,-1,1728,1548,20.6201,-28.4676
511,-524,21.1057,27.4889,0,0,0,0,0,0,0,-1,1735,1548,21.1057,-27.4889
518,-524,21.0933,26.8821,0.0089094,0.00861868,-0.00672331,0.0154889,0.00203916,-0.77459,0.0097178,0.0273448,1742,1548,21.0932,-26.8821
525,-524,21.0764,26.3165,0.00699267,0.00677625,-0.00526879,0.0121544,0.00161455,-0.775131,0.00762194,0.0140681,1749,1548,21.0764,-26.3165
532,-524,21.0675,25.724,0.00530451,0.00502853,-0.00392551,0.00909446,0.00123858,-0.767829,0.00569518,0.0104809,1756,1548,21.0675,-25.724
539,-524,21.0616,25.1539,0.00395481,0.00346383,-0.00274049,0.00646078,0.000957859,-0.740728,0.00402606,0.0119371,1763,1548,21.0616,-25.1539
546,-524,21.0359,24.6294,0.00292447,0.00201897,-0.00172744,0.0042575,0.000685935,-0.657234,0.00263957,0.0158922,1770,1548,21.0359,-24.6294
553,-524,21.0106,24.0975,0.00211509,0.000713355,-0.000797115,0.00247564,0.000352804,-0.424781,0.0015463,0.0247756,1777,1548,21.0107,-24.0975
560,-524,21.0182,23.4969,0.00166011,-0.000390504,-6.40899e-05,0.00166211,-0.000392505,-0.0312134,0.00125946,0.0304201,1784,1548,21.0181,-23.497
567,-524,20.9727,22.9409,0.00162964,-0.00113716,0.000315457,0.00166515,-0.00117267,0.112098,0.00164662,0.0178205,1791,1548,20.9726,-22.9409
574,-524,20.9513,22.3489,0.00192696,-0.00167563,0.000513363,0.00199869,-0.00174736,0.138818,0.0021644,0.0140389,1798,1548,20.9513,-22.3489
581,-524,20.9374,21.7598,0.00262896,-0.00196217,0.000397508,0.00266312,-0.00199633,0.0857316,0.0026993,0.0153374,1805,1548,20.9374,-21.7597
588,-524,20.9849,21.1816,0.00375108,-0.00184167,-6.30933e-05,0.0037518,-0.00184238,-0.0112793,0.00329191,0.0261107,1812,1548,20.9849,-21.1816
595,-524,21.3016,20.6385,0,0,0,0,0,0,0,-1,1819,1548,21.3017,-20.6386
602,-524,13.837,12.0682,0,0,0,0,0,0,0,-1,1826,1548,13.837,-12.0683
609,-524,13.0056,10.5138,0,0,0,0,0,0,0,-1,1833,1548,13.0056,-10.5138
616,-524,11.6941,8.65515,0,0,0,0,0,0,0,-1,1840,1548,11.6941,-8.65514
623,-524,9.38452,5.15356,0,0,0,0,0,0,0,-1,1847,1548,9.38456,-5.15359
630,-524,11.0541,3.57434,0,0,0,0,0,0,0,-1,1854,1548,11.0541,-3.57438
637,-524,11.6067,3.20728,0,0,0,0,0,0,0,-1,1861,1548,11.6067,-3.20724
644,-524,12.2134,0.727173,0,0,0,0,0,0,0,-1,1868,1548,12.2134,-0.727222
651,-524,0,0,0,0,0,0,0,0,0,-1,1875,1548,0,0
658,-524,0,0,0,0,0,0,0,0,0,-1,1882,1548,0,0
665,-524,0,0,0,0,0,0,0,0,0,-1,1889,1548,0,0
672,-524,0,0,0,0,0,0,0,0,0,-1,1896,1548,0,0
679,-524,0,0,0,0,0,0,0,0,0,-1,1903,1548,0,0
686,-524,0,0,0,0,0,0,0,0,0,-1,1910,1548,0,0
693,-524,0,0,0,0,0,0,0,0,0,-1,1917,1548,0,0
700,-524,0,0,0,0,0,0,0,0,0,-1,1924,1548,0,0
707,-524,0,0,0,0,0,0,0,0,0,-1,1931,1548,0,0
714,-524,0,0,0,0,0,0,0,0,0,-1,1938,1548,0,0
721,-524,0,0,0,0,0,0,0,0,0,-1,1945,1548,0,0
728,-524,0,0,0,0,0,0,0,0,0,-1,1952,1548,0,0
735,-524,0,0,0,0,0,0,0,0,0,-1,1959,1548,0,0
742,-524,0,0,0,0,0,0,0,0,0,-1,1966,1548,0,0
749,-524,0,0,0,0,0,0,0,0,0,-1,1973,1548,0,0
756,-524,0,0,0,0,0,0,0,0,0,-1,1980,1548,0,0
763,-524,0,0,0,0,0,0,0,0,0,-1,1987,1548,0,0
770,-524,0,0,0,0,0,0,0,0,0,-1,1994,1548,0,0
777,-524,0,0,0,0,0,0,0,0,0,-1,2001,1548,0,0
784,-524,0,0,0,0,0,0,0,0,0,-1,2008,1548,0,0
791,-524,0,0,0,0,0,0,0,0,0,-1,2015,1548,0,0
798,-524,0,0,0,0,0,0,0,0,0,-1,2022,1548,0,0
805,-524,0,0,0,0,0,0,0,0,0,-1,2029,1548,0,0
812,-524,0,0,0,0,0,0,0,0,0,-1,2036,1548,0,0
-700,-531,0,0,0,0,0,0,0,0,0,-1,524,1555,0,0
-693,-531,0,0,0,0,0,0,0,0,0,-1,531,1555,0,0
-686,-531,0,0,0,0,0,0,0,0,0,-1,538,1555,0,0
-679,-531,0,0,0,0,0,0,0,0,0,-1,545,1555,0,0
-672,-531,0,0,0,0,0,0,0,0,0,-1,552,1555,0,0
-665,-531,0,0,0,0,0,0,0,0,0,-1,559,1555,0,0
-658,-531,0,0,0,0,0,0,0,0,0,-1,566,1555,0,0
-651,-531,0,0,0,0,0,0,0,0,0,-1,573,1555,0,0
-644,-531,0,0,0,0,0,0,0,0,0,-1,580,1555,0,0
-637,-531,0,0,0,0,0,0,0,0,0,-1,587,1555,0,0
-630,-531,0,0,0,0,0,0,0,0,0,-1,594,1555,0,0
-623,-531,0,0,0,0,0,0,0,0,0,-1,601,1555,0,0
-616,-531,0,0,0,0,0,0,0,0,0,-1,608,1555,0,0
-609,-531,0,0,0,0,0,0,0,0,0,-1,615,1555,0,0
-602,-531,0,0,0,0,0,0,0,0,0,-1,622,1555,0,0
-595,-531,0,0,0,0,0,0,0,0,0,-1,629,1555,0,0
-588,-531,0,0,0,0,0,0,0,0,0,-1,636,1555,0,0
-581,-531,0,0,0,0,0,0,0,0,0,-1,643,1555,0,0
-574,-531,0,0,0,0,0,0,0,0,0,-1,650,1555,0,0
-567,-531,0,0,0,0,0,0,0,0,0,-1,657,1555,0,0
-560,-531,0,0,0,0,0,0,0,0,0,-1,664,1555,0,0
-553,-531,0,0,0,0,0,0,0,0,0,-1,671,1555,0,0
-546,-531,0,0,0,0,0,0,0,0,0,-1,678,1555,0,0
-539,-531,0,0,0,0,0,0,0,0,0,-1,685,1555,0,0
-532,-531,0,0,0,0,0,0,0,0,0,-1,692,1555,0,0
-525,-531,0,0,0,0,0,0,0,0,0,-1,699,1555,0,0
-518,-531,-1.63983,4.03821,0,0,0,0,0,0,0,-1,706,1555,-1.63982,-4.03821
-511,-531,-2.9682,8.07483,0,0,0,0,0,0,0,-1,713,1555,-2.9682,-8.07479
-504,-531,-2.95978,0.557861,0,0,0,0,0,0,0,-1,720,1555,-2.95978,-0.557917
-497,-531,-2.46039,8.07422,0,0,0,0,0,0,0,-1,727,1555,-2.46039,-8.07423
-490,-531,-0.423462,7.92065,0,0,0,0,0,0,0,-1,734,1555,-0.42344,-7.92066
-483,-531,-3.8501,17.6864,0,0,0,0,0,0,0,-1,741,1555,-3.85008,-17.6864
-476,-531,-3.91925,18.8683,0,0,0,0,0,0,0,-1,748,1555,-3.91928,-18.8683
-469,-531,-3.37805,19.0831,0,0,0,0,0,0,0,-1,755,1555,-3.37804,-19.0831
-462,-531,-3.52301,19.8116,0,0,0,0,0,0,0,-1,762,1555,-3.52302,-19.8116
-455,-531,-3.66797,20.5402,0,0,0,0,0,0,0,-1,769,1555,-3.66799,-20.5401
-448,-531,-3.4743,20.6514,-0.00237542,-0.00423813,-0.000791191,-0.00208472,-0.00452882,-0.352104,0.00261746,0.0207423,776,1555,-3.47432,-20.6513
-441,-531,-3.56537,21.2397,-0.00182783,-0.00286402,-0.000588335,-0.00156199,-0.00312987,-0.424398,0.00180703,0.0126258,783,1555,-3.56534,-21.2398
-434,-531,-3.57379,21.8683,-0.00115356,-0.00160573,-0.000212343,-0.00106948,-0.00168981,-0.377035,0.000987035,0.0118137,790,1555,-3.57378,-21.8683
-427,-531,-3.60077,22.4894,-0.000412173,-0.000343821,0.000316678,-5.94809e-05,-0.000696514,0.839151,0.00044584,0.0141077,797,1555,-3.60076,-22.4893
-420,-531,-3.64862,23.1019,0.000525241,0.000751726,0.000975474,0.00162051,-0.000343541,0.843184,0.0012112,0.0132586,804,1555,-3.6486,-23.1019
-413,-531,-3.67212,23.6989,0.00135888,0.0021335,0.00163444,0.00342589,6.64907e-05,0.901736,0.00226209,0.0112964,811,1555,-3.67212,-23.6988
-406,-531,-3.70538,24.2908,0.00232582,0.00339487,0.00251128,0.00542789,0.000292805,0.890257,0.00352504,0.0115282,818,1555,-3.70536,-24.2907
-399,-531,-3.7229,24.8763,0.00340078,0.00473798,0.00345094,0.00758449,0.000554264,0.881084,0.00488207,0.0136427,825,1555,-3.72287,-24.8763
-392,-531,-3.73102,25.4587,0.00453337,0.00617385,0.00440168,0.00983106,0.000876161,0.877515,0.00628239,0.0177909,832,1555,-3.73103,-25.4587
-385,-531,-3.79095,26.0587,0.00574642,0.00770681,0.00544004,0.0122543,0.00119897,0.874533,0.00780062,0.0150949,839,1555,-3.79097,-26.0587
-378,-531,-3.81335,26.5911,0.00699003,0.00914827,0.00636035,0.0145204,0.0016179,0.86943,0.00918857,0.0178383,846,1555,-3.81335,-26.591
-371,-531,-3.71417,27.3284,0.00839316,0.0108828,0.00742026,0.0171619,0.00211404,0.868505,0.0108058,0.0361002,853,1555,-3.71418,-27.3284
-364,-531,-3.42383,28.3882,0,0,0,0,0,0,0,-1,860,1555,-3.42383,-28.3881
-357,-531,-3.63049,28.722,0,0,0,0,0,0,0,-1,867,1555,-3.63052,-28.722
-350,-531,-3.16101,27.5791,0,0,0,0,0,0,0,-1,874,1555,-3.16099,-27.5791
-343,-531,-2.90552,28.561,0,0,0,0,0,0,0,-1,881,1555,-2.90549,-28.5611
-336,-531,-2.6698,29.5398,0,0,0,0,0,0,0,-1,888,1555,-2.66983,-29.5398
-329,-531,-2.45148,30.4781,0,0,0,0,0,0,0,-1,895,1555,-2.45148,-30.4781
-322,-531,-3.25092,28.4921,0,0,0,0,0,0,0,-1,902,1555,-3.25092,-28.4921
-315,-531,-5.51929,31.7814,0,0,0,0,0,0,0,-1,909,1555,-5.51928,-31.7813
-308,-531,-1.66455,19.0624,0,0,0,0,0,0,0,-1,916,1555,-1.66455,-19.0623
-301,-531,-2.02405,18.8912,0,0,0,0,0,0,0,-1,923,1555,-2.02407,-18.8913
-294,-531,-1.3244,8.1825,0,0,0,0,0,0,0,-1,930,1555,-1.3244,-8.18251
-287,-531,-1.78192,10.1661,0,0,0,0,0,0,0,-1,937,1555,-1.78192,-10.1661
-280,-531,-2.14508,10.3945,0,0,0,0,0,0,0,-1,944,1555,-2.14506,-10.3945
-273,-531,-2.50818,10.6229,0,0,0,0,0,0,0,-1,951,1555,-2.5082,-10.6229
-266,-531,-4.97742,17.9215,0,0,0,0,0,0,0,-1,958,1555,-4.97744,-17.9215
-259,-531,0,0,0,0,0,0,0,0,0,-1,965,1555,0,0
-252,-531,0,0,0,0,0,0,0,0,0,-1,972,1555,0,0
-245,-531,0,0,0,0,0,0,0,0,0,-1,979,1555,0,0
-238,-531,0,0,0,0,0,0,0,0,0,-1,986,1555,0,0
-231,-531,0,0,0,0,0,0,0,0,0,-1,993,1555,0,0
-224,-531,0,0,0,0,0,0,0,0,0,-1,1000,1555,0,0
-217,-531,0,0,0,0,0,0,0,0,0,-1,1007,1555,0,0
-210,-531,0,0,0,0,0,0,0,0,0,-1,1014,1555,0,0
-203,-531,0,0,0,0,0,0,0,0,0,-1,1021,1555,0,0
-196,-531,0,0,0,0,0,0,0,0,0,-1,1028,1555,0,0
-189,-531,0,0,0,0,0,0,0,0,0,-1,1035,1555,0,0
-182,-531,0,0,0,0,0,0,0,0,0,-1,1042,1555,0,0
-175,-531,0,0,0,0,0,0,0,0,0,-1,1049,1555,0,0
-168,-531,0,0,0,0,0,0,0,0,0,-1,1056,1555,0,0
-161,-531,0,0,0,0,0,0,0,0,0,-1,1063,1555,0,0
-154,-531,0,0,0,0,0,0,0,0,0,-1,1070,1555,0,0
-147,-531,0,0,0,0,0,0,0,0,0,-1,1077,1555,0,0
-140,-531,0,0,0,0,0,0,0,0,0,-1,1084,1555,0,0
-133,-531,0,0,0,0,0,0,0,0,0,-1,1091,1555,0,0
-126,-531,0,0,0,0,0,0,0,0,0,-1,1098,1555,0,0
-119,-531,0,0,0,0,0,0,0,0,0,-1,1105,1555,0,0
-112,-531,0,0,0,0,0,0,0,0,0,-1,1112,1555,0,0
-105,-531,0,0,0,0,0,0,0,0,0,-1,1119,1555,0,0
-98,-531,0,0,0,0,0,0,0,0,0,-1,1126,1555,0,0
-91,-531,0,0,0,0,0,0,0,0,0,-1,1133,1555,0,0
-84,-531,0,0,0,0,0,0,0,0,0,-1,1140,1555,0,0
-77,-531,0,0,0,0,0,0,0,0,0,-1,1147,1555,0,0
-70,-531,0,0,0,0,0,0,0,0,0,-1,1154,1555,0,0
-63,-531,0,0,0,0,0,0,0,0,0,-1,1161,1555,0,0
-56,-531,0,0,0,0,0,0,0,0,0,-1,1168,1555,0,0
-49,-531,0,0,0,0,0,0,0,0,0,-1,1175,1555,0,0
-42,-531,0,0,0,0,0,0,0,0,0,-1,1182,1555,0,0
-35,-531,0,0,0,0,0,0,0,0,0,-1,1189,1555,0,0
-28,-531,0,0,0,0,0,0,0,0,0,-1,1196,1555,0,0
-21,-531,0,0,0,0,0,0,0,0,0,-1,1203,1555,0,0
-14,-531,0,0,0,0,0,0,0,0,0,-1,1210,1555,0,0
-7,-531,0,0,0,0,0,0,0,0,0,-1,1217,1555,0,0
0,-531,0,0,0,0,0,0,0,0,0,-1,1224,1555,0,0
7,-531,0,0,0,0,0,0,0,0,0,-1,1231,1555,0,0
14,-531,0,0,0,0,0,0,0,0,0,-1,1238,1555,0,0
21,-531,0,0,0,0,0,0,0,0,0,-1,1245,1555,0,0
28,-531,0,0,0,0,0,0,0,0,0,-1,1252,1555,0,0
35,-531,0,0,0,0,0,0,0,0,0,-1,1259,1555,0,0
42,-531,0,0,0,0,0,0,0,0,0,-1,1266,1555,0,0
49,-531,0,0,0,0,0,0,0,0,0,-1,1273,1555,0,0
56,-531,0,0,0,0,0,0,0,0,0,-1,1280,1555,0,0
63,-531,0,0,0,0,0,0,0,0,0,-1,1287,1555,0,0
70,-531,0,0,0,0,0,0,0,0,0,-1,1294,1555,0,0
77,-531,0,0,0,0,0,0,0,0,0,-1,1301,1555,0,0
84,-531,0,0,0,0,0,0,0,0,0,-1,1308,1555,0,0
91,-531,0,0,0,0,0,0,0,0,0,-1,1315,1555,0,0
98,-531,0,0,0,0,0,0,0,0,0,-1,1322,1555,0,0
105,-531,0,0,0,0,0,0,0,0,0,-1,1329,1555,0,0
112,-531,0,0,0,0,0,0,0,0,0,-1,1336,1555,0,0
119,-531,0,0,0,0,0,0,0,0,0,-1,1343,1555,0,0
126,-531,0,0,0,0,0,0,0,0,0,-1,1350,1555,0,0
133,-531,0,0,0,0,0,0,0,0,0,-1,1357,1555,0,0
140,-531,0,0,0,0,0,0,0,0,0,-1,1364,1555,0,0
147,-531,0,0,0,0,0,0,0,0,0,-1,1371,1555,0,0
154,-531,0,0,0,0,0,0,0,0,0,-1,1378,1555,0,0
161,-531,0,0,0,0,0,0,0,0,0,-1,1385,1555,0,0
168,-531,0,0,0,0,0,0,0,0,0,-1,1392,1555,0,0
175,-531,0,0,0,0,0,0,0,0,0,-1,1399,1555,0,0
182,-531,0,0,0,0,0,0,0,0,0,-1,1406,1555,0,0
189,-531,0,0,0,0,0,0,0,0,0,-1,1413,1555,0,0
196,-531,0,0,0,0,0,0,0,0,0,-1,1420,1555,0,0
203,-531,0,0,0,0,0,0,0,0,0,-1,1427,1555,0,0
210,-531,0,0,0,0,0,0,0,0,0,-1,1434,1555,0,0
217,-531,0,0,0,0,0,0,0,0,0,-1,1441,1555,0,0
224,-531,0,0,0,0,0,0,0,0,0,-1,1448,1555,0,0
231,-531,0,0,0,0,0,0,0,0,0,-1,1455,1555,0,0
238,-531,0,0,0,0,0,0,0,0,0,-1,1462,1555,0,0
245,-531,0,0,0,0,0,0,0,0,0,-1,1469,1555,0,0
252,-531,0,0,0,0,0,0,0,0,0,-1,1476,1555,0,0
259,-531,0,0,0,0,0,0,0,0,0,-1,1483,1555,0,0
266,-531,0,0,0,0,0,0,0,0,0,-1,1490,1555,0,0
273,-531,0,0,0,0,0,0,0,0,0,-1,1497,1555,0,0
280,-531,0,0,0,0,0,0,0,0,0,-1,1504,1555,0,0
287,-531,0,0,0,0,0,0,0,0,0,-1,1511,1555,0,0
294,-531,0,0,0,0,0,0,0,0,0,-1,1518,1555,0,0
301,-531,0,0,0,0,0,0,0,0,0,-1,1525,1555,0,0
308,-531,0,0,0,0,0,0,0,0,0,-1,1532,1555,0,0
315,-531,0,0,0,0,0,0,0,0,0,-1,1539,1555,0,0
322,-531,0,0,0,0,0,0,0,0,0,-1,1546,1555,0,0
329,-531,0,0,0,0,0,0,0,0,0,-1,1553,1555,0,0
336,-531,0,0,0,0,0,0,0,0,0,-1,1560,1555,0,0
343,-531,0,0,0,0,0,0,0,0,0,-1,1567,1555,0,0
350,-531,0,0,0,0,0,0,0,0,0,-1,1574,1555,0,0
357,-531,0,0,0,0,0,0,0,0,0,-1,1581,1555,0,0
364,-531,0,0,0,0,0,0,0,0,0,-1,1588,1555,0,0
371,-531,0,0,0,0,0,0,0,0,0,-1,1595,1555,0,0
378,-531,0,0,0,0,0,0,0,0,0,-1,1602,1555,0,0
385,-531,3.48169,1.78625,0,0,0,0,0,0,0,-1,1609,1555,3.48165,-1.78624
392,-531,10.8781,9.09204,0,0,0,0,0,0,0,-1,1616,1555,10.8781,-9.09205
399,-531,8.26306,5.29602,0,0,0,0,0,0,0,-1,1623,1555,8.26302,-5.29607
406,-531,8.26147,5.42712,0,0,0,0,0,0,0,-1,1630,1555,8.26145,-5.42716
413,-531,8.20618,5.75012,0,0,0,0,0,0,0,-1,1637,1555,8.20619,-5.75017
420,-531,7.64868,7.09558,0,0,0,0,0,0,0,-1,1644,1555,7.64867,-7.09564
427,-531,9.93054,11.8412,0,0,0,0,0,0,0,-1,1651,1555,9.93059,-11.8412
434,-531,10.244,11.7072,0,0,0,0,0,0,0,-1,1658,1555,10.244,-11.7071
441,-531,11.4528,12.9397,0,0,0,0,0,0,0,-1,1665,1555,11.4528,-12.9397
448,-531,11.928,18.8029,0,0,0,0,0,0,0,-1,1672,1555,11.928,-18.8028
455,-531,14.4877,9.67065,0,0,0,0,0,0,0,-1,1679,1555,14.4876,-9.67066
462,-531,13.5253,12.2002,0,0,0,0,0,0,0,-1,1686,1555,13.5252,-12.2002
469,-531,15.5087,15.7894,0,0,0,0,0,0,0,-1,1693,1555,15.5086,-15.7895
476,-531,14.6582,16.2264,0,0,0,0,0,0,0,-1,1700,1555,14.6582,-16.2264
483,-531,14.755,18.5994,0,0,0,0,0,0,0,-1,1707,1555,14.7551,-18.5994
490,-531,16.9362,25.4943,0,0,0,0,0,0,0,-1,1714,1555,16.9362,-25.4942
497,-531,20.1975,29.0126,0,0,0,0,0,0,0,-1,1721,1555,20.1975,-29.0126
504,-531,20.379,28.1501,0.0105269,0.0104428,-0.00813841,0.0186233,0.0023463,-0.782816,0.0117121,0.043486,1728,1555,20.3791,-28.1502
511,-531,20.5256,27.4878,0.00873158,0.0089765,-0.00676501,0.0156202,0.00208793,-0.794448,0.00979195,0.017417,1735,1555,20.5256,-27.4878
518,-531,20.5381,26.9271,0.00690525,0.00689815,-0.0052186,0.0121203,0.0016831,-0.785058,0.0075817,0.0145197,1742,1555,20.5381,-26.9272
525,-531,20.5255,26.3667,0.00524492,0.00518103,-0.00394403,0.00915714,0.00126881,-0.781348,0.00572885,0.0141383,1749,1555,20.5255,-26.3667
532,-531,20.5297,25.7631,0.00378525,0.00349971,-0.002748,0.00639419,0.000890772,-0.759444,0.00399907,0.0114832,1756,1555,20.5297,-25.7631
539,-531,20.5034,25.2054,0.00261793,0.0019735,-0.00167175,0.00399824,0.000593197,-0.690195,0.00249141,0.0132387,1763,1555,20.5035,-25.2055
546,-531,20.4353,24.6752,0.00171655,0.000467283,-0.000694041,0.00202565,0.000158182,-0.418992,0.00130092,0.0166553,1770,1555,20.4353,-24.6752
553,-531,20.4595,24.1447,0.00101628,-0.000932973,0.000237484,0.0010448,-0.000961489,0.119504,0.00115866,0.0323537,1777,1555,20.4595,-24.1447
560,-531,20.4321,23.5363,0.00068935,-0.00214534,0.000990891,0.00100138,-0.00245737,0.305067,0.00205504,0.0345247,1784,1555,20.4321,-23.5363
567,-531,20.3514,22.9171,0.000783457,-0.00303187,0.00144009,0.00126599,-0.0035144,0.323314,0.00285991,0.0197912,1791,1555,20.3515,-22.9171
574,-531,20.3545,22.3567,0.00122826,-0.00371524,0.00171491,0.00176491,-0.00425189,0.303278,0.00357135,0.0147607,1798,1555,20.3545,-22.3567
581,-531,20.3925,21.7551,0.00222201,-0.00407317,0.00159143,0.00260145,-0.00445262,0.23406,0.00411915,0.0224213,1805,1555,20.3925,-21.7551
588,-531,20.4172,21.1128,0.00381461,-0.00390118,0.00106728,0.00395952,-0.00404609,0.134949,0.00462213,0.0379343,1812,1555,20.4172,-21.1128
595,-531,20.3732,20.4335,0,0,0,0,0,0,0,-1,1819,1555,20.3732,-20.4334
602,-531,13.701,11.8346,0,0,0,0,0,0,0,-1,1826,1555,13.701,-11.8347
609,-531,10.9072,8.50903,0,0,0,0,0,0,0,-1,1833,1555,10.9073,-8.50902
616,-531,10.5723,7.17859,0,0,0,0,0,0,0,-1,1840,1555,10.5723,-7.17855
623,-531,10.0674,5.08984,0,0,0,0,0,0,0,-1,1847,1555,10.0674,-5.08981
630,-531,11.672,3.18909,0,0,0,0,0,0,0,-1,1854,1555,11.672,-3.18904
637,-531,13.2546,1.38965,0,0,0,0,0,0,0,-1,1861,1555,13.2547,-1.3896
644,-531,0,0,0,0,0,0,0,0,0,-1,1868,1555,0,0
651,-531,0,0,0,0,0,0,0,0,0,-1,1875,1555,0,0
658,-531,0,0,0,0,0,0,0,0,0,-1,1882,1555,0,0
665,-531,0,0,0,0,0,0,0,0,0,-1,1889,1555,0,0
672,-531,0,0,0,0,0,0,0,0,0,-1,1896,1555,0,0
679,-531,0,0,0,0,0,0,0,0,0,-1,1903,1555,0,0
686,-531,0,0,0,0,0,0,0,0,0,-1,1910,1555,0,0
693,-531,0,0,0,0,0,0,0,0,0,-1,1917,1555,0,0
700,-531,0,0,0,0,0,0,0,0,0,-1,1924,1555,0,0
707,-531,0,0,0,0,0,0,0,0,0,-1,1931,1555,0,0
714,-531,0,0,0,0,0,0,0,0,0,-1,1938,1555,0,0
721,-531,0,0,0,0,0,0,0,0,0,-1,1945,1555,0,0
728,-531,0,0,0,0,0,0,0,0,0,-1,1952,1555,0,0
735,-531,0,0,0,0,0,0,0,0,0,-1,1959,1555,0,0
742,-531,0,0,0,0,0,0,0,0,0,-1,1966,1555,0,0
749,-531,0,0,0,0,0,0,0,0,0,-1,1973,1555,0,0
756,-531,0,0,0,0,0,0,0,0,0,-1,1980,1555,0,0
763,-531,0,0,0,0,0,0,0,0,0,-1,1987,1555,0,0
770,-531,0,0,0,0,0,0,0,0,0,-1,1994,1555,0,0
777,-531,0,0,0,0,0,0,0,0,0,-1,2001,1555,0,0
784,-531,0,0,0,0,0,0,0,0,0,-1,2008,1555,0,0
791,-531,0,0,0,0,0,0,0,0,0,-1,2015,1555,0,0
798,-531,0,0,0,0,0,0,0,0,0,-1,2022,1555,0,0
805,-531,0,0,0,0,0,0,0,0,0,-1,2029,1555,0,0
812,-531,0,0,0,0,0,0,0,0,0,-1,2036,1555,0,0
-700,-538,0,0,0,0,0,0,0,0,0,-1,524,1562,0,0
-693,-538,0,0,0,0,0,0,0,0,0,-1,531,1562,0,0
-686,-538,0,0,0,0,0,0,0,0,0,-1,538,1562,0,0
-679,-538,0,0,0,0,0,0,0,0,0,-1,545,1562,0,0
-672,-538,0,0,0,0,0,0,0,0,0,-1,552,1562,0,0
-665,-538,0,0,0,0,0,0,0,0,0,-1,559,1562,0,0
-658,-538,0,0,0,0,0,0,0,0,0,-1,566,1562,0,0
-651,-538,0,0,0,0,0,0,0,0,0,-1,573,1562,0,0
-644,-538,0,0,0,0,0,0,0,0,0,-1,580,1562,0,0
-637,-538,0,0,0,0,0,0,0,0,0,-1,587,1562,0,0
-630,-538,0,0,0,0,0,0,0,0,0,-1,594,1562,0,0
-623,-538,0,0,0,0,0,0,0,0,0,-1,601,1562,0,0
-616,-538,0,0,0,0,0,0,0,0,0,-1,608,1562,0,0
-609,-538,0,0,0,0,0,0,0,0,0,-1,615,1562,0,0
-602,-538,0,0,0,0,0,0,0,0,0,-1,622,1562,0,0
-595,-538,0,0,0,0,0,0,0,0,0,-1,629,1562,0,0
-588,-538,0,0,0,0,0,0,0,0,0,-1,636,1562,0,0
-581,-538,0,0,0,0,0,0,0,0,0,-1,643,1562,0,0
-574,-538,0,0,0,0,0,0,0,0,0,-1,650,1562,0,0
-567,-538,0,0,0,0,0,0,0,0,0,-1,657,1562,0,0
-560,-538,0,0,0,0,0,0,0,0,0,-1,664,1562,0,0
-553,-538,0,0,0,0,0,0,0,0,0,-1,671,1562,0,0
-546,-538,0,0,0,0,0,0,0,0,0,-1,678,1562,0,0
-539,-538,0,0,0,0,0,0,0,0,0,-1,685,1562,0,0
-532,-538,0,0,0,0,0,0,0,0,0,-1,692,1562,0,0
-525,-538,0,0,0,0,0,0,0,0,0,-1,699,1562,0,0
-518,-538,0,0,0,0,0,0,0,0,0,-1,706,1562,0,0
-511,-538,-2.6582,-1.54321,0,0,0,0,0,0,0,-1,713,1562,-2.65821,1.54327
-504,-538,-2.66455,-0.71167,0,0,0,0,0,0,0,-1,720,1562,-2.66456,0.711667
-497,-538,-0.763855,6.77747,0,0,0,0,0,0,0,-1,727,1562,-0.76385,-6.77743
-490,-538,-2.70453,8.01465,0,0,0,0,0,0,0,-1,734,1562,-2.70451,-8.0147
-483,-538,-0.933533,7.84644,0,0,0,0,0,0,0,-1,741,1562,-0.933548,-7.84638
-476,-538,-3.29962,15.8307,0,0,0,0,0,0,0,-1,748,1562,-3.29962,-15.8306
-469,-538,-4.6463,19.5779,0,0,0,0,0,0,0,-1,755,1562,-4.64631,-19.5778
-462,-538,-2.86084,20.0054,0,0,0,0,0,0,0,-1,762,1562,-2.86084,-20.0054
-455,-538,-3.02423,20.0554,0,0,0,0,0,0,0,-1,769,1562,-3.02424,-20.0554
-448,-538,-2.82092,20.8156,-0.00267922,-0.00461459,-0.000761094,-0.00241577,-0.00487803,-0.333231,0.00281638,0.0225532,776,1562,-2.82091,-20.8156
-441,-538,-2.93982,21.3862,-0.00232334,-0.0032291,-0.000751464,-0.00189884,-0.0036536,-0.514211,0.00210995,0.025227,783,1562,-2.93984,-21.3862
-434,-538,-3.03229,21.885,-0.00174872,-0.00211033,-0.000510853,-0.00138762,-0.00247143,-0.615314,0.00143047,0.0132521,790,1562,-3.0323,-21.8851
-427,-538,-3.03943,22.509,-0.00110317,-0.000925167,-6.77653e-05,-0.000902306,-0.00112604,-1.24542,0.000688342,0.0135959,797,1562,-3.03943,-22.509
-420,-538,-3.05847,23.1096,-0.000285439,1.84642e-05,0.000457291,0.000348388,-0.000615363,0.945802,0.000563494,0.0185845,804,1562,-3.05846,-23.1096
-413,-538,-3.09467,23.72,0.000409176,0.00126958,0.000958448,0.00188994,-0.000211192,0.996347,0.00133594,0.0195567,811,1562,-3.09464,-23.72
-406,-538,-3.10638,24.3053,0.00124342,0.00232304,0.00166895,0.0035373,2.91514e-05,0.94181,0.00234854,0.0149215,818,1562,-3.10637,-24.3053
-399,-538,-3.12531,24.9022,0.00218871,0.00339766,0.00241247,0.00528023,0.000306137,0.908153,0.00342268,0.0142088,825,1562,-3.12533,-24.9022
-392,-538,-3.13989,25.4862,0.00317034,0.00447394,0.00310644,0.00699623,0.000648052,0.888808,0.00446384,0.0153935,832,1562,-3.13989,-25.4862
-385,-538,-3.18347,26.0892,0.00423183,0.00567295,0.00387001,0.00888891,0.00101588,0.877439,0.00561801,0.012472,839,1562,-3.1835,-26.0892
-378,-538,-3.19373,26.6676,0.00533429,0.00677826,0.00455034,0.0106635,0.00144902,0.864075,0.00667862,0.0104024,846,1562,-3.19373,-26.6676
-371,-538,-3.23151,27.2051,0.00652571,0.00804224,0.00527187,0.0126101,0.00195785,0.856825,0.00783607,0.0139793,853,1562,-3.23151,-27.205
-364,-538,-3.15686,27.8729,0.00795954,0.00947163,0.00619386,0.0149554,0.00247575,0.84613,0.00925606,0.0191437,860,1562,-3.15685,-27.873
-357,-538,-3.12085,28.5983,0.00946473,0.0110897,0.00705552,0.0173794,0.00317508,0.842725,0.0106863,0.044623,867,1562,-3.12088,-28.5982
-350,-538,-3.08929,29.35,0,0,0,0,0,0,0,-1,874,1562,-3.0893,-29.35
-343,-538,-2.47339,28.3082,0,0,0,0,0,0,0,-1,881,1562,-2.47341,-28.3083
-336,-538,-2.40161,28.5409,0,0,0,0,0,0,0,-1,888,1562,-2.40163,-28.541
-329,-538,-2.57159,28.4905,0,0,0,0,0,0,0,-1,895,1562,-2.57161,-28.4905
-322,-538,-2.83783,28.2308,0,0,0,0,0,0,0,-1,902,1562,-2.83783,-28.2308
-315,-538,-2.91827,27.7609,0,0,0,0,0,0,0,-1,909,1562,-2.91829,-27.7608
-308,-538,-4.37433,31.7996,0,0,0,0,0,0,0,-1,916,1562,-4.3743,-31.7995
-301,-538,-0.452393,18.5101,0,0,0,0,0,0,0,-1,923,1562,-0.452367,-18.5102
-294,-538,1.23138,14.0757,0,0,0,0,0,0,0,-1,930,1562,1.23137,-14.0757
-287,-538,-2.60419,10.2361,0,0,0,0,0,0,0,-1,937,1562,-2.6042,-10.2361
-280,-538,-2.93475,10.5106,0,0,0,0,0,0,0,-1,944,1562,-2.93475,-10.5106
-273,-538,-3.26532,10.785,0,0,0,0,0,0,0,-1,951,1562,-3.26531,-10.785
-266,-538,-5.03412,15.9951,0,0,0,0,0,0,0,-1,958,1562,-5.03409,-15.9951
-259,-538,-5.89642,16.5184,0,0,0,0,0,0,0,-1,965,1562,-5.89644,-16.5184
-252,-538,0,0,0,0,0,0,0,0,0,-1,972,1562,0,0
-245,-538,0,0,0,0,0,0,0,0,0,-1,979,1562,0,0
-238,-538,0,0,0,0,0,0,0,0,0,-1,986,1562,0,0
-231,-538,0,0,0,0,0,0,0,0,0,-1,993,1562,0,0
-224,-538,0,0,0,0,0,0,0,0,0,-1,1000,1562,0,0
-217,-538,0,0,0,0,0,0,0,0,0,-1,1007,1562,0,0
-210,-538,0,0,0,0,0,0,0,0,0,-1,1014,1562,0,0
-203,-538,0,0,0,0,0,0,0,0,0,-1,1021,1562,0,0
-196,-538,0,0,0,0,0,0,0,0,0,-1,1028,1562,0,0
-189,-538,0,0,0,0,0,0,0,0,0,-1,1035,1562,0,0
-182,-538,0,0,0,0,0,0,0,0,0,-1,1042,1562,0,0
-175,-538,0,0,0,0,0,0,0,0,0,-1,1049,1562,0,0
-168,-538,0,0,0,0,0,0,0,0,0,-1,1056,1562,0,0
-161,-538,0,0,0,0,0,0,0,0,0,-1,1063,1562,0,0
-154,-538,0,0,0,0,0,0,0,0,0,-1,1070,1562,0,0
-147,-538,0,0,0,0,0,0,0,0,0,-1,1077,1562,0,0
-140,-538,0,0,0,0,0,0,0,0,0,-1,1084,1562,0,0
-133,-538,0,0,0,0,0,0,0,0,0,-1,1091,1562,0,0
-126,-538,0,0,0,0,0,0,0,0,0,-1,1098,1562,0,0
-119,-538,0,0,0,0,0,0,0,0,0,-1,1105,1562,0,0
-112,-538,0,0,0,0,0,0,0,0,0,-1,1112,1562,0,0
-105,-538,0,0,0,0,0,0,0,0,0,-1,1119,1562,0,0
-98,-538,0,0,0,0,0,0,0,0,0,-1,1126,1562,0,0
-91,-538,0,0,0,0,0,0,0,0,0,-1,1133,1562,0,0
-84,-538,0,0,0,0,0,0,0,0,0,-1,1140,1562,0,0
-77,-538,0,0,0,0,0,0,0,0,0,-1,1147,1562,0,0
-70,-538,0,0,0,0,0,0,0,0,0,-1,1154,1562,0,0
-63,-538,0,0,0,0,0,0,0,0,0,-1,1161,1562,0,0
-56,-538,0,0,0,0,0,0,0,0,0,-1,1168,1562,0,0
-49,-538,0,0,0,0,0,0,0,0,0,-1,1175,1562,0,0
-42,-538,0,0,0,0,0,0,0,0,0,-1,1182,1562,0,0
-35,-538,0,0,0,0,0,0,0,0,0,-1,1189,1562,0,0
-28,-538,0,0,0,0,0,0,0,0,0,-1,1196,1562,0,0
-21,-538,0,0,0,0,0,0,0,0,0,-1,1203,1562,0,0
-14,-538,0,0,0,0,0,0,0,0,0,-1,1210,1562,0,0
-7,-538,0,0,0,0,0,0,0,0,0,-1,1217,1562,0,0
0,-538,0,0,0,0,0,0,0,0,0,-1,1224,1562,0,0
7,-538,0,0,0,0,0,0,0,0,0,-1,1231,1562,0,0
14,-538,0,0,0,0,0,0,0,0,0,-1,1238,1562,0,0
21,-538,0,0,0,0,0,0,0,0,0,-1,1245,1562,0,0
28,-538,0,0,0,0,0,0,0,0,0,-1,1252,1562,0,0
35,-538,0,0,0,0,0,0,0,0,0,-1,1259,1562,0,0
42,-538,0,0,0,0,0,0,0,0,0,-1,1266,1562,0,0
49,-538,0,0,0,0,0,0,0,0,0,-1,1273,1562,0,0
56,-538,0,0,0,0,0,0,0,0,0,-1,1280,1562,0,0
63,-538,0,0,0,0,0,0,0,0,0,-1,1287,1562,0,0
70,-538,0,0,0,0,0,0,0,0,0,-1,1294,1562,0,0
77,-538,0,0,0,0,0,0,0,0,0,-1,1301,1562,0,0
84,-538,0,0,0,0,0,0,0,0,0,-1,1308,1562,0,0
91,-538,0,0,0,0,0,0,0,0,0,-1,1315,1562,0,0
98,-538,0,0,0,0,0,0,0,0,0,-1,1322,1562,0,0
105,-538,0,0,0,0,0,0,0,0,0,-1,1329,1562,0,0
112,-538,0,0,0,0,0,0,0,0,0,-1,1336,1562,0,0
119,-538,0,0,0,0,0,0,0,0,0,-1,1343,1562,0,0
126,-538,0,0,0,0,0,0,0,0,0,-1,1350,1562,0,0
133,-538,0,0,0,0,0,0,0,0,0,-1,1357,1562,0,0
140,-538,0,0,0,0,0,0,0,0,0,-1,1364,1562,0,0
147,-538,0,0,0,0,0,0,0,0,0,-1,1371,1562,0,0
154,-538,0,0,0,0,0,0,0,0,0,-1,1378,1562,0,0
161,-538,0,0,0,0,0,0,0,0,0,-1,1385,1562,0,0
168,-538,0,0,0,0,0,0,0,0,0,-1,1392,1562,0,0
175,-538,0,0,0,0,0,0,0,0,0,-1,1399,1562,0,0
182,-538,0,0,0,0,0,0,0,0,0,-1,1406,1562,0,0
189,-538,0,0,0,0,0,0,0,0,0,-1,1413,1562,0,0
196,-538,0,0,0,0,0,0,0,0,0,-1,1420,1562,0,0
203,-538,0,0,0,0,0,0,0,0,0,-1,1427,1562,0,0
210,-538,0,0,0,0,0,0,0,0,0,-1,1434,1562,0,0
217,-538,0,0,0,0,0,0,0,0,0,-1,1441,1562,0,0
224,-538,0,0,0,0,0,0,0,0,0,-1,1448,1562,0,0
231,-538,0,0,0,0,0,0,0,0,0,-1,1455,1562,0,0
238,-538,0,0,0,0,0,0,0,0,0,-1,1462,1562,0,0
245,-538,0,0,0,0,0,0,0,0,0,-1,1469,1562,0,0
252,-538,0,0,0,0,0,0,0,0,0,-1,1476,1562,0,0
259,-538,0,0,0,0,0,0,0,0,0,-1,1483,1562,0,0
266,-538,0,0,0,0,0,0,0,0,0,-1,1490,1562,0,0
273,-538,0,0,0,0,0,0,0,0,0,-1,1497,1562,0,0
280,-538,0,0,0,0,0,0,0,0,0,-1,1504,1562,0,0
287,-538,0,0,0,0,0,0,0,0,0,-1,1511,1562,0,0
294,-538,0,0,0,0,0,0,0,0,0,-1,1518,1562,0,0
301,-538,0,0,0,0,0,0,0,0,0,-1,1525,1562,0,0
308,-538,0,0,0,0,0,0,0,0,0,-1,1532,1562,0,0
315,-538,0,0,0,0,0,0,0,0,0,-1,1539,1562,0,0
322,-538,0,0,0,0,0,0,0,0,0,-1,1546,1562,0,0
329,-538,0,0,0,0,0,0,0,0,0,-1,1553,1562,0,0
336,-538,0,0,0,0,0,0,0,0,0,-1,1560,1562,0,0
343,-538,0,0,0,0,0,0,0,0,0,-1,1567,1562,0,0
350,-538,0,0,0,0,0,0,0,0,0,-1,1574,1562,0,0
357,-538,0,0,0,0,0,0,0,0,0,-1,1581,1562,0,0
364,-538,0,0,0,0,0,0,0,0,0,-1,1588,1562,0,0
371,-538,0,0,0,0,0,0,0,0,0,-1,1595,1562,0,0
378,-538,9.65479,5.82434,0,0,0,0,0,0,0,-1,1602,1562,9.6548,-5.82439
385,-538,10.5449,7.9502,0,0,0,0,0,0,0,-1,1609,1562,10.5449,-7.95014
392,-538,8.20361,7.07214,0,0,0,0,0,0,0,-1,1616,1562,8.20362,-7.07211
399,-538,7.85425,4.70508,0,0,0,0,0,0,0,-1,1623,1562,7.85425,-4.70512
406,-538,7.77734,4.96094,0,0,0,0,0,0,0,-1,1630,1562,7.77729,-4.96097
413,-538,13.0446,13.1765,0,0,0,0,0,0,0,-1,1637,1562,13.0446,-13.1765
420,-538,9.96216,12.7653,0,0,0,0,0,0,0,-1,1644,1562,9.96221,-12.7653
427,-538,10.1732,14.5863,0,0,0,0,0,0,0,-1,1651,1562,10.1732,-14.5863
434,-538,9.64331,14.7745,0,0,0,0,0,0,0,-1,1658,1562,9.64326,-14.7746
441,-538,11.5039,20.5195,0,0,0,0,0,0,0,-1,1665,1562,11.5039,-20.5195
448,-538,12.8766,22.4932,0,0,0,0,0,0,0,-1,1672,1562,12.8766,-22.4932
455,-538,12.5693,17.4128,0,0,0,0,0,0,0,-1,1679,1562,12.5694,-17.4128
462,-538,12.1389,17.017,0,0,0,0,0,0,0,-1,1686,1562,12.1389,-17.017
469,-538,14.3802,16.6945,0,0,0,0,0,0,0,-1,1693,1562,14.3803,-16.6945
476,-538,13.724,19.0608,0,0,0,0,0,0,0,-1,1700,1562,13.724,-19.0608
483,-538,17.088,25.2936,0,0,0,0,0,0,0,-1,1707,1562,17.088,-25.2936
490,-538,19.6016,29.6759,0,0,0,0,0,0,0,-1,1714,1562,19.6016,-29.6759
497,-538,19.876,28.7146,0.00970428,0.0109152,-0.00786917,0.0182021,0.0024173,-0.823792,0.0114146,0.0422128,1721,1562,19.876,-28.7146
504,-538,20.007,27.9863,0.00807481,0.00853698,-0.00637405,0.0146841,0.00192766,-0.803517,0.00921433,0.0173503,1728,1562,20.007,-27.9863
511,-538,19.9861,27.4393,0.00663417,0.0070567,-0.00518911,0.0120388,0.00165203,-0.805744,0.00753582,0.0105421,1735,1562,19.9861,-27.4393
518,-538,19.9767,26.9041,0.0051038,0.00509143,-0.00382797,0.00892559,0.00126964,-0.78459,0.00557558,0.0113715,1742,1562,19.9767,-26.904
525,-538,19.953,26.3571,0.00371998,0.00343961,-0.00268308,0.00626654,0.000893055,-0.759298,0.00391411,0.0131502,1749,1562,19.953,-26.3571
532,-538,19.9589,25.8092,0.00248924,0.00175861,-0.0015769,0.00374259,0.000505264,-0.671572,0.00234485,0.0153393,1756,1562,19.9589,-25.8091
539,-538,19.9312,25.2559,0.00147479,0.000184063,-0.00054363,0.00167325,-1.43903e-05,-0.350021,0.00112033,0.0177184,1763,1562,19.9311,-25.2559
546,-538,19.866,24.694,0.000652394,-0.00146133,0.000464058,0.000749788,-0.00155872,0.206873,0.00135982,0.0180752,1770,1562,19.866,-24.694
553,-538,19.8621,24.1362,2.26951e-06,-0.00304339,0.00146038,0.000589348,-0.00363046,0.382233,0.00263879,0.0298582,1777,1562,19.8621,-24.1363
560,-538,19.8124,23.5443,-0.000284175,-0.00446167,0.0023061,0.000738505,-0.00548435,0.417407,0.00392563,0.0324584,1784,1562,19.8124,-23.5444
567,-538,19.7642,22.95,-0.000180236,-0.00560113,0.00292059,0.00109383,-0.0068752,0.41135,0.00498821,0.024354,1791,1562,19.7642,-22.9499
574,-538,19.7242,22.3704,0.000278375,-0.00654226,0.00336537,0.00165929,-0.00792318,0.389382,0.00591333,0.0292043,1798,1562,19.7243,-22.3703
581,-538,19.7773,21.8108,0.00142995,-0.0070635,0.00330081,0.0025619,-0.00819544,0.330361,0.00648843,0.0417684,1805,1562,19.7774,-21.8108
588,-538,19.7935,21.1625,0,0,0,0,0,0,0,-1,1812,1562,19.7934,-21.1625
595,-538,15.9808,16.0894,0,0,0,0,0,0,0,-1,1819,1562,15.9808,-16.0893
602,-538,10.314,8.94238,0,0,0,0,0,0,0,-1,1826,1562,10.314,-8.94238
609,-538,10.1046,7.05713,0,0,0,0,0,0,0,-1,1833,1562,10.1046,-7.05719
616,-538,9.92249,5.43506,0,0,0,0,0,0,0,-1,1840,1562,9.92254,-5.43507
623,-538,11.1711,4.31604,0,0,0,0,0,0,0,-1,1847,1562,11.1711,-4.316
630,-538,12.6112,2.61633,0,0,0,0,0,0,0,-1,1854,1562,12.6112,-2.61637
637,-538,0,0,0,0,0,0,0,0,0,-1,1861,1562,0,0
644,-538,0,0,0,0,0,0,0,0,0,-1,1868,1562,0,0
651,-538,0,0,0,0,0,0,0,0,0,-1,1875,1562,0,0
658,-538,0,0,0,0,0,0,0,0,0,-1,1882,1562,0,0
665,-538,0,0,0,0,0,0,0,0,0,-1,1889,1562,0,0
672,-538,0,0,0,0,0,0,0,0,0,-1,1896,1562,0,0
679,-538,0,0,0,0,0,0,0,0,0,-1,1903,1562,0,0
686,-538,0,0,0,0,0,0,0,0,0,-1,1910,1562,0,0
693,-538,0,0,0,0,0,0,0,0,0,-1,1917,1562,0,0
700,-538,0,0,0,0,0,0,0,0,0,-1,1924,1562,0,0
707,-538,0,0,0,0,0,0,0,0,0,-1,1931,1562,0,0
714,-538,0,0,0,0,0,0,0,0,0,-1,1938,1562,0,0
721,-538,0,0,0,0,0,0,0,0,0,-1,1945,1562,0,0
728,-538,0,0,0,0,0,0,0,0,0,-1,1952,1562,0,0
735,-538,0,0,0,0,0,0,0,0,0,-1,1959,1562,0,0
742,-538,0,0,0,0,0,0,0,0,0,-1,1966,1562,0,0
749,-538,0,0,0,0,0,0,0,0,0,-1,1973,1562,0,0
756,-538,0,0,0,0,0,0,0,0,0,-1,1980,1562,0,0
763,-538,0,0,0,0,0,0,0,0,0,-1,1987,1562,0,0
770,-538,0,0,0,0,0,0,0,0,0,-1,1994,1562,0,0
777,-538,0,0,0,0,0,0,0,0,0,-1,2001,1562,0,0
784,-538,0,0,0,0,0,0,0,0,0,-1,2008,1562,0,0
791,-538,0,0,0,0,0,0,0,0,0,-1,2015,1562,0,0
798,-538,0,0,0,0,0,0,0,0,0,-1,2022,1562,0,0
805,-538,0,0,0,0,0,0,0,0,0,-1,2029,1562,0,0
812,-538,0,0,0,0,0,0,0,0,0,-1,2036,1562,0,0
-700,-545,0,0,0,0,0,0,0,0,0,-1,524,1569,0,0
-693,-545,0,0,0,0,0,0,0,0,0,-1,531,1569,0,0
-686,-545,0,0,0,0,0,0,0,0,0,-1,538,1569,0,0
-679,-545,0,0,0,0,0,0,0,0,0,-1,545,1569,0,0
-672,-545,0,0,0,0,0,0,0,0,0,-1,552,1569,0,0
-665,-545,0,0,0,0,0,0,0,0,0,-1,559,1569,0,0
-658,-545,0,0,0,0,0,0,0,0,0,-1,566,1569,0,0
-651,-545,0,0,0,0,0,0,0,0,0,-1,573,1569,0,0
-644,-545,0,0,0,0,0,0,0,0,0,-1,580,1569,0,0
-637,-545,0,0,0,0,0,0,0,0,0,-1,587,1569,0,0
-630,-545,0,0,0,0,0,0,0,0,0,-1,594,1569,0,0
-623,-545,0,0,0,0,0,0,0,0,0,-1,601,1569,0,0
-616,-545,0,0,0,0,0,0,0,0,0,-1,608,1569,0,0
-609,-545,0,0,0,0,0,0,0,0,0,-1,615,1569,0,0
-602,-545,0,0,0,0,0,0,0,0,0,-1,622,1569,0,0
-595,-545,0,0,0,0,0,0,0,0,0,-1,629,1569,0,0
-588,-545,0,0,0,0,0,0,0,0,0,-1,636,1569,0,0
-581,-545,0,0,0,0,0,0,0,0,0,-1,643,1569,0,0
-574,-545,0,0,0,0,0,0,0,0,0,-1,650,1569,0,0
-567,-545,0,0,0,0,0,0,0,0,0,-1,657,1569,0,0
-560,-545,0,0,0,0,0,0,0,0,0,-1,664,1569,0,0
-553,-545,0,0,0,0,0,0,0,0,0,-1,671,1569,0,0
-546,-545,0,0,0,0,0,0,0,0,0,-1,678,1569,0,0
-539,-545,0,0,0,0,0,0,0,0,0,-1,685,1569,0,0
-532,-545,0,0,0,0,0,0,0,0,0,-1,692,1569,0,0
-525,-545,0,0,0,0,0,0,0,0,0,-1,699,1569,0,0
-518,-545,0,0,0,0,0,0,0,0,0,-1,706,1569,0,0
-511,-545,0,0,0,0,0,0,0,0,0,-1,713,1569,0,0
-504,-545,-3.55237,-2.5354,0,0,0,0,0,0,0,-1,720,1569,-3.55236,2.53545
-497,-545,2.26575,5.69214,0,0,0,0,0,0,0,-1,727,1569,2.26573,-5.6922
-490,-545,-2.17334,7.81396,0,0,0,0,0,0,0,-1,734,1569,-2.17334,-7.81399
-483,-545,-1.88336,5.8446,0,0,0,0,0,0,0,-1,741,1569,-1.88334,-5.84466
-476,-545,-1.13147,6.5741,0,0,0,0,0,0,0,-1,748,1569,-1.13149,-6.57405
-469,-545,-1.03412,15.8353,0,0,0,0,0,0,0,-1,755,1569,-1.03414,-15.8353
-462,-545,-3.11267,18.6876,0,0,0,0,0,0,0,-1,762,1569,-3.11266,-18.6876
-455,-545,-2.60657,19.881,0,0,0,0,0,0,0,-1,769,1569,-2.60658,-19.881
-448,-545,-2.26331,20.5852,-0.00288369,-0.00449156,-0.000483713,-0.00274939,-0.00462587,-0.270827,0.00268655,0.034492,776,1569,-2.26328,-20.5852
-441,-545,-2.21704,21.4991,-0.00273139,-0.00321824,-0.000731239,-0.00220412,-0.00374551,-0.62472,0.00217372,0.0297497,783,1569,-2.21702,-21.4991
-434,-545,-2.48566,21.9752,-0.00230845,-0.00242792,-0.000692989,-0.00167263,-0.00306374,-0.742404,0.00177134,0.0264681,790,1569,-2.48566,-21.9753
-427,-545,-2.44421,22.5344,-0.00175738,-0.00140556,-0.000347983,-0.00119155,-0.00197139,-1.01943,0.00114642,0.0198017,797,1569,-2.44424,-22.5344
-420,-545,-2.41626,23.1002,-0.00104909,-0.000638913,4.21309e-05,-0.00063463,-0.00105337,1.46949,0.000612409,0.0236194,804,1569,-2.41624,-23.1002
-413,-545,-2.47821,23.7006,-0.00047426,0.000455585,0.000402668,0.000605719,-0.000624393,1.21391,0.000710233,0.0242851,811,1569,-2.47819,-23.7006
-406,-545,-2.50629,24.3187,0.000242908,0.00130151,0.000966409,0.00187407,-0.000329655,1.03594,0.00137253,0.0183032,818,1569,-2.50631,-24.3188
-399,-545,-2.51837,24.9065,0.00107259,0.00214598,0.00155348,0.00325286,-3.4283e-05,0.951719,0.00218009,0.0123475,825,1569,-2.51837,-24.9065
-392,-545,-2.55981,25.491,0.00192412,0.00295656,0.00206545,0.00456933,0.000311356,0.907855,0.00294792,0.011847,832,1569,-2.55981,-25.4909
-385,-545,-2.57275,26.0963,0.0028564,0.00394232,0.0026491,0.00610353,0.000695193,0.886478,0.00385822,0.00952699,839,1569,-2.57273,-26.0963
-378,-545,-2.61139,26.6829,0.0038455,0.00486043,0.00319734,0.00759033,0.0011156,0.864098,0.00473239,0.0114503,846,1569,-2.61138,-26.6829
-371,-545,-2.6507,27.2627,0.00488144,0.00583659,0.00371797,0.00910753,0.0016105,0.849274,0.00561241,0.0153493,853,1569,-2.65067,-27.2627
-364,-545,-2.65381,27.823,0.00610202,0.00703509,0.00439792,0.0109912,0.00214595,0.838241,0.00672719,0.0108872,860,1569,-2.65381,-27.823
-357,-545,-2.57825,28.5254,0.00739048,0.00836407,0.00502562,0.0129264,0.00282813,0.833679,0.00784667,0.0197715,867,1569,-2.57823,-28.5254
-350,-545,-2.5224,29.1798,0.0088475,0.00990077,0.00573241,0.0151307,0.00361759,0.831204,0.00912355,0.0321524,874,1569,-2.52237,-29.1798
-343,-545,-2.41699,29.8148,0,0,0,0,0,0,0,-1,881,1569,-2.41699,-29.8148
-336,-545,-2.32355,30.0192,0,0,0,0,0,0,0,-1,888,1569,-2.32352,-30.0192
-329,-545,-2.03595,27.8694,0,0,0,0,0,0,0,-1,895,1569,-2.03592,-27.8694
-322,-545,-2.42474,27.9695,0,0,0,0,0,0,0,-1,902,1569,-2.42474,-27.9695
-315,-545,-2.52954,30.1711,0,0,0,0,0,0,0,-1,909,1569,-2.52951,-30.1712
-308,-545,-1.54358,21.4457,0,0,0,0,0,0,0,-1,916,1569,-1.54357,-21.4457
-301,-545,1.52191,17.5009,0,0,0,0,0,0,0,-1,923,1569,1.52192,-17.5008
-294,-545,-2.69287,8.42102,0,0,0,0,0,0,0,-1,930,1569,-2.69287,-8.42097
-287,-545,-3.47784,9.96021,0,0,0,0,0,0,0,-1,937,1569,-3.47785,-9.96021
-280,-545,-3.7879,10.5448,0,0,0,0,0,0,0,-1,944,1569,-3.78793,-10.5448
-273,-545,-5.10333,12.864,0,0,0,0,0,0,0,-1,951,1569,-5.10331,-12.864
-266,-545,-5.78955,13.3704,0,0,0,0,0,0,0,-1,958,1569,-5.78952,-13.3703
-259,-545,-6.32184,13.8101,0,0,0,0,0,0,0,-1,965,1569,-6.32182,-13.81
-252,-545,0.369263,7.54053,0,0,0,0,0,0,0,-1,972,1569,0.369276,-7.54056
-245,-545,-0.236633,6.65564,0,0,0,0,0,0,0,-1,979,1569,-0.236605,-6.65566
-238,-545,0,0,0,0,0,0,0,0,0,-1,986,1569,0,0
-231,-545,0,0,0,0,0,0,0,0,0,-1,993,1569,0,0
-224,-545,0,0,0,0,0,0,0,0,0,-1,1000,1569,0,0
-217,-545,0,0,0,0,0,0,0,0,0,-1,1007,1569,0,0
-210,-545,0,0,0,0,0,0,0,0,0,-1,1014,1569,0,0
-203,-545,0,0,0,0,0,0,0,0,0,-1,1021,1569,0,0
-196,-545,0,0,0,0,0,0,0,0,0,-1,1028,1569,0,0
-189,-545,0,0,0,0,0,0,0,0,0,-1,1035,1569,0,0
-182,-545,0,0,0,0,0,0,0,0,0,-1,1042,1569,0,0
-175,-545,0,0,0,0,0,0,0,0,0,-1,1049,1569,0,0
-168,-545,0,0,0,0,0,0,0,0,0,-1,1056,1569,0,0
-161,-545,0,0,0,0,0,0,0,0,0,-1,1063,1569,0,0
-154,-545,0,0,0,0,0,0,0,0,0,-1,1070,1569,0,0
-147,-545,0,0,0,0,0,0,0,0,0,-1,1077,1569,0,0
-140,-545,0,0,0,0,0,0,0,0,0,-1,1084,1569,0,0
-133,-545,0,0,0,0,0,0,0,0,0,-1,1091,1569,0,0
-126,-545,0,0,0,0,0,0,0,0,0,-1,1098,1569,0,0
-119,-545,0,0,0,0,0,0,0,0,0,-1,1105,1569,0,0
-112,-545,0,0,0,0,0,0,0,0,0,-1,1112,1569,0,0
-105,-545,0,0,0,0,0,0,0,0,0,-1,1119,1569,0,0
-98,-545,0,0,0,0,0,0,0,0,0,-1,1126,1569,0,0
-91,-545,0,0,0,0,0,0,0,0,0,-1,1133,1569,0,0
-84,-545,0,0,0,0,0,0,0,0,0,-1,1140,1569,0,0
-77,-545,0,0,0,0,0,0,0,0,0,-1,1147,1569,0,0
-70,-545,0,0,0,0,0,0,0,0,0,-1,1154,1569,0,0
-63,-545,0,0,0,0,0,0,0,0,0,-1,1161,1569,0,0
-56,-545,0,0,0,0,0,0,0,0,0,-1,1168,1569,0,0
-49,-545,0,0,0,0,0,0,0,0,0,-1,1175,1569,0,0
-42,-545,0,0,0,0,0,0,0,0,0,-1,1182,1569,0,0
-35,-545,0,0,0,0,0,0,0,0,0,-1,1189,1569,0,0
-28,-545,0,0,0,0,0,0,0,0,0,-1,1196,1569,0,0
-21,-545,0,0,0,0,0,0,0,0,0,-1,1203,1569,0,0
-14,-545,0,0,0,0,0,0,0,0,0,-1,1210,1569,0,0
-7,-545,0,0,0,0,0,0,0,0,0,-1,1217,1569,0,0
0,-545,0,0,0,0,0,0,0,0,0,-1,1224,1569,0,0
7,-545,0,0,0,0,0,0,0,0,0,-1,1231,1569,0,0
14,-545,0,0,0,0,0,0,0,0,0,-1,1238,1569,0,0
21,-545,0,0,0,0,0,0,0,0,0,-1,1245,1569,0,0
28,-545,0,0,0,0,0,0,0,0,0,-1,1252,1569,0,0
35,-545,0,0,0,0,0,0,0,0,0,-1,1259,1569,0,0
42,-545,0,0,0,0,0,0,0,0,0,-1,1266,1569,0,0
49,-545,0,0,0,0,0,0,0,0,0,-1,1273,1569,0,0
56,-545,0,0,0,0,0,0,0,0,0,-1,1280,1569,0,0
63,-545,0,0,0,0,0,0,0,0,0,-1,1287,1569,0,0
70,-545,0,0,0,0,0,0,0,0,0,-1,1294,1569,0,0
77,-545,0,0,0,0,0,0,0,0,0,-1,1301,1569,0,0
84,-545,0,0,0,0,0,0,0,0,0,-1,1308,1569,0,0
91,-545,0,0,0,0,0,0,0,0,0,-1,1315,1569,0,0
98,-545,0,0,0,0,0,0,0,0,0,-1,1322,1569,0,0
105,-545,0,0,0,0,0,0,0,0,0,-1,1329,1569,0,0
112,-545,0,0,0,0,0,0,0,0,0,-1,1336,1569,0,0
119,-545,0,0,0,0,0,0,0,0,0,-1,1343,1569,0,0
126,-545,0,0,0,0,0,0,0,0,0,-1,1350,1569,0,0
133,-545,0,0,0,0,0,0,0,0,0,-1,1357,1569,0,0
140,-545,0,0,0,0,0,0,0,0,0,-1,1364,1569,0,0
147,-545,0,0,0,0,0,0,0,0,0,-1,1371,1569,0,0
154,-545,0,0,0,0,0,0,0,0,0,-1,1378,1569,0,0
161,-545,0,0,0,0,0,0,0,0,0,-1,1385,1569,0,0
168,-545,0,0,0,0,0,0,0,0,0,-1,1392,1569,0,0
175,-545,0,0,0,0,0,0,0,0,0,-1,1399,1569,0,0
182,-545,0,0,0,0,0,0,0,0,0,-1,1406,1569,0,0
189,-545,0,0,0,0,0,0,0,0,0,-1,1413,1569,0,0
196,-545,0,0,0,0,0,0,0,0,0,-1,1420,1569,0,0
203,-545,0,0,0,0,0,0,0,0,0,-1,1427,1569,0,0
210,-545,0,0,0,0,0,0,0,0,0,-1,1434,1569,0,0
217,-545,0,0,0,0,0,0,0,0,0,-1,1441,1569,0,0
224,-545,0,0,0,0,0,0,0,0,0,-1,1448,1569,0,0
231,-545,0,0,0,0,0,0,0,0,0,-1,1455,1569,0,0
238,-545,0,0,0,0,0,0,0,0,0,-1,1462,1569,0,0
245,-545,0,0,0,0,0,0,0,0,0,-1,1469,1569,0,0
252,-545,0,0,0,0,0,0,0,0,0,-1,1476,1569,0,0
259,-545,0,0,0,0,0,0,0,0,0,-1,1483,1569,0,0
266,-545,0,0,0,0,0,0,0,0,0,-1,1490,1569,0,0
273,-545,0,0,0,0,0,0,0,0,0,-1,1497,1569,0,0
280,-545,0,0,0,0,0,0,0,0,0,-1,1504,1569,0,0
287,-545,0,0,0,0,0,0,0,0,0,-1,1511,1569,0,0
294,-545,0,0,0,0,0,0,0,0,0,-1,1518,1569,0,0
301,-545,0,0,0,0,0,0,0,0,0,-1,1525,1569,0,0
308,-545,0,0,0,0,0,0,0,0,0,-1,1532,1569,0,0
315,-545,0,0,0,0,0,0,0,0,0,-1,1539,1569,0,0
322,-545,0,0,0,0,0,0,0,0,0,-1,1546,1569,0,0
329,-545,0,0,0,0,0,0,0,0,0,-1,1553,1569,0,0
336,-545,0,0,0,0,0,0,0,0,0,-1,1560,1569,0,0
343,-545,0,0,0,0,0,0,0,0,0,-1,1567,1569,0,0
350,-545,0,0,0,0,0,0,0,0,0,-1,1574,1569,0,0
357,-545,0,0,0,0,0,0,0,0,0,-1,1581,1569,0,0
364,-545,7.19495,4.88098,0,0,0,0,0,0,0,-1,1588,1569,7.19497,-4.88095
371,-545,7.82324,3.84302,0,0,0,0,0,0,0,-1,1595,1569,7.82324,-3.84307
378,-545,7.65674,5.52673,0,0,0,0,0,0,0,-1,1602,1569,7.6567,-5.52667
385,-545,8.58447,1.16125,0,0,0,0,0,0,0,-1,1609,1569,8.5845,-1.1612
392,-545,12.5654,3.89526,0,0,0,0,0,0,0,-1,1616,1569,12.5655,-3.89532
399,-545,11.5869,5.6333,0,0,0,0,0,0,0,-1,1623,1569,11.5869,-5.63326
406,-545,11.234,6.36414,0,0,0,0,0,0,0,-1,1630,1569,11.234,-6.3641
413,-545,12.1521,13.4817,0,0,0,0,0,0,0,-1,1637,1569,12.1521,-13.4817
420,-545,11.1954,13.6047,0,0,0,0,0,0,0,-1,1644,1569,11.1954,-13.6047
427,-545,9.61072,14.9135,0,0,0,0,0,0,0,-1,1651,1569,9.61076,-14.9134
434,-545,13.1598,23.9921,0,0,0,0,0,0,0,-1,1658,1569,13.1598,-23.992
441,-545,12.2833,22.2238,0,0,0,0,0,0,0,-1,1665,1569,12.2833,-22.2237
448,-545,13.0082,21.941,0,0,0,0,0,0,0,-1,1672,1569,13.0082,-21.941
455,-545,13.733,21.6583,0,0,0,0,0,0,0,-1,1679,1569,13.733,-21.6583
462,-545,12.449,20.7413,0,0,0,0,0,0,0,-1,1686,1569,12.4489,-20.7413
469,-545,12.7837,17.7919,0,0,0,0,0,0,0,-1,1693,1569,12.7837,-17.7919
476,-545,15.7562,24.8708,0,0,0,0,0,0,0,-1,1700,1569,15.7563,-24.8709
483,-545,19.3997,29.7617,0,0,0,0,0,0,0,-1,1707,1569,19.3997,-29.7617
490,-545,19.3984,29.1641,0.0091958,0.0116466,-0.00811902,0.0186322,0.00221023,-0.860298,0.0117542,0.0297709,1714,1569,19.3985,-29.164
497,-545,19.4124,28.6207,0.00765428,0.00880459,-0.00617053,0.0144267,0.00203216,-0.831869,0.00901708,0.023038,1721,1569,19.4124,-28.6207
504,-545,19.4934,28.0157,0.00629825,0.00664422,-0.00488681,0.0113611,0.00158136,-0.80309,0.00710585,0.0156502,1728,1569,19.4934,-28.0158
511,-545,19.4731,27.4352,0.00502103,0.00515584,-0.00380733,0.00889636,0.00128051,-0.79425,0.0055535,0.0122748,1735,1569,19.4731,-27.4352
518,-545,19.4547,26.8955,0.00365461,0.00329884,-0.00257777,0.00606062,0.000892828,-0.750949,0.00377813,0.014312,1742,1569,19.4548,-26.8955
525,-545,19.4022,26.3656,0.00241226,0.0016781,-0.00150094,0.00359035,0.000500012,-0.665469,0.00224553,0.0152603,1749,1569,19.4022,-26.3656
532,-545,19.3738,25.8337,0.00128722,-4.77368e-05,-0.000416155,0.00140632,-0.000166841,-0.278751,0.000997823,0.0157258,1756,1569,19.3738,-25.8338
539,-545,19.3413,25.2698,0.000315832,-0.0017492,0.000654053,0.000505558,-0.00193892,0.282329,0.00149,0.0176921,1763,1569,19.3413,-25.2698
546,-545,19.2817,24.6829,-0.000527642,-0.00362799,0.00177879,0.000281664,-0.0044373,0.426983,0.00305642,0.0190027,1770,1569,19.2818,-24.6828
553,-545,19.2904,24.0986,-0.00121986,-0.00552402,0.00293424,0.000266904,-0.00701078,0.46899,0.00476532,0.0279316,1777,1569,19.2905,-24.0987
560,-545,19.2848,23.517,-0.00157645,-0.00732994,0.00398637,0.000462781,-0.00936917,0.472845,0.00640595,0.0302815,1784,1569,19.2847,-23.517
567,-545,19.2844,22.842,0,0,0,0,0,0,0,-1,1791,1569,19.2844,-22.842
574,-545,19.3188,22.223,0,0,0,0,0,0,0,-1,1798,1569,19.3188,-22.223
581,-545,19.2872,21.7068,0,0,0,0,0,0,0,-1,1805,1569,19.2873,-21.7068
588,-545,15.4786,16.7035,0,0,0,0,0,0,0,-1,1812,1569,15.4786,-16.7035
595,-545,10.2859,9.11218,0,0,0,0,0,0,0,-1,1819,1569,10.2858,-9.11215
602,-545,8.82117,6.32214,0,0,0,0,0,0,0,-1,1826,1569,8.82121,-6.32217
609,-545,10.2406,5.22351,0,0,0,0,0,0,0,-1,1833,1569,10.2406,-5.22353
616,-545,11.701,3.93188,0,0,0,0,0,0,0,-1,1840,1569,11.701,-3.93191
623,-545,13.2139,2.32043,0,0,0,0,0,0,0,-1,1847,1569,13.2139,-2.32042
630,-545,0,0,0,0,0,0,0,0,0,-1,1854,1569,0,0
637,-545,0,0,0,0,0,0,0,0,0,-1,1861,1569,0,0
644,-545,0,0,0,0,0,0,0,0,0,-1,1868,1569,0,0
651,-545,0,0,0,0,0,0,0,0,0,-1,1875,1569,0,0
658,-545,0,0,0,0,0,0,0,0,0,-1,1882,1569,0,0
665,-545,0,0,0,0,0,0,0,0,0,-1,1889,1569,0,0
672,-545,0,0,0,0,0,0,0,0,0,-1,1896,1569,0,0
679,-545,0,0,0,0,0,0,0,0,0,-1,1903,1569,0,0
686,-545,0,0,0,0,0,0,0,0,0,-1,1910,1569,0,0
693,-545,0,0,0,0,0,0,0,0,0,-1,1917,1569,0,0
700,-545,0,0,0,0,0,0,0,0,0,-1,1924,1569,0,0
707,-545,0,0,0,0,0,0,0,0,0,-1,1931,1569,0,0
714,-545,0,0,0,0,0,0,0,0,0,-1,1938,1569,0,0
721,-545,0,0,0,0,0,0,0,0,0,-1,1945,1569,0,0
728,-545,0,0,0,0,0,0,0,0,0,-1,1952,1569,0,0
735,-545,0,0,0,0,0,0,0,0,0,-1,1959,1569,0,0
742,-545,0,0,0,0,0,0,0,0,0,-1,1966,1569,0,0
749,-545,0,0,0,0,0,0,0,0,0,-1,1973,1569,0,0
756,-545,0,0,0,0,0,0,0,0,0,-1,1980,1569,0,0
763,-545,0,0,0,0,0,0,0,0,0,-1,1987,1569,0,0
770,-545,0,0,0,0,0,0,0,0,0,-1,1994,1569,0,0
777,-545,0,0,0,0,0,0,0,0,0,-1,2001,1569,0,0
784,-545,0,0,0,0,0,0,0,0,0,-1,2008,1569,0,0
791,-545,0,0,0,0,0,0,0,0,0,-1,2015,1569,0,0
798,-545,0,0,0,0,0,0,0,0,0,-1,2022,1569,0,0
805,-545,0,0,0,0,0,0,0,0,0,-1,2029,1569,0,0
812,-545,0,0,0,0,0,0,0,0,0,-1,2036,1569,0,0
-700,-552,0,0,0,0,0,0,0,0,0,-1,524,1576,0,0
-693,-552,0,0,0,0,0,0,0,0,0,-1,531,1576,0,0
-686,-552,0,0,0,0,0,0,0,0,0,-1,538,1576,0,0
-679,-552,0,0,0,0,0,0,0,0,0,-1,545,1576,0,0
-672,-552,0,0,0,0,0,0,0,0,0,-1,552,1576,0,0
-665,-552,0,0,0,0,0,0,0,0,0,-1,559,1576,0,0
-658,-552,0,0,0,0,0,0,0,0,0,-1,566,1576,0,0
-651,-552,0,0,0,0,0,0,0,0,0,-1,573,1576,0,0
-644,-552,0,0,0,0,0,0,0,0,0,-1,580,1576,0,0
-637,-552,0,0,0,0,0,0,0,0,0,-1,587,1576,0,0
-630,-552,0,0,0,0,0,0,0,0,0,-1,594,1576,0,0
-623,-552,0,0,0,0,0,0,0,0,0,-1,601,1576,0,0
-616,-552,0,0,0,0,0,0,0,0,0,-1,608,1576,0,0
-609,-552,0,0,0,0,0,0,0,0,0,-1,615,1576,0,0
-602,-552,0,0,0,0,0,0,0,0,0,-1,622,1576,0,0
-595,-552,0,0,0,0,0,0,0,0,0,-1,629,1576,0,0
-588,-552,0,0,0,0,0,0,0,0,0,-1,636,1576,0,0
-581,-552,0,0,0,0,0,0,0,0,0,-1,643,1576,0,0
-574,-552,0,0,0,0,0,0,0,0,0,-1,650,1576,0,0
-567,-552,0,0,0,0,0,0,0,0,0,-1,657,1576,0,0
-560,-552,0,0,0,0,0,0,0,0,0,-1,664,1576,0,0
-553,-552,0,0,0,0,0,0,0,0,0,-1,671,1576,0,0
-546,-552,0,0,0,0,0,0,0,0,0,-1,678,1576,0,0
-539,-552,0,0,0,0,0,0,0,0,0,-1,685,1576,0,0
-532,-552,0,0,0,0,0,0,0,0,0,-1,692,1576,0,0
-525,-552,0,0,0,0,0,0,0,0,0,-1,699,1576,0,0
-518,-552,0,0,0,0,0,0,0,0,0,-1,706,1576,0,0
-511,-552,0,0,0,0,0,0,0,0,0,-1,713,1576,0,0
-504,-552,0,0,0,0,0,0,0,0,0,-1,720,1576,0,0
-497,-552,1.51282,3.96924,0,0,0,0,0,0,0,-1,727,1576,1.5128,-3.96924
-490,-552,-3.82312,6.32104,0,0,0,0,0,0,0,-1,734,1576,-3.82314,-6.3211
-483,-552,-3.50586,6.47986,0,0,0,0,0,0,0,-1,741,1576,-3.50587,-6.47983
-476,-552,-1.95129,4.43054,0,0,0,0,0,0,0,-1,748,1576,-1.95128,-4.43054
-469,-552,-1.40491,7.9895,0,0,0,0,0,0,0,-1,755,1576,-1.40491,-7.98947
-462,-552,0.0459595,16.3469,0,0,0,0,0,0,0,-1,762,1576,0.0459611,-16.3469
-455,-552,-2.01868,19.7933,0,0,0,0,0,0,0,-1,769,1576,-2.01869,-19.7933
-448,-552,-1.77783,20.2593,0,0,0,0,0,0,0,-1,776,1576,-1.77784,-20.2592
-441,-552,-1.63965,21.4835,-0.00283344,-0.00273591,-0.000569381,-0.00221321,-0.00335614,-0.828118,0.00197024,0.0465559,783,1576,-1.63964,-21.4836
-434,-552,-1.62964,22.1482,-0.00265555,-0.00252204,-0.000758795,-0.00182707,-0.00335052,-0.829273,0.00193707,0.0372281,790,1576,-1.62965,-22.1482
-427,-552,-1.90314,22.4731,-0.00226508,-0.00179703,-0.000551889,-0.0014316,-0.00263051,-0.985931,0.00152071,0.0328075,797,1576,-1.90311,-22.4731
-420,-552,-1.84351,23.1547,-0.00170338,-0.00122788,-0.000300431,-0.0010825,-0.00184876,-1.12013,0.00107257,0.0232619,804,1576,-1.84351,-23.1546
-413,-552,-1.87323,23.7346,-0.00125537,-0.000292478,-5.44752e-05,-0.000289406,-0.00125844,-1.51446,0.000761058,0.018411,811,1576,-1.87323,-23.7347
-406,-552,-1.922,24.334,-0.000653992,0.000354956,0.000382786,0.000483743,-0.000782779,1.24625,0.000737989,0.0145311,818,1576,-1.92199,-24.334
-399,-552,-1.93756,24.9297,6.75928e-05,0.00100363,0.000842678,0.00149954,-0.000428311,1.03889,0.00116892,0.0145371,825,1576,-1.93755,-24.9297
-392,-552,-1.98529,25.5137,0.000803928,0.00161829,0.00122473,0.00250176,-7.95377e-05,0.945883,0.00169497,0.0154103,832,1576,-1.98528,-25.5137
-385,-552,-2.0069,26.1112,0.00162481,0.00245519,0.00168438,0.0037748,0.000305203,0.906237,0.00242122,0.013698,839,1576,-2.00692,-26.1112
-378,-552,-2.02863,26.6785,0.00251706,0.00324887,0.002156,0.00506979,0.000696131,0.869454,0.00317337,0.015386,846,1576,-2.02865,-26.6785
-371,-552,-2.06396,27.2723,0.0034247,0.00401361,0.00254866,0.00628477,0.00115354,0.84291,0.00386317,0.0207089,853,1576,-2.06399,-27.2724
-364,-552,-2.06805,27.8479,0.00447641,0.00500958,0.00307631,0.00783083,0.00165516,0.828619,0.00476563,0.015586,860,1576,-2.06808,-27.8479
-357,-552,-2.05249,28.4126,0.0055906,0.0060922,0.00357535,0.00942554,0.00225727,0.820414,0.00568272,0.0105181,867,1576,-2.0525,-28.4126
-350,-552,-2.05121,29.0277,0.00684192,0.00726932,0.00413109,0.0111922,0.00291901,0.81124,0.00670378,0.0138795,874,1576,-2.05122,-29.0277
-343,-552,-2.05878,29.5857,0.00803364,0.00853711,0.00479209,0.0130841,0.00348668,0.81164,0.00782389,0.0218013,881,1576,-2.05877,-29.5857
-336,-552,-1.99506,30.0005,0,0,0,0,0,0,0,-1,888,1576,-1.99505,-30.0005
-329,-552,-1.80988,30.6541,0,0,0,0,0,0,0,-1,895,1576,-1.80991,-30.654
-322,-552,-1.23962,28.5371,0,0,0,0,0,0,0,-1,902,1576,-1.23964,-28.5371
-315,-552,-0.605347,28.994,0,0,0,0,0,0,0,-1,909,1576,-0.605331,-28.9941
-308,-552,-1.01624,30.3169,0,0,0,0,0,0,0,-1,916,1576,-1.01624,-30.3169
-301,-552,1.39453,18.4995,0,0,0,0,0,0,0,-1,923,1576,1.3945,-18.4995
-294,-552,0.842163,13.7863,0,0,0,0,0,0,0,-1,930,1576,0.842149,-13.7863
-287,-552,-0.663757,13.3474,0,0,0,0,0,0,0,-1,937,1576,-0.663744,-13.3474
-280,-552,-5.47241,8.96765,0,0,0,0,0,0,0,-1,944,1576,-5.47239,-8.96766
-273,-552,1.64587,10.6685,0,0,0,0,0,0,0,-1,951,1576,1.6459,-10.6685
-266,-552,-1.32678,8.05688,0,0,0,0,0,0,0,-1,958,1576,-1.32677,-8.05683
-259,-552,-5.54321,8.31213,0,0,0,0,0,0,0,-1,965,1576,-5.54324,-8.31214
-252,-552,-1.93445,7.81543,0,0,0,0,0,0,0,-1,972,1576,-1.93445,-7.81546
-245,-552,-2.53613,6.92212,0,0,0,0,0,0,0,-1,979,1576,-2.53614,-6.92216
-238,-552,-6.5365,2.81885,0,0,0,0,0,0,0,-1,986,1576,-6.53649,-2.8188
-231,-552,-4.32239,4.34583,0,0,0,0,0,0,0,-1,993,1576,-4.32239,-4.34587
-224,-552,0,0,0,0,0,0,0,0,0,-1,1000,1576,0,0
-217,-552,0,0,0,0,0,0,0,0,0,-1,1007,1576,0,0
-210,-552,0,0,0,0,0,0,0,0,0,-1,1014,1576,0,0
-203,-552,0,0,0,0,0,0,0,0,0,-1,1021,1576,0,0
-196,-552,0,0,0,0,0,0,0,0,0,-1,1028,1576,0,0
-189,-552,0,0,0,0,0,0,0,0,0,-1,1035,1576,0,0
-182,-552,0,0,0,0,0,0,0,0,0,-1,1042,1576,0,0
-175,-552,0,0,0,0,0,0,0,0,0,-1,1049,1576,0,0
-168,-552,0,0,0,0,0,0,0,0,0,-1,1056,1576,0,0
-161,-552,0,0,0,0,0,0,0,0,0,-1,1063,1576,0,0
-154,-552,0,0,0,0,0,0,0,0,0,-1,1070,1576,0,0
-147,-552,0,0,0,0,0,0,0,0,0,-1,1077,1576,0,0
-140,-552,0,0,0,0,0,0,0,0,0,-1,1084,1576,0,0
-133,-552,0,0,0,0,0,0,0,0,0,-1,1091,1576,0,0
-126,-552,0,0,0,0,0,0,0,0,0,-1,1098,1576,0,0
-119,-552,0,0,0,0,0,0,0,0,0,-1,1105,1576,0,0
-112,-552,0,0,0,0,0,0,0,0,0,-1,1112,1576,0,0
-105,-552,0,0,0,0,0,0,0,0,0,-1,1119,1576,0,0
-98,-552,0,0,0,0,0,0,0,0,0,-1,1126,1576,0,0
-91,-552,0,0,0,0,0,0,0,0,0,-1,1133,1576,0,0
-84,-552,0,0,0,0,0,0,0,0,0,-1,1140,1576,0,0
-77,-552,0,0,0,0,0,0,0,0,0,-1,1147,1576,0,0
-70,-552,0,0,0,0,0,0,0,0,0,-1,1154,1576,0,0
-63,-552,0,0,0,0,0,0,0,0,0,-1,1161,1576,0,0
-56,-552,0,0,0,0,0,0,0,0,0,-1,1168,1576,0,0
-49,-552,0,0,0,0,0,0,0,0,0,-1,1175,1576,0,0
-42,-552,0,0,0,0,0,0,0,0,0,-1,1182,1576,0,0
-35,-552,0,0,0,0,0,0,0,0,0,-1,1189,1576,0,0
-28,-552,0,0,0,0,0,0,0,0,0,-1,1196,1576,0,0
-21,-552,0,0,0,0,0,0,0,0,0,-1,1203,1576,0,0
-14,-552,0,0,0,0,0,0,0,0,0,-1,1210,1576,0,0
-7,-552,0,0,0,0,0,0,0,0,0,-1,1217,1576,0,0
0,-552,0,0,0,0,0,0,0,0,0,-1,1224,1576,0,0
7,-552,0,0,0,0,0,0,0,0,0,-1,1231,1576,0,0
14,-552,0,0,0,0,0,0,0,0,0,-1,1238,1576,0,0
21,-552,0,0,0,0,0,0,0,0,0,-1,1245,1576,0,0
28,-552,0,0,0,0,0,0,0,0,0,-1,1252,1576,0,0
35,-552,0,0,0,0,0,0,0,0,0,-1,1259,1576,0,0
42,-552,0,0,0,0,0,0,0,0,0,-1,1266,1576,0,0
49,-552,0,0,0,0,0,0,0,0,0,-1,1273,1576,0,0
56,-552,0,0,0,0,0,0,0,0,0,-1,1280,1576,0,0
63,-552,0,0,0,0,0,0,0,0,0,-1,1287,1576,0,0
70,-552,0,0,0,0,0,0,0,0,0,-1,1294,1576,0,0
77,-552,0,0,0,0,0,0,0,0,0,-1,1301,1576,0,0
84,-552,0,0,0,0,0,0,0,0,0,-1,1308,1576,0,0
91,-552,0,0,0,0,0,0,0,0,0,-1,1315,1576,0,0
98,-552,0,0,0,0,0,0,0,0,0,-1,1322,1576,0,0
105,-552,0,0,0,0,0,0,0,0,0,-1,1329,1576,0,0
112,-552,0,0,0,0,0,0,0,0,0,-1,1336,1576,0,0
119,-552,0,0,0,0,0,0,0,0,0,-1,1343,1576,0,0
126,-552,0,0,0,0,0,0,0,0,0,-1,1350,1576,0,0
133,-552,0,0,0,0,0,0,0,0,0,-1,1357,1576,0,0
140,-552,0,0,0,0,0,0,0,0,0,-1,1364,1576,0,0
147,-552,0,0,0,0,0,0,0,0,0,-1,1371,1576,0,0
154,-552,0,0,0,0,0,0,0,0,0,-1,1378,1576,0,0
161,-552,0,0,0,0,0,0,0,0,0,-1,1385,1576,0,0
168,-552,0,0,0,0,0,0,0,0,0,-1,1392,1576,0,0
175,-552,0,0,0,0,0,0,0,0,0,-1,1399,1576,0,0
182,-552,0,0,0,0,0,0,0,0,0,-1,1406,1576,0,0
189,-552,0,0,0,0,0,0,0,0,0,-1,1413,1576,0,0
196,-552,0,0,0,0,0,0,0,0,0,-1,1420,1576,0,0
203,-552,0,0,0,0,0,0,0,0,0,-1,1427,1576,0,0
210,-552,0,0,0,0,0,0,0,0,0,-1,1434,1576,0,0
217,-552,0,0,0,0,0,0,0,0,0,-1,1441,1576,0,0
224,-552,0,0,0,0,0,0,0,0,0,-1,1448,1576,0,0
231,-552,0,0,0,0,0,0,0,0,0,-1,1455,1576,0,0
238,-552,0,0,0,0,0,0,0,0,0,-1,1462,1576,0,0
245,-552,0,0,0,0,0,0,0,0,0,-1,1469,1576,0,0
252,-552,0,0,0,0,0,0,0,0,0,-1,1476,1576,0,0
259,-552,0,0,0,0,0,0,0,0,0,-1,1483,1576,0,0
266,-552,0,0,0,0,0,0,0,0,0,-1,1490,1576,0,0
273,-552,0,0,0,0,0,0,0,0,0,-1,1497,1576,0,0
280,-552,0,0,0,0,0,0,0,0,0,-1,1504,1576,0,0
287,-552,0,0,0,0,0,0,0,0,0,-1,1511,1576,0,0
294,-552,0,0,0,0,0,0,0,0,0,-1,1518,1576,0,0
301,-552,0,0,0,0,0,0,0,0,0,-1,1525,1576,0,0
308,-552,0,0,0,0,0,0,0,0,0,-1,1532,1576,0,0
315,-552,0,0,0,0,0,0,0,0,0,-1,1539,1576,0,0
322,-552,0,0,0,0,0,0,0,0,0,-1,1546,1576,0,0
329,-552,0,0,0,0,0,0,0,0,0,-1,1553,1576,0,0
336,-552,0,0,0,0,0,0,0,0,0,-1,1560,1576,0,0
343,-552,0,0,0,0,0,0,0,0,0,-1,1567,1576,0,0
350,-552,4.97876,4.09888,0,0,0,0,0,0,0,-1,1574,1576,4.97875,-4.09883
357,-552,5.18469,4.10706,0,0,0,0,0,0,0,-1,1581,1576,5.1847,-4.10702
364,-552,5.80872,5.07031,0,0,0,0,0,0,0,-1,1588,1576,5.80874,-5.07037
371,-552,7.10657,5.64783,0,0,0,0,0,0,0,-1,1595,1576,7.10651,-5.64786
378,-552,6.44446,4.91492,0,0,0,0,0,0,0,-1,1602,1576,6.44448,-4.91496
385,-552,12.8276,3.16504,0,0,0,0,0,0,0,-1,1609,1576,12.8276,-3.16503
392,-552,12.1301,4.3363,0,0,0,0,0,0,0,-1,1616,1576,12.1302,-4.33631
399,-552,11.3486,5.6012,0,0,0,0,0,0,0,-1,1623,1576,11.3486,-5.60115
406,-552,10.7863,6.42542,0,0,0,0,0,0,0,-1,1630,1576,10.7863,-6.42536
413,-552,8.39307,10.365,0,0,0,0,0,0,0,-1,1637,1576,8.3931,-10.365
420,-552,10.2306,12.7225,0,0,0,0,0,0,0,-1,1644,1576,10.2305,-12.7226
427,-552,9.73267,14.783,0,0,0,0,0,0,0,-1,1651,1576,9.73269,-14.783
434,-552,12.0377,20.1364,0,0,0,0,0,0,0,-1,1658,1576,12.0377,-20.1364
441,-552,12.4963,21.5277,0,0,0,0,0,0,0,-1,1665,1576,12.4964,-21.5277
448,-552,12.9141,21.5482,0,0,0,0,0,0,0,-1,1672,1576,12.9141,-21.5482
455,-552,13.3318,21.5687,0,0,0,0,0,0,0,-1,1679,1576,13.3317,-21.5687
462,-552,12.745,20.5947,0,0,0,0,0,0,0,-1,1686,1576,12.745,-20.5947
469,-552,17.7067,29.6902,0,0,0,0,0,0,0,-1,1693,1576,17.7067,-29.6902
476,-552,18.7704,30.413,0,0,0,0,0,0,0,-1,1700,1576,18.7704,-30.4129
483,-552,18.9347,29.5682,0,0,0,0,0,0,0,-1,1707,1576,18.9347,-29.5682
490,-552,18.9467,29.1013,0.00721064,0.00958934,-0.00630261,0.0148138,0.00198614,-0.878655,0.00928493,0.0157361,1714,1576,18.9467,-29.1014
497,-552,18.9967,28.5973,0.00593693,0.00711276,-0.00474444,0.0113056,0.00174412,-0.847042,0.00702819,0.0218178,1721,1576,18.9968,-28.5973
504,-552,18.9471,28.0405,0.00474347,0.00505177,-0.00362479,0.00852569,0.00126955,-0.806649,0.00531143,0.0232955,1728,1576,18.9471,-28.0405
511,-552,18.9261,27.4434,0.00355377,0.00343385,-0.0026049,0.0060994,0.000888215,-0.773891,0.00380491,0.0179645,1735,1576,18.9261,-27.4433
518,-552,18.9202,26.8877,0.00229776,0.00158211,-0.00147629,0.00345897,0.000420903,-0.666501,0.00217927,0.0162194,1742,1576,18.9202,-26.8877
525,-552,18.8558,26.366,0.00113658,-0.000122927,-0.000429872,0.00126931,-0.000255655,-0.299477,0.00094305,0.0157513,1749,1576,18.8558,-26.366
532,-552,18.8391,25.8231,5.85238e-05,-0.00200882,0.000683529,0.000264081,-0.00221437,0.292126,0.00157169,0.0158971,1756,1576,18.8391,-25.8231
539,-552,18.8145,25.2618,-0.000928882,-0.00397323,0.00186217,-4.59142e-05,-0.00485619,0.442763,0.00322227,0.0184711,1763,1576,18.8144,-25.2618
546,-552,18.77,24.6981,-0.00184638,-0.00623268,0.00319768,-0.000162023,-0.00791704,0.484813,0.00522486,0.0225943,1770,1576,18.7701,-24.6981
553,-552,18.77,24.0851,-0.00263504,-0.00862914,0.00463594,-0.000111743,-0.0111524,0.498449,0.00739799,0.0268394,1777,1576,18.77,-24.0851
560,-552,18.7451,23.6093,-0.00314055,-0.0110652,0.00606055,0.000137999,-0.0143437,0.495881,0.00960883,0.0432579,1784,1576,18.7451,-23.6093
567,-552,18.7571,22.786,0,0,0,0,0,0,0,-1,1791,1576,18.757,-22.7861
574,-552,12.8835,14.8463,0,0,0,0,0,0,0,-1,1798,1576,12.8836,-14.8463
581,-552,9.74841,9.98645,0,0,0,0,0,0,0,-1,1805,1576,9.74847,-9.9864
588,-552,10.5619,9.34924,0,0,0,0,0,0,0,-1,1812,1576,10.5619,-9.34921
595,-552,5.36194,6.62744,0,0,0,0,0,0,0,-1,1819,1576,5.36193,-6.62742
602,-552,10.6863,4.31616,0,0,0,0,0,0,0,-1,1826,1576,10.6862,-4.31619
609,-552,12.146,3.18286,0,0,0,0,0,0,0,-1,1833,1576,12.1459,-3.18281
616,-552,13.8762,2.08167,0,0,0,0,0,0,0,-1,1840,1576,13.8763,-2.08167
623,-552,0,0,0,0,0,0,0,0,0,-1,1847,1576,0,0
630,-552,0,0,0,0,0,0,0,0,0,-1,1854,1576,0,0
637,-552,0,0,0,0,0,0,0,0,0,-1,1861,1576,0,0
644,-552,0,0,0,0,0,0,0,0,0,-1,1868,1576,0,0
651,-552,0,0,0,0,0,0,0,0,0,-1,1875,1576,0,0
658,-552,0,0,0,0,0,0,0,0,0,-1,1882,1576,0,0
665,-552,0,0,0,0,0,0,0,0,0,-1,1889,1576,0,0
672,-552,0,0,0,0,0,0,0,0,0,-1,1896,1576,0,0
679,-552,0,0,0,0,0,0,0,0,0,-1,1903,1576,0,0
686,-552,0,0,0,0,0,0,0,0,0,-1,1910,1576,0,0
693,-552,0,0,0,0,0,0,0,0,0,-1,1917,1576,0,0
700,-552,0,0,0,0,0,0,0,0,0,-1,1924,1576,0,0
707,-552,0,0,0,0,0,0,0,0,0,-1,1931,1576,0,0
714,-552,0,0,0,0,0,0,0,0,0,-1,1938,1576,0,0
721,-552,0,0,0,0,0,0,0,0,0,-1,1945,1576,0,0
728,-552,0,0,0,0,0,0,0,0,0,-1,1952,1576,0,0
735,-552,0,0,0,0,0,0,0,0,0,-1,1959,1576,0,0
742,-552,0,0,0,0,0,0,0,0,0,-1,1966,1576,0,0
749,-552,0,0,0,0,0,0,0,0,0,-1,1973,1576,0,0
756,-552,0,0,0,0,0,0,0,0,0,-1,1980,1576,0,0
763,-552,0,0,0,0,0,0,0,0,0,-1,1987,1576,0,0
770,-552,0,0,0,0,0,0,0,0,0,-1,1994,1576,0,0
777,-552,0,0,0,0,0,0,0,0,0,-1,2001,1576,0,0
784,-552,0,0,0,0,0,0,0,0,0,-1,2008,1576,0,0
791,-552,0,0,0,0,0,0,0,0,0,-1,2015,1576,0,0
798,-552,0,0,0,0,0,0,0,0,0,-1,2022,1576,0,0
805,-552,0,0,0,0,0,0,0,0,0,-1,2029,1576,0,0
812,-552,0,0,0,0,0,0,0,0,0,-1,2036,1576,0,0
-700,-559,0,0,0,0,0,0,0,0,0,-1,524,1583,0,0
-693,-559,0,0,0,0,0,0,0,0,0,-1,531,1583,0,0
-686,-559,0,0,0,0,0,0,0,0,0,-1,538,1583,0,0
-679,-559,0,0,0,0,0,0,0,0,0,-1,545,1583,0,0
-672,-559,0,0,0,0,0,0,0,0,0,-1,552,1583,0,0
-665,-559,0,0,0,0,0,0,0,0,0,-1,559,1583,0,0
-658,-559,0,0,0,0,0,0,0,0,0,-1,566,1583,0,0
-651,-559,0,0,0,0,0,0,0,0,0,-1,573,1583,0,0
-644,-559,0,0,0,0,0,0,0,0,0,-1,580,1583,0,0
-637,-559,0,0,0,0,0,0,0,0,0,-1,587,1583,0,0
-630,-559,0,0,0,0,0,0,0,0,0,-1,594,1583,0,0
-623,-559,0,0,0,0,0,0,0,0,0,-1,601,1583,0,0
-616,-559,0,0,0,0,0,0,0,0,0,-1,608,1583,0,0
-609,-559,0,0,0,0,0,0,0,0,0,-1,615,1583,0,0
-602,-559,0,0,0,0,0,0,0,0,0,-1,622,1583,0,0
-595,-559,0,0,0,0,0,0,0,0,0,-1,629,1583,0,0
-588,-559,0,0,0,0,0,0,0,0,0,-1,636,1583,0,0
-581,-559,0,0,0,0,0,0,0,0,0,-1,643,1583,0,0
-574,-559,0,0,0,0,0,0,0,0,0,-1,650,1583,0,0
-567,-559,0,0,0,0,0,0,0,0,0,-1,657,1583,0,0
-560,-559,0,0,0,0,0,0,0,0,0,-1,664,1583,0,0
-553,-559,0,0,0,0,0,0,0,0,0,-1,671,1583,0,0
-546,-559,0,0,0,0,0,0,0,0,0,-1,678,1583,0,0
-539,-559,0,0,0,0,0,0,0,0,0,-1,685,1583,0,0
-532,-559,0,0,0,0,0,0,0,0,0,-1,692,1583,0,0
-525,-559,0,0,0,0,0,0,0,0,0,-1,699,1583,0,0
-518,-559,0,0,0,0,0,0,0,0,0,-1,706,1583,0,0
-511,-559,0,0,0,0,0,0,0,0,0,-1,713,1583,0,0
-504,-559,0,0,0,0,0,0,0,0,0,-1,720,1583,0,0
-497,-559,0,0,0,0,0,0,0,0,0,-1,727,1583,0,0
-490,-559,-5.49835,4.47424,0,0,0,0,0,0,0,-1,734,1583,-5.49833,-4.4743
-483,-559,-5.24078,4.74561,0,0,0,0,0,0,0,-1,741,1583,-5.24079,-4.74563
-476,-559,-4.98022,4.99316,0,0,0,0,0,0,0,-1,748,1583,-4.98024,-4.99321
-469,-559,-4.6424,5.38062,0,0,0,0,0,0,0,-1,755,1583,-4.64237,-5.38058
-462,-559,-0.161865,6.49438,0,0,0,0,0,0,0,-1,762,1583,-0.161835,-6.49444
-455,-559,1.08826,7.02527,0,0,0,0,0,0,0,-1,769,1583,1.08823,-7.02529
-448,-559,-2.55518,20.0121,0,0,0,0,0,0,0,-1,776,1583,-2.55519,-20.012
-441,-559,-1.1366,21.3668,0,0,0,0,0,0,0,-1,783,1583,-1.13659,-21.3668
-434,-559,-0.669556,22.1136,0,0,0,0,0,0,0,-1,790,1583,-0.669576,-22.1137
-427,-559,-1.2641,22.3486,0,0,0,0,0,0,0,-1,797,1583,-1.26409,-22.3487
-420,-559,-1.367,23.1736,-0.002218,-0.00151857,-0.000352217,-0.00137194,-0.00236463,-1.17632,0.00137106,0.0473719,804,1583,-1.36701,-23.1736
-413,-559,-1.32172,23.7729,-0.00196396,-0.00080481,-0.000252352,-0.000752255,-0.00201651,-1.36547,0.00117668,0.0175159,811,1583,-1.32171,-23.7729
-406,-559,-1.33868,24.3804,-0.00151679,-0.000385185,2.48105e-05,-0.000384641,-0.00151733,1.54889,0.000910829,0.0102161,818,1583,-1.33869,-24.3804
-399,-559,-1.34021,24.968,-0.000919407,4.50398e-05,0.000337805,0.000151587,-0.00102595,1.26526,0.000739695,0.0130609,825,1583,-1.34019,-24.9681
-392,-559,-1.38373,25.543,-0.000292246,0.000475978,0.000597482,0.000802167,-0.000618435,1.07108,0.000822468,0.0162407,832,1583,-1.38372,-25.543
-385,-559,-1.40881,26.1326,0.000437268,0.00117643,0.000947554,0.00182393,-0.000210228,0.971343,0.00129174,0.0164209,839,1583,-1.40882,-26.1326
-378,-559,-1.41724,26.7017,0.00126526,0.00186705,0.00135007,0.00294935,0.000182959,0.895044,0.00190817,0.0156211,846,1583,-1.41723,-26.7017
-371,-559,-1.45557,27.2886,0.00210595,0.00247101,0.00163301,0.00393166,0.000645298,0.841054,0.00243468,0.0238005,853,1583,-1.45558,-27.2886
-364,-559,-1.46106,27.856,0.00306925,0.00329841,0.00202811,0.00521518,0.00115248,0.813617,0.00316339,0.0208603,860,1583,-1.46108,-27.856
-357,-559,-1.48004,28.4275,0.00410274,0.00419778,0.00241084,0.00656156,0.00173895,0.795253,0.00392529,0.0124358,867,1583,-1.48006,-28.4275
-350,-559,-1.4917,28.9915,0.00528045,0.00511489,0.00283644,0.00803532,0.00236002,0.770811,0.004769,0.0103446,874,1583,-1.49167,-28.9914
-343,-559,-1.49786,29.5371,0.00642672,0.00619707,0.00341093,0.00972476,0.00289903,0.768572,0.00576514,0.0116976,881,1583,-1.49784,-29.5371
-336,-559,-1.52185,30.0743,0,0,0,0,0,0,0,-1,888,1583,-1.52184,-30.0744
-329,-559,-1.42603,30.9056,0,0,0,0,0,0,0,-1,895,1583,-1.42602,-30.9056
-322,-559,-0.998352,31.8727,0,0,0,0,0,0,0,-1,902,1583,-0.998363,-31.8726
-315,-559,-0.659607,29.1698,0,0,0,0,0,0,0,-1,909,1583,-0.659577,-29.1698
-308,-559,-0.755493,30.4624,0,0,0,0,0,0,0,-1,916,1583,-0.755509,-30.4625
-301,-559,-1.22174,31.0372,0,0,0,0,0,0,0,-1,923,1583,-1.22176,-31.0372
-294,-559,0.945129,18.5165,0,0,0,0,0,0,0,-1,930,1583,0.945117,-18.5165
-287,-559,-0.11792,15.4912,0,0,0,0,0,0,0,-1,937,1583,-0.117939,-15.4912
-280,-559,0.191467,13.5093,0,0,0,0,0,0,0,-1,944,1583,0.191441,-13.5093
-273,-559,2.12836,10.3059,0,0,0,0,0,0,0,-1,951,1583,2.12839,-10.3059
-266,-559,-0.597046,6.68933,0,0,0,0,0,0,0,-1,958,1583,-0.597031,-6.68937
-259,-559,-7.00311,8.62756,0,0,0,0,0,0,0,-1,965,1583,-7.00312,-8.6275
-252,-559,-9.4483,2.87805,0,0,0,0,0,0,0,-1,972,1583,-9.44829,-2.87805
-245,-559,-4.80804,7.1803,0,0,0,0,0,0,0,-1,979,1583,-4.80804,-7.18027
-238,-559,-8.45764,2.54858,0,0,0,0,0,0,0,-1,986,1583,-8.45763,-2.54862
-231,-559,-5.86914,4.34021,0,0,0,0,0,0,0,-1,993,1583,-5.86914,-4.34019
-224,-559,-3.30505,6.22864,0,0,0,0,0,0,0,-1,1000,1583,-3.30505,-6.22859
-217,-559,0,0,0,0,0,0,0,0,0,-1,1007,1583,0,0
-210,-559,0,0,0,0,0,0,0,0,0,-1,1014,1583,0,0
-203,-559,0,0,0,0,0,0,0,0,0,-1,1021,1583,0,0
-196,-559,0,0,0,0,0,0,0,0,0,-1,1028,1583,0,0
-189,-559,0,0,0,0,0,0,0,0,0,-1,1035,1583,0,0
-182,-559,0,0,0,0,0,0,0,0,0,-1,1042,1583,0,0
-175,-559,0,0,0,0,0,0,0,0,0,-1,1049,1583,0,0
-168,-559,0,0,0,0,0,0,0,0,0,-1,1056,1583,0,0
-161,-559,0,0,0,0,0,0,0,0,0,-1,1063,1583,0,0
-154,-559,0,0,0,0,0,0,0,0,0,-1,1070,1583,0,0
-147,-559,0,0,0,0,0,0,0,0,0,-1,1077,1583,0,0
-140,-559,0,0,0,0,0,0,0,0,0,-1,1084,1583,0,0
-133,-559,0,0,0,0,0,0,0,0,0,-1,1091,1583,0,0
-126,-559,0,0,0,0,0,0,0,0,0,-1,1098,1583,0,0
-119,-559,0,0,0,0,0,0,0,0,0,-1,1105,1583,0,0
-112,-559,0,0,0,0,0,0,0,0,0,-1,1112,1583,0,0
-105,-559,0,0,0,0,0,0,0,0,0,-1,1119,1583,0,0
-98,-559,0,0,0,0,0,0,0,0,0,-1,1126,1583,0,0
-91,-559,0,0,0,0,0,0,0,0,0,-1,1133,1583,0,0
-84,-559,0,0,0,0,0,0,0,0,0,-1,1140,1583,0,0
-77,-559,0,0,0,0,0,0,0,0,0,-1,1147,1583,0,0
-70,-559,0,0,0,0,0,0,0,0,0,-1,1154,1583,0,0
-63,-559,0,0,0,0,0,0,0,0,0,-1,1161,1583,0,0
-56,-559,0,0,0,0,0,0,0,0,0,-1,1168,1583,0,0
-49,-559,0,0,0,0,0,0,0,0,0,-1,1175,1583,0,0
-42,-559,0,0,0,0,0,0,0,0,0,-1,1182,1583,0,0
-35,-559,0,0,0,0,0,0,0,0,0,-1,1189,1583,0,0
-28,-559,0,0,0,0,0,0,0,0,0,-1,1196,1583,0,0
-21,-559,0,0,0,0,0,0,0,0,0,-1,1203,1583,0,0
-14,-559,0,0,0,0,0,0,0,0,0,-1,1210,1583,0,0
-7,-559,0,0,0,0,0,0,0,0,0,-1,1217,1583,0,0
0,-559,0,0,0,0,0,0,0,0,0,-1,1224,1583,0,0
7,-559,0,0,0,0,0,0,0,0,0,-1,1231,1583,0,0
14,-559,0,0,0,0,0,0,0,0,0,-1,1238,1583,0,0
21,-559,0,0,0,0,0,0,0,0,0,-1,1245,1583,0,0
28,-559,0,0,0,0,0,0,0,0,0,-1,1252,1583,0,0
35,-559,0,0,0,0,0,0,0,0,0,-1,1259,1583,0,0
42,-559,0,0,0,0,0,0,0,0,0,-1,1266,1583,0,0
49,-559,0,0,0,0,0,0,0,0,0,-1,1273,1583,0,0
56,-559,0,0,0,0,0,0,0,0,0,-1,1280,1583,0,0
63,-559,0,0,0,0,0,0,0,0,0,-1,1287,1583,0,0
70,-559,0,0,0,0,0,0,0,0,0,-1,1294,1583,0,0
77,-559,0,0,0,0,0,0,0,0,0,-1,1301,1583,0,0
84,-559,0,0,0,0,0,0,0,0,0,-1,1308,1583,0,0
91,-559,0,0,0,0,0,0,0,0,0,-1,1315,1583,0,0
98,-559,0,0,0,0,0,0,0,0,0,-1,1322,1583,0,0
105,-559,0,0,0,0,0,0,0,0,0,-1,1329,1583,0,0
112,-559,0,0,0,0,0,0,0,0,0,-1,1336,1583,0,0
119,-559,0,0,0,0,0,0,0,0,0,-1,1343,1583,0,0
126,-559,0,0,0,0,0,0,0,0,0,-1,1350,1583,0,0
133,-559,0,0,0,0,0,0,0,0,0,-1,1357,1583,0,0
140,-559,0,0,0,0,0,0,0,0,0,-1,1364,1583,0,0
147,-559,0,0,0,0,0,0,0,0,0,-1,1371,1583,0,0
154,-559,0,0,0,0,0,0,0,0,0,-1,1378,1583,0,0
161,-559,0,0,0,0,0,0,0,0,0,-1,1385,1583,0,0
168,-559,0,0,0,0,0,0,0,0,0,-1,1392,1583,0,0
175,-559,0,0,0,0,0,0,0,0,0,-1,1399,1583,0,0
182,-559,0,0,0,0,0,0,0,0,0,-1,1406,1583,0,0
189,-559,0,0,0,0,0,0,0,0,0,-1,1413,1583,0,0
196,-559,0,0,0,0,0,0,0,0,0,-1,1420,1583,0,0
203,-559,0,0,0,0,0,0,0,0,0,-1,1427,1583,0,0
210,-559,0,0,0,0,0,0,0,0,0,-1,1434,1583,0,0
217,-559,0,0,0,0,0,0,0,0,0,-1,1441,1583,0,0
224,-559,0,0,0,0,0,0,0,0,0,-1,1448,1583,0,0
231,-559,0,0,0,0,0,0,0,0,0,-1,1455,1583,0,0
238,-559,0,0,0,0,0,0,0,0,0,-1,1462,1583,0,0
245,-559,0,0,0,0,0,0,0,0,0,-1,1469,1583,0,0
252,-559,0,0,0,0,0,0,0,0,0,-1,1476,1583,0,0
259,-559,0,0,0,0,0,0,0,0,0,-1,1483,1583,0,0
266,-559,0,0,0,0,0,0,0,0,0,-1,1490,1583,0,0
273,-559,0,0,0,0,0,0,0,0,0,-1,1497,1583,0,0
280,-559,0,0,0,0,0,0,0,0,0,-1,1504,1583,0,0
287,-559,0,0,0,0,0,0,0,0,0,-1,1511,1583,0,0
294,-559,0,0,0,0,0,0,0,0,0,-1,1518,1583,0,0
301,-559,0,0,0,0,0,0,0,0,0,-1,1525,1583,0,0
308,-559,0,0,0,0,0,0,0,0,0,-1,1532,1583,0,0
315,-559,0,0,0,0,0,0,0,0,0,-1,1539,1583,0,0
322,-559,0,0,0,0,0,0,0,0,0,-1,1546,1583,0,0
329,-559,0,0,0,0,0,0,0,0,0,-1,1553,1583,0,0
336,-559,5.97668,3.09827,0,0,0,0,0,0,0,-1,1560,1583,5.97667,-3.09824
343,-559,5.44824,2.88696,0,0,0,0,0,0,0,-1,1567,1583,5.44819,-2.88693
350,-559,4.69775,3.27051,0,0,0,0,0,0,0,-1,1574,1583,4.69771,-3.27048
357,-559,3.88025,3.60999,0,0,0,0,0,0,0,-1,1581,1583,3.88027,-3.60998
364,-559,5.00928,5.32605,0,0,0,0,0,0,0,-1,1588,1583,5.00928,-5.32607
371,-559,1.84436,2.52441,0,0,0,0,0,0,0,-1,1595,1583,1.84441,-2.52447
378,-559,6.34753,1.53137,0,0,0,0,0,0,0,-1,1602,1583,6.34752,-1.53139
385,-559,6.95911,1.48181,0,0,0,0,0,0,0,-1,1609,1583,6.95916,-1.48175
392,-559,11.6949,4.77734,0,0,0,0,0,0,0,-1,1616,1583,11.6949,-4.77731
399,-559,11.1104,5.56909,0,0,0,0,0,0,0,-1,1623,1583,11.1103,-5.56905
406,-559,10.3385,6.48657,0,0,0,0,0,0,0,-1,1630,1583,10.3385,-6.48661
413,-559,9.76147,6.97571,0,0,0,0,0,0,0,-1,1637,1583,9.76143,-6.97574
420,-559,7.77124,10.5851,0,0,0,0,0,0,0,-1,1644,1583,7.77128,-10.585
427,-559,10.1022,12.5565,0,0,0,0,0,0,0,-1,1651,1583,10.1021,-12.5565
434,-559,9.62769,14.6309,0,0,0,0,0,0,0,-1,1658,1583,9.62771,-14.6309
441,-559,12.6149,21.3678,0,0,0,0,0,0,0,-1,1665,1583,12.6149,-21.3678
448,-559,13.7046,22.6677,0,0,0,0,0,0,0,-1,1672,1583,13.7046,-22.6677
455,-559,13.9427,23.0509,0,0,0,0,0,0,0,-1,1679,1583,13.9427,-23.0509
462,-559,18.0601,31.9216,0,0,0,0,0,0,0,-1,1686,1583,18.06,-31.9217
469,-559,18.0802,31.0813,0,0,0,0,0,0,0,-1,1693,1583,18.0803,-31.0813
476,-559,18.342,30.2555,0.00500747,0.0171381,-0.00843192,0.0214595,0.000685993,-1.09719,0.0140833,0.0227044,1700,1583,18.3421,-30.2554
483,-559,18.4038,29.6033,0.00571486,0.0108345,-0.00654232,0.0153,0.00124939,-0.971878,0.00981008,0.0141208,1707,1583,18.4038,-29.6032
490,-559,18.3929,29.0853,0.00548741,0.00763611,-0.0049047,0.0115827,0.00154077,-0.893218,0.00726292,0.016145,1714,1583,18.393,-29.0854
497,-559,18.408,28.5969,0.00446629,0.00548042,-0.00361694,0.00862566,0.00132104,-0.85504,0.00536459,0.0188978,1721,1583,18.408,-28.597
504,-559,18.3621,28.0526,0.00342589,0.00349936,-0.00257607,0.00603896,0.000886293,-0.792528,0.00376547,0.023886,1728,1583,18.3621,-28.0527
511,-559,18.358,27.4785,0.00231499,0.00172632,-0.00153871,0.00358726,0.000454043,-0.690897,0.00225545,0.0222007,1735,1583,18.358,-27.4786
518,-559,18.38,26.9092,0.00116661,-0.000154353,-0.000452383,0.00130669,-0.000294425,-0.300269,0.000984058,0.0147056,1742,1583,18.38,-26.9091
525,-559,18.3293,26.3706,6.40949e-05,-0.00199998,0.000620464,0.000236249,-0.00217214,0.270652,0.00153292,0.0133894,1749,1583,18.3293,-26.3706
532,-559,18.3048,25.8182,-0.00100932,-0.00411698,0.00182294,-0.000167842,-0.00495846,0.432462,0.00325114,0.0147755,1756,1583,18.3048,-25.8183
539,-559,18.2841,25.2634,-0.00207983,-0.00645491,0.00318273,-0.00040537,-0.00812938,0.484317,0.00528964,0.0191771,1763,1583,18.2841,-25.2634
546,-559,18.2288,24.7104,-0.00317086,-0.00924381,0.00482674,-0.000504918,-0.0119098,0.504629,0.007777,0.0178849,1770,1583,18.2287,-24.7104
553,-559,18.2721,24.1293,-0.00419423,-0.0123488,0.0066789,-0.000446424,-0.0160966,0.511356,0.0105854,0.0216579,1777,1583,18.2721,-24.1293
560,-559,18.2139,23.6913,-0.00502409,-0.0157093,0.00863246,-0.000214713,-0.0205187,0.508299,0.0136081,0.0393327,1784,1583,18.2138,-23.6913
567,-559,18.0922,23.1099,0,0,0,0,0,0,0,-1,1791,1583,18.0921,-23.1098
574,-559,10.5109,10.7317,0,0,0,0,0,0,0,-1,1798,1583,10.5108,-10.7317
581,-559,5.97095,5.96179,0,0,0,0,0,0,0,-1,1805,1583,5.97093,-5.96181
588,-559,5.79102,5.89954,0,0,0,0,0,0,0,-1,1812,1583,5.79098,-5.89949
595,-559,5.79089,6.24231,0,0,0,0,0,0,0,-1,1819,1583,5.7909,-6.24227
602,-559,12.478,2.35669,0,0,0,0,0,0,0,-1,1826,1583,12.4781,-2.35675
609,-559,14.0479,1.22681,0,0,0,0,0,0,0,-1,1833,1583,14.0479,-1.22681
616,-559,0,0,0,0,0,0,0,0,0,-1,1840,1583,0,0
623,-559,0,0,0,0,0,0,0,0,0,-1,1847,1583,0,0
630,-559,0,0,0,0,0,0,0,0,0,-1,1854,1583,0,0
637,-559,0,0,0,0,0,0,0,0,0,-1,1861,1583,0,0
644,-559,0,0,0,0,0,0,0,0,0,-1,1868,1583,0,0
651,-559,0,0,0,0,0,0,0,0,0,-1,1875,1583,0,0
658,-559,0,0,0,0,0,0,0,0,0,-1,1882,1583,0,0
665,-559,0,0,0,0,0,0,0,0,0,-1,1889,1583,0,0
672,-559,0,0,0,0,0,0,0,0,0,-1,1896,1583,0,0
679,-559,0,0,0,0,0,0,0,0,0,-1,1903,1583,0,0
686,-559,0,0,0,0,0,0,0,0,0,-1,1910,1583,0,0
693,-559,0,0,0,0,0,0,0,0,0,-1,1917,1583,0,0
700,-559,0,0,0,0,0,0,0,0,0,-1,1924,1583,0,0
707,-559,0,0,0,0,0,0,0,0,0,-1,1931,1583,0,0
714,-559,0,0,0,0,0,0,0,0,0,-1,1938,1583,0,0
721,-559,0,0,0,0,0,0,0,0,0,-1,1945,1583,0,0
728,-559,0,0,0,0,0,0,0,0,0,-1,1952,1583,0,0
735,-559,0,0,0,0,0,0,0,0,0,-1,1959,1583,0,0
742,-559,0,0,0,0,0,0,0,0,0,-1,1966,1583,0,0
749,-559,0,0,0,0,0,0,0,0,0,-1,1973,1583,0,0
756,-559,0,0,0,0,0,0,0,0,0,-1,1980,1583,0,0
763,-559,0,0,0,0,0,0,0,0,0,-1,1987,1583,0,0
770,-559,0,0,0,0,0,0,0,0,0,-1,1994,1583,0,0
777,-559,0,0,0,0,0,0,0,0,0,-1,2001,1583,0,0
784,-559,0,0,0,0,0,0,0,0,0,-1,2008,1583,0,0
791,-559,0,0,0,0,0,0,0,0,0,-1,2015,1583,0,0
798,-559,0,0,0,0,0,0,0,0,0,-1,2022,1583,0,0
805,-559,0,0,0,0,0,0,0,0,0,-1,2029,1583,0,0
812,-559,0,0,0,0,0,0,0,0,0,-1,2036,1583,0,0
-700,-566,0,0,0,0,0,0,0,0,0,-1,524,1590,0,0
-693,-566,0,0,0,0,0,0,0,0,0,-1,531,1590,0,0
-686,-566,0,0,0,0,0,0,0,0,0,-1,538,1590,0,0
-679,-566,0,0,0,0,0,0,0,0,0,-1,545,1590,0,0
-672,-566,0,0,0,0,0,0,0,0,0,-1,552,1590,0,0
-665,-566,0,0,0,0,0,0,0,0,0,-1,559,1590,0,0
-658,-566,0,0,0,0,0,0,0,0,0,-1,566,1590,0,0
-651,-566,0,0,0,0,0,0,0,0,0,-1,573,1590,0,0
-644,-566,0,0,0,0,0,0,0,0,0,-1,580,1590,0,0
-637,-566,0,0,0,0,0,0,0,0,0,-1,587,1590,0,0
-630,-566,0,0,0,0,0,0,0,0,0,-1,594,1590,0,0
-623,-566,0,0,0,0,0,0,0,0,0,-1,601,1590,0,0
-616,-566,0,0,0,0,0,0,0,0,0,-1,608,1590,0,0
-609,-566,0,0,0,0,0,0,0,0,0,-1,615,1590,0,0
-602,-566,0,0,0,0,0,0,0,0,0,-1,622,1590,0,0
-595,-566,0,0,0,0,0,0,0,0,0,-1,629,1590,0,0
-588,-566,0,0,0,0,0,0,0,0,0,-1,636,1590,0,0
-581,-566,0,0,0,0,0,0,0,0,0,-1,643,1590,0,0
-574,-566,0,0,0,0,0,0,0,0,0,-1,650,1590,0,0
-567,-566,0,0,0,0,0,0,0,0,0,-1,657,1590,0,0
-560,-566,0,0,0,0,0,0,0,0,0,-1,664,1590,0,0
-553,-566,0,0,0,0,0,0,0,0,0,-1,671,1590,0,0
-546,-566,0,0,0,0,0,0,0,0,0,-1,678,1590,0,0
-539,-566,0,0,0,0,0,0,0,0,0,-1,685,1590,0,0
-532,-566,0,0,0,0,0,0,0,0,0,-1,692,1590,0,0
-525,-566,0,0,0,0,0,0,0,0,0,-1,699,1590,0,0
-518,-566,0,0,0,0,0,0,0,0,0,-1,706,1590,0,0
-511,-566,0,0,0,0,0,0,0,0,0,-1,713,1590,0,0
-504,-566,0,0,0,0,0,0,0,0,0,-1,720,1590,0,0
-497,-566,0,0,0,0,0,0,0,0,0,-1,727,1590,0,0
-490,-566,0,0,0,0,0,0,0,0,0,-1,734,1590,0,0
-483,-566,-7.17084,2.78613,0,0,0,0,0,0,0,-1,741,1590,-7.17083,-2.78618
-476,-566,-7.13971,2.87183,0,0,0,0,0,0,0,-1,748,1590,-7.13971,-2.87184
-469,-566,-6.43829,3.2998,0,0,0,0,0,0,0,-1,755,1590,-6.43829,-3.2998
-462,-566,-0.459106,3.89343,0,0,0,0,0,0,0,-1,762,1590,-0.459095,-3.89341
-455,-566,0.280212,4.74023,0,0,0,0,0,0,0,-1,769,1590,0.280207,-4.74023
-448,-566,0.436951,5.51306,0,0,0,0,0,0,0,-1,776,1590,0.436971,-5.51301
-441,-566,-0.440735,12.4063,0,0,0,0,0,0,0,-1,783,1590,-0.440753,-12.4062
-434,-566,0.127502,22.0167,0,0,0,0,0,0,0,-1,790,1590,0.127486,-22.0167
-427,-566,-0.679871,23.2372,0,0,0,0,0,0,0,-1,797,1590,-0.679857,-23.2372
-420,-566,-1.1286,23.5505,0,0,0,0,0,0,0,-1,804,1590,-1.12861,-23.5506
-413,-566,-0.762207,23.7969,-0.0025698,-0.00117572,-0.000257513,-0.00112968,-0.00261585,-1.39385,0.00151493,0.0298788,811,1590,-0.762208,-23.7968
-406,-566,-0.755249,24.3921,-0.00228081,-0.00100679,-0.000163431,-0.000986157,-0.00230144,-1.44522,0.00133326,0.0127036,818,1590,-0.755245,-24.3921
-399,-566,-0.76947,24.9786,-0.00181065,-0.000807186,-1.51709e-05,-0.000806957,-0.00181088,-1.55568,0.00104757,0.0106204,825,1590,-0.76944,-24.9786
-392,-566,-0.801453,25.5518,-0.00128503,-0.000539628,0.000134624,-0.000516059,-0.0013086,1.39748,0.000761122,0.0132892,832,1590,-0.80148,-25.5518
-385,-566,-0.794556,26.1692,-0.000637133,4.80344e-05,0.000392945,0.000226766,-0.000815864,1.14392,0.000633182,0.0154155,839,1590,-0.794562,-26.1692
-378,-566,-0.806213,26.7559,0.000132035,0.000667167,0.000737372,0.00118402,-0.000384816,0.959443,0.00094413,0.0160751,846,1590,-0.806234,-26.7558
-371,-566,-0.899475,27.2938,0.00091605,0.00116446,0.000945322,0.0019937,8.68099e-05,0.850719,0.00130116,0.0225914,853,1590,-0.899505,-27.2938
-364,-566,-0.90387,27.8702,0.00179781,0.00187651,0.00125703,0.0030948,0.000579519,0.801045,0.00189973,0.0231185,860,1590,-0.903872,-27.8703
-357,-566,-0.937927,28.4305,0.00275732,0.00266612,0.00158254,0.00429492,0.00112852,0.770994,0.00257103,0.0190419,867,1590,-0.9379,-28.4305
-350,-566,-0.946167,28.9949,0.00385204,0.00343714,0.00194535,0.00560097,0.00168821,0.732279,0.00331765,0.021633,874,1590,-0.946195,-28.9949
-343,-566,-0.912048,29.5481,0.00492141,0.00439436,0.00247071,0.0071426,0.00217316,0.732269,0.00422781,0.0276802,881,1590,-0.912074,-29.5482
-336,-566,-0.998108,30.0566,0.00614697,0.0059207,0.00330935,0.00934511,0.00272256,0.768311,0.00554981,0.0294005,888,1590,-0.998132,-30.0567
-329,-566,-0.936646,30.5717,0.00796902,0.0091216,0.00512059,0.0136982,0.0033924,0.841434,0.00823758,0.0257511,895,1590,-0.936675,-30.5716
-322,-566,-0.80426,31.3319,0,0,0,0,0,0,0,-1,902,1590,-0.804263,-31.3319
-315,-566,-0.518616,32.0084,0,0,0,0,0,0,0,-1,909,1590,-0.518617,-32.0084
-308,-566,-0.127258,29.7607,0,0,0,0,0,0,0,-1,916,1590,-0.12725,-29.7608
-301,-566,0.424011,30.6545,0,0,0,0,0,0,0,-1,923,1590,0.424036,-30.6546
-294,-566,0.741455,25.3229,0,0,0,0,0,0,0,-1,930,1590,0.741475,-25.3229
-287,-566,1.25391,23.4589,0,0,0,0,0,0,0,-1,937,1590,1.2539,-23.4589
-280,-566,1.59406,17.8762,0,0,0,0,0,0,0,-1,944,1590,1.59405,-17.8762
-273,-566,0.49762,11.2427,0,0,0,0,0,0,0,-1,951,1590,0.497591,-11.2426
-266,-566,0.392151,6.90295,0,0,0,0,0,0,0,-1,958,1590,0.392151,-6.90294
-259,-566,0.343628,6.47437,0,0,0,0,0,0,0,-1,965,1590,0.34363,-6.47438
-252,-566,-7.68311,1.01343,0,0,0,0,0,0,0,-1,972,1590,-7.68308,-1.01348
-245,-566,-11.1835,1.97522,0,0,0,0,0,0,0,-1,979,1590,-11.1835,-1.97527
-238,-566,-10.4883,2.40491,0,0,0,0,0,0,0,-1,986,1590,-10.4883,-2.40487
-231,-566,-7.41827,4.22803,0,0,0,0,0,0,0,-1,993,1590,-7.41827,-4.22803
-224,-566,-4.67188,6.30859,0,0,0,0,0,0,0,-1,1000,1590,-4.67185,-6.30853
-217,-566,-2.82867,7.52527,0,0,0,0,0,0,0,-1,1007,1590,-2.82869,-7.52531
-210,-566,-1.03436,8.67737,0,0,0,0,0,0,0,-1,1014,1590,-1.03439,-8.67733
-203,-566,0,0,0,0,0,0,0,0,0,-1,1021,1590,0,0
-196,-566,0,0,0,0,0,0,0,0,0,-1,1028,1590,0,0
-189,-566,0,0,0,0,0,0,0,0,0,-1,1035,1590,0,0
-182,-566,0,0,0,0,0,0,0,0,0,-1,1042,1590,0,0
-175,-566,0,0,0,0,0,0,0,0,0,-1,1049,1590,0,0
-168,-566,0,0,0,0,0,0,0,0,0,-1,1056,1590,0,0
-161,-566,0,0,0,0,0,0,0,0,0,-1,1063,1590,0,0
-154,-566,0,0,0,0,0,0,0,0,0,-1,1070,1590,0,0
-147,-566,0,0,0,0,0,0,0,0,0,-1,1077,1590,0,0
-140,-566,0,0,0,0,0,0,0,0,0,-1,1084,1590,0,0
-133,-566,0,0,0,0,0,0,0,0,0,-1,1091,1590,0,0
-126,-566,0,0,0,0,0,0,0,0,0,-1,1098,1590,0,0
-119,-566,0,0,0,0,0,0,0,0,0,-1,1105,1590,0,0
-112,-566,0,0,0,0,0,0,0,0,0,-1,1112,1590,0,0
-105,-566,0,0,0,0,0,0,0,0,0,-1,1119,1590,0,0
-98,-566,0,0,0,0,0,0,0,0,0,-1,1126,1590,0,0
-91,-566,0,0,0,0,0,0,0,0,0,-1,1133,1590,0,0
-84,-566,0,0,0,0,0,0,0,0,0,-1,1140,1590,0,0
-77,-566,0,0,0,0,0,0,0,0,0,-1,1147,1590,0,0
-70,-566,0,0,0,0,0,0,0,0,0,-1,1154,1590,0,0
-63,-566,0,0,0,0,0,0,0,0,0,-1,1161,1590,0,0
-56,-566,0,0,0,0,0,0,0,0,0,-1,1168,1590,0,0
-49,-566,0,0,0,0,0,0,0,0,0,-1,1175,1590,0,0
-42,-566,0,0,0,0,0,0,0,0,0,-1,1182,1590,0,0
-35,-566,0,0,0,0,0,0,0,0,0,-1,1189,1590,0,0
-28,-566,0,0,0,0,0,0,0,0,0,-1,1196,1590,0,0
-21,-566,0,0,0,0,0,0,0,0,0,-1,1203,1590,0,0
-14,-566,0,0,0,0,0,0,0,0,0,-1,1210,1590,0,0
-7,-566,0,0,0,0,0,0,0,0,0,-1,1217,1590,0,0
0,-566,0,0,0,0,0,0,0,0,0,-1,1224,1590,0,0
7,-566,0,0,0,0,0,0,0,0,0,-1,1231,1590,0,0
14,-566,0,0,0,0,0,0,0,0,0,-1,1238,1590,0,0
21,-566,0,0,0,0,0,0,0,0,0,-1,1245,1590,0,0
28,-566,0,0,0,0,0,0,0,0,0,-1,1252,1590,0,0
35,-566,0,0,0,0,0,0,0,0,0,-1,1259,1590,0,0
42,-566,0,0,0,0,0,0,0,0,0,-1,1266,1590,0,0
49,-566,0,0,0,0,0,0,0,0,0,-1,1273,1590,0,0
56,-566,0,0,0,0,0,0,0,0,0,-1,1280,1590,0,0
63,-566,0,0,0,0,0,0,0,0,0,-1,1287,1590,0,0
70,-566,0,0,0,0,0,0,0,0,0,-1,1294,1590,0,0
77,-566,0,0,0,0,0,0,0,0,0,-1,1301,1590,0,0
84,-566,0,0,0,0,0,0,0,0,0,-1,1308,1590,0,0
91,-566,0,0,0,0,0,0,0,0,0,-1,1315,1590,0,0
98,-566,0,0,0,0,0,0,0,0,0,-1,1322,1590,0,0
105,-566,0,0,0,0,0,0,0,0,0,-1,1329,1590,0,0
112,-566,0,0,0,0,0,0,0,0,0,-1,1336,1590,0,0
119,-566,0,0,0,0,0,0,0,0,0,-1,1343,1590,0,0
126,-566,0,0,0,0,0,0,0,0,0,-1,1350,1590,0,0
133,-566,0,0,0,0,0,0,0,0,0,-1,1357,1590,0,0
140,-566,0,0,0,0,0,0,0,0,0,-1,1364,1590,0,0
147,-566,0,0,0,0,0,0,0,0,0,-1,1371,1590,0,0
154,-566,0,0,0,0,0,0,0,0,0,-1,1378,1590,0,0
161,-566,0,0,0,0,0,0,0,0,0,-1,1385,1590,0,0
168,-566,0,0,0,0,0,0,0,0,0,-1,1392,1590,0,0
175,-566,0,0,0,0,0,0,0,0,0,-1,1399,1590,0,0
182,-566,0,0,0,0,0,0,0,0,0,-1,1406,1590,0,0
189,-566,0,0,0,0,0,0,0,0,0,-1,1413,1590,0,0
196,-566,0,0,0,0,0,0,0,0,0,-1,1420,1590,0,0
203,-566,0,0,0,0,0,0,0,0,0,-1,1427,1590,0,0
210,-566,0,0,0,0,0,0,0,0,0,-1,1434,1590,0,0
217,-566,0,0,0,0,0,0,0,0,0,-1,1441,1590,0,0
224,-566,0,0,0,0,0,0,0,0,0,-1,1448,1590,0,0
231,-566,0,0,0,0,0,0,0,0,0,-1,1455,1590,0,0
238,-566,0,0,0,0,0,0,0,0,0,-1,1462,1590,0,0
245,-566,0,0,0,0,0,0,0,0,0,-1,1469,1590,0,0
252,-566,0,0,0,0,0,0,0,0,0,-1,1476,1590,0,0
259,-566,0,0,0,0,0,0,0,0,0,-1,1483,1590,0,0
266,-566,0,0,0,0,0,0,0,0,0,-1,1490,1590,0,0
273,-566,0,0,0,0,0,0,0,0,0,-1,1497,1590,0,0
280,-566,0,0,0,0,0,0,0,0,0,-1,1504,1590,0,0
287,-566,0,0,0,0,0,0,0,0,0,-1,1511,1590,0,0
294,-566,0,0,0,0,0,0,0,0,0,-1,1518,1590,0,0
301,-566,0,0,0,0,0,0,0,0,0,-1,1525,1590,0,0
308,-566,0,0,0,0,0,0,0,0,0,-1,1532,1590,0,0
315,-566,0,0,0,0,0,0,0,0,0,-1,1539,1590,0,0
322,-566,6.07983,4.44873,0,0,0,0,0,0,0,-1,1546,1590,6.07983,-4.44873
329,-566,5.77026,3.47534,0,0,0,0,0,0,0,-1,1553,1590,5.77026,-3.47535
336,-566,5.41138,2.62915,0,0,0,0,0,0,0,-1,1560,1590,5.41138,-2.62909
343,-566,4.81873,1.79089,0,0,0,0,0,0,0,-1,1567,1590,4.81878,-1.79095
350,-566,4.41663,2.44214,0,0,0,0,0,0,0,-1,1574,1590,4.41666,-2.44214
357,-566,6.34058,5.18579,0,0,0,0,0,0,0,-1,1581,1590,6.34059,-5.1858
364,-566,6.06262,4.20251,0,0,0,0,0,0,0,-1,1588,1590,6.06259,-4.20246
371,-566,5.78455,3.21912,0,0,0,0,0,0,0,-1,1595,1590,5.7846,-3.21912
378,-566,5.7439,0.695557,0,0,0,0,0,0,0,-1,1602,1590,5.74392,-0.695531
385,-566,5.67615,-0.573975,0,0,0,0,0,0,0,-1,1609,1590,5.67612,0.573956
392,-566,5.78638,1.82434,0,0,0,0,0,0,0,-1,1616,1590,5.78637,-1.82439
399,-566,12.8856,32.293,0,0,0,0,0,0,0,-1,1623,1590,12.8856,-32.293
406,-566,4.30359,5.26868,0,0,0,0,0,0,0,-1,1630,1590,4.30364,-5.26867
413,-566,4.27124,5.79492,0,0,0,0,0,0,0,-1,1637,1590,4.27123,-5.7949
420,-566,18.0121,32.5314,0,0,0,0,0,0,0,-1,1644,1590,18.0121,-32.5313
427,-566,19.4276,36.4594,0,0,0,0,0,0,0,-1,1651,1590,19.4277,-36.4594
434,-566,18.9518,34.2367,0,0,0,0,0,0,0,-1,1658,1590,18.9517,-34.2367
441,-566,15.5841,27.5869,0,0,0,0,0,0,0,-1,1665,1590,15.5842,-27.587
448,-566,17.8777,33.3253,0,0,0,0,0,0,0,-1,1672,1590,17.8777,-33.3253
455,-566,17.4683,32.3558,0,0,0,0,0,0,0,-1,1679,1590,17.4683,-32.3558
462,-566,17.6619,31.5764,0.00193646,0.024393,-0.0098323,0.0280895,-0.00176001,-1.21119,0.0193397,0.0410975,1686,1590,17.6618,-31.5764
469,-566,17.7965,30.7509,0.00313168,0.0186444,-0.00813753,0.02213,-0.000353866,-1.16611,0.0148727,0.0176949,1693,1590,17.7965,-30.7509
476,-566,17.8551,30.1478,0.00368661,0.0138642,-0.00658439,0.0170971,0.000453748,-1.11438,0.0112498,0.0103504,1700,1590,17.855,-30.1478
483,-566,17.8368,29.5959,0.00425849,0.00848681,-0.00507655,0.0118718,0.00087346,-0.982704,0.00764007,0.0109842,1707,1590,17.8368,-29.596
490,-566,17.8129,29.0668,0.00407228,0.00570051,-0.00371116,0.0086858,0.00108698,-0.893372,0.00546436,0.0127202,1714,1590,17.8129,-29.0668
497,-566,17.865,28.5798,0.00322213,0.00382682,-0.00264159,0.00618331,0.000865632,-0.842378,0.0038661,0.0161807,1721,1590,17.865,-28.5798
504,-566,17.8452,28.077,0.00227949,0.00194083,-0.00165609,0.00377488,0.000445435,-0.734451,0.00238203,0.021113,1728,1590,17.8452,-28.0771
511,-566,17.8378,27.5472,0.00121058,3.30704e-05,-0.000584666,0.00145156,-0.000207914,-0.390957,0.00104394,0.0205083,1735,1590,17.8378,-27.5473
518,-566,17.8165,26.9893,0.000146116,-0.00187003,0.000476164,0.000252916,-0.00197683,0.220642,0.00140978,0.0120312,1742,1590,17.8166,-26.9892
525,-566,17.7728,26.4116,-0.000925036,-0.00388117,0.00160392,-0.00022199,-0.00458421,0.413106,0.0029849,0.0121278,1749,1590,17.7728,-26.4116
532,-566,17.7458,25.833,-0.00203101,-0.00627862,0.00294411,-0.000524619,-0.00778501,0.472935,0.00502427,0.0145072,1756,1590,17.7458,-25.833
539,-566,17.7089,25.2667,-0.0032421,-0.00908383,0.00455583,-0.000751216,-0.0115747,0.500342,0.00747866,0.0185331,1763,1590,17.7089,-25.2667
546,-566,17.738,24.6737,-0.00459511,-0.0125636,0.00660998,-0.000861465,-0.0162973,0.514173,0.0105894,0.0212857,1770,1590,17.738,-24.6737
553,-566,17.7716,24.3054,-0.00596482,-0.0165746,0.00899238,-0.000829181,-0.0217103,0.518906,0.0142052,0.0344561,1777,1590,17.7716,-24.3055
560,-566,17.4918,24.1205,-0.00732688,-0.0212015,0.0116922,-0.000668826,-0.0278595,0.517649,0.0183541,0.0405727,1784,1590,17.4918,-24.1205
567,-566,17.2122,23.7538,0,0,0,0,0,0,0,-1,1791,1590,17.2122,-23.7538
574,-566,7.99548,3.14514,0,0,0,0,0,0,0,-1,1798,1590,7.99543,-3.14511
581,-566,2.54102,5.1311,0,0,0,0,0,0,0,-1,1805,1590,2.54099,-5.13111
588,-566,-1.91321,8.39197,0,0,0,0,0,0,0,-1,1812,1590,-1.91316,-8.39199
595,-566,9.0271,4.66467,0,0,0,0,0,0,0,-1,1819,1590,9.02705,-4.66468
602,-566,9.953,3.54895,0,0,0,0,0,0,0,-1,1826,1590,9.953,-3.54898
609,-566,0,0,0,0,0,0,0,0,0,-1,1833,1590,0,0
616,-566,0,0,0,0,0,0,0,0,0,-1,1840,1590,0,0
623,-566,0,0,0,0,0,0,0,0,0,-1,1847,1590,0,0
630,-566,0,0,0,0,0,0,0,0,0,-1,1854,1590,0,0
637,-566,0,0,0,0,0,0,0,0,0,-1,1861,1590,0,0
644,-566,0,0,0,0,0,0,0,0,0,-1,1868,1590,0,0
651,-566,0,0,0,0,0,0,0,0,0,-1,1875,1590,0,0
658,-566,0,0,0,0,0,0,0,0,0,-1,1882,1590,0,0
665,-566,0,0,0,0,0,0,0,0,0,-1,1889,1590,0,0
672,-566,0,0,0,0,0,0,0,0,0,-1,1896,1590,0,0
679,-566,0,0,0,0,0,0,0,0,0,-1,1903,1590,0,0
686,-566,0,0,0,0,0,0,0,0,0,-1,1910,1590,0,0
693,-566,0,0,0,0,0,0,0,0,0,-1,1917,1590,0,0
700,-566,0,0,0,0,0,0,0,0,0,-1,1924,1590,0,0
707,-566,0,0,0,0,0,0,0,0,0,-1,1931,1590,0,0
714,-566,0,0,0,0,0,0,0,0,0,-1,1938,1590,0,0
721,-566,0,0,0,0,0,0,0,0,0,-1,1945,1590,0,0
728,-566,0,0,0,0,0,0,0,0,0,-1,1952,1590,0,0
735,-566,0,0,0,0,0,0,0,0,0,-1,1959,1590,0,0
742,-566,0,0,0,0,0,0,0,0,0,-1,1966,1590,0,0
749,-566,0,0,0,0,0,0,0,0,0,-1,1973,1590,0,0
756,-566,0,0,0,0,0,0,0,0,0,-1,1980,1590,0,0
763,-566,0,0,0,0,0,0,0,0,0,-1,1987,1590,0,0
770,-566,0,0,0,0,0,0,0,0,0,-1,1994,1590,0,0
777,-566,0,0,0,0,0,0,0,0,0,-1,2001,1590,0,0
784,-566,0,0,0,0,0,0,0,0,0,-1,2008,1590,0,0
791,-566,0,0,0,0,0,0,0,0,0,-1,2015,1590,0,0
798,-566,0,0,0,0,0,0,0,0,0,-1,2022,1590,0,0
805,-566,0,0,0,0,0,0,0,0,0,-1,2029,1590,0,0
812,-566,0,0,0,0,0,0,0,0,0,-1,2036,1590,0,0
-700,-573,0,0,0,0,0,0,0,0,0,-1,524,1597,0,0
-693,-573,0,0,0,0,0,0,0,0,0,-1,531,1597,0,0
-686,-573,0,0,0,0,0,0,0,0,0,-1,538,1597,0,0
-679,-573,0,0,0,0,0,0,0,0,0,-1,545,1597,0,0
-672,-573,0,0,0,0,0,0,0,0,0,-1,552,1597,0,0
-665,-573,0,0,0,0,0,0,0,0,0,-1,559,1597,0,0
-658,-573,0,0,0,0,0,0,0,0,0,-1,566,1597,0,0
-651,-573,0,0,0,0,0,0,0,0,0,-1,573,1597,0,0
-644,-573,0,0,0,0,0,0,0,0,0,-1,580,1597,0,0
-637,-573,0,0,0,0,0,0,0,0,0,-1,587,1597,0,0
-630,-573,0,0,0,0,0,0,0,0,0,-1,594,1597,0,0
-623,-573,0,0,0,0,0,0,0,0,0,-1,601,1597,0,0
-616,-573,0,0,0,0,0,0,0,0,0,-1,608,1597,0,0
-609,-573,0,0,0,0,0,0,0,0,0,-1,615,1597,0,0
-602,-573,0,0,0,0,0,0,0,0,0,-1,622,1597,0,0
-595,-573,0,0,0,0,0,0,0,0,0,-1,629,1597,0,0
-588,-573,0,0,0,0,0,0,0,0,0,-1,636,1597,0,0
-581,-573,0,0,0,0,0,0,0,0,0,-1,643,1597,0,0
-574,-573,0,0,0,0,0,0,0,0,0,-1,650,1597,0,0
-567,-573,0,0,0,0,0,0,0,0,0,-1,657,1597,0,0
-560,-573,0,0,0,0,0,0,0,0,0,-1,664,1597,0,0
-553,-573,0,0,0,0,0,0,0,0,0,-1,671,1597,0,0
-546,-573,0,0,0,0,0,0,0,0,0,-1,678,1597,0,0
-539,-573,0,0,0,0,0,0,0,0,0,-1,685,1597,0,0
-532,-573,0,0,0,0,0,0,0,0,0,-1,692,1597,0,0
-525,-573,0,0,0,0,0,0,0,0,0,-1,699,1597,0,0
-518,-573,0,0,0,0,0,0,0,0,0,-1,706,1597,0,0
-511,-573,0,0,0,0,0,0,0,0,0,-1,713,1597,0,0
-504,-573,0,0,0,0,0,0,0,0,0,-1,720,1597,0,0
-497,-573,0,0,0,0,0,0,0,0,0,-1,727,1597,0,0
-490,-573,0,0,0,0,0,0,0,0,0,-1,734,1597,0,0
-483,-573,0,0,0,0,0,0,0,0,0,-1,741,1597,0,0
-476,-573,-9.3327,0.972778,0,0,0,0,0,0,0,-1,748,1597,-9.33268,-0.972776
-469,-573,-1.41681,1.13379,0,0,0,0,0,0,0,-1,755,1597,-1.41681,-1.13382
-462,-573,-0.748535,2.02588,0,0,0,0,0,0,0,-1,762,1597,-0.748533,-2.02584
-455,-573,-0.112976,2.70703,0,0,0,0,0,0,0,-1,769,1597,-0.112988,-2.70697
-448,-573,-1.26172,3.33252,0,0,0,0,0,0,0,-1,776,1597,-1.26173,-3.33248
-441,-573,0.108582,5.06726,0,0,0,0,0,0,0,-1,783,1597,0.108584,-5.06721
-434,-573,1.61768,7.05444,0,0,0,0,0,0,0,-1,790,1597,1.61767,-7.05446
-427,-573,-0.339539,22.1222,0,0,0,0,0,0,0,-1,797,1597,-0.339546,-22.1222
-420,-573,0.300354,22.3167,0,0,0,0,0,0,0,-1,804,1597,0.300329,-22.3166
-413,-573,-0.257202,23.5612,0,0,0,0,0,0,0,-1,811,1597,-0.257232,-23.5611
-406,-573,-0.166199,24.326,-0.0031037,-0.00147373,-0.000189932,-0.00145189,-0.00312554,-1.45631,0.00180604,0.0344694,818,1597,-0.166219,-24.326
-399,-573,-0.216614,25.0012,-0.00273554,-0.00152433,-0.000211364,-0.00148851,-0.00277136,-1.4029,0.00160152,0.0154243,825,1597,-0.216613,-25.0013
-392,-573,-0.220886,25.6007,-0.00227268,-0.0014145,-0.000152213,-0.0013883,-0.00229887,-1.40035,0.00133677,0.0128384,832,1597,-0.220898,-25.6008
-385,-573,-0.23761,26.1902,-0.00166358,-0.000928195,2.95949e-05,-0.000927006,-0.00166476,1.53064,0.00096322,0.0144511,839,1597,-0.237583,-26.1902
-378,-573,-0.267273,26.7737,-0.000926165,-0.000367995,0.000315908,-0.000225552,-0.00106861,1.14719,0.000650391,0.0158751,846,1597,-0.267261,-26.7737
-371,-573,-0.316956,27.3491,-0.000177938,4.96825e-05,0.000460607,0.000410332,-0.000538587,0.906516,0.000549524,0.0163126,853,1597,-0.316982,-27.3491
-364,-573,-0.348267,27.889,0.000643081,0.000666162,0.000695127,0.00134984,-4.06015e-05,0.793698,0.000913731,0.0190622,860,1597,-0.348258,-27.889
-357,-573,-0.363953,28.4233,0.00155273,0.00137381,0.000973131,0.0024405,0.000486034,0.739561,0.00149162,0.0231282,867,1597,-0.363926,-28.4234
-350,-573,-0.363464,29.0229,0.00258686,0.00204626,0.00128628,0.00363094,0.00100218,0.681834,0.0021653,0.0183969,874,1597,-0.363456,-29.0229
-343,-573,-0.344055,29.6112,0.00358463,0.0029068,0.00174785,0.00502612,0.00146531,0.689635,0.00298472,0.0232383,881,1597,-0.344075,-29.6112
-336,-573,-0.373657,30.1598,0.00474158,0.00425181,0.0025191,0.00702767,0.00196573,0.736945,0.00418663,0.0176018,888,1597,-0.373681,-30.1598
-329,-573,-0.3927,30.6813,0.00639171,0.00721022,0.00413748,0.0109586,0.00264329,0.834695,0.00660343,0.0169229,895,1597,-0.392709,-30.6813
-322,-573,-0.386169,31.2596,0.00809715,0.0102284,0.00589291,0.0151513,0.00317429,0.874847,0.00922659,0.0159846,902,1597,-0.386164,-31.2596
-315,-573,-0.246399,32.0118,0.0102097,0.0146378,0.00825838,0.0209738,0.00387375,0.916366,0.0128868,0.037745,909,1597,-0.246389,-32.0118
-308,-573,0.0757446,32.8407,0,0,0,0,0,0,0,-1,916,1597,0.0757291,-32.8406
-301,-573,-0.118225,33.1908,0,0,0,0,0,0,0,-1,923,1597,-0.118249,-33.1908
-294,-573,1.00702,24.802,0,0,0,0,0,0,0,-1,930,1597,1.00701,-24.802
-287,-573,1.27222,30.7164,0,0,0,0,0,0,0,-1,937,1597,1.27222,-30.7164
-280,-573,1.19684,26.4906,0,0,0,0,0,0,0,-1,944,1597,1.19685,-26.4906
-273,-573,2.24805,25.4375,0,0,0,0,0,0,0,-1,951,1597,2.24803,-25.4374
-266,-573,1.31116,7.1814,0,0,0,0,0,0,0,-1,958,1597,1.31118,-7.18142
-259,-573,1.2514,6.70959,0,0,0,0,0,0,0,-1,965,1597,1.25137,-6.70965
-252,-573,2.07874,5.27161,0,0,0,0,0,0,0,-1,972,1597,2.07875,-5.27157
-245,-573,-10.2592,1.09827,0,0,0,0,0,0,0,-1,979,1597,-10.2592,-1.09823
-238,-573,-11.5463,4.44141,0,0,0,0,0,0,0,-1,986,1597,-11.5463,-4.44146
-231,-573,-9.23431,4.14539,0,0,0,0,0,0,0,-1,993,1597,-9.23431,-4.14534
-224,-573,-6.70044,7.40857,0,0,0,0,0,0,0,-1,1000,1597,-6.70045,-7.40851
-217,-573,-4.25824,8.59119,0,0,0,0,0,0,0,-1,1007,1597,-4.25824,-8.59122
-210,-573,-2.39661,9.73914,0,0,0,0,0,0,0,-1,1014,1597,-2.39658,-9.73915
-203,-573,-0.557373,10.9005,0,0,0,0,0,0,0,-1,1021,1597,-0.557387,-10.9006
-196,-573,-1.65344,9.02246,0,0,0,0,0,0,0,-1,1028,1597,-1.65349,-9.02241
-189,-573,-6.12915,6.66882,0,0,0,0,0,0,0,-1,1035,1597,-6.12913,-6.66884
-182,-573,0,0,0,0,0,0,0,0,0,-1,1042,1597,0,0
-175,-573,0,0,0,0,0,0,0,0,0,-1,1049,1597,0,0
-168,-573,0,0,0,0,0,0,0,0,0,-1,1056,1597,0,0
-161,-573,0,0,0,0,0,0,0,0,0,-1,1063,1597,0,0
-154,-573,0,0,0,0,0,0,0,0,0,-1,1070,1597,0,0
-147,-573,0,0,0,0,0,0,0,0,0,-1,1077,1597,0,0
-140,-573,0,0,0,0,0,0,0,0,0,-1,1084,1597,0,0
-133,-573,0,0,0,0,0,0,0,0,0,-1,1091,1597,0,0
-126,-573,0,0,0,0,0,0,0,0,0,-1,1098,1597,0,0
-119,-573,0,0,0,0,0,0,0,0,0,-1,1105,1597,0,0
-112,-573,0,0,0,0,0,0,0,0,0,-1,1112,1597,0,0
-105,-573,0,0,0,0,0,0,0,0,0,-1,1119,1597,0,0
-98,-573,0,0,0,0,0,0,0,0,0,-1,1126,1597,0,0
-91,-573,0,0,0,0,0,0,0,0,0,-1,1133,1597,0,0
-84,-573,0,0,0,0,0,0,0,0,0,-1,1140,1597,0,0
-77,-573,0,0,0,0,0,0,0,0,0,-1,1147,1597,0,0
-70,-573,0,0,0,0,0,0,0,0,0,-1,1154,1597,0,0
-63,-573,0,0,0,0,0,0,0,0,0,-1,1161,1597,0,0
-56,-573,0,0,0,0,0,0,0,0,0,-1,1168,1597,0,0
-49,-573,0,0,0,0,0,0,0,0,0,-1,1175,1597,0,0
-42,-573,0,0,0,0,0,0,0,0,0,-1,1182,1597,0,0
-35,-573,0,0,0,0,0,0,0,0,0,-1,1189,1597,0,0
-28,-573,0,0,0,0,0,0,0,0,0,-1,1196,1597,0,0
-21,-573,0,0,0,0,0,0,0,0,0,-1,1203,1597,0,0
-14,-573,0,0,0,0,0,0,0,0,0,-1,1210,1597,0,0
-7,-573,0,0,0,0,0,0,0,0,0,-1,1217,1597,0,0
0,-573,0,0,0,0,0,0,0,0,0,-1,1224,1597,0,0
7,-573,0,0,0,0,0,0,0,0,0,-1,1231,1597,0,0
14,-573,0,0,0,0,0,0,0,0,0,-1,1238,1597,0,0
21,-573,0,0,0,0,0,0,0,0,0,-1,1245,1597,0,0
28,-573,0,0,0,0,0,0,0,0,0,-1,1252,1597,0,0
35,-573,0,0,0,0,0,0,0,0,0,-1,1259,1597,0,0
42,-573,0,0,0,0,0,0,0,0,0,-1,1266,1597,0,0
49,-573,0,0,0,0,0,0,0,0,0,-1,1273,1597,0,0
56,-573,0,0,0,0,0,0,0,0,0,-1,1280,1597,0,0
63,-573,0,0,0,0,0,0,0,0,0,-1,1287,1597,0,0
70,-573,0,0,0,0,0,0,0,0,0,-1,1294,1597,0,0
77,-573,0,0,0,0,0,0,0,0,0,-1,1301,1597,0,0
84,-573,0,0,0,0,0,0,0,0,0,-1,1308,1597,0,0
91,-573,0,0,0,0,0,0,0,0,0,-1,1315,1597,0,0
98,-573,0,0,0,0,0,0,0,0,0,-1,1322,1597,0,0
105,-573,0,0,0,0,0,0,0,0,0,-1,1329,1597,0,0
112,-573,0,0,0,0,0,0,0,0,0,-1,1336,1597,0,0
119,-573,0,0,0,0,0,0,0,0,0,-1,1343,1597,0,0
126,-573,0,0,0,0,0,0,0,0,0,-1,1350,1597,0,0
133,-573,0,0,0,0,0,0,0,0,0,-1,1357,1597,0,0
140,-573,0,0,0,0,0,0,0,0,0,-1,1364,1597,0,0
147,-573,0,0,0,0,0,0,0,0,0,-1,1371,1597,0,0
154,-573,0,0,0,0,0,0,0,0,0,-1,1378,1597,0,0
161,-573,0,0,0,0,0,0,0,0,0,-1,1385,1597,0,0
168,-573,0,0,0,0,0,0,0,0,0,-1,1392,1597,0,0
175,-573,0,0,0,0,0,0,0,0,0,-1,1399,1597,0,0
182,-573,0,0,0,0,0,0,0,0,0,-1,1406,1597,0,0
189,-573,0,0,0,0,0,0,0,0,0,-1,1413,1597,0,0
196,-573,0,0,0,0,0,0,0,0,0,-1,1420,1597,0,0
203,-573,0,0,0,0,0,0,0,0,0,-1,1427,1597,0,0
210,-573,0,0,0,0,0,0,0,0,0,-1,1434,1597,0,0
217,-573,0,0,0,0,0,0,0,0,0,-1,1441,1597,0,0
224,-573,0,0,0,0,0,0,0,0,0,-1,1448,1597,0,0
231,-573,0,0,0,0,0,0,0,0,0,-1,1455,1597,0,0
238,-573,0,0,0,0,0,0,0,0,0,-1,1462,1597,0,0
245,-573,0,0,0,0,0,0,0,0,0,-1,1469,1597,0,0
252,-573,0,0,0,0,0,0,0,0,0,-1,1476,1597,0,0
259,-573,0,0,0,0,0,0,0,0,0,-1,1483,1597,0,0
266,-573,0,0,0,0,0,0,0,0,0,-1,1490,1597,0,0
273,-573,0,0,0,0,0,0,0,0,0,-1,1497,1597,0,0
280,-573,0,0,0,0,0,0,0,0,0,-1,1504,1597,0,0
287,-573,0,0,0,0,0,0,0,0,0,-1,1511,1597,0,0
294,-573,0,0,0,0,0,0,0,0,0,-1,1518,1597,0,0
301,-573,0,0,0,0,0,0,0,0,0,-1,1525,1597,0,0
308,-573,5.93042,9.71143,0,0,0,0,0,0,0,-1,1532,1597,5.93046,-9.71144
315,-573,4.34204,11.719,0,0,0,0,0,0,0,-1,1539,1597,4.34205,-11.719
322,-573,10.3269,7.77563,0,0,0,0,0,0,0,-1,1546,1597,10.327,-7.77565
329,-573,4.99573,3.80273,0,0,0,0,0,0,0,-1,1553,1597,4.9957,-3.80273
336,-573,4.85693,2.53455,0,0,0,0,0,0,0,-1,1560,1597,4.8569,-2.53459
343,-573,5.5946,2.15894,0,0,0,0,0,0,0,-1,1567,1597,5.59456,-2.1589
350,-573,2.53748,1.56433,0,0,0,0,0,0,0,-1,1574,1597,2.53753,-1.5643
357,-573,7.40247,4.03613,0,0,0,0,0,0,0,-1,1581,1597,7.40244,-4.03614
364,-573,7.14551,3.02087,0,0,0,0,0,0,0,-1,1588,1597,7.14556,-3.02084
371,-573,6.88867,2.00549,0,0,0,0,0,0,0,-1,1595,1597,6.88868,-2.00553
378,-573,8.62012,6.09106,0,0,0,0,0,0,0,-1,1602,1597,8.62012,-6.09103
385,-573,6.54346,-0.951904,0,0,0,0,0,0,0,-1,1609,1597,6.54349,0.951901
392,-573,14.558,33.3009,0,0,0,0,0,0,0,-1,1616,1597,14.558,-33.3009
399,-573,17.7681,36.3846,0,0,0,0,0,0,0,-1,1623,1597,17.768,-36.3846
406,-573,17.522,35.7592,0,0,0,0,0,0,0,-1,1630,1597,17.522,-35.7591
413,-573,18.2855,33.5858,0,0,0,0,0,0,0,-1,1637,1597,18.2855,-33.5858
420,-573,18.4608,36.0894,0,0,0,0,0,0,0,-1,1644,1597,18.4608,-36.0894
427,-573,18.4972,35.4009,-0.00979738,0.0485621,-0.0123129,0.0510536,-0.0122889,-1.37115,0.0387864,0.0478413,1651,1597,18.4972,-35.4009
434,-573,18.0796,33.9189,-0.00731037,0.0427653,-0.0116754,0.0453537,-0.00989876,-1.35263,0.0340189,0.0474715,1658,1597,18.0796,-33.9189
441,-573,17.3708,33.3444,0,0,0,0,0,0,0,-1,1665,1597,17.3708,-33.3443
448,-573,17.2454,32.6779,-0.00206924,0.0297506,-0.00942898,0.0323348,-0.00465341,-1.3033,0.0232633,0.0449115,1672,1597,17.2454,-32.6779
455,-573,17.2596,31.9204,-0.000239904,0.0240101,-0.0084236,0.026649,-0.0028788,-1.26721,0.0187992,0.0337404,1679,1597,17.2596,-31.9204
462,-573,17.365,31.2024,0.00122839,0.0192055,-0.00746395,0.0219004,-0.00146659,-1.2243,0.0151129,0.0227918,1686,1597,17.365,-31.2024
469,-573,17.358,30.6641,0.00219176,0.0146445,-0.00623695,0.017231,-0.00039477,-1.17767,0.0116212,0.0151174,1693,1597,17.3581,-30.664
476,-573,17.3425,30.1302,0.00259719,0.0107582,-0.00499014,0.0131238,0.000231619,-1.12812,0.00867303,0.0137292,1700,1597,17.3426,-30.1302
483,-573,17.3458,29.6277,0.00300615,0.00623211,-0.0037929,0.00874076,0.000497503,-0.986445,0.00566862,0.0124664,1707,1597,17.3459,-29.6277
490,-573,17.3146,29.0938,0.00281108,0.00381434,-0.00266295,0.0060225,0.000602922,-0.878494,0.00382988,0.0133715,1714,1597,17.3146,-29.0938
497,-573,17.3367,28.5675,0.00208701,0.0021739,-0.00178217,0.00391315,0.000347759,-0.797585,0.00250092,0.0206469,1721,1597,17.3366,-28.5676
504,-573,17.2988,28.0468,0.00122528,0.000392537,-0.000854661,0.0017596,-0.000141782,-0.55873,0.00122307,0.0188001,1728,1597,17.2989,-28.0467
511,-573,17.2817,27.5154,0.000195769,-0.00163291,0.000241705,0.000227177,-0.00166432,0.129219,0.00119251,0.0191436,1735,1597,17.2818,-27.5154
518,-573,17.2534,27.0029,-0.000778576,-0.0035555,0.00127517,-0.000281866,-0.00405221,0.371445,0.00261259,0.0145319,1742,1597,17.2534,-27.003
525,-573,17.2357,26.4536,-0.00181584,-0.00576003,0.00247133,-0.000626188,-0.00694968,0.448642,0.00443914,0.0175685,1749,1597,17.2357,-26.4536
532,-573,17.2324,25.886,-0.00294507,-0.00848742,0.00398534,-0.000862138,-0.0105704,0.481602,0.00677783,0.0175289,1756,1597,17.2324,-25.886
539,-573,17.1569,25.3361,-0.00427556,-0.0118513,0.00590566,-0.00104739,-0.0150794,0.500247,0.00972266,0.02557,1763,1597,17.1569,-25.3361
546,-573,17.2576,24.7889,-0.00590004,-0.0162042,0.00846551,-0.0011421,-0.0209622,0.512039,0.0136101,0.0410101,1770,1597,17.2575,-24.789
553,-573,17.0419,24.7363,-0.00766532,-0.0214233,0.0115514,-0.00109974,-0.0279889,0.516843,0.0183037,0.0489936,1777,1597,17.0419,-24.7363
560,-573,16.8455,24.74,-0.0096886,-0.0278179,0.0152707,-0.000994794,-0.0365117,0.517549,0.0240164,0.0475035,1784,1597,16.8454,-24.74
567,-573,16.5087,24.4413,0,0,0,0,0,0,0,-1,1791,1597,16.5086,-24.4413
574,-573,0.83374,5.7041,0,0,0,0,0,0,0,-1,1798,1597,0.833718,-5.70405
581,-573,-0.224854,7.41602,0,0,0,0,0,0,0,-1,1805,1597,-0.224904,-7.41596
588,-573,-0.134033,7.67065,0,0,0,0,0,0,0,-1,1812,1597,-0.134037,-7.67063
595,-573,-0.0825195,8.35083,0,0,0,0,0,0,0,-1,1819,1597,-0.0824684,-8.35088
602,-573,0,0,0,0,0,0,0,0,0,-1,1826,1597,0,0
609,-573,0,0,0,0,0,0,0,0,0,-1,1833,1597,0,0
616,-573,0,0,0,0,0,0,0,0,0,-1,1840,1597,0,0
623,-573,0,0,0,0,0,0,0,0,0,-1,1847,1597,0,0
630,-573,0,0,0,0,0,0,0,0,0,-1,1854,1597,0,0
637,-573,0,0,0,0,0,0,0,0,0,-1,1861,1597,0,0
644,-573,0,0,0,0,0,0,0,0,0,-1,1868,1597,0,0
651,-573,0,0,0,0,0,0,0,0,0,-1,1875,1597,0,0
658,-573,0,0,0,0,0,0,0,0,0,-1,1882,1597,0,0
665,-573,0,0,0,0,0,0,0,0,0,-1,1889,1597,0,0
672,-573,0,0,0,0,0,0,0,0,0,-1,1896,1597,0,0
679,-573,0,0,0,0,0,0,0,0,0,-1,1903,1597,0,0
686,-573,0,0,0,0,0,0,0,0,0,-1,1910,1597,0,0
693,-573,0,0,0,0,0,0,0,0,0,-1,1917,1597,0,0
700,-573,0,0,0,0,0,0,0,0,0,-1,1924,1597,0,0
707,-573,0,0,0,0,0,0,0,0,0,-1,1931,1597,0,0
714,-573,0,0,0,0,0,0,0,0,0,-1,1938,1597,0,0
721,-573,0,0,0,0,0,0,0,0,0,-1,1945,1597,0,0
728,-573,0,0,0,0,0,0,0,0,0,-1,1952,1597,0,0
735,-573,0,0,0,0,0,0,0,0,0,-1,1959,1597,0,0
742,-573,0,0,0,0,0,0,0,0,0,-1,1966,1597,0,0
749,-573,0,0,0,0,0,0,0,0,0,-1,1973,1597,0,0
756,-573,0,0,0,0,0,0,0,0,0,-1,1980,1597,0,0
763,-573,0,0,0,0,0,0,0,0,0,-1,1987,1597,0,0
770,-573,0,0,0,0,0,0,0,0,0,-1,1994,1597,0,0
777,-573,0,0,0,0,0,0,0,0,0,-1,2001,1597,0,0
784,-573,0,0,0,0,0,0,0,0,0,-1,2008,1597,0,0
791,-573,0,0,0,0,0,0,0,0,0,-1,2015,1597,0,0
798,-573,0,0,0,0,0,0,0,0,0,-1,2022,1597,0,0
805,-573,0,0,0,0,0,0,0,0,0,-1,2029,1597,0,0
812,-573,0,0,0,0,0,0,0,0,0,-1,2036,1597,0,0
-700,-580,0,0,0,0,0,0,0,0,0,-1,524,1604,0,0
-693,-580,0,0,0,0,0,0,0,0,0,-1,531,1604,0,0
-686,-580,0,0,0,0,0,0,0,0,0,-1,538,1604,0,0
-679,-580,0,0,0,0,0,0,0,0,0,-1,545,1604,0,0
-672,-580,0,0,0,0,0,0,0,0,0,-1,552,1604,0,0
-665,-580,0,0,0,0,0,0,0,0,0,-1,559,1604,0,0
-658,-580,0,0,0,0,0,0,0,0,0,-1,566,1604,0,0
-651,-580,0,0,0,0,0,0,0,0,0,-1,573,1604,0,0
-644,-580,0,0,0,0,0,0,0,0,0,-1,580,1604,0,0
-637,-580,0,0,0,0,0,0,0,0,0,-1,587,1604,0,0
-630,-580,0,0,0,0,0,0,0,0,0,-1,594,1604,0,0
-623,-580,0,0,0,0,0,0,0,0,0,-1,601,1604,0,0
-616,-580,0,0,0,0,0,0,0,0,0,-1,608,1604,0,0
-609,-580,0,0,0,0,0,0,0,0,0,-1,615,1604,0,0
-602,-580,0,0,0,0,0,0,0,0,0,-1,622,1604,0,0
-595,-580,0,0,0,0,0,0,0,0,0,-1,629,1604,0,0
-588,-580,0,0,0,0,0,0,0,0,0,-1,636,1604,0,0
-581,-580,0,0,0,0,0,0,0,0,0,-1,643,1604,0,0
-574,-580,0,0,0,0,0,0,0,0,0,-1,650,1604,0,0
-567,-580,0,0,0,0,0,0,0,0,0,-1,657,1604,0,0
-560,-580,0,0,0,0,0,0,0,0,0,-1,664,1604,0,0
-553,-580,0,0,0,0,0,0,0,0,0,-1,671,1604,0,0
-546,-580,0,0,0,0,0,0,0,0,0,-1,678,1604,0,0
-539,-580,0,0,0,0,0,0,0,0,0,-1,685,1604,0,0
-532,-580,0,0,0,0,0,0,0,0,0,-1,692,1604,0,0
-525,-580,0,0,0,0,0,0,0,0,0,-1,699,1604,0,0
-518,-580,0,0,0,0,0,0,0,0,0,-1,706,1604,0,0
-511,-580,0,0,0,0,0,0,0,0,0,-1,713,1604,0,0
-504,-580,0,0,0,0,0,0,0,0,0,-1,720,1604,0,0
-497,-580,0,0,0,0,0,0,0,0,0,-1,727,1604,0,0
-490,-580,0,0,0,0,0,0,0,0,0,-1,734,1604,0,0
-483,-580,0,0,0,0,0,0,0,0,0,-1,741,1604,0,0
-476,-580,0,0,0,0,0,0,0,0,0,-1,748,1604,0,0
-469,-580,-1.69189,-0.38916,0,0,0,0,0,0,0,-1,755,1604,-1.69192,0.389188
-462,-580,-0.859863,0.675293,0,0,0,0,0,0,0,-1,762,1604,-0.859834,-0.675245
-455,-580,-0.730164,0.651978,0,0,0,0,0,0,0,-1,769,1604,-0.730153,-0.651957
-448,-580,-3.31891,2.07544,0,0,0,0,0,0,0,-1,776,1604,-3.3189,-2.07539
-441,-580,-1.63843,3.9469,0,0,0,0,0,0,0,-1,783,1604,-1.63842,-3.94695
-434,-580,0.23291,5.97876,0,0,0,0,0,0,0,-1,790,1604,0.232901,-5.97878
-427,-580,1.62756,8.05493,0,0,0,0,0,0,0,-1,797,1604,1.62758,-8.05488
-420,-580,0.986572,11.2383,0,0,0,0,0,0,0,-1,804,1604,0.986544,-11.2382
-413,-580,0.922913,21.5701,0,0,0,0,0,0,0,-1,811,1604,0.922905,-21.5701
-406,-580,0.396484,24.2916,0,0,0,0,0,0,0,-1,818,1604,0.396456,-24.2916
-399,-580,0.369812,25.0463,-0.00391984,-0.0023966,-0.00055132,-0.002218,-0.00409844,-1.25751,0.00236891,0.037,825,1604,0.369834,-25.0463
-392,-580,0.332703,25.6403,-0.00336876,-0.00234046,-0.000453199,-0.00216923,-0.00353998,-1.20956,0.00206107,0.0176623,832,1604,0.332713,-25.6402
-385,-580,0.326477,26.2168,-0.00268176,-0.00185287,-0.000237274,-0.00178975,-0.00274487,-1.31082,0.00160899,0.0125661,839,1604,0.326496,-26.2168
-378,-580,0.274231,26.8092,-0.00189701,-0.00126837,6.44497e-05,-0.00126183,-0.00190354,1.46967,0.00111828,0.0155498,846,1604,0.274218,-26.8092
-371,-580,0.225159,27.4139,-0.00113122,-0.000854245,0.000204068,-0.000746111,-0.00123936,1.08352,0.00072049,0.0143185,853,1604,0.22515,-27.4139
-364,-580,0.236389,27.9739,-0.000337266,-0.000292135,0.000393182,7.91288e-05,-0.00070853,0.814063,0.000500817,0.0197657,860,1604,0.236395,-27.9739
-357,-580,0.215759,28.4598,0.000540602,0.000361466,0.000641346,0.0010986,-0.000196535,0.716019,0.000805942,0.0143606,867,1604,0.215778,-28.4598
-350,-580,0.204834,29.0391,0.00151426,0.000973727,0.000909112,0.00219243,0.00029556,0.640915,0.00137374,0.0115883,874,1604,0.204812,-29.0391
-343,-580,0.210144,29.6235,0.00242984,0.00176596,0.00129542,0.00343517,0.000760627,0.659976,0.00208338,0.0119957,881,1604,0.210148,-29.6235
-336,-580,0.212585,30.1466,0.00347641,0.00293616,0.00194663,0.00517157,0.001241,0.716456,0.0031175,0.0198672,888,1604,0.212607,-30.1466
-329,-580,0.162842,30.6971,0.00489225,0.00557264,0.00328511,0.00853513,0.00192977,0.836993,0.00516835,0.0172722,895,1604,0.16285,-30.6972
-322,-580,0.14624,31.2511,0.00632088,0.00816528,0.00471125,0.0120437,0.00244242,0.882048,0.00735153,0.019882,902,1604,0.146225,-31.2511
-315,-580,0.168335,31.8319,0.0080608,0.0118777,0.0066473,0.0168851,0.00305342,0.92519,0.0103896,0.0218497,909,1604,0.168333,-31.8319
-308,-580,0.227539,32.5055,0.0100976,0.0158931,0.00900998,0.0224598,0.00353087,0.940981,0.0139461,0.0321417,916,1604,0.227526,-32.5055
-301,-580,0.321533,32.9177,0.0127975,0.0210853,0.0122304,0.0298547,0.00402807,0.948739,0.0187056,0.0297993,923,1604,0.321544,-32.9177
-294,-580,0.285828,33.4426,0,0,0,0,0,0,0,-1,930,1604,0.285821,-33.4426
-287,-580,0.439697,34.8412,0,0,0,0,0,0,0,-1,937,1604,0.439676,-34.8412
-280,-580,0.702209,36.517,0,0,0,0,0,0,0,-1,944,1604,0.702229,-36.5169
-273,-580,1.39575,28.6672,0,0,0,0,0,0,0,-1,951,1604,1.39577,-28.6672
-266,-580,1.71777,25.6515,0,0,0,0,0,0,0,-1,958,1604,1.71775,-25.6515
-259,-580,1.31091,9.11536,0,0,0,0,0,0,0,-1,965,1604,1.31092,-9.11539
-252,-580,1.07629,7.74097,0,0,0,0,0,0,0,-1,972,1604,1.07627,-7.74101
-245,-580,3.80304,9.16028,0,0,0,0,0,0,0,-1,979,1604,3.80306,-9.16034
-238,-580,-10.3588,1.57556,0,0,0,0,0,0,0,-1,986,1604,-10.3588,-1.5755
-231,-580,-10.576,6.43787,0,0,0,0,0,0,0,-1,993,1604,-10.576,-6.43783
-224,-580,-8.27435,7.58972,0,0,0,0,0,0,0,-1,1000,1604,-8.27435,-7.5897
-217,-580,-5.85632,9.51221,0,0,0,0,0,0,0,-1,1007,1604,-5.85632,-9.5122
-210,-580,-3.6684,11.1569,0,0,0,0,0,0,0,-1,1014,1604,-3.66839,-11.1569
-203,-580,-1.92474,12.7845,0,0,0,0,0,0,0,-1,1021,1604,-1.92477,-12.7845
-196,-580,-2.28552,10.3289,0,0,0,0,0,0,0,-1,1028,1604,-2.28552,-10.3288
-189,-580,-4.58252,7.59058,0,0,0,0,0,0,0,-1,1035,1604,-4.58256,-7.59057
-182,-580,-5.45874,7.65942,0,0,0,0,0,0,0,-1,1042,1604,-5.45876,-7.65939
-175,-580,-6.38977,7.55005,0,0,0,0,0,0,0,-1,1049,1604,-6.38981,-7.5501
-168,-580,0,0,0,0,0,0,0,0,0,-1,1056,1604,0,0
-161,-580,0,0,0,0,0,0,0,0,0,-1,1063,1604,0,0
-154,-580,0,0,0,0,0,0,0,0,0,-1,1070,1604,0,0
-147,-580,0,0,0,0,0,0,0,0,0,-1,1077,1604,0,0
-140,-580,0,0,0,0,0,0,0,0,0,-1,1084,1604,0,0
-133,-580,0,0,0,0,0,0,0,0,0,-1,1091,1604,0,0
-126,-580,0,0,0,0,0,0,0,0,0,-1,1098,1604,0,0
-119,-580,0,0,0,0,0,0,0,0,0,-1,1105,1604,0,0
-112,-580,0,0,0,0,0,0,0,0,0,-1,1112,1604,0,0
-105,-580,0,0,0,0,0,0,0,0,0,-1,1119,1604,0,0
-98,-580,0,0,0,0,0,0,0,0,0,-1,1126,1604,0,0
-91,-580,0,0,0,0,0,0,0,0,0,-1,1133,1604,0,0
-84,-580,0,0,0,0,0,0,0,0,0,-1,1140,1604,0,0
-77,-580,0,0,0,0,0,0,0,0,0,-1,1147,1604,0,0
-70,-580,0,0,0,0,0,0,0,0,0,-1,1154,1604,0,0
-63,-580,0,0,0,0,0,0,0,0,0,-1,1161,1604,0,0
-56,-580,0,0,0,0,0,0,0,0,0,-1,1168,1604,0,0
-49,-580,0,0,0,0,0,0,0,0,0,-1,1175,1604,0,0
-42,-580,0,0,0,0,0,0,0,0,0,-1,1182,1604,0,0
-35,-580,0,0,0,0,0,0,0,0,0,-1,1189,1604,0,0
-28,-580,0,0,0,0,0,0,0,0,0,-1,1196,1604,0,0
-21,-580,0,0,0,0,0,0,0,0,0,-1,1203,1604,0,0
-14,-580,0,0,0,0,0,0,0,0,0,-1,1210,1604,0,0
-7,-580,0,0,0,0,0,0,0,0,0,-1,1217,1604,0,0
0,-580,0,0,0,0,0,0,0,0,0,-1,1224,1604,0,0
7,-580,0,0,0,0,0,0,0,0,0,-1,1231,1604,0,0
14,-580,0,0,0,0,0,0,0,0,0,-1,1238,1604,0,0
21,-580,0,0,0,0,0,0,0,0,0,-1,1245,1604,0,0
28,-580,0,0,0,0,0,0,0,0,0,-1,1252,1604,0,0
35,-580,0,0,0,0,0,0,0,0,0,-1,1259,1604,0,0
42,-580,0,0,0,0,0,0,0,0,0,-1,1266,1604,0,0
49,-580,0,0,0,0,0,0,0,0,0,-1,1273,1604,0,0
56,-580,0,0,0,0,0,0,0,0,0,-1,1280,1604,0,0
63,-580,0,0,0,0,0,0,0,0,0,-1,1287,1604,0,0
70,-580,0,0,0,0,0,0,0,0,0,-1,1294,1604,0,0
77,-580,0,0,0,0,0,0,0,0,0,-1,1301,1604,0,0
84,-580,0,0,0,0,0,0,0,0,0,-1,1308,1604,0,0
91,-580,0,0,0,0,0,0,0,0,0,-1,1315,1604,0,0
98,-580,0,0,0,0,0,0,0,0,0,-1,1322,1604,0,0
105,-580,0,0,0,0,0,0,0,0,0,-1,1329,1604,0,0
112,-580,0,0,0,0,0,0,0,0,0,-1,1336,1604,0,0
119,-580,0,0,0,0,0,0,0,0,0,-1,1343,1604,0,0
126,-580,0,0,0,0,0,0,0,0,0,-1,1350,1604,0,0
133,-580,0,0,0,0,0,0,0,0,0,-1,1357,1604,0,0
140,-580,0,0,0,0,0,0,0,0,0,-1,1364,1604,0,0
147,-580,0,0,0,0,0,0,0,0,0,-1,1371,1604,0,0
154,-580,0,0,0,0,0,0,0,0,0,-1,1378,1604,0,0
161,-580,0,0,0,0,0,0,0,0,0,-1,1385,1604,0,0
168,-580,0,0,0,0,0,0,0,0,0,-1,1392,1604,0,0
175,-580,0,0,0,0,0,0,0,0,0,-1,1399,1604,0,0
182,-580,0,0,0,0,0,0,0,0,0,-1,1406,1604,0,0
189,-580,0,0,0,0,0,0,0,0,0,-1,1413,1604,0,0
196,-580,0,0,0,0,0,0,0,0,0,-1,1420,1604,0,0
203,-580,0,0,0,0,0,0,0,0,0,-1,1427,1604,0,0
210,-580,0,0,0,0,0,0,0,0,0,-1,1434,1604,0,0
217,-580,0,0,0,0,0,0,0,0,0,-1,1441,1604,0,0
224,-580,0,0,0,0,0,0,0,0,0,-1,1448,1604,0,0
231,-580,0,0,0,0,0,0,0,0,0,-1,1455,1604,0,0
238,-580,0,0,0,0,0,0,0,0,0,-1,1462,1604,0,0
245,-580,0,0,0,0,0,0,0,0,0,-1,1469,1604,0,0
252,-580,0,0,0,0,0,0,0,0,0,-1,1476,1604,0,0
259,-580,0,0,0,0,0,0,0,0,0,-1,1483,1604,0,0
266,-580,0,0,0,0,0,0,0,0,0,-1,1490,1604,0,0
273,-580,0,0,0,0,0,0,0,0,0,-1,1497,1604,0,0
280,-580,0,0,0,0,0,0,0,0,0,-1,1504,1604,0,0
287,-580,0,0,0,0,0,0,0,0,0,-1,1511,1604,0,0
294,-580,4.0437,0.177368,0,0,0,0,0,0,0,-1,1518,1604,4.04369,-0.177371
301,-580,7.55164,8.05798,0,0,0,0,0,0,0,-1,1525,1604,7.55158,-8.05802
308,-580,5.9126,9.99341,0,0,0,0,0,0,0,-1,1532,1604,5.91255,-9.99337
315,-580,4.27356,11.9287,0,0,0,0,0,0,0,-1,1539,1604,4.27352,-11.9287
322,-580,10.2366,7.50281,0,0,0,0,0,0,0,-1,1546,1604,10.2366,-7.50282
329,-580,10.5962,8.69641,0,0,0,0,0,0,0,-1,1553,1604,10.5962,-8.69642
336,-580,3.66431,1.58862,0,0,0,0,0,0,0,-1,1560,1604,3.6643,-1.58864
343,-580,3.32227,1.39636,0,0,0,0,0,0,0,-1,1567,1604,3.32222,-1.39633
350,-580,8.71277,4.0564,0,0,0,0,0,0,0,-1,1574,1604,8.71271,-4.05638
357,-580,8.52332,3.08154,0,0,0,0,0,0,0,-1,1581,1604,8.52332,-3.08157
364,-580,8.25818,2.07605,0,0,0,0,0,0,0,-1,1588,1604,8.25812,-2.07608
371,-580,7.42114,7.14282,0,0,0,0,0,0,0,-1,1595,1604,7.42119,-7.14281
378,-580,7.9718,6.6731,0,0,0,0,0,0,0,-1,1602,1604,7.9718,-6.67307
385,-580,8.52246,6.20337,0,0,0,0,0,0,0,-1,1609,1604,8.52241,-6.20334
392,-580,17.236,36.8235,0,0,0,0,0,0,0,-1,1616,1604,17.2359,-36.8235
399,-580,17.1614,36.1703,0,0,0,0,0,0,0,-1,1623,1604,17.1614,-36.1703
406,-580,17.3898,35.1653,0,0,0,0,0,0,0,-1,1630,1604,17.3898,-35.1652
413,-580,17.0476,34.796,0,0,0,0,0,0,0,-1,1637,1604,17.0476,-34.7961
420,-580,17.6208,35.1273,0,0,0,0,0,0,0,-1,1644,1604,17.6208,-35.1273
427,-580,17.4734,34.4329,-0.00634213,0.0355916,-0.00836243,0.0371977,-0.00794825,-1.38104,0.0278289,0.0396365,1651,1604,17.4734,-34.4329
434,-580,17.0044,33.6973,-0.00501136,0.0315547,-0.00796456,0.0332142,-0.00667083,-1.36538,0.0246689,0.0402332,1658,1604,17.0044,-33.6973
441,-580,16.745,32.8601,-0.00330699,0.0269373,-0.00736044,0.0286335,-0.00500315,-1.34431,0.0209567,0.022945,1665,1604,16.745,-32.8601
448,-580,16.8107,32.2411,-0.00165004,0.0224483,-0.00672579,0.0241984,-0.0034001,-1.31624,0.0173769,0.0168655,1672,1604,16.8107,-32.2411
455,-580,16.8624,31.7513,-0.000401841,0.018188,-0.00612194,0.020023,-0.00223678,-1.27959,0.0141533,0.0208773,1679,1604,16.8625,-31.7514
462,-580,16.8431,31.209,0.000691203,0.0144625,-0.00551613,0.0163995,-0.00124584,-1.23309,0.0113711,0.0239255,1686,1604,16.8431,-31.209
469,-580,16.8115,30.668,0.00145941,0.0108741,-0.00464211,0.012778,-0.000444461,-1.18159,0.00867063,0.0205273,1693,1604,16.8115,-30.668
476,-580,16.8198,30.1415,0.00178851,0.00774704,-0.00365568,0.0094837,5.18416e-05,-1.1273,0.00630526,0.0149459,1700,1604,16.8198,-30.1415
483,-580,16.8165,29.6589,0.00207311,0.00404633,-0.00271465,0.0059481,0.000171347,-0.959697,0.00390953,0.0135417,1707,1604,16.8165,-29.6589
490,-580,16.7922,29.1595,0.00186787,0.00198759,-0.00178602,0.00371475,0.000140707,-0.802149,0.00243096,0.0172027,1714,1604,16.7922,-29.1596
497,-580,16.7656,28.6132,0.0012541,0.000557004,-0.00106492,0.00202606,-0.000214958,-0.627244,0.00142776,0.0136952,1721,1604,16.7656,-28.6131
504,-580,16.7408,28.0559,0.000460305,-0.00110359,-0.00018988,0.000483029,-0.00112632,-0.119109,0.00095358,0.0176929,1728,1604,16.7408,-28.0559
511,-580,16.7167,27.5303,-0.000552707,-0.00322649,0.000928662,-0.000261812,-0.00351739,0.303561,0.00226271,0.0185365,1735,1604,16.7166,-27.5303
518,-580,16.701,26.9962,-0.00148145,-0.00518546,0.00194566,-0.000647282,-0.00601963,0.405027,0.00381567,0.0169776,1742,1604,16.701,-26.9962
525,-580,16.6975,26.4672,-0.00256187,-0.0076421,0.00323683,-0.000987465,-0.0092165,0.452711,0.00584306,0.0207797,1749,1604,16.6975,-26.4672
532,-580,16.6302,25.9741,-0.00384038,-0.0107698,0.00497646,-0.00124132,-0.0133689,0.481305,0.00852899,0.0297294,1756,1604,16.6302,-25.9741
539,-580,16.7495,25.3458,0,0,0,0,0,0,0,-1,1763,1604,16.7495,-25.3458
546,-580,17.2206,24.671,0,0,0,0,0,0,0,-1,1770,1604,17.2205,-24.671
553,-580,17.8044,23.7595,0,0,0,0,0,0,0,-1,1777,1604,17.8044,-23.7595
560,-580,16.2761,25.3171,0,0,0,0,0,0,0,-1,1784,1604,16.2761,-25.3172
567,-580,3.87708,4.0647,0,0,0,0,0,0,0,-1,1791,1604,3.87711,-4.06471
574,-580,2.31653,5.62952,0,0,0,0,0,0,0,-1,1798,1604,2.31654,-5.62947
581,-580,1.60876,6.67664,0,0,0,0,0,0,0,-1,1805,1604,1.60873,-6.67667
588,-580,1.38684,7.14441,0,0,0,0,0,0,0,-1,1812,1604,1.38689,-7.14443
595,-580,0,0,0,0,0,0,0,0,0,-1,1819,1604,0,0
602,-580,0,0,0,0,0,0,0,0,0,-1,1826,1604,0,0
609,-580,0,0,0,0,0,0,0,0,0,-1,1833,1604,0,0
616,-580,0,0,0,0,0,0,0,0,0,-1,1840,1604,0,0
623,-580,0,0,0,0,0,0,0,0,0,-1,1847,1604,0,0
630,-580,0,0,0,0,0,0,0,0,0,-1,1854,1604,0,0
637,-580,0,0,0,0,0,0,0,0,0,-1,1861,1604,0,0
644,-580,0,0,0,0,0,0,0,0,0,-1,1868,1604,0,0
651,-580,0,0,0,0,0,0,0,0,0,-1,1875,1604,0,0
658,-580,0,0,0,0,0,0,0,0,0,-1,1882,1604,0,0
665,-580,0,0,0,0,0,0,0,0,0,-1,1889,1604,0,0
672,-580,0,0,0,0,0,0,0,0,0,-1,1896,1604,0,0
679,-580,0,0,0,0,0,0,0,0,0,-1,1903,1604,0,0
686,-580,0,0,0,0,0,0,0,0,0,-1,1910,1604,0,0
693,-580,0,0,0,0,0,0,0,0,0,-1,1917,1604,0,0
700,-580,0,0,0,0,0,0,0,0,0,-1,1924,1604,0,0
707,-580,0,0,0,0,0,0,0,0,0,-1,1931,1604,0,0
714,-580,0,0,0,0,0,0,0,0,0,-1,1938,1604,0,0
721,-580,0,0,0,0,0,0,0,0,0,-1,1945,1604,0,0
728,-580,0,0,0,0,0,0,0,0,0,-1,1952,1604,0,0
735,-580,0,0,0,0,0,0,0,0,0,-1,1959,1604,0,0
742,-580,0,0,0,0,0,0,0,0,0,-1,1966,1604,0,0
749,-580,0,0,0,0,0,0,0,0,0,-1,1973,1604,0,0
756,-580,0,0,0,0,0,0,0,0,0,-1,1980,1604,0,0
763,-580,0,0,0,0,0,0,0,0,0,-1,1987,1604,0,0
770,-580,0,0,0,0,0,0,0,0,0,-1,1994,1604,0,0
777,-580,0,0,0,0,0,0,0,0,0,-1,2001,1604,0,0
784,-580,0,0,0,0,0,0,0,0,0,-1,2008,1604,0,0
791,-580,0,0,0,0,0,0,0,0,0,-1,2015,1604,0,0
798,-580,0,0,0,0,0,0,0,0,0,-1,2022,1604,0,0
805,-580,0,0,0,0,0,0,0,0,0,-1,2029,1604,0,0
812,-580,0,0,0,0,0,0,0,0,0,-1,2036,1604,0,0
-700,-587,0,0,0,0,0,0,0,0,0,-1,524,1611,0,0
-693,-587,0,0,0,0,0,0,0,0,0,-1,531,1611,0,0
-686,-587,0,0,0,0,0,0,0,0,0,-1,538,1611,0,0
-679,-587,0,0,0,0,0,0,0,0,0,-1,545,1611,0,0
-672,-587,0,0,0,0,0,0,0,0,0,-1,552,1611,0,0
-665,-587,0,0,0,0,0,0,0,0,0,-1,559,1611,0,0
-658,-587,0,0,0,0,0,0,0,0,0,-1,566,1611,0,0
-651,-587,0,0,0,0,0,0,0,0,0,-1,573,1611,0,0
-644,-587,0,0,0,0,0,0,0,0,0,-1,580,1611,0,0
-637,-587,0,0,0,0,0,0,0,0,0,-1,587,1611,0,0
-630,-587,0,0,0,0,0,0,0,0,0,-1,594,1611,0,0
-623,-587,0,0,0,0,0,0,0,0,0,-1,601,1611,0,0
-616,-587,0,0,0,0,0,0,0,0,0,-1,608,1611,0,0
-609,-587,0,0,0,0,0,0,0,0,0,-1,615,1611,0,0
-602,-587,0,0,0,0,0,0,0,0,0,-1,622,1611,0,0
-595,-587,0,0,0,0,0,0,0,0,0,-1,629,1611,0,0
-588,-587,0,0,0,0,0,0,0,0,0,-1,636,1611,0,0
-581,-587,0,0,0,0,0,0,0,0,0,-1,643,1611,0,0
-574,-587,0,0,0,0,0,0,0,0,0,-1,650,1611,0,0
-567,-587,0,0,0,0,0,0,0,0,0,-1,657,1611,0,0
-560,-587,0,0,0,0,0,0,0,0,0,-1,664,1611,0,0
-553,-587,0,0,0,0,0,0,0,0,0,-1,671,1611,0,0
-546,-587,0,0,0,0,0,0,0,0,0,-1,678,1611,0,0
-539,-587,0,0,0,0,0,0,0,0,0,-1,685,1611,0,0
-532,-587,0,0,0,0,0,0,0,0,0,-1,692,1611,0,0
-525,-587,0,0,0,0,0,0,0,0,0,-1,699,1611,0,0
-518,-587,0,0,0,0,0,0,0,0,0,-1,706,1611,0,0
-511,-587,0,0,0,0,0,0,0,0,0,-1,713,1611,0,0
-504,-587,0,0,0,0,0,0,0,0,0,-1,720,1611,0,0
-497,-587,0,0,0,0,0,0,0,0,0,-1,727,1611,0,0
-490,-587,0,0,0,0,0,0,0,0,0,-1,734,1611,0,0
-483,-587,0,0,0,0,0,0,0,0,0,-1,741,1611,0,0
-476,-587,0,0,0,0,0,0,0,0,0,-1,748,1611,0,0
-469,-587,0,0,0,0,0,0,0,0,0,-1,755,1611,0,0
-462,-587,-0.714355,-0.418457,0,0,0,0,0,0,0,-1,762,1611,-0.714359,0.418483
-455,-587,-0.619812,-0.522461,0,0,0,0,0,0,0,-1,769,1611,-0.619802,0.522515
-448,-587,-0.461731,-0.686523,0,0,0,0,0,0,0,-1,776,1611,-0.461739,0.686559
-441,-587,-3.56555,2.72253,0,0,0,0,0,0,0,-1,783,1611,-3.56555,-2.72259
-434,-587,-1.77319,4.76318,0,0,0,0,0,0,0,-1,790,1611,-1.77318,-4.76323
-427,-587,0.0346069,6.92944,0,0,0,0,0,0,0,-1,797,1611,0.034587,-6.92941
-420,-587,-0.647156,10.1157,0,0,0,0,0,0,0,-1,804,1611,-0.647128,-10.1158
-413,-587,2.13971,10.3901,0,0,0,0,0,0,0,-1,811,1611,2.13971,-10.3902
-406,-587,2.2525,19.7814,0,0,0,0,0,0,0,-1,818,1611,2.25253,-19.7814
-399,-587,0.884888,25.0344,0,0,0,0,0,0,0,-1,825,1611,0.884914,-25.0344
-392,-587,1.07104,25.5625,-0.00445998,-0.00347956,-0.000788219,-0.00304155,-0.00489799,-1.06359,0.00285531,0.0463799,832,1611,1.07105,-25.5625
-385,-587,0.829468,26.1832,-0.00363121,-0.00287925,-0.000489136,-0.00263829,-0.00387218,-1.11307,0.00228409,0.0222261,839,1611,0.829446,-26.1833
-378,-587,0.804016,26.8364,-0.00275847,-0.00216018,-0.000142099,-0.00212814,-0.00279051,-1.34907,0.00168356,0.0136925,846,1611,0.804002,-26.8365
-371,-587,0.763306,27.4744,-0.00195594,-0.00167141,1.62734e-05,-0.00167049,-0.00195686,1.51385,0.00122037,0.014467,853,1611,0.763326,-27.4743
-364,-587,0.777527,28.0145,-0.001171,-0.00112605,0.000177705,-0.000969408,-0.00132765,0.848303,0.000793129,0.0185859,860,1611,0.777523,-28.0145
-357,-587,0.762695,28.486,-0.000308019,-0.000500463,0.000410666,1.75469e-05,-0.000826029,0.67032,0.000556627,0.017748,867,1611,0.762673,-28.486
-350,-587,0.735413,29.0671,0.000613589,8.53701e-05,0.000649252,0.00105039,-0.000351436,0.592225,0.000842215,0.0101937,874,1611,0.735389,-29.0671
-343,-587,0.71405,29.6274,0.00145834,0.000825687,0.000973713,0.00216582,0.000118206,0.628344,0.00140613,0.0124473,881,1611,0.714066,-29.6275
-336,-587,0.703308,30.1537,0.00239652,0.00183224,0.00150994,0.00365045,0.000578305,0.693037,0.0022656,0.0128155,888,1611,0.703319,-30.1537
-329,-587,0.690063,30.6858,0.00358805,0.00409342,0.00257063,0.00642375,0.00125772,0.834389,0.00393091,0.0149067,895,1611,0.690064,-30.6858
-322,-587,0.687195,31.2607,0.00475845,0.00628538,0.00370418,0.00930396,0.00173987,0.88703,0.00571171,0.0186202,902,1611,0.687165,-31.2607
-315,-587,0.670227,31.8109,0.00616892,0.00935957,0.00525706,0.013258,0.00227046,0.932713,0.00818749,0.015589,909,1611,0.670217,-31.8109
-308,-587,0.651489,32.3391,0.00781198,0.0125565,0.00708656,0.0176573,0.00271117,0.946913,0.01098,0.0155086,916,1611,0.651506,-32.3392
-301,-587,0.713806,32.8887,0.00998974,0.0167082,0.00958994,0.0235102,0.00318769,0.953863,0.0147264,0.0152755,923,1611,0.713815,-32.8887
-294,-587,0.800476,33.4857,0.0124563,0.0213417,0.0125759,0.0302366,0.0035614,0.955192,0.0190817,0.029125,930,1611,0.800499,-33.4857
-287,-587,0.738403,34.2216,0.0153914,0.027115,0.0162577,0.0385353,0.00397103,0.958422,0.0244742,0.0442061,937,1611,0.738404,-34.2216
-280,-587,1.02258,35.4459,0.0188245,0.0333477,0.020335,0.0476788,0.00449343,0.95689,0.0303989,0.0493938,944,1611,1.02258,-35.4459
-273,-587,1.17975,35.8514,0,0,0,0,0,0,0,-1,951,1611,1.17977,-35.8514
-266,-587,1.36383,36.5924,0,0,0,0,0,0,0,-1,958,1611,1.36381,-36.5924
-259,-587,1.76306,28.5784,0,0,0,0,0,0,0,-1,965,1611,1.76307,-28.5784
-252,-587,1.30188,10.3103,0,0,0,0,0,0,0,-1,972,1611,1.30188,-10.3104
-245,-587,1.52075,27.4791,0,0,0,0,0,0,0,-1,979,1611,1.52076,-27.4791
-238,-587,2.87799,9.53821,0,0,0,0,0,0,0,-1,986,1611,2.87797,-9.53823
-231,-587,2.49548,9.14465,0,0,0,0,0,0,0,-1,993,1611,2.49551,-9.14468
-224,-587,-9.72528,9.21069,0,0,0,0,0,0,0,-1,1000,1611,-9.72529,-9.21072
-217,-587,-7.07495,10.7847,0,0,0,0,0,0,0,-1,1007,1611,-7.07495,-10.7847
-210,-587,-4.72308,12.5889,0,0,0,0,0,0,0,-1,1014,1611,-4.72307,-12.5888
-203,-587,-3.2583,13.7289,0,0,0,0,0,0,0,-1,1021,1611,-3.25828,-13.7289
-196,-587,-1.953,14.8145,0,0,0,0,0,0,0,-1,1028,1611,-1.95302,-14.8144
-189,-587,-3.04138,8.66638,0,0,0,0,0,0,0,-1,1035,1611,-3.04136,-8.66635
-182,-587,-3.97095,9.7146,0,0,0,0,0,0,0,-1,1042,1611,-3.97093,-9.71461
-175,-587,-4.80969,8.37878,0,0,0,0,0,0,0,-1,1049,1611,-4.80964,-8.37883
-168,-587,-5.91394,8.72546,0,0,0,0,0,0,0,-1,1056,1611,-5.91398,-8.72542
-161,-587,-7.06946,8.88501,0,0,0,0,0,0,0,-1,1063,1611,-7.06947,-8.885
-154,-587,-2.24731,6.56519,0,0,0,0,0,0,0,-1,1070,1611,-2.24728,-6.56517
-147,-587,0,0,0,0,0,0,0,0,0,-1,1077,1611,0,0
-140,-587,0,0,0,0,0,0,0,0,0,-1,1084,1611,0,0
-133,-587,0,0,0,0,0,0,0,0,0,-1,1091,1611,0,0
-126,-587,0,0,0,0,0,0,0,0,0,-1,1098,1611,0,0
-119,-587,0,0,0,0,0,0,0,0,0,-1,1105,1611,0,0
-112,-587,0,0,0,0,0,0,0,0,0,-1,1112,1611,0,0
-105,-587,0,0,0,0,0,0,0,0,0,-1,1119,1611,0,0
-98,-587,0,0,0,0,0,0,0,0,0,-1,1126,1611,0,0
-91,-587,0,0,0,0,0,0,0,0,0,-1,1133,1611,0,0
-84,-587,0,0,0,0,0,0,0,0,0,-1,1140,1611,0,0
-77,-587,0,0,0,0,0,0,0,0,0,-1,1147,1611,0,0
-70,-587,0,0,0,0,0,0,0,0,0,-1,1154,1611,0,0
-63,-587,0,0,0,0,0,0,0,0,0,-1,1161,1611,0,0
-56,-587,0,0,0,0,0,0,0,0,0,-1,1168,1611,0,0
-49,-587,0,0,0,0,0,0,0,0,0,-1,1175,1611,0,0
-42,-587,0,0,0,0,0,0,0,0,0,-1,1182,1611,0,0
-35,-587,0,0,0,0,0,0,0,0,0,-1,1189,1611,0,0
-28,-587,0,0,0,0,0,0,0,0,0,-1,1196,1611,0,0
-21,-587,0,0,0,0,0,0,0,0,0,-1,1203,1611,0,0
-14,-587,0,0,0,0,0,0,0,0,0,-1,1210,1611,0,0
-7,-587,0,0,0,0,0,0,0,0,0,-1,1217,1611,0,0
0,-587,0,0,0,0,0,0,0,0,0,-1,1224,1611,0,0
7,-587,0,0,0,0,0,0,0,0,0,-1,1231,1611,0,0
14,-587,0,0,0,0,0,0,0,0,0,-1,1238,1611,0,0
21,-587,0,0,0,0,0,0,0,0,0,-1,1245,1611,0,0
28,-587,0,0,0,0,0,0,0,0,0,-1,1252,1611,0,0
35,-587,0,0,0,0,0,0,0,0,0,-1,1259,1611,0,0
42,-587,0,0,0,0,0,0,0,0,0,-1,1266,1611,0,0
49,-587,0,0,0,0,0,0,0,0,0,-1,1273,1611,0,0
56,-587,0,0,0,0,0,0,0,0,0,-1,1280,1611,0,0
63,-587,0,0,0,0,0,0,0,0,0,-1,1287,1611,0,0
70,-587,0,0,0,0,0,0,0,0,0,-1,1294,1611,0,0
77,-587,0,0,0,0,0,0,0,0,0,-1,1301,1611,0,0
84,-587,0,0,0,0,0,0,0,0,0,-1,1308,1611,0,0
91,-587,0,0,0,0,0,0,0,0,0,-1,1315,1611,0,0
98,-587,0,0,0,0,0,0,0,0,0,-1,1322,1611,0,0
105,-587,0,0,0,0,0,0,0,0,0,-1,1329,1611,0,0
112,-587,0,0,0,0,0,0,0,0,0,-1,1336,1611,0,0
119,-587,0,0,0,0,0,0,0,0,0,-1,1343,1611,0,0
126,-587,0,0,0,0,0,0,0,0,0,-1,1350,1611,0,0
133,-587,0,0,0,0,0,0,0,0,0,-1,1357,1611,0,0
140,-587,0,0,0,0,0,0,0,0,0,-1,1364,1611,0,0
147,-587,0,0,0,0,0,0,0,0,0,-1,1371,1611,0,0
154,-587,0,0,0,0,0,0,0,0,0,-1,1378,1611,0,0
161,-587,0,0,0,0,0,0,0,0,0,-1,1385,1611,0,0
168,-587,0,0,0,0,0,0,0,0,0,-1,1392,1611,0,0
175,-587,0,0,0,0,0,0,0,0,0,-1,1399,1611,0,0
182,-587,0,0,0,0,0,0,0,0,0,-1,1406,1611,0,0
189,-587,0,0,0,0,0,0,0,0,0,-1,1413,1611,0,0
196,-587,0,0,0,0,0,0,0,0,0,-1,1420,1611,0,0
203,-587,0,0,0,0,0,0,0,0,0,-1,1427,1611,0,0
210,-587,0,0,0,0,0,0,0,0,0,-1,1434,1611,0,0
217,-587,0,0,0,0,0,0,0,0,0,-1,1441,1611,0,0
224,-587,0,0,0,0,0,0,0,0,0,-1,1448,1611,0,0
231,-587,0,0,0,0,0,0,0,0,0,-1,1455,1611,0,0
238,-587,0,0,0,0,0,0,0,0,0,-1,1462,1611,0,0
245,-587,0,0,0,0,0,0,0,0,0,-1,1469,1611,0,0
252,-587,0,0,0,0,0,0,0,0,0,-1,1476,1611,0,0
259,-587,0,0,0,0,0,0,0,0,0,-1,1483,1611,0,0
266,-587,0,0,0,0,0,0,0,0,0,-1,1490,1611,0,0
273,-587,10.2936,6.35083,0,0,0,0,0,0,0,-1,1497,1611,10.2936,-6.35087
280,-587,2.09204,1.1217,0,0,0,0,0,0,0,-1,1504,1611,2.092,-1.12176
287,-587,3.2865,0.671509,0,0,0,0,0,0,0,-1,1511,1611,3.28656,-0.671538
294,-587,4.24646,1.58765,0,0,0,0,0,0,0,-1,1518,1611,4.24648,-1.58761
301,-587,7.60474,8.37085,0,0,0,0,0,0,0,-1,1525,1611,7.60478,-8.37084
308,-587,5.99316,10.2291,0,0,0,0,0,0,0,-1,1532,1611,5.99315,-10.2291
315,-587,4.34558,12.3289,0,0,0,0,0,0,0,-1,1539,1611,4.34556,-12.3288
322,-587,10.4526,6.38245,0,0,0,0,0,0,0,-1,1546,1611,10.4526,-6.38245
329,-587,10.7738,8.42444,0,0,0,0,0,0,0,-1,1553,1611,10.7738,-8.42438
336,-587,7.5531,5.96619,0,0,0,0,0,0,0,-1,1560,1611,7.55311,-5.96617
343,-587,9.57495,4.38391,0,0,0,0,0,0,0,-1,1567,1611,9.57494,-4.38397
350,-587,9.50378,3.45093,0,0,0,0,0,0,0,-1,1574,1611,9.50376,-3.4509
357,-587,9.40027,2.50806,0,0,0,0,0,0,0,-1,1581,1611,9.40022,-2.50803
364,-587,9.26477,1.34131,0,0,0,0,0,0,0,-1,1588,1611,9.26479,-1.34126
371,-587,6.98926,7.87561,0,0,0,0,0,0,0,-1,1595,1611,6.98928,-7.87564
378,-587,9.25146,13.8358,0,0,0,0,0,0,0,-1,1602,1611,9.2515,-13.8359
385,-587,15.0664,38.1605,0,0,0,0,0,0,0,-1,1609,1611,15.0664,-38.1606
392,-587,15.8361,34.8838,0,0,0,0,0,0,0,-1,1616,1611,15.8361,-34.8838
399,-587,16.4241,36.0359,0,0,0,0,0,0,0,-1,1623,1611,16.424,-36.0359
406,-587,16.6635,35.2449,-0.00282334,0.0331147,-0.00747155,0.0346062,-0.00431479,-1.37377,0.0246353,0.0437492,1630,1611,16.6635,-35.2449
413,-587,16.5305,34.8137,-0.00362743,0.0311927,-0.00676462,0.0324607,-0.00489544,-1.3855,0.0234433,0.0415133,1637,1611,16.5305,-34.8138
420,-587,16.3448,34.2938,-0.00386513,0.0286547,-0.0062601,0.0298181,-0.00502859,-1.38704,0.0217496,0.0377966,1644,1611,16.3448,-34.2938
427,-587,16.3071,33.8702,-0.00374745,0.0258365,-0.0056844,0.0268912,-0.00480208,-1.38735,0.019724,0.0318121,1651,1611,16.3071,-33.8702
434,-587,16.3486,33.2087,-0.00314423,0.0228966,-0.0053803,0.0239644,-0.00421207,-1.37487,0.0175496,0.0229148,1658,1611,16.3486,-33.2087
441,-587,16.355,32.6238,-0.00213388,0.0196181,-0.00504672,0.0207319,-0.00324774,-1.35357,0.0150214,0.0245141,1665,1611,16.355,-32.6237
448,-587,16.3522,32.2283,-0.0010958,0.0163701,-0.0046807,0.0175454,-0.0022711,-1.32479,0.0125228,0.01689,1672,1611,16.3521,-32.2283
455,-587,16.3419,31.7561,-0.000328516,0.0131851,-0.004318,0.014447,-0.0015904,-1.28647,0.0102029,0.0154694,1679,1611,16.3419,-31.7561
462,-587,16.3329,31.2419,0.000403418,0.0102752,-0.00393949,0.0116546,-0.000975957,-1.234,0.00811462,0.0196562,1686,1611,16.3328,-31.242
469,-587,16.2955,30.7263,0.000929045,0.00743141,-0.00330931,0.00881937,-0.000458922,-1.17367,0.00603837,0.0173786,1693,1611,16.2956,-30.7263
476,-587,16.2914,30.2173,0.00112335,0.00492047,-0.00252702,0.00618266,-0.000138845,-1.10757,0.00416883,0.0111082,1700,1611,16.2914,-30.2173
483,-587,16.2727,29.7023,0.00123463,0.00197127,-0.00178949,0.00342996,-0.000224055,-0.886893,0.00236486,0.0142082,1707,1611,16.2727,-29.7023
490,-587,16.2601,29.1804,0.00096892,0.000233046,-0.00103308,0.00169763,-0.000495664,-0.614324,0.00132817,0.0166949,1714,1611,16.2601,-29.1804
497,-587,16.2311,28.6497,0.000431651,-0.00103199,-0.000448645,0.000558226,-0.00115856,-0.274981,0.00101119,0.0128666,1721,1611,16.231,-28.6496
504,-587,16.182,28.1396,-0.000284276,-0.0025682,0.00036174,-0.000228351,-0.00262412,0.153385,0.00167849,0.0129853,1728,1611,16.182,-28.1397
511,-587,16.156,27.605,-0.00124192,-0.00475511,0.00147447,-0.000705114,-0.00529191,0.349151,0.00331797,0.0151563,1735,1611,16.156,-27.605
518,-587,16.1744,27.0327,-0.00208142,-0.0067456,0.00246703,-0.00101867,-0.00780835,0.406754,0.00490142,0.0150024,1742,1611,16.1745,-27.0328
525,-587,16.2192,26.5732,-0.00315318,-0.00946672,0.00386015,-0.00132338,-0.0112965,0.442653,0.00713094,0.0252092,1749,1611,16.2193,-26.5733
532,-587,16.3105,26.1138,-0.00454008,-0.0130051,0.00584214,-0.00155839,-0.0159868,0.471915,0.0101782,0.0380989,1756,1611,16.3105,-26.1138
539,-587,16.4932,25.4382,0,0,0,0,0,0,0,-1,1763,1611,16.4931,-25.4382
546,-587,17.2291,24.3958,0,0,0,0,0,0,0,-1,1770,1611,17.2291,-24.3957
553,-587,7.5813,8.45068,0,0,0,0,0,0,0,-1,1777,1611,7.58125,-8.45068
560,-587,4.21179,5.23547,0,0,0,0,0,0,0,-1,1784,1611,4.21185,-5.23553
567,-587,4.03711,5.46387,0,0,0,0,0,0,0,-1,1791,1611,4.03715,-5.46382
574,-587,3.83142,5.68884,0,0,0,0,0,0,0,-1,1798,1611,3.83141,-5.68881
581,-587,3.47168,6.00977,0,0,0,0,0,0,0,-1,1805,1611,3.47167,-6.00983
588,-587,0,0,0,0,0,0,0,0,0,-1,1812,1611,0,0
595,-587,0,0,0,0,0,0,0,0,0,-1,1819,1611,0,0
602,-587,0,0,0,0,0,0,0,0,0,-1,1826,1611,0,0
609,-587,0,0,0,0,0,0,0,0,0,-1,1833,1611,0,0
616,-587,0,0,0,0,0,0,0,0,0,-1,1840,1611,0,0
623,-587,0,0,0,0,0,0,0,0,0,-1,1847,1611,0,0
630,-587,0,0,0,0,0,0,0,0,0,-1,1854,1611,0,0
637,-587,0,0,0,0,0,0,0,0,0,-1,1861,1611,0,0
644,-587,0,0,0,0,0,0,0,0,0,-1,1868,1611,0,0
651,-587,0,0,0,0,0,0,0,0,0,-1,1875,1611,0,0
658,-587,0,0,0,0,0,0,0,0,0,-1,1882,1611,0,0
665,-587,0,0,0,0,0,0,0,0,0,-1,1889,1611,0,0
672,-587,0,0,0,0,0,0,0,0,0,-1,1896,1611,0,0
679,-587,0,0,0,0,0,0,0,0,0,-1,1903,1611,0,0
686,-587,0,0,0,0,0,0,0,0,0,-1,1910,1611,0,0
693,-587,0,0,0,0,0,0,0,0,0,-1,1917,1611,0,0
700,-587,0,0,0,0,0,0,0,0,0,-1,1924,1611,0,0
707,-587,0,0,0,0,0,0,0,0,0,-1,1931,1611,0,0
714,-587,0,0,0,0,0,0,0,0,0,-1,1938,1611,0,0
721,-587,0,0,0,0,0,0,0,0,0,-1,1945,1611,0,0
728,-587,0,0,0,0,0,0,0,0,0,-1,1952,1611,0,0
735,-587,0,0,0,0,0,0,0,0,0,-1,1959,1611,0,0
742,-587,0,0,0,0,0,0,0,0,0,-1,1966,1611,0,0
749,-587,0,0,0,0,0,0,0,0,0,-1,1973,1611,0,0
756,-587,0,0,0,0,0,0,0,0,0,-1,1980,1611,0,0
763,-587,0,0,0,0,0,0,0,0,0,-1,1987,1611,0,0
770,-587,0,0,0,0,0,0,0,0,0,-1,1994,1611,0,0
777,-587,0,0,0,0,0,0,0,0,0,-1,2001,1611,0,0
784,-587,0,0,0,0,0,0,0,0,0,-1,2008,1611,0,0
791,-587,0,0,0,0,0,0,0,0,0,-1,2015,1611,0,0
798,-587,0,0,0,0,0,0,0,0,0,-1,2022,1611,0,0
805,-587,0,0,0,0,0,0,0,0,0,-1,2029,1611,0,0
812,-587,0,0,0,0,0,0,0,0,0,-1,2036,1611,0,0
-700,-594,0,0,0,0,0,0,0,0,0,-1,524,1618,0,0
-693,-594,0,0,0,0,0,0,0,0,0,-1,531,1618,0,0
-686,-594,0,0,0,0,0,0,0,0,0,-1,538,1618,0,0
-679,-594,0,0,0,0,0,0,0,0,0,-1,545,1618,0,0
-672,-594,0,0,0,0,0,0,0,0,0,-1,552,1618,0,0
-665,-594,0,0,0,0,0,0,0,0,0,-1,559,1618,0,0
-658,-594,0,0,0,0,0,0,0,0,0,-1,566,1618,0,0
-651,-594,0,0,0,0,0,0,0,0,0,-1,573,1618,0,0
-644,-594,0,0,0,0,0,0,0,0,0,-1,580,1618,0,0
-637,-594,0,0,0,0,0,0,0,0,0,-1,587,1618,0,0
-630,-594,0,0,0,0,0,0,0,0,0,-1,594,1618,0,0
-623,-594,0,0,0,0,0,0,0,0,0,-1,601,1618,0,0
-616,-594,0,0,0,0,0,0,0,0,0,-1,608,1618,0,0
-609,-594,0,0,0,0,0,0,0,0,0,-1,615,1618,0,0
-602,-594,0,0,0,0,0,0,0,0,0,-1,622,1618,0,0
-595,-594,0,0,0,0,0,0,0,0,0,-1,629,1618,0,0
-588,-594,0,0,0,0,0,0,0,0,0,-1,636,1618,0,0
-581,-594,0,0,0,0,0,0,0,0,0,-1,643,1618,0,0
-574,-594,0,0,0,0,0,0,0,0,0,-1,650,1618,0,0
-567,-594,0,0,0,0,0,0,0,0,0,-1,657,1618,0,0
-560,-594,0,0,0,0,0,0,0,0,0,-1,664,1618,0,0
-553,-594,0,0,0,0,0,0,0,0,0,-1,671,1618,0,0
-546,-594,0,0,0,0,0,0,0,0,0,-1,678,1618,0,0
-539,-594,0,0,0,0,0,0,0,0,0,-1,685,1618,0,0
-532,-594,0,0,0,0,0,0,0,0,0,-1,692,1618,0,0
-525,-594,0,0,0,0,0,0,0,0,0,-1,699,1618,0,0
-518,-594,0,0,0,0,0,0,0,0,0,-1,706,1618,0,0
-511,-594,0,0,0,0,0,0,0,0,0,-1,713,1618,0,0
-504,-594,0,0,0,0,0,0,0,0,0,-1,720,1618,0,0
-497,-594,0,0,0,0,0,0,0,0,0,-1,727,1618,0,0
-490,-594,0,0,0,0,0,0,0,0,0,-1,734,1618,0,0
-483,-594,0,0,0,0,0,0,0,0,0,-1,741,1618,0,0
-476,-594,0,0,0,0,0,0,0,0,0,-1,748,1618,0,0
-469,-594,0,0,0,0,0,0,0,0,0,-1,755,1618,0,0
-462,-594,0,0,0,0,0,0,0,0,0,-1,762,1618,0,0
-455,-594,-0.509216,-1.58411,0,0,0,0,0,0,0,-1,769,1618,-0.509245,1.58415
-448,-594,-7.71887,-0.0559082,0,0,0,0,0,0,0,-1,776,1618,-7.71885,0.055939
-441,-594,-5.78473,1.18298,0,0,0,0,0,0,0,-1,783,1618,-5.78474,-1.18295
-434,-594,-3.93628,3.06213,0,0,0,0,0,0,0,-1,790,1618,-3.93631,-3.06208
-427,-594,-3.97693,6.77759,0,0,0,0,0,0,0,-1,797,1618,-3.97695,-6.77764
-420,-594,-2.53046,7.71606,0,0,0,0,0,0,0,-1,804,1618,-2.53047,-7.71609
-413,-594,-0.860413,8.00391,0,0,0,0,0,0,0,-1,811,1618,-0.860423,-8.00389
-406,-594,2.45746,13.6218,0,0,0,0,0,0,0,-1,818,1618,2.45747,-13.6218
-399,-594,1.30414,24.9963,0,0,0,0,0,0,0,-1,825,1618,1.30415,-24.9963
-392,-594,1.94672,25.4825,0,0,0,0,0,0,0,-1,832,1618,1.94669,-25.4826
-385,-594,1.47986,26.4016,-0.00466324,-0.00398262,-0.000698177,-0.00354623,-0.00509963,-1.01217,0.00301828,0.0364685,839,1618,1.47987,-26.4016
-378,-594,1.3288,26.8378,-0.00362535,-0.00300973,-0.000257338,-0.00291633,-0.00371875,-1.22263,0.00225969,0.0159481,846,1618,1.32877,-26.8378
-371,-594,1.3457,27.4552,-0.0027463,-0.00232636,-6.47694e-05,-0.0023166,-0.00275607,-1.42119,0.00170982,0.0124501,853,1618,1.3457,-27.4552
-364,-594,1.34851,28.0016,-0.00193935,-0.00172659,7.50409e-05,-0.00170278,-0.00196316,1.26363,0.00123119,0.0113635,860,1618,1.3485,-28.0015
-357,-594,1.31842,28.5471,-0.00105522,-0.00108193,0.00029125,-0.000777019,-0.00136013,0.762482,0.000787928,0.0110054,867,1618,1.31844,-28.5471
-350,-594,1.28607,29.1255,-0.000157759,-0.000489791,0.00050035,0.000203398,-0.000850949,0.625213,0.000645864,0.014913,874,1618,1.28606,-29.1255
-343,-594,1.24957,29.6748,0.000656353,0.000208874,0.00076289,0.00122764,-0.000362409,0.642759,0.000962251,0.0167527,881,1618,1.24959,-29.6748
-336,-594,1.22552,30.1949,0.00152721,0.00104923,0.00118505,0.00249713,7.93117e-05,0.685898,0.00163896,0.0149695,888,1618,1.22551,-30.195
-329,-594,1.23389,30.7445,0.00254914,0.00290552,0.0019898,0.0047251,0.000729564,0.830054,0.00293724,0.015468,895,1618,1.23389,-30.7445
-322,-594,1.24268,31.2931,0.00352162,0.00470191,0.0028753,0.00704701,0.00117653,0.886616,0.00435908,0.017801,902,1618,1.2427,-31.2931
-315,-594,1.2583,31.8092,0.00466565,0.00714387,0.00408684,0.0101753,0.0016342,0.932591,0.00630975,0.0181096,909,1618,1.2583,-31.8092
-308,-594,1.22852,32.3406,0.0060136,0.00962657,0.00549716,0.0136065,0.00203371,0.944151,0.00847481,0.0155498,916,1618,1.22854,-32.3406
-301,-594,1.18658,32.8523,0.00777802,0.0128725,0.0074304,0.0181801,0.00247038,0.950527,0.0113863,0.0114839,923,1618,1.1866,-32.8523
-294,-594,1.22095,33.363,0.00972178,0.0163797,0.00967909,0.0232863,0.00281518,0.951028,0.0146761,0.014051,930,1618,1.22093,-33.363
-287,-594,1.16156,33.8829,0.0119307,0.0206135,0.0122975,0.0293134,0.00323079,0.955084,0.0185593,0.0239383,937,1618,1.16156,-33.8829
-280,-594,1.26544,34.4944,0.0145178,0.0250754,0.015194,0.0358815,0.00371165,0.952588,0.0227848,0.028162,944,1618,1.26547,-34.4944
-273,-594,1.35742,35.2189,0.0173788,0.029577,0.018266,0.0427353,0.00422057,0.946531,0.0271927,0.0340051,951,1618,1.35745,-35.2188
-266,-594,1.51483,35.9547,0.0202207,0.0337912,0.0212564,0.0493191,0.00469293,0.939891,0.0314321,0.040511,958,1618,1.51482,-35.9547
-259,-594,1.62048,36.5852,0,0,0,0,0,0,0,-1,965,1618,1.62049,-36.5851
-252,-594,1.84259,36.9993,0,0,0,0,0,0,0,-1,972,1618,1.84261,-36.9992
-245,-594,2.27759,35.1766,0,0,0,0,0,0,0,-1,979,1618,2.27756,-35.1766
-238,-594,2.09015,28.0121,0,0,0,0,0,0,0,-1,986,1618,2.09012,-28.0121
-231,-594,1.93774,9.35388,0,0,0,0,0,0,0,-1,993,1618,1.93776,-9.35393
-224,-594,1.81824,8.62744,0,0,0,0,0,0,0,-1,1000,1618,1.81822,-8.62745
-217,-594,-8.24066,12.0752,0,0,0,0,0,0,0,-1,1007,1618,-8.24068,-12.0751
-210,-594,-5.61438,14.2119,0,0,0,0,0,0,0,-1,1014,1618,-5.6144,-14.212
-203,-594,-3.94507,15.5768,0,0,0,0,0,0,0,-1,1021,1618,-3.94506,-15.5768
-196,-594,2.78613,10.5815,0,0,0,0,0,0,0,-1,1028,1618,2.78612,-10.5815
-189,-594,2.60913,9.48865,0,0,0,0,0,0,0,-1,1035,1618,2.6091,-9.48871
-182,-594,1.2395,9.38806,0,0,0,0,0,0,0,-1,1042,1618,1.23951,-9.38804
-175,-594,0.234863,8.73792,0,0,0,0,0,0,0,-1,1049,1618,0.234812,-8.73786
-168,-594,-0.495483,8.46289,0,0,0,0,0,0,0,-1,1056,1618,-0.495513,-8.46285
-161,-594,-1.39734,8.28699,0,0,0,0,0,0,0,-1,1063,1618,-1.39729,-8.28699
-154,-594,-0.000854492,7.68445,0,0,0,0,0,0,0,-1,1070,1618,-0.000805755,-7.6845
-147,-594,0.348267,9.3385,0,0,0,0,0,0,0,-1,1077,1618,0.348237,-9.33849
-140,-594,0.675171,11.5884,0,0,0,0,0,0,0,-1,1084,1618,0.675204,-11.5884
-133,-594,0,0,0,0,0,0,0,0,0,-1,1091,1618,0,0
-126,-594,0,0,0,0,0,0,0,0,0,-1,1098,1618,0,0
-119,-594,0,0,0,0,0,0,0,0,0,-1,1105,1618,0,0
-112,-594,0,0,0,0,0,0,0,0,0,-1,1112,1618,0,0
-105,-594,0,0,0,0,0,0,0,0,0,-1,1119,1618,0,0
-98,-594,0,0,0,0,0,0,0,0,0,-1,1126,1618,0,0
-91,-594,0,0,0,0,0,0,0,0,0,-1,1133,1618,0,0
-84,-594,0,0,0,0,0,0,0,0,0,-1,1140,1618,0,0
-77,-594,0,0,0,0,0,0,0,0,0,-1,1147,1618,0,0
-70,-594,0,0,0,0,0,0,0,0,0,-1,1154,1618,0,0
-63,-594,0,0,0,0,0,0,0,0,0,-1,1161,1618,0,0
-56,-594,0,0,0,0,0,0,0,0,0,-1,1168,1618,0,0
-49,-594,0,0,0,0,0,0,0,0,0,-1,1175,1618,0,0
-42,-594,0,0,0,0,0,0,0,0,0,-1,1182,1618,0,0
-35,-594,0,0,0,0,0,0,0,0,0,-1,1189,1618,0,0
-28,-594,0,0,0,0,0,0,0,0,0,-1,1196,1618,0,0
-21,-594,0,0,0,0,0,0,0,0,0,-1,1203,1618,0,0
-14,-594,0,0,0,0,0,0,0,0,0,-1,1210,1618,0,0
-7,-594,0,0,0,0,0,0,0,0,0,-1,1217,1618,0,0
0,-594,0,0,0,0,0,0,0,0,0,-1,1224,1618,0,0
7,-594,0,0,0,0,0,0,0,0,0,-1,1231,1618,0,0
14,-594,0,0,0,0,0,0,0,0,0,-1,1238,1618,0,0
21,-594,0,0,0,0,0,0,0,0,0,-1,1245,1618,0,0
28,-594,0,0,0,0,0,0,0,0,0,-1,1252,1618,0,0
35,-594,0,0,0,0,0,0,0,0,0,-1,1259,1618,0,0
42,-594,0,0,0,0,0,0,0,0,0,-1,1266,1618,0,0
49,-594,0,0,0,0,0,0,0,0,0,-1,1273,1618,0,0
56,-594,0,0,0,0,0,0,0,0,0,-1,1280,1618,0,0
63,-594,0,0,0,0,0,0,0,0,0,-1,1287,1618,0,0
70,-594,0,0,0,0,0,0,0,0,0,-1,1294,1618,0,0
77,-594,0,0,0,0,0,0,0,0,0,-1,1301,1618,0,0
84,-594,0,0,0,0,0,0,0,0,0,-1,1308,1618,0,0
91,-594,0,0,0,0,0,0,0,0,0,-1,1315,1618,0,0
98,-594,0,0,0,0,0,0,0,0,0,-1,1322,1618,0,0
105,-594,0,0,0,0,0,0,0,0,0,-1,1329,1618,0,0
112,-594,0,0,0,0,0,0,0,0,0,-1,1336,1618,0,0
119,-594,0,0,0,0,0,0,0,0,0,-1,1343,1618,0,0
126,-594,0,0,0,0,0,0,0,0,0,-1,1350,1618,0,0
133,-594,0,0,0,0,0,0,0,0,0,-1,1357,1618,0,0
140,-594,0,0,0,0,0,0,0,0,0,-1,1364,1618,0,0
147,-594,0,0,0,0,0,0,0,0,0,-1,1371,1618,0,0
154,-594,0,0,0,0,0,0,0,0,0,-1,1378,1618,0,0
161,-594,0,0,0,0,0,0,0,0,0,-1,1385,1618,0,0
168,-594,0,0,0,0,0,0,0,0,0,-1,1392,1618,0,0
175,-594,0,0,0,0,0,0,0,0,0,-1,1399,1618,0,0
182,-594,0,0,0,0,0,0,0,0,0,-1,1406,1618,0,0
189,-594,0,0,0,0,0,0,0,0,0,-1,1413,1618,0,0
196,-594,0,0,0,0,0,0,0,0,0,-1,1420,1618,0,0
203,-594,0,0,0,0,0,0,0,0,0,-1,1427,1618,0,0
210,-594,0,0,0,0,0,0,0,0,0,-1,1434,1618,0,0
217,-594,0,0,0,0,0,0,0,0,0,-1,1441,1618,0,0
224,-594,0,0,0,0,0,0,0,0,0,-1,1448,1618,0,0
231,-594,0,0,0,0,0,0,0,0,0,-1,1455,1618,0,0
238,-594,0,0,0,0,0,0,0,0,0,-1,1462,1618,0,0
245,-594,0,0,0,0,0,0,0,0,0,-1,1469,1618,0,0
252,-594,3.03674,1.20996,0,0,0,0,0,0,0,-1,1476,1618,3.0368,-1.20999
259,-594,4.79834,1.53113,0,0,0,0,0,0,0,-1,1483,1618,4.79837,-1.53118
266,-594,3.71606,2.68152,0,0,0,0,0,0,0,-1,1490,1618,3.71609,-2.68149
273,-594,9.7655,6.33557,0,0,0,0,0,0,0,-1,1497,1618,9.76555,-6.33554
280,-594,3.13281,0.911255,0,0,0,0,0,0,0,-1,1504,1618,3.13277,-0.911207
287,-594,4.42749,1.51563,0,0,0,0,0,0,0,-1,1511,1618,4.42747,-1.51564
294,-594,5.36475,3.34937,0,0,0,0,0,0,0,-1,1518,1618,5.36475,-3.3494
301,-594,7.97144,9.04333,0,0,0,0,0,0,0,-1,1525,1618,7.9714,-9.04328
308,-594,6.30347,10.4633,0,0,0,0,0,0,0,-1,1532,1618,6.30351,-10.4633
315,-594,4.62012,11.934,0,0,0,0,0,0,0,-1,1539,1618,4.62006,-11.934
322,-594,2.91528,13.3134,0,0,0,0,0,0,0,-1,1546,1618,2.91523,-13.3133
329,-594,4.19861,9.77258,0,0,0,0,0,0,0,-1,1553,1618,4.19865,-9.77264
336,-594,10.1353,4.66528,0,0,0,0,0,0,0,-1,1560,1618,10.1353,-4.66533
343,-594,10.5729,3.71228,0,0,0,0,0,0,0,-1,1567,1618,10.5729,-3.71232
350,-594,10.219,2.98792,0,0,0,0,0,0,0,-1,1574,1618,10.219,-2.98797
357,-594,9.83154,1.96326,0,0,0,0,0,0,0,-1,1581,1618,9.8315,-1.96321
364,-594,9.74939,0.700562,0,0,0,0,0,0,0,-1,1588,1618,9.74939,-0.700615
371,-594,8.54297,14.3988,0,0,0,0,0,0,0,-1,1595,1618,8.54296,-14.3989
378,-594,15.6394,38.0002,0,0,0,0,0,0,0,-1,1602,1618,15.6394,-38.0003
385,-594,15.0157,37.6875,0,0,0,0,0,0,0,-1,1609,1618,15.0158,-37.6875
392,-594,15.6515,36.3228,0,0,0,0,0,0,0,-1,1616,1618,15.6514,-36.3228
399,-594,15.8459,35.896,0.00189396,0.0270905,-0.00752675,0.0291676,-0.000183204,-1.30153,0.0195065,0.0421051,1623,1618,15.8459,-35.896
406,-594,15.911,35.3955,1.44108e-05,0.0248519,-0.00596608,0.0262107,-0.00134434,-1.34687,0.0179387,0.0266121,1630,1618,15.911,-35.3955
413,-594,15.9442,34.8474,-0.00107759,0.0229492,-0.00509477,0.0239848,-0.00211327,-1.37025,0.0167388,0.0187701,1637,1618,15.9443,-34.8474
420,-594,15.8862,34.3781,-0.00164391,0.0208249,-0.00451418,0.0216979,-0.00251693,-1.37976,0.0153731,0.0169187,1644,1618,15.8862,-34.3781
427,-594,15.8837,33.8478,-0.00194958,0.0185776,-0.0039202,0.0193008,-0.00267276,-1.38837,0.0138444,0.0134709,1651,1618,15.8836,-33.8477
434,-594,15.8448,33.3198,-0.00179007,0.0163375,-0.0036492,0.0170446,-0.0024971,-1.37942,0.0122803,0.0184517,1658,1618,15.8448,-33.3198
441,-594,15.8306,32.7916,-0.00122958,0.0139333,-0.00344667,0.01468,-0.00197627,-1.35745,0.0105075,0.0166327,1665,1618,15.8306,-32.7916
448,-594,15.8674,32.278,-0.000629567,0.0115286,-0.00321181,0.0123249,-0.00142587,-1.32777,0.00873079,0.0164271,1672,1618,15.8675,-32.278
455,-594,15.8287,31.7568,-0.000170108,0.00910283,-0.00298434,0.00998026,-0.00104755,-1.28484,0.00702876,0.0121795,1679,1618,15.8288,-31.7568
462,-594,15.8129,31.2697,0.000303031,0.00676814,-0.00272291,0.00776213,-0.000690957,-1.22078,0.00541977,0.0144022,1686,1618,15.8129,-31.2696
469,-594,15.798,30.7719,0.00063292,0.00447554,-0.00224443,0.0055087,-0.000400239,-1.13939,0.00381289,0.0134105,1693,1618,15.798,-30.7719
476,-594,15.786,30.2499,0.000714628,0.00243335,-0.00160215,0.00339206,-0.000244087,-1.03156,0.00234697,0.0130187,1700,1618,15.7861,-30.2498
483,-594,15.7675,29.7251,0.000663184,0.000143003,-0.00101265,0.00144861,-0.000642423,-0.659694,0.00123681,0.0157723,1707,1618,15.7675,-29.7251
490,-594,15.7548,29.1969,0.000321461,-0.00133599,-0.000396874,0.00041159,-0.00142612,-0.223312,0.00111359,0.013807,1714,1618,15.7548,-29.1969
497,-594,15.7301,28.6563,-0.000159959,-0.00250264,7.52215e-05,-0.000157546,-0.00250505,0.0320651,0.00162008,0.0102953,1721,1618,15.7301,-28.6562
504,-594,15.6805,28.1338,-0.000801024,-0.0039377,0.00081049,-0.000603979,-0.00413474,0.238492,0.00257885,0.0108207,1728,1618,15.6805,-28.1338
511,-594,15.6676,27.5865,-0.00172892,-0.00619951,0.00188271,-0.00104169,-0.00688674,0.349993,0.00428633,0.0160043,1735,1618,15.6676,-27.5866
518,-594,15.5979,27.0223,-0.00254858,-0.00826596,0.00285426,-0.0013676,-0.00944693,0.392311,0.0058952,0.0224418,1742,1618,15.5979,-27.0223
525,-594,15.5565,26.4664,-0.00365106,-0.0112461,0.00434114,-0.00168085,-0.0132163,0.426048,0.00830744,0.0380014,1749,1618,15.5565,-26.4664
532,-594,16.203,25.981,0,0,0,0,0,0,0,-1,1756,1618,16.203,-25.9809
539,-594,18.8223,24.2756,0,0,0,0,0,0,0,-1,1763,1618,18.8223,-24.2756
546,-594,7.48645,8.54785,0,0,0,0,0,0,0,-1,1770,1618,7.48639,-8.54789
553,-594,3.69714,5.68762,0,0,0,0,0,0,0,-1,1777,1618,3.69715,-5.68764
560,-594,6.06616,4.44482,0,0,0,0,0,0,0,-1,1784,1618,6.06621,-4.44477
567,-594,5.97266,4.73303,0,0,0,0,0,0,0,-1,1791,1618,5.97271,-4.73309
574,-594,5.9906,4.96326,0,0,0,0,0,0,0,-1,1798,1618,5.99065,-4.96326
581,-594,0,0,0,0,0,0,0,0,0,-1,1805,1618,0,0
588,-594,0,0,0,0,0,0,0,0,0,-1,1812,1618,0,0
595,-594,0,0,0,0,0,0,0,0,0,-1,1819,1618,0,0
602,-594,0,0,0,0,0,0,0,0,0,-1,1826,1618,0,0
609,-594,0,0,0,0,0,0,0,0,0,-1,1833,1618,0,0
616,-594,0,0,0,0,0,0,0,0,0,-1,1840,1618,0,0
623,-594,0,0,0,0,0,0,0,0,0,-1,1847,1618,0,0
630,-594,0,0,0,0,0,0,0,0,0,-1,1854,1618,0,0
637,-594,0,0,0,0,0,0,0,0,0,-1,1861,1618,0,0
644,-594,0,0,0,0,0,0,0,0,0,-1,1868,1618,0,0
651,-594,0,0,0,0,0,0,0,0,0,-1,1875,1618,0,0
658,-594,0,0,0,0,0,0,0,0,0,-1,1882,1618,0,0
665,-594,0,0,0,0,0,0,0,0,0,-1,1889,1618,0,0
672,-594,0,0,0,0,0,0,0,0,0,-1,1896,1618,0,0
679,-594,0,0,0,0,0,0,0,0,0,-1,1903,1618,0,0
686,-594,0,0,0,0,0,0,0,0,0,-1,1910,1618,0,0
693,-594,0,0,0,0,0,0,0,0,0,-1,1917,1618,0,0
700,-594,0,0,0,0,0,0,0,0,0,-1,1924,1618,0,0
707,-594,0,0,0,0,0,0,0,0,0,-1,1931,1618,0,0
714,-594,0,0,0,0,0,0,0,0,0,-1,1938,1618,0,0
721,-594,0,0,0,0,0,0,0,0,0,-1,1945,1618,0,0
728,-594,0,0,0,0,0,0,0,0,0,-1,1952,1618,0,0
735,-594,0,0,0,0,0,0,0,0,0,-1,1959,1618,0,0
742,-594,0,0,0,0,0,0,0,0,0,-1,1966,1618,0,0
749,-594,0,0,0,0,0,0,0,0,0,-1,1973,1618,0,0
756,-594,0,0,0,0,0,0,0,0,0,-1,1980,1618,0,0
763,-594,0,0,0,0,0,0,0,0,0,-1,1987,1618,0,0
770,-594,0,0,0,0,0,0,0,0,0,-1,1994,1618,0,0
777,-594,0,0,0,0,0,0,0,0,0,-1,2001,1618,0,0
784,-594,0,0,0,0,0,0,0,0,0,-1,2008,1618,0,0
791,-594,0,0,0,0,0,0,0,0,0,-1,2015,1618,0,0
798,-594,0,0,0,0,0,0,0,0,0,-1,2022,1618,0,0
805,-594,0,0,0,0,0,0,0,0,0,-1,2029,1618,0,0
812,-594,0,0,0,0,0,0,0,0,0,-1,2036,1618,0,0
-700,-601,0,0,0,0,0,0,0,0,0,-1,524,1625,0,0
-693,-601,0,0,0,0,0,0,0,0,0,-1,531,1625,0,0
-686,-601,0,0,0,0,0,0,0,0,0,-1,538,1625,0,0
-679,-601,0,0,0,0,0,0,0,0,0,-1,545,1625,0,0
-672,-601,0,0,0,0,0,0,0,0,0,-1,552,1625,0,0
-665,-601,0,0,0,0,0,0,0,0,0,-1,559,1625,0,0
-658,-601,0,0,0,0,0,0,0,0,0,-1,566,1625,0,0
-651,-601,0,0,0,0,0,0,0,0,0,-1,573,1625,0,0
-644,-601,0,0,0,0,0,0,0,0,0,-1,580,1625,0,0
-637,-601,0,0,0,0,0,0,0,0,0,-1,587,1625,0,0
-630,-601,0,0,0,0,0,0,0,0,0,-1,594,1625,0,0
-623,-601,0,0,0,0,0,0,0,0,0,-1,601,1625,0,0
-616,-601,0,0,0,0,0,0,0,0,0,-1,608,1625,0,0
-609,-601,0,0,0,0,0,0,0,0,0,-1,615,1625,0,0
-602,-601,0,0,0,0,0,0,0,0,0,-1,622,1625,0,0
-595,-601,0,0,0,0,0,0,0,0,0,-1,629,1625,0,0
-588,-601,0,0,0,0,0,0,0,0,0,-1,636,1625,0,0
-581,-601,0,0,0,0,0,0,0,0,0,-1,643,1625,0,0
-574,-601,0,0,0,0,0,0,0,0,0,-1,650,1625,0,0
-567,-601,0,0,0,0,0,0,0,0,0,-1,657,1625,0,0
-560,-601,0,0,0,0,0,0,0,0,0,-1,664,1625,0,0
-553,-601,0,0,0,0,0,0,0,0,0,-1,671,1625,0,0
-546,-601,0,0,0,0,0,0,0,0,0,-1,678,1625,0,0
-539,-601,0,0,0,0,0,0,0,0,0,-1,685,1625,0,0
-532,-601,0,0,0,0,0,0,0,0,0,-1,692,1625,0,0
-525,-601,0,0,0,0,0,0,0,0,0,-1,699,1625,0,0
-518,-601,0,0,0,0,0,0,0,0,0,-1,706,1625,0,0
-511,-601,0,0,0,0,0,0,0,0,0,-1,713,1625,0,0
-504,-601,0,0,0,0,0,0,0,0,0,-1,720,1625,0,0
-497,-601,0,0,0,0,0,0,0,0,0,-1,727,1625,0,0
-490,-601,0,0,0,0,0,0,0,0,0,-1,734,1625,0,0
-483,-601,0,0,0,0,0,0,0,0,0,-1,741,1625,0,0
-476,-601,0,0,0,0,0,0,0,0,0,-1,748,1625,0,0
-469,-601,0,0,0,0,0,0,0,0,0,-1,755,1625,0,0
-462,-601,0,0,0,0,0,0,0,0,0,-1,762,1625,0,0
-455,-601,0,0,0,0,0,0,0,0,0,-1,769,1625,0,0
-448,-601,-7.07623,2.7616,0,0,0,0,0,0,0,-1,776,1625,-7.07626,-2.76161
-441,-601,-6.06689,3.33447,0,0,0,0,0,0,0,-1,783,1625,-6.06691,-3.33448
-434,-601,-5.02655,3.8468,0,0,0,0,0,0,0,-1,790,1625,-5.02657,-3.84674
-427,-601,-5.78601,4.2406,0,0,0,0,0,0,0,-1,797,1625,-5.786,-4.24058
-420,-601,-5.5191,5.60364,0,0,0,0,0,0,0,-1,804,1625,-5.51907,-5.60368
-413,-601,-4.30756,5.86047,0,0,0,0,0,0,0,-1,811,1625,-4.30757,-5.86046
-406,-601,-1.67493,7.20422,0,0,0,0,0,0,0,-1,818,1625,-1.67493,-7.20428
-399,-601,1.40094,15.3108,0,0,0,0,0,0,0,-1,825,1625,1.40096,-15.3107
-392,-601,1.86304,26.0443,0,0,0,0,0,0,0,-1,832,1625,1.86301,-26.0443
-385,-601,1.95923,26.6125,-0.00561456,-0.00508783,-0.00085155,-0.00445985,-0.00624254,-0.935371,0.00371297,0.0481334,839,1625,1.95921,-26.6126
-378,-601,1.94702,27.031,-0.00437141,-0.00380422,-0.000311263,-0.00366674,-0.0045089,-1.15486,0.00276825,0.045302,846,1625,1.94705,-27.031
-371,-601,1.90784,27.4071,-0.0034861,-0.00277867,-5.61481e-05,-0.00277424,-0.00349053,-1.49208,0.00212881,0.0256141,853,1625,1.90784,-27.4071
-364,-601,1.89856,28.0001,-0.00269044,-0.00197197,7.08263e-05,-0.00196505,-0.00269736,1.47347,0.00161062,0.013718,860,1625,1.89853,-28.0001
-357,-601,1.84521,28.5964,-0.00179536,-0.00128426,0.000264952,-0.0011717,-0.00190792,1.16907,0.00111106,0.0105933,867,1625,1.84521,-28.5965
-350,-601,1.85162,29.1731,-0.000938638,-0.000665504,0.000450647,-0.000331185,-0.00127296,0.932523,0.000762603,0.0208019,874,1625,1.85161,-29.173
-343,-601,1.78693,29.7297,-0.000151712,4.06894e-07,0.000651311,0.000580085,-0.00073139,0.843525,0.000758858,0.0221057,881,1625,1.78695,-29.7297
-336,-601,1.72943,30.2609,0.000665002,0.000686358,0.000961768,0.00163751,-0.000286147,0.790949,0.00119849,0.019324,888,1625,1.72945,-30.2608
-329,-601,1.74512,30.801,0.00155111,0.0021423,0.00153067,0.00340566,0.000287753,0.880781,0.00218086,0.0167333,895,1625,1.74512,-30.801
-322,-601,1.75262,31.3241,0.00238829,0.00357351,0.0022049,0.00526405,0.000697753,0.916681,0.00330145,0.013532,902,1625,1.75264,-31.3241
-315,-601,1.77307,31.8083,0.00334656,0.0054357,0.00311987,0.00768123,0.00110104,0.946939,0.00479612,0.0134552,909,1625,1.77306,-31.8083
-308,-601,1.74957,32.3325,0.00449004,0.00731259,0.0041774,0.0103107,0.00149197,0.948297,0.00643437,0.0119674,916,1625,1.7496,-32.3326
-301,-601,1.73871,32.8651,0.00595873,0.00979827,0.00564406,0.0138401,0.00191688,0.94933,0.0086588,0.0100417,923,1625,1.73869,-32.8652
-294,-601,1.71887,33.381,0.00753912,0.012429,0.00733643,0.0177172,0.00225095,0.94624,0.0111372,0.0100954,930,1625,1.71889,-33.381
-287,-601,1.67737,33.9177,0.00924388,0.0155317,0.00919772,0.022108,0.0026676,0.950081,0.0139348,0.011289,937,1625,1.67738,-33.9178
-280,-601,1.68817,34.4261,0.0112297,0.0187297,0.0112564,0.0268444,0.00311508,0.946187,0.0169536,0.0154865,944,1625,1.68815,-34.4262
-273,-601,1.69745,34.9865,0.0133807,0.0218179,0.0133838,0.0316322,0.00356636,0.938071,0.0200056,0.0168435,951,1625,1.69746,-34.9865
-266,-601,1.7572,35.5065,0.0154468,0.0248707,0.0154813,0.0363412,0.00397629,0.933127,0.0230168,0.0193011,958,1625,1.75719,-35.5064
-259,-601,1.86255,35.9203,0.0176091,0.0276938,0.0175294,0.0408916,0.00441126,0.925443,0.0259161,0.028735,965,1625,1.86252,-35.9203
-252,-601,2.10834,36.8141,0.019921,0.0299022,0.0194731,0.045014,0.00480917,0.910839,0.0285416,0.0460619,972,1625,2.10831,-36.8141
-245,-601,2.41803,37.0894,0,0,0,0,0,0,0,-1,979,1625,2.41802,-37.0893
-238,-601,2.75482,35.777,0,0,0,0,0,0,0,-1,986,1625,2.75481,-35.777
-231,-601,2.66772,13.7051,0,0,0,0,0,0,0,-1,993,1625,2.6677,-13.7051
-224,-601,-0.0305176,9.13684,0,0,0,0,0,0,0,-1,1000,1625,-0.030498,-9.13681
-217,-601,3.39429,10.3898,0,0,0,0,0,0,0,-1,1007,1625,3.39431,-10.3898
-210,-601,-6.53699,15.7931,0,0,0,0,0,0,0,-1,1014,1625,-6.53697,-15.7931
-203,-601,2.69348,15.9099,0,0,0,0,0,0,0,-1,1021,1625,2.69351,-15.91
-196,-601,2.66992,16.1815,0,0,0,0,0,0,0,-1,1028,1625,2.66995,-16.1815
-189,-601,2.849,16.6105,0,0,0,0,0,0,0,-1,1035,1625,2.84902,-16.6104
-182,-601,1.82153,13.9752,0,0,0,0,0,0,0,-1,1042,1625,1.82155,-13.9752
-175,-601,0.544922,9.28687,0,0,0,0,0,0,0,-1,1049,1625,0.544879,-9.28685
-168,-601,-0.247559,8.97461,0,0,0,0,0,0,0,-1,1056,1625,-0.247598,-8.97466
-161,-601,-1.16833,8.80078,0,0,0,0,0,0,0,-1,1063,1625,-1.16837,-8.80081
-154,-601,1.12756,7.94861,0,0,0,0,0,0,0,-1,1070,1625,1.12762,-7.94855
-147,-601,1.35352,9.55432,0,0,0,0,0,0,0,-1,1077,1625,1.35351,-9.55429
-140,-601,1.72437,11.1498,0,0,0,0,0,0,0,-1,1084,1625,1.72432,-11.1498
-133,-601,2.13281,12.8347,0,0,0,0,0,0,0,-1,1091,1625,2.13287,-12.8348
-126,-601,3.09534,15.427,0,0,0,0,0,0,0,-1,1098,1625,3.0953,-15.4271
-119,-601,1.22485,9.43457,0,0,0,0,0,0,0,-1,1105,1625,1.22489,-9.43456
-112,-601,0,0,0,0,0,0,0,0,0,-1,1112,1625,0,0
-105,-601,0,0,0,0,0,0,0,0,0,-1,1119,1625,0,0
-98,-601,0,0,0,0,0,0,0,0,0,-1,1126,1625,0,0
-91,-601,0,0,0,0,0,0,0,0,0,-1,1133,1625,0,0
-84,-601,0,0,0,0,0,0,0,0,0,-1,1140,1625,0,0
-77,-601,0,0,0,0,0,0,0,0,0,-1,1147,1625,0,0
-70,-601,0,0,0,0,0,0,0,0,0,-1,1154,1625,0,0
-63,-601,0,0,0,0,0,0,0,0,0,-1,1161,1625,0,0
-56,-601,0,0,0,0,0,0,0,0,0,-1,1168,1625,0,0
-49,-601,0,0,0,0,0,0,0,0,0,-1,1175,1625,0,0
-42,-601,0,0,0,0,0,0,0,0,0,-1,1182,1625,0,0
-35,-601,0,0,0,0,0,0,0,0,0,-1,1189,1625,0,0
-28,-601,0,0,0,0,0,0,0,0,0,-1,1196,1625,0,0
-21,-601,0,0,0,0,0,0,0,0,0,-1,1203,1625,0,0
-14,-601,0,0,0,0,0,0,0,0,0,-1,1210,1625,0,0
-7,-601,0,0,0,0,0,0,0,0,0,-1,1217,1625,0,0
0,-601,0,0,0,0,0,0,0,0,0,-1,1224,1625,0,0
7,-601,0,0,0,0,0,0,0,0,0,-1,1231,1625,0,0
14,-601,0,0,0,0,0,0,0,0,0,-1,1238,1625,0,0
21,-601,0,0,0,0,0,0,0,0,0,-1,1245,1625,0,0
28,-601,0,0,0,0,0,0,0,0,0,-1,1252,1625,0,0
35,-601,0,0,0,0,0,0,0,0,0,-1,1259,1625,0,0
42,-601,0,0,0,0,0,0,0,0,0,-1,1266,1625,0,0
49,-601,0,0,0,0,0,0,0,0,0,-1,1273,1625,0,0
56,-601,0,0,0,0,0,0,0,0,0,-1,1280,1625,0,0
63,-601,0,0,0,0,0,0,0,0,0,-1,1287,1625,0,0
70,-601,0,0,0,0,0,0,0,0,0,-1,1294,1625,0,0
77,-601,0,0,0,0,0,0,0,0,0,-1,1301,1625,0,0
84,-601,0,0,0,0,0,0,0,0,0,-1,1308,1625,0,0
91,-601,0,0,0,0,0,0,0,0,0,-1,1315,1625,0,0
98,-601,0,0,0,0,0,0,0,0,0,-1,1322,1625,0,0
105,-601,0,0,0,0,0,0,0,0,0,-1,1329,1625,0,0
112,-601,0,0,0,0,0,0,0,0,0,-1,1336,1625,0,0
119,-601,0,0,0,0,0,0,0,0,0,-1,1343,1625,0,0
126,-601,0,0,0,0,0,0,0,0,0,-1,1350,1625,0,0
133,-601,0,0,0,0,0,0,0,0,0,-1,1357,1625,0,0
140,-601,0,0,0,0,0,0,0,0,0,-1,1364,1625,0,0
147,-601,0,0,0,0,0,0,0,0,0,-1,1371,1625,0,0
154,-601,0,0,0,0,0,0,0,0,0,-1,1378,1625,0,0
161,-601,0,0,0,0,0,0,0,0,0,-1,1385,1625,0,0
168,-601,0,0,0,0,0,0,0,0,0,-1,1392,1625,0,0
175,-601,0,0,0,0,0,0,0,0,0,-1,1399,1625,0,0
182,-601,0,0,0,0,0,0,0,0,0,-1,1406,1625,0,0
189,-601,0,0,0,0,0,0,0,0,0,-1,1413,1625,0,0
196,-601,0,0,0,0,0,0,0,0,0,-1,1420,1625,0,0
203,-601,0,0,0,0,0,0,0,0,0,-1,1427,1625,0,0
210,-601,0,0,0,0,0,0,0,0,0,-1,1434,1625,0,0
217,-601,0,0,0,0,0,0,0,0,0,-1,1441,1625,0,0
224,-601,0,0,0,0,0,0,0,0,0,-1,1448,1625,0,0
231,-601,-0.0371094,0.525879,0,0,0,0,0,0,0,-1,1455,1625,-0.0371518,-0.525824
238,-601,2.03369,-1.32861,0,0,0,0,0,0,0,-1,1462,1625,2.03364,1.32858
245,-601,2.71375,2.44983,0,0,0,0,0,0,0,-1,1469,1625,2.71371,-2.44979
252,-601,4.66943,2.28381,0,0,0,0,0,0,0,-1,1476,1625,4.66947,-2.28376
259,-601,6.42712,2.61987,0,0,0,0,0,0,0,-1,1483,1625,6.42711,-2.61985
266,-601,6.75317,1.68701,0,0,0,0,0,0,0,-1,1490,1625,6.75323,-1.687
273,-601,5.4314,2.92053,0,0,0,0,0,0,0,-1,1497,1625,5.43144,-2.92051
280,-601,4.64722,1.17786,0,0,0,0,0,0,0,-1,1504,1625,4.64722,-1.1779
287,-601,5.32532,2.6217,0,0,0,0,0,0,0,-1,1511,1625,5.32535,-2.62171
294,-601,5.97693,4.22693,0,0,0,0,0,0,0,-1,1518,1625,5.97697,-4.22694
301,-601,7.28162,9.50024,0,0,0,0,0,0,0,-1,1525,1625,7.28162,-9.50025
308,-601,6.53528,10.3927,0,0,0,0,0,0,0,-1,1532,1625,6.53529,-10.3927
315,-601,4.88013,11.7184,0,0,0,0,0,0,0,-1,1539,1625,4.88015,-11.7184
322,-601,3.38098,12.7864,0,0,0,0,0,0,0,-1,1546,1625,3.38104,-12.7864
329,-601,1.8772,13.8768,0,0,0,0,0,0,0,-1,1553,1625,1.87716,-13.8768
336,-601,4.67847,9.53308,0,0,0,0,0,0,0,-1,1560,1625,4.67848,-9.53309
343,-601,11.1404,3.14575,0,0,0,0,0,0,0,-1,1567,1625,11.1404,-3.1458
350,-601,10.9462,2.37769,0,0,0,0,0,0,0,-1,1574,1625,10.9461,-2.37764
357,-601,10.7518,1.6095,0,0,0,0,0,0,0,-1,1581,1625,10.7518,-1.60948
364,-601,5.33643,9.74426,0,0,0,0,0,0,0,-1,1588,1625,5.33637,-9.74429
371,-601,15.0743,38.1534,0,0,0,0,0,0,0,-1,1595,1625,15.0743,-38.1535
378,-601,15.1498,37.636,0.0108704,0.0292369,-0.0135195,0.0363971,0.00371017,-1.08373,0.0231274,0.0474785,1602,1625,15.1498,-37.636
385,-601,15.1643,37.0205,0.00780531,0.0259054,-0.0106773,0.030852,0.00285866,-1.13695,0.0196845,0.0465924,1609,1625,15.1643,-37.0205
392,-601,15.1196,36.36,0.00530883,0.0229762,-0.00818634,0.0261862,0.00209884,-1.19711,0.0168016,0.0407736,1616,1625,15.1196,-36.36
399,-601,15.2833,35.8279,0.0033111,0.0206945,-0.00622783,0.0226953,0.00131021,-1.25993,0.014713,0.0218403,1623,1625,15.2833,-35.8279
406,-601,15.3973,35.2616,0.00169509,0.0185762,-0.0047965,0.0198438,0.000427426,-1.31242,0.0130891,0.0131761,1630,1625,15.3973,-35.2615
413,-601,15.3713,34.7676,0.000555332,0.0168604,-0.00391504,0.0177517,-0.000335992,-1.34695,0.011948,0.0121874,1637,1625,15.3714,-34.7676
420,-601,15.3672,34.2612,-0.000163043,0.015049,-0.00331399,0.0157396,-0.000853653,-1.36534,0.0107889,0.0113042,1644,1625,15.3671,-34.2612
427,-601,15.3817,33.8014,-0.000698676,0.0131875,-0.00272441,0.0137029,-0.00121406,-1.38383,0.00956564,0.0152266,1651,1625,15.3817,-33.8014
434,-601,15.3734,33.2865,-0.00083449,0.0114109,-0.00246987,0.0118903,-0.00131389,-1.37908,0.00839917,0.0154587,1658,1625,15.3734,-33.2866
441,-601,15.3715,32.772,-0.000612397,0.00959446,-0.00233594,0.0101037,-0.0011216,-1.35617,0.00713907,0.0170101,1665,1625,15.3714,-32.772
448,-601,15.3671,32.3035,-0.000327175,0.00773334,-0.0021769,0.00828368,-0.000877514,-1.32318,0.00583699,0.0146544,1672,1625,15.3671,-32.3035
455,-601,15.3483,31.7728,-0.000107769,0.00582207,-0.00202811,0.00644936,-0.000735058,-1.27083,0.00456436,0.0127809,1679,1625,15.3483,-31.7728
462,-601,15.3113,31.2753,0.000139633,0.00386663,-0.0018194,0.00460752,-0.000601255,-1.18408,0.00329046,0.0120733,1686,1625,15.3113,-31.2753
469,-601,15.2948,30.79,0.000284805,0.00195433,-0.00143383,0.00277869,-0.000539555,-1.04901,0.00205605,0.0124245,1693,1625,15.2948,-30.79
476,-601,15.2511,30.2725,0.000256984,0.00023712,-0.000883718,0.00113083,-0.000636721,-0.779779,0.0010337,0.0139415,1700,1625,15.2511,-30.2725
483,-601,15.2147,29.7416,5.4108e-05,-0.00150373,-0.000390784,0.00014664,-0.00159626,-0.232503,0.00111627,0.0164176,1707,1625,15.2147,-29.7415
490,-601,15.2294,29.2194,-0.000366617,-0.0027929,0.00012424,-0.000360272,-0.00279925,0.0510281,0.00175842,0.0125541,1714,1625,15.2294,-29.2194
497,-601,15.2161,28.6948,-0.000794942,-0.00391838,0.000522933,-0.000709717,-0.0040036,0.161555,0.00246677,0.0104727,1721,1625,15.2161,-28.6948
504,-601,15.2405,28.1389,-0.00133297,-0.00527715,0.0012088,-0.000991981,-0.00561814,0.274944,0.00346246,0.0199128,1728,1625,15.2405,-28.139
511,-601,15.1538,27.6963,-0.00218519,-0.00765268,0.00223793,-0.00138599,-0.00845187,0.342999,0.00523411,0.0354077,1735,1625,15.1538,-27.6963
518,-601,15.0411,27.0778,-0.00304771,-0.00980685,0.00319741,-0.00177487,-0.0110797,0.378854,0.00687167,0.0439832,1742,1625,15.0411,-27.0777
525,-601,14.9948,26.4576,0,0,0,0,0,0,0,-1,1749,1625,14.9947,-26.4577
532,-601,16.1193,20.8458,0,0,0,0,0,0,0,-1,1756,1625,16.1192,-20.8458
539,-601,7.77112,11.4299,0,0,0,0,0,0,0,-1,1763,1625,7.77116,-11.4299
546,-601,6.56873,3.62354,0,0,0,0,0,0,0,-1,1770,1625,6.56867,-3.62352
553,-601,7.03015,4.25049,0,0,0,0,0,0,0,-1,1777,1625,7.03011,-4.25048
560,-601,7.50745,4.83374,0,0,0,0,0,0,0,-1,1784,1625,7.50744,-4.83376
567,-601,7.82043,3.83301,0,0,0,0,0,0,0,-1,1791,1625,7.82041,-3.83303
574,-601,0,0,0,0,0,0,0,0,0,-1,1798,1625,0,0
581,-601,0,0,0,0,0,0,0,0,0,-1,1805,1625,0,0
588,-601,0,0,0,0,0,0,0,0,0,-1,1812,1625,0,0
595,-601,0,0,0,0,0,0,0,0,0,-1,1819,1625,0,0
602,-601,0,0,0,0,0,0,0,0,0,-1,1826,1625,0,0
609,-601,0,0,0,0,0,0,0,0,0,-1,1833,1625,0,0
616,-601,0,0,0,0,0,0,0,0,0,-1,1840,1625,0,0
623,-601,0,0,0,0,0,0,0,0,0,-1,1847,1625,0,0
630,-601,0,0,0,0,0,0,0,0,0,-1,1854,1625,0,0
637,-601,0,0,0,0,0,0,0,0,0,-1,1861,1625,0,0
644,-601,0,0,0,0,0,0,0,0,0,-1,1868,1625,0,0
651,-601,0,0,0,0,0,0,0,0,0,-1,1875,1625,0,0
658,-601,0,0,0,0,0,0,0,0,0,-1,1882,1625,0,0
665,-601,0,0,0,0,0,0,0,0,0,-1,1889,1625,0,0
672,-601,0,0,0,0,0,0,0,0,0,-1,1896,1625,0,0
679,-601,0,0,0,0,0,0,0,0,0,-1,1903,1625,0,0
686,-601,0,0,0,0,0,0,0,0,0,-1,1910,1625,0,0
693,-601,0,0,0,0,0,0,0,0,0,-1,1917,1625,0,0
700,-601,0,0,0,0,0,0,0,0,0,-1,1924,1625,0,0
707,-601,0,0,0,0,0,0,0,0,0,-1,1931,1625,0,0
714,-601,0,0,0,0,0,0,0,0,0,-1,1938,1625,0,0
721,-601,0,0,0,0,0,0,0,0,0,-1,1945,1625,0,0
728,-601,0,0,0,0,0,0,0,0,0,-1,1952,1625,0,0
735,-601,0,0,0,0,0,0,0,0,0,-1,1959,1625,0,0
742,-601,0,0,0,0,0,0,0,0,0,-1,1966,1625,0,0
749,-601,0,0,0,0,0,0,0,0,0,-1,1973,1625,0,0
756,-601,0,0,0,0,0,0,0,0,0,-1,1980,1625,0,0
763,-601,0,0,0,0,0,0,0,0,0,-1,1987,1625,0,0
770,-601,0,0,0,0,0,0,0,0,0,-1,1994,1625,0,0
777,-601,0,0,0,0,0,0,0,0,0,-1,2001,1625,0,0
784,-601,0,0,0,0,0,0,0,0,0,-1,2008,1625,0,0
791,-601,0,0,0,0,0,0,0,0,0,-1,2015,1625,0,0
798,-601,0,0,0,0,0,0,0,0,0,-1,2022,1625,0,0
805,-601,0,0,0,0,0,0,0,0,0,-1,2029,1625,0,0
812,-601,0,0,0,0,0,0,0,0,0,-1,2036,1625,0,0
-700,-608,0,0,0,0,0,0,0,0,0,-1,524,1632,0,0
-693,-608,0,0,0,0,0,0,0,0,0,-1,531,1632,0,0
-686,-608,0,0,0,0,0,0,0,0,0,-1,538,1632,0,0
-679,-608,0,0,0,0,0,0,0,0,0,-1,545,1632,0,0
-672,-608,0,0,0,0,0,0,0,0,0,-1,552,1632,0,0
-665,-608,0,0,0,0,0,0,0,0,0,-1,559,1632,0,0
-658,-608,0,0,0,0,0,0,0,0,0,-1,566,1632,0,0
-651,-608,0,0,0,0,0,0,0,0,0,-1,573,1632,0,0
-644,-608,0,0,0,0,0,0,0,0,0,-1,580,1632,0,0
-637,-608,0,0,0,0,0,0,0,0,0,-1,587,1632,0,0
-630,-608,0,0,0,0,0,0,0,0,0,-1,594,1632,0,0
-623,-608,0,0,0,0,0,0,0,0,0,-1,601,1632,0,0
-616,-608,0,0,0,0,0,0,0,0,0,-1,608,1632,0,0
-609,-608,0,0,0,0,0,0,0,0,0,-1,615,1632,0,0
-602,-608,0,0,0,0,0,0,0,0,0,-1,622,1632,0,0
-595,-608,0,0,0,0,0,0,0,0,0,-1,629,1632,0,0
-588,-608,0,0,0,0,0,0,0,0,0,-1,636,1632,0,0
-581,-608,0,0,0,0,0,0,0,0,0,-1,643,1632,0,0
-574,-608,0,0,0,0,0,0,0,0,0,-1,650,1632,0,0
-567,-608,0,0,0,0,0,0,0,0,0,-1,657,1632,0,0
-560,-608,0,0,0,0,0,0,0,0,0,-1,664,1632,0,0
-553,-608,0,0,0,0,0,0,0,0,0,-1,671,1632,0,0
-546,-608,0,0,0,0,0,0,0,0,0,-1,678,1632,0,0
-539,-608,0,0,0,0,0,0,0,0,0,-1,685,1632,0,0
-532,-608,0,0,0,0,0,0,0,0,0,-1,692,1632,0,0
-525,-608,0,0,0,0,0,0,0,0,0,-1,699,1632,0,0
-518,-608,0,0,0,0,0,0,0,0,0,-1,706,1632,0,0
-511,-608,0,0,0,0,0,0,0,0,0,-1,713,1632,0,0
-504,-608,0,0,0,0,0,0,0,0,0,-1,720,1632,0,0
-497,-608,0,0,0,0,0,0,0,0,0,-1,727,1632,0,0
-490,-608,0,0,0,0,0,0,0,0,0,-1,734,1632,0,0
-483,-608,0,0,0,0,0,0,0,0,0,-1,741,1632,0,0
-476,-608,0,0,0,0,0,0,0,0,0,-1,748,1632,0,0
-469,-608,0,0,0,0,0,0,0,0,0,-1,755,1632,0,0
-462,-608,0,0,0,0,0,0,0,0,0,-1,762,1632,0,0
-455,-608,0,0,0,0,0,0,0,0,0,-1,769,1632,0,0
-448,-608,0,0,0,0,0,0,0,0,0,-1,776,1632,0,0
-441,-608,-7.34601,2.78052,0,0,0,0,0,0,0,-1,783,1632,-7.346,-2.78056
-434,-608,-6.34558,3.27405,0,0,0,0,0,0,0,-1,790,1632,-6.34555,-3.27406
-427,-608,-7.74335,4.17688,0,0,0,0,0,0,0,-1,797,1632,-7.74334,-4.17693
-420,-608,-6.82794,4.34839,0,0,0,0,0,0,0,-1,804,1632,-6.82794,-4.34838
-413,-608,-5.41919,5.66138,0,0,0,0,0,0,0,-1,811,1632,-5.41917,-5.66133
-406,-608,-4.79681,4.98999,0,0,0,0,0,0,0,-1,818,1632,-4.79684,-4.98997
-399,-608,-2.60645,6.34167,0,0,0,0,0,0,0,-1,825,1632,-2.60643,-6.34169
-392,-608,2.08356,15.437,0,0,0,0,0,0,0,-1,832,1632,2.08354,-15.437
-385,-608,2.54431,26.7584,0,0,0,0,0,0,0,-1,839,1632,2.54433,-26.7585
-378,-608,2.59772,27.1339,0,0,0,0,0,0,0,-1,846,1632,2.5977,-27.1339
-371,-608,2.45453,27.2233,0,0,0,0,0,0,0,-1,853,1632,2.45453,-27.2233
-364,-608,2.53137,27.8833,-0.00324035,-0.00173111,-8.58906e-05,-0.00172623,-0.00324522,-1.51413,0.0018749,0.0303707,860,1632,2.53136,-27.8833
-357,-608,2.39703,28.5566,-0.00229829,-0.00103984,0.000177125,-0.00101538,-0.00232275,1.4336,0.00134457,0.0192021,867,1632,2.39703,-28.5567
-350,-608,2.3844,29.1428,-0.00150918,-0.000383153,0.000390228,-0.00026114,-0.00163119,1.26775,0.00101171,0.0183141,874,1632,2.38438,-29.1428
-343,-608,2.35168,29.7126,-0.000746236,0.000245666,0.00056245,0.000499593,-0.00100016,1.14672,0.000881815,0.0226414,881,1632,2.35167,-29.7126
-336,-608,2.29944,30.2966,1.82123e-06,0.000782002,0.0007901,0.00127306,-0.000489241,1.0147,0.00105048,0.0163246,888,1632,2.29945,-30.2967
-329,-608,2.26355,30.8423,0.000736923,0.00184987,0.00116655,0.00258587,9.16072e-07,1.00795,0.00172361,0.0154716,895,1632,2.26354,-30.8423
-322,-608,2.24542,31.351,0.00142497,0.0029423,0.0016718,0.00401952,0.000347745,0.998404,0.00257162,0.015875,902,1632,2.24544,-31.351
-315,-608,2.26965,31.8412,0.00219011,0.00428817,0.00234395,0.00580712,0.000671153,0.995804,0.00366822,0.0143661,909,1632,2.26968,-31.8412
-308,-608,2.25427,32.3668,0.0031248,0.00565211,0.0031143,0.00774936,0.00102755,0.978129,0.00486006,0.0146358,916,1632,2.25428,-32.3668
-301,-608,2.25897,32.8842,0.00431473,0.00748423,0.00419776,0.0103864,0.00141254,0.965889,0.00650476,0.0109187,923,1632,2.259,-32.8842
-294,-608,2.25452,33.3824,0.00559648,0.00941002,0.00545885,0.0132855,0.00172096,0.953423,0.00834275,0.0113574,930,1632,2.25452,-33.3824
-287,-608,2.20703,33.902,0.00692406,0.0116617,0.00676762,0.0164631,0.00212268,0.953747,0.0103407,0.0116313,937,1632,2.20706,-33.902
-280,-608,2.21155,34.3988,0.0084736,0.0139373,0.0082318,0.0198787,0.00253219,0.945614,0.0124943,0.00965764,944,1632,2.21156,-34.3988
-273,-608,2.1947,34.9139,0.0101281,0.0160494,0.00971167,0.0232417,0.00293583,0.933352,0.0146145,0.0103758,951,1632,2.19471,-34.9139
-266,-608,2.2204,35.4573,0.0117039,0.0182141,0.0111381,0.026563,0.00335499,0.927563,0.016703,0.0115968,958,1632,2.22037,-35.4573
-259,-608,2.30316,35.9583,0.0133748,0.0204115,0.0125574,0.0299342,0.00385214,0.921986,0.018804,0.0156985,965,1632,2.30316,-35.9583
-252,-608,2.43793,36.4775,0.0150641,0.0219811,0.0139084,0.0328546,0.00419069,0.907258,0.0206484,0.03083,972,1632,2.43792,-36.4775
-245,-608,2.64124,37.1259,0.0164015,0.0232857,0.0150469,0.0352791,0.00440803,0.897843,0.0221965,0.046826,979,1632,2.64125,-37.1258
-238,-608,2.86127,37.8209,0,0,0,0,0,0,0,-1,986,1632,2.86124,-37.8209
-231,-608,3.26025,27.5262,0,0,0,0,0,0,0,-1,993,1632,3.26023,-27.5263
-224,-608,2.51642,15.3452,0,0,0,0,0,0,0,-1,1000,1632,2.5164,-15.3452
-217,-608,1.04419,12.8451,0,0,0,0,0,0,0,-1,1007,1632,1.04418,-12.8451
-210,-608,2.75903,15.9414,0,0,0,0,0,0,0,-1,1014,1632,2.75903,-15.9414
-203,-608,2.76776,16.217,0,0,0,0,0,0,0,-1,1021,1632,2.76773,-16.217
-196,-608,1.53955,18.6058,0,0,0,0,0,0,0,-1,1028,1632,1.53959,-18.6058
-189,-608,1.37634,19.119,0,0,0,0,0,0,0,-1,1035,1632,1.37634,-19.1191
-182,-608,2.89221,16.7092,0,0,0,0,0,0,0,-1,1042,1632,2.89224,-16.7093
-175,-608,0.219116,15.1643,0,0,0,0,0,0,0,-1,1049,1632,0.219173,-15.1644
-168,-608,0.000366211,9.48645,0,0,0,0,0,0,0,-1,1056,1632,0.000317105,-9.48648
-161,-608,2.27832,15.4423,0,0,0,0,0,0,0,-1,1063,1632,2.27826,-15.4423
-154,-608,1.3999,16.4037,0,0,0,0,0,0,0,-1,1070,1632,1.39987,-16.4037
-147,-608,2.4386,9.50317,0,0,0,0,0,0,0,-1,1077,1632,2.43858,-9.50313
-140,-608,2.60132,10.8401,0,0,0,0,0,0,0,-1,1084,1632,2.60134,-10.8401
-133,-608,3.2312,12.4738,0,0,0,0,0,0,0,-1,1091,1632,3.23116,-12.4738
-126,-608,3.76465,13.9644,0,0,0,0,0,0,0,-1,1098,1632,3.76466,-13.9644
-119,-608,4.28906,15.4196,0,0,0,0,0,0,0,-1,1105,1632,4.28911,-15.4195
-112,-608,0.745117,10.5587,0,0,0,0,0,0,0,-1,1112,1632,0.745145,-10.5587
-105,-608,-0.252319,1.42419,0,0,0,0,0,0,0,-1,1119,1632,-0.252331,-1.42418
-98,-608,-2.8595,3.0863,0,0,0,0,0,0,0,-1,1126,1632,-2.85948,-3.08625
-91,-608,-3.71948,1.73608,0,0,0,0,0,0,0,-1,1133,1632,-3.7195,-1.73607
-84,-608,0,0,0,0,0,0,0,0,0,-1,1140,1632,0,0
-77,-608,0,0,0,0,0,0,0,0,0,-1,1147,1632,0,0
-70,-608,0,0,0,0,0,0,0,0,0,-1,1154,1632,0,0
-63,-608,0,0,0,0,0,0,0,0,0,-1,1161,1632,0,0
-56,-608,0,0,0,0,0,0,0,0,0,-1,1168,1632,0,0
-49,-608,0,0,0,0,0,0,0,0,0,-1,1175,1632,0,0
-42,-608,0,0,0,0,0,0,0,0,0,-1,1182,1632,0,0
-35,-608,0,0,0,0,0,0,0,0,0,-1,1189,1632,0,0
-28,-608,0,0,0,0,0,0,0,0,0,-1,1196,1632,0,0
-21,-608,0,0,0,0,0,0,0,0,0,-1,1203,1632,0,0
-14,-608,0,0,0,0,0,0,0,0,0,-1,1210,1632,0,0
-7,-608,0,0,0,0,0,0,0,0,0,-1,1217,1632,0,0
0,-608,0,0,0,0,0,0,0,0,0,-1,1224,1632,0,0
7,-608,0,0,0,0,0,0,0,0,0,-1,1231,1632,0,0
14,-608,0,0,0,0,0,0,0,0,0,-1,1238,1632,0,0
21,-608,0,0,0,0,0,0,0,0,0,-1,1245,1632,0,0
28,-608,0,0,0,0,0,0,0,0,0,-1,1252,1632,0,0
35,-608,0,0,0,0,0,0,0,0,0,-1,1259,1632,0,0
42,-608,0,0,0,0,0,0,0,0,0,-1,1266,1632,0,0
49,-608,0,0,0,0,0,0,0,0,0,-1,1273,1632,0,0
56,-608,0,0,0,0,0,0,0,0,0,-1,1280,1632,0,0
63,-608,0,0,0,0,0,0,0,0,0,-1,1287,1632,0,0
70,-608,0,0,0,0,0,0,0,0,0,-1,1294,1632,0,0
77,-608,0,0,0,0,0,0,0,0,0,-1,1301,1632,0,0
84,-608,0,0,0,0,0,0,0,0,0,-1,1308,1632,0,0
91,-608,0,0,0,0,0,0,0,0,0,-1,1315,1632,0,0
98,-608,0,0,0,0,0,0,0,0,0,-1,1322,1632,0,0
105,-608,0,0,0,0,0,0,0,0,0,-1,1329,1632,0,0
112,-608,0,0,0,0,0,0,0,0,0,-1,1336,1632,0,0
119,-608,0,0,0,0,0,0,0,0,0,-1,1343,1632,0,0
126,-608,0,0,0,0,0,0,0,0,0,-1,1350,1632,0,0
133,-608,0,0,0,0,0,0,0,0,0,-1,1357,1632,0,0
140,-608,0,0,0,0,0,0,0,0,0,-1,1364,1632,0,0
147,-608,0,0,0,0,0,0,0,0,0,-1,1371,1632,0,0
154,-608,0,0,0,0,0,0,0,0,0,-1,1378,1632,0,0
161,-608,0,0,0,0,0,0,0,0,0,-1,1385,1632,0,0
168,-608,0,0,0,0,0,0,0,0,0,-1,1392,1632,0,0
175,-608,0,0,0,0,0,0,0,0,0,-1,1399,1632,0,0
182,-608,0,0,0,0,0,0,0,0,0,-1,1406,1632,0,0
189,-608,0,0,0,0,0,0,0,0,0,-1,1413,1632,0,0
196,-608,0,0,0,0,0,0,0,0,0,-1,1420,1632,0,0
203,-608,0,0,0,0,0,0,0,0,0,-1,1427,1632,0,0
210,-608,5.7157,-0.333008,0,0,0,0,0,0,0,-1,1434,1632,5.71566,0.333004
217,-608,4.49402,-0.831787,0,0,0,0,0,0,0,-1,1441,1632,4.49396,0.831738
224,-608,4.18018,-1.11792,0,0,0,0,0,0,0,-1,1448,1632,4.1802,1.11796
231,-608,0.361816,0.825195,0,0,0,0,0,0,0,-1,1455,1632,0.36185,-0.825226
238,-608,2.85388,-0.28833,0,0,0,0,0,0,0,-1,1462,1632,2.85391,0.288282
245,-608,3.87537,4.02173,0,0,0,0,0,0,0,-1,1469,1632,3.87538,-4.02168
252,-608,5.66956,3.5282,0,0,0,0,0,0,0,-1,1476,1632,5.6696,-3.52815
259,-608,7.47437,3.07178,0,0,0,0,0,0,0,-1,1483,1632,7.4744,-3.07172
266,-608,9.46936,2.34766,0,0,0,0,0,0,0,-1,1490,1632,9.46932,-2.34764
273,-608,6.03003,3.34241,0,0,0,0,0,0,0,-1,1497,1632,6.02997,-3.34245
280,-608,5.72461,2.0769,0,0,0,0,0,0,0,-1,1504,1632,5.72457,-2.07688
287,-608,6.20581,3.59338,0,0,0,0,0,0,0,-1,1511,1632,6.20585,-3.59341
294,-608,6.94922,5.17151,0,0,0,0,0,0,0,-1,1518,1632,6.94925,-5.17151
301,-608,7.60083,6.68018,0,0,0,0,0,0,0,-1,1525,1632,7.60086,-6.68013
308,-608,7.64746,9.93848,0,0,0,0,0,0,0,-1,1532,1632,7.64745,-9.93842
315,-608,5.30688,11.2054,0,0,0,0,0,0,0,-1,1539,1632,5.30694,-11.2054
322,-608,5.32617,13.7581,0,0,0,0,0,0,0,-1,1546,1632,5.32613,-13.758
329,-608,7.12231,13.9607,0,0,0,0,0,0,0,-1,1553,1632,7.12231,-13.9607
336,-608,5.48633,7.82446,0,0,0,0,0,0,0,-1,1560,1632,5.48634,-7.82446
343,-608,5.47192,5.61047,0,0,0,0,0,0,0,-1,1567,1632,5.47192,-5.61045
350,-608,11.6957,1.71387,0,0,0,0,0,0,0,-1,1574,1632,11.6957,-1.71388
357,-608,3.77002,5.10046,0,0,0,0,0,0,0,-1,1581,1632,3.77002,-5.10043
364,-608,14.2924,39.0809,0,0,0,0,0,0,0,-1,1588,1632,14.2923,-39.0809
371,-608,14.4805,38.2789,0.011972,0.0251447,-0.0132367,0.0333432,0.00377359,-1.01625,0.0210838,0.0482021,1595,1632,14.4805,-38.279
378,-608,14.649,37.4426,0.00947475,0.0232893,-0.0107988,0.0292009,0.00356314,-1.06993,0.0183949,0.036243,1602,1632,14.6491,-37.4426
385,-608,14.796,36.7924,0.00726093,0.0203689,-0.00860521,0.0246318,0.00299807,-1.11085,0.0155187,0.0334838,1609,1632,14.796,-36.7923
392,-608,14.8145,36.2316,0.00537086,0.0178427,-0.00668206,0.0207466,0.00246693,-1.16084,0.0130865,0.0242406,1616,1632,14.8144,-36.2316
399,-608,14.8676,35.6764,0.00374783,0.0157544,-0.00508237,0.0176169,0.00188537,-1.21954,0.0111693,0.0108731,1623,1632,14.8676,-35.6764
406,-608,14.91,35.181,0.00235756,0.0138516,-0.00385119,0.0150227,0.0011865,-1.2756,0.009644,0.00919512,1630,1632,14.9101,-35.1811
413,-608,14.8824,34.7312,0.00128741,0.0122985,-0.00303744,0.0130808,0.000505107,-1.31872,0.00855713,0.00993386,1637,1632,14.8824,-34.7312
420,-608,14.8303,34.2843,0.000546676,0.0107112,-0.00246527,0.0112776,-1.96844e-05,-1.34498,0.00752498,0.0182003,1644,1632,14.8304,-34.2843
427,-608,14.8438,33.8008,-5.67354e-05,0.00910794,-0.0019111,0.00949049,-0.000439287,-1.37323,0.00647839,0.0192754,1651,1632,14.8437,-33.8007
434,-608,14.8392,33.301,-0.000334231,0.00763434,-0.00167311,0.00797138,-0.000671268,-1.37201,0.00555155,0.0144934,1658,1632,14.8393,-33.301
441,-608,14.8396,32.8235,-0.000298697,0.00619854,-0.00157563,0.00656048,-0.000660638,-1.345,0.00460967,0.0134172,1665,1632,14.8396,-32.8235
448,-608,14.8533,32.3528,-0.000186369,0.00469822,-0.00145883,0.00510074,-0.000588891,-1.30157,0.00361283,0.015802,1672,1632,14.8533,-32.3528
455,-608,14.8727,31.8114,-8.96494e-05,0.00314162,-0.00134689,0.0036294,-0.000577435,-1.22333,0.00263327,0.0117952,1679,1632,14.8727,-31.8114
462,-608,14.8314,31.2927,1.95687e-05,0.0014464,-0.00114848,0.002085,-0.000619036,-1.06332,0.00163587,0.011279,1686,1632,14.8314,-31.2927
469,-608,14.7802,30.7998,3.87182e-05,-0.000195208,-0.000811165,0.000741309,-0.000897799,-0.713796,0.000947776,0.00903163,1693,1632,14.7801,-30.7998
476,-608,14.7275,30.287,-6.28798e-05,-0.00168612,-0.000312296,-4.87018e-06,-0.00174413,-0.183659,0.00116114,0.00887299,1700,1632,14.7276,-30.287
483,-608,14.7039,29.757,-0.000391613,-0.00294575,0.000135416,-0.000384453,-0.00295291,0.0528208,0.00185379,0.00861962,1707,1632,14.7039,-29.7569
490,-608,14.7308,29.2439,-0.000895152,-0.00412067,0.000599608,-0.000787295,-0.00422853,0.177977,0.00259668,0.0095717,1714,1632,14.7308,-29.2439
497,-608,14.756,28.7065,-0.00129125,-0.00524317,0.000946465,-0.00107627,-0.00545815,0.22335,0.00333835,0.0203756,1721,1632,14.756,-28.7065
504,-608,14.718,28.2281,-0.00175702,-0.00657099,0.00162698,-0.00125873,-0.00706929,0.297197,0.00435435,0.0470689,1728,1632,14.718,-28.2281
511,-608,14.7023,27.8906,-0.00257421,-0.0090782,0.00262359,-0.00164785,-0.0100046,0.339426,0.00619393,0.0472347,1735,1632,14.7023,-27.8906
518,-608,14.6331,27.0686,0,0,0,0,0,0,0,-1,1742,1632,14.6331,-27.0686
525,-608,11.2109,16.2579,0,0,0,0,0,0,0,-1,1749,1632,11.2109,-16.2579
532,-608,8.27917,11.6693,0,0,0,0,0,0,0,-1,1756,1632,8.27919,-11.6694
539,-608,9.40796,1.43457,0,0,0,0,0,0,0,-1,1763,1632,9.40801,-1.43463
546,-608,9.94031,2.1134,0,0,0,0,0,0,0,-1,1770,1632,9.94031,-2.11346
553,-608,10.363,2.81335,0,0,0,0,0,0,0,-1,1777,1632,10.3631,-2.81333
560,-608,9.23999,4.5636,0,0,0,0,0,0,0,-1,1784,1632,9.24,-4.56354
567,-608,0,0,0,0,0,0,0,0,0,-1,1791,1632,0,0
574,-608,0,0,0,0,0,0,0,0,0,-1,1798,1632,0,0
581,-608,0,0,0,0,0,0,0,0,0,-1,1805,1632,0,0
588,-608,0,0,0,0,0,0,0,0,0,-1,1812,1632,0,0
595,-608,0,0,0,0,0,0,0,0,0,-1,1819,1632,0,0
602,-608,0,0,0,0,0,0,0,0,0,-1,1826,1632,0,0
609,-608,0,0,0,0,0,0,0,0,0,-1,1833,1632,0,0
616,-608,0,0,0,0,0,0,0,0,0,-1,1840,1632,0,0
623,-608,0,0,0,0,0,0,0,0,0,-1,1847,1632,0,0
630,-608,0,0,0,0,0,0,0,0,0,-1,1854,1632,0,0
637,-608,0,0,0,0,0,0,0,0,0,-1,1861,1632,0,0
644,-608,0,0,0,0,0,0,0,0,0,-1,1868,1632,0,0
651,-608,0,0,0,0,0,0,0,0,0,-1,1875,1632,0,0
658,-608,0,0,0,0,0,0,0,0,0,-1,1882,1632,0,0
665,-608,0,0,0,0,0,0,0,0,0,-1,1889,1632,0,0
672,-608,0,0,0,0,0,0,0,0,0,-1,1896,1632,0,0
679,-608,0,0,0,0,0,0,0,0,0,-1,1903,1632,0,0
686,-608,0,0,0,0,0,0,0,0,0,-1,1910,1632,0,0
693,-608,0,0,0,0,0,0,0,0,0,-1,1917,1632,0,0
700,-608,0,0,0,0,0,0,0,0,0,-1,1924,1632,0,0
707,-608,0,0,0,0,0,0,0,0,0,-1,1931,1632,0,0
714,-608,0,0,0,0,0,0,0,0,0,-1,1938,1632,0,0
721,-608,0,0,0,0,0,0,0,0,0,-1,1945,1632,0,0
728,-608,0,0,0,0,0,0,0,0,0,-1,1952,1632,0,0
735,-608,0,0,0,0,0,0,0,0,0,-1,1959,1632,0,0
742,-608,0,0,0,0,0,0,0,0,0,-1,1966,1632,0,0
749,-608,0,0,0,0,0,0,0,0,0,-1,1973,1632,0,0
756,-608,0,0,0,0,0,0,0,0,0,-1,1980,1632,0,0
763,-608,0,0,0,0,0,0,0,0,0,-1,1987,1632,0,0
770,-608,0,0,0,0,0,0,0,0,0,-1,1994,1632,0,0
777,-608,0,0,0,0,0,0,0,0,0,-1,2001,1632,0,0
784,-608,0,0,0,0,0,0,0,0,0,-1,2008,1632,0,0
791,-608,0,0,0,0,0,0,0,0,0,-1,2015,1632,0,0
798,-608,0,0,0,0,0,0,0,0,0,-1,2022,1632,0,0
805,-608,0,0,0,0,0,0,0,0,0,-1,2029,1632,0,0
812,-608,0,0,0,0,0,0,0,0,0,-1,2036,1632,0,0
-700,-615,0,0,0,0,0,0,0,0,0,-1,524,1639,0,0
-693,-615,0,0,0,0,0,0,0,0,0,-1,531,1639,0,0
-686,-615,0,0,0,0,0,0,0,0,0,-1,538,1639,0,0
-679,-615,0,0,0,0,0,0,0,0,0,-1,545,1639,0,0
-672,-615,0,0,0,0,0,0,0,0,0,-1,552,1639,0,0
-665,-615,0,0,0,0,0,0,0,0,0,-1,559,1639,0,0
-658,-615,0,0,0,0,0,0,0,0,0,-1,566,1639,0,0
-651,-615,0,0,0,0,0,0,0,0,0,-1,573,1639,0,0
-644,-615,0,0,0,0,0,0,0,0,0,-1,580,1639,0,0
-637,-615,0,0,0,0,0,0,0,0,0,-1,587,1639,0,0
-630,-615,0,0,0,0,0,0,0,0,0,-1,594,1639,0,0
-623,-615,0,0,0,0,0,0,0,0,0,-1,601,1639,0,0
-616,-615,0,0,0,0,0,0,0,0,0,-1,608,1639,0,0
-609,-615,0,0,0,0,0,0,0,0,0,-1,615,1639,0,0
-602,-615,0,0,0,0,0,0,0,0,0,-1,622,1639,0,0
-595,-615,0,0,0,0,0,0,0,0,0,-1,629,1639,0,0
-588,-615,0,0,0,0,0,0,0,0,0,-1,636,1639,0,0
-581,-615,0,0,0,0,0,0,0,0,0,-1,643,1639,0,0
-574,-615,0,0,0,0,0,0,0,0,0,-1,650,1639,0,0
-567,-615,0,0,0,0,0,0,0,0,0,-1,657,1639,0,0
-560,-615,0,0,0,0,0,0,0,0,0,-1,664,1639,0,0
-553,-615,0,0,0,0,0,0,0,0,0,-1,671,1639,0,0
-546,-615,0,0,0,0,0,0,0,0,0,-1,678,1639,0,0
-539,-615,0,0,0,0,0,0,0,0,0,-1,685,1639,0,0
-532,-615,0,0,0,0,0,0,0,0,0,-1,692,1639,0,0
-525,-615,0,0,0,0,0,0,0,0,0,-1,699,1639,0,0
-518,-615,0,0,0,0,0,0,0,0,0,-1,706,1639,0,0
-511,-615,0,0,0,0,0,0,0,0,0,-1,713,1639,0,0
-504,-615,0,0,0,0,0,0,0,0,0,-1,720,1639,0,0
-497,-615,0,0,0,0,0,0,0,0,0,-1,727,1639,0,0
-490,-615,0,0,0,0,0,0,0,0,0,-1,734,1639,0,0
-483,-615,0,0,0,0,0,0,0,0,0,-1,741,1639,0,0
-476,-615,0,0,0,0,0,0,0,0,0,-1,748,1639,0,0
-469,-615,0,0,0,0,0,0,0,0,0,-1,755,1639,0,0
-462,-615,0,0,0,0,0,0,0,0,0,-1,762,1639,0,0
-455,-615,0,0,0,0,0,0,0,0,0,-1,769,1639,0,0
-448,-615,0,0,0,0,0,0,0,0,0,-1,776,1639,0,0
-441,-615,0,0,0,0,0,0,0,0,0,-1,783,1639,0,0
-434,-615,-7.64508,2.98596,0,0,0,0,0,0,0,-1,790,1639,-7.64505,-2.98594
-427,-615,-9.0011,2.89404,0,0,0,0,0,0,0,-1,797,1639,-9.00107,-2.89399
-420,-615,-8.07568,3.0752,0,0,0,0,0,0,0,-1,804,1639,-8.07569,-3.07514
-413,-615,-7.09149,3.396,0,0,0,0,0,0,0,-1,811,1639,-7.09147,-3.39599
-406,-615,-6.21368,3.7312,0,0,0,0,0,0,0,-1,818,1639,-6.21366,-3.73114
-399,-615,-4.84875,3.91907,0,0,0,0,0,0,0,-1,825,1639,-4.84877,-3.91901
-392,-615,1.7395,13.3127,0,0,0,0,0,0,0,-1,832,1639,1.73953,-13.3128
-385,-615,3.42297,14.9401,0,0,0,0,0,0,0,-1,839,1639,3.42296,-14.94
-378,-615,2.54102,17.2609,0,0,0,0,0,0,0,-1,846,1639,2.54099,-17.2608
-371,-615,3.22955,27.1931,0,0,0,0,0,0,0,-1,853,1639,3.22953,-27.1931
-364,-615,3.01379,28.0834,0,0,0,0,0,0,0,-1,860,1639,3.01378,-28.0834
-357,-615,2.89117,28.5901,0,0,0,0,0,0,0,-1,867,1639,2.8912,-28.5901
-350,-615,2.92261,29.2231,-0.00195985,5.86371e-05,0.000405634,0.000137103,-0.00203832,1.37972,0.00140681,0.0293553,874,1639,2.9226,-29.2232
-343,-615,2.8822,29.7146,-0.00122322,0.000675526,0.000528116,0.00081253,-0.00136023,1.31697,0.00126766,0.0190408,881,1639,2.88219,-29.7146
-336,-615,2.85248,30.2701,-0.00056337,0.00109848,0.000650633,0.0013229,-0.000787794,1.23864,0.0012316,0.0108336,888,1639,2.85251,-30.2701
-329,-615,2.81427,30.8165,6.68097e-06,0.00180498,0.000827681,0.00212793,-0.000316269,1.19878,0.00153494,0.0113532,895,1639,2.81428,-30.8165
-322,-615,2.80145,31.3584,0.000541617,0.00258614,0.00116417,0.00311317,1.45863e-05,1.14569,0.0020706,0.0129696,902,1639,2.80147,-31.3584
-315,-615,2.79633,31.9009,0.0011176,0.00346381,0.00161127,0.00428379,0.000297623,1.10006,0.002762,0.0154384,909,1639,2.79634,-31.9008
-308,-615,2.73401,32.4282,0.00185767,0.00439305,0.00214293,0.00561517,0.000635543,1.0525,0.00355061,0.0223502,916,1639,2.73399,-32.4282
-301,-615,2.76416,32.9071,0.00280063,0.00566381,0.00292021,0.00748446,0.000979981,1.0133,0.00469718,0.0135026,923,1639,2.76415,-32.9071
-294,-615,2.77985,33.4199,0.00384629,0.00702711,0.00386672,0.00961772,0.00125569,0.980506,0.00603694,0.0113207,930,1639,2.77987,-33.4199
-287,-615,2.71252,33.9399,0.00490176,0.00865168,0.00481869,0.0119473,0.00160611,0.970936,0.00748716,0.00900825,937,1639,2.71254,-33.9399
-280,-615,2.7038,34.4232,0.006143,0.0102686,0.00589814,0.0144543,0.00195735,0.953619,0.00905452,0.0101184,944,1639,2.70381,-34.4232
-273,-615,2.69171,34.9324,0.00746039,0.0117201,0.00697253,0.0168808,0.00229966,0.933628,0.010571,0.0115581,951,1639,2.69174,-34.9324
-266,-615,2.68311,35.4126,0.00870969,0.0132208,0.00799108,0.0192686,0.00266195,0.92295,0.0120567,0.0122283,958,1639,2.68313,-35.4126
-259,-615,2.71967,35.8975,0.0099999,0.0147925,0.00897457,0.0216852,0.00310721,0.915859,0.0135404,0.0133663,965,1639,2.71967,-35.8974
-252,-615,2.73383,36.4481,0.0112527,0.0159929,0.00988228,0.0237853,0.00346026,0.903092,0.0148386,0.0180288,972,1639,2.73381,-36.4481
-245,-615,2.83875,37.0876,0.0122096,0.0169428,0.0105737,0.0254115,0.0037409,0.895495,0.0158419,0.0297336,979,1639,2.83876,-37.0876
-238,-615,2.81573,37.6409,0.0131859,0.0172893,0.0109084,0.0263373,0.00413793,0.878353,0.0163543,0.0428663,986,1639,2.81575,-37.6408
-231,-615,3.08508,38.1501,0,0,0,0,0,0,0,-1,993,1639,3.08507,-38.1502
-224,-615,3.14166,38.2706,0,0,0,0,0,0,0,-1,1000,1639,3.14164,-38.2706
-217,-615,3.99097,27.3737,0,0,0,0,0,0,0,-1,1007,1639,3.99096,-27.3736
-210,-615,2.48901,18.9324,0,0,0,0,0,0,0,-1,1014,1639,2.48902,-18.9323
-203,-615,2.13684,18.6173,0,0,0,0,0,0,0,-1,1021,1639,2.13683,-18.6173
-196,-615,4.27161,21.3264,0,0,0,0,0,0,0,-1,1028,1639,4.27165,-21.3264
-189,-615,1.8269,19.6761,0,0,0,0,0,0,0,-1,1035,1639,1.82691,-19.6761
-182,-615,1.63489,20.2278,0,0,0,0,0,0,0,-1,1042,1639,1.63492,-20.2277
-175,-615,-0.609985,13.8434,0,0,0,0,0,0,0,-1,1049,1639,-0.610016,-13.8434
-168,-615,3.85754,15.472,0,0,0,0,0,0,0,-1,1056,1639,3.85757,-15.472
-161,-615,5.38062,36.9541,0,0,0,0,0,0,0,-1,1063,1639,5.38058,-36.9541
-154,-615,1.33032,44.5464,0,0,0,0,0,0,0,-1,1070,1639,1.33034,-44.5464
-147,-615,1.52502,17.3442,0,0,0,0,0,0,0,-1,1077,1639,1.52501,-17.3442
-140,-615,3.73401,10.2349,0,0,0,0,0,0,0,-1,1084,1639,3.73402,-10.2348
-133,-615,2.6178,17.45,0,0,0,0,0,0,0,-1,1091,1639,2.61776,-17.4499
-126,-615,4.43408,12.5017,0,0,0,0,0,0,0,-1,1098,1639,4.43403,-12.5018
-119,-615,4.82983,13.9279,0,0,0,0,0,0,0,-1,1105,1639,4.82986,-13.9278
-112,-615,3.65698,14.4874,0,0,0,0,0,0,0,-1,1112,1639,3.65695,-14.4875
-105,-615,0.958496,2.45398,0,0,0,0,0,0,0,-1,1119,1639,0.958452,-2.45398
-98,-615,-0.647705,2.12109,0,0,0,0,0,0,0,-1,1126,1639,-0.647756,-2.12105
-91,-615,-3.07983,2.97375,0,0,0,0,0,0,0,-1,1133,1639,-3.07989,-2.97376
-84,-615,-2.46509,0.703247,0,0,0,0,0,0,0,-1,1140,1639,-2.46505,-0.703273
-77,-615,-3.17859,1.23755,0,0,0,0,0,0,0,-1,1147,1639,-3.17865,-1.23752
-70,-615,-4.03943,1.43335,0,0,0,0,0,0,0,-1,1154,1639,-4.03942,-1.43339
-63,-615,-4.8877,1.45544,0,0,0,0,0,0,0,-1,1161,1639,-4.88766,-1.45549
-56,-615,0,0,0,0,0,0,0,0,0,-1,1168,1639,0,0
-49,-615,0,0,0,0,0,0,0,0,0,-1,1175,1639,0,0
-42,-615,0,0,0,0,0,0,0,0,0,-1,1182,1639,0,0
-35,-615,0,0,0,0,0,0,0,0,0,-1,1189,1639,0,0
-28,-615,0,0,0,0,0,0,0,0,0,-1,1196,1639,0,0
-21,-615,0,0,0,0,0,0,0,0,0,-1,1203,1639,0,0
-14,-615,0,0,0,0,0,0,0,0,0,-1,1210,1639,0,0
-7,-615,0,0,0,0,0,0,0,0,0,-1,1217,1639,0,0
0,-615,0,0,0,0,0,0,0,0,0,-1,1224,1639,0,0
7,-615,0,0,0,0,0,0,0,0,0,-1,1231,1639,0,0
14,-615,0,0,0,0,0,0,0,0,0,-1,1238,1639,0,0
21,-615,0,0,0,0,0,0,0,0,0,-1,1245,1639,0,0
28,-615,0,0,0,0,0,0,0,0,0,-1,1252,1639,0,0
35,-615,0,0,0,0,0,0,0,0,0,-1,1259,1639,0,0
42,-615,0,0,0,0,0,0,0,0,0,-1,1266,1639,0,0
49,-615,0,0,0,0,0,0,0,0,0,-1,1273,1639,0,0
56,-615,0,0,0,0,0,0,0,0,0,-1,1280,1639,0,0
63,-615,0,0,0,0,0,0,0,0,0,-1,1287,1639,0,0
70,-615,0,0,0,0,0,0,0,0,0,-1,1294,1639,0,0
77,-615,0,0,0,0,0,0,0,0,0,-1,1301,1639,0,0
84,-615,0,0,0,0,0,0,0,0,0,-1,1308,1639,0,0
91,-615,0,0,0,0,0,0,0,0,0,-1,1315,1639,0,0
98,-615,0,0,0,0,0,0,0,0,0,-1,1322,1639,0,0
105,-615,0,0,0,0,0,0,0,0,0,-1,1329,1639,0,0
112,-615,0,0,0,0,0,0,0,0,0,-1,1336,1639,0,0
119,-615,0,0,0,0,0,0,0,0,0,-1,1343,1639,0,0
126,-615,0,0,0,0,0,0,0,0,0,-1,1350,1639,0,0
133,-615,0,0,0,0,0,0,0,0,0,-1,1357,1639,0,0
140,-615,0,0,0,0,0,0,0,0,0,-1,1364,1639,0,0
147,-615,0,0,0,0,0,0,0,0,0,-1,1371,1639,0,0
154,-615,0,0,0,0,0,0,0,0,0,-1,1378,1639,0,0
161,-615,0,0,0,0,0,0,0,0,0,-1,1385,1639,0,0
168,-615,0,0,0,0,0,0,0,0,0,-1,1392,1639,0,0
175,-615,5.39648,-2.00879,0,0,0,0,0,0,0,-1,1399,1639,5.3965,2.00881
182,-615,5.65393,-1.51025,0,0,0,0,0,0,0,-1,1406,1639,5.65388,1.51028
189,-615,5.58972,-1.35608,0,0,0,0,0,0,0,-1,1413,1639,5.58967,1.35607
196,-615,5.49915,-0.693604,0,0,0,0,0,0,0,-1,1420,1639,5.4991,0.693602
203,-615,5.33411,-0.226685,0,0,0,0,0,0,0,-1,1427,1639,5.33414,0.226689
210,-615,5.60278,0.108276,0,0,0,0,0,0,0,-1,1434,1639,5.60284,-0.10831
217,-615,6.26331,-0.307373,0,0,0,0,0,0,0,-1,1441,1639,6.26331,0.307372
224,-615,5.45422,-0.333984,0,0,0,0,0,0,0,-1,1448,1639,5.45422,0.333992
231,-615,4.92542,1.80298,0,0,0,0,0,0,0,-1,1455,1639,4.92537,-1.80297
238,-615,4.76355,1.96729,0,0,0,0,0,0,0,-1,1462,1639,4.76357,-1.96734
245,-615,4.08643,3.15906,0,0,0,0,0,0,0,-1,1469,1639,4.08638,-3.159
252,-615,6.37805,3.73889,0,0,0,0,0,0,0,-1,1476,1639,6.37806,-3.73891
259,-615,8.35974,3.16443,0,0,0,0,0,0,0,-1,1483,1639,8.35975,-3.16444
266,-615,10.3414,2.58997,0,0,0,0,0,0,0,-1,1490,1639,10.3414,-2.58996
273,-615,6.57043,1.84766,0,0,0,0,0,0,0,-1,1497,1639,6.5704,-1.84771
280,-615,7.10449,3.23438,0,0,0,0,0,0,0,-1,1504,1639,7.10447,-3.23435
287,-615,7.35779,4.68542,0,0,0,0,0,0,0,-1,1511,1639,7.35776,-4.68546
294,-615,7.63733,6.29114,0,0,0,0,0,0,0,-1,1518,1639,7.63735,-6.29109
301,-615,8.47925,11.452,0,0,0,0,0,0,0,-1,1525,1639,8.47922,-11.452
308,-615,6.8114,10.9059,0,0,0,0,0,0,0,-1,1532,1639,6.81137,-10.9058
315,-615,5.1427,14.7251,0,0,0,0,0,0,0,-1,1539,1639,5.14269,-14.7251
322,-615,7.17981,17.6864,0,0,0,0,0,0,0,-1,1546,1639,7.17985,-17.6864
329,-615,7.62134,20.4354,0,0,0,0,0,0,0,-1,1553,1639,7.62139,-20.4354
336,-615,6.45007,14.1138,0,0,0,0,0,0,0,-1,1560,1639,6.45011,-14.1138
343,-615,2.40491,6.50134,0,0,0,0,0,0,0,-1,1567,1639,2.40489,-6.50137
350,-615,14.1544,40.0031,0,0,0,0,0,0,0,-1,1574,1639,14.1545,-40.0031
357,-615,14.0801,39.1757,0,0,0,0,0,0,0,-1,1581,1639,14.08,-39.1757
364,-615,13.8551,38.7102,0,0,0,0,0,0,0,-1,1588,1639,13.8551,-38.7102
371,-615,14.136,38.0437,0.00963312,0.019871,-0.0102065,0.0261702,0.00333386,-1.01784,0.0164486,0.0421017,1595,1639,14.136,-38.0437
378,-615,14.354,37.15,0.00784078,0.0182738,-0.00842715,0.0229683,0.00314625,-1.06254,0.0143787,0.0199628,1602,1639,14.354,-37.1501
385,-615,14.3606,36.6045,0.00620856,0.0158122,-0.00672094,0.0192704,0.00275031,-1.09558,0.0120354,0.0124775,1609,1639,14.3606,-36.6044
392,-615,14.4005,36.1155,0.00482258,0.013687,-0.00528903,0.0161554,0.0023542,-1.13414,0.0100776,0.010811,1616,1639,14.4005,-36.1155
399,-615,14.4084,35.6412,0.00356116,0.0118155,-0.00405292,0.0134728,0.0019039,-1.18264,0.0084193,0.011205,1623,1639,14.4085,-35.6412
406,-615,14.408,35.1929,0.00243771,0.0101238,-0.00306529,0.0111965,0.00136496,-1.23415,0.00705352,0.0106492,1630,1639,14.4079,-35.1929
413,-615,14.3928,34.7511,0.00153856,0.00872357,-0.00239999,0.00945148,0.000810644,-1.27631,0.00604891,0.0121182,1637,1639,14.3928,-34.7511
420,-615,14.3793,34.2996,0.000884418,0.00731704,-0.00193059,0.00785197,0.000349486,-1.3005,0.00512213,0.0133545,1644,1639,14.3793,-34.2996
427,-615,14.3734,33.8121,0.000328498,0.00591625,-0.00147572,0.00628204,-3.72927e-05,-1.32782,0.00420051,0.0146164,1651,1639,14.3734,-33.8121
434,-615,14.3706,33.314,1.57833e-05,0.00467449,-0.00130216,0.00501375,-0.00032348,-1.31592,0.00345538,0.0138999,1658,1639,14.3706,-33.3139
441,-615,14.3696,32.8267,-3.09839e-05,0.00352087,-0.0012617,0.00392343,-0.000433544,-1.26195,0.00277146,0.014322,1665,1639,14.3696,-32.8266
448,-615,14.3669,32.3531,-1.21523e-05,0.00228867,-0.00119147,0.00279448,-0.000517957,-1.16933,0.00205748,0.0154482,1672,1639,14.3669,-32.3531
455,-615,14.3601,31.8553,1.52261e-05,0.00100667,-0.00110115,0.00171853,-0.000696637,-0.996903,0.0014354,0.0142829,1679,1639,14.3601,-31.8553
462,-615,14.3209,31.3337,2.66427e-05,-0.000487273,-0.00088668,0.000692847,-0.00115348,-0.644363,0.00107698,0.0148317,1686,1639,14.3209,-31.3337
469,-615,14.2847,30.8258,-5.8018e-05,-0.00191525,-0.000555832,9.56212e-05,-0.00206889,-0.269679,0.00141221,0.0129414,1693,1639,14.2846,-30.8259
476,-615,14.2531,30.2942,-0.000221752,-0.00324106,-6.97346e-05,-0.000220142,-0.00324267,-0.0230798,0.00209227,0.0118664,1700,1639,14.253,-30.2942
483,-615,14.2793,29.7117,-0.000678559,-0.00403463,0.000410699,-0.000629031,-0.00408416,0.120016,0.0025392,0.0230801,1707,1639,14.2793,-29.7116
490,-615,14.2411,29.2316,-0.00132516,-0.00517161,0.000993433,-0.00108374,-0.00541303,0.238398,0.00330717,0.033552,1714,1639,14.2411,-29.2316
497,-615,14.182,28.8511,-0.00166537,-0.00634692,0.00133562,-0.00131113,-0.00670117,0.259257,0.00410087,0.0412548,1721,1639,14.182,-28.851
504,-615,13.9263,28.2905,0,0,0,0,0,0,0,-1,1728,1639,13.9263,-28.2905
511,-615,14.3048,28.0236,0,0,0,0,0,0,0,-1,1735,1639,14.3048,-28.0236
518,-615,13.2416,9.81812,0,0,0,0,0,0,0,-1,1742,1639,13.2416,-9.81813
525,-615,4.37524,3.90491,0,0,0,0,0,0,0,-1,1749,1639,4.37518,-3.90495
532,-615,7.3645,0.848145,0,0,0,0,0,0,0,-1,1756,1639,7.36451,-0.848093
539,-615,12.8112,-0.0476074,0,0,0,0,0,0,0,-1,1763,1639,12.8111,0.0475553
546,-615,8.33813,2.94556,0,0,0,0,0,0,0,-1,1770,1639,8.33813,-2.9455
553,-615,5.82532,-2.04199,0,0,0,0,0,0,0,-1,1777,1639,5.82534,2.04195
560,-615,0,0,0,0,0,0,0,0,0,-1,1784,1639,0,0
567,-615,0,0,0,0,0,0,0,0,0,-1,1791,1639,0,0
574,-615,0,0,0,0,0,0,0,0,0,-1,1798,1639,0,0
581,-615,0,0,0,0,0,0,0,0,0,-1,1805,1639,0,0
588,-615,0,0,0,0,0,0,0,0,0,-1,1812,1639,0,0
595,-615,0,0,0,0,0,0,0,0,0,-1,1819,1639,0,0
602,-615,0,0,0,0,0,0,0,0,0,-1,1826,1639,0,0
609,-615,0,0,0,0,0,0,0,0,0,-1,1833,1639,0,0
616,-615,0,0,0,0,0,0,0,0,0,-1,1840,1639,0,0
623,-615,0,0,0,0,0,0,0,0,0,-1,1847,1639,0,0
630,-615,0,0,0,0,0,0,0,0,0,-1,1854,1639,0,0
637,-615,0,0,0,0,0,0,0,0,0,-1,1861,1639,0,0
644,-615,0,0,0,0,0,0,0,0,0,-1,1868,1639,0,0
651,-615,0,0,0,0,0,0,0,0,0,-1,1875,1639,0,0
658,-615,0,0,0,0,0,0,0,0,0,-1,1882,1639,0,0
665,-615,0,0,0,0,0,0,0,0,0,-1,1889,1639,0,0
672,-615,0,0,0,0,0,0,0,0,0,-1,1896,1639,0,0
679,-615,0,0,0,0,0,0,0,0,0,-1,1903,1639,0,0
686,-615,0,0,0,0,0,0,0,0,0,-1,1910,1639,0,0
693,-615,0,0,0,0,0,0,0,0,0,-1,1917,1639,0,0
700,-615,0,0,0,0,0,0,0,0,0,-1,1924,1639,0,0
707,-615,0,0,0,0,0,0,0,0,0,-1,1931,1639,0,0
714,-615,0,0,0,0,0,0,0,0,0,-1,1938,1639,0,0
721,-615,0,0,0,0,0,0,0,0,0,-1,1945,1639,0,0
728,-615,0,0,0,0,0,0,0,0,0,-1,1952,1639,0,0
735,-615,0,0,0,0,0,0,0,0,0,-1,1959,1639,0,0
742,-615,0,0,0,0,0,0,0,0,0,-1,1966,1639,0,0
749,-615,0,0,0,0,0,0,0,0,0,-1,1973,1639,0,0
756,-615,0,0,0,0,0,0,0,0,0,-1,1980,1639,0,0
763,-615,0,0,0,0,0,0,0,0,0,-1,1987,1639,0,0
770,-615,0,0,0,0,0,0,0,0,0,-1,1994,1639,0,0
777,-615,0,0,0,0,0,0,0,0,0,-1,2001,1639,0,0
784,-615,0,0,0,0,0,0,0,0,0,-1,2008,1639,0,0
791,-615,0,0,0,0,0,0,0,0,0,-1,2015,1639,0,0
798,-615,0,0,0,0,0,0,0,0,0,-1,2022,1639,0,0
805,-615,0,0,0,0,0,0,0,0,0,-1,2029,1639,0,0
812,-615,0,0,0,0,0,0,0,0,0,-1,2036,1639,0,0
-700,-622,0,0,0,0,0,0,0,0,0,-1,524,1646,0,0
-693,-622,0,0,0,0,0,0,0,0,0,-1,531,1646,0,0
-686,-622,0,0,0,0,0,0,0,0,0,-1,538,1646,0,0
-679,-622,0,0,0,0,0,0,0,0,0,-1,545,1646,0,0
-672,-622,0,0,0,0,0,0,0,0,0,-1,552,1646,0,0
-665,-622,0,0,0,0,0,0,0,0,0,-1,559,1646,0,0
-658,-622,0,0,0,0,0,0,0,0,0,-1,566,1646,0,0
-651,-622,0,0,0,0,0,0,0,0,0,-1,573,1646,0,0
-644,-622,0,0,0,0,0,0,0,0,0,-1,580,1646,0,0
-637,-622,0,0,0,0,0,0,0,0,0,-1,587,1646,0,0
-630,-622,0,0,0,0,0,0,0,0,0,-1,594,1646,0,0
-623,-622,0,0,0,0,0,0,0,0,0,-1,601,1646,0,0
-616,-622,0,0,0,0,0,0,0,0,0,-1,608,1646,0,0
-609,-622,0,0,0,0,0,0,0,0,0,-1,615,1646,0,0
-602,-622,0,0,0,0,0,0,0,0,0,-1,622,1646,0,0
-595,-622,0,0,0,0,0,0,0,0,0,-1,629,1646,0,0
-588,-622,0,0,0,0,0,0,0,0,0,-1,636,1646,0,0
-581,-622,0,0,0,0,0,0,0,0,0,-1,643,1646,0,0
-574,-622,0,0,0,0,0,0,0,0,0,-1,650,1646,0,0
-567,-622,0,0,0,0,0,0,0,0,0,-1,657,1646,0,0
-560,-622,0,0,0,0,0,0,0,0,0,-1,664,1646,0,0
-553,-622,0,0,0,0,0,0,0,0,0,-1,671,1646,0,0
-546,-622,0,0,0,0,0,0,0,0,0,-1,678,1646,0,0
-539,-622,0,0,0,0,0,0,0,0,0,-1,685,1646,0,0
-532,-622,0,0,0,0,0,0,0,0,0,-1,692,1646,0,0
-525,-622,0,0,0,0,0,0,0,0,0,-1,699,1646,0,0
-518,-622,0,0,0,0,0,0,0,0,0,-1,706,1646,0,0
-511,-622,0,0,0,0,0,0,0,0,0,-1,713,1646,0,0
-504,-622,0,0,0,0,0,0,0,0,0,-1,720,1646,0,0
-497,-622,0,0,0,0,0,0,0,0,0,-1,727,1646,0,0
-490,-622,0,0,0,0,0,0,0,0,0,-1,734,1646,0,0
-483,-622,0,0,0,0,0,0,0,0,0,-1,741,1646,0,0
-476,-622,0,0,0,0,0,0,0,0,0,-1,748,1646,0,0
-469,-622,0,0,0,0,0,0,0,0,0,-1,755,1646,0,0
-462,-622,0,0,0,0,0,0,0,0,0,-1,762,1646,0,0
-455,-622,0,0,0,0,0,0,0,0,0,-1,769,1646,0,0
-448,-622,0,0,0,0,0,0,0,0,0,-1,776,1646,0,0
-441,-622,0,0,0,0,0,0,0,0,0,-1,783,1646,0,0
-434,-622,0,0,0,0,0,0,0,0,0,-1,790,1646,0,0
-427,-622,-7.62891,3.48096,0,0,0,0,0,0,0,-1,797,1646,-7.62892,-3.48092
-420,-622,-9.35791,1.77185,0,0,0,0,0,0,0,-1,804,1646,-9.35789,-1.77183
-413,-622,-8.46075,1.96777,0,0,0,0,0,0,0,-1,811,1646,-8.46074,-1.96774
-406,-622,-4.44318,2.16858,0,0,0,0,0,0,0,-1,818,1646,-4.44315,-2.16859
-399,-622,-7.06976,1.51001,0,0,0,0,0,0,0,-1,825,1646,-7.06976,-1.51005
-392,-622,3.89551,5.85376,0,0,0,0,0,0,0,-1,832,1646,3.8955,-5.85379
-385,-622,2.00543,14.0448,0,0,0,0,0,0,0,-1,839,1646,2.00544,-14.0448
-378,-622,1.49036,15.3436,0,0,0,0,0,0,0,-1,846,1646,1.49033,-15.3436
-371,-622,3.23883,20.4496,0,0,0,0,0,0,0,-1,853,1646,3.23886,-20.4496
-364,-622,3.29047,28.0132,0,0,0,0,0,0,0,-1,860,1646,3.29044,-28.0132
-357,-622,3.52917,28.6792,0,0,0,0,0,0,0,-1,867,1646,3.52916,-28.6792
-350,-622,3.47815,29.2709,-0.0022609,0.000798788,0.00034752,0.000837763,-0.00229987,1.45911,0.00187593,0.0488181,874,1646,3.47817,-29.2708
-343,-622,3.38745,29.7559,-0.00156912,0.00149955,0.000473846,0.00157105,-0.00164062,1.42103,0.00185441,0.0252875,881,1646,3.38743,-29.7559
-336,-622,3.37982,30.2782,-0.00105628,0.0018484,0.000520028,0.00193869,-0.00114658,1.39888,0.00180074,0.0103077,888,1646,3.37979,-30.2782
-329,-622,3.34601,30.8066,-0.000696188,0.00221771,0.000538724,0.00231412,-0.000792598,1.39371,0.00186399,0.00916392,895,1646,3.346,-30.8067
-322,-622,3.32086,31.3588,-0.000340781,0.00268768,0.00074364,0.00286042,-0.000513528,1.34254,0.00209917,0.0113198,902,1646,3.32085,-31.3587
-315,-622,3.28943,31.8977,3.91701e-05,0.00310025,0.00100645,0.00340151,-0.000262092,1.27995,0.00235989,0.0154544,909,1646,3.2894,-31.8978
-308,-622,3.26178,32.4138,0.000584762,0.00359948,0.001344,0.00411164,7.26015e-05,1.20671,0.00271722,0.0154133,916,1646,3.26177,-32.4138
-301,-622,3.26868,32.9188,0.00130159,0.00432878,0.00186648,0.00521825,0.000412122,1.12609,0.00334992,0.0142843,923,1646,3.26868,-32.9188
-294,-622,3.24927,33.4381,0.00215402,0.00517972,0.00256015,0.0066406,0.000693143,1.05226,0.00421506,0.0106184,930,1646,3.24924,-33.4381
-287,-622,3.22333,33.9393,0.00300976,0.0062702,0.00324951,0.00827549,0.00100447,1.01789,0.00521452,0.00821582,937,1646,3.22333,-33.9394
-280,-622,3.20349,34.4247,0.00403039,0.00734488,0.00404146,0.0100557,0.00131958,0.979972,0.00631009,0.00951246,944,1646,3.20352,-34.4247
-273,-622,3.20465,34.8865,0.0051288,0.00829621,0.00482694,0.0117926,0.0016324,0.943914,0.00737805,0.0143264,951,1646,3.20462,-34.8865
-266,-622,3.18481,35.3741,0.00619639,0.0093173,0.00557721,0.0135482,0.00196544,0.921806,0.00845352,0.0138864,958,1646,3.18479,-35.3741
-259,-622,3.19348,35.9008,0.0072615,0.0104295,0.00626771,0.0153103,0.00238075,0.909169,0.0095131,0.0126568,965,1646,3.1935,-35.9007
-252,-622,3.19244,36.3715,0.00826086,0.0114151,0.00688489,0.0169012,0.00277477,0.897991,0.0104659,0.0136107,972,1646,3.19245,-36.3714
-245,-622,3.24152,36.8403,0.00903062,0.0121723,0.00730274,0.0180712,0.00313168,0.891336,0.0111512,0.0120216,979,1646,3.24149,-36.8403
-238,-622,3.24561,37.3152,0.00981382,0.0124519,0.00745026,0.018699,0.00356674,0.873014,0.0114636,0.0161214,986,1646,3.24559,-37.3152
-231,-622,3.32843,37.901,0.0105391,0.0126423,0.0075283,0.0191921,0.00398928,0.854792,0.011694,0.0298474,993,1646,3.32842,-37.9011
-224,-622,3.42401,38.2244,0.0110269,0.0120323,0.00732285,0.0188697,0.00418953,0.819666,0.0114419,0.0451105,1000,1646,3.42401,-38.2243
-217,-622,3.51239,38.5791,0,0,0,0,0,0,0,-1,1007,1646,3.51238,-38.5791
-210,-622,3.87927,28.0903,0,0,0,0,0,0,0,-1,1014,1646,3.87925,-28.0903
-203,-622,4.21375,20.9574,0,0,0,0,0,0,0,-1,1021,1646,4.21375,-20.9574
-196,-622,4.18518,21.2491,0,0,0,0,0,0,0,-1,1028,1646,4.18521,-21.2491
-189,-622,4.98254,25.8979,0,0,0,0,0,0,0,-1,1035,1646,4.98255,-25.8979
-182,-622,2.21411,20.6752,0,0,0,0,0,0,0,-1,1042,1646,2.21416,-20.6751
-175,-622,3.69177,41.6937,0,0,0,0,0,0,0,-1,1049,1646,3.69179,-41.6937
-168,-622,5.23767,42.087,0,0,0,0,0,0,0,-1,1056,1646,5.23764,-42.0871
-161,-622,1.71277,40.5212,0,0,0,0,0,0,0,-1,1063,1646,1.71283,-40.5212
-154,-622,1.46851,40.5724,0,0,0,0,0,0,0,-1,1070,1646,1.46856,-40.5724
-147,-622,1.37341,40.7098,0,0,0,0,0,0,0,-1,1077,1646,1.37345,-40.7098
-140,-622,3.27515,16.0353,0,0,0,0,0,0,0,-1,1084,1646,3.27519,-16.0353
-133,-622,3.09644,17.677,0,0,0,0,0,0,0,-1,1091,1646,3.09638,-17.677
-126,-622,3.5061,19.5251,0,0,0,0,0,0,0,-1,1098,1646,3.50616,-19.5252
-119,-622,4.06384,13.1715,0,0,0,0,0,0,0,-1,1105,1646,4.06379,-13.1716
-112,-622,4.33276,14.6605,0,0,0,0,0,0,0,-1,1112,1646,4.33281,-14.6605
-105,-622,0.306519,4.38159,0,0,0,0,0,0,0,-1,1119,1646,0.306536,-4.38159
-98,-622,-0.510376,3.5033,0,0,0,0,0,0,0,-1,1126,1646,-0.510393,-3.50324
-91,-622,-1.146,0.975952,0,0,0,0,0,0,0,-1,1133,1646,-1.14599,-0.97597
-84,-622,-2.04895,1.31787,0,0,0,0,0,0,0,-1,1140,1646,-2.0489,-1.31781
-77,-622,-1.80627,0.332275,0,0,0,0,0,0,0,-1,1147,1646,-1.80622,-0.33223
-70,-622,-3.65588,2.28149,0,0,0,0,0,0,0,-1,1154,1646,-3.65589,-2.28155
-63,-622,-2.49683,1.27087,0,0,0,0,0,0,0,-1,1161,1646,-2.49679,-1.27093
-56,-622,-2.44238,-0.575562,0,0,0,0,0,0,0,-1,1168,1646,-2.44242,0.575508
-49,-622,-2.41089,1.38818,0,0,0,0,0,0,0,-1,1175,1646,-2.41088,-1.38815
-42,-622,-2.71497,2.85242,0,0,0,0,0,0,0,-1,1182,1646,-2.71491,-2.85247
-35,-622,-3.0177,4.25842,0,0,0,0,0,0,0,-1,1189,1646,-3.01773,-4.25838
-28,-622,-0.896606,0.678833,0,0,0,0,0,0,0,-1,1196,1646,-0.89661,-0.678835
-21,-622,16.4141,36.2849,0,0,0,0,0,0,0,-1,1203,1646,16.4141,-36.285
-14,-622,12.7726,35.3608,0,0,0,0,0,0,0,-1,1210,1646,12.7726,-35.3609
-7,-622,5.90784,51.5118,0,0,0,0,0,0,0,-1,1217,1646,5.90783,-51.5119
0,-622,0,0,0,0,0,0,0,0,0,-1,1224,1646,0,0
7,-622,0,0,0,0,0,0,0,0,0,-1,1231,1646,0,0
14,-622,0,0,0,0,0,0,0,0,0,-1,1238,1646,0,0
21,-622,0,0,0,0,0,0,0,0,0,-1,1245,1646,0,0
28,-622,0,0,0,0,0,0,0,0,0,-1,1252,1646,0,0
35,-622,0,0,0,0,0,0,0,0,0,-1,1259,1646,0,0
42,-622,0,0,0,0,0,0,0,0,0,-1,1266,1646,0,0
49,-622,0,0,0,0,0,0,0,0,0,-1,1273,1646,0,0
56,-622,0,0,0,0,0,0,0,0,0,-1,1280,1646,0,0
63,-622,0,0,0,0,0,0,0,0,0,-1,1287,1646,0,0
70,-622,0,0,0,0,0,0,0,0,0,-1,1294,1646,0,0
77,-622,0,0,0,0,0,0,0,0,0,-1,1301,1646,0,0
84,-622,0,0,0,0,0,0,0,0,0,-1,1308,1646,0,0
91,-622,0,0,0,0,0,0,0,0,0,-1,1315,1646,0,0
98,-622,0,0,0,0,0,0,0,0,0,-1,1322,1646,0,0
105,-622,0,0,0,0,0,0,0,0,0,-1,1329,1646,0,0
112,-622,0,0,0,0,0,0,0,0,0,-1,1336,1646,0,0
119,-622,0,0,0,0,0,0,0,0,0,-1,1343,1646,0,0
126,-622,6.56348,44.6237,0,0,0,0,0,0,0,-1,1350,1646,6.56343,-44.6237
133,-622,12.1774,36.4149,0,0,0,0,0,0,0,-1,1357,1646,12.1773,-36.415
140,-622,12.8105,35.8405,0,0,0,0,0,0,0,-1,1364,1646,12.8105,-35.8405
147,-622,13.4437,35.266,0,0,0,0,0,0,0,-1,1371,1646,13.4437,-35.266
154,-622,18.7136,39.5732,0,0,0,0,0,0,0,-1,1378,1646,18.7137,-39.5732
161,-622,10.6884,6.46448,0,0,0,0,0,0,0,-1,1385,1646,10.6883,-6.46442
168,-622,12.2402,5.18091,0,0,0,0,0,0,0,-1,1392,1646,12.2403,-5.1809
175,-622,5.64355,-1.77075,0,0,0,0,0,0,0,-1,1399,1646,5.64351,1.77077
182,-622,5.88586,-1.32251,0,0,0,0,0,0,0,-1,1406,1646,5.88587,1.32256
189,-622,5.97986,-1.18005,0,0,0,0,0,0,0,-1,1413,1646,5.97986,1.18003
196,-622,5.85022,-0.244507,0,0,0,0,0,0,0,-1,1420,1646,5.85026,0.244478
203,-622,5.25159,0.138794,0,0,0,0,0,0,0,-1,1427,1646,5.25162,-0.138822
210,-622,6.66833,0.0397949,0,0,0,0,0,0,0,-1,1434,1646,6.6684,-0.0398278
217,-622,6.12061,0.0506592,0,0,0,0,0,0,0,-1,1441,1646,6.12058,-0.0507181
224,-622,5.57275,0.0616455,0,0,0,0,0,0,0,-1,1448,1646,5.57276,-0.0616084
231,-622,5.31348,1.3949,0,0,0,0,0,0,0,-1,1455,1646,5.31342,-1.39495
238,-622,3.76477,2.90686,0,0,0,0,0,0,0,-1,1462,1646,3.7648,-2.90686
245,-622,5.13794,2.67993,0,0,0,0,0,0,0,-1,1469,1646,5.13796,-2.67992
252,-622,6.66528,2.53992,0,0,0,0,0,0,0,-1,1476,1646,6.66522,-2.53991
259,-622,8.93787,3.31458,0,0,0,0,0,0,0,-1,1483,1646,8.93791,-3.31454
266,-622,5.72644,3.11926,0,0,0,0,0,0,0,-1,1490,1646,5.72647,-3.1192
273,-622,7.28076,3.61218,0,0,0,0,0,0,0,-1,1497,1646,7.28071,-3.61212
280,-622,8.43127,4.4447,0,0,0,0,0,0,0,-1,1504,1646,8.43123,-4.44467
287,-622,8.60315,5.94617,0,0,0,0,0,0,0,-1,1511,1646,8.60319,-5.94622
294,-622,7.62756,11.5143,0,0,0,0,0,0,0,-1,1518,1646,7.62762,-11.5143
301,-622,7.36548,11.6569,0,0,0,0,0,0,0,-1,1525,1646,7.36549,-11.6569
308,-622,7.10339,11.7994,0,0,0,0,0,0,0,-1,1532,1646,7.10335,-11.7995
315,-622,8.28687,16.5842,0,0,0,0,0,0,0,-1,1539,1646,8.28689,-16.5843
322,-622,7.43689,20.5786,0,0,0,0,0,0,0,-1,1546,1646,7.43685,-20.5786
329,-622,9.76477,26.4202,0,0,0,0,0,0,0,-1,1553,1646,9.7648,-26.4202
336,-622,10.4526,28.8552,0,0,0,0,0,0,0,-1,1560,1646,10.4526,-28.8552
343,-622,13.4966,40.5269,0,0,0,0,0,0,0,-1,1567,1646,13.4966,-40.5268
350,-622,13.7227,39.593,0,0,0,0,0,0,0,-1,1574,1646,13.7226,-39.593
357,-622,13.8022,38.798,0,0,0,0,0,0,0,-1,1581,1646,13.8022,-38.798
364,-622,13.8934,38.2418,0.00854448,0.0176974,-0.00883615,0.0230719,0.00316998,-1.02434,0.0144411,0.0366637,1588,1646,13.8934,-38.2418
371,-622,13.9288,37.5962,0.00760047,0.0153782,-0.00772092,0.0201343,0.00284436,-1.01869,0.0125824,0.0223421,1595,1646,13.9288,-37.5962
378,-622,13.9241,37.0817,0.00634472,0.014005,-0.00648266,0.0177045,0.00264527,-1.05222,0.0110275,0.0115307,1602,1646,13.9241,-37.0816
385,-622,13.9143,36.5972,0.00518505,0.0119955,-0.00525785,0.0148545,0.00232606,-1.07276,0.00922593,0.00989077,1609,1646,13.9143,-36.5971
392,-622,13.9098,36.1296,0.00414853,0.0102036,-0.00418633,0.0123424,0.0020097,-1.09846,0.00764692,0.0111326,1616,1646,13.9097,-36.1296
399,-622,13.9102,35.6726,0.00314862,0.00854061,-0.00323281,0.0100541,0.00163516,-1.13295,0.0062296,0.0109912,1623,1646,13.9101,-35.6726
406,-622,13.9099,35.196,0.00222858,0.00705065,-0.00243907,0.00806922,0.00121002,-1.17521,0.00502494,0.0133057,1630,1646,13.9099,-35.196
413,-622,13.9121,34.7334,0.00146527,0.00578349,-0.00188147,0.00648824,0.000760521,-1.2124,0.00409559,0.0159073,1637,1646,13.9121,-34.7334
420,-622,13.9086,34.2885,0.00087776,0.00454166,-0.00148818,0.00506995,0.000349472,-1.22968,0.00326971,0.0163563,1644,1646,13.9086,-34.2884
427,-622,13.9124,33.8137,0.000390801,0.00332071,-0.00112797,0.00370465,6.85977e-06,-1.24272,0.00246749,0.0135371,1651,1646,13.9124,-33.8137
434,-622,13.9113,33.3165,6.83352e-05,0.00226836,-0.001003,0.00265699,-0.000320289,-1.20115,0.00188717,0.0142284,1658,1646,13.9113,-33.3166
441,-622,13.8922,32.84,-3.67654e-05,0.00135217,-0.00100034,0.00187547,-0.000560067,-1.08882,0.00147294,0.0145392,1665,1646,13.8922,-32.84
448,-622,13.8596,32.379,-7.8375e-05,0.000356447,-0.0009699,0.001133,-0.000854932,-0.895655,0.00115147,0.014217,1672,1646,13.8596,-32.3791
455,-622,13.8324,31.856,-7.44683e-05,-0.000664471,-0.000913623,0.000590599,-0.00132954,-0.629236,0.00113563,0.016219,1679,1646,13.8324,-31.8559
462,-622,13.814,31.3407,-9.14937e-05,-0.0019434,-0.000733526,0.000163845,-0.00219874,-0.334979,0.00152338,0.0183371,1686,1646,13.8139,-31.3407
469,-622,13.7842,30.843,-0.000199659,-0.00311916,-0.000465868,-0.000127123,-0.0031917,-0.154462,0.00208672,0.0199373,1693,1646,13.7841,-30.843
476,-622,13.8773,30.3336,-0.000334903,-0.00425269,-5.33911e-05,-0.000334175,-0.00425342,-0.0136245,0.00273104,0.0301963,1700,1646,13.8773,-30.3336
483,-622,13.7678,29.8997,-0.000799942,-0.00454586,0.000386736,-0.000760431,-0.00458537,0.101811,0.00283761,0.0478724,1707,1646,13.7678,-29.8997
490,-622,13.7706,29.3081,0,0,0,0,0,0,0,-1,1714,1646,13.7706,-29.3082
497,-622,13.7539,29.1578,0,0,0,0,0,0,0,-1,1721,1646,13.7539,-29.1578
504,-622,10.8306,19.8021,0,0,0,0,0,0,0,-1,1728,1646,10.8306,-19.8022
511,-622,5.29004,4.14587,0,0,0,0,0,0,0,-1,1735,1646,5.29008,-4.14589
518,-622,5.6001,1.55359,0,0,0,0,0,0,0,-1,1742,1646,5.60015,-1.5536
525,-622,5.83093,2.01807,0,0,0,0,0,0,0,-1,1749,1646,5.83097,-2.01802
532,-622,5.44202,0.57373,0,0,0,0,0,0,0,-1,1756,1646,5.44196,-0.573705
539,-622,9.32129,1.06116,0,0,0,0,0,0,0,-1,1763,1646,9.32131,-1.0612
546,-622,6.50977,-3.45618,0,0,0,0,0,0,0,-1,1770,1646,6.50981,3.4562
553,-622,0,0,0,0,0,0,0,0,0,-1,1777,1646,0,0
560,-622,0,0,0,0,0,0,0,0,0,-1,1784,1646,0,0
567,-622,0,0,0,0,0,0,0,0,0,-1,1791,1646,0,0
574,-622,0,0,0,0,0,0,0,0,0,-1,1798,1646,0,0
581,-622,0,0,0,0,0,0,0,0,0,-1,1805,1646,0,0
588,-622,0,0,0,0,0,0,0,0,0,-1,1812,1646,0,0
595,-622,0,0,0,0,0,0,0,0,0,-1,1819,1646,0,0
602,-622,0,0,0,0,0,0,0,0,0,-1,1826,1646,0,0
609,-622,0,0,0,0,0,0,0,0,0,-1,1833,1646,0,0
616,-622,0,0,0,0,0,0,0,0,0,-1,1840,1646,0,0
623,-622,0,0,0,0,0,0,0,0,0,-1,1847,1646,0,0
630,-622,0,0,0,0,0,0,0,0,0,-1,1854,1646,0,0
637,-622,0,0,0,0,0,0,0,0,0,-1,1861,1646,0,0
644,-622,0,0,0,0,0,0,0,0,0,-1,1868,1646,0,0
651,-622,0,0,0,0,0,0,0,0,0,-1,1875,1646,0,0
658,-622,0,0,0,0,0,0,0,0,0,-1,1882,1646,0,0
665,-622,0,0,0,0,0,0,0,0,0,-1,1889,1646,0,0
672,-622,0,0,0,0,0,0,0,0,0,-1,1896,1646,0,0
679,-622,0,0,0,0,0,0,0,0,0,-1,1903,1646,0,0
686,-622,0,0,0,0,0,0,0,0,0,-1,1910,1646,0,0
693,-622,0,0,0,0,0,0,0,0,0,-1,1917,1646,0,0
700,-622,0,0,0,0,0,0,0,0,0,-1,1924,1646,0,0
707,-622,0,0,0,0,0,0,0,0,0,-1,1931,1646,0,0
714,-622,0,0,0,0,0,0,0,0,0,-1,1938,1646,0,0
721,-622,0,0,0,0,0,0,0,0,0,-1,1945,1646,0,0
728,-622,0,0,0,0,0,0,0,0,0,-1,1952,1646,0,0
735,-622,0,0,0,0,0,0,0,0,0,-1,1959,1646,0,0
742,-622,0,0,0,0,0,0,0,0,0,-1,1966,1646,0,0
749,-622,0,0,0,0,0,0,0,0,0,-1,1973,1646,0,0
756,-622,0,0,0,0,0,0,0,0,0,-1,1980,1646,0,0
763,-622,0,0,0,0,0,0,0,0,0,-1,1987,1646,0,0
770,-622,0,0,0,0,0,0,0,0,0,-1,1994,1646,0,0
777,-622,0,0,0,0,0,0,0,0,0,-1,2001,1646,0,0
784,-622,0,0,0,0,0,0,0,0,0,-1,2008,1646,0,0
791,-622,0,0,0,0,0,0,0,0,0,-1,2015,1646,0,0
798,-622,0,0,0,0,0,0,0,0,0,-1,2022,1646,0,0
805,-622,0,0,0,0,0,0,0,0,0,-1,2029,1646,0,0
812,-622,0,0,0,0,0,0,0,0,0,-1,2036,1646,0,0
-700,-629,0,0,0,0,0,0,0,0,0,-1,524,1653,0,0
-693,-629,0,0,0,0,0,0,0,0,0,-1,531,1653,0,0
-686,-629,0,0,0,0,0,0,0,0,0,-1,538,1653,0,0
-679,-629,0,0,0,0,0,0,0,0,0,-1,545,1653,0,0
-672,-629,0,0,0,0,0,0,0,0,0,-1,552,1653,0,0
-665,-629,0,0,0,0,0,0,0,0,0,-1,559,1653,0,0
-658,-629,0,0,0,0,0,0,0,0,0,-1,566,1653,0,0
-651,-629,0,0,0,0,0,0,0,0,0,-1,573,1653,0,0
-644,-629,0,0,0,0,0,0,0,0,0,-1,580,1653,0,0
-637,-629,0,0,0,0,0,0,0,0,0,-1,587,1653,0,0
-630,-629,0,0,0,0,0,0,0,0,0,-1,594,1653,0,0
-623,-629,0,0,0,0,0,0,0,0,0,-1,601,1653,0,0
-616,-629,0,0,0,0,0,0,0,0,0,-1,608,1653,0,0
-609,-629,0,0,0,0,0,0,0,0,0,-1,615,1653,0,0
-602,-629,0,0,0,0,0,0,0,0,0,-1,622,1653,0,0
-595,-629,0,0,0,0,0,0,0,0,0,-1,629,1653,0,0
-588,-629,0,0,0,0,0,0,0,0,0,-1,636,1653,0,0
-581,-629,0,0,0,0,0,0,0,0,0,-1,643,1653,0,0
-574,-629,0,0,0,0,0,0,0,0,0,-1,650,1653,0,0
-567,-629,0,0,0,0,0,0,0,0,0,-1,657,1653,0,0
-560,-629,0,0,0,0,0,0,0,0,0,-1,664,1653,0,0
-553,-629,0,0,0,0,0,0,0,0,0,-1,671,1653,0,0
-546,-629,0,0,0,0,0,0,0,0,0,-1,678,1653,0,0
-539,-629,0,0,0,0,0,0,0,0,0,-1,685,1653,0,0
-532,-629,0,0,0,0,0,0,0,0,0,-1,692,1653,0,0
-525,-629,0,0,0,0,0,0,0,0,0,-1,699,1653,0,0
-518,-629,0,0,0,0,0,0,0,0,0,-1,706,1653,0,0
-511,-629,0,0,0,0,0,0,0,0,0,-1,713,1653,0,0
-504,-629,0,0,0,0,0,0,0,0,0,-1,720,1653,0,0
-497,-629,0,0,0,0,0,0,0,0,0,-1,727,1653,0,0
-490,-629,0,0,0,0,0,0,0,0,0,-1,734,1653,0,0
-483,-629,0,0,0,0,0,0,0,0,0,-1,741,1653,0,0
-476,-629,0,0,0,0,0,0,0,0,0,-1,748,1653,0,0
-469,-629,0,0,0,0,0,0,0,0,0,-1,755,1653,0,0
-462,-629,0,0,0,0,0,0,0,0,0,-1,762,1653,0,0
-455,-629,0,0,0,0,0,0,0,0,0,-1,769,1653,0,0
-448,-629,0,0,0,0,0,0,0,0,0,-1,776,1653,0,0
-441,-629,0,0,0,0,0,0,0,0,0,-1,783,1653,0,0
-434,-629,0,0,0,0,0,0,0,0,0,-1,790,1653,0,0
-427,-629,0,0,0,0,0,0,0,0,0,-1,797,1653,0,0
-420,-629,-3.87103,3.37634,0,0,0,0,0,0,0,-1,804,1653,-3.87101,-3.37633
-413,-629,-5.69751,1.33582,0,0,0,0,0,0,0,-1,811,1653,-5.69754,-1.3358
-406,-629,2.85406,6.01501,0,0,0,0,0,0,0,-1,818,1653,2.85405,-6.01507
-399,-629,-0.455627,10.8687,0,0,0,0,0,0,0,-1,825,1653,-0.455625,-10.8687
-392,-629,1.15369,11.1295,0,0,0,0,0,0,0,-1,832,1653,1.1537,-11.1295
-385,-629,1.81976,11.6935,0,0,0,0,0,0,0,-1,839,1653,1.81975,-11.6935
-378,-629,2.19452,14.7941,0,0,0,0,0,0,0,-1,846,1653,2.19451,-14.7941
-371,-629,3.60114,14.7299,0,0,0,0,0,0,0,-1,853,1653,3.60113,-14.7299
-364,-629,3.26898,21.0801,0,0,0,0,0,0,0,-1,860,1653,3.26895,-21.08
-357,-629,4.38782,16.3444,0,0,0,0,0,0,0,-1,867,1653,4.38783,-16.3443
-350,-629,4.05621,29.3824,0,0,0,0,0,0,0,-1,874,1653,4.05622,-29.3825
-343,-629,3.83252,29.8188,-0.00167578,0.00306175,0.000551379,0.00312507,-0.0017391,1.45645,0.00284608,0.0396532,881,1653,3.83255,-29.8188
-336,-629,3.85571,30.3066,-0.00146296,0.00321514,0.000449465,0.00325793,-0.00150576,1.47587,0.00281165,0.0197584,888,1653,3.8557,-30.3066
-329,-629,3.87653,30.8422,-0.00143147,0.0031272,0.000279152,0.00314423,-0.0014485,1.50986,0.00271119,0.0117266,895,1653,3.87652,-30.8422
-322,-629,3.85394,31.3744,-0.00131026,0.00320164,0.000334518,0.00322631,-0.00133493,1.49719,0.00270785,0.012087,902,1653,3.85396,-31.3744
-315,-629,3.80402,31.9065,-0.00114934,0.00310137,0.000421491,0.00314276,-0.00119073,1.47291,0.00258517,0.0158188,909,1653,3.80403,-31.9065
-308,-629,3.7829,32.4265,-0.000796638,0.00314042,0.000588347,0.00322646,-0.000882679,1.42558,0.00249774,0.013011,916,1653,3.78292,-32.4265
-301,-629,3.78729,32.9639,-0.00027768,0.00333998,0.000899091,0.00355111,-0.000488808,1.34015,0.00254603,0.0116665,923,1653,3.7873,-32.9639
-294,-629,3.76331,33.4663,0.000421598,0.00372198,0.00139433,0.00423218,-8.86011e-05,1.22002,0.00285145,0.0121391,930,1653,3.7633,-33.4663
-287,-629,3.73505,33.9462,0.00114577,0.00435631,0.00190089,0.00523906,0.000263011,1.13604,0.00340842,0.00959262,937,1653,3.73507,-33.9462
-280,-629,3.72131,34.4357,0.00203043,0.00500207,0.00250132,0.00642559,0.000606912,1.0534,0.00409643,0.0102212,944,1653,3.72131,-34.4357
-273,-629,3.69989,34.8961,0.00300105,0.00559298,0.0031056,0.00766218,0.000931857,0.983063,0.00482757,0.0136686,951,1653,3.69987,-34.8962
-266,-629,3.68188,35.3904,0.00399206,0.0062463,0.00370235,0.0089893,0.00124906,0.933158,0.00562295,0.0138649,958,1653,3.6819,-35.3904
-259,-629,3.68549,35.9199,0.00493973,0.00700764,0.00422946,0.0103277,0.00161968,0.905279,0.00641377,0.0150699,965,1653,3.68546,-35.9199
-252,-629,3.68433,36.3835,0.00579589,0.00787224,0.00468994,0.0116375,0.00203059,0.894323,0.00717788,0.0121999,972,1653,3.68435,-36.3835
-245,-629,3.69019,36.8497,0.00647923,0.00853484,0.00498477,0.0125967,0.00241741,0.887068,0.00771919,0.0089792,979,1653,3.6902,-36.8498
-238,-629,3.68201,37.3086,0.00715323,0.00882439,0.00508774,0.0131447,0.00283292,0.866789,0.00798807,0.0115082,986,1653,3.68199,-37.3086
-231,-629,3.65692,37.7629,0.00775131,0.00908006,0.0051481,0.0136065,0.00322489,0.849569,0.00820994,0.0181986,993,1653,3.65693,-37.763
-224,-629,3.7757,38.3798,0.0081696,0.00888135,0.00505038,0.0135884,0.00346257,0.820572,0.0081536,0.0233051,1000,1653,3.7757,-38.3798
-217,-629,3.72241,38.7401,0.00812522,0.00931779,0.00503523,0.0137919,0.00365109,0.844335,0.00825138,0.0385462,1007,1653,3.72242,-38.7401
-210,-629,3.92865,39.3021,0,0,0,0,0,0,0,-1,1014,1653,3.92862,-39.3021
-203,-629,3.76587,39.9546,0,0,0,0,0,0,0,-1,1021,1653,3.76584,-39.9545
-196,-629,4.16919,40.2772,0,0,0,0,0,0,0,-1,1028,1653,4.16913,-40.2773
-189,-629,4.06726,40.3914,0,0,0,0,0,0,0,-1,1035,1653,4.06721,-40.3913
-182,-629,4.11572,41.1437,0,0,0,0,0,0,0,-1,1042,1653,4.1157,-41.1437
-175,-629,4.1344,41.5802,0,0,0,0,0,0,0,-1,1049,1653,4.13443,-41.5802
-168,-629,3.0166,41.0138,0,0,0,0,0,0,0,-1,1056,1653,3.01664,-41.0138
-161,-629,2.69531,41.1014,0,0,0,0,0,0,0,-1,1063,1653,2.69535,-41.1014
-154,-629,2.41992,41.1425,-0.0130082,-0.0130697,-0.0313731,0.0183341,-0.0444121,-0.784908,0.0372548,0.0442453,1070,1653,2.41989,-41.1425
-147,-629,2.15466,41.2965,0,0,0,0,0,0,0,-1,1077,1653,2.15468,-41.2965
-140,-629,2.10181,41.6577,0,0,0,0,0,0,0,-1,1084,1653,2.10175,-41.6577
-133,-629,3.41248,17.6686,0,0,0,0,0,0,0,-1,1091,1653,3.41243,-17.6686
-126,-629,4.01025,19.5328,0,0,0,0,0,0,0,-1,1098,1653,4.01022,-19.5328
-119,-629,4.94177,13.5525,0,0,0,0,0,0,0,-1,1105,1653,4.94172,-13.5525
-112,-629,5.63123,15.9187,0,0,0,0,0,0,0,-1,1112,1653,5.63118,-15.9187
-105,-629,2.15881,4.38342,0,0,0,0,0,0,0,-1,1119,1653,2.15878,-4.38347
-98,-629,0.825806,4.19385,0,0,0,0,0,0,0,-1,1126,1653,0.825779,-4.1939
-91,-629,-0.452271,3.64465,0,0,0,0,0,0,0,-1,1133,1653,-0.452278,-3.6446
-84,-629,-2.6084,0.466797,0,0,0,0,0,0,0,-1,1140,1653,-2.6084,-0.466786
-77,-629,-3.50903,2.10706,0,0,0,0,0,0,0,-1,1147,1653,-3.509,-2.10707
-70,-629,-1.20886,2.52502,0,0,0,0,0,0,0,-1,1154,1653,-1.20886,-2.525
-63,-629,-0.960693,4.30212,0,0,0,0,0,0,0,-1,1161,1653,-0.960691,-4.30215
-56,-629,-1.31934,5.64343,0,0,0,0,0,0,0,-1,1168,1653,-1.31928,-5.6434
-49,-629,-2.15662,2.57458,0,0,0,0,0,0,0,-1,1175,1653,-2.15656,-2.57459
-42,-629,-2.46326,3.91467,0,0,0,0,0,0,0,-1,1182,1653,-2.4633,-3.91466
-35,-629,-2.67261,5.24292,0,0,0,0,0,0,0,-1,1189,1653,-2.67257,-5.24298
-28,-629,-0.402954,-0.866577,0,0,0,0,0,0,0,-1,1196,1653,-0.402943,0.866612
-21,-629,3.45508,27.0596,0,0,0,0,0,0,0,-1,1203,1653,3.45508,-27.0596
-14,-629,6.25012,50.6627,0,0,0,0,0,0,0,-1,1210,1653,6.25017,-50.6627
-7,-629,5.51685,51.4763,0,0,0,0,0,0,0,-1,1217,1653,5.51679,-51.4763
0,-629,10.939,43.2631,0,0,0,0,0,0,0,-1,1224,1653,10.939,-43.2631
7,-629,7.72839,52.1334,0,0,0,0,0,0,0,-1,1231,1653,7.72844,-52.1334
14,-629,9.65405,44.7677,0,0,0,0,0,0,0,-1,1238,1653,9.6541,-44.7677
21,-629,8.90625,45.5449,0,0,0,0,0,0,0,-1,1245,1653,8.9062,-45.5449
28,-629,5.32361,59.8409,0,0,0,0,0,0,0,-1,1252,1653,5.32356,-59.841
35,-629,5.34619,59.3015,0,0,0,0,0,0,0,-1,1259,1653,5.34617,-59.3015
42,-629,5.29431,58.7775,0,0,0,0,0,0,0,-1,1266,1653,5.29429,-58.7774
49,-629,5.9342,58.2935,0,0,0,0,0,0,0,-1,1273,1653,5.9342,-58.2934
56,-629,10.1191,56.8342,0,0,0,0,0,0,0,-1,1280,1653,10.1192,-56.8342
63,-629,9.85754,56.0695,0.0796018,0.0928648,-0.0228445,0.110021,0.0624457,-0.92666,0.0637137,0.0464581,1287,1653,9.8575,-56.0695
70,-629,9.755,55.5593,0.077715,0.0805606,-0.0374422,0.116607,0.0416686,-0.804389,0.0682304,0.047144,1294,1653,9.75495,-55.5594
77,-629,9.52722,55.2574,0.0817402,0.0701056,-0.0521581,0.128404,0.0234414,-0.729862,0.0789577,0.0490669,1301,1653,9.52718,-55.2574
84,-629,10.3738,53.0732,0.0853648,0.0568505,-0.0611418,0.13389,0.00832561,-0.670854,0.0866181,0.0445507,1308,1653,10.3738,-53.0732
91,-629,10.0797,51.9673,0.0931841,0.050022,-0.0682413,0.143175,3.06517e-05,-0.632251,0.0954401,0.0415409,1315,1653,10.0797,-51.9673
98,-629,10.5663,49.5715,0.103906,0.042428,-0.0748963,0.154126,-0.0077917,-0.590668,0.105444,0.0441322,1322,1653,10.5663,-49.5716
105,-629,10.9515,47.3739,0,0,0,0,0,0,0,-1,1329,1653,10.9516,-47.3739
112,-629,6.49011,44.2419,0,0,0,0,0,0,0,-1,1336,1653,6.49011,-44.2419
119,-629,6.15186,44.3528,0,0,0,0,0,0,0,-1,1343,1653,6.15183,-44.3528
126,-629,5.87976,44.2578,0,0,0,0,0,0,0,-1,1350,1653,5.87973,-44.2578
133,-629,12.7023,37.7816,0,0,0,0,0,0,0,-1,1357,1653,12.7022,-37.7816
140,-629,12.4775,37.1854,0,0,0,0,0,0,0,-1,1364,1653,12.4776,-37.1855
147,-629,13.0989,36.6035,0,0,0,0,0,0,0,-1,1371,1653,13.0989,-36.6035
154,-629,1.58569,52.5651,0,0,0,0,0,0,0,-1,1378,1653,1.58564,-52.5651
161,-629,10.5461,6.83752,0,0,0,0,0,0,0,-1,1385,1653,10.5461,-6.83758
168,-629,12.0059,5.56348,0,0,0,0,0,0,0,-1,1392,1653,12.0059,-5.56352
175,-629,5.84485,-1.78845,0,0,0,0,0,0,0,-1,1399,1653,5.84479,1.7884
182,-629,5.99036,-1.27783,0,0,0,0,0,0,0,-1,1406,1653,5.99041,1.27778
189,-629,5.97668,-0.748535,0,0,0,0,0,0,0,-1,1413,1653,5.97671,0.748544
196,-629,4.52869,9.24695,0,0,0,0,0,0,0,-1,1420,1653,4.52869,-9.2469
203,-629,3.75085,6.88037,0,0,0,0,0,0,0,-1,1427,1653,3.75087,-6.88032
210,-629,3.5907,6.52637,0,0,0,0,0,0,0,-1,1434,1653,3.59067,-6.52642
217,-629,2.4585,4.84448,0,0,0,0,0,0,0,-1,1441,1653,2.45855,-4.84448
224,-629,1.31982,3.68481,0,0,0,0,0,0,0,-1,1448,1653,1.31986,-3.68487
231,-629,3.63025,1.73499,0,0,0,0,0,0,0,-1,1455,1653,3.6303,-1.735
238,-629,4.26428,2.11255,0,0,0,0,0,0,0,-1,1462,1653,4.26429,-2.11253
245,-629,5.61816,1.95361,0,0,0,0,0,0,0,-1,1469,1653,5.61815,-1.95359
252,-629,7.27136,2.18982,0,0,0,0,0,0,0,-1,1476,1653,7.27131,-2.18985
259,-629,8.67334,2.18628,0,0,0,0,0,0,0,-1,1483,1653,8.6733,-2.18633
266,-629,6.86475,3.72058,0,0,0,0,0,0,0,-1,1490,1653,6.86479,-3.72063
273,-629,7.9021,3.8717,0,0,0,0,0,0,0,-1,1497,1653,7.90205,-3.87171
280,-629,9.70837,4.39087,0,0,0,0,0,0,0,-1,1504,1653,9.7084,-4.39082
287,-629,9.82947,7.19348,0,0,0,0,0,0,0,-1,1511,1653,9.8295,-7.19347
294,-629,6.56555,11.6359,0,0,0,0,0,0,0,-1,1518,1653,6.5656,-11.6358
301,-629,13.5157,42.7069,0,0,0,0,0,0,0,-1,1525,1653,13.5158,-42.7069
308,-629,6.08264,12.1423,0,0,0,0,0,0,0,-1,1532,1653,6.08263,-12.1423
315,-629,6.82043,18.2764,0,0,0,0,0,0,0,-1,1539,1653,6.82049,-18.2764
322,-629,10.3922,29.9829,0,0,0,0,0,0,0,-1,1546,1653,10.3922,-29.9829
329,-629,13.4132,40.5476,0,0,0,0,0,0,0,-1,1553,1653,13.4133,-40.5476
336,-629,12.8416,40.0839,0,0,0,0,0,0,0,-1,1560,1653,12.8415,-40.0839
343,-629,12.9739,39.5157,0,0,0,0,0,0,0,-1,1567,1653,12.9738,-39.5158
350,-629,13.2908,39.1829,0,0,0,0,0,0,0,-1,1574,1653,13.2908,-39.1828
357,-629,13.5243,38.4204,0,0,0,0,0,0,0,-1,1581,1653,13.5244,-38.4204
364,-629,13.4659,37.9238,0.00652657,0.0132631,-0.00646286,0.0171828,0.00260692,-1.02562,0.0106927,0.0133905,1588,1653,13.4659,-37.9239
371,-629,13.4569,37.4983,0.00581212,0.0115382,-0.00571763,0.0150695,0.00228076,-1.01752,0.009379,0.0122407,1595,1653,13.4569,-37.4982
378,-629,13.4664,37.0435,0.00497105,0.0102286,-0.00481703,0.0130875,0.00211219,-1.03518,0.00811311,0.0117098,1602,1653,13.4665,-37.0435
385,-629,13.4648,36.5983,0.00420155,0.008545,-0.00391601,0.0108512,0.00189538,-1.03857,0.00669239,0.0132343,1609,1653,13.4648,-36.5982
392,-629,13.4521,36.1486,0.00344981,0.00698607,-0.00308386,0.00877272,0.00166315,-1.04569,0.00538047,0.011316,1616,1653,13.4522,-36.1485
399,-629,13.4507,35.6864,0.002679,0.00545277,-0.00231573,0.00676516,0.00136662,-1.0552,0.00413062,0.010971,1623,1653,13.4506,-35.6864
406,-629,13.4651,35.2197,0.00194341,0.0041136,-0.0016495,0.00500291,0.0010541,-1.07633,0.00304533,0.0144612,1630,1653,13.4651,-35.2197
413,-629,13.4531,34.7667,0.00134246,0.0029886,-0.00120577,0.00362543,0.000705627,-1.08488,0.00221946,0.0249036,1637,1653,13.4532,-34.7667
420,-629,13.4243,34.3097,0.000851716,0.00192689,-0.000918746,0.00245377,0.000324835,-1.05011,0.00153904,0.0231938,1644,1653,13.4244,-34.3096
427,-629,13.4379,33.8387,0.000455056,0.000934049,-0.000705518,0.00143961,-5.05077e-05,-0.949026,0.000977013,0.0142927,1651,1653,13.4378,-33.8387
434,-629,13.4187,33.3505,0.000133771,0.000144088,-0.000704273,0.000843222,-0.000565363,-0.789061,0.000818504,0.0115268,1658,1653,13.4187,-33.3505
441,-629,13.4061,32.8727,-3.49516e-05,-0.000422877,-0.000836801,0.000630072,-0.0010879,-0.671514,0.00100354,0.01512,1665,1653,13.4062,-32.8727
448,-629,13.3846,32.375,-0.000152714,-0.00102532,-0.000959502,0.000465026,-0.00164306,-0.572013,0.00127888,0.0148558,1672,1653,13.3847,-32.375
455,-629,13.3519,31.8467,-0.000176045,-0.00161319,-0.0010615,0.000387224,-0.00217646,-0.487856,0.00159579,0.0140268,1679,1653,13.352,-31.8466
462,-629,13.3473,31.3793,-0.000255305,-0.00247963,-0.00106794,0.000174415,-0.00290935,-0.382558,0.00200024,0.0186827,1686,1653,13.3473,-31.3792
469,-629,13.3005,30.8566,-0.000505669,-0.00318878,-0.00097471,-0.000188963,-0.00350549,-0.314162,0.00227662,0.0244737,1693,1653,13.3005,-30.8566
476,-629,13.4384,30.4434,-0.000656219,-0.004006,-0.000678541,-0.000523992,-0.00413823,-0.192458,0.00260181,0.0478156,1700,1653,13.4384,-30.4434
483,-629,13.2126,30.0889,0,0,0,0,0,0,0,-1,1707,1653,13.2126,-30.0889
490,-629,13.9072,28.8588,0,0,0,0,0,0,0,-1,1714,1653,13.9072,-28.8587
497,-629,10.3662,19.8605,0,0,0,0,0,0,0,-1,1721,1653,10.3662,-19.8605
504,-629,7.89453,15.5316,0,0,0,0,0,0,0,-1,1728,1653,7.89447,-15.5316
511,-629,6.29138,3.40295,0,0,0,0,0,0,0,-1,1735,1653,6.29137,-3.403
518,-629,5.84387,1.41858,0,0,0,0,0,0,0,-1,1742,1653,5.84391,-1.4186
525,-629,6.4729,1.02319,0,0,0,0,0,0,0,-1,1749,1653,6.47284,-1.02316
532,-629,6.86511,0.903687,0,0,0,0,0,0,0,-1,1756,1653,6.86514,-0.903691
539,-629,6.60803,0.746704,0,0,0,0,0,0,0,-1,1763,1653,6.60809,-0.746691
546,-629,0,0,0,0,0,0,0,0,0,-1,1770,1653,0,0
553,-629,0,0,0,0,0,0,0,0,0,-1,1777,1653,0,0
560,-629,0,0,0,0,0,0,0,0,0,-1,1784,1653,0,0
567,-629,0,0,0,0,0,0,0,0,0,-1,1791,1653,0,0
574,-629,0,0,0,0,0,0,0,0,0,-1,1798,1653,0,0
581,-629,0,0,0,0,0,0,0,0,0,-1,1805,1653,0,0
588,-629,0,0,0,0,0,0,0,0,0,-1,1812,1653,0,0
595,-629,0,0,0,0,0,0,0,0,0,-1,1819,1653,0,0
602,-629,0,0,0,0,0,0,0,0,0,-1,1826,1653,0,0
609,-629,0,0,0,0,0,0,0,0,0,-1,1833,1653,0,0
616,-629,0,0,0,0,0,0,0,0,0,-1,1840,1653,0,0
623,-629,0,0,0,0,0,0,0,0,0,-1,1847,1653,0,0
630,-629,0,0,0,0,0,0,0,0,0,-1,1854,1653,0,0
637,-629,0,0,0,0,0,0,0,0,0,-1,1861,1653,0,0
644,-629,0,0,0,0,0,0,0,0,0,-1,1868,1653,0,0
651,-629,0,0,0,0,0,0,0,0,0,-1,1875,1653,0,0
658,-629,0,0,0,0,0,0,0,0,0,-1,1882,1653,0,0
665,-629,0,0,0,0,0,0,0,0,0,-1,1889,1653,0,0
672,-629,0,0,0,0,0,0,0,0,0,-1,1896,1653,0,0
679,-629,0,0,0,0,0,0,0,0,0,-1,1903,1653,0,0
686,-629,0,0,0,0,0,0,0,0,0,-1,1910,1653,0,0
693,-629,0,0,0,0,0,0,0,0,0,-1,1917,1653,0,0
700,-629,0,0,0,0,0,0,0,0,0,-1,1924,1653,0,0
707,-629,0,0,0,0,0,0,0,0,0,-1,1931,1653,0,0
714,-629,0,0,0,0,0,0,0,0,0,-1,1938,1653,0,0
721,-629,0,0,0,0,0,0,0,0,0,-1,1945,1653,0,0
728,-629,0,0,0,0,0,0,0,0,0,-1,1952,1653,0,0
735,-629,0,0,0,0,0,0,0,0,0,-1,1959,1653,0,0
742,-629,0,0,0,0,0,0,0,0,0,-1,1966,1653,0,0
749,-629,0,0,0,0,0,0,0,0,0,-1,1973,1653,0,0
756,-629,0,0,0,0,0,0,0,0,0,-1,1980,1653,0,0
763,-629,0,0,0,0,0,0,0,0,0,-1,1987,1653,0,0
770,-629,0,0,0,0,0,0,0,0,0,-1,1994,1653,0,0
777,-629,0,0,0,0,0,0,0,0,0,-1,2001,1653,0,0
784,-629,0,0,0,0,0,0,0,0,0,-1,2008,1653,0,0
791,-629,0,0,0,0,0,0,0,0,0,-1,2015,1653,0,0
798,-629,0,0,0,0,0,0,0,0,0,-1,2022,1653,0,0
805,-629,0,0,0,0,0,0,0,0,0,-1,2029,1653,0,0
812,-629,0,0,0,0,0,0,0,0,0,-1,2036,1653,0,0
-700,-636,0,0,0,0,0,0,0,0,0,-1,524,1660,0,0
-693,-636,0,0,0,0,0,0,0,0,0,-1,531,1660,0,0
-686,-636,0,0,0,0,0,0,0,0,0,-1,538,1660,0,0
-679,-636,0,0,0,0,0,0,0,0,0,-1,545,1660,0,0
-672,-636,0,0,0,0,0,0,0,0,0,-1,552,1660,0,0
-665,-636,0,0,0,0,0,0,0,0,0,-1,559,1660,0,0
-658,-636,0,0,0,0,0,0,0,0,0,-1,566,1660,0,0
-651,-636,0,0,0,0,0,0,0,0,0,-1,573,1660,0,0
-644,-636,0,0,0,0,0,0,0,0,0,-1,580,1660,0,0
-637,-636,0,0,0,0,0,0,0,0,0,-1,587,1660,0,0
-630,-636,0,0,0,0,0,0,0,0,0,-1,594,1660,0,0
-623,-636,0,0,0,0,0,0,0,0,0,-1,601,1660,0,0
-616,-636,0,0,0,0,0,0,0,0,0,-1,608,1660,0,0
-609,-636,0,0,0,0,0,0,0,0,0,-1,615,1660,0,0
-602,-636,0,0,0,0,0,0,0,0,0,-1,622,1660,0,0
-595,-636,0,0,0,0,0,0,0,0,0,-1,629,1660,0,0
-588,-636,0,0,0,0,0,0,0,0,0,-1,636,1660,0,0
-581,-636,0,0,0,0,0,0,0,0,0,-1,643,1660,0,0
-574,-636,0,0,0,0,0,0,0,0,0,-1,650,1660,0,0
-567,-636,0,0,0,0,0,0,0,0,0,-1,657,1660,0,0
-560,-636,0,0,0,0,0,0,0,0,0,-1,664,1660,0,0
-553,-636,0,0,0,0,0,0,0,0,0,-1,671,1660,0,0
-546,-636,0,0,0,0,0,0,0,0,0,-1,678,1660,0,0
-539,-636,0,0,0,0,0,0,0,0,0,-1,685,1660,0,0
-532,-636,0,0,0,0,0,0,0,0,0,-1,692,1660,0,0
-525,-636,0,0,0,0,0,0,0,0,0,-1,699,1660,0,0
-518,-636,0,0,0,0,0,0,0,0,0,-1,706,1660,0,0
-511,-636,0,0,0,0,0,0,0,0,0,-1,713,1660,0,0
-504,-636,0,0,0,0,0,0,0,0,0,-1,720,1660,0,0
-497,-636,0,0,0,0,0,0,0,0,0,-1,727,1660,0,0
-490,-636,0,0,0,0,0,0,0,0,0,-1,734,1660,0,0
-483,-636,0,0,0,0,0,0,0,0,0,-1,741,1660,0,0
-476,-636,0,0,0,0,0,0,0,0,0,-1,748,1660,0,0
-469,-636,0,0,0,0,0,0,0,0,0,-1,755,1660,0,0
-462,-636,0,0,0,0,0,0,0,0,0,-1,762,1660,0,0
-455,-636,0,0,0,0,0,0,0,0,0,-1,769,1660,0,0
-448,-636,0,0,0,0,0,0,0,0,0,-1,776,1660,0,0
-441,-636,0,0,0,0,0,0,0,0,0,-1,783,1660,0,0
-434,-636,0,0,0,0,0,0,0,0,0,-1,790,1660,0,0
-427,-636,0,0,0,0,0,0,0,0,0,-1,797,1660,0,0
-420,-636,0,0,0,0,0,0,0,0,0,-1,804,1660,0,0
-413,-636,0,0,0,0,0,0,0,0,0,-1,811,1660,0,0
-406,-636,-0.591125,10.6943,0,0,0,0,0,0,0,-1,818,1660,-0.59115,-10.6943
-399,-636,0.0766602,11.2408,0,0,0,0,0,0,0,-1,825,1660,0.076685,-11.2409
-392,-636,0.75946,11.9233,0,0,0,0,0,0,0,-1,832,1660,0.759481,-11.9233
-385,-636,1.68878,12.517,0,0,0,0,0,0,0,-1,839,1660,1.6888,-12.5169
-378,-636,2.22107,13.0013,0,0,0,0,0,0,0,-1,846,1660,2.22107,-13.0014
-371,-636,2.52185,11.9684,0,0,0,0,0,0,0,-1,853,1660,2.52184,-11.9684
-364,-636,4.51947,14.8503,0,0,0,0,0,0,0,-1,860,1660,4.51949,-14.8504
-357,-636,4.55682,15.8809,0,0,0,0,0,0,0,-1,867,1660,4.55681,-15.8808
-350,-636,4.08057,29.5999,0,0,0,0,0,0,0,-1,874,1660,4.08056,-29.5998
-343,-636,4.20129,29.9523,-0.0016659,0.00570084,0.000614844,0.00575181,-0.00171687,1.4881,0.00451693,0.047864,881,1660,4.20131,-29.9523
-336,-636,4.25989,30.3451,-0.00179259,0.00550512,0.000360586,0.0055229,-0.00181037,1.52155,0.00441101,0.0331196,888,1660,4.25987,-30.3451
-329,-636,4.36749,30.8629,-0.00210993,0.00479915,2.51988e-05,0.00479924,-0.00211002,1.56715,0.00408854,0.0188822,895,1660,4.3675,-30.8629
-322,-636,4.36237,31.3802,-0.00223547,0.00432556,-4.33259e-05,0.00432584,-0.00223575,-1.56419,0.00385187,0.0119208,902,1660,4.36238,-31.3803
-315,-636,4.3031,31.9277,-0.0022725,0.00360487,-9.38009e-05,0.00360637,-0.002274,-1.55484,0.00342396,0.0134925,909,1660,4.30311,-31.9278
-308,-636,4.29486,32.4579,-0.00208837,0.00309733,-6.67029e-05,0.00309819,-0.00208923,-1.55794,0.00301378,0.0121326,916,1660,4.29487,-32.4578
-301,-636,4.29193,32.9983,-0.00173334,0.00273342,6.68623e-05,0.00273442,-0.00173434,1.55583,0.00260148,0.0114991,923,1660,4.29192,-32.9982
-294,-636,4.26074,33.5078,-0.0011569,0.00264056,0.000399989,0.00268224,-0.00119857,1.46698,0.00229452,0.0147422,930,1660,4.26077,-33.5078
-287,-636,4.23407,33.9729,-0.000529817,0.00285543,0.000765652,0.00302054,-0.000694933,1.35839,0.0022809,0.0133417,937,1660,4.23405,-33.9729
-280,-636,4.23407,34.449,0.000254448,0.00313369,0.00122415,0.00358379,-0.000195656,1.21845,0.00245701,0.012743,944,1660,4.23406,-34.4489
-273,-636,4.19867,34.9133,0.00113457,0.00344717,0.00170233,0.00434878,0.00023297,1.08373,0.00282473,0.0126369,951,1660,4.19866,-34.9133
-266,-636,4.18268,35.4132,0.00208523,0.00381843,0.00221022,0.00532587,0.000577784,0.972231,0.00337452,0.0134033,958,1660,4.1827,-35.4133
-259,-636,4.18048,35.9385,0.00294938,0.0042976,0.00263523,0.00634358,0.000903405,0.910616,0.0039624,0.0145745,965,1660,4.18048,-35.9385
-252,-636,4.17267,36.4028,0.00372382,0.00510675,0.00301434,0.00750792,0.00132265,0.898144,0.00462784,0.0117213,972,1660,4.17269,-36.4028
-245,-636,4.16864,36.8837,0.00438141,0.00572187,0.0032626,0.00838237,0.00172091,0.886703,0.0051121,0.0114274,979,1660,4.16867,-36.8837
-238,-636,4.17865,37.3478,0.00500715,0.00605601,0.00339243,0.0089643,0.00209886,0.862085,0.00541394,0.0117213,986,1660,4.17867,-37.3478
-231,-636,4.18158,37.7906,0.00558988,0.00636808,0.00350052,0.00950106,0.0024569,0.840748,0.00569457,0.0106723,993,1660,4.18157,-37.7906
-224,-636,4.18524,38.2412,0.0060409,0.0064495,0.00350927,0.00976041,0.00272998,0.814474,0.00581464,0.00958791,1000,1660,4.18524,-38.2412
-217,-636,4.16797,38.7577,0.00606744,0.00692383,0.00351054,0.0100322,0.00295908,0.846086,0.00595221,0.0189636,1007,1660,4.16797,-38.7577
-210,-636,4.15472,39.2045,0.00582227,0.00657482,0.0028036,0.00902728,0.00336981,0.852105,0.00526739,0.0337921,1014,1660,4.15474,-39.2045
-203,-636,4.15442,39.6488,0,0,0,0,0,0,0,-1,1021,1660,4.15448,-39.6488
-196,-636,4.34167,40.0308,0.0041107,0.00447235,-0.00108439,0.00539089,0.00319216,-0.868014,0.00313,0.0366386,1028,1660,4.34171,-40.0307
-189,-636,4.36829,40.3494,0.0030336,0.00342415,-0.00331469,0.00654932,-9.15565e-05,-0.81482,0.00439705,0.0319457,1035,1660,4.36832,-40.3493
-182,-636,4.4801,40.9399,0.00183331,0.00161263,-0.0058137,0.00753772,-0.00409178,-0.77591,0.00681184,0.0430347,1042,1660,4.48013,-40.9399
-175,-636,4.59717,41.4451,-5.48196e-05,-0.000197708,-0.00896859,0.00884261,-0.00909514,-0.781415,0.0103567,0.0499522,1049,1660,4.59717,-41.445
-168,-636,4.82214,41.8716,0,0,0,0,0,0,0,-1,1056,1660,4.82217,-41.8716
-161,-636,3.94189,41.1392,0,0,0,0,0,0,0,-1,1063,1660,3.94195,-41.1392
-154,-636,3.56213,41.4369,0,0,0,0,0,0,0,-1,1070,1660,3.56212,-41.4368
-147,-636,3.18225,41.7345,0,0,0,0,0,0,0,-1,1077,1660,3.18228,-41.7345
-140,-636,3.4729,27.1271,0,0,0,0,0,0,0,-1,1084,1660,3.47287,-27.1271
-133,-636,4.68311,18.0922,0,0,0,0,0,0,0,-1,1091,1660,4.68316,-18.0921
-126,-636,3.79028,18.2225,0,0,0,0,0,0,0,-1,1098,1660,3.79025,-18.2226
-119,-636,1.8667,13.8916,0,0,0,0,0,0,0,-1,1105,1660,1.86668,-13.8916
-112,-636,-1.24963,9.7998,0,0,0,0,0,0,0,-1,1112,1660,-1.24968,-9.79978
-105,-636,3.51624,4.72791,0,0,0,0,0,0,0,-1,1119,1660,3.51618,-4.7279
-98,-636,1.54504,5.11914,0,0,0,0,0,0,0,-1,1126,1660,1.54503,-5.11912
-91,-636,-1.87964,-2.25012,0,0,0,0,0,0,0,-1,1133,1660,-1.87966,2.25016
-84,-636,-2.84143,0.133667,0,0,0,0,0,0,0,-1,1140,1660,-2.84144,-0.133701
-77,-636,-3.57349,2.45935,0,0,0,0,0,0,0,-1,1147,1660,-3.57345,-2.45939
-70,-636,-4.23682,4.82312,0,0,0,0,0,0,0,-1,1154,1660,-4.23681,-4.82307
-63,-636,-2.21033,6.97168,0,0,0,0,0,0,0,-1,1161,1660,-2.21034,-6.97165
-56,-636,-2.51917,8.80359,0,0,0,0,0,0,0,-1,1168,1660,-2.51916,-8.80361
-49,-636,-3.13,10.4113,0,0,0,0,0,0,0,-1,1175,1660,-3.12996,-10.4112
-42,-636,-2.27771,4.90173,0,0,0,0,0,0,0,-1,1182,1660,-2.27775,-4.90173
-35,-636,-2.27698,5.89685,0,0,0,0,0,0,0,-1,1189,1660,-2.27695,-5.89686
-28,-636,-1.70654,4.83936,0,0,0,0,0,0,0,-1,1196,1660,-1.70656,-4.8393
-21,-636,4.24683,27.7834,0,0,0,0,0,0,0,-1,1203,1660,4.24687,-27.7835
-14,-636,5.32434,51.2197,0,0,0,0,0,0,0,-1,1210,1660,5.3244,-51.2197
-7,-636,6.20569,51.4313,0,0,0,0,0,0,0,-1,1217,1660,6.20573,-51.4313
0,-636,7.12219,51.5706,0,0,0,0,0,0,0,-1,1224,1660,7.12221,-51.5705
7,-636,8.02649,52.068,0,0,0,0,0,0,0,-1,1231,1660,8.02654,-52.068
14,-636,8.93091,52.5656,0,0,0,0,0,0,0,-1,1238,1660,8.93087,-52.5655
21,-636,8.2511,53.5071,0,0,0,0,0,0,0,-1,1245,1660,8.25113,-53.5071
28,-636,7.97327,46.7946,0,0,0,0,0,0,0,-1,1252,1660,7.97324,-46.7946
35,-636,8.53369,59.1996,0,0,0,0,0,0,0,-1,1259,1660,8.53365,-59.1996
42,-636,5.57166,57.8209,0,0,0,0,0,0,0,-1,1266,1660,5.5716,-57.8209
49,-636,6.13953,57.3269,0.0763433,0.128737,-8.73103e-06,0.128737,0.0763433,-1.57063,0.0747537,0.0497181,1273,1660,6.13948,-57.3269
56,-636,6.98669,56.6516,0.0713054,0.122911,-0.0111503,0.125217,0.0689992,-1.36685,0.0724193,0.0470622,1280,1660,6.98665,-56.6516
63,-636,9.65894,56.1869,0.0659672,0.11428,-0.0241485,0.12428,0.0559669,-1.17818,0.0718711,0.0446887,1287,1660,9.65897,-56.1869
70,-636,9.54321,55.1626,0.0663825,0.104442,-0.0398393,0.129563,0.0412614,-1.00821,0.0764292,0.0462592,1294,1660,9.54318,-55.1626
77,-636,9.35535,54.5533,0.0714294,0.0934186,-0.0544362,0.137959,0.0268886,-0.885044,0.0844492,0.0458861,1301,1660,9.35534,-54.5533
84,-636,9.91492,52.7434,0.0751812,0.0773521,-0.0640994,0.140375,0.0121581,-0.793864,0.0898056,0.0452692,1308,1660,9.91497,-52.7434
91,-636,9.57874,51.5089,0.0824156,0.0689556,-0.0714391,0.147441,0.00393014,-0.738434,0.0970105,0.0416498,1315,1660,9.57875,-51.5089
98,-636,9.33398,51.2755,0.0917393,0.0599299,-0.0772956,0.15475,-0.00308035,-0.683932,0.104208,0.0488521,1322,1660,9.33401,-51.2755
105,-636,9.55835,50.2732,0,0,0,0,0,0,0,-1,1329,1660,9.55839,-50.2731
112,-636,8.30652,52.6194,0,0,0,0,0,0,0,-1,1336,1660,8.3065,-52.6193
119,-636,8.67358,52.0967,0,0,0,0,0,0,0,-1,1343,1660,8.67364,-52.0967
126,-636,12.1835,39.8695,0,0,0,0,0,0,0,-1,1350,1660,12.1835,-39.8695
133,-636,12.3329,39.1694,0.153599,-0.0586076,-0.0877183,0.185163,-0.0901721,-0.345413,0.162088,0.0478961,1357,1660,12.3329,-39.1694
140,-636,12.47,38.4717,0,0,0,0,0,0,0,-1,1364,1660,12.4699,-38.4716
147,-636,12.1381,39.141,0,0,0,0,0,0,0,-1,1371,1660,12.1381,-39.141
154,-636,3.10242,43.2155,0,0,0,0,0,0,0,-1,1378,1660,3.10236,-43.2155
161,-636,10.2961,7.13025,0,0,0,0,0,0,0,-1,1385,1660,10.2961,-7.13021
168,-636,11.7659,5.83899,0,0,0,0,0,0,0,-1,1392,1660,11.7658,-5.83899
175,-636,5.94592,-1.72888,0,0,0,0,0,0,0,-1,1399,1660,5.94598,1.72886
182,-636,5.93994,-1.11938,0,0,0,0,0,0,0,-1,1406,1660,5.93998,1.11936
189,-636,5.32544,11.9595,0,0,0,0,0,0,0,-1,1413,1660,5.32542,-11.9595
196,-636,5.3623,9.38025,0,0,0,0,0,0,0,-1,1420,1660,5.36225,-9.38027
203,-636,5.18542,9.02429,0,0,0,0,0,0,0,-1,1427,1660,5.18547,-9.0243
210,-636,4.09167,7.17041,0,0,0,0,0,0,0,-1,1434,1660,4.09173,-7.17041
217,-636,2.94897,5.28992,0,0,0,0,0,0,0,-1,1441,1660,2.94899,-5.28991
224,-636,1.49194,3.63916,0,0,0,0,0,0,0,-1,1448,1660,1.49197,-3.63918
231,-636,0.17749,2.24854,0,0,0,0,0,0,0,-1,1455,1660,0.177501,-2.24855
238,-636,-0.764648,1.00598,0,0,0,0,0,0,0,-1,1462,1660,-0.764704,-1.00595
245,-636,6.21204,1.18005,0,0,0,0,0,0,0,-1,1469,1660,6.21206,-1.18001
252,-636,7.70251,0.865723,0,0,0,0,0,0,0,-1,1476,1660,7.7025,-0.865692
259,-636,9.03601,0.787231,0,0,0,0,0,0,0,-1,1483,1660,9.03598,-0.787243
266,-636,10.1071,3.24109,0,0,0,0,0,0,0,-1,1490,1660,10.1071,-3.24103
273,-636,8.48535,5.02466,0,0,0,0,0,0,0,-1,1497,1660,8.48533,-5.02472
280,-636,11.908,32.0698,0,0,0,0,0,0,0,-1,1504,1660,11.9079,-32.0698
287,-636,12.1218,36.4158,0,0,0,0,0,0,0,-1,1511,1660,12.1218,-36.4158
294,-636,13.7638,42.7262,0,0,0,0,0,0,0,-1,1518,1660,13.7638,-42.7262
301,-636,12.9974,42.0228,0,0,0,0,0,0,0,-1,1525,1660,12.9975,-42.0229
308,-636,12.9193,41.5391,0,0,0,0,0,0,0,-1,1532,1660,12.9194,-41.539
315,-636,12.859,41.1919,0,0,0,0,0,0,0,-1,1539,1660,12.859,-41.1919
322,-636,13.0461,40.75,0,0,0,0,0,0,0,-1,1546,1660,13.0461,-40.75
329,-636,12.9636,40.2124,0.00429292,0.0177273,-0.00427962,0.0189748,0.00304545,-1.28716,0.0117668,0.03645,1553,1660,12.9636,-40.2125
336,-636,12.9219,39.6726,0.00475832,0.0160799,-0.00473998,0.0178023,0.00303588,-1.22225,0.0109968,0.0235151,1560,1660,12.9219,-39.6726
343,-636,12.9513,39.2787,0.00503903,0.0144058,-0.00513751,0.0166742,0.00277056,-1.15499,0.0103174,0.0188606,1567,1660,12.9513,-39.2786
350,-636,12.9669,38.8263,0.00574185,0.012206,-0.00532255,0.0152009,0.00274688,-1.05826,0.00935374,0.0123975,1574,1660,12.967,-38.8263
357,-636,13.024,38.3442,0.00566451,0.0107574,-0.00496769,0.0137933,0.00262862,-1.02224,0.0084566,0.0106912,1581,1660,13.024,-38.3442
364,-636,13.0297,37.9126,0.00500873,0.00957777,-0.00457508,0.012407,0.0021795,-1.01696,0.00764904,0.0104107,1588,1660,13.0297,-37.9126
371,-636,13.0101,37.4943,0.0043775,0.00832271,-0.00406462,0.0108681,0.00183211,-1.01131,0.00671849,0.00971945,1595,1660,13.0102,-37.4943
378,-636,13.0211,37.0529,0.00371065,0.00718753,-0.00346162,0.00932272,0.00157546,-1.0181,0.00576224,0.0105578,1602,1660,13.0211,-37.0528
385,-636,13.0306,36.5938,0.00309736,0.00580546,-0.00286244,0.00761796,0.00128486,-1.00632,0.00470915,0.015424,1609,1660,13.0306,-36.5937
392,-636,13.0132,36.1334,0.00243911,0.00444587,-0.00223405,0.00589152,0.000993454,-0.996463,0.00364198,0.0169757,1616,1660,13.0132,-36.1334
399,-636,13.0028,35.6951,0.00173749,0.00306693,-0.00166678,0.00419664,0.000607773,-0.975137,0.00261879,0.0132141,1623,1660,13.0028,-35.6951
406,-636,13.0211,35.2518,0.00107675,0.00188568,-0.00116493,0.00271436,0.000248066,-0.952487,0.00173281,0.0154653,1630,1660,13.0211,-35.2518
413,-636,13.0121,34.7706,0.000578151,0.000914484,-0.000870432,0.00163285,-0.00014021,-0.880822,0.00113818,0.0249955,1637,1660,13.0121,-34.7706
420,-636,12.968,34.2896,0.000154968,3.59633e-05,-0.00071373,0.000811671,-0.00062074,-0.74381,0.000829449,0.0249657,1644,1660,12.968,-34.2895
427,-636,12.9446,33.8569,-0.000153058,-0.000717816,-0.00065765,0.000280274,-0.00115115,-0.582613,0.000875932,0.0143501,1651,1660,12.9446,-33.8569
434,-636,12.9281,33.3824,-0.000446956,-0.00124052,-0.000776122,2.79293e-05,-0.0017154,-0.549101,0.00115302,0.011791,1658,1660,12.9281,-33.3824
441,-636,12.9308,32.8881,-0.000647819,-0.00145347,-0.00101018,3.68872e-05,-0.00213818,-0.595676,0.00143791,0.0120712,1665,1660,12.9308,-32.8881
448,-636,12.9406,32.4186,-0.000807538,-0.00164816,-0.00121412,5.69684e-05,-0.00251267,-0.618762,0.00169442,0.0142716,1672,1660,12.9406,-32.4186
455,-636,12.8949,31.9248,-0.000783119,-0.00180338,-0.00139317,0.000190378,-0.00277687,-0.609897,0.00191786,0.0143927,1679,1660,12.8949,-31.9248
462,-636,12.9011,31.416,-0.000796477,-0.00220182,-0.00151789,0.000173496,-0.00317179,-0.568623,0.00217467,0.0204323,1686,1660,12.9011,-31.416
469,-636,12.844,30.8145,-0.00127211,-0.00241259,-0.00148027,-0.000256041,-0.00342866,-0.601545,0.00220539,0.0358803,1693,1660,12.844,-30.8145
476,-636,12.9484,30.5038,0,0,0,0,0,0,0,-1,1700,1660,12.9484,-30.5038
483,-636,11.3833,24.3958,0,0,0,0,0,0,0,-1,1707,1660,11.3833,-24.3957
490,-636,10.8951,23.9569,0,0,0,0,0,0,0,-1,1714,1660,10.8951,-23.9569
497,-636,9.55579,18.0111,0,0,0,0,0,0,0,-1,1721,1660,9.55574,-18.0111
504,-636,6.26428,19.4268,0,0,0,0,0,0,0,-1,1728,1660,6.26433,-19.4268
511,-636,5.65466,9.23218,0,0,0,0,0,0,0,-1,1735,1660,5.65461,-9.23216
518,-636,6.72791,1.07605,0,0,0,0,0,0,0,-1,1742,1660,6.7279,-1.0761
525,-636,7.04309,0.93335,0,0,0,0,0,0,0,-1,1749,1660,7.04308,-0.933298
532,-636,0,0,0,0,0,0,0,0,0,-1,1756,1660,0,0
539,-636,0,0,0,0,0,0,0,0,0,-1,1763,1660,0,0
546,-636,0,0,0,0,0,0,0,0,0,-1,1770,1660,0,0
553,-636,0,0,0,0,0,0,0,0,0,-1,1777,1660,0,0
560,-636,0,0,0,0,0,0,0,0,0,-1,1784,1660,0,0
567,-636,0,0,0,0,0,0,0,0,0,-1,1791,1660,0,0
574,-636,0,0,0,0,0,0,0,0,0,-1,1798,1660,0,0
581,-636,0,0,0,0,0,0,0,0,0,-1,1805,1660,0,0
588,-636,0,0,0,0,0,0,0,0,0,-1,1812,1660,0,0
595,-636,0,0,0,0,0,0,0,0,0,-1,1819,1660,0,0
602,-636,0,0,0,0,0,0,0,0,0,-1,1826,1660,0,0
609,-636,0,0,0,0,0,0,0,0,0,-1,1833,1660,0,0
616,-636,0,0,0,0,0,0,0,0,0,-1,1840,1660,0,0
623,-636,0,0,0,0,0,0,0,0,0,-1,1847,1660,0,0
630,-636,0,0,0,0,0,0,0,0,0,-1,1854,1660,0,0
637,-636,0,0,0,0,0,0,0,0,0,-1,1861,1660,0,0
644,-636,0,0,0,0,0,0,0,0,0,-1,1868,1660,0,0
651,-636,0,0,0,0,0,0,0,0,0,-1,1875,1660,0,0
658,-636,0,0,0,0,0,0,0,0,0,-1,1882,1660,0,0
665,-636,0,0,0,0,0,0,0,0,0,-1,1889,1660,0,0
672,-636,0,0,0,0,0,0,0,0,0,-1,1896,1660,0,0
679,-636,0,0,0,0,0,0,0,0,0,-1,1903,1660,0,0
686,-636,0,0,0,0,0,0,0,0,0,-1,1910,1660,0,0
693,-636,0,0,0,0,0,0,0,0,0,-1,1917,1660,0,0
700,-636,0,0,0,0,0,0,0,0,0,-1,1924,1660,0,0
707,-636,0,0,0,0,0,0,0,0,0,-1,1931,1660,0,0
714,-636,0,0,0,0,0,0,0,0,0,-1,1938,1660,0,0
721,-636,0,0,0,0,0,0,0,0,0,-1,1945,1660,0,0
728,-636,0,0,0,0,0,0,0,0,0,-1,1952,1660,0,0
735,-636,0,0,0,0,0,0,0,0,0,-1,1959,1660,0,0
742,-636,0,0,0,0,0,0,0,0,0,-1,1966,1660,0,0
749,-636,0,0,0,0,0,0,0,0,0,-1,1973,1660,0,0
756,-636,0,0,0,0,0,0,0,0,0,-1,1980,1660,0,0
763,-636,0,0,0,0,0,0,0,0,0,-1,1987,1660,0,0
770,-636,0,0,0,0,0,0,0,0,0,-1,1994,1660,0,0
777,-636,0,0,0,0,0,0,0,0,0,-1,2001,1660,0,0
784,-636,0,0,0,0,0,0,0,0,0,-1,2008,1660,0,0
791,-636,0,0,0,0,0,0,0,0,0,-1,2015,1660,0,0
798,-636,0,0,0,0,0,0,0,0,0,-1,2022,1660,0,0
805,-636,0,0,0,0,0,0,0,0,0,-1,2029,1660,0,0
812,-636,0,0,0,0,0,0,0,0,0,-1,2036,1660,0,0
-700,-643,0,0,0,0,0,0,0,0,0,-1,524,1667,0,0
-693,-643,0,0,0,0,0,0,0,0,0,-1,531,1667,0,0
-686,-643,0,0,0,0,0,0,0,0,0,-1,538,1667,0,0
-679,-643,0,0,0,0,0,0,0,0,0,-1,545,1667,0,0
-672,-643,0,0,0,0,0,0,0,0,0,-1,552,1667,0,0
-665,-643,0,0,0,0,0,0,0,0,0,-1,559,1667,0,0
-658,-643,0,0,0,0,0,0,0,0,0,-1,566,1667,0,0
-651,-643,0,0,0,0,0,0,0,0,0,-1,573,1667,0,0
-644,-643,0,0,0,0,0,0,0,0,0,-1,580,1667,0,0
-637,-643,0,0,0,0,0,0,0,0,0,-1,587,1667,0,0
-630,-643,0,0,0,0,0,0,0,0,0,-1,594,1667,0,0
-623,-643,0,0,0,0,0,0,0,0,0,-1,601,1667,0,0
-616,-643,0,0,0,0,0,0,0,0,0,-1,608,1667,0,0
-609,-643,0,0,0,0,0,0,0,0,0,-1,615,1667,0,0
-602,-643,0,0,0,0,0,0,0,0,0,-1,622,1667,0,0
-595,-643,0,0,0,0,0,0,0,0,0,-1,629,1667,0,0
-588,-643,0,0,0,0,0,0,0,0,0,-1,636,1667,0,0
-581,-643,0,0,0,0,0,0,0,0,0,-1,643,1667,0,0
-574,-643,0,0,0,0,0,0,0,0,0,-1,650,1667,0,0
-567,-643,0,0,0,0,0,0,0,0,0,-1,657,1667,0,0
-560,-643,0,0,0,0,0,0,0,0,0,-1,664,1667,0,0
-553,-643,0,0,0,0,0,0,0,0,0,-1,671,1667,0,0
-546,-643,0,0,0,0,0,0,0,0,0,-1,678,1667,0,0
-539,-643,0,0,0,0,0,0,0,0,0,-1,685,1667,0,0
-532,-643,0,0,0,0,0,0,0,0,0,-1,692,1667,0,0
-525,-643,0,0,0,0,0,0,0,0,0,-1,699,1667,0,0
-518,-643,0,0,0,0,0,0,0,0,0,-1,706,1667,0,0
-511,-643,0,0,0,0,0,0,0,0,0,-1,713,1667,0,0
-504,-643,0,0,0,0,0,0,0,0,0,-1,720,1667,0,0
-497,-643,0,0,0,0,0,0,0,0,0,-1,727,1667,0,0
-490,-643,0,0,0,0,0,0,0,0,0,-1,734,1667,0,0
-483,-643,0,0,0,0,0,0,0,0,0,-1,741,1667,0,0
-476,-643,0,0,0,0,0,0,0,0,0,-1,748,1667,0,0
-469,-643,0,0,0,0,0,0,0,0,0,-1,755,1667,0,0
-462,-643,0,0,0,0,0,0,0,0,0,-1,762,1667,0,0
-455,-643,0,0,0,0,0,0,0,0,0,-1,769,1667,0,0
-448,-643,0,0,0,0,0,0,0,0,0,-1,776,1667,0,0
-441,-643,0,0,0,0,0,0,0,0,0,-1,783,1667,0,0
-434,-643,0,0,0,0,0,0,0,0,0,-1,790,1667,0,0
-427,-643,0,0,0,0,0,0,0,0,0,-1,797,1667,0,0
-420,-643,0,0,0,0,0,0,0,0,0,-1,804,1667,0,0
-413,-643,0,0,0,0,0,0,0,0,0,-1,811,1667,0,0
-406,-643,0,0,0,0,0,0,0,0,0,-1,818,1667,0,0
-399,-643,0.589417,11.6465,0,0,0,0,0,0,0,-1,825,1667,0.58939,-11.6465
-392,-643,0.865295,12.6523,0,0,0,0,0,0,0,-1,832,1667,0.865315,-12.6523
-385,-643,1.72968,13.2692,0,0,0,0,0,0,0,-1,839,1667,1.72967,-13.2692
-378,-643,2.66522,13.8193,0,0,0,0,0,0,0,-1,846,1667,2.66524,-13.8193
-371,-643,0.466125,3.35095,0,0,0,0,0,0,0,-1,853,1667,0.466148,-3.351
-364,-643,1.69513,9.922,0,0,0,0,0,0,0,-1,860,1667,1.69511,-9.92205
-357,-643,1.14227,10.8429,0,0,0,0,0,0,0,-1,867,1667,1.14228,-10.8429
-350,-643,2.50061,9.96948,0,0,0,0,0,0,0,-1,874,1667,2.50059,-9.96954
-343,-643,4.75,29.8872,0,0,0,0,0,0,0,-1,881,1667,4.74999,-29.8873
-336,-643,4.64917,30.413,0,0,0,0,0,0,0,-1,888,1667,4.6492,-30.413
-329,-643,4.8172,30.792,-0.00272454,0.00795504,0.000139418,0.00795686,-0.00272636,1.55774,0.00640964,0.0445642,895,1667,4.81722,-30.792
-322,-643,4.85406,31.3829,-0.00316714,0.00666074,-0.000104398,0.00666185,-0.00316825,-1.56018,0.00579365,0.0296883,902,1667,4.85406,-31.383
-315,-643,4.75171,31.973,-0.00344741,0.00505186,-0.000354325,0.00506661,-0.00346216,-1.5292,0.00495304,0.0201931,909,1667,4.7517,-31.973
-308,-643,4.79303,32.4661,-0.00346368,0.00375515,-0.000526849,0.0037934,-0.00350193,-1.49833,0.00421308,0.0136373,916,1667,4.79303,-32.4661
-301,-643,4.79108,32.9783,-0.00328442,0.00262288,-0.00062095,0.00268744,-0.00334899,-1.46719,0.0034921,0.0137354,923,1667,4.7911,-32.9782
-294,-643,4.75494,33.4823,-0.00280934,0.00188131,-0.000503942,0.00193484,-0.00286288,-1.46497,0.00278718,0.0131204,930,1667,4.75493,-33.4823
-287,-643,4.73462,33.9749,-0.0022538,0.001573,-0.000316634,0.00159902,-0.00227982,-1.4888,0.00225092,0.0110975,937,1667,4.73461,-33.9748
-280,-643,4.70825,34.4736,-0.00154802,0.00142505,-1.45796e-05,0.00142513,-0.00154809,-1.56589,0.00171708,0.0145446,944,1667,4.70823,-34.4736
-273,-643,4.69098,34.9409,-0.00072195,0.00145076,0.000343575,0.0015038,-0.000774986,1.41764,0.0013379,0.0133416,951,1667,4.69098,-34.941
-266,-643,4.66553,35.4305,0.000237773,0.00156847,0.000793047,0.00193831,-0.000132066,1.13443,0.0013384,0.0127791,958,1667,4.66551,-35.4306
-259,-643,4.66248,35.9414,0.00107529,0.00181328,0.00115459,0.00265641,0.000232161,0.940063,0.00169885,0.0118537,965,1667,4.66245,-35.9415
-252,-643,4.64996,36.4152,0.0018402,0.00263691,0.00150977,0.00379999,0.000677116,0.914384,0.0023405,0.0129624,972,1667,4.64994,-36.4151
-245,-643,4.63849,36.8881,0.00254326,0.00329524,0.00178649,0.00474488,0.00109362,0.889116,0.00286905,0.0119983,979,1667,4.63851,-36.8881
-238,-643,4.66168,37.3566,0.00318172,0.0037417,0.00199963,0.00548085,0.00144257,0.854956,0.00328053,0.0139744,986,1667,4.66167,-37.3566
-231,-643,4.6488,37.8235,0.00381372,0.00416533,0.00221307,0.00620956,0.00176948,0.825035,0.00369396,0.010165,993,1667,4.64879,-37.8235
-224,-643,4.64221,38.2444,0.00435387,0.00453313,0.00237273,0.00681792,0.00206908,0.804276,0.00403641,0.00895733,1000,1667,4.64218,-38.2444
-217,-643,4.62579,38.6558,0.00446587,0.00501374,0.00240931,0.00716464,0.00231497,0.842004,0.00422191,0.00864844,1007,1667,4.62581,-38.6558
-210,-643,4.62006,39.1202,0.00438001,0.00486677,0.00187629,0.0065154,0.00273138,0.849895,0.003778,0.0122966,1014,1667,4.62007,-39.1203
-203,-643,4.62842,39.6223,0.00394306,0.00406246,0.000375772,0.00438324,0.00362228,0.864172,0.00270443,0.0172629,1021,1667,4.62839,-39.6223
-196,-643,4.63135,40.0386,0.00347737,0.00349627,-0.000809956,0.00429683,0.00267681,-0.79123,0.00250566,0.0170694,1028,1667,4.6314,-40.0386
-189,-643,4.74939,40.4026,0.00287541,0.00280042,-0.00235359,0.0051918,0.000484029,-0.777434,0.00331167,0.0156227,1035,1667,4.74943,-40.4026
-182,-643,4.84424,40.8362,0.00212933,0.00161661,-0.0041475,0.00602839,-0.00228244,-0.754532,0.00495806,0.0223172,1042,1667,4.84427,-40.8361
-175,-643,5.005,41.3959,0.000939581,0.000357803,-0.0063495,0.00700485,-0.00570747,-0.762508,0.00735219,0.0350308,1049,1667,5.00506,-41.3959
-168,-643,4.99023,41.7717,-0.000495196,-0.000887331,-0.00895093,0.00826181,-0.00964434,-0.774448,0.0103484,0.0422896,1056,1667,4.99028,-41.7717
-161,-643,4.3855,41.6488,-0.00193019,-0.00276774,-0.0118917,0.00955014,-0.0142481,-0.767798,0.0138289,0.0429089,1063,1667,4.38547,-41.6488
-154,-643,4.31213,41.7742,-0.00354,-0.00487499,-0.0151328,0.01094,-0.019355,-0.763358,0.0177143,0.0463805,1070,1667,4.3121,-41.7741
-147,-643,4.16162,42.2175,0,0,0,0,0,0,0,-1,1077,1667,4.16159,-42.2175
-140,-643,4.30322,22.9166,0,0,0,0,0,0,0,-1,1084,1667,4.30327,-22.9167
-133,-643,3.66748,21.6034,0,0,0,0,0,0,0,-1,1091,1667,3.66743,-21.6034
-126,-643,3.13904,17.689,0,0,0,0,0,0,0,-1,1098,1667,3.13909,-17.689
-119,-643,3.76282,14.1458,0,0,0,0,0,0,0,-1,1105,1667,3.76283,-14.1458
-112,-643,3.81458,16.2069,0,0,0,0,0,0,0,-1,1112,1667,3.81463,-16.2069
-105,-643,-2.23413,10.0996,0,0,0,0,0,0,0,-1,1119,1667,-2.23415,-10.0996
-98,-643,3.11035,4.68066,0,0,0,0,0,0,0,-1,1126,1667,3.11041,-4.68071
-91,-643,-1.74146,-2.5885,0,0,0,0,0,0,0,-1,1133,1667,-1.74146,2.58856
-84,-643,-3.07446,-0.199341,0,0,0,0,0,0,0,-1,1140,1667,-3.07449,0.199383
-77,-643,-3.63794,2.81165,0,0,0,0,0,0,0,-1,1147,1667,-3.63791,-2.8117
-70,-643,-3.36938,4.45203,0,0,0,0,0,0,0,-1,1154,1667,-3.36941,-4.452
-63,-643,-3.67822,6.26855,0,0,0,0,0,0,0,-1,1161,1667,-3.67823,-6.26856
-56,-643,-3.95142,8.1073,0,0,0,0,0,0,0,-1,1168,1667,-3.95139,-8.10732
-49,-643,-4.23535,9.90552,0,0,0,0,0,0,0,-1,1175,1667,-4.23537,-9.90557
-42,-643,-4.25195,10.7059,0,0,0,0,0,0,0,-1,1182,1667,-4.25192,-10.706
-35,-643,-4.10986,11.6588,0,0,0,0,0,0,0,-1,1189,1667,-4.10982,-11.6589
-28,-643,-1.38513,5.604,0,0,0,0,0,0,0,-1,1196,1667,-1.3851,-5.60403
-21,-643,1.61011,23.1276,0,0,0,0,0,0,0,-1,1203,1667,1.61011,-23.1275
-14,-643,5.81958,51.3976,0,0,0,0,0,0,0,-1,1210,1667,5.8196,-51.3975
-7,-643,6.69885,51.5679,0.109609,0.0698826,-0.00338077,0.109894,0.069597,-0.0842942,0.0641949,0.0499806,1217,1667,6.69887,-51.5679
0,-643,7.56055,51.6646,0.0976884,0.114807,0.020377,0.12835,0.0841462,0.984236,0.0752893,0.0444644,1224,1667,7.56059,-51.6645
7,-643,8.31787,52.0458,0.0892151,0.145026,0.0298223,0.157963,0.0762784,1.1615,0.0912176,0.0424105,1231,1667,8.31791,-52.0458
14,-643,9.79651,53.3514,0,0,0,0,0,0,0,-1,1238,1667,9.79653,-53.3514
21,-643,8.41089,52.7626,0,0,0,0,0,0,0,-1,1245,1667,8.41095,-52.7626
28,-643,8.22534,58.1166,0,0,0,0,0,0,0,-1,1252,1667,8.22535,-58.1166
35,-643,8.26843,58.0533,0,0,0,0,0,0,0,-1,1259,1667,8.26841,-58.0533
42,-643,5.90027,56.7242,0,0,0,0,0,0,0,-1,1266,1667,5.9003,-56.7242
49,-643,6.39429,56.2654,0.0587525,0.15036,-0.00242167,0.150424,0.0586885,-1.54439,0.087543,0.046243,1273,1667,6.39424,-56.2654
56,-643,6.87781,55.8965,0.0555513,0.141656,-0.0139868,0.143871,0.0533363,-1.41374,0.0839843,0.0437695,1280,1667,6.87775,-55.8965
63,-643,7.54797,55.7561,0.0519796,0.132429,-0.0262737,0.140249,0.0441592,-1.28149,0.0828025,0.0464763,1287,1667,7.54796,-55.7561
70,-643,8.84631,54.6515,0.0540223,0.123478,-0.0413974,0.142785,0.0347152,-1.1344,0.0859867,0.0447852,1294,1667,8.84626,-54.6515
77,-643,9.28772,53.573,0.0591541,0.111519,-0.0547421,0.146018,0.0246552,-1.00846,0.0902564,0.043774,1301,1667,9.28768,-53.573
84,-643,9.57239,52.6642,0.0625892,0.0929829,-0.0648332,0.144376,0.0111955,-0.900519,0.0927447,0.0449983,1308,1667,9.57245,-52.6642
91,-643,9.43921,51.3392,0.0689407,0.0825745,-0.0723064,0.148385,0.0031305,-0.832398,0.0978963,0.0458717,1315,1667,9.4392,-51.3393
98,-643,9.33118,50.6318,0.0766545,0.0712372,-0.0770978,0.151091,-0.00319954,-0.767839,0.101811,0.0478191,1322,1667,9.33116,-50.6318
105,-643,9.56152,49.6329,0.0866991,0.0585435,-0.0817154,0.155541,-0.0102979,-0.700096,0.107291,0.0475241,1329,1667,9.56156,-49.6329
112,-643,8.90955,50.4373,0.0974434,0.0414502,-0.0856863,0.159591,-0.0206973,-0.627498,0.113921,0.0469477,1336,1667,8.90952,-50.4373
119,-643,9.2467,49.9863,0.109724,0.0192274,-0.0877267,0.163184,-0.0342329,-0.5473,0.121814,0.0463856,1343,1667,9.24665,-49.9864
126,-643,11.7698,41.3724,0.120689,-0.010042,-0.0859563,0.16331,-0.0526633,-0.46032,0.130033,0.0453918,1350,1667,11.7697,-41.3724
133,-643,11.9109,40.6248,0.127418,-0.0472972,-0.0800208,0.158528,-0.0784077,-0.370796,0.139378,0.0475999,1357,1667,11.9109,-40.6247
140,-643,12.0679,39.9163,0,0,0,0,0,0,0,-1,1364,1667,12.0679,-39.9163
147,-643,11.832,40.1658,0,0,0,0,0,0,0,-1,1371,1667,11.832,-40.1657
154,-643,11.8787,39.6199,0,0,0,0,0,0,0,-1,1378,1667,11.8786,-39.6199
161,-643,5.57935,26.2754,0,0,0,0,0,0,0,-1,1385,1667,5.57931,-26.2754
168,-643,10.5563,10.9818,0,0,0,0,0,0,0,-1,1392,1667,10.5562,-10.9819
175,-643,5.88525,-1.1698,0,0,0,0,0,0,0,-1,1399,1667,5.88526,1.16977
182,-643,5.80945,-0.418701,0,0,0,0,0,0,0,-1,1406,1667,5.80949,0.418712
189,-643,5.42297,12.9208,0,0,0,0,0,0,0,-1,1413,1667,5.42298,-12.9208
196,-643,5.51953,11.2415,0,0,0,0,0,0,0,-1,1420,1667,5.51948,-11.2414
203,-643,5.60828,9.82153,0,0,0,0,0,0,0,-1,1427,1667,5.60833,-9.82148
210,-643,4.73218,7.58728,0,0,0,0,0,0,0,-1,1434,1667,4.73222,-7.58728
217,-643,3.8031,5.28955,0,0,0,0,0,0,0,-1,1441,1667,3.80305,-5.28955
224,-643,2.96436,2.97095,0,0,0,0,0,0,0,-1,1448,1667,2.96432,-2.97095
231,-643,2.13403,1.08472,0,0,0,0,0,0,0,-1,1455,1667,2.13403,-1.08467
238,-643,1.18152,-0.261963,0,0,0,0,0,0,0,-1,1462,1667,1.18152,0.26192
245,-643,-0.157471,-1.79016,0,0,0,0,0,0,0,-1,1469,1667,-0.157517,1.7901
252,-643,8.08789,0.0202637,0,0,0,0,0,0,0,-1,1476,1667,8.08791,-0.0203056
259,-643,9.02979,-0.46936,0,0,0,0,0,0,0,-1,1483,1667,9.02974,0.46933
266,-643,4.55066,5.17554,0,0,0,0,0,0,0,-1,1490,1667,4.55063,-5.17556
273,-643,10.74,31.432,0,0,0,0,0,0,0,-1,1497,1667,10.7399,-31.4319
280,-643,12.1675,42.5023,0,0,0,0,0,0,0,-1,1504,1667,12.1675,-42.5023
287,-643,13.0579,43.0175,0,0,0,0,0,0,0,-1,1511,1667,13.0579,-43.0174
294,-643,12.8688,42.4631,0.00217587,0.0215883,-0.000170422,0.0215898,0.00217437,-1.56202,0.0137259,0.0470414,1518,1667,12.8688,-42.4631
301,-643,12.4291,41.8512,0.00217341,0.019731,-0.000473966,0.0197438,0.00216063,-1.54383,0.0125047,0.0382986,1525,1667,12.4291,-41.8512
308,-643,12.4921,41.3595,0.00229904,0.0175296,-0.000720136,0.0175636,0.00226506,-1.52365,0.0110318,0.0341821,1532,1667,12.4921,-41.3595
315,-643,12.4969,40.9695,0.00250532,0.0155814,-0.00117058,0.0156853,0.00240136,-1.48221,0.00975545,0.0271009,1539,1667,12.4969,-40.9695
322,-643,12.538,40.4098,0.00322786,0.0141366,-0.00215783,0.0145479,0.00281653,-1.38244,0.00890944,0.0166544,1546,1667,12.5379,-40.4097
329,-643,12.5513,39.9772,0.00364108,0.012591,-0.00274636,0.0133665,0.00286554,-1.29557,0.00812604,0.0127611,1553,1667,12.5513,-39.9772
336,-643,12.5266,39.6073,0.0037563,0.0113549,-0.00313617,0.0124821,0.00262912,-1.22576,0.00759819,0.0117897,1560,1667,12.5267,-39.6073
343,-643,12.537,39.2205,0.0037815,0.0101281,-0.00346474,0.0116531,0.00225647,-1.15616,0.00713649,0.0128135,1567,1667,12.537,-39.2205
350,-643,12.5713,38.7853,0.00415653,0.00853539,-0.00367281,0.0106218,0.00207009,-1.05418,0.00650198,0.0117007,1574,1667,12.5712,-38.7853
357,-643,12.5836,38.3689,0.00404336,0.00760945,-0.00346107,0.00971977,0.00193305,-1.02325,0.00594126,0.010406,1581,1667,12.5837,-38.3689
364,-643,12.5908,37.9355,0.00354283,0.00682923,-0.00317356,0.00875976,0.00161229,-1.02428,0.0053835,0.00958164,1588,1667,12.5908,-37.9356
371,-643,12.5808,37.5154,0.0030384,0.00597259,-0.00276068,0.00763179,0.0013792,-1.02963,0.00469613,0.00769925,1595,1667,12.5809,-37.5154
378,-643,12.5758,37.0886,0.00252085,0.00505285,-0.00229641,0.00640911,0.00116459,-1.03732,0.0039423,0.00934433,1602,1667,12.5758,-37.0887
385,-643,12.5955,36.6382,0.00206145,0.00394946,-0.00187821,0.00510755,0.000903355,-1.01826,0.00314743,0.0155979,1609,1667,12.5954,-36.6382
392,-643,12.589,36.1899,0.00151719,0.00275969,-0.00138417,0.00365563,0.00062124,-0.996336,0.00225867,0.0181386,1616,1667,12.589,-36.19
399,-643,12.5568,35.7517,0.00090649,0.00151373,-0.000967474,0.00222411,0.000196114,-0.937446,0.00142188,0.0161816,1623,1667,12.5567,-35.7517
406,-643,12.5518,35.2799,0.000314807,0.000445464,-0.000602657,0.000986323,-0.000226052,-0.839388,0.000744429,0.0138844,1630,1667,12.5517,-35.28
413,-643,12.542,34.7991,-0.000103938,-0.000444516,-0.000442642,0.000200042,-0.000748495,-0.60177,0.000577347,0.0197338,1637,1667,12.542,-34.7991
420,-643,12.486,34.3386,-0.000489003,-0.00124121,-0.000432277,-0.000292115,-0.00143809,-0.427389,0.000877712,0.0190323,1644,1667,12.486,-34.3387
427,-643,12.486,33.8765,-0.000728262,-0.00186181,-0.000543794,-0.000509577,-0.00208049,-0.382355,0.00125219,0.0159363,1651,1667,12.4859,-33.8765
434,-643,12.4923,33.401,-0.00100511,-0.00225179,-0.000811191,-0.000605427,-0.00265148,-0.457805,0.00160438,0.0159576,1658,1667,12.4923,-33.401
441,-643,12.4874,32.9091,-0.00126156,-0.00227774,-0.00118752,-0.000477998,-0.00306131,-0.583255,0.00190167,0.0152728,1665,1667,12.4875,-32.9091
448,-643,12.4025,32.4092,-0.00147378,-0.00222522,-0.0014587,-0.000343186,-0.00335581,-0.659354,0.00213204,0.0194833,1672,1667,12.4024,-32.4092
455,-643,12.3069,31.8694,-0.00134416,-0.00211825,-0.00167851,-8.645e-06,-0.00345376,-0.672084,0.00229963,0.0274727,1679,1667,12.3068,-31.8694
462,-643,12.4119,31.2676,-0.001189,-0.00216821,-0.0019504,0.000332311,-0.00368952,-0.662425,0.0025776,0.0413341,1686,1667,12.4118,-31.2675
469,-643,12.4825,30.6221,0,0,0,0,0,0,0,-1,1693,1667,12.4825,-30.6221
476,-643,10.5598,24.5066,0,0,0,0,0,0,0,-1,1700,1667,10.5598,-24.5065
483,-643,10.4502,24.3062,0,0,0,0,0,0,0,-1,1707,1667,10.4502,-24.3062
490,-643,10.6885,24.1522,0,0,0,0,0,0,0,-1,1714,1667,10.6884,-24.1522
497,-643,10.9073,23.9465,0,0,0,0,0,0,0,-1,1721,1667,10.9074,-23.9465
504,-643,8.05591,19.0656,0,0,0,0,0,0,0,-1,1728,1667,8.0559,-19.0655
511,-643,7.74719,18.1564,0,0,0,0,0,0,0,-1,1735,1667,7.74724,-18.1563
518,-643,7.40564,0.922607,0,0,0,0,0,0,0,-1,1742,1667,7.4057,-0.922598
525,-643,0,0,0,0,0,0,0,0,0,-1,1749,1667,0,0
532,-643,0,0,0,0,0,0,0,0,0,-1,1756,1667,0,0
539,-643,0,0,0,0,0,0,0,0,0,-1,1763,1667,0,0
546,-643,0,0,0,0,0,0,0,0,0,-1,1770,1667,0,0
553,-643,0,0,0,0,0,0,0,0,0,-1,1777,1667,0,0
560,-643,0,0,0,0,0,0,0,0,0,-1,1784,1667,0,0
567,-643,0,0,0,0,0,0,0,0,0,-1,1791,1667,0,0
574,-643,0,0,0,0,0,0,0,0,0,-1,1798,1667,0,0
581,-643,0,0,0,0,0,0,0,0,0,-1,1805,1667,0,0
588,-643,0,0,0,0,0,0,0,0,0,-1,1812,1667,0,0
595,-643,0,0,0,0,0,0,0,0,0,-1,1819,1667,0,0
602,-643,0,0,0,0,0,0,0,0,0,-1,1826,1667,0,0
609,-643,0,0,0,0,0,0,0,0,0,-1,1833,1667,0,0
616,-643,0,0,0,0,0,0,0,0,0,-1,1840,1667,0,0
623,-643,0,0,0,0,0,0,0,0,0,-1,1847,1667,0,0
630,-643,0,0,0,0,0,0,0,0,0,-1,1854,1667,0,0
637,-643,0,0,0,0,0,0,0,0,0,-1,1861,1667,0,0
644,-643,0,0,0,0,0,0,0,0,0,-1,1868,1667,0,0
651,-643,0,0,0,0,0,0,0,0,0,-1,1875,1667,0,0
658,-643,0,0,0,0,0,0,0,0,0,-1,1882,1667,0,0
665,-643,0,0,0,0,0,0,0,0,0,-1,1889,1667,0,0
672,-643,0,0,0,0,0,0,0,0,0,-1,1896,1667,0,0
679,-643,0,0,0,0,0,0,0,0,0,-1,1903,1667,0,0
686,-643,0,0,0,0,0,0,0,0,0,-1,1910,1667,0,0
693,-643,0,0,0,0,0,0,0,0,0,-1,1917,1667,0,0
700,-643,0,0,0,0,0,0,0,0,0,-1,1924,1667,0,0
707,-643,0,0,0,0,0,0,0,0,0,-1,1931,1667,0,0
714,-643,0,0,0,0,0,0,0,0,0,-1,1938,1667,0,0
721,-643,0,0,0,0,0,0,0,0,0,-1,1945,1667,0,0
728,-643,0,0,0,0,0,0,0,0,0,-1,1952,1667,0,0
735,-643,0,0,0,0,0,0,0,0,0,-1,1959,1667,0,0
742,-643,0,0,0,0,0,0,0,0,0,-1,1966,1667,0,0
749,-643,0,0,0,0,0,0,0,0,0,-1,1973,1667,0,0
756,-643,0,0,0,0,0,0,0,0,0,-1,1980,1667,0,0
763,-643,0,0,0,0,0,0,0,0,0,-1,1987,1667,0,0
770,-643,0,0,0,0,0,0,0,0,0,-1,1994,1667,0,0
777,-643,0,0,0,0,0,0,0,0,0,-1,2001,1667,0,0
784,-643,0,0,0,0,0,0,0,0,0,-1,2008,1667,0,0
791,-643,0,0,0,0,0,0,0,0,0,-1,2015,1667,0,0
798,-643,0,0,0,0,0,0,0,0,0,-1,2022,1667,0,0
805,-643,0,0,0,0,0,0,0,0,0,-1,2029,1667,0,0
812,-643,0,0,0,0,0,0,0,0,0,-1,2036,1667,0,0
-700,-650,0,0,0,0,0,0,0,0,0,-1,524,1674,0,0
-693,-650,0,0,0,0,0,0,0,0,0,-1,531,1674,0,0
-686,-650,0,0,0,0,0,0,0,0,0,-1,538,1674,0,0
-679,-650,0,0,0,0,0,0,0,0,0,-1,545,1674,0,0
-672,-650,0,0,0,0,0,0,0,0,0,-1,552,1674,0,0
-665,-650,0,0,0,0,0,0,0,0,0,-1,559,1674,0,0
-658,-650,0,0,0,0,0,0,0,0,0,-1,566,1674,0,0
-651,-650,0,0,0,0,0,0,0,0,0,-1,573,1674,0,0
-644,-650,0,0,0,0,0,0,0,0,0,-1,580,1674,0,0
-637,-650,0,0,0,0,0,0,0,0,0,-1,587,1674,0,0
-630,-650,0,0,0,0,0,0,0,0,0,-1,594,1674,0,0
-623,-650,0,0,0,0,0,0,0,0,0,-1,601,1674,0,0
-616,-650,0,0,0,0,0,0,0,0,0,-1,608,1674,0,0
-609,-650,0,0,0,0,0,0,0,0,0,-1,615,1674,0,0
-602,-650,0,0,0,0,0,0,0,0,0,-1,622,1674,0,0
-595,-650,0,0,0,0,0,0,0,0,0,-1,629,1674,0,0
-588,-650,0,0,0,0,0,0,0,0,0,-1,636,1674,0,0
-581,-650,0,0,0,0,0,0,0,0,0,-1,643,1674,0,0
-574,-650,0,0,0,0,0,0,0,0,0,-1,650,1674,0,0
-567,-650,0,0,0,0,0,0,0,0,0,-1,657,1674,0,0
-560,-650,0,0,0,0,0,0,0,0,0,-1,664,1674,0,0
-553,-650,0,0,0,0,0,0,0,0,0,-1,671,1674,0,0
-546,-650,0,0,0,0,0,0,0,0,0,-1,678,1674,0,0
-539,-650,0,0,0,0,0,0,0,0,0,-1,685,1674,0,0
-532,-650,0,0,0,0,0,0,0,0,0,-1,692,1674,0,0
-525,-650,0,0,0,0,0,0,0,0,0,-1,699,1674,0,0
-518,-650,0,0,0,0,0,0,0,0,0,-1,706,1674,0,0
-511,-650,0,0,0,0,0,0,0,0,0,-1,713,1674,0,0
-504,-650,0,0,0,0,0,0,0,0,0,-1,720,1674,0,0
-497,-650,0,0,0,0,0,0,0,0,0,-1,727,1674,0,0
-490,-650,0,0,0,0,0,0,0,0,0,-1,734,1674,0,0
-483,-650,0,0,0,0,0,0,0,0,0,-1,741,1674,0,0
-476,-650,0,0,0,0,0,0,0,0,0,-1,748,1674,0,0
-469,-650,0,0,0,0,0,0,0,0,0,-1,755,1674,0,0
-462,-650,0,0,0,0,0,0,0,0,0,-1,762,1674,0,0
-455,-650,0,0,0,0,0,0,0,0,0,-1,769,1674,0,0
-448,-650,0,0,0,0,0,0,0,0,0,-1,776,1674,0,0
-441,-650,0,0,0,0,0,0,0,0,0,-1,783,1674,0,0
-434,-650,0,0,0,0,0,0,0,0,0,-1,790,1674,0,0
-427,-650,0,0,0,0,0,0,0,0,0,-1,797,1674,0,0
-420,-650,0,0,0,0,0,0,0,0,0,-1,804,1674,0,0
-413,-650,0,0,0,0,0,0,0,0,0,-1,811,1674,0,0
-406,-650,0,0,0,0,0,0,0,0,0,-1,818,1674,0,0
-399,-650,0,0,0,0,0,0,0,0,0,-1,825,1674,0,0
-392,-650,5.44415,6.85669,0,0,0,0,0,0,0,-1,832,1674,5.44414,-6.85674
-385,-650,1.74451,14.0183,0,0,0,0,0,0,0,-1,839,1674,1.74453,-14.0183
-378,-650,0.997986,4.11108,0,0,0,0,0,0,0,-1,846,1674,0.998006,-4.11113
-371,-650,-1.80096,3.78625,0,0,0,0,0,0,0,-1,853,1674,-1.80094,-3.78625
-364,-650,-2.95679,2.57507,0,0,0,0,0,0,0,-1,860,1674,-2.95681,-2.57506
-357,-650,1.97833,10.8362,0,0,0,0,0,0,0,-1,867,1674,1.97835,-10.8362
-350,-650,-5.30243,0.159912,0,0,0,0,0,0,0,-1,874,1674,-5.30244,-0.159866
-343,-650,-6.21338,-1.4425,0,0,0,0,0,0,0,-1,881,1674,-6.21341,1.44248
-336,-650,5.5885,27.6781,0,0,0,0,0,0,0,-1,888,1674,5.5885,-27.6781
-329,-650,5.26343,30.7131,0,0,0,0,0,0,0,-1,895,1674,5.26341,-30.7131
-322,-650,5.57709,31.0847,-0.00458396,0.00973813,-0.000491148,0.00975495,-0.00460078,-1.53656,0.00846448,0.0487926,902,1674,5.57709,-31.0848
-315,-650,5.32343,31.7256,-0.00497709,0.00729459,-0.000711154,0.00733566,-0.00501816,-1.5131,0.0071742,0.0436312,909,1674,5.3234,-31.7256
-308,-650,5.3385,32.3364,-0.00510813,0.00509291,-0.000961917,0.00518282,-0.00519804,-1.47759,0.0059934,0.0262036,916,1674,5.33851,-32.3364
-301,-650,5.30872,33.0006,-0.00500234,0.00313077,-0.00117515,0.00329716,-0.00516873,-1.43014,0.00492744,0.0147127,923,1674,5.30871,-33.0006
-294,-650,5.24341,33.4738,-0.00453562,0.00170801,-0.00118776,0.00192633,-0.00475394,-1.38902,0.00397035,0.0115831,930,1674,5.2434,-33.4738
-287,-650,5.21008,33.9872,-0.00395911,0.000861999,-0.00110404,0.0011028,-0.00419991,-1.35605,0.0032309,0.013539,937,1674,5.21008,-33.9872
-280,-650,5.17932,34.4938,-0.0032875,0.000293224,-0.000916507,0.000514176,-0.00350846,-1.33423,0.00252785,0.0146595,944,1674,5.1793,-34.4937
-273,-650,5.16888,34.9916,-0.00247581,3.00292e-05,-0.000650453,0.00018881,-0.00263459,-1.33137,0.00182259,0.0149254,951,1674,5.16891,-34.9916
-266,-650,5.1416,35.4825,-0.00147792,-0.000124348,-0.000246639,-8.08079e-05,-0.00152146,-1.39606,0.000988472,0.0121861,958,1674,5.14159,-35.4825
-259,-650,5.1319,35.9508,-0.000649962,-0.000138125,4.99935e-05,-0.000133288,-0.000654799,1.47434,0.000399583,0.0142725,965,1674,5.1319,-35.9508
-252,-650,5.11035,36.4045,0.000117925,0.000662899,0.000369915,0.000849854,-6.90297e-05,1.10284,0.000590924,0.013234,972,1674,5.11034,-36.4045
-245,-650,5.10742,36.8618,0.00086966,0.0013362,0.000658525,0.00180155,0.000404311,0.955619,0.00109152,0.0124229,979,1674,5.10744,-36.8618
-238,-650,5.10352,37.3779,0.0015322,0.00186541,0.00093298,0.00264654,0.000751066,0.873751,0.00157488,0.0128711,986,1674,5.10352,-37.3779
-231,-650,5.07031,37.8519,0.00221728,0.00235518,0.00121078,0.00349896,0.00107349,0.813841,0.00206979,0.0168931,993,1674,5.07031,-37.8519
-224,-650,5.07288,38.2745,0.00281463,0.00285578,0.00143378,0.00426914,0.00140128,0.792572,0.0025128,0.0146872,1000,1674,5.07288,-38.2745
-217,-650,5.08075,38.678,0.00303882,0.00338537,0.00153662,0.00475845,0.00166573,0.841543,0.00278817,0.0106006,1007,1674,5.08077,-38.678
-210,-650,5.08557,39.1058,0.00311134,0.00345579,0.00119845,0.00449433,0.00207281,0.856764,0.0025974,0.0105713,1014,1674,5.08559,-39.1058
-203,-650,5.10779,39.5391,0.0029451,0.00294433,0.000170728,0.00311545,0.00277399,0.78427,0.00197302,0.0147611,1021,1674,5.10775,-39.539
-196,-650,5.09949,39.9596,0.00276559,0.00264032,-0.000603332,0.00330953,0.00209638,-0.733675,0.0019333,0.0126776,1028,1674,5.09944,-39.9596
-189,-650,5.11035,40.3712,0.00249037,0.00221519,-0.00164686,0.00400538,0.000700178,-0.743722,0.00247016,0.0108164,1035,1674,5.1103,-40.3712
-182,-650,5.17639,40.8186,0.00211156,0.00144373,-0.00289336,0.00469021,-0.00113491,-0.727949,0.00356583,0.0113235,1042,1674,5.17639,-40.8186
-175,-650,5.20264,41.1813,0.00143857,0.000591741,-0.00440683,0.00544228,-0.00341197,-0.737504,0.00515661,0.0177518,1049,1674,5.20267,-41.1813
-168,-650,5.17224,41.5436,0.000616913,-0.000197743,-0.00614991,0.00637297,-0.0059538,-0.75233,0.00711824,0.0215198,1056,1674,5.17224,-41.5436
-161,-650,5.08374,41.8706,-0.000165288,-0.00143964,-0.00809373,0.00731631,-0.00892124,-0.746117,0.00939,0.0290309,1063,1674,5.08374,-41.8706
-154,-650,5.16138,42.1919,-0.000975794,-0.00275204,-0.0101676,0.00834237,-0.0120702,-0.741834,0.0118505,0.0363016,1070,1674,5.16135,-42.1919
-147,-650,5.27625,42.6101,0,0,0,0,0,0,0,-1,1077,1674,5.27628,-42.6101
-140,-650,4.9696,36.0964,0,0,0,0,0,0,0,-1,1084,1674,4.96957,-36.0964
-133,-650,4.69751,37.2125,0,0,0,0,0,0,0,-1,1091,1674,4.69756,-37.2125
-126,-650,4.56946,39.0813,0,0,0,0,0,0,0,-1,1098,1674,4.5695,-39.0813
-119,-650,5.16663,20.6232,0,0,0,0,0,0,0,-1,1105,1674,5.16665,-20.6232
-112,-650,3.86292,14.4513,0,0,0,0,0,0,0,-1,1112,1674,3.8629,-14.4513
-105,-650,7.92102,38.1313,0,0,0,0,0,0,0,-1,1119,1674,7.92104,-38.1314
-98,-650,3.3761,6.78003,0,0,0,0,0,0,0,-1,1126,1674,3.37611,-6.78009
-91,-650,3.66809,7.04443,0,0,0,0,0,0,0,-1,1133,1674,3.66806,-7.04439
-84,-650,-3.82666,-1.59521,0,0,0,0,0,0,0,-1,1140,1674,-3.82661,1.59517
-77,-650,-4.70557,1.90198,0,0,0,0,0,0,0,-1,1147,1674,-4.7056,-1.90194
-70,-650,-4.88171,3.81653,0,0,0,0,0,0,0,-1,1154,1674,-4.88176,-3.81651
-63,-650,-5.14612,5.56543,0,0,0,0,0,0,0,-1,1161,1674,-5.14612,-5.56547
-56,-650,-5.38367,7.41101,0,0,0,0,0,0,0,-1,1168,1674,-5.38361,-7.41102
-49,-650,-5.11316,8.23706,0,0,0,0,0,0,0,-1,1175,1674,-5.11317,-8.23708
-42,-650,-4.99487,9.6792,0,0,0,0,0,0,0,-1,1182,1674,-4.99484,-9.67921
-35,-650,-4.77771,11.3369,0,0,0,0,0,0,0,-1,1189,1674,-4.77769,-11.3369
-28,-650,-4.1936,13.1501,0,0,0,0,0,0,0,-1,1196,1674,-4.19358,-13.1501
-21,-650,7.49512,36.2162,0,0,0,0,0,0,0,-1,1203,1674,7.49515,-36.2162
-14,-650,6.64539,50.2356,0,0,0,0,0,0,0,-1,1210,1674,6.64544,-50.2355
-7,-650,7.57214,50.886,0.0883513,0.0839754,0.00853791,0.0949772,0.0773496,0.659966,0.0583369,0.0493133,1217,1674,7.57212,-50.886
0,-650,8.17188,51.3927,0.0799612,0.114932,0.0244797,0.127529,0.0673634,1.09552,0.0736682,0.0441266,1224,1674,8.17192,-51.3928
7,-650,8.31714,52.012,0.0721519,0.141248,0.0326023,0.154203,0.0591976,1.19258,0.0898254,0.0427648,1231,1674,8.31718,-52.012
14,-650,9.35718,52.1844,0.0657246,0.159028,0.0354814,0.170988,0.0537648,1.24568,0.100961,0.0433401,1238,1674,9.35722,-52.1845
21,-650,8.57471,51.9309,0.0595592,0.168958,0.0332806,0.178287,0.0502303,1.2975,0.106153,0.0449601,1245,1674,8.57475,-51.931
28,-650,8.18298,56.7336,0.0553253,0.17304,0.0262922,0.178646,0.0497197,1.36074,0.106467,0.0431415,1252,1674,8.18304,-56.7336
35,-650,7.93408,56.9581,0.0521281,0.169995,0.0164565,0.172249,0.0498735,1.43465,0.102343,0.045241,1259,1674,7.93406,-56.9581
42,-650,8.02979,56.827,0.0489944,0.162726,0.00543062,0.162985,0.0487357,1.52319,0.0966,0.0443907,1266,1674,8.02975,-56.8271
49,-650,6.80762,55.2952,0.046223,0.152042,-0.00386871,0.152184,0.0460818,-1.5343,0.0901122,0.0427559,1273,1674,6.80757,-55.2952
56,-650,7.67273,55.9045,0,0,0,0,0,0,0,-1,1280,1674,7.67272,-55.9045
63,-650,7.79553,55.0568,0,0,0,0,0,0,0,-1,1287,1674,7.79548,-55.0568
70,-650,8.38489,53.63,0,0,0,0,0,0,0,-1,1294,1674,8.3849,-53.63
77,-650,8.82202,52.7346,0,0,0,0,0,0,0,-1,1301,1674,8.82198,-52.7346
84,-650,9.01318,51.941,0,0,0,0,0,0,0,-1,1308,1674,9.01324,-51.941
91,-650,9.18591,50.9513,0.0568096,0.0844665,-0.0682925,0.140317,0.000959575,-0.885292,0.0932262,0.0478821,1315,1674,9.18589,-50.9513
98,-650,9.33936,49.9703,0.0629134,0.0719558,-0.0720175,0.139594,-0.00472473,-0.816747,0.0946768,0.0457484,1322,1674,9.33941,-49.9703
105,-650,9.59753,48.9082,0.0708831,0.0596733,-0.0751395,0.140626,-0.0100701,-0.748171,0.0972815,0.0452739,1329,1674,9.59748,-48.9082
112,-650,9.57239,48.2917,0.0792916,0.0434151,-0.0777566,0.141152,-0.0184455,-0.672033,0.100814,0.0435058,1336,1674,9.5724,-48.2918
119,-650,9.78748,47.8201,0.0888919,0.0227643,-0.0786111,0.141109,-0.0294533,-0.586329,0.105273,0.0414546,1343,1674,9.78744,-47.8201
126,-650,11.3184,42.6802,0.0978685,-0.00358056,-0.0761072,0.138606,-0.0443179,-0.491459,0.110189,0.0476212,1350,1674,11.3183,-42.6802
133,-650,11.4296,42.0686,0.10345,-0.0348152,-0.0703552,0.132954,-0.0643193,-0.397082,0.116171,0.0490772,1357,1674,11.4296,-42.0686
140,-650,11.5554,41.3782,0.104118,-0.0685735,-0.0615812,0.123828,-0.0882835,-0.309763,0.123034,0.0458242,1364,1674,11.5554,-41.3782
147,-650,11.5098,41.1619,0.0986433,-0.0990956,-0.0510274,0.111035,-0.111487,-0.238226,0.128473,0.0463216,1371,1674,11.5098,-41.1619
154,-650,11.5386,40.5962,0,0,0,0,0,0,0,-1,1378,1674,11.5386,-40.5962
161,-650,4.09106,30.3021,0,0,0,0,0,0,0,-1,1385,1674,4.09104,-30.3021
168,-650,11.2113,7.87231,0,0,0,0,0,0,0,-1,1392,1674,11.2113,-7.87236
175,-650,5.62537,-0.230713,0,0,0,0,0,0,0,-1,1399,1674,5.62538,0.230745
182,-650,5.56006,0.421631,0,0,0,0,0,0,0,-1,1406,1674,5.56,-0.421652
189,-650,4.81543,11.0654,0,0,0,0,0,0,0,-1,1413,1674,4.81542,-11.0654
196,-650,5.39575,11.9077,0,0,0,0,0,0,0,-1,1420,1674,5.39575,-11.9078
203,-650,3.93628,11.8215,0,0,0,0,0,0,0,-1,1427,1674,3.93624,-11.8216
210,-650,5.40955,8.08594,0,0,0,0,0,0,0,-1,1434,1674,5.40958,-8.086
217,-650,5.12451,4.69739,0,0,0,0,0,0,0,-1,1441,1674,5.12451,-4.69738
224,-650,4.79041,1.45813,0,0,0,0,0,0,0,-1,1448,1674,4.79046,-1.45816
231,-650,4.04102,-0.642212,0,0,0,0,0,0,0,-1,1455,1674,4.04101,0.642209
238,-650,3.23022,-1.43396,0,0,0,0,0,0,0,-1,1462,1674,3.23023,1.43394
245,-650,1.65894,-2.55042,0,0,0,0,0,0,0,-1,1469,1674,1.65889,2.55036
252,-650,8.75342,0.355103,0,0,0,0,0,0,0,-1,1476,1674,8.75337,-0.355147
259,-650,5.61255,3.17566,0,0,0,0,0,0,0,-1,1483,1674,5.61257,-3.17572
266,-650,4.00403,6.10229,0,0,0,0,0,0,0,-1,1490,1674,4.00401,-6.10225
273,-650,11.9524,42.7109,0,0,0,0,0,0,0,-1,1497,1674,11.9524,-42.7109
280,-650,11.7034,42.7015,0,0,0,0,0,0,0,-1,1504,1674,11.7034,-42.7016
287,-650,11.9675,42.3403,0.00401228,0.0161058,-0.000240613,0.0161106,0.0040075,-1.55091,0.009685,0.0463614,1511,1674,11.9675,-42.3404
294,-650,12.0032,42.0304,0.00350758,0.0151175,-0.000378225,0.0151298,0.00349527,-1.53826,0.00914682,0.0426669,1518,1674,12.0031,-42.0304
301,-650,11.9882,41.6563,0.00319917,0.0138467,-0.000497267,0.0138699,0.003176,-1.52423,0.00839075,0.0314704,1525,1674,11.9882,-41.6563
308,-650,12.0671,41.2207,0.00307529,0.0124113,-0.000557003,0.0124444,0.00304218,-1.51142,0.00749103,0.0171518,1532,1674,12.0672,-41.2207
315,-650,12.125,40.8092,0.00305072,0.0109835,-0.000823346,0.0110681,0.00296616,-1.46846,0.0066155,0.0104683,1539,1674,12.125,-40.8092
322,-650,12.1146,40.4102,0.00318443,0.00996705,-0.00137284,0.0102344,0.0029171,-1.37847,0.00608814,0.0103489,1546,1674,12.1146,-40.4101
329,-650,12.1438,39.9641,0.0031726,0.0089067,-0.00171388,0.00937991,0.00269939,-1.3014,0.00557572,0.016167,1553,1674,12.1438,-39.9641
336,-650,12.1584,39.5818,0.00304348,0.00806604,-0.00195537,0.00873753,0.002372,-1.24001,0.0052173,0.0142139,1560,1674,12.1584,-39.5817
343,-650,12.1537,39.1819,0.00285928,0.00721694,-0.00220517,0.00813812,0.0019381,-1.17509,0.00490862,0.012965,1567,1674,12.1537,-39.1819
350,-650,12.1691,38.7748,0.00288185,0.00610116,-0.0024131,0.00739221,0.00159081,-1.07953,0.00449275,0.0149478,1574,1674,12.1691,-38.7747
357,-650,12.1406,38.3727,0.00255087,0.00548708,-0.00225194,0.0067072,0.00133075,-1.07426,0.00410051,0.0133135,1581,1674,12.1406,-38.3727
364,-650,12.156,37.9496,0.00201619,0.00491234,-0.00202189,0.00595122,0.000977311,-1.09616,0.00368516,0.00943428,1588,1674,12.156,-37.9496
371,-650,12.1429,37.5145,0.00147341,0.00425601,-0.00167403,0.00504143,0.000688,-1.13211,0.00315671,0.0108329,1595,1674,12.1429,-37.5145
378,-650,12.1245,37.0885,0.000983227,0.00341935,-0.00128983,0.00397537,0.000427216,-1.16379,0.00251994,0.0121396,1602,1674,12.1245,-37.0884
385,-650,12.1243,36.6512,0.000601774,0.00247682,-0.00100729,0.00291537,0.00016322,-1.16017,0.00189152,0.0138062,1609,1674,12.1242,-36.6512
392,-650,12.1331,36.2089,0.000125998,0.00134944,-0.000599396,0.00159415,-0.000118715,-1.18318,0.00110447,0.0183356,1616,1674,12.1331,-36.2088
399,-650,12.1128,35.7607,-0.000397954,0.000151385,-0.000283379,0.000271363,-0.000517933,-1.17029,0.000463052,0.0174495,1623,1674,12.1129,-35.7608
406,-650,12.0735,35.2969,-0.000887898,-0.000861059,-8.72659e-06,-0.000858471,-0.000890486,-1.28251,0.000583279,0.0149186,1630,1674,12.0735,-35.2969
413,-650,12.0503,34.8331,-0.00114449,-0.00169994,6.81761e-05,-0.00113624,-0.00170818,0.120361,0.001004,0.0149438,1637,1674,12.0503,-34.8331
420,-650,12.0228,34.3795,-0.00136932,-0.00249653,-6.67958e-05,-0.00136538,-0.00250048,-0.0589824,0.00144569,0.0151433,1644,1674,12.0228,-34.3795
427,-650,12.0261,33.9221,-0.0014974,-0.0030144,-0.000362768,-0.00141512,-0.00309669,-0.223056,0.00179008,0.0144663,1651,1674,12.0261,-33.9221
434,-650,12.0237,33.4523,-0.00169538,-0.00332719,-0.000818125,-0.00135585,-0.00366672,-0.393378,0.00214078,0.0173482,1658,1674,12.0236,-33.4522
441,-650,11.9794,32.9862,-0.00194784,-0.0032426,-0.00139769,-0.00105488,-0.00413556,-0.568519,0.00248132,0.0279579,1665,1674,11.9793,-32.9862
448,-650,11.8223,32.5226,-0.00216853,-0.00302677,-0.00181316,-0.000734402,-0.00446091,-0.669202,0.00276188,0.0397019,1672,1674,11.8222,-32.5226
455,-650,11.5417,31.8245,-0.00186735,-0.00280362,-0.00217325,-0.000112384,-0.00455859,-0.679316,0.0030023,0.0455351,1679,1674,11.5418,-31.8245
462,-650,11.4691,31.3674,0,0,0,0,0,0,0,-1,1686,1674,11.4691,-31.3674
469,-650,11.3628,29.8889,0,0,0,0,0,0,0,-1,1693,1674,11.3628,-29.8889
476,-650,10.9189,27.1289,0,0,0,0,0,0,0,-1,1700,1674,10.919,-27.1289
483,-650,10.2426,24.5127,0,0,0,0,0,0,0,-1,1707,1674,10.2425,-24.5127
490,-650,10.4818,24.3475,0,0,0,0,0,0,0,-1,1714,1674,10.4818,-24.3475
497,-650,10.4985,20.1362,0,0,0,0,0,0,0,-1,1721,1674,10.4986,-20.1362
504,-650,9.69458,18.7721,0,0,0,0,0,0,0,-1,1728,1674,9.6946,-18.772
511,-650,9.37158,17.7506,0,0,0,0,0,0,0,-1,1735,1674,9.37159,-17.7506
518,-650,0,0,0,0,0,0,0,0,0,-1,1742,1674,0,0
525,-650,0,0,0,0,0,0,0,0,0,-1,1749,1674,0,0
532,-650,0,0,0,0,0,0,0,0,0,-1,1756,1674,0,0
539,-650,0,0,0,0,0,0,0,0,0,-1,1763,1674,0,0
546,-650,0,0,0,0,0,0,0,0,0,-1,1770,1674,0,0
553,-650,0,0,0,0,0,0,0,0,0,-1,1777,1674,0,0
560,-650,0,0,0,0,0,0,0,0,0,-1,1784,1674,0,0
567,-650,0,0,0,0,0,0,0,0,0,-1,1791,1674,0,0
574,-650,0,0,0,0,0,0,0,0,0,-1,1798,1674,0,0
581,-650,0,0,0,0,0,0,0,0,0,-1,1805,1674,0,0
588,-650,0,0,0,0,0,0,0,0,0,-1,1812,1674,0,0
595,-650,0,0,0,0,0,0,0,0,0,-1,1819,1674,0,0
602,-650,0,0,0,0,0,0,0,0,0,-1,1826,1674,0,0
609,-650,0,0,0,0,0,0,0,0,0,-1,1833,1674,0,0
616,-650,0,0,0,0,0,0,0,0,0,-1,1840,1674,0,0
623,-650,0,0,0,0,0,0,0,0,0,-1,1847,1674,0,0
630,-650,0,0,0,0,0,0,0,0,0,-1,1854,1674,0,0
637,-650,0,0,0,0,0,0,0,0,0,-1,1861,1674,0,0
644,-650,0,0,0,0,0,0,0,0,0,-1,1868,1674,0,0
651,-650,0,0,0,0,0,0,0,0,0,-1,1875,1674,0,0
658,-650,0,0,0,0,0,0,0,0,0,-1,1882,1674,0,0
665,-650,0,0,0,0,0,0,0,0,0,-1,1889,1674,0,0
672,-650,0,0,0,0,0,0,0,0,0,-1,1896,1674,0,0
679,-650,0,0,0,0,0,0,0,0,0,-1,1903,1674,0,0
686,-650,0,0,0,0,0,0,0,0,0,-1,1910,1674,0,0
693,-650,0,0,0,0,0,0,0,0,0,-1,1917,1674,0,0
700,-650,0,0,0,0,0,0,0,0,0,-1,1924,1674,0,0
707,-650,0,0,0,0,0,0,0,0,0,-1,1931,1674,0,0
714,-650,0,0,0,0,0,0,0,0,0,-1,1938,1674,0,0
721,-650,0,0,0,0,0,0,0,0,0,-1,1945,1674,0,0
728,-650,0,0,0,0,0,0,0,0,0,-1,1952,1674,0,0
735,-650,0,0,0,0,0,0,0,0,0,-1,1959,1674,0,0
742,-650,0,0,0,0,0,0,0,0,0,-1,1966,1674,0,0
749,-650,0,0,0,0,0,0,0,0,0,-1,1973,1674,0,0
756,-650,0,0,0,0,0,0,0,0,0,-1,1980,1674,0,0
763,-650,0,0,0,0,0,0,0,0,0,-1,1987,1674,0,0
770,-650,0,0,0,0,0,0,0,0,0,-1,1994,1674,0,0
777,-650,0,0,0,0,0,0,0,0,0,-1,2001,1674,0,0
784,-650,0,0,0,0,0,0,0,0,0,-1,2008,1674,0,0
791,-650,0,0,0,0,0,0,0,0,0,-1,2015,1674,0,0
798,-650,0,0,0,0,0,0,0,0,0,-1,2022,1674,0,0
805,-650,0,0,0,0,0,0,0,0,0,-1,2029,1674,0,0
812,-650,0,0,0,0,0,0,0,0,0,-1,2036,1674,0,0
-700,-657,0,0,0,0,0,0,0,0,0,-1,524,1681,0,0
-693,-657,0,0,0,0,0,0,0,0,0,-1,531,1681,0,0
-686,-657,0,0,0,0,0,0,0,0,0,-1,538,1681,0,0
-679,-657,0,0,0,0,0,0,0,0,0,-1,545,1681,0,0
-672,-657,0,0,0,0,0,0,0,0,0,-1,552,1681,0,0
-665,-657,0,0,0,0,0,0,0,0,0,-1,559,1681,0,0
-658,-657,0,0,0,0,0,0,0,0,0,-1,566,1681,0,0
-651,-657,0,0,0,0,0,0,0,0,0,-1,573,1681,0,0
-644,-657,0,0,0,0,0,0,0,0,0,-1,580,1681,0,0
-637,-657,0,0,0,0,0,0,0,0,0,-1,587,1681,0,0
-630,-657,0,0,0,0,0,0,0,0,0,-1,594,1681,0,0
-623,-657,0,0,0,0,0,0,0,0,0,-1,601,1681,0,0
-616,-657,0,0,0,0,0,0,0,0,0,-1,608,1681,0,0
-609,-657,0,0,0,0,0,0,0,0,0,-1,615,1681,0,0
-602,-657,0,0,0,0,0,0,0,0,0,-1,622,1681,0,0
-595,-657,0,0,0,0,0,0,0,0,0,-1,629,1681,0,0
-588,-657,0,0,0,0,0,0,0,0,0,-1,636,1681,0,0
-581,-657,0,0,0,0,0,0,0,0,0,-1,643,1681,0,0
-574,-657,0,0,0,0,0,0,0,0,0,-1,650,1681,0,0
-567,-657,0,0,0,0,0,0,0,0,0,-1,657,1681,0,0
-560,-657,0,0,0,0,0,0,0,0,0,-1,664,1681,0,0
-553,-657,0,0,0,0,0,0,0,0,0,-1,671,1681,0,0
-546,-657,0,0,0,0,0,0,0,0,0,-1,678,1681,0,0
-539,-657,0,0,0,0,0,0,0,0,0,-1,685,1681,0,0
-532,-657,0,0,0,0,0,0,0,0,0,-1,692,1681,0,0
-525,-657,0,0,0,0,0,0,0,0,0,-1,699,1681,0,0
-518,-657,0,0,0,0,0,0,0,0,0,-1,706,1681,0,0
-511,-657,0,0,0,0,0,0,0,0,0,-1,713,1681,0,0
-504,-657,0,0,0,0,0,0,0,0,0,-1,720,1681,0,0
-497,-657,0,0,0,0,0,0,0,0,0,-1,727,1681,0,0
-490,-657,0,0,0,0,0,0,0,0,0,-1,734,1681,0,0
-483,-657,0,0,0,0,0,0,0,0,0,-1,741,1681,0,0
-476,-657,0,0,0,0,0,0,0,0,0,-1,748,1681,0,0
-469,-657,0,0,0,0,0,0,0,0,0,-1,755,1681,0,0
-462,-657,0,0,0,0,0,0,0,0,0,-1,762,1681,0,0
-455,-657,0,0,0,0,0,0,0,0,0,-1,769,1681,0,0
-448,-657,0,0,0,0,0,0,0,0,0,-1,776,1681,0,0
-441,-657,0,0,0,0,0,0,0,0,0,-1,783,1681,0,0
-434,-657,0,0,0,0,0,0,0,0,0,-1,790,1681,0,0
-427,-657,0,0,0,0,0,0,0,0,0,-1,797,1681,0,0
-420,-657,0,0,0,0,0,0,0,0,0,-1,804,1681,0,0
-413,-657,0,0,0,0,0,0,0,0,0,-1,811,1681,0,0
-406,-657,0,0,0,0,0,0,0,0,0,-1,818,1681,0,0
-399,-657,0,0,0,0,0,0,0,0,0,-1,825,1681,0,0
-392,-657,0,0,0,0,0,0,0,0,0,-1,832,1681,0,0
-385,-657,1.09814,6.18896,0,0,0,0,0,0,0,-1,839,1681,1.09814,-6.18894
-378,-657,0.31488,4.46753,0,0,0,0,0,0,0,-1,846,1681,0.31487,-4.46755
-371,-657,-0.519043,2.69421,0,0,0,0,0,0,0,-1,853,1681,-0.519064,-2.69422
-364,-657,-3.42017,4.18323,0,0,0,0,0,0,0,-1,860,1681,-3.42019,-4.18319
-357,-657,-4.41913,2.97168,0,0,0,0,0,0,0,-1,867,1681,-4.41913,-2.97165
-350,-657,-5.42291,1.70276,0,0,0,0,0,0,0,-1,874,1681,-5.42291,-1.70277
-343,-657,-6.51294,0.397339,0,0,0,0,0,0,0,-1,881,1681,-6.51295,-0.397335
-336,-657,3.08527,26.0612,0,0,0,0,0,0,0,-1,888,1681,3.08528,-26.0611
-329,-657,6.30695,30.1536,0,0,0,0,0,0,0,-1,895,1681,6.30692,-30.1535
-322,-657,6.13428,30.949,-0.00673414,0.0130185,-0.00137916,0.0131143,-0.00682997,-1.50142,0.0117038,0.0482741,902,1681,6.13429,-30.949
-315,-657,6.0816,31.1028,-0.00717901,0.00965452,-0.00150932,0.00978877,-0.00731327,-1.48208,0.00990829,0.0454265,909,1681,6.08163,-31.1028
-308,-657,6.24268,32.5178,-0.00726198,0.00649282,-0.00170399,0.00670077,-0.00746993,-1.44936,0.00818548,0.037722,916,1681,6.24265,-32.5178
-301,-657,5.83325,33.1003,-0.00704818,0.0038216,-0.00185771,0.00413033,-0.00735691,-1.40612,0.0067188,0.0334456,923,1681,5.83327,-33.1003
-294,-657,5.73523,33.5651,-0.00646877,0.00175061,-0.00191435,0.0021746,-0.00689277,-1.35283,0.00546619,0.0194552,930,1681,5.73522,-33.565
-287,-657,5.68506,34.0427,-0.00576411,0.000434965,-0.00185813,0.000949259,-0.0062784,-1.30078,0.00453526,0.0123435,937,1681,5.68505,-34.0428
-280,-657,5.65112,34.5238,-0.00502972,-0.000476658,-0.00171413,9.65192e-05,-0.0056029,-1.2481,0.00376785,0.0143108,944,1681,5.65115,-34.5238
-273,-657,5.64722,35.0275,-0.00413687,-0.000974533,-0.00146175,-0.000402373,-0.00470903,-1.19771,0.00301419,0.0105456,951,1681,5.64719,-35.0275
-266,-657,5.60461,35.5123,-0.00304269,-0.00140153,-0.00106522,-0.000877474,-0.00356675,-1.11359,0.00214599,0.0146948,958,1681,5.60459,-35.5123
-259,-657,5.5824,35.973,-0.00219436,-0.00167843,-0.000818151,-0.00107854,-0.00279425,-0.938117,0.00162718,0.018624,965,1681,5.5824,-35.973
-252,-657,5.56744,36.4128,-0.00140693,-0.000931625,-0.00052904,-0.000589312,-0.00174925,-0.9965,0.00102768,0.0138296,972,1681,5.56741,-36.4129
-245,-657,5.5578,36.8795,-0.000619276,-0.000307682,-0.00023955,-0.000177723,-0.000749235,-1.07372,0.000452049,0.0164119,979,1681,5.55779,-36.8795
-238,-657,5.56348,37.382,4.04197e-05,0.000244229,7.87688e-05,0.000271123,1.35257e-05,1.24178,0.000176413,0.0206714,986,1681,5.56349,-37.382
-231,-657,5.54822,37.8428,0.000751109,0.000744896,0.000404583,0.0011526,0.000343408,0.781559,0.000683325,0.0208638,993,1681,5.54824,-37.8428
-224,-657,5.52435,38.2899,0.00136537,0.00128756,0.000659634,0.00198725,0.000665688,0.755942,0.00116798,0.0167907,1000,1681,5.52438,-38.2899
-217,-657,5.53314,38.7273,0.00165004,0.00185628,0.000802415,0.00256217,0.000944147,0.849302,0.00149623,0.010903,1007,1681,5.53312,-38.7273
-210,-657,5.54419,39.1465,0.00182099,0.00208381,0.000618398,0.00258461,0.0013202,0.890092,0.00149234,0.0119365,1014,1681,5.54418,-39.1465
-203,-657,5.52319,39.5751,0.00186308,0.00185355,-1.1017e-05,0.00187032,0.00184632,-0.581274,0.00123896,0.0136647,1021,1681,5.52317,-39.575
-196,-657,5.53223,39.996,0.00190861,0.00180347,-0.000447406,0.00230652,0.00140555,-0.726914,0.00134225,0.0129374,1028,1681,5.53228,-39.9959
-189,-657,5.54626,40.3901,0.00187026,0.00161372,-0.00112858,0.00287783,0.00060615,-0.728812,0.00175182,0.00930381,1035,1681,5.54626,-40.3901
-182,-657,5.54614,40.7794,0.0017744,0.00115895,-0.00197094,0.00346149,-0.000528141,-0.707957,0.00250236,0.00862346,1042,1681,5.54608,-40.7794
-175,-657,5.56702,41.1802,0.00152728,0.000643532,-0.00296176,0.00407995,-0.00190913,-0.711347,0.0035327,0.0112794,1049,1681,5.56703,-41.1802
-168,-657,5.552,41.5841,0.00117008,0.000218367,-0.00407679,0.00479869,-0.00341025,-0.7273,0.00476198,0.0138126,1056,1681,5.55201,-41.5841
-161,-657,5.57251,41.9816,0.000837673,-0.00057667,-0.00532994,0.00550715,-0.00524614,-0.719444,0.00620902,0.0141214,1063,1681,5.57247,-41.9816
-154,-657,5.63525,42.3224,0.000539754,-0.00136948,-0.00663823,0.00629165,-0.00712138,-0.713985,0.00774895,0.0170489,1070,1681,5.63531,-42.3224
-147,-657,5.62427,42.6879,0.00039356,-0.00196904,-0.00785204,0.00715266,-0.00872814,-0.710735,0.00918381,0.0342855,1077,1681,5.62428,-42.6879
-140,-657,5.65466,43.4824,0,0,0,0,0,0,0,-1,1084,1681,5.65467,-43.4824
-133,-657,5.57397,43.7078,0,0,0,0,0,0,0,-1,1091,1681,5.57393,-43.7078
-126,-657,5.58643,44.1034,0,0,0,0,0,0,0,-1,1098,1681,5.58646,-44.1034
-119,-657,5.73425,44.1079,0,0,0,0,0,0,0,-1,1105,1681,5.7342,-44.1079
-112,-657,6.24219,42.9092,0,0,0,0,0,0,0,-1,1112,1681,6.24217,-42.9092
-105,-657,7.37256,41.0361,0,0,0,0,0,0,0,-1,1119,1681,7.37254,-41.0362
-98,-657,8.14404,38.4435,0,0,0,0,0,0,0,-1,1126,1681,8.14405,-38.4435
-91,-657,3.6521,16.6017,0,0,0,0,0,0,0,-1,1133,1681,3.65215,-16.6017
-84,-657,4.08008,10.4579,0,0,0,0,0,0,0,-1,1140,1681,4.08006,-10.4579
-77,-657,-5.29846,0.396606,0,0,0,0,0,0,0,-1,1147,1681,-5.29842,-0.396573
-70,-657,-4.14893,2.14575,0,0,0,0,0,0,0,-1,1154,1681,-4.14893,-2.1458
-63,-657,-4.1239,3.177,0,0,0,0,0,0,0,-1,1161,1681,-4.12391,-3.17698
-56,-657,-6.40576,5.73987,0,0,0,0,0,0,0,-1,1168,1681,-6.40577,-5.7399
-49,-657,-5.98462,7.54053,0,0,0,0,0,0,0,-1,1175,1681,-5.98466,-7.5405
-42,-657,-5.71948,9.28955,0,0,0,0,0,0,0,-1,1182,1681,-5.71951,-9.2895
-35,-657,-5.44556,11.015,0,0,0,0,0,0,0,-1,1189,1681,-5.44555,-11.015
-28,-657,-1.3446,8.92847,0,0,0,0,0,0,0,-1,1196,1681,-1.34459,-8.92848
-21,-657,6.49121,46.181,0,0,0,0,0,0,0,-1,1203,1681,6.49117,-46.181
-14,-657,0.238892,48.621,0,0,0,0,0,0,0,-1,1210,1681,0.238938,-48.621
-7,-657,7.26831,51.0669,0,0,0,0,0,0,0,-1,1217,1681,7.26831,-51.0668
0,-657,7.70422,51.1534,0.0643266,0.110615,0.0256836,0.122044,0.0528977,1.15212,0.07067,0.0489686,1224,1681,7.70428,-51.1534
7,-657,8.11658,51.2461,0.0581829,0.131266,0.0316535,0.143069,0.0463795,1.21387,0.0842862,0.0473048,1231,1681,8.11652,-51.2461
14,-657,8.70532,51.2756,0.0527675,0.146941,0.0336433,0.157725,0.0419834,1.2606,0.0943232,0.0416605,1238,1681,8.70529,-51.2756
21,-657,8.82837,51.1281,0.0475929,0.156815,0.0315369,0.165267,0.039141,1.30895,0.0997254,0.0441869,1245,1681,8.82838,-51.1281
28,-657,8.99927,51.3634,0.0439984,0.161187,0.0248014,0.16622,0.0389657,1.37059,0.100378,0.0465216,1252,1681,8.99929,-51.3634
35,-657,7.49255,55.7643,0.0413636,0.15921,0.0153436,0.161175,0.0393986,1.44342,0.097021,0.0424977,1259,1681,7.49252,-55.7643
42,-657,7.55786,55.4786,0.0390304,0.152847,0.00484875,0.153053,0.0388242,1.5283,0.0918703,0.0418836,1266,1681,7.55788,-55.4787
49,-657,7.76147,55.2085,0.0370379,0.143088,-0.00428825,0.143261,0.0368648,-1.53045,0.0858978,0.043287,1273,1681,7.76151,-55.2085
56,-657,7.91089,54.6788,0.0352944,0.134639,-0.0144794,0.136706,0.033227,-1.42898,0.0823279,0.0454049,1280,1681,7.91083,-54.6788
63,-657,8.05322,53.8469,0.0331977,0.126815,-0.0243972,0.132792,0.0272212,-1.33056,0.0809935,0.0465357,1287,1681,8.05323,-53.8469
70,-657,8.4425,52.9285,0,0,0,0,0,0,0,-1,1294,1681,8.44248,-52.9285
77,-657,8.84192,51.9801,0.0396134,0.10871,-0.046651,0.132213,0.0161108,-1.10412,0.0832924,0.04652,1301,1681,8.84188,-51.9801
84,-657,8.94275,51.134,0.0421527,0.0905597,-0.055349,0.126766,0.00594657,-0.991515,0.0825998,0.0437898,1308,1681,8.9427,-51.1341
91,-657,9.12939,50.1918,0.0464647,0.0793191,-0.0616594,0.126702,-0.000918247,-0.915584,0.0847757,0.043884,1315,1681,9.12934,-50.1918
98,-657,9.21558,48.3137,0,0,0,0,0,0,0,-1,1322,1681,9.21559,-48.3137
105,-657,9.75708,47.606,0.0573903,0.0549579,-0.0663817,0.122567,-0.0102188,-0.776239,0.0853218,0.0459713,1329,1681,9.75712,-47.606
112,-657,10.1133,46.6252,0.0638216,0.0401286,-0.0678795,0.120881,-0.0169304,-0.699007,0.0867828,0.0481727,1336,1681,10.1133,-46.6253
119,-657,10.3409,44.3297,0.0711846,0.0219145,-0.0679051,0.118785,-0.0256861,-0.611388,0.0889965,0.0461383,1343,1681,10.341,-44.3297
126,-657,10.7516,43.8953,0.0783717,-0.000290339,-0.0652513,0.115229,-0.0371476,-0.514174,0.091744,0.0455274,1350,1681,10.7516,-43.8953
133,-657,11.0259,43.4188,0.0830651,-0.0250611,-0.0603026,0.109991,-0.051987,-0.419951,0.0954959,0.0445275,1357,1681,11.0259,-43.4188
140,-657,11.1888,42.6892,0.0843884,-0.0494173,-0.053873,0.103383,-0.0684114,-0.338965,0.0998679,0.0434625,1364,1681,11.1889,-42.6893
147,-657,11.2241,42.0365,0.0820963,-0.0687446,-0.047433,0.0957721,-0.0824203,-0.280705,0.102976,0.048047,1371,1681,11.2242,-42.0365
154,-657,11.218,41.4247,0,0,0,0,0,0,0,-1,1378,1681,11.218,-41.4247
161,-657,4.2926,24.9226,0,0,0,0,0,0,0,-1,1385,1681,4.29264,-24.9226
168,-657,5.21643,0.70105,0,0,0,0,0,0,0,-1,1392,1681,5.21648,-0.7011
175,-657,5.52771,0.649048,0,0,0,0,0,0,0,-1,1399,1681,5.52774,-0.649019
182,-657,5.73999,1.02612,0,0,0,0,0,0,0,-1,1406,1681,5.73995,-1.02611
189,-657,5.92126,1.44116,0,0,0,0,0,0,0,-1,1413,1681,5.92126,-1.44115
196,-657,4.92834,9.59021,0,0,0,0,0,0,0,-1,1420,1681,4.9284,-9.59018
203,-657,6.26343,5.16492,0,0,0,0,0,0,0,-1,1427,1681,6.26345,-5.16488
210,-657,3.9856,5.28088,0,0,0,0,0,0,0,-1,1434,1681,3.98555,-5.28084
217,-657,3.95178,5.2843,0,0,0,0,0,0,0,-1,1441,1681,3.95174,-5.28431
224,-657,6.66736,-0.250244,0,0,0,0,0,0,0,-1,1448,1681,6.66737,0.250229
231,-657,6.85498,-1.70752,0,0,0,0,0,0,0,-1,1455,1681,6.855,1.70758
238,-657,5.34143,-2.89819,0,0,0,0,0,0,0,-1,1462,1681,5.34143,2.89813
245,-657,8.66003,-0.102783,0,0,0,0,0,0,0,-1,1469,1681,8.66,0.102824
252,-657,4.78955,0.623779,0,0,0,0,0,0,0,-1,1476,1681,4.7895,-0.623826
259,-657,2.61523,4.31909,0,0,0,0,0,0,0,-1,1483,1681,2.61523,-4.31908
266,-657,5.35437,11.4742,0,0,0,0,0,0,0,-1,1490,1681,5.35441,-11.4742
273,-657,10.9672,43.0663,0,0,0,0,0,0,0,-1,1497,1681,10.9672,-43.0663
280,-657,11.3607,42.6279,0.00524835,0.0113918,-0.000351525,0.0114119,0.0052283,-1.51383,0.00659634,0.0456983,1504,1681,11.3608,-42.628
287,-657,11.4637,42.2822,0.00458444,0.0109047,-0.000323829,0.0109213,0.00456789,-1.51974,0.00633344,0.0350527,1511,1681,11.4638,-42.2822
294,-657,11.5709,41.9587,0.00399099,0.010205,-0.000430203,0.0102346,0.00396135,-1.502,0.00595899,0.0312607,1518,1681,11.5709,-41.9588
301,-657,11.6647,41.6184,0.00346647,0.00939433,-0.000522434,0.00944002,0.00342078,-1.48356,0.0055186,0.0223333,1525,1681,11.6647,-41.6184
308,-657,11.677,41.2028,0.00306151,0.00859002,-0.000554819,0.00864515,0.00300638,-1.47176,0.00506782,0.014765,1532,1681,11.677,-41.2028
315,-657,11.6923,40.7889,0.00278429,0.00775813,-0.000707588,0.00785683,0.00268559,-1.4322,0.00461119,0.0114852,1539,1681,11.6922,-40.7889
322,-657,11.7269,40.3795,0.00259206,0.00716511,-0.00101114,0.00737871,0.00237847,-1.36261,0.00434881,0.0131609,1546,1681,11.727,-40.3795
329,-657,11.7467,39.9921,0.00235138,0.00651638,-0.00116851,0.00682181,0.00204595,-1.31513,0.00404233,0.0190132,1553,1681,11.7467,-39.992
336,-657,11.7502,39.5833,0.00211799,0.00598655,-0.00125298,0.00635692,0.00174763,-1.28339,0.0037921,0.0172886,1560,1681,11.7502,-39.5833
343,-657,11.7654,39.1906,0.00190493,0.00540537,-0.00135704,0.00586983,0.00144047,-1.24103,0.00353236,0.0137895,1567,1681,11.7654,-39.1906
350,-657,11.7592,38.7898,0.00180802,0.00462119,-0.00141907,0.00521266,0.00121655,-1.17589,0.00314893,0.0154899,1574,1681,11.7591,-38.7898
357,-657,11.7418,38.3643,0.00150147,0.00415791,-0.0011128,0.00456246,0.00109692,-1.22211,0.00274992,0.015114,1581,1681,11.7418,-38.3642
364,-657,11.7437,37.9609,0.00118701,0.00363862,-0.000730114,0.00383958,0.000986052,-1.3022,0.00230253,0.010964,1588,1681,11.7436,-37.9609
371,-657,11.7242,37.5471,0.000859503,0.00304886,-0.000230399,0.00307285,0.00083552,-1.46707,0.00183461,0.0149982,1595,1681,11.7243,-37.5472
378,-657,11.6953,37.1157,0.000605708,0.00217914,0.000291163,0.00223129,0.000553557,1.39356,0.00134163,0.0151312,1602,1681,11.6953,-37.1157
385,-657,11.6666,36.6553,0.000450315,0.00130489,0.000635949,0.00164376,0.000111439,1.0812,0.00106065,0.0131629,1609,1681,11.6666,-36.6553
392,-657,11.6514,36.199,0.000150403,0.00016447,0.00110722,0.00126468,-0.000949807,0.788574,0.00128284,0.0129186,1616,1681,11.6514,-36.1989
399,-657,11.6472,35.7568,-0.000246278,-0.00104399,0.00140969,0.000819893,-0.00211016,0.647532,0.00174549,0.0129419,1623,1681,11.6472,-35.7569
406,-657,11.6375,35.2979,-0.00068371,-0.0020256,0.00162011,0.000398886,-0.0031082,0.589081,0.00221709,0.0143343,1630,1681,11.6375,-35.2979
413,-657,11.6136,34.8268,-0.000893709,-0.0027816,0.0016193,3.66922e-05,-0.003712,0.52151,0.00248699,0.0134573,1637,1681,11.6136,-34.8268
420,-657,11.5999,34.3612,-0.00103533,-0.00355603,0.00129161,-0.000491038,-0.00410032,0.398823,0.00258546,0.0141243,1644,1681,11.5999,-34.3612
427,-657,11.5493,33.8862,-0.00113107,-0.00395758,0.000717447,-0.000959385,-0.00412926,0.234876,0.0024953,0.0181129,1651,1681,11.5493,-33.8862
434,-657,11.5431,33.4144,-0.00134358,-0.00420909,-5.1707e-05,-0.00134265,-0.00421002,-0.0180368,0.00248322,0.0257751,1658,1681,11.5431,-33.4144
441,-657,11.4744,33.1406,-0.00204677,-0.00399624,-0.0011639,-0.00150336,-0.00453965,-0.436811,0.00267031,0.0436405,1665,1681,11.4743,-33.1406
448,-657,11.2422,32.6614,0,0,0,0,0,0,0,-1,1672,1681,11.2422,-32.6614
455,-657,10.7958,31.771,0,0,0,0,0,0,0,-1,1679,1681,10.7958,-31.771
462,-657,10.2832,30.1719,0,0,0,0,0,0,0,-1,1686,1681,10.2831,-30.1718
469,-657,9.22205,26.4175,0,0,0,0,0,0,0,-1,1693,1681,9.2221,-26.4175
476,-657,8.9519,20.5712,0,0,0,0,0,0,0,-1,1700,1681,8.95194,-20.5712
483,-657,10.0663,21.8628,0,0,0,0,0,0,0,-1,1707,1681,10.0663,-21.8628
490,-657,11.6039,21.2185,0,0,0,0,0,0,0,-1,1714,1681,11.6038,-21.2185
497,-657,9.20862,17.8127,0,0,0,0,0,0,0,-1,1721,1681,9.2086,-17.8127
504,-657,0,0,0,0,0,0,0,0,0,-1,1728,1681,0,0
511,-657,0,0,0,0,0,0,0,0,0,-1,1735,1681,0,0
518,-657,0,0,0,0,0,0,0,0,0,-1,1742,1681,0,0
525,-657,0,0,0,0,0,0,0,0,0,-1,1749,1681,0,0
532,-657,0,0,0,0,0,0,0,0,0,-1,1756,1681,0,0
539,-657,0,0,0,0,0,0,0,0,0,-1,1763,1681,0,0
546,-657,0,0,0,0,0,0,0,0,0,-1,1770,1681,0,0
553,-657,0,0,0,0,0,0,0,0,0,-1,1777,1681,0,0
560,-657,0,0,0,0,0,0,0,0,0,-1,1784,1681,0,0
567,-657,0,0,0,0,0,0,0,0,0,-1,1791,1681,0,0
574,-657,0,0,0,0,0,0,0,0,0,-1,1798,1681,0,0
581,-657,0,0,0,0,0,0,0,0,0,-1,1805,1681,0,0
588,-657,0,0,0,0,0,0,0,0,0,-1,1812,1681,0,0
595,-657,0,0,0,0,0,0,0,0,0,-1,1819,1681,0,0
602,-657,0,0,0,0,0,0,0,0,0,-1,1826,1681,0,0
609,-657,0,0,0,0,0,0,0,0,0,-1,1833,1681,0,0
616,-657,0,0,0,0,0,0,0,0,0,-1,1840,1681,0,0
623,-657,0,0,0,0,0,0,0,0,0,-1,1847,1681,0,0
630,-657,0,0,0,0,0,0,0,0,0,-1,1854,1681,0,0
637,-657,0,0,0,0,0,0,0,0,0,-1,1861,1681,0,0
644,-657,0,0,0,0,0,0,0,0,0,-1,1868,1681,0,0
651,-657,0,0,0,0,0,0,0,0,0,-1,1875,1681,0,0
658,-657,0,0,0,0,0,0,0,0,0,-1,1882,1681,0,0
665,-657,0,0,0,0,0,0,0,0,0,-1,1889,1681,0,0
672,-657,0,0,0,0,0,0,0,0,0,-1,1896,1681,0,0
679,-657,0,0,0,0,0,0,0,0,0,-1,1903,1681,0,0
686,-657,0,0,0,0,0,0,0,0,0,-1,1910,1681,0,0
693,-657,0,0,0,0,0,0,0,0,0,-1,1917,1681,0,0
700,-657,0,0,0,0,0,0,0,0,0,-1,1924,1681,0,0
707,-657,0,0,0,0,0,0,0,0,0,-1,1931,1681,0,0
714,-657,0,0,0,0,0,0,0,0,0,-1,1938,1681,0,0
721,-657,0,0,0,0,0,0,0,0,0,-1,1945,1681,0,0
728,-657,0,0,0,0,0,0,0,0,0,-1,1952,1681,0,0
735,-657,0,0,0,0,0,0,0,0,0,-1,1959,1681,0,0
742,-657,0,0,0,0,0,0,0,0,0,-1,1966,1681,0,0
749,-657,0,0,0,0,0,0,0,0,0,-1,1973,1681,0,0
756,-657,0,0,0,0,0,0,0,0,0,-1,1980,1681,0,0
763,-657,0,0,0,0,0,0,0,0,0,-1,1987,1681,0,0
770,-657,0,0,0,0,0,0,0,0,0,-1,1994,1681,0,0
777,-657,0,0,0,0,0,0,0,0,0,-1,2001,1681,0,0
784,-657,0,0,0,0,0,0,0,0,0,-1,2008,1681,0,0
791,-657,0,0,0,0,0,0,0,0,0,-1,2015,1681,0,0
798,-657,0,0,0,0,0,0,0,0,0,-1,2022,1681,0,0
805,-657,0,0,0,0,0,0,0,0,0,-1,2029,1681,0,0
812,-657,0,0,0,0,0,0,0,0,0,-1,2036,1681,0,0
-700,-664,0,0,0,0,0,0,0,0,0,-1,524,1688,0,0
-693,-664,0,0,0,0,0,0,0,0,0,-1,531,1688,0,0
-686,-664,0,0,0,0,0,0,0,0,0,-1,538,1688,0,0
-679,-664,0,0,0,0,0,0,0,0,0,-1,545,1688,0,0
-672,-664,0,0,0,0,0,0,0,0,0,-1,552,1688,0,0
-665,-664,0,0,0,0,0,0,0,0,0,-1,559,1688,0,0
-658,-664,0,0,0,0,0,0,0,0,0,-1,566,1688,0,0
-651,-664,0,0,0,0,0,0,0,0,0,-1,573,1688,0,0
-644,-664,0,0,0,0,0,0,0,0,0,-1,580,1688,0,0
-637,-664,0,0,0,0,0,0,0,0,0,-1,587,1688,0,0
-630,-664,0,0,0,0,0,0,0,0,0,-1,594,1688,0,0
-623,-664,0,0,0,0,0,0,0,0,0,-1,601,1688,0,0
-616,-664,0,0,0,0,0,0,0,0,0,-1,608,1688,0,0
-609,-664,0,0,0,0,0,0,0,0,0,-1,615,1688,0,0
-602,-664,0,0,0,0,0,0,0,0,0,-1,622,1688,0,0
-595,-664,0,0,0,0,0,0,0,0,0,-1,629,1688,0,0
-588,-664,0,0,0,0,0,0,0,0,0,-1,636,1688,0,0
-581,-664,0,0,0,0,0,0,0,0,0,-1,643,1688,0,0
-574,-664,0,0,0,0,0,0,0,0,0,-1,650,1688,0,0
-567,-664,0,0,0,0,0,0,0,0,0,-1,657,1688,0,0
-560,-664,0,0,0,0,0,0,0,0,0,-1,664,1688,0,0
-553,-664,0,0,0,0,0,0,0,0,0,-1,671,1688,0,0
-546,-664,0,0,0,0,0,0,0,0,0,-1,678,1688,0,0
-539,-664,0,0,0,0,0,0,0,0,0,-1,685,1688,0,0
-532,-664,0,0,0,0,0,0,0,0,0,-1,692,1688,0,0
-525,-664,0,0,0,0,0,0,0,0,0,-1,699,1688,0,0
-518,-664,0,0,0,0,0,0,0,0,0,-1,706,1688,0,0
-511,-664,0,0,0,0,0,0,0,0,0,-1,713,1688,0,0
-504,-664,0,0,0,0,0,0,0,0,0,-1,720,1688,0,0
-497,-664,0,0,0,0,0,0,0,0,0,-1,727,1688,0,0
-490,-664,0,0,0,0,0,0,0,0,0,-1,734,1688,0,0
-483,-664,0,0,0,0,0,0,0,0,0,-1,741,1688,0,0
-476,-664,0,0,0,0,0,0,0,0,0,-1,748,1688,0,0
-469,-664,0,0,0,0,0,0,0,0,0,-1,755,1688,0,0
-462,-664,0,0,0,0,0,0,0,0,0,-1,762,1688,0,0
-455,-664,0,0,0,0,0,0,0,0,0,-1,769,1688,0,0
-448,-664,0,0,0,0,0,0,0,0,0,-1,776,1688,0,0
-441,-664,0,0,0,0,0,0,0,0,0,-1,783,1688,0,0
-434,-664,0,0,0,0,0,0,0,0,0,-1,790,1688,0,0
-427,-664,0,0,0,0,0,0,0,0,0,-1,797,1688,0,0
-420,-664,0,0,0,0,0,0,0,0,0,-1,804,1688,0,0
-413,-664,0,0,0,0,0,0,0,0,0,-1,811,1688,0,0
-406,-664,0,0,0,0,0,0,0,0,0,-1,818,1688,0,0
-399,-664,0,0,0,0,0,0,0,0,0,-1,825,1688,0,0
-392,-664,0,0,0,0,0,0,0,0,0,-1,832,1688,0,0
-385,-664,0,0,0,0,0,0,0,0,0,-1,839,1688,0,0
-378,-664,0,0,0,0,0,0,0,0,0,-1,846,1688,0,0
-371,-664,-1.61676,5.92737,0,0,0,0,0,0,0,-1,853,1688,-1.61675,-5.92735
-364,-664,-3.901,5.87024,0,0,0,0,0,0,0,-1,860,1688,-3.90097,-5.87027
-357,-664,-4.81012,4.53479,0,0,0,0,0,0,0,-1,867,1688,-4.81012,-4.5348
-350,-664,-5.7193,3.19934,0,0,0,0,0,0,0,-1,874,1688,-5.71927,-3.19932
-343,-664,2.13544,25.5537,0,0,0,0,0,0,0,-1,881,1688,2.13546,-25.5537
-336,-664,3.50238,26.167,0,0,0,0,0,0,0,-1,888,1688,3.50241,-26.167
-329,-664,5.55524,29.2793,0,0,0,0,0,0,0,-1,895,1688,5.55522,-29.2793
-322,-664,6.5921,30.8235,0,0,0,0,0,0,0,-1,902,1688,6.59208,-30.8235
-315,-664,6.84711,30.4863,0,0,0,0,0,0,0,-1,909,1688,6.84709,-30.4864
-308,-664,6.82166,32.9772,0,0,0,0,0,0,0,-1,916,1688,6.82165,-32.9772
-301,-664,6.07922,33.9749,0,0,0,0,0,0,0,-1,923,1688,6.0792,-33.9748
-294,-664,6.35828,33.7246,-0.00873197,0.001701,-0.00284588,0.0024268,-0.00945777,-1.32108,0.00725077,0.0401905,930,1688,6.35826,-33.7246
-287,-664,6.28625,34.1205,-0.00776023,-5.24814e-05,-0.00274698,0.000826325,-0.00863903,-1.26117,0.00605362,0.0304717,937,1688,6.28627,-34.1204
-280,-664,6.13123,34.552,-0.0068726,-0.00124056,-0.00258544,-0.000233692,-0.00787947,-1.19943,0.00517684,0.0211574,944,1688,6.13121,-34.5519
-273,-664,6.10474,35.0243,-0.00581914,-0.00189474,-0.00228898,-0.000842037,-0.00687185,-1.13974,0.00432794,0.015618,951,1688,6.10471,-35.0243
-266,-664,6.04266,35.5248,-0.00456975,-0.0025138,-0.00184907,-0.00142617,-0.00565738,-1.03909,0.00339748,0.0210665,958,1688,6.04264,-35.5248
-259,-664,6.0166,35.9897,-0.00365329,-0.00297257,-0.00160878,-0.00166854,-0.00495732,-0.889643,0.00291262,0.0188517,965,1688,6.01658,-35.9897
-252,-664,6.05029,36.4399,-0.0028135,-0.00224465,-0.00131984,-0.00117894,-0.00387921,-0.891526,0.00229636,0.016888,972,1688,6.05032,-36.44
-245,-664,6.00519,36.929,-0.00201988,-0.00168444,-0.0010298,-0.000808792,-0.00289552,-0.866124,0.00172515,0.0210117,979,1688,6.00521,-36.929
-238,-664,6.02887,37.4114,-0.00139577,-0.00112376,-0.000673253,-0.000572913,-0.00194662,-0.885064,0.00115515,0.0243126,986,1688,6.02888,-37.4114
-231,-664,6.01282,37.8416,-0.000685158,-0.000647554,-0.000303864,-0.000361911,-0.000970802,-0.816297,0.000566507,0.0205604,993,1688,6.01282,-37.8416
-224,-664,5.97424,38.3054,-7.70473e-05,-0.000113975,-2.60121e-05,-6.36123e-05,-0.00012741,-0.476754,7.35605e-05,0.0140821,1000,1688,5.97423,-38.3055
-217,-664,5.97479,38.7382,0.00023021,0.000435728,0.000153555,0.000517735,0.000148202,1.08028,0.000307884,0.0113328,1007,1688,5.97481,-38.7381
-210,-664,5.95776,39.1536,0.000460138,0.00074809,0.000119002,0.000790904,0.000417324,1.22544,0.000456861,0.012871,1014,1688,5.95777,-39.1536
-203,-664,5.922,39.5804,0.000639217,0.00076008,-0.000188001,0.000897123,0.000502174,-0.940903,0.000519186,0.0145968,1021,1688,5.92194,-39.5805
-196,-664,5.9281,39.9899,0.000840921,0.000869831,-0.000387919,0.00124356,0.000467187,-0.804021,0.000725332,0.014432,1028,1688,5.92811,-39.9899
-189,-664,5.93286,40.3967,0.00101828,0.000876826,-0.000770954,0.00172174,0.000173359,-0.739658,0.00109463,0.0101273,1035,1688,5.93288,-40.3968
-182,-664,5.93201,40.7905,0.00116462,0.000676198,-0.00130847,0.00225147,-0.000410651,-0.69314,0.00165493,0.00944187,1042,1688,5.93206,-40.7906
-175,-664,5.94324,41.1671,0.00126094,0.000440041,-0.00192748,0.00282119,-0.0011202,-0.680492,0.00234514,0.0121116,1049,1688,5.94326,-41.1671
-168,-664,5.97168,41.5457,0.00126877,0.000328766,-0.002617,0.00345764,-0.0018601,-0.696547,0.00311604,0.0135059,1056,1688,5.97169,-41.5457
-161,-664,5.979,41.911,0.00130123,-6.24354e-05,-0.00339442,0.00408162,-0.00284283,-0.686283,0.0040191,0.0107717,1063,1688,5.97898,-41.911
-154,-664,6.02173,42.2792,0.00142651,-0.000440998,-0.00419466,0.00479009,-0.00380458,-0.675881,0.004973,0.0116467,1070,1688,6.02179,-42.2792
-147,-664,6.01196,42.6459,0.00169286,-0.000676721,-0.00490822,0.00555726,-0.00454112,-0.666969,0.00584013,0.0205932,1077,1688,6.01202,-42.6458
-140,-664,6.01953,43.0388,0.00191363,-0.00107745,-0.0055959,0.00621039,-0.00537421,-0.654822,0.00669417,0.0266465,1084,1688,6.01952,-43.0389
-133,-664,6.0658,43.3165,0,0,0,0,0,0,0,-1,1091,1688,6.06582,-43.3166
-126,-664,6.10437,43.7544,0,0,0,0,0,0,0,-1,1098,1688,6.10443,-43.7544
-119,-664,6.31042,43.8901,0,0,0,0,0,0,0,-1,1105,1688,6.31037,-43.8902
-112,-664,6.55872,44.3528,0,0,0,0,0,0,0,-1,1112,1688,6.55868,-44.3528
-105,-664,6.87256,43.2527,0,0,0,0,0,0,0,-1,1119,1688,6.87258,-43.2527
-98,-664,7.69324,41.3359,0,0,0,0,0,0,0,-1,1126,1688,7.69321,-41.3359
-91,-664,5.41931,25.6302,0,0,0,0,0,0,0,-1,1133,1688,5.41932,-25.6302
-84,-664,3.48389,16.6913,0,0,0,0,0,0,0,-1,1140,1688,3.4839,-16.6913
-77,-664,4.52014,11.2122,0,0,0,0,0,0,0,-1,1147,1688,4.5202,-11.2122
-70,-664,4.20374,8.24524,0,0,0,0,0,0,0,-1,1154,1688,4.20379,-8.24519
-63,-664,-4.677,2.40503,0,0,0,0,0,0,0,-1,1161,1688,-4.67702,-2.40498
-56,-664,-4.66504,3.32727,0,0,0,0,0,0,0,-1,1168,1688,-4.6651,-3.32724
-49,-664,-2.54297,3.31848,0,0,0,0,0,0,0,-1,1175,1688,-2.54297,-3.31852
-42,-664,-0.359253,4.38684,0,0,0,0,0,0,0,-1,1182,1688,-0.359261,-4.38685
-35,-664,-0.705566,3.55017,0,0,0,0,0,0,0,-1,1189,1688,-0.705567,-3.55023
-28,-664,-1.54236,10.2538,0,0,0,0,0,0,0,-1,1196,1688,-1.54236,-10.2538
-21,-664,-3.07239,46.6978,0,0,0,0,0,0,0,-1,1203,1688,-3.07236,-46.6978
-14,-664,1.71045,47.847,0,0,0,0,0,0,0,-1,1210,1688,1.71041,-47.847
-7,-664,6.49316,48.9962,0,0,0,0,0,0,0,-1,1217,1688,6.49318,-48.9962
0,-664,7.56921,50.2924,0,0,0,0,0,0,0,-1,1224,1688,7.56921,-50.2924
7,-664,7.97314,50.3829,0.0464977,0.117726,0.0289186,0.127988,0.0362353,1.22979,0.0761761,0.0458356,1231,1688,7.97311,-50.383
14,-664,8.3761,50.442,0.0423458,0.130393,0.0300658,0.139681,0.0330587,1.2712,0.0842902,0.0422413,1238,1688,8.37606,-50.442
21,-664,8.74744,50.5624,0.038254,0.139187,0.0282048,0.146534,0.0309072,1.31598,0.0891901,0.0447051,1245,1688,8.74746,-50.5624
28,-664,8.97961,51.0024,0.0353323,0.14349,0.0222142,0.147875,0.0309476,1.37592,0.0900578,0.0458609,1252,1688,8.97959,-51.0024
35,-664,7.35193,54.3815,0.0331829,0.14251,0.0137498,0.144213,0.0314802,1.44758,0.0875557,0.0428062,1259,1688,7.35193,-54.3815
42,-664,7.82764,54.9491,0,0,0,0,0,0,0,-1,1266,1688,7.82764,-54.9491
49,-664,7.96228,54.2474,0.0299551,0.128949,-0.00412788,0.129121,0.0297833,-1.52919,0.0780702,0.0459084,1273,1688,7.96226,-54.2475
56,-664,8.05981,53.5089,0.0285578,0.121416,-0.0131862,0.123252,0.0267216,-1.43244,0.0748678,0.0481528,1280,1688,8.05979,-53.509
63,-664,8.24182,52.6278,0.0268101,0.114414,-0.0218445,0.119559,0.0216652,-1.33949,0.0735556,0.0490798,1287,1688,8.24185,-52.6278
70,-664,8.59875,51.8624,0,0,0,0,0,0,0,-1,1294,1688,8.59874,-51.8624
77,-664,9.06128,50.975,0.0321504,0.0980701,-0.0408787,0.117621,0.012599,-1.12468,0.0745702,0.0433645,1301,1688,9.06126,-50.975
84,-664,9.2196,49.8142,0.0342831,0.0814527,-0.0484841,0.111784,0.00395175,-1.01177,0.073241,0.0460789,1308,1688,9.21961,-49.8143
91,-664,9.20129,49.3004,0.0377006,0.0706633,-0.0538841,0.11053,-0.00216636,-0.933813,0.0744195,0.0420581,1315,1688,9.20125,-49.3004
98,-664,9.50977,48.2091,0.0412485,0.0582507,-0.0558325,0.106226,-0.00672631,-0.860948,0.0731623,0.0481276,1322,1688,9.50979,-48.2091
105,-664,9.63062,47.2996,0,0,0,0,0,0,0,-1,1329,1688,9.6306,-47.2995
112,-664,8.81641,47.0353,0,0,0,0,0,0,0,-1,1336,1688,8.81644,-47.0353
119,-664,9.97034,45.8103,0,0,0,0,0,0,0,-1,1343,1688,9.97038,-45.8103
126,-664,10.5122,45.5123,0,0,0,0,0,0,0,-1,1350,1688,10.5122,-45.5123
133,-664,10.7192,44.7982,0,0,0,0,0,0,0,-1,1357,1688,10.7192,-44.7982
140,-664,10.7212,44.9427,0,0,0,0,0,0,0,-1,1364,1688,10.7212,-44.9427
147,-664,10.927,42.9827,0,0,0,0,0,0,0,-1,1371,1688,10.927,-42.9826
154,-664,3.94165,61.0675,0,0,0,0,0,0,0,-1,1378,1688,3.94165,-61.0676
161,-664,4.60132,1.56238,0,0,0,0,0,0,0,-1,1385,1688,4.60134,-1.56233
168,-664,5.172,1.25488,0,0,0,0,0,0,0,-1,1392,1688,5.17203,-1.25484
175,-664,5.58313,1.16467,0,0,0,0,0,0,0,-1,1399,1688,5.58317,-1.16466
182,-664,5.74268,1.41113,0,0,0,0,0,0,0,-1,1406,1688,5.74263,-1.41115
189,-664,5.87744,1.87061,0,0,0,0,0,0,0,-1,1413,1688,5.87745,-1.87065
196,-664,6.7594,5.97473,0,0,0,0,0,0,0,-1,1420,1688,6.75943,-5.97478
203,-664,5.38452,5.22034,0,0,0,0,0,0,0,-1,1427,1688,5.38453,-5.2203
210,-664,5.25549,6.45715,0,0,0,0,0,0,0,-1,1434,1688,5.25549,-6.45721
217,-664,5.72009,6.73975,0,0,0,0,0,0,0,-1,1441,1688,5.72014,-6.73972
224,-664,5.05725,7.42908,0,0,0,0,0,0,0,-1,1448,1688,5.05723,-7.42912
231,-664,5.13318,7.60864,0,0,0,0,0,0,0,-1,1455,1688,5.13313,-7.60862
238,-664,4.23193,6.45471,0,0,0,0,0,0,0,-1,1462,1688,4.23197,-6.45476
245,-664,4.42004,6.80896,0,0,0,0,0,0,0,-1,1469,1688,4.4201,-6.80901
252,-664,3.67346,6.85461,0,0,0,0,0,0,0,-1,1476,1688,3.6734,-6.85462
259,-664,4.55823,11.7435,0,0,0,0,0,0,0,-1,1483,1688,4.55826,-11.7435
266,-664,10.875,43.0844,0,0,0,0,0,0,0,-1,1490,1688,10.875,-43.0843
273,-664,10.9329,42.9596,0.00541203,0.0071996,-0.000446076,0.00730473,0.0053069,-1.33934,0.00435924,0.0484116,1497,1688,10.9328,-42.9596
280,-664,11.1332,42.723,0.00481809,0.00740818,-0.000366195,0.00745896,0.00476732,-1.43301,0.00436166,0.0283319,1504,1688,11.1332,-42.723
287,-664,11.108,42.2983,0.00422051,0.00725199,-0.000353644,0.0072927,0.0041798,-1.45619,0.00422544,0.0292096,1511,1688,11.1081,-42.2984
294,-664,11.2411,41.9203,0.00367436,0.00695291,-0.000448843,0.00701325,0.00361402,-1.43717,0.00404974,0.0213679,1518,1688,11.2411,-41.9203
301,-664,11.3075,41.5444,0.00317213,0.00656972,-0.000533044,0.00665139,0.00309046,-1.41877,0.00384338,0.013693,1525,1688,11.3075,-41.5444
308,-664,11.3225,41.1479,0.00274474,0.00619321,-0.000604915,0.00629624,0.00264171,-1.40209,0.00365078,0.0126572,1532,1688,11.3225,-41.148
315,-664,11.3195,40.7695,0.00237332,0.0058187,-0.000715072,0.00596121,0.00223081,-1.37407,0.00347782,0.0131986,1539,1688,11.3195,-40.7696
322,-664,11.3479,40.4073,0.00202127,0.00553297,-0.000865843,0.00573485,0.0018194,-1.34173,0.00338393,0.0156398,1546,1688,11.3479,-40.4073
329,-664,11.3597,40.054,0.00164342,0.00517702,-0.000888367,0.00538779,0.00143265,-1.33785,0.00322228,0.0168655,1553,1688,11.3598,-40.054
336,-664,11.353,39.6442,0.00143086,0.00482691,-0.000773128,0.00499463,0.00126313,-1.35717,0.00299874,0.0150687,1560,1688,11.353,-39.6441
343,-664,11.3342,39.2288,0.00131689,0.00440698,-0.000627,0.00452936,0.00119451,-1.37804,0.0027106,0.0123176,1567,1688,11.3342,-39.2288
350,-664,11.333,38.8159,0.00115018,0.00383747,-0.000466864,0.00391627,0.00107139,-1.40359,0.00233706,0.0134492,1574,1688,11.3331,-38.8159
357,-664,11.3273,38.3779,0.000856638,0.00344115,6.4996e-05,0.00344278,0.000855004,1.54567,0.00206991,0.0133,1581,1688,11.3273,-38.3779
364,-664,11.3235,37.9672,0.000746268,0.0029249,0.000678514,0.00311893,0.000552232,1.29226,0.00192184,0.0116235,1588,1688,11.3235,-37.9672
371,-664,11.3124,37.5607,0.000632364,0.00236867,0.00142377,0.0031681,-0.000167062,1.05918,0.0021699,0.01456,1595,1688,11.3123,-37.5606
378,-664,11.2949,37.1223,0.000625172,0.00142615,0.00219592,0.00325781,-0.00120648,0.875597,0.00266662,0.0136389,1602,1688,11.2949,-37.1223
385,-664,11.2612,36.676,0.000752159,0.000604054,0.00267808,0.00335721,-0.002001,0.771576,0.00312642,0.013944,1609,1688,11.2613,-36.6761
392,-664,11.2052,36.2474,0.000708496,-0.000547089,0.00328354,0.00342372,-0.00326231,0.690941,0.00386056,0.0165575,1616,1688,11.2052,-36.2474
399,-664,11.205,35.7823,0.000539245,-0.00177264,0.00365851,0.00322009,-0.00445348,0.632381,0.00444937,0.0139596,1623,1688,11.2049,-35.7823
406,-664,11.2064,35.3219,0.000258086,-0.0027602,0.00388662,0.00291827,-0.00542039,0.600212,0.00488604,0.0116855,1630,1688,11.2064,-35.322
413,-664,11.1931,34.8345,0.000185067,-0.00350061,0.00387945,0.00263713,-0.00595267,0.563663,0.00508097,0.0109524,1637,1688,11.1931,-34.8345
420,-664,11.2023,34.3915,0.000181812,-0.00432696,0.00341391,0.00201852,-0.00616367,0.493589,0.00492191,0.0264066,1644,1688,11.2023,-34.3915
427,-664,11.208,34.2494,7.1497e-05,-0.00473878,0.00265537,0.00124905,-0.00591633,0.417403,0.0044198,0.045921,1651,1688,11.208,-34.2494
434,-664,11.4027,33.3293,-0.000233055,-0.00508022,0.00161866,0.000257777,-0.00557105,0.294421,0.00380287,0.0480208,1658,1688,11.4027,-33.3293
441,-664,10.8145,33.1674,0,0,0,0,0,0,0,-1,1665,1688,10.8145,-33.1674
448,-664,7.27502,19.7417,0,0,0,0,0,0,0,-1,1672,1688,7.27505,-19.7417
455,-664,7.53198,11.3838,0,0,0,0,0,0,0,-1,1679,1688,7.53195,-11.3838
462,-664,4.3147,4.25439,0,0,0,0,0,0,0,-1,1686,1688,4.31467,-4.25435
469,-664,6.05469,7.49341,0,0,0,0,0,0,0,-1,1693,1688,6.05474,-7.49339
476,-664,10.2377,22.7128,0,0,0,0,0,0,0,-1,1700,1688,10.2377,-22.7128
483,-664,8.41895,10.9768,0,0,0,0,0,0,0,-1,1707,1688,8.41897,-10.9769
490,-664,3.90771,13.2842,0,0,0,0,0,0,0,-1,1714,1688,3.90776,-13.2841
497,-664,0,0,0,0,0,0,0,0,0,-1,1721,1688,0,0
504,-664,0,0,0,0,0,0,0,0,0,-1,1728,1688,0,0
511,-664,0,0,0,0,0,0,0,0,0,-1,1735,1688,0,0
518,-664,0,0,0,0,0,0,0,0,0,-1,1742,1688,0,0
525,-664,0,0,0,0,0,0,0,0,0,-1,1749,1688,0,0
532,-664,0,0,0,0,0,0,0,0,0,-1,1756,1688,0,0
539,-664,0,0,0,0,0,0,0,0,0,-1,1763,1688,0,0
546,-664,0,0,0,0,0,0,0,0,0,-1,1770,1688,0,0
553,-664,0,0,0,0,0,0,0,0,0,-1,1777,1688,0,0
560,-664,0,0,0,0,0,0,0,0,0,-1,1784,1688,0,0
567,-664,0,0,0,0,0,0,0,0,0,-1,1791,1688,0,0
574,-664,0,0,0,0,0,0,0,0,0,-1,1798,1688,0,0
581,-664,0,0,0,0,0,0,0,0,0,-1,1805,1688,0,0
588,-664,0,0,0,0,0,0,0,0,0,-1,1812,1688,0,0
595,-664,0,0,0,0,0,0,0,0,0,-1,1819,1688,0,0
602,-664,0,0,0,0,0,0,0,0,0,-1,1826,1688,0,0
609,-664,0,0,0,0,0,0,0,0,0,-1,1833,1688,0,0
616,-664,0,0,0,0,0,0,0,0,0,-1,1840,1688,0,0
623,-664,0,0,0,0,0,0,0,0,0,-1,1847,1688,0,0
630,-664,0,0,0,0,0,0,0,0,0,-1,1854,1688,0,0
637,-664,0,0,0,0,0,0,0,0,0,-1,1861,1688,0,0
644,-664,0,0,0,0,0,0,0,0,0,-1,1868,1688,0,0
651,-664,0,0,0,0,0,0,0,0,0,-1,1875,1688,0,0
658,-664,0,0,0,0,0,0,0,0,0,-1,1882,1688,0,0
665,-664,0,0,0,0,0,0,0,0,0,-1,1889,1688,0,0
672,-664,0,0,0,0,0,0,0,0,0,-1,1896,1688,0,0
679,-664,0,0,0,0,0,0,0,0,0,-1,1903,1688,0,0
686,-664,0,0,0,0,0,0,0,0,0,-1,1910,1688,0,0
693,-664,0,0,0,0,0,0,0,0,0,-1,1917,1688,0,0
700,-664,0,0,0,0,0,0,0,0,0,-1,1924,1688,0,0
707,-664,0,0,0,0,0,0,0,0,0,-1,1931,1688,0,0
714,-664,0,0,0,0,0,0,0,0,0,-1,1938,1688,0,0
721,-664,0,0,0,0,0,0,0,0,0,-1,1945,1688,0,0
728,-664,0,0,0,0,0,0,0,0,0,-1,1952,1688,0,0
735,-664,0,0,0,0,0,0,0,0,0,-1,1959,1688,0,0
742,-664,0,0,0,0,0,0,0,0,0,-1,1966,1688,0,0
749,-664,0,0,0,0,0,0,0,0,0,-1,1973,1688,0,0
756,-664,0,0,0,0,0,0,0,0,0,-1,1980,1688,0,0
763,-664,0,0,0,0,0,0,0,0,0,-1,1987,1688,0,0
770,-664,0,0,0,0,0,0,0,0,0,-1,1994,1688,0,0
777,-664,0,0,0,0,0,0,0,0,0,-1,2001,1688,0,0
784,-664,0,0,0,0,0,0,0,0,0,-1,2008,1688,0,0
791,-664,0,0,0,0,0,0,0,0,0,-1,2015,1688,0,0
798,-664,0,0,0,0,0,0,0,0,0,-1,2022,1688,0,0
805,-664,0,0,0,0,0,0,0,0,0,-1,2029,1688,0,0
812,-664,0,0,0,0,0,0,0,0,0,-1,2036,1688,0,0
-700,-671,0,0,0,0,0,0,0,0,0,-1,524,1695,0,0
-693,-671,0,0,0,0,0,0,0,0,0,-1,531,1695,0,0
-686,-671,0,0,0,0,0,0,0,0,0,-1,538,1695,0,0
-679,-671,0,0,0,0,0,0,0,0,0,-1,545,1695,0,0
-672,-671,0,0,0,0,0,0,0,0,0,-1,552,1695,0,0
-665,-671,0,0,0,0,0,0,0,0,0,-1,559,1695,0,0
-658,-671,0,0,0,0,0,0,0,0,0,-1,566,1695,0,0
-651,-671,0,0,0,0,0,0,0,0,0,-1,573,1695,0,0
-644,-671,0,0,0,0,0,0,0,0,0,-1,580,1695,0,0
-637,-671,0,0,0,0,0,0,0,0,0,-1,587,1695,0,0
-630,-671,0,0,0,0,0,0,0,0,0,-1,594,1695,0,0
-623,-671,0,0,0,0,0,0,0,0,0,-1,601,1695,0,0
-616,-671,0,0,0,0,0,0,0,0,0,-1,608,1695,0,0
-609,-671,0,0,0,0,0,0,0,0,0,-1,615,1695,0,0
-602,-671,0,0,0,0,0,0,0,0,0,-1,622,1695,0,0
-595,-671,0,0,0,0,0,0,0,0,0,-1,629,1695,0,0
-588,-671,0,0,0,0,0,0,0,0,0,-1,636,1695,0,0
-581,-671,0,0,0,0,0,0,0,0,0,-1,643,1695,0,0
-574,-671,0,0,0,0,0,0,0,0,0,-1,650,1695,0,0
-567,-671,0,0,0,0,0,0,0,0,0,-1,657,1695,0,0
-560,-671,0,0,0,0,0,0,0,0,0,-1,664,1695,0,0
-553,-671,0,0,0,0,0,0,0,0,0,-1,671,1695,0,0
-546,-671,0,0,0,0,0,0,0,0,0,-1,678,1695,0,0
-539,-671,0,0,0,0,0,0,0,0,0,-1,685,1695,0,0
-532,-671,0,0,0,0,0,0,0,0,0,-1,692,1695,0,0
-525,-671,0,0,0,0,0,0,0,0,0,-1,699,1695,0,0
-518,-671,0,0,0,0,0,0,0,0,0,-1,706,1695,0,0
-511,-671,0,0,0,0,0,0,0,0,0,-1,713,1695,0,0
-504,-671,0,0,0,0,0,0,0,0,0,-1,720,1695,0,0
-497,-671,0,0,0,0,0,0,0,0,0,-1,727,1695,0,0
-490,-671,0,0,0,0,0,0,0,0,0,-1,734,1695,0,0
-483,-671,0,0,0,0,0,0,0,0,0,-1,741,1695,0,0
-476,-671,0,0,0,0,0,0,0,0,0,-1,748,1695,0,0
-469,-671,0,0,0,0,0,0,0,0,0,-1,755,1695,0,0
-462,-671,0,0,0,0,0,0,0,0,0,-1,762,1695,0,0
-455,-671,0,0,0,0,0,0,0,0,0,-1,769,1695,0,0
-448,-671,0,0,0,0,0,0,0,0,0,-1,776,1695,0,0
-441,-671,0,0,0,0,0,0,0,0,0,-1,783,1695,0,0
-434,-671,0,0,0,0,0,0,0,0,0,-1,790,1695,0,0
-427,-671,0,0,0,0,0,0,0,0,0,-1,797,1695,0,0
-420,-671,0,0,0,0,0,0,0,0,0,-1,804,1695,0,0
-413,-671,0,0,0,0,0,0,0,0,0,-1,811,1695,0,0
-406,-671,0,0,0,0,0,0,0,0,0,-1,818,1695,0,0
-399,-671,0,0,0,0,0,0,0,0,0,-1,825,1695,0,0
-392,-671,0,0,0,0,0,0,0,0,0,-1,832,1695,0,0
-385,-671,0,0,0,0,0,0,0,0,0,-1,839,1695,0,0
-378,-671,0,0,0,0,0,0,0,0,0,-1,846,1695,0,0
-371,-671,0,0,0,0,0,0,0,0,0,-1,853,1695,0,0
-364,-671,-4.18738,7.51416,0,0,0,0,0,0,0,-1,860,1695,-4.18739,-7.51419
-357,-671,-5.02393,6.07129,0,0,0,0,0,0,0,-1,867,1695,-5.0239,-6.07135
-350,-671,-5.72333,4.58386,0,0,0,0,0,0,0,-1,874,1695,-5.72333,-4.58386
-343,-671,2.99432,25.8125,0,0,0,0,0,0,0,-1,881,1695,2.9943,-25.8125
-336,-671,4.1355,26.2717,0,0,0,0,0,0,0,-1,888,1695,4.13547,-26.2718
-329,-671,5.27954,26.6194,0,0,0,0,0,0,0,-1,895,1695,5.27955,-26.6194
-322,-671,6.58679,29.3051,0,0,0,0,0,0,0,-1,902,1695,6.58682,-29.3051
-315,-671,7.32434,32.3904,0,0,0,0,0,0,0,-1,909,1695,7.32434,-32.3904
-308,-671,7.36212,33.344,0,0,0,0,0,0,0,-1,916,1695,7.36214,-33.344
-301,-671,6.5835,31.5808,0,0,0,0,0,0,0,-1,923,1695,6.58351,-31.5808
-294,-671,6.95618,33.8757,0,0,0,0,0,0,0,-1,930,1695,6.9562,-33.8758
-287,-671,6.92303,34.1718,-0.0102588,-0.000457345,-0.00386768,0.000885012,-0.0116011,-1.23673,0.00804534,0.0464838,937,1695,6.92307,-34.1718
-280,-671,6.71686,34.6288,-0.00908699,-0.00190872,-0.00364021,-0.000385806,-0.0106099,-1.17456,0.00694823,0.0384486,944,1695,6.71686,-34.6287
-273,-671,6.51685,35.0551,-0.00773512,-0.00271399,-0.00322765,-0.00113547,-0.00931364,-1.11594,0.00586734,0.0320528,951,1695,6.51685,-35.055
-266,-671,6.54413,35.6063,-0.00622676,-0.00354733,-0.00269966,-0.00187324,-0.00790084,-1.01572,0.00476712,0.0238414,958,1695,6.54412,-35.6063
-259,-671,6.46515,36.0179,-0.00515787,-0.00418483,-0.00242912,-0.00219398,-0.00714872,-0.884234,0.00422866,0.021422,965,1695,6.46514,-36.0179
-252,-671,6.4613,36.465,-0.00419889,-0.00350564,-0.0021049,-0.00171901,-0.00598552,-0.867003,0.00355854,0.0171937,972,1695,6.46128,-36.4649
-245,-671,6.43719,36.9346,-0.00335724,-0.00304248,-0.00178326,-0.00140967,-0.00499006,-0.829411,0.00297049,0.0200467,979,1695,6.43721,-36.9345
-238,-671,6.44708,37.4023,-0.00274111,-0.00250722,-0.00136982,-0.00124936,-0.00399897,-0.827981,0.00236234,0.0208189,986,1695,6.44707,-37.4024
-231,-671,6.41229,37.8582,-0.00199571,-0.00210008,-0.000944766,-0.00110169,-0.0029941,-0.757808,0.00174862,0.0156564,993,1695,6.41229,-37.8582
-224,-671,6.38751,38.291,-0.00135224,-0.00161254,-0.000618825,-0.000850029,-0.00211476,-0.681749,0.00122875,0.011141,1000,1695,6.38749,-38.291
-217,-671,6.38934,38.7213,-0.00101612,-0.0011062,-0.000387951,-0.000670602,-0.00145171,-0.727607,0.000838957,0.0115296,1007,1695,6.38937,-38.7214
-210,-671,6.37909,39.1602,-0.00075007,-0.000719118,-0.000262612,-0.000471526,-0.000997661,-0.81483,0.000576288,0.0125184,1014,1695,6.37911,-39.1602
-203,-671,6.34229,39.5621,-0.000475307,-0.000489296,-0.000288947,-0.000193269,-0.000771334,-0.773297,0.000463433,0.0208528,1021,1695,6.3423,-39.5622
-196,-671,6.32373,39.9591,-0.00017555,-0.000251857,-0.00029436,8.31186e-05,-0.000510526,-0.72095,0.000371172,0.0170655,1028,1695,6.32377,-39.9591
-189,-671,6.3407,40.4324,0.000128445,-4.69544e-05,-0.000452773,0.000501934,-0.000420443,-0.689735,0.000533226,0.012902,1035,1695,6.34071,-40.4323
-182,-671,6.32495,40.813,0.00043009,-1.42903e-06,-0.000749021,0.000993808,-0.000565147,-0.645167,0.000911334,0.0100406,1042,1695,6.32499,-40.813
-175,-671,6.32764,41.1842,0.000738735,8.7636e-06,-0.00110513,0.00153759,-0.000790089,-0.625905,0.00136679,0.0121471,1049,1695,6.32762,-41.1842
-168,-671,6.32446,41.5587,0.000935248,0.000161989,-0.00152354,0.00212045,-0.00102321,-0.661136,0.00185148,0.0132111,1056,1695,6.32448,-41.5587
-161,-671,6.33411,41.936,0.0011278,0.000112298,-0.00201182,0.00269495,-0.00145486,-0.661788,0.00243129,0.00931824,1063,1695,6.33414,-41.936
-154,-671,6.36145,42.2845,0.00142909,5.79044e-05,-0.00252335,0.00335833,-0.00187133,-0.65275,0.00305976,0.0084471,1070,1695,6.36145,-42.2846
-147,-671,6.36206,42.6584,0.00184316,8.06359e-05,-0.00297972,0.00406921,-0.00214541,-0.64162,0.00364487,0.00996409,1077,1695,6.36206,-42.6585
-140,-671,6.39758,42.9922,0.00221326,-5.98674e-05,-0.00341461,0.00467549,-0.0025221,-0.624739,0.00421707,0.0136702,1084,1695,6.39755,-42.9922
-133,-671,6.40894,43.317,0.00261507,1.71056e-05,-0.00369694,0.0052346,-0.00260242,-0.616452,0.00460899,0.018811,1091,1695,6.40892,-43.317
-126,-671,6.48303,43.7146,0.00311061,-6.25628e-05,-0.00395169,0.00578232,-0.00273428,-0.594501,0.00502093,0.0284295,1098,1695,6.483,-43.7146
-119,-671,6.48706,44.4735,0,0,0,0,0,0,0,-1,1105,1695,6.4871,-44.4735
-112,-671,6.58704,44.6255,0,0,0,0,0,0,0,-1,1112,1695,6.58701,-44.6255
-105,-671,7.33252,41.3418,0,0,0,0,0,0,0,-1,1119,1695,7.33247,-41.3418
-98,-671,6.34534,45.6299,0,0,0,0,0,0,0,-1,1126,1695,6.34533,-45.6299
-91,-671,6.40063,38.2443,0,0,0,0,0,0,0,-1,1133,1695,6.40059,-38.2442
-84,-671,5.4209,26.2415,0,0,0,0,0,0,0,-1,1140,1695,5.42096,-26.2414
-77,-671,4.31763,16.489,0,0,0,0,0,0,0,-1,1147,1695,4.31757,-16.489
-70,-671,3.06067,10.7737,0,0,0,0,0,0,0,-1,1154,1695,3.0607,-10.7737
-63,-671,2.94592,6.90198,0,0,0,0,0,0,0,-1,1161,1695,2.94594,-6.90198
-56,-671,-3.07678,2.87976,0,0,0,0,0,0,0,-1,1168,1695,-3.07675,-2.87979
-49,-671,-1.05957,4.76917,0,0,0,0,0,0,0,-1,1175,1695,-1.05958,-4.76921
-42,-671,0.539307,3.7865,0,0,0,0,0,0,0,-1,1182,1695,0.539266,-3.78648
-35,-671,-0.272461,0.347534,0,0,0,0,0,0,0,-1,1189,1695,-0.272434,-0.347569
-28,-671,-10.4878,17.2009,0,0,0,0,0,0,0,-1,1196,1695,-10.4878,-17.2009
-21,-671,-1.08643,46.4282,0,0,0,0,0,0,0,-1,1203,1695,-1.08637,-46.4283
-14,-671,3.52722,47.1228,0,0,0,0,0,0,0,-1,1210,1695,3.52724,-47.1228
-7,-671,7.97278,47.7311,0,0,0,0,0,0,0,-1,1217,1695,7.97278,-47.7311
0,-671,7.5498,49.2375,0,0,0,0,0,0,0,-1,1224,1695,7.54985,-49.2376
7,-671,7.93018,49.4287,0.0367312,0.102016,0.0252461,0.11064,0.0281075,1.24164,0.0664043,0.0436541,1231,1695,7.93023,-49.4287
14,-671,8.41309,49.6082,0.0337645,0.111887,0.0257529,0.119612,0.0260391,1.27935,0.0726345,0.0423222,1238,1695,8.41313,-49.6081
21,-671,8.72986,49.8488,0.030708,0.119306,0.0242162,0.125493,0.0245211,1.32066,0.0768042,0.0454982,1245,1695,8.72981,-49.8487
28,-671,8.93896,50.1453,0.0284295,0.123353,0.0191877,0.127085,0.0246976,1.3787,0.0778083,0.0484936,1252,1695,8.939,-50.1453
35,-671,9.11279,50.4523,0,0,0,0,0,0,0,-1,1259,1695,9.11283,-50.4523
42,-671,8.21509,53.4719,0.0253897,0.119344,0.00382952,0.1195,0.0252338,1.53013,0.0727294,0.0471063,1266,1695,8.21505,-53.4719
49,-671,8.19788,53.0759,0.0242749,0.112446,-0.00361037,0.112593,0.0241273,-1.52994,0.0684522,0.0478505,1273,1695,8.19791,-53.0759
56,-671,8.65186,48.6353,0,0,0,0,0,0,0,-1,1280,1695,8.6519,-48.6352
63,-671,8.4989,49.0854,0,0,0,0,0,0,0,-1,1287,1695,8.49892,-49.0854
70,-671,8.68103,49.1798,0,0,0,0,0,0,0,-1,1294,1695,8.68102,-49.1798
77,-671,9.46655,49.9323,0.025868,0.0851252,-0.0348684,0.101253,0.00974005,-1.13757,0.064501,0.0453167,1301,1695,9.46654,-49.9323
84,-671,9.3053,49.2976,0.0276398,0.070403,-0.041318,0.095544,0.00249885,-1.02417,0.0628796,0.0475328,1308,1695,9.30526,-49.2977
91,-671,9.38904,48.8108,0.0302831,0.0603849,-0.0457447,0.0934912,-0.00282313,-0.94433,0.0632895,0.0430195,1315,1695,9.38905,-48.8108
98,-671,9.63843,48.1948,0.0328612,0.0488211,-0.0470157,0.0885293,-0.00684696,-0.869462,0.0614292,0.0421414,1322,1695,9.63842,-48.1949
105,-671,9.35999,47.5818,0.0363187,0.0393166,-0.0474235,0.0852648,-0.00962947,-0.801197,0.0603099,0.0446297,1329,1695,9.35995,-47.5818
112,-671,8.9668,46.9739,0.0397395,0.0281525,-0.0474352,0.0817337,-0.0138417,-0.724632,0.0596409,0.0449961,1336,1695,8.96679,-46.9738
119,-671,8.7168,46.3112,0.0436998,0.0155021,-0.0466505,0.0783354,-0.0191335,-0.63865,0.0596336,0.0498016,1343,1695,8.71674,-46.3111
126,-671,9.64746,47.375,0,0,0,0,0,0,0,-1,1350,1695,9.64745,-47.375
133,-671,10.3331,46.0784,0.0509373,-0.0125822,-0.0411942,0.0711933,-0.0328383,-0.457002,0.0614083,0.0477757,1357,1695,10.3331,-46.0783
140,-671,10.526,45.5275,0.0525947,-0.0250439,-0.0378202,0.0679723,-0.0404215,-0.386181,0.0632515,0.0463542,1364,1695,10.526,-45.5274
147,-671,10.8915,45.0612,0,0,0,0,0,0,0,-1,1371,1695,10.8915,-45.0612
154,-671,9.90198,45.6843,0,0,0,0,0,0,0,-1,1378,1695,9.90192,-45.6843
161,-671,4.49292,4.91272,0,0,0,0,0,0,0,-1,1385,1695,4.49297,-4.91273
168,-671,5.17639,6.1416,0,0,0,0,0,0,0,-1,1392,1695,5.1764,-6.14164
175,-671,5.6731,1.64685,0,0,0,0,0,0,0,-1,1399,1695,5.67313,-1.64691
182,-671,5.56812,1.71692,0,0,0,0,0,0,0,-1,1406,1695,5.56809,-1.71686
189,-671,6.98315,6.36169,0,0,0,0,0,0,0,-1,1413,1695,6.98312,-6.36175
196,-671,5.38123,5.69775,0,0,0,0,0,0,0,-1,1420,1695,5.38125,-5.69769
203,-671,5.95117,8.11658,0,0,0,0,0,0,0,-1,1427,1695,5.9512,-8.11662
210,-671,4.73596,8.39624,0,0,0,0,0,0,0,-1,1434,1695,4.736,-8.39618
217,-671,5.37097,11.863,0,0,0,0,0,0,0,-1,1441,1695,5.37094,-11.863
224,-671,5.08167,13.6694,0,0,0,0,0,0,0,-1,1448,1695,5.08165,-13.6695
231,-671,5.66663,15.3348,0,0,0,0,0,0,0,-1,1455,1695,5.66667,-15.3349
238,-671,6.32959,16.2036,0,0,0,0,0,0,0,-1,1462,1695,6.32961,-16.2037
245,-671,11.0109,43.6854,0,0,0,0,0,0,0,-1,1469,1695,11.0108,-43.6854
252,-671,10.8105,43.6732,0,0,0,0,0,0,0,-1,1476,1695,10.8106,-43.6732
259,-671,10.6653,43.3318,0,0,0,0,0,0,0,-1,1483,1695,10.6653,-43.3318
266,-671,10.8013,43.2002,0.00534041,0.0044729,-0.000796009,0.00581317,0.00400013,-0.535933,0.0034345,0.0338718,1490,1695,10.8012,-43.2002
273,-671,10.8954,42.9332,0.00479707,0.00453659,-0.000623493,0.00530378,0.00402988,-0.682437,0.00319697,0.00939635,1497,1695,10.8954,-42.9332
280,-671,10.8959,42.6107,0.00425251,0.00481264,-0.000582128,0.00517857,0.00388658,-1.00961,0.00311242,0.00940835,1504,1695,10.8959,-42.6107
287,-671,10.8925,42.1814,0.00369393,0.00487169,-0.00058016,0.00510947,0.00345615,-1.18183,0.00301054,0.0121488,1511,1695,10.8925,-42.1813
294,-671,10.9017,41.8171,0.00317569,0.00485223,-0.000647931,0.00507345,0.00295447,-1.24179,0.00294237,0.0121286,1518,1695,10.9017,-41.8172
301,-671,10.9272,41.5192,0.00269563,0.00477399,-0.000704365,0.00499021,0.00247941,-1.27296,0.00288112,0.0116223,1525,1695,10.9272,-41.5191
308,-671,10.941,41.1715,0.00226204,0.00468403,-0.000796708,0.0049226,0.00202347,-1.27984,0.00285701,0.0131583,1532,1695,10.9411,-41.1715
315,-671,10.9478,40.8071,0.00181338,0.00467682,-0.000853962,0.00491215,0.00157805,-1.30189,0.00289581,0.0144022,1539,1695,10.9477,-40.8071
322,-671,10.9388,40.4573,0.0013743,0.00465788,-0.000901196,0.00488896,0.00114323,-1.31979,0.00295294,0.015543,1546,1695,10.9388,-40.4573
329,-671,10.9315,40.0861,0.000927167,0.00458458,-0.000816686,0.00475865,0.000753089,-1.36079,0.00295358,0.0136365,1553,1695,10.9316,-40.086
336,-671,10.9419,39.6571,0.000851357,0.00439902,-0.000473886,0.00446123,0.000789148,-1.44027,0.00274912,0.0115684,1560,1695,10.9418,-39.6571
343,-671,10.9542,39.2141,0.000954117,0.00414682,-2.02388e-05,0.00414695,0.000953989,-1.56446,0.00250787,0.0117823,1567,1695,10.9542,-39.2141
350,-671,10.9432,38.845,0.00081166,0.00378884,0.000398733,0.00384132,0.000759183,1.43994,0.00234907,0.0117613,1574,1695,10.9432,-38.845
357,-671,10.9178,38.3906,0.000603158,0.00345616,0.00119232,0.00388883,0.000170485,1.22269,0.00253764,0.0108136,1581,1695,10.9178,-38.3906
364,-671,10.894,37.9689,0.000745715,0.00294734,0.00207277,0.00419348,-0.000500426,1.0295,0.00297651,0.0131771,1588,1695,10.8941,-37.9689
371,-671,10.8695,37.5725,0.000866761,0.00239204,0.00312459,0.00484571,-0.00158691,0.905096,0.00386948,0.0152334,1595,1695,10.8695,-37.5725
378,-671,10.8579,37.1313,0.00111599,0.0013429,0.00421975,0.00545072,-0.00299183,0.798838,0.00494274,0.0129599,1602,1695,10.8579,-37.1313
385,-671,10.8285,36.6847,0.00152528,0.00049556,0.00494648,0.00598363,-0.00396278,0.733542,0.00578194,0.0149785,1609,1695,10.8286,-36.6847
392,-671,10.7899,36.2545,0.00174943,-0.000756372,0.00578993,0.00642047,-0.00542741,0.678845,0.00684838,0.0196353,1616,1695,10.7899,-36.2546
399,-671,10.7701,35.8046,0.00182964,-0.00210368,0.00634649,0.0065072,-0.00678125,0.635149,0.00767263,0.0152276,1623,1695,10.7701,-35.8045
406,-671,10.7397,35.3156,0.00173185,-0.00320549,0.00670266,0.00640601,-0.00787965,0.608951,0.00826244,0.017935,1630,1695,10.7398,-35.3156
413,-671,10.7284,34.9142,0.00182586,-0.00401495,0.00681639,0.00632111,-0.0085102,0.583008,0.00859389,0.0282851,1637,1695,10.7284,-34.9142
420,-671,10.7882,34.5013,0,0,0,0,0,0,0,-1,1644,1695,10.7882,-34.5013
427,-671,10.9104,34.7827,0,0,0,0,0,0,0,-1,1651,1695,10.9104,-34.7828
434,-671,11.3446,33.4827,0,0,0,0,0,0,0,-1,1658,1695,11.3445,-33.4826
441,-671,8.34961,20.6522,0,0,0,0,0,0,0,-1,1665,1695,8.34964,-20.6522
448,-671,7.44873,20.2306,0,0,0,0,0,0,0,-1,1672,1695,7.44872,-20.2306
455,-671,6.62805,19.8612,0,0,0,0,0,0,0,-1,1679,1695,6.62811,-19.8612
462,-671,5.86255,4.47961,0,0,0,0,0,0,0,-1,1686,1695,5.8625,-4.4796
469,-671,3.71301,3.76978,0,0,0,0,0,0,0,-1,1693,1695,3.71297,-3.76974
476,-671,3.75574,3.18848,0,0,0,0,0,0,0,-1,1700,1695,3.7558,-3.18847
483,-671,7.81824,12.1041,0,0,0,0,0,0,0,-1,1707,1695,7.81826,-12.1041
490,-671,0,0,0,0,0,0,0,0,0,-1,1714,1695,0,0
497,-671,0,0,0,0,0,0,0,0,0,-1,1721,1695,0,0
504,-671,0,0,0,0,0,0,0,0,0,-1,1728,1695,0,0
511,-671,0,0,0,0,0,0,0,0,0,-1,1735,1695,0,0
518,-671,0,0,0,0,0,0,0,0,0,-1,1742,1695,0,0
525,-671,0,0,0,0,0,0,0,0,0,-1,1749,1695,0,0
532,-671,0,0,0,0,0,0,0,0,0,-1,1756,1695,0,0
539,-671,0,0,0,0,0,0,0,0,0,-1,1763,1695,0,0
546,-671,0,0,0,0,0,0,0,0,0,-1,1770,1695,0,0
553,-671,0,0,0,0,0,0,0,0,0,-1,1777,1695,0,0
560,-671,0,0,0,0,0,0,0,0,0,-1,1784,1695,0,0
567,-671,0,0,0,0,0,0,0,0,0,-1,1791,1695,0,0
574,-671,0,0,0,0,0,0,0,0,0,-1,1798,1695,0,0
581,-671,0,0,0,0,0,0,0,0,0,-1,1805,1695,0,0
588,-671,0,0,0,0,0,0,0,0,0,-1,1812,1695,0,0
595,-671,0,0,0,0,0,0,0,0,0,-1,1819,1695,0,0
602,-671,0,0,0,0,0,0,0,0,0,-1,1826,1695,0,0
609,-671,0,0,0,0,0,0,0,0,0,-1,1833,1695,0,0
616,-671,0,0,0,0,0,0,0,0,0,-1,1840,1695,0,0
623,-671,0,0,0,0,0,0,0,0,0,-1,1847,1695,0,0
630,-671,0,0,0,0,0,0,0,0,0,-1,1854,1695,0,0
637,-671,0,0,0,0,0,0,0,0,0,-1,1861,1695,0,0
644,-671,0,0,0,0,0,0,0,0,0,-1,1868,1695,0,0
651,-671,0,0,0,0,0,0,0,0,0,-1,1875,1695,0,0
658,-671,0,0,0,0,0,0,0,0,0,-1,1882,1695,0,0
665,-671,0,0,0,0,0,0,0,0,0,-1,1889,1695,0,0
672,-671,0,0,0,0,0,0,0,0,0,-1,1896,1695,0,0
679,-671,0,0,0,0,0,0,0,0,0,-1,1903,1695,0,0
686,-671,0,0,0,0,0,0,0,0,0,-1,1910,1695,0,0
693,-671,0,0,0,0,0,0,0,0,0,-1,1917,1695,0,0
700,-671,0,0,0,0,0,0,0,0,0,-1,1924,1695,0,0
707,-671,0,0,0,0,0,0,0,0,0,-1,1931,1695,0,0
714,-671,0,0,0,0,0,0,0,0,0,-1,1938,1695,0,0
721,-671,0,0,0,0,0,0,0,0,0,-1,1945,1695,0,0
728,-671,0,0,0,0,0,0,0,0,0,-1,1952,1695,0,0
735,-671,0,0,0,0,0,0,0,0,0,-1,1959,1695,0,0
742,-671,0,0,0,0,0,0,0,0,0,-1,1966,1695,0,0
749,-671,0,0,0,0,0,0,0,0,0,-1,1973,1695,0,0
756,-671,0,0,0,0,0,0,0,0,0,-1,1980,1695,0,0
763,-671,0,0,0,0,0,0,0,0,0,-1,1987,1695,0,0
770,-671,0,0,0,0,0,0,0,0,0,-1,1994,1695,0,0
777,-671,0,0,0,0,0,0,0,0,0,-1,2001,1695,0,0
784,-671,0,0,0,0,0,0,0,0,0,-1,2008,1695,0,0
791,-671,0,0,0,0,0,0,0,0,0,-1,2015,1695,0,0
798,-671,0,0,0,0,0,0,0,0,0,-1,2022,1695,0,0
805,-671,0,0,0,0,0,0,0,0,0,-1,2029,1695,0,0
812,-671,0,0,0,0,0,0,0,0,0,-1,2036,1695,0,0
-700,-678,0,0,0,0,0,0,0,0,0,-1,524,1702,0,0
-693,-678,0,0,0,0,0,0,0,0,0,-1,531,1702,0,0
-686,-678,0,0,0,0,0,0,0,0,0,-1,538,1702,0,0
-679,-678,0,0,0,0,0,0,0,0,0,-1,545,1702,0,0
-672,-678,0,0,0,0,0,0,0,0,0,-1,552,1702,0,0
-665,-678,0,0,0,0,0,0,0,0,0,-1,559,1702,0,0
-658,-678,0,0,0,0,0,0,0,0,0,-1,566,1702,0,0
-651,-678,0,0,0,0,0,0,0,0,0,-1,573,1702,0,0
-644,-678,0,0,0,0,0,0,0,0,0,-1,580,1702,0,0
-637,-678,0,0,0,0,0,0,0,0,0,-1,587,1702,0,0
-630,-678,0,0,0,0,0,0,0,0,0,-1,594,1702,0,0
-623,-678,0,0,0,0,0,0,0,0,0,-1,601,1702,0,0
-616,-678,0,0,0,0,0,0,0,0,0,-1,608,1702,0,0
-609,-678,0,0,0,0,0,0,0,0,0,-1,615,1702,0,0
-602,-678,0,0,0,0,0,0,0,0,0,-1,622,1702,0,0
-595,-678,0,0,0,0,0,0,0,0,0,-1,629,1702,0,0
-588,-678,0,0,0,0,0,0,0,0,0,-1,636,1702,0,0
-581,-678,0,0,0,0,0,0,0,0,0,-1,643,1702,0,0
-574,-678,0,0,0,0,0,0,0,0,0,-1,650,1702,0,0
-567,-678,0,0,0,0,0,0,0,0,0,-1,657,1702,0,0
-560,-678,0,0,0,0,0,0,0,0,0,-1,664,1702,0,0
-553,-678,0,0,0,0,0,0,0,0,0,-1,671,1702,0,0
-546,-678,0,0,0,0,0,0,0,0,0,-1,678,1702,0,0
-539,-678,0,0,0,0,0,0,0,0,0,-1,685,1702,0,0
-532,-678,0,0,0,0,0,0,0,0,0,-1,692,1702,0,0
-525,-678,0,0,0,0,0,0,0,0,0,-1,699,1702,0,0
-518,-678,0,0,0,0,0,0,0,0,0,-1,706,1702,0,0
-511,-678,0,0,0,0,0,0,0,0,0,-1,713,1702,0,0
-504,-678,0,0,0,0,0,0,0,0,0,-1,720,1702,0,0
-497,-678,0,0,0,0,0,0,0,0,0,-1,727,1702,0,0
-490,-678,0,0,0,0,0,0,0,0,0,-1,734,1702,0,0
-483,-678,0,0,0,0,0,0,0,0,0,-1,741,1702,0,0
-476,-678,0,0,0,0,0,0,0,0,0,-1,748,1702,0,0
-469,-678,0,0,0,0,0,0,0,0,0,-1,755,1702,0,0
-462,-678,0,0,0,0,0,0,0,0,0,-1,762,1702,0,0
-455,-678,0,0,0,0,0,0,0,0,0,-1,769,1702,0,0
-448,-678,0,0,0,0,0,0,0,0,0,-1,776,1702,0,0
-441,-678,0,0,0,0,0,0,0,0,0,-1,783,1702,0,0
-434,-678,0,0,0,0,0,0,0,0,0,-1,790,1702,0,0
-427,-678,0,0,0,0,0,0,0,0,0,-1,797,1702,0,0
-420,-678,0,0,0,0,0,0,0,0,0,-1,804,1702,0,0
-413,-678,0,0,0,0,0,0,0,0,0,-1,811,1702,0,0
-406,-678,0,0,0,0,0,0,0,0,0,-1,818,1702,0,0
-399,-678,0,0,0,0,0,0,0,0,0,-1,825,1702,0,0
-392,-678,0,0,0,0,0,0,0,0,0,-1,832,1702,0,0
-385,-678,0,0,0,0,0,0,0,0,0,-1,839,1702,0,0
-378,-678,0,0,0,0,0,0,0,0,0,-1,846,1702,0,0
-371,-678,0,0,0,0,0,0,0,0,0,-1,853,1702,0,0
-364,-678,0,0,0,0,0,0,0,0,0,-1,860,1702,0,0
-357,-678,0,0,0,0,0,0,0,0,0,-1,867,1702,0,0
-350,-678,-5.79944,6.11865,0,0,0,0,0,0,0,-1,874,1702,-5.79942,-6.11864
-343,-678,-6.44891,4.52759,0,0,0,0,0,0,0,-1,881,1702,-6.4489,-4.52758
-336,-678,4.8537,26.4368,0,0,0,0,0,0,0,-1,888,1702,4.85368,-26.4368
-329,-678,5.70953,26.5249,0,0,0,0,0,0,0,-1,895,1702,5.70955,-26.5249
-322,-678,3.78455,20.3917,0,0,0,0,0,0,0,-1,902,1702,3.78457,-20.3917
-315,-678,4.74176,22.3245,0,0,0,0,0,0,0,-1,909,1702,4.74178,-22.3244
-308,-678,6.89911,31.2765,0,0,0,0,0,0,0,-1,916,1702,6.89914,-31.2765
-301,-678,6.98413,31.8898,0,0,0,0,0,0,0,-1,923,1702,6.98413,-31.8898
-294,-678,7.7384,33.6874,0,0,0,0,0,0,0,-1,930,1702,7.73842,-33.6873
-287,-678,7.58862,34.2478,-0.0132439,-0.00091798,-0.00557102,0.00122679,-0.0153887,-1.2033,0.0106915,0.0495786,937,1702,7.58861,-34.2478
-280,-678,7.30127,34.7554,-0.0116711,-0.00253213,-0.00518108,-0.00019338,-0.0140099,-1.14678,0.00927613,0.0465993,944,1702,7.30126,-34.7554
-273,-678,6.71783,35.1566,0,0,0,0,0,0,0,-1,951,1702,6.71786,-35.1566
-266,-678,6.84845,35.6302,-0.00804354,-0.00464432,-0.00384495,-0.00214008,-0.0105478,-0.993504,0.00643817,0.0360454,958,1702,6.84847,-35.6303
-259,-678,6.86365,36.1035,-0.00677225,-0.005441,-0.0034709,-0.00257248,-0.00964078,-0.880135,0.00576432,0.0231622,965,1702,6.86367,-36.1035
-252,-678,6.91846,36.4967,-0.00566949,-0.004805,-0.00303661,-0.00217003,-0.00830447,-0.856096,0.00497336,0.0182111,972,1702,6.91847,-36.4967
-245,-678,6.88794,36.9437,-0.00480337,-0.00444923,-0.00263218,-0.00198817,-0.00726443,-0.818982,0.00433496,0.0197696,979,1702,6.88794,-36.9437
-238,-678,6.83667,37.396,-0.00421147,-0.00392994,-0.00212196,-0.00194408,-0.00619733,-0.818518,0.00365988,0.016632,986,1702,6.83669,-37.396
-231,-678,6.80969,37.8552,-0.00343843,-0.003572,-0.00160889,-0.00189494,-0.00511549,-0.764655,0.0029863,0.0130248,993,1702,6.80972,-37.8552
-224,-678,6.79639,38.2838,-0.00267606,-0.00316219,-0.00119554,-0.00169913,-0.00413912,-0.68511,0.00240245,0.0117313,1000,1702,6.79637,-38.2838
-217,-678,6.8009,38.7274,-0.00221116,-0.00273751,-0.000886508,-0.00154959,-0.00339908,-0.641109,0.001965,0.0130355,1007,1702,6.80092,-38.7274
-210,-678,6.78802,39.2017,-0.00186211,-0.00230377,-0.000597864,-0.0014456,-0.00272028,-0.608489,0.00157159,0.0147322,1014,1702,6.78804,-39.2017
-203,-678,6.77148,39.5928,-0.0014539,-0.00190837,-0.000380526,-0.00123792,-0.00212434,-0.516234,0.00123207,0.0196933,1021,1702,6.77143,-39.5927
-196,-678,6.73865,39.9814,-0.00101733,-0.00158278,-0.000220174,-0.000941711,-0.0016584,-0.330825,0.000960411,0.0183023,1028,1702,6.73861,-39.9815
-189,-678,6.73279,40.4148,-0.00055577,-0.00119933,-0.000184276,-0.00050674,-0.00124836,-0.260045,0.00072498,0.0111472,1035,1702,6.73273,-40.4148
-182,-678,6.73083,40.8254,-9.62865e-05,-0.000959623,-0.000272771,-1.73264e-05,-0.00103858,-0.281772,0.000686686,0.0104333,1042,1702,6.73078,-40.8255
-175,-678,6.71643,41.2124,0.000377588,-0.000707233,-0.000404206,0.000511632,-0.000841277,-0.320212,0.000788793,0.0108956,1049,1702,6.71645,-41.2124
-168,-678,6.70142,41.5923,0.000674467,-0.000321652,-0.000616345,0.000968837,-0.000616022,-0.445572,0.000922545,0.0104913,1056,1702,6.70136,-41.5923
-161,-678,6.70422,41.9551,0.000894302,-5.46324e-05,-0.000896342,0.00143401,-0.000594339,-0.541978,0.00120405,0.0091381,1063,1702,6.70428,-41.9551
-154,-678,6.71057,42.3149,0.00119445,0.000168568,-0.00121808,0.00200319,-0.00064017,-0.586115,0.00159234,0.00855595,1070,1702,6.71057,-42.3149
-147,-678,6.70703,42.6716,0.0015608,0.000386106,-0.00153538,0.00261734,-0.000670434,-0.602715,0.00200607,0.0102792,1077,1702,6.70706,-42.6717
-140,-678,6.7395,43.0123,0.00188383,0.000428653,-0.00185699,0.00315069,-0.000838203,-0.598685,0.00242856,0.0115726,1084,1702,6.73953,-43.0123
-133,-678,6.771,43.3425,0.00223147,0.000555162,-0.00209995,0.00365436,-0.000867724,-0.59552,0.00277114,0.0125162,1091,1702,6.77101,-43.3425
-126,-678,6.78882,43.6898,0.00267621,0.000510122,-0.00233432,0.0041665,-0.000980164,-0.568194,0.00315554,0.0134327,1098,1702,6.78883,-43.6898
-119,-678,6.84229,44.2457,0.00343666,0.000290854,-0.00245035,0.0047755,-0.00104798,-0.500065,0.00358443,0.038743,1105,1702,6.8423,-44.2457
-112,-678,6.86121,44.2496,0,0,0,0,0,0,0,-1,1112,1702,6.86126,-44.2496
-105,-678,6.81909,44.6293,0,0,0,0,0,0,0,-1,1119,1702,6.81915,-44.6293
-98,-678,6.82813,45.137,0,0,0,0,0,0,0,-1,1126,1702,6.82816,-45.1369
-91,-678,7.0094,45.0597,0,0,0,0,0,0,0,-1,1133,1702,7.00944,-45.0597
-84,-678,6.58545,36.5073,0,0,0,0,0,0,0,-1,1140,1702,6.58544,-36.5073
-77,-678,5.95154,29.1879,0,0,0,0,0,0,0,-1,1147,1702,5.95156,-29.1878
-70,-678,4.75891,19.6552,0,0,0,0,0,0,0,-1,1154,1702,4.75895,-19.6551
-63,-678,3.41687,11.0365,0,0,0,0,0,0,0,-1,1161,1702,3.41682,-11.0365
-56,-678,1.72388,6.13159,0,0,0,0,0,0,0,-1,1168,1702,1.72388,-6.13157
-49,-678,-0.241699,5.29895,0,0,0,0,0,0,0,-1,1175,1702,-0.241682,-5.29897
-42,-678,0.297119,3.90649,0,0,0,0,0,0,0,-1,1182,1702,0.297139,-3.90655
-35,-678,0.498413,3.64038,0,0,0,0,0,0,0,-1,1189,1702,0.498471,-3.64038
-28,-678,0.132446,3.55994,0,0,0,0,0,0,0,-1,1196,1702,0.132432,-3.55993
-21,-678,7.55737,46.7573,0,0,0,0,0,0,0,-1,1203,1702,7.55736,-46.7573
-14,-678,7.93115,47.3224,0,0,0,0,0,0,0,-1,1210,1702,7.93118,-47.3224
-7,-678,7.97693,47.5834,0,0,0,0,0,0,0,-1,1217,1702,7.9769,-47.5834
0,-678,8.02258,47.8444,0,0,0,0,0,0,0,-1,1224,1702,8.02263,-47.8443
7,-678,7.05725,47.6849,0,0,0,0,0,0,0,-1,1231,1702,7.05731,-47.6849
14,-678,7.9928,48.4617,0,0,0,0,0,0,0,-1,1238,1702,7.99283,-48.4616
21,-678,8.73657,49.0114,0.0244861,0.0988278,0.0200652,0.103898,0.0194162,1.3233,0.0637859,0.0472946,1245,1702,8.73661,-49.0114
28,-678,8.72192,49.1641,0.0227773,0.102527,0.0160687,0.105643,0.0196614,1.37926,0.0648757,0.048213,1252,1702,8.72189,-49.1641
35,-678,8.49683,49.4064,0,0,0,0,0,0,0,-1,1259,1702,8.49687,-49.4064
42,-678,8.06409,49.694,0,0,0,0,0,0,0,-1,1266,1702,8.06413,-49.694
49,-678,8.6377,48.3357,0,0,0,0,0,0,0,-1,1273,1702,8.63768,-48.3357
56,-678,8.65698,48.4371,0,0,0,0,0,0,0,-1,1280,1702,8.65703,-48.4371
63,-678,8.5564,48.6415,0.0173672,0.0841044,-0.0157253,0.0876242,0.0138474,-1.3506,0.0543911,0.0495038,1287,1702,8.55645,-48.6415
70,-678,8.67273,48.7715,0,0,0,0,0,0,0,-1,1294,1702,8.67274,-48.7715
77,-678,8.74695,48.8401,0,0,0,0,0,0,0,-1,1301,1702,8.747,-48.8401
84,-678,9.82129,48.6501,0.0220031,0.058541,-0.0341882,0.0790352,0.00150883,-1.03078,0.0521945,0.045009,1308,1702,9.82127,-48.6501
91,-678,9.81287,48.5715,0.0239973,0.049533,-0.0376583,0.076529,-0.00299869,-0.94884,0.0520477,0.0453684,1315,1702,9.81293,-48.5715
98,-678,9.64197,48.1285,0.0257994,0.0391783,-0.0383978,0.0714649,-0.00648725,-0.87164,0.0499463,0.0406268,1322,1702,9.64195,-48.1285
105,-678,9.47522,47.6436,0.0282407,0.0309115,-0.0383513,0.0679507,-0.00879839,-0.802801,0.0485,0.0402036,1329,1702,9.47521,-47.6436
112,-678,9.41003,47.0966,0.0305914,0.0216716,-0.037947,0.0643397,-0.0120767,-0.726902,0.047434,0.0421905,1336,1702,9.41004,-47.0966
119,-678,9.52173,47.4208,0.0333219,0.0116082,-0.037015,0.0610394,-0.0161093,-0.642744,0.0469923,0.0447726,1343,1702,9.52169,-47.4207
126,-678,9.57153,47.3472,0.0362484,0.00121562,-0.0350816,0.0579435,-0.0204795,-0.553853,0.0469681,0.0499583,1350,1702,9.57148,-47.3471
133,-678,9.82178,46.855,0.0385492,-0.00929964,-0.0324723,0.0549587,-0.0257091,-0.46791,0.0475832,0.0483724,1357,1702,9.8218,-46.855
140,-678,10.2374,46.2424,0.0399536,-0.0182685,-0.0298736,0.0525545,-0.0308694,-0.399163,0.0487042,0.0453497,1364,1702,10.2374,-46.2424
147,-678,10.8981,45.8179,0,0,0,0,0,0,0,-1,1371,1702,10.8981,-45.8179
154,-678,11.6619,45.4426,0,0,0,0,0,0,0,-1,1378,1702,11.6619,-45.4426
161,-678,8.81226,34.8624,0,0,0,0,0,0,0,-1,1385,1702,8.81229,-34.8624
168,-678,4.21863,5.25781,0,0,0,0,0,0,0,-1,1392,1702,4.21865,-5.25781
175,-678,5.21899,5.9635,0,0,0,0,0,0,0,-1,1399,1702,5.21894,-5.96346
182,-678,7.31262,6.75122,0,0,0,0,0,0,0,-1,1406,1702,7.3126,-6.75123
189,-678,5.96021,6.36853,0,0,0,0,0,0,0,-1,1413,1702,5.96018,-6.36851
196,-678,5.01599,8.15771,0,0,0,0,0,0,0,-1,1420,1702,5.01596,-8.15767
203,-678,4.64771,13.0559,0,0,0,0,0,0,0,-1,1427,1702,4.64766,-13.0559
210,-678,5.6532,18.5957,0,0,0,0,0,0,0,-1,1434,1702,5.65318,-18.5958
217,-678,6.88049,23.4835,0,0,0,0,0,0,0,-1,1441,1702,6.88047,-23.4835
224,-678,8.521,32.0977,0,0,0,0,0,0,0,-1,1448,1702,8.52098,-32.0977
231,-678,9.96838,42.3734,0,0,0,0,0,0,0,-1,1455,1702,9.96844,-42.3734
238,-678,10.3649,44.6519,0,0,0,0,0,0,0,-1,1462,1702,10.3648,-44.6519
245,-678,10.4948,44.2651,0.00570957,0.00229878,-0.00037403,0.00575011,0.00225825,-0.107952,0.00334519,0.0359909,1469,1702,10.4948,-44.2651
252,-678,10.4897,43.8612,0.00533854,0.00255194,-0.000575935,0.00545288,0.0024376,-0.195986,0.00315411,0.0271557,1476,1702,10.4897,-43.8612
259,-678,10.5172,43.5846,0.00498666,0.00276308,-0.000766109,0.00522505,0.00252469,-0.301679,0.00301725,0.0178496,1483,1702,10.5173,-43.5846
266,-678,10.55,43.262,0.00444867,0.00300447,-0.000813558,0.00481436,0.00263877,-0.422442,0.00278386,0.0125285,1490,1702,10.55,-43.262
273,-678,10.5762,42.9611,0.00388832,0.00302289,-0.000726421,0.00430114,0.00261007,-0.516779,0.00250208,0.0109857,1497,1702,10.5762,-42.9611
280,-678,10.5675,42.6407,0.00333206,0.00318855,-0.000724809,0.00398866,0.00253195,-0.736058,0.00233058,0.0118435,1504,1702,10.5675,-42.6407
287,-678,10.5649,42.2556,0.0027845,0.00329108,-0.000748988,0.00382845,0.00224713,-0.948451,0.00222147,0.0117122,1511,1702,10.5649,-42.2556
294,-678,10.5585,41.8821,0.00230563,0.00342463,-0.000811373,0.00385071,0.00187955,-1.08725,0.00222342,0.0118686,1518,1702,10.5585,-41.8821
301,-678,10.5593,41.5392,0.00189788,0.00356207,-0.000866108,0.00393102,0.00152892,-1.16808,0.00228816,0.0122084,1525,1702,10.5593,-41.5392
308,-678,10.5793,41.1948,0.001527,0.00368251,-0.00101152,0.00408284,0.00112667,-1.19394,0.00243484,0.0143667,1532,1702,10.5793,-41.1948
315,-678,10.5734,40.8325,0.00105714,0.00401079,-0.00103973,0.00434007,0.000727853,-1.26408,0.00268387,0.0150382,1539,1702,10.5733,-40.8325
322,-678,10.5422,40.4772,0.000642399,0.00430333,-0.00106479,0.0045905,0.000355226,-1.30737,0.00294906,0.0171625,1546,1702,10.5422,-40.4772
329,-678,10.5146,40.0679,0.000232021,0.00457494,-0.000936629,0.00476833,3.86313e-05,-1.36718,0.00316609,0.0148598,1553,1702,10.5146,-40.0679
336,-678,10.5095,39.6479,0.000461771,0.00459217,-0.0003636,0.00462393,0.000430008,-1.48366,0.00294975,0.0130774,1560,1702,10.5096,-39.648
343,-678,10.5156,39.2405,0.000937046,0.00453053,0.000472605,0.00459165,0.00087593,1.44219,0.00281492,0.0137442,1567,1702,10.5157,-39.2405
350,-678,10.5315,38.8425,0.000955331,0.00438977,0.00121951,0.00477874,0.00056636,1.26204,0.00301483,0.0132951,1574,1702,10.5314,-38.8425
357,-678,10.5132,38.4125,0.000960667,0.00412576,0.00237959,0.00540099,-0.00031457,1.07884,0.00370997,0.00987749,1581,1702,10.5132,-38.4125
364,-678,10.4811,37.99,0.00148259,0.00362551,0.0036718,0.00637899,-0.00127089,0.92736,0.00473351,0.0117923,1588,1702,10.481,-37.99
371,-678,10.4473,37.5936,0.00197981,0.00304259,0.0052161,0.00775429,-0.0027319,0.836161,0.00628141,0.0129793,1595,1702,10.4472,-37.5937
378,-678,10.4116,37.1533,0.00261863,0.00183948,0.00686632,0.00910642,-0.00464831,0.75706,0.00807914,0.0133695,1602,1702,10.4116,-37.1533
385,-678,10.4039,36.7216,0.00344372,0.000898301,0.00808671,0.0103573,-0.00601524,0.707347,0.00956283,0.013228,1609,1702,10.4039,-36.7215
392,-678,10.4215,36.3203,0.0040742,-0.000526551,0.00940735,0.0114583,-0.0079107,0.665486,0.0112451,0.0242705,1616,1702,10.4215,-36.3203
399,-678,10.3629,35.8688,0.00453349,-0.00208205,0.0103876,0.0121273,-0.00967582,0.631257,0.0126145,0.0376551,1623,1702,10.3629,-35.8687
406,-678,9.98901,35.3821,0.00473566,-0.00338952,0.0111012,0.0124943,-0.0111481,0.609987,0.0136573,0.0397249,1630,1702,9.98902,-35.382
413,-678,10.2419,35.1217,0.00509557,-0.00433611,0.0115555,0.0128604,-0.012101,0.591662,0.0144137,0.0459575,1637,1702,10.242,-35.1217
420,-678,10.4214,34.7294,0,0,0,0,0,0,0,-1,1644,1702,10.4213,-34.7294
427,-678,4.57483,10.1555,0,0,0,0,0,0,0,-1,1651,1702,4.57485,-10.1555
434,-678,9.48169,21.6665,0,0,0,0,0,0,0,-1,1658,1702,9.48169,-21.6665
441,-678,8.64539,21.1864,0,0,0,0,0,0,0,-1,1665,1702,8.64536,-21.1865
448,-678,7.62244,20.7195,0,0,0,0,0,0,0,-1,1672,1702,7.6224,-20.7195
455,-678,5.44678,5.54297,0,0,0,0,0,0,0,-1,1679,1702,5.44676,-5.54294
462,-678,3.86792,2.87402,0,0,0,0,0,0,0,-1,1686,1702,3.86796,-2.87406
469,-678,2.26587,1.98755,0,0,0,0,0,0,0,-1,1693,1702,2.26592,-1.98755
476,-678,0,0,0,0,0,0,0,0,0,-1,1700,1702,0,0
483,-678,0,0,0,0,0,0,0,0,0,-1,1707,1702,0,0
490,-678,0,0,0,0,0,0,0,0,0,-1,1714,1702,0,0
497,-678,0,0,0,0,0,0,0,0,0,-1,1721,1702,0,0
504,-678,0,0,0,0,0,0,0,0,0,-1,1728,1702,0,0
511,-678,0,0,0,0,0,0,0,0,0,-1,1735,1702,0,0
518,-678,0,0,0,0,0,0,0,0,0,-1,1742,1702,0,0
525,-678,0,0,0,0,0,0,0,0,0,-1,1749,1702,0,0
532,-678,0,0,0,0,0,0,0,0,0,-1,1756,1702,0,0
539,-678,0,0,0,0,0,0,0,0,0,-1,1763,1702,0,0
546,-678,0,0,0,0,0,0,0,0,0,-1,1770,1702,0,0
553,-678,0,0,0,0,0,0,0,0,0,-1,1777,1702,0,0
560,-678,0,0,0,0,0,0,0,0,0,-1,1784,1702,0,0
567,-678,0,0,0,0,0,0,0,0,0,-1,1791,1702,0,0
574,-678,0,0,0,0,0,0,0,0,0,-1,1798,1702,0,0
581,-678,0,0,0,0,0,0,0,0,0,-1,1805,1702,0,0
588,-678,0,0,0,0,0,0,0,0,0,-1,1812,1702,0,0
595,-678,0,0,0,0,0,0,0,0,0,-1,1819,1702,0,0
602,-678,0,0,0,0,0,0,0,0,0,-1,1826,1702,0,0
609,-678,0,0,0,0,0,0,0,0,0,-1,1833,1702,0,0
616,-678,0,0,0,0,0,0,0,0,0,-1,1840,1702,0,0
623,-678,0,0,0,0,0,0,0,0,0,-1,1847,1702,0,0
630,-678,0,0,0,0,0,0,0,0,0,-1,1854,1702,0,0
637,-678,0,0,0,0,0,0,0,0,0,-1,1861,1702,0,0
644,-678,0,0,0,0,0,0,0,0,0,-1,1868,1702,0,0
651,-678,0,0,0,0,0,0,0,0,0,-1,1875,1702,0,0
658,-678,0,0,0,0,0,0,0,0,0,-1,1882,1702,0,0
665,-678,0,0,0,0,0,0,0,0,0,-1,1889,1702,0,0
672,-678,0,0,0,0,0,0,0,0,0,-1,1896,1702,0,0
679,-678,0,0,0,0,0,0,0,0,0,-1,1903,1702,0,0
686,-678,0,0,0,0,0,0,0,0,0,-1,1910,1702,0,0
693,-678,0,0,0,0,0,0,0,0,0,-1,1917,1702,0,0
700,-678,0,0,0,0,0,0,0,0,0,-1,1924,1702,0,0
707,-678,0,0,0,0,0,0,0,0,0,-1,1931,1702,0,0
714,-678,0,0,0,0,0,0,0,0,0,-1,1938,1702,0,0
721,-678,0,0,0,0,0,0,0,0,0,-1,1945,1702,0,0
728,-678,0,0,0,0,0,0,0,0,0,-1,1952,1702,0,0
735,-678,0,0,0,0,0,0,0,0,0,-1,1959,1702,0,0
742,-678,0,0,0,0,0,0,0,0,0,-1,1966,1702,0,0
749,-678,0,0,0,0,0,0,0,0,0,-1,1973,1702,0,0
756,-678,0,0,0,0,0,0,0,0,0,-1,1980,1702,0,0
763,-678,0,0,0,0,0,0,0,0,0,-1,1987,1702,0,0
770,-678,0,0,0,0,0,0,0,0,0,-1,1994,1702,0,0
777,-678,0,0,0,0,0,0,0,0,0,-1,2001,1702,0,0
784,-678,0,0,0,0,0,0,0,0,0,-1,2008,1702,0,0
791,-678,0,0,0,0,0,0,0,0,0,-1,2015,1702,0,0
798,-678,0,0,0,0,0,0,0,0,0,-1,2022,1702,0,0
805,-678,0,0,0,0,0,0,0,0,0,-1,2029,1702,0,0
812,-678,0,0,0,0,0,0,0,0,0,-1,2036,1702,0,0
-700,-685,0,0,0,0,0,0,0,0,0,-1,524,1709,0,0
-693,-685,0,0,0,0,0,0,0,0,0,-1,531,1709,0,0
-686,-685,0,0,0,0,0,0,0,0,0,-1,538,1709,0,0
-679,-685,0,0,0,0,0,0,0,0,0,-1,545,1709,0,0
-672,-685,0,0,0,0,0,0,0,0,0,-1,552,1709,0,0
-665,-685,0,0,0,0,0,0,0,0,0,-1,559,1709,0,0
-658,-685,0,0,0,0,0,0,0,0,0,-1,566,1709,0,0
-651,-685,0,0,0,0,0,0,0,0,0,-1,573,1709,0,0
-644,-685,0,0,0,0,0,0,0,0,0,-1,580,1709,0,0
-637,-685,0,0,0,0,0,0,0,0,0,-1,587,1709,0,0
-630,-685,0,0,0,0,0,0,0,0,0,-1,594,1709,0,0
-623,-685,0,0,0,0,0,0,0,0,0,-1,601,1709,0,0
-616,-685,0,0,0,0,0,0,0,0,0,-1,608,1709,0,0
-609,-685,0,0,0,0,0,0,0,0,0,-1,615,1709,0,0
-602,-685,0,0,0,0,0,0,0,0,0,-1,622,1709,0,0
-595,-685,0,0,0,0,0,0,0,0,0,-1,629,1709,0,0
-588,-685,0,0,0,0,0,0,0,0,0,-1,636,1709,0,0
-581,-685,0,0,0,0,0,0,0,0,0,-1,643,1709,0,0
-574,-685,0,0,0,0,0,0,0,0,0,-1,650,1709,0,0
-567,-685,0,0,0,0,0,0,0,0,0,-1,657,1709,0,0
-560,-685,0,0,0,0,0,0,0,0,0,-1,664,1709,0,0
-553,-685,0,0,0,0,0,0,0,0,0,-1,671,1709,0,0
-546,-685,0,0,0,0,0,0,0,0,0,-1,678,1709,0,0
-539,-685,0,0,0,0,0,0,0,0,0,-1,685,1709,0,0
-532,-685,0,0,0,0,0,0,0,0,0,-1,692,1709,0,0
-525,-685,0,0,0,0,0,0,0,0,0,-1,699,1709,0,0
-518,-685,0,0,0,0,0,0,0,0,0,-1,706,1709,0,0
-511,-685,0,0,0,0,0,0,0,0,0,-1,713,1709,0,0
-504,-685,0,0,0,0,0,0,0,0,0,-1,720,1709,0,0
-497,-685,0,0,0,0,0,0,0,0,0,-1,727,1709,0,0
-490,-685,0,0,0,0,0,0,0,0,0,-1,734,1709,0,0
-483,-685,0,0,0,0,0,0,0,0,0,-1,741,1709,0,0
-476,-685,0,0,0,0,0,0,0,0,0,-1,748,1709,0,0
-469,-685,0,0,0,0,0,0,0,0,0,-1,755,1709,0,0
-462,-685,0,0,0,0,0,0,0,0,0,-1,762,1709,0,0
-455,-685,0,0,0,0,0,0,0,0,0,-1,769,1709,0,0
-448,-685,0,0,0,0,0,0,0,0,0,-1,776,1709,0,0
-441,-685,0,0,0,0,0,0,0,0,0,-1,783,1709,0,0
-434,-685,0,0,0,0,0,0,0,0,0,-1,790,1709,0,0
-427,-685,0,0,0,0,0,0,0,0,0,-1,797,1709,0,0
-420,-685,0,0,0,0,0,0,0,0,0,-1,804,1709,0,0
-413,-685,0,0,0,0,0,0,0,0,0,-1,811,1709,0,0
-406,-685,0,0,0,0,0,0,0,0,0,-1,818,1709,0,0
-399,-685,0,0,0,0,0,0,0,0,0,-1,825,1709,0,0
-392,-685,0,0,0,0,0,0,0,0,0,-1,832,1709,0,0
-385,-685,0,0,0,0,0,0,0,0,0,-1,839,1709,0,0
-378,-685,0,0,0,0,0,0,0,0,0,-1,846,1709,0,0
-371,-685,0,0,0,0,0,0,0,0,0,-1,853,1709,0,0
-364,-685,0,0,0,0,0,0,0,0,0,-1,860,1709,0,0
-357,-685,0,0,0,0,0,0,0,0,0,-1,867,1709,0,0
-350,-685,0,0,0,0,0,0,0,0,0,-1,874,1709,0,0
-343,-685,-5.98505,6.56335,0,0,0,0,0,0,0,-1,881,1709,-5.98505,-6.56329
-336,-685,-6.51312,5.10571,0,0,0,0,0,0,0,-1,888,1709,-6.51311,-5.10575
-329,-685,-6.81384,3.34106,0,0,0,0,0,0,0,-1,895,1709,-6.81385,-3.341
-322,-685,3.83191,16.7219,0,0,0,0,0,0,0,-1,902,1709,3.8319,-16.7219
-315,-685,5.15784,21.4388,0,0,0,0,0,0,0,-1,909,1709,5.15783,-21.4389
-308,-685,6.36969,21.0303,0,0,0,0,0,0,0,-1,916,1709,6.36968,-21.0302
-301,-685,7.61694,31.947,0,0,0,0,0,0,0,-1,923,1709,7.61696,-31.9471
-294,-685,8.5296,33.6582,0,0,0,0,0,0,0,-1,930,1709,8.52962,-33.6582
-287,-685,8.2749,34.2245,0,0,0,0,0,0,0,-1,937,1709,8.27489,-34.2244
-280,-685,8.02014,34.7906,0,0,0,0,0,0,0,-1,944,1709,8.02016,-34.7907
-273,-685,6.98444,35.106,0,0,0,0,0,0,0,-1,951,1709,6.98446,-35.1059
-266,-685,7.44543,35.6246,-0.0102761,-0.00620882,-0.00541823,-0.00245517,-0.0140298,-0.964931,0.00865172,0.0463064,958,1709,7.44544,-35.6246
-259,-685,7.44775,36.2085,-0.00872216,-0.00709709,-0.00487293,-0.00296942,-0.0128498,-0.868011,0.00776828,0.0448263,965,1709,7.44775,-36.2085
-252,-685,7.45691,36.5269,-0.00741574,-0.0064599,-0.00425338,-0.00265768,-0.011218,-0.841345,0.00676896,0.0392984,972,1709,7.45689,-36.5269
-245,-685,7.45648,36.9695,-0.0065103,-0.00618915,-0.00371933,-0.00262693,-0.0100725,-0.806971,0.00603312,0.0370235,979,1709,7.45648,-36.9694
-238,-685,7.35138,37.441,-0.00591498,-0.00564097,-0.0030677,-0.00270722,-0.00884874,-0.807714,0.00523551,0.028535,986,1709,7.35138,-37.441
-231,-685,7.28851,37.8995,-0.00506459,-0.00529554,-0.00242362,-0.0027537,-0.00760643,-0.761593,0.00444696,0.0179687,993,1709,7.28854,-37.8996
-224,-685,7.23108,38.3059,-0.00395901,-0.00503619,-0.00185666,-0.0025644,-0.0064308,-0.64423,0.0037381,0.0150205,1000,1709,7.2311,-38.3059
-217,-685,7.21582,38.7571,-0.0032773,-0.00477579,-0.00140935,-0.00243041,-0.00562267,-0.541085,0.00325617,0.0108465,1007,1709,7.21584,-38.7571
-210,-685,7.17755,39.2422,-0.00278417,-0.00432381,-0.000924223,-0.00235115,-0.00475683,-0.438144,0.00274642,0.015548,1014,1709,7.17756,-39.2422
-203,-685,7.17712,39.642,-0.00216122,-0.00396883,-0.000416464,-0.00206988,-0.00406017,-0.215895,0.00234429,0.0167258,1021,1709,7.17708,-39.642
-196,-685,7.16907,40.0281,-0.00153349,-0.00364251,-5.72067e-05,-0.00153194,-0.00364406,-0.0270982,0.00211277,0.0139319,1028,1709,7.16905,-40.028
-189,-685,7.12585,40.4242,-0.00089152,-0.00317775,0.000191111,-0.000875655,-0.00319362,0.082826,0.00190548,0.00946609,1035,1709,7.12591,-40.4241
-182,-685,7.10693,40.8179,-0.000300631,-0.00281872,0.000311104,-0.000262764,-0.00285659,0.121121,0.00182313,0.0142616,1042,1709,7.10687,-40.8179
-175,-685,7.09509,41.212,0.000290238,-0.00235429,0.000399244,0.000349197,-0.00241325,0.146618,0.00173697,0.0145916,1049,1709,7.0951,-41.212
-168,-685,7.08765,41.604,0.000642485,-0.00171819,0.000385758,0.000703922,-0.00177963,0.157939,0.00147803,0.0112688,1056,1709,7.08759,-41.604
-161,-685,7.08533,41.9681,0.000856024,-0.001077,0.000283281,0.000896683,-0.00111766,0.142556,0.00116531,0.011815,1063,1709,7.08528,-41.9682
-154,-685,7.08105,42.333,0.00111527,-0.000453792,0.000103789,0.0011221,-0.000460627,0.0657654,0.000940016,0.0108143,1070,1709,7.08106,-42.333
-147,-685,7.05762,42.6804,0.00141128,0.000138735,-0.000127093,0.00142385,0.000126166,-0.098576,0.000910097,0.0099038,1077,1709,7.05766,-42.6804
-140,-685,7.07458,43.0001,0.00169057,0.000594699,-0.000385829,0.00181278,0.000472487,-0.306753,0.00108585,0.0119011,1084,1709,7.07457,-43.0001
-133,-685,7.11096,43.3479,0.00199157,0.00102675,-0.00063913,0.00230991,0.000708407,-0.462118,0.00136645,0.0111009,1091,1709,7.11096,-43.3479
-126,-685,7.13354,43.683,0.00237413,0.00125011,-0.000909336,0.00288111,0.000743127,-0.508607,0.00172717,0.00971701,1098,1709,7.13353,-43.683
-119,-685,7.14758,43.9777,0.00307316,0.00116878,-0.00109732,0.00357382,0.000668114,-0.428047,0.00219402,0.0134237,1105,1709,7.14753,-43.9776
-112,-685,7.15613,44.2909,0.00385901,0.000791137,-0.00123248,0.00429281,0.000357341,-0.338429,0.00275051,0.0138247,1112,1709,7.15616,-44.2909
-105,-685,7.14063,44.5911,0.0044214,0.000815616,-0.000990123,0.00467539,0.000561626,-0.251109,0.00294761,0.0151451,1119,1709,7.14057,-44.591
-98,-685,7.22571,44.8441,0.00498437,0.000601456,-0.000590977,0.00506265,0.000523169,-0.131704,0.00321493,0.0207254,1126,1709,7.2257,-44.8441
-91,-685,7.25598,45.0121,0.00544022,9.50677e-05,-0.000846905,0.0055712,-3.59095e-05,-0.153438,0.00372616,0.0375102,1133,1709,7.25592,-45.012
-84,-685,7.25476,45.3434,0,0,0,0,0,0,0,-1,1140,1709,7.25471,-45.3434
-77,-685,7.2782,45.6992,0,0,0,0,0,0,0,-1,1147,1709,7.27822,-45.6992
-70,-685,7.41211,46.2467,0,0,0,0,0,0,0,-1,1154,1709,7.4121,-46.2467
-63,-685,6.03015,29.7728,0,0,0,0,0,0,0,-1,1161,1709,6.0302,-29.7728
-56,-685,3.93909,15.8704,0,0,0,0,0,0,0,-1,1168,1709,3.93905,-15.8704
-49,-685,3.07471,9.86011,0,0,0,0,0,0,0,-1,1175,1709,3.07467,-9.86009
-42,-685,2.70618,7.54504,0,0,0,0,0,0,0,-1,1182,1709,2.7062,-7.54504
-35,-685,2.95264,7.91516,0,0,0,0,0,0,0,-1,1189,1709,2.95262,-7.91517
-28,-685,7.76294,47.3077,0,0,0,0,0,0,0,-1,1196,1709,7.76289,-47.3077
-21,-685,7.97656,47.0402,0,0,0,0,0,0,0,-1,1203,1709,7.97661,-47.0401
-14,-685,7.96558,47.2761,0.0253831,0.0474836,0.0129079,0.0534252,0.0194415,1.13941,0.0312236,0.0306045,1210,1709,7.96561,-47.2761
-7,-685,7.93408,47.4998,0.0245248,0.0547519,0.0149978,0.0609304,0.0183463,1.18002,0.036094,0.0444175,1217,1709,7.93407,-47.4998
0,-685,7.9342,47.5367,0,0,0,0,0,0,0,-1,1224,1709,7.93424,-47.5367
7,-685,7.88306,47.8358,0.0219866,0.0679989,0.0168513,0.0735103,0.0164753,1.2547,0.0445426,0.0459447,1231,1709,7.88301,-47.8358
14,-685,8.16223,48.1372,0.0207814,0.0741732,0.0169014,0.0790737,0.015881,1.28859,0.0483004,0.0481692,1238,1709,8.16227,-48.1372
21,-685,8.57166,48.511,0.0194189,0.0794016,0.016175,0.0834854,0.0153352,1.32349,0.0513148,0.0447043,1245,1709,8.57171,-48.511
28,-685,8.5481,48.5538,0.0182158,0.0830576,0.0132683,0.0856675,0.0156059,1.37657,0.0526859,0.0482941,1252,1709,8.54809,-48.5538
35,-685,8.44885,48.3042,0,0,0,0,0,0,0,-1,1259,1709,8.44886,-48.3042
42,-685,8.62976,48.5431,0,0,0,0,0,0,0,-1,1266,1709,8.62978,-48.543
49,-685,8.83167,48.5068,0,0,0,0,0,0,0,-1,1273,1709,8.83167,-48.5068
56,-685,8.61401,48.3472,0,0,0,0,0,0,0,-1,1280,1709,8.61397,-48.3472
63,-685,8.62305,48.2817,0,0,0,0,0,0,0,-1,1287,1709,8.62301,-48.2818
70,-685,8.66357,48.2843,0,0,0,0,0,0,0,-1,1294,1709,8.66359,-48.2844
77,-685,9.03577,48.535,0,0,0,0,0,0,0,-1,1301,1709,9.03573,-48.5351
84,-685,9.56409,48.9553,0,0,0,0,0,0,0,-1,1308,1709,9.56403,-48.9553
91,-685,9.60559,48.4865,0,0,0,0,0,0,0,-1,1315,1709,9.60564,-48.4865
98,-685,9.44141,47.9514,0,0,0,0,0,0,0,-1,1322,1709,9.44138,-47.9515
105,-685,9.40967,47.7128,0,0,0,0,0,0,0,-1,1329,1709,9.40963,-47.7128
112,-685,9.36792,47.5043,0.0230649,0.0167085,-0.0296832,0.0497396,-0.00996623,-0.732066,0.0369328,0.0428673,1336,1709,9.36786,-47.5042
119,-685,9.32617,47.4681,0.0247989,0.00859799,-0.0286029,0.0464263,-0.0130294,-0.647409,0.0360867,0.0416622,1343,1709,9.3262,-47.4681
126,-685,9.47375,47.326,0.0267113,0.000795318,-0.0268423,0.0435597,-0.016053,-0.560523,0.0356178,0.0460955,1350,1709,9.4738,-47.326
133,-685,9.59497,47.3574,0,0,0,0,0,0,0,-1,1357,1709,9.59493,-47.3575
140,-685,9.57922,47.3628,0,0,0,0,0,0,0,-1,1364,1709,9.57922,-47.3627
147,-685,9.56738,47.5154,0,0,0,0,0,0,0,-1,1371,1709,9.56742,-47.5154
154,-685,9.38452,47.1989,0,0,0,0,0,0,0,-1,1378,1709,9.38455,-47.1989
161,-685,9.70532,47.1329,0,0,0,0,0,0,0,-1,1385,1709,9.70529,-47.1329
168,-685,4.37524,10.8778,0,0,0,0,0,0,0,-1,1392,1709,4.37525,-10.8778
175,-685,3.97522,8.94324,0,0,0,0,0,0,0,-1,1399,1709,3.97519,-8.94328
182,-685,3.98218,9.19739,0,0,0,0,0,0,0,-1,1406,1709,3.98221,-9.1974
189,-685,4.53479,15.2343,0,0,0,0,0,0,0,-1,1413,1709,4.53474,-15.2343
196,-685,9.92346,46.3132,0,0,0,0,0,0,0,-1,1420,1709,9.92345,-46.3132
203,-685,10.0178,45.8904,0,0,0,0,0,0,0,-1,1427,1709,10.0178,-45.8904
210,-685,10.1321,45.5859,0,0,0,0,0,0,0,-1,1434,1709,10.132,-45.586
217,-685,10.0713,45.2235,0,0,0,0,0,0,0,-1,1441,1709,10.0713,-45.2235
224,-685,10.0175,45.0034,0,0,0,0,0,0,0,-1,1448,1709,10.0174,-45.0034
231,-685,10.0048,44.7351,0,0,0,0,0,0,0,-1,1455,1709,10.0047,-44.7351
238,-685,10.1639,44.4963,0.00504145,0.00124153,-0.000601632,0.00513443,0.00114855,-0.153333,0.00311158,0.0236447,1462,1709,10.164,-44.4963
245,-685,10.1588,44.1864,0.00459624,0.00179427,-0.000546953,0.00469922,0.00169129,-0.186104,0.00274836,0.0201521,1469,1709,10.1588,-44.1864
252,-685,10.187,43.8877,0.00424229,0.00189608,-0.000704064,0.00443735,0.00170102,-0.270273,0.00258505,0.0148334,1476,1709,10.187,-43.8877
259,-685,10.2078,43.5847,0.00381014,0.00190629,-0.000818799,0.00411384,0.00160259,-0.355179,0.00239436,0.0110974,1483,1709,10.2078,-43.5847
266,-685,10.2317,43.2728,0.00321382,0.00189994,-0.000824302,0.00361094,0.00150282,-0.448955,0.00209452,0.0119096,1490,1709,10.2317,-43.2728
273,-685,10.2445,42.9768,0.00261048,0.00183785,-0.000772685,0.00308804,0.00136029,-0.553589,0.00178709,0.0141261,1497,1709,10.2445,-42.9768
280,-685,10.2145,42.6495,0.00201651,0.00187585,-0.000780161,0.0027295,0.00116285,-0.740446,0.00158162,0.0166393,1504,1709,10.2145,-42.6495
287,-685,10.2118,42.2913,0.00146791,0.00200935,-0.000820385,0.00260253,0.00087473,-0.944768,0.00152924,0.012604,1511,1709,10.2118,-42.2913
294,-685,10.2056,41.9301,0.001039,0.00230512,-0.000880699,0.00275668,0.000587439,-1.09702,0.00167663,0.0103134,1518,1709,10.2056,-41.93
301,-685,10.21,41.5703,0.000745158,0.00266398,-0.000946808,0.0030525,0.000356639,-1.1814,0.00192715,0.0129255,1525,1709,10.2099,-41.5703
308,-685,10.2031,41.2106,0.000496686,0.00298899,-0.00117477,0.00345543,3.02464e-05,-1.19284,0.00229361,0.0141638,1532,1709,10.2031,-41.2106
315,-685,10.2014,40.8416,6.63364e-05,0.00372025,-0.00122426,0.00409252,-0.000305933,-1.2756,0.00283583,0.0125967,1539,1709,10.2014,-40.8416
322,-685,10.1869,40.4711,-0.000246509,0.00441952,-0.00128861,0.00475174,-0.000578729,-1.31848,0.0033773,0.020265,1546,1709,10.1869,-40.4711
329,-685,10.1534,40.0815,-0.000520699,0.00514614,-0.00116914,0.00537788,-0.000752431,-1.37513,0.00386058,0.0201535,1553,1709,10.1534,-40.0815
336,-685,10.135,39.6583,0.000196378,0.00543821,-0.000352691,0.00546183,0.000172753,-1.50391,0.00358502,0.0141076,1560,1709,10.1351,-39.6583
343,-685,10.1141,39.2474,0.00120592,0.00557241,0.000987461,0.00578534,0.000992996,1.35842,0.0035722,0.0125176,1567,1709,10.1141,-39.2475
350,-685,10.116,38.8433,0.00154643,0.00562852,0.00217997,0.0065738,0.000601153,1.16165,0.00419652,0.0132059,1574,1709,10.1159,-38.8432
357,-685,10.09,38.4395,0.00195753,0.00540642,0.00385418,0.00790435,-0.000540402,0.995752,0.00545862,0.0110126,1581,1709,10.09,-38.4394
364,-685,10.0607,38.0277,0.00306353,0.00489426,0.00574802,0.00979934,-0.00184155,0.86436,0.0072254,0.0119578,1588,1709,10.0606,-38.0277
371,-685,10.0737,37.6219,0.00416346,0.00421666,0.00803483,0.0122249,-0.00384482,0.787053,0.00968927,0.0200111,1595,1709,10.0738,-37.6219
378,-685,10.0826,37.1609,0.0054298,0.00276385,0.0105425,0.0147233,-0.0065296,0.722513,0.0125706,0.0217888,1602,1709,10.0827,-37.1609
385,-685,10.0184,36.7963,0.00692417,0.00161721,0.0125717,0.0171194,-0.00857802,0.681391,0.0151071,0.0312868,1609,1709,10.0184,-36.7963
392,-685,10.0532,36.4473,0.00823021,-8.82726e-05,0.0146732,0.0193222,-0.0111803,0.647292,0.0178185,0.0375271,1616,1709,10.0532,-36.4473
399,-685,9.80029,35.8052,0.00933456,-0.00195569,0.0163901,0.0210245,-0.0136456,0.61955,0.0201673,0.043871,1623,1709,9.80026,-35.8052
406,-685,9.13025,35.4095,0.0101031,-0.00354834,0.0177708,0.022314,-0.0157592,0.602037,0.0220899,0.04647,1630,1709,9.13027,-35.4095
413,-685,9.71985,35.3177,0,0,0,0,0,0,0,-1,1637,1709,9.71983,-35.3178
420,-685,4.84631,10.3781,0,0,0,0,0,0,0,-1,1644,1709,4.84634,-10.378
427,-685,6.05151,9.21155,0,0,0,0,0,0,0,-1,1651,1709,6.05156,-9.21156
434,-685,4.87769,8.91418,0,0,0,0,0,0,0,-1,1658,1709,4.87768,-8.91413
441,-685,5.62,8.75549,0,0,0,0,0,0,0,-1,1665,1709,5.61996,-8.75545
448,-685,6.4043,8.58972,0,0,0,0,0,0,0,-1,1672,1709,6.40435,-8.58971
455,-685,2.31958,4.09802,0,0,0,0,0,0,0,-1,1679,1709,2.31957,-4.09803
462,-685,0,0,0,0,0,0,0,0,0,-1,1686,1709,0,0
469,-685,0,0,0,0,0,0,0,0,0,-1,1693,1709,0,0
476,-685,0,0,0,0,0,0,0,0,0,-1,1700,1709,0,0
483,-685,0,0,0,0,0,0,0,0,0,-1,1707,1709,0,0
490,-685,0,0,0,0,0,0,0,0,0,-1,1714,1709,0,0
497,-685,0,0,0,0,0,0,0,0,0,-1,1721,1709,0,0
504,-685,0,0,0,0,0,0,0,0,0,-1,1728,1709,0,0
511,-685,0,0,0,0,0,0,0,0,0,-1,1735,1709,0,0
518,-685,0,0,0,0,0,0,0,0,0,-1,1742,1709,0,0
525,-685,0,0,0,0,0,0,0,0,0,-1,1749,1709,0,0
532,-685,0,0,0,0,0,0,0,0,0,-1,1756,1709,0,0
539,-685,0,0,0,0,0,0,0,0,0,-1,1763,1709,0,0
546,-685,0,0,0,0,0,0,0,0,0,-1,1770,1709,0,0
553,-685,0,0,0,0,0,0,0,0,0,-1,1777,1709,0,0
560,-685,0,0,0,0,0,0,0,0,0,-1,1784,1709,0,0
567,-685,0,0,0,0,0,0,0,0,0,-1,1791,1709,0,0
574,-685,0,0,0,0,0,0,0,0,0,-1,1798,1709,0,0
581,-685,0,0,0,0,0,0,0,0,0,-1,1805,1709,0,0
588,-685,0,0,0,0,0,0,0,0,0,-1,1812,1709,0,0
595,-685,0,0,0,0,0,0,0,0,0,-1,1819,1709,0,0
602,-685,0,0,0,0,0,0,0,0,0,-1,1826,1709,0,0
609,-685,0,0,0,0,0,0,0,0,0,-1,1833,1709,0,0
616,-685,0,0,0,0,0,0,0,0,0,-1,1840,1709,0,0
623,-685,0,0,0,0,0,0,0,0,0,-1,1847,1709,0,0
630,-685,0,0,0,0,0,0,0,0,0,-1,1854,1709,0,0
637,-685,0,0,0,0,0,0,0,0,0,-1,1861,1709,0,0
644,-685,0,0,0,0,0,0,0,0,0,-1,1868,1709,0,0
651,-685,0,0,0,0,0,0,0,0,0,-1,1875,1709,0,0
658,-685,0,0,0,0,0,0,0,0,0,-1,1882,1709,0,0
665,-685,0,0,0,0,0,0,0,0,0,-1,1889,1709,0,0
672,-685,0,0,0,0,0,0,0,0,0,-1,1896,1709,0,0
679,-685,0,0,0,0,0,0,0,0,0,-1,1903,1709,0,0
686,-685,0,0,0,0,0,0,0,0,0,-1,1910,1709,0,0
693,-685,0,0,0,0,0,0,0,0,0,-1,1917,1709,0,0
700,-685,0,0,0,0,0,0,0,0,0,-1,1924,1709,0,0
707,-685,0,0,0,0,0,0,0,0,0,-1,1931,1709,0,0
714,-685,0,0,0,0,0,0,0,0,0,-1,1938,1709,0,0
721,-685,0,0,0,0,0,0,0,0,0,-1,1945,1709,0,0
728,-685,0,0,0,0,0,0,0,0,0,-1,1952,1709,0,0
735,-685,0,0,0,0,0,0,0,0,0,-1,1959,1709,0,0
742,-685,0,0,0,0,0,0,0,0,0,-1,1966,1709,0,0
749,-685,0,0,0,0,0,0,0,0,0,-1,1973,1709,0,0
756,-685,0,0,0,0,0,0,0,0,0,-1,1980,1709,0,0
763,-685,0,0,0,0,0,0,0,0,0,-1,1987,1709,0,0
770,-685,0,0,0,0,0,0,0,0,0,-1,1994,1709,0,0
777,-685,0,0,0,0,0,0,0,0,0,-1,2001,1709,0,0
784,-685,0,0,0,0,0,0,0,0,0,-1,2008,1709,0,0
791,-685,0,0,0,0,0,0,0,0,0,-1,2015,1709,0,0
798,-685,0,0,0,0,0,0,0,0,0,-1,2022,1709,0,0
805,-685,0,0,0,0,0,0,0,0,0,-1,2029,1709,0,0
812,-685,0,0,0,0,0,0,0,0,0,-1,2036,1709,0,0
-700,-692,0,0,0,0,0,0,0,0,0,-1,524,1716,0,0
-693,-692,0,0,0,0,0,0,0,0,0,-1,531,1716,0,0
-686,-692,0,0,0,0,0,0,0,0,0,-1,538,1716,0,0
-679,-692,0,0,0,0,0,0,0,0,0,-1,545,1716,0,0
-672,-692,0,0,0,0,0,0,0,0,0,-1,552,1716,0,0
-665,-692,0,0,0,0,0,0,0,0,0,-1,559,1716,0,0
-658,-692,0,0,0,0,0,0,0,0,0,-1,566,1716,0,0
-651,-692,0,0,0,0,0,0,0,0,0,-1,573,1716,0,0
-644,-692,0,0,0,0,0,0,0,0,0,-1,580,1716,0,0
-637,-692,0,0,0,0,0,0,0,0,0,-1,587,1716,0,0
-630,-692,0,0,0,0,0,0,0,0,0,-1,594,1716,0,0
-623,-692,0,0,0,0,0,0,0,0,0,-1,601,1716,0,0
-616,-692,0,0,0,0,0,0,0,0,0,-1,608,1716,0,0
-609,-692,0,0,0,0,0,0,0,0,0,-1,615,1716,0,0
-602,-692,0,0,0,0,0,0,0,0,0,-1,622,1716,0,0
-595,-692,0,0,0,0,0,0,0,0,0,-1,629,1716,0,0
-588,-692,0,0,0,0,0,0,0,0,0,-1,636,1716,0,0
-581,-692,0,0,0,0,0,0,0,0,0,-1,643,1716,0,0
-574,-692,0,0,0,0,0,0,0,0,0,-1,650,1716,0,0
-567,-692,0,0,0,0,0,0,0,0,0,-1,657,1716,0,0
-560,-692,0,0,0,0,0,0,0,0,0,-1,664,1716,0,0
-553,-692,0,0,0,0,0,0,0,0,0,-1,671,1716,0,0
-546,-692,0,0,0,0,0,0,0,0,0,-1,678,1716,0,0
-539,-692,0,0,0,0,0,0,0,0,0,-1,685,1716,0,0
-532,-692,0,0,0,0,0,0,0,0,0,-1,692,1716,0,0
-525,-692,0,0,0,0,0,0,0,0,0,-1,699,1716,0,0
-518,-692,0,0,0,0,0,0,0,0,0,-1,706,1716,0,0
-511,-692,0,0,0,0,0,0,0,0,0,-1,713,1716,0,0
-504,-692,0,0,0,0,0,0,0,0,0,-1,720,1716,0,0
-497,-692,0,0,0,0,0,0,0,0,0,-1,727,1716,0,0
-490,-692,0,0,0,0,0,0,0,0,0,-1,734,1716,0,0
-483,-692,0,0,0,0,0,0,0,0,0,-1,741,1716,0,0
-476,-692,0,0,0,0,0,0,0,0,0,-1,748,1716,0,0
-469,-692,0,0,0,0,0,0,0,0,0,-1,755,1716,0,0
-462,-692,0,0,0,0,0,0,0,0,0,-1,762,1716,0,0
-455,-692,0,0,0,0,0,0,0,0,0,-1,769,1716,0,0
-448,-692,0,0,0,0,0,0,0,0,0,-1,776,1716,0,0
-441,-692,0,0,0,0,0,0,0,0,0,-1,783,1716,0,0
-434,-692,0,0,0,0,0,0,0,0,0,-1,790,1716,0,0
-427,-692,0,0,0,0,0,0,0,0,0,-1,797,1716,0,0
-420,-692,0,0,0,0,0,0,0,0,0,-1,804,1716,0,0
-413,-692,0,0,0,0,0,0,0,0,0,-1,811,1716,0,0
-406,-692,0,0,0,0,0,0,0,0,0,-1,818,1716,0,0
-399,-692,0,0,0,0,0,0,0,0,0,-1,825,1716,0,0
-392,-692,0,0,0,0,0,0,0,0,0,-1,832,1716,0,0
-385,-692,0,0,0,0,0,0,0,0,0,-1,839,1716,0,0
-378,-692,0,0,0,0,0,0,0,0,0,-1,846,1716,0,0
-371,-692,0,0,0,0,0,0,0,0,0,-1,853,1716,0,0
-364,-692,0,0,0,0,0,0,0,0,0,-1,860,1716,0,0
-357,-692,0,0,0,0,0,0,0,0,0,-1,867,1716,0,0
-350,-692,0,0,0,0,0,0,0,0,0,-1,874,1716,0,0
-343,-692,0,0,0,0,0,0,0,0,0,-1,881,1716,0,0
-336,-692,0,0,0,0,0,0,0,0,0,-1,888,1716,0,0
-329,-692,3.03107,4.10266,0,0,0,0,0,0,0,-1,895,1716,3.03105,-4.10267
-322,-692,4.43713,18.5242,0,0,0,0,0,0,0,-1,902,1716,4.43711,-18.5241
-315,-692,5.38965,17.975,0,0,0,0,0,0,0,-1,909,1716,5.38963,-17.975
-308,-692,5.86938,17.4392,0,0,0,0,0,0,0,-1,916,1716,5.86937,-17.4392
-301,-692,8.65558,20.7662,0,0,0,0,0,0,0,-1,923,1716,8.65556,-20.7663
-294,-692,9.79822,33.7345,0,0,0,0,0,0,0,-1,930,1716,9.79822,-33.7345
-287,-692,9.05695,34.1553,0,0,0,0,0,0,0,-1,937,1716,9.05694,-34.1553
-280,-692,8.31543,34.6213,0,0,0,0,0,0,0,-1,944,1716,8.31541,-34.6213
-273,-692,7.77649,35.1029,0,0,0,0,0,0,0,-1,951,1716,7.77652,-35.1029
-266,-692,8.40106,35.6414,0,0,0,0,0,0,0,-1,958,1716,8.40108,-35.6414
-259,-692,8.09161,36.3749,0,0,0,0,0,0,0,-1,965,1716,8.09164,-36.3749
-252,-692,7.99591,36.5804,0,0,0,0,0,0,0,-1,972,1716,7.9959,-36.5804
-245,-692,7.97461,37.0977,-0.0085867,-0.00834911,-0.00518368,-0.00328286,-0.0136529,-0.796855,0.00822893,0.0474232,979,1716,7.97462,-37.0976
-238,-692,8.01678,37.4656,-0.00797123,-0.0077902,-0.00432636,-0.00355341,-0.012208,-0.795858,0.00725051,0.0457651,986,1716,8.01678,-37.4655
-231,-692,7.84174,37.9812,-0.00697398,-0.00743433,-0.00347253,-0.003724,-0.0106843,-0.752304,0.00626221,0.0378505,993,1716,7.84173,-37.9812
-224,-692,7.64636,38.3562,-0.00538192,-0.00732574,-0.00266317,-0.00351885,-0.00918881,-0.610436,0.0053534,0.0185524,1000,1716,7.64637,-38.3563
-217,-692,7.61304,38.7853,-0.00440178,-0.00719331,-0.00201333,-0.00334771,-0.00824737,-0.482304,0.00478964,0.0120312,1007,1716,7.61303,-38.7853
-210,-692,7.58649,39.2328,-0.00373259,-0.00666727,-0.00128476,-0.00324962,-0.00715023,-0.359576,0.00413389,0.013426,1014,1716,7.58646,-39.2328
-203,-692,7.58191,39.6456,-0.00288691,-0.00629121,-0.000506493,-0.00281315,-0.00636497,-0.144608,0.00368306,0.0163905,1021,1716,7.58188,-39.6456
-196,-692,7.55249,40.0782,-0.00207092,-0.005923,3.07652e-05,-0.00207067,-0.00592325,0.00798594,0.00347099,0.0177096,1028,1716,7.55245,-40.0782
-189,-692,7.50378,40.4315,-0.00127161,-0.00533376,0.000451773,-0.00122198,-0.0053834,0.109434,0.00325889,0.00894536,1035,1716,7.50379,-40.4315
-182,-692,7.46729,40.8326,-0.000584156,-0.00484259,0.000718843,-0.000466086,-0.00496066,0.162797,0.00316321,0.0137567,1042,1716,7.46725,-40.8327
-175,-692,7.43799,41.2535,8.39982e-05,-0.0042016,0.000948749,0.00028464,-0.00440224,0.208409,0.00303416,0.0156277,1049,1716,7.43801,-41.2535
-168,-692,7.46313,41.6263,0.000454047,-0.00339466,0.001046,0.000719956,-0.00366057,0.248942,0.0027124,0.0119802,1056,1716,7.46317,-41.6263
-161,-692,7.47253,42.0013,0.000639114,-0.0024974,0.00104959,0.000957935,-0.00281622,0.294901,0.00226534,0.0137262,1063,1716,7.47247,-42.0014
-154,-692,7.44092,42.3812,0.000837278,-0.00164202,0.000953203,0.00116138,-0.00196613,0.327753,0.00182548,0.0149158,1070,1716,7.44096,-42.3813
-147,-692,7.41064,42.7106,0.00104421,-0.000858787,0.000766851,0.00131476,-0.00112934,0.339177,0.00141245,0.0150334,1077,1716,7.41063,-42.7106
-140,-692,7.40735,43.0303,0.00126045,-0.000159384,0.000560431,0.00145501,-0.000353936,0.334131,0.00110701,0.0110396,1084,1716,7.40733,-43.0303
-133,-692,7.43213,43.3573,0.00147907,0.000434826,0.000307717,0.001563,0.000350894,0.266278,0.000946962,0.00979672,1091,1716,7.43215,-43.3573
-126,-692,7.45288,43.6863,0.00175139,0.0008536,3.71344e-05,0.00175292,0.000852066,0.0412682,0.00101218,0.00838453,1098,1716,7.45294,-43.6863
-119,-692,7.43286,43.9966,0.00219968,0.00102273,-0.000184972,0.00222807,0.000994345,-0.152273,0.00128885,0.012365,1105,1716,7.43288,-43.9965
-112,-692,7.45044,44.3051,0.00277085,0.000888087,-0.000360879,0.00283765,0.000821285,-0.183036,0.00168605,0.0119194,1112,1716,7.45042,-44.305
-105,-692,7.48254,44.6055,0.0032126,0.000850737,-0.000350329,0.00326347,0.000799869,-0.144192,0.00196409,0.0164517,1119,1716,7.4826,-44.6054
-98,-692,7.54614,44.8705,0.00365638,0.000570541,-0.000230455,0.00367349,0.000553425,-0.0741335,0.00228695,0.0177821,1126,1716,7.54614,-44.8705
-91,-692,7.53418,45.1333,0.00402577,0.000215696,-0.000457033,0.00407983,0.00016164,-0.117729,0.00266764,0.0197169,1133,1716,7.53423,-45.1333
-84,-692,7.53918,45.3953,0.00434682,3.67572e-05,-0.000687388,0.0044538,-7.0215e-05,-0.154383,0.00299288,0.0231885,1140,1716,7.53914,-45.3952
-77,-692,7.55676,45.6777,0.00465604,0.000211102,-0.00121549,0.00496671,-9.95682e-05,-0.250234,0.00334482,0.0188544,1147,1716,7.55679,-45.6777
-70,-692,7.61035,45.9587,0.00487164,-6.64183e-05,-0.00158678,0.00533757,-0.000532348,-0.285604,0.00374845,0.0361328,1154,1716,7.61033,-45.9587
-63,-692,7.69421,46.2357,0,0,0,0,0,0,0,-1,1161,1716,7.69415,-46.2357
-56,-692,7.64648,46.2769,0,0,0,0,0,0,0,-1,1168,1716,7.64654,-46.2768
-49,-692,7.66748,46.5378,0,0,0,0,0,0,0,-1,1175,1716,7.66753,-46.5378
-42,-692,7.72632,46.9172,0,0,0,0,0,0,0,-1,1182,1716,7.72636,-46.9173
-35,-692,7.93835,47.2583,0,0,0,0,0,0,0,-1,1189,1716,7.93837,-47.2583
-28,-692,7.87317,47.2371,0.0176401,0.0210317,0.00393189,0.0236179,0.0150539,0.988994,0.0138063,0.0488882,1196,1716,7.87319,-47.237
-21,-692,7.99072,47.1543,0.0181475,0.0297735,0.00707343,0.0331161,0.0148049,1.12935,0.0191553,0.0335381,1203,1716,7.99077,-47.1543
-14,-692,8.00488,47.2876,0.0181622,0.0345431,0.00990144,0.0392026,0.0135027,1.13095,0.0229959,0.0173418,1210,1716,8.00492,-47.2876
-7,-692,8.00928,47.4781,0.017863,0.0408774,0.0114652,0.0456142,0.0131263,1.17901,0.0271147,0.0167291,1217,1716,8.00923,-47.4782
0,-692,8.0481,47.5892,0.0170761,0.0462446,0.0122193,0.0506869,0.0126338,1.2221,0.0304661,0.0196964,1224,1716,8.04815,-47.5893
7,-692,8.099,47.6411,0.0162139,0.0518071,0.0130349,0.0560702,0.0119509,1.25471,0.0341018,0.0251219,1231,1716,8.09904,-47.6411
14,-692,8.24634,47.9438,0.0152395,0.056868,0.0131292,0.0606629,0.0114446,1.28942,0.0372183,0.0292669,1238,1716,8.24634,-47.9438
21,-692,8.42102,48.1183,0.014176,0.0612342,0.0128151,0.0644977,0.0109124,1.32143,0.039862,0.0283781,1245,1716,8.42103,-48.1183
28,-692,8.40649,48.0808,0.0130987,0.0645979,0.0108723,0.0667991,0.0108974,1.37103,0.0413814,0.0296833,1252,1716,8.40649,-48.0808
35,-692,8.43738,48.1287,0.0121152,0.0665073,0.00768001,0.0675709,0.0110516,1.43318,0.0418527,0.0291787,1259,1716,8.4374,-48.1286
42,-692,8.55872,48.2527,0.0114654,0.0663315,0.00356643,0.0665623,0.0112346,1.50616,0.0411445,0.0271995,1266,1716,8.5587,-48.2527
49,-692,8.67639,48.2711,0.0108569,0.0641348,-0.000635894,0.0641424,0.0108493,-1.55886,0.0396431,0.0340024,1273,1716,8.67637,-48.2711
56,-692,8.66968,48.2302,0.0101788,0.0610183,-0.00508195,0.0615213,0.00967579,-1.47214,0.0381996,0.0449322,1280,1716,8.66974,-48.2302
63,-692,8.65527,48.2092,0.00927139,0.0571714,-0.00945651,0.0589707,0.00747206,-1.38277,0.037075,0.042892,1287,1716,8.65522,-48.2093
70,-692,8.73523,48.3016,0.00990049,0.0534505,-0.0144691,0.0578195,0.00553156,-1.27755,0.0368411,0.0349504,1294,1716,8.73522,-48.3016
77,-692,8.87964,48.2784,0.0113386,0.0475437,-0.0184167,0.0552651,0.00361718,-1.1738,0.0356988,0.0413116,1301,1716,8.87965,-48.2784
84,-692,8.79712,48.0166,0,0,0,0,0,0,0,-1,1308,1716,8.79715,-48.0166
91,-692,9.21387,47.9705,0,0,0,0,0,0,0,-1,1315,1716,9.21384,-47.9704
98,-692,9.06543,47.9664,0.0149307,0.0237541,-0.0240124,0.0437567,-0.00507193,-0.876248,0.0310004,0.0405184,1322,1716,9.06539,-47.9664
105,-692,9.16675,47.8269,0.0162366,0.017852,-0.0234315,0.0404897,-0.00640107,-0.802627,0.0293603,0.0453431,1329,1716,9.16673,-47.8269
112,-692,9.21252,47.7247,0.0174135,0.0118615,-0.022564,0.0373716,-0.00809661,-0.724191,0.0280061,0.0464414,1336,1716,9.21257,-47.7247
119,-692,9.18079,47.6647,0.0185819,0.00576633,-0.021453,0.0345636,-0.0102154,-0.640271,0.0270972,0.0352967,1343,1716,9.1808,-47.6647
126,-692,9.302,47.5293,0.0196843,0.00023566,-0.01991,0.0321179,-0.0121979,-0.558231,0.0264333,0.0349462,1350,1716,9.30194,-47.5293
133,-692,9.39636,47.4442,0.0206582,-0.00525549,-0.018049,0.0299195,-0.0145168,-0.474088,0.026164,0.0282245,1357,1716,9.39631,-47.4442
140,-692,9.41809,47.4095,0.0212458,-0.00979447,-0.0161981,0.028159,-0.0167076,-0.403384,0.0261835,0.0342078,1364,1716,9.41807,-47.4095
147,-692,9.43054,47.3754,0.021127,-0.0130119,-0.0142948,0.026322,-0.0182069,-0.348581,0.0258507,0.0409725,1371,1716,9.43059,-47.3754
154,-692,9.33484,47.155,0.0204301,-0.0149219,-0.0123795,0.0243341,-0.0188258,-0.305482,0.0249859,0.0346206,1378,1716,9.33478,-47.155
161,-692,9.521,47.0695,0.0195753,-0.0167911,-0.0103484,0.0223139,-0.0195296,-0.258702,0.0241762,0.0417216,1385,1716,9.52099,-47.0695
168,-692,9.60193,46.847,0,0,0,0,0,0,0,-1,1392,1716,9.6019,-46.847
175,-692,9.74646,46.6512,0,0,0,0,0,0,0,-1,1399,1716,9.74641,-46.6513
182,-692,9.69678,46.4585,0,0,0,0,0,0,0,-1,1406,1716,9.69674,-46.4585
189,-692,9.69214,46.2504,0,0,0,0,0,0,0,-1,1413,1716,9.69217,-46.2504
196,-692,9.70972,46.0491,0.00441341,-0.00234049,0.000824489,0.0045126,-0.00243968,0.119734,0.00407295,0.0373184,1420,1716,9.70977,-46.0491
203,-692,9.73254,45.835,0.00447078,0.000784387,0.00104634,0.00474706,0.000508103,0.258156,0.00300967,0.0243861,1427,1716,9.73253,-45.8349
210,-692,9.79919,45.5736,0.00390413,0.000686727,0.00103564,0.00420866,0.000382192,0.285994,0.00268745,0.0210826,1434,1716,9.79917,-45.5736
217,-692,9.80859,45.293,0.00330709,0.00036774,0.000711474,0.00347025,0.000204583,0.225424,0.00224841,0.0184431,1441,1716,9.80863,-45.293
224,-692,9.81067,45.0439,0.00344828,0.000615666,0.000256666,0.00347135,0.000592597,0.0896383,0.00214417,0.0138398,1448,1716,9.81066,-45.044
231,-692,9.80176,44.7673,0.00355876,0.000869195,-0.000294948,0.00359072,0.000837229,-0.107955,0.00216928,0.012792,1455,1716,9.80177,-44.7674
238,-692,9.81274,44.449,0.00338772,0.000901973,-0.000529281,0.00349572,0.000793968,-0.201296,0.00211607,0.0189048,1462,1716,9.81271,-44.449
245,-692,9.83252,44.173,0.00300549,0.00111707,-0.000547119,0.00315255,0.000970008,-0.262585,0.00186446,0.0204483,1469,1716,9.83247,-44.173
252,-692,9.8822,43.8792,0.0026256,0.00108025,-0.000658634,0.00286822,0.000837628,-0.352944,0.00170305,0.0178625,1476,1716,9.88218,-43.8792
259,-692,9.87976,43.5942,0.0021518,0.000950036,-0.000710098,0.00248113,0.000620703,-0.434258,0.0014909,0.00956296,1483,1716,9.87977,-43.5942
266,-692,9.87207,43.2988,0.00156479,0.000797601,-0.000701013,0.0019803,0.000382093,-0.535054,0.00121306,0.0097172,1490,1716,9.87208,-43.2989
273,-692,9.88367,42.9917,0.00100731,0.000765255,-0.000725744,0.00162205,0.000150516,-0.702777,0.00103485,0.014153,1497,1716,9.8837,-42.9917
280,-692,9.88281,42.6461,0.000457913,0.00077496,-0.000779985,0.00141237,-0.000179495,-0.885652,0.00100676,0.0137213,1504,1716,9.88287,-42.6461
287,-692,9.87195,42.2994,-2.83184e-05,0.00102976,-0.000872561,0.00152113,-0.000519694,-1.05792,0.00122465,0.0111918,1511,1716,9.87193,-42.2995
294,-692,9.86536,41.9565,-0.000358838,0.00156837,-0.000957414,0.00196314,-0.000753606,-1.17971,0.0016195,0.0109172,1518,1716,9.86539,-41.9566
301,-692,9.8623,41.6008,-0.000496286,0.00221394,-0.00105124,0.00257389,-0.000856235,-1.2409,0.00206149,0.0138439,1525,1716,9.86229,-41.6008
308,-692,9.83496,41.2338,-0.000583555,0.002764,-0.00137912,0.00325898,-0.00107853,-1.22621,0.0026076,0.0171861,1532,1716,9.83494,-41.2338
315,-692,9.82813,40.8544,-0.000961624,0.00393205,-0.00146531,0.00433725,-0.00136683,-1.30101,0.00343888,0.0164214,1539,1716,9.82813,-40.8543
322,-692,9.79614,40.4633,-0.0011521,0.00507066,-0.00158347,0.00545043,-0.00153186,-1.33541,0.00423756,0.0206256,1546,1716,9.79609,-40.4633
329,-692,9.75208,40.0559,-0.00126443,0.0063029,-0.00148939,0.00658548,-0.00154702,-1.38329,0.00498664,0.01862,1553,1716,9.75213,-40.0559
336,-692,9.75171,39.6559,0.00010061,0.00686661,-0.000370412,0.00688683,8.03915e-05,-1.51627,0.00456466,0.0133829,1560,1716,9.75174,-39.6559
343,-692,9.7384,39.2926,0.00186022,0.00720312,0.00163591,0.00766422,0.00139913,1.29606,0.00471285,0.0136784,1567,1716,9.73839,-39.2926
350,-692,9.72827,38.9059,0.00276071,0.00744168,0.00343792,0.00926018,0.000942206,1.08425,0.00588458,0.0184674,1574,1716,9.72829,-38.9059
357,-692,9.66992,38.3988,0.00388858,0.00723129,0.00583587,0.0116304,-0.000510553,0.924862,0.00792928,0.0262515,1581,1716,9.66994,-38.3988
364,-692,9.6062,37.856,0.00592823,0.0066855,0.00860184,0.014917,-0.0023033,0.807393,0.0107947,0.0307683,1588,1716,9.60624,-37.8559
371,-692,9.6178,37.4868,0.00801077,0.00583103,0.0119852,0.0189555,-0.00511373,0.740055,0.0146423,0.0404991,1595,1716,9.61776,-37.4869
378,-692,9.40332,37.0831,0.0103105,0.00399579,0.0157709,0.023237,-0.00893072,0.686604,0.0191745,0.0460226,1602,1716,9.40326,-37.0831
385,-692,9.52747,36.8409,0.0128739,0.00246365,0.0189933,0.0273624,-0.0120248,0.651657,0.0233078,0.0483757,1609,1716,9.52751,-36.8409
392,-692,9.66687,36.485,0.0152452,0.000334499,0.0222172,0.0312246,-0.0156449,0.623519,0.0275539,0.0499881,1616,1716,9.66692,-36.485
399,-692,9.33789,35.6846,0,0,0,0,0,0,0,-1,1623,1716,9.33783,-35.6845
406,-692,8.68384,35.5872,0,0,0,0,0,0,0,-1,1630,1716,8.6838,-35.5871
413,-692,8.43213,35.196,0,0,0,0,0,0,0,-1,1637,1716,8.43216,-35.1961
420,-692,5.48901,10.4845,0,0,0,0,0,0,0,-1,1644,1716,5.48906,-10.4845
427,-692,3.79578,8.60339,0,0,0,0,0,0,0,-1,1651,1716,3.79577,-8.6034
434,-692,4.78516,8.64636,0,0,0,0,0,0,0,-1,1658,1716,4.78512,-8.64634
441,-692,5.8208,8.74036,0,0,0,0,0,0,0,-1,1665,1716,5.82084,-8.7404
448,-692,6.73792,8.51013,0,0,0,0,0,0,0,-1,1672,1716,6.73793,-8.5101
455,-692,0,0,0,0,0,0,0,0,0,-1,1679,1716,0,0
462,-692,0,0,0,0,0,0,0,0,0,-1,1686,1716,0,0
469,-692,0,0,0,0,0,0,0,0,0,-1,1693,1716,0,0
476,-692,0,0,0,0,0,0,0,0,0,-1,1700,1716,0,0
483,-692,0,0,0,0,0,0,0,0,0,-1,1707,1716,0,0
490,-692,0,0,0,0,0,0,0,0,0,-1,1714,1716,0,0
497,-692,0,0,0,0,0,0,0,0,0,-1,1721,1716,0,0
504,-692,0,0,0,0,0,0,0,0,0,-1,1728,1716,0,0
511,-692,0,0,0,0,0,0,0,0,0,-1,1735,1716,0,0
518,-692,0,0,0,0,0,0,0,0,0,-1,1742,1716,0,0
525,-692,0,0,0,0,0,0,0,0,0,-1,1749,1716,0,0
532,-692,0,0,0,0,0,0,0,0,0,-1,1756,1716,0,0
539,-692,0,0,0,0,0,0,0,0,0,-1,1763,1716,0,0
546,-692,0,0,0,0,0,0,0,0,0,-1,1770,1716,0,0
553,-692,0,0,0,0,0,0,0,0,0,-1,1777,1716,0,0
560,-692,0,0,0,0,0,0,0,0,0,-1,1784,1716,0,0
567,-692,0,0,0,0,0,0,0,0,0,-1,1791,1716,0,0
574,-692,0,0,0,0,0,0,0,0,0,-1,1798,1716,0,0
581,-692,0,0,0,0,0,0,0,0,0,-1,1805,1716,0,0
588,-692,0,0,0,0,0,0,0,0,0,-1,1812,1716,0,0
595,-692,0,0,0,0,0,0,0,0,0,-1,1819,1716,0,0
602,-692,0,0,0,0,0,0,0,0,0,-1,1826,1716,0,0
609,-692,0,0,0,0,0,0,0,0,0,-1,1833,1716,0,0
616,-692,0,0,0,0,0,0,0,0,0,-1,1840,1716,0,0
623,-692,0,0,0,0,0,0,0,0,0,-1,1847,1716,0,0
630,-692,0,0,0,0,0,0,0,0,0,-1,1854,1716,0,0
637,-692,0,0,0,0,0,0,0,0,0,-1,1861,1716,0,0
644,-692,0,0,0,0,0,0,0,0,0,-1,1868,1716,0,0
651,-692,0,0,0,0,0,0,0,0,0,-1,1875,1716,0,0
658,-692,0,0,0,0,0,0,0,0,0,-1,1882,1716,0,0
665,-692,0,0,0,0,0,0,0,0,0,-1,1889,1716,0,0
672,-692,0,0,0,0,0,0,0,0,0,-1,1896,1716,0,0
679,-692,0,0,0,0,0,0,0,0,0,-1,1903,1716,0,0
686,-692,0,0,0,0,0,0,0,0,0,-1,1910,1716,0,0
693,-692,0,0,0,0,0,0,0,0,0,-1,1917,1716,0,0
700,-692,0,0,0,0,0,0,0,0,0,-1,1924,1716,0,0
707,-692,0,0,0,0,0,0,0,0,0,-1,1931,1716,0,0
714,-692,0,0,0,0,0,0,0,0,0,-1,1938,1716,0,0
721,-692,0,0,0,0,0,0,0,0,0,-1,1945,1716,0,0
728,-692,0,0,0,0,0,0,0,0,0,-1,1952,1716,0,0
735,-692,0,0,0,0,0,0,0,0,0,-1,1959,1716,0,0
742,-692,0,0,0,0,0,0,0,0,0,-1,1966,1716,0,0
749,-692,0,0,0,0,0,0,0,0,0,-1,1973,1716,0,0
756,-692,0,0,0,0,0,0,0,0,0,-1,1980,1716,0,0
763,-692,0,0,0,0,0,0,0,0,0,-1,1987,1716,0,0
770,-692,0,0,0,0,0,0,0,0,0,-1,1994,1716,0,0
777,-692,0,0,0,0,0,0,0,0,0,-1,2001,1716,0,0
784,-692,0,0,0,0,0,0,0,0,0,-1,2008,1716,0,0
791,-692,0,0,0,0,0,0,0,0,0,-1,2015,1716,0,0
798,-692,0,0,0,0,0,0,0,0,0,-1,2022,1716,0,0
805,-692,0,0,0,0,0,0,0,0,0,-1,2029,1716,0,0
812,-692,0,0,0,0,0,0,0,0,0,-1,2036,1716,0,0
-700,-699,0,0,0,0,0,0,0,0,0,-1,524,1723,0,0
-693,-699,0,0,0,0,0,0,0,0,0,-1,531,1723,0,0
-686,-699,0,0,0,0,0,0,0,0,0,-1,538,1723,0,0
-679,-699,0,0,0,0,0,0,0,0,0,-1,545,1723,0,0
-672,-699,0,0,0,0,0,0,0,0,0,-1,552,1723,0,0
-665,-699,0,0,0,0,0,0,0,0,0,-1,559,1723,0,0
-658,-699,0,0,0,0,0,0,0,0,0,-1,566,1723,0,0
-651,-699,0,0,0,0,0,0,0,0,0,-1,573,1723,0,0
-644,-699,0,0,0,0,0,0,0,0,0,-1,580,1723,0,0
-637,-699,0,0,0,0,0,0,0,0,0,-1,587,1723,0,0
-630,-699,0,0,0,0,0,0,0,0,0,-1,594,1723,0,0
-623,-699,0,0,0,0,0,0,0,0,0,-1,601,1723,0,0
-616,-699,0,0,0,0,0,0,0,0,0,-1,608,1723,0,0
-609,-699,0,0,0,0,0,0,0,0,0,-1,615,1723,0,0
-602,-699,0,0,0,0,0,0,0,0,0,-1,622,1723,0,0
-595,-699,0,0,0,0,0,0,0,0,0,-1,629,1723,0,0
-588,-699,0,0,0,0,0,0,0,0,0,-1,636,1723,0,0
-581,-699,0,0,0,0,0,0,0,0,0,-1,643,1723,0,0
-574,-699,0,0,0,0,0,0,0,0,0,-1,650,1723,0,0
-567,-699,0,0,0,0,0,0,0,0,0,-1,657,1723,0,0
-560,-699,0,0,0,0,0,0,0,0,0,-1,664,1723,0,0
-553,-699,0,0,0,0,0,0,0,0,0,-1,671,1723,0,0
-546,-699,0,0,0,0,0,0,0,0,0,-1,678,1723,0,0
-539,-699,0,0,0,0,0,0,0,0,0,-1,685,1723,0,0
-532,-699,0,0,0,0,0,0,0,0,0,-1,692,1723,0,0
-525,-699,0,0,0,0,0,0,0,0,0,-1,699,1723,0,0
-518,-699,0,0,0,0,0,0,0,0,0,-1,706,1723,0,0
-511,-699,0,0,0,0,0,0,0,0,0,-1,713,1723,0,0
-504,-699,0,0,0,0,0,0,0,0,0,-1,720,1723,0,0
-497,-699,0,0,0,0,0,0,0,0,0,-1,727,1723,0,0
-490,-699,0,0,0,0,0,0,0,0,0,-1,734,1723,0,0
-483,-699,0,0,0,0,0,0,0,0,0,-1,741,1723,0,0
-476,-699,0,0,0,0,0,0,0,0,0,-1,748,1723,0,0
-469,-699,0,0,0,0,0,0,0,0,0,-1,755,1723,0,0
-462,-699,0,0,0,0,0,0,0,0,0,-1,762,1723,0,0
-455,-699,0,0,0,0,0,0,0,0,0,-1,769,1723,0,0
-448,-699,0,0,0,0,0,0,0,0,0,-1,776,1723,0,0
-441,-699,0,0,0,0,0,0,0,0,0,-1,783,1723,0,0
-434,-699,0,0,0,0,0,0,0,0,0,-1,790,1723,0,0
-427,-699,0,0,0,0,0,0,0,0,0,-1,797,1723,0,0
-420,-699,0,0,0,0,0,0,0,0,0,-1,804,1723,0,0
-413,-699,0,0,0,0,0,0,0,0,0,-1,811,1723,0,0
-406,-699,0,0,0,0,0,0,0,0,0,-1,818,1723,0,0
-399,-699,0,0,0,0,0,0,0,0,0,-1,825,1723,0,0
-392,-699,0,0,0,0,0,0,0,0,0,-1,832,1723,0,0
-385,-699,0,0,0,0,0,0,0,0,0,-1,839,1723,0,0
-378,-699,0,0,0,0,0,0,0,0,0,-1,846,1723,0,0
-371,-699,0,0,0,0,0,0,0,0,0,-1,853,1723,0,0
-364,-699,0,0,0,0,0,0,0,0,0,-1,860,1723,0,0
-357,-699,0,0,0,0,0,0,0,0,0,-1,867,1723,0,0
-350,-699,0,0,0,0,0,0,0,0,0,-1,874,1723,0,0
-343,-699,0,0,0,0,0,0,0,0,0,-1,881,1723,0,0
-336,-699,0,0,0,0,0,0,0,0,0,-1,888,1723,0,0
-329,-699,0,0,0,0,0,0,0,0,0,-1,895,1723,0,0
-322,-699,0,0,0,0,0,0,0,0,0,-1,902,1723,0,0
-315,-699,6.20001,19.5193,0,0,0,0,0,0,0,-1,909,1723,6.20001,-19.5193
-308,-699,6.98151,18.9218,0,0,0,0,0,0,0,-1,916,1723,6.98151,-18.9217
-301,-699,4.72729,12.8752,0,0,0,0,0,0,0,-1,923,1723,4.72732,-12.8752
-294,-699,6.90332,19.8601,0,0,0,0,0,0,0,-1,930,1723,6.90332,-19.8601
-287,-699,10.0234,34.0942,0,0,0,0,0,0,0,-1,937,1723,10.0234,-34.0943
-280,-699,9.43286,34.5581,0,0,0,0,0,0,0,-1,944,1723,9.43286,-34.5581
-273,-699,10.2987,33.8755,0,0,0,0,0,0,0,-1,951,1723,10.2987,-33.8755
-266,-699,6.81915,20.8951,0,0,0,0,0,0,0,-1,958,1723,6.81914,-20.8952
-259,-699,5.39758,14.5466,0,0,0,0,0,0,0,-1,965,1723,5.39759,-14.5466
-252,-699,8.3866,31.6284,0,0,0,0,0,0,0,-1,972,1723,8.38657,-31.6284
-245,-699,8.57178,37.3239,0,0,0,0,0,0,0,-1,979,1723,8.57176,-37.3239
-238,-699,8.59808,37.6184,0,0,0,0,0,0,0,-1,986,1723,8.59807,-37.6185
-231,-699,8.39801,38.0387,-0.0091718,-0.0101322,-0.00487473,-0.00475366,-0.0145503,-0.736304,0.00856717,0.0456097,993,1723,8.39799,-38.0387
-224,-699,8.08374,38.3669,-0.00672243,-0.0102382,-0.00366977,-0.00441124,-0.0125494,-0.562037,0.00735112,0.0377734,1000,1723,8.08372,-38.3669
-217,-699,8.0448,38.7866,-0.00535555,-0.0102587,-0.00272361,-0.00414267,-0.0114716,-0.418957,0.00670775,0.0250103,1007,1723,8.04478,-38.7866
-210,-699,7.99609,39.2156,-0.00449659,-0.00968477,-0.00173781,-0.00396829,-0.0102131,-0.295123,0.00594514,0.0170655,1014,1723,7.99611,-39.2156
-203,-699,7.96436,39.6302,-0.00333937,-0.00941529,-0.000651456,-0.00327031,-0.00948435,-0.10562,0.00556302,0.0203928,1021,1723,7.96439,-39.6302
-196,-699,7.92407,40.0676,-0.00225309,-0.00900907,0.000128221,-0.00225066,-0.00901151,0.0189698,0.00541565,0.0171522,1028,1723,7.92404,-40.0676
-189,-699,7.8877,40.4568,-0.00123954,-0.00826547,0.000779602,-0.00115407,-0.00835093,0.109191,0.00522525,0.00917898,1035,1723,7.88767,-40.4568
-182,-699,7.86169,40.8569,-0.000435872,-0.00760144,0.00123722,-0.000228268,-0.00780904,0.166251,0.00513163,0.0125836,1042,1723,7.86169,-40.8569
-175,-699,7.85071,41.2737,0.000306945,-0.00672567,0.00164685,0.000673488,-0.00709221,0.219003,0.00496788,0.0145422,1049,1723,7.8507,-41.2736
-168,-699,7.85828,41.6245,0.000686655,-0.00569685,0.00188133,0.00119986,-0.00621005,0.266307,0.00459253,0.0153499,1056,1723,7.85826,-41.6245
-161,-699,7.83887,41.9907,0.000828375,-0.00446713,0.00201074,0.00150533,-0.00514409,0.324749,0.00402609,0.0132394,1063,1723,7.83881,-41.9907
-154,-699,7.78735,42.3639,0.000932437,-0.00329582,0.00201051,0.00173579,-0.00409917,0.380141,0.0034597,0.0132755,1070,1723,7.78741,-42.3639
-147,-699,7.74951,42.7002,0.00100721,-0.0022267,0.00187386,0.00186531,-0.0030848,0.429429,0.00288671,0.015928,1077,1723,7.74954,-42.7002
-140,-699,7.74023,43.0345,0.00111282,-0.00119474,0.00171276,0.00202417,-0.00210608,0.488991,0.00238476,0.0109722,1084,1723,7.74022,-43.0345
-133,-699,7.75427,43.3831,0.00119068,-0.000348971,0.00144523,0.00205833,-0.00121662,0.540679,0.0019115,0.00967798,1091,1723,7.75422,-43.383
-126,-699,7.7616,43.7031,0.00128715,0.000322321,0.00114462,0.00204686,-0.000437391,0.585963,0.00153134,0.0120838,1098,1723,7.7616,-43.7031
-119,-699,7.75769,44.0176,0.00138501,0.000819806,0.00085183,0.00199989,0.000204922,0.625233,0.00127047,0.0174868,1105,1723,7.75769,-44.0176
-112,-699,7.73914,44.3134,0.00171887,0.00101958,0.000625863,0.00208613,0.000652315,0.530663,0.00123228,0.0123766,1112,1723,7.73913,-44.3134
-105,-699,7.75488,44.6169,0.00204306,0.000976183,0.000418377,0.00218756,0.000831686,0.332547,0.00127502,0.0140071,1119,1723,7.75494,-44.6169
-98,-699,7.81543,44.8796,0.00235794,0.000766268,0.000286399,0.0024079,0.000716304,0.172721,0.00142771,0.0158513,1126,1723,7.81542,-44.8796
-91,-699,7.82275,45.1403,0.00267177,0.000550383,7.82766e-05,0.00267465,0.000547499,0.036832,0.00163152,0.0215068,1133,1723,7.82271,-45.1402
-84,-699,7.82556,45.4242,0.00293972,0.000406381,-0.000132566,0.00294664,0.000399463,-0.0521388,0.00184573,0.0261237,1140,1723,7.82562,-45.4242
-77,-699,7.82825,45.6486,0.00324121,0.000525653,-0.00052715,0.00333995,0.000426912,-0.185166,0.00209885,0.0174967,1147,1723,7.82827,-45.6485
-70,-699,7.83252,45.8809,0.00348714,0.000332555,-0.000823486,0.00368916,0.000130527,-0.240581,0.00241711,0.0176508,1154,1723,7.83253,-45.8809
-63,-699,7.85449,46.1248,0.00366165,-0.00016572,-0.000711397,0.0037896,-0.00029367,-0.177956,0.00262976,0.014678,1161,1723,7.85445,-46.1248
-56,-699,7.86353,46.3369,0.00432912,0.000756576,-0.000585304,0.00442257,0.000663128,-0.158321,0.00275408,0.0111435,1168,1723,7.8635,-46.3369
-49,-699,7.88123,46.5757,0.0052405,0.00156436,7.52659e-05,0.00524204,0.00156282,0.0204627,0.00310763,0.0247944,1175,1723,7.88123,-46.5757
-42,-699,7.922,46.8383,0.007482,0.00588346,0.00117758,0.00810594,0.00525952,0.487241,0.00474859,0.0289973,1182,1723,7.92205,-46.8382
-35,-699,7.95264,47.0031,0.00938127,0.00981515,0.00218038,0.0117894,0.00740706,0.834984,0.00688086,0.0268466,1189,1723,7.95261,-47.003
-28,-699,8.04443,47.1241,0.0104899,0.0133698,0.00334565,0.0155722,0.00828747,0.988615,0.00899684,0.021131,1196,1723,8.04443,-47.1241
-21,-699,8.05676,47.198,0.011012,0.0199436,0.00562298,0.0226584,0.00829718,1.121,0.0132371,0.0141542,1203,1723,8.05674,-47.198
-14,-699,8.07507,47.3528,0.0112789,0.0239487,0.00780234,0.027664,0.00756354,1.12638,0.0165095,0.0123053,1210,1723,8.07502,-47.3527
-7,-699,8.11389,47.5112,0.0114074,0.0293144,0.00893379,0.0330091,0.0077127,1.17865,0.0199388,0.00882692,1217,1723,8.11391,-47.5112
0,-699,8.16455,47.631,0.0111888,0.0337683,0.00951659,0.0372442,0.00771287,1.22061,0.0226996,0.0103611,1224,1723,8.1646,-47.631
7,-699,8.22131,47.7036,0.0108808,0.0382118,0.0101194,0.0415507,0.00754194,1.2521,0.0255601,0.0166983,1231,1723,8.22132,-47.7037
14,-699,8.31067,47.8317,0.0103844,0.0421673,0.01017,0.0451429,0.00740872,1.28615,0.0279549,0.0194385,1238,1723,8.31062,-47.8316
21,-699,8.37292,47.9136,0.00972018,0.0455202,0.0100181,0.0481329,0.00710747,1.31568,0.0300014,0.0183222,1245,1723,8.37287,-47.9135
28,-699,8.38843,47.9481,0.00898516,0.0481692,0.00871105,0.0500185,0.00713587,1.36161,0.0312399,0.0165681,1252,1723,8.38842,-47.9481
35,-699,8.42688,48.0085,0.00825821,0.0499385,0.00645601,0.0509156,0.00728112,1.42059,0.0317958,0.0142564,1259,1723,8.42684,-48.0085
42,-699,8.50366,48.0668,0.00775188,0.0502098,0.00345518,0.0504892,0.00747254,1.49012,0.0314658,0.0134233,1266,1723,8.50366,-48.0668
49,-699,8.56909,48.1112,0.00728211,0.0486979,0.000268935,0.0486996,0.00728037,1.5643,0.0303323,0.0156987,1273,1723,8.56914,-48.1112
56,-699,8.64832,48.1582,0.00677518,0.0462744,-0.0031746,0.0465279,0.00652166,-1.49111,0.0290894,0.0169523,1280,1723,8.64836,-48.1582
63,-699,8.70154,48.1465,0.00608503,0.0427579,-0.00660738,0.0439121,0.0049309,-1.39787,0.0277774,0.01463,1287,1723,8.70153,-48.1465
70,-699,8.71924,48.1422,0.00600223,0.039258,-0.0101876,0.0421308,0.0031295,-1.29595,0.0271043,0.0117023,1294,1723,8.71929,-48.1422
77,-699,8.7467,48.1205,0.00651554,0.0343405,-0.0130087,0.0394749,0.00138117,-1.19488,0.0258685,0.0116215,1301,1723,8.74674,-48.1205
84,-699,8.78516,48.0647,0.00722989,0.0270131,-0.0155633,0.0355622,-0.0013192,-1.06848,0.0241599,0.014676,1308,1723,8.78515,-48.0647
91,-699,8.87097,48.03,0.00803492,0.0211923,-0.0167804,0.0326375,-0.00341028,-0.972214,0.0229796,0.0146494,1315,1723,8.87101,-48.03
98,-699,8.9469,48.0115,0.00844335,0.0147696,-0.0164441,0.028352,-0.00513906,-0.880416,0.0208268,0.0128968,1322,1723,8.94691,-48.0115
105,-699,8.9707,47.9653,0.00900413,0.0100422,-0.0155815,0.0251133,-0.00606701,-0.802047,0.0190887,0.0171643,1329,1723,8.97073,-47.9653
112,-699,9.04565,47.8842,0.00947149,0.00553412,-0.014512,0.0221477,-0.00714209,-0.71798,0.0176347,0.0227474,1336,1723,9.04564,-47.8842
119,-699,9.07813,47.793,0.00991113,0.00108398,-0.0132878,0.0194991,-0.00850405,-0.625054,0.0165779,0.0164028,1343,1723,9.07808,-47.793
126,-699,9.13977,47.6744,0.0103516,-0.00264907,-0.0118721,0.0173865,-0.00968395,-0.534927,0.0158386,0.0178401,1350,1723,9.13974,-47.6744
133,-699,9.22253,47.5546,0.0106983,-0.00631356,-0.0102254,0.0154931,-0.0111083,-0.438468,0.0154277,0.0167229,1357,1723,9.22256,-47.5545
140,-699,9.30481,47.4246,0.0108794,-0.00919951,-0.00863208,0.0140802,-0.0124003,-0.355082,0.0152988,0.0183452,1364,1723,9.30486,-47.4246
147,-699,9.28784,47.3071,0.0106841,-0.0109376,-0.00709077,0.012802,-0.0130555,-0.290254,0.0149291,0.0154724,1371,1723,9.28782,-47.3072
154,-699,9.26868,47.1669,0.0102798,-0.0115133,-0.00572236,0.011691,-0.0129245,-0.241784,0.0142177,0.0143203,1378,1723,9.26872,-47.1669
161,-699,9.33374,47.0029,0.00985713,-0.0119009,-0.0043317,0.0106878,-0.0127316,-0.189464,0.0135384,0.0104311,1385,1723,9.33376,-47.0029
168,-699,9.38525,46.8291,0.00926533,-0.0122168,-0.00270525,0.00960077,-0.0125522,-0.123364,0.0128278,0.0122887,1392,1723,9.38525,-46.8291
175,-699,9.43604,46.6526,0.00783583,-0.013181,-0.000411429,0.00784388,-0.013189,-0.0195662,0.0122734,0.0189303,1399,1723,9.43606,-46.6526
182,-699,9.46094,46.4817,0.00593838,-0.0100636,0.000106867,0.00593909,-0.0100643,0.00667799,0.0093413,0.0198809,1406,1723,9.46088,-46.4816
189,-699,9.46436,46.2509,0.00466084,-0.00528038,0.000208412,0.00466521,-0.00528475,0.0209522,0.00574832,0.0172805,1413,1723,9.46433,-46.2509
196,-699,9.49756,46.0181,0.00334859,-0.000682795,0.000542918,0.00342043,-0.000754631,0.131551,0.00256904,0.0166081,1420,1723,9.49759,-46.018
203,-699,9.48584,45.8055,0.00324124,0.000702384,0.00058115,0.00336794,0.000575681,0.214663,0.00208013,0.0136159,1427,1723,9.48584,-45.8055
210,-699,9.50195,45.5658,0.00277459,0.000658718,0.000536288,0.00290276,0.000530555,0.234583,0.0017848,0.0143428,1434,1723,9.50197,-45.5658
217,-699,9.53979,45.3375,0.00227427,0.000464035,0.000280799,0.00231683,0.000421478,0.15041,0.00142499,0.0146141,1441,1723,9.53982,-45.3375
224,-699,9.55237,45.0706,0.00220157,0.000596079,-3.85713e-05,0.00220249,0.000595153,-0.0240062,0.00131561,0.0155676,1448,1723,9.55238,-45.0705
231,-699,9.5708,44.7839,0.00203954,0.000666277,-0.000376818,0.00213614,0.000569675,-0.250958,0.00127727,0.0130248,1455,1723,9.57085,-44.7839
238,-699,9.55298,44.4877,0.0017517,0.000575472,-0.000533939,0.00195793,0.000369251,-0.368576,0.00120127,0.0104504,1462,1723,9.55295,-44.4876
245,-699,9.54712,44.1984,0.00141418,0.000461916,-0.000583414,0.00169109,0.000185006,-0.443152,0.00107107,0.0117905,1469,1723,9.54715,-44.1984
252,-699,9.55103,43.9083,0.000987835,0.000263516,-0.000630259,0.00135258,-0.000101226,-0.524624,0.000937284,0.0105017,1476,1723,9.55099,-43.9083
259,-699,9.53369,43.6356,0.000449274,-3.18957e-05,-0.000594047,0.000849605,-0.000432226,-0.592996,0.000753029,0.0106307,1483,1723,9.53373,-43.6356
266,-699,9.52527,43.3241,-0.000149084,-0.000343942,-0.000547849,0.000309932,-0.000802958,-0.697399,0.000663212,0.0128352,1490,1723,9.52523,-43.3241
273,-699,9.54626,42.9823,-0.000675862,-0.000336833,-0.000635695,0.000151561,-0.00116426,-0.915696,0.000831309,0.0121466,1497,1723,9.54624,-42.9823
280,-699,9.55383,42.6364,-0.00122145,-0.000303353,-0.00073591,0.000104945,-0.00162975,-1.06426,0.00112311,0.0117744,1504,1723,9.55389,-42.6364
287,-699,9.53613,42.2777,-0.00169402,0.000131215,-0.000886476,0.000490882,-0.00205369,-1.18536,0.00155874,0.0104282,1511,1723,9.53612,-42.2777
294,-699,9.52893,41.9399,-0.00197542,0.00100307,-0.00100441,0.00131012,-0.00228248,-1.27411,0.00209936,0.0112559,1518,1723,9.52888,-41.9399
301,-699,9.51892,41.6145,-0.00199114,0.00204512,-0.00113902,0.00234437,-0.00229038,-1.31388,0.00267593,0.0126143,1525,1723,9.51894,-41.6145
308,-699,9.4917,41.2383,-0.00192606,0.00292053,-0.00158926,0.00339519,-0.00240071,-1.28057,0.00336264,0.0172986,1532,1723,9.49167,-41.2382
315,-699,9.49292,40.8497,-0.0022596,0.0046559,-0.00174249,0.00507014,-0.00267384,-1.3374,0.00454178,0.0203353,1539,1723,9.49293,-40.8498
322,-699,9.44482,40.4833,-0.00229852,0.00639477,-0.00195065,0.0068124,-0.00271616,-1.35988,0.00566823,0.0203666,1546,1723,9.44484,-40.4832
329,-699,9.3772,40.0896,-0.00215814,0.00833229,-0.00192214,0.00867339,-0.00249924,-1.39517,0.00677088,0.0178516,1553,1723,9.37718,-40.0896
336,-699,9.36255,39.7213,0.000205068,0.00923122,-0.000413051,0.00925008,0.000186206,-1.52516,0.0061056,0.0220266,1560,1723,9.36252,-39.7213
343,-699,9.40527,39.3456,0.00310023,0.00971985,0.00255371,0.0105905,0.00222958,1.24222,0.00644696,0.0325346,1567,1723,9.40528,-39.3456
350,-699,9.3916,38.853,0.00498307,0.00998931,0.00522403,0.013279,0.00169343,1.00881,0.00834563,0.0463768,1574,1723,9.3916,-38.853
357,-699,9.28455,38.288,0.00730343,0.00964728,0.00865908,0.0172134,-0.000262675,0.85266,0.0115641,0.0473572,1581,1723,9.2846,-38.288
364,-699,8.65918,37.5514,0.0107414,0.00896223,0.0126389,0.022522,-0.00281839,0.750264,0.0160369,0.0434904,1588,1723,8.65924,-37.5514
371,-699,8.99719,37.5823,0,0,0,0,0,0,0,-1,1595,1723,8.99716,-37.5822
378,-699,8.53479,37.0649,0,0,0,0,0,0,0,-1,1602,1723,8.53484,-37.0649
385,-699,8.39636,36.7742,0,0,0,0,0,0,0,-1,1609,1723,8.39642,-36.7741
392,-699,9.22473,36.5394,0,0,0,0,0,0,0,-1,1616,1723,9.22479,-36.5394
399,-699,10.735,36.1,0,0,0,0,0,0,0,-1,1623,1723,10.7349,-36.0999
406,-699,8.26465,35.9393,0,0,0,0,0,0,0,-1,1630,1723,8.26467,-35.9394
413,-699,9.31396,23.2781,0,0,0,0,0,0,0,-1,1637,1723,9.31396,-23.278
420,-699,2.15076,7.65527,0,0,0,0,0,0,0,-1,1644,1723,2.15079,-7.65522
427,-699,3.36328,8.2428,0,0,0,0,0,0,0,-1,1651,1723,3.36332,-8.24283
434,-699,4.66455,8.90222,0,0,0,0,0,0,0,-1,1658,1723,4.66456,-8.90223
441,-699,0,0,0,0,0,0,0,0,0,-1,1665,1723,0,0
448,-699,0,0,0,0,0,0,0,0,0,-1,1672,1723,0,0
455,-699,0,0,0,0,0,0,0,0,0,-1,1679,1723,0,0
462,-699,0,0,0,0,0,0,0,0,0,-1,1686,1723,0,0
469,-699,0,0,0,0,0,0,0,0,0,-1,1693,1723,0,0
476,-699,0,0,0,0,0,0,0,0,0,-1,1700,1723,0,0
483,-699,0,0,0,0,0,0,0,0,0,-1,1707,1723,0,0
490,-699,0,0,0,0,0,0,0,0,0,-1,1714,1723,0,0
497,-699,0,0,0,0,0,0,0,0,0,-1,1721,1723,0,0
504,-699,0,0,0,0,0,0,0,0,0,-1,1728,1723,0,0
511,-699,0,0,0,0,0,0,0,0,0,-1,1735,1723,0,0
518,-699,0,0,0,0,0,0,0,0,0,-1,1742,1723,0,0
525,-699,0,0,0,0,0,0,0,0,0,-1,1749,1723,0,0
532,-699,0,0,0,0,0,0,0,0,0,-1,1756,1723,0,0
539,-699,0,0,0,0,0,0,0,0,0,-1,1763,1723,0,0
546,-699,0,0,0,0,0,0,0,0,0,-1,1770,1723,0,0
553,-699,0,0,0,0,0,0,0,0,0,-1,1777,1723,0,0
560,-699,0,0,0,0,0,0,0,0,0,-1,1784,1723,0,0
567,-699,0,0,0,0,0,0,0,0,0,-1,1791,1723,0,0
574,-699,0,0,0,0,0,0,0,0,0,-1,1798,1723,0,0
581,-699,0,0,0,0,0,0,0,0,0,-1,1805,1723,0,0
588,-699,0,0,0,0,0,0,0,0,0,-1,1812,1723,0,0
595,-699,0,0,0,0,0,0,0,0,0,-1,1819,1723,0,0
602,-699,0,0,0,0,0,0,0,0,0,-1,1826,1723,0,0
609,-699,0,0,0,0,0,0,0,0,0,-1,1833,1723,0,0
616,-699,0,0,0,0,0,0,0,0,0,-1,1840,1723,0,0
623,-699,0,0,0,0,0,0,0,0,0,-1,1847,1723,0,0
630,-699,0,0,0,0,0,0,0,0,0,-1,1854,1723,0,0
637,-699,0,0,0,0,0,0,0,0,0,-1,1861,1723,0,0
644,-699,0,0,0,0,0,0,0,0,0,-1,1868,1723,0,0
651,-699,0,0,0,0,0,0,0,0,0,-1,1875,1723,0,0
658,-699,0,0,0,0,0,0,0,0,0,-1,1882,1723,0,0
665,-699,0,0,0,0,0,0,0,0,0,-1,1889,1723,0,0
672,-699,0,0,0,0,0,0,0,0,0,-1,1896,1723,0,0
679,-699,0,0,0,0,0,0,0,0,0,-1,1903,1723,0,0
686,-699,0,0,0,0,0,0,0,0,0,-1,1910,1723,0,0
693,-699,0,0,0,0,0,0,0,0,0,-1,1917,1723,0,0
700,-699,0,0,0,0,0,0,0,0,0,-1,1924,1723,0,0
707,-699,0,0,0,0,0,0,0,0,0,-1,1931,1723,0,0
714,-699,0,0,0,0,0,0,0,0,0,-1,1938,1723,0,0
721,-699,0,0,0,0,0,0,0,0,0,-1,1945,1723,0,0
728,-699,0,0,0,0,0,0,0,0,0,-1,1952,1723,0,0
735,-699,0,0,0,0,0,0,0,0,0,-1,1959,1723,0,0
742,-699,0,0,0,0,0,0,0,0,0,-1,1966,1723,0,0
749,-699,0,0,0,0,0,0,0,0,0,-1,1973,1723,0,0
756,-699,0,0,0,0,0,0,0,0,0,-1,1980,1723,0,0
763,-699,0,0,0,0,0,0,0,0,0,-1,1987,1723,0,0
770,-699,0,0,0,0,0,0,0,0,0,-1,1994,1723,0,0
777,-699,0,0,0,0,0,0,0,0,0,-1,2001,1723,0,0
784,-699,0,0,0,0,0,0,0,0,0,-1,2008,1723,0,0
791,-699,0,0,0,0,0,0,0,0,0,-1,2015,1723,0,0
798,-699,0,0,0,0,0,0,0,0,0,-1,2022,1723,0,0
805,-699,0,0,0,0,0,0,0,0,0,-1,2029,1723,0,0
812,-699,0,0,0,0,0,0,0,0,0,-1,2036,1723,0,0
-700,-706,0,0,0,0,0,0,0,0,0,-1,524,1730,0,0
-693,-706,0,0,0,0,0,0,0,0,0,-1,531,1730,0,0
-686,-706,0,0,0,0,0,0,0,0,0,-1,538,1730,0,0
-679,-706,0,0,0,0,0,0,0,0,0,-1,545,1730,0,0
-672,-706,0,0,0,0,0,0,0,0,0,-1,552,1730,0,0
-665,-706,0,0,0,0,0,0,0,0,0,-1,559,1730,0,0
-658,-706,0,0,0,0,0,0,0,0,0,-1,566,1730,0,0
-651,-706,0,0,0,0,0,0,0,0,0,-1,573,1730,0,0
-644,-706,0,0,0,0,0,0,0,0,0,-1,580,1730,0,0
-637,-706,0,0,0,0,0,0,0,0,0,-1,587,1730,0,0
-630,-706,0,0,0,0,0,0,0,0,0,-1,594,1730,0,0
-623,-706,0,0,0,0,0,0,0,0,0,-1,601,1730,0,0
-616,-706,0,0,0,0,0,0,0,0,0,-1,608,1730,0,0
-609,-706,0,0,0,0,0,0,0,0,0,-1,615,1730,0,0
-602,-706,0,0,0,0,0,0,0,0,0,-1,622,1730,0,0
-595,-706,0,0,0,0,0,0,0,0,0,-1,629,1730,0,0
-588,-706,0,0,0,0,0,0,0,0,0,-1,636,1730,0,0
-581,-706,0,0,0,0,0,0,0,0,0,-1,643,1730,0,0
-574,-706,0,0,0,0,0,0,0,0,0,-1,650,1730,0,0
-567,-706,0,0,0,0,0,0,0,0,0,-1,657,1730,0,0
-560,-706,0,0,0,0,0,0,0,0,0,-1,664,1730,0,0
-553,-706,0,0,0,0,0,0,0,0,0,-1,671,1730,0,0
-546,-706,0,0,0,0,0,0,0,0,0,-1,678,1730,0,0
-539,-706,0,0,0,0,0,0,0,0,0,-1,685,1730,0,0
-532,-706,0,0,0,0,0,0,0,0,0,-1,692,1730,0,0
-525,-706,0,0,0,0,0,0,0,0,0,-1,699,1730,0,0
-518,-706,0,0,0,0,0,0,0,0,0,-1,706,1730,0,0
-511,-706,0,0,0,0,0,0,0,0,0,-1,713,1730,0,0
-504,-706,0,0,0,0,0,0,0,0,0,-1,720,1730,0,0
-497,-706,0,0,0,0,0,0,0,0,0,-1,727,1730,0,0
-490,-706,0,0,0,0,0,0,0,0,0,-1,734,1730,0,0
-483,-706,0,0,0,0,0,0,0,0,0,-1,741,1730,0,0
-476,-706,0,0,0,0,0,0,0,0,0,-1,748,1730,0,0
-469,-706,0,0,0,0,0,0,0,0,0,-1,755,1730,0,0
-462,-706,0,0,0,0,0,0,0,0,0,-1,762,1730,0,0
-455,-706,0,0,0,0,0,0,0,0,0,-1,769,1730,0,0
-448,-706,0,0,0,0,0,0,0,0,0,-1,776,1730,0,0
-441,-706,0,0,0,0,0,0,0,0,0,-1,783,1730,0,0
-434,-706,0,0,0,0,0,0,0,0,0,-1,790,1730,0,0
-427,-706,0,0,0,0,0,0,0,0,0,-1,797,1730,0,0
-420,-706,0,0,0,0,0,0,0,0,0,-1,804,1730,0,0
-413,-706,0,0,0,0,0,0,0,0,0,-1,811,1730,0,0
-406,-706,0,0,0,0,0,0,0,0,0,-1,818,1730,0,0
-399,-706,0,0,0,0,0,0,0,0,0,-1,825,1730,0,0
-392,-706,0,0,0,0,0,0,0,0,0,-1,832,1730,0,0
-385,-706,0,0,0,0,0,0,0,0,0,-1,839,1730,0,0
-378,-706,0,0,0,0,0,0,0,0,0,-1,846,1730,0,0
-371,-706,0,0,0,0,0,0,0,0,0,-1,853,1730,0,0
-364,-706,0,0,0,0,0,0,0,0,0,-1,860,1730,0,0
-357,-706,0,0,0,0,0,0,0,0,0,-1,867,1730,0,0
-350,-706,0,0,0,0,0,0,0,0,0,-1,874,1730,0,0
-343,-706,0,0,0,0,0,0,0,0,0,-1,881,1730,0,0
-336,-706,0,0,0,0,0,0,0,0,0,-1,888,1730,0,0
-329,-706,0,0,0,0,0,0,0,0,0,-1,895,1730,0,0
-322,-706,0,0,0,0,0,0,0,0,0,-1,902,1730,0,0
-315,-706,0,0,0,0,0,0,0,0,0,-1,909,1730,0,0
-308,-706,5.08191,14.6245,0,0,0,0,0,0,0,-1,916,1730,5.08188,-14.6245
-301,-706,7.45007,21.1975,0,0,0,0,0,0,0,-1,923,1730,7.45005,-21.1976
-294,-706,11.8603,21.026,0,0,0,0,0,0,0,-1,930,1730,11.8603,-21.026
-287,-706,10.3292,20.8425,0,0,0,0,0,0,0,-1,937,1730,10.3292,-20.8425
-280,-706,7.9162,21.8951,0,0,0,0,0,0,0,-1,944,1730,7.9162,-21.8952
-273,-706,7.38953,20.6355,0,0,0,0,0,0,0,-1,951,1730,7.38955,-20.6355
-266,-706,9.66724,22.8231,0,0,0,0,0,0,0,-1,958,1730,9.66722,-22.8231
-259,-706,3.47852,20.7363,0,0,0,0,0,0,0,-1,965,1730,3.47851,-20.7364
-252,-706,3.84259,20.1979,0,0,0,0,0,0,0,-1,972,1730,3.84256,-20.1979
-245,-706,4.698,19.2992,0,0,0,0,0,0,0,-1,979,1730,4.69799,-19.2991
-238,-706,8.12567,36.8694,0,0,0,0,0,0,0,-1,986,1730,8.12568,-36.8694
-231,-706,8.95264,38.0977,0,0,0,0,0,0,0,-1,993,1730,8.95262,-38.0977
-224,-706,8.54163,38.5175,-0.00793199,-0.0143203,-0.00498512,-0.0052055,-0.0170468,-0.500479,0.0100875,0.0469303,1000,1730,8.5416,-38.5174
-217,-706,8.53186,39.1323,-0.00591542,-0.0145546,-0.00358988,-0.00461842,-0.0158516,-0.3467,0.00941379,0.0401025,1007,1730,8.53188,-39.1324
-210,-706,8.4585,39.3887,-0.00471708,-0.0138919,-0.00226403,-0.00418881,-0.0144202,-0.22923,0.00856567,0.0373146,1014,1730,8.45849,-39.3887
-203,-706,8.33301,39.6365,-0.00310745,-0.0138297,-0.000778976,-0.00305115,-0.013886,-0.0721454,0.00842648,0.0318871,1021,1730,8.33302,-39.6364
-196,-706,8.3042,40.0265,-0.00169158,-0.0133495,0.000300034,-0.00168387,-0.0133572,0.0257137,0.00839999,0.023663,1028,1730,8.30415,-40.0264
-189,-706,8.2218,40.4534,-0.000461691,-0.0123877,0.00121792,-0.000338585,-0.0125108,0.100737,0.00823002,0.0207148,1035,1730,8.22185,-40.4534
-182,-706,8.20667,40.8623,0.000382868,-0.0114866,0.00186462,0.000668896,-0.0117726,0.152211,0.00808063,0.0170923,1042,1730,8.20661,-40.8624
-175,-706,8.24268,41.2756,0.0010871,-0.0102971,0.00244006,0.00158805,-0.0107981,0.202489,0.00778228,0.0166386,1049,1730,8.24262,-41.2757
-168,-706,8.22253,41.6322,0.00135819,-0.00898041,0.00278828,0.00206223,-0.00968445,0.247331,0.00724225,0.0168632,1056,1730,8.22255,-41.6322
-161,-706,8.18433,41.9943,0.00133173,-0.00734036,0.00300457,0.00227098,-0.00827961,0.302982,0.00641221,0.0133569,1063,1730,8.1843,-41.9942
-154,-706,8.13916,42.3679,0.00120778,-0.00575655,0.00305723,0.00235942,-0.00690819,0.360254,0.00556135,0.0130094,1070,1730,8.13918,-42.3679
-147,-706,8.09888,42.7167,0.00103311,-0.0042968,0.00293477,0.00233235,-0.00559605,0.416772,0.00470496,0.012562,1077,1730,8.09883,-42.7166
-140,-706,8.0957,43.0691,0.000931842,-0.00282007,0.00279181,0.00241943,-0.00430766,0.489573,0.00393455,0.0115513,1084,1730,8.09565,-43.0691
-133,-706,8.08862,43.374,0.000791129,-0.00160406,0.00249313,0.00235939,-0.00317231,0.561493,0.0032052,0.00941681,1091,1730,8.08865,-43.374
-126,-706,8.08142,43.6833,0.000662137,-0.000573217,0.00215307,0.00228438,-0.00219546,0.645709,0.00258661,0.0141073,1098,1730,8.08142,-43.6834
-119,-706,8.06494,44.0265,0.000348847,0.000366725,0.0017795,0.00213731,-0.00142174,0.78791,0.00206862,0.0180844,1105,1730,8.06498,-44.0264
-112,-706,8.05798,44.3335,0.000526162,0.000996194,0.00152708,0.00230623,-0.000783879,0.861749,0.00185484,0.0130607,1112,1730,8.05796,-44.3335
-105,-706,8.04565,44.6195,0.000862365,0.00107792,0.0012181,0.002193,-0.000252717,0.829522,0.00155311,0.0102256,1119,1730,8.0457,-44.6195
-98,-706,8.06335,44.8623,0.00109885,0.00118572,0.000961709,0.00210498,0.000179598,0.807965,0.00134745,0.0118823,1126,1730,8.0633,-44.8623
-91,-706,8.07104,45.1334,0.0013823,0.00109413,0.000758089,0.00200988,0.000466555,0.691484,0.00121464,0.0155078,1133,1730,8.07099,-45.1334
-84,-706,8.07129,45.4139,0.00161444,0.000953934,0.0005439,0.0019205,0.000647874,0.512552,0.00112819,0.0180476,1140,1730,8.07131,-45.4139
-77,-706,8.07129,45.6582,0.00192817,0.00102168,0.000240005,0.00198779,0.00096206,0.243495,0.00114785,0.0162594,1147,1730,8.07134,-45.6582
-70,-706,8.05554,45.9166,0.00218597,0.000838718,-4.7001e-05,0.00218761,0.00083708,-0.03483,0.00127456,0.0181767,1154,1730,8.05554,-45.9166
-63,-706,8.05273,46.1425,0.00238046,0.000520733,-0.00010634,0.00238652,0.000514672,-0.056933,0.00145023,0.0136707,1161,1730,8.05271,-46.1424
-56,-706,8.07275,46.368,0.00259677,0.00059609,-2.46391e-05,0.00259708,0.000595787,-0.0123129,0.00157091,0.0136201,1168,1730,8.07275,-46.368
-49,-706,8.07446,46.61,0.00295834,0.000703873,0.0001491,0.00296816,0.000694055,0.0657535,0.00179278,0.0140231,1175,1730,8.07444,-46.61
-42,-706,8.11914,46.8248,0.00408103,0.0027981,0.000626074,0.00433591,0.00254321,0.386628,0.00251581,0.0182542,1182,1730,8.11919,-46.8248
-35,-706,8.13196,46.9723,0.00533701,0.00486348,0.00113607,0.00626072,0.00393976,0.682664,0.00365468,0.017076,1189,1730,8.13197,-46.9723
-28,-706,8.16113,47.1016,0.00616652,0.00713801,0.00165494,0.00837702,0.00492751,0.928145,0.0048615,0.010921,1196,1730,8.16117,-47.1016
-21,-706,8.18188,47.2472,0.00656382,0.0103002,0.00280459,0.0118019,0.00506217,1.07921,0.00683672,0.0114277,1203,1730,8.18191,-47.2472
-14,-706,8.21692,47.3827,0.00692254,0.0128321,0.00421743,0.0150268,0.00472781,1.09097,0.00887228,0.0111816,1210,1730,8.21692,-47.3827
-7,-706,8.26038,47.5249,0.00726537,0.0165448,0.00502595,0.0187452,0.00506497,1.15813,0.0111971,0.00877182,1217,1730,8.26042,-47.5249
0,-706,8.30945,47.6503,0.00746431,0.0198097,0.00559543,0.0219683,0.00530568,1.2026,0.0132363,0.0116807,1224,1730,8.30946,-47.6502
7,-706,8.33447,47.7592,0.00751814,0.0230007,0.00609273,0.0251108,0.00540809,1.2374,0.0152606,0.0139976,1231,1730,8.33442,-47.7592
14,-706,8.37195,47.8433,0.00744338,0.0258723,0.00623109,0.0277814,0.00553432,1.2735,0.0169795,0.01461,1238,1730,8.37199,-47.8432
21,-706,8.42163,47.937,0.0072508,0.0282157,0.00625328,0.0299392,0.00552729,1.30186,0.0183959,0.0126599,1245,1730,8.42166,-47.937
28,-706,8.43921,48.0085,0.00696688,0.0302109,0.00549377,0.0314439,0.00573383,1.35001,0.0193368,0.0125085,1252,1730,8.43918,-48.0085
35,-706,8.47107,48.0542,0.00665415,0.0316978,0.00406505,0.0323411,0.00601084,1.41384,0.0198626,0.0139274,1259,1730,8.47102,-48.0542
42,-706,8.51855,48.1089,0.00642591,0.0322596,0.00216141,0.0324392,0.00624633,1.4879,0.019874,0.0119501,1266,1730,8.51854,-48.1089
49,-706,8.56812,48.1284,0.00616433,0.0315143,0.000119751,0.0315148,0.00616376,1.56607,0.0192865,0.0145983,1273,1730,8.56814,-48.1285
56,-706,8.63611,48.153,0.00578858,0.030005,-0.00206653,0.0301801,0.00561349,-1.48627,0.0185344,0.0146034,1280,1730,8.63611,-48.153
63,-706,8.67957,48.1587,0.00521899,0.0274007,-0.00429363,0.0282028,0.00441689,-1.38611,0.0175162,0.0123818,1287,1730,8.67961,-48.1587
70,-706,8.69067,48.1392,0.00479034,0.0245531,-0.00643793,0.0264653,0.00287813,-1.28207,0.0167667,0.0125845,1294,1730,8.69063,-48.1391
77,-706,8.72339,48.1326,0.00476212,0.0209917,-0.00805349,0.0243097,0.00144412,-1.17999,0.0157472,0.011359,1301,1730,8.72343,-48.1326
84,-706,8.77026,48.111,0.0050088,0.0163242,-0.00945775,0.0216874,-0.000354321,-1.05495,0.0145778,0.00964455,1308,1730,8.77032,-48.111
91,-706,8.83691,48.0983,0.00524066,0.0120929,-0.0101433,0.0193731,-0.0020395,-0.948269,0.0136461,0.0103908,1315,1730,8.83696,-48.0983
98,-706,8.87817,48.0715,0.00517542,0.00747928,-0.00982311,0.0162178,-0.00356307,-0.843765,0.0121746,0.0142459,1322,1730,8.87817,-48.0715
105,-706,8.89526,48.0265,0.00521366,0.00400324,-0.00916095,0.0137894,-0.00457246,-0.752414,0.0110374,0.0164972,1329,1730,8.89526,-48.0265
112,-706,8.90979,47.9545,0.00537479,0.000909129,-0.00829498,0.0117322,-0.00544828,-0.653925,0.0101379,0.0160067,1336,1730,8.90978,-47.9545
119,-706,8.96777,47.8837,0.00552798,-0.00202247,-0.00733763,0.0100046,-0.0064991,-0.547807,0.00959981,0.0134314,1343,1730,8.96777,-47.8837
126,-706,9.00427,47.7614,0.00575719,-0.00419376,-0.00631645,0.00882242,-0.00725899,-0.4518,0.00929922,0.0148795,1350,1730,9.00433,-47.7613
133,-706,9.05164,47.6071,0.00595681,-0.00624853,-0.00512323,0.0078222,-0.00811393,-0.349185,0.00920124,0.0130153,1357,1730,9.05168,-47.607
140,-706,9.09131,47.4519,0.00609795,-0.00760615,-0.00400421,0.00718217,-0.00869037,-0.264428,0.00917779,0.0129183,1364,1730,9.09134,-47.4519
147,-706,9.14221,47.2983,0.00602315,-0.00800112,-0.00300874,0.00664139,-0.00861936,-0.202659,0.00883543,0.0236388,1371,1730,9.14217,-47.2983
154,-706,9.17004,47.1821,0.0058525,-0.0075715,-0.00224178,0.00621698,-0.00793598,-0.161174,0.00819128,0.0210472,1378,1730,9.17006,-47.1821
161,-706,9.15479,47.0221,0.00567819,-0.00696008,-0.00152313,0.00585916,-0.00714105,-0.118261,0.00751783,0.0100814,1385,1730,9.15473,-47.0221
168,-706,9.17102,46.8406,0.00536701,-0.00613135,-0.000742955,0.00541482,-0.00617916,-0.0642578,0.00669863,0.0102236,1392,1730,9.17104,-46.8406
175,-706,9.2135,46.6561,0.0048609,-0.00540276,3.84453e-05,0.00486104,-0.00540291,0.0037457,0.00592864,0.0111074,1399,1730,9.21352,-46.6562
182,-706,9.22754,46.4587,0.00404555,-0.00375119,5.65664e-05,0.00404596,-0.0037516,0.00725462,0.00450299,0.011766,1406,1730,9.22755,-46.4588
189,-706,9.24084,46.2357,0.00311866,-0.00143656,4.86782e-05,0.00311918,-0.00143708,0.0106846,0.00268965,0.0144159,1413,1730,9.24084,-46.2357
196,-706,9.26123,46.0054,0.00223714,0.000461174,0.000135913,0.00224748,0.000450833,0.0759398,0.00137294,0.0122989,1420,1730,9.26124,-46.0053
203,-706,9.25476,45.795,0.00201785,0.000748759,7.62646e-05,0.00202242,0.000744192,0.0598071,0.00118113,0.0129053,1427,1730,9.25476,-45.795
210,-706,9.25159,45.5692,0.00165939,0.000792947,-8.54178e-06,0.00165947,0.000792863,-0.0098572,0.000958412,0.0129292,1434,1730,9.25157,-45.5692
217,-706,9.26282,45.3408,0.00126055,0.000699236,-0.00020944,0.00133008,0.000629702,-0.320547,0.000768286,0.0136996,1441,1730,9.26285,-45.3408
224,-706,9.26221,45.0844,0.00098352,0.000683203,-0.000414977,0.00127467,0.000392053,-0.611803,0.000753879,0.0184373,1448,1730,9.26223,-45.0843
231,-706,9.28259,44.7954,0.00052051,0.000493733,-0.000540825,0.00104811,-3.38685e-05,-0.773023,0.0007103,0.0138845,1455,1730,9.28255,-44.7954
238,-706,9.27307,44.5143,0.000101688,0.000244063,-0.000608902,0.000785925,-0.000440174,-0.84359,0.000717209,0.00866791,1462,1730,9.27308,-44.5143
245,-706,9.27539,44.2009,-0.000376778,-6.13258e-05,-0.000640671,0.000440749,-0.000878853,-0.906092,0.000775742,0.0111695,1469,1730,9.27544,-44.2009
252,-706,9.27673,43.9127,-0.000973177,-0.000388734,-0.000617128,1.8623e-06,-0.00136377,-1.00652,0.000909803,0.011771,1476,1730,9.27674,-43.9127
259,-706,9.2688,43.6283,-0.00165824,-0.000837111,-0.000467568,-0.000625435,-0.00186992,-1.14569,0.00109914,0.0131103,1483,1730,9.26878,-43.6283
266,-706,9.24011,43.3308,-0.00233903,-0.00129507,-0.000362351,-0.00118163,-0.00245247,-1.26739,0.00141625,0.0130655,1490,1730,9.24006,-43.3308
273,-706,9.23242,42.9978,-0.00287922,-0.00124925,-0.000492142,-0.00111218,-0.00301629,-1.29917,0.00176135,0.0121375,1497,1730,9.2324,-42.9979
280,-706,9.22375,42.636,-0.00344601,-0.00117188,-0.000614651,-0.00101639,-0.00360151,-1.32301,0.00214407,0.010052,1504,1730,9.22373,-42.636
287,-706,9.19397,42.2946,-0.00390284,-0.000536788,-0.000807679,-0.000353019,-0.00408661,-1.34708,0.00261469,0.0106443,1511,1730,9.19396,-42.2946
294,-706,9.20093,41.969,-0.00410172,0.000715152,-0.000947278,0.000894746,-0.00428132,-1.38343,0.0031945,0.0106182,1518,1730,9.20098,-41.9689
301,-706,9.18494,41.616,-0.00392415,0.00221449,-0.00110747,0.00240818,-0.00411784,-1.39766,0.00381065,0.0102972,1525,1730,9.18499,-41.6159
308,-706,9.15173,41.2317,-0.00360026,0.00346439,-0.00167607,0.00384186,-0.00397773,-1.34928,0.00451487,0.0121157,1532,1730,9.15168,-41.2317
315,-706,9.1394,40.8739,-0.0037891,0.00585069,-0.00190489,0.00621346,-0.00415187,-1.38261,0.00602375,0.0194018,1539,1730,9.13942,-40.8739
322,-706,9.06848,40.532,-0.00354757,0.00831739,-0.0022264,0.00872141,-0.00395158,-1.39128,0.00748751,0.0273176,1546,1730,9.06843,-40.532
329,-706,9.06958,40.0431,-0.00296029,0.0111652,-0.00230736,0.0115326,-0.00332764,-1.41291,0.00900493,0.0299375,1553,1730,9.06959,-40.0431
336,-706,8.90002,39.4216,0.000924841,0.0124576,-0.000298405,0.0124653,0.000917125,-1.54494,0.008022,0.0463737,1560,1730,8.90003,-39.4216
343,-706,8.73853,38.9333,0.00542277,0.0129705,0.0039793,0.0146809,0.0037124,1.16485,0.00881435,0.0414842,1567,1730,8.73858,-38.9333
350,-706,8.8573,38.6481,0.00871802,0.0130995,0.00781673,0.0190267,0.00279083,0.922024,0.0118641,0.0455349,1574,1730,8.85732,-38.6481
357,-706,9.24512,38.531,0.0128036,0.0124708,0.0126432,0.0252815,-7.12089e-06,0.778819,0.0168567,0.0471346,1581,1730,9.24517,-38.5311
364,-706,9.98108,38.2438,0,0,0,0,0,0,0,-1,1588,1730,9.9811,-38.2438
371,-706,8.43396,38.317,0,0,0,0,0,0,0,-1,1595,1730,8.43391,-38.317
378,-706,6.42822,37.6536,0,0,0,0,0,0,0,-1,1602,1730,6.42823,-37.6535
385,-706,6.99683,36.985,0.0354855,0.00417617,0.0395471,0.0623637,-0.022702,0.596937,0.050861,0.0463313,1609,1730,6.99685,-36.985
392,-706,7.76086,36.6019,0.0412906,0.000957724,0.04603,0.071378,-0.0291296,0.578935,0.0597125,0.0444203,1616,1730,7.76085,-36.602
399,-706,8.64014,36.5238,0,0,0,0,0,0,0,-1,1623,1730,8.64018,-36.5239
406,-706,9.49463,36.5472,0,0,0,0,0,0,0,-1,1630,1730,9.49467,-36.5472
413,-706,6.23413,20.7725,0,0,0,0,0,0,0,-1,1637,1730,6.23413,-20.7725
420,-706,6.51294,21.9171,0,0,0,0,0,0,0,-1,1644,1730,6.51292,-21.9171
427,-706,0,0,0,0,0,0,0,0,0,-1,1651,1730,0,0
434,-706,0,0,0,0,0,0,0,0,0,-1,1658,1730,0,0
441,-706,0,0,0,0,0,0,0,0,0,-1,1665,1730,0,0
448,-706,0,0,0,0,0,0,0,0,0,-1,1672,1730,0,0
455,-706,0,0,0,0,0,0,0,0,0,-1,1679,1730,0,0
462,-706,0,0,0,0,0,0,0,0,0,-1,1686,1730,0,0
469,-706,0,0,0,0,0,0,0,0,0,-1,1693,1730,0,0
476,-706,0,0,0,0,0,0,0,0,0,-1,1700,1730,0,0
483,-706,0,0,0,0,0,0,0,0,0,-1,1707,1730,0,0
490,-706,0,0,0,0,0,0,0,0,0,-1,1714,1730,0,0
497,-706,0,0,0,0,0,0,0,0,0,-1,1721,1730,0,0
504,-706,0,0,0,0,0,0,0,0,0,-1,1728,1730,0,0
511,-706,0,0,0,0,0,0,0,0,0,-1,1735,1730,0,0
518,-706,0,0,0,0,0,0,0,0,0,-1,1742,1730,0,0
525,-706,0,0,0,0,0,0,0,0,0,-1,1749,1730,0,0
532,-706,0,0,0,0,0,0,0,0,0,-1,1756,1730,0,0
539,-706,0,0,0,0,0,0,0,0,0,-1,1763,1730,0,0
546,-706,0,0,0,0,0,0,0,0,0,-1,1770,1730,0,0
553,-706,0,0,0,0,0,0,0,0,0,-1,1777,1730,0,0
560,-706,0,0,0,0,0,0,0,0,0,-1,1784,1730,0,0
567,-706,0,0,0,0,0,0,0,0,0,-1,1791,1730,0,0
574,-706,0,0,0,0,0,0,0,0,0,-1,1798,1730,0,0
581,-706,0,0,0,0,0,0,0,0,0,-1,1805,1730,0,0
588,-706,0,0,0,0,0,0,0,0,0,-1,1812,1730,0,0
595,-706,0,0,0,0,0,0,0,0,0,-1,1819,1730,0,0
602,-706,0,0,0,0,0,0,0,0,0,-1,1826,1730,0,0
609,-706,0,0,0,0,0,0,0,0,0,-1,1833,1730,0,0
616,-706,0,0,0,0,0,0,0,0,0,-1,1840,1730,0,0
623,-706,0,0,0,0,0,0,0,0,0,-1,1847,1730,0,0
630,-706,0,0,0,0,0,0,0,0,0,-1,1854,1730,0,0
637,-706,0,0,0,0,0,0,0,0,0,-1,1861,1730,0,0
644,-706,0,0,0,0,0,0,0,0,0,-1,1868,1730,0,0
651,-706,0,0,0,0,0,0,0,0,0,-1,1875,1730,0,0
658,-706,0,0,0,0,0,0,0,0,0,-1,1882,1730,0,0
665,-706,0,0,0,0,0,0,0,0,0,-1,1889,1730,0,0
672,-706,0,0,0,0,0,0,0,0,0,-1,1896,1730,0,0
679,-706,0,0,0,0,0,0,0,0,0,-1,1903,1730,0,0
686,-706,0,0,0,0,0,0,0,0,0,-1,1910,1730,0,0
693,-706,0,0,0,0,0,0,0,0,0,-1,1917,1730,0,0
700,-706,0,0,0,0,0,0,0,0,0,-1,1924,1730,0,0
707,-706,0,0,0,0,0,0,0,0,0,-1,1931,1730,0,0
714,-706,0,0,0,0,0,0,0,0,0,-1,1938,1730,0,0
721,-706,0,0,0,0,0,0,0,0,0,-1,1945,1730,0,0
728,-706,0,0,0,0,0,0,0,0,0,-1,1952,1730,0,0
735,-706,0,0,0,0,0,0,0,0,0,-1,1959,1730,0,0
742,-706,0,0,0,0,0,0,0,0,0,-1,1966,1730,0,0
749,-706,0,0,0,0,0,0,0,0,0,-1,1973,1730,0,0
756,-706,0,0,0,0,0,0,0,0,0,-1,1980,1730,0,0
763,-706,0,0,0,0,0,0,0,0,0,-1,1987,1730,0,0
770,-706,0,0,0,0,0,0,0,0,0,-1,1994,1730,0,0
777,-706,0,0,0,0,0,0,0,0,0,-1,2001,1730,0,0
784,-706,0,0,0,0,0,0,0,0,0,-1,2008,1730,0,0
791,-706,0,0,0,0,0,0,0,0,0,-1,2015,1730,0,0
798,-706,0,0,0,0,0,0,0,0,0,-1,2022,1730,0,0
805,-706,0,0,0,0,0,0,0,0,0,-1,2029,1730,0,0
812,-706,0,0,0,0,0,0,0,0,0,-1,2036,1730,0,0
-700,-713,0,0,0,0,0,0,0,0,0,-1,524,1737,0,0
-693,-713,0,0,0,0,0,0,0,0,0,-1,531,1737,0,0
-686,-713,0,0,0,0,0,0,0,0,0,-1,538,1737,0,0
-679,-713,0,0,0,0,0,0,0,0,0,-1,545,1737,0,0
-672,-713,0,0,0,0,0,0,0,0,0,-1,552,1737,0,0
-665,-713,0,0,0,0,0,0,0,0,0,-1,559,1737,0,0
-658,-713,0,0,0,0,0,0,0,0,0,-1,566,1737,0,0
-651,-713,0,0,0,0,0,0,0,0,0,-1,573,1737,0,0
-644,-713,0,0,0,0,0,0,0,0,0,-1,580,1737,0,0
-637,-713,0,0,0,0,0,0,0,0,0,-1,587,1737,0,0
-630,-713,0,0,0,0,0,0,0,0,0,-1,594,1737,0,0
-623,-713,0,0,0,0,0,0,0,0,0,-1,601,1737,0,0
-616,-713,0,0,0,0,0,0,0,0,0,-1,608,1737,0,0
-609,-713,0,0,0,0,0,0,0,0,0,-1,615,1737,0,0
-602,-713,0,0,0,0,0,0,0,0,0,-1,622,1737,0,0
-595,-713,0,0,0,0,0,0,0,0,0,-1,629,1737,0,0
-588,-713,0,0,0,0,0,0,0,0,0,-1,636,1737,0,0
-581,-713,0,0,0,0,0,0,0,0,0,-1,643,1737,0,0
-574,-713,0,0,0,0,0,0,0,0,0,-1,650,1737,0,0
-567,-713,0,0,0,0,0,0,0,0,0,-1,657,1737,0,0
-560,-713,0,0,0,0,0,0,0,0,0,-1,664,1737,0,0
-553,-713,0,0,0,0,0,0,0,0,0,-1,671,1737,0,0
-546,-713,0,0,0,0,0,0,0,0,0,-1,678,1737,0,0
-539,-713,0,0,0,0,0,0,0,0,0,-1,685,1737,0,0
-532,-713,0,0,0,0,0,0,0,0,0,-1,692,1737,0,0
-525,-713,0,0,0,0,0,0,0,0,0,-1,699,1737,0,0
-518,-713,0,0,0,0,0,0,0,0,0,-1,706,1737,0,0
-511,-713,0,0,0,0,0,0,0,0,0,-1,713,1737,0,0
-504,-713,0,0,0,0,0,0,0,0,0,-1,720,1737,0,0
-497,-713,0,0,0,0,0,0,0,0,0,-1,727,1737,0,0
-490,-713,0,0,0,0,0,0,0,0,0,-1,734,1737,0,0
-483,-713,0,0,0,0,0,0,0,0,0,-1,741,1737,0,0
-476,-713,0,0,0,0,0,0,0,0,0,-1,748,1737,0,0
-469,-713,0,0,0,0,0,0,0,0,0,-1,755,1737,0,0
-462,-713,0,0,0,0,0,0,0,0,0,-1,762,1737,0,0
-455,-713,0,0,0,0,0,0,0,0,0,-1,769,1737,0,0
-448,-713,0,0,0,0,0,0,0,0,0,-1,776,1737,0,0
-441,-713,0,0,0,0,0,0,0,0,0,-1,783,1737,0,0
-434,-713,0,0,0,0,0,0,0,0,0,-1,790,1737,0,0
-427,-713,0,0,0,0,0,0,0,0,0,-1,797,1737,0,0
-420,-713,0,0,0,0,0,0,0,0,0,-1,804,1737,0,0
-413,-713,0,0,0,0,0,0,0,0,0,-1,811,1737,0,0
-406,-713,0,0,0,0,0,0,0,0,0,-1,818,1737,0,0
-399,-713,0,0,0,0,0,0,0,0,0,-1,825,1737,0,0
-392,-713,0,0,0,0,0,0,0,0,0,-1,832,1737,0,0
-385,-713,0,0,0,0,0,0,0,0,0,-1,839,1737,0,0
-378,-713,0,0,0,0,0,0,0,0,0,-1,846,1737,0,0
-371,-713,0,0,0,0,0,0,0,0,0,-1,853,1737,0,0
-364,-713,0,0,0,0,0,0,0,0,0,-1,860,1737,0,0
-357,-713,0,0,0,0,0,0,0,0,0,-1,867,1737,0,0
-350,-713,0,0,0,0,0,0,0,0,0,-1,874,1737,0,0
-343,-713,0,0,0,0,0,0,0,0,0,-1,881,1737,0,0
-336,-713,0,0,0,0,0,0,0,0,0,-1,888,1737,0,0
-329,-713,0,0,0,0,0,0,0,0,0,-1,895,1737,0,0
-322,-713,0,0,0,0,0,0,0,0,0,-1,902,1737,0,0
-315,-713,0,0,0,0,0,0,0,0,0,-1,909,1737,0,0
-308,-713,0,0,0,0,0,0,0,0,0,-1,916,1737,0,0
-301,-713,0,0,0,0,0,0,0,0,0,-1,923,1737,0,0
-294,-713,7.17883,22.0453,0,0,0,0,0,0,0,-1,930,1737,7.17881,-22.0453
-287,-713,11.8916,21.5834,0,0,0,0,0,0,0,-1,937,1737,11.8916,-21.5833
-280,-713,10.2786,21.3551,0,0,0,0,0,0,0,-1,944,1737,10.2787,-21.3551
-273,-713,11.1981,23.8683,0,0,0,0,0,0,0,-1,951,1737,11.198,-23.8683
-266,-713,3.17981,19.8851,0,0,0,0,0,0,0,-1,958,1737,3.17983,-19.8851
-259,-713,3.5921,19.6868,0,0,0,0,0,0,0,-1,965,1737,3.59207,-19.6868
-252,-713,4.55469,20.5758,0,0,0,0,0,0,0,-1,972,1737,4.55466,-20.5758
-245,-713,3.89014,25.9825,0,0,0,0,0,0,0,-1,979,1737,3.89013,-25.9826
-238,-713,6.62506,30.5463,0,0,0,0,0,0,0,-1,986,1737,6.62509,-30.5462
-231,-713,7.31439,35.574,0,0,0,0,0,0,0,-1,993,1737,7.31436,-35.574
-224,-713,9.25055,39.1316,0,0,0,0,0,0,0,-1,1000,1737,9.25058,-39.1316
-217,-713,9.19781,39.5433,0,0,0,0,0,0,0,-1,1007,1737,9.19782,-39.5433
-210,-713,8.91864,39.5808,0,0,0,0,0,0,0,-1,1014,1737,8.91865,-39.5808
-203,-713,8.87805,39.83,0,0,0,0,0,0,0,-1,1021,1737,8.87803,-39.8299
-196,-713,8.81909,40.2931,5.88592e-05,-0.0195684,0.000644398,7.99932e-05,-0.0195896,0.0327847,0.0130865,0.0469321,1028,1737,8.81908,-40.2931
-189,-713,8.55713,40.4879,0.00150004,-0.0182538,0.0018924,0.0016797,-0.0184334,0.094652,0.0128854,0.0426972,1035,1737,8.55713,-40.4879
-182,-713,8.46741,40.7622,0.00229441,-0.0169759,0.00275255,0.00267987,-0.0173614,0.139133,0.0125632,0.0286528,1042,1737,8.46746,-40.7622
-175,-713,8.63599,41.3163,0,0,0,0,0,0,0,-1,1049,1737,8.63596,-41.3163
-168,-713,8.74719,41.4985,0.00286182,-0.0135525,0.00397913,0.00377556,-0.0144663,0.225721,0.0111185,0.0358728,1056,1737,8.74725,-41.4985
-161,-713,8.55542,41.9868,0.00253792,-0.0113395,0.00426969,0.00374635,-0.0125479,0.275813,0.00985436,0.016785,1063,1737,8.5554,-41.9869
-154,-713,8.46838,42.3671,0.00204361,-0.00916052,0.00435201,0.00353542,-0.0106523,0.330235,0.00852791,0.0119593,1070,1737,8.46835,-42.367
-147,-713,8.43506,42.7738,0.00149097,-0.00712786,0.00422099,0.00321378,-0.00885068,0.387516,0.0072144,0.0187002,1077,1737,8.43512,-42.7738
-140,-713,8.44604,43.1132,0.00106873,-0.0050381,0.00406989,0.00310328,-0.00707264,0.463569,0.00602222,0.0179033,1084,1737,8.44607,-43.1131
-133,-713,8.41199,43.3749,0.000613549,-0.00328932,0.00371792,0.00286104,-0.00553682,0.543724,0.00492986,0.0117914,1091,1737,8.41197,-43.3749
-126,-713,8.39478,43.674,0.000192347,-0.00175791,0.00332178,0.00267917,-0.00424473,0.642631,0.00403143,0.0188521,1098,1737,8.39477,-43.6739
-119,-713,8.37976,43.9777,-0.000615554,-0.000236581,0.00284836,0.00242859,-0.00328072,0.818612,0.00330849,0.0270812,1105,1737,8.37981,-43.9777
-112,-713,8.35132,44.3501,-0.00061039,0.000957923,0.00255955,0.00285074,-0.00250321,0.934041,0.00309328,0.0137225,1112,1737,8.35135,-44.3501
-105,-713,8.34521,44.6285,-0.00025782,0.00125149,0.00216931,0.00279366,-0.00179999,0.95279,0.00267275,0.0108955,1119,1737,8.34517,-44.6285
-98,-713,8.32861,44.8903,-0.000112716,0.00182541,0.00179714,0.00289811,-0.00118542,1.03266,0.00242576,0.0103407,1126,1737,8.32864,-44.8902
-91,-713,8.31592,45.151,0.000161886,0.00184213,0.00158263,0.0027938,-0.000789783,1.02941,0.00217415,0.0105884,1133,1737,8.31588,-45.1511
-84,-713,8.31018,45.4266,0.000372921,0.00167634,0.00134145,0.00251601,-0.000466751,1.01152,0.00185263,0.0101823,1140,1737,8.31018,-45.4267
-77,-713,8.31592,45.6898,0.000722257,0.001697,0.00109172,0.0024052,1.40631e-05,0.995338,0.0015988,0.0125476,1147,1737,8.31596,-45.6899
-70,-713,8.30249,45.9174,0.000989703,0.00147317,0.00076561,0.0020343,0.000428571,0.938315,0.00123832,0.0140737,1154,1737,8.30254,-45.9173
-63,-713,8.28748,46.1469,0.00114827,0.00120406,0.000524779,0.00170168,0.000650644,0.811949,0.000991491,0.0129657,1161,1737,8.28753,-46.1469
-56,-713,8.3136,46.38,0.00134425,0.00112801,0.000443235,0.00169236,0.000779901,0.665768,0.000978085,0.0136736,1168,1737,8.31359,-46.38
-49,-713,8.29065,46.6,0.00154354,0.000957715,0.000354488,0.00171047,0.000790781,0.440113,0.000988477,0.016464,1175,1737,8.29068,-46.5999
-42,-713,8.31921,46.7643,0.0020455,0.00154715,0.000422028,0.00228642,0.00130623,0.518722,0.00132453,0.0184714,1182,1737,8.31919,-46.7643
-35,-713,8.35022,46.9165,0.00273323,0.00227626,0.000560596,0.00311011,0.00189937,0.591891,0.00181024,0.0148541,1189,1737,8.3502,-46.9165
-28,-713,8.35059,47.1042,0.00327494,0.00333536,0.000798947,0.00410467,0.00250563,0.804297,0.00238902,0.0126852,1196,1737,8.35052,-47.1043
-21,-713,8.33752,47.2638,0.00360498,0.0046818,0.00125532,0.0055093,0.00277747,0.987983,0.00318083,0.00950846,1203,1737,8.33754,-47.2638
-14,-713,8.35681,47.3961,0.0039459,0.0059611,0.00190433,0.00710796,0.00279903,1.02873,0.00413453,0.0109924,1210,1737,8.35684,-47.3961
-7,-713,8.39929,47.5356,0.00425971,0.00805495,0.0023454,0.00917426,0.0031404,1.12553,0.00538386,0.00948672,1217,1737,8.39926,-47.5357
0,-713,8.42639,47.6591,0.00449184,0.0101319,0.00275227,0.0112523,0.00337136,1.18418,0.00666819,0.0133684,1224,1737,8.42637,-47.659
7,-713,8.44788,47.7621,0.00463366,0.0121432,0.00314983,0.0132894,0.00348744,1.22179,0.00795614,0.0175316,1231,1737,8.44785,-47.7621
14,-713,8.46985,47.8605,0.00467742,0.013994,0.00337492,0.0150881,0.00358334,1.25731,0.00910251,0.0131053,1238,1737,8.4699,-47.8605
21,-713,8.4895,47.9457,0.00464257,0.0155193,0.00349102,0.0165434,0.0036185,1.28546,0.0100425,0.0109616,1245,1737,8.48949,-47.9457
28,-713,8.4884,48.0134,0.00453029,0.0168696,0.0031891,0.0176451,0.0037548,1.33226,0.010733,0.0111739,1252,1737,8.4884,-48.0135
35,-713,8.51489,48.0846,0.00439023,0.017906,0.00245946,0.0183396,0.0039566,1.39628,0.0111442,0.0111451,1259,1737,8.51492,-48.0846
42,-713,8.56177,48.1489,0.00426837,0.0183426,0.00142241,0.0184849,0.00412605,1.47108,0.0112041,0.0111904,1266,1737,8.56181,-48.1489
49,-713,8.60339,48.1366,0.00411685,0.0179098,0.000273474,0.0179152,0.00411143,1.55098,0.0108362,0.0120874,1273,1737,8.60339,-48.1366
56,-713,8.63184,48.1405,0.00386331,0.016834,-0.000896944,0.0168957,0.00380158,-1.50208,0.0102347,0.012708,1280,1737,8.6318,-48.1405
63,-713,8.64575,48.1644,0.00340852,0.0148702,-0.002088,0.0152387,0.00304,-1.3961,0.00931271,0.0128746,1287,1737,8.64573,-48.1644
70,-713,8.67542,48.1534,0.00301667,0.0124503,-0.00322494,0.0134474,0.00201958,-1.27094,0.00837329,0.0123497,1294,1737,8.67547,-48.1534
77,-713,8.71655,48.1508,0.00292545,0.0098639,-0.00413947,0.0117957,0.000993686,-1.13417,0.00755437,0.0124559,1301,1737,8.71655,-48.1508
84,-713,8.75464,48.16,0.00305778,0.00684101,-0.00477543,0.0100858,-0.000187039,-0.973974,0.00678709,0.0126518,1308,1737,8.75469,-48.16
91,-713,8.7644,48.1356,0.00318539,0.00410939,-0.0050661,0.00873451,-0.00143974,-0.83087,0.00635749,0.0126738,1315,1737,8.76444,-48.1356
98,-713,8.79846,48.0574,0.00311085,0.00114054,-0.00483951,0.00706445,-0.00281307,-0.684988,0.00587623,0.0120791,1322,1737,8.79851,-48.0574
105,-713,8.82727,48.0148,0.00311665,-0.00109656,-0.00443176,0.00591701,-0.00389692,-0.563534,0.00570595,0.0139072,1329,1737,8.82723,-48.0148
112,-713,8.83496,47.9708,0.00323065,-0.00282121,-0.00390776,0.00514708,-0.00473763,-0.45595,0.00570857,0.014367,1336,1737,8.8349,-47.9708
119,-713,8.86499,47.8892,0.00332993,-0.00435213,-0.0033326,0.00457414,-0.00559634,-0.357321,0.00588181,0.0146753,1343,1737,8.86496,-47.8892
126,-713,8.87219,47.7795,0.00348091,-0.00529076,-0.00272277,0.00425734,-0.00606719,-0.27779,0.00599132,0.0140548,1350,1737,8.87225,-47.7795
133,-713,8.89197,47.6228,0.00359857,-0.00596757,-0.0020305,0.00401172,-0.00638072,-0.200731,0.00605182,0.012695,1357,1737,8.89195,-47.6228
140,-713,8.92224,47.4703,0.00366114,-0.00606184,-0.00140687,0.00386061,-0.00626131,-0.140847,0.00589843,0.0135935,1364,1737,8.9222,-47.4704
147,-713,8.94092,47.3015,0.00357409,-0.00556762,-0.00090019,0.00366189,-0.00565542,-0.0972263,0.00542024,0.015183,1371,1737,8.94089,-47.3015
154,-713,8.94385,47.2065,0.00339809,-0.00469911,-0.000551065,0.00343542,-0.00473644,-0.0676406,0.00473792,0.0146327,1378,1737,8.94384,-47.2066
161,-713,8.96399,47.0261,0.00323328,-0.00363841,-0.000320949,0.00324823,-0.00365337,-0.0465709,0.00398693,0.0100573,1385,1737,8.96404,-47.0261
168,-713,8.97998,46.8424,0.00297946,-0.00254274,-0.000134468,0.00298273,-0.00254601,-0.0243312,0.00319534,0.00985491,1392,1737,8.98002,-46.8424
175,-713,9.0083,46.6628,0.00261167,-0.00138714,1.56328e-05,0.00261173,-0.0013872,0.00390929,0.00234459,0.0134664,1399,1737,9.0083,-46.6629
182,-713,9.01892,46.4866,0.0020796,-0.000706754,-4.44042e-05,0.0020803,-0.000707462,-0.0159309,0.00167331,0.0124219,1406,1737,9.01897,-46.4866
189,-713,9.02917,46.2544,0.00150729,0.000137833,-0.000192762,0.00153391,0.000111217,-0.137207,0.000987624,0.0113097,1413,1737,9.02921,-46.2544
196,-713,9.0437,46.0258,0.000992365,0.000769131,-0.000310815,0.001211,0.0005505,-0.613014,0.00070013,0.0118954,1420,1737,9.04366,-46.0258
203,-713,9.02136,45.8198,0.00078462,0.0008905,-0.000456464,0.00129708,0.000378036,-0.843129,0.000770279,0.0153553,1427,1737,9.0214,-45.8198
210,-713,9.01843,45.5715,0.000565448,0.0010784,-0.000599862,0.00147432,0.000169534,-0.987418,0.000931524,0.01392,1434,1737,9.01845,-45.5716
217,-713,9.03235,45.3262,0.000266613,0.00106559,-0.000753864,0.00151927,-0.000187072,-1.02905,0.00108062,0.0122076,1441,1737,9.03235,-45.3262
224,-713,9.00256,45.0764,-0.000219286,0.000868594,-0.000855639,0.00133855,-0.000689244,-1.06853,0.00119059,0.0125517,1448,1737,9.00257,-45.0764
231,-713,9.00159,44.8096,-0.00102113,0.000350131,-0.000762711,0.000690083,-0.00136108,-1.15151,0.00120517,0.0112219,1455,1737,9.00154,-44.8096
238,-713,8.98645,44.5261,-0.00159828,-7.98645e-05,-0.000710022,0.000200413,-0.00187855,-1.19483,0.00132424,0.0083959,1462,1737,8.98645,-44.5262
245,-713,8.995,44.223,-0.002255,-0.000565969,-0.00067165,-0.000331447,-0.00248952,-1.23486,0.00156097,0.010982,1469,1737,8.995,-44.2231
252,-713,9.00439,43.9214,-0.00306949,-0.00105481,-0.000550304,-0.000914295,-0.00321,-1.3208,0.00190964,0.0124068,1476,1737,9.00441,-43.9214
259,-713,9.00342,43.6136,-0.00395573,-0.00169963,-0.000253906,-0.0016714,-0.00398395,-1.4601,0.00231004,0.0126364,1483,1737,9.00347,-43.6136
266,-713,8.94666,43.3254,-0.0047788,-0.00234997,-5.03875e-05,-0.00234893,-0.00477985,-1.55006,0.00275978,0.0109381,1490,1737,8.94669,-43.3255
273,-713,8.91577,43.0049,-0.00537941,-0.00232099,-0.000185969,-0.00230972,-0.00539067,-1.51029,0.00312291,0.00915766,1497,1737,8.91574,-43.0049
280,-713,8.89429,42.6617,-0.00599837,-0.00224221,-0.000309462,-0.00221688,-0.0060237,-1.48914,0.00351793,0.0100315,1504,1737,8.89426,-42.6618
287,-713,8.86377,42.3301,-0.00645528,-0.00143917,-0.000546124,-0.0013804,-0.00651405,-1.4636,0.00396352,0.0106974,1511,1737,8.86378,-42.3301
294,-713,8.85339,41.9993,-0.00656936,0.000194677,-0.000725567,0.000271632,-0.00664632,-1.46513,0.00452414,0.0144276,1518,1737,8.85345,-41.9993
301,-713,8.8075,41.6156,-0.00616574,0.00217883,-0.000928601,0.00228092,-0.00626783,-1.4613,0.00511141,0.0172237,1525,1737,8.80745,-41.6156
308,-713,8.79907,41.2507,-0.00551056,0.00384509,-0.00164223,0.00412499,-0.00579045,-1.40198,0.00575154,0.0191393,1532,1737,8.79912,-41.2508
315,-713,8.78918,40.9204,-0.00548604,0.0069824,-0.00198433,0.00729058,-0.00579423,-1.41672,0.00757097,0.028431,1539,1737,8.78917,-40.9204
322,-713,8.95325,40.1489,-0.00484876,0.010351,-0.00247026,0.0107424,-0.00524015,-1.41366,0.00940803,0.0433822,1546,1737,8.95329,-40.1489
329,-713,9.20361,39.752,0,0,0,0,0,0,0,-1,1553,1737,9.20362,-39.7519
336,-713,8.63379,39.1891,0,0,0,0,0,0,0,-1,1560,1737,8.63381,-39.1891
343,-713,7.72742,38.6719,0,0,0,0,0,0,0,-1,1567,1737,7.72739,-38.6718
350,-713,7.80212,38.436,0,0,0,0,0,0,0,-1,1574,1737,7.80211,-38.436
357,-713,8.15784,38.4032,0,0,0,0,0,0,0,-1,1581,1737,8.15779,-38.4032
364,-713,7.35474,20.9537,0,0,0,0,0,0,0,-1,1588,1737,7.35472,-20.9537
371,-713,3.07507,25.4108,0,0,0,0,0,0,0,-1,1595,1737,3.07502,-25.4107
378,-713,5.16516,38.248,0,0,0,0,0,0,0,-1,1602,1737,5.16511,-38.248
385,-713,5.7002,37.3269,0.0540814,0.00463444,0.0542959,0.0890177,-0.0303019,0.571752,0.0716156,0.0489306,1609,1737,5.70023,-37.3269
392,-713,6.15186,36.661,0.0621392,0.00081247,0.0627692,0.101334,-0.0383827,0.558192,0.0833503,0.0457822,1616,1737,6.15187,-36.661
399,-713,6.69116,36.1329,0,0,0,0,0,0,0,-1,1623,1737,6.69116,-36.1329
406,-713,2.03125,27.0992,0,0,0,0,0,0,0,-1,1630,1737,2.03121,-27.0992
413,-713,0.717896,28.6097,0,0,0,0,0,0,0,-1,1637,1737,0.717893,-28.6097
420,-713,0,0,0,0,0,0,0,0,0,-1,1644,1737,0,0
427,-713,0,0,0,0,0,0,0,0,0,-1,1651,1737,0,0
434,-713,0,0,0,0,0,0,0,0,0,-1,1658,1737,0,0
441,-713,0,0,0,0,0,0,0,0,0,-1,1665,1737,0,0
448,-713,0,0,0,0,0,0,0,0,0,-1,1672,1737,0,0
455,-713,0,0,0,0,0,0,0,0,0,-1,1679,1737,0,0
462,-713,0,0,0,0,0,0,0,0,0,-1,1686,1737,0,0
469,-713,0,0,0,0,0,0,0,0,0,-1,1693,1737,0,0
476,-713,0,0,0,0,0,0,0,0,0,-1,1700,1737,0,0
483,-713,0,0,0,0,0,0,0,0,0,-1,1707,1737,0,0
490,-713,0,0,0,0,0,0,0,0,0,-1,1714,1737,0,0
497,-713,0,0,0,0,0,0,0,0,0,-1,1721,1737,0,0
504,-713,0,0,0,0,0,0,0,0,0,-1,1728,1737,0,0
511,-713,0,0,0,0,0,0,0,0,0,-1,1735,1737,0,0
518,-713,0,0,0,0,0,0,0,0,0,-1,1742,1737,0,0
525,-713,0,0,0,0,0,0,0,0,0,-1,1749,1737,0,0
532,-713,0,0,0,0,0,0,0,0,0,-1,1756,1737,0,0
539,-713,0,0,0,0,0,0,0,0,0,-1,1763,1737,0,0
546,-713,0,0,0,0,0,0,0,0,0,-1,1770,1737,0,0
553,-713,0,0,0,0,0,0,0,0,0,-1,1777,1737,0,0
560,-713,0,0,0,0,0,0,0,0,0,-1,1784,1737,0,0
567,-713,0,0,0,0,0,0,0,0,0,-1,1791,1737,0,0
574,-713,0,0,0,0,0,0,0,0,0,-1,1798,1737,0,0
581,-713,0,0,0,0,0,0,0,0,0,-1,1805,1737,0,0
588,-713,0,0,0,0,0,0,0,0,0,-1,1812,1737,0,0
595,-713,0,0,0,0,0,0,0,0,0,-1,1819,1737,0,0
602,-713,0,0,0,0,0,0,0,0,0,-1,1826,1737,0,0
609,-713,0,0,0,0,0,0,0,0,0,-1,1833,1737,0,0
616,-713,0,0,0,0,0,0,0,0,0,-1,1840,1737,0,0
623,-713,0,0,0,0,0,0,0,0,0,-1,1847,1737,0,0
630,-713,0,0,0,0,0,0,0,0,0,-1,1854,1737,0,0
637,-713,0,0,0,0,0,0,0,0,0,-1,1861,1737,0,0
644,-713,0,0,0,0,0,0,0,0,0,-1,1868,1737,0,0
651,-713,0,0,0,0,0,0,0,0,0,-1,1875,1737,0,0
658,-713,0,0,0,0,0,0,0,0,0,-1,1882,1737,0,0
665,-713,0,0,0,0,0,0,0,0,0,-1,1889,1737,0,0
672,-713,0,0,0,0,0,0,0,0,0,-1,1896,1737,0,0
679,-713,0,0,0,0,0,0,0,0,0,-1,1903,1737,0,0
686,-713,0,0,0,0,0,0,0,0,0,-1,1910,1737,0,0
693,-713,0,0,0,0,0,0,0,0,0,-1,1917,1737,0,0
700,-713,0,0,0,0,0,0,0,0,0,-1,1924,1737,0,0
707,-713,0,0,0,0,0,0,0,0,0,-1,1931,1737,0,0
714,-713,0,0,0,0,0,0,0,0,0,-1,1938,1737,0,0
721,-713,0,0,0,0,0,0,0,0,0,-1,1945,1737,0,0
728,-713,0,0,0,0,0,0,0,0,0,-1,1952,1737,0,0
735,-713,0,0,0,0,0,0,0,0,0,-1,1959,1737,0,0
742,-713,0,0,0,0,0,0,0,0,0,-1,1966,1737,0,0
749,-713,0,0,0,0,0,0,0,0,0,-1,1973,1737,0,0
756,-713,0,0,0,0,0,0,0,0,0,-1,1980,1737,0,0
763,-713,0,0,0,0,0,0,0,0,0,-1,1987,1737,0,0
770,-713,0,0,0,0,0,0,0,0,0,-1,1994,1737,0,0
777,-713,0,0,0,0,0,0,0,0,0,-1,2001,1737,0,0
784,-713,0,0,0,0,0,0,0,0,0,-1,2008,1737,0,0
791,-713,0,0,0,0,0,0,0,0,0,-1,2015,1737,0,0
798,-713,0,0,0,0,0,0,0,0,0,-1,2022,1737,0,0
805,-713,0,0,0,0,0,0,0,0,0,-1,2029,1737,0,0
812,-713,0,0,0,0,0,0,0,0,0,-1,2036,1737,0,0
-700,-720,0,0,0,0,0,0,0,0,0,-1,524,1744,0,0
-693,-720,0,0,0,0,0,0,0,0,0,-1,531,1744,0,0
-686,-720,0,0,0,0,0,0,0,0,0,-1,538,1744,0,0
-679,-720,0,0,0,0,0,0,0,0,0,-1,545,1744,0,0
-672,-720,0,0,0,0,0,0,0,0,0,-1,552,1744,0,0
-665,-720,0,0,0,0,0,0,0,0,0,-1,559,1744,0,0
-658,-720,0,0,0,0,0,0,0,0,0,-1,566,1744,0,0
-651,-720,0,0,0,0,0,0,0,0,0,-1,573,1744,0,0
-644,-720,0,0,0,0,0,0,0,0,0,-1,580,1744,0,0
-637,-720,0,0,0,0,0,0,0,0,0,-1,587,1744,0,0
-630,-720,0,0,0,0,0,0,0,0,0,-1,594,1744,0,0
-623,-720,0,0,0,0,0,0,0,0,0,-1,601,1744,0,0
-616,-720,0,0,0,0,0,0,0,0,0,-1,608,1744,0,0
-609,-720,0,0,0,0,0,0,0,0,0,-1,615,1744,0,0
-602,-720,0,0,0,0,0,0,0,0,0,-1,622,1744,0,0
-595,-720,0,0,0,0,0,0,0,0,0,-1,629,1744,0,0
-588,-720,0,0,0,0,0,0,0,0,0,-1,636,1744,0,0
-581,-720,0,0,0,0,0,0,0,0,0,-1,643,1744,0,0
-574,-720,0,0,0,0,0,0,0,0,0,-1,650,1744,0,0
-567,-720,0,0,0,0,0,0,0,0,0,-1,657,1744,0,0
-560,-720,0,0,0,0,0,0,0,0,0,-1,664,1744,0,0
-553,-720,0,0,0,0,0,0,0,0,0,-1,671,1744,0,0
-546,-720,0,0,0,0,0,0,0,0,0,-1,678,1744,0,0
-539,-720,0,0,0,0,0,0,0,0,0,-1,685,1744,0,0
-532,-720,0,0,0,0,0,0,0,0,0,-1,692,1744,0,0
-525,-720,0,0,0,0,0,0,0,0,0,-1,699,1744,0,0
-518,-720,0,0,0,0,0,0,0,0,0,-1,706,1744,0,0
-511,-720,0,0,0,0,0,0,0,0,0,-1,713,1744,0,0
-504,-720,0,0,0,0,0,0,0,0,0,-1,720,1744,0,0
-497,-720,0,0,0,0,0,0,0,0,0,-1,727,1744,0,0
-490,-720,0,0,0,0,0,0,0,0,0,-1,734,1744,0,0
-483,-720,0,0,0,0,0,0,0,0,0,-1,741,1744,0,0
-476,-720,0,0,0,0,0,0,0,0,0,-1,748,1744,0,0
-469,-720,0,0,0,0,0,0,0,0,0,-1,755,1744,0,0
-462,-720,0,0,0,0,0,0,0,0,0,-1,762,1744,0,0
-455,-720,0,0,0,0,0,0,0,0,0,-1,769,1744,0,0
-448,-720,0,0,0,0,0,0,0,0,0,-1,776,1744,0,0
-441,-720,0,0,0,0,0,0,0,0,0,-1,783,1744,0,0
-434,-720,0,0,0,0,0,0,0,0,0,-1,790,1744,0,0
-427,-720,0,0,0,0,0,0,0,0,0,-1,797,1744,0,0
-420,-720,0,0,0,0,0,0,0,0,0,-1,804,1744,0,0
-413,-720,0,0,0,0,0,0,0,0,0,-1,811,1744,0,0
-406,-720,0,0,0,0,0,0,0,0,0,-1,818,1744,0,0
-399,-720,0,0,0,0,0,0,0,0,0,-1,825,1744,0,0
-392,-720,0,0,0,0,0,0,0,0,0,-1,832,1744,0,0
-385,-720,0,0,0,0,0,0,0,0,0,-1,839,1744,0,0
-378,-720,0,0,0,0,0,0,0,0,0,-1,846,1744,0,0
-371,-720,0,0,0,0,0,0,0,0,0,-1,853,1744,0,0
-364,-720,0,0,0,0,0,0,0,0,0,-1,860,1744,0,0
-357,-720,0,0,0,0,0,0,0,0,0,-1,867,1744,0,0
-350,-720,0,0,0,0,0,0,0,0,0,-1,874,1744,0,0
-343,-720,0,0,0,0,0,0,0,0,0,-1,881,1744,0,0
-336,-720,0,0,0,0,0,0,0,0,0,-1,888,1744,0,0
-329,-720,0,0,0,0,0,0,0,0,0,-1,895,1744,0,0
-322,-720,0,0,0,0,0,0,0,0,0,-1,902,1744,0,0
-315,-720,0,0,0,0,0,0,0,0,0,-1,909,1744,0,0
-308,-720,0,0,0,0,0,0,0,0,0,-1,916,1744,0,0
-301,-720,0,0,0,0,0,0,0,0,0,-1,923,1744,0,0
-294,-720,0,0,0,0,0,0,0,0,0,-1,930,1744,0,0
-287,-720,0,0,0,0,0,0,0,0,0,-1,937,1744,0,0
-280,-720,6.46796,22.6417,0,0,0,0,0,0,0,-1,944,1744,6.46793,-22.6417
-273,-720,8.54633,13.262,0,0,0,0,0,0,0,-1,951,1744,8.54636,-13.2619
-266,-720,7.28027,13.3165,0,0,0,0,0,0,0,-1,958,1744,7.28026,-13.3166
-259,-720,3.70563,18.6372,0,0,0,0,0,0,0,-1,965,1744,3.70564,-18.6372
-252,-720,4.00989,18.5059,0,0,0,0,0,0,0,-1,972,1744,4.00988,-18.5058
-245,-720,7.05634,33.8489,0,0,0,0,0,0,0,-1,979,1744,7.05634,-33.8489
-238,-720,5.02216,24.1455,0,0,0,0,0,0,0,-1,986,1744,5.02217,-24.1455
-231,-720,7.35455,28.3225,0,0,0,0,0,0,0,-1,993,1744,7.35453,-28.3225
-224,-720,9.2887,38.2468,0,0,0,0,0,0,0,-1,1000,1744,9.28869,-38.2468
-217,-720,9.8775,39.7642,0,0,0,0,0,0,0,-1,1007,1744,9.87748,-39.7641
-210,-720,8.74036,38.6686,0,0,0,0,0,0,0,-1,1014,1744,8.74035,-38.6686
-203,-720,7.89978,34.8447,0,0,0,0,0,0,0,-1,1021,1744,7.89975,-34.8447
-196,-720,9.34009,40.6519,0,0,0,0,0,0,0,-1,1028,1744,9.34006,-40.6518
-189,-720,8.94946,40.7469,0,0,0,0,0,0,0,-1,1035,1744,8.94943,-40.7469
-182,-720,8.76489,40.9695,0.00584064,-0.0246431,0.00405464,0.00637073,-0.0251732,0.129999,0.0192602,0.0412177,1042,1744,8.76487,-40.9694
-175,-720,8.81372,41.2286,0.00597425,-0.0222602,0.0050083,0.00683632,-0.0231222,0.170457,0.0181285,0.0383989,1049,1744,8.81372,-41.2287
-168,-720,9.08459,41.5936,0.00555665,-0.0198186,0.00561636,0.00674415,-0.0210061,0.208368,0.0167121,0.0430895,1056,1744,9.08461,-41.5936
-161,-720,8.68237,41.9607,0.00472682,-0.0167758,0.00596939,0.00627284,-0.0183218,0.253423,0.0147568,0.0346051,1063,1744,8.68237,-41.9607
-154,-720,8.83276,42.4169,0.00364426,-0.0137128,0.00605501,0.00554779,-0.0156163,0.304591,0.0126716,0.0257403,1070,1744,8.83274,-42.4169
-147,-720,8.75049,42.8484,0.00252051,-0.0108249,0.00588939,0.0047478,-0.0130522,0.361562,0.0106431,0.0226237,1077,1744,8.75054,-42.8484
-140,-720,8.76318,43.1669,0.00160557,-0.00787462,0.00569087,0.00427185,-0.0105409,0.438148,0.00880375,0.0181605,1084,1744,8.76319,-43.1668
-133,-720,8.71326,43.4016,0.000702156,-0.00536821,0.00525248,0.00373335,-0.0083994,0.523409,0.00717545,0.0136582,1091,1744,8.71324,-43.4016
-126,-720,8.68799,43.7073,-9.96627e-05,-0.00315732,0.0047694,0.00337995,-0.00663694,0.630297,0.00588427,0.0139188,1098,1744,8.68795,-43.7073
-119,-720,8.66223,44.0201,-0.00150077,-0.000894015,0.00416644,0.00298008,-0.00537486,0.821742,0.00488933,0.0152922,1105,1744,8.66219,-44.0201
-112,-720,8.62427,44.3174,-0.00169848,0.00101362,0.0038201,0.00371121,-0.00439607,0.955949,0.00468631,0.0137157,1112,1744,8.62422,-44.3174
-105,-720,8.60498,44.6195,-0.00133338,0.0015699,0.00333283,0.0037535,-0.00351698,0.990788,0.00419836,0.0129179,1119,1744,8.60495,-44.6195
-98,-720,8.60437,44.8951,-0.00128155,0.00270357,0.0028042,0.00415104,-0.00272902,1.09429,0.00400039,0.0107319,1126,1744,8.60443,-44.8951
-91,-720,8.57703,45.1552,-0.000987495,0.00279893,0.00255718,0.00408745,-0.00227602,1.10405,0.00372323,0.0100417,1133,1744,8.57698,-45.1551
-84,-720,8.55225,45.4341,-0.000781371,0.00257109,0.0022615,0.00370984,-0.00192012,1.10432,0.00330475,0.0111057,1140,1744,8.5523,-45.4341
-77,-720,8.54114,45.6915,-0.000375973,0.00253997,0.00203022,0.00358149,-0.0014175,1.09679,0.00297494,0.0137732,1147,1744,8.54119,-45.6916
-70,-720,8.53223,45.9225,-0.000102573,0.00222086,0.00162208,0.00305433,-0.000936034,1.09615,0.00240961,0.0119685,1154,1744,8.53223,-45.9225
-63,-720,8.4967,46.1477,-3.05665e-05,0.00190843,0.00118767,0.00247206,-0.000594196,1.1277,0.00187771,0.0116076,1161,1744,8.49674,-46.1477
-56,-720,8.52856,46.3782,9.90477e-05,0.00168017,0.000968081,0.00213947,-0.000360259,1.1278,0.00156033,0.0139174,1168,1744,8.52861,-46.3781
-49,-720,8.50513,46.5767,0.000274464,0.00131469,0.000776853,0.00172947,-0.000140311,1.08038,0.00120248,0.0195316,1175,1744,8.5051,-46.5767
-42,-720,8.5166,46.7408,0.000398838,0.00117669,0.000616246,0.00151648,5.90507e-05,1.06689,0.000991888,0.0222853,1182,1744,8.51664,-46.7409
-35,-720,8.52051,46.9135,0.000687507,0.00103025,0.000534811,0.00142048,0.000297284,0.940448,0.000865088,0.0200121,1189,1744,8.52047,-46.9135
-28,-720,8.51599,47.1124,0.00097799,0.0011293,0.000505159,0.00156444,0.000542851,0.859727,0.000917216,0.0110868,1196,1744,8.51602,-47.1124
-21,-720,8.51563,47.2729,0.00123105,0.00156777,0.00058901,0.00201201,0.00078681,0.924603,0.00117079,0.00964742,1203,1744,8.51557,-47.273
-14,-720,8.50354,47.4034,0.00154769,0.00203128,0.000744228,0.00257201,0.00100696,0.942468,0.00149656,0.0120505,1210,1744,8.50356,-47.4034
-7,-720,8.52722,47.5609,0.00181746,0.00297086,0.000881646,0.00344767,0.00134065,1.07503,0.00200684,0.0118647,1217,1744,8.5272,-47.5609
0,-720,8.54089,47.6884,0.00206001,0.00408758,0.00108143,0.00455611,0.00159149,1.16196,0.00266999,0.0119681,1224,1744,8.5409,-47.6883
7,-720,8.56079,47.7712,0.00226252,0.00521677,0.00130568,0.00571111,0.00176817,1.20886,0.00337606,0.0160152,1231,1744,8.56084,-47.7712
14,-720,8.58533,47.8617,0.00242248,0.00628074,0.00147498,0.00678001,0.00192321,1.24441,0.00403473,0.0153002,1238,1744,8.58532,-47.8617
21,-720,8.57922,47.947,0.00254928,0.00724606,0.00155313,0.00771319,0.00208215,1.27864,0.00460766,0.0113987,1245,1744,8.57923,-47.9471
28,-720,8.56738,48.0159,0.00259067,0.00804627,0.00149773,0.0084304,0.00220654,1.31973,0.00504814,0.0109732,1252,1744,8.56737,-48.0158
35,-720,8.57874,48.0911,0.00261299,0.0086744,0.00119549,0.00890166,0.00238572,1.38294,0.00532058,0.0112373,1259,1744,8.5787,-48.0911
42,-720,8.59814,48.1472,0.002592,0.00891715,0.000757563,0.00900662,0.00250253,1.45324,0.00536832,0.0119812,1266,1744,8.59815,-48.1472
49,-720,8.62781,48.1438,0.00249433,0.008666,0.00032058,0.00868261,0.00247772,1.51904,0.00516457,0.0122835,1273,1744,8.62785,-48.1438
56,-720,8.64832,48.1591,0.00233569,0.00801997,-0.000160637,0.0080245,0.00233116,-1.54257,0.00476658,0.0109951,1280,1744,8.64829,-48.159
63,-720,8.65479,48.1857,0.00204837,0.00681367,-0.000703922,0.00691547,0.00194656,-1.42716,0.00411779,0.0131714,1287,1744,8.65475,-48.1857
70,-720,8.68372,48.1729,0.00177055,0.00543754,-0.00126086,0.00582924,0.00137886,-1.26959,0.0035178,0.0141163,1294,1744,8.68375,-48.1729
77,-720,8.70227,48.1702,0.00165722,0.00393265,-0.00171112,0.00484977,0.000740099,-1.07879,0.00301689,0.0152743,1301,1744,8.7023,-48.1702
84,-720,8.72217,48.1344,0.0017325,0.00218043,-0.00193628,0.00390566,7.27666e-06,-0.842976,0.00260135,0.0139953,1308,1744,8.72218,-48.1344
91,-720,8.73926,48.0842,0.00188152,0.000837368,-0.00205233,0.00347713,-0.000758245,-0.660848,0.00260784,0.0133713,1315,1744,8.73928,-48.0842
98,-720,8.71228,48.043,0.00191122,-0.000754048,-0.00206037,0.00303237,-0.0018752,-0.49834,0.00285952,0.0127241,1322,1744,8.71234,-48.043
105,-720,8.73169,48.0024,0.00202081,-0.00185452,-0.00197443,0.00284954,-0.00268324,-0.397398,0.00319483,0.0123603,1329,1744,8.73166,-48.0024
112,-720,8.76001,47.9447,0.00222683,-0.00265283,-0.00181124,0.00282565,-0.00325164,-0.319298,0.0035116,0.011352,1336,1744,8.76007,-47.9447
119,-720,8.77515,47.8704,0.00239163,-0.00338645,-0.00159246,0.00280145,-0.00379627,-0.251885,0.0038236,0.0111669,1343,1744,8.7752,-47.8703
126,-720,8.78003,47.7505,0.00256559,-0.00388107,-0.00129574,0.00281628,-0.00413175,-0.191109,0.00403534,0.0113136,1350,1744,8.78007,-47.7505
133,-720,8.78174,47.6281,0.00269487,-0.00404617,-0.000987482,0.00283655,-0.00418785,-0.1425,0.00408047,0.0130218,1357,1744,8.78168,-47.6281
140,-720,8.79797,47.5149,0.00270891,-0.00382584,-0.000678084,0.00277853,-0.00389546,-0.102314,0.00387117,0.0189799,1364,1744,8.79795,-47.5149
147,-720,8.78931,47.339,0.00258413,-0.00327175,-0.000453768,0.00261908,-0.0033067,-0.0768777,0.00342892,0.0191493,1371,1744,8.78932,-47.339
154,-720,8.77637,47.1863,0.00234772,-0.00253556,-0.000348676,0.00237249,-0.00256033,-0.0709224,0.00284866,0.0128767,1378,1744,8.77641,-47.1863
161,-720,8.80579,47.0267,0.00205285,-0.00172984,-0.000292646,0.00207536,-0.00175235,-0.0767558,0.00221255,0.0096469,1385,1744,8.80574,-47.0267
168,-720,8.80786,46.8562,0.00170431,-0.000995599,-0.000259194,0.00172897,-0.00102026,-0.0948466,0.00160475,0.0101988,1392,1744,8.8079,-46.8563
175,-720,8.79089,46.6554,0.00132869,-0.000369595,-0.000301734,0.0013807,-0.000421611,-0.170712,0.00108857,0.0161892,1399,1744,8.79092,-46.6555
182,-720,8.81409,46.4814,0.000966109,7.34222e-05,-0.000433823,0.0011422,-0.000102669,-0.385587,0.000797895,0.0157611,1406,1744,8.81404,-46.4814
189,-720,8.84412,46.2699,0.000433194,0.000439217,-0.000712197,0.00114841,-0.000275999,-0.787512,0.000872284,0.0133128,1413,1744,8.84411,-46.2699
196,-720,8.83813,46.0288,-0.000230976,0.000746714,-0.000872302,0.00125781,-0.000742072,-1.0408,0.00116736,0.0130916,1420,1744,8.83808,-46.0288
203,-720,8.8053,45.7944,-0.000446509,0.00112897,-0.00101826,0.00162862,-0.000946166,-1.11462,0.00150386,0.0152651,1427,1744,8.80534,-45.7945
210,-720,8.78687,45.573,-0.000505821,0.00150411,-0.0012349,0.00209129,-0.001093,-1.12695,0.00186833,0.0142812,1434,1744,8.78688,-45.573
217,-720,8.76343,45.3191,-0.00070624,0.00155586,-0.00134847,0.00218483,-0.0013352,-1.13437,0.00205193,0.0140023,1441,1744,8.7634,-45.3191
224,-720,8.75769,45.052,-0.00140112,0.00114793,-0.00135717,0.00173521,-0.0019884,-1.1624,0.00215149,0.0100597,1448,1744,8.75767,-45.052
231,-720,8.75012,44.7936,-0.00256851,0.000230873,-0.0010492,0.000580454,-0.00291809,-1.24918,0.00216497,0.00930316,1455,1744,8.75018,-44.7936
238,-720,8.72839,44.5234,-0.00331769,-0.000415482,-0.000877137,-0.000170982,-0.00356219,-1.29895,0.0023199,0.00847629,1462,1744,8.72842,-44.5235
245,-720,8.70874,44.2458,-0.00417,-0.00113333,-0.000757986,-0.000954642,-0.00434869,-1.33928,0.00263911,0.0112184,1469,1744,8.70873,-44.2459
252,-720,8.70081,43.9398,-0.00524382,-0.00185797,-0.000526032,-0.00177812,-0.00532366,-1.42016,0.00312957,0.0113673,1476,1744,8.70077,-43.9399
259,-720,8.68457,43.6312,-0.00639592,-0.00278382,-6.32794e-05,-0.00278271,-0.00639703,-1.55328,0.00370372,0.0103284,1483,1744,8.6846,-43.6313
266,-720,8.63184,43.3163,-0.00743805,-0.00371701,0.000273587,-0.003697,-0.00745806,1.4978,0.00430596,0.00868537,1490,1744,8.63189,-43.3163
273,-720,8.59827,42.9938,-0.00817062,-0.00380262,0.000175929,-0.00379555,-0.00817769,1.53061,0.00472544,0.0135577,1497,1744,8.5983,-42.9938
280,-720,8.53625,42.6602,-0.00889971,-0.00378055,7.87644e-05,-0.00377934,-0.00890092,1.55541,0.00515839,0.0174016,1504,1744,8.53621,-42.6602
287,-720,8.49866,42.2915,-0.00940133,-0.00284004,-0.000196412,-0.00283417,-0.0094072,-1.5409,0.00557241,0.0282734,1511,1744,8.49869,-42.2915
294,-720,8.62109,41.8699,-0.00946101,-0.000799128,-0.000426797,-0.00077815,-0.00948199,-1.52168,0.00607857,0.0350847,1518,1744,8.62105,-41.8699
301,-720,8.45093,41.4734,-0.00883178,0.00173627,-0.000675773,0.00177931,-0.00887481,-1.5072,0.0065902,0.0436719,1525,1744,8.45088,-41.4734
308,-720,8.30823,41.2838,-0.0077939,0.00390677,-0.00153654,0.00410519,-0.00799231,-1.44238,0.00710366,0.0439108,1532,1744,8.30822,-41.2839
315,-720,8.4895,40.9225,0,0,0,0,0,0,0,-1,1539,1744,8.48947,-40.9225
322,-720,8.9906,39.686,0,0,0,0,0,0,0,-1,1546,1744,8.9906,-39.686
329,-720,9.15906,34.7668,0,0,0,0,0,0,0,-1,1553,1744,9.1591,-34.7669
336,-720,6.14148,26.5682,0,0,0,0,0,0,0,-1,1560,1744,6.14151,-26.5683
343,-720,6.78552,21.3625,0,0,0,0,0,0,0,-1,1567,1744,6.78551,-21.3625
350,-720,4.0741,11.1836,0,0,0,0,0,0,0,-1,1574,1744,4.07412,-11.1836
357,-720,6.90833,21.4504,0,0,0,0,0,0,0,-1,1581,1744,6.90827,-21.4505
364,-720,5.83777,24.1599,0,0,0,0,0,0,0,-1,1588,1744,5.83773,-24.1599
371,-720,5.46997,23.6176,0,0,0,0,0,0,0,-1,1595,1744,5.47001,-23.6176
378,-720,3.88257,25.5404,0,0,0,0,0,0,0,-1,1602,1744,3.88262,-25.5404
385,-720,4.672,37.3854,0,0,0,0,0,0,0,-1,1609,1744,4.67202,-37.3854
392,-720,4.89319,36.2684,0,0,0,0,0,0,0,-1,1616,1744,4.89323,-36.2684
399,-720,2.37317,24.7166,0,0,0,0,0,0,0,-1,1623,1744,2.37317,-24.7166
406,-720,0,0,0,0,0,0,0,0,0,-1,1630,1744,0,0
413,-720,0,0,0,0,0,0,0,0,0,-1,1637,1744,0,0
420,-720,0,0,0,0,0,0,0,0,0,-1,1644,1744,0,0
427,-720,0,0,0,0,0,0,0,0,0,-1,1651,1744,0,0
434,-720,0,0,0,0,0,0,0,0,0,-1,1658,1744,0,0
441,-720,0,0,0,0,0,0,0,0,0,-1,1665,1744,0,0
448,-720,0,0,0,0,0,0,0,0,0,-1,1672,1744,0,0
455,-720,0,0,0,0,0,0,0,0,0,-1,1679,1744,0,0
462,-720,0,0,0,0,0,0,0,0,0,-1,1686,1744,0,0
469,-720,0,0,0,0,0,0,0,0,0,-1,1693,1744,0,0
476,-720,0,0,0,0,0,0,0,0,0,-1,1700,1744,0,0
483,-720,0,0,0,0,0,0,0,0,0,-1,1707,1744,0,0
490,-720,0,0,0,0,0,0,0,0,0,-1,1714,1744,0,0
497,-720,0,0,0,0,0,0,0,0,0,-1,1721,1744,0,0
504,-720,0,0,0,0,0,0,0,0,0,-1,1728,1744,0,0
511,-720,0,0,0,0,0,0,0,0,0,-1,1735,1744,0,0
518,-720,0,0,0,0,0,0,0,0,0,-1,1742,1744,0,0
525,-720,0,0,0,0,0,0,0,0,0,-1,1749,1744,0,0
532,-720,0,0,0,0,0,0,0,0,0,-1,1756,1744,0,0
539,-720,0,0,0,0,0,0,0,0,0,-1,1763,1744,0,0
546,-720,0,0,0,0,0,0,0,0,0,-1,1770,1744,0,0
553,-720,0,0,0,0,0,0,0,0,0,-1,1777,1744,0,0
560,-720,0,0,0,0,0,0,0,0,0,-1,1784,1744,0,0
567,-720,0,0,0,0,0,0,0,0,0,-1,1791,1744,0,0
574,-720,0,0,0,0,0,0,0,0,0,-1,1798,1744,0,0
581,-720,0,0,0,0,0,0,0,0,0,-1,1805,1744,0,0
588,-720,0,0,0,0,0,0,0,0,0,-1,1812,1744,0,0
595,-720,0,0,0,0,0,0,0,0,0,-1,1819,1744,0,0
602,-720,0,0,0,0,0,0,0,0,0,-1,1826,1744,0,0
609,-720,0,0,0,0,0,0,0,0,0,-1,1833,1744,0,0
616,-720,0,0,0,0,0,0,0,0,0,-1,1840,1744,0,0
623,-720,0,0,0,0,0,0,0,0,0,-1,1847,1744,0,0
630,-720,0,0,0,0,0,0,0,0,0,-1,1854,1744,0,0
637,-720,0,0,0,0,0,0,0,0,0,-1,1861,1744,0,0
644,-720,0,0,0,0,0,0,0,0,0,-1,1868,1744,0,0
651,-720,0,0,0,0,0,0,0,0,0,-1,1875,1744,0,0
658,-720,0,0,0,0,0,0,0,0,0,-1,1882,1744,0,0
665,-720,0,0,0,0,0,0,0,0,0,-1,1889,1744,0,0
672,-720,0,0,0,0,0,0,0,0,0,-1,1896,1744,0,0
679,-720,0,0,0,0,0,0,0,0,0,-1,1903,1744,0,0
686,-720,0,0,0,0,0,0,0,0,0,-1,1910,1744,0,0
693,-720,0,0,0,0,0,0,0,0,0,-1,1917,1744,0,0
700,-720,0,0,0,0,0,0,0,0,0,-1,1924,1744,0,0
707,-720,0,0,0,0,0,0,0,0,0,-1,1931,1744,0,0
714,-720,0,0,0,0,0,0,0,0,0,-1,1938,1744,0,0
721,-720,0,0,0,0,0,0,0,0,0,-1,1945,1744,0,0
728,-720,0,0,0,0,0,0,0,0,0,-1,1952,1744,0,0
735,-720,0,0,0,0,0,0,0,0,0,-1,1959,1744,0,0
742,-720,0,0,0,0,0,0,0,0,0,-1,1966,1744,0,0
749,-720,0,0,0,0,0,0,0,0,0,-1,1973,1744,0,0
756,-720,0,0,0,0,0,0,0,0,0,-1,1980,1744,0,0
763,-720,0,0,0,0,0,0,0,0,0,-1,1987,1744,0,0
770,-720,0,0,0,0,0,0,0,0,0,-1,1994,1744,0,0
777,-720,0,0,0,0,0,0,0,0,0,-1,2001,1744,0,0
784,-720,0,0,0,0,0,0,0,0,0,-1,2008,1744,0,0
791,-720,0,0,0,0,0,0,0,0,0,-1,2015,1744,0,0
798,-720,0,0,0,0,0,0,0,0,0,-1,2022,1744,0,0
805,-720,0,0,0,0,0,0,0,0,0,-1,2029,1744,0,0
812,-720,0,0,0,0,0,0,0,0,0,-1,2036,1744,0,0
-700,-727,0,0,0,0,0,0,0,0,0,-1,524,1751,0,0
-693,-727,0,0,0,0,0,0,0,0,0,-1,531,1751,0,0
-686,-727,0,0,0,0,0,0,0,0,0,-1,538,1751,0,0
-679,-727,0,0,0,0,0,0,0,0,0,-1,545,1751,0,0
-672,-727,0,0,0,0,0,0,0,0,0,-1,552,1751,0,0
-665,-727,0,0,0,0,0,0,0,0,0,-1,559,1751,0,0
-658,-727,0,0,0,0,0,0,0,0,0,-1,566,1751,0,0
-651,-727,0,0,0,0,0,0,0,0,0,-1,573,1751,0,0
-644,-727,0,0,0,0,0,0,0,0,0,-1,580,1751,0,0
-637,-727,0,0,0,0,0,0,0,0,0,-1,587,1751,0,0
-630,-727,0,0,0,0,0,0,0,0,0,-1,594,1751,0,0
-623,-727,0,0,0,0,0,0,0,0,0,-1,601,1751,0,0
-616,-727,0,0,0,0,0,0,0,0,0,-1,608,1751,0,0
-609,-727,0,0,0,0,0,0,0,0,0,-1,615,1751,0,0
-602,-727,0,0,0,0,0,0,0,0,0,-1,622,1751,0,0
-595,-727,0,0,0,0,0,0,0,0,0,-1,629,1751,0,0
-588,-727,0,0,0,0,0,0,0,0,0,-1,636,1751,0,0
-581,-727,0,0,0,0,0,0,0,0,0,-1,643,1751,0,0
-574,-727,0,0,0,0,0,0,0,0,0,-1,650,1751,0,0
-567,-727,0,0,0,0,0,0,0,0,0,-1,657,1751,0,0
-560,-727,0,0,0,0,0,0,0,0,0,-1,664,1751,0,0
-553,-727,0,0,0,0,0,0,0,0,0,-1,671,1751,0,0
-546,-727,0,0,0,0,0,0,0,0,0,-1,678,1751,0,0
-539,-727,0,0,0,0,0,0,0,0,0,-1,685,1751,0,0
-532,-727,0,0,0,0,0,0,0,0,0,-1,692,1751,0,0
-525,-727,0,0,0,0,0,0,0,0,0,-1,699,1751,0,0
-518,-727,0,0,0,0,0,0,0,0,0,-1,706,1751,0,0
-511,-727,0,0,0,0,0,0,0,0,0,-1,713,1751,0,0
-504,-727,0,0,0,0,0,0,0,0,0,-1,720,1751,0,0
-497,-727,0,0,0,0,0,0,0,0,0,-1,727,1751,0,0
-490,-727,0,0,0,0,0,0,0,0,0,-1,734,1751,0,0
-483,-727,0,0,0,0,0,0,0,0,0,-1,741,1751,0,0
-476,-727,0,0,0,0,0,0,0,0,0,-1,748,1751,0,0
-469,-727,0,0,0,0,0,0,0,0,0,-1,755,1751,0,0
-462,-727,0,0,0,0,0,0,0,0,0,-1,762,1751,0,0
-455,-727,0,0,0,0,0,0,0,0,0,-1,769,1751,0,0
-448,-727,0,0,0,0,0,0,0,0,0,-1,776,1751,0,0
-441,-727,0,0,0,0,0,0,0,0,0,-1,783,1751,0,0
-434,-727,0,0,0,0,0,0,0,0,0,-1,790,1751,0,0
-427,-727,0,0,0,0,0,0,0,0,0,-1,797,1751,0,0
-420,-727,0,0,0,0,0,0,0,0,0,-1,804,1751,0,0
-413,-727,0,0,0,0,0,0,0,0,0,-1,811,1751,0,0
-406,-727,0,0,0,0,0,0,0,0,0,-1,818,1751,0,0
-399,-727,0,0,0,0,0,0,0,0,0,-1,825,1751,0,0
-392,-727,0,0,0,0,0,0,0,0,0,-1,832,1751,0,0
-385,-727,0,0,0,0,0,0,0,0,0,-1,839,1751,0,0
-378,-727,0,0,0,0,0,0,0,0,0,-1,846,1751,0,0
-371,-727,0,0,0,0,0,0,0,0,0,-1,853,1751,0,0
-364,-727,0,0,0,0,0,0,0,0,0,-1,860,1751,0,0
-357,-727,0,0,0,0,0,0,0,0,0,-1,867,1751,0,0
-350,-727,0,0,0,0,0,0,0,0,0,-1,874,1751,0,0
-343,-727,0,0,0,0,0,0,0,0,0,-1,881,1751,0,0
-336,-727,0,0,0,0,0,0,0,0,0,-1,888,1751,0,0
-329,-727,0,0,0,0,0,0,0,0,0,-1,895,1751,0,0
-322,-727,0,0,0,0,0,0,0,0,0,-1,902,1751,0,0
-315,-727,0,0,0,0,0,0,0,0,0,-1,909,1751,0,0
-308,-727,0,0,0,0,0,0,0,0,0,-1,916,1751,0,0
-301,-727,0,0,0,0,0,0,0,0,0,-1,923,1751,0,0
-294,-727,0,0,0,0,0,0,0,0,0,-1,930,1751,0,0
-287,-727,0,0,0,0,0,0,0,0,0,-1,937,1751,0,0
-280,-727,0,0,0,0,0,0,0,0,0,-1,944,1751,0,0
-273,-727,0,0,0,0,0,0,0,0,0,-1,951,1751,0,0
-266,-727,4.24805,7.61145,0,0,0,0,0,0,0,-1,958,1751,4.24802,-7.6115
-259,-727,3.65228,5.4082,0,0,0,0,0,0,0,-1,965,1751,3.65229,-5.40818
-252,-727,5.8797,32.9292,0,0,0,0,0,0,0,-1,972,1751,5.87972,-32.9292
-245,-727,6.59198,32.2588,0,0,0,0,0,0,0,-1,979,1751,6.59195,-32.2587
-238,-727,6.6189,30.4597,0,0,0,0,0,0,0,-1,986,1751,6.61889,-30.4598
-231,-727,6.70105,28.9473,0,0,0,0,0,0,0,-1,993,1751,6.70103,-28.9472
-224,-727,7.0614,27.79,0,0,0,0,0,0,0,-1,1000,1751,7.06139,-27.79
-217,-727,9.07013,38.8207,0,0,0,0,0,0,0,-1,1007,1751,9.07015,-38.8207
-210,-727,5.0921,32.4524,0,0,0,0,0,0,0,-1,1014,1751,5.09209,-32.4523
-203,-727,9.05786,39.0233,0,0,0,0,0,0,0,-1,1021,1751,9.05789,-39.0233
-196,-727,8.6228,40.259,0,0,0,0,0,0,0,-1,1028,1751,8.6228,-40.2591
-189,-727,8.34546,41.1653,0,0,0,0,0,0,0,-1,1035,1751,8.3455,-41.1653
-182,-727,9.11218,41.3191,0,0,0,0,0,0,0,-1,1042,1751,9.11215,-41.3191
-175,-727,8.91479,41.4052,0.0112525,-0.0322914,0.00709403,0.0123791,-0.033418,0.157493,0.0273552,0.0448272,1049,1751,8.91477,-41.4052
-168,-727,9.29517,41.7913,0.010053,-0.0287722,0.00786059,0.011584,-0.0303032,0.192372,0.0249756,0.0451978,1056,1751,9.29512,-41.7912
-161,-727,8.86548,42.1864,0,0,0,0,0,0,0,-1,1063,1751,8.8655,-42.1864
-154,-727,9.20068,42.3585,0,0,0,0,0,0,0,-1,1070,1751,9.20067,-42.3585
-147,-727,9.19641,42.5259,0,0,0,0,0,0,0,-1,1077,1751,9.19642,-42.5258
-140,-727,8.94482,42.9163,0.00276142,-0.0116997,0.00779217,0.00616096,-0.0150992,0.411383,0.012631,0.0308173,1084,1751,8.94478,-42.9163
-133,-727,9.02295,43.2867,0.00121103,-0.00808661,0.00721684,0.00514675,-0.0120223,0.499268,0.0101741,0.0227979,1091,1751,9.02297,-43.2868
-126,-727,8.93787,43.6636,-0.000101571,-0.00492164,0.00659945,0.00451413,-0.00953734,0.610328,0.00828362,0.016721,1098,1751,8.93792,-43.6636
-119,-727,8.92505,44.0262,-0.00221875,-0.00169393,0.00582442,0.00387398,-0.00778666,0.80791,0.00685745,0.0131617,1105,1751,8.92506,-44.0262
-112,-727,8.91772,44.2874,-0.0026615,0.00113137,0.00538644,0.00494547,-0.0064756,0.95466,0.00661365,0.0135866,1112,1751,8.91773,-44.2874
-105,-727,8.84827,44.6019,-0.00229959,0.00203245,0.00477438,0.00510917,-0.00537632,0.998351,0.00605445,0.0140596,1119,1751,8.84823,-44.6019
-98,-727,8.85217,44.9008,-0.00235391,0.0038405,0.00403122,0.00582694,-0.00434034,1.11295,0.00589096,0.0123066,1126,1751,8.85216,-44.9007
-91,-727,8.84094,45.1505,-0.00203086,0.00399121,0.0037219,0.00576754,-0.00380719,1.1255,0.00556646,0.0117584,1133,1751,8.84091,-45.1506
-84,-727,8.79004,45.4064,-0.00182344,0.00365863,0.00333419,0.00523385,-0.00339867,1.12943,0.00502139,0.0118376,1140,1751,8.79,-45.4064
-77,-727,8.76501,45.6624,-0.00135506,0.00354982,0.00307175,0.00502804,-0.00283329,1.12228,0.00459732,0.0133352,1147,1751,8.76504,-45.6623
-70,-727,8.75757,45.9152,-0.00109244,0.00306534,0.00252903,0.00426025,-0.00228735,1.12941,0.00383704,0.0143447,1154,1751,8.75755,-45.9151
-63,-727,8.73218,46.1653,-0.00115756,0.00262182,0.00188773,0.00340317,-0.00193892,1.17836,0.00312263,0.0118389,1161,1751,8.73218,-46.1653
-56,-727,8.71216,46.3846,-0.00113847,0.00224474,0.0015521,0.0028489,-0.00174263,1.19959,0.00267645,0.0120046,1168,1751,8.71219,-46.3846
-49,-727,8.70898,46.5865,-0.000783279,0.00165279,0.00112599,0.0020935,-0.001224,1.19772,0.00193717,0.014022,1175,1751,8.70895,-46.5865
-42,-727,8.70386,46.7644,-0.000706794,0.00139929,0.000735948,0.00163098,-0.000938476,1.26581,0.00150133,0.0179156,1182,1751,8.70385,-46.7644
-35,-727,8.67175,46.927,-0.000632515,0.000735928,0.000472801,0.000883391,-0.000779978,1.26846,0.000960965,0.0164542,1189,1751,8.67181,-46.927
-28,-727,8.66772,47.0931,-0.000505081,6.36083e-05,0.000195687,0.000124438,-0.00056591,1.26941,0.000424871,0.00942287,1196,1751,8.66772,-47.0931
-21,-727,8.67017,47.2559,-0.000355152,-0.000282539,7.09422e-05,-0.000239153,-0.000398538,1.02191,0.000231627,0.0113369,1203,1751,8.67013,-47.2559
-14,-727,8.66064,47.4021,-0.000159612,-0.000422381,7.16488e-05,-0.000141345,-0.000440647,0.249628,0.000259799,0.0128621,1210,1751,8.66066,-47.4021
-7,-727,8.66113,47.5426,4.34002e-06,-0.00055592,8.88798e-05,1.81019e-05,-0.000569682,0.153617,0.000385963,0.0153364,1217,1751,8.66107,-47.5426
0,-727,8.66174,47.6757,0.000145518,-0.000397893,0.000234254,0.000232559,-0.000484933,0.355756,0.0004227,0.014446,1224,1751,8.66179,-47.6757
7,-727,8.66626,47.777,0.000261266,-0.000149964,0.000439893,0.000541226,-0.000429924,0.566775,0.00056192,0.0150241,1231,1751,8.66622,-47.7769
14,-727,8.67944,47.8615,0.000380896,0.000137681,0.000642779,0.00091347,-0.000394893,0.691908,0.000774909,0.0156568,1238,1751,8.67942,-47.8615
21,-727,8.66345,47.9529,0.000505112,0.000516864,0.000782881,0.00129389,-0.000271915,0.789151,0.000966074,0.0127466,1245,1751,8.6634,-47.9529
28,-727,8.66357,48.011,0.000602064,0.000821361,0.000883708,0.0016022,-0.000178772,0.847122,0.00113244,0.0110029,1252,1751,8.66361,-48.011
35,-727,8.6781,48.0699,0.000739329,0.00119311,0.000824473,0.00182134,0.000111097,0.919672,0.00117894,0.0119593,1259,1751,8.67813,-48.0699
42,-727,8.65674,48.1102,0.000819406,0.0014588,0.000689789,0.00189937,0.000378829,1.0024,0.00116076,0.0120501,1266,1751,8.65674,-48.1103
49,-727,8.65271,48.1306,0.000877647,0.00156233,0.000564846,0.00188048,0.000559497,1.05784,0.00111497,0.0106984,1273,1751,8.65267,-48.1307
56,-727,8.65051,48.1804,0.000863816,0.0015553,0.000441527,0.00177035,0.00064877,1.11756,0.00103419,0.00986388,1280,1751,8.65048,-48.1804
63,-727,8.66687,48.2015,0.000780107,0.00132654,0.000258825,0.00142967,0.000676975,1.19162,0.000825805,0.0126028,1287,1751,8.66683,-48.2016
70,-727,8.69324,48.1881,0.000648032,0.00114541,2.40215e-05,0.00114656,0.000646875,1.52265,0.000663785,0.0156929,1294,1751,8.69329,-48.188
77,-727,8.69128,48.1903,0.000491714,0.000756825,-0.000176729,0.000845186,0.000403353,-1.10716,0.000488137,0.0174809,1301,1751,8.69127,-48.1904
84,-727,8.70313,48.1135,0.000469328,0.00012598,-0.000190428,0.000554042,4.12666e-05,-0.418572,0.000356403,0.0156137,1308,1751,8.70307,-48.1135
91,-727,8.71741,48.0428,0.000562417,-0.000338161,-0.000261609,0.000632896,-0.00040864,-0.263158,0.000605959,0.0162729,1315,1751,8.71737,-48.0428
98,-727,8.67773,48.0361,0.000491205,-0.00080165,-0.000290674,0.000553551,-0.000863996,-0.211287,0.000824938,0.0141064,1322,1751,8.67774,-48.0361
105,-727,8.67932,48.0037,0.000476197,-0.00132936,-0.000267037,0.000514863,-0.00136802,-0.143797,0.00112367,0.0133915,1329,1751,8.67933,-48.0037
112,-727,8.70093,47.9292,0.00055743,-0.00177366,-0.00020768,0.000575788,-0.00179201,-0.088166,0.0014259,0.0115185,1336,1751,8.7009,-47.9291
119,-727,8.70166,47.8428,0.000624043,-0.00219187,-0.000139105,0.000630898,-0.00219872,-0.0492398,0.00171524,0.00957055,1343,1751,8.70167,-47.8428
126,-727,8.70764,47.7236,0.000736723,-0.00250482,-4.29228e-05,0.000737292,-0.00250539,-0.0132384,0.00196274,0.0109533,1350,1751,8.7076,-47.7236
133,-727,8.69678,47.6305,0.000867126,-0.00248574,2.20196e-06,0.000867128,-0.00248575,0.000656739,0.00200957,0.0154618,1357,1751,8.69678,-47.6305
140,-727,8.68787,47.5406,0.000917919,-0.00225505,4.06452e-05,0.000918439,-0.00225557,0.012807,0.00188594,0.0217823,1364,1751,8.68787,-47.5406
147,-727,8.6792,47.3846,0.000899918,-0.00185666,1.02109e-05,0.000899955,-0.0018567,0.00370411,0.00162319,0.017563,1371,1751,8.67915,-47.3846
154,-727,8.66504,47.1758,0.000753305,-0.00136091,-9.92764e-05,0.000757956,-0.00136556,-0.0468194,0.00124263,0.0110944,1378,1751,8.66506,-47.1758
161,-727,8.64453,47.0225,0.000580301,-0.00082223,-0.000260947,0.000627277,-0.000869207,-0.178117,0.000867751,0.0093343,1385,1751,8.64454,-47.0225
168,-727,8.61975,46.869,0.000373976,-0.000451416,-0.000377082,0.000520305,-0.000597745,-0.370168,0.000646022,0.0130673,1392,1751,8.61978,-46.869
175,-727,8.604,46.6776,0.000206622,-0.000178394,-0.000563244,0.000609348,-0.000581119,-0.62073,0.000687381,0.0195126,1399,1751,8.60401,-46.6777
182,-727,8.62219,46.4827,0.000185057,0.000116842,-0.000798592,0.00095027,-0.000648371,-0.764056,0.000928446,0.0201838,1406,1751,8.62222,-46.4827
189,-727,8.60803,46.2533,-0.000274035,0.000442685,-0.00131589,0.00144814,-0.00127949,-0.91834,0.0015758,0.0126503,1413,1751,8.60808,-46.2533
196,-727,8.59656,46.0439,-0.00142353,0.000775984,-0.00144984,0.00149598,-0.00214353,-1.10987,0.00211233,0.0140074,1420,1751,8.59658,-46.0439
203,-727,8.5824,45.8109,-0.00168389,0.00144619,-0.0015986,0.00211831,-0.00235601,-1.17279,0.00258446,0.0170326,1427,1751,8.58234,-45.8109
210,-727,8.56201,45.5758,-0.00155304,0.00206118,-0.00191122,0.00288436,-0.00237622,-1.1641,0.00304191,0.0167723,1434,1751,8.562,-45.5758
217,-727,8.52429,45.3328,-0.00164184,0.00215357,-0.00199419,0.0030087,-0.00249697,-1.1657,0.00318327,0.012396,1441,1751,8.52428,-45.3327
224,-727,8.50647,45.0411,-0.00256046,0.00149975,-0.00191631,0.00226135,-0.00332205,-1.19251,0.00324291,0.0121855,1448,1751,8.50643,-45.0412
231,-727,8.4967,44.7739,-0.00414651,0.000135146,-0.00138839,0.000545938,-0.0045573,-1.28313,0.00323557,0.00959468,1455,1751,8.49665,-44.774
238,-727,8.48132,44.4891,-0.00511191,-0.000771345,-0.00110672,-0.000505453,-0.00537781,-1.33501,0.00342916,0.0102457,1462,1751,8.48129,-44.4891
245,-727,8.44141,44.2321,-0.00621642,-0.00179633,-0.000893354,-0.0016226,-0.00639015,-1.37873,0.0038354,0.0100768,1469,1751,8.44142,-44.232
252,-727,8.40198,43.9407,-0.00762974,-0.00287208,-0.000527303,-0.00281434,-0.00768748,-1.46173,0.00449111,0.0110163,1476,1751,8.40203,-43.9406
259,-727,8.41162,43.6119,-0.00916127,-0.00421889,0.000134603,-0.00421522,-0.00916494,1.54359,0.00529704,0.0144257,1483,1751,8.41161,-43.6119
266,-727,8.40564,43.3495,-0.01057,-0.00559802,0.000667462,-0.00550998,-0.010658,1.43964,0.00615459,0.0188214,1490,1751,8.40564,-43.3494
273,-727,8.41797,43.0447,-0.0115965,-0.00599362,0.000697876,-0.005908,-0.0116821,1.44872,0.00674483,0.0317602,1497,1751,8.41795,-43.0447
280,-727,8.04346,42.7595,-0.012593,-0.00618036,0.000707582,-0.00610322,-0.0126702,1.4622,0.00731677,0.0492505,1504,1751,8.04343,-42.7595
287,-727,8.1416,42.2537,0,0,0,0,0,0,0,-1,1511,1751,8.14161,-42.2537
294,-727,8.35681,41.6813,0,0,0,0,0,0,0,-1,1518,1751,8.35683,-41.6812
301,-727,8.04053,41.4275,0,0,0,0,0,0,0,-1,1525,1751,8.0405,-41.4275
308,-727,7.81348,41.4452,0,0,0,0,0,0,0,-1,1532,1751,7.81345,-41.4452
315,-727,8.10571,41.24,0,0,0,0,0,0,0,-1,1539,1751,8.10567,-41.2399
322,-727,8.24133,40.2081,0,0,0,0,0,0,0,-1,1546,1751,8.24136,-40.2082
329,-727,5.54419,31.0325,0,0,0,0,0,0,0,-1,1553,1751,5.54425,-31.0325
336,-727,5.55823,20.2439,0,0,0,0,0,0,0,-1,1560,1751,5.55829,-20.2438
343,-727,2.41699,8.72095,0,0,0,0,0,0,0,-1,1567,1751,2.41702,-8.72098
350,-727,3.89783,7.50195,0,0,0,0,0,0,0,-1,1574,1751,3.89782,-7.50193
357,-727,4.48462,10.2948,0,0,0,0,0,0,0,-1,1581,1751,4.48464,-10.2948
364,-727,6.96729,17.2365,0,0,0,0,0,0,0,-1,1588,1751,6.96732,-17.2365
371,-727,5.04565,23.2227,0,0,0,0,0,0,0,-1,1595,1751,5.04564,-23.2227
378,-727,4.56726,23.0574,0,0,0,0,0,0,0,-1,1602,1751,4.56727,-23.0574
385,-727,3.52307,22.6431,0,0,0,0,0,0,0,-1,1609,1751,3.52303,-22.643
392,-727,0,0,0,0,0,0,0,0,0,-1,1616,1751,0,0
399,-727,0,0,0,0,0,0,0,0,0,-1,1623,1751,0,0
406,-727,0,0,0,0,0,0,0,0,0,-1,1630,1751,0,0
413,-727,0,0,0,0,0,0,0,0,0,-1,1637,1751,0,0
420,-727,0,0,0,0,0,0,0,0,0,-1,1644,1751,0,0
427,-727,0,0,0,0,0,0,0,0,0,-1,1651,1751,0,0
434,-727,0,0,0,0,0,0,0,0,0,-1,1658,1751,0,0
441,-727,0,0,0,0,0,0,0,0,0,-1,1665,1751,0,0
448,-727,0,0,0,0,0,0,0,0,0,-1,1672,1751,0,0
455,-727,0,0,0,0,0,0,0,0,0,-1,1679,1751,0,0
462,-727,0,0,0,0,0,0,0,0,0,-1,1686,1751,0,0
469,-727,0,0,0,0,0,0,0,0,0,-1,1693,1751,0,0
476,-727,0,0,0,0,0,0,0,0,0,-1,1700,1751,0,0
483,-727,0,0,0,0,0,0,0,0,0,-1,1707,1751,0,0
490,-727,0,0,0,0,0,0,0,0,0,-1,1714,1751,0,0
497,-727,0,0,0,0,0,0,0,0,0,-1,1721,1751,0,0
504,-727,0,0,0,0,0,0,0,0,0,-1,1728,1751,0,0
511,-727,0,0,0,0,0,0,0,0,0,-1,1735,1751,0,0
518,-727,0,0,0,0,0,0,0,0,0,-1,1742,1751,0,0
525,-727,0,0,0,0,0,0,0,0,0,-1,1749,1751,0,0
532,-727,0,0,0,0,0,0,0,0,0,-1,1756,1751,0,0
539,-727,0,0,0,0,0,0,0,0,0,-1,1763,1751,0,0
546,-727,0,0,0,0,0,0,0,0,0,-1,1770,1751,0,0
553,-727,0,0,0,0,0,0,0,0,0,-1,1777,1751,0,0
560,-727,0,0,0,0,0,0,0,0,0,-1,1784,1751,0,0
567,-727,0,0,0,0,0,0,0,0,0,-1,1791,1751,0,0
574,-727,0,0,0,0,0,0,0,0,0,-1,1798,1751,0,0
581,-727,0,0,0,0,0,0,0,0,0,-1,1805,1751,0,0
588,-727,0,0,0,0,0,0,0,0,0,-1,1812,1751,0,0
595,-727,0,0,0,0,0,0,0,0,0,-1,1819,1751,0,0
602,-727,0,0,0,0,0,0,0,0,0,-1,1826,1751,0,0
609,-727,0,0,0,0,0,0,0,0,0,-1,1833,1751,0,0
616,-727,0,0,0,0,0,0,0,0,0,-1,1840,1751,0,0
623,-727,0,0,0,0,0,0,0,0,0,-1,1847,1751,0,0
630,-727,0,0,0,0,0,0,0,0,0,-1,1854,1751,0,0
637,-727,0,0,0,0,0,0,0,0,0,-1,1861,1751,0,0
644,-727,0,0,0,0,0,0,0,0,0,-1,1868,1751,0,0
651,-727,0,0,0,0,0,0,0,0,0,-1,1875,1751,0,0
658,-727,0,0,0,0,0,0,0,0,0,-1,1882,1751,0,0
665,-727,0,0,0,0,0,0,0,0,0,-1,1889,1751,0,0
672,-727,0,0,0,0,0,0,0,0,0,-1,1896,1751,0,0
679,-727,0,0,0,0,0,0,0,0,0,-1,1903,1751,0,0
686,-727,0,0,0,0,0,0,0,0,0,-1,1910,1751,0,0
693,-727,0,0,0,0,0,0,0,0,0,-1,1917,1751,0,0
700,-727,0,0,0,0,0,0,0,0,0,-1,1924,1751,0,0
707,-727,0,0,0,0,0,0,0,0,0,-1,1931,1751,0,0
714,-727,0,0,0,0,0,0,0,0,0,-1,1938,1751,0,0
721,-727,0,0,0,0,0,0,0,0,0,-1,1945,1751,0,0
728,-727,0,0,0,0,0,0,0,0,0,-1,1952,1751,0,0
735,-727,0,0,0,0,0,0,0,0,0,-1,1959,1751,0,0
742,-727,0,0,0,0,0,0,0,0,0,-1,1966,1751,0,0
749,-727,0,0,0,0,0,0,0,0,0,-1,1973,1751,0,0
756,-727,0,0,0,0,0,0,0,0,0,-1,1980,1751,0,0
763,-727,0,0,0,0,0,0,0,0,0,-1,1987,1751,0,0
770,-727,0,0,0,0,0,0,0,0,0,-1,1994,1751,0,0
777,-727,0,0,0,0,0,0,0,0,0,-1,2001,1751,0,0
784,-727,0,0,0,0,0,0,0,0,0,-1,2008,1751,0,0
791,-727,0,0,0,0,0,0,0,0,0,-1,2015,1751,0,0
798,-727,0,0,0,0,0,0,0,0,0,-1,2022,1751,0,0
805,-727,0,0,0,0,0,0,0,0,0,-1,2029,1751,0,0
812,-727,0,0,0,0,0,0,0,0,0,-1,2036,1751,0,0
-700,-734,0,0,0,0,0,0,0,0,0,-1,524,1758,0,0
-693,-734,0,0,0,0,0,0,0,0,0,-1,531,1758,0,0
-686,-734,0,0,0,0,0,0,0,0,0,-1,538,1758,0,0
-679,-734,0,0,0,0,0,0,0,0,0,-1,545,1758,0,0
-672,-734,0,0,0,0,0,0,0,0,0,-1,552,1758,0,0
-665,-734,0,0,0,0,0,0,0,0,0,-1,559,1758,0,0
-658,-734,0,0,0,0,0,0,0,0,0,-1,566,1758,0,0
-651,-734,0,0,0,0,0,0,0,0,0,-1,573,1758,0,0
-644,-734,0,0,0,0,0,0,0,0,0,-1,580,1758,0,0
-637,-734,0,0,0,0,0,0,0,0,0,-1,587,1758,0,0
-630,-734,0,0,0,0,0,0,0,0,0,-1,594,1758,0,0
-623,-734,0,0,0,0,0,0,0,0,0,-1,601,1758,0,0
-616,-734,0,0,0,0,0,0,0,0,0,-1,608,1758,0,0
-609,-734,0,0,0,0,0,0,0,0,0,-1,615,1758,0,0
-602,-734,0,0,0,0,0,0,0,0,0,-1,622,1758,0,0
-595,-734,0,0,0,0,0,0,0,0,0,-1,629,1758,0,0
-588,-734,0,0,0,0,0,0,0,0,0,-1,636,1758,0,0
-581,-734,0,0,0,0,0,0,0,0,0,-1,643,1758,0,0
-574,-734,0,0,0,0,0,0,0,0,0,-1,650,1758,0,0
-567,-734,0,0,0,0,0,0,0,0,0,-1,657,1758,0,0
-560,-734,0,0,0,0,0,0,0,0,0,-1,664,1758,0,0
-553,-734,0,0,0,0,0,0,0,0,0,-1,671,1758,0,0
-546,-734,0,0,0,0,0,0,0,0,0,-1,678,1758,0,0
-539,-734,0,0,0,0,0,0,0,0,0,-1,685,1758,0,0
-532,-734,0,0,0,0,0,0,0,0,0,-1,692,1758,0,0
-525,-734,0,0,0,0,0,0,0,0,0,-1,699,1758,0,0
-518,-734,0,0,0,0,0,0,0,0,0,-1,706,1758,0,0
-511,-734,0,0,0,0,0,0,0,0,0,-1,713,1758,0,0
-504,-734,0,0,0,0,0,0,0,0,0,-1,720,1758,0,0
-497,-734,0,0,0,0,0,0,0,0,0,-1,727,1758,0,0
-490,-734,0,0,0,0,0,0,0,0,0,-1,734,1758,0,0
-483,-734,0,0,0,0,0,0,0,0,0,-1,741,1758,0,0
-476,-734,0,0,0,0,0,0,0,0,0,-1,748,1758,0,0
-469,-734,0,0,0,0,0,0,0,0,0,-1,755,1758,0,0
-462,-734,0,0,0,0,0,0,0,0,0,-1,762,1758,0,0
-455,-734,0,0,0,0,0,0,0,0,0,-1,769,1758,0,0
-448,-734,0,0,0,0,0,0,0,0,0,-1,776,1758,0,0
-441,-734,0,0,0,0,0,0,0,0,0,-1,783,1758,0,0
-434,-734,0,0,0,0,0,0,0,0,0,-1,790,1758,0,0
-427,-734,0,0,0,0,0,0,0,0,0,-1,797,1758,0,0
-420,-734,0,0,0,0,0,0,0,0,0,-1,804,1758,0,0
-413,-734,0,0,0,0,0,0,0,0,0,-1,811,1758,0,0
-406,-734,0,0,0,0,0,0,0,0,0,-1,818,1758,0,0
-399,-734,0,0,0,0,0,0,0,0,0,-1,825,1758,0,0
-392,-734,0,0,0,0,0,0,0,0,0,-1,832,1758,0,0
-385,-734,0,0,0,0,0,0,0,0,0,-1,839,1758,0,0
-378,-734,0,0,0,0,0,0,0,0,0,-1,846,1758,0,0
-371,-734,0,0,0,0,0,0,0,0,0,-1,853,1758,0,0
-364,-734,0,0,0,0,0,0,0,0,0,-1,860,1758,0,0
-357,-734,0,0,0,0,0,0,0,0,0,-1,867,1758,0,0
-350,-734,0,0,0,0,0,0,0,0,0,-1,874,1758,0,0
-343,-734,0,0,0,0,0,0,0,0,0,-1,881,1758,0,0
-336,-734,0,0,0,0,0,0,0,0,0,-1,888,1758,0,0
-329,-734,0,0,0,0,0,0,0,0,0,-1,895,1758,0,0
-322,-734,0,0,0,0,0,0,0,0,0,-1,902,1758,0,0
-315,-734,0,0,0,0,0,0,0,0,0,-1,909,1758,0,0
-308,-734,0,0,0,0,0,0,0,0,0,-1,916,1758,0,0
-301,-734,0,0,0,0,0,0,0,0,0,-1,923,1758,0,0
-294,-734,0,0,0,0,0,0,0,0,0,-1,930,1758,0,0
-287,-734,0,0,0,0,0,0,0,0,0,-1,937,1758,0,0
-280,-734,0,0,0,0,0,0,0,0,0,-1,944,1758,0,0
-273,-734,0,0,0,0,0,0,0,0,0,-1,951,1758,0,0
-266,-734,0,0,0,0,0,0,0,0,0,-1,958,1758,0,0
-259,-734,0,0,0,0,0,0,0,0,0,-1,965,1758,0,0
-252,-734,5.73883,31.5245,0,0,0,0,0,0,0,-1,972,1758,5.73884,-31.5246
-245,-734,6.32513,30.9761,0,0,0,0,0,0,0,-1,979,1758,6.32511,-30.9761
-238,-734,6.82385,30.0449,0,0,0,0,0,0,0,-1,986,1758,6.82387,-30.0449
-231,-734,7.1958,29.1666,0,0,0,0,0,0,0,-1,993,1758,7.19578,-29.1666
-224,-734,7.36169,28.5652,0,0,0,0,0,0,0,-1,1000,1758,7.36172,-28.5651
-217,-734,7.45984,28.4386,0,0,0,0,0,0,0,-1,1007,1758,7.45986,-28.4386
-210,-734,7.45483,28.4388,0,0,0,0,0,0,0,-1,1014,1758,7.45482,-28.4388
-203,-734,7.93079,29.6151,0,0,0,0,0,0,0,-1,1021,1758,7.93076,-29.6151
-196,-734,8.15393,41.4897,0,0,0,0,0,0,0,-1,1028,1758,8.15399,-41.4897
-189,-734,7.98987,41.894,0,0,0,0,0,0,0,-1,1035,1758,7.98988,-41.8941
-182,-734,8.96301,41.735,0,0,0,0,0,0,0,-1,1042,1758,8.96307,-41.735
-175,-734,9.18481,41.9266,0.0194053,-0.046371,0.00993197,0.0208723,-0.047838,0.146642,0.0406755,0.0449184,1049,1758,9.18478,-41.9266
-168,-734,9.70752,42.3651,0.0170306,-0.041192,0.0109891,0.0190357,-0.0431971,0.180474,0.0368217,0.0438028,1056,1758,9.70748,-42.3651
-161,-734,9.23169,43.0876,0,0,0,0,0,0,0,-1,1063,1758,9.23164,-43.0877
-154,-734,8.95422,43.6248,0.0107152,-0.028685,0.0114406,0.0137963,-0.0317661,0.263068,0.0269788,0.0474224,1070,1758,8.9542,-43.6248
-147,-734,9.09302,44.1703,0,0,0,0,0,0,0,-1,1077,1758,9.09301,-44.1703
-140,-734,9.13953,44.51,0,0,0,0,0,0,0,-1,1084,1758,9.13956,-44.51
-133,-734,9.26331,43.3732,0.00223376,-0.0112984,0.00989071,0.00745125,-0.0165159,0.485415,0.0141635,0.0434828,1091,1758,9.26329,-43.3732
-126,-734,9.06592,43.5718,0.000239423,-0.00679,0.00907701,0.00645843,-0.013009,0.600682,0.0114497,0.0404816,1098,1758,9.06591,-43.5717
-119,-734,8.95142,44.0068,-0.00272613,-0.00230259,0.0080812,0.00556962,-0.0105983,0.798498,0.00948388,0.0423849,1105,1758,8.95144,-44.0069
-112,-734,9.13049,44.2841,-0.00345333,0.00168967,0.00751037,0.00705658,-0.00882024,0.950339,0.00918532,0.038292,1112,1758,9.13048,-44.2841
-105,-734,9.10059,44.5308,-0.00311335,0.00301857,0.00673184,0.00734976,-0.00744454,0.999083,0.00854155,0.0416374,1119,1758,9.10062,-44.5308
-98,-734,9.08435,44.6057,0,0,0,0,0,0,0,-1,1126,1758,9.08437,-44.6057
-91,-734,9.11072,45.1437,0,0,0,0,0,0,0,-1,1133,1758,9.11074,-45.1437
-84,-734,9.03113,45.3733,0,0,0,0,0,0,0,-1,1140,1758,9.03116,-45.3733
-77,-734,8.99878,45.6622,0,0,0,0,0,0,0,-1,1147,1758,8.99881,-45.6622
-70,-734,9.01025,45.9261,0,0,0,0,0,0,0,-1,1154,1758,9.01021,-45.9262
-63,-734,8.86157,45.9436,-0.00223668,0.0033263,0.00262837,0.00437169,-0.00328208,1.19225,0.00443381,0.035403,1161,1758,8.86153,-45.9436
-56,-734,8.89722,46.322,-0.00237027,0.00281015,0.0021966,0.00361615,-0.00317627,1.21912,0.00392434,0.0181274,1168,1758,8.89723,-46.3221
-49,-734,8.88354,46.5739,-0.00142676,0.00200033,0.00119047,0.00237327,-0.00179971,1.2672,0.00241685,0.013538,1175,1758,8.88358,-46.5739
-42,-734,8.87671,46.7823,-0.00107266,0.00172673,0.000418835,0.00178805,-0.00113398,1.42542,0.00170106,0.0145028,1182,1758,8.87672,-46.7824
-35,-734,8.85425,46.9402,-0.00109186,0.000662824,-1.2612e-05,0.000662915,-0.00109195,-1.56361,0.00102321,0.0148771,1189,1758,8.85421,-46.9402
-28,-734,8.84741,47.0944,-0.00116571,-0.000612294,-0.000458812,-0.000353208,-0.0014248,-1.05675,0.000856753,0.0102879,1196,1758,8.84739,-47.0944
-21,-734,8.87939,47.2537,-0.001139,-0.00149285,-0.000651475,-0.000640855,-0.001991,-0.65281,0.00117357,0.016252,1203,1758,8.87935,-47.2537
-14,-734,8.81763,47.4348,-0.00102426,-0.00213727,-0.000670894,-0.000709099,-0.00245243,-0.439161,0.00145728,0.0161143,1210,1758,8.81757,-47.4348
-7,-734,8.80151,47.5579,-0.000954167,-0.00276039,-0.000684299,-0.000724197,-0.00299036,-0.324209,0.00180137,0.016974,1217,1758,8.80146,-47.5579
0,-734,8.77576,47.6656,-0.000877834,-0.00308134,-0.000521882,-0.00076048,-0.00319869,-0.221187,0.00192958,0.0168782,1224,1758,8.77573,-47.6656
7,-734,8.75,47.7793,-0.00083274,-0.00320404,-0.000246566,-0.000807374,-0.00322941,-0.102518,0.00194063,0.013605,1231,1758,8.74994,-47.7793
14,-734,8.73523,47.8738,-0.000749515,-0.00309626,6.43869e-05,-0.000747749,-0.00309802,0.0274092,0.0018667,0.0150522,1238,1758,8.73523,-47.8738
21,-734,8.70483,47.9501,-0.000592347,-0.0025657,0.000316193,-0.000542921,-0.00261512,0.155062,0.00159357,0.0126025,1245,1758,8.70483,-47.95
28,-734,8.71411,48.0225,-0.000427174,-0.00177353,0.000566594,-0.000220467,-0.00198024,0.34982,0.00125315,0.0111165,1252,1758,8.71417,-48.0224
35,-734,8.72156,48.092,-0.000176435,-0.000979826,0.000686486,0.000217245,-0.00137351,0.520685,0.000996014,0.0138097,1259,1758,8.72151,-48.092
42,-734,8.72009,48.1266,2.67017e-05,-0.000100338,0.000749821,0.000715689,-0.000789325,0.743142,0.000869267,0.0112508,1266,1758,8.72014,-48.1266
49,-734,8.68213,48.163,0.000248592,0.000726027,0.000808833,0.00133063,-0.000356016,0.928894,0.00102655,0.00964335,1273,1758,8.68209,-48.163
56,-734,8.65979,48.1997,0.000294753,0.00143208,0.000930105,0.00195359,-0.000226756,1.05978,0.00138418,0.00935873,1280,1758,8.65981,-48.1997
63,-734,8.67383,48.1943,0.000244469,0.00192054,0.000904776,0.00231576,-0.000150753,1.15896,0.00159647,0.0124342,1287,1758,8.67383,-48.1943
70,-734,8.66687,48.1903,8.4577e-05,0.00242725,0.00078603,0.00266654,-0.000154715,1.27528,0.00183145,0.0140728,1294,1758,8.66683,-48.1903
77,-734,8.65515,48.21,-0.000270861,0.00262829,0.000706156,0.00279115,-0.000433714,1.34414,0.00202091,0.0184975,1301,1758,8.65518,-48.2099
84,-734,8.6488,48.141,-0.000522599,0.00233989,0.000779371,0.00253833,-0.000721041,1.32148,0.0019769,0.0158643,1308,1758,8.64882,-48.141
91,-734,8.63342,48.0975,-0.000626391,0.00192968,0.000680829,0.00209971,-0.000796424,1.32606,0.0017276,0.0176468,1315,1758,8.63345,-48.0975
98,-734,8.64844,48.0667,-0.000950302,0.00130899,0.000626107,0.0014709,-0.00111221,1.31775,0.00149614,0.0141161,1322,1758,8.64842,-48.0667
105,-734,8.65649,47.9995,-0.00126397,0.000588117,0.000613295,0.000772788,-0.00144865,1.27832,0.00130218,0.0152927,1329,1758,8.65649,-47.9995
112,-734,8.64917,47.9028,-0.00143416,-0.000145796,0.000586749,8.13677e-05,-0.00166133,1.20141,0.00113565,0.0134349,1336,1758,8.64917,-47.9029
119,-734,8.60156,47.8047,-0.00155937,-0.000898754,0.000545719,-0.000591166,-0.00186696,1.05754,0.00110178,0.0148646,1343,1758,8.60155,-47.8047
126,-734,8.60803,47.6915,-0.00156401,-0.00165031,0.000525467,-0.00107992,-0.00213439,0.74443,0.00123232,0.0167023,1350,1758,8.60808,-47.6916
133,-734,8.58142,47.5779,-0.00139704,-0.00204556,0.000415633,-0.00119414,-0.00224845,0.454138,0.00129898,0.0148611,1357,1758,8.58148,-47.5778
140,-734,8.54846,47.4795,-0.00120463,-0.00193275,0.000317883,-0.00108538,-0.002052,0.358894,0.00118538,0.0196661,1364,1758,8.54844,-47.4795
147,-734,8.53479,47.3362,-0.000948309,-0.00173389,0.000172966,-0.000911912,-0.00177029,0.207401,0.00102223,0.0138204,1371,1758,8.53477,-47.3362
154,-734,8.51831,47.2008,-0.000806961,-0.00146986,-3.93236e-05,-0.000804637,-0.00147218,-0.059045,0.000851192,0.00973647,1378,1758,8.51834,-47.2008
161,-734,8.49329,47.0391,-0.000632521,-0.00110003,-0.00032892,-0.000462754,-0.00126979,-0.476474,0.000742044,0.00899559,1385,1758,8.49326,-47.039
168,-734,8.4519,46.8656,-0.00047252,-0.000952296,-0.00051108,-0.000147829,-0.00127699,-0.565974,0.000806577,0.0147965,1392,1758,8.4519,-46.8656
175,-734,8.44751,46.6868,-0.000204938,-0.000775047,-0.000821041,0.000379124,-0.00135911,-0.618315,0.0010554,0.0190462,1399,1758,8.44751,-46.6868
182,-734,8.47144,46.4607,0.0003487,-0.000524892,-0.00118988,0.00117943,-0.00135562,-0.609488,0.00146479,0.0157776,1406,1758,8.47143,-46.4607
189,-734,8.40625,46.2439,-0.000303232,0.000156969,-0.00201221,0.00195219,-0.00209846,-0.842327,0.00233915,0.01172,1413,1758,8.40626,-46.2439
196,-734,8.36414,46.051,-0.0025809,0.000845619,-0.00204395,0.00179938,-0.00353466,-1.1342,0.00313346,0.0147751,1420,1758,8.36411,-46.051
203,-734,8.38281,45.7976,-0.00295678,0.00184457,-0.00220884,0.00270613,-0.00381835,-1.19889,0.00378511,0.0211955,1427,1758,8.38284,-45.7976
210,-734,8.38831,45.5327,-0.00259456,0.00279414,-0.002675,0.00389652,-0.00369694,-1.1799,0.00438459,0.0350147,1434,1758,8.38836,-45.5327
217,-734,8.32214,45.2894,0,0,0,0,0,0,0,-1,1441,1758,8.32212,-45.2894
224,-734,8.28394,45.0787,0,0,0,0,0,0,0,-1,1448,1758,8.28393,-45.0787
231,-734,8.23938,44.7577,0,0,0,0,0,0,0,-1,1455,1758,8.23941,-44.7577
238,-734,8.21704,44.4448,0,0,0,0,0,0,0,-1,1462,1758,8.21703,-44.4449
245,-734,8.2627,44.0901,-0.00860244,-0.00258802,-0.00104102,-0.00241293,-0.00877753,-1.40417,0.0052361,0.0369637,1469,1758,8.26269,-44.0901
252,-734,8.20935,43.8308,-0.0105032,-0.0042497,-0.000479457,-0.00421316,-0.0105397,-1.49472,0.00612576,0.0335088,1476,1758,8.20933,-43.8308
259,-734,8.24414,43.631,-0.0126086,-0.00629299,0.000464987,-0.00625894,-0.0126426,1.4977,0.00729935,0.0358851,1483,1758,8.24411,-43.631
266,-734,8.20691,43.4761,-0.0146247,-0.00843035,0.0013199,-0.00816083,-0.0148942,1.36937,0.00861232,0.0424133,1490,1758,8.20696,-43.4761
273,-734,8.10693,43.3853,-0.0162024,-0.00948818,0.00163122,-0.00911285,-0.0165777,1.34464,0.00958688,0.0472687,1497,1758,8.10689,-43.3853
280,-734,7.48645,43.2478,-0.0177075,-0.0101783,0.00188295,-0.00973369,-0.0181521,1.3389,0.0104893,0.048892,1504,1758,7.48643,-43.2479
287,-734,7.25867,43.0227,0,0,0,0,0,0,0,-1,1511,1758,7.25868,-43.0228
294,-734,7.31262,42.9679,0,0,0,0,0,0,0,-1,1518,1758,7.31266,-42.9679
301,-734,7.21814,42.6078,0,0,0,0,0,0,0,-1,1525,1758,7.21809,-42.6078
308,-734,8.0509,41.5156,0,0,0,0,0,0,0,-1,1532,1758,8.05087,-41.5157
315,-734,7.93787,40.8274,0,0,0,0,0,0,0,-1,1539,1758,7.93784,-40.8273
322,-734,7.82483,40.139,0,0,0,0,0,0,0,-1,1546,1758,7.82481,-40.139
329,-734,5.73267,19.656,0,0,0,0,0,0,0,-1,1553,1758,5.73262,-19.656
336,-734,6.71375,23.7469,0,0,0,0,0,0,0,-1,1560,1758,6.71372,-23.7469
343,-734,5.54968,5.14221,0,0,0,0,0,0,0,-1,1567,1758,5.54973,-5.14225
350,-734,5.07397,6.73242,0,0,0,0,0,0,0,-1,1574,1758,5.07402,-6.73243
357,-734,5.05542,7.19189,0,0,0,0,0,0,0,-1,1581,1758,5.05541,-7.19184
364,-734,4.43896,10.4904,0,0,0,0,0,0,0,-1,1588,1758,4.43893,-10.4904
371,-734,7.36975,17.4751,0,0,0,0,0,0,0,-1,1595,1758,7.36972,-17.4752
378,-734,0,0,0,0,0,0,0,0,0,-1,1602,1758,0,0
385,-734,0,0,0,0,0,0,0,0,0,-1,1609,1758,0,0
392,-734,0,0,0,0,0,0,0,0,0,-1,1616,1758,0,0
399,-734,0,0,0,0,0,0,0,0,0,-1,1623,1758,0,0
406,-734,0,0,0,0,0,0,0,0,0,-1,1630,1758,0,0
413,-734,0,0,0,0,0,0,0,0,0,-1,1637,1758,0,0
420,-734,0,0,0,0,0,0,0,0,0,-1,1644,1758,0,0
427,-734,0,0,0,0,0,0,0,0,0,-1,1651,1758,0,0
434,-734,0,0,0,0,0,0,0,0,0,-1,1658,1758,0,0
441,-734,0,0,0,0,0,0,0,0,0,-1,1665,1758,0,0
448,-734,0,0,0,0,0,0,0,0,0,-1,1672,1758,0,0
455,-734,0,0,0,0,0,0,0,0,0,-1,1679,1758,0,0
462,-734,0,0,0,0,0,0,0,0,0,-1,1686,1758,0,0
469,-734,0,0,0,0,0,0,0,0,0,-1,1693,1758,0,0
476,-734,0,0,0,0,0,0,0,0,0,-1,1700,1758,0,0
483,-734,0,0,0,0,0,0,0,0,0,-1,1707,1758,0,0
490,-734,0,0,0,0,0,0,0,0,0,-1,1714,1758,0,0
497,-734,0,0,0,0,0,0,0,0,0,-1,1721,1758,0,0
504,-734,0,0,0,0,0,0,0,0,0,-1,1728,1758,0,0
511,-734,0,0,0,0,0,0,0,0,0,-1,1735,1758,0,0
518,-734,0,0,0,0,0,0,0,0,0,-1,1742,1758,0,0
525,-734,0,0,0,0,0,0,0,0,0,-1,1749,1758,0,0
532,-734,0,0,0,0,0,0,0,0,0,-1,1756,1758,0,0
539,-734,0,0,0,0,0,0,0,0,0,-1,1763,1758,0,0
546,-734,0,0,0,0,0,0,0,0,0,-1,1770,1758,0,0
553,-734,0,0,0,0,0,0,0,0,0,-1,1777,1758,0,0
560,-734,0,0,0,0,0,0,0,0,0,-1,1784,1758,0,0
567,-734,0,0,0,0,0,0,0,0,0,-1,1791,1758,0,0
574,-734,0,0,0,0,0,0,0,0,0,-1,1798,1758,0,0
581,-734,0,0,0,0,0,0,0,0,0,-1,1805,1758,0,0
588,-734,0,0,0,0,0,0,0,0,0,-1,1812,1758,0,0
595,-734,0,0,0,0,0,0,0,0,0,-1,1819,1758,0,0
602,-734,0,0,0,0,0,0,0,0,0,-1,1826,1758,0,0
609,-734,0,0,0,0,0,0,0,0,0,-1,1833,1758,0,0
616,-734,0,0,0,0,0,0,0,0,0,-1,1840,1758,0,0
623,-734,0,0,0,0,0,0,0,0,0,-1,1847,1758,0,0
630,-734,0,0,0,0,0,0,0,0,0,-1,1854,1758,0,0
637,-734,0,0,0,0,0,0,0,0,0,-1,1861,1758,0,0
644,-734,0,0,0,0,0,0,0,0,0,-1,1868,1758,0,0
651,-734,0,0,0,0,0,0,0,0,0,-1,1875,1758,0,0
658,-734,0,0,0,0,0,0,0,0,0,-1,1882,1758,0,0
665,-734,0,0,0,0,0,0,0,0,0,-1,1889,1758,0,0
672,-734,0,0,0,0,0,0,0,0,0,-1,1896,1758,0,0
679,-734,0,0,0,0,0,0,0,0,0,-1,1903,1758,0,0
686,-734,0,0,0,0,0,0,0,0,0,-1,1910,1758,0,0
693,-734,0,0,0,0,0,0,0,0,0,-1,1917,1758,0,0
700,-734,0,0,0,0,0,0,0,0,0,-1,1924,1758,0,0
707,-734,0,0,0,0,0,0,0,0,0,-1,1931,1758,0,0
714,-734,0,0,0,0,0,0,0,0,0,-1,1938,1758,0,0
721,-734,0,0,0,0,0,0,0,0,0,-1,1945,1758,0,0
728,-734,0,0,0,0,0,0,0,0,0,-1,1952,1758,0,0
735,-734,0,0,0,0,0,0,0,0,0,-1,1959,1758,0,0
742,-734,0,0,0,0,0,0,0,0,0,-1,1966,1758,0,0
749,-734,0,0,0,0,0,0,0,0,0,-1,1973,1758,0,0
756,-734,0,0,0,0,0,0,0,0,0,-1,1980,1758,0,0
763,-734,0,0,0,0,0,0,0,0,0,-1,1987,1758,0,0
770,-734,0,0,0,0,0,0,0,0,0,-1,1994,1758,0,0
777,-734,0,0,0,0,0,0,0,0,0,-1,2001,1758,0,0
784,-734,0,0,0,0,0,0,0,0,0,-1,2008,1758,0,0
791,-734,0,0,0,0,0,0,0,0,0,-1,2015,1758,0,0
798,-734,0,0,0,0,0,0,0,0,0,-1,2022,1758,0,0
805,-734,0,0,0,0,0,0,0,0,0,-1,2029,1758,0,0
812,-734,0,0,0,0,0,0,0,0,0,-1,2036,1758,0,0
-700,-741,0,0,0,0,0,0,0,0,0,-1,524,1765,0,0
-693,-741,0,0,0,0,0,0,0,0,0,-1,531,1765,0,0
-686,-741,0,0,0,0,0,0,0,0,0,-1,538,1765,0,0
-679,-741,0,0,0,0,0,0,0,0,0,-1,545,1765,0,0
-672,-741,0,0,0,0,0,0,0,0,0,-1,552,1765,0,0
-665,-741,0,0,0,0,0,0,0,0,0,-1,559,1765,0,0
-658,-741,0,0,0,0,0,0,0,0,0,-1,566,1765,0,0
-651,-741,0,0,0,0,0,0,0,0,0,-1,573,1765,0,0
-644,-741,0,0,0,0,0,0,0,0,0,-1,580,1765,0,0
-637,-741,0,0,0,0,0,0,0,0,0,-1,587,1765,0,0
-630,-741,0,0,0,0,0,0,0,0,0,-1,594,1765,0,0
-623,-741,0,0,0,0,0,0,0,0,0,-1,601,1765,0,0
-616,-741,0,0,0,0,0,0,0,0,0,-1,608,1765,0,0
-609,-741,0,0,0,0,0,0,0,0,0,-1,615,1765,0,0
-602,-741,0,0,0,0,0,0,0,0,0,-1,622,1765,0,0
-595,-741,0,0,0,0,0,0,0,0,0,-1,629,1765,0,0
-588,-741,0,0,0,0,0,0,0,0,0,-1,636,1765,0,0
-581,-741,0,0,0,0,0,0,0,0,0,-1,643,1765,0,0
-574,-741,0,0,0,0,0,0,0,0,0,-1,650,1765,0,0
-567,-741,0,0,0,0,0,0,0,0,0,-1,657,1765,0,0
-560,-741,0,0,0,0,0,0,0,0,0,-1,664,1765,0,0
-553,-741,0,0,0,0,0,0,0,0,0,-1,671,1765,0,0
-546,-741,0,0,0,0,0,0,0,0,0,-1,678,1765,0,0
-539,-741,0,0,0,0,0,0,0,0,0,-1,685,1765,0,0
-532,-741,0,0,0,0,0,0,0,0,0,-1,692,1765,0,0
-525,-741,0,0,0,0,0,0,0,0,0,-1,699,1765,0,0
-518,-741,0,0,0,0,0,0,0,0,0,-1,706,1765,0,0
-511,-741,0,0,0,0,0,0,0,0,0,-1,713,1765,0,0
-504,-741,0,0,0,0,0,0,0,0,0,-1,720,1765,0,0
-497,-741,0,0,0,0,0,0,0,0,0,-1,727,1765,0,0
-490,-741,0,0,0,0,0,0,0,0,0,-1,734,1765,0,0
-483,-741,0,0,0,0,0,0,0,0,0,-1,741,1765,0,0
-476,-741,0,0,0,0,0,0,0,0,0,-1,748,1765,0,0
-469,-741,0,0,0,0,0,0,0,0,0,-1,755,1765,0,0
-462,-741,0,0,0,0,0,0,0,0,0,-1,762,1765,0,0
-455,-741,0,0,0,0,0,0,0,0,0,-1,769,1765,0,0
-448,-741,0,0,0,0,0,0,0,0,0,-1,776,1765,0,0
-441,-741,0,0,0,0,0,0,0,0,0,-1,783,1765,0,0
-434,-741,0,0,0,0,0,0,0,0,0,-1,790,1765,0,0
-427,-741,0,0,0,0,0,0,0,0,0,-1,797,1765,0,0
-420,-741,0,0,0,0,0,0,0,0,0,-1,804,1765,0,0
-413,-741,0,0,0,0,0,0,0,0,0,-1,811,1765,0,0
-406,-741,0,0,0,0,0,0,0,0,0,-1,818,1765,0,0
-399,-741,0,0,0,0,0,0,0,0,0,-1,825,1765,0,0
-392,-741,0,0,0,0,0,0,0,0,0,-1,832,1765,0,0
-385,-741,0,0,0,0,0,0,0,0,0,-1,839,1765,0,0
-378,-741,0,0,0,0,0,0,0,0,0,-1,846,1765,0,0
-371,-741,0,0,0,0,0,0,0,0,0,-1,853,1765,0,0
-364,-741,0,0,0,0,0,0,0,0,0,-1,860,1765,0,0
-357,-741,0,0,0,0,0,0,0,0,0,-1,867,1765,0,0
-350,-741,0,0,0,0,0,0,0,0,0,-1,874,1765,0,0
-343,-741,0,0,0,0,0,0,0,0,0,-1,881,1765,0,0
-336,-741,0,0,0,0,0,0,0,0,0,-1,888,1765,0,0
-329,-741,0,0,0,0,0,0,0,0,0,-1,895,1765,0,0
-322,-741,0,0,0,0,0,0,0,0,0,-1,902,1765,0,0
-315,-741,0,0,0,0,0,0,0,0,0,-1,909,1765,0,0
-308,-741,0,0,0,0,0,0,0,0,0,-1,916,1765,0,0
-301,-741,0,0,0,0,0,0,0,0,0,-1,923,1765,0,0
-294,-741,0,0,0,0,0,0,0,0,0,-1,930,1765,0,0
-287,-741,0,0,0,0,0,0,0,0,0,-1,937,1765,0,0
-280,-741,0,0,0,0,0,0,0,0,0,-1,944,1765,0,0
-273,-741,0,0,0,0,0,0,0,0,0,-1,951,1765,0,0
-266,-741,0,0,0,0,0,0,0,0,0,-1,958,1765,0,0
-259,-741,0,0,0,0,0,0,0,0,0,-1,965,1765,0,0
-252,-741,0,0,0,0,0,0,0,0,0,-1,972,1765,0,0
-245,-741,0,0,0,0,0,0,0,0,0,-1,979,1765,0,0
-238,-741,7.13855,29.8348,0,0,0,0,0,0,0,-1,986,1765,7.13856,-29.8348
-231,-741,7.74182,29.3066,0,0,0,0,0,0,0,-1,993,1765,7.74183,-29.3066
-224,-741,7.80078,29.0964,0,0,0,0,0,0,0,-1,1000,1765,7.80079,-29.0964
-217,-741,8.15863,29.113,0,0,0,0,0,0,0,-1,1007,1765,8.15863,-29.1131
-210,-741,8.37024,29.3896,0,0,0,0,0,0,0,-1,1014,1765,8.37022,-29.3896
-203,-741,8.33801,29.8871,0,0,0,0,0,0,0,-1,1021,1765,8.33805,-29.8871
-196,-741,8.75513,30.84,0,0,0,0,0,0,0,-1,1028,1765,8.75516,-30.8399
-189,-741,7.80798,42.0374,0,0,0,0,0,0,0,-1,1035,1765,7.80804,-42.0373
-182,-741,7.60242,42.3911,0,0,0,0,0,0,0,-1,1042,1765,7.60237,-42.3911
-175,-741,9.59448,42.4192,0,0,0,0,0,0,0,-1,1049,1765,9.59448,-42.4192
-168,-741,10.1659,43.0493,0,0,0,0,0,0,0,-1,1056,1765,10.1658,-43.0494
-161,-741,9.53979,44.0261,0,0,0,0,0,0,0,-1,1063,1765,9.53976,-44.0261
-154,-741,8.78027,44.6383,0,0,0,0,0,0,0,-1,1070,1765,8.78026,-44.6383
-147,-741,8.98962,45.8148,0,0,0,0,0,0,0,-1,1077,1765,8.9896,-45.8148
-140,-741,10.5059,42.3463,0,0,0,0,0,0,0,-1,1084,1765,10.5058,-42.3463
-133,-741,9.56091,43.6786,0,0,0,0,0,0,0,-1,1091,1765,9.56088,-43.6786
-126,-741,9.20117,43.635,0,0,0,0,0,0,0,-1,1098,1765,9.2012,-43.635
-119,-741,8.95447,44.0599,0,0,0,0,0,0,0,-1,1105,1765,8.95451,-44.0599
-112,-741,9.31458,44.296,0,0,0,0,0,0,0,-1,1112,1765,9.31458,-44.296
-105,-741,9.42371,44.3043,0,0,0,0,0,0,0,-1,1119,1765,9.42377,-44.3043
-98,-741,9.19971,40.25,0,0,0,0,0,0,0,-1,1126,1765,9.19971,-40.25
-91,-741,8.40002,36.3687,0,0,0,0,0,0,0,-1,1133,1765,8.40002,-36.3687
-84,-741,7.8877,35.0892,0,0,0,0,0,0,0,-1,1140,1765,7.88776,-35.0892
-77,-741,7.73303,34.1174,0,0,0,0,0,0,0,-1,1147,1765,7.73304,-34.1174
-70,-741,7.5437,32.0275,0,0,0,0,0,0,0,-1,1154,1765,7.5437,-32.0275
-63,-741,8.80994,45.5575,0,0,0,0,0,0,0,-1,1161,1765,8.80993,-45.5575
-56,-741,9.08423,46.197,0,0,0,0,0,0,0,-1,1168,1765,9.08422,-46.197
-49,-741,9.05249,46.5944,0,0,0,0,0,0,0,-1,1175,1765,9.05246,-46.5944
-42,-741,9.01965,46.6487,0,0,0,0,0,0,0,-1,1182,1765,9.01971,-46.6487
-35,-741,9.02124,46.9486,-0.00103439,0.000973247,-0.00133463,0.00163942,-0.00170057,-1.10783,0.00192845,0.0248471,1189,1765,9.02129,-46.9486
-28,-741,9.02087,47.1163,-0.00125925,-0.000834118,-0.0019351,0.000900059,-0.00299343,-0.840103,0.00235372,0.0152863,1196,1765,9.02083,-47.1163
-21,-741,9.0116,47.262,-0.00142364,-0.00231695,-0.00207082,0.000248142,-0.00398873,-0.67918,0.00274561,0.0189953,1203,1765,9.01155,-47.262
-14,-741,8.95056,47.4263,-0.00148922,-0.00357507,-0.00199342,-0.000282382,-0.00478191,-0.544388,0.0030981,0.0180024,1210,1765,8.95052,-47.4263
-7,-741,8.93262,47.5487,-0.00161021,-0.00469958,-0.00194276,-0.000672885,-0.0056369,-0.449527,0.00355493,0.0144603,1217,1765,8.93259,-47.5486
0,-741,8.896,47.6539,-0.00165691,-0.00551518,-0.00164728,-0.00104929,-0.00612279,-0.353375,0.00378094,0.0147779,1224,1765,8.89597,-47.6539
7,-741,8.83325,47.7589,-0.00172268,-0.00602666,-0.00119629,-0.00141253,-0.00633682,-0.25368,0.00384127,0.0174976,1231,1765,8.83325,-47.7589
14,-741,8.80078,47.8562,-0.00167327,-0.00609604,-0.000689406,-0.0015683,-0.00620101,-0.151102,0.00372303,0.0171764,1238,1765,8.80079,-47.8562
21,-741,8.76221,47.9283,-0.0014471,-0.00526856,-0.000285068,-0.00142595,-0.00528971,-0.0740502,0.00316028,0.0132068,1245,1765,8.76226,-47.9283
28,-741,8.74426,48.0314,-0.00105563,-0.00391123,0.000260435,-0.00103208,-0.00393479,0.0902095,0.00235578,0.0131091,1252,1765,8.74425,-48.0314
35,-741,8.7644,48.0685,-0.000480273,-0.00226667,0.000753611,-0.000204825,-0.00254211,0.350419,0.00163076,0.0142908,1259,1765,8.76439,-48.0685
42,-741,8.77808,48.1051,5.37534e-05,0.000361878,0.0012585,0.00147571,-0.00106008,0.846304,0.00147058,0.0144832,1266,1765,8.77808,-48.1051
49,-741,8.72693,48.1671,0.000636002,0.00268766,0.00166203,0.00361495,-0.000291283,1.06189,0.00251269,0.00968698,1273,1765,8.72696,-48.1671
56,-741,8.68347,48.1989,0.000916982,0.00490869,0.00220488,0.00588688,-6.12084e-05,1.15324,0.00394515,0.00940727,1280,1765,8.68345,-48.1989
63,-741,8.6604,48.1794,0.000958294,0.00686726,0.00249743,0.00778139,4.41715e-05,1.21992,0.00517293,0.013649,1287,1765,8.66039,-48.1794
70,-741,8.64258,48.1803,0.000707521,0.00864572,0.00258761,0.00941471,-6.14696e-05,1.28193,0.00629707,0.0164258,1294,1765,8.6426,-48.1802
77,-741,8.61841,48.1962,6.34987e-05,0.00980475,0.00268093,0.0104938,-0.000625588,1.31921,0.00721347,0.0140288,1301,1765,8.61837,-48.1962
84,-741,8.56897,48.175,-0.000463048,0.00992857,0.00281781,0.0106435,-0.00117795,1.32233,0.00751911,0.0161789,1308,1765,8.56899,-48.1751
91,-741,8.56018,48.1261,-0.000889065,0.00941081,0.0026316,0.0100442,-0.00152248,1.33459,0.00725707,0.0133393,1315,1765,8.56021,-48.1261
98,-741,8.56372,48.0469,-0.00165641,0.00814614,0.00246576,0.00873144,-0.0022417,1.33774,0.00669449,0.0107865,1322,1765,8.56371,-48.0469
105,-741,8.57019,47.963,-0.00245576,0.00659236,0.00231059,0.00714826,-0.00301166,1.3347,0.00602571,0.0113645,1329,1765,8.57015,-47.963
112,-741,8.56592,47.8813,-0.00302653,0.00473423,0.00207039,0.00525202,-0.00354432,1.32573,0.00511037,0.0118606,1336,1765,8.5659,-47.8813
119,-741,8.51355,47.7788,-0.00345313,0.00267568,0.0017747,0.00315248,-0.00392993,1.30833,0.00409724,0.0149569,1343,1765,8.51349,-47.7788
126,-741,8.4884,47.6605,-0.00361969,0.000450293,0.00151976,0.000955153,-0.00412455,1.25007,0.00311725,0.0191454,1350,1765,8.48835,-47.6605
133,-741,8.46582,47.5403,-0.00347886,-0.0011238,0.00103981,-0.000730413,-0.00387225,1.20911,0.00237575,0.0149086,1357,1765,8.46582,-47.5402
140,-741,8.41577,47.4371,-0.00316723,-0.00188798,0.000616264,-0.00163941,-0.00341581,1.1874,0.00197265,0.0117615,1364,1765,8.41573,-47.4371
147,-741,8.39282,47.3232,-0.00257934,-0.00285081,0.000220414,-0.00245622,-0.00297393,0.509409,0.00183456,0.010987,1371,1765,8.39287,-47.3233
154,-741,8.37708,47.2078,-0.00209944,-0.00264294,-3.53378e-05,-0.00209715,-0.00264522,-0.0646562,0.00161215,0.00937424,1378,1765,8.37711,-47.2078
161,-741,8.35815,47.0378,-0.00157809,-0.00224044,-0.000417015,-0.00137675,-0.00244179,-0.449816,0.00141359,0.0109641,1385,1765,8.35818,-47.0378
168,-741,8.3363,46.8673,-0.000864612,-0.00198512,-0.000662834,-0.000556977,-0.00229276,-0.434535,0.00138081,0.0257352,1392,1765,8.33625,-46.8674
175,-741,8.27393,46.6918,0,0,0,0,0,0,0,-1,1399,1765,8.27389,-46.6918
182,-741,8.29089,46.4542,0,0,0,0,0,0,0,-1,1406,1765,8.29087,-46.4542
189,-741,8.19031,46.2844,0,0,0,0,0,0,0,-1,1413,1765,8.19027,-46.2844
196,-741,8.13062,46.0687,0,0,0,0,0,0,0,-1,1420,1765,8.13063,-46.0687
203,-741,8.13159,45.7073,0,0,0,0,0,0,0,-1,1427,1765,8.13165,-45.7073
210,-741,8.11316,45.2548,0,0,0,0,0,0,0,-1,1434,1765,8.11313,-45.2547
217,-741,8.4032,40.1213,0,0,0,0,0,0,0,-1,1441,1765,8.40325,-40.1214
224,-741,8.0719,38.4249,0,0,0,0,0,0,0,-1,1448,1765,8.07187,-38.4249
231,-741,7.95923,39.0671,0,0,0,0,0,0,0,-1,1455,1765,7.9592,-39.0671
238,-741,7.96619,42.4865,0,0,0,0,0,0,0,-1,1462,1765,7.96621,-42.4864
245,-741,8.14172,43.8392,0,0,0,0,0,0,0,-1,1469,1765,8.14167,-43.8393
252,-741,8.03735,43.6539,0,0,0,0,0,0,0,-1,1476,1765,8.03736,-43.6539
259,-741,8.13855,43.6317,0,0,0,0,0,0,0,-1,1483,1765,8.1385,-43.6317
266,-741,7.67554,43.656,0,0,0,0,0,0,0,-1,1490,1765,7.6755,-43.6561
273,-741,7.6344,43.7377,0,0,0,0,0,0,0,-1,1497,1765,7.63438,-43.7377
280,-741,6.59326,43.824,0,0,0,0,0,0,0,-1,1504,1765,6.5933,-43.824
287,-741,6.29468,43.7202,0,0,0,0,0,0,0,-1,1511,1765,6.29464,-43.7202
294,-741,5.91187,43.7742,0,0,0,0,0,0,0,-1,1518,1765,5.91188,-43.7742
301,-741,6.20667,38.5165,0,0,0,0,0,0,0,-1,1525,1765,6.20667,-38.5165
308,-741,7.99036,42.5969,0,0,0,0,0,0,0,-1,1532,1765,7.99037,-42.5969
315,-741,7.83838,41.6693,0,0,0,0,0,0,0,-1,1539,1765,7.83835,-41.6694
322,-741,7.68628,40.7418,0,0,0,0,0,0,0,-1,1546,1765,7.68633,-40.7418
329,-741,4.74414,17.928,0,0,0,0,0,0,0,-1,1553,1765,4.74414,-17.928
336,-741,5.74304,22.0945,0,0,0,0,0,0,0,-1,1560,1765,5.74306,-22.0945
343,-741,7.09888,26.501,0,0,0,0,0,0,0,-1,1567,1765,7.09885,-26.501
350,-741,4.90369,5.44666,0,0,0,0,0,0,0,-1,1574,1765,4.90368,-5.44664
357,-741,4.02063,5.16626,0,0,0,0,0,0,0,-1,1581,1765,4.02058,-5.1662
364,-741,0,0,0,0,0,0,0,0,0,-1,1588,1765,0,0
371,-741,0,0,0,0,0,0,0,0,0,-1,1595,1765,0,0
378,-741,0,0,0,0,0,0,0,0,0,-1,1602,1765,0,0
385,-741,0,0,0,0,0,0,0,0,0,-1,1609,1765,0,0
392,-741,0,0,0,0,0,0,0,0,0,-1,1616,1765,0,0
399,-741,0,0,0,0,0,0,0,0,0,-1,1623,1765,0,0
406,-741,0,0,0,0,0,0,0,0,0,-1,1630,1765,0,0
413,-741,0,0,0,0,0,0,0,0,0,-1,1637,1765,0,0
420,-741,0,0,0,0,0,0,0,0,0,-1,1644,1765,0,0
427,-741,0,0,0,0,0,0,0,0,0,-1,1651,1765,0,0
434,-741,0,0,0,0,0,0,0,0,0,-1,1658,1765,0,0
441,-741,0,0,0,0,0,0,0,0,0,-1,1665,1765,0,0
448,-741,0,0,0,0,0,0,0,0,0,-1,1672,1765,0,0
455,-741,0,0,0,0,0,0,0,0,0,-1,1679,1765,0,0
462,-741,0,0,0,0,0,0,0,0,0,-1,1686,1765,0,0
469,-741,0,0,0,0,0,0,0,0,0,-1,1693,1765,0,0
476,-741,0,0,0,0,0,0,0,0,0,-1,1700,1765,0,0
483,-741,0,0,0,0,0,0,0,0,0,-1,1707,1765,0,0
490,-741,0,0,0,0,0,0,0,0,0,-1,1714,1765,0,0
497,-741,0,0,0,0,0,0,0,0,0,-1,1721,1765,0,0
504,-741,0,0,0,0,0,0,0,0,0,-1,1728,1765,0,0
511,-741,0,0,0,0,0,0,0,0,0,-1,1735,1765,0,0
518,-741,0,0,0,0,0,0,0,0,0,-1,1742,1765,0,0
525,-741,0,0,0,0,0,0,0,0,0,-1,1749,1765,0,0
532,-741,0,0,0,0,0,0,0,0,0,-1,1756,1765,0,0
539,-741,0,0,0,0,0,0,0,0,0,-1,1763,1765,0,0
546,-741,0,0,0,0,0,0,0,0,0,-1,1770,1765,0,0
553,-741,0,0,0,0,0,0,0,0,0,-1,1777,1765,0,0
560,-741,0,0,0,0,0,0,0,0,0,-1,1784,1765,0,0
567,-741,0,0,0,0,0,0,0,0,0,-1,1791,1765,0,0
574,-741,0,0,0,0,0,0,0,0,0,-1,1798,1765,0,0
581,-741,0,0,0,0,0,0,0,0,0,-1,1805,1765,0,0
588,-741,0,0,0,0,0,0,0,0,0,-1,1812,1765,0,0
595,-741,0,0,0,0,0,0,0,0,0,-1,1819,1765,0,0
602,-741,0,0,0,0,0,0,0,0,0,-1,1826,1765,0,0
609,-741,0,0,0,0,0,0,0,0,0,-1,1833,1765,0,0
616,-741,0,0,0,0,0,0,0,0,0,-1,1840,1765,0,0
623,-741,0,0,0,0,0,0,0,0,0,-1,1847,1765,0,0
630,-741,0,0,0,0,0,0,0,0,0,-1,1854,1765,0,0
637,-741,0,0,0,0,0,0,0,0,0,-1,1861,1765,0,0
644,-741,0,0,0,0,0,0,0,0,0,-1,1868,1765,0,0
651,-741,0,0,0,0,0,0,0,0,0,-1,1875,1765,0,0
658,-741,0,0,0,0,0,0,0,0,0,-1,1882,1765,0,0
665,-741,0,0,0,0,0,0,0,0,0,-1,1889,1765,0,0
672,-741,0,0,0,0,0,0,0,0,0,-1,1896,1765,0,0
679,-741,0,0,0,0,0,0,0,0,0,-1,1903,1765,0,0
686,-741,0,0,0,0,0,0,0,0,0,-1,1910,1765,0,0
693,-741,0,0,0,0,0,0,0,0,0,-1,1917,1765,0,0
700,-741,0,0,0,0,0,0,0,0,0,-1,1924,1765,0,0
707,-741,0,0,0,0,0,0,0,0,0,-1,1931,1765,0,0
714,-741,0,0,0,0,0,0,0,0,0,-1,1938,1765,0,0
721,-741,0,0,0,0,0,0,0,0,0,-1,1945,1765,0,0
728,-741,0,0,0,0,0,0,0,0,0,-1,1952,1765,0,0
735,-741,0,0,0,0,0,0,0,0,0,-1,1959,1765,0,0
742,-741,0,0,0,0,0,0,0,0,0,-1,1966,1765,0,0
749,-741,0,0,0,0,0,0,0,0,0,-1,1973,1765,0,0
756,-741,0,0,0,0,0,0,0,0,0,-1,1980,1765,0,0
763,-741,0,0,0,0,0,0,0,0,0,-1,1987,1765,0,0
770,-741,0,0,0,0,0,0,0,0,0,-1,1994,1765,0,0
777,-741,0,0,0,0,0,0,0,0,0,-1,2001,1765,0,0
784,-741,0,0,0,0,0,0,0,0,0,-1,2008,1765,0,0
791,-741,0,0,0,0,0,0,0,0,0,-1,2015,1765,0,0
798,-741,0,0,0,0,0,0,0,0,0,-1,2022,1765,0,0
805,-741,0,0,0,0,0,0,0,0,0,-1,2029,1765,0,0
812,-741,0,0,0,0,0,0,0,0,0,-1,2036,1765,0,0
-700,-748,0,0,0,0,0,0,0,0,0,-1,524,1772,0,0
-693,-748,0,0,0,0,0,0,0,0,0,-1,531,1772,0,0
-686,-748,0,0,0,0,0,0,0,0,0,-1,538,1772,0,0
-679,-748,0,0,0,0,0,0,0,0,0,-1,545,1772,0,0
-672,-748,0,0,0,0,0,0,0,0,0,-1,552,1772,0,0
-665,-748,0,0,0,0,0,0,0,0,0,-1,559,1772,0,0
-658,-748,0,0,0,0,0,0,0,0,0,-1,566,1772,0,0
-651,-748,0,0,0,0,0,0,0,0,0,-1,573,1772,0,0
-644,-748,0,0,0,0,0,0,0,0,0,-1,580,1772,0,0
-637,-748,0,0,0,0,0,0,0,0,0,-1,587,1772,0,0
-630,-748,0,0,0,0,0,0,0,0,0,-1,594,1772,0,0
-623,-748,0,0,0,0,0,0,0,0,0,-1,601,1772,0,0
-616,-748,0,0,0,0,0,0,0,0,0,-1,608,1772,0,0
-609,-748,0,0,0,0,0,0,0,0,0,-1,615,1772,0,0
-602,-748,0,0,0,0,0,0,0,0,0,-1,622,1772,0,0
-595,-748,0,0,0,0,0,0,0,0,0,-1,629,1772,0,0
-588,-748,0,0,0,0,0,0,0,0,0,-1,636,1772,0,0
-581,-748,0,0,0,0,0,0,0,0,0,-1,643,1772,0,0
-574,-748,0,0,0,0,0,0,0,0,0,-1,650,1772,0,0
-567,-748,0,0,0,0,0,0,0,0,0,-1,657,1772,0,0
-560,-748,0,0,0,0,0,0,0,0,0,-1,664,1772,0,0
-553,-748,0,0,0,0,0,0,0,0,0,-1,671,1772,0,0
-546,-748,0,0,0,0,0,0,0,0,0,-1,678,1772,0,0
-539,-748,0,0,0,0,0,0,0,0,0,-1,685,1772,0,0
-532,-748,0,0,0,0,0,0,0,0,0,-1,692,1772,0,0
-525,-748,0,0,0,0,0,0,0,0,0,-1,699,1772,0,0
-518,-748,0,0,0,0,0,0,0,0,0,-1,706,1772,0,0
-511,-748,0,0,0,0,0,0,0,0,0,-1,713,1772,0,0
-504,-748,0,0,0,0,0,0,0,0,0,-1,720,1772,0,0
-497,-748,0,0,0,0,0,0,0,0,0,-1,727,1772,0,0
-490,-748,0,0,0,0,0,0,0,0,0,-1,734,1772,0,0
-483,-748,0,0,0,0,0,0,0,0,0,-1,741,1772,0,0
-476,-748,0,0,0,0,0,0,0,0,0,-1,748,1772,0,0
-469,-748,0,0,0,0,0,0,0,0,0,-1,755,1772,0,0
-462,-748,0,0,0,0,0,0,0,0,0,-1,762,1772,0,0
-455,-748,0,0,0,0,0,0,0,0,0,-1,769,1772,0,0
-448,-748,0,0,0,0,0,0,0,0,0,-1,776,1772,0,0
-441,-748,0,0,0,0,0,0,0,0,0,-1,783,1772,0,0
-434,-748,0,0,0,0,0,0,0,0,0,-1,790,1772,0,0
-427,-748,0,0,0,0,0,0,0,0,0,-1,797,1772,0,0
-420,-748,0,0,0,0,0,0,0,0,0,-1,804,1772,0,0
-413,-748,0,0,0,0,0,0,0,0,0,-1,811,1772,0,0
-406,-748,0,0,0,0,0,0,0,0,0,-1,818,1772,0,0
-399,-748,0,0,0,0,0,0,0,0,0,-1,825,1772,0,0
-392,-748,0,0,0,0,0,0,0,0,0,-1,832,1772,0,0
-385,-748,0,0,0,0,0,0,0,0,0,-1,839,1772,0,0
-378,-748,0,0,0,0,0,0,0,0,0,-1,846,1772,0,0
-371,-748,0,0,0,0,0,0,0,0,0,-1,853,1772,0,0
-364,-748,0,0,0,0,0,0,0,0,0,-1,860,1772,0,0
-357,-748,0,0,0,0,0,0,0,0,0,-1,867,1772,0,0
-350,-748,0,0,0,0,0,0,0,0,0,-1,874,1772,0,0
-343,-748,0,0,0,0,0,0,0,0,0,-1,881,1772,0,0
-336,-748,0,0,0,0,0,0,0,0,0,-1,888,1772,0,0
-329,-748,0,0,0,0,0,0,0,0,0,-1,895,1772,0,0
-322,-748,0,0,0,0,0,0,0,0,0,-1,902,1772,0,0
-315,-748,0,0,0,0,0,0,0,0,0,-1,909,1772,0,0
-308,-748,0,0,0,0,0,0,0,0,0,-1,916,1772,0,0
-301,-748,0,0,0,0,0,0,0,0,0,-1,923,1772,0,0
-294,-748,0,0,0,0,0,0,0,0,0,-1,930,1772,0,0
-287,-748,0,0,0,0,0,0,0,0,0,-1,937,1772,0,0
-280,-748,0,0,0,0,0,0,0,0,0,-1,944,1772,0,0
-273,-748,0,0,0,0,0,0,0,0,0,-1,951,1772,0,0
-266,-748,0,0,0,0,0,0,0,0,0,-1,958,1772,0,0
-259,-748,0,0,0,0,0,0,0,0,0,-1,965,1772,0,0
-252,-748,0,0,0,0,0,0,0,0,0,-1,972,1772,0,0
-245,-748,0,0,0,0,0,0,0,0,0,-1,979,1772,0,0
-238,-748,0,0,0,0,0,0,0,0,0,-1,986,1772,0,0
-231,-748,0,0,0,0,0,0,0,0,0,-1,993,1772,0,0
-224,-748,0,0,0,0,0,0,0,0,0,-1,1000,1772,0,0
-217,-748,8.97742,29.9884,0,0,0,0,0,0,0,-1,1007,1772,8.97744,-29.9884
-210,-748,8.8941,30.14,0,0,0,0,0,0,0,-1,1014,1772,8.8941,-30.14
-203,-748,8.57703,30.2961,0,0,0,0,0,0,0,-1,1021,1772,8.57706,-30.2962
-196,-748,8.01953,29.9611,0,0,0,0,0,0,0,-1,1028,1772,8.01957,-29.9611
-189,-748,9.63245,31.4406,0,0,0,0,0,0,0,-1,1035,1772,9.6325,-31.4406
-182,-748,3.94958,20.8662,0,0,0,0,0,0,0,-1,1042,1772,3.94959,-20.8662
-175,-748,3.56726,19.4518,0,0,0,0,0,0,0,-1,1049,1772,3.5673,-19.4518
-168,-748,3.04858,18.0109,0,0,0,0,0,0,0,-1,1056,1772,3.04853,-18.0108
-161,-748,3.50562,13.2729,0,0,0,0,0,0,0,-1,1063,1772,3.5056,-13.2729
-154,-748,8.47375,45.3986,0,0,0,0,0,0,0,-1,1070,1772,8.47374,-45.3985
-147,-748,11.772,42.0261,0,0,0,0,0,0,0,-1,1077,1772,11.772,-42.0262
-140,-748,10.9395,41.1906,0,0,0,0,0,0,0,-1,1084,1772,10.9395,-41.1905
-133,-748,7.44727,22.0308,0,0,0,0,0,0,0,-1,1091,1772,7.44728,-22.0308
-126,-748,5.98035,22.6067,0,0,0,0,0,0,0,-1,1098,1772,5.9803,-22.6067
-119,-748,6.63342,26.309,0,0,0,0,0,0,0,-1,1105,1772,6.6334,-26.3089
-112,-748,6.91333,24.923,0,0,0,0,0,0,0,-1,1112,1772,6.91339,-24.923
-105,-748,6.83313,25.0537,0,0,0,0,0,0,0,-1,1119,1772,6.83311,-25.0537
-98,-748,8.13623,30.8743,0,0,0,0,0,0,0,-1,1126,1772,8.13628,-30.8742
-91,-748,4.85352,15.3033,0,0,0,0,0,0,0,-1,1133,1772,4.85351,-15.3033
-84,-748,-0.192017,7.26196,0,0,0,0,0,0,0,-1,1140,1772,-0.192047,-7.26201
-77,-748,4.42615,13.5537,0,0,0,0,0,0,0,-1,1147,1772,4.4261,-13.5538
-70,-748,4.46191,13.7446,0,0,0,0,0,0,0,-1,1154,1772,4.4619,-13.7446
-63,-748,4.49768,13.9355,0,0,0,0,0,0,0,-1,1161,1772,4.49769,-13.9355
-56,-748,3.05762,7.87817,0,0,0,0,0,0,0,-1,1168,1772,3.05768,-7.87822
-49,-748,3.04102,7.82471,0,0,0,0,0,0,0,-1,1175,1772,3.04096,-7.82468
-42,-748,0.793457,14.9474,0,0,0,0,0,0,0,-1,1182,1772,0.793413,-14.9474
-35,-748,9.14197,46.9926,0,0,0,0,0,0,0,-1,1189,1772,9.14192,-46.9925
-28,-748,9.18323,47.1392,-4.39001e-05,-0.00094221,-0.00413507,0.00366634,-0.00465245,-0.7313,0.00481409,0.0496208,1196,1772,9.18326,-47.1391
-21,-748,9.12476,47.2949,-0.000543371,-0.0030398,-0.00406677,0.00246243,-0.0060456,-0.636497,0.00505524,0.0241267,1203,1772,9.12476,-47.2949
-14,-748,9.0553,47.3871,-0.000908954,-0.00485744,-0.00375954,0.00136318,-0.00712958,-0.543624,0.00526659,0.0165282,1210,1772,9.05536,-47.3871
-7,-748,9.03845,47.5021,-0.001163,-0.00652864,-0.00346472,0.000536163,-0.0082278,-0.455954,0.00567238,0.0157838,1217,1772,9.03843,-47.502
0,-748,8.98901,47.6172,-0.00128009,-0.00785055,-0.00288646,-0.000192179,-0.00893847,-0.360437,0.00589596,0.0158277,1224,1772,8.98905,-47.6172
7,-748,8.94092,47.7083,-0.00140948,-0.00878433,-0.00214703,-0.000829962,-0.00936385,-0.263635,0.00598513,0.0152126,1231,1772,8.94097,-47.7083
14,-748,8.88904,47.8348,-0.00135465,-0.00908428,-0.0013481,-0.00112628,-0.00931265,-0.167808,0.00586914,0.0159434,1238,1772,8.88901,-47.8348
21,-748,8.8606,47.9243,-0.00104563,-0.00810056,-0.000704042,-0.00097606,-0.00817013,-0.0985,0.00515231,0.0118691,1245,1772,8.86058,-47.9244
28,-748,8.81018,48.0061,-0.000458829,-0.00630498,0.000134803,-0.000455722,-0.00630809,0.0230422,0.00406202,0.0121247,1252,1772,8.81018,-48.0061
35,-748,8.80286,48.0394,0.000339121,-0.00345648,0.00095606,0.000566338,-0.0036837,0.23333,0.00266472,0.0129977,1259,1772,8.80281,-48.0395
42,-748,8.82385,48.069,0.00107768,0.00147622,0.00181559,0.00310344,-0.000549544,0.840057,0.00227438,0.0144315,1266,1772,8.82381,-48.069
49,-748,8.76868,48.1321,0.00188239,0.00568597,0.00249196,0.00691893,0.000649429,1.11134,0.00441211,0.0105806,1273,1772,8.76866,-48.1321
56,-748,8.69861,48.1765,0.00221332,0.00985336,0.00335646,0.0111184,0.000948233,1.21035,0.00711731,0.00964127,1280,1772,8.69864,-48.1766
63,-748,8.65698,48.1707,0.0021289,0.0137416,0.00389931,0.0149294,0.000941089,1.27511,0.00965456,0.011194,1287,1772,8.65695,-48.1707
70,-748,8.63647,48.1674,0.00160602,0.0172944,0.00412417,0.0183125,0.000587925,1.32877,0.0120172,0.0133822,1294,1772,8.63653,-48.1674
77,-748,8.60754,48.1603,0.000588118,0.0197539,0.00432027,0.0206828,-0.000340724,1.35902,0.0139035,0.0131788,1301,1772,8.60752,-48.1603
84,-748,8.54602,48.1471,-0.000278946,0.0204895,0.00450152,0.0214232,-0.00121266,1.36627,0.014703,0.0147304,1308,1772,8.54608,-48.1471
91,-748,8.51685,48.1075,-0.00106729,0.020069,0.00426417,0.0208968,-0.00189515,1.37904,0.014604,0.0121368,1315,1772,8.51689,-48.1076
98,-748,8.48975,48.0468,-0.00234275,0.0183061,0.00402574,0.0190632,-0.00309986,1.3849,0.0138582,0.0107371,1322,1772,8.48969,-48.0468
105,-748,8.47791,47.9573,-0.00362099,0.0158247,0.00379478,0.016539,-0.00433529,1.38474,0.0127198,0.0119778,1329,1772,8.47791,-47.9573
112,-748,8.48743,47.8635,-0.00452991,0.0124938,0.00342078,0.0131555,-0.00519157,1.37973,0.0109202,0.0157781,1336,1772,8.48737,-47.8635
119,-748,8.4397,47.7775,-0.00513575,0.00861295,0.00295102,0.00921959,-0.00574239,1.36805,0.00871572,0.0141055,1343,1772,8.43966,-47.7775
126,-748,8.39563,47.6887,-0.00528254,0.00430091,0.00251576,0.00492118,-0.00590281,1.32906,0.00625779,0.015383,1350,1772,8.39563,-47.6888
133,-748,8.33813,47.5693,-0.00498452,0.000959046,0.00178595,0.00145441,-0.00547988,1.30023,0.0042224,0.0095343,1357,1772,8.33819,-47.5694
140,-748,8.29968,47.4485,-0.00437061,-0.00166692,0.00112784,-0.00125822,-0.00477931,1.22314,0.00286057,0.0126988,1364,1772,8.29973,-47.4485
147,-748,8.29834,47.3086,-0.00331595,-0.00468981,0.000537976,-0.00313036,-0.0048754,0.332195,0.00285244,0.0146883,1371,1772,8.29837,-47.3086
154,-748,8.245,47.1827,-0.00241016,-0.00458051,0.000255918,-0.0023804,-0.00461028,0.1158,0.00266222,0.0131956,1378,1772,8.24501,-47.1828
161,-748,8.20178,47.041,-0.0014692,-0.00413136,-0.000223717,-0.00145053,-0.00415003,-0.0832577,0.00243192,0.0196061,1385,1772,8.20179,-47.0411
168,-748,8.21667,46.8832,0,0,0,0,0,0,0,-1,1392,1772,8.21663,-46.8832
175,-748,11.6235,16.8242,0,0,0,0,0,0,0,-1,1399,1772,11.6236,-16.8242
182,-748,7.62476,10.3058,0,0,0,0,0,0,0,-1,1406,1772,7.62476,-10.3058
189,-748,6.15857,6.95898,0,0,0,0,0,0,0,-1,1413,1772,6.15862,-6.95896
196,-748,3.9425,8.46021,0,0,0,0,0,0,0,-1,1420,1772,3.9425,-8.46026
203,-748,3.9668,12.9835,0,0,0,0,0,0,0,-1,1427,1772,3.96678,-12.9836
210,-748,4.71472,16.8318,0,0,0,0,0,0,0,-1,1434,1772,4.71471,-16.8317
217,-748,5.38452,21.5551,0,0,0,0,0,0,0,-1,1441,1772,5.38455,-21.555
224,-748,6.14258,25.2345,0,0,0,0,0,0,0,-1,1448,1772,6.14263,-25.2345
231,-748,6.46045,29.7867,0,0,0,0,0,0,0,-1,1455,1772,6.46049,-29.7867
238,-748,7.41565,32.8574,0,0,0,0,0,0,0,-1,1462,1772,7.41562,-32.8574
245,-748,7.84912,32.0914,0,0,0,0,0,0,0,-1,1469,1772,7.84914,-32.0914
252,-748,6.65527,28.5154,0,0,0,0,0,0,0,-1,1476,1772,6.65524,-28.5154
259,-748,8.2019,43.6465,0,0,0,0,0,0,0,-1,1483,1772,8.2019,-43.6465
266,-748,8.25952,39.3665,0,0,0,0,0,0,0,-1,1490,1772,8.25952,-39.3664
273,-748,7.1991,43.2549,0,0,0,0,0,0,0,-1,1497,1772,7.1991,-43.2549
280,-748,8.76538,40.4501,0,0,0,0,0,0,0,-1,1504,1772,8.76537,-40.45
287,-748,14.161,8.32813,0,0,0,0,0,0,0,-1,1511,1772,14.161,-8.32808
294,-748,6.38525,32.4724,0,0,0,0,0,0,0,-1,1518,1772,6.38521,-32.4725
301,-748,5.40393,38.9807,0,0,0,0,0,0,0,-1,1525,1772,5.40397,-38.9807
308,-748,5.95227,37.1827,0,0,0,0,0,0,0,-1,1532,1772,5.95229,-37.1827
315,-748,7.71741,42.637,0,0,0,0,0,0,0,-1,1539,1772,7.71738,-42.637
322,-748,4.26538,29.0557,0,0,0,0,0,0,0,-1,1546,1772,4.26537,-29.0556
329,-748,3.87256,16.1473,0,0,0,0,0,0,0,-1,1553,1772,3.87259,-16.1474
336,-748,4.81006,19.6141,0,0,0,0,0,0,0,-1,1560,1772,4.81011,-19.6141
343,-748,0,0,0,0,0,0,0,0,0,-1,1567,1772,0,0
350,-748,0,0,0,0,0,0,0,0,0,-1,1574,1772,0,0
357,-748,0,0,0,0,0,0,0,0,0,-1,1581,1772,0,0
364,-748,0,0,0,0,0,0,0,0,0,-1,1588,1772,0,0
371,-748,0,0,0,0,0,0,0,0,0,-1,1595,1772,0,0
378,-748,0,0,0,0,0,0,0,0,0,-1,1602,1772,0,0
385,-748,0,0,0,0,0,0,0,0,0,-1,1609,1772,0,0
392,-748,0,0,0,0,0,0,0,0,0,-1,1616,1772,0,0
399,-748,0,0,0,0,0,0,0,0,0,-1,1623,1772,0,0
406,-748,0,0,0,0,0,0,0,0,0,-1,1630,1772,0,0
413,-748,0,0,0,0,0,0,0,0,0,-1,1637,1772,0,0
420,-748,0,0,0,0,0,0,0,0,0,-1,1644,1772,0,0
427,-748,0,0,0,0,0,0,0,0,0,-1,1651,1772,0,0
434,-748,0,0,0,0,0,0,0,0,0,-1,1658,1772,0,0
441,-748,0,0,0,0,0,0,0,0,0,-1,1665,1772,0,0
448,-748,0,0,0,0,0,0,0,0,0,-1,1672,1772,0,0
455,-748,0,0,0,0,0,0,0,0,0,-1,1679,1772,0,0
462,-748,0,0,0,0,0,0,0,0,0,-1,1686,1772,0,0
469,-748,0,0,0,0,0,0,0,0,0,-1,1693,1772,0,0
476,-748,0,0,0,0,0,0,0,0,0,-1,1700,1772,0,0
483,-748,0,0,0,0,0,0,0,0,0,-1,1707,1772,0,0
490,-748,0,0,0,0,0,0,0,0,0,-1,1714,1772,0,0
497,-748,0,0,0,0,0,0,0,0,0,-1,1721,1772,0,0
504,-748,0,0,0,0,0,0,0,0,0,-1,1728,1772,0,0
511,-748,0,0,0,0,0,0,0,0,0,-1,1735,1772,0,0
518,-748,0,0,0,0,0,0,0,0,0,-1,1742,1772,0,0
525,-748,0,0,0,0,0,0,0,0,0,-1,1749,1772,0,0
532,-748,0,0,0,0,0,0,0,0,0,-1,1756,1772,0,0
539,-748,0,0,0,0,0,0,0,0,0,-1,1763,1772,0,0
546,-748,0,0,0,0,0,0,0,0,0,-1,1770,1772,0,0
553,-748,0,0,0,0,0,0,0,0,0,-1,1777,1772,0,0
560,-748,0,0,0,0,0,0,0,0,0,-1,1784,1772,0,0
567,-748,0,0,0,0,0,0,0,0,0,-1,1791,1772,0,0
574,-748,0,0,0,0,0,0,0,0,0,-1,1798,1772,0,0
581,-748,0,0,0,0,0,0,0,0,0,-1,1805,1772,0,0
588,-748,0,0,0,0,0,0,0,0,0,-1,1812,1772,0,0
595,-748,0,0,0,0,0,0,0,0,0,-1,1819,1772,0,0
602,-748,0,0,0,0,0,0,0,0,0,-1,1826,1772,0,0
609,-748,0,0,0,0,0,0,0,0,0,-1,1833,1772,0,0
616,-748,0,0,0,0,0,0,0,0,0,-1,1840,1772,0,0
623,-748,0,0,0,0,0,0,0,0,0,-1,1847,1772,0,0
630,-748,0,0,0,0,0,0,0,0,0,-1,1854,1772,0,0
637,-748,0,0,0,0,0,0,0,0,0,-1,1861,1772,0,0
644,-748,0,0,0,0,0,0,0,0,0,-1,1868,1772,0,0
651,-748,0,0,0,0,0,0,0,0,0,-1,1875,1772,0,0
658,-748,0,0,0,0,0,0,0,0,0,-1,1882,1772,0,0
665,-748,0,0,0,0,0,0,0,0,0,-1,1889,1772,0,0
672,-748,0,0,0,0,0,0,0,0,0,-1,1896,1772,0,0
679,-748,0,0,0,0,0,0,0,0,0,-1,1903,1772,0,0
686,-748,0,0,0,0,0,0,0,0,0,-1,1910,1772,0,0
693,-748,0,0,0,0,0,0,0,0,0,-1,1917,1772,0,0
700,-748,0,0,0,0,0,0,0,0,0,-1,1924,1772,0,0
707,-748,0,0,0,0,0,0,0,0,0,-1,1931,1772,0,0
714,-748,0,0,0,0,0,0,0,0,0,-1,1938,1772,0,0
721,-748,0,0,0,0,0,0,0,0,0,-1,1945,1772,0,0
728,-748,0,0,0,0,0,0,0,0,0,-1,1952,1772,0,0
735,-748,0,0,0,0,0,0,0,0,0,-1,1959,1772,0,0
742,-748,0,0,0,0,0,0,0,0,0,-1,1966,1772,0,0
749,-748,0,0,0,0,0,0,0,0,0,-1,1973,1772,0,0
756,-748,0,0,0,0,0,0,0,0,0,-1,1980,1772,0,0
763,-748,0,0,0,0,0,0,0,0,0,-1,1987,1772,0,0
770,-748,0,0,0,0,0,0,0,0,0,-1,1994,1772,0,0
777,-748,0,0,0,0,0,0,0,0,0,-1,2001,1772,0,0
784,-748,0,0,0,0,0,0,0,0,0,-1,2008,1772,0,0
791,-748,0,0,0,0,0,0,0,0,0,-1,2015,1772,0,0
798,-748,0,0,0,0,0,0,0,0,0,-1,2022,1772,0,0
805,-748,0,0,0,0,0,0,0,0,0,-1,2029,1772,0,0
812,-748,0,0,0,0,0,0,0,0,0,-1,2036,1772,0,0
-700,-755,0,0,0,0,0,0,0,0,0,-1,524,1779,0,0
-693,-755,0,0,0,0,0,0,0,0,0,-1,531,1779,0,0
-686,-755,0,0,0,0,0,0,0,0,0,-1,538,1779,0,0
-679,-755,0,0,0,0,0,0,0,0,0,-1,545,1779,0,0
-672,-755,0,0,0,0,0,0,0,0,0,-1,552,1779,0,0
-665,-755,0,0,0,0,0,0,0,0,0,-1,559,1779,0,0
-658,-755,0,0,0,0,0,0,0,0,0,-1,566,1779,0,0
-651,-755,0,0,0,0,0,0,0,0,0,-1,573,1779,0,0
-644,-755,0,0,0,0,0,0,0,0,0,-1,580,1779,0,0
-637,-755,0,0,0,0,0,0,0,0,0,-1,587,1779,0,0
-630,-755,0,0,0,0,0,0,0,0,0,-1,594,1779,0,0
-623,-755,0,0,0,0,0,0,0,0,0,-1,601,1779,0,0
-616,-755,0,0,0,0,0,0,0,0,0,-1,608,1779,0,0
-609,-755,0,0,0,0,0,0,0,0,0,-1,615,1779,0,0
-602,-755,0,0,0,0,0,0,0,0,0,-1,622,1779,0,0
-595,-755,0,0,0,0,0,0,0,0,0,-1,629,1779,0,0
-588,-755,0,0,0,0,0,0,0,0,0,-1,636,1779,0,0
-581,-755,0,0,0,0,0,0,0,0,0,-1,643,1779,0,0
-574,-755,0,0,0,0,0,0,0,0,0,-1,650,1779,0,0
-567,-755,0,0,0,0,0,0,0,0,0,-1,657,1779,0,0
-560,-755,0,0,0,0,0,0,0,0,0,-1,664,1779,0,0
-553,-755,0,0,0,0,0,0,0,0,0,-1,671,1779,0,0
-546,-755,0,0,0,0,0,0,0,0,0,-1,678,1779,0,0
-539,-755,0,0,0,0,0,0,0,0,0,-1,685,1779,0,0
-532,-755,0,0,0,0,0,0,0,0,0,-1,692,1779,0,0
-525,-755,0,0,0,0,0,0,0,0,0,-1,699,1779,0,0
-518,-755,0,0,0,0,0,0,0,0,0,-1,706,1779,0,0
-511,-755,0,0,0,0,0,0,0,0,0,-1,713,1779,0,0
-504,-755,0,0,0,0,0,0,0,0,0,-1,720,1779,0,0
-497,-755,0,0,0,0,0,0,0,0,0,-1,727,1779,0,0
-490,-755,0,0,0,0,0,0,0,0,0,-1,734,1779,0,0
-483,-755,0,0,0,0,0,0,0,0,0,-1,741,1779,0,0
-476,-755,0,0,0,0,0,0,0,0,0,-1,748,1779,0,0
-469,-755,0,0,0,0,0,0,0,0,0,-1,755,1779,0,0
-462,-755,0,0,0,0,0,0,0,0,0,-1,762,1779,0,0
-455,-755,0,0,0,0,0,0,0,0,0,-1,769,1779,0,0
-448,-755,0,0,0,0,0,0,0,0,0,-1,776,1779,0,0
-441,-755,0,0,0,0,0,0,0,0,0,-1,783,1779,0,0
-434,-755,0,0,0,0,0,0,0,0,0,-1,790,1779,0,0
-427,-755,0,0,0,0,0,0,0,0,0,-1,797,1779,0,0
-420,-755,0,0,0,0,0,0,0,0,0,-1,804,1779,0,0
-413,-755,0,0,0,0,0,0,0,0,0,-1,811,1779,0,0
-406,-755,0,0,0,0,0,0,0,0,0,-1,818,1779,0,0
-399,-755,0,0,0,0,0,0,0,0,0,-1,825,1779,0,0
-392,-755,0,0,0,0,0,0,0,0,0,-1,832,1779,0,0
-385,-755,0,0,0,0,0,0,0,0,0,-1,839,1779,0,0
-378,-755,0,0,0,0,0,0,0,0,0,-1,846,1779,0,0
-371,-755,0,0,0,0,0,0,0,0,0,-1,853,1779,0,0
-364,-755,0,0,0,0,0,0,0,0,0,-1,860,1779,0,0
-357,-755,0,0,0,0,0,0,0,0,0,-1,867,1779,0,0
-350,-755,0,0,0,0,0,0,0,0,0,-1,874,1779,0,0
-343,-755,0,0,0,0,0,0,0,0,0,-1,881,1779,0,0
-336,-755,0,0,0,0,0,0,0,0,0,-1,888,1779,0,0
-329,-755,0,0,0,0,0,0,0,0,0,-1,895,1779,0,0
-322,-755,0,0,0,0,0,0,0,0,0,-1,902,1779,0,0
-315,-755,0,0,0,0,0,0,0,0,0,-1,909,1779,0,0
-308,-755,0,0,0,0,0,0,0,0,0,-1,916,1779,0,0
-301,-755,0,0,0,0,0,0,0,0,0,-1,923,1779,0,0
-294,-755,0,0,0,0,0,0,0,0,0,-1,930,1779,0,0
-287,-755,0,0,0,0,0,0,0,0,0,-1,937,1779,0,0
-280,-755,0,0,0,0,0,0,0,0,0,-1,944,1779,0,0
-273,-755,0,0,0,0,0,0,0,0,0,-1,951,1779,0,0
-266,-755,0,0,0,0,0,0,0,0,0,-1,958,1779,0,0
-259,-755,0,0,0,0,0,0,0,0,0,-1,965,1779,0,0
-252,-755,0,0,0,0,0,0,0,0,0,-1,972,1779,0,0
-245,-755,0,0,0,0,0,0,0,0,0,-1,979,1779,0,0
-238,-755,0,0,0,0,0,0,0,0,0,-1,986,1779,0,0
-231,-755,0,0,0,0,0,0,0,0,0,-1,993,1779,0,0
-224,-755,0,0,0,0,0,0,0,0,0,-1,1000,1779,0,0
-217,-755,0,0,0,0,0,0,0,0,0,-1,1007,1779,0,0
-210,-755,0,0,0,0,0,0,0,0,0,-1,1014,1779,0,0
-203,-755,8.97363,30.5414,0,0,0,0,0,0,0,-1,1021,1779,8.97362,-30.5414
-196,-755,8.34436,29.0909,0,0,0,0,0,0,0,-1,1028,1779,8.3443,-29.091
-189,-755,4.8175,22.4788,0,0,0,0,0,0,0,-1,1035,1779,4.81745,-22.4788
-182,-755,4.021,20.8032,0,0,0,0,0,0,0,-1,1042,1779,4.02094,-20.8032
-175,-755,3.79993,18.8242,0,0,0,0,0,0,0,-1,1049,1779,3.79995,-18.8242
-168,-755,3.14294,16.9865,0,0,0,0,0,0,0,-1,1056,1779,3.14291,-16.9864
-161,-755,-2.85889,11.5868,0,0,0,0,0,0,0,-1,1063,1779,-2.85887,-11.5868
-154,-755,-5.39026,8.51416,0,0,0,0,0,0,0,-1,1070,1779,-5.3903,-8.51417
-147,-755,-6.45593,10.2422,0,0,0,0,0,0,0,-1,1077,1779,-6.45594,-10.2422
-140,-755,1.33521,21.3856,0,0,0,0,0,0,0,-1,1084,1779,1.33522,-21.3857
-133,-755,2.89417,21.0964,0,0,0,0,0,0,0,-1,1091,1779,2.89422,-21.0964
-126,-755,3.26404,20.9304,0,0,0,0,0,0,0,-1,1098,1779,3.26399,-20.9305
-119,-755,5.17761,21.9325,0,0,0,0,0,0,0,-1,1105,1779,5.17761,-21.9325
-112,-755,5.40247,24.5646,0,0,0,0,0,0,0,-1,1112,1779,5.40244,-24.5646
-105,-755,7.01294,20.1539,0,0,0,0,0,0,0,-1,1119,1779,7.01295,-20.154
-98,-755,5.50708,16.9628,0,0,0,0,0,0,0,-1,1126,1779,5.5071,-16.9628
-91,-755,5.51025,12.0438,0,0,0,0,0,0,0,-1,1133,1779,5.51022,-12.0439
-84,-755,0.169312,8.66443,0,0,0,0,0,0,0,-1,1140,1779,0.16932,-8.66446
-77,-755,-0.0491943,6.87439,0,0,0,0,0,0,0,-1,1147,1779,-0.0491385,-6.87443
-70,-755,4.5686,13.2169,0,0,0,0,0,0,0,-1,1154,1779,4.56865,-13.2169
-63,-755,-1.36316,7.3147,0,0,0,0,0,0,0,-1,1161,1779,-1.36312,-7.31473
-56,-755,0.0483398,5.06079,0,0,0,0,0,0,0,-1,1168,1779,0.0483138,-5.06084
-49,-755,-1.32263,5.33716,0,0,0,0,0,0,0,-1,1175,1779,-1.32264,-5.33718
-42,-755,-2.03613,4.01672,0,0,0,0,0,0,0,-1,1182,1779,-2.0361,-4.01671
-35,-755,-2.72498,2.37476,0,0,0,0,0,0,0,-1,1189,1779,-2.72502,-2.37473
-28,-755,9.22693,47.1976,0,0,0,0,0,0,0,-1,1196,1779,9.22694,-47.1976
-21,-755,9.17688,47.3262,0,0,0,0,0,0,0,-1,1203,1779,9.17688,-47.3262
-14,-755,9.16028,47.3876,0.000593646,-0.00643353,-0.00651887,0.00448553,-0.0103254,-0.538224,0.00876987,0.0334043,1210,1779,9.16025,-47.3876
-7,-755,9.10791,47.453,0.000233392,-0.0087756,-0.00575266,0.00303531,-0.0115775,-0.453245,0.00890426,0.0250042,1217,1779,9.10795,-47.453
0,-755,9.06531,47.5746,0.000136019,-0.0106896,-0.00466517,0.00186899,-0.0124226,-0.355673,0.00896989,0.0153754,1224,1779,9.06527,-47.5746
7,-755,9.02063,47.7004,4.48727e-05,-0.0120966,-0.00343758,0.000950585,-0.0130023,-0.257619,0.00900181,0.0131502,1231,1779,9.02063,-47.7004
14,-755,8.99292,47.8258,0.000190392,-0.0126252,-0.00216736,0.00054701,-0.0129818,-0.163079,0.00884254,0.0115372,1238,1779,8.99296,-47.8257
21,-755,8.91223,47.924,0.000690163,-0.011426,-0.00115114,0.000798561,-0.0115344,-0.0938889,0.00796915,0.0167883,1245,1779,8.91222,-47.924
28,-755,8.86646,47.9688,0.0015956,-0.00904003,0.000106033,0.00159665,-0.00904109,0.0099683,0.00662407,0.0211362,1252,1779,8.86647,-47.9687
35,-755,8.87793,48.0682,0.00272788,-0.00505011,0.00134594,0.0029542,-0.00527643,0.166593,0.00481459,0.02112,1259,1779,8.87799,-48.0683
42,-755,8.84961,48.0807,0.0037825,0.00201237,0.00262374,0.00566643,0.000128442,0.622726,0.00373554,0.0150255,1266,1779,8.84959,-48.0807
49,-755,8.79041,48.0896,0.00490987,0.00813666,0.00362877,0.0104945,0.00255199,0.99458,0.00631985,0.010108,1273,1779,8.79037,-48.0896
56,-755,8.71448,48.134,0.00532764,0.0141811,0.00488006,0.016343,0.00316567,1.15376,0.0100084,0.00901455,1280,1779,8.71452,-48.134
63,-755,8.68042,48.1525,0.0050664,0.0198733,0.00571118,0.0218202,0.00311952,1.24226,0.0136265,0.00926082,1287,1779,8.68041,-48.1524
70,-755,8.66626,48.1394,0.00407737,0.0251082,0.00611853,0.0267587,0.00242684,1.30731,0.0170877,0.0133975,1294,1779,8.66626,-48.1394
77,-755,8.60559,48.0969,0.00242196,0.0287372,0.00645186,0.0302339,0.000925249,1.34285,0.0198547,0.0130199,1301,1779,8.6056,-48.0969
84,-755,8.56396,48.0753,0.000976003,0.0300637,0.00671049,0.0315371,-0.000497461,1.35465,0.0211925,0.0129421,1308,1779,8.56402,-48.0754
91,-755,8.51416,48.0377,-0.000449764,0.0298636,0.00645263,0.0311799,-0.00176613,1.36955,0.0213997,0.0129875,1315,1779,8.51413,-48.0378
98,-755,8.43628,48.0155,-0.0026279,0.0278298,0.00617463,0.0290339,-0.00383207,1.3782,0.0207516,0.0132622,1322,1779,8.43626,-48.0155
105,-755,8.42615,47.9626,-0.00478667,0.0246269,0.00588527,0.0257608,-0.00592052,1.38047,0.0194501,0.0170035,1329,1779,8.42619,-47.9627
112,-755,8.41064,47.8511,-0.00637074,0.0198976,0.00536721,0.0209519,-0.00742507,1.37683,0.0169926,0.0235566,1336,1779,8.41064,-47.8511
119,-755,8.35596,47.739,-0.00740142,0.0140964,0.00465287,0.0150603,-0.00836524,1.36654,0.0137076,0.0241365,1343,1779,8.35599,-47.7391
126,-755,8.31165,47.7271,-0.00763474,0.00737865,0.00392971,0.00834503,-0.00860113,1.32966,0.00978424,0.0277373,1350,1779,8.31166,-47.7271
133,-755,8.19995,47.5901,-0.0071662,0.00207807,0.00280857,0.00286447,-0.00795259,1.29779,0.00647144,0.0275343,1357,1779,8.19995,-47.5901
140,-755,8.07288,47.4486,-0.00612054,-0.00223588,0.00181488,-0.00151993,-0.00683649,1.19505,0.00414497,0.0338366,1364,1779,8.07285,-47.4486
147,-755,8.23047,47.3591,-0.00441981,-0.00705848,0.000978561,-0.00409652,-0.00738178,0.319086,0.00427044,0.0380882,1371,1779,8.23048,-47.3591
154,-755,8.08655,47.3015,-0.00286814,-0.00706725,0.000641549,-0.00277231,-0.00716308,0.148277,0.00417064,0.0389096,1378,1779,8.08652,-47.3015
161,-755,8.0603,47.0714,0,0,0,0,0,0,0,-1,1385,1779,8.06026,-47.0714
168,-755,3.98181,7.35901,0,0,0,0,0,0,0,-1,1392,1779,3.98184,-7.35904
175,-755,8.17065,1.34363,0,0,0,0,0,0,0,-1,1399,1779,8.1706,-1.34368
182,-755,8.09216,2.96924,0,0,0,0,0,0,0,-1,1406,1779,8.09213,-2.9693
189,-755,8.04419,4.68042,0,0,0,0,0,0,0,-1,1413,1779,8.04419,-4.68046
196,-755,7.74841,7.4541,0,0,0,0,0,0,0,-1,1420,1779,7.74842,-7.45405
203,-755,4.80554,6.88696,0,0,0,0,0,0,0,-1,1427,1779,4.80554,-6.88697
210,-755,25.1694,7.35693,0,0,0,0,0,0,0,-1,1434,1779,25.1694,-7.35688
217,-755,5.01648,16.411,0,0,0,0,0,0,0,-1,1441,1779,5.01646,-16.411
224,-755,5.18103,22.6283,0,0,0,0,0,0,0,-1,1448,1779,5.18101,-22.6283
231,-755,5.7489,30.15,0,0,0,0,0,0,0,-1,1455,1779,5.74885,-30.15
238,-755,6.56323,29.2726,0,0,0,0,0,0,0,-1,1462,1779,6.56327,-29.2726
245,-755,7.27502,27.2828,0,0,0,0,0,0,0,-1,1469,1779,7.27498,-27.2828
252,-755,6.36707,28.3308,0,0,0,0,0,0,0,-1,1476,1779,6.36707,-28.3309
259,-755,5.45911,29.3789,0,0,0,0,0,0,0,-1,1483,1779,5.45916,-29.3789
266,-755,17.255,7.86096,0,0,0,0,0,0,0,-1,1490,1779,17.255,-7.86092
273,-755,15.7932,7.59778,0,0,0,0,0,0,0,-1,1497,1779,15.7932,-7.59777
280,-755,14.6255,7.34802,0,0,0,0,0,0,0,-1,1504,1779,14.6254,-7.34806
287,-755,13.8279,7.83105,0,0,0,0,0,0,0,-1,1511,1779,13.8279,-7.83104
294,-755,12.5695,7.96814,0,0,0,0,0,0,0,-1,1518,1779,12.5694,-7.9682
301,-755,11.2659,8.27087,0,0,0,0,0,0,0,-1,1525,1779,11.2658,-8.27087
308,-755,5.17737,37.2896,0,0,0,0,0,0,0,-1,1532,1779,5.17742,-37.2896
315,-755,0.828613,31.032,0,0,0,0,0,0,0,-1,1539,1779,0.828668,-31.032
322,-755,0,0,0,0,0,0,0,0,0,-1,1546,1779,0,0
329,-755,0,0,0,0,0,0,0,0,0,-1,1553,1779,0,0
336,-755,0,0,0,0,0,0,0,0,0,-1,1560,1779,0,0
343,-755,0,0,0,0,0,0,0,0,0,-1,1567,1779,0,0
350,-755,0,0,0,0,0,0,0,0,0,-1,1574,1779,0,0
357,-755,0,0,0,0,0,0,0,0,0,-1,1581,1779,0,0
364,-755,0,0,0,0,0,0,0,0,0,-1,1588,1779,0,0
371,-755,0,0,0,0,0,0,0,0,0,-1,1595,1779,0,0
378,-755,0,0,0,0,0,0,0,0,0,-1,1602,1779,0,0
385,-755,0,0,0,0,0,0,0,0,0,-1,1609,1779,0,0
392,-755,0,0,0,0,0,0,0,0,0,-1,1616,1779,0,0
399,-755,0,0,0,0,0,0,0,0,0,-1,1623,1779,0,0
406,-755,0,0,0,0,0,0,0,0,0,-1,1630,1779,0,0
413,-755,0,0,0,0,0,0,0,0,0,-1,1637,1779,0,0
420,-755,0,0,0,0,0,0,0,0,0,-1,1644,1779,0,0
427,-755,0,0,0,0,0,0,0,0,0,-1,1651,1779,0,0
434,-755,0,0,0,0,0,0,0,0,0,-1,1658,1779,0,0
441,-755,0,0,0,0,0,0,0,0,0,-1,1665,1779,0,0
448,-755,0,0,0,0,0,0,0,0,0,-1,1672,1779,0,0
455,-755,0,0,0,0,0,0,0,0,0,-1,1679,1779,0,0
462,-755,0,0,0,0,0,0,0,0,0,-1,1686,1779,0,0
469,-755,0,0,0,0,0,0,0,0,0,-1,1693,1779,0,0
476,-755,0,0,0,0,0,0,0,0,0,-1,1700,1779,0,0
483,-755,0,0,0,0,0,0,0,0,0,-1,1707,1779,0,0
490,-755,0,0,0,0,0,0,0,0,0,-1,1714,1779,0,0
497,-755,0,0,0,0,0,0,0,0,0,-1,1721,1779,0,0
504,-755,0,0,0,0,0,0,0,0,0,-1,1728,1779,0,0
511,-755,0,0,0,0,0,0,0,0,0,-1,1735,1779,0,0
518,-755,0,0,0,0,0,0,0,0,0,-1,1742,1779,0,0
525,-755,0,0,0,0,0,0,0,0,0,-1,1749,1779,0,0
532,-755,0,0,0,0,0,0,0,0,0,-1,1756,1779,0,0
539,-755,0,0,0,0,0,0,0,0,0,-1,1763,1779,0,0
546,-755,0,0,0,0,0,0,0,0,0,-1,1770,1779,0,0
553,-755,0,0,0,0,0,0,0,0,0,-1,1777,1779,0,0
560,-755,0,0,0,0,0,0,0,0,0,-1,1784,1779,0,0
567,-755,0,0,0,0,0,0,0,0,0,-1,1791,1779,0,0
574,-755,0,0,0,0,0,0,0,0,0,-1,1798,1779,0,0
581,-755,0,0,0,0,0,0,0,0,0,-1,1805,1779,0,0
588,-755,0,0,0,0,0,0,0,0,0,-1,1812,1779,0,0
595,-755,0,0,0,0,0,0,0,0,0,-1,1819,1779,0,0
602,-755,0,0,0,0,0,0,0,0,0,-1,1826,1779,0,0
609,-755,0,0,0,0,0,0,0,0,0,-1,1833,1779,0,0
616,-755,0,0,0,0,0,0,0,0,0,-1,1840,1779,0,0
623,-755,0,0,0,0,0,0,0,0,0,-1,1847,1779,0,0
630,-755,0,0,0,0,0,0,0,0,0,-1,1854,1779,0,0
637,-755,0,0,0,0,0,0,0,0,0,-1,1861,1779,0,0
644,-755,0,0,0,0,0,0,0,0,0,-1,1868,1779,0,0
651,-755,0,0,0,0,0,0,0,0,0,-1,1875,1779,0,0
658,-755,0,0,0,0,0,0,0,0,0,-1,1882,1779,0,0
665,-755,0,0,0,0,0,0,0,0,0,-1,1889,1779,0,0
672,-755,0,0,0,0,0,0,0,0,0,-1,1896,1779,0,0
679,-755,0,0,0,0,0,0,0,0,0,-1,1903,1779,0,0
686,-755,0,0,0,0,0,0,0,0,0,-1,1910,1779,0,0
693,-755,0,0,0,0,0,0,0,0,0,-1,1917,1779,0,0
700,-755,0,0,0,0,0,0,0,0,0,-1,1924,1779,0,0
707,-755,0,0,0,0,0,0,0,0,0,-1,1931,1779,0,0
714,-755,0,0,0,0,0,0,0,0,0,-1,1938,1779,0,0
721,-755,0,0,0,0,0,0,0,0,0,-1,1945,1779,0,0
728,-755,0,0,0,0,0,0,0,0,0,-1,1952,1779,0,0
735,-755,0,0,0,0,0,0,0,0,0,-1,1959,1779,0,0
742,-755,0,0,0,0,0,0,0,0,0,-1,1966,1779,0,0
749,-755,0,0,0,0,0,0,0,0,0,-1,1973,1779,0,0
756,-755,0,0,0,0,0,0,0,0,0,-1,1980,1779,0,0
763,-755,0,0,0,0,0,0,0,0,0,-1,1987,1779,0,0
770,-755,0,0,0,0,0,0,0,0,0,-1,1994,1779,0,0
777,-755,0,0,0,0,0,0,0,0,0,-1,2001,1779,0,0
784,-755,0,0,0,0,0,0,0,0,0,-1,2008,1779,0,0
791,-755,0,0,0,0,0,0,0,0,0,-1,2015,1779,0,0
798,-755,0,0,0,0,0,0,0,0,0,-1,2022,1779,0,0
805,-755,0,0,0,0,0,0,0,0,0,-1,2029,1779,0,0
812,-755,0,0,0,0,0,0,0,0,0,-1,2036,1779,0,0
-700,-762,0,0,0,0,0,0,0,0,0,-1,524,1786,0,0
-693,-762,0,0,0,0,0,0,0,0,0,-1,531,1786,0,0
-686,-762,0,0,0,0,0,0,0,0,0,-1,538,1786,0,0
-679,-762,0,0,0,0,0,0,0,0,0,-1,545,1786,0,0
-672,-762,0,0,0,0,0,0,0,0,0,-1,552,1786,0,0
-665,-762,0,0,0,0,0,0,0,0,0,-1,559,1786,0,0
-658,-762,0,0,0,0,0,0,0,0,0,-1,566,1786,0,0
-651,-762,0,0,0,0,0,0,0,0,0,-1,573,1786,0,0
-644,-762,0,0,0,0,0,0,0,0,0,-1,580,1786,0,0
-637,-762,0,0,0,0,0,0,0,0,0,-1,587,1786,0,0
-630,-762,0,0,0,0,0,0,0,0,0,-1,594,1786,0,0
-623,-762,0,0,0,0,0,0,0,0,0,-1,601,1786,0,0
-616,-762,0,0,0,0,0,0,0,0,0,-1,608,1786,0,0
-609,-762,0,0,0,0,0,0,0,0,0,-1,615,1786,0,0
-602,-762,0,0,0,0,0,0,0,0,0,-1,622,1786,0,0
-595,-762,0,0,0,0,0,0,0,0,0,-1,629,1786,0,0
-588,-762,0,0,0,0,0,0,0,0,0,-1,636,1786,0,0
-581,-762,0,0,0,0,0,0,0,0,0,-1,643,1786,0,0
-574,-762,0,0,0,0,0,0,0,0,0,-1,650,1786,0,0
-567,-762,0,0,0,0,0,0,0,0,0,-1,657,1786,0,0
-560,-762,0,0,0,0,0,0,0,0,0,-1,664,1786,0,0
-553,-762,0,0,0,0,0,0,0,0,0,-1,671,1786,0,0
-546,-762,0,0,0,0,0,0,0,0,0,-1,678,1786,0,0
-539,-762,0,0,0,0,0,0,0,0,0,-1,685,1786,0,0
-532,-762,0,0,0,0,0,0,0,0,0,-1,692,1786,0,0
-525,-762,0,0,0,0,0,0,0,0,0,-1,699,1786,0,0
-518,-762,0,0,0,0,0,0,0,0,0,-1,706,1786,0,0
-511,-762,0,0,0,0,0,0,0,0,0,-1,713,1786,0,0
-504,-762,0,0,0,0,0,0,0,0,0,-1,720,1786,0,0
-497,-762,0,0,0,0,0,0,0,0,0,-1,727,1786,0,0
-490,-762,0,0,0,0,0,0,0,0,0,-1,734,1786,0,0
-483,-762,0,0,0,0,0,0,0,0,0,-1,741,1786,0,0
-476,-762,0,0,0,0,0,0,0,0,0,-1,748,1786,0,0
-469,-762,0,0,0,0,0,0,0,0,0,-1,755,1786,0,0
-462,-762,0,0,0,0,0,0,0,0,0,-1,762,1786,0,0
-455,-762,0,0,0,0,0,0,0,0,0,-1,769,1786,0,0
-448,-762,0,0,0,0,0,0,0,0,0,-1,776,1786,0,0
-441,-762,0,0,0,0,0,0,0,0,0,-1,783,1786,0,0
-434,-762,0,0,0,0,0,0,0,0,0,-1,790,1786,0,0
-427,-762,0,0,0,0,0,0,0,0,0,-1,797,1786,0,0
-420,-762,0,0,0,0,0,0,0,0,0,-1,804,1786,0,0
-413,-762,0,0,0,0,0,0,0,0,0,-1,811,1786,0,0
-406,-762,0,0,0,0,0,0,0,0,0,-1,818,1786,0,0
-399,-762,0,0,0,0,0,0,0,0,0,-1,825,1786,0,0
-392,-762,0,0,0,0,0,0,0,0,0,-1,832,1786,0,0
-385,-762,0,0,0,0,0,0,0,0,0,-1,839,1786,0,0
-378,-762,0,0,0,0,0,0,0,0,0,-1,846,1786,0,0
-371,-762,0,0,0,0,0,0,0,0,0,-1,853,1786,0,0
-364,-762,0,0,0,0,0,0,0,0,0,-1,860,1786,0,0
-357,-762,0,0,0,0,0,0,0,0,0,-1,867,1786,0,0
-350,-762,0,0,0,0,0,0,0,0,0,-1,874,1786,0,0
-343,-762,0,0,0,0,0,0,0,0,0,-1,881,1786,0,0
-336,-762,0,0,0,0,0,0,0,0,0,-1,888,1786,0,0
-329,-762,0,0,0,0,0,0,0,0,0,-1,895,1786,0,0
-322,-762,0,0,0,0,0,0,0,0,0,-1,902,1786,0,0
-315,-762,0,0,0,0,0,0,0,0,0,-1,909,1786,0,0
-308,-762,0,0,0,0,0,0,0,0,0,-1,916,1786,0,0
-301,-762,0,0,0,0,0,0,0,0,0,-1,923,1786,0,0
-294,-762,0,0,0,0,0,0,0,0,0,-1,930,1786,0,0
-287,-762,0,0,0,0,0,0,0,0,0,-1,937,1786,0,0
-280,-762,0,0,0,0,0,0,0,0,0,-1,944,1786,0,0
-273,-762,0,0,0,0,0,0,0,0,0,-1,951,1786,0,0
-266,-762,0,0,0,0,0,0,0,0,0,-1,958,1786,0,0
-259,-762,0,0,0,0,0,0,0,0,0,-1,965,1786,0,0
-252,-762,0,0,0,0,0,0,0,0,0,-1,972,1786,0,0
-245,-762,0,0,0,0,0,0,0,0,0,-1,979,1786,0,0
-238,-762,0,0,0,0,0,0,0,0,0,-1,986,1786,0,0
-231,-762,0,0,0,0,0,0,0,0,0,-1,993,1786,0,0
-224,-762,0,0,0,0,0,0,0,0,0,-1,1000,1786,0,0
-217,-762,0,0,0,0,0,0,0,0,0,-1,1007,1786,0,0
-210,-762,0,0,0,0,0,0,0,0,0,-1,1014,1786,0,0
-203,-762,0,0,0,0,0,0,0,0,0,-1,1021,1786,0,0
-196,-762,0,0,0,0,0,0,0,0,0,-1,1028,1786,0,0
-189,-762,0,0,0,0,0,0,0,0,0,-1,1035,1786,0,0
-182,-762,4.44226,13.2462,0,0,0,0,0,0,0,-1,1042,1786,4.44227,-13.2462
-175,-762,4.3219,18.3975,0,0,0,0,0,0,0,-1,1049,1786,4.32192,-18.3974
-168,-762,-2.08618,13.0768,0,0,0,0,0,0,0,-1,1056,1786,-2.08623,-13.0768
-161,-762,-3.29077,11.9508,0,0,0,0,0,0,0,-1,1063,1786,-3.29076,-11.9508
-154,-762,-4.55823,11.1176,0,0,0,0,0,0,0,-1,1070,1786,-4.55828,-11.1175
-147,-762,-6.52454,9.41418,0,0,0,0,0,0,0,-1,1077,1786,-6.52458,-9.41419
-140,-762,4.99792,5.28589,0,0,0,0,0,0,0,-1,1084,1786,4.99793,-5.28587
-133,-762,0.689819,19.2172,0,0,0,0,0,0,0,-1,1091,1786,0.689867,-19.2171
-126,-762,1.48743,19.9288,0,0,0,0,0,0,0,-1,1098,1786,1.48738,-19.9289
-119,-762,2.65637,20.208,0,0,0,0,0,0,0,-1,1105,1786,2.65632,-20.208
-112,-762,6.84705,25.5554,0,0,0,0,0,0,0,-1,1112,1786,6.84706,-25.5554
-105,-762,5.57947,21.618,0,0,0,0,0,0,0,-1,1119,1786,5.57948,-21.618
-98,-762,5.0636,17.9901,0,0,0,0,0,0,0,-1,1126,1786,5.06361,-17.9901
-91,-762,4.54773,14.3622,0,0,0,0,0,0,0,-1,1133,1786,4.54774,-14.3622
-84,-762,3.96375,10.4547,0,0,0,0,0,0,0,-1,1140,1786,3.96371,-10.4548
-77,-762,0.305054,8.49365,0,0,0,0,0,0,0,-1,1147,1786,0.305008,-8.49362
-70,-762,0.183716,6.74622,0,0,0,0,0,0,0,-1,1154,1786,0.183696,-6.74621
-63,-762,-0.883057,9.08813,0,0,0,0,0,0,0,-1,1161,1786,-0.88311,-9.08808
-56,-762,-0.578979,5.10254,0,0,0,0,0,0,0,-1,1168,1786,-0.578951,-5.10249
-49,-762,-2.04541,3.66321,0,0,0,0,0,0,0,-1,1175,1786,-2.0454,-3.66319
-42,-762,-2.23462,3.474,0,0,0,0,0,0,0,-1,1182,1786,-2.23459,-3.47399
-35,-762,-3.28992,1.68164,0,0,0,0,0,0,0,-1,1189,1786,-3.28998,-1.68164
-28,-762,-3.75378,1.37769,0,0,0,0,0,0,0,-1,1196,1786,-3.75373,-1.37767
-21,-762,9.33386,47.6161,0,0,0,0,0,0,0,-1,1203,1786,9.3339,-47.6161
-14,-762,9.0542,47.6628,0,0,0,0,0,0,0,-1,1210,1786,9.0542,-47.6629
-7,-762,9.12439,47.407,0,0,0,0,0,0,0,-1,1217,1786,9.12437,-47.407
0,-762,9.12683,47.7308,0.00247407,-0.0137207,-0.00734927,0.00531193,-0.0165585,-0.368503,0.0131717,0.0372344,1224,1786,9.12688,-47.7308
7,-762,9.14294,47.7627,0.00221757,-0.0158017,-0.00537159,0.00369734,-0.0172815,-0.268812,0.0129308,0.0208433,1231,1786,9.14293,-47.7627
14,-762,9.08972,48.038,0.00230467,-0.0166762,-0.00340582,0.00289729,-0.0172688,-0.172277,0.0125899,0.0351045,1238,1786,9.08969,-48.038
21,-762,9.00293,48.0428,0.00291309,-0.0152197,-0.00182928,0.00309579,-0.0154024,-0.0995459,0.0114407,0.0460091,1245,1786,9.00289,-48.0428
28,-762,8.88574,48.0948,0.00410639,-0.0120288,2.96103e-05,0.00410645,-0.0120289,0.00183513,0.00968282,0.0488416,1252,1786,8.8857,-48.0949
35,-762,8.78845,48.2379,0.00557985,-0.00640785,0.00186699,0.00586389,-0.00669189,0.150979,0.00725433,0.0474677,1259,1786,8.78841,-48.2379
42,-762,8.88037,48.1566,0.00694773,0.00368922,0.00373603,0.00939431,0.00124265,0.579784,0.00589249,0.0469148,1266,1786,8.88033,-48.1566
49,-762,8.8252,48.1563,0.00844434,0.0125346,0.00521323,0.0160895,0.00488944,0.972323,0.00952448,0.0373799,1273,1786,8.82524,-48.1563
56,-762,8.74841,48.2035,0.00896402,0.0211876,0.00700549,0.0243726,0.00577899,1.14408,0.0147056,0.028384,1280,1786,8.74837,-48.2035
63,-762,8.69556,48.2051,0.0084838,0.0293224,0.00824404,0.0321894,0.00561679,1.23611,0.019854,0.0266287,1287,1786,8.69557,-48.2051
70,-762,8.70703,48.1676,0.00695462,0.0367662,0.00890473,0.0392235,0.00449732,1.30154,0.0247863,0.0277911,1294,1786,8.70705,-48.1676
77,-762,8.6709,48.038,0.00459811,0.0417589,0.00940573,0.044004,0.00235306,1.33649,0.0285839,0.0372523,1301,1786,8.67091,-48.0379
84,-762,8.76331,48.028,0.00254295,0.0437061,0.00973472,0.0458922,0.000356868,1.3499,0.0304765,0.0426314,1308,1786,8.76326,-48.0279
91,-762,8.58655,47.9246,0,0,0,0,0,0,0,-1,1315,1786,8.58657,-47.9245
98,-762,8.34534,48.0526,-0.00280465,0.0410966,0.00912864,0.0429191,-0.00462716,1.37374,0.0302732,0.0485007,1322,1786,8.34529,-48.0526
105,-762,8.42786,48.0474,-0.00596647,0.0368063,0.00874167,0.0385239,-0.00768408,1.37678,0.0285903,0.0424611,1329,1786,8.42786,-48.0473
112,-762,8.49084,47.9094,-0.00835967,0.0301079,0.00800704,0.031708,-0.00995978,1.37356,0.0251255,0.0443854,1336,1786,8.49084,-47.9094
119,-762,8.33325,47.762,-0.00993023,0.0216264,0.00694377,0.0230867,-0.0113906,1.36351,0.0202837,0.0483679,1343,1786,8.33322,-47.762
126,-762,8.21448,47.7964,0,0,0,0,0,0,0,-1,1350,1786,8.2145,-47.7964
133,-762,7.64734,47.7802,-0.00959189,0.00360847,0.00410543,0.00478112,-0.0107645,1.29257,0.00919423,0.0466561,1357,1786,7.64729,-47.7802
140,-762,8.06799,47.5615,-0.00789155,-0.00302288,0.00265039,-0.00185852,-0.00905591,1.15686,0.005523,0.0441184,1364,1786,8.06803,-47.5615
147,-762,8.19666,47.3728,-0.00528457,-0.00999621,0.00151169,-0.00484127,-0.0104395,0.285254,0.00603254,0.0434438,1371,1786,8.19661,-47.3728
154,-762,8.27905,47.1461,0,0,0,0,0,0,0,-1,1378,1786,8.27905,-47.1461
161,-762,8.65051,34.8102,0,0,0,0,0,0,0,-1,1385,1786,8.65054,-34.8101
168,-762,8.19287,0.880615,0,0,0,0,0,0,0,-1,1392,1786,8.19291,-0.880603
175,-762,8.33997,1.95947,0,0,0,0,0,0,0,-1,1399,1786,8.33997,-1.95942
182,-762,8.28418,3.56482,0,0,0,0,0,0,0,-1,1406,1786,8.28415,-3.56485
189,-762,8.21179,5.23389,0,0,0,0,0,0,0,-1,1413,1786,8.21183,-5.23383
196,-762,8.05969,6.95483,0,0,0,0,0,0,0,-1,1420,1786,8.05972,-6.9548
203,-762,24.0077,7.10425,0,0,0,0,0,0,0,-1,1427,1786,24.0077,-7.10426
210,-762,23.8073,7.6499,0,0,0,0,0,0,0,-1,1434,1786,23.8073,-7.64987
217,-762,23.3193,8.24426,0,0,0,0,0,0,0,-1,1441,1786,23.3194,-8.2442
224,-762,2.65149,20.6106,0,0,0,0,0,0,0,-1,1448,1786,2.65153,-20.6106
231,-762,5.46655,23.521,0,0,0,0,0,0,0,-1,1455,1786,5.46653,-23.521
238,-762,5.35632,29.7203,0,0,0,0,0,0,0,-1,1462,1786,5.35629,-29.7203
245,-762,6.93054,27.8312,0,0,0,0,0,0,0,-1,1469,1786,6.93058,-27.8312
252,-762,6.19763,28.3538,0,0,0,0,0,0,0,-1,1476,1786,6.19767,-28.3537
259,-762,5.46472,28.8762,0,0,0,0,0,0,0,-1,1483,1786,5.46476,-28.8762
266,-762,16.451,7.67773,0,0,0,0,0,0,0,-1,1490,1786,16.4511,-7.67773
273,-762,15.287,7.5304,0,0,0,0,0,0,0,-1,1497,1786,15.2869,-7.53044
280,-762,14.1501,7.38379,0,0,0,0,0,0,0,-1,1504,1786,14.1502,-7.38376
287,-762,12.6891,7.99133,0,0,0,0,0,0,0,-1,1511,1786,12.6891,-7.99135
294,-762,12.6959,8.30371,0,0,0,0,0,0,0,-1,1518,1786,12.6959,-8.30368
301,-762,11.4222,8.84143,0,0,0,0,0,0,0,-1,1525,1786,11.4223,-8.84149
308,-762,0,0,0,0,0,0,0,0,0,-1,1532,1786,0,0
315,-762,0,0,0,0,0,0,0,0,0,-1,1539,1786,0,0
322,-762,0,0,0,0,0,0,0,0,0,-1,1546,1786,0,0
329,-762,0,0,0,0,0,0,0,0,0,-1,1553,1786,0,0
336,-762,0,0,0,0,0,0,0,0,0,-1,1560,1786,0,0
343,-762,0,0,0,0,0,0,0,0,0,-1,1567,1786,0,0
350,-762,0,0,0,0,0,0,0,0,0,-1,1574,1786,0,0
357,-762,0,0,0,0,0,0,0,0,0,-1,1581,1786,0,0
364,-762,0,0,0,0,0,0,0,0,0,-1,1588,1786,0,0
371,-762,0,0,0,0,0,0,0,0,0,-1,1595,1786,0,0
378,-762,0,0,0,0,0,0,0,0,0,-1,1602,1786,0,0
385,-762,0,0,0,0,0,0,0,0,0,-1,1609,1786,0,0
392,-762,0,0,0,0,0,0,0,0,0,-1,1616,1786,0,0
399,-762,0,0,0,0,0,0,0,0,0,-1,1623,1786,0,0
406,-762,0,0,0,0,0,0,0,0,0,-1,1630,1786,0,0
413,-762,0,0,0,0,0,0,0,0,0,-1,1637,1786,0,0
420,-762,0,0,0,0,0,0,0,0,0,-1,1644,1786,0,0
427,-762,0,0,0,0,0,0,0,0,0,-1,1651,1786,0,0
434,-762,0,0,0,0,0,0,0,0,0,-1,1658,1786,0,0
441,-762,0,0,0,0,0,0,0,0,0,-1,1665,1786,0,0
448,-762,0,0,0,0,0,0,0,0,0,-1,1672,1786,0,0
455,-762,0,0,0,0,0,0,0,0,0,-1,1679,1786,0,0
462,-762,0,0,0,0,0,0,0,0,0,-1,1686,1786,0,0
469,-762,0,0,0,0,0,0,0,0,0,-1,1693,1786,0,0
476,-762,0,0,0,0,0,0,0,0,0,-1,1700,1786,0,0
483,-762,0,0,0,0,0,0,0,0,0,-1,1707,1786,0,0
490,-762,0,0,0,0,0,0,0,0,0,-1,1714,1786,0,0
497,-762,0,0,0,0,0,0,0,0,0,-1,1721,1786,0,0
504,-762,0,0,0,0,0,0,0,0,0,-1,1728,1786,0,0
511,-762,0,0,0,0,0,0,0,0,0,-1,1735,1786,0,0
518,-762,0,0,0,0,0,0,0,0,0,-1,1742,1786,0,0
525,-762,0,0,0,0,0,0,0,0,0,-1,1749,1786,0,0
532,-762,0,0,0,0,0,0,0,0,0,-1,1756,1786,0,0
539,-762,0,0,0,0,0,0,0,0,0,-1,1763,1786,0,0
546,-762,0,0,0,0,0,0,0,0,0,-1,1770,1786,0,0
553,-762,0,0,0,0,0,0,0,0,0,-1,1777,1786,0,0
560,-762,0,0,0,0,0,0,0,0,0,-1,1784,1786,0,0
567,-762,0,0,0,0,0,0,0,0,0,-1,1791,1786,0,0
574,-762,0,0,0,0,0,0,0,0,0,-1,1798,1786,0,0
581,-762,0,0,0,0,0,0,0,0,0,-1,1805,1786,0,0
588,-762,0,0,0,0,0,0,0,0,0,-1,1812,1786,0,0
595,-762,0,0,0,0,0,0,0,0,0,-1,1819,1786,0,0
602,-762,0,0,0,0,0,0,0,0,0,-1,1826,1786,0,0
609,-762,0,0,0,0,0,0,0,0,0,-1,1833,1786,0,0
616,-762,0,0,0,0,0,0,0,0,0,-1,1840,1786,0,0
623,-762,0,0,0,0,0,0,0,0,0,-1,1847,1786,0,0
630,-762,0,0,0,0,0,0,0,0,0,-1,1854,1786,0,0
637,-762,0,0,0,0,0,0,0,0,0,-1,1861,1786,0,0
644,-762,0,0,0,0,0,0,0,0,0,-1,1868,1786,0,0
651,-762,0,0,0,0,0,0,0,0,0,-1,1875,1786,0,0
658,-762,0,0,0,0,0,0,0,0,0,-1,1882,1786,0,0
665,-762,0,0,0,0,0,0,0,0,0,-1,1889,1786,0,0
672,-762,0,0,0,0,0,0,0,0,0,-1,1896,1786,0,0
679,-762,0,0,0,0,0,0,0,0,0,-1,1903,1786,0,0
686,-762,0,0,0,0,0,0,0,0,0,-1,1910,1786,0,0
693,-762,0,0,0,0,0,0,0,0,0,-1,1917,1786,0,0
700,-762,0,0,0,0,0,0,0,0,0,-1,1924,1786,0,0
707,-762,0,0,0,0,0,0,0,0,0,-1,1931,1786,0,0
714,-762,0,0,0,0,0,0,0,0,0,-1,1938,1786,0,0
721,-762,0,0,0,0,0,0,0,0,0,-1,1945,1786,0,0
728,-762,0,0,0,0,0,0,0,0,0,-1,1952,1786,0,0
735,-762,0,0,0,0,0,0,0,0,0,-1,1959,1786,0,0
742,-762,0,0,0,0,0,0,0,0,0,-1,1966,1786,0,0
749,-762,0,0,0,0,0,0,0,0,0,-1,1973,1786,0,0
756,-762,0,0,0,0,0,0,0,0,0,-1,1980,1786,0,0
763,-762,0,0,0,0,0,0,0,0,0,-1,1987,1786,0,0
770,-762,0,0,0,0,0,0,0,0,0,-1,1994,1786,0,0
777,-762,0,0,0,0,0,0,0,0,0,-1,2001,1786,0,0
784,-762,0,0,0,0,0,0,0,0,0,-1,2008,1786,0,0
791,-762,0,0,0,0,0,0,0,0,0,-1,2015,1786,0,0
798,-762,0,0,0,0,0,0,0,0,0,-1,2022,1786,0,0
805,-762,0,0,0,0,0,0,0,0,0,-1,2029,1786,0,0
812,-762,0,0,0,0,0,0,0,0,0,-1,2036,1786,0,0
-700,-769,0,0,0,0,0,0,0,0,0,-1,524,1793,0,0
-693,-769,0,0,0,0,0,0,0,0,0,-1,531,1793,0,0
-686,-769,0,0,0,0,0,0,0,0,0,-1,538,1793,0,0
-679,-769,0,0,0,0,0,0,0,0,0,-1,545,1793,0,0
-672,-769,0,0,0,0,0,0,0,0,0,-1,552,1793,0,0
-665,-769,0,0,0,0,0,0,0,0,0,-1,559,1793,0,0
-658,-769,0,0,0,0,0,0,0,0,0,-1,566,1793,0,0
-651,-769,0,0,0,0,0,0,0,0,0,-1,573,1793,0,0
-644,-769,0,0,0,0,0,0,0,0,0,-1,580,1793,0,0
-637,-769,0,0,0,0,0,0,0,0,0,-1,587,1793,0,0
-630,-769,0,0,0,0,0,0,0,0,0,-1,594,1793,0,0
-623,-769,0,0,0,0,0,0,0,0,0,-1,601,1793,0,0
-616,-769,0,0,0,0,0,0,0,0,0,-1,608,1793,0,0
-609,-769,0,0,0,0,0,0,0,0,0,-1,615,1793,0,0
-602,-769,0,0,0,0,0,0,0,0,0,-1,622,1793,0,0
-595,-769,0,0,0,0,0,0,0,0,0,-1,629,1793,0,0
-588,-769,0,0,0,0,0,0,0,0,0,-1,636,1793,0,0
-581,-769,0,0,0,0,0,0,0,0,0,-1,643,1793,0,0
-574,-769,0,0,0,0,0,0,0,0,0,-1,650,1793,0,0
-567,-769,0,0,0,0,0,0,0,0,0,-1,657,1793,0,0
-560,-769,0,0,0,0,0,0,0,0,0,-1,664,1793,0,0
-553,-769,0,0,0,0,0,0,0,0,0,-1,671,1793,0,0
-546,-769,0,0,0,0,0,0,0,0,0,-1,678,1793,0,0
-539,-769,0,0,0,0,0,0,0,0,0,-1,685,1793,0,0
-532,-769,0,0,0,0,0,0,0,0,0,-1,692,1793,0,0
-525,-769,0,0,0,0,0,0,0,0,0,-1,699,1793,0,0
-518,-769,0,0,0,0,0,0,0,0,0,-1,706,1793,0,0
-511,-769,0,0,0,0,0,0,0,0,0,-1,713,1793,0,0
-504,-769,0,0,0,0,0,0,0,0,0,-1,720,1793,0,0
-497,-769,0,0,0,0,0,0,0,0,0,-1,727,1793,0,0
-490,-769,0,0,0,0,0,0,0,0,0,-1,734,1793,0,0
-483,-769,0,0,0,0,0,0,0,0,0,-1,741,1793,0,0
-476,-769,0,0,0,0,0,0,0,0,0,-1,748,1793,0,0
-469,-769,0,0,0,0,0,0,0,0,0,-1,755,1793,0,0
-462,-769,0,0,0,0,0,0,0,0,0,-1,762,1793,0,0
-455,-769,0,0,0,0,0,0,0,0,0,-1,769,1793,0,0
-448,-769,0,0,0,0,0,0,0,0,0,-1,776,1793,0,0
-441,-769,0,0,0,0,0,0,0,0,0,-1,783,1793,0,0
-434,-769,0,0,0,0,0,0,0,0,0,-1,790,1793,0,0
-427,-769,0,0,0,0,0,0,0,0,0,-1,797,1793,0,0
-420,-769,0,0,0,0,0,0,0,0,0,-1,804,1793,0,0
-413,-769,0,0,0,0,0,0,0,0,0,-1,811,1793,0,0
-406,-769,0,0,0,0,0,0,0,0,0,-1,818,1793,0,0
-399,-769,0,0,0,0,0,0,0,0,0,-1,825,1793,0,0
-392,-769,0,0,0,0,0,0,0,0,0,-1,832,1793,0,0
-385,-769,0,0,0,0,0,0,0,0,0,-1,839,1793,0,0
-378,-769,0,0,0,0,0,0,0,0,0,-1,846,1793,0,0
-371,-769,0,0,0,0,0,0,0,0,0,-1,853,1793,0,0
-364,-769,0,0,0,0,0,0,0,0,0,-1,860,1793,0,0
-357,-769,0,0,0,0,0,0,0,0,0,-1,867,1793,0,0
-350,-769,0,0,0,0,0,0,0,0,0,-1,874,1793,0,0
-343,-769,0,0,0,0,0,0,0,0,0,-1,881,1793,0,0
-336,-769,0,0,0,0,0,0,0,0,0,-1,888,1793,0,0
-329,-769,0,0,0,0,0,0,0,0,0,-1,895,1793,0,0
-322,-769,0,0,0,0,0,0,0,0,0,-1,902,1793,0,0
-315,-769,0,0,0,0,0,0,0,0,0,-1,909,1793,0,0
-308,-769,0,0,0,0,0,0,0,0,0,-1,916,1793,0,0
-301,-769,0,0,0,0,0,0,0,0,0,-1,923,1793,0,0
-294,-769,0,0,0,0,0,0,0,0,0,-1,930,1793,0,0
-287,-769,0,0,0,0,0,0,0,0,0,-1,937,1793,0,0
-280,-769,0,0,0,0,0,0,0,0,0,-1,944,1793,0,0
-273,-769,0,0,0,0,0,0,0,0,0,-1,951,1793,0,0
-266,-769,0,0,0,0,0,0,0,0,0,-1,958,1793,0,0
-259,-769,0,0,0,0,0,0,0,0,0,-1,965,1793,0,0
-252,-769,0,0,0,0,0,0,0,0,0,-1,972,1793,0,0
-245,-769,0,0,0,0,0,0,0,0,0,-1,979,1793,0,0
-238,-769,0,0,0,0,0,0,0,0,0,-1,986,1793,0,0
-231,-769,0,0,0,0,0,0,0,0,0,-1,993,1793,0,0
-224,-769,0,0,0,0,0,0,0,0,0,-1,1000,1793,0,0
-217,-769,0,0,0,0,0,0,0,0,0,-1,1007,1793,0,0
-210,-769,0,0,0,0,0,0,0,0,0,-1,1014,1793,0,0
-203,-769,0,0,0,0,0,0,0,0,0,-1,1021,1793,0,0
-196,-769,0,0,0,0,0,0,0,0,0,-1,1028,1793,0,0
-189,-769,0,0,0,0,0,0,0,0,0,-1,1035,1793,0,0
-182,-769,0,0,0,0,0,0,0,0,0,-1,1042,1793,0,0
-175,-769,0,0,0,0,0,0,0,0,0,-1,1049,1793,0,0
-168,-769,0,0,0,0,0,0,0,0,0,-1,1056,1793,0,0
-161,-769,-3.61145,12.4761,0,0,0,0,0,0,0,-1,1063,1793,-3.6114,-12.476
-154,-769,-0.813232,5.32874,0,0,0,0,0,0,0,-1,1070,1793,-0.813269,-5.32872
-147,-769,4.26587,4.7002,0,0,0,0,0,0,0,-1,1077,1793,4.26593,-4.70022
-140,-769,4.10376,5.28589,0,0,0,0,0,0,0,-1,1084,1793,4.10371,-5.28584
-133,-769,6.422,8.21777,0,0,0,0,0,0,0,-1,1091,1793,6.42198,-8.21773
-126,-769,-0.352295,19.326,0,0,0,0,0,0,0,-1,1098,1793,-0.352235,-19.326
-119,-769,6.01685,16.2577,0,0,0,0,0,0,0,-1,1105,1793,6.01689,-16.2576
-112,-769,5.76416,27.2615,0,0,0,0,0,0,0,-1,1112,1793,5.7642,-27.2615
-105,-769,4.97009,22.8479,0,0,0,0,0,0,0,-1,1119,1793,4.97006,-22.8479
-98,-769,4.69373,18.9142,0,0,0,0,0,0,0,-1,1126,1793,4.69376,-18.9142
-91,-769,4.41748,14.9805,0,0,0,0,0,0,0,-1,1133,1793,4.41746,-14.9805
-84,-769,3.2207,12.4565,0,0,0,0,0,0,0,-1,1140,1793,3.22066,-12.4565
-77,-769,2.48816,8.98486,0,0,0,0,0,0,0,-1,1147,1793,2.48815,-8.98489
-70,-769,1.04944,11.9852,0,0,0,0,0,0,0,-1,1154,1793,1.04947,-11.9852
-63,-769,-2.39709,9.60339,0,0,0,0,0,0,0,-1,1161,1793,-2.39706,-9.6034
-56,-769,-5.84363,7.22156,0,0,0,0,0,0,0,-1,1168,1793,-5.84359,-7.22157
-49,-769,-2.41443,3.95471,0,0,0,0,0,0,0,-1,1175,1793,-2.41446,-3.95471
-42,-769,-3.1991,2.64941,0,0,0,0,0,0,0,-1,1182,1793,-3.19914,-2.64944
-35,-769,-3.50183,1.73389,0,0,0,0,0,0,0,-1,1189,1793,-3.50189,-1.7339
-28,-769,-3.96985,1.14075,0,0,0,0,0,0,0,-1,1196,1793,-3.96985,-1.14078
-21,-769,9.71558,46.531,0,0,0,0,0,0,0,-1,1203,1793,9.71561,-46.5311
-14,-769,8.81921,47.8673,0,0,0,0,0,0,0,-1,1210,1793,8.81919,-47.8673
-7,-769,9.24829,46.944,0,0,0,0,0,0,0,-1,1217,1793,9.24831,-46.9439
0,-769,9.1637,47.8776,0,0,0,0,0,0,0,-1,1224,1793,9.16374,-47.8775
7,-769,9.79895,47.6545,0.00580138,-0.0196419,-0.00807067,0.00814546,-0.0219859,-0.282667,0.0179977,0.0434615,1231,1793,9.79896,-47.6546
14,-769,9.2384,48.5753,0.00581771,-0.0211605,-0.00513411,0.00676173,-0.0221046,-0.18184,0.017433,0.0422399,1238,1793,9.23841,-48.5753
21,-769,9.16907,48.2771,0.00656357,-0.0196439,-0.00277047,0.00685325,-0.0199336,-0.104179,0.0160682,0.0435753,1245,1793,9.16902,-48.2771
28,-769,9.15576,47.736,0.00808254,-0.0156709,-0.000137244,0.00808334,-0.0156717,-0.00577759,0.0139463,0.0446543,1252,1793,9.15578,-47.736
35,-769,9.13367,47.2277,0,0,0,0,0,0,0,-1,1259,1793,9.13366,-47.2277
42,-769,8.65796,48.4276,0.0116077,0.00559957,0.00505453,0.0144835,0.00272378,0.517277,0.00888797,0.0459432,1266,1793,8.65794,-48.4276
49,-769,8.76221,48.4246,0.0134888,0.0178372,0.00713061,0.0231177,0.00820826,0.933376,0.0135326,0.0461854,1273,1793,8.76224,-48.4245
56,-769,8.6156,48.3141,0.0141016,0.0297836,0.00958412,0.0343255,0.00955971,1.12825,0.0204558,0.0433005,1280,1793,8.61562,-48.3141
63,-769,8.3855,48.1797,0.0133127,0.0410296,0.0113353,0.045075,0.00926734,1.22801,0.0274867,0.0436047,1287,1793,8.38554,-48.1796
70,-769,8.44128,47.7313,0.0110637,0.0513666,0.01234,0.0548447,0.00758562,1.29607,0.0343152,0.0439546,1294,1793,8.44134,-47.7313
77,-769,8.75708,47.9336,0,0,0,0,0,0,0,-1,1301,1793,8.75706,-47.9336
84,-769,9.11829,47.9829,0,0,0,0,0,0,0,-1,1308,1793,9.11827,-47.9829
91,-769,9.95764,47.8298,0,0,0,0,0,0,0,-1,1315,1793,9.9576,-47.8299
98,-769,8.19678,48.006,0,0,0,0,0,0,0,-1,1322,1793,8.19676,-48.006
105,-769,8.29651,48.0276,0,0,0,0,0,0,0,-1,1329,1793,8.29652,-48.0276
112,-769,8.63489,47.837,0,0,0,0,0,0,0,-1,1336,1793,8.63485,-47.837
119,-769,8.39771,47.7285,0,0,0,0,0,0,0,-1,1343,1793,8.39772,-47.7285
126,-769,7.49109,48.174,-0.0132179,0.0171247,0.00797437,0.0190928,-0.015186,1.32883,0.0198337,0.0469231,1350,1793,7.49113,-48.1739
133,-769,6.97327,47.7979,-0.0121719,0.00553694,0.00555997,0.00713785,-0.0137728,1.29044,0.0122737,0.0484328,1357,1793,6.97329,-47.7979
140,-769,8.13391,47.5182,-0.00944312,-0.00423337,0.00349515,-0.00247918,-0.0111973,1.10564,0.00679104,0.0496417,1364,1793,8.1339,-47.5182
147,-769,8.14587,47.2662,0,0,0,0,0,0,0,-1,1371,1793,8.14583,-47.2662
154,-769,7.76904,34.4832,0,0,0,0,0,0,0,-1,1378,1793,7.7691,-34.4832
161,-769,6.57019,1.53223,0,0,0,0,0,0,0,-1,1385,1793,6.57019,-1.53226
168,-769,8.27637,0.756958,0,0,0,0,0,0,0,-1,1392,1793,8.27639,-0.756944
175,-769,8.47144,2.41174,0,0,0,0,0,0,0,-1,1399,1793,8.47147,-2.4118
182,-769,8.41479,4.05994,0,0,0,0,0,0,0,-1,1406,1793,8.41479,-4.05997
189,-769,8.25049,5.68433,0,0,0,0,0,0,0,-1,1413,1793,8.25054,-5.68428
196,-769,7.97729,7.42847,0,0,0,0,0,0,0,-1,1420,1793,7.9773,-7.42848
203,-769,22.0977,6.73889,0,0,0,0,0,0,0,-1,1427,1793,22.0977,-6.7389
210,-769,22.1115,7.77246,0,0,0,0,0,0,0,-1,1434,1793,22.1115,-7.77248
217,-769,22.4723,8.79102,0,0,0,0,0,0,0,-1,1441,1793,22.4723,-8.79099
224,-769,22.1348,9.35278,0,0,0,0,0,0,0,-1,1448,1793,22.1348,-9.35283
231,-769,3.13318,19.7184,0,0,0,0,0,0,0,-1,1455,1793,3.13323,-19.7184
238,-769,5.74512,18.6597,0,0,0,0,0,0,0,-1,1462,1793,5.74512,-18.6596
245,-769,5.80798,22.87,0,0,0,0,0,0,0,-1,1469,1793,5.80796,-22.87
252,-769,6.20837,28.394,0,0,0,0,0,0,0,-1,1476,1793,6.20833,-28.3941
259,-769,10.974,17.7698,0,0,0,0,0,0,0,-1,1483,1793,10.974,-17.7698
266,-769,15.8488,7.3905,0,0,0,0,0,0,0,-1,1490,1793,15.8488,-7.39046
273,-769,14.8075,7.56152,0,0,0,0,0,0,0,-1,1497,1793,14.8075,-7.56152
280,-769,13.6519,7.43054,0,0,0,0,0,0,0,-1,1504,1793,13.6518,-7.43058
287,-769,0,0,0,0,0,0,0,0,0,-1,1511,1793,0,0
294,-769,0,0,0,0,0,0,0,0,0,-1,1518,1793,0,0
301,-769,0,0,0,0,0,0,0,0,0,-1,1525,1793,0,0
308,-769,0,0,0,0,0,0,0,0,0,-1,1532,1793,0,0
315,-769,0,0,0,0,0,0,0,0,0,-1,1539,1793,0,0
322,-769,0,0,0,0,0,0,0,0,0,-1,1546,1793,0,0
329,-769,0,0,0,0,0,0,0,0,0,-1,1553,1793,0,0
336,-769,0,0,0,0,0,0,0,0,0,-1,1560,1793,0,0
343,-769,0,0,0,0,0,0,0,0,0,-1,1567,1793,0,0
350,-769,0,0,0,0,0,0,0,0,0,-1,1574,1793,0,0
357,-769,0,0,0,0,0,0,0,0,0,-1,1581,1793,0,0
364,-769,0,0,0,0,0,0,0,0,0,-1,1588,1793,0,0
371,-769,0,0,0,0,0,0,0,0,0,-1,1595,1793,0,0
378,-769,0,0,0,0,0,0,0,0,0,-1,1602,1793,0,0
385,-769,0,0,0,0,0,0,0,0,0,-1,1609,1793,0,0
392,-769,0,0,0,0,0,0,0,0,0,-1,1616,1793,0,0
399,-769,0,0,0,0,0,0,0,0,0,-1,1623,1793,0,0
406,-769,0,0,0,0,0,0,0,0,0,-1,1630,1793,0,0
413,-769,0,0,0,0,0,0,0,0,0,-1,1637,1793,0,0
420,-769,0,0,0,0,0,0,0,0,0,-1,1644,1793,0,0
427,-769,0,0,0,0,0,0,0,0,0,-1,1651,1793,0,0
434,-769,0,0,0,0,0,0,0,0,0,-1,1658,1793,0,0
441,-769,0,0,0,0,0,0,0,0,0,-1,1665,1793,0,0
448,-769,0,0,0,0,0,0,0,0,0,-1,1672,1793,0,0
455,-769,0,0,0,0,0,0,0,0,0,-1,1679,1793,0,0
462,-769,0,0,0,0,0,0,0,0,0,-1,1686,1793,0,0
469,-769,0,0,0,0,0,0,0,0,0,-1,1693,1793,0,0
476,-769,0,0,0,0,0,0,0,0,0,-1,1700,1793,0,0
483,-769,0,0,0,0,0,0,0,0,0,-1,1707,1793,0,0
490,-769,0,0,0,0,0,0,0,0,0,-1,1714,1793,0,0
497,-769,0,0,0,0,0,0,0,0,0,-1,1721,1793,0,0
504,-769,0,0,0,0,0,0,0,0,0,-1,1728,1793,0,0
511,-769,0,0,0,0,0,0,0,0,0,-1,1735,1793,0,0
518,-769,0,0,0,0,0,0,0,0,0,-1,1742,1793,0,0
525,-769,0,0,0,0,0,0,0,0,0,-1,1749,1793,0,0
532,-769,0,0,0,0,0,0,0,0,0,-1,1756,1793,0,0
539,-769,0,0,0,0,0,0,0,0,0,-1,1763,1793,0,0
546,-769,0,0,0,0,0,0,0,0,0,-1,1770,1793,0,0
553,-769,0,0,0,0,0,0,0,0,0,-1,1777,1793,0,0
560,-769,0,0,0,0,0,0,0,0,0,-1,1784,1793,0,0
567,-769,0,0,0,0,0,0,0,0,0,-1,1791,1793,0,0
574,-769,0,0,0,0,0,0,0,0,0,-1,1798,1793,0,0
581,-769,0,0,0,0,0,0,0,0,0,-1,1805,1793,0,0
588,-769,0,0,0,0,0,0,0,0,0,-1,1812,1793,0,0
595,-769,0,0,0,0,0,0,0,0,0,-1,1819,1793,0,0
602,-769,0,0,0,0,0,0,0,0,0,-1,1826,1793,0,0
609,-769,0,0,0,0,0,0,0,0,0,-1,1833,1793,0,0
616,-769,0,0,0,0,0,0,0,0,0,-1,1840,1793,0,0
623,-769,0,0,0,0,0,0,0,0,0,-1,1847,1793,0,0
630,-769,0,0,0,0,0,0,0,0,0,-1,1854,1793,0,0
637,-769,0,0,0,0,0,0,0,0,0,-1,1861,1793,0,0
644,-769,0,0,0,0,0,0,0,0,0,-1,1868,1793,0,0
651,-769,0,0,0,0,0,0,0,0,0,-1,1875,1793,0,0
658,-769,0,0,0,0,0,0,0,0,0,-1,1882,1793,0,0
665,-769,0,0,0,0,0,0,0,0,0,-1,1889,1793,0,0
672,-769,0,0,0,0,0,0,0,0,0,-1,1896,1793,0,0
679,-769,0,0,0,0,0,0,0,0,0,-1,1903,1793,0,0
686,-769,0,0,0,0,0,0,0,0,0,-1,1910,1793,0,0
693,-769,0,0,0,0,0,0,0,0,0,-1,1917,1793,0,0
700,-769,0,0,0,0,0,0,0,0,0,-1,1924,1793,0,0
707,-769,0,0,0,0,0,0,0,0,0,-1,1931,1793,0,0
714,-769,0,0,0,0,0,0,0,0,0,-1,1938,1793,0,0
721,-769,0,0,0,0,0,0,0,0,0,-1,1945,1793,0,0
728,-769,0,0,0,0,0,0,0,0,0,-1,1952,1793,0,0
735,-769,0,0,0,0,0,0,0,0,0,-1,1959,1793,0,0
742,-769,0,0,0,0,0,0,0,0,0,-1,1966,1793,0,0
749,-769,0,0,0,0,0,0,0,0,0,-1,1973,1793,0,0
756,-769,0,0,0,0,0,0,0,0,0,-1,1980,1793,0,0
763,-769,0,0,0,0,0,0,0,0,0,-1,1987,1793,0,0
770,-769,0,0,0,0,0,0,0,0,0,-1,1994,1793,0,0
777,-769,0,0,0,0,0,0,0,0,0,-1,2001,1793,0,0
784,-769,0,0,0,0,0,0,0,0,0,-1,2008,1793,0,0
791,-769,0,0,0,0,0,0,0,0,0,-1,2015,1793,0,0
798,-769,0,0,0,0,0,0,0,0,0,-1,2022,1793,0,0
805,-769,0,0,0,0,0,0,0,0,0,-1,2029,1793,0,0
812,-769,0,0,0,0,0,0,0,0,0,-1,2036,1793,0,0
-700,-776,0,0,0,0,0,0,0,0,0,-1,524,1800,0,0
-693,-776,0,0,0,0,0,0,0,0,0,-1,531,1800,0,0
-686,-776,0,0,0,0,0,0,0,0,0,-1,538,1800,0,0
-679,-776,0,0,0,0,0,0,0,0,0,-1,545,1800,0,0
-672,-776,0,0,0,0,0,0,0,0,0,-1,552,1800,0,0
-665,-776,0,0,0,0,0,0,0,0,0,-1,559,1800,0,0
-658,-776,0,0,0,0,0,0,0,0,0,-1,566,1800,0,0
-651,-776,0,0,0,0,0,0,0,0,0,-1,573,1800,0,0
-644,-776,0,0,0,0,0,0,0,0,0,-1,580,1800,0,0
-637,-776,0,0,0,0,0,0,0,0,0,-1,587,1800,0,0
-630,-776,0,0,0,0,0,0,0,0,0,-1,594,1800,0,0
-623,-776,0,0,0,0,0,0,0,0,0,-1,601,1800,0,0
-616,-776,0,0,0,0,0,0,0,0,0,-1,608,1800,0,0
-609,-776,0,0,0,0,0,0,0,0,0,-1,615,1800,0,0
-602,-776,0,0,0,0,0,0,0,0,0,-1,622,1800,0,0
-595,-776,0,0,0,0,0,0,0,0,0,-1,629,1800,0,0
-588,-776,0,0,0,0,0,0,0,0,0,-1,636,1800,0,0
-581,-776,0,0,0,0,0,0,0,0,0,-1,643,1800,0,0
-574,-776,0,0,0,0,0,0,0,0,0,-1,650,1800,0,0
-567,-776,0,0,0,0,0,0,0,0,0,-1,657,1800,0,0
-560,-776,0,0,0,0,0,0,0,0,0,-1,664,1800,0,0
-553,-776,0,0,0,0,0,0,0,0,0,-1,671,1800,0,0
-546,-776,0,0,0,0,0,0,0,0,0,-1,678,1800,0,0
-539,-776,0,0,0,0,0,0,0,0,0,-1,685,1800,0,0
-532,-776,0,0,0,0,0,0,0,0,0,-1,692,1800,0,0
-525,-776,0,0,0,0,0,0,0,0,0,-1,699,1800,0,0
-518,-776,0,0,0,0,0,0,0,0,0,-1,706,1800,0,0
-511,-776,0,0,0,0,0,0,0,0,0,-1,713,1800,0,0
-504,-776,0,0,0,0,0,0,0,0,0,-1,720,1800,0,0
-497,-776,0,0,0,0,0,0,0,0,0,-1,727,1800,0,0
-490,-776,0,0,0,0,0,0,0,0,0,-1,734,1800,0,0
-483,-776,0,0,0,0,0,0,0,0,0,-1,741,1800,0,0
-476,-776,0,0,0,0,0,0,0,0,0,-1,748,1800,0,0
-469,-776,0,0,0,0,0,0,0,0,0,-1,755,1800,0,0
-462,-776,0,0,0,0,0,0,0,0,0,-1,762,1800,0,0
-455,-776,0,0,0,0,0,0,0,0,0,-1,769,1800,0,0
-448,-776,0,0,0,0,0,0,0,0,0,-1,776,1800,0,0
-441,-776,0,0,0,0,0,0,0,0,0,-1,783,1800,0,0
-434,-776,0,0,0,0,0,0,0,0,0,-1,790,1800,0,0
-427,-776,0,0,0,0,0,0,0,0,0,-1,797,1800,0,0
-420,-776,0,0,0,0,0,0,0,0,0,-1,804,1800,0,0
-413,-776,0,0,0,0,0,0,0,0,0,-1,811,1800,0,0
-406,-776,0,0,0,0,0,0,0,0,0,-1,818,1800,0,0
-399,-776,0,0,0,0,0,0,0,0,0,-1,825,1800,0,0
-392,-776,0,0,0,0,0,0,0,0,0,-1,832,1800,0,0
-385,-776,0,0,0,0,0,0,0,0,0,-1,839,1800,0,0
-378,-776,0,0,0,0,0,0,0,0,0,-1,846,1800,0,0
-371,-776,0,0,0,0,0,0,0,0,0,-1,853,1800,0,0
-364,-776,0,0,0,0,0,0,0,0,0,-1,860,1800,0,0
-357,-776,0,0,0,0,0,0,0,0,0,-1,867,1800,0,0
-350,-776,0,0,0,0,0,0,0,0,0,-1,874,1800,0,0
-343,-776,0,0,0,0,0,0,0,0,0,-1,881,1800,0,0
-336,-776,0,0,0,0,0,0,0,0,0,-1,888,1800,0,0
-329,-776,0,0,0,0,0,0,0,0,0,-1,895,1800,0,0
-322,-776,0,0,0,0,0,0,0,0,0,-1,902,1800,0,0
-315,-776,0,0,0,0,0,0,0,0,0,-1,909,1800,0,0
-308,-776,0,0,0,0,0,0,0,0,0,-1,916,1800,0,0
-301,-776,0,0,0,0,0,0,0,0,0,-1,923,1800,0,0
-294,-776,0,0,0,0,0,0,0,0,0,-1,930,1800,0,0
-287,-776,0,0,0,0,0,0,0,0,0,-1,937,1800,0,0
-280,-776,0,0,0,0,0,0,0,0,0,-1,944,1800,0,0
-273,-776,0,0,0,0,0,0,0,0,0,-1,951,1800,0,0
-266,-776,0,0,0,0,0,0,0,0,0,-1,958,1800,0,0
-259,-776,0,0,0,0,0,0,0,0,0,-1,965,1800,0,0
-252,-776,0,0,0,0,0,0,0,0,0,-1,972,1800,0,0
-245,-776,0,0,0,0,0,0,0,0,0,-1,979,1800,0,0
-238,-776,0,0,0,0,0,0,0,0,0,-1,986,1800,0,0
-231,-776,0,0,0,0,0,0,0,0,0,-1,993,1800,0,0
-224,-776,0,0,0,0,0,0,0,0,0,-1,1000,1800,0,0
-217,-776,0,0,0,0,0,0,0,0,0,-1,1007,1800,0,0
-210,-776,0,0,0,0,0,0,0,0,0,-1,1014,1800,0,0
-203,-776,0,0,0,0,0,0,0,0,0,-1,1021,1800,0,0
-196,-776,0,0,0,0,0,0,0,0,0,-1,1028,1800,0,0
-189,-776,0,0,0,0,0,0,0,0,0,-1,1035,1800,0,0
-182,-776,0,0,0,0,0,0,0,0,0,-1,1042,1800,0,0
-175,-776,0,0,0,0,0,0,0,0,0,-1,1049,1800,0,0
-168,-776,0,0,0,0,0,0,0,0,0,-1,1056,1800,0,0
-161,-776,0,0,0,0,0,0,0,0,0,-1,1063,1800,0,0
-154,-776,0,0,0,0,0,0,0,0,0,-1,1070,1800,0,0
-147,-776,0,0,0,0,0,0,0,0,0,-1,1077,1800,0,0
-140,-776,2.98499,5.20911,0,0,0,0,0,0,0,-1,1084,1800,2.98493,-5.2091
-133,-776,6.72363,9.35828,0,0,0,0,0,0,0,-1,1091,1800,6.72358,-9.35824
-126,-776,6.55029,13.7832,0,0,0,0,0,0,0,-1,1098,1800,6.55029,-13.7832
-119,-776,5.72107,13.7787,0,0,0,0,0,0,0,-1,1105,1800,5.72106,-13.7787
-112,-776,6.84998,20.4421,0,0,0,0,0,0,0,-1,1112,1800,6.84993,-20.4421
-105,-776,4.46863,24.6742,0,0,0,0,0,0,0,-1,1119,1800,4.46868,-24.6742
-98,-776,4.31616,19.7659,0,0,0,0,0,0,0,-1,1126,1800,4.31619,-19.7659
-91,-776,3.30225,18.134,0,0,0,0,0,0,0,-1,1133,1800,3.30222,-18.134
-84,-776,2.67932,14.3162,0,0,0,0,0,0,0,-1,1140,1800,2.67926,-14.3161
-77,-776,0.580078,11.1272,0,0,0,0,0,0,0,-1,1147,1800,0.58002,-11.1272
-70,-776,-0.562866,12.3163,0,0,0,0,0,0,0,-1,1154,1800,-0.562897,-12.3163
-63,-776,-3.96106,9.97656,0,0,0,0,0,0,0,-1,1161,1800,-3.961,-9.97654
-56,-776,-7.35913,7.63672,0,0,0,0,0,0,0,-1,1168,1800,-7.3591,-7.63676
-49,-776,-7.62952,3.1908,0,0,0,0,0,0,0,-1,1175,1800,-7.62955,-3.19076
-42,-776,-3.41272,3.0249,0,0,0,0,0,0,0,-1,1182,1800,-3.41269,-3.02488
-35,-776,-3.71753,1.63635,0,0,0,0,0,0,0,-1,1189,1800,-3.71755,-1.63631
-28,-776,-4.03979,0.716064,0,0,0,0,0,0,0,-1,1196,1800,-4.03977,-0.716055
-21,-776,10.6127,41.8741,0,0,0,0,0,0,0,-1,1203,1800,10.6126,-41.8741
-14,-776,10.3864,43.0228,0,0,0,0,0,0,0,-1,1210,1800,10.3863,-43.0228
-7,-776,9.53333,47.6508,0,0,0,0,0,0,0,-1,1217,1800,9.5333,-47.6507
0,-776,9.92163,47.588,0.0117203,-0.0183535,-0.0162139,0.0187967,-0.0254299,-0.411522,0.0256298,0.0455379,1224,1800,9.92165,-47.588
7,-776,10.3361,47.5308,0.0110106,-0.023172,-0.0116776,0.014619,-0.0267804,-0.299697,0.0242433,0.0455254,1231,1800,10.3361,-47.5308
14,-776,10.7385,47.4596,0,0,0,0,0,0,0,-1,1238,1800,10.7386,-47.4596
21,-776,8.69446,48.827,0.0119014,-0.024559,-0.00403417,0.0123424,-0.0250001,-0.10889,0.0219686,0.042887,1245,1800,8.69448,-48.827
28,-776,8.42444,48.3284,0.013769,-0.0199924,-0.000460961,0.0137753,-0.0199987,-0.0136501,0.0196095,0.0424368,1252,1800,8.42446,-48.3283
35,-776,8.33545,47.9163,0,0,0,0,0,0,0,-1,1259,1800,8.33546,-47.9162
42,-776,8.72034,48.5698,0,0,0,0,0,0,0,-1,1266,1800,8.72036,-48.5698
49,-776,8.82886,48.5548,0,0,0,0,0,0,0,-1,1273,1800,8.82885,-48.5548
56,-776,8.48315,48.2723,0,0,0,0,0,0,0,-1,1280,1800,8.48314,-48.2723
63,-776,8.22217,47.9351,0,0,0,0,0,0,0,-1,1287,1800,8.2222,-47.935
70,-776,8.24316,47.2878,0,0,0,0,0,0,0,-1,1294,1800,8.24314,-47.2878
77,-776,9.35913,47.5045,0,0,0,0,0,0,0,-1,1301,1800,9.35913,-47.5045
84,-776,9.39575,47.8311,0.00844313,0.0814619,0.0177768,0.0855598,0.00434527,1.34424,0.055648,0.0486207,1308,1800,9.39571,-47.8311
91,-776,9.49072,47.9613,0,0,0,0,0,0,0,-1,1315,1800,9.49075,-47.9614
98,-776,9.34863,47.9781,0,0,0,0,0,0,0,-1,1322,1800,9.34865,-47.9781
105,-776,9.02795,48.1083,-0.00775846,0.072512,0.0165875,0.0758047,-0.0110511,1.37484,0.0545943,0.0462404,1329,1800,9.02796,-48.1082
112,-776,8.45166,48.1445,-0.0124653,0.0606289,0.0152462,0.0636815,-0.0155179,1.37319,0.0484623,0.0460248,1336,1800,8.45166,-48.1445
119,-776,7.86475,48.2063,-0.0155974,0.0444735,0.0131158,0.0472123,-0.0183362,1.36494,0.0390493,0.0438296,1343,1800,7.86471,-48.2063
126,-776,7.21362,48.2697,-0.0162815,0.0240425,0.0103653,0.0265509,-0.0187899,1.33337,0.026305,0.0458145,1350,1800,7.21367,-48.2696
133,-776,6.48132,48.1403,-0.0146803,0.00756245,0.00696708,0.00956454,-0.0166824,1.29097,0.0153383,0.0489287,1357,1800,6.48138,-48.1402
140,-776,8.25586,47.4904,0,0,0,0,0,0,0,-1,1364,1800,8.25583,-47.4904
147,-776,8.95886,46.4618,0,0,0,0,0,0,0,-1,1371,1800,8.95882,-46.4618
154,-776,38.4338,21.854,0,0,0,0,0,0,0,-1,1378,1800,38.4339,-21.854
161,-776,6.50293,1.1731,0,0,0,0,0,0,0,-1,1385,1800,6.5029,-1.17313
168,-776,8.44971,1.22913,0,0,0,0,0,0,0,-1,1392,1800,8.44974,-1.22915
175,-776,8.61523,2.87061,0,0,0,0,0,0,0,-1,1399,1800,8.6152,-2.87063
182,-776,8.54065,4.60645,0,0,0,0,0,0,0,-1,1406,1800,8.5407,-4.60643
189,-776,8.35303,6.28223,0,0,0,0,0,0,0,-1,1413,1800,8.35297,-6.28225
196,-776,8.0387,8.21704,0,0,0,0,0,0,0,-1,1420,1800,8.03865,-8.217
203,-776,7.91736,9.79919,0,0,0,0,0,0,0,-1,1427,1800,7.91735,-9.79922
210,-776,20.2479,7.85718,0,0,0,0,0,0,0,-1,1434,1800,20.248,-7.85719
217,-776,21.5171,9.3418,0,0,0,0,0,0,0,-1,1441,1800,21.5171,-9.34182
224,-776,3.09253,14.9313,0,0,0,0,0,0,0,-1,1448,1800,3.09254,-14.9313
231,-776,20.8671,9.21057,0,0,0,0,0,0,0,-1,1455,1800,20.867,-9.21054
238,-776,20.7511,9.05847,0,0,0,0,0,0,0,-1,1462,1800,20.7511,-9.05848
245,-776,3.80823,15.4108,0,0,0,0,0,0,0,-1,1469,1800,3.80826,-15.4108
252,-776,8.57837,20.2009,0,0,0,0,0,0,0,-1,1476,1800,8.57841,-20.2009
259,-776,14.1882,7.69055,0,0,0,0,0,0,0,-1,1483,1800,14.1882,-7.69061
266,-776,0,0,0,0,0,0,0,0,0,-1,1490,1800,0,0
273,-776,0,0,0,0,0,0,0,0,0,-1,1497,1800,0,0
280,-776,0,0,0,0,0,0,0,0,0,-1,1504,1800,0,0
287,-776,0,0,0,0,0,0,0,0,0,-1,1511,1800,0,0
294,-776,0,0,0,0,0,0,0,0,0,-1,1518,1800,0,0
301,-776,0,0,0,0,0,0,0,0,0,-1,1525,1800,0,0
308,-776,0,0,0,0,0,0,0,0,0,-1,1532,1800,0,0
315,-776,0,0,0,0,0,0,0,0,0,-1,1539,1800,0,0
322,-776,0,0,0,0,0,0,0,0,0,-1,1546,1800,0,0
329,-776,0,0,0,0,0,0,0,0,0,-1,1553,1800,0,0
336,-776,0,0,0,0,0,0,0,0,0,-1,1560,1800,0,0
343,-776,0,0,0,0,0,0,0,0,0,-1,1567,1800,0,0
350,-776,0,0,0,0,0,0,0,0,0,-1,1574,1800,0,0
357,-776,0,0,0,0,0,0,0,0,0,-1,1581,1800,0,0
364,-776,0,0,0,0,0,0,0,0,0,-1,1588,1800,0,0
371,-776,0,0,0,0,0,0,0,0,0,-1,1595,1800,0,0
378,-776,0,0,0,0,0,0,0,0,0,-1,1602,1800,0,0
385,-776,0,0,0,0,0,0,0,0,0,-1,1609,1800,0,0
392,-776,0,0,0,0,0,0,0,0,0,-1,1616,1800,0,0
399,-776,0,0,0,0,0,0,0,0,0,-1,1623,1800,0,0
406,-776,0,0,0,0,0,0,0,0,0,-1,1630,1800,0,0
413,-776,0,0,0,0,0,0,0,0,0,-1,1637,1800,0,0
420,-776,0,0,0,0,0,0,0,0,0,-1,1644,1800,0,0
427,-776,0,0,0,0,0,0,0,0,0,-1,1651,1800,0,0
434,-776,0,0,0,0,0,0,0,0,0,-1,1658,1800,0,0
441,-776,0,0,0,0,0,0,0,0,0,-1,1665,1800,0,0
448,-776,0,0,0,0,0,0,0,0,0,-1,1672,1800,0,0
455,-776,0,0,0,0,0,0,0,0,0,-1,1679,1800,0,0
462,-776,0,0,0,0,0,0,0,0,0,-1,1686,1800,0,0
469,-776,0,0,0,0,0,0,0,0,0,-1,1693,1800,0,0
476,-776,0,0,0,0,0,0,0,0,0,-1,1700,1800,0,0
483,-776,0,0,0,0,0,0,0,0,0,-1,1707,1800,0,0
490,-776,0,0,0,0,0,0,0,0,0,-1,1714,1800,0,0
497,-776,0,0,0,0,0,0,0,0,0,-1,1721,1800,0,0
504,-776,0,0,0,0,0,0,0,0,0,-1,1728,1800,0,0
511,-776,0,0,0,0,0,0,0,0,0,-1,1735,1800,0,0
518,-776,0,0,0,0,0,0,0,0,0,-1,1742,1800,0,0
525,-776,0,0,0,0,0,0,0,0,0,-1,1749,1800,0,0
532,-776,0,0,0,0,0,0,0,0,0,-1,1756,1800,0,0
539,-776,0,0,0,0,0,0,0,0,0,-1,1763,1800,0,0
546,-776,0,0,0,0,0,0,0,0,0,-1,1770,1800,0,0
553,-776,0,0,0,0,0,0,0,0,0,-1,1777,1800,0,0
560,-776,0,0,0,0,0,0,0,0,0,-1,1784,1800,0,0
567,-776,0,0,0,0,0,0,0,0,0,-1,1791,1800,0,0
574,-776,0,0,0,0,0,0,0,0,0,-1,1798,1800,0,0
581,-776,0,0,0,0,0,0,0,0,0,-1,1805,1800,0,0
588,-776,0,0,0,0,0,0,0,0,0,-1,1812,1800,0,0
595,-776,0,0,0,0,0,0,0,0,0,-1,1819,1800,0,0
602,-776,0,0,0,0,0,0,0,0,0,-1,1826,1800,0,0
609,-776,0,0,0,0,0,0,0,0,0,-1,1833,1800,0,0
616,-776,0,0,0,0,0,0,0,0,0,-1,1840,1800,0,0
623,-776,0,0,0,0,0,0,0,0,0,-1,1847,1800,0,0
630,-776,0,0,0,0,0,0,0,0,0,-1,1854,1800,0,0
637,-776,0,0,0,0,0,0,0,0,0,-1,1861,1800,0,0
644,-776,0,0,0,0,0,0,0,0,0,-1,1868,1800,0,0
651,-776,0,0,0,0,0,0,0,0,0,-1,1875,1800,0,0
658,-776,0,0,0,0,0,0,0,0,0,-1,1882,1800,0,0
665,-776,0,0,0,0,0,0,0,0,0,-1,1889,1800,0,0
672,-776,0,0,0,0,0,0,0,0,0,-1,1896,1800,0,0
679,-776,0,0,0,0,0,0,0,0,0,-1,1903,1800,0,0
686,-776,0,0,0,0,0,0,0,0,0,-1,1910,1800,0,0
693,-776,0,0,0,0,0,0,0,0,0,-1,1917,1800,0,0
700,-776,0,0,0,0,0,0,0,0,0,-1,1924,1800,0,0
707,-776,0,0,0,0,0,0,0,0,0,-1,1931,1800,0,0
714,-776,0,0,0,0,0,0,0,0,0,-1,1938,1800,0,0
721,-776,0,0,0,0,0,0,0,0,0,-1,1945,1800,0,0
728,-776,0,0,0,0,0,0,0,0,0,-1,1952,1800,0,0
735,-776,0,0,0,0,0,0,0,0,0,-1,1959,1800,0,0
742,-776,0,0,0,0,0,0,0,0,0,-1,1966,1800,0,0
749,-776,0,0,0,0,0,0,0,0,0,-1,1973,1800,0,0
756,-776,0,0,0,0,0,0,0,0,0,-1,1980,1800,0,0
763,-776,0,0,0,0,0,0,0,0,0,-1,1987,1800,0,0
770,-776,0,0,0,0,0,0,0,0,0,-1,1994,1800,0,0
777,-776,0,0,0,0,0,0,0,0,0,-1,2001,1800,0,0
784,-776,0,0,0,0,0,0,0,0,0,-1,2008,1800,0,0
791,-776,0,0,0,0,0,0,0,0,0,-1,2015,1800,0,0
798,-776,0,0,0,0,0,0,0,0,0,-1,2022,1800,0,0
805,-776,0,0,0,0,0,0,0,0,0,-1,2029,1800,0,0
812,-776,0,0,0,0,0,0,0,0,0,-1,2036,1800,0,0
-700,-783,0,0,0,0,0,0,0,0,0,-1,524,1807,0,0
-693,-783,0,0,0,0,0,0,0,0,0,-1,531,1807,0,0
-686,-783,0,0,0,0,0,0,0,0,0,-1,538,1807,0,0
-679,-783,0,0,0,0,0,0,0,0,0,-1,545,1807,0,0
-672,-783,0,0,0,0,0,0,0,0,0,-1,552,1807,0,0
-665,-783,0,0,0,0,0,0,0,0,0,-1,559,1807,0,0
-658,-783,0,0,0,0,0,0,0,0,0,-1,566,1807,0,0
-651,-783,0,0,0,0,0,0,0,0,0,-1,573,1807,0,0
-644,-783,0,0,0,0,0,0,0,0,0,-1,580,1807,0,0
-637,-783,0,0,0,0,0,0,0,0,0,-1,587,1807,0,0
-630,-783,0,0,0,0,0,0,0,0,0,-1,594,1807,0,0
-623,-783,0,0,0,0,0,0,0,0,0,-1,601,1807,0,0
-616,-783,0,0,0,0,0,0,0,0,0,-1,608,1807,0,0
-609,-783,0,0,0,0,0,0,0,0,0,-1,615,1807,0,0
-602,-783,0,0,0,0,0,0,0,0,0,-1,622,1807,0,0
-595,-783,0,0,0,0,0,0,0,0,0,-1,629,1807,0,0
-588,-783,0,0,0,0,0,0,0,0,0,-1,636,1807,0,0
-581,-783,0,0,0,0,0,0,0,0,0,-1,643,1807,0,0
-574,-783,0,0,0,0,0,0,0,0,0,-1,650,1807,0,0
-567,-783,0,0,0,0,0,0,0,0,0,-1,657,1807,0,0
-560,-783,0,0,0,0,0,0,0,0,0,-1,664,1807,0,0
-553,-783,0,0,0,0,0,0,0,0,0,-1,671,1807,0,0
-546,-783,0,0,0,0,0,0,0,0,0,-1,678,1807,0,0
-539,-783,0,0,0,0,0,0,0,0,0,-1,685,1807,0,0
-532,-783,0,0,0,0,0,0,0,0,0,-1,692,1807,0,0
-525,-783,0,0,0,0,0,0,0,0,0,-1,699,1807,0,0
-518,-783,0,0,0,0,0,0,0,0,0,-1,706,1807,0,0
-511,-783,0,0,0,0,0,0,0,0,0,-1,713,1807,0,0
-504,-783,0,0,0,0,0,0,0,0,0,-1,720,1807,0,0
-497,-783,0,0,0,0,0,0,0,0,0,-1,727,1807,0,0
-490,-783,0,0,0,0,0,0,0,0,0,-1,734,1807,0,0
-483,-783,0,0,0,0,0,0,0,0,0,-1,741,1807,0,0
-476,-783,0,0,0,0,0,0,0,0,0,-1,748,1807,0,0
-469,-783,0,0,0,0,0,0,0,0,0,-1,755,1807,0,0
-462,-783,0,0,0,0,0,0,0,0,0,-1,762,1807,0,0
-455,-783,0,0,0,0,0,0,0,0,0,-1,769,1807,0,0
-448,-783,0,0,0,0,0,0,0,0,0,-1,776,1807,0,0
-441,-783,0,0,0,0,0,0,0,0,0,-1,783,1807,0,0
-434,-783,0,0,0,0,0,0,0,0,0,-1,790,1807,0,0
-427,-783,0,0,0,0,0,0,0,0,0,-1,797,1807,0,0
-420,-783,0,0,0,0,0,0,0,0,0,-1,804,1807,0,0
-413,-783,0,0,0,0,0,0,0,0,0,-1,811,1807,0,0
-406,-783,0,0,0,0,0,0,0,0,0,-1,818,1807,0,0
-399,-783,0,0,0,0,0,0,0,0,0,-1,825,1807,0,0
-392,-783,0,0,0,0,0,0,0,0,0,-1,832,1807,0,0
-385,-783,0,0,0,0,0,0,0,0,0,-1,839,1807,0,0
-378,-783,0,0,0,0,0,0,0,0,0,-1,846,1807,0,0
-371,-783,0,0,0,0,0,0,0,0,0,-1,853,1807,0,0
-364,-783,0,0,0,0,0,0,0,0,0,-1,860,1807,0,0
-357,-783,0,0,0,0,0,0,0,0,0,-1,867,1807,0,0
-350,-783,0,0,0,0,0,0,0,0,0,-1,874,1807,0,0
-343,-783,0,0,0,0,0,0,0,0,0,-1,881,1807,0,0
-336,-783,0,0,0,0,0,0,0,0,0,-1,888,1807,0,0
-329,-783,0,0,0,0,0,0,0,0,0,-1,895,1807,0,0
-322,-783,0,0,0,0,0,0,0,0,0,-1,902,1807,0,0
-315,-783,0,0,0,0,0,0,0,0,0,-1,909,1807,0,0
-308,-783,0,0,0,0,0,0,0,0,0,-1,916,1807,0,0
-301,-783,0,0,0,0,0,0,0,0,0,-1,923,1807,0,0
-294,-783,0,0,0,0,0,0,0,0,0,-1,930,1807,0,0
-287,-783,0,0,0,0,0,0,0,0,0,-1,937,1807,0,0
-280,-783,0,0,0,0,0,0,0,0,0,-1,944,1807,0,0
-273,-783,0,0,0,0,0,0,0,0,0,-1,951,1807,0,0
-266,-783,0,0,0,0,0,0,0,0,0,-1,958,1807,0,0
-259,-783,0,0,0,0,0,0,0,0,0,-1,965,1807,0,0
-252,-783,0,0,0,0,0,0,0,0,0,-1,972,1807,0,0
-245,-783,0,0,0,0,0,0,0,0,0,-1,979,1807,0,0
-238,-783,0,0,0,0,0,0,0,0,0,-1,986,1807,0,0
-231,-783,0,0,0,0,0,0,0,0,0,-1,993,1807,0,0
-224,-783,0,0,0,0,0,0,0,0,0,-1,1000,1807,0,0
-217,-783,0,0,0,0,0,0,0,0,0,-1,1007,1807,0,0
-210,-783,0,0,0,0,0,0,0,0,0,-1,1014,1807,0,0
-203,-783,0,0,0,0,0,0,0,0,0,-1,1021,1807,0,0
-196,-783,0,0,0,0,0,0,0,0,0,-1,1028,1807,0,0
-189,-783,0,0,0,0,0,0,0,0,0,-1,1035,1807,0,0
-182,-783,0,0,0,0,0,0,0,0,0,-1,1042,1807,0,0
-175,-783,0,0,0,0,0,0,0,0,0,-1,1049,1807,0,0
-168,-783,0,0,0,0,0,0,0,0,0,-1,1056,1807,0,0
-161,-783,0,0,0,0,0,0,0,0,0,-1,1063,1807,0,0
-154,-783,0,0,0,0,0,0,0,0,0,-1,1070,1807,0,0
-147,-783,0,0,0,0,0,0,0,0,0,-1,1077,1807,0,0
-140,-783,0,0,0,0,0,0,0,0,0,-1,1084,1807,0,0
-133,-783,0,0,0,0,0,0,0,0,0,-1,1091,1807,0,0
-126,-783,0,0,0,0,0,0,0,0,0,-1,1098,1807,0,0
-119,-783,0,0,0,0,0,0,0,0,0,-1,1105,1807,0,0
-112,-783,5.33936,14.7699,0,0,0,0,0,0,0,-1,1112,1807,5.33931,-14.7699
-105,-783,6.44263,21.2224,0,0,0,0,0,0,0,-1,1119,1807,6.44263,-21.2224
-98,-783,5.54773,20.5695,0,0,0,0,0,0,0,-1,1126,1807,5.54772,-20.5695
-91,-783,2.6106,20.2491,0,0,0,0,0,0,0,-1,1133,1807,2.61056,-20.2492
-84,-783,-0.0491943,14.5743,0,0,0,0,0,0,0,-1,1140,1807,-0.0491562,-14.5743
-77,-783,0.332764,12.7788,0,0,0,0,0,0,0,-1,1147,1807,0.332743,-12.7788
-70,-783,-1.93176,5.12817,0,0,0,0,0,0,0,-1,1154,1807,-1.93171,-5.12813
-63,-783,-5.31702,10.54,0,0,0,0,0,0,0,-1,1161,1807,-5.31703,-10.54
-56,-783,-6.26135,6.9679,0,0,0,0,0,0,0,-1,1168,1807,-6.26136,-6.96785
-49,-783,-3.17688,4.59705,0,0,0,0,0,0,0,-1,1175,1807,-3.17685,-4.5971
-42,-783,-3.72876,3.1405,0,0,0,0,0,0,0,-1,1182,1807,-3.72874,-3.14055
-35,-783,-3.97046,1.59399,0,0,0,0,0,0,0,-1,1189,1807,-3.97041,-1.59401
-28,-783,-4.12195,0.270386,0,0,0,0,0,0,0,-1,1196,1807,-4.12197,-0.270408
-21,-783,9.3678,41.0957,0,0,0,0,0,0,0,-1,1203,1807,9.36775,-41.0957
-14,-783,9.56616,47.7257,0,0,0,0,0,0,0,-1,1210,1807,9.56619,-47.7257
-7,-783,10.0253,47.6597,0,0,0,0,0,0,0,-1,1217,1807,10.0252,-47.6596
0,-783,10.4373,47.568,0.0189464,-0.0186976,-0.0227514,0.0296522,-0.0294034,-0.439818,0.0340959,0.0441546,1224,1807,10.4372,-47.568
7,-783,10.8771,47.5271,0.0180809,-0.0259453,-0.0162484,0.0234281,-0.0312925,-0.317929,0.0317015,0.0456962,1231,1807,10.8771,-47.5271
14,-783,11.4686,47.692,0,0,0,0,0,0,0,-1,1238,1807,11.4686,-47.692
21,-783,8.25635,49.5983,0.0192392,-0.0298282,-0.00564356,0.0198799,-0.0304689,-0.11305,0.0292824,0.0466459,1245,1807,8.25633,-49.5982
28,-783,7.73035,49.2422,0.0214529,-0.0250812,-0.000999225,0.0214743,-0.0251026,-0.0214598,0.0269184,0.0457339,1252,1807,7.73039,-49.2422
35,-783,7.61829,48.8911,0.0240347,-0.0134356,0.00349726,0.0243583,-0.0137592,0.0922724,0.0222889,0.0458425,1259,1807,7.61834,-48.8911
42,-783,7.5929,48.5524,0,0,0,0,0,0,0,-1,1266,1807,7.59289,-48.5523
49,-783,7.76233,48.1069,0.0286696,0.0294439,0.0114941,0.0405574,0.0175561,0.802234,0.023486,0.0448479,1273,1807,7.76231,-48.107
56,-783,8.06128,47.6849,0.0293942,0.0503086,0.0156112,0.0586414,0.0210614,1.0805,0.0343014,0.0443952,1280,1807,8.06134,-47.6849
63,-783,8.16211,47.6377,0.0277069,0.0703746,0.0187306,0.0774303,0.0206511,1.21054,0.0462981,0.0444448,1287,1807,8.16214,-47.6377
70,-783,8.5343,47.5809,0.0234122,0.0894678,0.0207885,0.0954656,0.0174144,1.28991,0.0587063,0.0433731,1294,1807,8.53425,-47.5809
77,-783,9.11182,47.4768,0.0178227,0.10082,0.0220525,0.106316,0.0123272,1.32657,0.0671464,0.0482019,1301,1807,9.11178,-47.4768
84,-783,9.29712,47.782,0.0129299,0.105879,0.0226067,0.111085,0.00772323,1.34443,0.0716214,0.0480801,1308,1807,9.29716,-47.7819
91,-783,9.02393,48.0929,0,0,0,0,0,0,0,-1,1315,1807,9.0239,-48.0928
98,-783,8.88696,48.1012,0,0,0,0,0,0,0,-1,1322,1807,8.887,-48.1012
105,-783,8.5603,48.4066,-0.00818545,0.096891,0.0214117,0.101087,-0.0123811,1.3773,0.0718745,0.0483276,1329,1807,8.56033,-48.4066
112,-783,8.30481,48.1743,-0.0143514,0.0818373,0.0196707,0.0857045,-0.0182186,1.37667,0.0640784,0.0469004,1336,1807,8.30476,-48.1743
119,-783,7.73877,48.2823,-0.0184519,0.0605638,0.0167908,0.0639838,-0.0218719,1.36986,0.0515181,0.0454828,1343,1807,7.73881,-48.2824
126,-783,7.12488,48.3514,-0.0192486,0.032334,0.0127558,0.035316,-0.0222306,1.34115,0.0335096,0.0479379,1350,1807,7.12487,-48.3514
133,-783,6.13904,48.4994,0,0,0,0,0,0,0,-1,1357,1807,6.139,-48.4993
140,-783,8.83313,46.1217,0,0,0,0,0,0,0,-1,1364,1807,8.83315,-46.1217
147,-783,8.47156,45.3552,0,0,0,0,0,0,0,-1,1371,1807,8.47151,-45.3552
154,-783,38.2109,17.545,0,0,0,0,0,0,0,-1,1378,1807,38.2109,-17.545
161,-783,39.5087,17.5449,0,0,0,0,0,0,0,-1,1385,1807,39.5087,-17.545
168,-783,8.62561,1.79944,0,0,0,0,0,0,0,-1,1392,1807,8.62561,-1.79946
175,-783,8.78699,3.40857,0,0,0,0,0,0,0,-1,1399,1807,8.78697,-3.40854
182,-783,8.70984,5.14661,0,0,0,0,0,0,0,-1,1406,1807,8.70989,-5.14666
189,-783,8.55762,6.79871,0,0,0,0,0,0,0,-1,1413,1807,8.55766,-6.79872
196,-783,8.25488,8.66626,0,0,0,0,0,0,0,-1,1420,1807,8.25492,-8.66628
203,-783,7.86755,10.5735,0,0,0,0,0,0,0,-1,1427,1807,7.8676,-10.5734
210,-783,5.6969,8.99231,0,0,0,0,0,0,0,-1,1434,1807,5.69693,-8.99234
217,-783,5.28503,3.80872,0,0,0,0,0,0,0,-1,1441,1807,5.285,-3.80868
224,-783,3.22571,6.62903,0,0,0,0,0,0,0,-1,1448,1807,3.2257,-6.62907
231,-783,4.27942,4.56262,0,0,0,0,0,0,0,-1,1455,1807,4.27948,-4.56267
238,-783,0,0,0,0,0,0,0,0,0,-1,1462,1807,0,0
245,-783,0,0,0,0,0,0,0,0,0,-1,1469,1807,0,0
252,-783,0,0,0,0,0,0,0,0,0,-1,1476,1807,0,0
259,-783,0,0,0,0,0,0,0,0,0,-1,1483,1807,0,0
266,-783,0,0,0,0,0,0,0,0,0,-1,1490,1807,0,0
273,-783,0,0,0,0,0,0,0,0,0,-1,1497,1807,0,0
280,-783,0,0,0,0,0,0,0,0,0,-1,1504,1807,0,0
287,-783,0,0,0,0,0,0,0,0,0,-1,1511,1807,0,0
294,-783,0,0,0,0,0,0,0,0,0,-1,1518,1807,0,0
301,-783,0,0,0,0,0,0,0,0,0,-1,1525,1807,0,0
308,-783,0,0,0,0,0,0,0,0,0,-1,1532,1807,0,0
315,-783,0,0,0,0,0,0,0,0,0,-1,1539,1807,0,0
322,-783,0,0,0,0,0,0,0,0,0,-1,1546,1807,0,0
329,-783,0,0,0,0,0,0,0,0,0,-1,1553,1807,0,0
336,-783,0,0,0,0,0,0,0,0,0,-1,1560,1807,0,0
343,-783,0,0,0,0,0,0,0,0,0,-1,1567,1807,0,0
350,-783,0,0,0,0,0,0,0,0,0,-1,1574,1807,0,0
357,-783,0,0,0,0,0,0,0,0,0,-1,1581,1807,0,0
364,-783,0,0,0,0,0,0,0,0,0,-1,1588,1807,0,0
371,-783,0,0,0,0,0,0,0,0,0,-1,1595,1807,0,0
378,-783,0,0,0,0,0,0,0,0,0,-1,1602,1807,0,0
385,-783,0,0,0,0,0,0,0,0,0,-1,1609,1807,0,0
392,-783,0,0,0,0,0,0,0,0,0,-1,1616,1807,0,0
399,-783,0,0,0,0,0,0,0,0,0,-1,1623,1807,0,0
406,-783,0,0,0,0,0,0,0,0,0,-1,1630,1807,0,0
413,-783,0,0,0,0,0,0,0,0,0,-1,1637,1807,0,0
420,-783,0,0,0,0,0,0,0,0,0,-1,1644,1807,0,0
427,-783,0,0,0,0,0,0,0,0,0,-1,1651,1807,0,0
434,-783,0,0,0,0,0,0,0,0,0,-1,1658,1807,0,0
441,-783,0,0,0,0,0,0,0,0,0,-1,1665,1807,0,0
448,-783,0,0,0,0,0,0,0,0,0,-1,1672,1807,0,0
455,-783,0,0,0,0,0,0,0,0,0,-1,1679,1807,0,0
462,-783,0,0,0,0,0,0,0,0,0,-1,1686,1807,0,0
469,-783,0,0,0,0,0,0,0,0,0,-1,1693,1807,0,0
476,-783,0,0,0,0,0,0,0,0,0,-1,1700,1807,0,0
483,-783,0,0,0,0,0,0,0,0,0,-1,1707,1807,0,0
490,-783,0,0,0,0,0,0,0,0,0,-1,1714,1807,0,0
497,-783,0,0,0,0,0,0,0,0,0,-1,1721,1807,0,0
504,-783,0,0,0,0,0,0,0,0,0,-1,1728,1807,0,0
511,-783,0,0,0,0,0,0,0,0,0,-1,1735,1807,0,0
518,-783,0,0,0,0,0,0,0,0,0,-1,1742,1807,0,0
525,-783,0,0,0,0,0,0,0,0,0,-1,1749,1807,0,0
532,-783,0,0,0,0,0,0,0,0,0,-1,1756,1807,0,0
539,-783,0,0,0,0,0,0,0,0,0,-1,1763,1807,0,0
546,-783,0,0,0,0,0,0,0,0,0,-1,1770,1807,0,0
553,-783,0,0,0,0,0,0,0,0,0,-1,1777,1807,0,0
560,-783,0,0,0,0,0,0,0,0,0,-1,1784,1807,0,0
567,-783,0,0,0,0,0,0,0,0,0,-1,1791,1807,0,0
574,-783,0,0,0,0,0,0,0,0,0,-1,1798,1807,0,0
581,-783,0,0,0,0,0,0,0,0,0,-1,1805,1807,0,0
588,-783,0,0,0,0,0,0,0,0,0,-1,1812,1807,0,0
595,-783,0,0,0,0,0,0,0,0,0,-1,1819,1807,0,0
602,-783,0,0,0,0,0,0,0,0,0,-1,1826,1807,0,0
609,-783,0,0,0,0,0,0,0,0,0,-1,1833,1807,0,0
616,-783,0,0,0,0,0,0,0,0,0,-1,1840,1807,0,0
623,-783,0,0,0,0,0,0,0,0,0,-1,1847,1807,0,0
630,-783,0,0,0,0,0,0,0,0,0,-1,1854,1807,0,0
637,-783,0,0,0,0,0,0,0,0,0,-1,1861,1807,0,0
644,-783,0,0,0,0,0,0,0,0,0,-1,1868,1807,0,0
651,-783,0,0,0,0,0,0,0,0,0,-1,1875,1807,0,0
658,-783,0,0,0,0,0,0,0,0,0,-1,1882,1807,0,0
665,-783,0,0,0,0,0,0,0,0,0,-1,1889,1807,0,0
672,-783,0,0,0,0,0,0,0,0,0,-1,1896,1807,0,0
679,-783,0,0,0,0,0,0,0,0,0,-1,1903,1807,0,0
686,-783,0,0,0,0,0,0,0,0,0,-1,1910,1807,0,0
693,-783,0,0,0,0,0,0,0,0,0,-1,1917,1807,0,0
700,-783,0,0,0,0,0,0,0,0,0,-1,1924,1807,0,0
707,-783,0,0,0,0,0,0,0,0,0,-1,1931,1807,0,0
714,-783,0,0,0,0,0,0,0,0,0,-1,1938,1807,0,0
721,-783,0,0,0,0,0,0,0,0,0,-1,1945,1807,0,0
728,-783,0,0,0,0,0,0,0,0,0,-1,1952,1807,0,0
735,-783,0,0,0,0,0,0,0,0,0,-1,1959,1807,0,0
742,-783,0,0,0,0,0,0,0,0,0,-1,1966,1807,0,0
749,-783,0,0,0,0,0,0,0,0,0,-1,1973,1807,0,0
756,-783,0,0,0,0,0,0,0,0,0,-1,1980,1807,0,0
763,-783,0,0,0,0,0,0,0,0,0,-1,1987,1807,0,0
770,-783,0,0,0,0,0,0,0,0,0,-1,1994,1807,0,0
777,-783,0,0,0,0,0,0,0,0,0,-1,2001,1807,0,0
784,-783,0,0,0,0,0,0,0,0,0,-1,2008,1807,0,0
791,-783,0,0,0,0,0,0,0,0,0,-1,2015,1807,0,0
798,-783,0,0,0,0,0,0,0,0,0,-1,2022,1807,0,0
805,-783,0,0,0,0,0,0,0,0,0,-1,2029,1807,0,0
812,-783,0,0,0,0,0,0,0,0,0,-1,2036,1807,0,0
-700,-790,0,0,0,0,0,0,0,0,0,-1,524,1814,0,0
-693,-790,0,0,0,0,0,0,0,0,0,-1,531,1814,0,0
-686,-790,0,0,0,0,0,0,0,0,0,-1,538,1814,0,0
-679,-790,0,0,0,0,0,0,0,0,0,-1,545,1814,0,0
-672,-790,0,0,0,0,0,0,0,0,0,-1,552,1814,0,0
-665,-790,0,0,0,0,0,0,0,0,0,-1,559,1814,0,0
-658,-790,0,0,0,0,0,0,0,0,0,-1,566,1814,0,0
-651,-790,0,0,0,0,0,0,0,0,0,-1,573,1814,0,0
-644,-790,0,0,0,0,0,0,0,0,0,-1,580,1814,0,0
-637,-790,0,0,0,0,0,0,0,0,0,-1,587,1814,0,0
-630,-790,0,0,0,0,0,0,0,0,0,-1,594,1814,0,0
-623,-790,0,0,0,0,0,0,0,0,0,-1,601,1814,0,0
-616,-790,0,0,0,0,0,0,0,0,0,-1,608,1814,0,0
-609,-790,0,0,0,0,0,0,0,0,0,-1,615,1814,0,0
-602,-790,0,0,0,0,0,0,0,0,0,-1,622,1814,0,0
-595,-790,0,0,0,0,0,0,0,0,0,-1,629,1814,0,0
-588,-790,0,0,0,0,0,0,0,0,0,-1,636,1814,0,0
-581,-790,0,0,0,0,0,0,0,0,0,-1,643,1814,0,0
-574,-790,0,0,0,0,0,0,0,0,0,-1,650,1814,0,0
-567,-790,0,0,0,0,0,0,0,0,0,-1,657,1814,0,0
-560,-790,0,0,0,0,0,0,0,0,0,-1,664,1814,0,0
-553,-790,0,0,0,0,0,0,0,0,0,-1,671,1814,0,0
-546,-790,0,0,0,0,0,0,0,0,0,-1,678,1814,0,0
-539,-790,0,0,0,0,0,0,0,0,0,-1,685,1814,0,0
-532,-790,0,0,0,0,0,0,0,0,0,-1,692,1814,0,0
-525,-790,0,0,0,0,0,0,0,0,0,-1,699,1814,0,0
-518,-790,0,0,0,0,0,0,0,0,0,-1,706,1814,0,0
-511,-790,0,0,0,0,0,0,0,0,0,-1,713,1814,0,0
-504,-790,0,0,0,0,0,0,0,0,0,-1,720,1814,0,0
-497,-790,0,0,0,0,0,0,0,0,0,-1,727,1814,0,0
-490,-790,0,0,0,0,0,0,0,0,0,-1,734,1814,0,0
-483,-790,0,0,0,0,0,0,0,0,0,-1,741,1814,0,0
-476,-790,0,0,0,0,0,0,0,0,0,-1,748,1814,0,0
-469,-790,0,0,0,0,0,0,0,0,0,-1,755,1814,0,0
-462,-790,0,0,0,0,0,0,0,0,0,-1,762,1814,0,0
-455,-790,0,0,0,0,0,0,0,0,0,-1,769,1814,0,0
-448,-790,0,0,0,0,0,0,0,0,0,-1,776,1814,0,0
-441,-790,0,0,0,0,0,0,0,0,0,-1,783,1814,0,0
-434,-790,0,0,0,0,0,0,0,0,0,-1,790,1814,0,0
-427,-790,0,0,0,0,0,0,0,0,0,-1,797,1814,0,0
-420,-790,0,0,0,0,0,0,0,0,0,-1,804,1814,0,0
-413,-790,0,0,0,0,0,0,0,0,0,-1,811,1814,0,0
-406,-790,0,0,0,0,0,0,0,0,0,-1,818,1814,0,0
-399,-790,0,0,0,0,0,0,0,0,0,-1,825,1814,0,0
-392,-790,0,0,0,0,0,0,0,0,0,-1,832,1814,0,0
-385,-790,0,0,0,0,0,0,0,0,0,-1,839,1814,0,0
-378,-790,0,0,0,0,0,0,0,0,0,-1,846,1814,0,0
-371,-790,0,0,0,0,0,0,0,0,0,-1,853,1814,0,0
-364,-790,0,0,0,0,0,0,0,0,0,-1,860,1814,0,0
-357,-790,0,0,0,0,0,0,0,0,0,-1,867,1814,0,0
-350,-790,0,0,0,0,0,0,0,0,0,-1,874,1814,0,0
-343,-790,0,0,0,0,0,0,0,0,0,-1,881,1814,0,0
-336,-790,0,0,0,0,0,0,0,0,0,-1,888,1814,0,0
-329,-790,0,0,0,0,0,0,0,0,0,-1,895,1814,0,0
-322,-790,0,0,0,0,0,0,0,0,0,-1,902,1814,0,0
-315,-790,0,0,0,0,0,0,0,0,0,-1,909,1814,0,0
-308,-790,0,0,0,0,0,0,0,0,0,-1,916,1814,0,0
-301,-790,0,0,0,0,0,0,0,0,0,-1,923,1814,0,0
-294,-790,0,0,0,0,0,0,0,0,0,-1,930,1814,0,0
-287,-790,0,0,0,0,0,0,0,0,0,-1,937,1814,0,0
-280,-790,0,0,0,0,0,0,0,0,0,-1,944,1814,0,0
-273,-790,0,0,0,0,0,0,0,0,0,-1,951,1814,0,0
-266,-790,0,0,0,0,0,0,0,0,0,-1,958,1814,0,0
-259,-790,0,0,0,0,0,0,0,0,0,-1,965,1814,0,0
-252,-790,0,0,0,0,0,0,0,0,0,-1,972,1814,0,0
-245,-790,0,0,0,0,0,0,0,0,0,-1,979,1814,0,0
-238,-790,0,0,0,0,0,0,0,0,0,-1,986,1814,0,0
-231,-790,0,0,0,0,0,0,0,0,0,-1,993,1814,0,0
-224,-790,0,0,0,0,0,0,0,0,0,-1,1000,1814,0,0
-217,-790,0,0,0,0,0,0,0,0,0,-1,1007,1814,0,0
-210,-790,0,0,0,0,0,0,0,0,0,-1,1014,1814,0,0
-203,-790,0,0,0,0,0,0,0,0,0,-1,1021,1814,0,0
-196,-790,0,0,0,0,0,0,0,0,0,-1,1028,1814,0,0
-189,-790,0,0,0,0,0,0,0,0,0,-1,1035,1814,0,0
-182,-790,0,0,0,0,0,0,0,0,0,-1,1042,1814,0,0
-175,-790,0,0,0,0,0,0,0,0,0,-1,1049,1814,0,0
-168,-790,0,0,0,0,0,0,0,0,0,-1,1056,1814,0,0
-161,-790,0,0,0,0,0,0,0,0,0,-1,1063,1814,0,0
-154,-790,0,0,0,0,0,0,0,0,0,-1,1070,1814,0,0
-147,-790,0,0,0,0,0,0,0,0,0,-1,1077,1814,0,0
-140,-790,0,0,0,0,0,0,0,0,0,-1,1084,1814,0,0
-133,-790,0,0,0,0,0,0,0,0,0,-1,1091,1814,0,0
-126,-790,0,0,0,0,0,0,0,0,0,-1,1098,1814,0,0
-119,-790,0,0,0,0,0,0,0,0,0,-1,1105,1814,0,0
-112,-790,0,0,0,0,0,0,0,0,0,-1,1112,1814,0,0
-105,-790,0,0,0,0,0,0,0,0,0,-1,1119,1814,0,0
-98,-790,0,0,0,0,0,0,0,0,0,-1,1126,1814,0,0
-91,-790,0,0,0,0,0,0,0,0,0,-1,1133,1814,0,0
-84,-790,0,0,0,0,0,0,0,0,0,-1,1140,1814,0,0
-77,-790,-0.969238,5.30847,0,0,0,0,0,0,0,-1,1147,1814,-0.969277,-5.3085
-70,-790,-1.23169,4.98914,0,0,0,0,0,0,0,-1,1154,1814,-1.23163,-4.98916
-63,-790,-1.69128,4.32263,0,0,0,0,0,0,0,-1,1161,1814,-1.69128,-4.32258
-56,-790,-2.24756,3.75305,0,0,0,0,0,0,0,-1,1168,1814,-2.24758,-3.75302
-49,-790,-3.11011,3.35779,0,0,0,0,0,0,0,-1,1175,1814,-3.11006,-3.35781
-42,-790,0.593262,1.19165,0,0,0,0,0,0,0,-1,1182,1814,0.593225,-1.19165
-35,-790,0.307129,-0.20105,0,0,0,0,0,0,0,-1,1189,1814,0.307178,0.201006
-28,-790,-2.78467,0.785156,0,0,0,0,0,0,0,-1,1196,1814,-2.78471,-0.785183
-21,-790,9.47205,45.2997,0,0,0,0,0,0,0,-1,1203,1814,9.47203,-45.2997
-14,-790,8.2052,41.4762,0,0,0,0,0,0,0,-1,1210,1814,8.20517,-41.4761
-7,-790,10.6595,47.6472,0,0,0,0,0,0,0,-1,1217,1814,10.6595,-47.6472
0,-790,11.4709,47.5104,0.0281026,-0.0166855,-0.0308933,0.0438647,-0.0324475,-0.471782,0.0442229,0.0456556,1224,1814,11.471,-47.5104
7,-790,11.5106,47.4999,0.0273539,-0.0273421,-0.0218195,0.0349917,-0.0349798,-0.336713,0.0403981,0.0443188,1231,1814,11.5106,-47.4999
14,-790,11.7001,47.6182,0,0,0,0,0,0,0,-1,1238,1814,11.7,-47.6182
21,-790,7.8949,50.2676,0,0,0,0,0,0,0,-1,1245,1814,7.89487,-50.2676
28,-790,6.88232,50.0405,0.031533,-0.0310676,-0.0018013,0.0315848,-0.0311194,-0.0287427,0.0362026,0.0462418,1252,1814,6.88231,-50.0406
35,-790,6.78748,49.8063,0.0343971,-0.0176919,0.00376202,0.0346674,-0.0179622,0.0717267,0.0308917,0.0466751,1259,1814,6.78744,-49.8063
42,-790,6.85645,49.389,0,0,0,0,0,0,0,-1,1266,1814,6.85648,-49.3891
49,-790,7.30383,48.3092,0.0392102,0.0340239,0.013594,0.0504561,0.022778,0.69115,0.0291766,0.0487991,1273,1814,7.30388,-48.3092
56,-790,7.55188,47.4346,0.0399234,0.0606904,0.0186881,0.071686,0.0289279,1.03897,0.0416439,0.0479271,1280,1814,7.55182,-47.4345
63,-790,7.7467,46.6727,0.0376509,0.0869661,0.0226838,0.095813,0.028804,1.19893,0.0567646,0.0466344,1287,1814,7.74668,-46.6727
70,-790,8.15002,45.8477,0.0319922,0.112613,0.0255111,0.120007,0.0245978,1.28868,0.0731964,0.0432885,1294,1814,8.15005,-45.8477
77,-790,8.38452,45.057,0.0248873,0.127406,0.0271648,0.134159,0.0181341,1.32714,0.0840491,0.0438537,1301,1814,8.38447,-45.057
84,-790,9.39233,47.7616,0.0186101,0.134149,0.0278075,0.140493,0.0122659,1.34649,0.0898532,0.0437349,1308,1814,9.39229,-47.7616
91,-790,9.54651,47.9584,0.0111843,0.138031,0.0279924,0.143934,0.00528169,1.36297,0.0942447,0.0446682,1315,1814,9.5465,-47.9584
98,-790,9.6582,48.0846,0,0,0,0,0,0,0,-1,1322,1814,9.65823,-48.0846
105,-790,9.08301,48.5957,0,0,0,0,0,0,0,-1,1329,1814,9.08296,-48.5957
112,-790,8.38574,48.3861,-0.0158121,0.107967,0.0245182,0.112647,-0.0204917,1.3822,0.0827782,0.0472538,1336,1814,8.38575,-48.3861
119,-790,7.5885,48.4358,-0.0209232,0.0808174,0.0207534,0.0848879,-0.0249937,1.37712,0.0665075,0.0466392,1343,1814,7.58851,-48.4358
126,-790,6.81177,48.2588,-0.0217295,0.0424236,0.0149947,0.0457553,-0.0250612,1.35215,0.0414637,0.0495561,1350,1814,6.81177,-48.2588
133,-790,7.19312,47.7843,-0.0179014,0.00983889,0.0086712,0.0123263,-0.0203889,1.29144,0.0190784,0.0484701,1357,1814,7.19317,-47.7843
140,-790,7.81946,47.3445,0,0,0,0,0,0,0,-1,1364,1814,7.81943,-47.3445
147,-790,8.08386,45.9377,0,0,0,0,0,0,0,-1,1371,1814,8.08381,-45.9378
154,-790,40.215,13.2396,0,0,0,0,0,0,0,-1,1378,1814,40.2149,-13.2396
161,-790,39.3429,13.0336,0,0,0,0,0,0,0,-1,1385,1814,39.3429,-13.0336
168,-790,7.04077,2.23279,0,0,0,0,0,0,0,-1,1392,1814,7.04082,-2.23275
175,-790,9.03918,3.98535,0,0,0,0,0,0,0,-1,1399,1814,9.0392,-3.98535
182,-790,8.96997,5.67896,0,0,0,0,0,0,0,-1,1406,1814,8.97001,-5.6789
189,-790,8.59729,6.86975,0,0,0,0,0,0,0,-1,1413,1814,8.59728,-6.86972
196,-790,8.21924,9.29053,0,0,0,0,0,0,0,-1,1420,1814,8.21924,-9.29048
203,-790,0,0,0,0,0,0,0,0,0,-1,1427,1814,0,0
210,-790,0,0,0,0,0,0,0,0,0,-1,1434,1814,0,0
217,-790,0,0,0,0,0,0,0,0,0,-1,1441,1814,0,0
224,-790,0,0,0,0,0,0,0,0,0,-1,1448,1814,0,0
231,-790,0,0,0,0,0,0,0,0,0,-1,1455,1814,0,0
238,-790,0,0,0,0,0,0,0,0,0,-1,1462,1814,0,0
245,-790,0,0,0,0,0,0,0,0,0,-1,1469,1814,0,0
252,-790,0,0,0,0,0,0,0,0,0,-1,1476,1814,0,0
259,-790,0,0,0,0,0,0,0,0,0,-1,1483,1814,0,0
266,-790,0,0,0,0,0,0,0,0,0,-1,1490,1814,0,0
273,-790,0,0,0,0,0,0,0,0,0,-1,1497,1814,0,0
280,-790,0,0,0,0,0,0,0,0,0,-1,1504,1814,0,0
287,-790,0,0,0,0,0,0,0,0,0,-1,1511,1814,0,0
294,-790,0,0,0,0,0,0,0,0,0,-1,1518,1814,0,0
301,-790,0,0,0,0,0,0,0,0,0,-1,1525,1814,0,0
308,-790,0,0,0,0,0,0,0,0,0,-1,1532,1814,0,0
315,-790,0,0,0,0,0,0,0,0,0,-1,1539,1814,0,0
322,-790,0,0,0,0,0,0,0,0,0,-1,1546,1814,0,0
329,-790,0,0,0,0,0,0,0,0,0,-1,1553,1814,0,0
336,-790,0,0,0,0,0,0,0,0,0,-1,1560,1814,0,0
343,-790,0,0,0,0,0,0,0,0,0,-1,1567,1814,0,0
350,-790,0,0,0,0,0,0,0,0,0,-1,1574,1814,0,0
357,-790,0,0,0,0,0,0,0,0,0,-1,1581,1814,0,0
364,-790,0,0,0,0,0,0,0,0,0,-1,1588,1814,0,0
371,-790,0,0,0,0,0,0,0,0,0,-1,1595,1814,0,0
378,-790,0,0,0,0,0,0,0,0,0,-1,1602,1814,0,0
385,-790,0,0,0,0,0,0,0,0,0,-1,1609,1814,0,0
392,-790,0,0,0,0,0,0,0,0,0,-1,1616,1814,0,0
399,-790,0,0,0,0,0,0,0,0,0,-1,1623,1814,0,0
406,-790,0,0,0,0,0,0,0,0,0,-1,1630,1814,0,0
413,-790,0,0,0,0,0,0,0,0,0,-1,1637,1814,0,0
420,-790,0,0,0,0,0,0,0,0,0,-1,1644,1814,0,0
427,-790,0,0,0,0,0,0,0,0,0,-1,1651,1814,0,0
434,-790,0,0,0,0,0,0,0,0,0,-1,1658,1814,0,0
441,-790,0,0,0,0,0,0,0,0,0,-1,1665,1814,0,0
448,-790,0,0,0,0,0,0,0,0,0,-1,1672,1814,0,0
455,-790,0,0,0,0,0,0,0,0,0,-1,1679,1814,0,0
462,-790,0,0,0,0,0,0,0,0,0,-1,1686,1814,0,0
469,-790,0,0,0,0,0,0,0,0,0,-1,1693,1814,0,0
476,-790,0,0,0,0,0,0,0,0,0,-1,1700,1814,0,0
483,-790,0,0,0,0,0,0,0,0,0,-1,1707,1814,0,0
490,-790,0,0,0,0,0,0,0,0,0,-1,1714,1814,0,0
497,-790,0,0,0,0,0,0,0,0,0,-1,1721,1814,0,0
504,-790,0,0,0,0,0,0,0,0,0,-1,1728,1814,0,0
511,-790,0,0,0,0,0,0,0,0,0,-1,1735,1814,0,0
518,-790,0,0,0,0,0,0,0,0,0,-1,1742,1814,0,0
525,-790,0,0,0,0,0,0,0,0,0,-1,1749,1814,0,0
532,-790,0,0,0,0,0,0,0,0,0,-1,1756,1814,0,0
539,-790,0,0,0,0,0,0,0,0,0,-1,1763,1814,0,0
546,-790,0,0,0,0,0,0,0,0,0,-1,1770,1814,0,0
553,-790,0,0,0,0,0,0,0,0,0,-1,1777,1814,0,0
560,-790,0,0,0,0,0,0,0,0,0,-1,1784,1814,0,0
567,-790,0,0,0,0,0,0,0,0,0,-1,1791,1814,0,0
574,-790,0,0,0,0,0,0,0,0,0,-1,1798,1814,0,0
581,-790,0,0,0,0,0,0,0,0,0,-1,1805,1814,0,0
588,-790,0,0,0,0,0,0,0,0,0,-1,1812,1814,0,0
595,-790,0,0,0,0,0,0,0,0,0,-1,1819,1814,0,0
602,-790,0,0,0,0,0,0,0,0,0,-1,1826,1814,0,0
609,-790,0,0,0,0,0,0,0,0,0,-1,1833,1814,0,0
616,-790,0,0,0,0,0,0,0,0,0,-1,1840,1814,0,0
623,-790,0,0,0,0,0,0,0,0,0,-1,1847,1814,0,0
630,-790,0,0,0,0,0,0,0,0,0,-1,1854,1814,0,0
637,-790,0,0,0,0,0,0,0,0,0,-1,1861,1814,0,0
644,-790,0,0,0,0,0,0,0,0,0,-1,1868,1814,0,0
651,-790,0,0,0,0,0,0,0,0,0,-1,1875,1814,0,0
658,-790,0,0,0,0,0,0,0,0,0,-1,1882,1814,0,0
665,-790,0,0,0,0,0,0,0,0,0,-1,1889,1814,0,0
672,-790,0,0,0,0,0,0,0,0,0,-1,1896,1814,0,0
679,-790,0,0,0,0,0,0,0,0,0,-1,1903,1814,0,0
686,-790,0,0,0,0,0,0,0,0,0,-1,1910,1814,0,0
693,-790,0,0,0,0,0,0,0,0,0,-1,1917,1814,0,0
700,-790,0,0,0,0,0,0,0,0,0,-1,1924,1814,0,0
707,-790,0,0,0,0,0,0,0,0,0,-1,1931,1814,0,0
714,-790,0,0,0,0,0,0,0,0,0,-1,1938,1814,0,0
721,-790,0,0,0,0,0,0,0,0,0,-1,1945,1814,0,0
728,-790,0,0,0,0,0,0,0,0,0,-1,1952,1814,0,0
735,-790,0,0,0,0,0,0,0,0,0,-1,1959,1814,0,0
742,-790,0,0,0,0,0,0,0,0,0,-1,1966,1814,0,0
749,-790,0,0,0,0,0,0,0,0,0,-1,1973,1814,0,0
756,-790,0,0,0,0,0,0,0,0,0,-1,1980,1814,0,0
763,-790,0,0,0,0,0,0,0,0,0,-1,1987,1814,0,0
770,-790,0,0,0,0,0,0,0,0,0,-1,1994,1814,0,0
777,-790,0,0,0,0,0,0,0,0,0,-1,2001,1814,0,0
784,-790,0,0,0,0,0,0,0,0,0,-1,2008,1814,0,0
791,-790,0,0,0,0,0,0,0,0,0,-1,2015,1814,0,0
798,-790,0,0,0,0,0,0,0,0,0,-1,2022,1814,0,0
805,-790,0,0,0,0,0,0,0,0,0,-1,2029,1814,0,0
812,-790,0,0,0,0,0,0,0,0,0,-1,2036,1814,0,0
-700,-797,0,0,0,0,0,0,0,0,0,-1,524,1821,0,0
-693,-797,0,0,0,0,0,0,0,0,0,-1,531,1821,0,0
-686,-797,0,0,0,0,0,0,0,0,0,-1,538,1821,0,0
-679,-797,0,0,0,0,0,0,0,0,0,-1,545,1821,0,0
-672,-797,0,0,0,0,0,0,0,0,0,-1,552,1821,0,0
-665,-797,0,0,0,0,0,0,0,0,0,-1,559,1821,0,0
-658,-797,0,0,0,0,0,0,0,0,0,-1,566,1821,0,0
-651,-797,0,0,0,0,0,0,0,0,0,-1,573,1821,0,0
-644,-797,0,0,0,0,0,0,0,0,0,-1,580,1821,0,0
-637,-797,0,0,0,0,0,0,0,0,0,-1,587,1821,0,0
-630,-797,0,0,0,0,0,0,0,0,0,-1,594,1821,0,0
-623,-797,0,0,0,0,0,0,0,0,0,-1,601,1821,0,0
-616,-797,0,0,0,0,0,0,0,0,0,-1,608,1821,0,0
-609,-797,0,0,0,0,0,0,0,0,0,-1,615,1821,0,0
-602,-797,0,0,0,0,0,0,0,0,0,-1,622,1821,0,0
-595,-797,0,0,0,0,0,0,0,0,0,-1,629,1821,0,0
-588,-797,0,0,0,0,0,0,0,0,0,-1,636,1821,0,0
-581,-797,0,0,0,0,0,0,0,0,0,-1,643,1821,0,0
-574,-797,0,0,0,0,0,0,0,0,0,-1,650,1821,0,0
-567,-797,0,0,0,0,0,0,0,0,0,-1,657,1821,0,0
-560,-797,0,0,0,0,0,0,0,0,0,-1,664,1821,0,0
-553,-797,0,0,0,0,0,0,0,0,0,-1,671,1821,0,0
-546,-797,0,0,0,0,0,0,0,0,0,-1,678,1821,0,0
-539,-797,0,0,0,0,0,0,0,0,0,-1,685,1821,0,0
-532,-797,0,0,0,0,0,0,0,0,0,-1,692,1821,0,0
-525,-797,0,0,0,0,0,0,0,0,0,-1,699,1821,0,0
-518,-797,0,0,0,0,0,0,0,0,0,-1,706,1821,0,0
-511,-797,0,0,0,0,0,0,0,0,0,-1,713,1821,0,0
-504,-797,0,0,0,0,0,0,0,0,0,-1,720,1821,0,0
-497,-797,0,0,0,0,0,0,0,0,0,-1,727,1821,0,0
-490,-797,0,0,0,0,0,0,0,0,0,-1,734,1821,0,0
-483,-797,0,0,0,0,0,0,0,0,0,-1,741,1821,0,0
-476,-797,0,0,0,0,0,0,0,0,0,-1,748,1821,0,0
-469,-797,0,0,0,0,0,0,0,0,0,-1,755,1821,0,0
-462,-797,0,0,0,0,0,0,0,0,0,-1,762,1821,0,0
-455,-797,0,0,0,0,0,0,0,0,0,-1,769,1821,0,0
-448,-797,0,0,0,0,0,0,0,0,0,-1,776,1821,0,0
-441,-797,0,0,0,0,0,0,0,0,0,-1,783,1821,0,0
-434,-797,0,0,0,0,0,0,0,0,0,-1,790,1821,0,0
-427,-797,0,0,0,0,0,0,0,0,0,-1,797,1821,0,0
-420,-797,0,0,0,0,0,0,0,0,0,-1,804,1821,0,0
-413,-797,0,0,0,0,0,0,0,0,0,-1,811,1821,0,0
-406,-797,0,0,0,0,0,0,0,0,0,-1,818,1821,0,0
-399,-797,0,0,0,0,0,0,0,0,0,-1,825,1821,0,0
-392,-797,0,0,0,0,0,0,0,0,0,-1,832,1821,0,0
-385,-797,0,0,0,0,0,0,0,0,0,-1,839,1821,0,0
-378,-797,0,0,0,0,0,0,0,0,0,-1,846,1821,0,0
-371,-797,0,0,0,0,0,0,0,0,0,-1,853,1821,0,0
-364,-797,0,0,0,0,0,0,0,0,0,-1,860,1821,0,0
-357,-797,0,0,0,0,0,0,0,0,0,-1,867,1821,0,0
-350,-797,0,0,0,0,0,0,0,0,0,-1,874,1821,0,0
-343,-797,0,0,0,0,0,0,0,0,0,-1,881,1821,0,0
-336,-797,0,0,0,0,0,0,0,0,0,-1,888,1821,0,0
-329,-797,0,0,0,0,0,0,0,0,0,-1,895,1821,0,0
-322,-797,0,0,0,0,0,0,0,0,0,-1,902,1821,0,0
-315,-797,0,0,0,0,0,0,0,0,0,-1,909,1821,0,0
-308,-797,0,0,0,0,0,0,0,0,0,-1,916,1821,0,0
-301,-797,0,0,0,0,0,0,0,0,0,-1,923,1821,0,0
-294,-797,0,0,0,0,0,0,0,0,0,-1,930,1821,0,0
-287,-797,0,0,0,0,0,0,0,0,0,-1,937,1821,0,0
-280,-797,0,0,0,0,0,0,0,0,0,-1,944,1821,0,0
-273,-797,0,0,0,0,0,0,0,0,0,-1,951,1821,0,0
-266,-797,0,0,0,0,0,0,0,0,0,-1,958,1821,0,0
-259,-797,0,0,0,0,0,0,0,0,0,-1,965,1821,0,0
-252,-797,0,0,0,0,0,0,0,0,0,-1,972,1821,0,0
-245,-797,0,0,0,0,0,0,0,0,0,-1,979,1821,0,0
-238,-797,0,0,0,0,0,0,0,0,0,-1,986,1821,0,0
-231,-797,0,0,0,0,0,0,0,0,0,-1,993,1821,0,0
-224,-797,0,0,0,0,0,0,0,0,0,-1,1000,1821,0,0
-217,-797,0,0,0,0,0,0,0,0,0,-1,1007,1821,0,0
-210,-797,0,0,0,0,0,0,0,0,0,-1,1014,1821,0,0
-203,-797,0,0,0,0,0,0,0,0,0,-1,1021,1821,0,0
-196,-797,0,0,0,0,0,0,0,0,0,-1,1028,1821,0,0
-189,-797,0,0,0,0,0,0,0,0,0,-1,1035,1821,0,0
-182,-797,0,0,0,0,0,0,0,0,0,-1,1042,1821,0,0
-175,-797,0,0,0,0,0,0,0,0,0,-1,1049,1821,0,0
-168,-797,0,0,0,0,0,0,0,0,0,-1,1056,1821,0,0
-161,-797,0,0,0,0,0,0,0,0,0,-1,1063,1821,0,0
-154,-797,0,0,0,0,0,0,0,0,0,-1,1070,1821,0,0
-147,-797,0,0,0,0,0,0,0,0,0,-1,1077,1821,0,0
-140,-797,0,0,0,0,0,0,0,0,0,-1,1084,1821,0,0
-133,-797,0,0,0,0,0,0,0,0,0,-1,1091,1821,0,0
-126,-797,0,0,0,0,0,0,0,0,0,-1,1098,1821,0,0
-119,-797,0,0,0,0,0,0,0,0,0,-1,1105,1821,0,0
-112,-797,0,0,0,0,0,0,0,0,0,-1,1112,1821,0,0
-105,-797,0,0,0,0,0,0,0,0,0,-1,1119,1821,0,0
-98,-797,0,0,0,0,0,0,0,0,0,-1,1126,1821,0,0
-91,-797,0,0,0,0,0,0,0,0,0,-1,1133,1821,0,0
-84,-797,0,0,0,0,0,0,0,0,0,-1,1140,1821,0,0
-77,-797,0,0,0,0,0,0,0,0,0,-1,1147,1821,0,0
-70,-797,0,0,0,0,0,0,0,0,0,-1,1154,1821,0,0
-63,-797,0,0,0,0,0,0,0,0,0,-1,1161,1821,0,0
-56,-797,0,0,0,0,0,0,0,0,0,-1,1168,1821,0,0
-49,-797,0,0,0,0,0,0,0,0,0,-1,1175,1821,0,0
-42,-797,0.579834,0.692871,0,0,0,0,0,0,0,-1,1182,1821,0.579856,-0.692816
-35,-797,-0.185425,5.55396,0,0,0,0,0,0,0,-1,1189,1821,-0.18542,-5.55396
-28,-797,-0.310181,4.71509,0,0,0,0,0,0,0,-1,1196,1821,-0.310228,-4.71503
-21,-797,6.60205,45.1842,0,0,0,0,0,0,0,-1,1203,1821,6.60205,-45.1842
-14,-797,9.45776,44.9059,0,0,0,0,0,0,0,-1,1210,1821,9.45772,-44.9058
-7,-797,8.50037,47.7076,0,0,0,0,0,0,0,-1,1217,1821,8.50034,-47.7076
0,-797,12.0555,47.2544,0,0,0,0,0,0,0,-1,1224,1821,12.0555,-47.2544
7,-797,12.1935,47.4061,0.0395612,-0.026268,-0.0283532,0.0500894,-0.0367961,-0.355542,0.0503587,0.0457716,1231,1821,12.1935,-47.4061
14,-797,12.4811,47.7439,0,0,0,0,0,0,0,-1,1238,1821,12.4811,-47.7439
21,-797,13.0618,47.9413,0,0,0,0,0,0,0,-1,1245,1821,13.0618,-47.9413
28,-797,5.83289,50.8848,0,0,0,0,0,0,0,-1,1252,1821,5.83285,-50.8848
35,-797,5.7417,50.2098,0,0,0,0,0,0,0,-1,1259,1821,5.74168,-50.2098
42,-797,5.72803,49.6672,0.0497349,0.00523649,0.00977535,0.0517877,0.00318375,0.206984,0.0335143,0.0449103,1266,1821,5.72804,-49.6673
49,-797,6.24915,48.5702,0.0521899,0.0358733,0.0152183,0.0612988,0.0267644,0.539351,0.0354855,0.0472779,1273,1821,6.24919,-48.5702
56,-797,6.80176,47.6537,0.052821,0.0693957,0.0213612,0.0840208,0.0381959,0.970441,0.0485761,0.0455528,1280,1821,6.80182,-47.6536
63,-797,7.02002,46.901,0.049877,0.10366,0.0263879,0.114445,0.0390926,1.18282,0.0671709,0.0441865,1287,1821,7.02004,-46.901
70,-797,7.25952,46.1272,0,0,0,0,0,0,0,-1,1294,1821,7.25951,-46.1272
77,-797,7.71448,45.4752,0.0336808,0.157514,0.032355,0.165458,0.0257368,1.33003,0.102806,0.0426732,1301,1821,7.71446,-45.4753
84,-797,7.59167,44.5381,0.0257047,0.166535,0.0331008,0.173927,0.0183126,1.35108,0.110355,0.048901,1308,1821,7.59164,-44.5381
91,-797,7.29285,43.5476,0.0162637,0.17282,0.0336131,0.179731,0.00935201,1.368,0.116828,0.0441733,1315,1821,7.29284,-43.5476
98,-797,10.094,49.2587,0,0,0,0,0,0,0,-1,1322,1821,10.094,-49.2586
105,-797,9.14441,49.0537,0,0,0,0,0,0,0,-1,1329,1821,9.14436,-49.0537
112,-797,8.36194,48.6954,0,0,0,0,0,0,0,-1,1336,1821,8.36198,-48.6955
119,-797,7.38672,48.7256,0,0,0,0,0,0,0,-1,1343,1821,7.38674,-48.7256
126,-797,6.55872,48.2955,-0.0229566,0.0558634,0.0168554,0.0593165,-0.0264098,1.36872,0.050695,0.0459657,1350,1821,6.55872,-48.2955
133,-797,6.9657,48.1178,-0.0174346,0.0112552,0.00857783,0.0136242,-0.0198036,1.30133,0.0194092,0.0485165,1357,1821,6.96572,-48.1177
140,-797,6.90015,47.8992,0,0,0,0,0,0,0,-1,1364,1821,6.90012,-47.8991
147,-797,6.59363,47.5034,0,0,0,0,0,0,0,-1,1371,1821,6.59369,-47.5034
154,-797,40.2623,8.88733,0,0,0,0,0,0,0,-1,1378,1821,40.2623,-8.88731
161,-797,42.2798,8.17371,0,0,0,0,0,0,0,-1,1385,1821,42.2798,-8.17367
168,-797,0,0,0,0,0,0,0,0,0,-1,1392,1821,0,0
175,-797,0,0,0,0,0,0,0,0,0,-1,1399,1821,0,0
182,-797,0,0,0,0,0,0,0,0,0,-1,1406,1821,0,0
189,-797,0,0,0,0,0,0,0,0,0,-1,1413,1821,0,0
196,-797,0,0,0,0,0,0,0,0,0,-1,1420,1821,0,0
203,-797,0,0,0,0,0,0,0,0,0,-1,1427,1821,0,0
210,-797,0,0,0,0,0,0,0,0,0,-1,1434,1821,0,0
217,-797,0,0,0,0,0,0,0,0,0,-1,1441,1821,0,0
224,-797,0,0,0,0,0,0,0,0,0,-1,1448,1821,0,0
231,-797,0,0,0,0,0,0,0,0,0,-1,1455,1821,0,0
238,-797,0,0,0,0,0,0,0,0,0,-1,1462,1821,0,0
245,-797,0,0,0,0,0,0,0,0,0,-1,1469,1821,0,0
252,-797,0,0,0,0,0,0,0,0,0,-1,1476,1821,0,0
259,-797,0,0,0,0,0,0,0,0,0,-1,1483,1821,0,0
266,-797,0,0,0,0,0,0,0,0,0,-1,1490,1821,0,0
273,-797,0,0,0,0,0,0,0,0,0,-1,1497,1821,0,0
280,-797,0,0,0,0,0,0,0,0,0,-1,1504,1821,0,0
287,-797,0,0,0,0,0,0,0,0,0,-1,1511,1821,0,0
294,-797,0,0,0,0,0,0,0,0,0,-1,1518,1821,0,0
301,-797,0,0,0,0,0,0,0,0,0,-1,1525,1821,0,0
308,-797,0,0,0,0,0,0,0,0,0,-1,1532,1821,0,0
315,-797,0,0,0,0,0,0,0,0,0,-1,1539,1821,0,0
322,-797,0,0,0,0,0,0,0,0,0,-1,1546,1821,0,0
329,-797,0,0,0,0,0,0,0,0,0,-1,1553,1821,0,0
336,-797,0,0,0,0,0,0,0,0,0,-1,1560,1821,0,0
343,-797,0,0,0,0,0,0,0,0,0,-1,1567,1821,0,0
350,-797,0,0,0,0,0,0,0,0,0,-1,1574,1821,0,0
357,-797,0,0,0,0,0,0,0,0,0,-1,1581,1821,0,0
364,-797,0,0,0,0,0,0,0,0,0,-1,1588,1821,0,0
371,-797,0,0,0,0,0,0,0,0,0,-1,1595,1821,0,0
378,-797,0,0,0,0,0,0,0,0,0,-1,1602,1821,0,0
385,-797,0,0,0,0,0,0,0,0,0,-1,1609,1821,0,0
392,-797,0,0,0,0,0,0,0,0,0,-1,1616,1821,0,0
399,-797,0,0,0,0,0,0,0,0,0,-1,1623,1821,0,0
406,-797,0,0,0,0,0,0,0,0,0,-1,1630,1821,0,0
413,-797,0,0,0,0,0,0,0,0,0,-1,1637,1821,0,0
420,-797,0,0,0,0,0,0,0,0,0,-1,1644,1821,0,0
427,-797,0,0,0,0,0,0,0,0,0,-1,1651,1821,0,0
434,-797,0,0,0,0,0,0,0,0,0,-1,1658,1821,0,0
441,-797,0,0,0,0,0,0,0,0,0,-1,1665,1821,0,0
448,-797,0,0,0,0,0,0,0,0,0,-1,1672,1821,0,0
455,-797,0,0,0,0,0,0,0,0,0,-1,1679,1821,0,0
462,-797,0,0,0,0,0,0,0,0,0,-1,1686,1821,0,0
469,-797,0,0,0,0,0,0,0,0,0,-1,1693,1821,0,0
476,-797,0,0,0,0,0,0,0,0,0,-1,1700,1821,0,0
483,-797,0,0,0,0,0,0,0,0,0,-1,1707,1821,0,0
490,-797,0,0,0,0,0,0,0,0,0,-1,1714,1821,0,0
497,-797,0,0,0,0,0,0,0,0,0,-1,1721,1821,0,0
504,-797,0,0,0,0,0,0,0,0,0,-1,1728,1821,0,0
511,-797,0,0,0,0,0,0,0,0,0,-1,1735,1821,0,0
518,-797,0,0,0,0,0,0,0,0,0,-1,1742,1821,0,0
525,-797,0,0,0,0,0,0,0,0,0,-1,1749,1821,0,0
532,-797,0,0,0,0,0,0,0,0,0,-1,1756,1821,0,0
539,-797,0,0,0,0,0,0,0,0,0,-1,1763,1821,0,0
546,-797,0,0,0,0,0,0,0,0,0,-1,1770,1821,0,0
553,-797,0,0,0,0,0,0,0,0,0,-1,1777,1821,0,0
560,-797,0,0,0,0,0,0,0,0,0,-1,1784,1821,0,0
567,-797,0,0,0,0,0,0,0,0,0,-1,1791,1821,0,0
574,-797,0,0,0,0,0,0,0,0,0,-1,1798,1821,0,0
581,-797,0,0,0,0,0,0,0,0,0,-1,1805,1821,0,0
588,-797,0,0,0,0,0,0,0,0,0,-1,1812,1821,0,0
595,-797,0,0,0,0,0,0,0,0,0,-1,1819,1821,0,0
602,-797,0,0,0,0,0,0,0,0,0,-1,1826,1821,0,0
609,-797,0,0,0,0,0,0,0,0,0,-1,1833,1821,0,0
616,-797,0,0,0,0,0,0,0,0,0,-1,1840,1821,0,0
623,-797,0,0,0,0,0,0,0,0,0,-1,1847,1821,0,0
630,-797,0,0,0,0,0,0,0,0,0,-1,1854,1821,0,0
637,-797,0,0,0,0,0,0,0,0,0,-1,1861,1821,0,0
644,-797,0,0,0,0,0,0,0,0,0,-1,1868,1821,0,0
651,-797,0,0,0,0,0,0,0,0,0,-1,1875,1821,0,0
658,-797,0,0,0,0,0,0,0,0,0,-1,1882,1821,0,0
665,-797,0,0,0,0,0,0,0,0,0,-1,1889,1821,0,0
672,-797,0,0,0,0,0,0,0,0,0,-1,1896,1821,0,0
679,-797,0,0,0,0,0,0,0,0,0,-1,1903,1821,0,0
686,-797,0,0,0,0,0,0,0,0,0,-1,1910,1821,0,0
693,-797,0,0,0,0,0,0,0,0,0,-1,1917,1821,0,0
700,-797,0,0,0,0,0,0,0,0,0,-1,1924,1821,0,0
707,-797,0,0,0,0,0,0,0,0,0,-1,1931,1821,0,0
714,-797,0,0,0,0,0,0,0,0,0,-1,1938,1821,0,0
721,-797,0,0,0,0,0,0,0,0,0,-1,1945,1821,0,0
728,-797,0,0,0,0,0,0,0,0,0,-1,1952,1821,0,0
735,-797,0,0,0,0,0,0,0,0,0,-1,1959,1821,0,0
742,-797,0,0,0,0,0,0,0,0,0,-1,1966,1821,0,0
749,-797,0,0,0,0,0,0,0,0,0,-1,1973,1821,0,0
756,-797,0,0,0,0,0,0,0,0,0,-1,1980,1821,0,0
763,-797,0,0,0,0,0,0,0,0,0,-1,1987,1821,0,0
770,-797,0,0,0,0,0,0,0,0,0,-1,1994,1821,0,0
777,-797,0,0,0,0,0,0,0,0,0,-1,2001,1821,0,0
784,-797,0,0,0,0,0,0,0,0,0,-1,2008,1821,0,0
791,-797,0,0,0,0,0,0,0,0,0,-1,2015,1821,0,0
798,-797,0,0,0,0,0,0,0,0,0,-1,2022,1821,0,0
805,-797,0,0,0,0,0,0,0,0,0,-1,2029,1821,0,0
812,-797,0,0,0,0,0,0,0,0,0,-1,2036,1821,0,0
-700,-804,0,0,0,0,0,0,0,0,0,-1,524,1828,0,0
-693,-804,0,0,0,0,0,0,0,0,0,-1,531,1828,0,0
-686,-804,0,0,0,0,0,0,0,0,0,-1,538,1828,0,0
-679,-804,0,0,0,0,0,0,0,0,0,-1,545,1828,0,0
-672,-804,0,0,0,0,0,0,0,0,0,-1,552,1828,0,0
-665,-804,0,0,0,0,0,0,0,0,0,-1,559,1828,0,0
-658,-804,0,0,0,0,0,0,0,0,0,-1,566,1828,0,0
-651,-804,0,0,0,0,0,0,0,0,0,-1,573,1828,0,0
-644,-804,0,0,0,0,0,0,0,0,0,-1,580,1828,0,0
-637,-804,0,0,0,0,0,0,0,0,0,-1,587,1828,0,0
-630,-804,0,0,0,0,0,0,0,0,0,-1,594,1828,0,0
-623,-804,0,0,0,0,0,0,0,0,0,-1,601,1828,0,0
-616,-804,0,0,0,0,0,0,0,0,0,-1,608,1828,0,0
-609,-804,0,0,0,0,0,0,0,0,0,-1,615,1828,0,0
-602,-804,0,0,0,0,0,0,0,0,0,-1,622,1828,0,0
-595,-804,0,0,0,0,0,0,0,0,0,-1,629,1828,0,0
-588,-804,0,0,0,0,0,0,0,0,0,-1,636,1828,0,0
-581,-804,0,0,0,0,0,0,0,0,0,-1,643,1828,0,0
-574,-804,0,0,0,0,0,0,0,0,0,-1,650,1828,0,0
-567,-804,0,0,0,0,0,0,0,0,0,-1,657,1828,0,0
-560,-804,0,0,0,0,0,0,0,0,0,-1,664,1828,0,0
-553,-804,0,0,0,0,0,0,0,0,0,-1,671,1828,0,0
-546,-804,0,0,0,0,0,0,0,0,0,-1,678,1828,0,0
-539,-804,0,0,0,0,0,0,0,0,0,-1,685,1828,0,0
-532,-804,0,0,0,0,0,0,0,0,0,-1,692,1828,0,0
-525,-804,0,0,0,0,0,0,0,0,0,-1,699,1828,0,0
-518,-804,0,0,0,0,0,0,0,0,0,-1,706,1828,0,0
-511,-804,0,0,0,0,0,0,0,0,0,-1,713,1828,0,0
-504,-804,0,0,0,0,0,0,0,0,0,-1,720,1828,0,0
-497,-804,0,0,0,0,0,0,0,0,0,-1,727,1828,0,0
-490,-804,0,0,0,0,0,0,0,0,0,-1,734,1828,0,0
-483,-804,0,0,0,0,0,0,0,0,0,-1,741,1828,0,0
-476,-804,0,0,0,0,0,0,0,0,0,-1,748,1828,0,0
-469,-804,0,0,0,0,0,0,0,0,0,-1,755,1828,0,0
-462,-804,0,0,0,0,0,0,0,0,0,-1,762,1828,0,0
-455,-804,0,0,0,0,0,0,0,0,0,-1,769,1828,0,0
-448,-804,0,0,0,0,0,0,0,0,0,-1,776,1828,0,0
-441,-804,0,0,0,0,0,0,0,0,0,-1,783,1828,0,0
-434,-804,0,0,0,0,0,0,0,0,0,-1,790,1828,0,0
-427,-804,0,0,0,0,0,0,0,0,0,-1,797,1828,0,0
-420,-804,0,0,0,0,0,0,0,0,0,-1,804,1828,0,0
-413,-804,0,0,0,0,0,0,0,0,0,-1,811,1828,0,0
-406,-804,0,0,0,0,0,0,0,0,0,-1,818,1828,0,0
-399,-804,0,0,0,0,0,0,0,0,0,-1,825,1828,0,0
-392,-804,0,0,0,0,0,0,0,0,0,-1,832,1828,0,0
-385,-804,0,0,0,0,0,0,0,0,0,-1,839,1828,0,0
-378,-804,0,0,0,0,0,0,0,0,0,-1,846,1828,0,0
-371,-804,0,0,0,0,0,0,0,0,0,-1,853,1828,0,0
-364,-804,0,0,0,0,0,0,0,0,0,-1,860,1828,0,0
-357,-804,0,0,0,0,0,0,0,0,0,-1,867,1828,0,0
-350,-804,0,0,0,0,0,0,0,0,0,-1,874,1828,0,0
-343,-804,0,0,0,0,0,0,0,0,0,-1,881,1828,0,0
-336,-804,0,0,0,0,0,0,0,0,0,-1,888,1828,0,0
-329,-804,0,0,0,0,0,0,0,0,0,-1,895,1828,0,0
-322,-804,0,0,0,0,0,0,0,0,0,-1,902,1828,0,0
-315,-804,0,0,0,0,0,0,0,0,0,-1,909,1828,0,0
-308,-804,0,0,0,0,0,0,0,0,0,-1,916,1828,0,0
-301,-804,0,0,0,0,0,0,0,0,0,-1,923,1828,0,0
-294,-804,0,0,0,0,0,0,0,0,0,-1,930,1828,0,0
-287,-804,0,0,0,0,0,0,0,0,0,-1,937,1828,0,0
-280,-804,0,0,0,0,0,0,0,0,0,-1,944,1828,0,0
-273,-804,0,0,0,0,0,0,0,0,0,-1,951,1828,0,0
-266,-804,0,0,0,0,0,0,0,0,0,-1,958,1828,0,0
-259,-804,0,0,0,0,0,0,0,0,0,-1,965,1828,0,0
-252,-804,0,0,0,0,0,0,0,0,0,-1,972,1828,0,0
-245,-804,0,0,0,0,0,0,0,0,0,-1,979,1828,0,0
-238,-804,0,0,0,0,0,0,0,0,0,-1,986,1828,0,0
-231,-804,0,0,0,0,0,0,0,0,0,-1,993,1828,0,0
-224,-804,0,0,0,0,0,0,0,0,0,-1,1000,1828,0,0
-217,-804,0,0,0,0,0,0,0,0,0,-1,1007,1828,0,0
-210,-804,0,0,0,0,0,0,0,0,0,-1,1014,1828,0,0
-203,-804,0,0,0,0,0,0,0,0,0,-1,1021,1828,0,0
-196,-804,0,0,0,0,0,0,0,0,0,-1,1028,1828,0,0
-189,-804,0,0,0,0,0,0,0,0,0,-1,1035,1828,0,0
-182,-804,0,0,0,0,0,0,0,0,0,-1,1042,1828,0,0
-175,-804,0,0,0,0,0,0,0,0,0,-1,1049,1828,0,0
-168,-804,0,0,0,0,0,0,0,0,0,-1,1056,1828,0,0
-161,-804,0,0,0,0,0,0,0,0,0,-1,1063,1828,0,0
-154,-804,0,0,0,0,0,0,0,0,0,-1,1070,1828,0,0
-147,-804,0,0,0,0,0,0,0,0,0,-1,1077,1828,0,0
-140,-804,0,0,0,0,0,0,0,0,0,-1,1084,1828,0,0
-133,-804,0,0,0,0,0,0,0,0,0,-1,1091,1828,0,0
-126,-804,0,0,0,0,0,0,0,0,0,-1,1098,1828,0,0
-119,-804,0,0,0,0,0,0,0,0,0,-1,1105,1828,0,0
-112,-804,0,0,0,0,0,0,0,0,0,-1,1112,1828,0,0
-105,-804,0,0,0,0,0,0,0,0,0,-1,1119,1828,0,0
-98,-804,0,0,0,0,0,0,0,0,0,-1,1126,1828,0,0
-91,-804,0,0,0,0,0,0,0,0,0,-1,1133,1828,0,0
-84,-804,0,0,0,0,0,0,0,0,0,-1,1140,1828,0,0
-77,-804,0,0,0,0,0,0,0,0,0,-1,1147,1828,0,0
-70,-804,0,0,0,0,0,0,0,0,0,-1,1154,1828,0,0
-63,-804,0,0,0,0,0,0,0,0,0,-1,1161,1828,0,0
-56,-804,0,0,0,0,0,0,0,0,0,-1,1168,1828,0,0
-49,-804,0,0,0,0,0,0,0,0,0,-1,1175,1828,0,0
-42,-804,0,0,0,0,0,0,0,0,0,-1,1182,1828,0,0
-35,-804,0,0,0,0,0,0,0,0,0,-1,1189,1828,0,0
-28,-804,0,0,0,0,0,0,0,0,0,-1,1196,1828,0,0
-21,-804,0,0,0,0,0,0,0,0,0,-1,1203,1828,0,0
-14,-804,0,0,0,0,0,0,0,0,0,-1,1210,1828,0,0
-7,-804,0,0,0,0,0,0,0,0,0,-1,1217,1828,0,0
0,-804,0,0,0,0,0,0,0,0,0,-1,1224,1828,0,0
7,-804,0,0,0,0,0,0,0,0,0,-1,1231,1828,0,0
14,-804,0,0,0,0,0,0,0,0,0,-1,1238,1828,0,0
21,-804,0,0,0,0,0,0,0,0,0,-1,1245,1828,0,0
28,-804,0,0,0,0,0,0,0,0,0,-1,1252,1828,0,0
35,-804,4.06921,51.4086,0,0,0,0,0,0,0,-1,1259,1828,4.06919,-51.4086
42,-804,4.48108,50.3185,0.0663656,-0.00271696,0.00939182,0.0676196,-0.00397102,0.132742,0.04646,0.0465244,1266,1828,4.48106,-50.3184
49,-804,5.15698,48.9983,0.0682553,0.0320313,0.0156443,0.0740763,0.0262103,0.356213,0.0433729,0.0435507,1273,1828,5.15697,-48.9983
56,-804,5.99146,47.8854,0.068694,0.073606,0.0228288,0.0941105,0.0481895,0.838984,0.05434,0.0443354,1280,1828,5.99141,-47.8853
63,-804,6.25793,47.0966,0.0650003,0.11846,0.0290428,0.131201,0.0522591,1.15737,0.0762695,0.045946,1287,1828,6.25793,-47.0966
70,-804,6.46729,46.5895,0,0,0,0,0,0,0,-1,1294,1828,6.46728,-46.5895
77,-804,6.65161,45.6484,0,0,0,0,0,0,0,-1,1301,1828,6.65156,-45.6485
84,-804,6.85681,44.8954,0,0,0,0,0,0,0,-1,1308,1828,6.85684,-44.8953
91,-804,0,0,0,0,0,0,0,0,0,-1,1315,1828,0,0
98,-804,0,0,0,0,0,0,0,0,0,-1,1322,1828,0,0
105,-804,0,0,0,0,0,0,0,0,0,-1,1329,1828,0,0
112,-804,0,0,0,0,0,0,0,0,0,-1,1336,1828,0,0
119,-804,0,0,0,0,0,0,0,0,0,-1,1343,1828,0,0
126,-804,0,0,0,0,0,0,0,0,0,-1,1350,1828,0,0
133,-804,0,0,0,0,0,0,0,0,0,-1,1357,1828,0,0
140,-804,0,0,0,0,0,0,0,0,0,-1,1364,1828,0,0
147,-804,0,0,0,0,0,0,0,0,0,-1,1371,1828,0,0
154,-804,0,0,0,0,0,0,0,0,0,-1,1378,1828,0,0
161,-804,0,0,0,0,0,0,0,0,0,-1,1385,1828,0,0
168,-804,0,0,0,0,0,0,0,0,0,-1,1392,1828,0,0
175,-804,0,0,0,0,0,0,0,0,0,-1,1399,1828,0,0
182,-804,0,0,0,0,0,0,0,0,0,-1,1406,1828,0,0
189,-804,0,0,0,0,0,0,0,0,0,-1,1413,1828,0,0
196,-804,0,0,0,0,0,0,0,0,0,-1,1420,1828,0,0
203,-804,0,0,0,0,0,0,0,0,0,-1,1427,1828,0,0
210,-804,0,0,0,0,0,0,0,0,0,-1,1434,1828,0,0
217,-804,0,0,0,0,0,0,0,0,0,-1,1441,1828,0,0
224,-804,0,0,0,0,0,0,0,0,0,-1,1448,1828,0,0
231,-804,0,0,0,0,0,0,0,0,0,-1,1455,1828,0,0
238,-804,0,0,0,0,0,0,0,0,0,-1,1462,1828,0,0
245,-804,0,0,0,0,0,0,0,0,0,-1,1469,1828,0,0
252,-804,0,0,0,0,0,0,0,0,0,-1,1476,1828,0,0
259,-804,0,0,0,0,0,0,0,0,0,-1,1483,1828,0,0
266,-804,0,0,0,0,0,0,0,0,0,-1,1490,1828,0,0
273,-804,0,0,0,0,0,0,0,0,0,-1,1497,1828,0,0
280,-804,0,0,0,0,0,0,0,0,0,-1,1504,1828,0,0
287,-804,0,0,0,0,0,0,0,0,0,-1,1511,1828,0,0
294,-804,0,0,0,0,0,0,0,0,0,-1,1518,1828,0,0
301,-804,0,0,0,0,0,0,0,0,0,-1,1525,1828,0,0
308,-804,0,0,0,0,0,0,0,0,0,-1,1532,1828,0,0
315,-804,0,0,0,0,0,0,0,0,0,-1,1539,1828,0,0
322,-804,0,0,0,0,0,0,0,0,0,-1,1546,1828,0,0
329,-804,0,0,0,0,0,0,0,0,0,-1,1553,1828,0,0
336,-804,0,0,0,0,0,0,0,0,0,-1,1560,1828,0,0
343,-804,0,0,0,0,0,0,0,0,0,-1,1567,1828,0,0
350,-804,0,0,0,0,0,0,0,0,0,-1,1574,1828,0,0
357,-804,0,0,0,0,0,0,0,0,0,-1,1581,1828,0,0
364,-804,0,0,0,0,0,0,0,0,0,-1,1588,1828,0,0
371,-804,0,0,0,0,0,0,0,0,0,-1,1595,1828,0,0
378,-804,0,0,0,0,0,0,0,0,0,-1,1602,1828,0,0
385,-804,0,0,0,0,0,0,0,0,0,-1,1609,1828,0,0
392,-804,0,0,0,0,0,0,0,0,0,-1,1616,1828,0,0
399,-804,0,0,0,0,0,0,0,0,0,-1,1623,1828,0,0
406,-804,0,0,0,0,0,0,0,0,0,-1,1630,1828,0,0
413,-804,0,0,0,0,0,0,0,0,0,-1,1637,1828,0,0
420,-804,0,0,0,0,0,0,0,0,0,-1,1644,1828,0,0
427,-804,0,0,0,0,0,0,0,0,0,-1,1651,1828,0,0
434,-804,0,0,0,0,0,0,0,0,0,-1,1658,1828,0,0
441,-804,0,0,0,0,0,0,0,0,0,-1,1665,1828,0,0
448,-804,0,0,0,0,0,0,0,0,0,-1,1672,1828,0,0
455,-804,0,0,0,0,0,0,0,0,0,-1,1679,1828,0,0
462,-804,0,0,0,0,0,0,0,0,0,-1,1686,1828,0,0
469,-804,0,0,0,0,0,0,0,0,0,-1,1693,1828,0,0
476,-804,0,0,0,0,0,0,0,0,0,-1,1700,1828,0,0
483,-804,0,0,0,0,0,0,0,0,0,-1,1707,1828,0,0
490,-804,0,0,0,0,0,0,0,0,0,-1,1714,1828,0,0
497,-804,0,0,0,0,0,0,0,0,0,-1,1721,1828,0,0
504,-804,0,0,0,0,0,0,0,0,0,-1,1728,1828,0,0
511,-804,0,0,0,0,0,0,0,0,0,-1,1735,1828,0,0
518,-804,0,0,0,0,0,0,0,0,0,-1,1742,1828,0,0
525,-804,0,0,0,0,0,0,0,0,0,-1,1749,1828,0,0
532,-804,0,0,0,0,0,0,0,0,0,-1,1756,1828,0,0
539,-804,0,0,0,0,0,0,0,0,0,-1,1763,1828,0,0
546,-804,0,0,0,0,0,0,0,0,0,-1,1770,1828,0,0
553,-804,0,0,0,0,0,0,0,0,0,-1,1777,1828,0,0
560,-804,0,0,0,0,0,0,0,0,0,-1,1784,1828,0,0
567,-804,0,0,0,0,0,0,0,0,0,-1,1791,1828,0,0
574,-804,0,0,0,0,0,0,0,0,0,-1,1798,1828,0,0
581,-804,0,0,0,0,0,0,0,0,0,-1,1805,1828,0,0
588,-804,0,0,0,0,0,0,0,0,0,-1,1812,1828,0,0
595,-804,0,0,0,0,0,0,0,0,0,-1,1819,1828,0,0
602,-804,0,0,0,0,0,0,0,0,0,-1,1826,1828,0,0
609,-804,0,0,0,0,0,0,0,0,0,-1,1833,1828,0,0
616,-804,0,0,0,0,0,0,0,0,0,-1,1840,1828,0,0
623,-804,0,0,0,0,0,0,0,0,0,-1,1847,1828,0,0
630,-804,0,0,0,0,0,0,0,0,0,-1,1854,1828,0,0
637,-804,0,0,0,0,0,0,0,0,0,-1,1861,1828,0,0
644,-804,0,0,0,0,0,0,0,0,0,-1,1868,1828,0,0
651,-804,0,0,0,0,0,0,0,0,0,-1,1875,1828,0,0
658,-804,0,0,0,0,0,0,0,0,0,-1,1882,1828,0,0
665,-804,0,0,0,0,0,0,0,0,0,-1,1889,1828,0,0
672,-804,0,0,0,0,0,0,0,0,0,-1,1896,1828,0,0
679,-804,0,0,0,0,0,0,0,0,0,-1,1903,1828,0,0
686,-804,0,0,0,0,0,0,0,0,0,-1,1910,1828,0,0
693,-804,0,0,0,0,0,0,0,0,0,-1,1917,1828,0,0
700,-804,0,0,0,0,0,0,0,0,0,-1,1924,1828,0,0
707,-804,0,0,0,0,0,0,0,0,0,-1,1931,1828,0,0
714,-804,0,0,0,0,0,0,0,0,0,-1,1938,1828,0,0
721,-804,0,0,0,0,0,0,0,0,0,-1,1945,1828,0,0
728,-804,0,0,0,0,0,0,0,0,0,-1,1952,1828,0,0
735,-804,0,0,0,0,0,0,0,0,0,-1,1959,1828,0,0
742,-804,0,0,0,0,0,0,0,0,0,-1,1966,1828,0,0
749,-804,0,0,0,0,0,0,0,0,0,-1,1973,1828,0,0
756,-804,0,0,0,0,0,0,0,0,0,-1,1980,1828,0,0
763,-804,0,0,0,0,0,0,0,0,0,-1,1987,1828,0,0
770,-804,0,0,0,0,0,0,0,0,0,-1,1994,1828,0,0
777,-804,0,0,0,0,0,0,0,0,0,-1,2001,1828,0,0
784,-804,0,0,0,0,0,0,0,0,0,-1,2008,1828,0,0
791,-804,0,0,0,0,0,0,0,0,0,-1,2015,1828,0,0
798,-804,0,0,0,0,0,0,0,0,0,-1,2022,1828,0,0
805,-804,0,0,0,0,0,0,0,0,0,-1,2029,1828,0,0
812,-804,0,0,0,0,0,0,0,0,0,-1,2036,1828,0,0

